# vtk DataFile Version 2.0
test grain
ASCII
DATASET UNSTRUCTURED_GRID
POINTS 5000 float
0.499951 0.00100067 0.
0.501952 0.00100063 0.
0.503953 0.00100059 0.
0.505954 0.00100056 0.
0.507955 0.00100053 0.
0.509956 0.0010005 0.
0.511957 0.00100046 0.
0.513958 0.0010004 0.
0.515959 0.00100034 0.
0.51796 0.00100038 0.
0.51996 0.00100049 0.
0.521961 0.0010006 0.
0.523962 0.0010006 0.
0.525963 0.00100058 0.
0.527964 0.00100055 0.
0.529964 0.00100046 0.
0.531965 0.00100038 0.
0.533965 0.0010003 0.
0.535967 0.00100025 0.
0.537968 0.00100021 0.
0.539969 0.00100022 0.
0.54197 0.0010003 0.
0.54397 0.00100038 0.
0.545971 0.00100041 0.
0.547971 0.00100043 0.
0.549972 0.00100045 0.
0.551973 0.00100041 0.
0.553973 0.00100037 0.
0.555974 0.00100031 0.
0.557975 0.0010002 0.
0.559976 0.00100009 0.
0.561977 0.00100004 0.
0.563978 0.00100006 0.
0.565979 0.00100008 0.
0.567981 0.00100006 0.
0.569982 0.00100003 0.
0.571984 0.001 0.
0.573985 0.00100003 0.
0.575986 0.00100006 0.
0.577987 0.00100009 0.
0.579989 0.00100012 0.
0.58199 0.00100015 0.
0.583992 0.00100016 0.
0.585992 0.00100016 0.
0.587993 0.00100015 0.
0.589994 0.00100012 0.
0.591996 0.00100008 0.
0.593997 0.00100003 0.
0.595998 0.00100002 0.
0.597999 0.00100001 0.
0.6 0.001 0.
0.602003 0.001 0.
0.604006 0.00100001 0.
0.606009 0.00100001 0.
0.60801 0.00100003 0.
0.610011 0.00100006 0.
0.612012 0.00100007 0.
0.614013 0.00100006 0.
0.616014 0.00100006 0.
0.618015 0.00100007 0.
0.620017 0.00100009 0.
0.622018 0.00100012 0.
0.624019 0.00100009 0.
0.62602 0.00100007 0.
0.628021 0.00100004 0.
0.630022 0.00100002 0.
0.632024 0.00100001 0.
0.634025 0.00100002 0.
0.636025 0.00100012 0.
0.638025 0.00100021 0.
0.640026 0.00100024 0.
0.642028 0.00100021 0.
0.644029 0.00100018 0.
0.64603 0.0010002 0.
0.64803 0.00100023 0.
0.65003 0.00100026 0.
0.652031 0.00100025 0.
0.654031 0.00100024 0.
0.656032 0.00100024 0.
0.658033 0.00100029 0.
0.660035 0.00100034 0.
0.662036 0.00100032 0.
0.664037 0.00100022 0.
0.666038 0.00100012 0.
0.668039 0.00100013 0.
0.67004 0.00100018 0.
0.67204 0.00100022 0.
0.674041 0.00100029 0.
0.676041 0.00100035 0.
0.678041 0.00100041 0.
0.680041 0.00100044 0.
0.682041 0.00100047 0.
0.684042 0.00100047 0.
0.686042 0.00100042 0.
0.688042 0.00100037 0.
0.690043 0.0010003 0.
0.692044 0.00100019 0.
0.694046 0.00100009 0.
0.696046 0.00100018 0.
0.698047 0.00100033 0.
0.499952 0.003002 0.
0.501953 0.00300188 0.
0.503954 0.00300177 0.
0.505955 0.00300167 0.
0.507955 0.00300159 0.
0.509956 0.00300151 0.
0.511957 0.00300138 0.
0.513958 0.0030012 0.
0.515959 0.00300101 0.
0.51796 0.00300115 0.
0.519961 0.00300147 0.
0.521962 0.0030018 0.
0.523962 0.00300179 0.
0.525963 0.00300173 0.
0.527964 0.00300166 0.
0.529965 0.00300139 0.
0.531965 0.00300112 0.
0.533966 0.0030009 0.
0.535967 0.00300076 0.
0.537968 0.00300062 0.
0.539969 0.00300067 0.
0.541969 0.0030009 0.
0.54397 0.00300113 0.
0.545971 0.00300124 0.
0.547971 0.0030013 0.
0.549972 0.00300136 0.
0.551973 0.00300123 0.
0.553973 0.0030011 0.
0.555974 0.00300093 0.
0.557975 0.0030006 0.
0.559976 0.00300027 0.
0.561976 0.00300011 0.
0.563978 0.00300017 0.
0.565979 0.00300023 0.
0.56798 0.00300019 0.
0.569982 0.0030001 0.
0.571983 0.003 0.
0.573984 0.00300008 0.
0.575985 0.00300017 0.
0.577986 0.00300027 0.
0.579988 0.00300035 0.
0.58199 0.00300044 0.
0.583991 0.00300049 0.
0.585992 0.00300047 0.
0.587993 0.00300044 0.
0.589994 0.00300036 0.
0.591996 0.00300023 0.
0.593997 0.0030001 0.
0.595998 0.00300005 0.
0.597999 0.00300003 0.
0.6 0.00300001 0.
0.602003 0.00300001 0.
0.604006 0.00300002 0.
0.606008 0.00300004 0.
0.608009 0.0030001 0.
0.610011 0.00300017 0.
0.612012 0.0030002 0.
0.614013 0.00300019 0.
0.616014 0.00300017 0.
0.618015 0.00300021 0.
0.620017 0.00300028 0.
0.622018 0.00300035 0.
0.624019 0.00300028 0.
0.62602 0.0030002 0.
0.628021 0.00300013 0.
0.630022 0.00300007 0.
0.632023 0.00300002 0.
0.634024 0.00300007 0.
0.636025 0.00300035 0.
0.638025 0.00300064 0.
0.640026 0.00300071 0.
0.642027 0.00300063 0.
0.644029 0.00300055 0.
0.646029 0.0030006 0.
0.64803 0.00300069 0.
0.65003 0.00300077 0.
0.652031 0.00300074 0.
0.654031 0.00300071 0.
0.656032 0.00300072 0.
0.658033 0.00300087 0.
0.660034 0.00300102 0.
0.662035 0.00300096 0.
0.664036 0.00300066 0.
0.666037 0.00300037 0.
0.668038 0.00300038 0.
0.670039 0.00300053 0.
0.672039 0.00300067 0.
0.67404 0.00300086 0.
0.67604 0.00300104 0.
0.678041 0.00300122 0.
0.680041 0.00300131 0.
0.682042 0.00300141 0.
0.684042 0.00300142 0.
0.686043 0.00300127 0.
0.688043 0.00300112 0.
0.690044 0.00300089 0.
0.692045 0.00300058 0.
0.694046 0.00300028 0.
0.696047 0.00300055 0.
0.698048 0.00300098 0.
0.499952 0.00500332 0.
0.501953 0.00500313 0.
0.503954 0.00500295 0.
0.505955 0.00500279 0.
0.507956 0.00500265 0.
0.509956 0.00500252 0.
0.511957 0.0050023 0.
0.513958 0.00500199 0.
0.515959 0.00500168 0.
0.51796 0.00500192 0.
0.519961 0.00500245 0.
0.521962 0.00500299 0.
0.523963 0.00500298 0.
0.525964 0.00500289 0.
0.527964 0.00500277 0.
0.529965 0.00500232 0.
0.531965 0.00500187 0.
0.533966 0.0050015 0.
0.535967 0.00500126 0.
0.537967 0.00500103 0.
0.539968 0.00500112 0.
0.541969 0.0050015 0.
0.54397 0.00500189 0.
0.545971 0.00500206 0.
0.547971 0.00500217 0.
0.549972 0.00500227 0.
0.551973 0.00500205 0.
0.553973 0.00500183 0.
0.555974 0.00500155 0.
0.557974 0.005001 0.
0.559975 0.00500044 0.
0.561976 0.00500018 0.
0.563977 0.00500028 0.
0.565978 0.00500039 0.
0.56798 0.00500032 0.
0.569981 0.00500016 0.
0.571983 0.00500001 0.
0.573984 0.00500013 0.
0.575985 0.00500029 0.
0.577986 0.00500044 0.
0.579987 0.00500059 0.
0.581989 0.00500073 0.
0.58399 0.00500082 0.
0.585991 0.00500078 0.
0.587992 0.00500074 0.
0.589994 0.0050006 0.
0.591995 0.00500038 0.
0.593997 0.00500017 0.
0.595998 0.00500009 0.
0.597999 0.00500005 0.
0.6 0.00500001 0.
0.602003 0.00500002 0.
0.604005 0.00500003 0.
0.606008 0.00500006 0.
0.608009 0.00500017 0.
0.610011 0.00500028 0.
0.612012 0.00500034 0.
0.614013 0.00500031 0.
0.616015 0.00500029 0.
0.618016 0.00500035 0.
0.620017 0.00500046 0.
0.622018 0.00500058 0.
0.624019 0.00500047 0.
0.62602 0.00500034 0.
0.62802 0.00500021 0.
0.630021 0.00500012 0.
0.632022 0.00500002 0.
0.634023 0.00500012 0.
0.636024 0.00500059 0.
0.638025 0.00500106 0.
0.640026 0.00500119 0.
0.642027 0.00500105 0.
0.644028 0.00500092 0.
0.646028 0.00500101 0.
0.648029 0.00500115 0.
0.65003 0.00500129 0.
0.652031 0.00500124 0.
0.654031 0.00500118 0.
0.656032 0.0050012 0.
0.658032 0.00500145 0.
0.660033 0.0050017 0.
0.662034 0.0050016 0.
0.664035 0.00500111 0.
0.666037 0.00500061 0.
0.668037 0.00500062 0.
0.670038 0.00500087 0.
0.672038 0.00500112 0.
0.674039 0.00500142 0.
0.67604 0.00500173 0.
0.678041 0.00500203 0.
0.680041 0.00500219 0.
0.682042 0.00500235 0.
0.684042 0.00500236 0.
0.686043 0.00500212 0.
0.688045 0.00500187 0.
0.690045 0.00500148 0.
0.692046 0.00500097 0.
0.694046 0.00500047 0.
0.696048 0.00500092 0.
0.698049 0.00500163 0.
0.499953 0.00700544 0.
0.501954 0.00700525 0.
0.503955 0.00700504 0.
0.505956 0.00700487 0.
0.507956 0.00700483 0.
0.509957 0.00700479 0.
0.511958 0.00700481 0.
0.513958 0.00700491 0.
0.515959 0.007005 0.
0.51796 0.00700508 0.
0.519961 0.00700516 0.
0.521962 0.00700523 0.
0.523963 0.00700542 0.
0.525964 0.00700563 0.
0.527964 0.00700579 0.
0.529965 0.00700546 0.
0.531965 0.00700513 0.
0.533966 0.00700489 0.
0.535966 0.00700485 0.
0.537967 0.0070048 0.
0.539968 0.00700472 0.
0.541969 0.00700461 0.
0.54397 0.0070045 0.
0.545971 0.00700457 0.
0.547971 0.0070047 0.
0.549972 0.00700482 0.
0.551973 0.00700467 0.
0.553974 0.00700452 0.
0.555974 0.00700437 0.
0.557975 0.00700422 0.
0.559976 0.00700406 0.
0.561977 0.0070038 0.
0.563977 0.00700341 0.
0.565978 0.00700302 0.
0.56798 0.00700295 0.
0.569982 0.00700306 0.
0.571983 0.00700316 0.
0.573985 0.00700309 0.
0.575986 0.007003 0.
0.577987 0.00700294 0.
0.579988 0.0070031 0.
0.581989 0.00700326 0.
0.583991 0.00700337 0.
0.585992 0.00700335 0.
0.587993 0.00700332 0.
0.589994 0.00700321 0.
0.591995 0.00700301 0.
0.593997 0.00700282 0.
0.595998 0.0070028 0.
0.598 0.00700283 0.
0.600001 0.00700286 0.
0.602003 0.00700281 0.
0.604005 0.00700275 0.
0.606007 0.00700274 0.
0.608009 0.00700293 0.
0.61001 0.00700311 0.
0.612012 0.00700329 0.
0.614013 0.00700346 0.
0.616014 0.00700364 0.
0.618015 0.00700348 0.
0.620017 0.00700317 0.
0.622018 0.00700286 0.
0.624019 0.00700295 0.
0.62602 0.00700308 0.
0.62802 0.00700321 0.
0.630021 0.00700323 0.
0.632022 0.00700325 0.
0.634023 0.00700336 0.
0.636024 0.00700367 0.
0.638025 0.00700398 0.
0.640026 0.00700407 0.
0.642026 0.00700397 0.
0.644027 0.00700387 0.
0.646028 0.0070039 0.
0.648029 0.00700397 0.
0.650031 0.00700404 0.
0.652031 0.0070042 0.
0.654032 0.00700436 0.
0.656032 0.00700451 0.
0.658033 0.00700463 0.
0.660034 0.00700475 0.
0.662035 0.00700456 0.
0.664036 0.007004 0.
0.666037 0.00700345 0.
0.668037 0.0070034 0.
0.670037 0.00700358 0.
0.672038 0.00700376 0.
0.674039 0.00700389 0.
0.67604 0.00700402 0.
0.678041 0.00700414 0.
0.680041 0.00700433 0.
0.682041 0.00700451 0.
0.684042 0.00700456 0.
0.686043 0.00700435 0.
0.688044 0.00700415 0.
0.690045 0.00700368 0.
0.692045 0.00700303 0.
0.694046 0.00700237 0.
0.696047 0.00700269 0.
0.698048 0.00700326 0.
0.499954 0.00900758 0.
0.501955 0.00900736 0.
0.503956 0.00900713 0.
0.505957 0.00900696 0.
0.507957 0.00900701 0.
0.509958 0.00900707 0.
0.511958 0.00900732 0.
0.513959 0.00900782 0.
0.515959 0.00900832 0.
0.51796 0.00900824 0.
0.519961 0.00900786 0.
0.521962 0.00900747 0.
0.523963 0.00900787 0.
0.525964 0.00900838 0.
0.527964 0.00900882 0.
0.529965 0.0090086 0.
0.531965 0.00900839 0.
0.533966 0.00900829 0.
0.535966 0.00900843 0.
0.537967 0.00900857 0.
0.539968 0.00900831 0.
0.541969 0.00900771 0.
0.54397 0.00900711 0.
0.545971 0.00900708 0.
0.547972 0.00900722 0.
0.549973 0.00900737 0.
0.551973 0.00900729 0.
0.553974 0.00900721 0.
0.555975 0.0090072 0.
0.557976 0.00900743 0.
0.559977 0.00900767 0.
0.561977 0.00900742 0.
0.563978 0.00900654 0.
0.565978 0.00900565 0.
0.56798 0.00900558 0.
0.569982 0.00900595 0.
0.571984 0.00900631 0.
0.573985 0.00900606 0.
0.575987 0.00900572 0.
0.577988 0.00900544 0.
0.579989 0.00900562 0.
0.58199 0.0090058 0.
0.583991 0.00900592 0.
0.585992 0.00900592 0.
0.587993 0.00900591 0.
0.589994 0.00900582 0.
0.591995 0.00900564 0.
0.593996 0.00900547 0.
0.595998 0.00900551 0.
0.598 0.00900561 0.
0.600002 0.00900571 0.
0.602003 0.00900559 0.
0.604005 0.00900547 0.
0.606006 0.00900543 0.
0.608008 0.00900568 0.
0.61001 0.00900593 0.
0.612011 0.00900623 0.
0.614012 0.00900661 0.
0.616014 0.00900698 0.
0.618015 0.00900661 0.
0.620016 0.00900588 0.
0.622017 0.00900515 0.
0.624018 0.00900543 0.
0.62602 0.00900583 0.
0.628021 0.0090062 0.
0.630021 0.00900633 0.
0.632022 0.00900647 0.
0.634023 0.0090066 0.
0.636024 0.00900675 0.
0.638025 0.0090069 0.
0.640025 0.00900694 0.
0.642026 0.00900689 0.
0.644027 0.00900683 0.
0.646028 0.00900681 0.
0.648029 0.0090068 0.
0.650031 0.0090068 0.
0.652032 0.00900717 0.
0.654032 0.00900754 0.
0.656033 0.00900782 0.
0.658034 0.00900781 0.
0.660034 0.00900779 0.
0.662035 0.00900751 0.
0.664036 0.0090069 0.
0.666036 0.0090063 0.
0.668037 0.00900618 0.
0.670037 0.00900629 0.
0.672037 0.0090064 0.
0.674038 0.00900636 0.
0.67604 0.0090063 0.
0.678041 0.00900626 0.
0.680041 0.00900646 0.
0.682041 0.00900667 0.
0.684042 0.00900675 0.
0.686043 0.00900659 0.
0.688044 0.00900643 0.
0.690044 0.00900589 0.
0.692045 0.00900508 0.
0.694046 0.00900428 0.
0.696047 0.00900446 0.
0.698048 0.00900488 0.
0.499954 0.0110092 0.
0.501955 0.011009 0.
0.503956 0.0110087 0.
0.505957 0.0110085 0.
0.507957 0.0110086 0.
0.509958 0.0110087 0.
0.511958 0.011009 0.
0.513959 0.0110097 0.
0.515959 0.0110103 0.
0.51796 0.0110102 0.
0.519961 0.0110096 0.
0.521962 0.011009 0.
0.523963 0.0110094 0.
0.525963 0.0110099 0.
0.527964 0.0110103 0.
0.529964 0.0110102 0.
0.531965 0.0110102 0.
0.533966 0.0110102 0.
0.535966 0.0110103 0.
0.537967 0.0110105 0.
0.539968 0.0110102 0.
0.541969 0.0110096 0.
0.54397 0.0110089 0.
0.545971 0.0110087 0.
0.547972 0.0110087 0.
0.549973 0.0110086 0.
0.551973 0.0110086 0.
0.553974 0.0110087 0.
0.555975 0.0110087 0.
0.557976 0.0110092 0.
0.559977 0.0110096 0.
0.561977 0.0110094 0.
0.563978 0.0110082 0.
0.565979 0.0110071 0.
0.56798 0.0110069 0.
0.569982 0.0110073 0.
0.571984 0.0110077 0.
0.573985 0.0110075 0.
0.575987 0.0110072 0.
0.577988 0.011007 0.
0.579989 0.0110071 0.
0.58199 0.0110072 0.
0.583991 0.0110072 0.
0.585992 0.0110073 0.
0.587993 0.0110073 0.
0.589995 0.0110072 0.
0.591995 0.0110071 0.
0.593996 0.0110071 0.
0.595998 0.0110071 0.
0.598 0.0110072 0.
0.600002 0.0110073 0.
0.602003 0.0110071 0.
0.604005 0.0110068 0.
0.606006 0.0110067 0.
0.608008 0.0110069 0.
0.610009 0.0110072 0.
0.612011 0.0110075 0.
0.614012 0.011008 0.
0.616013 0.0110085 0.
0.618015 0.0110081 0.
0.620016 0.0110074 0.
0.622017 0.0110067 0.
0.624018 0.011007 0.
0.626019 0.0110074 0.
0.628021 0.0110078 0.
0.630021 0.0110081 0.
0.632022 0.0110084 0.
0.634023 0.0110085 0.
0.636024 0.0110085 0.
0.638025 0.0110084 0.
0.640025 0.0110084 0.
0.642026 0.0110084 0.
0.644027 0.0110083 0.
0.646028 0.0110084 0.
0.648029 0.0110084 0.
0.650031 0.0110084 0.
0.652032 0.0110089 0.
0.654033 0.0110094 0.
0.656033 0.0110097 0.
0.658034 0.0110098 0.
0.660035 0.0110098 0.
0.662035 0.0110095 0.
0.664036 0.0110088 0.
0.666036 0.0110082 0.
0.668037 0.011008 0.
0.670037 0.011008 0.
0.672038 0.011008 0.
0.674039 0.0110079 0.
0.67604 0.0110078 0.
0.678041 0.0110077 0.
0.680041 0.011008 0.
0.682041 0.0110084 0.
0.684042 0.0110085 0.
0.686043 0.0110082 0.
0.688043 0.0110079 0.
0.690044 0.0110073 0.
0.692045 0.0110065 0.
0.694046 0.0110058 0.
0.696047 0.0110059 0.
0.698048 0.0110062 0.
0.499954 0.0130104 0.
0.501955 0.0130101 0.
0.503956 0.0130097 0.
0.505957 0.0130094 0.
0.507957 0.0130095 0.
0.509958 0.0130096 0.
0.511959 0.0130099 0.
0.513959 0.0130105 0.
0.51596 0.013011 0.
0.51796 0.0130108 0.
0.519961 0.0130103 0.
0.521962 0.0130098 0.
0.523962 0.0130099 0.
0.525963 0.0130101 0.
0.527963 0.0130103 0.
0.529964 0.0130104 0.
0.531965 0.0130105 0.
0.533966 0.0130106 0.
0.535967 0.0130106 0.
0.537967 0.0130106 0.
0.539968 0.0130105 0.
0.541969 0.0130101 0.
0.54397 0.0130098 0.
0.545971 0.0130094 0.
0.547972 0.013009 0.
0.549973 0.0130086 0.
0.551973 0.0130087 0.
0.553974 0.0130088 0.
0.555975 0.013009 0.
0.557976 0.0130095 0.
0.559976 0.0130099 0.
0.561977 0.0130097 0.
0.563978 0.0130085 0.
0.565979 0.0130073 0.
0.56798 0.013007 0.
0.569982 0.0130071 0.
0.571983 0.0130073 0.
0.573985 0.0130074 0.
0.575986 0.0130074 0.
0.577987 0.0130075 0.
0.579989 0.0130074 0.
0.58199 0.0130074 0.
0.583991 0.0130074 0.
0.585992 0.0130074 0.
0.587993 0.0130074 0.
0.589995 0.0130074 0.
0.591996 0.0130075 0.
0.593997 0.0130076 0.
0.595998 0.0130077 0.
0.598 0.0130077 0.
0.600002 0.0130078 0.
0.602003 0.0130073 0.
0.604004 0.0130068 0.
0.606005 0.0130064 0.
0.608007 0.0130066 0.
0.610009 0.0130068 0.
0.61201 0.0130071 0.
0.614012 0.0130076 0.
0.616013 0.0130081 0.
0.618015 0.013008 0.
0.620016 0.0130077 0.
0.622017 0.0130074 0.
0.624018 0.0130076 0.
0.626019 0.0130078 0.
0.62802 0.0130081 0.
0.630021 0.0130085 0.
0.632022 0.013009 0.
0.634023 0.0130091 0.
0.636024 0.0130088 0.
0.638025 0.0130085 0.
0.640026 0.0130084 0.
0.642027 0.0130084 0.
0.644027 0.0130084 0.
0.646028 0.0130086 0.
0.64803 0.0130087 0.
0.650031 0.0130088 0.
0.652032 0.0130093 0.
0.654033 0.0130098 0.
0.656034 0.0130102 0.
0.658034 0.0130105 0.
0.660035 0.0130108 0.
0.662036 0.0130106 0.
0.664036 0.0130098 0.
0.666036 0.013009 0.
0.668037 0.0130087 0.
0.670038 0.0130087 0.
0.672038 0.0130086 0.
0.674039 0.0130085 0.
0.67604 0.0130085 0.
0.67804 0.0130084 0.
0.680041 0.013009 0.
0.682042 0.0130096 0.
0.684042 0.0130097 0.
0.686043 0.0130092 0.
0.688044 0.0130086 0.
0.690044 0.013008 0.
0.692045 0.0130074 0.
0.694046 0.0130068 0.
0.696047 0.0130069 0.
0.698048 0.0130072 0.
0.499954 0.0150116 0.
0.501955 0.0150112 0.
0.503956 0.0150107 0.
0.505956 0.0150104 0.
0.507957 0.0150105 0.
0.509958 0.0150106 0.
0.511959 0.0150109 0.
0.513959 0.0150113 0.
0.51596 0.0150117 0.
0.51796 0.0150115 0.
0.519961 0.015011 0.
0.521961 0.0150106 0.
0.523962 0.0150104 0.
0.525962 0.0150103 0.
0.527963 0.0150102 0.
0.529964 0.0150105 0.
0.531965 0.0150108 0.
0.533966 0.015011 0.
0.535967 0.0150109 0.
0.537968 0.0150107 0.
0.539969 0.0150107 0.
0.54197 0.0150107 0.
0.543971 0.0150107 0.
0.545972 0.0150102 0.
0.547972 0.0150094 0.
0.549973 0.0150086 0.
0.551973 0.0150088 0.
0.553974 0.015009 0.
0.555975 0.0150093 0.
0.557975 0.0150097 0.
0.559976 0.0150102 0.
0.561977 0.0150099 0.
0.563978 0.0150087 0.
0.565978 0.0150075 0.
0.56798 0.015007 0.
0.569981 0.0150069 0.
0.571983 0.0150068 0.
0.573984 0.0150072 0.
0.575985 0.0150077 0.
0.577987 0.015008 0.
0.579988 0.0150078 0.
0.58199 0.0150076 0.
0.583991 0.0150075 0.
0.585992 0.0150075 0.
0.587993 0.0150075 0.
0.589994 0.0150076 0.
0.591996 0.0150079 0.
0.593997 0.0150081 0.
0.595999 0.0150082 0.
0.598 0.0150082 0.
0.600002 0.0150082 0.
0.602003 0.0150074 0.
0.604004 0.0150067 0.
0.606005 0.0150062 0.
0.608007 0.0150064 0.
0.610008 0.0150065 0.
0.61201 0.0150068 0.
0.614011 0.0150073 0.
0.616013 0.0150078 0.
0.618014 0.015008 0.
0.620016 0.015008 0.
0.622017 0.0150081 0.
0.624018 0.0150082 0.
0.626019 0.0150082 0.
0.62802 0.0150084 0.
0.630021 0.0150089 0.
0.632022 0.0150095 0.
0.634023 0.0150097 0.
0.636024 0.0150091 0.
0.638026 0.0150086 0.
0.640026 0.0150084 0.
0.642027 0.0150084 0.
0.644028 0.0150085 0.
0.646029 0.0150087 0.
0.64803 0.015009 0.
0.650031 0.0150093 0.
0.652032 0.0150098 0.
0.654033 0.0150102 0.
0.656034 0.0150107 0.
0.658035 0.0150113 0.
0.660035 0.0150118 0.
0.662036 0.0150117 0.
0.664036 0.0150108 0.
0.666037 0.0150099 0.
0.668037 0.0150095 0.
0.670038 0.0150094 0.
0.672039 0.0150093 0.
0.674039 0.0150092 0.
0.67604 0.0150091 0.
0.67804 0.0150092 0.
0.680041 0.01501 0.
0.682042 0.0150108 0.
0.684043 0.015011 0.
0.686043 0.0150101 0.
0.688044 0.0150093 0.
0.690044 0.0150087 0.
0.692045 0.0150083 0.
0.694046 0.0150079 0.
0.696047 0.0150079 0.
0.698048 0.0150081 0.
0.499954 0.0170123 0.
0.501955 0.0170121 0.
0.503956 0.0170119 0.
0.505956 0.0170117 0.
0.507957 0.0170117 0.
0.509957 0.0170118 0.
0.511958 0.017012 0.
0.513959 0.0170122 0.
0.51596 0.0170125 0.
0.51796 0.0170123 0.
0.519961 0.017012 0.
0.521962 0.0170116 0.
0.523962 0.0170116 0.
0.525963 0.0170117 0.
0.527964 0.0170118 0.
0.529965 0.017012 0.
0.531966 0.0170122 0.
0.533967 0.0170122 0.
0.535968 0.017012 0.
0.537969 0.0170117 0.
0.539969 0.0170115 0.
0.54197 0.0170114 0.
0.543971 0.0170113 0.
0.545971 0.0170109 0.
0.547972 0.0170104 0.
0.549972 0.01701 0.
0.551973 0.0170102 0.
0.553974 0.0170103 0.
0.555975 0.0170104 0.
0.557975 0.0170104 0.
0.559976 0.0170103 0.
0.561977 0.0170099 0.
0.563978 0.0170091 0.
0.565979 0.0170082 0.
0.56798 0.0170079 0.
0.569981 0.0170079 0.
0.571983 0.0170079 0.
0.573984 0.0170082 0.
0.575986 0.0170084 0.
0.577987 0.0170086 0.
0.579988 0.0170083 0.
0.58199 0.0170079 0.
0.583991 0.0170077 0.
0.585992 0.0170077 0.
0.587993 0.0170077 0.
0.589994 0.0170079 0.
0.591995 0.0170081 0.
0.593997 0.0170084 0.
0.595998 0.0170084 0.
0.598 0.0170082 0.
0.600001 0.0170081 0.
0.602003 0.0170077 0.
0.604004 0.0170073 0.
0.606005 0.017007 0.
0.608007 0.0170069 0.
0.610008 0.0170068 0.
0.61201 0.0170068 0.
0.614011 0.017007 0.
0.616013 0.0170073 0.
0.618014 0.0170077 0.
0.620015 0.0170081 0.
0.622017 0.0170085 0.
0.624018 0.0170087 0.
0.626019 0.0170089 0.
0.62802 0.0170091 0.
0.630021 0.0170095 0.
0.632022 0.01701 0.
0.634023 0.0170102 0.
0.636024 0.0170097 0.
0.638025 0.0170093 0.
0.640026 0.0170091 0.
0.642027 0.017009 0.
0.644027 0.0170089 0.
0.646028 0.0170096 0.
0.648029 0.0170104 0.
0.65003 0.0170113 0.
0.652031 0.0170113 0.
0.654032 0.0170114 0.
0.656033 0.0170115 0.
0.658034 0.0170119 0.
0.660035 0.0170122 0.
0.662035 0.0170122 0.
0.664036 0.0170118 0.
0.666037 0.0170114 0.
0.668037 0.0170113 0.
0.670038 0.0170114 0.
0.672039 0.0170114 0.
0.674039 0.0170109 0.
0.67604 0.0170103 0.
0.67804 0.0170099 0.
0.680041 0.0170104 0.
0.682042 0.0170109 0.
0.684042 0.0170111 0.
0.686043 0.0170107 0.
0.688044 0.0170102 0.
0.690045 0.0170098 0.
0.692045 0.0170094 0.
0.694046 0.017009 0.
0.696046 0.0170088 0.
0.698047 0.0170087 0.
0.499953 0.0190131 0.
0.501955 0.019013 0.
0.503956 0.019013 0.
0.505956 0.0190129 0.
0.507957 0.019013 0.
0.509957 0.0190131 0.
0.511958 0.0190131 0.
0.513959 0.0190132 0.
0.51596 0.0190133 0.
0.51796 0.0190132 0.
0.519961 0.0190129 0.
0.521962 0.0190126 0.
0.523963 0.0190128 0.
0.525964 0.0190131 0.
0.527965 0.0190134 0.
0.529966 0.0190135 0.
0.531966 0.0190135 0.
0.533967 0.0190134 0.
0.535968 0.019013 0.
0.537969 0.0190126 0.
0.53997 0.0190123 0.
0.541971 0.019012 0.
0.543971 0.0190118 0.
0.545971 0.0190116 0.
0.547972 0.0190115 0.
0.549972 0.0190114 0.
0.551973 0.0190115 0.
0.553974 0.0190116 0.
0.555974 0.0190116 0.
0.557975 0.019011 0.
0.559976 0.0190104 0.
0.561977 0.0190099 0.
0.563978 0.0190094 0.
0.565979 0.0190089 0.
0.56798 0.0190088 0.
0.569982 0.0190089 0.
0.571983 0.0190091 0.
0.573984 0.0190091 0.
0.575986 0.0190092 0.
0.577987 0.0190092 0.
0.579989 0.0190087 0.
0.58199 0.0190082 0.
0.583992 0.0190079 0.
0.585992 0.0190079 0.
0.587993 0.0190079 0.
0.589994 0.0190081 0.
0.591995 0.0190084 0.
0.593996 0.0190087 0.
0.595998 0.0190085 0.
0.597999 0.0190082 0.
0.600001 0.019008 0.
0.602003 0.0190079 0.
0.604005 0.0190079 0.
0.606006 0.0190077 0.
0.608007 0.0190074 0.
0.610008 0.019007 0.
0.612009 0.0190068 0.
0.614011 0.0190068 0.
0.616012 0.0190068 0.
0.618014 0.0190073 0.
0.620015 0.0190081 0.
0.622016 0.0190089 0.
0.624017 0.0190092 0.
0.626019 0.0190095 0.
0.62802 0.0190098 0.
0.630021 0.0190101 0.
0.632022 0.0190105 0.
0.634023 0.0190106 0.
0.636024 0.0190104 0.
0.638025 0.0190101 0.
0.640025 0.0190098 0.
0.642026 0.0190096 0.
0.644027 0.0190094 0.
0.646028 0.0190104 0.
0.648029 0.0190118 0.
0.65003 0.0190132 0.
0.652031 0.0190129 0.
0.654031 0.0190125 0.
0.656032 0.0190123 0.
0.658033 0.0190125 0.
0.660034 0.0190127 0.
0.662035 0.0190128 0.
0.664036 0.0190129 0.
0.666037 0.0190129 0.
0.668037 0.0190131 0.
0.670038 0.0190134 0.
0.672038 0.0190136 0.
0.674039 0.0190126 0.
0.67604 0.0190115 0.
0.67804 0.0190106 0.
0.680041 0.0190108 0.
0.682041 0.0190111 0.
0.684042 0.0190113 0.
0.686043 0.0190112 0.
0.688044 0.0190112 0.
0.690045 0.0190109 0.
0.692045 0.0190105 0.
0.694045 0.0190101 0.
0.696046 0.0190096 0.
0.698047 0.0190092 0.
0.499953 0.0210139 0.
0.501954 0.0210139 0.
0.503955 0.021014 0.
0.505956 0.021014 0.
0.507957 0.0210141 0.
0.509957 0.0210141 0.
0.511957 0.0210141 0.
0.513958 0.0210141 0.
0.515959 0.0210141 0.
0.51796 0.0210139 0.
0.519961 0.0210136 0.
0.521962 0.0210133 0.
0.523963 0.0210136 0.
0.525964 0.0210139 0.
0.527965 0.0210142 0.
0.529966 0.0210142 0.
0.531967 0.0210143 0.
0.533968 0.0210142 0.
0.535968 0.0210137 0.
0.537969 0.0210133 0.
0.53997 0.0210129 0.
0.54197 0.0210126 0.
0.543971 0.0210122 0.
0.545971 0.0210122 0.
0.547972 0.0210123 0.
0.549972 0.0210124 0.
0.551973 0.0210124 0.
0.553974 0.0210124 0.
0.555975 0.0210123 0.
0.557976 0.0210115 0.
0.559976 0.0210108 0.
0.561977 0.0210102 0.
0.563978 0.0210097 0.
0.56598 0.0210093 0.
0.567981 0.0210092 0.
0.569982 0.0210094 0.
0.571983 0.0210096 0.
0.573984 0.0210096 0.
0.575986 0.0210095 0.
0.577987 0.0210094 0.
0.579989 0.0210089 0.
0.58199 0.0210084 0.
0.583992 0.0210081 0.
0.585992 0.0210082 0.
0.587993 0.0210082 0.
0.589994 0.0210084 0.
0.591995 0.0210087 0.
0.593996 0.0210089 0.
0.595997 0.0210087 0.
0.597999 0.0210083 0.
0.600001 0.0210079 0.
0.602003 0.021008 0.
0.604005 0.021008 0.
0.606006 0.021008 0.
0.608007 0.0210076 0.
0.610008 0.0210073 0.
0.612009 0.021007 0.
0.614011 0.0210068 0.
0.616012 0.0210066 0.
0.618013 0.0210072 0.
0.620015 0.0210081 0.
0.622016 0.0210091 0.
0.624017 0.0210095 0.
0.626018 0.0210098 0.
0.628019 0.0210101 0.
0.630021 0.0210104 0.
0.632022 0.0210107 0.
0.634023 0.0210108 0.
0.636024 0.0210108 0.
0.638024 0.0210107 0.
0.640025 0.0210106 0.
0.642026 0.0210104 0.
0.644027 0.0210102 0.
0.646028 0.0210113 0.
0.648029 0.0210128 0.
0.65003 0.0210143 0.
0.65203 0.0210138 0.
0.654031 0.0210134 0.
0.656032 0.021013 0.
0.658033 0.021013 0.
0.660033 0.0210131 0.
0.662034 0.0210132 0.
0.664035 0.0210135 0.
0.666036 0.0210137 0.
0.668037 0.021014 0.
0.670037 0.0210144 0.
0.672038 0.0210147 0.
0.674039 0.0210136 0.
0.676039 0.0210124 0.
0.67804 0.0210113 0.
0.680041 0.0210114 0.
0.682041 0.0210115 0.
0.684042 0.0210116 0.
0.686043 0.0210119 0.
0.688044 0.0210121 0.
0.690045 0.0210119 0.
0.692045 0.0210116 0.
0.694045 0.0210112 0.
0.696046 0.0210106 0.
0.698047 0.02101 0.
0.499953 0.0230147 0.
0.501954 0.0230148 0.
0.503955 0.0230149 0.
0.505956 0.0230149 0.
0.507957 0.023015 0.
0.509957 0.023015 0.
0.511958 0.023015 0.
0.513958 0.0230149 0.
0.515959 0.0230147 0.
0.51796 0.0230145 0.
0.519961 0.0230142 0.
0.521962 0.0230139 0.
0.523963 0.0230139 0.
0.525964 0.023014 0.
0.527965 0.0230141 0.
0.529965 0.0230143 0.
0.531966 0.0230144 0.
0.533967 0.0230144 0.
0.535968 0.023014 0.
0.537969 0.0230136 0.
0.539969 0.0230132 0.
0.54197 0.023013 0.
0.54397 0.0230127 0.
0.545971 0.0230128 0.
0.547972 0.0230129 0.
0.549972 0.0230131 0.
0.551973 0.023013 0.
0.553974 0.0230128 0.
0.555975 0.0230125 0.
0.557976 0.023012 0.
0.559977 0.0230114 0.
0.561978 0.0230107 0.
0.563979 0.02301 0.
0.56598 0.0230093 0.
0.567981 0.0230092 0.
0.569982 0.0230094 0.
0.571983 0.0230096 0.
0.573984 0.0230095 0.
0.575986 0.0230093 0.
0.577987 0.0230092 0.
0.579988 0.0230088 0.
0.58199 0.0230085 0.
0.583991 0.0230083 0.
0.585992 0.0230085 0.
0.587993 0.0230087 0.
0.589994 0.0230088 0.
0.591995 0.023009 0.
0.593996 0.0230091 0.
0.595998 0.0230088 0.
0.597999 0.0230083 0.
0.6 0.0230079 0.
0.602002 0.0230078 0.
0.604004 0.0230078 0.
0.606006 0.0230077 0.
0.608007 0.0230077 0.
0.610008 0.0230076 0.
0.61201 0.0230074 0.
0.614011 0.023007 0.
0.616012 0.0230067 0.
0.618013 0.0230071 0.
0.620014 0.023008 0.
0.622015 0.0230089 0.
0.624017 0.0230094 0.
0.626018 0.0230098 0.
0.628019 0.0230102 0.
0.63002 0.0230104 0.
0.632021 0.0230106 0.
0.634022 0.0230108 0.
0.636023 0.023011 0.
0.638024 0.0230112 0.
0.640025 0.0230113 0.
0.642025 0.0230113 0.
0.644026 0.0230114 0.
0.646027 0.0230123 0.
0.648029 0.0230135 0.
0.65003 0.0230146 0.
0.652031 0.0230143 0.
0.654031 0.0230139 0.
0.656032 0.0230136 0.
0.658033 0.0230135 0.
0.660033 0.0230134 0.
0.662034 0.0230135 0.
0.664035 0.0230136 0.
0.666036 0.0230137 0.
0.668036 0.023014 0.
0.670037 0.0230144 0.
0.672038 0.0230147 0.
0.674039 0.0230139 0.
0.676039 0.0230128 0.
0.67804 0.0230119 0.
0.680041 0.023012 0.
0.682041 0.023012 0.
0.684042 0.0230122 0.
0.686043 0.0230126 0.
0.688043 0.023013 0.
0.690044 0.0230129 0.
0.692045 0.0230126 0.
0.694045 0.0230123 0.
0.696046 0.0230117 0.
0.698047 0.0230111 0.
0.499953 0.0250155 0.
0.501954 0.0250157 0.
0.503955 0.0250157 0.
0.505956 0.0250158 0.
0.507956 0.0250158 0.
0.509957 0.0250159 0.
0.511958 0.0250158 0.
0.513959 0.0250156 0.
0.515959 0.0250154 0.
0.51796 0.0250151 0.
0.519961 0.0250147 0.
0.521962 0.0250144 0.
0.523962 0.0250143 0.
0.525963 0.0250142 0.
0.527964 0.0250141 0.
0.529965 0.0250143 0.
0.531966 0.0250146 0.
0.533967 0.0250147 0.
0.535967 0.0250143 0.
0.537968 0.0250139 0.
0.539969 0.0250136 0.
0.541969 0.0250134 0.
0.54397 0.0250131 0.
0.545971 0.0250133 0.
0.547972 0.0250135 0.
0.549972 0.0250138 0.
0.551974 0.0250135 0.
0.553975 0.0250132 0.
0.555976 0.0250128 0.
0.557977 0.0250124 0.
0.559978 0.0250119 0.
0.561979 0.0250113 0.
0.56398 0.0250103 0.
0.565981 0.0250094 0.
0.567982 0.0250092 0.
0.569983 0.0250093 0.
0.571983 0.0250095 0.
0.573984 0.0250094 0.
0.575985 0.0250092 0.
0.577986 0.025009 0.
0.579988 0.0250088 0.
0.581989 0.0250085 0.
0.583991 0.0250085 0.
0.585992 0.0250088 0.
0.587993 0.0250091 0.
0.589994 0.0250093 0.
0.591996 0.0250093 0.
0.593997 0.0250093 0.
0.595998 0.0250089 0.
0.597999 0.0250084 0.
0.6 0.0250078 0.
0.602002 0.0250077 0.
0.604004 0.0250075 0.
0.606005 0.0250075 0.
0.608007 0.0250077 0.
0.610009 0.0250079 0.
0.61201 0.0250078 0.
0.614011 0.0250072 0.
0.616012 0.0250067 0.
0.618013 0.0250071 0.
0.620014 0.0250079 0.
0.622015 0.0250088 0.
0.624016 0.0250093 0.
0.626017 0.0250098 0.
0.628018 0.0250102 0.
0.63002 0.0250104 0.
0.632021 0.0250105 0.
0.634022 0.0250107 0.
0.636023 0.0250112 0.
0.638024 0.0250116 0.
0.640025 0.025012 0.
0.642025 0.0250123 0.
0.644026 0.0250126 0.
0.646027 0.0250133 0.
0.648028 0.0250141 0.
0.65003 0.0250149 0.
0.652031 0.0250147 0.
0.654031 0.0250145 0.
0.656032 0.0250143 0.
0.658032 0.0250141 0.
0.660033 0.0250138 0.
0.662033 0.0250137 0.
0.664034 0.0250137 0.
0.666035 0.0250137 0.
0.668036 0.025014 0.
0.670037 0.0250144 0.
0.672037 0.0250147 0.
0.674038 0.0250141 0.
0.676039 0.0250133 0.
0.67804 0.0250126 0.
0.680041 0.0250126 0.
0.682041 0.0250126 0.
0.684042 0.0250127 0.
0.686042 0.0250133 0.
0.688043 0.0250138 0.
0.690044 0.0250139 0.
0.692044 0.0250136 0.
0.694045 0.0250134 0.
0.696046 0.0250128 0.
0.698047 0.0250122 0.
0.499952 0.0270161 0.
0.501953 0.0270162 0.
0.503954 0.0270161 0.
0.505955 0.0270161 0.
0.507956 0.0270163 0.
0.509957 0.0270164 0.
0.511957 0.0270163 0.
0.513958 0.0270158 0.
0.515959 0.0270153 0.
0.51796 0.027015 0.
0.519961 0.0270149 0.
0.521962 0.0270147 0.
0.523963 0.0270148 0.
0.525963 0.0270148 0.
0.527964 0.0270149 0.
0.529965 0.0270148 0.
0.531966 0.0270148 0.
0.533967 0.0270147 0.
0.535967 0.0270146 0.
0.537968 0.0270144 0.
0.539969 0.0270142 0.
0.541969 0.0270139 0.
0.54397 0.0270135 0.
0.545971 0.0270136 0.
0.547971 0.0270138 0.
0.549972 0.0270139 0.
0.551973 0.0270134 0.
0.553974 0.0270128 0.
0.555976 0.0270122 0.
0.557977 0.027012 0.
0.559977 0.0270118 0.
0.561978 0.0270114 0.
0.56398 0.0270107 0.
0.565981 0.02701 0.
0.567982 0.0270096 0.
0.569983 0.0270094 0.
0.571984 0.0270092 0.
0.573985 0.027009 0.
0.575985 0.0270088 0.
0.577986 0.0270086 0.
0.579988 0.0270083 0.
0.581989 0.027008 0.
0.583991 0.027008 0.
0.585992 0.0270085 0.
0.587993 0.027009 0.
0.589994 0.0270091 0.
0.591995 0.0270088 0.
0.593997 0.0270086 0.
0.595998 0.0270083 0.
0.597999 0.0270079 0.
0.6 0.0270076 0.
0.602002 0.0270073 0.
0.604004 0.027007 0.
0.606005 0.0270069 0.
0.608007 0.0270072 0.
0.610009 0.0270076 0.
0.61201 0.0270077 0.
0.614011 0.0270075 0.
0.616011 0.0270073 0.
0.618012 0.0270076 0.
0.620013 0.0270081 0.
0.622015 0.0270086 0.
0.624016 0.0270093 0.
0.626017 0.0270099 0.
0.628018 0.0270105 0.
0.630019 0.0270106 0.
0.63202 0.0270107 0.
0.634021 0.027011 0.
0.636023 0.0270114 0.
0.638024 0.0270118 0.
0.640024 0.0270121 0.
0.642025 0.0270122 0.
0.644026 0.0270123 0.
0.646027 0.0270131 0.
0.648028 0.0270142 0.
0.65003 0.0270152 0.
0.65203 0.0270149 0.
0.654031 0.0270146 0.
0.656032 0.0270143 0.
0.658033 0.0270144 0.
0.660033 0.0270144 0.
0.662034 0.0270144 0.
0.664034 0.0270143 0.
0.666035 0.0270142 0.
0.668035 0.0270142 0.
0.670036 0.0270144 0.
0.672037 0.0270146 0.
0.674038 0.0270141 0.
0.676039 0.0270135 0.
0.67804 0.027013 0.
0.680041 0.0270131 0.
0.682041 0.0270133 0.
0.684042 0.0270136 0.
0.686043 0.027014 0.
0.688043 0.0270143 0.
0.690044 0.0270144 0.
0.692045 0.0270142 0.
0.694045 0.027014 0.
0.696046 0.0270135 0.
0.698047 0.027013 0.
0.499952 0.0290168 0.
0.501953 0.0290166 0.
0.503954 0.0290165 0.
0.505955 0.0290165 0.
0.507955 0.0290167 0.
0.509956 0.029017 0.
0.511957 0.0290168 0.
0.513957 0.029016 0.
0.515958 0.0290152 0.
0.517959 0.0290149 0.
0.519961 0.029015 0.
0.521962 0.0290151 0.
0.523963 0.0290153 0.
0.525963 0.0290155 0.
0.527964 0.0290156 0.
0.529965 0.0290153 0.
0.531966 0.029015 0.
0.533967 0.0290148 0.
0.535968 0.0290149 0.
0.537968 0.029015 0.
0.539969 0.0290148 0.
0.54197 0.0290144 0.
0.54397 0.0290139 0.
0.54597 0.0290139 0.
0.547971 0.029014 0.
0.549971 0.0290141 0.
0.551972 0.0290132 0.
0.553974 0.0290123 0.
0.555975 0.0290117 0.
0.557976 0.0290117 0.
0.559977 0.0290117 0.
0.561978 0.0290116 0.
0.563979 0.0290111 0.
0.56598 0.0290106 0.
0.567982 0.02901 0.
0.569983 0.0290094 0.
0.571984 0.0290088 0.
0.573985 0.0290086 0.
0.575986 0.0290083 0.
0.577986 0.0290081 0.
0.579988 0.0290078 0.
0.581989 0.0290075 0.
0.58399 0.0290075 0.
0.585992 0.0290082 0.
0.587993 0.0290088 0.
0.589994 0.0290089 0.
0.591995 0.0290083 0.
0.593996 0.0290078 0.
0.595998 0.0290076 0.
0.597999 0.0290075 0.
0.6 0.0290074 0.
0.602002 0.029007 0.
0.604004 0.0290066 0.
0.606005 0.0290063 0.
0.608007 0.0290068 0.
0.610009 0.0290072 0.
0.61201 0.0290076 0.
0.61401 0.0290077 0.
0.616011 0.0290078 0.
0.618012 0.029008 0.
0.620013 0.0290082 0.
0.622014 0.0290085 0.
0.624015 0.0290092 0.
0.626016 0.0290101 0.
0.628017 0.0290108 0.
0.630019 0.0290109 0.
0.63202 0.029011 0.
0.634021 0.0290112 0.
0.636022 0.0290116 0.
0.638023 0.029012 0.
0.640024 0.0290121 0.
0.642025 0.029012 0.
0.644026 0.0290119 0.
0.646027 0.0290129 0.
0.648028 0.0290142 0.
0.650029 0.0290155 0.
0.65203 0.0290151 0.
0.654031 0.0290146 0.
0.656032 0.0290144 0.
0.658033 0.0290147 0.
0.660033 0.029015 0.
0.662034 0.0290151 0.
0.664034 0.0290148 0.
0.666034 0.0290146 0.
0.668035 0.0290145 0.
0.670036 0.0290145 0.
0.672036 0.0290145 0.
0.674037 0.0290141 0.
0.676039 0.0290136 0.
0.67804 0.0290133 0.
0.68004 0.0290137 0.
0.682041 0.0290141 0.
0.684042 0.0290144 0.
0.686043 0.0290146 0.
0.688044 0.0290148 0.
0.690044 0.0290148 0.
0.692045 0.0290147 0.
0.694045 0.0290146 0.
0.696046 0.0290143 0.
0.698047 0.0290139 0.
0.499952 0.0310176 0.
0.501953 0.0310173 0.
0.503954 0.031017 0.
0.505954 0.0310168 0.
0.507955 0.0310171 0.
0.509956 0.0310175 0.
0.511957 0.0310173 0.
0.513957 0.0310164 0.
0.515958 0.0310156 0.
0.517959 0.0310153 0.
0.51996 0.0310154 0.
0.521962 0.0310156 0.
0.523963 0.0310158 0.
0.525963 0.0310159 0.
0.527964 0.031016 0.
0.529965 0.0310156 0.
0.531966 0.0310152 0.
0.533967 0.0310149 0.
0.535967 0.0310151 0.
0.537968 0.0310152 0.
0.539969 0.0310151 0.
0.541969 0.0310148 0.
0.54397 0.0310145 0.
0.54597 0.0310144 0.
0.54797 0.0310144 0.
0.549971 0.0310143 0.
0.551972 0.0310133 0.
0.553974 0.0310123 0.
0.555975 0.0310115 0.
0.557976 0.0310117 0.
0.559977 0.0310119 0.
0.561978 0.0310118 0.
0.563979 0.0310114 0.
0.56598 0.031011 0.
0.567981 0.0310103 0.
0.569983 0.0310096 0.
0.571984 0.0310088 0.
0.573985 0.0310085 0.
0.575986 0.0310084 0.
0.577987 0.0310081 0.
0.579988 0.0310078 0.
0.581989 0.0310074 0.
0.58399 0.0310074 0.
0.585992 0.031008 0.
0.587993 0.0310087 0.
0.589994 0.0310087 0.
0.591995 0.0310081 0.
0.593996 0.0310075 0.
0.595998 0.0310074 0.
0.597999 0.0310074 0.
0.600001 0.0310074 0.
0.602002 0.0310068 0.
0.604004 0.0310063 0.
0.606005 0.031006 0.
0.608007 0.0310064 0.
0.610008 0.0310069 0.
0.612009 0.0310074 0.
0.61401 0.0310079 0.
0.61601 0.0310084 0.
0.618011 0.0310085 0.
0.620013 0.0310086 0.
0.622014 0.0310086 0.
0.624015 0.0310094 0.
0.626016 0.0310103 0.
0.628017 0.031011 0.
0.630019 0.031011 0.
0.63202 0.031011 0.
0.634021 0.0310112 0.
0.636022 0.0310116 0.
0.638023 0.0310119 0.
0.640024 0.0310121 0.
0.642025 0.0310121 0.
0.644026 0.031012 0.
0.646027 0.031013 0.
0.648028 0.0310143 0.
0.650029 0.0310155 0.
0.65203 0.0310152 0.
0.654031 0.031015 0.
0.656032 0.0310149 0.
0.658033 0.0310153 0.
0.660033 0.0310156 0.
0.662034 0.0310156 0.
0.664034 0.0310154 0.
0.666034 0.0310152 0.
0.668035 0.031015 0.
0.670036 0.0310149 0.
0.672036 0.0310148 0.
0.674037 0.0310144 0.
0.676039 0.031014 0.
0.67804 0.0310137 0.
0.680041 0.0310143 0.
0.682041 0.0310149 0.
0.684042 0.0310154 0.
0.686043 0.0310154 0.
0.688044 0.0310155 0.
0.690044 0.0310155 0.
0.692045 0.0310154 0.
0.694045 0.0310153 0.
0.696046 0.0310149 0.
0.698047 0.0310146 0.
0.499952 0.0330186 0.
0.501953 0.0330181 0.
0.503954 0.0330175 0.
0.505955 0.0330171 0.
0.507955 0.0330175 0.
0.509956 0.0330179 0.
0.511956 0.0330178 0.
0.513957 0.0330171 0.
0.515958 0.0330164 0.
0.517959 0.0330162 0.
0.51996 0.0330162 0.
0.521961 0.0330162 0.
0.523962 0.0330162 0.
0.525963 0.0330162 0.
0.527963 0.0330161 0.
0.529964 0.0330158 0.
0.531965 0.0330154 0.
0.533966 0.0330152 0.
0.535967 0.0330152 0.
0.537967 0.0330152 0.
0.539968 0.0330152 0.
0.541968 0.0330152 0.
0.543969 0.0330152 0.
0.54597 0.0330151 0.
0.54797 0.0330149 0.
0.549971 0.0330147 0.
0.551972 0.0330136 0.
0.553974 0.0330125 0.
0.555975 0.0330117 0.
0.557976 0.0330119 0.
0.559977 0.0330122 0.
0.561978 0.0330121 0.
0.563979 0.0330117 0.
0.56598 0.0330112 0.
0.567982 0.0330106 0.
0.569983 0.0330098 0.
0.571984 0.0330091 0.
0.573985 0.0330089 0.
0.575986 0.0330088 0.
0.577987 0.0330087 0.
0.579988 0.0330082 0.
0.58199 0.0330078 0.
0.583991 0.0330076 0.
0.585992 0.0330081 0.
0.587993 0.0330086 0.
0.589994 0.0330085 0.
0.591996 0.0330081 0.
0.593997 0.0330077 0.
0.595998 0.0330076 0.
0.597999 0.0330076 0.
0.6 0.0330076 0.
0.602002 0.0330069 0.
0.604003 0.0330063 0.
0.606005 0.0330058 0.
0.608006 0.0330062 0.
0.610007 0.0330065 0.
0.612008 0.0330071 0.
0.614009 0.033008 0.
0.61601 0.033009 0.
0.618011 0.0330092 0.
0.620013 0.0330092 0.
0.622014 0.0330091 0.
0.624015 0.0330097 0.
0.626017 0.0330105 0.
0.628018 0.0330111 0.
0.630019 0.033011 0.
0.632021 0.0330109 0.
0.634022 0.033011 0.
0.636022 0.0330113 0.
0.638023 0.0330116 0.
0.640024 0.033012 0.
0.642025 0.0330123 0.
0.644026 0.0330127 0.
0.646027 0.0330134 0.
0.648028 0.0330143 0.
0.650029 0.0330152 0.
0.65203 0.0330155 0.
0.65403 0.0330158 0.
0.656031 0.033016 0.
0.658032 0.033016 0.
0.660033 0.0330161 0.
0.662034 0.033016 0.
0.664034 0.0330159 0.
0.666035 0.0330158 0.
0.668035 0.0330157 0.
0.670036 0.0330155 0.
0.672036 0.0330153 0.
0.674038 0.033015 0.
0.676039 0.0330146 0.
0.67804 0.0330143 0.
0.680041 0.0330151 0.
0.682042 0.0330159 0.
0.684042 0.0330164 0.
0.686043 0.0330164 0.
0.688043 0.0330163 0.
0.690044 0.0330162 0.
0.692044 0.0330161 0.
0.694045 0.0330159 0.
0.696046 0.0330155 0.
0.698046 0.0330151 0.
0.499953 0.0350197 0.
0.501954 0.035019 0.
0.503954 0.0350181 0.
0.505955 0.0350175 0.
0.507955 0.0350179 0.
0.509956 0.0350184 0.
0.511956 0.0350184 0.
0.513957 0.0350179 0.
0.515958 0.0350173 0.
0.517959 0.0350171 0.
0.51996 0.0350169 0.
0.521961 0.0350168 0.
0.523962 0.0350166 0.
0.525962 0.0350164 0.
0.527963 0.0350162 0.
0.529964 0.0350159 0.
0.531965 0.0350156 0.
0.533965 0.0350154 0.
0.535966 0.0350153 0.
0.537966 0.0350152 0.
0.539967 0.0350154 0.
0.541968 0.0350156 0.
0.543969 0.0350159 0.
0.545969 0.0350157 0.
0.54797 0.0350153 0.
0.549972 0.035015 0.
0.551973 0.0350139 0.
0.553974 0.0350128 0.
0.555975 0.0350119 0.
0.557976 0.0350122 0.
0.559976 0.0350125 0.
0.561978 0.0350125 0.
0.563979 0.035012 0.
0.56598 0.0350114 0.
0.567982 0.0350108 0.
0.569983 0.0350101 0.
0.571984 0.0350094 0.
0.573985 0.0350093 0.
0.575987 0.0350093 0.
0.577988 0.0350092 0.
0.579989 0.0350086 0.
0.58199 0.0350081 0.
0.583991 0.0350078 0.
0.585992 0.0350081 0.
0.587993 0.0350084 0.
0.589995 0.0350084 0.
0.591996 0.0350081 0.
0.593997 0.0350079 0.
0.595998 0.0350078 0.
0.597999 0.0350078 0.
0.6 0.0350078 0.
0.602002 0.035007 0.
0.604003 0.0350063 0.
0.606004 0.0350057 0.
0.608005 0.0350059 0.
0.610006 0.0350061 0.
0.612007 0.0350069 0.
0.614008 0.0350082 0.
0.61601 0.0350096 0.
0.618011 0.0350099 0.
0.620013 0.0350098 0.
0.622014 0.0350096 0.
0.624015 0.0350101 0.
0.626017 0.0350107 0.
0.628018 0.0350111 0.
0.63002 0.0350109 0.
0.632021 0.0350108 0.
0.634022 0.0350107 0.
0.636023 0.035011 0.
0.638023 0.0350113 0.
0.640024 0.0350119 0.
0.642025 0.0350126 0.
0.644026 0.0350133 0.
0.646027 0.0350139 0.
0.648028 0.0350144 0.
0.650029 0.0350149 0.
0.652029 0.0350157 0.
0.65403 0.0350165 0.
0.656031 0.035017 0.
0.658032 0.0350168 0.
0.660033 0.0350165 0.
0.662034 0.0350164 0.
0.664034 0.0350165 0.
0.666035 0.0350165 0.
0.668036 0.0350163 0.
0.670036 0.0350161 0.
0.672037 0.0350159 0.
0.674038 0.0350155 0.
0.67604 0.0350152 0.
0.678041 0.0350149 0.
0.680042 0.0350159 0.
0.682042 0.0350168 0.
0.684042 0.0350174 0.
0.686043 0.0350173 0.
0.688043 0.0350172 0.
0.690043 0.035017 0.
0.692044 0.0350168 0.
0.694044 0.0350166 0.
0.696045 0.0350161 0.
0.698046 0.0350156 0.
0.499954 0.0370198 0.
0.501954 0.0370193 0.
0.503955 0.0370187 0.
0.505955 0.0370183 0.
0.507956 0.0370184 0.
0.509956 0.0370185 0.
0.511957 0.0370184 0.
0.513958 0.0370181 0.
0.515958 0.0370177 0.
0.517959 0.0370175 0.
0.51996 0.0370173 0.
0.521961 0.0370172 0.
0.523962 0.037017 0.
0.525962 0.0370168 0.
0.527963 0.0370165 0.
0.529964 0.0370163 0.
0.531965 0.0370161 0.
0.533966 0.0370159 0.
0.535966 0.0370157 0.
0.537967 0.0370156 0.
0.539968 0.0370155 0.
0.541969 0.0370154 0.
0.54397 0.0370153 0.
0.545971 0.0370152 0.
0.547971 0.0370151 0.
0.549972 0.0370149 0.
0.551973 0.0370139 0.
0.553974 0.0370129 0.
0.555975 0.037012 0.
0.557976 0.0370122 0.
0.559977 0.0370124 0.
0.561978 0.0370123 0.
0.563979 0.0370118 0.
0.565981 0.0370114 0.
0.567982 0.0370108 0.
0.569983 0.0370103 0.
0.571984 0.0370098 0.
0.573985 0.0370096 0.
0.575986 0.0370095 0.
0.577988 0.0370093 0.
0.579989 0.0370089 0.
0.58199 0.0370085 0.
0.583991 0.0370082 0.
0.585992 0.0370081 0.
0.587993 0.037008 0.
0.589994 0.0370079 0.
0.591996 0.0370078 0.
0.593997 0.0370077 0.
0.595998 0.0370077 0.
0.597999 0.0370078 0.
0.600001 0.0370078 0.
0.602002 0.0370071 0.
0.604003 0.0370063 0.
0.606005 0.0370058 0.
0.608005 0.0370059 0.
0.610006 0.037006 0.
0.612007 0.0370065 0.
0.614009 0.0370075 0.
0.61601 0.0370085 0.
0.618012 0.0370088 0.
0.620013 0.0370089 0.
0.622014 0.037009 0.
0.624016 0.0370095 0.
0.626017 0.03701 0.
0.628018 0.0370105 0.
0.630019 0.0370106 0.
0.632021 0.0370107 0.
0.634022 0.0370108 0.
0.636023 0.0370111 0.
0.638023 0.0370114 0.
0.640024 0.0370118 0.
0.642025 0.0370124 0.
0.644026 0.0370129 0.
0.646027 0.0370136 0.
0.648028 0.0370142 0.
0.650029 0.0370149 0.
0.652029 0.0370155 0.
0.65403 0.0370161 0.
0.656031 0.0370165 0.
0.658032 0.0370164 0.
0.660033 0.0370162 0.
0.662034 0.0370163 0.
0.664034 0.0370166 0.
0.666035 0.0370168 0.
0.668036 0.0370167 0.
0.670036 0.0370164 0.
0.672037 0.037016 0.
0.674038 0.0370158 0.
0.676039 0.0370155 0.
0.67804 0.0370154 0.
0.680041 0.0370164 0.
0.682041 0.0370173 0.
0.684042 0.0370178 0.
0.686042 0.0370175 0.
0.688043 0.0370171 0.
0.690044 0.0370169 0.
0.692044 0.0370167 0.
0.694045 0.0370166 0.
0.696046 0.0370163 0.
0.698046 0.037016 0.
0.499955 0.03902 0.
0.501955 0.0390196 0.
0.503955 0.0390193 0.
0.505955 0.039019 0.
0.507956 0.0390189 0.
0.509957 0.0390187 0.
0.511957 0.0390185 0.
0.513958 0.0390183 0.
0.515959 0.039018 0.
0.51796 0.0390179 0.
0.51996 0.0390177 0.
0.521961 0.0390176 0.
0.523962 0.0390174 0.
0.525962 0.0390171 0.
0.527963 0.0390169 0.
0.529964 0.0390167 0.
0.531965 0.0390166 0.
0.533966 0.0390164 0.
0.535967 0.0390161 0.
0.537968 0.0390159 0.
0.539969 0.0390156 0.
0.54197 0.0390152 0.
0.543971 0.0390147 0.
0.545972 0.0390147 0.
0.547972 0.0390148 0.
0.549973 0.0390149 0.
0.551974 0.0390139 0.
0.553975 0.039013 0.
0.555976 0.0390122 0.
0.557977 0.0390122 0.
0.559978 0.0390123 0.
0.561979 0.0390121 0.
0.56398 0.0390117 0.
0.565981 0.0390113 0.
0.567982 0.0390109 0.
0.569983 0.0390105 0.
0.571984 0.0390102 0.
0.573985 0.0390099 0.
0.575986 0.0390096 0.
0.577987 0.0390094 0.
0.579989 0.0390091 0.
0.58199 0.0390089 0.
0.583991 0.0390085 0.
0.585992 0.039008 0.
0.587993 0.0390075 0.
0.589994 0.0390074 0.
0.591995 0.0390075 0.
0.593996 0.0390076 0.
0.595998 0.0390077 0.
0.597999 0.0390078 0.
0.600001 0.0390079 0.
0.602002 0.0390071 0.
0.604004 0.0390064 0.
0.606005 0.0390058 0.
0.608006 0.0390058 0.
0.610007 0.0390058 0.
0.612008 0.0390061 0.
0.61401 0.0390067 0.
0.616011 0.0390073 0.
0.618012 0.0390077 0.
0.620014 0.039008 0.
0.622015 0.0390083 0.
0.624016 0.0390089 0.
0.626017 0.0390094 0.
0.628018 0.0390099 0.
0.630019 0.0390102 0.
0.63202 0.0390106 0.
0.634022 0.0390109 0.
0.636023 0.0390112 0.
0.638023 0.0390115 0.
0.640024 0.0390118 0.
0.642025 0.0390122 0.
0.644026 0.0390125 0.
0.646027 0.0390132 0.
0.648028 0.039014 0.
0.650029 0.0390148 0.
0.652029 0.0390153 0.
0.65403 0.0390157 0.
0.65603 0.0390161 0.
0.658031 0.039016 0.
0.660032 0.0390159 0.
0.662033 0.0390161 0.
0.664034 0.0390166 0.
0.666035 0.0390172 0.
0.668035 0.039017 0.
0.670036 0.0390166 0.
0.672037 0.0390162 0.
0.674038 0.039016 0.
0.676038 0.0390159 0.
0.678039 0.0390159 0.
0.68004 0.0390169 0.
0.68204 0.0390178 0.
0.684041 0.0390182 0.
0.686042 0.0390176 0.
0.688043 0.039017 0.
0.690044 0.0390167 0.
0.692045 0.0390166 0.
0.694045 0.0390166 0.
0.696046 0.0390165 0.
0.698046 0.0390164 0.
0.499956 0.0410207 0.
0.501955 0.0410202 0.
0.503955 0.0410199 0.
0.505956 0.0410196 0.
0.507956 0.0410193 0.
0.509957 0.041019 0.
0.511957 0.0410188 0.
0.513958 0.0410187 0.
0.515959 0.0410185 0.
0.51796 0.0410184 0.
0.51996 0.0410182 0.
0.521961 0.041018 0.
0.523962 0.0410178 0.
0.525962 0.0410175 0.
0.527963 0.0410172 0.
0.529964 0.0410171 0.
0.531965 0.041017 0.
0.533966 0.0410168 0.
0.535967 0.0410164 0.
0.537968 0.041016 0.
0.539969 0.0410156 0.
0.54197 0.041015 0.
0.543971 0.0410145 0.
0.545972 0.0410146 0.
0.547973 0.0410148 0.
0.549973 0.041015 0.
0.551974 0.0410141 0.
0.553975 0.0410131 0.
0.555976 0.0410123 0.
0.557977 0.0410123 0.
0.559978 0.0410122 0.
0.561979 0.041012 0.
0.56398 0.0410116 0.
0.565981 0.0410111 0.
0.567982 0.0410108 0.
0.569983 0.0410106 0.
0.571984 0.0410104 0.
0.573985 0.04101 0.
0.575986 0.0410096 0.
0.577987 0.0410092 0.
0.579988 0.041009 0.
0.58199 0.0410089 0.
0.583991 0.0410085 0.
0.585992 0.0410079 0.
0.587993 0.0410072 0.
0.589994 0.041007 0.
0.591995 0.0410072 0.
0.593996 0.0410073 0.
0.595998 0.0410075 0.
0.597999 0.0410076 0.
0.600001 0.0410077 0.
0.602002 0.041007 0.
0.604004 0.0410064 0.
0.606005 0.0410059 0.
0.608006 0.0410058 0.
0.610007 0.0410057 0.
0.612009 0.0410057 0.
0.61401 0.041006 0.
0.616012 0.0410063 0.
0.618013 0.0410069 0.
0.620014 0.0410075 0.
0.622015 0.0410081 0.
0.624016 0.0410086 0.
0.626017 0.041009 0.
0.628018 0.0410094 0.
0.630019 0.04101 0.
0.632021 0.0410105 0.
0.634022 0.0410109 0.
0.636023 0.0410112 0.
0.638024 0.0410115 0.
0.640024 0.0410118 0.
0.642025 0.0410121 0.
0.644026 0.0410124 0.
0.646027 0.0410132 0.
0.648028 0.041014 0.
0.650029 0.0410148 0.
0.65203 0.0410152 0.
0.65403 0.0410155 0.
0.656031 0.0410158 0.
0.658032 0.0410158 0.
0.660033 0.0410158 0.
0.662033 0.0410161 0.
0.664034 0.0410167 0.
0.666035 0.0410173 0.
0.668036 0.0410172 0.
0.670037 0.0410169 0.
0.672037 0.0410166 0.
0.674038 0.0410166 0.
0.676038 0.0410166 0.
0.678039 0.0410167 0.
0.68004 0.0410174 0.
0.68204 0.0410182 0.
0.684041 0.0410184 0.
0.686042 0.0410179 0.
0.688043 0.0410173 0.
0.690044 0.041017 0.
0.692045 0.0410169 0.
0.694045 0.0410168 0.
0.696046 0.0410168 0.
0.698046 0.0410168 0.
0.499956 0.0430221 0.
0.501956 0.0430213 0.
0.503956 0.0430206 0.
0.505956 0.04302 0.
0.507956 0.0430197 0.
0.509957 0.0430195 0.
0.511957 0.0430193 0.
0.513958 0.0430192 0.
0.515959 0.0430192 0.
0.517959 0.043019 0.
0.51996 0.0430188 0.
0.521961 0.0430186 0.
0.523962 0.0430182 0.
0.525962 0.0430178 0.
0.527963 0.0430174 0.
0.529964 0.0430174 0.
0.531965 0.0430174 0.
0.533966 0.0430171 0.
0.535966 0.0430166 0.
0.537967 0.043016 0.
0.539968 0.0430155 0.
0.54197 0.043015 0.
0.543971 0.0430146 0.
0.545972 0.0430147 0.
0.547972 0.043015 0.
0.549973 0.0430153 0.
0.551974 0.0430143 0.
0.553975 0.0430132 0.
0.555976 0.0430124 0.
0.557977 0.0430123 0.
0.559978 0.0430123 0.
0.561979 0.043012 0.
0.56398 0.0430115 0.
0.56598 0.0430109 0.
0.567981 0.0430106 0.
0.569982 0.0430105 0.
0.571983 0.0430103 0.
0.573985 0.0430098 0.
0.575986 0.0430092 0.
0.577987 0.0430087 0.
0.579988 0.0430086 0.
0.58199 0.0430085 0.
0.583991 0.0430082 0.
0.585992 0.0430076 0.
0.587993 0.0430071 0.
0.589994 0.0430069 0.
0.591995 0.043007 0.
0.593996 0.0430071 0.
0.595998 0.0430071 0.
0.597999 0.0430072 0.
0.600001 0.0430072 0.
0.602003 0.0430068 0.
0.604004 0.0430064 0.
0.606006 0.0430061 0.
0.608007 0.0430058 0.
0.610008 0.0430055 0.
0.612009 0.0430054 0.
0.61401 0.0430054 0.
0.616012 0.0430055 0.
0.618013 0.0430062 0.
0.620014 0.0430073 0.
0.622015 0.0430084 0.
0.624016 0.0430087 0.
0.626018 0.0430089 0.
0.628019 0.0430091 0.
0.63002 0.0430098 0.
0.632021 0.0430104 0.
0.634022 0.0430109 0.
0.636023 0.0430111 0.
0.638024 0.0430114 0.
0.640024 0.0430117 0.
0.642025 0.0430121 0.
0.644026 0.0430125 0.
0.646027 0.0430133 0.
0.648029 0.0430141 0.
0.65003 0.043015 0.
0.652031 0.0430152 0.
0.654032 0.0430155 0.
0.656032 0.0430157 0.
0.658033 0.0430158 0.
0.660033 0.0430159 0.
0.662034 0.0430162 0.
0.664035 0.0430167 0.
0.666035 0.0430172 0.
0.668036 0.0430173 0.
0.670037 0.0430172 0.
0.672037 0.0430172 0.
0.674038 0.0430173 0.
0.676039 0.0430175 0.
0.67804 0.0430177 0.
0.68004 0.043018 0.
0.682041 0.0430183 0.
0.684042 0.0430185 0.
0.686043 0.0430183 0.
0.688044 0.0430181 0.
0.690044 0.0430179 0.
0.692045 0.0430176 0.
0.694045 0.0430173 0.
0.696045 0.0430171 0.
0.698046 0.043017 0.
0.499956 0.0450234 0.
0.501956 0.0450223 0.
0.503956 0.0450212 0.
0.505957 0.0450204 0.
0.507957 0.0450201 0.
0.509957 0.0450199 0.
0.511957 0.0450198 0.
0.513958 0.0450198 0.
0.515958 0.0450198 0.
0.517959 0.0450196 0.
0.51996 0.0450194 0.
0.521961 0.0450191 0.
0.523962 0.0450187 0.
0.525962 0.0450181 0.
0.527963 0.0450177 0.
0.529964 0.0450177 0.
0.531964 0.0450177 0.
0.533965 0.0450175 0.
0.535966 0.0450167 0.
0.537967 0.0450159 0.
0.539968 0.0450154 0.
0.541969 0.045015 0.
0.54397 0.0450147 0.
0.545971 0.0450149 0.
0.547972 0.0450152 0.
0.549973 0.0450156 0.
0.551974 0.0450145 0.
0.553975 0.0450134 0.
0.555975 0.0450125 0.
0.557976 0.0450124 0.
0.559977 0.0450123 0.
0.561978 0.045012 0.
0.563979 0.0450113 0.
0.56598 0.0450107 0.
0.567981 0.0450104 0.
0.569982 0.0450103 0.
0.571983 0.0450103 0.
0.573984 0.0450096 0.
0.575985 0.0450089 0.
0.577987 0.0450083 0.
0.579988 0.0450082 0.
0.581989 0.045008 0.
0.583991 0.0450078 0.
0.585992 0.0450074 0.
0.587993 0.045007 0.
0.589994 0.0450068 0.
0.591995 0.0450068 0.
0.593996 0.0450068 0.
0.595998 0.0450068 0.
0.597999 0.0450068 0.
0.600001 0.0450068 0.
0.602003 0.0450066 0.
0.604005 0.0450064 0.
0.606006 0.0450062 0.
0.608007 0.0450058 0.
0.610008 0.0450053 0.
0.61201 0.045005 0.
0.614011 0.0450048 0.
0.616012 0.0450046 0.
0.618013 0.0450056 0.
0.620014 0.0450071 0.
0.622015 0.0450086 0.
0.624017 0.0450088 0.
0.626018 0.0450088 0.
0.62802 0.0450088 0.
0.630021 0.0450096 0.
0.632022 0.0450103 0.
0.634023 0.0450108 0.
0.636023 0.045011 0.
0.638024 0.0450113 0.
0.640024 0.0450117 0.
0.642025 0.0450121 0.
0.644026 0.0450126 0.
0.646028 0.0450134 0.
0.648029 0.0450143 0.
0.650031 0.0450151 0.
0.652032 0.0450153 0.
0.654033 0.0450154 0.
0.656034 0.0450156 0.
0.658034 0.0450158 0.
0.660034 0.045016 0.
0.662034 0.0450163 0.
0.664035 0.0450167 0.
0.666036 0.0450171 0.
0.668036 0.0450174 0.
0.670037 0.0450176 0.
0.672037 0.0450177 0.
0.674038 0.0450181 0.
0.67604 0.0450184 0.
0.678041 0.0450187 0.
0.680041 0.0450186 0.
0.682042 0.0450185 0.
0.684043 0.0450185 0.
0.686043 0.0450187 0.
0.688044 0.0450189 0.
0.690045 0.0450187 0.
0.692044 0.0450183 0.
0.694044 0.0450178 0.
0.696044 0.0450175 0.
0.698045 0.0450173 0.
0.499956 0.0470238 0.
0.501956 0.0470227 0.
0.503956 0.0470217 0.
0.505957 0.0470209 0.
0.507957 0.0470207 0.
0.509957 0.0470204 0.
0.511958 0.0470202 0.
0.513958 0.04702 0.
0.515959 0.0470199 0.
0.517959 0.0470197 0.
0.51996 0.0470196 0.
0.521961 0.0470194 0.
0.523962 0.047019 0.
0.525962 0.0470185 0.
0.527962 0.0470181 0.
0.529963 0.0470178 0.
0.531964 0.0470176 0.
0.533965 0.0470174 0.
0.535966 0.0470169 0.
0.537967 0.0470164 0.
0.539968 0.047016 0.
0.541969 0.0470155 0.
0.54397 0.047015 0.
0.545971 0.0470151 0.
0.547972 0.0470153 0.
0.549972 0.0470156 0.
0.551973 0.0470146 0.
0.553974 0.0470136 0.
0.555975 0.0470127 0.
0.557976 0.0470124 0.
0.559977 0.0470121 0.
0.561978 0.0470117 0.
0.563979 0.0470112 0.
0.56598 0.0470107 0.
0.567981 0.0470104 0.
0.569982 0.0470102 0.
0.571983 0.04701 0.
0.573984 0.0470093 0.
0.575985 0.0470086 0.
0.577986 0.0470079 0.
0.579988 0.0470077 0.
0.581989 0.0470076 0.
0.58399 0.0470073 0.
0.585991 0.0470069 0.
0.587993 0.0470064 0.
0.589994 0.0470063 0.
0.591995 0.0470063 0.
0.593996 0.0470064 0.
0.595998 0.0470065 0.
0.597999 0.0470065 0.
0.600001 0.0470066 0.
0.602003 0.0470065 0.
0.604005 0.0470064 0.
0.606006 0.0470062 0.
0.608007 0.047006 0.
0.610009 0.0470058 0.
0.61201 0.0470056 0.
0.614011 0.0470053 0.
0.616012 0.047005 0.
0.618013 0.0470058 0.
0.620014 0.0470071 0.
0.622015 0.0470084 0.
0.624016 0.0470085 0.
0.626018 0.0470084 0.
0.62802 0.0470084 0.
0.630021 0.047009 0.
0.632022 0.0470096 0.
0.634023 0.0470102 0.
0.636023 0.0470108 0.
0.638024 0.0470115 0.
0.640025 0.0470119 0.
0.642026 0.0470122 0.
0.644027 0.0470125 0.
0.646028 0.0470133 0.
0.648029 0.0470142 0.
0.650031 0.047015 0.
0.652032 0.0470153 0.
0.654032 0.0470156 0.
0.656033 0.047016 0.
0.658033 0.0470163 0.
0.660034 0.0470166 0.
0.662034 0.047017 0.
0.664035 0.0470174 0.
0.666035 0.0470178 0.
0.668036 0.0470179 0.
0.670037 0.047018 0.
0.672038 0.047018 0.
0.674038 0.0470184 0.
0.676039 0.0470188 0.
0.67804 0.047019 0.
0.680041 0.0470188 0.
0.682041 0.0470186 0.
0.684042 0.0470186 0.
0.686043 0.0470188 0.
0.688044 0.0470191 0.
0.690044 0.047019 0.
0.692044 0.0470187 0.
0.694044 0.0470185 0.
0.696045 0.0470185 0.
0.698045 0.0470186 0.
0.499955 0.0490242 0.
0.501956 0.0490231 0.
0.503957 0.0490222 0.
0.505957 0.0490214 0.
0.507958 0.0490212 0.
0.509958 0.0490209 0.
0.511958 0.0490206 0.
0.513959 0.0490202 0.
0.515959 0.0490199 0.
0.51796 0.0490198 0.
0.519961 0.0490197 0.
0.521962 0.0490197 0.
0.523962 0.0490193 0.
0.525962 0.0490189 0.
0.527962 0.0490185 0.
0.529963 0.049018 0.
0.531964 0.0490175 0.
0.533965 0.0490172 0.
0.535966 0.0490171 0.
0.537967 0.049017 0.
0.539968 0.0490166 0.
0.541969 0.049016 0.
0.54397 0.0490154 0.
0.54597 0.0490153 0.
0.547971 0.0490154 0.
0.549972 0.0490155 0.
0.551973 0.0490146 0.
0.553974 0.0490137 0.
0.555975 0.0490129 0.
0.557976 0.0490123 0.
0.559978 0.0490118 0.
0.561979 0.0490114 0.
0.56398 0.0490111 0.
0.565981 0.0490108 0.
0.567982 0.0490104 0.
0.569982 0.0490101 0.
0.571983 0.0490097 0.
0.573984 0.049009 0.
0.575985 0.0490082 0.
0.577986 0.0490075 0.
0.579987 0.0490073 0.
0.581988 0.0490071 0.
0.58399 0.0490067 0.
0.585991 0.0490063 0.
0.587992 0.0490059 0.
0.589994 0.0490058 0.
0.591995 0.0490059 0.
0.593997 0.049006 0.
0.595998 0.0490061 0.
0.597999 0.0490063 0.
0.600001 0.0490064 0.
0.602003 0.0490064 0.
0.604005 0.0490063 0.
0.606006 0.0490063 0.
0.608008 0.0490063 0.
0.610009 0.0490064 0.
0.61201 0.0490062 0.
0.61401 0.0490058 0.
0.616011 0.0490054 0.
0.618012 0.049006 0.
0.620013 0.0490071 0.
0.622014 0.0490082 0.
0.624016 0.0490081 0.
0.626018 0.049008 0.
0.62802 0.0490079 0.
0.630021 0.0490084 0.
0.632022 0.049009 0.
0.634023 0.0490097 0.
0.636024 0.0490106 0.
0.638024 0.0490116 0.
0.640025 0.0490121 0.
0.642026 0.0490123 0.
0.644027 0.0490124 0.
0.646028 0.0490132 0.
0.64803 0.0490141 0.
0.650031 0.0490149 0.
0.652031 0.0490154 0.
0.654032 0.0490159 0.
0.656032 0.0490163 0.
0.658033 0.0490168 0.
0.660034 0.0490172 0.
0.662034 0.0490176 0.
0.664035 0.049018 0.
0.666035 0.0490184 0.
0.668036 0.0490185 0.
0.670037 0.0490184 0.
0.672038 0.0490183 0.
0.674038 0.0490187 0.
0.676039 0.0490191 0.
0.678039 0.0490194 0.
0.68004 0.0490191 0.
0.682041 0.0490187 0.
0.684042 0.0490186 0.
0.686042 0.049019 0.
0.688043 0.0490193 0.
0.690044 0.0490194 0.
0.692044 0.0490192 0.
0.694045 0.0490191 0.
0.696045 0.0490194 0.
0.698045 0.0490199 0.
0.499955 0.0510246 0.
0.501956 0.0510235 0.
0.503956 0.0510226 0.
0.505957 0.051022 0.
0.507958 0.0510218 0.
0.509958 0.0510216 0.
0.511958 0.0510212 0.
0.513959 0.0510207 0.
0.515959 0.0510201 0.
0.51796 0.0510199 0.
0.519961 0.0510199 0.
0.521962 0.05102 0.
0.523962 0.0510197 0.
0.525962 0.0510192 0.
0.527962 0.0510188 0.
0.529963 0.0510182 0.
0.531964 0.0510177 0.
0.533965 0.0510173 0.
0.535966 0.0510172 0.
0.537967 0.0510172 0.
0.539968 0.0510169 0.
0.541969 0.0510163 0.
0.54397 0.0510158 0.
0.54597 0.0510156 0.
0.547971 0.0510154 0.
0.549971 0.0510153 0.
0.551972 0.0510145 0.
0.553974 0.0510136 0.
0.555975 0.0510128 0.
0.557976 0.0510122 0.
0.559978 0.0510117 0.
0.561979 0.0510113 0.
0.56398 0.0510111 0.
0.565981 0.051011 0.
0.567982 0.0510106 0.
0.569983 0.0510101 0.
0.571983 0.0510096 0.
0.573984 0.0510089 0.
0.575985 0.0510081 0.
0.577986 0.0510074 0.
0.579987 0.0510071 0.
0.581988 0.0510068 0.
0.58399 0.0510064 0.
0.585991 0.051006 0.
0.587992 0.0510057 0.
0.589994 0.0510056 0.
0.591995 0.0510057 0.
0.593997 0.0510058 0.
0.595998 0.0510058 0.
0.597999 0.0510059 0.
0.600001 0.051006 0.
0.602003 0.0510061 0.
0.604005 0.0510062 0.
0.606007 0.0510063 0.
0.608008 0.0510064 0.
0.610009 0.0510065 0.
0.61201 0.0510065 0.
0.614011 0.0510061 0.
0.616011 0.0510058 0.
0.618012 0.0510061 0.
0.620013 0.0510068 0.
0.622014 0.0510075 0.
0.624016 0.0510076 0.
0.626018 0.0510076 0.
0.62802 0.0510076 0.
0.630021 0.0510082 0.
0.632022 0.0510089 0.
0.634023 0.0510096 0.
0.636024 0.0510104 0.
0.638025 0.0510113 0.
0.640026 0.0510119 0.
0.642026 0.0510123 0.
0.644027 0.0510127 0.
0.646028 0.0510135 0.
0.64803 0.0510143 0.
0.650031 0.0510152 0.
0.652031 0.0510156 0.
0.654031 0.051016 0.
0.656032 0.0510164 0.
0.658032 0.051017 0.
0.660033 0.0510177 0.
0.662034 0.0510182 0.
0.664034 0.0510185 0.
0.666035 0.0510188 0.
0.668036 0.0510189 0.
0.670037 0.0510188 0.
0.672037 0.0510187 0.
0.674038 0.0510192 0.
0.676039 0.0510197 0.
0.678039 0.05102 0.
0.68004 0.0510196 0.
0.682041 0.0510192 0.
0.684042 0.0510191 0.
0.686042 0.0510195 0.
0.688043 0.0510199 0.
0.690043 0.05102 0.
0.692044 0.05102 0.
0.694045 0.05102 0.
0.696045 0.0510205 0.
0.698045 0.0510212 0.
0.499955 0.0530251 0.
0.501956 0.0530238 0.
0.503956 0.0530231 0.
0.505957 0.0530225 0.
0.507957 0.0530225 0.
0.509958 0.0530226 0.
0.511958 0.0530222 0.
0.513959 0.0530213 0.
0.515959 0.0530204 0.
0.51796 0.0530201 0.
0.51996 0.0530202 0.
0.521961 0.0530204 0.
0.523962 0.05302 0.
0.525962 0.0530196 0.
0.527963 0.0530192 0.
0.529963 0.0530186 0.
0.531964 0.053018 0.
0.533965 0.0530175 0.
0.535966 0.0530173 0.
0.537967 0.053017 0.
0.539968 0.0530168 0.
0.541969 0.0530165 0.
0.54397 0.0530163 0.
0.54597 0.0530158 0.
0.54797 0.0530154 0.
0.549971 0.0530149 0.
0.551972 0.0530141 0.
0.553973 0.0530132 0.
0.555975 0.0530124 0.
0.557976 0.053012 0.
0.559978 0.0530117 0.
0.561979 0.0530114 0.
0.56398 0.0530113 0.
0.565981 0.0530112 0.
0.567982 0.0530108 0.
0.569983 0.0530103 0.
0.571984 0.0530098 0.
0.573985 0.0530091 0.
0.575986 0.0530083 0.
0.577987 0.0530076 0.
0.579988 0.0530071 0.
0.581989 0.0530066 0.
0.58399 0.0530062 0.
0.585991 0.053006 0.
0.587993 0.0530057 0.
0.589994 0.0530056 0.
0.591995 0.0530057 0.
0.593997 0.0530058 0.
0.595998 0.0530056 0.
0.598 0.0530054 0.
0.600001 0.0530052 0.
0.602003 0.0530056 0.
0.604005 0.0530059 0.
0.606007 0.0530062 0.
0.608008 0.0530063 0.
0.61001 0.0530064 0.
0.61201 0.0530064 0.
0.614011 0.0530062 0.
0.616011 0.0530061 0.
0.618012 0.0530061 0.
0.620014 0.0530063 0.
0.622015 0.0530064 0.
0.624016 0.0530068 0.
0.626018 0.0530072 0.
0.628019 0.0530076 0.
0.63002 0.0530085 0.
0.632022 0.0530093 0.
0.634023 0.0530099 0.
0.636024 0.0530102 0.
0.638025 0.0530104 0.
0.640025 0.0530111 0.
0.642026 0.0530122 0.
0.644027 0.0530134 0.
0.646028 0.0530142 0.
0.648029 0.053015 0.
0.650031 0.0530158 0.
0.652031 0.0530159 0.
0.654031 0.053016 0.
0.656032 0.0530162 0.
0.658032 0.0530172 0.
0.660032 0.0530181 0.
0.662033 0.0530187 0.
0.664034 0.0530188 0.
0.666035 0.053019 0.
0.668036 0.0530191 0.
0.670036 0.0530191 0.
0.672037 0.0530192 0.
0.674038 0.0530198 0.
0.676039 0.0530204 0.
0.67804 0.0530209 0.
0.68004 0.0530205 0.
0.682041 0.05302 0.
0.684042 0.0530199 0.
0.686043 0.0530203 0.
0.688043 0.0530208 0.
0.690044 0.053021 0.
0.692044 0.053021 0.
0.694044 0.053021 0.
0.696044 0.0530216 0.
0.698044 0.0530223 0.
0.499955 0.0550255 0.
0.501955 0.0550242 0.
0.503956 0.0550235 0.
0.505956 0.055023 0.
0.507957 0.0550233 0.
0.509957 0.0550235 0.
0.511958 0.0550231 0.
0.513958 0.0550219 0.
0.515959 0.0550206 0.
0.51796 0.0550203 0.
0.51996 0.0550206 0.
0.521961 0.0550208 0.
0.523962 0.0550204 0.
0.525963 0.05502 0.
0.527964 0.0550195 0.
0.529964 0.0550189 0.
0.531965 0.0550183 0.
0.533966 0.0550178 0.
0.535967 0.0550173 0.
0.537967 0.0550169 0.
0.539968 0.0550167 0.
0.541969 0.0550167 0.
0.54397 0.0550167 0.
0.54597 0.0550161 0.
0.54797 0.0550153 0.
0.54997 0.0550146 0.
0.551972 0.0550137 0.
0.553973 0.0550128 0.
0.555975 0.055012 0.
0.557976 0.0550118 0.
0.559978 0.0550117 0.
0.561979 0.0550115 0.
0.56398 0.0550115 0.
0.565981 0.0550114 0.
0.567982 0.0550111 0.
0.569983 0.0550105 0.
0.571984 0.0550099 0.
0.573985 0.0550093 0.
0.575986 0.0550086 0.
0.577987 0.0550079 0.
0.579988 0.0550072 0.
0.58199 0.0550066 0.
0.583991 0.055006 0.
0.585992 0.0550059 0.
0.587993 0.0550057 0.
0.589994 0.0550057 0.
0.591995 0.0550057 0.
0.593997 0.0550058 0.
0.595998 0.0550055 0.
0.598 0.055005 0.
0.600001 0.0550045 0.
0.602003 0.0550051 0.
0.604006 0.0550057 0.
0.606008 0.0550062 0.
0.608009 0.0550062 0.
0.61001 0.0550062 0.
0.612011 0.0550063 0.
0.614011 0.0550063 0.
0.616012 0.0550064 0.
0.618013 0.0550062 0.
0.620014 0.0550057 0.
0.622016 0.0550053 0.
0.624017 0.055006 0.
0.626018 0.0550068 0.
0.628019 0.0550076 0.
0.63002 0.0550087 0.
0.632021 0.0550097 0.
0.634023 0.0550103 0.
0.636024 0.0550099 0.
0.638025 0.0550095 0.
0.640025 0.0550104 0.
0.642026 0.0550122 0.
0.644026 0.055014 0.
0.646028 0.055015 0.
0.648029 0.0550157 0.
0.65003 0.0550164 0.
0.652031 0.0550162 0.
0.654031 0.055016 0.
0.656032 0.0550161 0.
0.658032 0.0550173 0.
0.660032 0.0550185 0.
0.662032 0.0550192 0.
0.664033 0.0550192 0.
0.666035 0.0550192 0.
0.668035 0.0550193 0.
0.670036 0.0550195 0.
0.672037 0.0550197 0.
0.674038 0.0550204 0.
0.676039 0.0550212 0.
0.67804 0.0550218 0.
0.680041 0.0550213 0.
0.682042 0.0550208 0.
0.684042 0.0550207 0.
0.686043 0.0550212 0.
0.688044 0.0550217 0.
0.690044 0.0550219 0.
0.692044 0.055022 0.
0.694044 0.0550221 0.
0.696044 0.0550227 0.
0.698044 0.0550235 0.
0.499955 0.057026 0.
0.501955 0.0570249 0.
0.503956 0.0570242 0.
0.505957 0.0570237 0.
0.507957 0.0570236 0.
0.509958 0.0570235 0.
0.511958 0.057023 0.
0.513959 0.057022 0.
0.51596 0.057021 0.
0.51796 0.0570209 0.
0.519961 0.0570212 0.
0.521961 0.0570215 0.
0.523962 0.0570211 0.
0.525963 0.0570206 0.
0.527964 0.0570201 0.
0.529965 0.0570191 0.
0.531965 0.0570182 0.
0.533966 0.0570176 0.
0.535967 0.0570175 0.
0.537968 0.0570175 0.
0.539968 0.0570173 0.
0.541969 0.0570169 0.
0.54397 0.0570165 0.
0.54597 0.057016 0.
0.547971 0.0570153 0.
0.549971 0.0570147 0.
0.551972 0.0570139 0.
0.553974 0.0570132 0.
0.555975 0.0570125 0.
0.557976 0.057012 0.
0.559978 0.0570116 0.
0.561979 0.0570112 0.
0.56398 0.0570111 0.
0.565981 0.0570109 0.
0.567982 0.0570105 0.
0.569983 0.05701 0.
0.571985 0.0570095 0.
0.573986 0.0570088 0.
0.575987 0.057008 0.
0.577988 0.0570073 0.
0.579989 0.0570068 0.
0.58199 0.0570063 0.
0.583991 0.0570059 0.
0.585992 0.0570057 0.
0.587993 0.0570054 0.
0.589995 0.0570053 0.
0.591996 0.0570053 0.
0.593997 0.0570052 0.
0.595998 0.0570052 0.
0.598 0.0570051 0.
0.600002 0.057005 0.
0.602004 0.0570051 0.
0.604005 0.0570053 0.
0.606007 0.0570054 0.
0.608009 0.0570057 0.
0.61001 0.0570059 0.
0.612011 0.057006 0.
0.614011 0.0570062 0.
0.616012 0.0570063 0.
0.618013 0.0570063 0.
0.620014 0.0570062 0.
0.622016 0.057006 0.
0.624017 0.0570062 0.
0.626018 0.0570064 0.
0.628019 0.0570068 0.
0.63002 0.0570078 0.
0.632021 0.0570089 0.
0.634022 0.0570096 0.
0.636023 0.0570097 0.
0.638024 0.0570098 0.
0.640025 0.0570107 0.
0.642025 0.0570122 0.
0.644026 0.0570137 0.
0.646027 0.0570148 0.
0.648029 0.0570157 0.
0.65003 0.0570166 0.
0.652031 0.0570166 0.
0.654031 0.0570166 0.
0.656031 0.0570167 0.
0.658032 0.0570175 0.
0.660032 0.0570182 0.
0.662033 0.0570187 0.
0.664034 0.0570189 0.
0.666035 0.0570191 0.
0.668036 0.0570194 0.
0.670036 0.0570197 0.
0.672037 0.0570201 0.
0.674038 0.0570204 0.
0.676039 0.0570208 0.
0.67804 0.0570211 0.
0.680041 0.0570209 0.
0.682041 0.0570208 0.
0.684042 0.0570209 0.
0.686043 0.0570214 0.
0.688043 0.057022 0.
0.690044 0.0570223 0.
0.692044 0.0570225 0.
0.694045 0.0570227 0.
0.696045 0.0570234 0.
0.698045 0.0570242 0.
0.499954 0.0590266 0.
0.501955 0.0590255 0.
0.503956 0.0590249 0.
0.505957 0.0590243 0.
0.507957 0.0590239 0.
0.509958 0.0590234 0.
0.511959 0.0590229 0.
0.513959 0.0590222 0.
0.51596 0.0590214 0.
0.517961 0.0590214 0.
0.519961 0.0590218 0.
0.521961 0.0590221 0.
0.523962 0.0590217 0.
0.525963 0.0590212 0.
0.527964 0.0590206 0.
0.529965 0.0590194 0.
0.531966 0.0590181 0.
0.533966 0.0590173 0.
0.535967 0.0590177 0.
0.537968 0.059018 0.
0.539968 0.0590178 0.
0.541969 0.0590171 0.
0.54397 0.0590164 0.
0.545971 0.0590158 0.
0.547971 0.0590153 0.
0.549972 0.0590148 0.
0.551973 0.0590142 0.
0.553975 0.0590136 0.
0.555976 0.059013 0.
0.557977 0.0590122 0.
0.559978 0.0590115 0.
0.561979 0.0590109 0.
0.56398 0.0590106 0.
0.565981 0.0590104 0.
0.567982 0.05901 0.
0.569984 0.0590095 0.
0.571985 0.0590091 0.
0.573986 0.0590083 0.
0.575987 0.0590074 0.
0.577988 0.0590067 0.
0.579989 0.0590064 0.
0.58199 0.0590061 0.
0.583991 0.0590058 0.
0.585993 0.0590055 0.
0.587994 0.0590051 0.
0.589995 0.0590049 0.
0.591996 0.0590048 0.
0.593996 0.0590047 0.
0.595998 0.0590049 0.
0.598 0.0590051 0.
0.600002 0.0590054 0.
0.602004 0.0590051 0.
0.604005 0.0590048 0.
0.606007 0.0590047 0.
0.608008 0.0590051 0.
0.61001 0.0590055 0.
0.612011 0.0590058 0.
0.614012 0.059006 0.
0.616013 0.0590062 0.
0.618014 0.0590064 0.
0.620015 0.0590066 0.
0.622016 0.0590067 0.
0.624017 0.0590065 0.
0.626018 0.0590061 0.
0.628019 0.0590059 0.
0.63002 0.059007 0.
0.632021 0.0590081 0.
0.634021 0.059009 0.
0.636022 0.0590095 0.
0.638023 0.0590101 0.
0.640024 0.0590111 0.
0.642025 0.0590123 0.
0.644025 0.0590135 0.
0.646027 0.0590146 0.
0.648028 0.0590157 0.
0.65003 0.0590168 0.
0.65203 0.059017 0.
0.654031 0.0590171 0.
0.656031 0.0590173 0.
0.658032 0.0590176 0.
0.660032 0.0590179 0.
0.662033 0.0590183 0.
0.664034 0.0590187 0.
0.666035 0.0590191 0.
0.668036 0.0590195 0.
0.670036 0.05902 0.
0.672037 0.0590204 0.
0.674038 0.0590204 0.
0.676038 0.0590204 0.
0.678039 0.0590204 0.
0.68004 0.0590206 0.
0.682041 0.0590208 0.
0.684042 0.0590211 0.
0.686042 0.0590217 0.
0.688043 0.0590222 0.
0.690044 0.0590226 0.
0.692045 0.059023 0.
0.694046 0.0590234 0.
0.696046 0.0590241 0.
0.698045 0.0590248 0.
0.499955 0.0610273 0.
0.501956 0.0610263 0.
0.503957 0.0610256 0.
0.505958 0.061025 0.
0.507958 0.0610244 0.
0.509959 0.0610237 0.
0.511959 0.0610231 0.
0.51396 0.0610225 0.
0.515961 0.061022 0.
0.517961 0.061022 0.
0.519961 0.0610224 0.
0.521962 0.0610228 0.
0.523963 0.0610222 0.
0.525964 0.0610215 0.
0.527965 0.0610207 0.
0.529965 0.0610195 0.
0.531966 0.0610183 0.
0.533966 0.0610176 0.
0.535967 0.0610178 0.
0.537968 0.0610181 0.
0.539969 0.0610178 0.
0.541969 0.061017 0.
0.54397 0.0610162 0.
0.545971 0.0610157 0.
0.547972 0.0610152 0.
0.549973 0.0610147 0.
0.551974 0.0610142 0.
0.553975 0.0610137 0.
0.555976 0.0610132 0.
0.557977 0.0610122 0.
0.559977 0.0610113 0.
0.561978 0.0610107 0.
0.56398 0.0610103 0.
0.565981 0.0610099 0.
0.567982 0.0610095 0.
0.569984 0.0610091 0.
0.571985 0.0610087 0.
0.573986 0.061008 0.
0.575987 0.0610073 0.
0.577988 0.0610066 0.
0.57999 0.0610063 0.
0.581991 0.0610061 0.
0.583992 0.0610058 0.
0.585993 0.0610054 0.
0.587995 0.0610051 0.
0.589996 0.0610048 0.
0.591996 0.0610046 0.
0.593997 0.0610045 0.
0.595998 0.0610047 0.
0.598 0.061005 0.
0.600002 0.0610053 0.
0.602004 0.0610049 0.
0.604005 0.0610045 0.
0.606007 0.0610044 0.
0.608008 0.0610048 0.
0.610009 0.0610053 0.
0.612011 0.0610057 0.
0.614012 0.061006 0.
0.616013 0.0610063 0.
0.618014 0.0610066 0.
0.620015 0.0610069 0.
0.622016 0.0610072 0.
0.624017 0.0610067 0.
0.626018 0.0610062 0.
0.628019 0.0610058 0.
0.63002 0.0610068 0.
0.632021 0.0610078 0.
0.634021 0.0610088 0.
0.636022 0.0610096 0.
0.638023 0.0610104 0.
0.640024 0.0610114 0.
0.642024 0.0610124 0.
0.644025 0.0610135 0.
0.646027 0.0610147 0.
0.648028 0.0610159 0.
0.65003 0.0610171 0.
0.65203 0.0610173 0.
0.654031 0.0610175 0.
0.656031 0.0610177 0.
0.658032 0.0610178 0.
0.660033 0.0610179 0.
0.662033 0.0610182 0.
0.664034 0.0610188 0.
0.666035 0.0610194 0.
0.668036 0.0610199 0.
0.670036 0.0610202 0.
0.672037 0.0610206 0.
0.674038 0.0610205 0.
0.676039 0.0610203 0.
0.678039 0.0610201 0.
0.68004 0.0610205 0.
0.682041 0.0610209 0.
0.684042 0.0610214 0.
0.686042 0.061022 0.
0.688043 0.0610226 0.
0.690044 0.0610231 0.
0.692045 0.0610236 0.
0.694045 0.061024 0.
0.696046 0.0610246 0.
0.698046 0.0610253 0.
0.499957 0.0630281 0.
0.501958 0.063027 0.
0.503958 0.0630264 0.
0.505959 0.0630258 0.
0.507959 0.063025 0.
0.50996 0.0630242 0.
0.51196 0.0630235 0.
0.51396 0.0630231 0.
0.515961 0.0630226 0.
0.517961 0.0630228 0.
0.519962 0.0630232 0.
0.521962 0.0630236 0.
0.523963 0.0630226 0.
0.525964 0.0630214 0.
0.527965 0.0630202 0.
0.529965 0.0630196 0.
0.531966 0.0630189 0.
0.533966 0.0630183 0.
0.535967 0.063018 0.
0.537968 0.0630177 0.
0.539969 0.0630172 0.
0.54197 0.0630166 0.
0.543971 0.063016 0.
0.545972 0.0630155 0.
0.547973 0.063015 0.
0.549973 0.0630146 0.
0.551974 0.063014 0.
0.553975 0.0630135 0.
0.555976 0.0630129 0.
0.557977 0.063012 0.
0.559978 0.0630112 0.
0.561978 0.0630105 0.
0.56398 0.06301 0.
0.565981 0.0630096 0.
0.567982 0.0630092 0.
0.569983 0.0630088 0.
0.571985 0.0630084 0.
0.573986 0.0630079 0.
0.575987 0.0630074 0.
0.577989 0.0630069 0.
0.57999 0.0630066 0.
0.581991 0.0630063 0.
0.583992 0.063006 0.
0.585994 0.0630056 0.
0.587995 0.0630053 0.
0.589996 0.063005 0.
0.591996 0.0630048 0.
0.593997 0.0630046 0.
0.595999 0.0630046 0.
0.598001 0.0630046 0.
0.600003 0.0630046 0.
0.602004 0.0630045 0.
0.604005 0.0630044 0.
0.606007 0.0630044 0.
0.608008 0.0630048 0.
0.610009 0.0630052 0.
0.61201 0.0630056 0.
0.614011 0.0630061 0.
0.616012 0.0630066 0.
0.618014 0.0630068 0.
0.620015 0.063007 0.
0.622016 0.0630072 0.
0.624018 0.063007 0.
0.626019 0.0630067 0.
0.62802 0.0630065 0.
0.630021 0.0630073 0.
0.632021 0.0630082 0.
0.634022 0.063009 0.
0.636023 0.0630098 0.
0.638023 0.0630107 0.
0.640024 0.0630116 0.
0.642024 0.0630128 0.
0.644025 0.0630139 0.
0.646026 0.0630151 0.
0.648028 0.0630163 0.
0.650029 0.0630176 0.
0.65203 0.0630176 0.
0.654031 0.0630177 0.
0.656032 0.0630178 0.
0.658033 0.063018 0.
0.660033 0.0630182 0.
0.662034 0.0630187 0.
0.664034 0.0630194 0.
0.666035 0.0630202 0.
0.668036 0.0630205 0.
0.670036 0.0630205 0.
0.672037 0.0630206 0.
0.674038 0.0630205 0.
0.676039 0.0630204 0.
0.67804 0.0630204 0.
0.68004 0.0630208 0.
0.682041 0.0630213 0.
0.684042 0.0630218 0.
0.686042 0.0630225 0.
0.688043 0.0630232 0.
0.690044 0.0630237 0.
0.692044 0.0630242 0.
0.694044 0.0630246 0.
0.696045 0.0630251 0.
0.698045 0.0630256 0.
0.499959 0.0650288 0.
0.50196 0.0650278 0.
0.50396 0.0650272 0.
0.50596 0.0650265 0.
0.50796 0.0650256 0.
0.509961 0.0650247 0.
0.511961 0.065024 0.
0.513961 0.0650237 0.
0.515961 0.0650233 0.
0.517962 0.0650235 0.
0.519962 0.0650239 0.
0.521963 0.0650243 0.
0.523964 0.0650229 0.
0.525965 0.0650213 0.
0.527965 0.0650198 0.
0.529966 0.0650196 0.
0.531966 0.0650195 0.
0.533966 0.0650191 0.
0.535967 0.0650182 0.
0.537968 0.0650173 0.
0.539969 0.0650166 0.
0.54197 0.0650162 0.
0.543971 0.0650157 0.
0.545972 0.0650153 0.
0.547973 0.0650148 0.
0.549974 0.0650144 0.
0.551975 0.0650138 0.
0.553975 0.0650133 0.
0.555976 0.0650126 0.
0.557977 0.0650118 0.
0.559978 0.065011 0.
0.561978 0.0650103 0.
0.56398 0.0650098 0.
0.565981 0.0650093 0.
0.567982 0.0650089 0.
0.569983 0.0650085 0.
0.571984 0.0650082 0.
0.573986 0.0650079 0.
0.575987 0.0650076 0.
0.577989 0.0650073 0.
0.57999 0.0650069 0.
0.581992 0.0650065 0.
0.583993 0.0650061 0.
0.585994 0.0650058 0.
0.587995 0.0650056 0.
0.589996 0.0650053 0.
0.591997 0.065005 0.
0.593998 0.0650048 0.
0.596 0.0650045 0.
0.598001 0.0650042 0.
0.600003 0.065004 0.
0.602004 0.0650042 0.
0.604006 0.0650043 0.
0.606007 0.0650045 0.
0.608007 0.0650048 0.
0.610008 0.0650051 0.
0.612009 0.0650056 0.
0.61401 0.0650062 0.
0.616012 0.0650068 0.
0.618013 0.0650071 0.
0.620015 0.0650072 0.
0.622017 0.0650073 0.
0.624018 0.0650072 0.
0.62602 0.0650072 0.
0.628021 0.0650072 0.
0.630021 0.0650078 0.
0.632022 0.0650085 0.
0.634022 0.0650093 0.
0.636023 0.0650101 0.
0.638023 0.0650109 0.
0.640024 0.0650119 0.
0.642024 0.0650131 0.
0.644025 0.0650142 0.
0.646026 0.0650155 0.
0.648028 0.0650168 0.
0.650029 0.065018 0.
0.65203 0.0650179 0.
0.654032 0.0650179 0.
0.656033 0.0650179 0.
0.658033 0.0650182 0.
0.660034 0.0650185 0.
0.662034 0.0650191 0.
0.664035 0.06502 0.
0.666035 0.0650209 0.
0.668035 0.0650211 0.
0.670036 0.0650208 0.
0.672037 0.0650205 0.
0.674038 0.0650205 0.
0.676039 0.0650205 0.
0.67804 0.0650206 0.
0.68004 0.0650211 0.
0.682041 0.0650216 0.
0.684041 0.0650222 0.
0.686042 0.065023 0.
0.688043 0.0650238 0.
0.690044 0.0650243 0.
0.692043 0.0650248 0.
0.694043 0.0650252 0.
0.696044 0.0650255 0.
0.698045 0.0650258 0.
0.499961 0.0670288 0.
0.501961 0.0670279 0.
0.503961 0.0670274 0.
0.505961 0.0670269 0.
0.507961 0.0670261 0.
0.509961 0.0670253 0.
0.511961 0.0670246 0.
0.513961 0.0670241 0.
0.515962 0.0670237 0.
0.517962 0.0670237 0.
0.519963 0.0670239 0.
0.521964 0.0670242 0.
0.523964 0.067023 0.
0.525965 0.0670216 0.
0.527965 0.0670203 0.
0.529966 0.0670198 0.
0.531966 0.0670193 0.
0.533967 0.0670188 0.
0.535968 0.067018 0.
0.537969 0.0670173 0.
0.53997 0.0670166 0.
0.54197 0.0670161 0.
0.543971 0.0670155 0.
0.545972 0.067015 0.
0.547973 0.0670146 0.
0.549974 0.0670142 0.
0.551975 0.0670138 0.
0.553975 0.0670133 0.
0.555976 0.0670127 0.
0.557977 0.0670118 0.
0.559978 0.0670108 0.
0.561979 0.0670102 0.
0.563981 0.0670099 0.
0.565982 0.0670096 0.
0.567983 0.0670091 0.
0.569984 0.0670084 0.
0.571985 0.0670078 0.
0.573986 0.0670076 0.
0.575988 0.0670074 0.
0.577989 0.0670072 0.
0.57999 0.0670069 0.
0.581991 0.0670066 0.
0.583993 0.0670062 0.
0.585994 0.0670057 0.
0.587995 0.0670052 0.
0.589996 0.0670048 0.
0.591997 0.0670044 0.
0.593998 0.0670041 0.
0.596 0.067004 0.
0.598001 0.0670039 0.
0.600003 0.0670039 0.
0.602004 0.0670044 0.
0.604006 0.0670049 0.
0.606007 0.0670053 0.
0.608008 0.0670053 0.
0.610008 0.0670053 0.
0.612009 0.0670056 0.
0.614011 0.0670063 0.
0.616012 0.067007 0.
0.618013 0.0670072 0.
0.620014 0.0670072 0.
0.622016 0.0670072 0.
0.624017 0.0670074 0.
0.626018 0.0670075 0.
0.62802 0.0670076 0.
0.63002 0.0670079 0.
0.632021 0.0670082 0.
0.634022 0.0670087 0.
0.636022 0.0670098 0.
0.638023 0.0670109 0.
0.640024 0.0670119 0.
0.642025 0.0670127 0.
0.644025 0.0670136 0.
0.646027 0.067015 0.
0.648028 0.0670165 0.
0.65003 0.067018 0.
0.65203 0.0670178 0.
0.654031 0.0670176 0.
0.656032 0.0670175 0.
0.658032 0.067018 0.
0.660033 0.0670184 0.
0.662034 0.067019 0.
0.664034 0.0670199 0.
0.666035 0.0670207 0.
0.668036 0.0670209 0.
0.670036 0.0670209 0.
0.672037 0.0670209 0.
0.674038 0.0670208 0.
0.676038 0.0670207 0.
0.678039 0.0670207 0.
0.68004 0.0670212 0.
0.68204 0.0670217 0.
0.684041 0.0670223 0.
0.686041 0.0670229 0.
0.688042 0.0670234 0.
0.690043 0.067024 0.
0.692043 0.0670245 0.
0.694043 0.0670251 0.
0.696044 0.0670255 0.
0.698044 0.067026 0.
0.499962 0.0690288 0.
0.501962 0.0690281 0.
0.503962 0.0690277 0.
0.505961 0.0690272 0.
0.507961 0.0690265 0.
0.509961 0.0690258 0.
0.511962 0.0690252 0.
0.513962 0.0690246 0.
0.515962 0.0690241 0.
0.517963 0.0690239 0.
0.519964 0.069024 0.
0.521964 0.0690241 0.
0.523965 0.0690231 0.
0.525965 0.0690219 0.
0.527966 0.0690208 0.
0.529966 0.06902 0.
0.531967 0.0690192 0.
0.533968 0.0690185 0.
0.535969 0.0690179 0.
0.537969 0.0690173 0.
0.53997 0.0690167 0.
0.541971 0.0690159 0.
0.543972 0.0690152 0.
0.545972 0.0690147 0.
0.547973 0.0690144 0.
0.549973 0.0690141 0.
0.551974 0.0690137 0.
0.553975 0.0690133 0.
0.555977 0.0690127 0.
0.557978 0.0690117 0.
0.559979 0.0690107 0.
0.56198 0.0690101 0.
0.563982 0.0690099 0.
0.565983 0.0690098 0.
0.567984 0.0690092 0.
0.569985 0.0690083 0.
0.571985 0.0690074 0.
0.573987 0.0690073 0.
0.575988 0.0690072 0.
0.57799 0.0690071 0.
0.57999 0.0690069 0.
0.581991 0.0690066 0.
0.583992 0.0690062 0.
0.585993 0.0690055 0.
0.587994 0.0690048 0.
0.589995 0.0690042 0.
0.591997 0.0690038 0.
0.593998 0.0690033 0.
0.595999 0.0690034 0.
0.598001 0.0690036 0.
0.600003 0.0690038 0.
0.602004 0.0690047 0.
0.604005 0.0690055 0.
0.606007 0.0690061 0.
0.608008 0.0690058 0.
0.610009 0.0690055 0.
0.61201 0.0690056 0.
0.614011 0.0690064 0.
0.616012 0.0690072 0.
0.618013 0.0690074 0.
0.620014 0.0690073 0.
0.622015 0.0690072 0.
0.624016 0.0690075 0.
0.626017 0.0690078 0.
0.628018 0.0690081 0.
0.630019 0.069008 0.
0.63202 0.0690078 0.
0.634021 0.0690081 0.
0.636022 0.0690095 0.
0.638023 0.0690109 0.
0.640024 0.0690118 0.
0.642025 0.0690124 0.
0.644026 0.0690129 0.
0.646027 0.0690144 0.
0.648029 0.0690162 0.
0.65003 0.069018 0.
0.65203 0.0690176 0.
0.654031 0.0690173 0.
0.656031 0.0690172 0.
0.658032 0.0690177 0.
0.660032 0.0690183 0.
0.662033 0.069019 0.
0.664034 0.0690197 0.
0.666035 0.0690204 0.
0.668036 0.0690208 0.
0.670036 0.0690211 0.
0.672037 0.0690214 0.
0.674037 0.0690212 0.
0.676038 0.069021 0.
0.678038 0.0690208 0.
0.680039 0.0690214 0.
0.682039 0.0690219 0.
0.68404 0.0690224 0.
0.686041 0.0690227 0.
0.688041 0.0690231 0.
0.690042 0.0690236 0.
0.692043 0.0690243 0.
0.694043 0.0690249 0.
0.696043 0.0690255 0.
0.698044 0.0690261 0.
0.499962 0.0710285 0.
0.501962 0.0710282 0.
0.503962 0.0710279 0.
0.505962 0.0710276 0.
0.507962 0.071027 0.
0.509962 0.0710263 0.
0.511962 0.0710257 0.
0.513962 0.0710251 0.
0.515963 0.0710245 0.
0.517963 0.0710243 0.
0.519964 0.0710242 0.
0.521965 0.0710241 0.
0.523965 0.0710231 0.
0.525966 0.071022 0.
0.527966 0.071021 0.
0.529967 0.0710201 0.
0.531967 0.0710193 0.
0.533968 0.0710185 0.
0.535969 0.0710179 0.
0.53797 0.0710173 0.
0.53997 0.0710166 0.
0.541971 0.0710158 0.
0.543972 0.0710149 0.
0.545972 0.0710145 0.
0.547973 0.0710141 0.
0.549973 0.0710137 0.
0.551974 0.0710134 0.
0.553975 0.0710131 0.
0.555977 0.0710126 0.
0.557978 0.0710116 0.
0.559979 0.0710107 0.
0.561981 0.0710101 0.
0.563982 0.0710099 0.
0.565983 0.0710098 0.
0.567984 0.0710092 0.
0.569985 0.0710082 0.
0.571985 0.0710072 0.
0.573987 0.071007 0.
0.575988 0.071007 0.
0.57799 0.0710069 0.
0.579991 0.0710066 0.
0.581991 0.0710064 0.
0.583992 0.071006 0.
0.585993 0.0710052 0.
0.587994 0.0710044 0.
0.589996 0.0710038 0.
0.591997 0.0710034 0.
0.593998 0.0710031 0.
0.595999 0.0710032 0.
0.598001 0.0710035 0.
0.600002 0.0710037 0.
0.602004 0.0710046 0.
0.604005 0.0710055 0.
0.606006 0.0710061 0.
0.608008 0.0710058 0.
0.610009 0.0710054 0.
0.61201 0.0710055 0.
0.614011 0.0710062 0.
0.616012 0.0710069 0.
0.618013 0.0710072 0.
0.620014 0.0710071 0.
0.622014 0.071007 0.
0.624016 0.0710074 0.
0.626017 0.0710078 0.
0.628018 0.0710081 0.
0.630019 0.0710079 0.
0.63202 0.0710077 0.
0.634021 0.071008 0.
0.636022 0.0710093 0.
0.638023 0.0710106 0.
0.640024 0.0710115 0.
0.642025 0.0710121 0.
0.644026 0.0710126 0.
0.646027 0.0710142 0.
0.648029 0.071016 0.
0.65003 0.0710178 0.
0.65203 0.0710175 0.
0.65403 0.0710171 0.
0.656031 0.071017 0.
0.658031 0.0710175 0.
0.660032 0.0710181 0.
0.662033 0.0710188 0.
0.664034 0.0710195 0.
0.666035 0.0710202 0.
0.668035 0.0710207 0.
0.670036 0.0710211 0.
0.672036 0.0710215 0.
0.674037 0.0710214 0.
0.676037 0.0710212 0.
0.678038 0.071021 0.
0.680038 0.0710215 0.
0.682039 0.071022 0.
0.684039 0.0710224 0.
0.68604 0.0710228 0.
0.688041 0.0710231 0.
0.690041 0.0710236 0.
0.692042 0.0710243 0.
0.694043 0.0710249 0.
0.696043 0.0710258 0.
0.698043 0.0710266 0.
0.499961 0.0730285 0.
0.501961 0.0730282 0.
0.503961 0.0730282 0.
0.505961 0.073028 0.
0.507962 0.0730274 0.
0.509962 0.0730267 0.
0.511963 0.0730261 0.
0.513963 0.0730256 0.
0.515963 0.0730251 0.
0.517964 0.0730247 0.
0.519965 0.0730243 0.
0.521965 0.073024 0.
0.523966 0.073023 0.
0.525966 0.073022 0.
0.527966 0.073021 0.
0.529967 0.0730203 0.
0.531968 0.0730196 0.
0.533968 0.0730189 0.
0.535969 0.0730181 0.
0.537969 0.0730173 0.
0.53997 0.0730165 0.
0.541971 0.0730156 0.
0.543972 0.0730148 0.
0.545972 0.0730142 0.
0.547973 0.0730137 0.
0.549974 0.0730132 0.
0.551975 0.0730129 0.
0.553976 0.0730127 0.
0.555977 0.0730123 0.
0.557978 0.0730115 0.
0.559979 0.0730107 0.
0.56198 0.0730101 0.
0.563981 0.0730099 0.
0.565983 0.0730096 0.
0.567984 0.0730089 0.
0.569985 0.073008 0.
0.571985 0.0730071 0.
0.573987 0.0730069 0.
0.575988 0.0730067 0.
0.57799 0.0730065 0.
0.579991 0.0730061 0.
0.581992 0.0730058 0.
0.583993 0.0730053 0.
0.585994 0.0730046 0.
0.587995 0.0730039 0.
0.589996 0.0730035 0.
0.591997 0.0730034 0.
0.593998 0.0730033 0.
0.595999 0.0730034 0.
0.598 0.0730035 0.
0.600002 0.0730037 0.
0.602003 0.0730043 0.
0.604005 0.0730049 0.
0.606006 0.0730053 0.
0.608007 0.0730052 0.
0.610009 0.0730051 0.
0.61201 0.0730053 0.
0.614011 0.0730058 0.
0.616012 0.0730064 0.
0.618013 0.0730066 0.
0.620014 0.0730068 0.
0.622015 0.0730069 0.
0.624016 0.0730071 0.
0.626017 0.0730074 0.
0.628019 0.0730076 0.
0.63002 0.0730078 0.
0.63202 0.0730079 0.
0.634021 0.0730083 0.
0.636022 0.0730091 0.
0.638023 0.07301 0.
0.640024 0.0730109 0.
0.642025 0.0730118 0.
0.644026 0.0730127 0.
0.646027 0.0730142 0.
0.648028 0.0730159 0.
0.65003 0.0730175 0.
0.65203 0.0730172 0.
0.654031 0.073017 0.
0.656031 0.0730169 0.
0.658032 0.0730174 0.
0.660032 0.0730178 0.
0.662033 0.0730184 0.
0.664033 0.0730193 0.
0.666034 0.0730201 0.
0.668035 0.0730206 0.
0.670035 0.073021 0.
0.672035 0.0730214 0.
0.674036 0.0730214 0.
0.676037 0.0730213 0.
0.678038 0.0730213 0.
0.680038 0.0730217 0.
0.682038 0.073022 0.
0.684039 0.0730224 0.
0.686039 0.0730229 0.
0.68804 0.0730234 0.
0.690041 0.073024 0.
0.692041 0.0730245 0.
0.694042 0.0730251 0.
0.696042 0.0730262 0.
0.698041 0.0730275 0.
0.49996 0.0750284 0.
0.50196 0.0750283 0.
0.503961 0.0750285 0.
0.505961 0.0750285 0.
0.507962 0.0750278 0.
0.509962 0.0750271 0.
0.511963 0.0750265 0.
0.513964 0.0750261 0.
0.515964 0.0750256 0.
0.517965 0.075025 0.
0.519965 0.0750245 0.
0.521966 0.0750239 0.
0.523966 0.0750229 0.
0.525967 0.0750219 0.
0.527967 0.075021 0.
0.529967 0.0750204 0.
0.531968 0.0750199 0.
0.533968 0.0750192 0.
0.535969 0.0750182 0.
0.537969 0.0750172 0.
0.53997 0.0750163 0.
0.541971 0.0750155 0.
0.543972 0.0750147 0.
0.545972 0.075014 0.
0.547973 0.0750134 0.
0.549974 0.0750127 0.
0.551975 0.0750125 0.
0.553976 0.0750122 0.
0.555976 0.0750119 0.
0.557977 0.0750114 0.
0.559978 0.0750108 0.
0.56198 0.0750102 0.
0.563981 0.0750098 0.
0.565982 0.0750093 0.
0.567983 0.0750086 0.
0.569984 0.0750078 0.
0.571985 0.075007 0.
0.573987 0.0750067 0.
0.575988 0.0750064 0.
0.57799 0.0750061 0.
0.579991 0.0750056 0.
0.581992 0.0750052 0.
0.583993 0.0750047 0.
0.585995 0.075004 0.
0.587996 0.0750034 0.
0.589997 0.0750032 0.
0.591997 0.0750033 0.
0.593998 0.0750035 0.
0.595999 0.0750035 0.
0.598 0.0750036 0.
0.600001 0.0750036 0.
0.602002 0.0750039 0.
0.604004 0.0750042 0.
0.606006 0.0750045 0.
0.608007 0.0750047 0.
0.610008 0.0750048 0.
0.61201 0.075005 0.
0.614011 0.0750054 0.
0.616012 0.0750058 0.
0.618013 0.0750061 0.
0.620014 0.0750064 0.
0.622015 0.0750067 0.
0.624016 0.0750069 0.
0.626018 0.075007 0.
0.628019 0.0750072 0.
0.63002 0.0750077 0.
0.632021 0.0750081 0.
0.634022 0.0750085 0.
0.636022 0.075009 0.
0.638023 0.0750094 0.
0.640024 0.0750103 0.
0.642025 0.0750115 0.
0.644025 0.0750128 0.
0.646026 0.0750142 0.
0.648028 0.0750157 0.
0.650029 0.0750172 0.
0.65203 0.075017 0.
0.654031 0.0750169 0.
0.656031 0.0750168 0.
0.658032 0.0750172 0.
0.660032 0.0750175 0.
0.662032 0.0750181 0.
0.664033 0.075019 0.
0.666034 0.0750199 0.
0.668034 0.0750205 0.
0.670034 0.0750209 0.
0.672035 0.0750213 0.
0.674036 0.0750214 0.
0.676037 0.0750215 0.
0.678038 0.0750216 0.
0.680038 0.0750218 0.
0.682038 0.0750221 0.
0.684038 0.0750225 0.
0.686039 0.0750231 0.
0.688039 0.0750238 0.
0.69004 0.0750243 0.
0.69204 0.0750248 0.
0.694041 0.0750253 0.
0.69604 0.0750267 0.
0.69804 0.0750283 0.
0.499961 0.0770292 0.
0.501961 0.0770289 0.
0.503961 0.0770288 0.
0.505962 0.0770285 0.
0.507962 0.0770277 0.
0.509963 0.0770269 0.
0.511963 0.0770262 0.
0.513964 0.0770258 0.
0.515965 0.0770254 0.
0.517965 0.077025 0.
0.519965 0.0770244 0.
0.521966 0.0770239 0.
0.523966 0.0770231 0.
0.525967 0.0770222 0.
0.527967 0.0770213 0.
0.529968 0.0770206 0.
0.531968 0.07702 0.
0.533969 0.0770193 0.
0.535969 0.0770184 0.
0.537969 0.0770176 0.
0.53997 0.0770167 0.
0.541971 0.0770158 0.
0.543972 0.0770149 0.
0.545973 0.0770142 0.
0.547973 0.0770135 0.
0.549974 0.0770129 0.
0.551975 0.0770124 0.
0.553976 0.077012 0.
0.555977 0.0770115 0.
0.557978 0.0770109 0.
0.559979 0.0770104 0.
0.56198 0.0770098 0.
0.563981 0.0770092 0.
0.565982 0.0770086 0.
0.567983 0.077008 0.
0.569984 0.0770073 0.
0.571985 0.0770066 0.
0.573987 0.0770062 0.
0.575988 0.0770057 0.
0.57799 0.0770053 0.
0.579991 0.0770051 0.
0.581992 0.0770048 0.
0.583993 0.0770044 0.
0.585994 0.0770039 0.
0.587995 0.0770034 0.
0.589996 0.0770032 0.
0.591997 0.0770034 0.
0.593998 0.0770036 0.
0.595999 0.0770036 0.
0.598 0.0770036 0.
0.600001 0.0770036 0.
0.602003 0.0770037 0.
0.604004 0.0770038 0.
0.606006 0.077004 0.
0.608007 0.0770043 0.
0.610009 0.0770045 0.
0.61201 0.0770049 0.
0.614011 0.0770053 0.
0.616012 0.0770057 0.
0.618013 0.0770059 0.
0.620014 0.0770061 0.
0.622015 0.0770062 0.
0.624016 0.0770064 0.
0.626017 0.0770066 0.
0.628019 0.0770068 0.
0.630019 0.0770074 0.
0.63202 0.0770079 0.
0.634021 0.0770084 0.
0.636022 0.0770089 0.
0.638023 0.0770094 0.
0.640024 0.0770103 0.
0.642024 0.0770115 0.
0.644025 0.0770127 0.
0.646026 0.0770141 0.
0.648027 0.0770155 0.
0.650028 0.0770169 0.
0.652029 0.077017 0.
0.65403 0.077017 0.
0.65603 0.077017 0.
0.658031 0.0770174 0.
0.660031 0.0770178 0.
0.662031 0.0770183 0.
0.664032 0.077019 0.
0.666033 0.0770197 0.
0.668033 0.0770204 0.
0.670034 0.0770209 0.
0.672035 0.0770215 0.
0.674035 0.0770214 0.
0.676036 0.0770211 0.
0.678037 0.077021 0.
0.680038 0.0770218 0.
0.682038 0.0770225 0.
0.684038 0.0770231 0.
0.686039 0.0770234 0.
0.68804 0.0770238 0.
0.69004 0.0770243 0.
0.69204 0.0770249 0.
0.69404 0.0770255 0.
0.69604 0.0770266 0.
0.69804 0.077028 0.
0.499962 0.0790299 0.
0.501962 0.0790294 0.
0.503962 0.079029 0.
0.505962 0.0790285 0.
0.507963 0.0790276 0.
0.509963 0.0790266 0.
0.511964 0.079026 0.
0.513964 0.0790256 0.
0.515965 0.0790253 0.
0.517965 0.0790249 0.
0.519965 0.0790244 0.
0.521965 0.0790239 0.
0.523966 0.0790232 0.
0.525967 0.0790224 0.
0.527968 0.0790216 0.
0.529968 0.0790208 0.
0.531969 0.07902 0.
0.533969 0.0790193 0.
0.53597 0.0790186 0.
0.53797 0.0790179 0.
0.539971 0.0790171 0.
0.541972 0.0790161 0.
0.543973 0.0790151 0.
0.545973 0.0790143 0.
0.547974 0.0790137 0.
0.549974 0.079013 0.
0.551975 0.0790123 0.
0.553976 0.0790117 0.
0.555977 0.079011 0.
0.557978 0.0790105 0.
0.559979 0.0790099 0.
0.56198 0.0790093 0.
0.563981 0.0790087 0.
0.565982 0.079008 0.
0.567983 0.0790074 0.
0.569984 0.0790068 0.
0.571985 0.0790062 0.
0.573986 0.0790056 0.
0.575988 0.0790051 0.
0.577989 0.0790046 0.
0.579991 0.0790045 0.
0.581992 0.0790044 0.
0.583993 0.0790042 0.
0.585994 0.0790038 0.
0.587995 0.0790033 0.
0.589996 0.0790033 0.
0.591997 0.0790035 0.
0.593998 0.0790038 0.
0.595999 0.0790037 0.
0.598 0.0790037 0.
0.600001 0.0790036 0.
0.602003 0.0790035 0.
0.604005 0.0790034 0.
0.606006 0.0790034 0.
0.608008 0.0790038 0.
0.610009 0.0790043 0.
0.61201 0.0790047 0.
0.61401 0.0790051 0.
0.616011 0.0790056 0.
0.618012 0.0790057 0.
0.620013 0.0790057 0.
0.622015 0.0790058 0.
0.624016 0.079006 0.
0.626017 0.0790062 0.
0.628018 0.0790065 0.
0.630019 0.0790071 0.
0.632019 0.0790077 0.
0.63402 0.0790082 0.
0.636021 0.0790089 0.
0.638022 0.0790095 0.
0.640023 0.0790104 0.
0.642024 0.0790115 0.
0.644025 0.0790125 0.
0.646026 0.0790139 0.
0.648027 0.0790153 0.
0.650028 0.0790167 0.
0.652028 0.0790169 0.
0.654029 0.079017 0.
0.656029 0.0790172 0.
0.65803 0.0790176 0.
0.66003 0.079018 0.
0.66203 0.0790185 0.
0.664031 0.079019 0.
0.666032 0.0790195 0.
0.668033 0.0790202 0.
0.670034 0.079021 0.
0.672035 0.0790218 0.
0.674035 0.0790213 0.
0.676036 0.0790208 0.
0.678037 0.0790204 0.
0.680037 0.0790217 0.
0.682038 0.0790229 0.
0.684038 0.0790237 0.
0.686039 0.0790238 0.
0.68804 0.0790238 0.
0.69004 0.0790242 0.
0.69204 0.0790249 0.
0.694039 0.0790256 0.
0.696039 0.0790266 0.
0.698039 0.0790277 0.
0.499963 0.0810305 0.
0.501963 0.0810299 0.
0.503963 0.0810294 0.
0.505963 0.0810288 0.
0.507963 0.0810277 0.
0.509964 0.0810267 0.
0.511964 0.081026 0.
0.513965 0.0810256 0.
0.515965 0.0810253 0.
0.517965 0.0810248 0.
0.519966 0.0810244 0.
0.521966 0.0810239 0.
0.523966 0.0810232 0.
0.525967 0.0810224 0.
0.527968 0.0810217 0.
0.529969 0.0810209 0.
0.531969 0.0810201 0.
0.53397 0.0810193 0.
0.53597 0.0810184 0.
0.537971 0.0810176 0.
0.539971 0.0810167 0.
0.541972 0.0810158 0.
0.543973 0.0810148 0.
0.545974 0.0810142 0.
0.547975 0.0810136 0.
0.549975 0.081013 0.
0.551976 0.0810122 0.
0.553977 0.0810115 0.
0.555978 0.0810108 0.
0.557979 0.08101 0.
0.559979 0.0810093 0.
0.56198 0.0810087 0.
0.563981 0.0810081 0.
0.565982 0.0810075 0.
0.567983 0.0810069 0.
0.569984 0.0810063 0.
0.571985 0.0810057 0.
0.573987 0.0810052 0.
0.575988 0.0810047 0.
0.577989 0.0810042 0.
0.57999 0.081004 0.
0.581992 0.0810038 0.
0.583993 0.0810036 0.
0.585994 0.0810033 0.
0.587995 0.081003 0.
0.589996 0.081003 0.
0.591997 0.0810033 0.
0.593998 0.0810036 0.
0.595999 0.0810037 0.
0.598 0.0810036 0.
0.600001 0.0810036 0.
0.602003 0.0810034 0.
0.604005 0.0810032 0.
0.606007 0.0810032 0.
0.608008 0.0810036 0.
0.610009 0.0810041 0.
0.61201 0.0810045 0.
0.61401 0.0810049 0.
0.616011 0.0810053 0.
0.618012 0.0810054 0.
0.620013 0.0810054 0.
0.622014 0.0810054 0.
0.624015 0.0810057 0.
0.626017 0.0810061 0.
0.628018 0.0810065 0.
0.630018 0.0810069 0.
0.632019 0.0810073 0.
0.63402 0.0810078 0.
0.636021 0.0810086 0.
0.638022 0.0810094 0.
0.640023 0.0810103 0.
0.642024 0.0810113 0.
0.644025 0.0810124 0.
0.646026 0.0810136 0.
0.648027 0.081015 0.
0.650027 0.0810163 0.
0.652028 0.0810166 0.
0.654029 0.0810169 0.
0.656029 0.0810173 0.
0.658029 0.0810178 0.
0.66003 0.0810184 0.
0.66203 0.0810188 0.
0.664031 0.0810191 0.
0.666032 0.0810194 0.
0.668033 0.08102 0.
0.670034 0.0810207 0.
0.672034 0.0810215 0.
0.674035 0.0810212 0.
0.676036 0.0810207 0.
0.678036 0.0810205 0.
0.680037 0.0810219 0.
0.682037 0.0810233 0.
0.684038 0.0810241 0.
0.686039 0.081024 0.
0.68804 0.0810238 0.
0.69004 0.0810243 0.
0.692039 0.0810251 0.
0.694039 0.0810259 0.
0.696039 0.0810267 0.
0.698039 0.0810275 0.
0.499963 0.0830307 0.
0.501963 0.0830302 0.
0.503964 0.0830297 0.
0.505964 0.0830292 0.
0.507964 0.0830281 0.
0.509965 0.0830271 0.
0.511965 0.0830263 0.
0.513965 0.0830258 0.
0.515966 0.0830253 0.
0.517966 0.0830248 0.
0.519966 0.0830243 0.
0.521967 0.0830238 0.
0.523967 0.083023 0.
0.525968 0.0830222 0.
0.527968 0.0830215 0.
0.529969 0.0830209 0.
0.53197 0.0830203 0.
0.53397 0.0830194 0.
0.535971 0.083018 0.
0.537972 0.0830165 0.
0.539972 0.0830155 0.
0.541973 0.0830149 0.
0.543974 0.0830142 0.
0.545975 0.0830137 0.
0.547976 0.0830132 0.
0.549977 0.0830127 0.
0.551978 0.0830121 0.
0.553978 0.0830114 0.
0.555979 0.0830107 0.
0.557979 0.0830096 0.
0.55998 0.0830085 0.
0.56198 0.0830078 0.
0.563981 0.0830075 0.
0.565982 0.0830072 0.
0.567984 0.0830066 0.
0.569985 0.0830059 0.
0.571986 0.0830051 0.
0.573987 0.0830047 0.
0.575988 0.0830044 0.
0.57799 0.0830041 0.
0.579991 0.0830036 0.
0.581992 0.0830031 0.
0.583993 0.0830026 0.
0.585994 0.0830025 0.
0.587996 0.0830023 0.
0.589996 0.0830024 0.
0.591997 0.0830029 0.
0.593998 0.0830033 0.
0.595999 0.0830034 0.
0.598001 0.0830035 0.
0.600002 0.0830035 0.
0.602004 0.0830034 0.
0.604005 0.0830033 0.
0.606007 0.0830033 0.
0.608008 0.0830036 0.
0.610009 0.083004 0.
0.61201 0.0830043 0.
0.61401 0.0830045 0.
0.616011 0.0830048 0.
0.618012 0.0830049 0.
0.620013 0.0830051 0.
0.622013 0.0830052 0.
0.624015 0.0830057 0.
0.626016 0.0830062 0.
0.628018 0.0830067 0.
0.630018 0.0830067 0.
0.632019 0.0830068 0.
0.63402 0.0830071 0.
0.636021 0.0830081 0.
0.638022 0.0830091 0.
0.640022 0.0830101 0.
0.642023 0.0830112 0.
0.644024 0.0830123 0.
0.646025 0.0830134 0.
0.648026 0.0830145 0.
0.650027 0.0830156 0.
0.652028 0.0830161 0.
0.654029 0.0830166 0.
0.656029 0.0830172 0.
0.65803 0.083018 0.
0.66003 0.0830188 0.
0.662031 0.0830193 0.
0.664032 0.0830193 0.
0.666033 0.0830193 0.
0.668033 0.0830197 0.
0.670034 0.0830202 0.
0.672034 0.0830207 0.
0.674035 0.0830209 0.
0.676035 0.0830209 0.
0.678036 0.0830211 0.
0.680036 0.0830223 0.
0.682036 0.0830236 0.
0.684037 0.0830243 0.
0.686037 0.0830241 0.
0.688038 0.0830239 0.
0.690038 0.0830244 0.
0.692038 0.0830254 0.
0.694038 0.0830264 0.
0.696038 0.083027 0.
0.698039 0.0830275 0.
0.499964 0.085031 0.
0.501964 0.0850305 0.
0.503964 0.0850301 0.
0.505965 0.0850296 0.
0.507965 0.0850285 0.
0.509966 0.0850274 0.
0.511966 0.0850266 0.
0.513966 0.085026 0.
0.515966 0.0850254 0.
0.517966 0.0850248 0.
0.519967 0.0850242 0.
0.521968 0.0850236 0.
0.523968 0.0850228 0.
0.525968 0.085022 0.
0.527969 0.0850213 0.
0.52997 0.0850209 0.
0.53197 0.0850204 0.
0.533971 0.0850195 0.
0.535972 0.0850175 0.
0.537973 0.0850155 0.
0.539973 0.0850144 0.
0.541974 0.085014 0.
0.543975 0.0850136 0.
0.545976 0.0850132 0.
0.547977 0.0850128 0.
0.549978 0.0850125 0.
0.551979 0.0850119 0.
0.55398 0.0850114 0.
0.55598 0.0850106 0.
0.55798 0.0850092 0.
0.55998 0.0850077 0.
0.561981 0.0850069 0.
0.563982 0.0850069 0.
0.565982 0.0850069 0.
0.567984 0.0850063 0.
0.569985 0.0850054 0.
0.571986 0.0850046 0.
0.573988 0.0850043 0.
0.575989 0.0850042 0.
0.57799 0.085004 0.
0.579991 0.0850032 0.
0.581992 0.0850023 0.
0.583993 0.0850017 0.
0.585994 0.0850016 0.
0.587996 0.0850016 0.
0.589997 0.0850019 0.
0.591997 0.0850024 0.
0.593998 0.085003 0.
0.595999 0.0850032 0.
0.598001 0.0850034 0.
0.600003 0.0850035 0.
0.602004 0.0850034 0.
0.604006 0.0850034 0.
0.606007 0.0850034 0.
0.608008 0.0850036 0.
0.610008 0.0850039 0.
0.612009 0.0850041 0.
0.61401 0.0850042 0.
0.616011 0.0850043 0.
0.618012 0.0850045 0.
0.620012 0.0850047 0.
0.622013 0.085005 0.
0.624014 0.0850057 0.
0.626016 0.0850064 0.
0.628017 0.0850069 0.
0.630019 0.0850066 0.
0.63202 0.0850062 0.
0.63402 0.0850064 0.
0.636021 0.0850076 0.
0.638022 0.0850087 0.
0.640022 0.0850099 0.
0.642023 0.085011 0.
0.644023 0.0850121 0.
0.646024 0.0850131 0.
0.648026 0.0850141 0.
0.650027 0.085015 0.
0.652028 0.0850157 0.
0.654029 0.0850163 0.
0.656029 0.0850171 0.
0.65803 0.0850182 0.
0.660031 0.0850193 0.
0.662032 0.0850197 0.
0.664033 0.0850195 0.
0.666033 0.0850192 0.
0.668034 0.0850193 0.
0.670034 0.0850197 0.
0.672034 0.08502 0.
0.674034 0.0850205 0.
0.676035 0.0850212 0.
0.678035 0.0850218 0.
0.680035 0.0850228 0.
0.682035 0.0850238 0.
0.684036 0.0850244 0.
0.686036 0.0850242 0.
0.688037 0.085024 0.
0.690037 0.0850245 0.
0.692037 0.0850257 0.
0.694038 0.0850269 0.
0.696038 0.0850273 0.
0.698038 0.0850275 0.
0.499965 0.0870309 0.
0.501965 0.0870306 0.
0.503965 0.0870301 0.
0.505965 0.0870296 0.
0.507966 0.0870289 0.
0.509966 0.0870281 0.
0.511966 0.0870273 0.
0.513966 0.0870265 0.
0.515967 0.0870257 0.
0.517967 0.0870249 0.
0.519968 0.0870242 0.
0.521968 0.0870234 0.
0.523969 0.0870225 0.
0.525969 0.0870216 0.
0.527969 0.0870207 0.
0.52997 0.0870203 0.
0.531971 0.0870199 0.
0.533972 0.0870191 0.
0.535973 0.0870174 0.
0.537974 0.0870156 0.
0.539975 0.0870147 0.
0.541975 0.0870143 0.
0.543976 0.087014 0.
0.545977 0.0870135 0.
0.547978 0.0870129 0.
0.549978 0.0870123 0.
0.551979 0.0870117 0.
0.55398 0.0870111 0.
0.55598 0.0870103 0.
0.557981 0.0870091 0.
0.559981 0.0870078 0.
0.561981 0.0870069 0.
0.563982 0.0870067 0.
0.565983 0.0870064 0.
0.567984 0.0870058 0.
0.569986 0.087005 0.
0.571987 0.0870041 0.
0.573988 0.0870038 0.
0.575989 0.0870036 0.
0.577991 0.0870033 0.
0.579992 0.0870027 0.
0.581992 0.0870022 0.
0.583993 0.0870017 0.
0.585994 0.0870016 0.
0.587995 0.0870014 0.
0.589996 0.0870014 0.
0.591997 0.0870015 0.
0.593998 0.0870017 0.
0.595999 0.0870021 0.
0.598001 0.0870026 0.
0.600003 0.0870031 0.
0.602004 0.087003 0.
0.604006 0.087003 0.
0.606007 0.087003 0.
0.608008 0.0870032 0.
0.610009 0.0870035 0.
0.612009 0.0870037 0.
0.61401 0.0870038 0.
0.616011 0.087004 0.
0.618011 0.0870041 0.
0.620012 0.0870042 0.
0.622012 0.0870044 0.
0.624014 0.087005 0.
0.626015 0.0870056 0.
0.628017 0.0870062 0.
0.630018 0.087006 0.
0.632019 0.0870058 0.
0.63402 0.0870061 0.
0.63602 0.0870074 0.
0.638021 0.0870087 0.
0.640022 0.0870098 0.
0.642022 0.0870108 0.
0.644023 0.0870119 0.
0.646024 0.087013 0.
0.648025 0.0870142 0.
0.650027 0.0870153 0.
0.652027 0.0870158 0.
0.654028 0.0870163 0.
0.656029 0.0870169 0.
0.658029 0.0870178 0.
0.66003 0.0870187 0.
0.662031 0.0870192 0.
0.664032 0.0870191 0.
0.666032 0.087019 0.
0.668033 0.0870193 0.
0.670033 0.0870197 0.
0.672033 0.0870201 0.
0.674034 0.0870206 0.
0.676034 0.0870211 0.
0.678035 0.0870217 0.
0.680035 0.0870226 0.
0.682035 0.0870235 0.
0.684035 0.0870241 0.
0.686036 0.0870241 0.
0.688036 0.0870242 0.
0.690036 0.0870248 0.
0.692037 0.0870259 0.
0.694037 0.087027 0.
0.696037 0.0870276 0.
0.698037 0.0870282 0.
0.499966 0.0890307 0.
0.501966 0.0890306 0.
0.503966 0.0890302 0.
0.505966 0.0890297 0.
0.507966 0.0890292 0.
0.509966 0.0890287 0.
0.511967 0.089028 0.
0.513967 0.089027 0.
0.515967 0.089026 0.
0.517968 0.089025 0.
0.519968 0.0890241 0.
0.521969 0.0890232 0.
0.523969 0.0890222 0.
0.525969 0.0890212 0.
0.52797 0.0890202 0.
0.529971 0.0890198 0.
0.531972 0.0890194 0.
0.533973 0.0890187 0.
0.535974 0.0890173 0.
0.537975 0.0890158 0.
0.539976 0.089015 0.
0.541976 0.0890147 0.
0.543977 0.0890144 0.
0.545977 0.0890137 0.
0.547978 0.0890129 0.
0.549978 0.0890122 0.
0.551979 0.0890115 0.
0.55398 0.0890108 0.
0.555981 0.08901 0.
0.557981 0.0890089 0.
0.559982 0.0890078 0.
0.561982 0.089007 0.
0.563983 0.0890065 0.
0.565984 0.089006 0.
0.567985 0.0890053 0.
0.569986 0.0890045 0.
0.571987 0.0890037 0.
0.573989 0.0890033 0.
0.57599 0.0890029 0.
0.577992 0.0890026 0.
0.579992 0.0890023 0.
0.581993 0.089002 0.
0.583994 0.0890018 0.
0.585994 0.0890015 0.
0.587995 0.0890012 0.
0.589996 0.0890009 0.
0.591997 0.0890007 0.
0.593998 0.0890004 0.
0.596 0.089001 0.
0.598001 0.0890018 0.
0.600002 0.0890026 0.
0.602004 0.0890026 0.
0.604005 0.0890026 0.
0.606007 0.0890026 0.
0.608008 0.0890028 0.
0.610009 0.0890031 0.
0.61201 0.0890033 0.
0.61401 0.0890035 0.
0.61601 0.0890036 0.
0.618011 0.0890037 0.
0.620011 0.0890037 0.
0.622012 0.0890038 0.
0.624013 0.0890043 0.
0.626015 0.0890049 0.
0.628016 0.0890054 0.
0.630017 0.0890054 0.
0.632018 0.0890054 0.
0.634019 0.0890058 0.
0.63602 0.0890072 0.
0.63802 0.0890086 0.
0.640021 0.0890097 0.
0.642022 0.0890107 0.
0.644023 0.0890116 0.
0.646024 0.0890129 0.
0.648025 0.0890143 0.
0.650026 0.0890157 0.
0.652027 0.089016 0.
0.654027 0.0890163 0.
0.656028 0.0890167 0.
0.658029 0.0890175 0.
0.660029 0.0890182 0.
0.66203 0.0890187 0.
0.664031 0.0890187 0.
0.666032 0.0890188 0.
0.668032 0.0890192 0.
0.670032 0.0890197 0.
0.672033 0.0890203 0.
0.674033 0.0890207 0.
0.676033 0.0890211 0.
0.678034 0.0890216 0.
0.680034 0.0890224 0.
0.682034 0.0890231 0.
0.684035 0.0890238 0.
0.686035 0.0890241 0.
0.688035 0.0890244 0.
0.690036 0.0890251 0.
0.692036 0.089026 0.
0.694037 0.089027 0.
0.696037 0.089028 0.
0.698036 0.089029 0.
0.499966 0.0910303 0.
0.501967 0.0910304 0.
0.503967 0.0910301 0.
0.505967 0.0910297 0.
0.507967 0.0910293 0.
0.509967 0.0910289 0.
0.511967 0.0910282 0.
0.513968 0.0910271 0.
0.515968 0.0910261 0.
0.517968 0.0910251 0.
0.519969 0.091024 0.
0.521969 0.091023 0.
0.52397 0.0910219 0.
0.52597 0.0910207 0.
0.527971 0.0910197 0.
0.529972 0.0910192 0.
0.531972 0.0910187 0.
0.533973 0.0910181 0.
0.535975 0.0910169 0.
0.537976 0.0910158 0.
0.539977 0.0910151 0.
0.541977 0.0910148 0.
0.543977 0.0910145 0.
0.545978 0.0910137 0.
0.547978 0.0910127 0.
0.549978 0.0910117 0.
0.551979 0.091011 0.
0.55398 0.0910104 0.
0.555981 0.0910096 0.
0.557982 0.0910086 0.
0.559982 0.0910077 0.
0.561983 0.0910069 0.
0.563984 0.0910063 0.
0.565985 0.0910057 0.
0.567986 0.091005 0.
0.569987 0.0910042 0.
0.571988 0.0910034 0.
0.573989 0.0910029 0.
0.575991 0.0910026 0.
0.577992 0.0910022 0.
0.579993 0.091002 0.
0.581994 0.0910018 0.
0.583994 0.0910016 0.
0.585994 0.0910012 0.
0.587995 0.0910009 0.
0.589996 0.0910004 0.
0.591997 0.091 0.
0.593998 0.0909996 0.
0.596 0.0910003 0.
0.598001 0.0910014 0.
0.600002 0.0910024 0.
0.602003 0.0910024 0.
0.604005 0.0910023 0.
0.606006 0.0910023 0.
0.608007 0.0910026 0.
0.610008 0.0910029 0.
0.612009 0.0910031 0.
0.61401 0.0910033 0.
0.61601 0.0910034 0.
0.618011 0.0910034 0.
0.620011 0.0910034 0.
0.622012 0.0910033 0.
0.624013 0.0910037 0.
0.626014 0.0910042 0.
0.628016 0.0910046 0.
0.630016 0.0910049 0.
0.632017 0.0910051 0.
0.634018 0.0910057 0.
0.636019 0.0910069 0.
0.63802 0.0910082 0.
0.640021 0.0910093 0.
0.642022 0.0910103 0.
0.644022 0.0910114 0.
0.646023 0.0910128 0.
0.648025 0.0910142 0.
0.650026 0.0910156 0.
0.652026 0.0910159 0.
0.654027 0.0910162 0.
0.656028 0.0910165 0.
0.658028 0.0910172 0.
0.660029 0.0910179 0.
0.66203 0.0910183 0.
0.66403 0.0910186 0.
0.666031 0.0910188 0.
0.668031 0.0910193 0.
0.670032 0.0910199 0.
0.672032 0.0910204 0.
0.674032 0.0910208 0.
0.676033 0.0910212 0.
0.678033 0.0910216 0.
0.680034 0.0910224 0.
0.682034 0.0910232 0.
0.684034 0.0910238 0.
0.686034 0.0910243 0.
0.688035 0.0910247 0.
0.690035 0.0910253 0.
0.692036 0.0910262 0.
0.694036 0.091027 0.
0.696036 0.0910282 0.
0.698035 0.0910295 0.
0.499967 0.0930297 0.
0.501967 0.0930299 0.
0.503968 0.0930298 0.
0.505968 0.0930296 0.
0.507968 0.0930291 0.
0.509968 0.0930286 0.
0.511968 0.0930279 0.
0.513968 0.093027 0.
0.515969 0.0930261 0.
0.517969 0.0930251 0.
0.519969 0.093024 0.
0.52197 0.093023 0.
0.52397 0.0930217 0.
0.525971 0.0930204 0.
0.527972 0.0930191 0.
0.529972 0.0930185 0.
0.531973 0.0930178 0.
0.533974 0.0930171 0.
0.535975 0.0930164 0.
0.537976 0.0930157 0.
0.539977 0.0930152 0.
0.541977 0.0930148 0.
0.543978 0.0930145 0.
0.545978 0.0930135 0.
0.547979 0.0930122 0.
0.549979 0.093011 0.
0.55198 0.0930104 0.
0.553981 0.0930098 0.
0.555982 0.0930091 0.
0.557982 0.0930082 0.
0.559983 0.0930073 0.
0.561984 0.0930066 0.
0.563985 0.0930061 0.
0.565985 0.0930056 0.
0.567986 0.0930049 0.
0.569987 0.093004 0.
0.571988 0.0930032 0.
0.573989 0.0930028 0.
0.575991 0.0930024 0.
0.577992 0.0930021 0.
0.579993 0.0930019 0.
0.581993 0.0930016 0.
0.583994 0.0930013 0.
0.585995 0.0930008 0.
0.587995 0.0930003 0.
0.589996 0.0929999 0.
0.591997 0.0929995 0.
0.593998 0.0929992 0.
0.595999 0.093 0.
0.598 0.0930012 0.
0.600001 0.0930024 0.
0.602003 0.0930023 0.
0.604004 0.0930021 0.
0.606006 0.0930021 0.
0.608007 0.0930025 0.
0.610008 0.0930029 0.
0.612009 0.0930032 0.
0.614009 0.0930032 0.
0.61601 0.0930032 0.
0.61801 0.0930032 0.
0.620011 0.0930032 0.
0.622012 0.0930031 0.
0.624013 0.0930034 0.
0.626014 0.0930037 0.
0.628015 0.093004 0.
0.630016 0.0930045 0.
0.632017 0.093005 0.
0.634018 0.0930057 0.
0.636018 0.0930065 0.
0.638019 0.0930074 0.
0.64002 0.0930085 0.
0.642021 0.0930098 0.
0.644022 0.0930112 0.
0.646023 0.0930125 0.
0.648024 0.0930138 0.
0.650025 0.0930152 0.
0.652026 0.0930156 0.
0.654027 0.093016 0.
0.656027 0.0930165 0.
0.658028 0.093017 0.
0.660029 0.0930176 0.
0.66203 0.0930181 0.
0.66403 0.0930186 0.
0.66603 0.0930191 0.
0.668031 0.0930195 0.
0.670031 0.09302 0.
0.672031 0.0930205 0.
0.674032 0.093021 0.
0.676032 0.0930214 0.
0.678033 0.0930218 0.
0.680033 0.0930227 0.
0.682033 0.0930236 0.
0.684034 0.0930243 0.
0.686034 0.0930247 0.
0.688034 0.0930251 0.
0.690034 0.0930257 0.
0.692034 0.0930263 0.
0.694035 0.0930269 0.
0.696035 0.0930283 0.
0.698035 0.0930298 0.
0.499968 0.0950291 0.
0.501968 0.0950295 0.
0.503968 0.0950295 0.
0.505969 0.0950294 0.
0.507969 0.0950289 0.
0.509969 0.0950283 0.
0.511969 0.0950277 0.
0.513969 0.0950269 0.
0.51597 0.0950261 0.
0.51797 0.0950251 0.
0.51997 0.095024 0.
0.521971 0.0950229 0.
0.523971 0.0950215 0.
0.525972 0.09502 0.
0.527973 0.0950186 0.
0.529973 0.0950177 0.
0.531974 0.0950168 0.
0.533974 0.0950162 0.
0.535975 0.0950158 0.
0.537976 0.0950155 0.
0.539977 0.0950152 0.
0.541977 0.0950148 0.
0.543978 0.0950145 0.
0.545978 0.0950133 0.
0.547979 0.0950118 0.
0.54998 0.0950102 0.
0.551981 0.0950097 0.
0.553981 0.0950092 0.
0.555982 0.0950086 0.
0.557983 0.0950078 0.
0.559984 0.0950069 0.
0.561984 0.0950063 0.
0.563985 0.0950059 0.
0.565986 0.0950055 0.
0.567987 0.0950048 0.
0.569988 0.0950039 0.
0.571988 0.095003 0.
0.57399 0.0950026 0.
0.575991 0.0950023 0.
0.577993 0.095002 0.
0.579993 0.0950017 0.
0.581993 0.0950014 0.
0.583994 0.0950009 0.
0.585995 0.0950004 0.
0.587996 0.0949998 0.
0.589997 0.0949994 0.
0.591998 0.0949991 0.
0.593998 0.0949988 0.
0.595999 0.0949998 0.
0.598 0.0950011 0.
0.600001 0.0950025 0.
0.602002 0.0950022 0.
0.604004 0.0950019 0.
0.606005 0.0950018 0.
0.608006 0.0950024 0.
0.610007 0.095003 0.
0.612008 0.0950032 0.
0.614009 0.0950032 0.
0.61601 0.0950031 0.
0.61801 0.095003 0.
0.620011 0.095003 0.
0.622012 0.0950029 0.
0.624013 0.095003 0.
0.626014 0.0950031 0.
0.628015 0.0950033 0.
0.630016 0.0950041 0.
0.632016 0.0950049 0.
0.634017 0.0950057 0.
0.636018 0.0950062 0.
0.638019 0.0950067 0.
0.640019 0.0950078 0.
0.64202 0.0950093 0.
0.644021 0.0950109 0.
0.646022 0.0950122 0.
0.648023 0.0950135 0.
0.650024 0.0950147 0.
0.652025 0.0950153 0.
0.654026 0.0950159 0.
0.656027 0.0950164 0.
0.658028 0.0950169 0.
0.660029 0.0950174 0.
0.662029 0.095018 0.
0.66403 0.0950186 0.
0.66603 0.0950193 0.
0.66803 0.0950198 0.
0.67003 0.0950202 0.
0.67203 0.0950206 0.
0.674031 0.0950211 0.
0.676032 0.0950215 0.
0.678033 0.095022 0.
0.680033 0.095023 0.
0.682033 0.095024 0.
0.684033 0.0950248 0.
0.686033 0.0950252 0.
0.688033 0.0950256 0.
0.690033 0.095026 0.
0.692033 0.0950264 0.
0.694033 0.0950268 0.
0.696034 0.0950283 0.
0.698034 0.0950301 0.
0.499969 0.0970293 0.
0.501969 0.0970294 0.
0.503969 0.0970295 0.
0.50597 0.0970294 0.
0.50797 0.097029 0.
0.50997 0.0970286 0.
0.51197 0.0970279 0.
0.51397 0.0970269 0.
0.515971 0.0970259 0.
0.517971 0.0970247 0.
0.519971 0.0970234 0.
0.521972 0.0970221 0.
0.523972 0.0970209 0.
0.525973 0.0970198 0.
0.527973 0.0970186 0.
0.529974 0.0970175 0.
0.531974 0.0970164 0.
0.533975 0.0970156 0.
0.535975 0.0970155 0.
0.537976 0.0970154 0.
0.539977 0.0970151 0.
0.541978 0.0970147 0.
0.543979 0.0970142 0.
0.545979 0.097013 0.
0.54798 0.0970115 0.
0.54998 0.09701 0.
0.551981 0.0970093 0.
0.553982 0.0970087 0.
0.555983 0.097008 0.
0.557984 0.0970073 0.
0.559985 0.0970065 0.
0.561986 0.0970057 0.
0.563987 0.097005 0.
0.565987 0.0970042 0.
0.567988 0.0970036 0.
0.569989 0.097003 0.
0.571989 0.0970024 0.
0.57399 0.0970023 0.
0.575992 0.0970023 0.
0.577993 0.0970022 0.
0.579993 0.097002 0.
0.581994 0.0970017 0.
0.583994 0.0970013 0.
0.585995 0.0970005 0.
0.587996 0.0969996 0.
0.589997 0.0969992 0.
0.591998 0.096999 0.
0.593999 0.0969989 0.
0.596 0.0969997 0.
0.598001 0.0970008 0.
0.600002 0.097002 0.
0.602002 0.0970017 0.
0.604003 0.0970014 0.
0.606005 0.0970013 0.
0.608006 0.0970017 0.
0.610007 0.0970021 0.
0.612008 0.0970024 0.
0.614009 0.0970024 0.
0.61601 0.0970024 0.
0.61801 0.0970025 0.
0.620011 0.0970026 0.
0.622011 0.0970027 0.
0.624012 0.0970026 0.
0.626013 0.0970025 0.
0.628014 0.0970024 0.
0.630015 0.0970032 0.
0.632016 0.097004 0.
0.634017 0.0970049 0.
0.636017 0.0970061 0.
0.638018 0.0970073 0.
0.640019 0.0970085 0.
0.64202 0.0970098 0.
0.64402 0.097011 0.
0.646021 0.0970121 0.
0.648023 0.0970133 0.
0.650024 0.0970144 0.
0.652025 0.0970151 0.
0.654026 0.0970159 0.
0.656027 0.0970166 0.
0.658028 0.097017 0.
0.660028 0.0970175 0.
0.662029 0.097018 0.
0.664029 0.0970185 0.
0.666029 0.0970191 0.
0.66803 0.0970195 0.
0.67003 0.0970198 0.
0.67203 0.0970201 0.
0.674031 0.0970207 0.
0.676031 0.0970213 0.
0.678032 0.0970219 0.
0.680032 0.0970226 0.
0.682032 0.0970233 0.
0.684032 0.0970241 0.
0.686032 0.0970249 0.
0.688032 0.0970258 0.
0.690032 0.0970264 0.
0.692032 0.0970268 0.
0.694031 0.0970272 0.
0.696031 0.0970288 0.
0.698032 0.0970308 0.
0.49997 0.099029 0.
0.50197 0.0990293 0.
0.50397 0.0990294 0.
0.50597 0.0990295 0.
0.507971 0.0990291 0.
0.509971 0.0990288 0.
0.511971 0.0990281 0.
0.513971 0.099027 0.
0.515972 0.0990258 0.
0.517972 0.0990244 0.
0.519973 0.0990228 0.
0.521973 0.0990213 0.
0.523973 0.0990203 0.
0.525973 0.0990195 0.
0.527974 0.0990186 0.
0.529974 0.0990173 0.
0.531974 0.099016 0.
0.533975 0.0990151 0.
0.535976 0.0990152 0.
0.537976 0.0990152 0.
0.539977 0.099015 0.
0.541978 0.0990145 0.
0.543979 0.099014 0.
0.54598 0.0990127 0.
0.54798 0.0990112 0.
0.549981 0.0990097 0.
0.551982 0.0990089 0.
0.553983 0.0990082 0.
0.555984 0.0990074 0.
0.557985 0.0990067 0.
0.559986 0.0990061 0.
0.561987 0.0990052 0.
0.563988 0.0990041 0.
0.565989 0.099003 0.
0.56799 0.0990024 0.
0.56999 0.0990021 0.
0.57199 0.0990018 0.
0.573991 0.099002 0.
0.575992 0.0990022 0.
0.577993 0.0990024 0.
0.579993 0.0990023 0.
0.581994 0.0990021 0.
0.583995 0.0990017 0.
0.585995 0.0990006 0.
0.587996 0.0989995 0.
0.589997 0.098999 0.
0.591999 0.098999 0.
0.594 0.098999 0.
0.596001 0.0989997 0.
0.598002 0.0990006 0.
0.600002 0.0990014 0.
0.602003 0.0990012 0.
0.604003 0.0990009 0.
0.606004 0.0990007 0.
0.608005 0.099001 0.
0.610007 0.0990013 0.
0.612008 0.0990015 0.
0.614009 0.0990016 0.
0.61601 0.0990017 0.
0.61801 0.099002 0.
0.620011 0.0990023 0.
0.622011 0.0990026 0.
0.624012 0.0990022 0.
0.626013 0.0990018 0.
0.628014 0.0990015 0.
0.630015 0.0990023 0.
0.632016 0.0990031 0.
0.634016 0.0990042 0.
0.636017 0.0990061 0.
0.638018 0.0990079 0.
0.640018 0.0990093 0.
0.642019 0.0990102 0.
0.64402 0.0990111 0.
0.646021 0.0990121 0.
0.648022 0.0990131 0.
0.650024 0.099014 0.
0.652025 0.099015 0.
0.654026 0.0990159 0.
0.656027 0.0990167 0.
0.658027 0.0990172 0.
0.660028 0.0990176 0.
0.662028 0.099018 0.
0.664028 0.0990185 0.
0.666029 0.0990189 0.
0.668029 0.0990191 0.
0.670029 0.0990193 0.
0.67203 0.0990195 0.
0.67403 0.0990203 0.
0.676031 0.099021 0.
0.678031 0.0990218 0.
0.680031 0.0990222 0.
0.682031 0.0990227 0.
0.684031 0.0990234 0.
0.686031 0.0990247 0.
0.688031 0.099026 0.
0.690031 0.0990268 0.
0.69203 0.0990272 0.
0.694029 0.0990277 0.
0.696029 0.0990294 0.
0.698029 0.0990314 0.
CELLS 5000 10000
1 0
1 1
1 2
1 3
1 4
1 5
1 6
1 7
1 8
1 9
1 10
1 11
1 12
1 13
1 14
1 15
1 16
1 17
1 18
1 19
1 20
1 21
1 22
1 23
1 24
1 25
1 26
1 27
1 28
1 29
1 30
1 31
1 32
1 33
1 34
1 35
1 36
1 37
1 38
1 39
1 40
1 41
1 42
1 43
1 44
1 45
1 46
1 47
1 48
1 49
1 50
1 51
1 52
1 53
1 54
1 55
1 56
1 57
1 58
1 59
1 60
1 61
1 62
1 63
1 64
1 65
1 66
1 67
1 68
1 69
1 70
1 71
1 72
1 73
1 74
1 75
1 76
1 77
1 78
1 79
1 80
1 81
1 82
1 83
1 84
1 85
1 86
1 87
1 88
1 89
1 90
1 91
1 92
1 93
1 94
1 95
1 96
1 97
1 98
1 99
1 100
1 101
1 102
1 103
1 104
1 105
1 106
1 107
1 108
1 109
1 110
1 111
1 112
1 113
1 114
1 115
1 116
1 117
1 118
1 119
1 120
1 121
1 122
1 123
1 124
1 125
1 126
1 127
1 128
1 129
1 130
1 131
1 132
1 133
1 134
1 135
1 136
1 137
1 138
1 139
1 140
1 141
1 142
1 143
1 144
1 145
1 146
1 147
1 148
1 149
1 150
1 151
1 152
1 153
1 154
1 155
1 156
1 157
1 158
1 159
1 160
1 161
1 162
1 163
1 164
1 165
1 166
1 167
1 168
1 169
1 170
1 171
1 172
1 173
1 174
1 175
1 176
1 177
1 178
1 179
1 180
1 181
1 182
1 183
1 184
1 185
1 186
1 187
1 188
1 189
1 190
1 191
1 192
1 193
1 194
1 195
1 196
1 197
1 198
1 199
1 200
1 201
1 202
1 203
1 204
1 205
1 206
1 207
1 208
1 209
1 210
1 211
1 212
1 213
1 214
1 215
1 216
1 217
1 218
1 219
1 220
1 221
1 222
1 223
1 224
1 225
1 226
1 227
1 228
1 229
1 230
1 231
1 232
1 233
1 234
1 235
1 236
1 237
1 238
1 239
1 240
1 241
1 242
1 243
1 244
1 245
1 246
1 247
1 248
1 249
1 250
1 251
1 252
1 253
1 254
1 255
1 256
1 257
1 258
1 259
1 260
1 261
1 262
1 263
1 264
1 265
1 266
1 267
1 268
1 269
1 270
1 271
1 272
1 273
1 274
1 275
1 276
1 277
1 278
1 279
1 280
1 281
1 282
1 283
1 284
1 285
1 286
1 287
1 288
1 289
1 290
1 291
1 292
1 293
1 294
1 295
1 296
1 297
1 298
1 299
1 300
1 301
1 302
1 303
1 304
1 305
1 306
1 307
1 308
1 309
1 310
1 311
1 312
1 313
1 314
1 315
1 316
1 317
1 318
1 319
1 320
1 321
1 322
1 323
1 324
1 325
1 326
1 327
1 328
1 329
1 330
1 331
1 332
1 333
1 334
1 335
1 336
1 337
1 338
1 339
1 340
1 341
1 342
1 343
1 344
1 345
1 346
1 347
1 348
1 349
1 350
1 351
1 352
1 353
1 354
1 355
1 356
1 357
1 358
1 359
1 360
1 361
1 362
1 363
1 364
1 365
1 366
1 367
1 368
1 369
1 370
1 371
1 372
1 373
1 374
1 375
1 376
1 377
1 378
1 379
1 380
1 381
1 382
1 383
1 384
1 385
1 386
1 387
1 388
1 389
1 390
1 391
1 392
1 393
1 394
1 395
1 396
1 397
1 398
1 399
1 400
1 401
1 402
1 403
1 404
1 405
1 406
1 407
1 408
1 409
1 410
1 411
1 412
1 413
1 414
1 415
1 416
1 417
1 418
1 419
1 420
1 421
1 422
1 423
1 424
1 425
1 426
1 427
1 428
1 429
1 430
1 431
1 432
1 433
1 434
1 435
1 436
1 437
1 438
1 439
1 440
1 441
1 442
1 443
1 444
1 445
1 446
1 447
1 448
1 449
1 450
1 451
1 452
1 453
1 454
1 455
1 456
1 457
1 458
1 459
1 460
1 461
1 462
1 463
1 464
1 465
1 466
1 467
1 468
1 469
1 470
1 471
1 472
1 473
1 474
1 475
1 476
1 477
1 478
1 479
1 480
1 481
1 482
1 483
1 484
1 485
1 486
1 487
1 488
1 489
1 490
1 491
1 492
1 493
1 494
1 495
1 496
1 497
1 498
1 499
1 500
1 501
1 502
1 503
1 504
1 505
1 506
1 507
1 508
1 509
1 510
1 511
1 512
1 513
1 514
1 515
1 516
1 517
1 518
1 519
1 520
1 521
1 522
1 523
1 524
1 525
1 526
1 527
1 528
1 529
1 530
1 531
1 532
1 533
1 534
1 535
1 536
1 537
1 538
1 539
1 540
1 541
1 542
1 543
1 544
1 545
1 546
1 547
1 548
1 549
1 550
1 551
1 552
1 553
1 554
1 555
1 556
1 557
1 558
1 559
1 560
1 561
1 562
1 563
1 564
1 565
1 566
1 567
1 568
1 569
1 570
1 571
1 572
1 573
1 574
1 575
1 576
1 577
1 578
1 579
1 580
1 581
1 582
1 583
1 584
1 585
1 586
1 587
1 588
1 589
1 590
1 591
1 592
1 593
1 594
1 595
1 596
1 597
1 598
1 599
1 600
1 601
1 602
1 603
1 604
1 605
1 606
1 607
1 608
1 609
1 610
1 611
1 612
1 613
1 614
1 615
1 616
1 617
1 618
1 619
1 620
1 621
1 622
1 623
1 624
1 625
1 626
1 627
1 628
1 629
1 630
1 631
1 632
1 633
1 634
1 635
1 636
1 637
1 638
1 639
1 640
1 641
1 642
1 643
1 644
1 645
1 646
1 647
1 648
1 649
1 650
1 651
1 652
1 653
1 654
1 655
1 656
1 657
1 658
1 659
1 660
1 661
1 662
1 663
1 664
1 665
1 666
1 667
1 668
1 669
1 670
1 671
1 672
1 673
1 674
1 675
1 676
1 677
1 678
1 679
1 680
1 681
1 682
1 683
1 684
1 685
1 686
1 687
1 688
1 689
1 690
1 691
1 692
1 693
1 694
1 695
1 696
1 697
1 698
1 699
1 700
1 701
1 702
1 703
1 704
1 705
1 706
1 707
1 708
1 709
1 710
1 711
1 712
1 713
1 714
1 715
1 716
1 717
1 718
1 719
1 720
1 721
1 722
1 723
1 724
1 725
1 726
1 727
1 728
1 729
1 730
1 731
1 732
1 733
1 734
1 735
1 736
1 737
1 738
1 739
1 740
1 741
1 742
1 743
1 744
1 745
1 746
1 747
1 748
1 749
1 750
1 751
1 752
1 753
1 754
1 755
1 756
1 757
1 758
1 759
1 760
1 761
1 762
1 763
1 764
1 765
1 766
1 767
1 768
1 769
1 770
1 771
1 772
1 773
1 774
1 775
1 776
1 777
1 778
1 779
1 780
1 781
1 782
1 783
1 784
1 785
1 786
1 787
1 788
1 789
1 790
1 791
1 792
1 793
1 794
1 795
1 796
1 797
1 798
1 799
1 800
1 801
1 802
1 803
1 804
1 805
1 806
1 807
1 808
1 809
1 810
1 811
1 812
1 813
1 814
1 815
1 816
1 817
1 818
1 819
1 820
1 821
1 822
1 823
1 824
1 825
1 826
1 827
1 828
1 829
1 830
1 831
1 832
1 833
1 834
1 835
1 836
1 837
1 838
1 839
1 840
1 841
1 842
1 843
1 844
1 845
1 846
1 847
1 848
1 849
1 850
1 851
1 852
1 853
1 854
1 855
1 856
1 857
1 858
1 859
1 860
1 861
1 862
1 863
1 864
1 865
1 866
1 867
1 868
1 869
1 870
1 871
1 872
1 873
1 874
1 875
1 876
1 877
1 878
1 879
1 880
1 881
1 882
1 883
1 884
1 885
1 886
1 887
1 888
1 889
1 890
1 891
1 892
1 893
1 894
1 895
1 896
1 897
1 898
1 899
1 900
1 901
1 902
1 903
1 904
1 905
1 906
1 907
1 908
1 909
1 910
1 911
1 912
1 913
1 914
1 915
1 916
1 917
1 918
1 919
1 920
1 921
1 922
1 923
1 924
1 925
1 926
1 927
1 928
1 929
1 930
1 931
1 932
1 933
1 934
1 935
1 936
1 937
1 938
1 939
1 940
1 941
1 942
1 943
1 944
1 945
1 946
1 947
1 948
1 949
1 950
1 951
1 952
1 953
1 954
1 955
1 956
1 957
1 958
1 959
1 960
1 961
1 962
1 963
1 964
1 965
1 966
1 967
1 968
1 969
1 970
1 971
1 972
1 973
1 974
1 975
1 976
1 977
1 978
1 979
1 980
1 981
1 982
1 983
1 984
1 985
1 986
1 987
1 988
1 989
1 990
1 991
1 992
1 993
1 994
1 995
1 996
1 997
1 998
1 999
1 1000
1 1001
1 1002
1 1003
1 1004
1 1005
1 1006
1 1007
1 1008
1 1009
1 1010
1 1011
1 1012
1 1013
1 1014
1 1015
1 1016
1 1017
1 1018
1 1019
1 1020
1 1021
1 1022
1 1023
1 1024
1 1025
1 1026
1 1027
1 1028
1 1029
1 1030
1 1031
1 1032
1 1033
1 1034
1 1035
1 1036
1 1037
1 1038
1 1039
1 1040
1 1041
1 1042
1 1043
1 1044
1 1045
1 1046
1 1047
1 1048
1 1049
1 1050
1 1051
1 1052
1 1053
1 1054
1 1055
1 1056
1 1057
1 1058
1 1059
1 1060
1 1061
1 1062
1 1063
1 1064
1 1065
1 1066
1 1067
1 1068
1 1069
1 1070
1 1071
1 1072
1 1073
1 1074
1 1075
1 1076
1 1077
1 1078
1 1079
1 1080
1 1081
1 1082
1 1083
1 1084
1 1085
1 1086
1 1087
1 1088
1 1089
1 1090
1 1091
1 1092
1 1093
1 1094
1 1095
1 1096
1 1097
1 1098
1 1099
1 1100
1 1101
1 1102
1 1103
1 1104
1 1105
1 1106
1 1107
1 1108
1 1109
1 1110
1 1111
1 1112
1 1113
1 1114
1 1115
1 1116
1 1117
1 1118
1 1119
1 1120
1 1121
1 1122
1 1123
1 1124
1 1125
1 1126
1 1127
1 1128
1 1129
1 1130
1 1131
1 1132
1 1133
1 1134
1 1135
1 1136
1 1137
1 1138
1 1139
1 1140
1 1141
1 1142
1 1143
1 1144
1 1145
1 1146
1 1147
1 1148
1 1149
1 1150
1 1151
1 1152
1 1153
1 1154
1 1155
1 1156
1 1157
1 1158
1 1159
1 1160
1 1161
1 1162
1 1163
1 1164
1 1165
1 1166
1 1167
1 1168
1 1169
1 1170
1 1171
1 1172
1 1173
1 1174
1 1175
1 1176
1 1177
1 1178
1 1179
1 1180
1 1181
1 1182
1 1183
1 1184
1 1185
1 1186
1 1187
1 1188
1 1189
1 1190
1 1191
1 1192
1 1193
1 1194
1 1195
1 1196
1 1197
1 1198
1 1199
1 1200
1 1201
1 1202
1 1203
1 1204
1 1205
1 1206
1 1207
1 1208
1 1209
1 1210
1 1211
1 1212
1 1213
1 1214
1 1215
1 1216
1 1217
1 1218
1 1219
1 1220
1 1221
1 1222
1 1223
1 1224
1 1225
1 1226
1 1227
1 1228
1 1229
1 1230
1 1231
1 1232
1 1233
1 1234
1 1235
1 1236
1 1237
1 1238
1 1239
1 1240
1 1241
1 1242
1 1243
1 1244
1 1245
1 1246
1 1247
1 1248
1 1249
1 1250
1 1251
1 1252
1 1253
1 1254
1 1255
1 1256
1 1257
1 1258
1 1259
1 1260
1 1261
1 1262
1 1263
1 1264
1 1265
1 1266
1 1267
1 1268
1 1269
1 1270
1 1271
1 1272
1 1273
1 1274
1 1275
1 1276
1 1277
1 1278
1 1279
1 1280
1 1281
1 1282
1 1283
1 1284
1 1285
1 1286
1 1287
1 1288
1 1289
1 1290
1 1291
1 1292
1 1293
1 1294
1 1295
1 1296
1 1297
1 1298
1 1299
1 1300
1 1301
1 1302
1 1303
1 1304
1 1305
1 1306
1 1307
1 1308
1 1309
1 1310
1 1311
1 1312
1 1313
1 1314
1 1315
1 1316
1 1317
1 1318
1 1319
1 1320
1 1321
1 1322
1 1323
1 1324
1 1325
1 1326
1 1327
1 1328
1 1329
1 1330
1 1331
1 1332
1 1333
1 1334
1 1335
1 1336
1 1337
1 1338
1 1339
1 1340
1 1341
1 1342
1 1343
1 1344
1 1345
1 1346
1 1347
1 1348
1 1349
1 1350
1 1351
1 1352
1 1353
1 1354
1 1355
1 1356
1 1357
1 1358
1 1359
1 1360
1 1361
1 1362
1 1363
1 1364
1 1365
1 1366
1 1367
1 1368
1 1369
1 1370
1 1371
1 1372
1 1373
1 1374
1 1375
1 1376
1 1377
1 1378
1 1379
1 1380
1 1381
1 1382
1 1383
1 1384
1 1385
1 1386
1 1387
1 1388
1 1389
1 1390
1 1391
1 1392
1 1393
1 1394
1 1395
1 1396
1 1397
1 1398
1 1399
1 1400
1 1401
1 1402
1 1403
1 1404
1 1405
1 1406
1 1407
1 1408
1 1409
1 1410
1 1411
1 1412
1 1413
1 1414
1 1415
1 1416
1 1417
1 1418
1 1419
1 1420
1 1421
1 1422
1 1423
1 1424
1 1425
1 1426
1 1427
1 1428
1 1429
1 1430
1 1431
1 1432
1 1433
1 1434
1 1435
1 1436
1 1437
1 1438
1 1439
1 1440
1 1441
1 1442
1 1443
1 1444
1 1445
1 1446
1 1447
1 1448
1 1449
1 1450
1 1451
1 1452
1 1453
1 1454
1 1455
1 1456
1 1457
1 1458
1 1459
1 1460
1 1461
1 1462
1 1463
1 1464
1 1465
1 1466
1 1467
1 1468
1 1469
1 1470
1 1471
1 1472
1 1473
1 1474
1 1475
1 1476
1 1477
1 1478
1 1479
1 1480
1 1481
1 1482
1 1483
1 1484
1 1485
1 1486
1 1487
1 1488
1 1489
1 1490
1 1491
1 1492
1 1493
1 1494
1 1495
1 1496
1 1497
1 1498
1 1499
1 1500
1 1501
1 1502
1 1503
1 1504
1 1505
1 1506
1 1507
1 1508
1 1509
1 1510
1 1511
1 1512
1 1513
1 1514
1 1515
1 1516
1 1517
1 1518
1 1519
1 1520
1 1521
1 1522
1 1523
1 1524
1 1525
1 1526
1 1527
1 1528
1 1529
1 1530
1 1531
1 1532
1 1533
1 1534
1 1535
1 1536
1 1537
1 1538
1 1539
1 1540
1 1541
1 1542
1 1543
1 1544
1 1545
1 1546
1 1547
1 1548
1 1549
1 1550
1 1551
1 1552
1 1553
1 1554
1 1555
1 1556
1 1557
1 1558
1 1559
1 1560
1 1561
1 1562
1 1563
1 1564
1 1565
1 1566
1 1567
1 1568
1 1569
1 1570
1 1571
1 1572
1 1573
1 1574
1 1575
1 1576
1 1577
1 1578
1 1579
1 1580
1 1581
1 1582
1 1583
1 1584
1 1585
1 1586
1 1587
1 1588
1 1589
1 1590
1 1591
1 1592
1 1593
1 1594
1 1595
1 1596
1 1597
1 1598
1 1599
1 1600
1 1601
1 1602
1 1603
1 1604
1 1605
1 1606
1 1607
1 1608
1 1609
1 1610
1 1611
1 1612
1 1613
1 1614
1 1615
1 1616
1 1617
1 1618
1 1619
1 1620
1 1621
1 1622
1 1623
1 1624
1 1625
1 1626
1 1627
1 1628
1 1629
1 1630
1 1631
1 1632
1 1633
1 1634
1 1635
1 1636
1 1637
1 1638
1 1639
1 1640
1 1641
1 1642
1 1643
1 1644
1 1645
1 1646
1 1647
1 1648
1 1649
1 1650
1 1651
1 1652
1 1653
1 1654
1 1655
1 1656
1 1657
1 1658
1 1659
1 1660
1 1661
1 1662
1 1663
1 1664
1 1665
1 1666
1 1667
1 1668
1 1669
1 1670
1 1671
1 1672
1 1673
1 1674
1 1675
1 1676
1 1677
1 1678
1 1679
1 1680
1 1681
1 1682
1 1683
1 1684
1 1685
1 1686
1 1687
1 1688
1 1689
1 1690
1 1691
1 1692
1 1693
1 1694
1 1695
1 1696
1 1697
1 1698
1 1699
1 1700
1 1701
1 1702
1 1703
1 1704
1 1705
1 1706
1 1707
1 1708
1 1709
1 1710
1 1711
1 1712
1 1713
1 1714
1 1715
1 1716
1 1717
1 1718
1 1719
1 1720
1 1721
1 1722
1 1723
1 1724
1 1725
1 1726
1 1727
1 1728
1 1729
1 1730
1 1731
1 1732
1 1733
1 1734
1 1735
1 1736
1 1737
1 1738
1 1739
1 1740
1 1741
1 1742
1 1743
1 1744
1 1745
1 1746
1 1747
1 1748
1 1749
1 1750
1 1751
1 1752
1 1753
1 1754
1 1755
1 1756
1 1757
1 1758
1 1759
1 1760
1 1761
1 1762
1 1763
1 1764
1 1765
1 1766
1 1767
1 1768
1 1769
1 1770
1 1771
1 1772
1 1773
1 1774
1 1775
1 1776
1 1777
1 1778
1 1779
1 1780
1 1781
1 1782
1 1783
1 1784
1 1785
1 1786
1 1787
1 1788
1 1789
1 1790
1 1791
1 1792
1 1793
1 1794
1 1795
1 1796
1 1797
1 1798
1 1799
1 1800
1 1801
1 1802
1 1803
1 1804
1 1805
1 1806
1 1807
1 1808
1 1809
1 1810
1 1811
1 1812
1 1813
1 1814
1 1815
1 1816
1 1817
1 1818
1 1819
1 1820
1 1821
1 1822
1 1823
1 1824
1 1825
1 1826
1 1827
1 1828
1 1829
1 1830
1 1831
1 1832
1 1833
1 1834
1 1835
1 1836
1 1837
1 1838
1 1839
1 1840
1 1841
1 1842
1 1843
1 1844
1 1845
1 1846
1 1847
1 1848
1 1849
1 1850
1 1851
1 1852
1 1853
1 1854
1 1855
1 1856
1 1857
1 1858
1 1859
1 1860
1 1861
1 1862
1 1863
1 1864
1 1865
1 1866
1 1867
1 1868
1 1869
1 1870
1 1871
1 1872
1 1873
1 1874
1 1875
1 1876
1 1877
1 1878
1 1879
1 1880
1 1881
1 1882
1 1883
1 1884
1 1885
1 1886
1 1887
1 1888
1 1889
1 1890
1 1891
1 1892
1 1893
1 1894
1 1895
1 1896
1 1897
1 1898
1 1899
1 1900
1 1901
1 1902
1 1903
1 1904
1 1905
1 1906
1 1907
1 1908
1 1909
1 1910
1 1911
1 1912
1 1913
1 1914
1 1915
1 1916
1 1917
1 1918
1 1919
1 1920
1 1921
1 1922
1 1923
1 1924
1 1925
1 1926
1 1927
1 1928
1 1929
1 1930
1 1931
1 1932
1 1933
1 1934
1 1935
1 1936
1 1937
1 1938
1 1939
1 1940
1 1941
1 1942
1 1943
1 1944
1 1945
1 1946
1 1947
1 1948
1 1949
1 1950
1 1951
1 1952
1 1953
1 1954
1 1955
1 1956
1 1957
1 1958
1 1959
1 1960
1 1961
1 1962
1 1963
1 1964
1 1965
1 1966
1 1967
1 1968
1 1969
1 1970
1 1971
1 1972
1 1973
1 1974
1 1975
1 1976
1 1977
1 1978
1 1979
1 1980
1 1981
1 1982
1 1983
1 1984
1 1985
1 1986
1 1987
1 1988
1 1989
1 1990
1 1991
1 1992
1 1993
1 1994
1 1995
1 1996
1 1997
1 1998
1 1999
1 2000
1 2001
1 2002
1 2003
1 2004
1 2005
1 2006
1 2007
1 2008
1 2009
1 2010
1 2011
1 2012
1 2013
1 2014
1 2015
1 2016
1 2017
1 2018
1 2019
1 2020
1 2021
1 2022
1 2023
1 2024
1 2025
1 2026
1 2027
1 2028
1 2029
1 2030
1 2031
1 2032
1 2033
1 2034
1 2035
1 2036
1 2037
1 2038
1 2039
1 2040
1 2041
1 2042
1 2043
1 2044
1 2045
1 2046
1 2047
1 2048
1 2049
1 2050
1 2051
1 2052
1 2053
1 2054
1 2055
1 2056
1 2057
1 2058
1 2059
1 2060
1 2061
1 2062
1 2063
1 2064
1 2065
1 2066
1 2067
1 2068
1 2069
1 2070
1 2071
1 2072
1 2073
1 2074
1 2075
1 2076
1 2077
1 2078
1 2079
1 2080
1 2081
1 2082
1 2083
1 2084
1 2085
1 2086
1 2087
1 2088
1 2089
1 2090
1 2091
1 2092
1 2093
1 2094
1 2095
1 2096
1 2097
1 2098
1 2099
1 2100
1 2101
1 2102
1 2103
1 2104
1 2105
1 2106
1 2107
1 2108
1 2109
1 2110
1 2111
1 2112
1 2113
1 2114
1 2115
1 2116
1 2117
1 2118
1 2119
1 2120
1 2121
1 2122
1 2123
1 2124
1 2125
1 2126
1 2127
1 2128
1 2129
1 2130
1 2131
1 2132
1 2133
1 2134
1 2135
1 2136
1 2137
1 2138
1 2139
1 2140
1 2141
1 2142
1 2143
1 2144
1 2145
1 2146
1 2147
1 2148
1 2149
1 2150
1 2151
1 2152
1 2153
1 2154
1 2155
1 2156
1 2157
1 2158
1 2159
1 2160
1 2161
1 2162
1 2163
1 2164
1 2165
1 2166
1 2167
1 2168
1 2169
1 2170
1 2171
1 2172
1 2173
1 2174
1 2175
1 2176
1 2177
1 2178
1 2179
1 2180
1 2181
1 2182
1 2183
1 2184
1 2185
1 2186
1 2187
1 2188
1 2189
1 2190
1 2191
1 2192
1 2193
1 2194
1 2195
1 2196
1 2197
1 2198
1 2199
1 2200
1 2201
1 2202
1 2203
1 2204
1 2205
1 2206
1 2207
1 2208
1 2209
1 2210
1 2211
1 2212
1 2213
1 2214
1 2215
1 2216
1 2217
1 2218
1 2219
1 2220
1 2221
1 2222
1 2223
1 2224
1 2225
1 2226
1 2227
1 2228
1 2229
1 2230
1 2231
1 2232
1 2233
1 2234
1 2235
1 2236
1 2237
1 2238
1 2239
1 2240
1 2241
1 2242
1 2243
1 2244
1 2245
1 2246
1 2247
1 2248
1 2249
1 2250
1 2251
1 2252
1 2253
1 2254
1 2255
1 2256
1 2257
1 2258
1 2259
1 2260
1 2261
1 2262
1 2263
1 2264
1 2265
1 2266
1 2267
1 2268
1 2269
1 2270
1 2271
1 2272
1 2273
1 2274
1 2275
1 2276
1 2277
1 2278
1 2279
1 2280
1 2281
1 2282
1 2283
1 2284
1 2285
1 2286
1 2287
1 2288
1 2289
1 2290
1 2291
1 2292
1 2293
1 2294
1 2295
1 2296
1 2297
1 2298
1 2299
1 2300
1 2301
1 2302
1 2303
1 2304
1 2305
1 2306
1 2307
1 2308
1 2309
1 2310
1 2311
1 2312
1 2313
1 2314
1 2315
1 2316
1 2317
1 2318
1 2319
1 2320
1 2321
1 2322
1 2323
1 2324
1 2325
1 2326
1 2327
1 2328
1 2329
1 2330
1 2331
1 2332
1 2333
1 2334
1 2335
1 2336
1 2337
1 2338
1 2339
1 2340
1 2341
1 2342
1 2343
1 2344
1 2345
1 2346
1 2347
1 2348
1 2349
1 2350
1 2351
1 2352
1 2353
1 2354
1 2355
1 2356
1 2357
1 2358
1 2359
1 2360
1 2361
1 2362
1 2363
1 2364
1 2365
1 2366
1 2367
1 2368
1 2369
1 2370
1 2371
1 2372
1 2373
1 2374
1 2375
1 2376
1 2377
1 2378
1 2379
1 2380
1 2381
1 2382
1 2383
1 2384
1 2385
1 2386
1 2387
1 2388
1 2389
1 2390
1 2391
1 2392
1 2393
1 2394
1 2395
1 2396
1 2397
1 2398
1 2399
1 2400
1 2401
1 2402
1 2403
1 2404
1 2405
1 2406
1 2407
1 2408
1 2409
1 2410
1 2411
1 2412
1 2413
1 2414
1 2415
1 2416
1 2417
1 2418
1 2419
1 2420
1 2421
1 2422
1 2423
1 2424
1 2425
1 2426
1 2427
1 2428
1 2429
1 2430
1 2431
1 2432
1 2433
1 2434
1 2435
1 2436
1 2437
1 2438
1 2439
1 2440
1 2441
1 2442
1 2443
1 2444
1 2445
1 2446
1 2447
1 2448
1 2449
1 2450
1 2451
1 2452
1 2453
1 2454
1 2455
1 2456
1 2457
1 2458
1 2459
1 2460
1 2461
1 2462
1 2463
1 2464
1 2465
1 2466
1 2467
1 2468
1 2469
1 2470
1 2471
1 2472
1 2473
1 2474
1 2475
1 2476
1 2477
1 2478
1 2479
1 2480
1 2481
1 2482
1 2483
1 2484
1 2485
1 2486
1 2487
1 2488
1 2489
1 2490
1 2491
1 2492
1 2493
1 2494
1 2495
1 2496
1 2497
1 2498
1 2499
1 2500
1 2501
1 2502
1 2503
1 2504
1 2505
1 2506
1 2507
1 2508
1 2509
1 2510
1 2511
1 2512
1 2513
1 2514
1 2515
1 2516
1 2517
1 2518
1 2519
1 2520
1 2521
1 2522
1 2523
1 2524
1 2525
1 2526
1 2527
1 2528
1 2529
1 2530
1 2531
1 2532
1 2533
1 2534
1 2535
1 2536
1 2537
1 2538
1 2539
1 2540
1 2541
1 2542
1 2543
1 2544
1 2545
1 2546
1 2547
1 2548
1 2549
1 2550
1 2551
1 2552
1 2553
1 2554
1 2555
1 2556
1 2557
1 2558
1 2559
1 2560
1 2561
1 2562
1 2563
1 2564
1 2565
1 2566
1 2567
1 2568
1 2569
1 2570
1 2571
1 2572
1 2573
1 2574
1 2575
1 2576
1 2577
1 2578
1 2579
1 2580
1 2581
1 2582
1 2583
1 2584
1 2585
1 2586
1 2587
1 2588
1 2589
1 2590
1 2591
1 2592
1 2593
1 2594
1 2595
1 2596
1 2597
1 2598
1 2599
1 2600
1 2601
1 2602
1 2603
1 2604
1 2605
1 2606
1 2607
1 2608
1 2609
1 2610
1 2611
1 2612
1 2613
1 2614
1 2615
1 2616
1 2617
1 2618
1 2619
1 2620
1 2621
1 2622
1 2623
1 2624
1 2625
1 2626
1 2627
1 2628
1 2629
1 2630
1 2631
1 2632
1 2633
1 2634
1 2635
1 2636
1 2637
1 2638
1 2639
1 2640
1 2641
1 2642
1 2643
1 2644
1 2645
1 2646
1 2647
1 2648
1 2649
1 2650
1 2651
1 2652
1 2653
1 2654
1 2655
1 2656
1 2657
1 2658
1 2659
1 2660
1 2661
1 2662
1 2663
1 2664
1 2665
1 2666
1 2667
1 2668
1 2669
1 2670
1 2671
1 2672
1 2673
1 2674
1 2675
1 2676
1 2677
1 2678
1 2679
1 2680
1 2681
1 2682
1 2683
1 2684
1 2685
1 2686
1 2687
1 2688
1 2689
1 2690
1 2691
1 2692
1 2693
1 2694
1 2695
1 2696
1 2697
1 2698
1 2699
1 2700
1 2701
1 2702
1 2703
1 2704
1 2705
1 2706
1 2707
1 2708
1 2709
1 2710
1 2711
1 2712
1 2713
1 2714
1 2715
1 2716
1 2717
1 2718
1 2719
1 2720
1 2721
1 2722
1 2723
1 2724
1 2725
1 2726
1 2727
1 2728
1 2729
1 2730
1 2731
1 2732
1 2733
1 2734
1 2735
1 2736
1 2737
1 2738
1 2739
1 2740
1 2741
1 2742
1 2743
1 2744
1 2745
1 2746
1 2747
1 2748
1 2749
1 2750
1 2751
1 2752
1 2753
1 2754
1 2755
1 2756
1 2757
1 2758
1 2759
1 2760
1 2761
1 2762
1 2763
1 2764
1 2765
1 2766
1 2767
1 2768
1 2769
1 2770
1 2771
1 2772
1 2773
1 2774
1 2775
1 2776
1 2777
1 2778
1 2779
1 2780
1 2781
1 2782
1 2783
1 2784
1 2785
1 2786
1 2787
1 2788
1 2789
1 2790
1 2791
1 2792
1 2793
1 2794
1 2795
1 2796
1 2797
1 2798
1 2799
1 2800
1 2801
1 2802
1 2803
1 2804
1 2805
1 2806
1 2807
1 2808
1 2809
1 2810
1 2811
1 2812
1 2813
1 2814
1 2815
1 2816
1 2817
1 2818
1 2819
1 2820
1 2821
1 2822
1 2823
1 2824
1 2825
1 2826
1 2827
1 2828
1 2829
1 2830
1 2831
1 2832
1 2833
1 2834
1 2835
1 2836
1 2837
1 2838
1 2839
1 2840
1 2841
1 2842
1 2843
1 2844
1 2845
1 2846
1 2847
1 2848
1 2849
1 2850
1 2851
1 2852
1 2853
1 2854
1 2855
1 2856
1 2857
1 2858
1 2859
1 2860
1 2861
1 2862
1 2863
1 2864
1 2865
1 2866
1 2867
1 2868
1 2869
1 2870
1 2871
1 2872
1 2873
1 2874
1 2875
1 2876
1 2877
1 2878
1 2879
1 2880
1 2881
1 2882
1 2883
1 2884
1 2885
1 2886
1 2887
1 2888
1 2889
1 2890
1 2891
1 2892
1 2893
1 2894
1 2895
1 2896
1 2897
1 2898
1 2899
1 2900
1 2901
1 2902
1 2903
1 2904
1 2905
1 2906
1 2907
1 2908
1 2909
1 2910
1 2911
1 2912
1 2913
1 2914
1 2915
1 2916
1 2917
1 2918
1 2919
1 2920
1 2921
1 2922
1 2923
1 2924
1 2925
1 2926
1 2927
1 2928
1 2929
1 2930
1 2931
1 2932
1 2933
1 2934
1 2935
1 2936
1 2937
1 2938
1 2939
1 2940
1 2941
1 2942
1 2943
1 2944
1 2945
1 2946
1 2947
1 2948
1 2949
1 2950
1 2951
1 2952
1 2953
1 2954
1 2955
1 2956
1 2957
1 2958
1 2959
1 2960
1 2961
1 2962
1 2963
1 2964
1 2965
1 2966
1 2967
1 2968
1 2969
1 2970
1 2971
1 2972
1 2973
1 2974
1 2975
1 2976
1 2977
1 2978
1 2979
1 2980
1 2981
1 2982
1 2983
1 2984
1 2985
1 2986
1 2987
1 2988
1 2989
1 2990
1 2991
1 2992
1 2993
1 2994
1 2995
1 2996
1 2997
1 2998
1 2999
1 3000
1 3001
1 3002
1 3003
1 3004
1 3005
1 3006
1 3007
1 3008
1 3009
1 3010
1 3011
1 3012
1 3013
1 3014
1 3015
1 3016
1 3017
1 3018
1 3019
1 3020
1 3021
1 3022
1 3023
1 3024
1 3025
1 3026
1 3027
1 3028
1 3029
1 3030
1 3031
1 3032
1 3033
1 3034
1 3035
1 3036
1 3037
1 3038
1 3039
1 3040
1 3041
1 3042
1 3043
1 3044
1 3045
1 3046
1 3047
1 3048
1 3049
1 3050
1 3051
1 3052
1 3053
1 3054
1 3055
1 3056
1 3057
1 3058
1 3059
1 3060
1 3061
1 3062
1 3063
1 3064
1 3065
1 3066
1 3067
1 3068
1 3069
1 3070
1 3071
1 3072
1 3073
1 3074
1 3075
1 3076
1 3077
1 3078
1 3079
1 3080
1 3081
1 3082
1 3083
1 3084
1 3085
1 3086
1 3087
1 3088
1 3089
1 3090
1 3091
1 3092
1 3093
1 3094
1 3095
1 3096
1 3097
1 3098
1 3099
1 3100
1 3101
1 3102
1 3103
1 3104
1 3105
1 3106
1 3107
1 3108
1 3109
1 3110
1 3111
1 3112
1 3113
1 3114
1 3115
1 3116
1 3117
1 3118
1 3119
1 3120
1 3121
1 3122
1 3123
1 3124
1 3125
1 3126
1 3127
1 3128
1 3129
1 3130
1 3131
1 3132
1 3133
1 3134
1 3135
1 3136
1 3137
1 3138
1 3139
1 3140
1 3141
1 3142
1 3143
1 3144
1 3145
1 3146
1 3147
1 3148
1 3149
1 3150
1 3151
1 3152
1 3153
1 3154
1 3155
1 3156
1 3157
1 3158
1 3159
1 3160
1 3161
1 3162
1 3163
1 3164
1 3165
1 3166
1 3167
1 3168
1 3169
1 3170
1 3171
1 3172
1 3173
1 3174
1 3175
1 3176
1 3177
1 3178
1 3179
1 3180
1 3181
1 3182
1 3183
1 3184
1 3185
1 3186
1 3187
1 3188
1 3189
1 3190
1 3191
1 3192
1 3193
1 3194
1 3195
1 3196
1 3197
1 3198
1 3199
1 3200
1 3201
1 3202
1 3203
1 3204
1 3205
1 3206
1 3207
1 3208
1 3209
1 3210
1 3211
1 3212
1 3213
1 3214
1 3215
1 3216
1 3217
1 3218
1 3219
1 3220
1 3221
1 3222
1 3223
1 3224
1 3225
1 3226
1 3227
1 3228
1 3229
1 3230
1 3231
1 3232
1 3233
1 3234
1 3235
1 3236
1 3237
1 3238
1 3239
1 3240
1 3241
1 3242
1 3243
1 3244
1 3245
1 3246
1 3247
1 3248
1 3249
1 3250
1 3251
1 3252
1 3253
1 3254
1 3255
1 3256
1 3257
1 3258
1 3259
1 3260
1 3261
1 3262
1 3263
1 3264
1 3265
1 3266
1 3267
1 3268
1 3269
1 3270
1 3271
1 3272
1 3273
1 3274
1 3275
1 3276
1 3277
1 3278
1 3279
1 3280
1 3281
1 3282
1 3283
1 3284
1 3285
1 3286
1 3287
1 3288
1 3289
1 3290
1 3291
1 3292
1 3293
1 3294
1 3295
1 3296
1 3297
1 3298
1 3299
1 3300
1 3301
1 3302
1 3303
1 3304
1 3305
1 3306
1 3307
1 3308
1 3309
1 3310
1 3311
1 3312
1 3313
1 3314
1 3315
1 3316
1 3317
1 3318
1 3319
1 3320
1 3321
1 3322
1 3323
1 3324
1 3325
1 3326
1 3327
1 3328
1 3329
1 3330
1 3331
1 3332
1 3333
1 3334
1 3335
1 3336
1 3337
1 3338
1 3339
1 3340
1 3341
1 3342
1 3343
1 3344
1 3345
1 3346
1 3347
1 3348
1 3349
1 3350
1 3351
1 3352
1 3353
1 3354
1 3355
1 3356
1 3357
1 3358
1 3359
1 3360
1 3361
1 3362
1 3363
1 3364
1 3365
1 3366
1 3367
1 3368
1 3369
1 3370
1 3371
1 3372
1 3373
1 3374
1 3375
1 3376
1 3377
1 3378
1 3379
1 3380
1 3381
1 3382
1 3383
1 3384
1 3385
1 3386
1 3387
1 3388
1 3389
1 3390
1 3391
1 3392
1 3393
1 3394
1 3395
1 3396
1 3397
1 3398
1 3399
1 3400
1 3401
1 3402
1 3403
1 3404
1 3405
1 3406
1 3407
1 3408
1 3409
1 3410
1 3411
1 3412
1 3413
1 3414
1 3415
1 3416
1 3417
1 3418
1 3419
1 3420
1 3421
1 3422
1 3423
1 3424
1 3425
1 3426
1 3427
1 3428
1 3429
1 3430
1 3431
1 3432
1 3433
1 3434
1 3435
1 3436
1 3437
1 3438
1 3439
1 3440
1 3441
1 3442
1 3443
1 3444
1 3445
1 3446
1 3447
1 3448
1 3449
1 3450
1 3451
1 3452
1 3453
1 3454
1 3455
1 3456
1 3457
1 3458
1 3459
1 3460
1 3461
1 3462
1 3463
1 3464
1 3465
1 3466
1 3467
1 3468
1 3469
1 3470
1 3471
1 3472
1 3473
1 3474
1 3475
1 3476
1 3477
1 3478
1 3479
1 3480
1 3481
1 3482
1 3483
1 3484
1 3485
1 3486
1 3487
1 3488
1 3489
1 3490
1 3491
1 3492
1 3493
1 3494
1 3495
1 3496
1 3497
1 3498
1 3499
1 3500
1 3501
1 3502
1 3503
1 3504
1 3505
1 3506
1 3507
1 3508
1 3509
1 3510
1 3511
1 3512
1 3513
1 3514
1 3515
1 3516
1 3517
1 3518
1 3519
1 3520
1 3521
1 3522
1 3523
1 3524
1 3525
1 3526
1 3527
1 3528
1 3529
1 3530
1 3531
1 3532
1 3533
1 3534
1 3535
1 3536
1 3537
1 3538
1 3539
1 3540
1 3541
1 3542
1 3543
1 3544
1 3545
1 3546
1 3547
1 3548
1 3549
1 3550
1 3551
1 3552
1 3553
1 3554
1 3555
1 3556
1 3557
1 3558
1 3559
1 3560
1 3561
1 3562
1 3563
1 3564
1 3565
1 3566
1 3567
1 3568
1 3569
1 3570
1 3571
1 3572
1 3573
1 3574
1 3575
1 3576
1 3577
1 3578
1 3579
1 3580
1 3581
1 3582
1 3583
1 3584
1 3585
1 3586
1 3587
1 3588
1 3589
1 3590
1 3591
1 3592
1 3593
1 3594
1 3595
1 3596
1 3597
1 3598
1 3599
1 3600
1 3601
1 3602
1 3603
1 3604
1 3605
1 3606
1 3607
1 3608
1 3609
1 3610
1 3611
1 3612
1 3613
1 3614
1 3615
1 3616
1 3617
1 3618
1 3619
1 3620
1 3621
1 3622
1 3623
1 3624
1 3625
1 3626
1 3627
1 3628
1 3629
1 3630
1 3631
1 3632
1 3633
1 3634
1 3635
1 3636
1 3637
1 3638
1 3639
1 3640
1 3641
1 3642
1 3643
1 3644
1 3645
1 3646
1 3647
1 3648
1 3649
1 3650
1 3651
1 3652
1 3653
1 3654
1 3655
1 3656
1 3657
1 3658
1 3659
1 3660
1 3661
1 3662
1 3663
1 3664
1 3665
1 3666
1 3667
1 3668
1 3669
1 3670
1 3671
1 3672
1 3673
1 3674
1 3675
1 3676
1 3677
1 3678
1 3679
1 3680
1 3681
1 3682
1 3683
1 3684
1 3685
1 3686
1 3687
1 3688
1 3689
1 3690
1 3691
1 3692
1 3693
1 3694
1 3695
1 3696
1 3697
1 3698
1 3699
1 3700
1 3701
1 3702
1 3703
1 3704
1 3705
1 3706
1 3707
1 3708
1 3709
1 3710
1 3711
1 3712
1 3713
1 3714
1 3715
1 3716
1 3717
1 3718
1 3719
1 3720
1 3721
1 3722
1 3723
1 3724
1 3725
1 3726
1 3727
1 3728
1 3729
1 3730
1 3731
1 3732
1 3733
1 3734
1 3735
1 3736
1 3737
1 3738
1 3739
1 3740
1 3741
1 3742
1 3743
1 3744
1 3745
1 3746
1 3747
1 3748
1 3749
1 3750
1 3751
1 3752
1 3753
1 3754
1 3755
1 3756
1 3757
1 3758
1 3759
1 3760
1 3761
1 3762
1 3763
1 3764
1 3765
1 3766
1 3767
1 3768
1 3769
1 3770
1 3771
1 3772
1 3773
1 3774
1 3775
1 3776
1 3777
1 3778
1 3779
1 3780
1 3781
1 3782
1 3783
1 3784
1 3785
1 3786
1 3787
1 3788
1 3789
1 3790
1 3791
1 3792
1 3793
1 3794
1 3795
1 3796
1 3797
1 3798
1 3799
1 3800
1 3801
1 3802
1 3803
1 3804
1 3805
1 3806
1 3807
1 3808
1 3809
1 3810
1 3811
1 3812
1 3813
1 3814
1 3815
1 3816
1 3817
1 3818
1 3819
1 3820
1 3821
1 3822
1 3823
1 3824
1 3825
1 3826
1 3827
1 3828
1 3829
1 3830
1 3831
1 3832
1 3833
1 3834
1 3835
1 3836
1 3837
1 3838
1 3839
1 3840
1 3841
1 3842
1 3843
1 3844
1 3845
1 3846
1 3847
1 3848
1 3849
1 3850
1 3851
1 3852
1 3853
1 3854
1 3855
1 3856
1 3857
1 3858
1 3859
1 3860
1 3861
1 3862
1 3863
1 3864
1 3865
1 3866
1 3867
1 3868
1 3869
1 3870
1 3871
1 3872
1 3873
1 3874
1 3875
1 3876
1 3877
1 3878
1 3879
1 3880
1 3881
1 3882
1 3883
1 3884
1 3885
1 3886
1 3887
1 3888
1 3889
1 3890
1 3891
1 3892
1 3893
1 3894
1 3895
1 3896
1 3897
1 3898
1 3899
1 3900
1 3901
1 3902
1 3903
1 3904
1 3905
1 3906
1 3907
1 3908
1 3909
1 3910
1 3911
1 3912
1 3913
1 3914
1 3915
1 3916
1 3917
1 3918
1 3919
1 3920
1 3921
1 3922
1 3923
1 3924
1 3925
1 3926
1 3927
1 3928
1 3929
1 3930
1 3931
1 3932
1 3933
1 3934
1 3935
1 3936
1 3937
1 3938
1 3939
1 3940
1 3941
1 3942
1 3943
1 3944
1 3945
1 3946
1 3947
1 3948
1 3949
1 3950
1 3951
1 3952
1 3953
1 3954
1 3955
1 3956
1 3957
1 3958
1 3959
1 3960
1 3961
1 3962
1 3963
1 3964
1 3965
1 3966
1 3967
1 3968
1 3969
1 3970
1 3971
1 3972
1 3973
1 3974
1 3975
1 3976
1 3977
1 3978
1 3979
1 3980
1 3981
1 3982
1 3983
1 3984
1 3985
1 3986
1 3987
1 3988
1 3989
1 3990
1 3991
1 3992
1 3993
1 3994
1 3995
1 3996
1 3997
1 3998
1 3999
1 4000
1 4001
1 4002
1 4003
1 4004
1 4005
1 4006
1 4007
1 4008
1 4009
1 4010
1 4011
1 4012
1 4013
1 4014
1 4015
1 4016
1 4017
1 4018
1 4019
1 4020
1 4021
1 4022
1 4023
1 4024
1 4025
1 4026
1 4027
1 4028
1 4029
1 4030
1 4031
1 4032
1 4033
1 4034
1 4035
1 4036
1 4037
1 4038
1 4039
1 4040
1 4041
1 4042
1 4043
1 4044
1 4045
1 4046
1 4047
1 4048
1 4049
1 4050
1 4051
1 4052
1 4053
1 4054
1 4055
1 4056
1 4057
1 4058
1 4059
1 4060
1 4061
1 4062
1 4063
1 4064
1 4065
1 4066
1 4067
1 4068
1 4069
1 4070
1 4071
1 4072
1 4073
1 4074
1 4075
1 4076
1 4077
1 4078
1 4079
1 4080
1 4081
1 4082
1 4083
1 4084
1 4085
1 4086
1 4087
1 4088
1 4089
1 4090
1 4091
1 4092
1 4093
1 4094
1 4095
1 4096
1 4097
1 4098
1 4099
1 4100
1 4101
1 4102
1 4103
1 4104
1 4105
1 4106
1 4107
1 4108
1 4109
1 4110
1 4111
1 4112
1 4113
1 4114
1 4115
1 4116
1 4117
1 4118
1 4119
1 4120
1 4121
1 4122
1 4123
1 4124
1 4125
1 4126
1 4127
1 4128
1 4129
1 4130
1 4131
1 4132
1 4133
1 4134
1 4135
1 4136
1 4137
1 4138
1 4139
1 4140
1 4141
1 4142
1 4143
1 4144
1 4145
1 4146
1 4147
1 4148
1 4149
1 4150
1 4151
1 4152
1 4153
1 4154
1 4155
1 4156
1 4157
1 4158
1 4159
1 4160
1 4161
1 4162
1 4163
1 4164
1 4165
1 4166
1 4167
1 4168
1 4169
1 4170
1 4171
1 4172
1 4173
1 4174
1 4175
1 4176
1 4177
1 4178
1 4179
1 4180
1 4181
1 4182
1 4183
1 4184
1 4185
1 4186
1 4187
1 4188
1 4189
1 4190
1 4191
1 4192
1 4193
1 4194
1 4195
1 4196
1 4197
1 4198
1 4199
1 4200
1 4201
1 4202
1 4203
1 4204
1 4205
1 4206
1 4207
1 4208
1 4209
1 4210
1 4211
1 4212
1 4213
1 4214
1 4215
1 4216
1 4217
1 4218
1 4219
1 4220
1 4221
1 4222
1 4223
1 4224
1 4225
1 4226
1 4227
1 4228
1 4229
1 4230
1 4231
1 4232
1 4233
1 4234
1 4235
1 4236
1 4237
1 4238
1 4239
1 4240
1 4241
1 4242
1 4243
1 4244
1 4245
1 4246
1 4247
1 4248
1 4249
1 4250
1 4251
1 4252
1 4253
1 4254
1 4255
1 4256
1 4257
1 4258
1 4259
1 4260
1 4261
1 4262
1 4263
1 4264
1 4265
1 4266
1 4267
1 4268
1 4269
1 4270
1 4271
1 4272
1 4273
1 4274
1 4275
1 4276
1 4277
1 4278
1 4279
1 4280
1 4281
1 4282
1 4283
1 4284
1 4285
1 4286
1 4287
1 4288
1 4289
1 4290
1 4291
1 4292
1 4293
1 4294
1 4295
1 4296
1 4297
1 4298
1 4299
1 4300
1 4301
1 4302
1 4303
1 4304
1 4305
1 4306
1 4307
1 4308
1 4309
1 4310
1 4311
1 4312
1 4313
1 4314
1 4315
1 4316
1 4317
1 4318
1 4319
1 4320
1 4321
1 4322
1 4323
1 4324
1 4325
1 4326
1 4327
1 4328
1 4329
1 4330
1 4331
1 4332
1 4333
1 4334
1 4335
1 4336
1 4337
1 4338
1 4339
1 4340
1 4341
1 4342
1 4343
1 4344
1 4345
1 4346
1 4347
1 4348
1 4349
1 4350
1 4351
1 4352
1 4353
1 4354
1 4355
1 4356
1 4357
1 4358
1 4359
1 4360
1 4361
1 4362
1 4363
1 4364
1 4365
1 4366
1 4367
1 4368
1 4369
1 4370
1 4371
1 4372
1 4373
1 4374
1 4375
1 4376
1 4377
1 4378
1 4379
1 4380
1 4381
1 4382
1 4383
1 4384
1 4385
1 4386
1 4387
1 4388
1 4389
1 4390
1 4391
1 4392
1 4393
1 4394
1 4395
1 4396
1 4397
1 4398
1 4399
1 4400
1 4401
1 4402
1 4403
1 4404
1 4405
1 4406
1 4407
1 4408
1 4409
1 4410
1 4411
1 4412
1 4413
1 4414
1 4415
1 4416
1 4417
1 4418
1 4419
1 4420
1 4421
1 4422
1 4423
1 4424
1 4425
1 4426
1 4427
1 4428
1 4429
1 4430
1 4431
1 4432
1 4433
1 4434
1 4435
1 4436
1 4437
1 4438
1 4439
1 4440
1 4441
1 4442
1 4443
1 4444
1 4445
1 4446
1 4447
1 4448
1 4449
1 4450
1 4451
1 4452
1 4453
1 4454
1 4455
1 4456
1 4457
1 4458
1 4459
1 4460
1 4461
1 4462
1 4463
1 4464
1 4465
1 4466
1 4467
1 4468
1 4469
1 4470
1 4471
1 4472
1 4473
1 4474
1 4475
1 4476
1 4477
1 4478
1 4479
1 4480
1 4481
1 4482
1 4483
1 4484
1 4485
1 4486
1 4487
1 4488
1 4489
1 4490
1 4491
1 4492
1 4493
1 4494
1 4495
1 4496
1 4497
1 4498
1 4499
1 4500
1 4501
1 4502
1 4503
1 4504
1 4505
1 4506
1 4507
1 4508
1 4509
1 4510
1 4511
1 4512
1 4513
1 4514
1 4515
1 4516
1 4517
1 4518
1 4519
1 4520
1 4521
1 4522
1 4523
1 4524
1 4525
1 4526
1 4527
1 4528
1 4529
1 4530
1 4531
1 4532
1 4533
1 4534
1 4535
1 4536
1 4537
1 4538
1 4539
1 4540
1 4541
1 4542
1 4543
1 4544
1 4545
1 4546
1 4547
1 4548
1 4549
1 4550
1 4551
1 4552
1 4553
1 4554
1 4555
1 4556
1 4557
1 4558
1 4559
1 4560
1 4561
1 4562
1 4563
1 4564
1 4565
1 4566
1 4567
1 4568
1 4569
1 4570
1 4571
1 4572
1 4573
1 4574
1 4575
1 4576
1 4577
1 4578
1 4579
1 4580
1 4581
1 4582
1 4583
1 4584
1 4585
1 4586
1 4587
1 4588
1 4589
1 4590
1 4591
1 4592
1 4593
1 4594
1 4595
1 4596
1 4597
1 4598
1 4599
1 4600
1 4601
1 4602
1 4603
1 4604
1 4605
1 4606
1 4607
1 4608
1 4609
1 4610
1 4611
1 4612
1 4613
1 4614
1 4615
1 4616
1 4617
1 4618
1 4619
1 4620
1 4621
1 4622
1 4623
1 4624
1 4625
1 4626
1 4627
1 4628
1 4629
1 4630
1 4631
1 4632
1 4633
1 4634
1 4635
1 4636
1 4637
1 4638
1 4639
1 4640
1 4641
1 4642
1 4643
1 4644
1 4645
1 4646
1 4647
1 4648
1 4649
1 4650
1 4651
1 4652
1 4653
1 4654
1 4655
1 4656
1 4657
1 4658
1 4659
1 4660
1 4661
1 4662
1 4663
1 4664
1 4665
1 4666
1 4667
1 4668
1 4669
1 4670
1 4671
1 4672
1 4673
1 4674
1 4675
1 4676
1 4677
1 4678
1 4679
1 4680
1 4681
1 4682
1 4683
1 4684
1 4685
1 4686
1 4687
1 4688
1 4689
1 4690
1 4691
1 4692
1 4693
1 4694
1 4695
1 4696
1 4697
1 4698
1 4699
1 4700
1 4701
1 4702
1 4703
1 4704
1 4705
1 4706
1 4707
1 4708
1 4709
1 4710
1 4711
1 4712
1 4713
1 4714
1 4715
1 4716
1 4717
1 4718
1 4719
1 4720
1 4721
1 4722
1 4723
1 4724
1 4725
1 4726
1 4727
1 4728
1 4729
1 4730
1 4731
1 4732
1 4733
1 4734
1 4735
1 4736
1 4737
1 4738
1 4739
1 4740
1 4741
1 4742
1 4743
1 4744
1 4745
1 4746
1 4747
1 4748
1 4749
1 4750
1 4751
1 4752
1 4753
1 4754
1 4755
1 4756
1 4757
1 4758
1 4759
1 4760
1 4761
1 4762
1 4763
1 4764
1 4765
1 4766
1 4767
1 4768
1 4769
1 4770
1 4771
1 4772
1 4773
1 4774
1 4775
1 4776
1 4777
1 4778
1 4779
1 4780
1 4781
1 4782
1 4783
1 4784
1 4785
1 4786
1 4787
1 4788
1 4789
1 4790
1 4791
1 4792
1 4793
1 4794
1 4795
1 4796
1 4797
1 4798
1 4799
1 4800
1 4801
1 4802
1 4803
1 4804
1 4805
1 4806
1 4807
1 4808
1 4809
1 4810
1 4811
1 4812
1 4813
1 4814
1 4815
1 4816
1 4817
1 4818
1 4819
1 4820
1 4821
1 4822
1 4823
1 4824
1 4825
1 4826
1 4827
1 4828
1 4829
1 4830
1 4831
1 4832
1 4833
1 4834
1 4835
1 4836
1 4837
1 4838
1 4839
1 4840
1 4841
1 4842
1 4843
1 4844
1 4845
1 4846
1 4847
1 4848
1 4849
1 4850
1 4851
1 4852
1 4853
1 4854
1 4855
1 4856
1 4857
1 4858
1 4859
1 4860
1 4861
1 4862
1 4863
1 4864
1 4865
1 4866
1 4867
1 4868
1 4869
1 4870
1 4871
1 4872
1 4873
1 4874
1 4875
1 4876
1 4877
1 4878
1 4879
1 4880
1 4881
1 4882
1 4883
1 4884
1 4885
1 4886
1 4887
1 4888
1 4889
1 4890
1 4891
1 4892
1 4893
1 4894
1 4895
1 4896
1 4897
1 4898
1 4899
1 4900
1 4901
1 4902
1 4903
1 4904
1 4905
1 4906
1 4907
1 4908
1 4909
1 4910
1 4911
1 4912
1 4913
1 4914
1 4915
1 4916
1 4917
1 4918
1 4919
1 4920
1 4921
1 4922
1 4923
1 4924
1 4925
1 4926
1 4927
1 4928
1 4929
1 4930
1 4931
1 4932
1 4933
1 4934
1 4935
1 4936
1 4937
1 4938
1 4939
1 4940
1 4941
1 4942
1 4943
1 4944
1 4945
1 4946
1 4947
1 4948
1 4949
1 4950
1 4951
1 4952
1 4953
1 4954
1 4955
1 4956
1 4957
1 4958
1 4959
1 4960
1 4961
1 4962
1 4963
1 4964
1 4965
1 4966
1 4967
1 4968
1 4969
1 4970
1 4971
1 4972
1 4973
1 4974
1 4975
1 4976
1 4977
1 4978
1 4979
1 4980
1 4981
1 4982
1 4983
1 4984
1 4985
1 4986
1 4987
1 4988
1 4989
1 4990
1 4991
1 4992
1 4993
1 4994
1 4995
1 4996
1 4997
1 4998
1 4999
CELL_TYPES 5000
1 
1 
1 
1 
1 
1 
1 
1 
1 
1 
1 
1 
1 
1 
1 
1 
1 
1 
1 
1 
1 
1 
1 
1 
1 
1 
1 
1 
1 
1 
1 
1 
1 
1 
1 
1 
1 
1 
1 
1 
1 
1 
1 
1 
1 
1 
1 
1 
1 
1 
1 
1 
1 
1 
1 
1 
1 
1 
1 
1 
1 
1 
1 
1 
1 
1 
1 
1 
1 
1 
1 
1 
1 
1 
1 
1 
1 
1 
1 
1 
1 
1 
1 
1 
1 
1 
1 
1 
1 
1 
1 
1 
1 
1 
1 
1 
1 
1 
1 
1 
1 
1 
1 
1 
1 
1 
1 
1 
1 
1 
1 
1 
1 
1 
1 
1 
1 
1 
1 
1 
1 
1 
1 
1 
1 
1 
1 
1 
1 
1 
1 
1 
1 
1 
1 
1 
1 
1 
1 
1 
1 
1 
1 
1 
1 
1 
1 
1 
1 
1 
1 
1 
1 
1 
1 
1 
1 
1 
1 
1 
1 
1 
1 
1 
1 
1 
1 
1 
1 
1 
1 
1 
1 
1 
1 
1 
1 
1 
1 
1 
1 
1 
1 
1 
1 
1 
1 
1 
1 
1 
1 
1 
1 
1 
1 
1 
1 
1 
1 
1 
1 
1 
1 
1 
1 
1 
1 
1 
1 
1 
1 
1 
1 
1 
1 
1 
1 
1 
1 
1 
1 
1 
1 
1 
1 
1 
1 
1 
1 
1 
1 
1 
1 
1 
1 
1 
1 
1 
1 
1 
1 
1 
1 
1 
1 
1 
1 
1 
1 
1 
1 
1 
1 
1 
1 
1 
1 
1 
1 
1 
1 
1 
1 
1 
1 
1 
1 
1 
1 
1 
1 
1 
1 
1 
1 
1 
1 
1 
1 
1 
1 
1 
1 
1 
1 
1 
1 
1 
1 
1 
1 
1 
1 
1 
1 
1 
1 
1 
1 
1 
1 
1 
1 
1 
1 
1 
1 
1 
1 
1 
1 
1 
1 
1 
1 
1 
1 
1 
1 
1 
1 
1 
1 
1 
1 
1 
1 
1 
1 
1 
1 
1 
1 
1 
1 
1 
1 
1 
1 
1 
1 
1 
1 
1 
1 
1 
1 
1 
1 
1 
1 
1 
1 
1 
1 
1 
1 
1 
1 
1 
1 
1 
1 
1 
1 
1 
1 
1 
1 
1 
1 
1 
1 
1 
1 
1 
1 
1 
1 
1 
1 
1 
1 
1 
1 
1 
1 
1 
1 
1 
1 
1 
1 
1 
1 
1 
1 
1 
1 
1 
1 
1 
1 
1 
1 
1 
1 
1 
1 
1 
1 
1 
1 
1 
1 
1 
1 
1 
1 
1 
1 
1 
1 
1 
1 
1 
1 
1 
1 
1 
1 
1 
1 
1 
1 
1 
1 
1 
1 
1 
1 
1 
1 
1 
1 
1 
1 
1 
1 
1 
1 
1 
1 
1 
1 
1 
1 
1 
1 
1 
1 
1 
1 
1 
1 
1 
1 
1 
1 
1 
1 
1 
1 
1 
1 
1 
1 
1 
1 
1 
1 
1 
1 
1 
1 
1 
1 
1 
1 
1 
1 
1 
1 
1 
1 
1 
1 
1 
1 
1 
1 
1 
1 
1 
1 
1 
1 
1 
1 
1 
1 
1 
1 
1 
1 
1 
1 
1 
1 
1 
1 
1 
1 
1 
1 
1 
1 
1 
1 
1 
1 
1 
1 
1 
1 
1 
1 
1 
1 
1 
1 
1 
1 
1 
1 
1 
1 
1 
1 
1 
1 
1 
1 
1 
1 
1 
1 
1 
1 
1 
1 
1 
1 
1 
1 
1 
1 
1 
1 
1 
1 
1 
1 
1 
1 
1 
1 
1 
1 
1 
1 
1 
1 
1 
1 
1 
1 
1 
1 
1 
1 
1 
1 
1 
1 
1 
1 
1 
1 
1 
1 
1 
1 
1 
1 
1 
1 
1 
1 
1 
1 
1 
1 
1 
1 
1 
1 
1 
1 
1 
1 
1 
1 
1 
1 
1 
1 
1 
1 
1 
1 
1 
1 
1 
1 
1 
1 
1 
1 
1 
1 
1 
1 
1 
1 
1 
1 
1 
1 
1 
1 
1 
1 
1 
1 
1 
1 
1 
1 
1 
1 
1 
1 
1 
1 
1 
1 
1 
1 
1 
1 
1 
1 
1 
1 
1 
1 
1 
1 
1 
1 
1 
1 
1 
1 
1 
1 
1 
1 
1 
1 
1 
1 
1 
1 
1 
1 
1 
1 
1 
1 
1 
1 
1 
1 
1 
1 
1 
1 
1 
1 
1 
1 
1 
1 
1 
1 
1 
1 
1 
1 
1 
1 
1 
1 
1 
1 
1 
1 
1 
1 
1 
1 
1 
1 
1 
1 
1 
1 
1 
1 
1 
1 
1 
1 
1 
1 
1 
1 
1 
1 
1 
1 
1 
1 
1 
1 
1 
1 
1 
1 
1 
1 
1 
1 
1 
1 
1 
1 
1 
1 
1 
1 
1 
1 
1 
1 
1 
1 
1 
1 
1 
1 
1 
1 
1 
1 
1 
1 
1 
1 
1 
1 
1 
1 
1 
1 
1 
1 
1 
1 
1 
1 
1 
1 
1 
1 
1 
1 
1 
1 
1 
1 
1 
1 
1 
1 
1 
1 
1 
1 
1 
1 
1 
1 
1 
1 
1 
1 
1 
1 
1 
1 
1 
1 
1 
1 
1 
1 
1 
1 
1 
1 
1 
1 
1 
1 
1 
1 
1 
1 
1 
1 
1 
1 
1 
1 
1 
1 
1 
1 
1 
1 
1 
1 
1 
1 
1 
1 
1 
1 
1 
1 
1 
1 
1 
1 
1 
1 
1 
1 
1 
1 
1 
1 
1 
1 
1 
1 
1 
1 
1 
1 
1 
1 
1 
1 
1 
1 
1 
1 
1 
1 
1 
1 
1 
1 
1 
1 
1 
1 
1 
1 
1 
1 
1 
1 
1 
1 
1 
1 
1 
1 
1 
1 
1 
1 
1 
1 
1 
1 
1 
1 
1 
1 
1 
1 
1 
1 
1 
1 
1 
1 
1 
1 
1 
1 
1 
1 
1 
1 
1 
1 
1 
1 
1 
1 
1 
1 
1 
1 
1 
1 
1 
1 
1 
1 
1 
1 
1 
1 
1 
1 
1 
1 
1 
1 
1 
1 
1 
1 
1 
1 
1 
1 
1 
1 
1 
1 
1 
1 
1 
1 
1 
1 
1 
1 
1 
1 
1 
1 
1 
1 
1 
1 
1 
1 
1 
1 
1 
1 
1 
1 
1 
1 
1 
1 
1 
1 
1 
1 
1 
1 
1 
1 
1 
1 
1 
1 
1 
1 
1 
1 
1 
1 
1 
1 
1 
1 
1 
1 
1 
1 
1 
1 
1 
1 
1 
1 
1 
1 
1 
1 
1 
1 
1 
1 
1 
1 
1 
1 
1 
1 
1 
1 
1 
1 
1 
1 
1 
1 
1 
1 
1 
1 
1 
1 
1 
1 
1 
1 
1 
1 
1 
1 
1 
1 
1 
1 
1 
1 
1 
1 
1 
1 
1 
1 
1 
1 
1 
1 
1 
1 
1 
1 
1 
1 
1 
1 
1 
1 
1 
1 
1 
1 
1 
1 
1 
1 
1 
1 
1 
1 
1 
1 
1 
1 
1 
1 
1 
1 
1 
1 
1 
1 
1 
1 
1 
1 
1 
1 
1 
1 
1 
1 
1 
1 
1 
1 
1 
1 
1 
1 
1 
1 
1 
1 
1 
1 
1 
1 
1 
1 
1 
1 
1 
1 
1 
1 
1 
1 
1 
1 
1 
1 
1 
1 
1 
1 
1 
1 
1 
1 
1 
1 
1 
1 
1 
1 
1 
1 
1 
1 
1 
1 
1 
1 
1 
1 
1 
1 
1 
1 
1 
1 
1 
1 
1 
1 
1 
1 
1 
1 
1 
1 
1 
1 
1 
1 
1 
1 
1 
1 
1 
1 
1 
1 
1 
1 
1 
1 
1 
1 
1 
1 
1 
1 
1 
1 
1 
1 
1 
1 
1 
1 
1 
1 
1 
1 
1 
1 
1 
1 
1 
1 
1 
1 
1 
1 
1 
1 
1 
1 
1 
1 
1 
1 
1 
1 
1 
1 
1 
1 
1 
1 
1 
1 
1 
1 
1 
1 
1 
1 
1 
1 
1 
1 
1 
1 
1 
1 
1 
1 
1 
1 
1 
1 
1 
1 
1 
1 
1 
1 
1 
1 
1 
1 
1 
1 
1 
1 
1 
1 
1 
1 
1 
1 
1 
1 
1 
1 
1 
1 
1 
1 
1 
1 
1 
1 
1 
1 
1 
1 
1 
1 
1 
1 
1 
1 
1 
1 
1 
1 
1 
1 
1 
1 
1 
1 
1 
1 
1 
1 
1 
1 
1 
1 
1 
1 
1 
1 
1 
1 
1 
1 
1 
1 
1 
1 
1 
1 
1 
1 
1 
1 
1 
1 
1 
1 
1 
1 
1 
1 
1 
1 
1 
1 
1 
1 
1 
1 
1 
1 
1 
1 
1 
1 
1 
1 
1 
1 
1 
1 
1 
1 
1 
1 
1 
1 
1 
1 
1 
1 
1 
1 
1 
1 
1 
1 
1 
1 
1 
1 
1 
1 
1 
1 
1 
1 
1 
1 
1 
1 
1 
1 
1 
1 
1 
1 
1 
1 
1 
1 
1 
1 
1 
1 
1 
1 
1 
1 
1 
1 
1 
1 
1 
1 
1 
1 
1 
1 
1 
1 
1 
1 
1 
1 
1 
1 
1 
1 
1 
1 
1 
1 
1 
1 
1 
1 
1 
1 
1 
1 
1 
1 
1 
1 
1 
1 
1 
1 
1 
1 
1 
1 
1 
1 
1 
1 
1 
1 
1 
1 
1 
1 
1 
1 
1 
1 
1 
1 
1 
1 
1 
1 
1 
1 
1 
1 
1 
1 
1 
1 
1 
1 
1 
1 
1 
1 
1 
1 
1 
1 
1 
1 
1 
1 
1 
1 
1 
1 
1 
1 
1 
1 
1 
1 
1 
1 
1 
1 
1 
1 
1 
1 
1 
1 
1 
1 
1 
1 
1 
1 
1 
1 
1 
1 
1 
1 
1 
1 
1 
1 
1 
1 
1 
1 
1 
1 
1 
1 
1 
1 
1 
1 
1 
1 
1 
1 
1 
1 
1 
1 
1 
1 
1 
1 
1 
1 
1 
1 
1 
1 
1 
1 
1 
1 
1 
1 
1 
1 
1 
1 
1 
1 
1 
1 
1 
1 
1 
1 
1 
1 
1 
1 
1 
1 
1 
1 
1 
1 
1 
1 
1 
1 
1 
1 
1 
1 
1 
1 
1 
1 
1 
1 
1 
1 
1 
1 
1 
1 
1 
1 
1 
1 
1 
1 
1 
1 
1 
1 
1 
1 
1 
1 
1 
1 
1 
1 
1 
1 
1 
1 
1 
1 
1 
1 
1 
1 
1 
1 
1 
1 
1 
1 
1 
1 
1 
1 
1 
1 
1 
1 
1 
1 
1 
1 
1 
1 
1 
1 
1 
1 
1 
1 
1 
1 
1 
1 
1 
1 
1 
1 
1 
1 
1 
1 
1 
1 
1 
1 
1 
1 
1 
1 
1 
1 
1 
1 
1 
1 
1 
1 
1 
1 
1 
1 
1 
1 
1 
1 
1 
1 
1 
1 
1 
1 
1 
1 
1 
1 
1 
1 
1 
1 
1 
1 
1 
1 
1 
1 
1 
1 
1 
1 
1 
1 
1 
1 
1 
1 
1 
1 
1 
1 
1 
1 
1 
1 
1 
1 
1 
1 
1 
1 
1 
1 
1 
1 
1 
1 
1 
1 
1 
1 
1 
1 
1 
1 
1 
1 
1 
1 
1 
1 
1 
1 
1 
1 
1 
1 
1 
1 
1 
1 
1 
1 
1 
1 
1 
1 
1 
1 
1 
1 
1 
1 
1 
1 
1 
1 
1 
1 
1 
1 
1 
1 
1 
1 
1 
1 
1 
1 
1 
1 
1 
1 
1 
1 
1 
1 
1 
1 
1 
1 
1 
1 
1 
1 
1 
1 
1 
1 
1 
1 
1 
1 
1 
1 
1 
1 
1 
1 
1 
1 
1 
1 
1 
1 
1 
1 
1 
1 
1 
1 
1 
1 
1 
1 
1 
1 
1 
1 
1 
1 
1 
1 
1 
1 
1 
1 
1 
1 
1 
1 
1 
1 
1 
1 
1 
1 
1 
1 
1 
1 
1 
1 
1 
1 
1 
1 
1 
1 
1 
1 
1 
1 
1 
1 
1 
1 
1 
1 
1 
1 
1 
1 
1 
1 
1 
1 
1 
1 
1 
1 
1 
1 
1 
1 
1 
1 
1 
1 
1 
1 
1 
1 
1 
1 
1 
1 
1 
1 
1 
1 
1 
1 
1 
1 
1 
1 
1 
1 
1 
1 
1 
1 
1 
1 
1 
1 
1 
1 
1 
1 
1 
1 
1 
1 
1 
1 
1 
1 
1 
1 
1 
1 
1 
1 
1 
1 
1 
1 
1 
1 
1 
1 
1 
1 
1 
1 
1 
1 
1 
1 
1 
1 
1 
1 
1 
1 
1 
1 
1 
1 
1 
1 
1 
1 
1 
1 
1 
1 
1 
1 
1 
1 
1 
1 
1 
1 
1 
1 
1 
1 
1 
1 
1 
1 
1 
1 
1 
1 
1 
1 
1 
1 
1 
1 
1 
1 
1 
1 
1 
1 
1 
1 
1 
1 
1 
1 
1 
1 
1 
1 
1 
1 
1 
1 
1 
1 
1 
1 
1 
1 
1 
1 
1 
1 
1 
1 
1 
1 
1 
1 
1 
1 
1 
1 
1 
1 
1 
1 
1 
1 
1 
1 
1 
1 
1 
1 
1 
1 
1 
1 
1 
1 
1 
1 
1 
1 
1 
1 
1 
1 
1 
1 
1 
1 
1 
1 
1 
1 
1 
1 
1 
1 
1 
1 
1 
1 
1 
1 
1 
1 
1 
1 
1 
1 
1 
1 
1 
1 
1 
1 
1 
1 
1 
1 
1 
1 
1 
1 
1 
1 
1 
1 
1 
1 
1 
1 
1 
1 
1 
1 
1 
1 
1 
1 
1 
1 
1 
1 
1 
1 
1 
1 
1 
1 
1 
1 
1 
1 
1 
1 
1 
1 
1 
1 
1 
1 
1 
1 
1 
1 
1 
1 
1 
1 
1 
1 
1 
1 
1 
1 
1 
1 
1 
1 
1 
1 
1 
1 
1 
1 
1 
1 
1 
1 
1 
1 
1 
1 
1 
1 
1 
1 
1 
1 
1 
1 
1 
1 
1 
1 
1 
1 
1 
1 
1 
1 
1 
1 
1 
1 
1 
1 
1 
1 
1 
1 
1 
1 
1 
1 
1 
1 
1 
1 
1 
1 
1 
1 
1 
1 
1 
1 
1 
1 
1 
1 
1 
1 
1 
1 
1 
1 
1 
1 
1 
1 
1 
1 
1 
1 
1 
1 
1 
1 
1 
1 
1 
1 
1 
1 
1 
1 
1 
1 
1 
1 
1 
1 
1 
1 
1 
1 
1 
1 
1 
1 
1 
1 
1 
1 
1 
1 
1 
1 
1 
1 
1 
1 
1 
1 
1 
1 
1 
1 
1 
1 
1 
1 
1 
1 
1 
1 
1 
1 
1 
1 
1 
1 
1 
1 
1 
1 
1 
1 
1 
1 
1 
1 
1 
1 
1 
1 
1 
1 
1 
1 
1 
1 
1 
1 
1 
1 
1 
1 
1 
1 
1 
1 
1 
1 
1 
1 
1 
1 
1 
1 
1 
1 
1 
1 
1 
1 
1 
1 
1 
1 
1 
1 
1 
1 
1 
1 
1 
1 
1 
1 
1 
1 
1 
1 
1 
1 
1 
1 
1 
1 
1 
1 
1 
1 
1 
1 
1 
1 
1 
1 
1 
1 
1 
1 
1 
1 
1 
1 
1 
1 
1 
1 
1 
1 
1 
1 
1 
1 
1 
1 
1 
1 
1 
1 
1 
1 
1 
1 
1 
1 
1 
1 
1 
1 
1 
1 
1 
1 
1 
1 
1 
1 
1 
1 
1 
1 
1 
1 
1 
1 
1 
1 
1 
1 
1 
1 
1 
1 
1 
1 
1 
1 
1 
1 
1 
1 
1 
1 
1 
1 
1 
1 
1 
1 
1 
1 
1 
1 
1 
1 
1 
1 
1 
1 
1 
1 
1 
1 
1 
1 
1 
1 
1 
1 
1 
1 
1 
1 
1 
1 
1 
1 
1 
1 
1 
1 
1 
1 
1 
1 
1 
1 
1 
1 
1 
1 
1 
1 
1 
1 
1 
1 
1 
1 
1 
1 
1 
1 
1 
1 
1 
1 
1 
1 
1 
1 
1 
1 
1 
1 
1 
1 
1 
1 
1 
1 
1 
1 
1 
1 
1 
1 
1 
1 
1 
1 
1 
1 
1 
1 
1 
1 
1 
1 
1 
1 
1 
1 
1 
1 
1 
1 
1 
1 
1 
1 
1 
1 
1 
1 
1 
1 
1 
1 
1 
1 
1 
1 
1 
1 
1 
1 
1 
1 
1 
1 
1 
1 
1 
1 
1 
1 
1 
1 
1 
1 
1 
1 
1 
1 
1 
1 
1 
1 
1 
1 
1 
1 
1 
1 
1 
1 
1 
1 
1 
1 
1 
1 
1 
1 
1 
1 
1 
1 
1 
1 
1 
1 
1 
1 
1 
1 
1 
1 
1 
1 
1 
1 
1 
1 
1 
1 
1 
1 
1 
1 
1 
1 
1 
1 
1 
1 
1 
1 
1 
1 
1 
1 
1 
1 
1 
1 
1 
1 
1 
1 
1 
1 
1 
1 
1 
1 
1 
1 
1 
1 
1 
1 
1 
1 
1 
1 
1 
1 
1 
1 
1 
1 
1 
1 
1 
1 
1 
1 
1 
1 
1 
1 
1 
1 
1 
1 
1 
1 
1 
1 
1 
1 
1 
1 
1 
1 
1 
1 
1 
1 
1 
1 
1 
1 
1 
1 
1 
1 
1 
1 
1 
1 
1 
1 
1 
1 
1 
1 
1 
1 
1 
1 
1 
1 
1 
1 
1 
1 
1 
1 
1 
1 
1 
1 
1 
1 
1 
1 
1 
1 
1 
1 
1 
1 
1 
1 
1 
1 
1 
1 
1 
1 
1 
1 
1 
1 
1 
1 
1 
1 
1 
1 
1 
1 
1 
1 
1 
1 
1 
1 
1 
1 
1 
1 
1 
1 
1 
1 
1 
1 
1 
1 
1 
1 
1 
1 
1 
1 
1 
1 
1 
1 
1 
1 
1 
1 
1 
1 
1 
1 
1 
1 
1 
1 
1 
1 
1 
1 
1 
1 
1 
1 
1 
1 
1 
1 
1 
1 
1 
1 
1 
1 
1 
1 
1 
1 
1 
1 
1 
1 
1 
1 
1 
1 
1 
1 
1 
1 
1 
1 
1 
1 
1 
1 
1 
1 
1 
1 
1 
1 
1 
1 
1 
1 
1 
1 
1 
1 
1 
1 
1 
1 
1 
1 
1 
1 
1 
1 
1 
1 
1 
1 
1 
1 
1 
1 
1 
1 
1 
1 
1 
1 
1 
1 
1 
1 
1 
1 
1 
1 
1 
1 
1 
1 
1 
1 
1 
1 
1 
1 
1 
1 
1 
1 
1 
1 
1 
1 
1 
1 
1 
1 
1 
1 
1 
1 
1 
1 
1 
1 
1 
1 
1 
1 
1 
1 
1 
1 
1 
1 
1 
1 
1 
1 
1 
1 
1 
1 
1 
1 
1 
1 
1 
1 
1 
1 
1 
1 
1 
1 
1 
1 
1 
1 
1 
1 
1 
1 
1 
1 
1 
1 
1 
1 
1 
1 
1 
1 
1 
1 
1 
1 
1 
1 
1 
1 
1 
1 
1 
1 
1 
1 
1 
1 
1 
1 
1 
1 
1 
1 
1 
1 
1 
1 
1 
1 
1 
1 
1 
1 
1 
1 
1 
1 
1 
1 
1 
1 
1 
1 
1 
1 
1 
1 
1 
1 
1 
1 
1 
1 
1 
1 
1 
1 
1 
1 
1 
1 
1 
1 
1 
1 
1 
1 
1 
1 
1 
1 
1 
1 
1 
1 
1 
1 
1 
1 
1 
1 
1 
1 
1 
1 
1 
1 
1 
1 
1 
1 
1 
1 
1 
1 
1 
1 
1 
1 
1 
1 
1 
1 
1 
1 
1 
1 
1 
1 
1 
1 
1 
1 
1 
1 
1 
1 
1 
1 
1 
1 
1 
1 
1 
1 
1 
1 
1 
1 
1 
1 
1 
1 
1 
1 
1 
1 
1 
1 
1 
1 
1 
1 
1 
1 
1 
1 
1 
1 
1 
1 
1 
1 
1 
1 
1 
1 
1 
1 
1 
1 
1 
1 
1 
1 
1 
1 
1 
1 
1 
1 
1 
1 
1 
1 
1 
1 
1 
1 
1 
1 
1 
1 
1 
1 
1 
1 
1 
1 
1 
1 
1 
1 
1 
1 
1 
1 
1 
1 
1 
1 
1 
1 
1 
1 
1 
1 
1 
1 
1 
1 
1 
1 
1 
1 
1 
1 
1 
1 
1 
1 
1 
1 
1 
1 
1 
1 
1 
1 
1 
1 
1 
1 
1 
1 
1 
1 
1 
1 
1 
1 
1 
1 
1 
1 
1 
1 
1 
1 
1 
1 
1 
1 
1 
1 
1 
1 
1 
1 
1 
1 
1 
1 
1 
1 
1 
1 
1 
1 
1 
1 
1 
1 
1 
1 
1 
1 
1 
1 
1 
1 
1 
1 
1 
1 
1 
1 
1 
1 
1 
1 
1 
1 
1 
1 
1 
1 
1 
1 
1 
1 
1 
1 
1 
1 
1 
1 
1 
1 
1 
1 
1 
1 
1 
1 
1 
1 
1 
1 
1 
1 
1 
1 
1 
1 
1 
1 
1 
1 
1 
1 
1 
1 
1 
1 
1 
1 
1 
1 
1 
1 
1 
1 
1 
1 
1 
1 
1 
1 
1 
1 
1 
1 
1 
1 
1 
1 
1 
1 
1 
1 
1 
1 
1 
1 
1 
1 
1 
1 
1 
1 
1 
1 
1 
1 
1 
1 
1 
1 
1 
1 
1 
1 
1 
1 
1 
1 
1 
1 
1 
1 
1 
1 
1 
1 
1 
1 
1 
1 
1 
1 
1 
1 
1 
1 
1 
1 
1 
1 
1 
1 
1 
1 
1 
1 
1 
1 
1 
1 
1 
1 
1 
1 
1 
1 
1 
1 
1 
1 
1 
1 
1 
1 
1 
1 
1 
1 
1 
1 
1 
1 
1 
1 
1 
1 
1 
1 
1 
1 
1 
1 
1 
1 
1 
1 
1 
1 
1 
1 
1 
1 
1 
1 
1 
1 
1 
1 
1 
1 
1 
1 
1 
1 
1 
1 
1 
1 
1 
1 
1 
1 
1 
1 
1 
1 
1 
1 
1 
1 
1 
1 
1 
1 
1 
1 
1 
1 
1 
1 
1 
1 
1 
1 
1 
1 
1 
1 
1 
1 
1 
1 
1 
1 
1 
1 
1 
1 
1 
1 
1 
1 
1 
1 
1 
1 
1 
1 
1 
1 
1 
1 
1 
1 
1 
1 
1 
1 
1 
1 
1 
1 
1 
1 
1 
1 
1 
1 
1 
1 
1 
1 
1 
1 
1 
1 
1 
1 
1 
1 
1 
1 
1 
1 
1 
1 
1 
1 
1 
1 
1 
1 
1 
1 
1 
1 
1 
1 
1 
1 
1 
1 
1 
1 
1 
1 
1 
1 
1 
1 
1 
1 
1 
1 
1 
1 
1 
1 
1 
1 
1 
1 
1 
1 
1 
1 
1 
1 
1 
1 
1 
1 
1 
1 
1 
1 
1 
1 
1 
1 
1 
1 
1 
1 
1 
1 
1 
1 
1 
1 
1 
1 
1 
1 
1 
1 
1 
1 
1 
1 
1 
1 
1 
1 
1 
1 
1 
1 
1 
1 
1 
1 
1 
1 
1 
1 
1 
1 
1 
1 
1 
1 
1 
1 
1 
1 
1 
1 
1 
1 
1 
1 
1 
1 
1 
1 
1 
1 
1 
1 
1 
1 
1 
1 
1 
1 
1 
1 
1 
1 
1 
1 
1 
1 
1 
1 
1 
1 
1 
1 
1 
1 
1 
1 
1 
1 
1 
1 
1 
1 
1 
1 
1 
1 
1 
1 
1 
1 
1 
1 
1 
1 
1 
1 
1 
1 
1 
1 
1 
1 
1 
1 
1 
1 
1 
1 
1 
1 
1 
1 
1 
1 
1 
1 
1 
1 
1 
1 
1 
1 
1 
1 
1 
1 
1 
1 
1 
1 
1 
1 
1 
1 
1 
1 
1 
1 
1 
1 
1 
1 
1 
1 
1 
1 
1 
1 
1 
1 
1 
1 
1 
1 
1 
1 
1 
1 
1 
1 
1 
1 
1 
1 
1 
1 
1 
1 
1 
1 
1 
1 
1 
1 
1 
1 
1 
1 
1 
1 
1 
1 
1 
1 
1 
1 
1 
1 
1 
1 
1 
1 
1 
1 
1 
1 
1 
1 
1 
1 
1 
1 
1 
1 
1 
1 
1 
1 
1 
1 
1 
1 
1 
1 
1 
1 
1 
1 
1 
1 
1 
1 
1 
1 
1 
1 
1 
1 
1 
1 
1 
1 
1 
1 
1 
1 
1 
1 
1 
1 
1 
1 
1 
1 
1 
1 
1 
1 
1 
1 
1 
1 
1 
1 
1 
1 
1 
1 
1 
1 
1 
1 
1 
1 
1 
1 
1 
1 
1 
1 
1 
1 
1 
1 
1 
1 
1 
1 
1 
1 
1 
1 
1 
1 
1 
1 
1 
1 
1 
1 
1 
1 
1 
1 
1 
1 
1 
1 
1 
1 
1 
1 
1 
1 
1 
1 
1 
1 
1 
1 
1 
1 
1 
1 
1 
1 
1 
1 
1 
1 
1 
1 
1 
1 
1 
1 
1 
1 
1 
1 
1 
1 
1 
1 
1 
1 
1 
1 
1 
1 
1 
1 
1 
1 
1 
1 
1 
1 
1 
1 
1 
1 
1 
1 
1 
1 
1 
1 
1 
1 
1 
1 
1 
1 
1 
1 
1 
1 
1 
1 
1 
1 
1 
1 
1 
1 
1 
1 
1 
1 
1 
1 
1 
1 
1 
1 
1 
1 
1 
1 
1 
1 
1 
1 
1 
1 
1 
1 
1 
1 
1 
1 
1 
1 
1 
1 
1 
1 
1 
1 
1 
1 
1 
1 
1 
1 
1 
1 
1 
1 
1 
1 
1 
1 
1 
1 
1 
1 
1 
1 
1 
1 
1 
1 
1 
1 
1 
1 
1 
1 
1 
1 
1 
1 
1 
1 
1 
1 
1 
1 
1 
1 
1 
1 
1 
1 
1 
1 
1 
1 
1 
1 
1 
1 
1 
1 
1 
1 
1 
1 
1 
1 
1 
1 
1 
1 
1 
1 
1 
1 
1 
1 
1 
1 
1 
1 
1 
1 
1 
1 
1 
1 
1 
1 
1 
1 
1 
1 
1 
1 
1 
1 
1 
1 
1 
1 
1 
1 
1 
1 
1 
1 
1 
1 
1 
1 
1 
1 
1 
1 
1 
1 
1 
1 
1 
1 
1 
1 
1 
1 
1 
1 
1 
1 
1 
1 
1 
1 
1 
1 
1 
1 
1 
1 
1 
1 
1 
1 
1 
1 
1 
1 
1 
1 
1 
1 
1 
1 
1 
1 
1 
1 
1 
1 
1 
1 
1 
1 
1 
1 
1 
1 
1 
1 
1 
1 
1 
1 
1 
1 
1 
1 
1 
1 
1 
1 
1 
1 
1 
1 
1 
1 
1 
1 
1 
1 
1 
1 
1 
1 
1 
1 
1 
1 
1 
1 
1 
1 
1 
1 
1 
1 
1 
1 
1 
1 
1 
1 
1 
1 
1 
1 
1 
1 
1 
1 
1 
1 
1 
1 
1 
1 
1 
1 
1 
1 
1 
1 
1 
1 
1 
1 
1 
1 
1 
1 
1 
1 
1 
1 
1 
1 
1 
1 
1 
1 
1 
1 
1 
1 
1 
1 
1 
1 
1 
1 
1 
1 
1 
1 
1 
1 
1 
1 
1 
1 
1 
1 
1 
1 
1 
1 
1 
1 
1 
1 
1 
1 
1 
1 
1 
1 
1 
1 
1 
1 
1 
1 
1 
1 
1 
1 
1 
1 
1 
1 
1 
1 
1 
1 
1 
1 
1 
1 
1 
1 
1 
1 
1 
1 
1 
1 
1 
1 
1 
1 
1 
1 
1 
1 
1 
1 
1 
1 
1 
1 
1 
1 
1 
1 
1 
1 
1 
1 
1 
1 
1 
1 
1 
1 
1 
1 
1 
1 
1 
1 
1 
1 
1 
1 
1 
1 
1 
1 
1 
1 
1 
1 
1 
1 
1 
1 
1 
1 
1 
1 
1 
1 
1 
1 
1 
1 
1 
1 
1 
1 
1 
1 
1 
1 
1 
1 
1 
1 
1 
1 
1 
1 
1 
1 
1 
1 
1 
1 
1 
1 
1 
1 
1 
1 
1 
1 
1 
1 
1 
1 
1 
1 
1 
1 
1 
1 
1 
1 
1 
1 
1 
1 
1 
1 
1 
1 
1 
1 
1 
1 
1 
1 
1 
1 
1 
1 
1 
1 
1 
1 
1 
1 
1 
1 
1 
1 
1 
1 
1 
1 
1 
1 
1 
1 
1 
1 
1 
1 
1 
1 
1 
1 
1 
1 
1 
1 
1 
1 
1 
1 
1 
1 
1 
1 
1 
1 
1 
1 
1 
1 
1 
1 
1 
1 
1 
1 
1 
1 
1 
1 
1 
1 
1 
1 
1 
1 
1 
1 
1 
1 
1 
1 
1 
1 
1 
1 
1 
1 
1 
1 
1 
1 
1 
1 
1 
1 
1 
1 
1 
1 
1 
1 
1 
1 
1 
1 
1 
1 
1 
1 
1 
1 
1 
1 
1 
1 
1 
1 
1 
1 
1 
1 
1 
1 
1 
1 
1 
1 
1 
1 
1 
1 
1 
1 
1 
1 
1 
1 
1 
1 
1 
1 
1 
1 
1 
1 
1 
1 
1 
1 
1 
1 
1 
1 
1 
1 
1 
1 
1 
1 
1 
1 
1 
1 
1 
1 
1 
1 
1 
1 
1 
1 
1 
1 
1 
1 
1 
1 
1 
1 
1 
1 
1 
1 
1 
1 
1 
1 
1 
1 
1 
1 
1 
1 
1 
1 
1 
1 
1 
1 
1 
1 
1 
1 
1 
1 
1 
1 
1 
1 
1 
1 
1 
1 
1 
1 
1 
1 
1 
1 
1 
1 
1 
1 
1 
1 
1 
1 
1 
1 
1 
1 
1 
1 
1 
1 
1 
1 
1 
1 
1 
1 
1 
1 
1 
1 
1 
1 
1 
1 
1 
1 
1 
1 
1 
1 
1 
1 
1 
1 
1 
1 
1 
1 
1 
1 
1 
1 
1 
1 
1 
1 
1 
1 
1 
1 
1 
1 
1 
1 
1 
1 
1 
1 
1 
1 
1 
1 
1 
1 
1 
1 
1 
1 
1 
1 
1 
1 
1 
1 
1 
1 
1 
1 
1 
1 
1 
1 
1 
1 
1 
1 
1 
1 
1 
1 
1 
1 
1 
1 
1 
1 
1 
1 
1 
1 
1 
1 
1 
1 
1 
1 
1 
1 
1 
1 
1 
1 
1 
1 
1 
1 
1 
1 
1 
1 
1 
1 
1 
1 
1 
1 
1 
1 
1 
1 
1 
1 
1 
1 
1 
1 
1 
1 
1 
1 
1 
1 
1 
1 
1 
1 
1 
1 
1 
1 
1 
1 
1 
1 
1 
1 
1 
1 
1 
1 
1 
1 
1 
1 
1 
1 
1 
1 
1 
1 
1 
1 
1 
1 
1 
1 
1 
1 
1 
1 
1 
1 
1 
1 
1 
1 
1 
1 
1 
1 
1 
1 
1 
1 
1 
1 
1 
1 
1 
1 
1 
1 
1 
1 
1 
1 
1 
1 
1 
1 
1 
1 
1 
1 
1 
1 
1 
1 
1 
1 
1 
1 
1 
1 
1 
1 
1 
1 
1 
1 
1 
1 
1 
1 
1 
1 
1 
1 
1 
1 
1 
1 
1 
1 
1 
1 
1 
1 
1 
1 
1 
1 
1 
1 
1 
1 
1 
1 
1 
1 
1 
1 
1 
1 
1 
1 
1 
1 
1 
1 
1 
1 
1 
1 
1 
1 
1 
1 
1 
1 
1 
1 
1 
1 
1 
1 
1 
1 
1 
1 
1 
1 
1 
1 
1 
1 
1 
POINT_DATA 5000
VECTORS Stress float
449.397 -638.957 0.
12.2638 -862.444 0.
-3.69661 -899.711 0.
-55.0175 -950.405 0.
-67.9999 -980.682 0.
-80.9823 -1010.96 0.
-7.96927 -1024.18 0.
-45.8609 -1112.62 0.
-83.7525 -1201.05 0.
-363.7 -1272.14 0.
-302.669 -1129.79 0.
-241.639 -987.435 0.
-34.7186 -901.224 0.
-45.0803 -925.422 0.
-304.348 -1063.03 0.
-355.989 -1183.63 0.
-407.631 -1304.23 0.
76.3631 -1180.16 0.
50.9472 -1239.63 0.
25.5312 -1299.09 0.
-454.883 -1485.43 0.
-413.734 -1389.38 0.
-372.585 -1293.34 0.
-298.682 -1223.2 0.
-285.356 -1192.02 0.
-143.561 -1105.78 0.
-402.384 -1264.86 0.
-427.67 -1323.96 0.
-45.8766 -1223.75 0.
-108.673 -1370.5 0.
-171.47 -1517.25 0.
-210.608 -1593.59 0.
-200.291 -1569.67 0.
-189.973 -1545.75 0.
63.7019 -1451.28 0.
47.3168 -1489.35 0.
30.9316 -1527.42 0.
-270.883 -1629.1 0.
-252.455 -1585.99 0.
159.319 -1374.35 0.
177.305 -1332.27 0.
195.291 -1290.18 0.
-337.07 -1499.59 0.
-344.912 -1517.83 0.
-352.753 -1536.07 0.
-30.8953 -1428.95 0.
-53.8835 -1482.61 0.
-76.8716 -1536.26 0.
-161.328 -1589.08 0.
-165.494 -1598.88 0.
-2550.04 -2629.07 0.
944.838 -1129.76 0.
945.739 -1127.74 0.
-352.297 -1678.24 0.
-341.252 -1652.39 0.
-330.207 -1626.53 0.
-167.872 -1545.65 0.
-169.907 -1550.35 0.
-171.943 -1555.04 0.
13.3291 -1462.9 0.
24.6101 -1436.47 0.
35.8911 -1410.03 0.
-279.392 -1562.72 0.
-290.456 -1588.53 0.
-93.9728 -1525.03 0.
-107.471 -1556.51 0.
-120.97 -1588 0.
-745.706 -1836.39 0.
-689.311 -1704.94 0.
-632.916 -1573.5 0.
209.588 -1185.09 0.
191.801 -1226.62 0.
174.013 -1268.14 0.
-803.228 -1662.89 0.
-782.435 -1614.36 0.
-580.882 -1489.42 0.
-449.47 -1453.28 0.
-460.01 -1477.97 0.
122.258 -1230.6 0.
148.639 -1168.86 0.
175.02 -1107.13 0.
-124.832 -1258.33 0.
-181.13 -1389.66 0.
-237.427 -1520.99 0.
-360.02 -1559.98 0.
-324.751 -1477.55 0.
-289.483 -1395.12 0.
-786.392 -1544.37 0.
-752.718 -1465.84 0.
-515.578 -1302.96 0.
-494.8 -1254.48 0.
-474.021 -1205.99 0.
-561.972 -1239.21 0.
-593.786 -1313.31 0.
-625.6 -1387.41 0.
97.7677 -1165.73 0.
40.0101 -1300.33 0.
-17.7474 -1434.93 0.
-276.285 -1448.84 0.
-197.747 -1265.07 0.
88.3349 -762.301 0.
48.9166 -815.484 0.
32.9646 -852.78 0.
-94.2072 -935.669 0.
-107.21 -965.964 0.
-120.213 -996.258 0.
-12.0026 -994.515 0.
-49.8694 -1082.93 0.
-87.7362 -1171.34 0.
-162.34 -1154.45 0.
-101.264 -1012.09 0.
-40.1891 -869.741 0.
-89.5575 -893.17 0.
-99.8999 -917.367 0.
-305.39 -1032.2 0.
-356.964 -1152.85 0.
-408.539 -1273.49 0.
-138.817 -1240.65 0.
-164.132 -1300.21 0.
-189.447 -1359.77 0.
-268.324 -1374.03 0.
-227.183 -1277.94 0.
-186.042 -1181.84 0.
-335.791 -1207.79 0.
-322.526 -1176.58 0.
-639.96 -1287.09 0.
-314.67 -1196.07 0.
-339.897 -1255.24 0.
-239.111 -1274.88 0.
-301.761 -1421.72 0.
-364.411 -1568.56 0.
-135.989 -1530.1 0.
-125.559 -1506.23 0.
-115.13 -1482.36 0.
88.5923 -1409.09 0.
72.1012 -1447.08 0.
55.6101 -1485.07 0.
-250.688 -1589.27 0.
-232.33 -1546.11 0.
121.937 -1359.36 0.
139.849 -1317.21 0.
157.76 -1275.06 0.
-238.492 -1425.95 0.
-246.358 -1444.13 0.
-254.224 -1462.32 0.
121.466 -1332.61 0.
98.4863 -1386.29 0.
75.5061 -1439.96 0.
-182.245 -1566.49 0.
-186.383 -1576.38 0.
-1253.5 -2041.94 0.
793.393 -1163.22 0.
794.338 -1161.27 0.
-75.3348 -1528.06 0.
-64.3613 -1502.19 0.
-53.3878 -1476.32 0.
-130.571 -1498.4 0.
-132.648 -1503.08 0.
-134.726 -1507.77 0.
-78.4663 -1471.01 0.
-67.2378 -1444.47 0.
-56.0092 -1417.93 0.
-325.819 -1550.96 0.
-336.891 -1576.77 0.
-173.82 -1528.08 0.
-187.336 -1559.57 0.
-200.852 -1591.07 0.
-506.373 -1702.23 0.
-449.88 -1570.84 0.
-393.387 -1439.46 0.
-14.3474 -1249.7 0.
-32.1135 -1291.22 0.
-49.8796 -1332.74 0.
-538.902 -1518.15 0.
-518.111 -1469.62 0.
-515.112 -1429.38 0.
-414.725 -1406.63 0.
-425.216 -1431.4 0.
-174.139 -1326.4 0.
-147.872 -1264.57 0.
-121.604 -1202.74 0.
58.8353 -1148.12 0.
2.51054 -1279.46 0.
-53.8143 -1410.81 0.
-563.151 -1615.74 0.
-527.974 -1533.24 0.
-492.796 -1450.74 0.
-457.501 -1372.11 0.
-423.805 -1293.61 0.
-436.395 -1237.56 0.
-415.639 -1189.12 0.
-394.883 -1140.69 0.
-249.114 -1073.77 0.
-281.023 -1147.83 0.
-312.932 -1221.89 0.
-144.753 -1238.42 0.
-202.581 -1372.85 0.
-260.408 -1507.28 0.
-72.6285 -1330.67 0.
5.63621 -1146.51 0.
-197.047 -712.143 0.
137.643 -647.895 0.
67.3159 -811.871 0.
-466.896 -1698.84 0.
-311.839 -1337.25 0.
-498.207 -1772.34 0.
-566.383 -2248.75 0.
-380.243 -1814.92 0.
-643.376 -2429.37 0.
-694.281 -2745.75 0.
-795.849 -2982.93 0.
-1026.37 -3520.99 0.
-1135.3 -3197.03 0.
-794.774 -2402.34 0.
-1239.52 -3179.25 0.
-1050.28 -2737.47 0.
-1121.89 -2904.33 0.
-1097.25 -3038.2 0.
-1153.5 -3169.02 0.
-1542.81 -4076.98 0.
-1478.13 -4520.22 0.
-1100.82 -3639.96 0.
-1160.1 -3778.39 0.
-1272.6 -3291.98 0.
-1213.67 -3154.81 0.
-1570.9 -4044.91 0.
-1226.77 -3460.52 0.
-1062.23 -3076.21 0.
-1105.92 -2901.51 0.
-1174.49 -3060.93 0.
-1511.75 -3847.35 0.
-1083.85 -3853.16 0.
-924.366 -3480.79 0.
-975.612 -3600.13 0.
-784.699 -3461.37 0.
-993.914 -3950.43 0.
-1627.11 -5428.8 0.
-1590.03 -4721.48 0.
-1279.45 -3997.07 0.
-1555.87 -5172.91 0.
-1163.7 -4258.24 0.
-977.919 -3825.16 0.
-1170.91 -3758.41 0.
-762.344 -2805.17 0.
-612.503 -2455.63 0.
-488.871 -3015.8 0.
-750.219 -3625.61 0.
-990.331 -4185.87 0.
-997.289 -3397.64 0.
-966.072 -3324.63 0.
-3723.91 -6047.82 0.
-311.659 -3423.03 0.
-360.87 -3537.18 0.
-965.644 -4102.04 0.
-672.931 -3418.54 0.
-859.989 -3854.54 0.
-665.061 -2784.41 0.
-783.632 -3061.07 0.
-1193.13 -4016.52 0.
-1155.72 -3780.45 0.
-847.475 -3061.45 0.
-1000.11 -3417.85 0.
-1086.91 -3205.55 0.
-1144.48 -3339.98 0.
-1436.13 -4291.06 0.
-1381.34 -4162.97 0.
-1659.4 -4811.52 0.
-1504.15 -4455.75 0.
-1085.78 -3479.29 0.
-1435.72 -4295.56 0.
-1360.02 -3931.7 0.
-1156.25 -3456.25 0.
-1616.6 -4530.41 0.
-1032.21 -3141.47 0.
-788.308 -2571.87 0.
-1207.02 -3072.74 0.
-825.542 -2400.13 0.
-1326.01 -3567.79 0.
-1679.67 -4242.64 0.
-1267.58 -3281.27 0.
-1421.14 -3639.74 0.
-1020.5 -3983.89 0.
-848.537 -3582.95 0.
-972.575 -3872.69 0.
-1399.39 -3147.99 0.
-1091.87 -2430.44 0.
-1189.28 -2657.76 0.
-745.629 -2638.7 0.
-965.691 -3151.88 0.
-1549.72 -3955.96 0.
-824.533 -2263.39 0.
-758.893 -2109.75 0.
-313.053 -1784.74 0.
-115.822 -1324.33 0.
-451.437 -2107.21 0.
-559.503 -1715.6 0.
-135.728 -727.199 0.
-261.033 -1019.91 0.
97.7387 -1290.64 0.
52.8482 -1396.51 0.
71.5884 -224.452 0.
399.419 -103.291 0.
382.777 -142.139 0.
71.0728 -293.583 0.
96.6417 -234.233 0.
122.211 -174.883 0.
295.911 27.2266 0.
419.5 315.213 0.
543.089 603.2 0.
711.046 594.447 0.
578.936 285.779 0.
446.825 -22.8889 0.
256.346 9.80745 0.
344.399 215.618 0.
278.052 343.808 0.
306.93 411.459 0.
335.807 479.109 0.
453.162 598.834 0.
506.49 723.773 0.
559.818 848.711 0.
791.774 855.256 0.
653.922 533.44 0.
516.07 211.623 0.
306.126 64.9995 0.
309.76 73.0195 0.
863.31 316.661 0.
350.145 131.746 0.
367.966 173.41 0.
304.047 219.408 0.
423.119 497.706 0.
542.191 776.005 0.
776.103 885.69 0.
631.168 547.935 0.
486.232 210.18 0.
994.788 430.398 0.
1073.02 612.034 0.
1151.26 793.669 0.
719.538 519.365 0.
655.316 369.025 0.
693.23 273.524 0.
681.878 246.797 0.
670.525 220.07 0.
542.103 160.161 0.
557.055 194.802 0.
572.007 229.444 0.
728.111 311.272 0.
729.833 315.3 0.
731.555 319.328 0.
883.904 414.253 0.
903.914 461.07 0.
-309.51 -20.6901 0.
1175.75 583.691 0.
1158.53 544.031 0.
953.331 439.885 0.
972.039 484.033 0.
990.747 528.181 0.
787.418 511.219 0.
846.525 649.03 0.
905.632 786.841 0.
757.784 608.223 0.
638.803 330.262 0.
519.822 52.3012 0.
404.74 85.9894 0.
467.438 232.354 0.
562.342 389.611 0.
608.786 498.348 0.
655.23 607.086 0.
574 596.198 0.
524.033 479.153 0.
474.067 362.107 0.
429.576 319.876 0.
445.5 356.431 0.
461.423 392.986 0.
679.104 437.984 0.
643.276 354.991 0.
372.18 175.012 0.
358.922 304.37 0.
429.27 469.558 0.
449.801 565.297 0.
417.841 490.55 0.
385.881 415.803 0.
682.622 495.095 0.
665.752 455.234 0.
648.881 415.374 0.
4.77058 81.9906 0.
-30.522 -0.260179 0.
-65.8147 -82.5109 0.
474.314 74.3416 0.
432.085 -23.2517 0.
-28.4091 -294.079 0.
-31.0154 -299.453 0.
-33.6217 -304.827 0.
372.782 -120.747 0.
389.862 -80.3261 0.
406.943 -39.9048 0.
120.966 -198.223 0.
76.4933 -302.11 0.
32.0202 -405.998 0.
399.953 -320.89 0.
361.173 -412.356 0.
161.37 -154.114 0.
450.561 -50.1246 0.
433.931 -89.1052 0.
9.09682 -288.206 0.
34.6855 -228.904 0.
60.2742 -169.602 0.
174.009 6.75826 0.
297.565 294.769 0.
421.122 582.78 0.
695.698 619.738 0.
563.693 311.088 0.
431.687 2.4388 0.
293.976 57.2659 0.
381.983 263.184 0.
303.871 386.119 0.
332.729 453.762 0.
361.586 521.405 0.
459.612 633.314 0.
512.917 758.263 0.
566.222 883.213 0.
766.751 875.896 0.
628.923 554.101 0.
491.096 232.306 0.
494.279 177.304 0.
497.956 185.298 0.
1197.58 491.467 0.
412.452 189.922 0.
430.347 231.461 0.
409.26 295.881 0.
528.342 574.121 0.
647.424 852.361 0.
583.327 834.833 0.
438.356 497.189 0.
293.386 159.546 0.
1147.94 527.385 0.
1226.19 709.028 0.
1304.43 890.672 0.
813.757 591.056 0.
749.622 440.716 0.
605.688 267.791 0.
594.343 241.244 0.
582.999 214.697 0.
599.817 216.366 0.
614.83 250.984 0.
629.842 285.602 0.
488.669 240.024 0.
490.377 244.019 0.
492.086 248.013 0.
1203.62 582.702 0.
1223.6 629.432 0.
-359.365 -10.5115 0.
910.749 501.441 0.
893.574 461.739 0.
936.127 464.048 0.
954.835 508.202 0.
973.543 552.356 0.
852.879 570.471 0.
912.041 708.295 0.
971.203 846.118 0.
814.432 664.215 0.
695.489 386.248 0.
576.546 108.281 0.
520.68 167.546 0.
583.332 313.963 0.
569.485 423.849 0.
615.895 532.622 0.
662.305 641.395 0.
484.126 589.429 0.
434.389 472.201 0.
384.653 354.974 0.
406.213 341.221 0.
422.323 377.618 0.
438.432 414.015 0.
913.23 570.657 0.
877.303 487.559 0.
392.768 215.224 0.
406.666 356.52 0.
476.684 521.866 0.
550.585 639.622 0.
518.662 564.965 0.
486.74 490.308 0.
434.001 420.047 0.
417.205 380.171 0.
400.41 340.296 0.
45.7271 131.162 0.
10.3921 48.9235 0.
-24.9428 -33.3154 0.
560.894 142.854 0.
518.426 45.3594 0.
-70.8628 -280.976 0.
-73.627 -286.467 0.
-76.3911 -291.958 0.
356.294 -95.4906 0.
373.293 -54.9332 0.
390.291 -14.3759 0.
174.317 -144.099 0.
129.737 -247.909 0.
85.1567 -351.719 0.
277.369 -342.132 0.
238.489 -433.685 0.
-133.326 -814.806 0.
122.471 -734.026 0.
103.744 -777.928 0.
-260.362 -962.643 0.
-255.421 -951.754 0.
-250.48 -940.864 0.
-298.786 -989.896 0.
-342.426 -1093.23 0.
-386.067 -1196.57 0.
-94.7745 -1077.36 0.
-72.7095 -1027.36 0.
-50.6443 -977.366 0.
-284.078 -1229.25 0.
-379.918 -1452.77 0.
-519.436 -1665.42 0.
-453.74 -1512.6 0.
-388.044 -1359.77 0.
-293.261 -1263.21 0.
-340.856 -1373.29 0.
-388.451 -1483.38 0.
-193.118 -1337.51 0.
-91.7743 -1101.05 0.
9.56902 -864.598 0.
11.3083 -973.993 0.
-95.7105 -1223.94 0.
313.146 -1252.7 0.
-291.3 -1451.68 0.
-257.672 -1373.01 0.
-270.894 -1332.31 0.
-279.085 -1351.1 0.
-287.276 -1369.89 0.
-429.761 -1439.53 0.
-430.437 -1441.3 0.
-431.113 -1443.07 0.
418.903 -1177.55 0.
341.766 -1357.7 0.
264.629 -1537.85 0.
-62.856 -1531.7 0.
33.33 -1306.14 0.
-16.4581 -1169.79 0.
-43.6033 -1233.76 0.
-70.7485 -1297.74 0.
-35.017 -1320.18 0.
-41.7337 -1335.72 0.
-48.4503 -1351.26 0.
-255.242 -1396.16 0.
-206.711 -1284.21 0.
-158.18 -1172.26 0.
652.061 -824.483 0.
640.113 -852.998 0.
-1700.09 -1879.87 0.
12.3384 -1274.14 0.
-54.9131 -1431.15 0.
106.666 -1464.17 0.
95.5875 -1490.04 0.
84.5085 -1515.9 0.
-23.9044 -1579.22 0.
-30.1435 -1593.31 0.
-36.3826 -1607.4 0.
-73.959 -1485.05 0.
36.5966 -1225.77 0.
147.152 -966.485 0.
31.5821 -1056.14 0.
-5.86139 -1143.76 0.
-162.272 -1267.89 0.
-132.808 -1199.92 0.
-103.345 -1131.95 0.
-255.923 -1202.58 0.
-321.841 -1354.45 0.
-387.759 -1506.32 0.
-436.442 -1578.33 0.
-433.964 -1570.26 0.
-431.487 -1562.2 0.
183.869 -1210.73 0.
241.411 -1077.85 0.
-131.358 -1132.38 0.
-184.497 -1183.82 0.
-199.374 -1218.85 0.
-258.703 -1233.12 0.
-190.591 -1074.23 0.
-122.479 -915.335 0.
-243.907 -924.013 0.
-273.558 -993.684 0.
-303.208 -1063.36 0.
-424.612 -1151.54 0.
-438.095 -1184.05 0.
-451.578 -1216.55 0.
-8.12555 -1029.26 0.
-7.10754 -1027.19 0.
-418.25 -1180.3 0.
-344.093 -1007.3 0.
-269.936 -834.291 0.
60.3463 -658.283 0.
-20.7644 -848.167 0.
-101.875 -1038.05 0.
-196.911 -1080.5 0.
-140.862 -949.358 0.
-84.8133 -818.214 0.
8.74392 -786.841 0.
-9.57539 -828.961 0.
-215.666 -818.58 0.
19.8883 -746.308 0.
1.21096 -790.384 0.
-117.606 -869.354 0.
-112.551 -858.686 0.
-107.496 -848.018 0.
-254.569 -939.096 0.
-298.142 -1042.49 0.
-341.714 -1145.89 0.
-197.119 -1089.45 0.
-175.05 -1039.35 0.
-152.981 -989.24 0.
-354.47 -1228.03 0.
-450.405 -1451.37 0.
-371.724 -1570.38 0.
-306.046 -1417.53 0.
-240.368 -1264.67 0.
-120.395 -1157.82 0.
-168.033 -1267.96 0.
-215.671 -1378.1 0.
-163.505 -1293.3 0.
-62.3398 -1056.79 0.
38.8253 -820.275 0.
-114.195 -996.433 0.
-221.254 -1246.26 0.
-853.289 -1721.12 0.
-323.029 -1433.83 0.
-289.459 -1355.24 0.
-297.072 -1312 0.
-305.303 -1330.88 0.
-313.533 -1349.77 0.
-302.103 -1353.33 0.
-302.707 -1355.18 0.
-303.312 -1357.03 0.
303.922 -1195.18 0.
226.796 -1375.29 0.
149.67 -1555.4 0.
-39.774 -1490.89 0.
56.3485 -1265.19 0.
89.9138 -1092.59 0.
62.7137 -1156.42 0.
35.5137 -1220.24 0.
-2.91421 -1274.82 0.
-9.47982 -1290.43 0.
-16.0455 -1306.03 0.
-89.238 -1294.28 0.
-40.6287 -1182.28 0.
7.98083 -1070.28 0.
490.652 -861.974 0.
478.85 -890.621 0.
-1094.84 -1589.15 0.
-25.3798 -1259.37 0.
-92.3823 -1416.64 0.
146.532 -1415.36 0.
135.362 -1441.09 0.
124.193 -1466.81 0.
50.9606 -1516.08 0.
44.7381 -1530.17 0.
38.5156 -1544.25 0.
-15.4511 -1428.16 0.
95.0504 -1168.81 0.
205.552 -909.462 0.
35.6329 -1023.14 0.
-1.72744 -1110.81 0.
-147.167 -1230.1 0.
-117.815 -1162.07 0.
-88.4627 -1094.04 0.
-69.3018 -1091.11 0.
-135.011 -1243.12 0.
-200.721 -1395.12 0.
-434.647 -1545.79 0.
-432.139 -1537.68 0.
-429.631 -1529.57 0.
68.4914 -1229.42 0.
125.828 -1096.48 0.
37.433 -1028.24 0.
-27.8397 -1085.05 0.
-42.631 -1120.24 0.
-341.801 -1237.15 0.
-273.684 -1078.28 0.
-205.566 -919.414 0.
-215.317 -880.509 0.
-244.941 -950.146 0.
-274.566 -1019.78 0.
-236.378 -1039.56 0.
-250.051 -1071.99 0.
-263.725 -1104.43 0.
-224.573 -1090.67 0.
-223.618 -1088.59 0.
-246.893 -1075.23 0.
-172.76 -902.15 0.
-98.6263 -729.073 0.
-19.12 -660.807 0.
-100.165 -850.642 0.
-181.209 -1040.48 0.
-137.353 -1023.62 0.
-81.464 -892.38 0.
-25.5754 -761.139 0.
-26.7556 -770.128 0.
-45.1039 -812.594 0.
-298.407 -822.233 0.
51.5149 -444.374 0.
15.4306 -526.989 0.
-89.1271 -1042.58 0.
110.789 -574.408 0.
219.344 -319.396 0.
-640.859 -1895.82 0.
317.325 340.538 0.
587.97 972.534 0.
247.018 165.734 0.
-412.674 -1372.46 0.
172.562 -5.70904 0.
378.738 651.824 0.
102.433 6.41016 0.
-14.2023 -984.263 0.
294.911 -263.147 0.
72.1377 -783.097 0.
-52.9628 -1294.47 0.
-2.16066 -1176.44 0.
316.71 -432.927 0.
190.343 -489.346 0.
183.773 -505.217 0.
239.487 -375.838 0.
235.27 89.6119 0.
131.684 -152.455 0.
234.04 136.614 0.
165.537 -200.901 0.
-200.683 -1056.23 0.
-236.016 -1087.05 0.
395.526 385.416 0.
750.449 1212.48 0.
-446.536 -1900.99 0.
83.8837 -662.355 0.
691.062 755.566 0.
1176.83 1089.42 0.
224.209 -1132.52 0.
-306.842 -2370.92 0.
-295.161 -2101.45 0.
135.797 -1097.57 0.
160.87 -1093.84 0.
278.525 -819.925 0.
540.912 -208.319 0.
165.414 -912.454 0.
26.427 -1236.31 0.
146.987 -954.561 0.
34.1277 -1292.69 0.
100.692 -1136.06 0.
475.783 -259.545 0.
60.4456 -1531.15 0.
796.367 187.291 0.
-272.111 -1040.35 0.
360.878 -260.857 0.
2.26726 -1095.83 0.
181.804 -1377.1 0.
-69.5823 -1963.27 0.
-582.07 -3158.64 0.
469.319 -648.595 0.
1004.13 599.134 0.
863.137 269.985 0.
268.419 -846.022 0.
76.1534 -1294.31 0.
1020.58 909.746 0.
549.75 200.586 0.
-293.524 -1766.44 0.
-529.747 -2121.47 0.
852.661 1105.01 0.
557.716 417.683 0.
630.214 220.441 0.
83.3035 -1056.47 0.
225.2 -725.997 0.
-416.223 -1469.49 0.
361.707 342.892 0.
253.335 87.2689 0.
-57.2789 -1271.02 0.
-228.716 -1672.25 0.
207.299 -888.652 0.
413.052 -323.68 0.
-234.567 -1834.52 0.
-392.676 -1170.21 0.
95.0539 -30.751 0.
160.659 123.758 0.
519.402 809.923 0.
399.309 529.738 0.
57.0086 -268.875 0.
-297.775 -1509.06 0.
-30.2333 -885.138 0.
-365.83 -1668.54 0.
-222.442 -644.548 0.
132.236 182.006 0.
669.657 771.799 0.
403.712 149.772 0.
263.518 -178.894 0.
56.591 -305.172 0.
23.4592 -382.183 0.
608.979 984.329 0.
386.67 121.014 0.
175.52 -371.899 0.
1.41875 -778.331 0.
250.449 -22.704 0.
-183.245 -1032.89 0.
-161.906 -938.857 0.
-4.0469 -779.96 0.
47.1588 -659.391 0.
-47.0852 -622.213 0.
-56.8832 -643.926 0.
-66.681 -665.638 0.
7.15105 -673.757 0.
-25.7945 -749.695 0.
-58.7401 -825.634 0.
-60.2058 -826.074 0.
-45.9351 -792.291 0.
-31.6645 -758.507 0.
-103.423 -668.622 0.
-31.2193 -501.156 0.
292.839 -246.767 0.
247.062 -353.625 0.
201.285 -460.483 0.
243.902 -523.481 0.
204.656 -615.611 0.
165.411 -707.741 0.
-114.088 -900.253 0.
-152.28 -989.88 0.
-190.474 -1079.51 0.
-325.172 -1019 0.
-231.303 -800.377 0.
-119.765 -574.05 0.
82.7975 -534.145 0.
56.8382 -595.198 0.
-29.8133 -722.658 0.
-158.568 -1024.36 0.
-287.322 -1326.07 0.
-166.108 -1344.04 0.
-77.6607 -1136.76 0.
10.7872 -929.471 0.
378.817 -655.492 0.
423.05 -551.868 0.
467.284 -448.244 0.
417.842 -555.231 0.
361.71 -687.004 0.
304.423 -815.425 0.
257.87 -924.606 0.
211.317 -1033.79 0.
-36.4402 -1201.26 0.
-35.7806 -1199 0.
-35.121 -1196.75 0.
-39.3716 -1175.24 0.
-20.3384 -1129.93 0.
-1.30516 -1084.62 0.
387.044 -993.755 0.
330.707 -1123.44 0.
-895.951 -1754.7 0.
151.084 -1118.62 0.
248.415 -889.661 0.
265.5 -770.503 0.
194.222 -936.686 0.
122.943 -1102.87 0.
244.514 -1183.63 0.
174.958 -1345.62 0.
105.402 -1507.61 0.
-30.7851 -1468.69 0.
77.9199 -1214.24 0.
186.625 -959.778 0.
84.9418 -949.825 0.
102.898 -907.167 0.
49.7168 -906.722 0.
27.3734 -958.196 0.
5.03001 -1009.67 0.
7.09297 -1013.28 0.
42.7822 -930.521 0.
78.4712 -847.759 0.
-149.005 -954.411 0.
-184.92 -1040.55 0.
-220.836 -1126.7 0.
103.644 -783.925 0.
248.96 -445.579 0.
426.145 -100.667 0.
294.529 -346.889 0.
194.734 -579.475 0.
-145.816 -894.949 0.
-196.109 -1011.47 0.
-246.402 -1127.98 0.
-150.197 -1014.07 0.
-7.9507 -681.647 0.
134.295 -349.219 0.
175.67 -191.313 0.
219.498 -89.3931 0.
263.325 12.5263 0.
5.18235 -345.539 0.
-143.137 -691.806 0.
-146.642 -960.519 0.
-220.719 -1134.11 0.
-294.796 -1307.7 0.
-212.213 -1292.61 0.
-106.579 -1045.44 0.
-0.944684 -798.263 0.
-182.233 -789.563 0.
-180.962 -787 0.
-179.692 -784.436 0.
-92.2319 -887.137 0.
-184.269 -1101.22 0.
82.9336 -802.681 0.
120.586 -695.192 0.
171.885 -574.844 0.
-199.672 -655.951 0.
-209.326 -677.922 0.
-218.981 -699.894 0.
176.13 -569.438 0.
143.106 -645.329 0.
110.082 -721.219 0.
101.098 -725.423 0.
115.522 -691.793 0.
129.946 -658.163 0.
16.0313 -585.64 0.
88.2871 -418.205 0.
298.806 -211.987 0.
253.12 -318.9 0.
207.433 -425.812 0.
219.293 -502.749 0.
180.103 -594.927 0.
140.912 -687.106 0.
-254.766 -929.195 0.
-293.065 -1018.76 0.
-331.364 -1108.32 0.
-413.125 -1025.25 0.
-319.244 -806.674 0.
-202.863 -578.312 0.
173.471 -463.874 0.
147.45 -524.872 0.
47.3244 -658.352 0.
-81.5305 -960.076 0.
-210.386 -1261.8 0.
-97.9297 -1283.45 0.
-9.59149 -1076.11 0.
78.7468 -868.776 0.
333.762 -643.288 0.
378.109 -539.784 0.
422.456 -436.28 0.
496.245 -490.253 0.
439.95 -621.939 0.
350.387 -763.836 0.
303.863 -873.18 0.
257.339 -982.525 0.
-115.4 -1204.02 0.
-114.924 -1201.62 0.
-114.449 -1199.22 0.
-174.584 -1201.67 0.
-155.558 -1156.31 0.
-136.531 -1110.96 0.
522.216 -904.667 0.
465.73 -1034.21 0.
-55.1433 -1362.58 0.
359.962 -997.575 0.
457.384 -768.665 0.
66.4701 -824.044 0.
-4.79198 -990.312 0.
-76.054 -1156.58 0.
266.558 -1142.85 0.
196.864 -1304.79 0.
127.171 -1466.73 0.
-54.0783 -1447.69 0.
54.2881 -1193.02 0.
162.654 -938.348 0.
136.017 -897.079 0.
154.054 -854.548 0.
138.621 -835.919 0.
116.646 -887.535 0.
94.6704 -939.152 0.
-91.6898 -1024.24 0.
-56.1794 -941.305 0.
-20.6692 -858.367 0.
-75.3178 -891.601 0.
-111.441 -977.485 0.
-147.563 -1063.37 0.
61.1779 -771.362 0.
206.369 -432.842 0.
392.305 -84.045 0.
177.288 -366.139 0.
77.6207 -598.777 0.
29.0145 -788.384 0.
-21.1196 -905.079 0.
-71.2538 -1021.77 0.
3.18777 -916.95 0.
145.46 -584.535 0.
287.733 -252.119 0.
80.7184 -199.8 0.
124.548 -98.0366 0.
168.378 3.7263 0.
143.604 -254.652 0.
-5.11394 -600.706 0.
-221.363 -961.41 0.
-295.551 -1134.8 0.
-369.74 -1308.18 0.
-7.18738 -1174.05 0.
98.3824 -926.753 0.
203.952 -679.456 0.
-384.602 -845.039 0.
-383.342 -842.611 0.
-382.081 -840.183 0.
-41.5098 -833.638 0.
-133.303 -1048.27 0.
117.326 -705.416 0.
181.53 -656.671 0.
187.875 -642.109 0.
-295.676 -840.484 0.
-300.062 -851.09 0.
-304.448 -861.697 0.
131.103 -704.349 0.
97.4639 -782.635 0.
63.8244 -860.921 0.
68.4005 -890.447 0.
62.0676 -904.327 0.
55.7346 -918.208 0.
-157.727 -1106.36 0.
-217.293 -1244.72 0.
-207.47 -1341.7 0.
-182.316 -1282.12 0.
-157.162 -1222.54 0.
-98.7121 -1154.45 0.
-81.369 -1114.11 0.
-64.026 -1073.76 0.
-385.669 -1188.24 0.
-377.011 -1168.85 0.
-368.353 -1149.45 0.
-440.133 -1139.81 0.
-415.776 -1082.01 0.
-235.427 -957.287 0.
72.6869 -885.985 0.
38.0934 -965.431 0.
-125.056 -1076.26 0.
-102.012 -1020.79 0.
-78.9682 -965.32 0.
113.536 -902.797 0.
59.7394 -1030.88 0.
5.94242 -1158.97 0.
4.17233 -1222.15 0.
-16.9208 -1270.9 0.
-38.0141 -1319.65 0.
111.812 -1276.1 0.
102.101 -1298.42 0.
156.793 -1283.81 0.
192.576 -1199.08 0.
228.358 -1114.35 0.
-116.297 -1190.34 0.
-78.0137 -1101.77 0.
-39.7303 -1013.19 0.
-107.409 -1052.01 0.
-147.198 -1146.11 0.
-186.988 -1240.21 0.
423.514 -1004.73 0.
417.481 -1021.03 0.
262.574 -1100.64 0.
393.7 -1112.85 0.
358.311 -1196.48 0.
-204.499 -1454.78 0.
-127.205 -1274.83 0.
-49.912 -1094.88 0.
311.904 -898.258 0.
266.145 -1006.5 0.
220.387 -1114.75 0.
-7.33916 -1254.18 0.
-17.816 -1279.31 0.
-28.2928 -1304.43 0.
-11.6675 -1260.45 0.
11.2809 -1207.72 0.
31.8314 -1166.9 0.
4.88698 -1228.83 0.
-22.0576 -1290.75 0.
-250.02 -1368.02 0.
-171.746 -1185.92 0.
-93.4714 -1003.82 0.
-69.9813 -851.977 0.
-0.401455 -688.903 0.
69.1784 -525.829 0.
197.736 -587.917 0.
103.676 -809.041 0.
52.2117 -1012.54 0.
-175.839 -1054.96 0.
-146.806 -987.219 0.
-20.9002 -904.648 0.
-59.1904 -994.281 0.
-97.4806 -1083.91 0.
-72.0918 -1148.13 0.
-112.482 -1243.76 0.
-152.873 -1339.38 0.
-460.001 -1464.73 0.
-436.793 -1411.8 0.
-413.585 -1358.87 0.
-164.697 -1135.15 0.
-98.7062 -982.196 0.
-241.667 -942.78 0.
-264.013 -995.403 0.
-286.36 -1048.03 0.
132.685 -858.147 0.
187.643 -730.913 0.
242.602 -603.68 0.
-378.19 -814.902 0.
-368.651 -792.59 0.
-359.111 -770.278 0.
149.071 -545.016 0.
153.306 -534.106 0.
-110.463 -770.95 0.
197.499 -617.504 0.
203.679 -602.778 0.
-156.294 -750.189 0.
-161.032 -760.452 0.
-165.77 -770.715 0.
31.9437 -715.638 0.
-1.79604 -793.834 0.
-35.5357 -872.03 0.
36.6019 -872.455 0.
30.3019 -886.39 0.
24.0019 -900.325 0.
-120.166 -1058.93 0.
-179.741 -1197.36 0.
-236.521 -1322.45 0.
-211.238 -1262.96 0.
-185.956 -1203.48 0.
-134.661 -1138.32 0.
-117.262 -1098.02 0.
-99.8631 -1057.73 0.
-265.001 -1104.24 0.
-256.451 -1084.7 0.
-247.901 -1065.15 0.
-270.511 -1036.97 0.
-246.242 -979.099 0.
-84.5567 -862.255 0.
208.557 -796.487 0.
173.866 -875.786 0.
-156.51 -1057.68 0.
-133.411 -1002.33 0.
-110.312 -946.983 0.
195.163 -837.531 0.
141.014 -965.319 0.
86.8664 -1093.11 0.
-115.42 -1242.05 0.
-136.567 -1290.73 0.
-157.714 -1339.42 0.
-46.7496 -1312.64 0.
-56.5313 -1334.85 0.
211.406 -1228.86 0.
247.12 -1144.2 0.
282.833 -1059.55 0.
-19.1175 -1117.7 0.
19.033 -1029.06 0.
57.1836 -940.415 0.
65.6491 -946.543 0.
25.6412 -1040.42 0.
-14.367 -1134.3 0.
195.276 -1071.44 0.
188.897 -1087.52 0.
-1560.69 -1850.68 0.
424.151 -1068.24 0.
388.577 -1151.7 0.
24.0534 -1326.22 0.
101.188 -1146.04 0.
178.323 -965.862 0.
178.545 -923.798 0.
132.658 -1032.12 0.
86.7712 -1140.44 0.
-41.0034 -1237.82 0.
-51.8041 -1262.68 0.
-62.6048 -1287.54 0.
-8.50662 -1228.04 0.
14.5127 -1175.39 0.
54.6158 -1125.54 0.
27.6678 -1187.29 0.
0.719611 -1249.05 0.
-149.24 -1293.9 0.
-70.9538 -1111.76 0.
7.33203 -929.608 0.
-144.17 -852.79 0.
-74.5176 -689.877 0.
-4.86513 -526.965 0.
414.301 -463.393 0.
320.288 -684.694 0.
-473.659 -1206.22 0.
-165.531 -1018.68 0.
-136.621 -950.8 0.
-163.622 -934.887 0.
-201.99 -1024.36 0.
-240.357 -1113.84 0.
-129.729 -1141.49 0.
-170.167 -1237.16 0.
-210.605 -1332.82 0.
-328.706 -1376.87 0.
-305.685 -1323.8 0.
-282.664 -1270.73 0.
-94.6679 -1074.22 0.
-28.9256 -920.986 0.
-205.998 -896.295 0.
-228.298 -949.078 0.
-250.598 -1001.86 0.
-22.384 -893.111 0.
32.3693 -765.795 0.
87.1226 -638.48 0.
-167.485 -693.358 0.
-157.904 -671.2 0.
-148.322 -649.041 0.
293.465 -451.827 0.
297.883 -441.244 0.
-269.404 -678.768 0.
188.721 -636.411 0.
752.848 679.193 0.
265.545 5.65612 0.
72.8711 -444.261 0.
217.411 -107.207 0.
430.151 432.752 0.
234.241 -25.135 0.
224.755 -48.4965 0.
606.808 551.706 0.
573.278 473.024 0.
937.847 1323.35 0.
578.021 528.766 0.
171.374 -421.156 0.
601.243 722.261 0.
662.746 863.588 0.
546.998 591.324 0.
454.419 335.221 0.
412.828 237.946 0.
484.45 404.762 0.
617.573 757.469 0.
531.81 557.96 0.
99.2133 -450.784 0.
302.818 12.1474 0.
732.829 1014.59 0.
222.91 628.378 0.
1094.51 1042.84 0.
687.189 91.4721 0.
285.232 65.2613 0.
405.583 344.917 0.
543.521 665.637 0.
847.014 563.241 0.
571.707 -79.474 0.
554.533 -119.919 0.
553.268 573.252 0.
590.14 660.136 0.
-47.7593 -827.38 0.
728.712 829.207 0.
391.708 41.5207 0.
859.857 214 0.
761.899 -15.9137 0.
942.414 403.877 0.
776.148 585.152 0.
750.797 525.951 0.
620.932 222.508 0.
475.356 -287.614 0.
813.904 501.812 0.
798.175 464.537 0.
750.808 685.658 0.
858.786 936.929 0.
196.408 240.854 0.
968.338 178.969 0.
488.791 -940.501 0.
712.431 -122.667 0.
942.417 413.97 0.
821.94 133.392 0.
596.18 335.4 0.
380.984 -168.035 0.
900.753 1043.44 0.
-10.0012 -1069.69 0.
415.358 -77.3958 0.
559.056 257.689 0.
569.894 145.765 0.
669.976 382.495 0.
815.534 638.655 0.
785.575 569.132 0.
881.92 794.433 0.
370.761 -241.936 0.
971.888 1161.27 0.
1055.98 1357.89 0.
613.902 1089.73 0.
434.615 670.911 0.
104.054 -101.042 0.
1002.37 526.851 0.
1376.03 1398.28 0.
-71.5575 662.486 0.
452.561 432.126 0.
875.409 1419.78 0.
404.662 693.96 0.
249.781 332.119 0.
268.133 374.626 0.
577.365 647.212 0.
568.178 626.775 0.
611.691 729.405 0.
279.953 -174.136 0.
242.692 -260.249 0.
827.623 1105.11 0.
650.19 561.327 0.
504.583 222.685 0.
-4.90512 -464.716 0.
466.437 635.537 0.
579.58 899.873 0.
451.246 535.797 0.
360.524 324.602 0.
305.53 196.256 0.
-273.326 -1306.45 0.
185.157 -236.052 0.
-246.596 -1242.68 0.
380.342 -500.368 0.
265.984 -766.543 0.
-117.021 -867.478 0.
49.5666 -855.652 0.
22.7087 -918.674 0.
-126.666 -1010.26 0.
-99.4445 -946.299 0.
-72.2233 -882.335 0.
-171.825 -959.36 0.
-250.441 -1143.27 0.
-329.057 -1327.18 0.
33.4234 -1153.67 0.
91.9796 -1016.75 0.
150.536 -879.835 0.
-108.117 -912.689 0.
-70.5199 -824.919 0.
84.6172 -704.347 0.
11.9415 -874.741 0.
-60.7341 -1045.14 0.
-192.066 -1159.38 0.
-127.109 -1008.37 0.
-62.1526 -857.355 0.
-135.311 -859.253 0.
-161.087 -919.155 0.
-186.863 -979.056 0.
-298.428 -1069.9 0.
-320.559 -1123.01 0.
-70.494 -1059.62 0.
241.821 -1095.5 0.
153.192 -1302.7 0.
-377.913 -1631.86 0.
-301.144 -1452.61 0.
-224.376 -1273.36 0.
141.235 -984.24 0.
200.492 -845.387 0.
259.748 -706.533 0.
57.3962 -877.345 0.
-41.0166 -1107.08 0.
-139.429 -1336.81 0.
-290.651 -1445.63 0.
-302.207 -1473.22 0.
177.346 -1289.42 0.
173.875 -1298.22 0.
170.405 -1307.02 0.
-23.7742 -1366.06 0.
22.0734 -1258.56 0.
67.9209 -1151.05 0.
13.8004 -1220.55 0.
-67.2272 -1410.96 0.
-148.255 -1601.37 0.
-87.8632 -1521.72 0.
-26.9644 -1380.43 0.
142.9 -1192.2 0.
354.834 -1172.14 0.
317.727 -1258.94 0.
196.638 -1350.89 0.
230.95 -1269.3 0.
265.262 -1187.7 0.
-237.008 -1291.87 0.
-146.796 -1082.65 0.
-56.5838 -873.427 0.
140.32 -841.926 0.
54.9672 -1042.58 0.
-30.3857 -1243.24 0.
19.8765 -1148.8 0.
70.8441 -1028.62 0.
145.578 -912.009 0.
139.043 -926.854 0.
132.508 -941.699 0.
85.178 -977.919 0.
70.8846 -1009.95 0.
56.5912 -1041.98 0.
-309.277 -1266.86 0.
-363.508 -1391.86 0.
-417.739 -1516.85 0.
159.296 -1186.81 0.
229.711 -1022.58 0.
2.68447 -986.418 0.
-109.787 -1070.52 0.
-128.076 -1114.22 0.
-341.342 -1202.34 0.
-270.896 -1038.47 0.
-200.449 -874.603 0.
-177.254 -818.765 0.
-207.424 -888.133 0.
-237.595 -957.5 0.
-100.73 -1002.89 0.
-166.977 -1156.36 0.
-233.224 -1309.82 0.
-35.0472 -1159.68 0.
8.07369 -1058.69 0.
-179.914 -1050.48 0.
-118.24 -906.949 0.
-56.5674 -763.42 0.
-51.3531 -724.587 0.
-100.324 -839.444 0.
-149.295 -954.302 0.
-130.659 -950.151 0.
-98.6894 -875.176 0.
-66.7203 -800.201 0.
158.643 -665.888 0.
175.005 -627.946 0.
185.245 -706.493 0.
10.9417 -840.547 0.
-15.8264 -903.648 0.
-57.4281 -949.632 0.
-30.4651 -885.324 0.
-3.50201 -821.017 0.
-161.898 -923.619 0.
-240.43 -1107.46 0.
-318.962 -1291.3 0.
242.089 -1033.25 0.
300.669 -896.252 0.
359.248 -759.253 0.
-175.928 -909.746 0.
-138.323 -822.121 0.
216.138 -616.958 0.
143.32 -787.359 0.
70.5028 -957.761 0.
-182.226 -1123.54 0.
-117.198 -972.505 0.
-52.1699 -821.471 0.
-191.599 -851.445 0.
-217.016 -911.663 0.
-242.433 -971.881 0.
-449.604 -1103.4 0.
-471.74 -1156.49 0.
-90.5741 -1036.95 0.
336.836 -1023.45 0.
248.244 -1230.58 0.
-282.485 -1559.65 0.
-205.861 -1380.21 0.
-129.236 -1200.78 0.
104.774 -968.684 0.
163.965 -829.85 0.
223.156 -691.017 0.
228.09 -772.634 0.
129.738 -1002.48 0.
31.385 -1232.33 0.
-327.735 -1430.37 0.
-339.298 -1457.94 0.
146.525 -1271.01 0.
143.197 -1279.9 0.
139.869 -1288.79 0.
37.2725 -1308.68 0.
83.0945 -1201.13 0.
128.916 -1093.58 0.
-46.4107 -1214.62 0.
-127.247 -1405.14 0.
-208.083 -1595.67 0.
61.4673 -1426.16 0.
122.418 -1285 0.
-1965.47 -2064.12 0.
328.764 -1151.8 0.
291.753 -1238.78 0.
225.004 -1307.54 0.
259.242 -1225.98 0.
293.479 -1144.41 0.
-385.925 -1323.3 0.
-295.583 -1114.15 0.
-205.24 -905.01 0.
221.173 -776.509 0.
135.802 -977.143 0.
50.4302 -1177.78 0.
43.2712 -1107.13 0.
94.5224 -987.175 0.
157.262 -874.822 0.
150.593 -889.512 0.
143.924 -904.202 0.
137.127 -924.046 0.
123.086 -956.198 0.
109.045 -988.351 0.
-188.695 -1184.14 0.
-242.934 -1309.13 0.
-297.172 -1434.12 0.
42.6794 -1205.34 0.
113.027 -1041.06 0.
402.28 -784.456 0.
5.62373 -990.265 0.
-12.626 -1033.98 0.
-240.946 -1127.94 0.
-170.536 -963.898 0.
-100.126 -799.855 0.
-315.595 -846.601 0.
-345.806 -915.878 0.
-376.018 -985.156 0.
-115.216 -977.157 0.
-181.606 -1130.49 0.
-247.996 -1283.81 0.
46.1162 -1094.37 0.
89.104 -993.147 0.
-69.846 -971.782 0.
-8.00486 -828.376 0.
53.8364 -684.97 0.
11.5322 -665.996 0.
-37.2585 -780.931 0.
-86.0492 -895.866 0.
-126.517 -917.039 0.
-94.4682 -842.168 0.
-62.4198 -767.296 0.
-9.68339 -706.974 0.
6.94613 -669.388 0.
357.81 -322.629 0.
79.6376 -595.543 0.
6.26231 -765.98 0.
-59.2548 -898.08 0.
-39.3258 -852.423 0.
-19.3965 -806.766 0.
-93.8183 -782.188 0.
-52.5948 -685.22 0.
-11.3713 -588.251 0.
555.551 -355.587 0.
525.027 -427.068 0.
494.502 -498.549 0.
-177.653 -891.643 0.
-236.834 -1029.48 0.
52.9965 -1006.71 0.
71.794 -961.738 0.
90.5916 -916.761 0.
-166.419 -1020.32 0.
-202.133 -1102.72 0.
-237.847 -1185.12 0.
-294.375 -1154.39 0.
-209.278 -956.047 0.
-124.181 -757.707 0.
-331.816 -882.737 0.
-381.697 -997.949 0.
-113.596 -976.898 0.
433.547 -740.011 0.
432.221 -742.793 0.
18.5022 -921.099 0.
28.3851 -898.199 0.
38.268 -875.299 0.
184.969 -811.888 0.
171.51 -844.84 0.
158.051 -877.792 0.
260.48 -840.462 0.
265.38 -829.38 0.
270.28 -818.298 0.
-52.6628 -903.221 0.
-23.5351 -834.944 0.
367.775 -623.358 0.
337.206 -694.72 0.
306.637 -766.082 0.
222.248 -871.352 0.
173.522 -985.327 0.
124.797 -1099.3 0.
-17.5315 -1162.96 0.
20.803 -1073.55 0.
59.1375 -984.129 0.
308.566 -859.138 0.
310.896 -852.846 0.
-2240.56 -1942.37 0.
397.052 -874.801 0.
364.35 -951.359 0.
245.39 -1063.4 0.
212.757 -1140.31 0.
180.123 -1217.21 0.
-355.689 -1367.8 0.
-223.805 -1058.15 0.
-91.9216 -748.502 0.
385.468 -506.023 0.
348.812 -589.612 0.
312.157 -673.201 0.
225.076 -786.172 0.
185.683 -877.741 0.
151.789 -963.013 0.
126.714 -1022.28 0.
101.639 -1081.55 0.
-55.1036 -1187.03 0.
-67.2642 -1215.32 0.
-79.4249 -1243.6 0.
-116.329 -1158.97 0.
-16.4933 -926.824 0.
83.3429 -694.675 0.
167.655 -763.535 0.
72.4406 -987.103 0.
240.375 -1096.81 0.
11.921 -951.945 0.
139.257 -654.621 0.
128.8 -500.151 0.
59.0651 -660.669 0.
-10.67 -821.186 0.
-419.68 -1035.91 0.
-383.231 -951.514 0.
-346.782 -867.114 0.
-38.3182 -730.365 0.
-52.8607 -765.383 0.
-67.4033 -800.401 0.
315.14 -629.563 0.
321.462 -616.201 0.
32.857 -714.557 0.
84.7064 -594.176 0.
136.556 -473.795 0.
77.3016 -451.569 0.
56.3364 -500.984 0.
35.3712 -550.398 0.
-27.0477 -630.326 0.
-60.8264 -708.925 0.
-94.6053 -787.525 0.
-86.0225 -795.891 0.
-87.3797 -798.944 0.
108.731 -399.613 0.
63.6583 -571.119 0.
-9.9233 -741.488 0.
-150.068 -905.967 0.
-130.391 -860.078 0.
-110.713 -814.19 0.
-52.5567 -733.218 0.
-11.2842 -636.223 0.
29.9882 -539.228 0.
436.854 -375.45 0.
406.365 -446.9 0.
375.877 -518.349 0.
-98.3045 -826.506 0.
-157.335 -964.314 0.
-34.2019 -1011.77 0.
-15.2844 -966.893 0.
3.63309 -922.013 0.
-215.709 -1010.32 0.
-251.437 -1092.56 0.
-287.165 -1174.81 0.
-142.727 -1057.61 0.
-57.55 -859.412 0.
27.6274 -661.213 0.
-95.0879 -749.7 0.
-144.882 -865.048 0.
-501.774 -1112.15 0.
313.743 -759.665 0.
312.376 -762.355 0.
22.0055 -888.733 0.
31.7253 -865.655 0.
41.4452 -842.577 0.
286.75 -737.255 0.
272.958 -769.999 0.
259.166 -802.742 0.
273.645 -803.565 0.
278.493 -792.468 0.
283.34 -781.371 0.
133.27 -792.221 0.
162.553 -724.004 0.
291.006 -625.404 0.
260.261 -696.569 0.
229.516 -767.733 0.
188.314 -854.826 0.
139.444 -968.793 0.
90.574 -1082.76 0.
90.2448 -1085.2 0.
128.627 -996.069 0.
167.01 -906.935 0.
200.758 -873.797 0.
203.264 -867.785 0.
-370.791 -1109.03 0.
332.069 -870.752 0.
299.523 -947.478 0.
46.3801 -1118.3 0.
13.5287 -1194.95 0.
-19.3229 -1271.6 0.
-60.5568 -1209.4 0.
71.4006 -899.785 0.
203.358 -590.168 0.
453.238 -446.138 0.
416.579 -529.488 0.
379.919 -612.839 0.
345.287 -702.573 0.
305.91 -794.108 0.
254.24 -887.643 0.
229.17 -946.839 0.
204.099 -1006.03 0.
-262.534 -1244.4 0.
-274.624 -1272.6 0.
-286.715 -1300.8 0.
-53.7453 -1101.32 0.
46.207 -869.24 0.
146.159 -637.162 0.
158.779 -736.043 0.
63.7083 -959.716 0.
161.866 -1098.78 0.
-89.3146 -963.924 0.
38.0439 -666.783 0.
295.096 -397.624 0.
225.671 -558.27 0.
156.245 -718.916 0.
-304.99 -955.237 0.
-268.565 -870.793 0.
-232.141 -786.349 0.
-57.9273 -707.001 0.
-72.6027 -741.769 0.
-87.2782 -776.537 0.
436.854 -546.516 0.
442.993 -532.777 0.
-64.7454 -725.863 0.
-12.7396 -605.435 0.
39.2662 -485.007 0.
-20.3941 -461.589 0.
-41.1488 -511.163 0.
-61.9034 -560.736 0.
-58.5129 -612.603 0.
-92.3621 -691.1 0.
-126.211 -769.597 0.
26.2303 -716.949 0.
24.8452 -719.977 0.
379.331 744.654 0.
204.356 -179.67 0.
131.553 -352.514 0.
247.06 224.886 0.
178.62 63.9887 0.
368.691 506.467 0.
216.293 -152.306 0.
317.232 81.3888 0.
554.872 633.761 0.
259.947 -528.571 0.
514.222 64.3324 0.
700.677 499.207 0.
323.688 37.4521 0.
470.719 381.906 0.
653.473 789.265 0.
374.203 138.059 0.
490.421 409.904 0.
234.623 163.983 0.
178.71 34.3741 0.
213.64 116.778 0.
512.943 216.394 0.
424.223 8.94349 0.
505.377 197.852 0.
372.954 -75.1585 0.
680.889 643.134 0.
314.171 381.146 0.
603.583 174.454 0.
810.913 656.793 0.
489.406 225.164 0.
617.689 523.176 0.
709.024 735.128 0.
864.843 454.662 0.
659.323 -25.2461 0.
815.029 337.652 0.
1045.83 1003.12 0.
828.045 495.412 0.
672.878 133.632 0.
663.551 124.472 0.
820.202 490.126 0.
412.814 -166.909 0.
659.66 409.377 0.
552.834 160.522 0.
642.846 305.279 0.
559.538 109.657 0.
821.926 720.706 0.
1072.07 1033.65 0.
796.944 390.571 0.
585.06 -104.869 0.
437.083 -82.7227 0.
788.383 736.724 0.
-960.841 -77.4143 0.
829.546 439.382 0.
773.461 308.205 0.
429.726 188.012 0.
534.099 430.377 0.
416.895 156.019 0.
789.121 244.947 0.
1140.7 1064.07 0.
805.759 281.664 0.
715.518 77.1128 0.
931.987 581.38 0.
836.09 356.691 0.
495.387 -549.535 0.
478.258 -589.312 0.
1002.84 696.004 0.
1063.02 836.586 0.
886.139 424.15 0.
-229.569 -744.286 0.
-59.5575 -346.33 0.
225.868 320.942 0.
544.623 208.256 0.
502.997 111.343 0.
451.64 -8.31965 0.
426.529 -75.2756 0.
384.967 -171.421 0.
454.954 -114.657 0.
231.653 7.86043 0.
461.445 545.24 0.
697.23 261.778 0.
645.247 140.45 0.
790.282 478.687 0.
220.972 79.885 0.
228.906 99.0259 0.
206.591 47.7597 0.
250.973 82.171 0.
114.375 -234.933 0.
304.358 209.886 0.
658.918 -225.215 0.
806.291 120.727 0.
542.654 903.689 0.
70.845 -193.747 0.
134.454 -42.2151 0.
698.047 1418.88 0.
98.8728 23.4569 0.
149.639 144.705 0.
285.937 281.471 0.
48.1734 -273.73 0.
126.341 -91.2142 0.
458.08 104.876 0.
529.105 270.227 0.
-465.309 -1084.26 0.
-261.945 -880.625 0.
-194.897 -726.803 0.
-49.8083 -593.223 0.
-135.306 -793.179 0.
-220.804 -993.136 0.
-83.5424 -992.568 0.
-35.317 -880.959 0.
12.9086 -769.349 0.
43.4138 -730.093 0.
37.7834 -743.59 0.
32.153 -757.088 0.
5.3603 -768.085 0.
7.08448 -763.859 0.
60.0225 -733.649 0.
75.4777 -697.649 0.
90.9328 -661.649 0.
-53.2005 -716.653 0.
-78.2728 -775.288 0.
-103.345 -833.923 0.
115.087 -859.256 0.
21.0892 -1079.4 0.
-72.9091 -1299.54 0.
-257.802 -1327.12 0.
-193.584 -1177.68 0.
45.2415 -953.364 0.
121.534 -895.942 0.
136.229 -861.695 0.
117.127 -859.321 0.
80.6437 -944.983 0.
44.1606 -1030.65 0.
29.7932 -1070.54 0.
35.3711 -1057.8 0.
40.9488 -1045.06 0.
273.406 -860.524 0.
337.08 -711.714 0.
400.754 -562.904 0.
181.748 -710.487 0.
142.988 -799.968 0.
256.25 -808.972 0.
296.563 -715.68 0.
336.876 -622.388 0.
82.3088 -752.426 0.
-31.3456 -1017.84 0.
-145 -1283.26 0.
131.351 -1195.94 0.
192.776 -1053 0.
254.2 -910.062 0.
195.404 -894.174 0.
205.8 -870.444 0.
-1652.74 -1648.07 0.
363.601 -776.689 0.
366.998 -768.138 0.
-31.0451 -945.492 0.
-58.991 -1012.12 0.
-86.9371 -1078.75 0.
269.279 -1056.27 0.
155.246 -1321.63 0.
41.2117 -1586.98 0.
-46.0871 -1613.43 0.
17.9778 -1465.21 0.
82.0428 -1316.98 0.
-1.43519 -1341.01 0.
-2.42853 -1343.92 0.
123.208 -1274.47 0.
197.443 -1100.31 0.
271.678 -926.146 0.
-205.421 -1035.86 0.
-204.846 -1033.76 0.
-204.271 -1031.66 0.
-52.7152 -1019.39 0.
-99.4599 -1127.18 0.
-146.205 -1234.96 0.
-15.118 -1150.23 0.
15.0859 -1078.42 0.
58.7866 -999.486 0.
-306.41 -1229.39 0.
-345.651 -1319.61 0.
5.59241 -1217.41 0.
30.9335 -1159.46 0.
56.2747 -1101.52 0.
-250.321 -1148.35 0.
-182.421 -989.023 0.
-114.521 -829.697 0.
-9.47598 -777.219 0.
-34.9262 -835.482 0.
-60.3764 -893.746 0.
144.724 -751.585 0.
177.155 -674.84 0.
-94.1219 -737.816 0.
-96.4838 -740.411 0.
-98.8455 -743.007 0.
-70.7445 -783.305 0.
-150.274 -967.364 0.
-229.804 -1151.42 0.
-252.896 -1187.01 0.
-217.104 -1103.56 0.
-181.312 -1020.11 0.
-79.0498 -896.226 0.
-34.8612 -793.737 0.
-521.953 -1074.72 0.
-448.467 -929.071 0.
-381.394 -775.392 0.
32.7912 -526.023 0.
-52.9405 -725.846 0.
-138.672 -925.668 0.
5.5313 -923.325 0.
53.5673 -811.535 0.
101.603 -699.744 0.
-99.811 -760.95 0.
-105.635 -774.302 0.
-111.459 -787.653 0.
54.3586 -715.458 0.
56.2464 -711.231 0.
149.651 -663.595 0.
165.144 -627.582 0.
180.637 -591.569 0.
74.6129 -629.849 0.
49.7755 -688.551 0.
24.9381 -747.253 0.
208.942 -787.714 0.
115.135 -1008.13 0.
21.3274 -1228.55 0.
-356.948 -1337.51 0.
-292.755 -1188.2 0.
733.112 -626.848 0.
109.754 -869.316 0.
124.148 -834.936 0.
248.036 -772.777 0.
211.364 -858.287 0.
174.692 -943.798 0.
-177.703 -1128.36 0.
-172.072 -1115.73 0.
-166.442 -1103.1 0.
323.421 -805.937 0.
387.165 -657.306 0.
450.909 -508.675 0.
45.8347 -738.212 0.
6.91395 -827.409 0.
417.844 -709.079 0.
458.392 -615.822 0.
498.94 -522.564 0.
-33.3143 -770.608 0.
-147.023 -1035.95 0.
-260.731 -1301.28 0.
165.617 -1149.84 0.
227.133 -1006.96 0.
288.648 -864.079 0.
343.464 -799.516 0.
353.84 -775.698 0.
187.163 -827.571 0.
447.402 -708.918 0.
451.056 -700.438 0.
17.7961 -893.396 0.
-10.1796 -960.157 0.
-38.1552 -1026.92 0.
330.948 -997.661 0.
217.036 -1263.22 0.
103.125 -1528.78 0.
-74.8835 -1594.78 0.
-11.0931 -1446.4 0.
52.6974 -1298.02 0.
-178.427 -1385.31 0.
-179.595 -1388.12 0.
97.75 -1254 0.
171.999 -1079.75 0.
246.247 -905.498 0.
-6.40644 -919.086 0.
-5.9037 -916.921 0.
-5.40085 -914.755 0.
-123.283 -1018.86 0.
-170.058 -1126.52 0.
-216.834 -1234.18 0.
23.9419 -1102.3 0.
54.4352 -1030.67 0.
99.2964 -950.271 0.
-301.033 -1195.53 0.
-340.121 -1285.96 0.
-47.7718 -1209.17 0.
-22.358 -1151.3 0.
3.0559 -1093.44 0.
-166.541 -1081.17 0.
-98.5435 -921.897 0.
-30.5457 -762.626 0.
139.163 -681.485 0.
113.879 -739.768 0.
88.5957 -798.051 0.
-190.995 -864.344 0.
-158.549 -787.529 0.
3.41137 -664.943 0.
1.21479 -667.469 0.
-0.981571 -669.994 0.
161.942 -651.957 0.
82.4943 -836.069 0.
3.04635 -1020.18 0.
-125.775 -1101.33 0.
-89.9582 -1017.94 0.
-54.1411 -934.546 0.
-194.795 -914.4 0.
-150.583 -812.155 0.
-322.46 -340.246 0.
-322.98 -512.562 0.
-419.131 -734.368 0.
-74.8329 -729.831 0.
-66.926 -711.855 0.
-59.0188 -693.879 0.
128.16 -589.936 0.
146.205 -547.393 0.
164.25 -504.85 0.
-39.4241 -589.557 0.
-47.0601 -607.372 0.
-54.6963 -625.187 0.
88.709 -621.177 0.
53.7783 -701.208 0.
120.423 -727.383 0.
137.32 -686.12 0.
154.216 -644.857 0.
111.503 -675.885 0.
52.7013 -812.118 0.
-6.09987 -948.35 0.
192.576 -887.344 0.
217.609 -827 0.
242.642 -766.656 0.
-173.401 -917.896 0.
-160.058 -885.707 0.
725.166 -479.786 0.
110.234 -769.422 0.
92.6424 -810.786 0.
263.156 -768.026 0.
260.249 -775.318 0.
257.343 -782.61 0.
-163.654 -982.773 0.
-185.269 -1032.63 0.
-206.884 -1082.49 0.
249.663 -884.284 0.
265.476 -847.935 0.
281.288 -811.587 0.
-70.6875 -1033.62 0.
-116.617 -1142.09 0.
308.955 -1035.6 0.
317.349 -1015.37 0.
325.744 -995.135 0.
-190.303 -1186.09 0.
-160.176 -1115.83 0.
-130.05 -1045.56 0.
255.954 -877.108 0.
234.621 -926.338 0.
213.287 -975.567 0.
354.1 -952.264 0.
336.502 -994.203 0.
-326.193 -1311.93 0.
419.864 -869.043 0.
484.283 -718.197 0.
101.879 -801.913 0.
59.3537 -900.929 0.
16.8286 -999.944 0.
318.142 -977.471 0.
246.772 -1144.33 0.
175.401 -1311.19 0.
53.966 -1225.97 0.
196.728 -892.616 0.
339.49 -559.262 0.
84.8232 -771.793 0.
7.6078 -950.601 0.
172.917 -1003.66 0.
196.474 -949.289 0.
220.031 -894.921 0.
-15.9832 -967.813 0.
-14.4661 -964.579 0.
-12.9489 -961.344 0.
-107.065 -973.637 0.
-87.8613 -929.213 0.
-68.6579 -884.789 0.
252.854 -729.099 0.
259.068 -713.851 0.
252.2 -711.286 0.
-149.773 -939.869 0.
-179.151 -1008.86 0.
-58.708 -988.106 0.
-41.1229 -946.975 0.
-23.5376 -905.843 0.
-87.4114 -930.342 0.
-101.236 -962.519 0.
-115.06 -994.696 0.
79.1621 -825.655 0.
148.225 -664.711 0.
217.287 -503.767 0.
-99.8402 -552.947 0.
-53.7751 -446.606 0.
182.443 -293.688 0.
71.2573 -555.011 0.
-39.9288 -816.335 0.
162.005 -802.545 0.
261.112 -572.39 0.
360.219 -342.235 0.
88.5792 -422.947 0.
49.06 -515.903 0.
9.54088 -608.858 0.
-171.413 -747.118 0.
-201.317 -816.034 0.
-528.265 -398.291 0.
-238.37 -445.296 0.
-334.29 -667.264 0.
-167.538 -737.858 0.
-159.808 -719.801 0.
-152.078 -701.743 0.
27.2633 -601.78 0.
45.427 -559.26 0.
63.5905 -516.74 0.
97.7208 -500.051 0.
90.106 -517.783 0.
82.4912 -535.515 0.
57.1079 -602.482 0.
22.1996 -682.581 0.
61.0274 -721.361 0.
77.8446 -680.184 0.
94.6616 -639.006 0.
153.764 -626.539 0.
95.0147 -762.82 0.
36.2657 -899.1 0.
195.847 -854.255 0.
221.235 -794.115 0.
246.622 -733.975 0.
-32.2352 -824.884 0.
-18.6751 -792.844 0.
487.742 -549.532 0.
55.3858 -761.772 0.
37.8477 -802.961 0.
199.373 -763.918 0.
196.474 -771.056 0.
193.576 -778.195 0.
-46.8763 -902.202 0.
-68.6368 -951.932 0.
-90.3972 -1001.66 0.
135.749 -900.893 0.
151.404 -864.571 0.
167.058 -828.25 0.
123.099 -919.575 0.
77.062 -1027.93 0.
255.134 -1028.1 0.
263.262 -1007.34 0.
271.391 -986.582 0.
0.878111 -1073.2 0.
31.0574 -1002.68 0.
61.2369 -932.167 0.
188.747 -874.401 0.
167.496 -923.517 0.
146.245 -972.632 0.
417.359 -893.983 0.
399.642 -935.751 0.
-914.224 -1532.11 0.
479.932 -811.229 0.
544.131 -660.349 0.
189.316 -733.374 0.
146.709 -832.352 0.
104.102 -931.33 0.
237.616 -981.251 0.
166.314 -1148.08 0.
95.0113 -1314.9 0.
38.0695 -1201.58 0.
181.054 -868.489 0.
324.039 -535.401 0.
296.751 -649.131 0.
219.614 -828.135 0.
153.92 -979.055 0.
177.588 -924.796 0.
201.256 -870.537 0.
-150.775 -994.064 0.
-149.35 -990.902 0.
-147.925 -987.739 0.
-12.349 -901.968 0.
6.84112 -857.411 0.
26.0313 -812.855 0.
417.182 -627.844 0.
423.351 -612.531 0.
336.113 -643.055 0.
-24.3494 -854.092 0.
-53.7078 -923.295 0.
-232.925 -1031.53 0.
-215.416 -990.356 0.
-197.907 -949.185 0.
-99.0045 -903.637 0.
-112.825 -935.891 0.
-126.646 -968.145 0.
-25.6031 -838.476 0.
43.484 -677.631 0.
112.571 -516.786 0.
158.449 -411.468 0.
204.504 -305.024 0.
170.234 -268.098 0.
58.8143 -529.209 0.
-52.6055 -790.32 0.
127.188 -786.234 0.
226.095 -556.035 0.
325.001 -325.835 0.
-186.966 -510.082 0.
-226.401 -603.141 0.
-265.836 -696.2 0.
-135.53 -700.418 0.
-165.765 -769.494 0.
-515.779 51.1961 0.
303.694 686.497 0.
-30.7741 -94.3486 0.
221.094 371.097 0.
11.2851 -118.978 0.
-74.1406 -318.527 0.
422.022 542.509 0.
746.276 1299 0.
369.851 420.55 0.
550.89 326.791 0.
558.285 345.145 0.
631.736 517.649 0.
402.667 300.512 0.
560.193 669.229 0.
720.509 963.104 0.
362.733 127.328 0.
443.241 314.595 0.
625.154 421.341 0.
627.709 428.023 0.
624.136 420.618 0.
635.699 203.562 0.
624.958 179.215 0.
514.885 -76.8505 0.
271.765 -352.019 0.
944.598 1216.43 0.
761.164 322.396 0.
261.546 -151.718 0.
333.044 14.226 0.
504.095 92.6188 0.
447.955 -37.5654 0.
182.866 -655.121 0.
-97.3572 -1205.8 0.
396.82 -51.7996 0.
570.687 354.809 0.
370.411 -107.073 0.
425.782 23.3066 0.
419.862 10.6615 0.
712.646 119.893 0.
881.091 513.626 0.
704.908 154.54 0.
749.861 263.33 0.
698.272 146.887 0.
508.186 -223.725 0.
460.404 -334.726 0.
355.125 -579.963 0.
437.586 -135.576 0.
422.93 -169.477 0.
499.357 9.07517 0.
799.58 -88.0391 0.
858.58 47.6704 0.
-1408.64 -1567.02 0.
923.79 137.298 0.
915.016 117.925 0.
523.71 -88.2374 0.
590.823 68.8358 0.
546.895 -33.198 0.
664.013 200.57 0.
591.59 30.5806 0.
422.506 -364.898 0.
552.474 58.919 0.
704.991 414.124 0.
1048.41 1214.75 0.
898.714 381.246 0.
835.927 233.717 0.
658.801 269.029 0.
684.318 329.383 0.
786.409 568.356 0.
209.717 130.097 0.
593.14 1024.41 0.
331.276 413.192 0.
412.809 -60.1494 0.
565.492 297.465 0.
470.642 77.6063 0.
535.034 -640.592 0.
481.96 -764.392 0.
862.314 662.797 0.
62.1488 -852.248 0.
292.851 -314.344 0.
229.263 408.493 0.
182.022 298.375 0.
457.398 940.914 0.
257.288 -24.9662 0.
335.493 159.689 0.
372.7 248.682 0.
203.165 -77.2853 0.
619.626 894.231 0.
273.523 86.5009 0.
649.917 278.781 0.
368.446 -378.377 0.
312.704 117.103 0.
381.007 276.247 0.
582.629 746.042 0.
679.792 599.355 0.
241.154 -425.438 0.
451.826 64.8758 0.
369.603 1337.52 0.
-87.4791 270.159 0.
-403.758 -468.514 0.
-254.348 -1017.38 0.
469.104 668.187 0.
-627.771 -853.683 0.
-140.406 -620.437 0.
-126.023 -587.489 0.
-136.246 -571.991 0.
-141.529 -585.227 0.
-146.813 -598.462 0.
-134.042 -640.658 0.
-185.236 -759.834 0.
-236.429 -879.011 0.
134.841 -715.805 0.
164.826 -645.543 0.
194.812 -575.28 0.
-213.863 -735.932 0.
-208.85 -724.418 0.
138.174 -577.418 0.
76.9394 -721.68 0.
15.7044 -865.942 0.
170.238 -818.33 0.
269.578 -586.761 0.
368.918 -355.192 0.
273.824 -356.555 0.
229.226 -460.575 0.
184.629 -564.596 0.
84.1616 -664.029 0.
58.4112 -725.436 0.
363.213 -645.304 0.
138.96 -698.424 0.
165.147 -637.026 0.
310.149 -556.496 0.
242.512 -713.22 0.
174.874 -869.945 0.
45.1175 -958.652 0.
93.4189 -845.406 0.
141.72 -732.161 0.
18.3753 -820.079 0.
-35.7832 -946.365 0.
-89.9417 -1072.65 0.
172.239 -966.078 0.
176.864 -954.614 0.
176.828 -948.402 0.
165.762 -975.684 0.
154.697 -1002.97 0.
217.478 -995.776 0.
211.038 -1010.98 0.
204.598 -1026.19 0.
160.783 -1039.19 0.
171.382 -1015.25 0.
181.981 -991.311 0.
384.007 -861.681 0.
411.367 -799.579 0.
-435.791 -1113.38 0.
676.501 -596.342 0.
696.796 -547.565 0.
269.942 -674.627 0.
329.887 -534.511 0.
389.832 -394.396 0.
293.827 -387.421 0.
275.08 -430.939 0.
256.334 -474.457 0.
272.69 -585.606 0.
189.445 -778.843 0.
106.2 -972.08 0.
537.652 -816.235 0.
529.887 -835.589 0.
-8.22356 -1085.91 0.
-27.9181 -1131.13 0.
-47.6126 -1176.36 0.
-218.092 -1208.08 0.
-122.394 -984.654 0.
-26.6967 -761.227 0.
160.662 -644.503 0.
125.675 -726.096 0.
90.6893 -807.688 0.
421.341 -699.214 0.
408.542 -730.392 0.
362.383 -770.143 0.
-113.589 -868.949 0.
-58.5038 -740.134 0.
-50.7414 -638.716 0.
-3.53256 -529.33 0.
43.6764 -419.945 0.
58.2282 -380.993 0.
39.922 -422.884 0.
21.616 -464.776 0.
100.324 -488.282 0.
65.7492 -569.279 0.
31.174 -650.275 0.
134.633 -590.962 0.
145.436 -565.892 0.
46.3992 -602.87 0.
3.49346 -703.534 0.
-39.4123 -804.199 0.
17.8971 -809.406 0.
53.9793 -726.184 0.
90.0613 -642.961 0.
-331.111 -763.653 0.
-301.525 -694.607 0.
-271.939 -625.56 0.
-55.297 -348.203 0.
58.7938 -83.7386 0.
-274.196 -672.607 0.
18.6221 -521.292 0.
33.1133 -488.328 0.
-62.1751 -509.137 0.
-67.269 -522.512 0.
-72.363 -535.887 0.
-177.894 -627.391 0.
-229 -746.612 0.
-280.107 -865.833 0.
188.505 -662.094 0.
218.688 -592.041 0.
248.872 -521.987 0.
-409.408 -787.527 0.
-404.342 -776.154 0.
252.228 -497.15 0.
190.854 -641.171 0.
129.479 -785.192 0.
280.755 -740.385 0.
380.191 -508.772 0.
479.627 -277.159 0.
141.268 -381.591 0.
96.7628 -485.6 0.
52.2577 -589.609 0.
35.5949 -653.557 0.
9.39619 -714.527 0.
925.047 -372.204 0.
291.6 -602.547 0.
317.836 -541.13 0.
430.438 -473.077 0.
362.895 -629.942 0.
295.351 -786.808 0.
105.392 -901.735 0.
153.783 -788.471 0.
202.174 -675.208 0.
-20.2515 -803.969 0.
-74.5685 -930.168 0.
-128.885 -1056.37 0.
95.1875 -968.874 0.
99.7181 -957.394 0.
128.204 -938.578 0.
116.979 -965.472 0.
105.753 -992.367 0.
283.934 -935.933 0.
277.819 -951.206 0.
271.704 -966.48 0.
312.197 -943.232 0.
322.872 -919.311 0.
333.546 -895.391 0.
301.559 -865.998 0.
328.74 -803.784 0.
5.43763 -892.629 0.
772.657 -523.585 0.
792.976 -474.97 0.
285.198 -636.974 0.
345.163 -496.973 0.
405.129 -356.971 0.
164.718 -411.585 0.
145.731 -454.722 0.
126.743 -497.859 0.
283.743 -549.822 0.
200.444 -743.145 0.
117.144 -936.467 0.
742.368 -696.903 0.
734.604 -716.093 0.
-97.8244 -1092.29 0.
-117.236 -1137.88 0.
-136.648 -1183.46 0.
-22.3793 -1092.75 0.
73.3463 -869.484 0.
169.072 -646.218 0.
173.879 -607.431 0.
139.065 -689.233 0.
104.25 -771.036 0.
331.973 -705.855 0.
319.343 -737.206 0.
43.7281 -874.906 0.
-304.963 -919.585 0.
-249.773 -791.028 0.
172.54 -511.658 0.
219.697 -402.177 0.
266.853 -292.697 0.
18.9398 -366.371 0.
0.955234 -408.467 0.
-17.0292 -450.563 0.
206.012 -410.959 0.
171.549 -492.142 0.
137.086 -573.326 0.
-24.6716 -628.66 0.
-13.8283 -603.545 0.
113.096 -543.129 0.
70.1981 -643.71 0.
27.3005 -744.29 0.
-35.5555 -800.643 0.
0.344136 -717.164 0.
36.2436 -633.686 0.
-71.5309 -621.245 0.
-41.9454 -552.235 0.
-12.36 -483.224 0.
-146.529 -356.066 0.
-32.6174 -91.5688 0.
-28.1136 -521.108 0.
84.8524 -484.254 0.
88.5557 -474.816 0.
-30.9661 -491.251 0.
38.916 -328.069 0.
108.798 -164.887 0.
12.645 -209.341 0.
-88.1136 -443.716 0.
-188.872 -678.091 0.
209.369 -548.14 0.
231.516 -496.521 0.
253.662 -444.901 0.
-328.585 -685.585 0.
-327.082 -680.108 0.
281.061 -416.11 0.
271.77 -437.351 0.
262.479 -458.591 0.
427.045 -435.648 0.
368.202 -572.318 0.
309.359 -708.988 0.
-102.422 -851.258 0.
-20.3258 -660.053 0.
61.7703 -468.848 0.
-48.9228 -621.628 0.
-142.889 -841.16 0.
685.186 -665.554 0.
273.901 -858.665 0.
263.226 -882.95 0.
333.617 -846.397 0.
393.98 -705.526 0.
454.341 -564.655 0.
247.601 -576.495 0.
264.899 -535.965 0.
282.198 -495.435 0.
116.431 -558.548 0.
115.527 -561.167 0.
114.622 -563.786 0.
260.449 -505.832 0.
256.407 -516.113 0.
286.474 -522.415 0.
235.94 -640.757 0.
185.406 -759.098 0.
366.549 -718.643 0.
405.144 -626.944 0.
443.739 -535.244 0.
558.683 -455.967 0.
555.656 -462.235 0.
552.629 -468.503 0.
379.369 -664.902 0.
297.051 -856.742 0.
-709.339 -1444.84 0.
753.086 -675.801 0.
828.75 -500.852 0.
311.457 -617.153 0.
296.597 -653.354 0.
281.736 -689.555 0.
-112.345 -830.25 0.
-57.6409 -704.948 0.
-2.93668 -579.647 0.
313.326 -604.937 0.
161.322 -960.247 0.
9.31697 -1315.56 0.
603.202 -909.195 0.
711.035 -657.069 0.
78.1493 -732.158 0.
148.279 -567.92 0.
218.41 -403.682 0.
344.074 -377.801 0.
165.828 -794.309 0.
-12.4177 -1210.82 0.
-107.211 -1190.28 0.
83.7389 -744.281 0.
274.689 -298.284 0.
551.631 -113.671 0.
544.855 -128.833 0.
88.269 -336.376 0.
-241.694 -657.696 0.
-336.01 -878.036 0.
14.914 -834.263 0.
85.4204 -669.277 0.
155.927 -504.292 0.
18.9504 -520.616 0.
-17.2456 -605.529 0.
-53.4418 -690.441 0.
146.248 -577.777 0.
185.699 -485.336 0.
225.151 -392.894 0.
101.064 -357.927 0.
149.206 -244.791 0.
329.899 -89.0509 0.
323.587 -103.939 0.
317.275 -118.827 0.
206.088 -174.742 0.
203.103 -180.93 0.
200.117 -187.118 0.
147.89 -179.68 0.
175.735 -114.896 0.
203.579 -50.1128 0.
-90.5928 -143.348 0.
-74.0651 -104.402 0.
86.1733 -439.552 0.
83.2778 -453.846 0.
87.0842 -444.346 0.
-14.7626 -453.021 0.
55.1629 -289.873 0.
125.088 -126.726 0.
108.918 -136.761 0.
8.12154 -371.105 0.
-92.6748 -605.449 0.
121.101 -554.864 0.
143.298 -503.336 0.
165.496 -451.808 0.
-15.9723 -520.261 0.
-14.2689 -514.86 0.
184.999 -425.443 0.
175.745 -446.607 0.
166.491 -467.77 0.
387.14 -422.26 0.
328.284 -558.899 0.
269.428 -695.538 0.
-54.6194 -799.886 0.
27.581 -608.743 0.
109.781 -417.601 0.
-203.169 -655.099 0.
-296.904 -874.851 0.
489.855 -717.522 0.
384.614 -780.422 0.
374.077 -804.788 0.
402.826 -784.714 0.
463.397 -643.959 0.
523.968 -503.205 0.
230.591 -552.601 0.
248.071 -512.065 0.
265.551 -471.529 0.
262.935 -463.128 0.
262.198 -465.811 0.
261.461 -468.494 0.
289.449 -462.815 0.
285.403 -472.923 0.
313.603 -479.011 0.
263.005 -597.249 0.
212.408 -715.488 0.
304.274 -715.554 0.
342.708 -623.761 0.
381.141 -531.969 0.
532.546 -434.918 0.
529.361 -441.194 0.
526.176 -447.469 0.
465.362 -596.86 0.
383.184 -788.772 0.
-310.509 -1242.55 0.
812.552 -618.345 0.
887.821 -442.965 0.
372.921 -558.926 0.
358.023 -595.033 0.
343.126 -631.139 0.
-189.266 -832.206 0.
-134.748 -706.794 0.
-80.2296 -581.382 0.
468.576 -507.077 0.
316.499 -862.41 0.
164.422 -1217.74 0.
320.705 -998.648 0.
428.701 -746.603 0.
247.832 -628.018 0.
318.075 -463.726 0.
388.317 -299.433 0.
328.681 -353.791 0.
150.369 -770.272 0.
-27.9429 -1186.75 0.
-162.184 -1182.06 0.
28.5788 -736.093 0.
219.341 -290.128 0.
596.361 -62.6627 0.
589.379 -77.7554 0.
110.149 -295.065 0.
-140.975 -582.961 0.
-235.33 -803.262 0.
-220.717 -904.686 0.
-150.23 -739.902 0.
-79.7425 -575.118 0.
249.606 -390.684 0.
213.318 -475.45 0.
177.03 -560.217 0.
100.768 -565.872 0.
140.552 -473.715 0.
180.337 -381.557 0.
312.75 -235.028 0.
361.087 -121.886 0.
350.47 -48.771 0.
344.122 -63.5566 0.
337.773 -78.3422 0.
223.594 -136.054 0.
220.591 -142.163 0.
217.588 -148.271 0.
1.10728 -211.544 0.
28.9174 -146.687 0.
56.7276 -81.8293 0.
-53.8207 -96.538 0.
-37.0863 -57.8023 0.
367.14 47.0077 0.
381.15 274.744 0.
313.341 116.619 0.
337.774 365.39 0.
323.063 333.598 0.
339.203 373.468 0.
-70.6188 -709.128 0.
536.06 705.999 0.
687.292 1058.7 0.
615.674 802.371 0.
357.916 201.578 0.
336.048 150.902 0.
654.679 477.471 0.
478.787 67.4902 0.
307.351 75.6278 0.
282.226 17.5336 0.
194.107 -187.638 0.
573.797 120.979 0.
748.761 528.788 0.
808.98 668.859 0.
349.914 88.2376 0.
417.643 245.894 0.
610.292 695.108 0.
26.3075 199.986 0.
-208.097 -349.079 0.
587.449 422.532 0.
375.693 -982.616 0.
862.23 152.495 0.
1148.71 857.141 0.
678.551 -240.376 0.
812.057 70.9338 0.
442.368 4.07579 0.
526.154 199.063 0.
599.804 370.487 0.
606.765 91.8188 0.
595.787 65.3762 0.
816.446 579.474 0.
880.461 890.711 0.
590.828 215.592 0.
951.043 990.719 0.
773.407 576.208 0.
596.213 162.674 0.
582.101 76.5924 0.
526.453 -53.0752 0.
595.854 109.134 0.
761.785 184.96 0.
487.059 -456.046 0.
720.572 88.941 0.
1132.63 832.007 0.
1185.05 954.803 0.
-1709.74 -616.916 0.
1331.14 507.129 0.
1245.48 306.076 0.
828.396 422.539 0.
814.991 389.827 0.
940.099 680.358 0.
26.6915 -153.162 0.
58.5983 -77.5943 0.
213.121 284.265 0.
545.792 -590.458 0.
627.786 -398.553 0.
953.312 361.539 0.
579.266 169.16 0.
429.371 -181.806 0.
819.875 416.441 0.
738.24 227.532 0.
744.328 243.352 0.
759.027 709.489 0.
709.932 593.75 0.
356.13 -233.223 0.
147.711 -320.696 0.
425.716 328.125 0.
687.822 939.442 0.
758.202 253.104 0.
393.116 -598.454 0.
947.983 1461.47 0.
249.962 169.441 0.
-36.5681 -496.673 0.
93.7551 305.589 0.
213.066 585.074 0.
265.598 708.762 0.
694.532 242.111 0.
585.314 -12.8016 0.
661.039 163.867 0.
338.19 106.724 0.
373.755 189.587 0.
489.789 460.236 0.
631.504 135.794 0.
570.503 -7.08789 0.
589.912 504.613 0.
604.883 540.245 0.
482.64 255.225 0.
358.968 182.093 0.
491.398 491.45 0.
599.451 743.644 0.
-178.66 -327.354 0.
64.2368 238.246 0.
-24.9815 30.2836 0.
-471.367 -1110.88 0.
450.848 1040.74 0.
119.697 -290.091 0.
265.699 -189.957 0.
284.956 -145.443 0.
94.5987 -238.389 0.
-8.80051 -478.562 0.
-112.2 -718.734 0.
-1.42939 -726.178 0.
70.5703 -558.498 0.
142.57 -390.818 0.
37.4014 -349.541 0.
67.4078 -278.664 0.
97.414 -207.787 0.
443.357 -85.3976 0.
420.698 -136.395 0.
177.994 -295.402 0.
86.7199 -509.245 0.
-4.55415 -723.088 0.
105.36 -724.085 0.
223.649 -449.129 0.
341.939 -174.173 0.
247.873 -219.007 0.
140.992 -468 0.
34.1113 -716.993 0.
-225.01 -827.676 0.
-191.633 -750.76 0.
1169.4 -104.481 0.
626.794 -240.518 0.
680.033 -115.628 0.
533.11 -135.521 0.
440.623 -353.247 0.
348.135 -570.974 0.
234.598 -743.272 0.
209.068 -803.999 0.
183.538 -864.726 0.
214.552 -855.404 0.
222.696 -835.007 0.
230.841 -814.611 0.
150.471 -869.926 0.
136.139 -903.354 0.
153.765 -909.323 0.
209.857 -778.948 0.
265.948 -648.573 0.
382.213 -551.663 0.
345.432 -638.727 0.
308.651 -725.792 0.
87.2074 -878.849 0.
63.3159 -936.638 0.
39.424 -994.428 0.
666.476 -557.613 0.
786.258 -276.785 0.
-236.022 -485.774 0.
871.077 -287.939 0.
726.1 -626.769 0.
238.792 -1020.87 0.
310.018 -855.312 0.
381.243 -689.751 0.
-84.7484 -805.776 0.
-75.7519 -784.281 0.
-66.7558 -762.786 0.
501.385 -398.039 0.
592.418 -184.896 0.
683.451 28.2466 0.
314.68 -394.48 0.
148.045 -783.698 0.
79.9393 -1096.44 0.
71.0474 -1116.77 0.
62.1554 -1137.1 0.
-32.9961 -1094.87 0.
110.654 -758.136 0.
254.303 -421.406 0.
127.349 -448.786 0.
39.7058 -651.871 0.
-47.9375 -854.954 0.
448.268 -592.328 0.
505.748 -458.136 0.
389.415 -398.668 0.
-9.53991 -458.861 0.
47.4315 -324.016 0.
-78.9403 -346.266 0.
-199.591 -628.302 0.
-320.242 -910.338 0.
244.913 -754.364 0.
294.019 -640.285 0.
343.125 -526.205 0.
13.7138 -583.212 0.
54.3456 -489.716 0.
94.9774 -396.219 0.
281.902 -527.271 0.
157.128 -819.427 0.
-39.3433 -1085.3 0.
57.2826 -859.84 0.
153.909 -634.379 0.
-45.4647 -586.659 0.
-22.5829 -533.726 0.
0.298667 -480.792 0.
58.0373 -413.037 0.
81.5157 -358.333 0.
104.994 -303.629 0.
-274.211 -440.566 0.
-265.726 -420.946 0.
10.1183 -307.552 0.
384.185 -107.936 0.
403.499 -63.5988 0.
130.956 -190.844 0.
27.8711 -431.26 0.
-75.2136 -671.676 0.
108.454 -647.441 0.
180.577 -479.877 0.
252.699 -312.313 0.
-51.2912 -356.47 0.
-21.2289 -285.61 0.
8.83326 -214.75 0.
494.787 -31.8574 0.
472.031 -82.6828 0.
230.892 -241.825 0.
139.495 -455.433 0.
48.0979 -669.042 0.
-7.24996 -741.611 0.
111.056 -466.752 0.
229.361 -191.892 0.
301.232 -164.562 0.
194.291 -413.495 0.
87.3499 -662.429 0.
23.0292 -689.294 0.
56.4254 -612.276 0.
885.511 -194.239 0.
560.3 -238.346 0.
613.636 -113.452 0.
317.564 -196.169 0.
225.117 -413.836 0.
132.67 -631.503 0.
388.798 -645.533 0.
363.442 -706.395 0.
338.087 -767.256 0.
248.303 -808.627 0.
256.839 -788.53 0.
265.375 -768.433 0.
196.891 -818.474 0.
182.708 -851.848 0.
190.704 -862.361 0.
246.669 -732.037 0.
302.635 -601.712 0.
486.118 -476.678 0.
449.276 -563.677 0.
412.434 -650.676 0.
-167.184 -956.916 0.
-190.994 -1014.83 0.
-214.805 -1072.75 0.
843.238 -449.998 0.
963.351 -169.525 0.
-46.3782 -372.687 0.
740.825 -311.818 0.
595.791 -650.488 0.
292.326 -966.868 0.
363.674 -801.309 0.
435.021 -635.751 0.
138.172 -678.658 0.
147.325 -657.216 0.
156.477 -635.774 0.
362.186 -426.808 0.
453.306 -213.841 0.
544.426 -0.873446 0.
303.129 -367.41 0.
136.41 -756.461 0.
-15.0813 -1105.78 0.
-23.8623 -1126.06 0.
-32.6434 -1146.35 0.
-39.3223 -1066.55 0.
104.301 -729.818 0.
247.924 -393.09 0.
185.156 -392.258 0.
97.2279 -595.145 0.
9.30011 -798.032 0.
530.406 -526.35 0.
587.7 -391.974 0.
758.861 -208.267 0.
17.6882 -415.204 0.
74.7747 -280.541 0.
68.7808 -251.38 0.
-51.8041 -533.726 0.
-172.389 -816.073 0.
234.293 -728.064 0.
283.132 -613.641 0.
331.972 -499.218 0.
-3.65057 -558.899 0.
37.1124 -465.538 0.
77.8753 -372.177 0.
220.386 -521.499 0.
95.5128 -813.41 0.
40.3301 -1019.79 0.
137.094 -794.428 0.
233.858 -569.064 0.
-119.185 -586.669 0.
-96.4538 -533.549 0.
-73.7232 -480.428 0.
408.775 -231.665 0.
432.23 -176.876 0.
455.684 -122.086 0.
-366.93 -448.52 0.
-358.444 -428.707 0.
-44.7064 -188.267 0.
406.921 6.01606 0.
411.129 17.0681 0.
143.387 -109.167 0.
95.6327 -220.892 0.
47.8779 -332.616 0.
218.893 -278.6 0.
261.34 -178.772 0.
303.786 -78.9441 0.
46.7877 -175.993 0.
34.0519 -205.621 0.
21.3162 -235.249 0.
363.312 -279.366 0.
251.883 -540.688 0.
-62.0959 -842.586 0.
76.7955 -517.976 0.
215.687 -193.366 0.
247.537 -101.825 0.
76.7857 -499.573 0.
-93.966 -897.322 0.
17.2173 -942.025 0.
74.6649 -809.544 0.
132.113 -677.063 0.
151.463 -648.96 0.
148.628 -655.203 0.
161.63 -653.757 0.
293.305 -607.889 0.
288.78 -620.701 0.
5.06582 -743.853 0.
20.4163 -705.948 0.
35.7665 -668.043 0.
480.985 -481.268 0.
452.984 -546.006 0.
424.982 -610.744 0.
328.985 -659.85 0.
340.359 -632.9 0.
351.734 -605.95 0.
399.733 -479.1 0.
459.309 -338.889 0.
513.512 -214.625 0.
501.011 -243.268 0.
488.509 -271.911 0.
557.533 -250.507 0.
570.848 -220.446 0.
584.164 -190.385 0.
43.2075 -424.351 0.
30.2451 -452.794 0.
17.2824 -481.236 0.
968.609 -215.815 0.
876.1 -430.615 0.
-779.154 -1315.27 0.
532.887 -565.011 0.
631.172 -334.943 0.
545.609 -245.977 0.
496.96 -358.305 0.
448.312 -470.632 0.
320.126 -524.46 0.
382.149 -380.244 0.
444.172 -236.027 0.
472.936 -230.791 0.
435.577 -318.523 0.
398.218 -406.256 0.
364.904 -309.651 0.
436.539 -144.164 0.
351.646 -69.9795 0.
308.635 -170.016 0.
265.624 -270.053 0.
221.204 -336.815 0.
228.644 -320.158 0.
236.085 -303.502 0.
222.74 -294.137 0.
233.083 -272.054 0.
243.426 -249.97 0.
772.622 -15.0813 0.
775.877 -7.81677 0.
-77.8602 -367.734 0.
116.464 -367.011 0.
74.1905 -467.253 0.
7.87573 -547.435 0.
32.4929 -489.074 0.
57.1102 -430.714 0.
339.598 -240.464 0.
386.648 -131.401 0.
433.699 -22.3369 0.
173.441 -224.837 0.
81.4726 -436.994 0.
-10.4958 -649.151 0.
208.334 -507.986 0.
244.032 -425.172 0.
262.126 -357.345 0.
270.322 -337.534 0.
278.518 -317.724 0.
16.729 -397.906 0.
46.6053 -327.396 0.
76.4814 -256.887 0.
463.976 -62.8997 0.
465.188 -59.9024 0.
466.4 -56.9052 0.
-275.93 -471.927 0.
-338.724 -616.655 0.
-176.999 -213.643 0.
259.545 -25.7731 0.
264.063 -14.9508 0.
86.3957 -101.889 0.
38.6617 -213.707 0.
-9.07224 -325.526 0.
31.8299 -326.771 0.
74.3909 -227.079 0.
116.952 -127.387 0.
209.184 -74.9645 0.
196.565 -104.645 0.
183.946 -134.325 0.
296.86 -276.508 0.
185.632 -537.823 0.
-167.329 -856.257 0.
-28.4979 -531.645 0.
110.333 -207.033 0.
338.486 -31.2483 0.
167.809 -428.967 0.
-2.86747 -826.685 0.
110.825 -872.023 0.
168.247 -739.403 0.
225.67 -606.783 0.
211.919 -591.077 0.
209.309 -597.466 0.
-647.597 -969.203 0.
137.586 -642.612 0.
133.068 -655.187 0.
58.715 -689.605 0.
74.4167 -651.962 0.
90.118 -614.319 0.
415.265 -478.357 0.
387.168 -543.088 0.
359.071 -607.819 0.
368.425 -610.596 0.
379.934 -583.831 0.
391.442 -557.067 0.
525.242 -394.574 0.
584.752 -254.012 0.
614.341 -139.511 0.
602.003 -168.272 0.
589.665 -197.034 0.
425.254 -276.123 0.
438.582 -246.14 0.
451.911 -216.156 0.
283.224 -289.943 0.
270.471 -318.737 0.
257.717 -347.531 0.
876.536 -223.946 0.
784.208 -438.978 0.
-180.547 -1026.82 0.
459.643 -564.826 0.
558.092 -334.861 0.
379.306 -286.203 0.
330.721 -398.481 0.
282.136 -510.758 0.
412.752 -453.723 0.
474.852 -309.448 0.
536.952 -165.172 0.
704.962 -99.8605 0.
667.482 -187.674 0.
630.002 -275.487 0.
504.768 -217.927 0.
576.269 -52.3638 0.
291.143 -64.6327 0.
248.053 -164.505 0.
204.962 -264.377 0.
132.871 -344.17 0.
140.174 -327.3 0.
147.477 -310.429 0.
189.619 -277.404 0.
200.033 -255.35 0.
210.446 -233.295 0.
789.011 24.2148 0.
792.292 31.5016 0.
288.115 -180.011 0.
312.998 -251.756 0.
270.62 -351.928 0.
51.0352 -497.055 0.
75.6273 -438.536 0.
100.22 -380.016 0.
135.925 -296.404 0.
182.958 -187.288 0.
229.992 -78.1726 0.
304.671 -137.206 0.
212.61 -349.254 0.
120.549 -561.301 0.
257.44 -456.126 0.
292.831 -373.216 0.
70.2077 -408.629 0.
78.4169 -388.843 0.
86.6261 -369.057 0.
247.727 -267.105 0.
277.485 -196.405 0.
307.244 -125.705 0.
116.932 -180.559 0.
118.251 -177.571 0.
119.569 -174.583 0.
92.8012 -282.223 0.
30.2063 -426.938 0.
52.226 593.886 0.
367.309 538.88 0.
114.052 -51.0857 0.
237.112 384.891 0.
151.861 186.368 0.
57.6283 -32.754 0.
-0.755805 -19.0907 0.
-37.6027 -105.73 0.
120.045 261.579 0.
427.961 160.465 0.
241.133 -274.739 0.
259.334 -231.615 0.
347.402 -7.65223 0.
300.274 -117.114 0.
22.7618 -184.039 0.
139.751 90.0534 0.
58.9105 -97.1776 0.
327.288 -194.846 0.
694.817 662.533 0.
401.102 -23.0984 0.
377.5 -396.13 0.
456.655 -212.808 0.
508.947 -92.0827 0.
202.397 -701.265 0.
307.916 -455.248 0.
84.0423 -128.196 0.
345.888 163.286 0.
57.5932 -509.408 0.
133.538 -591.811 0.
444.071 133.296 0.
604.795 508.982 0.
877.524 759.218 0.
723.045 398.101 0.
520.769 -74.5168 0.
450.928 -462.52 0.
359.28 -677.855 0.
786.939 318.646 0.
1226.97 1033.06 0.
1165.24 889.352 0.
1023.44 658.16 0.
749.91 20.659 0.
783.529 99.7015 0.
505.77 189.148 0.
617.859 450.448 0.
630.639 480.058 0.
872.738 664.186 0.
530.816 -133.593 0.
356.924 -539.319 0.
966.646 192.413 0.
1235.39 820.148 0.
-173.371 43.8999 0.
712.957 197.514 0.
734.86 248.078 0.
392.197 97.2405 0.
295.242 -129.208 0.
364.805 32.6009 0.
577.126 -217.702 0.
573.478 -226.293 0.
564.047 -248.216 0.
912.724 -22.7775 0.
771.842 -351.618 0.
830.392 -215.077 0.
619.05 -192.449 0.
817.462 270.647 0.
114.681 -331.082 0.
256.657 -0.582761 0.
488.805 540.418 0.
405.256 490.806 0.
231.669 84.6854 0.
332.173 318.126 0.
141.334 -297.331 0.
220.338 -114.059 0.
378.544 254.254 0.
1154.8 873.393 0.
1450.58 1563.31 0.
1581.03 291.798 0.
554.375 -27.9938 0.
528.091 -88.4204 0.
528.952 568.538 0.
399.455 265.687 0.
467.538 423.854 0.
232.976 340.978 0.
2.98747 -195.809 0.
136.882 116.987 0.
568.604 263.748 0.
495.761 93.6009 0.
542.691 203.003 0.
846.22 859.401 0.
847.406 866.53 0.
-35.9413 -269.282 0.
94.2135 35.6177 0.
75.1162 -7.8959 0.
560.327 62.5574 0.
734.218 467.687 0.
821.828 670.661 0.
42.7525 332.451 0.
303.67 942.554 0.
-316.435 -503.744 0.
537.711 91.9551 0.
570.683 168.859 0.
-157.107 -592.143 0.
-208.996 -550.559 0.
-180.155 -483.602 0.
-144.286 -409.18 0.
-98.5539 -302.909 0.
-52.8219 -196.639 0.
-39.0528 -170.419 0.
-76.745 -257.794 0.
-114.437 -345.17 0.
290.278 -250.121 0.
248.742 -346.825 0.
207.207 -443.529 0.
61.8168 -422.619 0.
117.444 -292.463 0.
160.081 -192.291 0.
77.306 -385.95 0.
-5.46894 -579.61 0.
162.095 -584.583 0.
215.348 -460.776 0.
268.6 -336.97 0.
276.898 -338.885 0.
222.05 -467.53 0.
167.201 -596.174 0.
136.941 -599.275 0.
163.144 -537.557 0.
857.417 -189.105 0.
240.104 -417.675 0.
257.955 -374.671 0.
373.938 -309.329 0.
341.222 -385.105 0.
308.506 -460.881 0.
415.868 -403.024 0.
473.567 -269.032 0.
531.267 -135.04 0.
411.392 -239.067 0.
336.601 -413.45 0.
261.811 -587.832 0.
637.647 -389.472 0.
670.708 -312.677 0.
387.316 -376.766 0.
397.737 -351.836 0.
408.158 -326.907 0.
334.917 -379.283 0.
278.794 -509.509 0.
222.671 -639.736 0.
309.756 -679.914 0.
281.718 -745.231 0.
253.68 -810.549 0.
666.254 -544.088 0.
734.893 -384.558 0.
735.268 -255.341 0.
583.24 -146.864 0.
674.634 66.0397 0.
487.052 90.0068 0.
412.714 -83.2219 0.
338.377 -256.451 0.
451.695 -277.401 0.
460.917 -254.155 0.
470.14 -230.909 0.
660.774 -166.416 0.
643.108 -208.191 0.
625.441 -249.967 0.
605.963 -155.697 0.
667.494 -12.2677 0.
272.616 -106.424 0.
148.999 -396.15 0.
25.3819 -685.875 0.
1.29875 -801.64 0.
79.5044 -619.584 0.
157.71 -437.528 0.
178.039 -469.92 0.
79.0131 -696.506 0.
-20.0125 -923.091 0.
535.174 -602.987 0.
612.418 -421.788 0.
728.114 -228.598 0.
55.337 -568.414 0.
27.873 -630.83 0.
56.4555 -647.048 0.
81.4755 -589.45 0.
106.496 -531.852 0.
25.847 -555.183 0.
9.25256 -592.785 0.
-7.34151 -630.387 0.
146.94 -483.989 0.
217.513 -321.506 0.
288.087 -159.023 0.
259.949 -211.807 0.
228.746 -283.294 0.
17.669 -421.579 0.
22.4335 -409.328 0.
27.198 -397.077 0.
266.122 -331.734 0.
200.184 -485.948 0.
134.246 -640.161 0.
-260.202 -823.216 0.
-222.942 -736.215 0.
-185.682 -649.213 0.
95.5926 -452.283 0.
135.225 -360.256 0.
493.956 -281.933 0.
-326.83 -569.921 0.
-297.857 -503.103 0.
-176.223 -390.889 0.
-130.408 -284.733 0.
-84.5929 -178.576 0.
8.60124 -118.654 0.
-28.88 -206.287 0.
-66.3613 -293.919 0.
354.073 -190.552 0.
312.624 -287.279 0.
271.175 -384.006 0.
-53.6533 -441.322 0.
2.02473 -311.222 0.
349.155 -79.5776 0.
266.446 -273.363 0.
183.736 -467.149 0.
180.638 -544.917 0.
234.039 -421.1 0.
287.44 -297.282 0.
139.632 -366.545 0.
85.0439 -495.348 0.
30.4554 -624.152 0.
21.4345 -616.988 0.
47.8392 -555.314 0.
930.669 -126.304 0.
428.912 -305.901 0.
446.732 -262.848 0.
536.831 -208.247 0.
504.098 -284.026 0.
471.365 -359.805 0.
475.831 -346.005 0.
533.517 -211.94 0.
591.202 -77.8746 0.
262.792 -271.377 0.
188.002 -445.788 0.
113.212 -620.198 0.
680.075 -340.203 0.
713.222 -263.51 0.
168.566 -438.327 0.
179.086 -413.449 0.
189.606 -388.571 0.
441.287 -302.355 0.
385.301 -432.666 0.
329.316 -562.976 0.
341.04 -634.959 0.
313.08 -700.423 0.
285.121 -765.887 0.
701.606 -497.615 0.
770.46 -338.244 0.
245.817 -433.26 0.
620.004 -99.4697 0.
711.541 113.326 0.
623.087 179.298 0.
548.795 6.08238 0.
474.503 -167.133 0.
345.284 -291.879 0.
354.821 -268.815 0.
364.358 -245.75 0.
444.265 -227.657 0.
426.733 -269.587 0.
409.201 -311.517 0.
587.621 -131.779 0.
649.394 11.36 0.
364.512 -36.1465 0.
240.763 -325.783 0.
117.013 -615.42 0.
201.618 -684.615 0.
279.759 -502.395 0.
357.9 -320.175 0.
327.521 -375.043 0.
228.442 -601.684 0.
129.363 -828.325 0.
566.569 -557.992 0.
643.959 -376.769 0.
382.329 -345.405 0.
-254.716 -669.253 0.
-282.292 -731.324 0.
130.642 -584.945 0.
155.791 -527.182 0.
180.941 -469.418 0.
258.474 -424.39 0.
241.977 -462.011 0.
225.481 -499.631 0.
38.7077 -499.536 0.
109.211 -337.031 0.
179.715 -174.526 0.
121.398 -239.747 0.
90.4696 -311.394 0.
178.269 -320.218 0.
183.144 -308.161 0.
188.019 -296.104 0.
128.969 -359.689 0.
62.807 -513.624 0.
-3.35479 -667.559 0.
-8.11796 -683.52 0.
29.3164 -596.648 0.
66.7511 -509.776 0.
-143.782 -523.786 0.
-104.061 -431.664 0.
209.921 -412.967 0.
-288.441 -509.561 0.
-228.097 -367.776 0.
-45.4851 -202.34 0.
-53.1743 -219.566 0.
-60.8638 -236.792 0.
34.0017 -188.879 0.
51.493 -148.617 0.
68.9846 -108.356 0.
407.613 -38.5979 0.
336.993 -203.425 0.
266.372 -368.252 0.
-132.089 -535.63 0.
-118.849 -505.187 0.
252.224 -315.26 0.
294.26 -216.604 0.
336.296 -117.948 0.
332.27 -102.891 0.
267.67 -252.974 0.
203.07 -403.057 0.
50.1089 -524.288 0.
56.2189 -509.18 0.
62.3288 -494.071 0.
33.8119 -564.237 0.
-8.34903 -662.539 0.
1098.16 -267.962 0.
333.41 -573.948 0.
344.559 -547.06 0.
460.901 -451.431 0.
532.848 -284.297 0.
604.796 -117.164 0.
620.177 -82.2999 0.
561.309 -219.341 0.
502.441 -356.382 0.
122.441 -522.957 0.
151.945 -454.804 0.
181.449 -386.651 0.
741.039 -200.282 0.
703.85 -285.969 0.
62.6654 -627.864 0.
39.144 -683.154 0.
15.6227 -738.444 0.
347.738 -615.53 0.
366.042 -573.793 0.
384.347 -532.056 0.
395.548 -428.239 0.
474.308 -244.766 0.
553.068 -61.2919 0.
835.224 40.0264 0.
800.321 -40.4488 0.
-732.488 -762.563 0.
557.131 -365.472 0.
475.005 -556.202 0.
313.059 -718.299 0.
374.165 -574.838 0.
435.272 -431.377 0.
264.693 -476.359 0.
221.008 -578.3 0.
177.323 -680.24 0.
169.153 -655.659 0.
212.67 -553.012 0.
256.187 -450.366 0.
491.854 -395.446 0.
459.238 -469.987 0.
141.193 -638.578 0.
231.362 -427.07 0.
321.531 -215.561 0.
474.461 -118.658 0.
353.663 -401.016 0.
232.865 -683.373 0.
220.103 -673.091 0.
324.475 -433.17 0.
428.848 -193.248 0.
736.348 -88.9329 0.
693.758 -188.966 0.
294.33 -440.011 0.
-263.121 -653.304 0.
-247.659 -620.567 0.
150.053 -435.272 0.
131.428 -478.017 0.
112.804 -520.762 0.
302.433 -443.49 0.
319.035 -405.661 0.
335.637 -367.831 0.
-41.9959 -511.306 0.
-35.2595 -494.778 0.
-28.5229 -478.251 0.
99.8601 -367.424 0.
131.353 -293.366 0.
190.728 -221.263 0.
164.142 -283.534 0.
137.556 -345.804 0.
93.227 -368.39 0.
134.69 -271.53 0.
176.153 -174.669 0.
270.288 -129.61 0.
240.846 -198.239 0.
211.405 -266.867 0.
-137.422 -233.269 0.
-6.94229 71.2906 0.
-562.735 -712.216 0.
-114.128 -403.256 0.
-53.9999 -261.293 0.
134.569 -94.178 0.
126.832 -111.428 0.
119.096 -128.678 0.
153.26 -106.435 0.
170.667 -66.1267 0.
188.073 -25.8182 0.
351.839 -31.21 0.
281.322 -196.201 0.
210.805 -361.191 0.
-76.5709 -480.267 0.
-63.3401 -449.779 0.
106.51 -346.293 0.
148.551 -247.698 0.
190.591 -149.102 0.
255.878 -104.565 0.
191.403 -254.696 0.
126.927 -404.827 0.
161.482 -444.343 0.
167.713 -429.235 0.
173.945 -414.127 0.
151.471 -482.387 0.
109.44 -580.724 0.
637.184 -434.382 0.
237.757 -583.658 0.
248.947 -556.718 0.
402.943 -444.328 0.
475.003 -277.261 0.
547.063 -110.194 0.
669.87 -30.3847 0.
610.696 -167.245 0.
551.522 -304.105 0.
223.416 -448.126 0.
252.921 -379.994 0.
282.426 -311.862 0.
734.9 -171.244 0.
697.791 -256.974 0.
249.795 -515.887 0.
226.247 -571.242 0.
202.698 -626.598 0.
375.667 -571.941 0.
393.901 -530.165 0.
412.136 -488.389 0.
313.206 -432.141 0.
391.85 -248.651 0.
470.493 -65.161 0.
596.514 -31.0207 0.
561.643 -111.428 0.
-538.008 -647.49 0.
668.023 -286.3 0.
585.908 -477.08 0.
387.423 -655.931 0.
448.462 -512.317 0.
509.5 -368.704 0.
395.098 -389.12 0.
351.588 -491.014 0.
308.078 -592.907 0.
189.135 -615.184 0.
232.932 -512.599 0.
276.73 -410.014 0.
589.967 -322.575 0.
557.448 -397.187 0.
163.06 -597.089 0.
253.317 -385.668 0.
343.574 -174.247 0.
383.245 -126.156 0.
262.308 -408.397 0.
141.371 -690.637 0.
163.7 -666.495 0.
267.657 -426.206 0.
371.614 -185.916 0.
665.59 -87.7403 0.
623.165 -187.876 0.
-218.624 -628.764 0.
37.9151 -492.583 0.
53.2536 -459.625 0.
2.94079 -467.461 0.
-15.5205 -510.173 0.
-33.9818 -552.885 0.
232.381 -442.615 0.
249.159 -404.711 0.
265.936 -366.807 0.
-92.5816 -501.184 0.
-85.4214 -484.836 0.
-78.2609 -468.488 0.
343.385 -231.243 0.
374.713 -156.719 0.
4.15571 -270.056 0.
-22.3387 -332.272 0.
-48.8329 -394.488 0.
180.899 -300.088 0.
222.432 -203.249 0.
263.965 -106.411 0.
148.187 -150.619 0.
118.958 -219.389 0.
89.7283 -288.159 0.
-156.029 -210.586 0.
-25.0757 93.9728 0.
43.4846 393.711 0.
390.744 479.207 0.
102.749 -194.307 0.
346.202 91.0173 0.
318.062 25.6185 0.
241.388 -152.628 0.
99.2174 -426.06 0.
133.982 -344.063 0.
131.564 -348.925 0.
95.6381 -492.857 0.
60.8637 -575.858 0.
313.176 11.3721 0.
395.406 547.282 0.
236.588 177.903 0.
130.678 14.836 0.
272.94 347.199 0.
169.064 105.322 0.
111.024 -266.819 0.
239.656 32.9486 0.
574.035 812.291 0.
458.125 67.4246 0.
331.838 -227.564 0.
884.296 1061.27 0.
622.521 431.398 0.
490.145 121.314 0.
1001.44 89.8449 0.
327.086 -166.459 0.
527.649 301.094 0.
618.891 197.137 0.
397.568 -317.652 0.
502.507 -71.1388 0.
743.229 76.1848 0.
908.45 462.522 0.
665.67 -102.95 0.
386.593 -229.49 0.
339.568 -339.205 0.
155.438 -768.857 0.
978.012 438.897 0.
822.761 77.1008 0.
412.628 -453.474 0.
388.712 -511.169 0.
623.561 34.8962 0.
793.304 379.804 0.
753.853 288.706 0.
742.328 262.8 0.
574.548 368.079 0.
699.08 658.66 0.
458.011 96.1382 0.
321.929 -186.92 0.
387.3 -34.228 0.
78.0963 -55.0816 0.
1072.31 477.839 0.
1043.79 409.84 0.
706.863 -19.4292 0.
653.552 -143.01 0.
499.145 -502.099 0.
418.249 -551.773 0.
566.526 -207.707 0.
940.668 663.418 0.
677.337 521.296 0.
618.18 382.598 0.
682.863 532.686 0.
549.287 -574.911 0.
771.627 -55.7856 0.
500.575 183.652 0.
550.079 299.893 0.
370.887 -117.49 0.
220.205 -305.086 0.
342.529 -19.6022 0.
291.883 -137.62 0.
248.713 -332.473 0.
363.883 -64.9474 0.
582.174 443.375 0.
746.363 267.269 0.
504.196 -298.498 0.
198.56 81.2607 0.
493.594 30.9806 0.
610.479 303.792 0.
364.884 681.587 0.
19.9582 -121.797 0.
-217.134 -673.301 0.
220.49 -304.46 0.
619.062 625.36 0.
286.052 -151.928 0.
85.0845 35.8409 0.
164.697 222.372 0.
184.105 268.39 0.
696.314 168.5 0.
694.811 165.485 0.
-31.1438 29.2294 0.
146.004 442.285 0.
239.231 659.499 0.
608.486 556.658 0.
345.765 -55.3966 0.
493.942 291.208 0.
241.927 337.332 0.
119.357 51.4556 0.
545.548 1046.23 0.
-68.7184 54.0706 0.
248.623 798.069 0.
306.992 157.464 0.
78.2429 -34.1724 0.
12.9889 -187.631 0.
173.88 -234.981 0.
129.429 -339.64 0.
84.9771 -444.3 0.
64.2201 -490.23 0.
80.1066 -452.75 0.
95.9929 -415.269 0.
-25.668 -429.223 0.
-2.91229 -376.896 0.
19.8434 -324.568 0.
237.018 -173.899 0.
268.343 -100.654 0.
143.816 -109.077 0.
103.655 -203.287 0.
63.4942 -297.497 0.
63.5878 -317.184 0.
116.999 -192.51 0.
170.41 -67.8353 0.
518.15 101.4 0.
489.677 35.1226 0.
461.203 -31.1545 0.
260.004 -129.774 0.
260.53 -128.146 0.
1051.8 212.498 0.
376.112 -185.127 0.
317.849 -320.938 0.
378.109 -389.084 0.
365.286 -417.52 0.
352.463 -445.955 0.
459.557 -431.164 0.
435.663 -487.605 0.
411.768 -544.046 0.
180.179 -628.692 0.
202.593 -575.243 0.
225.007 -521.794 0.
604.652 -407.15 0.
574.934 -477.23 0.
363.681 -608.196 0.
416.839 -483.624 0.
469.997 -359.052 0.
482.812 -267.766 0.
509.978 -204.289 0.
537.143 -140.813 0.
361.934 -186.282 0.
369.226 -168.903 0.
376.518 -151.525 0.
401.946 -158.706 0.
386.903 -194.426 0.
395.862 -220.472 0.
895.488 -108.83 0.
842.252 -234.405 0.
466.186 -456.091 0.
512.887 -348.208 0.
559.587 -240.326 0.
425.341 -248.362 0.
427.31 -243.93 0.
429.28 -239.498 0.
401.19 -291.828 0.
368.601 -367.149 0.
336.012 -442.47 0.
560.351 -343.37 0.
566.463 -329.906 0.
171.286 -484.463 0.
197.776 -423.845 0.
224.266 -363.227 0.
321.818 -275.104 0.
339.348 -234.538 0.
356.878 -193.973 0.
338.693 -208.598 0.
322.696 -247.298 0.
306.699 -285.998 0.
458.831 -249.705 0.
443.779 -285.026 0.
-161.659 -570.489 0.
245.338 -298.32 0.
296.606 -177.754 0.
-13.9513 -237.609 0.
-14.8642 -238.867 0.
-15.7772 -240.125 0.
313.538 -141.573 0.
264.51 -254.732 0.
215.481 -367.892 0.
88.0756 -388.41 0.
137.8 -271.47 0.
187.524 -154.53 0.
411.672 -204.024 0.
320.303 -417.815 0.
-235.793 -773.141 0.
-95.3026 -445.071 0.
45.1877 -117.002 0.
536.61 207.635 0.
447.509 0.406458 0.
358.408 -206.822 0.
-332.657 -522.972 0.
-285.364 -411.828 0.
-238.071 -300.684 0.
-219.315 -443.484 0.
-334.109 -709.294 0.
-8.85958 52.1173 0.
-21.2292 -45.3901 0.
-86.5364 -198.744 0.
152.054 -213.16 0.
107.608 -317.871 0.
63.162 -422.582 0.
72.3251 -455.354 0.
88.3571 -418.058 0.
104.389 -380.761 0.
-190.925 -468.389 0.
-168.223 -416.242 0.
-145.522 -364.096 0.
435.879 -57.2349 0.
467.232 16.0118 0.
242.227 -35.5061 0.
202.229 -129.848 0.
162.231 -224.189 0.
47.8663 -291.922 0.
101.322 -167.311 0.
154.778 -42.6989 0.
589.505 162.82 0.
561.164 96.4065 0.
532.823 29.9929 0.
126.519 -155.518 0.
127.091 -153.954 0.
10.7658 -202.709 0.
459.432 -117.985 0.
401.178 -253.859 0.
408.001 -344.712 0.
395.029 -373.17 0.
382.057 -401.627 0.
395.657 -427.044 0.
371.747 -483.483 0.
347.838 -539.922 0.
152.295 -609.521 0.
174.65 -556.178 0.
197.004 -502.835 0.
608.8 -373.346 0.
579.087 -443.368 0.
401.24 -561.211 0.
454.362 -436.634 0.
507.484 -312.058 0.
460.273 -245.636 0.
487.458 -182.133 0.
514.642 -118.631 0.
409.437 -134.012 0.
416.741 -116.559 0.
424.046 -99.106 0.
502.473 -84.7741 0.
487.117 -120.212 0.
-710.753 -663.006 0.
1007.47 -29.1413 0.
954.332 -154.78 0.
416.977 -445.858 0.
463.921 -338.186 0.
510.866 -230.514 0.
293.437 -273.286 0.
295.612 -269.033 0.
297.787 -264.781 0.
503.288 -216.561 0.
471.001 -291.946 0.
438.714 -367.332 0.
469.906 -350.627 0.
476.243 -337.403 0.
136.922 -466.858 0.
163.444 -406.287 0.
189.967 -345.716 0.
448.175 -189.578 0.
465.666 -148.973 0.
483.156 -108.367 0.
400.706 -150.748 0.
384.723 -189.493 0.
368.739 -228.237 0.
393.986 -246.02 0.
378.89 -281.239 0.
-217.79 -563.201 0.
130.01 -316.742 0.
181.565 -196.323 0.
20.3321 -191.206 0.
19.4889 -192.312 0.
18.6457 -193.419 0.
358.217 -90.2782 0.
309.233 -203.436 0.
260.248 -316.594 0.
330.957 -253.373 0.
380.555 -136.217 0.
430.152 -19.0617 0.
276.116 -230.841 0.
185.001 -444.728 0.
-52.0979 -663.688 0.
88.4463 -335.552 0.
228.99 -7.41685 0.
648.57 287.492 0.
559.416 80.3299 0.
470.263 -126.832 0.
-568.13 -592.762 0.
-520.719 -481.651 0.
-473.308 -370.541 0.
-126.671 -372.935 0.
-241.317 -638.447 0.
-425.485 -245.15 0.
-63.6161 -134.138 0.
-56.6901 -118.435 0.
229.932 12.6603 0.
228.722 10.128 0.
227.511 7.59574 0.
197.239 -31.9172 0.
166.58 -103.002 0.
135.92 -174.086 0.
-127.738 -341.562 0.
-156.259 -407.604 0.
-184.78 -473.646 0.
343.162 -259.369 0.
341.362 -263.63 0.
173.97 -325.753 0.
227.933 -199.494 0.
281.895 -73.2355 0.
131.285 -169.322 0.
-32.091 -550.761 0.
-195.467 -932.2 0.
169.649 -836.825 0.
247.406 -655.493 0.
325.164 -474.161 0.
-6.40688 -549.725 0.
17.1986 -494.566 0.
225.991 -359.897 0.
381.649 -237.547 0.
410.087 -170.365 0.
376.259 -176.68 0.
278.915 -405.072 0.
181.572 -633.465 0.
256.627 -644.785 0.
335.448 -460.836 0.
414.27 -276.886 0.
329.745 -306.395 0.
294.414 -389.653 0.
259.083 -472.912 0.
644.149 -217.464 0.
703.436 -79.4822 0.
583.212 -51.5256 0.
479.444 -293.123 0.
375.676 -534.721 0.
333.632 -657.638 0.
377.909 -554.081 0.
422.187 -450.525 0.
218.605 -469.576 0.
247.226 -403.574 0.
275.847 -337.571 0.
598.541 -140.615 0.
629.943 -67.6295 0.
-1220.02 -801.299 0.
1109.92 218.092 0.
1120.42 243.644 0.
520.039 -12.5696 0.
487.175 -88.3914 0.
454.31 -164.213 0.
262.754 -304.262 0.
235.123 -368.984 0.
207.493 -433.705 0.
403.973 -332.593 0.
429.167 -273.999 0.
454.361 -215.405 0.
604.844 -61.3858 0.
655.11 56.7332 0.
368.147 -3.68335 0.
263.314 -248.217 0.
158.481 -492.751 0.
281.42 -534.621 0.
340.172 -397.902 0.
398.923 -261.183 0.
355.985 -218.765 0.
364.46 -198.338 0.
372.935 -177.911 0.
398.13 -249.111 0.
343.724 -375.276 0.
254.083 -511.636 0.
33.4079 -518.307 0.
79.3131 -410.031 0.
39.225 -320.252 0.
125.09 -121.624 0.
210.954 77.0056 0.
489.946 207.399 0.
402.282 2.25797 0.
314.618 -202.883 0.
296.444 -333.133 0.
240.094 -463.808 0.
183.743 -594.482 0.
139.377 -373.984 0.
284.626 -33.7172 0.
335.766 218.912 0.
288.211 109.412 0.
240.656 -0.0885375 0.
518.441 50.7681 0.
503.32 14.5729 0.
488.2 -21.6222 0.
-481.87 -414.839 0.
-448.765 -337.532 0.
-415.661 -260.225 0.
40.9291 -149.769 0.
-24.0547 -303.489 0.
-1238.51 -561.785 0.
53.2087 -52.8284 0.
60.2362 -37.191 0.
237.423 48.0325 0.
236.273 45.3461 0.
235.122 42.6596 0.
86.7736 -47.5881 0.
56.1389 -118.717 0.
25.5042 -189.846 0.
83.197 -219.792 0.
54.7044 -285.944 0.
26.212 -352.096 0.
169.484 -302.041 0.
167.649 -306.318 0.
245.076 -264.219 0.
298.904 -137.91 0.
352.732 -11.6014 0.
252.38 -86.3517 0.
88.946 -467.743 0.
-74.488 -849.134 0.
152.353 -812.97 0.
230.295 -631.844 0.
308.237 -450.718 0.
243.649 -411.266 0.
267.201 -356.066 0.
715.31 -118.792 0.
272.537 -252.438 0.
300.911 -185.321 0.
131.646 -250.552 0.
34.2131 -478.779 0.
-63.22 -707.006 0.
244.578 -618.684 0.
323.34 -434.695 0.
402.102 -250.705 0.
510.972 -197.275 0.
475.473 -280.493 0.
439.973 -363.711 0.
598.447 -205.591 0.
657.863 -67.8222 0.
486.178 -61.2009 0.
382.531 -302.748 0.
278.884 -544.295 0.
508.073 -551.346 0.
552.235 -447.741 0.
596.398 -344.137 0.
89.6483 -493.497 0.
118.376 -427.598 0.
147.104 -361.7 0.
820.734 -14.3063 0.
852.145 58.7571 0.
-148.445 -310.73 0.
1019.91 211.128 0.
1030.56 236.759 0.
398.852 -32.5053 0.
366.254 -108.514 0.
333.656 -184.522 0.
380.624 -222.173 0.
352.98 -286.895 0.
325.335 -351.617 0.
217.388 -380.782 0.
242.543 -322.033 0.
267.699 -263.284 0.
753.918 33.2832 0.
804.076 151.562 0.
512.804 89.5727 0.
407.828 -154.894 0.
302.852 -399.36 0.
150.12 -559.53 0.
208.879 -422.936 0.
267.637 -286.342 0.
289.662 -216.243 0.
298.21 -195.98 0.
306.759 -175.716 0.
509.869 -168.748 0.
455.667 -295.044 0.
659.328 -307.266 0.
152.115 -436.28 0.
197.875 -327.695 0.
223.056 -209.87 0.
308.782 -10.9609 0.
394.508 187.948 0.
490.957 238.943 0.
403.397 33.7525 0.
315.838 -171.438 0.
88.0323 -391.971 0.
31.5804 -522.725 0.
-24.8716 -653.478 0.
115.798 -352.642 0.
261.227 -12.5839 0.
209.93 196.379 0.
162.401 86.8466 0.
114.871 -22.686 0.
378.041 21.8704 0.
362.767 -14.0517 0.
347.492 -49.9737 0.
-202.466 -263.781 0.
-169.391 -186.339 0.
-136.316 -108.897 0.
151.246 -71.3735 0.
86.055 -224.448 0.
-130.877 76.2309 0.
337.821 432.518 0.
230.433 183.563 0.
11.9639 -457.913 0.
40.5988 -390.387 0.
231.992 56.5721 0.
17.8243 23.1443 0.
159.715 355.121 0.
136.713 302.26 0.
580.743 574.511 0.
616.931 657.866 0.
459.497 289.428 0.
261.484 271.708 0.
108.698 -83.9396 0.
578.931 410.663 0.
453.754 120.193 0.
513.008 260.167 0.
327.94 -108.756 0.
523.657 346.826 0.
461.317 200.466 0.
313.932 -373.818 0.
43.151 -1006.18 0.
442.54 -75.1708 0.
706.876 226.673 0.
491.92 -274.134 0.
255.881 -685.363 0.
182.661 -232.049 0.
243.913 -89.87 0.
149.783 283.997 0.
171.325 334.022 0.
69.7062 96.6881 0.
553.142 156.117 0.
536.681 116.66 0.
450.27 -85.899 0.
633.715 -226.124 0.
618.102 -261.942 0.
691.537 -89.9124 0.
675.342 93.634 0.
578.4 -133.641 0.
232.562 -435.515 0.
391.689 -64.7868 0.
503.559 195.751 0.
950.604 186.347 0.
764.517 -247.727 0.
857.892 -29.7621 0.
216.285 78.8956 0.
172.242 -25.4026 0.
287.38 241.727 0.
1423.84 998.167 0.
1481.92 1133.69 0.
406.02 266.581 0.
1044.65 477.658 0.
1113.77 639.322 0.
469.282 393.951 0.
261.206 -91.9266 0.
191.464 -255.033 0.
592.678 77.1384 0.
732.654 404.905 0.
795.317 552.321 0.
414.852 463.733 0.
312.957 225.955 0.
249.006 76.7373 0.
902.288 132.796 0.
719.868 -293.625 0.
404.817 -404.339 0.
716.836 324.56 0.
1046.98 1095.85 0.
787.972 1203.36 0.
448.812 410.766 0.
279.989 15.7696 0.
334.517 42.427 0.
387.42 165.955 0.
506.194 443.087 0.
868.635 489.582 0.
639.805 -47.0335 0.
1218.43 310.864 0.
503.245 193.196 0.
658.681 557.144 0.
602.506 363.318 0.
366.591 -187.964 0.
395.051 -122.039 0.
345.298 -75.3441 0.
340.676 -85.9039 0.
228.646 -347.4 0.
247.8 409.27 0.
323.41 585.046 0.
153.085 186.795 0.
320.796 200.063 0.
407.287 402.165 0.
159.435 344.513 0.
-92.9864 -243.553 0.
-147.72 -370.285 0.
53.4837 -441.866 0.
29.457 -497.929 0.
268.804 60.7366 0.
372.619 580.5 0.
319.158 456.083 0.
233.951 257.191 0.
336.481 190.551 0.
310.078 128.92 0.
699.624 56.0576 0.
36.6919 -164.521 0.
48.6541 -134.493 0.
118.93 -57.1916 0.
189.864 108.287 0.
260.798 273.765 0.
183.043 272.179 0.
126.921 140.766 0.
70.7978 9.35301 0.
289.137 8.31562 0.
243.066 -98.2683 0.
196.996 -204.852 0.
62.2257 -314.786 0.
37.0636 -372.776 0.
280.423 -312.459 0.
274.771 -325.528 0.
269.119 -338.597 0.
426.478 -230.318 0.
503.084 -52.1361 0.
579.691 126.046 0.
405.262 131.125 0.
417.611 161.795 0.
429.96 192.465 0.
485.095 144.949 0.
432.527 22.1581 0.
227.59 -166.63 0.
333.526 -157.648 0.
316.01 -200.173 0.
-22.8949 -355.435 0.
21.9182 -250.704 0.
66.7312 -145.973 0.
476.721 28.3074 0.
415.458 -116 0.
354.195 -260.308 0.
565.128 -210.577 0.
566.168 -208.701 0.
567.208 -206.825 0.
599.229 -242.697 0.
570.17 -311.551 0.
235.922 -490.208 0.
316.428 -302.85 0.
396.934 -115.491 0.
544.594 34.5554 0.
519.568 -23.7486 0.
494.542 -82.0526 0.
328.412 -300.694 0.
209.755 -577.313 0.
91.0982 -853.932 0.
641.028 -525.517 0.
738.105 -298.798 0.
1003.46 0.0754158 0.
780.168 -84.8017 0.
785.883 -71.5964 0.
312.812 -262.824 0.
316.21 -255.101 0.
319.608 -247.378 0.
294.909 -261.007 0.
289.689 -272.744 0.
284.469 -284.481 0.
62.1424 -408.335 0.
41.4537 -455.955 0.
20.7651 -503.576 0.
706.785 -247.631 0.
686.955 -295.18 0.
316.867 -477.543 0.
363.712 -367.479 0.
410.557 -257.416 0.
265.416 -240.118 0.
295.095 -170.531 0.
324.775 -100.945 0.
305.269 -111.596 0.
281.444 -166.492 0.
257.62 -221.388 0.
682.221 45.7619 0.
744.717 190.326 0.
398.261 155.524 0.
381.363 56.0544 0.
333.863 -56.3879 0.
344.238 -145.083 0.
287.732 -277.059 0.
231.226 -409.035 0.
187.959 -436.237 0.
246.84 -297.595 0.
305.72 -158.953 0.
15.5187 -213.432 0.
41.2709 -152.271 0.
67.0231 -91.1114 0.
195.311 -60.5618 0.
177.779 -101.947 0.
-32.7482 -231.562 0.
-74.3013 -329.897 0.
-115.855 -428.232 0.
58.6587 -355.151 0.
132.813 -181.937 0.
206.967 -8.72393 0.
226.792 40.1445 0.
209.465 -1.54268 0.
192.137 -43.23 0.
23.8599 44.0539 0.
134.922 301.541 0.
1082.51 251.045 0.
-4.15083 -150.682 0.
7.92131 -120.806 0.
55.2539 -52.7785 0.
126.178 112.693 0.
197.102 278.164 0.
272.959 342.32 0.
216.976 210.742 0.
160.992 79.1651 0.
245.453 20.6926 0.
199.171 -85.6535 0.
152.89 -192 0.
140.672 -249.582 0.
115.696 -307.697 0.
313.208 -267.021 0.
307.503 -280.07 0.
301.799 -293.118 0.
627.766 -112.649 0.
704.343 65.5355 0.
780.92 243.72 0.
265.149 102.878 0.
277.624 133.418 0.
290.099 163.958 0.
273.73 85.2828 0.
221.144 -37.4269 0.
-123.134 -285.747 0.
497.254 -56.2499 0.
479.745 -98.6955 0.
117.484 -263.92 0.
162.192 -159.107 0.
206.9 -54.2951 0.
466.423 55.1739 0.
405.19 -89.1591 0.
343.957 -233.492 0.
490.503 -210.772 0.
491.761 -209.204 0.
493.019 -207.636 0.
697.566 -169.129 0.
668.479 -238.088 0.
285.979 -436.606 0.
366.531 -249.169 0.
447.083 -61.7322 0.
145.62 -105.807 0.
120.381 -163.993 0.
95.1424 -222.179 0.
680.867 -117.723 0.
562.31 -394.602 0.
443.752 -671.482 0.
500.726 -553.968 0.
597.9 -327.417 0.
482.598 -190.989 0.
766.076 -58.6206 0.
771.775 -45.2749 0.
481.769 -159.667 0.
485.222 -151.944 0.
488.675 -144.221 0.
125.049 -302.497 0.
119.997 -314.191 0.
114.945 -325.885 0.
103.542 -358.831 0.
82.9064 -406.581 0.
62.2706 -454.331 0.
682.03 -226.766 0.
662.071 -274.146 0.
263.904 -468.419 0.
310.963 -358.569 0.
358.023 -248.719 0.
398.322 -151.767 0.
428.022 -82.2086 0.
457.722 -12.6502 0.
364.897 -54.685 0.
341.057 -109.614 0.
317.217 -164.543 0.
700.233 84.5594 0.
762.488 229.245 0.
349.699 165.733 0.
322.502 62.3567 0.
274.858 -49.8874 0.
312.084 -127.594 0.
255.472 -259.446 0.
198.859 -391.298 0.
200.176 -400.22 0.
259.225 -261.63 0.
318.274 -123.039 0.
72.5211 -157.626 0.
98.3462 -96.5288 0.
124.171 -35.4321 0.
195.273 -28.378 0.
177.654 -69.6582 0.
51.9261 -164.067 0.
10.1039 -262.25 0.
-31.7188 -360.433 0.
37.2627 -333.835 0.
111.315 -160.599 0.
185.367 12.6362 0.
346.819 123.501 0.
329.675 81.7194 0.
312.531 39.9376 0.
-264.363 -48.6254 0.
-153.095 208.726 0.
458.295 -280.21 0.
-121.012 -438.55 0.
-71.8084 -324.351 0.
-59.6995 -245.835 0.
-68.7533 -266.582 0.
-77.8069 -287.33 0.
50.9686 -225.445 0.
73.6215 -172.797 0.
96.2742 -120.15 0.
188.517 -66.6324 0.
187.1 -71.5236 0.
185.683 -76.415 0.
225.184 -153.707 0.
168.763 -285.185 0.
250.649 -355.398 0.
205.971 -459.403 0.
161.293 -563.408 0.
510.715 -403.292 0.
622.446 -140.885 0.
734.177 121.522 0.
183.47 -29.6191 0.
171.686 -57.3663 0.
159.903 -85.1136 0.
84.5272 -221.956 0.
16.8991 -379.551 0.
-140.587 -575.097 0.
421.381 -296.852 0.
441.091 -249.63 0.
166.207 -325.944 0.
193.311 -262.644 0.
220.416 -199.343 0.
390.648 -87.8737 0.
402.054 -60.9004 0.
413.461 -33.9273 0.
540.543 26.8951 0.
540.126 26.2714 0.
539.709 25.6477 0.
883.795 189.219 0.
894.52 214.678 0.
442.126 34.3512 0.
418.929 -19.3744 0.
395.731 -73.1001 0.
11.2836 -286.065 0.
-21.5098 -362.999 0.
-54.303 -439.933 0.
716.651 -116.253 0.
739.162 -63.4745 0.
761.672 -10.6957 0.
639.599 4.70027 0.
678.318 95.2396 0.
257.472 -12.2247 0.
853.097 189.215 0.
825.188 123.545 0.
613.112 2.99718 0.
646.603 81.6479 0.
680.093 160.299 0.
212.713 -25.4576 0.
188.085 -82.8665 0.
163.456 -140.275 0.
230.988 -138.552 0.
223.218 -157.245 0.
215.447 -175.938 0.
709.975 -35.8472 0.
669.701 -131.451 0.
280.045 -348.78 0.
356.56 -170.609 0.
433.075 7.56274 0.
525.801 73.6821 0.
421.782 -169.417 0.
317.763 -412.516 0.
200.67 -466.95 0.
276.508 -289.795 0.
352.346 -112.64 0.
678.319 20.7686 0.
653.373 -37.0605 0.
512.834 -142.089 0.
218.437 -202.311 0.
252.648 -122.006 0.
359.784 -33.6066 0.
347.657 -61.1259 0.
335.53 -88.6453 0.
286.156 -78.1933 0.
334.428 34.7368 0.
382.7 147.667 0.
159.54 63.9723 0.
144.127 27.8788 0.
128.714 -8.2146 0.
283.818 52.5082 0.
284.318 54.512 0.
124.752 -0.218477 0.
167.469 99.8226 0.
210.186 199.863 0.
265.151 269.227 0.
254.267 242.499 0.
243.383 215.769 0.
345.346 193.526 0.
293.909 74.3297 0.
242.473 -44.8668 0.
-329.547 -231.917 0.
-278.969 -111.717 0.
-424.14 -629.439 0.
-42.9349 -373.746 0.
6.22836 -259.519 0.
-43.5194 -207.678 0.
-52.5519 -228.418 0.
-61.5844 -249.157 0.
51.0126 -193.433 0.
73.7518 -140.89 0.
96.4909 -88.3465 0.
218.072 -22.682 0.
216.666 -27.4881 0.
215.261 -32.2943 0.
288.22 -95.0753 0.
231.947 -226.49 0.
190.614 -350.51 0.
145.936 -454.54 0.
101.257 -558.57 0.
365.072 -433.119 0.
476.827 -170.961 0.
588.583 91.1955 0.
298.703 51.0515 0.
286.834 23.3103 0.
274.964 -4.43099 0.
178.771 -150.435 0.
111.201 -308.087 0.
259.186 -372.792 0.
362.47 -290.691 0.
382.083 -243.355 0.
244.328 -260.645 0.
271.503 -197.305 0.
298.678 -133.964 0.
400.137 -52.0294 0.
411.647 -25.1198 0.
423.157 1.78958 0.
522.799 50.6317 0.
522.59 49.8621 0.
522.381 49.0925 0.
902.007 228.479 0.
912.86 253.822 0.
310.376 10.3764 0.
287.331 -43.388 0.
264.286 -97.1523 0.
300.504 -131.771 0.
267.737 -208.632 0.
234.97 -285.492 0.
483.573 -184.427 0.
506.059 -131.62 0.
528.545 -78.8121 0.
565.777 4.63878 0.
604.668 95.1008 0.
835.002 266.95 0.
854.657 221.128 0.
826.769 155.374 0.
625.702 40.0712 0.
659.329 118.568 0.
692.956 197.065 0.
336.797 59.3819 0.
312.435 1.84154 0.
288.073 -55.6988 0.
308.542 -73.6343 0.
300.741 -92.1958 0.
292.94 -110.757 0.
636.653 -35.3094 0.
596.338 -130.893 0.
281.169 -317.01 0.
357.644 -138.936 0.
434.118 39.1379 0.
503.858 95.96 0.
399.819 -147.15 0.
295.78 -390.26 0.
208.759 -432.12 0.
284.477 -254.886 0.
360.195 -77.6521 0.
703.457 63.1165 0.
678.575 5.14872 0.
449.325 -137.983 0.
336.24 -120.759 0.
370.526 -40.5046 0.
436.131 30.8212 0.
424.183 3.19664 0.
412.236 -24.4281 0.
181.374 -91.3133 0.
229.7 21.5547 0.
278.025 134.423 0.
116.556 76.5085 0.
101.016 40.532 0.
85.4761 4.55569 0.
445.544 153.663 0.
446.295 155.386 0.
85.1421 14.5846 0.
128.166 114.379 0.
171.191 214.172 0.
246.834 292.858 0.
236.064 266.128 0.
225.294 239.399 0.
188.863 157.95 0.
137.616 38.6396 0.
86.3703 -80.6709 0.
7.28176 -54.9153 0.
58.3492 64.9182 0.
28.9432 377.133 0.
-132.962 -695.074 0.
12.0839 -357.691 0.
-134.716 -419.036 0.
86.0915 96.3465 0.
137.951 217.487 0.
120.899 -5.03576 0.
151.026 67.3274 0.
119.719 -4.6256 0.
342.764 242.106 0.
480.227 564.649 0.
490.321 589.974 0.
625.58 608.14 0.
476.937 261.887 0.
216.005 -151.982 0.
472.321 447.191 0.
310.391 70.7319 0.
109.873 -721.132 0.
313.267 -246.411 0.
362.278 -132.478 0.
528.618 400.242 0.
617.107 606.481 0.
442.797 199.389 0.
240.888 -156.458 0.
222.382 -201.128 0.
40.5939 -324.466 0.
722.535 689.444 0.
353.78 -170.234 0.
436.373 74.6913 0.
544.934 326.965 0.
464.735 138.874 0.
501.019 193.796 0.
631.339 497.451 0.
365.719 -122.606 0.
422.365 -118.5 0.
252.041 -517.223 0.
9.87898 -1083.79 0.
640.671 -382.993 0.
905.841 234.804 0.
402.632 514.194 0.
155.117 -63.5988 0.
-83.6066 -620.913 0.
372.748 -483.387 0.
725.137 336.978 0.
876.109 687.599 0.
500.209 329.817 0.
413.99 127.486 0.
380.281 47.8345 0.
484.659 -15.6542 0.
354.996 -319.533 0.
-78.8307 152.153 0.
932.67 436.383 0.
705.78 -93.7348 0.
557.297 -110.858 0.
513.482 -213.466 0.
377.358 -531.608 0.
-20.1565 -976.619 0.
170.852 -531.79 0.
181.431 -507.938 0.
75.3275 -730.461 0.
-144.82 -1244.38 0.
51.6238 -786.374 0.
390.456 -437.947 0.
588.141 24.8832 0.
587.208 424.36 0.
294.52 -258.525 0.
157.87 -576.965 0.
192.806 -556.604 0.
394.081 -86.3126 0.
362.059 -160.311 0.
315.637 -173.329 0.
234.588 -363.192 0.
166.809 -521.723 0.
866.724 433.182 0.
798.231 272.656 0.
-1318.33 -795.595 0.
742.588 626.95 0.
179.691 -685.153 0.
560.002 206.438 0.
850.923 886.939 0.
-32.5015 -1173.16 0.
-270.864 -917.432 0.
328.071 479.921 0.
444.316 750.525 0.
-12.8138 -112.384 0.
29.8841 -12.4183 0.
183.903 347.291 0.
602.854 246.735 0.
541.988 103.984 0.
-79.3102 -260.454 0.
-113.321 -339.413 0.
-225.077 -600.137 0.
-109.066 -477.991 0.
-160.529 -596.62 0.
48.8071 -106.351 0.
-0.305959 49.0909 0.
42.0792 148.431 0.
-22.2017 -1.3197 0.
0.128233 -673.357 0.
267.204 -50.0794 0.
-91.3176 -102.985 0.
137.197 -5.45762 0.
151.796 27.7762 0.
88.8653 28.3109 0.
110.377 78.6817 0.
131.888 129.052 0.
215.222 163.742 0.
182.605 89.6021 0.
149.988 15.4626 0.
175.553 -92.8044 0.
97.1564 -273.396 0.
18.7599 -453.988 0.
159.217 -263.783 0.
245.895 -59.9849 0.
271.028 91.1544 0.
201.261 -71.2813 0.
131.494 -233.717 0.
343.551 -194.278 0.
406.408 -47.0084 0.
469.265 100.261 0.
488.759 147.73 0.
472.873 109.947 0.
456.987 72.1632 0.
254.017 -42.5041 0.
238.282 -78.1621 0.
47.9962 -189.98 0.
521.654 -40.5648 0.
493.652 -106.036 0.
383.163 -191.482 0.
388.44 -177.803 0.
393.716 -164.123 0.
389.766 -218.4 0.
317.424 -386.732 0.
245.082 -555.065 0.
120.473 -559.099 0.
196.035 -384.033 0.
271.597 -208.966 0.
669.598 90.7965 0.
737.994 249.364 0.
330.693 196.636 0.
361.023 266.252 0.
391.353 335.869 0.
693.069 449.059 0.
609.413 251.905 0.
525.757 54.7504 0.
577.929 57.7231 0.
628.648 174.027 0.
679.367 290.332 0.
475.103 133.381 0.
415.79 -7.94745 0.
-1558.57 -969.751 0.
522.12 -84.2161 0.
518.04 -92.8662 0.
602.716 -76.9672 0.
559.924 -177.41 0.
517.133 -277.852 0.
310.107 -380.099 0.
350.414 -285.511 0.
390.72 -190.922 0.
175.213 -196.184 0.
221.467 -87.9628 0.
267.72 20.2586 0.
590.489 19.3013 0.
503.094 -183.065 0.
251.606 -436.437 0.
252.471 -433.089 0.
253.337 -429.742 0.
274.656 -291.383 0.
472.512 170.865 0.
670.367 633.113 0.
655.217 688.387 0.
557.198 458.86 0.
459.18 229.333 0.
903.562 321.844 0.
863.602 229.17 0.
250.927 -107.111 0.
539.303 121.704 0.
595.492 252.681 0.
491.096 286.12 0.
478.523 256.037 0.
465.95 225.955 0.
213.392 85.0797 0.
190.913 32.1437 0.
168.434 -20.7923 0.
9.88262 -165.772 0.
-36.372 -273.778 0.
-82.6267 -381.783 0.
358.012 -76.5184 0.
426.222 83.6215 0.
33.3199 0.674369 0.
-68.1732 -235.008 0.
-169.666 -470.69 0.
-208.152 -519.851 0.
-65.4026 -185.19 0.
77.3469 149.47 0.
-100.752 171.294 0.
-121.477 124.163 0.
-142.201 77.0324 0.
245.153 347.562 0.
320.463 524.534 0.
139.946 27.5109 0.
124.647 21.0328 0.
139.272 54.2162 0.
142.819 82.7845 0.
164.384 133.156 0.
185.95 183.528 0.
259.639 213.957 0.
227.115 139.798 0.
194.592 65.638 0.
163.542 -66.6057 0.
85.1816 -247.118 0.
6.82141 -427.63 0.
58.971 -275.664 0.
145.594 -71.6661 0.
230.531 105.184 0.
160.628 -57.2973 0.
90.7253 -219.778 0.
368.087 -152.446 0.
430.731 -4.99486 0.
493.375 142.456 0.
590.297 222.69 0.
574.254 184.953 0.
558.212 147.215 0.
226.425 -23.5269 0.
210.71 -58.9859 0.
779.669 154.711 0.
676.085 58.307 0.
647.878 -6.69358 0.
475.194 -121.939 0.
480.144 -107.882 0.
485.095 -93.8257 0.
486.628 -146.051 0.
414.304 -314.411 0.
341.981 -482.771 0.
-4.26728 -580.604 0.
71.523 -405.76 0.
147.313 -230.915 0.
471.59 37.7167 0.
540.258 196.34 0.
423.99 267.85 0.
454.634 337.653 0.
485.279 407.455 0.
615.071 447.666 0.
531.766 250.468 0.
448.461 53.2692 0.
830.911 197.309 0.
881.657 313.81 0.
932.403 430.311 0.
407.011 135.77 0.
347.797 -5.48654 0.
460.066 -72.3781 0.
306.493 -144.907 0.
302.453 -153.515 0.
655.126 -23.4617 0.
612.538 -123.933 0.
569.949 -224.404 0.
416.765 -303.001 0.
457.127 -208.194 0.
497.489 -113.387 0.
33.9545 -225.782 0.
80.2141 -117.538 0.
126.474 -9.2936 0.
612.963 61.4787 0.
526.047 -141.583 0.
311.037 -377.882 0.
312.292 -374.759 0.
313.546 -371.637 0.
250.515 -270.845 0.
448.331 191.375 0.
646.147 653.595 0.
637.432 712.233 0.
539.19 482.742 0.
440.949 253.252 0.
1026.32 407.168 0.
986.261 314.604 0.
480.551 22.9278 0.
568.172 163.794 0.
624.357 294.589 0.
385.021 273.105 0.
373.014 242.653 0.
361.006 212.201 0.
295.508 152.524 0.
272.989 99.6829 0.
250.469 46.8416 0.
81.537 -104.804 0.
35.1013 -212.693 0.
-11.3343 -320.581 0.
245.945 -91.76 0.
313.968 68.4534 0.
46.314 37.1682 0.
-55.1013 -198.493 0.
-156.516 -434.154 0.
-291.576 -524.74 0.
-148.524 -190.296 0.
-5.4709 144.148 0.
-273.703 129.52 0.
-294.261 82.3678 0.
-314.817 35.216 0.
26.7176 285.097 0.
101.829 462.569 0.
