# vtk DataFile Version 2.0
test grain
ASCII
DATASET UNSTRUCTURED_GRID
POINTS 5000 float
0.499905 0.00100108 0.
0.501906 0.001001 0.
0.503907 0.00100089 0.
0.505908 0.00100076 0.
0.507909 0.00100056 0.
0.50991 0.00100036 0.
0.511911 0.0010002 0.
0.513912 0.0010001 0.
0.515913 0.001 0.
0.517914 0.00100001 0.
0.519915 0.00100006 0.
0.521916 0.00100012 0.
0.523917 0.00100009 0.
0.525918 0.00100004 0.
0.527919 0.00100004 0.
0.529919 0.00100051 0.
0.53192 0.00100097 0.
0.53392 0.00100114 0.
0.53592 0.00100064 0.
0.537921 0.00100015 0.
0.539922 0.00100001 0.
0.541923 0.00100019 0.
0.543924 0.00100037 0.
0.545924 0.0010005 0.
0.547924 0.00100059 0.
0.549925 0.00100069 0.
0.551922 0.00100086 0.
0.55392 0.00100103 0.
0.555917 0.00100109 0.
0.557916 0.00100076 0.
0.559915 0.00100043 0.
0.561913 0.00100041 0.
0.563911 0.00100083 0.
0.565909 0.00100125 0.
0.567908 0.00100106 0.
0.569906 0.00100053 0.
0.571904 0.000999994 0.
0.5739 0.00100035 0.
0.575895 0.00100085 0.
0.57789 0.00100136 0.
0.579882 0.0010021 0.
0.581874 0.00100283 0.
0.583865 0.00100341 0.
0.585853 0.00100366 0.
0.587842 0.0010039 0.
0.589828 0.00100319 0.
0.591812 0.0010016 0.
0.593796 0.00100001 0.
0.595847 0.00100149 0.
0.597924 0.00100407 0.
0.600001 0.00100664 0.
0.602078 0.00100412 0.
0.604155 0.00100159 0.
0.606207 0.00100003 0.
0.608192 0.00100114 0.
0.610176 0.00100225 0.
0.612163 0.00100284 0.
0.614153 0.00100285 0.
0.616143 0.00100285 0.
0.618134 0.00100284 0.
0.620126 0.00100286 0.
0.622117 0.00100288 0.
0.62411 0.00100243 0.
0.626103 0.00100194 0.
0.628096 0.00100144 0.
0.630094 0.00100086 0.
0.632092 0.00100027 0.
0.634091 0.000999994 0.
0.636091 0.00100028 0.
0.63809 0.00100057 0.
0.64009 0.00100074 0.
0.642088 0.00100082 0.
0.644087 0.0010009 0.
0.646084 0.00100111 0.
0.648082 0.00100136 0.
0.650079 0.0010016 0.
0.652079 0.00100109 0.
0.654079 0.00100057 0.
0.656079 0.00100016 0.
0.65808 0.00100008 0.
0.660081 0.00100001 0.
0.662082 0.00100007 0.
0.664083 0.0010003 0.
0.666084 0.00100052 0.
0.668085 0.00100075 0.
0.670085 0.00100098 0.
0.672085 0.00100121 0.
0.674085 0.00100082 0.
0.676085 0.00100038 0.
0.678085 0.00100001 0.
0.680086 0.0010001 0.
0.682087 0.00100019 0.
0.684088 0.00100026 0.
0.686089 0.00100029 0.
0.68809 0.00100031 0.
0.690091 0.00100036 0.
0.692092 0.00100045 0.
0.694092 0.00100053 0.
0.696093 0.00100067 0.
0.698094 0.00100081 0.
0.499905 0.00300324 0.
0.501906 0.00300301 0.
0.503907 0.00300267 0.
0.505908 0.00300229 0.
0.507909 0.00300169 0.
0.50991 0.00300109 0.
0.511911 0.00300061 0.
0.513912 0.00300031 0.
0.515913 0.00300001 0.
0.517914 0.00300002 0.
0.519915 0.00300019 0.
0.521917 0.00300036 0.
0.523918 0.00300026 0.
0.525918 0.00300013 0.
0.527919 0.00300013 0.
0.529919 0.00300152 0.
0.531919 0.0030029 0.
0.533919 0.00300341 0.
0.535919 0.00300192 0.
0.537919 0.00300044 0.
0.539921 0.00300003 0.
0.541923 0.00300058 0.
0.543926 0.00300112 0.
0.545926 0.00300149 0.
0.547926 0.00300178 0.
0.549925 0.00300208 0.
0.551923 0.00300258 0.
0.55392 0.00300308 0.
0.555918 0.00300328 0.
0.557916 0.00300228 0.
0.559915 0.00300128 0.
0.561914 0.00300124 0.
0.563912 0.0030025 0.
0.565911 0.00300376 0.
0.567909 0.00300318 0.
0.569908 0.00300158 0.
0.571907 0.00299998 0.
0.573902 0.00300105 0.
0.575898 0.00300254 0.
0.577893 0.0030041 0.
0.579887 0.00300629 0.
0.581881 0.00300849 0.
0.583873 0.00301024 0.
0.585862 0.00301098 0.
0.587851 0.00301171 0.
0.58984 0.00300955 0.
0.591828 0.00300478 0.
0.593817 0.00300001 0.
0.595864 0.0030045 0.
0.597932 0.00301221 0.
0.600001 0.00301993 0.
0.60207 0.00301236 0.
0.604139 0.0030048 0.
0.606186 0.00300006 0.
0.608175 0.00300339 0.
0.610164 0.00300673 0.
0.612154 0.00300852 0.
0.614144 0.00300853 0.
0.616135 0.00300855 0.
0.618128 0.00300854 0.
0.620121 0.00300859 0.
0.622114 0.00300863 0.
0.624108 0.00300729 0.
0.626101 0.00300583 0.
0.628095 0.00300432 0.
0.630092 0.00300257 0.
0.63209 0.00300081 0.
0.634088 0.00299999 0.
0.636089 0.00300085 0.
0.638089 0.00300171 0.
0.640089 0.00300222 0.
0.642088 0.00300245 0.
0.644087 0.00300269 0.
0.646084 0.00300333 0.
0.648081 0.0030041 0.
0.650079 0.00300482 0.
0.652077 0.00300326 0.
0.654075 0.00300171 0.
0.656075 0.00300048 0.
0.658078 0.00300025 0.
0.660082 0.00300002 0.
0.662085 0.00300022 0.
0.664085 0.00300089 0.
0.666086 0.00300156 0.
0.668086 0.00300224 0.
0.670086 0.00300294 0.
0.672085 0.00300363 0.
0.674085 0.00300246 0.
0.676084 0.00300113 0.
0.678084 0.00300002 0.
0.680085 0.0030003 0.
0.682086 0.00300057 0.
0.684087 0.00300078 0.
0.686088 0.00300085 0.
0.688089 0.00300093 0.
0.69009 0.0030011 0.
0.692091 0.00300135 0.
0.694092 0.00300161 0.
0.696093 0.00300201 0.
0.698094 0.00300242 0.
0.499905 0.00500539 0.
0.501906 0.005005 0.
0.503907 0.00500445 0.
0.505909 0.00500383 0.
0.507909 0.00500282 0.
0.50991 0.00500182 0.
0.511911 0.00500102 0.
0.513912 0.00500052 0.
0.515913 0.00500003 0.
0.517914 0.00500003 0.
0.519916 0.00500031 0.
0.521917 0.0050006 0.
0.523918 0.00500044 0.
0.525919 0.00500021 0.
0.52792 0.00500021 0.
0.529919 0.00500252 0.
0.531919 0.00500484 0.
0.533919 0.00500568 0.
0.535918 0.00500321 0.
0.537918 0.00500074 0.
0.53992 0.00500005 0.
0.541924 0.00500096 0.
0.543928 0.00500187 0.
0.545928 0.00500249 0.
0.547927 0.00500297 0.
0.549926 0.00500346 0.
0.551923 0.00500429 0.
0.553921 0.00500514 0.
0.555919 0.00500545 0.
0.557917 0.00500379 0.
0.559915 0.00500212 0.
0.561914 0.00500206 0.
0.563913 0.00500417 0.
0.565912 0.00500628 0.
0.567911 0.0050053 0.
0.56991 0.00500264 0.
0.571909 0.00499997 0.
0.573905 0.00500175 0.
0.575901 0.00500423 0.
0.577897 0.00500683 0.
0.579892 0.00501049 0.
0.581887 0.00501414 0.
0.58388 0.00501704 0.
0.58587 0.00501827 0.
0.58786 0.00501951 0.
0.589852 0.00501587 0.
0.591845 0.00500791 0.
0.593838 0.00499997 0.
0.595881 0.00500755 0.
0.597941 0.0050204 0.
0.600001 0.00503333 0.
0.602061 0.00502064 0.
0.604122 0.00500804 0.
0.606165 0.00500006 0.
0.608158 0.00500561 0.
0.610151 0.00501119 0.
0.612144 0.00501417 0.
0.614135 0.0050142 0.
0.616127 0.00501422 0.
0.618121 0.00501424 0.
0.620116 0.00501431 0.
0.622111 0.0050144 0.
0.624105 0.00501215 0.
0.626099 0.00500971 0.
0.628093 0.00500721 0.
0.63009 0.00500428 0.
0.632087 0.00500135 0.
0.634085 0.00499999 0.
0.636087 0.00500142 0.
0.638088 0.00500286 0.
0.640088 0.00500369 0.
0.642088 0.00500408 0.
0.644087 0.00500448 0.
0.646084 0.00500555 0.
0.648081 0.00500682 0.
0.650078 0.00500803 0.
0.652075 0.00500544 0.
0.654071 0.00500286 0.
0.65607 0.0050008 0.
0.658077 0.00500042 0.
0.660083 0.00500004 0.
0.662087 0.00500038 0.
0.664088 0.00500149 0.
0.666088 0.00500261 0.
0.668087 0.00500373 0.
0.670086 0.00500489 0.
0.672085 0.00500605 0.
0.674084 0.0050041 0.
0.676084 0.00500188 0.
0.678083 0.00500004 0.
0.680084 0.00500049 0.
0.682085 0.00500094 0.
0.684086 0.00500131 0.
0.686087 0.00500142 0.
0.688088 0.00500153 0.
0.690089 0.00500183 0.
0.692091 0.00500226 0.
0.694092 0.00500269 0.
0.696093 0.00500335 0.
0.698094 0.00500403 0.
0.499907 0.0070073 0.
0.501908 0.00700678 0.
0.503909 0.00700624 0.
0.50591 0.0070057 0.
0.507911 0.00700507 0.
0.509912 0.00700445 0.
0.511912 0.00700424 0.
0.513913 0.00700459 0.
0.515914 0.00700494 0.
0.517916 0.0070051 0.
0.519917 0.00700517 0.
0.521918 0.00700524 0.
0.523918 0.00700547 0.
0.525919 0.00700572 0.
0.52792 0.00700605 0.
0.52992 0.00700749 0.
0.53192 0.00700894 0.
0.53392 0.00700994 0.
0.53592 0.00700985 0.
0.53792 0.00700977 0.
0.539922 0.00700952 0.
0.541924 0.00700915 0.
0.543927 0.00700879 0.
0.545927 0.00700873 0.
0.547926 0.00700876 0.
0.549926 0.00700879 0.
0.551924 0.00700924 0.
0.553923 0.00700971 0.
0.555921 0.00701 0.
0.55792 0.00700967 0.
0.559918 0.00700934 0.
0.561917 0.0070097 0.
0.563916 0.00701104 0.
0.565914 0.00701239 0.
0.567913 0.00701319 0.
0.569912 0.00701371 0.
0.571911 0.00701424 0.
0.573908 0.00701564 0.
0.575904 0.00701717 0.
0.5779 0.00701871 0.
0.579897 0.00702022 0.
0.581894 0.00702173 0.
0.58389 0.00702296 0.
0.585884 0.00702365 0.
0.587879 0.00702436 0.
0.589875 0.00701953 0.
0.591872 0.00700972 0.
0.59387 0.00699994 0.
0.595905 0.00701249 0.
0.597953 0.00703264 0.
0.6 0.00705291 0.
0.60205 0.00703261 0.
0.604099 0.00701244 0.
0.606135 0.00699967 0.
0.608133 0.00700824 0.
0.61013 0.00701684 0.
0.612126 0.00702132 0.
0.614121 0.00702126 0.
0.616116 0.00702119 0.
0.618112 0.00702103 0.
0.620108 0.00702086 0.
0.622104 0.0070207 0.
0.6241 0.00701827 0.
0.626095 0.00701568 0.
0.628091 0.00701347 0.
0.630089 0.00701363 0.
0.632086 0.0070138 0.
0.634085 0.0070136 0.
0.636085 0.00701269 0.
0.638085 0.00701179 0.
0.640085 0.00701138 0.
0.642084 0.00701136 0.
0.644084 0.00701133 0.
0.646082 0.0070115 0.
0.64808 0.00701174 0.
0.650078 0.00701199 0.
0.652076 0.00701212 0.
0.654075 0.00701225 0.
0.656074 0.00701265 0.
0.658078 0.00701387 0.
0.660081 0.0070151 0.
0.662083 0.00701478 0.
0.664083 0.00701273 0.
0.666084 0.00701068 0.
0.668084 0.00701008 0.
0.670084 0.00701012 0.
0.672084 0.00701017 0.
0.674084 0.00700822 0.
0.676084 0.00700611 0.
0.678084 0.00700427 0.
0.680084 0.00700408 0.
0.682085 0.0070039 0.
0.684086 0.00700393 0.
0.686087 0.00700424 0.
0.688087 0.00700455 0.
0.690088 0.00700482 0.
0.692089 0.00700507 0.
0.69409 0.00700531 0.
0.696091 0.00700628 0.
0.698092 0.00700741 0.
0.499909 0.00900911 0.
0.50191 0.00900855 0.
0.503911 0.00900804 0.
0.505911 0.00900756 0.
0.507912 0.00900731 0.
0.509913 0.00900708 0.
0.511914 0.00900746 0.
0.513915 0.00900865 0.
0.515916 0.00900985 0.
0.517917 0.00901017 0.
0.519918 0.00901002 0.
0.521918 0.00900988 0.
0.523919 0.0090105 0.
0.525919 0.00901122 0.
0.52792 0.00901189 0.
0.52992 0.00901246 0.
0.53192 0.00901304 0.
0.533921 0.00901419 0.
0.535922 0.00901649 0.
0.537923 0.00901879 0.
0.539924 0.00901898 0.
0.541925 0.00901734 0.
0.543925 0.00901571 0.
0.545926 0.00901499 0.
0.547926 0.00901455 0.
0.549926 0.00901411 0.
0.551925 0.00901418 0.
0.553924 0.00901427 0.
0.555923 0.00901455 0.
0.557922 0.00901556 0.
0.559921 0.00901656 0.
0.561919 0.00901733 0.
0.563918 0.00901791 0.
0.565917 0.00901849 0.
0.567916 0.00902108 0.
0.569915 0.00902478 0.
0.571914 0.0090285 0.
0.573911 0.00902953 0.
0.575907 0.00903012 0.
0.577904 0.00903058 0.
0.579902 0.00902994 0.
0.581901 0.00902931 0.
0.583899 0.00902888 0.
0.585898 0.00902904 0.
0.587898 0.0090292 0.
0.589898 0.00902315 0.
0.5919 0.00901149 0.
0.593901 0.00899985 0.
0.595929 0.00901755 0.
0.597964 0.00904495 0.
0.6 0.00907248 0.
0.602038 0.00904465 0.
0.604077 0.00901696 0.
0.606106 0.00899921 0.
0.608107 0.00901081 0.
0.610108 0.00902244 0.
0.612108 0.00902848 0.
0.614107 0.00902833 0.
0.616105 0.00902817 0.
0.618103 0.00902782 0.
0.6201 0.00902739 0.
0.622097 0.00902698 0.
0.624094 0.0090244 0.
0.626092 0.00902165 0.
0.628089 0.00901973 0.
0.630088 0.00902299 0.
0.632086 0.00902625 0.
0.634084 0.00902723 0.
0.636083 0.00902397 0.
0.638081 0.00902072 0.
0.640081 0.00901908 0.
0.642081 0.00901863 0.
0.644081 0.00901819 0.
0.64608 0.00901746 0.
0.648079 0.00901667 0.
0.650078 0.00901596 0.
0.652078 0.00901879 0.
0.654078 0.00902164 0.
0.656078 0.00902451 0.
0.658078 0.00902733 0.
0.660079 0.00903015 0.
0.662079 0.0090292 0.
0.664079 0.00902398 0.
0.66608 0.00901877 0.
0.66808 0.00901643 0.
0.670081 0.00901535 0.
0.672082 0.00901428 0.
0.674083 0.00901235 0.
0.676084 0.00901034 0.
0.678084 0.00900849 0.
0.680085 0.00900767 0.
0.682085 0.00900685 0.
0.684085 0.00900656 0.
0.686086 0.00900707 0.
0.688086 0.00900758 0.
0.690087 0.00900781 0.
0.692088 0.00900787 0.
0.694089 0.00900793 0.
0.696089 0.00900921 0.
0.698089 0.00901079 0.
0.499911 0.0110104 0.
0.501911 0.0110098 0.
0.503912 0.0110093 0.
0.505912 0.0110089 0.
0.507913 0.0110089 0.
0.509914 0.0110089 0.
0.511915 0.0110096 0.
0.513916 0.011011 0.
0.515917 0.0110124 0.
0.517918 0.0110127 0.
0.519918 0.0110125 0.
0.521919 0.0110123 0.
0.523919 0.0110131 0.
0.52592 0.011014 0.
0.52792 0.0110149 0.
0.529921 0.011015 0.
0.531922 0.0110151 0.
0.533922 0.0110162 0.
0.535924 0.0110193 0.
0.537925 0.0110225 0.
0.539925 0.0110229 0.
0.541925 0.011021 0.
0.543925 0.011019 0.
0.545926 0.011018 0.
0.547926 0.0110173 0.
0.549926 0.0110165 0.
0.551926 0.0110167 0.
0.553926 0.0110169 0.
0.555926 0.0110173 0.
0.557925 0.0110189 0.
0.559924 0.0110204 0.
0.561923 0.0110214 0.
0.563922 0.0110218 0.
0.565921 0.0110221 0.
0.56792 0.0110251 0.
0.569919 0.0110295 0.
0.571918 0.0110339 0.
0.573916 0.011035 0.
0.575914 0.0110356 0.
0.577912 0.011036 0.
0.579912 0.0110341 0.
0.581911 0.0110321 0.
0.583912 0.0110305 0.
0.585914 0.0110299 0.
0.587916 0.0110293 0.
0.589919 0.0110232 0.
0.591923 0.0110122 0.
0.593927 0.0110013 0.
0.595948 0.0110181 0.
0.597975 0.0110435 0.
0.600001 0.0110688 0.
0.602029 0.0110429 0.
0.604058 0.0110168 0.
0.60608 0.0109998 0.
0.608084 0.0110114 0.
0.610087 0.0110229 0.
0.61209 0.0110293 0.
0.614091 0.0110298 0.
0.616092 0.0110304 0.
0.618092 0.0110304 0.
0.62009 0.0110303 0.
0.622088 0.0110301 0.
0.624087 0.0110276 0.
0.626086 0.0110248 0.
0.628084 0.011023 0.
0.630084 0.0110273 0.
0.632083 0.0110315 0.
0.634081 0.0110329 0.
0.63608 0.011029 0.
0.638078 0.0110251 0.
0.640078 0.0110231 0.
0.642078 0.0110225 0.
0.644078 0.0110219 0.
0.646077 0.0110208 0.
0.648077 0.0110197 0.
0.650077 0.0110186 0.
0.652078 0.0110224 0.
0.654079 0.0110261 0.
0.656079 0.0110297 0.
0.658078 0.0110327 0.
0.660077 0.0110358 0.
0.662077 0.0110346 0.
0.664077 0.0110286 0.
0.666078 0.0110227 0.
0.668079 0.0110198 0.
0.67008 0.0110181 0.
0.672081 0.0110165 0.
0.674082 0.0110146 0.
0.676083 0.0110126 0.
0.678084 0.0110107 0.
0.680084 0.0110098 0.
0.682084 0.0110089 0.
0.684085 0.0110086 0.
0.686085 0.0110092 0.
0.688086 0.0110097 0.
0.690087 0.0110099 0.
0.692087 0.0110098 0.
0.694088 0.0110098 0.
0.696088 0.0110111 0.
0.698088 0.0110128 0.
0.499911 0.0130113 0.
0.501912 0.0130106 0.
0.503913 0.01301 0.
0.505914 0.0130096 0.
0.507914 0.0130098 0.
0.509915 0.01301 0.
0.511916 0.0130106 0.
0.513917 0.0130116 0.
0.515918 0.0130126 0.
0.517918 0.0130128 0.
0.519919 0.0130126 0.
0.52192 0.0130124 0.
0.523921 0.0130132 0.
0.525921 0.0130142 0.
0.527922 0.0130151 0.
0.529922 0.0130151 0.
0.531923 0.0130152 0.
0.533924 0.013016 0.
0.535925 0.0130185 0.
0.537926 0.0130209 0.
0.539926 0.0130214 0.
0.541926 0.01302 0.
0.543926 0.0130187 0.
0.545927 0.0130178 0.
0.547927 0.0130169 0.
0.549928 0.0130161 0.
0.551928 0.0130168 0.
0.553928 0.0130175 0.
0.555928 0.0130183 0.
0.557927 0.0130197 0.
0.559927 0.013021 0.
0.561927 0.013022 0.
0.563926 0.0130226 0.
0.565925 0.0130233 0.
0.567925 0.0130252 0.
0.569925 0.0130279 0.
0.571925 0.0130306 0.
0.573925 0.0130323 0.
0.575924 0.0130339 0.
0.577924 0.0130352 0.
0.579925 0.0130327 0.
0.581926 0.0130302 0.
0.583927 0.013028 0.
0.58593 0.0130263 0.
0.587933 0.0130247 0.
0.589938 0.0130197 0.
0.591943 0.0130119 0.
0.593948 0.0130041 0.
0.595964 0.0130139 0.
0.597983 0.0130291 0.
0.600003 0.0130441 0.
0.602022 0.0130281 0.
0.604042 0.0130119 0.
0.606058 0.0130016 0.
0.608063 0.0130101 0.
0.610067 0.0130185 0.
0.612071 0.0130239 0.
0.614074 0.0130259 0.
0.616077 0.0130279 0.
0.618078 0.0130289 0.
0.620078 0.0130296 0.
0.622078 0.0130302 0.
0.624078 0.0130278 0.
0.626078 0.0130252 0.
0.628077 0.0130233 0.
0.630077 0.0130265 0.
0.632076 0.0130298 0.
0.634076 0.0130308 0.
0.636076 0.013028 0.
0.638075 0.0130251 0.
0.640075 0.0130235 0.
0.642075 0.013023 0.
0.644075 0.0130224 0.
0.646075 0.0130216 0.
0.648075 0.0130208 0.
0.650074 0.01302 0.
0.652075 0.0130229 0.
0.654076 0.0130257 0.
0.656077 0.0130284 0.
0.658077 0.0130303 0.
0.660077 0.0130323 0.
0.662077 0.0130313 0.
0.664078 0.0130269 0.
0.666078 0.0130225 0.
0.668079 0.0130201 0.
0.67008 0.0130185 0.
0.67208 0.0130169 0.
0.674081 0.0130149 0.
0.676082 0.0130129 0.
0.678083 0.013011 0.
0.680083 0.0130106 0.
0.682084 0.0130102 0.
0.684084 0.01301 0.
0.686085 0.0130105 0.
0.688086 0.0130109 0.
0.690087 0.013011 0.
0.692087 0.013011 0.
0.694088 0.0130109 0.
0.696089 0.013012 0.
0.698089 0.0130135 0.
0.499912 0.0150123 0.
0.501912 0.0150114 0.
0.503914 0.0150108 0.
0.505915 0.0150103 0.
0.507915 0.0150107 0.
0.509916 0.0150111 0.
0.511917 0.0150116 0.
0.513917 0.0150122 0.
0.515918 0.0150128 0.
0.517919 0.0150129 0.
0.51992 0.0150127 0.
0.521921 0.0150125 0.
0.523922 0.0150133 0.
0.525922 0.0150143 0.
0.527923 0.0150153 0.
0.529924 0.0150153 0.
0.531924 0.0150153 0.
0.533925 0.0150158 0.
0.535926 0.0150176 0.
0.537927 0.0150194 0.
0.539928 0.0150198 0.
0.541927 0.0150191 0.
0.543927 0.0150184 0.
0.545928 0.0150175 0.
0.547929 0.0150166 0.
0.549929 0.0150156 0.
0.55193 0.0150169 0.
0.55393 0.0150181 0.
0.55593 0.0150193 0.
0.55793 0.0150204 0.
0.55993 0.0150216 0.
0.56193 0.0150226 0.
0.56393 0.0150235 0.
0.56593 0.0150244 0.
0.56793 0.0150253 0.
0.569931 0.0150263 0.
0.571932 0.0150273 0.
0.573933 0.0150297 0.
0.575934 0.0150322 0.
0.577936 0.0150343 0.
0.579938 0.0150313 0.
0.58194 0.0150284 0.
0.583942 0.0150255 0.
0.585947 0.0150228 0.
0.587951 0.0150201 0.
0.589956 0.0150163 0.
0.591962 0.0150117 0.
0.593968 0.015007 0.
0.595979 0.0150097 0.
0.597992 0.0150146 0.
0.600004 0.0150196 0.
0.602015 0.0150133 0.
0.604026 0.015007 0.
0.606036 0.0150034 0.
0.608042 0.0150087 0.
0.610048 0.0150141 0.
0.612053 0.0150185 0.
0.614057 0.0150219 0.
0.616061 0.0150253 0.
0.618064 0.0150274 0.
0.620066 0.0150289 0.
0.622068 0.0150303 0.
0.624069 0.0150281 0.
0.62607 0.0150255 0.
0.62807 0.0150236 0.
0.63007 0.0150258 0.
0.63207 0.0150281 0.
0.634071 0.0150288 0.
0.636071 0.0150269 0.
0.638072 0.015025 0.
0.640073 0.015024 0.
0.642072 0.0150234 0.
0.644072 0.0150229 0.
0.646072 0.0150224 0.
0.648072 0.0150219 0.
0.650072 0.0150214 0.
0.652073 0.0150234 0.
0.654074 0.0150253 0.
0.656074 0.015027 0.
0.658075 0.0150279 0.
0.660076 0.0150288 0.
0.662077 0.0150279 0.
0.664078 0.0150251 0.
0.666079 0.0150223 0.
0.668079 0.0150204 0.
0.670079 0.0150188 0.
0.672079 0.0150173 0.
0.67408 0.0150152 0.
0.676081 0.0150131 0.
0.678082 0.0150113 0.
0.680082 0.0150114 0.
0.682083 0.0150114 0.
0.684084 0.0150114 0.
0.686085 0.0150118 0.
0.688086 0.0150121 0.
0.690087 0.0150122 0.
0.692087 0.0150121 0.
0.694088 0.015012 0.
0.696089 0.0150129 0.
0.69809 0.0150142 0.
0.499912 0.0170133 0.
0.501913 0.0170127 0.
0.503914 0.017012 0.
0.505916 0.0170115 0.
0.507916 0.017012 0.
0.509917 0.0170126 0.
0.511918 0.0170129 0.
0.513918 0.017013 0.
0.515919 0.017013 0.
0.51792 0.017013 0.
0.519921 0.0170132 0.
0.521922 0.0170133 0.
0.523923 0.0170139 0.
0.525924 0.0170144 0.
0.527924 0.017015 0.
0.529925 0.0170156 0.
0.531926 0.0170162 0.
0.533926 0.0170169 0.
0.535927 0.017018 0.
0.537928 0.017019 0.
0.539928 0.0170193 0.
0.541929 0.0170188 0.
0.543929 0.0170183 0.
0.54593 0.0170177 0.
0.547931 0.0170172 0.
0.549931 0.0170166 0.
0.551931 0.0170176 0.
0.553931 0.0170186 0.
0.555932 0.0170196 0.
0.557932 0.0170207 0.
0.559932 0.0170218 0.
0.561932 0.0170227 0.
0.563933 0.0170233 0.
0.565933 0.0170239 0.
0.567934 0.017025 0.
0.569935 0.0170263 0.
0.571936 0.0170275 0.
0.573937 0.0170292 0.
0.57594 0.0170308 0.
0.577942 0.0170321 0.
0.579944 0.0170294 0.
0.581946 0.0170267 0.
0.583949 0.0170238 0.
0.585953 0.0170207 0.
0.587958 0.0170175 0.
0.589963 0.0170138 0.
0.591968 0.0170096 0.
0.593974 0.0170053 0.
0.595983 0.0170069 0.
0.597993 0.0170103 0.
0.600004 0.0170137 0.
0.602013 0.0170097 0.
0.604023 0.0170057 0.
0.606031 0.0170036 0.
0.608036 0.0170077 0.
0.610041 0.0170118 0.
0.612046 0.0170156 0.
0.61405 0.0170192 0.
0.616054 0.0170227 0.
0.618057 0.0170251 0.
0.62006 0.017027 0.
0.622062 0.0170289 0.
0.624064 0.017027 0.
0.626065 0.0170248 0.
0.628066 0.0170232 0.
0.630067 0.0170251 0.
0.632067 0.0170271 0.
0.634068 0.0170278 0.
0.636069 0.0170264 0.
0.63807 0.017025 0.
0.64007 0.0170241 0.
0.64207 0.0170237 0.
0.64407 0.0170232 0.
0.646071 0.017023 0.
0.648071 0.0170228 0.
0.650071 0.0170227 0.
0.652071 0.017024 0.
0.654072 0.0170254 0.
0.656072 0.0170266 0.
0.658073 0.0170272 0.
0.660074 0.0170279 0.
0.662075 0.0170272 0.
0.664076 0.0170249 0.
0.666077 0.0170227 0.
0.668078 0.0170212 0.
0.670078 0.0170199 0.
0.672079 0.0170186 0.
0.674079 0.0170164 0.
0.67608 0.0170142 0.
0.67808 0.0170122 0.
0.680081 0.017012 0.
0.682082 0.0170118 0.
0.684083 0.0170118 0.
0.686084 0.0170123 0.
0.688085 0.0170127 0.
0.690086 0.017013 0.
0.692086 0.0170131 0.
0.694087 0.0170132 0.
0.696087 0.0170142 0.
0.698088 0.0170155 0.
0.499913 0.0190145 0.
0.501914 0.0190139 0.
0.503915 0.0190132 0.
0.505916 0.0190127 0.
0.507917 0.0190134 0.
0.509918 0.0190141 0.
0.511918 0.0190143 0.
0.513919 0.0190137 0.
0.51592 0.0190131 0.
0.517921 0.0190132 0.
0.519922 0.0190137 0.
0.521923 0.0190142 0.
0.523924 0.0190144 0.
0.525925 0.0190145 0.
0.527926 0.0190147 0.
0.529926 0.0190159 0.
0.531927 0.019017 0.
0.533927 0.019018 0.
0.535928 0.0190183 0.
0.537929 0.0190187 0.
0.539929 0.0190187 0.
0.54193 0.0190184 0.
0.543931 0.0190181 0.
0.545932 0.0190179 0.
0.547932 0.0190177 0.
0.549933 0.0190175 0.
0.551933 0.0190183 0.
0.553933 0.0190191 0.
0.555933 0.01902 0.
0.557934 0.019021 0.
0.559934 0.0190221 0.
0.561934 0.0190229 0.
0.563935 0.0190232 0.
0.565936 0.0190235 0.
0.567937 0.0190246 0.
0.569938 0.0190262 0.
0.571939 0.0190278 0.
0.573942 0.0190286 0.
0.575945 0.0190294 0.
0.577947 0.0190298 0.
0.57995 0.0190274 0.
0.581953 0.019025 0.
0.583956 0.0190222 0.
0.58596 0.0190186 0.
0.587964 0.0190149 0.
0.589969 0.0190112 0.
0.591974 0.0190074 0.
0.593979 0.0190037 0.
0.595986 0.0190042 0.
0.597995 0.019006 0.
0.600003 0.0190078 0.
0.602011 0.0190061 0.
0.604019 0.0190045 0.
0.606026 0.0190038 0.
0.60803 0.0190067 0.
0.610035 0.0190096 0.
0.612039 0.0190128 0.
0.614043 0.0190165 0.
0.616047 0.0190201 0.
0.618051 0.0190228 0.
0.620054 0.0190251 0.
0.622057 0.0190274 0.
0.624059 0.019026 0.
0.626061 0.0190241 0.
0.628062 0.0190228 0.
0.630063 0.0190245 0.
0.632064 0.0190262 0.
0.634065 0.0190269 0.
0.636066 0.0190259 0.
0.638067 0.0190249 0.
0.640068 0.0190243 0.
0.642068 0.0190239 0.
0.644069 0.0190235 0.
0.646069 0.0190236 0.
0.648069 0.0190238 0.
0.65007 0.0190239 0.
0.65207 0.0190247 0.
0.65407 0.0190255 0.
0.65607 0.0190262 0.
0.658071 0.0190266 0.
0.660073 0.0190269 0.
0.662074 0.0190264 0.
0.664075 0.0190248 0.
0.666076 0.0190232 0.
0.668077 0.019022 0.
0.670077 0.019021 0.
0.672078 0.01902 0.
0.674078 0.0190177 0.
0.676078 0.0190153 0.
0.678079 0.0190131 0.
0.68008 0.0190127 0.
0.682081 0.0190122 0.
0.684082 0.0190121 0.
0.686083 0.0190127 0.
0.688084 0.0190133 0.
0.690085 0.0190137 0.
0.692085 0.019014 0.
0.694086 0.0190144 0.
0.696086 0.0190155 0.
0.698087 0.0190168 0.
0.499914 0.0210156 0.
0.501915 0.0210148 0.
0.503916 0.021014 0.
0.505917 0.0210134 0.
0.507918 0.0210141 0.
0.509919 0.0210149 0.
0.51192 0.021015 0.
0.513921 0.0210143 0.
0.515922 0.0210136 0.
0.517923 0.0210135 0.
0.519923 0.0210139 0.
0.521924 0.0210142 0.
0.523925 0.0210145 0.
0.525926 0.0210147 0.
0.527927 0.021015 0.
0.529928 0.0210162 0.
0.531928 0.0210175 0.
0.533928 0.0210183 0.
0.535929 0.0210182 0.
0.53793 0.0210181 0.
0.539931 0.021018 0.
0.541932 0.0210178 0.
0.543933 0.0210177 0.
0.545934 0.0210177 0.
0.547934 0.0210177 0.
0.549935 0.0210177 0.
0.551935 0.0210184 0.
0.553936 0.0210192 0.
0.555936 0.0210199 0.
0.557936 0.0210209 0.
0.559936 0.0210219 0.
0.561937 0.0210226 0.
0.563938 0.0210226 0.
0.565939 0.0210226 0.
0.567941 0.0210236 0.
0.569942 0.0210251 0.
0.571944 0.0210266 0.
0.573947 0.0210268 0.
0.57595 0.0210269 0.
0.577953 0.0210268 0.
0.579955 0.0210247 0.
0.581958 0.0210227 0.
0.583962 0.02102 0.
0.585966 0.0210161 0.
0.58797 0.0210122 0.
0.589974 0.0210086 0.
0.591979 0.0210054 0.
0.593983 0.0210021 0.
0.595989 0.0210019 0.
0.597996 0.0210026 0.
0.600003 0.0210033 0.
0.602009 0.021003 0.
0.604016 0.0210027 0.
0.606021 0.021003 0.
0.608025 0.0210053 0.
0.610029 0.0210076 0.
0.612033 0.0210104 0.
0.614037 0.0210139 0.
0.616041 0.0210174 0.
0.618045 0.0210202 0.
0.620048 0.0210226 0.
0.622051 0.021025 0.
0.624053 0.021024 0.
0.626056 0.0210227 0.
0.628058 0.0210217 0.
0.630059 0.0210233 0.
0.632061 0.0210249 0.
0.634062 0.0210257 0.
0.636063 0.021025 0.
0.638064 0.0210242 0.
0.640065 0.0210238 0.
0.642066 0.0210236 0.
0.644066 0.0210235 0.
0.646067 0.0210237 0.
0.648067 0.021024 0.
0.650067 0.0210243 0.
0.652067 0.0210247 0.
0.654068 0.0210251 0.
0.656068 0.0210254 0.
0.658069 0.0210255 0.
0.660071 0.0210256 0.
0.662072 0.0210253 0.
0.664073 0.0210244 0.
0.666074 0.0210235 0.
0.668075 0.0210225 0.
0.670076 0.0210214 0.
0.672076 0.0210204 0.
0.674077 0.0210182 0.
0.676077 0.0210159 0.
0.678077 0.0210139 0.
0.680078 0.0210133 0.
0.68208 0.0210128 0.
0.684081 0.0210127 0.
0.686081 0.0210133 0.
0.688082 0.021014 0.
0.690083 0.0210146 0.
0.692084 0.021015 0.
0.694084 0.0210155 0.
0.696085 0.0210168 0.
0.698085 0.0210183 0.
0.499915 0.0230165 0.
0.501917 0.0230154 0.
0.503918 0.0230144 0.
0.505919 0.0230137 0.
0.50792 0.0230142 0.
0.509921 0.0230148 0.
0.511922 0.023015 0.
0.513923 0.0230146 0.
0.515924 0.0230142 0.
0.517925 0.0230139 0.
0.519925 0.0230136 0.
0.521926 0.0230133 0.
0.523926 0.023014 0.
0.525927 0.0230149 0.
0.527928 0.0230158 0.
0.529929 0.0230166 0.
0.531929 0.0230174 0.
0.53393 0.0230179 0.
0.535931 0.0230176 0.
0.537933 0.0230173 0.
0.539934 0.0230172 0.
0.541935 0.0230171 0.
0.543936 0.023017 0.
0.545936 0.023017 0.
0.547937 0.0230171 0.
0.549937 0.0230171 0.
0.551938 0.0230179 0.
0.553938 0.0230188 0.
0.555939 0.0230196 0.
0.557939 0.0230205 0.
0.55994 0.0230214 0.
0.561941 0.0230218 0.
0.563942 0.0230216 0.
0.565944 0.0230214 0.
0.567946 0.023022 0.
0.569947 0.0230229 0.
0.571949 0.0230239 0.
0.573952 0.0230238 0.
0.575955 0.0230235 0.
0.577957 0.0230231 0.
0.57996 0.0230214 0.
0.581963 0.0230196 0.
0.583966 0.0230171 0.
0.58597 0.0230132 0.
0.587974 0.0230092 0.
0.589978 0.023006 0.
0.591982 0.0230033 0.
0.593986 0.0230006 0.
0.595991 0.023 0.
0.597997 0.0230001 0.
0.600002 0.0230002 0.
0.602008 0.0230004 0.
0.604013 0.0230005 0.
0.606018 0.0230012 0.
0.608021 0.0230035 0.
0.610025 0.0230058 0.
0.612029 0.0230084 0.
0.614033 0.0230115 0.
0.616037 0.0230146 0.
0.61804 0.0230171 0.
0.620043 0.0230194 0.
0.622045 0.0230217 0.
0.624048 0.0230212 0.
0.626051 0.0230205 0.
0.628053 0.02302 0.
0.630055 0.0230217 0.
0.632056 0.0230234 0.
0.634058 0.0230243 0.
0.636059 0.0230236 0.
0.638061 0.0230229 0.
0.640062 0.0230227 0.
0.642063 0.0230229 0.
0.644064 0.0230231 0.
0.646064 0.0230234 0.
0.648064 0.0230236 0.
0.650064 0.0230238 0.
0.652065 0.023024 0.
0.654065 0.0230241 0.
0.656066 0.0230241 0.
0.658067 0.023024 0.
0.660069 0.0230239 0.
0.66207 0.0230238 0.
0.664071 0.0230237 0.
0.666072 0.0230236 0.
0.668073 0.0230226 0.
0.670074 0.0230212 0.
0.672074 0.0230198 0.
0.674075 0.023018 0.
0.676076 0.0230161 0.
0.678076 0.0230144 0.
0.680077 0.0230139 0.
0.682078 0.0230134 0.
0.684079 0.0230134 0.
0.68608 0.0230142 0.
0.688081 0.0230149 0.
0.690081 0.0230155 0.
0.692082 0.023016 0.
0.694083 0.0230165 0.
0.696083 0.0230181 0.
0.698083 0.0230201 0.
0.499917 0.0250175 0.
0.501918 0.025016 0.
0.503919 0.0250148 0.
0.50592 0.0250139 0.
0.507921 0.0250143 0.
0.509922 0.0250147 0.
0.511924 0.025015 0.
0.513925 0.0250149 0.
0.515926 0.0250149 0.
0.517926 0.0250143 0.
0.519927 0.0250134 0.
0.521927 0.0250125 0.
0.523928 0.0250136 0.
0.525928 0.0250151 0.
0.527929 0.0250165 0.
0.52993 0.025017 0.
0.531931 0.0250174 0.
0.533932 0.0250176 0.
0.535934 0.0250171 0.
0.537935 0.0250166 0.
0.539936 0.0250163 0.
0.541937 0.0250163 0.
0.543938 0.0250163 0.
0.545939 0.0250164 0.
0.547939 0.0250165 0.
0.549939 0.0250165 0.
0.55194 0.0250174 0.
0.553941 0.0250184 0.
0.555942 0.0250193 0.
0.557943 0.02502 0.
0.559943 0.0250208 0.
0.561945 0.0250211 0.
0.563947 0.0250207 0.
0.565948 0.0250203 0.
0.56795 0.0250204 0.
0.569953 0.0250208 0.
0.571955 0.0250212 0.
0.573957 0.0250207 0.
0.575959 0.0250201 0.
0.577962 0.0250194 0.
0.579965 0.025018 0.
0.581968 0.0250166 0.
0.583971 0.0250143 0.
0.585974 0.0250103 0.
0.587978 0.0250063 0.
0.589982 0.0250033 0.
0.591985 0.0250012 0.
0.593989 0.0249991 0.
0.595993 0.0249982 0.
0.597997 0.0249976 0.
0.600002 0.0249971 0.
0.602006 0.0249977 0.
0.60401 0.0249983 0.
0.606014 0.0249993 0.
0.608017 0.0250017 0.
0.61002 0.025004 0.
0.612024 0.0250065 0.
0.614028 0.0250091 0.
0.616032 0.0250118 0.
0.618035 0.0250142 0.
0.620037 0.0250163 0.
0.62204 0.0250184 0.
0.624043 0.0250184 0.
0.626046 0.0250183 0.
0.628048 0.0250184 0.
0.63005 0.0250202 0.
0.632052 0.025022 0.
0.634054 0.0250229 0.
0.636055 0.0250223 0.
0.638057 0.0250216 0.
0.640059 0.0250217 0.
0.64206 0.0250222 0.
0.644061 0.0250228 0.
0.646061 0.025023 0.
0.648061 0.0250232 0.
0.650061 0.0250234 0.
0.652062 0.0250232 0.
0.654063 0.0250231 0.
0.656064 0.0250229 0.
0.658065 0.0250225 0.
0.660067 0.0250221 0.
0.662068 0.0250223 0.
0.664069 0.025023 0.
0.66607 0.0250237 0.
0.668071 0.0250227 0.
0.670072 0.025021 0.
0.672073 0.0250193 0.
0.674074 0.0250178 0.
0.676075 0.0250163 0.
0.678076 0.025015 0.
0.680076 0.0250145 0.
0.682077 0.0250141 0.
0.684077 0.0250142 0.
0.686078 0.025015 0.
0.688079 0.0250158 0.
0.69008 0.0250164 0.
0.692081 0.025017 0.
0.694081 0.0250175 0.
0.696082 0.0250195 0.
0.698082 0.0250218 0.
0.49992 0.0270186 0.
0.50192 0.0270172 0.
0.503921 0.027016 0.
0.505921 0.027015 0.
0.507922 0.0270147 0.
0.509923 0.0270145 0.
0.511924 0.0270143 0.
0.513926 0.0270142 0.
0.515927 0.0270142 0.
0.517928 0.0270137 0.
0.519928 0.0270131 0.
0.521929 0.0270124 0.
0.52393 0.0270134 0.
0.52593 0.0270147 0.
0.527931 0.0270158 0.
0.529932 0.0270159 0.
0.531933 0.0270161 0.
0.533934 0.0270161 0.
0.535935 0.0270159 0.
0.537936 0.0270157 0.
0.539937 0.0270156 0.
0.541939 0.0270156 0.
0.54394 0.0270155 0.
0.545941 0.0270156 0.
0.547941 0.0270156 0.
0.549942 0.0270157 0.
0.551943 0.0270169 0.
0.553944 0.0270181 0.
0.555945 0.0270191 0.
0.557946 0.0270192 0.
0.559946 0.0270193 0.
0.561948 0.0270194 0.
0.56395 0.0270193 0.
0.565951 0.0270192 0.
0.567953 0.027019 0.
0.569956 0.0270189 0.
0.571958 0.0270188 0.
0.57396 0.0270185 0.
0.575963 0.0270182 0.
0.577965 0.0270177 0.
0.579968 0.0270158 0.
0.581971 0.027014 0.
0.583974 0.0270116 0.
0.585977 0.0270082 0.
0.587981 0.0270047 0.
0.589984 0.0270023 0.
0.591987 0.0270005 0.
0.59399 0.0269988 0.
0.595994 0.0269978 0.
0.597997 0.0269969 0.
0.600001 0.0269961 0.
0.602005 0.0269969 0.
0.604009 0.0269977 0.
0.606013 0.0269988 0.
0.608016 0.0270009 0.
0.610019 0.0270029 0.
0.612022 0.027005 0.
0.614025 0.0270073 0.
0.616029 0.0270096 0.
0.618032 0.0270118 0.
0.620034 0.0270138 0.
0.622036 0.0270158 0.
0.624039 0.0270163 0.
0.626042 0.0270166 0.
0.628045 0.0270171 0.
0.630047 0.0270185 0.
0.632049 0.0270199 0.
0.634051 0.0270208 0.
0.636052 0.0270206 0.
0.638054 0.0270205 0.
0.640055 0.0270206 0.
0.642057 0.027021 0.
0.644058 0.0270213 0.
0.646058 0.0270217 0.
0.648059 0.0270221 0.
0.650059 0.0270225 0.
0.65206 0.0270223 0.
0.654061 0.027022 0.
0.656062 0.0270218 0.
0.658064 0.0270215 0.
0.660065 0.0270212 0.
0.662066 0.0270213 0.
0.664067 0.0270218 0.
0.666068 0.0270223 0.
0.668069 0.0270216 0.
0.67007 0.0270204 0.
0.672071 0.0270191 0.
0.674072 0.0270177 0.
0.676073 0.0270163 0.
0.678074 0.0270151 0.
0.680074 0.0270152 0.
0.682075 0.0270153 0.
0.684076 0.0270155 0.
0.686077 0.0270159 0.
0.688077 0.0270164 0.
0.690078 0.0270171 0.
0.692079 0.027018 0.
0.694079 0.0270189 0.
0.69608 0.0270206 0.
0.698081 0.0270225 0.
0.499922 0.0290197 0.
0.501922 0.0290183 0.
0.503922 0.0290171 0.
0.505923 0.029016 0.
0.507923 0.0290151 0.
0.509924 0.0290142 0.
0.511925 0.0290137 0.
0.513926 0.0290136 0.
0.515928 0.0290135 0.
0.517929 0.0290132 0.
0.51993 0.0290128 0.
0.521931 0.0290124 0.
0.523932 0.0290132 0.
0.525932 0.0290142 0.
0.527933 0.0290151 0.
0.529934 0.0290149 0.
0.531935 0.0290148 0.
0.533936 0.0290147 0.
0.535937 0.0290148 0.
0.537938 0.0290149 0.
0.539939 0.0290149 0.
0.54194 0.0290148 0.
0.543941 0.0290147 0.
0.545943 0.0290148 0.
0.547944 0.0290148 0.
0.549945 0.0290149 0.
0.551946 0.0290164 0.
0.553947 0.0290178 0.
0.555948 0.0290189 0.
0.557949 0.0290184 0.
0.55995 0.0290178 0.
0.561951 0.0290176 0.
0.563953 0.0290178 0.
0.565954 0.029018 0.
0.567956 0.0290177 0.
0.569959 0.0290171 0.
0.571961 0.0290165 0.
0.573963 0.0290163 0.
0.575966 0.0290162 0.
0.577969 0.0290159 0.
0.579972 0.0290137 0.
0.581974 0.0290114 0.
0.583977 0.029009 0.
0.58598 0.0290061 0.
0.587983 0.0290032 0.
0.589986 0.0290012 0.
0.591989 0.0289998 0.
0.593991 0.0289985 0.
0.595994 0.0289973 0.
0.597998 0.0289962 0.
0.600001 0.028995 0.
0.602005 0.0289961 0.
0.604009 0.0289972 0.
0.606012 0.0289983 0.
0.608015 0.0290001 0.
0.610017 0.0290018 0.
0.61202 0.0290036 0.
0.614023 0.0290055 0.
0.616026 0.0290074 0.
0.618028 0.0290093 0.
0.620031 0.0290113 0.
0.622033 0.0290132 0.
0.624036 0.0290141 0.
0.626039 0.029015 0.
0.628042 0.0290158 0.
0.630044 0.0290168 0.
0.632046 0.0290179 0.
0.634048 0.0290187 0.
0.636049 0.029019 0.
0.638051 0.0290193 0.
0.640052 0.0290196 0.
0.642054 0.0290197 0.
0.644055 0.0290199 0.
0.646056 0.0290204 0.
0.648057 0.029021 0.
0.650057 0.0290216 0.
0.652059 0.0290213 0.
0.65406 0.029021 0.
0.656061 0.0290207 0.
0.658062 0.0290204 0.
0.660064 0.0290202 0.
0.662065 0.0290203 0.
0.664066 0.0290207 0.
0.666066 0.029021 0.
0.668067 0.0290206 0.
0.670069 0.0290197 0.
0.67207 0.0290189 0.
0.674071 0.0290176 0.
0.676071 0.0290163 0.
0.678072 0.0290152 0.
0.680073 0.0290158 0.
0.682074 0.0290164 0.
0.684075 0.0290168 0.
0.686075 0.0290169 0.
0.688076 0.0290169 0.
0.690076 0.0290177 0.
0.692077 0.029019 0.
0.694077 0.0290203 0.
0.696078 0.0290217 0.
0.698079 0.0290232 0.
0.499924 0.0310207 0.
0.501924 0.0310193 0.
0.503925 0.0310181 0.
0.505925 0.0310169 0.
0.507925 0.0310156 0.
0.509926 0.0310142 0.
0.511927 0.0310133 0.
0.513928 0.0310131 0.
0.515929 0.0310129 0.
0.51793 0.0310128 0.
0.519932 0.0310126 0.
0.521933 0.0310124 0.
0.523934 0.0310131 0.
0.525934 0.0310138 0.
0.527935 0.0310144 0.
0.529936 0.0310141 0.
0.531938 0.0310139 0.
0.533939 0.0310137 0.
0.535939 0.0310139 0.
0.53794 0.0310142 0.
0.539941 0.0310142 0.
0.541942 0.031014 0.
0.543943 0.0310138 0.
0.545945 0.0310138 0.
0.547946 0.0310139 0.
0.549947 0.031014 0.
0.551948 0.0310154 0.
0.553949 0.0310169 0.
0.55595 0.0310179 0.
0.557951 0.031017 0.
0.559952 0.0310162 0.
0.561954 0.0310159 0.
0.563956 0.0310163 0.
0.565957 0.0310167 0.
0.567959 0.0310162 0.
0.569961 0.0310154 0.
0.571963 0.0310145 0.
0.573966 0.0310142 0.
0.575969 0.0310141 0.
0.577971 0.0310137 0.
0.579974 0.0310114 0.
0.581977 0.0310091 0.
0.583979 0.0310067 0.
0.585982 0.0310042 0.
0.587985 0.0310017 0.
0.589987 0.031 0.
0.59199 0.030999 0.
0.593992 0.0309979 0.
0.595995 0.0309968 0.
0.597998 0.0309957 0.
0.600001 0.0309945 0.
0.602004 0.0309956 0.
0.604008 0.0309966 0.
0.606011 0.0309977 0.
0.608013 0.030999 0.
0.610016 0.0310003 0.
0.612018 0.0310019 0.
0.614021 0.0310036 0.
0.616024 0.0310054 0.
0.618026 0.0310072 0.
0.620028 0.0310091 0.
0.622031 0.031011 0.
0.624033 0.0310121 0.
0.626036 0.0310131 0.
0.628038 0.0310141 0.
0.63004 0.031015 0.
0.632042 0.031016 0.
0.634044 0.0310169 0.
0.636046 0.0310176 0.
0.638047 0.0310183 0.
0.640049 0.0310186 0.
0.64205 0.0310186 0.
0.644052 0.0310186 0.
0.646053 0.0310191 0.
0.648054 0.0310196 0.
0.650055 0.0310201 0.
0.652057 0.03102 0.
0.654058 0.03102 0.
0.656059 0.0310199 0.
0.65806 0.0310198 0.
0.660062 0.0310197 0.
0.662063 0.0310197 0.
0.664063 0.0310197 0.
0.666064 0.0310197 0.
0.668065 0.0310194 0.
0.670066 0.031019 0.
0.672068 0.0310186 0.
0.674068 0.0310174 0.
0.676069 0.0310162 0.
0.67807 0.0310152 0.
0.680071 0.0310161 0.
0.682072 0.0310169 0.
0.684073 0.0310174 0.
0.686073 0.0310175 0.
0.688074 0.0310176 0.
0.690074 0.0310184 0.
0.692075 0.0310199 0.
0.694075 0.0310213 0.
0.696076 0.0310226 0.
0.698077 0.0310238 0.
0.499927 0.0330215 0.
0.501927 0.0330201 0.
0.503927 0.033019 0.
0.505928 0.0330177 0.
0.507928 0.033016 0.
0.509929 0.0330143 0.
0.511929 0.0330131 0.
0.51393 0.0330128 0.
0.515931 0.0330125 0.
0.517932 0.0330124 0.
0.519933 0.0330125 0.
0.521934 0.0330125 0.
0.523936 0.0330129 0.
0.525937 0.0330134 0.
0.527938 0.0330138 0.
0.529939 0.0330136 0.
0.53194 0.0330134 0.
0.533941 0.0330133 0.
0.535942 0.0330134 0.
0.537943 0.0330135 0.
0.539944 0.0330134 0.
0.541945 0.033013 0.
0.543946 0.0330126 0.
0.545947 0.0330127 0.
0.547947 0.0330129 0.
0.549948 0.0330131 0.
0.551949 0.0330141 0.
0.553951 0.0330152 0.
0.555952 0.0330159 0.
0.557954 0.0330152 0.
0.559955 0.0330145 0.
0.561957 0.0330143 0.
0.563959 0.0330147 0.
0.565961 0.0330151 0.
0.567962 0.0330147 0.
0.569964 0.0330137 0.
0.571966 0.0330128 0.
0.573968 0.0330122 0.
0.575971 0.0330117 0.
0.577973 0.033011 0.
0.579976 0.033009 0.
0.581978 0.0330071 0.
0.583981 0.033005 0.
0.585983 0.0330025 0.
0.587985 0.0330001 0.
0.589988 0.0329986 0.
0.59199 0.0329979 0.
0.593992 0.0329972 0.
0.595995 0.0329964 0.
0.597998 0.0329954 0.
0.600001 0.0329945 0.
0.602004 0.0329953 0.
0.604007 0.0329962 0.
0.60601 0.032997 0.
0.608012 0.0329978 0.
0.610014 0.0329986 0.
0.612017 0.0329998 0.
0.614019 0.0330017 0.
0.616022 0.0330036 0.
0.618024 0.0330055 0.
0.620026 0.0330073 0.
0.622028 0.0330092 0.
0.624031 0.0330102 0.
0.626033 0.033011 0.
0.628035 0.0330118 0.
0.630037 0.033013 0.
0.632039 0.0330142 0.
0.634041 0.0330153 0.
0.636043 0.0330163 0.
0.638044 0.0330173 0.
0.640046 0.0330177 0.
0.642047 0.0330176 0.
0.644047 0.0330176 0.
0.646049 0.0330177 0.
0.648051 0.0330179 0.
0.650053 0.033018 0.
0.652054 0.0330185 0.
0.654055 0.0330191 0.
0.656056 0.0330195 0.
0.658058 0.0330196 0.
0.660059 0.0330196 0.
0.662061 0.0330195 0.
0.664061 0.033019 0.
0.666062 0.0330185 0.
0.668062 0.0330182 0.
0.670063 0.0330181 0.
0.672064 0.033018 0.
0.674065 0.033017 0.
0.676066 0.0330161 0.
0.678068 0.0330153 0.
0.680069 0.033016 0.
0.68207 0.0330167 0.
0.684071 0.0330173 0.
0.686071 0.0330178 0.
0.688072 0.0330182 0.
0.690072 0.0330192 0.
0.692072 0.0330205 0.
0.694073 0.0330218 0.
0.696074 0.0330231 0.
0.698075 0.0330244 0.
0.499929 0.0350223 0.
0.50193 0.0350209 0.
0.50393 0.0350198 0.
0.505931 0.0350185 0.
0.507931 0.0350164 0.
0.509931 0.0350144 0.
0.511932 0.035013 0.
0.513933 0.0350126 0.
0.515933 0.0350121 0.
0.517934 0.0350121 0.
0.519935 0.0350123 0.
0.521936 0.0350125 0.
0.523937 0.0350128 0.
0.525939 0.035013 0.
0.52794 0.0350131 0.
0.529941 0.035013 0.
0.531942 0.0350129 0.
0.533943 0.0350128 0.
0.535945 0.0350129 0.
0.537946 0.0350129 0.
0.539947 0.0350126 0.
0.541948 0.035012 0.
0.543948 0.0350115 0.
0.545949 0.0350116 0.
0.547949 0.0350119 0.
0.54995 0.0350122 0.
0.551951 0.0350128 0.
0.553953 0.0350135 0.
0.555954 0.0350139 0.
0.557956 0.0350134 0.
0.559958 0.0350128 0.
0.56196 0.0350127 0.
0.563962 0.0350131 0.
0.565964 0.0350136 0.
0.567965 0.0350131 0.
0.569967 0.0350121 0.
0.571968 0.0350112 0.
0.573971 0.0350103 0.
0.575973 0.0350093 0.
0.577975 0.0350083 0.
0.579977 0.0350067 0.
0.58198 0.035005 0.
0.583982 0.0350032 0.
0.585984 0.0350009 0.
0.587986 0.0349985 0.
0.589988 0.0349973 0.
0.59199 0.0349969 0.
0.593992 0.0349965 0.
0.595995 0.0349959 0.
0.597998 0.0349952 0.
0.6 0.0349944 0.
0.602003 0.0349951 0.
0.604006 0.0349958 0.
0.606009 0.0349963 0.
0.608011 0.0349965 0.
0.610013 0.0349968 0.
0.612015 0.0349978 0.
0.614017 0.0349998 0.
0.61602 0.0350017 0.
0.618022 0.0350037 0.
0.620024 0.0350056 0.
0.622026 0.0350075 0.
0.624028 0.0350082 0.
0.62603 0.0350089 0.
0.628032 0.0350096 0.
0.630034 0.035011 0.
0.632036 0.0350124 0.
0.634038 0.0350137 0.
0.63604 0.035015 0.
0.638041 0.0350163 0.
0.640042 0.0350168 0.
0.642043 0.0350167 0.
0.644043 0.0350165 0.
0.646045 0.0350164 0.
0.648048 0.0350162 0.
0.65005 0.035016 0.
0.652051 0.035017 0.
0.654052 0.0350181 0.
0.656054 0.035019 0.
0.658055 0.0350193 0.
0.660057 0.0350196 0.
0.662058 0.0350193 0.
0.664059 0.0350182 0.
0.666059 0.0350172 0.
0.66806 0.035017 0.
0.67006 0.0350172 0.
0.672061 0.0350174 0.
0.674062 0.0350167 0.
0.676064 0.0350159 0.
0.678065 0.0350154 0.
0.680066 0.035016 0.
0.682067 0.0350166 0.
0.684068 0.0350172 0.
0.686069 0.035018 0.
0.68807 0.0350189 0.
0.69007 0.0350199 0.
0.69207 0.0350211 0.
0.69407 0.0350224 0.
0.696071 0.0350237 0.
0.698072 0.035025 0.
0.499931 0.0370229 0.
0.501931 0.0370216 0.
0.503932 0.0370203 0.
0.505932 0.0370189 0.
0.507933 0.0370169 0.
0.509934 0.0370149 0.
0.511935 0.0370135 0.
0.513935 0.037013 0.
0.515935 0.0370125 0.
0.517936 0.0370122 0.
0.519937 0.037012 0.
0.521938 0.0370118 0.
0.523939 0.0370122 0.
0.525941 0.0370127 0.
0.527942 0.037013 0.
0.529943 0.0370126 0.
0.531944 0.0370123 0.
0.533945 0.0370119 0.
0.535946 0.0370116 0.
0.537947 0.0370114 0.
0.539948 0.0370111 0.
0.541949 0.037011 0.
0.543949 0.0370108 0.
0.54595 0.0370109 0.
0.547951 0.0370112 0.
0.549952 0.0370115 0.
0.551953 0.0370117 0.
0.553955 0.037012 0.
0.555956 0.0370122 0.
0.557958 0.0370119 0.
0.55996 0.0370117 0.
0.561961 0.0370115 0.
0.563963 0.0370116 0.
0.565965 0.0370116 0.
0.567967 0.0370111 0.
0.569969 0.0370103 0.
0.57197 0.0370095 0.
0.573972 0.0370086 0.
0.575974 0.0370077 0.
0.577977 0.0370067 0.
0.579979 0.0370048 0.
0.581981 0.0370029 0.
0.583984 0.0370011 0.
0.585985 0.0369996 0.
0.587987 0.036998 0.
0.589989 0.0369969 0.
0.591991 0.036996 0.
0.593993 0.0369951 0.
0.595995 0.0369945 0.
0.597998 0.0369939 0.
0.6 0.0369934 0.
0.602003 0.0369939 0.
0.604006 0.0369944 0.
0.606008 0.0369949 0.
0.60801 0.0369955 0.
0.610012 0.0369961 0.
0.612014 0.0369971 0.
0.614016 0.0369988 0.
0.616019 0.0370004 0.
0.61802 0.0370022 0.
0.620022 0.0370041 0.
0.622024 0.037006 0.
0.624026 0.037007 0.
0.626028 0.0370078 0.
0.62803 0.0370087 0.
0.630031 0.0370098 0.
0.632033 0.0370108 0.
0.634035 0.037012 0.
0.636037 0.0370134 0.
0.638039 0.0370147 0.
0.64004 0.0370154 0.
0.642041 0.0370155 0.
0.644042 0.0370156 0.
0.646044 0.0370153 0.
0.648046 0.0370149 0.
0.650048 0.0370144 0.
0.652049 0.0370155 0.
0.65405 0.0370166 0.
0.656052 0.0370176 0.
0.658053 0.037018 0.
0.660055 0.0370183 0.
0.662056 0.0370183 0.
0.664057 0.0370177 0.
0.666058 0.0370172 0.
0.668058 0.0370169 0.
0.670059 0.0370169 0.
0.672059 0.0370169 0.
0.674061 0.0370161 0.
0.676062 0.0370154 0.
0.678063 0.0370148 0.
0.680064 0.0370155 0.
0.682065 0.0370163 0.
0.684066 0.037017 0.
0.686067 0.0370179 0.
0.688068 0.0370187 0.
0.690068 0.0370198 0.
0.692069 0.0370211 0.
0.694069 0.0370224 0.
0.69607 0.0370239 0.
0.698071 0.0370254 0.
0.499933 0.0390236 0.
0.501933 0.0390222 0.
0.503934 0.0390208 0.
0.505934 0.0390193 0.
0.507935 0.0390173 0.
0.509936 0.0390153 0.
0.511937 0.0390139 0.
0.513937 0.0390134 0.
0.515938 0.0390128 0.
0.517938 0.0390122 0.
0.519939 0.0390116 0.
0.52194 0.039011 0.
0.523941 0.0390116 0.
0.525942 0.0390123 0.
0.527943 0.0390129 0.
0.529944 0.0390123 0.
0.531946 0.0390116 0.
0.533947 0.039011 0.
0.535947 0.0390104 0.
0.537948 0.0390099 0.
0.539949 0.0390097 0.
0.54195 0.0390099 0.
0.543951 0.0390101 0.
0.545952 0.0390103 0.
0.547953 0.0390105 0.
0.549955 0.0390108 0.
0.551956 0.0390107 0.
0.553957 0.0390106 0.
0.555958 0.0390105 0.
0.55796 0.0390105 0.
0.559961 0.0390105 0.
0.561963 0.0390104 0.
0.563965 0.03901 0.
0.565967 0.0390096 0.
0.567969 0.039009 0.
0.569971 0.0390084 0.
0.571973 0.0390078 0.
0.573974 0.039007 0.
0.575976 0.0390061 0.
0.577978 0.0390051 0.
0.57998 0.0390029 0.
0.581983 0.0390007 0.
0.583985 0.038999 0.
0.585987 0.0389983 0.
0.587988 0.0389976 0.
0.58999 0.0389965 0.
0.591992 0.0389951 0.
0.593994 0.0389937 0.
0.595996 0.0389931 0.
0.597998 0.0389927 0.
0.600001 0.0389923 0.
0.602003 0.0389927 0.
0.604006 0.038993 0.
0.606008 0.0389935 0.
0.60801 0.0389944 0.
0.610012 0.0389954 0.
0.612014 0.0389965 0.
0.614015 0.0389978 0.
0.616017 0.038999 0.
0.618019 0.0390008 0.
0.62002 0.0390027 0.
0.622022 0.0390046 0.
0.624023 0.0390057 0.
0.626025 0.0390067 0.
0.628027 0.0390077 0.
0.630029 0.0390085 0.
0.632031 0.0390093 0.
0.634033 0.0390103 0.
0.636034 0.0390117 0.
0.638036 0.0390131 0.
0.640038 0.039014 0.
0.64204 0.0390143 0.
0.644042 0.0390147 0.
0.646043 0.0390142 0.
0.648044 0.0390136 0.
0.650045 0.0390129 0.
0.652046 0.039014 0.
0.654048 0.0390152 0.
0.65605 0.0390161 0.
0.658052 0.0390166 0.
0.660053 0.0390171 0.
0.662054 0.0390173 0.
0.664055 0.0390172 0.
0.666056 0.0390171 0.
0.668057 0.0390169 0.
0.670058 0.0390166 0.
0.672058 0.0390163 0.
0.674059 0.0390156 0.
0.67606 0.0390148 0.
0.678061 0.0390143 0.
0.680062 0.0390151 0.
0.682063 0.039016 0.
0.684064 0.0390168 0.
0.686065 0.0390177 0.
0.688066 0.0390186 0.
0.690066 0.0390198 0.
0.692067 0.0390211 0.
0.694068 0.0390224 0.
0.696068 0.0390241 0.
0.698069 0.0390259 0.
0.499935 0.0410242 0.
0.501935 0.0410228 0.
0.503936 0.0410213 0.
0.505936 0.0410197 0.
0.507938 0.0410177 0.
0.509939 0.0410157 0.
0.51194 0.0410142 0.
0.51394 0.0410134 0.
0.51594 0.0410127 0.
0.517941 0.041012 0.
0.519941 0.0410115 0.
0.521942 0.0410109 0.
0.523943 0.0410114 0.
0.525944 0.041012 0.
0.527945 0.0410124 0.
0.529946 0.0410116 0.
0.531947 0.0410108 0.
0.533948 0.0410101 0.
0.535949 0.0410094 0.
0.537949 0.0410088 0.
0.53995 0.0410087 0.
0.541951 0.0410091 0.
0.543953 0.0410094 0.
0.545954 0.0410096 0.
0.547956 0.0410098 0.
0.549957 0.0410099 0.
0.551958 0.0410097 0.
0.553959 0.0410094 0.
0.55596 0.0410092 0.
0.557962 0.0410092 0.
0.559963 0.0410092 0.
0.561965 0.041009 0.
0.563967 0.0410084 0.
0.565969 0.0410078 0.
0.567971 0.0410072 0.
0.569972 0.0410067 0.
0.571974 0.0410061 0.
0.573976 0.0410053 0.
0.575978 0.0410045 0.
0.57798 0.0410035 0.
0.579982 0.0410013 0.
0.581984 0.0409992 0.
0.583986 0.0409976 0.
0.585988 0.0409972 0.
0.587989 0.0409967 0.
0.589991 0.0409958 0.
0.591992 0.0409943 0.
0.593994 0.0409929 0.
0.595996 0.0409923 0.
0.597998 0.0409919 0.
0.6 0.0409915 0.
0.602003 0.0409919 0.
0.604005 0.0409922 0.
0.606008 0.0409927 0.
0.608009 0.0409937 0.
0.610011 0.0409947 0.
0.612013 0.0409957 0.
0.614014 0.0409969 0.
0.616016 0.040998 0.
0.618017 0.0409996 0.
0.620018 0.0410015 0.
0.62202 0.0410034 0.
0.624021 0.0410045 0.
0.626023 0.0410055 0.
0.628025 0.0410065 0.
0.630027 0.041007 0.
0.632029 0.0410076 0.
0.634031 0.0410084 0.
0.636032 0.0410099 0.
0.638034 0.0410114 0.
0.640036 0.0410123 0.
0.642038 0.0410128 0.
0.64404 0.0410132 0.
0.646041 0.0410129 0.
0.648042 0.0410124 0.
0.650042 0.0410119 0.
0.652044 0.0410128 0.
0.654046 0.0410137 0.
0.656048 0.0410146 0.
0.658049 0.0410151 0.
0.660051 0.0410157 0.
0.662052 0.041016 0.
0.664053 0.0410162 0.
0.666054 0.0410164 0.
0.668055 0.0410163 0.
0.670056 0.041016 0.
0.672057 0.0410157 0.
0.674058 0.041015 0.
0.676058 0.0410144 0.
0.678059 0.041014 0.
0.68006 0.041015 0.
0.682061 0.041016 0.
0.684062 0.0410169 0.
0.686063 0.0410177 0.
0.688063 0.0410184 0.
0.690064 0.0410196 0.
0.692065 0.0410209 0.
0.694066 0.0410223 0.
0.696066 0.0410243 0.
0.698067 0.0410265 0.
0.499938 0.0430249 0.
0.501938 0.0430234 0.
0.503938 0.0430218 0.
0.505939 0.0430201 0.
0.50794 0.043018 0.
0.509941 0.0430159 0.
0.511942 0.0430142 0.
0.513942 0.0430131 0.
0.515943 0.043012 0.
0.517943 0.0430116 0.
0.519944 0.0430115 0.
0.521944 0.0430114 0.
0.523945 0.0430114 0.
0.525946 0.0430115 0.
0.527947 0.0430115 0.
0.529948 0.0430107 0.
0.531949 0.0430098 0.
0.53395 0.0430091 0.
0.53595 0.0430087 0.
0.537951 0.0430082 0.
0.539952 0.0430082 0.
0.541954 0.0430084 0.
0.543955 0.0430087 0.
0.545957 0.0430088 0.
0.547958 0.0430088 0.
0.549959 0.0430089 0.
0.55196 0.0430087 0.
0.553962 0.0430086 0.
0.555963 0.0430084 0.
0.557964 0.0430081 0.
0.559966 0.0430079 0.
0.561967 0.0430075 0.
0.563969 0.0430068 0.
0.56597 0.0430062 0.
0.567972 0.0430056 0.
0.569974 0.043005 0.
0.571976 0.0430044 0.
0.573978 0.0430036 0.
0.57598 0.0430028 0.
0.577982 0.0430019 0.
0.579984 0.0430001 0.
0.581985 0.0429983 0.
0.583987 0.0429969 0.
0.585988 0.0429962 0.
0.58799 0.0429956 0.
0.589991 0.0429947 0.
0.591992 0.0429937 0.
0.593993 0.0429926 0.
0.595995 0.042992 0.
0.597998 0.0429914 0.
0.6 0.0429909 0.
0.602002 0.0429915 0.
0.604005 0.0429921 0.
0.606007 0.0429927 0.
0.608008 0.0429933 0.
0.61001 0.042994 0.
0.612012 0.0429948 0.
0.614013 0.0429961 0.
0.616015 0.0429973 0.
0.618016 0.0429989 0.
0.620017 0.0430007 0.
0.622018 0.0430025 0.
0.62402 0.0430034 0.
0.626021 0.0430042 0.
0.628023 0.0430049 0.
0.630025 0.0430053 0.
0.632027 0.0430058 0.
0.634029 0.0430065 0.
0.63603 0.043008 0.
0.638031 0.0430095 0.
0.640033 0.0430104 0.
0.642035 0.0430108 0.
0.644036 0.0430113 0.
0.646038 0.0430114 0.
0.648039 0.0430114 0.
0.650041 0.0430113 0.
0.652042 0.0430118 0.
0.654043 0.0430123 0.
0.656045 0.0430128 0.
0.658047 0.0430134 0.
0.660049 0.043014 0.
0.66205 0.0430145 0.
0.664051 0.0430148 0.
0.666053 0.0430152 0.
0.668054 0.0430152 0.
0.670054 0.043015 0.
0.672055 0.0430149 0.
0.674056 0.0430145 0.
0.676056 0.043014 0.
0.678057 0.0430138 0.
0.680058 0.043015 0.
0.682059 0.0430162 0.
0.68406 0.0430172 0.
0.68606 0.0430177 0.
0.688061 0.0430182 0.
0.690061 0.0430192 0.
0.692062 0.0430207 0.
0.694063 0.0430221 0.
0.696064 0.0430246 0.
0.698064 0.0430273 0.
0.499941 0.0450256 0.
0.501941 0.0450239 0.
0.503941 0.0450222 0.
0.505941 0.0450205 0.
0.507942 0.0450183 0.
0.509943 0.0450162 0.
0.511944 0.0450143 0.
0.513945 0.0450128 0.
0.515945 0.0450114 0.
0.517946 0.0450111 0.
0.519946 0.0450115 0.
0.521946 0.0450118 0.
0.523947 0.0450115 0.
0.525948 0.0450111 0.
0.527949 0.0450106 0.
0.529949 0.0450098 0.
0.53195 0.0450089 0.
0.533951 0.0450082 0.
0.535951 0.0450079 0.
0.537952 0.0450076 0.
0.539954 0.0450076 0.
0.541956 0.0450078 0.
0.543958 0.0450079 0.
0.545959 0.045008 0.
0.54796 0.0450079 0.
0.549961 0.0450078 0.
0.551963 0.0450078 0.
0.553964 0.0450077 0.
0.555965 0.0450075 0.
0.557967 0.045007 0.
0.559968 0.0450065 0.
0.56197 0.0450059 0.
0.563971 0.0450053 0.
0.565972 0.0450046 0.
0.567974 0.045004 0.
0.569975 0.0450034 0.
0.571977 0.0450027 0.
0.573979 0.0450019 0.
0.575982 0.0450011 0.
0.577984 0.0450003 0.
0.579985 0.0449989 0.
0.581987 0.0449974 0.
0.583988 0.0449962 0.
0.585989 0.0449953 0.
0.587991 0.0449945 0.
0.589992 0.0449937 0.
0.591992 0.0449931 0.
0.593993 0.0449924 0.
0.595995 0.0449917 0.
0.597998 0.044991 0.
0.6 0.0449903 0.
0.602002 0.0449911 0.
0.604004 0.0449919 0.
0.606005 0.0449926 0.
0.608007 0.0449929 0.
0.610009 0.0449932 0.
0.612011 0.044994 0.
0.614012 0.0449953 0.
0.616014 0.0449966 0.
0.618015 0.0449981 0.
0.620015 0.0449998 0.
0.622016 0.0450015 0.
0.624018 0.0450022 0.
0.62602 0.0450028 0.
0.628022 0.0450034 0.
0.630024 0.0450037 0.
0.632026 0.0450039 0.
0.634027 0.0450046 0.
0.636028 0.0450061 0.
0.638029 0.0450076 0.
0.64003 0.0450085 0.
0.642032 0.0450089 0.
0.644033 0.0450093 0.
0.646035 0.0450098 0.
0.648037 0.0450103 0.
0.650039 0.0450108 0.
0.65204 0.0450109 0.
0.654041 0.0450109 0.
0.656042 0.0450111 0.
0.658044 0.0450117 0.
0.660046 0.0450124 0.
0.662048 0.045013 0.
0.66405 0.0450134 0.
0.666051 0.0450139 0.
0.668052 0.0450141 0.
0.670053 0.0450141 0.
0.672054 0.045014 0.
0.674054 0.0450139 0.
0.676055 0.0450137 0.
0.678055 0.0450137 0.
0.680056 0.0450151 0.
0.682056 0.0450165 0.
0.684057 0.0450175 0.
0.686058 0.0450177 0.
0.688058 0.0450179 0.
0.690059 0.0450189 0.
0.69206 0.0450204 0.
0.694061 0.0450219 0.
0.696061 0.0450248 0.
0.698061 0.0450281 0.
0.499942 0.047026 0.
0.501942 0.047024 0.
0.503943 0.0470221 0.
0.505944 0.0470201 0.
0.507944 0.0470182 0.
0.509945 0.0470163 0.
0.511946 0.0470146 0.
0.513947 0.0470132 0.
0.515947 0.0470118 0.
0.517948 0.0470113 0.
0.519948 0.0470112 0.
0.521949 0.047011 0.
0.523949 0.0470108 0.
0.52595 0.0470106 0.
0.527951 0.0470103 0.
0.529952 0.0470094 0.
0.531953 0.0470086 0.
0.533953 0.0470078 0.
0.535954 0.0470075 0.
0.537955 0.0470071 0.
0.539956 0.0470068 0.
0.541958 0.0470067 0.
0.543959 0.0470065 0.
0.54596 0.0470066 0.
0.547962 0.0470067 0.
0.549963 0.0470068 0.
0.551964 0.0470066 0.
0.553966 0.0470064 0.
0.555967 0.0470061 0.
0.557969 0.0470055 0.
0.55997 0.047005 0.
0.561972 0.0470045 0.
0.563973 0.0470039 0.
0.565974 0.0470033 0.
0.567976 0.0470027 0.
0.569977 0.0470021 0.
0.571978 0.0470015 0.
0.57398 0.0470008 0.
0.575983 0.0470001 0.
0.577985 0.0469993 0.
0.579986 0.046998 0.
0.581988 0.0469967 0.
0.583989 0.0469955 0.
0.58599 0.0469946 0.
0.587992 0.0469937 0.
0.589993 0.0469929 0.
0.591993 0.0469922 0.
0.593994 0.0469915 0.
0.595996 0.0469909 0.
0.597998 0.0469904 0.
0.6 0.0469899 0.
0.602001 0.0469906 0.
0.604003 0.0469913 0.
0.606004 0.0469919 0.
0.608006 0.0469922 0.
0.610008 0.0469924 0.
0.61201 0.0469931 0.
0.614011 0.0469945 0.
0.616012 0.0469958 0.
0.618013 0.0469972 0.
0.620014 0.0469987 0.
0.622015 0.0470001 0.
0.624017 0.047001 0.
0.626019 0.0470018 0.
0.628021 0.0470025 0.
0.630023 0.0470027 0.
0.632025 0.0470029 0.
0.634026 0.0470035 0.
0.636027 0.0470048 0.
0.638028 0.0470062 0.
0.640029 0.0470069 0.
0.642031 0.0470073 0.
0.644032 0.0470076 0.
0.646033 0.047008 0.
0.648035 0.0470084 0.
0.650037 0.0470089 0.
0.652038 0.0470092 0.
0.654039 0.0470094 0.
0.656041 0.0470098 0.
0.658042 0.0470105 0.
0.660044 0.0470112 0.
0.662046 0.0470117 0.
0.664047 0.047012 0.
0.666048 0.0470123 0.
0.668049 0.0470127 0.
0.67005 0.0470132 0.
0.672051 0.0470137 0.
0.674051 0.0470138 0.
0.676052 0.0470137 0.
0.678053 0.0470139 0.
0.680053 0.0470151 0.
0.682054 0.0470163 0.
0.684055 0.0470173 0.
0.686055 0.0470177 0.
0.688056 0.0470181 0.
0.690056 0.0470192 0.
0.692057 0.0470208 0.
0.694057 0.0470225 0.
0.696058 0.0470252 0.
0.698059 0.0470281 0.
0.499943 0.0490264 0.
0.501944 0.0490242 0.
0.503945 0.0490219 0.
0.505946 0.0490197 0.
0.507947 0.0490181 0.
0.509947 0.0490164 0.
0.511948 0.0490149 0.
0.513949 0.0490136 0.
0.515949 0.0490123 0.
0.51795 0.0490114 0.
0.519951 0.0490108 0.
0.521951 0.0490102 0.
0.523952 0.0490101 0.
0.525952 0.0490101 0.
0.527953 0.04901 0.
0.529954 0.0490091 0.
0.531955 0.0490083 0.
0.533956 0.0490075 0.
0.535957 0.049007 0.
0.537958 0.0490065 0.
0.539959 0.049006 0.
0.54196 0.0490056 0.
0.543961 0.0490051 0.
0.545962 0.0490053 0.
0.547963 0.0490056 0.
0.549964 0.0490058 0.
0.551966 0.0490055 0.
0.553968 0.0490051 0.
0.555969 0.0490046 0.
0.557971 0.0490041 0.
0.559972 0.0490035 0.
0.561974 0.049003 0.
0.563975 0.0490025 0.
0.565977 0.0490019 0.
0.567978 0.0490014 0.
0.569979 0.0490009 0.
0.571979 0.0490003 0.
0.573981 0.0489997 0.
0.575983 0.0489991 0.
0.577985 0.0489984 0.
0.579987 0.0489972 0.
0.581989 0.048996 0.
0.58399 0.0489948 0.
0.585991 0.0489938 0.
0.587992 0.0489929 0.
0.589993 0.048992 0.
0.591994 0.0489913 0.
0.593995 0.0489905 0.
0.595997 0.0489901 0.
0.597998 0.0489898 0.
0.599999 0.0489895 0.
0.602001 0.0489901 0.
0.604002 0.0489907 0.
0.606003 0.0489912 0.
0.608005 0.0489914 0.
0.610007 0.0489916 0.
0.612008 0.0489923 0.
0.61401 0.0489936 0.
0.616011 0.048995 0.
0.618012 0.0489963 0.
0.620013 0.0489975 0.
0.622015 0.0489987 0.
0.624016 0.0489998 0.
0.626018 0.0490008 0.
0.62802 0.0490017 0.
0.630022 0.0490018 0.
0.632024 0.0490019 0.
0.634025 0.0490024 0.
0.636026 0.0490036 0.
0.638027 0.0490047 0.
0.640028 0.0490054 0.
0.642029 0.0490056 0.
0.64403 0.0490058 0.
0.646032 0.0490062 0.
0.648033 0.0490066 0.
0.650034 0.0490069 0.
0.652036 0.0490075 0.
0.654037 0.049008 0.
0.656039 0.0490085 0.
0.658041 0.0490093 0.
0.660042 0.04901 0.
0.662044 0.0490105 0.
0.664045 0.0490106 0.
0.666045 0.0490106 0.
0.668046 0.0490114 0.
0.670047 0.0490124 0.
0.672048 0.0490134 0.
0.674049 0.0490137 0.
0.67605 0.0490138 0.
0.678051 0.0490141 0.
0.680051 0.0490151 0.
0.682052 0.0490162 0.
0.684052 0.0490171 0.
0.686053 0.0490176 0.
0.688053 0.0490182 0.
0.690054 0.0490195 0.
0.692054 0.0490213 0.
0.694054 0.049023 0.
0.696055 0.0490255 0.
0.698056 0.0490282 0.
0.499944 0.0510264 0.
0.501945 0.0510241 0.
0.503947 0.0510218 0.
0.505948 0.0510196 0.
0.507949 0.051018 0.
0.50995 0.0510164 0.
0.511951 0.0510148 0.
0.513951 0.0510135 0.
0.515952 0.0510121 0.
0.517952 0.0510111 0.
0.519953 0.0510102 0.
0.521954 0.0510093 0.
0.523954 0.0510094 0.
0.525955 0.0510097 0.
0.527955 0.0510098 0.
0.529956 0.0510088 0.
0.531957 0.0510078 0.
0.533959 0.0510069 0.
0.53596 0.0510065 0.
0.537961 0.051006 0.
0.539961 0.0510054 0.
0.541962 0.0510048 0.
0.543962 0.0510041 0.
0.545964 0.0510041 0.
0.547965 0.0510044 0.
0.549966 0.0510047 0.
0.551968 0.0510042 0.
0.553969 0.0510036 0.
0.555971 0.0510031 0.
0.557973 0.0510027 0.
0.559974 0.0510023 0.
0.561975 0.0510018 0.
0.563977 0.0510013 0.
0.565978 0.0510007 0.
0.567979 0.0510002 0.
0.56998 0.0509997 0.
0.571981 0.0509991 0.
0.573982 0.0509986 0.
0.575984 0.050998 0.
0.577986 0.0509974 0.
0.579988 0.0509963 0.
0.581989 0.0509953 0.
0.583991 0.0509943 0.
0.585992 0.0509933 0.
0.587992 0.0509922 0.
0.589993 0.0509914 0.
0.591995 0.0509907 0.
0.593996 0.05099 0.
0.595997 0.0509897 0.
0.597998 0.0509895 0.
0.6 0.0509893 0.
0.602001 0.0509897 0.
0.604002 0.0509901 0.
0.606003 0.0509904 0.
0.608004 0.0509907 0.
0.610006 0.050991 0.
0.612008 0.0509917 0.
0.614009 0.0509929 0.
0.61601 0.0509942 0.
0.618011 0.0509953 0.
0.620013 0.0509963 0.
0.622014 0.0509974 0.
0.624016 0.0509985 0.
0.626017 0.0509996 0.
0.628019 0.0510006 0.
0.630021 0.0510008 0.
0.632022 0.0510011 0.
0.634023 0.0510016 0.
0.636024 0.0510026 0.
0.638026 0.0510036 0.
0.640027 0.0510041 0.
0.642028 0.0510042 0.
0.644029 0.0510044 0.
0.64603 0.0510048 0.
0.648031 0.0510053 0.
0.650032 0.0510059 0.
0.652034 0.0510062 0.
0.654035 0.0510066 0.
0.656037 0.0510071 0.
0.658038 0.0510079 0.
0.66004 0.0510087 0.
0.662041 0.0510092 0.
0.664042 0.0510093 0.
0.666043 0.0510095 0.
0.668043 0.0510103 0.
0.670044 0.0510115 0.
0.672045 0.0510127 0.
0.674046 0.0510131 0.
0.676047 0.0510135 0.
0.678048 0.0510139 0.
0.680049 0.0510149 0.
0.682049 0.051016 0.
0.68405 0.0510169 0.
0.68605 0.0510176 0.
0.688051 0.0510183 0.
0.690051 0.0510197 0.
0.692052 0.0510215 0.
0.694052 0.0510233 0.
0.696053 0.0510258 0.
0.698054 0.0510284 0.
0.499947 0.0530259 0.
0.501948 0.0530237 0.
0.50395 0.0530217 0.
0.505951 0.0530198 0.
0.507952 0.0530179 0.
0.509953 0.0530161 0.
0.511953 0.0530144 0.
0.513954 0.0530128 0.
0.515954 0.0530113 0.
0.517955 0.0530102 0.
0.519956 0.0530093 0.
0.521957 0.0530084 0.
0.523957 0.0530088 0.
0.525957 0.0530094 0.
0.527957 0.0530099 0.
0.529958 0.0530085 0.
0.53196 0.0530071 0.
0.533961 0.0530061 0.
0.535962 0.0530058 0.
0.537963 0.0530056 0.
0.539964 0.053005 0.
0.541964 0.0530042 0.
0.543965 0.0530034 0.
0.545966 0.0530032 0.
0.547967 0.0530032 0.
0.549969 0.0530033 0.
0.55197 0.0530027 0.
0.553971 0.0530021 0.
0.555973 0.0530016 0.
0.557974 0.0530014 0.
0.559976 0.0530013 0.
0.561977 0.0530009 0.
0.563978 0.0530004 0.
0.56598 0.0529998 0.
0.567981 0.0529991 0.
0.569982 0.0529985 0.
0.571982 0.0529979 0.
0.573984 0.0529973 0.
0.575985 0.0529968 0.
0.577987 0.0529962 0.
0.579988 0.0529955 0.
0.58199 0.0529947 0.
0.583991 0.0529939 0.
0.585992 0.0529928 0.
0.587992 0.0529918 0.
0.589993 0.052991 0.
0.591994 0.0529904 0.
0.593995 0.0529899 0.
0.595997 0.0529896 0.
0.597999 0.0529895 0.
0.6 0.0529893 0.
0.602001 0.0529894 0.
0.604002 0.0529895 0.
0.606003 0.0529897 0.
0.608005 0.0529901 0.
0.610006 0.0529905 0.
0.612007 0.0529912 0.
0.614008 0.0529923 0.
0.616009 0.0529934 0.
0.618011 0.0529943 0.
0.620012 0.0529952 0.
0.622014 0.0529961 0.
0.624015 0.0529971 0.
0.626016 0.0529982 0.
0.628018 0.0529992 0.
0.630019 0.0529998 0.
0.63202 0.0530004 0.
0.634021 0.053001 0.
0.636022 0.0530019 0.
0.638023 0.0530028 0.
0.640024 0.0530031 0.
0.642026 0.0530031 0.
0.644027 0.0530031 0.
0.646028 0.0530038 0.
0.64803 0.0530047 0.
0.650031 0.0530055 0.
0.652032 0.0530055 0.
0.654033 0.0530055 0.
0.656035 0.0530057 0.
0.658036 0.0530064 0.
0.660037 0.0530071 0.
0.662038 0.0530078 0.
0.664039 0.0530082 0.
0.66604 0.0530087 0.
0.66804 0.0530095 0.
0.670041 0.0530105 0.
0.672042 0.0530114 0.
0.674043 0.0530121 0.
0.676044 0.0530127 0.
0.678045 0.0530134 0.
0.680046 0.0530145 0.
0.682047 0.0530156 0.
0.684048 0.0530167 0.
0.686048 0.0530176 0.
0.688049 0.0530185 0.
0.690049 0.0530198 0.
0.692049 0.0530216 0.
0.69405 0.0530233 0.
0.696051 0.0530259 0.
0.698052 0.0530288 0.
0.49995 0.0550253 0.
0.501951 0.0550234 0.
0.503952 0.0550217 0.
0.505954 0.05502 0.
0.507954 0.0550179 0.
0.509955 0.0550158 0.
0.511956 0.0550139 0.
0.513956 0.0550122 0.
0.515957 0.0550105 0.
0.517958 0.0550093 0.
0.519959 0.0550084 0.
0.52196 0.0550075 0.
0.52396 0.0550082 0.
0.525959 0.0550092 0.
0.527959 0.0550099 0.
0.52996 0.0550082 0.
0.531962 0.0550065 0.
0.533963 0.0550053 0.
0.535964 0.0550052 0.
0.537965 0.0550051 0.
0.539966 0.0550046 0.
0.541966 0.0550036 0.
0.543967 0.0550027 0.
0.545968 0.0550023 0.
0.54797 0.0550021 0.
0.549971 0.0550019 0.
0.551972 0.0550012 0.
0.553973 0.0550006 0.
0.555974 0.0550001 0.
0.557976 0.0550002 0.
0.559978 0.0550003 0.
0.561979 0.0550001 0.
0.56398 0.0549994 0.
0.565981 0.0549988 0.
0.567982 0.0549981 0.
0.569983 0.0549973 0.
0.571984 0.0549966 0.
0.573985 0.0549961 0.
0.575986 0.0549955 0.
0.577987 0.0549951 0.
0.579989 0.0549946 0.
0.58199 0.0549942 0.
0.583991 0.0549935 0.
0.585992 0.0549924 0.
0.587992 0.0549913 0.
0.589993 0.0549906 0.
0.591994 0.0549902 0.
0.593995 0.0549898 0.
0.595997 0.0549896 0.
0.597999 0.0549894 0.
0.600001 0.0549893 0.
0.602002 0.0549892 0.
0.604003 0.054989 0.
0.606004 0.054989 0.
0.608005 0.0549895 0.
0.610006 0.05499 0.
0.612007 0.0549907 0.
0.614008 0.0549917 0.
0.616009 0.0549926 0.
0.61801 0.0549934 0.
0.620012 0.0549941 0.
0.622014 0.0549948 0.
0.624015 0.0549958 0.
0.626015 0.0549968 0.
0.628016 0.0549978 0.
0.630017 0.0549987 0.
0.632018 0.0549997 0.
0.634019 0.0550005 0.
0.63602 0.0550012 0.
0.638021 0.0550019 0.
0.640022 0.0550021 0.
0.642024 0.055002 0.
0.644026 0.0550019 0.
0.646027 0.0550028 0.
0.648028 0.055004 0.
0.650029 0.0550052 0.
0.65203 0.0550048 0.
0.654032 0.0550044 0.
0.656033 0.0550042 0.
0.658033 0.0550049 0.
0.660034 0.0550056 0.
0.662035 0.0550063 0.
0.664036 0.0550072 0.
0.666036 0.055008 0.
0.668037 0.0550088 0.
0.670038 0.0550095 0.
0.672039 0.0550102 0.
0.67404 0.0550111 0.
0.676041 0.055012 0.
0.678043 0.0550129 0.
0.680044 0.0550141 0.
0.682045 0.0550153 0.
0.684046 0.0550165 0.
0.686046 0.0550175 0.
0.688046 0.0550186 0.
0.690047 0.05502 0.
0.692047 0.0550217 0.
0.694048 0.0550233 0.
0.696049 0.0550261 0.
0.69805 0.0550291 0.
0.499952 0.0570248 0.
0.501953 0.0570227 0.
0.503955 0.057021 0.
0.505956 0.0570193 0.
0.507957 0.0570175 0.
0.509957 0.0570157 0.
0.511958 0.0570139 0.
0.513958 0.0570122 0.
0.515959 0.0570104 0.
0.51796 0.0570092 0.
0.51996 0.0570083 0.
0.521961 0.0570074 0.
0.523962 0.0570081 0.
0.525962 0.0570089 0.
0.527962 0.0570095 0.
0.529963 0.0570079 0.
0.531964 0.0570063 0.
0.533965 0.057005 0.
0.535966 0.0570047 0.
0.537967 0.0570043 0.
0.539968 0.0570036 0.
0.541969 0.0570026 0.
0.54397 0.0570016 0.
0.545971 0.0570012 0.
0.547972 0.057001 0.
0.549972 0.0570007 0.
0.551973 0.0570003 0.
0.553974 0.0569999 0.
0.555976 0.0569996 0.
0.557977 0.0569994 0.
0.559979 0.0569993 0.
0.56198 0.0569991 0.
0.563981 0.0569988 0.
0.565982 0.0569985 0.
0.567983 0.0569979 0.
0.569984 0.056997 0.
0.571985 0.0569962 0.
0.573986 0.0569956 0.
0.575987 0.0569951 0.
0.577988 0.0569945 0.
0.579989 0.056994 0.
0.581991 0.0569935 0.
0.583992 0.0569928 0.
0.585992 0.0569919 0.
0.587992 0.056991 0.
0.589993 0.0569905 0.
0.591994 0.0569902 0.
0.593995 0.0569899 0.
0.595997 0.0569895 0.
0.597999 0.0569892 0.
0.600001 0.0569888 0.
0.602002 0.0569886 0.
0.604003 0.0569885 0.
0.606004 0.0569885 0.
0.608005 0.0569892 0.
0.610006 0.0569898 0.
0.612006 0.0569904 0.
0.614007 0.0569912 0.
0.616008 0.0569919 0.
0.618009 0.0569926 0.
0.620011 0.0569932 0.
0.622012 0.0569938 0.
0.624013 0.0569948 0.
0.626014 0.0569957 0.
0.628015 0.0569967 0.
0.630016 0.0569975 0.
0.632016 0.0569983 0.
0.634017 0.0569991 0.
0.636018 0.0570001 0.
0.638019 0.0570011 0.
0.640021 0.0570013 0.
0.642022 0.057001 0.
0.644024 0.0570007 0.
0.646025 0.0570015 0.
0.648026 0.0570027 0.
0.650028 0.0570038 0.
0.652029 0.0570037 0.
0.65403 0.0570035 0.
0.656031 0.0570035 0.
0.658032 0.057004 0.
0.660033 0.0570046 0.
0.662033 0.0570053 0.
0.664034 0.0570065 0.
0.666035 0.0570076 0.
0.668035 0.0570084 0.
0.670036 0.057009 0.
0.672037 0.0570096 0.
0.674038 0.0570106 0.
0.676039 0.0570116 0.
0.678041 0.0570125 0.
0.680041 0.0570137 0.
0.682042 0.0570148 0.
0.684042 0.0570159 0.
0.686043 0.057017 0.
0.688043 0.0570181 0.
0.690044 0.0570198 0.
0.692044 0.0570218 0.
0.694045 0.0570239 0.
0.696046 0.0570268 0.
0.698046 0.05703 0.
0.499954 0.0590241 0.
0.501955 0.0590221 0.
0.503957 0.0590203 0.
0.505958 0.0590186 0.
0.507959 0.0590171 0.
0.509959 0.0590155 0.
0.51196 0.0590139 0.
0.513961 0.0590121 0.
0.515961 0.0590103 0.
0.517962 0.0590091 0.
0.519962 0.0590083 0.
0.521963 0.0590074 0.
0.523963 0.0590079 0.
0.525964 0.0590087 0.
0.527965 0.0590091 0.
0.529966 0.0590076 0.
0.531966 0.0590061 0.
0.533967 0.0590048 0.
0.535968 0.0590041 0.
0.537969 0.0590035 0.
0.53997 0.0590026 0.
0.541971 0.0590016 0.
0.543972 0.0590005 0.
0.545973 0.0590001 0.
0.547973 0.0589999 0.
0.549974 0.0589996 0.
0.551975 0.0589995 0.
0.553976 0.0589993 0.
0.555977 0.0589991 0.
0.557978 0.0589987 0.
0.55998 0.0589983 0.
0.561981 0.0589981 0.
0.563981 0.0589982 0.
0.565982 0.0589982 0.
0.567983 0.0589976 0.
0.569984 0.0589967 0.
0.571985 0.0589957 0.
0.573987 0.0589951 0.
0.575988 0.0589946 0.
0.577989 0.058994 0.
0.57999 0.0589934 0.
0.581991 0.0589927 0.
0.583992 0.0589921 0.
0.585992 0.0589914 0.
0.587992 0.0589907 0.
0.589993 0.0589903 0.
0.591994 0.0589902 0.
0.593995 0.05899 0.
0.595997 0.0589895 0.
0.597998 0.0589889 0.
0.6 0.0589883 0.
0.602002 0.0589881 0.
0.604003 0.058988 0.
0.606005 0.0589881 0.
0.608005 0.0589888 0.
0.610006 0.0589895 0.
0.612006 0.0589901 0.
0.614007 0.0589907 0.
0.616008 0.0589913 0.
0.618009 0.0589918 0.
0.620009 0.0589923 0.
0.62201 0.0589929 0.
0.624011 0.0589937 0.
0.626012 0.0589946 0.
0.628013 0.0589955 0.
0.630014 0.0589962 0.
0.632015 0.0589968 0.
0.634016 0.0589977 0.
0.636017 0.058999 0.
0.638018 0.0590002 0.
0.640019 0.0590005 0.
0.642021 0.059 0.
0.644022 0.0589995 0.
0.646023 0.0590002 0.
0.648025 0.0590013 0.
0.650026 0.0590024 0.
0.652027 0.0590025 0.
0.654028 0.0590027 0.
0.656029 0.0590028 0.
0.65803 0.0590032 0.
0.660031 0.0590035 0.
0.662031 0.0590043 0.
0.664032 0.0590058 0.
0.666033 0.0590072 0.
0.668034 0.059008 0.
0.670034 0.0590085 0.
0.672034 0.059009 0.
0.674036 0.0590101 0.
0.676037 0.0590111 0.
0.678039 0.0590122 0.
0.680039 0.0590132 0.
0.682039 0.0590143 0.
0.684039 0.0590154 0.
0.68604 0.0590165 0.
0.68804 0.0590176 0.
0.690041 0.0590195 0.
0.692041 0.059022 0.
0.694042 0.0590244 0.
0.696043 0.0590276 0.
0.698043 0.0590309 0.
0.499956 0.0610236 0.
0.501958 0.0610216 0.
0.503959 0.0610196 0.
0.505961 0.0610179 0.
0.507961 0.0610166 0.
0.509962 0.0610154 0.
0.511962 0.0610139 0.
0.513963 0.0610121 0.
0.515963 0.0610104 0.
0.517964 0.0610092 0.
0.519964 0.0610082 0.
0.521965 0.0610073 0.
0.523966 0.0610077 0.
0.525967 0.0610082 0.
0.527967 0.0610085 0.
0.529968 0.0610072 0.
0.531969 0.0610058 0.
0.533969 0.0610046 0.
0.53597 0.0610036 0.
0.537971 0.0610026 0.
0.539972 0.0610017 0.
0.541973 0.0610007 0.
0.543974 0.0609996 0.
0.545975 0.0609992 0.
0.547975 0.060999 0.
0.549976 0.0609988 0.
0.551977 0.0609987 0.
0.553978 0.0609986 0.
0.555979 0.0609985 0.
0.55798 0.060998 0.
0.559981 0.0609975 0.
0.561982 0.0609972 0.
0.563983 0.0609974 0.
0.565984 0.0609976 0.
0.567984 0.0609971 0.
0.569985 0.0609962 0.
0.571986 0.0609954 0.
0.573988 0.0609947 0.
0.575989 0.060994 0.
0.57799 0.0609933 0.
0.579991 0.0609927 0.
0.581992 0.0609921 0.
0.583992 0.0609915 0.
0.585993 0.0609911 0.
0.587993 0.0609907 0.
0.589994 0.0609903 0.
0.591994 0.06099 0.
0.593995 0.0609897 0.
0.595997 0.0609891 0.
0.597998 0.0609884 0.
0.6 0.0609878 0.
0.602002 0.0609879 0.
0.604003 0.0609879 0.
0.606005 0.0609881 0.
0.608005 0.0609887 0.
0.610006 0.0609893 0.
0.612006 0.0609899 0.
0.614007 0.0609903 0.
0.616007 0.0609908 0.
0.618008 0.0609913 0.
0.620008 0.0609917 0.
0.622008 0.0609922 0.
0.62401 0.060993 0.
0.626011 0.0609939 0.
0.628012 0.0609947 0.
0.630012 0.0609954 0.
0.632013 0.060996 0.
0.634014 0.0609968 0.
0.636015 0.060998 0.
0.638017 0.0609992 0.
0.640018 0.0609995 0.
0.642019 0.060999 0.
0.64402 0.0609985 0.
0.646022 0.0609992 0.
0.648023 0.0610001 0.
0.650024 0.0610011 0.
0.652025 0.0610014 0.
0.654026 0.0610017 0.
0.656027 0.061002 0.
0.658028 0.0610023 0.
0.660029 0.0610027 0.
0.662029 0.0610036 0.
0.66403 0.0610053 0.
0.666031 0.0610069 0.
0.668031 0.0610078 0.
0.670032 0.0610082 0.
0.672032 0.0610086 0.
0.674034 0.0610096 0.
0.676035 0.0610106 0.
0.678036 0.0610116 0.
0.680036 0.0610129 0.
0.682037 0.0610142 0.
0.684037 0.0610153 0.
0.686037 0.0610163 0.
0.688038 0.0610173 0.
0.690038 0.0610193 0.
0.692039 0.0610219 0.
0.694039 0.0610245 0.
0.69604 0.0610277 0.
0.69804 0.0610309 0.
0.49996 0.0630235 0.
0.501961 0.0630212 0.
0.503962 0.063019 0.
0.505963 0.0630172 0.
0.507964 0.0630162 0.
0.509964 0.0630152 0.
0.511965 0.0630139 0.
0.513965 0.0630122 0.
0.515966 0.0630105 0.
0.517966 0.0630093 0.
0.519967 0.0630082 0.
0.521967 0.0630072 0.
0.523968 0.0630073 0.
0.525969 0.0630076 0.
0.52797 0.0630077 0.
0.529971 0.0630066 0.
0.531971 0.0630055 0.
0.533972 0.0630044 0.
0.535973 0.0630031 0.
0.537974 0.0630018 0.
0.539974 0.0630008 0.
0.541975 0.0629999 0.
0.543975 0.062999 0.
0.545976 0.0629986 0.
0.547977 0.0629984 0.
0.549977 0.0629981 0.
0.551979 0.062998 0.
0.55398 0.0629979 0.
0.555981 0.0629977 0.
0.557982 0.0629972 0.
0.559982 0.0629967 0.
0.561983 0.0629965 0.
0.563984 0.0629965 0.
0.565985 0.0629965 0.
0.567986 0.0629962 0.
0.569987 0.0629956 0.
0.571988 0.0629951 0.
0.573988 0.0629943 0.
0.575989 0.0629934 0.
0.57799 0.0629925 0.
0.579991 0.062992 0.
0.581993 0.0629915 0.
0.583993 0.0629911 0.
0.585994 0.062991 0.
0.587994 0.062991 0.
0.589994 0.0629905 0.
0.591995 0.0629896 0.
0.593995 0.0629888 0.
0.595997 0.0629883 0.
0.597998 0.0629878 0.
0.6 0.0629874 0.
0.602002 0.0629878 0.
0.604003 0.0629882 0.
0.606004 0.0629886 0.
0.608005 0.062989 0.
0.610006 0.0629893 0.
0.612006 0.0629896 0.
0.614006 0.0629901 0.
0.616006 0.0629906 0.
0.618006 0.062991 0.
0.620007 0.0629914 0.
0.622007 0.0629918 0.
0.624009 0.0629926 0.
0.62601 0.0629935 0.
0.628011 0.0629943 0.
0.630011 0.0629949 0.
0.632012 0.0629956 0.
0.634013 0.0629963 0.
0.636014 0.0629972 0.
0.638016 0.062998 0.
0.640017 0.0629983 0.
0.642018 0.0629981 0.
0.644019 0.0629979 0.
0.64602 0.0629984 0.
0.648021 0.0629992 0.
0.650022 0.0629999 0.
0.652023 0.0630003 0.
0.654024 0.0630008 0.
0.656025 0.0630012 0.
0.658026 0.0630016 0.
0.660027 0.063002 0.
0.662027 0.0630031 0.
0.664028 0.0630049 0.
0.666029 0.0630068 0.
0.668029 0.0630076 0.
0.67003 0.063008 0.
0.672031 0.0630084 0.
0.674032 0.0630091 0.
0.676033 0.0630099 0.
0.678033 0.0630108 0.
0.680034 0.0630126 0.
0.682034 0.0630143 0.
0.684035 0.0630157 0.
0.686035 0.0630164 0.
0.688036 0.0630171 0.
0.690036 0.063019 0.
0.692036 0.0630216 0.
0.694036 0.0630242 0.
0.696037 0.0630271 0.
0.698038 0.06303 0.
0.499963 0.065023 0.
0.501964 0.0650209 0.
0.503965 0.0650184 0.
0.505965 0.0650164 0.
0.507966 0.0650157 0.
0.509967 0.065015 0.
0.511968 0.0650139 0.
0.513968 0.0650123 0.
0.515968 0.0650106 0.
0.517968 0.0650093 0.
0.519969 0.0650082 0.
0.52197 0.0650071 0.
0.523971 0.065007 0.
0.525971 0.065007 0.
0.527972 0.0650069 0.
0.529973 0.0650061 0.
0.531974 0.0650053 0.
0.533975 0.0650042 0.
0.535976 0.0650026 0.
0.537976 0.065001 0.
0.539977 0.0649999 0.
0.541977 0.0649992 0.
0.543977 0.0649984 0.
0.545977 0.0649981 0.
0.547978 0.0649978 0.
0.549979 0.0649975 0.
0.551981 0.0649974 0.
0.553982 0.0649972 0.
0.555984 0.0649969 0.
0.557984 0.0649965 0.
0.559984 0.064996 0.
0.561985 0.0649957 0.
0.563986 0.0649956 0.
0.565987 0.0649955 0.
0.567988 0.0649953 0.
0.569988 0.0649951 0.
0.571989 0.0649949 0.
0.573989 0.0649939 0.
0.57599 0.0649928 0.
0.577991 0.0649917 0.
0.579992 0.0649913 0.
0.581993 0.0649909 0.
0.583994 0.0649907 0.
0.585994 0.064991 0.
0.587995 0.0649912 0.
0.589995 0.0649906 0.
0.591995 0.0649892 0.
0.593995 0.0649879 0.
0.595997 0.0649874 0.
0.597999 0.0649872 0.
0.6 0.064987 0.
0.602002 0.0649878 0.
0.604003 0.0649886 0.
0.606004 0.0649892 0.
0.608005 0.0649892 0.
0.610006 0.0649892 0.
0.612006 0.0649894 0.
0.614005 0.0649899 0.
0.616005 0.0649904 0.
0.618005 0.0649908 0.
0.620006 0.0649911 0.
0.622006 0.0649914 0.
0.624008 0.0649922 0.
0.626009 0.064993 0.
0.62801 0.0649939 0.
0.63001 0.0649945 0.
0.632011 0.0649952 0.
0.634012 0.0649958 0.
0.636013 0.0649963 0.
0.638015 0.0649969 0.
0.640016 0.0649971 0.
0.642017 0.0649972 0.
0.644017 0.0649972 0.
0.646018 0.0649977 0.
0.648019 0.0649982 0.
0.650019 0.0649987 0.
0.65202 0.0649992 0.
0.654021 0.0649998 0.
0.656022 0.0650003 0.
0.658023 0.0650008 0.
0.660025 0.0650013 0.
0.662025 0.0650025 0.
0.664026 0.0650046 0.
0.666026 0.0650066 0.
0.668027 0.0650075 0.
0.670028 0.0650078 0.
0.672029 0.0650081 0.
0.67403 0.0650087 0.
0.67603 0.0650093 0.
0.678031 0.0650101 0.
0.680031 0.0650122 0.
0.682032 0.0650144 0.
0.684033 0.065016 0.
0.686033 0.0650165 0.
0.688034 0.065017 0.
0.690034 0.0650187 0.
0.692034 0.0650213 0.
0.694034 0.0650239 0.
0.696034 0.0650265 0.
0.698035 0.0650291 0.
0.499966 0.0670224 0.
0.501966 0.0670202 0.
0.503966 0.0670181 0.
0.505967 0.0670163 0.
0.507968 0.0670154 0.
0.509969 0.0670145 0.
0.511969 0.0670135 0.
0.51397 0.0670121 0.
0.51597 0.0670108 0.
0.517971 0.0670096 0.
0.519971 0.0670084 0.
0.521972 0.0670072 0.
0.523972 0.0670069 0.
0.525973 0.0670067 0.
0.527974 0.0670064 0.
0.529975 0.0670054 0.
0.531976 0.0670044 0.
0.533977 0.0670033 0.
0.535977 0.067002 0.
0.537978 0.0670007 0.
0.539978 0.0669998 0.
0.541978 0.0669992 0.
0.543978 0.0669986 0.
0.545979 0.066998 0.
0.54798 0.0669974 0.
0.549981 0.0669968 0.
0.551982 0.066997 0.
0.553983 0.0669971 0.
0.555985 0.066997 0.
0.557985 0.0669963 0.
0.559985 0.0669956 0.
0.561986 0.0669952 0.
0.563987 0.0669949 0.
0.565988 0.0669947 0.
0.567988 0.0669946 0.
0.569989 0.0669946 0.
0.571989 0.0669945 0.
0.57399 0.0669936 0.
0.575991 0.0669926 0.
0.577992 0.0669916 0.
0.579993 0.0669911 0.
0.581994 0.0669905 0.
0.583995 0.0669901 0.
0.585995 0.0669903 0.
0.587995 0.0669905 0.
0.589996 0.0669901 0.
0.591996 0.066989 0.
0.593996 0.066988 0.
0.595998 0.0669877 0.
0.597999 0.0669877 0.
0.6 0.0669876 0.
0.602002 0.0669881 0.
0.604003 0.0669886 0.
0.606004 0.066989 0.
0.608004 0.0669893 0.
0.610005 0.0669897 0.
0.612005 0.06699 0.
0.614005 0.0669902 0.
0.616005 0.0669905 0.
0.618005 0.0669907 0.
0.620006 0.0669908 0.
0.622006 0.0669909 0.
0.624007 0.0669916 0.
0.626007 0.0669923 0.
0.628008 0.066993 0.
0.630009 0.0669939 0.
0.63201 0.0669947 0.
0.634011 0.0669953 0.
0.636012 0.0669955 0.
0.638014 0.0669956 0.
0.640015 0.0669959 0.
0.642015 0.0669963 0.
0.644015 0.0669967 0.
0.646016 0.066997 0.
0.648017 0.0669972 0.
0.650018 0.0669975 0.
0.652019 0.0669982 0.
0.65402 0.0669989 0.
0.656021 0.0669996 0.
0.658021 0.0670003 0.
0.660022 0.0670011 0.
0.662023 0.0670023 0.
0.664024 0.067004 0.
0.666024 0.0670057 0.
0.668025 0.0670068 0.
0.670026 0.0670076 0.
0.672027 0.0670084 0.
0.674027 0.0670086 0.
0.676028 0.0670088 0.
0.678028 0.0670092 0.
0.680029 0.0670115 0.
0.682029 0.0670137 0.
0.68403 0.0670154 0.
0.686031 0.0670162 0.
0.688031 0.0670169 0.
0.690032 0.0670187 0.
0.692032 0.0670211 0.
0.694032 0.0670236 0.
0.696033 0.067026 0.
0.698034 0.0670283 0.
0.499968 0.0690214 0.
0.501968 0.0690196 0.
0.503968 0.0690178 0.
0.505968 0.0690162 0.
0.507969 0.0690151 0.
0.50997 0.069014 0.
0.511971 0.069013 0.
0.513972 0.069012 0.
0.515972 0.0690111 0.
0.517973 0.0690099 0.
0.519973 0.0690086 0.
0.521973 0.0690072 0.
0.523974 0.0690068 0.
0.525976 0.0690064 0.
0.527977 0.069006 0.
0.529977 0.0690048 0.
0.531978 0.0690036 0.
0.533978 0.0690024 0.
0.535979 0.0690014 0.
0.537979 0.0690004 0.
0.539979 0.0689997 0.
0.541979 0.0689993 0.
0.54398 0.0689988 0.
0.54598 0.068998 0.
0.547981 0.0689971 0.
0.549982 0.0689962 0.
0.551983 0.0689966 0.
0.553985 0.068997 0.
0.555986 0.0689971 0.
0.557986 0.0689962 0.
0.559986 0.0689953 0.
0.561987 0.0689946 0.
0.563987 0.0689943 0.
0.565988 0.068994 0.
0.567989 0.0689939 0.
0.569989 0.068994 0.
0.57199 0.0689942 0.
0.573991 0.0689934 0.
0.575992 0.0689925 0.
0.577993 0.0689916 0.
0.579993 0.0689908 0.
0.581994 0.0689901 0.
0.583995 0.0689896 0.
0.585996 0.0689897 0.
0.587996 0.0689898 0.
0.589997 0.0689895 0.
0.591997 0.0689888 0.
0.593998 0.0689881 0.
0.595998 0.068988 0.
0.597999 0.0689881 0.
0.6 0.0689881 0.
0.602002 0.0689883 0.
0.604003 0.0689886 0.
0.606004 0.0689889 0.
0.608004 0.0689895 0.
0.610004 0.0689901 0.
0.612004 0.0689905 0.
0.614005 0.0689906 0.
0.616006 0.0689906 0.
0.618006 0.0689906 0.
0.620006 0.0689904 0.
0.622006 0.0689903 0.
0.624006 0.0689909 0.
0.626006 0.0689916 0.
0.628007 0.0689922 0.
0.630008 0.0689932 0.
0.632009 0.0689941 0.
0.63401 0.0689947 0.
0.636012 0.0689946 0.
0.638013 0.0689944 0.
0.640013 0.0689948 0.
0.642013 0.0689955 0.
0.644013 0.0689962 0.
0.646014 0.0689963 0.
0.648015 0.0689963 0.
0.650016 0.0689963 0.
0.652017 0.0689971 0.
0.654018 0.0689979 0.
0.656019 0.0689988 0.
0.65802 0.0689999 0.
0.66002 0.0690009 0.
0.662021 0.0690021 0.
0.664021 0.0690034 0.
0.666022 0.0690048 0.
0.668022 0.0690061 0.
0.670023 0.0690074 0.
0.672024 0.0690087 0.
0.674025 0.0690086 0.
0.676025 0.0690083 0.
0.678026 0.0690084 0.
0.680026 0.0690107 0.
0.682027 0.069013 0.
0.684027 0.0690148 0.
0.686028 0.0690159 0.
0.688029 0.0690169 0.
0.690029 0.0690187 0.
0.69203 0.069021 0.
0.694031 0.0690233 0.
0.696031 0.0690254 0.
0.698032 0.0690275 0.
0.49997 0.0710208 0.
0.50197 0.0710192 0.
0.50397 0.0710177 0.
0.50597 0.0710163 0.
0.507971 0.071015 0.
0.509972 0.0710136 0.
0.511973 0.0710125 0.
0.513973 0.0710116 0.
0.515974 0.0710107 0.
0.517975 0.0710096 0.
0.519975 0.0710084 0.
0.521975 0.0710072 0.
0.523976 0.0710066 0.
0.525977 0.0710061 0.
0.527978 0.0710055 0.
0.529979 0.0710042 0.
0.531979 0.0710029 0.
0.53398 0.0710017 0.
0.53598 0.0710008 0.
0.53798 0.0709998 0.
0.539981 0.0709992 0.
0.541981 0.0709988 0.
0.543981 0.0709983 0.
0.545982 0.0709976 0.
0.547983 0.0709967 0.
0.549984 0.0709959 0.
0.551985 0.0709962 0.
0.553986 0.0709965 0.
0.555986 0.0709966 0.
0.557987 0.0709957 0.
0.559987 0.0709948 0.
0.561988 0.0709942 0.
0.563988 0.0709939 0.
0.565988 0.0709936 0.
0.567989 0.0709936 0.
0.56999 0.0709935 0.
0.57199 0.0709935 0.
0.573991 0.0709928 0.
0.575992 0.0709921 0.
0.577993 0.0709913 0.
0.579994 0.0709905 0.
0.581994 0.0709897 0.
0.583995 0.0709891 0.
0.585996 0.0709892 0.
0.587996 0.0709892 0.
0.589997 0.0709889 0.
0.591998 0.0709884 0.
0.593998 0.0709879 0.
0.595999 0.0709877 0.
0.598 0.0709877 0.
0.6 0.0709877 0.
0.602002 0.070988 0.
0.604003 0.0709884 0.
0.606004 0.0709889 0.
0.608004 0.0709895 0.
0.610003 0.0709902 0.
0.612003 0.0709905 0.
0.614004 0.0709904 0.
0.616005 0.0709904 0.
0.618006 0.0709903 0.
0.620006 0.0709901 0.
0.622006 0.0709899 0.
0.624006 0.0709906 0.
0.626006 0.0709913 0.
0.628006 0.070992 0.
0.630007 0.0709927 0.
0.632009 0.0709935 0.
0.63401 0.0709941 0.
0.636011 0.0709942 0.
0.638012 0.0709943 0.
0.640012 0.0709946 0.
0.642012 0.0709951 0.
0.644012 0.0709955 0.
0.646013 0.0709955 0.
0.648014 0.0709954 0.
0.650015 0.0709953 0.
0.652016 0.0709962 0.
0.654016 0.0709971 0.
0.656017 0.0709981 0.
0.658018 0.0709994 0.
0.660018 0.0710006 0.
0.662018 0.0710018 0.
0.664019 0.0710029 0.
0.666019 0.0710039 0.
0.66802 0.0710054 0.
0.670021 0.071007 0.
0.672021 0.0710085 0.
0.674022 0.0710084 0.
0.676023 0.0710081 0.
0.678024 0.0710081 0.
0.680024 0.0710103 0.
0.682024 0.0710124 0.
0.684025 0.0710143 0.
0.686026 0.0710155 0.
0.688026 0.0710168 0.
0.690027 0.0710186 0.
0.692028 0.0710208 0.
0.694028 0.071023 0.
0.696029 0.071025 0.
0.69803 0.0710269 0.
0.499972 0.0730205 0.
0.501972 0.0730191 0.
0.503973 0.0730178 0.
0.505973 0.0730165 0.
0.507974 0.0730149 0.
0.509974 0.0730134 0.
0.511975 0.073012 0.
0.513975 0.0730109 0.
0.515976 0.0730097 0.
0.517977 0.0730087 0.
0.519977 0.0730078 0.
0.521978 0.0730069 0.
0.523978 0.0730062 0.
0.525979 0.0730056 0.
0.52798 0.0730049 0.
0.52998 0.0730037 0.
0.531981 0.0730024 0.
0.533981 0.0730012 0.
0.535982 0.0730001 0.
0.537982 0.072999 0.
0.539983 0.0729983 0.
0.541983 0.0729977 0.
0.543983 0.0729971 0.
0.545984 0.0729967 0.
0.547985 0.0729963 0.
0.549986 0.0729958 0.
0.551986 0.0729958 0.
0.553987 0.0729958 0.
0.555987 0.0729957 0.
0.557988 0.072995 0.
0.559988 0.0729943 0.
0.561989 0.0729938 0.
0.563989 0.0729938 0.
0.565989 0.0729937 0.
0.56799 0.0729934 0.
0.56999 0.072993 0.
0.57199 0.0729926 0.
0.573991 0.072992 0.
0.575992 0.0729914 0.
0.577992 0.0729909 0.
0.579993 0.0729901 0.
0.581994 0.0729893 0.
0.583994 0.0729888 0.
0.585995 0.0729887 0.
0.587996 0.0729887 0.
0.589997 0.0729883 0.
0.591997 0.0729878 0.
0.593998 0.0729873 0.
0.595999 0.0729869 0.
0.598 0.0729865 0.
0.600001 0.0729862 0.
0.602001 0.0729872 0.
0.604002 0.0729882 0.
0.606003 0.072989 0.
0.608003 0.0729894 0.
0.610003 0.0729897 0.
0.612003 0.0729899 0.
0.614004 0.0729898 0.
0.616004 0.0729898 0.
0.618004 0.0729898 0.
0.620005 0.0729898 0.
0.622005 0.0729898 0.
0.624005 0.0729906 0.
0.626006 0.0729914 0.
0.628006 0.0729922 0.
0.630007 0.0729926 0.
0.632008 0.0729929 0.
0.634009 0.0729935 0.
0.63601 0.0729944 0.
0.638011 0.0729954 0.
0.640011 0.0729956 0.
0.642011 0.0729951 0.
0.644012 0.0729947 0.
0.646012 0.0729945 0.
0.648013 0.0729945 0.
0.650014 0.0729944 0.
0.652014 0.0729954 0.
0.654014 0.0729964 0.
0.656015 0.0729975 0.
0.658015 0.0729988 0.
0.660016 0.0730002 0.
0.662017 0.0730014 0.
0.664017 0.0730023 0.
0.666017 0.0730032 0.
0.668018 0.0730046 0.
0.670019 0.0730063 0.
0.672019 0.0730079 0.
0.67402 0.0730081 0.
0.676021 0.0730081 0.
0.678022 0.0730083 0.
0.680022 0.0730102 0.
0.682023 0.0730121 0.
0.684023 0.0730138 0.
0.686024 0.0730152 0.
0.688025 0.0730166 0.
0.690025 0.0730184 0.
0.692025 0.0730205 0.
0.694026 0.0730226 0.
0.696026 0.0730246 0.
0.698026 0.0730265 0.
0.499974 0.0750199 0.
0.501975 0.075019 0.
0.503976 0.0750179 0.
0.505976 0.0750166 0.
0.507977 0.0750149 0.
0.509977 0.0750131 0.
0.511977 0.0750116 0.
0.513977 0.0750102 0.
0.515978 0.0750087 0.
0.517978 0.0750078 0.
0.519979 0.0750072 0.
0.52198 0.0750066 0.
0.52398 0.0750059 0.
0.525981 0.0750052 0.
0.527981 0.0750044 0.
0.529981 0.0750032 0.
0.531982 0.0750019 0.
0.533982 0.0750006 0.
0.535983 0.0749995 0.
0.537984 0.0749983 0.
0.539985 0.0749974 0.
0.541985 0.0749966 0.
0.543986 0.0749959 0.
0.545986 0.0749958 0.
0.547987 0.0749958 0.
0.549988 0.0749958 0.
0.551988 0.0749954 0.
0.553987 0.0749951 0.
0.555987 0.0749947 0.
0.557988 0.0749942 0.
0.559989 0.0749937 0.
0.56199 0.0749935 0.
0.56399 0.0749937 0.
0.56599 0.0749938 0.
0.56799 0.0749933 0.
0.56999 0.0749925 0.
0.57199 0.0749916 0.
0.573991 0.0749912 0.
0.575991 0.0749908 0.
0.577992 0.0749904 0.
0.579992 0.0749896 0.
0.581993 0.0749889 0.
0.583994 0.0749884 0.
0.585995 0.0749882 0.
0.587995 0.0749881 0.
0.589996 0.0749878 0.
0.591997 0.0749873 0.
0.593998 0.0749868 0.
0.595999 0.0749861 0.
0.598 0.0749854 0.
0.600001 0.0749847 0.
0.602001 0.0749863 0.
0.604001 0.0749879 0.
0.606001 0.0749892 0.
0.608002 0.0749892 0.
0.610002 0.0749893 0.
0.612003 0.0749893 0.
0.614003 0.0749892 0.
0.616003 0.0749892 0.
0.618003 0.0749893 0.
0.620003 0.0749895 0.
0.622004 0.0749896 0.
0.624005 0.0749906 0.
0.626006 0.0749916 0.
0.628007 0.0749925 0.
0.630007 0.0749924 0.
0.632007 0.0749923 0.
0.634008 0.0749928 0.
0.636009 0.0749946 0.
0.63801 0.0749964 0.
0.64001 0.0749965 0.
0.642011 0.0749952 0.
0.644011 0.0749939 0.
0.646011 0.0749936 0.
0.648012 0.0749936 0.
0.650013 0.0749936 0.
0.652013 0.0749947 0.
0.654012 0.0749957 0.
0.656012 0.0749969 0.
0.658013 0.0749983 0.
0.660014 0.0749997 0.
0.662015 0.0750009 0.
0.664015 0.0750017 0.
0.666015 0.0750025 0.
0.668016 0.0750039 0.
0.670016 0.0750056 0.
0.672017 0.0750073 0.
0.674018 0.0750078 0.
0.676019 0.0750081 0.
0.67802 0.0750085 0.
0.68002 0.0750101 0.
0.682021 0.0750117 0.
0.684021 0.0750132 0.
0.686022 0.0750148 0.
0.688023 0.0750164 0.
0.690023 0.0750183 0.
0.692023 0.0750202 0.
0.694023 0.0750222 0.
0.696023 0.0750241 0.
0.698023 0.075026 0.
0.499976 0.0770197 0.
0.501977 0.0770184 0.
0.503977 0.0770171 0.
0.505978 0.0770158 0.
0.507978 0.0770142 0.
0.509978 0.0770126 0.
0.511978 0.0770112 0.
0.513979 0.07701 0.
0.515979 0.0770088 0.
0.51798 0.0770078 0.
0.519981 0.0770069 0.
0.521981 0.077006 0.
0.523982 0.0770053 0.
0.525982 0.0770046 0.
0.527982 0.0770039 0.
0.529983 0.0770025 0.
0.531983 0.077001 0.
0.533984 0.0769997 0.
0.535985 0.0769988 0.
0.537985 0.0769979 0.
0.539986 0.076997 0.
0.541986 0.0769962 0.
0.543987 0.0769955 0.
0.545987 0.0769954 0.
0.547988 0.0769956 0.
0.549988 0.0769957 0.
0.551988 0.0769953 0.
0.553988 0.0769948 0.
0.555988 0.0769944 0.
0.557989 0.0769939 0.
0.55999 0.0769934 0.
0.56199 0.0769932 0.
0.56399 0.0769931 0.
0.565991 0.0769931 0.
0.567991 0.0769928 0.
0.569991 0.0769922 0.
0.571992 0.0769916 0.
0.573992 0.0769909 0.
0.575992 0.0769903 0.
0.577993 0.0769896 0.
0.579993 0.0769892 0.
0.581994 0.0769888 0.
0.583994 0.0769884 0.
0.585995 0.0769879 0.
0.587996 0.0769875 0.
0.589997 0.0769871 0.
0.591998 0.0769867 0.
0.593998 0.0769863 0.
0.595999 0.0769862 0.
0.598 0.0769862 0.
0.6 0.0769861 0.
0.602001 0.0769868 0.
0.604001 0.0769874 0.
0.606001 0.076988 0.
0.608001 0.0769882 0.
0.610002 0.0769884 0.
0.612002 0.0769887 0.
0.614003 0.0769889 0.
0.616003 0.0769891 0.
0.618004 0.0769893 0.
0.620004 0.0769895 0.
0.622004 0.0769897 0.
0.624005 0.0769904 0.
0.626005 0.0769913 0.
0.628006 0.076992 0.
0.630006 0.0769921 0.
0.632007 0.0769921 0.
0.634007 0.0769926 0.
0.636008 0.0769941 0.
0.638009 0.0769955 0.
0.640009 0.0769956 0.
0.642009 0.0769947 0.
0.644009 0.0769938 0.
0.64601 0.0769936 0.
0.648011 0.0769936 0.
0.650011 0.0769936 0.
0.652011 0.0769946 0.
0.654011 0.0769956 0.
0.65601 0.0769967 0.
0.658011 0.076998 0.
0.660012 0.0769992 0.
0.662013 0.0770004 0.
0.664013 0.0770012 0.
0.666014 0.0770021 0.
0.668014 0.0770034 0.
0.670015 0.077005 0.
0.672016 0.0770066 0.
0.674016 0.0770069 0.
0.676017 0.0770071 0.
0.678018 0.0770075 0.
0.680018 0.0770092 0.
0.682018 0.0770109 0.
0.684019 0.0770126 0.
0.68602 0.0770144 0.
0.68802 0.0770163 0.
0.69002 0.0770182 0.
0.692021 0.0770202 0.
0.694021 0.0770222 0.
0.696021 0.0770238 0.
0.698022 0.0770255 0.
0.499979 0.0790193 0.
0.501979 0.0790178 0.
0.503979 0.0790164 0.
0.505979 0.0790149 0.
0.50798 0.0790135 0.
0.50998 0.0790121 0.
0.51198 0.0790109 0.
0.51398 0.0790099 0.
0.515981 0.0790089 0.
0.517981 0.0790078 0.
0.519982 0.0790066 0.
0.521983 0.0790055 0.
0.523983 0.0790048 0.
0.525983 0.0790041 0.
0.527983 0.0790034 0.
0.529984 0.0790018 0.
0.531985 0.0790002 0.
0.533986 0.0789989 0.
0.535986 0.0789982 0.
0.537987 0.0789975 0.
0.539987 0.0789967 0.
0.541987 0.0789959 0.
0.543988 0.078995 0.
0.545988 0.078995 0.
0.547988 0.0789953 0.
0.549988 0.0789956 0.
0.551989 0.0789951 0.
0.553989 0.0789945 0.
0.555989 0.078994 0.
0.55799 0.0789936 0.
0.55999 0.0789931 0.
0.561991 0.0789928 0.
0.563991 0.0789926 0.
0.565991 0.0789924 0.
0.567992 0.0789922 0.
0.569992 0.0789919 0.
0.571993 0.0789916 0.
0.573993 0.0789907 0.
0.575994 0.0789898 0.
0.577994 0.0789889 0.
0.579994 0.0789888 0.
0.581994 0.0789886 0.
0.583995 0.0789883 0.
0.585996 0.0789876 0.
0.587997 0.0789869 0.
0.589998 0.0789864 0.
0.591998 0.0789861 0.
0.593999 0.0789858 0.
0.595999 0.0789863 0.
0.598 0.0789869 0.
0.6 0.0789876 0.
0.602 0.0789873 0.
0.604001 0.078987 0.
0.606001 0.0789869 0.
0.608001 0.0789872 0.
0.610001 0.0789876 0.
0.612002 0.078988 0.
0.614003 0.0789885 0.
0.616003 0.078989 0.
0.618004 0.0789893 0.
0.620005 0.0789895 0.
0.622005 0.0789897 0.
0.624005 0.0789903 0.
0.626005 0.0789909 0.
0.628005 0.0789915 0.
0.630006 0.0789918 0.
0.632006 0.078992 0.
0.634007 0.0789925 0.
0.636007 0.0789935 0.
0.638008 0.0789946 0.
0.640008 0.0789947 0.
0.642008 0.0789942 0.
0.644008 0.0789936 0.
0.646008 0.0789935 0.
0.648009 0.0789935 0.
0.65001 0.0789936 0.
0.652009 0.0789946 0.
0.654009 0.0789956 0.
0.656009 0.0789965 0.
0.658009 0.0789976 0.
0.66001 0.0789988 0.
0.662011 0.0789998 0.
0.664011 0.0790007 0.
0.666012 0.0790017 0.
0.668013 0.079003 0.
0.670013 0.0790044 0.
0.672014 0.0790059 0.
0.674015 0.0790061 0.
0.676015 0.0790062 0.
0.678015 0.0790064 0.
0.680016 0.0790082 0.
0.682016 0.07901 0.
0.684017 0.0790119 0.
0.686017 0.079014 0.
0.688017 0.0790161 0.
0.690017 0.0790181 0.
0.692018 0.0790201 0.
0.694019 0.0790221 0.
0.696019 0.0790235 0.
0.69802 0.0790249 0.
0.49998 0.0810195 0.
0.50198 0.0810176 0.
0.50398 0.0810159 0.
0.505981 0.0810142 0.
0.507981 0.0810131 0.
0.509981 0.081012 0.
0.511982 0.0810109 0.
0.513982 0.0810098 0.
0.515982 0.0810088 0.
0.517983 0.0810076 0.
0.519983 0.0810063 0.
0.521984 0.081005 0.
0.523984 0.0810042 0.
0.525984 0.0810036 0.
0.527984 0.0810027 0.
0.529985 0.0810011 0.
0.531986 0.0809994 0.
0.533987 0.0809981 0.
0.535987 0.0809977 0.
0.537988 0.0809972 0.
0.539988 0.0809965 0.
0.541988 0.0809956 0.
0.543988 0.0809947 0.
0.545989 0.0809948 0.
0.547989 0.0809952 0.
0.549989 0.0809956 0.
0.551989 0.080995 0.
0.553989 0.0809943 0.
0.55599 0.0809937 0.
0.55799 0.0809933 0.
0.559991 0.0809928 0.
0.561991 0.0809924 0.
0.563992 0.0809921 0.
0.565992 0.0809918 0.
0.567993 0.0809916 0.
0.569993 0.0809914 0.
0.571994 0.0809912 0.
0.573994 0.0809905 0.
0.575995 0.0809896 0.
0.577995 0.0809888 0.
0.579995 0.0809887 0.
0.581995 0.0809885 0.
0.583995 0.0809882 0.
0.585996 0.0809875 0.
0.587998 0.0809867 0.
0.589998 0.0809863 0.
0.591998 0.0809861 0.
0.593999 0.080986 0.
0.595999 0.0809865 0.
0.598 0.0809872 0.
0.6 0.0809879 0.
0.602 0.0809873 0.
0.604 0.0809867 0.
0.606001 0.0809863 0.
0.608001 0.0809866 0.
0.610001 0.080987 0.
0.612001 0.0809874 0.
0.614002 0.0809879 0.
0.616003 0.0809885 0.
0.618004 0.0809889 0.
0.620004 0.0809893 0.
0.622005 0.0809897 0.
0.624005 0.0809902 0.
0.626004 0.0809907 0.
0.628004 0.0809912 0.
0.630005 0.0809915 0.
0.632005 0.0809918 0.
0.634006 0.0809922 0.
0.636006 0.080993 0.
0.638006 0.0809937 0.
0.640007 0.080994 0.
0.642007 0.0809938 0.
0.644007 0.0809936 0.
0.646007 0.0809936 0.
0.648008 0.0809937 0.
0.650008 0.0809938 0.
0.652008 0.0809948 0.
0.654007 0.0809958 0.
0.656007 0.0809967 0.
0.658008 0.0809976 0.
0.660008 0.0809985 0.
0.662009 0.0809994 0.
0.66401 0.0810004 0.
0.66601 0.0810013 0.
0.668011 0.0810025 0.
0.670012 0.0810039 0.
0.672012 0.0810053 0.
0.674012 0.0810056 0.
0.676013 0.0810058 0.
0.678013 0.0810061 0.
0.680013 0.081008 0.
0.682014 0.0810098 0.
0.684014 0.0810118 0.
0.686014 0.0810138 0.
0.688014 0.0810159 0.
0.690015 0.0810179 0.
0.692015 0.08102 0.
0.694016 0.081022 0.
0.696017 0.0810234 0.
0.698018 0.0810247 0.
0.499981 0.0830198 0.
0.501981 0.0830178 0.
0.503981 0.0830156 0.
0.505982 0.0830137 0.
0.507982 0.083013 0.
0.509982 0.0830122 0.
0.511983 0.0830112 0.
0.513984 0.0830099 0.
0.515984 0.0830085 0.
0.517984 0.0830072 0.
0.519985 0.0830059 0.
0.521985 0.0830046 0.
0.523985 0.0830038 0.
0.525985 0.083003 0.
0.527985 0.0830021 0.
0.529986 0.0830004 0.
0.531987 0.0829987 0.
0.533987 0.0829975 0.
0.535988 0.0829973 0.
0.537988 0.0829971 0.
0.539989 0.0829965 0.
0.541989 0.0829955 0.
0.543989 0.0829945 0.
0.545989 0.0829946 0.
0.547989 0.0829951 0.
0.549989 0.0829957 0.
0.551989 0.0829949 0.
0.55399 0.0829942 0.
0.55599 0.0829935 0.
0.557991 0.0829929 0.
0.559991 0.0829924 0.
0.561992 0.082992 0.
0.563992 0.0829916 0.
0.565993 0.0829913 0.
0.567993 0.082991 0.
0.569994 0.0829908 0.
0.571994 0.0829905 0.
0.573995 0.0829902 0.
0.575995 0.0829898 0.
0.577996 0.0829894 0.
0.579996 0.082989 0.
0.581996 0.0829885 0.
0.583996 0.0829881 0.
0.585997 0.0829875 0.
0.587998 0.082987 0.
0.589998 0.0829867 0.
0.591998 0.0829867 0.
0.593998 0.0829867 0.
0.595999 0.0829868 0.
0.597999 0.082987 0.
0.6 0.0829872 0.
0.602 0.0829868 0.
0.604001 0.0829864 0.
0.606001 0.0829862 0.
0.608001 0.0829863 0.
0.610001 0.0829865 0.
0.612001 0.0829867 0.
0.614002 0.0829871 0.
0.616002 0.0829875 0.
0.618002 0.0829881 0.
0.620003 0.0829888 0.
0.622003 0.0829895 0.
0.624004 0.0829901 0.
0.626004 0.0829906 0.
0.628004 0.0829911 0.
0.630004 0.0829913 0.
0.632004 0.0829914 0.
0.634005 0.0829918 0.
0.636005 0.0829923 0.
0.638005 0.0829929 0.
0.640006 0.0829933 0.
0.642006 0.0829935 0.
0.644007 0.0829937 0.
0.646006 0.0829939 0.
0.648006 0.082994 0.
0.650006 0.0829941 0.
0.652006 0.0829952 0.
0.654006 0.0829962 0.
0.656006 0.0829971 0.
0.658006 0.0829977 0.
0.660007 0.0829983 0.
0.662007 0.0829991 0.
0.664008 0.0830001 0.
0.666008 0.083001 0.
0.668009 0.0830022 0.
0.670009 0.0830035 0.
0.67201 0.0830048 0.
0.67401 0.0830054 0.
0.67601 0.083006 0.
0.678011 0.0830067 0.
0.680011 0.0830084 0.
0.682011 0.0830102 0.
0.684012 0.083012 0.
0.686012 0.0830139 0.
0.688012 0.0830157 0.
0.690012 0.0830177 0.
0.692013 0.0830198 0.
0.694013 0.0830219 0.
0.696014 0.0830235 0.
0.698014 0.083025 0.
0.499982 0.0850205 0.
0.501982 0.085018 0.
0.503983 0.0850153 0.
0.505983 0.0850132 0.
0.507983 0.0850129 0.
0.509983 0.0850125 0.
0.511984 0.0850116 0.
0.513985 0.0850099 0.
0.515986 0.0850083 0.
0.517986 0.0850069 0.
0.519986 0.0850055 0.
0.521986 0.0850042 0.
0.523986 0.0850033 0.
0.525986 0.0850024 0.
0.527986 0.0850014 0.
0.529987 0.0849997 0.
0.531987 0.084998 0.
0.533988 0.0849968 0.
0.535988 0.0849969 0.
0.537989 0.084997 0.
0.539989 0.0849964 0.
0.541989 0.0849953 0.
0.54399 0.0849943 0.
0.54599 0.0849945 0.
0.547989 0.0849951 0.
0.549989 0.0849957 0.
0.551989 0.0849949 0.
0.55399 0.084994 0.
0.55599 0.0849932 0.
0.557991 0.0849926 0.
0.559991 0.084992 0.
0.561992 0.0849915 0.
0.563993 0.0849912 0.
0.565993 0.0849908 0.
0.567994 0.0849905 0.
0.569994 0.0849901 0.
0.571994 0.0849898 0.
0.573995 0.0849899 0.
0.575996 0.08499 0.
0.577997 0.08499 0.
0.579997 0.0849892 0.
0.581997 0.0849885 0.
0.583997 0.0849879 0.
0.585997 0.0849876 0.
0.587998 0.0849872 0.
0.589998 0.0849871 0.
0.591998 0.0849873 0.
0.593998 0.0849874 0.
0.595998 0.0849872 0.
0.597999 0.0849868 0.
0.6 0.0849864 0.
0.602 0.0849863 0.
0.604001 0.0849862 0.
0.606001 0.0849861 0.
0.608001 0.084986 0.
0.610001 0.084986 0.
0.612001 0.084986 0.
0.614001 0.0849862 0.
0.616001 0.0849864 0.
0.618001 0.0849872 0.
0.620001 0.0849883 0.
0.622002 0.0849894 0.
0.624003 0.08499 0.
0.626003 0.0849905 0.
0.628004 0.084991 0.
0.630004 0.084991 0.
0.632003 0.0849911 0.
0.634003 0.0849913 0.
0.636004 0.0849917 0.
0.638004 0.0849922 0.
0.640004 0.0849927 0.
0.642005 0.0849933 0.
0.644006 0.0849938 0.
0.646006 0.0849941 0.
0.648005 0.0849943 0.
0.650004 0.0849945 0.
0.652004 0.0849956 0.
0.654004 0.0849967 0.
0.656004 0.0849976 0.
0.658005 0.0849979 0.
0.660005 0.0849982 0.
0.662005 0.0849988 0.
0.664006 0.0849998 0.
0.666006 0.0850007 0.
0.668006 0.0850019 0.
0.670007 0.0850031 0.
0.672007 0.0850043 0.
0.674007 0.0850053 0.
0.676008 0.0850062 0.
0.678008 0.0850072 0.
0.680009 0.0850089 0.
0.682009 0.0850106 0.
0.684009 0.0850123 0.
0.686009 0.085014 0.
0.688009 0.0850156 0.
0.690009 0.0850175 0.
0.69201 0.0850197 0.
0.69401 0.0850219 0.
0.69601 0.0850236 0.
0.698011 0.0850252 0.
0.499985 0.0870204 0.
0.501985 0.0870181 0.
0.503985 0.0870157 0.
0.505985 0.0870136 0.
0.507986 0.0870127 0.
0.509986 0.0870119 0.
0.511986 0.0870107 0.
0.513987 0.0870092 0.
0.515988 0.0870078 0.
0.517988 0.0870064 0.
0.519988 0.0870052 0.
0.521987 0.087004 0.
0.523988 0.0870031 0.
0.525988 0.0870022 0.
0.527988 0.0870013 0.
0.529988 0.0869998 0.
0.531989 0.0869983 0.
0.533989 0.0869972 0.
0.535989 0.086997 0.
0.53799 0.0869967 0.
0.53999 0.0869962 0.
0.54199 0.0869954 0.
0.54399 0.0869946 0.
0.54599 0.0869945 0.
0.54799 0.0869945 0.
0.54999 0.0869945 0.
0.55199 0.0869941 0.
0.553991 0.0869936 0.
0.555991 0.0869931 0.
0.557992 0.0869923 0.
0.559992 0.0869916 0.
0.561992 0.086991 0.
0.563993 0.0869905 0.
0.565994 0.08699 0.
0.567994 0.0869898 0.
0.569995 0.0869896 0.
0.571995 0.0869895 0.
0.573995 0.0869895 0.
0.575996 0.0869895 0.
0.577997 0.0869894 0.
0.579997 0.0869889 0.
0.581997 0.0869885 0.
0.583997 0.086988 0.
0.585997 0.0869874 0.
0.587997 0.0869868 0.
0.589997 0.0869866 0.
0.591997 0.0869869 0.
0.593998 0.0869871 0.
0.595998 0.0869869 0.
0.597999 0.0869867 0.
0.6 0.0869864 0.
0.602001 0.0869862 0.
0.604001 0.086986 0.
0.606001 0.0869859 0.
0.608001 0.0869859 0.
0.610001 0.0869859 0.
0.612001 0.0869861 0.
0.614 0.0869866 0.
0.616 0.086987 0.
0.618 0.0869878 0.
0.620001 0.0869886 0.
0.622001 0.0869895 0.
0.624002 0.0869898 0.
0.626002 0.08699 0.
0.628003 0.0869903 0.
0.630003 0.0869904 0.
0.632002 0.0869905 0.
0.634002 0.0869907 0.
0.636003 0.0869911 0.
0.638003 0.0869916 0.
0.640003 0.0869922 0.
0.642004 0.086993 0.
0.644005 0.0869937 0.
0.646005 0.0869942 0.
0.648004 0.0869946 0.
0.650004 0.086995 0.
0.652004 0.0869957 0.
0.654004 0.0869965 0.
0.656004 0.0869971 0.
0.658004 0.0869976 0.
0.660004 0.086998 0.
0.662005 0.0869986 0.
0.664005 0.0869995 0.
0.666005 0.0870003 0.
0.668005 0.0870014 0.
0.670006 0.0870027 0.
0.672006 0.0870039 0.
0.674006 0.0870049 0.
0.676006 0.0870059 0.
0.678007 0.0870069 0.
0.680007 0.0870086 0.
0.682007 0.0870102 0.
0.684007 0.087012 0.
0.686007 0.0870139 0.
0.688007 0.0870159 0.
0.690007 0.0870179 0.
0.692008 0.0870199 0.
0.694008 0.087022 0.
0.696008 0.0870238 0.
0.698009 0.0870255 0.
0.499988 0.0890208 0.
0.501988 0.0890182 0.
0.503988 0.089016 0.
0.505988 0.0890139 0.
0.507988 0.0890126 0.
0.509988 0.0890112 0.
0.511989 0.0890099 0.
0.513989 0.0890085 0.
0.51599 0.0890072 0.
0.51799 0.089006 0.
0.51999 0.0890049 0.
0.521989 0.0890038 0.
0.523989 0.089003 0.
0.525989 0.0890021 0.
0.527989 0.0890011 0.
0.52999 0.0889999 0.
0.53199 0.0889987 0.
0.53399 0.0889976 0.
0.53599 0.088997 0.
0.537991 0.0889964 0.
0.539991 0.0889959 0.
0.54199 0.0889954 0.
0.54399 0.088995 0.
0.54599 0.0889944 0.
0.54799 0.0889938 0.
0.54999 0.0889933 0.
0.551991 0.0889932 0.
0.553992 0.0889932 0.
0.555992 0.0889929 0.
0.557993 0.088992 0.
0.559993 0.0889912 0.
0.561993 0.0889904 0.
0.563994 0.0889898 0.
0.565994 0.0889893 0.
0.567995 0.0889891 0.
0.569995 0.0889892 0.
0.571996 0.0889892 0.
0.573996 0.0889891 0.
0.575996 0.0889889 0.
0.577996 0.0889888 0.
0.579996 0.0889886 0.
0.581997 0.0889884 0.
0.583997 0.088988 0.
0.585997 0.0889872 0.
0.587997 0.0889863 0.
0.589997 0.0889861 0.
0.591997 0.0889864 0.
0.593997 0.0889868 0.
0.595998 0.0889867 0.
0.597999 0.0889865 0.
0.600001 0.0889863 0.
0.602001 0.0889861 0.
0.604001 0.0889859 0.
0.606001 0.0889857 0.
0.608001 0.0889858 0.
0.610001 0.0889859 0.
0.612 0.0889863 0.
0.614 0.088987 0.
0.615999 0.0889876 0.
0.618 0.0889883 0.
0.62 0.088989 0.
0.622 0.0889896 0.
0.624001 0.0889897 0.
0.626001 0.0889896 0.
0.628002 0.0889896 0.
0.630001 0.0889897 0.
0.632001 0.0889898 0.
0.634001 0.0889901 0.
0.636002 0.0889905 0.
0.638002 0.088991 0.
0.640003 0.0889917 0.
0.642003 0.0889927 0.
0.644003 0.0889936 0.
0.646004 0.0889943 0.
0.648004 0.0889949 0.
0.650004 0.0889956 0.
0.652004 0.0889959 0.
0.654004 0.0889962 0.
0.656004 0.0889966 0.
0.658004 0.0889972 0.
0.660004 0.0889978 0.
0.662004 0.0889985 0.
0.664004 0.0889992 0.
0.666004 0.0889999 0.
0.668004 0.089001 0.
0.670004 0.0890022 0.
0.672005 0.0890035 0.
0.674005 0.0890045 0.
0.676005 0.0890056 0.
0.678005 0.0890067 0.
0.680005 0.0890083 0.
0.682005 0.0890098 0.
0.684005 0.0890116 0.
0.686005 0.0890139 0.
0.688005 0.0890162 0.
0.690005 0.0890183 0.
0.692006 0.0890202 0.
0.694006 0.0890222 0.
0.696006 0.089024 0.
0.698007 0.0890259 0.
0.49999 0.0910201 0.
0.50199 0.0910179 0.
0.50399 0.0910158 0.
0.50599 0.0910138 0.
0.50799 0.0910124 0.
0.50999 0.091011 0.
0.511991 0.0910097 0.
0.513991 0.0910083 0.
0.515991 0.091007 0.
0.517991 0.0910058 0.
0.519991 0.0910047 0.
0.521991 0.0910036 0.
0.523991 0.0910027 0.
0.52599 0.0910018 0.
0.52799 0.0910009 0.
0.529991 0.0909998 0.
0.531991 0.0909986 0.
0.533991 0.0909976 0.
0.535991 0.0909969 0.
0.537991 0.0909962 0.
0.539991 0.0909957 0.
0.541991 0.0909954 0.
0.543991 0.0909951 0.
0.545991 0.0909943 0.
0.547991 0.0909935 0.
0.549991 0.0909927 0.
0.551992 0.0909928 0.
0.553993 0.0909928 0.
0.555993 0.0909927 0.
0.557994 0.0909917 0.
0.559994 0.0909908 0.
0.561994 0.09099 0.
0.563994 0.0909895 0.
0.565995 0.090989 0.
0.567995 0.0909889 0.
0.569996 0.090989 0.
0.571996 0.0909891 0.
0.573996 0.0909889 0.
0.575996 0.0909886 0.
0.577996 0.0909884 0.
0.579996 0.0909883 0.
0.581997 0.0909882 0.
0.583997 0.0909879 0.
0.585997 0.0909872 0.
0.587997 0.0909865 0.
0.589997 0.0909862 0.
0.591997 0.0909862 0.
0.593997 0.0909863 0.
0.595998 0.0909862 0.
0.597999 0.0909861 0.
0.6 0.090986 0.
0.602 0.0909859 0.
0.604001 0.0909857 0.
0.606001 0.0909856 0.
0.608 0.0909858 0.
0.61 0.0909859 0.
0.612 0.0909864 0.
0.613999 0.0909872 0.
0.615999 0.0909881 0.
0.617999 0.0909887 0.
0.619999 0.0909892 0.
0.621999 0.0909897 0.
0.624 0.0909896 0.
0.626001 0.0909893 0.
0.628001 0.0909891 0.
0.630001 0.0909894 0.
0.632 0.0909896 0.
0.634 0.0909899 0.
0.636001 0.0909903 0.
0.638002 0.0909907 0.
0.640002 0.0909914 0.
0.642002 0.0909925 0.
0.644002 0.0909936 0.
0.646003 0.0909942 0.
0.648003 0.0909948 0.
0.650003 0.0909954 0.
0.652003 0.0909957 0.
0.654003 0.0909961 0.
0.656003 0.0909965 0.
0.658003 0.0909971 0.
0.660003 0.0909977 0.
0.662003 0.0909983 0.
0.664003 0.0909989 0.
0.666003 0.0909995 0.
0.668003 0.0910005 0.
0.670003 0.0910018 0.
0.672004 0.0910031 0.
0.674004 0.0910042 0.
0.676004 0.0910052 0.
0.678004 0.0910063 0.
0.680003 0.0910079 0.
0.682003 0.0910095 0.
0.684003 0.0910114 0.
0.686003 0.0910138 0.
0.688003 0.0910161 0.
0.690003 0.0910183 0.
0.692004 0.0910203 0.
0.694004 0.0910222 0.
0.696004 0.091024 0.
0.698004 0.0910257 0.
0.499992 0.0930195 0.
0.501992 0.0930172 0.
0.503992 0.0930151 0.
0.505992 0.0930133 0.
0.507992 0.0930122 0.
0.509992 0.0930112 0.
0.511992 0.09301 0.
0.513992 0.0930086 0.
0.515992 0.0930071 0.
0.517992 0.0930058 0.
0.519992 0.0930045 0.
0.521992 0.0930033 0.
0.523991 0.0930024 0.
0.525991 0.0930015 0.
0.52799 0.0930006 0.
0.529991 0.0929993 0.
0.531992 0.0929981 0.
0.533992 0.0929971 0.
0.535992 0.0929965 0.
0.537992 0.0929959 0.
0.539992 0.0929955 0.
0.541992 0.0929952 0.
0.543992 0.0929949 0.
0.545992 0.0929942 0.
0.547992 0.0929934 0.
0.549992 0.0929927 0.
0.551993 0.0929926 0.
0.553994 0.0929926 0.
0.555995 0.0929923 0.
0.557995 0.0929914 0.
0.559995 0.0929905 0.
0.561995 0.0929898 0.
0.563995 0.0929895 0.
0.565995 0.0929892 0.
0.567996 0.0929891 0.
0.569996 0.0929891 0.
0.571996 0.0929891 0.
0.573996 0.0929888 0.
0.575996 0.0929885 0.
0.577996 0.0929881 0.
0.579997 0.0929879 0.
0.581997 0.0929877 0.
0.583997 0.0929876 0.
0.585997 0.0929874 0.
0.587997 0.0929872 0.
0.589997 0.0929868 0.
0.591997 0.0929862 0.
0.593997 0.0929856 0.
0.595997 0.0929854 0.
0.597998 0.0929854 0.
0.599998 0.0929854 0.
0.601999 0.0929855 0.
0.603999 0.0929855 0.
0.606 0.0929856 0.
0.608 0.0929858 0.
0.61 0.092986 0.
0.611999 0.0929865 0.
0.613999 0.0929874 0.
0.615999 0.0929883 0.
0.617999 0.0929889 0.
0.619999 0.0929893 0.
0.621999 0.0929898 0.
0.624 0.0929895 0.
0.626 0.0929892 0.
0.628001 0.0929889 0.
0.63 0.0929894 0.
0.632 0.0929899 0.
0.634 0.0929903 0.
0.636001 0.0929904 0.
0.638002 0.0929906 0.
0.640002 0.0929913 0.
0.642002 0.0929925 0.
0.644002 0.0929936 0.
0.646001 0.092994 0.
0.648001 0.0929942 0.
0.650001 0.0929944 0.
0.652002 0.0929952 0.
0.654002 0.0929959 0.
0.656002 0.0929966 0.
0.658002 0.0929972 0.
0.660002 0.0929977 0.
0.662002 0.0929982 0.
0.664002 0.0929985 0.
0.666002 0.0929989 0.
0.668002 0.0929999 0.
0.670002 0.0930013 0.
0.672002 0.0930028 0.
0.674002 0.0930038 0.
0.676002 0.0930048 0.
0.678003 0.0930059 0.
0.680002 0.0930076 0.
0.682002 0.0930093 0.
0.684001 0.0930112 0.
0.686001 0.0930135 0.
0.688001 0.0930158 0.
0.690001 0.093018 0.
0.692001 0.0930201 0.
0.694002 0.0930222 0.
0.696002 0.0930237 0.
0.698002 0.093025 0.
0.499993 0.0950184 0.
0.501993 0.0950165 0.
0.503993 0.0950145 0.
0.505993 0.0950127 0.
0.507993 0.0950121 0.
0.509993 0.0950114 0.
0.511993 0.0950104 0.
0.513993 0.0950088 0.
0.515993 0.0950072 0.
0.517993 0.0950058 0.
0.519993 0.0950044 0.
0.521993 0.095003 0.
0.523992 0.095002 0.
0.525991 0.0950012 0.
0.527991 0.0950002 0.
0.529992 0.0949989 0.
0.531993 0.0949976 0.
0.533993 0.0949966 0.
0.535993 0.0949961 0.
0.537993 0.0949957 0.
0.539993 0.0949954 0.
0.541993 0.0949951 0.
0.543993 0.0949947 0.
0.545993 0.0949941 0.
0.547993 0.0949934 0.
0.549993 0.0949926 0.
0.551994 0.0949925 0.
0.553995 0.0949924 0.
0.555996 0.094992 0.
0.557996 0.0949911 0.
0.559997 0.0949902 0.
0.561997 0.0949896 0.
0.563997 0.0949895 0.
0.565996 0.0949894 0.
0.567996 0.0949893 0.
0.569996 0.0949892 0.
0.571996 0.0949892 0.
0.573997 0.0949888 0.
0.575997 0.0949883 0.
0.577997 0.0949878 0.
0.579997 0.0949876 0.
0.581997 0.0949873 0.
0.583998 0.0949872 0.
0.585997 0.0949876 0.
0.587997 0.094988 0.
0.589997 0.0949874 0.
0.591997 0.0949861 0.
0.593997 0.0949849 0.
0.595997 0.0949847 0.
0.597997 0.0949847 0.
0.599997 0.0949848 0.
0.601998 0.094985 0.
0.603998 0.0949853 0.
0.605999 0.0949856 0.
0.607999 0.0949858 0.
0.609999 0.0949861 0.
0.611999 0.0949867 0.
0.613999 0.0949876 0.
0.615999 0.0949885 0.
0.617999 0.0949891 0.
0.619999 0.0949895 0.
0.621999 0.0949899 0.
0.623999 0.0949895 0.
0.626 0.094989 0.
0.628001 0.0949887 0.
0.63 0.0949895 0.
0.632 0.0949902 0.
0.634 0.0949907 0.
0.636001 0.0949906 0.
0.638002 0.0949904 0.
0.640002 0.0949911 0.
0.642001 0.0949924 0.
0.644001 0.0949937 0.
0.646 0.0949938 0.
0.648 0.0949937 0.
0.649999 0.0949935 0.
0.652 0.0949947 0.
0.654001 0.0949958 0.
0.656002 0.0949968 0.
0.658001 0.0949973 0.
0.660001 0.0949977 0.
0.662001 0.094998 0.
0.664002 0.0949982 0.
0.666002 0.0949983 0.
0.668002 0.0949994 0.
0.670001 0.0950009 0.
0.672001 0.0950024 0.
0.674001 0.0950034 0.
0.676001 0.0950043 0.
0.678001 0.0950054 0.
0.680001 0.0950073 0.
0.682 0.0950091 0.
0.684 0.0950111 0.
0.685999 0.0950132 0.
0.687999 0.0950154 0.
0.689999 0.0950176 0.
0.691999 0.0950199 0.
0.693999 0.0950222 0.
0.695999 0.0950234 0.
0.697999 0.0950243 0.
0.499995 0.0970184 0.
0.501995 0.0970162 0.
0.503995 0.0970141 0.
0.505995 0.0970124 0.
0.507995 0.0970119 0.
0.509995 0.0970114 0.
0.511994 0.0970105 0.
0.513994 0.0970089 0.
0.515994 0.0970074 0.
0.517994 0.0970059 0.
0.519994 0.0970045 0.
0.521994 0.0970031 0.
0.523994 0.0970021 0.
0.525993 0.0970013 0.
0.527993 0.0970003 0.
0.529994 0.0969989 0.
0.531994 0.0969974 0.
0.533995 0.0969964 0.
0.535994 0.0969962 0.
0.537994 0.096996 0.
0.539994 0.0969956 0.
0.541994 0.0969951 0.
0.543994 0.0969945 0.
0.545994 0.0969937 0.
0.547995 0.0969929 0.
0.549995 0.096992 0.
0.551996 0.0969919 0.
0.553996 0.0969917 0.
0.555996 0.0969915 0.
0.557996 0.0969907 0.
0.559997 0.09699 0.
0.561997 0.0969896 0.
0.563997 0.0969895 0.
0.565997 0.0969895 0.
0.567997 0.0969893 0.
0.569997 0.0969889 0.
0.571998 0.0969886 0.
0.573998 0.0969885 0.
0.575998 0.0969883 0.
0.577998 0.0969882 0.
0.579997 0.0969878 0.
0.581997 0.0969875 0.
0.583997 0.0969873 0.
0.585997 0.0969875 0.
0.587998 0.0969878 0.
0.589997 0.0969872 0.
0.591997 0.0969859 0.
0.593997 0.0969847 0.
0.595997 0.0969845 0.
0.597998 0.0969846 0.
0.599998 0.0969847 0.
0.601999 0.0969846 0.
0.603999 0.0969845 0.
0.605999 0.0969846 0.
0.607998 0.0969856 0.
0.609998 0.0969866 0.
0.611998 0.0969873 0.
0.613998 0.0969877 0.
0.615998 0.0969881 0.
0.617999 0.0969887 0.
0.619999 0.0969893 0.
0.621999 0.0969899 0.
0.623999 0.0969895 0.
0.625999 0.0969891 0.
0.627999 0.0969888 0.
0.629999 0.0969896 0.
0.631999 0.0969905 0.
0.633999 0.0969911 0.
0.636 0.0969909 0.
0.638 0.0969907 0.
0.640001 0.0969913 0.
0.642 0.0969925 0.
0.644 0.0969938 0.
0.646 0.0969941 0.
0.648 0.0969941 0.
0.65 0.0969942 0.
0.652 0.0969949 0.
0.654001 0.0969956 0.
0.656001 0.0969963 0.
0.658001 0.0969968 0.
0.660001 0.0969973 0.
0.662001 0.0969977 0.
0.664001 0.0969979 0.
0.666001 0.0969981 0.
0.668001 0.0969992 0.
0.67 0.0970006 0.
0.672 0.097002 0.
0.674 0.0970032 0.
0.676 0.0970042 0.
0.678 0.0970055 0.
0.679999 0.0970077 0.
0.681999 0.09701 0.
0.683998 0.0970121 0.
0.685998 0.0970139 0.
0.687998 0.0970158 0.
0.689997 0.0970178 0.
0.691997 0.0970199 0.
0.693997 0.097022 0.
0.695997 0.0970234 0.
0.697996 0.0970246 0.
0.499997 0.0990182 0.
0.501997 0.0990158 0.
0.503997 0.0990137 0.
0.505996 0.0990121 0.
0.507996 0.0990117 0.
0.509996 0.0990114 0.
0.511996 0.0990106 0.
0.513995 0.0990091 0.
0.515995 0.0990075 0.
0.517995 0.0990061 0.
0.519995 0.0990046 0.
0.521995 0.0990032 0.
0.523995 0.0990022 0.
0.525996 0.0990014 0.
0.527996 0.0990004 0.
0.529996 0.0989988 0.
0.531996 0.0989973 0.
0.533996 0.0989962 0.
0.535995 0.0989963 0.
0.537994 0.0989963 0.
0.539994 0.0989959 0.
0.541994 0.0989951 0.
0.543994 0.0989943 0.
0.545995 0.0989933 0.
0.547996 0.0989923 0.
0.549997 0.0989914 0.
0.551997 0.0989912 0.
0.553997 0.0989911 0.
0.555997 0.0989909 0.
0.557997 0.0989904 0.
0.559996 0.0989898 0.
0.561997 0.0989895 0.
0.563997 0.0989895 0.
0.565998 0.0989896 0.
0.567998 0.0989892 0.
0.569999 0.0989886 0.
0.571999 0.098988 0.
0.573999 0.0989882 0.
0.575999 0.0989884 0.
0.577998 0.0989885 0.
0.579998 0.0989881 0.
0.581997 0.0989877 0.
0.583997 0.0989874 0.
0.585997 0.0989875 0.
0.587998 0.0989876 0.
0.589998 0.0989869 0.
0.591998 0.0989857 0.
0.593997 0.0989845 0.
0.595998 0.0989844 0.
0.597999 0.0989845 0.
0.6 0.0989846 0.
0.601999 0.0989842 0.
0.603999 0.0989837 0.
0.605998 0.0989837 0.
0.607998 0.0989854 0.
0.609997 0.0989871 0.
0.611997 0.098988 0.
0.613998 0.0989878 0.
0.615998 0.0989877 0.
0.617998 0.0989882 0.
0.619999 0.0989891 0.
0.622 0.0989899 0.
0.623999 0.0989896 0.
0.625999 0.0989891 0.
0.627998 0.0989888 0.
0.629998 0.0989898 0.
0.631998 0.0989908 0.
0.633999 0.0989914 0.
0.635999 0.0989912 0.
0.637999 0.0989909 0.
0.639999 0.0989914 0.
0.641999 0.0989926 0.
0.643999 0.0989938 0.
0.646 0.0989943 0.
0.648 0.0989946 0.
0.65 0.0989948 0.
0.652 0.0989951 0.
0.654001 0.0989954 0.
0.656001 0.0989957 0.
0.658001 0.0989964 0.
0.660001 0.098997 0.
0.662001 0.0989974 0.
0.664001 0.0989977 0.
0.666 0.098998 0.
0.668 0.0989989 0.
0.669999 0.0990003 0.
0.671999 0.0990017 0.
0.673998 0.0990029 0.
0.675998 0.0990041 0.
0.677998 0.0990055 0.
0.679997 0.0990082 0.
0.681997 0.0990108 0.
0.683997 0.0990131 0.
0.685997 0.0990146 0.
0.687996 0.0990162 0.
0.689996 0.0990179 0.
0.691995 0.0990199 0.
0.693995 0.0990218 0.
0.695994 0.0990233 0.
0.697994 0.0990248 0.
CELLS 5000 10000
1 0
1 1
1 2
1 3
1 4
1 5
1 6
1 7
1 8
1 9
1 10
1 11
1 12
1 13
1 14
1 15
1 16
1 17
1 18
1 19
1 20
1 21
1 22
1 23
1 24
1 25
1 26
1 27
1 28
1 29
1 30
1 31
1 32
1 33
1 34
1 35
1 36
1 37
1 38
1 39
1 40
1 41
1 42
1 43
1 44
1 45
1 46
1 47
1 48
1 49
1 50
1 51
1 52
1 53
1 54
1 55
1 56
1 57
1 58
1 59
1 60
1 61
1 62
1 63
1 64
1 65
1 66
1 67
1 68
1 69
1 70
1 71
1 72
1 73
1 74
1 75
1 76
1 77
1 78
1 79
1 80
1 81
1 82
1 83
1 84
1 85
1 86
1 87
1 88
1 89
1 90
1 91
1 92
1 93
1 94
1 95
1 96
1 97
1 98
1 99
1 100
1 101
1 102
1 103
1 104
1 105
1 106
1 107
1 108
1 109
1 110
1 111
1 112
1 113
1 114
1 115
1 116
1 117
1 118
1 119
1 120
1 121
1 122
1 123
1 124
1 125
1 126
1 127
1 128
1 129
1 130
1 131
1 132
1 133
1 134
1 135
1 136
1 137
1 138
1 139
1 140
1 141
1 142
1 143
1 144
1 145
1 146
1 147
1 148
1 149
1 150
1 151
1 152
1 153
1 154
1 155
1 156
1 157
1 158
1 159
1 160
1 161
1 162
1 163
1 164
1 165
1 166
1 167
1 168
1 169
1 170
1 171
1 172
1 173
1 174
1 175
1 176
1 177
1 178
1 179
1 180
1 181
1 182
1 183
1 184
1 185
1 186
1 187
1 188
1 189
1 190
1 191
1 192
1 193
1 194
1 195
1 196
1 197
1 198
1 199
1 200
1 201
1 202
1 203
1 204
1 205
1 206
1 207
1 208
1 209
1 210
1 211
1 212
1 213
1 214
1 215
1 216
1 217
1 218
1 219
1 220
1 221
1 222
1 223
1 224
1 225
1 226
1 227
1 228
1 229
1 230
1 231
1 232
1 233
1 234
1 235
1 236
1 237
1 238
1 239
1 240
1 241
1 242
1 243
1 244
1 245
1 246
1 247
1 248
1 249
1 250
1 251
1 252
1 253
1 254
1 255
1 256
1 257
1 258
1 259
1 260
1 261
1 262
1 263
1 264
1 265
1 266
1 267
1 268
1 269
1 270
1 271
1 272
1 273
1 274
1 275
1 276
1 277
1 278
1 279
1 280
1 281
1 282
1 283
1 284
1 285
1 286
1 287
1 288
1 289
1 290
1 291
1 292
1 293
1 294
1 295
1 296
1 297
1 298
1 299
1 300
1 301
1 302
1 303
1 304
1 305
1 306
1 307
1 308
1 309
1 310
1 311
1 312
1 313
1 314
1 315
1 316
1 317
1 318
1 319
1 320
1 321
1 322
1 323
1 324
1 325
1 326
1 327
1 328
1 329
1 330
1 331
1 332
1 333
1 334
1 335
1 336
1 337
1 338
1 339
1 340
1 341
1 342
1 343
1 344
1 345
1 346
1 347
1 348
1 349
1 350
1 351
1 352
1 353
1 354
1 355
1 356
1 357
1 358
1 359
1 360
1 361
1 362
1 363
1 364
1 365
1 366
1 367
1 368
1 369
1 370
1 371
1 372
1 373
1 374
1 375
1 376
1 377
1 378
1 379
1 380
1 381
1 382
1 383
1 384
1 385
1 386
1 387
1 388
1 389
1 390
1 391
1 392
1 393
1 394
1 395
1 396
1 397
1 398
1 399
1 400
1 401
1 402
1 403
1 404
1 405
1 406
1 407
1 408
1 409
1 410
1 411
1 412
1 413
1 414
1 415
1 416
1 417
1 418
1 419
1 420
1 421
1 422
1 423
1 424
1 425
1 426
1 427
1 428
1 429
1 430
1 431
1 432
1 433
1 434
1 435
1 436
1 437
1 438
1 439
1 440
1 441
1 442
1 443
1 444
1 445
1 446
1 447
1 448
1 449
1 450
1 451
1 452
1 453
1 454
1 455
1 456
1 457
1 458
1 459
1 460
1 461
1 462
1 463
1 464
1 465
1 466
1 467
1 468
1 469
1 470
1 471
1 472
1 473
1 474
1 475
1 476
1 477
1 478
1 479
1 480
1 481
1 482
1 483
1 484
1 485
1 486
1 487
1 488
1 489
1 490
1 491
1 492
1 493
1 494
1 495
1 496
1 497
1 498
1 499
1 500
1 501
1 502
1 503
1 504
1 505
1 506
1 507
1 508
1 509
1 510
1 511
1 512
1 513
1 514
1 515
1 516
1 517
1 518
1 519
1 520
1 521
1 522
1 523
1 524
1 525
1 526
1 527
1 528
1 529
1 530
1 531
1 532
1 533
1 534
1 535
1 536
1 537
1 538
1 539
1 540
1 541
1 542
1 543
1 544
1 545
1 546
1 547
1 548
1 549
1 550
1 551
1 552
1 553
1 554
1 555
1 556
1 557
1 558
1 559
1 560
1 561
1 562
1 563
1 564
1 565
1 566
1 567
1 568
1 569
1 570
1 571
1 572
1 573
1 574
1 575
1 576
1 577
1 578
1 579
1 580
1 581
1 582
1 583
1 584
1 585
1 586
1 587
1 588
1 589
1 590
1 591
1 592
1 593
1 594
1 595
1 596
1 597
1 598
1 599
1 600
1 601
1 602
1 603
1 604
1 605
1 606
1 607
1 608
1 609
1 610
1 611
1 612
1 613
1 614
1 615
1 616
1 617
1 618
1 619
1 620
1 621
1 622
1 623
1 624
1 625
1 626
1 627
1 628
1 629
1 630
1 631
1 632
1 633
1 634
1 635
1 636
1 637
1 638
1 639
1 640
1 641
1 642
1 643
1 644
1 645
1 646
1 647
1 648
1 649
1 650
1 651
1 652
1 653
1 654
1 655
1 656
1 657
1 658
1 659
1 660
1 661
1 662
1 663
1 664
1 665
1 666
1 667
1 668
1 669
1 670
1 671
1 672
1 673
1 674
1 675
1 676
1 677
1 678
1 679
1 680
1 681
1 682
1 683
1 684
1 685
1 686
1 687
1 688
1 689
1 690
1 691
1 692
1 693
1 694
1 695
1 696
1 697
1 698
1 699
1 700
1 701
1 702
1 703
1 704
1 705
1 706
1 707
1 708
1 709
1 710
1 711
1 712
1 713
1 714
1 715
1 716
1 717
1 718
1 719
1 720
1 721
1 722
1 723
1 724
1 725
1 726
1 727
1 728
1 729
1 730
1 731
1 732
1 733
1 734
1 735
1 736
1 737
1 738
1 739
1 740
1 741
1 742
1 743
1 744
1 745
1 746
1 747
1 748
1 749
1 750
1 751
1 752
1 753
1 754
1 755
1 756
1 757
1 758
1 759
1 760
1 761
1 762
1 763
1 764
1 765
1 766
1 767
1 768
1 769
1 770
1 771
1 772
1 773
1 774
1 775
1 776
1 777
1 778
1 779
1 780
1 781
1 782
1 783
1 784
1 785
1 786
1 787
1 788
1 789
1 790
1 791
1 792
1 793
1 794
1 795
1 796
1 797
1 798
1 799
1 800
1 801
1 802
1 803
1 804
1 805
1 806
1 807
1 808
1 809
1 810
1 811
1 812
1 813
1 814
1 815
1 816
1 817
1 818
1 819
1 820
1 821
1 822
1 823
1 824
1 825
1 826
1 827
1 828
1 829
1 830
1 831
1 832
1 833
1 834
1 835
1 836
1 837
1 838
1 839
1 840
1 841
1 842
1 843
1 844
1 845
1 846
1 847
1 848
1 849
1 850
1 851
1 852
1 853
1 854
1 855
1 856
1 857
1 858
1 859
1 860
1 861
1 862
1 863
1 864
1 865
1 866
1 867
1 868
1 869
1 870
1 871
1 872
1 873
1 874
1 875
1 876
1 877
1 878
1 879
1 880
1 881
1 882
1 883
1 884
1 885
1 886
1 887
1 888
1 889
1 890
1 891
1 892
1 893
1 894
1 895
1 896
1 897
1 898
1 899
1 900
1 901
1 902
1 903
1 904
1 905
1 906
1 907
1 908
1 909
1 910
1 911
1 912
1 913
1 914
1 915
1 916
1 917
1 918
1 919
1 920
1 921
1 922
1 923
1 924
1 925
1 926
1 927
1 928
1 929
1 930
1 931
1 932
1 933
1 934
1 935
1 936
1 937
1 938
1 939
1 940
1 941
1 942
1 943
1 944
1 945
1 946
1 947
1 948
1 949
1 950
1 951
1 952
1 953
1 954
1 955
1 956
1 957
1 958
1 959
1 960
1 961
1 962
1 963
1 964
1 965
1 966
1 967
1 968
1 969
1 970
1 971
1 972
1 973
1 974
1 975
1 976
1 977
1 978
1 979
1 980
1 981
1 982
1 983
1 984
1 985
1 986
1 987
1 988
1 989
1 990
1 991
1 992
1 993
1 994
1 995
1 996
1 997
1 998
1 999
1 1000
1 1001
1 1002
1 1003
1 1004
1 1005
1 1006
1 1007
1 1008
1 1009
1 1010
1 1011
1 1012
1 1013
1 1014
1 1015
1 1016
1 1017
1 1018
1 1019
1 1020
1 1021
1 1022
1 1023
1 1024
1 1025
1 1026
1 1027
1 1028
1 1029
1 1030
1 1031
1 1032
1 1033
1 1034
1 1035
1 1036
1 1037
1 1038
1 1039
1 1040
1 1041
1 1042
1 1043
1 1044
1 1045
1 1046
1 1047
1 1048
1 1049
1 1050
1 1051
1 1052
1 1053
1 1054
1 1055
1 1056
1 1057
1 1058
1 1059
1 1060
1 1061
1 1062
1 1063
1 1064
1 1065
1 1066
1 1067
1 1068
1 1069
1 1070
1 1071
1 1072
1 1073
1 1074
1 1075
1 1076
1 1077
1 1078
1 1079
1 1080
1 1081
1 1082
1 1083
1 1084
1 1085
1 1086
1 1087
1 1088
1 1089
1 1090
1 1091
1 1092
1 1093
1 1094
1 1095
1 1096
1 1097
1 1098
1 1099
1 1100
1 1101
1 1102
1 1103
1 1104
1 1105
1 1106
1 1107
1 1108
1 1109
1 1110
1 1111
1 1112
1 1113
1 1114
1 1115
1 1116
1 1117
1 1118
1 1119
1 1120
1 1121
1 1122
1 1123
1 1124
1 1125
1 1126
1 1127
1 1128
1 1129
1 1130
1 1131
1 1132
1 1133
1 1134
1 1135
1 1136
1 1137
1 1138
1 1139
1 1140
1 1141
1 1142
1 1143
1 1144
1 1145
1 1146
1 1147
1 1148
1 1149
1 1150
1 1151
1 1152
1 1153
1 1154
1 1155
1 1156
1 1157
1 1158
1 1159
1 1160
1 1161
1 1162
1 1163
1 1164
1 1165
1 1166
1 1167
1 1168
1 1169
1 1170
1 1171
1 1172
1 1173
1 1174
1 1175
1 1176
1 1177
1 1178
1 1179
1 1180
1 1181
1 1182
1 1183
1 1184
1 1185
1 1186
1 1187
1 1188
1 1189
1 1190
1 1191
1 1192
1 1193
1 1194
1 1195
1 1196
1 1197
1 1198
1 1199
1 1200
1 1201
1 1202
1 1203
1 1204
1 1205
1 1206
1 1207
1 1208
1 1209
1 1210
1 1211
1 1212
1 1213
1 1214
1 1215
1 1216
1 1217
1 1218
1 1219
1 1220
1 1221
1 1222
1 1223
1 1224
1 1225
1 1226
1 1227
1 1228
1 1229
1 1230
1 1231
1 1232
1 1233
1 1234
1 1235
1 1236
1 1237
1 1238
1 1239
1 1240
1 1241
1 1242
1 1243
1 1244
1 1245
1 1246
1 1247
1 1248
1 1249
1 1250
1 1251
1 1252
1 1253
1 1254
1 1255
1 1256
1 1257
1 1258
1 1259
1 1260
1 1261
1 1262
1 1263
1 1264
1 1265
1 1266
1 1267
1 1268
1 1269
1 1270
1 1271
1 1272
1 1273
1 1274
1 1275
1 1276
1 1277
1 1278
1 1279
1 1280
1 1281
1 1282
1 1283
1 1284
1 1285
1 1286
1 1287
1 1288
1 1289
1 1290
1 1291
1 1292
1 1293
1 1294
1 1295
1 1296
1 1297
1 1298
1 1299
1 1300
1 1301
1 1302
1 1303
1 1304
1 1305
1 1306
1 1307
1 1308
1 1309
1 1310
1 1311
1 1312
1 1313
1 1314
1 1315
1 1316
1 1317
1 1318
1 1319
1 1320
1 1321
1 1322
1 1323
1 1324
1 1325
1 1326
1 1327
1 1328
1 1329
1 1330
1 1331
1 1332
1 1333
1 1334
1 1335
1 1336
1 1337
1 1338
1 1339
1 1340
1 1341
1 1342
1 1343
1 1344
1 1345
1 1346
1 1347
1 1348
1 1349
1 1350
1 1351
1 1352
1 1353
1 1354
1 1355
1 1356
1 1357
1 1358
1 1359
1 1360
1 1361
1 1362
1 1363
1 1364
1 1365
1 1366
1 1367
1 1368
1 1369
1 1370
1 1371
1 1372
1 1373
1 1374
1 1375
1 1376
1 1377
1 1378
1 1379
1 1380
1 1381
1 1382
1 1383
1 1384
1 1385
1 1386
1 1387
1 1388
1 1389
1 1390
1 1391
1 1392
1 1393
1 1394
1 1395
1 1396
1 1397
1 1398
1 1399
1 1400
1 1401
1 1402
1 1403
1 1404
1 1405
1 1406
1 1407
1 1408
1 1409
1 1410
1 1411
1 1412
1 1413
1 1414
1 1415
1 1416
1 1417
1 1418
1 1419
1 1420
1 1421
1 1422
1 1423
1 1424
1 1425
1 1426
1 1427
1 1428
1 1429
1 1430
1 1431
1 1432
1 1433
1 1434
1 1435
1 1436
1 1437
1 1438
1 1439
1 1440
1 1441
1 1442
1 1443
1 1444
1 1445
1 1446
1 1447
1 1448
1 1449
1 1450
1 1451
1 1452
1 1453
1 1454
1 1455
1 1456
1 1457
1 1458
1 1459
1 1460
1 1461
1 1462
1 1463
1 1464
1 1465
1 1466
1 1467
1 1468
1 1469
1 1470
1 1471
1 1472
1 1473
1 1474
1 1475
1 1476
1 1477
1 1478
1 1479
1 1480
1 1481
1 1482
1 1483
1 1484
1 1485
1 1486
1 1487
1 1488
1 1489
1 1490
1 1491
1 1492
1 1493
1 1494
1 1495
1 1496
1 1497
1 1498
1 1499
1 1500
1 1501
1 1502
1 1503
1 1504
1 1505
1 1506
1 1507
1 1508
1 1509
1 1510
1 1511
1 1512
1 1513
1 1514
1 1515
1 1516
1 1517
1 1518
1 1519
1 1520
1 1521
1 1522
1 1523
1 1524
1 1525
1 1526
1 1527
1 1528
1 1529
1 1530
1 1531
1 1532
1 1533
1 1534
1 1535
1 1536
1 1537
1 1538
1 1539
1 1540
1 1541
1 1542
1 1543
1 1544
1 1545
1 1546
1 1547
1 1548
1 1549
1 1550
1 1551
1 1552
1 1553
1 1554
1 1555
1 1556
1 1557
1 1558
1 1559
1 1560
1 1561
1 1562
1 1563
1 1564
1 1565
1 1566
1 1567
1 1568
1 1569
1 1570
1 1571
1 1572
1 1573
1 1574
1 1575
1 1576
1 1577
1 1578
1 1579
1 1580
1 1581
1 1582
1 1583
1 1584
1 1585
1 1586
1 1587
1 1588
1 1589
1 1590
1 1591
1 1592
1 1593
1 1594
1 1595
1 1596
1 1597
1 1598
1 1599
1 1600
1 1601
1 1602
1 1603
1 1604
1 1605
1 1606
1 1607
1 1608
1 1609
1 1610
1 1611
1 1612
1 1613
1 1614
1 1615
1 1616
1 1617
1 1618
1 1619
1 1620
1 1621
1 1622
1 1623
1 1624
1 1625
1 1626
1 1627
1 1628
1 1629
1 1630
1 1631
1 1632
1 1633
1 1634
1 1635
1 1636
1 1637
1 1638
1 1639
1 1640
1 1641
1 1642
1 1643
1 1644
1 1645
1 1646
1 1647
1 1648
1 1649
1 1650
1 1651
1 1652
1 1653
1 1654
1 1655
1 1656
1 1657
1 1658
1 1659
1 1660
1 1661
1 1662
1 1663
1 1664
1 1665
1 1666
1 1667
1 1668
1 1669
1 1670
1 1671
1 1672
1 1673
1 1674
1 1675
1 1676
1 1677
1 1678
1 1679
1 1680
1 1681
1 1682
1 1683
1 1684
1 1685
1 1686
1 1687
1 1688
1 1689
1 1690
1 1691
1 1692
1 1693
1 1694
1 1695
1 1696
1 1697
1 1698
1 1699
1 1700
1 1701
1 1702
1 1703
1 1704
1 1705
1 1706
1 1707
1 1708
1 1709
1 1710
1 1711
1 1712
1 1713
1 1714
1 1715
1 1716
1 1717
1 1718
1 1719
1 1720
1 1721
1 1722
1 1723
1 1724
1 1725
1 1726
1 1727
1 1728
1 1729
1 1730
1 1731
1 1732
1 1733
1 1734
1 1735
1 1736
1 1737
1 1738
1 1739
1 1740
1 1741
1 1742
1 1743
1 1744
1 1745
1 1746
1 1747
1 1748
1 1749
1 1750
1 1751
1 1752
1 1753
1 1754
1 1755
1 1756
1 1757
1 1758
1 1759
1 1760
1 1761
1 1762
1 1763
1 1764
1 1765
1 1766
1 1767
1 1768
1 1769
1 1770
1 1771
1 1772
1 1773
1 1774
1 1775
1 1776
1 1777
1 1778
1 1779
1 1780
1 1781
1 1782
1 1783
1 1784
1 1785
1 1786
1 1787
1 1788
1 1789
1 1790
1 1791
1 1792
1 1793
1 1794
1 1795
1 1796
1 1797
1 1798
1 1799
1 1800
1 1801
1 1802
1 1803
1 1804
1 1805
1 1806
1 1807
1 1808
1 1809
1 1810
1 1811
1 1812
1 1813
1 1814
1 1815
1 1816
1 1817
1 1818
1 1819
1 1820
1 1821
1 1822
1 1823
1 1824
1 1825
1 1826
1 1827
1 1828
1 1829
1 1830
1 1831
1 1832
1 1833
1 1834
1 1835
1 1836
1 1837
1 1838
1 1839
1 1840
1 1841
1 1842
1 1843
1 1844
1 1845
1 1846
1 1847
1 1848
1 1849
1 1850
1 1851
1 1852
1 1853
1 1854
1 1855
1 1856
1 1857
1 1858
1 1859
1 1860
1 1861
1 1862
1 1863
1 1864
1 1865
1 1866
1 1867
1 1868
1 1869
1 1870
1 1871
1 1872
1 1873
1 1874
1 1875
1 1876
1 1877
1 1878
1 1879
1 1880
1 1881
1 1882
1 1883
1 1884
1 1885
1 1886
1 1887
1 1888
1 1889
1 1890
1 1891
1 1892
1 1893
1 1894
1 1895
1 1896
1 1897
1 1898
1 1899
1 1900
1 1901
1 1902
1 1903
1 1904
1 1905
1 1906
1 1907
1 1908
1 1909
1 1910
1 1911
1 1912
1 1913
1 1914
1 1915
1 1916
1 1917
1 1918
1 1919
1 1920
1 1921
1 1922
1 1923
1 1924
1 1925
1 1926
1 1927
1 1928
1 1929
1 1930
1 1931
1 1932
1 1933
1 1934
1 1935
1 1936
1 1937
1 1938
1 1939
1 1940
1 1941
1 1942
1 1943
1 1944
1 1945
1 1946
1 1947
1 1948
1 1949
1 1950
1 1951
1 1952
1 1953
1 1954
1 1955
1 1956
1 1957
1 1958
1 1959
1 1960
1 1961
1 1962
1 1963
1 1964
1 1965
1 1966
1 1967
1 1968
1 1969
1 1970
1 1971
1 1972
1 1973
1 1974
1 1975
1 1976
1 1977
1 1978
1 1979
1 1980
1 1981
1 1982
1 1983
1 1984
1 1985
1 1986
1 1987
1 1988
1 1989
1 1990
1 1991
1 1992
1 1993
1 1994
1 1995
1 1996
1 1997
1 1998
1 1999
1 2000
1 2001
1 2002
1 2003
1 2004
1 2005
1 2006
1 2007
1 2008
1 2009
1 2010
1 2011
1 2012
1 2013
1 2014
1 2015
1 2016
1 2017
1 2018
1 2019
1 2020
1 2021
1 2022
1 2023
1 2024
1 2025
1 2026
1 2027
1 2028
1 2029
1 2030
1 2031
1 2032
1 2033
1 2034
1 2035
1 2036
1 2037
1 2038
1 2039
1 2040
1 2041
1 2042
1 2043
1 2044
1 2045
1 2046
1 2047
1 2048
1 2049
1 2050
1 2051
1 2052
1 2053
1 2054
1 2055
1 2056
1 2057
1 2058
1 2059
1 2060
1 2061
1 2062
1 2063
1 2064
1 2065
1 2066
1 2067
1 2068
1 2069
1 2070
1 2071
1 2072
1 2073
1 2074
1 2075
1 2076
1 2077
1 2078
1 2079
1 2080
1 2081
1 2082
1 2083
1 2084
1 2085
1 2086
1 2087
1 2088
1 2089
1 2090
1 2091
1 2092
1 2093
1 2094
1 2095
1 2096
1 2097
1 2098
1 2099
1 2100
1 2101
1 2102
1 2103
1 2104
1 2105
1 2106
1 2107
1 2108
1 2109
1 2110
1 2111
1 2112
1 2113
1 2114
1 2115
1 2116
1 2117
1 2118
1 2119
1 2120
1 2121
1 2122
1 2123
1 2124
1 2125
1 2126
1 2127
1 2128
1 2129
1 2130
1 2131
1 2132
1 2133
1 2134
1 2135
1 2136
1 2137
1 2138
1 2139
1 2140
1 2141
1 2142
1 2143
1 2144
1 2145
1 2146
1 2147
1 2148
1 2149
1 2150
1 2151
1 2152
1 2153
1 2154
1 2155
1 2156
1 2157
1 2158
1 2159
1 2160
1 2161
1 2162
1 2163
1 2164
1 2165
1 2166
1 2167
1 2168
1 2169
1 2170
1 2171
1 2172
1 2173
1 2174
1 2175
1 2176
1 2177
1 2178
1 2179
1 2180
1 2181
1 2182
1 2183
1 2184
1 2185
1 2186
1 2187
1 2188
1 2189
1 2190
1 2191
1 2192
1 2193
1 2194
1 2195
1 2196
1 2197
1 2198
1 2199
1 2200
1 2201
1 2202
1 2203
1 2204
1 2205
1 2206
1 2207
1 2208
1 2209
1 2210
1 2211
1 2212
1 2213
1 2214
1 2215
1 2216
1 2217
1 2218
1 2219
1 2220
1 2221
1 2222
1 2223
1 2224
1 2225
1 2226
1 2227
1 2228
1 2229
1 2230
1 2231
1 2232
1 2233
1 2234
1 2235
1 2236
1 2237
1 2238
1 2239
1 2240
1 2241
1 2242
1 2243
1 2244
1 2245
1 2246
1 2247
1 2248
1 2249
1 2250
1 2251
1 2252
1 2253
1 2254
1 2255
1 2256
1 2257
1 2258
1 2259
1 2260
1 2261
1 2262
1 2263
1 2264
1 2265
1 2266
1 2267
1 2268
1 2269
1 2270
1 2271
1 2272
1 2273
1 2274
1 2275
1 2276
1 2277
1 2278
1 2279
1 2280
1 2281
1 2282
1 2283
1 2284
1 2285
1 2286
1 2287
1 2288
1 2289
1 2290
1 2291
1 2292
1 2293
1 2294
1 2295
1 2296
1 2297
1 2298
1 2299
1 2300
1 2301
1 2302
1 2303
1 2304
1 2305
1 2306
1 2307
1 2308
1 2309
1 2310
1 2311
1 2312
1 2313
1 2314
1 2315
1 2316
1 2317
1 2318
1 2319
1 2320
1 2321
1 2322
1 2323
1 2324
1 2325
1 2326
1 2327
1 2328
1 2329
1 2330
1 2331
1 2332
1 2333
1 2334
1 2335
1 2336
1 2337
1 2338
1 2339
1 2340
1 2341
1 2342
1 2343
1 2344
1 2345
1 2346
1 2347
1 2348
1 2349
1 2350
1 2351
1 2352
1 2353
1 2354
1 2355
1 2356
1 2357
1 2358
1 2359
1 2360
1 2361
1 2362
1 2363
1 2364
1 2365
1 2366
1 2367
1 2368
1 2369
1 2370
1 2371
1 2372
1 2373
1 2374
1 2375
1 2376
1 2377
1 2378
1 2379
1 2380
1 2381
1 2382
1 2383
1 2384
1 2385
1 2386
1 2387
1 2388
1 2389
1 2390
1 2391
1 2392
1 2393
1 2394
1 2395
1 2396
1 2397
1 2398
1 2399
1 2400
1 2401
1 2402
1 2403
1 2404
1 2405
1 2406
1 2407
1 2408
1 2409
1 2410
1 2411
1 2412
1 2413
1 2414
1 2415
1 2416
1 2417
1 2418
1 2419
1 2420
1 2421
1 2422
1 2423
1 2424
1 2425
1 2426
1 2427
1 2428
1 2429
1 2430
1 2431
1 2432
1 2433
1 2434
1 2435
1 2436
1 2437
1 2438
1 2439
1 2440
1 2441
1 2442
1 2443
1 2444
1 2445
1 2446
1 2447
1 2448
1 2449
1 2450
1 2451
1 2452
1 2453
1 2454
1 2455
1 2456
1 2457
1 2458
1 2459
1 2460
1 2461
1 2462
1 2463
1 2464
1 2465
1 2466
1 2467
1 2468
1 2469
1 2470
1 2471
1 2472
1 2473
1 2474
1 2475
1 2476
1 2477
1 2478
1 2479
1 2480
1 2481
1 2482
1 2483
1 2484
1 2485
1 2486
1 2487
1 2488
1 2489
1 2490
1 2491
1 2492
1 2493
1 2494
1 2495
1 2496
1 2497
1 2498
1 2499
1 2500
1 2501
1 2502
1 2503
1 2504
1 2505
1 2506
1 2507
1 2508
1 2509
1 2510
1 2511
1 2512
1 2513
1 2514
1 2515
1 2516
1 2517
1 2518
1 2519
1 2520
1 2521
1 2522
1 2523
1 2524
1 2525
1 2526
1 2527
1 2528
1 2529
1 2530
1 2531
1 2532
1 2533
1 2534
1 2535
1 2536
1 2537
1 2538
1 2539
1 2540
1 2541
1 2542
1 2543
1 2544
1 2545
1 2546
1 2547
1 2548
1 2549
1 2550
1 2551
1 2552
1 2553
1 2554
1 2555
1 2556
1 2557
1 2558
1 2559
1 2560
1 2561
1 2562
1 2563
1 2564
1 2565
1 2566
1 2567
1 2568
1 2569
1 2570
1 2571
1 2572
1 2573
1 2574
1 2575
1 2576
1 2577
1 2578
1 2579
1 2580
1 2581
1 2582
1 2583
1 2584
1 2585
1 2586
1 2587
1 2588
1 2589
1 2590
1 2591
1 2592
1 2593
1 2594
1 2595
1 2596
1 2597
1 2598
1 2599
1 2600
1 2601
1 2602
1 2603
1 2604
1 2605
1 2606
1 2607
1 2608
1 2609
1 2610
1 2611
1 2612
1 2613
1 2614
1 2615
1 2616
1 2617
1 2618
1 2619
1 2620
1 2621
1 2622
1 2623
1 2624
1 2625
1 2626
1 2627
1 2628
1 2629
1 2630
1 2631
1 2632
1 2633
1 2634
1 2635
1 2636
1 2637
1 2638
1 2639
1 2640
1 2641
1 2642
1 2643
1 2644
1 2645
1 2646
1 2647
1 2648
1 2649
1 2650
1 2651
1 2652
1 2653
1 2654
1 2655
1 2656
1 2657
1 2658
1 2659
1 2660
1 2661
1 2662
1 2663
1 2664
1 2665
1 2666
1 2667
1 2668
1 2669
1 2670
1 2671
1 2672
1 2673
1 2674
1 2675
1 2676
1 2677
1 2678
1 2679
1 2680
1 2681
1 2682
1 2683
1 2684
1 2685
1 2686
1 2687
1 2688
1 2689
1 2690
1 2691
1 2692
1 2693
1 2694
1 2695
1 2696
1 2697
1 2698
1 2699
1 2700
1 2701
1 2702
1 2703
1 2704
1 2705
1 2706
1 2707
1 2708
1 2709
1 2710
1 2711
1 2712
1 2713
1 2714
1 2715
1 2716
1 2717
1 2718
1 2719
1 2720
1 2721
1 2722
1 2723
1 2724
1 2725
1 2726
1 2727
1 2728
1 2729
1 2730
1 2731
1 2732
1 2733
1 2734
1 2735
1 2736
1 2737
1 2738
1 2739
1 2740
1 2741
1 2742
1 2743
1 2744
1 2745
1 2746
1 2747
1 2748
1 2749
1 2750
1 2751
1 2752
1 2753
1 2754
1 2755
1 2756
1 2757
1 2758
1 2759
1 2760
1 2761
1 2762
1 2763
1 2764
1 2765
1 2766
1 2767
1 2768
1 2769
1 2770
1 2771
1 2772
1 2773
1 2774
1 2775
1 2776
1 2777
1 2778
1 2779
1 2780
1 2781
1 2782
1 2783
1 2784
1 2785
1 2786
1 2787
1 2788
1 2789
1 2790
1 2791
1 2792
1 2793
1 2794
1 2795
1 2796
1 2797
1 2798
1 2799
1 2800
1 2801
1 2802
1 2803
1 2804
1 2805
1 2806
1 2807
1 2808
1 2809
1 2810
1 2811
1 2812
1 2813
1 2814
1 2815
1 2816
1 2817
1 2818
1 2819
1 2820
1 2821
1 2822
1 2823
1 2824
1 2825
1 2826
1 2827
1 2828
1 2829
1 2830
1 2831
1 2832
1 2833
1 2834
1 2835
1 2836
1 2837
1 2838
1 2839
1 2840
1 2841
1 2842
1 2843
1 2844
1 2845
1 2846
1 2847
1 2848
1 2849
1 2850
1 2851
1 2852
1 2853
1 2854
1 2855
1 2856
1 2857
1 2858
1 2859
1 2860
1 2861
1 2862
1 2863
1 2864
1 2865
1 2866
1 2867
1 2868
1 2869
1 2870
1 2871
1 2872
1 2873
1 2874
1 2875
1 2876
1 2877
1 2878
1 2879
1 2880
1 2881
1 2882
1 2883
1 2884
1 2885
1 2886
1 2887
1 2888
1 2889
1 2890
1 2891
1 2892
1 2893
1 2894
1 2895
1 2896
1 2897
1 2898
1 2899
1 2900
1 2901
1 2902
1 2903
1 2904
1 2905
1 2906
1 2907
1 2908
1 2909
1 2910
1 2911
1 2912
1 2913
1 2914
1 2915
1 2916
1 2917
1 2918
1 2919
1 2920
1 2921
1 2922
1 2923
1 2924
1 2925
1 2926
1 2927
1 2928
1 2929
1 2930
1 2931
1 2932
1 2933
1 2934
1 2935
1 2936
1 2937
1 2938
1 2939
1 2940
1 2941
1 2942
1 2943
1 2944
1 2945
1 2946
1 2947
1 2948
1 2949
1 2950
1 2951
1 2952
1 2953
1 2954
1 2955
1 2956
1 2957
1 2958
1 2959
1 2960
1 2961
1 2962
1 2963
1 2964
1 2965
1 2966
1 2967
1 2968
1 2969
1 2970
1 2971
1 2972
1 2973
1 2974
1 2975
1 2976
1 2977
1 2978
1 2979
1 2980
1 2981
1 2982
1 2983
1 2984
1 2985
1 2986
1 2987
1 2988
1 2989
1 2990
1 2991
1 2992
1 2993
1 2994
1 2995
1 2996
1 2997
1 2998
1 2999
1 3000
1 3001
1 3002
1 3003
1 3004
1 3005
1 3006
1 3007
1 3008
1 3009
1 3010
1 3011
1 3012
1 3013
1 3014
1 3015
1 3016
1 3017
1 3018
1 3019
1 3020
1 3021
1 3022
1 3023
1 3024
1 3025
1 3026
1 3027
1 3028
1 3029
1 3030
1 3031
1 3032
1 3033
1 3034
1 3035
1 3036
1 3037
1 3038
1 3039
1 3040
1 3041
1 3042
1 3043
1 3044
1 3045
1 3046
1 3047
1 3048
1 3049
1 3050
1 3051
1 3052
1 3053
1 3054
1 3055
1 3056
1 3057
1 3058
1 3059
1 3060
1 3061
1 3062
1 3063
1 3064
1 3065
1 3066
1 3067
1 3068
1 3069
1 3070
1 3071
1 3072
1 3073
1 3074
1 3075
1 3076
1 3077
1 3078
1 3079
1 3080
1 3081
1 3082
1 3083
1 3084
1 3085
1 3086
1 3087
1 3088
1 3089
1 3090
1 3091
1 3092
1 3093
1 3094
1 3095
1 3096
1 3097
1 3098
1 3099
1 3100
1 3101
1 3102
1 3103
1 3104
1 3105
1 3106
1 3107
1 3108
1 3109
1 3110
1 3111
1 3112
1 3113
1 3114
1 3115
1 3116
1 3117
1 3118
1 3119
1 3120
1 3121
1 3122
1 3123
1 3124
1 3125
1 3126
1 3127
1 3128
1 3129
1 3130
1 3131
1 3132
1 3133
1 3134
1 3135
1 3136
1 3137
1 3138
1 3139
1 3140
1 3141
1 3142
1 3143
1 3144
1 3145
1 3146
1 3147
1 3148
1 3149
1 3150
1 3151
1 3152
1 3153
1 3154
1 3155
1 3156
1 3157
1 3158
1 3159
1 3160
1 3161
1 3162
1 3163
1 3164
1 3165
1 3166
1 3167
1 3168
1 3169
1 3170
1 3171
1 3172
1 3173
1 3174
1 3175
1 3176
1 3177
1 3178
1 3179
1 3180
1 3181
1 3182
1 3183
1 3184
1 3185
1 3186
1 3187
1 3188
1 3189
1 3190
1 3191
1 3192
1 3193
1 3194
1 3195
1 3196
1 3197
1 3198
1 3199
1 3200
1 3201
1 3202
1 3203
1 3204
1 3205
1 3206
1 3207
1 3208
1 3209
1 3210
1 3211
1 3212
1 3213
1 3214
1 3215
1 3216
1 3217
1 3218
1 3219
1 3220
1 3221
1 3222
1 3223
1 3224
1 3225
1 3226
1 3227
1 3228
1 3229
1 3230
1 3231
1 3232
1 3233
1 3234
1 3235
1 3236
1 3237
1 3238
1 3239
1 3240
1 3241
1 3242
1 3243
1 3244
1 3245
1 3246
1 3247
1 3248
1 3249
1 3250
1 3251
1 3252
1 3253
1 3254
1 3255
1 3256
1 3257
1 3258
1 3259
1 3260
1 3261
1 3262
1 3263
1 3264
1 3265
1 3266
1 3267
1 3268
1 3269
1 3270
1 3271
1 3272
1 3273
1 3274
1 3275
1 3276
1 3277
1 3278
1 3279
1 3280
1 3281
1 3282
1 3283
1 3284
1 3285
1 3286
1 3287
1 3288
1 3289
1 3290
1 3291
1 3292
1 3293
1 3294
1 3295
1 3296
1 3297
1 3298
1 3299
1 3300
1 3301
1 3302
1 3303
1 3304
1 3305
1 3306
1 3307
1 3308
1 3309
1 3310
1 3311
1 3312
1 3313
1 3314
1 3315
1 3316
1 3317
1 3318
1 3319
1 3320
1 3321
1 3322
1 3323
1 3324
1 3325
1 3326
1 3327
1 3328
1 3329
1 3330
1 3331
1 3332
1 3333
1 3334
1 3335
1 3336
1 3337
1 3338
1 3339
1 3340
1 3341
1 3342
1 3343
1 3344
1 3345
1 3346
1 3347
1 3348
1 3349
1 3350
1 3351
1 3352
1 3353
1 3354
1 3355
1 3356
1 3357
1 3358
1 3359
1 3360
1 3361
1 3362
1 3363
1 3364
1 3365
1 3366
1 3367
1 3368
1 3369
1 3370
1 3371
1 3372
1 3373
1 3374
1 3375
1 3376
1 3377
1 3378
1 3379
1 3380
1 3381
1 3382
1 3383
1 3384
1 3385
1 3386
1 3387
1 3388
1 3389
1 3390
1 3391
1 3392
1 3393
1 3394
1 3395
1 3396
1 3397
1 3398
1 3399
1 3400
1 3401
1 3402
1 3403
1 3404
1 3405
1 3406
1 3407
1 3408
1 3409
1 3410
1 3411
1 3412
1 3413
1 3414
1 3415
1 3416
1 3417
1 3418
1 3419
1 3420
1 3421
1 3422
1 3423
1 3424
1 3425
1 3426
1 3427
1 3428
1 3429
1 3430
1 3431
1 3432
1 3433
1 3434
1 3435
1 3436
1 3437
1 3438
1 3439
1 3440
1 3441
1 3442
1 3443
1 3444
1 3445
1 3446
1 3447
1 3448
1 3449
1 3450
1 3451
1 3452
1 3453
1 3454
1 3455
1 3456
1 3457
1 3458
1 3459
1 3460
1 3461
1 3462
1 3463
1 3464
1 3465
1 3466
1 3467
1 3468
1 3469
1 3470
1 3471
1 3472
1 3473
1 3474
1 3475
1 3476
1 3477
1 3478
1 3479
1 3480
1 3481
1 3482
1 3483
1 3484
1 3485
1 3486
1 3487
1 3488
1 3489
1 3490
1 3491
1 3492
1 3493
1 3494
1 3495
1 3496
1 3497
1 3498
1 3499
1 3500
1 3501
1 3502
1 3503
1 3504
1 3505
1 3506
1 3507
1 3508
1 3509
1 3510
1 3511
1 3512
1 3513
1 3514
1 3515
1 3516
1 3517
1 3518
1 3519
1 3520
1 3521
1 3522
1 3523
1 3524
1 3525
1 3526
1 3527
1 3528
1 3529
1 3530
1 3531
1 3532
1 3533
1 3534
1 3535
1 3536
1 3537
1 3538
1 3539
1 3540
1 3541
1 3542
1 3543
1 3544
1 3545
1 3546
1 3547
1 3548
1 3549
1 3550
1 3551
1 3552
1 3553
1 3554
1 3555
1 3556
1 3557
1 3558
1 3559
1 3560
1 3561
1 3562
1 3563
1 3564
1 3565
1 3566
1 3567
1 3568
1 3569
1 3570
1 3571
1 3572
1 3573
1 3574
1 3575
1 3576
1 3577
1 3578
1 3579
1 3580
1 3581
1 3582
1 3583
1 3584
1 3585
1 3586
1 3587
1 3588
1 3589
1 3590
1 3591
1 3592
1 3593
1 3594
1 3595
1 3596
1 3597
1 3598
1 3599
1 3600
1 3601
1 3602
1 3603
1 3604
1 3605
1 3606
1 3607
1 3608
1 3609
1 3610
1 3611
1 3612
1 3613
1 3614
1 3615
1 3616
1 3617
1 3618
1 3619
1 3620
1 3621
1 3622
1 3623
1 3624
1 3625
1 3626
1 3627
1 3628
1 3629
1 3630
1 3631
1 3632
1 3633
1 3634
1 3635
1 3636
1 3637
1 3638
1 3639
1 3640
1 3641
1 3642
1 3643
1 3644
1 3645
1 3646
1 3647
1 3648
1 3649
1 3650
1 3651
1 3652
1 3653
1 3654
1 3655
1 3656
1 3657
1 3658
1 3659
1 3660
1 3661
1 3662
1 3663
1 3664
1 3665
1 3666
1 3667
1 3668
1 3669
1 3670
1 3671
1 3672
1 3673
1 3674
1 3675
1 3676
1 3677
1 3678
1 3679
1 3680
1 3681
1 3682
1 3683
1 3684
1 3685
1 3686
1 3687
1 3688
1 3689
1 3690
1 3691
1 3692
1 3693
1 3694
1 3695
1 3696
1 3697
1 3698
1 3699
1 3700
1 3701
1 3702
1 3703
1 3704
1 3705
1 3706
1 3707
1 3708
1 3709
1 3710
1 3711
1 3712
1 3713
1 3714
1 3715
1 3716
1 3717
1 3718
1 3719
1 3720
1 3721
1 3722
1 3723
1 3724
1 3725
1 3726
1 3727
1 3728
1 3729
1 3730
1 3731
1 3732
1 3733
1 3734
1 3735
1 3736
1 3737
1 3738
1 3739
1 3740
1 3741
1 3742
1 3743
1 3744
1 3745
1 3746
1 3747
1 3748
1 3749
1 3750
1 3751
1 3752
1 3753
1 3754
1 3755
1 3756
1 3757
1 3758
1 3759
1 3760
1 3761
1 3762
1 3763
1 3764
1 3765
1 3766
1 3767
1 3768
1 3769
1 3770
1 3771
1 3772
1 3773
1 3774
1 3775
1 3776
1 3777
1 3778
1 3779
1 3780
1 3781
1 3782
1 3783
1 3784
1 3785
1 3786
1 3787
1 3788
1 3789
1 3790
1 3791
1 3792
1 3793
1 3794
1 3795
1 3796
1 3797
1 3798
1 3799
1 3800
1 3801
1 3802
1 3803
1 3804
1 3805
1 3806
1 3807
1 3808
1 3809
1 3810
1 3811
1 3812
1 3813
1 3814
1 3815
1 3816
1 3817
1 3818
1 3819
1 3820
1 3821
1 3822
1 3823
1 3824
1 3825
1 3826
1 3827
1 3828
1 3829
1 3830
1 3831
1 3832
1 3833
1 3834
1 3835
1 3836
1 3837
1 3838
1 3839
1 3840
1 3841
1 3842
1 3843
1 3844
1 3845
1 3846
1 3847
1 3848
1 3849
1 3850
1 3851
1 3852
1 3853
1 3854
1 3855
1 3856
1 3857
1 3858
1 3859
1 3860
1 3861
1 3862
1 3863
1 3864
1 3865
1 3866
1 3867
1 3868
1 3869
1 3870
1 3871
1 3872
1 3873
1 3874
1 3875
1 3876
1 3877
1 3878
1 3879
1 3880
1 3881
1 3882
1 3883
1 3884
1 3885
1 3886
1 3887
1 3888
1 3889
1 3890
1 3891
1 3892
1 3893
1 3894
1 3895
1 3896
1 3897
1 3898
1 3899
1 3900
1 3901
1 3902
1 3903
1 3904
1 3905
1 3906
1 3907
1 3908
1 3909
1 3910
1 3911
1 3912
1 3913
1 3914
1 3915
1 3916
1 3917
1 3918
1 3919
1 3920
1 3921
1 3922
1 3923
1 3924
1 3925
1 3926
1 3927
1 3928
1 3929
1 3930
1 3931
1 3932
1 3933
1 3934
1 3935
1 3936
1 3937
1 3938
1 3939
1 3940
1 3941
1 3942
1 3943
1 3944
1 3945
1 3946
1 3947
1 3948
1 3949
1 3950
1 3951
1 3952
1 3953
1 3954
1 3955
1 3956
1 3957
1 3958
1 3959
1 3960
1 3961
1 3962
1 3963
1 3964
1 3965
1 3966
1 3967
1 3968
1 3969
1 3970
1 3971
1 3972
1 3973
1 3974
1 3975
1 3976
1 3977
1 3978
1 3979
1 3980
1 3981
1 3982
1 3983
1 3984
1 3985
1 3986
1 3987
1 3988
1 3989
1 3990
1 3991
1 3992
1 3993
1 3994
1 3995
1 3996
1 3997
1 3998
1 3999
1 4000
1 4001
1 4002
1 4003
1 4004
1 4005
1 4006
1 4007
1 4008
1 4009
1 4010
1 4011
1 4012
1 4013
1 4014
1 4015
1 4016
1 4017
1 4018
1 4019
1 4020
1 4021
1 4022
1 4023
1 4024
1 4025
1 4026
1 4027
1 4028
1 4029
1 4030
1 4031
1 4032
1 4033
1 4034
1 4035
1 4036
1 4037
1 4038
1 4039
1 4040
1 4041
1 4042
1 4043
1 4044
1 4045
1 4046
1 4047
1 4048
1 4049
1 4050
1 4051
1 4052
1 4053
1 4054
1 4055
1 4056
1 4057
1 4058
1 4059
1 4060
1 4061
1 4062
1 4063
1 4064
1 4065
1 4066
1 4067
1 4068
1 4069
1 4070
1 4071
1 4072
1 4073
1 4074
1 4075
1 4076
1 4077
1 4078
1 4079
1 4080
1 4081
1 4082
1 4083
1 4084
1 4085
1 4086
1 4087
1 4088
1 4089
1 4090
1 4091
1 4092
1 4093
1 4094
1 4095
1 4096
1 4097
1 4098
1 4099
1 4100
1 4101
1 4102
1 4103
1 4104
1 4105
1 4106
1 4107
1 4108
1 4109
1 4110
1 4111
1 4112
1 4113
1 4114
1 4115
1 4116
1 4117
1 4118
1 4119
1 4120
1 4121
1 4122
1 4123
1 4124
1 4125
1 4126
1 4127
1 4128
1 4129
1 4130
1 4131
1 4132
1 4133
1 4134
1 4135
1 4136
1 4137
1 4138
1 4139
1 4140
1 4141
1 4142
1 4143
1 4144
1 4145
1 4146
1 4147
1 4148
1 4149
1 4150
1 4151
1 4152
1 4153
1 4154
1 4155
1 4156
1 4157
1 4158
1 4159
1 4160
1 4161
1 4162
1 4163
1 4164
1 4165
1 4166
1 4167
1 4168
1 4169
1 4170
1 4171
1 4172
1 4173
1 4174
1 4175
1 4176
1 4177
1 4178
1 4179
1 4180
1 4181
1 4182
1 4183
1 4184
1 4185
1 4186
1 4187
1 4188
1 4189
1 4190
1 4191
1 4192
1 4193
1 4194
1 4195
1 4196
1 4197
1 4198
1 4199
1 4200
1 4201
1 4202
1 4203
1 4204
1 4205
1 4206
1 4207
1 4208
1 4209
1 4210
1 4211
1 4212
1 4213
1 4214
1 4215
1 4216
1 4217
1 4218
1 4219
1 4220
1 4221
1 4222
1 4223
1 4224
1 4225
1 4226
1 4227
1 4228
1 4229
1 4230
1 4231
1 4232
1 4233
1 4234
1 4235
1 4236
1 4237
1 4238
1 4239
1 4240
1 4241
1 4242
1 4243
1 4244
1 4245
1 4246
1 4247
1 4248
1 4249
1 4250
1 4251
1 4252
1 4253
1 4254
1 4255
1 4256
1 4257
1 4258
1 4259
1 4260
1 4261
1 4262
1 4263
1 4264
1 4265
1 4266
1 4267
1 4268
1 4269
1 4270
1 4271
1 4272
1 4273
1 4274
1 4275
1 4276
1 4277
1 4278
1 4279
1 4280
1 4281
1 4282
1 4283
1 4284
1 4285
1 4286
1 4287
1 4288
1 4289
1 4290
1 4291
1 4292
1 4293
1 4294
1 4295
1 4296
1 4297
1 4298
1 4299
1 4300
1 4301
1 4302
1 4303
1 4304
1 4305
1 4306
1 4307
1 4308
1 4309
1 4310
1 4311
1 4312
1 4313
1 4314
1 4315
1 4316
1 4317
1 4318
1 4319
1 4320
1 4321
1 4322
1 4323
1 4324
1 4325
1 4326
1 4327
1 4328
1 4329
1 4330
1 4331
1 4332
1 4333
1 4334
1 4335
1 4336
1 4337
1 4338
1 4339
1 4340
1 4341
1 4342
1 4343
1 4344
1 4345
1 4346
1 4347
1 4348
1 4349
1 4350
1 4351
1 4352
1 4353
1 4354
1 4355
1 4356
1 4357
1 4358
1 4359
1 4360
1 4361
1 4362
1 4363
1 4364
1 4365
1 4366
1 4367
1 4368
1 4369
1 4370
1 4371
1 4372
1 4373
1 4374
1 4375
1 4376
1 4377
1 4378
1 4379
1 4380
1 4381
1 4382
1 4383
1 4384
1 4385
1 4386
1 4387
1 4388
1 4389
1 4390
1 4391
1 4392
1 4393
1 4394
1 4395
1 4396
1 4397
1 4398
1 4399
1 4400
1 4401
1 4402
1 4403
1 4404
1 4405
1 4406
1 4407
1 4408
1 4409
1 4410
1 4411
1 4412
1 4413
1 4414
1 4415
1 4416
1 4417
1 4418
1 4419
1 4420
1 4421
1 4422
1 4423
1 4424
1 4425
1 4426
1 4427
1 4428
1 4429
1 4430
1 4431
1 4432
1 4433
1 4434
1 4435
1 4436
1 4437
1 4438
1 4439
1 4440
1 4441
1 4442
1 4443
1 4444
1 4445
1 4446
1 4447
1 4448
1 4449
1 4450
1 4451
1 4452
1 4453
1 4454
1 4455
1 4456
1 4457
1 4458
1 4459
1 4460
1 4461
1 4462
1 4463
1 4464
1 4465
1 4466
1 4467
1 4468
1 4469
1 4470
1 4471
1 4472
1 4473
1 4474
1 4475
1 4476
1 4477
1 4478
1 4479
1 4480
1 4481
1 4482
1 4483
1 4484
1 4485
1 4486
1 4487
1 4488
1 4489
1 4490
1 4491
1 4492
1 4493
1 4494
1 4495
1 4496
1 4497
1 4498
1 4499
1 4500
1 4501
1 4502
1 4503
1 4504
1 4505
1 4506
1 4507
1 4508
1 4509
1 4510
1 4511
1 4512
1 4513
1 4514
1 4515
1 4516
1 4517
1 4518
1 4519
1 4520
1 4521
1 4522
1 4523
1 4524
1 4525
1 4526
1 4527
1 4528
1 4529
1 4530
1 4531
1 4532
1 4533
1 4534
1 4535
1 4536
1 4537
1 4538
1 4539
1 4540
1 4541
1 4542
1 4543
1 4544
1 4545
1 4546
1 4547
1 4548
1 4549
1 4550
1 4551
1 4552
1 4553
1 4554
1 4555
1 4556
1 4557
1 4558
1 4559
1 4560
1 4561
1 4562
1 4563
1 4564
1 4565
1 4566
1 4567
1 4568
1 4569
1 4570
1 4571
1 4572
1 4573
1 4574
1 4575
1 4576
1 4577
1 4578
1 4579
1 4580
1 4581
1 4582
1 4583
1 4584
1 4585
1 4586
1 4587
1 4588
1 4589
1 4590
1 4591
1 4592
1 4593
1 4594
1 4595
1 4596
1 4597
1 4598
1 4599
1 4600
1 4601
1 4602
1 4603
1 4604
1 4605
1 4606
1 4607
1 4608
1 4609
1 4610
1 4611
1 4612
1 4613
1 4614
1 4615
1 4616
1 4617
1 4618
1 4619
1 4620
1 4621
1 4622
1 4623
1 4624
1 4625
1 4626
1 4627
1 4628
1 4629
1 4630
1 4631
1 4632
1 4633
1 4634
1 4635
1 4636
1 4637
1 4638
1 4639
1 4640
1 4641
1 4642
1 4643
1 4644
1 4645
1 4646
1 4647
1 4648
1 4649
1 4650
1 4651
1 4652
1 4653
1 4654
1 4655
1 4656
1 4657
1 4658
1 4659
1 4660
1 4661
1 4662
1 4663
1 4664
1 4665
1 4666
1 4667
1 4668
1 4669
1 4670
1 4671
1 4672
1 4673
1 4674
1 4675
1 4676
1 4677
1 4678
1 4679
1 4680
1 4681
1 4682
1 4683
1 4684
1 4685
1 4686
1 4687
1 4688
1 4689
1 4690
1 4691
1 4692
1 4693
1 4694
1 4695
1 4696
1 4697
1 4698
1 4699
1 4700
1 4701
1 4702
1 4703
1 4704
1 4705
1 4706
1 4707
1 4708
1 4709
1 4710
1 4711
1 4712
1 4713
1 4714
1 4715
1 4716
1 4717
1 4718
1 4719
1 4720
1 4721
1 4722
1 4723
1 4724
1 4725
1 4726
1 4727
1 4728
1 4729
1 4730
1 4731
1 4732
1 4733
1 4734
1 4735
1 4736
1 4737
1 4738
1 4739
1 4740
1 4741
1 4742
1 4743
1 4744
1 4745
1 4746
1 4747
1 4748
1 4749
1 4750
1 4751
1 4752
1 4753
1 4754
1 4755
1 4756
1 4757
1 4758
1 4759
1 4760
1 4761
1 4762
1 4763
1 4764
1 4765
1 4766
1 4767
1 4768
1 4769
1 4770
1 4771
1 4772
1 4773
1 4774
1 4775
1 4776
1 4777
1 4778
1 4779
1 4780
1 4781
1 4782
1 4783
1 4784
1 4785
1 4786
1 4787
1 4788
1 4789
1 4790
1 4791
1 4792
1 4793
1 4794
1 4795
1 4796
1 4797
1 4798
1 4799
1 4800
1 4801
1 4802
1 4803
1 4804
1 4805
1 4806
1 4807
1 4808
1 4809
1 4810
1 4811
1 4812
1 4813
1 4814
1 4815
1 4816
1 4817
1 4818
1 4819
1 4820
1 4821
1 4822
1 4823
1 4824
1 4825
1 4826
1 4827
1 4828
1 4829
1 4830
1 4831
1 4832
1 4833
1 4834
1 4835
1 4836
1 4837
1 4838
1 4839
1 4840
1 4841
1 4842
1 4843
1 4844
1 4845
1 4846
1 4847
1 4848
1 4849
1 4850
1 4851
1 4852
1 4853
1 4854
1 4855
1 4856
1 4857
1 4858
1 4859
1 4860
1 4861
1 4862
1 4863
1 4864
1 4865
1 4866
1 4867
1 4868
1 4869
1 4870
1 4871
1 4872
1 4873
1 4874
1 4875
1 4876
1 4877
1 4878
1 4879
1 4880
1 4881
1 4882
1 4883
1 4884
1 4885
1 4886
1 4887
1 4888
1 4889
1 4890
1 4891
1 4892
1 4893
1 4894
1 4895
1 4896
1 4897
1 4898
1 4899
1 4900
1 4901
1 4902
1 4903
1 4904
1 4905
1 4906
1 4907
1 4908
1 4909
1 4910
1 4911
1 4912
1 4913
1 4914
1 4915
1 4916
1 4917
1 4918
1 4919
1 4920
1 4921
1 4922
1 4923
1 4924
1 4925
1 4926
1 4927
1 4928
1 4929
1 4930
1 4931
1 4932
1 4933
1 4934
1 4935
1 4936
1 4937
1 4938
1 4939
1 4940
1 4941
1 4942
1 4943
1 4944
1 4945
1 4946
1 4947
1 4948
1 4949
1 4950
1 4951
1 4952
1 4953
1 4954
1 4955
1 4956
1 4957
1 4958
1 4959
1 4960
1 4961
1 4962
1 4963
1 4964
1 4965
1 4966
1 4967
1 4968
1 4969
1 4970
1 4971
1 4972
1 4973
1 4974
1 4975
1 4976
1 4977
1 4978
1 4979
1 4980
1 4981
1 4982
1 4983
1 4984
1 4985
1 4986
1 4987
1 4988
1 4989
1 4990
1 4991
1 4992
1 4993
1 4994
1 4995
1 4996
1 4997
1 4998
1 4999
CELL_TYPES 5000
1 
1 
1 
1 
1 
1 
1 
1 
1 
1 
1 
1 
1 
1 
1 
1 
1 
1 
1 
1 
1 
1 
1 
1 
1 
1 
1 
1 
1 
1 
1 
1 
1 
1 
1 
1 
1 
1 
1 
1 
1 
1 
1 
1 
1 
1 
1 
1 
1 
1 
1 
1 
1 
1 
1 
1 
1 
1 
1 
1 
1 
1 
1 
1 
1 
1 
1 
1 
1 
1 
1 
1 
1 
1 
1 
1 
1 
1 
1 
1 
1 
1 
1 
1 
1 
1 
1 
1 
1 
1 
1 
1 
1 
1 
1 
1 
1 
1 
1 
1 
1 
1 
1 
1 
1 
1 
1 
1 
1 
1 
1 
1 
1 
1 
1 
1 
1 
1 
1 
1 
1 
1 
1 
1 
1 
1 
1 
1 
1 
1 
1 
1 
1 
1 
1 
1 
1 
1 
1 
1 
1 
1 
1 
1 
1 
1 
1 
1 
1 
1 
1 
1 
1 
1 
1 
1 
1 
1 
1 
1 
1 
1 
1 
1 
1 
1 
1 
1 
1 
1 
1 
1 
1 
1 
1 
1 
1 
1 
1 
1 
1 
1 
1 
1 
1 
1 
1 
1 
1 
1 
1 
1 
1 
1 
1 
1 
1 
1 
1 
1 
1 
1 
1 
1 
1 
1 
1 
1 
1 
1 
1 
1 
1 
1 
1 
1 
1 
1 
1 
1 
1 
1 
1 
1 
1 
1 
1 
1 
1 
1 
1 
1 
1 
1 
1 
1 
1 
1 
1 
1 
1 
1 
1 
1 
1 
1 
1 
1 
1 
1 
1 
1 
1 
1 
1 
1 
1 
1 
1 
1 
1 
1 
1 
1 
1 
1 
1 
1 
1 
1 
1 
1 
1 
1 
1 
1 
1 
1 
1 
1 
1 
1 
1 
1 
1 
1 
1 
1 
1 
1 
1 
1 
1 
1 
1 
1 
1 
1 
1 
1 
1 
1 
1 
1 
1 
1 
1 
1 
1 
1 
1 
1 
1 
1 
1 
1 
1 
1 
1 
1 
1 
1 
1 
1 
1 
1 
1 
1 
1 
1 
1 
1 
1 
1 
1 
1 
1 
1 
1 
1 
1 
1 
1 
1 
1 
1 
1 
1 
1 
1 
1 
1 
1 
1 
1 
1 
1 
1 
1 
1 
1 
1 
1 
1 
1 
1 
1 
1 
1 
1 
1 
1 
1 
1 
1 
1 
1 
1 
1 
1 
1 
1 
1 
1 
1 
1 
1 
1 
1 
1 
1 
1 
1 
1 
1 
1 
1 
1 
1 
1 
1 
1 
1 
1 
1 
1 
1 
1 
1 
1 
1 
1 
1 
1 
1 
1 
1 
1 
1 
1 
1 
1 
1 
1 
1 
1 
1 
1 
1 
1 
1 
1 
1 
1 
1 
1 
1 
1 
1 
1 
1 
1 
1 
1 
1 
1 
1 
1 
1 
1 
1 
1 
1 
1 
1 
1 
1 
1 
1 
1 
1 
1 
1 
1 
1 
1 
1 
1 
1 
1 
1 
1 
1 
1 
1 
1 
1 
1 
1 
1 
1 
1 
1 
1 
1 
1 
1 
1 
1 
1 
1 
1 
1 
1 
1 
1 
1 
1 
1 
1 
1 
1 
1 
1 
1 
1 
1 
1 
1 
1 
1 
1 
1 
1 
1 
1 
1 
1 
1 
1 
1 
1 
1 
1 
1 
1 
1 
1 
1 
1 
1 
1 
1 
1 
1 
1 
1 
1 
1 
1 
1 
1 
1 
1 
1 
1 
1 
1 
1 
1 
1 
1 
1 
1 
1 
1 
1 
1 
1 
1 
1 
1 
1 
1 
1 
1 
1 
1 
1 
1 
1 
1 
1 
1 
1 
1 
1 
1 
1 
1 
1 
1 
1 
1 
1 
1 
1 
1 
1 
1 
1 
1 
1 
1 
1 
1 
1 
1 
1 
1 
1 
1 
1 
1 
1 
1 
1 
1 
1 
1 
1 
1 
1 
1 
1 
1 
1 
1 
1 
1 
1 
1 
1 
1 
1 
1 
1 
1 
1 
1 
1 
1 
1 
1 
1 
1 
1 
1 
1 
1 
1 
1 
1 
1 
1 
1 
1 
1 
1 
1 
1 
1 
1 
1 
1 
1 
1 
1 
1 
1 
1 
1 
1 
1 
1 
1 
1 
1 
1 
1 
1 
1 
1 
1 
1 
1 
1 
1 
1 
1 
1 
1 
1 
1 
1 
1 
1 
1 
1 
1 
1 
1 
1 
1 
1 
1 
1 
1 
1 
1 
1 
1 
1 
1 
1 
1 
1 
1 
1 
1 
1 
1 
1 
1 
1 
1 
1 
1 
1 
1 
1 
1 
1 
1 
1 
1 
1 
1 
1 
1 
1 
1 
1 
1 
1 
1 
1 
1 
1 
1 
1 
1 
1 
1 
1 
1 
1 
1 
1 
1 
1 
1 
1 
1 
1 
1 
1 
1 
1 
1 
1 
1 
1 
1 
1 
1 
1 
1 
1 
1 
1 
1 
1 
1 
1 
1 
1 
1 
1 
1 
1 
1 
1 
1 
1 
1 
1 
1 
1 
1 
1 
1 
1 
1 
1 
1 
1 
1 
1 
1 
1 
1 
1 
1 
1 
1 
1 
1 
1 
1 
1 
1 
1 
1 
1 
1 
1 
1 
1 
1 
1 
1 
1 
1 
1 
1 
1 
1 
1 
1 
1 
1 
1 
1 
1 
1 
1 
1 
1 
1 
1 
1 
1 
1 
1 
1 
1 
1 
1 
1 
1 
1 
1 
1 
1 
1 
1 
1 
1 
1 
1 
1 
1 
1 
1 
1 
1 
1 
1 
1 
1 
1 
1 
1 
1 
1 
1 
1 
1 
1 
1 
1 
1 
1 
1 
1 
1 
1 
1 
1 
1 
1 
1 
1 
1 
1 
1 
1 
1 
1 
1 
1 
1 
1 
1 
1 
1 
1 
1 
1 
1 
1 
1 
1 
1 
1 
1 
1 
1 
1 
1 
1 
1 
1 
1 
1 
1 
1 
1 
1 
1 
1 
1 
1 
1 
1 
1 
1 
1 
1 
1 
1 
1 
1 
1 
1 
1 
1 
1 
1 
1 
1 
1 
1 
1 
1 
1 
1 
1 
1 
1 
1 
1 
1 
1 
1 
1 
1 
1 
1 
1 
1 
1 
1 
1 
1 
1 
1 
1 
1 
1 
1 
1 
1 
1 
1 
1 
1 
1 
1 
1 
1 
1 
1 
1 
1 
1 
1 
1 
1 
1 
1 
1 
1 
1 
1 
1 
1 
1 
1 
1 
1 
1 
1 
1 
1 
1 
1 
1 
1 
1 
1 
1 
1 
1 
1 
1 
1 
1 
1 
1 
1 
1 
1 
1 
1 
1 
1 
1 
1 
1 
1 
1 
1 
1 
1 
1 
1 
1 
1 
1 
1 
1 
1 
1 
1 
1 
1 
1 
1 
1 
1 
1 
1 
1 
1 
1 
1 
1 
1 
1 
1 
1 
1 
1 
1 
1 
1 
1 
1 
1 
1 
1 
1 
1 
1 
1 
1 
1 
1 
1 
1 
1 
1 
1 
1 
1 
1 
1 
1 
1 
1 
1 
1 
1 
1 
1 
1 
1 
1 
1 
1 
1 
1 
1 
1 
1 
1 
1 
1 
1 
1 
1 
1 
1 
1 
1 
1 
1 
1 
1 
1 
1 
1 
1 
1 
1 
1 
1 
1 
1 
1 
1 
1 
1 
1 
1 
1 
1 
1 
1 
1 
1 
1 
1 
1 
1 
1 
1 
1 
1 
1 
1 
1 
1 
1 
1 
1 
1 
1 
1 
1 
1 
1 
1 
1 
1 
1 
1 
1 
1 
1 
1 
1 
1 
1 
1 
1 
1 
1 
1 
1 
1 
1 
1 
1 
1 
1 
1 
1 
1 
1 
1 
1 
1 
1 
1 
1 
1 
1 
1 
1 
1 
1 
1 
1 
1 
1 
1 
1 
1 
1 
1 
1 
1 
1 
1 
1 
1 
1 
1 
1 
1 
1 
1 
1 
1 
1 
1 
1 
1 
1 
1 
1 
1 
1 
1 
1 
1 
1 
1 
1 
1 
1 
1 
1 
1 
1 
1 
1 
1 
1 
1 
1 
1 
1 
1 
1 
1 
1 
1 
1 
1 
1 
1 
1 
1 
1 
1 
1 
1 
1 
1 
1 
1 
1 
1 
1 
1 
1 
1 
1 
1 
1 
1 
1 
1 
1 
1 
1 
1 
1 
1 
1 
1 
1 
1 
1 
1 
1 
1 
1 
1 
1 
1 
1 
1 
1 
1 
1 
1 
1 
1 
1 
1 
1 
1 
1 
1 
1 
1 
1 
1 
1 
1 
1 
1 
1 
1 
1 
1 
1 
1 
1 
1 
1 
1 
1 
1 
1 
1 
1 
1 
1 
1 
1 
1 
1 
1 
1 
1 
1 
1 
1 
1 
1 
1 
1 
1 
1 
1 
1 
1 
1 
1 
1 
1 
1 
1 
1 
1 
1 
1 
1 
1 
1 
1 
1 
1 
1 
1 
1 
1 
1 
1 
1 
1 
1 
1 
1 
1 
1 
1 
1 
1 
1 
1 
1 
1 
1 
1 
1 
1 
1 
1 
1 
1 
1 
1 
1 
1 
1 
1 
1 
1 
1 
1 
1 
1 
1 
1 
1 
1 
1 
1 
1 
1 
1 
1 
1 
1 
1 
1 
1 
1 
1 
1 
1 
1 
1 
1 
1 
1 
1 
1 
1 
1 
1 
1 
1 
1 
1 
1 
1 
1 
1 
1 
1 
1 
1 
1 
1 
1 
1 
1 
1 
1 
1 
1 
1 
1 
1 
1 
1 
1 
1 
1 
1 
1 
1 
1 
1 
1 
1 
1 
1 
1 
1 
1 
1 
1 
1 
1 
1 
1 
1 
1 
1 
1 
1 
1 
1 
1 
1 
1 
1 
1 
1 
1 
1 
1 
1 
1 
1 
1 
1 
1 
1 
1 
1 
1 
1 
1 
1 
1 
1 
1 
1 
1 
1 
1 
1 
1 
1 
1 
1 
1 
1 
1 
1 
1 
1 
1 
1 
1 
1 
1 
1 
1 
1 
1 
1 
1 
1 
1 
1 
1 
1 
1 
1 
1 
1 
1 
1 
1 
1 
1 
1 
1 
1 
1 
1 
1 
1 
1 
1 
1 
1 
1 
1 
1 
1 
1 
1 
1 
1 
1 
1 
1 
1 
1 
1 
1 
1 
1 
1 
1 
1 
1 
1 
1 
1 
1 
1 
1 
1 
1 
1 
1 
1 
1 
1 
1 
1 
1 
1 
1 
1 
1 
1 
1 
1 
1 
1 
1 
1 
1 
1 
1 
1 
1 
1 
1 
1 
1 
1 
1 
1 
1 
1 
1 
1 
1 
1 
1 
1 
1 
1 
1 
1 
1 
1 
1 
1 
1 
1 
1 
1 
1 
1 
1 
1 
1 
1 
1 
1 
1 
1 
1 
1 
1 
1 
1 
1 
1 
1 
1 
1 
1 
1 
1 
1 
1 
1 
1 
1 
1 
1 
1 
1 
1 
1 
1 
1 
1 
1 
1 
1 
1 
1 
1 
1 
1 
1 
1 
1 
1 
1 
1 
1 
1 
1 
1 
1 
1 
1 
1 
1 
1 
1 
1 
1 
1 
1 
1 
1 
1 
1 
1 
1 
1 
1 
1 
1 
1 
1 
1 
1 
1 
1 
1 
1 
1 
1 
1 
1 
1 
1 
1 
1 
1 
1 
1 
1 
1 
1 
1 
1 
1 
1 
1 
1 
1 
1 
1 
1 
1 
1 
1 
1 
1 
1 
1 
1 
1 
1 
1 
1 
1 
1 
1 
1 
1 
1 
1 
1 
1 
1 
1 
1 
1 
1 
1 
1 
1 
1 
1 
1 
1 
1 
1 
1 
1 
1 
1 
1 
1 
1 
1 
1 
1 
1 
1 
1 
1 
1 
1 
1 
1 
1 
1 
1 
1 
1 
1 
1 
1 
1 
1 
1 
1 
1 
1 
1 
1 
1 
1 
1 
1 
1 
1 
1 
1 
1 
1 
1 
1 
1 
1 
1 
1 
1 
1 
1 
1 
1 
1 
1 
1 
1 
1 
1 
1 
1 
1 
1 
1 
1 
1 
1 
1 
1 
1 
1 
1 
1 
1 
1 
1 
1 
1 
1 
1 
1 
1 
1 
1 
1 
1 
1 
1 
1 
1 
1 
1 
1 
1 
1 
1 
1 
1 
1 
1 
1 
1 
1 
1 
1 
1 
1 
1 
1 
1 
1 
1 
1 
1 
1 
1 
1 
1 
1 
1 
1 
1 
1 
1 
1 
1 
1 
1 
1 
1 
1 
1 
1 
1 
1 
1 
1 
1 
1 
1 
1 
1 
1 
1 
1 
1 
1 
1 
1 
1 
1 
1 
1 
1 
1 
1 
1 
1 
1 
1 
1 
1 
1 
1 
1 
1 
1 
1 
1 
1 
1 
1 
1 
1 
1 
1 
1 
1 
1 
1 
1 
1 
1 
1 
1 
1 
1 
1 
1 
1 
1 
1 
1 
1 
1 
1 
1 
1 
1 
1 
1 
1 
1 
1 
1 
1 
1 
1 
1 
1 
1 
1 
1 
1 
1 
1 
1 
1 
1 
1 
1 
1 
1 
1 
1 
1 
1 
1 
1 
1 
1 
1 
1 
1 
1 
1 
1 
1 
1 
1 
1 
1 
1 
1 
1 
1 
1 
1 
1 
1 
1 
1 
1 
1 
1 
1 
1 
1 
1 
1 
1 
1 
1 
1 
1 
1 
1 
1 
1 
1 
1 
1 
1 
1 
1 
1 
1 
1 
1 
1 
1 
1 
1 
1 
1 
1 
1 
1 
1 
1 
1 
1 
1 
1 
1 
1 
1 
1 
1 
1 
1 
1 
1 
1 
1 
1 
1 
1 
1 
1 
1 
1 
1 
1 
1 
1 
1 
1 
1 
1 
1 
1 
1 
1 
1 
1 
1 
1 
1 
1 
1 
1 
1 
1 
1 
1 
1 
1 
1 
1 
1 
1 
1 
1 
1 
1 
1 
1 
1 
1 
1 
1 
1 
1 
1 
1 
1 
1 
1 
1 
1 
1 
1 
1 
1 
1 
1 
1 
1 
1 
1 
1 
1 
1 
1 
1 
1 
1 
1 
1 
1 
1 
1 
1 
1 
1 
1 
1 
1 
1 
1 
1 
1 
1 
1 
1 
1 
1 
1 
1 
1 
1 
1 
1 
1 
1 
1 
1 
1 
1 
1 
1 
1 
1 
1 
1 
1 
1 
1 
1 
1 
1 
1 
1 
1 
1 
1 
1 
1 
1 
1 
1 
1 
1 
1 
1 
1 
1 
1 
1 
1 
1 
1 
1 
1 
1 
1 
1 
1 
1 
1 
1 
1 
1 
1 
1 
1 
1 
1 
1 
1 
1 
1 
1 
1 
1 
1 
1 
1 
1 
1 
1 
1 
1 
1 
1 
1 
1 
1 
1 
1 
1 
1 
1 
1 
1 
1 
1 
1 
1 
1 
1 
1 
1 
1 
1 
1 
1 
1 
1 
1 
1 
1 
1 
1 
1 
1 
1 
1 
1 
1 
1 
1 
1 
1 
1 
1 
1 
1 
1 
1 
1 
1 
1 
1 
1 
1 
1 
1 
1 
1 
1 
1 
1 
1 
1 
1 
1 
1 
1 
1 
1 
1 
1 
1 
1 
1 
1 
1 
1 
1 
1 
1 
1 
1 
1 
1 
1 
1 
1 
1 
1 
1 
1 
1 
1 
1 
1 
1 
1 
1 
1 
1 
1 
1 
1 
1 
1 
1 
1 
1 
1 
1 
1 
1 
1 
1 
1 
1 
1 
1 
1 
1 
1 
1 
1 
1 
1 
1 
1 
1 
1 
1 
1 
1 
1 
1 
1 
1 
1 
1 
1 
1 
1 
1 
1 
1 
1 
1 
1 
1 
1 
1 
1 
1 
1 
1 
1 
1 
1 
1 
1 
1 
1 
1 
1 
1 
1 
1 
1 
1 
1 
1 
1 
1 
1 
1 
1 
1 
1 
1 
1 
1 
1 
1 
1 
1 
1 
1 
1 
1 
1 
1 
1 
1 
1 
1 
1 
1 
1 
1 
1 
1 
1 
1 
1 
1 
1 
1 
1 
1 
1 
1 
1 
1 
1 
1 
1 
1 
1 
1 
1 
1 
1 
1 
1 
1 
1 
1 
1 
1 
1 
1 
1 
1 
1 
1 
1 
1 
1 
1 
1 
1 
1 
1 
1 
1 
1 
1 
1 
1 
1 
1 
1 
1 
1 
1 
1 
1 
1 
1 
1 
1 
1 
1 
1 
1 
1 
1 
1 
1 
1 
1 
1 
1 
1 
1 
1 
1 
1 
1 
1 
1 
1 
1 
1 
1 
1 
1 
1 
1 
1 
1 
1 
1 
1 
1 
1 
1 
1 
1 
1 
1 
1 
1 
1 
1 
1 
1 
1 
1 
1 
1 
1 
1 
1 
1 
1 
1 
1 
1 
1 
1 
1 
1 
1 
1 
1 
1 
1 
1 
1 
1 
1 
1 
1 
1 
1 
1 
1 
1 
1 
1 
1 
1 
1 
1 
1 
1 
1 
1 
1 
1 
1 
1 
1 
1 
1 
1 
1 
1 
1 
1 
1 
1 
1 
1 
1 
1 
1 
1 
1 
1 
1 
1 
1 
1 
1 
1 
1 
1 
1 
1 
1 
1 
1 
1 
1 
1 
1 
1 
1 
1 
1 
1 
1 
1 
1 
1 
1 
1 
1 
1 
1 
1 
1 
1 
1 
1 
1 
1 
1 
1 
1 
1 
1 
1 
1 
1 
1 
1 
1 
1 
1 
1 
1 
1 
1 
1 
1 
1 
1 
1 
1 
1 
1 
1 
1 
1 
1 
1 
1 
1 
1 
1 
1 
1 
1 
1 
1 
1 
1 
1 
1 
1 
1 
1 
1 
1 
1 
1 
1 
1 
1 
1 
1 
1 
1 
1 
1 
1 
1 
1 
1 
1 
1 
1 
1 
1 
1 
1 
1 
1 
1 
1 
1 
1 
1 
1 
1 
1 
1 
1 
1 
1 
1 
1 
1 
1 
1 
1 
1 
1 
1 
1 
1 
1 
1 
1 
1 
1 
1 
1 
1 
1 
1 
1 
1 
1 
1 
1 
1 
1 
1 
1 
1 
1 
1 
1 
1 
1 
1 
1 
1 
1 
1 
1 
1 
1 
1 
1 
1 
1 
1 
1 
1 
1 
1 
1 
1 
1 
1 
1 
1 
1 
1 
1 
1 
1 
1 
1 
1 
1 
1 
1 
1 
1 
1 
1 
1 
1 
1 
1 
1 
1 
1 
1 
1 
1 
1 
1 
1 
1 
1 
1 
1 
1 
1 
1 
1 
1 
1 
1 
1 
1 
1 
1 
1 
1 
1 
1 
1 
1 
1 
1 
1 
1 
1 
1 
1 
1 
1 
1 
1 
1 
1 
1 
1 
1 
1 
1 
1 
1 
1 
1 
1 
1 
1 
1 
1 
1 
1 
1 
1 
1 
1 
1 
1 
1 
1 
1 
1 
1 
1 
1 
1 
1 
1 
1 
1 
1 
1 
1 
1 
1 
1 
1 
1 
1 
1 
1 
1 
1 
1 
1 
1 
1 
1 
1 
1 
1 
1 
1 
1 
1 
1 
1 
1 
1 
1 
1 
1 
1 
1 
1 
1 
1 
1 
1 
1 
1 
1 
1 
1 
1 
1 
1 
1 
1 
1 
1 
1 
1 
1 
1 
1 
1 
1 
1 
1 
1 
1 
1 
1 
1 
1 
1 
1 
1 
1 
1 
1 
1 
1 
1 
1 
1 
1 
1 
1 
1 
1 
1 
1 
1 
1 
1 
1 
1 
1 
1 
1 
1 
1 
1 
1 
1 
1 
1 
1 
1 
1 
1 
1 
1 
1 
1 
1 
1 
1 
1 
1 
1 
1 
1 
1 
1 
1 
1 
1 
1 
1 
1 
1 
1 
1 
1 
1 
1 
1 
1 
1 
1 
1 
1 
1 
1 
1 
1 
1 
1 
1 
1 
1 
1 
1 
1 
1 
1 
1 
1 
1 
1 
1 
1 
1 
1 
1 
1 
1 
1 
1 
1 
1 
1 
1 
1 
1 
1 
1 
1 
1 
1 
1 
1 
1 
1 
1 
1 
1 
1 
1 
1 
1 
1 
1 
1 
1 
1 
1 
1 
1 
1 
1 
1 
1 
1 
1 
1 
1 
1 
1 
1 
1 
1 
1 
1 
1 
1 
1 
1 
1 
1 
1 
1 
1 
1 
1 
1 
1 
1 
1 
1 
1 
1 
1 
1 
1 
1 
1 
1 
1 
1 
1 
1 
1 
1 
1 
1 
1 
1 
1 
1 
1 
1 
1 
1 
1 
1 
1 
1 
1 
1 
1 
1 
1 
1 
1 
1 
1 
1 
1 
1 
1 
1 
1 
1 
1 
1 
1 
1 
1 
1 
1 
1 
1 
1 
1 
1 
1 
1 
1 
1 
1 
1 
1 
1 
1 
1 
1 
1 
1 
1 
1 
1 
1 
1 
1 
1 
1 
1 
1 
1 
1 
1 
1 
1 
1 
1 
1 
1 
1 
1 
1 
1 
1 
1 
1 
1 
1 
1 
1 
1 
1 
1 
1 
1 
1 
1 
1 
1 
1 
1 
1 
1 
1 
1 
1 
1 
1 
1 
1 
1 
1 
1 
1 
1 
1 
1 
1 
1 
1 
1 
1 
1 
1 
1 
1 
1 
1 
1 
1 
1 
1 
1 
1 
1 
1 
1 
1 
1 
1 
1 
1 
1 
1 
1 
1 
1 
1 
1 
1 
1 
1 
1 
1 
1 
1 
1 
1 
1 
1 
1 
1 
1 
1 
1 
1 
1 
1 
1 
1 
1 
1 
1 
1 
1 
1 
1 
1 
1 
1 
1 
1 
1 
1 
1 
1 
1 
1 
1 
1 
1 
1 
1 
1 
1 
1 
1 
1 
1 
1 
1 
1 
1 
1 
1 
1 
1 
1 
1 
1 
1 
1 
1 
1 
1 
1 
1 
1 
1 
1 
1 
1 
1 
1 
1 
1 
1 
1 
1 
1 
1 
1 
1 
1 
1 
1 
1 
1 
1 
1 
1 
1 
1 
1 
1 
1 
1 
1 
1 
1 
1 
1 
1 
1 
1 
1 
1 
1 
1 
1 
1 
1 
1 
1 
1 
1 
1 
1 
1 
1 
1 
1 
1 
1 
1 
1 
1 
1 
1 
1 
1 
1 
1 
1 
1 
1 
1 
1 
1 
1 
1 
1 
1 
1 
1 
1 
1 
1 
1 
1 
1 
1 
1 
1 
1 
1 
1 
1 
1 
1 
1 
1 
1 
1 
1 
1 
1 
1 
1 
1 
1 
1 
1 
1 
1 
1 
1 
1 
1 
1 
1 
1 
1 
1 
1 
1 
1 
1 
1 
1 
1 
1 
1 
1 
1 
1 
1 
1 
1 
1 
1 
1 
1 
1 
1 
1 
1 
1 
1 
1 
1 
1 
1 
1 
1 
1 
1 
1 
1 
1 
1 
1 
1 
1 
1 
1 
1 
1 
1 
1 
1 
1 
1 
1 
1 
1 
1 
1 
1 
1 
1 
1 
1 
1 
1 
1 
1 
1 
1 
1 
1 
1 
1 
1 
1 
1 
1 
1 
1 
1 
1 
1 
1 
1 
1 
1 
1 
1 
1 
1 
1 
1 
1 
1 
1 
1 
1 
1 
1 
1 
1 
1 
1 
1 
1 
1 
1 
1 
1 
1 
1 
1 
1 
1 
1 
1 
1 
1 
1 
1 
1 
1 
1 
1 
1 
1 
1 
1 
1 
1 
1 
1 
1 
1 
1 
1 
1 
1 
1 
1 
1 
1 
1 
1 
1 
1 
1 
1 
1 
1 
1 
1 
1 
1 
1 
1 
1 
1 
1 
1 
1 
1 
1 
1 
1 
1 
1 
1 
1 
1 
1 
1 
1 
1 
1 
1 
1 
1 
1 
1 
1 
1 
1 
1 
1 
1 
1 
1 
1 
1 
1 
1 
1 
1 
1 
1 
1 
1 
1 
1 
1 
1 
1 
1 
1 
1 
1 
1 
1 
1 
1 
1 
1 
1 
1 
1 
1 
1 
1 
1 
1 
1 
1 
1 
1 
1 
1 
1 
1 
1 
1 
1 
1 
1 
1 
1 
1 
1 
1 
1 
1 
1 
1 
1 
1 
1 
1 
1 
1 
1 
1 
1 
1 
1 
1 
1 
1 
1 
1 
1 
1 
1 
1 
1 
1 
1 
1 
1 
1 
1 
1 
1 
1 
1 
1 
1 
1 
1 
1 
1 
1 
1 
1 
1 
1 
1 
1 
1 
1 
1 
1 
1 
1 
1 
1 
1 
1 
1 
1 
1 
1 
1 
1 
1 
1 
1 
1 
1 
1 
1 
1 
1 
1 
1 
1 
1 
1 
1 
1 
1 
1 
1 
1 
1 
1 
1 
1 
1 
1 
1 
1 
1 
1 
1 
1 
1 
1 
1 
1 
1 
1 
1 
1 
1 
1 
1 
1 
1 
1 
1 
1 
1 
1 
1 
1 
1 
1 
1 
1 
1 
1 
1 
1 
1 
1 
1 
1 
1 
1 
1 
1 
1 
1 
1 
1 
1 
1 
1 
1 
1 
1 
1 
1 
1 
1 
1 
1 
1 
1 
1 
1 
1 
1 
1 
1 
1 
1 
1 
1 
1 
1 
1 
1 
1 
1 
1 
1 
1 
1 
1 
1 
1 
1 
1 
1 
1 
1 
1 
1 
1 
1 
1 
1 
1 
1 
1 
1 
1 
1 
1 
1 
1 
1 
1 
1 
1 
1 
1 
1 
1 
1 
1 
1 
1 
1 
1 
1 
1 
1 
1 
1 
1 
1 
1 
1 
1 
1 
1 
1 
1 
1 
1 
1 
1 
1 
1 
1 
1 
1 
1 
1 
1 
1 
1 
1 
1 
1 
1 
1 
1 
1 
1 
1 
1 
1 
1 
1 
1 
1 
1 
1 
1 
1 
1 
1 
1 
1 
1 
1 
1 
1 
1 
1 
1 
1 
1 
1 
1 
1 
1 
1 
1 
1 
1 
1 
1 
1 
1 
1 
1 
1 
1 
1 
1 
1 
1 
1 
1 
1 
1 
1 
1 
1 
1 
1 
1 
1 
1 
1 
1 
1 
1 
1 
1 
1 
1 
1 
1 
1 
1 
1 
1 
1 
1 
1 
1 
1 
1 
1 
1 
1 
1 
1 
1 
1 
1 
1 
1 
1 
1 
1 
1 
1 
1 
1 
1 
1 
1 
1 
1 
1 
1 
1 
1 
1 
1 
1 
1 
1 
1 
1 
1 
1 
1 
1 
1 
1 
1 
1 
1 
1 
1 
1 
1 
1 
1 
1 
1 
1 
1 
1 
1 
1 
1 
1 
1 
1 
1 
1 
1 
1 
1 
1 
1 
1 
1 
1 
1 
1 
1 
1 
1 
1 
1 
1 
1 
1 
1 
1 
1 
1 
1 
1 
1 
1 
1 
1 
1 
1 
1 
1 
1 
1 
1 
1 
1 
1 
1 
1 
1 
1 
1 
1 
1 
1 
1 
1 
1 
1 
1 
1 
1 
1 
1 
1 
1 
1 
1 
1 
1 
1 
1 
1 
1 
1 
1 
1 
1 
1 
1 
1 
1 
1 
1 
1 
1 
1 
1 
1 
1 
1 
1 
1 
1 
1 
1 
1 
1 
1 
1 
1 
1 
1 
1 
1 
1 
1 
1 
1 
1 
1 
1 
1 
1 
1 
1 
1 
1 
1 
1 
1 
1 
1 
1 
1 
1 
1 
1 
1 
1 
1 
1 
1 
1 
1 
1 
1 
1 
1 
1 
1 
1 
1 
1 
1 
1 
1 
1 
1 
1 
1 
1 
1 
1 
1 
1 
1 
1 
1 
1 
1 
1 
1 
1 
1 
1 
1 
1 
1 
1 
1 
1 
1 
1 
1 
1 
1 
1 
1 
1 
1 
1 
1 
1 
1 
1 
1 
1 
1 
1 
1 
1 
1 
1 
1 
1 
1 
1 
1 
1 
1 
1 
1 
1 
1 
1 
1 
1 
1 
1 
1 
1 
1 
1 
1 
1 
1 
1 
1 
1 
1 
1 
1 
1 
1 
1 
1 
1 
1 
1 
1 
1 
1 
1 
1 
1 
1 
1 
1 
1 
1 
1 
1 
1 
1 
1 
1 
1 
1 
1 
1 
1 
1 
1 
1 
1 
1 
1 
1 
1 
1 
1 
1 
1 
1 
1 
1 
1 
1 
1 
1 
1 
1 
1 
1 
1 
1 
1 
1 
1 
1 
1 
1 
1 
1 
1 
1 
1 
1 
1 
1 
1 
1 
1 
1 
1 
1 
1 
1 
1 
1 
1 
1 
1 
1 
1 
1 
1 
1 
1 
1 
1 
1 
1 
1 
1 
1 
1 
1 
1 
1 
1 
1 
1 
1 
1 
1 
1 
1 
1 
1 
1 
1 
1 
1 
1 
1 
1 
1 
1 
1 
1 
1 
1 
1 
1 
1 
1 
1 
1 
1 
1 
1 
1 
1 
1 
1 
1 
1 
1 
1 
1 
1 
1 
1 
1 
1 
1 
1 
1 
1 
1 
1 
1 
1 
1 
1 
1 
1 
1 
1 
1 
1 
1 
1 
1 
1 
1 
1 
1 
1 
1 
1 
1 
1 
1 
1 
1 
1 
1 
1 
1 
1 
1 
1 
1 
1 
1 
1 
1 
1 
1 
1 
1 
1 
1 
1 
1 
1 
1 
1 
1 
1 
1 
1 
1 
1 
1 
1 
1 
1 
1 
1 
1 
1 
1 
1 
1 
1 
1 
1 
1 
1 
1 
1 
1 
1 
1 
1 
1 
1 
1 
1 
1 
1 
1 
1 
1 
1 
1 
1 
1 
1 
1 
1 
1 
1 
1 
1 
1 
1 
1 
1 
1 
1 
1 
1 
1 
1 
1 
1 
1 
1 
1 
1 
1 
1 
1 
1 
1 
1 
1 
1 
1 
1 
1 
1 
1 
1 
1 
1 
1 
1 
1 
1 
1 
1 
1 
1 
1 
1 
1 
1 
1 
1 
1 
1 
1 
1 
1 
1 
1 
1 
1 
1 
1 
1 
1 
1 
1 
1 
1 
1 
1 
1 
1 
1 
1 
1 
1 
1 
1 
1 
1 
1 
1 
1 
1 
1 
1 
1 
1 
1 
1 
1 
1 
1 
1 
1 
1 
1 
1 
1 
1 
1 
1 
1 
1 
1 
1 
1 
1 
1 
1 
1 
1 
1 
1 
1 
1 
1 
1 
1 
1 
1 
1 
1 
1 
1 
1 
1 
1 
1 
1 
1 
1 
1 
1 
1 
1 
1 
1 
1 
1 
1 
1 
1 
1 
1 
1 
1 
1 
1 
1 
1 
1 
1 
1 
1 
1 
1 
1 
1 
1 
1 
1 
1 
1 
1 
1 
1 
1 
1 
1 
1 
1 
1 
1 
1 
1 
1 
1 
1 
1 
1 
1 
1 
1 
1 
1 
1 
1 
1 
1 
1 
1 
1 
1 
1 
1 
1 
1 
1 
1 
1 
1 
1 
1 
1 
1 
1 
1 
1 
1 
1 
1 
1 
1 
1 
1 
1 
1 
1 
1 
1 
1 
1 
1 
1 
1 
1 
1 
1 
1 
1 
1 
1 
1 
1 
1 
1 
1 
1 
1 
1 
1 
1 
1 
1 
1 
1 
1 
1 
1 
1 
1 
1 
1 
1 
1 
1 
1 
1 
1 
1 
1 
1 
1 
1 
1 
1 
1 
1 
1 
1 
1 
1 
1 
1 
1 
1 
1 
1 
1 
1 
1 
1 
1 
1 
1 
1 
1 
1 
1 
1 
1 
1 
1 
1 
1 
1 
1 
1 
1 
1 
1 
1 
1 
1 
1 
1 
1 
1 
1 
1 
1 
1 
1 
1 
1 
1 
1 
1 
1 
1 
1 
1 
1 
1 
1 
1 
1 
1 
1 
1 
1 
1 
1 
1 
1 
1 
1 
1 
1 
1 
1 
1 
1 
1 
1 
1 
1 
1 
1 
1 
1 
1 
1 
1 
1 
1 
1 
1 
1 
1 
1 
1 
1 
1 
1 
1 
1 
1 
1 
1 
1 
1 
1 
1 
1 
1 
1 
1 
1 
1 
1 
1 
1 
1 
1 
1 
1 
1 
1 
1 
1 
1 
1 
1 
1 
1 
1 
1 
1 
1 
1 
1 
1 
1 
1 
1 
1 
1 
1 
1 
1 
1 
1 
1 
1 
1 
1 
1 
1 
1 
1 
1 
1 
1 
1 
1 
1 
1 
1 
1 
POINT_DATA 5000
VECTORS Stress float
119.41 -294.762 0.
238.561 -364.024 0.
181.689 -497.229 0.
186.918 -628.637 0.
75.7568 -889.02 0.
-35.405 -1149.4 0.
-250.225 -1416.28 0.
-309.658 -1554.99 0.
-369.091 -1693.7 0.
-222.343 -1630.61 0.
-192.44 -1560.89 0.
-162.536 -1491.16 0.
-318.167 -1586.05 0.
-337.332 -1630.74 0.
-651.503 -1752.11 0.
-392.161 -1146.93 0.
-132.819 -541.752 0.
-18.9483 -318.701 0.
-302.148 -979.614 0.
-585.347 -1640.53 0.
-280.17 -1655.33 0.
-176.148 -1412.31 0.
-72.1261 -1169.28 0.
-541.762 -1230.9 0.
-479.359 -1085.85 0.
-288.488 -885.741 0.
-2257.39 -1559.52 0.
-2167.32 -1348.51 0.
-1233.73 -887.414 0.
-1424.46 -1332.68 0.
-1615.19 -1777.94 0.
-1996.08 -1951.49 0.
-1750.23 -1377.31 0.
-1504.38 -803.125 0.
-1458.11 -991.177 0.
-1766.69 -1710.77 0.
-2075.27 -2430.36 0.
-4186.14 -2948.87 0.
-3904.02 -2290.43 0.
-5379.65 -2359 0.
-4950.74 -1359.27 0.
-4521.82 -359.54 0.
-6934.61 -744.441 0.
-6799.77 -428.306 0.
-6664.94 -112.17 0.
-9896.33 -2281.61 0.
-10812.1 -4415.8 0.
-11727.8 -6550 0.
50427.5 21712.6 0.
51905.5 25168.8 0.
-430571 -178785 0.
52608.8 25524.8 0.
51160.1 22137.1 0.
-11493.1 -6438.94 0.
-10856.3 -4954.09 0.
-10219.4 -3469.25 0.
-6255.44 -1130.22 0.
-6256.9 -1134.81 0.
-6258.36 -1139.39 0.
-5014.9 -599.022 0.
-4991.95 -546.068 0.
-4969 -493.113 0.
-4435.95 -764.231 0.
-4724.02 -1435.31 0.
-1449.4 -585.596 0.
-1782.39 -1362.91 0.
-2115.37 -2140.22 0.
-1127.43 -2015.97 0.
-961.11 -1628.45 0.
-794.788 -1240.92 0.
-1491.89 -1355.29 0.
-1445.59 -1248.01 0.
-1399.28 -1140.73 0.
-2102.01 -1212.84 0.
-1959.56 -880.09 0.
-215.187 122.863 0.
-478.966 -561.247 0.
-778.75 -1260.78 0.
-210.047 -1464.81 0.
-248.906 -1555.54 0.
-287.764 -1646.26 0.
-253.737 -1562.49 0.
-132.443 -1278.93 0.
-11.1497 -995.375 0.
-468.943 -934.664 0.
-331.158 -612.069 0.
-193.373 -289.474 0.
-558.895 -881.665 0.
-817.963 -1487.02 0.
-303.104 -1674.26 0.
-239.143 -1525.24 0.
-175.181 -1376.22 0.
6.46411 -1216.55 0.
10.6661 -1208.1 0.
14.8682 -1199.64 0.
-363.054 -1299.74 0.
-304.861 -1163.53 0.
-246.669 -1027.31 0.
4.43677 -802.123 0.
60.0421 -671.215 0.
-26.575 -326.702 0.
379.537 -274.11 0.
322.786 -408.042 0.
78.6324 -642.132 0.
-31.989 -903.266 0.
-142.611 -1164.4 0.
-206.831 -1365.68 0.
-266.149 -1504.19 0.
-325.468 -1642.7 0.
-46.7718 -1524.96 0.
-16.8639 -1455.32 0.
13.0439 -1385.69 0.
-360.135 -1572.32 0.
-379.345 -1617.06 0.
-879.623 -1819.24 0.
-620.345 -1214.12 0.
-361.066 -608.999 0.
-336.792 -423.31 0.
-619.867 -1084.16 0.
-902.941 -1745.01 0.
777.629 -1172.06 0.
881.518 -928.723 0.
985.407 -685.384 0.
-965.062 -1379.86 0.
-902.498 -1235.53 0.
-1170.63 -1232.93 0.
-2154.92 -1484.73 0.
-2065.45 -1273.46 0.
-1347.06 -905.017 0.
-1537.61 -1350.34 0.
-1728.17 -1795.65 0.
-1754.19 -1816.73 0.
-1508.46 -1241.76 0.
-1262.72 -666.789 0.
-1140.16 -824.402 0.
-1448.95 -1543.62 0.
-1757.74 -2262.84 0.
-3944.43 -2814.31 0.
-3662.34 -2155.58 0.
-4400.47 -1905.85 0.
-3970.6 -906.038 0.
-3540.73 93.7726 0.
-6370.33 -472.466 0.
-6236.32 -155.218 0.
-6102.31 162.032 0.
-6719.83 -896.787 0.
-7639.21 -3034.48 0.
-8558.59 -5172.17 0.
44974.7 19417.3 0.
46442.1 22863.9 0.
-373080 -154115 0.
47184.5 23236.5 0.
45746.2 19858.1 0.
-8524.73 -5142.68 0.
-7885.83 -3655.41 0.
-7246.92 -2168.14 0.
-5610.71 -823.855 0.
-5611.68 -829.641 0.
-5612.65 -835.427 0.
-3844.8 -63.2372 0.
-3821.47 -10.5971 0.
-3798.14 42.0429 0.
-4002.88 -545.84 0.
-4291.71 -1216.52 0.
-1939.66 -765.499 0.
-2272.27 -1542.63 0.
-2604.89 -2319.77 0.
-501.737 -1715.37 0.
-335.025 -1328.05 0.
-168.313 -940.734 0.
-1302.89 -1242.16 0.
-1256.14 -1135.38 0.
-1209.39 -1028.61 0.
-2210.64 -1228.38 0.
-2068.41 -895.416 0.
-1326.79 -321.449 0.
-1515.46 -972.972 0.
-1815 -1672.02 0.
1659.84 -632.275 0.
1620.97 -723.162 0.
1582.09 -814.049 0.
-420.966 -1602.24 0.
-300.018 -1318.42 0.
-179.07 -1034.59 0.
-882.612 -1082.17 0.
-745.692 -759.392 0.
-608.772 -436.62 0.
-729.968 -923.916 0.
-988.511 -1529.78 0.
-295.605 -1640.68 0.
-231.55 -1491.89 0.
-167.495 -1343.09 0.
-23.0386 -1197.05 0.
-18.1774 -1189.76 0.
-13.3162 -1182.47 0.
-192.776 -1194.29 0.
-134.892 -1057.94 0.
-77.0076 -921.588 0.
111.902 -724.854 0.
166.901 -593.039 0.
-649.344 -1474.41 0.
76.8455 -1217.81 0.
175.477 -989.223 0.
-635.476 -2081.51 0.
-279.799 -1251.5 0.
-542.54 -1864.48 0.
-1412.06 -4230.28 0.
-1221.73 -3787.53 0.
-3414.13 -8904.47 0.
-5570.72 -14717.1 0.
-1793.58 -5905.52 0.
-1833.85 -6001.21 0.
-2227.34 -5818.02 0.
-2588.36 -6656.39 0.
-4899.19 -10742.7 0.
-1977.73 -3923.14 0.
-2334.68 -4753.17 0.
-2564.03 -4987.42 0.
-2658.82 -5208.87 0.
-5458.32 -11741.3 0.
-20330 -52407.9 0.
-2955.32 -11865.2 0.
-1768.24 -9093.71 0.
-3776.48 -7107.42 0.
-3060.44 -5436.66 0.
-3902.13 -7456.85 0.
-3652.33 -5135.17 0.
-3526.67 -4842.88 0.
-2684.95 -3788.01 0.
-2669.18 -3750.05 0.
-3844.47 -6491.24 0.
-6986.12 -14453.3 0.
-3814.9 -7054.08 0.
-3789.5 -6995.14 0.
-3460.83 -6805.36 0.
-3874.77 -7775.52 0.
-16016 -36109.3 0.
-13657.1 -25908.8 0.
-9688.86 -16651.3 0.
-8611.88 -13569.1 0.
-6691.13 -9089.01 0.
-6899.57 -9577.06 0.
-9085.75 -7876.41 0.
-7879.56 -5064.62 0.
-7843.62 -4983.42 0.
-6357.92 -6075.41 0.
-7549.11 -8844.05 0.
-22784.4 -44382.4 0.
36776.6 10727.4 0.
39072 16140.6 0.
-293041 -125054 0.
39515.5 15746.9 0.
36826.9 9416.93 0.
-22364.3 -43070.1 0.
-8504.8 -10741.8 0.
-8303.29 -10282.2 0.
-8398.96 -8548.84 0.
-7799.1 -7147.48 0.
-8878.66 -9664.74 0.
-6251.68 -7875.75 0.
-5038.1 -5044.67 0.
-5141.58 -5286.76 0.
-5428.38 -4652.08 0.
-5663.82 -5205.45 0.
-5878.82 -8998.79 0.
-5597.7 -8342.16 0.
-7851.18 -13599.6 0.
-20738.6 -50095.8 0.
-3789.84 -10546.4 0.
-3545.63 -9974.24 0.
-4497.54 -9030.42 0.
-4049.02 -7982.66 0.
-6029.22 -12601.9 0.
-3776.78 -4635.8 0.
-3307.66 -3541.07 0.
-4032.62 -4631.32 0.
-3201.6 -2906.52 0.
-3963.13 -4680.04 0.
-6570.78 -23367 0.
-7622.43 -25821 0.
-24038 -64124.3 0.
-12816.8 -30174.7 0.
-5915.4 -14071.2 0.
-5650.12 -13452 0.
-2980.45 -5158.01 0.
-1881.53 -2598.01 0.
-2524.33 -4102.02 0.
-2206.94 -4010.46 0.
-2429.39 -4528.92 0.
-3279 -8600.63 0.
-758.859 -2716.71 0.
-639.728 -2435.5 0.
-716.382 -2740.6 0.
-549.317 -2347.66 0.
-1480.06 -4516.23 0.
-784.555 -2873.38 0.
30.1228 -972.343 0.
201.331 -572.772 0.
4.0841 -1143.78 0.
-959.638 -3393.17 0.
465.462 -227.47 0.
285.77 -269.017 0.
278.64 -285.998 0.
180.167 -310.316 0.
271.64 -93.962 0.
363.113 122.392 0.
649.577 556.818 0.
905.79 1153.6 0.
1162 1750.38 0.
1312.73 1911 0.
1254.95 1773.91 0.
1197.18 1636.82 0.
912.855 1707.76 0.
1034.61 1994.08 0.
804.589 2065.04 0.
560.111 1498.12 0.
315.634 931.191 0.
414.043 1073.16 0.
1106.38 2687.16 0.
1798.72 4301.16 0.
3490.42 5262.27 0.
3119.79 4396.67 0.
2749.16 3531.08 0.
530.781 2204.19 0.
390.195 1876.24 0.
799.526 1783.91 0.
-584.403 998.807 0.
-682.941 767.83 0.
-599.951 808.095 0.
-213.063 1713.08 0.
173.824 2618.05 0.
487.57 2973.21 0.
245.926 2409.92 0.
4.28221 1846.64 0.
670.805 3118.23 0.
1607.64 5299.92 0.
2544.48 7481.62 0.
528.577 6402.98 0.
254.968 5762.77 0.
229.9 5155.74 0.
-400.495 3686.17 0.
-1030.89 2216.61 0.
-2930.49 491.914 0.
-3064.67 177.915 0.
-3198.84 -136.079 0.
-1525.88 -31.5956 0.
-2069.74 -1290.47 0.
-2613.59 -2549.32 0.
32284.8 15061.9 0.
34354.7 19963 0.
-188866 -71689.8 0.
35348.8 20245.2 0.
33203.4 15168.7 0.
-2922.49 -2898.66 0.
-2041.89 -856.642 0.
-1161.29 1185.39 0.
-2128.33 1596.92 0.
-2143.8 1562.45 0.
-2159.26 1527.97 0.
-1596.16 1651.92 0.
-1683.94 1447.13 0.
-1771.73 1242.33 0.
-2113.32 993.487 0.
-2157.93 885.141 0.
-796.553 1627 0.
95.3779 3704.97 0.
987.311 5782.95 0.
2983.15 7275.79 0.
2311.04 5707.46 0.
1638.93 4139.13 0.
943.556 3160.99 0.
819.204 2870.39 0.
694.852 2579.78 0.
-550.455 1575.38 0.
-831.847 921.105 0.
-721.107 474.116 0.
-32.4697 2241.02 0.
739.774 4043.75 0.
4735.63 7085.87 0.
5189.16 8143.47 0.
5642.69 9201.07 0.
3481.49 7921.51 0.
2579.1 5816.24 0.
1676.71 3710.98 0.
876.578 2415.81 0.
549.688 1650.42 0.
222.799 885.025 0.
248.985 914.303 0.
290.164 1012.44 0.
733.363 1220.82 0.
532.827 754.874 0.
332.291 288.931 0.
392.306 125.245 0.
459.985 287.554 0.
527.663 449.862 0.
600.792 455.845 0.
529.268 290.392 0.
457.745 124.939 0.
310.175 290.993 0.
477.349 681.56 0.
1193.17 116.205 0.
60.052 -334.345 0.
52.4553 -351.203 0.
265.787 -242.547 0.
356.25 -25.7184 0.
446.712 191.111 0.
677.783 599.254 0.
933.889 1196.09 0.
1189.99 1792.92 0.
1031.7 1822.03 0.
974.19 1684.98 0.
916.68 1547.93 0.
825.114 1701.69 0.
947.396 1987.42 0.
1084.25 2216.56 0.
839.552 1649.77 0.
594.851 1082.98 0.
896.787 1311.31 0.
1589.78 2925.67 0.
2282.76 4540.02 0.
2410.69 4832.05 0.
2041.03 3966.25 0.
1671.37 3100.44 0.
935.503 2409.88 0.
794.776 2081.68 0.
1350 2051.66 0.
-29.8769 1268.18 0.
-128.471 1036.94 0.
-442.359 906.931 0.
-55.754 1812.32 0.
330.851 2717.72 0.
509.444 3012.14 0.
267.647 2449.36 0.
25.8496 1886.58 0.
538.18 3091.88 0.
1474.89 5273.31 0.
2411.6 7454.75 0.
960.229 6622.05 0.
686.517 5981.56 0.
1246.54 5621.87 0.
614.85 4152.35 0.
-16.8384 2682.83 0.
232.595 1878.49 0.
97.683 1564.52 0.
-37.22 1250.55 0.
1230.18 1168.29 0.
685.313 -93.5505 0.
140.467 -1355.38 0.
24541.1 11808.8 0.
26594.7 16685.6 0.
-98887.9 -33096.5 0.
27908.4 17104.8 0.
25779.5 12053.1 0.
-190.714 -1717.25 0.
692.453 328.596 0.
1575.62 2374.46 0.
244.249 2647.24 0.
228.64 2612.35 0.
213.031 2577.46 0.
-879.39 1989.15 0.
-967.449 1784.37 0.
-1055.51 1579.58 0.
-998.427 1505.34 0.
-1042.89 1397.1 0.
-133.417 1941.49 0.
760.296 4019.74 0.
1654.01 6097.99 0.
1939.16 6860.63 0.
1268.26 5292.74 0.
597.36 3724.84 0.
1225.86 3315.23 0.
1101.96 3024.01 0.
978.068 2732.79 0.
158.478 1912.65 0.
-123.75 1258.61 0.
445.55 1004.11 0.
1163.27 2783.95 0.
1937.1 4587.84 0.
2616.01 6211.32 0.
3069.2 7267.67 0.
3522.38 8324.03 0.
3464.56 7948.99 0.
2562.12 5843.65 0.
1659.67 3738.31 0.
1640.78 2773.02 0.
1313.23 2007.59 0.
985.676 1242.17 0.
688.65 1134.44 0.
729.274 1232.83 0.
507.946 1153.75 0.
307.793 687.463 0.
107.639 221.174 0.
263.463 103.542 0.
330.719 266.088 0.
397.974 428.633 0.
566.073 471.655 0.
494.055 306.378 0.
422.037 141.1 0.
-51.2367 168.443 0.
115.595 559.388 0.
825.968 -532.7 0.
-303.569 -1092.01 0.
-329.683 -1151.7 0.
-64.5392 -1054.65 0.
7.28302 -887.925 0.
79.1055 -721.198 0.
54.3252 -763.69 0.
-88.2226 -1093.41 0.
-230.771 -1423.12 0.
-481.535 -1600 0.
-456.073 -1540.82 0.
-430.611 -1481.64 0.
-566.834 -1530.82 0.
-565.439 -1527.79 0.
-367.475 -1437.18 0.
-379.752 -1465.93 0.
-392.029 -1494.68 0.
-157.398 -1536.75 0.
-362.374 -2004.62 0.
-567.35 -2472.48 0.
-1296.68 -2774.73 0.
-1113.23 -2349.54 0.
-929.774 -1924.34 0.
-653.903 -1776 0.
-686.201 -1855.43 0.
-202.622 -1713.68 0.
-1071.69 -1795.1 0.
-912.671 -1425.83 0.
-1178.37 -1329.69 0.
-1245.03 -1486.32 0.
-1311.69 -1642.95 0.
-1370.38 -1654.72 0.
-1273.31 -1435.58 0.
-1176.24 -1216.44 0.
-1428.54 -1885.19 0.
-1932.19 -3062.4 0.
-2435.83 -4239.6 0.
-3007.66 -4148.86 0.
-2723.67 -3490.69 0.
-1484.6 -2485.75 0.
-1622.48 -2811.27 0.
-1760.37 -3136.79 0.
-209.155 -2840.05 0.
-521.333 -3565.83 0.
-833.507 -4291.62 0.
852.396 -2920.92 0.
1762.98 -793.117 0.
2673.57 1334.69 0.
15723.8 3037.92 0.
12722.7 -3911.49 0.
-2637.61 -16154.3 0.
13606.9 -3724.75 0.
16513.8 2988.83 0.
2182.93 570.52 0.
1269.1 -1552.79 0.
355.282 -3676.08 0.
-1668.76 -5083.96 0.
-1238.32 -4084.75 0.
-807.874 -3085.54 0.
-2351.49 -3203.59 0.
-2134.75 -2692.76 0.
-1918.01 -2181.94 0.
-1727.95 -2003.34 0.
-1692.47 -1920.51 0.
-1364.53 -1790.3 0.
-1655.69 -2463.88 0.
-1946.86 -3137.46 0.
-2584.99 -3585.2 0.
-2307.03 -2935.35 0.
-2029.07 -2285.51 0.
-751.604 -1482.86 0.
-726.053 -1422.62 0.
-700.502 -1362.37 0.
-890.814 -1322.82 0.
-812.264 -1149.85 0.
175.264 -599.083 0.
-112.877 -1192.05 0.
-362.753 -1768.61 0.
-1879.54 -2916.32 0.
-2191.63 -3638.39 0.
-2503.71 -4360.47 0.
-1534.51 -3849.73 0.
-1078.6 -2787.86 0.
-622.686 -1725.99 0.
89.4991 -1156.35 0.
92.6422 -1151.94 0.
95.7829 -1147.53 0.
-176.404 -1301.19 0.
-199.391 -1350.96 0.
-684.64 -1551.49 0.
-553.686 -1239.24 0.
-422.731 -926.982 0.
-56.6805 -629.95 0.
-87.3665 -696.85 0.
-118.053 -763.75 0.
0.281308 -737.402 0.
-1.54767 -744.168 0.
-3.37648 -750.934 0.
-634.131 -1171.87 0.
-735.079 -1403.07 0.
-91.1663 -897.211 0.
-145.447 -993.064 0.
-172.665 -1052.02 0.
-70.325 -1028.3 0.
2.0392 -862.093 0.
74.4037 -695.885 0.
-57.5314 -779.482 0.
-200.244 -1109.71 0.
-342.957 -1439.94 0.
-285.453 -1486.17 0.
-259.886 -1427.41 0.
-234.318 -1368.65 0.
-484.696 -1465.15 0.
-483.724 -1462.12 0.
-322.63 -1388.29 0.
-335.467 -1416.77 0.
-348.304 -1445.25 0.
-215.499 -1530.77 0.
-419.92 -1999.66 0.
-624.341 -2468.54 0.
-1299.71 -2743.69 0.
-1116.17 -2318.72 0.
-932.633 -1893.75 0.
-519.965 -1689.23 0.
-552.11 -1768.56 0.
-1109.23 -2072.91 0.
-941.763 -1709.19 0.
-783.421 -1339.75 0.
-761.694 -1120.58 0.
-828.849 -1276.58 0.
-896.006 -1432.59 0.
-1077.5 -1501.65 0.
-981.491 -1281.51 0.
-885.486 -1061.36 0.
-892.086 -1628.35 0.
-1396.33 -2805.15 0.
-1900.57 -3981.95 0.
-1839.7 -3617.61 0.
-1555.44 -2959 0.
-629.294 -2090.47 0.
-767.415 -2416.19 0.
-905.536 -2741.91 0.
563.253 -2481.96 0.
250.452 -3208.17 0.
-62.3451 -3934.38 0.
1505.17 -2603.71 0.
2417.27 -476.36 0.
3329.36 1651 0.
11037.3 1039.82 0.
8053.93 -5892.32 0.
182.594 -14913.8 0.
7890.19 -6154.02 0.
10776.7 539.416 0.
2878.78 909.85 0.
1964.87 -1214.43 0.
1050.96 -3338.69 0.
-566.599 -4587.45 0.
-136.677 -3586.22 0.
293.246 -2584.99 0.
-1205.61 -2685.79 0.
-989.03 -2174.31 0.
-772.446 -1662.84 0.
-930.63 -1631.65 0.
-895.278 -1548.9 0.
-1099.5 -1646.96 0.
-1390.66 -2320.58 0.
-1681.81 -2994.19 0.
-1677.24 -3164.39 0.
-1398.51 -2514.44 0.
-1119.78 -1864.49 0.
-801.629 -1473.83 0.
-775.696 -1413.74 0.
-749.763 -1353.65 0.
-739.118 -1226.8 0.
-661.359 -1052.64 0.
99.2539 -600.556 0.
-200.628 -1198.91 0.
-450.027 -1775.63 0.
-1242.63 -2613.24 0.
-1554.34 -3335.53 0.
-1866.05 -4057.81 0.
-1354.31 -3743.27 0.
-898.073 -2681.09 0.
-441.838 -1618.9 0.
-305.029 -1294.55 0.
-301.53 -1290.21 0.
-298.032 -1285.87 0.
-172.235 -1268.76 0.
-194.614 -1319.11 0.
-516.77 -1448.41 0.
-385.568 -1136.57 0.
-254.366 -824.734 0.
87.2845 -537.249 0.
56.6097 -604.245 0.
25.9348 -671.24 0.
-36.4872 -723.444 0.
-38.9898 -729.682 0.
-41.4921 -735.92 0.
-277.66 -986.83 0.
-379.805 -1217.68 0.
-909.602 -998.033 0.
300.631 -228.363 0.
224.204 -408.276 0.
-102.483 -1069.04 0.
147.946 -485.171 0.
307.013 -114.464 0.
-573.75 -1733.67 0.
260.644 214.52 0.
105.215 -147.29 0.
156.371 -816.619 0.
-133.77 -1490.72 0.
390.546 -264.432 0.
113.917 -187.085 0.
-95.4729 -679.323 0.
-392.964 -1597.57 0.
48.2567 -574.698 0.
-187.638 -1131.77 0.
-424.963 -1862.79 0.
-325.039 -1631.86 0.
2.42345 -870.039 0.
-572.647 -1023.98 0.
-491.729 -836.459 0.
-397.63 -618.224 0.
254.744 -112.339 0.
-36.2087 -790.836 0.
59.1157 -458.684 0.
-358.744 -562.66 0.
-726.725 -1432.31 0.
-404.706 -1033.71 0.
63.1459 52.4047 0.
443.799 935.079 0.
-1175.22 -2261.53 0.
-824.222 -1448.01 0.
-424.827 -521.48 0.
239.072 26.3393 0.
-666.628 -2084.12 0.
-1396.76 -3785.01 0.
-700.114 -3142.35 0.
-340.642 -2296.14 0.
-82.7627 -2428.44 0.
40.6032 -2136.17 0.
368.22 -1367.41 0.
1746.29 -1144.59 0.
1447.19 -1843.8 0.
1987.56 -584.393 0.
2921.77 -489.911 0.
2658.69 -1097.68 0.
2954.39 -401.649 0.
6596.18 -436.538 0.
6890.95 260.496 0.
-290.147 -4300.05 0.
5849.42 -83.7788 0.
6177.26 677.358 0.
3058.17 76.7802 0.
2305.6 -1688.55 0.
1571.59 -3410.58 0.
1604.79 -1571.81 0.
2350.9 161.054 0.
2457.2 401.035 0.
179.265 -1598.04 0.
-264.345 -2638.3 0.
861.917 -15.44 0.
40.4339 -853.143 0.
-656.688 -2473.28 0.
-1226.61 -2414.69 0.
-162.831 69.2162 0.
-636.712 -1034.77 0.
-70.8159 -1099.43 0.
-191.228 -1377.86 0.
-4.60517 -939.845 0.
-961.422 -1720.51 0.
-96.0782 299.617 0.
-216.74 19.1244 0.
-818.04 -1672.74 0.
-970.26 -2025.45 0.
501.353 72.9766 0.
-84.2195 -736.88 0.
-443.999 -1579.78 0.
318.56 -132.124 0.
-201.29 -1342.98 0.
-230.091 -1407.98 0.
-193.776 -1340.77 0.
-8.95446 -906.773 0.
138.094 -560.848 0.
-876.753 -1867.43 0.
-873.555 -1856.15 0.
-1295.23 -2836.28 0.
76.1181 -652.842 0.
591.261 547.956 0.
681.269 1060.87 0.
455.33 524.957 0.
210.894 -54.2778 0.
262.967 -354.534 0.
294.861 -281.473 0.
811.327 922.261 0.
182.837 -115.034 0.
24.52 -486.359 0.
-25.9183 -605.931 0.
643.798 521.235 0.
304.584 -275.223 0.
-563.105 -907.273 0.
310.908 -536.225 0.
322.132 -513.323 0.
51.2696 -599.127 0.
91.8678 -505.286 0.
132.466 -411.445 0.
23.1545 -538.089 0.
-132.279 -897.365 0.
-287.712 -1256.64 0.
-73.5936 -1181.7 0.
-0.996757 -1009.47 0.
71.5996 -837.247 0.
-98.9822 -1068.53 0.
-208.07 -1325.67 0.
-544.972 -1643.67 0.
-386.604 -1277.23 0.
-228.235 -910.78 0.
65.2889 -691.554 0.
-151.834 -1198.4 0.
-368.957 -1705.25 0.
-812.433 -2019.59 0.
-737.877 -1848.1 0.
-663.322 -1676.61 0.
-246.17 -1295.98 0.
-129.717 -1025.51 0.
-17.9689 -756.891 0.
-591.35 -1122.2 0.
-648.455 -1266.83 0.
-569.285 -1340.66 0.
-579.848 -1369.19 0.
-590.411 -1397.71 0.
-541.008 -1450.27 0.
-617.504 -1633.54 0.
-693.999 -1816.81 0.
-277.38 -1590.04 0.
-197.642 -1399.19 0.
-117.902 -1208.34 0.
392.734 -1408.71 0.
120.642 -2036.19 0.
113.616 -2480.9 0.
205.009 -2262.71 0.
296.404 -2044.52 0.
1588.42 -1453.93 0.
1444.57 -1791.36 0.
1300.72 -2128.78 0.
2124.47 -1755.77 0.
2260.81 -1436.63 0.
2397.15 -1117.48 0.
5414.96 -463.398 0.
4940.26 -1564.22 0.
974.429 -4159.66 0.
4424.97 -1387.57 0.
5103.92 196.309 0.
2693.14 -4.74861 0.
2346.6 -820.162 0.
2000.06 -1635.58 0.
1216.92 -2304.46 0.
1236.75 -2265.18 0.
1256.58 -2225.89 0.
113.083 -2532.52 0.
254.78 -2204.73 0.
396.477 -1876.94 0.
-133.639 -1877.42 0.
-22.6311 -1612.43 0.
-623.797 -1714.82 0.
-729.091 -1960.18 0.
-834.384 -2205.54 0.
-449.354 -2067.5 0.
-302.677 -1724.17 0.
-155.999 -1380.83 0.
-757.466 -1507.4 0.
-745.707 -1478.97 0.
-733.948 -1450.54 0.
-511.831 -1195.74 0.
-411.816 -957.74 0.
-171.764 -670.916 0.
-370.361 -1075.41 0.
-537.138 -1466.26 0.
-240.186 -1615.6 0.
-316.798 -1791.86 0.
-393.41 -1968.11 0.
-386.015 -1888.5 0.
-213.176 -1481.85 0.
-40.337 -1075.2 0.
-364.46 -999.51 0.
-279.372 -797.172 0.
-194.284 -594.834 0.
-46.6014 -597.359 0.
-94.9755 -709.805 0.
11.1026 -773.185 0.
-52.8298 -928.153 0.
-116.762 -1083.12 0.
-78.0495 -1119.2 0.
-41.5812 -1034.95 0.
-5.11268 -950.703 0.
-174.679 -935.117 0.
-120.56 -810.777 0.
-66.4416 -686.437 0.
30.4897 -553.508 0.
81.0941 -437.267 0.
-170.977 -710.046 0.
501.38 -423.733 0.
513.058 -401.422 0.
10.3943 -583.321 0.
51.0187 -489.88 0.
91.643 -396.439 0.
142.87 -455.951 0.
-13.1822 -814.648 0.
-169.234 -1173.34 0.
-146.019 -1179.91 0.
-73.506 -1007.9 0.
-0.993157 -835.882 0.
118.803 -945.424 0.
9.24106 -1202.42 0.
-690.102 -1673.97 0.
-532.989 -1307.25 0.
-375.876 -940.52 0.
66.3255 -661.918 0.
-151.484 -1168.53 0.
-369.294 -1675.15 0.
-567.177 -1883.48 0.
-492.342 -1712.26 0.
-417.507 -1541.03 0.
-222.129 -1254.86 0.
-104.992 -984.86 0.
-6.14147 -722.492 0.
-564.655 -1077.95 0.
-621.602 -1222.63 0.
-593.89 -1320.02 0.
-605.29 -1348.38 0.
-616.69 -1376.75 0.
-173.499 -1262.5 0.
-250.44 -1445.65 0.
-327.379 -1628.79 0.
-45.48 -1459.95 0.
33.5993 -1268.72 0.
112.679 -1077.49 0.
838.142 -1186.28 0.
565.989 -1814.32 0.
398.473 -2326.11 0.
489.62 -2108.18 0.
580.768 -1890.24 0.
1573.15 -1431.27 0.
1429.61 -1768.15 0.
1286.06 -2105.03 0.
1828.99 -1850.83 0.
1966.97 -1532.35 0.
2104.94 -1213.87 0.
3999.91 -1037.5 0.
3526.55 -2137.6 0.
-799.057 -4889.68 0.
3378.88 -1806.65 0.
4056.11 -223.585 0.
2305.86 -138.692 0.
1958.53 -953.245 0.
1611.2 -1767.8 0.
1141.87 -2307.34 0.
1161.42 -2267.73 0.
1180.96 -2228.12 0.
538.08 -2321.03 0.
679.157 -1991.83 0.
820.234 -1662.62 0.
206.575 -1702.26 0.
318.01 -1437.26 0.
-235.786 -1515.53 0.
-340.357 -1761.43 0.
-444.927 -2007.33 0.
-386.788 -2006.62 0.
-239.705 -1663.69 0.
-92.622 -1320.75 0.
-603.154 -1410.91 0.
-591.485 -1382.49 0.
-579.816 -1354.08 0.
-370.785 -1103.91 0.
-271.474 -865.563 0.
-245.311 -672.847 0.
-527.768 -1112.6 0.
-694.876 -1502.9 0.
-129.367 -1537.39 0.
-205.969 -1713.22 0.
-282.571 -1889.05 0.
-318.067 -1828.39 0.
-145.206 -1421.54 0.
27.6552 -1014.7 0.
-174.85 -884.521 0.
-89.7187 -682.234 0.
-4.58807 -479.947 0.
-209.154 -634.799 0.
-258.152 -746.78 0.
168.382 -675.553 0.
103.667 -829.601 0.
38.9527 -983.65 0.
-79.3139 -1090.71 0.
-43.0229 -1006.49 0.
-6.73181 -922.268 0.
-165.662 -900.1 0.
-111.538 -775.707 0.
-57.4151 -651.313 0.
-140.303 -595.732 0.
-90.6818 -478.685 0.
-99.9517 -745.488 0.
393.751 -659.729 0.
327.173 -816.176 0.
-210.491 -1171.23 0.
-259.624 -1291.23 0.
-308.757 -1411.22 0.
-163.454 -1322.29 0.
-58.5544 -1085.19 0.
46.3459 -848.081 0.
-193.957 -1086.97 0.
-365.592 -1489.22 0.
-537.227 -1891.46 0.
-108.042 -1478.71 0.
57.5212 -1083.37 0.
-344.148 -970.479 0.
-450.467 -1218.53 0.
-556.788 -1466.57 0.
-246.263 -1505.47 0.
-291.137 -1611.31 0.
-336.012 -1717.15 0.
-396.379 -1777 0.
-390.508 -1763.8 0.
-384.637 -1750.59 0.
-482.398 -1782.98 0.
-479.089 -1773.99 0.
-190.684 -1642.76 0.
-813.933 -1872.2 0.
-790.271 -1816.49 0.
-724.658 -1765.59 0.
-743.126 -1808.19 0.
-761.595 -1850.78 0.
-119.081 -1654.12 0.
-188.951 -1819.66 0.
-258.822 -1985.19 0.
-209.506 -2210.93 0.
-371.043 -2585.59 0.
-532.58 -2960.25 0.
265.297 -2797.54 0.
177.511 -2999.03 0.
133.361 -3153.31 0.
211.299 -2968.18 0.
289.236 -2783.06 0.
1150.2 -2315.01 0.
1136.01 -2337.7 0.
1121.82 -2360.39 0.
1483.05 -2047.02 0.
1639.59 -1679.58 0.
1796.13 -1312.15 0.
3143.78 -924.079 0.
2968.09 -1338.42 0.
-283.526 -3073.04 0.
2806.59 -1478.55 0.
2950.83 -1146.02 0.
1369.45 -1609.88 0.
1362.54 -1623.15 0.
1355.64 -1636.42 0.
1345.02 -1750.5 0.
1233.11 -2008.49 0.
1121.19 -2266.48 0.
465.73 -2680.56 0.
416.255 -2796.36 0.
366.782 -2912.16 0.
-65.0245 -2825.52 0.
95.3091 -2455.67 0.
-398.086 -2391.37 0.
-351.04 -2280.13 0.
-303.993 -2168.9 0.
-341.8 -2116.21 0.
-336.8 -2099.44 0.
-331.8 -2082.66 0.
-754.992 -2132.33 0.
-645.452 -1878.93 0.
-535.913 -1625.54 0.
-634.432 -1657.29 0.
-648.242 -1695.32 0.
-652.747 -1728.66 0.
-856.117 -1967.32 0.
-935.086 -2152.68 0.
-255.448 -2010.57 0.
-328.496 -2184.17 0.
-401.545 -2357.77 0.
-501.074 -2273.97 0.
-280.59 -1759.02 0.
-60.1066 -1244.07 0.
-286.16 -1324.22 0.
-369.931 -1521.48 0.
-453.703 -1718.73 0.
-602.231 -1593.86 0.
-490.488 -1335.59 0.
56.4015 -916.251 0.
81.7785 -857.573 0.
107.155 -798.895 0.
47.4911 -789.017 0.
58.949 -769.05 0.
70.4071 -749.083 0.
-95.8046 -779.656 0.
-67.4446 -709.813 0.
-39.0842 -639.971 0.
-214.737 -573.799 0.
-130.646 -379.289 0.
-253.223 -777.597 0.
238.303 -693.112 0.
171.548 -849.734 0.
-57.5647 -1074.08 0.
-106.915 -1193.87 0.
-156.266 -1313.66 0.
-77.5443 -1254.08 0.
27.0419 -1016.55 0.
131.628 -779.016 0.
-296.239 -1101.77 0.
-468.04 -1503.97 0.
-639.842 -1906.16 0.
-289.92 -1524.97 0.
-123.912 -1130.35 0.
-72.1821 -823.589 0.
-178.923 -1071.61 0.
-285.663 -1319.63 0.
-92.2271 -1408.49 0.
-137.42 -1514.39 0.
-182.613 -1620.28 0.
-311.601 -1709.19 0.
-305.341 -1696.37 0.
-299.082 -1683.54 0.
-565.108 -1789.32 0.
-561.689 -1780.68 0.
53.7729 -1509.67 0.
-586.674 -1741.49 0.
-562.383 -1686.34 0.
-525.468 -1647.72 0.
-544.253 -1690.36 0.
-563.038 -1733.01 0.
97.5465 -1533.06 0.
26.628 -1697.84 0.
-44.2913 -1862.61 0.
-17.9743 -2098.42 0.
-180.549 -2472.71 0.
-343.124 -2847 0.
158.822 -2811.46 0.
71.0778 -3012.89 0.
122.236 -3126.75 0.
200.225 -2941.89 0.
278.213 -2757.03 0.
1066.05 -2320.54 0.
1052.45 -2343.51 0.
1038.84 -2366.49 0.
1151.16 -2156.67 0.
1307.68 -1789.17 0.
1464.2 -1421.67 0.
2372.56 -1226.22 0.
2196.18 -1639.81 0.
1201.61 -2406.85 0.
2130.07 -1737.21 0.
2273.26 -1404.38 0.
1036.73 -1720.27 0.
1029.69 -1734.26 0.
1022.65 -1748.25 0.
1359.5 -1712.33 0.
1247.28 -1971.21 0.
1135.06 -2230.09 0.
279.461 -2726.23 0.
229.769 -2842.15 0.
180.079 -2958.06 0.
169.107 -2693.66 0.
328.934 -2323.26 0.
-235.81 -2292.43 0.
-188.716 -2180.45 0.
-141.622 -2068.46 0.
-158.981 -2007.02 0.
-153.955 -1989.99 0.
-148.928 -1972.96 0.
-502.496 -1995 0.
-392.75 -1741.81 0.
-283.003 -1488.62 0.
-784.386 -1687.47 0.
-798.478 -1725.14 0.
-718.811 -1725.85 0.
-578.953 -1816.9 0.
-658.153 -2001.82 0.
-148.638 -1935.67 0.
-222.309 -2108.27 0.
-295.979 -2280.86 0.
-515.724 -2250.77 0.
-295.488 -1735.6 0.
-75.2517 -1220.43 0.
-225.465 -1264.92 0.
-309.441 -1461.86 0.
-393.416 -1658.81 0.
-360.597 -1460.95 0.
-249.538 -1201.49 0.
-93.8508 -948.722 0.
-68.113 -890.462 0.
-42.3756 -832.201 0.
75.4637 -746.612 0.
85.8621 -725.605 0.
96.2604 -704.599 0.
-34.5827 -723.581 0.
-6.1617 -653.601 0.
22.2597 -583.622 0.
-225.786 -548.592 0.
-141.62 -353.424 0.
-199.4 -350.089 0.
298.002 -222.46 0.
890.323 1164.26 0.
788.355 626.224 0.
388.06 -302.321 0.
324.979 -443.893 0.
359.19 -367.874 0.
369.378 -343.77 0.
596.38 184.977 0.
158.49 178.096 0.
205.135 287.961 0.
80.9618 -0.697887 0.
-8.26992 -490.567 0.
-299.363 -1173.44 0.
87.8716 -920.365 0.
567.805 197.084 0.
292.155 -448.505 0.
522.62 -233.753 0.
502.908 -280.346 0.
443.468 -419.907 0.
507.142 62.0291 0.
421.626 -138.678 0.
-304.733 -1834.55 0.
-325.114 -1049.39 0.
198.199 169.556 0.
260.634 -78.2651 0.
347.512 28.0026 0.
-32.188 -863.29 0.
8.46129 -740.487 0.
238.306 -208.021 0.
208.744 -280.901 0.
756.208 -375.609 0.
670.984 -577.704 0.
776 -335.508 0.
1003.47 -31.9737 0.
1119.7 236.007 0.
770.664 -581.041 0.
1597.38 780.728 0.
1067.99 -460.153 0.
1329.41 -247.378 0.
1057.13 -892.16 0.
1039.24 -943.12 0.
1551.15 -978.469 0.
1969.29 -11.9621 0.
1988.15 23.205 0.
1759.38 -70.1714 0.
2034.88 569.582 0.
1523.3 -627.373 0.
2114.21 -335.864 0.
2406.31 345.739 0.
143.917 1458.16 0.
2893.63 1386.26 0.
2314.58 34.1844 0.
1929.41 1013.52 0.
1452.98 -95.8701 0.
1012.94 -1119.82 0.
2329.38 565.627 0.
2095.32 18.8158 0.
2084.24 -8.41633 0.
786.746 -1156.2 0.
894.958 -900.968 0.
1145.28 -314.659 0.
1248.34 -590.65 0.
1427.6 -168.243 0.
865.865 7.62948 0.
699.993 -378.851 0.
676.216 -433.451 0.
523.973 -721.731 0.
954.585 279.927 0.
566.349 -629.145 0.
188.865 -824.672 0.
426.961 -268.755 0.
528.031 -32.8124 0.
-404.968 -507.42 0.
89.669 647.752 0.
-475.547 -412.843 0.
161.046 -587.952 0.
456.085 97.6802 0.
442.633 -713.521 0.
418.058 -774.463 0.
535.824 -503.502 0.
17.0893 -960.008 0.
-127.543 -1291.89 0.
78.9241 -804.44 0.
62.0601 -686.927 0.
-16.7697 -866.604 0.
652.096 697.885 0.
595.88 359.123 0.
781.044 790.394 0.
-14.4145 -454.399 0.
243.681 148.265 0.
353.79 405.499 0.
232.393 -405.906 0.
649.891 569.602 0.
548.594 334.025 0.
-71.8542 -888.601 0.
344.688 80.7459 0.
232.672 -183.03 0.
-378.808 -865.655 0.
-606.739 -1396.11 0.
-259.039 -633.135 0.
-22.3716 -521.606 0.
-20.5883 -513.943 0.
253.246 -449.188 0.
73.0872 -864.564 0.
-107.071 -1279.94 0.
-103.173 -1504.61 0.
-126.248 -1558.97 0.
-149.323 -1613.34 0.
-416.941 -1649.53 0.
-335.591 -1460.46 0.
-254.241 -1271.38 0.
-406.221 -1410.43 0.
-468.566 -1554.93 0.
-110.554 -1525.17 0.
-205.401 -1747.36 0.
-300.248 -1969.55 0.
-458.02 -2115.46 0.
-376.183 -1924.33 0.
-294.347 -1733.2 0.
-143.062 -1605.26 0.
-153.862 -1631.79 0.
-164.661 -1658.32 0.
-458.994 -1785.83 0.
-451.145 -1768.74 0.
-82.7569 -1597.32 0.
-254.55 -1512.62 0.
-168.972 -1316.89 0.
-200.827 -1278.95 0.
-400.559 -1749.76 0.
-600.292 -2220.56 0.
21.3799 -2105.31 0.
111.324 -1898.85 0.
201.268 -1692.38 0.
266.379 -1777.87 0.
124.372 -2111.98 0.
-17.6346 -2446.09 0.
402.398 -2183.79 0.
472.452 -2022.15 0.
594.89 -1870.56 0.
486.008 -2132.32 0.
377.126 -2394.09 0.
854.054 -2240.36 0.
1013.89 -1874.8 0.
1173.73 -1509.24 0.
950.962 -1344.1 0.
1073.34 -1063.22 0.
1195.72 -782.342 0.
1693.23 -626.481 0.
1622.83 -792.592 0.
-330.114 -1765.96 0.
1852.03 -761.153 0.
1887.92 -676.094 0.
929.309 -1064.71 0.
862.066 -1219.1 0.
794.823 -1373.49 0.
1227.21 -1357.9 0.
1107.42 -1640.05 0.
987.626 -1922.21 0.
227.341 -2362.87 0.
194.345 -2438.74 0.
161.349 -2514.61 0.
587.119 -2062.17 0.
744.06 -1694.16 0.
216.035 -1693.03 0.
98.612 -1967.18 0.
-18.8116 -2241.33 0.
-223.761 -2375.69 0.
-88.1744 -2060.13 0.
47.4121 -1744.56 0.
-114.518 -1770 0.
-172.521 -1903.91 0.
-230.524 -2037.82 0.
-954.567 -2284.08 0.
-895.904 -2146.68 0.
-376.441 -1818.85 0.
-258.995 -1805.71 0.
-276.864 -1850.5 0.
-108.024 -1794.78 0.
-84.2268 -1743.72 0.
-60.4301 -1692.66 0.
-393.968 -1842.34 0.
-436.368 -1934.16 0.
-478.769 -2025.98 0.
-313.596 -1824.95 0.
-200.157 -1557.89 0.
-86.7184 -1290.84 0.
-244.003 -1292.44 0.
-214.922 -1227.02 0.
-150.253 -1113.82 0.
-11.4404 -790.903 0.
127.373 -467.988 0.
129.59 -377.684 0.
40.0005 -589.051 0.
-49.589 -800.418 0.
-82.6442 -775.676 0.
16.7893 -546.555 0.
116.223 -317.433 0.
78.8913 -486.793 0.
-45.6333 -774.804 0.
-168.787 -566.465 0.
-242.214 -586.405 0.
-239.894 -579.252 0.
179.585 -448.047 0.
-0.590555 -863.794 0.
-180.766 -1279.54 0.
-56.0384 -1452.19 0.
-78.8619 -1506.9 0.
-101.685 -1561.6 0.
-145.045 -1499.47 0.
-62.8255 -1310.75 0.
19.3945 -1122.02 0.
-396.22 -1375.41 0.
-459.608 -1519 0.
-20.9203 -1455.62 0.
-115.813 -1677.64 0.
-210.705 -1899.67 0.
-655.673 -2169.44 0.
-574.364 -1978.11 0.
-493.055 -1786.78 0.
-45.6851 -1531.84 0.
-56.0356 -1558.42 0.
-66.3856 -1585.01 0.
-219.024 -1651.81 0.
-211.781 -1634.31 0.
189.895 -1448.14 0.
-167.326 -1446.45 0.
-81.3019 -1250.97 0.
-156.054 -1227.85 0.
-355.517 -1698.95 0.
-554.981 -2170.05 0.
47.439 -2058.43 0.
137.611 -1852.44 0.
227.784 -1646.46 0.
296.412 -1735.04 0.
154.23 -2068.36 0.
12.0479 -2401.68 0.
511.772 -2105.95 0.
580.979 -1943.36 0.
563.845 -1852.85 0.
454.4 -2114.21 0.
344.955 -2375.57 0.
678.625 -2285.58 0.
838.113 -1919.6 0.
997.602 -1553.62 0.
645.669 -1444.17 0.
768.437 -1163.36 0.
891.206 -882.556 0.
1347.94 -741.91 0.
1277.81 -908.648 0.
-3126.36 -2932.1 0.
1718.78 -786.437 0.
1754.61 -702.141 0.
813.4 -1079.2 0.
746.672 -1234.12 0.
679.945 -1389.03 0.
904.035 -1465.69 0.
784.904 -1747.77 0.
665.774 -2029.84 0.
191.4 -2348.07 0.
158.294 -2423.52 0.
125.188 -2498.97 0.
567.046 -2039.38 0.
724.165 -1671.36 0.
332.261 -1610.74 0.
214.566 -1884.8 0.
96.871 -2158.87 0.
-256.926 -2359.07 0.
-121.401 -2043.42 0.
14.1243 -1727.78 0.
24.4865 -1679.47 0.
-32.9962 -1813.61 0.
-90.479 -1947.75 0.
-678.727 -2133.4 0.
-619.717 -1996.19 0.
490.413 -1416.5 0.
-118.25 -1713.84 0.
-136.919 -1758.34 0.
-194.655 -1799.21 0.
-171.022 -1748.37 0.
-147.389 -1697.52 0.
-419.679 -1823.22 0.
-462.455 -1914.92 0.
-505.231 -2006.63 0.
-159.641 -1727.67 0.
-45.6286 -1461.19 0.
68.3839 -1194.72 0.
-388.873 -1324.04 0.
-359.319 -1258.82 0.
46.2526 -998.636 0.
185.373 -675.921 0.
324.494 -353.205 0.
6.46618 -397.48 0.
-82.1439 -609.517 0.
-170.754 -821.557 0.
-138.991 -769.125 0.
-39.4858 -540.169 0.
60.0194 -311.213 0.
457.518 -292.541 0.
332.847 -579.811 0.
-206.648 -708.795 0.
-376.463 -786.589 0.
-364.904 -760.377 0.
18.4082 -617.939 0.
-91.7612 -878.124 0.
-201.93 -1138.31 0.
23.0223 -1175.1 0.
12.1717 -1203.45 0.
1.32133 -1231.8 0.
55.2953 -1172.48 0.
92.4418 -1084.61 0.
129.588 -996.743 0.
-242.673 -1262.26 0.
-319.099 -1440.14 0.
-32.1167 -1450.74 0.
-16.4199 -1412.6 0.
-0.722891 -1374.45 0.
-357.357 -1514.49 0.
-378.351 -1564.46 0.
-399.346 -1614.42 0.
-114.562 -1557.61 0.
-159.48 -1657.54 0.
-204.397 -1757.48 0.
-248.939 -1770.92 0.
-227.37 -1722.61 0.
457.341 -1389.97 0.
-306.806 -1938.81 0.
-426.383 -2216.49 0.
-543.745 -2432.06 0.
-488.963 -2300.03 0.
-434.181 -2167.99 0.
146.904 -1856.19 0.
153.275 -1843.38 0.
159.646 -1830.57 0.
206.925 -1820.33 0.
197.667 -1840.23 0.
188.408 -1860.14 0.
581.516 -1878.42 0.
466.774 -2145.16 0.
279.227 -2411.12 0.
369.598 -2200.92 0.
459.968 -1990.71 0.
718.169 -1743.41 0.
747.751 -1670.01 0.
777.333 -1596.61 0.
442.774 -1614.72 0.
543.811 -1376.63 0.
644.848 -1138.54 0.
1147.28 -820.555 0.
1189.48 -720.274 0.
-5270.48 -3407.44 0.
1654.75 -512.505 0.
1618.72 -600.569 0.
697.604 -1120.49 0.
525.911 -1516.97 0.
354.217 -1913.44 0.
540.315 -1968.86 0.
578.438 -1876.65 0.
616.561 -1784.44 0.
339.734 -1876.73 0.
342.052 -1870.65 0.
344.371 -1864.57 0.
529.91 -1878.4 0.
474.362 -2006.35 0.
72.7797 -2254.68 0.
125.772 -2130.5 0.
178.765 -2006.32 0.
-71.4646 -1985.47 0.
21.9473 -1764.2 0.
115.359 -1542.93 0.
-6.17689 -1545.84 0.
-33.8348 -1610.91 0.
-61.4919 -1675.98 0.
-299.585 -1940.8 0.
-396.096 -2170.26 0.
707.067 -1878.39 0.
-223.569 -1979.41 0.
-66.8075 -1614.35 0.
55.1118 -1303.34 0.
109.666 -1167.2 0.
164.219 -1031.06 0.
-242.886 -1282.22 0.
-393.065 -1638.3 0.
-543.244 -1994.38 0.
-261.82 -1833.06 0.
-164.82 -1610.33 0.
-67.8201 -1387.6 0.
-317.63 -1384.26 0.
-257.129 -1245.61 0.
92.2329 -1000.96 0.
61.4914 -1073.17 0.
30.7495 -1145.37 0.
-373.919 -1290.29 0.
-274.414 -1059.11 0.
-174.908 -827.916 0.
-239.797 -807.174 0.
-268.905 -871.772 0.
-298.012 -936.37 0.
439.174 -598.427 0.
462.161 -548.99 0.
-213.522 -681.692 0.
-253.296 -703.604 0.
-242.742 -676.837 0.
-74.8353 -626.384 0.
-185.781 -886.459 0.
-296.726 -1146.53 0.
-81.7596 -1187.58 0.
-92.6064 -1216.12 0.
-103.453 -1244.65 0.
-27.4024 -1175.82 0.
9.92549 -1088.38 0.
47.2531 -1000.94 0.
27.7362 -1116.99 0.
-49.2002 -1293.83 0.
-137.689 -1464.92 0.
-121.369 -1426.81 0.
-105.05 -1388.7 0.
-89.7201 -1369.82 0.
-110.504 -1419.72 0.
-131.288 -1469.63 0.
-323.575 -1617.33 0.
-368.511 -1717.17 0.
-413.447 -1817.02 0.
-406.09 -1806.66 0.
-384.604 -1758.28 0.
-162.559 -1623.89 0.
-184.805 -1856.71 0.
-303.936 -2135.05 0.
-261.854 -2279.83 0.
-207.05 -2147.69 0.
-152.245 -2015.55 0.
184.064 -1806.72 0.
190.735 -1794.43 0.
197.407 -1782.13 0.
81.1928 -1842.11 0.
72.044 -1862.31 0.
62.8951 -1882.52 0.
441.721 -1906.87 0.
327.305 -2173.12 0.
230.217 -2401.16 0.
320.372 -2190.91 0.
410.526 -1980.67 0.
445.261 -1829.71 0.
474.929 -1757.07 0.
504.597 -1684.42 0.
448.183 -1578.39 0.
549.633 -1341.53 0.
651.082 -1104.68 0.
1113.5 -801.694 0.
1156.19 -702.294 0.
5684.8 1319.2 0.
1378.88 -597.948 0.
1342.26 -685.57 0.
618.619 -1122.21 0.
446.166 -1518.05 0.
273.713 -1913.89 0.
517.78 -1949.13 0.
555.271 -1856.53 0.
592.761 -1763.94 0.
269.379 -1876.06 0.
271.281 -1869.88 0.
273.184 -1863.7 0.
325.612 -1933.08 0.
269.51 -2061.04 0.
23.6245 -2245.7 0.
77.0111 -2122.06 0.
130.398 -1998.42 0.
54.8606 -1899.58 0.
148.561 -1678.55 0.
242.26 -1457.52 0.
-323.172 -1651.11 0.
-350.514 -1716.2 0.
-377.854 -1781.28 0.
188.835 -1697.81 0.
91.8941 -1926.94 0.
613.78 -1888.04 0.
-293.099 -1979.31 0.
-136.422 -1614.48 0.
238.964 -1193.07 0.
294.28 -1057.57 0.
349.596 -922.073 0.
-309.783 -1279.36 0.
-461.045 -1634.89 0.
-612.307 -1990.42 0.
-507.141 -1907.46 0.
-410.453 -1685.39 0.
-313.764 -1463.32 0.
79.838 -1182.43 0.
140.192 -1043.71 0.
33.704 -995.229 0.
3.29466 -1067.55 0.
-27.115 -1139.87 0.
-226.157 -1196.12 0.
-126.476 -965.008 0.
-26.7953 -733.891 0.
-366.608 -830.499 0.
-395.563 -895.117 0.
-424.519 -959.735 0.
379.827 -591.597 0.
401.731 -542.739 0.
508.255 1061.07 0.
87.2754 -111.041 0.
-93.3059 -537.861 0.
45.7208 -143.626 0.
-18.2264 -293.028 0.
350.101 567.504 0.
-74.6098 -936.197 0.
19.0114 -716.776 0.
100.513 -526.315 0.
-140.248 -1252.08 0.
74.1016 -750.309 0.
100.249 -687.206 0.
515.948 -449.07 0.
807.132 230.987 0.
658.347 619.157 0.
-77.0646 -1096.75 0.
11.9231 -888.592 0.
613.632 -205.524 0.
833.457 307.228 0.
754.138 121.873 0.
305.605 279.05 0.
201.944 34.84 0.
358.975 399.377 0.
138.594 -223.695 0.
551.7 740.478 0.
567.75 267.54 0.
473.316 -524.189 0.
793.776 223.707 0.
1125.95 457.218 0.
1179.94 587.375 0.
893.01 -77.8846 0.
1223.49 571.948 0.
711.529 -618.063 0.
683.306 -679.492 0.
894.817 336.083 0.
788.493 85.4753 0.
783.251 69.9378 0.
1692.73 1321.8 0.
1148.99 54.256 0.
1103.94 -250.736 0.
1346.34 312.4 0.
1030.5 -427.39 0.
1022.04 75.1013 0.
694.142 -691.044 0.
829.283 -375.843 0.
1064.12 -108.866 0.
653.315 -1071.94 0.
1143.21 66.4601 0.
1062.34 -822.208 0.
1857.85 1036.68 0.
-7576.1 -1528.15 0.
1907.71 1198.95 0.
1330.37 -146.873 0.
890.975 -301.414 0.
1144.48 289.505 0.
861.578 -371.727 0.
1158.42 -367.469 0.
1320.9 8.89313 0.
1010.9 -717.535 0.
857.739 -327.014 0.
1274.84 641.706 0.
645.212 -832.241 0.
1014.25 101.601 0.
1200.57 529.725 0.
1418.33 1135.9 0.
702.781 -533.852 0.
682.975 -580.584 0.
772.569 -436.515 0.
616.694 -802.772 0.
566.993 -921.651 0.
92.089 -52.7823 0.
-128.982 -571.774 0.
-111.586 -534.181 0.
1110.36 -436.754 0.
958.612 -789.898 0.
1025.86 -325.971 0.
201.455 -671.119 0.
566.559 184.382 0.
947.06 146.472 0.
772.633 -257.06 0.
292.21 -1375.43 0.
-101.026 -645.321 0.
182.753 16.2096 0.
235.199 138.246 0.
49.0245 -113.141 0.
-128.02 -522.659 0.
-13.6182 -252.287 0.
915.942 52.6346 0.
740.459 -352.273 0.
716.782 738.912 0.
479.717 190.718 0.
125.899 -630.492 0.
634.65 546.327 0.
830.845 1005.87 0.
561.46 379.05 0.
-449.424 -755.825 0.
-334.666 -491.144 0.
191.717 734.899 0.
957.165 892.998 0.
1115.4 1259.44 0.
199.412 -542.672 0.
-141.48 -709.591 0.
-183.538 -809.104 0.
-20.8216 -793.56 0.
1.24016 -739.544 0.
23.3028 -685.529 0.
-156.925 -760.999 0.
-189.161 -835.406 0.
-221.399 -909.813 0.
48.4265 -944.952 0.
-57.6965 -1189.72 0.
-163.82 -1434.49 0.
24.4934 -1278.52 0.
89.7543 -1128.77 0.
3.26058 -1054.35 0.
-70.451 -1226.75 0.
-144.162 -1399.15 0.
-158.998 -1554.47 0.
-234.236 -1731.41 0.
-309.475 -1908.35 0.
-547.149 -1969.39 0.
-445.071 -1734.56 0.
-342.993 -1499.73 0.
-119.185 -1362.27 0.
-121.329 -1369.69 0.
145.649 -1261.69 0.
-56.2498 -1542.54 0.
-159.366 -1782.43 0.
74.8022 -1817.64 0.
128.389 -1689.61 0.
181.976 -1561.58 0.
335.841 -1523.79 0.
221.209 -1788.54 0.
106.579 -2053.29 0.
-89.7592 -2142.71 0.
-31.7974 -2009.21 0.
26.1646 -1875.7 0.
274.392 -1755.32 0.
279.565 -1743.77 0.
505.71 -1653.13 0.
433.661 -1824.52 0.
361.612 -1995.91 0.
-12.0161 -2104.32 0.
223.141 -1557.97 0.
458.299 -1011.61 0.
631.787 -894.029 0.
481.402 -1251.65 0.
331.016 -1609.28 0.
693.322 -1430.47 0.
755.408 -1284.67 0.
-1512.64 -2139.28 0.
834.88 -1255.42 0.
770.523 -1405.45 0.
235.336 -1674.95 0.
351.775 -1405.98 0.
468.214 -1137.01 0.
644.408 -1048.52 0.
531.326 -1313.27 0.
418.245 -1578.03 0.
114.451 -1761.28 0.
123.421 -1741.69 0.
132.391 -1722.1 0.
268.304 -1564.49 0.
329.6 -1427.27 0.
387.995 -1323.18 0.
304.998 -1519.18 0.
222 -1715.18 0.
89.0622 -1868.41 0.
104.576 -1835.22 0.
120.09 -1802.02 0.
-255.819 -1876.28 0.
-180.287 -1703.84 0.
-104.755 -1531.41 0.
194.674 -1481.51 0.
124.358 -1641.24 0.
327.92 -1671.11 0.
-85.1374 -1822.23 0.
-74.1486 -1792 0.
162.36 -1664.48 0.
181.521 -1617.27 0.
200.682 -1570.07 0.
-513.023 -1745.59 0.
-389.69 -1455.32 0.
-266.357 -1165.04 0.
-278.283 -1171.49 0.
-336.272 -1302.71 0.
-394.26 -1433.92 0.
154.71 -1198.46 0.
155.012 -1194.01 0.
-114.191 -1300.62 0.
-80.8246 -1218.31 0.
-47.4582 -1136 0.
-92.1897 -1099.11 0.
-83.0565 -1075.05 0.
-73.9235 -1051 0.
-442.52 -1184.69 0.
-423.178 -1140.45 0.
-403.836 -1096.21 0.
73.4364 -792.064 0.
134.354 -650.309 0.
678.583 -307.935 0.
-90.4581 -655.63 0.
-133.818 -754.647 0.
253.918 -647.322 0.
275.03 -592.68 0.
296.142 -538.038 0.
-333.677 -805.304 0.
-365.836 -879.905 0.
-397.997 -954.507 0.
132.738 -878.967 0.
26.3629 -1124.01 0.
-80.0125 -1369.05 0.
-125.193 -1311.3 0.
-60.0753 -1161.89 0.
98.0167 -981.739 0.
23.7428 -1154.11 0.
-50.5306 -1326.48 0.
-380.463 -1616.22 0.
-455.616 -1792.64 0.
-530.769 -1969.07 0.
-395.632 -1877.1 0.
-294.347 -1641.84 0.
-193.063 -1406.58 0.
182.336 -1199.61 0.
180.554 -1207.76 0.
-250.487 -1400.05 0.
-154.373 -1553.59 0.
-257.241 -1793.69 0.
0.128506 -1820.22 0.
53.6351 -1692.07 0.
107.142 -1563.93 0.
368.697 -1475.84 0.
254.805 -1741.11 0.
140.914 -2006.38 0.
23.4774 -2060.03 0.
80.7991 -1925.72 0.
138.121 -1791.4 0.
169.302 -1770.48 0.
174.515 -1758.56 0.
526.139 -1613.25 0.
454.47 -1784.72 0.
382.802 -1956.19 0.
-120 -2117.66 0.
115.121 -1571.72 0.
350.243 -1025.78 0.
534.39 -904.28 0.
383.977 -1261.8 0.
233.564 -1619.32 0.
578.344 -1448.39 0.
640.056 -1302.43 0.
-130.349 -1515.11 0.
824.175 -1228.31 0.
759.539 -1378.04 0.
171.703 -1671.74 0.
287.876 -1402.82 0.
404.05 -1133.9 0.
391.188 -1122.62 0.
278.6 -1388.33 0.
166.012 -1654.04 0.
-28.8603 -1792.62 0.
-20.1778 -1772.72 0.
-11.4948 -1752.82 0.
243.041 -1544.11 0.
303.736 -1406.88 0.
439.541 -1267.31 0.
357.02 -1464.05 0.
274.498 -1660.8 0.
15.4822 -1869.14 0.
31.1714 -1835.86 0.
46.8606 -1802.58 0.
292.264 -1610.25 0.
368.612 -1438.14 0.
444.959 -1266.03 0.
-363.18 -1688.54 0.
-433.68 -1847.26 0.
251.593 -1673.16 0.
183.046 -1677.22 0.
194.604 -1647.34 0.
169.188 -1629.52 0.
188.185 -1582.11 0.
207.181 -1534.7 0.
-425.525 -1676.78 0.
-302.555 -1386.45 0.
-179.584 -1096.12 0.
-108.04 -1066.96 0.
-165.717 -1198.78 0.
-223.394 -1330.6 0.
-104.833 -1278.17 0.
-104.004 -1274.46 0.
-45.1624 -1240.96 0.
-11.8199 -1158.64 0.
21.5227 -1076.31 0.
-100.594 -1069.77 0.
-91.7911 -1045.6 0.
-82.9879 -1021.43 0.
-194.566 -1049.35 0.
-175.635 -1005 0.
-156.705 -960.653 0.
-107.935 -838.849 0.
-48.0284 -696.986 0.
798.054 -214.118 0.
-169.81 -715.388 0.
-180.719 -739.569 0.
377.454 -520.677 0.
356.781 -568.433 0.
336.108 -616.189 0.
-479.253 -1067.86 0.
-581.671 -1303.9 0.
-684.089 -1539.93 0.
-58.7706 -1190.43 0.
68.503 -894.577 0.
195.777 -598.719 0.
19.3772 -868.726 0.
-120.8 -1191.74 0.
-113.482 -1428.22 0.
-119.902 -1442.22 0.
-126.322 -1456.22 0.
-452.08 -1589.39 0.
-419.507 -1510.63 0.
-386.933 -1431.87 0.
80.8922 -1209.22 0.
74.2632 -1227.72 0.
67.6327 -1246.21 0.
196.714 -1246.19 0.
155.576 -1341.43 0.
217.249 -1392.15 0.
-141.536 -1519.02 0.
-123.86 -1481.01 0.
152.382 -1356.98 0.
92.3826 -1498.51 0.
32.3828 -1640.04 0.
235.387 -1630.59 0.
227.359 -1652.42 0.
219.332 -1674.26 0.
171.859 -1726.42 0.
156.553 -1767.84 0.
141.246 -1809.25 0.
216.777 -1750.18 0.
232.33 -1713.07 0.
402.43 -1598.1 0.
495.536 -1379.8 0.
588.643 -1161.5 0.
205.746 -1238.16 0.
147.103 -1371.37 0.
88.4611 -1504.57 0.
138.89 -1415.58 0.
252.509 -1150.3 0.
366.129 -885.029 0.
887.802 -698.836 0.
834.031 -826.866 0.
-1043.97 -1736.57 0.
916.067 -771.112 0.
982.82 -617.099 0.
535.608 -749.261 0.
444.745 -962.466 0.
353.881 -1175.67 0.
196.059 -1310.02 0.
230.977 -1227.59 0.
265.896 -1145.16 0.
64.4693 -1262.99 0.
23.3425 -1357.27 0.
-17.7835 -1451.55 0.
288.03 -1439.43 0.
221.734 -1587.53 0.
283.8 -1675.81 0.
249.153 -1753.61 0.
214.506 -1831.41 0.
-154.402 -2035.98 0.
-157.484 -2040.74 0.
-160.567 -2045.49 0.
319.767 -1833.73 0.
319.556 -1831.96 0.
319.346 -1830.19 0.
-532.338 -1967.74 0.
-387.92 -1631.88 0.
807.292 -867.434 0.
315.05 -1336.41 0.
180.348 -1651.69 0.
100.435 -1862.47 0.
129.014 -1793.19 0.
157.592 -1723.91 0.
-422.337 -1903.54 0.
-376.865 -1798.33 0.
-331.394 -1693.11 0.
-267.663 -1592.53 0.
-234.992 -1518.49 0.
-202.321 -1444.45 0.
-305.854 -1383.11 0.
-244.436 -1237.57 0.
39.8987 -983.503 0.
104.76 -836.986 0.
169.622 -690.47 0.
-7.0358 -757.976 0.
-88.942 -953.866 0.
-170.849 -1149.76 0.
-149.509 -1186.5 0.
-132.395 -1148.25 0.
-115.282 -1110 0.
-257.516 -911.496 0.
-86.2071 -521.512 0.
537.162 -297.63 0.
-311.715 -745.728 0.
-322.427 -770.27 0.
327.477 -510.751 0.
306.289 -558.112 0.
285.102 -605.473 0.
-367.675 -988.366 0.
-469.492 -1225.1 0.
-571.31 -1461.83 0.
-256.432 -1245.68 0.
-129.469 -949.979 0.
-2.50562 -654.282 0.
82.1287 -807.72 0.
-57.632 -1131.7 0.
-209.722 -1437.81 0.
-216.691 -1452.03 0.
-223.659 -1466.25 0.
-407.899 -1538.59 0.
-374.654 -1460.56 0.
-341.409 -1382.54 0.
428.294 -1027.26 0.
421.409 -1045.6 0.
414.522 -1063.94 0.
27.6924 -1288.3 0.
-13.0654 -1383.98 0.
-29.639 -1469.25 0.
-12.1656 -1431.79 0.
5.25226 -1392.93 0.
148.748 -1328.43 0.
88.5087 -1469.28 0.
28.2694 -1610.13 0.
76.5799 -1669.42 0.
67.697 -1690.25 0.
58.8154 -1711.08 0.
118.253 -1716.28 0.
103.277 -1757.71 0.
88.3014 -1799.15 0.
449.024 -1621.16 0.
464.936 -1583.68 0.
89.8883 -1698.53 0.
182.329 -1479.58 0.
274.771 -1260.63 0.
220.693 -1203.94 0.
161.43 -1336.29 0.
102.169 -1468.65 0.
-164.663 -1511.78 0.
-50.2151 -1247.43 0.
64.2337 -983.083 0.
1000.46 -619.847 0.
946.34 -747.763 0.
963.281 -845.011 0.
719.812 -823.454 0.
786.277 -669.49 0.
565.093 -703.539 0.
474.294 -916.947 0.
383.494 -1130.35 0.
187.181 -1283.98 0.
222.477 -1202 0.
257.773 -1120.02 0.
-88.4643 -1297.23 0.
-128.449 -1392.57 0.
-168.432 -1487.92 0.
348.748 -1381.47 0.
282.542 -1530.11 0.
289.152 -1640.64 0.
255.186 -1719.08 0.
221.22 -1797.52 0.
-298.087 -2066.53 0.
-300.974 -2071.66 0.
-303.86 -2076.8 0.
97.156 -1896.86 0.
96.7267 -1894.45 0.
96.2982 -1892.04 0.
-71.9873 -1742.21 0.
71.9632 -1405.78 0.
895.427 -795.194 0.
60.4705 -1411.94 0.
-73.7189 -1727.83 0.
206.525 -1786.29 0.
234.936 -1716.85 0.
263.347 -1647.42 0.
-221.13 -1786.94 0.
-175.177 -1681.89 0.
-129.223 -1576.83 0.
-243.855 -1551.25 0.
-210.394 -1477.76 0.
-176.933 -1404.27 0.
-404.022 -1392.78 0.
-342.63 -1247.87 0.
-43.8217 -989.425 0.
21.0254 -842.469 0.
85.8729 -695.512 0.
-47.6196 -743.986 0.
-129.884 -939.698 0.
-212.149 -1135.41 0.
-102.726 -1133.84 0.
-85.7141 -1096.11 0.
-68.7029 -1058.38 0.
-333.57 -914.111 0.
-162.974 -524.904 0.
674.679 566.086 0.
78.63 453.151 0.
-231.984 -272.654 0.
830.61 795.995 0.
438.378 -124.217 0.
668.81 409.1 0.
3.8422 -305.42 0.
163.989 71.4388 0.
306.153 406.279 0.
509.615 938.832 0.
250.825 337.911 0.
292.508 438.366 0.
700.635 553.275 0.
616.486 360.936 0.
502.69 438.734 0.
178.028 -318.454 0.
495.545 423.328 0.
529.689 585.597 0.
490.601 498.784 0.
167.589 -250.74 0.
761.384 -871.594 0.
1092.84 -90.1516 0.
1365 552.885 0.
393.094 -111.253 0.
581.571 331.942 0.
739.727 -83.1434 0.
507.071 -448.666 0.
993.428 690.06 0.
398.629 -715.924 0.
949.808 571.506 0.
817.843 265.622 0.
214.53 -1010.51 0.
1023.7 872.778 0.
983.282 773.197 0.
719.525 -182.721 0.
588.357 -486.489 0.
796.083 -0.0774387 0.
1101.72 -505.131 0.
1016.11 -707.473 0.
285.82 -597.683 0.
656.492 271.241 0.
335.124 -475.81 0.
283.753 -1046.63 0.
512.768 -515.659 0.
922.543 437.808 0.
169.925 -126.727 0.
-344.98 -1328.78 0.
-4.11153 -534.098 0.
1521.33 411.347 0.
1553.03 486.765 0.
-1576.89 -1018.74 0.
921.109 42.863 0.
343.491 -1301.63 0.
550.938 -754.901 0.
832.94 -98.4451 0.
783.29 -215.817 0.
546.281 -400.886 0.
837.953 280.636 0.
303.046 -966.473 0.
-157.307 -1149.05 0.
-57.7975 -916.594 0.
283.439 -120.526 0.
880.39 -228.323 0.
1006.56 59.5073 0.
773.023 -494.172 0.
940.036 -99.2757 0.
1034.06 126.37 0.
201.383 -602.004 0.
719.539 612.266 0.
528.004 170.805 0.
551.726 -379.588 0.
578.599 -311.742 0.
615.656 -219.391 0.
718.91 -744.066 0.
603.826 -1012.32 0.
791.268 309.823 0.
434.614 -34.8358 0.
355.435 -223.394 0.
1164.34 291.277 0.
775.511 -624.336 0.
1200.46 358.399 0.
525.694 -398.051 0.
671.362 -56.7876 0.
1034.68 792.154 0.
465.217 78.9304 0.
424.562 -14.9061 0.
-18.0249 -1045.02 0.
96.8244 -13.7349 0.
-314.189 -970.573 0.
133.965 -397.241 0.
529.903 529.19 0.
274.921 -63.3602 0.
-388.993 -1441.19 0.
123.94 -244.822 0.
204.197 -58.0822 0.
229.186 -405.966 0.
145.294 -599.48 0.
683.093 656.483 0.
-59.7806 -109.596 0.
-375.844 -844.462 0.
-36.6201 -599.159 0.
-128.057 -754.438 0.
-220.319 -970.12 0.
21.1396 -989.042 0.
85.5703 -843.382 0.
150.002 -697.722 0.
-124.983 -727.251 0.
-100.995 -669.054 0.
-77.0072 -610.858 0.
-127.408 -782.434 0.
-266.174 -1107.27 0.
-404.939 -1432.1 0.
-193.953 -1284.24 0.
-136.533 -1147.21 0.
-22.1987 -998.351 0.
-22.2621 -1001.49 0.
-22.3256 -1004.64 0.
-62.7206 -1038.77 0.
-97.5981 -1117.28 0.
-132.476 -1195.79 0.
237.36 -1164.13 0.
137.386 -1393.61 0.
37.4134 -1623.08 0.
-188.523 -1684.06 0.
-135.643 -1555.83 0.
-260.733 -1504.07 0.
182.866 -1380.42 0.
149.632 -1458.25 0.
37.0089 -1567.08 0.
14.6567 -1620.88 0.
-7.69578 -1674.67 0.
12.1672 -1652.15 0.
51.8582 -1562.94 0.
91.5483 -1473.73 0.
-75.2221 -1523.89 0.
-71.6105 -1516.3 0.
-68.0001 -1508.71 0.
704.609 -1140.73 0.
726.974 -1094.4 0.
102.669 -1327.96 0.
147.986 -1225.91 0.
193.304 -1123.86 0.
146.22 -1103.45 0.
116.151 -1178.82 0.
86.0816 -1254.18 0.
-258.74 -1440.25 0.
-265.208 -1456.99 0.
-271.676 -1473.72 0.
567.498 -1018.28 0.
636.231 -860.655 0.
1587.41 -325.523 0.
332.151 -925.375 0.
298.448 -1002 0.
501.527 -971.346 0.
483.531 -1014.69 0.
465.535 -1058.03 0.
156.73 -1213.55 0.
153.593 -1221.38 0.
150.456 -1229.22 0.
-136.258 -1421.17 0.
-187.678 -1539.92 0.
-239.099 -1658.67 0.
393.83 -1298.62 0.
454.072 -1165.75 0.
470.505 -1069.94 0.
446.188 -1119.61 0.
421.871 -1169.27 0.
-114.023 -1439.97 0.
-154.153 -1528.58 0.
-194.283 -1617.2 0.
-111.672 -1663.69 0.
-156.205 -1768.02 0.
-200.737 -1872.36 0.
61.1582 -1805.6 0.
45.586 -1843 0.
905.304 -1502.78 0.
-179.772 -1821.97 0.
-102.198 -1643.22 0.
362.083 -1329.65 0.
372.04 -1317.07 0.
381.996 -1304.49 0.
-56.6448 -1540.06 0.
-113.397 -1673.62 0.
-170.15 -1807.18 0.
-384.394 -1746.04 0.
-236.811 -1399.88 0.
-89.2269 -1053.71 0.
-75.7755 -917.988 0.
-18.2297 -783.376 0.
-97.9473 -740.79 0.
-153.328 -866.813 0.
-208.709 -992.837 0.
-191.698 -1008.52 0.
-129.13 -862.703 0.
-66.5611 -716.891 0.
17.7717 -601.504 0.
46.9561 -532.172 0.
76.1406 -462.841 0.
-63.6571 -651.745 0.
-158.101 -870.567 0.
-282.36 -678.449 0.
268.383 -555.948 0.
175.912 -771.212 0.
-14.9549 -971.409 0.
49.4207 -826.183 0.
113.797 -680.955 0.
-46.6879 -663.387 0.
-22.4059 -605.263 0.
1.87574 -547.14 0.
15.4991 -689.068 0.
-122.652 -1014.66 0.
-260.803 -1340.25 0.
-312.231 -1303.57 0.
-254.655 -1166.8 0.
111.926 -908.415 0.
110.864 -910.648 0.
109.802 -912.881 0.
81.9171 -947.123 0.
47.0827 -1025.44 0.
12.2478 -1103.75 0.
-235.722 -1337.23 0.
-335.454 -1566.97 0.
-435.184 -1796.7 0.
-57.0663 -1596.19 0.
-4.2087 -1468.04 0.
839.284 -1001.36 0.
290.29 -1304.72 0.
257.809 -1383.03 0.
61.4192 -1524.14 0.
39.8196 -1578.53 0.
18.2195 -1632.92 0.
114.253 -1577.89 0.
154.19 -1488.79 0.
194.125 -1399.68 0.
-327.544 -1599.37 0.
-322.783 -1592.7 0.
-318.023 -1586.03 0.
568.635 -1166.67 0.
591.116 -1120.08 0.
286.228 -1215.01 0.
331.36 -1113.31 0.
376.493 -1011.61 0.
26.7531 -1123.98 0.
-3.61818 -1199.1 0.
-33.9897 -1274.22 0.
-77.2867 -1331.85 0.
-83.2534 -1349.02 0.
-89.2202 -1366.2 0.
170.399 -1157.28 0.
239.529 -999.75 0.
-1204.02 -1489.84 0.
133.727 -979.391 0.
100.62 -1056.81 0.
571.193 -908.436 0.
553.286 -952.635 0.
535.379 -996.834 0.
126.609 -1194.23 0.
122.893 -1202.13 0.
119.177 -1210.03 0.
49.1772 -1311.43 0.
-2.39191 -1430.34 0.
-53.9608 -1549.25 0.
377.851 -1274.23 0.
438.699 -1141.45 0.
420.089 -1057.72 0.
396.614 -1107.53 0.
373.138 -1157.34 0.
-45.8035 -1380.87 0.
-85.8343 -1469.37 0.
-125.865 -1557.86 0.
-230.044 -1681.57 0.
-273.645 -1786.58 0.
-317.246 -1891.6 0.
-168.274 -1874.24 0.
-183.528 -1912.01 0.
769.295 -1528.31 0.
22.0622 -1702.65 0.
99.4122 -1523.83 0.
243.097 -1351.23 0.
252.768 -1338.45 0.
262.439 -1325.67 0.
-156.213 -1550.71 0.
-211.887 -1684.95 0.
-267.562 -1819.2 0.
-452.365 -1744.2 0.
-303.829 -1398.88 0.
-155.293 -1053.56 0.
203.54 -766.777 0.
260.972 -632.075 0.
-189.061 -747.864 0.
-244.352 -873.612 0.
-299.643 -999.359 0.
-160.432 -964.448 0.
-97.9634 -818.509 0.
-35.4952 -672.571 0.
-123.935 -631.778 0.
-94.83 -562.958 0.
-65.7244 -494.139 0.
234.03 -491.961 0.
139.494 -712.382 0.
-396.748 -1198.19 0.
305.393 -839.534 0.
396.625 -627.004 0.
115.851 -628.886 0.
59.7789 -757.129 0.
3.70715 -885.371 0.
-220.765 -1088.28 0.
-283.245 -1232.71 0.
-345.725 -1377.14 0.
-185.519 -1355.52 0.
-189.062 -1364.77 0.
-192.605 -1374.01 0.
-450.819 -1313.48 0.
-346.868 -1074.45 0.
267.72 -654.979 0.
171.868 -877.385 0.
76.0146 -1099.79 0.
8.74578 -1210.35 0.
75.2139 -1056.41 0.
141.682 -902.481 0.
-263.191 -1061.1 0.
-303.182 -1159.74 0.
-343.174 -1258.38 0.
161.143 -1174.79 0.
85.8983 -1348.21 0.
999.697 -1097.52 0.
177.184 -1488.38 0.
150.516 -1546.21 0.
84.4168 -1576.75 0.
175.477 -1360.37 0.
266.537 -1144 0.
274.86 -1076.88 0.
236.318 -1162.1 0.
197.776 -1247.33 0.
-343.579 -1522.46 0.
-356.935 -1552.41 0.
-370.29 -1582.36 0.
370.341 -1253.49 0.
374.868 -1235.24 0.
327.294 -1221.12 0.
400.194 -1050.26 0.
473.093 -879.391 0.
-16.6184 -990.685 0.
-8.43246 -971.334 0.
-0.247225 -951.982 0.
186.856 -844.624 0.
213.329 -778.064 0.
239.802 -711.505 0.
349.146 -643.269 0.
354.041 -627.486 0.
357.549 -615.509 0.
93.1961 -878.58 0.
13.8245 -1061.68 0.
447.553 -969.125 0.
485.404 -881.354 0.
523.254 -793.583 0.
193.737 -929.343 0.
161.86 -1009.46 0.
129.983 -1089.57 0.
219.174 -1156.07 0.
155.531 -1299.48 0.
91.8884 -1442.89 0.
215.916 -1413.73 0.
206.417 -1431.65 0.
136.196 -1453.92 0.
238.53 -1217.53 0.
340.864 -981.147 0.
122.997 -981.2 0.
63.0848 -1122.9 0.
3.17234 -1264.59 0.
-52.3958 -1362.82 0.
-77.1049 -1414.85 0.
-101.813 -1466.88 0.
-4.87092 -1276.24 0.
100.555 -1037.28 0.
1466.47 -263.599 0.
347.209 -990.186 0.
216.064 -1293.66 0.
35.6918 -1559.22 0.
24.8137 -1577.41 0.
13.9365 -1595.6 0.
-268.59 -1643.1 0.
-172.652 -1417.04 0.
-76.7152 -1190.98 0.
-255.653 -1286.35 0.
-312.581 -1418.47 0.
-369.509 -1550.59 0.
77.9328 -1265.78 0.
138.546 -1123.11 0.
-342.121 -1222.31 0.
-301.923 -1131.61 0.
-261.725 -1040.91 0.
-172.604 -924.343 0.
-138.453 -845.565 0.
-104.302 -766.787 0.
-230.212 -810.456 0.
-243.524 -842.341 0.
-256.835 -874.227 0.
341.092 -524.068 0.
413.649 -358.429 0.
106.812 -951.829 0.
324.623 -804.111 0.
415.147 -590.3 0.
131.998 -588.62 0.
76.2003 -716.863 0.
20.4028 -845.106 0.
-246.677 -1069.14 0.
-309.15 -1213.67 0.
-371.622 -1358.2 0.
-100.463 -1286.07 0.
-103.677 -1295.66 0.
-106.891 -1305.24 0.
-610.586 -1353.23 0.
-506.763 -1114.19 0.
287.538 -610.865 0.
192.198 -833.271 0.
96.8581 -1055.68 0.
0.123926 -1184.52 0.
65.9716 -1029.21 0.
131.82 -873.904 0.
-125.656 -973.157 0.
-165.263 -1071.53 0.
-204.87 -1169.9 0.
164.1 -1140.69 0.
89.3957 -1314.54 0.
151.939 -1429.84 0.
15.0817 -1526.99 0.
-10.9383 -1585.5 0.
193.553 -1497.19 0.
285.234 -1281.58 0.
376.914 -1065.96 0.
66.8048 -1133.2 0.
28.9967 -1219.18 0.
-8.81139 -1305.15 0.
-183.647 -1423.69 0.
-197.097 -1453.94 0.
-210.547 -1484.19 0.
129.138 -1325.39 0.
134.922 -1307.79 0.
278.142 -1208.23 0.
351.592 -1038.38 0.
425.041 -868.536 0.
-114.754 -1003.38 0.
-105.494 -985.344 0.
-96.2354 -967.305 0.
155.713 -823.775 0.
183.34 -758.425 0.
210.966 -693.074 0.
655.221 -480.077 0.
661.554 -465.709 0.
-657.722 -1018.8 0.
139.814 -825.543 0.
59.9624 -1008.49 0.
153.68 -1065.66 0.
190.115 -977.047 0.
226.548 -888.435 0.
144.001 -921.153 0.
111.742 -1001.5 0.
79.4843 -1081.85 0.
321.415 -1079.67 0.
258.545 -1223.73 0.
195.677 -1367.78 0.
11.2309 -1469.81 0.
2.26459 -1488.06 0.
-63.1009 -1509.16 0.
38.3633 -1272.19 0.
139.827 -1035.22 0.
85.2249 -968.46 0.
24.2859 -1109.38 0.
-36.6537 -1250.3 0.
174.581 -1233.94 0.
148.772 -1285.32 0.
122.964 -1336.7 0.
41.3511 -1226.99 0.
145.227 -987.132 0.
958.838 -447.089 0.
231.808 -1006.61 0.
101.048 -1310.5 0.
-108.722 -1590.49 0.
-118.879 -1609.29 0.
-129.035 -1628.1 0.
-339.525 -1641.72 0.
-243.054 -1416.21 0.
-146.584 -1190.71 0.
-162.246 -1213.5 0.
-218.615 -1346.4 0.
-274.985 -1479.29 0.
53.7952 -1244.45 0.
114.841 -1101.72 0.
-79.8196 -1078.84 0.
-40.0911 -987.029 0.
-0.363315 -895.213 0.
-243.758 -923.813 0.
-209.598 -845.263 0.
-175.438 -766.711 0.
-135.131 -737.068 0.
-148.407 -769.68 0.
-161.684 -802.292 0.
366.033 -482.449 0.
437.997 -317.946 0.
519.102 -873.998 0.
955.734 681.227 0.
740.203 174.901 0.
247.583 -318.106 0.
-132.092 -1205.62 0.
635.078 582.618 0.
487.441 731.206 0.
-105.758 -656.72 0.
38.5472 -322.83 0.
484.821 -45.925 0.
253.945 -584.011 0.
906.991 940.819 0.
-69.5348 232.897 0.
-485.142 -735.726 0.
834.205 671.388 0.
958.93 961.442 0.
374.457 -403.857 0.
134.248 -824.24 0.
423.504 -146.337 0.
303.508 -423.318 0.
23.1412 -863.591 0.
309.304 -196.163 0.
440.358 109.388 0.
624.472 -45.8688 0.
598.038 -110.405 0.
134.157 -698.597 0.
165.826 -839.225 0.
740.182 502.405 0.
921.138 34.1858 0.
608.298 -693.938 0.
847.874 -132.603 0.
483.132 253.108 0.
102.821 -634.679 0.
592.635 508.007 0.
522.218 -47.888 0.
132.791 -956.391 0.
457.077 -199.628 0.
616.439 305.435 0.
48.9766 -1013.9 0.
504.003 -564.745 0.
576.584 -393.309 0.
420.39 -755.618 0.
-131.67 -849.914 0.
334.965 238.767 0.
557.074 757.384 0.
382.648 -202.386 0.
381.329 -208.43 0.
335.266 -318.376 0.
1008.96 -196.767 0.
1395.35 705.78 0.
668.436 413.244 0.
552.696 71.0824 0.
431.81 -204.501 0.
299.286 -140.695 0.
-106.101 -1080.85 0.
234.878 -278.981 0.
219.588 -635.207 0.
678.898 437.963 0.
961.831 1099.39 0.
1007.04 361.402 0.
995.534 337.477 0.
1019.56 395.544 0.
582.811 277.86 0.
473.84 28.1103 0.
647.173 551.204 0.
227.261 -423.23 0.
162.486 -569.652 0.
97.1584 -840.427 0.
200.323 -600.444 0.
255.831 -471.66 0.
874.691 24.3458 0.
921.886 135.771 0.
476.469 -903.324 0.
737.039 327.105 0.
443.954 -352.712 0.
458.682 209.983 0.
682.502 291.179 0.
52.5782 -1174.45 0.
708.655 621.796 0.
183.901 -603.802 0.
258.708 -430.085 0.
-267.852 -1305.62 0.
76.3138 -507.642 0.
114.426 -423.171 0.
372.905 -102.48 0.
239.478 -412.084 0.
177.553 -554.614 0.
823.459 623.424 0.
666.148 256.149 0.
286.318 -683.254 0.
711.325 313.169 0.
416.783 -370.171 0.
-189.976 -627.269 0.
-153.866 -540.065 0.
-133.493 -490.169 0.
78.4725 -390.931 0.
-94.2676 -794.634 0.
73.9369 -400.486 0.
454.271 -276.04 0.
716.929 338.871 0.
132.697 -989.353 0.
367.125 -826.394 0.
345.831 -877.795 0.
-158.466 -1107.18 0.
-86.8732 -940.223 0.
-15.2803 -773.264 0.
-69.0783 -717.849 0.
-67.4556 -717.878 0.
-65.8329 -717.906 0.
73.4719 -654.009 0.
85.4138 -625.375 0.
97.3555 -596.741 0.
-263.042 -806.674 0.
-306.972 -904.805 0.
87.0311 -810.865 0.
109.505 -758.062 0.
131.979 -705.258 0.
132.569 -725.119 0.
42.4093 -937.424 0.
-47.7497 -1149.73 0.
-3.21981 -1215.49 0.
-18.0937 -1245.59 0.
-32.9673 -1275.68 0.
-150.785 -1336.05 0.
-146.286 -1328.05 0.
268.541 -1143.14 0.
15.2955 -1111.57 0.
86.8393 -942.516 0.
522.176 -678.449 0.
442.898 -863.469 0.
363.62 -1048.49 0.
-176.152 -1284.72 0.
-74.4055 -1049.11 0.
27.3417 -813.499 0.
233.079 -687.613 0.
201.973 -756.551 0.
170.867 -825.488 0.
253.805 -813.922 0.
239.284 -840.598 0.
192.667 -884.828 0.
172.513 -931.963 0.
152.358 -979.098 0.
-327.298 -1176.8 0.
-273.707 -1050.88 0.
-220.117 -924.965 0.
172.622 -672.989 0.
214.151 -581.869 0.
255.681 -490.749 0.
871.941 -311.97 0.
799.418 -475.049 0.
-432.272 -1134.32 0.
308.342 -816.741 0.
306.913 -817.932 0.
-164.749 -1006.37 0.
-125.941 -914.579 0.
-87.1348 -822.789 0.
173.116 -727.872 0.
100.654 -891.677 0.
28.1926 -1055.48 0.
88.0566 -1086.18 0.
75.4444 -1113.33 0.
62.8311 -1140.47 0.
-0.742852 -1201.74 0.
-15.1413 -1240.78 0.
-198.986 -1357.72 0.
-252.069 -1481.7 0.
-305.152 -1605.68 0.
-130.234 -1537.91 0.
-31.6988 -1309.14 0.
66.8364 -1080.38 0.
364.318 -932.633 0.
304.444 -1073.01 0.
244.569 -1213.39 0.
121.965 -1324.34 0.
100.52 -1373.56 0.
571.002 -1211.68 0.
-52.4401 -1320.36 0.
29.3129 -1126.76 0.
-77.39 -1074.88 0.
-127.852 -1189.6 0.
-178.313 -1304.31 0.
-223.192 -1297.07 0.
-137.478 -1098.66 0.
-51.7644 -900.251 0.
-89.9138 -900.375 0.
-114.876 -961.015 0.
-139.839 -1021.65 0.
309.11 -790.936 0.
336.66 -728.721 0.
-26.9563 -843.914 0.
-53.1784 -902.683 0.
-79.4023 -961.453 0.
-372.16 -1107.25 0.
-361.132 -1082.26 0.
-350.105 -1057.28 0.
-52.8922 -805.443 0.
56.9987 -548.204 0.
166.889 -290.966 0.
361.859 -102.503 0.
396.958 -18.0309 0.
-264.179 -1131.21 0.
452.452 -759.558 0.
430.883 -810.306 0.
-222.74 -1102.36 0.
-151.504 -934.762 0.
-80.2669 -767.162 0.
26.3125 -645.134 0.
28.0142 -645.525 0.
29.7156 -645.915 0.
-95.2526 -696.738 0.
-83.3714 -667.943 0.
-71.4903 -639.147 0.
58.1129 -637.462 0.
14.4692 -735.586 0.
-38.9128 -836.096 0.
-17.1673 -782.577 0.
4.5785 -729.057 0.
99.9121 -706.855 0.
9.90984 -919.587 0.
-80.0923 -1132.32 0.
166.784 -1111.13 0.
152.336 -1141.57 0.
137.888 -1172 0.
-404.336 -1411.01 0.
-400.002 -1403.09 0.
279.892 -1104.55 0.
-11.1989 -1090.22 0.
60.8598 -921.309 0.
424.718 -690.15 0.
344.721 -874.109 0.
264.725 -1058.07 0.
-159.221 -1246.06 0.
-57.5836 -1010.23 0.
44.0536 -774.396 0.
233.217 -655.934 0.
202.607 -725.416 0.
171.997 -794.898 0.
412.798 -714.03 0.
397.763 -739.827 0.
-4.91005 -939.736 0.
-24.7374 -986.964 0.
-44.5658 -1034.19 0.
-376.482 -1169.41 0.
-322.67 -1043.63 0.
-268.858 -917.843 0.
174.58 -639.111 0.
216.455 -548.777 0.
258.33 -458.443 0.
781.067 -318.403 0.
708.768 -481.802 0.
-2520.43 -1996.8 0.
490.532 -706.206 0.
488.488 -706.977 0.
-255.187 -1015.38 0.
-216.791 -923.693 0.
-178.396 -832.007 0.
178.278 -693.785 0.
105.317 -857.808 0.
32.3561 -1021.83 0.
-263.682 -1207.48 0.
-276.706 -1233.95 0.
-289.73 -1260.42 0.
78.7772 -1136.19 0.
65.0421 -1175.91 0.
-211.219 -1329.9 0.
-263.63 -1454.51 0.
-316.042 -1579.13 0.
-26.8545 -1461 0.
72.3128 -1232.67 0.
171.481 -1004.33 0.
260.279 -947.211 0.
199.728 -1086.78 0.
139.176 -1226.35 0.
259.391 -1232.28 0.
238.549 -1282.13 0.
1117.05 -946.185 0.
-89.0418 -1305.47 0.
-6.59504 -1112.7 0.
-135.707 -1067.37 0.
-186.171 -1181.82 0.
-236.634 -1296.27 0.
-157.35 -1239.98 0.
-71.4197 -1041.54 0.
14.5106 -843.094 0.
-216.651 -920.315 0.
-241.178 -981.545 0.
-265.705 -1042.78 0.
441.551 -700.831 0.
469.231 -638.321 0.
-313.378 -936.16 0.
-339.651 -994.954 0.
-365.926 -1053.75 0.
-322.351 -1053.55 0.
-311.839 -1028.43 0.
-301.329 -1003.31 0.
19.5908 -744.317 0.
129.411 -487.526 0.
239.23 -230.736 0.
172.221 -153.381 0.
207.056 -69.1444 0.
-179.789 -724.396 0.
453.625 -624.82 0.
386.406 -779.14 0.
-212.833 -1091.46 0.
-123.408 -885.593 0.
-33.9823 -679.723 0.
42.323 -547.961 0.
56.9786 -514.148 0.
71.6331 -480.334 0.
-66.7636 -558.685 0.
-95.8416 -626.987 0.
-124.919 -695.289 0.
107.286 -751.323 0.
24.8255 -945.063 0.
-179.795 -1151.55 0.
-94.1561 -950.575 0.
-8.51613 -749.598 0.
99.9789 -643.011 0.
1.75906 -866.064 0.
-96.4603 -1089.12 0.
103.862 -1048.96 0.
142.603 -958.823 0.
181.344 -868.687 0.
-307.413 -1065.41 0.
-312.611 -1075.94 0.
231.38 -851.018 0.
118.043 -929.34 0.
102.002 -966.551 0.
133.346 -982.56 0.
143.153 -962.94 0.
152.959 -943.319 0.
-12.7328 -1024.03 0.
-43.1938 -1094.21 0.
-73.654 -1164.39 0.
-16.6084 -1063.9 0.
66.1987 -870.937 0.
149.006 -677.974 0.
401.119 -647.922 0.
341.388 -790.433 0.
-74.1767 -1071.39 0.
-54.6124 -1022.27 0.
-35.0486 -973.159 0.
-335.587 -1005.48 0.
-224.808 -746.994 0.
-114.028 -488.509 0.
174.171 -426.101 0.
29.3762 -760.047 0.
-115.418 -1093.99 0.
572.405 -772.642 0.
631.732 -635.882 0.
-2037.89 -1669.49 0.
668.765 -323.188 0.
768.879 -94.1935 0.
66.7864 -286.769 0.
-8.09363 -469.73 0.
-82.9757 -652.693 0.
-2.33067 -695.96 0.
1.00458 -693.744 0.
4.33993 -691.527 0.
-187.607 -791.612 0.
-204.221 -834.964 0.
-220.836 -878.317 0.
295.717 -683.931 0.
276.588 -721.249 0.
-62.8893 -890.744 0.
-41.7548 -838.805 0.
-20.6205 -786.866 0.
412.522 -645.646 0.
297.186 -916.932 0.
181.85 -1188.22 0.
8.53519 -1270.49 0.
91.8882 -1079.11 0.
175.242 -887.723 0.
349.621 -869.376 0.
293.228 -1004.21 0.
-118.065 -1280.84 0.
-51.6989 -1191.8 0.
-20.2532 -1118.11 0.
-119.002 -1110.32 0.
-98.6928 -1063.94 0.
-78.3828 -1017.56 0.
-29.731 -910.677 0.
36.5832 -754.139 0.
102.897 -597.601 0.
-112.015 -713.905 0.
-156.217 -812.407 0.
-200.419 -910.908 0.
349.378 -735.979 0.
317.145 -812.345 0.
-452.908 -1164.82 0.
-338.38 -899.646 0.
-223.853 -634.474 0.
-39.8748 -463.633 0.
-109.943 -623.742 0.
-180.011 -783.85 0.
-73.7542 -793.437 0.
-75.9339 -799.617 0.
-78.1132 -805.798 0.
-220.77 -991.682 0.
-298.456 -1171.41 0.
78.1313 -586.417 0.
248.781 -681.848 0.
182.174 -836.329 0.
-100.739 -1010.85 0.
-10.9662 -805.153 0.
78.8061 -599.455 0.
-76.8273 -564.891 0.
-61.4631 -531.992 0.
-46.0999 -499.092 0.
49.2621 -478.169 0.
19.8491 -546.411 0.
-9.56329 -614.654 0.
69.9004 -735.587 0.
-12.3583 -929.058 0.
-34.7232 -1058.81 0.
49.9232 -856.934 0.
134.57 -655.058 0.
82.2652 -622.261 0.
-16.1947 -844.812 0.
-114.654 -1067.36 0.
-245.313 -1166.48 0.
-206.458 -1076.59 0.
-167.603 -986.697 0.
-136.291 -960.996 0.
-141.214 -972.104 0.
-35.0843 -934.99 0.
334.605 -804.388 0.
318.623 -841.582 0.
-141.419 -1068.98 0.
-130.857 -1049.73 0.
-120.297 -1030.48 0.
139.149 -927.383 0.
108.906 -998.085 0.
78.6644 -1068.79 0.
-178.732 -1102.42 0.
-95.8545 -909.741 0.
-12.9773 -717.065 0.
175.986 -713.579 0.
115.904 -855.406 0.
118.433 -957.91 0.
138.604 -908.607 0.
158.774 -859.305 0.
-333.063 -975.134 0.
-222.595 -716.402 0.
-112.126 -457.671 0.
-25.9257 -479.66 0.
-169.523 -814.979 0.
-313.12 -1150.3 0.
662.33 -702.093 0.
721.636 -565.064 0.
-2360.8 -1775.35 0.
553.568 -340.698 0.
653.449 -111.333 0.
230.504 -185.545 0.
154.425 -367.434 0.
78.344 -549.325 0.
-403.809 -839.679 0.
-401.336 -836.636 0.
-398.863 -833.591 0.
-40.894 -699.21 0.
-58.8714 -741.432 0.
-76.8498 -783.654 0.
305.62 -650.44 0.
286.7 -688.067 0.
-120.311 -882.709 0.
-99.5458 -830.167 0.
-78.7807 -777.625 0.
557.743 -554.009 0.
441.241 -824.262 0.
324.738 -1094.51 0.
-134.76 -1301.03 0.
-51.269 -1109.51 0.
32.2224 -917.983 0.
94.3737 -946.651 0.
37.2897 -1080.73 0.
16.5726 -1194.2 0.
-11.6479 -1145.38 0.
19.6076 -1071.55 0.
60.2881 -1002.37 0.
80.1338 -955.294 0.
99.9802 -908.215 0.
-91.2296 -907.336 0.
-24.6039 -750.843 0.
42.0216 -594.351 0.
77.2621 -598.28 0.
33.3644 -697.543 0.
-10.5331 -796.807 0.
71.8957 -824.004 0.
39.2631 -900.138 0.
-231.526 -1040.1 0.
-117.058 -774.672 0.
-2.58925 -509.244 0.
-1.2654 -414.552 0.
-71.5029 -574.516 0.
-141.74 -734.48 0.
-289.396 -855.926 0.
-291.008 -862.743 0.
-292.62 -869.561 0.
-87.4167 -903.082 0.
-164.704 -1083.18 0.
389.26 -617.036 0.
221.014 -300.881 0.
-277.167 -1461.93 0.
-248.641 -1548.24 0.
715.901 707.322 0.
655.262 570.677 0.
283.39 526.621 0.
-73.0885 -303.515 0.
-100.817 -366.306 0.
575.882 572.461 0.
302.893 -65.237 0.
301.166 -70.5194 0.
229.585 -264.643 0.
-204.866 -1279.03 0.
605.675 204.278 0.
635.297 272.194 0.
513.388 -12.3726 0.
463.233 331.239 0.
551.778 539.746 0.
481.203 376.851 0.
-227.727 -433.082 0.
-171.25 -304.572 0.
-265.774 -528.706 0.
471.619 151.915 0.
272.571 -310.268 0.
1045.53 -112.624 0.
541.486 -694.259 0.
803.547 -83.2518 0.
-57.2896 -328.392 0.
-324.565 -955.933 0.
-636.089 -1685.7 0.
660.939 31.5688 0.
773.657 297.592 0.
305.831 -790.685 0.
65.0086 -204.507 0.
674.847 1221.46 0.
423.184 637.039 0.
739.291 1058.56 0.
120.482 -392.827 0.
491.709 -426.857 0.
251.127 -990.059 0.
566.404 -256.534 0.
70.7088 -12.7818 0.
97.954 53.1315 0.
-74.4211 -346.668 0.
-35.3567 -94.7376 0.
116.796 263.5 0.
35.9174 78.1304 0.
1193.85 384.698 0.
1169.59 325.927 0.
-4496.33 -1028.24 0.
1000.27 972.038 0.
811.809 528.123 0.
427.849 -0.489262 0.
435.933 12.8074 0.
265.748 -390.045 0.
-776.804 -910.364 0.
-766.71 -887.857 0.
-343.53 98.6224 0.
914.408 1272.48 0.
545.848 408.837 0.
-363.143 -1715.68 0.
9.94936 -1328.66 0.
457.98 -277.409 0.
252.992 135.053 0.
-41.0616 -548.922 0.
227.145 79.32 0.
793 -243.51 0.
451.55 -1038.83 0.
755.507 -328.21 0.
10.8544 -661.462 0.
453.967 373.173 0.
317.047 53.2006 0.
234.152 -106.476 0.
490.291 499.435 0.
104.175 -84.8969 0.
631.457 305.551 0.
268.841 -541.316 0.
660.844 87.9223 0.
603.174 -50.0166 0.
438.119 -438.347 0.
-118.128 -825.496 0.
-7.01595 -559.643 0.
246.144 38.6327 0.
899.427 997.558 0.
531.033 133.779 0.
-39.4761 -1200.91 0.
22.0298 -378.225 0.
387.761 478.684 0.
142.578 -558.394 0.
676.531 687.297 0.
347.505 -80.627 0.
-53.3556 -573.426 0.
85.6999 -245.504 0.
-13.3677 -474.386 0.
-395.074 -680.863 0.
-66.6203 89.7071 0.
-266.491 -373.032 0.
873.065 1107.4 0.
216.966 -427.202 0.
62.1058 -1000.31 0.
-235.416 -935.49 0.
-144.846 -721.544 0.
206.856 -466.765 0.
150.359 -596.633 0.
93.8601 -726.499 0.
-86.1533 -779.92 0.
5.13017 -565.968 0.
96.4136 -352.016 0.
48.9197 -361.016 0.
14.9289 -441.3 0.
-19.0616 -521.585 0.
273.809 -469.101 0.
234.938 -560.932 0.
88.9813 -701.913 0.
37.0301 -827.799 0.
-14.9209 -953.686 0.
-243.152 -1071.59 0.
-164.18 -889.817 0.
-85.2093 -708.046 0.
-260.172 -666.315 0.
-217.556 -569.594 0.
-174.938 -472.872 0.
266.294 -410.209 0.
173.978 -625.509 0.
427.584 -692.759 0.
486.555 -502.352 0.
577.143 -291.943 0.
-30.0196 -435.653 0.
-98.7682 -595.44 0.
-167.516 -755.227 0.
113.475 -760.047 0.
65.806 -872.017 0.
18.1357 -983.987 0.
-196.667 -1014.75 0.
-132.17 -861.021 0.
-67.6724 -707.293 0.
122.726 -580.859 0.
145.324 -532.716 0.
352.064 -417.659 0.
315.997 -503.469 0.
279.929 -589.278 0.
-184.349 -853.776 0.
-218.253 -932.869 0.
-252.157 -1011.96 0.
-329.678 -985.331 0.
-248.482 -791.574 0.
-167.286 -597.818 0.
745.22 -103.72 0.
793.031 7.21923 0.
-3905.25 -1917.5 0.
593.591 -100.078 0.
536.29 -234.767 0.
-103.475 -567.04 0.
-44.3828 -431.081 0.
14.7113 -295.12 0.
-123.657 -338.864 0.
-172.518 -452.681 0.
-221.377 -566.497 0.
-115.963 -639.398 0.
-180.366 -792.665 0.
-244.769 -945.934 0.
-83.0672 -912.838 0.
-99.9679 -951.153 0.
41.7686 -912.398 0.
72.5114 -840.921 0.
103.254 -769.445 0.
462.841 -626.692 0.
380.905 -819.36 0.
298.969 -1012.03 0.
-385.104 -1296.02 0.
-312.565 -1123.33 0.
-240.027 -950.645 0.
-27.0643 -936.992 0.
-105.204 -1114.07 0.
621.682 -944.813 0.
23.0372 -1109.29 0.
72.267 -994.557 0.
42.6992 -901.725 0.
131.898 -698.542 0.
221.097 -495.358 0.
-22.3775 -609.184 0.
-133.338 -866.201 0.
-244.299 -1123.22 0.
64.0589 -854.858 0.
218.744 -497.066 0.
373.429 -139.272 0.
71.9954 -483.911 0.
-68.1059 -809.719 0.
-190.769 -1083.1 0.
-159.182 -1007.87 0.
-127.595 -932.641 0.
-138.995 -850.576 0.
-64.4527 -676.017 0.
10.0897 -501.458 0.
-92.8529 -529.678 0.
-134.221 -624.76 0.
-175.588 -719.842 0.
20.2466 -818.431 0.
-88.6083 -1073.38 0.
537.295 -770.735 0.
-445.055 -996.225 0.
-354.652 -782.085 0.
215.171 -430.739 0.
159.922 -561.678 0.
104.672 -692.616 0.
163.445 -639.969 0.
255.675 -426.421 0.
347.906 -212.872 0.
-90.2866 -387.67 0.
-124.275 -467.66 0.
-158.262 -547.65 0.
452.317 -360.43 0.
413.343 -452.266 0.
-51.7804 -732.27 0.
-104.577 -857.648 0.
-157.373 -983.027 0.
-351.492 -1087.45 0.
-272.823 -905.807 0.
-194.154 -724.167 0.
-161.724 -592.152 0.
-118.936 -495.634 0.
-76.148 -399.114 0.
328.774 -353.081 0.
236.672 -568.143 0.
-362.487 -1000.85 0.
328.289 -539.913 0.
419.258 -329.861 0.
76.2757 -358.997 0.
7.98179 -519.107 0.
-60.3118 -679.216 0.
-132.543 -834.693 0.
-180.23 -946.156 0.
-227.92 -1057.62 0.
-69.6933 -929.258 0.
-4.89743 -776.42 0.
59.8985 -623.582 0.
243.389 -497.103 0.
265.37 -448.815 0.
190.086 -456.907 0.
154.072 -542.839 0.
118.058 -628.772 0.
-34.2353 -758.628 0.
-68.249 -838.041 0.
-102.263 -917.454 0.
-208.662 -901.781 0.
-127.313 -708.708 0.
-45.9637 -515.635 0.
463.574 -192.916 0.
511.583 -82.1558 0.
-3767.89 -1826.27 0.
676.07 -32.0466 0.
618.955 -166.945 0.
-444.392 -682.96 0.
-385.647 -546.913 0.
-326.899 -410.865 0.
399.24 -83.1557 0.
350.247 -197.551 0.
301.254 -311.946 0.
-360.759 -711.473 0.
-424.808 -865.132 0.
-488.858 -1018.79 0.
-399.936 -1017.11 0.
-416.481 -1055.99 0.
346.124 -750.456 0.
376.932 -679.215 0.
407.741 -607.975 0.
279.585 -673.321 0.
197.448 -866.41 0.
115.312 -1059.5 0.
-521.779 -1323.39 0.
-449.303 -1151.6 0.
-376.828 -979.805 0.
103.908 -849.012 0.
25.8297 -1026.46 0.
622.296 -914.205 0.
35.4198 -1072.25 0.
84.5339 -956.954 0.
-180.994 -968.759 0.
-91.6473 -764.888 0.
-2.30009 -561.017 0.
1.52514 -567.809 0.
-109.267 -824.338 0.
-220.06 -1080.87 0.
28.5273 -839.995 0.
183.01 -482.055 0.
337.493 -124.115 0.
207.808 -393.03 0.
68.5922 -719.764 0.
-313.501 -1102.8 0.
-281.609 -1028.19 0.
-249.715 -953.585 0.
-79.8491 -794.4 0.
-5.40675 -619.98 0.
69.0354 -445.56 0.
216.964 -364.642 0.
175.808 -460.101 0.
134.653 -555.559 0.
2.47098 -796.577 0.
-106.671 -1050.98 0.
80.6807 -587.159 0.
-262.599 -612.319 0.
-213.157 -498.646 0.
224.074 -265.409 0.
150.541 -431.754 0.
77.0097 -598.097 0.
173.062 -674.317 0.
121.472 -791.427 0.
69.882 -908.538 0.
-340.308 -1015.96 0.
-260.86 -826.94 0.
-181.413 -637.919 0.
366.115 -444.338 0.
334.47 -521.823 0.
-129.235 -776.152 0.
-137.335 -796.564 0.
-145.435 -816.975 0.
-238.555 -885.325 0.
-255.032 -924.577 0.
-271.507 -963.83 0.
-310.562 -1048.35 0.
-357.431 -1156.14 0.
-404.3 -1263.93 0.
114.412 -870.31 0.
236.61 -584.46 0.
515.526 -229.827 0.
79.5799 -625.392 0.
-35.0434 -887.307 0.
-152.759 -1070.97 0.
-84.3308 -909.805 0.
-15.9024 -748.644 0.
-203.254 -697.559 0.
-128.167 -521.848 0.
-53.0805 -346.138 0.
149.493 -394.77 0.
5.49153 -732.914 0.
-138.51 -1071.06 0.
54.7779 -906.132 0.
122.422 -748.028 0.
32.776 -672.088 0.
39.7385 -653.434 0.
46.701 -634.78 0.
83.1543 -626.36 0.
61.396 -679.531 0.
39.6379 -732.703 0.
-51.1359 -773.912 0.
-31.5399 -727.861 0.
-11.9433 -681.811 0.
61.8937 -799.778 0.
-38.7105 -1037.4 0.
-247.844 -1320.34 0.
266.674 -794.114 0.
426.278 -420.15 0.
-449.024 -588.615 0.
-519.973 -753.049 0.
-590.922 -917.484 0.
244.817 -641.376 0.
235.255 -663.943 0.
225.693 -686.51 0.
-501.114 -939.148 0.
-452.323 -823.474 0.
-403.533 -707.801 0.
-222.3 -543.779 0.
-173.756 -430.552 0.
663.342 -14.1012 0.
535.574 -313.005 0.
407.804 -611.909 0.
180.569 -727.54 0.
414.822 -181.017 0.
649.075 365.505 0.
23.457 54.8578 0.
-206.796 -486.58 0.
-437.05 -1028.02 0.
97.2132 -881.296 0.
112.38 -849.108 0.
196.471 -787.523 0.
13.6742 -833.708 0.
32.5287 -793.114 0.
-153.279 -838.719 0.
-139.396 -806.24 0.
-125.513 -773.76 0.
-127.737 -784.883 0.
-150.701 -841.886 0.
-173.665 -898.889 0.
16.2409 -815.041 0.
28.8552 -784.343 0.
41.4698 -753.645 0.
205.667 -539.75 0.
286.667 -347.345 0.
-49.0832 -369.533 0.
-121.241 -542.983 0.
-193.401 -716.433 0.
25.7515 -690.564 0.
73.438 -583.5 0.
121.125 -476.435 0.
164.578 -455.678 0.
130.715 -536.728 0.
96.8526 -617.779 0.
-16.6694 -653.836 0.
1.35676 -614.406 0.
269.912 -478.937 0.
5.49029 -467.475 0.
54.3887 -352.788 0.
78.1371 -297.535 0.
4.94588 -464.083 0.
-68.2445 -630.63 0.
17.6789 -708.604 0.
-33.5529 -826.033 0.
-84.7845 -943.463 0.
-130.672 -894.701 0.
-49.9142 -707.037 0.
30.842 -519.372 0.
109.466 -521.486 0.
78.2744 -599.642 0.
-104.585 -734.304 0.
-112.4 -754.86 0.
-120.214 -775.415 0.
-30.5828 -763.479 0.
-47.0115 -803.25 0.
-63.4394 -843.021 0.
-265.724 -998.427 0.
-312.616 -1105.98 0.
-359.508 -1213.53 0.
93.9028 -846.15 0.
215.941 -559.883 0.
1091.78 51.4584 0.
-243.487 -733.849 0.
-357.625 -996.002 0.
-59.1695 -999.047 0.
9.87901 -838.19 0.
78.9277 -677.333 0.
-238.109 -681.717 0.
-163.178 -506.046 0.
-88.2467 -330.376 0.
27.2634 -417.301 0.
-117.201 -755.183 0.
-261.665 -1093.07 0.
-61.0986 -924.283 0.
6.81199 -766.645 0.
58.0122 -628.525 0.
65.5171 -610.581 0.
73.0221 -592.637 0.
106.921 -584.679 0.
85.2437 -638.713 0.
63.5668 -692.748 0.
117.305 -669.145 0.
136.51 -623.033 0.
155.716 -576.921 0.
51.3009 -772.897 0.
-49.6502 -1010.36 0.
-1170.3 -1683.92 0.
-19.3488 -885.453 0.
139.968 -511.802 0.
-168.094 -438.196 0.
-239.25 -602.947 0.
-310.406 -767.698 0.
-54.7514 -736.557 0.
-64.071 -759.536 0.
-73.3906 -782.514 0.
-329.706 -833.534 0.
-279.824 -718.398 0.
-229.941 -603.263 0.
75.8308 -384.661 0.
124.746 -271.868 0.
386.915 -100.22 0.
259.318 -399.27 0.
131.721 -698.321 0.
206.669 -684.901 0.
440.357 -138.198 0.
674.045 408.504 0.
86.8667 112.673 0.
-144.057 -429.05 0.
-374.982 -970.774 0.
23.217 -882.858 0.
37.7634 -850.635 0.
385.972 -673.185 0.
-269.395 -921.962 0.
-250.551 -881.666 0.
32.2231 -729.013 0.
46.1239 -696.533 0.
60.0251 -664.052 0.
-204.293 -783.974 0.
-226.979 -840.965 0.
-249.664 -897.957 0.
29.3966 -777.546 0.
42.5998 -747.052 0.
55.8033 -716.559 0.
249.469 -487.587 0.
330.502 -295.058 0.
-1.48417 -317.193 0.
-74.0719 -490.311 0.
-146.661 -663.429 0.
155.416 -606.066 0.
202.67 -498.444 0.
249.924 -390.821 0.
-140.392 -554.926 0.
-173.896 -636.182 0.
-207.399 -717.438 0.
-166.092 -688.144 0.
-147.756 -649.342 0.
-427.535 140.008 0.
33.6333 -873.351 0.
611.017 466.487 0.
26.2239 -104.154 0.
-186.092 -597.783 0.
18.4206 -118.488 0.
-447.454 -1474.29 0.
143.824 -91.2506 0.
-229.448 -958.037 0.
506.582 227.757 0.
455.348 109.997 0.
536.205 300.646 0.
317.367 473.247 0.
237.986 291.314 0.
42.3843 -406.211 0.
358.168 329.868 0.
-34.9519 -587.857 0.
140.664 -738.991 0.
245.055 -492.808 0.
502.328 109.045 0.
197.47 34.8325 0.
44.0351 -325.809 0.
-294.901 -1118.96 0.
-233.403 -1529.2 0.
210.572 -492.022 0.
122.541 -276.383 0.
-338.425 -315.851 0.
-363.783 -372.354 0.
159.566 -638.561 0.
364.859 -161.417 0.
213.719 -515.405 0.
11.5846 -6.08502 0.
-258.022 -635.516 0.
-411.323 -993.305 0.
60.554 -87.9265 0.
-69.0506 -392.259 0.
-466.165 -1320.02 0.
25.2229 -470.497 0.
-172.223 -933.525 0.
131.964 -461.97 0.
204.947 -295.496 0.
179.103 -359.383 0.
351.596 -27.9381 0.
292.286 -170.156 0.
74.1806 -682.534 0.
423.003 -244.429 0.
674.163 340.001 0.
193.034 -784.238 0.
425.353 158.725 0.
626.095 622.665 0.
-23.6418 -19.9318 0.
225.055 274.973 0.
-3.90339 -260.137 0.
-67.8253 -719.002 0.
75.851 -383.902 0.
304.928 151.246 0.
188.833 444.417 0.
197.605 461.919 0.
-237.548 -556.239 0.
-383.732 -1252.58 0.
-19.8117 -406.357 0.
113.456 -99.1072 0.
472.623 -4.81345 0.
600.378 289.132 0.
335.426 344.294 0.
41.386 -346.508 0.
49.625 -330.559 0.
591.699 197.151 0.
639.83 312.59 0.
577.377 170.435 0.
-308.914 -907.021 0.
320.856 563.924 0.
523.429 1038.74 0.
-199.028 -1234.46 0.
225.392 -236.78 0.
-212.779 280.602 0.
-75.8317 99.3182 0.
-538.894 -978.735 0.
616.451 326.845 0.
695.073 503.079 0.
630.231 345.078 0.
12.8742 -89.8874 0.
326.533 639.927 0.
-85.672 -324.037 0.
396.971 86.7248 0.
660.628 701.842 0.
248.676 -261.182 0.
251.437 -531.037 0.
85.4529 -915.835 0.
-314.318 -1107.3 0.
34.5864 -291.312 0.
240.235 190.294 0.
207.975 -699.066 0.
308.17 -465.498 0.
731.261 521.455 0.
270.566 1002.2 0.
-68.8026 213.411 0.
50.6548 494.175 0.
-1.39413 -6.49074 0.
135.071 308.123 0.
-496.742 -709.678 0.
-24.8152 -671.282 0.
-73.5062 -788.448 0.
-297.58 -935.338 0.
-239.76 -799.953 0.
-181.941 -664.569 0.
-93.0335 -533.418 0.
-56.6644 -446.911 0.
-20.2957 -360.403 0.
253.76 -305.924 0.
180.371 -473.795 0.
106.982 -641.665 0.
-275.062 -803.769 0.
-266.847 -780.027 0.
37.1003 -648.077 0.
-2.11338 -738.913 0.
-41.3277 -829.748 0.
74.5846 -786.204 0.
136.073 -637.48 0.
197.562 -488.756 0.
-127.005 -585.217 0.
-142.517 -621.287 0.
-158.03 -657.358 0.
64.273 -503.2 0.
115.244 -383.969 0.
-95.423 -376.617 0.
-292.65 -519.177 0.
-329.794 -606.116 0.
203.908 -439.756 0.
203.27 -442.057 0.
202.632 -444.359 0.
-248.964 -677.831 0.
-294.269 -785.798 0.
-339.574 -893.764 0.
-70.9141 -688.457 0.
22.4495 -470.293 0.
115.814 -252.13 0.
-51.0316 -456.902 0.
-141.586 -668.666 0.
-107.65 -790.664 0.
-26.1718 -597.748 0.
55.3057 -404.831 0.
387.806 -205.821 0.
309.175 -388.173 0.
230.544 -570.525 0.
64.961 -688.249 0.
87.2942 -640.432 0.
109.628 -592.615 0.
206.752 -254.67 0.
399.743 192.766 0.
-2136.05 -531.402 0.
41.2182 -89.4695 0.
-214.923 -690.574 0.
-315.583 -1099.6 0.
-274.353 -1003.04 0.
-233.123 -906.472 0.
-79.7294 -725.533 0.
7.91215 -519.143 0.
95.5539 -312.753 0.
104.986 -254.623 0.
100.225 -261.914 0.
95.4629 -269.205 0.
-14.8476 -413.148 0.
-68.7927 -539.921 0.
43.7047 -572.079 0.
90.9797 -466.026 0.
138.255 -359.972 0.
202.73 -345.951 0.
96.1345 -596.962 0.
-10.4616 -847.973 0.
-384.155 -990.154 0.
-272.992 -735.042 0.
-161.828 -479.929 0.
170.404 -285.574 0.
174.32 -278.353 0.
-19.538 -357.084 0.
-412.506 -558.943 0.
-431.707 -602.682 0.
279.599 -341.292 0.
252.136 -408.508 0.
224.673 -475.724 0.
-122.593 -653.509 0.
-118.261 -640.782 0.
-113.929 -628.054 0.
175.829 -538.95 0.
143.296 -613.558 0.
110.763 -688.165 0.
-55.9637 -811.527 0.
-83.3098 -873.839 0.
-206.321 -965.425 0.
-188.094 -923.492 0.
-169.866 -881.558 0.
-29.2134 -749.796 0.
46.4065 -576.569 0.
122.026 -403.342 0.
-103.082 -435.734 0.
-94.7924 -414.517 0.
-86.5021 -393.299 0.
-88.992 -547.808 0.
-195.035 -795.271 0.
885.02 -86.2379 0.
-189.181 -709.857 0.
-238.199 -826.47 0.
-239.848 -880.878 0.
-182.547 -745.091 0.
-125.246 -609.304 0.
-134.088 -519.371 0.
-97.4039 -433.229 0.
-60.7202 -347.087 0.
239.936 -280.85 0.
167.135 -449.932 0.
94.3331 -619.014 0.
-316.427 -788.044 0.
-307.44 -765.464 0.
175.44 -555.143 0.
136.682 -646.522 0.
97.9226 -737.901 0.
36.0439 -769.696 0.
97.6342 -621.001 0.
159.224 -472.308 0.
-184.867 -580.419 0.
-199.893 -617.015 0.
-214.919 -653.612 0.
-92.616 -538.724 0.
-40.3202 -419.979 0.
-773.748 -637.198 0.
-115.939 -411.38 0.
-152.32 -498.67 0.
172.562 -420.677 0.
172.405 -423.107 0.
172.248 -425.536 0.
-203.141 -627.397 0.
-248.764 -735.161 0.
-294.388 -842.925 0.
100.487 -585.755 0.
193.86 -367.789 0.
287.235 -149.824 0.
-137 -460.284 0.
-227.578 -672.612 0.
-217.987 -806.803 0.
-137.207 -614.116 0.
-56.4261 -421.428 0.
541.572 -109.101 0.
462.313 -291.729 0.
383.055 -474.357 0.
-123.52 -738.666 0.
-102.29 -690.11 0.
-81.0601 -641.553 0.
174.132 -237.164 0.
366.896 210.094 0.
-1048.21 -34.3375 0.
25.3634 -65.9473 0.
-230.848 -667.445 0.
-405.813 -1102.99 0.
-364.024 -1007.3 0.
-322.235 -911.608 0.
225.29 -565.286 0.
313.387 -359.326 0.
401.484 -153.366 0.
190.28 -185.988 0.
185.894 -193.418 0.
181.508 -200.848 0.
-384.474 -539.565 0.
-437.946 -667.074 0.
187.554 -477.437 0.
235.136 -372.296 0.
282.719 -267.155 0.
28.175 -388.202 0.
-78.2968 -639.926 0.
-184.769 -891.652 0.
-412.903 -970.049 0.
-301.575 -715.216 0.
-190.247 -460.383 0.
139.183 -269.435 0.
142.779 -262.21 0.
80.8699 -281.481 0.
-457.45 -545.491 0.
-476.488 -589.563 0.
233.438 -327.482 0.
206.511 -395.388 0.
179.583 -463.295 0.
21.373 -558.538 0.
25.7709 -545.73 0.
30.1688 -532.922 0.
249.355 -476.271 0.
216.956 -550.627 0.
184.558 -624.982 0.
-267.604 -870.907 0.
-294.221 -933.292 0.
-135.435 -902.509 0.
-116.252 -861.234 0.
-97.0678 -819.959 0.
-274.277 -822.496 0.
-198.544 -649.08 0.
-122.811 -475.664 0.
211.198 -269.135 0.
219.715 -248.114 0.
228.231 -227.094 0.
103.222 -435.395 0.
-3.72745 -682.576 0.
-270.875 -141.576 0.
-1.82573 -190.637 0.
-118.268 -461.122 0.
-105.115 -590.04 0.
-5.87707 -362.581 0.
93.3612 -135.122 0.
133.119 -65.7002 0.
63.701 -223.861 0.
-5.71698 -382.021 0.
63.4661 -413.646 0.
52.6739 -441.407 0.
41.8821 -469.168 0.
-245.933 -622.767 0.
-268.327 -672.291 0.
208.174 -505.696 0.
193.118 -540.146 0.
178.063 -574.596 0.
51.5938 -611.347 0.
117.438 -459.687 0.
183.282 -308.026 0.
-94.7096 -388.025 0.
-107.96 -418.627 0.
-121.21 -449.23 0.
-186.239 -447.381 0.
-166.867 -398.378 0.
-85.0213 -322.586 0.
4.15477 -341.667 0.
-29.089 -411.619 0.
144.451 -375.811 0.
130.288 -406.531 0.
116.125 -437.253 0.
-74.3515 -544.191 0.
-81.1594 -556.826 0.
-87.9678 -569.461 0.
115.586 -530.385 0.
76.8787 -617.561 0.
38.1708 -704.736 0.
-101.817 -526.455 0.
46.1332 -183.113 0.
59.0434 57.4416 0.
-10.549 -111.692 0.
-80.1408 -280.826 0.
531.54 -87.6162 0.
566.726 -7.14607 0.
601.912 73.3243 0.
22.6232 -80.6938 0.
86.0193 65.9846 0.
149.415 212.662 0.
381.967 116.207 0.
231.645 -231.388 0.
-162.643 -684.459 0.
-233.66 -608.103 0.
-178.658 -479.371 0.
-112.196 -395.147 0.
-169.106 -528.191 0.
-226.015 -661.234 0.
168.292 -588.628 0.
124.029 -694.119 0.
79.7653 -799.609 0.
-27.9502 -758.012 0.
69.0571 -534.071 0.
166.065 -310.13 0.
-433.869 -559.877 0.
-446.917 -585.839 0.
201.801 -327.523 0.
190.432 -347.512 0.
179.063 -367.501 0.
-126.501 -550.265 0.
-185.121 -684.56 0.
-243.741 -818.854 0.
-237.217 -739.421 0.
-122.687 -469.278 0.
-8.15842 -199.135 0.
49.5913 -123.626 0.
53.1556 -113.887 0.
520.65 97.6909 0.
-288.754 -186.932 0.
-255.94 -109.467 0.
408.572 191.511 0.
317.78 -16.4632 0.
226.989 -224.437 0.
125.074 -381.201 0.
112.639 -411.045 0.
100.205 -440.89 0.
227.499 -398.38 0.
225.189 -403.469 0.
222.878 -408.559 0.
-97.0618 -394.697 0.
-8.28755 -188.541 0.
278.593 80.401 0.
266.471 54.0974 0.
254.351 27.7944 0.
-110.661 -185.083 0.
-170.008 -324.049 0.
-229.355 -463.015 0.
278.337 -281.362 0.
284.892 -262.732 0.
291.447 -244.103 0.
264.724 -135.449 0.
341.869 46.2075 0.
666.242 293.182 0.
113.944 -109.202 0.
-2.45518 -379.712 0.
-110.422 -562.329 0.
-11.1481 -334.916 0.
88.1258 -107.502 0.
384.955 74.9673 0.
315.407 -83.3089 0.
245.859 -241.585 0.
-191.326 -494.076 0.
-202.823 -521.013 0.
-214.318 -547.95 0.
-167.272 -556.717 0.
-189.56 -605.845 0.
126.27 -511.884 0.
111.176 -546.342 0.
96.0818 -580.8 0.
2.7639 -598.865 0.
69.0059 -447.407 0.
135.248 -295.949 0.
11.5448 -311.611 0.
-1.29982 -342.342 0.
-14.1444 -373.074 0.
-324.584 -476.193 0.
-306.11 -425.859 0.
140.669 -191.14 0.
84.8494 -275.443 0.
51.9272 -345.554 0.
86.4925 -371.824 0.
72.087 -402.218 0.
57.6818 -432.613 0.
133.758 -422.627 0.
127.124 -435.738 0.
120.49 -448.85 0.
-43.3447 -567.312 0.
-81.8777 -654.771 0.
-120.411 -742.23 0.
170.881 -376.35 0.
318.902 -33.3523 0.
-5.57749 62.2206 0.
-75.6046 -107.077 0.
-145.631 -276.376 0.
367.934 -125.41 0.
402.362 -44.7514 0.
436.789 35.9069 0.
-86.578 -97.5013 0.
-23.3669 49.3086 0.
39.8438 196.118 0.
551.291 220.364 0.
401.039 -127.589 0.
-483.722 -790.152 0.
-236.792 -577.787 0.
-181.603 -448.995 0.
-14.4436 -318.49 0.
-70.7113 -452.22 0.
-126.979 -585.949 0.
-223.928 -725.987 0.
-268.555 -831.391 0.
-313.182 -936.795 0.
-13.3822 -719.554 0.
83.2479 -494.922 0.
179.878 -270.289 0.
-110.766 -392.626 0.
-123.449 -418.765 0.
-59.8036 -407.147 0.
-71.0956 -427.573 0.
-82.3878 -447.999 0.
-124.303 -516.48 0.
-183.168 -651.044 0.
-242.032 -785.608 0.
6.7711 -604.075 0.
122.004 -334.283 0.
237.236 -64.4903 0.
-251.106 -220.797 0.
-247.315 -211.302 0.
281.461 24.7934 0.
-186.918 -112.192 0.
-154.789 -33.4146 0.
363.225 202.47 0.
273.263 -6.04147 0.
183.301 -214.554 0.
81.3858 -368.311 0.
70.0449 -399.047 0.
58.7048 -429.783 0.
55.045 -438.819 0.
52.6994 -443.819 0.
50.3533 -448.82 0.
57.3697 -296.652 0.
146.264 -90.6737 0.
222.023 86.0616 0.
210.088 59.9713 0.
198.154 33.8814 0.
-109.1 -152.855 0.
-168.608 -291.381 0.
-228.116 -429.906 0.
173.783 -294.732 0.
180.31 -276.05 0.
186.837 -257.368 0.
195.984 -136.488 0.
273.559 44.1827 0.
-700.736 383.34 0.
112.007 -301.201 0.
294.786 124.457 0.
-11.6205 -302.266 0.
35.2764 -184.844 0.
106.5 -13.2468 0.
334.591 -501.184 0.
580.149 75.386 0.
825.656 651.655 0.
144.162 806.63 0.
-123.414 180.313 0.
-573.234 -870.077 0.
54.5487 -157.792 0.
107.013 -36.647 0.
-240.854 -1196 0.
204.14 -152.553 0.
163.283 -242.32 0.
72.375 -320.514 0.
257.79 109.449 0.
368.202 364.96 0.
278.234 132.584 0.
287.436 153.458 0.
200.116 -51.5056 0.
-352.783 -246.789 0.
-143.079 246.313 0.
-662.683 -959.669 0.
338.644 189.199 0.
388.165 302.973 0.
77.697 -265.001 0.
511.466 753.489 0.
82.2324 -241.291 0.
-117.426 -1370.05 0.
598.641 300.468 0.
342.471 -297.792 0.
-191.475 -587.926 0.
-226.698 -670.248 0.
-332.756 -917.766 0.
506.636 -73.9075 0.
573.912 80.0912 0.
-412.28 -731.994 0.
-195.568 -224.875 0.
33.1492 310.235 0.
603.371 769.771 0.
436.202 379.204 0.
125.812 -345.582 0.
30.8698 418.285 0.
-169.288 -51.2858 0.
-188.686 -98.8993 0.
470.224 -260.54 0.
717.008 313.146 0.
114.783 -360.811 0.
-203.056 -437.701 0.
-28.8408 -32.432 0.
299.648 250.969 0.
-272.014 -1080.46 0.
-88.1149 -648.898 0.
-158.826 196.245 0.
-141.493 236.222 0.
-309.77 -156.938 0.
112.713 -418.594 0.
-63.637 -831.993 0.
-250.11 -1268.87 0.
86.9601 -518.283 0.
267.915 -94.2093 0.
-180.038 -156.848 0.
-48.204 152.397 0.
56.2373 397.783 0.
244.048 368.792 0.
-134.806 -520.024 0.
205.379 269.285 0.
762.051 724.579 0.
571.272 278.707 0.
374.67 -180.81 0.
-1054.18 -1496.83 0.
-71.8861 801.015 0.
-313.175 582.045 0.
277.437 807.954 0.
187.912 597.14 0.
315.074 205.908 0.
103.919 -286.613 0.
-21.6051 -579.028 0.
487.331 686.599 0.
17.3569 -406.047 0.
75.8682 -266.355 0.
51.8348 -84.8133 0.
-35.5853 -290.71 0.
-37.9926 -298.659 0.
316.811 43.7067 0.
288.283 -20.8536 0.
30.7266 -217.223 0.
-251.904 -874.373 0.
267.914 338.654 0.
12.628 153.941 0.
126.718 423.034 0.
-506.545 -1051.88 0.
305.731 245.577 0.
348.247 344.241 0.
476.203 640.081 0.
153.468 -78.3857 0.
61.1406 -297.472 0.
41.4974 -147.709 0.
23.871 -105.024 0.
70.7144 5.10457 0.
171.059 74.2744 0.
40.6891 -226.697 0.
-89.6819 -527.666 0.
194.226 -523.917 0.
224.111 -456.523 0.
253.996 -389.128 0.
-438.279 -614.951 0.
-397.628 -523.338 0.
-356.978 -431.724 0.
-66.4847 -311.729 0.
-71.7877 -326.362 0.
97.1264 -244.168 0.
174.544 -62.2143 0.
251.962 119.74 0.
188.533 128.426 0.
91.4233 -98.7479 0.
-5.68643 -325.921 0.
-46.9921 -338.418 0.
34.426 -144.593 0.
115.844 49.2308 0.
-290.245 -333.853 0.
-451.986 -717.32 0.
-206.741 -926.575 0.
34.5905 -608.89 0.
150.036 -344.019 0.
79.5745 -220.312 0.
38.0877 -318.599 0.
-3.39873 -416.887 0.
140.817 -440.011 0.
101.876 -534.047 0.
62.9348 -628.085 0.
-65.834 -611.152 0.
11.1682 -434.128 0.
88.1705 -257.103 0.
112.435 -313.748 0.
67.742 -418.611 0.
-128.146 -565.565 0.
-56.0222 -395.832 0.
16.102 -226.1 0.
-10.6437 -184.29 0.
-69.9693 -323.936 0.
-129.295 -463.581 0.
-247.998 -550.574 0.
-238.546 -529.781 0.
-229.095 -508.989 0.
512.674 -146.778 0.
539.39 -84.4509 0.
910.478 124.753 0.
-82.3385 -305.495 0.
-85.7955 -312.053 0.
-109.932 -314.023 0.
-92.0739 -265.898 0.
-74.2167 -217.773 0.
-354.538 -267.309 0.
-294.692 -131.906 0.
-234.846 3.49703 0.
309.453 210.257 0.
261.565 98.0726 0.
213.676 -14.1116 0.
244.281 -135.002 0.
168.312 -311.429 0.
-455.179 -710.935 0.
-466.058 -735.933 0.
-476.938 -760.93 0.
-54.9142 -575.282 0.
-30.22 -521.6 0.
-5.52585 -467.917 0.
158.19 -345.332 0.
190.045 -268.063 0.
221.898 -190.794 0.
-229.081 -255.808 0.
-154.1 -80.4913 0.
-342.908 -15.6002 0.
-168.241 -152.137 0.
-274.803 -407.785 0.
-115.657 -483.063 0.
-81.0793 -404.498 0.
-46.502 -325.933 0.
23.6388 -284.022 0.
1.29383 -336.181 0.
-21.0506 -388.341 0.
-104.979 -457.518 0.
-114.376 -479.196 0.
-123.772 -500.873 0.
20.9711 -386.993 0.
50.1057 -316.196 0.
-96.0538 -331.652 0.
-114.986 -378.41 0.
-133.919 -425.167 0.
-201.042 -427.223 0.
-123.081 -245.167 0.
-45.1206 -63.111 0.
246.688 117.688 0.
238.495 93.475 0.
230.301 69.262 0.
214.785 65.8943 0.
222.461 78.7737 0.
47.7853 -109.815 0.
-173.181 -158.975 0.
-126.209 -48.5374 0.
210.256 122.441 0.
81.0365 -179.223 0.
-48.1843 -480.886 0.
54.4045 -550.618 0.
85.4778 -483.731 0.
116.55 -416.843 0.
-387.17 -562.283 0.
-346.884 -470.773 0.
-306.598 -379.263 0.
-115.631 -300.343 0.
-121.042 -315.594 0.
32.7241 -239.606 0.
110.632 -58.2955 0.
188.539 123.016 0.
112.742 126.741 0.
15.5725 -100.005 0.
-81.5974 -326.752 0.
-186.586 -367.355 0.
-105.139 -172.933 0.
-23.691 21.4875 0.
-147.273 -242.879 0.
-309.226 -626.132 0.
405.186 -634.611 0.
100.394 -549.171 0.
215.981 -284.369 0.
79.2345 -188.502 0.
37.5759 -286.846 0.
-4.08226 -385.191 0.
-14.8641 -475.2 0.
-53.9669 -569.533 0.
-93.0704 -663.866 0.
124.576 -498.073 0.
202.499 -321.976 0.
280.423 -145.879 0.
-228.885 -428.215 0.
-272.202 -534.092 0.
148.431 -413.854 0.
221.207 -244.717 0.
293.983 -75.581 0.
-241.512 -248.986 0.
-300.669 -388.759 0.
-359.826 -528.532 0.
-61.0759 -440.057 0.
-51.5529 -418.975 0.
-42.0301 -397.893 0.
528.056 -108.177 0.
555.051 -46.0489 0.
-126.904 -289.212 0.
3.56708 -237.077 0.
-0.0895752 -243.226 0.
-301.22 -363.795 0.
-283.191 -315.715 0.
-265.163 -267.635 0.
-328.618 -225.457 0.
-269.055 -89.7401 0.
-209.492 45.9766 0.
238.208 212.476 0.
189.702 100.817 0.
141.195 -10.8419 0.
250.608 -101.466 0.
173.914 -276.8 0.
-481.263 -691.747 0.
-492.914 -716.192 0.
-504.565 -740.637 0.
92.671 -482.377 0.
116.843 -428.46 0.
141.016 -374.544 0.
-9.51366 -387.612 0.
22.2135 -310.083 0.
53.9403 -232.555 0.
148.056 -62.0963 0.
223.47 113.23 0.
780.554 495.452 0.
-190.533 -130.286 0.
-296.971 -385.85 0.
-265.569 -516.994 0.
-230.175 -439.03 0.
-194.782 -361.066 0.
-18.3381 -269.201 0.
-39.8401 -321.743 0.
-61.3416 -374.286 0.
-86.2964 -418.417 0.
-95.5631 -440.317 0.
-104.829 -462.217 0.
-98.3069 -405.534 0.
-68.9612 -335.152 0.
-174.768 -334.374 0.
-194.489 -380.514 0.
-214.209 -426.653 0.
-139.388 -370.847 0.
-61.3891 -188.376 0.
16.61 -5.90427 0.
257.936 154.777 0.
249.353 130.545 0.
240.769 106.314 0.
232.973 102.497 0.
239.838 115.422 0.
-272.517 -698.416 0.
-454.651 -723.928 0.
-430.565 -667.526 0.
-47.2689 -430.342 0.
49.7804 -198.303 0.
146.829 33.7356 0.
235.637 150.216 0.
202.351 75.8623 0.
169.064 1.50942 0.
-226.298 -238.161 0.
-269.989 -337.563 0.
-313.681 -436.964 0.
-283.373 -431.356 0.
-279.802 -419.662 0.
90.0609 -257.482 0.
57.7044 -331.499 0.
25.3481 -405.517 0.
-210.119 -522.875 0.
-167.302 -423.457 0.
-124.485 -324.039 0.
-243.756 -335.163 0.
-239.232 -328.274 0.
-234.708 -321.385 0.
-71.6366 -226.346 0.
-57.7065 -193.255 0.
1259.81 397.125 0.
370.809 -43.7307 0.
338.539 -116.107 0.
19.2162 -301.634 0.
18.1854 -304.448 0.
17.1551 -307.264 0.
-45.8646 -275.08 0.
24.9714 -113.655 0.
95.8082 47.7689 0.
422.292 181.438 0.
379.99 83.5987 0.
337.686 -14.2406 0.
-285.343 -306.977 0.
-295.082 -329.403 0.
351.446 -82.4572 0.
307.545 -181.117 0.
263.643 -279.777 0.
-448.315 -534.8 0.
-292.095 -164.313 0.
-135.876 206.172 0.
305.617 342.632 0.
126.944 -73.343 0.
-51.7294 -489.318 0.
295.735 -398.23 0.
308.377 -368.73 0.
-1142.98 -966.089 0.
34.2023 -351.123 0.
93.5221 -214.541 0.
-315.966 -290.628 0.
-287.416 -224.914 0.
-258.865 -159.201 0.
-241.698 -116.654 0.
-233.985 -95.8781 0.
-226.272 -75.1026 0.
94.4999 42.8204 0.
74.7078 -4.31115 0.
54.9158 -51.4424 0.
315.913 -12.1578 0.
276.47 -106.181 0.
-420.244 -458.217 0.
-340.615 -276.669 0.
-260.986 -95.1209 0.
514.404 288.04 0.
441.905 118.76 0.
369.406 -50.5197 0.
-112.769 -282.95 0.
-74.8182 -195.514 0.
-36.8669 -108.076 0.
130.403 -172.075 0.
26.6722 -407.35 0.
767.06 -284.238 0.
-256.928 -523.987 0.
-154.41 -281.251 0.
-165.926 -141.221 0.
-188.106 -187.778 0.
-210.286 -234.336 0.
-7.72785 -213.453 0.
-66.0167 -349.489 0.
-124.305 -485.525 0.
-180.064 -520.545 0.
-158.314 -469.428 0.
-136.563 -418.311 0.
-148.553 -428.324 0.
-152.184 -437.86 0.
-346.28 -520.739 0.
-316.803 -450.47 0.
-287.325 -380.201 0.
-131.836 -285.942 0.
-147.539 -322.734 0.
-163.243 -359.525 0.
51.0351 -257.574 0.
72.6655 -205.198 0.
94.2962 -152.823 0.
8.37254 -310.421 0.
-75.5152 -505.616 0.
472.352 -347.288 0.
-304.371 -628.401 0.
-279.886 -572.12 0.
-112.596 -426.41 0.
-14.7402 -194.212 0.
83.1147 37.9858 0.
107.885 127.261 0.
75.6735 52.7136 0.
43.4618 -21.8328 0.
-196.717 -195.309 0.
-240.14 -294.978 0.
-283.563 -394.647 0.
-480.066 -481.616 0.
-475.475 -471.277 0.
340.517 -119.156 0.
308.188 -193.533 0.
275.859 -267.912 0.
-207.171 -488.359 0.
-163.835 -389.542 0.
-120.5 -290.726 0.
-227.217 -297.574 0.
-223.295 -289.593 0.
-219.373 -281.613 0.
-35.3124 -182.89 0.
-21.5102 -149.832 0.
114.54 -64.0058 0.
466.71 31.0943 0.
434.343 -41.3252 0.
29.9108 -266.44 0.
28.2743 -269.024 0.
26.6382 -271.609 0.
-140.398 -283.368 0.
-69.9154 -121.926 0.
0.567803 39.5151 0.
286.724 153.641 0.
244.764 55.336 0.
202.804 -42.969 0.
-184.646 -232.3 0.
-193.848 -254.966 0.
245.015 -95.9258 0.
201.245 -194.755 0.
157.475 -293.583 0.
-398.608 -480.91 0.
-242.575 -110.462 0.
-86.5433 259.984 0.
222.63 335.752 0.
43.851 -80.1402 0.
-134.928 -496.032 0.
44.3322 -471.345 0.
57.6299 -442.178 0.
-953.287 -852.333 0.
170.399 -261.213 0.
229.508 -123.851 0.
-180.075 -200.81 0.
-151.041 -135.606 0.
-122.007 -70.4018 0.
-134.565 -37.1149 0.
-125.594 -17.3824 0.
-116.622 2.3502 0.
27.0804 45.7024 0.
8.0564 -1.29178 0.
-10.9673 -48.2859 0.
413.216 62.3814 0.
374.615 -32.0994 0.
-447.803 -438.356 0.
-367.955 -256.816 0.
-288.107 -75.2765 0.
625.384 369.647 0.
553.91 199.259 0.
482.435 28.8714 0.
-273.492 -319.801 0.
-235.417 -232.73 0.
-197.342 -145.659 0.
-141.531 -255.978 0.
-244.442 -491.832 0.
-652.249 -861.461 0.
53.006 -359.584 0.
155.436 -116.388 0.
-154.208 -104.374 0.
-176.221 -151.067 0.
-198.233 -197.76 0.
24.4377 -169.2 0.
-33.16 -305.762 0.
-90.7577 -442.324 0.
-281.921 -530.838 0.
-259.576 -480.226 0.
-237.232 -429.614 0.
-97.401 -374.926 0.
-101.095 -384.526 0.
-458.267 -535.843 0.
-428.286 -466.076 0.
-398.303 -396.31 0.
-227.346 -297.176 0.
-243.174 -333.588 0.
-259.002 -369.998 0.
-2.57589 -248.962 0.
19.5062 -196.925 0.
41.5884 -144.889 0.
-112.181 -329.971 0.
-196.419 -525.156 0.
862.559 38.5378 0.
-193.469 -640.897 0.
-28.6298 -255.469 0.
341.314 776.459 0.
-1.63643 -16.7778 0.
363.291 841.639 0.
199.867 593.035 0.
-220.68 -382.879 0.
-111.34 -123.197 0.
-147.177 -100.477 0.
-260.371 -362.839 0.
-209.961 -243.669 0.
-266.363 409.714 0.
-346.733 228.822 0.
422.451 -373.19 0.
608.098 61.052 0.
689.533 252.801 0.
2.54144 9.71329 0.
-112.217 -253.367 0.
369.987 874.716 0.
180.494 634.761 0.
-282.455 -446.255 0.
-804.688 -1665.85 0.
-312.809 -860.919 0.
130.256 172.296 0.
-1087.18 -890.497 0.
99.4793 -977.848 0.
562.475 109.172 0.
141.31 -1.69328 0.
332.699 452.955 0.
-18.5537 -358.144 0.
-428.394 -744.163 0.
8.86198 279.922 0.
-103.589 21.4519 0.
337.1 542.817 0.
196.564 214.675 0.
499.524 921.406 0.
-149.194 -298.79 0.
-90.068 -165.039 0.
298.937 266.813 0.
286.166 235.585 0.
41.8284 -335.912 0.
-341.728 -394.249 0.
62.0893 546.238 0.
-22.9102 346.304 0.
254.953 582.919 0.
146.265 337.931 0.
-25.1677 -53.1423 0.
-92.1098 -271.951 0.
179.608 356.21 0.
-2138.18 658.059 0.
602.627 526.451 0.
362.083 -36.1072 0.
207.903 481.462 0.
185.684 430.896 0.
65.1773 150.527 0.
-124.957 -207.213 0.
126.674 384.694 0.
-140.032 -232.522 0.
-544.669 -1127.46 0.
-513.877 -1052.22 0.
75.1705 325.865 0.
608.108 350.106 0.
594.263 320.943 0.
-257.296 89.0441 0.
-518.046 -521.562 0.
-762.252 -1093.14 0.
347.152 -452.894 0.
621.802 185.143 0.
1021.74 1114.9 0.
-310.949 -74.6087 0.
-883.61 -1417.82 0.
-249.628 55.1745 0.
-216.22 136.091 0.
-24.1017 586.646 0.
-518.197 -599.347 0.
232.561 -513.407 0.
-151.517 -1398.39 0.
-110.154 0.534034 0.
440.433 1294.16 0.
-700.668 -1358.94 0.
-118.797 -544.902 0.
587.096 1106.01 0.
378.11 622.865 0.
-442.479 -681.328 0.
-560.429 -957.454 0.
-91.9761 134.778 0.
39.1294 -119.142 0.
-0.332134 -212.446 0.
-372.576 -87.4002 0.
-288.904 108.613 0.
-375.082 -92.2955 0.
-378.353 -444.835 0.
144.092 773.551 0.
-311.153 -289.373 0.
-107.251 -357.674 0.
-65.8564 -262.513 0.
-25.7385 -168.728 0.
44.0504 311.613 0.
-184.841 -223.021 0.
-1133.54 -623.347 0.
-176.419 -240.117 0.
-212.084 -322.742 0.
-247.484 -356.687 0.
-189.072 -220.433 0.
-130.66 -84.178 0.
-79.8595 -2.26542 0.
-80.7382 -4.06985 0.
-81.6187 -5.87313 0.
-36.4858 30.1617 0.
-27.7114 54.7369 0.
-18.9369 79.3112 0.
-143.663 -5.21998 0.
-171.803 -59.6728 0.
375.113 131.063 0.
349.019 72.6789 0.
322.925 14.2957 0.
-283.053 -225.219 0.
-203.03 -32.3995 0.
-123.008 160.418 0.
63.2548 225.31 0.
-19.0282 27.233 0.
-101.312 -170.845 0.
274.818 -123.023 0.
224.668 -240.346 0.
-171.639 -504.856 0.
66.5366 -355.751 0.
89.7277 -298.47 0.
-148.295 -344.388 0.
-113.045 -259.237 0.
-77.7936 -174.084 0.
104.244 -38.7817 0.
124.332 15.8332 0.
144.42 70.4472 0.
149.102 5.30035 0.
83.4178 -147.022 0.
17.7337 -299.344 0.
-171.536 -250.228 0.
-89.8977 -58.1008 0.
-39.8401 101.283 0.
-48.5036 79.7067 0.
-57.1675 58.1303 0.
132.101 94.3106 0.
89.4718 -11.7961 0.
46.8425 -117.903 0.
-298.49 -287.537 0.
-284.438 -256.483 0.
-270.387 -225.429 0.
334.312 43.4699 0.
339.288 52.1774 0.
-1927.01 -911.837 0.
-89.6873 -322.53 0.
-193.889 -565.26 0.
-425.883 -732.057 0.
-232.454 -278.555 0.
-39.0259 174.946 0.
181.796 349.061 0.
36.0595 14.4307 0.
-109.677 -320.198 0.
63.4619 -255.059 0.
125.574 -105.261 0.
187.684 44.5353 0.
46.4443 20.0154 0.
58.5682 51.0026 0.
-75.9607 17.0429 0.
-53.1139 69.471 0.
-30.2663 121.898 0.
465.685 349.015 0.
448.572 308.492 0.
431.46 267.969 0.
-109.579 10.8921 0.
-117.296 -9.51783 0.
-125.014 -29.9283 0.
-53.4049 87.5014 0.
7.24606 230.674 0.
-425.486 169.707 0.
480.903 295.999 0.
345.219 -22.0519 0.
-226.664 -456.416 0.
-194.329 -378.722 0.
-161.993 -301.027 0.
-197.095 -275.87 0.
-188.161 -247.461 0.
-179.227 -219.052 0.
-347.86 -294.774 0.
-356.031 -312.271 0.
-364.202 -329.769 0.
-97.1662 -176.155 0.
-72.9476 -119.28 0.
-307.493 -156.861 0.
-193.516 112.23 0.
-79.5395 381.321 0.
51.349 526.378 0.
-39.666 310.55 0.
-130.682 94.721 0.
-166.395 -44.2661 0.
-208.99 -141.158 0.
-251.584 -238.05 0.
-238.337 -134.349 0.
-163.476 44.2231 0.
609.772 154.115 0.
-346.772 -281.986 0.
-381.987 -364.773 0.
-356.758 -372.9 0.
-297.358 -236.599 0.
-237.958 -100.297 0.
-82.7937 30.0929 0.
-81.6378 27.921 0.
-80.4836 25.7502 0.
40.4534 94.4806 0.
49.3946 119.453 0.
58.3357 144.424 0.
244.775 190.598 0.
216.113 136.682 0.
64.0714 29.9958 0.
38.415 -28.7263 0.
12.76 -87.4479 0.
-497.026 -287.844 0.
-417.368 -94.6918 0.
-337.71 98.4589 0.
150.988 297.05 0.
70.417 98.6544 0.
-10.155 -99.7426 0.
627.184 59.2016 0.
577.527 -57.9041 0.
-766.414 -728.781 0.
-284.115 -473.844 0.
-262.208 -415.395 0.
-300.659 -382.334 0.
-267.015 -295.988 0.
-233.37 -209.641 0.
395.23 113.889 0.
414.79 168.813 0.
434.35 223.736 0.
218.562 67.8086 0.
153.475 -85.6262 0.
88.3881 -239.061 0.
-215.19 -234.084 0.
-131.985 -43.4643 0.
-352.075 -1.49332 0.
-360.913 -22.8745 0.
-369.752 -44.2554 0.
474.977 271.087 0.
431.466 165.478 0.
387.955 59.8684 0.
-497.444 -341.99 0.
-483.44 -310.155 0.
-469.437 -278.32 0.
718.879 242.496 0.
725.263 249.971 0.
-1450.94 -676.359 0.
-475.875 -456.079 0.
-579.867 -698.658 0.
-553.026 -755.023 0.
-359.53 -301.495 0.
-166.033 152.031 0.
290.693 427.901 0.
145.401 93.2111 0.
0.110887 -241.477 0.
368.252 -93.6178 0.
429.146 57.5031 0.
490.038 208.622 0.
-452.168 -164.75 0.
-440.131 -133.283 0.
207.403 171.639 0.
230.667 223.851 0.
253.931 276.063 0.
200.626 268.574 0.
184.32 227.857 0.
168.016 187.14 0.
118.28 141.794 0.
110.305 121.754 0.
102.33 101.714 0.
185.065 220.254 0.
244.398 364.491 0.
93.4557 423.592 0.
376.814 282.201 0.
240.242 -35.4162 0.
-105.714 -374.463 0.
-73.264 -296.85 0.
-40.8137 -219.238 0.
-421.181 -340.794 0.
-412.08 -312.073 0.
-402.978 -283.35 0.
-418.434 -293.785 0.
-426.708 -310.789 0.
-434.982 -327.793 0.
-215.859 -195.636 0.
-191.86 -138.883 0.
-180.143 -71.7958 0.
-66.2947 197.561 0.
47.5528 466.917 0.
85.5099 571.716 0.
-5.21846 355.633 0.
-95.9474 139.549 0.
-390.846 -107.695 0.
-433.516 -204.335 0.
-476.184 -300.974 0.
-331.137 -145.728 0.
-257.498 34.2706 0.
