# vtk DataFile Version 2.0
test grain
ASCII
DATASET UNSTRUCTURED_GRID
POINTS 5000 float
0.499946 0.001 0.
0.501948 0.001 0.
0.503949 0.001 0.
0.50595 0.001 0.
0.507951 0.001 0.
0.509952 0.001 0.
0.511954 0.001 0.
0.513955 0.001 0.
0.515957 0.001 0.
0.517958 0.001 0.
0.51996 0.001 0.
0.521961 0.001 0.
0.523962 0.001 0.
0.525963 0.001 0.
0.527964 0.001 0.
0.529965 0.001 0.
0.531966 0.001 0.
0.533968 0.000999999 0.
0.535969 0.000999999 0.
0.53797 0.000999999 0.
0.539971 0.000999999 0.
0.541972 0.001 0.
0.543974 0.001 0.
0.545975 0.001 0.
0.547976 0.001 0.
0.549978 0.001 0.
0.551979 0.001 0.
0.55398 0.001 0.
0.55598 0.001 0.
0.557981 0.001 0.
0.559982 0.001 0.
0.561982 0.001 0.
0.563983 0.001 0.
0.565983 0.001 0.
0.567984 0.001 0.
0.569985 0.001 0.
0.571985 0.001 0.
0.573986 0.001 0.
0.575987 0.000999999 0.
0.577988 0.000999998 0.
0.579989 0.000999997 0.
0.58199 0.000999997 0.
0.583992 0.000999997 0.
0.585993 0.000999999 0.
0.587994 0.001 0.
0.589995 0.001 0.
0.591996 0.001 0.
0.593997 0.001 0.
0.595998 0.000999998 0.
0.598 0.000999995 0.
0.600001 0.000999992 0.
0.602002 0.000999995 0.
0.604003 0.000999998 0.
0.606004 0.001 0.
0.608005 0.000999999 0.
0.610007 0.000999998 0.
0.612008 0.000999997 0.
0.614009 0.000999998 0.
0.61601 0.000999999 0.
0.618011 0.000999999 0.
0.620012 0.000999999 0.
0.622013 0.001 0.
0.624013 0.001 0.
0.626014 0.001 0.
0.628014 0.001 0.
0.630015 0.001 0.
0.632016 0.001 0.
0.634017 0.001 0.
0.636018 0.001 0.
0.638019 0.001 0.
0.64002 0.001 0.
0.64202 0.001 0.
0.644021 0.001 0.
0.646022 0.001 0.
0.648023 0.001 0.
0.650023 0.001 0.
0.652025 0.001 0.
0.654027 0.001 0.
0.656028 0.001 0.
0.658029 0.001 0.
0.660031 0.001 0.
0.662032 0.001 0.
0.664033 0.001 0.
0.666034 0.001 0.
0.668035 0.001 0.
0.670036 0.000999999 0.
0.672037 0.000999999 0.
0.674038 0.000999999 0.
0.676039 0.000999999 0.
0.678041 0.000999999 0.
0.680042 0.000999999 0.
0.682043 0.000999999 0.
0.684045 0.001 0.
0.686046 0.001 0.
0.688047 0.001 0.
0.690049 0.001 0.
0.69205 0.001 0.
0.694051 0.001 0.
0.696053 0.001 0.
0.698055 0.00100001 0.
0.499947 0.00300001 0.
0.501948 0.003 0.
0.503949 0.003 0.
0.50595 0.003 0.
0.507951 0.003 0.
0.509953 0.003 0.
0.511954 0.003 0.
0.513955 0.003 0.
0.515957 0.003 0.
0.517958 0.003 0.
0.519959 0.003 0.
0.521961 0.003 0.
0.523962 0.003 0.
0.525963 0.003 0.
0.527964 0.003 0.
0.529965 0.003 0.
0.531966 0.003 0.
0.533967 0.003 0.
0.535969 0.003 0.
0.53797 0.003 0.
0.539971 0.003 0.
0.541972 0.003 0.
0.543974 0.003 0.
0.545975 0.003 0.
0.547976 0.003 0.
0.549978 0.003 0.
0.551979 0.003 0.
0.55398 0.003 0.
0.55598 0.003 0.
0.557981 0.003 0.
0.559982 0.003 0.
0.561982 0.003 0.
0.563983 0.003 0.
0.565983 0.003 0.
0.567984 0.003 0.
0.569985 0.003 0.
0.571985 0.00300001 0.
0.573986 0.003 0.
0.575987 0.003 0.
0.577988 0.00299999 0.
0.579989 0.00299999 0.
0.58199 0.00299999 0.
0.583992 0.00299999 0.
0.585993 0.003 0.
0.587994 0.003 0.
0.589995 0.003 0.
0.591996 0.003 0.
0.593997 0.003 0.
0.595998 0.00299999 0.
0.598 0.00299999 0.
0.600001 0.00299998 0.
0.602002 0.00299998 0.
0.604003 0.00299999 0.
0.606004 0.003 0.
0.608005 0.003 0.
0.610007 0.00299999 0.
0.612008 0.00299999 0.
0.614009 0.00299999 0.
0.61601 0.003 0.
0.618011 0.003 0.
0.620012 0.003 0.
0.622013 0.003 0.
0.624014 0.003 0.
0.626014 0.003 0.
0.628015 0.003 0.
0.630016 0.003 0.
0.632017 0.003 0.
0.634017 0.003 0.
0.636018 0.003 0.
0.638019 0.00300001 0.
0.64002 0.00300001 0.
0.64202 0.003 0.
0.644021 0.003 0.
0.646022 0.003 0.
0.648023 0.003 0.
0.650023 0.003 0.
0.652025 0.003 0.
0.654027 0.003 0.
0.656028 0.003 0.
0.65803 0.003 0.
0.660031 0.003 0.
0.662032 0.003 0.
0.664033 0.003 0.
0.666034 0.003 0.
0.668035 0.003 0.
0.670036 0.003 0.
0.672037 0.003 0.
0.674038 0.003 0.
0.67604 0.003 0.
0.678041 0.003 0.
0.680042 0.003 0.
0.682043 0.003 0.
0.684045 0.003 0.
0.686046 0.003 0.
0.688047 0.003 0.
0.690049 0.003 0.
0.69205 0.003 0.
0.694051 0.003 0.
0.696053 0.00300001 0.
0.698055 0.00300002 0.
0.499947 0.00500002 0.
0.501948 0.005 0.
0.503949 0.005 0.
0.50595 0.005 0.
0.507951 0.005 0.
0.509953 0.005 0.
0.511954 0.005 0.
0.513955 0.005 0.
0.515956 0.005 0.
0.517958 0.005 0.
0.519959 0.005 0.
0.521961 0.005 0.
0.523962 0.005 0.
0.525963 0.005 0.
0.527964 0.005 0.
0.529965 0.005 0.
0.531966 0.005 0.
0.533967 0.005 0.
0.535968 0.005 0.
0.53797 0.005 0.
0.539971 0.005 0.
0.541972 0.005 0.
0.543974 0.005 0.
0.545975 0.005 0.
0.547976 0.005 0.
0.549978 0.005 0.
0.551979 0.005 0.
0.553979 0.005 0.
0.55598 0.005 0.
0.557981 0.005 0.
0.559981 0.00500001 0.
0.561982 0.00500001 0.
0.563983 0.005 0.
0.565983 0.005 0.
0.567984 0.005 0.
0.569984 0.005 0.
0.571985 0.00500001 0.
0.573986 0.005 0.
0.575987 0.005 0.
0.577988 0.00499999 0.
0.579989 0.00499999 0.
0.58199 0.00499999 0.
0.583992 0.00499999 0.
0.585993 0.00499999 0.
0.587994 0.005 0.
0.589995 0.005 0.
0.591996 0.005 0.
0.593997 0.005 0.
0.595998 0.00499999 0.
0.598 0.00499998 0.
0.600001 0.00499996 0.
0.602002 0.00499997 0.
0.604003 0.00499999 0.
0.606004 0.005 0.
0.608005 0.00499999 0.
0.610007 0.00499999 0.
0.612008 0.00499999 0.
0.614009 0.00499999 0.
0.61601 0.00499999 0.
0.618011 0.005 0.
0.620012 0.005 0.
0.622013 0.005 0.
0.624014 0.005 0.
0.626014 0.005 0.
0.628015 0.005 0.
0.630016 0.005 0.
0.632017 0.005 0.
0.634018 0.00500001 0.
0.636018 0.00500001 0.
0.638019 0.00500001 0.
0.64002 0.00500001 0.
0.64202 0.00500001 0.
0.644021 0.00500001 0.
0.646022 0.005 0.
0.648023 0.005 0.
0.650023 0.005 0.
0.652025 0.005 0.
0.654027 0.005 0.
0.656028 0.005 0.
0.65803 0.005 0.
0.660031 0.005 0.
0.662032 0.005 0.
0.664033 0.005 0.
0.666034 0.005 0.
0.668035 0.005 0.
0.670036 0.005 0.
0.672037 0.005 0.
0.674038 0.005 0.
0.67604 0.005 0.
0.678041 0.00499999 0.
0.680042 0.005 0.
0.682043 0.005 0.
0.684045 0.005 0.
0.686046 0.005 0.
0.688047 0.005 0.
0.690049 0.005 0.
0.69205 0.005 0.
0.694051 0.005 0.
0.696053 0.00500001 0.
0.698054 0.00500003 0.
0.499947 0.00700076 0.
0.501948 0.00700064 0.
0.503949 0.00700056 0.
0.50595 0.00700048 0.
0.507952 0.00700041 0.
0.509953 0.00700035 0.
0.511954 0.00700027 0.
0.513955 0.00700018 0.
0.515957 0.00700009 0.
0.517958 0.00699999 0.
0.519959 0.0069999 0.
0.521961 0.0069998 0.
0.523962 0.00699979 0.
0.525963 0.0069998 0.
0.527964 0.0069998 0.
0.529965 0.00699979 0.
0.531966 0.00699979 0.
0.533967 0.00699978 0.
0.535968 0.00699979 0.
0.53797 0.00699979 0.
0.539971 0.0069998 0.
0.541972 0.00699982 0.
0.543974 0.00699984 0.
0.545975 0.00699991 0.
0.547976 0.00699999 0.
0.549978 0.00700007 0.
0.551979 0.00700002 0.
0.553979 0.00699997 0.
0.55598 0.0069999 0.
0.557981 0.00699979 0.
0.559981 0.00699968 0.
0.561982 0.00699958 0.
0.563983 0.0069995 0.
0.565983 0.00699942 0.
0.567984 0.00699935 0.
0.569984 0.00699929 0.
0.571985 0.00699923 0.
0.573986 0.00699918 0.
0.575987 0.00699913 0.
0.577988 0.00699909 0.
0.579989 0.00699907 0.
0.58199 0.00699906 0.
0.583991 0.00699902 0.
0.585993 0.00699894 0.
0.587994 0.00699886 0.
0.589995 0.00699874 0.
0.591996 0.00699859 0.
0.593997 0.00699843 0.
0.595998 0.00699839 0.
0.597999 0.00699837 0.
0.600001 0.00699836 0.
0.602002 0.0069984 0.
0.604003 0.00699844 0.
0.606004 0.00699849 0.
0.608005 0.00699858 0.
0.610007 0.00699866 0.
0.612008 0.00699876 0.
0.614009 0.00699889 0.
0.61601 0.00699902 0.
0.618011 0.00699908 0.
0.620012 0.00699911 0.
0.622013 0.00699914 0.
0.624014 0.00699917 0.
0.626014 0.0069992 0.
0.628015 0.00699924 0.
0.630016 0.00699937 0.
0.632017 0.0069995 0.
0.634018 0.0069996 0.
0.636018 0.00699966 0.
0.638019 0.00699973 0.
0.64002 0.00699979 0.
0.64202 0.00699985 0.
0.644021 0.00699991 0.
0.646022 0.00699998 0.
0.648023 0.00700005 0.
0.650023 0.00700012 0.
0.652025 0.007 0.
0.654027 0.00699987 0.
0.656028 0.00699977 0.
0.65803 0.00699974 0.
0.660031 0.00699972 0.
0.662032 0.0069997 0.
0.664033 0.0069997 0.
0.666034 0.0069997 0.
0.668035 0.00699971 0.
0.670036 0.00699973 0.
0.672037 0.00699974 0.
0.674038 0.00699981 0.
0.67604 0.00699987 0.
0.678041 0.00699993 0.
0.680042 0.00700003 0.
0.682043 0.00700012 0.
0.684045 0.00700019 0.
0.686046 0.00700025 0.
0.688047 0.0070003 0.
0.690049 0.00700035 0.
0.69205 0.00700041 0.
0.694051 0.00700046 0.
0.696053 0.00700053 0.
0.698054 0.0070006 0.
0.499947 0.00900149 0.
0.501948 0.00900129 0.
0.503949 0.00900112 0.
0.50595 0.00900096 0.
0.507952 0.00900083 0.
0.509953 0.00900069 0.
0.511954 0.00900054 0.
0.513955 0.00900036 0.
0.515957 0.00900017 0.
0.517958 0.00899999 0.
0.519959 0.00899979 0.
0.521961 0.0089996 0.
0.523962 0.00899958 0.
0.525963 0.00899959 0.
0.527964 0.00899959 0.
0.529965 0.00899958 0.
0.531966 0.00899957 0.
0.533967 0.00899957 0.
0.535968 0.00899958 0.
0.537969 0.00899958 0.
0.539971 0.00899961 0.
0.541972 0.00899965 0.
0.543974 0.00899968 0.
0.545975 0.00899982 0.
0.547976 0.00899998 0.
0.549978 0.00900014 0.
0.551978 0.00900004 0.
0.553979 0.00899993 0.
0.55598 0.0089998 0.
0.557981 0.00899957 0.
0.559981 0.00899935 0.
0.561982 0.00899915 0.
0.563982 0.00899899 0.
0.565983 0.00899884 0.
0.567984 0.0089987 0.
0.569984 0.00899858 0.
0.571985 0.00899845 0.
0.573986 0.00899836 0.
0.575987 0.00899827 0.
0.577988 0.00899819 0.
0.579989 0.00899816 0.
0.58199 0.00899813 0.
0.583991 0.00899805 0.
0.585992 0.00899788 0.
0.587993 0.00899771 0.
0.589995 0.00899747 0.
0.591996 0.00899717 0.
0.593997 0.00899687 0.
0.595998 0.00899679 0.
0.597999 0.00899677 0.
0.6 0.00899676 0.
0.602002 0.00899683 0.
0.604003 0.0089969 0.
0.606004 0.00899699 0.
0.608006 0.00899716 0.
0.610007 0.00899733 0.
0.612008 0.00899754 0.
0.614009 0.00899779 0.
0.61601 0.00899804 0.
0.618011 0.00899816 0.
0.620012 0.00899822 0.
0.622013 0.00899828 0.
0.624014 0.00899834 0.
0.626014 0.0089984 0.
0.628015 0.00899848 0.
0.630016 0.00899874 0.
0.632017 0.00899899 0.
0.634018 0.0089992 0.
0.636018 0.00899932 0.
0.638019 0.00899944 0.
0.64002 0.00899956 0.
0.64202 0.00899968 0.
0.644021 0.0089998 0.
0.646022 0.00899995 0.
0.648023 0.0090001 0.
0.650024 0.00900025 0.
0.652025 0.009 0.
0.654027 0.00899975 0.
0.656028 0.00899954 0.
0.65803 0.00899948 0.
0.660031 0.00899943 0.
0.662032 0.0089994 0.
0.664033 0.0089994 0.
0.666034 0.00899941 0.
0.668035 0.00899943 0.
0.670036 0.00899946 0.
0.672037 0.00899949 0.
0.674038 0.00899962 0.
0.67604 0.00899974 0.
0.678041 0.00899988 0.
0.680042 0.00900006 0.
0.682043 0.00900024 0.
0.684045 0.00900039 0.
0.686046 0.00900049 0.
0.688047 0.0090006 0.
0.690049 0.0090007 0.
0.69205 0.00900081 0.
0.694051 0.00900092 0.
0.696052 0.00900104 0.
0.698054 0.00900117 0.
0.499947 0.0110017 0.
0.501949 0.0110014 0.
0.50395 0.0110012 0.
0.505951 0.011001 0.
0.507952 0.0110009 0.
0.509953 0.0110007 0.
0.511954 0.0110006 0.
0.513955 0.0110004 0.
0.515957 0.0110002 0.
0.517958 0.011 0.
0.51996 0.0109998 0.
0.521961 0.0109996 0.
0.523962 0.0109996 0.
0.525963 0.0109996 0.
0.527964 0.0109996 0.
0.529965 0.0109996 0.
0.531966 0.0109996 0.
0.533967 0.0109996 0.
0.535968 0.0109996 0.
0.537969 0.0109996 0.
0.539971 0.0109996 0.
0.541972 0.0109996 0.
0.543973 0.0109997 0.
0.545975 0.0109998 0.
0.547976 0.011 0.
0.549978 0.0110001 0.
0.551978 0.011 0.
0.553979 0.0109999 0.
0.55598 0.0109998 0.
0.557981 0.0109995 0.
0.559981 0.0109993 0.
0.561982 0.0109991 0.
0.563982 0.0109989 0.
0.565983 0.0109987 0.
0.567984 0.0109985 0.
0.569984 0.0109983 0.
0.571985 0.0109982 0.
0.573986 0.010998 0.
0.575987 0.0109978 0.
0.577988 0.0109976 0.
0.579989 0.0109975 0.
0.58199 0.0109975 0.
0.583991 0.0109973 0.
0.585992 0.0109971 0.
0.587993 0.010997 0.
0.589995 0.0109967 0.
0.591996 0.0109964 0.
0.593997 0.010996 0.
0.595998 0.010996 0.
0.597999 0.010996 0.
0.6 0.0109959 0.
0.602002 0.010996 0.
0.604003 0.0109961 0.
0.606004 0.0109962 0.
0.608006 0.0109964 0.
0.610007 0.0109966 0.
0.612008 0.0109968 0.
0.614009 0.010997 0.
0.61601 0.0109973 0.
0.618011 0.0109975 0.
0.620012 0.0109976 0.
0.622013 0.0109978 0.
0.624014 0.0109979 0.
0.626014 0.0109981 0.
0.628015 0.0109983 0.
0.630016 0.0109986 0.
0.632017 0.0109989 0.
0.634018 0.0109991 0.
0.636018 0.0109993 0.
0.638019 0.0109994 0.
0.64002 0.0109995 0.
0.642021 0.0109997 0.
0.644021 0.0109998 0.
0.646022 0.011 0.
0.648023 0.0110001 0.
0.650024 0.0110002 0.
0.652025 0.011 0.
0.654027 0.0109997 0.
0.656028 0.0109995 0.
0.65803 0.0109995 0.
0.660031 0.0109994 0.
0.662032 0.0109994 0.
0.664033 0.0109994 0.
0.666034 0.0109994 0.
0.668035 0.0109994 0.
0.670036 0.0109995 0.
0.672037 0.0109995 0.
0.674038 0.0109996 0.
0.676039 0.0109997 0.
0.678041 0.0109999 0.
0.680042 0.0110001 0.
0.682043 0.0110002 0.
0.684045 0.0110004 0.
0.686046 0.0110005 0.
0.688047 0.0110006 0.
0.690048 0.0110007 0.
0.69205 0.0110009 0.
0.694051 0.011001 0.
0.696052 0.0110012 0.
0.698054 0.0110014 0.
0.499948 0.0130013 0.
0.501949 0.0130011 0.
0.50395 0.0130009 0.
0.505951 0.0130007 0.
0.507952 0.0130006 0.
0.509953 0.0130005 0.
0.511954 0.0130004 0.
0.513955 0.0130002 0.
0.515957 0.013 0.
0.517958 0.0129999 0.
0.51996 0.0129999 0.
0.521961 0.0129998 0.
0.523962 0.0129998 0.
0.525963 0.0129998 0.
0.527964 0.0129998 0.
0.529965 0.0129998 0.
0.531966 0.0129998 0.
0.533967 0.0129998 0.
0.535968 0.0129998 0.
0.537969 0.0129998 0.
0.53997 0.0129998 0.
0.541972 0.0129998 0.
0.543973 0.0129998 0.
0.545975 0.0129999 0.
0.547976 0.013 0.
0.549978 0.0130001 0.
0.551978 0.013 0.
0.553979 0.013 0.
0.55598 0.0129999 0.
0.557981 0.0129997 0.
0.559981 0.0129995 0.
0.561982 0.0129994 0.
0.563983 0.0129992 0.
0.565983 0.012999 0.
0.567984 0.0129988 0.
0.569985 0.0129986 0.
0.571985 0.0129984 0.
0.573986 0.0129981 0.
0.575987 0.0129977 0.
0.577989 0.0129974 0.
0.57999 0.0129972 0.
0.581991 0.0129971 0.
0.583992 0.0129969 0.
0.585993 0.0129967 0.
0.587994 0.0129966 0.
0.589995 0.0129964 0.
0.591996 0.0129962 0.
0.593997 0.012996 0.
0.595998 0.0129959 0.
0.597999 0.0129959 0.
0.600001 0.0129959 0.
0.602002 0.012996 0.
0.604003 0.0129961 0.
0.606004 0.0129962 0.
0.608006 0.0129963 0.
0.610007 0.0129964 0.
0.612008 0.0129965 0.
0.614009 0.0129967 0.
0.61601 0.0129968 0.
0.618011 0.0129971 0.
0.620012 0.0129973 0.
0.622013 0.0129976 0.
0.624014 0.012998 0.
0.626014 0.0129983 0.
0.628015 0.0129986 0.
0.630016 0.0129989 0.
0.632017 0.0129992 0.
0.634018 0.0129994 0.
0.636018 0.0129995 0.
0.638019 0.0129996 0.
0.64002 0.0129997 0.
0.642021 0.0129998 0.
0.644021 0.0129999 0.
0.646022 0.013 0.
0.648023 0.0130001 0.
0.650024 0.0130001 0.
0.652025 0.013 0.
0.654027 0.0129999 0.
0.656028 0.0129998 0.
0.65803 0.0129997 0.
0.660031 0.0129997 0.
0.662032 0.0129997 0.
0.664033 0.0129997 0.
0.666034 0.0129997 0.
0.668035 0.0129997 0.
0.670036 0.0129997 0.
0.672037 0.0129997 0.
0.674038 0.0129998 0.
0.676039 0.0129999 0.
0.678041 0.0129999 0.
0.680042 0.013 0.
0.682043 0.0130001 0.
0.684044 0.0130002 0.
0.686046 0.0130002 0.
0.688047 0.0130003 0.
0.690048 0.0130004 0.
0.692049 0.0130006 0.
0.694051 0.0130007 0.
0.696052 0.013001 0.
0.698053 0.0130012 0.
0.499948 0.015001 0.
0.501949 0.0150007 0.
0.50395 0.0150005 0.
0.505951 0.0150004 0.
0.507952 0.0150003 0.
0.509953 0.0150002 0.
0.511954 0.0150002 0.
0.513955 0.015 0.
0.515957 0.0149999 0.
0.517958 0.0149999 0.
0.51996 0.015 0.
0.521961 0.015 0.
0.523962 0.015 0.
0.525963 0.015 0.
0.527964 0.0149999 0.
0.529965 0.015 0.
0.531966 0.015 0.
0.533967 0.015 0.
0.535968 0.015 0.
0.537969 0.015 0.
0.53997 0.015 0.
0.541972 0.015 0.
0.543973 0.015 0.
0.545975 0.015 0.
0.547976 0.015 0.
0.549978 0.015 0.
0.551978 0.015 0.
0.553979 0.015 0.
0.55598 0.015 0.
0.55798 0.0149999 0.
0.559981 0.0149998 0.
0.561982 0.0149996 0.
0.563983 0.0149995 0.
0.565983 0.0149993 0.
0.567984 0.0149991 0.
0.569985 0.0149988 0.
0.571986 0.0149986 0.
0.573987 0.0149981 0.
0.575988 0.0149977 0.
0.577989 0.0149972 0.
0.57999 0.0149969 0.
0.581991 0.0149966 0.
0.583992 0.0149964 0.
0.585993 0.0149963 0.
0.587994 0.0149962 0.
0.589995 0.0149961 0.
0.591996 0.014996 0.
0.593997 0.0149959 0.
0.595998 0.0149959 0.
0.597999 0.0149959 0.
0.600001 0.0149959 0.
0.602002 0.014996 0.
0.604003 0.0149961 0.
0.606005 0.0149962 0.
0.608006 0.0149962 0.
0.610007 0.0149962 0.
0.612008 0.0149962 0.
0.614009 0.0149963 0.
0.61601 0.0149964 0.
0.618011 0.0149967 0.
0.620012 0.0149971 0.
0.622013 0.0149975 0.
0.624013 0.014998 0.
0.626014 0.0149985 0.
0.628015 0.014999 0.
0.630016 0.0149992 0.
0.632017 0.0149994 0.
0.634018 0.0149996 0.
0.636018 0.0149997 0.
0.638019 0.0149997 0.
0.64002 0.0149998 0.
0.642021 0.0149999 0.
0.644022 0.015 0.
0.646022 0.015 0.
0.648023 0.015 0.
0.650024 0.015 0.
0.652026 0.015 0.
0.654027 0.015 0.
0.656028 0.015 0.
0.65803 0.015 0.
0.660031 0.015 0.
0.662032 0.015 0.
0.664033 0.015 0.
0.666034 0.015 0.
0.668035 0.015 0.
0.670036 0.015 0.
0.672037 0.015 0.
0.674038 0.015 0.
0.676039 0.015 0.
0.678041 0.015 0.
0.680042 0.015 0.
0.682043 0.015 0.
0.684044 0.015 0.
0.686045 0.015 0.
0.688047 0.015 0.
0.690048 0.0150001 0.
0.692049 0.0150003 0.
0.69405 0.0150004 0.
0.696052 0.0150008 0.
0.698053 0.0150011 0.
0.499948 0.0170019 0.
0.501949 0.0170017 0.
0.50395 0.0170014 0.
0.505951 0.0170012 0.
0.507952 0.017001 0.
0.509953 0.0170008 0.
0.511954 0.0170006 0.
0.513956 0.0170003 0.
0.515957 0.0170001 0.
0.517958 0.0169999 0.
0.51996 0.0169998 0.
0.521961 0.0169997 0.
0.523962 0.0169996 0.
0.525963 0.0169995 0.
0.527964 0.0169995 0.
0.529965 0.0169995 0.
0.531966 0.0169995 0.
0.533967 0.0169995 0.
0.535968 0.0169995 0.
0.537969 0.0169995 0.
0.53997 0.0169995 0.
0.541972 0.0169995 0.
0.543973 0.0169996 0.
0.545974 0.0169996 0.
0.547976 0.0169996 0.
0.549977 0.0169996 0.
0.551978 0.0169994 0.
0.553979 0.0169992 0.
0.55598 0.0169991 0.
0.55798 0.0169989 0.
0.559981 0.0169987 0.
0.561982 0.0169986 0.
0.563983 0.0169984 0.
0.565983 0.0169983 0.
0.567984 0.0169981 0.
0.569985 0.0169978 0.
0.571986 0.0169975 0.
0.573987 0.0169971 0.
0.575988 0.0169967 0.
0.577989 0.0169963 0.
0.57999 0.016996 0.
0.581991 0.0169957 0.
0.583992 0.0169954 0.
0.585993 0.0169951 0.
0.587994 0.0169948 0.
0.589995 0.0169945 0.
0.591996 0.0169943 0.
0.593997 0.016994 0.
0.595998 0.016994 0.
0.597999 0.016994 0.
0.6 0.0169941 0.
0.602002 0.0169941 0.
0.604003 0.0169942 0.
0.606005 0.0169943 0.
0.608006 0.0169946 0.
0.610007 0.0169948 0.
0.612008 0.016995 0.
0.614009 0.0169952 0.
0.61601 0.0169954 0.
0.618011 0.0169958 0.
0.620012 0.0169962 0.
0.622013 0.0169966 0.
0.624013 0.016997 0.
0.626014 0.0169974 0.
0.628015 0.0169978 0.
0.630016 0.0169981 0.
0.632017 0.0169983 0.
0.634018 0.0169985 0.
0.636018 0.0169986 0.
0.638019 0.0169987 0.
0.64002 0.0169988 0.
0.642021 0.016999 0.
0.644022 0.0169992 0.
0.646023 0.0169994 0.
0.648024 0.0169995 0.
0.650024 0.0169997 0.
0.652026 0.0169996 0.
0.654027 0.0169995 0.
0.656029 0.0169995 0.
0.65803 0.0169994 0.
0.660031 0.0169994 0.
0.662032 0.0169993 0.
0.664033 0.0169994 0.
0.666034 0.0169994 0.
0.668035 0.0169995 0.
0.670036 0.0169995 0.
0.672037 0.0169995 0.
0.674038 0.0169997 0.
0.676039 0.0169998 0.
0.678041 0.0169999 0.
0.680042 0.017 0.
0.682043 0.0170002 0.
0.684044 0.0170003 0.
0.686045 0.0170005 0.
0.688046 0.0170006 0.
0.690048 0.0170008 0.
0.692049 0.017001 0.
0.69405 0.0170013 0.
0.696051 0.0170016 0.
0.698052 0.017002 0.
0.499949 0.0190029 0.
0.50195 0.0190026 0.
0.50395 0.0190024 0.
0.505951 0.0190021 0.
0.507952 0.0190017 0.
0.509953 0.0190014 0.
0.511954 0.019001 0.
0.513956 0.0190006 0.
0.515957 0.0190002 0.
0.517958 0.0189999 0.
0.51996 0.0189996 0.
0.521961 0.0189993 0.
0.523962 0.0189992 0.
0.525963 0.0189991 0.
0.527964 0.018999 0.
0.529965 0.018999 0.
0.531966 0.0189989 0.
0.533967 0.0189989 0.
0.535968 0.018999 0.
0.537969 0.018999 0.
0.53997 0.018999 0.
0.541972 0.0189991 0.
0.543973 0.0189991 0.
0.545974 0.0189992 0.
0.547976 0.0189992 0.
0.549977 0.0189992 0.
0.551978 0.0189988 0.
0.553979 0.0189985 0.
0.555979 0.0189981 0.
0.55798 0.0189979 0.
0.559981 0.0189977 0.
0.561982 0.0189975 0.
0.563983 0.0189974 0.
0.565983 0.0189973 0.
0.567984 0.018997 0.
0.569985 0.0189967 0.
0.571986 0.0189964 0.
0.573987 0.018996 0.
0.575988 0.0189957 0.
0.577989 0.0189953 0.
0.57999 0.018995 0.
0.581991 0.0189947 0.
0.583992 0.0189944 0.
0.585993 0.0189939 0.
0.587994 0.0189934 0.
0.589995 0.018993 0.
0.591996 0.0189926 0.
0.593998 0.0189922 0.
0.595998 0.0189921 0.
0.597999 0.0189922 0.
0.6 0.0189923 0.
0.602001 0.0189923 0.
0.604003 0.0189923 0.
0.606005 0.0189924 0.
0.608006 0.0189929 0.
0.610007 0.0189935 0.
0.612008 0.0189939 0.
0.614009 0.0189942 0.
0.61601 0.0189945 0.
0.618011 0.0189949 0.
0.620012 0.0189953 0.
0.622013 0.0189956 0.
0.624013 0.018996 0.
0.626014 0.0189963 0.
0.628015 0.0189966 0.
0.630016 0.0189969 0.
0.632017 0.0189971 0.
0.634018 0.0189974 0.
0.636018 0.0189975 0.
0.638019 0.0189977 0.
0.64002 0.0189979 0.
0.642021 0.0189981 0.
0.644022 0.0189984 0.
0.646023 0.0189987 0.
0.648024 0.0189991 0.
0.650025 0.0189994 0.
0.652026 0.0189992 0.
0.654027 0.0189991 0.
0.656029 0.0189989 0.
0.65803 0.0189988 0.
0.660031 0.0189987 0.
0.662032 0.0189987 0.
0.664033 0.0189988 0.
0.666034 0.0189988 0.
0.668035 0.0189989 0.
0.670036 0.018999 0.
0.672037 0.0189991 0.
0.674038 0.0189993 0.
0.676039 0.0189995 0.
0.67804 0.0189997 0.
0.680042 0.019 0.
0.682043 0.0190004 0.
0.684044 0.0190006 0.
0.686045 0.0190009 0.
0.688046 0.0190012 0.
0.690047 0.0190015 0.
0.692048 0.0190018 0.
0.694049 0.0190021 0.
0.696051 0.0190025 0.
0.698052 0.0190029 0.
0.499949 0.0210032 0.
0.50195 0.0210029 0.
0.503951 0.0210026 0.
0.505952 0.0210023 0.
0.507952 0.0210019 0.
0.509953 0.0210015 0.
0.511954 0.0210011 0.
0.513956 0.0210006 0.
0.515957 0.0210002 0.
0.517958 0.0209998 0.
0.51996 0.0209995 0.
0.521961 0.0209991 0.
0.523962 0.020999 0.
0.525963 0.020999 0.
0.527964 0.0209989 0.
0.529965 0.0209989 0.
0.531966 0.0209989 0.
0.533967 0.0209989 0.
0.535968 0.020999 0.
0.537969 0.020999 0.
0.53997 0.020999 0.
0.541971 0.020999 0.
0.543973 0.0209991 0.
0.545974 0.0209991 0.
0.547975 0.0209991 0.
0.549977 0.020999 0.
0.551978 0.0209985 0.
0.553979 0.020998 0.
0.555979 0.0209976 0.
0.55798 0.0209973 0.
0.559981 0.020997 0.
0.561982 0.0209968 0.
0.563983 0.0209966 0.
0.565983 0.0209965 0.
0.567984 0.0209962 0.
0.569985 0.0209959 0.
0.571986 0.0209957 0.
0.573987 0.0209953 0.
0.575988 0.0209949 0.
0.577989 0.0209945 0.
0.57999 0.0209941 0.
0.581991 0.0209937 0.
0.583992 0.0209933 0.
0.585993 0.0209928 0.
0.587994 0.0209923 0.
0.589995 0.0209919 0.
0.591996 0.0209916 0.
0.593998 0.0209913 0.
0.595998 0.0209913 0.
0.597999 0.0209914 0.
0.6 0.0209914 0.
0.602001 0.0209914 0.
0.604003 0.0209913 0.
0.606004 0.0209914 0.
0.608006 0.0209919 0.
0.610007 0.0209924 0.
0.612008 0.0209928 0.
0.614009 0.0209932 0.
0.61601 0.0209936 0.
0.61801 0.020994 0.
0.620011 0.0209944 0.
0.622012 0.0209949 0.
0.624013 0.0209952 0.
0.626014 0.0209955 0.
0.628014 0.0209958 0.
0.630015 0.0209961 0.
0.632017 0.0209963 0.
0.634018 0.0209966 0.
0.636018 0.0209967 0.
0.638019 0.0209969 0.
0.64002 0.0209972 0.
0.642021 0.0209975 0.
0.644022 0.0209978 0.
0.646023 0.0209983 0.
0.648024 0.0209988 0.
0.650025 0.0209993 0.
0.652026 0.0209992 0.
0.654027 0.020999 0.
0.656029 0.0209989 0.
0.65803 0.0209988 0.
0.660031 0.0209986 0.
0.662032 0.0209986 0.
0.664033 0.0209987 0.
0.666034 0.0209988 0.
0.668035 0.0209988 0.
0.670036 0.0209989 0.
0.672037 0.020999 0.
0.674038 0.0209992 0.
0.676039 0.0209994 0.
0.67804 0.0209997 0.
0.680041 0.021 0.
0.682043 0.0210003 0.
0.684044 0.0210007 0.
0.686045 0.021001 0.
0.688046 0.0210013 0.
0.690047 0.0210017 0.
0.692048 0.021002 0.
0.694049 0.0210024 0.
0.69605 0.0210028 0.
0.698051 0.0210032 0.
0.499949 0.0230028 0.
0.50195 0.0230025 0.
0.503951 0.0230022 0.
0.505952 0.0230019 0.
0.507953 0.0230015 0.
0.509954 0.0230012 0.
0.511955 0.0230008 0.
0.513956 0.0230004 0.
0.515957 0.023 0.
0.517959 0.0229997 0.
0.51996 0.0229994 0.
0.521961 0.0229991 0.
0.523962 0.0229991 0.
0.525963 0.0229991 0.
0.527964 0.0229992 0.
0.529965 0.0229993 0.
0.531966 0.0229994 0.
0.533967 0.0229995 0.
0.535968 0.0229995 0.
0.537969 0.0229995 0.
0.53997 0.0229995 0.
0.541971 0.0229995 0.
0.543973 0.0229995 0.
0.545974 0.0229994 0.
0.547975 0.0229992 0.
0.549977 0.0229991 0.
0.551978 0.0229985 0.
0.553979 0.0229979 0.
0.55598 0.0229973 0.
0.55798 0.022997 0.
0.559981 0.0229967 0.
0.561982 0.0229964 0.
0.563983 0.0229962 0.
0.565984 0.0229959 0.
0.567984 0.0229957 0.
0.569985 0.0229955 0.
0.571986 0.0229952 0.
0.573987 0.0229948 0.
0.575988 0.0229943 0.
0.577989 0.0229937 0.
0.57999 0.0229932 0.
0.581991 0.0229926 0.
0.583992 0.0229921 0.
0.585993 0.0229918 0.
0.587994 0.0229915 0.
0.589995 0.0229914 0.
0.591996 0.0229914 0.
0.593997 0.0229914 0.
0.595998 0.0229914 0.
0.597999 0.0229915 0.
0.6 0.0229915 0.
0.602002 0.0229914 0.
0.604003 0.0229913 0.
0.606004 0.0229913 0.
0.608006 0.0229914 0.
0.610007 0.0229915 0.
0.612008 0.0229918 0.
0.614009 0.0229922 0.
0.616009 0.0229927 0.
0.61801 0.0229932 0.
0.620011 0.0229937 0.
0.622012 0.0229942 0.
0.624013 0.0229946 0.
0.626013 0.022995 0.
0.628014 0.0229954 0.
0.630015 0.0229956 0.
0.632016 0.0229959 0.
0.634017 0.0229961 0.
0.636018 0.0229962 0.
0.638019 0.0229964 0.
0.64002 0.0229967 0.
0.642021 0.0229971 0.
0.644022 0.0229975 0.
0.646023 0.0229981 0.
0.648024 0.0229988 0.
0.650025 0.0229995 0.
0.652026 0.0229995 0.
0.654027 0.0229995 0.
0.656029 0.0229994 0.
0.65803 0.0229993 0.
0.660031 0.0229991 0.
0.662032 0.0229991 0.
0.664033 0.0229991 0.
0.666034 0.0229992 0.
0.668035 0.0229992 0.
0.670036 0.0229992 0.
0.672037 0.0229992 0.
0.674038 0.0229994 0.
0.676039 0.0229995 0.
0.67804 0.0229997 0.
0.680041 0.0229999 0.
0.682042 0.0230001 0.
0.684043 0.0230004 0.
0.686044 0.0230007 0.
0.688046 0.023001 0.
0.690047 0.0230013 0.
0.692048 0.0230017 0.
0.694049 0.023002 0.
0.69605 0.0230024 0.
0.698051 0.0230028 0.
0.49995 0.0250024 0.
0.501951 0.0250021 0.
0.503951 0.0250017 0.
0.505952 0.0250014 0.
0.507953 0.0250012 0.
0.509954 0.0250009 0.
0.511955 0.0250006 0.
0.513956 0.0250002 0.
0.515957 0.0249999 0.
0.517959 0.0249996 0.
0.51996 0.0249993 0.
0.521961 0.0249991 0.
0.523962 0.0249992 0.
0.525963 0.0249993 0.
0.527964 0.0249995 0.
0.529965 0.0249997 0.
0.531966 0.0249999 0.
0.533967 0.025 0.
0.535968 0.025 0.
0.537969 0.025 0.
0.53997 0.025 0.
0.541971 0.0249999 0.
0.543973 0.0249998 0.
0.545974 0.0249997 0.
0.547976 0.0249994 0.
0.549977 0.0249992 0.
0.551978 0.0249985 0.
0.553979 0.0249977 0.
0.55598 0.024997 0.
0.557981 0.0249967 0.
0.559981 0.0249964 0.
0.561982 0.024996 0.
0.563983 0.0249957 0.
0.565984 0.0249953 0.
0.567985 0.0249951 0.
0.569986 0.024995 0.
0.571987 0.0249948 0.
0.573987 0.0249943 0.
0.575988 0.0249936 0.
0.577989 0.024993 0.
0.57999 0.0249923 0.
0.581991 0.0249915 0.
0.583992 0.024991 0.
0.585993 0.0249909 0.
0.587994 0.0249907 0.
0.589995 0.0249908 0.
0.591996 0.0249912 0.
0.593997 0.0249915 0.
0.595998 0.0249916 0.
0.597999 0.0249916 0.
0.6 0.0249916 0.
0.602002 0.0249915 0.
0.604003 0.0249914 0.
0.606004 0.0249912 0.
0.608005 0.0249909 0.
0.610007 0.0249907 0.
0.612008 0.0249907 0.
0.614008 0.0249913 0.
0.616009 0.0249918 0.
0.61801 0.0249924 0.
0.620011 0.0249929 0.
0.622012 0.0249935 0.
0.624013 0.024994 0.
0.626013 0.0249945 0.
0.628014 0.024995 0.
0.630015 0.0249952 0.
0.632016 0.0249954 0.
0.634017 0.0249956 0.
0.636018 0.0249958 0.
0.638019 0.0249959 0.
0.64002 0.0249962 0.
0.642021 0.0249967 0.
0.644022 0.0249971 0.
0.646023 0.0249979 0.
0.648024 0.0249988 0.
0.650025 0.0249997 0.
0.652026 0.0249998 0.
0.654027 0.0249999 0.
0.656029 0.0249999 0.
0.65803 0.0249998 0.
0.660031 0.0249996 0.
0.662033 0.0249995 0.
0.664033 0.0249996 0.
0.666034 0.0249996 0.
0.668035 0.0249996 0.
0.670036 0.0249995 0.
0.672037 0.0249995 0.
0.674038 0.0249995 0.
0.676039 0.0249996 0.
0.67804 0.0249997 0.
0.680041 0.0249998 0.
0.682042 0.0249999 0.
0.684043 0.0250001 0.
0.686044 0.0250004 0.
0.688045 0.0250007 0.
0.690046 0.025001 0.
0.692047 0.0250014 0.
0.694049 0.0250017 0.
0.69605 0.0250021 0.
0.698051 0.0250025 0.
0.49995 0.0270036 0.
0.501951 0.0270031 0.
0.503952 0.0270027 0.
0.505953 0.0270023 0.
0.507953 0.0270019 0.
0.509954 0.0270014 0.
0.511955 0.0270009 0.
0.513956 0.0270005 0.
0.515958 0.027 0.
0.517959 0.0269997 0.
0.51996 0.0269993 0.
0.521961 0.026999 0.
0.523962 0.026999 0.
0.525963 0.026999 0.
0.527964 0.026999 0.
0.529965 0.026999 0.
0.531966 0.026999 0.
0.533967 0.0269991 0.
0.535968 0.0269991 0.
0.537969 0.0269991 0.
0.53997 0.0269991 0.
0.541971 0.026999 0.
0.543973 0.026999 0.
0.545974 0.0269988 0.
0.547975 0.0269987 0.
0.549977 0.0269985 0.
0.551978 0.0269977 0.
0.553979 0.0269968 0.
0.55598 0.026996 0.
0.557981 0.0269957 0.
0.559981 0.0269953 0.
0.561982 0.026995 0.
0.563983 0.0269947 0.
0.565984 0.0269943 0.
0.567985 0.026994 0.
0.569986 0.0269938 0.
0.571987 0.0269935 0.
0.573987 0.0269931 0.
0.575988 0.0269926 0.
0.577989 0.0269922 0.
0.57999 0.0269917 0.
0.581991 0.0269912 0.
0.583992 0.0269907 0.
0.585993 0.0269904 0.
0.587994 0.02699 0.
0.589995 0.0269898 0.
0.591996 0.0269898 0.
0.593997 0.0269898 0.
0.595998 0.0269897 0.
0.597999 0.0269897 0.
0.6 0.0269896 0.
0.602002 0.0269897 0.
0.604003 0.0269898 0.
0.606004 0.0269898 0.
0.608005 0.02699 0.
0.610006 0.0269901 0.
0.612007 0.0269904 0.
0.614008 0.0269909 0.
0.616009 0.0269914 0.
0.61801 0.0269918 0.
0.620011 0.0269921 0.
0.622012 0.0269925 0.
0.624012 0.0269929 0.
0.626013 0.0269933 0.
0.628014 0.0269937 0.
0.630015 0.026994 0.
0.632016 0.0269943 0.
0.634017 0.0269946 0.
0.636018 0.0269948 0.
0.638019 0.0269951 0.
0.64002 0.0269954 0.
0.642021 0.0269959 0.
0.644022 0.0269964 0.
0.646023 0.0269972 0.
0.648024 0.0269981 0.
0.650025 0.026999 0.
0.652026 0.026999 0.
0.654027 0.0269989 0.
0.656029 0.0269989 0.
0.65803 0.0269988 0.
0.660031 0.0269987 0.
0.662032 0.0269987 0.
0.664033 0.0269988 0.
0.666034 0.0269989 0.
0.668035 0.026999 0.
0.670036 0.0269991 0.
0.672037 0.0269991 0.
0.674038 0.0269993 0.
0.676039 0.0269995 0.
0.67804 0.0269997 0.
0.680041 0.0269999 0.
0.682042 0.0270002 0.
0.684043 0.0270005 0.
0.686044 0.0270009 0.
0.688045 0.0270013 0.
0.690046 0.0270017 0.
0.692047 0.0270021 0.
0.694048 0.0270026 0.
0.696049 0.027003 0.
0.69805 0.0270035 0.
0.499951 0.0290048 0.
0.501952 0.0290042 0.
0.503952 0.0290037 0.
0.505953 0.0290032 0.
0.507954 0.0290026 0.
0.509955 0.0290019 0.
0.511956 0.0290013 0.
0.513957 0.0290008 0.
0.515958 0.0290002 0.
0.517959 0.0289998 0.
0.51996 0.0289993 0.
0.521961 0.0289989 0.
0.523962 0.0289987 0.
0.525963 0.0289986 0.
0.527964 0.0289985 0.
0.529965 0.0289983 0.
0.531966 0.0289982 0.
0.533967 0.0289981 0.
0.535968 0.0289982 0.
0.537969 0.0289982 0.
0.53997 0.0289982 0.
0.541971 0.0289981 0.
0.543973 0.0289981 0.
0.545974 0.028998 0.
0.547975 0.0289979 0.
0.549977 0.0289978 0.
0.551978 0.0289969 0.
0.553979 0.0289959 0.
0.55598 0.028995 0.
0.557981 0.0289947 0.
0.559981 0.0289943 0.
0.561982 0.028994 0.
0.563983 0.0289937 0.
0.565984 0.0289933 0.
0.567985 0.028993 0.
0.569986 0.0289926 0.
0.571987 0.0289922 0.
0.573987 0.0289919 0.
0.575988 0.0289917 0.
0.577989 0.0289914 0.
0.57999 0.0289911 0.
0.581991 0.0289909 0.
0.583992 0.0289905 0.
0.585993 0.0289898 0.
0.587995 0.0289892 0.
0.589996 0.0289887 0.
0.591997 0.0289884 0.
0.593997 0.0289881 0.
0.595998 0.0289879 0.
0.597999 0.0289878 0.
0.600001 0.0289877 0.
0.602002 0.0289879 0.
0.604003 0.0289881 0.
0.606004 0.0289884 0.
0.608005 0.028989 0.
0.610006 0.0289895 0.
0.612007 0.0289901 0.
0.614008 0.0289906 0.
0.616009 0.0289911 0.
0.61801 0.0289913 0.
0.620011 0.0289914 0.
0.622012 0.0289914 0.
0.624012 0.0289918 0.
0.626013 0.0289921 0.
0.628014 0.0289925 0.
0.630015 0.0289929 0.
0.632016 0.0289933 0.
0.634017 0.0289937 0.
0.636018 0.0289939 0.
0.638019 0.0289942 0.
0.64002 0.0289946 0.
0.642021 0.0289951 0.
0.644022 0.0289956 0.
0.646023 0.0289965 0.
0.648024 0.0289974 0.
0.650025 0.0289983 0.
0.652026 0.0289981 0.
0.654027 0.0289979 0.
0.656029 0.0289978 0.
0.65803 0.0289978 0.
0.660031 0.0289979 0.
0.662032 0.028998 0.
0.664033 0.0289981 0.
0.666034 0.0289982 0.
0.668035 0.0289984 0.
0.670036 0.0289986 0.
0.672037 0.0289988 0.
0.674038 0.0289991 0.
0.676039 0.0289994 0.
0.67804 0.0289997 0.
0.680041 0.0290001 0.
0.682042 0.0290005 0.
0.684043 0.0290009 0.
0.686044 0.0290014 0.
0.688044 0.0290019 0.
0.690045 0.0290024 0.
0.692046 0.0290029 0.
0.694047 0.0290034 0.
0.696048 0.029004 0.
0.698049 0.0290045 0.
0.499952 0.0310051 0.
0.501952 0.0310045 0.
0.503953 0.031004 0.
0.505954 0.0310035 0.
0.507954 0.0310028 0.
0.509955 0.0310021 0.
0.511956 0.0310014 0.
0.513957 0.0310008 0.
0.515958 0.0310002 0.
0.517959 0.0309997 0.
0.51996 0.0309992 0.
0.521961 0.0309987 0.
0.523962 0.0309985 0.
0.525963 0.0309984 0.
0.527964 0.0309983 0.
0.529965 0.0309981 0.
0.531966 0.030998 0.
0.533967 0.0309979 0.
0.535968 0.0309979 0.
0.537969 0.0309979 0.
0.53997 0.0309978 0.
0.541971 0.0309977 0.
0.543973 0.0309976 0.
0.545974 0.0309974 0.
0.547975 0.0309972 0.
0.549977 0.030997 0.
0.551978 0.0309961 0.
0.553979 0.0309952 0.
0.55598 0.0309943 0.
0.557981 0.0309939 0.
0.559982 0.0309935 0.
0.561983 0.0309932 0.
0.563983 0.0309928 0.
0.565984 0.0309925 0.
0.567985 0.0309921 0.
0.569986 0.0309917 0.
0.571987 0.0309913 0.
0.573988 0.030991 0.
0.575988 0.0309908 0.
0.577989 0.0309905 0.
0.57999 0.0309902 0.
0.581991 0.0309899 0.
0.583992 0.0309895 0.
0.585994 0.0309888 0.
0.587995 0.0309882 0.
0.589996 0.0309877 0.
0.591997 0.0309874 0.
0.593997 0.030987 0.
0.595998 0.0309869 0.
0.597999 0.0309868 0.
0.6 0.0309867 0.
0.602002 0.0309869 0.
0.604003 0.0309871 0.
0.606004 0.0309874 0.
0.608005 0.030988 0.
0.610006 0.0309886 0.
0.612007 0.0309892 0.
0.614008 0.0309897 0.
0.616009 0.0309901 0.
0.61801 0.0309904 0.
0.620011 0.0309905 0.
0.622012 0.0309906 0.
0.624012 0.0309909 0.
0.626013 0.0309912 0.
0.628014 0.0309916 0.
0.630015 0.030992 0.
0.632016 0.0309924 0.
0.634017 0.0309928 0.
0.636018 0.0309932 0.
0.638019 0.0309936 0.
0.64002 0.030994 0.
0.642021 0.0309945 0.
0.644022 0.0309949 0.
0.646023 0.0309958 0.
0.648024 0.0309967 0.
0.650025 0.0309976 0.
0.652026 0.0309975 0.
0.654027 0.0309975 0.
0.656029 0.0309974 0.
0.65803 0.0309975 0.
0.660031 0.0309977 0.
0.662032 0.0309978 0.
0.664033 0.0309979 0.
0.666034 0.030998 0.
0.668035 0.0309982 0.
0.670036 0.0309984 0.
0.672037 0.0309987 0.
0.674038 0.0309989 0.
0.676039 0.0309992 0.
0.67804 0.0309995 0.
0.680041 0.031 0.
0.682041 0.0310005 0.
0.684042 0.031001 0.
0.686043 0.0310015 0.
0.688044 0.0310021 0.
0.690045 0.0310026 0.
0.692046 0.0310031 0.
0.694047 0.0310037 0.
0.696048 0.0310043 0.
0.698049 0.0310049 0.
0.499952 0.0330046 0.
0.501953 0.0330041 0.
0.503953 0.0330036 0.
0.505954 0.0330032 0.
0.507955 0.0330025 0.
0.509956 0.0330019 0.
0.511956 0.0330013 0.
0.513958 0.0330006 0.
0.515959 0.033 0.
0.51796 0.0329994 0.
0.519961 0.0329989 0.
0.521962 0.0329984 0.
0.523963 0.0329984 0.
0.525963 0.0329984 0.
0.527964 0.0329983 0.
0.529965 0.0329983 0.
0.531966 0.0329983 0.
0.533967 0.0329983 0.
0.535968 0.0329983 0.
0.537969 0.0329982 0.
0.53997 0.0329981 0.
0.541972 0.0329978 0.
0.543973 0.0329975 0.
0.545974 0.0329971 0.
0.547975 0.0329966 0.
0.549977 0.0329962 0.
0.551978 0.0329954 0.
0.553979 0.0329946 0.
0.55598 0.0329939 0.
0.557981 0.0329935 0.
0.559982 0.032993 0.
0.561983 0.0329926 0.
0.563984 0.0329921 0.
0.565985 0.0329917 0.
0.567985 0.0329914 0.
0.569986 0.0329911 0.
0.571987 0.0329908 0.
0.573988 0.0329904 0.
0.575989 0.03299 0.
0.577989 0.0329896 0.
0.57999 0.032989 0.
0.581991 0.0329884 0.
0.583992 0.0329878 0.
0.585994 0.0329873 0.
0.587995 0.0329868 0.
0.589996 0.0329866 0.
0.591997 0.0329867 0.
0.593997 0.0329868 0.
0.595998 0.0329868 0.
0.597999 0.0329868 0.
0.6 0.0329868 0.
0.602001 0.0329867 0.
0.604003 0.0329867 0.
0.606004 0.0329867 0.
0.608005 0.032987 0.
0.610006 0.0329873 0.
0.612007 0.0329877 0.
0.614008 0.0329881 0.
0.616009 0.0329885 0.
0.61801 0.032989 0.
0.620011 0.0329895 0.
0.622012 0.0329901 0.
0.624012 0.0329904 0.
0.626013 0.0329907 0.
0.628014 0.0329909 0.
0.630015 0.0329913 0.
0.632015 0.0329916 0.
0.634016 0.032992 0.
0.636017 0.0329925 0.
0.638018 0.0329931 0.
0.640019 0.0329935 0.
0.64202 0.0329939 0.
0.644021 0.0329943 0.
0.646022 0.0329951 0.
0.648023 0.0329959 0.
0.650024 0.0329968 0.
0.652026 0.0329971 0.
0.654027 0.0329975 0.
0.656028 0.0329978 0.
0.65803 0.0329979 0.
0.660031 0.0329981 0.
0.662032 0.0329982 0.
0.664033 0.0329983 0.
0.666034 0.0329984 0.
0.668035 0.0329985 0.
0.670036 0.0329986 0.
0.672036 0.0329986 0.
0.674037 0.0329988 0.
0.676038 0.0329989 0.
0.678039 0.0329991 0.
0.68004 0.0329996 0.
0.682041 0.0330001 0.
0.684042 0.0330007 0.
0.686043 0.0330013 0.
0.688044 0.0330019 0.
0.690045 0.0330024 0.
0.692045 0.0330029 0.
0.694046 0.0330033 0.
0.696047 0.033004 0.
0.698048 0.0330046 0.
0.499953 0.0350041 0.
0.501953 0.0350036 0.
0.503954 0.0350032 0.
0.505954 0.0350028 0.
0.507955 0.0350023 0.
0.509956 0.0350018 0.
0.511957 0.0350012 0.
0.513958 0.0350005 0.
0.515959 0.0349998 0.
0.51796 0.0349992 0.
0.519961 0.0349987 0.
0.521962 0.0349981 0.
0.523963 0.0349982 0.
0.525964 0.0349983 0.
0.527965 0.0349984 0.
0.529966 0.0349985 0.
0.531967 0.0349987 0.
0.533968 0.0349987 0.
0.535969 0.0349987 0.
0.537969 0.0349986 0.
0.539971 0.0349983 0.
0.541972 0.0349979 0.
0.543973 0.0349975 0.
0.545974 0.0349968 0.
0.547976 0.034996 0.
0.549977 0.0349953 0.
0.551978 0.0349947 0.
0.553979 0.0349941 0.
0.55598 0.0349935 0.
0.557981 0.034993 0.
0.559982 0.0349925 0.
0.561983 0.034992 0.
0.563984 0.0349915 0.
0.565985 0.0349909 0.
0.567986 0.0349906 0.
0.569987 0.0349905 0.
0.571987 0.0349903 0.
0.573988 0.0349898 0.
0.575989 0.0349892 0.
0.57799 0.0349886 0.
0.579991 0.0349877 0.
0.581992 0.0349868 0.
0.583992 0.0349861 0.
0.585993 0.0349858 0.
0.587994 0.0349855 0.
0.589995 0.0349856 0.
0.591996 0.034986 0.
0.593997 0.0349865 0.
0.595998 0.0349866 0.
0.597999 0.0349868 0.
0.6 0.0349869 0.
0.602001 0.0349866 0.
0.604003 0.0349863 0.
0.606004 0.034986 0.
0.608005 0.034986 0.
0.610007 0.034986 0.
0.612008 0.0349862 0.
0.614008 0.0349866 0.
0.616009 0.034987 0.
0.61801 0.0349877 0.
0.620011 0.0349886 0.
0.622011 0.0349895 0.
0.624012 0.0349898 0.
0.626013 0.0349901 0.
0.628014 0.0349903 0.
0.630014 0.0349906 0.
0.632015 0.0349908 0.
0.634016 0.0349912 0.
0.636017 0.0349919 0.
0.638018 0.0349926 0.
0.640019 0.034993 0.
0.64202 0.0349934 0.
0.644021 0.0349937 0.
0.646022 0.0349944 0.
0.648023 0.0349952 0.
0.650024 0.034996 0.
0.652026 0.0349967 0.
0.654027 0.0349975 0.
0.656028 0.0349981 0.
0.658029 0.0349983 0.
0.660031 0.0349985 0.
0.662032 0.0349987 0.
0.664033 0.0349987 0.
0.666033 0.0349988 0.
0.668034 0.0349988 0.
0.670035 0.0349987 0.
0.672036 0.0349986 0.
0.674037 0.0349986 0.
0.676038 0.0349987 0.
0.678039 0.0349987 0.
0.68004 0.0349993 0.
0.682041 0.0349998 0.
0.684041 0.0350004 0.
0.686042 0.035001 0.
0.688043 0.0350017 0.
0.690044 0.0350022 0.
0.692045 0.0350026 0.
0.694046 0.035003 0.
0.696047 0.0350036 0.
0.698048 0.0350043 0.
0.499954 0.0370054 0.
0.501954 0.0370048 0.
0.503955 0.0370042 0.
0.505955 0.0370037 0.
0.507956 0.037003 0.
0.509957 0.0370023 0.
0.511958 0.0370016 0.
0.513959 0.0370008 0.
0.51596 0.0370001 0.
0.517961 0.0369995 0.
0.519962 0.0369989 0.
0.521963 0.0369983 0.
0.523963 0.0369983 0.
0.525964 0.0369983 0.
0.527965 0.0369983 0.
0.529966 0.0369982 0.
0.531967 0.0369981 0.
0.533968 0.036998 0.
0.535969 0.0369978 0.
0.53797 0.0369977 0.
0.539971 0.0369975 0.
0.541972 0.0369971 0.
0.543973 0.0369967 0.
0.545975 0.0369962 0.
0.547976 0.0369956 0.
0.549977 0.036995 0.
0.551978 0.0369942 0.
0.553979 0.0369934 0.
0.55598 0.0369926 0.
0.557981 0.0369921 0.
0.559982 0.0369916 0.
0.561983 0.0369911 0.
0.563984 0.0369907 0.
0.565985 0.0369902 0.
0.567986 0.0369898 0.
0.569987 0.0369894 0.
0.571987 0.0369891 0.
0.573988 0.0369886 0.
0.575989 0.0369882 0.
0.57799 0.0369877 0.
0.579991 0.0369871 0.
0.581992 0.0369864 0.
0.583993 0.0369858 0.
0.585994 0.0369854 0.
0.587995 0.036985 0.
0.589996 0.0369848 0.
0.591997 0.036985 0.
0.593998 0.0369851 0.
0.595998 0.0369852 0.
0.597999 0.0369852 0.
0.6 0.0369853 0.
0.602002 0.0369851 0.
0.604003 0.036985 0.
0.606004 0.0369849 0.
0.608005 0.0369852 0.
0.610006 0.0369855 0.
0.612007 0.0369858 0.
0.614008 0.0369862 0.
0.616009 0.0369866 0.
0.61801 0.0369871 0.
0.620011 0.0369877 0.
0.622011 0.0369883 0.
0.624012 0.0369886 0.
0.626013 0.036989 0.
0.628013 0.0369893 0.
0.630014 0.0369897 0.
0.632015 0.0369901 0.
0.634016 0.0369906 0.
0.636017 0.0369911 0.
0.638018 0.0369917 0.
0.640019 0.0369921 0.
0.64202 0.0369926 0.
0.644021 0.036993 0.
0.646022 0.0369938 0.
0.648023 0.0369948 0.
0.650024 0.0369957 0.
0.652025 0.0369962 0.
0.654027 0.0369967 0.
0.656028 0.0369971 0.
0.658029 0.0369974 0.
0.66003 0.0369976 0.
0.662031 0.0369979 0.
0.664032 0.036998 0.
0.666033 0.0369982 0.
0.668034 0.0369984 0.
0.670035 0.0369985 0.
0.672036 0.0369987 0.
0.674037 0.0369988 0.
0.676038 0.0369989 0.
0.678039 0.0369991 0.
0.680039 0.0369997 0.
0.68204 0.0370003 0.
0.684041 0.0370009 0.
0.686042 0.0370016 0.
0.688043 0.0370023 0.
0.690044 0.0370029 0.
0.692044 0.0370034 0.
0.694045 0.037004 0.
0.696046 0.0370047 0.
0.698047 0.0370054 0.
0.499955 0.0390067 0.
0.501955 0.0390059 0.
0.503956 0.0390052 0.
0.505956 0.0390045 0.
0.507957 0.0390037 0.
0.509957 0.0390028 0.
0.511958 0.039002 0.
0.513959 0.0390012 0.
0.51596 0.0390005 0.
0.517961 0.0389998 0.
0.519962 0.0389992 0.
0.521963 0.0389985 0.
0.523964 0.0389984 0.
0.525964 0.0389984 0.
0.527965 0.0389983 0.
0.529966 0.0389979 0.
0.531967 0.0389975 0.
0.533969 0.0389972 0.
0.535969 0.038997 0.
0.53797 0.0389969 0.
0.539971 0.0389966 0.
0.541973 0.0389963 0.
0.543974 0.038996 0.
0.545975 0.0389956 0.
0.547977 0.0389952 0.
0.549978 0.0389947 0.
0.551979 0.0389937 0.
0.55398 0.0389926 0.
0.555981 0.0389917 0.
0.557981 0.0389912 0.
0.559982 0.0389907 0.
0.561983 0.0389903 0.
0.563984 0.0389899 0.
0.565985 0.0389895 0.
0.567986 0.038989 0.
0.569987 0.0389884 0.
0.571987 0.0389878 0.
0.573988 0.0389875 0.
0.575989 0.0389872 0.
0.57799 0.0389868 0.
0.579991 0.0389864 0.
0.581992 0.038986 0.
0.583993 0.0389856 0.
0.585994 0.038985 0.
0.587995 0.0389844 0.
0.589996 0.0389841 0.
0.591997 0.038984 0.
0.593998 0.0389838 0.
0.595999 0.0389837 0.
0.598 0.0389837 0.
0.600001 0.0389836 0.
0.602002 0.0389837 0.
0.604003 0.0389837 0.
0.606004 0.0389838 0.
0.608005 0.0389844 0.
0.610005 0.0389849 0.
0.612006 0.0389854 0.
0.614008 0.0389858 0.
0.616009 0.0389862 0.
0.61801 0.0389865 0.
0.62001 0.0389868 0.
0.622011 0.038987 0.
0.624012 0.0389874 0.
0.626013 0.0389879 0.
0.628013 0.0389883 0.
0.630014 0.0389889 0.
0.632015 0.0389894 0.
0.634016 0.0389899 0.
0.636017 0.0389903 0.
0.638018 0.0389907 0.
0.640019 0.0389912 0.
0.64202 0.0389917 0.
0.64402 0.0389922 0.
0.646021 0.0389933 0.
0.648022 0.0389944 0.
0.650023 0.0389955 0.
0.652025 0.0389957 0.
0.654026 0.0389959 0.
0.656028 0.0389962 0.
0.658029 0.0389965 0.
0.66003 0.0389968 0.
0.662031 0.0389971 0.
0.664032 0.0389973 0.
0.666032 0.0389976 0.
0.668033 0.0389979 0.
0.670034 0.0389983 0.
0.672035 0.0389987 0.
0.674036 0.038999 0.
0.676037 0.0389992 0.
0.678038 0.0389995 0.
0.680039 0.0390002 0.
0.68204 0.0390008 0.
0.684041 0.0390015 0.
0.686041 0.0390022 0.
0.688042 0.0390029 0.
0.690043 0.0390036 0.
0.692044 0.0390043 0.
0.694044 0.039005 0.
0.696045 0.0390057 0.
0.698046 0.0390065 0.
0.499956 0.0410073 0.
0.501956 0.0410064 0.
0.503956 0.0410056 0.
0.505957 0.0410048 0.
0.507958 0.0410039 0.
0.509958 0.041003 0.
0.511959 0.0410021 0.
0.51396 0.0410013 0.
0.515961 0.0410005 0.
0.517962 0.0409998 0.
0.519963 0.0409992 0.
0.521964 0.0409985 0.
0.523964 0.0409984 0.
0.525965 0.0409983 0.
0.527966 0.0409982 0.
0.529967 0.0409978 0.
0.531968 0.0409974 0.
0.533969 0.040997 0.
0.53597 0.0409968 0.
0.537971 0.0409965 0.
0.539972 0.0409962 0.
0.541973 0.0409958 0.
0.543974 0.0409954 0.
0.545976 0.040995 0.
0.547977 0.0409946 0.
0.549978 0.0409942 0.
0.551979 0.0409931 0.
0.55398 0.040992 0.
0.555981 0.040991 0.
0.557982 0.0409905 0.
0.559983 0.04099 0.
0.561983 0.0409895 0.
0.563984 0.0409891 0.
0.565985 0.0409887 0.
0.567986 0.0409882 0.
0.569987 0.0409876 0.
0.571988 0.040987 0.
0.573988 0.0409867 0.
0.575989 0.0409863 0.
0.57799 0.040986 0.
0.579991 0.0409856 0.
0.581992 0.0409852 0.
0.583993 0.0409847 0.
0.585994 0.0409842 0.
0.587995 0.0409836 0.
0.589996 0.0409833 0.
0.591997 0.040983 0.
0.593998 0.0409828 0.
0.595999 0.0409827 0.
0.598 0.0409827 0.
0.600001 0.0409826 0.
0.602002 0.0409827 0.
0.604003 0.0409827 0.
0.606004 0.0409829 0.
0.608004 0.0409835 0.
0.610005 0.040984 0.
0.612006 0.0409845 0.
0.614007 0.040985 0.
0.616009 0.0409854 0.
0.61801 0.0409857 0.
0.62001 0.0409859 0.
0.622011 0.0409862 0.
0.624012 0.0409866 0.
0.626012 0.0409871 0.
0.628013 0.0409875 0.
0.630014 0.0409881 0.
0.632015 0.0409887 0.
0.634016 0.0409892 0.
0.636017 0.0409896 0.
0.638018 0.04099 0.
0.640018 0.0409906 0.
0.642019 0.0409911 0.
0.64402 0.0409917 0.
0.646021 0.0409927 0.
0.648022 0.0409938 0.
0.650023 0.0409949 0.
0.652024 0.0409952 0.
0.654026 0.0409955 0.
0.656027 0.0409958 0.
0.658028 0.0409961 0.
0.660029 0.0409965 0.
0.66203 0.0409968 0.
0.664031 0.0409971 0.
0.666032 0.0409974 0.
0.668033 0.0409978 0.
0.670034 0.0409982 0.
0.672035 0.0409987 0.
0.674036 0.0409989 0.
0.676037 0.0409992 0.
0.678038 0.0409995 0.
0.680038 0.0410002 0.
0.682039 0.0410009 0.
0.68404 0.0410016 0.
0.686041 0.0410023 0.
0.688041 0.0410031 0.
0.690042 0.0410039 0.
0.692043 0.0410046 0.
0.694043 0.0410054 0.
0.696044 0.0410063 0.
0.698045 0.0410071 0.
0.499956 0.0430071 0.
0.501957 0.0430062 0.
0.503957 0.0430054 0.
0.505958 0.0430046 0.
0.507958 0.0430037 0.
0.509959 0.0430028 0.
0.51196 0.043002 0.
0.513961 0.0430011 0.
0.515962 0.0430003 0.
0.517963 0.0429996 0.
0.519964 0.0429989 0.
0.521965 0.0429982 0.
0.523965 0.0429981 0.
0.525966 0.0429982 0.
0.527967 0.0429982 0.
0.529968 0.0429979 0.
0.531969 0.0429976 0.
0.53397 0.0429973 0.
0.535971 0.042997 0.
0.537972 0.0429967 0.
0.539972 0.0429962 0.
0.541974 0.0429957 0.
0.543975 0.0429951 0.
0.545976 0.0429945 0.
0.547977 0.0429939 0.
0.549978 0.0429933 0.
0.551979 0.0429924 0.
0.55398 0.0429916 0.
0.555981 0.0429908 0.
0.557982 0.0429901 0.
0.559983 0.0429895 0.
0.561984 0.0429889 0.
0.563985 0.0429884 0.
0.565986 0.0429879 0.
0.567986 0.0429875 0.
0.569987 0.0429871 0.
0.571988 0.0429868 0.
0.573989 0.0429862 0.
0.575989 0.0429857 0.
0.57799 0.0429851 0.
0.579991 0.0429845 0.
0.581992 0.0429839 0.
0.583993 0.0429833 0.
0.585994 0.0429829 0.
0.587995 0.0429825 0.
0.589996 0.0429823 0.
0.591997 0.0429822 0.
0.593997 0.0429821 0.
0.595999 0.0429821 0.
0.598 0.0429821 0.
0.600001 0.0429822 0.
0.602002 0.0429821 0.
0.604003 0.0429821 0.
0.606004 0.0429822 0.
0.608005 0.0429825 0.
0.610006 0.0429828 0.
0.612007 0.0429832 0.
0.614008 0.0429836 0.
0.616009 0.042984 0.
0.618009 0.0429845 0.
0.62001 0.0429851 0.
0.622011 0.0429857 0.
0.624012 0.0429862 0.
0.626012 0.0429866 0.
0.628013 0.042987 0.
0.630014 0.0429874 0.
0.632014 0.0429879 0.
0.634015 0.0429884 0.
0.636016 0.042989 0.
0.638017 0.0429896 0.
0.640018 0.0429902 0.
0.642019 0.0429908 0.
0.64402 0.0429914 0.
0.646021 0.0429922 0.
0.648022 0.0429931 0.
0.650023 0.042994 0.
0.652024 0.0429947 0.
0.654025 0.0429953 0.
0.656027 0.0429959 0.
0.658028 0.0429963 0.
0.660029 0.0429968 0.
0.66203 0.0429972 0.
0.66403 0.0429974 0.
0.666031 0.0429977 0.
0.668032 0.0429979 0.
0.670033 0.0429982 0.
0.672034 0.0429985 0.
0.674035 0.0429987 0.
0.676036 0.0429989 0.
0.678037 0.0429991 0.
0.680037 0.0429998 0.
0.682038 0.0430005 0.
0.684039 0.0430012 0.
0.68604 0.043002 0.
0.688041 0.0430028 0.
0.690041 0.0430036 0.
0.692042 0.0430045 0.
0.694043 0.0430053 0.
0.696043 0.0430063 0.
0.698044 0.0430072 0.
0.499957 0.045007 0.
0.501958 0.0450061 0.
0.503958 0.0450053 0.
0.505959 0.0450044 0.
0.507959 0.0450036 0.
0.50996 0.0450027 0.
0.511961 0.0450018 0.
0.513962 0.0450009 0.
0.515963 0.0450001 0.
0.517964 0.0449993 0.
0.519965 0.0449986 0.
0.521966 0.0449979 0.
0.523966 0.0449979 0.
0.525967 0.0449981 0.
0.527968 0.0449982 0.
0.529969 0.044998 0.
0.531969 0.0449979 0.
0.53397 0.0449977 0.
0.535971 0.0449973 0.
0.537972 0.0449968 0.
0.539973 0.0449962 0.
0.541974 0.0449955 0.
0.543975 0.0449948 0.
0.545976 0.044994 0.
0.547977 0.0449932 0.
0.549979 0.0449923 0.
0.55198 0.0449917 0.
0.55398 0.0449911 0.
0.555981 0.0449905 0.
0.557983 0.0449897 0.
0.559984 0.044989 0.
0.561985 0.0449883 0.
0.563985 0.0449876 0.
0.565986 0.044987 0.
0.567987 0.0449867 0.
0.569987 0.0449866 0.
0.571988 0.0449865 0.
0.573989 0.0449858 0.
0.57599 0.044985 0.
0.57799 0.0449843 0.
0.579991 0.0449834 0.
0.581992 0.0449826 0.
0.583993 0.0449819 0.
0.585994 0.0449817 0.
0.587995 0.0449814 0.
0.589996 0.0449813 0.
0.591997 0.0449813 0.
0.593997 0.0449814 0.
0.595999 0.0449815 0.
0.598 0.0449816 0.
0.600001 0.0449817 0.
0.602002 0.0449816 0.
0.604003 0.0449815 0.
0.606004 0.0449814 0.
0.608005 0.0449815 0.
0.610006 0.0449816 0.
0.612007 0.0449818 0.
0.614008 0.0449822 0.
0.616009 0.0449826 0.
0.618009 0.0449834 0.
0.62001 0.0449844 0.
0.622011 0.0449853 0.
0.624012 0.0449857 0.
0.626012 0.0449861 0.
0.628013 0.0449864 0.
0.630014 0.0449868 0.
0.632014 0.0449871 0.
0.634015 0.0449876 0.
0.636016 0.0449883 0.
0.638016 0.0449891 0.
0.640017 0.0449897 0.
0.642018 0.0449904 0.
0.644019 0.0449911 0.
0.64602 0.0449917 0.
0.648021 0.0449924 0.
0.650022 0.0449931 0.
0.652024 0.0449941 0.
0.654025 0.0449951 0.
0.656026 0.044996 0.
0.658027 0.0449966 0.
0.660028 0.0449971 0.
0.662029 0.0449975 0.
0.66403 0.0449977 0.
0.666031 0.044998 0.
0.668031 0.0449981 0.
0.670032 0.0449982 0.
0.672033 0.0449983 0.
0.674034 0.0449984 0.
0.676035 0.0449985 0.
0.678036 0.0449987 0.
0.680037 0.0449994 0.
0.682037 0.0450001 0.
0.684038 0.0450008 0.
0.686039 0.0450017 0.
0.68804 0.0450026 0.
0.69004 0.0450034 0.
0.692041 0.0450043 0.
0.694042 0.0450052 0.
0.696043 0.0450062 0.
0.698044 0.0450073 0.
0.499958 0.047008 0.
0.501959 0.047007 0.
0.503959 0.0470061 0.
0.50596 0.0470052 0.
0.50796 0.0470042 0.
0.509961 0.0470031 0.
0.511962 0.0470022 0.
0.513963 0.0470012 0.
0.515963 0.0470003 0.
0.517964 0.0469994 0.
0.519965 0.0469987 0.
0.521966 0.0469979 0.
0.523967 0.0469979 0.
0.525968 0.0469979 0.
0.527968 0.0469979 0.
0.529969 0.0469977 0.
0.53197 0.0469974 0.
0.533971 0.0469971 0.
0.535972 0.0469967 0.
0.537973 0.0469962 0.
0.539974 0.0469956 0.
0.541975 0.046995 0.
0.543976 0.0469943 0.
0.545977 0.0469935 0.
0.547978 0.0469927 0.
0.549979 0.0469919 0.
0.55198 0.0469911 0.
0.553981 0.0469903 0.
0.555982 0.0469895 0.
0.557983 0.0469888 0.
0.559984 0.0469882 0.
0.561984 0.0469875 0.
0.563985 0.046987 0.
0.565986 0.0469864 0.
0.567987 0.0469859 0.
0.569987 0.0469856 0.
0.571988 0.0469852 0.
0.573989 0.0469846 0.
0.57599 0.046984 0.
0.57799 0.0469834 0.
0.579991 0.0469827 0.
0.581992 0.0469821 0.
0.583993 0.0469816 0.
0.585994 0.0469812 0.
0.587995 0.0469808 0.
0.589996 0.0469806 0.
0.591997 0.0469805 0.
0.593998 0.0469804 0.
0.595999 0.0469804 0.
0.598 0.0469805 0.
0.600001 0.0469807 0.
0.602002 0.0469806 0.
0.604002 0.0469806 0.
0.606003 0.0469806 0.
0.608004 0.0469808 0.
0.610005 0.046981 0.
0.612006 0.0469813 0.
0.614007 0.0469817 0.
0.616008 0.0469822 0.
0.618009 0.0469828 0.
0.62001 0.0469835 0.
0.622011 0.0469841 0.
0.624012 0.0469846 0.
0.626012 0.046985 0.
0.628013 0.0469855 0.
0.630013 0.046986 0.
0.632014 0.0469864 0.
0.634015 0.046987 0.
0.636016 0.0469876 0.
0.638016 0.0469882 0.
0.640017 0.0469889 0.
0.642018 0.0469895 0.
0.644019 0.0469901 0.
0.64602 0.046991 0.
0.648021 0.046992 0.
0.650022 0.0469929 0.
0.652023 0.0469937 0.
0.654024 0.0469946 0.
0.656025 0.0469953 0.
0.658026 0.0469958 0.
0.660027 0.0469963 0.
0.662028 0.0469968 0.
0.664029 0.0469971 0.
0.66603 0.0469974 0.
0.668031 0.0469977 0.
0.670031 0.046998 0.
0.672032 0.0469983 0.
0.674033 0.0469985 0.
0.676034 0.0469987 0.
0.678035 0.0469989 0.
0.680036 0.0469997 0.
0.682036 0.0470004 0.
0.684037 0.0470012 0.
0.686038 0.0470022 0.
0.688039 0.0470031 0.
0.690039 0.0470041 0.
0.69204 0.047005 0.
0.694041 0.047006 0.
0.696041 0.0470071 0.
0.698042 0.0470083 0.
0.49996 0.0490091 0.
0.50196 0.049008 0.
0.503961 0.049007 0.
0.505961 0.049006 0.
0.507962 0.0490048 0.
0.509962 0.0490036 0.
0.511963 0.0490025 0.
0.513963 0.0490015 0.
0.515964 0.0490005 0.
0.517965 0.0489996 0.
0.519966 0.0489988 0.
0.521967 0.048998 0.
0.523968 0.0489978 0.
0.525968 0.0489978 0.
0.527969 0.0489977 0.
0.52997 0.0489973 0.
0.531971 0.0489969 0.
0.533972 0.0489965 0.
0.535973 0.0489961 0.
0.537974 0.0489956 0.
0.539975 0.0489951 0.
0.541976 0.0489944 0.
0.543977 0.0489938 0.
0.545978 0.0489931 0.
0.547979 0.0489923 0.
0.54998 0.0489915 0.
0.551981 0.0489905 0.
0.553981 0.0489895 0.
0.555982 0.0489885 0.
0.557983 0.048988 0.
0.559984 0.0489874 0.
0.561984 0.0489868 0.
0.563985 0.0489863 0.
0.565986 0.0489857 0.
0.567987 0.0489852 0.
0.569988 0.0489846 0.
0.571988 0.048984 0.
0.573989 0.0489835 0.
0.57599 0.048983 0.
0.577991 0.0489825 0.
0.579992 0.0489821 0.
0.581993 0.0489817 0.
0.583994 0.0489812 0.
0.585995 0.0489808 0.
0.587996 0.0489803 0.
0.589996 0.0489799 0.
0.591997 0.0489796 0.
0.593998 0.0489793 0.
0.595999 0.0489794 0.
0.598 0.0489795 0.
0.6 0.0489796 0.
0.602001 0.0489796 0.
0.604002 0.0489797 0.
0.606003 0.0489798 0.
0.608004 0.0489801 0.
0.610005 0.0489804 0.
0.612006 0.0489808 0.
0.614007 0.0489813 0.
0.616008 0.0489818 0.
0.618009 0.0489822 0.
0.62001 0.0489826 0.
0.622011 0.048983 0.
0.624011 0.0489835 0.
0.626012 0.048984 0.
0.628013 0.0489846 0.
0.630013 0.0489852 0.
0.632014 0.0489858 0.
0.634015 0.0489864 0.
0.636015 0.0489869 0.
0.638016 0.0489874 0.
0.640017 0.048988 0.
0.642018 0.0489886 0.
0.644018 0.0489892 0.
0.646019 0.0489903 0.
0.64802 0.0489915 0.
0.650021 0.0489927 0.
0.652022 0.0489934 0.
0.654024 0.048994 0.
0.656025 0.0489946 0.
0.658026 0.0489951 0.
0.660027 0.0489956 0.
0.662027 0.0489961 0.
0.664028 0.0489965 0.
0.666029 0.0489969 0.
0.66803 0.0489973 0.
0.670031 0.0489978 0.
0.672031 0.0489983 0.
0.674032 0.0489985 0.
0.676033 0.0489988 0.
0.678034 0.048999 0.
0.680035 0.0489999 0.
0.682036 0.0490007 0.
0.684036 0.0490016 0.
0.686037 0.0490027 0.
0.688038 0.0490037 0.
0.690038 0.0490047 0.
0.692039 0.0490057 0.
0.694039 0.0490068 0.
0.69604 0.049008 0.
0.698041 0.0490092 0.
0.499961 0.0510097 0.
0.501962 0.0510085 0.
0.503962 0.0510074 0.
0.505962 0.0510063 0.
0.507963 0.051005 0.
0.509963 0.0510038 0.
0.511964 0.0510026 0.
0.513965 0.0510015 0.
0.515965 0.0510005 0.
0.517966 0.0509996 0.
0.519967 0.0509987 0.
0.521968 0.0509979 0.
0.523969 0.0509978 0.
0.525969 0.0509977 0.
0.52797 0.0509976 0.
0.529971 0.0509972 0.
0.531972 0.0509968 0.
0.533973 0.0509963 0.
0.535974 0.0509958 0.
0.537975 0.0509953 0.
0.539975 0.0509948 0.
0.541976 0.0509941 0.
0.543978 0.0509934 0.
0.545979 0.0509926 0.
0.547979 0.0509919 0.
0.54998 0.0509911 0.
0.551981 0.05099 0.
0.553982 0.0509889 0.
0.555983 0.0509879 0.
0.557983 0.0509873 0.
0.559984 0.0509867 0.
0.561985 0.0509861 0.
0.563985 0.0509856 0.
0.565986 0.050985 0.
0.567987 0.0509844 0.
0.569988 0.0509838 0.
0.571989 0.0509832 0.
0.573989 0.0509827 0.
0.57599 0.0509821 0.
0.577991 0.0509816 0.
0.579992 0.0509813 0.
0.581993 0.0509809 0.
0.583994 0.0509805 0.
0.585995 0.05098 0.
0.587996 0.0509795 0.
0.589997 0.0509791 0.
0.591997 0.0509787 0.
0.593998 0.0509784 0.
0.595999 0.0509784 0.
0.598 0.0509785 0.
0.6 0.0509786 0.
0.602001 0.0509786 0.
0.604002 0.0509787 0.
0.606003 0.0509789 0.
0.608004 0.0509792 0.
0.610005 0.0509796 0.
0.612006 0.05098 0.
0.614007 0.0509805 0.
0.616008 0.050981 0.
0.618009 0.0509814 0.
0.62001 0.0509817 0.
0.622011 0.0509821 0.
0.624011 0.0509827 0.
0.626012 0.0509833 0.
0.628012 0.0509839 0.
0.630013 0.0509845 0.
0.632014 0.0509851 0.
0.634014 0.0509856 0.
0.636015 0.0509862 0.
0.638016 0.0509867 0.
0.640017 0.0509873 0.
0.642017 0.050988 0.
0.644018 0.0509886 0.
0.646019 0.0509898 0.
0.64802 0.0509911 0.
0.65002 0.0509924 0.
0.652022 0.050993 0.
0.654023 0.0509936 0.
0.656024 0.0509942 0.
0.658025 0.0509947 0.
0.660026 0.0509953 0.
0.662027 0.0509958 0.
0.664027 0.0509963 0.
0.666028 0.0509967 0.
0.668029 0.0509972 0.
0.67003 0.0509977 0.
0.672031 0.0509982 0.
0.674031 0.0509985 0.
0.676032 0.0509987 0.
0.678033 0.050999 0.
0.680034 0.0509998 0.
0.682034 0.0510007 0.
0.684035 0.0510017 0.
0.686036 0.0510028 0.
0.688037 0.0510039 0.
0.690037 0.051005 0.
0.692038 0.0510061 0.
0.694038 0.0510072 0.
0.696039 0.0510085 0.
0.698039 0.0510098 0.
0.499963 0.0530098 0.
0.501963 0.0530085 0.
0.503963 0.0530073 0.
0.505964 0.0530061 0.
0.507964 0.0530049 0.
0.509965 0.0530036 0.
0.511965 0.0530025 0.
0.513966 0.0530014 0.
0.515967 0.0530003 0.
0.517968 0.0529993 0.
0.519968 0.0529985 0.
0.521969 0.0529977 0.
0.52397 0.0529976 0.
0.525971 0.0529976 0.
0.527971 0.0529976 0.
0.529972 0.0529973 0.
0.531973 0.0529969 0.
0.533974 0.0529965 0.
0.535975 0.052996 0.
0.537975 0.0529954 0.
0.539976 0.0529947 0.
0.541977 0.0529939 0.
0.543978 0.052993 0.
0.545979 0.0529922 0.
0.54798 0.0529914 0.
0.549981 0.0529907 0.
0.551982 0.0529896 0.
0.553982 0.0529886 0.
0.555983 0.0529876 0.
0.557984 0.0529869 0.
0.559985 0.0529861 0.
0.561985 0.0529854 0.
0.563986 0.0529848 0.
0.565987 0.0529843 0.
0.567987 0.0529838 0.
0.569988 0.0529834 0.
0.571989 0.0529829 0.
0.573989 0.0529822 0.
0.57599 0.0529815 0.
0.577991 0.0529808 0.
0.579992 0.0529803 0.
0.581993 0.0529798 0.
0.583994 0.0529793 0.
0.585995 0.0529789 0.
0.587996 0.0529784 0.
0.589997 0.0529781 0.
0.591997 0.0529778 0.
0.593998 0.0529776 0.
0.595999 0.0529775 0.
0.598 0.0529775 0.
0.6 0.0529775 0.
0.602001 0.0529776 0.
0.604002 0.0529777 0.
0.606003 0.0529779 0.
0.608004 0.0529782 0.
0.610005 0.0529785 0.
0.612006 0.0529789 0.
0.614007 0.0529793 0.
0.616008 0.0529798 0.
0.618009 0.0529803 0.
0.62001 0.0529809 0.
0.622011 0.0529815 0.
0.624011 0.0529822 0.
0.626012 0.0529828 0.
0.628012 0.0529834 0.
0.630013 0.0529839 0.
0.632013 0.0529843 0.
0.634014 0.0529848 0.
0.636015 0.0529855 0.
0.638015 0.0529861 0.
0.640016 0.0529869 0.
0.642017 0.0529877 0.
0.644018 0.0529885 0.
0.646018 0.0529895 0.
0.648019 0.0529907 0.
0.65002 0.0529918 0.
0.652021 0.0529926 0.
0.654022 0.0529933 0.
0.656023 0.0529941 0.
0.658024 0.0529948 0.
0.660025 0.0529954 0.
0.662026 0.052996 0.
0.664026 0.0529965 0.
0.666027 0.0529969 0.
0.668028 0.0529973 0.
0.670029 0.0529977 0.
0.672029 0.0529981 0.
0.67403 0.0529983 0.
0.676031 0.0529984 0.
0.678032 0.0529986 0.
0.680032 0.0529995 0.
0.682033 0.0530004 0.
0.684034 0.0530014 0.
0.686034 0.0530025 0.
0.688035 0.0530036 0.
0.690036 0.0530048 0.
0.692036 0.053006 0.
0.694037 0.0530072 0.
0.696038 0.0530086 0.
0.698038 0.05301 0.
0.499964 0.0550099 0.
0.501964 0.0550085 0.
0.503965 0.0550073 0.
0.505965 0.055006 0.
0.507965 0.0550047 0.
0.509966 0.0550035 0.
0.511967 0.0550023 0.
0.513967 0.0550012 0.
0.515968 0.0550001 0.
0.517969 0.0549991 0.
0.51997 0.0549983 0.
0.521971 0.0549975 0.
0.523971 0.0549975 0.
0.525972 0.0549976 0.
0.527972 0.0549977 0.
0.529973 0.0549974 0.
0.531974 0.0549971 0.
0.533975 0.0549967 0.
0.535975 0.0549961 0.
0.537976 0.0549955 0.
0.539977 0.0549947 0.
0.541978 0.0549937 0.
0.543979 0.0549927 0.
0.545979 0.0549918 0.
0.54798 0.054991 0.
0.549981 0.0549902 0.
0.551982 0.0549893 0.
0.553983 0.0549883 0.
0.555984 0.0549874 0.
0.557984 0.0549864 0.
0.559985 0.0549855 0.
0.561986 0.0549847 0.
0.563986 0.0549841 0.
0.565987 0.0549835 0.
0.567988 0.0549832 0.
0.569988 0.0549829 0.
0.571989 0.0549826 0.
0.57399 0.0549818 0.
0.57599 0.0549808 0.
0.577991 0.05498 0.
0.579992 0.0549793 0.
0.581993 0.0549786 0.
0.583994 0.0549781 0.
0.585995 0.0549777 0.
0.587996 0.0549774 0.
0.589996 0.0549771 0.
0.591997 0.0549769 0.
0.593998 0.0549767 0.
0.595999 0.0549766 0.
0.597999 0.0549766 0.
0.6 0.0549765 0.
0.602001 0.0549766 0.
0.604002 0.0549767 0.
0.606003 0.0549769 0.
0.608004 0.0549772 0.
0.610005 0.0549775 0.
0.612006 0.0549778 0.
0.614007 0.0549782 0.
0.616008 0.0549786 0.
0.618009 0.0549793 0.
0.62001 0.0549801 0.
0.62201 0.054981 0.
0.624011 0.0549817 0.
0.626011 0.0549824 0.
0.628012 0.054983 0.
0.630012 0.0549833 0.
0.632013 0.0549835 0.
0.634013 0.054984 0.
0.636014 0.0549847 0.
0.638015 0.0549855 0.
0.640015 0.0549864 0.
0.642016 0.0549874 0.
0.644017 0.0549883 0.
0.646018 0.0549893 0.
0.648019 0.0549903 0.
0.65002 0.0549912 0.
0.652021 0.0549922 0.
0.654022 0.0549931 0.
0.656023 0.054994 0.
0.658023 0.0549948 0.
0.660024 0.0549956 0.
0.662025 0.0549963 0.
0.664026 0.0549967 0.
0.666026 0.0549972 0.
0.668027 0.0549975 0.
0.670027 0.0549977 0.
0.672028 0.054998 0.
0.674029 0.0549981 0.
0.67603 0.0549981 0.
0.67803 0.0549983 0.
0.680031 0.0549992 0.
0.682032 0.0550001 0.
0.684032 0.0550011 0.
0.686033 0.0550023 0.
0.688034 0.0550034 0.
0.690035 0.0550047 0.
0.692035 0.0550059 0.
0.694036 0.0550072 0.
0.696036 0.0550087 0.
0.698037 0.0550102 0.
0.499966 0.0570108 0.
0.501966 0.0570093 0.
0.503966 0.057008 0.
0.505967 0.0570066 0.
0.507967 0.0570052 0.
0.509968 0.0570039 0.
0.511968 0.0570026 0.
0.513969 0.0570014 0.
0.515969 0.0570002 0.
0.51797 0.0569992 0.
0.519971 0.0569983 0.
0.521972 0.0569974 0.
0.523972 0.0569973 0.
0.525973 0.0569974 0.
0.527974 0.0569973 0.
0.529974 0.056997 0.
0.531975 0.0569966 0.
0.533976 0.0569962 0.
0.535976 0.0569956 0.
0.537977 0.056995 0.
0.539978 0.0569942 0.
0.541979 0.0569933 0.
0.54398 0.0569924 0.
0.54598 0.0569915 0.
0.547981 0.0569906 0.
0.549982 0.0569897 0.
0.551983 0.0569886 0.
0.553983 0.0569876 0.
0.555984 0.0569866 0.
0.557985 0.0569857 0.
0.559985 0.0569848 0.
0.561986 0.0569841 0.
0.563987 0.0569834 0.
0.565987 0.0569827 0.
0.567988 0.0569822 0.
0.569988 0.0569817 0.
0.571989 0.0569812 0.
0.57399 0.0569805 0.
0.57599 0.0569798 0.
0.577991 0.056979 0.
0.579992 0.0569785 0.
0.581993 0.0569779 0.
0.583994 0.0569774 0.
0.585995 0.056977 0.
0.587996 0.0569766 0.
0.589997 0.0569763 0.
0.591997 0.0569762 0.
0.593998 0.056976 0.
0.595999 0.056976 0.
0.598 0.0569759 0.
0.6 0.0569759 0.
0.602001 0.0569759 0.
0.604002 0.0569759 0.
0.606003 0.056976 0.
0.608004 0.0569763 0.
0.610005 0.0569766 0.
0.612006 0.056977 0.
0.614007 0.0569775 0.
0.616007 0.0569779 0.
0.618008 0.0569785 0.
0.620009 0.0569792 0.
0.62201 0.0569798 0.
0.624011 0.0569805 0.
0.626011 0.0569811 0.
0.628012 0.0569818 0.
0.630012 0.0569823 0.
0.632013 0.0569827 0.
0.634013 0.0569833 0.
0.636014 0.0569841 0.
0.638015 0.0569849 0.
0.640015 0.0569857 0.
0.642016 0.0569866 0.
0.644017 0.0569875 0.
0.646017 0.0569886 0.
0.648018 0.0569898 0.
0.650019 0.0569909 0.
0.65202 0.0569918 0.
0.654021 0.0569927 0.
0.656022 0.0569935 0.
0.658023 0.0569943 0.
0.660023 0.056995 0.
0.662024 0.0569956 0.
0.664024 0.0569961 0.
0.666025 0.0569965 0.
0.668026 0.056997 0.
0.670026 0.0569974 0.
0.672027 0.0569977 0.
0.674028 0.0569979 0.
0.676029 0.0569981 0.
0.678029 0.0569983 0.
0.68003 0.0569993 0.
0.68203 0.0570003 0.
0.684031 0.0570013 0.
0.686032 0.0570026 0.
0.688032 0.0570038 0.
0.690033 0.0570051 0.
0.692033 0.0570065 0.
0.694034 0.0570078 0.
0.696034 0.0570094 0.
0.698035 0.0570111 0.
0.499968 0.0590117 0.
0.501968 0.0590101 0.
0.503968 0.0590087 0.
0.505968 0.0590072 0.
0.507969 0.0590057 0.
0.509969 0.0590042 0.
0.51197 0.0590028 0.
0.51397 0.0590016 0.
0.515971 0.0590003 0.
0.517971 0.0589993 0.
0.519972 0.0589983 0.
0.521973 0.0589974 0.
0.523973 0.0589972 0.
0.525974 0.0589971 0.
0.527975 0.058997 0.
0.529975 0.0589966 0.
0.531976 0.0589961 0.
0.533977 0.0589956 0.
0.535978 0.058995 0.
0.537978 0.0589944 0.
0.539979 0.0589937 0.
0.54198 0.0589929 0.
0.543981 0.0589921 0.
0.545981 0.0589912 0.
0.547982 0.0589902 0.
0.549983 0.0589892 0.
0.551983 0.058988 0.
0.553984 0.0589868 0.
0.555984 0.0589857 0.
0.557985 0.058985 0.
0.559986 0.0589842 0.
0.561986 0.0589834 0.
0.563987 0.0589826 0.
0.565987 0.0589818 0.
0.567988 0.0589811 0.
0.569989 0.0589805 0.
0.571989 0.0589799 0.
0.57399 0.0589793 0.
0.575991 0.0589787 0.
0.577991 0.0589781 0.
0.579992 0.0589777 0.
0.581994 0.0589773 0.
0.583994 0.0589768 0.
0.585995 0.0589763 0.
0.587996 0.0589758 0.
0.589997 0.0589755 0.
0.591998 0.0589754 0.
0.593998 0.0589753 0.
0.595999 0.0589753 0.
0.598 0.0589753 0.
0.6 0.0589753 0.
0.602001 0.0589752 0.
0.604002 0.0589751 0.
0.606002 0.0589752 0.
0.608003 0.0589755 0.
0.610004 0.0589758 0.
0.612005 0.0589762 0.
0.614006 0.0589768 0.
0.616007 0.0589773 0.
0.618008 0.0589778 0.
0.620009 0.0589782 0.
0.62201 0.0589787 0.
0.62401 0.0589793 0.
0.626011 0.0589799 0.
0.628011 0.0589805 0.
0.630012 0.0589813 0.
0.632013 0.058982 0.
0.634013 0.0589827 0.
0.636014 0.0589834 0.
0.638014 0.0589842 0.
0.640015 0.058985 0.
0.642016 0.0589858 0.
0.644016 0.0589866 0.
0.646017 0.0589879 0.
0.648017 0.0589893 0.
0.650018 0.0589906 0.
0.652019 0.0589915 0.
0.65402 0.0589923 0.
0.656021 0.0589931 0.
0.658022 0.0589938 0.
0.660022 0.0589944 0.
0.662023 0.058995 0.
0.664023 0.0589955 0.
0.666024 0.0589959 0.
0.668025 0.0589965 0.
0.670025 0.058997 0.
0.672026 0.0589975 0.
0.674027 0.0589978 0.
0.676027 0.058998 0.
0.678028 0.0589984 0.
0.680029 0.0589994 0.
0.682029 0.0590005 0.
0.68403 0.0590016 0.
0.68603 0.0590029 0.
0.688031 0.0590042 0.
0.690031 0.0590056 0.
0.692032 0.059007 0.
0.694032 0.0590085 0.
0.696033 0.0590102 0.
0.698033 0.0590119 0.
0.499969 0.0610122 0.
0.50197 0.0610106 0.
0.50397 0.061009 0.
0.50597 0.0610075 0.
0.50797 0.0610059 0.
0.509971 0.0610044 0.
0.511971 0.0610029 0.
0.513972 0.0610016 0.
0.515972 0.0610004 0.
0.517973 0.0609993 0.
0.519973 0.0609983 0.
0.521974 0.0609973 0.
0.523975 0.0609971 0.
0.525975 0.060997 0.
0.527976 0.0609969 0.
0.529976 0.0609964 0.
0.531977 0.0609959 0.
0.533978 0.0609954 0.
0.535979 0.0609947 0.
0.537979 0.0609941 0.
0.53998 0.0609934 0.
0.541981 0.0609926 0.
0.543981 0.0609918 0.
0.545982 0.0609908 0.
0.547983 0.0609899 0.
0.549984 0.0609889 0.
0.551984 0.0609876 0.
0.553984 0.0609864 0.
0.555985 0.0609852 0.
0.557985 0.0609844 0.
0.559986 0.0609836 0.
0.561987 0.0609828 0.
0.563987 0.060982 0.
0.565988 0.0609812 0.
0.567988 0.0609804 0.
0.569989 0.0609797 0.
0.57199 0.060979 0.
0.57399 0.0609784 0.
0.575991 0.0609778 0.
0.577992 0.0609772 0.
0.579993 0.0609768 0.
0.581994 0.0609765 0.
0.583995 0.0609761 0.
0.585995 0.0609756 0.
0.587996 0.0609751 0.
0.589997 0.0609748 0.
0.591998 0.0609746 0.
0.593998 0.0609745 0.
0.595999 0.0609744 0.
0.598 0.0609744 0.
0.6 0.0609744 0.
0.602001 0.0609744 0.
0.604002 0.0609743 0.
0.606002 0.0609743 0.
0.608003 0.0609747 0.
0.610004 0.060975 0.
0.612005 0.0609754 0.
0.614006 0.060976 0.
0.616007 0.0609765 0.
0.618008 0.0609769 0.
0.620009 0.0609774 0.
0.622009 0.0609778 0.
0.62401 0.0609784 0.
0.62601 0.0609791 0.
0.628011 0.0609798 0.
0.630012 0.0609805 0.
0.632012 0.0609813 0.
0.634013 0.0609821 0.
0.636013 0.0609828 0.
0.638014 0.0609836 0.
0.640015 0.0609844 0.
0.642015 0.0609853 0.
0.644016 0.0609861 0.
0.646016 0.0609874 0.
0.648017 0.0609889 0.
0.650017 0.0609903 0.
0.652018 0.0609912 0.
0.654019 0.060992 0.
0.65602 0.0609928 0.
0.658021 0.0609934 0.
0.660021 0.0609941 0.
0.662022 0.0609947 0.
0.664022 0.0609952 0.
0.666023 0.0609957 0.
0.668024 0.0609963 0.
0.670024 0.0609968 0.
0.672025 0.0609974 0.
0.674025 0.0609977 0.
0.676026 0.060998 0.
0.678027 0.0609983 0.
0.680027 0.0609994 0.
0.682028 0.0610005 0.
0.684028 0.0610017 0.
0.686029 0.061003 0.
0.688029 0.0610044 0.
0.69003 0.0610058 0.
0.69203 0.0610073 0.
0.69403 0.0610088 0.
0.696031 0.0610106 0.
0.698031 0.0610125 0.
0.499971 0.0630123 0.
0.501971 0.0630106 0.
0.503972 0.063009 0.
0.505972 0.0630074 0.
0.507972 0.0630059 0.
0.509973 0.0630043 0.
0.511973 0.0630029 0.
0.513973 0.0630016 0.
0.515974 0.0630003 0.
0.517974 0.0629992 0.
0.519975 0.0629982 0.
0.521976 0.0629973 0.
0.523976 0.0629971 0.
0.525977 0.0629971 0.
0.527977 0.062997 0.
0.529978 0.0629965 0.
0.531978 0.062996 0.
0.533979 0.0629954 0.
0.535979 0.0629948 0.
0.53798 0.0629941 0.
0.539981 0.0629933 0.
0.541981 0.0629923 0.
0.543982 0.0629914 0.
0.545983 0.0629905 0.
0.547983 0.0629896 0.
0.549984 0.0629887 0.
0.551985 0.0629875 0.
0.553985 0.0629862 0.
0.555986 0.0629851 0.
0.557986 0.0629841 0.
0.559987 0.0629831 0.
0.561987 0.0629823 0.
0.563988 0.0629815 0.
0.565988 0.0629807 0.
0.567989 0.06298 0.
0.569989 0.0629793 0.
0.57199 0.0629786 0.
0.573991 0.0629779 0.
0.575991 0.0629771 0.
0.577992 0.0629764 0.
0.579993 0.062976 0.
0.581994 0.0629755 0.
0.583995 0.0629751 0.
0.585995 0.0629747 0.
0.587996 0.0629743 0.
0.589997 0.0629739 0.
0.591998 0.0629737 0.
0.593998 0.0629735 0.
0.595999 0.0629734 0.
0.598 0.0629733 0.
0.6 0.0629732 0.
0.602001 0.0629733 0.
0.604002 0.0629734 0.
0.606002 0.0629735 0.
0.608003 0.0629739 0.
0.610004 0.0629742 0.
0.612005 0.0629746 0.
0.614006 0.062975 0.
0.616007 0.0629754 0.
0.618007 0.062976 0.
0.620008 0.0629766 0.
0.622009 0.0629772 0.
0.62401 0.0629779 0.
0.62601 0.0629787 0.
0.628011 0.0629794 0.
0.630011 0.06298 0.
0.632012 0.0629807 0.
0.634012 0.0629814 0.
0.636013 0.0629822 0.
0.638013 0.0629831 0.
0.640014 0.062984 0.
0.642014 0.062985 0.
0.644015 0.0629861 0.
0.646016 0.0629873 0.
0.648016 0.0629887 0.
0.650017 0.06299 0.
0.652018 0.0629908 0.
0.654018 0.0629917 0.
0.656019 0.0629925 0.
0.65802 0.0629933 0.
0.66002 0.0629941 0.
0.662021 0.0629947 0.
0.664021 0.0629953 0.
0.666022 0.0629959 0.
0.668022 0.0629964 0.
0.670023 0.0629969 0.
0.672023 0.0629974 0.
0.674024 0.0629976 0.
0.676024 0.0629979 0.
0.678025 0.0629982 0.
0.680025 0.0629993 0.
0.682026 0.0630004 0.
0.684026 0.0630015 0.
0.686027 0.0630029 0.
0.688027 0.0630043 0.
0.690028 0.0630058 0.
0.692028 0.0630073 0.
0.694029 0.0630089 0.
0.696029 0.0630107 0.
0.69803 0.0630126 0.
0.499973 0.0650124 0.
0.501973 0.0650106 0.
0.503973 0.065009 0.
0.505974 0.0650074 0.
0.507974 0.0650058 0.
0.509974 0.0650043 0.
0.511975 0.0650029 0.
0.513975 0.0650015 0.
0.515976 0.0650002 0.
0.517976 0.0649991 0.
0.519977 0.0649982 0.
0.521977 0.0649972 0.
0.523978 0.0649971 0.
0.525978 0.0649971 0.
0.527978 0.0649971 0.
0.529979 0.0649966 0.
0.531979 0.0649961 0.
0.53398 0.0649955 0.
0.53598 0.0649948 0.
0.537981 0.0649941 0.
0.539981 0.0649932 0.
0.541982 0.0649921 0.
0.543983 0.064991 0.
0.545983 0.0649901 0.
0.547984 0.0649893 0.
0.549985 0.0649885 0.
0.551985 0.0649873 0.
0.553986 0.0649861 0.
0.555986 0.0649849 0.
0.557987 0.0649838 0.
0.559987 0.0649826 0.
0.561988 0.0649817 0.
0.563988 0.064981 0.
0.565989 0.0649802 0.
0.567989 0.0649796 0.
0.56999 0.0649789 0.
0.571991 0.0649783 0.
0.573991 0.0649774 0.
0.575992 0.0649765 0.
0.577992 0.0649756 0.
0.579993 0.0649751 0.
0.581994 0.0649746 0.
0.583994 0.0649742 0.
0.585995 0.0649738 0.
0.587996 0.0649734 0.
0.589997 0.0649731 0.
0.591997 0.0649728 0.
0.593998 0.0649725 0.
0.595999 0.0649723 0.
0.598 0.0649722 0.
0.6 0.0649721 0.
0.602001 0.0649723 0.
0.604002 0.0649725 0.
0.606003 0.0649727 0.
0.608003 0.0649731 0.
0.610004 0.0649734 0.
0.612005 0.0649737 0.
0.614006 0.064974 0.
0.616006 0.0649744 0.
0.618007 0.064975 0.
0.620008 0.0649758 0.
0.622009 0.0649766 0.
0.624009 0.0649774 0.
0.62601 0.0649783 0.
0.62801 0.0649791 0.
0.630011 0.0649796 0.
0.632011 0.0649801 0.
0.634012 0.0649807 0.
0.636012 0.0649816 0.
0.638013 0.0649826 0.
0.640013 0.0649836 0.
0.642014 0.0649848 0.
0.644014 0.064986 0.
0.646015 0.0649872 0.
0.648015 0.0649885 0.
0.650016 0.0649897 0.
0.652017 0.0649905 0.
0.654018 0.0649914 0.
0.656018 0.0649923 0.
0.658019 0.0649931 0.
0.66002 0.064994 0.
0.66202 0.0649948 0.
0.66402 0.0649954 0.
0.666021 0.0649961 0.
0.668021 0.0649965 0.
0.670022 0.064997 0.
0.672022 0.0649974 0.
0.674022 0.0649976 0.
0.676023 0.0649978 0.
0.678023 0.0649981 0.
0.680024 0.0649991 0.
0.682024 0.0650002 0.
0.684025 0.0650014 0.
0.686025 0.0650028 0.
0.688026 0.0650043 0.
0.690026 0.0650058 0.
0.692026 0.0650073 0.
0.694027 0.0650089 0.
0.696027 0.0650108 0.
0.698028 0.0650128 0.
0.499975 0.0670129 0.
0.501975 0.0670111 0.
0.503975 0.0670095 0.
0.505976 0.0670078 0.
0.507976 0.0670062 0.
0.509976 0.0670046 0.
0.511976 0.0670031 0.
0.513977 0.0670018 0.
0.515977 0.0670004 0.
0.517978 0.0669993 0.
0.519978 0.0669983 0.
0.521978 0.0669973 0.
0.523979 0.0669971 0.
0.525979 0.066997 0.
0.52798 0.0669969 0.
0.52998 0.0669963 0.
0.531981 0.0669958 0.
0.533981 0.0669952 0.
0.535982 0.0669944 0.
0.537982 0.0669937 0.
0.539983 0.0669928 0.
0.541983 0.0669918 0.
0.543984 0.0669908 0.
0.545984 0.0669899 0.
0.547985 0.0669889 0.
0.549985 0.066988 0.
0.551986 0.0669867 0.
0.553986 0.0669855 0.
0.555987 0.0669842 0.
0.557987 0.0669832 0.
0.559988 0.0669821 0.
0.561988 0.0669811 0.
0.563989 0.0669802 0.
0.565989 0.0669793 0.
0.56799 0.0669786 0.
0.56999 0.0669779 0.
0.571991 0.0669772 0.
0.573991 0.0669764 0.
0.575992 0.0669756 0.
0.577993 0.0669748 0.
0.579993 0.0669743 0.
0.581994 0.0669739 0.
0.583995 0.0669734 0.
0.585996 0.066973 0.
0.587996 0.0669726 0.
0.589997 0.0669723 0.
0.591998 0.066972 0.
0.593998 0.0669718 0.
0.595999 0.0669717 0.
0.598 0.0669716 0.
0.6 0.0669716 0.
0.602001 0.0669717 0.
0.604002 0.0669718 0.
0.606002 0.066972 0.
0.608003 0.0669723 0.
0.610004 0.0669725 0.
0.612005 0.0669728 0.
0.614005 0.0669732 0.
0.616006 0.0669737 0.
0.618007 0.0669743 0.
0.620008 0.0669749 0.
0.622008 0.0669756 0.
0.624009 0.0669764 0.
0.626009 0.0669772 0.
0.62801 0.0669779 0.
0.63001 0.0669786 0.
0.632011 0.0669793 0.
0.634011 0.0669801 0.
0.636012 0.066981 0.
0.638012 0.066982 0.
0.640013 0.066983 0.
0.642013 0.0669841 0.
0.644014 0.0669853 0.
0.646014 0.0669866 0.
0.648015 0.0669879 0.
0.650015 0.0669893 0.
0.652016 0.0669902 0.
0.654017 0.0669911 0.
0.656017 0.066992 0.
0.658018 0.0669928 0.
0.660018 0.0669936 0.
0.662019 0.0669944 0.
0.664019 0.066995 0.
0.66602 0.0669957 0.
0.66802 0.0669962 0.
0.67002 0.0669968 0.
0.672021 0.0669973 0.
0.674021 0.0669976 0.
0.676022 0.0669978 0.
0.678022 0.0669982 0.
0.680022 0.0669993 0.
0.682023 0.0670004 0.
0.684023 0.0670017 0.
0.686023 0.0670031 0.
0.688024 0.0670046 0.
0.690024 0.0670061 0.
0.692024 0.0670077 0.
0.694025 0.0670093 0.
0.696025 0.0670112 0.
0.698026 0.0670132 0.
0.499977 0.0690135 0.
0.501977 0.0690117 0.
0.503978 0.06901 0.
0.505978 0.0690082 0.
0.507978 0.0690066 0.
0.509978 0.069005 0.
0.511978 0.0690034 0.
0.513978 0.069002 0.
0.515979 0.0690007 0.
0.517979 0.0689995 0.
0.519979 0.0689985 0.
0.52198 0.0689974 0.
0.52398 0.0689971 0.
0.52598 0.068997 0.
0.527981 0.0689967 0.
0.529981 0.0689961 0.
0.531982 0.0689955 0.
0.533982 0.0689948 0.
0.535983 0.0689941 0.
0.537983 0.0689933 0.
0.539984 0.0689924 0.
0.541984 0.0689915 0.
0.543985 0.0689906 0.
0.545985 0.0689896 0.
0.547986 0.0689885 0.
0.549986 0.0689875 0.
0.551987 0.0689861 0.
0.553987 0.0689848 0.
0.555987 0.0689836 0.
0.557988 0.0689825 0.
0.559988 0.0689815 0.
0.561989 0.0689805 0.
0.563989 0.0689795 0.
0.56599 0.0689785 0.
0.56799 0.0689776 0.
0.569991 0.0689769 0.
0.571991 0.0689762 0.
0.573992 0.0689755 0.
0.575992 0.0689748 0.
0.577993 0.0689741 0.
0.579994 0.0689736 0.
0.581994 0.0689731 0.
0.583995 0.0689726 0.
0.585996 0.0689722 0.
0.587996 0.0689717 0.
0.589997 0.0689714 0.
0.591998 0.0689713 0.
0.593998 0.0689711 0.
0.595999 0.0689711 0.
0.598 0.0689711 0.
0.6 0.0689711 0.
0.602001 0.0689712 0.
0.604002 0.0689712 0.
0.606002 0.0689713 0.
0.608003 0.0689715 0.
0.610004 0.0689716 0.
0.612004 0.068972 0.
0.614005 0.0689724 0.
0.616006 0.0689729 0.
0.618007 0.0689735 0.
0.620007 0.0689741 0.
0.622008 0.0689746 0.
0.624008 0.0689754 0.
0.626009 0.0689761 0.
0.628009 0.0689768 0.
0.63001 0.0689776 0.
0.63201 0.0689785 0.
0.634011 0.0689794 0.
0.636011 0.0689804 0.
0.638012 0.0689814 0.
0.640012 0.0689824 0.
0.642013 0.0689835 0.
0.644013 0.0689845 0.
0.646014 0.0689859 0.
0.648014 0.0689874 0.
0.650015 0.0689889 0.
0.652015 0.0689898 0.
0.654016 0.0689908 0.
0.656016 0.0689917 0.
0.658017 0.0689925 0.
0.660017 0.0689932 0.
0.662018 0.068994 0.
0.664018 0.0689946 0.
0.666018 0.0689953 0.
0.668019 0.0689959 0.
0.670019 0.0689965 0.
0.67202 0.0689972 0.
0.67402 0.0689975 0.
0.67602 0.0689979 0.
0.678021 0.0689983 0.
0.680021 0.0689995 0.
0.682021 0.0690007 0.
0.684021 0.069002 0.
0.686022 0.0690035 0.
0.688022 0.0690049 0.
0.690022 0.0690065 0.
0.692022 0.0690081 0.
0.694023 0.0690097 0.
0.696023 0.0690117 0.
0.698023 0.0690137 0.
0.499979 0.0710137 0.
0.501979 0.0710118 0.
0.503979 0.0710101 0.
0.50598 0.0710084 0.
0.50798 0.0710068 0.
0.50998 0.0710051 0.
0.51198 0.0710036 0.
0.51398 0.0710022 0.
0.51598 0.0710008 0.
0.517981 0.0709997 0.
0.519981 0.0709986 0.
0.521981 0.0709975 0.
0.523981 0.0709972 0.
0.525982 0.070997 0.
0.527982 0.0709967 0.
0.529983 0.070996 0.
0.531983 0.0709954 0.
0.533983 0.0709947 0.
0.535984 0.0709939 0.
0.537984 0.0709931 0.
0.539985 0.0709922 0.
0.541985 0.0709913 0.
0.543986 0.0709904 0.
0.545986 0.0709893 0.
0.547987 0.0709882 0.
0.549987 0.0709871 0.
0.551987 0.0709858 0.
0.553988 0.0709844 0.
0.555988 0.0709831 0.
0.557988 0.0709821 0.
0.559989 0.070981 0.
0.561989 0.0709799 0.
0.56399 0.0709789 0.
0.56599 0.0709778 0.
0.567991 0.0709769 0.
0.569991 0.0709762 0.
0.571992 0.0709754 0.
0.573992 0.0709747 0.
0.575993 0.070974 0.
0.577993 0.0709733 0.
0.579994 0.0709728 0.
0.581995 0.0709723 0.
0.583995 0.0709719 0.
0.585996 0.0709714 0.
0.587997 0.0709709 0.
0.589997 0.0709707 0.
0.591998 0.0709705 0.
0.593998 0.0709704 0.
0.595999 0.0709704 0.
0.598 0.0709705 0.
0.6 0.0709705 0.
0.602001 0.0709705 0.
0.604002 0.0709705 0.
0.606002 0.0709706 0.
0.608003 0.0709707 0.
0.610004 0.0709709 0.
0.612004 0.0709712 0.
0.614005 0.0709717 0.
0.616006 0.0709722 0.
0.618006 0.0709727 0.
0.620007 0.0709733 0.
0.622008 0.0709738 0.
0.624008 0.0709745 0.
0.626008 0.0709753 0.
0.628009 0.070976 0.
0.630009 0.070977 0.
0.63201 0.0709779 0.
0.63401 0.0709788 0.
0.636011 0.0709799 0.
0.638011 0.0709809 0.
0.640012 0.0709819 0.
0.642012 0.070983 0.
0.644013 0.070984 0.
0.646013 0.0709855 0.
0.648013 0.070987 0.
0.650014 0.0709885 0.
0.652014 0.0709895 0.
0.654015 0.0709905 0.
0.656015 0.0709915 0.
0.658016 0.0709922 0.
0.660016 0.070993 0.
0.662017 0.0709938 0.
0.664017 0.0709945 0.
0.666017 0.0709952 0.
0.668018 0.0709959 0.
0.670018 0.0709965 0.
0.672018 0.0709972 0.
0.674019 0.0709976 0.
0.676019 0.070998 0.
0.678019 0.0709984 0.
0.680019 0.0709996 0.
0.682019 0.0710008 0.
0.68402 0.0710021 0.
0.68602 0.0710036 0.
0.68802 0.0710051 0.
0.69002 0.0710067 0.
0.69202 0.0710083 0.
0.694021 0.0710099 0.
0.696021 0.0710118 0.
0.698021 0.0710138 0.
0.499981 0.0730134 0.
0.501981 0.0730117 0.
0.503981 0.07301 0.
0.505981 0.0730084 0.
0.507982 0.0730068 0.
0.509982 0.0730052 0.
0.511982 0.0730037 0.
0.513982 0.0730023 0.
0.515982 0.0730009 0.
0.517982 0.0729998 0.
0.519983 0.0729987 0.
0.521983 0.0729977 0.
0.523983 0.0729973 0.
0.525983 0.0729971 0.
0.527983 0.0729968 0.
0.529984 0.0729962 0.
0.531984 0.0729955 0.
0.533985 0.0729947 0.
0.535985 0.0729939 0.
0.537985 0.0729931 0.
0.539986 0.0729921 0.
0.541986 0.0729911 0.
0.543987 0.0729901 0.
0.545987 0.072989 0.
0.547987 0.0729881 0.
0.549988 0.0729871 0.
0.551988 0.0729857 0.
0.553988 0.0729843 0.
0.555989 0.0729829 0.
0.557989 0.0729817 0.
0.55999 0.0729806 0.
0.56199 0.0729794 0.
0.56399 0.0729784 0.
0.565991 0.0729774 0.
0.567991 0.0729765 0.
0.569992 0.0729757 0.
0.571992 0.0729749 0.
0.573993 0.0729741 0.
0.575993 0.0729733 0.
0.577994 0.0729726 0.
0.579994 0.0729721 0.
0.581995 0.0729716 0.
0.583996 0.0729711 0.
0.585996 0.0729707 0.
0.587997 0.0729703 0.
0.589997 0.07297 0.
0.591998 0.0729698 0.
0.593999 0.0729696 0.
0.595999 0.0729696 0.
0.598 0.0729697 0.
0.6 0.0729697 0.
0.602001 0.0729698 0.
0.604002 0.0729698 0.
0.606002 0.0729699 0.
0.608003 0.0729701 0.
0.610004 0.0729703 0.
0.612004 0.0729706 0.
0.614005 0.072971 0.
0.616005 0.0729714 0.
0.618006 0.0729719 0.
0.620007 0.0729725 0.
0.622007 0.0729731 0.
0.624008 0.0729739 0.
0.626008 0.0729748 0.
0.628008 0.0729757 0.
0.630009 0.0729765 0.
0.632009 0.0729774 0.
0.63401 0.0729784 0.
0.63601 0.0729794 0.
0.638011 0.0729804 0.
0.640011 0.0729815 0.
0.642011 0.0729827 0.
0.644012 0.0729839 0.
0.646012 0.0729853 0.
0.648012 0.0729868 0.
0.650013 0.0729883 0.
0.652013 0.0729893 0.
0.654014 0.0729903 0.
0.656014 0.0729912 0.
0.658015 0.0729921 0.
0.660015 0.072993 0.
0.662016 0.0729939 0.
0.664016 0.0729946 0.
0.666016 0.0729954 0.
0.668016 0.072996 0.
0.670017 0.0729967 0.
0.672017 0.0729973 0.
0.674017 0.0729977 0.
0.676017 0.072998 0.
0.678017 0.0729985 0.
0.680017 0.0729997 0.
0.682018 0.0730008 0.
0.684018 0.0730021 0.
0.686018 0.0730036 0.
0.688018 0.0730051 0.
0.690018 0.0730066 0.
0.692018 0.0730082 0.
0.694019 0.0730098 0.
0.696019 0.0730117 0.
0.69802 0.0730137 0.
0.499983 0.0750132 0.
0.501983 0.0750115 0.
0.503983 0.0750099 0.
0.505983 0.0750083 0.
0.507983 0.0750068 0.
0.509984 0.0750052 0.
0.511984 0.0750038 0.
0.513984 0.0750024 0.
0.515984 0.075001 0.
0.517984 0.0749999 0.
0.519985 0.0749988 0.
0.521985 0.0749978 0.
0.523985 0.0749975 0.
0.525985 0.0749972 0.
0.527985 0.074997 0.
0.529985 0.0749963 0.
0.531986 0.0749956 0.
0.533986 0.0749948 0.
0.535986 0.0749939 0.
0.537986 0.0749931 0.
0.539987 0.0749921 0.
0.541987 0.0749909 0.
0.543988 0.0749897 0.
0.545988 0.0749888 0.
0.547988 0.0749879 0.
0.549989 0.074987 0.
0.551989 0.0749855 0.
0.553989 0.0749841 0.
0.55599 0.0749827 0.
0.55799 0.0749814 0.
0.55999 0.0749801 0.
0.561991 0.074979 0.
0.563991 0.074978 0.
0.565991 0.074977 0.
0.567992 0.0749761 0.
0.569992 0.0749753 0.
0.571993 0.0749744 0.
0.573993 0.0749735 0.
0.575994 0.0749727 0.
0.577994 0.0749718 0.
0.579995 0.0749713 0.
0.581995 0.0749708 0.
0.583996 0.0749703 0.
0.585996 0.07497 0.
0.587997 0.0749696 0.
0.589998 0.0749693 0.
0.591998 0.0749691 0.
0.593999 0.0749689 0.
0.595999 0.0749688 0.
0.598 0.0749689 0.
0.6 0.0749689 0.
0.602001 0.074969 0.
0.604002 0.0749691 0.
0.606002 0.0749692 0.
0.608003 0.0749694 0.
0.610003 0.0749696 0.
0.612004 0.0749699 0.
0.614004 0.0749702 0.
0.616005 0.0749706 0.
0.618005 0.0749711 0.
0.620006 0.0749717 0.
0.622007 0.0749724 0.
0.624007 0.0749733 0.
0.626007 0.0749743 0.
0.628008 0.0749753 0.
0.630008 0.0749761 0.
0.632009 0.074977 0.
0.634009 0.0749779 0.
0.63601 0.074979 0.
0.63801 0.07498 0.
0.64001 0.0749812 0.
0.642011 0.0749825 0.
0.644011 0.0749838 0.
0.646011 0.0749852 0.
0.648012 0.0749866 0.
0.650012 0.0749881 0.
0.652012 0.0749891 0.
0.654013 0.07499 0.
0.656013 0.074991 0.
0.658014 0.074992 0.
0.660014 0.074993 0.
0.662014 0.0749939 0.
0.664015 0.0749947 0.
0.666015 0.0749955 0.
0.668015 0.0749962 0.
0.670015 0.0749968 0.
0.672015 0.0749974 0.
0.674015 0.0749978 0.
0.676015 0.0749981 0.
0.678015 0.0749985 0.
0.680016 0.0749997 0.
0.682016 0.0750009 0.
0.684016 0.0750021 0.
0.686016 0.0750036 0.
0.688016 0.0750051 0.
0.690016 0.0750066 0.
0.692017 0.0750081 0.
0.694017 0.0750096 0.
0.696017 0.0750115 0.
0.698018 0.0750135 0.
0.499985 0.0770134 0.
0.501985 0.0770117 0.
0.503985 0.0770102 0.
0.505985 0.0770086 0.
0.507985 0.0770071 0.
0.509985 0.0770055 0.
0.511985 0.077004 0.
0.513985 0.0770027 0.
0.515986 0.0770013 0.
0.517986 0.0770002 0.
0.519986 0.0769991 0.
0.521986 0.0769981 0.
0.523986 0.0769977 0.
0.525986 0.0769974 0.
0.527986 0.0769971 0.
0.529987 0.0769963 0.
0.531987 0.0769955 0.
0.533987 0.0769946 0.
0.535987 0.0769937 0.
0.537988 0.0769928 0.
0.539988 0.0769918 0.
0.541988 0.0769907 0.
0.543989 0.0769896 0.
0.545989 0.0769886 0.
0.547989 0.0769876 0.
0.54999 0.0769865 0.
0.55199 0.076985 0.
0.55399 0.0769836 0.
0.55599 0.0769821 0.
0.557991 0.0769808 0.
0.559991 0.0769795 0.
0.561991 0.0769784 0.
0.563992 0.0769773 0.
0.565992 0.0769762 0.
0.567992 0.0769753 0.
0.569993 0.0769744 0.
0.571993 0.0769735 0.
0.573994 0.0769727 0.
0.575994 0.0769719 0.
0.577995 0.0769711 0.
0.579995 0.0769706 0.
0.581996 0.07697 0.
0.583996 0.0769696 0.
0.585997 0.0769692 0.
0.587997 0.0769689 0.
0.589998 0.0769686 0.
0.591998 0.0769685 0.
0.593999 0.0769683 0.
0.595999 0.0769683 0.
0.598 0.0769683 0.
0.600001 0.0769684 0.
0.602001 0.0769684 0.
0.604002 0.0769685 0.
0.606002 0.0769685 0.
0.608003 0.0769687 0.
0.610003 0.0769689 0.
0.612004 0.0769692 0.
0.614004 0.0769695 0.
0.616005 0.0769699 0.
0.618005 0.0769704 0.
0.620006 0.076971 0.
0.622006 0.0769716 0.
0.624007 0.0769725 0.
0.626007 0.0769735 0.
0.628007 0.0769744 0.
0.630008 0.0769753 0.
0.632008 0.0769762 0.
0.634009 0.0769772 0.
0.636009 0.0769783 0.
0.638009 0.0769794 0.
0.64001 0.0769806 0.
0.64201 0.0769819 0.
0.64401 0.0769832 0.
0.64601 0.0769847 0.
0.648011 0.0769862 0.
0.650011 0.0769877 0.
0.652011 0.0769888 0.
0.654012 0.0769898 0.
0.656012 0.0769909 0.
0.658012 0.0769918 0.
0.660013 0.0769928 0.
0.662013 0.0769937 0.
0.664013 0.0769946 0.
0.666013 0.0769954 0.
0.668014 0.0769962 0.
0.670014 0.0769969 0.
0.672014 0.0769976 0.
0.674014 0.076998 0.
0.676014 0.0769984 0.
0.678014 0.0769988 0.
0.680014 0.077 0.
0.682014 0.0770012 0.
0.684014 0.0770025 0.
0.686014 0.0770039 0.
0.688014 0.0770054 0.
0.690014 0.0770069 0.
0.692015 0.0770084 0.
0.694015 0.0770099 0.
0.696015 0.0770117 0.
0.698016 0.0770136 0.
0.499987 0.0790136 0.
0.501987 0.079012 0.
0.503987 0.0790104 0.
0.505987 0.0790089 0.
0.507987 0.0790073 0.
0.509987 0.0790058 0.
0.511987 0.0790043 0.
0.513987 0.079003 0.
0.515987 0.0790016 0.
0.517987 0.0790005 0.
0.519987 0.0789994 0.
0.521987 0.0789984 0.
0.523987 0.0789979 0.
0.525988 0.0789976 0.
0.527988 0.0789971 0.
0.529988 0.0789963 0.
0.531988 0.0789954 0.
0.533989 0.0789945 0.
0.535989 0.0789935 0.
0.537989 0.0789926 0.
0.539989 0.0789916 0.
0.54199 0.0789905 0.
0.54399 0.0789895 0.
0.54599 0.0789884 0.
0.54799 0.0789872 0.
0.549991 0.078986 0.
0.551991 0.0789846 0.
0.553991 0.0789831 0.
0.555991 0.0789816 0.
0.557991 0.0789803 0.
0.559992 0.078979 0.
0.561992 0.0789777 0.
0.563992 0.0789766 0.
0.565992 0.0789754 0.
0.567993 0.0789744 0.
0.569993 0.0789735 0.
0.571994 0.0789726 0.
0.573994 0.0789719 0.
0.575995 0.0789711 0.
0.577995 0.0789704 0.
0.579996 0.0789698 0.
0.581996 0.0789693 0.
0.583996 0.0789688 0.
0.585997 0.0789685 0.
0.587997 0.0789682 0.
0.589998 0.078968 0.
0.591998 0.0789679 0.
0.593999 0.0789678 0.
0.595999 0.0789678 0.
0.598 0.0789678 0.
0.600001 0.0789679 0.
0.602001 0.0789679 0.
0.604001 0.0789679 0.
0.606002 0.0789679 0.
0.608002 0.078968 0.
0.610003 0.0789682 0.
0.612003 0.0789684 0.
0.614004 0.0789688 0.
0.616004 0.0789692 0.
0.618005 0.0789697 0.
0.620005 0.0789703 0.
0.622006 0.0789708 0.
0.624006 0.0789717 0.
0.626007 0.0789726 0.
0.628007 0.0789735 0.
0.630007 0.0789745 0.
0.632008 0.0789754 0.
0.634008 0.0789764 0.
0.636008 0.0789777 0.
0.638009 0.0789789 0.
0.640009 0.0789801 0.
0.642009 0.0789814 0.
0.644009 0.0789826 0.
0.64601 0.0789842 0.
0.64801 0.0789858 0.
0.65001 0.0789874 0.
0.65201 0.0789885 0.
0.654011 0.0789896 0.
0.656011 0.0789907 0.
0.658011 0.0789916 0.
0.660011 0.0789926 0.
0.662012 0.0789935 0.
0.664012 0.0789944 0.
0.666012 0.0789954 0.
0.668012 0.0789962 0.
0.670012 0.078997 0.
0.672013 0.0789978 0.
0.674013 0.0789982 0.
0.676013 0.0789987 0.
0.678013 0.0789992 0.
0.680013 0.0790004 0.
0.682013 0.0790015 0.
0.684013 0.0790028 0.
0.686013 0.0790042 0.
0.688013 0.0790057 0.
0.690013 0.0790071 0.
0.692013 0.0790086 0.
0.694013 0.0790101 0.
0.696013 0.0790119 0.
0.698013 0.0790137 0.
0.499989 0.0810135 0.
0.501989 0.081012 0.
0.503989 0.0810105 0.
0.505989 0.081009 0.
0.507989 0.0810074 0.
0.509989 0.0810059 0.
0.511989 0.0810045 0.
0.513989 0.0810032 0.
0.515989 0.0810018 0.
0.517989 0.0810007 0.
0.519989 0.0809996 0.
0.521989 0.0809986 0.
0.523989 0.0809981 0.
0.525989 0.0809977 0.
0.527989 0.0809972 0.
0.529989 0.0809963 0.
0.53199 0.0809954 0.
0.53399 0.0809945 0.
0.53599 0.0809935 0.
0.53799 0.0809925 0.
0.539991 0.0809915 0.
0.541991 0.0809904 0.
0.543991 0.0809894 0.
0.545991 0.0809882 0.
0.547991 0.080987 0.
0.549992 0.0809858 0.
0.551992 0.0809843 0.
0.553992 0.0809828 0.
0.555992 0.0809813 0.
0.557992 0.0809799 0.
0.559992 0.0809785 0.
0.561993 0.0809772 0.
0.563993 0.080976 0.
0.565993 0.0809748 0.
0.567993 0.0809738 0.
0.569994 0.0809729 0.
0.571994 0.080972 0.
0.573995 0.0809712 0.
0.575995 0.0809704 0.
0.577995 0.0809697 0.
0.579996 0.0809692 0.
0.581996 0.0809686 0.
0.583997 0.0809682 0.
0.585997 0.0809679 0.
0.587998 0.0809676 0.
0.589998 0.0809674 0.
0.591999 0.0809674 0.
0.593999 0.0809673 0.
0.596 0.0809673 0.
0.598 0.0809674 0.
0.600001 0.0809674 0.
0.602001 0.0809674 0.
0.604001 0.0809674 0.
0.606002 0.0809674 0.
0.608002 0.0809675 0.
0.610003 0.0809676 0.
0.612003 0.0809679 0.
0.614004 0.0809682 0.
0.616004 0.0809686 0.
0.618005 0.0809691 0.
0.620005 0.0809697 0.
0.622006 0.0809702 0.
0.624006 0.0809711 0.
0.626006 0.080972 0.
0.628006 0.0809729 0.
0.630007 0.0809738 0.
0.632007 0.0809748 0.
0.634007 0.0809759 0.
0.636008 0.0809772 0.
0.638008 0.0809784 0.
0.640008 0.0809797 0.
0.642008 0.080981 0.
0.644009 0.0809823 0.
0.646009 0.0809839 0.
0.648009 0.0809855 0.
0.650009 0.0809872 0.
0.652009 0.0809883 0.
0.654009 0.0809895 0.
0.65601 0.0809906 0.
0.65801 0.0809916 0.
0.66001 0.0809925 0.
0.66201 0.0809935 0.
0.66401 0.0809945 0.
0.666011 0.0809954 0.
0.668011 0.0809963 0.
0.670011 0.0809971 0.
0.672011 0.080998 0.
0.674011 0.0809984 0.
0.676011 0.0809989 0.
0.678011 0.0809994 0.
0.680011 0.0810006 0.
0.682011 0.0810018 0.
0.684011 0.081003 0.
0.686011 0.0810044 0.
0.688011 0.0810058 0.
0.690011 0.0810073 0.
0.692011 0.0810087 0.
0.694011 0.0810102 0.
0.696011 0.0810118 0.
0.698011 0.0810136 0.
0.49999 0.0830132 0.
0.50199 0.0830118 0.
0.50399 0.0830103 0.
0.50599 0.0830089 0.
0.50799 0.0830074 0.
0.50999 0.0830059 0.
0.51199 0.0830045 0.
0.51399 0.0830032 0.
0.51599 0.083002 0.
0.517991 0.0830008 0.
0.519991 0.0829997 0.
0.521991 0.0829987 0.
0.523991 0.0829982 0.
0.525991 0.0829978 0.
0.527991 0.0829974 0.
0.529991 0.0829965 0.
0.531991 0.0829956 0.
0.533991 0.0829946 0.
0.535991 0.0829936 0.
0.537992 0.0829926 0.
0.539992 0.0829915 0.
0.541992 0.0829904 0.
0.543992 0.0829893 0.
0.545992 0.0829881 0.
0.547993 0.082987 0.
0.549993 0.0829858 0.
0.551993 0.0829842 0.
0.553993 0.0829826 0.
0.555993 0.0829811 0.
0.557993 0.0829797 0.
0.559993 0.0829782 0.
0.561993 0.0829769 0.
0.563994 0.0829756 0.
0.565994 0.0829744 0.
0.567994 0.0829734 0.
0.569994 0.0829725 0.
0.571995 0.0829715 0.
0.573995 0.0829707 0.
0.575996 0.0829699 0.
0.577996 0.0829691 0.
0.579996 0.0829686 0.
0.581997 0.0829681 0.
0.583997 0.0829677 0.
0.585998 0.0829675 0.
0.587998 0.0829672 0.
0.589998 0.082967 0.
0.591999 0.0829669 0.
0.593999 0.0829668 0.
0.596 0.0829669 0.
0.598 0.0829669 0.
0.6 0.082967 0.
0.602001 0.082967 0.
0.604001 0.082967 0.
0.606002 0.082967 0.
0.608002 0.0829671 0.
0.610003 0.0829672 0.
0.612003 0.0829675 0.
0.614003 0.0829678 0.
0.616004 0.0829681 0.
0.618004 0.0829686 0.
0.620005 0.0829691 0.
0.622005 0.0829697 0.
0.624005 0.0829706 0.
0.626006 0.0829715 0.
0.628006 0.0829725 0.
0.630006 0.0829735 0.
0.632006 0.0829745 0.
0.634007 0.0829756 0.
0.636007 0.0829769 0.
0.638007 0.0829781 0.
0.640007 0.0829794 0.
0.642007 0.0829808 0.
0.644007 0.0829822 0.
0.646008 0.0829838 0.
0.648008 0.0829854 0.
0.650008 0.082987 0.
0.652008 0.0829882 0.
0.654008 0.0829894 0.
0.656008 0.0829905 0.
0.658009 0.0829916 0.
0.660009 0.0829927 0.
0.662009 0.0829937 0.
0.664009 0.0829947 0.
0.666009 0.0829956 0.
0.668009 0.0829965 0.
0.670009 0.0829973 0.
0.672009 0.0829981 0.
0.674009 0.0829986 0.
0.676009 0.082999 0.
0.678009 0.0829995 0.
0.680009 0.0830006 0.
0.682009 0.0830018 0.
0.684009 0.0830031 0.
0.686009 0.0830045 0.
0.688009 0.0830058 0.
0.690009 0.0830073 0.
0.692009 0.0830087 0.
0.69401 0.0830101 0.
0.69601 0.0830117 0.
0.69801 0.0830132 0.
0.499991 0.0850129 0.
0.501991 0.0850116 0.
0.503991 0.0850102 0.
0.505992 0.0850088 0.
0.507992 0.0850074 0.
0.509992 0.0850059 0.
0.511992 0.0850046 0.
0.513992 0.0850033 0.
0.515992 0.0850021 0.
0.517992 0.0850009 0.
0.519992 0.0849998 0.
0.521993 0.0849988 0.
0.523993 0.0849983 0.
0.525993 0.0849979 0.
0.527993 0.0849975 0.
0.529993 0.0849966 0.
0.531993 0.0849957 0.
0.533993 0.0849948 0.
0.535993 0.0849937 0.
0.537993 0.0849927 0.
0.539993 0.0849916 0.
0.541993 0.0849903 0.
0.543993 0.0849891 0.
0.545994 0.084988 0.
0.547994 0.0849869 0.
0.549994 0.0849858 0.
0.551994 0.0849842 0.
0.553994 0.0849825 0.
0.555994 0.0849809 0.
0.557994 0.0849794 0.
0.559994 0.0849779 0.
0.561994 0.0849765 0.
0.563994 0.0849753 0.
0.565995 0.084974 0.
0.567995 0.084973 0.
0.569995 0.084972 0.
0.571995 0.0849711 0.
0.573996 0.0849702 0.
0.575996 0.0849693 0.
0.577996 0.0849685 0.
0.579997 0.0849681 0.
0.581997 0.0849676 0.
0.583997 0.0849673 0.
0.585998 0.084967 0.
0.587998 0.0849668 0.
0.589998 0.0849666 0.
0.591999 0.0849665 0.
0.593999 0.0849664 0.
0.596 0.0849664 0.
0.598 0.0849665 0.
0.6 0.0849666 0.
0.602001 0.0849666 0.
0.604001 0.0849666 0.
0.606002 0.0849666 0.
0.608002 0.0849668 0.
0.610003 0.0849669 0.
0.612003 0.0849671 0.
0.614003 0.0849673 0.
0.616004 0.0849676 0.
0.618004 0.084968 0.
0.620004 0.0849686 0.
0.622004 0.0849691 0.
0.624005 0.0849701 0.
0.626005 0.084971 0.
0.628005 0.084972 0.
0.630005 0.0849731 0.
0.632006 0.0849741 0.
0.634006 0.0849753 0.
0.636006 0.0849765 0.
0.638006 0.0849778 0.
0.640006 0.0849792 0.
0.642006 0.0849806 0.
0.644006 0.0849821 0.
0.646006 0.0849837 0.
0.648007 0.0849853 0.
0.650007 0.0849869 0.
0.652007 0.0849881 0.
0.654007 0.0849893 0.
0.656007 0.0849905 0.
0.658007 0.0849917 0.
0.660007 0.0849929 0.
0.662007 0.0849939 0.
0.664007 0.0849949 0.
0.666007 0.0849958 0.
0.668007 0.0849967 0.
0.670007 0.0849975 0.
0.672007 0.0849983 0.
0.674007 0.0849987 0.
0.676007 0.0849991 0.
0.678007 0.0849996 0.
0.680007 0.0850007 0.
0.682007 0.0850019 0.
0.684008 0.0850031 0.
0.686008 0.0850045 0.
0.688008 0.0850059 0.
0.690008 0.0850072 0.
0.692008 0.0850086 0.
0.694008 0.08501 0.
0.696008 0.0850115 0.
0.698009 0.0850129 0.
0.499993 0.087013 0.
0.501993 0.0870117 0.
0.503993 0.0870103 0.
0.505993 0.0870089 0.
0.507993 0.0870074 0.
0.509993 0.087006 0.
0.511993 0.0870046 0.
0.513993 0.0870034 0.
0.515993 0.0870022 0.
0.517994 0.0870011 0.
0.519994 0.087 0.
0.521994 0.086999 0.
0.523994 0.0869985 0.
0.525994 0.0869981 0.
0.527994 0.0869976 0.
0.529994 0.0869967 0.
0.531994 0.0869957 0.
0.533994 0.0869948 0.
0.535994 0.0869937 0.
0.537995 0.0869927 0.
0.539995 0.0869915 0.
0.541995 0.0869904 0.
0.543995 0.0869892 0.
0.545995 0.086988 0.
0.547995 0.0869868 0.
0.549995 0.0869856 0.
0.551995 0.086984 0.
0.553995 0.0869823 0.
0.555995 0.0869807 0.
0.557995 0.0869792 0.
0.559995 0.0869776 0.
0.561995 0.0869762 0.
0.563995 0.0869749 0.
0.565995 0.0869736 0.
0.567996 0.0869725 0.
0.569996 0.0869715 0.
0.571996 0.0869705 0.
0.573996 0.0869696 0.
0.575997 0.0869688 0.
0.577997 0.086968 0.
0.579997 0.0869676 0.
0.581997 0.0869672 0.
0.583998 0.0869668 0.
0.585998 0.0869666 0.
0.587998 0.0869664 0.
0.589999 0.0869662 0.
0.591999 0.0869662 0.
0.593999 0.0869661 0.
0.596 0.0869661 0.
0.598 0.0869661 0.
0.6 0.0869661 0.
0.602001 0.0869662 0.
0.604001 0.0869662 0.
0.606001 0.0869662 0.
0.608002 0.0869663 0.
0.610002 0.0869664 0.
0.612003 0.0869666 0.
0.614003 0.0869669 0.
0.616003 0.0869672 0.
0.618003 0.0869676 0.
0.620004 0.0869682 0.
0.622004 0.0869687 0.
0.624004 0.0869696 0.
0.626004 0.0869706 0.
0.628005 0.0869716 0.
0.630005 0.0869726 0.
0.632005 0.0869737 0.
0.634005 0.0869749 0.
0.636005 0.0869762 0.
0.638005 0.0869775 0.
0.640005 0.0869789 0.
0.642005 0.0869803 0.
0.644005 0.0869818 0.
0.646005 0.0869835 0.
0.648005 0.0869851 0.
0.650005 0.0869868 0.
0.652005 0.0869881 0.
0.654005 0.0869893 0.
0.656006 0.0869905 0.
0.658006 0.0869917 0.
0.660006 0.0869929 0.
0.662006 0.0869939 0.
0.664006 0.0869949 0.
0.666006 0.0869959 0.
0.668006 0.0869968 0.
0.670006 0.0869976 0.
0.672006 0.0869985 0.
0.674006 0.0869989 0.
0.676006 0.0869993 0.
0.678006 0.0869998 0.
0.680006 0.0870009 0.
0.682006 0.0870021 0.
0.684006 0.0870033 0.
0.686006 0.0870046 0.
0.688006 0.087006 0.
0.690006 0.0870073 0.
0.692007 0.0870087 0.
0.694007 0.0870101 0.
0.696007 0.0870115 0.
0.698007 0.0870129 0.
0.499995 0.0890131 0.
0.501995 0.0890118 0.
0.503995 0.0890104 0.
0.505995 0.089009 0.
0.507995 0.0890075 0.
0.509995 0.0890061 0.
0.511995 0.0890047 0.
0.513995 0.0890035 0.
0.515995 0.0890023 0.
0.517995 0.0890012 0.
0.519995 0.0890002 0.
0.521995 0.0889992 0.
0.523995 0.0889987 0.
0.525995 0.0889982 0.
0.527995 0.0889977 0.
0.529995 0.0889967 0.
0.531996 0.0889958 0.
0.533996 0.0889948 0.
0.535996 0.0889937 0.
0.537996 0.0889926 0.
0.539996 0.0889915 0.
0.541996 0.0889904 0.
0.543996 0.0889892 0.
0.545996 0.088988 0.
0.547996 0.0889867 0.
0.549996 0.0889854 0.
0.551996 0.0889838 0.
0.553996 0.0889821 0.
0.555996 0.0889805 0.
0.557996 0.0889789 0.
0.559996 0.0889774 0.
0.561996 0.0889759 0.
0.563996 0.0889745 0.
0.565996 0.0889732 0.
0.567996 0.088972 0.
0.569996 0.0889709 0.
0.571997 0.0889699 0.
0.573997 0.0889691 0.
0.575997 0.0889683 0.
0.577997 0.0889676 0.
0.579997 0.0889672 0.
0.581998 0.0889667 0.
0.583998 0.0889664 0.
0.585998 0.0889662 0.
0.587999 0.088966 0.
0.589999 0.0889659 0.
0.591999 0.0889658 0.
0.594 0.0889658 0.
0.596 0.0889658 0.
0.598 0.0889657 0.
0.6 0.0889657 0.
0.602001 0.0889658 0.
0.604001 0.0889658 0.
0.606001 0.0889658 0.
0.608002 0.0889659 0.
0.610002 0.088966 0.
0.612002 0.0889662 0.
0.614002 0.0889665 0.
0.616003 0.0889668 0.
0.618003 0.0889672 0.
0.620003 0.0889678 0.
0.622004 0.0889684 0.
0.624004 0.0889692 0.
0.626004 0.0889701 0.
0.628004 0.0889711 0.
0.630004 0.0889722 0.
0.632004 0.0889733 0.
0.634004 0.0889745 0.
0.636004 0.0889758 0.
0.638004 0.0889772 0.
0.640004 0.0889786 0.
0.642004 0.0889801 0.
0.644004 0.0889815 0.
0.646004 0.0889832 0.
0.648004 0.088985 0.
0.650004 0.0889867 0.
0.652004 0.088988 0.
0.654004 0.0889893 0.
0.656004 0.0889906 0.
0.658004 0.0889917 0.
0.660004 0.0889929 0.
0.662004 0.088994 0.
0.664004 0.088995 0.
0.666004 0.088996 0.
0.668005 0.0889969 0.
0.670005 0.0889978 0.
0.672005 0.0889986 0.
0.674005 0.0889991 0.
0.676005 0.0889995 0.
0.678005 0.089 0.
0.680005 0.0890011 0.
0.682005 0.0890022 0.
0.684005 0.0890034 0.
0.686005 0.0890047 0.
0.688005 0.0890061 0.
0.690005 0.0890075 0.
0.692005 0.0890088 0.
0.694005 0.0890102 0.
0.696005 0.0890116 0.
0.698005 0.0890129 0.
0.499996 0.0910132 0.
0.501996 0.0910118 0.
0.503996 0.0910104 0.
0.505996 0.091009 0.
0.507996 0.0910075 0.
0.509996 0.0910061 0.
0.511996 0.0910047 0.
0.513996 0.0910035 0.
0.515996 0.0910024 0.
0.517996 0.0910013 0.
0.519996 0.0910003 0.
0.521996 0.0909994 0.
0.523996 0.0909988 0.
0.525996 0.0909983 0.
0.527997 0.0909978 0.
0.529997 0.0909968 0.
0.531997 0.0909958 0.
0.533997 0.0909948 0.
0.535997 0.0909937 0.
0.537998 0.0909926 0.
0.539998 0.0909915 0.
0.541998 0.0909904 0.
0.543998 0.0909892 0.
0.545998 0.0909879 0.
0.547998 0.0909866 0.
0.549998 0.0909853 0.
0.551998 0.0909837 0.
0.553998 0.090982 0.
0.555997 0.0909804 0.
0.557997 0.0909788 0.
0.559997 0.0909772 0.
0.561997 0.0909757 0.
0.563997 0.0909743 0.
0.565997 0.0909729 0.
0.567997 0.0909717 0.
0.569997 0.0909706 0.
0.571997 0.0909695 0.
0.573997 0.0909687 0.
0.575998 0.0909679 0.
0.577998 0.0909672 0.
0.579998 0.0909668 0.
0.581998 0.0909664 0.
0.583998 0.0909661 0.
0.585999 0.0909659 0.
0.587999 0.0909657 0.
0.589999 0.0909656 0.
0.591999 0.0909655 0.
0.594 0.0909655 0.
0.596 0.0909655 0.
0.598 0.0909654 0.
0.6 0.0909654 0.
0.602001 0.0909655 0.
0.604001 0.0909655 0.
0.606001 0.0909655 0.
0.608001 0.0909656 0.
0.610002 0.0909657 0.
0.612002 0.0909658 0.
0.614002 0.0909661 0.
0.616002 0.0909664 0.
0.618003 0.0909669 0.
0.620003 0.0909675 0.
0.622003 0.090968 0.
0.624003 0.0909689 0.
0.626003 0.0909698 0.
0.628003 0.0909708 0.
0.630003 0.0909719 0.
0.632003 0.090973 0.
0.634003 0.0909742 0.
0.636003 0.0909756 0.
0.638003 0.0909769 0.
0.640003 0.0909784 0.
0.642003 0.0909799 0.
0.644003 0.0909814 0.
0.646003 0.0909831 0.
0.648002 0.0909849 0.
0.650002 0.0909866 0.
0.652002 0.090988 0.
0.654003 0.0909893 0.
0.656003 0.0909906 0.
0.658003 0.0909918 0.
0.660003 0.0909929 0.
0.662003 0.090994 0.
0.664003 0.0909951 0.
0.666003 0.0909961 0.
0.668003 0.090997 0.
0.670003 0.0909979 0.
0.672004 0.0909987 0.
0.674004 0.0909992 0.
0.676004 0.0909996 0.
0.678004 0.0910002 0.
0.680004 0.0910012 0.
0.682004 0.0910023 0.
0.684004 0.0910035 0.
0.686004 0.0910048 0.
0.688004 0.0910061 0.
0.690004 0.0910075 0.
0.692004 0.0910089 0.
0.694004 0.0910103 0.
0.696004 0.0910116 0.
0.698004 0.0910129 0.
0.499998 0.0930132 0.
0.501998 0.0930118 0.
0.503997 0.0930103 0.
0.505997 0.0930089 0.
0.507997 0.0930074 0.
0.509997 0.093006 0.
0.511997 0.0930047 0.
0.513997 0.0930035 0.
0.515997 0.0930024 0.
0.517998 0.0930013 0.
0.519998 0.0930004 0.
0.521998 0.0929994 0.
0.523998 0.0929989 0.
0.525998 0.0929983 0.
0.527998 0.0929978 0.
0.529998 0.0929968 0.
0.531998 0.0929959 0.
0.533999 0.0929949 0.
0.535999 0.0929938 0.
0.537999 0.0929927 0.
0.539999 0.0929915 0.
0.541999 0.0929904 0.
0.543999 0.0929892 0.
0.545999 0.0929879 0.
0.547999 0.0929866 0.
0.549999 0.0929853 0.
0.551999 0.0929837 0.
0.553999 0.092982 0.
0.555999 0.0929803 0.
0.557999 0.0929787 0.
0.559999 0.092977 0.
0.561998 0.0929755 0.
0.563998 0.0929741 0.
0.565998 0.0929727 0.
0.567998 0.0929715 0.
0.569998 0.0929704 0.
0.571998 0.0929694 0.
0.573998 0.0929685 0.
0.575998 0.0929678 0.
0.577998 0.092967 0.
0.579998 0.0929666 0.
0.581998 0.0929662 0.
0.583999 0.0929658 0.
0.585999 0.0929657 0.
0.587999 0.0929655 0.
0.589999 0.0929653 0.
0.591999 0.0929653 0.
0.594 0.0929652 0.
0.596 0.0929652 0.
0.598 0.0929652 0.
0.6 0.0929653 0.
0.602001 0.0929653 0.
0.604001 0.0929653 0.
0.606001 0.0929653 0.
0.608001 0.0929654 0.
0.610002 0.0929655 0.
0.612002 0.0929657 0.
0.614002 0.0929659 0.
0.616002 0.0929662 0.
0.618002 0.0929667 0.
0.620002 0.0929672 0.
0.622002 0.0929678 0.
0.624002 0.0929687 0.
0.626002 0.0929697 0.
0.628002 0.0929707 0.
0.630002 0.0929718 0.
0.632002 0.0929729 0.
0.634002 0.0929741 0.
0.636002 0.0929754 0.
0.638002 0.0929768 0.
0.640001 0.0929783 0.
0.642001 0.0929799 0.
0.644001 0.0929814 0.
0.646001 0.0929831 0.
0.648001 0.0929848 0.
0.650001 0.0929866 0.
0.652001 0.0929879 0.
0.654001 0.0929893 0.
0.656001 0.0929906 0.
0.658001 0.0929918 0.
0.660001 0.092993 0.
0.662001 0.0929942 0.
0.664002 0.0929952 0.
0.666002 0.0929962 0.
0.668002 0.0929971 0.
0.670002 0.0929979 0.
0.672002 0.0929987 0.
0.674002 0.0929992 0.
0.676002 0.0929997 0.
0.678002 0.0930002 0.
0.680002 0.0930012 0.
0.682002 0.0930023 0.
0.684002 0.0930034 0.
0.686002 0.0930048 0.
0.688002 0.0930061 0.
0.690002 0.0930075 0.
0.692003 0.0930089 0.
0.694003 0.0930103 0.
0.696003 0.0930116 0.
0.698003 0.0930129 0.
0.499999 0.0950132 0.
0.501999 0.0950117 0.
0.503999 0.0950102 0.
0.505999 0.0950087 0.
0.507999 0.0950073 0.
0.509999 0.0950059 0.
0.511999 0.0950046 0.
0.513999 0.0950035 0.
0.515999 0.0950023 0.
0.517999 0.0950013 0.
0.519999 0.0950004 0.
0.521999 0.0949995 0.
0.523999 0.0949989 0.
0.525999 0.0949984 0.
0.528 0.0949978 0.
0.53 0.0949969 0.
0.532 0.0949959 0.
0.534 0.0949949 0.
0.536 0.0949938 0.
0.538 0.0949927 0.
0.54 0.0949916 0.
0.542 0.0949904 0.
0.544 0.0949892 0.
0.546 0.0949879 0.
0.548 0.0949867 0.
0.550001 0.0949854 0.
0.552 0.0949837 0.
0.554 0.094982 0.
0.556 0.0949803 0.
0.558 0.0949786 0.
0.56 0.0949769 0.
0.562 0.0949753 0.
0.564 0.0949739 0.
0.565999 0.0949725 0.
0.567999 0.0949713 0.
0.569999 0.0949703 0.
0.571999 0.0949692 0.
0.573999 0.0949684 0.
0.575999 0.0949676 0.
0.577999 0.0949668 0.
0.579999 0.0949664 0.
0.581999 0.094966 0.
0.583999 0.0949656 0.
0.585999 0.0949654 0.
0.587999 0.0949652 0.
0.589999 0.0949651 0.
0.591999 0.094965 0.
0.594 0.0949649 0.
0.596 0.0949649 0.
0.598 0.094965 0.
0.6 0.0949651 0.
0.602001 0.0949651 0.
0.604001 0.0949651 0.
0.606001 0.0949651 0.
0.608001 0.0949652 0.
0.610002 0.0949653 0.
0.612002 0.0949655 0.
0.614002 0.0949657 0.
0.616002 0.094966 0.
0.618002 0.0949665 0.
0.620002 0.094967 0.
0.622002 0.0949675 0.
0.624001 0.0949685 0.
0.626001 0.0949695 0.
0.628001 0.0949706 0.
0.630001 0.0949717 0.
0.632001 0.0949727 0.
0.634001 0.0949739 0.
0.636 0.0949753 0.
0.638 0.0949767 0.
0.64 0.0949782 0.
0.642 0.0949798 0.
0.644 0.0949815 0.
0.646 0.0949831 0.
0.648 0.0949848 0.
0.65 0.0949865 0.
0.652 0.0949879 0.
0.654 0.0949892 0.
0.656 0.0949906 0.
0.658 0.0949919 0.
0.66 0.0949932 0.
0.662 0.0949943 0.
0.664 0.0949953 0.
0.666 0.0949964 0.
0.668 0.0949972 0.
0.67 0.0949979 0.
0.672001 0.0949987 0.
0.674001 0.0949992 0.
0.676001 0.0949997 0.
0.678001 0.0950002 0.
0.680001 0.0950012 0.
0.682001 0.0950022 0.
0.684001 0.0950034 0.
0.686001 0.0950047 0.
0.688001 0.0950061 0.
0.690001 0.0950075 0.
0.692001 0.0950089 0.
0.694001 0.0950103 0.
0.696001 0.0950116 0.
0.698001 0.0950129 0.
0.500001 0.0970133 0.
0.502001 0.0970118 0.
0.504 0.0970103 0.
0.506 0.0970089 0.
0.508 0.0970074 0.
0.51 0.097006 0.
0.512 0.0970047 0.
0.514 0.0970035 0.
0.516 0.0970024 0.
0.518 0.0970014 0.
0.52 0.0970004 0.
0.522 0.0969995 0.
0.524 0.0969989 0.
0.526 0.0969983 0.
0.528 0.0969977 0.
0.530001 0.0969968 0.
0.532001 0.0969958 0.
0.534001 0.0969948 0.
0.536001 0.0969937 0.
0.538001 0.0969926 0.
0.540002 0.0969915 0.
0.542002 0.0969903 0.
0.544002 0.0969891 0.
0.546002 0.0969879 0.
0.548002 0.0969866 0.
0.550002 0.0969853 0.
0.552002 0.0969837 0.
0.554002 0.096982 0.
0.556002 0.0969803 0.
0.558002 0.0969786 0.
0.560001 0.0969769 0.
0.562001 0.0969754 0.
0.564001 0.0969739 0.
0.566001 0.0969725 0.
0.568001 0.0969713 0.
0.57 0.0969703 0.
0.572 0.0969692 0.
0.574 0.0969684 0.
0.576 0.0969676 0.
0.577999 0.0969669 0.
0.579999 0.0969664 0.
0.581999 0.096966 0.
0.583999 0.0969656 0.
0.585999 0.0969654 0.
0.587999 0.0969651 0.
0.589999 0.096965 0.
0.591999 0.0969649 0.
0.594 0.0969648 0.
0.596 0.0969648 0.
0.598 0.0969649 0.
0.6 0.0969649 0.
0.602001 0.0969649 0.
0.604001 0.0969649 0.
0.606001 0.096965 0.
0.608001 0.0969651 0.
0.610001 0.0969652 0.
0.612001 0.0969654 0.
0.614001 0.0969657 0.
0.616001 0.096966 0.
0.618001 0.0969665 0.
0.620001 0.0969671 0.
0.622001 0.0969677 0.
0.624001 0.0969686 0.
0.626 0.0969696 0.
0.628 0.0969706 0.
0.63 0.0969717 0.
0.632 0.0969728 0.
0.633999 0.0969739 0.
0.635999 0.0969753 0.
0.637999 0.0969767 0.
0.639999 0.0969782 0.
0.641998 0.0969799 0.
0.643998 0.0969815 0.
0.645998 0.0969832 0.
0.647998 0.0969848 0.
0.649998 0.0969865 0.
0.651998 0.0969878 0.
0.653998 0.0969891 0.
0.655998 0.0969905 0.
0.657999 0.0969917 0.
0.659999 0.096993 0.
0.661999 0.0969942 0.
0.663999 0.0969952 0.
0.665999 0.0969962 0.
0.667999 0.0969971 0.
0.67 0.0969979 0.
0.672 0.0969986 0.
0.674 0.0969992 0.
0.676 0.0969997 0.
0.678 0.0970003 0.
0.68 0.0970013 0.
0.682 0.0970023 0.
0.684 0.0970034 0.
0.686 0.0970048 0.
0.688 0.0970061 0.
0.69 0.0970075 0.
0.692 0.0970089 0.
0.694 0.0970103 0.
0.696 0.0970116 0.
0.698 0.0970129 0.
0.500002 0.0990133 0.
0.502002 0.0990119 0.
0.504002 0.0990104 0.
0.506002 0.099009 0.
0.508002 0.0990075 0.
0.510001 0.099006 0.
0.512001 0.0990047 0.
0.514001 0.0990036 0.
0.516001 0.0990024 0.
0.518001 0.0990014 0.
0.520001 0.0990005 0.
0.522001 0.0989995 0.
0.524001 0.0989989 0.
0.526001 0.0989983 0.
0.528001 0.0989976 0.
0.530002 0.0989967 0.
0.532002 0.0989957 0.
0.534002 0.0989947 0.
0.536003 0.0989937 0.
0.538003 0.0989926 0.
0.540003 0.0989914 0.
0.542003 0.0989903 0.
0.544003 0.0989891 0.
0.546003 0.0989878 0.
0.548003 0.0989866 0.
0.550004 0.0989853 0.
0.552003 0.0989836 0.
0.554003 0.098982 0.
0.556003 0.0989804 0.
0.558003 0.0989787 0.
0.560003 0.098977 0.
0.562003 0.0989754 0.
0.564002 0.098974 0.
0.566002 0.0989725 0.
0.568002 0.0989713 0.
0.570001 0.0989703 0.
0.572001 0.0989692 0.
0.574001 0.0989684 0.
0.576 0.0989677 0.
0.578 0.098967 0.
0.58 0.0989665 0.
0.581999 0.098966 0.
0.583999 0.0989656 0.
0.585999 0.0989653 0.
0.587999 0.0989651 0.
0.589999 0.0989649 0.
0.591999 0.0989648 0.
0.594 0.0989647 0.
0.596 0.0989647 0.
0.598 0.0989647 0.
0.6 0.0989647 0.
0.602001 0.0989647 0.
0.604001 0.0989647 0.
0.606001 0.0989648 0.
0.608001 0.098965 0.
0.610001 0.0989652 0.
0.612001 0.0989654 0.
0.614001 0.0989657 0.
0.616001 0.0989661 0.
0.618001 0.0989666 0.
0.620001 0.0989672 0.
0.622 0.0989678 0.
0.624 0.0989687 0.
0.625999 0.0989696 0.
0.627999 0.0989706 0.
0.629999 0.0989717 0.
0.631998 0.0989728 0.
0.633998 0.098974 0.
0.635998 0.0989753 0.
0.637997 0.0989767 0.
0.639997 0.0989782 0.
0.641997 0.0989799 0.
0.643997 0.0989816 0.
0.645996 0.0989832 0.
0.647996 0.0989849 0.
0.649996 0.0989865 0.
0.651996 0.0989878 0.
0.653997 0.0989891 0.
0.655997 0.0989903 0.
0.657997 0.0989916 0.
0.659997 0.0989929 0.
0.661998 0.0989941 0.
0.663998 0.0989951 0.
0.665998 0.0989961 0.
0.667999 0.098997 0.
0.669999 0.0989978 0.
0.671999 0.0989986 0.
0.673999 0.0989992 0.
0.675999 0.0989997 0.
0.677999 0.0990003 0.
0.679999 0.0990013 0.
0.681999 0.0990023 0.
0.683999 0.0990034 0.
0.685999 0.0990048 0.
0.687999 0.0990061 0.
0.689999 0.0990075 0.
0.691999 0.0990089 0.
0.693999 0.0990103 0.
0.695999 0.0990117 0.
0.697998 0.099013 0.
CELLS 5000 10000
1 0
1 1
1 2
1 3
1 4
1 5
1 6
1 7
1 8
1 9
1 10
1 11
1 12
1 13
1 14
1 15
1 16
1 17
1 18
1 19
1 20
1 21
1 22
1 23
1 24
1 25
1 26
1 27
1 28
1 29
1 30
1 31
1 32
1 33
1 34
1 35
1 36
1 37
1 38
1 39
1 40
1 41
1 42
1 43
1 44
1 45
1 46
1 47
1 48
1 49
1 50
1 51
1 52
1 53
1 54
1 55
1 56
1 57
1 58
1 59
1 60
1 61
1 62
1 63
1 64
1 65
1 66
1 67
1 68
1 69
1 70
1 71
1 72
1 73
1 74
1 75
1 76
1 77
1 78
1 79
1 80
1 81
1 82
1 83
1 84
1 85
1 86
1 87
1 88
1 89
1 90
1 91
1 92
1 93
1 94
1 95
1 96
1 97
1 98
1 99
1 100
1 101
1 102
1 103
1 104
1 105
1 106
1 107
1 108
1 109
1 110
1 111
1 112
1 113
1 114
1 115
1 116
1 117
1 118
1 119
1 120
1 121
1 122
1 123
1 124
1 125
1 126
1 127
1 128
1 129
1 130
1 131
1 132
1 133
1 134
1 135
1 136
1 137
1 138
1 139
1 140
1 141
1 142
1 143
1 144
1 145
1 146
1 147
1 148
1 149
1 150
1 151
1 152
1 153
1 154
1 155
1 156
1 157
1 158
1 159
1 160
1 161
1 162
1 163
1 164
1 165
1 166
1 167
1 168
1 169
1 170
1 171
1 172
1 173
1 174
1 175
1 176
1 177
1 178
1 179
1 180
1 181
1 182
1 183
1 184
1 185
1 186
1 187
1 188
1 189
1 190
1 191
1 192
1 193
1 194
1 195
1 196
1 197
1 198
1 199
1 200
1 201
1 202
1 203
1 204
1 205
1 206
1 207
1 208
1 209
1 210
1 211
1 212
1 213
1 214
1 215
1 216
1 217
1 218
1 219
1 220
1 221
1 222
1 223
1 224
1 225
1 226
1 227
1 228
1 229
1 230
1 231
1 232
1 233
1 234
1 235
1 236
1 237
1 238
1 239
1 240
1 241
1 242
1 243
1 244
1 245
1 246
1 247
1 248
1 249
1 250
1 251
1 252
1 253
1 254
1 255
1 256
1 257
1 258
1 259
1 260
1 261
1 262
1 263
1 264
1 265
1 266
1 267
1 268
1 269
1 270
1 271
1 272
1 273
1 274
1 275
1 276
1 277
1 278
1 279
1 280
1 281
1 282
1 283
1 284
1 285
1 286
1 287
1 288
1 289
1 290
1 291
1 292
1 293
1 294
1 295
1 296
1 297
1 298
1 299
1 300
1 301
1 302
1 303
1 304
1 305
1 306
1 307
1 308
1 309
1 310
1 311
1 312
1 313
1 314
1 315
1 316
1 317
1 318
1 319
1 320
1 321
1 322
1 323
1 324
1 325
1 326
1 327
1 328
1 329
1 330
1 331
1 332
1 333
1 334
1 335
1 336
1 337
1 338
1 339
1 340
1 341
1 342
1 343
1 344
1 345
1 346
1 347
1 348
1 349
1 350
1 351
1 352
1 353
1 354
1 355
1 356
1 357
1 358
1 359
1 360
1 361
1 362
1 363
1 364
1 365
1 366
1 367
1 368
1 369
1 370
1 371
1 372
1 373
1 374
1 375
1 376
1 377
1 378
1 379
1 380
1 381
1 382
1 383
1 384
1 385
1 386
1 387
1 388
1 389
1 390
1 391
1 392
1 393
1 394
1 395
1 396
1 397
1 398
1 399
1 400
1 401
1 402
1 403
1 404
1 405
1 406
1 407
1 408
1 409
1 410
1 411
1 412
1 413
1 414
1 415
1 416
1 417
1 418
1 419
1 420
1 421
1 422
1 423
1 424
1 425
1 426
1 427
1 428
1 429
1 430
1 431
1 432
1 433
1 434
1 435
1 436
1 437
1 438
1 439
1 440
1 441
1 442
1 443
1 444
1 445
1 446
1 447
1 448
1 449
1 450
1 451
1 452
1 453
1 454
1 455
1 456
1 457
1 458
1 459
1 460
1 461
1 462
1 463
1 464
1 465
1 466
1 467
1 468
1 469
1 470
1 471
1 472
1 473
1 474
1 475
1 476
1 477
1 478
1 479
1 480
1 481
1 482
1 483
1 484
1 485
1 486
1 487
1 488
1 489
1 490
1 491
1 492
1 493
1 494
1 495
1 496
1 497
1 498
1 499
1 500
1 501
1 502
1 503
1 504
1 505
1 506
1 507
1 508
1 509
1 510
1 511
1 512
1 513
1 514
1 515
1 516
1 517
1 518
1 519
1 520
1 521
1 522
1 523
1 524
1 525
1 526
1 527
1 528
1 529
1 530
1 531
1 532
1 533
1 534
1 535
1 536
1 537
1 538
1 539
1 540
1 541
1 542
1 543
1 544
1 545
1 546
1 547
1 548
1 549
1 550
1 551
1 552
1 553
1 554
1 555
1 556
1 557
1 558
1 559
1 560
1 561
1 562
1 563
1 564
1 565
1 566
1 567
1 568
1 569
1 570
1 571
1 572
1 573
1 574
1 575
1 576
1 577
1 578
1 579
1 580
1 581
1 582
1 583
1 584
1 585
1 586
1 587
1 588
1 589
1 590
1 591
1 592
1 593
1 594
1 595
1 596
1 597
1 598
1 599
1 600
1 601
1 602
1 603
1 604
1 605
1 606
1 607
1 608
1 609
1 610
1 611
1 612
1 613
1 614
1 615
1 616
1 617
1 618
1 619
1 620
1 621
1 622
1 623
1 624
1 625
1 626
1 627
1 628
1 629
1 630
1 631
1 632
1 633
1 634
1 635
1 636
1 637
1 638
1 639
1 640
1 641
1 642
1 643
1 644
1 645
1 646
1 647
1 648
1 649
1 650
1 651
1 652
1 653
1 654
1 655
1 656
1 657
1 658
1 659
1 660
1 661
1 662
1 663
1 664
1 665
1 666
1 667
1 668
1 669
1 670
1 671
1 672
1 673
1 674
1 675
1 676
1 677
1 678
1 679
1 680
1 681
1 682
1 683
1 684
1 685
1 686
1 687
1 688
1 689
1 690
1 691
1 692
1 693
1 694
1 695
1 696
1 697
1 698
1 699
1 700
1 701
1 702
1 703
1 704
1 705
1 706
1 707
1 708
1 709
1 710
1 711
1 712
1 713
1 714
1 715
1 716
1 717
1 718
1 719
1 720
1 721
1 722
1 723
1 724
1 725
1 726
1 727
1 728
1 729
1 730
1 731
1 732
1 733
1 734
1 735
1 736
1 737
1 738
1 739
1 740
1 741
1 742
1 743
1 744
1 745
1 746
1 747
1 748
1 749
1 750
1 751
1 752
1 753
1 754
1 755
1 756
1 757
1 758
1 759
1 760
1 761
1 762
1 763
1 764
1 765
1 766
1 767
1 768
1 769
1 770
1 771
1 772
1 773
1 774
1 775
1 776
1 777
1 778
1 779
1 780
1 781
1 782
1 783
1 784
1 785
1 786
1 787
1 788
1 789
1 790
1 791
1 792
1 793
1 794
1 795
1 796
1 797
1 798
1 799
1 800
1 801
1 802
1 803
1 804
1 805
1 806
1 807
1 808
1 809
1 810
1 811
1 812
1 813
1 814
1 815
1 816
1 817
1 818
1 819
1 820
1 821
1 822
1 823
1 824
1 825
1 826
1 827
1 828
1 829
1 830
1 831
1 832
1 833
1 834
1 835
1 836
1 837
1 838
1 839
1 840
1 841
1 842
1 843
1 844
1 845
1 846
1 847
1 848
1 849
1 850
1 851
1 852
1 853
1 854
1 855
1 856
1 857
1 858
1 859
1 860
1 861
1 862
1 863
1 864
1 865
1 866
1 867
1 868
1 869
1 870
1 871
1 872
1 873
1 874
1 875
1 876
1 877
1 878
1 879
1 880
1 881
1 882
1 883
1 884
1 885
1 886
1 887
1 888
1 889
1 890
1 891
1 892
1 893
1 894
1 895
1 896
1 897
1 898
1 899
1 900
1 901
1 902
1 903
1 904
1 905
1 906
1 907
1 908
1 909
1 910
1 911
1 912
1 913
1 914
1 915
1 916
1 917
1 918
1 919
1 920
1 921
1 922
1 923
1 924
1 925
1 926
1 927
1 928
1 929
1 930
1 931
1 932
1 933
1 934
1 935
1 936
1 937
1 938
1 939
1 940
1 941
1 942
1 943
1 944
1 945
1 946
1 947
1 948
1 949
1 950
1 951
1 952
1 953
1 954
1 955
1 956
1 957
1 958
1 959
1 960
1 961
1 962
1 963
1 964
1 965
1 966
1 967
1 968
1 969
1 970
1 971
1 972
1 973
1 974
1 975
1 976
1 977
1 978
1 979
1 980
1 981
1 982
1 983
1 984
1 985
1 986
1 987
1 988
1 989
1 990
1 991
1 992
1 993
1 994
1 995
1 996
1 997
1 998
1 999
1 1000
1 1001
1 1002
1 1003
1 1004
1 1005
1 1006
1 1007
1 1008
1 1009
1 1010
1 1011
1 1012
1 1013
1 1014
1 1015
1 1016
1 1017
1 1018
1 1019
1 1020
1 1021
1 1022
1 1023
1 1024
1 1025
1 1026
1 1027
1 1028
1 1029
1 1030
1 1031
1 1032
1 1033
1 1034
1 1035
1 1036
1 1037
1 1038
1 1039
1 1040
1 1041
1 1042
1 1043
1 1044
1 1045
1 1046
1 1047
1 1048
1 1049
1 1050
1 1051
1 1052
1 1053
1 1054
1 1055
1 1056
1 1057
1 1058
1 1059
1 1060
1 1061
1 1062
1 1063
1 1064
1 1065
1 1066
1 1067
1 1068
1 1069
1 1070
1 1071
1 1072
1 1073
1 1074
1 1075
1 1076
1 1077
1 1078
1 1079
1 1080
1 1081
1 1082
1 1083
1 1084
1 1085
1 1086
1 1087
1 1088
1 1089
1 1090
1 1091
1 1092
1 1093
1 1094
1 1095
1 1096
1 1097
1 1098
1 1099
1 1100
1 1101
1 1102
1 1103
1 1104
1 1105
1 1106
1 1107
1 1108
1 1109
1 1110
1 1111
1 1112
1 1113
1 1114
1 1115
1 1116
1 1117
1 1118
1 1119
1 1120
1 1121
1 1122
1 1123
1 1124
1 1125
1 1126
1 1127
1 1128
1 1129
1 1130
1 1131
1 1132
1 1133
1 1134
1 1135
1 1136
1 1137
1 1138
1 1139
1 1140
1 1141
1 1142
1 1143
1 1144
1 1145
1 1146
1 1147
1 1148
1 1149
1 1150
1 1151
1 1152
1 1153
1 1154
1 1155
1 1156
1 1157
1 1158
1 1159
1 1160
1 1161
1 1162
1 1163
1 1164
1 1165
1 1166
1 1167
1 1168
1 1169
1 1170
1 1171
1 1172
1 1173
1 1174
1 1175
1 1176
1 1177
1 1178
1 1179
1 1180
1 1181
1 1182
1 1183
1 1184
1 1185
1 1186
1 1187
1 1188
1 1189
1 1190
1 1191
1 1192
1 1193
1 1194
1 1195
1 1196
1 1197
1 1198
1 1199
1 1200
1 1201
1 1202
1 1203
1 1204
1 1205
1 1206
1 1207
1 1208
1 1209
1 1210
1 1211
1 1212
1 1213
1 1214
1 1215
1 1216
1 1217
1 1218
1 1219
1 1220
1 1221
1 1222
1 1223
1 1224
1 1225
1 1226
1 1227
1 1228
1 1229
1 1230
1 1231
1 1232
1 1233
1 1234
1 1235
1 1236
1 1237
1 1238
1 1239
1 1240
1 1241
1 1242
1 1243
1 1244
1 1245
1 1246
1 1247
1 1248
1 1249
1 1250
1 1251
1 1252
1 1253
1 1254
1 1255
1 1256
1 1257
1 1258
1 1259
1 1260
1 1261
1 1262
1 1263
1 1264
1 1265
1 1266
1 1267
1 1268
1 1269
1 1270
1 1271
1 1272
1 1273
1 1274
1 1275
1 1276
1 1277
1 1278
1 1279
1 1280
1 1281
1 1282
1 1283
1 1284
1 1285
1 1286
1 1287
1 1288
1 1289
1 1290
1 1291
1 1292
1 1293
1 1294
1 1295
1 1296
1 1297
1 1298
1 1299
1 1300
1 1301
1 1302
1 1303
1 1304
1 1305
1 1306
1 1307
1 1308
1 1309
1 1310
1 1311
1 1312
1 1313
1 1314
1 1315
1 1316
1 1317
1 1318
1 1319
1 1320
1 1321
1 1322
1 1323
1 1324
1 1325
1 1326
1 1327
1 1328
1 1329
1 1330
1 1331
1 1332
1 1333
1 1334
1 1335
1 1336
1 1337
1 1338
1 1339
1 1340
1 1341
1 1342
1 1343
1 1344
1 1345
1 1346
1 1347
1 1348
1 1349
1 1350
1 1351
1 1352
1 1353
1 1354
1 1355
1 1356
1 1357
1 1358
1 1359
1 1360
1 1361
1 1362
1 1363
1 1364
1 1365
1 1366
1 1367
1 1368
1 1369
1 1370
1 1371
1 1372
1 1373
1 1374
1 1375
1 1376
1 1377
1 1378
1 1379
1 1380
1 1381
1 1382
1 1383
1 1384
1 1385
1 1386
1 1387
1 1388
1 1389
1 1390
1 1391
1 1392
1 1393
1 1394
1 1395
1 1396
1 1397
1 1398
1 1399
1 1400
1 1401
1 1402
1 1403
1 1404
1 1405
1 1406
1 1407
1 1408
1 1409
1 1410
1 1411
1 1412
1 1413
1 1414
1 1415
1 1416
1 1417
1 1418
1 1419
1 1420
1 1421
1 1422
1 1423
1 1424
1 1425
1 1426
1 1427
1 1428
1 1429
1 1430
1 1431
1 1432
1 1433
1 1434
1 1435
1 1436
1 1437
1 1438
1 1439
1 1440
1 1441
1 1442
1 1443
1 1444
1 1445
1 1446
1 1447
1 1448
1 1449
1 1450
1 1451
1 1452
1 1453
1 1454
1 1455
1 1456
1 1457
1 1458
1 1459
1 1460
1 1461
1 1462
1 1463
1 1464
1 1465
1 1466
1 1467
1 1468
1 1469
1 1470
1 1471
1 1472
1 1473
1 1474
1 1475
1 1476
1 1477
1 1478
1 1479
1 1480
1 1481
1 1482
1 1483
1 1484
1 1485
1 1486
1 1487
1 1488
1 1489
1 1490
1 1491
1 1492
1 1493
1 1494
1 1495
1 1496
1 1497
1 1498
1 1499
1 1500
1 1501
1 1502
1 1503
1 1504
1 1505
1 1506
1 1507
1 1508
1 1509
1 1510
1 1511
1 1512
1 1513
1 1514
1 1515
1 1516
1 1517
1 1518
1 1519
1 1520
1 1521
1 1522
1 1523
1 1524
1 1525
1 1526
1 1527
1 1528
1 1529
1 1530
1 1531
1 1532
1 1533
1 1534
1 1535
1 1536
1 1537
1 1538
1 1539
1 1540
1 1541
1 1542
1 1543
1 1544
1 1545
1 1546
1 1547
1 1548
1 1549
1 1550
1 1551
1 1552
1 1553
1 1554
1 1555
1 1556
1 1557
1 1558
1 1559
1 1560
1 1561
1 1562
1 1563
1 1564
1 1565
1 1566
1 1567
1 1568
1 1569
1 1570
1 1571
1 1572
1 1573
1 1574
1 1575
1 1576
1 1577
1 1578
1 1579
1 1580
1 1581
1 1582
1 1583
1 1584
1 1585
1 1586
1 1587
1 1588
1 1589
1 1590
1 1591
1 1592
1 1593
1 1594
1 1595
1 1596
1 1597
1 1598
1 1599
1 1600
1 1601
1 1602
1 1603
1 1604
1 1605
1 1606
1 1607
1 1608
1 1609
1 1610
1 1611
1 1612
1 1613
1 1614
1 1615
1 1616
1 1617
1 1618
1 1619
1 1620
1 1621
1 1622
1 1623
1 1624
1 1625
1 1626
1 1627
1 1628
1 1629
1 1630
1 1631
1 1632
1 1633
1 1634
1 1635
1 1636
1 1637
1 1638
1 1639
1 1640
1 1641
1 1642
1 1643
1 1644
1 1645
1 1646
1 1647
1 1648
1 1649
1 1650
1 1651
1 1652
1 1653
1 1654
1 1655
1 1656
1 1657
1 1658
1 1659
1 1660
1 1661
1 1662
1 1663
1 1664
1 1665
1 1666
1 1667
1 1668
1 1669
1 1670
1 1671
1 1672
1 1673
1 1674
1 1675
1 1676
1 1677
1 1678
1 1679
1 1680
1 1681
1 1682
1 1683
1 1684
1 1685
1 1686
1 1687
1 1688
1 1689
1 1690
1 1691
1 1692
1 1693
1 1694
1 1695
1 1696
1 1697
1 1698
1 1699
1 1700
1 1701
1 1702
1 1703
1 1704
1 1705
1 1706
1 1707
1 1708
1 1709
1 1710
1 1711
1 1712
1 1713
1 1714
1 1715
1 1716
1 1717
1 1718
1 1719
1 1720
1 1721
1 1722
1 1723
1 1724
1 1725
1 1726
1 1727
1 1728
1 1729
1 1730
1 1731
1 1732
1 1733
1 1734
1 1735
1 1736
1 1737
1 1738
1 1739
1 1740
1 1741
1 1742
1 1743
1 1744
1 1745
1 1746
1 1747
1 1748
1 1749
1 1750
1 1751
1 1752
1 1753
1 1754
1 1755
1 1756
1 1757
1 1758
1 1759
1 1760
1 1761
1 1762
1 1763
1 1764
1 1765
1 1766
1 1767
1 1768
1 1769
1 1770
1 1771
1 1772
1 1773
1 1774
1 1775
1 1776
1 1777
1 1778
1 1779
1 1780
1 1781
1 1782
1 1783
1 1784
1 1785
1 1786
1 1787
1 1788
1 1789
1 1790
1 1791
1 1792
1 1793
1 1794
1 1795
1 1796
1 1797
1 1798
1 1799
1 1800
1 1801
1 1802
1 1803
1 1804
1 1805
1 1806
1 1807
1 1808
1 1809
1 1810
1 1811
1 1812
1 1813
1 1814
1 1815
1 1816
1 1817
1 1818
1 1819
1 1820
1 1821
1 1822
1 1823
1 1824
1 1825
1 1826
1 1827
1 1828
1 1829
1 1830
1 1831
1 1832
1 1833
1 1834
1 1835
1 1836
1 1837
1 1838
1 1839
1 1840
1 1841
1 1842
1 1843
1 1844
1 1845
1 1846
1 1847
1 1848
1 1849
1 1850
1 1851
1 1852
1 1853
1 1854
1 1855
1 1856
1 1857
1 1858
1 1859
1 1860
1 1861
1 1862
1 1863
1 1864
1 1865
1 1866
1 1867
1 1868
1 1869
1 1870
1 1871
1 1872
1 1873
1 1874
1 1875
1 1876
1 1877
1 1878
1 1879
1 1880
1 1881
1 1882
1 1883
1 1884
1 1885
1 1886
1 1887
1 1888
1 1889
1 1890
1 1891
1 1892
1 1893
1 1894
1 1895
1 1896
1 1897
1 1898
1 1899
1 1900
1 1901
1 1902
1 1903
1 1904
1 1905
1 1906
1 1907
1 1908
1 1909
1 1910
1 1911
1 1912
1 1913
1 1914
1 1915
1 1916
1 1917
1 1918
1 1919
1 1920
1 1921
1 1922
1 1923
1 1924
1 1925
1 1926
1 1927
1 1928
1 1929
1 1930
1 1931
1 1932
1 1933
1 1934
1 1935
1 1936
1 1937
1 1938
1 1939
1 1940
1 1941
1 1942
1 1943
1 1944
1 1945
1 1946
1 1947
1 1948
1 1949
1 1950
1 1951
1 1952
1 1953
1 1954
1 1955
1 1956
1 1957
1 1958
1 1959
1 1960
1 1961
1 1962
1 1963
1 1964
1 1965
1 1966
1 1967
1 1968
1 1969
1 1970
1 1971
1 1972
1 1973
1 1974
1 1975
1 1976
1 1977
1 1978
1 1979
1 1980
1 1981
1 1982
1 1983
1 1984
1 1985
1 1986
1 1987
1 1988
1 1989
1 1990
1 1991
1 1992
1 1993
1 1994
1 1995
1 1996
1 1997
1 1998
1 1999
1 2000
1 2001
1 2002
1 2003
1 2004
1 2005
1 2006
1 2007
1 2008
1 2009
1 2010
1 2011
1 2012
1 2013
1 2014
1 2015
1 2016
1 2017
1 2018
1 2019
1 2020
1 2021
1 2022
1 2023
1 2024
1 2025
1 2026
1 2027
1 2028
1 2029
1 2030
1 2031
1 2032
1 2033
1 2034
1 2035
1 2036
1 2037
1 2038
1 2039
1 2040
1 2041
1 2042
1 2043
1 2044
1 2045
1 2046
1 2047
1 2048
1 2049
1 2050
1 2051
1 2052
1 2053
1 2054
1 2055
1 2056
1 2057
1 2058
1 2059
1 2060
1 2061
1 2062
1 2063
1 2064
1 2065
1 2066
1 2067
1 2068
1 2069
1 2070
1 2071
1 2072
1 2073
1 2074
1 2075
1 2076
1 2077
1 2078
1 2079
1 2080
1 2081
1 2082
1 2083
1 2084
1 2085
1 2086
1 2087
1 2088
1 2089
1 2090
1 2091
1 2092
1 2093
1 2094
1 2095
1 2096
1 2097
1 2098
1 2099
1 2100
1 2101
1 2102
1 2103
1 2104
1 2105
1 2106
1 2107
1 2108
1 2109
1 2110
1 2111
1 2112
1 2113
1 2114
1 2115
1 2116
1 2117
1 2118
1 2119
1 2120
1 2121
1 2122
1 2123
1 2124
1 2125
1 2126
1 2127
1 2128
1 2129
1 2130
1 2131
1 2132
1 2133
1 2134
1 2135
1 2136
1 2137
1 2138
1 2139
1 2140
1 2141
1 2142
1 2143
1 2144
1 2145
1 2146
1 2147
1 2148
1 2149
1 2150
1 2151
1 2152
1 2153
1 2154
1 2155
1 2156
1 2157
1 2158
1 2159
1 2160
1 2161
1 2162
1 2163
1 2164
1 2165
1 2166
1 2167
1 2168
1 2169
1 2170
1 2171
1 2172
1 2173
1 2174
1 2175
1 2176
1 2177
1 2178
1 2179
1 2180
1 2181
1 2182
1 2183
1 2184
1 2185
1 2186
1 2187
1 2188
1 2189
1 2190
1 2191
1 2192
1 2193
1 2194
1 2195
1 2196
1 2197
1 2198
1 2199
1 2200
1 2201
1 2202
1 2203
1 2204
1 2205
1 2206
1 2207
1 2208
1 2209
1 2210
1 2211
1 2212
1 2213
1 2214
1 2215
1 2216
1 2217
1 2218
1 2219
1 2220
1 2221
1 2222
1 2223
1 2224
1 2225
1 2226
1 2227
1 2228
1 2229
1 2230
1 2231
1 2232
1 2233
1 2234
1 2235
1 2236
1 2237
1 2238
1 2239
1 2240
1 2241
1 2242
1 2243
1 2244
1 2245
1 2246
1 2247
1 2248
1 2249
1 2250
1 2251
1 2252
1 2253
1 2254
1 2255
1 2256
1 2257
1 2258
1 2259
1 2260
1 2261
1 2262
1 2263
1 2264
1 2265
1 2266
1 2267
1 2268
1 2269
1 2270
1 2271
1 2272
1 2273
1 2274
1 2275
1 2276
1 2277
1 2278
1 2279
1 2280
1 2281
1 2282
1 2283
1 2284
1 2285
1 2286
1 2287
1 2288
1 2289
1 2290
1 2291
1 2292
1 2293
1 2294
1 2295
1 2296
1 2297
1 2298
1 2299
1 2300
1 2301
1 2302
1 2303
1 2304
1 2305
1 2306
1 2307
1 2308
1 2309
1 2310
1 2311
1 2312
1 2313
1 2314
1 2315
1 2316
1 2317
1 2318
1 2319
1 2320
1 2321
1 2322
1 2323
1 2324
1 2325
1 2326
1 2327
1 2328
1 2329
1 2330
1 2331
1 2332
1 2333
1 2334
1 2335
1 2336
1 2337
1 2338
1 2339
1 2340
1 2341
1 2342
1 2343
1 2344
1 2345
1 2346
1 2347
1 2348
1 2349
1 2350
1 2351
1 2352
1 2353
1 2354
1 2355
1 2356
1 2357
1 2358
1 2359
1 2360
1 2361
1 2362
1 2363
1 2364
1 2365
1 2366
1 2367
1 2368
1 2369
1 2370
1 2371
1 2372
1 2373
1 2374
1 2375
1 2376
1 2377
1 2378
1 2379
1 2380
1 2381
1 2382
1 2383
1 2384
1 2385
1 2386
1 2387
1 2388
1 2389
1 2390
1 2391
1 2392
1 2393
1 2394
1 2395
1 2396
1 2397
1 2398
1 2399
1 2400
1 2401
1 2402
1 2403
1 2404
1 2405
1 2406
1 2407
1 2408
1 2409
1 2410
1 2411
1 2412
1 2413
1 2414
1 2415
1 2416
1 2417
1 2418
1 2419
1 2420
1 2421
1 2422
1 2423
1 2424
1 2425
1 2426
1 2427
1 2428
1 2429
1 2430
1 2431
1 2432
1 2433
1 2434
1 2435
1 2436
1 2437
1 2438
1 2439
1 2440
1 2441
1 2442
1 2443
1 2444
1 2445
1 2446
1 2447
1 2448
1 2449
1 2450
1 2451
1 2452
1 2453
1 2454
1 2455
1 2456
1 2457
1 2458
1 2459
1 2460
1 2461
1 2462
1 2463
1 2464
1 2465
1 2466
1 2467
1 2468
1 2469
1 2470
1 2471
1 2472
1 2473
1 2474
1 2475
1 2476
1 2477
1 2478
1 2479
1 2480
1 2481
1 2482
1 2483
1 2484
1 2485
1 2486
1 2487
1 2488
1 2489
1 2490
1 2491
1 2492
1 2493
1 2494
1 2495
1 2496
1 2497
1 2498
1 2499
1 2500
1 2501
1 2502
1 2503
1 2504
1 2505
1 2506
1 2507
1 2508
1 2509
1 2510
1 2511
1 2512
1 2513
1 2514
1 2515
1 2516
1 2517
1 2518
1 2519
1 2520
1 2521
1 2522
1 2523
1 2524
1 2525
1 2526
1 2527
1 2528
1 2529
1 2530
1 2531
1 2532
1 2533
1 2534
1 2535
1 2536
1 2537
1 2538
1 2539
1 2540
1 2541
1 2542
1 2543
1 2544
1 2545
1 2546
1 2547
1 2548
1 2549
1 2550
1 2551
1 2552
1 2553
1 2554
1 2555
1 2556
1 2557
1 2558
1 2559
1 2560
1 2561
1 2562
1 2563
1 2564
1 2565
1 2566
1 2567
1 2568
1 2569
1 2570
1 2571
1 2572
1 2573
1 2574
1 2575
1 2576
1 2577
1 2578
1 2579
1 2580
1 2581
1 2582
1 2583
1 2584
1 2585
1 2586
1 2587
1 2588
1 2589
1 2590
1 2591
1 2592
1 2593
1 2594
1 2595
1 2596
1 2597
1 2598
1 2599
1 2600
1 2601
1 2602
1 2603
1 2604
1 2605
1 2606
1 2607
1 2608
1 2609
1 2610
1 2611
1 2612
1 2613
1 2614
1 2615
1 2616
1 2617
1 2618
1 2619
1 2620
1 2621
1 2622
1 2623
1 2624
1 2625
1 2626
1 2627
1 2628
1 2629
1 2630
1 2631
1 2632
1 2633
1 2634
1 2635
1 2636
1 2637
1 2638
1 2639
1 2640
1 2641
1 2642
1 2643
1 2644
1 2645
1 2646
1 2647
1 2648
1 2649
1 2650
1 2651
1 2652
1 2653
1 2654
1 2655
1 2656
1 2657
1 2658
1 2659
1 2660
1 2661
1 2662
1 2663
1 2664
1 2665
1 2666
1 2667
1 2668
1 2669
1 2670
1 2671
1 2672
1 2673
1 2674
1 2675
1 2676
1 2677
1 2678
1 2679
1 2680
1 2681
1 2682
1 2683
1 2684
1 2685
1 2686
1 2687
1 2688
1 2689
1 2690
1 2691
1 2692
1 2693
1 2694
1 2695
1 2696
1 2697
1 2698
1 2699
1 2700
1 2701
1 2702
1 2703
1 2704
1 2705
1 2706
1 2707
1 2708
1 2709
1 2710
1 2711
1 2712
1 2713
1 2714
1 2715
1 2716
1 2717
1 2718
1 2719
1 2720
1 2721
1 2722
1 2723
1 2724
1 2725
1 2726
1 2727
1 2728
1 2729
1 2730
1 2731
1 2732
1 2733
1 2734
1 2735
1 2736
1 2737
1 2738
1 2739
1 2740
1 2741
1 2742
1 2743
1 2744
1 2745
1 2746
1 2747
1 2748
1 2749
1 2750
1 2751
1 2752
1 2753
1 2754
1 2755
1 2756
1 2757
1 2758
1 2759
1 2760
1 2761
1 2762
1 2763
1 2764
1 2765
1 2766
1 2767
1 2768
1 2769
1 2770
1 2771
1 2772
1 2773
1 2774
1 2775
1 2776
1 2777
1 2778
1 2779
1 2780
1 2781
1 2782
1 2783
1 2784
1 2785
1 2786
1 2787
1 2788
1 2789
1 2790
1 2791
1 2792
1 2793
1 2794
1 2795
1 2796
1 2797
1 2798
1 2799
1 2800
1 2801
1 2802
1 2803
1 2804
1 2805
1 2806
1 2807
1 2808
1 2809
1 2810
1 2811
1 2812
1 2813
1 2814
1 2815
1 2816
1 2817
1 2818
1 2819
1 2820
1 2821
1 2822
1 2823
1 2824
1 2825
1 2826
1 2827
1 2828
1 2829
1 2830
1 2831
1 2832
1 2833
1 2834
1 2835
1 2836
1 2837
1 2838
1 2839
1 2840
1 2841
1 2842
1 2843
1 2844
1 2845
1 2846
1 2847
1 2848
1 2849
1 2850
1 2851
1 2852
1 2853
1 2854
1 2855
1 2856
1 2857
1 2858
1 2859
1 2860
1 2861
1 2862
1 2863
1 2864
1 2865
1 2866
1 2867
1 2868
1 2869
1 2870
1 2871
1 2872
1 2873
1 2874
1 2875
1 2876
1 2877
1 2878
1 2879
1 2880
1 2881
1 2882
1 2883
1 2884
1 2885
1 2886
1 2887
1 2888
1 2889
1 2890
1 2891
1 2892
1 2893
1 2894
1 2895
1 2896
1 2897
1 2898
1 2899
1 2900
1 2901
1 2902
1 2903
1 2904
1 2905
1 2906
1 2907
1 2908
1 2909
1 2910
1 2911
1 2912
1 2913
1 2914
1 2915
1 2916
1 2917
1 2918
1 2919
1 2920
1 2921
1 2922
1 2923
1 2924
1 2925
1 2926
1 2927
1 2928
1 2929
1 2930
1 2931
1 2932
1 2933
1 2934
1 2935
1 2936
1 2937
1 2938
1 2939
1 2940
1 2941
1 2942
1 2943
1 2944
1 2945
1 2946
1 2947
1 2948
1 2949
1 2950
1 2951
1 2952
1 2953
1 2954
1 2955
1 2956
1 2957
1 2958
1 2959
1 2960
1 2961
1 2962
1 2963
1 2964
1 2965
1 2966
1 2967
1 2968
1 2969
1 2970
1 2971
1 2972
1 2973
1 2974
1 2975
1 2976
1 2977
1 2978
1 2979
1 2980
1 2981
1 2982
1 2983
1 2984
1 2985
1 2986
1 2987
1 2988
1 2989
1 2990
1 2991
1 2992
1 2993
1 2994
1 2995
1 2996
1 2997
1 2998
1 2999
1 3000
1 3001
1 3002
1 3003
1 3004
1 3005
1 3006
1 3007
1 3008
1 3009
1 3010
1 3011
1 3012
1 3013
1 3014
1 3015
1 3016
1 3017
1 3018
1 3019
1 3020
1 3021
1 3022
1 3023
1 3024
1 3025
1 3026
1 3027
1 3028
1 3029
1 3030
1 3031
1 3032
1 3033
1 3034
1 3035
1 3036
1 3037
1 3038
1 3039
1 3040
1 3041
1 3042
1 3043
1 3044
1 3045
1 3046
1 3047
1 3048
1 3049
1 3050
1 3051
1 3052
1 3053
1 3054
1 3055
1 3056
1 3057
1 3058
1 3059
1 3060
1 3061
1 3062
1 3063
1 3064
1 3065
1 3066
1 3067
1 3068
1 3069
1 3070
1 3071
1 3072
1 3073
1 3074
1 3075
1 3076
1 3077
1 3078
1 3079
1 3080
1 3081
1 3082
1 3083
1 3084
1 3085
1 3086
1 3087
1 3088
1 3089
1 3090
1 3091
1 3092
1 3093
1 3094
1 3095
1 3096
1 3097
1 3098
1 3099
1 3100
1 3101
1 3102
1 3103
1 3104
1 3105
1 3106
1 3107
1 3108
1 3109
1 3110
1 3111
1 3112
1 3113
1 3114
1 3115
1 3116
1 3117
1 3118
1 3119
1 3120
1 3121
1 3122
1 3123
1 3124
1 3125
1 3126
1 3127
1 3128
1 3129
1 3130
1 3131
1 3132
1 3133
1 3134
1 3135
1 3136
1 3137
1 3138
1 3139
1 3140
1 3141
1 3142
1 3143
1 3144
1 3145
1 3146
1 3147
1 3148
1 3149
1 3150
1 3151
1 3152
1 3153
1 3154
1 3155
1 3156
1 3157
1 3158
1 3159
1 3160
1 3161
1 3162
1 3163
1 3164
1 3165
1 3166
1 3167
1 3168
1 3169
1 3170
1 3171
1 3172
1 3173
1 3174
1 3175
1 3176
1 3177
1 3178
1 3179
1 3180
1 3181
1 3182
1 3183
1 3184
1 3185
1 3186
1 3187
1 3188
1 3189
1 3190
1 3191
1 3192
1 3193
1 3194
1 3195
1 3196
1 3197
1 3198
1 3199
1 3200
1 3201
1 3202
1 3203
1 3204
1 3205
1 3206
1 3207
1 3208
1 3209
1 3210
1 3211
1 3212
1 3213
1 3214
1 3215
1 3216
1 3217
1 3218
1 3219
1 3220
1 3221
1 3222
1 3223
1 3224
1 3225
1 3226
1 3227
1 3228
1 3229
1 3230
1 3231
1 3232
1 3233
1 3234
1 3235
1 3236
1 3237
1 3238
1 3239
1 3240
1 3241
1 3242
1 3243
1 3244
1 3245
1 3246
1 3247
1 3248
1 3249
1 3250
1 3251
1 3252
1 3253
1 3254
1 3255
1 3256
1 3257
1 3258
1 3259
1 3260
1 3261
1 3262
1 3263
1 3264
1 3265
1 3266
1 3267
1 3268
1 3269
1 3270
1 3271
1 3272
1 3273
1 3274
1 3275
1 3276
1 3277
1 3278
1 3279
1 3280
1 3281
1 3282
1 3283
1 3284
1 3285
1 3286
1 3287
1 3288
1 3289
1 3290
1 3291
1 3292
1 3293
1 3294
1 3295
1 3296
1 3297
1 3298
1 3299
1 3300
1 3301
1 3302
1 3303
1 3304
1 3305
1 3306
1 3307
1 3308
1 3309
1 3310
1 3311
1 3312
1 3313
1 3314
1 3315
1 3316
1 3317
1 3318
1 3319
1 3320
1 3321
1 3322
1 3323
1 3324
1 3325
1 3326
1 3327
1 3328
1 3329
1 3330
1 3331
1 3332
1 3333
1 3334
1 3335
1 3336
1 3337
1 3338
1 3339
1 3340
1 3341
1 3342
1 3343
1 3344
1 3345
1 3346
1 3347
1 3348
1 3349
1 3350
1 3351
1 3352
1 3353
1 3354
1 3355
1 3356
1 3357
1 3358
1 3359
1 3360
1 3361
1 3362
1 3363
1 3364
1 3365
1 3366
1 3367
1 3368
1 3369
1 3370
1 3371
1 3372
1 3373
1 3374
1 3375
1 3376
1 3377
1 3378
1 3379
1 3380
1 3381
1 3382
1 3383
1 3384
1 3385
1 3386
1 3387
1 3388
1 3389
1 3390
1 3391
1 3392
1 3393
1 3394
1 3395
1 3396
1 3397
1 3398
1 3399
1 3400
1 3401
1 3402
1 3403
1 3404
1 3405
1 3406
1 3407
1 3408
1 3409
1 3410
1 3411
1 3412
1 3413
1 3414
1 3415
1 3416
1 3417
1 3418
1 3419
1 3420
1 3421
1 3422
1 3423
1 3424
1 3425
1 3426
1 3427
1 3428
1 3429
1 3430
1 3431
1 3432
1 3433
1 3434
1 3435
1 3436
1 3437
1 3438
1 3439
1 3440
1 3441
1 3442
1 3443
1 3444
1 3445
1 3446
1 3447
1 3448
1 3449
1 3450
1 3451
1 3452
1 3453
1 3454
1 3455
1 3456
1 3457
1 3458
1 3459
1 3460
1 3461
1 3462
1 3463
1 3464
1 3465
1 3466
1 3467
1 3468
1 3469
1 3470
1 3471
1 3472
1 3473
1 3474
1 3475
1 3476
1 3477
1 3478
1 3479
1 3480
1 3481
1 3482
1 3483
1 3484
1 3485
1 3486
1 3487
1 3488
1 3489
1 3490
1 3491
1 3492
1 3493
1 3494
1 3495
1 3496
1 3497
1 3498
1 3499
1 3500
1 3501
1 3502
1 3503
1 3504
1 3505
1 3506
1 3507
1 3508
1 3509
1 3510
1 3511
1 3512
1 3513
1 3514
1 3515
1 3516
1 3517
1 3518
1 3519
1 3520
1 3521
1 3522
1 3523
1 3524
1 3525
1 3526
1 3527
1 3528
1 3529
1 3530
1 3531
1 3532
1 3533
1 3534
1 3535
1 3536
1 3537
1 3538
1 3539
1 3540
1 3541
1 3542
1 3543
1 3544
1 3545
1 3546
1 3547
1 3548
1 3549
1 3550
1 3551
1 3552
1 3553
1 3554
1 3555
1 3556
1 3557
1 3558
1 3559
1 3560
1 3561
1 3562
1 3563
1 3564
1 3565
1 3566
1 3567
1 3568
1 3569
1 3570
1 3571
1 3572
1 3573
1 3574
1 3575
1 3576
1 3577
1 3578
1 3579
1 3580
1 3581
1 3582
1 3583
1 3584
1 3585
1 3586
1 3587
1 3588
1 3589
1 3590
1 3591
1 3592
1 3593
1 3594
1 3595
1 3596
1 3597
1 3598
1 3599
1 3600
1 3601
1 3602
1 3603
1 3604
1 3605
1 3606
1 3607
1 3608
1 3609
1 3610
1 3611
1 3612
1 3613
1 3614
1 3615
1 3616
1 3617
1 3618
1 3619
1 3620
1 3621
1 3622
1 3623
1 3624
1 3625
1 3626
1 3627
1 3628
1 3629
1 3630
1 3631
1 3632
1 3633
1 3634
1 3635
1 3636
1 3637
1 3638
1 3639
1 3640
1 3641
1 3642
1 3643
1 3644
1 3645
1 3646
1 3647
1 3648
1 3649
1 3650
1 3651
1 3652
1 3653
1 3654
1 3655
1 3656
1 3657
1 3658
1 3659
1 3660
1 3661
1 3662
1 3663
1 3664
1 3665
1 3666
1 3667
1 3668
1 3669
1 3670
1 3671
1 3672
1 3673
1 3674
1 3675
1 3676
1 3677
1 3678
1 3679
1 3680
1 3681
1 3682
1 3683
1 3684
1 3685
1 3686
1 3687
1 3688
1 3689
1 3690
1 3691
1 3692
1 3693
1 3694
1 3695
1 3696
1 3697
1 3698
1 3699
1 3700
1 3701
1 3702
1 3703
1 3704
1 3705
1 3706
1 3707
1 3708
1 3709
1 3710
1 3711
1 3712
1 3713
1 3714
1 3715
1 3716
1 3717
1 3718
1 3719
1 3720
1 3721
1 3722
1 3723
1 3724
1 3725
1 3726
1 3727
1 3728
1 3729
1 3730
1 3731
1 3732
1 3733
1 3734
1 3735
1 3736
1 3737
1 3738
1 3739
1 3740
1 3741
1 3742
1 3743
1 3744
1 3745
1 3746
1 3747
1 3748
1 3749
1 3750
1 3751
1 3752
1 3753
1 3754
1 3755
1 3756
1 3757
1 3758
1 3759
1 3760
1 3761
1 3762
1 3763
1 3764
1 3765
1 3766
1 3767
1 3768
1 3769
1 3770
1 3771
1 3772
1 3773
1 3774
1 3775
1 3776
1 3777
1 3778
1 3779
1 3780
1 3781
1 3782
1 3783
1 3784
1 3785
1 3786
1 3787
1 3788
1 3789
1 3790
1 3791
1 3792
1 3793
1 3794
1 3795
1 3796
1 3797
1 3798
1 3799
1 3800
1 3801
1 3802
1 3803
1 3804
1 3805
1 3806
1 3807
1 3808
1 3809
1 3810
1 3811
1 3812
1 3813
1 3814
1 3815
1 3816
1 3817
1 3818
1 3819
1 3820
1 3821
1 3822
1 3823
1 3824
1 3825
1 3826
1 3827
1 3828
1 3829
1 3830
1 3831
1 3832
1 3833
1 3834
1 3835
1 3836
1 3837
1 3838
1 3839
1 3840
1 3841
1 3842
1 3843
1 3844
1 3845
1 3846
1 3847
1 3848
1 3849
1 3850
1 3851
1 3852
1 3853
1 3854
1 3855
1 3856
1 3857
1 3858
1 3859
1 3860
1 3861
1 3862
1 3863
1 3864
1 3865
1 3866
1 3867
1 3868
1 3869
1 3870
1 3871
1 3872
1 3873
1 3874
1 3875
1 3876
1 3877
1 3878
1 3879
1 3880
1 3881
1 3882
1 3883
1 3884
1 3885
1 3886
1 3887
1 3888
1 3889
1 3890
1 3891
1 3892
1 3893
1 3894
1 3895
1 3896
1 3897
1 3898
1 3899
1 3900
1 3901
1 3902
1 3903
1 3904
1 3905
1 3906
1 3907
1 3908
1 3909
1 3910
1 3911
1 3912
1 3913
1 3914
1 3915
1 3916
1 3917
1 3918
1 3919
1 3920
1 3921
1 3922
1 3923
1 3924
1 3925
1 3926
1 3927
1 3928
1 3929
1 3930
1 3931
1 3932
1 3933
1 3934
1 3935
1 3936
1 3937
1 3938
1 3939
1 3940
1 3941
1 3942
1 3943
1 3944
1 3945
1 3946
1 3947
1 3948
1 3949
1 3950
1 3951
1 3952
1 3953
1 3954
1 3955
1 3956
1 3957
1 3958
1 3959
1 3960
1 3961
1 3962
1 3963
1 3964
1 3965
1 3966
1 3967
1 3968
1 3969
1 3970
1 3971
1 3972
1 3973
1 3974
1 3975
1 3976
1 3977
1 3978
1 3979
1 3980
1 3981
1 3982
1 3983
1 3984
1 3985
1 3986
1 3987
1 3988
1 3989
1 3990
1 3991
1 3992
1 3993
1 3994
1 3995
1 3996
1 3997
1 3998
1 3999
1 4000
1 4001
1 4002
1 4003
1 4004
1 4005
1 4006
1 4007
1 4008
1 4009
1 4010
1 4011
1 4012
1 4013
1 4014
1 4015
1 4016
1 4017
1 4018
1 4019
1 4020
1 4021
1 4022
1 4023
1 4024
1 4025
1 4026
1 4027
1 4028
1 4029
1 4030
1 4031
1 4032
1 4033
1 4034
1 4035
1 4036
1 4037
1 4038
1 4039
1 4040
1 4041
1 4042
1 4043
1 4044
1 4045
1 4046
1 4047
1 4048
1 4049
1 4050
1 4051
1 4052
1 4053
1 4054
1 4055
1 4056
1 4057
1 4058
1 4059
1 4060
1 4061
1 4062
1 4063
1 4064
1 4065
1 4066
1 4067
1 4068
1 4069
1 4070
1 4071
1 4072
1 4073
1 4074
1 4075
1 4076
1 4077
1 4078
1 4079
1 4080
1 4081
1 4082
1 4083
1 4084
1 4085
1 4086
1 4087
1 4088
1 4089
1 4090
1 4091
1 4092
1 4093
1 4094
1 4095
1 4096
1 4097
1 4098
1 4099
1 4100
1 4101
1 4102
1 4103
1 4104
1 4105
1 4106
1 4107
1 4108
1 4109
1 4110
1 4111
1 4112
1 4113
1 4114
1 4115
1 4116
1 4117
1 4118
1 4119
1 4120
1 4121
1 4122
1 4123
1 4124
1 4125
1 4126
1 4127
1 4128
1 4129
1 4130
1 4131
1 4132
1 4133
1 4134
1 4135
1 4136
1 4137
1 4138
1 4139
1 4140
1 4141
1 4142
1 4143
1 4144
1 4145
1 4146
1 4147
1 4148
1 4149
1 4150
1 4151
1 4152
1 4153
1 4154
1 4155
1 4156
1 4157
1 4158
1 4159
1 4160
1 4161
1 4162
1 4163
1 4164
1 4165
1 4166
1 4167
1 4168
1 4169
1 4170
1 4171
1 4172
1 4173
1 4174
1 4175
1 4176
1 4177
1 4178
1 4179
1 4180
1 4181
1 4182
1 4183
1 4184
1 4185
1 4186
1 4187
1 4188
1 4189
1 4190
1 4191
1 4192
1 4193
1 4194
1 4195
1 4196
1 4197
1 4198
1 4199
1 4200
1 4201
1 4202
1 4203
1 4204
1 4205
1 4206
1 4207
1 4208
1 4209
1 4210
1 4211
1 4212
1 4213
1 4214
1 4215
1 4216
1 4217
1 4218
1 4219
1 4220
1 4221
1 4222
1 4223
1 4224
1 4225
1 4226
1 4227
1 4228
1 4229
1 4230
1 4231
1 4232
1 4233
1 4234
1 4235
1 4236
1 4237
1 4238
1 4239
1 4240
1 4241
1 4242
1 4243
1 4244
1 4245
1 4246
1 4247
1 4248
1 4249
1 4250
1 4251
1 4252
1 4253
1 4254
1 4255
1 4256
1 4257
1 4258
1 4259
1 4260
1 4261
1 4262
1 4263
1 4264
1 4265
1 4266
1 4267
1 4268
1 4269
1 4270
1 4271
1 4272
1 4273
1 4274
1 4275
1 4276
1 4277
1 4278
1 4279
1 4280
1 4281
1 4282
1 4283
1 4284
1 4285
1 4286
1 4287
1 4288
1 4289
1 4290
1 4291
1 4292
1 4293
1 4294
1 4295
1 4296
1 4297
1 4298
1 4299
1 4300
1 4301
1 4302
1 4303
1 4304
1 4305
1 4306
1 4307
1 4308
1 4309
1 4310
1 4311
1 4312
1 4313
1 4314
1 4315
1 4316
1 4317
1 4318
1 4319
1 4320
1 4321
1 4322
1 4323
1 4324
1 4325
1 4326
1 4327
1 4328
1 4329
1 4330
1 4331
1 4332
1 4333
1 4334
1 4335
1 4336
1 4337
1 4338
1 4339
1 4340
1 4341
1 4342
1 4343
1 4344
1 4345
1 4346
1 4347
1 4348
1 4349
1 4350
1 4351
1 4352
1 4353
1 4354
1 4355
1 4356
1 4357
1 4358
1 4359
1 4360
1 4361
1 4362
1 4363
1 4364
1 4365
1 4366
1 4367
1 4368
1 4369
1 4370
1 4371
1 4372
1 4373
1 4374
1 4375
1 4376
1 4377
1 4378
1 4379
1 4380
1 4381
1 4382
1 4383
1 4384
1 4385
1 4386
1 4387
1 4388
1 4389
1 4390
1 4391
1 4392
1 4393
1 4394
1 4395
1 4396
1 4397
1 4398
1 4399
1 4400
1 4401
1 4402
1 4403
1 4404
1 4405
1 4406
1 4407
1 4408
1 4409
1 4410
1 4411
1 4412
1 4413
1 4414
1 4415
1 4416
1 4417
1 4418
1 4419
1 4420
1 4421
1 4422
1 4423
1 4424
1 4425
1 4426
1 4427
1 4428
1 4429
1 4430
1 4431
1 4432
1 4433
1 4434
1 4435
1 4436
1 4437
1 4438
1 4439
1 4440
1 4441
1 4442
1 4443
1 4444
1 4445
1 4446
1 4447
1 4448
1 4449
1 4450
1 4451
1 4452
1 4453
1 4454
1 4455
1 4456
1 4457
1 4458
1 4459
1 4460
1 4461
1 4462
1 4463
1 4464
1 4465
1 4466
1 4467
1 4468
1 4469
1 4470
1 4471
1 4472
1 4473
1 4474
1 4475
1 4476
1 4477
1 4478
1 4479
1 4480
1 4481
1 4482
1 4483
1 4484
1 4485
1 4486
1 4487
1 4488
1 4489
1 4490
1 4491
1 4492
1 4493
1 4494
1 4495
1 4496
1 4497
1 4498
1 4499
1 4500
1 4501
1 4502
1 4503
1 4504
1 4505
1 4506
1 4507
1 4508
1 4509
1 4510
1 4511
1 4512
1 4513
1 4514
1 4515
1 4516
1 4517
1 4518
1 4519
1 4520
1 4521
1 4522
1 4523
1 4524
1 4525
1 4526
1 4527
1 4528
1 4529
1 4530
1 4531
1 4532
1 4533
1 4534
1 4535
1 4536
1 4537
1 4538
1 4539
1 4540
1 4541
1 4542
1 4543
1 4544
1 4545
1 4546
1 4547
1 4548
1 4549
1 4550
1 4551
1 4552
1 4553
1 4554
1 4555
1 4556
1 4557
1 4558
1 4559
1 4560
1 4561
1 4562
1 4563
1 4564
1 4565
1 4566
1 4567
1 4568
1 4569
1 4570
1 4571
1 4572
1 4573
1 4574
1 4575
1 4576
1 4577
1 4578
1 4579
1 4580
1 4581
1 4582
1 4583
1 4584
1 4585
1 4586
1 4587
1 4588
1 4589
1 4590
1 4591
1 4592
1 4593
1 4594
1 4595
1 4596
1 4597
1 4598
1 4599
1 4600
1 4601
1 4602
1 4603
1 4604
1 4605
1 4606
1 4607
1 4608
1 4609
1 4610
1 4611
1 4612
1 4613
1 4614
1 4615
1 4616
1 4617
1 4618
1 4619
1 4620
1 4621
1 4622
1 4623
1 4624
1 4625
1 4626
1 4627
1 4628
1 4629
1 4630
1 4631
1 4632
1 4633
1 4634
1 4635
1 4636
1 4637
1 4638
1 4639
1 4640
1 4641
1 4642
1 4643
1 4644
1 4645
1 4646
1 4647
1 4648
1 4649
1 4650
1 4651
1 4652
1 4653
1 4654
1 4655
1 4656
1 4657
1 4658
1 4659
1 4660
1 4661
1 4662
1 4663
1 4664
1 4665
1 4666
1 4667
1 4668
1 4669
1 4670
1 4671
1 4672
1 4673
1 4674
1 4675
1 4676
1 4677
1 4678
1 4679
1 4680
1 4681
1 4682
1 4683
1 4684
1 4685
1 4686
1 4687
1 4688
1 4689
1 4690
1 4691
1 4692
1 4693
1 4694
1 4695
1 4696
1 4697
1 4698
1 4699
1 4700
1 4701
1 4702
1 4703
1 4704
1 4705
1 4706
1 4707
1 4708
1 4709
1 4710
1 4711
1 4712
1 4713
1 4714
1 4715
1 4716
1 4717
1 4718
1 4719
1 4720
1 4721
1 4722
1 4723
1 4724
1 4725
1 4726
1 4727
1 4728
1 4729
1 4730
1 4731
1 4732
1 4733
1 4734
1 4735
1 4736
1 4737
1 4738
1 4739
1 4740
1 4741
1 4742
1 4743
1 4744
1 4745
1 4746
1 4747
1 4748
1 4749
1 4750
1 4751
1 4752
1 4753
1 4754
1 4755
1 4756
1 4757
1 4758
1 4759
1 4760
1 4761
1 4762
1 4763
1 4764
1 4765
1 4766
1 4767
1 4768
1 4769
1 4770
1 4771
1 4772
1 4773
1 4774
1 4775
1 4776
1 4777
1 4778
1 4779
1 4780
1 4781
1 4782
1 4783
1 4784
1 4785
1 4786
1 4787
1 4788
1 4789
1 4790
1 4791
1 4792
1 4793
1 4794
1 4795
1 4796
1 4797
1 4798
1 4799
1 4800
1 4801
1 4802
1 4803
1 4804
1 4805
1 4806
1 4807
1 4808
1 4809
1 4810
1 4811
1 4812
1 4813
1 4814
1 4815
1 4816
1 4817
1 4818
1 4819
1 4820
1 4821
1 4822
1 4823
1 4824
1 4825
1 4826
1 4827
1 4828
1 4829
1 4830
1 4831
1 4832
1 4833
1 4834
1 4835
1 4836
1 4837
1 4838
1 4839
1 4840
1 4841
1 4842
1 4843
1 4844
1 4845
1 4846
1 4847
1 4848
1 4849
1 4850
1 4851
1 4852
1 4853
1 4854
1 4855
1 4856
1 4857
1 4858
1 4859
1 4860
1 4861
1 4862
1 4863
1 4864
1 4865
1 4866
1 4867
1 4868
1 4869
1 4870
1 4871
1 4872
1 4873
1 4874
1 4875
1 4876
1 4877
1 4878
1 4879
1 4880
1 4881
1 4882
1 4883
1 4884
1 4885
1 4886
1 4887
1 4888
1 4889
1 4890
1 4891
1 4892
1 4893
1 4894
1 4895
1 4896
1 4897
1 4898
1 4899
1 4900
1 4901
1 4902
1 4903
1 4904
1 4905
1 4906
1 4907
1 4908
1 4909
1 4910
1 4911
1 4912
1 4913
1 4914
1 4915
1 4916
1 4917
1 4918
1 4919
1 4920
1 4921
1 4922
1 4923
1 4924
1 4925
1 4926
1 4927
1 4928
1 4929
1 4930
1 4931
1 4932
1 4933
1 4934
1 4935
1 4936
1 4937
1 4938
1 4939
1 4940
1 4941
1 4942
1 4943
1 4944
1 4945
1 4946
1 4947
1 4948
1 4949
1 4950
1 4951
1 4952
1 4953
1 4954
1 4955
1 4956
1 4957
1 4958
1 4959
1 4960
1 4961
1 4962
1 4963
1 4964
1 4965
1 4966
1 4967
1 4968
1 4969
1 4970
1 4971
1 4972
1 4973
1 4974
1 4975
1 4976
1 4977
1 4978
1 4979
1 4980
1 4981
1 4982
1 4983
1 4984
1 4985
1 4986
1 4987
1 4988
1 4989
1 4990
1 4991
1 4992
1 4993
1 4994
1 4995
1 4996
1 4997
1 4998
1 4999
CELL_TYPES 5000
1 
1 
1 
1 
1 
1 
1 
1 
1 
1 
1 
1 
1 
1 
1 
1 
1 
1 
1 
1 
1 
1 
1 
1 
1 
1 
1 
1 
1 
1 
1 
1 
1 
1 
1 
1 
1 
1 
1 
1 
1 
1 
1 
1 
1 
1 
1 
1 
1 
1 
1 
1 
1 
1 
1 
1 
1 
1 
1 
1 
1 
1 
1 
1 
1 
1 
1 
1 
1 
1 
1 
1 
1 
1 
1 
1 
1 
1 
1 
1 
1 
1 
1 
1 
1 
1 
1 
1 
1 
1 
1 
1 
1 
1 
1 
1 
1 
1 
1 
1 
1 
1 
1 
1 
1 
1 
1 
1 
1 
1 
1 
1 
1 
1 
1 
1 
1 
1 
1 
1 
1 
1 
1 
1 
1 
1 
1 
1 
1 
1 
1 
1 
1 
1 
1 
1 
1 
1 
1 
1 
1 
1 
1 
1 
1 
1 
1 
1 
1 
1 
1 
1 
1 
1 
1 
1 
1 
1 
1 
1 
1 
1 
1 
1 
1 
1 
1 
1 
1 
1 
1 
1 
1 
1 
1 
1 
1 
1 
1 
1 
1 
1 
1 
1 
1 
1 
1 
1 
1 
1 
1 
1 
1 
1 
1 
1 
1 
1 
1 
1 
1 
1 
1 
1 
1 
1 
1 
1 
1 
1 
1 
1 
1 
1 
1 
1 
1 
1 
1 
1 
1 
1 
1 
1 
1 
1 
1 
1 
1 
1 
1 
1 
1 
1 
1 
1 
1 
1 
1 
1 
1 
1 
1 
1 
1 
1 
1 
1 
1 
1 
1 
1 
1 
1 
1 
1 
1 
1 
1 
1 
1 
1 
1 
1 
1 
1 
1 
1 
1 
1 
1 
1 
1 
1 
1 
1 
1 
1 
1 
1 
1 
1 
1 
1 
1 
1 
1 
1 
1 
1 
1 
1 
1 
1 
1 
1 
1 
1 
1 
1 
1 
1 
1 
1 
1 
1 
1 
1 
1 
1 
1 
1 
1 
1 
1 
1 
1 
1 
1 
1 
1 
1 
1 
1 
1 
1 
1 
1 
1 
1 
1 
1 
1 
1 
1 
1 
1 
1 
1 
1 
1 
1 
1 
1 
1 
1 
1 
1 
1 
1 
1 
1 
1 
1 
1 
1 
1 
1 
1 
1 
1 
1 
1 
1 
1 
1 
1 
1 
1 
1 
1 
1 
1 
1 
1 
1 
1 
1 
1 
1 
1 
1 
1 
1 
1 
1 
1 
1 
1 
1 
1 
1 
1 
1 
1 
1 
1 
1 
1 
1 
1 
1 
1 
1 
1 
1 
1 
1 
1 
1 
1 
1 
1 
1 
1 
1 
1 
1 
1 
1 
1 
1 
1 
1 
1 
1 
1 
1 
1 
1 
1 
1 
1 
1 
1 
1 
1 
1 
1 
1 
1 
1 
1 
1 
1 
1 
1 
1 
1 
1 
1 
1 
1 
1 
1 
1 
1 
1 
1 
1 
1 
1 
1 
1 
1 
1 
1 
1 
1 
1 
1 
1 
1 
1 
1 
1 
1 
1 
1 
1 
1 
1 
1 
1 
1 
1 
1 
1 
1 
1 
1 
1 
1 
1 
1 
1 
1 
1 
1 
1 
1 
1 
1 
1 
1 
1 
1 
1 
1 
1 
1 
1 
1 
1 
1 
1 
1 
1 
1 
1 
1 
1 
1 
1 
1 
1 
1 
1 
1 
1 
1 
1 
1 
1 
1 
1 
1 
1 
1 
1 
1 
1 
1 
1 
1 
1 
1 
1 
1 
1 
1 
1 
1 
1 
1 
1 
1 
1 
1 
1 
1 
1 
1 
1 
1 
1 
1 
1 
1 
1 
1 
1 
1 
1 
1 
1 
1 
1 
1 
1 
1 
1 
1 
1 
1 
1 
1 
1 
1 
1 
1 
1 
1 
1 
1 
1 
1 
1 
1 
1 
1 
1 
1 
1 
1 
1 
1 
1 
1 
1 
1 
1 
1 
1 
1 
1 
1 
1 
1 
1 
1 
1 
1 
1 
1 
1 
1 
1 
1 
1 
1 
1 
1 
1 
1 
1 
1 
1 
1 
1 
1 
1 
1 
1 
1 
1 
1 
1 
1 
1 
1 
1 
1 
1 
1 
1 
1 
1 
1 
1 
1 
1 
1 
1 
1 
1 
1 
1 
1 
1 
1 
1 
1 
1 
1 
1 
1 
1 
1 
1 
1 
1 
1 
1 
1 
1 
1 
1 
1 
1 
1 
1 
1 
1 
1 
1 
1 
1 
1 
1 
1 
1 
1 
1 
1 
1 
1 
1 
1 
1 
1 
1 
1 
1 
1 
1 
1 
1 
1 
1 
1 
1 
1 
1 
1 
1 
1 
1 
1 
1 
1 
1 
1 
1 
1 
1 
1 
1 
1 
1 
1 
1 
1 
1 
1 
1 
1 
1 
1 
1 
1 
1 
1 
1 
1 
1 
1 
1 
1 
1 
1 
1 
1 
1 
1 
1 
1 
1 
1 
1 
1 
1 
1 
1 
1 
1 
1 
1 
1 
1 
1 
1 
1 
1 
1 
1 
1 
1 
1 
1 
1 
1 
1 
1 
1 
1 
1 
1 
1 
1 
1 
1 
1 
1 
1 
1 
1 
1 
1 
1 
1 
1 
1 
1 
1 
1 
1 
1 
1 
1 
1 
1 
1 
1 
1 
1 
1 
1 
1 
1 
1 
1 
1 
1 
1 
1 
1 
1 
1 
1 
1 
1 
1 
1 
1 
1 
1 
1 
1 
1 
1 
1 
1 
1 
1 
1 
1 
1 
1 
1 
1 
1 
1 
1 
1 
1 
1 
1 
1 
1 
1 
1 
1 
1 
1 
1 
1 
1 
1 
1 
1 
1 
1 
1 
1 
1 
1 
1 
1 
1 
1 
1 
1 
1 
1 
1 
1 
1 
1 
1 
1 
1 
1 
1 
1 
1 
1 
1 
1 
1 
1 
1 
1 
1 
1 
1 
1 
1 
1 
1 
1 
1 
1 
1 
1 
1 
1 
1 
1 
1 
1 
1 
1 
1 
1 
1 
1 
1 
1 
1 
1 
1 
1 
1 
1 
1 
1 
1 
1 
1 
1 
1 
1 
1 
1 
1 
1 
1 
1 
1 
1 
1 
1 
1 
1 
1 
1 
1 
1 
1 
1 
1 
1 
1 
1 
1 
1 
1 
1 
1 
1 
1 
1 
1 
1 
1 
1 
1 
1 
1 
1 
1 
1 
1 
1 
1 
1 
1 
1 
1 
1 
1 
1 
1 
1 
1 
1 
1 
1 
1 
1 
1 
1 
1 
1 
1 
1 
1 
1 
1 
1 
1 
1 
1 
1 
1 
1 
1 
1 
1 
1 
1 
1 
1 
1 
1 
1 
1 
1 
1 
1 
1 
1 
1 
1 
1 
1 
1 
1 
1 
1 
1 
1 
1 
1 
1 
1 
1 
1 
1 
1 
1 
1 
1 
1 
1 
1 
1 
1 
1 
1 
1 
1 
1 
1 
1 
1 
1 
1 
1 
1 
1 
1 
1 
1 
1 
1 
1 
1 
1 
1 
1 
1 
1 
1 
1 
1 
1 
1 
1 
1 
1 
1 
1 
1 
1 
1 
1 
1 
1 
1 
1 
1 
1 
1 
1 
1 
1 
1 
1 
1 
1 
1 
1 
1 
1 
1 
1 
1 
1 
1 
1 
1 
1 
1 
1 
1 
1 
1 
1 
1 
1 
1 
1 
1 
1 
1 
1 
1 
1 
1 
1 
1 
1 
1 
1 
1 
1 
1 
1 
1 
1 
1 
1 
1 
1 
1 
1 
1 
1 
1 
1 
1 
1 
1 
1 
1 
1 
1 
1 
1 
1 
1 
1 
1 
1 
1 
1 
1 
1 
1 
1 
1 
1 
1 
1 
1 
1 
1 
1 
1 
1 
1 
1 
1 
1 
1 
1 
1 
1 
1 
1 
1 
1 
1 
1 
1 
1 
1 
1 
1 
1 
1 
1 
1 
1 
1 
1 
1 
1 
1 
1 
1 
1 
1 
1 
1 
1 
1 
1 
1 
1 
1 
1 
1 
1 
1 
1 
1 
1 
1 
1 
1 
1 
1 
1 
1 
1 
1 
1 
1 
1 
1 
1 
1 
1 
1 
1 
1 
1 
1 
1 
1 
1 
1 
1 
1 
1 
1 
1 
1 
1 
1 
1 
1 
1 
1 
1 
1 
1 
1 
1 
1 
1 
1 
1 
1 
1 
1 
1 
1 
1 
1 
1 
1 
1 
1 
1 
1 
1 
1 
1 
1 
1 
1 
1 
1 
1 
1 
1 
1 
1 
1 
1 
1 
1 
1 
1 
1 
1 
1 
1 
1 
1 
1 
1 
1 
1 
1 
1 
1 
1 
1 
1 
1 
1 
1 
1 
1 
1 
1 
1 
1 
1 
1 
1 
1 
1 
1 
1 
1 
1 
1 
1 
1 
1 
1 
1 
1 
1 
1 
1 
1 
1 
1 
1 
1 
1 
1 
1 
1 
1 
1 
1 
1 
1 
1 
1 
1 
1 
1 
1 
1 
1 
1 
1 
1 
1 
1 
1 
1 
1 
1 
1 
1 
1 
1 
1 
1 
1 
1 
1 
1 
1 
1 
1 
1 
1 
1 
1 
1 
1 
1 
1 
1 
1 
1 
1 
1 
1 
1 
1 
1 
1 
1 
1 
1 
1 
1 
1 
1 
1 
1 
1 
1 
1 
1 
1 
1 
1 
1 
1 
1 
1 
1 
1 
1 
1 
1 
1 
1 
1 
1 
1 
1 
1 
1 
1 
1 
1 
1 
1 
1 
1 
1 
1 
1 
1 
1 
1 
1 
1 
1 
1 
1 
1 
1 
1 
1 
1 
1 
1 
1 
1 
1 
1 
1 
1 
1 
1 
1 
1 
1 
1 
1 
1 
1 
1 
1 
1 
1 
1 
1 
1 
1 
1 
1 
1 
1 
1 
1 
1 
1 
1 
1 
1 
1 
1 
1 
1 
1 
1 
1 
1 
1 
1 
1 
1 
1 
1 
1 
1 
1 
1 
1 
1 
1 
1 
1 
1 
1 
1 
1 
1 
1 
1 
1 
1 
1 
1 
1 
1 
1 
1 
1 
1 
1 
1 
1 
1 
1 
1 
1 
1 
1 
1 
1 
1 
1 
1 
1 
1 
1 
1 
1 
1 
1 
1 
1 
1 
1 
1 
1 
1 
1 
1 
1 
1 
1 
1 
1 
1 
1 
1 
1 
1 
1 
1 
1 
1 
1 
1 
1 
1 
1 
1 
1 
1 
1 
1 
1 
1 
1 
1 
1 
1 
1 
1 
1 
1 
1 
1 
1 
1 
1 
1 
1 
1 
1 
1 
1 
1 
1 
1 
1 
1 
1 
1 
1 
1 
1 
1 
1 
1 
1 
1 
1 
1 
1 
1 
1 
1 
1 
1 
1 
1 
1 
1 
1 
1 
1 
1 
1 
1 
1 
1 
1 
1 
1 
1 
1 
1 
1 
1 
1 
1 
1 
1 
1 
1 
1 
1 
1 
1 
1 
1 
1 
1 
1 
1 
1 
1 
1 
1 
1 
1 
1 
1 
1 
1 
1 
1 
1 
1 
1 
1 
1 
1 
1 
1 
1 
1 
1 
1 
1 
1 
1 
1 
1 
1 
1 
1 
1 
1 
1 
1 
1 
1 
1 
1 
1 
1 
1 
1 
1 
1 
1 
1 
1 
1 
1 
1 
1 
1 
1 
1 
1 
1 
1 
1 
1 
1 
1 
1 
1 
1 
1 
1 
1 
1 
1 
1 
1 
1 
1 
1 
1 
1 
1 
1 
1 
1 
1 
1 
1 
1 
1 
1 
1 
1 
1 
1 
1 
1 
1 
1 
1 
1 
1 
1 
1 
1 
1 
1 
1 
1 
1 
1 
1 
1 
1 
1 
1 
1 
1 
1 
1 
1 
1 
1 
1 
1 
1 
1 
1 
1 
1 
1 
1 
1 
1 
1 
1 
1 
1 
1 
1 
1 
1 
1 
1 
1 
1 
1 
1 
1 
1 
1 
1 
1 
1 
1 
1 
1 
1 
1 
1 
1 
1 
1 
1 
1 
1 
1 
1 
1 
1 
1 
1 
1 
1 
1 
1 
1 
1 
1 
1 
1 
1 
1 
1 
1 
1 
1 
1 
1 
1 
1 
1 
1 
1 
1 
1 
1 
1 
1 
1 
1 
1 
1 
1 
1 
1 
1 
1 
1 
1 
1 
1 
1 
1 
1 
1 
1 
1 
1 
1 
1 
1 
1 
1 
1 
1 
1 
1 
1 
1 
1 
1 
1 
1 
1 
1 
1 
1 
1 
1 
1 
1 
1 
1 
1 
1 
1 
1 
1 
1 
1 
1 
1 
1 
1 
1 
1 
1 
1 
1 
1 
1 
1 
1 
1 
1 
1 
1 
1 
1 
1 
1 
1 
1 
1 
1 
1 
1 
1 
1 
1 
1 
1 
1 
1 
1 
1 
1 
1 
1 
1 
1 
1 
1 
1 
1 
1 
1 
1 
1 
1 
1 
1 
1 
1 
1 
1 
1 
1 
1 
1 
1 
1 
1 
1 
1 
1 
1 
1 
1 
1 
1 
1 
1 
1 
1 
1 
1 
1 
1 
1 
1 
1 
1 
1 
1 
1 
1 
1 
1 
1 
1 
1 
1 
1 
1 
1 
1 
1 
1 
1 
1 
1 
1 
1 
1 
1 
1 
1 
1 
1 
1 
1 
1 
1 
1 
1 
1 
1 
1 
1 
1 
1 
1 
1 
1 
1 
1 
1 
1 
1 
1 
1 
1 
1 
1 
1 
1 
1 
1 
1 
1 
1 
1 
1 
1 
1 
1 
1 
1 
1 
1 
1 
1 
1 
1 
1 
1 
1 
1 
1 
1 
1 
1 
1 
1 
1 
1 
1 
1 
1 
1 
1 
1 
1 
1 
1 
1 
1 
1 
1 
1 
1 
1 
1 
1 
1 
1 
1 
1 
1 
1 
1 
1 
1 
1 
1 
1 
1 
1 
1 
1 
1 
1 
1 
1 
1 
1 
1 
1 
1 
1 
1 
1 
1 
1 
1 
1 
1 
1 
1 
1 
1 
1 
1 
1 
1 
1 
1 
1 
1 
1 
1 
1 
1 
1 
1 
1 
1 
1 
1 
1 
1 
1 
1 
1 
1 
1 
1 
1 
1 
1 
1 
1 
1 
1 
1 
1 
1 
1 
1 
1 
1 
1 
1 
1 
1 
1 
1 
1 
1 
1 
1 
1 
1 
1 
1 
1 
1 
1 
1 
1 
1 
1 
1 
1 
1 
1 
1 
1 
1 
1 
1 
1 
1 
1 
1 
1 
1 
1 
1 
1 
1 
1 
1 
1 
1 
1 
1 
1 
1 
1 
1 
1 
1 
1 
1 
1 
1 
1 
1 
1 
1 
1 
1 
1 
1 
1 
1 
1 
1 
1 
1 
1 
1 
1 
1 
1 
1 
1 
1 
1 
1 
1 
1 
1 
1 
1 
1 
1 
1 
1 
1 
1 
1 
1 
1 
1 
1 
1 
1 
1 
1 
1 
1 
1 
1 
1 
1 
1 
1 
1 
1 
1 
1 
1 
1 
1 
1 
1 
1 
1 
1 
1 
1 
1 
1 
1 
1 
1 
1 
1 
1 
1 
1 
1 
1 
1 
1 
1 
1 
1 
1 
1 
1 
1 
1 
1 
1 
1 
1 
1 
1 
1 
1 
1 
1 
1 
1 
1 
1 
1 
1 
1 
1 
1 
1 
1 
1 
1 
1 
1 
1 
1 
1 
1 
1 
1 
1 
1 
1 
1 
1 
1 
1 
1 
1 
1 
1 
1 
1 
1 
1 
1 
1 
1 
1 
1 
1 
1 
1 
1 
1 
1 
1 
1 
1 
1 
1 
1 
1 
1 
1 
1 
1 
1 
1 
1 
1 
1 
1 
1 
1 
1 
1 
1 
1 
1 
1 
1 
1 
1 
1 
1 
1 
1 
1 
1 
1 
1 
1 
1 
1 
1 
1 
1 
1 
1 
1 
1 
1 
1 
1 
1 
1 
1 
1 
1 
1 
1 
1 
1 
1 
1 
1 
1 
1 
1 
1 
1 
1 
1 
1 
1 
1 
1 
1 
1 
1 
1 
1 
1 
1 
1 
1 
1 
1 
1 
1 
1 
1 
1 
1 
1 
1 
1 
1 
1 
1 
1 
1 
1 
1 
1 
1 
1 
1 
1 
1 
1 
1 
1 
1 
1 
1 
1 
1 
1 
1 
1 
1 
1 
1 
1 
1 
1 
1 
1 
1 
1 
1 
1 
1 
1 
1 
1 
1 
1 
1 
1 
1 
1 
1 
1 
1 
1 
1 
1 
1 
1 
1 
1 
1 
1 
1 
1 
1 
1 
1 
1 
1 
1 
1 
1 
1 
1 
1 
1 
1 
1 
1 
1 
1 
1 
1 
1 
1 
1 
1 
1 
1 
1 
1 
1 
1 
1 
1 
1 
1 
1 
1 
1 
1 
1 
1 
1 
1 
1 
1 
1 
1 
1 
1 
1 
1 
1 
1 
1 
1 
1 
1 
1 
1 
1 
1 
1 
1 
1 
1 
1 
1 
1 
1 
1 
1 
1 
1 
1 
1 
1 
1 
1 
1 
1 
1 
1 
1 
1 
1 
1 
1 
1 
1 
1 
1 
1 
1 
1 
1 
1 
1 
1 
1 
1 
1 
1 
1 
1 
1 
1 
1 
1 
1 
1 
1 
1 
1 
1 
1 
1 
1 
1 
1 
1 
1 
1 
1 
1 
1 
1 
1 
1 
1 
1 
1 
1 
1 
1 
1 
1 
1 
1 
1 
1 
1 
1 
1 
1 
1 
1 
1 
1 
1 
1 
1 
1 
1 
1 
1 
1 
1 
1 
1 
1 
1 
1 
1 
1 
1 
1 
1 
1 
1 
1 
1 
1 
1 
1 
1 
1 
1 
1 
1 
1 
1 
1 
1 
1 
1 
1 
1 
1 
1 
1 
1 
1 
1 
1 
1 
1 
1 
1 
1 
1 
1 
1 
1 
1 
1 
1 
1 
1 
1 
1 
1 
1 
1 
1 
1 
1 
1 
1 
1 
1 
1 
1 
1 
1 
1 
1 
1 
1 
1 
1 
1 
1 
1 
1 
1 
1 
1 
1 
1 
1 
1 
1 
1 
1 
1 
1 
1 
1 
1 
1 
1 
1 
1 
1 
1 
1 
1 
1 
1 
1 
1 
1 
1 
1 
1 
1 
1 
1 
1 
1 
1 
1 
1 
1 
1 
1 
1 
1 
1 
1 
1 
1 
1 
1 
1 
1 
1 
1 
1 
1 
1 
1 
1 
1 
1 
1 
1 
1 
1 
1 
1 
1 
1 
1 
1 
1 
1 
1 
1 
1 
1 
1 
1 
1 
1 
1 
1 
1 
1 
1 
1 
1 
1 
1 
1 
1 
1 
1 
1 
1 
1 
1 
1 
1 
1 
1 
1 
1 
1 
1 
1 
1 
1 
1 
1 
1 
1 
1 
1 
1 
1 
1 
1 
1 
1 
1 
1 
1 
1 
1 
1 
1 
1 
1 
1 
1 
1 
1 
1 
1 
1 
1 
1 
1 
1 
1 
1 
1 
1 
1 
1 
1 
1 
1 
1 
1 
1 
1 
1 
1 
1 
1 
1 
1 
1 
1 
1 
1 
1 
1 
1 
1 
1 
1 
1 
1 
1 
1 
1 
1 
1 
1 
1 
1 
1 
1 
1 
1 
1 
1 
1 
1 
1 
1 
1 
1 
1 
1 
1 
1 
1 
1 
1 
1 
1 
1 
1 
1 
1 
1 
1 
1 
1 
1 
1 
1 
1 
1 
1 
1 
1 
1 
1 
1 
1 
1 
1 
1 
1 
1 
1 
1 
1 
1 
1 
1 
1 
1 
1 
1 
1 
1 
1 
1 
1 
1 
1 
1 
1 
1 
1 
1 
1 
1 
1 
1 
1 
1 
1 
1 
1 
1 
1 
1 
1 
1 
1 
1 
1 
1 
1 
1 
1 
1 
1 
1 
1 
1 
1 
1 
1 
1 
1 
1 
1 
1 
1 
1 
1 
1 
1 
1 
1 
1 
1 
1 
1 
1 
1 
1 
1 
1 
1 
1 
1 
1 
1 
1 
1 
1 
1 
1 
1 
1 
1 
1 
1 
1 
1 
1 
1 
1 
1 
1 
1 
1 
1 
1 
1 
1 
1 
1 
1 
1 
1 
1 
1 
1 
1 
1 
1 
1 
1 
1 
1 
1 
1 
1 
1 
1 
1 
1 
1 
1 
1 
1 
1 
1 
1 
1 
1 
1 
1 
1 
1 
1 
1 
1 
1 
1 
1 
1 
1 
1 
1 
1 
1 
1 
1 
1 
1 
1 
1 
1 
1 
1 
1 
1 
1 
1 
1 
1 
1 
1 
1 
1 
1 
1 
1 
1 
1 
1 
1 
1 
1 
1 
1 
1 
1 
1 
1 
1 
1 
1 
1 
1 
1 
1 
1 
1 
1 
1 
1 
1 
1 
1 
1 
1 
1 
1 
1 
1 
1 
1 
1 
1 
1 
1 
1 
1 
1 
1 
1 
1 
1 
1 
1 
1 
1 
1 
1 
1 
1 
1 
1 
1 
1 
1 
1 
1 
1 
1 
1 
1 
1 
1 
1 
1 
1 
1 
1 
1 
1 
1 
1 
1 
1 
1 
1 
1 
1 
1 
1 
1 
1 
1 
1 
1 
1 
1 
1 
1 
1 
1 
1 
1 
1 
1 
1 
1 
1 
1 
1 
1 
1 
1 
1 
1 
1 
1 
1 
1 
1 
1 
1 
1 
1 
1 
1 
1 
1 
1 
1 
1 
1 
1 
1 
1 
1 
1 
1 
1 
1 
1 
1 
1 
1 
1 
1 
1 
1 
1 
1 
1 
1 
1 
1 
1 
1 
1 
1 
1 
1 
1 
1 
1 
1 
1 
1 
1 
1 
1 
1 
1 
1 
1 
1 
1 
1 
1 
1 
1 
1 
1 
1 
1 
1 
1 
1 
1 
1 
1 
1 
1 
1 
1 
1 
1 
1 
1 
1 
1 
1 
1 
1 
1 
1 
1 
1 
1 
1 
1 
1 
1 
1 
1 
1 
1 
1 
1 
1 
1 
1 
1 
1 
1 
1 
1 
1 
1 
1 
1 
1 
1 
1 
1 
1 
1 
1 
1 
1 
1 
1 
1 
1 
1 
1 
1 
1 
1 
1 
1 
1 
1 
1 
1 
1 
1 
1 
1 
1 
1 
1 
1 
1 
1 
1 
1 
1 
1 
1 
1 
1 
1 
1 
1 
1 
1 
1 
1 
1 
1 
1 
1 
1 
1 
1 
1 
1 
1 
1 
1 
1 
1 
1 
1 
1 
1 
1 
1 
1 
1 
1 
1 
1 
1 
1 
1 
1 
1 
1 
1 
1 
1 
1 
1 
1 
1 
1 
1 
1 
1 
1 
1 
1 
1 
1 
1 
1 
1 
1 
1 
1 
1 
1 
1 
1 
1 
1 
1 
1 
1 
1 
1 
1 
1 
1 
1 
1 
1 
1 
1 
1 
1 
1 
1 
1 
1 
1 
1 
1 
1 
1 
1 
1 
1 
1 
1 
1 
1 
1 
1 
1 
1 
1 
1 
1 
1 
1 
1 
1 
1 
1 
1 
1 
1 
1 
1 
1 
1 
1 
1 
1 
1 
1 
1 
1 
1 
1 
1 
1 
1 
1 
1 
1 
1 
1 
1 
1 
1 
1 
1 
1 
1 
1 
1 
1 
1 
1 
1 
1 
1 
1 
1 
1 
1 
1 
1 
1 
1 
1 
1 
1 
1 
1 
1 
1 
1 
1 
1 
1 
1 
1 
1 
1 
1 
1 
1 
1 
1 
1 
1 
1 
1 
1 
1 
1 
1 
1 
1 
1 
1 
1 
1 
1 
1 
1 
1 
1 
1 
1 
1 
1 
1 
1 
1 
1 
1 
1 
1 
1 
1 
1 
1 
1 
1 
1 
1 
1 
1 
1 
1 
1 
1 
1 
1 
1 
1 
1 
1 
1 
1 
1 
1 
1 
1 
1 
1 
1 
1 
1 
1 
1 
1 
1 
1 
1 
1 
1 
1 
1 
1 
1 
1 
1 
1 
1 
1 
1 
1 
1 
1 
1 
1 
1 
1 
1 
1 
1 
1 
1 
1 
1 
1 
1 
1 
1 
1 
1 
1 
1 
1 
1 
1 
1 
1 
1 
1 
1 
1 
1 
1 
1 
1 
1 
1 
1 
1 
1 
1 
1 
1 
1 
1 
1 
1 
1 
1 
1 
1 
1 
1 
1 
1 
1 
1 
1 
1 
1 
1 
1 
1 
1 
1 
1 
1 
1 
1 
1 
1 
1 
1 
1 
1 
1 
1 
1 
1 
1 
1 
1 
1 
1 
1 
1 
1 
1 
1 
1 
1 
1 
1 
1 
1 
1 
1 
1 
1 
1 
1 
1 
1 
1 
1 
1 
1 
1 
1 
1 
1 
1 
1 
1 
1 
1 
1 
1 
1 
1 
1 
1 
1 
1 
1 
1 
1 
1 
1 
1 
1 
1 
1 
1 
1 
1 
1 
1 
1 
1 
1 
1 
1 
1 
1 
1 
1 
1 
1 
1 
1 
1 
1 
1 
1 
1 
1 
1 
1 
1 
1 
1 
1 
1 
1 
1 
1 
1 
1 
1 
1 
1 
1 
1 
1 
1 
1 
1 
1 
1 
1 
1 
1 
1 
1 
1 
1 
1 
1 
1 
1 
1 
1 
1 
1 
1 
1 
1 
1 
1 
1 
1 
1 
1 
1 
1 
1 
1 
1 
1 
1 
1 
1 
1 
1 
1 
1 
1 
1 
1 
1 
1 
1 
1 
1 
1 
1 
1 
1 
1 
1 
1 
1 
1 
1 
1 
1 
1 
1 
1 
1 
1 
1 
1 
1 
1 
1 
1 
1 
1 
1 
1 
1 
1 
1 
1 
1 
1 
1 
1 
1 
1 
1 
1 
1 
1 
1 
1 
1 
1 
1 
1 
1 
1 
1 
1 
1 
1 
1 
1 
1 
1 
1 
1 
1 
1 
1 
1 
1 
1 
1 
1 
1 
1 
1 
1 
1 
1 
1 
1 
1 
1 
1 
1 
1 
1 
1 
1 
1 
1 
1 
1 
1 
1 
1 
1 
1 
1 
1 
1 
1 
1 
1 
1 
1 
1 
1 
1 
1 
1 
1 
1 
1 
1 
1 
1 
1 
1 
1 
1 
1 
1 
1 
1 
1 
1 
1 
1 
1 
1 
1 
1 
1 
1 
1 
1 
1 
1 
1 
1 
1 
1 
1 
1 
1 
1 
1 
1 
1 
1 
1 
1 
1 
1 
1 
1 
1 
1 
1 
1 
1 
1 
1 
1 
1 
1 
1 
1 
1 
1 
1 
1 
1 
1 
1 
1 
1 
1 
1 
1 
1 
1 
1 
1 
1 
1 
1 
1 
1 
1 
1 
1 
1 
1 
1 
1 
1 
1 
1 
1 
1 
1 
1 
1 
1 
1 
1 
1 
1 
1 
1 
1 
1 
1 
1 
1 
1 
1 
1 
1 
1 
1 
1 
1 
1 
1 
1 
1 
1 
1 
1 
1 
1 
1 
1 
1 
1 
1 
1 
1 
1 
1 
1 
1 
1 
1 
1 
1 
1 
1 
1 
1 
1 
1 
1 
1 
1 
1 
1 
1 
1 
1 
1 
1 
1 
1 
1 
1 
1 
1 
1 
1 
1 
1 
1 
1 
1 
1 
1 
1 
1 
1 
1 
1 
1 
1 
1 
1 
1 
1 
1 
1 
1 
1 
1 
1 
1 
1 
1 
1 
1 
1 
1 
1 
1 
1 
1 
1 
1 
1 
1 
1 
1 
1 
1 
1 
1 
1 
1 
1 
1 
1 
1 
1 
1 
1 
1 
1 
1 
1 
1 
1 
1 
1 
1 
1 
1 
1 
1 
1 
1 
1 
1 
1 
1 
1 
1 
1 
1 
1 
1 
1 
1 
1 
1 
1 
1 
1 
1 
1 
1 
1 
1 
1 
1 
1 
1 
1 
1 
1 
1 
1 
1 
1 
1 
1 
1 
1 
1 
1 
1 
1 
1 
1 
1 
1 
1 
1 
1 
1 
1 
1 
1 
1 
1 
1 
1 
1 
1 
1 
1 
1 
1 
1 
1 
1 
1 
1 
1 
1 
1 
1 
1 
1 
1 
1 
1 
1 
1 
1 
1 
1 
1 
1 
1 
1 
1 
1 
1 
1 
1 
1 
1 
1 
1 
1 
1 
1 
1 
1 
1 
1 
1 
1 
1 
1 
1 
1 
1 
1 
1 
1 
1 
1 
1 
1 
1 
1 
1 
1 
1 
1 
1 
1 
1 
1 
1 
1 
1 
1 
1 
1 
1 
1 
1 
1 
1 
1 
1 
1 
1 
1 
1 
1 
1 
1 
1 
1 
1 
1 
1 
1 
1 
1 
1 
1 
1 
1 
1 
1 
1 
1 
1 
1 
1 
1 
1 
1 
1 
1 
1 
1 
1 
1 
1 
1 
1 
1 
1 
1 
1 
1 
1 
1 
1 
1 
1 
1 
1 
1 
1 
1 
1 
1 
1 
1 
1 
1 
1 
1 
1 
1 
1 
1 
1 
1 
1 
1 
1 
1 
1 
1 
1 
1 
1 
1 
1 
1 
1 
1 
1 
1 
1 
1 
1 
1 
1 
1 
1 
1 
1 
1 
1 
1 
1 
1 
1 
1 
1 
1 
1 
1 
1 
1 
1 
1 
1 
1 
1 
1 
1 
1 
1 
1 
1 
1 
1 
1 
1 
1 
1 
1 
1 
1 
1 
1 
1 
1 
1 
1 
1 
1 
1 
1 
1 
1 
1 
1 
1 
1 
1 
1 
1 
1 
1 
1 
1 
1 
1 
1 
1 
1 
1 
1 
1 
1 
1 
1 
1 
1 
1 
1 
1 
1 
1 
1 
1 
1 
1 
1 
1 
1 
1 
1 
1 
1 
1 
1 
1 
1 
1 
1 
1 
1 
1 
1 
1 
1 
1 
1 
1 
1 
1 
1 
1 
1 
1 
1 
1 
1 
1 
1 
1 
1 
1 
1 
1 
1 
1 
1 
1 
1 
1 
1 
1 
1 
1 
1 
1 
1 
1 
1 
1 
1 
1 
1 
1 
1 
1 
1 
1 
1 
1 
1 
1 
1 
1 
1 
1 
1 
1 
1 
1 
1 
1 
1 
1 
1 
1 
1 
1 
1 
1 
1 
1 
1 
1 
1 
1 
1 
1 
1 
1 
1 
1 
1 
1 
1 
1 
1 
1 
1 
1 
1 
1 
1 
1 
1 
1 
1 
1 
1 
1 
1 
1 
1 
1 
1 
1 
1 
1 
1 
1 
1 
1 
1 
1 
1 
1 
1 
1 
1 
1 
1 
1 
1 
1 
1 
1 
1 
1 
1 
1 
1 
1 
1 
1 
1 
1 
1 
1 
1 
1 
1 
1 
1 
1 
1 
1 
1 
1 
1 
1 
1 
1 
1 
1 
1 
1 
1 
1 
1 
1 
1 
1 
1 
1 
1 
1 
1 
1 
1 
1 
1 
1 
1 
1 
1 
1 
1 
1 
1 
1 
1 
1 
1 
1 
1 
1 
1 
1 
1 
1 
1 
1 
1 
1 
1 
1 
1 
1 
1 
1 
1 
1 
1 
1 
1 
1 
1 
1 
1 
1 
1 
1 
1 
1 
1 
1 
1 
1 
1 
1 
1 
1 
1 
1 
1 
1 
1 
1 
1 
1 
1 
1 
1 
1 
1 
1 
1 
1 
1 
1 
1 
1 
1 
1 
1 
1 
1 
1 
1 
1 
1 
1 
1 
1 
1 
1 
1 
1 
1 
1 
1 
1 
1 
1 
1 
1 
1 
1 
1 
1 
1 
1 
1 
1 
1 
1 
1 
1 
1 
1 
1 
1 
1 
1 
1 
1 
1 
1 
1 
1 
1 
1 
1 
1 
1 
1 
1 
1 
1 
1 
1 
1 
1 
1 
1 
1 
1 
1 
1 
1 
1 
1 
1 
1 
1 
1 
1 
1 
1 
1 
1 
1 
1 
1 
1 
1 
1 
1 
1 
1 
1 
1 
1 
1 
1 
1 
1 
1 
1 
1 
1 
1 
1 
1 
1 
1 
1 
1 
1 
1 
1 
1 
1 
1 
1 
1 
1 
1 
1 
1 
1 
1 
1 
1 
1 
1 
1 
1 
1 
1 
1 
1 
1 
1 
1 
1 
1 
1 
1 
1 
1 
1 
1 
1 
1 
1 
1 
1 
1 
1 
1 
1 
1 
1 
1 
1 
1 
1 
1 
1 
1 
1 
1 
1 
1 
1 
1 
POINT_DATA 5000
VECTORS Stress float
474.359 -1333.82 0.
-192.702 -1620.05 0.
-193.015 -1620.78 0.
-154.598 -1604.62 0.
-155.372 -1606.42 0.
-156.146 -1608.23 0.
-21.8573 -1551.25 0.
-21.833 -1551.19 0.
-21.8087 -1551.13 0.
-14.6796 -1548.02 0.
-14.7872 -1548.27 0.
-14.8947 -1548.52 0.
-301.563 -1670.96 0.
-301.401 -1670.58 0.
-185.807 -1620.88 0.
-186.048 -1621.44 0.
-186.289 -1622 0.
-218.466 -1636.1 0.
-218.447 -1636.05 0.
-218.429 -1636.01 0.
-69.1897 -1571.58 0.
-68.8495 -1570.79 0.
-68.5093 -1569.99 0.
-71.2819 -1571.12 0.
-71.3619 -1571.3 0.
-276.498 -1659.37 0.
-412.332 -1717.4 0.
-412.35 -1717.44 0.
-536.033 -1770.82 0.
-535.937 -1770.6 0.
-535.841 -1770.38 0.
-617.295 -1804.98 0.
-617.171 -1804.69 0.
-617.047 -1804.4 0.
-507.29 -1757.22 0.
-507.221 -1757.06 0.
-507.151 -1756.9 0.
-338.382 -1684.03 0.
-338.085 -1683.34 0.
-250.283 -1645.54 0.
-250.96 -1647.12 0.
-251.636 -1648.7 0.
-178.317 -1618.11 0.
-178.255 -1617.96 0.
-178.193 -1617.82 0.
-324.206 -1681.23 0.
-324.958 -1682.99 0.
-325.709 -1684.74 0.
-63.1414 -1574.27 0.
-64.3381 -1577.06 0.
36.837 -1536.03 0.
-251.744 -1656.91 0.
-250.279 -1653.49 0.
-137.141 -1602.63 0.
-136.83 -1601.91 0.
-136.519 -1601.18 0.
-339.097 -1686.39 0.
-337.65 -1683.01 0.
-336.202 -1679.63 0.
-287.174 -1658.71 0.
-287.905 -1660.42 0.
-288.637 -1662.12 0.
-595.481 -1794.45 0.
-596.017 -1795.7 0.
-359.02 -1694.93 0.
-358.475 -1693.66 0.
-357.929 -1692.38 0.
-474.629 -1742.13 0.
-475.163 -1743.38 0.
-475.696 -1744.62 0.
-494.085 -1752.89 0.
-494.073 -1752.86 0.
-494.061 -1752.83 0.
-448.976 -1733.22 0.
-448.965 -1733.2 0.
-35.3208 -1556.05 0.
106.902 -1494.58 0.
107.171 -1493.96 0.
-113.479 -1588.4 0.
-113.98 -1589.56 0.
-114.482 -1590.73 0.
-375.334 -1703.25 0.
-375.522 -1703.69 0.
-375.709 -1704.13 0.
-224.444 -1639.23 0.
-224.222 -1638.71 0.
-223.999 -1638.19 0.
-96.0659 -1582.99 0.
-96.0255 -1582.9 0.
-154.835 -1608.38 0.
-155.071 -1608.93 0.
-155.307 -1609.48 0.
-13.8639 -1548.97 0.
-13.3696 -1547.81 0.
-12.8753 -1546.66 0.
-128.083 -1595.24 0.
-127.387 -1593.62 0.
-126.69 -1592 0.
238.979 -1434.35 0.
239.825 -1432.4 0.
253.488 -1397.06 0.
-183.514 -1584.69 0.
-183.831 -1585.42 0.
-162.367 -1576.52 0.
-163.142 -1578.33 0.
-163.917 -1580.14 0.
-35.088 -1525.5 0.
-35.0653 -1525.44 0.
-35.0426 -1525.38 0.
13.6358 -1504.45 0.
13.5281 -1504.71 0.
13.4203 -1504.96 0.
-298.463 -1638.2 0.
-298.3 -1637.82 0.
-162.433 -1579.44 0.
-162.675 -1580 0.
-162.916 -1580.56 0.
-202.624 -1597.88 0.
-202.606 -1597.83 0.
-202.589 -1597.79 0.
-21.612 -1519.76 0.
-21.2718 -1518.97 0.
-20.9317 -1518.18 0.
-51.2572 -1531.11 0.
-51.3366 -1531.3 0.
-225.593 -1606.13 0.
-396.677 -1679.26 0.
-396.694 -1679.3 0.
-529.453 -1736.57 0.
-529.357 -1736.35 0.
-529.26 -1736.13 0.
-620.006 -1774.71 0.
-619.881 -1774.43 0.
-619.756 -1774.14 0.
-481.51 -1714.74 0.
-481.439 -1714.58 0.
-481.369 -1714.42 0.
-307.555 -1639.39 0.
-307.258 -1638.7 0.
-206.012 -1595.14 0.
-206.687 -1596.72 0.
-207.362 -1598.3 0.
-149.526 -1574.34 0.
-149.463 -1574.19 0.
-149.401 -1574.05 0.
-244.673 -1615.71 0.
-245.423 -1617.47 0.
-246.173 -1619.22 0.
-156.679 -1582.92 0.
-157.874 -1585.72 0.
115.668 -1470.81 0.
-216.559 -1610.4 0.
-215.094 -1606.98 0.
-105.4 -1557.6 0.
-105.089 -1556.87 0.
-104.778 -1556.15 0.
-272.513 -1626.43 0.
-271.065 -1623.05 0.
-269.617 -1619.67 0.
-220.224 -1598.59 0.
-220.956 -1600.29 0.
-221.688 -1602 0.
-593.012 -1761.96 0.
-593.549 -1763.21 0.
-357.737 -1662.96 0.
-357.193 -1661.68 0.
-356.648 -1660.41 0.
-468.144 -1707.92 0.
-468.678 -1709.17 0.
-469.211 -1710.41 0.
-498.149 -1723.2 0.
-498.138 -1723.17 0.
-498.127 -1723.14 0.
-426.903 -1692.34 0.
-426.892 -1692.31 0.
35.5708 -1494.24 0.
146.718 -1446.09 0.
146.988 -1445.46 0.
-89.3207 -1546.62 0.
-89.8225 -1547.79 0.
-90.3244 -1548.95 0.
-362.868 -1666.48 0.
-363.054 -1666.92 0.
-363.241 -1667.36 0.
-201.478 -1597.96 0.
-201.257 -1597.44 0.
-201.035 -1596.92 0.
-85.3914 -1546.99 0.
-85.3514 -1546.9 0.
-118.855 -1561.53 0.
-119.091 -1562.08 0.
-119.328 -1562.63 0.
-23.4353 -1521.65 0.
-22.9404 -1520.49 0.
-22.4456 -1519.34 0.
-104.391 -1553.66 0.
-103.694 -1552.04 0.
-102.996 -1550.42 0.
136.56 -1446.82 0.
137.415 -1444.88 0.
203.463 -1061.33 0.
-115.484 -1412.15 0.
-113.519 -1407.55 0.
-123.54 -1439.74 0.
-144.483 -1488.59 0.
-152.662 -1507.67 0.
-44.6824 -1491.27 0.
-71.0254 -1552.73 0.
-107.292 -1637.35 0.
-26.7077 -1621.11 0.
-34.6069 -1639.53 0.
-42.5295 -1658 0.
-395.027 -1838.01 0.
-391.158 -1828.99 0.
-228.267 -1746.15 0.
-209.978 -1703.48 0.
-225.963 -1740.77 0.
-301.424 -1827.17 0.
-279.323 -1775.59 0.
-303.557 -1832.12 0.
-92.3235 -1743.96 0.
-93.1786 -1745.95 0.
-109.105 -1783.12 0.
-124.353 -1708.39 0.
-126.686 -1713.84 0.
-336.698 -1861.32 0.
-479.142 -1870.07 0.
-523.666 -1973.96 0.
-649.252 -1997.22 0.
-651.978 -2003.58 0.
-679.261 -2067.24 0.
-809.917 -2181.29 0.
-800.999 -2160.47 0.
-841.939 -2256 0.
-648.279 -2121.54 0.
-688.439 -2215.26 0.
-692.156 -2223.93 0.
-477.57 -2063.39 0.
-520.3 -2163.09 0.
-390.741 -2079.06 0.
-384.053 -2063.46 0.
-395.214 -2089.5 0.
-368.135 -2107.87 0.
-336.499 -2034.05 0.
-346.147 -2056.57 0.
-393.748 -2083.63 0.
-393.324 -2082.64 0.
-413.656 -2130.08 0.
-475.577 -2117.41 0.
-492.062 -2155.89 0.
-191.426 -2117.16 0.
-410.4 -2098.29 0.
-412.806 -2103.9 0.
-342.135 -2139.02 0.
-312.829 -2070.64 0.
-326.092 -2101.6 0.
-449.348 -2134.47 0.
-410.174 -2043.06 0.
-435.411 -2101.94 0.
-370.578 -2045.5 0.
-361.768 -2024.94 0.
-364.885 -2032.21 0.
-812.629 -2247.69 0.
-798.237 -2214.1 0.
-573.807 -2138.13 0.
-542.372 -2064.79 0.
-533.534 -2044.18 0.
-665.202 -2148.69 0.
-600.522 -1997.76 0.
-635.552 -2079.5 0.
-658.106 -2057.27 0.
-617.475 -1962.47 0.
-629.449 -1990.42 0.
-537.003 -1959.85 0.
-502.539 -1879.43 0.
-26.1333 -1676.22 0.
96.1792 -1608.43 0.
109.615 -1577.08 0.
-206.68 -1835.04 0.
-194.646 -1806.95 0.
-180.993 -1775.09 0.
-463.469 -1893.55 0.
-457.947 -1880.68 0.
-452.994 -1869.13 0.
-281.439 -1796.87 0.
-261.905 -1751.28 0.
-261.553 -1750.46 0.
-188.035 -1775.41 0.
-166.117 -1724.27 0.
-154.475 -1681.77 0.
-142.901 -1654.76 0.
-113.935 -1587.17 0.
-45.7384 -1524.06 0.
-33.2793 -1494.99 0.
-36.1113 -1501.6 0.
-59.2992 -1462.16 0.
-39.6839 -1416.38 0.
-38.5755 -1413.78 0.
97.8897 -1310.59 0.
144.079 -1202.79 0.
386.676 -876.498 0.
-7.32002 -1096.25 0.
-34.6882 -1160.09 0.
-32.8293 -1206.47 0.
-47.9276 -1241.68 0.
-63.0258 -1276.9 0.
62.0459 -1260.48 0.
35.9347 -1321.41 0.
9.82361 -1382.33 0.
58.3042 -1413.41 0.
30.2221 -1478.93 0.
2.14007 -1544.44 0.
-327.882 -1690.57 0.
-327.051 -1688.63 0.
-177.79 -1623.98 0.
-178.209 -1624.96 0.
-178.628 -1625.94 0.
-222.221 -1644.66 0.
-221.683 -1643.4 0.
-221.145 -1642.14 0.
-26.7347 -1555.21 0.
-23.762 -1548.27 0.
-20.7893 -1541.34 0.
-40.6558 -1513.11 0.
-16.4878 -1456.73 0.
-131.489 -1460 0.
-340.622 -1577.19 0.
-355.719 -1612.42 0.
-529.798 -1723.45 0.
-562.806 -1800.47 0.
-595.814 -1877.49 0.
-716.359 -1984.38 0.
-740.149 -2039.9 0.
-763.94 -2095.41 0.
-627.208 -2075.82 0.
-646.044 -2119.77 0.
-664.881 -2163.72 0.
-473.674 -2112.46 0.
-489.487 -2149.36 0.
-457.213 -2162.65 0.
-457.918 -2164.29 0.
-458.623 -2165.94 0.
-422.88 -2165.39 0.
-444.829 -2216.6 0.
-466.778 -2267.8 0.
-433.438 -2314.23 0.
-473.616 -2407.98 0.
-513.794 -2501.73 0.
-694.38 -2599.42 0.
-696.41 -2604.15 0.
-334.716 -2452.91 0.
-548.241 -2530.79 0.
-541.104 -2514.11 0.
-487.652 -2471.25 0.
-465.322 -2419.14 0.
-442.992 -2367.03 0.
-546.937 -2361.85 0.
-516.043 -2289.77 0.
-485.149 -2217.68 0.
-460.952 -2172.6 0.
-449.108 -2144.96 0.
-437.264 -2117.31 0.
-777.355 -2241.98 0.
-766.354 -2216.31 0.
-543.817 -2094.75 0.
-509.304 -2014.21 0.
-474.791 -1933.68 0.
-583.144 -1923.56 0.
-562.642 -1875.72 0.
-542.141 -1827.87 0.
-530.525 -1787.44 0.
-513.205 -1747.02 0.
-495.886 -1706.61 0.
-375.466 -1614.57 0.
-353.66 -1563.69 0.
283.289 -1251 0.
162.791 -1372.91 0.
125.899 -1458.99 0.
-103.322 -1613.77 0.
-108.864 -1626.7 0.
-114.405 -1639.62 0.
-404.661 -1768.89 0.
-403.677 -1766.6 0.
-402.694 -1764.31 0.
-231.127 -1685.65 0.
-227.534 -1677.27 0.
-223.941 -1668.89 0.
-110.4 -1587.68 0.
-92.2453 -1545.31 0.
-72.0068 -1500.43 0.
-44.0986 -1435.32 0.
-16.1903 -1370.2 0.
32.0676 -1307.55 0.
44.1574 -1279.35 0.
56.2471 -1251.15 0.
10.8401 -1246.78 0.
24.0076 -1216.05 0.
37.1751 -1185.33 0.
229.361 -1069.11 0.
248.7 -1023.99 0.
530.579 -783.388 0.
-24.171 -1072.05 0.
-51.5397 -1135.89 0.
-27.682 -1172.84 0.
-42.7798 -1208.05 0.
-57.8776 -1243.27 0.
88.1253 -1217.88 0.
62.0143 -1278.8 0.
35.9033 -1339.73 0.
69.8965 -1377.02 0.
41.8157 -1442.54 0.
13.7349 -1508.05 0.
-306.544 -1650.01 0.
-305.714 -1648.07 0.
-163.594 -1586.47 0.
-164.012 -1587.45 0.
-164.43 -1588.42 0.
-204.519 -1605.64 0.
-203.977 -1604.39 0.
-203.436 -1603.14 0.
-28.9845 -1524.75 0.
-26.0118 -1517.81 0.
-23.0392 -1510.88 0.
-24.1563 -1474.62 0.
0.015415 -1418.25 0.
-134.953 -1430.08 0.
-308.201 -1531.87 0.
-323.299 -1567.11 0.
-510.695 -1683.84 0.
-543.702 -1760.85 0.
-576.709 -1837.87 0.
-688.625 -1941.07 0.
-712.413 -1996.58 0.
-736.201 -2052.1 0.
-608.904 -2036.55 0.
-627.743 -2080.5 0.
-646.583 -2124.45 0.
-426.631 -2060.86 0.
-442.444 -2097.76 0.
-478.265 -2140.25 0.
-478.969 -2141.89 0.
-479.673 -2143.53 0.
-443.243 -2142.69 0.
-465.195 -2193.89 0.
-487.147 -2245.09 0.
-344.495 -2244.69 0.
-384.675 -2338.44 0.
-424.855 -2432.19 0.
-692.864 -2567.35 0.
-694.9 -2572.07 0.
-437.79 -2465.68 0.
-473.541 -2467.36 0.
-466.409 -2450.67 0.
-474.993 -2434.39 0.
-452.667 -2382.28 0.
-430.34 -2330.17 0.
-530.602 -2323.42 0.
-499.707 -2251.33 0.
-468.812 -2179.25 0.
-488.432 -2152.96 0.
-476.593 -2125.31 0.
-464.753 -2097.66 0.
-720.635 -2186.24 0.
-709.634 -2160.56 0.
-513.365 -2050.29 0.
-478.856 -1969.74 0.
-444.347 -1889.2 0.
-584.315 -1892.64 0.
-563.816 -1844.79 0.
-543.316 -1796.94 0.
-499.403 -1742.68 0.
-482.086 -1702.26 0.
-464.769 -1661.85 0.
-342.358 -1568.97 0.
-320.554 -1518.08 0.
230.247 -1242.33 0.
137.234 -1352.45 0.
100.341 -1438.52 0.
-76.3743 -1570.79 0.
-81.9154 -1583.72 0.
-87.4565 -1596.64 0.
-381.57 -1727.56 0.
-380.59 -1725.27 0.
-379.61 -1722.98 0.
-211.38 -1645.76 0.
-207.786 -1637.38 0.
-204.192 -1629 0.
-97.3609 -1550.67 0.
-79.2076 -1508.31 0.
-49.6838 -1459.44 0.
-21.7741 -1394.33 0.
6.13561 -1329.21 0.
30.2154 -1276.92 0.
42.3063 -1248.72 0.
54.3973 -1220.52 0.
0.187943 -1219.92 0.
13.357 -1189.19 0.
26.526 -1158.47 0.
280.134 -1015.92 0.
299.483 -970.81 0.
233.01 -1477.77 0.
-328.059 -1708.02 0.
-322.527 -1695.14 0.
-240.874 -1648.89 0.
-234.356 -1633.68 0.
-227.837 -1618.48 0.
-29.7125 -1516.96 0.
-18.241 -1490.18 0.
-6.76956 -1463.41 0.
69.0888 -1381.74 0.
102.576 -1303.61 0.
136.064 -1225.47 0.
-195.793 -1365.73 0.
-199.873 -1375.26 0.
-54.9478 -1320.02 0.
-52.8326 -1315.1 0.
-50.7174 -1310.17 0.
-95.2699 -1326.19 0.
-94.7517 -1324.98 0.
-94.2336 -1323.78 0.
91.0311 -1246.38 0.
88.735 -1251.73 0.
86.4389 -1257.09 0.
65.0275 -1303.74 0.
40.1712 -1361.73 0.
-147.642 -1489.57 0.
-313.07 -1532.48 0.
-297.882 -1497.03 0.
-428.055 -1521.17 0.
-406.592 -1471.07 0.
-385.13 -1420.97 0.
-440.152 -1416.68 0.
-434.328 -1403.09 0.
-428.504 -1389.49 0.
-294.942 -1342.35 0.
-305.994 -1368.12 0.
-317.046 -1393.89 0.
-128.516 -1376.28 0.
-164.733 -1460.8 0.
-233.206 -1559.04 0.
-268.275 -1640.85 0.
-303.343 -1722.65 0.
-312.433 -1765.85 0.
-303.782 -1745.66 0.
-295.132 -1725.46 0.
-57.5697 -1585.17 0.
-27.764 -1515.66 0.
2.04157 -1446.16 0.
-229.043 -1528.23 0.
-226.244 -1521.67 0.
66.1535 -1391.12 0.
11.7894 -1402.64 0.
17.9723 -1388.2 0.
-68.8647 -1426.67 0.
-93.5987 -1484.38 0.
-118.333 -1542.09 0.
-246.645 -1640.07 0.
-266.846 -1687.2 0.
-287.047 -1734.33 0.
-312.329 -1714.64 0.
-278.479 -1635.69 0.
-244.629 -1556.74 0.
-427.929 -1540.83 0.
-376.696 -1421.29 0.
-148.065 -1239.75 0.
-157.521 -1261.81 0.
-166.977 -1283.87 0.
-355.224 -1385.97 0.
-370.094 -1420.67 0.
-384.964 -1455.36 0.
-368.013 -1468.6 0.
-375.728 -1486.62 0.
-383.442 -1504.64 0.
-299.922 -1504.44 0.
-321.395 -1554.56 0.
123.611 -1403.33 0.
121.774 -1334.75 0.
158.2 -1249.77 0.
73.3116 -1230.63 0.
78.0779 -1219.51 0.
82.8442 -1208.39 0.
-213.025 -1331.31 0.
-214.057 -1333.72 0.
-215.089 -1336.12 0.
-56.7316 -1274.11 0.
-60.6993 -1283.36 0.
-64.6671 -1292.6 0.
4.25886 -1293.99 0.
-13.2661 -1334.87 0.
-12.4793 -1371 0.
-40.6192 -1436.66 0.
-68.7591 -1502.32 0.
-110.108 -1561.02 0.
-119.388 -1582.67 0.
-128.669 -1604.32 0.
-178.812 -1626.33 0.
-172.177 -1610.85 0.
-165.542 -1595.37 0.
78.5155 -1457.68 0.
98.4796 -1411.07 0.
122.228 -1493.83 0.
-354.763 -1688.04 0.
-349.236 -1675.15 0.
-235.443 -1615.14 0.
-228.926 -1599.94 0.
-222.409 -1584.73 0.
2.53552 -1471.71 0.
14.0066 -1444.94 0.
25.4778 -1418.16 0.
93.5299 -1339.85 0.
127.017 -1261.71 0.
160.505 -1183.58 0.
-211.282 -1340.95 0.
-215.36 -1350.47 0.
-49.7461 -1286.36 0.
-47.6295 -1281.44 0.
-45.513 -1276.51 0.
-105.693 -1299.23 0.
-105.173 -1298.03 0.
-104.652 -1296.82 0.
128.086 -1199.08 0.
125.793 -1204.43 0.
123.499 -1209.79 0.
120.574 -1248.5 0.
95.7179 -1306.5 0.
-68.4548 -1424.21 0.
-323.908 -1505.69 0.
-308.716 -1470.24 0.
-382.528 -1470.21 0.
-361.061 -1420.12 0.
-339.594 -1370.02 0.
-376.716 -1358.06 0.
-370.893 -1344.46 0.
-365.071 -1330.87 0.
-239.995 -1287.36 0.
-251.045 -1313.14 0.
-262.096 -1338.91 0.
-130.986 -1345.91 0.
-167.203 -1430.43 0.
-188.755 -1508.55 0.
-223.823 -1590.36 0.
-258.892 -1672.16 0.
-334.21 -1743.75 0.
-325.556 -1723.56 0.
-316.903 -1703.36 0.
-103.639 -1573.49 0.
-73.8402 -1503.99 0.
-44.041 -1434.49 0.
-152.058 -1463.8 0.
-149.254 -1457.26 0.
206.565 -1299.5 0.
40.9746 -1358.7 0.
47.1651 -1344.27 0.
-111.804 -1413.65 0.
-136.538 -1471.35 0.
-161.273 -1529.05 0.
-251.811 -1610.86 0.
-272.011 -1657.98 0.
-292.212 -1705.11 0.
-280.331 -1669.5 0.
-246.485 -1590.55 0.
-212.64 -1511.59 0.
-412.175 -1502.65 0.
-360.942 -1383.11 0.
-101.597 -1188.39 0.
-111.051 -1210.46 0.
-120.505 -1232.52 0.
-291.778 -1327.35 0.
-306.647 -1362.05 0.
-321.515 -1396.74 0.
-332.021 -1421.75 0.
-339.74 -1439.76 0.
-347.46 -1457.78 0.
-263.875 -1457.57 0.
-285.349 -1507.69 0.
137.939 -1365.77 0.
123.876 -1302.42 0.
160.295 -1217.43 0.
88.9507 -1192.51 0.
93.714 -1181.39 0.
98.4773 -1170.27 0.
-206.138 -1296.94 0.
-207.173 -1299.34 0.
-208.208 -1301.74 0.
-54.8278 -1241.87 0.
-58.7961 -1251.12 0.
-62.7643 -1260.36 0.
3.6735 -1262.81 0.
-13.8522 -1303.7 0.
-3.48566 -1335.72 0.
-31.6272 -1401.38 0.
-59.7688 -1467.04 0.
-120.768 -1534.16 0.
-130.048 -1555.82 0.
-139.328 -1577.47 0.
-146.973 -1581.26 0.
-140.337 -1565.78 0.
-133.701 -1550.31 0.
30.8279 -1446.7 0.
50.795 -1400.11 0.
349.303 -721.062 0.
-99.8567 -1011.17 0.
-106.434 -1026.52 0.
3.84847 -1035.81 0.
-8.12608 -1063.73 0.
-75.7966 -1221.61 0.
103.137 -1267.07 0.
92.2577 -1292.45 0.
59.0114 -1370.02 0.
175.949 -1162.83 0.
152.351 -1217.89 0.
89.7041 -1364.06 0.
-318.439 -1530.12 0.
-319.193 -1531.88 0.
-131.683 -1456.05 0.
-87.8731 -1353.82 0.
-124.985 -1440.39 0.
-189.171 -1442.75 0.
-179.141 -1419.35 0.
-208.386 -1487.6 0.
70.61 -1372.39 0.
69.3376 -1375.37 0.
87.5447 -1332.89 0.
87.3207 -1400.54 0.
31.8156 -1530.05 0.
-94.8676 -1605.6 0.
-505.269 -1876.77 0.
-431.916 -1705.62 0.
-332.485 -1408.79 0.
-332.21 -1408.15 0.
-399.328 -1564.75 0.
-388.134 -1474.1 0.
-418.664 -1545.32 0.
-447.384 -1612.31 0.
-305.604 -1513.67 0.
-295.351 -1489.75 0.
-426.433 -1795.61 0.
-251.219 -1590.39 0.
-285.386 -1670.11 0.
-305.973 -1835.33 0.
-313.01 -1851.73 0.
-313.69 -1853.3 0.
-495.849 -2047.98 0.
-453.91 -1950.14 0.
-440.888 -1919.77 0.
-280.946 -1868.02 0.
-244.747 -1783.58 0.
-229.733 -1748.57 0.
-213.943 -1723.46 0.
-228.961 -1758.52 0.
35.6516 -1738.97 0.
-65.4849 -1631.26 0.
-59.9051 -1618.27 0.
-281.447 -1696.27 0.
-241.919 -1604.02 0.
-352.666 -1862.42 0.
-407.697 -1933.31 0.
-404.827 -1926.61 0.
-411.827 -1942.93 0.
-356.816 -1877.52 0.
-331.358 -1818.12 0.
-341.789 -1842.46 0.
-527.343 -1770 0.
-452.632 -1595.69 0.
-249.675 -1591 0.
-148.537 -1355.02 0.
-163.438 -1389.79 0.
-308.279 -1455.31 0.
-300.908 -1438.11 0.
-384.662 -1633.53 0.
-339.261 -1475.83 0.
-320.708 -1432.55 0.
-339.562 -1476.55 0.
-383.264 -1773.41 0.
-384.755 -1776.88 0.
44.1198 -1545.75 0.
75.9686 -1386.87 0.
158.005 -1195.46 0.
-60.8452 -1540.41 0.
-3.08499 -1405.64 0.
-9.66212 -1420.98 0.
-274.974 -1439.27 0.
-270.725 -1429.37 0.
-310.546 -1522.29 0.
-118.121 -1361.66 0.
-58.7146 -1223.05 0.
-91.793 -1300.25 0.
-90.8417 -1450.92 0.
-96.0231 -1463.02 0.
-13.8912 -1345.78 0.
37.0045 -1227.03 0.
40.5025 -1218.89 0.
-46.9812 -1310.35 0.
-28.8436 -1268.06 0.
25.3744 -1141.57 0.
81.8474 -1076.66 0.
108.773 -1013.81 0.
123.44 -979.573 0.
226.008 -869.232 0.
248.548 -816.653 0.
483.803 -544.126 0.
-18.5303 -784.528 0.
-32.781 -817.773 0.
69.8089 -810.304 0.
30.8734 -901.145 0.
-8.06219 -991.987 0.
213.331 -969.208 0.
176.791 -1054.47 0.
140.252 -1139.72 0.
115.267 -1227.71 0.
72.3289 -1327.9 0.
29.3906 -1428.08 0.
-338.333 -1617.53 0.
-351.494 -1648.24 0.
-187.018 -1601.63 0.
-192.762 -1615.02 0.
-198.507 -1628.42 0.
-269.241 -1667.11 0.
-271.039 -1671.31 0.
-272.838 -1675.51 0.
-46.8317 -1575.93 0.
-42.7685 -1566.46 0.
-38.7052 -1556.99 0.
-0.105645 -1527.39 0.
7.31009 -1510.1 0.
-56.0507 -1523.13 0.
-433.699 -1786.17 0.
-487.922 -1912.7 0.
-561.328 -2032.71 0.
-577.118 -2069.55 0.
-592.907 -2106.39 0.
-701.37 -2168.3 0.
-699.511 -2163.96 0.
-697.653 -2159.62 0.
-532.084 -2093.77 0.
-537.107 -2105.48 0.
-542.13 -2117.18 0.
-449.759 -2062.2 0.
-439.931 -2039.27 0.
-375.975 -1994.09 0.
-370.539 -1981.41 0.
-365.104 -1968.72 0.
-444.939 -2028.15 0.
-496.222 -2147.83 0.
-547.506 -2267.5 0.
-461.4 -2323.61 0.
-508.431 -2433.35 0.
-555.462 -2543.09 0.
-710 -2614.54 0.
-699.974 -2591.16 0.
-269.578 -2387.53 0.
-359.819 -2464.63 0.
-379.983 -2511.67 0.
-639.671 -2616.74 0.
-555.289 -2419.85 0.
-470.907 -2222.97 0.
-518.877 -2130.28 0.
-489.71 -2062.24 0.
-460.542 -1994.19 0.
-392.166 -1949.99 0.
-394.955 -1956.5 0.
-397.745 -1963.02 0.
-669.313 -2128.31 0.
-697.624 -2194.36 0.
-481.859 -2148.93 0.
-480.118 -2144.87 0.
-478.378 -2140.82 0.
-602.225 -2179.25 0.
-583.216 -2134.91 0.
-564.207 -2090.56 0.
-538.011 -2039.1 0.
-515.109 -1985.66 0.
-492.208 -1932.22 0.
-420.361 -1817.99 0.
-371.592 -1704.18 0.
75.9889 -1422.1 0.
20.0691 -1491.96 0.
-4.03044 -1548.2 0.
-110.508 -1632.66 0.
-118.017 -1650.18 0.
-125.526 -1667.7 0.
-413.553 -1789.89 0.
-403.227 -1765.8 0.
-392.9 -1741.7 0.
-227.353 -1644.76 0.
-212.101 -1609.18 0.
-196.848 -1573.6 0.
-133.39 -1491.75 0.
-103.441 -1421.87 0.
-40.6477 -1335.55 0.
1.02244 -1238.34 0.
42.6926 -1141.12 0.
50.5499 -1065.8 0.
81.4131 -993.806 0.
112.276 -921.809 0.
117.047 -871.739 0.
138.299 -822.14 0.
159.551 -772.541 0.
330.917 -677.964 0.
339.527 -657.901 0.
572.184 -474.803 0.
-21.3959 -754.338 0.
-35.65 -787.578 0.
48.7155 -787.928 0.
9.7831 -878.769 0.
-29.1493 -969.61 0.
208.435 -939.886 0.
171.897 -1025.14 0.
135.36 -1110.4 0.
91.489 -1206.49 0.
48.5523 -1306.67 0.
5.61553 -1406.86 0.
-300.316 -1569.82 0.
-313.477 -1600.53 0.
-161.879 -1559.43 0.
-167.621 -1572.83 0.
-173.364 -1586.23 0.
-233.04 -1620.18 0.
-234.839 -1624.38 0.
-236.639 -1628.58 0.
-67.3466 -1553.31 0.
-63.2848 -1543.84 0.
-59.2231 -1534.37 0.
-24.1218 -1506.29 0.
-16.7054 -1489 0.
-89.5772 -1506.12 0.
-377.105 -1730.53 0.
-431.333 -1857.06 0.
-497.607 -1973.98 0.
-513.399 -2010.82 0.
-529.192 -2047.66 0.
-704.148 -2138.08 0.
-702.291 -2133.73 0.
-700.434 -2129.39 0.
-488.477 -2043.66 0.
-493.507 -2055.37 0.
-498.537 -2067.07 0.
-428.76 -2021.79 0.
-418.934 -1998.86 0.
-361.906 -1956.65 0.
-356.474 -1943.97 0.
-351.042 -1931.28 0.
-376.323 -1967.32 0.
-427.608 -2086.99 0.
-478.893 -2206.67 0.
-426.591 -2277.28 0.
-473.624 -2387.02 0.
-520.657 -2496.76 0.
-833.795 -2636.17 0.
-823.777 -2612.79 0.
-439.681 -2429 0.
-266.178 -2393.06 0.
-286.346 -2440.11 0.
-578.565 -2559.11 0.
-494.175 -2362.22 0.
-409.785 -2165.33 0.
-535.177 -2105.81 0.
-506.001 -2037.77 0.
-476.826 -1969.73 0.
-380.968 -1913.77 0.
-383.751 -1920.29 0.
-386.535 -1926.81 0.
-638.641 -2083.75 0.
-666.953 -2149.81 0.
-456.896 -2106.81 0.
-455.151 -2102.76 0.
-453.406 -2098.71 0.
-565.742 -2132.18 0.
-546.725 -2087.84 0.
-527.708 -2043.49 0.
-469.274 -1978.24 0.
-446.374 -1924.79 0.
-423.475 -1871.35 0.
-425.921 -1788.98 0.
-377.152 -1675.17 0.
66.2006 -1394.91 0.
23.2498 -1459.21 0.
-0.851152 -1515.43 0.
-106.427 -1599.5 0.
-113.935 -1617.02 0.
-121.444 -1634.53 0.
-382.745 -1745.28 0.
-372.421 -1721.18 0.
-362.096 -1697.08 0.
-196.041 -1599.93 0.
-180.789 -1564.34 0.
-165.537 -1528.76 0.
-147.582 -1466.41 0.
-117.633 -1396.53 0.
-62.2994 -1313.42 0.
-20.63 -1216.21 0.
21.0394 -1118.99 0.
58.1308 -1031.13 0.
88.9914 -959.137 0.
119.852 -887.138 0.
69.0804 -860.877 0.
90.3332 -811.283 0.
111.586 -761.689 0.
375.512 -627.428 0.
384.127 -607.368 0.
170.804 -1372.6 0.
-405.483 -1621.33 0.
-405.461 -1621.29 0.
-292.916 -1567.19 0.
-277.661 -1531.6 0.
-262.406 -1496.01 0.
15.6772 -1353.52 0.
23.6536 -1334.91 0.
31.63 -1316.29 0.
33.0203 -1302.78 0.
39.1109 -1288.56 0.
45.2015 -1274.34 0.
-195.629 -1319.61 0.
-161.571 -1240.13 0.
28.3774 -1095.19 0.
55.7238 -1031.39 0.
83.0701 -967.59 0.
64.1276 -938.271 0.
67.3481 -930.755 0.
70.5687 -923.24 0.
218.214 -866.562 0.
209.027 -887.99 0.
199.841 -909.419 0.
218.029 -959.108 0.
181.7 -1043.86 0.
81.4623 -1155.99 0.
-196.832 -1339.57 0.
-230.717 -1418.64 0.
-262.812 -1487.13 0.
-272.784 -1510.39 0.
-282.755 -1533.64 0.
-473.098 -1644.89 0.
-495.682 -1697.57 0.
-518.267 -1750.26 0.
-317.465 -1659.13 0.
-301.676 -1622.28 0.
-285.887 -1585.43 0.
-283.656 -1628.69 0.
-312.086 -1695.06 0.
-267.42 -1735.15 0.
-321.723 -1861.84 0.
-376.026 -1988.52 0.
-397.921 -2037.16 0.
-350.017 -1925.32 0.
-302.112 -1813.48 0.
-133.422 -1597.94 0.
-35.9082 -1370.43 0.
61.606 -1142.92 0.
-246.448 -1239.82 0.
-250.831 -1250.05 0.
114.369 -1101.84 0.
311.553 -1038.54 0.
300.426 -1064.52 0.
-12.5705 -1264.02 0.
-127.467 -1532.08 0.
-242.363 -1800.14 0.
-498.377 -2016.23 0.
-481.837 -1977.64 0.
-465.297 -1939.06 0.
-382.092 -1860.51 0.
-356.413 -1800.57 0.
-330.734 -1740.64 0.
-485.623 -1762.27 0.
-462.381 -1708.06 0.
-226.069 -1567.67 0.
-225.306 -1565.89 0.
-224.543 -1564.1 0.
-317.243 -1609.45 0.
-327.145 -1632.57 0.
-337.047 -1655.7 0.
-294.358 -1621.57 0.
-272.596 -1570.81 0.
-250.834 -1520.05 0.
-276.831 -1445 0.
-224.766 -1323.52 0.
234.06 -1027.87 0.
246.202 -951.608 0.
283.518 -864.561 0.
219.391 -843.764 0.
205.129 -877.044 0.
190.867 -910.324 0.
-77.9392 -1044.43 0.
-82.8947 -1056 0.
-87.8502 -1067.57 0.
32.4546 -1049.25 0.
9.25313 -1103.38 0.
-13.9484 -1157.51 0.
-64.9944 -1223.12 0.
-87.9572 -1276.7 0.
-89.4756 -1321.7 0.
-113.796 -1378.44 0.
-138.116 -1435.18 0.
-136.391 -1460.38 0.
-130.406 -1446.41 0.
-124.421 -1432.44 0.
-201.611 -1465.67 0.
-206.052 -1476.06 0.
-210.494 -1486.44 0.
28.6645 -1395.44 0.
22.3168 -1410.2 0.
74.3887 -1382.51 0.
-400.13 -1587.62 0.
-400.11 -1587.57 0.
-257.647 -1520.66 0.
-242.394 -1485.06 0.
-227.141 -1449.46 0.
15.7012 -1322.09 0.
23.6813 -1303.48 0.
31.6615 -1284.86 0.
47.7672 -1265.05 0.
53.8609 -1250.83 0.
59.9546 -1236.61 0.
-206.84 -1292.99 0.
-172.779 -1213.52 0.
14.9023 -1069.55 0.
42.2492 -1005.75 0.
69.5961 -941.955 0.
72.9261 -903.087 0.
76.1463 -895.572 0.
79.3665 -888.058 0.
250.227 -821.43 0.
241.043 -842.862 0.
231.858 -864.293 0.
293.664 -895.267 0.
257.335 -980.019 0.
156.371 -1092.47 0.
-189.682 -1305.08 0.
-223.56 -1384.15 0.
-229.406 -1441.38 0.
-239.377 -1464.64 0.
-249.348 -1487.9 0.
-388.772 -1577.32 0.
-411.362 -1630 0.
-433.952 -1682.68 0.
-313.001 -1625.8 0.
-297.218 -1588.95 0.
-281.434 -1552.09 0.
-329.291 -1616.87 0.
-357.724 -1683.22 0.
-249.608 -1696.12 0.
-303.91 -1822.8 0.
-358.212 -1949.48 0.
-413.754 -2012.55 0.
-365.837 -1900.71 0.
-317.92 -1788.88 0.
-130.398 -1565.24 0.
-32.9035 -1337.72 0.
64.5915 -1110.2 0.
-114.695 -1151.91 0.
-119.092 -1162.14 0.
196.621 -1035.21 0.
242.765 -1036.6 0.
231.624 -1062.55 0.
-13.9571 -1233.15 0.
-128.859 -1501.22 0.
-243.761 -1769.29 0.
-452.485 -1965.15 0.
-435.944 -1926.57 0.
-419.403 -1887.98 0.
-419.456 -1845.11 0.
-393.779 -1785.18 0.
-368.102 -1725.26 0.
-445.938 -1713.88 0.
-422.697 -1659.68 0.
-218.705 -1533.06 0.
-217.932 -1531.29 0.
-217.16 -1529.51 0.
-260.633 -1553.77 0.
-270.541 -1576.89 0.
-280.448 -1600.02 0.
-276.115 -1582.32 0.
-254.359 -1531.55 0.
-232.604 -1480.79 0.
-234.447 -1395.41 0.
-182.387 -1273.93 0.
277.546 -977.818 0.
289.12 -901.798 0.
326.434 -814.745 0.
252.999 -797.965 0.
238.736 -831.242 0.
224.473 -864.519 0.
-64.7977 -1007.39 0.
-69.756 -1018.96 0.
-74.7144 -1030.52 0.
15.6267 -1025.06 0.
-7.57408 -1079.18 0.
-30.7749 -1133.31 0.
-70.8092 -1194.2 0.
-93.7752 -1247.78 0.
-92.6607 -1291.65 0.
-116.983 -1348.39 0.
-141.304 -1405.13 0.
-136.757 -1429.11 0.
-130.775 -1415.14 0.
-124.792 -1401.17 0.
-148.803 -1411.62 0.
-153.244 -1422 0.
-157.685 -1432.39 0.
-25.8639 -1387.38 0.
-32.2091 -1402.14 0.
392.888 -423.709 0.
-25.9547 -693.625 0.
-68.5155 -792.915 0.
72.5745 -785.975 0.
29.612 -886.239 0.
-26.6359 -1017.5 0.
130.026 -1024.21 0.
112.48 -1065.15 0.
129.418 -1025.63 0.
193.574 -921.888 0.
212.454 -877.841 0.
209.075 -885.73 0.
-104.497 -1001.6 0.
-124.194 -1047.56 0.
13.8855 -1014.83 0.
48.6437 -933.723 0.
88.6524 -840.367 0.
85.2475 -859.687 0.
25.7281 -998.573 0.
-5.85899 -1072.28 0.
256.866 -835.549 0.
236.242 -883.676 0.
170.038 -1038.15 0.
349.411 -877.794 0.
116.839 -1420.47 0.
-79.4701 -1741.01 0.
-317.826 -1586.24 0.
-305.664 -1557.92 0.
18.2742 -895.676 0.
-26.377 -999.848 0.
-47.6287 -1049.42 0.
-141.65 -1129.86 0.
-134.683 -1113.54 0.
-116.59 -1071.27 0.
-97.6585 -1100.45 0.
-103.243 -1113.43 0.
-140.915 -1201.28 0.
-306.636 -1445.87 0.
-387.891 -1635.45 0.
-274.065 -1755.76 0.
-323.278 -1870.58 0.
-380.926 -2005.07 0.
-427.382 -1982.83 0.
-252.831 -1575.55 0.
-121.29 -1268.63 0.
35.0444 -1153.57 0.
54.6994 -1107.63 0.
38.1127 -1146.26 0.
-12.6682 -1133.54 0.
30.9775 -1031.64 0.
194.644 -1003.3 0.
225.894 -913.478 0.
180.948 -1018.25 0.
-20.2127 -1213.71 0.
93.3457 -948.68 0.
25.7817 -1106.27 0.
-132.609 -1274.82 0.
-544.429 -2235.74 0.
-485.191 -2097.52 0.
-531.812 -2004.72 0.
-486.774 -1899.63 0.
-421.555 -1747.44 0.
-357.131 -1551 0.
-254.135 -1310.7 0.
-5.18239 -1017.46 0.
26.874 -942.728 0.
36.4283 -920.5 0.
34.2052 -942.204 0.
-12.909 -1052.14 0.
-53.4119 -1146.66 0.
-102.626 -1180.84 0.
-139.702 -1267.34 0.
-253.542 -1532.94 0.
-377.273 -1777.95 0.
-177.58 -1311.94 0.
87.6584 -1420.2 0.
228.623 -1093.29 0.
490.327 -482.627 0.
316.201 -683.181 0.
123.224 -1133.44 0.
180.452 -999.895 0.
-81.8358 -1040.87 0.
-84.4797 -1047.03 0.
-71.7188 -1017.25 0.
20.3177 -950.603 0.
32.0046 -923.334 0.
30.4659 -926.925 0.
42.2991 -888.033 0.
70.9289 -821.245 0.
90.0407 -828.111 0.
96.4392 -813.172 0.
64.2485 -888.274 0.
20.7977 -1029.58 0.
22.8481 -1024.8 0.
47.1309 -968.141 0.
100.416 -899.451 0.
137.408 -813.114 0.
148.601 -786.975 0.
230.214 -654.846 0.
270.334 -561.248 0.
465.986 -277.881 0.
33.1608 -521.828 0.
1.76257 -595.078 0.
110.687 -614.914 0.
61.6145 -729.419 0.
12.5418 -843.925 0.
163.36 -851.211 0.
140.814 -903.822 0.
118.268 -956.433 0.
119.658 -994.759 0.
100.261 -1040.03 0.
80.8643 -1085.3 0.
-211.463 -1283.12 0.
-252.649 -1379.21 0.
-116.561 -1400.72 0.
-165.367 -1514.59 0.
-214.174 -1628.45 0.
-276.259 -1720.99 0.
-280.619 -1731.16 0.
-284.979 -1741.33 0.
-136.352 -1684.73 0.
-139.655 -1692.44 0.
-142.958 -1700.14 0.
6.57702 -1596.01 0.
34.784 -1530.21 0.
1.40593 -1490.79 0.
-327.816 -1687.21 0.
-357.753 -1757.02 0.
-375.395 -1814.3 0.
-386.193 -1839.48 0.
-396.99 -1864.65 0.
-450.947 -1897.3 0.
-448.503 -1891.58 0.
-446.059 -1885.86 0.
-450.439 -1923.31 0.
-480.034 -1992.36 0.
-509.629 -2061.42 0.
-562.355 -2010.88 0.
-514.849 -1900.03 0.
-220.13 -1678.23 0.
-146.403 -1506.19 0.
-72.6765 -1334.15 0.
-59.1457 -1280.96 0.
-134.007 -1455.58 0.
-208.868 -1630.21 0.
-316.132 -1845.56 0.
-416.58 -2079.91 0.
-517.028 -2314.27 0.
-572.646 -2418.95 0.
-598.364 -2478.94 0.
-319.091 -2408.03 0.
-417.846 -2344.22 0.
-362.125 -2214.2 0.
-391.992 -2091.17 0.
-266.373 -1798.06 0.
-140.754 -1504.94 0.
-151.746 -1375.89 0.
-149.764 -1371.27 0.
-147.782 -1366.64 0.
-341.309 -1549.44 0.
-420.439 -1734.08 0.
-499.569 -1918.71 0.
-514.533 -1969.02 0.
-531.196 -2007.92 0.
-437.476 -1991.51 0.
-418.938 -1948.26 0.
-400.4 -1905 0.
-354.806 -1843.77 0.
-326.772 -1778.37 0.
-298.739 -1712.96 0.
-297.575 -1684.88 0.
-293.024 -1674.27 0.
-288.473 -1663.67 0.
-311.476 -1659.86 0.
-304.212 -1642.93 0.
37.0461 -1484.63 0.
-0.0592108 -1582.69 0.
-43.2032 -1683.35 0.
-177.611 -1787.43 0.
-140.399 -1700.61 0.
-103.188 -1613.79 0.
-334.955 -1662.04 0.
-320.036 -1627.24 0.
-305.117 -1592.43 0.
-193.119 -1481.85 0.
-151.862 -1385.59 0.
-110.604 -1289.33 0.
-84.9627 -1219.92 0.
-55.4327 -1151.04 0.
-68.2021 -1099.48 0.
-34.236 -1020.23 0.
-0.269843 -940.972 0.
63.6032 -860.662 0.
80.4336 -821.397 0.
97.2639 -782.133 0.
123.831 -727.549 0.
150.827 -664.538 0.
177.822 -601.527 0.
313.038 -486.5 0.
343.788 -414.768 0.
495.478 -233.799 0.
31.8776 -490.962 0.
0.481526 -564.212 0.
84.0431 -594.952 0.
34.9669 -709.45 0.
-14.1094 -823.949 0.
129.864 -834.15 0.
107.319 -886.762 0.
84.7748 -939.374 0.
83.8459 -978.707 0.
64.4463 -1023.97 0.
45.0467 -1069.24 0.
-178.199 -1237.45 0.
-219.391 -1333.53 0.
-57.2651 -1343.88 0.
-106.077 -1457.75 0.
-154.888 -1571.62 0.
-250.42 -1678.5 0.
-254.784 -1688.67 0.
-259.147 -1698.83 0.
-155.725 -1661.61 0.
-159.031 -1669.31 0.
-162.338 -1677.01 0.
-19.8486 -1575.95 0.
8.35278 -1510.14 0.
-28.8818 -1472.38 0.
-270.465 -1631.26 0.
-300.398 -1701.07 0.
-359.01 -1775.85 0.
-369.801 -1801.03 0.
-380.592 -1826.22 0.
-410.541 -1848.55 0.
-408.098 -1842.82 0.
-405.656 -1837.1 0.
-434.126 -1884.89 0.
-463.722 -1953.94 0.
-493.318 -2022.99 0.
-562.278 -1979.43 0.
-514.778 -1868.58 0.
-178.111 -1628.79 0.
-104.384 -1456.74 0.
-30.6562 -1284.7 0.
40.2363 -1206.95 0.
-34.6338 -1381.58 0.
-109.504 -1556.22 0.
-366.938 -1835.91 0.
-467.359 -2070.26 0.
-567.78 -2304.6 0.
-567.661 -2385.38 0.
-593.378 -2445.38 0.
-287.066 -2362.86 0.
-438.422 -2321.6 0.
-382.7 -2191.58 0.
-370.353 -2050.48 0.
-244.732 -1757.36 0.
-119.112 -1464.24 0.
-105.585 -1324.69 0.
-103.604 -1320.07 0.
-101.622 -1315.44 0.
-330.26 -1513.28 0.
-409.395 -1697.91 0.
-488.53 -1882.54 0.
-471.339 -1919.08 0.
-487.995 -1957.99 0.
-439.324 -1960.88 0.
-420.792 -1917.62 0.
-402.261 -1874.36 0.
-341.659 -1806.71 0.
-313.624 -1741.3 0.
-285.59 -1675.89 0.
-255.311 -1635.38 0.
-250.764 -1624.77 0.
-246.217 -1614.17 0.
-276.3 -1613.41 0.
-269.04 -1596.48 0.
16.64 -1461.97 0.
-6.7669 -1554.17 0.
-49.9102 -1654.82 0.
-186.298 -1759.72 0.
-149.083 -1672.9 0.
-111.867 -1586.09 0.
-302.416 -1616.68 0.
-287.492 -1581.87 0.
-272.569 -1547.07 0.
-159.17 -1435.88 0.
-117.91 -1339.62 0.
-76.6497 -1243.36 0.
-50.1263 -1173.57 0.
-20.5922 -1104.7 0.
-103.091 -1083.03 0.
-69.123 -1003.77 0.
-35.1547 -924.524 0.
43.8521 -837.708 0.
60.6843 -798.444 0.
77.5164 -759.18 0.
78.7572 -715.454 0.
105.751 -652.447 0.
132.745 -589.44 0.
342.61 -442.409 0.
373.361 -370.676 0.
2.15112 -1350.5 0.
-407.227 -1487 0.
-385.6 -1436.52 0.
-246.092 -1335.97 0.
-226.053 -1289.22 0.
-206.014 -1242.48 0.
-19.2931 -1152.23 0.
-33.9132 -1186.33 0.
-48.5333 -1220.44 0.
-50.5604 -1246.01 0.
-62.6709 -1274.26 0.
-74.7814 -1302.52 0.
-207.877 -1299.76 0.
-169.927 -1211.22 0.
82.5308 -1030.57 0.
121.612 -939.381 0.
160.693 -848.194 0.
110.728 -821.007 0.
107.101 -829.471 0.
103.475 -837.934 0.
180.491 -846.406 0.
143.362 -933.024 0.
106.233 -1019.64 0.
149.592 -1149.02 0.
59.5177 -1359.15 0.
-93.7238 -1596.36 0.
-218.949 -1565.59 0.
-173.157 -1458.71 0.
-175.12 -1393.04 0.
-180.226 -1404.91 0.
-185.332 -1416.77 0.
-243.546 -1470.11 0.
-271.262 -1534.77 0.
-298.979 -1599.43 0.
-317.586 -1593.99 0.
-292.45 -1535.33 0.
-267.314 -1476.67 0.
-383.113 -1584.79 0.
-421.238 -1673.7 0.
-206.965 -1665.69 0.
-302.804 -1889.33 0.
-398.644 -2112.97 0.
-372.049 -2187.47 0.
-313.561 -2051.01 0.
-255.072 -1914.54 0.
-364.1 -1789.84 0.
-248.521 -1520.14 0.
-132.942 -1250.44 0.
-37.7992 -1105.67 0.
-0.69946 -1019.09 0.
313.86 -813.83 0.
119.598 -1046.35 0.
41.2062 -1229.23 0.
-84.3786 -1440.33 0.
-181.513 -1667.01 0.
-278.648 -1893.68 0.
-465.958 -2089.74 0.
-482.055 -2127.28 0.
-498.152 -2164.83 0.
-551.579 -2053.11 0.
-438.331 -1788.9 0.
-325.083 -1524.68 0.
-288.649 -1504.53 0.
-299.07 -1528.86 0.
-283.308 -1542.07 0.
-294.457 -1568.11 0.
-305.607 -1594.16 0.
-231.219 -1555.21 0.
-198.846 -1479.71 0.
-166.472 -1404.2 0.
-134.199 -1389.66 0.
-158.739 -1446.94 0.
-183.279 -1504.23 0.
-232.786 -1551.44 0.
-243.455 -1576.37 0.
5.43691 -1487.27 0.
131.508 -1214.27 0.
246.486 -946.022 0.
224.382 -785.03 0.
230.816 -770.026 0.
237.25 -755.023 0.
29.0781 -849.541 0.
15.3304 -881.624 0.
1.58256 -913.706 0.
41.2567 -956.219 0.
1.89983 -1048.05 0.
-37.457 -1139.88 0.
-70.0696 -1222.16 0.
-105.549 -1304.93 0.
-272.157 -1431.56 0.
-257.881 -1398.24 0.
-243.605 -1364.92 0.
-163.393 -1302.25 0.
-147.408 -1264.94 0.
-131.423 -1227.64 0.
-167.871 -1244.81 0.
-180.934 -1275.3 0.
-193.997 -1305.79 0.
7.60454 -1220.91 0.
9.88449 -1215.59 0.
-30.9675 -1333.29 0.
-402.576 -1453.58 0.
-380.949 -1403.09 0.
-217.194 -1292.16 0.
-197.16 -1245.41 0.
-177.126 -1198.66 0.
15.7476 -1105.8 0.
1.1288 -1139.91 0.
-13.49 -1174.01 0.
-30.0681 -1205.82 0.
-42.179 -1234.08 0.
-54.2899 -1262.33 0.
-215.329 -1271.53 0.
-177.381 -1182.99 0.
69.7033 -1004.63 0.
108.785 -913.448 0.
147.867 -822.263 0.
102.307 -793.2 0.
98.6803 -801.662 0.
95.0534 -810.125 0.
200.643 -806.358 0.
163.518 -892.978 0.
126.392 -979.597 0.
175.735 -1106.41 0.
85.6652 -1316.55 0.
-72.3798 -1555.83 0.
-186.553 -1520.28 0.
-140.755 -1413.41 0.
-109.402 -1333.46 0.
-114.497 -1345.34 0.
-119.591 -1357.21 0.
-239.338 -1436.88 0.
-267.049 -1501.54 0.
-294.76 -1566.2 0.
-320.777 -1563.91 0.
-295.644 -1505.25 0.
-270.511 -1446.6 0.
-325.283 -1528.6 0.
-363.402 -1617.52 0.
-248.993 -1652.3 0.
-344.815 -1875.93 0.
-440.636 -2099.57 0.
-419.828 -2176.51 0.
-361.339 -2040.06 0.
-302.85 -1903.61 0.
-319.928 -1739.49 0.
-204.324 -1469.79 0.
-88.7196 -1200.08 0.
-55.891 -1082 0.
-18.7813 -995.421 0.
147.759 -853.53 0.
202.443 -979.386 0.
124.055 -1162.28 0.
-11.6567 -1377.76 0.
-108.783 -1604.45 0.
-205.909 -1831.13 0.
-560.045 -2098.67 0.
-576.152 -2136.2 0.
-592.258 -2173.73 0.
-504.927 -2001.71 0.
-391.678 -1737.49 0.
-278.429 -1473.27 0.
-287.105 -1472.44 0.
-297.528 -1496.77 0.
-305.745 -1520.25 0.
-316.903 -1546.29 0.
-328.061 -1572.32 0.
-204.555 -1512.39 0.
-172.186 -1436.88 0.
-139.817 -1361.37 0.
-104.768 -1345.65 0.
-129.319 -1402.93 0.
-153.87 -1460.21 0.
-193.802 -1503.32 0.
-204.477 -1528.25 0.
18.3185 -1450.37 0.
152.937 -1173.69 0.
267.907 -905.441 0.
248.882 -743.123 0.
255.315 -728.117 0.
261.748 -713.112 0.
36.307 -815.024 0.
22.5586 -847.105 0.
8.81021 -879.186 0.
27.5654 -930.66 0.
-11.7913 -1022.49 0.
-51.148 -1114.32 0.
-69.6153 -1190.54 0.
-105.092 -1273.32 0.
-252.357 -1391.67 0.
-238.081 -1358.35 0.
-223.805 -1325.03 0.
-130.623 -1256.78 0.
-114.635 -1219.48 0.
-98.648 -1182.18 0.
-138.133 -1200.64 0.
-151.193 -1231.13 0.
-164.252 -1261.62 0.
7.81088 -1189.39 0.
10.0897 -1184.08 0.
422.559 -179.968 0.
-13.3503 -523.278 0.
-38.948 -582.996 0.
78.8397 -625.117 0.
34.4558 -728.711 0.
-9.64692 -831.648 0.
155.463 -815.413 0.
154.85 -816.865 0.
146.847 -835.561 0.
122.706 -857.433 0.
111.992 -882.414 0.
101.975 -905.768 0.
-135.723 -1040.45 0.
-142.813 -1056.97 0.
71.0947 -945.467 0.
68.5321 -951.425 0.
93.8419 -892.349 0.
96.9046 -758.398 0.
139.601 -658.756 0.
241.324 -421.39 0.
320.443 -533.77 0.
199.448 -816.098 0.
262.073 -669.976 0.
189.378 -1092.92 0.
-25.6499 -1594.67 0.
80.0044 -1243.15 0.
-211.822 -1609.55 0.
-157.175 -1482.05 0.
81.3604 -982.137 0.
87.0124 -968.961 0.
105.668 -925.442 0.
-78.2686 -1037.61 0.
-101.725 -1092.34 0.
-117.83 -1129.92 0.
-153.702 -1136.56 0.
-182.786 -1204.41 0.
-217.696 -1285.85 0.
-290.522 -1526.39 0.
-376.95 -1728.07 0.
-375.846 -1836.97 0.
-461.486 -2036.89 0.
-416.685 -1932.44 0.
-199.779 -1540.68 0.
-128.395 -1374.16 0.
-82.1655 -1266.34 0.
-13.056 -1076.21 0.
104.137 -802.87 0.
196.22 -588.122 0.
174.571 -478.664 0.
211.651 -392.197 0.
124.558 -406.43 0.
504.286 -401.326 0.
406.178 -630.255 0.
246.272 -883.191 0.
185.076 -1026.07 0.
117.861 -1182.99 0.
-376.499 -1459.81 0.
-423.812 -1570.12 0.
-620.05 -2027.93 0.
-556.721 -2180.15 0.
-462.562 -1960.45 0.
-304.976 -1592.75 0.
-306.301 -1488.92 0.
-236.784 -1326.71 0.
-186.351 -1167.5 0.
-152.61 -1088.74 0.
-133.46 -1044.02 0.
45.6707 -947.919 0.
50.7741 -936.024 0.
33.556 -976.214 0.
1.69152 -1121.9 0.
-119.513 -1404.69 0.
-141.116 -1455.06 0.
-206.439 -1575.64 0.
-92.5882 -1309.97 0.
182.45 -1078.86 0.
100.773 -1304.85 0.
383.984 -644.013 0.
457.57 -271.405 0.
163.619 -957.3 0.
247.929 -760.587 0.
51.1189 -762.882 0.
24.0611 -826.041 0.
32.354 -806.715 0.
51.0193 -818.362 0.
26.2844 -876.095 0.
13.6902 -905.501 0.
54.4955 -870.684 0.
51.1614 -878.491 0.
-52.9891 -933.106 0.
-2.03612 -814.225 0.
11.7052 -782.171 0.
86.9397 -780.383 0.
109.771 -727.097 0.
107.102 -733.31 0.
86.9111 -700.934 0.
134.782 -589.208 0.
151.96 -549.102 0.
337.969 -387.92 0.
367.632 -318.651 0.
438.537 -82.0847 0.
52.0858 -332.855 0.
6.56408 -439.05 0.
78.3712 -494.107 0.
35.5905 -593.946 0.
-7.19027 -693.785 0.
173.062 -669.164 0.
165.912 -685.866 0.
158.763 -702.568 0.
161.289 -715.022 0.
154.189 -731.58 0.
147.089 -748.139 0.
-44.3741 -878.783 0.
-72.8391 -945.171 0.
96.1833 -934.42 0.
25.4803 -1099.37 0.
-45.2228 -1264.32 0.
-184.658 -1430.73 0.
-209.267 -1488.13 0.
-233.876 -1545.53 0.
-98.7601 -1499.62 0.
-89.7348 -1478.55 0.
-80.7095 -1457.48 0.
113.939 -1284.75 0.
172.339 -1148.47 0.
169.558 -1038.41 0.
-98.3414 -1275.92 0.
-164.054 -1429.25 0.
-229.399 -1557.99 0.
-235.24 -1571.62 0.
-241.081 -1585.24 0.
-281.056 -1588.94 0.
-256.979 -1532.72 0.
-232.901 -1476.5 0.
-342.836 -1575.1 0.
-396.38 -1700.03 0.
-449.923 -1824.95 0.
-406.823 -1770.4 0.
-378.224 -1703.66 0.
-215.42 -1570.16 0.
-139.541 -1393.02 0.
-63.6628 -1215.88 0.
-24.7974 -1126.88 0.
-63.9792 -1218.31 0.
-103.161 -1309.74 0.
-202.923 -1485.87 0.
-297.997 -1707.7 0.
-393.071 -1929.53 0.
-412.432 -2023.22 0.
-442.771 -2094.06 0.
-369.21 -2120.34 0.
-297.029 -1979.48 0.
-239.326 -1844.84 0.
-214.152 -1712.26 0.
-128.659 -1512.71 0.
-43.1647 -1313.16 0.
-155.688 -1265.88 0.
-149.052 -1250.52 0.
-142.417 -1235.16 0.
-201.618 -1376.64 0.
-295.772 -1596.32 0.
-389.926 -1816.01 0.
-482.099 -1823.76 0.
-452.58 -1754.88 0.
-354.482 -1656.33 0.
-323.641 -1584.39 0.
-292.799 -1512.46 0.
-176.527 -1445.95 0.
-210.491 -1525.2 0.
-244.454 -1604.46 0.
-279.028 -1606.29 0.
-240.757 -1516.98 0.
-202.485 -1427.66 0.
-91.7256 -1306.23 0.
-52.5959 -1214.94 0.
231.722 -1020.93 0.
184.638 -1185.23 0.
108.99 -1361.76 0.
-127.918 -1564.52 0.
-107.253 -1516.31 0.
-86.5878 -1468.09 0.
-252.96 -1488.97 0.
-219.289 -1410.43 0.
-185.618 -1331.89 0.
-86.5038 -1184.94 0.
-21.7688 -1033.91 0.
42.9663 -882.882 0.
95.7228 -796.519 0.
126.025 -725.848 0.
29.0668 -714.589 0.
40.3043 -688.378 0.
51.5419 -662.167 0.
124.237 -611.265 0.
133.106 -590.564 0.
141.976 -569.863 0.
94.5777 -546.695 0.
127.654 -469.49 0.
160.731 -392.285 0.
339.895 -274.519 0.
358.489 -231.082 0.
423.216 -57.2354 0.
48.7439 -302.914 0.
3.21865 -409.105 0.
25.4888 -485.397 0.
-17.2937 -585.225 0.
-60.0762 -685.054 0.
134.335 -654.341 0.
127.185 -671.043 0.
120.035 -687.744 0.
150.273 -688.34 0.
143.174 -704.896 0.
136.075 -721.451 0.
-0.848425 -828.716 0.
-29.3147 -895.105 0.
137.605 -885.261 0.
66.9001 -1050.21 0.
-3.8047 -1215.16 0.
-160.1 -1388.78 0.
-184.71 -1446.18 0.
-209.32 -1503.58 0.
-88.6839 -1463.86 0.
-79.6593 -1442.78 0.
-70.6347 -1421.71 0.
138.727 -1242.72 0.
197.124 -1106.43 0.
201.715 -993.207 0.
-117.989 -1252.96 0.
-183.688 -1406.29 0.
-291.855 -1553.33 0.
-297.682 -1566.97 0.
-303.51 -1580.61 0.
-223.374 -1532.76 0.
-199.288 -1476.55 0.
-175.202 -1420.34 0.
-327.689 -1537.17 0.
-381.229 -1662.1 0.
-434.769 -1787.03 0.
-404.618 -1738.03 0.
-376.024 -1671.29 0.
-141.816 -1507.18 0.
-65.9232 -1330.04 0.
9.96951 -1152.9 0.
-11.2575 -1089.67 0.
-50.4379 -1181.1 0.
-89.6183 -1272.52 0.
-204.464 -1455.1 0.
-299.531 -1676.93 0.
-394.597 -1898.76 0.
-302.972 -1944.87 0.
-333.304 -2015.72 0.
-485.112 -2138.59 0.
-434.936 -2007.16 0.
-377.259 -1872.51 0.
-327.955 -1729.6 0.
-242.462 -1530.09 0.
-156.968 -1330.57 0.
30.8534 -1154.54 0.
37.4837 -1139.16 0.
44.1141 -1123.79 0.
-171.754 -1332.4 0.
-265.908 -1552.09 0.
-360.062 -1771.77 0.
-504.964 -1802.13 0.
-475.444 -1733.26 0.
-286.921 -1595.95 0.
-256.082 -1524 0.
-225.242 -1452.05 0.
-170.91 -1412.13 0.
-204.879 -1491.38 0.
-238.849 -1570.64 0.
-352.441 -1606.37 0.
-314.192 -1517.05 0.
-275.943 -1427.73 0.
-76.1154 -1268.16 0.
-36.9862 -1176.87 0.
279.973 -968.806 0.
241.183 -1129.54 0.
165.527 -1306.08 0.
-149.776 -1542.47 0.
-129.112 -1494.25 0.
-108.449 -1446.04 0.
-227.787 -1446.77 0.
-194.115 -1368.23 0.
-160.444 -1289.69 0.
-46.0249 -1136.18 0.
18.7109 -985.15 0.
83.4467 -834.121 0.
123.784 -753.083 0.
154.088 -682.414 0.
31.3553 -682.194 0.
42.593 -655.985 0.
53.8306 -629.776 0.
97.6365 -591.24 0.
106.508 -570.541 0.
115.38 -549.843 0.
39.4821 -538.901 0.
72.556 -461.702 0.
105.63 -384.502 0.
299.214 -260.535 0.
317.809 -217.101 0.
-8.99452 -984.747 0.
-311.799 -1125.13 0.
-316.627 -1136.4 0.
-253.928 -1115.23 0.
-250.058 -1106.18 0.
-246.188 -1097.13 0.
-35.7389 -1012.98 0.
-48.3951 -1042.5 0.
-61.0513 -1072.02 0.
-22.2618 -1080.03 0.
-35.4287 -1110.74 0.
-48.5955 -1141.45 0.
-131.312 -1131.95 0.
-102.126 -1063.83 0.
114.416 -913.204 0.
155.64 -817.02 0.
196.863 -720.835 0.
129.688 -705.048 0.
114.975 -739.377 0.
100.262 -773.706 0.
183.173 -797.926 0.
137.903 -903.558 0.
92.6342 -1009.19 0.
180.045 -1094.06 0.
109.761 -1258.09 0.
-32.6392 -1453.01 0.
-179.899 -1389.44 0.
-111.764 -1230.4 0.
-115.118 -1139.65 0.
-139.99 -1197.6 0.
-164.863 -1255.56 0.
-136.913 -1299 0.
-171.628 -1380.01 0.
-206.344 -1461.02 0.
-298.281 -1448.61 0.
-238.88 -1309.99 0.
-179.479 -1171.38 0.
-186.617 -1245.03 0.
-236.554 -1361.54 0.
-97.9674 -1401.19 0.
-168.612 -1566.09 0.
-239.258 -1730.98 0.
-336.128 -1835.68 0.
-292.963 -1734.96 0.
-249.799 -1634.24 0.
-256.249 -1546.74 0.
-205.313 -1427.86 0.
-154.377 -1308.99 0.
87.7173 -1134.56 0.
120.814 -1057.3 0.
-191.627 -1128.19 0.
-140.221 -1180.92 0.
-179.475 -1272.5 0.
-189.385 -1368.27 0.
-267.973 -1551.64 0.
-346.561 -1735 0.
-187.963 -1748.59 0.
-186.642 -1745.48 0.
-185.322 -1742.37 0.
-321.306 -1670.87 0.
-220.472 -1435.59 0.
-119.637 -1200.31 0.
-290.297 -1288.83 0.
-310.906 -1336.94 0.
-185.319 -1322.71 0.
-207.48 -1374.42 0.
-229.642 -1426.13 0.
-192.474 -1408.16 0.
-146.695 -1301.36 0.
-100.917 -1194.56 0.
-172.426 -1190.08 0.
-175.007 -1196.22 0.
-177.589 -1202.36 0.
-58.2354 -1233.15 0.
-112.257 -1359.25 0.
86.2113 -1373.42 0.
255.083 -1086.3 0.
367.809 -823.24 0.
173.996 -735.291 0.
189.428 -699.284 0.
204.861 -663.278 0.
73.9062 -717.079 0.
58.0135 -754.157 0.
42.1207 -791.235 0.
73.7024 -846.135 0.
28.4542 -951.715 0.
-16.794 -1057.3 0.
-19.7909 -1098.35 0.
-38.1051 -1141.08 0.
-215.632 -1246.36 0.
-211.18 -1235.97 0.
-206.728 -1225.58 0.
-169.304 -1191.92 0.
-151.282 -1149.87 0.
-133.259 -1107.82 0.
-220.242 -1111.31 0.
-202.675 -1070.35 0.
-185.107 -1029.39 0.
4.51055 -894.623 0.
35.2041 -823.05 0.
-46.3734 -969.358 0.
-295.035 -1086.52 0.
-299.864 -1097.78 0.
-191.532 -1057.07 0.
-187.666 -1048.01 0.
-183.8 -1038.95 0.
-3.99027 -967.954 0.
-16.6453 -997.478 0.
-29.3004 -1027 0.
10.7402 -1034.48 0.
-2.42532 -1065.19 0.
-15.5909 -1095.9 0.
-142.892 -1105.47 0.
-113.706 -1037.35 0.
78.3791 -897.185 0.
119.602 -801.006 0.
160.826 -704.827 0.
130.262 -673.391 0.
115.547 -707.717 0.
100.832 -742.044 0.
172.53 -771.098 0.
127.262 -876.724 0.
81.9938 -982.35 0.
132.965 -1082.89 0.
62.6874 -1246.91 0.
-54.3215 -1430.95 0.
-135.747 -1339.1 0.
-67.5987 -1180.06 0.
-19.3954 -1067.2 0.
-44.2572 -1125.17 0.
-69.1189 -1183.14 0.
-196.281 -1293.01 0.
-230.991 -1374.02 0.
-265.701 -1455.03 0.
-301.516 -1418.52 0.
-242.117 -1279.92 0.
-182.717 -1141.31 0.
-139.482 -1193.4 0.
-189.427 -1309.91 0.
-143.698 -1389.36 0.
-214.34 -1554.25 0.
-284.983 -1719.14 0.
-328.365 -1800.93 0.
-285.207 -1700.2 0.
-242.05 -1599.48 0.
-251.837 -1513.41 0.
-200.9 -1394.53 0.
-149.963 -1275.66 0.
116.26 -1090.91 0.
149.361 -1013.65 0.
-297.423 -1142.06 0.
-112.433 -1137.56 0.
-151.674 -1229.16 0.
-78.2718 -1289.23 0.
-156.859 -1472.61 0.
-235.447 -1656 0.
-256.985 -1746.74 0.
-255.664 -1743.64 0.
-254.343 -1740.53 0.
-330.038 -1643.18 0.
-229.197 -1407.91 0.
-128.356 -1172.64 0.
-247.185 -1238.89 0.
-267.792 -1287.01 0.
-259.29 -1322.97 0.
-281.454 -1374.67 0.
-303.618 -1426.36 0.
-222.155 -1389.48 0.
-176.385 -1282.68 0.
-130.615 -1175.88 0.
-60.3957 -1110.69 0.
-62.9959 -1116.81 0.
-65.5961 -1122.94 0.
-34.1572 -1191.45 0.
-88.1898 -1317.54 0.
78.2644 -1345.47 0.
219.708 -1070.11 0.
332.428 -807.061 0.
174.4 -703.698 0.
189.834 -667.694 0.
205.268 -631.689 0.
54.8454 -693.815 0.
38.9538 -730.892 0.
23.0622 -767.968 0.
54.9198 -822.723 0.
9.67092 -928.299 0.
-35.578 -1033.88 0.
-3.86816 -1060.1 0.
-22.181 -1102.82 0.
-197.38 -1207.12 0.
-192.93 -1196.73 0.
-188.48 -1186.35 0.
-132.888 -1144.89 0.
-114.863 -1102.85 0.
-96.8389 -1060.8 0.
-167.511 -1057.29 0.
-149.94 -1016.33 0.
-132.37 -975.375 0.
21.6738 -855.86 0.
52.3674 -784.287 0.
236.823 -205.42 0.
-7.6851 -417.111 0.
-32.5848 -475.179 0.
90.4481 -486.41 0.
54.3186 -570.736 0.
11.5572 -670.536 0.
131.606 -680.951 0.
112.813 -724.808 0.
89.0558 -780.247 0.
164.378 -708.05 0.
147.593 -747.2 0.
119.958 -811.661 0.
-68.7343 -879.223 0.
-59.9647 -858.727 0.
66.9505 -823.611 0.
72.4545 -810.752 0.
89.3344 -771.356 0.
101.112 -711.14 0.
65.8421 -793.412 0.
216.946 -440.817 0.
321.34 -372.164 0.
181.14 -699.309 0.
51.309 -1002.25 0.
-5.1342 -1284.04 0.
83.8703 -1076.44 0.
-34.8147 -1258.75 0.
-120.07 -1355.28 0.
-57.5254 -1209.36 0.
147.302 -829.174 0.
116.753 -900.42 0.
141.511 -842.612 0.
-107.577 -941.484 0.
-137.07 -1010.32 0.
-176.144 -1101.51 0.
-203.918 -1153.16 0.
-215.794 -1180.87 0.
-232.555 -1219.98 0.
-198.908 -1390.51 0.
-237.533 -1480.56 0.
-182.786 -1362.22 0.
-151.848 -1290.08 0.
-128.757 -1236.25 0.
-83.5596 -1213.17 0.
-35.6707 -1101.38 0.
-20.0467 -1064.88 0.
-46.1476 -1010.62 0.
3.74787 -894.209 0.
41.7392 -805.573 0.
342.346 -586.589 0.
387.435 -481.376 0.
-76.2047 -586.464 0.
132.366 -587.997 0.
67.1802 -740.162 0.
203.61 -811.818 0.
150.171 -936.556 0.
82.5024 -1094.5 0.
-98.4172 -1213.99 0.
-89.7829 -1193.81 0.
-87.9102 -1189.41 0.
-195.395 -1281.06 0.
-253.334 -1416.31 0.
-218.817 -1335.82 0.
-282.691 -1372.52 0.
-242.711 -1279.28 0.
-270.554 -1176.91 0.
-234.747 -1093.33 0.
-210.403 -1036.49 0.
-54.3883 -910.056 0.
-1.16308 -785.853 0.
-7.87327 -801.503 0.
70.6355 -986.99 0.
6.32156 -1137.07 0.
29.5312 -1082.9 0.
-30.9129 -1198.44 0.
-25.3325 -1185.36 0.
138.618 -1064.38 0.
233.767 -938.547 0.
298.195 -788.162 0.
251.491 -493.155 0.
233.391 -535.388 0.
258.283 -477.296 0.
65.9465 -600.212 0.
-24.3628 -810.965 0.
-34.0482 -833.598 0.
20.7282 -835.127 0.
16.1625 -845.811 0.
32.1337 -808.577 0.
133.095 -739.809 0.
131.083 -744.553 0.
-20.5787 -798.322 0.
30.1457 -679.972 0.
14.0343 -717.574 0.
77.858 -691.362 0.
106.862 -623.685 0.
125.209 -580.874 0.
79.4844 -550.043 0.
100.531 -500.903 0.
112.237 -473.559 0.
244.761 -336.488 0.
271.254 -274.65 0.
280.623 -107.633 0.
43.8742 -269.862 0.
11.4609 -345.453 0.
89.5227 -376.432 0.
50.4041 -467.728 0.
11.2854 -559.024 0.
141.142 -562.108 0.
121.412 -608.156 0.
101.681 -654.205 0.
160.245 -652.034 0.
152.418 -670.294 0.
144.591 -688.554 0.
-8.8306 -798.82 0.
-34.5689 -858.838 0.
72.3428 -864.482 0.
32.3384 -957.797 0.
-7.66599 -1051.11 0.
-90.807 -1146.44 0.
-103.936 -1177.05 0.
-117.065 -1207.67 0.
-13.1135 -1163.51 0.
-2.76785 -1139.34 0.
7.57775 -1115.18 0.
70.5863 -1052.41 0.
92.1315 -1002.15 0.
82.7359 -965.142 0.
-97.6345 -1166.57 0.
-163.765 -1320.91 0.
-192.111 -1424.32 0.
-172.224 -1377.95 0.
-152.337 -1331.58 0.
-256.069 -1342.08 0.
-240.635 -1306.04 0.
-225.2 -1270.01 0.
-255.353 -1351.33 0.
-317.934 -1497.33 0.
-380.516 -1643.34 0.
-305.011 -1576.42 0.
-276.158 -1509.09 0.
-118.905 -1378.5 0.
-48.7282 -1214.66 0.
21.4487 -1050.82 0.
2.55695 -989.792 0.
-30.1632 -1066.15 0.
-62.8833 -1142.51 0.
-158.153 -1273.09 0.
-217.049 -1410.52 0.
-275.945 -1547.95 0.
-191.379 -1549.34 0.
-199.925 -1569.27 0.
-349.347 -1649.67 0.
-278.083 -1554.02 0.
-243.894 -1474.29 0.
-56.9511 -1323.51 0.
-9.66419 -1213.18 0.
37.6227 -1102.85 0.
20.3041 -1059.6 0.
21.5233 -1056.8 0.
22.7426 -1054 0.
-119.632 -1215.03 0.
-198.403 -1398.89 0.
-277.174 -1582.75 0.
-417.036 -1603.68 0.
-385.013 -1528.95 0.
-354.894 -1455.68 0.
-325.967 -1388.22 0.
-297.04 -1320.76 0.
-189.518 -1260.61 0.
-223.739 -1340.48 0.
-257.96 -1420.34 0.
-204.095 -1418.28 0.
-197.374 -1402.55 0.
-190.654 -1386.82 0.
-83.8522 -1224.31 0.
-7.81703 -1046.86 0.
279.222 -781.971 0.
234.451 -926.154 0.
168.839 -1079.27 0.
-106.407 -1290.77 0.
-101.761 -1279.93 0.
-97.1156 -1269.09 0.
-226.692 -1292.63 0.
-195.016 -1218.75 0.
-163.339 -1144.87 0.
-25.8284 -995.955 0.
28.751 -868.633 0.
83.3303 -741.311 0.
151.727 -679.526 0.
164.907 -648.821 0.
9.26287 -689.572 0.
26.0833 -650.332 0.
42.9037 -611.092 0.
117.471 -544.265 0.
138.579 -495.016 0.
159.687 -445.767 0.
77.8092 -441.019 0.
98.5609 -392.563 0.
119.313 -344.107 0.
262.047 -236.794 0.
287.096 -178.327 0.
299.433 -68.1542 0.
46.2118 -237.463 0.
13.7963 -313.051 0.
47.1228 -363.228 0.
8.00492 -454.518 0.
-31.113 -545.808 0.
106.923 -545.36 0.
87.1947 -591.408 0.
67.4666 -637.456 0.
142.261 -628.336 0.
134.436 -646.596 0.
126.61 -664.857 0.
38.8415 -746.982 0.
13.1007 -807 0.
116.901 -813.986 0.
76.8952 -907.303 0.
36.8897 -1000.62 0.
-80.9025 -1110.77 0.
-94.0333 -1141.38 0.
-107.164 -1172 0.
9.26681 -1122.47 0.
19.6154 -1098.3 0.
29.9641 -1074.14 0.
58.204 -1026.3 0.
79.7443 -976.029 0.
48.2623 -948.482 0.
-152.894 -1158.88 0.
-219.013 -1313.22 0.
-279.93 -1430.53 0.
-260.034 -1384.17 0.
-240.137 -1337.82 0.
-210.675 -1291.16 0.
-195.231 -1255.13 0.
-179.788 -1219.1 0.
-197.247 -1294.97 0.
-259.837 -1440.99 0.
-322.427 -1587 0.
-320.728 -1551.7 0.
-291.879 -1484.37 0.
-14.8084 -1302.46 0.
55.3842 -1138.62 0.
125.577 -974.774 0.
7.01629 -956.465 0.
-25.7042 -1032.82 0.
-58.4248 -1109.18 0.
-140.989 -1234.3 0.
-199.878 -1371.74 0.
-258.766 -1509.18 0.
-324.389 -1574.92 0.
-332.932 -1594.84 0.
-176.244 -1544.07 0.
-257.141 -1513.63 0.
-222.971 -1433.88 0.
-92.3635 -1307.24 0.
-45.075 -1196.92 0.
2.2135 -1086.59 0.
102.169 -993.093 0.
103.386 -990.29 0.
104.603 -987.487 0.
-44.2737 -1151.29 0.
-123.052 -1335.16 0.
-201.831 -1519.02 0.
-443.667 -1583.63 0.
-411.641 -1508.9 0.
-294.357 -1398.32 0.
-265.44 -1330.84 0.
-236.524 -1263.36 0.
-154.329 -1214.12 0.
-188.56 -1293.97 0.
-222.792 -1373.83 0.
-298.601 -1427.41 0.
-291.894 -1411.67 0.
-285.187 -1395.93 0.
-118.733 -1207.88 0.
-42.7035 -1030.44 0.
324.837 -730.944 0.
245.373 -890.002 0.
179.765 -1043.12 0.
-109.511 -1260.67 0.
-104.868 -1249.83 0.
-100.226 -1238.99 0.
-205.19 -1252.02 0.
-173.514 -1178.13 0.
-141.837 -1104.25 0.
18.0552 -945.757 0.
72.6345 -818.431 0.
127.214 -691.106 0.
159.394 -644.832 0.
172.573 -614.127 0.
5.216 -659.899 0.
22.0355 -620.658 0.
38.855 -581.418 0.
105.264 -518.084 0.
126.372 -468.837 0.
147.481 -419.59 0.
35.0097 -427.952 0.
55.7589 -379.498 0.
76.5081 -331.043 0.
247.375 -211.669 0.
272.423 -153.204 0.
18.7283 -685.603 0.
-224.911 -834.512 0.
-247.738 -887.791 0.
-195.424 -900.719 0.
-197.606 -905.792 0.
-199.788 -910.865 0.
-38.5323 -852.617 0.
-48.7959 -876.548 0.
-59.0594 -900.478 0.
16.3028 -882.362 0.
10.3534 -896.24 0.
4.40387 -910.117 0.
-24.4644 -885.859 0.
-1.40107 -832.025 0.
142.664 -725.997 0.
167.027 -669.163 0.
191.39 -612.329 0.
103.384 -622.111 0.
97.6418 -635.535 0.
91.8995 -648.958 0.
197.587 -657.116 0.
150.911 -766.03 0.
104.236 -874.944 0.
72.0969 -936.894 0.
53.0909 -981.266 0.
-18.601 -1048.22 0.
-117.517 -1034.44 0.
-87.4304 -964.176 0.
-96.7254 -941.193 0.
-142.061 -1046.93 0.
-187.398 -1152.66 0.
-190.815 -1212.35 0.
-202.372 -1239.34 0.
-213.929 -1266.33 0.
-145.84 -1183.61 0.
-97.0826 -1069.85 0.
-48.3248 -956.083 0.
-128.256 -1063.2 0.
-178.166 -1179.69 0.
55.9527 -1174.09 0.
8.11641 -1285.74 0.
-39.7198 -1397.4 0.
-244.366 -1533.09 0.
-223.327 -1483.99 0.
-202.288 -1434.88 0.
-215.343 -1387.44 0.
-181.896 -1309.39 0.
-148.449 -1231.34 0.
-244.61 -1283.31 0.
-261.464 -1322.64 0.
-92.5063 -1282.29 0.
-177.886 -1329.35 0.
-183.376 -1342.16 0.
-97.8061 -1322.43 0.
-118.625 -1371.02 0.
-139.444 -1419.61 0.
-70.6128 -1415.1 0.
-74.306 -1423.69 0.
-77.9991 -1432.28 0.
-134.811 -1373.27 0.
-67.7902 -1216.85 0.
-0.769491 -1060.43 0.
-271.205 -1152.63 0.
-265.104 -1138.38 0.
-175.077 -1098.67 0.
-215.172 -1192.22 0.
-255.267 -1285.77 0.
-193.461 -1281.62 0.
-150.555 -1181.51 0.
-107.65 -1081.4 0.
-146.905 -1030.07 0.
-116.59 -959.439 0.
-86.2752 -888.808 0.
-13.8999 -918.024 0.
-62.1688 -1030.69 0.
209.658 -1003.78 0.
218.294 -889.097 0.
276.537 -753.154 0.
102.182 -729.834 0.
132.097 -660.038 0.
162.012 -590.241 0.
52.3003 -612.536 0.
44.7707 -630.09 0.
37.2411 -647.644 0.
122.944 -665.671 0.
84.1992 -756.058 0.
45.4539 -846.445 0.
46.5052 -884.799 0.
28.1426 -927.64 0.
-169.645 -1041.26 0.
-163.569 -1027.08 0.
-157.492 -1012.89 0.
-89.4915 -965.144 0.
-72.9966 -926.675 0.
-56.5017 -888.206 0.
-182.685 -902.73 0.
-158.794 -847.027 0.
-134.903 -791.324 0.
22.0694 -676.107 0.
47.5955 -616.526 0.
-7.25812 -665.335 0.
-230.902 -805.66 0.
-253.727 -858.939 0.
-150.143 -849.89 0.
-152.329 -854.959 0.
-154.515 -860.028 0.
-4.93241 -806.796 0.
-15.1952 -830.728 0.
-25.4581 -854.659 0.
25.9912 -846.799 0.
20.0432 -860.677 0.
14.0952 -874.555 0.
-48.1889 -864.57 0.
-25.1256 -810.739 0.
101.619 -712.132 0.
125.98 -655.3 0.
150.34 -598.469 0.
64.9922 -607.143 0.
59.2468 -620.563 0.
53.5014 -633.984 0.
180.452 -633.084 0.
133.783 -741.997 0.
87.1136 -850.911 0.
57.7913 -911.65 0.
38.7858 -956.018 0.
3.692 -1007.28 0.
-72.9557 -983.903 0.
-42.8596 -913.648 0.
-38.8229 -884.963 0.
-84.1561 -990.711 0.
-129.489 -1096.46 0.
-238.416 -1201.3 0.
-249.972 -1228.29 0.
-261.528 -1255.28 0.
-163.418 -1159.69 0.
-114.661 -1045.93 0.
-65.9039 -932.174 0.
-121.186 -1028.74 0.
-171.102 -1145.22 0.
22.0817 -1157.18 0.
-25.7562 -1268.83 0.
-73.594 -1380.48 0.
-225.459 -1493.54 0.
-204.418 -1444.45 0.
-183.376 -1395.35 0.
-220.967 -1358.41 0.
-187.521 -1280.36 0.
-154.074 -1202.31 0.
-185.404 -1226.51 0.
-202.257 -1265.84 0.
-21.7839 -1220.56 0.
-164.643 -1292.24 0.
-170.133 -1305.04 0.
-24.1884 -1259.45 0.
-45.0067 -1308.04 0.
-65.825 -1356.63 0.
-101.311 -1396.83 0.
-105.002 -1405.42 0.
-108.693 -1414.01 0.
-167.378 -1355.79 0.
-100.356 -1199.38 0.
-33.3345 -1042.96 0.
-241.653 -1108.52 0.
-235.543 -1094.27 0.
-226.773 -1089.37 0.
-266.866 -1182.91 0.
-306.96 -1276.46 0.
-221.01 -1262.01 0.
-178.11 -1161.9 0.
-135.21 -1061.79 0.
-62.8489 -962.664 0.
-32.5476 -892.017 0.
-2.24637 -821.37 0.
6.57877 -877.834 0.
-41.6985 -990.492 0.
229.934 -963.732 0.
172.885 -877.204 0.
231.123 -741.268 0.
99.2818 -699.678 0.
129.196 -629.883 0.
159.109 -560.089 0.
23.2784 -593.536 0.
15.7498 -611.09 0.
8.22129 -628.644 0.
74.7204 -654.865 0.
35.9784 -745.249 0.
-2.7635 -835.632 0.
47.688 -852.847 0.
29.327 -895.689 0.
-160.258 -1005.81 0.
-154.182 -991.63 0.
-148.106 -977.449 0.
-51.9017 -917.617 0.
-35.4052 -879.148 0.
-18.9087 -840.679 0.
-141.798 -853.798 0.
-117.905 -798.096 0.
-94.0116 -742.393 0.
5.38403 -651.847 0.
30.9085 -592.266 0.
177.783 -151.884 0.
-43.6382 -326.671 0.
-81.4027 -414.753 0.
56.0218 -423.358 0.
37.7431 -466.066 0.
4.92422 -542.7 0.
114.644 -560.587 0.
101.873 -590.426 0.
90.0668 -618.014 0.
151.588 -541.342 0.
148.795 -547.854 0.
131.985 -587.066 0.
14.6924 -641.49 0.
12.2205 -647.228 0.
83.2735 -645.141 0.
64.7097 -688.45 0.
63.3579 -691.609 0.
18.3092 -611.555 0.
80.1136 -467.354 0.
172.97 -250.71 0.
246.476 -415.058 0.
82.4761 -797.774 0.
21.1362 -940.932 0.
73.6527 -815.987 0.
103.54 -746.306 0.
29.756 -864.081 0.
-60.3685 -1008.05 0.
-20.5044 -915.025 0.
88.7306 -666.214 0.
42.0257 -775.118 0.
28.8277 -805.848 0.
-191.2 -968.943 0.
-217.259 -1029.76 0.
-243.032 -1089.91 0.
-175.037 -1121.79 0.
-193.716 -1165.39 0.
-189.976 -1156.68 0.
-214.258 -1227.95 0.
-121.441 -1011.34 0.
159.595 -740.383 0.
135.673 -796.201 0.
86.3141 -911.375 0.
-23.1469 -1026.21 0.
-3.11554 -979.488 0.
9.37465 -950.361 0.
-63.1925 -948.428 0.
-29.3078 -869.38 0.
4.57695 -790.332 0.
49.5382 -760.026 0.
51.0482 -756.525 0.
194.437 -714.383 0.
36.4215 -817.24 0.
24.9582 -843.97 0.
216.713 -806.259 0.
192.255 -863.337 0.
180.124 -891.653 0.
46.8981 -961.213 0.
62.7545 -924.2 0.
78.1336 -888.302 0.
12.8996 -841.738 0.
23.8534 -816.169 0.
14.1569 -838.782 0.
-278.304 -1218.84 0.
-303.113 -1276.8 0.
-313.832 -1162.55 0.
-302.051 -1135.05 0.
-287.19 -1100.36 0.
-123.039 -949.46 0.
-63.2787 -810.011 0.
-29.4843 -731.155 0.
91.3246 -731.637 0.
27.743 -880.055 0.
74.8543 -770.155 0.
18.0591 -858.618 0.
14.4109 -867.103 0.
249.941 -745.204 0.
178.556 -746.21 0.
211.841 -668.496 0.
136.026 -577.052 0.
180.581 -473.08 0.
287.248 -224.164 0.
91.9593 -346.563 0.
-11.9328 -588.987 0.
-40.4286 -655.494 0.
10.9609 -680.117 0.
1.35885 -702.525 0.
3.7596 -696.932 0.
136.291 -617.437 0.
156.551 -570.213 0.
10.0141 -595.265 0.
37.4863 -531.168 0.
4.03645 -609.229 0.
125.702 -543.564 0.
144.486 -499.699 0.
155.675 -473.552 0.
34.0695 -489.909 0.
67.5506 -411.743 0.
79.1627 -384.605 0.
133.127 -290.831 0.
175.274 -192.501 0.
203.205 -68.8888 0.
-1.82389 -217.019 0.
-33.8713 -291.756 0.
42.6417 -320.336 0.
10.152 -396.196 0.
-22.3377 -472.057 0.
96.5032 -469.803 0.
80.1703 -507.958 0.
63.8374 -546.113 0.
118.739 -549.669 0.
105.722 -580.037 0.
92.7045 -610.405 0.
-5.88172 -700.173 0.
-32.5308 -762.322 0.
26.6314 -787.988 0.
-2.66766 -856.334 0.
-31.9667 -924.68 0.
-135.624 -1011.55 0.
-143.383 -1029.62 0.
-151.142 -1047.69 0.
3.18126 -954.751 0.
35.3163 -879.762 0.
67.4514 -804.772 0.
25.3138 -830.298 0.
10.7724 -864.263 0.
-8.57239 -900.287 0.
-155.205 -1046.92 0.
-199.529 -1150.41 0.
-192.38 -1203.17 0.
-165.438 -1140.32 0.
-138.496 -1077.47 0.
-244.459 -1115.05 0.
-269.786 -1174.12 0.
-295.112 -1233.19 0.
-231.878 -1292.72 0.
-287.959 -1423.56 0.
-344.04 -1554.39 0.
-329.87 -1492.53 0.
-289.291 -1397.8 0.
-11.7056 -1201.06 0.
30.8935 -1101.64 0.
73.4926 -1002.21 0.
-19.424 -999.064 0.
-37.7202 -1041.76 0.
-56.0164 -1084.45 0.
-150.262 -1142.6 0.
-152.463 -1147.74 0.
-154.664 -1152.88 0.
-134.543 -1137.05 0.
-129 -1124.12 0.
41.3828 -1040.5 0.
-157.567 -1158.05 0.
-174.499 -1197.57 0.
31.6732 -1128.54 0.
45.1743 -1097.01 0.
58.6755 -1065.48 0.
24.2581 -1055.55 0.
36.6459 -1026.66 0.
49.0337 -997.768 0.
-88.399 -1122.11 0.
-145.705 -1255.86 0.
-203.01 -1389.61 0.
-413.119 -1493.47 0.
-414.48 -1496.68 0.
-388.525 -1474.19 0.
-327.311 -1331.39 0.
-266.097 -1188.6 0.
-179.119 -1083.02 0.
-192.105 -1113.33 0.
-205.091 -1143.64 0.
-159.287 -1150.01 0.
-173.524 -1183.18 0.
-187.761 -1216.36 0.
-148.287 -1104.67 0.
-81.3898 -948.513 0.
345.257 -640.113 0.
140.186 -775.15 0.
115.428 -832.912 0.
-30.5564 -940.192 0.
-50.7678 -987.351 0.
-70.9793 -1034.51 0.
-242.757 -1119.31 0.
-231.049 -1092.02 0.
-219.341 -1064.72 0.
-96.5175 -951.994 0.
-55.5092 -856.326 0.
-14.501 -760.658 0.
86.4488 -666.045 0.
112.002 -606.471 0.
-11.9197 -612.124 0.
8.25275 -565.072 0.
28.4252 -518.02 0.
119.339 -444.398 0.
133.856 -410.488 0.
148.373 -376.578 0.
32.6939 -389.949 0.
54.9766 -337.91 0.
77.2593 -285.871 0.
173.655 -183.93 0.
207.919 -103.997 0.
207.268 -35.7309 0.
8.31092 -181.285 0.
-23.7378 -256.02 0.
-11.3653 -312.109 0.
-43.8547 -387.964 0.
-76.3442 -463.818 0.
43.1116 -461.272 0.
26.7809 -499.426 0.
10.4501 -537.58 0.
99.3582 -526.571 0.
86.3418 -556.939 0.
73.3254 -587.307 0.
16.2474 -659.288 0.
-10.4026 -721.436 0.
48.7306 -747.111 0.
19.4319 -815.458 0.
-9.86683 -883.805 0.
-97.6651 -963.854 0.
-105.426 -981.924 0.
-113.186 -999.993 0.
5.15979 -922.447 0.
37.2966 -847.46 0.
69.4333 -772.472 0.
-10.1185 -814.089 0.
-24.6618 -848.048 0.
-46.4885 -885.128 0.
-234.774 -1049.62 0.
-279.083 -1153.11 0.
-239.086 -1191.74 0.
-212.141 -1128.9 0.
-185.197 -1066.06 0.
-215.903 -1071.36 0.
-241.226 -1130.43 0.
-266.549 -1189.51 0.
-194.449 -1245.24 0.
-250.53 -1376.08 0.
-306.611 -1506.92 0.
-315.6 -1454.97 0.
-275.02 -1360.25 0.
37.1139 -1148.69 0.
79.7176 -1049.27 0.
122.321 -949.848 0.
-12.7407 -964.786 0.
-31.0359 -1007.48 0.
-49.3311 -1050.18 0.
-138.194 -1106 0.
-140.385 -1111.14 0.
-142.577 -1116.28 0.
-145.975 -1110.51 0.
-140.432 -1097.58 0.
26.573 -1015.41 0.
-200.546 -1145.04 0.
-217.477 -1184.56 0.
-10.6236 -1115.26 0.
2.87288 -1083.73 0.
16.3694 -1052.19 0.
63.1949 -1007.44 0.
75.5815 -978.551 0.
87.9682 -949.656 0.
-48.3455 -1073.49 0.
-105.653 -1207.23 0.
-162.961 -1340.98 0.
-417.177 -1463.77 0.
-418.541 -1466.97 0.
-298.486 -1404.19 0.
-237.273 -1261.38 0.
-176.061 -1118.57 0.
-161.017 -1043.84 0.
-174.008 -1074.14 0.
-186.998 -1104.45 0.
-230.993 -1149.33 0.
-245.239 -1182.5 0.
-259.485 -1215.66 0.
-206.596 -1098.28 0.
-139.71 -942.127 0.
315.172 -621.566 0.
124.897 -750.264 0.
100.14 -808.026 0.
-27.3445 -907.367 0.
-47.558 -954.525 0.
-67.7715 -1001.68 0.
-230.596 -1082.68 0.
-218.887 -1055.39 0.
-207.179 -1028.09 0.
-68.9376 -908.781 0.
-27.9299 -813.112 0.
13.0777 -717.442 0.
67.3954 -642.813 0.
92.9467 -583.24 0.
-13.4411 -581.371 0.
6.73133 -534.32 0.
26.9038 -487.269 0.
75.9748 -431.567 0.
90.4917 -397.658 0.
105.009 -363.749 0.
-4.98289 -374.692 0.
17.2982 -322.654 0.
39.5792 -270.615 0.
183.656 -148.259 0.
217.92 -68.3279 0.
-44.1685 -574.655 0.
-201.698 -661.561 0.
-211.211 -683.75 0.
-189.102 -689.346 0.
-191.223 -694.255 0.
-193.344 -699.163 0.
-67.0112 -652.721 0.
-73.3934 -667.591 0.
-79.7757 -682.461 0.
19.2915 -643.424 0.
19.9517 -641.9 0.
20.612 -640.376 0.
10.7513 -622.969 0.
23.8483 -592.426 0.
116.814 -529.034 0.
121.859 -517.296 0.
126.903 -505.557 0.
71.6933 -528.472 0.
62.5799 -549.78 0.
53.4665 -571.087 0.
123.234 -594.187 0.
79.8624 -695.407 0.
36.4904 -796.627 0.
-36.2123 -816.336 0.
-15.4589 -767.914 0.
3.76059 -720.15 0.
-131.103 -754.025 0.
-118.511 -724.572 0.
-56.5526 -699.457 0.
-107.381 -818.06 0.
-158.209 -936.663 0.
-194.385 -999.36 0.
-185.485 -978.611 0.
-176.584 -957.861 0.
-30.9664 -868.707 0.
-14.212 -829.602 0.
2.54242 -790.496 0.
-81.1653 -899.245 0.
-126.652 -1005.4 0.
71.6318 -1002.2 0.
50.7087 -1051.04 0.
29.7857 -1099.88 0.
-110.76 -1176.79 0.
-94.8206 -1139.61 0.
-78.8813 -1102.43 0.
-155.596 -1135.82 0.
-168.8 -1166.62 0.
-182.004 -1197.41 0.
-192.46 -1229.53 0.
-207.348 -1264.27 0.
-147.274 -1266.99 0.
-263.081 -1257.01 0.
-231.808 -1184.02 0.
-8.02693 -1045.12 0.
-15.8472 -1063.36 0.
-23.6675 -1081.59 0.
-0.0277199 -1096.23 0.
-19.5755 -1141.8 0.
-39.1234 -1187.38 0.
-78.1959 -1148.83 0.
-25.2504 -1025.28 0.
27.695 -901.738 0.
-204.28 -958.008 0.
-185.237 -913.566 0.
-42.5389 -828.168 0.
-77.3435 -909.388 0.
-112.148 -990.609 0.
-177.653 -1044.97 0.
-150.916 -982.572 0.
-124.178 -920.174 0.
-131.004 -852.504 0.
-85.9274 -747.373 0.
-40.851 -642.242 0.
-54.1711 -689.54 0.
-93.9612 -782.437 0.
239.788 -713.985 0.
101.34 -742.159 0.
117.683 -703.993 0.
43.0704 -698.926 0.
73.5056 -627.896 0.
103.941 -556.867 0.
-32.3145 -574.301 0.
-21.9098 -549.989 0.
-11.5051 -525.676 0.
78.1804 -510.078 0.
55.4802 -563.019 0.
32.7799 -615.959 0.
31.5477 -643.104 0.
18.5983 -673.3 0.
-108.545 -748.83 0.
-107.503 -746.376 0.
-106.462 -743.921 0.
-72.0193 -718.358 0.
-57.827 -685.252 0.
-43.6347 -652.147 0.
-141.218 -668.516 0.
-128.54 -638.99 0.
-115.863 -609.464 0.
31.6956 -509.353 0.
52.7563 -460.265 0.
-66.4439 -552.805 0.
-188.614 -624.526 0.
-198.128 -646.714 0.
-142.022 -637.737 0.
-144.146 -642.643 0.
-146.27 -647.548 0.
-49.2478 -613.68 0.
-55.6292 -628.551 0.
-62.0106 -643.422 0.
-1.17373 -620.763 0.
-0.512305 -619.239 0.
0.149121 -617.715 0.
-29.5449 -608.787 0.
-16.4481 -578.247 0.
65.452 -519.608 0.
70.4958 -507.87 0.
75.5396 -496.132 0.
24.4176 -517.31 0.
15.3033 -538.615 0.
6.189 -559.92 0.
98.5773 -573.371 0.
55.2104 -674.591 0.
11.8434 -775.811 0.
-28.78 -781.717 0.
-8.02707 -733.294 0.
14.4431 -684.135 0.
-73.8494 -698.046 0.
-61.2526 -668.598 0.
-45.4575 -663.303 0.
-96.2865 -781.907 0.
-147.115 -900.512 0.
-213.853 -976.251 0.
-204.952 -955.503 0.
-196.051 -934.756 0.
-31.5672 -837.514 0.
-14.807 -798.419 0.
1.95309 -759.324 0.
-71.9436 -863.882 0.
-117.434 -970.038 0.
-15.4021 -1008.06 0.
-36.3171 -1056.9 0.
-57.232 -1105.75 0.
-101.834 -1141.55 0.
-85.8948 -1104.37 0.
-69.9558 -1067.19 0.
-145.881 -1100.21 0.
-159.085 -1131.01 0.
-172.289 -1161.81 0.
-134.417 -1173.21 0.
-149.3 -1207.96 0.
-348.998 -1322 0.
-220.209 -1207.19 0.
-188.939 -1134.2 0.
1.53541 -1009.57 0.
-6.28088 -1027.81 0.
-14.0972 -1046.05 0.
-70.0626 -1094.82 0.
-89.607 -1140.38 0.
-109.151 -1185.95 0.
-79.3067 -1117.87 0.
-26.3599 -994.327 0.
26.587 -870.781 0.
-176.812 -914.809 0.
-157.765 -870.368 0.
-80.2418 -812.886 0.
-115.054 -894.092 0.
-149.866 -975.298 0.
-202.797 -1024.32 0.
-176.062 -961.922 0.
-149.328 -899.521 0.
-91.3762 -804.135 0.
-46.3044 -698.997 0.
-1.23262 -593.858 0.
-17.7144 -642.468 0.
-57.5084 -735.362 0.
203.994 -697.923 0.
83.4928 -718.404 0.
99.8346 -680.239 0.
26.3135 -674.702 0.
56.7466 -603.674 0.
87.1797 -532.647 0.
-59.43 -554.502 0.
-49.0252 -530.191 0.
-38.6205 -505.88 0.
25.2768 -501.291 0.
2.5768 -554.228 0.
-20.1232 -607.164 0.
-3.21334 -626.552 0.
-16.1618 -656.748 0.
-130.9 -726.977 0.
-129.859 -724.522 0.
-128.818 -722.067 0.
-57.0205 -680.511 0.
-42.8278 -647.406 0.
-28.6351 -614.301 0.
-96.1245 -617.767 0.
-83.4453 -588.242 0.
-70.766 -558.716 0.
61.1384 -465.323 0.
82.199 -416.234 0.
37.9794 -234.716 0.
-48.3879 -291.117 0.
-69.6944 -340.825 0.
8.56882 -343.94 0.
-0.598857 -365.409 0.
-14.0092 -396.777 0.
47.8306 -389.673 0.
44.2395 -398.115 0.
30.7385 -429.679 0.
86.5351 -346.12 0.
100.465 -313.639 0.
91.0225 -335.696 0.
9.18983 -410.581 0.
-5.821 -445.602 0.
33.7716 -464.093 0.
1.52024 -539.383 0.
24.8023 -485.115 0.
14.2754 -419.539 0.
48.8376 -338.938 0.
68.8599 -292.264 0.
114.477 -457.985 0.
9.48805 -702.977 0.
8.91638 -704.327 0.
53.513 -572.476 0.
75.5951 -520.967 0.
64.0679 -544.8 0.
-32.6821 -679.635 0.
-15.9106 -640.429 0.
-25.5652 -606.454 0.
-69.4843 -708.885 0.
-96.1994 -771.191 0.
-192.788 -858.415 0.
-211.545 -902.217 0.
-228.531 -941.888 0.
-81.6149 -921.566 0.
-73.4525 -902.545 0.
-31.8151 -805.415 0.
-28.5532 -748.659 0.
-24.3847 -738.916 0.
17.7565 -733.41 0.
-3.81881 -783.793 0.
-32.5006 -850.759 0.
-6.15179 -903.879 0.
15.5817 -853.166 0.
39.7338 -796.809 0.
-23.0803 -800.848 0.
-16.0865 -784.554 0.
-17.2859 -787.377 0.
87.6091 -735.367 0.
81.4064 -749.86 0.
-179.7 -887.346 0.
-27.3749 -807.433 0.
-14.2382 -776.737 0.
123.121 -712.872 0.
115.375 -730.963 0.
96.2686 -775.561 0.
-33.9601 -845.828 0.
-41.4627 -863.296 0.
-47.8441 -878.149 0.
57.1557 -765.786 0.
98.0191 -670.458 0.
116.506 -627.344 0.
-112.626 -785.806 0.
-156.42 -888.044 0.
-164.97 -907.226 0.
-191.68 -969.507 0.
-180.368 -943.063 0.
-176.161 -882.707 0.
-125.88 -765.365 0.
-91.5879 -685.334 0.
-14.6354 -669.013 0.
-30.6914 -706.549 0.
14.2765 -601.688 0.
17.5911 -598.142 0.
3.14252 -631.898 0.
242.503 -524.957 0.
108.799 -594.015 0.
111.7 -587.223 0.
35.1789 -590.726 0.
75.841 -495.847 0.
173.244 -268.561 0.
39.8758 -239.714 0.
-38.1998 -421.873 0.
-52.5158 -455.266 0.
-27.4652 -491.979 0.
-26.1697 -488.918 0.
-20.9456 -476.698 0.
50.1279 -404.953 0.
66.3291 -367.172 0.
-4.1119 -357.288 0.
8.22756 -328.468 0.
-41.1859 -443.755 0.
72.4843 -375.516 0.
78.5301 -361.329 0.
84.5758 -347.143 0.
39.0124 -356.517 0.
44.4653 -343.717 0.
40.4293 -353.058 0.
155.988 -268.125 0.
162.173 -253.647 0.
72.5436 -155.163 0.
-35.7076 -227.771 0.
-49.6258 -260.236 0.
-26.5733 -276.817 0.
-39.8832 -307.949 0.
-53.1931 -339.08 0.
4.51977 -335.429 0.
-3.57852 -354.39 0.
-11.6768 -373.352 0.
36.6756 -371.928 0.
25.5663 -397.854 0.
14.457 -423.781 0.
-34.8889 -492.553 0.
-61.7616 -555.246 0.
-16.2784 -585.313 0.
-35.6764 -630.575 0.
-55.0745 -675.837 0.
-115.886 -734.335 0.
-128.219 -763.093 0.
-140.552 -791.851 0.
-29.7456 -725.367 0.
-1.28699 -658.978 0.
27.1716 -592.59 0.
-22.2951 -652.942 0.
-57.3545 -734.772 0.
-92.414 -816.603 0.
-175.705 -892.671 0.
-196.828 -941.985 0.
-180.531 -959.586 0.
-162.842 -918.284 0.
-145.154 -876.983 0.
-201.086 -911.583 0.
-236.755 -994.767 0.
-272.424 -1077.95 0.
-178.641 -1086.87 0.
-199.419 -1135.35 0.
-220.197 -1183.83 0.
-216.706 -1132.99 0.
-184.673 -1058.26 0.
-54.2563 -946.907 0.
-49.5734 -935.969 0.
-44.8905 -925.031 0.
-36.2078 -922.996 0.
-48.431 -951.517 0.
-60.6542 -980.038 0.
-111.745 -995.301 0.
-95.617 -957.674 0.
-79.4889 -920.047 0.
11.064 -844.72 0.
31.0823 -797.993 0.
-93.2303 -813.104 0.
-32.5055 -830.023 0.
-55.047 -882.621 0.
-5.27099 -900.971 0.
-20.1477 -935.676 0.
-35.0244 -970.381 0.
-86.3002 -994.612 0.
-70.4712 -957.699 0.
-54.6421 -920.786 0.
-36.2127 -943.174 0.
-67.773 -1016.81 0.
-99.3333 -1090.45 0.
-319.308 -1211.34 0.
-331.166 -1239.02 0.
-280.769 -1226.76 0.
-232.853 -1114.99 0.
-184.936 -1003.22 0.
-193.801 -941.65 0.
-185.768 -922.94 0.
-177.735 -904.231 0.
-152.551 -909.391 0.
-173.643 -958.59 0.
-194.735 -1007.79 0.
-169.193 -937.141 0.
-123.679 -830.915 0.
157.065 -624.688 0.
41.5468 -664.639 0.
46.5559 -652.934 0.
-24.4098 -682.27 0.
-39.5151 -717.508 0.
-54.6204 -752.745 0.
-214.246 -828.868 0.
-204.684 -806.566 0.
-195.121 -784.264 0.
-121.9 -706.963 0.
-90.7835 -634.351 0.
-59.667 -561.739 0.
-25.938 -500.293 0.
-1.87723 -444.177 0.
-72.0681 -430.995 0.
-59.6148 -401.933 0.
-47.1614 -372.871 0.
25.3962 -322.354 0.
31.1958 -308.742 0.
36.9953 -295.131 0.
8.6857 -296.45 0.
14.169 -283.576 0.
19.6522 -270.702 0.
156.416 -204.562 0.
159.781 -196.663 0.
89.6197 -116.416 0.
-36.9379 -196.883 0.
-50.8573 -229.347 0.
-88.3757 -271.902 0.
-101.686 -303.03 0.
-114.996 -334.159 0.
-60.5177 -331.88 0.
-68.6146 -350.841 0.
-76.7114 -369.803 0.
5.6403 -353.82 0.
-5.46792 -379.746 0.
-16.5761 -405.672 0.
-29.3402 -458.776 0.
-56.213 -521.469 0.
2.55684 -545.831 0.
-16.8423 -591.093 0.
-36.2414 -636.354 0.
-93.4809 -693.318 0.
-105.815 -722.074 0.
-118.149 -750.83 0.
-49.433 -702.368 0.
-20.9743 -635.983 0.
7.4844 -569.597 0.
-56.7141 -636.288 0.
-91.7691 -718.115 0.
-126.824 -799.943 0.
-222.918 -881.482 0.
-244.036 -930.798 0.
-168.492 -922.982 0.
-150.805 -881.681 0.
-133.119 -840.381 0.
-166.166 -865.192 0.
-201.835 -948.375 0.
-237.504 -1031.56 0.
-194.081 -1062.06 0.
-214.857 -1110.55 0.
-235.633 -1159.03 0.
-229.121 -1106.87 0.
-197.089 -1032.15 0.
-12.7674 -897.684 0.
-8.08122 -886.75 0.
-3.39509 -875.815 0.
-46.673 -896.053 0.
-58.8978 -924.573 0.
-71.1227 -953.093 0.
-101.683 -959.55 0.
-85.551 -921.929 0.
-69.4188 -884.307 0.
-9.55344 -822.128 0.
10.4606 -775.398 0.
-75.6971 -774.168 0.
-10.8216 -789.308 0.
-33.3685 -841.901 0.
-47.8868 -887.812 0.
-62.7647 -922.512 0.
-77.6427 -957.212 0.
-54.2813 -949.466 0.
-38.4543 -912.549 0.
-22.6274 -875.632 0.
-41.3459 -913.933 0.
-72.909 -987.566 0.
-104.472 -1061.2 0.
-332.77 -1185.68 0.
-344.628 -1213.35 0.
-237.083 -1176.64 0.
-189.17 -1064.86 0.
-141.256 -953.083 0.
-167.483 -898.935 0.
-159.451 -880.223 0.
-151.42 -861.511 0.
-179.256 -889.398 0.
-200.347 -938.592 0.
-221.438 -987.786 0.
-203.813 -920.58 0.
-158.307 -814.353 0.
123.03 -607.854 0.
12.63 -645.613 0.
17.6386 -633.911 0.
-32.7274 -654.412 0.
-47.8349 -689.647 0.
-62.9425 -724.882 0.
-199.71 -791.215 0.
-190.146 -768.914 0.
-180.582 -746.613 0.
-108.191 -669.689 0.
-77.0736 -597.078 0.
-45.956 -524.467 0.
-52.5692 -480.305 0.
-28.5091 -424.191 0.
-100.108 -411.6 0.
-87.6558 -382.538 0.
-75.2036 -353.476 0.
-43.6974 -320.538 0.
-37.8979 -306.927 0.
-32.0984 -293.317 0.
-43.5003 -287.388 0.
-38.0183 -274.514 0.
-32.5362 -261.639 0.
140.077 -180.121 0.
143.443 -172.223 0.
-128.956 -621.833 0.
-226.866 -628.959 0.
-207.857 -584.577 0.
-231.524 -561.32 0.
-219.753 -533.793 0.
-207.983 -506.266 0.
-146.775 -464.615 0.
-143.297 -456.459 0.
-139.82 -448.303 0.
-49.6446 -407.091 0.
-49.393 -406.522 0.
-49.1415 -405.952 0.
-38.579 -400.671 0.
-37.9578 -399.259 0.
63.7001 -355.616 0.
58.1872 -368.517 0.
52.6744 -381.417 0.
10.6253 -409.906 0.
5.43915 -422.046 0.
0.252997 -434.187 0.
29.1133 -464.294 0.
-7.38418 -549.462 0.
-43.8817 -634.63 0.
-76.7063 -628.284 0.
-51.9236 -570.455 0.
-27.1408 -512.625 0.
-113.951 -564.306 0.
-121.679 -582.318 0.
-36.3961 -570.738 0.
-69.8602 -648.857 0.
-103.324 -726.976 0.
-124.569 -766.461 0.
-117.983 -751.099 0.
-111.397 -735.737 0.
-59.9266 -715.77 0.
-64.9672 -727.511 0.
-70.0078 -739.252 0.
-108.461 -801.179 0.
-134.698 -862.38 0.
-16.6558 -857.851 0.
-23.7443 -874.412 0.
-30.8329 -890.973 0.
-66.6057 -907.313 0.
-53.7965 -877.422 0.
-40.9874 -847.531 0.
-63.2807 -858.462 0.
-74.9146 -885.59 0.
-86.5485 -912.718 0.
-72.0013 -913.367 0.
-73.3232 -916.465 0.
-194.191 -970.806 0.
-60.9786 -890.595 0.
-48.846 -862.29 0.
-54.0309 -844.876 0.
-50.044 -835.574 0.
-46.0572 -826.272 0.
-21.513 -828.241 0.
-41.205 -874.17 0.
-60.897 -920.099 0.
-62.7439 -914.404 0.
-47.9154 -879.806 0.
-33.0868 -845.208 0.
-198.127 -860.958 0.
-167.61 -789.772 0.
-26.7685 -679.19 0.
-32.3477 -692.197 0.
-37.9268 -705.204 0.
-108.413 -740.478 0.
-105.295 -733.194 0.
-102.177 -725.91 0.
-123.973 -695.982 0.
-89.7705 -616.162 0.
-55.5676 -536.342 0.
-71.3551 -557.737 0.
-90.3391 -602.044 0.
114.764 -549.646 0.
8.62109 -581.287 0.
15.8759 -564.329 0.
-4.73086 -549.408 0.
25.7064 -478.39 0.
56.1437 -407.372 0.
-50.9054 -412.915 0.
-41.1389 -390.095 0.
-31.3723 -367.275 0.
-2.2909 -360.786 0.
-11.7262 -382.758 0.
-21.1615 -404.729 0.
-81.8282 -443.479 0.
-88.1761 -458.244 0.
-166.369 -502.676 0.
-168.897 -508.573 0.
-171.426 -514.469 0.
-158.021 -510.944 0.
-156.722 -507.949 0.
-155.423 -504.954 0.
-164.683 -521.32 0.
-177.212 -550.609 0.
-189.74 -579.899 0.
-1.60142 -503.626 0.
-1.26136 -502.907 0.
-119.028 -586.166 0.
-204.352 -587.828 0.
-185.343 -543.446 0.
-184.418 -509.678 0.
-172.648 -482.149 0.
-160.879 -454.62 0.
-120.639 -421.964 0.
-117.16 -413.809 0.
-113.682 -405.654 0.
-64.5474 -382.048 0.
-64.2953 -381.479 0.
-64.0431 -380.909 0.
-94.2401 -393.087 0.
-93.6176 -391.678 0.
27.8532 -339.55 0.
22.3409 -352.451 0.
16.8286 -365.351 0.
-21.4219 -392.21 0.
-26.6085 -404.35 0.
-31.795 -416.489 0.
24.3252 -434.948 0.
-12.171 -520.116 0.
-48.6673 -605.284 0.
-66.0177 -592.243 0.
-41.2332 -534.415 0.
-16.4486 -476.586 0.
-99.4415 -526.656 0.
-107.169 -544.667 0.
-62.3389 -550.452 0.
-95.8019 -628.57 0.
-129.265 -706.688 0.
-129.684 -737.216 0.
-123.094 -721.856 0.
-116.504 -706.497 0.
-46.0277 -678.379 0.
-51.0652 -690.123 0.
-56.1027 -701.867 0.
-87.6022 -760.822 0.
-113.838 -822.025 0.
-78.6325 -852.976 0.
-85.7165 -869.542 0.
-92.8005 -886.107 0.
-59.7058 -872.916 0.
-46.8971 -843.025 0.
-34.0884 -813.135 0.
-52.3034 -822.325 0.
-63.9382 -849.452 0.
-75.5731 -876.579 0.
-73.3148 -882.504 0.
-74.6417 -885.597 0.
-244.944 -961.124 0.
-66.93 -861.714 0.
-54.7952 -833.412 0.
-36.5366 -805.945 0.
-32.5486 -796.644 0.
-28.5605 -787.343 0.
-70.0748 -817.625 0.
-89.7662 -863.55 0.
-109.458 -909.474 0.
-76.0326 -888.67 0.
-61.2069 -854.069 0.
-46.3811 -819.468 0.
-161.604 -813.892 0.
-131.087 -742.701 0.
-46.7547 -656.326 0.
-52.3356 -669.329 0.
-57.9166 -682.332 0.
-124.444 -715.917 0.
-121.329 -708.63 0.
-118.213 -701.343 0.
-131.576 -667.827 0.
-97.3746 -588.007 0.
-63.1729 -508.186 0.
-59.8383 -521.344 0.
-78.8203 -565.651 0.
90.7205 -528.524 0.
-6.49654 -556.338 0.
0.756563 -539.38 0.
-5.16479 -518.187 0.
25.2699 -447.169 0.
55.7045 -376.151 0.
-65.1153 -387.582 0.
-55.3487 -364.763 0.
-45.582 -341.944 0.
-47.9918 -348.926 0.
-57.4275 -370.895 0.
-66.8632 -392.865 0.
-131.792 -433.45 0.
-138.14 -448.214 0.
-171.674 -473.509 0.
-174.203 -479.405 0.
-176.732 -485.3 0.
-136.07 -470.098 0.
-134.771 -467.103 0.
-133.471 -464.108 0.
-131.28 -475.536 0.
-143.809 -504.824 0.
-156.338 -534.113 0.
39.3067 -454.654 0.
39.6473 -453.935 0.
15.8005 -258.445 0.
-74.2665 -295.5 0.
-72.7336 -291.936 0.
-56.5901 -268.898 0.
-56.386 -268.478 0.
-56.182 -268.058 0.
-42.7765 -258.607 0.
-38.5414 -248.768 0.
-34.3063 -238.93 0.
-23.2645 -226.289 0.
11.5411 -145.095 0.
10.4091 -147.756 0.
-79.5587 -221.78 0.
-100.336 -270.263 0.
15.3939 -268.856 0.
-16.8899 -344.22 0.
-11.2205 -331.043 0.
12.9517 -219.537 0.
21.2803 -200.148 0.
-2.1504 -254.856 0.
29.4837 -382.404 0.
-2.28329 -456.514 0.
39.4845 -359.048 0.
23.962 -371.216 0.
12.3986 -398.19 0.
7.75174 -409.025 0.
-101.719 -528.034 0.
-110.463 -548.394 0.
-97.7633 -551.993 0.
-113.969 -589.814 0.
-131.605 -631.002 0.
-124.914 -684.692 0.
-147.371 -737.134 0.
-136.051 -710.764 0.
-16.1503 -603.493 0.
35.0481 -484.027 0.
71.157 -399.772 0.
50.7738 -446.055 0.
17.0512 -524.722 0.
-39.6897 -612.435 0.
-48.5695 -633.183 0.
-67.0479 -676.328 0.
27.6227 -650.806 0.
34.2878 -635.252 0.
40.9528 -619.698 0.
32.591 -613.689 0.
41.3549 -593.216 0.
47.0559 -579.889 0.
52.7727 -555.762 0.
64.8241 -527.622 0.
-117.351 -590.923 0.
67.5538 -504.33 0.
71.4185 -495.32 0.
104.092 -479.921 0.
97.7075 -494.824 0.
83.4804 -528.025 0.
-35.705 -613.56 0.
-67.7784 -688.372 0.
-96.2063 -754.677 0.
-14.3213 -687.786 0.
21.8838 -603.308 0.
50.3422 -536.906 0.
-25.6639 -534.608 0.
-31.5692 -548.431 0.
-53.5496 -602.477 0.
-99.6055 -709.92 0.
-119.84 -757.113 0.
-158.307 -732.751 0.
-128.319 -662.755 0.
-94.8009 -584.524 0.
-105.585 -560.989 0.
-106.358 -562.842 0.
-66.613 -470.165 0.
-42.5021 -471.168 0.
-41.5841 -469.09 0.
132.017 -362.119 0.
36.7243 -395.325 0.
35.2501 -398.753 0.
26.3266 -412.445 0.
32.6938 -397.618 0.
107.609 -222.827 0.
15.7559 -140.343 0.
-15.453 -213.16 0.
-37.5268 -264.666 0.
-85.1512 -317.064 0.
-78.6564 -301.879 0.
-53.8649 -244.012 0.
-100.869 -235.182 0.
-87.7357 -204.54 0.
-59.5923 -170.606 0.
-77.1878 -211.643 0.
-87.6507 -236.051 0.
-20.4376 -210.571 0.
-29.9463 -232.714 0.
-39.75 -255.545 0.
-27.0297 -263.857 0.
-32.3697 -276.241 0.
-45.9341 -307.815 0.
152.54 -235.788 0.
130.363 -287.447 0.
52.1379 -198.416 0.
-71.9205 -241.491 0.
-66.7185 -229.362 0.
-89.6321 -231.422 0.
-89.4085 -230.954 0.
-89.1849 -230.486 0.
-75.6911 -220.959 0.
-71.4405 -211.085 0.
-67.19 -201.21 0.
-33.5439 -185.8 0.
-34.8969 -188.97 0.
-36.2499 -192.141 0.
-76.1905 -242.211 0.
-95.5757 -287.429 0.
12.6063 -278.943 0.
-12.3415 -337.146 0.
-37.2893 -395.35 0.
-83.797 -457.917 0.
-101.114 -498.301 0.
-118.431 -538.684 0.
-59.2347 -505.951 0.
-37.9072 -456.212 0.
-16.5797 -406.474 0.
-63.6911 -474.518 0.
-102.458 -565.01 0.
-141.226 -655.501 0.
-222.057 -706.801 0.
-230.627 -726.804 0.
-173.828 -716.211 0.
-176.12 -721.526 0.
-178.412 -726.841 0.
-156.31 -739.521 0.
-179.963 -794.685 0.
-203.617 -849.849 0.
-155.517 -857.677 0.
-165.972 -882.086 0.
-176.428 -906.496 0.
-131.382 -859.734 0.
-113.752 -818.574 0.
-102.445 -784.342 0.
-105.434 -791.283 0.
-108.423 -798.224 0.
-58.6763 -775.171 0.
-49.9078 -754.708 0.
-41.1393 -734.246 0.
-28.7933 -706.186 0.
-14.3038 -672.384 0.
0.185737 -638.581 0.
9.49794 -620.849 0.
14.6587 -608.825 0.
-132.723 -662.161 0.
-7.41921 -639.562 0.
-23.7371 -677.642 0.
-32.9724 -710.514 0.
-44.1937 -736.702 0.
-55.4151 -762.891 0.
-94.5399 -780.839 0.
-82.001 -751.602 0.
-69.4621 -722.365 0.
-34.9501 -718.206 0.
-49.4865 -752.144 0.
-64.0229 -786.081 0.
-186.48 -859.804 0.
-197.194 -884.818 0.
-202.712 -902.811 0.
-191.661 -877.028 0.
-180.61 -851.245 0.
-211.152 -835.147 0.
-187.516 -780.02 0.
-163.881 -724.892 0.
-195.383 -723.648 0.
-200.047 -734.543 0.
-204.711 -745.439 0.
-177.078 -692.434 0.
-148.228 -625.118 0.
7.50047 -503.694 0.
-46.2069 -504.189 0.
-34.3994 -476.605 0.
-28.0544 -459.988 0.
-36.653 -480.029 0.
-45.2515 -500.07 0.
-159.599 -539.219 0.
-137.5 -487.666 0.
-115.401 -436.114 0.
-102.777 -379.627 0.
-73.6276 -311.619 0.
-44.4778 -243.61 0.
-112.754 -246.848 0.
-100.812 -218.999 0.
-97.9728 -197.101 0.
-95.7183 -191.835 0.
-93.4638 -186.57 0.
-54.7559 -173.499 0.
-64.5835 -196.387 0.
-74.4111 -219.275 0.
-64.2433 -228.737 0.
-69.6095 -241.184 0.
-74.9758 -253.63 0.
120.42 -205.138 0.
98.2405 -256.806 0.
81.6562 -154.299 0.
-80.8962 -213.899 0.
-75.6954 -201.77 0.
-133.282 -218.697 0.
-133.059 -218.228 0.
-132.836 -217.76 0.
-119.272 -208.199 0.
-115.022 -198.325 0.
-110.771 -188.452 0.
-50.8953 -161.812 0.
-52.2481 -164.982 0.
-53.601 -168.153 0.
-44.8239 -197.361 0.
-64.21 -242.579 0.
30.9911 -239.665 0.
6.0417 -297.867 0.
-18.9077 -356.069 0.
-60.5668 -416.552 0.
-77.8843 -456.934 0.
-95.2019 -497.317 0.
-86.5861 -486.235 0.
-65.2603 -436.498 0.
-43.9345 -386.76 0.
-100.64 -458.954 0.
-139.404 -549.442 0.
-178.168 -639.93 0.
-259.321 -691.344 0.
-267.89 -711.346 0.
-164.069 -680.597 0.
-166.363 -685.911 0.
-168.656 -691.226 0.
-149.136 -705.023 0.
-172.789 -760.186 0.
-196.442 -815.35 0.
-176.8 -835.376 0.
-187.254 -859.784 0.
-197.709 -884.192 0.
-120.861 -823.795 0.
-103.232 -782.635 0.
-71.4658 -739.638 0.
-74.454 -746.58 0.
-77.4422 -753.522 0.
-82.9702 -754.144 0.
-74.2026 -733.682 0.
-65.4351 -713.22 0.
-39.2531 -679.244 0.
-24.7652 -645.443 0.
-10.2773 -611.642 0.
7.47914 -590.286 0.
12.6401 -578.264 0.
-63.653 -601.137 0.
-12.3146 -610.234 0.
-28.6328 -648.311 0.
-64.0421 -692.402 0.
-75.2628 -718.588 0.
-86.4835 -744.775 0.
-60.7639 -734.944 0.
-48.225 -705.706 0.
-35.686 -676.467 0.
-27.63 -683.64 0.
-42.1676 -717.575 0.
-56.7052 -751.51 0.
-196.88 -832.837 0.
-207.596 -857.849 0.
-210.871 -874.881 0.
-199.821 -849.098 0.
-188.771 -823.314 0.
-205.293 -801.211 0.
-181.658 -746.084 0.
-158.023 -690.957 0.
-203.579 -695.724 0.
-208.242 -706.618 0.
-212.906 -717.512 0.
-209.456 -674.898 0.
-180.609 -607.582 0.
-49.3806 -496.65 0.
-74.2916 -484.806 0.
-62.4838 -457.225 0.
-53.2033 -439.339 0.
-61.8026 -459.379 0.
-70.4019 -479.419 0.
-148.489 -503.047 0.
-126.389 -451.496 0.
-104.289 -399.945 0.
-74.9982 -336.324 0.
-45.8464 -268.316 0.
-16.6946 -200.308 0.
-104.676 -211.969 0.
-92.7333 -184.121 0.
-114.573 -172.79 0.
-112.319 -167.524 0.
-110.064 -162.259 0.
-99.7474 -161.332 0.
-109.574 -184.219 0.
-119.401 -207.106 0.
-111.76 -217.658 0.
-117.125 -230.103 0.
-122.491 -242.549 0.
81.5096 -190.331 0.
59.3325 -241.997 0.
-45.8998 -467.909 0.
-204.869 -495.357 0.
-182.872 -443.977 0.
-222.166 -422.397 0.
-209.009 -391.592 0.
-195.851 -360.788 0.
-174.53 -331.084 0.
-166.748 -312.844 0.
-158.965 -294.604 0.
-105.076 -269.278 0.
-107.308 -274.473 0.
-109.54 -279.667 0.
-77.046 -264.106 0.
-75.6658 -260.907 0.
16.9421 -218.316 0.
19.3716 -212.697 0.
21.8011 -207.079 0.
9.33565 -211.776 0.
5.61144 -220.504 0.
1.88724 -229.232 0.
-17.1259 -269.178 0.
-44.4729 -332.985 0.
-71.8198 -396.792 0.
-98.1548 -393.146 0.
-79.9802 -350.722 0.
-61.8057 -308.298 0.
-152.31 -376.409 0.
-167.764 -412.45 0.
-64.5236 -401.036 0.
-88.6703 -457.419 0.
-112.817 -513.801 0.
-91.9962 -535.048 0.
-97.2432 -547.309 0.
-102.49 -559.569 0.
-81.9236 -555.153 0.
-82.6992 -556.965 0.
-83.4749 -558.777 0.
-20.2016 -563.795 0.
-39.089 -607.853 0.
-42.4386 -638.364 0.
-28.0439 -604.798 0.
-13.6493 -571.232 0.
-22.1753 -554.287 0.
-18.565 -545.861 0.
-14.9547 -537.435 0.
1.51701 -528.012 0.
0.862686 -529.538 0.
0.208365 -531.065 0.
20.5795 -523.004 0.
20.3248 -523.62 0.
-15.7035 -539.57 0.
11.1408 -513.076 0.
19.0016 -494.72 0.
7.33954 -488.254 0.
6.92142 -489.218 0.
6.5033 -490.183 0.
26.6241 -499.526 0.
6.00239 -547.636 0.
-14.6194 -595.746 0.
-24.2012 -608.231 0.
-20.5838 -599.761 0.
-16.9664 -591.291 0.
-118.193 -612.331 0.
-105.429 -582.567 0.
-96.5141 -555.349 0.
-88.838 -537.431 0.
-81.162 -519.513 0.
-99.6521 -514.012 0.
-93.8236 -500.392 0.
-87.9951 -486.772 0.
-129.601 -476.799 0.
-108.106 -426.631 0.
-86.61 -376.463 0.
-116.131 -390.41 0.
-122.815 -406.015 0.
-37.2162 -381.595 0.
-49.6583 -371.112 0.
-41.3598 -351.741 0.
-31.9867 -322.503 0.
-1.53226 -251.434 0.
28.9222 -180.365 0.
-31.0621 -176.903 0.
-34.3747 -184.596 0.
-37.6873 -192.289 0.
-36.5379 -200.707 0.
-41.9705 -213.334 0.
-47.4031 -225.96 0.
-132.68 -273.045 0.
-138.199 -285.887 0.
-174.295 -311.301 0.
-178.014 -320.017 0.
-181.733 -328.732 0.
-179.302 -335.099 0.
-183.536 -345.069 0.
-187.77 -355.038 0.
-185.512 -366.145 0.
-193.442 -384.736 0.
-201.373 -403.327 0.
-27.9983 -395.121 0.
-70.0913 -493.377 0.
-26.5226 -428.185 0.
-171.665 -449.63 0.
-149.667 -398.25 0.
-150.549 -360.249 0.
-137.391 -329.443 0.
-124.232 -298.637 0.
-104.591 -269.656 0.
-96.8064 -251.417 0.
-89.0219 -233.178 0.
-74.371 -224.693 0.
-76.6022 -229.889 0.
-78.8334 -235.084 0.
-83.8469 -235.58 0.
-82.4657 -232.382 0.
-25.3805 -205.008 0.
-22.951 -199.39 0.
-20.5216 -193.773 0.
-24.9367 -195.033 0.
-28.6612 -203.76 0.
-32.3857 -212.487 0.
-14.3627 -236.592 0.
-41.7089 -300.398 0.
-69.0551 -364.204 0.
-90.7048 -358.486 0.
-72.53 -316.062 0.
-54.3552 -273.639 0.
-150.257 -344.111 0.
-165.711 -380.151 0.
-91.6708 -381.263 0.
-115.818 -437.642 0.
-139.966 -494.021 0.
-105.521 -509.416 0.
-110.767 -521.678 0.
-116.012 -533.94 0.
-88.9614 -526.741 0.
-89.736 -528.553 0.
-90.5105 -530.365 0.
-25.0239 -534.446 0.
-43.9091 -578.506 0.
-77.3668 -621.891 0.
-62.9736 -588.326 0.
-48.5805 -554.762 0.
-24.9698 -524.044 0.
-21.3592 -515.619 0.
-17.7485 -507.194 0.
-13.78 -503.138 0.
-14.4349 -504.665 0.
-15.0898 -506.192 0.
17.2426 -493.006 0.
16.9868 -493.623 0.
16.7306 -494.24 0.
6.05726 -483.826 0.
13.9192 -465.472 0.
34.5461 -445.159 0.
34.129 -446.125 0.
33.7118 -447.091 0.
-9.69538 -483.658 0.
-30.3155 -531.766 0.
-50.9356 -579.874 0.
-70.9512 -596.837 0.
-67.3346 -588.367 0.
-63.7179 -579.896 0.
-113.387 -578.859 0.
-100.623 -549.094 0.
-110.929 -530.102 0.
-103.254 -512.184 0.
-95.5785 -494.266 0.
-116.222 -489.68 0.
-110.393 -476.061 0.
-104.564 -462.441 0.
-137.045 -448.566 0.
-115.549 -398.399 0.
-94.0531 -348.231 0.
-120.848 -360.981 0.
-127.533 -376.585 0.
-44.8579 -353.441 0.
-47.1455 -338.605 0.
-38.8479 -319.233 0.
-44.6813 -296.548 0.
-14.2293 -225.479 0.
16.2227 -154.411 0.
-64.148 -159.638 0.
-67.4603 -167.33 0.
-70.7726 -175.023 0.
-79.6211 -187.723 0.
-85.0537 -200.348 0.
-90.4864 -212.973 0.
-111.688 -232.606 0.
-117.208 -245.447 0.
-125.475 -258.937 0.
-129.195 -267.652 0.
-132.915 -276.367 0.
-114.078 -275.699 0.
-118.313 -285.669 0.
-122.548 -295.638 0.
-130.731 -311.208 0.
-138.663 -329.798 0.
-146.594 -348.388 0.
-10.4211 -356.051 0.
-52.5135 -454.309 0.
106.615 -122.185 0.
-47.5632 -190.736 0.
-47.1422 -189.792 0.
-30.1419 -183.386 0.
-33.675 -191.659 0.
-37.2082 -199.933 0.
-28.3321 -193.328 0.
-20.4709 -175.018 0.
-12.6097 -156.708 0.
-28.5187 -145.088 0.
-16.0263 -115.937 0.
-1.31009 -81.5955 0.
-53.5923 -121.144 0.
-66.556 -151.34 0.
-60.8489 -175.699 0.
-82.9719 -227.332 0.
-78.0017 -215.791 0.
-40.8667 -135.49 0.
-14.3525 -73.6756 0.
-22.7378 -93.2723 0.
1.56112 -173.281 0.
-21.3057 -226.611 0.
-15.7668 -213.657 0.
-38.6975 -219.845 0.
-35.3854 -212.094 0.
-23.0654 -183.322 0.
-143.197 -299.839 0.
-154.086 -325.2 0.
-96.198 -308.31 0.
-127.935 -382.395 0.
-157.728 -451.97 0.
-104.81 -450.327 0.
-93.4355 -423.828 0.
-68.3476 -365.328 0.
-19.4155 -319.318 0.
-14.0745 -306.861 0.
-15.2731 -309.665 0.
48.8206 -321.212 0.
24.8287 -377.182 0.
-41.9881 -441.181 0.
-37.3034 -430.258 0.
-28.8751 -410.601 0.
20.0813 -382.199 0.
14.8417 -394.425 0.
11.495 -402.233 0.
2.60836 -404.42 0.
10.384 -386.275 0.
16.5902 -371.791 0.
70.3706 -331.413 0.
82.6104 -302.879 0.
93.0108 -278.638 0.
82.073 -265.61 0.
94.1462 -237.428 0.
144.606 -208.793 0.
132.479 -237.085 0.
120.352 -265.376 0.
1.69351 -356.38 0.
-30.5113 -431.526 0.
-62.7161 -506.673 0.
-90.3435 -521.291 0.
-77.3118 -490.864 0.
-63.6325 -458.926 0.
-41.0306 -387.371 0.
-9.22973 -313.199 0.
-24.2244 -268.582 0.
-27.6433 -276.549 0.
-47.688 -323.312 0.
-119.798 -434.769 0.
-142.132 -486.832 0.
-115.676 -425.053 0.
-117.065 -355.931 0.
-112.079 -344.317 0.
-97.1652 -309.576 0.
-113.063 -302.104 0.
-102.028 -276.435 0.
9.70479 -190.722 0.
-1.06299 -204.391 0.
-15.7271 -238.649 0.
-45.9315 -243.842 0.
-26.047 -197.468 0.
29.7308 -67.3297 0.
-54.6903 -43.0671 0.
-88.8652 -122.762 0.
-109.234 -170.259 0.
-129.711 -191.067 0.
-126.929 -184.586 0.
-113.689 -153.729 0.
-58.0408 -116.561 0.
-53.6111 -106.272 0.
-28.6108 -94.6211 0.
-41.5724 -124.855 0.
-49.0218 -142.228 0.
-17.0536 -141.948 0.
-23.3153 -156.538 0.
-29.5769 -171.129 0.
-45.0417 -183.565 0.
-45.5876 -184.844 0.
-46.1334 -186.122 0.
74.0091 -159.668 0.
59.1961 -194.124 0.
120.729 -83.0675 0.
-71.1353 -164.215 0.
-70.7133 -163.27 0.
-46.3678 -153.723 0.
-49.9002 -161.993 0.
-53.4326 -170.263 0.
-50.5462 -166.21 0.
-42.6847 -147.897 0.
-34.8231 -129.585 0.
-20.3952 -104.965 0.
-9.7824 -80.1991 0.
0.830372 -55.4332 0.
-12.9125 -77.6146 0.
-23.9446 -103.298 0.
12.7128 -108.61 0.
1.05932 -135.721 0.
-10.5941 -162.832 0.
-44.4926 -196.614 0.
-51.7439 -213.47 0.
-58.9953 -230.326 0.
-39.3328 -217.209 0.
-28.9422 -192.958 0.
-18.5516 -168.708 0.
-67.8286 -225.763 0.
-95.1889 -289.608 0.
-122.549 -353.452 0.
-217.244 -395.602 0.
-217.938 -397.197 0.
-155.843 -373.139 0.
-159.789 -382.356 0.
-163.736 -391.573 0.
-115.703 -391.321 0.
-134.853 -436.017 0.
-154.003 -480.713 0.
-131.277 -507.798 0.
-150.692 -553.098 0.
-170.106 -598.399 0.
-76.7604 -531.586 0.
-58.3584 -488.629 0.
-46.5123 -451.856 0.
-44.6375 -447.46 0.
-42.7628 -443.064 0.
-13.6719 -422.723 0.
-4.98888 -402.454 0.
3.69415 -382.184 0.
-2.63405 -371.501 0.
3.07303 -358.18 0.
8.78011 -344.859 0.
15.6993 -356.775 0.
4.00519 -384.042 0.
-7.68655 -411.304 0.
9.99043 -405.345 0.
9.14314 -407.321 0.
31.1179 -400.204 0.
28.6116 -406.063 0.
26.1052 -411.922 0.
-45.7543 -440.526 0.
-40.0335 -427.187 0.
-34.3127 -413.849 0.
-23.1939 -405.183 0.
-22.9541 -404.667 0.
-22.7143 -404.15 0.
-119.553 -463.418 0.
-130.02 -487.841 0.
-176.144 -523.209 0.
-166.919 -501.67 0.
-157.694 -480.131 0.
-181.413 -473.73 0.
-173.863 -456.084 0.
-166.313 -438.438 0.
-178.186 -432.944 0.
-174.24 -423.742 0.
-170.295 -414.539 0.
-187.917 -389.416 0.
-166.969 -340.558 0.
-53.2147 -251.875 0.
-20.0814 -209.814 0.
-5.44918 -175.681 0.
-25.6192 -165.941 0.
-33.2968 -183.871 0.
-40.9743 -201.801 0.
-99.4871 -224.704 0.
-87.3829 -196.534 0.
-75.2787 -168.363 0.
-51.5275 -137.79 0.
-41.3977 -114.234 0.
-31.2679 -90.6786 0.
-35.8189 -83.9739 0.
-31.9018 -74.8797 0.
-37.019 -72.0769 0.
-44.4699 -89.4536 0.
-51.9208 -106.83 0.
-28.7973 -110.342 0.
-35.061 -124.938 0.
-41.3247 -139.534 0.
-39.3959 -144.528 0.
-39.9452 -145.814 0.
-40.4945 -147.1 0.
21.4446 -145.56 0.
4.7729 -184.359 0.
133.991 -45.9388 0.
-97.4309 -144.049 0.
-97.0088 -143.104 0.
-65.3187 -130.418 0.
-68.8515 -138.688 0.
-72.3842 -146.957 0.
-75.4886 -145.457 0.
-67.6278 -127.145 0.
-59.7671 -108.833 0.
-15.0035 -71.2164 0.
-4.39126 -46.4507 0.
6.22099 -21.6851 0.
30.5675 -27.5607 0.
19.5351 -53.2444 0.
84.1365 -46.5856 0.
72.4816 -73.6965 0.
60.8267 -100.807 0.
-0.195172 -146.206 0.
-7.44774 -163.062 0.
-14.7003 -179.917 0.
-49.8616 -190.283 0.
-39.4714 -166.033 0.
-29.0812 -141.782 0.
-84 -201.293 0.
-111.36 -265.136 0.
-138.721 -328.978 0.
-241.362 -374.498 0.
-242.056 -376.093 0.
-178.46 -351.407 0.
-182.407 -360.623 0.
-186.355 -369.838 0.
-143.674 -371.891 0.
-162.823 -416.585 0.
-181.971 -461.28 0.
-153.199 -485.777 0.
-172.612 -531.076 0.
-192.024 -576.376 0.
-103.772 -511.729 0.
-85.3706 -468.774 0.
-29.1842 -413.001 0.
-27.3091 -408.605 0.
-25.4339 -404.21 0.
-17.138 -392.779 0.
-8.4553 -372.51 0.
0.227393 -352.241 0.
-9.65502 -343.086 0.
-3.94792 -329.766 0.
1.75918 -316.446 0.
-22.4995 -341.717 0.
-34.1919 -368.984 0.
-45.8816 -396.245 0.
11.5569 -373.246 0.
10.7097 -375.221 0.
8.06256 -378.659 0.
5.55646 -384.518 0.
3.05035 -390.376 0.
-42.4652 -407.692 0.
-36.7442 -394.353 0.
-31.0232 -381.015 0.
15.9699 -356.975 0.
16.2085 -356.456 0.
16.447 -355.938 0.
-159.855 -449.265 0.
-170.323 -473.685 0.
-212.587 -507.404 0.
-203.363 -485.866 0.
-194.14 -464.328 0.
-220.044 -458.856 0.
-212.494 -441.212 0.
-204.944 -423.567 0.
-196.384 -409.311 0.
-192.437 -400.109 0.
-188.491 -390.907 0.
-217.361 -370.613 0.
-196.415 -321.756 0.
-73.7775 -229.275 0.
-24.0761 -180.113 0.
-9.4441 -145.981 0.
-24.9713 -134.224 0.
-32.6495 -152.153 0.
-40.3277 -170.082 0.
-42.3222 -168.787 0.
-30.2163 -140.616 0.
-18.1104 -112.446 0.
32.8419 -70.2137 0.
42.9731 -46.658 0.
53.1043 -23.1024 0.
-9.20795 -41.1427 0.
-5.29069 -32.0487 0.
-42.6499 -43.0526 0.
-50.1005 -60.429 0.
-57.5511 -77.8055 0.
-43.2702 -85.1047 0.
-49.5335 -99.7 0.
-55.7967 -114.295 0.
-36.4714 -111.841 0.
-37.0209 -113.127 0.
-37.5703 -114.413 0.
-33.8328 -137.782 0.
-50.5018 -176.581 0.
104.273 -78.0716 0.
-148.126 -210.093 0.
-160.69 -239.399 0.
-116.853 -237.361 0.
-112.351 -226.812 0.
-107.85 -216.264 0.
-107.323 -204.853 0.
-99.7553 -187.163 0.
-92.188 -169.472 0.
-46.8383 -138.442 0.
-41.5144 -126 0.
-36.1905 -113.558 0.
17.8827 -97.4916 0.
12.9823 -108.872 0.
79.3304 -87.4595 0.
85.3259 -73.4679 0.
91.3214 -59.4762 0.
34.4849 -77.426 0.
32.5761 -81.8678 0.
30.6674 -86.3095 0.
-28.0186 -120.901 0.
-35.4592 -138.216 0.
-42.8997 -155.531 0.
-76.5935 -165.494 0.
-71.4824 -153.501 0.
-66.3713 -141.508 0.
-176.023 -195.071 0.
-179.418 -202.903 0.
-135.044 -196.983 0.
-155.008 -243.546 0.
-174.973 -290.109 0.
-144.975 -296.212 0.
-142.223 -289.8 0.
-139.47 -283.389 0.
-89.779 -253.353 0.
-84.2444 -240.454 0.
-78.7098 -227.555 0.
-29.2096 -224.602 0.
-40.6505 -251.321 0.
10.8311 -248.822 0.
9.88317 -251.05 0.
8.93522 -253.278 0.
13.6809 -253.313 0.
12.3431 -256.438 0.
11.0052 -259.563 0.
8.33855 -267.797 0.
2.71163 -280.924 0.
-2.91529 -294.052 0.
-17.2023 -281.329 0.
-2.86805 -247.888 0.
11.4663 -214.447 0.
89.3646 -185.849 0.
86.8494 -191.714 0.
50.1065 -210.899 0.
50.7652 -209.354 0.
51.424 -207.809 0.
11.2369 -228.228 0.
6.66441 -238.901 0.
2.09195 -249.574 0.
33.6703 -241.912 0.
31.3093 -247.394 0.
28.9483 -252.876 0.
-147.478 -304.469 0.
-132.995 -270.661 0.
-137.562 -249.012 0.
-142.298 -260.065 0.
-147.034 -271.117 0.
-179.042 -287.853 0.
-174.456 -277.165 0.
-169.87 -266.477 0.
-148.07 -236.021 0.
-131.844 -198.159 0.
-115.618 -160.296 0.
-151.65 -189.616 0.
-165.379 -221.74 0.
-81.567 -211.828 0.
-30.975 -178.079 0.
-24.6178 -163.287 0.
-32.7138 -149.561 0.
-14.2836 -106.607 0.
4.14661 -63.6527 0.
28.7424 -35.9232 0.
26.1094 -42.0893 0.
23.4765 -48.2553 0.
61.6773 -52.2527 0.
46.9843 -86.5506 0.
32.2913 -120.849 0.
-40.3183 -147.139 0.
-35.659 -136.294 0.
-89.1605 -153.14 0.
-97.3165 -172.196 0.
-105.472 -191.252 0.
-93.3697 -195.012 0.
-91.2215 -190.035 0.
-89.0732 -185.057 0.
-67.1881 -171.03 0.
-64.5041 -164.793 0.
-61.8201 -158.556 0.
-80.6678 -171.369 0.
-84.5714 -180.494 0.
84.7931 -54.9974 0.
-144.506 -177.11 0.
-157.069 -206.417 0.
-79.5884 -189.949 0.
-75.0865 -179.401 0.
-70.5847 -168.853 0.
-65.3434 -155.417 0.
-57.7753 -137.727 0.
-50.2073 -120.036 0.
-26.7235 -98.3801 0.
-21.3994 -85.9386 0.
-16.0753 -73.4972 0.
49.778 -52.3995 0.
44.8772 -63.7799 0.
71.8032 -59.2434 0.
77.7976 -45.2511 0.
83.7921 -31.2589 0.
35.7936 -45.4324 0.
33.8849 -49.8743 0.
31.9762 -54.3163 0.
-3.66707 -79.041 0.
-11.1078 -96.3559 0.
-18.5486 -113.671 0.
-46.5475 -121.173 0.
-41.4364 -109.179 0.
-36.3253 -97.1856 0.
-146.607 -151.038 0.
-150.002 -158.87 0.
-134.9 -165.514 0.
-154.864 -212.076 0.
-174.829 -258.638 0.
-166.559 -274.025 0.
-163.805 -267.615 0.
-161.052 -261.205 0.
-123.757 -236.477 0.
-118.222 -223.579 0.
-112.687 -210.682 0.
-89.3049 -218.938 0.
-100.744 -245.656 0.
-50.1234 -243.52 0.
-51.0721 -245.747 0.
-52.0207 -247.975 0.
-21.6993 -237.047 0.
-23.0374 -240.172 0.
-24.3755 -243.296 0.
14.1498 -233.874 0.
8.52362 -247.003 0.
2.89745 -260.131 0.
6.21859 -239.863 0.
20.5533 -206.421 0.
34.8881 -172.98 0.
116.27 -142.89 0.
113.755 -148.756 0.
33.7103 -186.496 0.
34.3693 -184.951 0.
35.0284 -183.406 0.
-16.5057 -208.684 0.
-21.0775 -219.357 0.
-25.6493 -230.031 0.
-53.8917 -248.012 0.
-56.2526 -253.492 0.
-58.6136 -258.972 0.
-196.617 -294.114 0.
-182.135 -260.308 0.
-154.799 -224.962 0.
-159.535 -236.014 0.
-164.271 -247.066 0.
-186.009 -259.411 0.
-181.423 -248.722 0.
-176.838 -238.034 0.
-160.503 -209.934 0.
-144.277 -172.073 0.
-128.051 -134.211 0.
-117.745 -143.634 0.
-131.472 -175.759 0.
-68.0756 -174.618 0.
-12.785 -138.855 0.
-6.42738 -124.064 0.
-3.09221 -105.457 0.
15.3383 -62.5024 0.
33.7688 -19.5477 0.
38.9678 -0.100635 0.
36.3347 -6.26644 0.
33.7015 -12.4323 0.
61.8496 -20.7214 0.
47.1577 -55.0197 0.
32.4659 -89.318 0.
1.18625 -97.9282 0.
5.84615 -87.0843 0.
-49.1479 -104.546 0.
-57.3047 -123.601 0.
-65.4615 -142.657 0.
-53.5841 -146.527 0.
-51.4363 -141.549 0.
-49.2885 -136.57 0.
-50.6391 -132.501 0.
-47.9552 -126.264 0.
-45.2713 -120.027 0.
-72.9343 -136.601 0.
-76.8384 -145.725 0.
80.1975 3.73611 0.
-106.905 -63.9731 0.
-100.687 -49.4639 0.
21.9819 8.88571 0.
13.9444 -9.96616 0.
5.90689 -28.818 0.
6.12358 -36.7348 0.
6.77931 -35.2549 0.
7.43505 -33.775 0.
2.71566 -36.7014 0.
1.65214 -39.1658 0.
-0.250613 -43.5876 0.
68.4 -38.6417 0.
53.4553 -73.3903 0.
30.5264 -109.869 0.
24.9748 -122.724 0.
32.607 -104.847 0.
19.4188 -54.7744 0.
45.4151 5.9453 0.
39.8339 -7.05884 0.
40.9665 10.0611 0.
35.8832 -1.73623 0.
5.0782 -73.541 0.
-41.5984 -135.471 0.
-39.694 -130.924 0.
-17.0246 -77.9255 0.
-115.892 -103.621 0.
-113.472 -97.796 0.
-127.955 -117.829 0.
-152.645 -175.358 0.
-161.149 -195.157 0.
-153.43 -170.665 0.
-139.008 -137.035 0.
-130.898 -118.129 0.
-109.434 -106.678 0.
-110.694 -109.63 0.
-113.801 -116.889 0.
-115.671 -134.029 0.
-125.184 -156.233 0.
-74.1105 -151.793 0.
-79.6444 -164.712 0.
-85.1783 -177.631 0.
-31.853 -162.121 0.
-33.2365 -165.35 0.
-34.8355 -169.082 0.
46.6934 -137.79 0.
45.1091 -141.49 0.
43.926 -144.254 0.
59.201 -129.6 0.
64.943 -116.207 0.
72.6439 -98.2425 0.
150.968 -81.6292 0.
140.494 -106.063 0.
13.7861 -170.508 0.
20.2416 -155.441 0.
26.0989 -141.77 0.
-33.8236 -165.089 0.
-38.5617 -176.14 0.
-42.4792 -185.276 0.
-123.594 -212.265 0.
-114.987 -192.156 0.
-107.141 -173.82 0.
-200.189 -176.811 0.
-178.173 -125.429 0.
-109.161 -53.942 0.
-105.424 -45.2334 0.
-106.781 -48.4093 0.
-128.85 -81.0855 0.
-154.119 -140.052 0.
-176.339 -191.918 0.
-180.557 -201.231 0.
-159.483 -152.137 0.
-141.574 -110.445 0.
-96.0059 -125.773 0.
-125.001 -193.601 0.
-100.737 -210.014 0.
-7.98555 -130.867 0.
10.4234 -87.9939 0.
38.8801 -32.5974 0.
56.5888 8.66392 0.
62.9978 23.5734 0.
52.4929 43.4135 0.
21.4619 -29.082 0.
-10.149 -102.982 0.
3.60329 -125.623 0.
2.66641 -127.945 0.
11.3137 -107.907 0.
39.9423 -55.5078 0.
56.1917 -17.7202 0.
5.59148 -21.207 0.
1.96707 -29.6515 0.
-1.65735 -38.0961 0.
12.4938 -36.0494 0.
13.4368 -33.8089 0.
14.3798 -31.5684 0.
-13.2252 -44.8746 0.
-15.3943 -49.9623 0.
-17.5635 -55.0499 0.
-47.5822 -59.8811 0.
-41.5214 -45.704 0.
73.9632 32.6758 0.
-111.527 -34.3774 0.
-105.309 -19.8679 0.
-54.5452 7.64323 0.
-62.5822 -11.2068 0.
-70.6191 -30.0569 0.
-58.3579 -32.8019 0.
-57.7025 -31.3222 0.
-57.047 -29.8424 0.
-4.63676 -8.28786 0.
-5.69955 -10.7528 0.
-6.76233 -13.2178 0.
122.805 19.7929 0.
109.592 -10.9143 0.
121.523 -28.258 0.
120.904 -29.5701 0.
120.285 -30.8821 0.
65.8555 -53.986 0.
67.1478 -50.8371 0.
68.4402 -47.6883 0.
37.0927 -54.8689 0.
41.8997 -43.5594 0.
46.7066 -32.2499 0.
9.00296 -47.1973 0.
8.3559 -48.6254 0.
-19.1169 -61.545 0.
-81.4495 -77.9712 0.
-76.075 -65.2657 0.
-115.133 -69.9389 0.
-105.759 -48.003 0.
-96.3846 -26.0671 0.
-147.338 -46.3349 0.
-157.27 -69.5373 0.
-167.201 -92.7398 0.
-174.164 -106.337 0.
-177.547 -114.28 0.
-180.931 -122.224 0.
-194.66 -100.437 0.
-177.83 -61.2065 0.
-42.7606 22.3171 0.
-56.6717 -10.1515 0.
-70.5827 -42.6202 0.
-3.42199 -38.5336 0.
-14.4545 -64.2891 0.
-25.487 -90.0447 0.
66.1892 -60.4586 0.
65.8667 -61.221 0.
65.5441 -61.9835 0.
99.6544 -63.7682 0.
88.6788 -89.3924 0.
77.7069 -115.008 0.
133.261 -84.05 0.
137.01 -75.3026 0.
14.1939 -116.886 0.
27.187 -86.5779 0.
40.1801 -56.2699 0.
-44.4345 -71.6039 0.
-35.9394 -51.7701 0.
-27.4444 -31.9362 0.
-99.6819 -44.3931 0.
-89.3855 -20.3709 0.
-79.089 3.65137 0.
-219.293 -73.5184 0.
-230.612 -99.9249 0.
-170.34 -92.7739 0.
-168.245 -87.8722 0.
-166.15 -82.9704 0.
-154.236 -77.6066 0.
-157.981 -86.3558 0.
-161.726 -95.105 0.
-162.617 -91.7244 0.
-156.033 -76.3898 0.
-149.449 -61.0552 0.
-57.6036 -23.2133 0.
-60.4453 -29.9461 0.
-40.8699 -26.9485 0.
65.2177 -14.3247 0.
48.0239 -54.5372 0.
70.4154 -70.2622 0.
71.1298 -68.7352 0.
71.8442 -67.2082 0.
72.8853 -64.2311 0.
75.1645 -59.075 0.
77.4437 -53.9189 0.
96.9655 -35.9072 0.
103.588 -20.5904 0.
110.21 -5.27363 0.
40.8027 -14.397 0.
52.1525 11.9631 0.
-43.3872 -10.6281 0.
-47.0114 -19.072 0.
-50.6356 -27.5159 0.
-32.0921 -23.5866 0.
-31.1484 -21.3465 0.
-30.2048 -19.1064 0.
9.09715 -3.74094 0.
6.92692 -8.82772 0.
4.75669 -13.9145 0.
-51.917 -30.1793 0.
-45.8552 -16.0044 0.
142.678 93.5995 0.
-116.221 -4.9503 0.
-110.003 9.55929 0.
-131.145 6.23206 0.
-139.181 -12.6162 0.
-147.217 -31.4644 0.
-122.912 -29.0378 0.
-122.257 -27.5582 0.
-121.601 -26.0786 0.
-12.0615 19.957 0.
-13.1235 17.4914 0.
-14.1856 15.0258 0.
175.267 73.6972 0.
162.055 42.9893 0.
206.661 39.6621 0.
206.042 38.3494 0.
205.424 37.0367 0.
138.827 8.71902 0.
140.119 11.8688 0.
141.411 15.0185 0.
83.0025 -3.75443 0.
87.8105 7.5542 0.
92.6186 18.8628 0.
41.2541 -1.9419 0.
40.6081 -3.37131 0.
-13.0449 -27.4994 0.
-36.1008 -27.0852 0.
-30.7251 -14.3807 0.
-108.067 -35.4633 0.
-98.694 -13.5282 0.
-89.3211 8.407 0.
-189.026 -32.7833 0.
-198.956 -55.9854 0.
-208.886 -79.1876 0.
-237.65 -102.118 0.
-241.031 -110.063 0.
-244.411 -118.008 0.
-292.967 -111.118 0.
-276.136 -71.8936 0.
-78.9833 38.2104 0.
-92.8945 5.74348 0.
-106.806 -26.7234 0.
-16.6219 -12.764 0.
-27.6538 -38.5194 0.
-38.6857 -64.2747 0.
65.8033 -29.1994 0.
65.4809 -29.9622 0.
65.1584 -30.725 0.
131.325 -18.7627 0.
120.351 -44.3891 0.
109.381 -70.0071 0.
128.898 -54.4898 0.
132.648 -45.7422 0.
3.10656 -90.2054 0.
16.0998 -59.899 0.
29.093 -29.5925 0.
-90.5986 -59.9628 0.
-82.1039 -40.1307 0.
-73.6091 -20.2986 0.
-141.454 -30.8697 0.
-131.156 -6.84997 0.
-120.858 17.1698 0.
-280.245 -68.1949 0.
-291.565 -94.5979 0.
-208.795 -77.8255 0.
-206.702 -72.9228 0.
-204.609 -68.0201 0.
-170.822 -53.2759 0.
-174.568 -62.0235 0.
-178.314 -70.771 0.
-181.825 -68.5287 0.
-175.24 -53.1943 0.
-168.655 -37.86 0.
-47.955 12.3679 0.
-50.7991 5.63725 0.
-84.7049 -14.2874 0.
110.355 36.4763 0.
93.1592 -3.73605 0.
145.493 -6.65403 0.
146.207 -5.12596 0.
146.921 -3.59789 0.
170.917 9.21102 0.
173.197 14.3668 0.
175.477 19.5225 0.
180.73 31.4181 0.
187.352 46.7359 0.
193.975 62.0537 0.
36.7657 15.2912 0.
48.115 41.651 0.
-92.4381 -0.217974 0.
-96.0621 -8.66112 0.
-99.6861 -17.1043 0.
-76.7504 -11.2924 0.
-75.806 -9.05278 0.
-74.8616 -6.81315 0.
31.3472 37.224 0.
29.1759 32.1381 0.
27.0046 27.0522 0.
-56.3241 -0.646045 0.
-50.2614 13.5265 0.
