# vtk DataFile Version 2.0
test grain
ASCII
DATASET UNSTRUCTURED_GRID
POINTS 5000 float
0.499922 0.0010005 0.
0.501924 0.00100049 0.
0.503926 0.00100051 0.
0.505928 0.00100051 0.
0.50793 0.0010004 0.
0.509931 0.0010003 0.
0.511933 0.0010002 0.
0.513934 0.00100012 0.
0.515935 0.00100003 0.
0.517936 0.00100001 0.
0.519937 0.00100003 0.
0.521938 0.00100006 0.
0.52394 0.00100004 0.
0.525942 0.00100002 0.
0.527944 0.001 0.
0.529945 0.00100005 0.
0.531946 0.00100009 0.
0.533948 0.00100011 0.
0.535949 0.00100006 0.
0.537951 0.00100002 0.
0.539953 0.000999998 0.
0.541955 0.000999998 0.
0.543957 0.000999999 0.
0.545958 0.00100002 0.
0.54796 0.00100004 0.
0.549962 0.00100007 0.
0.551963 0.00100013 0.
0.553964 0.00100019 0.
0.555965 0.00100022 0.
0.557967 0.00100013 0.
0.559968 0.00100004 0.
0.56197 0.001 0.
0.563972 0.00100002 0.
0.565974 0.00100004 0.
0.567975 0.00100003 0.
0.569976 0.00100002 0.
0.571977 0.001 0.
0.573979 0.001 0.
0.575981 0.001 0.
0.577982 0.001 0.
0.579984 0.001 0.
0.581986 0.001 0.
0.583987 0.00100003 0.
0.585989 0.00100012 0.
0.587992 0.00100022 0.
0.589993 0.00100021 0.
0.591993 0.00100011 0.
0.593993 0.00100002 0.
0.595995 0.000999999 0.
0.597998 0.001 0.
0.6 0.001 0.
0.602004 0.00100002 0.
0.604008 0.00100005 0.
0.606011 0.00100006 0.
0.608012 0.00100004 0.
0.610012 0.00100001 0.
0.612014 0.001 0.
0.614015 0.001 0.
0.616016 0.001 0.
0.618017 0.001 0.
0.620018 0.001 0.
0.622019 0.001 0.
0.624021 0.001 0.
0.626022 0.001 0.
0.628024 0.00100001 0.
0.630025 0.00100001 0.
0.632027 0.001 0.
0.634028 0.001 0.
0.63603 0.001 0.
0.638032 0.00100001 0.
0.640033 0.00100001 0.
0.642034 0.001 0.
0.644035 0.001 0.
0.646037 0.00100011 0.
0.648039 0.00100025 0.
0.650042 0.00100038 0.
0.652043 0.00100024 0.
0.654044 0.0010001 0.
0.656045 0.001 0.
0.658047 0.00100001 0.
0.660049 0.00100002 0.
0.66205 0.00100002 0.
0.664052 0.00100001 0.
0.666053 0.001 0.
0.668054 0.001 0.
0.670056 0.000999997 0.
0.672057 0.000999993 0.
0.674059 0.00100003 0.
0.676061 0.00100008 0.
0.678063 0.00100012 0.
0.680065 0.00100011 0.
0.682066 0.0010001 0.
0.684068 0.00100013 0.
0.686069 0.00100022 0.
0.688071 0.00100032 0.
0.690071 0.0010004 0.
0.692072 0.00100049 0.
0.694072 0.00100058 0.
0.696073 0.00100058 0.
0.698074 0.00100057 0.
0.499923 0.00300149 0.
0.501925 0.00300148 0.
0.503926 0.00300153 0.
0.505928 0.00300152 0.
0.507929 0.00300121 0.
0.509931 0.0030009 0.
0.511933 0.00300061 0.
0.513934 0.00300035 0.
0.515935 0.00300008 0.
0.517936 0.00300003 0.
0.519938 0.0030001 0.
0.521939 0.00300018 0.
0.52394 0.00300013 0.
0.525942 0.00300006 0.
0.527943 0.00300001 0.
0.529944 0.00300014 0.
0.531946 0.00300028 0.
0.533948 0.00300033 0.
0.535949 0.00300019 0.
0.537951 0.00300006 0.
0.539952 0.00299999 0.
0.541954 0.00299999 0.
0.543956 0.003 0.
0.545958 0.00300005 0.
0.547959 0.00300012 0.
0.549961 0.0030002 0.
0.551963 0.00300038 0.
0.553964 0.00300056 0.
0.555966 0.00300066 0.
0.557967 0.0030004 0.
0.559968 0.00300013 0.
0.56197 0.003 0.
0.563971 0.00300005 0.
0.565973 0.00300011 0.
0.567974 0.0030001 0.
0.569976 0.00300005 0.
0.571977 0.00300001 0.
0.573979 0.003 0.
0.575981 0.003 0.
0.577982 0.003 0.
0.579984 0.003 0.
0.581986 0.003 0.
0.583988 0.00300009 0.
0.585989 0.00300037 0.
0.587991 0.00300066 0.
0.589992 0.00300062 0.
0.591993 0.00300034 0.
0.593994 0.00300006 0.
0.595996 0.003 0.
0.597998 0.003 0.
0.6 0.00300001 0.
0.602004 0.00300007 0.
0.604007 0.00300014 0.
0.60601 0.00300017 0.
0.608011 0.00300011 0.
0.610013 0.00300004 0.
0.612014 0.003 0.
0.614015 0.003 0.
0.616017 0.00300001 0.
0.618018 0.003 0.
0.620019 0.003 0.
0.62202 0.003 0.
0.624021 0.00300001 0.
0.626023 0.00300002 0.
0.628024 0.00300003 0.
0.630026 0.00300002 0.
0.632027 0.00300001 0.
0.634028 0.00300001 0.
0.63603 0.00300001 0.
0.638032 0.00300002 0.
0.640033 0.00300001 0.
0.642035 0.00300001 0.
0.644036 0.003 0.
0.646038 0.00300033 0.
0.648039 0.00300075 0.
0.650041 0.00300115 0.
0.652042 0.00300073 0.
0.654043 0.00300031 0.
0.656045 0.003 0.
0.658047 0.00300003 0.
0.660049 0.00300006 0.
0.66205 0.00300006 0.
0.664052 0.00300004 0.
0.666053 0.00300002 0.
0.668055 0.003 0.
0.670056 0.00299999 0.
0.672058 0.00299998 0.
0.67406 0.0030001 0.
0.676062 0.00300024 0.
0.678063 0.00300036 0.
0.680065 0.00300034 0.
0.682067 0.00300031 0.
0.684068 0.0030004 0.
0.686069 0.00300067 0.
0.68807 0.00300095 0.
0.690071 0.00300121 0.
0.692072 0.00300148 0.
0.694072 0.00300174 0.
0.696073 0.00300175 0.
0.698074 0.0030017 0.
0.499925 0.00500246 0.
0.501926 0.00500246 0.
0.503927 0.00500255 0.
0.505928 0.00500253 0.
0.507929 0.00500202 0.
0.509931 0.00500151 0.
0.511932 0.00500102 0.
0.513934 0.00500058 0.
0.515935 0.00500014 0.
0.517937 0.00500005 0.
0.519938 0.00500017 0.
0.52194 0.00500029 0.
0.52394 0.00500021 0.
0.525941 0.0050001 0.
0.527942 0.00500002 0.
0.529944 0.00500024 0.
0.531946 0.00500046 0.
0.533947 0.00500054 0.
0.535949 0.00500032 0.
0.53795 0.0050001 0.
0.539952 0.00499999 0.
0.541954 0.00499999 0.
0.543956 0.00499999 0.
0.545957 0.00500008 0.
0.547959 0.0050002 0.
0.549961 0.00500033 0.
0.551962 0.00500063 0.
0.553964 0.00500094 0.
0.555966 0.0050011 0.
0.557967 0.00500066 0.
0.559968 0.00500022 0.
0.561969 0.005 0.
0.563971 0.00500009 0.
0.565972 0.00500018 0.
0.567973 0.00500016 0.
0.569975 0.00500009 0.
0.571977 0.00500002 0.
0.573979 0.005 0.
0.575981 0.00500001 0.
0.577982 0.005 0.
0.579984 0.005 0.
0.581986 0.005 0.
0.583988 0.00500015 0.
0.585989 0.00500062 0.
0.58799 0.00500109 0.
0.589991 0.00500104 0.
0.591993 0.00500056 0.
0.593995 0.00500009 0.
0.595997 0.00499999 0.
0.597999 0.005 0.
0.6 0.00500001 0.
0.602003 0.00500012 0.
0.604006 0.00500023 0.
0.606009 0.00500029 0.
0.608011 0.00500018 0.
0.610013 0.00500006 0.
0.612014 0.005 0.
0.614016 0.00500001 0.
0.616017 0.00500001 0.
0.618018 0.005 0.
0.620019 0.005 0.
0.62202 0.005 0.
0.624021 0.00500001 0.
0.626023 0.00500003 0.
0.628024 0.00500004 0.
0.630026 0.00500003 0.
0.632027 0.00500002 0.
0.634029 0.00500002 0.
0.636031 0.00500002 0.
0.638032 0.00500003 0.
0.640034 0.00500002 0.
0.642036 0.00500001 0.
0.644037 0.005 0.
0.646038 0.00500055 0.
0.648039 0.00500125 0.
0.650039 0.00500191 0.
0.652041 0.00500121 0.
0.654043 0.00500051 0.
0.656044 0.005 0.
0.658046 0.00500005 0.
0.660048 0.0050001 0.
0.66205 0.00500011 0.
0.664051 0.00500007 0.
0.666053 0.00500003 0.
0.668055 0.005 0.
0.670056 0.00499998 0.
0.672058 0.00499996 0.
0.67406 0.00500016 0.
0.676062 0.0050004 0.
0.678063 0.0050006 0.
0.680065 0.00500056 0.
0.682067 0.00500052 0.
0.684068 0.00500067 0.
0.686069 0.00500112 0.
0.68807 0.00500158 0.
0.690071 0.00500202 0.
0.692072 0.00500246 0.
0.694073 0.0050029 0.
0.696074 0.00500291 0.
0.698074 0.00500283 0.
0.499926 0.00700422 0.
0.501927 0.00700442 0.
0.503928 0.00700441 0.
0.505929 0.00700434 0.
0.50793 0.0070039 0.
0.509932 0.00700345 0.
0.511933 0.00700316 0.
0.513934 0.00700307 0.
0.515935 0.00700299 0.
0.517937 0.00700306 0.
0.519938 0.00700322 0.
0.52194 0.00700338 0.
0.523941 0.00700329 0.
0.525942 0.00700315 0.
0.527943 0.00700305 0.
0.529945 0.0070032 0.
0.531946 0.00700335 0.
0.533948 0.00700346 0.
0.535949 0.00700349 0.
0.537951 0.00700352 0.
0.539952 0.00700334 0.
0.541954 0.00700298 0.
0.543955 0.00700262 0.
0.545957 0.00700271 0.
0.547958 0.00700293 0.
0.54996 0.00700316 0.
0.551962 0.00700333 0.
0.553964 0.0070035 0.
0.555966 0.00700365 0.
0.557967 0.00700371 0.
0.559969 0.00700376 0.
0.56197 0.00700381 0.
0.563971 0.00700386 0.
0.565972 0.0070039 0.
0.567974 0.00700389 0.
0.569975 0.00700384 0.
0.571977 0.00700379 0.
0.573979 0.00700371 0.
0.575981 0.00700363 0.
0.577983 0.00700356 0.
0.579985 0.0070036 0.
0.581986 0.00700364 0.
0.583988 0.0070037 0.
0.585989 0.00700378 0.
0.58799 0.00700385 0.
0.589992 0.00700376 0.
0.591994 0.00700353 0.
0.593997 0.0070033 0.
0.595998 0.00700353 0.
0.598 0.00700389 0.
0.600001 0.00700425 0.
0.602004 0.00700414 0.
0.604007 0.00700402 0.
0.606009 0.00700391 0.
0.60801 0.00700377 0.
0.610012 0.00700362 0.
0.612014 0.00700344 0.
0.614015 0.0070032 0.
0.616017 0.00700295 0.
0.618018 0.00700296 0.
0.620019 0.00700309 0.
0.62202 0.00700323 0.
0.624022 0.00700328 0.
0.626023 0.00700332 0.
0.628025 0.00700337 0.
0.630027 0.00700338 0.
0.632028 0.00700339 0.
0.634029 0.00700341 0.
0.636031 0.00700346 0.
0.638032 0.00700351 0.
0.640033 0.00700343 0.
0.642035 0.00700325 0.
0.644036 0.00700307 0.
0.646038 0.00700346 0.
0.648039 0.007004 0.
0.65004 0.00700451 0.
0.652042 0.00700401 0.
0.654043 0.0070035 0.
0.656045 0.00700311 0.
0.658046 0.00700304 0.
0.660048 0.00700296 0.
0.662049 0.00700294 0.
0.664051 0.00700297 0.
0.666052 0.007003 0.
0.668054 0.00700282 0.
0.670056 0.00700254 0.
0.672058 0.00700226 0.
0.674059 0.0070025 0.
0.676061 0.00700278 0.
0.678063 0.007003 0.
0.680065 0.00700279 0.
0.682066 0.00700259 0.
0.684068 0.00700264 0.
0.686069 0.00700313 0.
0.688069 0.00700362 0.
0.69007 0.00700391 0.
0.692071 0.00700406 0.
0.694072 0.00700422 0.
0.696073 0.00700445 0.
0.698074 0.00700471 0.
0.499928 0.00900602 0.
0.501929 0.00900638 0.
0.503929 0.00900628 0.
0.50593 0.00900614 0.
0.507931 0.00900577 0.
0.509933 0.0090054 0.
0.511934 0.0090053 0.
0.513935 0.00900557 0.
0.515936 0.00900585 0.
0.517937 0.00900607 0.
0.519939 0.00900627 0.
0.52194 0.00900646 0.
0.523941 0.00900636 0.
0.525943 0.0090062 0.
0.527944 0.00900607 0.
0.529945 0.00900615 0.
0.531947 0.00900624 0.
0.533948 0.00900638 0.
0.53595 0.00900667 0.
0.537952 0.00900695 0.
0.539953 0.0090067 0.
0.541954 0.00900597 0.
0.543954 0.00900525 0.
0.545956 0.00900533 0.
0.547958 0.00900567 0.
0.54996 0.009006 0.
0.551962 0.00900603 0.
0.553964 0.00900606 0.
0.555966 0.0090062 0.
0.557968 0.00900675 0.
0.559969 0.0090073 0.
0.56197 0.00900762 0.
0.563971 0.00900762 0.
0.565972 0.00900763 0.
0.567974 0.00900761 0.
0.569976 0.00900758 0.
0.571977 0.00900755 0.
0.573979 0.00900741 0.
0.575981 0.00900725 0.
0.577983 0.00900712 0.
0.579985 0.0090072 0.
0.581986 0.00900729 0.
0.583988 0.00900724 0.
0.58599 0.00900692 0.
0.587991 0.00900661 0.
0.589993 0.00900648 0.
0.591996 0.00900649 0.
0.593998 0.00900651 0.
0.596 0.00900707 0.
0.598001 0.00900778 0.
0.600002 0.00900848 0.
0.602004 0.00900815 0.
0.604007 0.00900782 0.
0.606009 0.00900753 0.
0.60801 0.00900736 0.
0.610011 0.00900718 0.
0.612013 0.00900687 0.
0.614015 0.00900639 0.
0.616017 0.0090059 0.
0.618018 0.00900591 0.
0.620019 0.00900618 0.
0.62202 0.00900646 0.
0.624022 0.00900655 0.
0.626024 0.00900663 0.
0.628026 0.0090067 0.
0.630027 0.00900673 0.
0.632029 0.00900676 0.
0.63403 0.00900681 0.
0.636031 0.0090069 0.
0.638032 0.00900699 0.
0.640033 0.00900684 0.
0.642034 0.00900649 0.
0.644035 0.00900615 0.
0.646037 0.00900637 0.
0.648039 0.00900675 0.
0.650041 0.00900711 0.
0.652043 0.0090068 0.
0.654044 0.0090065 0.
0.656046 0.00900621 0.
0.658047 0.00900602 0.
0.660048 0.00900583 0.
0.662049 0.00900577 0.
0.66405 0.00900587 0.
0.666052 0.00900597 0.
0.668053 0.00900563 0.
0.670055 0.0090051 0.
0.672057 0.00900456 0.
0.674059 0.00900483 0.
0.676061 0.00900517 0.
0.678062 0.0090054 0.
0.680064 0.00900503 0.
0.682066 0.00900466 0.
0.684067 0.00900462 0.
0.686068 0.00900515 0.
0.688069 0.00900568 0.
0.69007 0.0090058 0.
0.692071 0.00900567 0.
0.694072 0.00900554 0.
0.696073 0.00900599 0.
0.698074 0.0090066 0.
0.499929 0.0110077 0.
0.50193 0.0110079 0.
0.50393 0.0110075 0.
0.505931 0.0110071 0.
0.507932 0.0110068 0.
0.509933 0.0110065 0.
0.511935 0.0110065 0.
0.513936 0.0110069 0.
0.515937 0.0110073 0.
0.517938 0.0110075 0.
0.519939 0.0110076 0.
0.521941 0.0110078 0.
0.523942 0.0110078 0.
0.525943 0.0110077 0.
0.527945 0.0110077 0.
0.529946 0.0110077 0.
0.531947 0.0110076 0.
0.533949 0.0110077 0.
0.53595 0.0110081 0.
0.537952 0.0110085 0.
0.539953 0.0110082 0.
0.541954 0.0110075 0.
0.543955 0.0110068 0.
0.545956 0.0110067 0.
0.547958 0.0110069 0.
0.54996 0.0110071 0.
0.551962 0.0110072 0.
0.553964 0.0110074 0.
0.555966 0.0110077 0.
0.557968 0.0110083 0.
0.559969 0.011009 0.
0.56197 0.0110093 0.
0.563971 0.0110093 0.
0.565973 0.0110093 0.
0.567974 0.0110091 0.
0.569976 0.0110089 0.
0.571977 0.0110087 0.
0.573979 0.0110086 0.
0.575981 0.0110086 0.
0.577983 0.0110086 0.
0.579985 0.0110087 0.
0.581987 0.0110088 0.
0.583988 0.0110088 0.
0.58599 0.0110084 0.
0.587992 0.0110079 0.
0.589994 0.0110078 0.
0.591996 0.0110079 0.
0.593999 0.011008 0.
0.596 0.0110087 0.
0.598001 0.0110096 0.
0.600002 0.0110104 0.
0.602005 0.01101 0.
0.604007 0.0110096 0.
0.606009 0.0110092 0.
0.60801 0.011009 0.
0.610011 0.0110088 0.
0.612013 0.0110084 0.
0.614015 0.0110079 0.
0.616016 0.0110074 0.
0.618018 0.0110074 0.
0.620019 0.0110077 0.
0.62202 0.011008 0.
0.624022 0.0110079 0.
0.626024 0.0110078 0.
0.628026 0.0110078 0.
0.630027 0.011008 0.
0.632029 0.0110082 0.
0.63403 0.0110084 0.
0.636031 0.0110085 0.
0.638031 0.0110086 0.
0.640032 0.0110084 0.
0.642034 0.011008 0.
0.644035 0.0110077 0.
0.646037 0.0110078 0.
0.648039 0.0110079 0.
0.650042 0.0110081 0.
0.652043 0.011008 0.
0.654044 0.0110079 0.
0.656046 0.0110078 0.
0.658047 0.0110076 0.
0.660047 0.0110073 0.
0.662049 0.0110072 0.
0.66405 0.0110073 0.
0.666051 0.0110074 0.
0.668053 0.0110071 0.
0.670055 0.0110066 0.
0.672057 0.0110061 0.
0.674059 0.0110064 0.
0.67606 0.0110067 0.
0.678062 0.0110069 0.
0.680064 0.0110064 0.
0.682065 0.011006 0.
0.684066 0.0110058 0.
0.686067 0.0110063 0.
0.688068 0.0110067 0.
0.690069 0.0110069 0.
0.69207 0.0110069 0.
0.694071 0.0110069 0.
0.696072 0.0110075 0.
0.698073 0.0110082 0.
0.49993 0.0130094 0.
0.50193 0.0130089 0.
0.503931 0.0130081 0.
0.505932 0.0130073 0.
0.507933 0.013007 0.
0.509934 0.0130068 0.
0.511936 0.0130067 0.
0.513937 0.0130069 0.
0.515938 0.0130072 0.
0.517939 0.0130073 0.
0.51994 0.0130073 0.
0.521941 0.0130073 0.
0.523943 0.0130075 0.
0.525944 0.0130078 0.
0.527945 0.013008 0.
0.529946 0.0130077 0.
0.531948 0.0130075 0.
0.533949 0.0130074 0.
0.53595 0.0130077 0.
0.537952 0.013008 0.
0.539953 0.013008 0.
0.541954 0.0130076 0.
0.543956 0.0130072 0.
0.545957 0.0130069 0.
0.547959 0.0130067 0.
0.54996 0.0130064 0.
0.551962 0.013007 0.
0.553964 0.0130076 0.
0.555966 0.0130081 0.
0.557967 0.0130085 0.
0.559968 0.0130088 0.
0.56197 0.013009 0.
0.563971 0.0130089 0.
0.565973 0.0130089 0.
0.567975 0.0130084 0.
0.569976 0.0130078 0.
0.571977 0.0130072 0.
0.573979 0.0130074 0.
0.575982 0.0130077 0.
0.577984 0.013008 0.
0.579986 0.0130081 0.
0.581987 0.0130083 0.
0.583989 0.0130083 0.
0.585991 0.0130081 0.
0.587993 0.0130078 0.
0.589995 0.0130077 0.
0.591996 0.0130078 0.
0.593998 0.0130078 0.
0.596 0.0130084 0.
0.598001 0.0130092 0.
0.600003 0.01301 0.
0.602004 0.0130097 0.
0.604006 0.0130093 0.
0.606008 0.0130089 0.
0.60801 0.0130086 0.
0.610011 0.0130083 0.
0.612013 0.013008 0.
0.614014 0.0130077 0.
0.616016 0.0130074 0.
0.618017 0.0130074 0.
0.620019 0.0130076 0.
0.62202 0.0130078 0.
0.624022 0.0130074 0.
0.626024 0.013007 0.
0.628026 0.0130067 0.
0.630027 0.0130072 0.
0.632028 0.0130078 0.
0.634029 0.0130081 0.
0.63603 0.0130082 0.
0.638031 0.0130082 0.
0.640032 0.0130081 0.
0.642034 0.0130079 0.
0.644035 0.0130077 0.
0.646037 0.0130076 0.
0.648039 0.0130075 0.
0.650041 0.0130075 0.
0.652042 0.0130076 0.
0.654044 0.0130078 0.
0.656045 0.0130079 0.
0.658046 0.0130076 0.
0.660047 0.0130074 0.
0.662049 0.0130073 0.
0.66405 0.0130072 0.
0.666052 0.0130071 0.
0.668053 0.0130071 0.
0.670055 0.013007 0.
0.672057 0.013007 0.
0.674059 0.0130072 0.
0.67606 0.0130074 0.
0.678062 0.0130075 0.
0.680063 0.013007 0.
0.682064 0.0130065 0.
0.684065 0.0130063 0.
0.686066 0.0130065 0.
0.688068 0.0130066 0.
0.690069 0.0130071 0.
0.692069 0.0130077 0.
0.69407 0.0130084 0.
0.696071 0.013009 0.
0.698072 0.0130096 0.
0.49993 0.015011 0.
0.501931 0.0150099 0.
0.503932 0.0150086 0.
0.505933 0.0150075 0.
0.507934 0.0150073 0.
0.509935 0.015007 0.
0.511936 0.0150069 0.
0.513938 0.015007 0.
0.515939 0.0150071 0.
0.51794 0.0150071 0.
0.519941 0.0150069 0.
0.521942 0.0150068 0.
0.523943 0.0150073 0.
0.525945 0.0150078 0.
0.527946 0.0150083 0.
0.529947 0.0150078 0.
0.531948 0.0150074 0.
0.533949 0.0150071 0.
0.53595 0.0150074 0.
0.537952 0.0150076 0.
0.539953 0.0150077 0.
0.541955 0.0150077 0.
0.543957 0.0150077 0.
0.545958 0.0150071 0.
0.547959 0.0150064 0.
0.549961 0.0150057 0.
0.551962 0.0150067 0.
0.553964 0.0150078 0.
0.555965 0.0150086 0.
0.557966 0.0150086 0.
0.559967 0.0150086 0.
0.561969 0.0150086 0.
0.563971 0.0150085 0.
0.565974 0.0150084 0.
0.567975 0.0150077 0.
0.569976 0.0150067 0.
0.571977 0.0150057 0.
0.573979 0.0150061 0.
0.575982 0.0150067 0.
0.577984 0.0150073 0.
0.579986 0.0150075 0.
0.581988 0.0150077 0.
0.58399 0.0150078 0.
0.585992 0.0150078 0.
0.587993 0.0150077 0.
0.589995 0.0150077 0.
0.591996 0.0150076 0.
0.593998 0.0150075 0.
0.595999 0.0150081 0.
0.598001 0.0150089 0.
0.600003 0.0150097 0.
0.602004 0.0150093 0.
0.604005 0.015009 0.
0.606007 0.0150086 0.
0.608009 0.0150083 0.
0.610012 0.0150079 0.
0.612013 0.0150077 0.
0.614014 0.0150075 0.
0.616015 0.0150074 0.
0.618017 0.0150074 0.
0.620019 0.0150075 0.
0.622021 0.0150076 0.
0.624022 0.0150069 0.
0.626024 0.0150061 0.
0.628025 0.0150056 0.
0.630026 0.0150065 0.
0.632027 0.0150073 0.
0.634028 0.0150079 0.
0.63603 0.0150079 0.
0.638031 0.0150079 0.
0.640032 0.0150078 0.
0.642034 0.0150078 0.
0.644035 0.0150077 0.
0.646037 0.0150074 0.
0.648038 0.0150071 0.
0.65004 0.0150069 0.
0.652041 0.0150073 0.
0.654043 0.0150077 0.
0.656044 0.0150079 0.
0.658046 0.0150077 0.
0.660047 0.0150075 0.
0.662049 0.0150073 0.
0.66405 0.0150071 0.
0.666052 0.0150069 0.
0.668053 0.0150071 0.
0.670055 0.0150075 0.
0.672057 0.0150079 0.
0.674059 0.015008 0.
0.67606 0.0150081 0.
0.678061 0.0150081 0.
0.680062 0.0150076 0.
0.682063 0.0150071 0.
0.684064 0.0150067 0.
0.686066 0.0150067 0.
0.688067 0.0150066 0.
0.690068 0.0150073 0.
0.692069 0.0150085 0.
0.694069 0.0150098 0.
0.69607 0.0150104 0.
0.698071 0.0150109 0.
0.499932 0.0170114 0.
0.501933 0.0170106 0.
0.503933 0.0170096 0.
0.505934 0.0170088 0.
0.507935 0.0170085 0.
0.509936 0.0170082 0.
0.511937 0.017008 0.
0.513938 0.0170079 0.
0.515939 0.0170078 0.
0.51794 0.0170076 0.
0.519941 0.0170075 0.
0.521943 0.0170074 0.
0.523944 0.0170077 0.
0.525945 0.0170081 0.
0.527947 0.0170085 0.
0.529947 0.0170085 0.
0.531948 0.0170085 0.
0.533949 0.0170084 0.
0.535951 0.0170082 0.
0.537952 0.017008 0.
0.539954 0.0170077 0.
0.541955 0.0170073 0.
0.543957 0.017007 0.
0.545959 0.0170069 0.
0.54796 0.0170069 0.
0.549962 0.0170069 0.
0.551963 0.0170075 0.
0.553964 0.0170082 0.
0.555966 0.0170087 0.
0.557967 0.0170088 0.
0.559968 0.0170089 0.
0.56197 0.0170089 0.
0.563972 0.0170086 0.
0.565974 0.0170083 0.
0.567975 0.0170079 0.
0.569977 0.0170075 0.
0.571978 0.0170072 0.
0.57398 0.0170072 0.
0.575982 0.0170072 0.
0.577984 0.0170073 0.
0.579986 0.0170075 0.
0.581988 0.0170077 0.
0.58399 0.0170079 0.
0.585992 0.0170079 0.
0.587994 0.0170079 0.
0.589995 0.0170079 0.
0.591996 0.0170079 0.
0.593997 0.0170079 0.
0.595999 0.0170082 0.
0.598001 0.0170087 0.
0.600003 0.0170091 0.
0.602004 0.0170092 0.
0.604006 0.0170093 0.
0.606008 0.0170092 0.
0.60801 0.0170088 0.
0.610011 0.0170083 0.
0.612013 0.0170079 0.
0.614014 0.0170077 0.
0.616015 0.0170075 0.
0.618017 0.0170073 0.
0.620018 0.0170072 0.
0.62202 0.0170071 0.
0.624022 0.017007 0.
0.626023 0.0170069 0.
0.628025 0.0170068 0.
0.630026 0.0170071 0.
0.632027 0.0170074 0.
0.634028 0.0170077 0.
0.636029 0.0170079 0.
0.638031 0.0170082 0.
0.640032 0.0170081 0.
0.642034 0.0170077 0.
0.644036 0.0170074 0.
0.646037 0.0170073 0.
0.648038 0.0170073 0.
0.65004 0.0170072 0.
0.652041 0.0170076 0.
0.654043 0.0170079 0.
0.656044 0.0170081 0.
0.658045 0.0170079 0.
0.660047 0.0170077 0.
0.662048 0.0170075 0.
0.66405 0.0170075 0.
0.666051 0.0170074 0.
0.668053 0.0170077 0.
0.670055 0.0170083 0.
0.672056 0.0170089 0.
0.674058 0.0170087 0.
0.67606 0.0170086 0.
0.678061 0.0170083 0.
0.680062 0.017008 0.
0.682063 0.0170077 0.
0.684064 0.0170075 0.
0.686065 0.0170075 0.
0.688066 0.0170076 0.
0.690067 0.0170083 0.
0.692068 0.0170094 0.
0.694069 0.0170106 0.
0.696069 0.0170112 0.
0.69807 0.0170116 0.
0.499934 0.0190118 0.
0.501934 0.0190113 0.
0.503934 0.0190106 0.
0.505935 0.01901 0.
0.507936 0.0190097 0.
0.509937 0.0190094 0.
0.511938 0.0190091 0.
0.513939 0.0190087 0.
0.51594 0.0190084 0.
0.517941 0.0190082 0.
0.519942 0.0190081 0.
0.521943 0.019008 0.
0.523944 0.0190082 0.
0.525946 0.0190085 0.
0.527948 0.0190087 0.
0.529948 0.0190092 0.
0.531949 0.0190096 0.
0.533949 0.0190096 0.
0.535951 0.019009 0.
0.537953 0.0190083 0.
0.539954 0.0190076 0.
0.541956 0.0190069 0.
0.543957 0.0190062 0.
0.545959 0.0190066 0.
0.547961 0.0190073 0.
0.549963 0.019008 0.
0.551964 0.0190083 0.
0.553965 0.0190086 0.
0.555966 0.0190088 0.
0.557967 0.019009 0.
0.559969 0.0190092 0.
0.561971 0.0190091 0.
0.563972 0.0190086 0.
0.565974 0.0190082 0.
0.567975 0.0190082 0.
0.569977 0.0190084 0.
0.571979 0.0190087 0.
0.573981 0.0190082 0.
0.575983 0.0190076 0.
0.577984 0.0190072 0.
0.579986 0.0190074 0.
0.581988 0.0190077 0.
0.58399 0.0190079 0.
0.585992 0.0190079 0.
0.587994 0.019008 0.
0.589995 0.0190081 0.
0.591996 0.0190082 0.
0.593997 0.0190083 0.
0.595999 0.0190084 0.
0.598001 0.0190085 0.
0.600002 0.0190086 0.
0.602004 0.0190091 0.
0.604007 0.0190096 0.
0.606008 0.0190099 0.
0.60801 0.0190093 0.
0.610011 0.0190087 0.
0.612013 0.0190082 0.
0.614014 0.0190079 0.
0.616015 0.0190076 0.
0.618016 0.0190073 0.
0.620018 0.019007 0.
0.622019 0.0190067 0.
0.624021 0.0190071 0.
0.626023 0.0190076 0.
0.628024 0.019008 0.
0.630026 0.0190077 0.
0.632027 0.0190075 0.
0.634028 0.0190075 0.
0.636029 0.019008 0.
0.63803 0.0190084 0.
0.640032 0.0190083 0.
0.642034 0.0190077 0.
0.644036 0.0190071 0.
0.646037 0.0190071 0.
0.648038 0.0190074 0.
0.650039 0.0190076 0.
0.652041 0.0190078 0.
0.654042 0.0190081 0.
0.656044 0.0190082 0.
0.658045 0.019008 0.
0.660046 0.0190079 0.
0.662048 0.0190078 0.
0.664049 0.0190078 0.
0.666051 0.0190078 0.
0.668052 0.0190083 0.
0.670054 0.0190091 0.
0.672056 0.0190099 0.
0.674057 0.0190095 0.
0.676059 0.019009 0.
0.678061 0.0190086 0.
0.680062 0.0190085 0.
0.682063 0.0190083 0.
0.684064 0.0190083 0.
0.686065 0.0190084 0.
0.688065 0.0190085 0.
0.690066 0.0190092 0.
0.692067 0.0190103 0.
0.694068 0.0190115 0.
0.696069 0.0190119 0.
0.69807 0.0190123 0.
0.499935 0.0210125 0.
0.501935 0.021012 0.
0.503936 0.0210114 0.
0.505936 0.0210109 0.
0.507937 0.0210105 0.
0.509938 0.0210102 0.
0.511939 0.0210097 0.
0.51394 0.0210092 0.
0.515941 0.0210087 0.
0.517941 0.0210086 0.
0.519942 0.0210086 0.
0.521943 0.0210086 0.
0.523945 0.0210087 0.
0.525946 0.0210089 0.
0.527948 0.0210091 0.
0.529949 0.0210095 0.
0.531949 0.0210099 0.
0.53395 0.02101 0.
0.535952 0.0210091 0.
0.537953 0.0210083 0.
0.539955 0.0210075 0.
0.541956 0.0210067 0.
0.543958 0.021006 0.
0.54596 0.0210066 0.
0.547961 0.0210075 0.
0.549963 0.0210085 0.
0.551964 0.0210085 0.
0.553965 0.0210085 0.
0.555966 0.0210085 0.
0.557968 0.0210088 0.
0.55997 0.021009 0.
0.561971 0.021009 0.
0.563973 0.0210084 0.
0.565974 0.0210079 0.
0.567976 0.021008 0.
0.569978 0.0210086 0.
0.57198 0.0210091 0.
0.573981 0.0210084 0.
0.575983 0.0210076 0.
0.577985 0.0210069 0.
0.579986 0.0210072 0.
0.581988 0.0210075 0.
0.58399 0.0210077 0.
0.585992 0.0210076 0.
0.587994 0.0210075 0.
0.589995 0.0210077 0.
0.591996 0.021008 0.
0.593997 0.0210083 0.
0.595999 0.0210084 0.
0.598 0.0210083 0.
0.600002 0.0210083 0.
0.602004 0.0210088 0.
0.604007 0.0210094 0.
0.606009 0.0210096 0.
0.60801 0.021009 0.
0.610011 0.0210084 0.
0.612013 0.0210079 0.
0.614014 0.0210077 0.
0.616015 0.0210075 0.
0.618017 0.0210072 0.
0.620018 0.0210068 0.
0.622019 0.0210064 0.
0.624021 0.021007 0.
0.626022 0.0210077 0.
0.628024 0.0210082 0.
0.630026 0.0210077 0.
0.632027 0.0210072 0.
0.634028 0.0210071 0.
0.636029 0.0210078 0.
0.63803 0.0210084 0.
0.640032 0.0210083 0.
0.642034 0.0210076 0.
0.644036 0.0210069 0.
0.646037 0.0210071 0.
0.648038 0.0210075 0.
0.650039 0.021008 0.
0.652041 0.021008 0.
0.654042 0.021008 0.
0.656044 0.021008 0.
0.658045 0.0210079 0.
0.660046 0.0210078 0.
0.662047 0.0210078 0.
0.664049 0.0210079 0.
0.66605 0.0210081 0.
0.668052 0.0210087 0.
0.670053 0.0210094 0.
0.672055 0.0210102 0.
0.674057 0.0210098 0.
0.676059 0.0210092 0.
0.67806 0.0210088 0.
0.680061 0.0210089 0.
0.682062 0.021009 0.
0.684063 0.0210091 0.
0.686064 0.0210092 0.
0.688064 0.0210093 0.
0.690065 0.0210099 0.
0.692066 0.021011 0.
0.694067 0.0210121 0.
0.696068 0.0210127 0.
0.698069 0.0210132 0.
0.499936 0.0230134 0.
0.501936 0.0230128 0.
0.503937 0.0230121 0.
0.505937 0.0230114 0.
0.507938 0.0230109 0.
0.509939 0.0230105 0.
0.51194 0.0230099 0.
0.513941 0.0230094 0.
0.515941 0.0230088 0.
0.517942 0.0230088 0.
0.519943 0.0230091 0.
0.521944 0.0230093 0.
0.523945 0.0230094 0.
0.525947 0.0230094 0.
0.527948 0.0230095 0.
0.529949 0.0230095 0.
0.53195 0.0230095 0.
0.533951 0.0230093 0.
0.535953 0.0230086 0.
0.537954 0.0230079 0.
0.539956 0.0230073 0.
0.541957 0.0230067 0.
0.543959 0.0230061 0.
0.54596 0.0230067 0.
0.547962 0.0230075 0.
0.549963 0.0230084 0.
0.551964 0.0230082 0.
0.553965 0.0230079 0.
0.555966 0.0230078 0.
0.557968 0.0230081 0.
0.55997 0.0230084 0.
0.561972 0.0230084 0.
0.563973 0.0230079 0.
0.565974 0.0230075 0.
0.567976 0.0230076 0.
0.569978 0.023008 0.
0.57198 0.0230084 0.
0.573982 0.0230078 0.
0.575983 0.023007 0.
0.577985 0.0230064 0.
0.579987 0.0230068 0.
0.581988 0.0230072 0.
0.58399 0.0230073 0.
0.585992 0.0230068 0.
0.587994 0.0230064 0.
0.589995 0.0230066 0.
0.591996 0.0230074 0.
0.593998 0.0230081 0.
0.595999 0.0230082 0.
0.598 0.0230082 0.
0.600002 0.0230082 0.
0.602004 0.0230083 0.
0.604006 0.0230085 0.
0.606008 0.0230085 0.
0.60801 0.0230079 0.
0.610011 0.0230074 0.
0.612013 0.0230071 0.
0.614014 0.0230072 0.
0.616015 0.0230073 0.
0.618017 0.0230071 0.
0.620018 0.0230067 0.
0.62202 0.0230062 0.
0.624021 0.0230066 0.
0.626023 0.023007 0.
0.628024 0.0230074 0.
0.630026 0.023007 0.
0.632027 0.0230065 0.
0.634029 0.0230065 0.
0.63603 0.0230073 0.
0.638031 0.0230081 0.
0.640032 0.0230081 0.
0.642034 0.0230074 0.
0.644036 0.0230067 0.
0.646037 0.0230071 0.
0.648038 0.0230078 0.
0.650039 0.0230084 0.
0.652041 0.023008 0.
0.654042 0.0230077 0.
0.656043 0.0230075 0.
0.658044 0.0230075 0.
0.660046 0.0230075 0.
0.662047 0.0230076 0.
0.664048 0.0230079 0.
0.666049 0.0230082 0.
0.668051 0.0230087 0.
0.670053 0.0230092 0.
0.672055 0.0230098 0.
0.674056 0.0230095 0.
0.676058 0.0230092 0.
0.678059 0.0230089 0.
0.68006 0.0230093 0.
0.682061 0.0230097 0.
0.684062 0.0230099 0.
0.686063 0.0230099 0.
0.688064 0.0230098 0.
0.690065 0.0230104 0.
0.692066 0.0230114 0.
0.694067 0.0230125 0.
0.696067 0.0230134 0.
0.698068 0.0230144 0.
0.499937 0.0250143 0.
0.501937 0.0250137 0.
0.503938 0.0250128 0.
0.505938 0.0250119 0.
0.507939 0.0250113 0.
0.509941 0.0250108 0.
0.511941 0.0250102 0.
0.513942 0.0250096 0.
0.515942 0.0250089 0.
0.517943 0.025009 0.
0.519944 0.0250095 0.
0.521945 0.02501 0.
0.523946 0.02501 0.
0.525947 0.02501 0.
0.527948 0.0250099 0.
0.529949 0.0250095 0.
0.53195 0.0250092 0.
0.533952 0.0250087 0.
0.535954 0.0250081 0.
0.537956 0.0250075 0.
0.539957 0.0250071 0.
0.541958 0.0250067 0.
0.543959 0.0250063 0.
0.545961 0.0250068 0.
0.547962 0.0250075 0.
0.549963 0.0250083 0.
0.551964 0.0250078 0.
0.553965 0.0250074 0.
0.555966 0.0250071 0.
0.557968 0.0250074 0.
0.55997 0.0250078 0.
0.561972 0.0250078 0.
0.563973 0.0250074 0.
0.565975 0.025007 0.
0.567977 0.0250071 0.
0.569978 0.0250074 0.
0.57198 0.0250078 0.
0.573982 0.0250072 0.
0.575984 0.0250065 0.
0.577986 0.0250059 0.
0.579987 0.0250063 0.
0.581989 0.0250068 0.
0.58399 0.0250069 0.
0.585992 0.0250061 0.
0.587993 0.0250053 0.
0.589995 0.0250056 0.
0.591997 0.0250067 0.
0.593998 0.0250079 0.
0.595999 0.0250081 0.
0.598 0.0250081 0.
0.600001 0.0250081 0.
0.602003 0.0250079 0.
0.604006 0.0250077 0.
0.606008 0.0250074 0.
0.608009 0.0250069 0.
0.610011 0.0250064 0.
0.612013 0.0250063 0.
0.614014 0.0250067 0.
0.616015 0.0250071 0.
0.618017 0.025007 0.
0.620019 0.0250065 0.
0.62202 0.025006 0.
0.624022 0.0250062 0.
0.626023 0.0250064 0.
0.628025 0.0250066 0.
0.630026 0.0250062 0.
0.632028 0.0250058 0.
0.634029 0.0250059 0.
0.63603 0.0250068 0.
0.638031 0.0250078 0.
0.640032 0.0250078 0.
0.642034 0.0250072 0.
0.644035 0.0250066 0.
0.646037 0.0250071 0.
0.648038 0.025008 0.
0.650039 0.0250087 0.
0.652041 0.0250081 0.
0.654042 0.0250074 0.
0.656043 0.0250069 0.
0.658044 0.0250071 0.
0.660045 0.0250072 0.
0.662046 0.0250075 0.
0.664047 0.0250079 0.
0.666048 0.0250083 0.
0.66805 0.0250087 0.
0.670052 0.0250091 0.
0.672054 0.0250094 0.
0.674056 0.0250093 0.
0.676057 0.0250091 0.
0.678059 0.0250091 0.
0.680059 0.0250097 0.
0.68206 0.0250104 0.
0.684061 0.0250108 0.
0.686062 0.0250106 0.
0.688063 0.0250104 0.
0.690064 0.0250109 0.
0.692065 0.0250119 0.
0.694066 0.0250129 0.
0.696066 0.0250142 0.
0.698067 0.0250156 0.
0.499936 0.0270145 0.
0.501937 0.027014 0.
0.503938 0.0270131 0.
0.505939 0.0270122 0.
0.50794 0.0270114 0.
0.509941 0.0270107 0.
0.511942 0.0270101 0.
0.513942 0.0270098 0.
0.515943 0.0270096 0.
0.517944 0.0270096 0.
0.519945 0.0270098 0.
0.521946 0.0270099 0.
0.523947 0.02701 0.
0.525948 0.02701 0.
0.527949 0.0270099 0.
0.52995 0.0270091 0.
0.531951 0.0270083 0.
0.533952 0.0270076 0.
0.535954 0.0270072 0.
0.537956 0.0270067 0.
0.539957 0.0270065 0.
0.541959 0.0270064 0.
0.54396 0.0270064 0.
0.545961 0.0270068 0.
0.547962 0.0270074 0.
0.549963 0.027008 0.
0.551965 0.0270075 0.
0.553966 0.027007 0.
0.555968 0.0270067 0.
0.557969 0.0270068 0.
0.559971 0.0270069 0.
0.561972 0.0270069 0.
0.563974 0.0270068 0.
0.565975 0.0270067 0.
0.567977 0.0270067 0.
0.569979 0.0270067 0.
0.57198 0.0270068 0.
0.573982 0.0270063 0.
0.575984 0.0270058 0.
0.577985 0.0270054 0.
0.579987 0.0270058 0.
0.581988 0.0270062 0.
0.58399 0.0270063 0.
0.585992 0.0270057 0.
0.587993 0.0270051 0.
0.589995 0.0270053 0.
0.591996 0.0270062 0.
0.593998 0.0270071 0.
0.595999 0.0270074 0.
0.598001 0.0270075 0.
0.600002 0.0270077 0.
0.602004 0.0270075 0.
0.604006 0.0270074 0.
0.606008 0.0270072 0.
0.60801 0.0270066 0.
0.610011 0.0270061 0.
0.612012 0.0270058 0.
0.614014 0.027006 0.
0.616016 0.0270061 0.
0.618017 0.027006 0.
0.620018 0.0270058 0.
0.62202 0.0270056 0.
0.624021 0.0270058 0.
0.626022 0.027006 0.
0.628024 0.0270061 0.
0.630025 0.0270057 0.
0.632027 0.0270053 0.
0.634028 0.0270053 0.
0.63603 0.0270059 0.
0.638031 0.0270065 0.
0.640032 0.0270066 0.
0.642034 0.0270065 0.
0.644035 0.0270063 0.
0.646036 0.0270069 0.
0.648037 0.0270076 0.
0.650038 0.0270083 0.
0.65204 0.0270077 0.
0.654041 0.027007 0.
0.656042 0.0270066 0.
0.658044 0.0270068 0.
0.660045 0.027007 0.
0.662046 0.0270073 0.
0.664047 0.0270076 0.
0.666048 0.0270079 0.
0.66805 0.0270083 0.
0.670051 0.0270088 0.
0.672053 0.0270092 0.
0.674055 0.0270093 0.
0.676056 0.0270094 0.
0.678058 0.0270095 0.
0.680058 0.0270101 0.
0.682059 0.0270108 0.
0.68406 0.0270112 0.
0.686061 0.0270111 0.
0.688062 0.0270111 0.
0.690063 0.0270117 0.
0.692064 0.0270126 0.
0.694065 0.0270136 0.
0.696066 0.027015 0.
0.698066 0.0270165 0.
0.499935 0.0290148 0.
0.501937 0.0290143 0.
0.503938 0.0290133 0.
0.505939 0.0290124 0.
0.50794 0.0290115 0.
0.509941 0.0290106 0.
0.511942 0.0290101 0.
0.513943 0.0290101 0.
0.515944 0.0290102 0.
0.517945 0.0290101 0.
0.519946 0.02901 0.
0.521947 0.0290099 0.
0.523948 0.0290099 0.
0.525949 0.0290099 0.
0.52795 0.0290098 0.
0.529951 0.0290086 0.
0.531952 0.0290075 0.
0.533953 0.0290066 0.
0.535955 0.0290062 0.
0.537956 0.0290059 0.
0.539958 0.0290059 0.
0.541959 0.0290062 0.
0.543961 0.0290065 0.
0.545962 0.0290069 0.
0.547963 0.0290073 0.
0.549964 0.0290078 0.
0.551965 0.0290072 0.
0.553967 0.0290067 0.
0.555969 0.0290062 0.
0.55797 0.0290061 0.
0.559971 0.0290059 0.
0.561973 0.0290059 0.
0.563974 0.0290061 0.
0.565976 0.0290063 0.
0.567977 0.0290062 0.
0.569979 0.029006 0.
0.57198 0.0290058 0.
0.573982 0.0290055 0.
0.575983 0.0290051 0.
0.577985 0.0290049 0.
0.579986 0.0290052 0.
0.581988 0.0290056 0.
0.58399 0.0290058 0.
0.585991 0.0290053 0.
0.587993 0.0290049 0.
0.589995 0.029005 0.
0.591996 0.0290057 0.
0.593998 0.0290063 0.
0.595999 0.0290067 0.
0.598001 0.029007 0.
0.600003 0.0290073 0.
0.602005 0.0290072 0.
0.604007 0.0290071 0.
0.606009 0.0290069 0.
0.60801 0.0290063 0.
0.610011 0.0290058 0.
0.612012 0.0290054 0.
0.614014 0.0290052 0.
0.616016 0.029005 0.
0.618017 0.0290051 0.
0.620018 0.0290052 0.
0.622019 0.0290053 0.
0.62402 0.0290054 0.
0.626021 0.0290055 0.
0.628023 0.0290056 0.
0.630024 0.0290052 0.
0.632026 0.0290048 0.
0.634028 0.0290047 0.
0.636029 0.0290049 0.
0.638031 0.0290052 0.
0.640033 0.0290054 0.
0.642034 0.0290057 0.
0.644034 0.029006 0.
0.646035 0.0290066 0.
0.648036 0.0290072 0.
0.650037 0.0290079 0.
0.652039 0.0290072 0.
0.65404 0.0290066 0.
0.656042 0.0290062 0.
0.658043 0.0290065 0.
0.660045 0.0290069 0.
0.662046 0.0290071 0.
0.664047 0.0290073 0.
0.666048 0.0290075 0.
0.66805 0.0290079 0.
0.670051 0.0290084 0.
0.672052 0.029009 0.
0.674054 0.0290093 0.
0.676055 0.0290096 0.
0.678057 0.0290099 0.
0.680058 0.0290105 0.
0.682058 0.0290111 0.
0.684059 0.0290115 0.
0.68606 0.0290117 0.
0.688061 0.0290118 0.
0.690062 0.0290124 0.
0.692063 0.0290133 0.
0.694064 0.0290143 0.
0.696065 0.0290158 0.
0.698066 0.0290174 0.
0.499936 0.0310151 0.
0.501937 0.0310147 0.
0.503939 0.0310137 0.
0.50594 0.0310127 0.
0.507941 0.0310118 0.
0.509942 0.0310108 0.
0.511942 0.0310103 0.
0.513944 0.0310104 0.
0.515945 0.0310105 0.
0.517946 0.0310104 0.
0.519947 0.0310102 0.
0.521947 0.03101 0.
0.523949 0.0310098 0.
0.52595 0.0310097 0.
0.527951 0.0310095 0.
0.529952 0.0310083 0.
0.531953 0.031007 0.
0.533954 0.0310061 0.
0.535955 0.0310057 0.
0.537957 0.0310054 0.
0.539958 0.0310055 0.
0.541959 0.0310059 0.
0.543961 0.0310063 0.
0.545962 0.0310067 0.
0.547963 0.031007 0.
0.549964 0.0310074 0.
0.551966 0.0310069 0.
0.553968 0.0310064 0.
0.55597 0.031006 0.
0.557971 0.0310057 0.
0.559972 0.0310054 0.
0.561973 0.0310053 0.
0.563975 0.0310056 0.
0.565976 0.0310059 0.
0.567978 0.0310058 0.
0.569979 0.0310054 0.
0.57198 0.031005 0.
0.573982 0.0310049 0.
0.575984 0.0310048 0.
0.577985 0.0310048 0.
0.579987 0.031005 0.
0.581988 0.0310051 0.
0.58399 0.0310052 0.
0.585991 0.031005 0.
0.587993 0.0310048 0.
0.589995 0.0310049 0.
0.591996 0.0310052 0.
0.593997 0.0310055 0.
0.595999 0.0310059 0.
0.598001 0.0310063 0.
0.600003 0.0310067 0.
0.602005 0.0310068 0.
0.604007 0.0310068 0.
0.606009 0.0310068 0.
0.60801 0.0310062 0.
0.610011 0.0310056 0.
0.612012 0.0310052 0.
0.614014 0.0310049 0.
0.616015 0.0310046 0.
0.618017 0.0310047 0.
0.620018 0.031005 0.
0.622019 0.0310052 0.
0.62402 0.0310052 0.
0.626021 0.0310053 0.
0.628023 0.0310052 0.
0.630024 0.0310048 0.
0.632025 0.0310044 0.
0.634027 0.0310042 0.
0.636029 0.0310042 0.
0.638031 0.0310043 0.
0.640032 0.0310047 0.
0.642033 0.0310052 0.
0.644034 0.0310058 0.
0.646035 0.0310063 0.
0.648036 0.0310069 0.
0.650037 0.0310074 0.
0.652038 0.0310068 0.
0.65404 0.0310063 0.
0.656041 0.0310059 0.
0.658043 0.0310064 0.
0.660044 0.0310069 0.
0.662046 0.0310072 0.
0.664047 0.0310073 0.
0.666048 0.0310074 0.
0.668049 0.0310078 0.
0.67005 0.0310084 0.
0.672052 0.031009 0.
0.674053 0.0310095 0.
0.676054 0.0310099 0.
0.678056 0.0310104 0.
0.680057 0.031011 0.
0.682058 0.0310116 0.
0.684059 0.0310121 0.
0.68606 0.0310122 0.
0.688061 0.0310124 0.
0.690061 0.031013 0.
0.692062 0.031014 0.
0.694063 0.031015 0.
0.696064 0.0310163 0.
0.698065 0.0310177 0.
0.499937 0.0330157 0.
0.501938 0.0330151 0.
0.503939 0.0330141 0.
0.505941 0.0330132 0.
0.507941 0.0330123 0.
0.509942 0.0330114 0.
0.511943 0.0330108 0.
0.513944 0.0330107 0.
0.515945 0.0330106 0.
0.517946 0.0330105 0.
0.519947 0.0330103 0.
0.521948 0.0330102 0.
0.523949 0.0330098 0.
0.525951 0.0330094 0.
0.527952 0.0330089 0.
0.529953 0.0330079 0.
0.531954 0.033007 0.
0.533955 0.0330062 0.
0.535956 0.0330058 0.
0.537958 0.0330053 0.
0.539959 0.0330052 0.
0.541959 0.0330055 0.
0.54396 0.0330058 0.
0.545962 0.0330061 0.
0.547963 0.0330065 0.
0.549965 0.0330068 0.
0.551967 0.0330065 0.
0.553969 0.0330063 0.
0.555971 0.033006 0.
0.557972 0.0330056 0.
0.559973 0.0330052 0.
0.561974 0.0330051 0.
0.563975 0.0330054 0.
0.565976 0.0330056 0.
0.567978 0.0330054 0.
0.569979 0.0330048 0.
0.571981 0.0330042 0.
0.573983 0.0330045 0.
0.575984 0.0330048 0.
0.577986 0.0330051 0.
0.579988 0.0330049 0.
0.581989 0.0330047 0.
0.58399 0.0330047 0.
0.585992 0.0330048 0.
0.587993 0.033005 0.
0.589994 0.033005 0.
0.591996 0.0330048 0.
0.593997 0.0330047 0.
0.595999 0.033005 0.
0.598 0.0330054 0.
0.600001 0.0330059 0.
0.602004 0.0330062 0.
0.604007 0.0330066 0.
0.606009 0.0330067 0.
0.60801 0.0330062 0.
0.610011 0.0330057 0.
0.612012 0.0330053 0.
0.614014 0.0330051 0.
0.616015 0.0330049 0.
0.618016 0.033005 0.
0.620018 0.0330052 0.
0.622019 0.0330054 0.
0.62402 0.0330054 0.
0.626022 0.0330052 0.
0.628023 0.0330051 0.
0.630024 0.0330046 0.
0.632025 0.033004 0.
0.634027 0.0330038 0.
0.636029 0.0330038 0.
0.63803 0.0330039 0.
0.640032 0.0330044 0.
0.642032 0.033005 0.
0.644033 0.0330056 0.
0.646034 0.0330061 0.
0.648036 0.0330065 0.
0.650037 0.0330068 0.
0.652038 0.0330064 0.
0.65404 0.0330059 0.
0.656041 0.0330057 0.
0.658042 0.0330064 0.
0.660044 0.0330071 0.
0.662045 0.0330075 0.
0.664046 0.0330076 0.
0.666048 0.0330077 0.
0.668049 0.0330081 0.
0.67005 0.0330086 0.
0.672051 0.0330092 0.
0.674052 0.0330098 0.
0.676054 0.0330104 0.
0.678055 0.033011 0.
0.680056 0.0330116 0.
0.682057 0.0330123 0.
0.684058 0.0330127 0.
0.686059 0.0330127 0.
0.68806 0.0330128 0.
0.690061 0.0330135 0.
0.692061 0.0330146 0.
0.694062 0.0330158 0.
0.696063 0.0330166 0.
0.698064 0.0330174 0.
0.499938 0.0350163 0.
0.50194 0.0350155 0.
0.50394 0.0350146 0.
0.505941 0.0350136 0.
0.507942 0.0350128 0.
0.509943 0.0350119 0.
0.511944 0.0350113 0.
0.513945 0.035011 0.
0.515945 0.0350107 0.
0.517946 0.0350106 0.
0.519947 0.0350105 0.
0.521948 0.0350104 0.
0.52395 0.0350098 0.
0.525952 0.035009 0.
0.527953 0.0350082 0.
0.529954 0.0350076 0.
0.531955 0.035007 0.
0.533956 0.0350064 0.
0.535957 0.0350058 0.
0.537958 0.0350052 0.
0.539959 0.035005 0.
0.541959 0.0350052 0.
0.54396 0.0350054 0.
0.545961 0.0350056 0.
0.547963 0.0350059 0.
0.549965 0.0350062 0.
0.551967 0.0350062 0.
0.553969 0.0350061 0.
0.555971 0.0350059 0.
0.557973 0.0350055 0.
0.559974 0.035005 0.
0.561975 0.0350049 0.
0.563976 0.0350051 0.
0.565976 0.0350053 0.
0.567978 0.0350049 0.
0.56998 0.0350042 0.
0.571981 0.0350035 0.
0.573983 0.0350041 0.
0.575985 0.0350048 0.
0.577987 0.0350054 0.
0.579989 0.0350049 0.
0.58199 0.0350043 0.
0.583991 0.0350041 0.
0.585992 0.0350046 0.
0.587992 0.0350052 0.
0.589994 0.0350051 0.
0.591995 0.0350045 0.
0.593997 0.0350039 0.
0.595998 0.0350041 0.
0.597999 0.0350046 0.
0.6 0.0350051 0.
0.602003 0.0350057 0.
0.604006 0.0350063 0.
0.606009 0.0350067 0.
0.60801 0.0350062 0.
0.610011 0.0350057 0.
0.612012 0.0350054 0.
0.614013 0.0350052 0.
0.616015 0.0350051 0.
0.618016 0.0350052 0.
0.620017 0.0350055 0.
0.622019 0.0350057 0.
0.624021 0.0350055 0.
0.626022 0.0350052 0.
0.628024 0.0350049 0.
0.630025 0.0350043 0.
0.632026 0.0350037 0.
0.634027 0.0350033 0.
0.636028 0.0350035 0.
0.63803 0.0350036 0.
0.640031 0.035004 0.
0.642032 0.0350047 0.
0.644033 0.0350054 0.
0.646034 0.0350058 0.
0.648036 0.0350061 0.
0.650037 0.0350063 0.
0.652038 0.035006 0.
0.654039 0.0350056 0.
0.656041 0.0350055 0.
0.658042 0.0350064 0.
0.660044 0.0350073 0.
0.662045 0.0350078 0.
0.664046 0.0350079 0.
0.666047 0.035008 0.
0.668048 0.0350083 0.
0.670049 0.0350089 0.
0.67205 0.0350094 0.
0.674052 0.0350101 0.
0.676053 0.0350108 0.
0.678054 0.0350116 0.
0.680056 0.0350122 0.
0.682057 0.0350129 0.
0.684058 0.0350133 0.
0.686059 0.0350133 0.
0.688059 0.0350132 0.
0.69006 0.0350139 0.
0.69206 0.0350152 0.
0.694061 0.0350166 0.
0.696061 0.035017 0.
0.698062 0.0350172 0.
0.49994 0.0370169 0.
0.501941 0.0370159 0.
0.503942 0.0370149 0.
0.505943 0.037014 0.
0.507943 0.0370131 0.
0.509944 0.0370122 0.
0.511945 0.0370116 0.
0.513946 0.0370113 0.
0.515947 0.0370111 0.
0.517948 0.0370109 0.
0.519949 0.0370107 0.
0.52195 0.0370105 0.
0.523951 0.0370097 0.
0.525953 0.0370089 0.
0.527954 0.0370081 0.
0.529955 0.0370076 0.
0.531956 0.037007 0.
0.533957 0.0370065 0.
0.535958 0.037006 0.
0.537959 0.0370055 0.
0.53996 0.0370052 0.
0.54196 0.037005 0.
0.543961 0.0370049 0.
0.545963 0.0370051 0.
0.547964 0.0370053 0.
0.549966 0.0370056 0.
0.551967 0.0370057 0.
0.553969 0.0370059 0.
0.555971 0.0370059 0.
0.557972 0.0370054 0.
0.559974 0.0370049 0.
0.561975 0.0370046 0.
0.563976 0.0370045 0.
0.565977 0.0370043 0.
0.567978 0.0370041 0.
0.56998 0.0370039 0.
0.571981 0.0370036 0.
0.573983 0.0370039 0.
0.575985 0.0370043 0.
0.577987 0.0370046 0.
0.579988 0.0370043 0.
0.581989 0.0370039 0.
0.583991 0.0370039 0.
0.585992 0.0370045 0.
0.587993 0.037005 0.
0.589994 0.0370049 0.
0.591995 0.0370041 0.
0.593997 0.0370034 0.
0.595998 0.0370037 0.
0.598 0.0370043 0.
0.600001 0.0370049 0.
0.602004 0.0370052 0.
0.604006 0.0370055 0.
0.606008 0.0370057 0.
0.60801 0.0370054 0.
0.610011 0.0370051 0.
0.612012 0.0370049 0.
0.614014 0.0370048 0.
0.616015 0.0370046 0.
0.618016 0.0370047 0.
0.620018 0.0370048 0.
0.622019 0.037005 0.
0.62402 0.0370049 0.
0.626022 0.0370048 0.
0.628024 0.0370047 0.
0.630025 0.0370041 0.
0.632026 0.0370036 0.
0.634027 0.0370032 0.
0.636028 0.0370033 0.
0.638029 0.0370033 0.
0.64003 0.0370036 0.
0.642031 0.0370041 0.
0.644032 0.0370046 0.
0.646034 0.0370049 0.
0.648035 0.0370052 0.
0.650037 0.0370055 0.
0.652038 0.0370055 0.
0.654039 0.0370055 0.
0.65604 0.0370057 0.
0.658042 0.0370063 0.
0.660043 0.037007 0.
0.662044 0.0370075 0.
0.664045 0.0370078 0.
0.666046 0.0370081 0.
0.668047 0.0370085 0.
0.670048 0.037009 0.
0.672049 0.0370094 0.
0.67405 0.03701 0.
0.676052 0.0370107 0.
0.678053 0.0370113 0.
0.680054 0.0370119 0.
0.682056 0.0370125 0.
0.684057 0.0370131 0.
0.686058 0.0370135 0.
0.688058 0.0370139 0.
0.690059 0.0370147 0.
0.692059 0.0370157 0.
0.69406 0.0370167 0.
0.696061 0.0370175 0.
0.698062 0.0370181 0.
0.499941 0.0390174 0.
0.501942 0.0390164 0.
0.503943 0.0390153 0.
0.505944 0.0390143 0.
0.507945 0.0390133 0.
0.509945 0.0390124 0.
0.511946 0.0390118 0.
0.513947 0.0390117 0.
0.515948 0.0390115 0.
0.517949 0.0390112 0.
0.51995 0.0390108 0.
0.521951 0.0390105 0.
0.523952 0.0390097 0.
0.525953 0.0390089 0.
0.527955 0.039008 0.
0.529956 0.0390075 0.
0.531957 0.039007 0.
0.533958 0.0390066 0.
0.535959 0.0390062 0.
0.537959 0.0390058 0.
0.53996 0.0390053 0.
0.541961 0.0390049 0.
0.543963 0.0390044 0.
0.545964 0.0390045 0.
0.547965 0.0390048 0.
0.549966 0.039005 0.
0.551968 0.0390053 0.
0.553969 0.0390056 0.
0.555971 0.0390058 0.
0.557972 0.0390053 0.
0.559973 0.0390049 0.
0.561975 0.0390044 0.
0.563976 0.0390039 0.
0.565977 0.0390034 0.
0.567978 0.0390033 0.
0.56998 0.0390035 0.
0.571981 0.0390036 0.
0.573983 0.0390037 0.
0.575984 0.0390038 0.
0.577986 0.0390039 0.
0.579988 0.0390037 0.
0.581989 0.0390035 0.
0.58399 0.0390036 0.
0.585992 0.0390043 0.
0.587993 0.0390049 0.
0.589994 0.0390047 0.
0.591995 0.0390038 0.
0.593997 0.0390029 0.
0.595998 0.0390033 0.
0.598 0.039004 0.
0.600002 0.0390047 0.
0.602004 0.0390047 0.
0.604006 0.0390047 0.
0.606008 0.0390047 0.
0.60801 0.0390046 0.
0.610011 0.0390046 0.
0.612013 0.0390044 0.
0.614014 0.0390043 0.
0.616015 0.0390041 0.
0.618016 0.0390041 0.
0.620018 0.0390042 0.
0.622019 0.0390043 0.
0.62402 0.0390044 0.
0.626022 0.0390045 0.
0.628023 0.0390045 0.
0.630025 0.039004 0.
0.632026 0.0390034 0.
0.634027 0.0390031 0.
0.636028 0.0390031 0.
0.638028 0.0390031 0.
0.640029 0.0390032 0.
0.642031 0.0390034 0.
0.644032 0.0390037 0.
0.646034 0.039004 0.
0.648035 0.0390044 0.
0.650036 0.0390048 0.
0.652038 0.0390051 0.
0.654039 0.0390055 0.
0.65604 0.0390058 0.
0.658041 0.0390062 0.
0.660042 0.0390067 0.
0.662043 0.0390071 0.
0.664044 0.0390077 0.
0.666044 0.0390082 0.
0.668045 0.0390086 0.
0.670047 0.039009 0.
0.672048 0.0390094 0.
0.674049 0.03901 0.
0.676051 0.0390105 0.
0.678052 0.039011 0.
0.680053 0.0390116 0.
0.682054 0.0390122 0.
0.684055 0.0390128 0.
0.686056 0.0390137 0.
0.688058 0.0390147 0.
0.690058 0.0390154 0.
0.692059 0.0390162 0.
0.694059 0.0390169 0.
0.69606 0.0390179 0.
0.698061 0.0390191 0.
0.499942 0.0410179 0.
0.501943 0.0410168 0.
0.503945 0.0410156 0.
0.505946 0.0410146 0.
0.507946 0.0410137 0.
0.509946 0.0410129 0.
0.511947 0.0410123 0.
0.513948 0.0410119 0.
0.515949 0.0410116 0.
0.51795 0.0410113 0.
0.519951 0.0410109 0.
0.521952 0.0410106 0.
0.523953 0.0410098 0.
0.525954 0.0410089 0.
0.527955 0.041008 0.
0.529956 0.0410076 0.
0.531957 0.0410073 0.
0.533958 0.0410069 0.
0.535959 0.0410064 0.
0.53796 0.041006 0.
0.539961 0.0410055 0.
0.541962 0.0410049 0.
0.543963 0.0410044 0.
0.545964 0.0410045 0.
0.547965 0.0410047 0.
0.549966 0.041005 0.
0.551968 0.0410053 0.
0.553969 0.0410056 0.
0.55597 0.0410057 0.
0.557972 0.0410052 0.
0.559973 0.0410047 0.
0.561975 0.0410041 0.
0.563976 0.0410035 0.
0.565978 0.0410028 0.
0.567979 0.0410028 0.
0.56998 0.0410031 0.
0.571981 0.0410034 0.
0.573982 0.0410033 0.
0.575984 0.0410031 0.
0.577986 0.041003 0.
0.579987 0.0410031 0.
0.581989 0.0410032 0.
0.58399 0.0410034 0.
0.585992 0.0410039 0.
0.587993 0.0410045 0.
0.589995 0.0410042 0.
0.591996 0.0410034 0.
0.593997 0.0410026 0.
0.595999 0.0410029 0.
0.598 0.0410036 0.
0.600002 0.0410043 0.
0.602004 0.0410041 0.
0.604006 0.041004 0.
0.606008 0.0410039 0.
0.60801 0.041004 0.
0.610011 0.041004 0.
0.612013 0.041004 0.
0.614014 0.0410038 0.
0.616015 0.0410036 0.
0.618017 0.0410036 0.
0.620018 0.0410037 0.
0.622019 0.0410037 0.
0.62402 0.041004 0.
0.626022 0.0410042 0.
0.628023 0.0410044 0.
0.630024 0.0410038 0.
0.632026 0.0410032 0.
0.634027 0.0410028 0.
0.636027 0.0410028 0.
0.638028 0.0410027 0.
0.640029 0.0410028 0.
0.642031 0.0410031 0.
0.644032 0.0410033 0.
0.646033 0.0410036 0.
0.648035 0.0410039 0.
0.650036 0.0410042 0.
0.652037 0.0410048 0.
0.654038 0.0410053 0.
0.656039 0.0410059 0.
0.65804 0.0410063 0.
0.660041 0.0410068 0.
0.662042 0.0410073 0.
0.664043 0.0410079 0.
0.666043 0.0410084 0.
0.668045 0.0410088 0.
0.670046 0.0410091 0.
0.672047 0.0410094 0.
0.674048 0.0410099 0.
0.67605 0.0410105 0.
0.678051 0.041011 0.
0.680052 0.0410116 0.
0.682053 0.0410122 0.
0.684054 0.0410129 0.
0.686055 0.041014 0.
0.688056 0.0410151 0.
0.690057 0.0410159 0.
0.692058 0.0410166 0.
0.694058 0.0410174 0.
0.696059 0.0410185 0.
0.69806 0.0410198 0.
0.499944 0.0430184 0.
0.501945 0.0430171 0.
0.503946 0.0430159 0.
0.505946 0.0430149 0.
0.507947 0.0430142 0.
0.509948 0.0430136 0.
0.511948 0.0430129 0.
0.513949 0.0430121 0.
0.51595 0.0430114 0.
0.517951 0.043011 0.
0.519952 0.0430109 0.
0.521953 0.0430108 0.
0.523954 0.0430099 0.
0.525955 0.0430089 0.
0.527956 0.043008 0.
0.529957 0.0430078 0.
0.531958 0.0430077 0.
0.533959 0.0430074 0.
0.535959 0.0430067 0.
0.53796 0.043006 0.
0.539961 0.0430055 0.
0.541962 0.0430052 0.
0.543964 0.0430048 0.
0.545964 0.043005 0.
0.547965 0.0430053 0.
0.549966 0.0430056 0.
0.551968 0.0430057 0.
0.553969 0.0430057 0.
0.55597 0.0430057 0.
0.557972 0.0430051 0.
0.559973 0.0430045 0.
0.561975 0.0430039 0.
0.563976 0.0430033 0.
0.565978 0.0430027 0.
0.567979 0.0430025 0.
0.56998 0.0430027 0.
0.571981 0.0430028 0.
0.573983 0.0430025 0.
0.575984 0.0430022 0.
0.577986 0.0430019 0.
0.579987 0.0430024 0.
0.581988 0.0430028 0.
0.58399 0.0430032 0.
0.585992 0.0430034 0.
0.587993 0.0430037 0.
0.589995 0.0430035 0.
0.591996 0.0430029 0.
0.593998 0.0430023 0.
0.595999 0.0430025 0.
0.598001 0.0430031 0.
0.600002 0.0430036 0.
0.602004 0.0430035 0.
0.604007 0.0430034 0.
0.606009 0.0430033 0.
0.60801 0.0430034 0.
0.610011 0.0430036 0.
0.612013 0.0430035 0.
0.614014 0.0430033 0.
0.616015 0.0430031 0.
0.618016 0.0430031 0.
0.620017 0.0430033 0.
0.622018 0.0430034 0.
0.62402 0.0430037 0.
0.626022 0.0430041 0.
0.628023 0.0430043 0.
0.630024 0.0430036 0.
0.632025 0.0430029 0.
0.634026 0.0430025 0.
0.636027 0.0430023 0.
0.638028 0.0430022 0.
0.64003 0.0430025 0.
0.642031 0.043003 0.
0.644032 0.0430036 0.
0.646034 0.0430038 0.
0.648035 0.0430038 0.
0.650036 0.0430039 0.
0.652037 0.0430045 0.
0.654038 0.0430052 0.
0.656039 0.0430058 0.
0.65804 0.0430066 0.
0.660041 0.0430075 0.
0.662041 0.043008 0.
0.664042 0.0430084 0.
0.666043 0.0430088 0.
0.668044 0.043009 0.
0.670045 0.0430092 0.
0.672046 0.0430094 0.
0.674047 0.04301 0.
0.676049 0.0430106 0.
0.67805 0.0430112 0.
0.680051 0.0430119 0.
0.682052 0.0430125 0.
0.684053 0.0430133 0.
0.686054 0.0430142 0.
0.688055 0.0430152 0.
0.690056 0.0430161 0.
0.692057 0.0430171 0.
0.694058 0.0430181 0.
0.696059 0.0430192 0.
0.698059 0.0430204 0.
0.499946 0.045019 0.
0.501946 0.0450175 0.
0.503947 0.0450162 0.
0.505947 0.0450152 0.
0.507948 0.0450147 0.
0.509949 0.0450143 0.
0.51195 0.0450136 0.
0.51395 0.0450124 0.
0.515951 0.0450112 0.
0.517951 0.0450108 0.
0.519952 0.0450109 0.
0.521953 0.045011 0.
0.523954 0.04501 0.
0.525956 0.0450089 0.
0.527957 0.0450079 0.
0.529957 0.045008 0.
0.531958 0.0450081 0.
0.533959 0.0450079 0.
0.535959 0.045007 0.
0.53796 0.0450061 0.
0.539961 0.0450056 0.
0.541962 0.0450054 0.
0.543964 0.0450052 0.
0.545965 0.0450054 0.
0.547965 0.0450058 0.
0.549966 0.0450062 0.
0.551968 0.045006 0.
0.553969 0.0450059 0.
0.555971 0.0450056 0.
0.557972 0.045005 0.
0.559974 0.0450043 0.
0.561975 0.0450037 0.
0.563976 0.0450031 0.
0.565978 0.0450025 0.
0.567979 0.0450023 0.
0.56998 0.0450023 0.
0.571982 0.0450022 0.
0.573983 0.0450018 0.
0.575984 0.0450013 0.
0.577985 0.0450009 0.
0.579987 0.0450017 0.
0.581988 0.0450024 0.
0.58399 0.0450029 0.
0.585992 0.0450029 0.
0.587993 0.0450029 0.
0.589995 0.0450027 0.
0.591997 0.0450023 0.
0.593998 0.045002 0.
0.596 0.0450022 0.
0.598001 0.0450026 0.
0.600002 0.045003 0.
0.602004 0.0450029 0.
0.604007 0.0450028 0.
0.606009 0.0450028 0.
0.60801 0.0450029 0.
0.610011 0.0450031 0.
0.612013 0.0450031 0.
0.614014 0.0450028 0.
0.616015 0.0450026 0.
0.618016 0.0450026 0.
0.620017 0.0450028 0.
0.622018 0.045003 0.
0.62402 0.0450035 0.
0.626021 0.045004 0.
0.628023 0.0450043 0.
0.630024 0.0450035 0.
0.632025 0.0450027 0.
0.634026 0.0450021 0.
0.636027 0.0450019 0.
0.638029 0.0450018 0.
0.64003 0.0450022 0.
0.642031 0.045003 0.
0.644033 0.0450038 0.
0.646034 0.0450039 0.
0.648035 0.0450037 0.
0.650036 0.0450036 0.
0.652037 0.0450043 0.
0.654038 0.045005 0.
0.656039 0.0450058 0.
0.658039 0.0450069 0.
0.66004 0.0450081 0.
0.662041 0.0450087 0.
0.664042 0.0450089 0.
0.666043 0.0450091 0.
0.668044 0.0450093 0.
0.670045 0.0450093 0.
0.672046 0.0450094 0.
0.674047 0.04501 0.
0.676048 0.0450107 0.
0.678049 0.0450114 0.
0.68005 0.0450122 0.
0.682051 0.0450129 0.
0.684052 0.0450137 0.
0.686052 0.0450145 0.
0.688053 0.0450153 0.
0.690054 0.0450164 0.
0.692056 0.0450177 0.
0.694058 0.0450189 0.
0.696058 0.0450199 0.
0.698058 0.0450209 0.
0.499946 0.0470192 0.
0.501947 0.0470178 0.
0.503948 0.0470165 0.
0.505948 0.0470154 0.
0.507949 0.0470148 0.
0.509949 0.0470143 0.
0.51195 0.0470136 0.
0.513951 0.0470126 0.
0.515951 0.0470117 0.
0.517952 0.0470111 0.
0.519953 0.0470108 0.
0.521954 0.0470105 0.
0.523955 0.0470097 0.
0.525956 0.0470089 0.
0.527957 0.0470081 0.
0.529958 0.0470081 0.
0.531959 0.047008 0.
0.53396 0.0470077 0.
0.535961 0.0470069 0.
0.537961 0.0470062 0.
0.539962 0.0470056 0.
0.541964 0.0470053 0.
0.543965 0.0470049 0.
0.545966 0.047005 0.
0.547966 0.0470051 0.
0.549967 0.0470053 0.
0.551968 0.0470053 0.
0.553969 0.0470052 0.
0.555971 0.047005 0.
0.557972 0.0470045 0.
0.559974 0.047004 0.
0.561975 0.0470034 0.
0.563977 0.0470027 0.
0.565978 0.0470021 0.
0.56798 0.0470019 0.
0.569981 0.047002 0.
0.571982 0.047002 0.
0.573983 0.0470018 0.
0.575985 0.0470016 0.
0.577986 0.0470014 0.
0.579988 0.0470018 0.
0.581989 0.0470021 0.
0.58399 0.0470023 0.
0.585992 0.0470023 0.
0.587994 0.0470023 0.
0.589995 0.0470022 0.
0.591997 0.0470021 0.
0.593999 0.047002 0.
0.596 0.0470021 0.
0.598001 0.0470023 0.
0.600002 0.0470026 0.
0.602004 0.0470025 0.
0.604006 0.0470023 0.
0.606009 0.0470022 0.
0.60801 0.0470023 0.
0.610011 0.0470024 0.
0.612013 0.0470025 0.
0.614014 0.0470024 0.
0.616015 0.0470024 0.
0.618016 0.0470024 0.
0.620017 0.0470024 0.
0.622018 0.0470025 0.
0.62402 0.0470028 0.
0.626021 0.0470032 0.
0.628023 0.0470035 0.
0.630024 0.047003 0.
0.632025 0.0470025 0.
0.634026 0.0470021 0.
0.636027 0.0470019 0.
0.638028 0.0470016 0.
0.640029 0.0470019 0.
0.642031 0.0470026 0.
0.644032 0.0470033 0.
0.646033 0.0470035 0.
0.648034 0.0470035 0.
0.650035 0.0470036 0.
0.652036 0.0470041 0.
0.654037 0.0470046 0.
0.656038 0.0470052 0.
0.658039 0.0470064 0.
0.66004 0.0470076 0.
0.662041 0.0470082 0.
0.664042 0.0470083 0.
0.666043 0.0470083 0.
0.668043 0.0470087 0.
0.670044 0.0470092 0.
0.672045 0.0470097 0.
0.674046 0.0470106 0.
0.676047 0.0470115 0.
0.678048 0.0470123 0.
0.680049 0.0470129 0.
0.68205 0.0470135 0.
0.68405 0.0470142 0.
0.686051 0.047015 0.
0.688052 0.0470159 0.
0.690053 0.0470169 0.
0.692054 0.047018 0.
0.694056 0.0470191 0.
0.696057 0.0470204 0.
0.698057 0.0470217 0.
0.499947 0.0490194 0.
0.501948 0.0490182 0.
0.503949 0.0490168 0.
0.505949 0.0490156 0.
0.507949 0.0490149 0.
0.50995 0.0490143 0.
0.51195 0.0490136 0.
0.513951 0.0490129 0.
0.515952 0.0490122 0.
0.517953 0.0490115 0.
0.519954 0.0490107 0.
0.521955 0.0490099 0.
0.523956 0.0490094 0.
0.525957 0.0490088 0.
0.527958 0.0490083 0.
0.529959 0.0490081 0.
0.53196 0.0490079 0.
0.533961 0.0490075 0.
0.535962 0.0490069 0.
0.537963 0.0490062 0.
0.539964 0.0490057 0.
0.541965 0.0490052 0.
0.543966 0.0490046 0.
0.545967 0.0490045 0.
0.547967 0.0490045 0.
0.549968 0.0490045 0.
0.551969 0.0490045 0.
0.55397 0.0490045 0.
0.555971 0.0490044 0.
0.557973 0.0490041 0.
0.559974 0.0490037 0.
0.561976 0.0490032 0.
0.563977 0.0490024 0.
0.565979 0.0490016 0.
0.56798 0.0490015 0.
0.569981 0.0490017 0.
0.571982 0.0490018 0.
0.573984 0.0490018 0.
0.575985 0.0490019 0.
0.577987 0.0490019 0.
0.579988 0.0490018 0.
0.58199 0.0490018 0.
0.583991 0.0490018 0.
0.585993 0.0490017 0.
0.587994 0.0490017 0.
0.589996 0.0490017 0.
0.591997 0.0490018 0.
0.593999 0.0490019 0.
0.596 0.049002 0.
0.598001 0.0490021 0.
0.600002 0.0490022 0.
0.602004 0.049002 0.
0.604006 0.0490018 0.
0.606008 0.0490017 0.
0.60801 0.0490017 0.
0.610011 0.0490018 0.
0.612013 0.0490019 0.
0.614013 0.0490021 0.
0.616014 0.0490023 0.
0.618015 0.0490022 0.
0.620017 0.0490021 0.
0.622018 0.0490019 0.
0.62402 0.0490021 0.
0.626021 0.0490024 0.
0.628022 0.0490026 0.
0.630023 0.0490025 0.
0.632025 0.0490024 0.
0.634026 0.0490021 0.
0.636027 0.0490018 0.
0.638028 0.0490015 0.
0.640029 0.0490017 0.
0.64203 0.0490022 0.
0.644031 0.0490028 0.
0.646032 0.0490031 0.
0.648034 0.0490033 0.
0.650035 0.0490035 0.
0.652036 0.0490038 0.
0.654037 0.0490042 0.
0.656038 0.0490047 0.
0.658039 0.0490059 0.
0.66004 0.0490071 0.
0.66204 0.0490077 0.
0.664041 0.0490076 0.
0.666042 0.0490075 0.
0.668043 0.0490081 0.
0.670044 0.0490091 0.
0.672044 0.04901 0.
0.674045 0.0490111 0.
0.676046 0.0490122 0.
0.678047 0.0490132 0.
0.680048 0.0490136 0.
0.682048 0.049014 0.
0.684049 0.0490146 0.
0.68605 0.0490155 0.
0.688051 0.0490164 0.
0.690052 0.0490174 0.
0.692053 0.0490183 0.
0.694054 0.0490193 0.
0.696055 0.0490208 0.
0.698056 0.0490224 0.
0.499948 0.0510198 0.
0.501949 0.0510185 0.
0.503949 0.0510172 0.
0.50595 0.051016 0.
0.50795 0.0510153 0.
0.50995 0.0510145 0.
0.511951 0.0510138 0.
0.513952 0.0510132 0.
0.515953 0.0510125 0.
0.517954 0.0510117 0.
0.519955 0.0510108 0.
0.521955 0.0510099 0.
0.523956 0.0510094 0.
0.525957 0.0510089 0.
0.527958 0.0510084 0.
0.52996 0.0510082 0.
0.531961 0.051008 0.
0.533962 0.0510077 0.
0.535963 0.051007 0.
0.537963 0.0510063 0.
0.539964 0.0510056 0.
0.541966 0.0510051 0.
0.543967 0.0510045 0.
0.545967 0.0510044 0.
0.547968 0.0510043 0.
0.549968 0.0510042 0.
0.551969 0.051004 0.
0.55397 0.0510038 0.
0.555971 0.0510037 0.
0.557973 0.0510035 0.
0.559975 0.0510033 0.
0.561976 0.0510029 0.
0.563978 0.0510022 0.
0.565979 0.0510014 0.
0.56798 0.0510013 0.
0.569981 0.0510015 0.
0.571982 0.0510017 0.
0.573984 0.0510018 0.
0.575986 0.0510019 0.
0.577988 0.051002 0.
0.579989 0.0510017 0.
0.58199 0.0510014 0.
0.583992 0.0510013 0.
0.585993 0.0510013 0.
0.587994 0.0510014 0.
0.589996 0.0510015 0.
0.591998 0.0510016 0.
0.593999 0.0510017 0.
0.596001 0.0510018 0.
0.598001 0.0510019 0.
0.600002 0.0510019 0.
0.602004 0.0510017 0.
0.604006 0.0510015 0.
0.606008 0.0510013 0.
0.608009 0.0510013 0.
0.610011 0.0510014 0.
0.612012 0.0510015 0.
0.614013 0.0510017 0.
0.616014 0.0510019 0.
0.618015 0.0510019 0.
0.620016 0.0510017 0.
0.622018 0.0510015 0.
0.624019 0.0510017 0.
0.626021 0.0510018 0.
0.628022 0.051002 0.
0.630023 0.0510022 0.
0.632024 0.0510024 0.
0.634025 0.0510023 0.
0.636026 0.0510018 0.
0.638027 0.0510013 0.
0.640028 0.0510014 0.
0.642029 0.051002 0.
0.64403 0.0510025 0.
0.646031 0.051003 0.
0.648033 0.0510034 0.
0.650035 0.0510038 0.
0.652035 0.0510039 0.
0.654036 0.051004 0.
0.656037 0.0510044 0.
0.658038 0.0510055 0.
0.660039 0.0510065 0.
0.66204 0.0510071 0.
0.664041 0.0510072 0.
0.666042 0.0510073 0.
0.668042 0.0510081 0.
0.670043 0.0510092 0.
0.672043 0.0510103 0.
0.674044 0.0510115 0.
0.676045 0.0510127 0.
0.678046 0.0510137 0.
0.680047 0.0510141 0.
0.682047 0.0510145 0.
0.684048 0.0510151 0.
0.686049 0.051016 0.
0.688049 0.0510169 0.
0.69005 0.0510178 0.
0.692052 0.0510187 0.
0.694053 0.0510196 0.
0.696054 0.0510213 0.
0.698055 0.0510231 0.
0.499949 0.0530202 0.
0.501949 0.0530188 0.
0.50395 0.0530176 0.
0.505951 0.0530165 0.
0.507951 0.0530158 0.
0.509952 0.0530151 0.
0.511952 0.0530143 0.
0.513953 0.0530134 0.
0.515954 0.0530126 0.
0.517955 0.0530118 0.
0.519956 0.0530112 0.
0.521956 0.0530105 0.
0.523957 0.0530098 0.
0.525958 0.053009 0.
0.527959 0.0530083 0.
0.52996 0.0530083 0.
0.531961 0.0530083 0.
0.533962 0.0530081 0.
0.535963 0.0530072 0.
0.537964 0.0530063 0.
0.539965 0.0530056 0.
0.541966 0.0530051 0.
0.543967 0.0530046 0.
0.545968 0.0530045 0.
0.547968 0.0530046 0.
0.549968 0.0530046 0.
0.55197 0.0530039 0.
0.553971 0.0530032 0.
0.555972 0.0530027 0.
0.557974 0.0530028 0.
0.559975 0.0530029 0.
0.561976 0.0530027 0.
0.563978 0.053002 0.
0.565979 0.0530013 0.
0.56798 0.0530012 0.
0.569981 0.0530014 0.
0.571983 0.0530016 0.
0.573985 0.0530017 0.
0.575986 0.0530018 0.
0.577988 0.0530018 0.
0.579989 0.0530014 0.
0.58199 0.053001 0.
0.583992 0.0530009 0.
0.585993 0.0530011 0.
0.587995 0.0530014 0.
0.589996 0.0530015 0.
0.591998 0.0530014 0.
0.593999 0.0530014 0.
0.596001 0.0530015 0.
0.598002 0.0530016 0.
0.600003 0.0530017 0.
0.602004 0.0530015 0.
0.604006 0.0530012 0.
0.606008 0.0530011 0.
0.608009 0.0530012 0.
0.61001 0.0530013 0.
0.612011 0.0530013 0.
0.614013 0.0530014 0.
0.616014 0.0530014 0.
0.618015 0.0530014 0.
0.620016 0.0530014 0.
0.622017 0.0530014 0.
0.624019 0.0530014 0.
0.62602 0.0530015 0.
0.628022 0.0530016 0.
0.630023 0.0530021 0.
0.632024 0.0530025 0.
0.634025 0.0530026 0.
0.636026 0.0530019 0.
0.638027 0.0530011 0.
0.640028 0.0530012 0.
0.642029 0.0530019 0.
0.64403 0.0530026 0.
0.646031 0.0530032 0.
0.648032 0.0530038 0.
0.650034 0.0530044 0.
0.652034 0.0530043 0.
0.654035 0.0530042 0.
0.656036 0.0530043 0.
0.658037 0.0530051 0.
0.660038 0.053006 0.
0.662039 0.0530066 0.
0.66404 0.0530071 0.
0.66604 0.0530075 0.
0.668041 0.0530084 0.
0.670042 0.0530096 0.
0.672042 0.0530107 0.
0.674043 0.0530117 0.
0.676044 0.0530128 0.
0.678045 0.0530137 0.
0.680046 0.0530143 0.
0.682047 0.0530148 0.
0.684048 0.0530155 0.
0.686048 0.0530164 0.
0.688049 0.0530173 0.
0.690049 0.0530182 0.
0.69205 0.0530191 0.
0.694051 0.0530201 0.
0.696052 0.0530218 0.
0.698053 0.0530237 0.
0.499949 0.0550205 0.
0.50195 0.0550191 0.
0.50395 0.055018 0.
0.505951 0.0550171 0.
0.507952 0.0550164 0.
0.509953 0.0550157 0.
0.511954 0.0550148 0.
0.513955 0.0550137 0.
0.515956 0.0550126 0.
0.517956 0.0550119 0.
0.519957 0.0550115 0.
0.521957 0.0550111 0.
0.523958 0.0550101 0.
0.525959 0.0550091 0.
0.52796 0.0550082 0.
0.52996 0.0550084 0.
0.531961 0.0550086 0.
0.533962 0.0550085 0.
0.535963 0.0550073 0.
0.537964 0.0550062 0.
0.539965 0.0550055 0.
0.541966 0.0550051 0.
0.543968 0.0550047 0.
0.545968 0.0550047 0.
0.547969 0.0550048 0.
0.549969 0.055005 0.
0.55197 0.0550038 0.
0.553972 0.0550026 0.
0.555973 0.0550017 0.
0.557974 0.0550021 0.
0.559976 0.0550026 0.
0.561977 0.0550025 0.
0.563978 0.0550019 0.
0.565978 0.0550013 0.
0.56798 0.0550012 0.
0.569981 0.0550014 0.
0.571983 0.0550016 0.
0.573985 0.0550016 0.
0.575987 0.0550016 0.
0.577989 0.0550015 0.
0.57999 0.0550011 0.
0.581991 0.0550006 0.
0.583992 0.0550005 0.
0.585993 0.0550009 0.
0.587995 0.0550013 0.
0.589996 0.0550014 0.
0.591998 0.0550013 0.
0.594 0.0550011 0.
0.596001 0.0550012 0.
0.598002 0.0550013 0.
0.600003 0.0550015 0.
0.602004 0.0550012 0.
0.604006 0.055001 0.
0.606008 0.0550008 0.
0.608008 0.055001 0.
0.610009 0.0550012 0.
0.612011 0.0550012 0.
0.614012 0.0550011 0.
0.616014 0.0550009 0.
0.618015 0.055001 0.
0.620015 0.0550011 0.
0.622016 0.0550012 0.
0.624018 0.0550012 0.
0.62602 0.0550012 0.
0.628021 0.0550012 0.
0.630023 0.055002 0.
0.632024 0.0550027 0.
0.634025 0.0550029 0.
0.636026 0.0550019 0.
0.638027 0.0550009 0.
0.640028 0.055001 0.
0.642029 0.0550018 0.
0.64403 0.0550026 0.
0.646031 0.0550034 0.
0.648032 0.0550042 0.
0.650033 0.055005 0.
0.652033 0.0550047 0.
0.654034 0.0550044 0.
0.656034 0.0550042 0.
0.658036 0.0550048 0.
0.660037 0.0550054 0.
0.662038 0.0550061 0.
0.664038 0.055007 0.
0.666039 0.0550078 0.
0.66804 0.0550088 0.
0.670041 0.0550099 0.
0.672042 0.055011 0.
0.674042 0.0550119 0.
0.676043 0.0550129 0.
0.678044 0.0550138 0.
0.680045 0.0550144 0.
0.682046 0.0550151 0.
0.684047 0.0550159 0.
0.686047 0.0550168 0.
0.688048 0.0550176 0.
0.690048 0.0550185 0.
0.692049 0.0550195 0.
0.69405 0.0550205 0.
0.696051 0.0550223 0.
0.698052 0.0550243 0.
0.499951 0.0570206 0.
0.501951 0.0570195 0.
0.503952 0.0570185 0.
0.505952 0.0570175 0.
0.507953 0.0570166 0.
0.509954 0.0570157 0.
0.511955 0.0570147 0.
0.513956 0.0570136 0.
0.515957 0.0570124 0.
0.517957 0.0570118 0.
0.519958 0.0570114 0.
0.521959 0.057011 0.
0.52396 0.0570104 0.
0.52596 0.0570098 0.
0.527961 0.0570091 0.
0.529962 0.0570089 0.
0.531962 0.0570087 0.
0.533963 0.0570082 0.
0.535964 0.0570075 0.
0.537965 0.0570067 0.
0.539966 0.0570059 0.
0.541967 0.0570051 0.
0.543968 0.0570043 0.
0.545969 0.0570044 0.
0.547969 0.0570046 0.
0.54997 0.0570049 0.
0.551971 0.0570037 0.
0.553973 0.0570025 0.
0.555974 0.0570016 0.
0.557975 0.0570016 0.
0.559976 0.0570016 0.
0.561977 0.0570014 0.
0.563978 0.0570009 0.
0.565979 0.0570005 0.
0.56798 0.0570005 0.
0.569982 0.0570007 0.
0.571984 0.057001 0.
0.573985 0.0570011 0.
0.575987 0.0570012 0.
0.577988 0.0570013 0.
0.57999 0.0570009 0.
0.581991 0.0570005 0.
0.583992 0.0570002 0.
0.585994 0.0570002 0.
0.587995 0.0570002 0.
0.589996 0.0570004 0.
0.591998 0.0570008 0.
0.593999 0.0570012 0.
0.596 0.0570011 0.
0.598001 0.0570008 0.
0.600003 0.0570006 0.
0.602004 0.0570007 0.
0.604006 0.0570007 0.
0.606007 0.0570008 0.
0.608008 0.0570008 0.
0.610009 0.0570008 0.
0.61201 0.0570008 0.
0.614011 0.0570007 0.
0.616013 0.0570007 0.
0.618014 0.0570008 0.
0.620015 0.057001 0.
0.622016 0.0570012 0.
0.624018 0.0570011 0.
0.626019 0.057001 0.
0.628021 0.0570009 0.
0.630022 0.0570015 0.
0.632023 0.057002 0.
0.634024 0.0570022 0.
0.636025 0.0570016 0.
0.638026 0.0570011 0.
0.640027 0.0570013 0.
0.642028 0.0570019 0.
0.644029 0.0570025 0.
0.64603 0.0570031 0.
0.648031 0.0570038 0.
0.650031 0.0570044 0.
0.652032 0.0570044 0.
0.654033 0.0570045 0.
0.656034 0.0570045 0.
0.658035 0.0570048 0.
0.660036 0.0570051 0.
0.662037 0.0570056 0.
0.664037 0.0570065 0.
0.666038 0.0570074 0.
0.668039 0.0570083 0.
0.67004 0.0570093 0.
0.67204 0.0570103 0.
0.674041 0.0570113 0.
0.676042 0.0570123 0.
0.678043 0.0570133 0.
0.680044 0.057014 0.
0.682045 0.0570147 0.
0.684046 0.0570155 0.
0.686046 0.0570165 0.
0.688047 0.0570175 0.
0.690047 0.0570187 0.
0.692048 0.0570199 0.
0.694049 0.0570212 0.
0.69605 0.0570225 0.
0.69805 0.0570238 0.
0.499952 0.0590208 0.
0.501952 0.0590198 0.
0.503953 0.0590189 0.
0.505953 0.059018 0.
0.507954 0.0590169 0.
0.509955 0.0590158 0.
0.511956 0.0590146 0.
0.513957 0.0590134 0.
0.515958 0.0590122 0.
0.517959 0.0590116 0.
0.51996 0.0590113 0.
0.521961 0.059011 0.
0.523961 0.0590107 0.
0.525962 0.0590104 0.
0.527962 0.0590101 0.
0.529963 0.0590094 0.
0.531964 0.0590087 0.
0.533964 0.059008 0.
0.535965 0.0590076 0.
0.537966 0.0590071 0.
0.539967 0.0590063 0.
0.541968 0.0590051 0.
0.543969 0.059004 0.
0.545969 0.059004 0.
0.54797 0.0590044 0.
0.549971 0.0590048 0.
0.551972 0.0590037 0.
0.553973 0.0590025 0.
0.555974 0.0590015 0.
0.557976 0.0590011 0.
0.559977 0.0590007 0.
0.561978 0.0590003 0.
0.563979 0.059 0.
0.56598 0.0589997 0.
0.567981 0.0589998 0.
0.569983 0.059 0.
0.571984 0.0590003 0.
0.573986 0.0590006 0.
0.575987 0.0590009 0.
0.577988 0.0590011 0.
0.57999 0.0590007 0.
0.581991 0.0590003 0.
0.583993 0.0589999 0.
0.585994 0.0589994 0.
0.587995 0.058999 0.
0.589996 0.0589993 0.
0.591997 0.0590003 0.
0.593998 0.0590012 0.
0.596 0.059001 0.
0.598001 0.0590003 0.
0.600003 0.0589997 0.
0.602004 0.0590001 0.
0.604006 0.0590005 0.
0.606007 0.0590007 0.
0.608008 0.0590006 0.
0.610008 0.0590004 0.
0.612009 0.0590003 0.
0.614011 0.0590004 0.
0.616012 0.0590004 0.
0.618013 0.0590006 0.
0.620014 0.0590009 0.
0.622016 0.0590011 0.
0.624017 0.059001 0.
0.626019 0.0590008 0.
0.628021 0.0590006 0.
0.630021 0.0590009 0.
0.632022 0.0590013 0.
0.634023 0.0590015 0.
0.636024 0.0590014 0.
0.638025 0.0590013 0.
0.640026 0.0590015 0.
0.642027 0.059002 0.
0.644028 0.0590024 0.
0.646029 0.0590029 0.
0.64803 0.0590033 0.
0.65003 0.0590038 0.
0.652031 0.0590042 0.
0.654032 0.0590046 0.
0.656033 0.0590048 0.
0.658034 0.0590048 0.
0.660035 0.0590048 0.
0.662036 0.0590051 0.
0.664036 0.059006 0.
0.666037 0.0590069 0.
0.668038 0.0590078 0.
0.670038 0.0590087 0.
0.672039 0.0590097 0.
0.67404 0.0590107 0.
0.676041 0.0590118 0.
0.678042 0.0590128 0.
0.680043 0.0590135 0.
0.682044 0.0590142 0.
0.684045 0.0590151 0.
0.686045 0.0590163 0.
0.688046 0.0590174 0.
0.690046 0.0590188 0.
0.692047 0.0590203 0.
0.694048 0.0590218 0.
0.696048 0.0590227 0.
0.698049 0.0590234 0.
0.499953 0.0610216 0.
0.501954 0.0610203 0.
0.503954 0.0610193 0.
0.505954 0.0610182 0.
0.507955 0.061017 0.
0.509956 0.0610158 0.
0.511956 0.0610146 0.
0.513957 0.0610135 0.
0.515958 0.0610124 0.
0.517959 0.0610118 0.
0.51996 0.0610114 0.
0.521961 0.061011 0.
0.523962 0.0610108 0.
0.525962 0.0610106 0.
0.527963 0.0610103 0.
0.529964 0.0610095 0.
0.531965 0.0610087 0.
0.533966 0.061008 0.
0.535966 0.0610077 0.
0.537967 0.0610073 0.
0.539968 0.0610065 0.
0.541969 0.0610053 0.
0.543969 0.0610041 0.
0.54597 0.0610039 0.
0.547971 0.0610041 0.
0.549972 0.0610042 0.
0.551973 0.0610033 0.
0.553974 0.0610023 0.
0.555975 0.0610014 0.
0.557976 0.061001 0.
0.559977 0.0610005 0.
0.561978 0.061 0.
0.563979 0.0609997 0.
0.56598 0.0609993 0.
0.567981 0.0609992 0.
0.569983 0.0609993 0.
0.571985 0.0609993 0.
0.573986 0.0609998 0.
0.575987 0.0610003 0.
0.577988 0.0610007 0.
0.57999 0.0610003 0.
0.581991 0.0609998 0.
0.583993 0.0609994 0.
0.585994 0.060999 0.
0.587995 0.0609986 0.
0.589996 0.060999 0.
0.591997 0.061 0.
0.593998 0.0610009 0.
0.595999 0.0610007 0.
0.598001 0.0610001 0.
0.600003 0.0609996 0.
0.602004 0.0609999 0.
0.604005 0.0610003 0.
0.606007 0.0610005 0.
0.608007 0.0610003 0.
0.610008 0.0610001 0.
0.612009 0.061 0.
0.61401 0.061 0.
0.616012 0.061 0.
0.618013 0.0610002 0.
0.620014 0.0610005 0.
0.622015 0.0610008 0.
0.624017 0.0610006 0.
0.626019 0.0610003 0.
0.62802 0.0610001 0.
0.630021 0.0610004 0.
0.632022 0.0610007 0.
0.634023 0.061001 0.
0.636024 0.0610011 0.
0.638025 0.0610013 0.
0.640026 0.0610015 0.
0.642027 0.0610019 0.
0.644028 0.0610022 0.
0.646028 0.0610027 0.
0.648029 0.0610032 0.
0.65003 0.0610037 0.
0.652031 0.0610041 0.
0.654032 0.0610046 0.
0.656033 0.0610049 0.
0.658034 0.0610049 0.
0.660034 0.0610048 0.
0.662035 0.0610052 0.
0.664036 0.061006 0.
0.666036 0.0610068 0.
0.668037 0.0610076 0.
0.670038 0.0610084 0.
0.672039 0.0610092 0.
0.67404 0.0610103 0.
0.676041 0.0610115 0.
0.678042 0.0610126 0.
0.680042 0.0610133 0.
0.682043 0.0610141 0.
0.684043 0.0610151 0.
0.686044 0.0610163 0.
0.688044 0.0610176 0.
0.690045 0.061019 0.
0.692046 0.0610206 0.
0.694046 0.0610221 0.
0.696047 0.0610229 0.
0.698047 0.0610235 0.
0.499955 0.0630229 0.
0.501955 0.0630211 0.
0.503955 0.0630196 0.
0.505956 0.0630182 0.
0.507956 0.063017 0.
0.509957 0.0630158 0.
0.511957 0.0630147 0.
0.513958 0.0630138 0.
0.515958 0.0630129 0.
0.517959 0.0630123 0.
0.51996 0.0630117 0.
0.521961 0.0630112 0.
0.523962 0.0630107 0.
0.525963 0.0630103 0.
0.527964 0.0630098 0.
0.529965 0.0630093 0.
0.531966 0.0630088 0.
0.533966 0.0630083 0.
0.535967 0.0630078 0.
0.537968 0.0630074 0.
0.539969 0.0630066 0.
0.54197 0.0630057 0.
0.54397 0.0630047 0.
0.545971 0.0630041 0.
0.547972 0.0630036 0.
0.549973 0.063003 0.
0.551974 0.0630025 0.
0.553975 0.063002 0.
0.555976 0.0630015 0.
0.557977 0.0630013 0.
0.559978 0.063001 0.
0.561979 0.0630006 0.
0.56398 0.063 0.
0.565981 0.0629994 0.
0.567982 0.0629988 0.
0.569983 0.0629984 0.
0.571985 0.0629979 0.
0.573986 0.0629987 0.
0.575988 0.0629995 0.
0.577989 0.0630002 0.
0.579991 0.0629996 0.
0.581992 0.0629989 0.
0.583993 0.0629986 0.
0.585994 0.0629989 0.
0.587995 0.0629992 0.
0.589996 0.0629995 0.
0.591997 0.0629999 0.
0.593998 0.0630003 0.
0.595999 0.0630003 0.
0.598001 0.0630002 0.
0.600002 0.0630001 0.
0.602004 0.0630001 0.
0.604005 0.0630002 0.
0.606006 0.0630002 0.
0.608007 0.063 0.
0.610008 0.0629999 0.
0.612009 0.0629998 0.
0.614011 0.0629997 0.
0.616012 0.0629996 0.
0.618013 0.0629997 0.
0.620014 0.063 0.
0.622015 0.0630002 0.
0.624016 0.0629999 0.
0.626018 0.0629996 0.
0.62802 0.0629993 0.
0.63002 0.0629999 0.
0.632021 0.0630004 0.
0.634022 0.0630008 0.
0.636023 0.0630009 0.
0.638024 0.063001 0.
0.640025 0.0630013 0.
0.642026 0.0630016 0.
0.644027 0.0630019 0.
0.646028 0.0630026 0.
0.648029 0.0630034 0.
0.65003 0.0630041 0.
0.652031 0.0630043 0.
0.654032 0.0630045 0.
0.656033 0.0630047 0.
0.658034 0.063005 0.
0.660034 0.0630053 0.
0.662035 0.0630058 0.
0.664035 0.0630065 0.
0.666036 0.0630072 0.
0.668036 0.0630078 0.
0.670037 0.0630084 0.
0.672038 0.063009 0.
0.674039 0.0630101 0.
0.67604 0.0630113 0.
0.678041 0.0630124 0.
0.680042 0.0630134 0.
0.682042 0.0630143 0.
0.684042 0.0630154 0.
0.686043 0.0630167 0.
0.688043 0.063018 0.
0.690043 0.0630194 0.
0.692044 0.0630207 0.
0.694044 0.0630221 0.
0.696044 0.0630231 0.
0.698044 0.063024 0.
0.499956 0.065024 0.
0.501956 0.0650218 0.
0.503957 0.0650199 0.
0.505957 0.0650182 0.
0.507957 0.065017 0.
0.509957 0.0650158 0.
0.511958 0.0650148 0.
0.513958 0.0650141 0.
0.515959 0.0650135 0.
0.517959 0.0650128 0.
0.51996 0.0650121 0.
0.52196 0.0650113 0.
0.523962 0.0650106 0.
0.525963 0.0650099 0.
0.527965 0.0650093 0.
0.529966 0.065009 0.
0.531966 0.0650088 0.
0.533967 0.0650085 0.
0.535968 0.0650079 0.
0.537969 0.0650074 0.
0.53997 0.0650068 0.
0.541971 0.0650061 0.
0.543971 0.0650054 0.
0.545972 0.0650043 0.
0.547973 0.065003 0.
0.549974 0.0650018 0.
0.551975 0.0650017 0.
0.553976 0.0650016 0.
0.555977 0.0650015 0.
0.557978 0.0650016 0.
0.559979 0.0650016 0.
0.56198 0.0650012 0.
0.56398 0.0650003 0.
0.565981 0.0649994 0.
0.567982 0.0649985 0.
0.569984 0.0649975 0.
0.571985 0.0649965 0.
0.573987 0.0649975 0.
0.575989 0.0649987 0.
0.57799 0.0649998 0.
0.579991 0.0649989 0.
0.581993 0.0649981 0.
0.583994 0.0649978 0.
0.585994 0.0649987 0.
0.587995 0.0649997 0.
0.589996 0.065 0.
0.591997 0.0649998 0.
0.593998 0.0649996 0.
0.595999 0.0649999 0.
0.598001 0.0650003 0.
0.600002 0.0650007 0.
0.602004 0.0650004 0.
0.604005 0.065 0.
0.606006 0.0649998 0.
0.608007 0.0649998 0.
0.610009 0.0649997 0.
0.61201 0.0649996 0.
0.614011 0.0649994 0.
0.616012 0.0649992 0.
0.618013 0.0649992 0.
0.620013 0.0649994 0.
0.622014 0.0649996 0.
0.624016 0.0649992 0.
0.626017 0.0649988 0.
0.628019 0.0649986 0.
0.63002 0.0649993 0.
0.632021 0.065 0.
0.634021 0.0650005 0.
0.636023 0.0650006 0.
0.638024 0.0650007 0.
0.640025 0.065001 0.
0.642025 0.0650013 0.
0.644026 0.0650016 0.
0.646027 0.0650025 0.
0.648029 0.0650035 0.
0.65003 0.0650045 0.
0.652031 0.0650044 0.
0.654032 0.0650043 0.
0.656033 0.0650044 0.
0.658034 0.0650051 0.
0.660034 0.0650058 0.
0.662035 0.0650064 0.
0.664035 0.065007 0.
0.666035 0.0650076 0.
0.668036 0.065008 0.
0.670037 0.0650084 0.
0.672038 0.0650087 0.
0.674039 0.0650099 0.
0.67604 0.0650111 0.
0.678041 0.0650123 0.
0.680041 0.0650134 0.
0.682041 0.0650145 0.
0.684041 0.0650157 0.
0.686041 0.0650171 0.
0.688042 0.0650185 0.
0.690042 0.0650197 0.
0.692042 0.0650209 0.
0.694042 0.0650221 0.
0.696042 0.0650233 0.
0.698042 0.0650246 0.
0.499958 0.0670244 0.
0.501958 0.0670224 0.
0.503958 0.0670206 0.
0.505959 0.067019 0.
0.507959 0.0670179 0.
0.509959 0.0670168 0.
0.51196 0.0670157 0.
0.51396 0.0670144 0.
0.51596 0.0670132 0.
0.517961 0.0670124 0.
0.519961 0.0670119 0.
0.521962 0.0670114 0.
0.523963 0.0670107 0.
0.525965 0.06701 0.
0.527966 0.0670093 0.
0.529967 0.067009 0.
0.531967 0.0670086 0.
0.533968 0.0670082 0.
0.535969 0.0670077 0.
0.53797 0.0670071 0.
0.539971 0.0670065 0.
0.541971 0.0670057 0.
0.543972 0.067005 0.
0.545972 0.067004 0.
0.547973 0.0670029 0.
0.549974 0.0670019 0.
0.551975 0.0670017 0.
0.553976 0.0670016 0.
0.555977 0.0670014 0.
0.557978 0.0670013 0.
0.559979 0.0670012 0.
0.56198 0.0670007 0.
0.563981 0.0669999 0.
0.565982 0.0669992 0.
0.567983 0.0669986 0.
0.569984 0.0669981 0.
0.571985 0.0669975 0.
0.573987 0.0669978 0.
0.575989 0.0669982 0.
0.57799 0.0669986 0.
0.579991 0.0669984 0.
0.581992 0.0669982 0.
0.583993 0.0669982 0.
0.585994 0.0669987 0.
0.587995 0.0669993 0.
0.589996 0.0669995 0.
0.591997 0.0669995 0.
0.593998 0.0669996 0.
0.595999 0.0669998 0.
0.598001 0.0670001 0.
0.600002 0.0670003 0.
0.602004 0.067 0.
0.604005 0.0669998 0.
0.606007 0.0669995 0.
0.608008 0.0669995 0.
0.610009 0.0669994 0.
0.61201 0.0669993 0.
0.614011 0.0669992 0.
0.616012 0.066999 0.
0.618013 0.066999 0.
0.620013 0.066999 0.
0.622014 0.066999 0.
0.624016 0.0669989 0.
0.626017 0.0669988 0.
0.628019 0.0669987 0.
0.630019 0.0669993 0.
0.63202 0.0669999 0.
0.634021 0.0670004 0.
0.636022 0.0670007 0.
0.638024 0.0670009 0.
0.640024 0.0670012 0.
0.642025 0.0670014 0.
0.644026 0.0670016 0.
0.646027 0.0670022 0.
0.648028 0.0670029 0.
0.650029 0.0670036 0.
0.65203 0.067004 0.
0.654031 0.0670043 0.
0.656032 0.0670046 0.
0.658033 0.0670051 0.
0.660033 0.0670055 0.
0.662034 0.0670061 0.
0.664035 0.0670069 0.
0.666035 0.0670077 0.
0.668036 0.0670082 0.
0.670036 0.0670086 0.
0.672037 0.067009 0.
0.674038 0.0670101 0.
0.676039 0.0670113 0.
0.678039 0.0670125 0.
0.68004 0.0670136 0.
0.68204 0.0670147 0.
0.68404 0.0670159 0.
0.68604 0.0670173 0.
0.68804 0.0670188 0.
0.690041 0.06702 0.
0.692041 0.0670212 0.
0.694041 0.0670223 0.
0.696041 0.0670236 0.
0.698041 0.067025 0.
0.49996 0.0690247 0.
0.50196 0.0690229 0.
0.50396 0.0690213 0.
0.50596 0.0690198 0.
0.507961 0.0690188 0.
0.509961 0.0690179 0.
0.511961 0.0690165 0.
0.513961 0.0690147 0.
0.515961 0.0690129 0.
0.517962 0.0690121 0.
0.519963 0.0690118 0.
0.521963 0.0690114 0.
0.523965 0.0690108 0.
0.525966 0.06901 0.
0.527967 0.0690093 0.
0.529968 0.0690089 0.
0.531968 0.0690085 0.
0.533969 0.069008 0.
0.53597 0.0690075 0.
0.537971 0.0690069 0.
0.539971 0.0690062 0.
0.541972 0.0690054 0.
0.543972 0.0690046 0.
0.545973 0.0690037 0.
0.547974 0.0690028 0.
0.549974 0.069002 0.
0.551975 0.0690018 0.
0.553976 0.0690016 0.
0.555977 0.0690013 0.
0.557978 0.069001 0.
0.559979 0.0690007 0.
0.56198 0.0690002 0.
0.563981 0.0689996 0.
0.565983 0.0689989 0.
0.567984 0.0689986 0.
0.569985 0.0689986 0.
0.571986 0.0689985 0.
0.573987 0.0689982 0.
0.575989 0.0689977 0.
0.57799 0.0689974 0.
0.579991 0.0689979 0.
0.581992 0.0689983 0.
0.583993 0.0689986 0.
0.585994 0.0689987 0.
0.587995 0.0689988 0.
0.589996 0.068999 0.
0.591997 0.0689993 0.
0.593998 0.0689995 0.
0.595999 0.0689997 0.
0.598001 0.0689998 0.
0.600002 0.069 0.
0.602004 0.0689997 0.
0.604006 0.0689995 0.
0.606007 0.0689993 0.
0.608008 0.0689992 0.
0.610009 0.068999 0.
0.61201 0.0689989 0.
0.614011 0.0689989 0.
0.616011 0.0689989 0.
0.618012 0.0689988 0.
0.620014 0.0689986 0.
0.622015 0.0689985 0.
0.624016 0.0689986 0.
0.626017 0.0689987 0.
0.628018 0.0689989 0.
0.630019 0.0689993 0.
0.63202 0.0689998 0.
0.634021 0.0690002 0.
0.636022 0.0690007 0.
0.638023 0.0690011 0.
0.640024 0.0690014 0.
0.642025 0.0690015 0.
0.644025 0.0690016 0.
0.646026 0.0690019 0.
0.648027 0.0690023 0.
0.650029 0.0690027 0.
0.652029 0.0690035 0.
0.65403 0.0690042 0.
0.656031 0.0690048 0.
0.658032 0.0690051 0.
0.660032 0.0690053 0.
0.662033 0.0690058 0.
0.664034 0.0690068 0.
0.666035 0.0690078 0.
0.668036 0.0690084 0.
0.670036 0.0690089 0.
0.672036 0.0690093 0.
0.674037 0.0690104 0.
0.676037 0.0690115 0.
0.678038 0.0690126 0.
0.680038 0.0690137 0.
0.682038 0.0690148 0.
0.684039 0.069016 0.
0.686039 0.0690175 0.
0.688039 0.069019 0.
0.690039 0.0690203 0.
0.69204 0.0690214 0.
0.69404 0.0690225 0.
0.69604 0.0690239 0.
0.698039 0.0690254 0.
0.499961 0.0710249 0.
0.501962 0.0710233 0.
0.503962 0.0710218 0.
0.505962 0.0710204 0.
0.507963 0.0710194 0.
0.509963 0.0710184 0.
0.511963 0.071017 0.
0.513963 0.0710151 0.
0.515963 0.0710132 0.
0.517964 0.0710123 0.
0.519964 0.0710118 0.
0.521965 0.0710114 0.
0.523966 0.0710107 0.
0.525967 0.0710101 0.
0.527968 0.0710094 0.
0.529968 0.071009 0.
0.531969 0.0710086 0.
0.533969 0.0710082 0.
0.53597 0.0710076 0.
0.537971 0.0710069 0.
0.539971 0.0710062 0.
0.541972 0.0710054 0.
0.543972 0.0710045 0.
0.545973 0.0710038 0.
0.547974 0.071003 0.
0.549975 0.0710023 0.
0.551976 0.071002 0.
0.553977 0.0710017 0.
0.555977 0.0710013 0.
0.557978 0.0710008 0.
0.559979 0.0710002 0.
0.56198 0.0709997 0.
0.563982 0.0709992 0.
0.565983 0.0709987 0.
0.567984 0.0709986 0.
0.569985 0.0709986 0.
0.571986 0.0709987 0.
0.573987 0.0709981 0.
0.575988 0.0709974 0.
0.57799 0.0709969 0.
0.579991 0.0709976 0.
0.581991 0.0709983 0.
0.583992 0.0709987 0.
0.585994 0.0709987 0.
0.587995 0.0709987 0.
0.589996 0.0709989 0.
0.591997 0.0709992 0.
0.593998 0.0709996 0.
0.595999 0.0709996 0.
0.598001 0.0709996 0.
0.600002 0.0709995 0.
0.602004 0.0709993 0.
0.604006 0.0709991 0.
0.606007 0.070999 0.
0.608008 0.0709988 0.
0.610009 0.0709987 0.
0.61201 0.0709986 0.
0.61401 0.0709987 0.
0.616011 0.0709987 0.
0.618012 0.0709986 0.
0.620013 0.0709985 0.
0.622015 0.0709983 0.
0.624016 0.0709985 0.
0.626017 0.0709988 0.
0.628018 0.0709991 0.
0.630019 0.0709994 0.
0.63202 0.0709998 0.
0.634021 0.0710001 0.
0.636022 0.0710005 0.
0.638023 0.0710009 0.
0.640024 0.0710013 0.
0.642025 0.0710016 0.
0.644025 0.071002 0.
0.646026 0.0710021 0.
0.648027 0.0710022 0.
0.650028 0.0710022 0.
0.652029 0.0710032 0.
0.654029 0.0710042 0.
0.65603 0.0710049 0.
0.658031 0.071005 0.
0.660031 0.0710051 0.
0.662032 0.0710056 0.
0.664033 0.0710066 0.
0.666034 0.0710076 0.
0.668035 0.0710083 0.
0.670035 0.0710089 0.
0.672035 0.0710094 0.
0.674036 0.0710105 0.
0.676036 0.0710116 0.
0.678036 0.0710127 0.
0.680037 0.0710139 0.
0.682037 0.0710151 0.
0.684037 0.0710164 0.
0.686037 0.0710179 0.
0.688037 0.0710195 0.
0.690038 0.0710207 0.
0.692038 0.0710216 0.
0.694039 0.0710226 0.
0.696039 0.071024 0.
0.698039 0.0710255 0.
0.499963 0.0730252 0.
0.501963 0.0730236 0.
0.503964 0.0730222 0.
0.505964 0.0730208 0.
0.507964 0.0730196 0.
0.509965 0.0730183 0.
0.511965 0.073017 0.
0.513965 0.0730156 0.
0.515965 0.0730141 0.
0.517965 0.073013 0.
0.519966 0.0730121 0.
0.521966 0.0730111 0.
0.523967 0.0730106 0.
0.525968 0.0730102 0.
0.527968 0.0730098 0.
0.529969 0.0730094 0.
0.53197 0.0730091 0.
0.53397 0.0730087 0.
0.53597 0.073008 0.
0.537971 0.0730072 0.
0.539971 0.0730065 0.
0.541972 0.0730057 0.
0.543972 0.0730049 0.
0.545973 0.0730042 0.
0.547975 0.0730035 0.
0.549976 0.0730028 0.
0.551977 0.0730024 0.
0.553978 0.073002 0.
0.555978 0.0730015 0.
0.557979 0.0730006 0.
0.55998 0.0729996 0.
0.561981 0.0729991 0.
0.563982 0.0729989 0.
0.565983 0.0729988 0.
0.567984 0.0729985 0.
0.569985 0.0729982 0.
0.571986 0.0729979 0.
0.573987 0.0729976 0.
0.575988 0.0729973 0.
0.577989 0.072997 0.
0.57999 0.0729975 0.
0.581991 0.0729981 0.
0.583992 0.0729985 0.
0.585994 0.0729986 0.
0.587995 0.0729988 0.
0.589996 0.072999 0.
0.591997 0.0729994 0.
0.593997 0.0729997 0.
0.595999 0.0729996 0.
0.598 0.0729993 0.
0.600002 0.072999 0.
0.602003 0.0729988 0.
0.604005 0.0729987 0.
0.606007 0.0729986 0.
0.608008 0.0729985 0.
0.610009 0.0729984 0.
0.61201 0.0729983 0.
0.61401 0.0729984 0.
0.616011 0.0729984 0.
0.618012 0.0729984 0.
0.620013 0.0729985 0.
0.622014 0.0729985 0.
0.624015 0.0729988 0.
0.626017 0.0729991 0.
0.628018 0.0729994 0.
0.630019 0.0729996 0.
0.63202 0.0729998 0.
0.634021 0.073 0.
0.636022 0.0730001 0.
0.638022 0.0730003 0.
0.640023 0.0730009 0.
0.642024 0.0730018 0.
0.644025 0.0730028 0.
0.646026 0.0730028 0.
0.648027 0.0730025 0.
0.650028 0.0730022 0.
0.652028 0.0730032 0.
0.654029 0.0730041 0.
0.656029 0.0730049 0.
0.65803 0.073005 0.
0.660031 0.0730051 0.
0.662031 0.0730055 0.
0.664032 0.0730063 0.
0.666033 0.0730071 0.
0.668033 0.0730078 0.
0.670034 0.0730086 0.
0.672034 0.0730093 0.
0.674034 0.0730104 0.
0.676035 0.0730115 0.
0.678035 0.0730126 0.
0.680036 0.073014 0.
0.682036 0.0730154 0.
0.684036 0.0730168 0.
0.686036 0.0730185 0.
0.688036 0.0730201 0.
0.690037 0.0730212 0.
0.692037 0.0730219 0.
0.694037 0.0730226 0.
0.696038 0.0730239 0.
0.698038 0.0730254 0.
0.499964 0.0750256 0.
0.501965 0.0750239 0.
0.503966 0.0750225 0.
0.505966 0.0750211 0.
0.507966 0.0750197 0.
0.509966 0.0750183 0.
0.511966 0.0750171 0.
0.513967 0.075016 0.
0.515967 0.075015 0.
0.517967 0.0750137 0.
0.519967 0.0750123 0.
0.521967 0.0750109 0.
0.523968 0.0750106 0.
0.525968 0.0750103 0.
0.527969 0.0750101 0.
0.52997 0.0750098 0.
0.53197 0.0750096 0.
0.533971 0.0750092 0.
0.535971 0.0750084 0.
0.537971 0.0750076 0.
0.539971 0.0750068 0.
0.541972 0.075006 0.
0.543972 0.0750053 0.
0.545974 0.0750046 0.
0.547975 0.075004 0.
0.549977 0.0750033 0.
0.551978 0.0750028 0.
0.553979 0.0750023 0.
0.555979 0.0750016 0.
0.55798 0.0750004 0.
0.55998 0.0749991 0.
0.561981 0.0749984 0.
0.563982 0.0749986 0.
0.565983 0.0749988 0.
0.567984 0.0749984 0.
0.569985 0.0749978 0.
0.571987 0.0749971 0.
0.573988 0.0749971 0.
0.575988 0.0749971 0.
0.577989 0.0749971 0.
0.57999 0.0749975 0.
0.581991 0.0749979 0.
0.583992 0.0749983 0.
0.585993 0.0749986 0.
0.587995 0.0749989 0.
0.589996 0.0749992 0.
0.591996 0.0749996 0.
0.593997 0.0749999 0.
0.595998 0.0749996 0.
0.598 0.074999 0.
0.600001 0.0749985 0.
0.602003 0.0749983 0.
0.604004 0.0749982 0.
0.606006 0.0749982 0.
0.608007 0.0749981 0.
0.610009 0.0749981 0.
0.61201 0.0749981 0.
0.61401 0.0749981 0.
0.616011 0.0749981 0.
0.618012 0.0749983 0.
0.620012 0.0749985 0.
0.622013 0.0749987 0.
0.624015 0.0749991 0.
0.626016 0.0749994 0.
0.628018 0.0749997 0.
0.630019 0.0749998 0.
0.63202 0.0749999 0.
0.634021 0.0749999 0.
0.636021 0.0749998 0.
0.638022 0.0749996 0.
0.640023 0.0750005 0.
0.642024 0.075002 0.
0.644025 0.0750036 0.
0.646026 0.0750034 0.
0.648026 0.0750028 0.
0.650027 0.0750022 0.
0.652028 0.0750032 0.
0.654028 0.0750041 0.
0.656029 0.0750048 0.
0.658029 0.0750049 0.
0.66003 0.075005 0.
0.66203 0.0750054 0.
0.664031 0.075006 0.
0.666032 0.0750066 0.
0.668032 0.0750074 0.
0.670033 0.0750083 0.
0.672033 0.0750092 0.
0.674033 0.0750103 0.
0.676034 0.0750114 0.
0.678034 0.0750125 0.
0.680034 0.0750141 0.
0.682035 0.0750157 0.
0.684035 0.0750173 0.
0.686035 0.075019 0.
0.688035 0.0750207 0.
0.690035 0.0750216 0.
0.692036 0.0750221 0.
0.694036 0.0750225 0.
0.696037 0.0750238 0.
0.698038 0.0750252 0.
0.499966 0.0770257 0.
0.501966 0.077024 0.
0.503967 0.0770226 0.
0.505967 0.0770211 0.
0.507967 0.07702 0.
0.509967 0.0770188 0.
0.511967 0.0770177 0.
0.513968 0.0770167 0.
0.515968 0.0770158 0.
0.517968 0.0770143 0.
0.519968 0.0770126 0.
0.521968 0.077011 0.
0.523969 0.0770104 0.
0.525969 0.07701 0.
0.52797 0.0770096 0.
0.529971 0.0770094 0.
0.531971 0.0770092 0.
0.533971 0.0770088 0.
0.535972 0.0770081 0.
0.537972 0.0770073 0.
0.539973 0.0770066 0.
0.541973 0.0770059 0.
0.543974 0.0770052 0.
0.545975 0.0770043 0.
0.547976 0.0770035 0.
0.549977 0.0770026 0.
0.551978 0.0770023 0.
0.553979 0.077002 0.
0.55598 0.0770015 0.
0.557981 0.0770002 0.
0.559981 0.0769989 0.
0.561982 0.0769982 0.
0.563983 0.0769983 0.
0.565984 0.0769984 0.
0.567985 0.0769981 0.
0.569986 0.0769977 0.
0.571987 0.0769972 0.
0.573988 0.0769972 0.
0.575988 0.0769973 0.
0.577989 0.0769973 0.
0.57999 0.0769974 0.
0.581991 0.0769975 0.
0.583992 0.0769977 0.
0.585993 0.0769981 0.
0.587994 0.0769984 0.
0.589995 0.0769987 0.
0.591996 0.076999 0.
0.593997 0.0769993 0.
0.595998 0.0769992 0.
0.598 0.076999 0.
0.600001 0.0769988 0.
0.602003 0.0769983 0.
0.604004 0.0769979 0.
0.606005 0.0769976 0.
0.608007 0.0769976 0.
0.610008 0.0769977 0.
0.612009 0.0769978 0.
0.61401 0.0769979 0.
0.616011 0.0769979 0.
0.618012 0.076998 0.
0.620013 0.0769982 0.
0.622013 0.0769983 0.
0.624015 0.0769986 0.
0.626016 0.0769989 0.
0.628017 0.0769992 0.
0.630018 0.0769993 0.
0.632019 0.0769995 0.
0.63402 0.0769996 0.
0.63602 0.0769998 0.
0.638021 0.077 0.
0.640022 0.0770008 0.
0.642022 0.0770019 0.
0.644023 0.077003 0.
0.646024 0.0770032 0.
0.648025 0.077003 0.
0.650026 0.0770029 0.
0.652027 0.0770035 0.
0.654027 0.077004 0.
0.656028 0.0770045 0.
0.658028 0.0770048 0.
0.660028 0.0770051 0.
0.662029 0.0770055 0.
0.66403 0.0770061 0.
0.666031 0.0770066 0.
0.668031 0.0770075 0.
0.670031 0.0770087 0.
0.672032 0.0770099 0.
0.674032 0.0770108 0.
0.676032 0.0770115 0.
0.678032 0.0770124 0.
0.680033 0.077014 0.
0.682033 0.0770156 0.
0.684034 0.0770172 0.
0.686034 0.0770187 0.
0.688034 0.0770203 0.
0.690034 0.0770212 0.
0.692035 0.0770217 0.
0.694035 0.0770221 0.
0.696035 0.0770234 0.
0.698036 0.077025 0.
0.499967 0.0790254 0.
0.501968 0.0790241 0.
0.503968 0.0790226 0.
0.505968 0.0790211 0.
0.507968 0.0790202 0.
0.509968 0.0790192 0.
0.511969 0.0790183 0.
0.513969 0.0790174 0.
0.515969 0.0790165 0.
0.517969 0.0790149 0.
0.519969 0.079013 0.
0.521969 0.079011 0.
0.52397 0.0790102 0.
0.52597 0.0790096 0.
0.527971 0.0790091 0.
0.529971 0.0790089 0.
0.531972 0.0790088 0.
0.533972 0.0790084 0.
0.535973 0.0790078 0.
0.537973 0.0790071 0.
0.539974 0.0790064 0.
0.541975 0.0790057 0.
0.543975 0.079005 0.
0.545976 0.079004 0.
0.547977 0.079003 0.
0.549978 0.0790019 0.
0.551979 0.0790018 0.
0.55398 0.0790017 0.
0.555981 0.0790013 0.
0.557981 0.079 0.
0.559982 0.0789987 0.
0.561982 0.078998 0.
0.563983 0.078998 0.
0.565984 0.078998 0.
0.567985 0.0789978 0.
0.569987 0.0789976 0.
0.571988 0.0789973 0.
0.573988 0.0789974 0.
0.575988 0.0789974 0.
0.577989 0.0789975 0.
0.57999 0.0789973 0.
0.581991 0.0789971 0.
0.583992 0.0789971 0.
0.585993 0.0789976 0.
0.587994 0.078998 0.
0.589995 0.0789983 0.
0.591996 0.0789985 0.
0.593997 0.0789987 0.
0.595998 0.0789989 0.
0.597999 0.078999 0.
0.600001 0.0789991 0.
0.602002 0.0789983 0.
0.604004 0.0789975 0.
0.606005 0.078997 0.
0.608006 0.0789972 0.
0.610007 0.0789973 0.
0.612008 0.0789975 0.
0.614009 0.0789976 0.
0.61601 0.0789977 0.
0.618012 0.0789978 0.
0.620013 0.0789979 0.
0.622014 0.0789979 0.
0.624015 0.0789981 0.
0.626016 0.0789984 0.
0.628017 0.0789987 0.
0.630017 0.0789989 0.
0.632018 0.0789991 0.
0.634019 0.0789994 0.
0.636019 0.0789999 0.
0.63802 0.0790004 0.
0.640021 0.079001 0.
0.642021 0.0790017 0.
0.644022 0.0790024 0.
0.646023 0.0790029 0.
0.648024 0.0790032 0.
0.650025 0.0790035 0.
0.652026 0.0790038 0.
0.654027 0.079004 0.
0.656027 0.0790043 0.
0.658027 0.0790047 0.
0.660027 0.0790052 0.
0.662028 0.0790057 0.
0.664029 0.0790061 0.
0.666029 0.0790066 0.
0.66803 0.0790077 0.
0.67003 0.0790092 0.
0.672031 0.0790107 0.
0.674031 0.0790113 0.
0.676031 0.0790117 0.
0.678031 0.0790123 0.
0.680031 0.0790139 0.
0.682032 0.0790155 0.
0.684032 0.079017 0.
0.686032 0.0790184 0.
0.688033 0.0790199 0.
0.690033 0.0790208 0.
0.692034 0.0790212 0.
0.694034 0.0790217 0.
0.696034 0.0790231 0.
0.698034 0.0790247 0.
0.499968 0.0810253 0.
0.501968 0.0810241 0.
0.503968 0.0810227 0.
0.505969 0.0810214 0.
0.507969 0.0810205 0.
0.509969 0.0810196 0.
0.511969 0.0810187 0.
0.51397 0.0810178 0.
0.51597 0.0810169 0.
0.51797 0.0810153 0.
0.51997 0.0810133 0.
0.52197 0.0810113 0.
0.52397 0.0810104 0.
0.525971 0.0810096 0.
0.527972 0.0810089 0.
0.529972 0.0810087 0.
0.531972 0.0810086 0.
0.533973 0.0810083 0.
0.535973 0.0810075 0.
0.537974 0.0810068 0.
0.539975 0.0810061 0.
0.541976 0.0810054 0.
0.543976 0.0810047 0.
0.545977 0.0810038 0.
0.547978 0.0810028 0.
0.549979 0.0810019 0.
0.55198 0.0810017 0.
0.553981 0.0810015 0.
0.555982 0.0810011 0.
0.557982 0.0809999 0.
0.559982 0.0809987 0.
0.561983 0.080998 0.
0.563984 0.0809979 0.
0.565985 0.0809978 0.
0.567986 0.0809976 0.
0.569987 0.0809973 0.
0.571988 0.0809971 0.
0.573988 0.0809973 0.
0.575989 0.0809975 0.
0.577989 0.0809976 0.
0.57999 0.0809972 0.
0.581991 0.0809969 0.
0.583992 0.0809968 0.
0.585993 0.0809971 0.
0.587994 0.0809975 0.
0.589995 0.0809978 0.
0.591996 0.080998 0.
0.593997 0.0809983 0.
0.595998 0.0809985 0.
0.598 0.0809987 0.
0.600001 0.080999 0.
0.602002 0.0809981 0.
0.604003 0.0809972 0.
0.606005 0.0809966 0.
0.608006 0.0809967 0.
0.610007 0.0809969 0.
0.612008 0.080997 0.
0.614009 0.0809972 0.
0.61601 0.0809973 0.
0.618011 0.0809975 0.
0.620012 0.0809977 0.
0.622014 0.0809978 0.
0.624014 0.080998 0.
0.626015 0.0809982 0.
0.628016 0.0809984 0.
0.630017 0.0809986 0.
0.632017 0.0809988 0.
0.634018 0.0809991 0.
0.636018 0.0809998 0.
0.638019 0.0810005 0.
0.64002 0.0810011 0.
0.64202 0.0810016 0.
0.644021 0.0810021 0.
0.646022 0.0810025 0.
0.648023 0.081003 0.
0.650024 0.0810034 0.
0.652025 0.0810037 0.
0.654025 0.0810039 0.
0.656026 0.0810042 0.
0.658026 0.0810047 0.
0.660026 0.0810052 0.
0.662027 0.0810058 0.
0.664028 0.0810063 0.
0.666029 0.0810069 0.
0.668029 0.081008 0.
0.670029 0.0810094 0.
0.672029 0.0810108 0.
0.674029 0.0810114 0.
0.676029 0.0810118 0.
0.67803 0.0810124 0.
0.68003 0.0810139 0.
0.68203 0.0810154 0.
0.684031 0.0810168 0.
0.686031 0.0810181 0.
0.688032 0.0810194 0.
0.690032 0.0810204 0.
0.692033 0.081021 0.
0.694033 0.0810216 0.
0.696033 0.0810229 0.
0.698033 0.0810243 0.
0.499968 0.0830251 0.
0.501968 0.083024 0.
0.503968 0.0830229 0.
0.505969 0.0830218 0.
0.507969 0.0830208 0.
0.509969 0.0830199 0.
0.51197 0.0830189 0.
0.51397 0.083018 0.
0.515971 0.083017 0.
0.517971 0.0830155 0.
0.519971 0.0830136 0.
0.521971 0.0830118 0.
0.523971 0.0830108 0.
0.525972 0.0830099 0.
0.527972 0.083009 0.
0.529972 0.0830088 0.
0.531973 0.0830087 0.
0.533973 0.0830083 0.
0.535974 0.0830074 0.
0.537975 0.0830064 0.
0.539975 0.0830056 0.
0.541976 0.0830049 0.
0.543976 0.0830042 0.
0.545977 0.0830036 0.
0.547978 0.083003 0.
0.54998 0.0830025 0.
0.55198 0.083002 0.
0.553981 0.0830014 0.
0.555982 0.0830008 0.
0.557982 0.0829998 0.
0.559983 0.0829989 0.
0.561984 0.0829982 0.
0.563984 0.0829979 0.
0.565985 0.0829976 0.
0.567986 0.0829973 0.
0.569987 0.082997 0.
0.571988 0.0829966 0.
0.573988 0.082997 0.
0.575989 0.0829974 0.
0.577989 0.0829977 0.
0.57999 0.0829972 0.
0.581991 0.0829968 0.
0.583992 0.0829965 0.
0.585993 0.0829967 0.
0.587994 0.0829969 0.
0.589995 0.0829972 0.
0.591996 0.0829976 0.
0.593998 0.0829979 0.
0.595999 0.0829981 0.
0.598 0.0829982 0.
0.600001 0.0829983 0.
0.602002 0.0829977 0.
0.604004 0.082997 0.
0.606005 0.0829965 0.
0.608006 0.0829964 0.
0.610007 0.0829963 0.
0.612008 0.0829964 0.
0.614009 0.0829965 0.
0.61601 0.0829967 0.
0.618011 0.0829971 0.
0.620012 0.0829976 0.
0.622013 0.0829982 0.
0.624014 0.0829983 0.
0.626015 0.0829983 0.
0.628016 0.0829984 0.
0.630016 0.0829985 0.
0.632017 0.0829986 0.
0.634017 0.0829989 0.
0.636018 0.0829996 0.
0.638018 0.0830004 0.
0.640019 0.083001 0.
0.64202 0.0830015 0.
0.644021 0.0830019 0.
0.646022 0.0830022 0.
0.648022 0.0830024 0.
0.650023 0.0830025 0.
0.652023 0.0830032 0.
0.654024 0.0830038 0.
0.656024 0.0830043 0.
0.658025 0.0830047 0.
0.660025 0.0830051 0.
0.662026 0.0830058 0.
0.664027 0.0830067 0.
0.666028 0.0830076 0.
0.668028 0.0830085 0.
0.670028 0.0830094 0.
0.672028 0.0830103 0.
0.674028 0.0830111 0.
0.676028 0.0830118 0.
0.678028 0.0830126 0.
0.680029 0.0830139 0.
0.682029 0.0830153 0.
0.68403 0.0830166 0.
0.68603 0.0830177 0.
0.688031 0.0830189 0.
0.690031 0.08302 0.
0.692031 0.083021 0.
0.694031 0.0830219 0.
0.696031 0.083023 0.
0.698031 0.083024 0.
0.499968 0.085025 0.
0.501968 0.0850239 0.
0.503968 0.0850231 0.
0.505968 0.0850222 0.
0.507969 0.0850212 0.
0.50997 0.0850202 0.
0.51197 0.0850192 0.
0.513971 0.0850181 0.
0.515971 0.085017 0.
0.517972 0.0850156 0.
0.519972 0.085014 0.
0.521972 0.0850124 0.
0.523972 0.0850112 0.
0.525972 0.0850101 0.
0.527972 0.0850091 0.
0.529973 0.085009 0.
0.531973 0.0850088 0.
0.533974 0.0850084 0.
0.535974 0.0850072 0.
0.537975 0.0850061 0.
0.539975 0.0850052 0.
0.541976 0.0850044 0.
0.543977 0.0850037 0.
0.545978 0.0850034 0.
0.547979 0.0850032 0.
0.549981 0.085003 0.
0.551981 0.0850022 0.
0.553981 0.0850013 0.
0.555982 0.0850005 0.
0.557983 0.0849998 0.
0.559983 0.084999 0.
0.561984 0.0849984 0.
0.563985 0.0849979 0.
0.565986 0.0849975 0.
0.567987 0.084997 0.
0.569987 0.0849966 0.
0.571988 0.0849962 0.
0.573988 0.0849966 0.
0.575989 0.0849972 0.
0.57799 0.0849977 0.
0.57999 0.0849972 0.
0.581991 0.0849967 0.
0.583992 0.0849963 0.
0.585993 0.0849964 0.
0.587994 0.0849964 0.
0.589995 0.0849967 0.
0.591997 0.0849971 0.
0.593998 0.0849976 0.
0.596 0.0849977 0.
0.598001 0.0849977 0.
0.600002 0.0849977 0.
0.602003 0.0849972 0.
0.604004 0.0849968 0.
0.606005 0.0849964 0.
0.608005 0.0849961 0.
0.610006 0.0849958 0.
0.612007 0.0849957 0.
0.614009 0.0849959 0.
0.61601 0.084996 0.
0.618011 0.0849967 0.
0.620011 0.0849976 0.
0.622012 0.0849985 0.
0.624013 0.0849985 0.
0.626014 0.0849984 0.
0.628015 0.0849984 0.
0.630016 0.0849984 0.
0.632016 0.0849984 0.
0.634017 0.0849986 0.
0.636017 0.0849994 0.
0.638017 0.0850002 0.
0.640018 0.0850008 0.
0.642019 0.0850013 0.
0.64402 0.0850018 0.
0.646021 0.0850018 0.
0.648022 0.0850017 0.
0.650022 0.0850017 0.
0.652022 0.0850026 0.
0.654022 0.0850036 0.
0.656022 0.0850044 0.
0.658023 0.0850047 0.
0.660024 0.085005 0.
0.662025 0.0850058 0.
0.664026 0.0850071 0.
0.666027 0.0850083 0.
0.668027 0.085009 0.
0.670027 0.0850094 0.
0.672027 0.0850098 0.
0.674027 0.0850108 0.
0.676027 0.0850118 0.
0.678027 0.0850128 0.
0.680028 0.085014 0.
0.682028 0.0850152 0.
0.684029 0.0850163 0.
0.686029 0.0850173 0.
0.68803 0.0850184 0.
0.69003 0.0850196 0.
0.69203 0.0850209 0.
0.694029 0.0850222 0.
0.696029 0.085023 0.
0.698029 0.0850236 0.
0.499968 0.0870249 0.
0.501969 0.0870241 0.
0.503969 0.0870234 0.
0.50597 0.0870225 0.
0.50797 0.0870212 0.
0.509971 0.0870199 0.
0.511971 0.0870188 0.
0.513972 0.0870179 0.
0.515972 0.0870169 0.
0.517973 0.0870156 0.
0.519973 0.0870141 0.
0.521973 0.0870126 0.
0.523973 0.0870114 0.
0.525973 0.0870102 0.
0.527973 0.087009 0.
0.529974 0.0870089 0.
0.531974 0.0870087 0.
0.533975 0.0870082 0.
0.535975 0.087007 0.
0.537976 0.0870057 0.
0.539976 0.0870047 0.
0.541977 0.087004 0.
0.543978 0.0870033 0.
0.545979 0.087003 0.
0.54798 0.0870029 0.
0.549981 0.0870027 0.
0.551981 0.0870019 0.
0.553982 0.087001 0.
0.555982 0.0870003 0.
0.557983 0.0869997 0.
0.559984 0.0869992 0.
0.561984 0.0869986 0.
0.563985 0.086998 0.
0.565986 0.0869974 0.
0.567987 0.086997 0.
0.569988 0.0869967 0.
0.571988 0.0869964 0.
0.573989 0.0869965 0.
0.57599 0.0869967 0.
0.57799 0.0869969 0.
0.579991 0.0869966 0.
0.581992 0.0869963 0.
0.583992 0.086996 0.
0.585994 0.086996 0.
0.587995 0.0869959 0.
0.589996 0.086996 0.
0.591997 0.0869962 0.
0.593998 0.0869965 0.
0.595999 0.0869966 0.
0.598 0.0869965 0.
0.600002 0.0869965 0.
0.602003 0.0869963 0.
0.604004 0.0869961 0.
0.606005 0.086996 0.
0.608006 0.0869958 0.
0.610007 0.0869956 0.
0.612008 0.0869956 0.
0.614009 0.0869957 0.
0.61601 0.0869959 0.
0.618011 0.0869964 0.
0.620012 0.0869971 0.
0.622012 0.0869977 0.
0.624013 0.0869979 0.
0.626014 0.0869982 0.
0.628015 0.0869983 0.
0.630015 0.0869982 0.
0.632016 0.086998 0.
0.634017 0.0869982 0.
0.636017 0.0869989 0.
0.638017 0.0869997 0.
0.640018 0.0870002 0.
0.642019 0.0870005 0.
0.64402 0.0870008 0.
0.646021 0.0870011 0.
0.648021 0.0870014 0.
0.650022 0.0870017 0.
0.652022 0.0870024 0.
0.654022 0.0870031 0.
0.656022 0.0870038 0.
0.658023 0.0870043 0.
0.660024 0.0870049 0.
0.662024 0.0870057 0.
0.664025 0.0870069 0.
0.666026 0.0870081 0.
0.668026 0.0870088 0.
0.670026 0.0870094 0.
0.672026 0.08701 0.
0.674026 0.0870109 0.
0.676026 0.087012 0.
0.678027 0.087013 0.
0.680027 0.0870139 0.
0.682027 0.0870147 0.
0.684027 0.0870157 0.
0.686028 0.087017 0.
0.688028 0.0870182 0.
0.690029 0.0870194 0.
0.692029 0.0870206 0.
0.694028 0.0870217 0.
0.696029 0.0870226 0.
0.698029 0.0870234 0.
0.499969 0.0890249 0.
0.50197 0.0890244 0.
0.503971 0.0890237 0.
0.505971 0.0890228 0.
0.507972 0.0890212 0.
0.509972 0.0890196 0.
0.511973 0.0890184 0.
0.513973 0.0890176 0.
0.515973 0.0890168 0.
0.517974 0.0890156 0.
0.519974 0.0890142 0.
0.521974 0.0890129 0.
0.523974 0.0890115 0.
0.525975 0.0890102 0.
0.527975 0.089009 0.
0.529975 0.0890088 0.
0.531976 0.0890086 0.
0.533976 0.0890081 0.
0.535976 0.0890067 0.
0.537976 0.0890053 0.
0.539977 0.0890043 0.
0.541978 0.0890036 0.
0.543979 0.0890029 0.
0.54598 0.0890026 0.
0.54798 0.0890025 0.
0.549981 0.0890024 0.
0.551982 0.0890016 0.
0.553983 0.0890007 0.
0.555983 0.089 0.
0.557984 0.0889997 0.
0.559984 0.0889994 0.
0.561984 0.0889989 0.
0.563985 0.0889981 0.
0.565986 0.0889973 0.
0.567987 0.0889969 0.
0.569988 0.0889967 0.
0.571989 0.0889966 0.
0.57399 0.0889964 0.
0.57599 0.0889962 0.
0.577991 0.088996 0.
0.579992 0.088996 0.
0.581992 0.0889959 0.
0.583993 0.0889958 0.
0.585994 0.0889956 0.
0.587995 0.0889953 0.
0.589996 0.0889953 0.
0.591997 0.0889953 0.
0.593998 0.0889954 0.
0.595999 0.0889954 0.
0.598 0.0889954 0.
0.600001 0.0889954 0.
0.602003 0.0889954 0.
0.604004 0.0889955 0.
0.606005 0.0889955 0.
0.608007 0.0889954 0.
0.610008 0.0889954 0.
0.612009 0.0889954 0.
0.61401 0.0889956 0.
0.616011 0.0889958 0.
0.618011 0.0889961 0.
0.620012 0.0889965 0.
0.622012 0.0889969 0.
0.624013 0.0889974 0.
0.626014 0.0889979 0.
0.628014 0.0889983 0.
0.630015 0.0889979 0.
0.632016 0.0889976 0.
0.634016 0.0889977 0.
0.636017 0.0889984 0.
0.638017 0.0889991 0.
0.640018 0.0889996 0.
0.642019 0.0889997 0.
0.64402 0.0889999 0.
0.64602 0.0890005 0.
0.648021 0.0890011 0.
0.650021 0.0890018 0.
0.652021 0.0890022 0.
0.654021 0.0890026 0.
0.656021 0.0890031 0.
0.658022 0.0890039 0.
0.660023 0.0890047 0.
0.662023 0.0890057 0.
0.664024 0.0890067 0.
0.666025 0.0890078 0.
0.668025 0.0890086 0.
0.670025 0.0890094 0.
0.672025 0.0890101 0.
0.674025 0.0890111 0.
0.676025 0.0890121 0.
0.678026 0.0890131 0.
0.680026 0.0890137 0.
0.682026 0.0890143 0.
0.684026 0.0890152 0.
0.686027 0.0890166 0.
0.688027 0.089018 0.
0.690028 0.0890192 0.
0.692028 0.0890202 0.
0.694028 0.0890212 0.
0.696028 0.0890223 0.
0.698028 0.0890233 0.
0.499971 0.0910251 0.
0.501971 0.0910244 0.
0.503972 0.0910238 0.
0.505972 0.0910229 0.
0.507973 0.0910213 0.
0.509973 0.0910197 0.
0.511973 0.0910184 0.
0.513974 0.0910176 0.
0.515974 0.0910168 0.
0.517975 0.0910157 0.
0.519975 0.0910144 0.
0.521975 0.0910131 0.
0.523975 0.0910117 0.
0.525976 0.0910104 0.
0.527976 0.0910091 0.
0.529976 0.0910087 0.
0.531976 0.0910083 0.
0.533977 0.0910076 0.
0.535977 0.0910063 0.
0.537977 0.091005 0.
0.539978 0.091004 0.
0.541979 0.0910033 0.
0.543979 0.0910026 0.
0.54598 0.0910023 0.
0.54798 0.0910021 0.
0.549981 0.0910019 0.
0.551982 0.0910012 0.
0.553983 0.0910005 0.
0.555984 0.0909999 0.
0.557984 0.0909996 0.
0.559984 0.0909993 0.
0.561985 0.0909988 0.
0.563985 0.090998 0.
0.565986 0.0909972 0.
0.567987 0.0909968 0.
0.569988 0.0909965 0.
0.571989 0.0909962 0.
0.57399 0.090996 0.
0.575991 0.0909957 0.
0.577991 0.0909954 0.
0.579992 0.0909954 0.
0.581993 0.0909955 0.
0.583994 0.0909954 0.
0.585995 0.0909951 0.
0.587995 0.0909948 0.
0.589996 0.0909947 0.
0.591997 0.0909948 0.
0.593998 0.0909948 0.
0.595999 0.0909948 0.
0.598 0.0909947 0.
0.600002 0.0909946 0.
0.602003 0.0909948 0.
0.604004 0.090995 0.
0.606005 0.0909951 0.
0.608007 0.0909949 0.
0.610008 0.0909948 0.
0.612009 0.0909948 0.
0.61401 0.0909951 0.
0.616011 0.0909954 0.
0.618011 0.0909957 0.
0.620011 0.0909961 0.
0.622012 0.0909965 0.
0.624013 0.090997 0.
0.626013 0.0909975 0.
0.628014 0.0909978 0.
0.630015 0.0909975 0.
0.632016 0.0909971 0.
0.634016 0.0909972 0.
0.636017 0.090998 0.
0.638017 0.0909988 0.
0.640018 0.0909992 0.
0.642019 0.0909994 0.
0.644019 0.0909995 0.
0.64602 0.0910001 0.
0.64802 0.0910009 0.
0.65002 0.0910016 0.
0.65202 0.091002 0.
0.654021 0.0910023 0.
0.656021 0.0910029 0.
0.658021 0.0910038 0.
0.660022 0.0910047 0.
0.662022 0.0910057 0.
0.664023 0.0910067 0.
0.666023 0.0910078 0.
0.668024 0.0910087 0.
0.670024 0.0910095 0.
0.672024 0.0910103 0.
0.674024 0.0910112 0.
0.676024 0.0910121 0.
0.678025 0.091013 0.
0.680025 0.0910136 0.
0.682025 0.0910141 0.
0.684025 0.091015 0.
0.686026 0.0910164 0.
0.688026 0.0910178 0.
0.690027 0.091019 0.
0.692027 0.09102 0.
0.694027 0.0910211 0.
0.696027 0.0910222 0.
0.698027 0.0910234 0.
0.499973 0.0930251 0.
0.501973 0.0930243 0.
0.503973 0.0930236 0.
0.505973 0.0930227 0.
0.507974 0.0930214 0.
0.509974 0.0930201 0.
0.511974 0.0930189 0.
0.513975 0.0930179 0.
0.515975 0.0930169 0.
0.517976 0.0930157 0.
0.519976 0.0930145 0.
0.521976 0.0930133 0.
0.523976 0.093012 0.
0.525976 0.0930107 0.
0.527977 0.0930095 0.
0.529977 0.0930086 0.
0.531977 0.0930077 0.
0.533977 0.0930068 0.
0.535978 0.0930058 0.
0.537978 0.0930048 0.
0.539978 0.093004 0.
0.541979 0.0930032 0.
0.543979 0.0930024 0.
0.54598 0.0930019 0.
0.547981 0.0930016 0.
0.549981 0.0930012 0.
0.551982 0.0930007 0.
0.553983 0.0930003 0.
0.555983 0.0929999 0.
0.557984 0.0929995 0.
0.559985 0.0929991 0.
0.561985 0.0929985 0.
0.563986 0.0929979 0.
0.565986 0.0929973 0.
0.567987 0.0929966 0.
0.569988 0.092996 0.
0.571989 0.0929953 0.
0.57399 0.0929952 0.
0.57599 0.0929951 0.
0.577991 0.0929951 0.
0.579992 0.092995 0.
0.581993 0.092995 0.
0.583994 0.0929949 0.
0.585995 0.0929946 0.
0.587995 0.0929944 0.
0.589996 0.0929944 0.
0.591997 0.0929945 0.
0.593998 0.0929947 0.
0.595999 0.0929946 0.
0.598001 0.0929944 0.
0.600002 0.0929943 0.
0.602003 0.0929945 0.
0.604004 0.0929946 0.
0.606005 0.0929947 0.
0.608006 0.0929942 0.
0.610008 0.0929937 0.
0.612009 0.0929937 0.
0.614009 0.0929941 0.
0.61601 0.0929946 0.
0.61801 0.0929952 0.
0.620011 0.0929959 0.
0.622011 0.0929967 0.
0.624012 0.0929968 0.
0.626013 0.0929969 0.
0.628014 0.092997 0.
0.630015 0.0929968 0.
0.632015 0.0929965 0.
0.634016 0.0929967 0.
0.636016 0.0929977 0.
0.638016 0.0929987 0.
0.640017 0.0929992 0.
0.642017 0.0929994 0.
0.644018 0.0929996 0.
0.646018 0.093 0.
0.648018 0.0930005 0.
0.650019 0.0930011 0.
0.652019 0.0930017 0.
0.65402 0.0930023 0.
0.65602 0.093003 0.
0.658021 0.0930039 0.
0.660021 0.0930049 0.
0.662021 0.0930059 0.
0.664022 0.0930069 0.
0.666022 0.093008 0.
0.668022 0.0930089 0.
0.670023 0.0930098 0.
0.672023 0.0930106 0.
0.674023 0.0930113 0.
0.676024 0.093012 0.
0.678024 0.0930126 0.
0.680024 0.0930134 0.
0.682024 0.0930142 0.
0.684024 0.0930152 0.
0.686025 0.0930164 0.
0.688025 0.0930177 0.
0.690025 0.0930188 0.
0.692026 0.09302 0.
0.694026 0.0930212 0.
0.696026 0.0930224 0.
0.698026 0.0930238 0.
0.499975 0.0950251 0.
0.501975 0.0950242 0.
0.503974 0.0950234 0.
0.505974 0.0950226 0.
0.507974 0.0950216 0.
0.509975 0.0950205 0.
0.511975 0.0950194 0.
0.513976 0.0950182 0.
0.515977 0.095017 0.
0.517977 0.0950158 0.
0.519977 0.0950146 0.
0.521976 0.0950135 0.
0.523977 0.0950123 0.
0.525977 0.095011 0.
0.527978 0.0950098 0.
0.529978 0.0950085 0.
0.531977 0.0950071 0.
0.533978 0.095006 0.
0.535978 0.0950053 0.
0.537979 0.0950047 0.
0.539979 0.0950039 0.
0.541979 0.0950031 0.
0.543979 0.0950022 0.
0.54598 0.0950016 0.
0.547981 0.095001 0.
0.549982 0.0950005 0.
0.551982 0.0950003 0.
0.553983 0.0950001 0.
0.555983 0.0949999 0.
0.557984 0.0949993 0.
0.559985 0.0949988 0.
0.561986 0.0949983 0.
0.563986 0.0949978 0.
0.565986 0.0949973 0.
0.567987 0.0949965 0.
0.569988 0.0949955 0.
0.571989 0.0949944 0.
0.57399 0.0949944 0.
0.57599 0.0949946 0.
0.577991 0.0949947 0.
0.579992 0.0949946 0.
0.581993 0.0949945 0.
0.583994 0.0949943 0.
0.585995 0.0949942 0.
0.587995 0.094994 0.
0.589996 0.0949941 0.
0.591997 0.0949943 0.
0.593998 0.0949945 0.
0.595999 0.0949944 0.
0.598001 0.0949942 0.
0.600002 0.094994 0.
0.602003 0.0949941 0.
0.604004 0.0949943 0.
0.606005 0.0949943 0.
0.608006 0.0949935 0.
0.610007 0.0949927 0.
0.612008 0.0949925 0.
0.614008 0.0949932 0.
0.616009 0.0949938 0.
0.618009 0.0949947 0.
0.62001 0.0949957 0.
0.622011 0.0949968 0.
0.624012 0.0949967 0.
0.626013 0.0949964 0.
0.628013 0.0949962 0.
0.630014 0.0949961 0.
0.632015 0.094996 0.
0.634015 0.0949963 0.
0.636015 0.0949974 0.
0.638015 0.0949986 0.
0.640016 0.0949992 0.
0.642016 0.0949994 0.
0.644017 0.0949996 0.
0.646017 0.0949999 0.
0.648017 0.0950002 0.
0.650018 0.0950005 0.
0.652018 0.0950014 0.
0.654019 0.0950023 0.
0.65602 0.0950031 0.
0.65802 0.0950041 0.
0.66002 0.095005 0.
0.66202 0.095006 0.
0.66402 0.0950071 0.
0.666021 0.0950082 0.
0.668021 0.0950092 0.
0.670022 0.09501 0.
0.672022 0.0950109 0.
0.674022 0.0950114 0.
0.676023 0.0950118 0.
0.678023 0.0950123 0.
0.680023 0.0950133 0.
0.682023 0.0950143 0.
0.684024 0.0950154 0.
0.686024 0.0950164 0.
0.688024 0.0950175 0.
0.690024 0.0950187 0.
0.692025 0.09502 0.
0.694025 0.0950212 0.
0.696025 0.0950227 0.
0.698024 0.0950242 0.
0.499976 0.0970258 0.
0.501976 0.0970245 0.
0.503976 0.0970234 0.
0.505976 0.0970222 0.
0.507976 0.097021 0.
0.509976 0.0970197 0.
0.511976 0.0970186 0.
0.513977 0.0970178 0.
0.515977 0.097017 0.
0.517978 0.0970159 0.
0.519978 0.0970148 0.
0.521978 0.0970136 0.
0.523978 0.0970123 0.
0.525978 0.097011 0.
0.527979 0.0970096 0.
0.529979 0.0970083 0.
0.531979 0.097007 0.
0.533979 0.097006 0.
0.53598 0.0970053 0.
0.53798 0.0970047 0.
0.53998 0.0970039 0.
0.541981 0.097003 0.
0.543981 0.0970021 0.
0.545981 0.0970014 0.
0.547981 0.0970006 0.
0.549982 0.0969999 0.
0.551982 0.0969998 0.
0.553983 0.0969997 0.
0.555984 0.0969995 0.
0.557985 0.096999 0.
0.559986 0.0969985 0.
0.561987 0.0969979 0.
0.563987 0.0969972 0.
0.565988 0.0969965 0.
0.567988 0.0969956 0.
0.569989 0.0969946 0.
0.571989 0.0969936 0.
0.57399 0.0969937 0.
0.575991 0.096994 0.
0.577992 0.0969943 0.
0.579993 0.0969942 0.
0.581994 0.096994 0.
0.583994 0.0969939 0.
0.585995 0.0969939 0.
0.587996 0.0969938 0.
0.589996 0.0969938 0.
0.591997 0.096994 0.
0.593999 0.0969941 0.
0.595999 0.096994 0.
0.598 0.0969937 0.
0.600001 0.0969935 0.
0.602002 0.0969934 0.
0.604004 0.0969934 0.
0.606005 0.0969932 0.
0.608006 0.0969928 0.
0.610007 0.0969924 0.
0.612007 0.0969923 0.
0.614008 0.0969927 0.
0.616008 0.0969931 0.
0.618009 0.0969939 0.
0.62001 0.0969949 0.
0.62201 0.096996 0.
0.624011 0.0969959 0.
0.626012 0.0969957 0.
0.628013 0.0969956 0.
0.630014 0.0969958 0.
0.632015 0.096996 0.
0.634015 0.0969965 0.
0.636015 0.0969976 0.
0.638015 0.0969988 0.
0.640016 0.0969992 0.
0.642016 0.0969991 0.
0.644017 0.0969989 0.
0.646017 0.0969993 0.
0.648017 0.0969997 0.
0.650018 0.0970002 0.
0.652018 0.0970012 0.
0.654019 0.0970022 0.
0.656019 0.0970032 0.
0.658019 0.0970039 0.
0.660019 0.0970046 0.
0.662019 0.0970055 0.
0.664019 0.0970066 0.
0.66602 0.0970077 0.
0.66802 0.0970088 0.
0.67002 0.0970099 0.
0.67202 0.097011 0.
0.674021 0.0970113 0.
0.676021 0.0970116 0.
0.678022 0.0970119 0.
0.680022 0.0970131 0.
0.682022 0.0970143 0.
0.684022 0.0970154 0.
0.686022 0.0970163 0.
0.688023 0.0970172 0.
0.690023 0.0970185 0.
0.692023 0.0970201 0.
0.694023 0.0970217 0.
0.696023 0.0970229 0.
0.698023 0.097024 0.
0.499977 0.0990262 0.
0.501977 0.0990249 0.
0.503977 0.0990234 0.
0.505977 0.0990219 0.
0.507977 0.0990204 0.
0.509977 0.0990189 0.
0.511977 0.0990179 0.
0.513978 0.0990174 0.
0.515978 0.099017 0.
0.517979 0.0990161 0.
0.519979 0.0990149 0.
0.521979 0.0990137 0.
0.523979 0.0990123 0.
0.525979 0.0990109 0.
0.527979 0.0990095 0.
0.52998 0.0990082 0.
0.531981 0.0990069 0.
0.533981 0.0990059 0.
0.535981 0.0990053 0.
0.537981 0.0990048 0.
0.539981 0.099004 0.
0.541982 0.099003 0.
0.543982 0.0990021 0.
0.545982 0.0990012 0.
0.547982 0.0990002 0.
0.549982 0.0989993 0.
0.551983 0.0989993 0.
0.553984 0.0989993 0.
0.555985 0.0989992 0.
0.557986 0.0989987 0.
0.559987 0.0989982 0.
0.561987 0.0989975 0.
0.563988 0.0989966 0.
0.56599 0.0989957 0.
0.56799 0.0989947 0.
0.56999 0.0989937 0.
0.57199 0.0989927 0.
0.573991 0.098993 0.
0.575992 0.0989935 0.
0.577993 0.0989939 0.
0.579993 0.0989937 0.
0.581994 0.0989936 0.
0.583994 0.0989935 0.
0.585995 0.0989936 0.
0.587996 0.0989936 0.
0.589997 0.0989936 0.
0.591998 0.0989936 0.
0.593999 0.0989937 0.
0.595999 0.0989935 0.
0.598 0.0989933 0.
0.6 0.0989931 0.
0.602002 0.0989928 0.
0.604004 0.0989924 0.
0.606005 0.0989922 0.
0.608006 0.0989921 0.
0.610006 0.0989921 0.
0.612007 0.0989921 0.
0.614007 0.0989922 0.
0.616007 0.0989924 0.
0.618008 0.0989931 0.
0.620009 0.0989941 0.
0.62201 0.0989952 0.
0.624011 0.0989952 0.
0.626012 0.0989951 0.
0.628013 0.098995 0.
0.630014 0.0989955 0.
0.632014 0.0989961 0.
0.634015 0.0989968 0.
0.636015 0.0989979 0.
0.638016 0.098999 0.
0.640016 0.0989992 0.
0.642016 0.0989987 0.
0.644017 0.0989982 0.
0.646017 0.0989986 0.
0.648018 0.0989992 0.
0.650018 0.0989998 0.
0.652018 0.099001 0.
0.654018 0.0990022 0.
0.656018 0.0990032 0.
0.658018 0.0990037 0.
0.660018 0.0990042 0.
0.662018 0.099005 0.
0.664018 0.0990061 0.
0.666018 0.0990072 0.
0.668019 0.0990084 0.
0.670019 0.0990097 0.
0.672019 0.099011 0.
0.674019 0.0990112 0.
0.67602 0.0990113 0.
0.67802 0.0990116 0.
0.68002 0.0990129 0.
0.68202 0.0990142 0.
0.68402 0.0990154 0.
0.686021 0.0990161 0.
0.688021 0.0990169 0.
0.690021 0.0990184 0.
0.692021 0.0990203 0.
0.694021 0.0990222 0.
0.696022 0.0990231 0.
0.698022 0.0990237 0.
CELLS 5000 10000
1 0
1 1
1 2
1 3
1 4
1 5
1 6
1 7
1 8
1 9
1 10
1 11
1 12
1 13
1 14
1 15
1 16
1 17
1 18
1 19
1 20
1 21
1 22
1 23
1 24
1 25
1 26
1 27
1 28
1 29
1 30
1 31
1 32
1 33
1 34
1 35
1 36
1 37
1 38
1 39
1 40
1 41
1 42
1 43
1 44
1 45
1 46
1 47
1 48
1 49
1 50
1 51
1 52
1 53
1 54
1 55
1 56
1 57
1 58
1 59
1 60
1 61
1 62
1 63
1 64
1 65
1 66
1 67
1 68
1 69
1 70
1 71
1 72
1 73
1 74
1 75
1 76
1 77
1 78
1 79
1 80
1 81
1 82
1 83
1 84
1 85
1 86
1 87
1 88
1 89
1 90
1 91
1 92
1 93
1 94
1 95
1 96
1 97
1 98
1 99
1 100
1 101
1 102
1 103
1 104
1 105
1 106
1 107
1 108
1 109
1 110
1 111
1 112
1 113
1 114
1 115
1 116
1 117
1 118
1 119
1 120
1 121
1 122
1 123
1 124
1 125
1 126
1 127
1 128
1 129
1 130
1 131
1 132
1 133
1 134
1 135
1 136
1 137
1 138
1 139
1 140
1 141
1 142
1 143
1 144
1 145
1 146
1 147
1 148
1 149
1 150
1 151
1 152
1 153
1 154
1 155
1 156
1 157
1 158
1 159
1 160
1 161
1 162
1 163
1 164
1 165
1 166
1 167
1 168
1 169
1 170
1 171
1 172
1 173
1 174
1 175
1 176
1 177
1 178
1 179
1 180
1 181
1 182
1 183
1 184
1 185
1 186
1 187
1 188
1 189
1 190
1 191
1 192
1 193
1 194
1 195
1 196
1 197
1 198
1 199
1 200
1 201
1 202
1 203
1 204
1 205
1 206
1 207
1 208
1 209
1 210
1 211
1 212
1 213
1 214
1 215
1 216
1 217
1 218
1 219
1 220
1 221
1 222
1 223
1 224
1 225
1 226
1 227
1 228
1 229
1 230
1 231
1 232
1 233
1 234
1 235
1 236
1 237
1 238
1 239
1 240
1 241
1 242
1 243
1 244
1 245
1 246
1 247
1 248
1 249
1 250
1 251
1 252
1 253
1 254
1 255
1 256
1 257
1 258
1 259
1 260
1 261
1 262
1 263
1 264
1 265
1 266
1 267
1 268
1 269
1 270
1 271
1 272
1 273
1 274
1 275
1 276
1 277
1 278
1 279
1 280
1 281
1 282
1 283
1 284
1 285
1 286
1 287
1 288
1 289
1 290
1 291
1 292
1 293
1 294
1 295
1 296
1 297
1 298
1 299
1 300
1 301
1 302
1 303
1 304
1 305
1 306
1 307
1 308
1 309
1 310
1 311
1 312
1 313
1 314
1 315
1 316
1 317
1 318
1 319
1 320
1 321
1 322
1 323
1 324
1 325
1 326
1 327
1 328
1 329
1 330
1 331
1 332
1 333
1 334
1 335
1 336
1 337
1 338
1 339
1 340
1 341
1 342
1 343
1 344
1 345
1 346
1 347
1 348
1 349
1 350
1 351
1 352
1 353
1 354
1 355
1 356
1 357
1 358
1 359
1 360
1 361
1 362
1 363
1 364
1 365
1 366
1 367
1 368
1 369
1 370
1 371
1 372
1 373
1 374
1 375
1 376
1 377
1 378
1 379
1 380
1 381
1 382
1 383
1 384
1 385
1 386
1 387
1 388
1 389
1 390
1 391
1 392
1 393
1 394
1 395
1 396
1 397
1 398
1 399
1 400
1 401
1 402
1 403
1 404
1 405
1 406
1 407
1 408
1 409
1 410
1 411
1 412
1 413
1 414
1 415
1 416
1 417
1 418
1 419
1 420
1 421
1 422
1 423
1 424
1 425
1 426
1 427
1 428
1 429
1 430
1 431
1 432
1 433
1 434
1 435
1 436
1 437
1 438
1 439
1 440
1 441
1 442
1 443
1 444
1 445
1 446
1 447
1 448
1 449
1 450
1 451
1 452
1 453
1 454
1 455
1 456
1 457
1 458
1 459
1 460
1 461
1 462
1 463
1 464
1 465
1 466
1 467
1 468
1 469
1 470
1 471
1 472
1 473
1 474
1 475
1 476
1 477
1 478
1 479
1 480
1 481
1 482
1 483
1 484
1 485
1 486
1 487
1 488
1 489
1 490
1 491
1 492
1 493
1 494
1 495
1 496
1 497
1 498
1 499
1 500
1 501
1 502
1 503
1 504
1 505
1 506
1 507
1 508
1 509
1 510
1 511
1 512
1 513
1 514
1 515
1 516
1 517
1 518
1 519
1 520
1 521
1 522
1 523
1 524
1 525
1 526
1 527
1 528
1 529
1 530
1 531
1 532
1 533
1 534
1 535
1 536
1 537
1 538
1 539
1 540
1 541
1 542
1 543
1 544
1 545
1 546
1 547
1 548
1 549
1 550
1 551
1 552
1 553
1 554
1 555
1 556
1 557
1 558
1 559
1 560
1 561
1 562
1 563
1 564
1 565
1 566
1 567
1 568
1 569
1 570
1 571
1 572
1 573
1 574
1 575
1 576
1 577
1 578
1 579
1 580
1 581
1 582
1 583
1 584
1 585
1 586
1 587
1 588
1 589
1 590
1 591
1 592
1 593
1 594
1 595
1 596
1 597
1 598
1 599
1 600
1 601
1 602
1 603
1 604
1 605
1 606
1 607
1 608
1 609
1 610
1 611
1 612
1 613
1 614
1 615
1 616
1 617
1 618
1 619
1 620
1 621
1 622
1 623
1 624
1 625
1 626
1 627
1 628
1 629
1 630
1 631
1 632
1 633
1 634
1 635
1 636
1 637
1 638
1 639
1 640
1 641
1 642
1 643
1 644
1 645
1 646
1 647
1 648
1 649
1 650
1 651
1 652
1 653
1 654
1 655
1 656
1 657
1 658
1 659
1 660
1 661
1 662
1 663
1 664
1 665
1 666
1 667
1 668
1 669
1 670
1 671
1 672
1 673
1 674
1 675
1 676
1 677
1 678
1 679
1 680
1 681
1 682
1 683
1 684
1 685
1 686
1 687
1 688
1 689
1 690
1 691
1 692
1 693
1 694
1 695
1 696
1 697
1 698
1 699
1 700
1 701
1 702
1 703
1 704
1 705
1 706
1 707
1 708
1 709
1 710
1 711
1 712
1 713
1 714
1 715
1 716
1 717
1 718
1 719
1 720
1 721
1 722
1 723
1 724
1 725
1 726
1 727
1 728
1 729
1 730
1 731
1 732
1 733
1 734
1 735
1 736
1 737
1 738
1 739
1 740
1 741
1 742
1 743
1 744
1 745
1 746
1 747
1 748
1 749
1 750
1 751
1 752
1 753
1 754
1 755
1 756
1 757
1 758
1 759
1 760
1 761
1 762
1 763
1 764
1 765
1 766
1 767
1 768
1 769
1 770
1 771
1 772
1 773
1 774
1 775
1 776
1 777
1 778
1 779
1 780
1 781
1 782
1 783
1 784
1 785
1 786
1 787
1 788
1 789
1 790
1 791
1 792
1 793
1 794
1 795
1 796
1 797
1 798
1 799
1 800
1 801
1 802
1 803
1 804
1 805
1 806
1 807
1 808
1 809
1 810
1 811
1 812
1 813
1 814
1 815
1 816
1 817
1 818
1 819
1 820
1 821
1 822
1 823
1 824
1 825
1 826
1 827
1 828
1 829
1 830
1 831
1 832
1 833
1 834
1 835
1 836
1 837
1 838
1 839
1 840
1 841
1 842
1 843
1 844
1 845
1 846
1 847
1 848
1 849
1 850
1 851
1 852
1 853
1 854
1 855
1 856
1 857
1 858
1 859
1 860
1 861
1 862
1 863
1 864
1 865
1 866
1 867
1 868
1 869
1 870
1 871
1 872
1 873
1 874
1 875
1 876
1 877
1 878
1 879
1 880
1 881
1 882
1 883
1 884
1 885
1 886
1 887
1 888
1 889
1 890
1 891
1 892
1 893
1 894
1 895
1 896
1 897
1 898
1 899
1 900
1 901
1 902
1 903
1 904
1 905
1 906
1 907
1 908
1 909
1 910
1 911
1 912
1 913
1 914
1 915
1 916
1 917
1 918
1 919
1 920
1 921
1 922
1 923
1 924
1 925
1 926
1 927
1 928
1 929
1 930
1 931
1 932
1 933
1 934
1 935
1 936
1 937
1 938
1 939
1 940
1 941
1 942
1 943
1 944
1 945
1 946
1 947
1 948
1 949
1 950
1 951
1 952
1 953
1 954
1 955
1 956
1 957
1 958
1 959
1 960
1 961
1 962
1 963
1 964
1 965
1 966
1 967
1 968
1 969
1 970
1 971
1 972
1 973
1 974
1 975
1 976
1 977
1 978
1 979
1 980
1 981
1 982
1 983
1 984
1 985
1 986
1 987
1 988
1 989
1 990
1 991
1 992
1 993
1 994
1 995
1 996
1 997
1 998
1 999
1 1000
1 1001
1 1002
1 1003
1 1004
1 1005
1 1006
1 1007
1 1008
1 1009
1 1010
1 1011
1 1012
1 1013
1 1014
1 1015
1 1016
1 1017
1 1018
1 1019
1 1020
1 1021
1 1022
1 1023
1 1024
1 1025
1 1026
1 1027
1 1028
1 1029
1 1030
1 1031
1 1032
1 1033
1 1034
1 1035
1 1036
1 1037
1 1038
1 1039
1 1040
1 1041
1 1042
1 1043
1 1044
1 1045
1 1046
1 1047
1 1048
1 1049
1 1050
1 1051
1 1052
1 1053
1 1054
1 1055
1 1056
1 1057
1 1058
1 1059
1 1060
1 1061
1 1062
1 1063
1 1064
1 1065
1 1066
1 1067
1 1068
1 1069
1 1070
1 1071
1 1072
1 1073
1 1074
1 1075
1 1076
1 1077
1 1078
1 1079
1 1080
1 1081
1 1082
1 1083
1 1084
1 1085
1 1086
1 1087
1 1088
1 1089
1 1090
1 1091
1 1092
1 1093
1 1094
1 1095
1 1096
1 1097
1 1098
1 1099
1 1100
1 1101
1 1102
1 1103
1 1104
1 1105
1 1106
1 1107
1 1108
1 1109
1 1110
1 1111
1 1112
1 1113
1 1114
1 1115
1 1116
1 1117
1 1118
1 1119
1 1120
1 1121
1 1122
1 1123
1 1124
1 1125
1 1126
1 1127
1 1128
1 1129
1 1130
1 1131
1 1132
1 1133
1 1134
1 1135
1 1136
1 1137
1 1138
1 1139
1 1140
1 1141
1 1142
1 1143
1 1144
1 1145
1 1146
1 1147
1 1148
1 1149
1 1150
1 1151
1 1152
1 1153
1 1154
1 1155
1 1156
1 1157
1 1158
1 1159
1 1160
1 1161
1 1162
1 1163
1 1164
1 1165
1 1166
1 1167
1 1168
1 1169
1 1170
1 1171
1 1172
1 1173
1 1174
1 1175
1 1176
1 1177
1 1178
1 1179
1 1180
1 1181
1 1182
1 1183
1 1184
1 1185
1 1186
1 1187
1 1188
1 1189
1 1190
1 1191
1 1192
1 1193
1 1194
1 1195
1 1196
1 1197
1 1198
1 1199
1 1200
1 1201
1 1202
1 1203
1 1204
1 1205
1 1206
1 1207
1 1208
1 1209
1 1210
1 1211
1 1212
1 1213
1 1214
1 1215
1 1216
1 1217
1 1218
1 1219
1 1220
1 1221
1 1222
1 1223
1 1224
1 1225
1 1226
1 1227
1 1228
1 1229
1 1230
1 1231
1 1232
1 1233
1 1234
1 1235
1 1236
1 1237
1 1238
1 1239
1 1240
1 1241
1 1242
1 1243
1 1244
1 1245
1 1246
1 1247
1 1248
1 1249
1 1250
1 1251
1 1252
1 1253
1 1254
1 1255
1 1256
1 1257
1 1258
1 1259
1 1260
1 1261
1 1262
1 1263
1 1264
1 1265
1 1266
1 1267
1 1268
1 1269
1 1270
1 1271
1 1272
1 1273
1 1274
1 1275
1 1276
1 1277
1 1278
1 1279
1 1280
1 1281
1 1282
1 1283
1 1284
1 1285
1 1286
1 1287
1 1288
1 1289
1 1290
1 1291
1 1292
1 1293
1 1294
1 1295
1 1296
1 1297
1 1298
1 1299
1 1300
1 1301
1 1302
1 1303
1 1304
1 1305
1 1306
1 1307
1 1308
1 1309
1 1310
1 1311
1 1312
1 1313
1 1314
1 1315
1 1316
1 1317
1 1318
1 1319
1 1320
1 1321
1 1322
1 1323
1 1324
1 1325
1 1326
1 1327
1 1328
1 1329
1 1330
1 1331
1 1332
1 1333
1 1334
1 1335
1 1336
1 1337
1 1338
1 1339
1 1340
1 1341
1 1342
1 1343
1 1344
1 1345
1 1346
1 1347
1 1348
1 1349
1 1350
1 1351
1 1352
1 1353
1 1354
1 1355
1 1356
1 1357
1 1358
1 1359
1 1360
1 1361
1 1362
1 1363
1 1364
1 1365
1 1366
1 1367
1 1368
1 1369
1 1370
1 1371
1 1372
1 1373
1 1374
1 1375
1 1376
1 1377
1 1378
1 1379
1 1380
1 1381
1 1382
1 1383
1 1384
1 1385
1 1386
1 1387
1 1388
1 1389
1 1390
1 1391
1 1392
1 1393
1 1394
1 1395
1 1396
1 1397
1 1398
1 1399
1 1400
1 1401
1 1402
1 1403
1 1404
1 1405
1 1406
1 1407
1 1408
1 1409
1 1410
1 1411
1 1412
1 1413
1 1414
1 1415
1 1416
1 1417
1 1418
1 1419
1 1420
1 1421
1 1422
1 1423
1 1424
1 1425
1 1426
1 1427
1 1428
1 1429
1 1430
1 1431
1 1432
1 1433
1 1434
1 1435
1 1436
1 1437
1 1438
1 1439
1 1440
1 1441
1 1442
1 1443
1 1444
1 1445
1 1446
1 1447
1 1448
1 1449
1 1450
1 1451
1 1452
1 1453
1 1454
1 1455
1 1456
1 1457
1 1458
1 1459
1 1460
1 1461
1 1462
1 1463
1 1464
1 1465
1 1466
1 1467
1 1468
1 1469
1 1470
1 1471
1 1472
1 1473
1 1474
1 1475
1 1476
1 1477
1 1478
1 1479
1 1480
1 1481
1 1482
1 1483
1 1484
1 1485
1 1486
1 1487
1 1488
1 1489
1 1490
1 1491
1 1492
1 1493
1 1494
1 1495
1 1496
1 1497
1 1498
1 1499
1 1500
1 1501
1 1502
1 1503
1 1504
1 1505
1 1506
1 1507
1 1508
1 1509
1 1510
1 1511
1 1512
1 1513
1 1514
1 1515
1 1516
1 1517
1 1518
1 1519
1 1520
1 1521
1 1522
1 1523
1 1524
1 1525
1 1526
1 1527
1 1528
1 1529
1 1530
1 1531
1 1532
1 1533
1 1534
1 1535
1 1536
1 1537
1 1538
1 1539
1 1540
1 1541
1 1542
1 1543
1 1544
1 1545
1 1546
1 1547
1 1548
1 1549
1 1550
1 1551
1 1552
1 1553
1 1554
1 1555
1 1556
1 1557
1 1558
1 1559
1 1560
1 1561
1 1562
1 1563
1 1564
1 1565
1 1566
1 1567
1 1568
1 1569
1 1570
1 1571
1 1572
1 1573
1 1574
1 1575
1 1576
1 1577
1 1578
1 1579
1 1580
1 1581
1 1582
1 1583
1 1584
1 1585
1 1586
1 1587
1 1588
1 1589
1 1590
1 1591
1 1592
1 1593
1 1594
1 1595
1 1596
1 1597
1 1598
1 1599
1 1600
1 1601
1 1602
1 1603
1 1604
1 1605
1 1606
1 1607
1 1608
1 1609
1 1610
1 1611
1 1612
1 1613
1 1614
1 1615
1 1616
1 1617
1 1618
1 1619
1 1620
1 1621
1 1622
1 1623
1 1624
1 1625
1 1626
1 1627
1 1628
1 1629
1 1630
1 1631
1 1632
1 1633
1 1634
1 1635
1 1636
1 1637
1 1638
1 1639
1 1640
1 1641
1 1642
1 1643
1 1644
1 1645
1 1646
1 1647
1 1648
1 1649
1 1650
1 1651
1 1652
1 1653
1 1654
1 1655
1 1656
1 1657
1 1658
1 1659
1 1660
1 1661
1 1662
1 1663
1 1664
1 1665
1 1666
1 1667
1 1668
1 1669
1 1670
1 1671
1 1672
1 1673
1 1674
1 1675
1 1676
1 1677
1 1678
1 1679
1 1680
1 1681
1 1682
1 1683
1 1684
1 1685
1 1686
1 1687
1 1688
1 1689
1 1690
1 1691
1 1692
1 1693
1 1694
1 1695
1 1696
1 1697
1 1698
1 1699
1 1700
1 1701
1 1702
1 1703
1 1704
1 1705
1 1706
1 1707
1 1708
1 1709
1 1710
1 1711
1 1712
1 1713
1 1714
1 1715
1 1716
1 1717
1 1718
1 1719
1 1720
1 1721
1 1722
1 1723
1 1724
1 1725
1 1726
1 1727
1 1728
1 1729
1 1730
1 1731
1 1732
1 1733
1 1734
1 1735
1 1736
1 1737
1 1738
1 1739
1 1740
1 1741
1 1742
1 1743
1 1744
1 1745
1 1746
1 1747
1 1748
1 1749
1 1750
1 1751
1 1752
1 1753
1 1754
1 1755
1 1756
1 1757
1 1758
1 1759
1 1760
1 1761
1 1762
1 1763
1 1764
1 1765
1 1766
1 1767
1 1768
1 1769
1 1770
1 1771
1 1772
1 1773
1 1774
1 1775
1 1776
1 1777
1 1778
1 1779
1 1780
1 1781
1 1782
1 1783
1 1784
1 1785
1 1786
1 1787
1 1788
1 1789
1 1790
1 1791
1 1792
1 1793
1 1794
1 1795
1 1796
1 1797
1 1798
1 1799
1 1800
1 1801
1 1802
1 1803
1 1804
1 1805
1 1806
1 1807
1 1808
1 1809
1 1810
1 1811
1 1812
1 1813
1 1814
1 1815
1 1816
1 1817
1 1818
1 1819
1 1820
1 1821
1 1822
1 1823
1 1824
1 1825
1 1826
1 1827
1 1828
1 1829
1 1830
1 1831
1 1832
1 1833
1 1834
1 1835
1 1836
1 1837
1 1838
1 1839
1 1840
1 1841
1 1842
1 1843
1 1844
1 1845
1 1846
1 1847
1 1848
1 1849
1 1850
1 1851
1 1852
1 1853
1 1854
1 1855
1 1856
1 1857
1 1858
1 1859
1 1860
1 1861
1 1862
1 1863
1 1864
1 1865
1 1866
1 1867
1 1868
1 1869
1 1870
1 1871
1 1872
1 1873
1 1874
1 1875
1 1876
1 1877
1 1878
1 1879
1 1880
1 1881
1 1882
1 1883
1 1884
1 1885
1 1886
1 1887
1 1888
1 1889
1 1890
1 1891
1 1892
1 1893
1 1894
1 1895
1 1896
1 1897
1 1898
1 1899
1 1900
1 1901
1 1902
1 1903
1 1904
1 1905
1 1906
1 1907
1 1908
1 1909
1 1910
1 1911
1 1912
1 1913
1 1914
1 1915
1 1916
1 1917
1 1918
1 1919
1 1920
1 1921
1 1922
1 1923
1 1924
1 1925
1 1926
1 1927
1 1928
1 1929
1 1930
1 1931
1 1932
1 1933
1 1934
1 1935
1 1936
1 1937
1 1938
1 1939
1 1940
1 1941
1 1942
1 1943
1 1944
1 1945
1 1946
1 1947
1 1948
1 1949
1 1950
1 1951
1 1952
1 1953
1 1954
1 1955
1 1956
1 1957
1 1958
1 1959
1 1960
1 1961
1 1962
1 1963
1 1964
1 1965
1 1966
1 1967
1 1968
1 1969
1 1970
1 1971
1 1972
1 1973
1 1974
1 1975
1 1976
1 1977
1 1978
1 1979
1 1980
1 1981
1 1982
1 1983
1 1984
1 1985
1 1986
1 1987
1 1988
1 1989
1 1990
1 1991
1 1992
1 1993
1 1994
1 1995
1 1996
1 1997
1 1998
1 1999
1 2000
1 2001
1 2002
1 2003
1 2004
1 2005
1 2006
1 2007
1 2008
1 2009
1 2010
1 2011
1 2012
1 2013
1 2014
1 2015
1 2016
1 2017
1 2018
1 2019
1 2020
1 2021
1 2022
1 2023
1 2024
1 2025
1 2026
1 2027
1 2028
1 2029
1 2030
1 2031
1 2032
1 2033
1 2034
1 2035
1 2036
1 2037
1 2038
1 2039
1 2040
1 2041
1 2042
1 2043
1 2044
1 2045
1 2046
1 2047
1 2048
1 2049
1 2050
1 2051
1 2052
1 2053
1 2054
1 2055
1 2056
1 2057
1 2058
1 2059
1 2060
1 2061
1 2062
1 2063
1 2064
1 2065
1 2066
1 2067
1 2068
1 2069
1 2070
1 2071
1 2072
1 2073
1 2074
1 2075
1 2076
1 2077
1 2078
1 2079
1 2080
1 2081
1 2082
1 2083
1 2084
1 2085
1 2086
1 2087
1 2088
1 2089
1 2090
1 2091
1 2092
1 2093
1 2094
1 2095
1 2096
1 2097
1 2098
1 2099
1 2100
1 2101
1 2102
1 2103
1 2104
1 2105
1 2106
1 2107
1 2108
1 2109
1 2110
1 2111
1 2112
1 2113
1 2114
1 2115
1 2116
1 2117
1 2118
1 2119
1 2120
1 2121
1 2122
1 2123
1 2124
1 2125
1 2126
1 2127
1 2128
1 2129
1 2130
1 2131
1 2132
1 2133
1 2134
1 2135
1 2136
1 2137
1 2138
1 2139
1 2140
1 2141
1 2142
1 2143
1 2144
1 2145
1 2146
1 2147
1 2148
1 2149
1 2150
1 2151
1 2152
1 2153
1 2154
1 2155
1 2156
1 2157
1 2158
1 2159
1 2160
1 2161
1 2162
1 2163
1 2164
1 2165
1 2166
1 2167
1 2168
1 2169
1 2170
1 2171
1 2172
1 2173
1 2174
1 2175
1 2176
1 2177
1 2178
1 2179
1 2180
1 2181
1 2182
1 2183
1 2184
1 2185
1 2186
1 2187
1 2188
1 2189
1 2190
1 2191
1 2192
1 2193
1 2194
1 2195
1 2196
1 2197
1 2198
1 2199
1 2200
1 2201
1 2202
1 2203
1 2204
1 2205
1 2206
1 2207
1 2208
1 2209
1 2210
1 2211
1 2212
1 2213
1 2214
1 2215
1 2216
1 2217
1 2218
1 2219
1 2220
1 2221
1 2222
1 2223
1 2224
1 2225
1 2226
1 2227
1 2228
1 2229
1 2230
1 2231
1 2232
1 2233
1 2234
1 2235
1 2236
1 2237
1 2238
1 2239
1 2240
1 2241
1 2242
1 2243
1 2244
1 2245
1 2246
1 2247
1 2248
1 2249
1 2250
1 2251
1 2252
1 2253
1 2254
1 2255
1 2256
1 2257
1 2258
1 2259
1 2260
1 2261
1 2262
1 2263
1 2264
1 2265
1 2266
1 2267
1 2268
1 2269
1 2270
1 2271
1 2272
1 2273
1 2274
1 2275
1 2276
1 2277
1 2278
1 2279
1 2280
1 2281
1 2282
1 2283
1 2284
1 2285
1 2286
1 2287
1 2288
1 2289
1 2290
1 2291
1 2292
1 2293
1 2294
1 2295
1 2296
1 2297
1 2298
1 2299
1 2300
1 2301
1 2302
1 2303
1 2304
1 2305
1 2306
1 2307
1 2308
1 2309
1 2310
1 2311
1 2312
1 2313
1 2314
1 2315
1 2316
1 2317
1 2318
1 2319
1 2320
1 2321
1 2322
1 2323
1 2324
1 2325
1 2326
1 2327
1 2328
1 2329
1 2330
1 2331
1 2332
1 2333
1 2334
1 2335
1 2336
1 2337
1 2338
1 2339
1 2340
1 2341
1 2342
1 2343
1 2344
1 2345
1 2346
1 2347
1 2348
1 2349
1 2350
1 2351
1 2352
1 2353
1 2354
1 2355
1 2356
1 2357
1 2358
1 2359
1 2360
1 2361
1 2362
1 2363
1 2364
1 2365
1 2366
1 2367
1 2368
1 2369
1 2370
1 2371
1 2372
1 2373
1 2374
1 2375
1 2376
1 2377
1 2378
1 2379
1 2380
1 2381
1 2382
1 2383
1 2384
1 2385
1 2386
1 2387
1 2388
1 2389
1 2390
1 2391
1 2392
1 2393
1 2394
1 2395
1 2396
1 2397
1 2398
1 2399
1 2400
1 2401
1 2402
1 2403
1 2404
1 2405
1 2406
1 2407
1 2408
1 2409
1 2410
1 2411
1 2412
1 2413
1 2414
1 2415
1 2416
1 2417
1 2418
1 2419
1 2420
1 2421
1 2422
1 2423
1 2424
1 2425
1 2426
1 2427
1 2428
1 2429
1 2430
1 2431
1 2432
1 2433
1 2434
1 2435
1 2436
1 2437
1 2438
1 2439
1 2440
1 2441
1 2442
1 2443
1 2444
1 2445
1 2446
1 2447
1 2448
1 2449
1 2450
1 2451
1 2452
1 2453
1 2454
1 2455
1 2456
1 2457
1 2458
1 2459
1 2460
1 2461
1 2462
1 2463
1 2464
1 2465
1 2466
1 2467
1 2468
1 2469
1 2470
1 2471
1 2472
1 2473
1 2474
1 2475
1 2476
1 2477
1 2478
1 2479
1 2480
1 2481
1 2482
1 2483
1 2484
1 2485
1 2486
1 2487
1 2488
1 2489
1 2490
1 2491
1 2492
1 2493
1 2494
1 2495
1 2496
1 2497
1 2498
1 2499
1 2500
1 2501
1 2502
1 2503
1 2504
1 2505
1 2506
1 2507
1 2508
1 2509
1 2510
1 2511
1 2512
1 2513
1 2514
1 2515
1 2516
1 2517
1 2518
1 2519
1 2520
1 2521
1 2522
1 2523
1 2524
1 2525
1 2526
1 2527
1 2528
1 2529
1 2530
1 2531
1 2532
1 2533
1 2534
1 2535
1 2536
1 2537
1 2538
1 2539
1 2540
1 2541
1 2542
1 2543
1 2544
1 2545
1 2546
1 2547
1 2548
1 2549
1 2550
1 2551
1 2552
1 2553
1 2554
1 2555
1 2556
1 2557
1 2558
1 2559
1 2560
1 2561
1 2562
1 2563
1 2564
1 2565
1 2566
1 2567
1 2568
1 2569
1 2570
1 2571
1 2572
1 2573
1 2574
1 2575
1 2576
1 2577
1 2578
1 2579
1 2580
1 2581
1 2582
1 2583
1 2584
1 2585
1 2586
1 2587
1 2588
1 2589
1 2590
1 2591
1 2592
1 2593
1 2594
1 2595
1 2596
1 2597
1 2598
1 2599
1 2600
1 2601
1 2602
1 2603
1 2604
1 2605
1 2606
1 2607
1 2608
1 2609
1 2610
1 2611
1 2612
1 2613
1 2614
1 2615
1 2616
1 2617
1 2618
1 2619
1 2620
1 2621
1 2622
1 2623
1 2624
1 2625
1 2626
1 2627
1 2628
1 2629
1 2630
1 2631
1 2632
1 2633
1 2634
1 2635
1 2636
1 2637
1 2638
1 2639
1 2640
1 2641
1 2642
1 2643
1 2644
1 2645
1 2646
1 2647
1 2648
1 2649
1 2650
1 2651
1 2652
1 2653
1 2654
1 2655
1 2656
1 2657
1 2658
1 2659
1 2660
1 2661
1 2662
1 2663
1 2664
1 2665
1 2666
1 2667
1 2668
1 2669
1 2670
1 2671
1 2672
1 2673
1 2674
1 2675
1 2676
1 2677
1 2678
1 2679
1 2680
1 2681
1 2682
1 2683
1 2684
1 2685
1 2686
1 2687
1 2688
1 2689
1 2690
1 2691
1 2692
1 2693
1 2694
1 2695
1 2696
1 2697
1 2698
1 2699
1 2700
1 2701
1 2702
1 2703
1 2704
1 2705
1 2706
1 2707
1 2708
1 2709
1 2710
1 2711
1 2712
1 2713
1 2714
1 2715
1 2716
1 2717
1 2718
1 2719
1 2720
1 2721
1 2722
1 2723
1 2724
1 2725
1 2726
1 2727
1 2728
1 2729
1 2730
1 2731
1 2732
1 2733
1 2734
1 2735
1 2736
1 2737
1 2738
1 2739
1 2740
1 2741
1 2742
1 2743
1 2744
1 2745
1 2746
1 2747
1 2748
1 2749
1 2750
1 2751
1 2752
1 2753
1 2754
1 2755
1 2756
1 2757
1 2758
1 2759
1 2760
1 2761
1 2762
1 2763
1 2764
1 2765
1 2766
1 2767
1 2768
1 2769
1 2770
1 2771
1 2772
1 2773
1 2774
1 2775
1 2776
1 2777
1 2778
1 2779
1 2780
1 2781
1 2782
1 2783
1 2784
1 2785
1 2786
1 2787
1 2788
1 2789
1 2790
1 2791
1 2792
1 2793
1 2794
1 2795
1 2796
1 2797
1 2798
1 2799
1 2800
1 2801
1 2802
1 2803
1 2804
1 2805
1 2806
1 2807
1 2808
1 2809
1 2810
1 2811
1 2812
1 2813
1 2814
1 2815
1 2816
1 2817
1 2818
1 2819
1 2820
1 2821
1 2822
1 2823
1 2824
1 2825
1 2826
1 2827
1 2828
1 2829
1 2830
1 2831
1 2832
1 2833
1 2834
1 2835
1 2836
1 2837
1 2838
1 2839
1 2840
1 2841
1 2842
1 2843
1 2844
1 2845
1 2846
1 2847
1 2848
1 2849
1 2850
1 2851
1 2852
1 2853
1 2854
1 2855
1 2856
1 2857
1 2858
1 2859
1 2860
1 2861
1 2862
1 2863
1 2864
1 2865
1 2866
1 2867
1 2868
1 2869
1 2870
1 2871
1 2872
1 2873
1 2874
1 2875
1 2876
1 2877
1 2878
1 2879
1 2880
1 2881
1 2882
1 2883
1 2884
1 2885
1 2886
1 2887
1 2888
1 2889
1 2890
1 2891
1 2892
1 2893
1 2894
1 2895
1 2896
1 2897
1 2898
1 2899
1 2900
1 2901
1 2902
1 2903
1 2904
1 2905
1 2906
1 2907
1 2908
1 2909
1 2910
1 2911
1 2912
1 2913
1 2914
1 2915
1 2916
1 2917
1 2918
1 2919
1 2920
1 2921
1 2922
1 2923
1 2924
1 2925
1 2926
1 2927
1 2928
1 2929
1 2930
1 2931
1 2932
1 2933
1 2934
1 2935
1 2936
1 2937
1 2938
1 2939
1 2940
1 2941
1 2942
1 2943
1 2944
1 2945
1 2946
1 2947
1 2948
1 2949
1 2950
1 2951
1 2952
1 2953
1 2954
1 2955
1 2956
1 2957
1 2958
1 2959
1 2960
1 2961
1 2962
1 2963
1 2964
1 2965
1 2966
1 2967
1 2968
1 2969
1 2970
1 2971
1 2972
1 2973
1 2974
1 2975
1 2976
1 2977
1 2978
1 2979
1 2980
1 2981
1 2982
1 2983
1 2984
1 2985
1 2986
1 2987
1 2988
1 2989
1 2990
1 2991
1 2992
1 2993
1 2994
1 2995
1 2996
1 2997
1 2998
1 2999
1 3000
1 3001
1 3002
1 3003
1 3004
1 3005
1 3006
1 3007
1 3008
1 3009
1 3010
1 3011
1 3012
1 3013
1 3014
1 3015
1 3016
1 3017
1 3018
1 3019
1 3020
1 3021
1 3022
1 3023
1 3024
1 3025
1 3026
1 3027
1 3028
1 3029
1 3030
1 3031
1 3032
1 3033
1 3034
1 3035
1 3036
1 3037
1 3038
1 3039
1 3040
1 3041
1 3042
1 3043
1 3044
1 3045
1 3046
1 3047
1 3048
1 3049
1 3050
1 3051
1 3052
1 3053
1 3054
1 3055
1 3056
1 3057
1 3058
1 3059
1 3060
1 3061
1 3062
1 3063
1 3064
1 3065
1 3066
1 3067
1 3068
1 3069
1 3070
1 3071
1 3072
1 3073
1 3074
1 3075
1 3076
1 3077
1 3078
1 3079
1 3080
1 3081
1 3082
1 3083
1 3084
1 3085
1 3086
1 3087
1 3088
1 3089
1 3090
1 3091
1 3092
1 3093
1 3094
1 3095
1 3096
1 3097
1 3098
1 3099
1 3100
1 3101
1 3102
1 3103
1 3104
1 3105
1 3106
1 3107
1 3108
1 3109
1 3110
1 3111
1 3112
1 3113
1 3114
1 3115
1 3116
1 3117
1 3118
1 3119
1 3120
1 3121
1 3122
1 3123
1 3124
1 3125
1 3126
1 3127
1 3128
1 3129
1 3130
1 3131
1 3132
1 3133
1 3134
1 3135
1 3136
1 3137
1 3138
1 3139
1 3140
1 3141
1 3142
1 3143
1 3144
1 3145
1 3146
1 3147
1 3148
1 3149
1 3150
1 3151
1 3152
1 3153
1 3154
1 3155
1 3156
1 3157
1 3158
1 3159
1 3160
1 3161
1 3162
1 3163
1 3164
1 3165
1 3166
1 3167
1 3168
1 3169
1 3170
1 3171
1 3172
1 3173
1 3174
1 3175
1 3176
1 3177
1 3178
1 3179
1 3180
1 3181
1 3182
1 3183
1 3184
1 3185
1 3186
1 3187
1 3188
1 3189
1 3190
1 3191
1 3192
1 3193
1 3194
1 3195
1 3196
1 3197
1 3198
1 3199
1 3200
1 3201
1 3202
1 3203
1 3204
1 3205
1 3206
1 3207
1 3208
1 3209
1 3210
1 3211
1 3212
1 3213
1 3214
1 3215
1 3216
1 3217
1 3218
1 3219
1 3220
1 3221
1 3222
1 3223
1 3224
1 3225
1 3226
1 3227
1 3228
1 3229
1 3230
1 3231
1 3232
1 3233
1 3234
1 3235
1 3236
1 3237
1 3238
1 3239
1 3240
1 3241
1 3242
1 3243
1 3244
1 3245
1 3246
1 3247
1 3248
1 3249
1 3250
1 3251
1 3252
1 3253
1 3254
1 3255
1 3256
1 3257
1 3258
1 3259
1 3260
1 3261
1 3262
1 3263
1 3264
1 3265
1 3266
1 3267
1 3268
1 3269
1 3270
1 3271
1 3272
1 3273
1 3274
1 3275
1 3276
1 3277
1 3278
1 3279
1 3280
1 3281
1 3282
1 3283
1 3284
1 3285
1 3286
1 3287
1 3288
1 3289
1 3290
1 3291
1 3292
1 3293
1 3294
1 3295
1 3296
1 3297
1 3298
1 3299
1 3300
1 3301
1 3302
1 3303
1 3304
1 3305
1 3306
1 3307
1 3308
1 3309
1 3310
1 3311
1 3312
1 3313
1 3314
1 3315
1 3316
1 3317
1 3318
1 3319
1 3320
1 3321
1 3322
1 3323
1 3324
1 3325
1 3326
1 3327
1 3328
1 3329
1 3330
1 3331
1 3332
1 3333
1 3334
1 3335
1 3336
1 3337
1 3338
1 3339
1 3340
1 3341
1 3342
1 3343
1 3344
1 3345
1 3346
1 3347
1 3348
1 3349
1 3350
1 3351
1 3352
1 3353
1 3354
1 3355
1 3356
1 3357
1 3358
1 3359
1 3360
1 3361
1 3362
1 3363
1 3364
1 3365
1 3366
1 3367
1 3368
1 3369
1 3370
1 3371
1 3372
1 3373
1 3374
1 3375
1 3376
1 3377
1 3378
1 3379
1 3380
1 3381
1 3382
1 3383
1 3384
1 3385
1 3386
1 3387
1 3388
1 3389
1 3390
1 3391
1 3392
1 3393
1 3394
1 3395
1 3396
1 3397
1 3398
1 3399
1 3400
1 3401
1 3402
1 3403
1 3404
1 3405
1 3406
1 3407
1 3408
1 3409
1 3410
1 3411
1 3412
1 3413
1 3414
1 3415
1 3416
1 3417
1 3418
1 3419
1 3420
1 3421
1 3422
1 3423
1 3424
1 3425
1 3426
1 3427
1 3428
1 3429
1 3430
1 3431
1 3432
1 3433
1 3434
1 3435
1 3436
1 3437
1 3438
1 3439
1 3440
1 3441
1 3442
1 3443
1 3444
1 3445
1 3446
1 3447
1 3448
1 3449
1 3450
1 3451
1 3452
1 3453
1 3454
1 3455
1 3456
1 3457
1 3458
1 3459
1 3460
1 3461
1 3462
1 3463
1 3464
1 3465
1 3466
1 3467
1 3468
1 3469
1 3470
1 3471
1 3472
1 3473
1 3474
1 3475
1 3476
1 3477
1 3478
1 3479
1 3480
1 3481
1 3482
1 3483
1 3484
1 3485
1 3486
1 3487
1 3488
1 3489
1 3490
1 3491
1 3492
1 3493
1 3494
1 3495
1 3496
1 3497
1 3498
1 3499
1 3500
1 3501
1 3502
1 3503
1 3504
1 3505
1 3506
1 3507
1 3508
1 3509
1 3510
1 3511
1 3512
1 3513
1 3514
1 3515
1 3516
1 3517
1 3518
1 3519
1 3520
1 3521
1 3522
1 3523
1 3524
1 3525
1 3526
1 3527
1 3528
1 3529
1 3530
1 3531
1 3532
1 3533
1 3534
1 3535
1 3536
1 3537
1 3538
1 3539
1 3540
1 3541
1 3542
1 3543
1 3544
1 3545
1 3546
1 3547
1 3548
1 3549
1 3550
1 3551
1 3552
1 3553
1 3554
1 3555
1 3556
1 3557
1 3558
1 3559
1 3560
1 3561
1 3562
1 3563
1 3564
1 3565
1 3566
1 3567
1 3568
1 3569
1 3570
1 3571
1 3572
1 3573
1 3574
1 3575
1 3576
1 3577
1 3578
1 3579
1 3580
1 3581
1 3582
1 3583
1 3584
1 3585
1 3586
1 3587
1 3588
1 3589
1 3590
1 3591
1 3592
1 3593
1 3594
1 3595
1 3596
1 3597
1 3598
1 3599
1 3600
1 3601
1 3602
1 3603
1 3604
1 3605
1 3606
1 3607
1 3608
1 3609
1 3610
1 3611
1 3612
1 3613
1 3614
1 3615
1 3616
1 3617
1 3618
1 3619
1 3620
1 3621
1 3622
1 3623
1 3624
1 3625
1 3626
1 3627
1 3628
1 3629
1 3630
1 3631
1 3632
1 3633
1 3634
1 3635
1 3636
1 3637
1 3638
1 3639
1 3640
1 3641
1 3642
1 3643
1 3644
1 3645
1 3646
1 3647
1 3648
1 3649
1 3650
1 3651
1 3652
1 3653
1 3654
1 3655
1 3656
1 3657
1 3658
1 3659
1 3660
1 3661
1 3662
1 3663
1 3664
1 3665
1 3666
1 3667
1 3668
1 3669
1 3670
1 3671
1 3672
1 3673
1 3674
1 3675
1 3676
1 3677
1 3678
1 3679
1 3680
1 3681
1 3682
1 3683
1 3684
1 3685
1 3686
1 3687
1 3688
1 3689
1 3690
1 3691
1 3692
1 3693
1 3694
1 3695
1 3696
1 3697
1 3698
1 3699
1 3700
1 3701
1 3702
1 3703
1 3704
1 3705
1 3706
1 3707
1 3708
1 3709
1 3710
1 3711
1 3712
1 3713
1 3714
1 3715
1 3716
1 3717
1 3718
1 3719
1 3720
1 3721
1 3722
1 3723
1 3724
1 3725
1 3726
1 3727
1 3728
1 3729
1 3730
1 3731
1 3732
1 3733
1 3734
1 3735
1 3736
1 3737
1 3738
1 3739
1 3740
1 3741
1 3742
1 3743
1 3744
1 3745
1 3746
1 3747
1 3748
1 3749
1 3750
1 3751
1 3752
1 3753
1 3754
1 3755
1 3756
1 3757
1 3758
1 3759
1 3760
1 3761
1 3762
1 3763
1 3764
1 3765
1 3766
1 3767
1 3768
1 3769
1 3770
1 3771
1 3772
1 3773
1 3774
1 3775
1 3776
1 3777
1 3778
1 3779
1 3780
1 3781
1 3782
1 3783
1 3784
1 3785
1 3786
1 3787
1 3788
1 3789
1 3790
1 3791
1 3792
1 3793
1 3794
1 3795
1 3796
1 3797
1 3798
1 3799
1 3800
1 3801
1 3802
1 3803
1 3804
1 3805
1 3806
1 3807
1 3808
1 3809
1 3810
1 3811
1 3812
1 3813
1 3814
1 3815
1 3816
1 3817
1 3818
1 3819
1 3820
1 3821
1 3822
1 3823
1 3824
1 3825
1 3826
1 3827
1 3828
1 3829
1 3830
1 3831
1 3832
1 3833
1 3834
1 3835
1 3836
1 3837
1 3838
1 3839
1 3840
1 3841
1 3842
1 3843
1 3844
1 3845
1 3846
1 3847
1 3848
1 3849
1 3850
1 3851
1 3852
1 3853
1 3854
1 3855
1 3856
1 3857
1 3858
1 3859
1 3860
1 3861
1 3862
1 3863
1 3864
1 3865
1 3866
1 3867
1 3868
1 3869
1 3870
1 3871
1 3872
1 3873
1 3874
1 3875
1 3876
1 3877
1 3878
1 3879
1 3880
1 3881
1 3882
1 3883
1 3884
1 3885
1 3886
1 3887
1 3888
1 3889
1 3890
1 3891
1 3892
1 3893
1 3894
1 3895
1 3896
1 3897
1 3898
1 3899
1 3900
1 3901
1 3902
1 3903
1 3904
1 3905
1 3906
1 3907
1 3908
1 3909
1 3910
1 3911
1 3912
1 3913
1 3914
1 3915
1 3916
1 3917
1 3918
1 3919
1 3920
1 3921
1 3922
1 3923
1 3924
1 3925
1 3926
1 3927
1 3928
1 3929
1 3930
1 3931
1 3932
1 3933
1 3934
1 3935
1 3936
1 3937
1 3938
1 3939
1 3940
1 3941
1 3942
1 3943
1 3944
1 3945
1 3946
1 3947
1 3948
1 3949
1 3950
1 3951
1 3952
1 3953
1 3954
1 3955
1 3956
1 3957
1 3958
1 3959
1 3960
1 3961
1 3962
1 3963
1 3964
1 3965
1 3966
1 3967
1 3968
1 3969
1 3970
1 3971
1 3972
1 3973
1 3974
1 3975
1 3976
1 3977
1 3978
1 3979
1 3980
1 3981
1 3982
1 3983
1 3984
1 3985
1 3986
1 3987
1 3988
1 3989
1 3990
1 3991
1 3992
1 3993
1 3994
1 3995
1 3996
1 3997
1 3998
1 3999
1 4000
1 4001
1 4002
1 4003
1 4004
1 4005
1 4006
1 4007
1 4008
1 4009
1 4010
1 4011
1 4012
1 4013
1 4014
1 4015
1 4016
1 4017
1 4018
1 4019
1 4020
1 4021
1 4022
1 4023
1 4024
1 4025
1 4026
1 4027
1 4028
1 4029
1 4030
1 4031
1 4032
1 4033
1 4034
1 4035
1 4036
1 4037
1 4038
1 4039
1 4040
1 4041
1 4042
1 4043
1 4044
1 4045
1 4046
1 4047
1 4048
1 4049
1 4050
1 4051
1 4052
1 4053
1 4054
1 4055
1 4056
1 4057
1 4058
1 4059
1 4060
1 4061
1 4062
1 4063
1 4064
1 4065
1 4066
1 4067
1 4068
1 4069
1 4070
1 4071
1 4072
1 4073
1 4074
1 4075
1 4076
1 4077
1 4078
1 4079
1 4080
1 4081
1 4082
1 4083
1 4084
1 4085
1 4086
1 4087
1 4088
1 4089
1 4090
1 4091
1 4092
1 4093
1 4094
1 4095
1 4096
1 4097
1 4098
1 4099
1 4100
1 4101
1 4102
1 4103
1 4104
1 4105
1 4106
1 4107
1 4108
1 4109
1 4110
1 4111
1 4112
1 4113
1 4114
1 4115
1 4116
1 4117
1 4118
1 4119
1 4120
1 4121
1 4122
1 4123
1 4124
1 4125
1 4126
1 4127
1 4128
1 4129
1 4130
1 4131
1 4132
1 4133
1 4134
1 4135
1 4136
1 4137
1 4138
1 4139
1 4140
1 4141
1 4142
1 4143
1 4144
1 4145
1 4146
1 4147
1 4148
1 4149
1 4150
1 4151
1 4152
1 4153
1 4154
1 4155
1 4156
1 4157
1 4158
1 4159
1 4160
1 4161
1 4162
1 4163
1 4164
1 4165
1 4166
1 4167
1 4168
1 4169
1 4170
1 4171
1 4172
1 4173
1 4174
1 4175
1 4176
1 4177
1 4178
1 4179
1 4180
1 4181
1 4182
1 4183
1 4184
1 4185
1 4186
1 4187
1 4188
1 4189
1 4190
1 4191
1 4192
1 4193
1 4194
1 4195
1 4196
1 4197
1 4198
1 4199
1 4200
1 4201
1 4202
1 4203
1 4204
1 4205
1 4206
1 4207
1 4208
1 4209
1 4210
1 4211
1 4212
1 4213
1 4214
1 4215
1 4216
1 4217
1 4218
1 4219
1 4220
1 4221
1 4222
1 4223
1 4224
1 4225
1 4226
1 4227
1 4228
1 4229
1 4230
1 4231
1 4232
1 4233
1 4234
1 4235
1 4236
1 4237
1 4238
1 4239
1 4240
1 4241
1 4242
1 4243
1 4244
1 4245
1 4246
1 4247
1 4248
1 4249
1 4250
1 4251
1 4252
1 4253
1 4254
1 4255
1 4256
1 4257
1 4258
1 4259
1 4260
1 4261
1 4262
1 4263
1 4264
1 4265
1 4266
1 4267
1 4268
1 4269
1 4270
1 4271
1 4272
1 4273
1 4274
1 4275
1 4276
1 4277
1 4278
1 4279
1 4280
1 4281
1 4282
1 4283
1 4284
1 4285
1 4286
1 4287
1 4288
1 4289
1 4290
1 4291
1 4292
1 4293
1 4294
1 4295
1 4296
1 4297
1 4298
1 4299
1 4300
1 4301
1 4302
1 4303
1 4304
1 4305
1 4306
1 4307
1 4308
1 4309
1 4310
1 4311
1 4312
1 4313
1 4314
1 4315
1 4316
1 4317
1 4318
1 4319
1 4320
1 4321
1 4322
1 4323
1 4324
1 4325
1 4326
1 4327
1 4328
1 4329
1 4330
1 4331
1 4332
1 4333
1 4334
1 4335
1 4336
1 4337
1 4338
1 4339
1 4340
1 4341
1 4342
1 4343
1 4344
1 4345
1 4346
1 4347
1 4348
1 4349
1 4350
1 4351
1 4352
1 4353
1 4354
1 4355
1 4356
1 4357
1 4358
1 4359
1 4360
1 4361
1 4362
1 4363
1 4364
1 4365
1 4366
1 4367
1 4368
1 4369
1 4370
1 4371
1 4372
1 4373
1 4374
1 4375
1 4376
1 4377
1 4378
1 4379
1 4380
1 4381
1 4382
1 4383
1 4384
1 4385
1 4386
1 4387
1 4388
1 4389
1 4390
1 4391
1 4392
1 4393
1 4394
1 4395
1 4396
1 4397
1 4398
1 4399
1 4400
1 4401
1 4402
1 4403
1 4404
1 4405
1 4406
1 4407
1 4408
1 4409
1 4410
1 4411
1 4412
1 4413
1 4414
1 4415
1 4416
1 4417
1 4418
1 4419
1 4420
1 4421
1 4422
1 4423
1 4424
1 4425
1 4426
1 4427
1 4428
1 4429
1 4430
1 4431
1 4432
1 4433
1 4434
1 4435
1 4436
1 4437
1 4438
1 4439
1 4440
1 4441
1 4442
1 4443
1 4444
1 4445
1 4446
1 4447
1 4448
1 4449
1 4450
1 4451
1 4452
1 4453
1 4454
1 4455
1 4456
1 4457
1 4458
1 4459
1 4460
1 4461
1 4462
1 4463
1 4464
1 4465
1 4466
1 4467
1 4468
1 4469
1 4470
1 4471
1 4472
1 4473
1 4474
1 4475
1 4476
1 4477
1 4478
1 4479
1 4480
1 4481
1 4482
1 4483
1 4484
1 4485
1 4486
1 4487
1 4488
1 4489
1 4490
1 4491
1 4492
1 4493
1 4494
1 4495
1 4496
1 4497
1 4498
1 4499
1 4500
1 4501
1 4502
1 4503
1 4504
1 4505
1 4506
1 4507
1 4508
1 4509
1 4510
1 4511
1 4512
1 4513
1 4514
1 4515
1 4516
1 4517
1 4518
1 4519
1 4520
1 4521
1 4522
1 4523
1 4524
1 4525
1 4526
1 4527
1 4528
1 4529
1 4530
1 4531
1 4532
1 4533
1 4534
1 4535
1 4536
1 4537
1 4538
1 4539
1 4540
1 4541
1 4542
1 4543
1 4544
1 4545
1 4546
1 4547
1 4548
1 4549
1 4550
1 4551
1 4552
1 4553
1 4554
1 4555
1 4556
1 4557
1 4558
1 4559
1 4560
1 4561
1 4562
1 4563
1 4564
1 4565
1 4566
1 4567
1 4568
1 4569
1 4570
1 4571
1 4572
1 4573
1 4574
1 4575
1 4576
1 4577
1 4578
1 4579
1 4580
1 4581
1 4582
1 4583
1 4584
1 4585
1 4586
1 4587
1 4588
1 4589
1 4590
1 4591
1 4592
1 4593
1 4594
1 4595
1 4596
1 4597
1 4598
1 4599
1 4600
1 4601
1 4602
1 4603
1 4604
1 4605
1 4606
1 4607
1 4608
1 4609
1 4610
1 4611
1 4612
1 4613
1 4614
1 4615
1 4616
1 4617
1 4618
1 4619
1 4620
1 4621
1 4622
1 4623
1 4624
1 4625
1 4626
1 4627
1 4628
1 4629
1 4630
1 4631
1 4632
1 4633
1 4634
1 4635
1 4636
1 4637
1 4638
1 4639
1 4640
1 4641
1 4642
1 4643
1 4644
1 4645
1 4646
1 4647
1 4648
1 4649
1 4650
1 4651
1 4652
1 4653
1 4654
1 4655
1 4656
1 4657
1 4658
1 4659
1 4660
1 4661
1 4662
1 4663
1 4664
1 4665
1 4666
1 4667
1 4668
1 4669
1 4670
1 4671
1 4672
1 4673
1 4674
1 4675
1 4676
1 4677
1 4678
1 4679
1 4680
1 4681
1 4682
1 4683
1 4684
1 4685
1 4686
1 4687
1 4688
1 4689
1 4690
1 4691
1 4692
1 4693
1 4694
1 4695
1 4696
1 4697
1 4698
1 4699
1 4700
1 4701
1 4702
1 4703
1 4704
1 4705
1 4706
1 4707
1 4708
1 4709
1 4710
1 4711
1 4712
1 4713
1 4714
1 4715
1 4716
1 4717
1 4718
1 4719
1 4720
1 4721
1 4722
1 4723
1 4724
1 4725
1 4726
1 4727
1 4728
1 4729
1 4730
1 4731
1 4732
1 4733
1 4734
1 4735
1 4736
1 4737
1 4738
1 4739
1 4740
1 4741
1 4742
1 4743
1 4744
1 4745
1 4746
1 4747
1 4748
1 4749
1 4750
1 4751
1 4752
1 4753
1 4754
1 4755
1 4756
1 4757
1 4758
1 4759
1 4760
1 4761
1 4762
1 4763
1 4764
1 4765
1 4766
1 4767
1 4768
1 4769
1 4770
1 4771
1 4772
1 4773
1 4774
1 4775
1 4776
1 4777
1 4778
1 4779
1 4780
1 4781
1 4782
1 4783
1 4784
1 4785
1 4786
1 4787
1 4788
1 4789
1 4790
1 4791
1 4792
1 4793
1 4794
1 4795
1 4796
1 4797
1 4798
1 4799
1 4800
1 4801
1 4802
1 4803
1 4804
1 4805
1 4806
1 4807
1 4808
1 4809
1 4810
1 4811
1 4812
1 4813
1 4814
1 4815
1 4816
1 4817
1 4818
1 4819
1 4820
1 4821
1 4822
1 4823
1 4824
1 4825
1 4826
1 4827
1 4828
1 4829
1 4830
1 4831
1 4832
1 4833
1 4834
1 4835
1 4836
1 4837
1 4838
1 4839
1 4840
1 4841
1 4842
1 4843
1 4844
1 4845
1 4846
1 4847
1 4848
1 4849
1 4850
1 4851
1 4852
1 4853
1 4854
1 4855
1 4856
1 4857
1 4858
1 4859
1 4860
1 4861
1 4862
1 4863
1 4864
1 4865
1 4866
1 4867
1 4868
1 4869
1 4870
1 4871
1 4872
1 4873
1 4874
1 4875
1 4876
1 4877
1 4878
1 4879
1 4880
1 4881
1 4882
1 4883
1 4884
1 4885
1 4886
1 4887
1 4888
1 4889
1 4890
1 4891
1 4892
1 4893
1 4894
1 4895
1 4896
1 4897
1 4898
1 4899
1 4900
1 4901
1 4902
1 4903
1 4904
1 4905
1 4906
1 4907
1 4908
1 4909
1 4910
1 4911
1 4912
1 4913
1 4914
1 4915
1 4916
1 4917
1 4918
1 4919
1 4920
1 4921
1 4922
1 4923
1 4924
1 4925
1 4926
1 4927
1 4928
1 4929
1 4930
1 4931
1 4932
1 4933
1 4934
1 4935
1 4936
1 4937
1 4938
1 4939
1 4940
1 4941
1 4942
1 4943
1 4944
1 4945
1 4946
1 4947
1 4948
1 4949
1 4950
1 4951
1 4952
1 4953
1 4954
1 4955
1 4956
1 4957
1 4958
1 4959
1 4960
1 4961
1 4962
1 4963
1 4964
1 4965
1 4966
1 4967
1 4968
1 4969
1 4970
1 4971
1 4972
1 4973
1 4974
1 4975
1 4976
1 4977
1 4978
1 4979
1 4980
1 4981
1 4982
1 4983
1 4984
1 4985
1 4986
1 4987
1 4988
1 4989
1 4990
1 4991
1 4992
1 4993
1 4994
1 4995
1 4996
1 4997
1 4998
1 4999
CELL_TYPES 5000
1 
1 
1 
1 
1 
1 
1 
1 
1 
1 
1 
1 
1 
1 
1 
1 
1 
1 
1 
1 
1 
1 
1 
1 
1 
1 
1 
1 
1 
1 
1 
1 
1 
1 
1 
1 
1 
1 
1 
1 
1 
1 
1 
1 
1 
1 
1 
1 
1 
1 
1 
1 
1 
1 
1 
1 
1 
1 
1 
1 
1 
1 
1 
1 
1 
1 
1 
1 
1 
1 
1 
1 
1 
1 
1 
1 
1 
1 
1 
1 
1 
1 
1 
1 
1 
1 
1 
1 
1 
1 
1 
1 
1 
1 
1 
1 
1 
1 
1 
1 
1 
1 
1 
1 
1 
1 
1 
1 
1 
1 
1 
1 
1 
1 
1 
1 
1 
1 
1 
1 
1 
1 
1 
1 
1 
1 
1 
1 
1 
1 
1 
1 
1 
1 
1 
1 
1 
1 
1 
1 
1 
1 
1 
1 
1 
1 
1 
1 
1 
1 
1 
1 
1 
1 
1 
1 
1 
1 
1 
1 
1 
1 
1 
1 
1 
1 
1 
1 
1 
1 
1 
1 
1 
1 
1 
1 
1 
1 
1 
1 
1 
1 
1 
1 
1 
1 
1 
1 
1 
1 
1 
1 
1 
1 
1 
1 
1 
1 
1 
1 
1 
1 
1 
1 
1 
1 
1 
1 
1 
1 
1 
1 
1 
1 
1 
1 
1 
1 
1 
1 
1 
1 
1 
1 
1 
1 
1 
1 
1 
1 
1 
1 
1 
1 
1 
1 
1 
1 
1 
1 
1 
1 
1 
1 
1 
1 
1 
1 
1 
1 
1 
1 
1 
1 
1 
1 
1 
1 
1 
1 
1 
1 
1 
1 
1 
1 
1 
1 
1 
1 
1 
1 
1 
1 
1 
1 
1 
1 
1 
1 
1 
1 
1 
1 
1 
1 
1 
1 
1 
1 
1 
1 
1 
1 
1 
1 
1 
1 
1 
1 
1 
1 
1 
1 
1 
1 
1 
1 
1 
1 
1 
1 
1 
1 
1 
1 
1 
1 
1 
1 
1 
1 
1 
1 
1 
1 
1 
1 
1 
1 
1 
1 
1 
1 
1 
1 
1 
1 
1 
1 
1 
1 
1 
1 
1 
1 
1 
1 
1 
1 
1 
1 
1 
1 
1 
1 
1 
1 
1 
1 
1 
1 
1 
1 
1 
1 
1 
1 
1 
1 
1 
1 
1 
1 
1 
1 
1 
1 
1 
1 
1 
1 
1 
1 
1 
1 
1 
1 
1 
1 
1 
1 
1 
1 
1 
1 
1 
1 
1 
1 
1 
1 
1 
1 
1 
1 
1 
1 
1 
1 
1 
1 
1 
1 
1 
1 
1 
1 
1 
1 
1 
1 
1 
1 
1 
1 
1 
1 
1 
1 
1 
1 
1 
1 
1 
1 
1 
1 
1 
1 
1 
1 
1 
1 
1 
1 
1 
1 
1 
1 
1 
1 
1 
1 
1 
1 
1 
1 
1 
1 
1 
1 
1 
1 
1 
1 
1 
1 
1 
1 
1 
1 
1 
1 
1 
1 
1 
1 
1 
1 
1 
1 
1 
1 
1 
1 
1 
1 
1 
1 
1 
1 
1 
1 
1 
1 
1 
1 
1 
1 
1 
1 
1 
1 
1 
1 
1 
1 
1 
1 
1 
1 
1 
1 
1 
1 
1 
1 
1 
1 
1 
1 
1 
1 
1 
1 
1 
1 
1 
1 
1 
1 
1 
1 
1 
1 
1 
1 
1 
1 
1 
1 
1 
1 
1 
1 
1 
1 
1 
1 
1 
1 
1 
1 
1 
1 
1 
1 
1 
1 
1 
1 
1 
1 
1 
1 
1 
1 
1 
1 
1 
1 
1 
1 
1 
1 
1 
1 
1 
1 
1 
1 
1 
1 
1 
1 
1 
1 
1 
1 
1 
1 
1 
1 
1 
1 
1 
1 
1 
1 
1 
1 
1 
1 
1 
1 
1 
1 
1 
1 
1 
1 
1 
1 
1 
1 
1 
1 
1 
1 
1 
1 
1 
1 
1 
1 
1 
1 
1 
1 
1 
1 
1 
1 
1 
1 
1 
1 
1 
1 
1 
1 
1 
1 
1 
1 
1 
1 
1 
1 
1 
1 
1 
1 
1 
1 
1 
1 
1 
1 
1 
1 
1 
1 
1 
1 
1 
1 
1 
1 
1 
1 
1 
1 
1 
1 
1 
1 
1 
1 
1 
1 
1 
1 
1 
1 
1 
1 
1 
1 
1 
1 
1 
1 
1 
1 
1 
1 
1 
1 
1 
1 
1 
1 
1 
1 
1 
1 
1 
1 
1 
1 
1 
1 
1 
1 
1 
1 
1 
1 
1 
1 
1 
1 
1 
1 
1 
1 
1 
1 
1 
1 
1 
1 
1 
1 
1 
1 
1 
1 
1 
1 
1 
1 
1 
1 
1 
1 
1 
1 
1 
1 
1 
1 
1 
1 
1 
1 
1 
1 
1 
1 
1 
1 
1 
1 
1 
1 
1 
1 
1 
1 
1 
1 
1 
1 
1 
1 
1 
1 
1 
1 
1 
1 
1 
1 
1 
1 
1 
1 
1 
1 
1 
1 
1 
1 
1 
1 
1 
1 
1 
1 
1 
1 
1 
1 
1 
1 
1 
1 
1 
1 
1 
1 
1 
1 
1 
1 
1 
1 
1 
1 
1 
1 
1 
1 
1 
1 
1 
1 
1 
1 
1 
1 
1 
1 
1 
1 
1 
1 
1 
1 
1 
1 
1 
1 
1 
1 
1 
1 
1 
1 
1 
1 
1 
1 
1 
1 
1 
1 
1 
1 
1 
1 
1 
1 
1 
1 
1 
1 
1 
1 
1 
1 
1 
1 
1 
1 
1 
1 
1 
1 
1 
1 
1 
1 
1 
1 
1 
1 
1 
1 
1 
1 
1 
1 
1 
1 
1 
1 
1 
1 
1 
1 
1 
1 
1 
1 
1 
1 
1 
1 
1 
1 
1 
1 
1 
1 
1 
1 
1 
1 
1 
1 
1 
1 
1 
1 
1 
1 
1 
1 
1 
1 
1 
1 
1 
1 
1 
1 
1 
1 
1 
1 
1 
1 
1 
1 
1 
1 
1 
1 
1 
1 
1 
1 
1 
1 
1 
1 
1 
1 
1 
1 
1 
1 
1 
1 
1 
1 
1 
1 
1 
1 
1 
1 
1 
1 
1 
1 
1 
1 
1 
1 
1 
1 
1 
1 
1 
1 
1 
1 
1 
1 
1 
1 
1 
1 
1 
1 
1 
1 
1 
1 
1 
1 
1 
1 
1 
1 
1 
1 
1 
1 
1 
1 
1 
1 
1 
1 
1 
1 
1 
1 
1 
1 
1 
1 
1 
1 
1 
1 
1 
1 
1 
1 
1 
1 
1 
1 
1 
1 
1 
1 
1 
1 
1 
1 
1 
1 
1 
1 
1 
1 
1 
1 
1 
1 
1 
1 
1 
1 
1 
1 
1 
1 
1 
1 
1 
1 
1 
1 
1 
1 
1 
1 
1 
1 
1 
1 
1 
1 
1 
1 
1 
1 
1 
1 
1 
1 
1 
1 
1 
1 
1 
1 
1 
1 
1 
1 
1 
1 
1 
1 
1 
1 
1 
1 
1 
1 
1 
1 
1 
1 
1 
1 
1 
1 
1 
1 
1 
1 
1 
1 
1 
1 
1 
1 
1 
1 
1 
1 
1 
1 
1 
1 
1 
1 
1 
1 
1 
1 
1 
1 
1 
1 
1 
1 
1 
1 
1 
1 
1 
1 
1 
1 
1 
1 
1 
1 
1 
1 
1 
1 
1 
1 
1 
1 
1 
1 
1 
1 
1 
1 
1 
1 
1 
1 
1 
1 
1 
1 
1 
1 
1 
1 
1 
1 
1 
1 
1 
1 
1 
1 
1 
1 
1 
1 
1 
1 
1 
1 
1 
1 
1 
1 
1 
1 
1 
1 
1 
1 
1 
1 
1 
1 
1 
1 
1 
1 
1 
1 
1 
1 
1 
1 
1 
1 
1 
1 
1 
1 
1 
1 
1 
1 
1 
1 
1 
1 
1 
1 
1 
1 
1 
1 
1 
1 
1 
1 
1 
1 
1 
1 
1 
1 
1 
1 
1 
1 
1 
1 
1 
1 
1 
1 
1 
1 
1 
1 
1 
1 
1 
1 
1 
1 
1 
1 
1 
1 
1 
1 
1 
1 
1 
1 
1 
1 
1 
1 
1 
1 
1 
1 
1 
1 
1 
1 
1 
1 
1 
1 
1 
1 
1 
1 
1 
1 
1 
1 
1 
1 
1 
1 
1 
1 
1 
1 
1 
1 
1 
1 
1 
1 
1 
1 
1 
1 
1 
1 
1 
1 
1 
1 
1 
1 
1 
1 
1 
1 
1 
1 
1 
1 
1 
1 
1 
1 
1 
1 
1 
1 
1 
1 
1 
1 
1 
1 
1 
1 
1 
1 
1 
1 
1 
1 
1 
1 
1 
1 
1 
1 
1 
1 
1 
1 
1 
1 
1 
1 
1 
1 
1 
1 
1 
1 
1 
1 
1 
1 
1 
1 
1 
1 
1 
1 
1 
1 
1 
1 
1 
1 
1 
1 
1 
1 
1 
1 
1 
1 
1 
1 
1 
1 
1 
1 
1 
1 
1 
1 
1 
1 
1 
1 
1 
1 
1 
1 
1 
1 
1 
1 
1 
1 
1 
1 
1 
1 
1 
1 
1 
1 
1 
1 
1 
1 
1 
1 
1 
1 
1 
1 
1 
1 
1 
1 
1 
1 
1 
1 
1 
1 
1 
1 
1 
1 
1 
1 
1 
1 
1 
1 
1 
1 
1 
1 
1 
1 
1 
1 
1 
1 
1 
1 
1 
1 
1 
1 
1 
1 
1 
1 
1 
1 
1 
1 
1 
1 
1 
1 
1 
1 
1 
1 
1 
1 
1 
1 
1 
1 
1 
1 
1 
1 
1 
1 
1 
1 
1 
1 
1 
1 
1 
1 
1 
1 
1 
1 
1 
1 
1 
1 
1 
1 
1 
1 
1 
1 
1 
1 
1 
1 
1 
1 
1 
1 
1 
1 
1 
1 
1 
1 
1 
1 
1 
1 
1 
1 
1 
1 
1 
1 
1 
1 
1 
1 
1 
1 
1 
1 
1 
1 
1 
1 
1 
1 
1 
1 
1 
1 
1 
1 
1 
1 
1 
1 
1 
1 
1 
1 
1 
1 
1 
1 
1 
1 
1 
1 
1 
1 
1 
1 
1 
1 
1 
1 
1 
1 
1 
1 
1 
1 
1 
1 
1 
1 
1 
1 
1 
1 
1 
1 
1 
1 
1 
1 
1 
1 
1 
1 
1 
1 
1 
1 
1 
1 
1 
1 
1 
1 
1 
1 
1 
1 
1 
1 
1 
1 
1 
1 
1 
1 
1 
1 
1 
1 
1 
1 
1 
1 
1 
1 
1 
1 
1 
1 
1 
1 
1 
1 
1 
1 
1 
1 
1 
1 
1 
1 
1 
1 
1 
1 
1 
1 
1 
1 
1 
1 
1 
1 
1 
1 
1 
1 
1 
1 
1 
1 
1 
1 
1 
1 
1 
1 
1 
1 
1 
1 
1 
1 
1 
1 
1 
1 
1 
1 
1 
1 
1 
1 
1 
1 
1 
1 
1 
1 
1 
1 
1 
1 
1 
1 
1 
1 
1 
1 
1 
1 
1 
1 
1 
1 
1 
1 
1 
1 
1 
1 
1 
1 
1 
1 
1 
1 
1 
1 
1 
1 
1 
1 
1 
1 
1 
1 
1 
1 
1 
1 
1 
1 
1 
1 
1 
1 
1 
1 
1 
1 
1 
1 
1 
1 
1 
1 
1 
1 
1 
1 
1 
1 
1 
1 
1 
1 
1 
1 
1 
1 
1 
1 
1 
1 
1 
1 
1 
1 
1 
1 
1 
1 
1 
1 
1 
1 
1 
1 
1 
1 
1 
1 
1 
1 
1 
1 
1 
1 
1 
1 
1 
1 
1 
1 
1 
1 
1 
1 
1 
1 
1 
1 
1 
1 
1 
1 
1 
1 
1 
1 
1 
1 
1 
1 
1 
1 
1 
1 
1 
1 
1 
1 
1 
1 
1 
1 
1 
1 
1 
1 
1 
1 
1 
1 
1 
1 
1 
1 
1 
1 
1 
1 
1 
1 
1 
1 
1 
1 
1 
1 
1 
1 
1 
1 
1 
1 
1 
1 
1 
1 
1 
1 
1 
1 
1 
1 
1 
1 
1 
1 
1 
1 
1 
1 
1 
1 
1 
1 
1 
1 
1 
1 
1 
1 
1 
1 
1 
1 
1 
1 
1 
1 
1 
1 
1 
1 
1 
1 
1 
1 
1 
1 
1 
1 
1 
1 
1 
1 
1 
1 
1 
1 
1 
1 
1 
1 
1 
1 
1 
1 
1 
1 
1 
1 
1 
1 
1 
1 
1 
1 
1 
1 
1 
1 
1 
1 
1 
1 
1 
1 
1 
1 
1 
1 
1 
1 
1 
1 
1 
1 
1 
1 
1 
1 
1 
1 
1 
1 
1 
1 
1 
1 
1 
1 
1 
1 
1 
1 
1 
1 
1 
1 
1 
1 
1 
1 
1 
1 
1 
1 
1 
1 
1 
1 
1 
1 
1 
1 
1 
1 
1 
1 
1 
1 
1 
1 
1 
1 
1 
1 
1 
1 
1 
1 
1 
1 
1 
1 
1 
1 
1 
1 
1 
1 
1 
1 
1 
1 
1 
1 
1 
1 
1 
1 
1 
1 
1 
1 
1 
1 
1 
1 
1 
1 
1 
1 
1 
1 
1 
1 
1 
1 
1 
1 
1 
1 
1 
1 
1 
1 
1 
1 
1 
1 
1 
1 
1 
1 
1 
1 
1 
1 
1 
1 
1 
1 
1 
1 
1 
1 
1 
1 
1 
1 
1 
1 
1 
1 
1 
1 
1 
1 
1 
1 
1 
1 
1 
1 
1 
1 
1 
1 
1 
1 
1 
1 
1 
1 
1 
1 
1 
1 
1 
1 
1 
1 
1 
1 
1 
1 
1 
1 
1 
1 
1 
1 
1 
1 
1 
1 
1 
1 
1 
1 
1 
1 
1 
1 
1 
1 
1 
1 
1 
1 
1 
1 
1 
1 
1 
1 
1 
1 
1 
1 
1 
1 
1 
1 
1 
1 
1 
1 
1 
1 
1 
1 
1 
1 
1 
1 
1 
1 
1 
1 
1 
1 
1 
1 
1 
1 
1 
1 
1 
1 
1 
1 
1 
1 
1 
1 
1 
1 
1 
1 
1 
1 
1 
1 
1 
1 
1 
1 
1 
1 
1 
1 
1 
1 
1 
1 
1 
1 
1 
1 
1 
1 
1 
1 
1 
1 
1 
1 
1 
1 
1 
1 
1 
1 
1 
1 
1 
1 
1 
1 
1 
1 
1 
1 
1 
1 
1 
1 
1 
1 
1 
1 
1 
1 
1 
1 
1 
1 
1 
1 
1 
1 
1 
1 
1 
1 
1 
1 
1 
1 
1 
1 
1 
1 
1 
1 
1 
1 
1 
1 
1 
1 
1 
1 
1 
1 
1 
1 
1 
1 
1 
1 
1 
1 
1 
1 
1 
1 
1 
1 
1 
1 
1 
1 
1 
1 
1 
1 
1 
1 
1 
1 
1 
1 
1 
1 
1 
1 
1 
1 
1 
1 
1 
1 
1 
1 
1 
1 
1 
1 
1 
1 
1 
1 
1 
1 
1 
1 
1 
1 
1 
1 
1 
1 
1 
1 
1 
1 
1 
1 
1 
1 
1 
1 
1 
1 
1 
1 
1 
1 
1 
1 
1 
1 
1 
1 
1 
1 
1 
1 
1 
1 
1 
1 
1 
1 
1 
1 
1 
1 
1 
1 
1 
1 
1 
1 
1 
1 
1 
1 
1 
1 
1 
1 
1 
1 
1 
1 
1 
1 
1 
1 
1 
1 
1 
1 
1 
1 
1 
1 
1 
1 
1 
1 
1 
1 
1 
1 
1 
1 
1 
1 
1 
1 
1 
1 
1 
1 
1 
1 
1 
1 
1 
1 
1 
1 
1 
1 
1 
1 
1 
1 
1 
1 
1 
1 
1 
1 
1 
1 
1 
1 
1 
1 
1 
1 
1 
1 
1 
1 
1 
1 
1 
1 
1 
1 
1 
1 
1 
1 
1 
1 
1 
1 
1 
1 
1 
1 
1 
1 
1 
1 
1 
1 
1 
1 
1 
1 
1 
1 
1 
1 
1 
1 
1 
1 
1 
1 
1 
1 
1 
1 
1 
1 
1 
1 
1 
1 
1 
1 
1 
1 
1 
1 
1 
1 
1 
1 
1 
1 
1 
1 
1 
1 
1 
1 
1 
1 
1 
1 
1 
1 
1 
1 
1 
1 
1 
1 
1 
1 
1 
1 
1 
1 
1 
1 
1 
1 
1 
1 
1 
1 
1 
1 
1 
1 
1 
1 
1 
1 
1 
1 
1 
1 
1 
1 
1 
1 
1 
1 
1 
1 
1 
1 
1 
1 
1 
1 
1 
1 
1 
1 
1 
1 
1 
1 
1 
1 
1 
1 
1 
1 
1 
1 
1 
1 
1 
1 
1 
1 
1 
1 
1 
1 
1 
1 
1 
1 
1 
1 
1 
1 
1 
1 
1 
1 
1 
1 
1 
1 
1 
1 
1 
1 
1 
1 
1 
1 
1 
1 
1 
1 
1 
1 
1 
1 
1 
1 
1 
1 
1 
1 
1 
1 
1 
1 
1 
1 
1 
1 
1 
1 
1 
1 
1 
1 
1 
1 
1 
1 
1 
1 
1 
1 
1 
1 
1 
1 
1 
1 
1 
1 
1 
1 
1 
1 
1 
1 
1 
1 
1 
1 
1 
1 
1 
1 
1 
1 
1 
1 
1 
1 
1 
1 
1 
1 
1 
1 
1 
1 
1 
1 
1 
1 
1 
1 
1 
1 
1 
1 
1 
1 
1 
1 
1 
1 
1 
1 
1 
1 
1 
1 
1 
1 
1 
1 
1 
1 
1 
1 
1 
1 
1 
1 
1 
1 
1 
1 
1 
1 
1 
1 
1 
1 
1 
1 
1 
1 
1 
1 
1 
1 
1 
1 
1 
1 
1 
1 
1 
1 
1 
1 
1 
1 
1 
1 
1 
1 
1 
1 
1 
1 
1 
1 
1 
1 
1 
1 
1 
1 
1 
1 
1 
1 
1 
1 
1 
1 
1 
1 
1 
1 
1 
1 
1 
1 
1 
1 
1 
1 
1 
1 
1 
1 
1 
1 
1 
1 
1 
1 
1 
1 
1 
1 
1 
1 
1 
1 
1 
1 
1 
1 
1 
1 
1 
1 
1 
1 
1 
1 
1 
1 
1 
1 
1 
1 
1 
1 
1 
1 
1 
1 
1 
1 
1 
1 
1 
1 
1 
1 
1 
1 
1 
1 
1 
1 
1 
1 
1 
1 
1 
1 
1 
1 
1 
1 
1 
1 
1 
1 
1 
1 
1 
1 
1 
1 
1 
1 
1 
1 
1 
1 
1 
1 
1 
1 
1 
1 
1 
1 
1 
1 
1 
1 
1 
1 
1 
1 
1 
1 
1 
1 
1 
1 
1 
1 
1 
1 
1 
1 
1 
1 
1 
1 
1 
1 
1 
1 
1 
1 
1 
1 
1 
1 
1 
1 
1 
1 
1 
1 
1 
1 
1 
1 
1 
1 
1 
1 
1 
1 
1 
1 
1 
1 
1 
1 
1 
1 
1 
1 
1 
1 
1 
1 
1 
1 
1 
1 
1 
1 
1 
1 
1 
1 
1 
1 
1 
1 
1 
1 
1 
1 
1 
1 
1 
1 
1 
1 
1 
1 
1 
1 
1 
1 
1 
1 
1 
1 
1 
1 
1 
1 
1 
1 
1 
1 
1 
1 
1 
1 
1 
1 
1 
1 
1 
1 
1 
1 
1 
1 
1 
1 
1 
1 
1 
1 
1 
1 
1 
1 
1 
1 
1 
1 
1 
1 
1 
1 
1 
1 
1 
1 
1 
1 
1 
1 
1 
1 
1 
1 
1 
1 
1 
1 
1 
1 
1 
1 
1 
1 
1 
1 
1 
1 
1 
1 
1 
1 
1 
1 
1 
1 
1 
1 
1 
1 
1 
1 
1 
1 
1 
1 
1 
1 
1 
1 
1 
1 
1 
1 
1 
1 
1 
1 
1 
1 
1 
1 
1 
1 
1 
1 
1 
1 
1 
1 
1 
1 
1 
1 
1 
1 
1 
1 
1 
1 
1 
1 
1 
1 
1 
1 
1 
1 
1 
1 
1 
1 
1 
1 
1 
1 
1 
1 
1 
1 
1 
1 
1 
1 
1 
1 
1 
1 
1 
1 
1 
1 
1 
1 
1 
1 
1 
1 
1 
1 
1 
1 
1 
1 
1 
1 
1 
1 
1 
1 
1 
1 
1 
1 
1 
1 
1 
1 
1 
1 
1 
1 
1 
1 
1 
1 
1 
1 
1 
1 
1 
1 
1 
1 
1 
1 
1 
1 
1 
1 
1 
1 
1 
1 
1 
1 
1 
1 
1 
1 
1 
1 
1 
1 
1 
1 
1 
1 
1 
1 
1 
1 
1 
1 
1 
1 
1 
1 
1 
1 
1 
1 
1 
1 
1 
1 
1 
1 
1 
1 
1 
1 
1 
1 
1 
1 
1 
1 
1 
1 
1 
1 
1 
1 
1 
1 
1 
1 
1 
1 
1 
1 
1 
1 
1 
1 
1 
1 
1 
1 
1 
1 
1 
1 
1 
1 
1 
1 
1 
1 
1 
1 
1 
1 
1 
1 
1 
1 
1 
1 
1 
1 
1 
1 
1 
1 
1 
1 
1 
1 
1 
1 
1 
1 
1 
1 
1 
1 
1 
1 
1 
1 
1 
1 
1 
1 
1 
1 
1 
1 
1 
1 
1 
1 
1 
1 
1 
1 
1 
1 
1 
1 
1 
1 
1 
1 
1 
1 
1 
1 
1 
1 
1 
1 
1 
1 
1 
1 
1 
1 
1 
1 
1 
1 
1 
1 
1 
1 
1 
1 
1 
1 
1 
1 
1 
1 
1 
1 
1 
1 
1 
1 
1 
1 
1 
1 
1 
1 
1 
1 
1 
1 
1 
1 
1 
1 
1 
1 
1 
1 
1 
1 
1 
1 
1 
1 
1 
1 
1 
1 
1 
1 
1 
1 
1 
1 
1 
1 
1 
1 
1 
1 
1 
1 
1 
1 
1 
1 
1 
1 
1 
1 
1 
1 
1 
1 
1 
1 
1 
1 
1 
1 
1 
1 
1 
1 
1 
1 
1 
1 
1 
1 
1 
1 
1 
1 
1 
1 
1 
1 
1 
1 
1 
1 
1 
1 
1 
1 
1 
1 
1 
1 
1 
1 
1 
1 
1 
1 
1 
1 
1 
1 
1 
1 
1 
1 
1 
1 
1 
1 
1 
1 
1 
1 
1 
1 
1 
1 
1 
1 
1 
1 
1 
1 
1 
1 
1 
1 
1 
1 
1 
1 
1 
1 
1 
1 
1 
1 
1 
1 
1 
1 
1 
1 
1 
1 
1 
1 
1 
1 
1 
1 
1 
1 
1 
1 
1 
1 
1 
1 
1 
1 
1 
1 
1 
1 
1 
1 
1 
1 
1 
1 
1 
1 
1 
1 
1 
1 
1 
1 
1 
1 
1 
1 
1 
1 
1 
1 
1 
1 
1 
1 
1 
1 
1 
1 
1 
1 
1 
1 
1 
1 
1 
1 
1 
1 
1 
1 
1 
1 
1 
1 
1 
1 
1 
1 
1 
1 
1 
1 
1 
1 
1 
1 
1 
1 
1 
1 
1 
1 
1 
1 
1 
1 
1 
1 
1 
1 
1 
1 
1 
1 
1 
1 
1 
1 
1 
1 
1 
1 
1 
1 
1 
1 
1 
1 
1 
1 
1 
1 
1 
1 
1 
1 
1 
1 
1 
1 
1 
1 
1 
1 
1 
1 
1 
1 
1 
1 
1 
1 
1 
1 
1 
1 
1 
1 
1 
1 
1 
1 
1 
1 
1 
1 
1 
1 
1 
1 
1 
1 
1 
1 
1 
1 
1 
1 
1 
1 
1 
1 
1 
1 
1 
1 
1 
1 
1 
1 
1 
1 
1 
1 
1 
1 
1 
1 
1 
1 
1 
1 
1 
1 
1 
1 
1 
1 
1 
1 
1 
1 
1 
1 
1 
1 
1 
1 
1 
1 
1 
1 
1 
1 
1 
1 
1 
1 
1 
1 
1 
1 
1 
1 
1 
1 
1 
1 
1 
1 
1 
1 
1 
1 
1 
1 
1 
1 
1 
1 
1 
1 
1 
1 
1 
1 
1 
1 
1 
1 
1 
1 
1 
1 
1 
1 
1 
1 
1 
1 
1 
1 
1 
1 
1 
1 
1 
1 
1 
1 
1 
1 
1 
1 
1 
1 
1 
1 
1 
1 
1 
1 
1 
1 
1 
1 
1 
1 
1 
1 
1 
1 
1 
1 
1 
1 
1 
1 
1 
1 
1 
1 
1 
1 
1 
1 
1 
1 
1 
1 
1 
1 
1 
1 
1 
1 
1 
1 
1 
1 
1 
1 
1 
1 
1 
1 
1 
1 
1 
1 
1 
1 
1 
1 
1 
1 
1 
1 
1 
1 
1 
1 
1 
1 
1 
1 
1 
1 
1 
1 
1 
1 
1 
1 
1 
1 
1 
1 
1 
1 
1 
1 
1 
1 
1 
1 
1 
1 
1 
1 
1 
1 
1 
1 
1 
1 
1 
1 
1 
1 
1 
1 
1 
1 
1 
1 
1 
1 
1 
1 
1 
1 
1 
1 
1 
1 
1 
1 
1 
1 
1 
1 
1 
1 
1 
1 
1 
1 
1 
1 
1 
1 
1 
1 
1 
1 
1 
1 
1 
1 
1 
1 
1 
1 
1 
1 
1 
1 
1 
1 
1 
1 
1 
1 
1 
1 
1 
1 
1 
1 
1 
1 
1 
1 
1 
1 
1 
1 
1 
1 
1 
1 
1 
1 
1 
1 
1 
1 
1 
1 
1 
1 
1 
1 
1 
1 
1 
1 
1 
1 
1 
1 
1 
1 
1 
1 
1 
1 
1 
1 
1 
1 
1 
1 
1 
1 
1 
1 
1 
1 
1 
1 
1 
1 
1 
1 
1 
1 
1 
1 
1 
1 
1 
1 
1 
1 
1 
1 
1 
1 
1 
1 
1 
1 
1 
1 
1 
1 
1 
1 
1 
1 
1 
1 
1 
1 
1 
1 
1 
1 
1 
1 
1 
1 
1 
1 
1 
1 
1 
1 
1 
1 
1 
1 
1 
1 
1 
1 
1 
1 
1 
1 
1 
1 
1 
1 
1 
1 
1 
1 
1 
1 
1 
1 
1 
1 
1 
1 
1 
1 
1 
1 
1 
1 
1 
1 
1 
1 
1 
1 
1 
1 
1 
1 
1 
1 
1 
1 
1 
1 
1 
1 
1 
1 
1 
1 
1 
1 
1 
1 
1 
1 
1 
1 
1 
1 
1 
1 
1 
1 
1 
1 
1 
1 
1 
1 
1 
1 
1 
1 
1 
1 
1 
1 
1 
1 
1 
1 
1 
1 
1 
1 
1 
1 
1 
1 
1 
1 
1 
1 
1 
1 
1 
1 
1 
1 
1 
1 
1 
1 
1 
1 
1 
1 
1 
1 
1 
1 
1 
1 
1 
1 
1 
1 
1 
1 
1 
1 
1 
1 
1 
1 
1 
1 
1 
1 
1 
1 
1 
1 
1 
1 
1 
1 
1 
1 
1 
1 
1 
1 
1 
1 
1 
1 
1 
1 
1 
1 
1 
1 
1 
1 
1 
1 
1 
1 
1 
1 
1 
1 
1 
1 
1 
1 
1 
1 
1 
1 
1 
1 
1 
1 
1 
1 
1 
1 
1 
1 
1 
1 
1 
1 
1 
1 
1 
1 
1 
1 
1 
1 
1 
1 
1 
1 
1 
1 
1 
1 
1 
1 
1 
1 
1 
1 
1 
1 
1 
1 
1 
1 
1 
1 
1 
1 
1 
1 
1 
1 
1 
1 
1 
1 
1 
1 
1 
1 
1 
1 
1 
1 
1 
1 
1 
1 
1 
1 
1 
1 
1 
1 
1 
1 
1 
1 
1 
1 
1 
1 
1 
1 
1 
1 
1 
1 
1 
1 
1 
1 
1 
1 
1 
1 
1 
1 
1 
1 
1 
1 
1 
1 
1 
1 
1 
1 
1 
1 
1 
1 
1 
1 
1 
1 
1 
1 
1 
1 
1 
1 
1 
1 
1 
1 
1 
1 
1 
1 
1 
1 
1 
1 
1 
1 
1 
1 
1 
1 
1 
1 
1 
1 
1 
1 
1 
1 
1 
1 
1 
1 
1 
1 
1 
1 
1 
1 
1 
1 
1 
1 
1 
1 
1 
1 
1 
1 
1 
1 
1 
1 
1 
1 
1 
1 
1 
1 
1 
1 
1 
1 
1 
1 
1 
1 
1 
1 
1 
1 
1 
1 
1 
1 
1 
1 
1 
1 
1 
1 
1 
1 
1 
1 
1 
1 
1 
1 
1 
1 
1 
1 
1 
1 
1 
1 
1 
1 
1 
1 
1 
1 
1 
1 
1 
1 
1 
1 
1 
1 
1 
1 
1 
1 
1 
1 
1 
1 
1 
1 
1 
1 
1 
1 
1 
1 
1 
1 
1 
1 
1 
1 
1 
1 
1 
1 
1 
1 
1 
1 
1 
1 
1 
1 
1 
1 
1 
1 
1 
1 
1 
1 
1 
1 
1 
1 
1 
1 
1 
1 
1 
1 
1 
1 
1 
1 
1 
1 
1 
1 
1 
1 
1 
1 
1 
1 
1 
1 
1 
1 
1 
1 
1 
1 
1 
1 
1 
1 
1 
1 
1 
1 
1 
1 
1 
1 
1 
1 
1 
1 
1 
1 
1 
1 
1 
1 
1 
1 
1 
1 
1 
1 
1 
1 
1 
1 
1 
1 
1 
1 
1 
1 
1 
1 
1 
1 
1 
1 
1 
1 
1 
1 
1 
1 
1 
1 
1 
1 
1 
1 
1 
1 
1 
1 
1 
1 
1 
1 
1 
1 
1 
1 
1 
1 
1 
1 
1 
1 
1 
1 
1 
1 
1 
1 
1 
1 
1 
1 
1 
1 
1 
1 
1 
1 
1 
1 
1 
1 
1 
1 
1 
1 
1 
1 
1 
1 
1 
1 
1 
1 
1 
1 
1 
1 
1 
1 
1 
1 
1 
1 
1 
1 
1 
1 
1 
1 
1 
1 
1 
1 
1 
1 
1 
1 
1 
1 
1 
1 
1 
1 
1 
1 
1 
1 
1 
1 
1 
1 
1 
1 
1 
1 
1 
1 
1 
1 
1 
1 
1 
1 
1 
1 
1 
1 
1 
1 
1 
1 
1 
1 
1 
1 
1 
1 
1 
1 
1 
1 
1 
1 
1 
1 
1 
1 
1 
1 
1 
1 
1 
1 
1 
1 
1 
1 
1 
1 
1 
1 
1 
1 
1 
1 
1 
1 
1 
1 
1 
1 
1 
1 
1 
1 
1 
1 
1 
1 
1 
1 
1 
1 
1 
1 
1 
1 
1 
1 
1 
1 
1 
1 
1 
1 
1 
1 
1 
1 
1 
1 
1 
1 
1 
1 
1 
1 
1 
1 
1 
1 
1 
1 
1 
1 
1 
1 
1 
1 
1 
1 
1 
1 
1 
1 
1 
1 
1 
1 
1 
1 
1 
1 
1 
1 
1 
1 
1 
1 
1 
1 
1 
1 
1 
1 
1 
1 
1 
1 
1 
1 
1 
1 
1 
1 
1 
1 
1 
1 
1 
1 
1 
1 
1 
1 
1 
1 
1 
1 
1 
1 
1 
1 
1 
1 
1 
1 
1 
1 
1 
1 
1 
1 
1 
1 
1 
1 
1 
1 
1 
1 
1 
1 
1 
1 
1 
1 
1 
1 
1 
1 
1 
1 
1 
1 
1 
1 
1 
1 
1 
1 
1 
1 
1 
1 
1 
1 
1 
1 
1 
1 
1 
1 
1 
1 
1 
1 
1 
1 
1 
1 
1 
1 
1 
1 
1 
1 
1 
1 
1 
1 
1 
1 
1 
1 
1 
1 
1 
1 
1 
1 
1 
1 
1 
1 
1 
1 
1 
1 
1 
1 
1 
1 
1 
1 
1 
1 
1 
1 
1 
1 
1 
1 
1 
1 
1 
1 
1 
1 
1 
1 
1 
1 
1 
1 
1 
1 
1 
1 
1 
1 
1 
1 
1 
1 
1 
1 
1 
1 
1 
1 
1 
1 
1 
1 
1 
1 
1 
1 
1 
1 
1 
1 
1 
1 
1 
1 
1 
1 
1 
1 
1 
1 
1 
1 
1 
1 
1 
1 
1 
1 
POINT_DATA 5000
VECTORS Stress float
-45.4487 -1018.21 0.
628.908 -735.065 0.
640.63 -707.788 0.
534.172 -753.902 0.
477.333 -886.487 0.
420.494 -1019.07 0.
-32.8314 -1321.07 0.
-89.5435 -1453.38 0.
-146.256 -1585.7 0.
-402.549 -1712.82 0.
-383.849 -1669.13 0.
-365.149 -1625.45 0.
452.944 -1295.03 0.
437.736 -1330.47 0.
-220.584 -1634.62 0.
-192.826 -1569.91 0.
-165.067 -1505.2 0.
242.359 -1309.99 0.
215.414 -1372.94 0.
188.469 -1435.89 0.
322.546 -1405.2 0.
320.354 -1410.25 0.
318.163 -1415.3 0.
101.083 -1478.56 0.
122.373 -1428.75 0.
272.133 -1323.89 0.
-103.118 -1427.68 0.
-72.5479 -1356.38 0.
101.531 -1253.69 0.
50.2091 -1373.73 0.
-1.11235 -1493.76 0.
389.089 -1375.11 0.
400.091 -1349.48 0.
411.093 -1323.85 0.
-259.467 -1615.11 0.
-269.264 -1637.71 0.
-279.062 -1660.31 0.
238.003 -1439.42 0.
238.753 -1437.56 0.
36.7454 -1521.71 0.
39.344 -1515.38 0.
41.9426 -1509.05 0.
529.555 -1267.81 0.
574.118 -1163.73 0.
618.682 -1059.64 0.
-802.818 -1679.48 0.
-849.239 -1787.86 0.
-895.66 -1896.23 0.
861.594 -1164.84 0.
860.687 -1166.98 0.
-5195.14 -3764.31 0.
1430.47 -899.327 0.
1443.93 -868.007 0.
-299.351 -1601.34 0.
-312.568 -1632.06 0.
-325.785 -1662.77 0.
-89.3594 -1575.78 0.
-91.1581 -1579.91 0.
-92.9569 -1584.03 0.
-391.921 -1705.12 0.
-385.846 -1690.82 0.
-379.772 -1676.53 0.
158.689 -1454.65 0.
153.758 -1465.75 0.
-67.1161 -1565.77 0.
-66.6882 -1564.65 0.
-66.2604 -1563.53 0.
163.305 -1464.18 0.
164.183 -1462.25 0.
165.061 -1460.31 0.
-259.383 -1642.16 0.
-260.182 -1644.22 0.
-260.98 -1646.27 0.
707.943 -1112.9 0.
786.948 -928.653 0.
-230.434 -1222.81 0.
-169.256 -1350.53 0.
-250.032 -1539.09 0.
333.332 -1399.34 0.
341.759 -1379.63 0.
350.185 -1359.92 0.
-180.55 -1589.19 0.
-192.032 -1615.72 0.
-203.515 -1642.26 0.
123.033 -1496.24 0.
130.741 -1478.02 0.
138.449 -1459.81 0.
375.485 -1332.32 0.
390.909 -1296.47 0.
101.798 -1394.66 0.
105.518 -1386.01 0.
109.238 -1377.37 0.
-16.6514 -1387.95 0.
37.0796 -1262.54 0.
90.8106 -1137.12 0.
-536.549 -1313.12 0.
-490.64 -1205.91 0.
-444.73 -1098.71 0.
156.572 -840.543 0.
146.844 -862.972 0.
191.844 -885.025 0.
370.602 -814.264 0.
382.332 -787.12 0.
423.489 -769.862 0.
366.601 -902.483 0.
309.713 -1035.1 0.
30.5914 -1262.65 0.
-26.1201 -1394.94 0.
-82.8315 -1527.22 0.
-148.077 -1572.41 0.
-129.39 -1528.65 0.
-110.702 -1484.89 0.
4.32785 -1456.15 0.
-10.863 -1491.46 0.
58.6965 -1483.69 0.
86.5032 -1418.98 0.
114.31 -1354.27 0.
185.558 -1302.57 0.
158.653 -1365.58 0.
131.748 -1428.6 0.
275.247 -1394.26 0.
273.026 -1399.26 0.
270.805 -1404.26 0.
145.114 -1428.5 0.
166.315 -1378.65 0.
-143.182 -1470.52 0.
170.057 -1279.12 0.
200.635 -1207.85 0.
16.6173 -1258.54 0.
-34.5224 -1378.72 0.
-85.6621 -1498.91 0.
112.688 -1462.14 0.
123.717 -1436.53 0.
134.745 -1410.92 0.
59.885 -1446.8 0.
49.9096 -1469.28 0.
39.9343 -1491.76 0.
229.175 -1411.99 0.
229.857 -1410.07 0.
212.264 -1415.76 0.
214.697 -1409.28 0.
217.131 -1402.79 0.
92.5776 -1423.85 0.
137.093 -1319.66 0.
181.607 -1215.48 0.
-194.098 -1387.77 0.
-240.468 -1496.15 0.
-286.837 -1604.53 0.
606.77 -1242.61 0.
605.873 -1244.79 0.
-3229.32 -2890.37 0.
1202.89 -965.424 0.
1216.4 -934.165 0.
46.6712 -1421.55 0.
33.3444 -1452.27 0.
20.0176 -1483 0.
-35.8821 -1521.52 0.
-37.7496 -1525.67 0.
-39.6171 -1529.82 0.
-357.393 -1659.46 0.
-351.403 -1645.11 0.
-345.413 -1630.77 0.
96.5651 -1449.37 0.
91.3647 -1460.29 0.
-7.23839 -1509.28 0.
-6.89569 -1508.13 0.
-6.55299 -1506.97 0.
201.25 -1416.32 0.
202.206 -1414.42 0.
203.163 -1412.52 0.
-28.9334 -1512.32 0.
-29.6061 -1514.47 0.
-30.2787 -1516.61 0.
69.8626 -1354.73 0.
148.878 -1170.66 0.
87.7765 -1054.49 0.
117.877 -1195.7 0.
37.0988 -1384.42 0.
329.5 -1369.76 0.
337.896 -1350.03 0.
346.291 -1330.3 0.
-31.7621 -1493.94 0.
-43.4049 -1520.32 0.
-55.0477 -1546.71 0.
158.095 -1450.01 0.
165.66 -1431.67 0.
173.224 -1413.33 0.
308.62 -1329.93 0.
324.12 -1294.2 0.
249.893 -1299.44 0.
253.612 -1290.87 0.
257.332 -1282.29 0.
-219.481 -1443.33 0.
-165.796 -1317.95 0.
-112.11 -1192.56 0.
-230.887 -1150.91 0.
-184.963 -1043.52 0.
-139.04 -936.116 0.
-24.8475 -886.79 0.
-34.6471 -908.852 0.
394.764 -832.131 0.
39.7768 -1067.71 0.
78.0985 -977.493 0.
-174.96 -1921.18 0.
93.7712 -1294.39 0.
-189.561 -1955.78 0.
-912.628 -3554.16 0.
-780.501 -3246.79 0.
-1391.81 -4674.09 0.
-1237.98 -4567.29 0.
-1107.82 -4264.36 0.
-1183.82 -4442.46 0.
-1525.46 -4139.51 0.
-1284.02 -3575.58 0.
-1200.76 -4924.61 0.
-659.743 -3662.35 0.
-918.447 -4266.09 0.
-1097.38 -4158.91 0.
-1337.61 -4718.98 0.
-2359.66 -7103.26 0.
-2764.74 -8366 0.
-1808.49 -6134.32 0.
-1661.75 -5791.47 0.
-1055.31 -4282.58 0.
-772.074 -3622.15 0.
-1280.06 -4864.15 0.
-884.186 -4228.73 0.
-733.709 -3876.2 0.
-986.783 -3411.73 0.
-1100.13 -3675.32 0.
-1827.73 -5372.19 0.
-2239.07 -6392.94 0.
-1779.8 -5321.36 0.
-1679.98 -5088.49 0.
-977.637 -4442.09 0.
-1431.85 -5503.26 0.
-2720.14 -8510.62 0.
-2397.39 -7492.55 0.
-1684.83 -5830.48 0.
-2323.11 -7637.63 0.
-1659.31 -6089.1 0.
-1569.76 -5880.47 0.
-1772.57 -4912.61 0.
-975.955 -3053.84 0.
-912.398 -2905.55 0.
-796.131 -3920.11 0.
-1295.78 -5085.83 0.
-1916.08 -6533.07 0.
-1337.78 -5264.54 0.
-1193.87 -4928.88 0.
-5464.12 -8818.66 0.
-546.939 -4583.8 0.
-646.69 -4815.86 0.
-1519.13 -5704.17 0.
-1054.67 -4619.97 0.
-1535.08 -5740.49 0.
-1687.54 -5445.17 0.
-1402.58 -4780.09 0.
-1961.35 -6083.66 0.
-2234.53 -6078.99 0.
-1415.39 -4167.75 0.
-1307.43 -3915.95 0.
-873.695 -3560.2 0.
-1001.97 -3860.47 0.
-1968.23 -6166.75 0.
-1920.18 -6054.38 0.
-2642.95 -7740.6 0.
-2508.48 -7781.55 0.
-1507.85 -5446.72 0.
-1795.06 -6116.81 0.
-1689.19 -5794.46 0.
-1432.07 -5195.13 0.
-2193.52 -6972.48 0.
-1879.16 -4655.67 0.
-1398.32 -3533.35 0.
-735.736 -3489.41 0.
-531.725 -3230.44 0.
-1406.52 -5271.05 0.
-2234.25 -7312.28 0.
-1482.03 -5556.84 0.
-1809.46 -6320.58 0.
-2160.83 -6712.63 0.
-1834.81 -5952.45 0.
-2073.36 -6509.62 0.
-1067.24 -4341.03 0.
-414.74 -2818.92 0.
-603.517 -3259.8 0.
-791.808 -3738.82 0.
-793.255 -3742.43 0.
-744.786 -3870.84 0.
-125.105 -2424.27 0.
-121.325 -2414.81 0.
-854.17 -2504.34 0.
-612.874 -1941.48 0.
-1101.7 -3082.21 0.
-299.858 -1863.39 0.
13.5567 -1132.36 0.
-136.494 -1482.83 0.
-656.542 -1987.37 0.
-921.925 -2606.94 0.
404.363 -214.983 0.
225.186 -281.215 0.
205.41 -326.394 0.
528.868 -214.247 0.
541.062 -186.455 0.
553.256 -158.663 0.
485.702 -84.7993 0.
600.323 181.9 0.
714.943 448.599 0.
959.461 639.298 0.
966.635 654.775 0.
973.81 670.251 0.
628.773 518.952 0.
623.793 508.083 0.
1125.95 712.417 0.
1099.17 649.678 0.
1072.39 586.939 0.
924.056 533.779 0.
1003.12 718.347 0.
1082.19 902.914 0.
929.65 810.795 0.
832.57 583.916 0.
735.49 357.038 0.
1021.86 454.361 0.
1035.08 484.097 0.
1598.21 749.454 0.
1253.33 547.114 0.
1223.52 478.402 0.
681.625 255.57 0.
824.04 588.696 0.
966.456 921.821 0.
906.769 1043.18 0.
896.201 1018.89 0.
885.632 994.595 0.
1401.57 1216.26 0.
1409.01 1232.19 0.
1416.45 1248.12 0.
1374.6 1186.25 0.
1347.86 1122.84 0.
1326.97 1068.65 0.
1331.21 1078.15 0.
1335.45 1087.65 0.
920.606 856.532 0.
825.263 633.962 0.
729.92 411.391 0.
1321.43 648.272 0.
1381.49 788.592 0.
1441.54 928.913 0.
1114.67 969.111 0.
1220.79 1215.29 0.
-495.819 680.412 0.
2051.19 1644.09 0.
1983.64 1486.91 0.
1146.18 1026.87 0.
1137.76 1007.78 0.
1129.33 988.684 0.
1221.3 963.113 0.
1152.91 804.292 0.
1084.53 645.47 0.
538.61 400.986 0.
564.724 462.167 0.
590.837 523.348 0.
1203.74 834.024 0.
1229.12 892.601 0.
989.525 832.742 0.
987.461 828.256 0.
985.397 823.769 0.
939.591 808.175 0.
951.679 835.598 0.
963.767 863.021 0.
1095.32 878.074 0.
1048.18 766.497 0.
1001.05 654.92 0.
730.754 458.756 0.
690.337 365.844 0.
1051.89 451.378 0.
1023.05 544.603 0.
1077.81 673.659 0.
924.167 667.131 0.
885.389 576.794 0.
846.61 486.456 0.
904.384 501.874 0.
936.837 577.002 0.
969.289 652.13 0.
1119.46 615.799 0.
1029.71 405.572 0.
939.969 195.346 0.
902.139 215.518 0.
929.551 280.02 0.
999.879 338.549 0.
942.313 205.396 0.
884.748 72.2426 0.
175.82 -295.318 0.
181.601 -281.056 0.
187.383 -266.794 0.
328.362 -281.778 0.
257.002 -447.932 0.
185.642 -614.085 0.
64.4231 -533.135 0.
166.516 -295.601 0.
109.164 -308.978 0.
55.8563 -322.393 0.
35.9773 -367.673 0.
511.547 -190.045 0.
523.814 -162.462 0.
536.081 -134.879 0.
394.215 -91.6711 0.
508.786 175.088 0.
623.356 441.847 0.
934.687 660.715 0.
942.058 676.159 0.
949.429 691.602 0.
838.247 639.641 0.
833.241 628.89 0.
1033.06 703.721 0.
1006.34 640.973 0.
979.623 578.225 0.
953.432 578.359 0.
1032.65 762.858 0.
1111.86 947.356 0.
654.073 724.362 0.
557.316 497.42 0.
460.558 270.478 0.
1096.47 518.635 0.
1109.84 548.1 0.
1819.15 875.74 0.
1381.17 633.71 0.
1351.53 564.84 0.
816.671 345.038 0.
959.077 678.079 0.
1101.48 1011.12 0.
872.976 1060.15 0.
862.259 1035.93 0.
851.541 1011.71 0.
1361.7 1230.06 0.
1369.16 1245.97 0.
1376.62 1261.89 0.
1455.83 1253.29 0.
1429.25 1189.82 0.
1244.65 1065.99 0.
1248.96 1075.59 0.
1253.27 1085.19 0.
1207.25 1010.44 0.
1111.9 787.746 0.
1016.55 565.053 0.
1532.71 768.663 0.
1592.75 908.988 0.
1652.78 1049.31 0.
863.209 893.633 0.
969.629 1139.25 0.
-938.691 521.89 0.
1980.52 1644.8 0.
1913.11 1487.67 0.
893.732 949.774 0.
885.275 930.721 0.
876.817 911.668 0.
1436.65 1086.62 0.
1368.05 927.829 0.
1299.44 769.042 0.
550.266 437.483 0.
576.281 498.777 0.
602.297 560.07 0.
1458.74 975.887 0.
1484.02 1034.56 0.
954.18 848.332 0.
952.115 843.932 0.
950.051 839.531 0.
670.519 724.58 0.
682.826 751.681 0.
695.132 778.782 0.
1020.12 877.963 0.
973.298 766.139 0.
926.476 654.315 0.
1259.56 717.268 0.
1218.75 624.497 0.
964.051 445.283 0.
962.427 550.382 0.
1016.92 679.532 0.
620.494 568.34 0.
581.812 478.107 0.
543.129 387.874 0.
888.1 526.238 0.
920.578 601.368 0.
953.055 676.498 0.
1212.68 687.856 0.
1123.03 477.418 0.
1033.38 266.979 0.
917.725 253.667 0.
944.84 318.262 0.
943.402 345.254 0.
885.59 212.081 0.
827.778 78.9075 0.
294.749 -212.098 0.
300.277 -197.516 0.
305.805 -182.933 0.
283.879 -269.787 0.
212.312 -435.771 0.
140.745 -601.755 0.
200.751 -442.847 0.
302.925 -205.533 0.
-14.3069 -561.945 0.
-228.771 -932.064 0.
-361.229 -1242.4 0.
31.8266 -1275.1 0.
49.8749 -1231.89 0.
67.9232 -1188.67 0.
-157.495 -1301.06 0.
-206.223 -1415.53 0.
-254.951 -1529.99 0.
-35.9201 -1526.31 0.
-79.1998 -1626.64 0.
-122.48 -1726.97 0.
-35.1472 -1554.18 0.
51.678 -1351.31 0.
115.267 -1182.43 0.
59.0251 -1312.42 0.
2.78316 -1442.41 0.
69.6511 -1504.66 0.
43.9958 -1563.16 0.
18.3406 -1621.67 0.
-410.774 -1724.91 0.
-309.563 -1488.23 0.
-208.353 -1251.55 0.
364.64 -1126.79 0.
248.545 -1397.81 0.
648.326 -1447.64 0.
526.336 -1285.26 0.
644.519 -1010.68 0.
195.796 -1059.82 0.
103.795 -1273.45 0.
11.7935 -1487.07 0.
-162.414 -1671.2 0.
-172.828 -1696.56 0.
-183.241 -1721.92 0.
-29.6397 -1803.03 0.
-139.943 -2060.92 0.
-250.246 -2318.81 0.
148.346 -2003.05 0.
247.805 -1768.48 0.
37.839 -1686.75 0.
49.0885 -1661.16 0.
60.3381 -1635.56 0.
243.651 -1517.58 0.
280.675 -1430.33 0.
317.699 -1343.08 0.
644.339 -1185.32 0.
630.967 -1218.03 0.
617.594 -1250.74 0.
-229.944 -1636.65 0.
-237.352 -1653.86 0.
-1942.74 -2399.76 0.
541.858 -1317.34 0.
550.925 -1295.82 0.
-145.906 -1587.25 0.
-161.08 -1621.78 0.
-176.253 -1656.31 0.
308.211 -1426.92 0.
353.999 -1320.09 0.
399.787 -1213.25 0.
-128.841 -1438.07 0.
-152.174 -1492.15 0.
-175.506 -1546.23 0.
430.837 -1463.36 0.
328.76 -1701.5 0.
-399.633 -2161.4 0.
-301.131 -1931.26 0.
-202.63 -1701.11 0.
-381.153 -1667.12 0.
-400.3 -1709.71 0.
-419.447 -1752.29 0.
-76.3717 -1571.48 0.
-31.549 -1463.56 0.
13.2735 -1355.65 0.
579.91 -1209.9 0.
504.134 -1388.68 0.
-43.0537 -1763.49 0.
-0.634143 -1590.74 0.
80.0482 -1401.6 0.
-260.951 -1429.17 0.
-262.07 -1431.15 0.
-263.188 -1433.13 0.
77.4325 -1320.12 0.
37.3583 -1413.49 0.
-2.71583 -1506.86 0.
443.797 -1183.56 0.
563.183 -904.399 0.
682.569 -625.241 0.
449.138 -756.796 0.
419.731 -825.46 0.
297.5 -925.956 0.
292.591 -937.733 0.
287.683 -949.51 0.
-27.1833 -1141.97 0.
-98.2128 -1307.88 0.
-169.242 -1473.79 0.
-237.611 -1360.33 0.
-62.8727 -953.204 0.
111.866 -546.078 0.
173.995 -529.255 0.
126.82 -636.605 0.
264.806 -412.117 0.
-75.8574 -834.741 0.
-208.392 -1145.08 0.
39.4624 -1240.97 0.
57.5318 -1197.94 0.
75.6013 -1154.91 0.
-113.699 -1250.45 0.
-162.353 -1365.06 0.
-211.008 -1479.66 0.
-59.6218 -1504.41 0.
-102.756 -1604.88 0.
-145.891 -1705.34 0.
-47.6351 -1528.83 0.
39.062 -1325.83 0.
-26.5455 -1211 0.
-82.5815 -1341.13 0.
-138.618 -1471.25 0.
95.202 -1462.35 0.
69.5798 -1520.99 0.
43.9576 -1579.63 0.
-146.568 -1579.95 0.
-45.5204 -1343.07 0.
55.5275 -1106.19 0.
261.073 -1140.1 0.
144.999 -1410.98 0.
-496.052 -1906.89 0.
355.494 -1326.7 0.
473.313 -1051.96 0.
53.2976 -1090.13 0.
-38.6851 -1303.97 0.
-130.668 -1517.82 0.
228.569 -1472.04 0.
218.236 -1497.69 0.
207.904 -1523.34 0.
-182.411 -1837.31 0.
-292.532 -2095.26 0.
-402.653 -2353.22 0.
318.794 -1898.79 0.
418.352 -1664.2 0.
87.4182 -1633.93 0.
98.5607 -1608.29 0.
109.703 -1582.65 0.
277.242 -1471.23 0.
314.359 -1384.21 0.
351.476 -1297.19 0.
342.75 -1285.12 0.
329.505 -1317.95 0.
316.259 -1350.79 0.
10.6287 -1501.83 0.
3.72661 -1519.46 0.
1138.58 -1048.23 0.
230.011 -1420.52 0.
239.696 -1399.38 0.
242.914 -1388.45 0.
227.958 -1423.14 0.
213.002 -1457.83 0.
2.65907 -1527.01 0.
48.2558 -1420.08 0.
93.8529 -1313.14 0.
200.938 -1265.4 0.
177.488 -1319.3 0.
154.039 -1373.21 0.
254.918 -1507.38 0.
152.944 -1745.44 0.
-483.701 -2166.26 0.
-385.265 -1936.07 0.
-286.829 -1705.88 0.
-151.511 -1537.02 0.
-170.317 -1579.92 0.
-189.124 -1622.83 0.
-90.5622 -1545.18 0.
-45.7045 -1437.3 0.
-0.847 -1329.42 0.
448.187 -1235.58 0.
372.295 -1414.28 0.
-45.0645 -1732.54 0.
-14.9966 -1565.02 0.
65.5526 -1375.86 0.
6.60449 -1283.45 0.
5.26776 -1285.02 0.
3.93104 -1286.58 0.
79.5555 -1289.22 0.
39.1248 -1382.2 0.
-1.30571 -1475.19 0.
462.064 -1144.75 0.
581.038 -865.28 0.
700.013 -585.812 0.
375.778 -758.331 0.
346.26 -826.771 0.
144.577 -958.6 0.
139.934 -970.576 0.
135.29 -982.553 0.
77.5827 -1065.51 0.
6.67829 -1231.32 0.
-64.2263 -1397.14 0.
-284.011 -1349.39 0.
-109.547 -942.047 0.
64.9178 -534.707 0.
100.851 -528.621 0.
53.515 -635.911 0.
255.649 -907.846 0.
171.529 -520.648 0.
182.881 -492.24 0.
182.386 -888.056 0.
377.641 -431.575 0.
481.536 -188.251 0.
-311.144 -1762.23 0.
615.92 401.634 0.
553.16 255.497 0.
319.785 -550.71 0.
-39.1744 -1387.78 0.
416.324 -324.46 0.
592.428 23.9229 0.
446.421 -318.291 0.
-178.477 -1260.78 0.
227.56 -314.502 0.
-43.5188 -948.17 0.
67.4498 -1537.82 0.
253.45 -1105.08 0.
666.99 -141.44 0.
670.978 -137.543 0.
579.227 -352.308 0.
500.656 -536.363 0.
546.797 -243.783 0.
342.901 -718.922 0.
723.044 219.253 0.
730.176 -92.3514 0.
312.244 -1068.91 0.
-35.9989 -999.396 0.
473.96 188.756 0.
896.721 1173.47 0.
552.175 -1424.32 0.
919.619 -566.995 0.
1335.46 403.338 0.
698.098 535.297 0.
-104.952 -1337.79 0.
-732.439 -2801.31 0.
501.805 -1765.36 0.
955.776 -708.991 0.
356.354 -1064.05 0.
407.292 -946.069 0.
662.48 -351.594 0.
601.011 -747.346 0.
469.778 -1053.08 0.
1178.01 599.82 0.
672.289 83.3419 0.
277.484 -836.013 0.
447.297 -437.98 0.
118.825 -1679.42 0.
798.099 -93.0418 0.
1684 -475.116 0.
351.15 -517.75 0.
121.697 -1050.63 0.
735.38 -942.319 0.
410.445 -1700.03 0.
-16.0422 -2694.65 0.
174.384 -512.289 0.
878.411 1128.97 0.
942.622 1277.34 0.
1006.6 19.1231 0.
369.632 -1466.25 0.
1302.54 711.506 0.
767.64 53.5628 0.
131.258 -1429.94 0.
-131.086 -1146 0.
878.244 1208.11 0.
349.917 -25.6766 0.
517.729 -380.365 0.
326.209 -826.257 0.
441.726 -555.696 0.
-3.94165 -1278.52 0.
767.331 519.288 0.
552.599 16.4738 0.
146.858 -1656.29 0.
-24.7021 -2057.1 0.
493.761 -401.591 0.
284.713 -805.242 0.
51.9767 -1348.85 0.
918.351 371.709 0.
490.543 -625.672 0.
553.784 -477.202 0.
392.494 -533.201 0.
435.231 -435.053 0.
440.195 -424.98 0.
329.221 -1457.27 0.
310.882 -1501.93 0.
-132.33 -2538.01 0.
267.781 -842.591 0.
744.27 267.685 0.
718.894 699.997 0.
604.406 432.997 0.
471.421 122.677 0.
600.321 -13.1705 0.
626.531 47.4208 0.
1137.31 1238.68 0.
242.37 0.99038 0.
9.41192 -543.181 0.
-115.667 -835.6 0.
291.382 80.6634 0.
-97.8744 -827.551 0.
43.0487 -1054.71 0.
-191.859 -988.319 0.
-93.1029 -756.655 0.
280.001 -443.771 0.
265.609 -477.214 0.
251.216 -510.658 0.
208.022 -598.464 0.
145.732 -742.578 0.
83.4414 -886.691 0.
99.3805 -912.4 0.
103.313 -903.217 0.
107.245 -894.035 0.
290.318 -893.621 0.
244.813 -1000.49 0.
-244.11 -1269.68 0.
-119.793 -979.979 0.
4.52445 -690.282 0.
549.587 -368.449 0.
419.15 -673.554 0.
288.713 -978.659 0.
267.792 -1202.56 0.
169.178 -1432.94 0.
70.5646 -1663.33 0.
120.603 -1394.46 0.
323.654 -920.361 0.
544.376 -438.557 0.
321.442 -728.668 0.
214.056 -979.914 0.
63.6652 -1193.16 0.
95.8564 -1119.73 0.
128.048 -1046.29 0.
587.794 -868.217 0.
528.127 -1007.85 0.
468.46 -1147.49 0.
185.158 -1078.75 0.
368.156 -650.782 0.
551.155 -222.816 0.
937.989 -313.596 0.
760.229 -730.14 0.
284.113 -1232.18 0.
303.259 -1188.06 0.
322.404 -1143.93 0.
583.386 -995.433 0.
607.12 -939.774 0.
630.854 -884.115 0.
8.29899 -1124.37 0.
11.7972 -1116.43 0.
15.2951 -1108.49 0.
426.714 -1069.25 0.
335.157 -1281.36 0.
1244.12 -1064.54 0.
240.455 -1256.82 0.
363.976 -966.117 0.
605.934 -699.161 0.
569.18 -784.662 0.
532.427 -870.163 0.
4.00493 -1149.78 0.
-18.1604 -1202.27 0.
-40.3257 -1254.77 0.
308.974 -1184.64 0.
257.569 -1302.91 0.
206.164 -1421.18 0.
304.332 -1093.52 0.
475.807 -691.967 0.
259.114 -537.347 0.
98.8131 -911.998 0.
-61.4878 -1286.65 0.
7.74632 -1407.3 0.
82.803 -1230.8 0.
157.859 -1054.31 0.
331.934 -1007.94 0.
249.49 -1201.69 0.
167.047 -1395.43 0.
90.3158 -1335.81 0.
171.264 -1145.95 0.
269.924 -951.73 0.
198.702 -1057.35 0.
159.3 -1149.33 0.
184.231 -1186.24 0.
199.814 -1149.43 0.
215.396 -1112.62 0.
185.063 -1087.33 0.
215.88 -1016.68 0.
246.696 -946.033 0.
564.224 -709.778 0.
627.755 -563.223 0.
691.285 -416.669 0.
471.328 -648.08 0.
384.642 -851.324 0.
-64.2571 -1181.5 0.
-16.0372 -1068.36 0.
32.1828 -955.222 0.
73.9174 -855.466 0.
104.672 -783.416 0.
135.428 -711.366 0.
-3.88817 -771.163 0.
-24.3927 -819.679 0.
-44.8972 -868.194 0.
-40.7907 -872.893 0.
-38.794 -869.48 0.
-123.938 -1095.12 0.
-375.052 -1035.64 0.
-276.089 -804.122 0.
182.988 -453.587 0.
168.804 -487.333 0.
154.621 -521.078 0.
249.999 -548.143 0.
187.564 -692.188 0.
125.129 -836.232 0.
36.5153 -907.229 0.
40.5177 -898.329 0.
44.5201 -889.429 0.
418.893 -806.622 0.
373.113 -913.087 0.
-302.863 -1262.77 0.
-178.669 -972.947 0.
-54.4747 -683.122 0.
542.51 -340.678 0.
411.995 -645.621 0.
281.48 -950.564 0.
349.647 -1135.86 0.
250.812 -1366.09 0.
151.978 -1596.33 0.
219.363 -1320.37 0.
422.64 -846.471 0.
648.418 -362.784 0.
172.008 -761.189 0.
64.4511 -1012.19 0.
303.303 -1059.32 0.
335.304 -985.807 0.
367.306 -912.298 0.
356.712 -935.603 0.
296.983 -1075.29 0.
237.253 -1214.98 0.
420.572 -946.314 0.
603.52 -518.233 0.
786.468 -90.151 0.
726.73 -373.043 0.
548.742 -789.371 0.
300.351 -1193.08 0.
319.43 -1148.98 0.
338.509 -1104.89 0.
708.36 -911.514 0.
732.121 -855.71 0.
755.882 -799.907 0.
-153.877 -1161.28 0.
-149.862 -1153.62 0.
-145.847 -1145.96 0.
500.778 -1006.34 0.
409.205 -1218.34 0.
-894.978 -1950.25 0.
508.11 -1111.18 0.
631.788 -820.455 0.
337.054 -781.796 0.
300.31 -867.343 0.
263.567 -952.89 0.
146.45 -1057.5 0.
124.091 -1109.84 0.
101.731 -1162.18 0.
102.534 -1242.42 0.
50.7593 -1360.23 0.
-1.01481 -1478.04 0.
355.312 -1041.15 0.
526.941 -639.66 0.
434.516 -429.273 0.
274.378 -803.954 0.
114.239 -1178.64 0.
-61.1302 -1405.3 0.
13.8176 -1228.58 0.
88.7652 -1051.86 0.
618.166 -853.983 0.
535.5 -1047.6 0.
452.835 -1241.21 0.
-131.389 -1400.51 0.
-50.8717 -1210.32 0.
396.172 -866.815 0.
241.423 -1008.12 0.
202.023 -1099.97 0.
119.674 -1182.49 0.
135.421 -1145.66 0.
151.167 -1108.84 0.
237.82 -1033.63 0.
268.72 -962.93 0.
299.621 -892.23 0.
476.543 -715.218 0.
540.096 -568.556 0.
603.65 -421.893 0.
635.041 -546.492 0.
548.074 -749.546 0.
-19.9634 -1131.3 0.
28.1758 -1018.05 0.
76.315 -904.803 0.
-112.734 -904.615 0.
-82.1855 -832.317 0.
-51.6373 -760.018 0.
116.388 -688.216 0.
95.9052 -736.687 0.
75.4225 -785.157 0.
69.5513 -793.929 0.
72.0006 -790.782 0.
-11.6075 -718.823 0.
-363.811 -914.533 0.
-424.055 -1055.43 0.
-70.3987 -1004.77 0.
-93.0826 -1058.27 0.
-115.766 -1111.78 0.
-79.122 -1135.14 0.
-100.295 -1185.37 0.
-121.468 -1235.59 0.
-64.9642 -1140.27 0.
7.85931 -971.269 0.
80.6829 -802.264 0.
425.197 -683.833 0.
394.723 -755.586 0.
-178.29 -1074.87 0.
-286.661 -1329.03 0.
-395.033 -1583.2 0.
88.6286 -1500.93 0.
123.815 -1419.35 0.
159.002 -1337.77 0.
288.365 -1198.33 0.
339.419 -1080.2 0.
390.473 -962.074 0.
321.446 -1013.98 0.
288.406 -1090.21 0.
411.358 -1099.51 0.
-183.278 -1478.09 0.
-249.732 -1633.08 0.
215.277 -1533.56 0.
222.654 -1514.23 0.
230.03 -1494.9 0.
-2.24724 -1563.7 0.
24.4197 -1504.98 0.
51.0868 -1446.25 0.
329.179 -1349.56 0.
300.38 -1416.19 0.
271.581 -1482.83 0.
189.016 -1496.29 0.
205.616 -1457.26 0.
147.691 -1449 0.
164.845 -1406 0.
181.999 -1362.99 0.
548.462 -1241.05 0.
448.092 -1472.59 0.
347.721 -1704.14 0.
-485.276 -2009.27 0.
-354.285 -1703.39 0.
-223.295 -1397.51 0.
357.995 -1113.19 0.
343.148 -1150.03 0.
-1214.84 -1847.72 0.
554.359 -1269.94 0.
460.858 -1490.48 0.
-202.888 -1906.34 0.
-194.445 -1887.28 0.
-186.001 -1868.22 0.
-91.0652 -1734.92 0.
11.2215 -1497.91 0.
113.508 -1260.89 0.
60.5994 -1244.93 0.
41.6035 -1290.7 0.
22.6076 -1336.47 0.
207.47 -1367.51 0.
142.939 -1518.68 0.
-41.4516 -1697.34 0.
-13.7059 -1631.36 0.
14.0397 -1565.38 0.
-183.1 -1592.27 0.
-151.359 -1520.8 0.
-119.618 -1449.33 0.
534.644 -1122.79 0.
550.136 -1086.88 0.
565.629 -1050.97 0.
-107.929 -1262.14 0.
-57.7446 -1147.3 0.
524.335 -812.52 0.
177.06 -1132.87 0.
86.8681 -1343.06 0.
-92.0609 -1532 0.
-55.6132 -1447.59 0.
-19.1656 -1363.17 0.
97.2313 -1250.91 0.
126.611 -1183.56 0.
155.99 -1116.21 0.
352.096 -1085.01 0.
298.407 -1210.46 0.
244.718 -1335.91 0.
380.828 -1190.69 0.
435.877 -1063.62 0.
-76.8956 -1174.32 0.
10.2285 -971.95 0.
97.3526 -769.576 0.
-71.6851 -764.783 0.
-116.472 -870.598 0.
-161.259 -976.413 0.
24.2087 -948.76 0.
11.6769 -978.208 0.
-0.85466 -1007.66 0.
46.4415 -834.114 0.
148.69 -594.813 0.
57.0197 -656.364 0.
-249.838 -833.46 0.
-310.153 -974.258 0.
14.6953 -937.618 0.
-8.32569 -990.54 0.
-31.3466 -1043.46 0.
-270.321 -1184.94 0.
-291.531 -1235.07 0.
-312.741 -1285.2 0.
34.1591 -1067.11 0.
106.839 -897.947 0.
179.518 -728.784 0.
222.976 -739.294 0.
192.286 -810.739 0.
20.9866 -958.419 0.
-87.4958 -1212.46 0.
-195.978 -1466.5 0.
237.317 -1405.66 0.
272.45 -1324.07 0.
307.583 -1242.48 0.
153.248 -1224.47 0.
204.099 -1106.25 0.
254.95 -988.034 0.
180.638 -1044.66 0.
147.309 -1120.74 0.
251.396 -1137.85 0.
-125.087 -1422.52 0.
-191.129 -1577.88 0.
289.855 -1468.82 0.
297.168 -1449.67 0.
304.481 -1430.52 0.
34.2244 -1517.84 0.
60.5442 -1458.95 0.
86.8641 -1400.05 0.
330.145 -1317.75 0.
301.081 -1384.29 0.
272.017 -1450.82 0.
292.608 -1420.48 0.
309.037 -1381.26 0.
55.3137 -1458.09 0.
72.0166 -1415.01 0.
88.7193 -1371.94 0.
406.662 -1271.7 0.
306.323 -1503.36 0.
205.982 -1735.03 0.
-222.237 -1864.81 0.
-91.3407 -1558.77 0.
39.5551 -1252.73 0.
90.2966 -1197.05 0.
75.34 -1233.78 0.
-483.495 -1503.24 0.
597.325 -1220.02 0.
503.373 -1440.22 0.
-46.4756 -1808.86 0.
-38.1748 -1789.65 0.
-29.8739 -1770.44 0.
-67.8907 -1692.86 0.
34.2109 -1456.04 0.
136.313 -1219.22 0.
197.277 -1154.77 0.
177.648 -1200.03 0.
158.019 -1245.29 0.
175.727 -1350.75 0.
110.81 -1501.61 0.
-30.9969 -1661.98 0.
-3.55606 -1595.59 0.
23.8847 -1529.2 0.
-184.179 -1563.26 0.
-152.857 -1491.01 0.
-121.536 -1418.77 0.
354.247 -1170.36 0.
369.734 -1134.27 0.
385.221 -1098.19 0.
62.1496 -1157.96 0.
112.431 -1043.3 0.
-51.668 -1027.87 0.
137.516 -1118.53 0.
47.481 -1328.86 0.
-152.656 -1526.09 0.
-116.147 -1441.7 0.
-79.6385 -1357.31 0.
-31.5174 -1275.43 0.
-2.17509 -1208.19 0.
27.1672 -1140.95 0.
554.735 -965.645 0.
501.138 -1091.13 0.
447.542 -1216.61 0.
313.202 -1189.16 0.
367.995 -1061.71 0.
-180.124 -1186.78 0.
-92.9843 -984.378 0.
-5.84497 -781.972 0.
104.844 -658.258 0.
59.6822 -763.767 0.
14.52 -869.276 0.
-18.1435 -935.417 0.
-30.6972 -964.81 0.
-43.2508 -994.203 0.
-39.3916 -839.596 0.
63.2068 -600.012 0.
101.711 -662.827 0.
-206.638 -920.67 0.
397.139 487.606 0.
514.016 103.141 0.
239.104 -539.681 0.
301.405 -395.533 0.
-30.8651 -239.274 0.
59.2047 -29.4124 0.
170.983 229.917 0.
803.881 579.163 0.
754.512 462.251 0.
985.069 998.599 0.
408.534 105.051 0.
30.7995 -778.176 0.
820.28 566.259 0.
859.033 653.421 0.
716.053 316.543 0.
1026.96 186.693 0.
1011.7 150.472 0.
1077.98 304.461 0.
709.376 360.068 0.
584.073 67.0243 0.
102.978 -1056.14 0.
264.921 -551.401 0.
708.641 482.648 0.
113.935 -101.796 0.
794.128 639.445 0.
633.502 261.802 0.
1169.18 475.739 0.
994.921 68.0908 0.
1134.43 392.623 0.
820.76 281.087 0.
753.828 124.979 0.
1010.67 724.457 0.
1335.85 1058.75 0.
1327.39 1040.1 0.
656.04 -525.118 0.
1556.22 1365.59 0.
1197.58 528.98 0.
492.679 -227.309 0.
400.283 -446.59 0.
299.282 -685.563 0.
420.464 -935.851 0.
1094.98 636.409 0.
869.254 107.962 0.
579.657 -459.95 0.
880.814 242.464 0.
702.943 -172.914 0.
349.843 -64.6369 0.
522.401 338.609 0.
-289.679 -238.773 0.
1287.72 351.604 0.
1189.16 121.111 0.
1300.06 1067.63 0.
1174.19 773.814 0.
826.387 -37.2213 0.
750.01 204.326 0.
745.446 193.124 0.
1367.31 1643.59 0.
519.431 -628.31 0.
846.374 134.882 0.
879.654 212.778 0.
827.776 259.014 0.
789.721 174.896 0.
837.677 381.886 0.
899.182 525.222 0.
1086.6 962.511 0.
500.336 63.1166 0.
999.068 1226.46 0.
896.815 987.361 0.
1033.97 791.527 0.
845.951 352.164 0.
504.787 -444.744 0.
532.133 -359.778 0.
1303.02 1438.46 0.
314.85 855.386 0.
705.545 314.137 0.
1019.62 1048.39 0.
488.607 114.415 0.
400.334 -91.5609 0.
363.825 -176.62 0.
380.116 -46.5948 0.
470.656 166.794 0.
663.956 620.03 0.
1095.17 -57.1169 0.
956.43 -379.671 0.
1486.42 857.844 0.
1003.97 585.092 0.
1089.99 787.279 0.
138.166 -218.469 0.
459.369 531.586 0.
633.565 938.284 0.
755.818 556.042 0.
726.95 489.884 0.
640.004 287.623 0.
-99.1732 -1013.74 0.
380.714 105.817 0.
138.657 -458.993 0.
-155.11 -923.027 0.
-212.356 -1054.54 0.
329.073 -821.948 0.
-8.41406 -996.144 0.
4.36662 -966.635 0.
-3.46526 -966.602 0.
-58.7056 -1095.36 0.
-113.946 -1224.11 0.
-256.152 -1274.84 0.
-162.671 -1057.09 0.
-69.1902 -839.337 0.
120.165 -803.028 0.
31.9281 -1008.82 0.
-56.3084 -1214.61 0.
-158.964 -1251.2 0.
-141.973 -1211.47 0.
96.6302 -1099.69 0.
-24.7623 -1384.62 0.
-146.155 -1669.55 0.
108.822 -1700.01 0.
146.562 -1612.07 0.
184.301 -1524.13 0.
3.80905 -1466.17 0.
106.015 -1228.48 0.
208.222 -990.788 0.
-36.7272 -1116.1 0.
-82.4979 -1223.85 0.
143.927 -1215.1 0.
208.552 -1205.29 0.
201.402 -1222.38 0.
236.001 -1247.13 0.
163.55 -1417.85 0.
91.0999 -1588.56 0.
34.2909 -1624.83 0.
115.825 -1434.08 0.
197.36 -1243.33 0.
228.372 -1277.95 0.
146.311 -1470.09 0.
64.25 -1662.22 0.
234.058 -1506.87 0.
294.577 -1364.81 0.
91.8734 -1352.19 0.
76.1269 -1391.53 0.
60.3803 -1430.88 0.
286.92 -1319.58 0.
342.21 -1191.65 0.
397.5 -1063.72 0.
244.771 -1162.84 0.
167.645 -1344.48 0.
90.5189 -1526.13 0.
-70.4707 -1551.44 0.
-17.4914 -1427.24 0.
-110.386 -1366.22 0.
641.321 -1035.99 0.
645.326 -1026.46 0.
167.269 -1226.69 0.
165.607 -1229.32 0.
163.944 -1231.94 0.
139.554 -1317.57 0.
56.6279 -1511.86 0.
-26.2979 -1706.15 0.
-33.8251 -1658.47 0.
45.1924 -1476.11 0.
124.21 -1293.75 0.
57.6105 -1324.98 0.
45.3763 -1352.21 0.
160.491 -1324.29 0.
154.097 -1339.67 0.
147.704 -1355.05 0.
81.4095 -1449.84 0.
-10.3416 -1663.56 0.
-102.093 -1877.28 0.
-271.983 -1894.99 0.
-152.305 -1614.74 0.
-32.6272 -1334.49 0.
-0.747587 -1300.79 0.
-17.5456 -1340.44 0.
140.879 -1304.07 0.
49.3784 -1339.87 0.
52.0612 -1335.28 0.
8.51196 -1348.04 0.
23.1427 -1313.03 0.
37.773 -1278.03 0.
-98.7348 -1325.12 0.
-108.457 -1345.14 0.
-118.178 -1365.16 0.
430.732 -1123.31 0.
441.293 -1097.52 0.
451.853 -1071.73 0.
275.636 -1040.99 0.
334.107 -903.522 0.
-116.325 -995.434 0.
-115.452 -993.024 0.
-114.58 -990.614 0.
89.9395 -877.898 0.
134.775 -774.206 0.
179.61 -670.514 0.
109.677 -675.682 0.
99.436 -700.584 0.
89.1947 -725.486 0.
-64.8618 -713.162 0.
-12.6898 -589.517 0.
706.305 -631.393 0.
290.339 -837.272 0.
303.197 -807.983 0.
-59.4992 -959.792 0.
-115.22 -1088.02 0.
-170.941 -1216.24 0.
28.0573 -1121.26 0.
121.662 -903.355 0.
215.266 -685.453 0.
24.2237 -813.192 0.
-64.1535 -1018.67 0.
-152.531 -1224.15 0.
-127.515 -1206.93 0.
-110.779 -1167.27 0.
100.326 -1066.18 0.
-21.155 -1351.12 0.
-142.636 -1636.06 0.
-8.95138 -1719.37 0.
28.5311 -1631.36 0.
66.0135 -1543.36 0.
116.024 -1385.86 0.
218.539 -1148.29 0.
321.054 -910.725 0.
-92.4563 -1108.59 0.
-138.363 -1216.08 0.
219.033 -1150.95 0.
476.357 -1059.47 0.
469.295 -1076.57 0.
15.6985 -1309.55 0.
-56.5551 -1480.49 0.
-128.808 -1651.43 0.
87.94 -1569.34 0.
169.499 -1378.75 0.
251.058 -1188.16 0.
115.278 -1295.01 0.
33.5241 -1487.15 0.
-48.2303 -1679.29 0.
139.716 -1515.71 0.
200.257 -1373.74 0.
208.787 -1269.79 0.
192.686 -1308.75 0.
176.585 -1347.71 0.
341.543 -1265.92 0.
396.706 -1137.81 0.
451.869 -1009.7 0.
219.329 -1142.57 0.
142.528 -1324.41 0.
65.7271 -1506.24 0.
213.355 -1398.23 0.
266.432 -1274.14 0.
-1982.97 -2136.38 0.
594.25 -1024.29 0.
598.45 -1015.14 0.
-0.123848 -1266.52 0.
-1.73813 -1269.36 0.
-3.35263 -1272.19 0.
208.669 -1255.34 0.
125.968 -1449.8 0.
43.267 -1644.26 0.
-154.952 -1679.96 0.
-75.8925 -1497.63 0.
3.16688 -1315.3 0.
-35.6628 -1333.14 0.
-47.6508 -1360.52 0.
245.489 -1255.93 0.
238.678 -1271.16 0.
231.867 -1286.4 0.
378.262 -1291.16 0.
286.45 -1505.01 0.
194.637 -1718.85 0.
-446.886 -1938.72 0.
-327.008 -1658.51 0.
-207.129 -1378.3 0.
-143.406 -1330.19 0.
-160.107 -1369.82 0.
505.207 -1116.64 0.
129.705 -1274.39 0.
132.608 -1270.06 0.
206.938 -1231.79 0.
221.401 -1196.51 0.
235.865 -1161.22 0.
1.02802 -1251.39 0.
-8.72236 -1271.36 0.
-18.4728 -1291.32 0.
193.199 -1193.61 0.
203.825 -1167.89 0.
214.452 -1142.16 0.
254.446 -1018.42 0.
312.933 -880.739 0.
-3.46931 -916.276 0.
-2.82059 -913.73 0.
-2.17195 -911.186 0.
43.6212 -867.007 0.
88.8751 -763.595 0.
134.129 -660.183 0.
204.781 -603.087 0.
194.781 -628.255 0.
184.781 -653.422 0.
-47.8877 -674.372 0.
4.35017 -550.809 0.
605.04 -513.121 0.
419.368 -643.801 0.
410.064 -665.426 0.
-38.9495 -870.56 0.
-22.5636 -834.676 0.
-6.17737 -798.792 0.
257.692 -703.522 0.
212.954 -806.914 0.
168.216 -910.307 0.
-76.162 -1024 0.
-59.2498 -984.853 0.
-42.3375 -945.708 0.
27.9313 -1067.63 0.
-67.4834 -1291.48 0.
-110.82 -1464.19 0.
-20.9026 -1253.73 0.
69.015 -1043.27 0.
272.819 -855.673 0.
237.613 -937.202 0.
202.408 -1018.73 0.
157.949 -1104.3 0.
123.697 -1185.23 0.
89.4444 -1266.15 0.
-119.207 -1391.67 0.
-132.803 -1422.7 0.
171.582 -1317.46 0.
596.269 -1025 0.
653.877 -891.735 0.
47.0703 -1081.03 0.
21.5824 -1138.3 0.
-3.90543 -1195.57 0.
194.243 -1138.51 0.
195.442 -1137.98 0.
196.641 -1137.46 0.
142.214 -1222.91 0.
94.1805 -1335.15 0.
46.1466 -1447.4 0.
305.189 -1150.05 0.
420.533 -879.626 0.
474.305 -679.944 0.
371.543 -919.819 0.
268.781 -1159.69 0.
247.151 -1244.24 0.
335.341 -1037.65 0.
423.531 -831.057 0.
333.111 -922.294 0.
211.723 -1204.3 0.
90.3357 -1486.31 0.
180.046 -1489.43 0.
188.701 -1468.87 0.
-2965.65 -2804.19 0.
653.767 -1087.4 0.
741.583 -883.678 0.
10.9103 -1061.16 0.
24.285 -1031.21 0.
37.6597 -1001.26 0.
400.699 -823.038 0.
407.9 -803.008 0.
415.101 -782.977 0.
160.118 -874.361 0.
168.112 -853.643 0.
176.106 -832.926 0.
192.486 -903.358 0.
146.955 -1009.83 0.
259.772 -1043.28 0.
236.315 -1097.6 0.
212.858 -1151.91 0.
540.952 -1043.02 0.
534.219 -1058.24 0.
527.487 -1073.45 0.
-250.227 -1366.37 0.
-210.851 -1275.45 0.
-171.476 -1184.52 0.
-77.7709 -1201.65 0.
-124.187 -1312.06 0.
463.307 -1151.54 0.
142.03 -1223.86 0.
176.544 -1143.72 0.
383.917 -972.763 0.
443.355 -832.527 0.
502.794 -692.291 0.
214.231 -780.876 0.
186.715 -847.268 0.
159.198 -913.659 0.
207.754 -890.534 0.
219.425 -864.897 0.
231.095 -839.261 0.
336.889 -732.854 0.
374.224 -647.131 0.
199.523 -653.285 0.
207.887 -635.792 0.
216.251 -618.3 0.
54.4157 -701.081 0.
23.7154 -772.984 0.
-6.98484 -844.888 0.
109.854 -758.248 0.
164.176 -628.672 0.
218.498 -499.095 0.
-104.435 -912.321 0.
-297.546 -1364.36 0.
-83.2244 -778.721 0.
272.143 -675.186 0.
262.627 -696.864 0.
11.3917 -818.163 0.
27.4626 -782.009 0.
43.5338 -745.855 0.
134.726 -724.118 0.
90.1138 -827.67 0.
45.5016 -931.222 0.
24.7916 -950.218 0.
41.4835 -910.956 0.
58.1755 -871.694 0.
264.297 -935.692 0.
168.636 -1159.31 0.
-185.319 -1464.59 0.
-95.503 -1254.01 0.
-5.6869 -1043.43 0.
206.543 -852.837 0.
171.036 -934.039 0.
135.528 -1015.24 0.
-114.331 -1189.7 0.
-148.738 -1270.39 0.
-183.145 -1351.07 0.
202.988 -1222.71 0.
189.306 -1253.68 0.
-131.473 -1416.4 0.
623.337 -982.037 0.
681.113 -848.912 0.
129.049 -1014.41 0.
103.699 -1072.01 0.
78.3482 -1129.62 0.
-15.7195 -1195.85 0.
-14.4948 -1195.55 0.
-13.2698 -1195.24 0.
281.651 -1131.41 0.
233.429 -1243.75 0.
185.207 -1356.09 0.
449.458 -1057.08 0.
565.177 -786.636 0.
425.928 -669.108 0.
322.94 -908.754 0.
219.953 -1148.4 0.
-25.1047 -1329.88 0.
62.8675 -1123.43 0.
150.839 -916.979 0.
432.398 -848.394 0.
311.144 -1130.82 0.
189.889 -1413.24 0.
-55.3277 -1558.43 0.
-46.4688 -1538.15 0.
271.691 -1385.08 0.
943.171 -931.446 0.
1031.2 -727.807 0.
25.4001 -1024.36 0.
38.5376 -994.172 0.
51.6752 -963.983 0.
369.852 -804.793 0.
377.002 -784.803 0.
384.152 -764.812 0.
234.05 -812.345 0.
242.016 -791.573 0.
249.983 -770.801 0.
424.791 -771.622 0.
379.254 -878.213 0.
23.8477 -1112.47 0.
0.814737 -1167.01 0.
-22.2183 -1221.56 0.
416.199 -1064.95 0.
409.584 -1080.2 0.
402.97 -1095.44 0.
-162.739 -1298.03 0.
-123.1 -1207.21 0.
-83.4601 -1116.39 0.
126.122 -1082.76 0.
79.5847 -1193.07 0.
415.321 -1141.33 0.
71.3212 -1223.7 0.
105.861 -1143.78 0.
373.077 -945.949 0.
432.797 -805.821 0.
492.517 -665.693 0.
183.356 -762.254 0.
155.599 -828.471 0.
127.842 -894.688 0.
197.249 -864.549 0.
208.64 -838.692 0.
220.032 -812.834 0.
290.399 -721.532 0.
327.383 -635.392 0.
340.173 -562.818 0.
348.665 -545.34 0.
357.158 -527.862 0.
-20.913 -702.464 0.
-51.2794 -774.664 0.
-81.6457 -846.865 0.
-30.9013 -787.152 0.
23.486 -657.697 0.
77.8731 -528.241 0.
23.9074 -826.418 0.
-169.375 -1278.89 0.
19.9867 773.499 0.
414.048 -31.1451 0.
251.702 -413.787 0.
421.84 78.0804 0.
315.087 -172.381 0.
788.596 931.46 0.
422.659 214.089 0.
368.093 85.2642 0.
573.78 563.421 0.
38.5574 -1077.85 0.
421.17 -185.777 0.
702.436 470.104 0.
895.378 121.518 0.
1240.73 928.945 0.
890.951 1220.53 0.
477.154 255.648 0.
478.044 258.631 0.
395.226 -249.731 0.
607.915 244.697 0.
341.218 -379.266 0.
-106.246 -623.549 0.
92.1194 -160.829 0.
489.869 767.36 0.
1022.7 106.131 0.
983.058 12.3987 0.
318.94 -944.349 0.
950.13 -247.201 0.
1257.1 468.951 0.
533.518 -191.309 0.
612.187 -7.85123 0.
771.792 364.618 0.
466.229 360.956 0.
321.7 23.5556 0.
305.041 -15.4251 0.
1256.64 906.1 0.
811.813 -130.013 0.
1035.88 394.446 0.
1016.87 29.423 0.
946.855 -134.745 0.
560.703 -233.361 0.
552.964 -252.013 0.
490.433 -398.627 0.
687.461 884.485 0.
354.621 107.255 0.
506.952 462.088 0.
1215.4 827.802 0.
863.445 6.83738 0.
1029.95 395.699 0.
446.583 94.9313 0.
766.43 841.797 0.
-1987.57 -632.325 0.
1702.31 317.781 0.
1953.77 903.866 0.
701.813 558.439 0.
730.657 624.272 0.
459.805 -8.94858 0.
643.699 -73.3514 0.
1035.34 840.231 0.
718.349 100.737 0.
544.796 -188.035 0.
793.736 391.238 0.
754.896 298.764 0.
954.066 50.8753 0.
925.118 -17.907 0.
314.406 42.3072 0.
406.253 256.463 0.
243.393 -123.566 0.
911.885 359.826 0.
885.951 300.564 0.
997.338 561.727 0.
577.889 289.778 0.
574.803 283.795 0.
721.22 626.947 0.
790.665 101.896 0.
505.685 -561.087 0.
867.324 153.013 0.
314.158 -494.197 0.
717.457 448.227 0.
567.564 -437.855 0.
632.676 -286.416 0.
899.556 335.799 0.
1025.02 1283.97 0.
726.629 588.054 0.
387.466 -202.763 0.
750.8 482.345 0.
923.435 885.745 0.
1365.79 1918.35 0.
647.182 228.059 0.
363.661 -432.465 0.
750.005 154.862 0.
733.623 119.226 0.
335.134 -808.204 0.
261.667 116.777 0.
59.3331 -352.602 0.
448.882 558.603 0.
402.648 525.058 0.
336.811 371.232 0.
581.571 942.846 0.
884.348 961.779 0.
630.63 372.019 0.
-112.903 -750.304 0.
235.244 -608.741 0.
212.525 -664.704 0.
-72.9891 -825.067 0.
-77.9518 -837.458 0.
-82.9145 -849.849 0.
20.7566 -802.462 0.
31.4051 -778.429 0.
42.0539 -754.395 0.
212.909 -726.185 0.
170.622 -825.263 0.
128.336 -924.34 0.
344.82 -852.94 0.
339.187 -866.056 0.
-4.00868 -1020.1 0.
2.2807 -1005.51 0.
8.57013 -990.929 0.
47.5856 -944.654 0.
82.9054 -864.171 0.
118.225 -783.688 0.
-84.6854 -933.697 0.
-177.365 -1150.43 0.
-270.045 -1367.17 0.
276.865 -1178.94 0.
274.794 -1186.07 0.
447.331 -1118.32 0.
463.863 -1011.05 0.
520.561 -877.679 0.
256.183 -899.949 0.
258.347 -895.926 0.
260.511 -891.903 0.
8.26624 -1086.1 0.
-99.6289 -1337.52 0.
-207.524 -1588.94 0.
126.715 -1351.15 0.
258.425 -1042.97 0.
390.134 -734.795 0.
652.903 -768.306 0.
550.1 -1009.05 0.
53.7696 -1387.53 0.
113.809 -1249.1 0.
173.849 -1110.68 0.
10.0651 -1094.61 0.
26.221 -1056.96 0.
42.3768 -1019.31 0.
338.026 -916.179 0.
302.321 -1000.6 0.
266.616 -1085.02 0.
180.38 -1093.86 0.
208.607 -1028.18 0.
-1327.54 -1634.29 0.
975.82 -820.661 0.
884.111 -1033.67 0.
-60.0453 -1549.85 0.
-5.81791 -1423.17 0.
48.4096 -1296.49 0.
134.445 -1202.76 0.
136.429 -1196.84 0.
138.414 -1190.91 0.
86.2977 -1236.3 0.
66.9765 -1282.93 0.
47.6554 -1329.56 0.
312.09 -1145 0.
356.897 -1040.45 0.
1.93463 -1112.34 0.
14.3264 -1083.66 0.
26.7178 -1054.99 0.
75.3362 -1025.95 0.
66.9448 -1044.99 0.
58.5532 -1064.04 0.
71.8701 -1155.64 0.
-9.27351 -1343.82 0.
-90.4168 -1532 0.
109.018 -1445.7 0.
129.418 -1395.7 0.
235.962 -1303.12 0.
1.58418 -1226.56 0.
93.1622 -1010.31 0.
290.627 -819.87 0.
235.692 -948.106 0.
180.757 -1076.34 0.
-131.145 -1201.57 0.
-55.4726 -1024.04 0.
20.1997 -846.507 0.
258.616 -746.206 0.
222.826 -828.887 0.
187.035 -911.568 0.
219.388 -926.033 0.
202.953 -963.024 0.
178.554 -1013.16 0.
149.452 -1078.27 0.
120.35 -1143.38 0.
-145.029 -1185.18 0.
-0.0784716 -844.457 0.
144.872 -503.735 0.
-112.927 -605.129 0.
-206.419 -823.25 0.
-299.912 -1041.37 0.
258.084 -612.1 0.
406.621 -265.235 0.
542.211 -435.649 0.
336.22 -533.829 0.
313.302 -589.922 0.
-188.35 -842.906 0.
-193.626 -855.18 0.
-198.901 -867.454 0.
78.1505 -746.437 0.
88.4967 -722.201 0.
98.8432 -697.965 0.
258.218 -676.295 0.
215.743 -775.287 0.
173.267 -874.279 0.
197.75 -884.439 0.
192.222 -897.645 0.
93.9265 -945.586 0.
100.26 -931.015 0.
106.594 -916.444 0.
3.7642 -931.953 0.
39.0148 -851.09 0.
74.2654 -770.227 0.
120.774 -814.855 0.
28.0563 -1031.76 0.
-64.6614 -1248.66 0.
55.0254 -1242.55 0.
52.7781 -1249.81 0.
1012.21 -845.026 0.
287.336 -1054.46 0.
343.968 -921.422 0.
307.16 -847.528 0.
309.096 -843.547 0.
311.031 -839.566 0.
223.263 -962.306 0.
115.941 -1214.34 0.
8.61833 -1466.38 0.
-54.407 -1394.59 0.
77.522 -1086.83 0.
209.451 -779.059 0.
642.453 -742.224 0.
539.491 -982.713 0.
55.1981 -1356.2 0.
115.316 -1217.65 0.
175.433 -1079.1 0.
234.063 -967.052 0.
250.155 -929.286 0.
266.247 -891.521 0.
196.46 -945.586 0.
160.781 -1029.9 0.
125.103 -1114.21 0.
496.121 -927.081 0.
524.36 -861.275 0.
-348.328 -1182.97 0.
700.438 -906.901 0.
608.963 -1119.75 0.
129.762 -1437.39 0.
183.912 -1310.93 0.
238.063 -1184.47 0.
119.491 -1177.33 0.
121.562 -1171.7 0.
123.633 -1166.07 0.
91.5301 -1202.46 0.
72.1812 -1249.17 0.
52.8324 -1295.89 0.
168.153 -1175.32 0.
212.742 -1070.82 0.
243.041 -977.343 0.
255.966 -949.097 0.
268.89 -920.851 0.
-207.144 -1114.79 0.
-215.185 -1134.03 0.
-223.226 -1153.27 0.
227.698 -1058.32 0.
146.919 -1246.61 0.
66.1396 -1434.9 0.
100.589 -1417.87 0.
121.467 -1368.22 0.
288.957 -1248.49 0.
19.5751 -1187.35 0.
111.436 -971.386 0.
167.576 -841.121 0.
112.699 -969.326 0.
57.8224 -1097.53 0.
-227.562 -1211.83 0.
-151.847 -1034.38 0.
-76.1324 -856.919 0.
318.125 -688.475 0.
282.42 -771.163 0.
246.714 -853.852 0.
316.911 -853.332 0.
300.404 -890.159 0.
107.918 -1012.08 0.
78.8945 -1077.01 0.
49.8716 -1141.93 0.
57.2529 -1067.4 0.
202.212 -726.518 0.
347.171 -385.633 0.
-135.442 -583.516 0.
-228.812 -801.935 0.
-322.181 -1020.35 0.
334.175 -547.701 0.
483.117 -201.825 0.
564.597 -364.189 0.
257.712 -596.687 0.
225.157 -670.265 0.
-177.304 -864.9 0.
-109.942 -706.906 0.
-42.579 -548.912 0.
137.793 -498.036 0.
13.7829 -787.958 0.
-110.227 -1077.88 0.
116.844 -985.242 0.
182.461 -833.2 0.
248.078 -681.158 0.
196.745 -746.581 0.
160.484 -831.312 0.
103.44 -901.693 0.
182.362 -716.393 0.
261.284 -531.094 0.
142.05 -523.748 0.
68.1785 -694.601 0.
-5.69315 -865.454 0.
234.282 -775.308 0.
285.354 -655.91 0.
336.426 -536.513 0.
217.687 -548.408 0.
231.871 -514.876 0.
1117.94 -107.611 0.
455.665 -504.672 0.
388.483 -660.406 0.
370.764 -781.988 0.
351.676 -826.914 0.
332.588 -871.84 0.
334.316 -892.76 0.
332.146 -896.503 0.
329.977 -900.245 0.
12.0284 -1093.07 0.
-28.9623 -1189.74 0.
-69.9531 -1286.41 0.
401.641 -1158.27 0.
359.404 -1256.06 0.
-2.36075 -1461.88 0.
92.008 -1241.13 0.
186.377 -1020.37 0.
429.925 -843.091 0.
352.478 -1024.19 0.
275.031 -1205.28 0.
23.4028 -1319.6 0.
81.0983 -1183.84 0.
138.794 -1048.09 0.
519.669 -909.989 0.
489.407 -981.379 0.
161.977 -1178.92 0.
619.272 -984.134 0.
618.278 -985.839 0.
290.728 -1114.67 0.
314.139 -1061.47 0.
337.55 -1008.27 0.
152.667 -1080.45 0.
132.745 -1127.18 0.
112.823 -1173.9 0.
51.7539 -1180.48 0.
75.0729 -1125.92 0.
98.392 -1071.35 0.
278.105 -918.72 0.
319.872 -819.274 0.
370.031 -738.725 0.
323.811 -845.458 0.
277.593 -952.191 0.
-284.796 -1261.26 0.
-297.742 -1291.13 0.
-310.688 -1320.99 0.
308.599 -964.646 0.
395.929 -759.676 0.
483.259 -554.707 0.
353.461 -668.188 0.
290.851 -814.139 0.
460.454 -866.916 0.
108.369 -980.674 0.
128.88 -934.836 0.
49.1873 -895.401 0.
137.816 -689.352 0.
226.445 -483.302 0.
66.4942 -518.183 0.
8.23919 -655.03 0.
-50.016 -791.877 0.
296.155 -692.778 0.
281.756 -727.813 0.
267.356 -762.847 0.
363.774 -705.823 0.
379.281 -671.545 0.
216.03 -703.634 0.
248.723 -629.997 0.
281.416 -556.36 0.
265.582 -558.702 0.
224.335 -656.672 0.
183.087 -754.643 0.
-76.6087 -811.703 0.
1.70521 -630.187 0.
80.0188 -448.671 0.
226.525 -438.153 0.
174.355 -558.924 0.
-58.774 -603.451 0.
67.8943 -646.771 0.
35.4837 -720.482 0.
20.4379 -748.416 0.
87.7348 -590.392 0.
155.032 -432.368 0.
2.68999 -523.922 0.
-121.036 -814.045 0.
-244.761 -1104.17 0.
83.6142 -968.963 0.
149.176 -816.848 0.
214.739 -664.733 0.
228.979 -700.285 0.
192.636 -785.184 0.
19.9416 -906.06 0.
98.2549 -720.469 0.
176.568 -534.878 0.
128.735 -498.615 0.
55.0787 -669.535 0.
-18.5773 -840.455 0.
301.094 -714.769 0.
352.241 -595.366 0.
403.389 -475.964 0.
148.369 -546.113 0.
162.726 -512.847 0.
807.16 -209.485 0.
504.398 -452.447 0.
437.169 -607.971 0.
437.077 -721.99 0.
418.112 -766.896 0.
399.147 -811.802 0.
346.612 -856.863 0.
344.364 -860.536 0.
342.116 -864.209 0.
76.1346 -1033.27 0.
35.0215 -1129.86 0.
-6.09159 -1226.44 0.
286.803 -1176.66 0.
244.461 -1274.13 0.
-1.71396 -1431.24 0.
92.4745 -1209.98 0.
186.663 -988.718 0.
586.217 -745.91 0.
508.71 -926.565 0.
431.203 -1107.22 0.
160.461 -1229.24 0.
218.515 -1093.5 0.
276.568 -957.766 0.
267.661 -986.88 0.
237.34 -1058 0.
592.821 -962.607 0.
818.167 -866.819 0.
816.824 -868.323 0.
188.41 -1127.79 0.
211.589 -1074.33 0.
234.768 -1020.87 0.
183.645 -1036.66 0.
163.489 -1083.13 0.
143.333 -1129.59 0.
-45.6384 -1191.86 0.
-22.1248 -1137.68 0.
1.38883 -1083.5 0.
458.404 -808.974 0.
500.097 -709.813 0.
218.327 -770.914 0.
172.573 -877.937 0.
126.819 -984.961 0.
-10.626 -1112.24 0.
-23.4018 -1142.26 0.
-36.1778 -1172.27 0.
287.398 -942.334 0.
374.701 -737.097 0.
462.004 -531.861 0.
229.134 -690.932 0.
166.503 -836.802 0.
434.077 -845.596 0.
123.419 -941.726 0.
143.865 -896.022 0.
-23.0429 -894.321 0.
65.636 -688.457 0.
154.315 -482.593 0.
195.321 -431.984 0.
136.847 -568.77 0.
78.3728 -705.556 0.
220.9 -692.744 0.
206.764 -728.158 0.
192.628 -763.571 0.
261.957 -718.662 0.
277.581 -684.375 0.
268.159 -650.103 0.
301.154 -576.344 0.
334.151 -502.584 0.
84.1672 -604.568 0.
43.0051 -702.541 0.
1.84292 -800.514 0.
354.563 -595.993 0.
432.804 -414.487 0.
511.045 -232.981 0.
-178.994 -581.06 0.
-231.731 -702.697 0.
-302.272 37.3667 0.
473.189 685.848 0.
1.4698 -414.917 0.
791.434 709.369 0.
280.502 -483.668 0.
584.697 225.773 0.
273.246 393.565 0.
586.624 1125.47 0.
75.5583 -66.5913 0.
135.321 -760.485 0.
364.485 -225.159 0.
467.307 15.6003 0.
542.826 5.28281 0.
950.337 956.924 0.
829.212 1178.7 0.
278.573 -108.277 0.
271.079 -127.462 0.
493.233 408.973 0.
707.651 908.798 0.
500.563 425.164 0.
557.457 -204.512 0.
755.526 257.819 0.
947.774 706.514 0.
393.331 179.829 0.
927.718 1425.61 0.
1061.68 637.664 0.
604.974 -280.429 0.
614.4 -259.279 0.
363.053 -1001.01 0.
925.941 314.366 0.
705.671 -197.26 0.
297.494 -959.248 0.
868.193 373.322 0.
1134.43 995.478 0.
619.962 142.04 0.
561.018 5.63591 0.
726.363 392.412 0.
887.036 478.417 0.
958.414 644.953 0.
872.446 634.661 0.
788.252 442.08 0.
661.176 149.564 0.
1057.08 83.6838 0.
861.423 -372.097 0.
641.484 -884.6 0.
547.936 -556.303 0.
700.83 -199.83 0.
741.131 -106.235 0.
410.764 -137.142 0.
649.746 419.084 0.
-790.899 -483.717 0.
1609.85 630.222 0.
1249.88 -209.731 0.
173.668 -937.752 0.
358.706 -505.198 0.
465.525 -255.296 0.
682.932 97.7517 0.
1029.39 907.72 0.
732.275 216.117 0.
339.698 -80.9348 0.
241.348 -311.449 0.
625.618 583.837 0.
964.207 61.5381 0.
1041.52 240.596 0.
620.233 485.316 0.
500.388 207.977 0.
566.615 364.671 0.
780.094 236.386 0.
1180.28 1171.3 0.
890.043 495.431 0.
698.988 88.5887 0.
1035.92 875.883 0.
1112.99 1056.71 0.
153.968 -608.524 0.
-13.2436 -1000.67 0.
1321.41 1507.6 0.
494.201 -73.1589 0.
514.159 -29.1099 0.
488.275 473.285 0.
48.6322 -554.95 0.
352.497 151.209 0.
184.827 -672.663 0.
279.696 -451.95 0.
363.121 -257.643 0.
314.278 -299.199 0.
735.892 685.015 0.
590.836 347.348 0.
644.589 392.137 0.
233.912 -566.974 0.
636.229 136.259 0.
820.703 567.024 0.
577.938 0.69029 0.
-128.64 -734.518 0.
280.12 218.846 0.
-37.461 -522.763 0.
1026.69 195.626 0.
858.95 -194.435 0.
983.825 96.8714 0.
-553.924 -679.632 0.
-41.2625 513.829 0.
-565.566 -933.641 0.
-39.9933 -651.027 0.
-31.7455 -632.117 0.
-3.36844 -625.907 0.
-51.9186 -740.591 0.
-100.469 -855.275 0.
-129.38 -863.332 0.
-59.797 -699.763 0.
9.78586 -536.195 0.
226.619 -542.261 0.
108.545 -817.342 0.
-9.52967 -1092.42 0.
125.381 -928.573 0.
208.911 -733.327 0.
220.249 -594.09 0.
168.822 -718.254 0.
117.395 -842.418 0.
-108.45 -982.138 0.
-70.5767 -894.451 0.
-32.7037 -806.764 0.
274.81 -690.881 0.
227.914 -800.378 0.
181.018 -909.875 0.
-195.757 -1160.45 0.
-245.423 -1276.37 0.
358.076 -1112.56 0.
94.4206 -1196.55 0.
116.641 -1145.99 0.
402.714 -965.717 0.
449.613 -855.53 0.
496.512 -745.342 0.
446.222 -738.58 0.
417.706 -805.015 0.
389.189 -871.45 0.
75.3875 -986.698 0.
105.915 -915.351 0.
136.443 -844.004 0.
521.263 -565.992 0.
586.061 -415.144 0.
470.867 -377.501 0.
354.787 -650.629 0.
238.708 -923.757 0.
448.931 -982.723 0.
453.257 -974.014 0.
457.584 -965.304 0.
481.722 -875.955 0.
554.844 -707.616 0.
627.966 -539.277 0.
96.6179 -820.376 0.
41.5065 -951.542 0.
201.331 -992.208 0.
890.132 -691.362 0.
892.824 -685.025 0.
263.63 -963.282 0.
233.178 -1034.95 0.
202.725 -1106.62 0.
39.5309 -1139.24 0.
119.164 -953.763 0.
198.798 -768.282 0.
181.713 -808.347 0.
117.316 -956.995 0.
52.9193 -1105.64 0.
393.055 -1021.21 0.
364.373 -1089.73 0.
-109.238 -1319.75 0.
-12.2692 -1091.63 0.
84.6991 -863.513 0.
348.177 -644.298 0.
318.422 -713.201 0.
288.666 -782.104 0.
129.475 -911.686 0.
98.3196 -985.755 0.
67.1647 -1059.82 0.
195.474 -958.623 0.
236.086 -866.202 0.
649.607 -609.962 0.
59.236 -943.241 0.
17.228 -1041.48 0.
-149.952 -1173.16 0.
-134.92 -1140.71 0.
-119.888 -1108.25 0.
29.2928 -1062.91 0.
-12.115 -1160.37 0.
-53.5226 -1257.83 0.
-215.707 -1207.78 0.
-102.092 -941.71 0.
11.5239 -675.643 0.
365.709 -392.808 0.
428.969 -245.912 0.
309.938 -207.789 0.
262.819 -316.509 0.
215.7 -425.23 0.
24.8813 -551.381 0.
39.9294 -516.43 0.
54.9774 -481.479 0.
684.974 -251.778 0.
641.326 -353.465 0.
597.677 -455.152 0.
-218.249 -636.026 0.
-100.773 -363.73 0.
-363.297 -818.686 0.
49.9542 -581.824 0.
58.3327 -562.902 0.
-258.741 -703.684 0.
-306.981 -818.568 0.
-355.223 -933.452 0.
53.3414 -753.406 0.
123.095 -589.983 0.
192.848 -426.559 0.
239.526 -505.534 0.
121.639 -780.846 0.
3.75159 -1056.16 0.
120.368 -898.667 0.
203.725 -703.564 0.
427.054 -473.973 0.
375.122 -597.583 0.
323.19 -721.193 0.
-97.8522 -947.192 0.
-60.1403 -859.226 0.
-22.4283 -771.261 0.
200.186 -692.377 0.
153.221 -801.756 0.
106.256 -911.135 0.
-197.828 -1129.82 0.
-248.041 -1245.27 0.
917.893 -839.881 0.
-34.1132 -1222.07 0.
-11.9244 -1171.52 0.
450.412 -912.649 0.
497.981 -802.94 0.
545.549 -693.231 0.
526.506 -672.714 0.
498.54 -739.524 0.
470.574 -806.334 0.
19.7059 -977.263 0.
50.3668 -906.036 0.
81.0278 -834.809 0.
636.115 -486.489 0.
700.612 -335.262 0.
530.44 -320.675 0.
414.275 -593.464 0.
298.11 -866.254 0.
279.949 -1024.72 0.
284.535 -1016.09 0.
289.121 -1007.47 0.
586.325 -799.721 0.
659.283 -631.273 0.
732.242 -462.824 0.
90.5971 -792.442 0.
35.2173 -923.43 0.
-679.948 -1338.12 0.
717.16 -733.866 0.
719.852 -727.619 0.
404.294 -871.589 0.
374.273 -943.781 0.
344.252 -1015.97 0.
-83.0427 -1160.77 0.
-3.61927 -975.096 0.
75.804 -789.423 0.
384.676 -690.577 0.
320.309 -839.555 0.
255.941 -988.534 0.
278.707 -1038.68 0.
250.289 -1107.1 0.
-37.1799 -1256.73 0.
60.1969 -1028.85 0.
157.573 -800.966 0.
298.461 -634.241 0.
268.805 -703.272 0.
239.149 -772.303 0.
-27.284 -947.603 0.
-58.2038 -1021.94 0.
-89.1234 -1096.28 0.
448.304 -818.951 0.
489 -726.931 0.
91.1175 -817.686 0.
-0.0310806 -937.108 0.
-42.1041 -1035.49 0.
-53.6476 -1100.65 0.
-38.6987 -1068.07 0.
-23.7497 -1035.49 0.
59.1361 -1019.25 0.
18.0261 -1116.97 0.
-23.0838 -1214.69 0.
-372.956 -1242.83 0.
-258.954 -977.369 0.
-144.952 -711.904 0.
452.62 -324.715 0.
515.685 -177.628 0.
104.318 -263.93 0.
57.2695 -372.462 0.
10.2211 -480.994 0.
134.125 -473.927 0.
148.848 -438.438 0.
163.57 -402.949 0.
516.968 -293.101 0.
473.294 -394.918 0.
429.62 -496.735 0.
187.762 -429.591 0.
305.015 -157.256 0.
-199.186 -628.763 0.
91.7719 -523.124 0.
103.594 -494.77 0.
-226.198 -611.603 0.
-212.801 -579.493 0.
-199.405 -547.383 0.
302.87 -363.059 0.
244.024 -499.619 0.
185.179 -636.178 0.
116.406 -639.147 0.
170.09 -514.415 0.
223.774 -389.683 0.
272.114 -471.515 0.
202.489 -633.953 0.
349.995 -679.865 0.
418.565 -518.101 0.
487.134 -356.338 0.
131.777 -453.547 0.
70.8825 -593.973 0.
9.98847 -734.399 0.
246.267 -666.027 0.
266.239 -620.305 0.
286.211 -574.582 0.
-76.2914 -695.365 0.
-52.1959 -640.886 0.
1222.41 -50.4425 0.
186.801 -758.187 0.
39.1702 -1100.25 0.
281.783 -1191 0.
360.284 -1004.98 0.
438.786 -818.965 0.
470.746 -691.819 0.
501.45 -617.624 0.
532.153 -543.43 0.
196.894 -679.388 0.
189.338 -698.355 0.
181.781 -717.322 0.
688.788 -517.451 0.
677.347 -545.453 0.
334.589 -720.375 0.
310.026 -778.121 0.
285.463 -835.867 0.
320.021 -816.986 0.
371.725 -694.504 0.
423.43 -572.022 0.
735 -453.083 0.
682.377 -575.08 0.
629.753 -697.077 0.
51.2515 -910.082 0.
89.4226 -821.338 0.
-219.486 -882.791 0.
700.597 -537.3 0.
675.545 -596.727 0.
446.446 -719.741 0.
474.905 -652.894 0.
503.364 -586.048 0.
97.7696 -787.562 0.
35.0893 -935.998 0.
-27.5913 -1084.43 0.
283.857 -923.343 0.
336.885 -799.558 0.
389.914 -675.773 0.
410.589 -718.599 0.
375.788 -800.152 0.
138.699 -940.269 0.
226.819 -733.972 0.
314.939 -527.674 0.
332.557 -451.995 0.
270.044 -598.779 0.
207.531 -745.562 0.
-31.0027 -869.296 0.
-5.09475 -806.274 0.
20.8131 -743.253 0.
665.644 -348.05 0.
737.374 -179.296 0.
316.808 -226.781 0.
135.001 -466.531 0.
49.9452 -664.726 0.
157.578 -769.193 0.
89.2423 -924.51 0.
20.9061 -1079.83 0.
16.0992 -1040.92 0.
140.125 -748.765 0.
264.151 -456.606 0.
-69.7473 -539.643 0.
-80.1501 -564.345 0.
-90.5533 -589.048 0.
356.114 -468.012 0.
319.343 -554.193 0.
-112.901 -790.564 0.
-68.2755 -687.272 0.
-23.6499 -583.98 0.
113.152 -473.865 0.
105.449 -492.369 0.
97.7463 -510.874 0.
376.213 -384.878 0.
384.986 -364.734 0.
393.759 -344.59 0.
341.356 -353.437 0.
354.414 -323.46 0.
-174.459 -586.007 0.
74.8091 -500.334 0.
86.5506 -471.641 0.
31.4909 -469.224 0.
45.1907 -437.331 0.
58.8898 -405.438 0.
351.59 -310.692 0.
292.736 -447.342 0.
233.882 -583.992 0.
-24.6863 -668.198 0.
29.0932 -543.616 0.
82.8725 -419.034 0.
238.112 -455.134 0.
168.6 -617.7 0.
197.198 -713.747 0.
265.809 -551.917 0.
334.42 -390.088 0.
191.599 -397.001 0.
130.697 -537.433 0.
69.7941 -677.865 0.
423.954 -558.396 0.
444.222 -512.979 0.
464.49 -467.561 0.
-190.23 -711.291 0.
-165.993 -657.027 0.
393.501 -373.205 0.
400.832 -636.557 0.
253.348 -978.841 0.
146.124 -1216.64 0.
224.881 -1030.97 0.
303.638 -845.288 0.
306.798 -730.365 0.
337.814 -656.245 0.
368.83 -582.126 0.
405.285 -557.525 0.
397.847 -576.506 0.
390.41 -595.487 0.
772.518 -451.231 0.
760.924 -478.88 0.
242.305 -727.536 0.
218.004 -785.584 0.
193.702 -843.631 0.
394.612 -754.762 0.
446.542 -632.578 0.
498.472 -510.394 0.
654.83 -454.85 0.
602.383 -577.366 0.
549.935 -699.881 0.
107.272 -854.657 0.
145.527 -766.074 0.
72.97 -726.097 0.
670.563 -518.154 0.
644.896 -577.154 0.
278.707 -760.015 0.
307.269 -693.208 0.
335.831 -626.4 0.
303.561 -668.071 0.
240.933 -816.579 0.
178.305 -965.086 0.
112.309 -965.256 0.
165.45 -841.686 0.
218.59 -718.117 0.
547.858 -628.266 0.
513.117 -709.747 0.
192.346 -885.842 0.
280.596 -679.502 0.
368.847 -473.161 0.
305.569 -433.395 0.
243.232 -580.251 0.
180.894 -727.107 0.
66.05 -795.178 0.
91.991 -732.386 0.
117.932 -669.594 0.
490.296 -391.287 0.
561.788 -222.741 0.
421.487 -149.82 0.
62.9937 -465.623 0.
-22.0112 -663.761 0.
255.719 -696.669 0.
187.774 -852.505 0.
119.829 -1008.34 0.
-70.3868 -1046.06 0.
53.8156 -753.984 0.
178.017 -461.907 0.
116.158 -428.351 0.
106.163 -453.429 0.
96.1683 -478.508 0.
224.157 -492.287 0.
187.53 -578.398 0.
146.194 -648.072 0.
190.818 -544.433 0.
235.441 -440.795 0.
-8.00747 -494.66 0.
-15.6872 -513.152 0.
-23.3672 -531.645 0.
326.21 -375.209 0.
334.851 -355.14 0.
343.492 -335.071 0.
283.265 -347.294 0.
296.176 -317.479 0.
-231.659 -729.71 0.
410.488 348.895 0.
318.111 132.139 0.
785.519 833.135 0.
773.353 807.794 0.
724.066 695.148 0.
223.825 -670.571 0.
506.531 -13.0091 0.
421.801 -212.23 0.
44.9101 -205.828 0.
-132.517 -619.593 0.
-83.6567 -505.491 0.
650.97 598.641 0.
605.842 492.583 0.
692.487 765.062 0.
450.348 201.068 0.
288.964 -174.575 0.
420.745 58.8376 0.
404.972 20.9638 0.
348.107 -112.91 0.
715.14 -176.214 0.
789.509 -2.77703 0.
1081.29 677.894 0.
-46.9534 -131.724 0.
-186.733 -460.85 0.
-113.234 -52.3025 0.
775.067 -141.132 0.
908.244 170.124 0.
502.888 -92.7223 0.
299.553 -567.011 0.
481.241 -142.728 0.
708.385 551.822 0.
702.534 539.312 0.
767.394 691.726 0.
846.51 104.701 0.
448.42 -823.58 0.
925.252 288.938 0.
1254.33 542.187 0.
839.167 -426.644 0.
323.067 -330.545 0.
452.292 -29.5971 0.
506.992 97.5008 0.
861.547 216.15 0.
854.25 198.934 0.
709.845 -137.914 0.
622.903 -341.443 0.
477.263 -682.144 0.
220.171 -1282.57 0.
212.611 -677.384 0.
549.346 107.71 0.
-1434.65 -1224.88 0.
828.113 -67.0063 0.
972.317 269.012 0.
805.019 820.129 0.
443.084 -24.4004 0.
454.024 1.30596 0.
509.044 -551.985 0.
636.001 -254.674 0.
799.633 128.396 0.
46.1086 -762.648 0.
228.643 -335.255 0.
616.285 570.552 0.
1086.07 391.581 0.
836.658 -190.384 0.
680.54 183.952 0.
446.106 -361.11 0.
440.362 -372.63 0.
397.5 -141.94 0.
504.167 105.924 0.
339.318 -279.919 0.
450.985 -47.3487 0.
478.61 18.1984 0.
426.729 -102.478 0.
579.239 178.385 0.
300.566 -470.274 0.
290.986 -157.01 0.
199.06 16.9259 0.
-74.8999 -618.795 0.
724.372 243.708 0.
495.924 -288.984 0.
936.69 739.845 0.
497.492 476.318 0.
597.405 707.858 0.
346.354 120.602 0.
514.81 183.452 0.
264.235 -401.941 0.
313.261 -288.379 0.
136.908 -413.371 0.
-80.2901 -920.197 0.
508.203 -261.022 0.
481.836 -321.553 0.
922.306 706.871 0.
151.98 136.061 0.
498.891 945.741 0.
659.025 1319.53 0.
903.831 1103.15 0.
467.131 81.4149 0.
869.041 1017.7 0.
-97.4668 -1092.04 0.
40.858 -769.959 0.
-233.254 -688.144 0.
-0.277897 -490.158 0.
30.6915 -418.815 0.
259.397 -298.944 0.
199.659 -436.111 0.
139.92 -573.277 0.
260.056 -598.342 0.
243.411 -639.594 0.
226.766 -680.845 0.
9.40616 -759.823 0.
34.3619 -700.887 0.
59.3177 -641.952 0.
74.0486 -454.758 0.
175.055 -217.052 0.
395.762 27.776 0.
260.613 -288.647 0.
125.465 -605.071 0.
69.3137 -745.547 0.
165.252 -522.608 0.
261.191 -299.669 0.
500.516 -229.051 0.
385.985 -495.486 0.
271.455 -761.919 0.
-194.55 -951.665 0.
-150.638 -850.756 0.
438.195 -515.922 0.
450.463 -502.035 0.
456.212 -487.8 0.
329.225 -576.333 0.
216.873 -840.76 0.
104.522 -1105.19 0.
-94.2919 -1285.49 0.
-57.2405 -1200.14 0.
-20.1891 -1114.8 0.
429.998 -881.077 0.
438.348 -859.3 0.
446.697 -837.522 0.
565.589 -693.646 0.
619.702 -567.063 0.
330.545 -599.53 0.
332.018 -596.707 0.
333.492 -593.884 0.
496.315 -607.347 0.
363.872 -916.899 0.
231.43 -1226.45 0.
98.7435 -1210.33 0.
276.057 -800.195 0.
453.37 -390.055 0.
388.222 -534.083 0.
259.981 -832.708 0.
71.0896 -1157.04 0.
474.084 -796.31 0.
572.801 -566.444 0.
105.475 -639.207 0.
60.5164 -743.882 0.
15.5577 -848.556 0.
397.895 -708.046 0.
426.855 -640.725 0.
455.814 -573.403 0.
241.329 -631.866 0.
253.614 -601.856 0.
265.899 -571.846 0.
721.272 -400.971 0.
704.617 -438.941 0.
195.998 -701.663 0.
124.777 -866.833 0.
53.5566 -1032 0.
42.2399 -1039.66 0.
169.999 -740.909 0.
297.759 -442.161 0.
357.018 -373.253 0.
301.575 -500.887 0.
246.132 -628.52 0.
7.14781 -824.419 0.
-41.9332 -938.844 0.
156.039 -943.837 0.
29.4023 -780.383 0.
142.852 -514.413 0.
346.012 -306.055 0.
250.427 -529.696 0.
154.843 -753.337 0.
-128.029 -984.376 0.
-136.674 -1005.85 0.
-145.319 -1027.32 0.
11.4153 -977.91 0.
1.00812 -1002.91 0.
-9.39921 -1027.91 0.
-30.9961 -1005.6 0.
-10.2211 -957.818 0.
154.984 -848.741 0.
158.969 -838.627 0.
162.954 -828.512 0.
-272.868 -985.339 0.
-235.439 -898.064 0.
-198.01 -810.788 0.
181.353 -536.009 0.
261.448 -349.144 0.
341.543 -162.279 0.
5.9412 -526.895 0.
-164.902 -924.605 0.
-241.024 -663.107 0.
-47.06 -478.576 0.
-15.9973 -407.466 0.
226.352 -281.215 0.
166.942 -418.649 0.
107.532 -556.081 0.
282.274 -556.765 0.
265.658 -598.291 0.
249.042 -639.817 0.
272.412 -616.457 0.
297.029 -557.112 0.
321.646 -497.768 0.
-66.5659 -483.929 0.
34.3262 -246.028 0.
436.444 75.9605 0.
300.879 -240.109 0.
165.314 -556.179 0.
79.7048 -710.747 0.
175.447 -487.866 0.
271.19 -264.984 0.
282.232 -290.717 0.
167.836 -557.402 0.
53.4398 -824.086 0.
71.0641 -805.987 0.
115.35 -705.408 0.
1002.56 -242.933 0.
257.379 -552.967 0.
263.651 -539.135 0.
387.284 -519.597 0.
274.844 -783.97 0.
162.404 -1048.34 0.
-95.5204 -1253.63 0.
-58.0464 -1168.65 0.
-20.5723 -1083.67 0.
453.827 -838.624 0.
462.882 -817.588 0.
471.938 -796.552 0.
387.413 -738.25 0.
441.271 -611.2 0.
495.957 -498.279 0.
497.274 -495.482 0.
498.59 -492.685 0.
500.41 -575.284 0.
368.04 -884.904 0.
235.67 -1194.52 0.
-73.822 -1252.73 0.
103.732 -843.024 0.
281.286 -433.319 0.
546.901 -433.649 0.
418.81 -732.582 0.
782.535 -820.489 0.
439.812 -779.659 0.
538.311 -549.644 0.
32.0207 -639.658 0.
-12.993 -744.408 0.
-58.0069 -849.159 0.
361.385 -692.083 0.
390.462 -624.968 0.
419.538 -557.853 0.
428.398 -520.685 0.
440.477 -490.355 0.
452.556 -460.025 0.
706.565 -375.707 0.
689.715 -413.441 0.
85.2308 -718.24 0.
13.9934 -883.311 0.
-57.2442 -1048.38 0.
94.8762 -986.056 0.
222.79 -687.459 0.
350.704 -388.862 0.
428.919 -310.547 0.
373.356 -438.1 0.
317.792 -565.651 0.
-149.455 -860.385 0.
-198.367 -974.93 0.
312.039 -844.875 0.
255.754 -651.735 0.
369.634 -386.18 0.
187.36 -341.757 0.
91.8198 -565.503 0.
-3.71986 -789.248 0.
-110.07 -946.506 0.
-119.041 -967.595 0.
-128.012 -988.684 0.
22.8811 -940.952 0.
12.6805 -966.219 0.
2.47969 -991.487 0.
92.0215 -920.936 0.
113.143 -873.255 0.
44.5372 -863.641 0.
48.8366 -853.766 0.
53.1362 -843.89 0.
-186.178 -917.098 0.
-148.996 -829.519 0.
-111.813 -741.939 0.
172.029 -509.167 0.
251.701 -322.047 0.
331.372 -134.928 0.
-148.464 -561.404 0.
-319.893 -958.582 0.
43.2476 145.737 0.
106.085 -112.541 0.
-23.8381 -413.703 0.
15.0152 -591.42 0.
16.8566 -588.875 0.
18.6982 -586.329 0.
277.952 -425.558 0.
343.765 -270.78 0.
409.578 -116.001 0.
521.462 -81.9073 0.
471.246 -199.5 0.
421.029 -317.094 0.
-58.0879 -656.013 0.
-127.268 -818.325 0.
48.7578 -845.571 0.
128.412 -659.458 0.
208.067 -473.345 0.
238.574 -381.217 0.
200.799 -470.287 0.
163.024 -559.358 0.
72.2847 -545.817 0.
157.868 -348.317 0.
243.452 -150.816 0.
356.361 -342.956 0.
165.213 -786.639 0.
687.915 -923.037 0.
-15.3276 -1004.95 0.
103.599 -730.211 0.
439.946 -389.352 0.
506.633 -232.446 0.
573.319 -75.5396 0.
379.856 -129.84 0.
316.12 -276.275 0.
252.385 -422.71 0.
556.288 -533.041 0.
404.101 -887.723 0.
251.914 -1242.41 0.
192.885 -1151.91 0.
279.825 -950.897 0.
413.105 -754.602 0.
372.331 -849.165 0.
331.558 -943.727 0.
275.125 -899.56 0.
470.254 -444.85 0.
665.382 9.85926 0.
335.226 -152.127 0.
159.394 -558.819 0.
-16.4382 -965.51 0.
539.515 -598.012 0.
677.11 -274.975 0.
1028.9 139.818 0.
663.355 -190.433 0.
572.626 -403.15 0.
-1.72697 -779.229 0.
12.4388 -747.083 0.
26.6041 -714.937 0.
374.951 -578.568 0.
342.314 -655.179 0.
309.676 -731.79 0.
293.703 -774.904 0.
281.921 -805.83 0.
270.14 -836.756 0.
555.25 -752.384 0.
536.847 -797.462 0.
-123.647 -1094.21 0.
-56.0361 -936.374 0.
11.5742 -778.539 0.
295.969 -581.928 0.
283.373 -610.688 0.
270.776 -639.448 0.
257.097 -639.672 0.
271.295 -608.36 0.
285.493 -577.048 0.
2.48363 -612.104 0.
56.4293 -485.072 0.
-685.798 -700.072 0.
424.992 -350.951 0.
357.841 -506.23 0.
2.01379 -715.748 0.
97.0427 -495.1 0.
192.072 -274.451 0.
156.551 -206.128 0.
136.624 -255.832 0.
116.697 -305.535 0.
270.313 -350.317 0.
197.223 -519.076 0.
124.134 -687.836 0.
299.825 -565.2 0.
329.955 -494.3 0.
36.3671 -568.575 0.
60.284 -513.265 0.
84.2011 -457.954 0.
23.2351 -439.839 0.
47.7058 -381.777 0.
72.1762 -323.716 0.
173.918 -308.967 0.
122.921 -428.423 0.
71.9247 -547.879 0.
-239.059 -595.728 0.
-164.139 -422.472 0.
-78.8461 123.374 0.
166.04 -55.8347 0.
36.4104 -357.351 0.
-110.149 -613.952 0.
-108.392 -611.452 0.
-106.635 -608.951 0.
143.214 -450.383 0.
209.524 -296.402 0.
275.833 -142.42 0.
337.825 -129.319 0.
287.64 -247.022 0.
237.455 -364.724 0.
325.574 -460.47 0.
256.864 -623.036 0.
58.8275 -809.516 0.
138.169 -623.333 0.
217.512 -437.151 0.
302.85 -322.614 0.
264.78 -411.462 0.
226.71 -500.311 0.
70.3502 -516.489 0.
155.85 -319.075 0.
241.35 -121.661 0.
338.47 -318.929 0.
147.324 -762.73 0.
-368.465 -1344.13 0.
28.0391 -954.476 0.
146.786 -679.406 0.
403.657 -373.172 0.
470.725 -216.484 0.
537.793 -59.7961 0.
399.093 -90.996 0.
335.438 -237.627 0.
271.784 -384.257 0.
493.211 -527.256 0.
341.078 -882.037 0.
188.944 -1236.82 0.
361.3 -1049.4 0.
447.961 -847.773 0.
344.876 -752.23 0.
304.467 -846.965 0.
264.057 -941.701 0.
91.7509 -947.467 0.
286.748 -492.839 0.
481.745 -38.2098 0.
383.219 -99.527 0.
207.84 -506.825 0.
32.4607 -914.122 0.
554.747 -559.723 0.
692.349 -236.689 0.
110.822 -222.257 0.
667.18 -157.658 0.
576.438 -370.229 0.
163.828 -677.432 0.
177.613 -644.887 0.
191.397 -612.342 0.
355.647 -555.999 0.
323.111 -632.716 0.
290.576 -709.434 0.
74.2098 -838 0.
62.0633 -868.65 0.
49.9174 -899.3 0.
636.246 -686.29 0.
617.637 -731.254 0.
-95.5553 -1052.22 0.
-28.1687 -894.193 0.
39.218 -736.169 0.
339.328 -531.696 0.
326.829 -560.488 0.
314.329 -589.28 0.
143.945 -657.427 0.
158.109 -625.902 0.
172.273 -594.378 0.
306.817 -450.311 0.
360.79 -323.366 0.
294.935 -248.707 0.
329.949 -360.644 0.
262.913 -515.979 0.
130.955 -628.667 0.
225.689 -407.462 0.
320.424 -186.257 0.
53.5235 -218.719 0.
33.4791 -268.199 0.
13.4344 -317.679 0.
279.954 -315.352 0.
206.543 -483.952 0.
133.132 -652.551 0.
341.22 -516.961 0.
371.151 -446.139 0.
-142.379 -613.882 0.
-118.304 -558.786 0.
-94.2276 -503.691 0.
-23.8513 -428.303 0.
0.53695 -370.031 0.
24.9251 -311.759 0.
9.38687 -348.916 0.
-41.3257 -468.492 0.
-92.038 -588.069 0.
-238.161 -563.263 0.
-163.077 -389.996 0.
151.832 915.83 0.
388.835 391.117 0.
298.79 180.578 0.
60.5593 45.2878 0.
291.071 584.816 0.
188.982 348.168 0.
123.648 -211.107 0.
64.1377 -350.135 0.
648.46 1013.04 0.
653.12 988.003 0.
297.1 158.49 0.
128.137 -234.745 0.
918.777 216.342 0.
871.996 107.591 0.
613.337 500.269 0.
691.965 684.746 0.
248.718 -348.218 0.
20.576 -1073.87 0.
331.776 -347.485 0.
177.906 -705.931 0.
-113.733 -911.435 0.
409.698 308.57 0.
833.301 1295.47 0.
496.636 109.537 0.
236.936 -495.371 0.
31.8876 -894.994 0.
516.948 136.182 0.
342.196 -270.943 0.
595.436 169.469 0.
589.082 154.903 0.
601.628 184.497 0.
650.896 490.57 0.
688.918 579.609 0.
586.27 340.577 0.
637.927 -39.4 0.
481.095 -406.64 0.
580.351 -176.17 0.
1225.29 672.401 0.
1100.67 380.994 0.
539.971 -138.754 0.
395.348 -474.909 0.
454.666 -335.321 0.
310.279 -63.3952 0.
401.823 150.542 0.
316.44 -48.2249 0.
566.168 272.85 0.
409.071 -93.9241 0.
348.059 -236.544 0.
1043.2 578.925 0.
1291.09 1158.8 0.
-590.358 37.3809 0.
968.126 572.808 0.
1021.85 696.623 0.
822.313 583.805 0.
616.06 102.61 0.
521.907 -117.297 0.
230.559 -783.169 0.
246.493 -745.906 0.
633.047 156.272 0.
440.401 466.102 0.
223.564 -39.4683 0.
85.3571 -361.605 0.
1013.12 59.0155 0.
1237.4 582.151 0.
169.009 -457.14 0.
353.603 -26.7335 0.
425.069 139.79 0.
785.854 459.338 0.
753.394 383.727 0.
947.18 836.112 0.
343.88 55.2386 0.
434.739 267.352 0.
553.521 544.224 0.
755.27 43.6098 0.
931.886 454.311 0.
1313.27 -213.445 0.
577.741 428.757 0.
358.344 -82.0599 0.
517.5 60.7198 0.
641.409 348.974 0.
679.435 436.779 0.
142.536 215.188 0.
125.363 177.049 0.
496.866 1046.43 0.
824.617 961.323 0.
410.916 -2.4073 0.
-4.94625 -971.133 0.
603.371 49.2043 0.
1034.35 1058.45 0.
-413.346 -882.661 0.
40.7293 177.469 0.
126.78 378.675 0.
385.478 648.661 0.
202.495 221.207 0.
129.898 50.7091 0.
-4.38683 -41.3428 0.
502.686 1143.85 0.
100.955 207.626 0.
283.209 684.84 0.
-20.365 -23.1669 0.
-364.923 -490.173 0.
64.937 -174.168 0.
110.23 -68.191 0.
119.032 4.02921 0.
137.922 47.7352 0.
156.811 91.4415 0.
67.1384 -45.7636 0.
-82.8677 -392.992 0.
-232.874 -740.219 0.
9.78072 -683.526 0.
54.857 -578.49 0.
99.9336 -473.454 0.
663.915 -222.579 0.
661.491 -227.962 0.
59.7419 -496.912 0.
45.0309 -532.641 0.
30.3199 -568.371 0.
299.148 -467.629 0.
305.278 -452.896 0.
311.408 -438.163 0.
-31.652 -605.836 0.
-60.0579 -672.29 0.
-88.4639 -738.744 0.
152.122 -582.863 0.
199.125 -473.521 0.
691.869 -173.514 0.
300.392 -369.279 0.
286.564 -400.12 0.
318.481 -418.378 0.
269.481 -531.749 0.
220.481 -645.12 0.
285.581 -657.311 0.
310.089 -601.321 0.
334.597 -545.33 0.
439.608 -308.44 0.
574.445 5.58923 0.
709.283 319.619 0.
904.29 49.7784 0.
679.715 -475.424 0.
28.1483 -1100.97 0.
209.362 -677.126 0.
390.575 -253.281 0.
469.399 -68.9459 0.
342.985 -364.607 0.
216.571 -660.269 0.
111.954 -745.806 0.
175.484 -598.051 0.
239.014 -450.295 0.
658.307 -284.353 0.
631.791 -348.107 0.
989.763 -248.214 0.
638.408 -389.262 0.
643.545 -377.317 0.
296.333 -520.631 0.
289.989 -535.323 0.
283.645 -550.016 0.
240.989 -558.761 0.
260.905 -510.801 0.
280.821 -462.841 0.
184.528 -548.513 0.
141.69 -649.424 0.
98.8516 -750.335 0.
580.165 -417.207 0.
658.798 -234.367 0.
281.866 -272.785 0.
238.644 -374.913 0.
195.422 -477.041 0.
476.883 -372.172 0.
533.594 -239.629 0.
590.304 -107.087 0.
190.565 -291.67 0.
134.497 -418.546 0.
78.4293 -545.423 0.
413.285 -522.005 0.
345.848 -680.133 0.
442.734 -765.045 0.
39.2501 -724.845 0.
151.254 -462.876 0.
384.976 -227.362 0.
321.829 -376.391 0.
258.682 -525.42 0.
-70.8543 -692.391 0.
-22.0723 -577.696 0.
26.7104 -463.001 0.
126.082 -360.692 0.
149.319 -308.657 0.
172.556 -256.623 0.
299.154 -259.399 0.
263.867 -339.583 0.
-195.755 -586.458 0.
-177.447 -541.242 0.
-159.139 -496.027 0.
-125.445 -449.192 0.
-113.033 -421.23 0.
-100.621 -393.268 0.
-41.7874 -372.146 0.
-51.7476 -395.585 0.
-61.7074 -419.024 0.
-337.899 -488.013 0.
-303.11 -409.115 0.
23.4592 -293.57 0.
-18.8039 -179.679 0.
26.3133 -73.6032 0.
230.381 83.7076 0.
249.608 127.005 0.
268.836 170.303 0.
-75.5429 -75.4603 0.
-225.345 -422.765 0.
-375.148 -770.07 0.
116.267 -606.137 0.
161.402 -500.987 0.
206.537 -395.837 0.
598.47 -219.828 0.
596.272 -225.336 0.
-78.4578 -524.336 0.
-93.0859 -560.222 0.
-107.714 -596.108 0.
340.03 -418.48 0.
346.002 -403.716 0.
351.975 -388.951 0.
-77.8041 -593.952 0.
-105.93 -660.705 0.
-134.056 -727.458 0.
111.19 -569.351 0.
158.053 -459.666 0.
412.959 -261.835 0.
313.417 -332.486 0.
299.838 -363.529 0.
303.784 -393.596 0.
254.833 -506.943 0.
205.882 -620.29 0.
455.683 -553.225 0.
480.305 -497.084 0.
504.928 -440.943 0.
355.97 -312.602 0.
490.761 1.31034 0.
625.551 315.223 0.
855.144 59.6461 0.
630.661 -465.535 0.
-77.5188 -1114.13 0.
103.9 -690.483 0.
285.32 -266.835 0.
686.365 55.5147 0.
560.194 -240.405 0.
434.023 -536.326 0.
104.577 -717.108 0.
168.274 -569.52 0.
231.972 -421.932 0.
658.766 -253.533 0.
632.329 -317.243 0.
246.233 -534.185 0.
753.648 -307.646 0.
759.223 -296.205 0.
247.983 -510.117 0.
241.776 -525.077 0.
235.569 -540.037 0.
152.147 -565.654 0.
172.376 -517.829 0.
192.605 -470.004 0.
419.341 -416.252 0.
376.751 -517.335 0.
334.16 -618.418 0.
315.943 -498.555 0.
394.878 -315.972 0.
339.506 -216.821 0.
296.226 -318.919 0.
252.946 -421.017 0.
552.088 -308.837 0.
608.685 -176.081 0.
665.283 -43.3252 0.
199.697 -256.903 0.
143.213 -383.613 0.
86.7281 -510.322 0.
305.355 -538.046 0.
237.669 -695.837 0.
299.843 -794.985 0.
2.40822 -708.39 0.
114.249 -446.004 0.
389.731 -195.811 0.
326.67 -344.508 0.
263.609 -493.204 0.
160.431 -562.175 0.
209.794 -447.794 0.
259.157 -333.413 0.
-18.4694 -391.473 0.
4.92845 -339.589 0.
28.3264 -287.706 0.
107 -309.81 0.
71.9985 -390.245 0.
-72.7279 -501.084 0.
-54.2497 -456.093 0.
-35.7715 -411.102 0.
-158.509 -433.215 0.
-146.331 -404.956 0.
-134.153 -376.696 0.
103.492 -277.646 0.
93.8445 -301.497 0.
84.1977 -325.348 0.
-467.145 -513.667 0.
-431.664 -435.303 0.
315.918 -158.134 0.
-29.6862 -282.777 0.
-12.731 -243.346 0.
71.0934 -201.974 0.
21.4325 -318.773 0.
-28.2283 -435.572 0.
-258.297 -496.548 0.
-146.013 -236.399 0.
-33.7279 23.7498 0.
381.896 124.255 0.
259.318 -162.214 0.
136.739 -448.684 0.
475.05 -243.854 0.
530.542 -115.664 0.
46.4357 -225.724 0.
55.0849 -206.503 0.
63.7342 -187.282 0.
399.912 -52.181 0.
373.086 -116.248 0.
346.26 -180.315 0.
34.2762 -319.628 0.
57.1357 -267.386 0.
79.9951 -215.143 0.
404.999 -45.2277 0.
419.481 -13.8738 0.
715.752 139.642 0.
442.656 -32.6393 0.
412.013 -102.138 0.
312.518 -233.37 0.
210.633 -472.103 0.
108.746 -710.838 0.
454.69 -591.668 0.
548.938 -371.923 0.
643.185 -152.178 0.
345.384 -335.145 0.
257.288 -540.91 0.
169.192 -746.676 0.
504.071 -475.209 0.
589.273 -275.312 0.
258.887 -280.426 0.
212.095 -390.203 0.
165.303 -499.98 0.
592.864 -340.466 0.
650.14 -207.512 0.
707.417 -74.559 0.
301.667 -205.651 0.
297.425 -215.303 0.
293.184 -224.954 0.
700.153 -162.834 0.
628.094 -331.347 0.
-366.845 -894.675 0.
742.668 -388.187 0.
758.364 -350.411 0.
267.85 -533.348 0.
270.093 -529.096 0.
272.336 -524.845 0.
84.2121 -592.683 0.
94.5142 -569.118 0.
104.816 -545.554 0.
499.995 -304.45 0.
551.168 -183.458 0.
602.341 -62.4659 0.
465.424 -113.252 0.
463.489 -115.098 0.
393.061 -154.458 0.
362.176 -224.59 0.
331.292 -294.722 0.
482.346 -316.426 0.
410.269 -484.474 0.
338.192 -652.522 0.
80.3842 -623.632 0.
260.213 -208.939 0.
440.043 205.755 0.
542.824 157.247 0.
437.438 -88.8253 0.
599.2 -217.375 0.
96.4164 -437.844 0.
95.1824 -443.059 0.
243.252 -376.262 0.
250.125 -359.623 0.
256.998 -342.983 0.
320.758 -360.812 0.
261.857 -498.305 0.
202.956 -635.798 0.
-236.034 -797.583 0.
-189.642 -686.991 0.
-143.249 -576.4 0.
-73.8056 -521.386 0.
-64.924 -500.978 0.
-1.60819 -446.937 0.
44.3132 -341.072 0.
90.2346 -235.207 0.
-94.7555 -238.35 0.
-67.9443 -175.644 0.
-41.1331 -112.939 0.
208.428 -72.2624 0.
127.815 -259.787 0.
47.2012 -447.312 0.
-443.155 -681.645 0.
-439.553 -670.433 0.
44.9301 -243.749 0.
157.416 -171.068 0.
174.47 -131.746 0.
-97.1489 -242.42 0.
-146.648 -359.349 0.
-196.147 -476.278 0.
-89.1052 -392.447 0.
23.0094 -132.062 0.
135.125 128.323 0.
191.962 73.8263 0.
69.7628 -212.916 0.
-52.4376 -499.658 0.
300.627 -287.142 0.
356.044 -158.914 0.
201.589 -128.249 0.
209.995 -108.885 0.
218.402 -89.521 0.
164.406 -122.119 0.
137.431 -186.186 0.
110.456 -250.254 0.
102.511 -257.943 0.
125.335 -205.73 0.
148.159 -153.517 0.
651.086 91.3756 0.
665.47 122.772 0.
314.546 -0.990243 0.
468.161 9.28131 0.
437.722 -60.2524 0.
214.25 -243.043 0.
112.698 -481.994 0.
11.1464 -720.944 0.
357.459 -602.731 0.
451.46 -382.905 0.
545.462 -163.079 0.
456.915 -255.641 0.
368.911 -461.684 0.
280.908 -667.727 0.
288.564 -536.098 0.
373.814 -336.181 0.
346.33 -211.092 0.
299.513 -320.818 0.
252.695 -430.544 0.
593.553 -309.245 0.
650.931 -176.315 0.
708.308 -43.3846 0.
283.277 -181.609 0.
279.272 -191.538 0.
275.266 -201.467 0.
743.165 -113.006 0.
671.061 -281.423 0.
-76.5472 -738.629 0.
703.16 -373.296 0.
718.688 -335.588 0.
423.28 -437.046 0.
424.934 -432.364 0.
426.588 -427.682 0.
62.0882 -570.851 0.
72.5062 -547.093 0.
82.9243 -523.336 0.
375.748 -326.054 0.
427.415 -205.211 0.
479.082 -84.3682 0.
731.577 32.1101 0.
730.156 29.9494 0.
426.467 -107.42 0.
395.689 -177.688 0.
364.911 -247.956 0.
276.945 -373.357 0.
204.41 -541.034 0.
131.876 -708.71 0.
208.548 -537.805 0.
387.779 -122.655 0.
567.01 292.496 0.
540.074 186.94 0.
434.71 -59.1719 0.
426.08 -260.697 0.
110.334 -400.403 0.
108.842 -405.358 0.
98.304 -407.409 0.
105.485 -390.895 0.
112.665 -374.382 0.
295.129 -339.647 0.
236.647 -477.192 0.
178.166 -614.736 0.
-169.53 -738.15 0.
-122.885 -627.348 0.
-76.239 -516.547 0.
-72.9375 -488.966 0.
-64.4127 -468.007 0.
36.303 -399.555 0.
82.1196 -293.485 0.
127.936 -187.414 0.
-73.613 -199.385 0.
-46.8347 -136.724 0.
-20.0563 -74.0631 0.
129.639 -74.3603 0.
49.3754 -262.247 0.
-30.888 -450.134 0.
-53.4898 -483.777 0.
-48.5085 -473.692 0.
446.202 331.554 0.
465.597 228.864 0.
284.667 -194.157 0.
-467.05 -764.016 0.
-363.211 -519.235 0.
-369.112 -530.74 0.
233.473 71.9226 0.
370.544 392.911 0.
92.2782 -255.295 0.
-133.172 -294.898 0.
-71.8001 -154.645 0.
240.839 572.176 0.
473.733 480.717 0.
288.933 49.4104 0.
507.828 323.525 0.
640.437 632.584 0.
413.68 103.543 0.
-30.5944 -99.6686 0.
-131.493 -337.233 0.
98.711 197.259 0.
317.514 144.892 0.
129.026 -296.058 0.
743.174 1135.73 0.
1073.42 645.347 0.
795.965 -4.28094 0.
595.771 -23.9543 0.
369.954 -238.571 0.
500.188 64.6267 0.
214.589 -26.8062 0.
143.337 -193.584 0.
460.523 546.173 0.
775.412 586.096 0.
726.054 471.92 0.
379.351 -335.425 0.
544.425 -237.895 0.
665.832 46.1872 0.
557.33 -205.779 0.
763.594 1010.58 0.
719.602 909.641 0.
722.573 537.884 0.
423.159 -162.832 0.
496.175 5.47059 0.
850.296 319.182 0.
768.824 129.1 0.
888.544 408.649 0.
418.786 204.891 0.
354.112 52.2789 0.
-254.91 -1370.41 0.
455.978 -837.879 0.
614.421 -467.45 0.
-736.347 -865.664 0.
845.964 73.5893 0.
804.313 -22.6613 0.
515.06 -493.433 0.
686.199 -93.4653 0.
839.26 264.929 0.
256.165 -43.1639 0.
289.784 32.6575 0.
401.256 290.192 0.
383.203 -37.8273 0.
305.708 -220.628 0.
523.322 285.054 0.
727.66 -456.665 0.
896.941 -61.0521 0.
508.231 52.5442 0.
597.788 262.568 0.
731.464 575.601 0.
538.098 658.835 0.
497.555 564.638 0.
452.77 460.595 0.
804.122 639.83 0.
715.546 431.189 0.
692.222 375.403 0.
566.935 283.624 0.
323.763 -281.795 0.
361.845 -756.647 0.
150.357 -304.554 0.
151.704 -302.687 0.
204.191 149.925 0.
18.8228 -284.424 0.
122.222 -44.9271 0.
520.582 267.883 0.
745.227 791.078 0.
285.461 -282.768 0.
-106.412 -684.784 0.
98.1856 -206.704 0.
75.4862 -259.27 0.
169.704 114.814 0.
-128.746 -580.626 0.
-294.98 -1209.89 0.
252.546 66.983 0.
376.329 354.971 0.
-132.401 -356.038 0.
-35.1814 -129.691 0.
194.342 405.4 0.
182.953 230.471 0.
7.64132 -178.829 0.
483.432 930.916 0.
334.274 -285.42 0.
372.085 -192.364 0.
368.519 -216.377 0.
131.52 -311.473 0.
128.497 -317.455 0.
-249.276 -457.448 0.
-188.417 -314.144 0.
-127.558 -170.841 0.
174.122 40.2065 0.
195.17 89.7542 0.
216.218 139.302 0.
-78.0238 -75.1963 0.
-162.569 -272.307 0.
-247.114 -469.418 0.
187.247 -377.422 0.
143.304 -480.28 0.
-41.4603 -634.479 0.
-27.1523 -603.461 0.
-12.8446 -572.443 0.
-39.9235 -550.958 0.
-13.0758 -489.196 0.
13.7722 -427.434 0.
127.848 -354.106 0.
127.149 -355.334 0.
126.451 -356.562 0.
487.812 -292.704 0.
429.536 -429.636 0.
497.808 -511.298 0.
348.005 -458.086 0.
408.349 -317.474 0.
22.1926 -395.747 0.
17.1456 -405.825 0.
12.0985 -415.903 0.
354.918 -294.938 0.
328.126 -357.964 0.
301.334 -420.991 0.
567.646 -263.906 0.
613.873 -154.619 0.
660.1 -45.3322 0.
80.8697 -253.443 0.
99.881 -208.627 0.
595.175 19.4316 0.
513.121 -170 0.
431.067 -359.431 0.
379.094 -477.709 0.
391.279 -450.197 0.
403.464 -422.685 0.
114.828 -554.022 0.
100.481 -588.348 0.
86.1347 -622.675 0.
736.403 -204.306 0.
834.138 23.3771 0.
-793.925 -488.967 0.
740.928 -36.7142 0.
633.527 -288.192 0.
449.232 -506.991 0.
496.448 -396.963 0.
543.664 -286.935 0.
265.422 -358.618 0.
265.136 -359.315 0.
264.85 -360.012 0.
335.845 -359.564 0.
312.096 -413.331 0.
288.347 -467.098 0.
551.532 -366.218 0.
548.202 -374.157 0.
197.323 -527.423 0.
212.406 -494.059 0.
227.488 -460.696 0.
103.144 -438.357 0.
187.39 -241.356 0.
271.637 -44.3543 0.
385.234 -54.321 0.
272.502 -319.276 0.
159.77 -584.232 0.
410.26 -323.032 0.
540.484 -19.1268 0.
256.368 102.299 0.
276.213 -71.2787 0.
181.283 -293.969 0.
-156.995 -558.263 0.
-108.263 -443.816 0.
-59.5305 -329.369 0.
396.967 -97.088 0.
382.072 -129.06 0.
367.178 -161.032 0.
64.8126 -197.837 0.
140.524 -21.3053 0.
216.235 155.227 0.
43.3901 -63.6003 0.
-49.5425 -280.93 0.
20.307 -405.131 0.
24.425 -395.795 0.
28.5429 -386.458 0.
-44.566 -438.018 0.
-84.1984 -530.565 0.
-123.831 -623.112 0.
-175.997 -671.264 0.
-169.499 -655.619 0.
-163.001 -639.974 0.
26.4645 -539.376 0.
36.3698 -511.127 0.
234.888 -245.827 0.
20.0485 -328.072 0.
16.8415 -333.922 0.
-126.014 -372.812 0.
-65.0939 -229.674 0.
-4.17424 -86.5355 0.
136.141 54.9958 0.
157.123 104.539 0.
178.105 154.082 0.
-109.3 -57.0215 0.
-193.884 -254.299 0.
-278.469 -451.576 0.
300.263 -297.498 0.
256.121 -400.209 0.
-192.355 -668.034 0.
-177.901 -637.378 0.
-163.447 -606.723 0.
202.412 -414.993 0.
229.011 -353.034 0.
255.611 -291.074 0.
173.124 -303.237 0.
172.736 -304.71 0.
172.348 -306.183 0.
277.762 -351.353 0.
219.798 -488.382 0.
-325.475 -833.234 0.
449.757 -382.998 0.
510.203 -242.397 0.
-2.76863 -374.385 0.
-7.85855 -384.466 0.
-12.9485 -394.547 0.
318.347 -279.498 0.
291.742 -342.608 0.
265.136 -405.718 0.
626.346 -207.867 0.
672.477 -98.5106 0.
718.609 10.8453 0.
-73.3601 -287.061 0.
-54.5081 -242.02 0.
725.72 106.025 0.
643.403 -83.2577 0.
561.087 -272.54 0.
238.892 -505.852 0.
251.079 -478.302 0.
263.267 -450.752 0.
157.82 -503.599 0.
143.348 -537.713 0.
128.876 -571.828 0.
765.611 -161.248 0.
863.123 66.5947 0.
-375.422 -278.37 0.
688.086 -28.0782 0.
580.672 -279.777 0.
391.175 -500.52 0.
438.666 -390.85 0.
486.157 -281.18 0.
461.163 -243.234 0.
461.094 -244.162 0.
461.025 -245.09 0.
459.037 -274.916 0.
435.759 -328.791 0.
412.481 -382.667 0.
303.395 -441.537 0.
300.365 -449.706 0.
142.172 -518.155 0.
157.163 -484.859 0.
172.154 -451.564 0.
165.251 -380.55 0.
249.321 -183.497 0.
333.391 13.5552 0.
252.335 -79.8601 0.
139.595 -344.665 0.
26.855 -609.47 0.
551.708 -231.48 0.
682.183 72.5837 0.
78.7102 56.7411 0.
325.448 -19.1466 0.
230.645 -241.854 0.
-213.437 -550.412 0.
-164.273 -436.152 0.
-115.109 -321.892 0.
453.601 -39.5533 0.
438.92 -71.6079 0.
424.24 -103.663 0.
35.675 -179.508 0.
111.307 -2.60569 0.
186.94 174.297 0.
0.69601 -50.4158 0.
-92.0781 -267.786 0.
-3.04122 -384.493 0.
0.959805 -375.03 0.
4.96067 -365.566 0.
123.457 -334.383 0.
83.4332 -426.673 0.
43.4099 -518.962 0.
-125.148 -618.311 0.
-118.862 -602.482 0.
-112.576 -586.654 0.
-200.508 -606.88 0.
-191.069 -578.445 0.
555.624 -146.617 0.
-23.8725 -317.633 0.
45.6119 -157.554 0.
117.684 -26.7158 0.
118.463 -24.7495 0.
119.243 -22.7831 0.
97.5885 -63.3645 0.
55.8317 -160.217 0.
14.075 -257.069 0.
-168.637 -279.738 0.
-103.257 -125.804 0.
-37.8757 28.1301 0.
411.426 149.882 0.
359.917 30.3102 0.
-1.76145 -210.633 0.
-4.96513 -216.033 0.
-8.16875 -221.433 0.
384.982 -96.6702 0.
321.242 -245.386 0.
257.503 -394.102 0.
101.832 -517.448 0.
101.945 -519.076 0.
102.058 -520.704 0.
302.82 -262.731 0.
420.036 13.2106 0.
583.842 308.351 0.
598.518 119.033 0.
493.088 -123.547 0.
15.8127 -451.224 0.
78.6944 -304.213 0.
141.576 -157.202 0.
409.972 -21.1357 0.
359.155 -139.217 0.
308.338 -257.298 0.
555.328 -204.087 0.
540.186 -240.99 0.
525.044 -277.892 0.
-167.173 -498.421 0.
-118.792 -388.39 0.
653.206 17.3399 0.
633.865 -30.4795 0.
614.524 -78.2989 0.
326.012 -262.446 0.
270.619 -391.178 0.
215.226 -519.91 0.
254.787 -506.249 0.
296.137 -409.305 0.
337.488 -312.362 0.
700.851 -202.439 0.
657.684 -303.018 0.
125.079 -614.04 0.
503.527 -318.791 0.
573.775 -155.575 0.
502.463 -115.338 0.
433.012 -278.22 0.
363.561 -441.101 0.
431.942 -474.783 0.
445.104 -445.903 0.
458.266 -417.024 0.
452.315 -284.706 0.
551.537 -54.9744 0.
650.759 174.757 0.
434.607 34.0258 0.
393.157 -60.824 0.
229.458 -202.627 0.
209.044 -248.711 0.
188.63 -294.795 0.
149.316 -335.484 0.
159.906 -312.445 0.
170.497 -289.407 0.
207.395 -265.179 0.
202.58 -275.962 0.
197.765 -286.746 0.
498.181 -270.555 0.
427.56 -432.327 0.
145.936 -674.85 0.
52.1201 -517.201 0.
154.99 -274.87 0.
27.8268 -195.02 0.
-8.86787 -279.502 0.
-45.562 -363.983 0.
420.091 -115.912 0.
517.124 110.235 0.
614.157 336.383 0.
48.5571 -25.9211 0.
-94.8107 -358.419 0.
-238.178 -690.917 0.
-220.035 -549.753 0.
-126.074 -329.624 0.
125.777 -78.5905 0.
69.4032 -208.349 0.
13.0298 -338.107 0.
140.368 -377.774 0.
104.443 -462.256 0.
68.5187 -546.737 0.
-127.025 -560.703 0.
-35.2159 -346.795 0.
56.5933 -132.886 0.
-245.775 -384.42 0.
-350.784 -633.713 0.
-304.798 -484.369 0.
4.45783 -274.903 0.
73.8595 -114.488 0.
263.576 68.3098 0.
264.402 70.1145 0.
265.229 71.9194 0.
195.265 10.2135 0.
153.475 -86.7372 0.
111.684 -183.688 0.
-21.6086 -185.85 0.
43.6233 -31.7518 0.
108.855 122.347 0.
133.517 62.0508 0.
82.0893 -57.7372 0.
158.943 -111.265 0.
155.719 -116.675 0.
152.495 -122.085 0.
284.971 -107.756 0.
221.301 -256.415 0.
157.63 -405.075 0.
141.401 -469.807 0.
141.481 -471.374 0.
141.56 -472.941 0.
514.086 -141.593 0.
631.409 134.538 0.
818.303 440.103 0.
367.06 52.0146 0.
261.851 -190.739 0.
201.373 -341.213 0.
263.976 -193.971 0.
326.58 -46.7297 0.
431.442 19.0882 0.
380.674 -98.9737 0.
329.907 -217.036 0.
355.576 -258.507 0.
340.265 -295.205 0.
324.953 -331.902 0.
18.8335 -387.168 0.
67.1631 -277.271 0.
481.882 -24.3335 0.
462.354 -71.839 0.
442.826 -119.344 0.
454.361 -175.965 0.
398.784 -304.559 0.
343.208 -433.153 0.
480.894 -378.538 0.
522.523 -281.851 0.
564.152 -185.163 0.
581.529 -221.761 0.
538.438 -322.553 0.
-1616.27 -1328.97 0.
438.465 -315.295 0.
508.807 -152.021 0.
462.667 -99.9259 0.
393.388 -262.921 0.
324.11 -425.916 0.
441.221 -439.546 0.
454.182 -410.496 0.
467.143 -381.446 0.
362.979 -291.226 0.
461.911 -61.1607 0.
560.844 168.905 0.
541.509 110.027 0.
499.845 15.2685 0.
196.864 -184.901 0.
176.427 -231.348 0.
155.991 -277.796 0.
43.3577 -348.66 0.
54.1796 -325.961 0.
65.0017 -303.262 0.
455.754 -127.781 0.
451.288 -138.719 0.
446.822 -149.658 0.
304.483 -321.097 0.
234.145 -482.862 0.
305.861 -575.725 0.
-120.039 -560.316 0.
-17.172 -317.769 0.
336.184 -31.5387 0.
299.279 -115.686 0.
262.374 -199.832 0.
395.974 -95.8233 0.
493.072 130.411 0.
590.171 356.645 0.
-21.5467 -24.6101 0.
-164.927 -357.249 0.
-308.306 -689.887 0.
-173.439 -498.847 0.
-79.2694 -278.983 0.
172.723 -26.2946 0.
116.41 -156.161 0.
60.097 -286.027 0.
101.75 -363.063 0.
65.84 -447.47 0.
29.9303 -531.877 0.
-208.335 -563.797 0.
-116.791 -349.586 0.
-25.2478 -135.375 0.
-337.947 -393.915 0.
-443.841 -642.033 0.
216.784 -658.979 0.
181.362 117.735 0.
261.543 305.404 0.
298.64 -87.6959 0.
207.147 -299.703 0.
450.499 268.156 0.
13.3821 -574.633 0.
113.785 -340.335 0.
33.9261 -526.557 0.
266.094 239.372 0.
428.832 616.88 0.
392.262 529.585 0.
-99.5328 72.9443 0.
-404.334 -636.304 0.
399.897 175.998 0.
354.364 72.6543 0.
388.718 155.773 0.
-98.4516 -776.265 0.
252.123 38.6253 0.
144.669 -214.554 0.
164.662 -464.595 0.
-304.754 -1560.39 0.
175.335 -441.5 0.
765.695 72.7789 0.
771.493 86.8336 0.
413.699 -579.385 0.
-1.33913 -337.503 0.
161.271 40.7144 0.
753.889 623.414 0.
676.672 443.877 0.
610.597 290.703 0.
551.059 291.094 0.
657.432 537.423 0.
730.343 705.702 0.
379.457 203.328 0.
281.161 -25.109 0.
233.438 -135.392 0.
258.4 -147.821 0.
332.806 24.0294 0.
271.108 -161.702 0.
292.471 -111.237 0.
311.855 -65.3141 0.
544.33 -173.806 0.
409.298 -486.358 0.
503.842 -263.266 0.
956.46 329.966 0.
922.867 251.308 0.
1004.91 442.447 0.
764.421 456.13 0.
647.375 182.857 0.
-611.942 -816.466 0.
457.305 -103.673 0.
629.592 297.551 0.
574.914 268.07 0.
328.647 -307.457 0.
213.378 -577.427 0.
514.18 -259.441 0.
603.799 -49.7678 0.
573.524 -119.796 0.
313.679 -207.099 0.
354.13 -112.953 0.
363.099 -92.2598 0.
807.413 561.353 0.
770.68 473.529 0.
338.454 241.429 0.
348.543 265.153 0.
379.787 338.369 0.
288.176 452.855 0.
100.721 13.3251 0.
13.674 -191.739 0.
601.248 -233.009 0.
489.839 -493.245 0.
405.523 -690.47 0.
214.117 -129.78 0.
345.103 175.263 0.
1055.87 893.574 0.
-31.0293 4.04651 0.
-279.043 -573.056 0.
634.29 117.809 0.
651.543 157.204 0.
412.734 -400.745 0.
81.4235 -758.032 0.
173.834 -540.633 0.
111.726 -684.186 0.
-147.97 -149.749 0.
33.6085 272.723 0.
-38.0942 103.894 0.
158.818 217.921 0.
181.387 270.363 0.
255.489 112.477 0.
69.9985 -320.618 0.
67.4614 -326.515 0.
-340.09 -1292.28 0.
-103.133 -740.84 0.
387.365 402.136 0.
338.367 899.68 0.
67.3351 267.366 0.
14.1755 141.904 0.
-440.001 -439.279 0.
-420.498 -396.636 0.
-136.358 -236.226 0.
288.497 52.9695 0.
328.792 148.967 0.
367.533 187.144 0.
255.413 -73.9086 0.
143.294 -334.961 0.
43.7799 -450.494 0.
104.589 -310.284 0.
165.398 -170.073 0.
96.8638 -119.472 0.
130.944 -41.5315 0.
165.025 36.409 0.
-102.004 -143.109 0.
-146.888 -247.057 0.
225.382 -164.376 0.
224.537 -165.643 0.
223.693 -166.909 0.
13.5751 -276.62 0.
-15.3298 -345.926 0.
-44.2347 -415.232 0.
332.16 -280.119 0.
329.727 -283.661 0.
327.293 -287.204 0.
421.308 -226.735 0.
436.609 -192.201 0.
764.198 -24.6601 0.
202.973 -272.534 0.
200.251 -282.408 0.
192.408 -267.73 0.
260.738 -110.162 0.
329.068 47.407 0.
546.058 182.605 0.
509.069 93.6184 0.
472.08 4.63103 0.
358.286 -42.427 0.
381.777 10.7888 0.
405.267 64.0048 0.
281.18 -156.901 0.
178.869 -395.453 0.
109.274 -587.766 0.
172.886 -439.188 0.
236.497 -290.611 0.
505.739 -114.93 0.
471.52 -194.684 0.
437.302 -274.439 0.
552.659 -320.701 0.
489.535 -467.534 0.
426.411 -614.367 0.
273.627 -703.828 0.
277.174 -694.927 0.
1113.15 -328.861 0.
395.264 -506.887 0.
463.166 -348.118 0.
420.927 -250.754 0.
452.676 -175.916 0.
484.425 -101.077 0.
571.834 -21.5528 0.
581.873 3.09439 0.
591.912 27.7415 0.
181.907 -244.053 0.
100.48 -433.137 0.
19.0535 -622.222 0.
369.647 -333.174 0.
461.665 -121.071 0.
272.212 -65.3584 0.
207.621 -216.311 0.
143.029 -367.264 0.
-19.4078 -512.102 0.
-13.3845 -498.343 0.
-7.36096 -484.585 0.
431.163 -341.305 0.
388.483 -440.89 0.
345.802 -540.475 0.
-60.1693 -569.3 0.
47.4409 -320.998 0.
279.503 -26.2823 0.
-111.084 -359.924 0.
-196.532 -562.195 0.
270.441 -448.41 0.
351.29 -261.586 0.
432.139 -74.7618 0.
315.484 -69.1663 0.
282.991 -143.402 0.
250.499 -217.638 0.
-219.633 -377.81 0.
-169.758 -260.639 0.
-119.884 -143.468 0.
124.148 -41.3941 0.
114.678 -63.4802 0.
58.1617 -122.443 0.
-13.9298 -292.725 0.
-86.0218 -463.007 0.
70.8252 -454.976 0.
115.533 -350.552 0.
160.24 -246.127 0.
-211.015 -395.026 0.
-232.465 -446.657 0.
-253.914 -498.289 0.
-187.954 -424.207 0.
-150.716 -342.108 0.
-779.405 -482.003 0.
467.631 161.502 0.
507.971 257.554 0.
321.647 198.209 0.
209.269 -62.5855 0.
96.8918 -323.38 0.
34.7753 -422.993 0.
95.6611 -282.955 0.
156.547 -142.916 0.
95.2886 -90.0756 0.
129.092 -12.0723 0.
162.896 65.931 0.
24.0307 -56.5901 0.
-20.3126 -161.265 0.
209.126 -139.26 0.
208.51 -140.774 0.
207.893 -142.287 0.
-94.2116 -291.766 0.
-123.334 -360.845 0.
-152.456 -429.925 0.
452.979 -196.966 0.
450.806 -200.659 0.
448.633 -204.351 0.
172.763 -302.658 0.
188.148 -268.104 0.
657.682 -39.6923 0.
437.053 -140.763 0.
434.274 -150.386 0.
-9.36998 -323.136 0.
58.7712 -165.404 0.
126.912 -7.67259 0.
611.658 241.873 0.
575.036 152.527 0.
538.413 63.1804 0.
480.468 41.9901 0.
504.553 94.598 0.
528.638 147.206 0.
327.746 -105.288 0.
225.547 -344.09 0.
152.022 -537.06 0.
215.84 -388.483 0.
279.659 -239.907 0.
445.455 -110.01 0.
411.104 -189.619 0.
376.752 -269.228 0.
416.372 -347.414 0.
353.255 -494.326 0.
290.138 -641.238 0.
303.905 -659.05 0.
307.462 -650.218 0.
171.537 -700.572 0.
542.568 -411.741 0.
610.354 -252.709 0.
520.853 -177.247 0.
552.668 -102.395 0.
584.484 -27.5438 0.
534.113 -6.40494 0.
544.298 18.3495 0.
554.484 43.104 0.
54.6305 -266.946 0.
-26.9079 -456.014 0.
-108.446 -645.082 0.
318.773 -323.43 0.
410.469 -111.015 0.
368.753 7.81082 0.
303.946 -143.067 0.
239.139 -293.944 0.
124.027 -420.02 0.
130.013 -406.332 0.
135.999 -392.643 0.
294.281 -368.502 0.
251.806 -468.174 0.
209.331 -567.846 0.
-152.248 -577.622 0.
-44.6822 -329.241 0.
51.4106 -93.2682 0.
3.33508 -278.558 0.
-82.1515 -480.689 0.
137.489 -475.446 0.
218.184 -288.264 0.
298.88 -101.082 0.
258.25 -62.408 0.
225.983 -136.687 0.
193.716 -210.966 0.
-174.695 -328.221 0.
-125.007 -210.959 0.
-75.3194 -93.6973 0.
234.705 38.2307 0.
225.15 16.0751 0.
-41.966 -133.807 0.
-114.576 -303.793 0.
-187.187 -473.779 0.
151.127 -390.679 0.
195.434 -286 0.
239.742 -181.321 0.
-188.277 -353.464 0.
-209.83 -405.007 0.
-231.383 -456.551 0.
133.523 -255.712 0.
170.718 -173.128 0.
450.194 93.9931 0.
309.268 -44.1179 0.
278.277 -117.843 0.
127.796 -195.271 0.
226.703 35.9115 0.
325.61 267.094 0.
386.912 351.134 0.
325.294 209.479 0.
263.676 67.825 0.
55.1106 -58.2118 0.
56.2511 -55.0838 0.
57.3914 -51.9557 0.
149.116 38.2467 0.
180.587 113.779 0.
270.752 185.316 0.
149.458 -97.2211 0.
28.1647 -379.759 0.
-188.62 -582.248 0.
-114.372 -406.938 0.
-40.1238 -231.627 0.
479.86 41.6978 0.
468.17 13.5419 0.
456.48 -14.6142 0.
137.157 -251.316 0.
70.656 -404.851 0.
621.987 -293.786 0.
428.55 -214.033 0.
515.589 -10.2396 0.
109.591 -68.9065 0.
68.0143 -165.511 0.
26.4377 -262.115 0.
394.833 -120.493 0.
432.122 -33.3697 0.
469.412 53.7538 0.
508.964 -17.6969 0.
419.832 -226.823 0.
330.699 -435.949 0.
182.201 -450.736 0.
225.655 -349.794 0.
350.913 -225.354 0.
339.691 -251.211 0.
328.468 -277.067 0.
285.248 -299.04 0.
300.158 -264.083 0.
315.068 -229.127 0.
470.21 -115.6 0.
505.189 -34.2838 0.
540.169 47.0322 0.
658.752 74.6111 0.
633.42 14.8821 0.
-682.627 -596.697 0.
706.598 -12.7206 0.
701.023 -26.6927 0.
581.06 -120.482 0.
504.928 -297.248 0.
428.795 -474.014 0.
181.011 -629.233 0.
216.462 -546.425 0.
251.914 -463.617 0.
0.553567 -423.268 0.
101.169 -189.336 0.
201.785 44.5965 0.
415.809 -35.6628 0.
301.87 -302.567 0.
158.148 -547.278 0.
207.214 -433.765 0.
256.279 -320.252 0.
155.908 -280.328 0.
191.856 -197.098 0.
227.804 -113.868 0.
362.426 -10.3699 0.
381.351 34.2109 0.
400.275 78.7916 0.
0.158139 -175.387 0.
-63.5032 -320.982 0.
-242.94 -513.242 0.
124.999 -223.026 0.
194.243 -58.9049 0.
244.853 62.1619 0.
238.66 50.0123 0.
232.466 37.8624 0.
275.382 61.2652 0.
286.314 86.8388 0.
297.246 112.412 0.
55.1443 37.1588 0.
68.639 68.0583 0.
82.134 98.9581 0.
237.37 28.1235 0.
159.404 -153.151 0.
-173.357 -406.537 0.
-98.6315 -232.427 0.
-23.9055 -58.3182 0.
366.079 165.673 0.
314.682 43.5778 0.
263.285 -78.5174 0.
-86.1769 -248.176 0.
-65.109 -199.508 0.
-44.0409 -150.84 0.
248.647 63.9236 0.
305.859 197.81 0.
-196.899 -155.202 0.
-1.05208 -146.116 0.
-32.0859 -219.709 0.
144.814 -156.74 0.
243.57 74.58 0.
342.326 305.9 0.
476.209 420.8 0.
414.551 278.887 0.
352.893 136.975 0.
-45.9426 -70.1059 0.
-44.6027 -67.2053 0.
-43.263 -64.3047 0.
263.179 119.309 0.
295.144 194.592 0.
129.269 155.446 0.
8.03075 -127.046 0.
-113.207 -409.538 0.
19.5429 -460.631 0.
93.8692 -285.49 0.
168.195 -110.349 0.
214.604 -40.9268 0.
202.743 -68.9854 0.
190.882 -97.0443 0.
266.265 -165.061 0.
199.878 -318.813 0.
-7.6114 -533.207 0.
282.773 -244.857 0.
369.606 -40.9161 0.
368.929 73.5276 0.
327.424 -23.0636 0.
285.919 -119.655 0.
210.899 -166.891 0.
248.44 -80.0681 0.
285.981 6.75494 0.
551.15 31.4296 0.
462.127 -177.814 0.
373.104 -387.058 0.
175.423 -422.529 0.
219.159 -321.798 0.
499.901 -129.268 0.
488.887 -155.151 0.
477.873 -181.034 0.
184.31 -311.415 0.
199.298 -276.379 0.
214.285 -241.343 0.
527.956 -59.3868 0.
563.033 21.8937 0.
598.109 103.174 0.
761.657 150.657 0.
736.407 90.9923 0.
-275.045 -390.506 0.
575.068 -37.9283 0.
569.438 -51.7293 0.
598.472 -81.973 0.
522.379 -258.661 0.
446.286 -435.349 0.
38.1027 -658.62 0.
73.9415 -576.018 0.
109.78 -493.416 0.
199.019 -306.395 0.
299.626 -72.3609 0.
400.232 161.673 0.
436.03 4.69732 0.
322.039 -262.269 0.
164.133 -513.382 0.
213.286 -400.159 0.
262.44 -286.935 0.
-21.5104 -323.931 0.
14.7428 -241.202 0.
50.9959 -158.473 0.
322.784 4.84539 0.
341.767 49.1287 0.
360.75 93.412 0.
78.5885 -109.666 0.
15.1255 -255.701 0.
835.036 -20.8129 0.
279.664 -126.135 0.
348.855 37.8694 0.
99.822 32.2251 0.
93.8569 19.9174 0.
87.8918 7.60935 0.
274.467 91.9511 0.
285.492 117.46 0.
296.516 142.969 0.
223.138 140.38 0.
236.698 171.265 0.
250.258 202.15 0.
177.264 34.178 0.
99.4722 -147.279 0.
-73.4204 -331.635 0.
1.698 -157.878 0.
76.8168 15.8797 0.
269.47 155.941 0.
218.194 33.848 0.
166.918 -88.2451 0.
62.082 -153.158 0.
83.2371 -104.539 0.
104.392 -55.9197 0.
-79.6288 -44.5849 0.
-22.4612 89.3671 0.
-332.033 79.4719 0.
-430.506 -525.175 0.
-492.431 -670.967 0.
469.621 610.372 0.
413.058 477.443 0.
360.466 353.258 0.
381.141 56.4048 0.
373.203 40.1984 0.
270.149 -198.699 0.
-278.534 -392.892 0.
-288.991 -415.7 0.
-262.608 -352.397 0.
351.19 135.355 0.
416.221 289.44 0.
-65.1148 -4.43269 0.
200.611 616.226 0.
150.252 499.654 0.
241.156 -307.62 0.
184.112 -440.63 0.
350.329 -53.0941 0.
115.723 265.042 0.
-118.711 -282.54 0.
-212.991 -503.192 0.
693.195 614.64 0.
571.91 329.908 0.
35.7422 -327.631 0.
317.756 145.14 0.
41.8519 -497.831 0.
619.52 196.016 0.
776.693 562.539 0.
439.928 -223.382 0.
-24.1388 -336.778 0.
280.418 373.589 0.
374.591 593.205 0.
963.273 939.739 0.
560.75 -0.345415 0.
120.51 -1028.58 0.
62.1383 -641.904 0.
248.056 -211.329 0.
812.567 354.637 0.
721.06 138.803 0.
571.193 -213.206 0.
-6.08053 -530.892 0.
233.587 25.4651 0.
287.828 149.381 0.
603.115 35.6911 0.
536.866 -117.984 0.
503.568 -194.573 0.
730.652 -86.0183 0.
623.226 -339.344 0.
-348.605 121.677 0.
570.875 235.812 0.
404.133 -155.676 0.
755.923 289.978 0.
718.68 204.171 0.
722.58 214.239 0.
196.5 11.794 0.
353.327 377.033 0.
199.181 16.7568 0.
140.045 -786.558 0.
-171.456 -1513.32 0.
210.882 -621.346 0.
143.894 -682.272 0.
227.656 -484.203 0.
332.301 -105.071 0.
209.711 -390.462 0.
154.609 -518.017 0.
-300.525 -605.913 0.
124.69 384.978 0.
372.735 962.639 0.
596.938 748.594 0.
149.725 -296.802 0.
-150.708 -999.32 0.
109.679 -151.982 0.
310.396 317.537 0.
290.099 -165.658 0.
673.195 526.413 0.
247.109 -463.739 0.
-30.2978 28.5339 0.
556.089 1399.89 0.
-88.0662 -100.307 0.
356.22 314.778 0.
335.854 265.539 0.
35.1723 -437.814 0.
-63.8984 -814.979 0.
64.1983 -517.634 0.
364.189 180.745 0.
17.5364 -195.277 0.
224.581 285.677 0.
176.423 99.3396 0.
66.619 -156.659 0.
125.711 -19.0137 0.
175.965 141.626 0.
32.2867 -192.906 0.
-170.33 -664.368 0.
-51.0297 -659.085 0.
353.252 284.101 0.
358.402 295.749 0.
-389.109 -134.191 0.
-644.071 -727.783 0.
84.6607 358.733 0.
-42.585 124.621 0.
-139.906 -101.768 0.
-65.8815 -239.591 0.
-133.931 -398.517 0.
-201.979 -557.444 0.
178.44 -384.434 0.
281.171 -145.19 0.
383.901 94.0548 0.
47.1949 25.7536 0.
52.8656 41.6053 0.
58.5366 57.4566 0.
167.455 55.3144 0.
136.292 -14.9363 0.
137.137 -62.6091 0.
140.334 -54.6288 0.
143.532 -46.6487 0.
189.444 -13.1454 0.
204.581 22.579 0.
219.719 58.3034 0.
41.9902 -10.9624 0.
34.8868 -28.4578 0.
27.7835 -45.9534 0.
197.189 -52.2898 0.
146.495 -170.373 0.
66.1713 -302.405 0.
349.81 -145.837 0.
366.976 -104.772 0.
474.859 -28.1229 0.
483.172 -7.95053 0.
491.486 12.2218 0.
301.727 -100.374 0.
248.873 -221.669 0.
196.019 -342.964 0.
83.5181 -445.262 0.
68.2136 -481.684 0.
52.9095 -518.105 0.
391.635 -271.024 0.
454.449 -124.957 0.
393.417 -46.6458 0.
380.513 -78.0682 0.
367.609 -109.491 0.
290.051 -139.365 0.
327.938 -54.0069 0.
365.826 31.3511 0.
611.468 127.009 0.
573.93 38.4872 0.
536.393 -50.0347 0.
438.156 -103.932 0.
443.636 -93.4176 0.
-1422.78 -885.167 0.
707.081 -91.6231 0.
644.19 -238.632 0.
270.754 -453.197 0.
357.15 -252.843 0.
443.546 -52.4893 0.
42.3407 -193.266 0.
-25.4826 -351.189 0.
-93.3055 -509.112 0.
390.74 -327.35 0.
402.479 -300.919 0.
414.217 -274.489 0.
377.648 -268.65 0.
390.253 -236.868 0.
341.907 -210.505 0.
428.819 -4.5719 0.
515.731 201.361 0.
96.8631 129.932 0.
99.1514 137.635 0.
101.44 145.337 0.
324 131.632 0.
215.062 -123.808 0.
106.125 -379.248 0.
3.64518 -402.085 0.
51.276 -290.472 0.
248.344 -110.103 0.
239.52 -35.3129 0.
282.042 62.3569 0.
-136.518 -82.5391 0.
-196.71 -223.773 0.
-256.902 -365.007 0.
103.528 -268.567 0.
109.474 -254.42 0.
115.42 -240.274 0.
60.3305 -200.486 0.
108.697 -86.8655 0.
157.062 26.7548 0.
239.029 28.788 0.
210.834 -37.8376 0.
-43.1628 -195.292 0.
-29.4874 -162.243 0.
-15.8121 -129.195 0.
201.123 -23.9376 0.
193.327 -40.8621 0.
185.531 -57.7865 0.
50.7218 -39.7514 0.
126.709 137.841 0.
202.697 315.434 0.
75.2228 123.424 0.
-38.3476 -139.377 0.
-107.712 308.191 0.
111.397 222.626 0.
13.8945 -3.58442 0.
-262.019 -293.617 0.
-330.636 -451.755 0.
-399.252 -609.892 0.
183.828 -351.246 0.
286.236 -111.721 0.
388.645 127.805 0.
243.218 140.753 0.
248.615 156.974 0.
254.011 173.194 0.
0.0977249 14.4779 0.
-31.1502 -55.6433 0.
433.413 95.7153 0.
436.369 103.728 0.
439.326 111.741 0.
-13.621 -69.2382 0.
1.45958 -33.2938 0.
16.5401 2.65051 0.
112.816 50.8141 0.
105.547 33.6849 0.
98.2782 16.5556 0.
-43.8634 -125.007 0.
-94.7878 -242.701 0.
339.306 -153.716 0.
560.906 -22.8452 0.
577.643 18.7054 0.
431.625 -17.1565 0.
439.18 3.7008 0.
446.734 24.5581 0.
590.948 53.4629 0.
538.381 -68.2388 0.
485.815 -189.94 0.
-252.331 -556.425 0.
-267.034 -593.822 0.
-281.736 -631.218 0.
615.833 -141.929 0.
679.229 3.90228 0.
103.384 -139.323 0.
90.5549 -170.437 0.
77.7257 -201.551 0.
465.026 -32.7748 0.
502.875 52.867 0.
540.724 138.509 0.
592.557 149.609 0.
554.703 61.9078 0.
516.848 -25.793 0.
107.844 -214.658 0.
113.366 -203.917 0.
515.686 -22.0298 0.
1062.07 93.1192 0.
999.306 -53.8583 0.
81.1611 -503.238 0.
167.942 -303.036 0.
254.723 -102.834 0.
-21.3686 -189.343 0.
-88.8681 -347.283 0.
-156.367 -505.223 0.
473.373 -260.652 0.
485.094 -234.26 0.
496.815 -207.869 0.
462.927 -199.935 0.
475.408 -168.354 0.
427.709 -141.171 0.
514.648 64.4133 0.
601.587 269.997 0.
211.728 210.897 0.
213.881 218.303 0.
216.033 225.709 0.
334.303 168.208 0.
224.901 -87.4948 0.
115.499 -343.197 0.
19.8051 -362.769 0.
66.7631 -250.862 0.
-1159.64 -681.045 0.
22.4408 -98.438 0.
64.8002 -1.19704 0.
-187.959 -72.3673 0.
-247.555 -213.911 0.
-307.151 -355.455 0.
113.909 -232.62 0.
119.603 -218 0.
125.296 -203.381 0.
-96.2083 -237.596 0.
-48.146 -123.742 0.
-0.0839441 -9.88893 0.
411.696 135.384 0.
383.246 68.891 0.
-145.561 -208.119 0.
-131.848 -174.765 0.
-118.135 -141.411 0.
334.888 63.9536 0.
327.327 46.9331 0.
319.767 29.9125 0.
-136.332 -87.6433 0.
-60.2511 90.1086 0.
15.8299 267.861 0.
530.277 348.005 0.
416.284 86.0799 0.
