# vtk DataFile Version 2.0
test grain
ASCII
DATASET UNSTRUCTURED_GRID
POINTS 5000 float
0.499963 0.00100047 0.
0.501963 0.00100027 0.
0.503965 0.00100012 0.
0.505966 0.001 0.
0.507968 0.001 0.
0.509969 0.001 0.
0.511971 0.001 0.
0.513972 0.001 0.
0.515973 0.000999999 0.
0.517974 0.000999998 0.
0.519975 0.000999999 0.
0.521976 0.001 0.
0.523977 0.001 0.
0.525978 0.001 0.
0.527979 0.00100001 0.
0.52998 0.00100001 0.
0.531981 0.00100001 0.
0.533982 0.001 0.
0.535984 0.001 0.
0.537985 0.001 0.
0.539986 0.001 0.
0.541987 0.001 0.
0.543988 0.001 0.
0.545988 0.001 0.
0.547989 0.001 0.
0.54999 0.00100001 0.
0.55199 0.00100008 0.
0.553991 0.00100016 0.
0.555991 0.00100021 0.
0.557991 0.00100013 0.
0.559992 0.00100005 0.
0.561992 0.001 0.
0.563994 0.001 0.
0.565995 0.000999999 0.
0.567995 0.00100001 0.
0.569995 0.00100002 0.
0.571995 0.00100003 0.
0.573996 0.00100002 0.
0.575996 0.00100002 0.
0.577996 0.00100001 0.
0.579997 0.00100001 0.
0.581997 0.00100001 0.
0.583998 0.00100004 0.
0.585998 0.00100012 0.
0.587998 0.00100019 0.
0.589998 0.00100018 0.
0.591998 0.00100011 0.
0.593998 0.00100003 0.
0.595999 0.00100001 0.
0.598 0.00100002 0.
0.6 0.00100002 0.
0.602001 0.00100004 0.
0.604001 0.00100007 0.
0.606001 0.00100008 0.
0.608002 0.00100005 0.
0.610002 0.00100002 0.
0.612003 0.00100001 0.
0.614003 0.00100001 0.
0.616003 0.00100002 0.
0.618003 0.00100002 0.
0.620003 0.00100003 0.
0.622003 0.00100004 0.
0.624004 0.00100003 0.
0.626004 0.00100002 0.
0.628004 0.00100001 0.
0.630004 0.00100001 0.
0.632005 0.00100001 0.
0.634006 0.00100001 0.
0.636006 0.00100001 0.
0.638007 0.00100001 0.
0.640007 0.00100001 0.
0.642008 0.00100001 0.
0.644009 0.00100001 0.
0.64601 0.00100001 0.
0.64801 0.00100001 0.
0.65001 0.001 0.
0.652011 0.001 0.
0.654012 0.001 0.
0.656014 0.001 0.
0.658015 0.001 0.
0.660016 0.001 0.
0.662017 0.001 0.
0.664019 0.001 0.
0.66602 0.001 0.
0.668022 0.001 0.
0.670024 0.001 0.
0.672025 0.001 0.
0.674026 0.001 0.
0.676026 0.001 0.
0.678026 0.001 0.
0.680027 0.001 0.
0.682029 0.00100001 0.
0.68403 0.00100001 0.
0.686032 0.001 0.
0.688033 0.001 0.
0.690035 0.00100003 0.
0.692037 0.00100009 0.
0.694038 0.00100014 0.
0.696039 0.0010003 0.
0.69804 0.00100049 0.
0.499962 0.00300141 0.
0.501964 0.0030008 0.
0.503965 0.00300035 0.
0.505966 0.003 0.
0.507968 0.003 0.
0.509969 0.003 0.
0.51197 0.003 0.
0.513972 0.003 0.
0.515973 0.003 0.
0.517974 0.00299999 0.
0.519975 0.003 0.
0.521977 0.003 0.
0.523978 0.00300001 0.
0.525979 0.00300001 0.
0.52798 0.00300001 0.
0.529981 0.00300002 0.
0.531982 0.00300002 0.
0.533983 0.00300002 0.
0.535984 0.00300001 0.
0.537985 0.003 0.
0.539986 0.003 0.
0.541987 0.003 0.
0.543988 0.003 0.
0.545988 0.00300001 0.
0.547989 0.00300001 0.
0.54999 0.00300002 0.
0.55199 0.00300025 0.
0.553991 0.00300048 0.
0.555991 0.00300062 0.
0.557992 0.00300038 0.
0.559992 0.00300014 0.
0.561993 0.00300001 0.
0.563994 0.003 0.
0.565995 0.003 0.
0.567995 0.00300002 0.
0.569996 0.00300005 0.
0.571996 0.00300008 0.
0.573997 0.00300007 0.
0.575997 0.00300005 0.
0.577997 0.00300003 0.
0.579997 0.00300004 0.
0.581997 0.00300004 0.
0.583998 0.00300012 0.
0.585998 0.00300035 0.
0.587998 0.00300058 0.
0.589999 0.00300055 0.
0.591999 0.00300032 0.
0.593999 0.00300009 0.
0.595999 0.00300004 0.
0.598 0.00300005 0.
0.6 0.00300006 0.
0.602001 0.00300013 0.
0.604001 0.00300021 0.
0.606002 0.00300024 0.
0.608002 0.00300016 0.
0.610002 0.00300007 0.
0.612002 0.00300003 0.
0.614003 0.00300004 0.
0.616003 0.00300005 0.
0.618003 0.00300007 0.
0.620003 0.0030001 0.
0.622004 0.00300013 0.
0.624004 0.00300009 0.
0.626003 0.00300006 0.
0.628003 0.00300003 0.
0.630004 0.00300002 0.
0.632005 0.00300002 0.
0.634006 0.00300002 0.
0.636007 0.00300003 0.
0.638007 0.00300004 0.
0.640008 0.00300004 0.
0.642009 0.00300003 0.
0.64401 0.00300002 0.
0.64601 0.00300002 0.
0.64801 0.00300002 0.
0.65001 0.00300001 0.
0.652011 0.00300001 0.
0.654012 0.00300001 0.
0.656013 0.00300001 0.
0.658015 0.00300001 0.
0.660016 0.003 0.
0.662017 0.003 0.
0.664019 0.003 0.
0.666021 0.003 0.
0.668022 0.003 0.
0.670023 0.003 0.
0.672024 0.003 0.
0.674025 0.003 0.
0.676026 0.003 0.
0.678027 0.003 0.
0.680028 0.00300001 0.
0.682029 0.00300002 0.
0.68403 0.00300003 0.
0.686032 0.00300001 0.
0.688033 0.003 0.
0.690035 0.00300009 0.
0.692036 0.00300026 0.
0.694037 0.00300042 0.
0.696038 0.00300091 0.
0.698039 0.00300149 0.
0.499962 0.00500233 0.
0.501964 0.00500133 0.
0.503965 0.00500059 0.
0.505966 0.005 0.
0.507967 0.005 0.
0.509969 0.00500001 0.
0.51197 0.005 0.
0.513971 0.005 0.
0.515972 0.00499999 0.
0.517974 0.00499999 0.
0.519976 0.00499999 0.
0.521978 0.005 0.
0.523979 0.00500001 0.
0.52598 0.00500002 0.
0.527981 0.00500002 0.
0.529982 0.00500002 0.
0.531983 0.00500002 0.
0.533984 0.00500003 0.
0.535985 0.00500002 0.
0.537985 0.00500001 0.
0.539986 0.005 0.
0.541987 0.005 0.
0.543988 0.005 0.
0.545988 0.00500001 0.
0.547989 0.00500002 0.
0.549989 0.00500003 0.
0.55199 0.00500041 0.
0.553991 0.0050008 0.
0.555992 0.00500103 0.
0.557992 0.00500063 0.
0.559993 0.00500024 0.
0.561994 0.00500001 0.
0.563994 0.005 0.
0.565994 0.005 0.
0.567995 0.00500003 0.
0.569996 0.00500008 0.
0.571997 0.00500014 0.
0.573997 0.00500011 0.
0.575997 0.00500008 0.
0.577997 0.00500005 0.
0.579997 0.00500006 0.
0.581998 0.00500007 0.
0.583998 0.0050002 0.
0.585998 0.00500059 0.
0.587999 0.00500097 0.
0.589999 0.00500092 0.
0.591999 0.00500053 0.
0.594 0.00500014 0.
0.596 0.00500007 0.
0.598 0.00500009 0.
0.6 0.0050001 0.
0.602001 0.00500022 0.
0.604002 0.00500034 0.
0.606002 0.0050004 0.
0.608002 0.00500026 0.
0.610002 0.00500012 0.
0.612002 0.00500005 0.
0.614002 0.00500006 0.
0.616002 0.00500008 0.
0.618003 0.00500011 0.
0.620003 0.00500016 0.
0.622004 0.00500021 0.
0.624004 0.00500016 0.
0.626003 0.0050001 0.
0.628003 0.00500004 0.
0.630004 0.00500003 0.
0.632005 0.00500003 0.
0.634006 0.00500003 0.
0.636007 0.00500005 0.
0.638008 0.00500006 0.
0.640009 0.00500006 0.
0.64201 0.00500004 0.
0.644011 0.00500003 0.
0.646011 0.00500003 0.
0.64801 0.00500003 0.
0.65001 0.00500003 0.
0.652011 0.00500002 0.
0.654012 0.00500001 0.
0.656013 0.00500001 0.
0.658014 0.00500001 0.
0.660016 0.005 0.
0.662017 0.005 0.
0.664019 0.005 0.
0.666021 0.005 0.
0.668022 0.005 0.
0.670023 0.005 0.
0.672023 0.005 0.
0.674025 0.00499999 0.
0.676026 0.005 0.
0.678027 0.00500001 0.
0.680028 0.00500002 0.
0.682029 0.00500004 0.
0.68403 0.00500004 0.
0.686032 0.00500003 0.
0.688033 0.00500001 0.
0.690034 0.00500016 0.
0.692035 0.00500043 0.
0.694036 0.0050007 0.
0.696038 0.00500151 0.
0.698039 0.00500248 0.
0.499963 0.00700303 0.
0.501965 0.00700232 0.
0.503966 0.00700166 0.
0.505967 0.00700114 0.
0.507968 0.00700117 0.
0.50997 0.00700119 0.
0.511971 0.00700127 0.
0.513972 0.00700142 0.
0.515973 0.00700157 0.
0.517975 0.00700152 0.
0.519976 0.00700136 0.
0.521978 0.0070012 0.
0.523979 0.00700144 0.
0.52598 0.00700172 0.
0.527982 0.00700198 0.
0.529983 0.00700196 0.
0.531984 0.00700193 0.
0.533984 0.00700206 0.
0.535985 0.00700249 0.
0.537986 0.00700292 0.
0.539986 0.00700294 0.
0.541987 0.0070026 0.
0.543988 0.00700227 0.
0.545988 0.00700225 0.
0.547988 0.00700232 0.
0.549989 0.00700238 0.
0.55199 0.00700268 0.
0.553991 0.00700297 0.
0.555992 0.00700321 0.
0.557992 0.0070032 0.
0.559993 0.00700319 0.
0.561994 0.00700316 0.
0.563994 0.00700311 0.
0.565994 0.00700305 0.
0.567995 0.00700316 0.
0.569995 0.00700334 0.
0.571996 0.00700352 0.
0.573996 0.0070035 0.
0.575997 0.00700346 0.
0.577997 0.00700342 0.
0.579997 0.00700347 0.
0.581998 0.00700352 0.
0.583998 0.00700358 0.
0.585998 0.00700365 0.
0.587998 0.00700373 0.
0.589999 0.00700371 0.
0.591999 0.00700362 0.
0.593999 0.00700352 0.
0.596 0.00700364 0.
0.598 0.00700381 0.
0.600001 0.00700398 0.
0.602001 0.00700411 0.
0.604002 0.00700423 0.
0.606003 0.00700427 0.
0.608002 0.007004 0.
0.610002 0.00700372 0.
0.612002 0.00700354 0.
0.614002 0.00700347 0.
0.616002 0.0070034 0.
0.618003 0.0070034 0.
0.620003 0.00700344 0.
0.622004 0.00700348 0.
0.624004 0.00700334 0.
0.626004 0.00700318 0.
0.628004 0.00700306 0.
0.630004 0.00700314 0.
0.632005 0.00700322 0.
0.634006 0.00700326 0.
0.636007 0.00700322 0.
0.638008 0.00700318 0.
0.640009 0.00700303 0.
0.642009 0.0070028 0.
0.64401 0.00700257 0.
0.64601 0.00700245 0.
0.64801 0.00700237 0.
0.65001 0.00700229 0.
0.652011 0.00700237 0.
0.654012 0.00700244 0.
0.656013 0.00700247 0.
0.658014 0.0070023 0.
0.660016 0.00700214 0.
0.662017 0.007002 0.
0.664018 0.00700191 0.
0.66602 0.00700181 0.
0.668021 0.0070017 0.
0.670022 0.0070016 0.
0.672023 0.0070015 0.
0.674024 0.00700138 0.
0.676025 0.00700127 0.
0.678026 0.0070012 0.
0.680028 0.00700141 0.
0.682029 0.00700163 0.
0.68403 0.00700174 0.
0.686031 0.00700165 0.
0.688033 0.00700156 0.
0.690034 0.00700167 0.
0.692035 0.00700192 0.
0.694037 0.00700218 0.
0.696038 0.00700297 0.
0.698038 0.00700392 0.
0.499964 0.00900376 0.
0.501966 0.00900331 0.
0.503967 0.00900273 0.
0.505968 0.00900228 0.
0.507969 0.00900233 0.
0.509971 0.00900238 0.
0.511972 0.00900254 0.
0.513973 0.00900285 0.
0.515974 0.00900316 0.
0.517975 0.00900305 0.
0.519977 0.00900273 0.
0.521978 0.0090024 0.
0.52398 0.00900286 0.
0.525981 0.00900343 0.
0.527983 0.00900394 0.
0.529983 0.00900389 0.
0.531984 0.00900384 0.
0.533985 0.00900409 0.
0.535986 0.00900496 0.
0.537986 0.00900583 0.
0.539986 0.00900587 0.
0.541987 0.00900521 0.
0.543987 0.00900454 0.
0.545988 0.00900449 0.
0.547988 0.00900461 0.
0.549988 0.00900474 0.
0.551989 0.00900494 0.
0.55399 0.00900515 0.
0.555991 0.00900539 0.
0.557992 0.00900577 0.
0.559993 0.00900614 0.
0.561994 0.00900631 0.
0.563994 0.00900621 0.
0.565994 0.00900611 0.
0.567994 0.00900628 0.
0.569995 0.00900659 0.
0.571995 0.0090069 0.
0.573996 0.00900689 0.
0.575996 0.00900683 0.
0.577997 0.00900679 0.
0.579998 0.00900688 0.
0.581998 0.00900697 0.
0.583998 0.00900695 0.
0.585998 0.00900672 0.
0.587998 0.00900649 0.
0.589998 0.00900649 0.
0.591999 0.0090067 0.
0.593999 0.00900691 0.
0.596 0.00900721 0.
0.598 0.00900753 0.
0.600001 0.00900786 0.
0.602001 0.00900799 0.
0.604002 0.00900812 0.
0.606003 0.00900814 0.
0.608002 0.00900774 0.
0.610002 0.00900733 0.
0.612002 0.00900703 0.
0.614002 0.00900687 0.
0.616003 0.00900671 0.
0.618003 0.00900668 0.
0.620004 0.00900671 0.
0.622004 0.00900674 0.
0.624004 0.00900652 0.
0.626004 0.00900627 0.
0.628004 0.00900607 0.
0.630005 0.00900625 0.
0.632005 0.00900642 0.
0.634006 0.00900649 0.
0.636007 0.00900639 0.
0.638007 0.00900629 0.
0.640008 0.00900601 0.
0.642008 0.00900556 0.
0.644009 0.00900512 0.
0.646009 0.00900488 0.
0.64801 0.00900471 0.
0.65001 0.00900455 0.
0.652011 0.00900472 0.
0.654012 0.00900488 0.
0.656013 0.00900492 0.
0.658014 0.0090046 0.
0.660015 0.00900428 0.
0.662016 0.00900401 0.
0.664018 0.00900381 0.
0.666019 0.00900361 0.
0.66802 0.00900341 0.
0.670021 0.0090032 0.
0.672022 0.00900299 0.
0.674023 0.00900277 0.
0.676024 0.00900254 0.
0.678026 0.00900238 0.
0.680027 0.0090028 0.
0.682028 0.00900322 0.
0.68403 0.00900345 0.
0.686031 0.00900328 0.
0.688033 0.00900312 0.
0.690034 0.00900318 0.
0.692035 0.00900341 0.
0.694037 0.00900365 0.
0.696037 0.00900444 0.
0.698038 0.00900537 0.
0.499965 0.011004 0.
0.501967 0.0110037 0.
0.503968 0.0110032 0.
0.505969 0.0110028 0.
0.50797 0.0110029 0.
0.509971 0.0110029 0.
0.511973 0.0110031 0.
0.513974 0.0110033 0.
0.515975 0.0110036 0.
0.517976 0.0110034 0.
0.519977 0.011003 0.
0.521978 0.0110027 0.
0.52398 0.0110032 0.
0.525981 0.0110039 0.
0.527982 0.0110045 0.
0.529983 0.0110045 0.
0.531984 0.0110045 0.
0.533985 0.0110048 0.
0.535986 0.0110058 0.
0.537986 0.0110067 0.
0.539987 0.0110068 0.
0.541987 0.0110062 0.
0.543988 0.0110056 0.
0.545988 0.0110056 0.
0.547988 0.0110056 0.
0.549989 0.0110057 0.
0.55199 0.0110059 0.
0.553991 0.011006 0.
0.555992 0.0110063 0.
0.557992 0.0110069 0.
0.559993 0.0110076 0.
0.561994 0.0110079 0.
0.563994 0.0110078 0.
0.565994 0.0110077 0.
0.567995 0.0110078 0.
0.569995 0.011008 0.
0.571995 0.0110082 0.
0.573996 0.0110083 0.
0.575997 0.0110083 0.
0.577998 0.0110085 0.
0.579998 0.0110087 0.
0.581998 0.0110089 0.
0.583998 0.0110089 0.
0.585998 0.0110085 0.
0.587998 0.011008 0.
0.589998 0.011008 0.
0.591999 0.0110082 0.
0.593999 0.0110085 0.
0.596 0.0110089 0.
0.598 0.0110093 0.
0.6 0.0110096 0.
0.602001 0.0110098 0.
0.604002 0.0110101 0.
0.606002 0.0110101 0.
0.608002 0.0110097 0.
0.610002 0.0110092 0.
0.612002 0.0110089 0.
0.614002 0.0110086 0.
0.616003 0.0110084 0.
0.618003 0.0110083 0.
0.620003 0.0110083 0.
0.622004 0.0110083 0.
0.624004 0.011008 0.
0.626004 0.0110076 0.
0.628004 0.0110073 0.
0.630005 0.0110076 0.
0.632005 0.0110079 0.
0.634006 0.011008 0.
0.636006 0.0110078 0.
0.638007 0.0110076 0.
0.640008 0.0110073 0.
0.642008 0.0110069 0.
0.644008 0.0110065 0.
0.646009 0.0110062 0.
0.648009 0.0110058 0.
0.65001 0.0110055 0.
0.652011 0.0110056 0.
0.654012 0.0110057 0.
0.656013 0.0110057 0.
0.658014 0.0110054 0.
0.660015 0.0110051 0.
0.662016 0.0110048 0.
0.664017 0.0110045 0.
0.666018 0.0110043 0.
0.668019 0.011004 0.
0.67002 0.0110037 0.
0.672021 0.0110035 0.
0.674023 0.0110033 0.
0.676024 0.0110031 0.
0.678025 0.0110029 0.
0.680027 0.0110034 0.
0.682028 0.0110039 0.
0.684029 0.0110041 0.
0.686031 0.0110041 0.
0.688032 0.011004 0.
0.690034 0.0110041 0.
0.692035 0.0110043 0.
0.694036 0.0110045 0.
0.696037 0.0110054 0.
0.698038 0.0110064 0.
0.499966 0.0130039 0.
0.501967 0.0130035 0.
0.503968 0.013003 0.
0.50597 0.0130027 0.
0.507971 0.0130027 0.
0.509972 0.0130028 0.
0.511973 0.0130029 0.
0.513974 0.0130029 0.
0.515976 0.0130029 0.
0.517977 0.0130026 0.
0.519978 0.0130023 0.
0.521979 0.013002 0.
0.523979 0.0130025 0.
0.52598 0.0130032 0.
0.527981 0.0130038 0.
0.529982 0.0130039 0.
0.531984 0.013004 0.
0.533985 0.0130043 0.
0.535986 0.0130049 0.
0.537987 0.0130054 0.
0.539987 0.0130057 0.
0.541988 0.0130056 0.
0.543988 0.0130055 0.
0.545989 0.0130055 0.
0.547989 0.0130054 0.
0.54999 0.0130053 0.
0.55199 0.0130054 0.
0.553991 0.0130055 0.
0.555992 0.0130058 0.
0.557993 0.0130067 0.
0.559993 0.0130075 0.
0.561994 0.013008 0.
0.563994 0.0130079 0.
0.565995 0.0130079 0.
0.567995 0.0130077 0.
0.569996 0.0130075 0.
0.571996 0.0130073 0.
0.573997 0.0130076 0.
0.575997 0.013008 0.
0.577998 0.0130084 0.
0.579999 0.0130089 0.
0.581999 0.0130093 0.
0.583999 0.0130095 0.
0.585999 0.0130089 0.
0.587999 0.0130083 0.
0.589999 0.0130081 0.
0.592 0.0130083 0.
0.594 0.0130084 0.
0.596 0.0130087 0.
0.598 0.013009 0.
0.6 0.0130093 0.
0.602001 0.0130097 0.
0.604001 0.01301 0.
0.606002 0.0130102 0.
0.608002 0.0130099 0.
0.610002 0.0130095 0.
0.612003 0.0130091 0.
0.614003 0.0130088 0.
0.616002 0.0130084 0.
0.618003 0.0130083 0.
0.620003 0.0130081 0.
0.622003 0.013008 0.
0.624004 0.0130076 0.
0.626004 0.0130072 0.
0.628004 0.0130069 0.
0.630005 0.0130072 0.
0.632005 0.0130076 0.
0.634006 0.0130077 0.
0.636006 0.0130074 0.
0.638007 0.0130071 0.
0.640007 0.013007 0.
0.642008 0.0130069 0.
0.644008 0.0130068 0.
0.646009 0.0130063 0.
0.648009 0.0130057 0.
0.650009 0.0130051 0.
0.65201 0.013005 0.
0.654011 0.0130048 0.
0.656012 0.0130047 0.
0.658013 0.0130047 0.
0.660013 0.0130047 0.
0.662015 0.0130045 0.
0.664016 0.0130041 0.
0.666017 0.0130037 0.
0.668019 0.0130035 0.
0.67002 0.0130032 0.
0.672022 0.013003 0.
0.674023 0.013003 0.
0.676024 0.0130029 0.
0.678026 0.0130029 0.
0.680026 0.0130032 0.
0.682027 0.0130035 0.
0.684028 0.0130038 0.
0.68603 0.013004 0.
0.688032 0.0130041 0.
0.690033 0.0130043 0.
0.692034 0.0130046 0.
0.694035 0.0130048 0.
0.696036 0.0130058 0.
0.698037 0.0130069 0.
0.499967 0.0150037 0.
0.501968 0.0150033 0.
0.503969 0.0150029 0.
0.50597 0.0150025 0.
0.507971 0.0150026 0.
0.509972 0.0150027 0.
0.511973 0.0150027 0.
0.513975 0.0150024 0.
0.515976 0.0150021 0.
0.517977 0.0150018 0.
0.519978 0.0150016 0.
0.521979 0.0150013 0.
0.523979 0.0150018 0.
0.52598 0.0150024 0.
0.52798 0.015003 0.
0.529981 0.0150033 0.
0.531983 0.0150036 0.
0.533984 0.0150038 0.
0.535986 0.015004 0.
0.537987 0.0150042 0.
0.539988 0.0150045 0.
0.541989 0.015005 0.
0.543989 0.0150055 0.
0.54599 0.0150054 0.
0.54799 0.0150051 0.
0.549991 0.0150049 0.
0.551991 0.015005 0.
0.553992 0.0150051 0.
0.555993 0.0150054 0.
0.557993 0.0150064 0.
0.559994 0.0150075 0.
0.561994 0.015008 0.
0.563995 0.015008 0.
0.565995 0.015008 0.
0.567996 0.0150076 0.
0.569996 0.015007 0.
0.571997 0.0150064 0.
0.573998 0.015007 0.
0.575998 0.0150077 0.
0.577999 0.0150083 0.
0.579999 0.0150091 0.
0.582 0.0150098 0.
0.584 0.01501 0.
0.586 0.0150093 0.
0.588 0.0150086 0.
0.59 0.0150083 0.
0.592 0.0150082 0.
0.594 0.0150082 0.
0.596 0.0150085 0.
0.598 0.0150087 0.
0.6 0.015009 0.
0.602 0.0150095 0.
0.604 0.01501 0.
0.606001 0.0150104 0.
0.608002 0.01501 0.
0.610003 0.0150097 0.
0.612003 0.0150093 0.
0.614003 0.0150089 0.
0.616002 0.0150085 0.
0.618002 0.0150082 0.
0.620003 0.015008 0.
0.622003 0.0150078 0.
0.624003 0.0150073 0.
0.626004 0.0150068 0.
0.628004 0.0150064 0.
0.630005 0.0150068 0.
0.632005 0.0150073 0.
0.634005 0.0150074 0.
0.636006 0.015007 0.
0.638007 0.0150067 0.
0.640007 0.0150066 0.
0.642008 0.0150068 0.
0.644008 0.015007 0.
0.646008 0.0150064 0.
0.648008 0.0150055 0.
0.650008 0.0150047 0.
0.652009 0.0150043 0.
0.65401 0.015004 0.
0.656011 0.0150038 0.
0.658012 0.015004 0.
0.660012 0.0150042 0.
0.662014 0.0150041 0.
0.664015 0.0150037 0.
0.666016 0.0150032 0.
0.668018 0.0150029 0.
0.67002 0.0150027 0.
0.672022 0.0150025 0.
0.674023 0.0150026 0.
0.676025 0.0150027 0.
0.678026 0.0150028 0.
0.680026 0.015003 0.
0.682027 0.0150032 0.
0.684027 0.0150035 0.
0.686029 0.0150039 0.
0.688031 0.0150043 0.
0.690032 0.0150046 0.
0.692033 0.0150048 0.
0.694034 0.015005 0.
0.696035 0.0150062 0.
0.698036 0.0150075 0.
0.499968 0.0170051 0.
0.501969 0.0170043 0.
0.50397 0.0170036 0.
0.505971 0.0170029 0.
0.507972 0.0170029 0.
0.509973 0.0170028 0.
0.511974 0.0170026 0.
0.513975 0.0170023 0.
0.515977 0.0170019 0.
0.517978 0.0170018 0.
0.519979 0.0170018 0.
0.52198 0.0170018 0.
0.52398 0.0170024 0.
0.525981 0.0170029 0.
0.527981 0.0170035 0.
0.529982 0.0170036 0.
0.531983 0.0170037 0.
0.533984 0.0170039 0.
0.535985 0.0170042 0.
0.537986 0.0170045 0.
0.539987 0.0170048 0.
0.541988 0.0170051 0.
0.543989 0.0170054 0.
0.54599 0.0170054 0.
0.547991 0.0170053 0.
0.549991 0.0170052 0.
0.551992 0.0170054 0.
0.553992 0.0170056 0.
0.555993 0.0170059 0.
0.557993 0.0170065 0.
0.559994 0.0170071 0.
0.561994 0.0170075 0.
0.563995 0.0170077 0.
0.565996 0.0170078 0.
0.567996 0.0170076 0.
0.569997 0.0170072 0.
0.571998 0.0170068 0.
0.573998 0.0170075 0.
0.575999 0.0170082 0.
0.577999 0.017009 0.
0.58 0.0170096 0.
0.582 0.0170102 0.
0.584 0.0170104 0.
0.586 0.0170101 0.
0.588 0.0170097 0.
0.59 0.0170094 0.
0.592 0.0170092 0.
0.594 0.017009 0.
0.596 0.0170091 0.
0.598 0.0170093 0.
0.6 0.0170096 0.
0.602001 0.0170102 0.
0.604001 0.0170109 0.
0.606001 0.0170114 0.
0.608002 0.017011 0.
0.610003 0.0170107 0.
0.612003 0.0170103 0.
0.614003 0.0170098 0.
0.616002 0.0170093 0.
0.618003 0.017009 0.
0.620003 0.0170089 0.
0.622003 0.0170087 0.
0.624003 0.017008 0.
0.626003 0.0170073 0.
0.628003 0.0170067 0.
0.630004 0.017007 0.
0.632004 0.0170072 0.
0.634005 0.0170074 0.
0.636005 0.0170073 0.
0.638006 0.0170073 0.
0.640007 0.0170073 0.
0.642007 0.0170073 0.
0.644008 0.0170072 0.
0.646008 0.0170067 0.
0.648008 0.0170061 0.
0.650008 0.0170055 0.
0.652009 0.0170051 0.
0.65401 0.0170046 0.
0.656011 0.0170042 0.
0.658012 0.0170041 0.
0.660013 0.017004 0.
0.662014 0.0170038 0.
0.664015 0.0170035 0.
0.666017 0.0170032 0.
0.668018 0.0170031 0.
0.670019 0.017003 0.
0.672021 0.0170029 0.
0.674022 0.0170027 0.
0.676023 0.0170025 0.
0.678025 0.0170024 0.
0.680025 0.0170026 0.
0.682026 0.0170029 0.
0.684027 0.0170032 0.
0.686029 0.0170035 0.
0.68803 0.0170039 0.
0.690031 0.0170043 0.
0.692032 0.0170049 0.
0.694034 0.0170055 0.
0.696035 0.0170067 0.
0.698036 0.017008 0.
0.499969 0.0190066 0.
0.50197 0.0190054 0.
0.503971 0.0190042 0.
0.505972 0.0190033 0.
0.507973 0.0190031 0.
0.509974 0.0190029 0.
0.511975 0.0190026 0.
0.513976 0.0190022 0.
0.515977 0.0190017 0.
0.517978 0.0190018 0.
0.519979 0.0190021 0.
0.52198 0.0190024 0.
0.523981 0.0190029 0.
0.525981 0.0190035 0.
0.527982 0.019004 0.
0.529983 0.0190039 0.
0.531984 0.0190039 0.
0.533984 0.019004 0.
0.535985 0.0190044 0.
0.537986 0.0190048 0.
0.539987 0.0190051 0.
0.541988 0.0190052 0.
0.54399 0.0190054 0.
0.54599 0.0190055 0.
0.547991 0.0190055 0.
0.549992 0.0190056 0.
0.551992 0.0190059 0.
0.553992 0.0190062 0.
0.555993 0.0190065 0.
0.557993 0.0190066 0.
0.559994 0.0190068 0.
0.561994 0.019007 0.
0.563995 0.0190073 0.
0.565996 0.0190076 0.
0.567997 0.0190076 0.
0.569998 0.0190074 0.
0.571999 0.0190072 0.
0.573999 0.019008 0.
0.575999 0.0190088 0.
0.578 0.0190096 0.
0.58 0.0190101 0.
0.582 0.0190105 0.
0.584001 0.0190108 0.
0.586 0.0190108 0.
0.588 0.0190108 0.
0.589999 0.0190106 0.
0.591999 0.0190102 0.
0.593999 0.0190098 0.
0.595999 0.0190098 0.
0.598 0.0190099 0.
0.600001 0.0190101 0.
0.602001 0.019011 0.
0.604001 0.0190118 0.
0.606002 0.0190124 0.
0.608002 0.019012 0.
0.610003 0.0190116 0.
0.612003 0.0190112 0.
0.614003 0.0190106 0.
0.616003 0.0190101 0.
0.618003 0.0190098 0.
0.620003 0.0190097 0.
0.622004 0.0190095 0.
0.624003 0.0190087 0.
0.626003 0.0190078 0.
0.628003 0.0190071 0.
0.630003 0.0190071 0.
0.632003 0.0190071 0.
0.634004 0.0190073 0.
0.636005 0.0190076 0.
0.638006 0.019008 0.
0.640006 0.019008 0.
0.642007 0.0190077 0.
0.644008 0.0190075 0.
0.646008 0.0190071 0.
0.648008 0.0190067 0.
0.650008 0.0190064 0.
0.652009 0.0190058 0.
0.65401 0.0190052 0.
0.656011 0.0190047 0.
0.658012 0.0190042 0.
0.660013 0.0190038 0.
0.662014 0.0190034 0.
0.664015 0.0190033 0.
0.666017 0.0190032 0.
0.668018 0.0190032 0.
0.670019 0.0190033 0.
0.67202 0.0190033 0.
0.674021 0.0190029 0.
0.676022 0.0190024 0.
0.678023 0.019002 0.
0.680025 0.0190023 0.
0.682026 0.0190026 0.
0.684027 0.0190029 0.
0.686028 0.0190032 0.
0.688029 0.0190034 0.
0.69003 0.0190041 0.
0.692031 0.0190051 0.
0.694033 0.019006 0.
0.696034 0.0190072 0.
0.698035 0.0190084 0.
0.49997 0.0210073 0.
0.501971 0.0210059 0.
0.503972 0.0210046 0.
0.505973 0.0210035 0.
0.507973 0.0210032 0.
0.509974 0.0210029 0.
0.511975 0.0210026 0.
0.513976 0.0210022 0.
0.515977 0.0210018 0.
0.517978 0.0210019 0.
0.51998 0.0210023 0.
0.521981 0.0210027 0.
0.523981 0.021003 0.
0.525982 0.0210033 0.
0.527983 0.0210036 0.
0.529983 0.0210036 0.
0.531984 0.0210037 0.
0.533985 0.0210038 0.
0.535985 0.0210042 0.
0.537986 0.0210045 0.
0.539987 0.0210048 0.
0.541989 0.021005 0.
0.54399 0.0210052 0.
0.545991 0.0210053 0.
0.547992 0.0210055 0.
0.549992 0.0210056 0.
0.551992 0.0210058 0.
0.553993 0.0210061 0.
0.555993 0.0210063 0.
0.557993 0.0210064 0.
0.559994 0.0210065 0.
0.561995 0.0210067 0.
0.563996 0.021007 0.
0.565997 0.0210073 0.
0.567998 0.0210074 0.
0.569998 0.0210074 0.
0.571999 0.0210075 0.
0.573999 0.0210083 0.
0.575999 0.0210091 0.
0.578 0.02101 0.
0.58 0.0210104 0.
0.582001 0.0210108 0.
0.584001 0.0210111 0.
0.586001 0.0210112 0.
0.588 0.0210113 0.
0.59 0.0210112 0.
0.591999 0.0210108 0.
0.593999 0.0210105 0.
0.596 0.0210104 0.
0.598 0.0210104 0.
0.600001 0.0210104 0.
0.602001 0.0210112 0.
0.604001 0.021012 0.
0.606002 0.0210125 0.
0.608002 0.0210122 0.
0.610003 0.021012 0.
0.612003 0.0210116 0.
0.614003 0.0210111 0.
0.616003 0.0210106 0.
0.618003 0.0210103 0.
0.620003 0.0210101 0.
0.622004 0.02101 0.
0.624003 0.0210091 0.
0.626003 0.0210082 0.
0.628002 0.0210074 0.
0.630003 0.0210074 0.
0.632003 0.0210073 0.
0.634004 0.0210074 0.
0.636004 0.0210078 0.
0.638005 0.0210082 0.
0.640006 0.0210082 0.
0.642007 0.021008 0.
0.644007 0.0210079 0.
0.646008 0.0210074 0.
0.648008 0.021007 0.
0.650008 0.0210065 0.
0.652009 0.021006 0.
0.65401 0.0210054 0.
0.656011 0.0210049 0.
0.658012 0.0210042 0.
0.660013 0.0210036 0.
0.662014 0.0210032 0.
0.664015 0.0210031 0.
0.666017 0.021003 0.
0.668018 0.0210031 0.
0.670018 0.0210032 0.
0.672019 0.0210033 0.
0.67402 0.0210027 0.
0.676021 0.0210021 0.
0.678022 0.0210016 0.
0.680024 0.0210019 0.
0.682025 0.0210023 0.
0.684026 0.0210026 0.
0.686027 0.021003 0.
0.688028 0.0210033 0.
0.690029 0.021004 0.
0.69203 0.0210051 0.
0.694032 0.0210062 0.
0.696033 0.0210074 0.
0.698034 0.0210087 0.
0.499971 0.0230072 0.
0.501972 0.023006 0.
0.503973 0.0230046 0.
0.505973 0.0230035 0.
0.507974 0.0230032 0.
0.509975 0.0230029 0.
0.511976 0.0230026 0.
0.513977 0.0230023 0.
0.515978 0.023002 0.
0.517979 0.0230021 0.
0.51998 0.0230024 0.
0.521981 0.0230027 0.
0.523982 0.0230026 0.
0.525982 0.0230024 0.
0.527983 0.0230023 0.
0.529984 0.0230027 0.
0.531984 0.0230031 0.
0.533985 0.0230034 0.
0.535986 0.0230035 0.
0.537987 0.0230036 0.
0.539988 0.0230038 0.
0.541989 0.0230043 0.
0.54399 0.0230048 0.
0.545991 0.023005 0.
0.547992 0.0230051 0.
0.549992 0.0230052 0.
0.551993 0.0230052 0.
0.553993 0.0230052 0.
0.555993 0.0230053 0.
0.557994 0.0230058 0.
0.559995 0.0230064 0.
0.561996 0.0230067 0.
0.563997 0.0230068 0.
0.565998 0.023007 0.
0.567998 0.0230071 0.
0.569999 0.0230073 0.
0.571999 0.0230075 0.
0.573999 0.0230083 0.
0.575999 0.0230092 0.
0.578 0.02301 0.
0.58 0.0230104 0.
0.582001 0.0230109 0.
0.584001 0.0230112 0.
0.586001 0.0230112 0.
0.588001 0.0230113 0.
0.590001 0.0230113 0.
0.592001 0.0230112 0.
0.594 0.0230111 0.
0.596 0.0230109 0.
0.598 0.0230107 0.
0.6 0.0230105 0.
0.602001 0.0230109 0.
0.604001 0.0230113 0.
0.606001 0.0230117 0.
0.608002 0.0230117 0.
0.610002 0.0230117 0.
0.612003 0.0230115 0.
0.614003 0.0230111 0.
0.616003 0.0230107 0.
0.618003 0.0230104 0.
0.620004 0.0230102 0.
0.622004 0.0230099 0.
0.624004 0.0230092 0.
0.626003 0.0230085 0.
0.628003 0.0230078 0.
0.630003 0.0230078 0.
0.632004 0.0230077 0.
0.634004 0.0230077 0.
0.636004 0.0230077 0.
0.638005 0.0230078 0.
0.640006 0.023008 0.
0.642007 0.0230082 0.
0.644007 0.0230084 0.
0.646008 0.0230078 0.
0.648007 0.0230068 0.
0.650007 0.0230059 0.
0.652008 0.0230056 0.
0.654009 0.0230052 0.
0.65601 0.0230048 0.
0.658012 0.0230041 0.
0.660013 0.0230034 0.
0.662014 0.023003 0.
0.664015 0.0230029 0.
0.666016 0.0230027 0.
0.668017 0.0230027 0.
0.670018 0.0230028 0.
0.672019 0.0230028 0.
0.674019 0.0230023 0.
0.67602 0.0230017 0.
0.678021 0.0230012 0.
0.680022 0.0230016 0.
0.682023 0.0230019 0.
0.684024 0.0230024 0.
0.686025 0.0230029 0.
0.688026 0.0230034 0.
0.690027 0.0230042 0.
0.692029 0.0230051 0.
0.69403 0.0230061 0.
0.696031 0.0230074 0.
0.698032 0.0230088 0.
0.499973 0.0250071 0.
0.501973 0.025006 0.
0.503974 0.0250046 0.
0.505974 0.0250034 0.
0.507975 0.0250031 0.
0.509976 0.0250028 0.
0.511977 0.0250025 0.
0.513979 0.0250024 0.
0.51598 0.0250022 0.
0.51798 0.0250023 0.
0.519981 0.0250025 0.
0.521981 0.0250027 0.
0.523982 0.0250022 0.
0.525983 0.0250015 0.
0.527983 0.025001 0.
0.529984 0.0250018 0.
0.531985 0.0250026 0.
0.533985 0.025003 0.
0.535987 0.0250028 0.
0.537988 0.0250026 0.
0.539989 0.0250029 0.
0.54199 0.0250036 0.
0.543991 0.0250044 0.
0.545991 0.0250046 0.
0.547992 0.0250047 0.
0.549993 0.0250049 0.
0.551993 0.0250046 0.
0.553994 0.0250043 0.
0.555994 0.0250043 0.
0.557995 0.0250053 0.
0.559995 0.0250062 0.
0.561996 0.0250067 0.
0.563998 0.0250066 0.
0.565999 0.0250066 0.
0.567999 0.0250068 0.
0.569999 0.0250072 0.
0.571998 0.0250076 0.
0.573999 0.0250084 0.
0.575999 0.0250092 0.
0.577999 0.02501 0.
0.58 0.0250105 0.
0.582001 0.0250109 0.
0.584002 0.0250112 0.
0.586002 0.0250113 0.
0.588002 0.0250113 0.
0.590002 0.0250114 0.
0.592002 0.0250116 0.
0.594002 0.0250118 0.
0.596001 0.0250115 0.
0.598001 0.025011 0.
0.6 0.0250106 0.
0.602 0.0250106 0.
0.604 0.0250107 0.
0.606 0.0250108 0.
0.608001 0.0250111 0.
0.610002 0.0250115 0.
0.612002 0.0250115 0.
0.614003 0.0250112 0.
0.616003 0.0250109 0.
0.618004 0.0250106 0.
0.620004 0.0250102 0.
0.622004 0.0250099 0.
0.624004 0.0250094 0.
0.626004 0.0250088 0.
0.628004 0.0250082 0.
0.630004 0.0250082 0.
0.632004 0.0250081 0.
0.634004 0.025008 0.
0.636005 0.0250077 0.
0.638005 0.0250075 0.
0.640006 0.0250077 0.
0.642007 0.0250083 0.
0.644007 0.025009 0.
0.646008 0.0250081 0.
0.648007 0.0250067 0.
0.650007 0.0250054 0.
0.652008 0.0250052 0.
0.654009 0.025005 0.
0.65601 0.0250047 0.
0.658011 0.025004 0.
0.660013 0.0250033 0.
0.662014 0.0250029 0.
0.664014 0.0250027 0.
0.666015 0.0250025 0.
0.668016 0.0250024 0.
0.670017 0.0250024 0.
0.672018 0.0250024 0.
0.674019 0.0250019 0.
0.676019 0.0250013 0.
0.678019 0.0250009 0.
0.68002 0.0250012 0.
0.682021 0.0250016 0.
0.684022 0.0250021 0.
0.686024 0.0250028 0.
0.688025 0.0250036 0.
0.690026 0.0250043 0.
0.692027 0.0250051 0.
0.694028 0.0250059 0.
0.696029 0.0250073 0.
0.698029 0.0250089 0.
0.499973 0.0270073 0.
0.501974 0.0270061 0.
0.503975 0.0270048 0.
0.505975 0.0270037 0.
0.507976 0.0270032 0.
0.509977 0.0270027 0.
0.511978 0.0270023 0.
0.513979 0.0270021 0.
0.51598 0.0270019 0.
0.517981 0.0270019 0.
0.519981 0.027002 0.
0.521982 0.0270021 0.
0.523983 0.0270018 0.
0.525984 0.0270014 0.
0.527984 0.0270012 0.
0.529985 0.0270017 0.
0.531986 0.0270023 0.
0.533987 0.0270028 0.
0.535988 0.0270029 0.
0.537989 0.0270029 0.
0.53999 0.0270031 0.
0.54199 0.0270032 0.
0.543991 0.0270034 0.
0.545992 0.0270037 0.
0.547992 0.0270041 0.
0.549993 0.0270045 0.
0.551993 0.0270043 0.
0.553994 0.027004 0.
0.555994 0.027004 0.
0.557995 0.0270047 0.
0.559995 0.0270054 0.
0.561996 0.027006 0.
0.563997 0.0270063 0.
0.565998 0.0270066 0.
0.567998 0.0270069 0.
0.569999 0.0270072 0.
0.571999 0.0270075 0.
0.573999 0.0270083 0.
0.575999 0.0270091 0.
0.577999 0.0270099 0.
0.58 0.0270104 0.
0.582001 0.0270108 0.
0.584001 0.0270112 0.
0.586001 0.0270113 0.
0.588002 0.0270115 0.
0.590002 0.0270116 0.
0.592001 0.0270118 0.
0.594001 0.027012 0.
0.596001 0.0270117 0.
0.598001 0.0270112 0.
0.6 0.0270108 0.
0.602001 0.0270107 0.
0.604001 0.0270107 0.
0.606001 0.0270107 0.
0.608002 0.027011 0.
0.610002 0.0270112 0.
0.612002 0.0270113 0.
0.614003 0.0270111 0.
0.616003 0.0270109 0.
0.618003 0.0270107 0.
0.620003 0.0270105 0.
0.622003 0.0270102 0.
0.624003 0.0270097 0.
0.626003 0.0270091 0.
0.628003 0.0270085 0.
0.630003 0.0270084 0.
0.632003 0.0270082 0.
0.634003 0.0270079 0.
0.636004 0.0270077 0.
0.638005 0.0270074 0.
0.640005 0.0270074 0.
0.642006 0.0270076 0.
0.644007 0.0270078 0.
0.646007 0.027007 0.
0.648007 0.027006 0.
0.650007 0.0270049 0.
0.652008 0.0270044 0.
0.654009 0.0270039 0.
0.656009 0.0270034 0.
0.65801 0.0270031 0.
0.660012 0.0270027 0.
0.662012 0.0270025 0.
0.664013 0.0270025 0.
0.666014 0.0270024 0.
0.668015 0.0270023 0.
0.670016 0.0270021 0.
0.672017 0.027002 0.
0.674018 0.0270017 0.
0.676018 0.0270013 0.
0.678018 0.027001 0.
0.680019 0.0270012 0.
0.68202 0.0270014 0.
0.684021 0.0270018 0.
0.686023 0.0270026 0.
0.688024 0.0270035 0.
0.690025 0.0270044 0.
0.692026 0.0270054 0.
0.694027 0.0270063 0.
0.696027 0.0270077 0.
0.698028 0.0270091 0.
0.499974 0.0290076 0.
0.501975 0.0290063 0.
0.503976 0.029005 0.
0.505976 0.0290039 0.
0.507977 0.0290033 0.
0.509977 0.0290026 0.
0.511978 0.0290021 0.
0.513979 0.0290019 0.
0.51598 0.0290016 0.
0.517981 0.0290015 0.
0.519982 0.0290015 0.
0.521983 0.0290014 0.
0.523984 0.0290014 0.
0.525985 0.0290013 0.
0.527985 0.0290013 0.
0.529986 0.0290017 0.
0.531988 0.0290021 0.
0.533988 0.0290025 0.
0.535989 0.0290029 0.
0.53799 0.0290033 0.
0.53999 0.0290032 0.
0.541991 0.0290028 0.
0.543992 0.0290024 0.
0.545992 0.0290028 0.
0.547993 0.0290035 0.
0.549993 0.0290041 0.
0.551993 0.0290039 0.
0.553993 0.0290037 0.
0.555994 0.0290037 0.
0.557995 0.0290042 0.
0.559995 0.0290047 0.
0.561996 0.0290053 0.
0.563997 0.029006 0.
0.565997 0.0290066 0.
0.567998 0.029007 0.
0.569998 0.0290072 0.
0.571999 0.0290073 0.
0.573999 0.0290081 0.
0.575999 0.0290089 0.
0.577999 0.0290097 0.
0.579999 0.0290102 0.
0.582 0.0290108 0.
0.584 0.0290112 0.
0.586 0.0290114 0.
0.588001 0.0290116 0.
0.590001 0.0290118 0.
0.592001 0.029012 0.
0.594001 0.0290122 0.
0.596001 0.0290119 0.
0.598001 0.0290114 0.
0.6 0.029011 0.
0.602001 0.0290109 0.
0.604002 0.0290107 0.
0.606002 0.0290107 0.
0.608002 0.0290108 0.
0.610002 0.029011 0.
0.612002 0.0290111 0.
0.614002 0.029011 0.
0.616002 0.0290109 0.
0.618002 0.0290108 0.
0.620002 0.0290107 0.
0.622003 0.0290105 0.
0.624002 0.02901 0.
0.626002 0.0290094 0.
0.628002 0.0290089 0.
0.630002 0.0290086 0.
0.632002 0.0290082 0.
0.634003 0.0290079 0.
0.636004 0.0290076 0.
0.638004 0.0290072 0.
0.640005 0.029007 0.
0.642006 0.0290068 0.
0.644006 0.0290067 0.
0.646006 0.029006 0.
0.648006 0.0290052 0.
0.650006 0.0290044 0.
0.652007 0.0290036 0.
0.654008 0.0290028 0.
0.656009 0.0290021 0.
0.65801 0.0290021 0.
0.66001 0.0290021 0.
0.662011 0.0290021 0.
0.664012 0.0290022 0.
0.666013 0.0290024 0.
0.668014 0.0290022 0.
0.670015 0.0290019 0.
0.672016 0.0290016 0.
0.674016 0.0290015 0.
0.676017 0.0290013 0.
0.678017 0.0290011 0.
0.680018 0.0290011 0.
0.682019 0.0290012 0.
0.68402 0.0290015 0.
0.686022 0.0290024 0.
0.688023 0.0290033 0.
0.690024 0.0290044 0.
0.692025 0.0290056 0.
0.694025 0.0290068 0.
0.696026 0.029008 0.
0.698027 0.0290093 0.
0.499974 0.0310074 0.
0.501975 0.0310061 0.
0.503977 0.0310049 0.
0.505977 0.0310039 0.
0.507978 0.0310032 0.
0.509978 0.0310026 0.
0.511978 0.031002 0.
0.513979 0.0310016 0.
0.51598 0.0310012 0.
0.517982 0.0310011 0.
0.519983 0.0310011 0.
0.521984 0.0310011 0.
0.523985 0.0310012 0.
0.525986 0.0310013 0.
0.527986 0.0310014 0.
0.529987 0.0310017 0.
0.531988 0.031002 0.
0.533989 0.0310023 0.
0.53599 0.0310027 0.
0.53799 0.0310032 0.
0.539991 0.0310031 0.
0.541991 0.0310025 0.
0.543992 0.0310019 0.
0.545993 0.0310023 0.
0.547993 0.0310029 0.
0.549994 0.0310036 0.
0.551994 0.0310036 0.
0.553994 0.0310036 0.
0.555994 0.0310038 0.
0.557995 0.0310041 0.
0.559996 0.0310045 0.
0.561996 0.031005 0.
0.563997 0.0310057 0.
0.565997 0.0310063 0.
0.567998 0.0310068 0.
0.569998 0.0310071 0.
0.571999 0.0310074 0.
0.573999 0.031008 0.
0.575999 0.0310087 0.
0.577999 0.0310094 0.
0.579999 0.03101 0.
0.581999 0.0310107 0.
0.584 0.0310111 0.
0.586 0.0310113 0.
0.588 0.0310115 0.
0.590001 0.0310117 0.
0.592001 0.031012 0.
0.594001 0.0310122 0.
0.596001 0.031012 0.
0.598001 0.0310115 0.
0.6 0.0310111 0.
0.602001 0.0310111 0.
0.604002 0.031011 0.
0.606003 0.031011 0.
0.608002 0.0310111 0.
0.610002 0.0310111 0.
0.612002 0.0310112 0.
0.614002 0.0310112 0.
0.616002 0.0310112 0.
0.618002 0.0310111 0.
0.620002 0.0310109 0.
0.622002 0.0310107 0.
0.624002 0.0310102 0.
0.626001 0.0310096 0.
0.628001 0.031009 0.
0.630002 0.0310086 0.
0.632002 0.0310081 0.
0.634002 0.0310077 0.
0.636003 0.0310075 0.
0.638004 0.0310072 0.
0.640004 0.0310068 0.
0.642005 0.0310064 0.
0.644005 0.031006 0.
0.646005 0.0310052 0.
0.648006 0.0310044 0.
0.650006 0.0310036 0.
0.652007 0.0310028 0.
0.654007 0.031002 0.
0.656008 0.0310014 0.
0.658009 0.0310015 0.
0.660009 0.0310017 0.
0.66201 0.0310018 0.
0.664011 0.031002 0.
0.666012 0.0310021 0.
0.668013 0.0310019 0.
0.670014 0.0310017 0.
0.672015 0.0310014 0.
0.674015 0.0310013 0.
0.676016 0.0310012 0.
0.678016 0.031001 0.
0.680017 0.031001 0.
0.682018 0.0310009 0.
0.684019 0.0310012 0.
0.686021 0.0310022 0.
0.688022 0.0310032 0.
0.690023 0.0310044 0.
0.692024 0.0310056 0.
0.694024 0.0310068 0.
0.696025 0.0310079 0.
0.698026 0.031009 0.
0.499975 0.0330067 0.
0.501976 0.0330057 0.
0.503977 0.0330045 0.
0.505978 0.0330036 0.
0.507978 0.033003 0.
0.509979 0.0330025 0.
0.511979 0.033002 0.
0.51398 0.0330014 0.
0.515982 0.0330008 0.
0.517983 0.0330007 0.
0.519984 0.0330009 0.
0.521985 0.0330012 0.
0.523986 0.0330012 0.
0.525987 0.0330013 0.
0.527988 0.0330013 0.
0.529988 0.0330017 0.
0.531988 0.033002 0.
0.533989 0.0330022 0.
0.53599 0.0330024 0.
0.537991 0.0330026 0.
0.539991 0.0330025 0.
0.541992 0.0330023 0.
0.543993 0.0330021 0.
0.545993 0.0330022 0.
0.547994 0.0330025 0.
0.549994 0.0330028 0.
0.551994 0.0330033 0.
0.553995 0.0330038 0.
0.555995 0.0330042 0.
0.557996 0.0330045 0.
0.559996 0.0330047 0.
0.561997 0.033005 0.
0.563997 0.0330054 0.
0.565998 0.0330057 0.
0.567998 0.0330063 0.
0.569998 0.0330069 0.
0.571998 0.0330076 0.
0.573999 0.033008 0.
0.575999 0.0330084 0.
0.577999 0.0330088 0.
0.579999 0.0330096 0.
0.581999 0.0330105 0.
0.584 0.0330111 0.
0.586 0.0330111 0.
0.588 0.0330111 0.
0.59 0.0330113 0.
0.592 0.0330117 0.
0.594 0.0330121 0.
0.596 0.0330119 0.
0.598 0.0330115 0.
0.6 0.0330111 0.
0.602001 0.0330113 0.
0.604002 0.0330115 0.
0.606003 0.0330117 0.
0.608002 0.0330117 0.
0.610002 0.0330116 0.
0.612002 0.0330117 0.
0.614002 0.0330117 0.
0.616001 0.0330118 0.
0.618001 0.0330116 0.
0.620001 0.0330111 0.
0.622001 0.0330107 0.
0.624001 0.0330102 0.
0.626001 0.0330096 0.
0.628001 0.033009 0.
0.630001 0.0330084 0.
0.632002 0.0330078 0.
0.634002 0.0330074 0.
0.636002 0.0330073 0.
0.638003 0.0330072 0.
0.640003 0.0330069 0.
0.642003 0.0330063 0.
0.644004 0.0330057 0.
0.646005 0.0330047 0.
0.648005 0.0330036 0.
0.650006 0.0330025 0.
0.652006 0.033002 0.
0.654007 0.0330014 0.
0.656007 0.0330011 0.
0.658008 0.0330013 0.
0.660008 0.0330015 0.
0.662009 0.0330017 0.
0.66401 0.0330016 0.
0.666011 0.0330016 0.
0.668012 0.0330015 0.
0.670013 0.0330014 0.
0.672014 0.0330013 0.
0.674014 0.0330011 0.
0.676015 0.0330009 0.
0.678016 0.0330007 0.
0.680017 0.0330006 0.
0.682018 0.0330005 0.
0.684019 0.0330008 0.
0.68602 0.0330019 0.
0.688021 0.0330031 0.
0.690022 0.0330042 0.
0.692022 0.0330053 0.
0.694023 0.0330064 0.
0.696024 0.0330073 0.
0.698025 0.0330081 0.
0.499975 0.0350061 0.
0.501977 0.0350052 0.
0.503978 0.0350041 0.
0.505979 0.0350033 0.
0.507979 0.0350029 0.
0.509979 0.0350025 0.
0.51198 0.0350019 0.
0.513981 0.0350011 0.
0.515983 0.0350003 0.
0.517984 0.0350003 0.
0.519984 0.0350007 0.
0.521985 0.0350012 0.
0.523986 0.0350013 0.
0.525988 0.0350012 0.
0.527989 0.0350013 0.
0.529989 0.0350016 0.
0.531989 0.035002 0.
0.533989 0.0350021 0.
0.53599 0.0350021 0.
0.537991 0.035002 0.
0.539992 0.035002 0.
0.541993 0.0350021 0.
0.543993 0.0350022 0.
0.545994 0.0350022 0.
0.547994 0.0350021 0.
0.549995 0.035002 0.
0.551995 0.035003 0.
0.553996 0.035004 0.
0.555996 0.0350047 0.
0.557997 0.0350049 0.
0.559997 0.035005 0.
0.561998 0.0350051 0.
0.563998 0.0350051 0.
0.565999 0.0350051 0.
0.567999 0.0350058 0.
0.569998 0.0350068 0.
0.571998 0.0350078 0.
0.573998 0.035008 0.
0.575999 0.035008 0.
0.577999 0.0350082 0.
0.579999 0.0350093 0.
0.582 0.0350104 0.
0.584 0.0350111 0.
0.586 0.0350109 0.
0.588 0.0350107 0.
0.59 0.0350109 0.
0.592 0.0350114 0.
0.593999 0.0350119 0.
0.595999 0.0350117 0.
0.598 0.0350114 0.
0.6 0.0350111 0.
0.602001 0.0350116 0.
0.604002 0.0350121 0.
0.606003 0.0350124 0.
0.608002 0.0350122 0.
0.610002 0.0350121 0.
0.612001 0.0350121 0.
0.614001 0.0350123 0.
0.616001 0.0350124 0.
0.618001 0.035012 0.
0.62 0.0350114 0.
0.622 0.0350108 0.
0.624 0.0350102 0.
0.626 0.0350096 0.
0.628 0.035009 0.
0.630001 0.0350083 0.
0.632001 0.0350075 0.
0.634001 0.0350071 0.
0.636002 0.0350072 0.
0.638002 0.0350073 0.
0.640002 0.0350069 0.
0.642002 0.0350062 0.
0.644002 0.0350054 0.
0.646004 0.0350042 0.
0.648005 0.0350028 0.
0.650006 0.0350015 0.
0.652006 0.0350012 0.
0.654006 0.0350009 0.
0.656006 0.0350008 0.
0.658007 0.0350011 0.
0.660007 0.0350014 0.
0.662008 0.0350015 0.
0.664009 0.0350013 0.
0.666009 0.0350011 0.
0.66801 0.0350011 0.
0.670011 0.0350011 0.
0.672012 0.0350012 0.
0.674013 0.035001 0.
0.676015 0.0350007 0.
0.678016 0.0350004 0.
0.680017 0.0350002 0.
0.682018 0.035 0.
0.684019 0.0350004 0.
0.686019 0.0350017 0.
0.68802 0.035003 0.
0.69002 0.0350041 0.
0.692021 0.0350051 0.
0.694022 0.035006 0.
0.696023 0.0350067 0.
0.698024 0.0350073 0.
0.499977 0.037006 0.
0.501978 0.0370052 0.
0.503979 0.0370042 0.
0.50598 0.0370034 0.
0.50798 0.0370028 0.
0.509981 0.0370021 0.
0.511981 0.0370015 0.
0.513982 0.0370009 0.
0.515984 0.0370003 0.
0.517984 0.0370003 0.
0.519985 0.0370005 0.
0.521986 0.0370008 0.
0.523987 0.0370009 0.
0.525988 0.037001 0.
0.527989 0.037001 0.
0.529989 0.0370012 0.
0.53199 0.0370013 0.
0.53399 0.0370015 0.
0.535991 0.0370017 0.
0.537992 0.0370019 0.
0.539993 0.0370019 0.
0.541994 0.0370018 0.
0.543994 0.0370016 0.
0.545995 0.0370018 0.
0.547995 0.0370021 0.
0.549995 0.0370024 0.
0.551995 0.0370031 0.
0.553996 0.0370038 0.
0.555996 0.0370044 0.
0.557997 0.0370045 0.
0.559998 0.0370046 0.
0.561998 0.0370047 0.
0.563999 0.037005 0.
0.565999 0.0370052 0.
0.567999 0.0370058 0.
0.569999 0.0370067 0.
0.571999 0.0370075 0.
0.573999 0.0370082 0.
0.575999 0.0370088 0.
0.577999 0.0370094 0.
0.579999 0.0370101 0.
0.581999 0.0370107 0.
0.583999 0.0370112 0.
0.586 0.0370112 0.
0.588 0.0370113 0.
0.59 0.0370115 0.
0.592 0.0370118 0.
0.594 0.0370122 0.
0.596 0.0370121 0.
0.598 0.0370118 0.
0.6 0.0370115 0.
0.602001 0.0370117 0.
0.604002 0.037012 0.
0.606002 0.0370121 0.
0.608002 0.0370121 0.
0.610001 0.0370121 0.
0.612001 0.0370121 0.
0.614001 0.037012 0.
0.616001 0.0370119 0.
0.618001 0.0370116 0.
0.620001 0.0370113 0.
0.622001 0.0370109 0.
0.624001 0.0370101 0.
0.626 0.0370093 0.
0.628 0.0370085 0.
0.630001 0.0370079 0.
0.632001 0.0370072 0.
0.634001 0.0370068 0.
0.636001 0.037007 0.
0.638002 0.0370071 0.
0.640002 0.0370067 0.
0.642003 0.0370058 0.
0.644003 0.0370049 0.
0.646004 0.0370038 0.
0.648004 0.0370027 0.
0.650005 0.0370016 0.
0.652005 0.0370012 0.
0.654005 0.0370007 0.
0.656005 0.0370004 0.
0.658006 0.0370005 0.
0.660006 0.0370007 0.
0.662007 0.0370008 0.
0.664008 0.0370007 0.
0.666009 0.0370007 0.
0.66801 0.0370007 0.
0.67001 0.0370008 0.
0.672011 0.0370008 0.
0.674012 0.0370006 0.
0.676013 0.0370003 0.
0.678015 0.037 0.
0.680016 0.0370002 0.
0.682017 0.0370003 0.
0.684018 0.0370006 0.
0.686018 0.0370016 0.
0.688019 0.0370025 0.
0.69002 0.0370035 0.
0.692021 0.0370045 0.
0.694022 0.0370055 0.
0.696023 0.0370059 0.
0.698024 0.0370063 0.
0.499979 0.0390059 0.
0.501979 0.0390051 0.
0.50398 0.0390043 0.
0.505981 0.0390035 0.
0.507981 0.0390026 0.
0.509982 0.0390018 0.
0.511983 0.0390011 0.
0.513984 0.0390007 0.
0.515985 0.0390004 0.
0.517985 0.0390003 0.
0.519986 0.0390003 0.
0.521987 0.0390003 0.
0.523988 0.0390005 0.
0.525989 0.0390007 0.
0.52799 0.0390008 0.
0.52999 0.0390008 0.
0.531991 0.0390007 0.
0.533992 0.0390008 0.
0.535993 0.0390013 0.
0.537993 0.0390018 0.
0.539994 0.0390018 0.
0.541995 0.0390014 0.
0.543995 0.039001 0.
0.545995 0.0390015 0.
0.547995 0.0390021 0.
0.549995 0.0390028 0.
0.551996 0.0390032 0.
0.553996 0.0390037 0.
0.555997 0.039004 0.
0.557998 0.0390041 0.
0.559998 0.0390041 0.
0.561999 0.0390043 0.
0.564 0.0390048 0.
0.566 0.0390053 0.
0.568 0.0390059 0.
0.57 0.0390066 0.
0.572 0.0390072 0.
0.574 0.0390084 0.
0.576 0.0390096 0.
0.578 0.0390107 0.
0.579999 0.0390108 0.
0.581999 0.039011 0.
0.583999 0.0390112 0.
0.585999 0.0390115 0.
0.587999 0.0390118 0.
0.59 0.039012 0.
0.592 0.0390123 0.
0.594001 0.0390125 0.
0.596001 0.0390124 0.
0.598001 0.0390121 0.
0.6 0.0390119 0.
0.602001 0.0390119 0.
0.604002 0.0390119 0.
0.606002 0.0390119 0.
0.608001 0.039012 0.
0.610001 0.0390122 0.
0.612001 0.0390121 0.
0.614001 0.0390118 0.
0.616002 0.0390114 0.
0.618002 0.0390112 0.
0.620002 0.0390111 0.
0.622001 0.039011 0.
0.624001 0.0390101 0.
0.626001 0.0390091 0.
0.628 0.0390081 0.
0.63 0.0390075 0.
0.632 0.0390068 0.
0.634001 0.0390065 0.
0.636001 0.0390068 0.
0.638002 0.039007 0.
0.640003 0.0390065 0.
0.642003 0.0390054 0.
0.644004 0.0390044 0.
0.646004 0.0390035 0.
0.648004 0.0390026 0.
0.650004 0.0390018 0.
0.652004 0.0390012 0.
0.654005 0.0390005 0.
0.656005 0.039 0.
0.658005 0.039 0.
0.660006 0.039 0.
0.662006 0.039 0.
0.664007 0.0390002 0.
0.666008 0.0390004 0.
0.668009 0.0390004 0.
0.67001 0.0390004 0.
0.67201 0.0390004 0.
0.674011 0.0390002 0.
0.676012 0.0389999 0.
0.678013 0.0389996 0.
0.680014 0.0390001 0.
0.682015 0.0390005 0.
0.684017 0.0390009 0.
0.686017 0.0390015 0.
0.688018 0.039002 0.
0.690019 0.0390028 0.
0.69202 0.0390039 0.
0.694021 0.0390049 0.
0.696023 0.0390052 0.
0.698024 0.0390052 0.
0.49998 0.041006 0.
0.501981 0.0410051 0.
0.503981 0.041004 0.
0.505982 0.0410031 0.
0.507983 0.0410023 0.
0.509983 0.0410015 0.
0.511984 0.0410009 0.
0.513985 0.0410006 0.
0.515986 0.0410003 0.
0.517986 0.0410001 0.
0.519987 0.0410001 0.
0.521988 0.041 0.
0.523989 0.0410003 0.
0.52599 0.0410005 0.
0.52799 0.0410008 0.
0.529991 0.0410006 0.
0.531992 0.0410004 0.
0.533993 0.0410005 0.
0.535994 0.0410009 0.
0.537994 0.0410013 0.
0.539995 0.0410013 0.
0.541995 0.041001 0.
0.543996 0.0410007 0.
0.545996 0.0410012 0.
0.547996 0.0410019 0.
0.549996 0.0410026 0.
0.551996 0.041003 0.
0.553997 0.0410034 0.
0.555997 0.0410037 0.
0.557998 0.0410038 0.
0.559999 0.0410039 0.
0.561999 0.0410042 0.
0.564 0.0410047 0.
0.566 0.0410052 0.
0.568 0.0410059 0.
0.57 0.0410067 0.
0.572001 0.0410074 0.
0.574 0.0410087 0.
0.576 0.0410102 0.
0.578 0.0410114 0.
0.58 0.0410115 0.
0.581999 0.0410115 0.
0.583999 0.0410116 0.
0.585999 0.0410119 0.
0.587999 0.0410122 0.
0.59 0.0410124 0.
0.592 0.0410126 0.
0.594001 0.0410127 0.
0.596001 0.0410126 0.
0.598001 0.0410124 0.
0.600001 0.0410122 0.
0.602001 0.0410121 0.
0.604001 0.0410121 0.
0.606001 0.041012 0.
0.608001 0.0410121 0.
0.610001 0.0410122 0.
0.612001 0.041012 0.
0.614001 0.0410115 0.
0.616002 0.041011 0.
0.618002 0.0410108 0.
0.620001 0.0410109 0.
0.622001 0.0410109 0.
0.624001 0.04101 0.
0.626001 0.0410091 0.
0.628 0.0410082 0.
0.63 0.0410075 0.
0.632 0.0410068 0.
0.634001 0.0410064 0.
0.636001 0.0410066 0.
0.638002 0.0410068 0.
0.640003 0.0410064 0.
0.642003 0.0410054 0.
0.644003 0.0410043 0.
0.646003 0.0410034 0.
0.648003 0.0410025 0.
0.650003 0.0410015 0.
0.652004 0.0410009 0.
0.654004 0.0410003 0.
0.656005 0.0409998 0.
0.658005 0.0409997 0.
0.660005 0.0409996 0.
0.662006 0.0409996 0.
0.664007 0.0409998 0.
0.666008 0.0410001 0.
0.668009 0.0410001 0.
0.670009 0.0410001 0.
0.67201 0.041 0.
0.67401 0.0409997 0.
0.676011 0.0409994 0.
0.678012 0.0409992 0.
0.680013 0.0409998 0.
0.682014 0.0410004 0.
0.684015 0.0410009 0.
0.686016 0.0410012 0.
0.688018 0.0410016 0.
0.690019 0.0410022 0.
0.69202 0.0410031 0.
0.694021 0.0410039 0.
0.696022 0.0410042 0.
0.698023 0.0410043 0.
0.499981 0.0430065 0.
0.501982 0.0430049 0.
0.503983 0.0430033 0.
0.505983 0.043002 0.
0.507984 0.0430017 0.
0.509985 0.0430014 0.
0.511986 0.043001 0.
0.513986 0.0430005 0.
0.515987 0.043 0.
0.517988 0.0429998 0.
0.519988 0.0429998 0.
0.521989 0.0429997 0.
0.52399 0.0430001 0.
0.52599 0.0430006 0.
0.527991 0.0430009 0.
0.529992 0.0430007 0.
0.531993 0.0430005 0.
0.533994 0.0430003 0.
0.535994 0.0430004 0.
0.537995 0.0430004 0.
0.539996 0.0430005 0.
0.541996 0.0430006 0.
0.543997 0.0430007 0.
0.545997 0.043001 0.
0.547997 0.0430015 0.
0.549997 0.0430019 0.
0.551997 0.0430024 0.
0.553998 0.0430029 0.
0.555998 0.0430033 0.
0.557999 0.0430037 0.
0.559999 0.0430042 0.
0.561999 0.0430045 0.
0.564 0.0430048 0.
0.566 0.0430051 0.
0.568 0.0430059 0.
0.570001 0.043007 0.
0.572001 0.043008 0.
0.574001 0.0430093 0.
0.576 0.0430105 0.
0.578 0.0430117 0.
0.58 0.0430119 0.
0.581999 0.0430122 0.
0.583999 0.0430124 0.
0.585999 0.0430124 0.
0.587999 0.0430125 0.
0.59 0.0430126 0.
0.592 0.0430127 0.
0.594 0.0430128 0.
0.596 0.0430127 0.
0.598 0.0430125 0.
0.6 0.0430123 0.
0.602001 0.0430124 0.
0.604001 0.0430125 0.
0.606001 0.0430126 0.
0.608001 0.0430124 0.
0.610001 0.0430123 0.
0.612001 0.0430119 0.
0.614001 0.0430112 0.
0.616001 0.0430106 0.
0.618001 0.0430104 0.
0.620001 0.0430104 0.
0.622001 0.0430104 0.
0.624001 0.0430099 0.
0.626001 0.0430094 0.
0.628001 0.0430088 0.
0.630001 0.0430079 0.
0.632001 0.043007 0.
0.634001 0.0430065 0.
0.636001 0.0430066 0.
0.638002 0.0430066 0.
0.640002 0.0430063 0.
0.642002 0.0430055 0.
0.644002 0.0430048 0.
0.646003 0.0430036 0.
0.648003 0.0430022 0.
0.650003 0.0430009 0.
0.652004 0.0430004 0.
0.654004 0.0429999 0.
0.656005 0.0429995 0.
0.658005 0.0429995 0.
0.660005 0.0429994 0.
0.662006 0.0429995 0.
0.664007 0.0429997 0.
0.666008 0.0429998 0.
0.668008 0.0429998 0.
0.670009 0.0429998 0.
0.672009 0.0429997 0.
0.67401 0.0429993 0.
0.67601 0.0429989 0.
0.678011 0.0429986 0.
0.680012 0.0429993 0.
0.682013 0.043 0.
0.684014 0.0430006 0.
0.686015 0.0430009 0.
0.688017 0.0430012 0.
0.690018 0.0430016 0.
0.692019 0.043002 0.
0.69402 0.0430025 0.
0.69602 0.043003 0.
0.698021 0.0430035 0.
0.499983 0.045007 0.
0.501983 0.0450048 0.
0.503984 0.0450026 0.
0.505985 0.045001 0.
0.507986 0.0450012 0.
0.509986 0.0450013 0.
0.511987 0.0450011 0.
0.513988 0.0450004 0.
0.515988 0.0449998 0.
0.517989 0.0449995 0.
0.519989 0.0449995 0.
0.52199 0.0449995 0.
0.523991 0.045 0.
0.525991 0.0450006 0.
0.527992 0.0450011 0.
0.529993 0.0450008 0.
0.531994 0.0450005 0.
0.533995 0.0450002 0.
0.535995 0.0449999 0.
0.537996 0.0449996 0.
0.539996 0.0449997 0.
0.541997 0.0450002 0.
0.543997 0.0450006 0.
0.545998 0.0450009 0.
0.547998 0.0450011 0.
0.549998 0.0450013 0.
0.551998 0.0450018 0.
0.553999 0.0450023 0.
0.555999 0.0450029 0.
0.557999 0.0450036 0.
0.559999 0.0450044 0.
0.561999 0.0450048 0.
0.564 0.0450049 0.
0.566 0.045005 0.
0.568 0.0450059 0.
0.570001 0.0450073 0.
0.572001 0.0450087 0.
0.574001 0.0450098 0.
0.576 0.0450109 0.
0.577999 0.045012 0.
0.58 0.0450124 0.
0.582 0.0450128 0.
0.584 0.0450131 0.
0.586 0.0450129 0.
0.588 0.0450128 0.
0.59 0.0450128 0.
0.592 0.0450129 0.
0.594 0.045013 0.
0.596 0.0450129 0.
0.598 0.0450127 0.
0.6 0.0450125 0.
0.602 0.0450128 0.
0.604 0.045013 0.
0.606001 0.0450131 0.
0.608001 0.0450127 0.
0.610001 0.0450123 0.
0.612001 0.0450118 0.
0.614 0.045011 0.
0.616 0.0450102 0.
0.618 0.0450099 0.
0.62 0.04501 0.
0.622 0.04501 0.
0.624 0.0450099 0.
0.626 0.0450097 0.
0.628001 0.0450094 0.
0.630001 0.0450084 0.
0.632001 0.0450073 0.
0.634001 0.0450065 0.
0.636001 0.0450065 0.
0.638001 0.0450064 0.
0.640001 0.0450062 0.
0.642001 0.0450057 0.
0.644001 0.0450052 0.
0.646002 0.0450037 0.
0.648002 0.0450019 0.
0.650003 0.0450002 0.
0.652004 0.0449998 0.
0.654004 0.0449995 0.
0.656005 0.0449993 0.
0.658005 0.0449993 0.
0.660006 0.0449993 0.
0.662006 0.0449994 0.
0.664007 0.0449995 0.
0.666008 0.0449996 0.
0.668008 0.0449996 0.
0.670008 0.0449995 0.
0.672009 0.0449994 0.
0.674009 0.0449989 0.
0.67601 0.0449984 0.
0.67801 0.0449981 0.
0.680011 0.0449989 0.
0.682012 0.0449997 0.
0.684013 0.0450003 0.
0.686014 0.0450006 0.
0.688016 0.0450008 0.
0.690017 0.045001 0.
0.692018 0.045001 0.
0.694018 0.0450011 0.
0.696019 0.0450018 0.
0.69802 0.0450026 0.
0.499983 0.0470059 0.
0.501984 0.0470041 0.
0.503985 0.0470022 0.
0.505986 0.0470007 0.
0.507987 0.0470008 0.
0.509987 0.0470009 0.
0.511988 0.0470007 0.
0.513989 0.0470001 0.
0.515989 0.0469995 0.
0.51799 0.0469993 0.
0.51999 0.0469992 0.
0.521991 0.0469992 0.
0.523992 0.0469996 0.
0.525992 0.047 0.
0.527993 0.0470004 0.
0.529994 0.0470001 0.
0.531995 0.0469999 0.
0.533996 0.0469998 0.
0.535996 0.0469997 0.
0.537997 0.0469996 0.
0.539997 0.0469997 0.
0.541997 0.0469999 0.
0.543998 0.0470001 0.
0.545998 0.0470004 0.
0.547998 0.0470006 0.
0.549998 0.0470009 0.
0.551998 0.0470015 0.
0.553999 0.0470021 0.
0.555999 0.0470028 0.
0.557999 0.0470036 0.
0.56 0.0470044 0.
0.562 0.047005 0.
0.564 0.0470052 0.
0.566 0.0470054 0.
0.568 0.0470062 0.
0.570001 0.0470074 0.
0.572001 0.0470085 0.
0.574001 0.0470096 0.
0.576001 0.0470108 0.
0.578 0.0470119 0.
0.58 0.0470122 0.
0.582 0.0470126 0.
0.584 0.0470129 0.
0.586 0.0470129 0.
0.588 0.047013 0.
0.59 0.0470131 0.
0.592 0.0470132 0.
0.594 0.0470133 0.
0.596 0.0470133 0.
0.598 0.0470133 0.
0.6 0.0470133 0.
0.602 0.0470134 0.
0.604 0.0470134 0.
0.606 0.0470134 0.
0.608 0.0470129 0.
0.61 0.0470123 0.
0.612 0.0470117 0.
0.614 0.047011 0.
0.616 0.0470103 0.
0.618 0.04701 0.
0.62 0.0470098 0.
0.622 0.0470096 0.
0.624 0.0470095 0.
0.626 0.0470093 0.
0.628 0.047009 0.
0.63 0.047008 0.
0.632001 0.047007 0.
0.634001 0.0470062 0.
0.636001 0.047006 0.
0.638001 0.0470058 0.
0.640002 0.0470055 0.
0.642002 0.0470052 0.
0.644002 0.0470049 0.
0.646003 0.0470037 0.
0.648003 0.0470022 0.
0.650003 0.0470006 0.
0.652003 0.0470001 0.
0.654004 0.0469996 0.
0.656004 0.0469992 0.
0.658004 0.0469993 0.
0.660004 0.0469994 0.
0.662005 0.0469993 0.
0.664006 0.0469992 0.
0.666006 0.046999 0.
0.668007 0.0469989 0.
0.670007 0.0469988 0.
0.672008 0.0469987 0.
0.674008 0.0469983 0.
0.676009 0.0469978 0.
0.67801 0.0469975 0.
0.680011 0.0469983 0.
0.682012 0.0469992 0.
0.684013 0.0469998 0.
0.686014 0.0470002 0.
0.688015 0.0470006 0.
0.690016 0.0470008 0.
0.692017 0.0470011 0.
0.694017 0.0470013 0.
0.696018 0.047002 0.
0.698019 0.0470028 0.
0.499984 0.0490049 0.
0.501985 0.0490033 0.
0.503986 0.0490017 0.
0.505987 0.0490004 0.
0.507988 0.0490005 0.
0.509988 0.0490005 0.
0.511989 0.0490003 0.
0.513989 0.0489998 0.
0.51599 0.0489993 0.
0.51799 0.0489991 0.
0.519991 0.0489989 0.
0.521991 0.0489988 0.
0.523992 0.0489991 0.
0.525993 0.0489994 0.
0.527995 0.0489996 0.
0.529996 0.0489995 0.
0.531997 0.0489993 0.
0.533997 0.0489993 0.
0.535998 0.0489995 0.
0.537998 0.0489997 0.
0.539998 0.0489997 0.
0.541998 0.0489997 0.
0.543998 0.0489996 0.
0.545998 0.0489998 0.
0.547998 0.0490002 0.
0.549998 0.0490005 0.
0.551999 0.0490012 0.
0.553999 0.0490019 0.
0.556 0.0490027 0.
0.558 0.0490036 0.
0.56 0.0490045 0.
0.562 0.0490051 0.
0.564 0.0490055 0.
0.566 0.0490059 0.
0.568001 0.0490066 0.
0.570001 0.0490074 0.
0.572001 0.0490083 0.
0.574001 0.0490094 0.
0.576001 0.0490107 0.
0.578001 0.0490118 0.
0.58 0.0490121 0.
0.582 0.0490123 0.
0.584 0.0490126 0.
0.586 0.0490129 0.
0.588 0.0490132 0.
0.59 0.0490134 0.
0.592 0.0490135 0.
0.594 0.0490137 0.
0.596 0.0490138 0.
0.598 0.0490139 0.
0.600001 0.0490141 0.
0.602 0.049014 0.
0.604 0.0490139 0.
0.606 0.0490136 0.
0.608 0.049013 0.
0.61 0.0490123 0.
0.612 0.0490117 0.
0.614 0.0490111 0.
0.616 0.0490104 0.
0.618 0.04901 0.
0.62 0.0490096 0.
0.622 0.0490093 0.
0.624 0.049009 0.
0.625999 0.0490089 0.
0.627999 0.0490086 0.
0.63 0.0490076 0.
0.632001 0.0490067 0.
0.634001 0.0490059 0.
0.636001 0.0490055 0.
0.638002 0.0490051 0.
0.640002 0.0490049 0.
0.642002 0.0490048 0.
0.644003 0.0490046 0.
0.646003 0.0490036 0.
0.648003 0.0490024 0.
0.650003 0.0490011 0.
0.652003 0.0490003 0.
0.654003 0.0489996 0.
0.656003 0.048999 0.
0.658003 0.0489992 0.
0.660003 0.0489994 0.
0.662004 0.0489993 0.
0.664004 0.0489989 0.
0.666005 0.0489984 0.
0.668006 0.0489982 0.
0.670006 0.0489981 0.
0.672007 0.048998 0.
0.674008 0.0489976 0.
0.676009 0.0489971 0.
0.678009 0.0489968 0.
0.68001 0.0489977 0.
0.682011 0.0489986 0.
0.684012 0.0489994 0.
0.686013 0.0489998 0.
0.688015 0.0490003 0.
0.690015 0.0490007 0.
0.692016 0.0490011 0.
0.694016 0.0490015 0.
0.696017 0.0490022 0.
0.698018 0.049003 0.
0.499985 0.0510042 0.
0.501986 0.0510028 0.
0.503987 0.0510013 0.
0.505988 0.0510001 0.
0.507989 0.0510001 0.
0.509989 0.0510001 0.
0.51199 0.0509999 0.
0.513991 0.0509995 0.
0.515991 0.0509991 0.
0.517992 0.0509989 0.
0.519992 0.0509987 0.
0.521992 0.0509986 0.
0.523993 0.0509987 0.
0.525994 0.0509989 0.
0.527996 0.050999 0.
0.529997 0.050999 0.
0.531998 0.050999 0.
0.533998 0.0509992 0.
0.535999 0.0509995 0.
0.537999 0.0509998 0.
0.539999 0.0509997 0.
0.541999 0.0509994 0.
0.543999 0.0509991 0.
0.545999 0.0509994 0.
0.547999 0.0509999 0.
0.549999 0.0510004 0.
0.551999 0.0510011 0.
0.554 0.0510018 0.
0.556 0.0510026 0.
0.558 0.0510036 0.
0.560001 0.0510046 0.
0.562001 0.0510054 0.
0.564001 0.0510058 0.
0.566001 0.0510063 0.
0.568001 0.051007 0.
0.570002 0.0510077 0.
0.572002 0.0510085 0.
0.574002 0.0510097 0.
0.576002 0.0510109 0.
0.578001 0.051012 0.
0.580001 0.0510122 0.
0.582 0.0510125 0.
0.584 0.0510128 0.
0.586 0.0510132 0.
0.588 0.0510137 0.
0.59 0.0510138 0.
0.592 0.0510137 0.
0.594 0.0510136 0.
0.596 0.0510139 0.
0.598 0.0510142 0.
0.600001 0.0510145 0.
0.602 0.0510143 0.
0.604 0.0510141 0.
0.606 0.0510139 0.
0.608 0.0510133 0.
0.61 0.0510127 0.
0.612 0.051012 0.
0.614 0.0510113 0.
0.616 0.0510106 0.
0.618 0.0510101 0.
0.62 0.0510098 0.
0.622 0.0510094 0.
0.624 0.051009 0.
0.625999 0.0510086 0.
0.627999 0.0510082 0.
0.629999 0.0510073 0.
0.632 0.0510064 0.
0.634001 0.0510057 0.
0.636001 0.0510052 0.
0.638001 0.0510048 0.
0.640002 0.0510045 0.
0.642002 0.0510043 0.
0.644003 0.0510041 0.
0.646003 0.0510033 0.
0.648003 0.0510023 0.
0.650003 0.0510013 0.
0.652003 0.0510005 0.
0.654002 0.0509997 0.
0.656002 0.0509991 0.
0.658002 0.0509991 0.
0.660003 0.0509991 0.
0.662003 0.0509989 0.
0.664004 0.0509985 0.
0.666004 0.0509982 0.
0.668005 0.0509979 0.
0.670005 0.0509976 0.
0.672006 0.0509974 0.
0.674007 0.050997 0.
0.676008 0.0509966 0.
0.678009 0.0509964 0.
0.68001 0.0509972 0.
0.682011 0.050998 0.
0.684012 0.0509987 0.
0.686013 0.0509992 0.
0.688014 0.0509998 0.
0.690015 0.0510003 0.
0.692015 0.0510007 0.
0.694015 0.0510012 0.
0.696016 0.0510021 0.
0.698017 0.0510032 0.
0.499987 0.0530038 0.
0.501987 0.0530024 0.
0.503988 0.0530009 0.
0.505989 0.0529998 0.
0.507989 0.0529998 0.
0.50999 0.0529998 0.
0.511991 0.0529996 0.
0.513992 0.0529993 0.
0.515993 0.052999 0.
0.517993 0.0529988 0.
0.519994 0.0529986 0.
0.521994 0.0529985 0.
0.523995 0.0529985 0.
0.525995 0.0529985 0.
0.527996 0.0529985 0.
0.529997 0.0529988 0.
0.531998 0.052999 0.
0.533998 0.0529993 0.
0.535999 0.0529996 0.
0.537999 0.0529999 0.
0.539999 0.0529997 0.
0.541999 0.0529992 0.
0.543999 0.0529987 0.
0.545999 0.0529992 0.
0.547999 0.0529999 0.
0.549999 0.0530006 0.
0.552 0.0530013 0.
0.554 0.0530019 0.
0.556001 0.0530026 0.
0.558001 0.0530038 0.
0.560002 0.053005 0.
0.562002 0.0530058 0.
0.564002 0.0530062 0.
0.566002 0.0530066 0.
0.568002 0.0530074 0.
0.570003 0.0530083 0.
0.572003 0.0530092 0.
0.574002 0.0530104 0.
0.576002 0.0530115 0.
0.578002 0.0530126 0.
0.580001 0.0530128 0.
0.582001 0.053013 0.
0.584001 0.0530133 0.
0.586 0.0530139 0.
0.588 0.0530145 0.
0.59 0.0530144 0.
0.592 0.0530139 0.
0.594001 0.0530133 0.
0.596001 0.0530135 0.
0.598001 0.053014 0.
0.600001 0.0530145 0.
0.602 0.0530144 0.
0.604 0.0530143 0.
0.606 0.0530141 0.
0.608 0.0530137 0.
0.61 0.0530134 0.
0.612 0.0530127 0.
0.613999 0.0530118 0.
0.615999 0.0530108 0.
0.617999 0.0530104 0.
0.62 0.0530103 0.
0.622 0.0530101 0.
0.624 0.0530094 0.
0.625999 0.0530085 0.
0.627999 0.0530077 0.
0.629999 0.053007 0.
0.631999 0.0530062 0.
0.634 0.0530056 0.
0.636 0.0530052 0.
0.638001 0.0530048 0.
0.640001 0.0530043 0.
0.642001 0.0530037 0.
0.644001 0.0530031 0.
0.646002 0.0530026 0.
0.648002 0.053002 0.
0.650002 0.0530014 0.
0.652002 0.0530006 0.
0.654002 0.0529999 0.
0.656002 0.0529992 0.
0.658002 0.0529988 0.
0.660003 0.0529983 0.
0.662003 0.0529981 0.
0.664003 0.0529981 0.
0.666003 0.0529982 0.
0.668004 0.0529978 0.
0.670004 0.0529973 0.
0.672005 0.0529967 0.
0.674006 0.0529965 0.
0.676007 0.0529963 0.
0.678008 0.0529961 0.
0.680009 0.0529966 0.
0.68201 0.0529971 0.
0.684011 0.0529977 0.
0.686012 0.0529984 0.
0.688013 0.0529991 0.
0.690014 0.0529996 0.
0.692015 0.053 0.
0.694015 0.0530003 0.
0.696016 0.0530017 0.
0.698016 0.0530034 0.
0.499988 0.0550033 0.
0.501989 0.055002 0.
0.503989 0.0550006 0.
0.50599 0.0549995 0.
0.50799 0.0549995 0.
0.509991 0.0549994 0.
0.511992 0.0549993 0.
0.513993 0.054999 0.
0.515994 0.0549988 0.
0.517995 0.0549986 0.
0.519995 0.0549985 0.
0.521996 0.0549984 0.
0.523996 0.0549982 0.
0.525996 0.0549981 0.
0.527997 0.054998 0.
0.529997 0.0549985 0.
0.531998 0.054999 0.
0.533999 0.0549995 0.
0.535999 0.0549997 0.
0.537999 0.055 0.
0.539999 0.0549997 0.
0.542 0.054999 0.
0.544 0.0549983 0.
0.546 0.0549989 0.
0.548 0.0549999 0.
0.55 0.0550009 0.
0.552001 0.0550014 0.
0.554001 0.055002 0.
0.556002 0.0550027 0.
0.558002 0.055004 0.
0.560003 0.0550053 0.
0.562003 0.0550062 0.
0.564003 0.0550065 0.
0.566004 0.0550069 0.
0.568004 0.0550078 0.
0.570003 0.0550089 0.
0.572003 0.05501 0.
0.574003 0.0550111 0.
0.576003 0.0550122 0.
0.578002 0.0550132 0.
0.580002 0.0550133 0.
0.582002 0.0550135 0.
0.584001 0.0550139 0.
0.586001 0.0550146 0.
0.588 0.0550152 0.
0.590001 0.055015 0.
0.592001 0.055014 0.
0.594002 0.055013 0.
0.596001 0.0550132 0.
0.598001 0.0550139 0.
0.600001 0.0550145 0.
0.602 0.0550145 0.
0.604 0.0550144 0.
0.606 0.0550144 0.
0.608 0.0550142 0.
0.609999 0.0550141 0.
0.611999 0.0550134 0.
0.613999 0.0550122 0.
0.615999 0.055011 0.
0.617999 0.0550107 0.
0.619999 0.0550107 0.
0.621999 0.0550108 0.
0.623999 0.0550097 0.
0.625999 0.0550085 0.
0.627999 0.0550073 0.
0.629999 0.0550067 0.
0.631999 0.0550061 0.
0.633999 0.0550055 0.
0.635999 0.0550052 0.
0.638 0.0550048 0.
0.64 0.0550041 0.
0.642 0.0550032 0.
0.644 0.0550022 0.
0.646 0.0550019 0.
0.648001 0.0550016 0.
0.650001 0.0550014 0.
0.652002 0.0550008 0.
0.654002 0.0550001 0.
0.656002 0.0549994 0.
0.658002 0.0549985 0.
0.660002 0.0549976 0.
0.662002 0.0549973 0.
0.664002 0.0549978 0.
0.666002 0.0549982 0.
0.668003 0.0549978 0.
0.670004 0.0549969 0.
0.672005 0.0549961 0.
0.674005 0.054996 0.
0.676006 0.0549959 0.
0.678007 0.0549959 0.
0.680008 0.0549961 0.
0.682009 0.0549963 0.
0.684011 0.0549968 0.
0.686012 0.0549976 0.
0.688013 0.0549985 0.
0.690013 0.054999 0.
0.692014 0.0549993 0.
0.694015 0.0549995 0.
0.696015 0.0550013 0.
0.698015 0.0550036 0.
0.49999 0.0570031 0.
0.50199 0.0570018 0.
0.503991 0.0570005 0.
0.505991 0.0569995 0.
0.507992 0.0569991 0.
0.509993 0.0569986 0.
0.511993 0.0569985 0.
0.513994 0.0569985 0.
0.515995 0.0569986 0.
0.517996 0.0569984 0.
0.519996 0.0569981 0.
0.521997 0.0569978 0.
0.523997 0.0569978 0.
0.525997 0.0569978 0.
0.527998 0.0569979 0.
0.529998 0.0569984 0.
0.531998 0.0569989 0.
0.533999 0.0569993 0.
0.535999 0.0569995 0.
0.538 0.0569996 0.
0.54 0.0569994 0.
0.542 0.0569991 0.
0.544001 0.0569987 0.
0.546001 0.0569992 0.
0.548001 0.0569998 0.
0.550001 0.0570005 0.
0.552001 0.0570013 0.
0.554002 0.0570022 0.
0.556002 0.057003 0.
0.558002 0.0570041 0.
0.560003 0.0570051 0.
0.562003 0.0570059 0.
0.564003 0.0570063 0.
0.566003 0.0570067 0.
0.568003 0.0570077 0.
0.570003 0.0570088 0.
0.572003 0.05701 0.
0.574003 0.057011 0.
0.576002 0.0570119 0.
0.578002 0.0570129 0.
0.580002 0.0570134 0.
0.582002 0.057014 0.
0.584001 0.0570144 0.
0.586001 0.0570147 0.
0.588001 0.057015 0.
0.590001 0.0570149 0.
0.592001 0.0570143 0.
0.594002 0.0570138 0.
0.596001 0.057014 0.
0.598001 0.0570143 0.
0.600001 0.0570146 0.
0.602 0.0570146 0.
0.604 0.0570146 0.
0.606 0.0570146 0.
0.608 0.0570144 0.
0.61 0.0570143 0.
0.612 0.0570137 0.
0.613999 0.0570127 0.
0.615999 0.0570116 0.
0.617999 0.0570111 0.
0.62 0.0570109 0.
0.622 0.0570107 0.
0.624 0.0570097 0.
0.626 0.0570087 0.
0.628 0.0570077 0.
0.63 0.0570069 0.
0.631999 0.0570061 0.
0.633999 0.0570055 0.
0.636 0.0570051 0.
0.638 0.0570047 0.
0.64 0.0570041 0.
0.642 0.0570032 0.
0.644 0.0570023 0.
0.646 0.0570018 0.
0.648 0.0570014 0.
0.650001 0.0570011 0.
0.652001 0.0570004 0.
0.654001 0.0569998 0.
0.656002 0.0569992 0.
0.658002 0.0569985 0.
0.660002 0.0569978 0.
0.662002 0.0569975 0.
0.664002 0.0569975 0.
0.666002 0.0569975 0.
0.668003 0.0569971 0.
0.670003 0.0569964 0.
0.672004 0.0569958 0.
0.674005 0.0569955 0.
0.676005 0.0569953 0.
0.678006 0.0569951 0.
0.680007 0.0569955 0.
0.682008 0.0569959 0.
0.684009 0.0569964 0.
0.68601 0.0569971 0.
0.688011 0.0569978 0.
0.690012 0.0569983 0.
0.692012 0.0569988 0.
0.694013 0.0569993 0.
0.696013 0.0570009 0.
0.698014 0.0570028 0.
0.499991 0.0590029 0.
0.501991 0.0590017 0.
0.503992 0.0590005 0.
0.505993 0.0589994 0.
0.507993 0.0589986 0.
0.509994 0.0589979 0.
0.511995 0.0589976 0.
0.513995 0.058998 0.
0.515996 0.0589984 0.
0.517997 0.0589982 0.
0.519998 0.0589978 0.
0.521998 0.0589973 0.
0.523998 0.0589974 0.
0.525998 0.0589975 0.
0.527998 0.0589977 0.
0.529999 0.0589983 0.
0.531999 0.0589988 0.
0.533999 0.0589992 0.
0.536 0.0589992 0.
0.538 0.0589992 0.
0.540001 0.0589992 0.
0.542001 0.0589992 0.
0.544001 0.0589991 0.
0.546002 0.0589994 0.
0.548002 0.0589998 0.
0.550002 0.0590001 0.
0.552002 0.0590012 0.
0.554002 0.0590023 0.
0.556002 0.0590033 0.
0.558002 0.0590041 0.
0.560002 0.0590049 0.
0.562003 0.0590055 0.
0.564003 0.059006 0.
0.566003 0.0590066 0.
0.568003 0.0590076 0.
0.570003 0.0590088 0.
0.572003 0.05901 0.
0.574002 0.0590109 0.
0.576002 0.0590117 0.
0.578001 0.0590125 0.
0.580001 0.0590135 0.
0.582001 0.0590144 0.
0.584001 0.059015 0.
0.586001 0.0590149 0.
0.588001 0.0590148 0.
0.590001 0.0590147 0.
0.592001 0.0590147 0.
0.594002 0.0590147 0.
0.596001 0.0590147 0.
0.598001 0.0590147 0.
0.600001 0.0590147 0.
0.602 0.0590147 0.
0.604 0.0590148 0.
0.606 0.0590148 0.
0.608 0.0590147 0.
0.61 0.0590145 0.
0.612 0.059014 0.
0.614 0.0590131 0.
0.616 0.0590122 0.
0.618 0.0590115 0.
0.62 0.059011 0.
0.622001 0.0590106 0.
0.624001 0.0590098 0.
0.626 0.059009 0.
0.628 0.0590081 0.
0.63 0.0590072 0.
0.632 0.0590062 0.
0.634 0.0590055 0.
0.636 0.059005 0.
0.638 0.0590046 0.
0.64 0.059004 0.
0.642 0.0590032 0.
0.644 0.0590024 0.
0.646 0.0590018 0.
0.648 0.0590013 0.
0.65 0.0590007 0.
0.652001 0.0590001 0.
0.654001 0.0589995 0.
0.656001 0.0589989 0.
0.658001 0.0589985 0.
0.660001 0.0589981 0.
0.662001 0.0589977 0.
0.664002 0.0589972 0.
0.666002 0.0589968 0.
0.668003 0.0589964 0.
0.670003 0.0589959 0.
0.672004 0.0589955 0.
0.674004 0.0589951 0.
0.676004 0.0589946 0.
0.678004 0.0589943 0.
0.680005 0.0589949 0.
0.682006 0.0589955 0.
0.684007 0.0589961 0.
0.686008 0.0589966 0.
0.688009 0.0589971 0.
0.69001 0.0589977 0.
0.69201 0.0589984 0.
0.694011 0.058999 0.
0.696012 0.0590004 0.
0.698012 0.059002 0.
0.499993 0.0610028 0.
0.501993 0.0610015 0.
0.503994 0.0610004 0.
0.505994 0.0609993 0.
0.507995 0.0609986 0.
0.509996 0.0609978 0.
0.511996 0.0609975 0.
0.513997 0.0609978 0.
0.515997 0.0609981 0.
0.517998 0.0609979 0.
0.519998 0.0609974 0.
0.521999 0.0609969 0.
0.523999 0.0609971 0.
0.525999 0.0609974 0.
0.527999 0.0609977 0.
0.529999 0.0609981 0.
0.531999 0.0609985 0.
0.534 0.0609988 0.
0.536 0.0609988 0.
0.538001 0.0609988 0.
0.540001 0.060999 0.
0.542002 0.0609992 0.
0.544002 0.0609994 0.
0.546002 0.0609996 0.
0.548003 0.0609998 0.
0.550003 0.0610001 0.
0.552003 0.0610014 0.
0.554003 0.0610027 0.
0.556002 0.0610038 0.
0.558002 0.0610044 0.
0.560003 0.061005 0.
0.562003 0.0610055 0.
0.564003 0.0610061 0.
0.566003 0.0610067 0.
0.568003 0.0610077 0.
0.570003 0.0610089 0.
0.572003 0.0610101 0.
0.574002 0.061011 0.
0.576002 0.0610119 0.
0.578001 0.0610128 0.
0.580001 0.0610137 0.
0.582001 0.0610147 0.
0.584001 0.0610152 0.
0.586001 0.0610149 0.
0.588001 0.0610147 0.
0.590001 0.0610147 0.
0.592001 0.061015 0.
0.594001 0.0610153 0.
0.596001 0.0610152 0.
0.598001 0.061015 0.
0.6 0.0610148 0.
0.602 0.0610148 0.
0.604 0.0610148 0.
0.606 0.0610148 0.
0.608 0.0610147 0.
0.61 0.0610145 0.
0.612 0.0610141 0.
0.614 0.0610133 0.
0.616 0.0610125 0.
0.618 0.0610118 0.
0.62 0.0610112 0.
0.622001 0.0610107 0.
0.624 0.0610099 0.
0.626 0.0610091 0.
0.628 0.0610082 0.
0.63 0.0610074 0.
0.632 0.0610065 0.
0.634 0.0610058 0.
0.635999 0.0610052 0.
0.637999 0.0610046 0.
0.639999 0.061004 0.
0.641999 0.0610033 0.
0.643999 0.0610026 0.
0.645999 0.0610019 0.
0.647999 0.0610013 0.
0.649999 0.0610006 0.
0.652 0.0609999 0.
0.654 0.0609993 0.
0.656001 0.0609987 0.
0.658001 0.0609984 0.
0.660001 0.0609982 0.
0.662001 0.0609978 0.
0.664002 0.0609971 0.
0.666002 0.0609964 0.
0.668003 0.060996 0.
0.670003 0.0609956 0.
0.672003 0.0609952 0.
0.674003 0.0609947 0.
0.676003 0.0609943 0.
0.678004 0.0609939 0.
0.680004 0.0609945 0.
0.682005 0.0609952 0.
0.684006 0.0609957 0.
0.686007 0.0609961 0.
0.688007 0.0609965 0.
0.690008 0.060997 0.
0.692009 0.0609978 0.
0.694009 0.0609985 0.
0.69601 0.0609998 0.
0.69801 0.0610011 0.
0.499994 0.0630026 0.
0.501995 0.0630013 0.
0.503996 0.0630001 0.
0.505996 0.0629992 0.
0.507997 0.0629989 0.
0.509997 0.0629986 0.
0.511998 0.0629982 0.
0.513998 0.0629979 0.
0.515998 0.0629976 0.
0.517999 0.0629973 0.
0.519999 0.0629971 0.
0.522 0.0629968 0.
0.524 0.0629971 0.
0.526 0.0629975 0.
0.528 0.0629978 0.
0.53 0.062998 0.
0.532 0.0629981 0.
0.534 0.0629983 0.
0.536001 0.0629984 0.
0.538001 0.0629985 0.
0.540002 0.0629987 0.
0.542003 0.0629991 0.
0.544003 0.0629995 0.
0.546004 0.0629998 0.
0.548004 0.0630001 0.
0.550004 0.0630004 0.
0.552004 0.0630018 0.
0.554004 0.0630032 0.
0.556004 0.0630044 0.
0.558004 0.0630049 0.
0.560004 0.0630054 0.
0.562003 0.063006 0.
0.564003 0.0630066 0.
0.566003 0.0630072 0.
0.568003 0.0630081 0.
0.570003 0.0630091 0.
0.572003 0.0630102 0.
0.574003 0.0630113 0.
0.576002 0.0630125 0.
0.578002 0.0630136 0.
0.580002 0.0630142 0.
0.582001 0.0630148 0.
0.584001 0.0630151 0.
0.586001 0.0630149 0.
0.588001 0.0630147 0.
0.590001 0.0630149 0.
0.592001 0.0630153 0.
0.594001 0.0630157 0.
0.596 0.0630156 0.
0.598 0.0630152 0.
0.6 0.0630149 0.
0.602 0.0630148 0.
0.604 0.0630147 0.
0.606 0.0630145 0.
0.608 0.0630145 0.
0.61 0.0630144 0.
0.612 0.063014 0.
0.614 0.0630132 0.
0.616 0.0630125 0.
0.618 0.0630119 0.
0.62 0.0630114 0.
0.622 0.063011 0.
0.624 0.06301 0.
0.626 0.063009 0.
0.627999 0.063008 0.
0.629999 0.0630075 0.
0.631999 0.063007 0.
0.633999 0.0630064 0.
0.635999 0.0630056 0.
0.637998 0.0630048 0.
0.639998 0.0630041 0.
0.641999 0.0630035 0.
0.643999 0.0630029 0.
0.645999 0.0630022 0.
0.647999 0.0630015 0.
0.649999 0.0630008 0.
0.651999 0.063 0.
0.653999 0.0629992 0.
0.656 0.0629985 0.
0.658 0.0629983 0.
0.66 0.062998 0.
0.662 0.0629977 0.
0.664001 0.0629971 0.
0.666001 0.0629965 0.
0.668002 0.0629959 0.
0.670002 0.0629954 0.
0.672002 0.0629948 0.
0.674002 0.0629945 0.
0.676003 0.0629943 0.
0.678003 0.0629941 0.
0.680003 0.0629945 0.
0.682004 0.0629949 0.
0.684005 0.0629953 0.
0.686005 0.0629957 0.
0.688006 0.062996 0.
0.690007 0.0629965 0.
0.692007 0.0629971 0.
0.694008 0.0629977 0.
0.696008 0.0629988 0.
0.698009 0.0630001 0.
0.499996 0.0650023 0.
0.501997 0.0650011 0.
0.503998 0.0649999 0.
0.505998 0.064999 0.
0.507999 0.0649991 0.
0.509999 0.0649993 0.
0.511999 0.0649989 0.
0.513999 0.064998 0.
0.515999 0.0649971 0.
0.518 0.0649968 0.
0.52 0.0649968 0.
0.522 0.0649967 0.
0.524 0.0649971 0.
0.526 0.0649975 0.
0.528 0.0649979 0.
0.53 0.0649978 0.
0.532001 0.0649977 0.
0.534001 0.0649977 0.
0.536001 0.0649979 0.
0.538002 0.0649981 0.
0.540002 0.0649985 0.
0.542003 0.064999 0.
0.544004 0.0649995 0.
0.546005 0.0649999 0.
0.548005 0.0650003 0.
0.550005 0.0650007 0.
0.552005 0.0650022 0.
0.554005 0.0650037 0.
0.556005 0.065005 0.
0.558005 0.0650054 0.
0.560005 0.0650059 0.
0.562004 0.0650064 0.
0.564004 0.065007 0.
0.566003 0.0650076 0.
0.568003 0.0650084 0.
0.570003 0.0650093 0.
0.572004 0.0650103 0.
0.574003 0.0650116 0.
0.576003 0.0650131 0.
0.578002 0.0650144 0.
0.580002 0.0650147 0.
0.582002 0.0650149 0.
0.584001 0.0650151 0.
0.586001 0.0650149 0.
0.588001 0.0650148 0.
0.590001 0.065015 0.
0.592 0.0650156 0.
0.594 0.0650161 0.
0.596 0.0650159 0.
0.598 0.0650155 0.
0.6 0.0650151 0.
0.602 0.0650148 0.
0.604 0.0650145 0.
0.606 0.0650143 0.
0.608 0.0650143 0.
0.61 0.0650142 0.
0.612 0.0650139 0.
0.614 0.0650132 0.
0.616 0.0650124 0.
0.618 0.065012 0.
0.62 0.0650117 0.
0.622 0.0650113 0.
0.623999 0.0650102 0.
0.625999 0.0650089 0.
0.627999 0.0650078 0.
0.629998 0.0650076 0.
0.631998 0.0650075 0.
0.633998 0.0650071 0.
0.635998 0.065006 0.
0.637998 0.065005 0.
0.639998 0.0650043 0.
0.641998 0.0650037 0.
0.643998 0.0650032 0.
0.645998 0.0650025 0.
0.647998 0.0650018 0.
0.649998 0.065001 0.
0.651998 0.065 0.
0.653999 0.0649991 0.
0.655999 0.0649983 0.
0.657999 0.0649981 0.
0.66 0.0649979 0.
0.662 0.0649976 0.
0.664 0.0649971 0.
0.666001 0.0649966 0.
0.668001 0.0649959 0.
0.670001 0.0649952 0.
0.672001 0.0649945 0.
0.674001 0.0649943 0.
0.676002 0.0649942 0.
0.678002 0.0649942 0.
0.680003 0.0649944 0.
0.682003 0.0649947 0.
0.684004 0.064995 0.
0.686004 0.0649952 0.
0.688005 0.0649955 0.
0.690005 0.0649959 0.
0.692006 0.0649964 0.
0.694006 0.0649968 0.
0.696006 0.0649978 0.
0.698007 0.064999 0.
0.499996 0.0670012 0.
0.501997 0.0670005 0.
0.503998 0.0669995 0.
0.505999 0.0669988 0.
0.507999 0.0669988 0.
0.51 0.0669989 0.
0.512 0.0669985 0.
0.514 0.0669976 0.
0.516 0.0669966 0.
0.518 0.0669964 0.
0.520001 0.0669965 0.
0.522001 0.0669966 0.
0.524001 0.0669969 0.
0.526001 0.0669973 0.
0.528001 0.0669976 0.
0.530001 0.0669977 0.
0.532001 0.0669978 0.
0.534002 0.0669979 0.
0.536002 0.066998 0.
0.538002 0.0669981 0.
0.540003 0.0669983 0.
0.542004 0.0669986 0.
0.544004 0.0669989 0.
0.546004 0.0669995 0.
0.548004 0.0670002 0.
0.550004 0.067001 0.
0.552004 0.0670025 0.
0.554004 0.067004 0.
0.556004 0.0670053 0.
0.558004 0.0670056 0.
0.560004 0.067006 0.
0.562004 0.0670066 0.
0.564003 0.0670074 0.
0.566003 0.0670083 0.
0.568003 0.0670092 0.
0.570003 0.06701 0.
0.572003 0.0670108 0.
0.574003 0.067012 0.
0.576002 0.0670132 0.
0.578002 0.0670144 0.
0.580002 0.0670148 0.
0.582002 0.0670151 0.
0.584001 0.0670153 0.
0.586001 0.0670153 0.
0.588001 0.0670152 0.
0.590001 0.0670154 0.
0.592 0.0670157 0.
0.594 0.067016 0.
0.596 0.0670157 0.
0.598 0.0670151 0.
0.6 0.0670146 0.
0.602 0.0670146 0.
0.604 0.0670146 0.
0.606 0.0670146 0.
0.608 0.0670143 0.
0.61 0.0670141 0.
0.612 0.0670137 0.
0.614 0.0670132 0.
0.616 0.0670126 0.
0.618 0.0670123 0.
0.62 0.067012 0.
0.622 0.0670117 0.
0.623999 0.0670106 0.
0.625999 0.0670093 0.
0.627999 0.0670082 0.
0.629999 0.067008 0.
0.631999 0.0670078 0.
0.633999 0.0670073 0.
0.635998 0.0670062 0.
0.637998 0.0670051 0.
0.639998 0.0670043 0.
0.641998 0.0670038 0.
0.643998 0.0670033 0.
0.645998 0.0670025 0.
0.647998 0.0670016 0.
0.649998 0.0670007 0.
0.651998 0.0669999 0.
0.653998 0.066999 0.
0.655999 0.0669983 0.
0.657999 0.0669981 0.
0.659999 0.0669978 0.
0.661999 0.0669974 0.
0.664 0.0669966 0.
0.666 0.0669959 0.
0.668 0.0669952 0.
0.67 0.0669946 0.
0.672001 0.066994 0.
0.674001 0.0669937 0.
0.676001 0.0669935 0.
0.678001 0.0669933 0.
0.680002 0.0669937 0.
0.682002 0.0669941 0.
0.684003 0.0669944 0.
0.686003 0.0669948 0.
0.688004 0.0669953 0.
0.690004 0.0669956 0.
0.692004 0.0669959 0.
0.694005 0.0669962 0.
0.696005 0.0669971 0.
0.698006 0.0669981 0.
0.499996 0.0690003 0.
0.501997 0.0689999 0.
0.503998 0.0689992 0.
0.505999 0.0689986 0.
0.508 0.0689986 0.
0.510001 0.0689985 0.
0.512001 0.068998 0.
0.514001 0.0689971 0.
0.516001 0.0689962 0.
0.518001 0.0689961 0.
0.520002 0.0689963 0.
0.522002 0.0689966 0.
0.524002 0.0689968 0.
0.526002 0.068997 0.
0.528002 0.0689972 0.
0.530002 0.0689975 0.
0.532002 0.0689978 0.
0.534002 0.068998 0.
0.536003 0.068998 0.
0.538003 0.068998 0.
0.540003 0.0689981 0.
0.542004 0.0689982 0.
0.544004 0.0689983 0.
0.546004 0.0689991 0.
0.548004 0.0690002 0.
0.550004 0.0690013 0.
0.552004 0.0690028 0.
0.554004 0.0690043 0.
0.556004 0.0690056 0.
0.558004 0.0690058 0.
0.560003 0.0690061 0.
0.562003 0.0690067 0.
0.564003 0.0690079 0.
0.566003 0.0690091 0.
0.568003 0.0690099 0.
0.570003 0.0690106 0.
0.572002 0.0690113 0.
0.574002 0.0690123 0.
0.576002 0.0690134 0.
0.578002 0.0690144 0.
0.580002 0.0690148 0.
0.582002 0.0690153 0.
0.584001 0.0690156 0.
0.586001 0.0690156 0.
0.588001 0.0690157 0.
0.590001 0.0690157 0.
0.592 0.0690158 0.
0.594 0.0690159 0.
0.596001 0.0690154 0.
0.598001 0.0690147 0.
0.600001 0.0690141 0.
0.602001 0.0690144 0.
0.604 0.0690147 0.
0.606 0.0690148 0.
0.608 0.0690144 0.
0.61 0.0690139 0.
0.612 0.0690135 0.
0.614 0.0690132 0.
0.616 0.0690128 0.
0.618 0.0690125 0.
0.62 0.0690123 0.
0.622 0.0690121 0.
0.624 0.069011 0.
0.625999 0.0690098 0.
0.627999 0.0690087 0.
0.629999 0.0690083 0.
0.631999 0.069008 0.
0.633999 0.0690074 0.
0.635999 0.0690063 0.
0.637999 0.0690052 0.
0.639999 0.0690044 0.
0.641998 0.0690038 0.
0.643998 0.0690033 0.
0.645998 0.0690024 0.
0.647998 0.0690014 0.
0.649998 0.0690004 0.
0.651998 0.0689997 0.
0.653998 0.068999 0.
0.655998 0.0689983 0.
0.657998 0.0689981 0.
0.659998 0.0689978 0.
0.661999 0.0689972 0.
0.663999 0.0689962 0.
0.665999 0.0689952 0.
0.667999 0.0689945 0.
0.67 0.0689941 0.
0.672 0.0689936 0.
0.674 0.0689932 0.
0.676 0.0689928 0.
0.678 0.0689924 0.
0.680001 0.0689929 0.
0.682001 0.0689934 0.
0.684002 0.0689939 0.
0.686002 0.0689944 0.
0.688002 0.068995 0.
0.690003 0.0689953 0.
0.692003 0.0689955 0.
0.694003 0.0689956 0.
0.696004 0.0689963 0.
0.698004 0.0689971 0.
0.499996 0.0709995 0.
0.501997 0.0709993 0.
0.503999 0.0709988 0.
0.506 0.0709985 0.
0.508001 0.0709984 0.
0.510002 0.0709983 0.
0.512002 0.0709979 0.
0.514002 0.070997 0.
0.516002 0.0709962 0.
0.518002 0.070996 0.
0.520002 0.0709962 0.
0.522003 0.0709964 0.
0.524003 0.0709966 0.
0.526003 0.0709968 0.
0.528003 0.070997 0.
0.530003 0.0709974 0.
0.532003 0.0709978 0.
0.534003 0.0709981 0.
0.536003 0.0709981 0.
0.538004 0.0709981 0.
0.540004 0.0709981 0.
0.542004 0.070998 0.
0.544004 0.070998 0.
0.546004 0.070999 0.
0.548004 0.0710003 0.
0.550004 0.0710015 0.
0.552004 0.071003 0.
0.554004 0.0710045 0.
0.556004 0.0710057 0.
0.558003 0.071006 0.
0.560003 0.0710063 0.
0.562003 0.071007 0.
0.564003 0.0710083 0.
0.566003 0.0710096 0.
0.568003 0.0710105 0.
0.570003 0.071011 0.
0.572002 0.0710116 0.
0.574002 0.0710126 0.
0.576002 0.0710136 0.
0.578002 0.0710146 0.
0.580002 0.071015 0.
0.582002 0.0710155 0.
0.584001 0.0710159 0.
0.586001 0.071016 0.
0.588001 0.0710162 0.
0.590001 0.0710162 0.
0.592001 0.0710161 0.
0.594001 0.071016 0.
0.596001 0.0710155 0.
0.598001 0.0710149 0.
0.600001 0.0710143 0.
0.602001 0.0710147 0.
0.604001 0.0710151 0.
0.606001 0.0710153 0.
0.608001 0.0710147 0.
0.610001 0.071014 0.
0.612001 0.0710135 0.
0.614001 0.0710132 0.
0.616 0.071013 0.
0.618 0.0710127 0.
0.62 0.0710125 0.
0.622 0.0710123 0.
0.624 0.0710113 0.
0.625999 0.0710102 0.
0.627999 0.0710092 0.
0.629999 0.0710087 0.
0.632 0.0710082 0.
0.634 0.0710076 0.
0.635999 0.0710065 0.
0.637999 0.0710054 0.
0.639999 0.0710046 0.
0.641998 0.0710041 0.
0.643998 0.0710035 0.
0.645998 0.0710026 0.
0.647998 0.0710015 0.
0.649998 0.0710004 0.
0.651998 0.0709997 0.
0.653998 0.0709989 0.
0.655998 0.0709982 0.
0.657998 0.0709979 0.
0.659998 0.0709977 0.
0.661998 0.0709971 0.
0.663998 0.0709961 0.
0.665998 0.0709951 0.
0.667999 0.0709945 0.
0.669999 0.070994 0.
0.671999 0.0709934 0.
0.673999 0.0709929 0.
0.676 0.0709924 0.
0.678 0.070992 0.
0.68 0.0709924 0.
0.682 0.0709929 0.
0.684001 0.0709934 0.
0.686001 0.0709941 0.
0.688002 0.0709947 0.
0.690002 0.0709951 0.
0.692002 0.0709952 0.
0.694003 0.0709953 0.
0.696003 0.0709959 0.
0.698003 0.0709967 0.
0.499998 0.0729991 0.
0.501999 0.0729988 0.
0.504 0.0729985 0.
0.506001 0.0729983 0.
0.508001 0.0729984 0.
0.510002 0.0729984 0.
0.512002 0.0729981 0.
0.514002 0.0729973 0.
0.516002 0.0729966 0.
0.518003 0.0729963 0.
0.520003 0.0729963 0.
0.522003 0.0729963 0.
0.524003 0.0729964 0.
0.526003 0.0729966 0.
0.528003 0.0729968 0.
0.530003 0.0729974 0.
0.532003 0.0729979 0.
0.534003 0.0729983 0.
0.536003 0.0729983 0.
0.538004 0.0729984 0.
0.540004 0.0729983 0.
0.542004 0.0729982 0.
0.544004 0.0729981 0.
0.546004 0.0729991 0.
0.548004 0.0730004 0.
0.550004 0.0730017 0.
0.552004 0.0730031 0.
0.554004 0.0730044 0.
0.556004 0.0730056 0.
0.558004 0.0730061 0.
0.560004 0.0730066 0.
0.562004 0.0730074 0.
0.564003 0.0730087 0.
0.566003 0.07301 0.
0.568003 0.0730108 0.
0.570003 0.0730113 0.
0.572003 0.0730118 0.
0.574003 0.0730128 0.
0.576003 0.0730138 0.
0.578002 0.0730148 0.
0.580002 0.0730153 0.
0.582002 0.0730158 0.
0.584002 0.0730162 0.
0.586001 0.0730165 0.
0.588001 0.0730168 0.
0.590001 0.0730168 0.
0.592001 0.0730167 0.
0.594001 0.0730165 0.
0.596001 0.0730161 0.
0.598001 0.0730156 0.
0.600001 0.0730152 0.
0.602001 0.0730156 0.
0.604001 0.073016 0.
0.606001 0.0730161 0.
0.608001 0.0730152 0.
0.610001 0.0730143 0.
0.612001 0.0730136 0.
0.614001 0.0730134 0.
0.616001 0.0730132 0.
0.618 0.0730129 0.
0.62 0.0730126 0.
0.622 0.0730123 0.
0.624 0.0730115 0.
0.626 0.0730106 0.
0.628 0.0730097 0.
0.63 0.073009 0.
0.632 0.0730084 0.
0.634 0.0730076 0.
0.635999 0.0730067 0.
0.637999 0.0730058 0.
0.639998 0.073005 0.
0.641998 0.0730044 0.
0.643998 0.0730039 0.
0.645998 0.0730029 0.
0.647998 0.0730018 0.
0.649998 0.0730007 0.
0.651998 0.0729997 0.
0.653998 0.0729988 0.
0.655998 0.072998 0.
0.657997 0.0729977 0.
0.659997 0.0729975 0.
0.661998 0.0729971 0.
0.663998 0.0729964 0.
0.665998 0.0729957 0.
0.667998 0.072995 0.
0.669999 0.0729943 0.
0.671999 0.0729936 0.
0.673999 0.072993 0.
0.675999 0.0729924 0.
0.677999 0.0729919 0.
0.679999 0.0729922 0.
0.682 0.0729925 0.
0.684 0.072993 0.
0.686001 0.0729938 0.
0.688002 0.0729946 0.
0.690002 0.072995 0.
0.692002 0.0729951 0.
0.694002 0.0729952 0.
0.696002 0.0729959 0.
0.698002 0.0729968 0.
0.499999 0.0749984 0.
0.502 0.0749983 0.
0.504001 0.0749982 0.
0.506001 0.0749982 0.
0.508002 0.0749984 0.
0.510002 0.0749985 0.
0.512003 0.0749983 0.
0.514003 0.0749976 0.
0.516003 0.074997 0.
0.518003 0.0749966 0.
0.520004 0.0749964 0.
0.522004 0.0749961 0.
0.524004 0.0749963 0.
0.526004 0.0749964 0.
0.528003 0.0749967 0.
0.530003 0.0749973 0.
0.532003 0.074998 0.
0.534003 0.0749985 0.
0.536004 0.0749985 0.
0.538004 0.0749986 0.
0.540004 0.0749985 0.
0.542004 0.0749983 0.
0.544004 0.0749981 0.
0.546004 0.0749992 0.
0.548004 0.0750005 0.
0.550004 0.0750019 0.
0.552004 0.0750031 0.
0.554005 0.0750044 0.
0.556005 0.0750055 0.
0.558005 0.0750062 0.
0.560004 0.0750069 0.
0.562004 0.0750079 0.
0.564003 0.0750091 0.
0.566003 0.0750104 0.
0.568003 0.0750111 0.
0.570003 0.0750115 0.
0.572004 0.0750119 0.
0.574003 0.075013 0.
0.576003 0.0750141 0.
0.578003 0.0750151 0.
0.580002 0.0750156 0.
0.582002 0.0750161 0.
0.584002 0.0750166 0.
0.586001 0.075017 0.
0.588001 0.0750174 0.
0.590001 0.0750175 0.
0.592001 0.0750172 0.
0.594001 0.075017 0.
0.596001 0.0750167 0.
0.598001 0.0750164 0.
0.600001 0.0750161 0.
0.602001 0.0750165 0.
0.604002 0.0750169 0.
0.606002 0.0750169 0.
0.608001 0.0750157 0.
0.610001 0.0750145 0.
0.612001 0.0750138 0.
0.614001 0.0750136 0.
0.616001 0.0750134 0.
0.618 0.0750131 0.
0.62 0.0750127 0.
0.622 0.0750123 0.
0.624 0.0750116 0.
0.626 0.0750109 0.
0.628001 0.0750102 0.
0.630001 0.0750094 0.
0.632 0.0750086 0.
0.634 0.0750077 0.
0.635999 0.0750069 0.
0.637998 0.0750061 0.
0.639998 0.0750054 0.
0.641998 0.0750048 0.
0.643998 0.0750042 0.
0.645998 0.0750032 0.
0.647998 0.0750021 0.
0.649998 0.0750009 0.
0.651997 0.0749998 0.
0.653997 0.0749986 0.
0.655997 0.0749977 0.
0.657997 0.0749975 0.
0.659997 0.0749974 0.
0.661997 0.0749971 0.
0.663998 0.0749967 0.
0.665998 0.0749963 0.
0.667998 0.0749955 0.
0.669998 0.0749947 0.
0.671998 0.0749938 0.
0.673998 0.0749931 0.
0.675998 0.0749924 0.
0.677998 0.0749919 0.
0.679999 0.074992 0.
0.681999 0.0749922 0.
0.684 0.0749926 0.
0.686001 0.0749935 0.
0.688002 0.0749944 0.
0.690002 0.0749949 0.
0.692002 0.0749949 0.
0.694002 0.074995 0.
0.696002 0.0749959 0.
0.698002 0.0749969 0.
0.5 0.0769979 0.
0.502001 0.0769979 0.
0.504001 0.0769977 0.
0.506002 0.0769976 0.
0.508002 0.0769977 0.
0.510003 0.0769977 0.
0.512003 0.0769975 0.
0.514003 0.0769971 0.
0.516004 0.0769967 0.
0.518004 0.0769965 0.
0.520004 0.0769965 0.
0.522004 0.0769964 0.
0.524004 0.0769965 0.
0.526004 0.0769966 0.
0.528004 0.0769968 0.
0.530004 0.0769973 0.
0.532004 0.0769978 0.
0.534004 0.0769982 0.
0.536004 0.0769984 0.
0.538004 0.0769986 0.
0.540004 0.0769987 0.
0.542004 0.0769988 0.
0.544005 0.0769989 0.
0.546004 0.0769999 0.
0.548004 0.0770013 0.
0.550004 0.0770026 0.
0.552004 0.0770035 0.
0.554004 0.0770044 0.
0.556004 0.0770053 0.
0.558004 0.0770063 0.
0.560004 0.0770073 0.
0.562004 0.0770083 0.
0.564003 0.0770093 0.
0.566003 0.0770103 0.
0.568003 0.0770109 0.
0.570003 0.0770115 0.
0.572004 0.077012 0.
0.574003 0.077013 0.
0.576003 0.0770141 0.
0.578002 0.0770151 0.
0.580002 0.0770155 0.
0.582002 0.077016 0.
0.584002 0.0770165 0.
0.586002 0.077017 0.
0.588001 0.0770176 0.
0.590001 0.0770177 0.
0.592001 0.0770176 0.
0.594002 0.0770175 0.
0.596001 0.0770171 0.
0.598001 0.0770167 0.
0.600001 0.0770162 0.
0.602001 0.0770164 0.
0.604002 0.0770166 0.
0.606002 0.0770165 0.
0.608002 0.0770156 0.
0.610001 0.0770146 0.
0.612001 0.077014 0.
0.614001 0.0770137 0.
0.616001 0.0770134 0.
0.618001 0.0770131 0.
0.620001 0.0770129 0.
0.622001 0.0770126 0.
0.624001 0.0770119 0.
0.626001 0.0770111 0.
0.628001 0.0770103 0.
0.630001 0.0770096 0.
0.632001 0.0770088 0.
0.634001 0.0770082 0.
0.636 0.0770076 0.
0.637999 0.077007 0.
0.639999 0.0770062 0.
0.641998 0.0770053 0.
0.643998 0.0770043 0.
0.645998 0.0770034 0.
0.647998 0.0770024 0.
0.649998 0.0770015 0.
0.651998 0.0770001 0.
0.653997 0.0769986 0.
0.655997 0.0769975 0.
0.657997 0.0769975 0.
0.659997 0.0769975 0.
0.661997 0.0769972 0.
0.663998 0.0769965 0.
0.665998 0.0769957 0.
0.667998 0.076995 0.
0.669998 0.0769943 0.
0.671998 0.0769936 0.
0.673998 0.0769929 0.
0.675998 0.0769922 0.
0.677998 0.0769916 0.
0.679999 0.0769916 0.
0.681999 0.0769917 0.
0.683999 0.076992 0.
0.686 0.0769929 0.
0.688001 0.0769938 0.
0.690001 0.0769945 0.
0.692001 0.0769949 0.
0.694001 0.0769953 0.
0.696002 0.0769954 0.
0.698002 0.0769954 0.
0.500001 0.0789973 0.
0.502002 0.0789974 0.
0.504002 0.0789972 0.
0.506003 0.0789971 0.
0.508003 0.0789969 0.
0.510003 0.0789968 0.
0.512003 0.0789967 0.
0.514004 0.0789965 0.
0.516004 0.0789964 0.
0.518004 0.0789964 0.
0.520004 0.0789966 0.
0.522004 0.0789967 0.
0.524004 0.0789968 0.
0.526004 0.0789968 0.
0.528004 0.0789969 0.
0.530004 0.0789973 0.
0.532004 0.0789976 0.
0.534004 0.0789979 0.
0.536004 0.0789982 0.
0.538005 0.0789985 0.
0.540005 0.0789989 0.
0.542005 0.0789992 0.
0.544005 0.0789996 0.
0.546004 0.0790007 0.
0.548004 0.079002 0.
0.550003 0.0790034 0.
0.552004 0.0790039 0.
0.554004 0.0790044 0.
0.556004 0.079005 0.
0.558004 0.0790064 0.
0.560004 0.0790078 0.
0.562004 0.0790088 0.
0.564004 0.0790095 0.
0.566003 0.0790101 0.
0.568003 0.0790108 0.
0.570003 0.0790114 0.
0.572004 0.0790121 0.
0.574003 0.0790131 0.
0.576003 0.0790141 0.
0.578002 0.079015 0.
0.580002 0.0790155 0.
0.582002 0.0790159 0.
0.584002 0.0790164 0.
0.586002 0.0790171 0.
0.588002 0.0790177 0.
0.590002 0.079018 0.
0.592002 0.079018 0.
0.594002 0.079018 0.
0.596002 0.0790176 0.
0.598001 0.079017 0.
0.6 0.0790164 0.
0.602001 0.0790164 0.
0.604002 0.0790163 0.
0.606002 0.0790161 0.
0.608002 0.0790155 0.
0.610002 0.0790148 0.
0.612002 0.0790142 0.
0.614001 0.0790138 0.
0.616001 0.0790134 0.
0.618002 0.0790132 0.
0.620002 0.079013 0.
0.622002 0.0790129 0.
0.624002 0.0790121 0.
0.626002 0.0790112 0.
0.628001 0.0790104 0.
0.630001 0.0790098 0.
0.632001 0.0790091 0.
0.634001 0.0790086 0.
0.636001 0.0790083 0.
0.638 0.079008 0.
0.639999 0.0790071 0.
0.641998 0.0790057 0.
0.643998 0.0790044 0.
0.645998 0.0790035 0.
0.647998 0.0790028 0.
0.649998 0.0790021 0.
0.651998 0.0790004 0.
0.653997 0.0789987 0.
0.655997 0.0789974 0.
0.657997 0.0789975 0.
0.659997 0.0789977 0.
0.661997 0.0789973 0.
0.663998 0.0789962 0.
0.665998 0.0789951 0.
0.667998 0.0789944 0.
0.669998 0.0789938 0.
0.671998 0.0789933 0.
0.673998 0.0789926 0.
0.675998 0.078992 0.
0.677998 0.0789913 0.
0.679999 0.0789913 0.
0.681999 0.0789912 0.
0.683999 0.0789914 0.
0.686 0.0789923 0.
0.688 0.0789932 0.
0.690001 0.0789941 0.
0.692001 0.0789949 0.
0.694001 0.0789956 0.
0.696002 0.078995 0.
0.698002 0.0789939 0.
0.500002 0.080997 0.
0.502002 0.0809972 0.
0.504003 0.080997 0.
0.506003 0.0809969 0.
0.508003 0.0809967 0.
0.510003 0.0809965 0.
0.512004 0.0809963 0.
0.514004 0.0809962 0.
0.516005 0.080996 0.
0.518005 0.0809962 0.
0.520004 0.0809965 0.
0.522004 0.0809968 0.
0.524004 0.0809969 0.
0.526004 0.0809969 0.
0.528004 0.0809969 0.
0.530004 0.0809971 0.
0.532004 0.0809974 0.
0.534004 0.0809976 0.
0.536005 0.080998 0.
0.538005 0.0809984 0.
0.540005 0.0809989 0.
0.542005 0.0809995 0.
0.544005 0.0810001 0.
0.546005 0.0810013 0.
0.548004 0.0810025 0.
0.550004 0.0810038 0.
0.552004 0.0810042 0.
0.554004 0.0810046 0.
0.556004 0.0810052 0.
0.558004 0.0810066 0.
0.560004 0.0810081 0.
0.562004 0.0810091 0.
0.564003 0.0810096 0.
0.566003 0.0810101 0.
0.568003 0.0810108 0.
0.570003 0.0810114 0.
0.572003 0.0810121 0.
0.574003 0.0810131 0.
0.576002 0.0810141 0.
0.578002 0.081015 0.
0.580002 0.0810155 0.
0.582002 0.081016 0.
0.584002 0.0810166 0.
0.586002 0.0810173 0.
0.588002 0.0810179 0.
0.590002 0.0810183 0.
0.592002 0.0810184 0.
0.594002 0.0810186 0.
0.596002 0.0810181 0.
0.598001 0.0810174 0.
0.6 0.0810168 0.
0.602001 0.0810166 0.
0.604002 0.0810164 0.
0.606002 0.0810161 0.
0.608002 0.0810155 0.
0.610002 0.0810148 0.
0.612002 0.0810143 0.
0.614002 0.0810139 0.
0.616002 0.0810135 0.
0.618002 0.0810132 0.
0.620002 0.0810131 0.
0.622003 0.0810129 0.
0.624002 0.0810122 0.
0.626002 0.0810115 0.
0.628002 0.0810108 0.
0.630002 0.0810103 0.
0.632002 0.0810098 0.
0.634001 0.0810093 0.
0.636001 0.0810089 0.
0.638 0.0810085 0.
0.64 0.0810074 0.
0.641999 0.0810059 0.
0.643998 0.0810044 0.
0.645998 0.0810035 0.
0.647998 0.0810028 0.
0.649998 0.0810022 0.
0.651998 0.0810005 0.
0.653997 0.0809988 0.
0.655997 0.0809975 0.
0.657997 0.0809976 0.
0.659997 0.0809977 0.
0.661997 0.0809972 0.
0.663997 0.0809959 0.
0.665998 0.0809947 0.
0.667998 0.0809939 0.
0.669998 0.0809934 0.
0.671998 0.0809929 0.
0.673998 0.0809923 0.
0.675998 0.0809917 0.
0.677998 0.0809911 0.
0.679999 0.080991 0.
0.681999 0.0809909 0.
0.683999 0.0809911 0.
0.686 0.0809919 0.
0.688 0.0809927 0.
0.69 0.0809936 0.
0.692 0.0809946 0.
0.694001 0.0809955 0.
0.696001 0.0809948 0.
0.698002 0.0809936 0.
0.500002 0.0829965 0.
0.502003 0.082997 0.
0.504003 0.0829971 0.
0.506004 0.0829972 0.
0.508004 0.0829969 0.
0.510004 0.0829967 0.
0.512004 0.0829963 0.
0.514005 0.082996 0.
0.516005 0.0829956 0.
0.518005 0.0829958 0.
0.520005 0.0829963 0.
0.522005 0.0829969 0.
0.524004 0.0829969 0.
0.526004 0.0829968 0.
0.528004 0.0829967 0.
0.530004 0.0829969 0.
0.532004 0.0829971 0.
0.534004 0.0829973 0.
0.536004 0.0829977 0.
0.538004 0.0829981 0.
0.540004 0.0829988 0.
0.542004 0.0829997 0.
0.544005 0.0830006 0.
0.546005 0.0830017 0.
0.548005 0.0830028 0.
0.550005 0.083004 0.
0.552005 0.0830045 0.
0.554004 0.083005 0.
0.556004 0.0830056 0.
0.558004 0.083007 0.
0.560004 0.0830083 0.
0.562004 0.0830093 0.
0.564003 0.0830098 0.
0.566003 0.0830104 0.
0.568003 0.0830109 0.
0.570003 0.0830115 0.
0.572002 0.0830121 0.
0.574002 0.083013 0.
0.576002 0.083014 0.
0.578002 0.0830149 0.
0.580002 0.0830156 0.
0.582002 0.0830163 0.
0.584002 0.0830169 0.
0.586002 0.0830176 0.
0.588002 0.0830183 0.
0.590002 0.0830187 0.
0.592002 0.0830189 0.
0.594002 0.0830191 0.
0.596001 0.0830186 0.
0.598001 0.083018 0.
0.6 0.0830173 0.
0.602001 0.083017 0.
0.604002 0.0830168 0.
0.606002 0.0830165 0.
0.608002 0.0830157 0.
0.610002 0.0830148 0.
0.612002 0.0830143 0.
0.614002 0.0830139 0.
0.616002 0.0830136 0.
0.618002 0.0830133 0.
0.620002 0.0830129 0.
0.622002 0.0830126 0.
0.624002 0.0830122 0.
0.626002 0.0830118 0.
0.628001 0.0830114 0.
0.630001 0.0830111 0.
0.632001 0.0830108 0.
0.634001 0.0830103 0.
0.636001 0.0830094 0.
0.638 0.0830086 0.
0.639999 0.0830074 0.
0.641999 0.0830059 0.
0.643998 0.0830044 0.
0.645998 0.0830034 0.
0.647998 0.0830025 0.
0.649998 0.0830017 0.
0.651998 0.0830004 0.
0.653997 0.082999 0.
0.655997 0.0829979 0.
0.657997 0.0829976 0.
0.659997 0.0829974 0.
0.661997 0.0829967 0.
0.663997 0.0829956 0.
0.665998 0.0829945 0.
0.667998 0.0829937 0.
0.669998 0.0829931 0.
0.671998 0.0829924 0.
0.673998 0.0829919 0.
0.675998 0.0829914 0.
0.677999 0.0829909 0.
0.679999 0.0829909 0.
0.681999 0.0829909 0.
0.683999 0.082991 0.
0.685999 0.0829916 0.
0.688 0.0829921 0.
0.69 0.082993 0.
0.692 0.082994 0.
0.694 0.082995 0.
0.696001 0.0829949 0.
0.698001 0.0829945 0.
0.500003 0.0849962 0.
0.502003 0.0849968 0.
0.504004 0.0849972 0.
0.506004 0.0849975 0.
0.508005 0.0849971 0.
0.510005 0.0849968 0.
0.512005 0.0849964 0.
0.514005 0.0849958 0.
0.516005 0.0849952 0.
0.518005 0.0849955 0.
0.520005 0.0849962 0.
0.522005 0.0849969 0.
0.524004 0.0849968 0.
0.526004 0.0849967 0.
0.528004 0.0849966 0.
0.530004 0.0849967 0.
0.532004 0.0849967 0.
0.534004 0.084997 0.
0.536004 0.0849974 0.
0.538004 0.0849979 0.
0.540004 0.0849987 0.
0.542004 0.0849999 0.
0.544004 0.085001 0.
0.546005 0.085002 0.
0.548006 0.0850031 0.
0.550006 0.0850042 0.
0.552006 0.0850048 0.
0.554005 0.0850054 0.
0.556004 0.0850061 0.
0.558004 0.0850073 0.
0.560004 0.0850085 0.
0.562003 0.0850094 0.
0.564003 0.08501 0.
0.566002 0.0850106 0.
0.568002 0.0850111 0.
0.570002 0.0850116 0.
0.572002 0.0850121 0.
0.574002 0.085013 0.
0.576002 0.085014 0.
0.578002 0.0850149 0.
0.580002 0.0850157 0.
0.582002 0.0850165 0.
0.584002 0.0850173 0.
0.586002 0.085018 0.
0.588002 0.0850187 0.
0.590002 0.0850192 0.
0.592002 0.0850194 0.
0.594001 0.0850197 0.
0.596001 0.0850192 0.
0.598001 0.0850185 0.
0.6 0.0850178 0.
0.602001 0.0850175 0.
0.604002 0.0850172 0.
0.606002 0.0850168 0.
0.608002 0.0850158 0.
0.610002 0.0850149 0.
0.612003 0.0850142 0.
0.614003 0.085014 0.
0.616003 0.0850137 0.
0.618003 0.0850133 0.
0.620002 0.0850128 0.
0.622002 0.0850123 0.
0.624002 0.0850122 0.
0.626001 0.0850121 0.
0.628001 0.0850121 0.
0.630001 0.0850119 0.
0.632001 0.0850117 0.
0.634001 0.0850112 0.
0.636 0.08501 0.
0.638 0.0850087 0.
0.639999 0.0850074 0.
0.641999 0.0850059 0.
0.643999 0.0850044 0.
0.645998 0.0850032 0.
0.647999 0.0850022 0.
0.649999 0.0850012 0.
0.651998 0.0850003 0.
0.653997 0.0849993 0.
0.655997 0.0849984 0.
0.657997 0.0849977 0.
0.659996 0.084997 0.
0.661997 0.0849962 0.
0.663997 0.0849953 0.
0.665998 0.0849943 0.
0.667998 0.0849935 0.
0.669998 0.0849927 0.
0.671998 0.0849919 0.
0.673999 0.0849915 0.
0.675999 0.0849911 0.
0.677999 0.0849907 0.
0.679999 0.0849908 0.
0.681999 0.0849908 0.
0.683999 0.084991 0.
0.685999 0.0849913 0.
0.687999 0.0849916 0.
0.689999 0.0849923 0.
0.692 0.0849934 0.
0.694 0.0849945 0.
0.696 0.084995 0.
0.698 0.0849953 0.
0.500004 0.0869963 0.
0.502004 0.086997 0.
0.504004 0.0869974 0.
0.506004 0.0869977 0.
0.508004 0.0869973 0.
0.510005 0.086997 0.
0.512005 0.0869965 0.
0.514005 0.0869959 0.
0.516005 0.0869953 0.
0.518005 0.0869955 0.
0.520005 0.0869961 0.
0.522004 0.0869967 0.
0.524004 0.0869966 0.
0.526004 0.0869964 0.
0.528004 0.0869962 0.
0.530004 0.0869963 0.
0.532005 0.0869964 0.
0.534005 0.0869967 0.
0.536005 0.0869972 0.
0.538005 0.0869978 0.
0.540004 0.0869986 0.
0.542004 0.0869996 0.
0.544004 0.0870007 0.
0.546005 0.087002 0.
0.548005 0.0870034 0.
0.550005 0.0870047 0.
0.552005 0.0870052 0.
0.554004 0.0870056 0.
0.556004 0.0870062 0.
0.558004 0.0870074 0.
0.560003 0.0870086 0.
0.562003 0.0870096 0.
0.564003 0.0870103 0.
0.566003 0.087011 0.
0.568002 0.0870116 0.
0.570002 0.0870121 0.
0.572002 0.0870126 0.
0.574002 0.0870133 0.
0.576002 0.0870141 0.
0.578002 0.0870149 0.
0.580002 0.0870157 0.
0.582002 0.0870165 0.
0.584002 0.0870173 0.
0.586002 0.0870179 0.
0.588002 0.0870185 0.
0.590002 0.087019 0.
0.592002 0.0870193 0.
0.594001 0.0870196 0.
0.596001 0.0870192 0.
0.598001 0.0870186 0.
0.6 0.087018 0.
0.602001 0.0870176 0.
0.604002 0.0870172 0.
0.606002 0.0870168 0.
0.608002 0.0870161 0.
0.610003 0.0870154 0.
0.612003 0.0870148 0.
0.614003 0.0870142 0.
0.616003 0.0870136 0.
0.618003 0.0870132 0.
0.620002 0.0870129 0.
0.622002 0.0870126 0.
0.624002 0.0870125 0.
0.626001 0.0870124 0.
0.628001 0.0870123 0.
0.630001 0.0870119 0.
0.632001 0.0870114 0.
0.634001 0.0870108 0.
0.636001 0.0870097 0.
0.638 0.0870086 0.
0.64 0.0870074 0.
0.642 0.087006 0.
0.643999 0.0870046 0.
0.645999 0.0870035 0.
0.647999 0.0870025 0.
0.649999 0.0870014 0.
0.651999 0.0870004 0.
0.653998 0.0869994 0.
0.655997 0.0869984 0.
0.657997 0.0869975 0.
0.659997 0.0869965 0.
0.661997 0.0869956 0.
0.663998 0.0869947 0.
0.665998 0.0869938 0.
0.667998 0.086993 0.
0.669998 0.0869923 0.
0.671999 0.0869915 0.
0.673999 0.0869911 0.
0.675999 0.0869908 0.
0.677999 0.0869904 0.
0.679999 0.0869904 0.
0.681999 0.0869903 0.
0.683999 0.0869904 0.
0.685999 0.0869908 0.
0.687999 0.0869912 0.
0.689999 0.086992 0.
0.691999 0.086993 0.
0.693999 0.0869939 0.
0.696 0.0869946 0.
0.698 0.0869951 0.
0.500004 0.0889965 0.
0.502004 0.0889972 0.
0.504004 0.0889977 0.
0.506004 0.0889979 0.
0.508004 0.0889975 0.
0.510005 0.0889971 0.
0.512005 0.0889966 0.
0.514004 0.088996 0.
0.516004 0.0889955 0.
0.518004 0.0889956 0.
0.520004 0.0889961 0.
0.522004 0.0889966 0.
0.524004 0.0889964 0.
0.526004 0.0889961 0.
0.528004 0.0889958 0.
0.530005 0.088996 0.
0.532005 0.0889961 0.
0.534005 0.0889965 0.
0.536005 0.0889971 0.
0.538005 0.0889977 0.
0.540005 0.0889984 0.
0.542005 0.0889994 0.
0.544004 0.0890004 0.
0.546004 0.0890019 0.
0.548004 0.0890036 0.
0.550004 0.0890053 0.
0.552004 0.0890056 0.
0.554004 0.0890059 0.
0.556004 0.0890063 0.
0.558003 0.0890075 0.
0.560003 0.0890087 0.
0.562002 0.0890097 0.
0.564003 0.0890106 0.
0.566003 0.0890114 0.
0.568002 0.0890121 0.
0.570002 0.0890126 0.
0.572002 0.0890131 0.
0.574002 0.0890136 0.
0.576001 0.0890142 0.
0.578001 0.0890148 0.
0.580001 0.0890157 0.
0.582001 0.0890165 0.
0.584002 0.0890172 0.
0.586002 0.0890178 0.
0.588002 0.0890184 0.
0.590002 0.0890188 0.
0.592002 0.0890192 0.
0.594001 0.0890195 0.
0.596001 0.0890192 0.
0.598001 0.0890187 0.
0.6 0.0890181 0.
0.602001 0.0890176 0.
0.604001 0.0890172 0.
0.606002 0.0890167 0.
0.608002 0.0890164 0.
0.610003 0.089016 0.
0.612003 0.0890154 0.
0.614003 0.0890144 0.
0.616003 0.0890135 0.
0.618003 0.0890131 0.
0.620002 0.089013 0.
0.622002 0.0890129 0.
0.624002 0.0890128 0.
0.626001 0.0890127 0.
0.628001 0.0890126 0.
0.630001 0.0890118 0.
0.632001 0.0890111 0.
0.634001 0.0890103 0.
0.636001 0.0890094 0.
0.638001 0.0890086 0.
0.64 0.0890075 0.
0.642 0.0890062 0.
0.644 0.0890049 0.
0.646 0.0890038 0.
0.648 0.0890027 0.
0.65 0.0890016 0.
0.651999 0.0890006 0.
0.653999 0.0889996 0.
0.655998 0.0889985 0.
0.657998 0.0889973 0.
0.659998 0.088996 0.
0.661998 0.088995 0.
0.663998 0.0889941 0.
0.665998 0.0889932 0.
0.667998 0.0889925 0.
0.669999 0.0889918 0.
0.671999 0.0889911 0.
0.673999 0.0889908 0.
0.675999 0.0889905 0.
0.677999 0.0889901 0.
0.679999 0.08899 0.
0.681999 0.0889898 0.
0.683999 0.0889898 0.
0.685999 0.0889903 0.
0.687999 0.0889909 0.
0.689999 0.0889916 0.
0.691999 0.0889925 0.
0.693999 0.0889934 0.
0.695999 0.0889941 0.
0.697999 0.0889948 0.
0.500004 0.0909968 0.
0.502004 0.0909974 0.
0.504004 0.0909978 0.
0.506004 0.090998 0.
0.508004 0.0909975 0.
0.510005 0.090997 0.
0.512005 0.0909965 0.
0.514004 0.0909961 0.
0.516004 0.0909957 0.
0.518004 0.0909958 0.
0.520004 0.0909962 0.
0.522004 0.0909965 0.
0.524004 0.0909962 0.
0.526004 0.0909957 0.
0.528004 0.0909953 0.
0.530005 0.0909956 0.
0.532005 0.0909959 0.
0.534005 0.0909963 0.
0.536005 0.090997 0.
0.538006 0.0909977 0.
0.540005 0.0909984 0.
0.542005 0.0909992 0.
0.544004 0.0909999 0.
0.546004 0.0910017 0.
0.548004 0.0910037 0.
0.550004 0.0910057 0.
0.552004 0.091006 0.
0.554004 0.0910063 0.
0.556004 0.0910068 0.
0.558003 0.0910077 0.
0.560002 0.0910087 0.
0.562002 0.0910097 0.
0.564002 0.0910108 0.
0.566002 0.0910119 0.
0.568002 0.0910125 0.
0.570002 0.0910129 0.
0.572002 0.0910133 0.
0.574001 0.0910139 0.
0.576001 0.0910145 0.
0.578001 0.0910151 0.
0.580001 0.0910158 0.
0.582001 0.0910165 0.
0.584002 0.0910172 0.
0.586002 0.0910178 0.
0.588002 0.0910184 0.
0.590002 0.0910187 0.
0.592002 0.0910189 0.
0.594002 0.0910191 0.
0.596001 0.0910189 0.
0.598001 0.0910187 0.
0.6 0.0910184 0.
0.602001 0.0910178 0.
0.604001 0.0910173 0.
0.606002 0.0910168 0.
0.608002 0.0910165 0.
0.610003 0.0910162 0.
0.612003 0.0910155 0.
0.614003 0.0910145 0.
0.616003 0.0910134 0.
0.618003 0.0910131 0.
0.620002 0.091013 0.
0.622002 0.091013 0.
0.624002 0.0910129 0.
0.626001 0.0910128 0.
0.628001 0.0910126 0.
0.630001 0.0910117 0.
0.632001 0.0910108 0.
0.634001 0.0910099 0.
0.636001 0.0910091 0.
0.638001 0.0910083 0.
0.640001 0.0910073 0.
0.642001 0.0910063 0.
0.644001 0.0910052 0.
0.646001 0.0910041 0.
0.648001 0.0910029 0.
0.65 0.0910018 0.
0.652 0.0910007 0.
0.653999 0.0909996 0.
0.655999 0.0909985 0.
0.657999 0.0909972 0.
0.659998 0.0909959 0.
0.661998 0.0909948 0.
0.663998 0.0909938 0.
0.665999 0.0909928 0.
0.667999 0.0909921 0.
0.669999 0.0909916 0.
0.671999 0.090991 0.
0.673999 0.0909907 0.
0.675999 0.0909905 0.
0.677998 0.0909902 0.
0.679998 0.09099 0.
0.681998 0.0909897 0.
0.683998 0.0909897 0.
0.685998 0.0909902 0.
0.687998 0.0909907 0.
0.689998 0.0909914 0.
0.691998 0.0909921 0.
0.693998 0.0909929 0.
0.695998 0.0909939 0.
0.697998 0.090995 0.
0.500005 0.092997 0.
0.502005 0.0929975 0.
0.504005 0.0929977 0.
0.506005 0.0929978 0.
0.508005 0.0929972 0.
0.510005 0.0929966 0.
0.512005 0.0929962 0.
0.514004 0.0929961 0.
0.516004 0.092996 0.
0.518004 0.0929961 0.
0.520004 0.0929963 0.
0.522004 0.0929966 0.
0.524004 0.0929959 0.
0.526005 0.0929952 0.
0.528005 0.0929946 0.
0.530005 0.0929952 0.
0.532005 0.0929957 0.
0.534005 0.0929964 0.
0.536005 0.0929971 0.
0.538005 0.0929978 0.
0.540005 0.0929984 0.
0.542005 0.0929989 0.
0.544004 0.0929994 0.
0.546004 0.0930013 0.
0.548004 0.0930035 0.
0.550004 0.0930058 0.
0.552004 0.0930064 0.
0.554003 0.093007 0.
0.556003 0.0930076 0.
0.558003 0.0930081 0.
0.560002 0.0930086 0.
0.562002 0.0930095 0.
0.564002 0.0930109 0.
0.566002 0.0930123 0.
0.568002 0.0930129 0.
0.570001 0.0930132 0.
0.572001 0.0930134 0.
0.574001 0.0930141 0.
0.576001 0.0930149 0.
0.578002 0.0930156 0.
0.580002 0.0930161 0.
0.582002 0.0930165 0.
0.584002 0.0930171 0.
0.586002 0.0930178 0.
0.588002 0.0930186 0.
0.590002 0.0930188 0.
0.592002 0.0930186 0.
0.594002 0.0930184 0.
0.596001 0.0930185 0.
0.598001 0.0930186 0.
0.600001 0.0930187 0.
0.602001 0.0930181 0.
0.604001 0.0930175 0.
0.606002 0.0930169 0.
0.608002 0.0930164 0.
0.610003 0.093016 0.
0.612003 0.0930153 0.
0.614003 0.0930143 0.
0.616003 0.0930133 0.
0.618003 0.093013 0.
0.620002 0.093013 0.
0.622002 0.0930131 0.
0.624002 0.0930129 0.
0.626002 0.0930128 0.
0.628002 0.0930126 0.
0.630002 0.0930115 0.
0.632002 0.0930104 0.
0.634001 0.0930094 0.
0.636001 0.0930086 0.
0.638001 0.0930078 0.
0.640001 0.093007 0.
0.642001 0.0930063 0.
0.644001 0.0930055 0.
0.646001 0.0930044 0.
0.648001 0.0930031 0.
0.65 0.0930019 0.
0.652 0.0930007 0.
0.654 0.0929996 0.
0.656 0.0929984 0.
0.658 0.0929973 0.
0.66 0.0929962 0.
0.662 0.092995 0.
0.663999 0.0929938 0.
0.665999 0.0929926 0.
0.667999 0.092992 0.
0.669999 0.0929916 0.
0.672 0.0929913 0.
0.673999 0.092991 0.
0.675998 0.0929909 0.
0.677998 0.0929907 0.
0.679998 0.0929904 0.
0.681998 0.0929901 0.
0.683999 0.09299 0.
0.685998 0.0929904 0.
0.687998 0.0929908 0.
0.689998 0.0929913 0.
0.691998 0.0929919 0.
0.693998 0.0929924 0.
0.695997 0.0929939 0.
0.697997 0.0929956 0.
0.500005 0.0949974 0.
0.502005 0.0949977 0.
0.504005 0.0949977 0.
0.506006 0.0949976 0.
0.508005 0.0949969 0.
0.510005 0.0949962 0.
0.512005 0.0949959 0.
0.514005 0.0949961 0.
0.516004 0.0949963 0.
0.518004 0.0949964 0.
0.520004 0.0949965 0.
0.522004 0.0949966 0.
0.524005 0.0949957 0.
0.526005 0.0949948 0.
0.528005 0.094994 0.
0.530005 0.0949948 0.
0.532005 0.0949956 0.
0.534004 0.0949964 0.
0.536005 0.0949972 0.
0.538005 0.094998 0.
0.540005 0.0949985 0.
0.542004 0.0949987 0.
0.544004 0.0949989 0.
0.546004 0.0950009 0.
0.548004 0.0950034 0.
0.550004 0.0950059 0.
0.552003 0.0950068 0.
0.554003 0.0950076 0.
0.556003 0.0950083 0.
0.558002 0.0950084 0.
0.560002 0.0950085 0.
0.562001 0.0950093 0.
0.564001 0.095011 0.
0.566001 0.0950128 0.
0.568001 0.0950134 0.
0.570001 0.0950134 0.
0.572001 0.0950134 0.
0.574001 0.0950143 0.
0.576002 0.0950153 0.
0.578002 0.0950162 0.
0.580002 0.0950163 0.
0.582002 0.0950165 0.
0.584002 0.0950169 0.
0.586002 0.0950178 0.
0.588002 0.0950187 0.
0.590002 0.0950188 0.
0.592002 0.0950182 0.
0.594002 0.0950177 0.
0.596002 0.095018 0.
0.598001 0.0950186 0.
0.600001 0.0950191 0.
0.602001 0.0950185 0.
0.604001 0.0950178 0.
0.606002 0.0950171 0.
0.608002 0.0950164 0.
0.610002 0.0950158 0.
0.612003 0.095015 0.
0.614003 0.0950141 0.
0.616002 0.0950132 0.
0.618003 0.095013 0.
0.620003 0.0950131 0.
0.622003 0.0950131 0.
0.624003 0.095013 0.
0.626002 0.0950128 0.
0.628002 0.0950125 0.
0.630002 0.0950113 0.
0.632002 0.0950101 0.
0.634002 0.095009 0.
0.636002 0.0950082 0.
0.638002 0.0950073 0.
0.640002 0.0950067 0.
0.642001 0.0950062 0.
0.644001 0.0950058 0.
0.646001 0.0950047 0.
0.648001 0.0950034 0.
0.65 0.095002 0.
0.652 0.0950008 0.
0.654001 0.0949995 0.
0.656001 0.0949983 0.
0.658001 0.0949974 0.
0.660001 0.0949964 0.
0.662001 0.0949952 0.
0.664 0.0949938 0.
0.666 0.0949924 0.
0.668 0.0949918 0.
0.67 0.0949916 0.
0.672 0.0949915 0.
0.673999 0.0949914 0.
0.675998 0.0949912 0.
0.677997 0.0949911 0.
0.679998 0.0949908 0.
0.681998 0.0949905 0.
0.683999 0.0949904 0.
0.685998 0.0949906 0.
0.687998 0.0949909 0.
0.689997 0.0949913 0.
0.691997 0.0949916 0.
0.693997 0.094992 0.
0.695997 0.0949939 0.
0.697996 0.0949962 0.
0.500006 0.0969972 0.
0.502006 0.0969973 0.
0.504006 0.0969974 0.
0.506005 0.0969974 0.
0.508005 0.0969971 0.
0.510005 0.0969968 0.
0.512005 0.0969965 0.
0.514004 0.0969961 0.
0.516004 0.0969957 0.
0.518004 0.0969957 0.
0.520005 0.0969959 0.
0.522005 0.0969961 0.
0.524005 0.0969955 0.
0.526004 0.0969948 0.
0.528004 0.0969943 0.
0.530004 0.096995 0.
0.532003 0.0969957 0.
0.534003 0.0969965 0.
0.536004 0.0969973 0.
0.538004 0.0969982 0.
0.540004 0.0969985 0.
0.542004 0.0969985 0.
0.544004 0.0969985 0.
0.546003 0.0970006 0.
0.548003 0.0970033 0.
0.550002 0.097006 0.
0.552002 0.0970069 0.
0.554002 0.0970079 0.
0.556002 0.0970086 0.
0.558001 0.0970086 0.
0.560001 0.0970085 0.
0.562001 0.0970092 0.
0.564001 0.0970107 0.
0.566001 0.0970122 0.
0.568001 0.097013 0.
0.57 0.0970135 0.
0.572 0.0970139 0.
0.574 0.0970146 0.
0.576001 0.0970152 0.
0.578001 0.0970159 0.
0.580001 0.0970161 0.
0.582001 0.0970164 0.
0.584001 0.0970168 0.
0.586001 0.0970177 0.
0.588001 0.0970186 0.
0.590001 0.0970187 0.
0.592001 0.0970183 0.
0.594001 0.0970179 0.
0.596001 0.0970183 0.
0.598001 0.0970188 0.
0.6 0.0970193 0.
0.602001 0.0970185 0.
0.604001 0.0970177 0.
0.606002 0.0970169 0.
0.608002 0.0970164 0.
0.610003 0.0970158 0.
0.612003 0.097015 0.
0.614003 0.0970139 0.
0.616003 0.0970128 0.
0.618003 0.0970128 0.
0.620003 0.0970134 0.
0.622003 0.097014 0.
0.624002 0.0970134 0.
0.626002 0.0970126 0.
0.628002 0.0970119 0.
0.630002 0.097011 0.
0.632002 0.0970102 0.
0.634002 0.0970093 0.
0.636002 0.0970084 0.
0.638002 0.0970076 0.
0.640002 0.0970069 0.
0.642002 0.0970064 0.
0.644002 0.0970059 0.
0.646002 0.0970047 0.
0.648002 0.0970033 0.
0.650003 0.097002 0.
0.652003 0.097001 0.
0.654003 0.0970001 0.
0.656003 0.0969991 0.
0.658003 0.0969977 0.
0.660002 0.0969964 0.
0.662002 0.096995 0.
0.664002 0.0969938 0.
0.666001 0.0969925 0.
0.668001 0.0969919 0.
0.670001 0.0969918 0.
0.672001 0.0969916 0.
0.674 0.0969913 0.
0.675999 0.0969911 0.
0.677998 0.0969908 0.
0.679998 0.0969905 0.
0.681998 0.0969903 0.
0.683998 0.0969902 0.
0.685998 0.0969905 0.
0.687998 0.0969908 0.
0.689997 0.0969913 0.
0.691997 0.0969918 0.
0.693996 0.0969924 0.
0.695996 0.0969941 0.
0.697995 0.0969962 0.
0.500007 0.0989967 0.
0.502006 0.0989969 0.
0.504006 0.0989971 0.
0.506005 0.0989972 0.
0.508005 0.0989973 0.
0.510005 0.0989974 0.
0.512005 0.0989971 0.
0.514004 0.0989961 0.
0.516004 0.0989951 0.
0.518004 0.098995 0.
0.520005 0.0989953 0.
0.522005 0.0989957 0.
0.524004 0.0989954 0.
0.526004 0.0989949 0.
0.528003 0.0989946 0.
0.530002 0.0989952 0.
0.532002 0.0989958 0.
0.534002 0.0989966 0.
0.536003 0.0989975 0.
0.538003 0.0989983 0.
0.540004 0.0989986 0.
0.542004 0.0989984 0.
0.544003 0.0989981 0.
0.546003 0.0990003 0.
0.548002 0.0990032 0.
0.55 0.0990061 0.
0.552 0.0990071 0.
0.554 0.0990081 0.
0.556 0.0990089 0.
0.558 0.0990087 0.
0.56 0.0990086 0.
0.562 0.0990091 0.
0.564 0.0990104 0.
0.566 0.0990116 0.
0.568 0.0990126 0.
0.57 0.0990136 0.
0.571999 0.0990145 0.
0.573999 0.0990149 0.
0.575999 0.0990152 0.
0.578 0.0990156 0.
0.58 0.0990159 0.
0.582001 0.0990162 0.
0.584001 0.0990167 0.
0.586001 0.0990176 0.
0.588 0.0990184 0.
0.59 0.0990187 0.
0.592 0.0990184 0.
0.594 0.0990182 0.
0.596 0.0990185 0.
0.598 0.099019 0.
0.6 0.0990195 0.
0.602001 0.0990185 0.
0.604001 0.0990176 0.
0.606002 0.0990167 0.
0.608003 0.0990163 0.
0.610003 0.0990159 0.
0.612003 0.0990151 0.
0.614003 0.0990137 0.
0.616003 0.0990124 0.
0.618003 0.0990127 0.
0.620003 0.0990138 0.
0.622002 0.0990149 0.
0.624002 0.0990138 0.
0.626002 0.0990125 0.
0.628002 0.0990112 0.
0.630003 0.0990108 0.
0.632003 0.0990103 0.
0.634003 0.0990097 0.
0.636002 0.0990087 0.
0.638002 0.0990078 0.
0.640002 0.0990071 0.
0.642002 0.0990065 0.
0.644002 0.099006 0.
0.646003 0.0990048 0.
0.648004 0.0990033 0.
0.650005 0.0990019 0.
0.652005 0.0990013 0.
0.654005 0.0990007 0.
0.656004 0.0989999 0.
0.658004 0.0989981 0.
0.660004 0.0989963 0.
0.662004 0.0989949 0.
0.664003 0.0989937 0.
0.666003 0.0989926 0.
0.668002 0.0989921 0.
0.670002 0.0989919 0.
0.672001 0.0989917 0.
0.674001 0.0989913 0.
0.676 0.0989909 0.
0.677999 0.0989905 0.
0.679999 0.0989903 0.
0.681998 0.0989901 0.
0.683998 0.09899 0.
0.685998 0.0989904 0.
0.687998 0.0989907 0.
0.689997 0.0989913 0.
0.691996 0.0989921 0.
0.693996 0.0989929 0.
0.695995 0.0989944 0.
0.697994 0.0989961 0.
CELLS 5000 10000
1 0
1 1
1 2
1 3
1 4
1 5
1 6
1 7
1 8
1 9
1 10
1 11
1 12
1 13
1 14
1 15
1 16
1 17
1 18
1 19
1 20
1 21
1 22
1 23
1 24
1 25
1 26
1 27
1 28
1 29
1 30
1 31
1 32
1 33
1 34
1 35
1 36
1 37
1 38
1 39
1 40
1 41
1 42
1 43
1 44
1 45
1 46
1 47
1 48
1 49
1 50
1 51
1 52
1 53
1 54
1 55
1 56
1 57
1 58
1 59
1 60
1 61
1 62
1 63
1 64
1 65
1 66
1 67
1 68
1 69
1 70
1 71
1 72
1 73
1 74
1 75
1 76
1 77
1 78
1 79
1 80
1 81
1 82
1 83
1 84
1 85
1 86
1 87
1 88
1 89
1 90
1 91
1 92
1 93
1 94
1 95
1 96
1 97
1 98
1 99
1 100
1 101
1 102
1 103
1 104
1 105
1 106
1 107
1 108
1 109
1 110
1 111
1 112
1 113
1 114
1 115
1 116
1 117
1 118
1 119
1 120
1 121
1 122
1 123
1 124
1 125
1 126
1 127
1 128
1 129
1 130
1 131
1 132
1 133
1 134
1 135
1 136
1 137
1 138
1 139
1 140
1 141
1 142
1 143
1 144
1 145
1 146
1 147
1 148
1 149
1 150
1 151
1 152
1 153
1 154
1 155
1 156
1 157
1 158
1 159
1 160
1 161
1 162
1 163
1 164
1 165
1 166
1 167
1 168
1 169
1 170
1 171
1 172
1 173
1 174
1 175
1 176
1 177
1 178
1 179
1 180
1 181
1 182
1 183
1 184
1 185
1 186
1 187
1 188
1 189
1 190
1 191
1 192
1 193
1 194
1 195
1 196
1 197
1 198
1 199
1 200
1 201
1 202
1 203
1 204
1 205
1 206
1 207
1 208
1 209
1 210
1 211
1 212
1 213
1 214
1 215
1 216
1 217
1 218
1 219
1 220
1 221
1 222
1 223
1 224
1 225
1 226
1 227
1 228
1 229
1 230
1 231
1 232
1 233
1 234
1 235
1 236
1 237
1 238
1 239
1 240
1 241
1 242
1 243
1 244
1 245
1 246
1 247
1 248
1 249
1 250
1 251
1 252
1 253
1 254
1 255
1 256
1 257
1 258
1 259
1 260
1 261
1 262
1 263
1 264
1 265
1 266
1 267
1 268
1 269
1 270
1 271
1 272
1 273
1 274
1 275
1 276
1 277
1 278
1 279
1 280
1 281
1 282
1 283
1 284
1 285
1 286
1 287
1 288
1 289
1 290
1 291
1 292
1 293
1 294
1 295
1 296
1 297
1 298
1 299
1 300
1 301
1 302
1 303
1 304
1 305
1 306
1 307
1 308
1 309
1 310
1 311
1 312
1 313
1 314
1 315
1 316
1 317
1 318
1 319
1 320
1 321
1 322
1 323
1 324
1 325
1 326
1 327
1 328
1 329
1 330
1 331
1 332
1 333
1 334
1 335
1 336
1 337
1 338
1 339
1 340
1 341
1 342
1 343
1 344
1 345
1 346
1 347
1 348
1 349
1 350
1 351
1 352
1 353
1 354
1 355
1 356
1 357
1 358
1 359
1 360
1 361
1 362
1 363
1 364
1 365
1 366
1 367
1 368
1 369
1 370
1 371
1 372
1 373
1 374
1 375
1 376
1 377
1 378
1 379
1 380
1 381
1 382
1 383
1 384
1 385
1 386
1 387
1 388
1 389
1 390
1 391
1 392
1 393
1 394
1 395
1 396
1 397
1 398
1 399
1 400
1 401
1 402
1 403
1 404
1 405
1 406
1 407
1 408
1 409
1 410
1 411
1 412
1 413
1 414
1 415
1 416
1 417
1 418
1 419
1 420
1 421
1 422
1 423
1 424
1 425
1 426
1 427
1 428
1 429
1 430
1 431
1 432
1 433
1 434
1 435
1 436
1 437
1 438
1 439
1 440
1 441
1 442
1 443
1 444
1 445
1 446
1 447
1 448
1 449
1 450
1 451
1 452
1 453
1 454
1 455
1 456
1 457
1 458
1 459
1 460
1 461
1 462
1 463
1 464
1 465
1 466
1 467
1 468
1 469
1 470
1 471
1 472
1 473
1 474
1 475
1 476
1 477
1 478
1 479
1 480
1 481
1 482
1 483
1 484
1 485
1 486
1 487
1 488
1 489
1 490
1 491
1 492
1 493
1 494
1 495
1 496
1 497
1 498
1 499
1 500
1 501
1 502
1 503
1 504
1 505
1 506
1 507
1 508
1 509
1 510
1 511
1 512
1 513
1 514
1 515
1 516
1 517
1 518
1 519
1 520
1 521
1 522
1 523
1 524
1 525
1 526
1 527
1 528
1 529
1 530
1 531
1 532
1 533
1 534
1 535
1 536
1 537
1 538
1 539
1 540
1 541
1 542
1 543
1 544
1 545
1 546
1 547
1 548
1 549
1 550
1 551
1 552
1 553
1 554
1 555
1 556
1 557
1 558
1 559
1 560
1 561
1 562
1 563
1 564
1 565
1 566
1 567
1 568
1 569
1 570
1 571
1 572
1 573
1 574
1 575
1 576
1 577
1 578
1 579
1 580
1 581
1 582
1 583
1 584
1 585
1 586
1 587
1 588
1 589
1 590
1 591
1 592
1 593
1 594
1 595
1 596
1 597
1 598
1 599
1 600
1 601
1 602
1 603
1 604
1 605
1 606
1 607
1 608
1 609
1 610
1 611
1 612
1 613
1 614
1 615
1 616
1 617
1 618
1 619
1 620
1 621
1 622
1 623
1 624
1 625
1 626
1 627
1 628
1 629
1 630
1 631
1 632
1 633
1 634
1 635
1 636
1 637
1 638
1 639
1 640
1 641
1 642
1 643
1 644
1 645
1 646
1 647
1 648
1 649
1 650
1 651
1 652
1 653
1 654
1 655
1 656
1 657
1 658
1 659
1 660
1 661
1 662
1 663
1 664
1 665
1 666
1 667
1 668
1 669
1 670
1 671
1 672
1 673
1 674
1 675
1 676
1 677
1 678
1 679
1 680
1 681
1 682
1 683
1 684
1 685
1 686
1 687
1 688
1 689
1 690
1 691
1 692
1 693
1 694
1 695
1 696
1 697
1 698
1 699
1 700
1 701
1 702
1 703
1 704
1 705
1 706
1 707
1 708
1 709
1 710
1 711
1 712
1 713
1 714
1 715
1 716
1 717
1 718
1 719
1 720
1 721
1 722
1 723
1 724
1 725
1 726
1 727
1 728
1 729
1 730
1 731
1 732
1 733
1 734
1 735
1 736
1 737
1 738
1 739
1 740
1 741
1 742
1 743
1 744
1 745
1 746
1 747
1 748
1 749
1 750
1 751
1 752
1 753
1 754
1 755
1 756
1 757
1 758
1 759
1 760
1 761
1 762
1 763
1 764
1 765
1 766
1 767
1 768
1 769
1 770
1 771
1 772
1 773
1 774
1 775
1 776
1 777
1 778
1 779
1 780
1 781
1 782
1 783
1 784
1 785
1 786
1 787
1 788
1 789
1 790
1 791
1 792
1 793
1 794
1 795
1 796
1 797
1 798
1 799
1 800
1 801
1 802
1 803
1 804
1 805
1 806
1 807
1 808
1 809
1 810
1 811
1 812
1 813
1 814
1 815
1 816
1 817
1 818
1 819
1 820
1 821
1 822
1 823
1 824
1 825
1 826
1 827
1 828
1 829
1 830
1 831
1 832
1 833
1 834
1 835
1 836
1 837
1 838
1 839
1 840
1 841
1 842
1 843
1 844
1 845
1 846
1 847
1 848
1 849
1 850
1 851
1 852
1 853
1 854
1 855
1 856
1 857
1 858
1 859
1 860
1 861
1 862
1 863
1 864
1 865
1 866
1 867
1 868
1 869
1 870
1 871
1 872
1 873
1 874
1 875
1 876
1 877
1 878
1 879
1 880
1 881
1 882
1 883
1 884
1 885
1 886
1 887
1 888
1 889
1 890
1 891
1 892
1 893
1 894
1 895
1 896
1 897
1 898
1 899
1 900
1 901
1 902
1 903
1 904
1 905
1 906
1 907
1 908
1 909
1 910
1 911
1 912
1 913
1 914
1 915
1 916
1 917
1 918
1 919
1 920
1 921
1 922
1 923
1 924
1 925
1 926
1 927
1 928
1 929
1 930
1 931
1 932
1 933
1 934
1 935
1 936
1 937
1 938
1 939
1 940
1 941
1 942
1 943
1 944
1 945
1 946
1 947
1 948
1 949
1 950
1 951
1 952
1 953
1 954
1 955
1 956
1 957
1 958
1 959
1 960
1 961
1 962
1 963
1 964
1 965
1 966
1 967
1 968
1 969
1 970
1 971
1 972
1 973
1 974
1 975
1 976
1 977
1 978
1 979
1 980
1 981
1 982
1 983
1 984
1 985
1 986
1 987
1 988
1 989
1 990
1 991
1 992
1 993
1 994
1 995
1 996
1 997
1 998
1 999
1 1000
1 1001
1 1002
1 1003
1 1004
1 1005
1 1006
1 1007
1 1008
1 1009
1 1010
1 1011
1 1012
1 1013
1 1014
1 1015
1 1016
1 1017
1 1018
1 1019
1 1020
1 1021
1 1022
1 1023
1 1024
1 1025
1 1026
1 1027
1 1028
1 1029
1 1030
1 1031
1 1032
1 1033
1 1034
1 1035
1 1036
1 1037
1 1038
1 1039
1 1040
1 1041
1 1042
1 1043
1 1044
1 1045
1 1046
1 1047
1 1048
1 1049
1 1050
1 1051
1 1052
1 1053
1 1054
1 1055
1 1056
1 1057
1 1058
1 1059
1 1060
1 1061
1 1062
1 1063
1 1064
1 1065
1 1066
1 1067
1 1068
1 1069
1 1070
1 1071
1 1072
1 1073
1 1074
1 1075
1 1076
1 1077
1 1078
1 1079
1 1080
1 1081
1 1082
1 1083
1 1084
1 1085
1 1086
1 1087
1 1088
1 1089
1 1090
1 1091
1 1092
1 1093
1 1094
1 1095
1 1096
1 1097
1 1098
1 1099
1 1100
1 1101
1 1102
1 1103
1 1104
1 1105
1 1106
1 1107
1 1108
1 1109
1 1110
1 1111
1 1112
1 1113
1 1114
1 1115
1 1116
1 1117
1 1118
1 1119
1 1120
1 1121
1 1122
1 1123
1 1124
1 1125
1 1126
1 1127
1 1128
1 1129
1 1130
1 1131
1 1132
1 1133
1 1134
1 1135
1 1136
1 1137
1 1138
1 1139
1 1140
1 1141
1 1142
1 1143
1 1144
1 1145
1 1146
1 1147
1 1148
1 1149
1 1150
1 1151
1 1152
1 1153
1 1154
1 1155
1 1156
1 1157
1 1158
1 1159
1 1160
1 1161
1 1162
1 1163
1 1164
1 1165
1 1166
1 1167
1 1168
1 1169
1 1170
1 1171
1 1172
1 1173
1 1174
1 1175
1 1176
1 1177
1 1178
1 1179
1 1180
1 1181
1 1182
1 1183
1 1184
1 1185
1 1186
1 1187
1 1188
1 1189
1 1190
1 1191
1 1192
1 1193
1 1194
1 1195
1 1196
1 1197
1 1198
1 1199
1 1200
1 1201
1 1202
1 1203
1 1204
1 1205
1 1206
1 1207
1 1208
1 1209
1 1210
1 1211
1 1212
1 1213
1 1214
1 1215
1 1216
1 1217
1 1218
1 1219
1 1220
1 1221
1 1222
1 1223
1 1224
1 1225
1 1226
1 1227
1 1228
1 1229
1 1230
1 1231
1 1232
1 1233
1 1234
1 1235
1 1236
1 1237
1 1238
1 1239
1 1240
1 1241
1 1242
1 1243
1 1244
1 1245
1 1246
1 1247
1 1248
1 1249
1 1250
1 1251
1 1252
1 1253
1 1254
1 1255
1 1256
1 1257
1 1258
1 1259
1 1260
1 1261
1 1262
1 1263
1 1264
1 1265
1 1266
1 1267
1 1268
1 1269
1 1270
1 1271
1 1272
1 1273
1 1274
1 1275
1 1276
1 1277
1 1278
1 1279
1 1280
1 1281
1 1282
1 1283
1 1284
1 1285
1 1286
1 1287
1 1288
1 1289
1 1290
1 1291
1 1292
1 1293
1 1294
1 1295
1 1296
1 1297
1 1298
1 1299
1 1300
1 1301
1 1302
1 1303
1 1304
1 1305
1 1306
1 1307
1 1308
1 1309
1 1310
1 1311
1 1312
1 1313
1 1314
1 1315
1 1316
1 1317
1 1318
1 1319
1 1320
1 1321
1 1322
1 1323
1 1324
1 1325
1 1326
1 1327
1 1328
1 1329
1 1330
1 1331
1 1332
1 1333
1 1334
1 1335
1 1336
1 1337
1 1338
1 1339
1 1340
1 1341
1 1342
1 1343
1 1344
1 1345
1 1346
1 1347
1 1348
1 1349
1 1350
1 1351
1 1352
1 1353
1 1354
1 1355
1 1356
1 1357
1 1358
1 1359
1 1360
1 1361
1 1362
1 1363
1 1364
1 1365
1 1366
1 1367
1 1368
1 1369
1 1370
1 1371
1 1372
1 1373
1 1374
1 1375
1 1376
1 1377
1 1378
1 1379
1 1380
1 1381
1 1382
1 1383
1 1384
1 1385
1 1386
1 1387
1 1388
1 1389
1 1390
1 1391
1 1392
1 1393
1 1394
1 1395
1 1396
1 1397
1 1398
1 1399
1 1400
1 1401
1 1402
1 1403
1 1404
1 1405
1 1406
1 1407
1 1408
1 1409
1 1410
1 1411
1 1412
1 1413
1 1414
1 1415
1 1416
1 1417
1 1418
1 1419
1 1420
1 1421
1 1422
1 1423
1 1424
1 1425
1 1426
1 1427
1 1428
1 1429
1 1430
1 1431
1 1432
1 1433
1 1434
1 1435
1 1436
1 1437
1 1438
1 1439
1 1440
1 1441
1 1442
1 1443
1 1444
1 1445
1 1446
1 1447
1 1448
1 1449
1 1450
1 1451
1 1452
1 1453
1 1454
1 1455
1 1456
1 1457
1 1458
1 1459
1 1460
1 1461
1 1462
1 1463
1 1464
1 1465
1 1466
1 1467
1 1468
1 1469
1 1470
1 1471
1 1472
1 1473
1 1474
1 1475
1 1476
1 1477
1 1478
1 1479
1 1480
1 1481
1 1482
1 1483
1 1484
1 1485
1 1486
1 1487
1 1488
1 1489
1 1490
1 1491
1 1492
1 1493
1 1494
1 1495
1 1496
1 1497
1 1498
1 1499
1 1500
1 1501
1 1502
1 1503
1 1504
1 1505
1 1506
1 1507
1 1508
1 1509
1 1510
1 1511
1 1512
1 1513
1 1514
1 1515
1 1516
1 1517
1 1518
1 1519
1 1520
1 1521
1 1522
1 1523
1 1524
1 1525
1 1526
1 1527
1 1528
1 1529
1 1530
1 1531
1 1532
1 1533
1 1534
1 1535
1 1536
1 1537
1 1538
1 1539
1 1540
1 1541
1 1542
1 1543
1 1544
1 1545
1 1546
1 1547
1 1548
1 1549
1 1550
1 1551
1 1552
1 1553
1 1554
1 1555
1 1556
1 1557
1 1558
1 1559
1 1560
1 1561
1 1562
1 1563
1 1564
1 1565
1 1566
1 1567
1 1568
1 1569
1 1570
1 1571
1 1572
1 1573
1 1574
1 1575
1 1576
1 1577
1 1578
1 1579
1 1580
1 1581
1 1582
1 1583
1 1584
1 1585
1 1586
1 1587
1 1588
1 1589
1 1590
1 1591
1 1592
1 1593
1 1594
1 1595
1 1596
1 1597
1 1598
1 1599
1 1600
1 1601
1 1602
1 1603
1 1604
1 1605
1 1606
1 1607
1 1608
1 1609
1 1610
1 1611
1 1612
1 1613
1 1614
1 1615
1 1616
1 1617
1 1618
1 1619
1 1620
1 1621
1 1622
1 1623
1 1624
1 1625
1 1626
1 1627
1 1628
1 1629
1 1630
1 1631
1 1632
1 1633
1 1634
1 1635
1 1636
1 1637
1 1638
1 1639
1 1640
1 1641
1 1642
1 1643
1 1644
1 1645
1 1646
1 1647
1 1648
1 1649
1 1650
1 1651
1 1652
1 1653
1 1654
1 1655
1 1656
1 1657
1 1658
1 1659
1 1660
1 1661
1 1662
1 1663
1 1664
1 1665
1 1666
1 1667
1 1668
1 1669
1 1670
1 1671
1 1672
1 1673
1 1674
1 1675
1 1676
1 1677
1 1678
1 1679
1 1680
1 1681
1 1682
1 1683
1 1684
1 1685
1 1686
1 1687
1 1688
1 1689
1 1690
1 1691
1 1692
1 1693
1 1694
1 1695
1 1696
1 1697
1 1698
1 1699
1 1700
1 1701
1 1702
1 1703
1 1704
1 1705
1 1706
1 1707
1 1708
1 1709
1 1710
1 1711
1 1712
1 1713
1 1714
1 1715
1 1716
1 1717
1 1718
1 1719
1 1720
1 1721
1 1722
1 1723
1 1724
1 1725
1 1726
1 1727
1 1728
1 1729
1 1730
1 1731
1 1732
1 1733
1 1734
1 1735
1 1736
1 1737
1 1738
1 1739
1 1740
1 1741
1 1742
1 1743
1 1744
1 1745
1 1746
1 1747
1 1748
1 1749
1 1750
1 1751
1 1752
1 1753
1 1754
1 1755
1 1756
1 1757
1 1758
1 1759
1 1760
1 1761
1 1762
1 1763
1 1764
1 1765
1 1766
1 1767
1 1768
1 1769
1 1770
1 1771
1 1772
1 1773
1 1774
1 1775
1 1776
1 1777
1 1778
1 1779
1 1780
1 1781
1 1782
1 1783
1 1784
1 1785
1 1786
1 1787
1 1788
1 1789
1 1790
1 1791
1 1792
1 1793
1 1794
1 1795
1 1796
1 1797
1 1798
1 1799
1 1800
1 1801
1 1802
1 1803
1 1804
1 1805
1 1806
1 1807
1 1808
1 1809
1 1810
1 1811
1 1812
1 1813
1 1814
1 1815
1 1816
1 1817
1 1818
1 1819
1 1820
1 1821
1 1822
1 1823
1 1824
1 1825
1 1826
1 1827
1 1828
1 1829
1 1830
1 1831
1 1832
1 1833
1 1834
1 1835
1 1836
1 1837
1 1838
1 1839
1 1840
1 1841
1 1842
1 1843
1 1844
1 1845
1 1846
1 1847
1 1848
1 1849
1 1850
1 1851
1 1852
1 1853
1 1854
1 1855
1 1856
1 1857
1 1858
1 1859
1 1860
1 1861
1 1862
1 1863
1 1864
1 1865
1 1866
1 1867
1 1868
1 1869
1 1870
1 1871
1 1872
1 1873
1 1874
1 1875
1 1876
1 1877
1 1878
1 1879
1 1880
1 1881
1 1882
1 1883
1 1884
1 1885
1 1886
1 1887
1 1888
1 1889
1 1890
1 1891
1 1892
1 1893
1 1894
1 1895
1 1896
1 1897
1 1898
1 1899
1 1900
1 1901
1 1902
1 1903
1 1904
1 1905
1 1906
1 1907
1 1908
1 1909
1 1910
1 1911
1 1912
1 1913
1 1914
1 1915
1 1916
1 1917
1 1918
1 1919
1 1920
1 1921
1 1922
1 1923
1 1924
1 1925
1 1926
1 1927
1 1928
1 1929
1 1930
1 1931
1 1932
1 1933
1 1934
1 1935
1 1936
1 1937
1 1938
1 1939
1 1940
1 1941
1 1942
1 1943
1 1944
1 1945
1 1946
1 1947
1 1948
1 1949
1 1950
1 1951
1 1952
1 1953
1 1954
1 1955
1 1956
1 1957
1 1958
1 1959
1 1960
1 1961
1 1962
1 1963
1 1964
1 1965
1 1966
1 1967
1 1968
1 1969
1 1970
1 1971
1 1972
1 1973
1 1974
1 1975
1 1976
1 1977
1 1978
1 1979
1 1980
1 1981
1 1982
1 1983
1 1984
1 1985
1 1986
1 1987
1 1988
1 1989
1 1990
1 1991
1 1992
1 1993
1 1994
1 1995
1 1996
1 1997
1 1998
1 1999
1 2000
1 2001
1 2002
1 2003
1 2004
1 2005
1 2006
1 2007
1 2008
1 2009
1 2010
1 2011
1 2012
1 2013
1 2014
1 2015
1 2016
1 2017
1 2018
1 2019
1 2020
1 2021
1 2022
1 2023
1 2024
1 2025
1 2026
1 2027
1 2028
1 2029
1 2030
1 2031
1 2032
1 2033
1 2034
1 2035
1 2036
1 2037
1 2038
1 2039
1 2040
1 2041
1 2042
1 2043
1 2044
1 2045
1 2046
1 2047
1 2048
1 2049
1 2050
1 2051
1 2052
1 2053
1 2054
1 2055
1 2056
1 2057
1 2058
1 2059
1 2060
1 2061
1 2062
1 2063
1 2064
1 2065
1 2066
1 2067
1 2068
1 2069
1 2070
1 2071
1 2072
1 2073
1 2074
1 2075
1 2076
1 2077
1 2078
1 2079
1 2080
1 2081
1 2082
1 2083
1 2084
1 2085
1 2086
1 2087
1 2088
1 2089
1 2090
1 2091
1 2092
1 2093
1 2094
1 2095
1 2096
1 2097
1 2098
1 2099
1 2100
1 2101
1 2102
1 2103
1 2104
1 2105
1 2106
1 2107
1 2108
1 2109
1 2110
1 2111
1 2112
1 2113
1 2114
1 2115
1 2116
1 2117
1 2118
1 2119
1 2120
1 2121
1 2122
1 2123
1 2124
1 2125
1 2126
1 2127
1 2128
1 2129
1 2130
1 2131
1 2132
1 2133
1 2134
1 2135
1 2136
1 2137
1 2138
1 2139
1 2140
1 2141
1 2142
1 2143
1 2144
1 2145
1 2146
1 2147
1 2148
1 2149
1 2150
1 2151
1 2152
1 2153
1 2154
1 2155
1 2156
1 2157
1 2158
1 2159
1 2160
1 2161
1 2162
1 2163
1 2164
1 2165
1 2166
1 2167
1 2168
1 2169
1 2170
1 2171
1 2172
1 2173
1 2174
1 2175
1 2176
1 2177
1 2178
1 2179
1 2180
1 2181
1 2182
1 2183
1 2184
1 2185
1 2186
1 2187
1 2188
1 2189
1 2190
1 2191
1 2192
1 2193
1 2194
1 2195
1 2196
1 2197
1 2198
1 2199
1 2200
1 2201
1 2202
1 2203
1 2204
1 2205
1 2206
1 2207
1 2208
1 2209
1 2210
1 2211
1 2212
1 2213
1 2214
1 2215
1 2216
1 2217
1 2218
1 2219
1 2220
1 2221
1 2222
1 2223
1 2224
1 2225
1 2226
1 2227
1 2228
1 2229
1 2230
1 2231
1 2232
1 2233
1 2234
1 2235
1 2236
1 2237
1 2238
1 2239
1 2240
1 2241
1 2242
1 2243
1 2244
1 2245
1 2246
1 2247
1 2248
1 2249
1 2250
1 2251
1 2252
1 2253
1 2254
1 2255
1 2256
1 2257
1 2258
1 2259
1 2260
1 2261
1 2262
1 2263
1 2264
1 2265
1 2266
1 2267
1 2268
1 2269
1 2270
1 2271
1 2272
1 2273
1 2274
1 2275
1 2276
1 2277
1 2278
1 2279
1 2280
1 2281
1 2282
1 2283
1 2284
1 2285
1 2286
1 2287
1 2288
1 2289
1 2290
1 2291
1 2292
1 2293
1 2294
1 2295
1 2296
1 2297
1 2298
1 2299
1 2300
1 2301
1 2302
1 2303
1 2304
1 2305
1 2306
1 2307
1 2308
1 2309
1 2310
1 2311
1 2312
1 2313
1 2314
1 2315
1 2316
1 2317
1 2318
1 2319
1 2320
1 2321
1 2322
1 2323
1 2324
1 2325
1 2326
1 2327
1 2328
1 2329
1 2330
1 2331
1 2332
1 2333
1 2334
1 2335
1 2336
1 2337
1 2338
1 2339
1 2340
1 2341
1 2342
1 2343
1 2344
1 2345
1 2346
1 2347
1 2348
1 2349
1 2350
1 2351
1 2352
1 2353
1 2354
1 2355
1 2356
1 2357
1 2358
1 2359
1 2360
1 2361
1 2362
1 2363
1 2364
1 2365
1 2366
1 2367
1 2368
1 2369
1 2370
1 2371
1 2372
1 2373
1 2374
1 2375
1 2376
1 2377
1 2378
1 2379
1 2380
1 2381
1 2382
1 2383
1 2384
1 2385
1 2386
1 2387
1 2388
1 2389
1 2390
1 2391
1 2392
1 2393
1 2394
1 2395
1 2396
1 2397
1 2398
1 2399
1 2400
1 2401
1 2402
1 2403
1 2404
1 2405
1 2406
1 2407
1 2408
1 2409
1 2410
1 2411
1 2412
1 2413
1 2414
1 2415
1 2416
1 2417
1 2418
1 2419
1 2420
1 2421
1 2422
1 2423
1 2424
1 2425
1 2426
1 2427
1 2428
1 2429
1 2430
1 2431
1 2432
1 2433
1 2434
1 2435
1 2436
1 2437
1 2438
1 2439
1 2440
1 2441
1 2442
1 2443
1 2444
1 2445
1 2446
1 2447
1 2448
1 2449
1 2450
1 2451
1 2452
1 2453
1 2454
1 2455
1 2456
1 2457
1 2458
1 2459
1 2460
1 2461
1 2462
1 2463
1 2464
1 2465
1 2466
1 2467
1 2468
1 2469
1 2470
1 2471
1 2472
1 2473
1 2474
1 2475
1 2476
1 2477
1 2478
1 2479
1 2480
1 2481
1 2482
1 2483
1 2484
1 2485
1 2486
1 2487
1 2488
1 2489
1 2490
1 2491
1 2492
1 2493
1 2494
1 2495
1 2496
1 2497
1 2498
1 2499
1 2500
1 2501
1 2502
1 2503
1 2504
1 2505
1 2506
1 2507
1 2508
1 2509
1 2510
1 2511
1 2512
1 2513
1 2514
1 2515
1 2516
1 2517
1 2518
1 2519
1 2520
1 2521
1 2522
1 2523
1 2524
1 2525
1 2526
1 2527
1 2528
1 2529
1 2530
1 2531
1 2532
1 2533
1 2534
1 2535
1 2536
1 2537
1 2538
1 2539
1 2540
1 2541
1 2542
1 2543
1 2544
1 2545
1 2546
1 2547
1 2548
1 2549
1 2550
1 2551
1 2552
1 2553
1 2554
1 2555
1 2556
1 2557
1 2558
1 2559
1 2560
1 2561
1 2562
1 2563
1 2564
1 2565
1 2566
1 2567
1 2568
1 2569
1 2570
1 2571
1 2572
1 2573
1 2574
1 2575
1 2576
1 2577
1 2578
1 2579
1 2580
1 2581
1 2582
1 2583
1 2584
1 2585
1 2586
1 2587
1 2588
1 2589
1 2590
1 2591
1 2592
1 2593
1 2594
1 2595
1 2596
1 2597
1 2598
1 2599
1 2600
1 2601
1 2602
1 2603
1 2604
1 2605
1 2606
1 2607
1 2608
1 2609
1 2610
1 2611
1 2612
1 2613
1 2614
1 2615
1 2616
1 2617
1 2618
1 2619
1 2620
1 2621
1 2622
1 2623
1 2624
1 2625
1 2626
1 2627
1 2628
1 2629
1 2630
1 2631
1 2632
1 2633
1 2634
1 2635
1 2636
1 2637
1 2638
1 2639
1 2640
1 2641
1 2642
1 2643
1 2644
1 2645
1 2646
1 2647
1 2648
1 2649
1 2650
1 2651
1 2652
1 2653
1 2654
1 2655
1 2656
1 2657
1 2658
1 2659
1 2660
1 2661
1 2662
1 2663
1 2664
1 2665
1 2666
1 2667
1 2668
1 2669
1 2670
1 2671
1 2672
1 2673
1 2674
1 2675
1 2676
1 2677
1 2678
1 2679
1 2680
1 2681
1 2682
1 2683
1 2684
1 2685
1 2686
1 2687
1 2688
1 2689
1 2690
1 2691
1 2692
1 2693
1 2694
1 2695
1 2696
1 2697
1 2698
1 2699
1 2700
1 2701
1 2702
1 2703
1 2704
1 2705
1 2706
1 2707
1 2708
1 2709
1 2710
1 2711
1 2712
1 2713
1 2714
1 2715
1 2716
1 2717
1 2718
1 2719
1 2720
1 2721
1 2722
1 2723
1 2724
1 2725
1 2726
1 2727
1 2728
1 2729
1 2730
1 2731
1 2732
1 2733
1 2734
1 2735
1 2736
1 2737
1 2738
1 2739
1 2740
1 2741
1 2742
1 2743
1 2744
1 2745
1 2746
1 2747
1 2748
1 2749
1 2750
1 2751
1 2752
1 2753
1 2754
1 2755
1 2756
1 2757
1 2758
1 2759
1 2760
1 2761
1 2762
1 2763
1 2764
1 2765
1 2766
1 2767
1 2768
1 2769
1 2770
1 2771
1 2772
1 2773
1 2774
1 2775
1 2776
1 2777
1 2778
1 2779
1 2780
1 2781
1 2782
1 2783
1 2784
1 2785
1 2786
1 2787
1 2788
1 2789
1 2790
1 2791
1 2792
1 2793
1 2794
1 2795
1 2796
1 2797
1 2798
1 2799
1 2800
1 2801
1 2802
1 2803
1 2804
1 2805
1 2806
1 2807
1 2808
1 2809
1 2810
1 2811
1 2812
1 2813
1 2814
1 2815
1 2816
1 2817
1 2818
1 2819
1 2820
1 2821
1 2822
1 2823
1 2824
1 2825
1 2826
1 2827
1 2828
1 2829
1 2830
1 2831
1 2832
1 2833
1 2834
1 2835
1 2836
1 2837
1 2838
1 2839
1 2840
1 2841
1 2842
1 2843
1 2844
1 2845
1 2846
1 2847
1 2848
1 2849
1 2850
1 2851
1 2852
1 2853
1 2854
1 2855
1 2856
1 2857
1 2858
1 2859
1 2860
1 2861
1 2862
1 2863
1 2864
1 2865
1 2866
1 2867
1 2868
1 2869
1 2870
1 2871
1 2872
1 2873
1 2874
1 2875
1 2876
1 2877
1 2878
1 2879
1 2880
1 2881
1 2882
1 2883
1 2884
1 2885
1 2886
1 2887
1 2888
1 2889
1 2890
1 2891
1 2892
1 2893
1 2894
1 2895
1 2896
1 2897
1 2898
1 2899
1 2900
1 2901
1 2902
1 2903
1 2904
1 2905
1 2906
1 2907
1 2908
1 2909
1 2910
1 2911
1 2912
1 2913
1 2914
1 2915
1 2916
1 2917
1 2918
1 2919
1 2920
1 2921
1 2922
1 2923
1 2924
1 2925
1 2926
1 2927
1 2928
1 2929
1 2930
1 2931
1 2932
1 2933
1 2934
1 2935
1 2936
1 2937
1 2938
1 2939
1 2940
1 2941
1 2942
1 2943
1 2944
1 2945
1 2946
1 2947
1 2948
1 2949
1 2950
1 2951
1 2952
1 2953
1 2954
1 2955
1 2956
1 2957
1 2958
1 2959
1 2960
1 2961
1 2962
1 2963
1 2964
1 2965
1 2966
1 2967
1 2968
1 2969
1 2970
1 2971
1 2972
1 2973
1 2974
1 2975
1 2976
1 2977
1 2978
1 2979
1 2980
1 2981
1 2982
1 2983
1 2984
1 2985
1 2986
1 2987
1 2988
1 2989
1 2990
1 2991
1 2992
1 2993
1 2994
1 2995
1 2996
1 2997
1 2998
1 2999
1 3000
1 3001
1 3002
1 3003
1 3004
1 3005
1 3006
1 3007
1 3008
1 3009
1 3010
1 3011
1 3012
1 3013
1 3014
1 3015
1 3016
1 3017
1 3018
1 3019
1 3020
1 3021
1 3022
1 3023
1 3024
1 3025
1 3026
1 3027
1 3028
1 3029
1 3030
1 3031
1 3032
1 3033
1 3034
1 3035
1 3036
1 3037
1 3038
1 3039
1 3040
1 3041
1 3042
1 3043
1 3044
1 3045
1 3046
1 3047
1 3048
1 3049
1 3050
1 3051
1 3052
1 3053
1 3054
1 3055
1 3056
1 3057
1 3058
1 3059
1 3060
1 3061
1 3062
1 3063
1 3064
1 3065
1 3066
1 3067
1 3068
1 3069
1 3070
1 3071
1 3072
1 3073
1 3074
1 3075
1 3076
1 3077
1 3078
1 3079
1 3080
1 3081
1 3082
1 3083
1 3084
1 3085
1 3086
1 3087
1 3088
1 3089
1 3090
1 3091
1 3092
1 3093
1 3094
1 3095
1 3096
1 3097
1 3098
1 3099
1 3100
1 3101
1 3102
1 3103
1 3104
1 3105
1 3106
1 3107
1 3108
1 3109
1 3110
1 3111
1 3112
1 3113
1 3114
1 3115
1 3116
1 3117
1 3118
1 3119
1 3120
1 3121
1 3122
1 3123
1 3124
1 3125
1 3126
1 3127
1 3128
1 3129
1 3130
1 3131
1 3132
1 3133
1 3134
1 3135
1 3136
1 3137
1 3138
1 3139
1 3140
1 3141
1 3142
1 3143
1 3144
1 3145
1 3146
1 3147
1 3148
1 3149
1 3150
1 3151
1 3152
1 3153
1 3154
1 3155
1 3156
1 3157
1 3158
1 3159
1 3160
1 3161
1 3162
1 3163
1 3164
1 3165
1 3166
1 3167
1 3168
1 3169
1 3170
1 3171
1 3172
1 3173
1 3174
1 3175
1 3176
1 3177
1 3178
1 3179
1 3180
1 3181
1 3182
1 3183
1 3184
1 3185
1 3186
1 3187
1 3188
1 3189
1 3190
1 3191
1 3192
1 3193
1 3194
1 3195
1 3196
1 3197
1 3198
1 3199
1 3200
1 3201
1 3202
1 3203
1 3204
1 3205
1 3206
1 3207
1 3208
1 3209
1 3210
1 3211
1 3212
1 3213
1 3214
1 3215
1 3216
1 3217
1 3218
1 3219
1 3220
1 3221
1 3222
1 3223
1 3224
1 3225
1 3226
1 3227
1 3228
1 3229
1 3230
1 3231
1 3232
1 3233
1 3234
1 3235
1 3236
1 3237
1 3238
1 3239
1 3240
1 3241
1 3242
1 3243
1 3244
1 3245
1 3246
1 3247
1 3248
1 3249
1 3250
1 3251
1 3252
1 3253
1 3254
1 3255
1 3256
1 3257
1 3258
1 3259
1 3260
1 3261
1 3262
1 3263
1 3264
1 3265
1 3266
1 3267
1 3268
1 3269
1 3270
1 3271
1 3272
1 3273
1 3274
1 3275
1 3276
1 3277
1 3278
1 3279
1 3280
1 3281
1 3282
1 3283
1 3284
1 3285
1 3286
1 3287
1 3288
1 3289
1 3290
1 3291
1 3292
1 3293
1 3294
1 3295
1 3296
1 3297
1 3298
1 3299
1 3300
1 3301
1 3302
1 3303
1 3304
1 3305
1 3306
1 3307
1 3308
1 3309
1 3310
1 3311
1 3312
1 3313
1 3314
1 3315
1 3316
1 3317
1 3318
1 3319
1 3320
1 3321
1 3322
1 3323
1 3324
1 3325
1 3326
1 3327
1 3328
1 3329
1 3330
1 3331
1 3332
1 3333
1 3334
1 3335
1 3336
1 3337
1 3338
1 3339
1 3340
1 3341
1 3342
1 3343
1 3344
1 3345
1 3346
1 3347
1 3348
1 3349
1 3350
1 3351
1 3352
1 3353
1 3354
1 3355
1 3356
1 3357
1 3358
1 3359
1 3360
1 3361
1 3362
1 3363
1 3364
1 3365
1 3366
1 3367
1 3368
1 3369
1 3370
1 3371
1 3372
1 3373
1 3374
1 3375
1 3376
1 3377
1 3378
1 3379
1 3380
1 3381
1 3382
1 3383
1 3384
1 3385
1 3386
1 3387
1 3388
1 3389
1 3390
1 3391
1 3392
1 3393
1 3394
1 3395
1 3396
1 3397
1 3398
1 3399
1 3400
1 3401
1 3402
1 3403
1 3404
1 3405
1 3406
1 3407
1 3408
1 3409
1 3410
1 3411
1 3412
1 3413
1 3414
1 3415
1 3416
1 3417
1 3418
1 3419
1 3420
1 3421
1 3422
1 3423
1 3424
1 3425
1 3426
1 3427
1 3428
1 3429
1 3430
1 3431
1 3432
1 3433
1 3434
1 3435
1 3436
1 3437
1 3438
1 3439
1 3440
1 3441
1 3442
1 3443
1 3444
1 3445
1 3446
1 3447
1 3448
1 3449
1 3450
1 3451
1 3452
1 3453
1 3454
1 3455
1 3456
1 3457
1 3458
1 3459
1 3460
1 3461
1 3462
1 3463
1 3464
1 3465
1 3466
1 3467
1 3468
1 3469
1 3470
1 3471
1 3472
1 3473
1 3474
1 3475
1 3476
1 3477
1 3478
1 3479
1 3480
1 3481
1 3482
1 3483
1 3484
1 3485
1 3486
1 3487
1 3488
1 3489
1 3490
1 3491
1 3492
1 3493
1 3494
1 3495
1 3496
1 3497
1 3498
1 3499
1 3500
1 3501
1 3502
1 3503
1 3504
1 3505
1 3506
1 3507
1 3508
1 3509
1 3510
1 3511
1 3512
1 3513
1 3514
1 3515
1 3516
1 3517
1 3518
1 3519
1 3520
1 3521
1 3522
1 3523
1 3524
1 3525
1 3526
1 3527
1 3528
1 3529
1 3530
1 3531
1 3532
1 3533
1 3534
1 3535
1 3536
1 3537
1 3538
1 3539
1 3540
1 3541
1 3542
1 3543
1 3544
1 3545
1 3546
1 3547
1 3548
1 3549
1 3550
1 3551
1 3552
1 3553
1 3554
1 3555
1 3556
1 3557
1 3558
1 3559
1 3560
1 3561
1 3562
1 3563
1 3564
1 3565
1 3566
1 3567
1 3568
1 3569
1 3570
1 3571
1 3572
1 3573
1 3574
1 3575
1 3576
1 3577
1 3578
1 3579
1 3580
1 3581
1 3582
1 3583
1 3584
1 3585
1 3586
1 3587
1 3588
1 3589
1 3590
1 3591
1 3592
1 3593
1 3594
1 3595
1 3596
1 3597
1 3598
1 3599
1 3600
1 3601
1 3602
1 3603
1 3604
1 3605
1 3606
1 3607
1 3608
1 3609
1 3610
1 3611
1 3612
1 3613
1 3614
1 3615
1 3616
1 3617
1 3618
1 3619
1 3620
1 3621
1 3622
1 3623
1 3624
1 3625
1 3626
1 3627
1 3628
1 3629
1 3630
1 3631
1 3632
1 3633
1 3634
1 3635
1 3636
1 3637
1 3638
1 3639
1 3640
1 3641
1 3642
1 3643
1 3644
1 3645
1 3646
1 3647
1 3648
1 3649
1 3650
1 3651
1 3652
1 3653
1 3654
1 3655
1 3656
1 3657
1 3658
1 3659
1 3660
1 3661
1 3662
1 3663
1 3664
1 3665
1 3666
1 3667
1 3668
1 3669
1 3670
1 3671
1 3672
1 3673
1 3674
1 3675
1 3676
1 3677
1 3678
1 3679
1 3680
1 3681
1 3682
1 3683
1 3684
1 3685
1 3686
1 3687
1 3688
1 3689
1 3690
1 3691
1 3692
1 3693
1 3694
1 3695
1 3696
1 3697
1 3698
1 3699
1 3700
1 3701
1 3702
1 3703
1 3704
1 3705
1 3706
1 3707
1 3708
1 3709
1 3710
1 3711
1 3712
1 3713
1 3714
1 3715
1 3716
1 3717
1 3718
1 3719
1 3720
1 3721
1 3722
1 3723
1 3724
1 3725
1 3726
1 3727
1 3728
1 3729
1 3730
1 3731
1 3732
1 3733
1 3734
1 3735
1 3736
1 3737
1 3738
1 3739
1 3740
1 3741
1 3742
1 3743
1 3744
1 3745
1 3746
1 3747
1 3748
1 3749
1 3750
1 3751
1 3752
1 3753
1 3754
1 3755
1 3756
1 3757
1 3758
1 3759
1 3760
1 3761
1 3762
1 3763
1 3764
1 3765
1 3766
1 3767
1 3768
1 3769
1 3770
1 3771
1 3772
1 3773
1 3774
1 3775
1 3776
1 3777
1 3778
1 3779
1 3780
1 3781
1 3782
1 3783
1 3784
1 3785
1 3786
1 3787
1 3788
1 3789
1 3790
1 3791
1 3792
1 3793
1 3794
1 3795
1 3796
1 3797
1 3798
1 3799
1 3800
1 3801
1 3802
1 3803
1 3804
1 3805
1 3806
1 3807
1 3808
1 3809
1 3810
1 3811
1 3812
1 3813
1 3814
1 3815
1 3816
1 3817
1 3818
1 3819
1 3820
1 3821
1 3822
1 3823
1 3824
1 3825
1 3826
1 3827
1 3828
1 3829
1 3830
1 3831
1 3832
1 3833
1 3834
1 3835
1 3836
1 3837
1 3838
1 3839
1 3840
1 3841
1 3842
1 3843
1 3844
1 3845
1 3846
1 3847
1 3848
1 3849
1 3850
1 3851
1 3852
1 3853
1 3854
1 3855
1 3856
1 3857
1 3858
1 3859
1 3860
1 3861
1 3862
1 3863
1 3864
1 3865
1 3866
1 3867
1 3868
1 3869
1 3870
1 3871
1 3872
1 3873
1 3874
1 3875
1 3876
1 3877
1 3878
1 3879
1 3880
1 3881
1 3882
1 3883
1 3884
1 3885
1 3886
1 3887
1 3888
1 3889
1 3890
1 3891
1 3892
1 3893
1 3894
1 3895
1 3896
1 3897
1 3898
1 3899
1 3900
1 3901
1 3902
1 3903
1 3904
1 3905
1 3906
1 3907
1 3908
1 3909
1 3910
1 3911
1 3912
1 3913
1 3914
1 3915
1 3916
1 3917
1 3918
1 3919
1 3920
1 3921
1 3922
1 3923
1 3924
1 3925
1 3926
1 3927
1 3928
1 3929
1 3930
1 3931
1 3932
1 3933
1 3934
1 3935
1 3936
1 3937
1 3938
1 3939
1 3940
1 3941
1 3942
1 3943
1 3944
1 3945
1 3946
1 3947
1 3948
1 3949
1 3950
1 3951
1 3952
1 3953
1 3954
1 3955
1 3956
1 3957
1 3958
1 3959
1 3960
1 3961
1 3962
1 3963
1 3964
1 3965
1 3966
1 3967
1 3968
1 3969
1 3970
1 3971
1 3972
1 3973
1 3974
1 3975
1 3976
1 3977
1 3978
1 3979
1 3980
1 3981
1 3982
1 3983
1 3984
1 3985
1 3986
1 3987
1 3988
1 3989
1 3990
1 3991
1 3992
1 3993
1 3994
1 3995
1 3996
1 3997
1 3998
1 3999
1 4000
1 4001
1 4002
1 4003
1 4004
1 4005
1 4006
1 4007
1 4008
1 4009
1 4010
1 4011
1 4012
1 4013
1 4014
1 4015
1 4016
1 4017
1 4018
1 4019
1 4020
1 4021
1 4022
1 4023
1 4024
1 4025
1 4026
1 4027
1 4028
1 4029
1 4030
1 4031
1 4032
1 4033
1 4034
1 4035
1 4036
1 4037
1 4038
1 4039
1 4040
1 4041
1 4042
1 4043
1 4044
1 4045
1 4046
1 4047
1 4048
1 4049
1 4050
1 4051
1 4052
1 4053
1 4054
1 4055
1 4056
1 4057
1 4058
1 4059
1 4060
1 4061
1 4062
1 4063
1 4064
1 4065
1 4066
1 4067
1 4068
1 4069
1 4070
1 4071
1 4072
1 4073
1 4074
1 4075
1 4076
1 4077
1 4078
1 4079
1 4080
1 4081
1 4082
1 4083
1 4084
1 4085
1 4086
1 4087
1 4088
1 4089
1 4090
1 4091
1 4092
1 4093
1 4094
1 4095
1 4096
1 4097
1 4098
1 4099
1 4100
1 4101
1 4102
1 4103
1 4104
1 4105
1 4106
1 4107
1 4108
1 4109
1 4110
1 4111
1 4112
1 4113
1 4114
1 4115
1 4116
1 4117
1 4118
1 4119
1 4120
1 4121
1 4122
1 4123
1 4124
1 4125
1 4126
1 4127
1 4128
1 4129
1 4130
1 4131
1 4132
1 4133
1 4134
1 4135
1 4136
1 4137
1 4138
1 4139
1 4140
1 4141
1 4142
1 4143
1 4144
1 4145
1 4146
1 4147
1 4148
1 4149
1 4150
1 4151
1 4152
1 4153
1 4154
1 4155
1 4156
1 4157
1 4158
1 4159
1 4160
1 4161
1 4162
1 4163
1 4164
1 4165
1 4166
1 4167
1 4168
1 4169
1 4170
1 4171
1 4172
1 4173
1 4174
1 4175
1 4176
1 4177
1 4178
1 4179
1 4180
1 4181
1 4182
1 4183
1 4184
1 4185
1 4186
1 4187
1 4188
1 4189
1 4190
1 4191
1 4192
1 4193
1 4194
1 4195
1 4196
1 4197
1 4198
1 4199
1 4200
1 4201
1 4202
1 4203
1 4204
1 4205
1 4206
1 4207
1 4208
1 4209
1 4210
1 4211
1 4212
1 4213
1 4214
1 4215
1 4216
1 4217
1 4218
1 4219
1 4220
1 4221
1 4222
1 4223
1 4224
1 4225
1 4226
1 4227
1 4228
1 4229
1 4230
1 4231
1 4232
1 4233
1 4234
1 4235
1 4236
1 4237
1 4238
1 4239
1 4240
1 4241
1 4242
1 4243
1 4244
1 4245
1 4246
1 4247
1 4248
1 4249
1 4250
1 4251
1 4252
1 4253
1 4254
1 4255
1 4256
1 4257
1 4258
1 4259
1 4260
1 4261
1 4262
1 4263
1 4264
1 4265
1 4266
1 4267
1 4268
1 4269
1 4270
1 4271
1 4272
1 4273
1 4274
1 4275
1 4276
1 4277
1 4278
1 4279
1 4280
1 4281
1 4282
1 4283
1 4284
1 4285
1 4286
1 4287
1 4288
1 4289
1 4290
1 4291
1 4292
1 4293
1 4294
1 4295
1 4296
1 4297
1 4298
1 4299
1 4300
1 4301
1 4302
1 4303
1 4304
1 4305
1 4306
1 4307
1 4308
1 4309
1 4310
1 4311
1 4312
1 4313
1 4314
1 4315
1 4316
1 4317
1 4318
1 4319
1 4320
1 4321
1 4322
1 4323
1 4324
1 4325
1 4326
1 4327
1 4328
1 4329
1 4330
1 4331
1 4332
1 4333
1 4334
1 4335
1 4336
1 4337
1 4338
1 4339
1 4340
1 4341
1 4342
1 4343
1 4344
1 4345
1 4346
1 4347
1 4348
1 4349
1 4350
1 4351
1 4352
1 4353
1 4354
1 4355
1 4356
1 4357
1 4358
1 4359
1 4360
1 4361
1 4362
1 4363
1 4364
1 4365
1 4366
1 4367
1 4368
1 4369
1 4370
1 4371
1 4372
1 4373
1 4374
1 4375
1 4376
1 4377
1 4378
1 4379
1 4380
1 4381
1 4382
1 4383
1 4384
1 4385
1 4386
1 4387
1 4388
1 4389
1 4390
1 4391
1 4392
1 4393
1 4394
1 4395
1 4396
1 4397
1 4398
1 4399
1 4400
1 4401
1 4402
1 4403
1 4404
1 4405
1 4406
1 4407
1 4408
1 4409
1 4410
1 4411
1 4412
1 4413
1 4414
1 4415
1 4416
1 4417
1 4418
1 4419
1 4420
1 4421
1 4422
1 4423
1 4424
1 4425
1 4426
1 4427
1 4428
1 4429
1 4430
1 4431
1 4432
1 4433
1 4434
1 4435
1 4436
1 4437
1 4438
1 4439
1 4440
1 4441
1 4442
1 4443
1 4444
1 4445
1 4446
1 4447
1 4448
1 4449
1 4450
1 4451
1 4452
1 4453
1 4454
1 4455
1 4456
1 4457
1 4458
1 4459
1 4460
1 4461
1 4462
1 4463
1 4464
1 4465
1 4466
1 4467
1 4468
1 4469
1 4470
1 4471
1 4472
1 4473
1 4474
1 4475
1 4476
1 4477
1 4478
1 4479
1 4480
1 4481
1 4482
1 4483
1 4484
1 4485
1 4486
1 4487
1 4488
1 4489
1 4490
1 4491
1 4492
1 4493
1 4494
1 4495
1 4496
1 4497
1 4498
1 4499
1 4500
1 4501
1 4502
1 4503
1 4504
1 4505
1 4506
1 4507
1 4508
1 4509
1 4510
1 4511
1 4512
1 4513
1 4514
1 4515
1 4516
1 4517
1 4518
1 4519
1 4520
1 4521
1 4522
1 4523
1 4524
1 4525
1 4526
1 4527
1 4528
1 4529
1 4530
1 4531
1 4532
1 4533
1 4534
1 4535
1 4536
1 4537
1 4538
1 4539
1 4540
1 4541
1 4542
1 4543
1 4544
1 4545
1 4546
1 4547
1 4548
1 4549
1 4550
1 4551
1 4552
1 4553
1 4554
1 4555
1 4556
1 4557
1 4558
1 4559
1 4560
1 4561
1 4562
1 4563
1 4564
1 4565
1 4566
1 4567
1 4568
1 4569
1 4570
1 4571
1 4572
1 4573
1 4574
1 4575
1 4576
1 4577
1 4578
1 4579
1 4580
1 4581
1 4582
1 4583
1 4584
1 4585
1 4586
1 4587
1 4588
1 4589
1 4590
1 4591
1 4592
1 4593
1 4594
1 4595
1 4596
1 4597
1 4598
1 4599
1 4600
1 4601
1 4602
1 4603
1 4604
1 4605
1 4606
1 4607
1 4608
1 4609
1 4610
1 4611
1 4612
1 4613
1 4614
1 4615
1 4616
1 4617
1 4618
1 4619
1 4620
1 4621
1 4622
1 4623
1 4624
1 4625
1 4626
1 4627
1 4628
1 4629
1 4630
1 4631
1 4632
1 4633
1 4634
1 4635
1 4636
1 4637
1 4638
1 4639
1 4640
1 4641
1 4642
1 4643
1 4644
1 4645
1 4646
1 4647
1 4648
1 4649
1 4650
1 4651
1 4652
1 4653
1 4654
1 4655
1 4656
1 4657
1 4658
1 4659
1 4660
1 4661
1 4662
1 4663
1 4664
1 4665
1 4666
1 4667
1 4668
1 4669
1 4670
1 4671
1 4672
1 4673
1 4674
1 4675
1 4676
1 4677
1 4678
1 4679
1 4680
1 4681
1 4682
1 4683
1 4684
1 4685
1 4686
1 4687
1 4688
1 4689
1 4690
1 4691
1 4692
1 4693
1 4694
1 4695
1 4696
1 4697
1 4698
1 4699
1 4700
1 4701
1 4702
1 4703
1 4704
1 4705
1 4706
1 4707
1 4708
1 4709
1 4710
1 4711
1 4712
1 4713
1 4714
1 4715
1 4716
1 4717
1 4718
1 4719
1 4720
1 4721
1 4722
1 4723
1 4724
1 4725
1 4726
1 4727
1 4728
1 4729
1 4730
1 4731
1 4732
1 4733
1 4734
1 4735
1 4736
1 4737
1 4738
1 4739
1 4740
1 4741
1 4742
1 4743
1 4744
1 4745
1 4746
1 4747
1 4748
1 4749
1 4750
1 4751
1 4752
1 4753
1 4754
1 4755
1 4756
1 4757
1 4758
1 4759
1 4760
1 4761
1 4762
1 4763
1 4764
1 4765
1 4766
1 4767
1 4768
1 4769
1 4770
1 4771
1 4772
1 4773
1 4774
1 4775
1 4776
1 4777
1 4778
1 4779
1 4780
1 4781
1 4782
1 4783
1 4784
1 4785
1 4786
1 4787
1 4788
1 4789
1 4790
1 4791
1 4792
1 4793
1 4794
1 4795
1 4796
1 4797
1 4798
1 4799
1 4800
1 4801
1 4802
1 4803
1 4804
1 4805
1 4806
1 4807
1 4808
1 4809
1 4810
1 4811
1 4812
1 4813
1 4814
1 4815
1 4816
1 4817
1 4818
1 4819
1 4820
1 4821
1 4822
1 4823
1 4824
1 4825
1 4826
1 4827
1 4828
1 4829
1 4830
1 4831
1 4832
1 4833
1 4834
1 4835
1 4836
1 4837
1 4838
1 4839
1 4840
1 4841
1 4842
1 4843
1 4844
1 4845
1 4846
1 4847
1 4848
1 4849
1 4850
1 4851
1 4852
1 4853
1 4854
1 4855
1 4856
1 4857
1 4858
1 4859
1 4860
1 4861
1 4862
1 4863
1 4864
1 4865
1 4866
1 4867
1 4868
1 4869
1 4870
1 4871
1 4872
1 4873
1 4874
1 4875
1 4876
1 4877
1 4878
1 4879
1 4880
1 4881
1 4882
1 4883
1 4884
1 4885
1 4886
1 4887
1 4888
1 4889
1 4890
1 4891
1 4892
1 4893
1 4894
1 4895
1 4896
1 4897
1 4898
1 4899
1 4900
1 4901
1 4902
1 4903
1 4904
1 4905
1 4906
1 4907
1 4908
1 4909
1 4910
1 4911
1 4912
1 4913
1 4914
1 4915
1 4916
1 4917
1 4918
1 4919
1 4920
1 4921
1 4922
1 4923
1 4924
1 4925
1 4926
1 4927
1 4928
1 4929
1 4930
1 4931
1 4932
1 4933
1 4934
1 4935
1 4936
1 4937
1 4938
1 4939
1 4940
1 4941
1 4942
1 4943
1 4944
1 4945
1 4946
1 4947
1 4948
1 4949
1 4950
1 4951
1 4952
1 4953
1 4954
1 4955
1 4956
1 4957
1 4958
1 4959
1 4960
1 4961
1 4962
1 4963
1 4964
1 4965
1 4966
1 4967
1 4968
1 4969
1 4970
1 4971
1 4972
1 4973
1 4974
1 4975
1 4976
1 4977
1 4978
1 4979
1 4980
1 4981
1 4982
1 4983
1 4984
1 4985
1 4986
1 4987
1 4988
1 4989
1 4990
1 4991
1 4992
1 4993
1 4994
1 4995
1 4996
1 4997
1 4998
1 4999
CELL_TYPES 5000
1 
1 
1 
1 
1 
1 
1 
1 
1 
1 
1 
1 
1 
1 
1 
1 
1 
1 
1 
1 
1 
1 
1 
1 
1 
1 
1 
1 
1 
1 
1 
1 
1 
1 
1 
1 
1 
1 
1 
1 
1 
1 
1 
1 
1 
1 
1 
1 
1 
1 
1 
1 
1 
1 
1 
1 
1 
1 
1 
1 
1 
1 
1 
1 
1 
1 
1 
1 
1 
1 
1 
1 
1 
1 
1 
1 
1 
1 
1 
1 
1 
1 
1 
1 
1 
1 
1 
1 
1 
1 
1 
1 
1 
1 
1 
1 
1 
1 
1 
1 
1 
1 
1 
1 
1 
1 
1 
1 
1 
1 
1 
1 
1 
1 
1 
1 
1 
1 
1 
1 
1 
1 
1 
1 
1 
1 
1 
1 
1 
1 
1 
1 
1 
1 
1 
1 
1 
1 
1 
1 
1 
1 
1 
1 
1 
1 
1 
1 
1 
1 
1 
1 
1 
1 
1 
1 
1 
1 
1 
1 
1 
1 
1 
1 
1 
1 
1 
1 
1 
1 
1 
1 
1 
1 
1 
1 
1 
1 
1 
1 
1 
1 
1 
1 
1 
1 
1 
1 
1 
1 
1 
1 
1 
1 
1 
1 
1 
1 
1 
1 
1 
1 
1 
1 
1 
1 
1 
1 
1 
1 
1 
1 
1 
1 
1 
1 
1 
1 
1 
1 
1 
1 
1 
1 
1 
1 
1 
1 
1 
1 
1 
1 
1 
1 
1 
1 
1 
1 
1 
1 
1 
1 
1 
1 
1 
1 
1 
1 
1 
1 
1 
1 
1 
1 
1 
1 
1 
1 
1 
1 
1 
1 
1 
1 
1 
1 
1 
1 
1 
1 
1 
1 
1 
1 
1 
1 
1 
1 
1 
1 
1 
1 
1 
1 
1 
1 
1 
1 
1 
1 
1 
1 
1 
1 
1 
1 
1 
1 
1 
1 
1 
1 
1 
1 
1 
1 
1 
1 
1 
1 
1 
1 
1 
1 
1 
1 
1 
1 
1 
1 
1 
1 
1 
1 
1 
1 
1 
1 
1 
1 
1 
1 
1 
1 
1 
1 
1 
1 
1 
1 
1 
1 
1 
1 
1 
1 
1 
1 
1 
1 
1 
1 
1 
1 
1 
1 
1 
1 
1 
1 
1 
1 
1 
1 
1 
1 
1 
1 
1 
1 
1 
1 
1 
1 
1 
1 
1 
1 
1 
1 
1 
1 
1 
1 
1 
1 
1 
1 
1 
1 
1 
1 
1 
1 
1 
1 
1 
1 
1 
1 
1 
1 
1 
1 
1 
1 
1 
1 
1 
1 
1 
1 
1 
1 
1 
1 
1 
1 
1 
1 
1 
1 
1 
1 
1 
1 
1 
1 
1 
1 
1 
1 
1 
1 
1 
1 
1 
1 
1 
1 
1 
1 
1 
1 
1 
1 
1 
1 
1 
1 
1 
1 
1 
1 
1 
1 
1 
1 
1 
1 
1 
1 
1 
1 
1 
1 
1 
1 
1 
1 
1 
1 
1 
1 
1 
1 
1 
1 
1 
1 
1 
1 
1 
1 
1 
1 
1 
1 
1 
1 
1 
1 
1 
1 
1 
1 
1 
1 
1 
1 
1 
1 
1 
1 
1 
1 
1 
1 
1 
1 
1 
1 
1 
1 
1 
1 
1 
1 
1 
1 
1 
1 
1 
1 
1 
1 
1 
1 
1 
1 
1 
1 
1 
1 
1 
1 
1 
1 
1 
1 
1 
1 
1 
1 
1 
1 
1 
1 
1 
1 
1 
1 
1 
1 
1 
1 
1 
1 
1 
1 
1 
1 
1 
1 
1 
1 
1 
1 
1 
1 
1 
1 
1 
1 
1 
1 
1 
1 
1 
1 
1 
1 
1 
1 
1 
1 
1 
1 
1 
1 
1 
1 
1 
1 
1 
1 
1 
1 
1 
1 
1 
1 
1 
1 
1 
1 
1 
1 
1 
1 
1 
1 
1 
1 
1 
1 
1 
1 
1 
1 
1 
1 
1 
1 
1 
1 
1 
1 
1 
1 
1 
1 
1 
1 
1 
1 
1 
1 
1 
1 
1 
1 
1 
1 
1 
1 
1 
1 
1 
1 
1 
1 
1 
1 
1 
1 
1 
1 
1 
1 
1 
1 
1 
1 
1 
1 
1 
1 
1 
1 
1 
1 
1 
1 
1 
1 
1 
1 
1 
1 
1 
1 
1 
1 
1 
1 
1 
1 
1 
1 
1 
1 
1 
1 
1 
1 
1 
1 
1 
1 
1 
1 
1 
1 
1 
1 
1 
1 
1 
1 
1 
1 
1 
1 
1 
1 
1 
1 
1 
1 
1 
1 
1 
1 
1 
1 
1 
1 
1 
1 
1 
1 
1 
1 
1 
1 
1 
1 
1 
1 
1 
1 
1 
1 
1 
1 
1 
1 
1 
1 
1 
1 
1 
1 
1 
1 
1 
1 
1 
1 
1 
1 
1 
1 
1 
1 
1 
1 
1 
1 
1 
1 
1 
1 
1 
1 
1 
1 
1 
1 
1 
1 
1 
1 
1 
1 
1 
1 
1 
1 
1 
1 
1 
1 
1 
1 
1 
1 
1 
1 
1 
1 
1 
1 
1 
1 
1 
1 
1 
1 
1 
1 
1 
1 
1 
1 
1 
1 
1 
1 
1 
1 
1 
1 
1 
1 
1 
1 
1 
1 
1 
1 
1 
1 
1 
1 
1 
1 
1 
1 
1 
1 
1 
1 
1 
1 
1 
1 
1 
1 
1 
1 
1 
1 
1 
1 
1 
1 
1 
1 
1 
1 
1 
1 
1 
1 
1 
1 
1 
1 
1 
1 
1 
1 
1 
1 
1 
1 
1 
1 
1 
1 
1 
1 
1 
1 
1 
1 
1 
1 
1 
1 
1 
1 
1 
1 
1 
1 
1 
1 
1 
1 
1 
1 
1 
1 
1 
1 
1 
1 
1 
1 
1 
1 
1 
1 
1 
1 
1 
1 
1 
1 
1 
1 
1 
1 
1 
1 
1 
1 
1 
1 
1 
1 
1 
1 
1 
1 
1 
1 
1 
1 
1 
1 
1 
1 
1 
1 
1 
1 
1 
1 
1 
1 
1 
1 
1 
1 
1 
1 
1 
1 
1 
1 
1 
1 
1 
1 
1 
1 
1 
1 
1 
1 
1 
1 
1 
1 
1 
1 
1 
1 
1 
1 
1 
1 
1 
1 
1 
1 
1 
1 
1 
1 
1 
1 
1 
1 
1 
1 
1 
1 
1 
1 
1 
1 
1 
1 
1 
1 
1 
1 
1 
1 
1 
1 
1 
1 
1 
1 
1 
1 
1 
1 
1 
1 
1 
1 
1 
1 
1 
1 
1 
1 
1 
1 
1 
1 
1 
1 
1 
1 
1 
1 
1 
1 
1 
1 
1 
1 
1 
1 
1 
1 
1 
1 
1 
1 
1 
1 
1 
1 
1 
1 
1 
1 
1 
1 
1 
1 
1 
1 
1 
1 
1 
1 
1 
1 
1 
1 
1 
1 
1 
1 
1 
1 
1 
1 
1 
1 
1 
1 
1 
1 
1 
1 
1 
1 
1 
1 
1 
1 
1 
1 
1 
1 
1 
1 
1 
1 
1 
1 
1 
1 
1 
1 
1 
1 
1 
1 
1 
1 
1 
1 
1 
1 
1 
1 
1 
1 
1 
1 
1 
1 
1 
1 
1 
1 
1 
1 
1 
1 
1 
1 
1 
1 
1 
1 
1 
1 
1 
1 
1 
1 
1 
1 
1 
1 
1 
1 
1 
1 
1 
1 
1 
1 
1 
1 
1 
1 
1 
1 
1 
1 
1 
1 
1 
1 
1 
1 
1 
1 
1 
1 
1 
1 
1 
1 
1 
1 
1 
1 
1 
1 
1 
1 
1 
1 
1 
1 
1 
1 
1 
1 
1 
1 
1 
1 
1 
1 
1 
1 
1 
1 
1 
1 
1 
1 
1 
1 
1 
1 
1 
1 
1 
1 
1 
1 
1 
1 
1 
1 
1 
1 
1 
1 
1 
1 
1 
1 
1 
1 
1 
1 
1 
1 
1 
1 
1 
1 
1 
1 
1 
1 
1 
1 
1 
1 
1 
1 
1 
1 
1 
1 
1 
1 
1 
1 
1 
1 
1 
1 
1 
1 
1 
1 
1 
1 
1 
1 
1 
1 
1 
1 
1 
1 
1 
1 
1 
1 
1 
1 
1 
1 
1 
1 
1 
1 
1 
1 
1 
1 
1 
1 
1 
1 
1 
1 
1 
1 
1 
1 
1 
1 
1 
1 
1 
1 
1 
1 
1 
1 
1 
1 
1 
1 
1 
1 
1 
1 
1 
1 
1 
1 
1 
1 
1 
1 
1 
1 
1 
1 
1 
1 
1 
1 
1 
1 
1 
1 
1 
1 
1 
1 
1 
1 
1 
1 
1 
1 
1 
1 
1 
1 
1 
1 
1 
1 
1 
1 
1 
1 
1 
1 
1 
1 
1 
1 
1 
1 
1 
1 
1 
1 
1 
1 
1 
1 
1 
1 
1 
1 
1 
1 
1 
1 
1 
1 
1 
1 
1 
1 
1 
1 
1 
1 
1 
1 
1 
1 
1 
1 
1 
1 
1 
1 
1 
1 
1 
1 
1 
1 
1 
1 
1 
1 
1 
1 
1 
1 
1 
1 
1 
1 
1 
1 
1 
1 
1 
1 
1 
1 
1 
1 
1 
1 
1 
1 
1 
1 
1 
1 
1 
1 
1 
1 
1 
1 
1 
1 
1 
1 
1 
1 
1 
1 
1 
1 
1 
1 
1 
1 
1 
1 
1 
1 
1 
1 
1 
1 
1 
1 
1 
1 
1 
1 
1 
1 
1 
1 
1 
1 
1 
1 
1 
1 
1 
1 
1 
1 
1 
1 
1 
1 
1 
1 
1 
1 
1 
1 
1 
1 
1 
1 
1 
1 
1 
1 
1 
1 
1 
1 
1 
1 
1 
1 
1 
1 
1 
1 
1 
1 
1 
1 
1 
1 
1 
1 
1 
1 
1 
1 
1 
1 
1 
1 
1 
1 
1 
1 
1 
1 
1 
1 
1 
1 
1 
1 
1 
1 
1 
1 
1 
1 
1 
1 
1 
1 
1 
1 
1 
1 
1 
1 
1 
1 
1 
1 
1 
1 
1 
1 
1 
1 
1 
1 
1 
1 
1 
1 
1 
1 
1 
1 
1 
1 
1 
1 
1 
1 
1 
1 
1 
1 
1 
1 
1 
1 
1 
1 
1 
1 
1 
1 
1 
1 
1 
1 
1 
1 
1 
1 
1 
1 
1 
1 
1 
1 
1 
1 
1 
1 
1 
1 
1 
1 
1 
1 
1 
1 
1 
1 
1 
1 
1 
1 
1 
1 
1 
1 
1 
1 
1 
1 
1 
1 
1 
1 
1 
1 
1 
1 
1 
1 
1 
1 
1 
1 
1 
1 
1 
1 
1 
1 
1 
1 
1 
1 
1 
1 
1 
1 
1 
1 
1 
1 
1 
1 
1 
1 
1 
1 
1 
1 
1 
1 
1 
1 
1 
1 
1 
1 
1 
1 
1 
1 
1 
1 
1 
1 
1 
1 
1 
1 
1 
1 
1 
1 
1 
1 
1 
1 
1 
1 
1 
1 
1 
1 
1 
1 
1 
1 
1 
1 
1 
1 
1 
1 
1 
1 
1 
1 
1 
1 
1 
1 
1 
1 
1 
1 
1 
1 
1 
1 
1 
1 
1 
1 
1 
1 
1 
1 
1 
1 
1 
1 
1 
1 
1 
1 
1 
1 
1 
1 
1 
1 
1 
1 
1 
1 
1 
1 
1 
1 
1 
1 
1 
1 
1 
1 
1 
1 
1 
1 
1 
1 
1 
1 
1 
1 
1 
1 
1 
1 
1 
1 
1 
1 
1 
1 
1 
1 
1 
1 
1 
1 
1 
1 
1 
1 
1 
1 
1 
1 
1 
1 
1 
1 
1 
1 
1 
1 
1 
1 
1 
1 
1 
1 
1 
1 
1 
1 
1 
1 
1 
1 
1 
1 
1 
1 
1 
1 
1 
1 
1 
1 
1 
1 
1 
1 
1 
1 
1 
1 
1 
1 
1 
1 
1 
1 
1 
1 
1 
1 
1 
1 
1 
1 
1 
1 
1 
1 
1 
1 
1 
1 
1 
1 
1 
1 
1 
1 
1 
1 
1 
1 
1 
1 
1 
1 
1 
1 
1 
1 
1 
1 
1 
1 
1 
1 
1 
1 
1 
1 
1 
1 
1 
1 
1 
1 
1 
1 
1 
1 
1 
1 
1 
1 
1 
1 
1 
1 
1 
1 
1 
1 
1 
1 
1 
1 
1 
1 
1 
1 
1 
1 
1 
1 
1 
1 
1 
1 
1 
1 
1 
1 
1 
1 
1 
1 
1 
1 
1 
1 
1 
1 
1 
1 
1 
1 
1 
1 
1 
1 
1 
1 
1 
1 
1 
1 
1 
1 
1 
1 
1 
1 
1 
1 
1 
1 
1 
1 
1 
1 
1 
1 
1 
1 
1 
1 
1 
1 
1 
1 
1 
1 
1 
1 
1 
1 
1 
1 
1 
1 
1 
1 
1 
1 
1 
1 
1 
1 
1 
1 
1 
1 
1 
1 
1 
1 
1 
1 
1 
1 
1 
1 
1 
1 
1 
1 
1 
1 
1 
1 
1 
1 
1 
1 
1 
1 
1 
1 
1 
1 
1 
1 
1 
1 
1 
1 
1 
1 
1 
1 
1 
1 
1 
1 
1 
1 
1 
1 
1 
1 
1 
1 
1 
1 
1 
1 
1 
1 
1 
1 
1 
1 
1 
1 
1 
1 
1 
1 
1 
1 
1 
1 
1 
1 
1 
1 
1 
1 
1 
1 
1 
1 
1 
1 
1 
1 
1 
1 
1 
1 
1 
1 
1 
1 
1 
1 
1 
1 
1 
1 
1 
1 
1 
1 
1 
1 
1 
1 
1 
1 
1 
1 
1 
1 
1 
1 
1 
1 
1 
1 
1 
1 
1 
1 
1 
1 
1 
1 
1 
1 
1 
1 
1 
1 
1 
1 
1 
1 
1 
1 
1 
1 
1 
1 
1 
1 
1 
1 
1 
1 
1 
1 
1 
1 
1 
1 
1 
1 
1 
1 
1 
1 
1 
1 
1 
1 
1 
1 
1 
1 
1 
1 
1 
1 
1 
1 
1 
1 
1 
1 
1 
1 
1 
1 
1 
1 
1 
1 
1 
1 
1 
1 
1 
1 
1 
1 
1 
1 
1 
1 
1 
1 
1 
1 
1 
1 
1 
1 
1 
1 
1 
1 
1 
1 
1 
1 
1 
1 
1 
1 
1 
1 
1 
1 
1 
1 
1 
1 
1 
1 
1 
1 
1 
1 
1 
1 
1 
1 
1 
1 
1 
1 
1 
1 
1 
1 
1 
1 
1 
1 
1 
1 
1 
1 
1 
1 
1 
1 
1 
1 
1 
1 
1 
1 
1 
1 
1 
1 
1 
1 
1 
1 
1 
1 
1 
1 
1 
1 
1 
1 
1 
1 
1 
1 
1 
1 
1 
1 
1 
1 
1 
1 
1 
1 
1 
1 
1 
1 
1 
1 
1 
1 
1 
1 
1 
1 
1 
1 
1 
1 
1 
1 
1 
1 
1 
1 
1 
1 
1 
1 
1 
1 
1 
1 
1 
1 
1 
1 
1 
1 
1 
1 
1 
1 
1 
1 
1 
1 
1 
1 
1 
1 
1 
1 
1 
1 
1 
1 
1 
1 
1 
1 
1 
1 
1 
1 
1 
1 
1 
1 
1 
1 
1 
1 
1 
1 
1 
1 
1 
1 
1 
1 
1 
1 
1 
1 
1 
1 
1 
1 
1 
1 
1 
1 
1 
1 
1 
1 
1 
1 
1 
1 
1 
1 
1 
1 
1 
1 
1 
1 
1 
1 
1 
1 
1 
1 
1 
1 
1 
1 
1 
1 
1 
1 
1 
1 
1 
1 
1 
1 
1 
1 
1 
1 
1 
1 
1 
1 
1 
1 
1 
1 
1 
1 
1 
1 
1 
1 
1 
1 
1 
1 
1 
1 
1 
1 
1 
1 
1 
1 
1 
1 
1 
1 
1 
1 
1 
1 
1 
1 
1 
1 
1 
1 
1 
1 
1 
1 
1 
1 
1 
1 
1 
1 
1 
1 
1 
1 
1 
1 
1 
1 
1 
1 
1 
1 
1 
1 
1 
1 
1 
1 
1 
1 
1 
1 
1 
1 
1 
1 
1 
1 
1 
1 
1 
1 
1 
1 
1 
1 
1 
1 
1 
1 
1 
1 
1 
1 
1 
1 
1 
1 
1 
1 
1 
1 
1 
1 
1 
1 
1 
1 
1 
1 
1 
1 
1 
1 
1 
1 
1 
1 
1 
1 
1 
1 
1 
1 
1 
1 
1 
1 
1 
1 
1 
1 
1 
1 
1 
1 
1 
1 
1 
1 
1 
1 
1 
1 
1 
1 
1 
1 
1 
1 
1 
1 
1 
1 
1 
1 
1 
1 
1 
1 
1 
1 
1 
1 
1 
1 
1 
1 
1 
1 
1 
1 
1 
1 
1 
1 
1 
1 
1 
1 
1 
1 
1 
1 
1 
1 
1 
1 
1 
1 
1 
1 
1 
1 
1 
1 
1 
1 
1 
1 
1 
1 
1 
1 
1 
1 
1 
1 
1 
1 
1 
1 
1 
1 
1 
1 
1 
1 
1 
1 
1 
1 
1 
1 
1 
1 
1 
1 
1 
1 
1 
1 
1 
1 
1 
1 
1 
1 
1 
1 
1 
1 
1 
1 
1 
1 
1 
1 
1 
1 
1 
1 
1 
1 
1 
1 
1 
1 
1 
1 
1 
1 
1 
1 
1 
1 
1 
1 
1 
1 
1 
1 
1 
1 
1 
1 
1 
1 
1 
1 
1 
1 
1 
1 
1 
1 
1 
1 
1 
1 
1 
1 
1 
1 
1 
1 
1 
1 
1 
1 
1 
1 
1 
1 
1 
1 
1 
1 
1 
1 
1 
1 
1 
1 
1 
1 
1 
1 
1 
1 
1 
1 
1 
1 
1 
1 
1 
1 
1 
1 
1 
1 
1 
1 
1 
1 
1 
1 
1 
1 
1 
1 
1 
1 
1 
1 
1 
1 
1 
1 
1 
1 
1 
1 
1 
1 
1 
1 
1 
1 
1 
1 
1 
1 
1 
1 
1 
1 
1 
1 
1 
1 
1 
1 
1 
1 
1 
1 
1 
1 
1 
1 
1 
1 
1 
1 
1 
1 
1 
1 
1 
1 
1 
1 
1 
1 
1 
1 
1 
1 
1 
1 
1 
1 
1 
1 
1 
1 
1 
1 
1 
1 
1 
1 
1 
1 
1 
1 
1 
1 
1 
1 
1 
1 
1 
1 
1 
1 
1 
1 
1 
1 
1 
1 
1 
1 
1 
1 
1 
1 
1 
1 
1 
1 
1 
1 
1 
1 
1 
1 
1 
1 
1 
1 
1 
1 
1 
1 
1 
1 
1 
1 
1 
1 
1 
1 
1 
1 
1 
1 
1 
1 
1 
1 
1 
1 
1 
1 
1 
1 
1 
1 
1 
1 
1 
1 
1 
1 
1 
1 
1 
1 
1 
1 
1 
1 
1 
1 
1 
1 
1 
1 
1 
1 
1 
1 
1 
1 
1 
1 
1 
1 
1 
1 
1 
1 
1 
1 
1 
1 
1 
1 
1 
1 
1 
1 
1 
1 
1 
1 
1 
1 
1 
1 
1 
1 
1 
1 
1 
1 
1 
1 
1 
1 
1 
1 
1 
1 
1 
1 
1 
1 
1 
1 
1 
1 
1 
1 
1 
1 
1 
1 
1 
1 
1 
1 
1 
1 
1 
1 
1 
1 
1 
1 
1 
1 
1 
1 
1 
1 
1 
1 
1 
1 
1 
1 
1 
1 
1 
1 
1 
1 
1 
1 
1 
1 
1 
1 
1 
1 
1 
1 
1 
1 
1 
1 
1 
1 
1 
1 
1 
1 
1 
1 
1 
1 
1 
1 
1 
1 
1 
1 
1 
1 
1 
1 
1 
1 
1 
1 
1 
1 
1 
1 
1 
1 
1 
1 
1 
1 
1 
1 
1 
1 
1 
1 
1 
1 
1 
1 
1 
1 
1 
1 
1 
1 
1 
1 
1 
1 
1 
1 
1 
1 
1 
1 
1 
1 
1 
1 
1 
1 
1 
1 
1 
1 
1 
1 
1 
1 
1 
1 
1 
1 
1 
1 
1 
1 
1 
1 
1 
1 
1 
1 
1 
1 
1 
1 
1 
1 
1 
1 
1 
1 
1 
1 
1 
1 
1 
1 
1 
1 
1 
1 
1 
1 
1 
1 
1 
1 
1 
1 
1 
1 
1 
1 
1 
1 
1 
1 
1 
1 
1 
1 
1 
1 
1 
1 
1 
1 
1 
1 
1 
1 
1 
1 
1 
1 
1 
1 
1 
1 
1 
1 
1 
1 
1 
1 
1 
1 
1 
1 
1 
1 
1 
1 
1 
1 
1 
1 
1 
1 
1 
1 
1 
1 
1 
1 
1 
1 
1 
1 
1 
1 
1 
1 
1 
1 
1 
1 
1 
1 
1 
1 
1 
1 
1 
1 
1 
1 
1 
1 
1 
1 
1 
1 
1 
1 
1 
1 
1 
1 
1 
1 
1 
1 
1 
1 
1 
1 
1 
1 
1 
1 
1 
1 
1 
1 
1 
1 
1 
1 
1 
1 
1 
1 
1 
1 
1 
1 
1 
1 
1 
1 
1 
1 
1 
1 
1 
1 
1 
1 
1 
1 
1 
1 
1 
1 
1 
1 
1 
1 
1 
1 
1 
1 
1 
1 
1 
1 
1 
1 
1 
1 
1 
1 
1 
1 
1 
1 
1 
1 
1 
1 
1 
1 
1 
1 
1 
1 
1 
1 
1 
1 
1 
1 
1 
1 
1 
1 
1 
1 
1 
1 
1 
1 
1 
1 
1 
1 
1 
1 
1 
1 
1 
1 
1 
1 
1 
1 
1 
1 
1 
1 
1 
1 
1 
1 
1 
1 
1 
1 
1 
1 
1 
1 
1 
1 
1 
1 
1 
1 
1 
1 
1 
1 
1 
1 
1 
1 
1 
1 
1 
1 
1 
1 
1 
1 
1 
1 
1 
1 
1 
1 
1 
1 
1 
1 
1 
1 
1 
1 
1 
1 
1 
1 
1 
1 
1 
1 
1 
1 
1 
1 
1 
1 
1 
1 
1 
1 
1 
1 
1 
1 
1 
1 
1 
1 
1 
1 
1 
1 
1 
1 
1 
1 
1 
1 
1 
1 
1 
1 
1 
1 
1 
1 
1 
1 
1 
1 
1 
1 
1 
1 
1 
1 
1 
1 
1 
1 
1 
1 
1 
1 
1 
1 
1 
1 
1 
1 
1 
1 
1 
1 
1 
1 
1 
1 
1 
1 
1 
1 
1 
1 
1 
1 
1 
1 
1 
1 
1 
1 
1 
1 
1 
1 
1 
1 
1 
1 
1 
1 
1 
1 
1 
1 
1 
1 
1 
1 
1 
1 
1 
1 
1 
1 
1 
1 
1 
1 
1 
1 
1 
1 
1 
1 
1 
1 
1 
1 
1 
1 
1 
1 
1 
1 
1 
1 
1 
1 
1 
1 
1 
1 
1 
1 
1 
1 
1 
1 
1 
1 
1 
1 
1 
1 
1 
1 
1 
1 
1 
1 
1 
1 
1 
1 
1 
1 
1 
1 
1 
1 
1 
1 
1 
1 
1 
1 
1 
1 
1 
1 
1 
1 
1 
1 
1 
1 
1 
1 
1 
1 
1 
1 
1 
1 
1 
1 
1 
1 
1 
1 
1 
1 
1 
1 
1 
1 
1 
1 
1 
1 
1 
1 
1 
1 
1 
1 
1 
1 
1 
1 
1 
1 
1 
1 
1 
1 
1 
1 
1 
1 
1 
1 
1 
1 
1 
1 
1 
1 
1 
1 
1 
1 
1 
1 
1 
1 
1 
1 
1 
1 
1 
1 
1 
1 
1 
1 
1 
1 
1 
1 
1 
1 
1 
1 
1 
1 
1 
1 
1 
1 
1 
1 
1 
1 
1 
1 
1 
1 
1 
1 
1 
1 
1 
1 
1 
1 
1 
1 
1 
1 
1 
1 
1 
1 
1 
1 
1 
1 
1 
1 
1 
1 
1 
1 
1 
1 
1 
1 
1 
1 
1 
1 
1 
1 
1 
1 
1 
1 
1 
1 
1 
1 
1 
1 
1 
1 
1 
1 
1 
1 
1 
1 
1 
1 
1 
1 
1 
1 
1 
1 
1 
1 
1 
1 
1 
1 
1 
1 
1 
1 
1 
1 
1 
1 
1 
1 
1 
1 
1 
1 
1 
1 
1 
1 
1 
1 
1 
1 
1 
1 
1 
1 
1 
1 
1 
1 
1 
1 
1 
1 
1 
1 
1 
1 
1 
1 
1 
1 
1 
1 
1 
1 
1 
1 
1 
1 
1 
1 
1 
1 
1 
1 
1 
1 
1 
1 
1 
1 
1 
1 
1 
1 
1 
1 
1 
1 
1 
1 
1 
1 
1 
1 
1 
1 
1 
1 
1 
1 
1 
1 
1 
1 
1 
1 
1 
1 
1 
1 
1 
1 
1 
1 
1 
1 
1 
1 
1 
1 
1 
1 
1 
1 
1 
1 
1 
1 
1 
1 
1 
1 
1 
1 
1 
1 
1 
1 
1 
1 
1 
1 
1 
1 
1 
1 
1 
1 
1 
1 
1 
1 
1 
1 
1 
1 
1 
1 
1 
1 
1 
1 
1 
1 
1 
1 
1 
1 
1 
1 
1 
1 
1 
1 
1 
1 
1 
1 
1 
1 
1 
1 
1 
1 
1 
1 
1 
1 
1 
1 
1 
1 
1 
1 
1 
1 
1 
1 
1 
1 
1 
1 
1 
1 
1 
1 
1 
1 
1 
1 
1 
1 
1 
1 
1 
1 
1 
1 
1 
1 
1 
1 
1 
1 
1 
1 
1 
1 
1 
1 
1 
1 
1 
1 
1 
1 
1 
1 
1 
1 
1 
1 
1 
1 
1 
1 
1 
1 
1 
1 
1 
1 
1 
1 
1 
1 
1 
1 
1 
1 
1 
1 
1 
1 
1 
1 
1 
1 
1 
1 
1 
1 
1 
1 
1 
1 
1 
1 
1 
1 
1 
1 
1 
1 
1 
1 
1 
1 
1 
1 
1 
1 
1 
1 
1 
1 
1 
1 
1 
1 
1 
1 
1 
1 
1 
1 
1 
1 
1 
1 
1 
1 
1 
1 
1 
1 
1 
1 
1 
1 
1 
1 
1 
1 
1 
1 
1 
1 
1 
1 
1 
1 
1 
1 
1 
1 
1 
1 
1 
1 
1 
1 
1 
1 
1 
1 
1 
1 
1 
1 
1 
1 
1 
1 
1 
1 
1 
1 
1 
1 
1 
1 
1 
1 
1 
1 
1 
1 
1 
1 
1 
1 
1 
1 
1 
1 
1 
1 
1 
1 
1 
1 
1 
1 
1 
1 
1 
1 
1 
1 
1 
1 
1 
1 
1 
1 
1 
1 
1 
1 
1 
1 
1 
1 
1 
1 
1 
1 
1 
1 
1 
1 
1 
1 
1 
1 
1 
1 
1 
1 
1 
1 
1 
1 
1 
1 
1 
1 
1 
1 
1 
1 
1 
1 
1 
1 
1 
1 
1 
1 
1 
1 
1 
1 
1 
1 
1 
1 
1 
1 
1 
1 
1 
1 
1 
1 
1 
1 
1 
1 
1 
1 
1 
1 
1 
1 
1 
1 
1 
1 
1 
1 
1 
1 
1 
1 
1 
1 
1 
1 
1 
1 
1 
1 
1 
1 
1 
1 
1 
1 
1 
1 
1 
1 
1 
1 
1 
1 
1 
1 
1 
1 
1 
1 
1 
1 
1 
1 
1 
1 
1 
1 
1 
1 
1 
1 
1 
1 
1 
1 
1 
1 
1 
1 
1 
1 
1 
1 
1 
1 
1 
1 
1 
1 
1 
1 
1 
1 
1 
1 
1 
1 
1 
1 
1 
1 
1 
1 
1 
1 
1 
1 
1 
1 
1 
1 
1 
1 
1 
1 
1 
1 
1 
1 
1 
1 
1 
1 
1 
1 
1 
1 
1 
1 
1 
1 
1 
1 
1 
1 
1 
1 
1 
1 
1 
1 
1 
1 
1 
1 
1 
1 
1 
1 
1 
1 
1 
1 
1 
1 
1 
1 
1 
1 
1 
1 
1 
1 
1 
1 
1 
1 
1 
1 
1 
1 
1 
1 
1 
1 
1 
1 
1 
1 
1 
1 
1 
1 
1 
1 
1 
1 
1 
1 
1 
1 
1 
1 
1 
1 
1 
1 
1 
1 
1 
1 
1 
1 
1 
1 
1 
1 
1 
1 
1 
1 
1 
1 
1 
1 
1 
1 
1 
1 
1 
1 
1 
1 
1 
1 
1 
1 
1 
1 
1 
1 
1 
1 
1 
1 
1 
1 
1 
1 
1 
1 
1 
1 
1 
1 
1 
1 
1 
1 
1 
1 
1 
1 
1 
1 
1 
1 
1 
1 
1 
1 
1 
1 
1 
1 
1 
1 
1 
1 
1 
1 
1 
1 
1 
1 
1 
1 
1 
1 
1 
1 
1 
1 
1 
1 
1 
1 
1 
1 
1 
1 
1 
1 
1 
1 
1 
1 
1 
1 
1 
1 
1 
1 
1 
1 
1 
1 
1 
1 
1 
1 
1 
1 
1 
1 
1 
1 
1 
1 
1 
1 
1 
1 
1 
1 
1 
1 
1 
1 
1 
1 
1 
1 
1 
1 
1 
1 
1 
1 
1 
1 
1 
1 
1 
1 
1 
1 
1 
1 
1 
1 
1 
1 
1 
1 
1 
1 
1 
1 
1 
1 
1 
1 
1 
1 
1 
1 
1 
1 
1 
1 
1 
1 
1 
1 
1 
1 
1 
1 
1 
1 
1 
1 
1 
1 
1 
1 
1 
1 
1 
1 
1 
1 
1 
1 
1 
1 
1 
1 
1 
1 
1 
1 
1 
1 
1 
1 
1 
1 
1 
1 
1 
1 
1 
1 
1 
1 
1 
1 
1 
1 
1 
1 
1 
1 
1 
1 
1 
1 
1 
1 
1 
1 
1 
1 
1 
1 
1 
1 
1 
1 
1 
1 
1 
1 
1 
1 
1 
1 
1 
1 
1 
1 
1 
1 
1 
1 
1 
1 
1 
1 
1 
1 
1 
1 
1 
1 
1 
1 
1 
1 
1 
1 
1 
1 
1 
1 
1 
1 
1 
1 
1 
1 
1 
1 
1 
1 
1 
1 
1 
1 
1 
1 
1 
1 
1 
1 
1 
1 
1 
1 
1 
1 
1 
1 
1 
1 
1 
1 
1 
1 
1 
1 
1 
1 
1 
1 
1 
1 
1 
1 
1 
1 
1 
1 
1 
1 
1 
1 
1 
1 
1 
1 
1 
1 
1 
1 
1 
1 
1 
1 
1 
1 
1 
1 
1 
1 
1 
1 
1 
1 
1 
1 
1 
1 
1 
1 
1 
1 
1 
1 
1 
1 
1 
1 
1 
1 
1 
1 
1 
1 
1 
1 
1 
1 
1 
1 
1 
1 
1 
1 
1 
1 
1 
1 
1 
1 
1 
1 
1 
1 
1 
1 
1 
1 
1 
1 
1 
1 
1 
1 
1 
1 
1 
1 
1 
1 
1 
1 
1 
1 
1 
1 
1 
1 
1 
1 
1 
1 
1 
1 
1 
1 
1 
1 
1 
1 
1 
1 
1 
1 
1 
1 
1 
1 
1 
1 
1 
1 
1 
1 
1 
1 
1 
1 
1 
1 
1 
1 
1 
1 
1 
1 
1 
1 
1 
1 
1 
1 
1 
1 
1 
1 
1 
1 
1 
1 
1 
1 
1 
1 
1 
1 
1 
1 
1 
1 
1 
1 
1 
1 
1 
1 
1 
1 
1 
1 
1 
1 
1 
1 
1 
1 
1 
1 
1 
1 
1 
1 
1 
1 
1 
1 
1 
1 
1 
1 
1 
1 
1 
1 
1 
1 
1 
1 
1 
1 
1 
1 
1 
1 
1 
1 
1 
1 
1 
1 
1 
1 
1 
1 
1 
1 
1 
1 
1 
1 
1 
1 
1 
1 
1 
1 
1 
1 
1 
1 
1 
1 
1 
1 
1 
1 
1 
1 
1 
1 
1 
1 
1 
1 
1 
1 
1 
1 
1 
1 
1 
1 
1 
1 
1 
1 
1 
1 
1 
1 
1 
1 
1 
1 
1 
1 
1 
1 
1 
1 
1 
1 
1 
1 
1 
1 
1 
1 
1 
1 
1 
1 
1 
1 
1 
1 
1 
1 
1 
1 
POINT_DATA 5000
VECTORS Stress float
-544.577 -1265.34 0.
24.4304 -1214.56 0.
-69.4921 -1433.92 0.
88.5223 -1506.89 0.
90.3742 -1502.54 0.
92.2261 -1498.18 0.
-58.2103 -1559.94 0.
-57.5632 -1558.5 0.
-56.9161 -1557.06 0.
-473.259 -1736.05 0.
-473.278 -1736.13 0.
-473.297 -1736.21 0.
-366.342 -1691.33 0.
-366.917 -1692.7 0.
-131.193 -1592.7 0.
-131.676 -1593.95 0.
-132.158 -1595.2 0.
-272.389 -1655.49 0.
-271.457 -1653.42 0.
-270.526 -1651.36 0.
-302.495 -1665.55 0.
-302.618 -1665.79 0.
-302.74 -1666.04 0.
-541.523 -1766.2 0.
-540.256 -1763.17 0.
-410.52 -1705.08 0.
-621.249 -1716.57 0.
-579.098 -1618.32 0.
-663.093 -1607.83 0.
-705.759 -1707.57 0.
-748.425 -1807.31 0.
-125.262 -1588.87 0.
-127.248 -1593.66 0.
-129.235 -1598.45 0.
-931.713 -1933.48 0.
-924.062 -1915.47 0.
-916.412 -1897.46 0.
-812.866 -1857.62 0.
-816.404 -1865.79 0.
-631.255 -1792.15 0.
-630.267 -1789.68 0.
-629.28 -1787.21 0.
-727.849 -1803.23 0.
-689.949 -1714.69 0.
-652.049 -1626.15 0.
-977.482 -1774.59 0.
-1016.41 -1865.47 0.
-1055.34 -1956.34 0.
-382.007 -1683.54 0.
-381.084 -1681.39 0.
-4451.07 -3424.17 0.
-752.039 -1818.73 0.
-741.364 -1793.93 0.
-602.975 -1724.48 0.
-615.121 -1752.75 0.
-627.266 -1781.02 0.
-898.836 -1908.52 0.
-898.514 -1907.7 0.
-898.191 -1906.88 0.
-843.474 -1873.41 0.
-835.552 -1854.88 0.
-827.629 -1836.34 0.
-893.256 -1879.33 0.
-901.975 -1899.7 0.
-566.001 -1769.68 0.
-567.434 -1772.98 0.
-568.867 -1776.28 0.
-664.466 -1817.9 0.
-661.942 -1812.19 0.
-659.418 -1806.49 0.
-323.436 -1662.93 0.
-325.919 -1668.82 0.
-328.402 -1674.71 0.
-876.974 -1909.22 0.
-876.42 -1907.9 0.
-317.418 -1670.14 0.
-176.3 -1611.55 0.
-177.135 -1613.8 0.
-219.418 -1631.96 0.
-220.934 -1635.39 0.
-222.451 -1638.82 0.
54.4957 -1522.57 0.
54.0203 -1523.54 0.
53.5449 -1524.51 0.
180.872 -1466.88 0.
181.458 -1465.25 0.
182.044 -1463.63 0.
-882.245 -1920.27 0.
-881.55 -1918.81 0.
-74.6921 -1570.49 0.
-72.5968 -1565.6 0.
-70.5014 -1560.72 0.
4.89471 -1527.8 0.
2.59796 -1533.15 0.
0.301205 -1538.5 0.
305.326 -1374.32 0.
336.101 -1302.48 0.
366.876 -1230.64 0.
-293.388 -1339.1 0.
-185.827 -1087.65 0.
-90.408 -1039.25 0.
66.7349 -1165.04 0.
-27.056 -1384.5 0.
-33.4358 -1527.64 0.
-31.6175 -1523.3 0.
-29.7991 -1518.95 0.
-92.8399 -1543.37 0.
-92.1365 -1541.94 0.
-91.4331 -1540.51 0.
-62.3383 -1528.58 0.
-62.3261 -1528.66 0.
-62.3138 -1528.74 0.
-343.461 -1650.14 0.
-344.014 -1651.51 0.
-160.596 -1573.97 0.
-160.997 -1575.28 0.
-161.398 -1576.59 0.
-350.073 -1656.93 0.
-349.089 -1654.96 0.
-348.104 -1652.98 0.
-338.578 -1649.61 0.
-338.712 -1649.8 0.
-338.846 -1649.99 0.
-559.66 -1742.62 0.
-558.445 -1739.56 0.
-887.929 -1878.22 0.
-503.703 -1634.88 0.
-461.497 -1536.69 0.
-510.761 -1510.92 0.
-553.312 -1610.76 0.
-595.864 -1710.61 0.
-402.69 -1676.33 0.
-404.561 -1681.16 0.
-406.433 -1686 0.
-567.63 -1745.89 0.
-560.078 -1727.8 0.
-552.526 -1709.71 0.
-938.342 -1880.16 0.
-941.941 -1888.29 0.
-704.023 -1792.39 0.
-703.137 -1789.82 0.
-702.251 -1787.25 0.
-666.692 -1745.73 0.
-628.845 -1657.12 0.
-590.999 -1568.5 0.
-823.807 -1677.72 0.
-862.714 -1768.64 0.
-901.621 -1859.55 0.
-551.589 -1724.76 0.
-550.679 -1722.67 0.
-2718.63 -2650.23 0.
-621.603 -1731.43 0.
-610.878 -1706.72 0.
-764.516 -1762.18 0.
-776.726 -1790.46 0.
-788.935 -1818.75 0.
-906.476 -1880.57 0.
-906.21 -1879.75 0.
-905.944 -1878.93 0.
-677.025 -1770.83 0.
-669.116 -1752.23 0.
-661.207 -1733.63 0.
-1015.06 -1899.87 0.
-1023.77 -1920.26 0.
-459.102 -1692.77 0.
-460.574 -1696.07 0.
-462.045 -1699.37 0.
-388.904 -1668.04 0.
-386.263 -1662.43 0.
-383.622 -1656.83 0.
-355.172 -1645.22 0.
-357.593 -1651.16 0.
-360.015 -1657.09 0.
-1049.99 -1952.39 0.
-1049.46 -1951.07 0.
-296.859 -1629.07 0.
-186.658 -1584.04 0.
-187.336 -1586.52 0.
-154.368 -1572.79 0.
-155.952 -1576.16 0.
-157.537 -1579.53 0.
182.842 -1435.88 0.
182.273 -1436.78 0.
181.704 -1437.69 0.
-148.668 -1577.06 0.
-148.236 -1575.26 0.
-147.805 -1573.47 0.
-489.284 -1720.77 0.
-488.485 -1719.41 0.
-173.249 -1581.06 0.
-171.17 -1576.23 0.
-169.091 -1571.39 0.
20.8727 -1489.17 0.
18.5962 -1494.45 0.
16.3198 -1499.73 0.
9.30846 -1470.17 0.
40.108 -1398.21 0.
70.9075 -1326.25 0.
-52.8256 -1204.7 0.
54.4531 -952.97 0.
117.747 -1389.53 0.
-42.4773 -1472.86 0.
-40.9341 -1468.38 0.
-535.865 -2435 0.
-312.021 -1912.76 0.
-581.967 -2542.72 0.
-915.209 -3365.48 0.
-818.184 -3139.63 0.
-1237.38 -4118.28 0.
-883.31 -4194.43 0.
-851.112 -4119.56 0.
-907.733 -4251.95 0.
-1370.51 -4059.1 0.
-1101.12 -3430.24 0.
-1519.48 -4658.61 0.
-1162.34 -3824.83 0.
-1338.95 -4236.5 0.
-1478.34 -4111.79 0.
-1577.72 -4343.28 0.
-2151.78 -5682.32 0.
-2337.34 -6212.35 0.
-1762.39 -4870.79 0.
-1746.88 -4834.57 0.
-1522.53 -3922.94 0.
-1349.98 -3520.54 0.
-1721.05 -4442.81 0.
-1476.34 -4097.57 0.
-1331.47 -3759.32 0.
-1189.76 -3356.46 0.
-1255.65 -3509.77 0.
-1752.09 -4667.7 0.
-2182.95 -5271.19 0.
-1897.35 -4604.47 0.
-1825.14 -4435.64 0.
-1160.91 -3790.96 0.
-1550.08 -4700.02 0.
-2405.07 -6696.06 0.
-2895.04 -6175.1 0.
-2408.73 -5040.79 0.
-2655.99 -6178.69 0.
-2173.39 -5053.05 0.
-2052.49 -4771.35 0.
-1705.87 -4255.34 0.
-1129.09 -2909.66 0.
-957.76 -2510.02 0.
-1485.13 -3481.71 0.
-1829.91 -4286.29 0.
-2050.01 -4799.94 0.
-1935.86 -4601.35 0.
-1661.54 -3961.09 0.
-4994.57 -7106.52 0.
-1524.47 -4055.91 0.
-1520.95 -4047.26 0.
-2117.72 -4581.91 0.
-1833.35 -3918 0.
-2235.89 -4856.88 0.
-1862.39 -4064.57 0.
-1772.51 -3854.88 0.
-2265.66 -5005.54 0.
-1838.38 -4768.61 0.
-1187.58 -3250.42 0.
-1220.84 -3328.4 0.
-1783 -3428.46 0.
-1902.24 -3706.83 0.
-1807.45 -5011.52 0.
-1811.2 -5020.04 0.
-2276.06 -6104.51 0.
-1895.21 -5676.86 0.
-1275.02 -4229.56 0.
-1585.69 -4954.28 0.
-1765.36 -4844.78 0.
-1545.78 -4332.35 0.
-2097.58 -5619.8 0.
-2154.52 -4169.69 0.
-1827.36 -3405.6 0.
-1112.42 -3478.53 0.
-817.97 -3008.64 0.
-1529.08 -4667.42 0.
-1938.45 -5826.3 0.
-1339.18 -4428.03 0.
-1619.76 -5082.75 0.
-1339.07 -5199.37 0.
-1210.18 -4898.76 0.
-1431.91 -5416.25 0.
-1538.04 -4156.99 0.
-1096.65 -3127.3 0.
-1194.72 -3356.37 0.
-914.888 -3431.87 0.
-969.219 -3558.09 0.
-1466.73 -4379.8 0.
-814.458 -2857.23 0.
-753.618 -2714.66 0.
-295.084 -2224.12 0.
-84.526 -1732.15 0.
-511.516 -2727.8 0.
-591.132 -2277.16 0.
-156.794 -1263.66 0.
-34.3739 -978.075 0.
-96.9149 -1736.41 0.
-288.34 -2183.15 0.
308.845 -909.711 0.
218.348 -851.445 0.
254.681 -765.842 0.
175.729 -744.225 0.
181.289 -731.208 0.
186.85 -718.192 0.
254.282 -650.506 0.
294.311 -557.621 0.
334.341 -464.736 0.
605.315 -380.014 0.
559.247 -488.075 0.
513.18 -596.136 0.
292.499 -556.09 0.
378.543 -355.218 0.
310.396 -236.633 0.
305.727 -247.473 0.
301.058 -258.312 0.
78.8323 -286.871 0.
199.854 -4.27979 0.
320.875 278.311 0.
351.413 301.312 0.
257.069 80.8092 0.
162.726 -139.693 0.
1.41367 -226.517 0.
17.5544 -189.444 0.
583.611 83.2519 0.
366.482 -45.01 0.
346.899 -90.7129 0.
208.966 -137.006 0.
316.959 115.335 0.
424.952 367.677 0.
219.828 388.658 0.
210.045 366.534 0.
200.261 344.411 0.
418.184 461.285 0.
443.003 518.201 0.
467.823 575.117 0.
262.82 493.059 0.
262.246 490.809 0.
200.057 465.637 0.
211.85 492.868 0.
223.643 520.1 0.
202.174 478.981 0.
127.055 303.639 0.
51.9357 128.297 0.
156.593 187.924 0.
229.608 358.314 0.
302.624 528.704 0.
342.46 645.982 0.
390.298 757.392 0.
-1955.15 -157.112 0.
718.036 1001.12 0.
724.126 1016.02 0.
-0.663263 697.353 0.
-47.5749 588.197 0.
-94.4864 479.041 0.
229.951 544.758 0.
202.609 480.774 0.
175.268 416.789 0.
410.171 502.617 0.
412.904 508.354 0.
415.638 514.091 0.
-142.238 226.042 0.
-171.613 157.428 0.
409.653 364.136 0.
438.542 431.828 0.
467.431 499.521 0.
674.355 606.52 0.
651.056 551.648 0.
627.756 496.775 0.
347.21 301.531 0.
294.224 176.861 0.
241.238 52.1914 0.
-200.391 -202.707 0.
-228.19 -266.532 0.
481.499 -9.21037 0.
424.406 18.3897 0.
450.918 81.8208 0.
588.421 160.168 0.
548.681 67.3116 0.
508.941 -25.5451 0.
719.33 -1.22152 0.
692.238 -65.2903 0.
665.147 -129.359 0.
124.356 -422.248 0.
90.848 -500.727 0.
57.34 -579.207 0.
372.447 -509.03 0.
334.3 -596.362 0.
169.802 -719.79 0.
226.431 -586.957 0.
283.061 -454.125 0.
591.321 -262.358 0.
571.428 -307.896 0.
551.535 -353.433 0.
263.269 -500.861 0.
257.67 -513.618 0.
252.071 -526.376 0.
193.679 -548.13 0.
195.157 -544.456 0.
307.914 -877.912 0.
228.148 -815.714 0.
264.478 -730.194 0.
176.268 -712.611 0.
181.794 -699.554 0.
187.32 -686.498 0.
278.297 -608.299 0.
318.331 -515.383 0.
358.365 -422.468 0.
443.099 -417.554 0.
397.148 -525.652 0.
351.198 -633.749 0.
506.937 -433.099 0.
593.053 -232.228 0.
246.919 -232.492 0.
242.355 -243.463 0.
237.791 -254.435 0.
-4.90684 -290.714 0.
116.181 -8.18438 0.
237.268 274.345 0.
241.958 285.827 0.
147.769 65.2978 0.
53.5789 -155.232 0.
-55.6611 -219.145 0.
-39.4242 -182.217 0.
672.761 152.888 0.
513.022 49.5463 0.
493.491 3.73679 0.
248.832 -88.2377 0.
356.819 164.018 0.
464.805 416.274 0.
208.276 415.062 0.
198.384 393.068 0.
188.492 371.075 0.
136.489 371.674 0.
161.3 428.601 0.
186.111 485.529 0.
647.027 689.349 0.
646.638 687.043 0.
227.417 509.697 0.
239.229 537.104 0.
251.041 564.512 0.
70.4475 453.832 0.
-4.68528 278.528 0.
-79.8181 103.223 0.
257.301 261.861 0.
330.268 432.244 0.
403.235 602.627 0.
395.058 699.961 0.
442.97 811.159 0.
-1668.85 -3.25628 0.
826.483 1078.68 0.
832.522 1093.72 0.
-162.484 659.237 0.
-209.369 550.058 0.
-256.254 440.88 0.
389.563 644.39 0.
362.269 580.345 0.
334.976 516.301 0.
413.993 536.13 0.
416.821 541.804 0.
419.649 547.478 0.
-34.0699 304.49 0.
-63.4879 235.853 0.
319.781 356.842 0.
348.642 424.538 0.
377.502 492.234 0.
539.94 580.612 0.
516.841 525.516 0.
493.741 470.421 0.
249.846 291.335 0.
197.22 166.378 0.
144.593 41.4197 0.
127.679 -29.8724 0.
99.6897 -93.798 0.
403.892 -10.9074 0.
373.886 28.6507 0.
400 92.2598 0.
557.187 177.731 0.
517.519 84.9407 0.
477.852 -7.85005 0.
528.535 -51.1709 0.
501.67 -115.434 0.
474.806 -179.697 0.
216.865 -350.589 0.
183.359 -429.117 0.
149.854 -507.645 0.
431.34 -452.574 0.
392.811 -539.657 0.
269.338 -646.107 0.
325.877 -513.379 0.
382.417 -380.65 0.
664.211 -198.784 0.
644.307 -244.155 0.
624.404 -289.526 0.
393.856 -413.443 0.
388.159 -426.133 0.
382.462 -438.823 0.
-57.6095 -624.042 0.
-56.2624 -620.444 0.
-12.9416 -1491.3 0.
-101.871 -1515.38 0.
-88.0506 -1483.48 0.
-175.808 -1501.79 0.
-174.277 -1499.4 0.
-172.747 -1497.02 0.
-65.1501 -1507.62 0.
-138.428 -1678.63 0.
-211.706 -1849.65 0.
-340.899 -1934.08 0.
-323.157 -1893.52 0.
-305.415 -1852.95 0.
-131.602 -1798.33 0.
-148.12 -1834.38 0.
-468.344 -1991.48 0.
-432.282 -1906.58 0.
-396.221 -1821.69 0.
-644.227 -1942.99 0.
-743.117 -2172.68 0.
-842.007 -2402.37 0.
-923.757 -2375.22 0.
-781.162 -2041.84 0.
-638.566 -1708.45 0.
-702.337 -1740.95 0.
-748.731 -1848.76 0.
-279.25 -1735.38 0.
-275.619 -1739.99 0.
-278.464 -1746.35 0.
-509.111 -1830.95 0.
-464.029 -1724.41 0.
-418.947 -1617.87 0.
-656.54 -1652.38 0.
-634.92 -1602.14 0.
-613.3 -1551.9 0.
-822.003 -1770.27 0.
-933.468 -2030.82 0.
-1044.93 -2291.37 0.
-372.129 -1877.43 0.
-285.099 -1672.48 0.
-658.357 -1671.34 0.
-587.93 -1507.61 0.
-517.504 -1343.88 0.
-787.092 -1403.33 0.
-842.491 -1532.59 0.
-897.89 -1661.85 0.
-557.67 -1593.25 0.
-586.602 -1660.63 0.
-615.535 -1728.01 0.
-704.6 -1800.83 0.
-718.723 -1833.19 0.
-3565.08 -3080.12 0.
-405.752 -1656.3 0.
-368.716 -1570.59 0.
-1096.62 -1819.09 0.
-1074.86 -1768.08 0.
-1053.09 -1717.07 0.
-584.224 -1508.21 0.
-600.437 -1546.02 0.
-616.649 -1583.83 0.
-533.059 -1611.9 0.
-575.96 -1710.51 0.
-618.862 -1809.13 0.
-923.848 -1963.74 0.
-933.231 -1985.72 0.
-699.499 -1897.39 0.
-678.093 -1848.12 0.
-656.687 -1798.85 0.
-509.298 -1727.91 0.
-539.204 -1795.89 0.
-569.111 -1863.87 0.
-706.436 -1860.31 0.
-625.478 -1668.45 0.
-544.521 -1476.6 0.
-447.013 -1510.76 0.
-520.642 -1683.86 0.
-401.918 -1775.2 0.
-507.619 -1948.55 0.
-575.057 -2105.5 0.
-484.179 -2132.58 0.
-418.482 -1978.78 0.
-352.785 -1824.98 0.
-238.861 -1726.92 0.
-260.455 -1776.66 0.
-282.049 -1826.4 0.
-270.902 -1829.15 0.
-267.483 -1820.62 0.
-264.063 -1812.09 0.
-72.258 -1633.49 0.
-16.0619 -1503.11 0.
-144.722 -1473.91 0.
-189.61 -1578.19 0.
-234.497 -1682.46 0.
108.3 -1540.68 0.
187.031 -1356.92 0.
265.762 -1173.17 0.
91.8371 -1179.52 0.
92.6413 -1177.87 0.
93.4456 -1176.23 0.
-409.168 -1339.52 0.
-373.788 -1256.4 0.
-120.935 -1506.19 0.
-148.72 -1503.48 0.
-134.92 -1471.75 0.
-176.213 -1470.67 0.
-174.756 -1468.26 0.
-173.299 -1465.85 0.
47.4866 -1427.49 0.
-25.7309 -1598.6 0.
-98.9484 -1769.7 0.
-474.502 -1960.28 0.
-456.836 -1919.56 0.
-439.17 -1878.83 0.
-445.118 -1901.71 0.
-461.434 -1937.94 0.
-276.772 -1877.16 0.
-240.576 -1792.39 0.
-204.38 -1707.62 0.
-363.504 -1791.1 0.
-462.45 -2020.98 0.
-561.396 -2250.87 0.
-846.685 -2310.75 0.
-704.303 -1977.2 0.
-561.92 -1643.66 0.
-598.854 -1665.28 0.
-645.325 -1773.03 0.
-1216.77 -2105.81 0.
-441.47 -1779.21 0.
-444.352 -1785.64 0.
-542.042 -1814.31 0.
-497.147 -1707.81 0.
-452.253 -1601.31 0.
-564.356 -1581.41 0.
-542.604 -1531.38 0.
-520.852 -1481.35 0.
-611.365 -1648.32 0.
-722.821 -1908.87 0.
-834.276 -2169.42 0.
-519.089 -1909.69 0.
-431.911 -1704.78 0.
-529.81 -1584.48 0.
-459.442 -1420.62 0.
-389.075 -1256.77 0.
-774.563 -1366.17 0.
-830.008 -1495.4 0.
-885.453 -1624.63 0.
-675.407 -1613.92 0.
-704.31 -1681.3 0.
-733.214 -1748.69 0.
-807.069 -1813.33 0.
-820.934 -1845.93 0.
-1228.44 -2047.56 0.
-624.581 -1719.6 0.
-586.971 -1634.35 0.
-599.92 -1573.34 0.
-577.97 -1522.45 0.
-556.02 -1471.57 0.
-833.523 -1584.5 0.
-849.711 -1622.36 0.
-865.899 -1660.23 0.
-566.983 -1594.28 0.
-609.819 -1692.94 0.
-652.654 -1791.6 0.
-797.051 -1878.09 0.
-806.284 -1900.15 0.
-701.937 -1866.89 0.
-680.568 -1817.64 0.
-659.198 -1768.39 0.
-492.153 -1688.93 0.
-521.841 -1757.04 0.
-551.528 -1825.16 0.
-667.984 -1812.01 0.
-586.959 -1620.12 0.
-505.935 -1428.23 0.
-592.956 -1542.68 0.
-666.752 -1715.64 0.
-388.221 -1737.69 0.
-506.266 -1916.31 0.
-573.829 -2073.28 0.
-546.466 -2128.08 0.
-480.939 -1974.09 0.
-415.413 -1820.11 0.
-138.618 -1653.51 0.
-160.492 -1702.97 0.
-182.367 -1752.43 0.
23.5274 -1671.87 0.
26.7557 -1663.25 0.
29.9839 -1654.63 0.
-91.6785 -1611.35 0.
-35.523 -1480.83 0.
-354.739 -1531.52 0.
-399.296 -1635.91 0.
-443.854 -1740.3 0.
120.218 -1504.07 0.
198.977 -1320.17 0.
277.737 -1136.28 0.
67.1382 -1158.79 0.
67.6747 -1156.91 0.
68.2114 -1155.03 0.
-236.153 -1233.47 0.
-200.747 -1150.64 0.
279.392 -330.475 0.
324.476 -277.986 0.
129.666 -730.489 0.
-251.049 -1614.88 0.
-84.2073 -1223.83 0.
-8.72682 -1045.93 0.
-289.907 -2398.52 0.
681.967 -130.613 0.
966.303 532.94 0.
65.377 -419.913 0.
-526.826 -1801.16 0.
125.899 -277.456 0.
183.306 194.475 0.
-174.344 -640.968 0.
-44.3796 -1665.33 0.
267.484 -937.935 0.
47.461 -1451.61 0.
-233.436 -1985.44 0.
-116.44 -1713.75 0.
268.625 -816.57 0.
-224.362 -969.115 0.
-227.334 -977.241 0.
-168.024 -840.116 0.
31.5606 -357.452 0.
-122.116 -716.464 0.
-69.8514 -544.339 0.
-178.348 -813.707 0.
-498.355 -1560.07 0.
-435.566 -1471.77 0.
207.466 26.9602 0.
573.878 880.284 0.
-836.136 -2359 0.
-363.662 -1256.22 0.
185.57 25.8416 0.
349.493 221.912 0.
-570.737 -1924.92 0.
-1069.4 -3088.2 0.
-963.019 -2637.74 0.
-452.93 -1449.77 0.
-301.348 -1259.73 0.
-183.509 -985.682 0.
79.062 -373.946 0.
-698.161 -1180.94 0.
-727.548 -1249.13 0.
-288.553 -224.444 0.
-317.35 -525.397 0.
-539.331 -1042.25 0.
-246.367 -357.602 0.
-852.753 -1695.27 0.
-83.703 99.9894 0.
119.061 -519.584 0.
-166.37 -208.126 0.
-564.714 -1134.43 0.
-104.624 -1328.28 0.
-291.914 -1764.16 0.
-740.307 -2809.23 0.
-624.273 -590.07 0.
-41.0995 769.918 0.
-133.727 553.029 0.
-80.5649 -365.464 0.
-357.627 -1010.8 0.
502.005 996.194 0.
170.969 173.657 0.
-765.296 -2010.76 0.
-1003.57 -2533.03 0.
344.366 612.329 0.
14.9492 -156.108 0.
83.3759 -348.272 0.
-389.46 -1451.08 0.
-173.488 -946.499 0.
-532.931 -1534.68 0.
219.65 218.981 0.
85.9299 -95.3615 0.
-863.873 -1865.5 0.
-1120.93 -2466.08 0.
-397.079 -1717.01 0.
-108.218 -959.122 0.
-672.728 -2277.04 0.
-240.107 -1263.12 0.
192.081 -254.115 0.
202.143 -230.058 0.
823.005 432.891 0.
611.01 -63.3191 0.
176.808 -1077.96 0.
-23.9386 -2308.88 0.
243.435 -1686.31 0.
-92.3294 -2471.06 0.
-22.9643 -1384.76 0.
385.951 -431.981 0.
78.9356 -92.6543 0.
-90.0715 -486.883 0.
-133.328 -587.75 0.
513.376 -579.08 0.
471.147 -677.198 0.
913.491 355.355 0.
226.002 -706.26 0.
121.253 -950.635 0.
124.383 -943.257 0.
391.836 -66.0256 0.
-16.6251 -1017.52 0.
126.07 -451.981 0.
157.303 -661.303 0.
49.7733 -910.69 0.
-73.4998 -1136.65 0.
-116.4 -1235.43 0.
-159.301 -1334.21 0.
79.3673 -1295.65 0.
60.0693 -1340.01 0.
40.7714 -1384.36 0.
-223.188 -1404.15 0.
-141.414 -1213.28 0.
-59.64 -1022.42 0.
-354.158 -1149.55 0.
-363.315 -1172.14 0.
85.3509 -1003.96 0.
42.3162 -1104.55 0.
-0.718427 -1205.13 0.
-118.039 -1291.93 0.
-91.162 -1230.42 0.
-64.285 -1168.92 0.
-101.705 -1197.09 0.
-136.5 -1278.81 0.
-171.295 -1360.52 0.
-375.117 -1400.04 0.
-331.306 -1298.38 0.
-269.824 -1189.03 0.
-446.015 -1226 0.
-425.704 -1178.12 0.
-280.608 -1129.38 0.
-397.995 -1404.74 0.
-515.383 -1680.1 0.
-466.986 -1764.17 0.
-436.49 -1692.84 0.
-405.995 -1621.51 0.
-382.384 -1494.62 0.
-305.831 -1315.9 0.
-229.277 -1137.18 0.
-359.253 -1138.34 0.
-336.13 -1086.23 0.
-291.849 -1038.19 0.
-338.133 -1147.34 0.
-384.418 -1256.5 0.
-862.747 -1453.8 0.
-752.36 -1195.88 0.
-641.972 -937.963 0.
-566.196 -875.771 0.
-629.211 -1022.31 0.
-692.225 -1168.86 0.
-400.72 -1104.35 0.
-424.024 -1157.04 0.
-1461.09 -1644.17 0.
-505.666 -1121.77 0.
-448.018 -984.183 0.
42.5371 -693.951 0.
35.4298 -710 0.
28.3226 -726.049 0.
-753.512 -1084.17 0.
-774.742 -1133.99 0.
-795.972 -1183.81 0.
-333.657 -967.936 0.
-309.67 -910.482 0.
-285.683 -853.028 0.
-592.436 -1104.98 0.
-667.636 -1279.41 0.
-469.685 -1338.15 0.
-526.644 -1470.58 0.
-583.603 -1603.01 0.
-372.359 -1510.43 0.
-262.642 -1253.44 0.
-152.925 -996.45 0.
-251.242 -1013.22 0.
-312.463 -1158.07 0.
-373.685 -1302.93 0.
-664.415 -1362.41 0.
-604.68 -1223.42 0.
53.7782 -829.201 0.
5.09395 -882.389 0.
-11.7702 -921.943 0.
-144.409 -1052.9 0.
-250.478 -1299.66 0.
-356.547 -1546.42 0.
84.6122 -1421.04 0.
134.792 -1304.43 0.
184.971 -1187.82 0.
194.376 -1100.65 0.
238.062 -999.974 0.
281.748 -899.298 0.
117.354 -1123.31 0.
23.2907 -1343.31 0.
-384.465 -1673.65 0.
-361.402 -1619.69 0.
-338.339 -1565.72 0.
-53.0962 -1438.19 0.
-90.6246 -1525.01 0.
-128.153 -1611.83 0.
-41.7264 -1487.83 0.
65.9097 -1236.68 0.
173.546 -985.541 0.
3.89102 -1043.19 0.
-13.4848 -1083.34 0.
18.3608 -467.037 0.
170.324 -624.266 0.
62.8789 -873.944 0.
-90.5793 -1112.53 0.
-133.365 -1211.51 0.
-176.151 -1310.5 0.
-30.3892 -1310.52 0.
-49.8085 -1354.8 0.
-69.2277 -1399.09 0.
-43.2269 -1295.93 0.
38.7156 -1105.08 0.
120.658 -914.236 0.
-290.005 -1090.16 0.
-299.127 -1112.79 0.
-85.9925 -1045.31 0.
-128.945 -1145.95 0.
-171.897 -1246.59 0.
-324.115 -1348.67 0.
-297.255 -1287.24 0.
-270.395 -1225.82 0.
184.703 -1043.11 0.
149.603 -1124.59 0.
114.503 -1206.07 0.
-309.307 -1340.26 0.
-265.449 -1238.68 0.
-199.09 -1127.31 0.
-540.269 -1234.78 0.
-519.962 -1186.87 0.
-254.715 -1087.08 0.
-372.326 -1362.38 0.
-489.937 -1637.68 0.
-310.084 -1665.7 0.
-279.705 -1594.42 0.
-249.326 -1523.14 0.
-361.301 -1454.05 0.
-284.707 -1275.46 0.
-208.112 -1096.87 0.
-390.085 -1120.19 0.
-367.002 -1068.18 0.
-379.937 -1043.47 0.
-426.109 -1152.89 0.
-472.281 -1262.31 0.
-904.439 -1440.6 0.
-794.108 -1182.55 0.
-683.777 -924.502 0.
-670.338 -888.404 0.
-733.279 -1034.9 0.
-796.22 -1181.39 0.
-140.114 -961.739 0.
-163.662 -1014.11 0.
-1443.83 -1605.36 0.
-426.29 -1056.59 0.
-368.501 -919.101 0.
-93.0279 -719.755 0.
-100.044 -736.05 0.
-107.059 -752.346 0.
-635.901 -1002.46 0.
-657.308 -1052.33 0.
-678.715 -1102.19 0.
-310.839 -926.733 0.
-287.112 -869.014 0.
-263.384 -811.294 0.
-839.957 -1180.47 0.
-915.243 -1354.72 0.
-426.36 -1287.22 0.
-483.095 -1419.63 0.
-539.83 -1552.05 0.
-303.755 -1449.83 0.
-194.264 -1192.54 0.
-84.7729 -935.247 0.
-163.084 -944.026 0.
-224.47 -1088.61 0.
-285.857 -1233.2 0.
-668.346 -1333.85 0.
-608.697 -1194.69 0.
251.95 -712.755 0.
119.687 -801.699 0.
102.773 -841.187 0.
-120.742 -1011.38 0.
-226.885 -1258.11 0.
-333.028 -1504.83 0.
169.203 -1353.85 0.
219.244 -1237.05 0.
269.286 -1120.25 0.
-155.706 -1218.65 0.
-111.992 -1118.03 0.
-68.278 -1017.4 0.
168.47 -1069.99 0.
74.0255 -1289.73 0.
-106.288 -1523.23 0.
-83.1338 -1469.3 0.
-59.98 -1415.37 0.
-279.817 -1504.15 0.
-317.396 -1590.88 0.
-354.976 -1677.61 0.
57.0789 -1414.3 0.
164.668 -1163.25 0.
272.258 -912.196 0.
58.461 -987.827 0.
41.3697 -1028.53 0.
-374.512 -1411.53 0.
-175.237 -1294.91 0.
-173.545 -1291.95 0.
-151.228 -1282.14 0.
-156.702 -1294.98 0.
-162.177 -1307.81 0.
-59.9444 -1241.19 0.
-28.5691 -1168.09 0.
2.80617 -1094.99 0.
19.4591 -1104.44 0.
-9.75827 -1172.05 0.
-38.9756 -1239.65 0.
-492.232 -1669.52 0.
-631.217 -1993.37 0.
-675.294 -2233.91 0.
-571.521 -1991.55 0.
-467.747 -1749.19 0.
-452.476 -1655.12 0.
-523.587 -1820.41 0.
-594.699 -1985.7 0.
-94.0564 -1757.65 0.
-23.481 -1593.6 0.
47.0945 -1429.55 0.
-419.443 -1600.85 0.
-421.02 -1603.77 0.
-266.605 -1539.76 0.
-829.57 -1907.78 0.
-898.449 -2067.66 0.
-641.959 -2017.9 0.
-538.494 -1775.53 0.
-435.028 -1533.15 0.
-65.4017 -1295.59 0.
-103.456 -1386.26 0.
-141.509 -1476.93 0.
-539.192 -1615.71 0.
-492.873 -1507.36 0.
-446.555 -1399.01 0.
-547.176 -1445.43 0.
-555.759 -1464.24 0.
-518.829 -1459.98 0.
-505.94 -1427.72 0.
-493.05 -1395.46 0.
-928.258 -1570.11 0.
-942.522 -1603.19 0.
-956.786 -1636.28 0.
-1002.15 -1587.91 0.
-925.23 -1409.09 0.
-848.313 -1230.27 0.
-221.128 -1017.09 0.
-281.124 -1159.85 0.
-1375.8 -1746.13 0.
-687.572 -1666.03 0.
-799.567 -1928.9 0.
-689.697 -2007.99 0.
-602.815 -1805.58 0.
-515.933 -1603.18 0.
-781.673 -1605.06 0.
-755.93 -1546.32 0.
-730.186 -1487.58 0.
-530.284 -1422.28 0.
-559.007 -1490.68 0.
-587.73 -1559.07 0.
-1134.39 -1697.31 0.
-1074.79 -1559.41 0.
-381.241 -1160.62 0.
-385.38 -1169.72 0.
-389.52 -1178.81 0.
-215.998 -1161.02 0.
-298.549 -1355.6 0.
-381.1 -1550.19 0.
-335.867 -1485.29 0.
-230.648 -1239.43 0.
-125.429 -993.582 0.
-701.341 -1365.47 0.
-813.705 -1628.23 0.
59.1456 -1471.52 0.
-163.683 -1501.95 0.
-129.428 -1422.23 0.
-235.199 -1411.55 0.
-231.472 -1403.43 0.
-227.745 -1395.31 0.
125.828 -1261.49 0.
101.337 -1320.02 0.
76.8458 -1378.55 0.
-403.293 -1620.23 0.
-419.945 -1659.97 0.
-436.598 -1699.71 0.
-171.486 -1571.68 0.
-160.181 -1547.28 0.
-8.98916 -1466.57 0.
0.324007 -1445.34 0.
9.63714 -1424.11 0.
-303.242 -1502.49 0.
-239.409 -1354.76 0.
-175.577 -1207.03 0.
200.745 -1039.98 0.
159.499 -1136.02 0.
118.253 -1232.05 0.
-118.659 -1274.03 0.
-68.3016 -1154.26 0.
-205.582 -1306.69 0.
-299.066 -1315.33 0.
-297.645 -1312.11 0.
-71.5308 -1217.39 0.
-77.3267 -1229.88 0.
-83.1226 -1242.36 0.
-59.1411 -1209.41 0.
-27.8575 -1136.21 0.
3.4261 -1063 0.
-170.718 -1154.44 0.
-199.835 -1222.11 0.
-228.951 -1289.79 0.
-408.671 -1602.63 0.
-547.73 -1926.58 0.
-669.021 -2199.64 0.
-565.188 -1957.3 0.
-461.354 -1714.96 0.
-208.966 -1519.08 0.
-280.026 -1684.56 0.
-351.086 -1850.04 0.
-278.395 -1804.8 0.
-208.03 -1640.59 0.
-137.665 -1476.38 0.
-450.436 -1583.88 0.
-452.166 -1586.74 0.
-316.48 -1530.64 0.
-710.401 -1825.58 0.
-779.262 -1985.43 0.
-606.297 -1970.34 0.
-502.794 -1728.12 0.
-399.291 -1485.9 0.
18.1102 -1229.69 0.
-20.3491 -1320.15 0.
-58.8083 -1410.61 0.
-786.825 -1690.33 0.
-740.708 -1581.9 0.
-694.591 -1473.48 0.
-528.553 -1406.09 0.
-537.143 -1424.9 0.
-310.525 -1338.81 0.
-297.632 -1306.78 0.
-284.74 -1274.74 0.
-776.496 -1474.24 0.
-790.841 -1507.27 0.
-805.186 -1540.3 0.
-947.1 -1532.48 0.
-870.448 -1353.35 0.
-793.796 -1174.22 0.
-573.413 -1137.21 0.
-633.546 -1279.76 0.
-1644.79 -1830.38 0.
-734.985 -1655.05 0.
-847.208 -1917.68 0.
-631.902 -1952.41 0.
-545.142 -1749.85 0.
-458.383 -1547.29 0.
-590.815 -1491.59 0.
-565.245 -1432.95 0.
-539.675 -1374.31 0.
-539.527 -1395.67 0.
-568.705 -1463.6 0.
-597.883 -1531.54 0.
-1030.18 -1621.34 0.
-970.695 -1483.29 0.
-422.49 -1147.26 0.
-426.731 -1156.02 0.
-430.972 -1164.77 0.
-337.192 -1182.33 0.
-420.015 -1376.46 0.
-502.838 -1570.6 0.
-252.072 -1419.22 0.
-146.95 -1173.2 0.
-41.827 -927.193 0.
-708.897 -1337.36 0.
-821.228 -1600.29 0.
-515.75 -1686.04 0.
-202.418 -1486.6 0.
-168.304 -1406.82 0.
-87.5282 -1317.25 0.
-83.837 -1309 0.
-80.1457 -1300.75 0.
-123.56 -1337.4 0.
-148.101 -1395.9 0.
-172.642 -1454.41 0.
-208.202 -1504.87 0.
-224.971 -1544.55 0.
-241.74 -1584.24 0.
-487.137 -1676.29 0.
-475.99 -1651.68 0.
-74.7961 -1462.86 0.
-65.3506 -1441.82 0.
-55.9052 -1420.78 0.
-99.99 -1384.34 0.
-36.212 -1236.49 0.
27.566 -1088.64 0.
91.0311 -1055.88 0.
49.7655 -1151.94 0.
8.49992 -1248 0.
-269.374 -1307.2 0.
-218.935 -1187.73 0.
187.051 -676.908 0.
-268.869 -978.782 0.
323.859 403.002 0.
515.47 38.6568 0.
255.186 -569.62 0.
332.116 -390.926 0.
488.516 98.7269 0.
354.252 -215.225 0.
406.413 -94.6506 0.
239.142 197.464 0.
112.88 -98.1068 0.
384.716 535.332 0.
303.415 -69.6639 0.
-47.2112 -889.085 0.
421.334 368.444 0.
495.138 537.752 0.
391.69 293.468 0.
737.628 257.985 0.
720.987 218.074 0.
817.559 442.253 0.
537.949 481.226 0.
303.936 -64.3098 0.
-276.909 -1419.08 0.
-202.332 -916.738 0.
332.777 331.397 0.
-72.0437 190.883 0.
415.14 605.984 0.
95.8072 -139.599 0.
339.621 197.774 0.
342.772 204.457 0.
363.509 252.203 0.
609.118 27.6349 0.
451.63 -340.521 0.
555.311 -99.1636 0.
-259.084 38.0209 0.
-171.108 243.774 0.
-697.772 -984.445 0.
485.345 959.957 0.
155.989 190.489 0.
438.437 48.4608 0.
492.32 172.999 0.
604.871 434.459 0.
83.2993 276.552 0.
272.07 716.372 0.
204.114 556.832 0.
-312.637 -124.478 0.
-41.4029 506.984 0.
-146.093 261.236 0.
-149.299 545.424 0.
-93.2462 675.472 0.
48.3397 -19.3836 0.
-255.206 -409.809 0.
-483.238 -942.238 0.
313.559 175.177 0.
314.104 177.051 0.
128.528 -254.843 0.
201.664 26.9466 0.
6.40208 -429.64 0.
632.841 1031.06 0.
-382.518 -980.413 0.
111.02 171.318 0.
305.422 625.071 0.
-60.8722 470.568 0.
0.214462 616.079 0.
420.827 933.344 0.
215.896 454.711 0.
78.5556 133.919 0.
-327.686 -901.929 0.
399.18 793.949 0.
473.006 965.948 0.
828.638 977.092 0.
596.424 434.471 0.
212.937 -461.282 0.
-366.265 -496.756 0.
5.11181 369.091 0.
-155.274 181.872 0.
305.192 -196.6 0.
664.388 642.948 0.
582.416 -3.48627 0.
445.474 -323.005 0.
481.765 -238.175 0.
176.604 -137.196 0.
248.482 32.254 0.
373.061 324.77 0.
446.249 -317.529 0.
437.762 -336.072 0.
1051.47 1096.85 0.
54.0018 217.952 0.
-84.2443 -103.442 0.
132.349 -825.209 0.
629.725 335.801 0.
788.49 706.606 0.
799.041 354.366 0.
706.05 138.123 0.
599.295 -110.719 0.
-248.678 -1609.26 0.
378.047 -147.185 0.
206.171 -548.367 0.
-382.069 -1269.52 0.
-542.354 -1643.65 0.
163.139 -941.507 0.
-229.344 -1121.41 0.
-227.731 -1118.23 0.
-168.961 -1102.84 0.
-209.483 -1197.15 0.
-250.005 -1291.46 0.
-82.2685 -1279.88 0.
-99.2313 -1319.83 0.
-116.194 -1359.79 0.
-332.205 -1507.1 0.
-366.458 -1587.03 0.
-400.711 -1666.95 0.
-308.557 -1479.29 0.
-215.105 -1260.95 0.
-79.2286 -1051.25 0.
-139.698 -1193.58 0.
-200.167 -1335.91 0.
-159.329 -1344.38 0.
-69.6683 -1135.88 0.
19.9923 -927.386 0.
-163.851 -1113.55 0.
-337.917 -1519.49 0.
-511.983 -1925.44 0.
-651.466 -1933.48 0.
-568.618 -1740.85 0.
-213.574 -1431.72 0.
-605.964 -1604.55 0.
-606.714 -1605.91 0.
-362.58 -1516.33 0.
-402.813 -1610.34 0.
-443.046 -1704.34 0.
-262.548 -1590.57 0.
-167.469 -1368.47 0.
-72.3907 -1146.37 0.
-649.364 -1372.08 0.
-681.317 -1447.25 0.
-713.269 -1522.41 0.
-609.809 -1481.02 0.
-606.149 -1472.51 0.
-352.268 -1357.31 0.
-346.51 -1344.56 0.
-340.752 -1331.81 0.
-567.765 -1405.39 0.
-541.401 -1343.92 0.
-515.036 -1282.45 0.
-742.744 -1351.91 0.
-737.076 -1341.11 0.
-731.409 -1330.3 0.
-921.087 -1422.65 0.
-928.563 -1440.37 0.
464.708 -857.655 0.
-452.597 -1279.08 0.
-467.618 -1313.92 0.
-531.207 -1376.51 0.
-561.113 -1444.65 0.
-591.019 -1512.79 0.
-586.415 -1510.14 0.
-546.851 -1418.87 0.
-507.288 -1327.61 0.
-582.01 -1301.12 0.
-556.623 -1243.09 0.
-531.237 -1185.06 0.
-772.706 -1286.85 0.
-776.057 -1293.61 0.
-484.868 -1179.05 0.
-510.255 -1238.38 0.
-535.641 -1297.71 0.
-366.376 -1273.54 0.
-390.985 -1330.09 0.
-415.594 -1386.64 0.
-325.041 -1478.13 0.
-432.113 -1726.87 0.
-539.186 -1975.62 0.
-1054.68 -2144.36 0.
-986.481 -1985.72 0.
-182.069 -1509.8 0.
-358.088 -1742.14 0.
-439.925 -1934.08 0.
-404.687 -2003.41 0.
-316.471 -1797.1 0.
-228.254 -1590.78 0.
-253.933 -1464.78 0.
-203.068 -1344.22 0.
-152.203 -1223.67 0.
-18.9263 -1182.8 0.
-56.3461 -1268.79 0.
-93.7661 -1354.77 0.
-691.959 -1528.62 0.
-641.294 -1410.61 0.
47.326 -1042.14 0.
-1.74018 -1156.81 0.
-50.8064 -1271.48 0.
140.858 -1235.79 0.
167.95 -1172.99 0.
195.042 -1110.2 0.
-155.628 -1175.02 0.
-95.876 -1036.19 0.
-36.1236 -897.372 0.
-218.091 -1028.73 0.
-268.949 -1148.01 0.
289.107 -856.415 0.
-89.2899 -1029.7 0.
-87.718 -1026.56 0.
-391.944 -1167.79 0.
-432.858 -1261.67 0.
-473.77 -1355.55 0.
-41.1493 -1230.62 0.
-58.0217 -1270.5 0.
-74.8941 -1310.37 0.
-121.502 -1385.88 0.
-155.809 -1465.67 0.
-190.115 -1545.47 0.
-302.203 -1444.52 0.
-208.908 -1226.25 0.
68.3549 -956.954 0.
7.64997 -1099.21 0.
-53.0548 -1241.46 0.
-399.962 -1416.3 0.
-310.475 -1207.66 0.
-220.989 -999.024 0.
-169.054 -1083.79 0.
-342.802 -1490.07 0.
-516.55 -1896.36 0.
-650.53 -1901.67 0.
-567.807 -1708.97 0.
-81.7807 -1343.65 0.
-679.366 -1604.69 0.
-680.185 -1605.94 0.
-306.209 -1461.1 0.
-346.387 -1555.2 0.
-386.564 -1649.31 0.
-464.896 -1645.74 0.
-369.934 -1423.76 0.
-274.973 -1201.77 0.
-370.499 -1220.63 0.
-402.309 -1295.98 0.
-434.119 -1371.32 0.
-652.468 -1468.1 0.
-648.895 -1459.54 0.
-566.711 -1417.54 0.
-560.823 -1404.83 0.
-554.935 -1392.12 0.
-465.58 -1330.25 0.
-439.235 -1268.75 0.
-412.891 -1207.25 0.
-609.464 -1263.34 0.
-603.634 -1252.61 0.
-597.804 -1241.88 0.
-815.513 -1346 0.
-822.971 -1363.8 0.
-1503.33 -1669.37 0.
-221.965 -1148.61 0.
-236.911 -1183.66 0.
-735.866 -1432.74 0.
-765.724 -1501.11 0.
-795.581 -1569.47 0.
-727.329 -1538.17 0.
-687.614 -1446.99 0.
-647.898 -1355.82 0.
-641.792 -1296.02 0.
-616.404 -1237.95 0.
-591.016 -1179.88 0.
-704.29 -1225.41 0.
-707.387 -1232.34 0.
-467.181 -1139.48 0.
-492.809 -1198.6 0.
-518.437 -1257.72 0.
-203.541 -1172.59 0.
-227.944 -1229.16 0.
-252.348 -1285.72 0.
-434.958 -1494.03 0.
-541.953 -1742.72 0.
-648.948 -1991.41 0.
-1016.63 -2096.83 0.
-948.437 -1938.16 0.
116.49 -1350.61 0.
-343.609 -1704.78 0.
-425.302 -1896.85 0.
-545.39 -2032.62 0.
-457.379 -1826.02 0.
-369.368 -1619.42 0.
-68.1935 -1354.22 0.
-17.398 -1233.54 0.
33.3975 -1112.85 0.
-117.905 -1193.58 0.
-155.416 -1279.52 0.
-192.927 -1365.45 0.
-671.52 -1488.89 0.
-620.803 -1370.84 0.
74.1809 -998.816 0.
25.2114 -1113.62 0.
-23.7582 -1228.42 0.
185.808 -1185.46 0.
213.158 -1122.73 0.
240.509 -1060 0.
-252.984 -1185.13 0.
-193.176 -1046.47 0.
-133.369 -907.823 0.
-127.386 -959.017 0.
-178.171 -1078.69 0.
-58.3429 -1426.79 0.
-165.749 -1419.62 0.
-130.761 -1337.25 0.
-613.234 -1477.23 0.
-575.341 -1389.89 0.
-537.448 -1302.54 0.
57.3295 -1055.06 0.
-3.32971 -1195.84 0.
-63.9889 -1336.61 0.
-40.04 -1288.64 0.
23.0747 -1141.53 0.
86.1893 -994.425 0.
-94.5163 -1077.55 0.
-106.999 -1107.55 0.
-70.745 -1117.16 0.
-70.1456 -1114.66 0.
-69.5463 -1112.17 0.
-372.93 -1284.72 0.
-449.999 -1464.06 0.
-527.067 -1643.4 0.
-364.51 -1530.63 0.
-258.404 -1283.42 0.
-152.298 -1036.21 0.
-381.686 -1247.85 0.
-488.68 -1496.96 0.
-277.692 -1609.81 0.
-619.886 -1486.28 0.
-480.475 -1161.39 0.
-42.8481 -790.043 0.
-88.6895 -896.147 0.
-134.531 -1002.25 0.
-352.743 -1219.66 0.
-442.143 -1429.89 0.
-531.543 -1640.12 0.
-514.721 -1555.45 0.
-406.732 -1303.73 0.
-298.743 -1052.02 0.
-561.517 -1303.62 0.
-658.88 -1530.06 0.
-795.349 -1738.51 0.
-726.337 -1577.35 0.
-657.324 -1416.19 0.
-417.72 -1256.68 0.
-467.545 -1372.94 0.
-517.37 -1489.2 0.
-775.219 -1610.87 0.
-745.198 -1540.84 0.
-715.176 -1470.81 0.
-740.345 -1441.31 0.
-720.401 -1394.18 0.
-3761.57 -2659.93 0.
-31.8381 -919.458 0.
43.2859 -744.814 0.
-643.548 -939.585 0.
-675.974 -1015.94 0.
-708.399 -1092.3 0.
-619.325 -1075.85 0.
-607.53 -1045.58 0.
-595.735 -1015.31 0.
-589.37 -1078.09 0.
-648.683 -1215.09 0.
-707.995 -1352.08 0.
-736.702 -1382.95 0.
-739.871 -1389.68 0.
-517.013 -1309.14 0.
-562.002 -1414.78 0.
-606.991 -1520.42 0.
-331.95 -1418.46 0.
-271.209 -1276.98 0.
-210.468 -1135.51 0.
-382.411 -1209.66 0.
-433.195 -1329.38 0.
-483.979 -1449.1 0.
-658.026 -1645.67 0.
-724.387 -1801.84 0.
-175.258 -1697.21 0.
-455.824 -1674.98 0.
-380.601 -1500.3 0.
-308.683 -1346.85 0.
-291.007 -1305.17 0.
-273.331 -1263.5 0.
29.4701 -1150.44 0.
-10.4976 -1244.74 0.
-50.4655 -1339.04 0.
-231.042 -1386.08 0.
-189.419 -1290.32 0.
-147.797 -1194.56 0.
-470.996 -1353.86 0.
-487.485 -1392.22 0.
-25.0126 -1224.42 0.
-54.0465 -1292.44 0.
-83.0806 -1360.45 0.
23.7613 -1317.33 0.
79.565 -1187.42 0.
135.369 -1057.52 0.
-298.784 -1245 0.
-344.926 -1351.35 0.
-391.068 -1457.69 0.
-318.179 -1528.59 0.
-374.974 -1660.93 0.
-413.863 -1549.61 0.
-46.6685 -1337.14 0.
-11.8095 -1254.89 0.
-572.727 -1428.69 0.
-535.084 -1341.16 0.
-497.441 -1253.64 0.
104.976 -1003.22 0.
44.4389 -1144.05 0.
-16.0986 -1284.87 0.
-122.38 -1292.87 0.
-59.3022 -1145.71 0.
3.77558 -998.557 0.
56.7304 -981.757 0.
44.4498 -1011.74 0.
-356.58 -1207.4 0.
-355.987 -1204.91 0.
-355.395 -1202.43 0.
-173.706 -1168.38 0.
-250.967 -1347.42 0.
-328.227 -1526.45 0.
-337.07 -1487.41 0.
-231.041 -1240.19 0.
-125.013 -992.98 0.
-373.546 -1212.71 0.
-480.497 -1461.96 0.
-894.545 -1842.96 0.
-493.749 -1401.01 0.
-354.408 -1076.02 0.
-128.335 -795.389 0.
-174.231 -901.427 0.
-220.128 -1007.46 0.
-290.867 -1161.84 0.
-380.535 -1371.95 0.
-470.203 -1582.07 0.
-757.788 -1628.26 0.
-649.864 -1376.71 0.
-541.939 -1125.16 0.
-441.027 -1220.54 0.
-538.171 -1447.03 0.
-772.335 -1697.38 0.
-703.482 -1536.04 0.
-634.629 -1374.69 0.
-447.637 -1238.38 0.
-497.59 -1354.62 0.
-547.542 -1470.87 0.
-915.784 -1639.69 0.
-885.765 -1569.9 0.
-855.746 -1500.1 0.
-533.895 -1321.34 0.
-513.825 -1274.46 0.
-1748.23 -1765.32 0.
-3.20148 -875.149 0.
71.9612 -700.505 0.
-697.347 -932.492 0.
-730.034 -1008.61 0.
-762.72 -1084.73 0.
-671.954 -1066.57 0.
-660.276 -1036.19 0.
-648.597 -1005.82 0.
-598.49 -1051.2 0.
-657.784 -1188.02 0.
-717.078 -1324.85 0.
-681.435 -1327.07 0.
-684.457 -1333.85 0.
-441.347 -1245.12 0.
-486.168 -1350.77 0.
-530.989 -1456.41 0.
-512.398 -1464.13 0.
-451.571 -1322.66 0.
-390.744 -1181.19 0.
-409.77 -1190.57 0.
-460.295 -1310.46 0.
-510.819 -1430.35 0.
-258.68 -1443.02 0.
-325.095 -1599.23 0.
-439.045 -1779.14 0.
-742.374 -1767 0.
-667.163 -1592.59 0.
-283.172 -1304.92 0.
-265.247 -1263.28 0.
-247.321 -1221.64 0.
-95.1406 -1171.97 0.
-135.135 -1266.25 0.
-175.129 -1360.53 0.
-169.712 -1328.61 0.
-128.382 -1232.5 0.
-87.0532 -1136.39 0.
-111.59 -1169.01 0.
-128.253 -1207.13 0.
-29.3766 -1195.34 0.
-58.1064 -1263.55 0.
-86.8364 -1331.76 0.
-249.049 -1402.5 0.
-193.106 -1272.74 0.
-137.164 -1142.98 0.
-225.752 -1182.67 0.
-271.869 -1288.97 0.
-317.985 -1395.26 0.
-231.909 -1460.54 0.
-288.573 -1593.15 0.
155.035 492.803 0.
493.774 -271.042 0.
382.564 -533.701 0.
-47.0138 -245.925 0.
-102.283 -376.316 0.
100.959 96.6702 0.
418.343 -327.602 0.
539.018 -48.0836 0.
991.78 1006.05 0.
-107.959 -1070.12 0.
197.525 -357.151 0.
433.967 195.004 0.
494.612 -217.768 0.
777.562 445.394 0.
35.3213 282.251 0.
-362.702 -645.858 0.
-307.443 -516.041 0.
261.622 -498.36 0.
272.761 -471.996 0.
149.638 -758.844 0.
36.354 -636.876 0.
145.533 -382.85 0.
610.592 701.736 0.
181.337 96.4195 0.
287.38 343.059 0.
-176.681 -146.504 0.
-82.6145 -651.192 0.
105.979 -212.103 0.
-59.0238 -438.984 0.
72.7558 -132.608 0.
182.103 121.632 0.
245.359 5.09423 0.
346.498 241.396 0.
528.85 667.241 0.
25.7286 689.57 0.
-410.027 -325.841 0.
-109.442 376.613 0.
404.228 559.386 0.
200.103 82.9709 0.
-685.039 -1511.34 0.
-356.308 -743.804 0.
-278.125 -560.834 0.
559.008 1203.41 0.
274.103 537.929 0.
429.728 900.377 0.
62.6741 938.349 0.
-363.574 -56.8062 0.
-327.037 27.9509 0.
165.402 -39.7023 0.
511.168 766.483 0.
-2388.47 -705.158 0.
540.794 366.099 0.
792.891 954.055 0.
-215.151 327.331 0.
-49.8973 712.58 0.
-194.381 375.458 0.
-132.164 324.79 0.
168.568 1025.82 0.
-215.431 129.467 0.
-227.829 -127.116 0.
83.6625 598.742 0.
110.053 659.094 0.
-247.028 -390.855 0.
-481.853 -938.704 0.
-231.351 -868.335 0.
162.215 50.2747 0.
158.289 41.4354 0.
47.228 211.316 0.
98.3322 332.289 0.
245.888 678.335 0.
166.702 234.065 0.
12.1538 -126.527 0.
145.606 185.228 0.
849.888 408.151 0.
554.849 -279.143 0.
58.3459 31.5857 0.
-417.294 -434.175 0.
147.473 885.599 0.
596.927 732.276 0.
392.266 253.94 0.
459.153 409.26 0.
523.244 534.824 0.
206.105 -204.466 0.
-3.23749 -691.933 0.
237.164 -463.341 0.
60.9714 -873.015 0.
345.746 -207.282 0.
117.659 -1288.96 0.
342.821 -761.59 0.
708.101 560.684 0.
498.103 73.956 0.
311.179 -359.283 0.
406.19 665.818 0.
-40.6443 -373.808 0.
64.3507 -126.573 0.
277.271 -114.037 0.
210.249 -270.903 0.
564.322 555.391 0.
503.743 113.419 0.
20.5317 -1011.94 0.
-269.723 -1156 0.
42.5903 -965.733 0.
71.1361 -901.695 0.
-282.249 -1037.86 0.
-354.711 -1207.27 0.
-427.174 -1376.69 0.
-32.9384 -1232.74 0.
34.963 -1075.3 0.
102.865 -917.87 0.
-126.827 -1046.32 0.
-187.162 -1187.31 0.
-247.497 -1328.3 0.
26.2637 -1195.83 0.
43.3233 -1154.48 0.
-515.82 -1369.97 0.
-554.217 -1459.54 0.
-592.614 -1549.12 0.
-146.475 -1359.84 0.
-73.7131 -1190.64 0.
-0.950856 -1021.44 0.
-224.067 -1126.64 0.
-294.39 -1291.64 0.
-364.712 -1456.64 0.
-591.392 -1426.39 0.
-482.722 -1173.36 0.
-199.446 -845.472 0.
-250.206 -1016.95 0.
-327.295 -1196.48 0.
-290.577 -1295.38 0.
-301.637 -1321.89 0.
-312.696 -1348.4 0.
-389.506 -1343.55 0.
-332.316 -1209.92 0.
-275.126 -1076.29 0.
-754.849 -1302.96 0.
-800.227 -1407.75 0.
-845.604 -1512.54 0.
-427.886 -1058.49 0.
-258.742 -663.031 0.
-286.491 -415.397 0.
-422.433 -733.247 0.
-558.375 -1051.1 0.
-524.839 -1169 0.
-459.804 -1017.31 0.
-394.769 -865.621 0.
-437.029 -864.156 0.
-470.756 -943.438 0.
-504.483 -1022.72 0.
-385.592 -957.889 0.
-366.288 -913.704 0.
-2244.98 -1683.71 0.
-107.306 -921.705 0.
-188.562 -1110.78 0.
-999.878 -1560.35 0.
-957.64 -1461.68 0.
-915.402 -1363.02 0.
-613.299 -1243.9 0.
-675.694 -1388.17 0.
-738.088 -1532.44 0.
-820.972 -1523.32 0.
-755.628 -1371.77 0.
-690.284 -1220.23 0.
-778.547 -1332.95 0.
-830.691 -1454.44 0.
-575.202 -1429.35 0.
-567.406 -1410.59 0.
-559.61 -1391.84 0.
-407.644 -1306.17 0.
-391.327 -1266.38 0.
-375.011 -1226.58 0.
-450.407 -1290.27 0.
-490.839 -1383.14 0.
-531.271 -1476.02 0.
-256.95 -1276.69 0.
-190.969 -1121.92 0.
-195.833 -994.026 0.
-573.972 -1253.6 0.
-626.154 -1373.49 0.
-389.088 -1367.93 0.
-426.555 -1456.6 0.
-464.022 -1545.27 0.
-247.138 -1458.33 0.
-206.555 -1362.62 0.
-165.972 -1266.92 0.
-165.856 -1246.73 0.
-169.494 -1254.56 0.
-173.131 -1262.4 0.
12.146 -1188.53 0.
7.15605 -1199.12 0.
34.246 -1174.46 0.
130.467 -947.026 0.
226.688 -719.595 0.
-96.5774 -816.331 0.
-225.229 -1114.74 0.
-353.881 -1413.15 0.
-205.991 -1440.71 0.
-190.163 -1403.99 0.
-174.335 -1367.26 0.
-89.6993 -1446.63 0.
-170.669 -1635.16 0.
93.5208 -966.349 0.
-128.814 -1007.92 0.
-100.339 -943.99 0.
-138.017 -944.49 0.
-210.849 -1113.73 0.
-283.681 -1282.97 0.
-95.3106 -1228.37 0.
-27.6589 -1070.75 0.
39.9929 -913.137 0.
-146.167 -1024.18 0.
-206.674 -1165.1 0.
-267.181 -1306.01 0.
-17.7651 -1183 0.
-0.554778 -1141.74 0.
-306.132 -1247.88 0.
-344.484 -1337.54 0.
-382.837 -1427.2 0.
-176.16 -1340.65 0.
-103.233 -1171.48 0.
-30.3053 -1002.31 0.
-269.444 -1114.99 0.
-339.688 -1280.17 0.
-409.932 -1445.35 0.
-722.358 -1450.44 0.
-613.855 -1197.56 0.
456.322 -532.647 0.
-246.72 -983.794 0.
-324.081 -1163.26 0.
-107.258 -1186.24 0.
-118.527 -1212.62 0.
-129.796 -1238.99 0.
-442.942 -1335.37 0.
-385.595 -1201.99 0.
-328.249 -1068.62 0.
-647.364 -1223.52 0.
-692.686 -1328.5 0.
-738.007 -1433.48 0.
-581.757 -1093.79 0.
-412.762 -698.105 0.
-357.172 -415.081 0.
-492.829 -732.964 0.
-628.487 -1050.85 0.
-591.664 -1166.21 0.
-526.65 -1014.43 0.
-461.636 -862.655 0.
-86.0969 -682.282 0.
-119.713 -761.611 0.
-153.329 -840.939 0.
-560.494 -1001.61 0.
-541.198 -957.323 0.
-346.284 -838.169 0.
-209.065 -933.473 0.
-290.082 -1122.51 0.
-952.365 -1508.59 0.
-910.099 -1410.14 0.
-867.832 -1311.69 0.
-363.942 -1105.21 0.
-426.302 -1249.67 0.
-488.661 -1394.14 0.
-798.124 -1481.82 0.
-732.849 -1330.31 0.
-667.575 -1178.79 0.
-918.933 -1361.59 0.
-971.37 -1482.87 0.
-684.909 -1444.99 0.
-676.841 -1426.38 0.
-668.772 -1407.77 0.
-152.872 -1165.33 0.
-136.579 -1125.5 0.
-120.287 -1085.66 0.
-389.726 -1233.91 0.
-429.96 -1326.78 0.
-470.195 -1419.64 0.
-713.789 -1441.15 0.
-647.274 -1286.84 0.
93.2266 -837.527 0.
-319.857 -1112.71 0.
-371.699 -1233.07 0.
-477.594 -1374.48 0.
-514.978 -1463.31 0.
-552.363 -1552.13 0.
-128.246 -1376.34 0.
-87.6148 -1280.69 0.
-46.984 -1185.05 0.
-231.561 -1242.58 0.
-235.028 -1250.56 0.
-238.495 -1258.55 0.
-152.648 -1227.97 0.
-157.682 -1238.61 0.
135.751 -1099.97 0.
232.132 -872.406 0.
328.513 -644.841 0.
83.8856 -707.819 0.
-44.8366 -1006.12 0.
-173.559 -1304.41 0.
-85.6935 -1357.87 0.
-69.7358 -1321.27 0.
-53.7781 -1284.67 0.
19.2133 -1368.41 0.
-61.3638 -1557.71 0.
299.956 -512.16 0.
-182.9 -1049.57 0.
-349.742 -1436.41 0.
-396.322 -1651.98 0.
-259.477 -1332.6 0.
-122.632 -1013.23 0.
-10.5571 -859.67 0.
-62.2828 -980.181 0.
-114.009 -1100.69 0.
-211.447 -1168.96 0.
-205.175 -1154.28 0.
-198.902 -1139.59 0.
18.766 -959.228 0.
68.4696 -843.022 0.
-21.6844 -802.793 0.
-54.2604 -876.924 0.
-86.8364 -951.055 0.
-117.375 -1064.19 0.
-211.779 -1282.7 0.
-306.183 -1501.21 0.
-453.963 -1536.09 0.
-350.676 -1293.94 0.
-247.39 -1051.79 0.
-681.875 -1307.22 0.
-756.831 -1481.73 0.
40.0946 -1282.5 0.
-471.017 -1437.81 0.
-440.961 -1367.42 0.
-114.635 -1151.03 0.
-32.1634 -958.712 0.
50.3084 -766.39 0.
-287.797 -867.581 0.
-340.542 -989.94 0.
-393.288 -1112.3 0.
-487.443 -1083.69 0.
-403.917 -890.339 0.
-320.392 -696.992 0.
-612.18 -887.172 0.
-663.591 -1006.68 0.
-630.609 -1063.36 0.
-565.752 -911.259 0.
-500.895 -759.156 0.
-405.486 -673.837 0.
-466.124 -815.599 0.
-526.761 -957.361 0.
-99.4199 -841.858 0.
-114.241 -875.954 0.
-129.061 -910.05 0.
-638.896 -1135.11 0.
-637.772 -1132.89 0.
-531.886 -1085.31 0.
-289.345 -888.401 0.
-240.805 -774.581 0.
-613.476 -890.57 0.
-686.776 -1062.25 0.
-760.075 -1233.94 0.
-397.421 -1185.55 0.
-432.088 -1266.55 0.
-466.755 -1347.54 0.
-788.1 -1492.52 0.
-777.802 -1468.21 0.
-767.504 -1443.9 0.
-862.949 -1317.79 0.
-764.209 -1086.72 0.
-414.283 -779.258 0.
-465.081 -897.875 0.
-515.879 -1016.49 0.
-64.1994 -914.307 0.
-99.5424 -997.323 0.
-134.886 -1080.34 0.
-359.262 -1120.74 0.
-285.829 -949.246 0.
-212.395 -777.75 0.
-657.198 -1103.79 0.
-769.679 -1365.21 0.
27.772 -1243.49 0.
-302.052 -1303.54 0.
-259.279 -1203.99 0.
-429.732 -1206.97 0.
-423.297 -1191.22 0.
-416.861 -1175.46 0.
35.112 -984.264 0.
28.1311 -1000.63 0.
21.1502 -1016.99 0.
-255.74 -1160.05 0.
-276.002 -1208.03 0.
-296.264 -1256.01 0.
-279.347 -1276.34 0.
-288.421 -1298.33 0.
125.74 -1127.47 0.
142.036 -1090.85 0.
158.333 -1054.23 0.
14.7033 -1101.94 0.
12.1383 -1109.91 0.
9.57332 -1117.88 0.
-46.468 -1276.92 0.
-168.825 -1562.9 0.
-291.183 -1848.87 0.
-128.911 -1639.61 0.
-4.03373 -1346.56 0.
-9.10533 -614.939 0.
-69.4955 -970.05 0.
-236.236 -1357.01 0.
-394.373 -1619.13 0.
-257.649 -1299.73 0.
-120.925 -980.333 0.
-94.7134 -864.203 0.
-146.276 -984.829 0.
-197.839 -1105.45 0.
-169.612 -1120.5 0.
-163.352 -1105.8 0.
-157.092 -1091.09 0.
-49.6717 -956.103 0.
0.0108128 -840.168 0.
34.2764 -747.363 0.
1.44362 -821.506 0.
-31.3892 -895.65 0.
-206.72 -1071.28 0.
-300.948 -1289.91 0.
-395.176 -1508.53 0.
-384.595 -1474.59 0.
-281.074 -1232.54 0.
-177.553 -990.495 0.
-563.693 -1224.09 0.
-638.49 -1398.69 0.
-83.2105 -1303.2 0.
-510.111 -1423.49 0.
-479.933 -1353.03 0.
-317.878 -1206.55 0.
-235.41 -1014.16 0.
-152.943 -821.76 0.
-316.33 -849.287 0.
-369.166 -971.578 0.
-422.003 -1093.87 0.
-315.442 -977.643 0.
-232.069 -784.249 0.
-148.696 -590.855 0.
-719.416 -902.318 0.
-770.864 -1021.64 0.
-517.659 -984.4 0.
-453 -831.83 0.
-388.34 -679.261 0.
-372.332 -628.768 0.
-432.971 -770.151 0.
-493.61 -911.534 0.
-277.966 -886.792 0.
-292.617 -920.699 0.
-307.268 -954.606 0.
-500.233 -1044.61 0.
-499.208 -1042.2 0.
-950.43 -1232.85 0.
-384.891 -897.23 0.
-336.608 -783.358 0.
-455.125 -791.947 0.
-528.666 -963.485 0.
-602.208 -1135.02 0.
-602.821 -1242.84 0.
-637.597 -1323.6 0.
-672.374 -1404.36 0.
-749.072 -1445.13 0.
-738.475 -1421.2 0.
-727.879 -1397.27 0.
-594.689 -1170.33 0.
-495.876 -939.519 0.
-311.191 -702.385 0.
-361.752 -821.213 0.
-412.314 -940.04 0.
-327.531 -995.84 0.
-362.837 -1078.94 0.
-398.143 -1162.03 0.
-430.106 -1119.62 0.
-356.605 -948.07 0.
-283.104 -776.523 0.
-386.338 -957.011 0.
-498.879 -1218.41 0.
8.72765 -1219.41 0.
-279.675 -1261.87 0.
-236.974 -1162.5 0.
-369.764 -1149.33 0.
-363.385 -1133.64 0.
-357.007 -1117.95 0.
-59.5627 -994.079 0.
-66.8682 -1010.37 0.
-74.1736 -1026.67 0.
-300.556 -1146.98 0.
-320.66 -1195.35 0.
-340.764 -1243.71 0.
-340.944 -1271.88 0.
-349.89 -1293.9 0.
63.2667 -1123.04 0.
79.5487 -1086.19 0.
95.8308 -1049.35 0.
117.587 -1026.8 0.
114.89 -1034.63 0.
112.193 -1042.46 0.
-122.582 -1278.32 0.
-245.02 -1564.31 0.
-367.459 -1850.29 0.
-272.539 -1669.85 0.
-148.18 -1377.01 0.
-306.446 -690.678 0.
452.848 62.0356 0.
164.94 -609.64 0.
189.907 -226.814 0.
-52.5228 -793.448 0.
-12.8789 -701.557 0.
133.087 -141.368 0.
553.323 839.416 0.
158.29 -82.382 0.
261.188 -166.092 0.
318.321 -32.1138 0.
51.998 -652.606 0.
107.055 -426.799 0.
508.499 511.272 0.
872.889 1136.86 0.
427.51 96.8265 0.
610.718 523.884 0.
546.024 886.922 0.
438.483 636.395 0.
119.702 -106.914 0.
-104.045 -916.579 0.
133.669 -361.495 0.
274.645 -32.026 0.
-149.582 -455.075 0.
431.361 899.675 0.
592.874 176.367 0.
-238.271 -686.972 0.
2.59607 -125.919 0.
-55.7794 -186.77 0.
342.512 744.214 0.
-36.1428 -137.228 0.
-477.318 -1133.88 0.
-129.445 -322.07 0.
-225.978 -547.235 0.
-94.3553 -758.464 0.
220.134 -23.9233 0.
518.63 673.193 0.
-425.114 20.9545 0.
-426.16 19.6468 0.
49.2089 153.933 0.
107.401 294.195 0.
98.693 278.427 0.
-15.0922 171.047 0.
-88.8516 -0.156687 0.
-145.532 -131.563 0.
58.9726 267.765 0.
18.5054 173.467 0.
-108.765 -123.552 0.
-14.0407 -137.645 0.
145.887 233.892 0.
-2011.65 -975.02 0.
78.2878 390.819 0.
-85.9919 8.31558 0.
-99.0149 -227.747 0.
-32.6722 -72.2365 0.
-88.7271 -202.337 0.
-376.038 -294.679 0.
-41.3391 486.687 0.
-375.496 -292.521 0.
-85.9876 57.8714 0.
-6.03214 244.052 0.
149.989 607.724 0.
-20.6227 -309.613 0.
61.5395 -119.234 0.
250.8 445.747 0.
174.439 269.379 0.
240.588 425.413 0.
-137.288 -27.595 0.
257.564 893.378 0.
-19.1279 247.622 0.
-80.6971 -141.369 0.
245.062 619.704 0.
528.611 1282.45 0.
115.039 -277.803 0.
-383.674 -1441.72 0.
507.332 213.191 0.
-118.006 -895.299 0.
2.76975 -614.861 0.
180.935 56.2504 0.
-42.9303 -465.987 0.
384.359 530.961 0.
109.561 -391.219 0.
182.032 -221.056 0.
533.988 601.287 0.
272.707 307.732 0.
311.082 396.831 0.
-15.1226 -364.496 0.
23.4425 -274.667 0.
-192.038 -777.977 0.
575.389 218.779 0.
528.53 110.489 0.
367.154 -265.383 0.
271.519 -834.752 0.
412.764 -506.357 0.
77.8784 -1289.02 0.
352.791 10.2808 0.
-15.5595 -850.087 0.
-167.478 -1205.54 0.
70.4002 -571.245 0.
431.477 268.03 0.
-198.69 -1501 0.
-69.3172 -1278.56 0.
12.9192 -1087.04 0.
-125.604 -1031.17 0.
-148.401 -1085.89 0.
-171.199 -1140.6 0.
-341.251 -1212.69 0.
-310.171 -1139.76 0.
-279.092 -1066.83 0.
-177.888 -1020.82 0.
-192.424 -1054.5 0.
-206.959 -1088.19 0.
-41.5621 -1096.42 0.
-86.0802 -1199.33 0.
-108.148 -1275.56 0.
-74.6749 -1199.65 0.
-41.2012 -1123.74 0.
-384.697 -1191.29 0.
-327.425 -1057.85 0.
-270.152 -924.413 0.
-325.315 -969.089 0.
-390.203 -1120.63 0.
-455.092 -1272.17 0.
-569.59 -1324.21 0.
-554.076 -1288.49 0.
114.602 -973.022 0.
-351.649 -1129.55 0.
-325.766 -1069.14 0.
-432.825 -1065 0.
-415.87 -1024.82 0.
-398.916 -984.646 0.
-373.185 -912.003 0.
-323.373 -795.517 0.
-273.562 -679.032 0.
-124.039 -690.516 0.
-208.772 -887.597 0.
-293.505 -1084.68 0.
-861.649 -1307.78 0.
-839.188 -1254.68 0.
-645.414 -1137.62 0.
-666.963 -1188.67 0.
-688.513 -1239.71 0.
-591.513 -1190.53 0.
-534.009 -1056.77 0.
-476.506 -923.009 0.
-461.162 -853.308 0.
-447.398 -822.322 0.
-433.634 -791.335 0.
-171.297 -611.965 0.
-128.322 -514.08 0.
-1149.06 -873.437 0.
-400.054 -644.325 0.
-449.15 -757.585 0.
-397.889 -822.948 0.
-434.522 -908.689 0.
-471.155 -994.43 0.
-648.771 -1089.36 0.
-626.855 -1038.66 0.
-604.939 -987.95 0.
-488.648 -1003.09 0.
-551.242 -1147.35 0.
-613.835 -1291.62 0.
-667.965 -1331.96 0.
-671.506 -1341.26 0.
-324.974 -1196.42 0.
-296.488 -1128.4 0.
-268.002 -1060.38 0.
-523.94 -1165.32 0.
-582.735 -1302.25 0.
-641.53 -1439.18 0.
-496.876 -1379.49 0.
-446.411 -1262.26 0.
-395.946 -1145.02 0.
-339.131 -990.374 0.
-266.438 -822.235 0.
306.573 -437.102 0.
-302.136 -812.964 0.
-362.481 -953.783 0.
-324.623 -1021.74 0.
-304.792 -976.216 0.
-284.96 -930.69 0.
-61.7404 -876.631 0.
-138.073 -1054.71 0.
-214.404 -1232.79 0.
-419.338 -1355.54 0.
-406.253 -1324.92 0.
-393.167 -1294.3 0.
-254.652 -1259.58 0.
-272.957 -1302.45 0.
-107.589 -1260.43 0.
-81.3525 -1199.57 0.
-55.1161 -1138.7 0.
218.087 -970.682 0.
242.214 -915.058 0.
266.34 -859.433 0.
-216.074 -987.044 0.
-158.203 -852.024 0.
-100.332 -717.004 0.
79.3073 -668.087 0.
45.1506 -749.804 0.
374.642 -1225.36 0.
11.6464 -1213.07 0.
94.0698 -1021.62 0.
-72.9572 -977.177 0.
-95.522 -1032.1 0.
-118.087 -1087.02 0.
-343.346 -1181.22 0.
-312.082 -1108.44 0.
-280.819 -1035.67 0.
-251.145 -1021.31 0.
-265.53 -1055.19 0.
-279.915 -1089.08 0.
143.923 -984.89 0.
99.3243 -1088.03 0.
-23.5266 -1207.79 0.
9.65945 -1131.55 0.
42.8456 -1055.32 0.
-416.083 -1174.14 0.
-358.862 -1040.52 0.
-301.641 -906.903 0.
-552.521 -1035.5 0.
-617.479 -1186.87 0.
-682.436 -1338.25 0.
-611.653 -1311 0.
-596.625 -1274.83 0.
634.552 -717.823 0.
-243.25 -1053.4 0.
-217.453 -992.947 0.
-417.195 -1026.1 0.
-399.97 -986.251 0.
-382.746 -946.405 0.
-346.84 -869.73 0.
-296.944 -753.241 0.
-247.047 -636.753 0.
-177.947 -680.567 0.
-262.647 -877.722 0.
-347.348 -1074.88 0.
-684.125 -1201.67 0.
-661.779 -1148.51 0.
-799.903 -1172.64 0.
-821.436 -1223.47 0.
-842.969 -1274.3 0.
-565.481 -1147.95 0.
-507.658 -1014.3 0.
-449.836 -880.646 0.
-492.745 -835.645 0.
-478.942 -804.589 0.
-465.14 -773.533 0.
-93.9598 -547.974 0.
-51.1509 -449.912 0.
-1669.69 -1064.87 0.
-428.569 -624.865 0.
-477.63 -738.189 0.
-433.91 -807.191 0.
-470.208 -893.367 0.
-506.505 -979.543 0.
-549.189 -1015.74 0.
-527.58 -964.685 0.
-505.972 -913.633 0.
-410.679 -939.098 0.
-473.243 -1083.65 0.
-535.807 -1228.2 0.
-906.578 -1402.5 0.
-909.878 -1411.79 0.
-151.96 -1089.84 0.
-123.057 -1022.22 0.
-94.1544 -954.599 0.
-382.817 -1073.2 0.
-441.549 -1210.26 0.
-500.281 -1347.32 0.
-340.859 -1281.25 0.
-290.062 -1164.33 0.
-239.264 -1047.4 0.
-503.297 -1029.21 0.
-430.388 -861.488 0.
-445.656 -727.662 0.
-555.059 -889.728 0.
-615.386 -1030.76 0.
-361.591 -1005.89 0.
-341.877 -960.35 0.
-322.163 -914.81 0.
0.964721 -818.966 0.
-75.1294 -997.246 0.
-151.223 -1175.53 0.
-378.647 -1305.53 0.
-365.208 -1275.41 0.
-351.769 -1245.29 0.
-62.6602 -1146.47 0.
-80.9758 -1189.29 0.
-151.38 -1248.13 0.
-125.144 -1186.98 0.
-98.9077 -1125.83 0.
241.759 -929.37 0.
265.519 -873.2 0.
289.279 -817.03 0.
-374.806 -1024.53 0.
-317.023 -889.521 0.
-259.24 -754.512 0.
158.55 -602.1 0.
124.122 -683.605 0.
542.236 -743.092 0.
100.459 -921.211 0.
119.479 -876.07 0.
-68.322 -930.077 0.
-77.5313 -951.131 0.
-86.7407 -972.184 0.
-175.772 -1000.34 0.
-152.875 -945.975 0.
-129.978 -891.61 0.
-255.688 -926.02 0.
-252.908 -919.273 0.
-250.128 -912.526 0.
196.517 -809.091 0.
144.006 -930.252 0.
21.9043 -1057 0.
89.3934 -898.91 0.
156.883 -740.823 0.
-275.435 -834.852 0.
-268.656 -818.435 0.
-261.877 -802.018 0.
-583.01 -998.429 0.
-645.304 -1144.68 0.
-707.598 -1290.93 0.
-560.392 -1154.37 0.
-488.256 -987.334 0.
834.391 -284.331 0.
-67.2841 -715.552 0.
-95.0679 -779.549 0.
-313.062 -896.181 0.
-263.502 -779.327 0.
-213.942 -662.472 0.
-253.297 -645.976 0.
-273.168 -692.166 0.
-293.04 -738.357 0.
-240.621 -660.303 0.
-185.678 -532.284 0.
-130.735 -404.265 0.
-354.911 -504.848 0.
-365.412 -530.902 0.
-612.323 -660.963 0.
-629.423 -701.607 0.
-646.522 -742.251 0.
-388.966 -630.481 0.
-356.227 -552.692 0.
-323.488 -474.903 0.
-327.99 -587.321 0.
-458.655 -891.831 0.
-589.32 -1196.34 0.
-381.901 -1087.02 0.
-331.228 -968.718 0.
-1758.83 -1484.65 0.
-628.407 -982.665 0.
-617.805 -960.433 0.
-472.492 -850.248 0.
-395.861 -671.327 0.
-319.23 -492.406 0.
-315.113 -484.539 0.
-400.365 -685.424 0.
-485.617 -886.309 0.
-292.288 -773.263 0.
-226.044 -618.379 0.
-159.8 -463.496 0.
-730.864 -889.679 0.
-844.507 -1155.27 0.
-195.656 -1065.69 0.
-172.967 -1012.56 0.
-150.278 -959.429 0.
-264.595 -968.405 0.
-245.228 -923.778 0.
-225.862 -879.15 0.
-232.151 -969.817 0.
-333.823 -1205.29 0.
-435.494 -1440.76 0.
-664.247 -1426.07 0.
-559.056 -1180.12 0.
-573.018 -984.852 0.
-649.357 -978.737 0.
-628.946 -931.068 0.
-284.66 -803.82 0.
-408.002 -1091.4 0.
-531.344 -1378.99 0.
-306.289 -1321.67 0.
-199.185 -1071.38 0.
-92.0815 -821.102 0.
-122.687 -876.963 0.
-208.719 -1076.92 0.
-294.752 -1276.87 0.
-8.49598 -1082.24 0.
45.54 -955.263 0.
41.0361 -883.512 0.
-35.1905 -1062.46 0.
-111.417 -1241.41 0.
93.2141 -1220.8 0.
136.707 -1120.79 0.
180.199 -1020.79 0.
-485.392 -1299.99 0.
-514.925 -1369.87 0.
-544.459 -1439.75 0.
-114.731 -989.56 0.
74.105 -548.369 0.
-97.3962 -985.485 0.
-37.8222 -950.023 0.
-18.8911 -904.624 0.
-132.791 -925.871 0.
-141.743 -947.127 0.
-150.694 -968.383 0.
76.6075 -860.645 0.
99.5067 -806.374 0.
122.406 -752.103 0.
-262.999 -897.906 0.
-260.113 -891.272 0.
-257.226 -884.638 0.
-10.1102 -866.458 0.
-62.356 -987.764 0.
-82.293 -1069.83 0.
-14.7602 -911.648 0.
52.7728 -753.465 0.
-225.903 -783.053 0.
-219.296 -766.474 0.
-212.689 -749.895 0.
-446.456 -908.787 0.
-508.604 -1055.15 0.
-570.752 -1201.51 0.
-518.552 -1104.12 0.
-446.415 -937.104 0.
687.808 -315.017 0.
-64.4236 -683.909 0.
-92.099 -748.031 0.
-176.479 -805.09 0.
-126.675 -688.476 0.
-76.8704 -571.863 0.
-250.903 -613.922 0.
-270.623 -660.031 0.
-290.343 -706.14 0.
-328.445 -665.412 0.
-273.318 -537.528 0.
-218.191 -409.644 0.
-422.26 -503.144 0.
-432.684 -529.117 0.
-509.181 -584.503 0.
-526.323 -625.123 0.
-543.465 -665.742 0.
-495.943 -646.416 0.
-463.315 -568.576 0.
-430.687 -490.737 0.
-123.725 -467.808 0.
-254.605 -772.329 0.
-385.485 -1076.85 0.
-571.086 -1136.82 0.
-520.297 -1018.61 0.
-509.723 -918.14 0.
-668.717 -968.111 0.
-658.584 -945.432 0.
-457.305 -811.916 0.
-380.573 -632.931 0.
-303.842 -453.946 0.
-368.896 -476.918 0.
-454.198 -677.712 0.
-539.501 -878.506 0.
-222.04 -711.801 0.
-155.753 -557.03 0.
-89.4663 -402.259 0.
-565.764 -787.269 0.
-679.266 -1052.95 0.
-467.456 -1150.65 0.
-444.674 -1097.49 0.
-421.893 -1044.33 0.
-193.42 -907.551 0.
-174.15 -862.9 0.
-154.879 -818.25 0.
-415.625 -1016.45 0.
-517.402 -1251.96 0.
-619.18 -1487.48 0.
-442.592 -1299.21 0.
-337.663 -1053.2 0.
-246.609 -813.238 0.
-499.692 -883.21 0.
-479.288 -835.518 0.
-239.162 -753.664 0.
-362.435 -1041.56 0.
-485.708 -1329.45 0.
-563.668 -1400.74 0.
-456.528 -1150.51 0.
-349.388 -900.28 0.
41.5248 -774.958 0.
-44.0825 -975.362 0.
-129.69 -1175.77 0.
-103.564 -1090.67 0.
-49.2675 -963.793 0.
207.836 -780.547 0.
131.528 -959.308 0.
55.2207 -1138.07 0.
46.1037 -1209.96 0.
89.506 -1109.76 0.
132.908 -1009.55 0.
-273.204 -1177.93 0.
-302.951 -1247.63 0.
-332.699 -1317.33 0.
-421.847 -1090.63 0.
-233.305 -649.401 0.
-789.518 -1343.78 0.
57.1857 -432.922 0.
-70.4255 -732.07 0.
136.312 -147.457 0.
211.864 31.8775 0.
221.414 56.518 0.
286.491 -822.838 0.
774.275 313.932 0.
696.895 132.418 0.
-128.83 -534.874 0.
-228.377 -767.096 0.
-83.7407 -429.758 0.
209.856 64.6485 0.
-18.3756 -468.15 0.
160.562 -269.376 0.
378.124 239.287 0.
463.369 439.142 0.
420.012 663.215 0.
153.156 40.246 0.
-124.138 -607.219 0.
-302.868 -798.448 0.
-23.2571 -146.801 0.
277.015 553.012 0.
42.3241 156.783 0.
-226.537 -473.053 0.
399.027 -25.2922 0.
-115.515 -778.516 0.
163.6 -127.177 0.
476.453 489.192 0.
125.805 -328.926 0.
195.03 -167.146 0.
188.198 440.647 0.
270.152 631.639 0.
312.675 730.476 0.
-49.7402 180.26 0.
-194.423 -157.918 0.
319.198 1039.37 0.
192.199 1087.46 0.
-268.067 13.2657 0.
-61.5475 298.142 0.
-88.0527 236.003 0.
-142.829 107.845 0.
-266.141 119.463 0.
-306.989 24.5539 0.
-185.515 308.507 0.
393.719 384.569 0.
-108.092 -785.878 0.
-36.8145 -618.989 0.
-235.941 39.7256 0.
119.336 869.416 0.
-1153.51 200.802 0.
-229.191 159.425 0.
-431.378 -313.707 0.
-70.2681 96.9499 0.
-135.148 -54.8113 0.
-67.2885 103.265 0.
-447.392 -532.433 0.
-221.539 -3.30883 0.
5.05099 527.787 0.
23.6817 -240.33 0.
11.4116 -267.401 0.
201.229 176.967 0.
-218.231 -261.715 0.
-319.531 -498.798 0.
-43.6695 384.07 0.
-176.423 76.0361 0.
-208.368 3.26558 0.
551.086 725.457 0.
696.81 1064.16 0.
604.313 846.812 0.
186.48 772.913 0.
43.6478 441.009 0.
-199.501 -125.523 0.
303.516 50.4159 0.
69.6708 -493.71 0.
310.764 361.358 0.
214.723 525.058 0.
31.9446 101.972 0.
479.368 866.272 0.
121.975 33.0438 0.
260.681 357.5 0.
-397.817 -492.357 0.
-398.972 -495.552 0.
-275.033 -206.774 0.
819.059 759.879 0.
712.191 510.025 0.
625.399 306.929 0.
242.314 -71.5255 0.
58.4503 -502.044 0.
778.451 264.166 0.
668.669 9.48873 0.
596.132 -158.641 0.
151.419 -845.581 0.
391.002 -285.892 0.
417.96 -222.595 0.
229.887 -377.49 0.
323.016 -161.972 0.
402.261 22.512 0.
-953.739 -1717.89 0.
-257.472 -94.6165 0.
-615.256 -1046.9 0.
-85.0035 -742.587 0.
-62.9173 -693.163 0.
5.12728 -680.011 0.
-100.401 -924.252 0.
-205.929 -1168.49 0.
-52.7 -1135.69 0.
41.0963 -918.146 0.
134.893 -700.605 0.
-99.3696 -809.73 0.
-152.821 -933.868 0.
-206.273 -1058.01 0.
-415.006 -1068.05 0.
-364.29 -947.774 0.
-143.675 -766.686 0.
-145.154 -770.618 0.
-146.633 -774.55 0.
-169.838 -813.02 0.
-211.66 -911.58 0.
-253.482 -1010.14 0.
-354.343 -980.934 0.
-254.551 -747.393 0.
-154.758 -513.852 0.
-188.271 -616.281 0.
-275.3 -820.78 0.
784.325 -533.175 0.
-339.96 -871.223 0.
-262.201 -689.54 0.
-76.04 -528.421 0.
-155.57 -716.574 0.
-235.101 -904.727 0.
-348.459 -1011.41 0.
-315.192 -934.731 0.
-281.924 -858.052 0.
-572.373 -940.684 0.
-557.814 -904.747 0.
-543.255 -868.81 0.
-741.162 -1027.05 0.
-787.31 -1134.08 0.
-589.27 -1103.1 0.
-470.59 -826.618 0.
-351.91 -550.133 0.
-436.212 -513.054 0.
-556.126 -793.786 0.
-676.041 -1074.52 0.
-228.11 -832.067 0.
-83.4813 -496.913 0.
61.1476 -161.757 0.
-458.364 -476.129 0.
-561.634 -715.628 0.
-862.266 -1039.87 0.
-612.411 -884.364 0.
-587.135 -825.195 0.
-413.74 -714.074 0.
-414.708 -716.671 0.
-415.676 -719.267 0.
-435.054 -688.549 0.
-388.321 -579.407 0.
-341.589 -470.265 0.
-80.6223 -436.49 0.
-164.818 -632.015 0.
-249.013 -827.54 0.
-446.612 -835.687 0.
-392.014 -707.779 0.
-470.103 -658.007 0.
-510.705 -751.872 0.
-551.307 -845.737 0.
-278.292 -783.603 0.
-287.584 -803.953 0.
-296.877 -824.303 0.
-467.817 -882.248 0.
-446.425 -830.97 0.
-425.032 -779.693 0.
-156.709 -735.151 0.
-210.569 -860.243 0.
-123.736 -924.566 0.
-355.596 -1005.87 0.
-347.369 -984.652 0.
-387.885 -956.621 0.
-311.096 -777.89 0.
-234.307 -599.159 0.
-250.994 -636.653 0.
-378.848 -935.36 0.
-506.701 -1234.07 0.
-143.433 -1085.93 0.
-85.7739 -952.322 0.
-28.1147 -818.717 0.
-248.869 -998.178 0.
-304.248 -1128.02 0.
79.7003 -1042.9 0.
130.093 -924.997 0.
180.485 -807.094 0.
160.603 -790.705 0.
103.852 -923.152 0.
47.0997 -1055.6 0.
-128.878 -1103.85 0.
-57.1228 -935.984 0.
14.6326 -768.12 0.
-481.005 -1123.58 0.
-599.146 -1399.57 0.
-540.613 -984.783 0.
-80.5512 -709.322 0.
-58.374 -660.159 0.
141.385 -589.526 0.
36.1857 -834.094 0.
-69.014 -1078.66 0.
-288.236 -1204.64 0.
-194.432 -987.332 0.
-100.629 -770.023 0.
96.4383 -695.172 0.
42.6803 -818.939 0.
-11.0778 -942.706 0.
-571.833 -1104.01 0.
-521.201 -983.562 0.
-238.884 -776.8 0.
-240.551 -780.452 0.
-242.218 -784.103 0.
-100.182 -752.686 0.
-141.954 -851.328 0.
-183.727 -949.971 0.
-304.807 -927.824 0.
-204.955 -694.348 0.
-105.104 -460.871 0.
-48.8236 -524.546 0.
-135.836 -729.015 0.
316.685 -701.703 0.
-550.236 -930.069 0.
-472.221 -748.606 0.
-200.875 -550.465 0.
-280.462 -738.506 0.
-360.05 -926.547 0.
-227.713 -928.095 0.
-194.129 -851.656 0.
-160.544 -775.216 0.
-606.991 -922.714 0.
-591.929 -887.244 0.
-576.868 -851.774 0.
-757.778 -1002.42 0.
-803.814 -1109.4 0.
-484.907 -1027.29 0.
-366.31 -750.925 0.
-247.712 -474.56 0.
-293.322 -421.327 0.
-413.256 -702.056 0.
-533.191 -982.786 0.
-337.534 -847.708 0.
-192.745 -512.861 0.
-47.9555 -178.013 0.
-441.296 -436.729 0.
-544.31 -676.596 0.
-569.412 -882.466 0.
-517.035 -811.715 0.
-491.853 -752.47 0.
-391.845 -673.542 0.
-392.639 -676.233 0.
-393.434 -678.924 0.
-319.618 -607.432 0.
-272.617 -498.477 0.
-225.616 -389.521 0.
-88.9469 -409.364 0.
-173.145 -604.881 0.
-257.344 -800.398 0.
-408.752 -787.371 0.
-354.219 -659.352 0.
-428.749 -609.518 0.
-469.383 -703.273 0.
-510.016 -797.028 0.
-485.886 -841.498 0.
-495.065 -861.982 0.
-504.244 -882.465 0.
-384.528 -814.457 0.
-363.439 -762.996 0.
-342.349 -711.534 0.
-289.57 -761.464 0.
-343.64 -886.398 0.
161.902 -769.95 0.
-234.526 -922.034 0.
-226.085 -901.12 0.
-477.517 -963.441 0.
-400.588 -785.053 0.
-323.658 -606.666 0.
22.9839 -488.34 0.
-105.213 -786.747 0.
-233.411 -1085.15 0.
-336.741 -1136.76 0.
-278.914 -1003.45 0.
-221.086 -870.146 0.
-345.872 -1007.79 0.
-401.332 -1137.38 0.
-74.5759 -1077.23 0.
-23.9044 -959.569 0.
26.7672 -841.906 0.
160.543 -759.472 0.
103.632 -891.603 0.
46.7215 -1023.73 0.
-171.834 -1091.13 0.
-100.251 -923.071 0.
-28.6682 -755.009 0.
-198.474 -971.501 0.
-317.104 -1247 0.
-279.228 -804.614 0.
-74.2265 -758.276 0.
-80.8756 -771.527 0.
95.1169 -649.743 0.
226.677 -343.932 0.
358.237 -38.1211 0.
27.4108 -192.049 0.
-149.055 -601.857 0.
-325.52 -1011.66 0.
2.11849 -896.67 0.
70.01 -738.771 0.
137.901 -580.872 0.
-490.504 -805.025 0.
-470.588 -759.14 0.
-215.524 -630.908 0.
-289.212 -802.055 0.
-362.9 -973.202 0.
-178.443 -963.83 0.
-143.977 -882.827 0.
-109.51 -801.825 0.
-130.46 -749.499 0.
-97.233 -673.514 0.
-64.0063 -597.529 0.
-73.2779 -550.481 0.
-47.8304 -490.452 0.
-126.681 -474.458 0.
-436.861 -553.386 0.
-407.689 -487.999 0.
-193.183 -362.037 0.
-206.907 -391.543 0.
-220.632 -421.048 0.
-67.9402 -372.013 0.
-75.958 -389.353 0.
-83.9759 -406.693 0.
-427.619 -611.444 0.
-464.851 -698.166 0.
-502.083 -784.888 0.
-642.514 -706.745 0.
-558.718 -510.91 0.
-128.525 -207.364 0.
-239.592 -466.103 0.
-350.658 -724.842 0.
-461.437 -892.96 0.
-427.867 -815.868 0.
-394.296 -738.776 0.
-361.46 -665.638 0.
-332.623 -596.316 0.
-303.785 -526.993 0.
-479.177 -619.68 0.
-499.17 -665.188 0.
-563.726 -730.196 0.
-450.495 -766.909 0.
-494.958 -871.357 0.
-485.689 -928.233 0.
-474.143 -901.484 0.
-462.597 -874.735 0.
-363.237 -813.969 0.
-354.903 -794.414 0.
-346.57 -774.86 0.
-247.096 -668.007 0.
-201.67 -562.929 0.
-156.244 -457.851 0.
-390.013 -658.789 0.
-452.343 -806.157 0.
-559.1 -936.762 0.
-465.658 -718.673 0.
-372.216 -500.585 0.
-363.743 -416.714 0.
-423.842 -557.056 0.
-483.94 -697.398 0.
-277.634 -639.149 0.
-257.503 -594.233 0.
-237.371 -549.317 0.
-299.853 -582.265 0.
-309.686 -606.069 0.
-633.286 -764.165 0.
-47.4859 -593.278 0.
-88.6249 -690.63 0.
-451.141 -902.048 0.
-437.071 -868.171 0.
-423 -834.293 0.
39.8177 -611.73 0.
49.9387 -589.942 0.
60.0595 -568.153 0.
-270.062 -762.899 0.
-317.091 -869.999 0.
-364.119 -977.099 0.
-320.789 -863.691 0.
-261.627 -725.877 0.
96.5772 -487.273 0.
40.9895 -616.594 0.
-14.5981 -745.915 0.
94.384 -774.566 0.
84.7442 -796.385 0.
75.1043 -818.205 0.
-170.312 -975.786 0.
-214.81 -1079.93 0.
-259.308 -1184.07 0.
-211.108 -1211.49 0.
-229.906 -1254.45 0.
115.704 -604.031 0.
18.7638 -687.145 0.
12.521 -700.809 0.
-57.3971 -683.155 0.
74.2005 -377.546 0.
205.798 -71.937 0.
8.26884 -167.611 0.
-167.644 -578.15 0.
-343.558 -988.69 0.
-184.4 -944.826 0.
-116.499 -787.001 0.
-48.598 -629.177 0.
-404.001 -736.598 0.
-383.642 -690.9 0.
-185.729 -586.409 0.
-259.446 -757.666 0.
-333.164 -928.922 0.
-189.745 -937.1 0.
-155.205 -856.093 0.
-120.665 -775.087 0.
87.8839 -625.682 0.
121.053 -549.62 0.
154.222 -473.557 0.
-211.429 -577.951 0.
-185.911 -518.026 0.
-787.786 -726.293 0.
-303.56 -464.435 0.
-274.348 -398.811 0.
-218.417 -341.21 0.
-231.727 -370.989 0.
-245.037 -400.768 0.
-348.273 -461.25 0.
-356.429 -478.569 0.
-364.585 -495.888 0.
-248.685 -502.244 0.
-285.857 -589.129 0.
-323.029 -676.015 0.
-621.219 -666.891 0.
-537.559 -470.666 0.
-187.582 -200.684 0.
-298.408 -459.601 0.
-409.233 -718.517 0.
-489.037 -873.821 0.
-455.444 -796.826 0.
-421.85 -719.832 0.
-467.225 -679.311 0.
-438.146 -610.405 0.
-409.068 -541.499 0.
-375.866 -543.688 0.
-395.739 -589.421 0.
-763.768 -784.236 0.
-391.718 -710.252 0.
-436.211 -814.663 0.
-444.349 -879.816 0.
-433.135 -852.652 0.
-421.922 -825.487 0.
-340.061 -773.435 0.
-331.611 -753.931 0.
-323.161 -734.426 0.
-326.122 -670.941 0.
-280.932 -565.783 0.
-235.742 -460.624 0.
-478.29 -664.812 0.
-540.688 -812.191 0.
-538.81 -897.102 0.
-445.51 -678.831 0.
-352.21 -460.561 0.
-273.98 -347.674 0.
-334.195 -487.835 0.
-394.41 -627.997 0.
-249.214 -596.185 0.
-229.135 -551.14 0.
-209.056 -506.094 0.
-342.999 -568.849 0.
-352.987 -592.578 0.
-414.633 -639.55 0.
-19.2859 -550.253 0.
-60.4383 -647.598 0.
-332.03 -818.844 0.
-317.88 -784.895 0.
-303.73 -750.946 0.
-29.7031 -609.75 0.
-19.5388 -587.961 0.
-9.37467 -566.173 0.
-270.811 -731.94 0.
-318.02 -838.897 0.
-365.229 -945.854 0.
-283.645 -817.131 0.
-224.818 -679.217 0.
86.2255 -460.535 0.
30.6279 -589.88 0.
-24.9697 -719.224 0.
-20.474 -792.177 0.
-30.2791 -813.761 0.
-40.0842 -835.344 0.
-210.539 -962.048 0.
-254.891 -1066.27 0.
-299.244 -1170.49 0.
-232.866 -1189.16 0.
-251.701 -1231.9 0.
718.053 76.7128 0.
109 -620.115 0.
271.164 -241.198 0.
94.9755 -10.6395 0.
399.453 701.18 0.
379.66 656.454 0.
198.478 342.615 0.
-216.895 -627.247 0.
-29.1683 -189.988 0.
5.30057 -114.238 0.
-8.2747 -144.681 0.
154.494 236.245 0.
-79.8701 -120.167 0.
-391.752 -847.903 0.
-269.057 -804.517 0.
163.282 205.426 0.
88.396 32.1257 0.
79.4794 -255.94 0.
498.751 723.116 0.
248.031 138.733 0.
452.09 -163.934 0.
657.165 313.163 0.
829.212 713.14 0.
-309.829 -516.283 0.
-327.068 -556.705 0.
300.659 400.114 0.
319.911 765.921 0.
58.4768 155.734 0.
48.612 357.24 0.
17.7975 285.722 0.
-70.4686 80.4305 0.
-313.45 186.645 0.
-172.453 516.011 0.
-104.624 674.678 0.
275.317 411.767 0.
-35.5688 -314.801 0.
248.84 347.784 0.
-141.055 440.743 0.
-320.4 21.6072 0.
-109.753 121.926 0.
-254.556 -215.004 0.
-200.812 -88.8193 0.
-67.4407 190.364 0.
89.3462 556.03 0.
156.469 712.533 0.
93.343 861.006 0.
-195.716 186.613 0.
-300.829 -58.585 0.
100.284 398.711 0.
336.231 950.204 0.
-329.731 564.109 0.
117.246 402.941 0.
47.009 237.877 0.
-28.7495 48.8049 0.
-24.6006 59.3391 0.
149.505 466.152 0.
67.4434 161.071 0.
14.773 38.0947 0.
-43.988 -98.9289 0.
-119.191 -8.70864 0.
-90.0759 59.388 0.
-23.1881 215.641 0.
-371.084 -222.189 0.
-256.855 43.8881 0.
-486.878 -785.903 0.
-341.88 -447.826 0.
-96.0466 125.63 0.
45.5188 258.844 0.
-51.5381 32.259 0.
126.254 447.028 0.
33.2186 40.0354 0.
244.859 533.375 0.
542.558 1227.13 0.
113.77 606.111 0.
27.5717 404.382 0.
499.446 -430.763 0.
372.972 341.394 0.
201.07 -59.1191 0.
144.356 99.4198 0.
88.3376 -32.5836 0.
-11.6057 -267.075 0.
52.234 -254.149 0.
-15.4229 -411.634 0.
235.917 175.792 0.
-17.364 -109.501 0.
-239.751 -627.259 0.
-351.851 -887.599 0.
160.841 178.856 0.
260.454 415.802 0.
-196.497 -1071.31 0.
26.3287 -549.697 0.
-127.791 -907.712 0.
-262.197 -1106.25 0.
146.33 -154.134 0.
367.7 360.667 0.
307.186 355.856 0.
463.633 722.432 0.
-385.679 -1258.91 0.
40.0778 -486.338 0.
-114.939 -849.548 0.
101.945 -995.541 0.
201.761 -778.512 0.
280.274 -595.15 0.
-40.7874 -633.331 0.
-73.4103 -709.532 0.
-106.033 -785.733 0.
-461.968 -966.729 0.
-457.436 -954.142 0.
-452.904 -941.554 0.
-166.535 -770.831 0.
-129.122 -683.453 0.
-91.7082 -596.075 0.
-396.106 -768.791 0.
-426.465 -839.426 0.
-318.685 -832.895 0.
-267.165 -713.177 0.
-215.646 -593.458 0.
-13.4687 -458.998 0.
-36.8421 -512.829 0.
-60.2154 -566.659 0.
63.5078 -590.678 0.
3.89472 -729.876 0.
-55.7186 -869.073 0.
-433.364 -903.901 0.
-328.254 -658.26 0.
662.717 -33.1862 0.
-235.4 -413.63 0.
-233.649 -407.698 0.
-362.988 -472.15 0.
-397.813 -552.905 0.
-432.638 -633.661 0.
-468.618 -617.398 0.
-384.897 -422.961 0.
-301.176 -228.523 0.
-90.4889 -114.802 0.
-118.33 -179.2 0.
-146.172 -243.598 0.
-462.073 -496.806 0.
-526.604 -647.876 0.
-461.408 -723.44 0.
-430.28 -649.91 0.
-399.152 -576.379 0.
-395.011 -518.861 0.
-370.885 -461.87 0.
-346.759 -404.878 0.
-393.827 -475.39 0.
-460.633 -630.629 0.
-527.439 -785.868 0.
-308.484 -768.308 0.
-341.009 -844.588 0.
654.652 -481.776 0.
-511.85 -826.39 0.
-430.02 -635.928 0.
-188.477 -438.323 0.
-255.159 -593.685 0.
-321.841 -749.047 0.
-363.252 -781.189 0.
-297.109 -625.733 0.
-230.965 -470.277 0.
-286.902 -442.53 0.
-278.954 -425.232 0.
-271.005 -407.934 0.
-552.862 -517.232 0.
-546.943 -503.573 0.
-161.364 -333.446 0.
-183.947 -387.246 0.
-206.531 -441.046 0.
-334.141 -534.999 0.
-351.903 -576.415 0.
-369.665 -617.831 0.
-381.187 -638.033 0.
-381.703 -635.391 0.
-382.219 -632.749 0.
-318.31 -655.157 0.
-354.164 -739.301 0.
27.98 -643.677 0.
-226.785 -682.389 0.
-189.911 -595.347 0.
-150.868 -537.732 0.
-177.597 -600.861 0.
-204.325 -663.99 0.
-258.363 -762.766 0.
-314.87 -893.298 0.
-371.378 -1023.83 0.
-284.238 -976.337 0.
-248.316 -894.314 0.
-212.395 -812.29 0.
-383.101 -969.731 0.
-437.186 -1094.68 0.
-238.588 -1091.29 0.
-207.367 -1016.4 0.
-176.145 -941.514 0.
-167.215 -873.406 0.
-131.493 -790.528 0.
-95.7709 -707.649 0.
-175.502 -753.85 0.
-213.618 -842.88 0.
-251.734 -931.909 0.
-220.164 -1012.14 0.
-273.934 -1138.7 0.
195.373 -924.348 0.
414.79 -656.45 0.
493.321 -473.059 0.
138.367 -524.784 0.
105.911 -601.195 0.
73.4545 -677.606 0.
-570.465 -981.767 0.
-565.768 -969.37 0.
-561.071 -956.973 0.
-14.9518 -673.727 0.
22.5751 -586.323 0.
60.1022 -498.919 0.
-425.942 -750.694 0.
-456.269 -821.342 0.
-348.526 -813.969 0.
-296.876 -694.424 0.
-245.227 -574.878 0.
-3.98851 -423.194 0.
-27.2911 -476.995 0.
-50.5937 -530.796 0.
-173.999 -661.176 0.
-233.268 -800.611 0.
-292.537 -940.046 0.
-363.525 -842.486 0.
-258.453 -596.652 0.
322.107 -147.417 0.
-283.514 -403.12 0.
-281.56 -397.405 0.
-414.859 -462.874 0.
-449.802 -543.572 0.
-484.745 -624.269 0.
-220.138 -479.751 0.
-136.572 -285.107 0.
-53.0061 -90.4638 0.
-244.207 -149.322 0.
-272.18 -213.721 0.
-300.153 -278.121 0.
-345.658 -415.713 0.
-410.03 -566.982 0.
-431.637 -678.512 0.
-400.433 -605.025 0.
-369.229 -531.538 0.
-405.761 -492.074 0.
-381.439 -435.299 0.
-357.118 -378.523 0.
-274.001 -392.466 0.
-340.622 -547.997 0.
-407.242 -703.529 0.
-179.572 -681.617 0.
-211.83 -758.146 0.
143.85 -668.181 0.
-622.495 -841.809 0.
-540.315 -651.827 0.
-111.692 -374.274 0.
-178.321 -529.789 0.
-244.95 -685.304 0.
-380.191 -757.045 0.
-313.691 -601.851 0.
-247.19 -446.658 0.
-248.155 -394.474 0.
-240.102 -377.327 0.
-232.048 -360.179 0.
-604.032 -507.256 0.
-597.877 -493.802 0.
16.2023 -226.35 0.
-6.54049 -280.013 0.
-29.2834 -333.677 0.
-365.516 -517.496 0.
-383.419 -558.66 0.
-401.322 -599.825 0.
-518.464 -666.041 0.
-519.095 -663.441 0.
-519.725 -660.84 0.
-170.198 -560.609 0.
-205.995 -644.791 0.
41.1059 -606.603 0.
-406.788 -727.313 0.
-369.895 -640.055 0.
-162.525 -512.389 0.
-189.203 -575.244 0.
-215.881 -638.098 0.
-356.225 -773.478 0.
-412.452 -904.171 0.
-468.679 -1034.86 0.
-138.97 -882.996 0.
-102.992 -800.974 0.
-67.0144 -718.952 0.
-428.912 -957.777 0.
-482.774 -1082.81 0.
-263.99 -1069.79 0.
-232.66 -995.076 0.
-201.33 -920.362 0.
-157.063 -838.478 0.
-121.676 -755.223 0.
-86.2896 -671.967 0.
-167.751 -718.898 0.
-205.782 -808.039 0.
-243.813 -897.18 0.
-246.515 -992.681 0.
-300.43 -1119.07 0.
40.9711 -752.644 0.
486.291 -497.668 0.
528.258 -399.242 0.
193.552 -465.209 0.
233.073 -372.888 0.
272.594 -280.567 0.
-349.971 -480.072 0.
-321.113 -414.491 0.
-292.255 -348.91 0.
178.291 -208.828 0.
116.181 -353.481 0.
54.0708 -498.134 0.
-422.576 -723.242 0.
-427.417 -734.93 0.
-324.863 -691.748 0.
-281.278 -589.728 0.
-237.693 -487.708 0.
9.33221 -328.282 0.
3.95706 -341.792 0.
-1.41798 -355.301 0.
-172.732 -448.002 0.
-181.47 -468.481 0.
-190.209 -488.96 0.
-216.171 -484.592 0.
-203.381 -456.129 0.
244.629 -240.654 0.
-319.577 -554.292 0.
-358.446 -643.463 0.
-546 -752.618 0.
-479.337 -598.066 0.
-412.675 -443.514 0.
-133.876 -264.5 0.
-145.433 -291.5 0.
-156.99 -318.501 0.
-336.183 -433.52 0.
-357.83 -485.4 0.
-379.476 -537.28 0.
-374.102 -507.906 0.
-357.135 -466.767 0.
-307.697 -413.591 0.
-299.446 -394.944 0.
-291.194 -376.296 0.
-391.475 -387.408 0.
-357.689 -308.544 0.
-323.904 -229.68 0.
-97.6362 -128.186 0.
-121.419 -183.918 0.
-145.202 -239.649 0.
61.3832 -97.5754 0.
105.74 6.19134 0.
-749.127 -274.933 0.
-227.503 -62.7207 0.
-234.185 -76.8672 0.
-26.7472 -25.51 0.
-99.9732 -196.532 0.
-173.199 -367.553 0.
-263.613 -483.04 0.
-264.735 -485.2 0.
-265.858 -487.36 0.
-333.755 -539.369 0.
-350.937 -578.662 0.
-368.12 -617.955 0.
-548.079 -591.961 0.
-485.002 -442.88 0.
81.6068 -102.854 0.
23.2474 -238.441 0.
-35.1118 -374.028 0.
-511.97 -627.68 0.
-468.211 -526.627 0.
-424.451 -425.574 0.
-394.961 -382.56 0.
-404.932 -409.069 0.
-414.902 -435.578 0.
-59.7777 -306.262 0.
-68.9312 -326.849 0.
384.985 -148.405 0.
-421.725 -609.726 0.
-480.574 -750.236 0.
-306.974 -749.15 0.
-272.294 -667.559 0.
-237.614 -585.968 0.
-204.622 -484.404 0.
-144.322 -344.055 0.
-84.0227 -203.706 0.
176.713 -107.572 0.
132.17 -209.609 0.
87.6269 -311.645 0.
-251.279 -502.871 0.
-272.461 -552.5 0.
-53.3246 -500.535 0.
-88.5921 -583.789 0.
-123.86 -667.043 0.
-19.4575 -643.83 0.
12.7445 -568.735 0.
44.9468 -493.641 0.
-156.626 -564.82 0.
-169.078 -593.72 0.
-181.529 -622.621 0.
-85.6536 -523.847 0.
-41.0752 -419.59 0.
-179.912 -815.419 0.
307.372 -542.739 0.
349.055 -444.147 0.
115.101 -467.758 0.
154.57 -375.396 0.
194.04 -283.033 0.
-189.886 -380.409 0.
-161.207 -314.625 0.
-132.528 -248.842 0.
43.3215 -235.465 0.
-18.6088 -380.281 0.
-80.539 -525.098 0.
-377.458 -672.236 0.
-382.239 -683.975 0.
-338.31 -665.745 0.
-294.711 -563.799 0.
-251.113 -461.852 0.
-28.3056 -313.441 0.
-33.7919 -326.855 0.
-39.2782 -340.27 0.
-120.281 -393.324 0.
-128.959 -413.744 0.
-137.637 -434.165 0.
-267.258 -475.216 0.
-254.524 -446.633 0.
-468.548 -514.619 0.
-161.867 -455.534 0.
-200.613 -544.69 0.
-476.477 -690.883 0.
-409.704 -536.418 0.
-342.931 -381.953 0.
-361.363 -331.28 0.
-373.119 -358.205 0.
-384.875 -385.129 0.
-78.2716 -291.229 0.
-99.8868 -343.216 0.
-121.502 -395.204 0.
-427.309 -498.995 0.
-410.237 -457.925 0.
-277.009 -368.6 0.
-268.795 -350.007 0.
-260.582 -331.413 0.
-425.121 -370.382 0.
-391.48 -291.495 0.
-357.839 -212.608 0.
-32.4772 -68.9696 0.
-56.4433 -124.674 0.
-80.4094 -180.379 0.
-53.0733 -115.331 0.
-8.76 -11.4561 0.
-557.733 -160.968 0.
53.0622 89.4321 0.
46.3944 75.1585 0.
-227.35 -81.2836 0.
-300.798 -251.982 0.
-374.246 -422.681 0.
-222.518 -433.905 0.
-223.359 -436.077 0.
-224.201 -438.249 0.
-397.132 -534.797 0.
-413.956 -574.214 0.
-430.779 -613.631 0.
-236.849 -427.324 0.
-173.453 -278.426 0.
-34.6854 -120.382 0.
-92.8816 -256.11 0.
-151.078 -391.838 0.
-686.326 -671.116 0.
-642.803 -569.873 0.
-599.281 -468.63 0.
-211.66 -272.924 0.
-222.133 -299.037 0.
-232.605 -325.15 0.
-170.434 -322.34 0.
-179.4 -343.116 0.
-11.2049 -287.041 0.
-368.107 -555.247 0.
-427.042 -695.615 0.
-369.336 -744.583 0.
-334.406 -663.092 0.
-299.476 -581.602 0.
-8.8196 -368.672 0.
51.8143 -228.239 0.
112.448 -87.8061 0.
17.385 -144.727 0.
-26.7656 -246.573 0.
-70.9155 -348.418 0.
-213.661 -454.805 0.
-235.093 -503.894 0.
-69.2595 -476.114 0.
-104.581 -559.202 0.
-139.903 -642.29 0.
138.992 -545.555 0.
171.224 -470.427 0.
203.457 -395.299 0.
-274.761 -584.234 0.
-286.913 -613.296 0.
-299.065 -642.359 0.
-118.52 -506.913 0.
-73.1736 -402.794 0.
-89.4471 -641.07 0.
152.034 -528.65 0.
84.498 -688.039 0.
333.845 222.746 0.
240.158 4.46893 0.
171.554 -154.873 0.
-3.02428 -220.514 0.
179.51 206.618 0.
280.679 443.785 0.
-57.5714 -185.167 0.
-295.333 -741.589 0.
-167.829 -445.339 0.
-93.4802 -59.0961 0.
-184.13 -270.593 0.
-144.873 -157.176 0.
47.4717 292.397 0.
30.8507 254.5 0.
65.2334 4.9995 0.
-142.015 -479.025 0.
358.019 687.004 0.
176.27 231.968 0.
-171.097 -579.718 0.
374.54 692.199 0.
-179.744 -139.089 0.
-244.061 -290.778 0.
-101.404 453.741 0.
348.604 466.7 0.
369.029 514.246 0.
-159.083 -53.5614 0.
-237.954 -237.384 0.
-4.33571 307.971 0.
-270.411 342.3 0.
-118.692 696.125 0.
-351.705 152.378 0.
421.195 415.718 0.
331.428 206.047 0.
113.161 -303.478 0.
-6.36473 614.502 0.
-76.442 451.891 0.
-20.1229 206.875 0.
-112.561 -10.2172 0.
58.6821 387.925 0.
-86.159 514.688 0.
-140.907 389.315 0.
-144.147 384.155 0.
313.638 650.307 0.
305.528 631.334 0.
-71.5287 -248.549 0.
-349.801 -557.279 0.
-231.946 -281.796 0.
693.385 326.668 0.
424.697 456.977 0.
468.561 559.246 0.
-340.404 62.4637 0.
-316.885 117.879 0.
-403.51 -83.2844 0.
-6.36095 24.3225 0.
-20.4534 -10.9664 0.
134.728 348.806 0.
-210.7 50.769 0.
-270.891 -90.9096 0.
-190.134 96.1472 0.
-148.52 -779.141 0.
83.1288 -239.326 0.
-147.65 -130.136 0.
7.60614 232.42 0.
-47.4827 104.175 0.
-533.114 45.8267 0.
-260.708 681.504 0.
-142.76 956.9 0.
237.439 458.304 0.
54.9127 31.0775 0.
12.182 -69.6542 0.
-177.322 -95.5031 0.
-279.334 -332.047 0.
-587.453 -999.045 0.
-253.512 -359.761 0.
-416.494 -740.404 0.
-171.827 -136.831 0.
-372.371 -603.591 0.
-379.854 -619.782 0.
174.806 -279.427 0.
496.23 470.107 0.
135.502 -372.121 0.
-234.437 -397.853 0.
-322.788 -603.108 0.
-303.442 -557.158 0.
75.7038 185.743 0.
38.5194 99.2217 0.
142.47 81.9279 0.
247.918 327.776 0.
206.679 231.312 0.
408.798 -194.097 0.
234.71 -599.057 0.
541.217 117.346 0.
-132.537 3.03191 0.
-334.799 -469.19 0.
-1.11138 309.34 0.
21.9339 -92.316 0.
25.9432 -78.9704 0.
567.481 -383.236 0.
31.8161 -586.412 0.
29.34 -592.859 0.
-120.689 -678.548 0.
-165.812 -784.262 0.
-210.935 -889.975 0.
-198.888 -868.868 0.
-122.779 -690.694 0.
-46.6711 -512.519 0.
-285.991 -509.781 0.
-242.181 -408.07 0.
-198.371 -306.358 0.
-229.737 -321.112 0.
-234.446 -333.155 0.
-148.337 -319.09 0.
-202.789 -446.575 0.
-257.242 -574.06 0.
-123.186 -559.366 0.
-81.2734 -461.564 0.
-39.3612 -363.762 0.
-106.067 -266.626 0.
-24.0508 -75.1512 0.
57.9656 116.323 0.
-230.188 -15.6013 0.
-256.587 -77.328 0.
1.19235 -16.7777 0.
77.7325 -142.231 0.
-6.58776 -339.188 0.
-334.975 -570.83 0.
-248.268 -367.651 0.
-161.561 -164.472 0.
-396.215 -241.656 0.
-480.817 -439.916 0.
-565.418 -638.176 0.
-50.3779 -429.855 0.
-18.6894 -353.893 0.
12.9992 -277.931 0.
-518.762 -527.862 0.
-534.284 -565.089 0.
-260.861 -478.902 0.
-278.02 -517.659 0.
-295.179 -556.417 0.
-518.543 -648.556 0.
-481.29 -562.482 0.
-444.037 -476.408 0.
-48.1638 -238.42 0.
-11.2629 -152.406 0.
25.638 -66.3915 0.
-335.288 -250.178 0.
-366.335 -322.722 0.
-443.553 -415.324 0.
122.876 -306.278 0.
52.9227 -470.046 0.
-586.004 -812.89 0.
-501.721 -617.073 0.
-417.439 -421.255 0.
-157.556 -250.159 0.
-190.693 -326.853 0.
-223.829 -403.548 0.
-207.737 -376.004 0.
-175.538 -299.48 0.
-143.338 -222.956 0.
-102.082 -244.618 0.
-129.339 -309.073 0.
-234.055 -396.615 0.
-206.572 -334.355 0.
-179.088 -272.095 0.
-616.206 -380.03 0.
-548.787 -222.264 0.
-481.368 -64.498 0.
-224.369 -9.16867 0.
-324.712 -245.348 0.
-425.055 -481.527 0.
-176.624 -324.44 0.
-115.837 -182.886 0.
-58.9093 -44.0848 0.
-290.222 -302.068 0.
-373.952 -496.778 0.
-348.777 -591.058 0.
-306.225 -491.231 0.
-263.672 -391.405 0.
201.247 -224.172 0.
111.156 -433.295 0.
21.0657 -642.419 0.
-462.741 -852.43 0.
-419.218 -750.821 0.
-375.695 -649.213 0.
-202.002 -558.013 0.
-199.76 -553.634 0.
-96.8307 -515.383 0.
-136.397 -607.488 0.
-175.963 -699.593 0.
96.2646 -631.63 0.
97.3364 -628.076 0.
98.408 -624.522 0.
-317.068 -692.098 0.
-213.732 -450.475 0.
-110.396 -208.853 0.
-33.5756 -576.257 0.
-335.085 -1277.16 0.
248.073 -490.143 0.
-71.0877 -599.343 0.
-73.7774 -605.548 0.
-186.68 -675.835 0.
-231.908 -781.535 0.
-277.135 -887.236 0.
-81.3337 -787.074 0.
-5.03786 -609.09 0.
71.2578 -431.106 0.
-378.142 -517.48 0.
-334.327 -415.957 0.
-290.512 -314.434 0.
-245.139 -296.353 0.
-249.962 -308.307 0.
-48.7036 -245.026 0.
-103.016 -372.746 0.
-157.329 -500.466 0.
-40.5623 -491.821 0.
1.27837 -393.936 0.
43.119 -296.052 0.
-175.144 -265.109 0.
-92.9956 -73.8463 0.
-10.8471 117.417 0.
-340.937 -31.842 0.
-367.26 -93.6363 0.
-545.057 -220.078 0.
78.3853 -110.454 0.
-5.8342 -307.498 0.
-262.48 -508.176 0.
-175.856 -304.98 0.
-89.2312 -101.784 0.
-227.513 -137.877 0.
-311.988 -336.202 0.
-396.464 -534.526 0.
-169.262 -450.112 0.
-137.733 -374.043 0.
-106.204 -297.975 0.
-528.678 -499.818 0.
-544.243 -536.878 0.
-180.301 -413.794 0.
-197.488 -452.519 0.
-214.675 -491.245 0.
-418.567 -573.774 0.
-381.338 -487.694 0.
-344.109 -401.614 0.
-7.00933 -188.937 0.
29.8321 -102.829 0.
66.6735 -16.7211 0.
-459.599 -272.726 0.
-490.95 -345.008 0.
-2275 -1168.46 0.
172.669 -253.184 0.
102.858 -417.077 0.
-411.502 -707.131 0.
-326.93 -511.515 0.
-242.357 -315.898 0.
-179.864 -228.099 0.
-212.762 -304.971 0.
-245.659 -381.842 0.
32.3961 -241.557 0.
64.9699 -165.137 0.
97.5437 -88.7168 0.
-309.472 -302.419 0.
-336.498 -367.113 0.
-181.434 -341.337 0.
-153.858 -279.234 0.
-126.283 -217.131 0.
-477.255 -288.815 0.
-409.846 -130.99 0.
-342.436 26.8361 0.
-529.336 -108.926 0.
-629.627 -344.998 0.
-729.918 -581.071 0.
-39.5726 -234.584 0.
21.5476 -93.0352 0.
623.554 279.705 0.
-348.206 -295.539 0.
-431.613 -490.415 0.
-310.459 -542.443 0.
-267.547 -442.769 0.
-224.635 -343.095 0.
220.512 -183.106 0.
130.539 -392.276 0.
40.565 -601.446 0.
-484.981 -830.787 0.
-441.642 -728.831 0.
-398.302 -626.875 0.
-134.26 -497.763 0.
-131.812 -493.523 0.
-62.7512 -469.45 0.
-102.245 -561.574 0.
-141.739 -653.697 0.
-39.898 -658.587 0.
-39.0427 -654.933 0.
-38.1875 -651.279 0.
-161.28 -593.703 0.
-57.8898 -352.046 0.
45.5 -110.389 0.
169.111 -459.267 0.
-132.329 -1159.99 0.
-67.4877 -489.585 0.
11.2278 -354.712 0.
88.0288 -177.024 0.
31.4224 -100.3 0.
7.46649 -156.606 0.
-16.4895 -212.911 0.
161.959 -217.249 0.
96.9004 -367.468 0.
31.8421 -517.687 0.
-488.882 -699.352 0.
-426.205 -552.303 0.
-363.528 -405.254 0.
-329.071 -421.91 0.
-354.989 -481.288 0.
-76.418 -405.543 0.
-92.066 -441.956 0.
-107.714 -478.369 0.
-96.8746 -487.631 0.
-84.2784 -459.758 0.
-71.6824 -431.885 0.
-215.91 -413.962 0.
-149.004 -259.379 0.
-82.0987 -104.796 0.
-317.858 -203.567 0.
-334.867 -243.142 0.
-170.881 -205.056 0.
-63.5249 -132.382 0.
-49.3919 -97.88 0.
-81.4921 -99.9038 0.
-117.434 -184.422 0.
-153.376 -268.941 0.
-299.815 -363.536 0.
-287.838 -334.911 0.
-275.861 -306.286 0.
-169.916 -286.411 0.
-194.873 -346.071 0.
-219.83 -405.73 0.
-461.005 -522.956 0.
-466.522 -536.029 0.
-203.203 -422.372 0.
-147.55 -292.875 0.
-91.897 -163.377 0.
-113.999 -106.634 0.
-119.581 -119.116 0.
-125.163 -131.597 0.
-22.4326 -63.6993 0.
4.11897 -2.45354 0.
30.6706 58.7923 0.
-404.551 -141.281 0.
-421.976 -182.188 0.
-1665.51 -749.346 0.
336.141 98.5823 0.
330.906 86.5544 0.
-79.6704 -122.068 0.
-136.684 -254.676 0.
-193.698 -387.284 0.
-266.833 -452.081 0.
-234.064 -376.416 0.
-201.295 -300.75 0.
43.9827 -239.097 0.
-7.87079 -360.681 0.
-59.7242 -482.266 0.
-469.74 -509.448 0.
-376.231 -288.73 0.
9.68293 50.0946 0.
62.019 175.219 0.
114.355 300.344 0.
-279.011 123.143 0.
-391.985 -140.903 0.
-504.96 -404.95 0.
-786.268 -613.518 0.
-784.467 -608.726 0.
-782.667 -603.933 0.
-84.8974 -383.081 0.
-135.923 -499.077 0.
925.986 -132.696 0.
-498.179 -531.677 0.
-387.874 -272.117 0.
-84.4015 -28.5257 0.
-204.429 -307.627 0.
-324.457 -586.729 0.
90.3699 -500.248 0.
130.941 -405.23 0.
171.512 -310.212 0.
-345.499 -553.297 0.
-386.782 -648.408 0.
-428.065 -743.52 0.
-153.223 -587.032 0.
-124.343 -518.05 0.
-59.9592 -434.218 0.
-34.4054 -372.594 0.
-8.85177 -310.971 0.
5.96039 -311.678 0.
-56.1516 -457.81 0.
-118.264 -603.942 0.
-133.359 -653.404 0.
-123.024 -629.104 0.
-112.69 -604.803 0.
333.271 -95.6707 0.
545.219 396.793 0.
-618.863 -694 0.
91.8301 -288.993 0.
168.665 -111.174 0.
62.2854 -55.2419 0.
38.3673 -111.615 0.
14.4491 -167.987 0.
72.2215 -223.671 0.
7.21684 -374.027 0.
-57.788 -524.383 0.
-445.326 -650.022 0.
-382.743 -502.837 0.
-320.159 -355.652 0.
-359.044 -403.182 0.
-384.851 -462.782 0.
-45.5167 -361.802 0.
-61.3453 -398.114 0.
-77.1739 -434.426 0.
-289.288 -538.547 0.
-276.644 -510.688 0.
-264.001 -482.828 0.
-58.665 -315.604 0.
8.30721 -161.09 0.
75.2794 -6.575 0.
63.4795 -9.49923 0.
46.4418 -49.0262 0.
68.1659 -71.3697 0.
-355.277 -225.374 0.
-341.104 -190.983 0.
-105.563 -79.5177 0.
-141.633 -163.845 0.
-177.703 -248.173 0.
-372.911 -363.504 0.
-360.843 -334.973 0.
-348.776 -306.442 0.
-187.347 -262.613 0.
-212.454 -322.182 0.
-237.56 -381.753 0.
-230.108 -392.712 0.
-235.492 -406.088 0.
-294.926 -429.855 0.
-239.16 -300.343 0.
-183.394 -170.831 0.
67.5732 3.17101 0.
61.9446 -9.37095 0.
56.3162 -21.9129 0.
-197.179 -107.357 0.
-170.584 -46.1952 0.
-143.988 14.9668 0.
-265.365 -50.5803 0.
-282.898 -91.3925 0.
-1167.24 -504.493 0.
351.415 136.721 0.
346.23 124.857 0.
-22.1147 -65.5531 0.
-78.8773 -198.27 0.
-135.64 -330.987 0.
-192.687 -388.569 0.
-159.906 -312.824 0.
-127.125 -237.078 0.
-128.485 -281.376 0.
-180.372 -402.752 0.
-232.26 -524.127 0.
-406.612 -451.836 0.
-313.14 -231.133 0.
41.2987 95.1987 0.
93.6691 220.086 0.
146.039 344.973 0.
-324.8 135.722 0.
-437.623 -128.609 0.
-550.446 -392.94 0.
-550.341 -481.3 0.
-548.365 -476.606 0.
-546.389 -471.912 0.
-144.609 -376.638 0.
-195.437 -492.675 0.
477.87 -294.127 0.
-532.636 -515.489 0.
-422.518 -255.666 0.
-71.9939 8.58435 0.
-192.051 -270.47 0.
-312.107 -549.524 0.
119.89 -456.304 0.
160.589 -361.268 0.
201.287 -266.231 0.
-242.691 -478.479 0.
-284.019 -573.747 0.
-325.348 -669.015 0.
-147.804 -553.085 0.
-118.641 -484.408 0.
-96.4886 -418.149 0.
-70.9279 -356.574 0.
-45.3674 -295 0.
-72.6973 -314.019 0.
-134.921 -459.989 0.
-197.144 -605.96 0.
-122.144 -617.11 0.
-111.976 -592.582 0.
-101.808 -568.054 0.
178.015 -130.927 0.
389.724 361.987 0.
445.241 -393.878 0.
314.646 114.844 0.
354.735 209.995 0.
114.684 40.8638 0.
102.003 11.7505 0.
70.6754 -61.248 0.
-13.3706 -225.528 0.
42.5772 -93.6925 0.
-80.3851 -379.3 0.
-332.642 -441.245 0.
-238.945 -225.054 0.
-293.87 -355.537 0.
-347.071 -283.706 0.
-525.704 -699.284 0.
232.846 256.507 0.
192.429 164.615 0.
164.059 100.769 0.
-358.207 -301.934 0.
-76.5366 353.879 0.
-46.5739 422.763 0.
270.648 180.387 0.
-311.185 -1178.11 0.
18.4026 -410.547 0.
385.274 43.0382 0.
450.848 196.89 0.
446.01 550.396 0.
-287.538 513.599 0.
-353.845 358.305 0.
251.16 829.582 0.
221.15 759.747 0.
56.8954 376.701 0.
-219.253 163.77 0.
-119.421 395.346 0.
-110.093 415.872 0.
-63.511 85.9319 0.
-224.54 -289.28 0.
-328.517 -531.244 0.
22.7891 -202.839 0.
233.799 288.955 0.
-82.9346 263.578 0.
-53.0746 333.841 0.
-38.3419 368.884 0.
336.508 324.821 0.
248.122 119.768 0.
428.277 541.266 0.
23.5597 766.433 0.
-59.8425 570.943 0.
4.92795 721.202 0.
306.009 1047.37 0.
298.133 1029.19 0.
-647.133 22.36 0.
481.624 450.616 0.
549.037 607.437 0.
291.177 586.778 0.
254.137 499.403 0.
349.567 721.121 0.
403.749 889.947 0.
267.325 571.859 0.
-2.84351 -58.2008 0.
-150.275 25.7614 0.
0.129575 376.465 0.
202.024 847.329 0.
-9.45321 389.452 0.
-332.643 -366.535 0.
-235.324 -575.51 0.
-28.8539 -92.9487 0.
151.728 329.311 0.
-355.38 177.866 0.
-650.976 -512.781 0.
-730.218 -698.455 0.
-214.725 -118.603 0.
-59.9032 242.253 0.
-44.059 278.761 0.
195.037 564.569 0.
30.5331 179.504 0.
1053.67 1441.95 0.
-191.743 376.384 0.
-557.905 -475.373 0.
-467.861 -901.527 0.
-174.649 -217.608 0.
-89.8757 -19.708 0.
501.389 404.994 0.
495.982 393.63 0.
297.814 -68.0482 0.
140.109 253.075 0.
82.3136 117.333 0.
-133.125 -386.344 0.
-43.0331 -287.98 0.
49.3604 -71.8935 0.
32.7265 -13.0013 0.
-95.6314 -312.68 0.
220.596 425.107 0.
29.6392 105.779 0.
-329.318 -732.88 0.
-167.172 -355.489 0.
283.471 339.856 0.
166.45 67.1024 0.
50.8395 -203.228 0.
-26.4657 -282.921 0.
127.295 75.4705 0.
102.062 -68.4457 0.
104.514 -46.1073 0.
106.52 -39.2962 0.
92.5885 -45.1209 0.
80.5508 -73.2142 0.
68.5132 -101.308 0.
-68.4498 -162.56 0.
-56.9224 -136.114 0.
-45.3953 -109.669 0.
-208.33 -226.638 0.
-249.771 -324.604 0.
-291.212 -422.57 0.
-293.023 -455.024 0.
-306.903 -486.385 0.
-26.7372 -388.182 0.
-25.9864 -385.705 0.
-25.2358 -383.227 0.
-268.688 -471.987 0.
-245.329 -418.296 0.
-221.97 -364.604 0.
-234.161 -376.743 0.
-259.883 -434.643 0.
-285.604 -492.543 0.
153.497 -172.973 0.
248.911 49.0233 0.
10.5416 126.398 0.
-364.715 -110.463 0.
-403.595 -203.471 0.
-303.343 -224.972 0.
-312.708 -246.599 0.
-322.074 -268.226 0.
-211.494 -189.189 0.
-163.441 -78.3161 0.
-115.387 32.557 0.
-124.854 54.0862 0.
-127.669 46.9006 0.
-130.484 39.715 0.
13.6029 17.4155 0.
-35.0958 -96.934 0.
-196.839 -251.781 0.
-202.779 -265.47 0.
-208.72 -279.161 0.
38.3526 -189.044 0.
24.3749 -221.263 0.
10.3974 -253.482 0.
-384.788 -427.052 0.
-377.136 -408.557 0.
-369.484 -390.061 0.
-321.248 -335.005 0.
-299.962 -285.33 0.
33.9584 -100.786 0.
280.459 -41.8039 0.
256.102 -98.9471 0.
26.2153 -195.342 0.
113.508 8.96868 0.
200.802 213.28 0.
45.8465 151.761 0.
-56.0759 -85.3846 0.
-157.998 -322.53 0.
-351.026 -393.879 0.
-292.041 -255.401 0.
-233.057 -116.923 0.
-204.183 -103.734 0.
-211.022 -121.672 0.
-62.8024 -89.1025 0.
-140.372 -270.026 0.
-217.942 -450.949 0.
-542.437 -657.203 0.
-498.34 -554.778 0.
-454.243 -452.353 0.
-256.645 -295.448 0.
-220.353 -210.211 0.
-184.06 -124.975 0.
-45.074 -65.7094 0.
-56.6752 -95.6025 0.
165.908 -28.6577 0.
-559.535 -359.323 0.
-568.287 -382.4 0.
-233.384 -279.51 0.
-304.005 -445.251 0.
-374.627 -610.992 0.
33.8347 -505.753 0.
42.6143 -483.804 0.
51.3942 -461.856 0.
-136.608 -518.778 0.
-123.107 -486.075 0.
-109.605 -453.373 0.
-214.585 -470.468 0.
-200.6 -437.925 0.
-149.399 -399.262 0.
-179.992 -473.228 0.
-210.585 -547.193 0.
-273.547 -606.855 0.
-262.109 -580.418 0.
-250.672 -553.981 0.
-155.801 -517.891 0.
-166.809 -545.496 0.
-177.818 -573.102 0.
-131.186 -475.248 0.
-75.6169 -347.989 0.
-446.798 -273.079 0.
-53.2907 -82.2313 0.
-51.173 -75.4905 0.
126.161 0.472857 0.
114.069 -27.5356 0.
101.977 -55.5443 0.
-150.751 -166.195 0.
-139.044 -139.951 0.
-127.337 -113.707 0.
-151.962 -171.803 0.
-193.595 -269.558 0.
-235.228 -367.313 0.
-122.739 -349.979 0.
-136.384 -381.679 0.
12.8723 -339.979 0.
13.65 -337.578 0.
14.4276 -335.178 0.
-53.0021 -348.45 0.
-29.6672 -294.752 0.
-6.33241 -241.053 0.
-547.334 -479.373 0.
-572.832 -537.455 0.
-598.33 -595.537 0.
-0.611213 -208.21 0.
94.9809 13.6362 0.
-329.662 11.4736 0.
-113.29 28.8248 0.
-152.084 -64.1914 0.
-412.724 -240.342 0.
-422.213 -261.888 0.
-431.701 -283.433 0.
-1.86897 -68.3613 0.
46.2577 42.4458 0.
94.3848 153.253 0.
-165.847 68.1771 0.
-168.422 60.632 0.
-170.996 53.0871 0.
-98.3325 1.09181 0.
-147.063 -113.444 0.
-48.2528 -155.902 0.
-54.063 -169.662 0.
-59.8729 -183.423 0.
-38.2804 -191.105 0.
-52.4237 -223.249 0.
-66.5669 -255.393 0.
-241.848 -334.062 0.
-234.083 -315.785 0.
-226.319 -297.508 0.
-342.49 -312.325 0.
-321.171 -262.762 0.
-789.585 -421.705 0.
304.465 0.645069 0.
279.992 -56.3152 0.
128.714 -120.983 0.
215.907 83.4247 0.
303.1 287.833 0.
12.3486 168.594 0.
-89.4478 -68.5135 0.
-191.244 -305.621 0.
-361.439 -366.659 0.
-302.515 -228.253 0.
-243.591 -89.8472 0.
-168.676 -57.0665 0.
-175.744 -74.6839 0.
-91.0537 -69.411 0.
-168.745 -250.275 0.
-246.437 -431.139 0.
-317.572 -530.197 0.
-273.517 -427.804 0.
-229.461 -325.41 0.
-199.871 -239.367 0.
-163.566 -154.154 0.
-127.26 -68.9411 0.
5.78356 -12.9834 0.
-6.11557 -42.6409 0.
224.954 27.6386 0.
-604.505 -346.745 0.
-613.153 -369.757 0.
-256.241 -258.477 0.
-326.978 -423.942 0.
-397.715 -589.407 0.
-44.6952 -508.593 0.
-35.7783 -486.669 0.
-26.8613 -464.746 0.
-56.0531 -453.037 0.
-42.5602 -420.351 0.
-29.0672 -387.666 0.
-312.808 -480.365 0.
-298.899 -447.806 0.
-150.9 -368.687 0.
-182.016 -442.264 0.
-213.133 -515.842 0.
-252.022 -567.613 0.
-240.944 -540.922 0.
-229.866 -514.23 0.
-228.851 -517.434 0.
-239.82 -544.948 0.
-250.789 -572.463 0.
-139.355 -448.37 0.
-83.608 -320.841 0.
-198.63 -29.8762 0.
-81.6821 -62.3081 0.
-128.939 -172.948 0.
-8.11625 -204.847 0.
-40.1255 -279.023 0.
-72.1348 -353.199 0.
-303.085 -420.737 0.
-224.414 -236.534 0.
-145.743 -52.3309 0.
-40.1484 5.5486 0.
-71.1271 -67.1493 0.
-102.106 -139.847 0.
3.34643 -231.226 0.
-72.8217 -408.663 0.
-142.936 -551.662 0.
-66.4937 -373.007 0.
9.94863 -194.352 0.
155.072 -23.0602 0.
172.609 20.5541 0.
190.145 64.1683 0.
-565.835 -328.63 0.
-645.366 -514.505 0.
-724.897 -700.38 0.
-171.672 -396.536 0.
-105.228 -239.442 0.
-154.056 -131.472 0.
-15.1338 78.2403 0.
63.7594 263.55 0.
-254.715 194.61 0.
-375.426 -86.8821 0.
-496.138 -368.375 0.
-44.5041 -232.083 0.
40.1386 -34.1148 0.
124.781 163.853 0.
-155.33 18.0239 0.
-218.483 -128.844 0.
-281.635 -275.711 0.
-142.094 -116.546 0.
-74.6805 41.4519 0.
161.264 240.262 0.
82.8431 57.5095 0.
4.42265 -125.243 0.
-123.588 -251.371 0.
-81.4997 -152.682 0.
-39.4117 -53.9923 0.
-86.167 -156.429 0.
-195.603 -411.699 0.
-305.04 -666.968 0.
-490.048 -598.946 0.
-359.769 -295.249 0.
-645.066 -170.592 0.
390.118 230.683 0.
368.028 178.907 0.
225.173 59.5811 0.
169.656 -69.7158 0.
114.139 -199.013 0.
-226.301 -378.254 0.
-198.132 -312.414 0.
-169.964 -246.573 0.
-284.68 -272.665 0.
-278.619 -259.461 0.
-272.559 -246.256 0.
-236.268 -236.942 0.
-240.503 -247.925 0.
-175.14 -235.515 0.
-212.425 -322.844 0.
-249.711 -410.172 0.
-205.532 -443.669 0.
-211.45 -457.104 0.
-217.368 -470.539 0.
-259.373 -411.276 0.
-181.696 -229.235 0.
-104.02 -47.1932 0.
-30.9099 -6.24835 0.
-47.1822 -42.3734 0.
-235.873 -149.463 0.
-480.609 -292.502 0.
-501.521 -339.465 0.
-226.167 -243.094 0.
-196.671 -173.218 0.
-167.174 -103.342 0.
53.6161 -22.0915 0.
-3.33601 -155.386 0.
-60.2882 -288.681 0.
28.8164 -219.213 0.
80.5161 -98.607 0.
132.216 21.9992 0.
-249.33 -76.5052 0.
-215.557 2.51583 0.
133.583 204.62 0.
111.274 152.83 0.
88.9658 101.04 0.
-53.7252 4.20944 0.
-64.1948 -22.1868 0.
-74.6641 -48.5831 0.
-116.445 -155.805 0.
-191.646 -330.819 0.
-266.847 -505.832 0.
-106.483 -180.706 0.
88.5971 276.504 0.
-549.934 -151.181 0.
13.4378 9.64807 0.
-33.8657 -100.925 0.
-122.906 -222.496 0.
-154.758 -296.739 0.
-186.609 -370.982 0.
-292.868 -384.552 0.
-214.057 -200.476 0.
-135.246 -16.3992 0.
24.659 65.0261 0.
-6.19714 -7.64978 0.
-37.0533 -80.3258 0.
51.3184 -179.174 0.
-24.628 -356.669 0.
-311.053 -592.995 0.
-234.622 -414.373 0.
-158.19 -235.75 0.
133.651 0.423678 0.
151.314 43.7535 0.
168.978 87.0833 0.
-416.881 -233.477 0.
-496.529 -419.279 0.
-576.178 -605.081 0.
-213.304 -383.434 0.
-146.747 -226.46 0.
-146.022 -97.1098 0.
-41.2581 98.7995 0.
37.4672 284.318 0.
-184.207 256.024 0.
-304.818 -25.4543 0.
-425.429 -306.932 0.
-149.285 -244.702 0.
-64.4478 -46.9034 0.
20.39 150.896 0.
-2.63061 114.519 0.
-65.5713 -32.5206 0.
-128.512 -179.56 0.
15.6614 -17.5377 0.
83.3092 140.243 0.
144.788 265.393 0.
66.482 82.6338 0.
-11.8235 -100.126 0.
-160.701 -236.689 0.
-118.57 -138.031 0.
-76.4394 -39.3723 0.
-2.82147 -88.8031 0.
-112.225 -344.109 0.
-221.629 -599.415 0.
-497.725 -570.801 0.
-367.234 -267.253 0.
708.046 441.317 0.
370.162 253.747 0.
348.066 201.955 0.
201.628 80.45 0.
146.043 -48.793 0.
90.4576 -178.036 0.
-172.93 -323.587 0.
-144.456 -257.947 0.
-115.983 -192.308 0.
-147.298 -182.265 0.
-141.321 -168.951 0.
-135.343 -155.636 0.
-215.045 -195.874 0.
-219.348 -206.843 0.
-143.551 -190.677 0.
-180.868 -278.066 0.
-218.185 -365.454 0.
-211.083 -414.316 0.
-216.946 -427.977 0.
-222.809 -441.638 0.
-244.638 -373.231 0.
-166.969 -191.363 0.
-89.3008 -9.49425 0.
-148.399 -24.4375 0.
-164.391 -60.961 0.
269.618 98.4575 0.
-152.371 -120.686 0.
-173.135 -167.831 0.
-119.152 -165.327 0.
-89.3961 -95.528 0.
-59.6397 -25.7289 0.
-105.156 -58.9502 0.
-162.015 -192.248 0.
-218.875 -325.545 0.
-56.3823 -224.503 0.
-4.78597 -103.793 0.
46.8102 16.9174 0.
-386.084 -103.531 0.
-352.051 -24.8176 0.
266.923 293.884 0.
245.039 241.709 0.
223.154 189.533 0.
-156.46 -8.37874 0.
-166.785 -34.7209 0.
-177.11 -61.0632 0.
-113.869 -123.289 0.
-188.87 -298.375 0.
-263.87 -473.461 0.
-267.089 -217.163 0.
-71.9314 240.351 0.
682.14 984.672 0.
31.1167 -91.2713 0.
22.036 -112.552 0.
-49.997 199.479 0.
78.8317 499.669 0.
-63.1819 167.863 0.
-373.463 -563.768 0.
-295.421 -379.469 0.
-142.319 -20.9075 0.
222.621 435.125 0.
267.296 541.752 0.
214.865 421.614 0.
277.421 285.49 0.
201.681 109.964 0.
-323.382 -275.694 0.
29.307 548.195 0.
25.1207 539.585 0.
-56.0036 -367.644 0.
-187.122 -673.387 0.
-206.948 -720.12 0.
-173.249 83.2117 0.
-239.005 -70.3922 0.
-536.445 -764.755 0.
-209.799 -265.445 0.
-260.206 -383.553 0.
103.84 -93.206 0.
131.181 578.906 0.
-177.157 -139.37 0.
-102.536 345.361 0.
-91.526 370.076 0.
-242.37 17.2494 0.
-40.6214 237.861 0.
105.852 578.958 0.
-143.616 -3.65786 0.
215.507 364.284 0.
200.248 328.378 0.
196.575 319.261 0.
299.249 378.45 0.
265.935 299.398 0.
118.538 272.742 0.
73.535 166.257 0.
-8.15275 -25.8697 0.
-118.603 -39.2933 0.
116.985 507.586 0.
134.491 545.846 0.
188.398 235.452 0.
111.133 54.7303 0.
79.3254 -19.764 0.
-321.9 -118.932 0.
-381.367 -259.077 0.
-381.188 546.398 0.
516.584 663.403 0.
248.79 38.0038 0.
155.56 50.9611 0.
256.441 286.747 0.
312.675 418.224 0.
98.3135 239.748 0.
184.377 439.804 0.
53.986 134.822 0.
-2.0265 -68.8908 0.
-120.422 -344.973 0.
246.096 510.3 0.
-31.1088 225.751 0.
-56.4895 168.944 0.
84.8404 311.97 0.
-18.8013 70.4749 0.
-23.1053 61.1178 0.
-32.1188 45.9219 0.
-43.5181 19.7301 0.
-235.49 -427.72 0.
-309.993 -529.809 0.
-357.591 -641.967 0.
-360.907 -650.416 0.
-49.675 465.367 0.
118.234 855.858 0.
-266.134 637.153 0.
479.549 756.979 0.
-151.945 -713.924 0.
-406.744 -1013.82 0.
292.468 620.392 0.
-381.762 -950.227 0.
-401.681 -419.837 0.
-27.3145 453.638 0.
-17.3591 476.826 0.
0.0611553 101.433 0.
1.33937 103.993 0.
174.08 506.618 0.
-482.323 -36.6753 0.
-559.898 -218.325 0.
140.91 -222.316 0.
147.957 -205.116 0.
76.5743 -371.232 0.
-407.491 -374.049 0.
-406.451 -370.902 0.
-376.434 -299.569 0.
-233.617 -372.918 0.
-140.149 -154.313 0.
-158.121 -196.022 0.
-361.673 -106.728 0.
-247.186 159.081 0.
-55.2094 -230.525 0.
-177.875 -296.947 0.
-171.945 -283.602 0.
-252.041 -259.218 0.
-129.633 26.6391 0.
-7.22518 312.496 0.
-45.5069 283.3 0.
-212.885 -107.138 0.
-380.264 -497.576 0.
-16.2421 -407.521 0.
13.9252 -335.152 0.
44.0923 -262.784 0.
-274.893 -258.799 0.
-195.874 -72.7598 0.
-165.359 74.5775 0.
-187.281 23.7178 0.
-209.203 -27.1419 0.
306.756 169.338 0.
309.676 176.874 0.
312.596 184.409 0.
-174.696 -93.4103 0.
-242.203 -250.903 0.
-309.71 -408.396 0.
-514.28 -445.152 0.
-462.093 -322.548 0.
18.176 -17.9873 0.
-79.8976 -5.78023 0.
-52.4287 58.8211 0.
-115.482 58.7223 0.
-150.407 -22.0064 0.
-185.332 -102.735 0.
-105.372 -165.323 0.
-179.044 -335.919 0.
-252.716 -506.515 0.
-269.499 -370.674 0.
-120.197 -23.1365 0.
29.106 324.402 0.
214.586 252.313 0.
106.309 -0.53038 0.
53.2811 -199.159 0.
90.911 -112.363 0.
128.541 -25.5663 0.
-167.676 -117.981 0.
-186.356 -164.47 0.
-205.036 -210.959 0.
52.4495 -52.7222 0.
115.034 91.6486 0.
177.619 236.02 0.
-187.534 74.0969 0.
-208.377 24.754 0.
-1712.54 -659.624 0.
418.083 161.084 0.
369.053 46.9177 0.
121.31 -107.142 0.
170.589 7.27034 0.
219.869 121.683 0.
52.8772 34.3793 0.
-23.4801 -142.112 0.
-99.8373 -318.604 0.
-186.554 -197.01 0.
-26.4516 176.3 0.
133.651 549.609 0.
69.388 270.634 0.
-97.022 -117.057 0.
-193.243 -415.174 0.
-97.1379 -189.153 0.
-1.03266 36.8678 0.
-23.6339 136.75 0.
-39.0759 101.45 0.
-54.5179 66.1492 0.
-45.5294 62.6855 0.
-43.2105 66.83 0.
-40.8915 70.9745 0.
284.716 165.381 0.
253.906 94.2754 0.
-153.564 -137.044 0.
72.0546 123.543 0.
159.235 326.947 0.
120.474 404.528 0.
33.0247 200.631 0.
-54.4242 -3.26583 0.
-292.989 -178.631 0.
-268.745 -121.405 0.
-244.501 -64.1789 0.
-176.077 -17.3763 0.
-173.419 -11.1009 0.
-170.762 -4.8256 0.
-627.785 -303.697 0.
-692.527 -454.195 0.
-42.0871 -282.296 0.
-14.5993 -216.38 0.
12.8881 -150.464 0.
-304.006 -250.971 0.
-304.761 -251.157 0.
-305.516 -251.343 0.
-306.39 -168.358 0.
-228.353 14.653 0.
-150.316 197.664 0.
-349.504 -33.1765 0.
-470.869 -315.032 0.
-464.604 -374.649 0.
-306.494 -320.348 0.
-300.597 -307.008 0.
-244.081 -224.71 0.
-121.554 61.2756 0.
0.97261 347.261 0.
-69.0447 304.443 0.
-236.279 -86.0083 0.
-403.513 -476.46 0.
149.941 -304.617 0.
180.289 -232.229 0.
210.636 -159.841 0.
-651.432 -388.994 0.
-572.397 -202.991 0.
-135.744 118.803 0.
-157.709 67.7941 0.
-179.674 16.7854 0.
484.779 277.492 0.
487.593 285.224 0.
490.408 292.957 0.
-67.2373 -16.3246 0.
-134.971 -173.649 0.
-202.705 -330.974 0.
-776.508 -526.811 0.
-724.288 -404.046 0.
799.79 347.906 0.
-14.3295 54.947 0.
12.7967 120.144 0.
36.9227 153.804 0.
1.49319 73.6229 0.
-33.9363 -6.55841 0.
41.8041 -71.7057 0.
-31.7786 -242.493 0.
-105.361 -413.279 0.
-463.646 -422.149 0.
-314.115 -75.009 0.
-164.583 272.132 0.
193.031 275.872 0.
85.0789 23.0574 0.
234.097 -90.8107 0.
271.949 -3.83107 0.
309.801 83.1487 0.
-168.529 -86.4377 0.
-186.932 -132.948 0.
-205.336 -179.459 0.
53.9764 -20.9345 0.
116.504 123.755 0.
179.032 268.444 0.
-105.235 140.828 0.
-125.901 91.4861 0.
446.262 297.757 0.
576.656 261.114 0.
527.609 147.01 0.
178.193 -51.6319 0.
227.544 62.8253 0.
276.894 177.283 0.
119.531 93.6935 0.
43.1115 -82.477 0.
-33.3074 -258.647 0.
-328.329 -226.881 0.
-168.33 146.573 0.
-8.3308 520.027 0.
185.834 352.839 0.
19.8496 -35.3434 0.
-132.866 -356.418 0.
-36.648 -130.583 0.
59.5699 95.2518 0.
-46.011 158.25 0.
-61.7586 122.81 0.
-77.5062 87.3696 0.
-12.7762 107.819 0.
-10.6675 111.652 0.
-8.55859 115.484 0.
868.363 448.665 0.
837.385 377.659 0.
2.61213 -37.9397 0.
-80.7384 88.1637 0.
6.42208 291.215 0.
42.222 403 0.
-44.754 198.864 0.
-131.73 -5.27293 0.
-270.93 -137.285 0.
-246.948 -79.7337 0.
-222.967 -22.1824 0.
-314.245 -46.4005 0.
-311.823 -39.9831 0.
-309.402 -33.5658 0.
-648.604 -280.176 0.
-713.521 -430.547 0.
-223.316 -328.881 0.
-195.812 -262.913 0.
-168.309 -196.946 0.
-225.512 -186.64 0.
-225.979 -187.021 0.
-226.446 -187.401 0.
-489.456 -214.174 0.
-411.362 -30.9868 0.
-333.268 152.2 0.
-355.224 -5.56394 0.
-477.298 -286.137 0.
