# vtk DataFile Version 2.0
test grain
ASCII
DATASET UNSTRUCTURED_GRID
POINTS 5000 float
0.499934 0.0010006 0.
0.501935 0.00100051 0.
0.503936 0.00100044 0.
0.505937 0.00100038 0.
0.507938 0.00100034 0.
0.509939 0.0010003 0.
0.51194 0.00100024 0.
0.513941 0.00100016 0.
0.515942 0.00100008 0.
0.517943 0.00100009 0.
0.519943 0.00100016 0.
0.521944 0.00100023 0.
0.523945 0.00100026 0.
0.525945 0.00100027 0.
0.527946 0.00100029 0.
0.529948 0.00100025 0.
0.531949 0.00100022 0.
0.533951 0.00100021 0.
0.535952 0.00100025 0.
0.537953 0.0010003 0.
0.539954 0.0010003 0.
0.541956 0.00100026 0.
0.543957 0.00100022 0.
0.545959 0.00100017 0.
0.54796 0.00100011 0.
0.549961 0.00100005 0.
0.551963 0.00100009 0.
0.553964 0.00100012 0.
0.555966 0.00100015 0.
0.557967 0.00100016 0.
0.559969 0.00100017 0.
0.56197 0.00100017 0.
0.563972 0.00100014 0.
0.565973 0.00100012 0.
0.567975 0.00100011 0.
0.569978 0.0010001 0.
0.57198 0.00100009 0.
0.573981 0.00100014 0.
0.575983 0.0010002 0.
0.577985 0.00100024 0.
0.579986 0.0010002 0.
0.581987 0.00100016 0.
0.583989 0.00100013 0.
0.58599 0.00100015 0.
0.587992 0.00100016 0.
0.589993 0.00100019 0.
0.591995 0.00100023 0.
0.593996 0.00100027 0.
0.595998 0.00100029 0.
0.598 0.0010003 0.
0.600003 0.0010003 0.
0.602004 0.0010003 0.
0.604006 0.00100029 0.
0.606007 0.00100028 0.
0.608009 0.00100022 0.
0.61001 0.00100016 0.
0.612011 0.00100014 0.
0.614012 0.00100019 0.
0.616013 0.00100023 0.
0.618014 0.00100025 0.
0.620015 0.00100026 0.
0.622017 0.00100027 0.
0.624019 0.00100021 0.
0.626021 0.00100014 0.
0.628023 0.00100008 0.
0.630024 0.00100011 0.
0.632026 0.00100014 0.
0.634028 0.00100016 0.
0.636029 0.00100016 0.
0.638031 0.00100017 0.
0.640032 0.00100015 0.
0.642034 0.00100012 0.
0.644035 0.00100009 0.
0.646037 0.0010001 0.
0.648038 0.00100012 0.
0.65004 0.00100013 0.
0.652041 0.00100015 0.
0.654043 0.00100016 0.
0.656045 0.00100019 0.
0.658046 0.00100027 0.
0.660048 0.00100034 0.
0.662049 0.00100037 0.
0.66405 0.00100036 0.
0.666052 0.00100034 0.
0.668053 0.00100031 0.
0.670054 0.00100026 0.
0.672055 0.00100021 0.
0.674056 0.00100014 0.
0.676057 0.00100008 0.
0.678058 0.00100003 0.
0.680058 0.00100013 0.
0.682059 0.00100023 0.
0.68406 0.0010003 0.
0.686061 0.00100032 0.
0.688062 0.00100033 0.
0.690063 0.00100037 0.
0.692063 0.00100043 0.
0.694064 0.00100048 0.
0.696065 0.0010006 0.
0.698066 0.00100074 0.
0.499935 0.0030018 0.
0.501936 0.00300153 0.
0.503937 0.00300132 0.
0.505937 0.00300114 0.
0.507938 0.00300102 0.
0.509939 0.0030009 0.
0.51194 0.00300073 0.
0.513941 0.00300048 0.
0.515942 0.00300023 0.
0.517943 0.00300027 0.
0.519943 0.00300048 0.
0.521944 0.00300069 0.
0.523945 0.00300077 0.
0.525946 0.00300082 0.
0.527947 0.00300086 0.
0.529948 0.00300075 0.
0.53195 0.00300065 0.
0.533951 0.00300062 0.
0.535952 0.00300076 0.
0.537953 0.00300089 0.
0.539955 0.0030009 0.
0.541956 0.00300078 0.
0.543957 0.00300067 0.
0.545959 0.00300051 0.
0.54796 0.00300034 0.
0.549962 0.00300016 0.
0.551963 0.00300026 0.
0.553964 0.00300035 0.
0.555966 0.00300044 0.
0.557967 0.00300047 0.
0.559969 0.00300051 0.
0.56197 0.0030005 0.
0.563972 0.00300043 0.
0.565974 0.00300036 0.
0.567976 0.00300032 0.
0.569977 0.0030003 0.
0.571979 0.00300028 0.
0.573981 0.00300042 0.
0.575983 0.00300059 0.
0.577985 0.00300073 0.
0.579986 0.0030006 0.
0.581987 0.00300047 0.
0.583989 0.00300039 0.
0.58599 0.00300044 0.
0.587992 0.00300048 0.
0.589993 0.00300057 0.
0.591994 0.0030007 0.
0.593996 0.00300082 0.
0.595998 0.00300087 0.
0.598 0.00300089 0.
0.600003 0.0030009 0.
0.602004 0.00300089 0.
0.604006 0.00300088 0.
0.606007 0.00300083 0.
0.608008 0.00300065 0.
0.61001 0.00300047 0.
0.612011 0.00300043 0.
0.614012 0.00300056 0.
0.616013 0.0030007 0.
0.618014 0.00300076 0.
0.620016 0.00300079 0.
0.622018 0.00300082 0.
0.62402 0.00300063 0.
0.626021 0.00300041 0.
0.628023 0.00300023 0.
0.630025 0.00300032 0.
0.632026 0.00300041 0.
0.634028 0.00300048 0.
0.636029 0.00300049 0.
0.638031 0.00300051 0.
0.640032 0.00300046 0.
0.642034 0.00300037 0.
0.644035 0.00300028 0.
0.646037 0.0030003 0.
0.648038 0.00300035 0.
0.65004 0.0030004 0.
0.652041 0.00300044 0.
0.654043 0.00300048 0.
0.656045 0.00300057 0.
0.658046 0.0030008 0.
0.660048 0.00300102 0.
0.662049 0.00300112 0.
0.66405 0.00300108 0.
0.666051 0.00300103 0.
0.668052 0.00300091 0.
0.670054 0.00300077 0.
0.672055 0.00300062 0.
0.674056 0.00300043 0.
0.676057 0.00300023 0.
0.678058 0.00300009 0.
0.680058 0.00300039 0.
0.682059 0.00300069 0.
0.68406 0.0030009 0.
0.686061 0.00300095 0.
0.688062 0.003001 0.
0.690062 0.00300112 0.
0.692063 0.00300128 0.
0.694064 0.00300145 0.
0.696065 0.00300181 0.
0.698066 0.00300222 0.
0.499935 0.005003 0.
0.501936 0.00500255 0.
0.503937 0.00500221 0.
0.505938 0.00500189 0.
0.507939 0.0050017 0.
0.509939 0.0050015 0.
0.51194 0.00500121 0.
0.513941 0.00500079 0.
0.515942 0.00500038 0.
0.517943 0.00500045 0.
0.519943 0.0050008 0.
0.521944 0.00500115 0.
0.523946 0.00500128 0.
0.525947 0.00500136 0.
0.527948 0.00500143 0.
0.529949 0.00500125 0.
0.53195 0.00500108 0.
0.533951 0.00500103 0.
0.535953 0.00500126 0.
0.537954 0.00500149 0.
0.539955 0.0050015 0.
0.541956 0.0050013 0.
0.543957 0.00500111 0.
0.545959 0.00500085 0.
0.54796 0.00500056 0.
0.549962 0.00500027 0.
0.551963 0.00500043 0.
0.553964 0.00500059 0.
0.555966 0.00500073 0.
0.557967 0.00500079 0.
0.559969 0.00500085 0.
0.56197 0.00500083 0.
0.563972 0.00500071 0.
0.565974 0.00500059 0.
0.567976 0.00500053 0.
0.569977 0.0050005 0.
0.571979 0.00500046 0.
0.57398 0.00500071 0.
0.575982 0.00500099 0.
0.577984 0.00500122 0.
0.579986 0.005001 0.
0.581987 0.00500078 0.
0.583989 0.00500065 0.
0.58599 0.00500073 0.
0.587991 0.00500081 0.
0.589993 0.00500095 0.
0.591994 0.00500116 0.
0.593995 0.00500137 0.
0.595998 0.00500144 0.
0.598 0.00500148 0.
0.600003 0.00500151 0.
0.602004 0.00500149 0.
0.604006 0.00500147 0.
0.606007 0.00500138 0.
0.608008 0.00500108 0.
0.610009 0.00500078 0.
0.612011 0.00500071 0.
0.614012 0.00500094 0.
0.616013 0.00500117 0.
0.618015 0.00500127 0.
0.620017 0.00500132 0.
0.622018 0.00500137 0.
0.62402 0.00500105 0.
0.626022 0.00500068 0.
0.628024 0.00500038 0.
0.630025 0.00500053 0.
0.632026 0.00500069 0.
0.634028 0.0050008 0.
0.636029 0.00500082 0.
0.638031 0.00500085 0.
0.640032 0.00500077 0.
0.642034 0.00500062 0.
0.644035 0.00500046 0.
0.646037 0.0050005 0.
0.648038 0.00500058 0.
0.65004 0.00500067 0.
0.652041 0.00500074 0.
0.654043 0.00500081 0.
0.656045 0.00500095 0.
0.658046 0.00500133 0.
0.660047 0.00500171 0.
0.662048 0.00500187 0.
0.66405 0.00500179 0.
0.666051 0.00500172 0.
0.668052 0.00500152 0.
0.670053 0.00500128 0.
0.672054 0.00500104 0.
0.674055 0.00500071 0.
0.676056 0.00500038 0.
0.678057 0.00500015 0.
0.680058 0.00500065 0.
0.682059 0.00500115 0.
0.684059 0.0050015 0.
0.68606 0.00500158 0.
0.688061 0.00500166 0.
0.690062 0.00500186 0.
0.692063 0.00500214 0.
0.694064 0.00500242 0.
0.696065 0.00500302 0.
0.698066 0.0050037 0.
0.499936 0.00700456 0.
0.501937 0.00700403 0.
0.503938 0.00700365 0.
0.505938 0.00700329 0.
0.507939 0.007003 0.
0.50994 0.00700271 0.
0.511941 0.00700252 0.
0.513941 0.00700247 0.
0.515942 0.00700243 0.
0.517943 0.00700254 0.
0.519944 0.00700274 0.
0.521944 0.00700294 0.
0.523945 0.00700282 0.
0.525947 0.00700266 0.
0.527948 0.00700251 0.
0.529949 0.0070025 0.
0.53195 0.00700249 0.
0.533951 0.00700251 0.
0.535953 0.00700259 0.
0.537954 0.00700268 0.
0.539955 0.00700261 0.
0.541956 0.00700241 0.
0.543958 0.00700222 0.
0.545959 0.00700208 0.
0.54796 0.00700196 0.
0.549962 0.00700184 0.
0.551963 0.00700194 0.
0.553964 0.00700204 0.
0.555966 0.00700212 0.
0.557967 0.00700211 0.
0.559969 0.0070021 0.
0.561971 0.0070021 0.
0.563972 0.00700211 0.
0.565974 0.00700212 0.
0.567975 0.00700211 0.
0.569977 0.00700209 0.
0.571978 0.00700208 0.
0.57398 0.00700215 0.
0.575982 0.00700224 0.
0.577984 0.0070023 0.
0.579986 0.00700209 0.
0.581987 0.00700189 0.
0.583989 0.0070018 0.
0.58599 0.00700195 0.
0.587991 0.00700211 0.
0.589993 0.00700226 0.
0.591994 0.00700242 0.
0.593996 0.00700257 0.
0.595998 0.00700265 0.
0.598 0.0070027 0.
0.600003 0.00700274 0.
0.602004 0.00700273 0.
0.604006 0.00700272 0.
0.606007 0.00700267 0.
0.608008 0.00700244 0.
0.61001 0.00700221 0.
0.612011 0.00700216 0.
0.614012 0.00700231 0.
0.616013 0.00700245 0.
0.618015 0.00700251 0.
0.620017 0.00700252 0.
0.622018 0.00700253 0.
0.62402 0.00700243 0.
0.626022 0.00700232 0.
0.628024 0.00700222 0.
0.630025 0.00700216 0.
0.632027 0.0070021 0.
0.634028 0.00700205 0.
0.636029 0.007002 0.
0.638031 0.00700194 0.
0.640032 0.00700191 0.
0.642034 0.00700188 0.
0.644035 0.00700186 0.
0.646037 0.00700185 0.
0.648038 0.00700184 0.
0.65004 0.00700184 0.
0.652041 0.00700201 0.
0.654043 0.00700217 0.
0.656044 0.00700236 0.
0.658046 0.00700263 0.
0.660047 0.0070029 0.
0.662048 0.00700298 0.
0.66405 0.00700285 0.
0.666051 0.00700272 0.
0.668052 0.00700264 0.
0.670053 0.0070026 0.
0.672054 0.00700256 0.
0.674055 0.00700243 0.
0.676056 0.00700228 0.
0.678057 0.00700218 0.
0.680058 0.00700241 0.
0.682058 0.00700264 0.
0.684059 0.0070028 0.
0.68606 0.00700287 0.
0.688061 0.00700293 0.
0.690062 0.00700321 0.
0.692063 0.00700365 0.
0.694064 0.00700409 0.
0.696065 0.00700455 0.
0.698066 0.00700502 0.
0.499937 0.00900612 0.
0.501938 0.00900552 0.
0.503938 0.0090051 0.
0.505939 0.00900468 0.
0.50794 0.0090043 0.
0.50994 0.00900392 0.
0.511941 0.00900383 0.
0.513942 0.00900415 0.
0.515943 0.00900447 0.
0.517943 0.00900463 0.
0.519944 0.00900467 0.
0.521944 0.00900472 0.
0.523945 0.00900437 0.
0.525947 0.00900396 0.
0.527948 0.00900358 0.
0.529949 0.00900374 0.
0.53195 0.0090039 0.
0.533951 0.00900399 0.
0.535953 0.00900392 0.
0.537954 0.00900386 0.
0.539955 0.00900372 0.
0.541957 0.00900352 0.
0.543958 0.00900332 0.
0.545959 0.00900331 0.
0.547961 0.00900336 0.
0.549962 0.0090034 0.
0.551963 0.00900345 0.
0.553964 0.00900349 0.
0.555966 0.00900351 0.
0.557967 0.00900343 0.
0.559969 0.00900336 0.
0.561971 0.00900337 0.
0.563972 0.00900351 0.
0.565974 0.00900365 0.
0.567975 0.00900369 0.
0.569977 0.00900369 0.
0.571978 0.00900369 0.
0.57398 0.0090036 0.
0.575982 0.00900349 0.
0.577984 0.00900338 0.
0.579986 0.00900319 0.
0.581987 0.009003 0.
0.583988 0.00900295 0.
0.58599 0.00900318 0.
0.587991 0.00900341 0.
0.589993 0.00900357 0.
0.591994 0.00900367 0.
0.593996 0.00900378 0.
0.595998 0.00900385 0.
0.598 0.00900392 0.
0.600002 0.00900398 0.
0.602004 0.00900398 0.
0.604006 0.00900398 0.
0.606007 0.00900395 0.
0.608008 0.0090038 0.
0.61001 0.00900365 0.
0.612011 0.0090036 0.
0.614012 0.00900367 0.
0.616014 0.00900374 0.
0.618015 0.00900374 0.
0.620017 0.00900371 0.
0.622018 0.00900368 0.
0.62402 0.00900381 0.
0.626022 0.00900396 0.
0.628024 0.00900405 0.
0.630025 0.00900379 0.
0.632027 0.00900352 0.
0.634028 0.0090033 0.
0.63603 0.00900317 0.
0.638031 0.00900304 0.
0.640033 0.00900304 0.
0.642034 0.00900315 0.
0.644035 0.00900325 0.
0.646037 0.0090032 0.
0.648038 0.0090031 0.
0.65004 0.00900301 0.
0.652041 0.00900327 0.
0.654042 0.00900353 0.
0.656044 0.00900377 0.
0.658045 0.00900393 0.
0.660047 0.0090041 0.
0.662048 0.00900409 0.
0.66405 0.0090039 0.
0.666051 0.00900371 0.
0.668052 0.00900376 0.
0.670053 0.00900392 0.
0.672054 0.00900409 0.
0.674055 0.00900414 0.
0.676056 0.00900418 0.
0.678056 0.0090042 0.
0.680057 0.00900416 0.
0.682058 0.00900412 0.
0.684059 0.00900411 0.
0.68606 0.00900415 0.
0.688061 0.00900419 0.
0.690062 0.00900456 0.
0.692062 0.00900515 0.
0.694063 0.00900575 0.
0.696064 0.00900607 0.
0.698065 0.00900634 0.
0.499937 0.0110073 0.
0.501938 0.0110067 0.
0.503939 0.0110062 0.
0.50594 0.0110057 0.
0.50794 0.0110053 0.
0.509941 0.0110049 0.
0.511941 0.0110049 0.
0.513942 0.0110052 0.
0.515943 0.0110055 0.
0.517943 0.0110057 0.
0.519944 0.0110056 0.
0.521944 0.0110056 0.
0.523946 0.0110052 0.
0.525947 0.0110048 0.
0.527948 0.0110045 0.
0.529949 0.0110046 0.
0.53195 0.0110047 0.
0.533951 0.0110048 0.
0.535953 0.0110047 0.
0.537954 0.0110046 0.
0.539955 0.0110044 0.
0.541957 0.0110042 0.
0.543958 0.0110039 0.
0.545959 0.0110039 0.
0.547961 0.011004 0.
0.549962 0.0110041 0.
0.551963 0.0110043 0.
0.553964 0.0110044 0.
0.555966 0.0110044 0.
0.557967 0.0110043 0.
0.559969 0.0110041 0.
0.561971 0.0110041 0.
0.563972 0.0110043 0.
0.565973 0.0110045 0.
0.567975 0.0110046 0.
0.569977 0.0110046 0.
0.571978 0.0110046 0.
0.57398 0.0110045 0.
0.575982 0.0110043 0.
0.577984 0.0110041 0.
0.579986 0.011004 0.
0.581987 0.0110039 0.
0.583988 0.0110038 0.
0.58599 0.011004 0.
0.587991 0.0110042 0.
0.589993 0.0110044 0.
0.591994 0.0110045 0.
0.593996 0.0110046 0.
0.595998 0.0110047 0.
0.598 0.0110048 0.
0.600002 0.0110048 0.
0.602004 0.0110048 0.
0.604006 0.0110048 0.
0.606007 0.0110048 0.
0.608009 0.0110047 0.
0.61001 0.0110046 0.
0.612011 0.0110046 0.
0.614012 0.0110046 0.
0.616014 0.0110046 0.
0.618015 0.0110045 0.
0.620017 0.0110044 0.
0.622018 0.0110044 0.
0.62402 0.0110046 0.
0.626022 0.0110048 0.
0.628024 0.011005 0.
0.630026 0.0110047 0.
0.632027 0.0110044 0.
0.634028 0.0110041 0.
0.63603 0.011004 0.
0.638031 0.0110038 0.
0.640033 0.0110038 0.
0.642034 0.0110039 0.
0.644035 0.011004 0.
0.646037 0.011004 0.
0.648038 0.0110039 0.
0.65004 0.0110038 0.
0.652041 0.011004 0.
0.654042 0.0110043 0.
0.656044 0.0110046 0.
0.658045 0.0110048 0.
0.660047 0.011005 0.
0.662048 0.011005 0.
0.66405 0.0110048 0.
0.666051 0.0110046 0.
0.668052 0.0110046 0.
0.670053 0.0110048 0.
0.672054 0.0110049 0.
0.674055 0.011005 0.
0.676055 0.0110052 0.
0.678056 0.0110053 0.
0.680057 0.0110052 0.
0.682058 0.0110051 0.
0.684059 0.0110051 0.
0.68606 0.0110052 0.
0.688061 0.0110053 0.
0.690062 0.0110057 0.
0.692062 0.0110063 0.
0.694063 0.0110069 0.
0.696064 0.0110073 0.
0.698065 0.0110076 0.
0.499937 0.0130082 0.
0.501938 0.0130075 0.
0.503939 0.013007 0.
0.50594 0.0130065 0.
0.507941 0.0130061 0.
0.509941 0.0130058 0.
0.511942 0.0130056 0.
0.513942 0.0130056 0.
0.515943 0.0130056 0.
0.517944 0.0130056 0.
0.519944 0.0130056 0.
0.521945 0.0130056 0.
0.523946 0.0130054 0.
0.525947 0.0130053 0.
0.527948 0.0130051 0.
0.529949 0.0130051 0.
0.53195 0.013005 0.
0.533951 0.0130049 0.
0.535953 0.0130049 0.
0.537954 0.0130048 0.
0.539956 0.0130046 0.
0.541957 0.0130043 0.
0.543958 0.013004 0.
0.54596 0.013004 0.
0.547961 0.013004 0.
0.549962 0.013004 0.
0.551963 0.0130043 0.
0.553965 0.0130047 0.
0.555966 0.0130049 0.
0.557967 0.0130047 0.
0.559969 0.0130044 0.
0.56197 0.0130044 0.
0.563972 0.0130045 0.
0.565973 0.0130046 0.
0.567975 0.0130047 0.
0.569977 0.0130048 0.
0.571978 0.0130049 0.
0.57398 0.0130048 0.
0.575982 0.0130046 0.
0.577984 0.0130045 0.
0.579985 0.0130045 0.
0.581987 0.0130045 0.
0.583988 0.0130045 0.
0.58599 0.0130045 0.
0.587991 0.0130045 0.
0.589993 0.0130047 0.
0.591994 0.0130049 0.
0.593996 0.0130052 0.
0.595998 0.0130052 0.
0.598 0.0130053 0.
0.600002 0.0130053 0.
0.602004 0.0130053 0.
0.604006 0.0130053 0.
0.606007 0.0130052 0.
0.608009 0.0130052 0.
0.61001 0.0130051 0.
0.612011 0.013005 0.
0.614013 0.013005 0.
0.616014 0.0130049 0.
0.618015 0.0130048 0.
0.620017 0.0130047 0.
0.622018 0.0130046 0.
0.62402 0.0130047 0.
0.626022 0.0130048 0.
0.628024 0.0130049 0.
0.630026 0.0130048 0.
0.632027 0.0130047 0.
0.634029 0.0130045 0.
0.63603 0.0130044 0.
0.638032 0.0130042 0.
0.640033 0.0130041 0.
0.642034 0.0130042 0.
0.644036 0.0130042 0.
0.646037 0.0130041 0.
0.648038 0.0130041 0.
0.650039 0.0130041 0.
0.652041 0.0130043 0.
0.654042 0.0130045 0.
0.656044 0.0130048 0.
0.658045 0.0130052 0.
0.660047 0.0130055 0.
0.662048 0.0130056 0.
0.66405 0.0130055 0.
0.666051 0.0130053 0.
0.668052 0.0130052 0.
0.670053 0.0130051 0.
0.672054 0.0130051 0.
0.674055 0.0130051 0.
0.676055 0.0130052 0.
0.678056 0.0130053 0.
0.680057 0.0130055 0.
0.682058 0.0130057 0.
0.684059 0.0130058 0.
0.686059 0.013006 0.
0.68806 0.0130062 0.
0.690061 0.0130066 0.
0.692062 0.0130071 0.
0.694063 0.0130075 0.
0.696063 0.0130081 0.
0.698064 0.0130087 0.
0.499938 0.0150091 0.
0.501939 0.0150083 0.
0.50394 0.0150077 0.
0.50594 0.0150072 0.
0.507941 0.0150069 0.
0.509941 0.0150066 0.
0.511942 0.0150064 0.
0.513942 0.015006 0.
0.515943 0.0150057 0.
0.517944 0.0150056 0.
0.519944 0.0150056 0.
0.521945 0.0150056 0.
0.523946 0.0150056 0.
0.525947 0.0150057 0.
0.527948 0.0150058 0.
0.529949 0.0150055 0.
0.53195 0.0150053 0.
0.533951 0.0150051 0.
0.535953 0.0150051 0.
0.537954 0.0150051 0.
0.539956 0.0150049 0.
0.541957 0.0150045 0.
0.543958 0.0150041 0.
0.54596 0.015004 0.
0.547961 0.015004 0.
0.549962 0.0150039 0.
0.551964 0.0150044 0.
0.553965 0.015005 0.
0.555966 0.0150053 0.
0.557967 0.015005 0.
0.559968 0.0150048 0.
0.56197 0.0150046 0.
0.563971 0.0150047 0.
0.565973 0.0150047 0.
0.567975 0.0150048 0.
0.569977 0.015005 0.
0.571979 0.0150051 0.
0.57398 0.0150051 0.
0.575982 0.015005 0.
0.577984 0.0150049 0.
0.579985 0.015005 0.
0.581987 0.0150051 0.
0.583988 0.0150051 0.
0.58599 0.015005 0.
0.587991 0.0150048 0.
0.589993 0.0150049 0.
0.591994 0.0150053 0.
0.593996 0.0150057 0.
0.595998 0.0150058 0.
0.598 0.0150058 0.
0.600002 0.0150058 0.
0.602004 0.0150057 0.
0.604006 0.0150057 0.
0.606008 0.0150057 0.
0.608009 0.0150056 0.
0.61001 0.0150056 0.
0.612011 0.0150055 0.
0.614013 0.0150054 0.
0.616014 0.0150052 0.
0.618016 0.0150051 0.
0.620017 0.0150049 0.
0.622019 0.0150048 0.
0.624021 0.0150048 0.
0.626023 0.0150049 0.
0.628024 0.0150049 0.
0.630026 0.0150049 0.
0.632028 0.015005 0.
0.634029 0.0150049 0.
0.636031 0.0150048 0.
0.638033 0.0150046 0.
0.640034 0.0150045 0.
0.642035 0.0150044 0.
0.644036 0.0150043 0.
0.646037 0.0150043 0.
0.648038 0.0150043 0.
0.650039 0.0150044 0.
0.652041 0.0150045 0.
0.654042 0.0150047 0.
0.656044 0.015005 0.
0.658045 0.0150055 0.
0.660047 0.0150061 0.
0.662048 0.0150063 0.
0.66405 0.0150062 0.
0.666051 0.015006 0.
0.668052 0.0150058 0.
0.670053 0.0150055 0.
0.672054 0.0150052 0.
0.674055 0.0150052 0.
0.676056 0.0150053 0.
0.678056 0.0150054 0.
0.680057 0.0150058 0.
0.682058 0.0150062 0.
0.684059 0.0150065 0.
0.686059 0.0150068 0.
0.68806 0.0150071 0.
0.690061 0.0150075 0.
0.692062 0.0150078 0.
0.694062 0.0150082 0.
0.696063 0.0150089 0.
0.698064 0.0150097 0.
0.499938 0.0170101 0.
0.501939 0.0170095 0.
0.50394 0.017009 0.
0.505941 0.0170086 0.
0.507941 0.0170083 0.
0.509941 0.017008 0.
0.511942 0.0170078 0.
0.513943 0.0170075 0.
0.515943 0.0170073 0.
0.517944 0.0170072 0.
0.519945 0.0170071 0.
0.521946 0.017007 0.
0.523947 0.0170068 0.
0.525947 0.0170067 0.
0.527948 0.0170065 0.
0.52995 0.0170065 0.
0.531951 0.0170065 0.
0.533952 0.0170064 0.
0.535953 0.0170061 0.
0.537955 0.0170059 0.
0.539956 0.0170056 0.
0.541957 0.0170054 0.
0.543959 0.0170052 0.
0.54596 0.0170052 0.
0.547961 0.0170052 0.
0.549962 0.0170052 0.
0.551963 0.0170054 0.
0.553965 0.0170057 0.
0.555966 0.0170059 0.
0.557967 0.0170057 0.
0.559968 0.0170056 0.
0.56197 0.0170056 0.
0.563971 0.0170056 0.
0.565973 0.0170056 0.
0.567975 0.0170057 0.
0.569977 0.0170059 0.
0.571978 0.0170061 0.
0.57398 0.0170059 0.
0.575982 0.0170058 0.
0.577983 0.0170057 0.
0.579985 0.0170058 0.
0.581986 0.017006 0.
0.583988 0.0170061 0.
0.585989 0.017006 0.
0.587991 0.017006 0.
0.589993 0.0170061 0.
0.591994 0.0170063 0.
0.593996 0.0170066 0.
0.595998 0.0170068 0.
0.598 0.017007 0.
0.600002 0.0170072 0.
0.602004 0.0170069 0.
0.604006 0.0170065 0.
0.606008 0.0170063 0.
0.608009 0.0170065 0.
0.61001 0.0170066 0.
0.612012 0.0170067 0.
0.614013 0.0170065 0.
0.616014 0.0170064 0.
0.618016 0.0170062 0.
0.620017 0.0170059 0.
0.622019 0.0170057 0.
0.624021 0.0170058 0.
0.626023 0.017006 0.
0.628025 0.0170062 0.
0.630026 0.0170061 0.
0.632028 0.0170059 0.
0.634029 0.0170058 0.
0.636031 0.0170057 0.
0.638033 0.0170055 0.
0.640034 0.0170055 0.
0.642035 0.0170055 0.
0.644036 0.0170056 0.
0.646037 0.0170055 0.
0.648038 0.0170055 0.
0.650039 0.0170054 0.
0.652041 0.0170056 0.
0.654042 0.0170057 0.
0.656043 0.0170059 0.
0.658045 0.0170063 0.
0.660046 0.0170067 0.
0.662048 0.0170069 0.
0.664049 0.0170068 0.
0.66605 0.0170068 0.
0.668051 0.0170068 0.
0.670052 0.0170068 0.
0.672053 0.0170069 0.
0.674054 0.0170068 0.
0.676055 0.0170067 0.
0.678056 0.0170067 0.
0.680056 0.017007 0.
0.682057 0.0170073 0.
0.684058 0.0170076 0.
0.686059 0.0170079 0.
0.688059 0.0170082 0.
0.69006 0.0170086 0.
0.692061 0.0170091 0.
0.694062 0.0170095 0.
0.696063 0.0170101 0.
0.698063 0.0170107 0.
0.499938 0.019011 0.
0.501939 0.0190106 0.
0.50394 0.0190104 0.
0.505941 0.0190101 0.
0.507941 0.0190098 0.
0.509942 0.0190094 0.
0.511942 0.0190092 0.
0.513943 0.019009 0.
0.515944 0.0190089 0.
0.517944 0.0190088 0.
0.519945 0.0190086 0.
0.521946 0.0190084 0.
0.523947 0.019008 0.
0.525948 0.0190076 0.
0.527949 0.0190073 0.
0.52995 0.0190075 0.
0.531951 0.0190077 0.
0.533953 0.0190076 0.
0.535954 0.0190071 0.
0.537955 0.0190066 0.
0.539956 0.0190064 0.
0.541958 0.0190064 0.
0.543959 0.0190063 0.
0.54596 0.0190064 0.
0.547961 0.0190064 0.
0.549962 0.0190064 0.
0.551963 0.0190064 0.
0.553964 0.0190064 0.
0.555966 0.0190064 0.
0.557967 0.0190065 0.
0.559968 0.0190065 0.
0.56197 0.0190065 0.
0.563971 0.0190065 0.
0.565973 0.0190065 0.
0.567975 0.0190066 0.
0.569976 0.0190068 0.
0.571978 0.019007 0.
0.57398 0.0190068 0.
0.575981 0.0190066 0.
0.577983 0.0190064 0.
0.579985 0.0190067 0.
0.581986 0.0190069 0.
0.583987 0.0190071 0.
0.585989 0.0190071 0.
0.587991 0.0190071 0.
0.589992 0.0190072 0.
0.591994 0.0190074 0.
0.593996 0.0190076 0.
0.595998 0.0190079 0.
0.598 0.0190082 0.
0.600001 0.0190086 0.
0.602004 0.019008 0.
0.604006 0.0190074 0.
0.606008 0.019007 0.
0.608009 0.0190073 0.
0.61001 0.0190077 0.
0.612012 0.0190079 0.
0.614013 0.0190077 0.
0.616014 0.0190076 0.
0.618016 0.0190073 0.
0.620017 0.0190069 0.
0.622019 0.0190066 0.
0.624021 0.0190069 0.
0.626023 0.0190072 0.
0.628025 0.0190075 0.
0.630027 0.0190072 0.
0.632028 0.0190069 0.
0.634029 0.0190067 0.
0.636031 0.0190066 0.
0.638033 0.0190065 0.
0.640034 0.0190065 0.
0.642035 0.0190067 0.
0.644036 0.0190068 0.
0.646037 0.0190067 0.
0.648038 0.0190066 0.
0.650039 0.0190064 0.
0.65204 0.0190066 0.
0.654042 0.0190067 0.
0.656043 0.0190068 0.
0.658045 0.019007 0.
0.660046 0.0190073 0.
0.662047 0.0190074 0.
0.664048 0.0190075 0.
0.66605 0.0190076 0.
0.668051 0.0190079 0.
0.670052 0.0190082 0.
0.672053 0.0190085 0.
0.674053 0.0190083 0.
0.676054 0.0190081 0.
0.678055 0.0190079 0.
0.680056 0.0190082 0.
0.682057 0.0190085 0.
0.684057 0.0190087 0.
0.686058 0.0190091 0.
0.688059 0.0190094 0.
0.69006 0.0190098 0.
0.692061 0.0190103 0.
0.694062 0.0190108 0.
0.696062 0.0190112 0.
0.698063 0.0190116 0.
0.499939 0.0210121 0.
0.50194 0.0210116 0.
0.503941 0.0210114 0.
0.505941 0.0210111 0.
0.507942 0.0210107 0.
0.509942 0.0210103 0.
0.511943 0.02101 0.
0.513943 0.0210099 0.
0.515944 0.0210098 0.
0.517945 0.0210096 0.
0.519946 0.0210093 0.
0.521946 0.0210091 0.
0.523947 0.0210088 0.
0.525948 0.0210084 0.
0.527949 0.021008 0.
0.52995 0.0210081 0.
0.531952 0.0210083 0.
0.533953 0.0210082 0.
0.535954 0.0210076 0.
0.537956 0.0210071 0.
0.539957 0.0210068 0.
0.541958 0.0210069 0.
0.543959 0.0210069 0.
0.54596 0.021007 0.
0.547961 0.021007 0.
0.549962 0.0210071 0.
0.551963 0.021007 0.
0.553964 0.0210069 0.
0.555966 0.0210069 0.
0.557967 0.0210071 0.
0.559968 0.0210072 0.
0.56197 0.0210073 0.
0.563971 0.0210072 0.
0.565973 0.0210071 0.
0.567974 0.0210072 0.
0.569976 0.0210074 0.
0.571978 0.0210076 0.
0.573979 0.0210074 0.
0.575981 0.0210071 0.
0.577983 0.0210068 0.
0.579985 0.021007 0.
0.581986 0.0210072 0.
0.583988 0.0210074 0.
0.585989 0.0210076 0.
0.587991 0.0210077 0.
0.589992 0.0210079 0.
0.591994 0.021008 0.
0.593996 0.0210082 0.
0.595998 0.0210085 0.
0.598 0.0210089 0.
0.600001 0.0210093 0.
0.602004 0.0210085 0.
0.604006 0.0210078 0.
0.606008 0.0210073 0.
0.608009 0.0210077 0.
0.61001 0.0210081 0.
0.612012 0.0210083 0.
0.614013 0.0210082 0.
0.616014 0.021008 0.
0.618016 0.0210078 0.
0.620018 0.0210075 0.
0.622019 0.0210072 0.
0.624021 0.0210075 0.
0.626023 0.0210079 0.
0.628025 0.0210082 0.
0.630027 0.0210079 0.
0.632028 0.0210075 0.
0.634029 0.0210073 0.
0.636031 0.0210073 0.
0.638032 0.0210072 0.
0.640034 0.0210073 0.
0.642035 0.0210075 0.
0.644036 0.0210076 0.
0.646037 0.0210075 0.
0.648038 0.0210074 0.
0.650039 0.0210073 0.
0.65204 0.0210073 0.
0.654042 0.0210073 0.
0.656043 0.0210073 0.
0.658044 0.0210075 0.
0.660046 0.0210077 0.
0.662047 0.0210078 0.
0.664048 0.021008 0.
0.666049 0.0210082 0.
0.66805 0.0210085 0.
0.670051 0.0210089 0.
0.672052 0.0210094 0.
0.674053 0.0210092 0.
0.676054 0.0210089 0.
0.678054 0.0210087 0.
0.680055 0.0210089 0.
0.682056 0.0210091 0.
0.684057 0.0210094 0.
0.686057 0.0210098 0.
0.688058 0.0210102 0.
0.690059 0.0210107 0.
0.69206 0.0210112 0.
0.694061 0.0210118 0.
0.696062 0.0210122 0.
0.698062 0.0210126 0.
0.499939 0.0230134 0.
0.50194 0.0230126 0.
0.503941 0.0230121 0.
0.505942 0.0230115 0.
0.507942 0.0230111 0.
0.509943 0.0230107 0.
0.511943 0.0230104 0.
0.513944 0.0230101 0.
0.515945 0.0230098 0.
0.517945 0.0230096 0.
0.519946 0.0230094 0.
0.521947 0.0230092 0.
0.523947 0.0230091 0.
0.525948 0.0230089 0.
0.527949 0.0230087 0.
0.52995 0.0230085 0.
0.531952 0.0230083 0.
0.533953 0.023008 0.
0.535954 0.0230076 0.
0.537956 0.0230072 0.
0.539957 0.023007 0.
0.541958 0.023007 0.
0.543959 0.0230071 0.
0.54596 0.0230071 0.
0.547962 0.0230071 0.
0.549963 0.0230071 0.
0.551964 0.0230072 0.
0.553965 0.0230073 0.
0.555966 0.0230074 0.
0.557967 0.0230076 0.
0.559968 0.0230077 0.
0.56197 0.0230077 0.
0.563971 0.0230077 0.
0.565973 0.0230076 0.
0.567974 0.0230077 0.
0.569976 0.0230078 0.
0.571977 0.0230079 0.
0.573979 0.0230076 0.
0.575981 0.0230072 0.
0.577983 0.0230068 0.
0.579985 0.0230069 0.
0.581986 0.023007 0.
0.583988 0.0230072 0.
0.58599 0.0230075 0.
0.587991 0.0230078 0.
0.589993 0.0230081 0.
0.591994 0.0230083 0.
0.593996 0.0230085 0.
0.595998 0.0230088 0.
0.598 0.0230091 0.
0.600002 0.0230093 0.
0.602004 0.0230085 0.
0.604006 0.0230077 0.
0.606008 0.0230072 0.
0.608009 0.0230075 0.
0.61001 0.0230079 0.
0.612011 0.0230081 0.
0.614013 0.0230079 0.
0.616014 0.0230077 0.
0.618016 0.0230076 0.
0.620017 0.0230075 0.
0.622019 0.0230074 0.
0.624021 0.0230077 0.
0.626023 0.0230082 0.
0.628026 0.0230085 0.
0.630027 0.0230081 0.
0.632028 0.0230077 0.
0.63403 0.0230075 0.
0.636031 0.0230077 0.
0.638032 0.0230079 0.
0.640034 0.0230079 0.
0.642035 0.0230079 0.
0.644036 0.0230079 0.
0.646037 0.0230079 0.
0.648038 0.023008 0.
0.650039 0.023008 0.
0.65204 0.0230077 0.
0.654042 0.0230075 0.
0.656043 0.0230074 0.
0.658045 0.0230076 0.
0.660046 0.0230079 0.
0.662047 0.0230081 0.
0.664048 0.0230082 0.
0.666049 0.0230084 0.
0.66805 0.0230087 0.
0.670051 0.023009 0.
0.672052 0.0230094 0.
0.674053 0.0230092 0.
0.676053 0.0230091 0.
0.678054 0.0230089 0.
0.680055 0.0230092 0.
0.682055 0.0230094 0.
0.684056 0.0230097 0.
0.686057 0.0230103 0.
0.688057 0.0230108 0.
0.690058 0.0230113 0.
0.692059 0.0230119 0.
0.69406 0.0230124 0.
0.696061 0.023013 0.
0.698062 0.0230137 0.
0.49994 0.0250146 0.
0.501941 0.0250136 0.
0.503942 0.0250128 0.
0.505943 0.025012 0.
0.507943 0.0250115 0.
0.509944 0.0250111 0.
0.511944 0.0250107 0.
0.513945 0.0250103 0.
0.515945 0.0250099 0.
0.517946 0.0250096 0.
0.519946 0.0250095 0.
0.521947 0.0250093 0.
0.523948 0.0250094 0.
0.525948 0.0250094 0.
0.527949 0.0250094 0.
0.529951 0.0250089 0.
0.531952 0.0250083 0.
0.533953 0.0250078 0.
0.535955 0.0250075 0.
0.537956 0.0250072 0.
0.539957 0.0250071 0.
0.541958 0.0250072 0.
0.543959 0.0250072 0.
0.545961 0.0250072 0.
0.547962 0.0250071 0.
0.549963 0.0250071 0.
0.551964 0.0250074 0.
0.553965 0.0250077 0.
0.555967 0.025008 0.
0.557967 0.0250081 0.
0.559968 0.0250082 0.
0.56197 0.0250082 0.
0.563971 0.0250082 0.
0.565973 0.0250081 0.
0.567974 0.0250082 0.
0.569976 0.0250082 0.
0.571977 0.0250083 0.
0.573979 0.0250078 0.
0.575981 0.0250073 0.
0.577983 0.0250068 0.
0.579985 0.0250068 0.
0.581987 0.0250068 0.
0.583988 0.0250069 0.
0.58599 0.0250074 0.
0.587991 0.0250079 0.
0.589993 0.0250082 0.
0.591995 0.0250085 0.
0.593996 0.0250088 0.
0.595998 0.025009 0.
0.598 0.0250092 0.
0.600002 0.0250094 0.
0.602004 0.0250085 0.
0.604006 0.0250077 0.
0.606007 0.0250071 0.
0.608009 0.0250074 0.
0.61001 0.0250077 0.
0.612011 0.0250078 0.
0.614012 0.0250076 0.
0.616014 0.0250074 0.
0.618016 0.0250074 0.
0.620017 0.0250075 0.
0.622019 0.0250075 0.
0.624021 0.025008 0.
0.626024 0.0250084 0.
0.628026 0.0250088 0.
0.630027 0.0250083 0.
0.632028 0.0250079 0.
0.63403 0.0250077 0.
0.636031 0.0250081 0.
0.638032 0.0250085 0.
0.640033 0.0250086 0.
0.642034 0.0250084 0.
0.644035 0.0250082 0.
0.646036 0.0250083 0.
0.648037 0.0250085 0.
0.650038 0.0250087 0.
0.65204 0.0250082 0.
0.654042 0.0250077 0.
0.656043 0.0250075 0.
0.658045 0.0250077 0.
0.660046 0.025008 0.
0.662047 0.0250083 0.
0.664048 0.0250085 0.
0.666049 0.0250087 0.
0.66805 0.0250089 0.
0.670051 0.0250091 0.
0.672052 0.0250094 0.
0.674053 0.0250093 0.
0.676053 0.0250092 0.
0.678053 0.0250092 0.
0.680054 0.0250094 0.
0.682055 0.0250096 0.
0.684055 0.02501 0.
0.686056 0.0250107 0.
0.688056 0.0250114 0.
0.690057 0.0250119 0.
0.692058 0.0250125 0.
0.694059 0.025013 0.
0.69606 0.0250138 0.
0.698061 0.0250148 0.
0.49994 0.0270156 0.
0.501941 0.0270146 0.
0.503942 0.0270137 0.
0.505943 0.0270129 0.
0.507944 0.0270124 0.
0.509944 0.0270119 0.
0.511945 0.0270115 0.
0.513945 0.0270111 0.
0.515946 0.0270108 0.
0.517947 0.0270105 0.
0.519947 0.0270103 0.
0.521948 0.0270101 0.
0.523949 0.0270099 0.
0.525949 0.0270096 0.
0.52795 0.0270093 0.
0.529951 0.0270089 0.
0.531953 0.0270084 0.
0.533954 0.0270081 0.
0.535955 0.0270077 0.
0.537956 0.0270074 0.
0.539957 0.0270073 0.
0.541959 0.0270073 0.
0.54396 0.0270074 0.
0.545961 0.0270074 0.
0.547962 0.0270073 0.
0.549964 0.0270073 0.
0.551965 0.0270077 0.
0.553966 0.027008 0.
0.555966 0.0270083 0.
0.557967 0.0270085 0.
0.559968 0.0270087 0.
0.56197 0.0270087 0.
0.563971 0.0270084 0.
0.565973 0.0270082 0.
0.567974 0.027008 0.
0.569976 0.0270079 0.
0.571977 0.0270078 0.
0.573979 0.0270076 0.
0.575981 0.0270074 0.
0.577983 0.0270073 0.
0.579985 0.0270074 0.
0.581986 0.0270074 0.
0.583988 0.0270076 0.
0.585989 0.0270079 0.
0.587991 0.0270082 0.
0.589993 0.0270085 0.
0.591994 0.0270087 0.
0.593996 0.0270089 0.
0.595998 0.0270091 0.
0.598 0.0270093 0.
0.600002 0.0270094 0.
0.602004 0.0270087 0.
0.604005 0.0270079 0.
0.606007 0.0270074 0.
0.608009 0.0270077 0.
0.61001 0.027008 0.
0.612011 0.0270082 0.
0.614013 0.027008 0.
0.616014 0.0270079 0.
0.618016 0.0270078 0.
0.620017 0.0270077 0.
0.622019 0.0270076 0.
0.624021 0.0270079 0.
0.626023 0.0270081 0.
0.628026 0.0270084 0.
0.630027 0.0270083 0.
0.632028 0.0270083 0.
0.63403 0.0270083 0.
0.636031 0.0270086 0.
0.638032 0.0270088 0.
0.640033 0.0270089 0.
0.642034 0.0270088 0.
0.644035 0.0270087 0.
0.646036 0.0270085 0.
0.648037 0.0270082 0.
0.650038 0.027008 0.
0.65204 0.0270079 0.
0.654041 0.0270079 0.
0.656043 0.0270079 0.
0.658044 0.0270081 0.
0.660045 0.0270083 0.
0.662047 0.0270084 0.
0.664048 0.0270086 0.
0.666049 0.0270088 0.
0.66805 0.0270091 0.
0.670051 0.0270096 0.
0.672052 0.02701 0.
0.674052 0.0270101 0.
0.676052 0.0270102 0.
0.678053 0.0270103 0.
0.680053 0.0270104 0.
0.682054 0.0270106 0.
0.684054 0.0270109 0.
0.686055 0.0270115 0.
0.688055 0.0270121 0.
0.690056 0.0270128 0.
0.692057 0.0270135 0.
0.694059 0.0270142 0.
0.696059 0.027015 0.
0.69806 0.0270158 0.
0.499941 0.0290165 0.
0.501942 0.0290155 0.
0.503943 0.0290146 0.
0.505944 0.0290138 0.
0.507944 0.0290133 0.
0.509945 0.0290127 0.
0.511945 0.0290123 0.
0.513946 0.029012 0.
0.515947 0.0290116 0.
0.517947 0.0290114 0.
0.519948 0.0290111 0.
0.521949 0.0290109 0.
0.52395 0.0290104 0.
0.52595 0.0290098 0.
0.527951 0.0290092 0.
0.529952 0.0290089 0.
0.531953 0.0290086 0.
0.533954 0.0290083 0.
0.535956 0.0290079 0.
0.537957 0.0290075 0.
0.539958 0.0290074 0.
0.541959 0.0290075 0.
0.54396 0.0290075 0.
0.545962 0.0290075 0.
0.547963 0.0290075 0.
0.549964 0.0290075 0.
0.551965 0.0290079 0.
0.553966 0.0290083 0.
0.555966 0.0290087 0.
0.557967 0.0290089 0.
0.559968 0.0290091 0.
0.56197 0.0290091 0.
0.563971 0.0290087 0.
0.565973 0.0290083 0.
0.567974 0.0290079 0.
0.569976 0.0290076 0.
0.571978 0.0290073 0.
0.57398 0.0290074 0.
0.575982 0.0290076 0.
0.577984 0.0290078 0.
0.579985 0.0290079 0.
0.581986 0.029008 0.
0.583987 0.0290082 0.
0.585989 0.0290084 0.
0.587991 0.0290086 0.
0.589992 0.0290088 0.
0.591994 0.0290089 0.
0.593996 0.029009 0.
0.595998 0.0290092 0.
0.598 0.0290093 0.
0.600002 0.0290095 0.
0.602003 0.0290088 0.
0.604005 0.0290081 0.
0.606007 0.0290077 0.
0.608008 0.029008 0.
0.61001 0.0290083 0.
0.612011 0.0290085 0.
0.614013 0.0290084 0.
0.616014 0.0290084 0.
0.618016 0.0290082 0.
0.620017 0.029008 0.
0.622019 0.0290077 0.
0.624021 0.0290078 0.
0.626023 0.0290079 0.
0.628025 0.029008 0.
0.630027 0.0290083 0.
0.632028 0.0290087 0.
0.634029 0.029009 0.
0.636031 0.029009 0.
0.638032 0.0290091 0.
0.640033 0.0290091 0.
0.642034 0.0290092 0.
0.644035 0.0290092 0.
0.646036 0.0290087 0.
0.648037 0.029008 0.
0.650037 0.0290073 0.
0.652039 0.0290077 0.
0.654041 0.029008 0.
0.656042 0.0290083 0.
0.658043 0.0290084 0.
0.660045 0.0290085 0.
0.662046 0.0290086 0.
0.664047 0.0290087 0.
0.666048 0.0290088 0.
0.668049 0.0290093 0.
0.67005 0.02901 0.
0.672051 0.0290106 0.
0.674051 0.0290109 0.
0.676052 0.0290112 0.
0.678052 0.0290114 0.
0.680052 0.0290115 0.
0.682053 0.0290115 0.
0.684053 0.0290118 0.
0.686054 0.0290124 0.
0.688054 0.0290129 0.
0.690055 0.0290137 0.
0.692056 0.0290145 0.
0.694058 0.0290154 0.
0.696059 0.0290161 0.
0.69806 0.0290168 0.
0.499942 0.0310173 0.
0.501943 0.0310164 0.
0.503944 0.0310155 0.
0.505944 0.0310146 0.
0.507945 0.0310141 0.
0.509945 0.0310135 0.
0.511946 0.031013 0.
0.513947 0.0310126 0.
0.515947 0.0310122 0.
0.517948 0.0310119 0.
0.519949 0.0310116 0.
0.52195 0.0310113 0.
0.52395 0.0310107 0.
0.525951 0.0310101 0.
0.527951 0.0310094 0.
0.529953 0.0310092 0.
0.531954 0.0310089 0.
0.533955 0.0310085 0.
0.535956 0.0310081 0.
0.537957 0.0310076 0.
0.539958 0.0310075 0.
0.541959 0.0310077 0.
0.543961 0.0310079 0.
0.545962 0.0310078 0.
0.547963 0.0310077 0.
0.549965 0.0310076 0.
0.551965 0.0310081 0.
0.553966 0.0310086 0.
0.555967 0.031009 0.
0.557968 0.0310091 0.
0.559969 0.0310092 0.
0.56197 0.0310091 0.
0.563971 0.0310087 0.
0.565973 0.0310084 0.
0.567974 0.031008 0.
0.569976 0.0310077 0.
0.571978 0.0310073 0.
0.57398 0.0310075 0.
0.575982 0.0310078 0.
0.577984 0.0310081 0.
0.579985 0.0310082 0.
0.581986 0.0310084 0.
0.583988 0.0310086 0.
0.585989 0.0310087 0.
0.587991 0.0310089 0.
0.589992 0.031009 0.
0.591994 0.0310091 0.
0.593996 0.0310092 0.
0.595998 0.0310093 0.
0.597999 0.0310093 0.
0.600001 0.0310094 0.
0.602003 0.0310088 0.
0.604005 0.0310083 0.
0.606007 0.031008 0.
0.608008 0.0310082 0.
0.61001 0.0310084 0.
0.612011 0.0310085 0.
0.614013 0.0310085 0.
0.616014 0.0310085 0.
0.618015 0.0310084 0.
0.620017 0.0310082 0.
0.622018 0.0310079 0.
0.624021 0.031008 0.
0.626023 0.031008 0.
0.628025 0.0310082 0.
0.630027 0.0310086 0.
0.632028 0.0310091 0.
0.634029 0.0310093 0.
0.636031 0.0310093 0.
0.638032 0.0310092 0.
0.640033 0.0310092 0.
0.642034 0.0310094 0.
0.644035 0.0310095 0.
0.646036 0.0310089 0.
0.648036 0.0310081 0.
0.650037 0.0310074 0.
0.652039 0.0310078 0.
0.65404 0.0310083 0.
0.656042 0.0310086 0.
0.658043 0.0310086 0.
0.660044 0.0310086 0.
0.662046 0.0310087 0.
0.664047 0.031009 0.
0.666048 0.0310092 0.
0.668049 0.0310097 0.
0.670049 0.0310104 0.
0.67205 0.031011 0.
0.674051 0.0310114 0.
0.676051 0.0310118 0.
0.678051 0.0310122 0.
0.680052 0.0310122 0.
0.682052 0.0310122 0.
0.684053 0.0310124 0.
0.686053 0.031013 0.
0.688054 0.0310135 0.
0.690054 0.0310143 0.
0.692056 0.0310152 0.
0.694057 0.031016 0.
0.696058 0.0310168 0.
0.698058 0.0310175 0.
0.499943 0.033018 0.
0.501944 0.0330171 0.
0.503945 0.0330162 0.
0.505945 0.0330154 0.
0.507946 0.0330147 0.
0.509946 0.0330141 0.
0.511947 0.0330135 0.
0.513947 0.0330129 0.
0.515948 0.0330124 0.
0.517948 0.033012 0.
0.519949 0.0330116 0.
0.521949 0.0330113 0.
0.52395 0.0330109 0.
0.525951 0.0330105 0.
0.527952 0.0330101 0.
0.529953 0.0330097 0.
0.531954 0.0330092 0.
0.533955 0.0330088 0.
0.535956 0.0330083 0.
0.537957 0.0330077 0.
0.539958 0.0330077 0.
0.54196 0.033008 0.
0.543961 0.0330084 0.
0.545962 0.0330082 0.
0.547963 0.0330078 0.
0.549965 0.0330074 0.
0.551966 0.0330082 0.
0.553967 0.0330089 0.
0.555967 0.0330094 0.
0.557968 0.0330091 0.
0.559969 0.0330088 0.
0.56197 0.0330086 0.
0.563972 0.0330085 0.
0.565973 0.0330085 0.
0.567975 0.0330084 0.
0.569976 0.0330081 0.
0.571978 0.0330079 0.
0.57398 0.0330079 0.
0.575982 0.033008 0.
0.577984 0.0330081 0.
0.579985 0.0330083 0.
0.581987 0.0330085 0.
0.583988 0.0330087 0.
0.58599 0.0330089 0.
0.587991 0.033009 0.
0.589993 0.0330092 0.
0.591994 0.0330093 0.
0.593996 0.0330095 0.
0.595997 0.0330094 0.
0.597999 0.0330093 0.
0.600001 0.0330091 0.
0.602003 0.0330088 0.
0.604005 0.0330084 0.
0.606007 0.0330082 0.
0.608008 0.0330082 0.
0.610009 0.0330082 0.
0.612011 0.0330082 0.
0.614012 0.0330083 0.
0.616013 0.0330084 0.
0.618015 0.0330083 0.
0.620016 0.0330083 0.
0.622018 0.0330082 0.
0.62402 0.0330084 0.
0.626023 0.0330087 0.
0.628025 0.0330089 0.
0.630026 0.0330091 0.
0.632028 0.0330094 0.
0.634029 0.0330094 0.
0.63603 0.0330093 0.
0.638031 0.0330091 0.
0.640032 0.0330091 0.
0.642033 0.0330094 0.
0.644034 0.0330096 0.
0.646035 0.0330093 0.
0.648036 0.0330087 0.
0.650037 0.0330082 0.
0.652039 0.0330084 0.
0.65404 0.0330087 0.
0.656041 0.0330088 0.
0.658043 0.0330088 0.
0.660044 0.0330087 0.
0.662045 0.0330089 0.
0.664047 0.0330094 0.
0.666048 0.0330099 0.
0.668049 0.0330103 0.
0.670049 0.0330107 0.
0.67205 0.0330111 0.
0.67405 0.0330116 0.
0.676051 0.0330122 0.
0.678051 0.0330126 0.
0.680051 0.0330126 0.
0.682052 0.0330126 0.
0.684052 0.0330128 0.
0.686053 0.0330134 0.
0.688053 0.033014 0.
0.690054 0.0330146 0.
0.692055 0.0330154 0.
0.694056 0.0330162 0.
0.696056 0.033017 0.
0.698057 0.0330178 0.
0.499944 0.0350187 0.
0.501945 0.0350178 0.
0.503946 0.0350169 0.
0.505946 0.0350161 0.
0.507947 0.0350154 0.
0.509947 0.0350148 0.
0.511948 0.0350141 0.
0.513948 0.0350133 0.
0.515949 0.0350126 0.
0.517949 0.0350121 0.
0.519949 0.0350117 0.
0.521949 0.0350113 0.
0.52395 0.0350111 0.
0.525951 0.0350109 0.
0.527952 0.0350107 0.
0.529953 0.0350102 0.
0.531954 0.0350096 0.
0.533955 0.0350091 0.
0.535956 0.0350084 0.
0.537958 0.0350078 0.
0.539959 0.0350078 0.
0.54196 0.0350084 0.
0.543961 0.035009 0.
0.545962 0.0350086 0.
0.547964 0.0350079 0.
0.549965 0.0350073 0.
0.551966 0.0350083 0.
0.553967 0.0350092 0.
0.555968 0.0350099 0.
0.557969 0.0350091 0.
0.559969 0.0350084 0.
0.56197 0.0350081 0.
0.563972 0.0350084 0.
0.565973 0.0350087 0.
0.567975 0.0350087 0.
0.569976 0.0350086 0.
0.571978 0.0350085 0.
0.57398 0.0350084 0.
0.575982 0.0350083 0.
0.577984 0.0350082 0.
0.579986 0.0350084 0.
0.581987 0.0350086 0.
0.583989 0.0350088 0.
0.58599 0.035009 0.
0.587992 0.0350091 0.
0.589993 0.0350093 0.
0.591994 0.0350095 0.
0.593996 0.0350098 0.
0.595997 0.0350095 0.
0.597999 0.0350092 0.
0.600001 0.0350089 0.
0.602003 0.0350087 0.
0.604005 0.0350086 0.
0.606006 0.0350084 0.
0.608008 0.0350082 0.
0.610009 0.0350079 0.
0.61201 0.0350079 0.
0.614012 0.035008 0.
0.616013 0.0350082 0.
0.618014 0.0350083 0.
0.620016 0.0350084 0.
0.622018 0.0350085 0.
0.62402 0.0350089 0.
0.626022 0.0350093 0.
0.628025 0.0350096 0.
0.630026 0.0350096 0.
0.632028 0.0350097 0.
0.634029 0.0350096 0.
0.63603 0.0350093 0.
0.638031 0.035009 0.
0.640032 0.035009 0.
0.642033 0.0350094 0.
0.644033 0.0350097 0.
0.646035 0.0350096 0.
0.648036 0.0350093 0.
0.650037 0.035009 0.
0.652039 0.035009 0.
0.65404 0.0350091 0.
0.656041 0.035009 0.
0.658043 0.0350089 0.
0.660044 0.0350087 0.
0.662045 0.035009 0.
0.664047 0.0350098 0.
0.666048 0.0350105 0.
0.668048 0.0350109 0.
0.670049 0.035011 0.
0.67205 0.0350112 0.
0.67405 0.0350119 0.
0.67605 0.0350126 0.
0.67805 0.0350131 0.
0.680051 0.0350131 0.
0.682051 0.0350131 0.
0.684051 0.0350132 0.
0.686052 0.0350138 0.
0.688053 0.0350144 0.
0.690053 0.035015 0.
0.692054 0.0350157 0.
0.694055 0.0350164 0.
0.696055 0.0350173 0.
0.698055 0.0350182 0.
0.499945 0.0370197 0.
0.501946 0.0370187 0.
0.503947 0.0370177 0.
0.505947 0.0370167 0.
0.507948 0.0370161 0.
0.509948 0.0370155 0.
0.511949 0.0370149 0.
0.513949 0.0370143 0.
0.51595 0.0370137 0.
0.51795 0.0370132 0.
0.51995 0.0370126 0.
0.521951 0.0370121 0.
0.523951 0.0370115 0.
0.525952 0.0370109 0.
0.527953 0.0370104 0.
0.529954 0.0370101 0.
0.531955 0.0370098 0.
0.533956 0.0370094 0.
0.535957 0.037009 0.
0.537958 0.0370086 0.
0.539959 0.0370086 0.
0.54196 0.0370089 0.
0.543962 0.0370093 0.
0.545963 0.037009 0.
0.547964 0.0370086 0.
0.549965 0.0370082 0.
0.551966 0.0370089 0.
0.553967 0.0370097 0.
0.555968 0.0370101 0.
0.557969 0.0370095 0.
0.55997 0.0370088 0.
0.561971 0.0370085 0.
0.563972 0.0370086 0.
0.565974 0.0370088 0.
0.567975 0.0370087 0.
0.569977 0.0370086 0.
0.571978 0.0370085 0.
0.57398 0.0370085 0.
0.575982 0.0370085 0.
0.577984 0.0370085 0.
0.579986 0.0370087 0.
0.581987 0.037009 0.
0.583988 0.0370092 0.
0.58599 0.0370091 0.
0.587991 0.0370091 0.
0.589992 0.0370092 0.
0.591994 0.0370096 0.
0.593995 0.0370099 0.
0.595997 0.0370098 0.
0.597999 0.0370094 0.
0.600001 0.0370091 0.
0.602003 0.0370088 0.
0.604005 0.0370086 0.
0.606007 0.0370084 0.
0.608008 0.0370082 0.
0.610009 0.0370081 0.
0.612011 0.0370081 0.
0.614012 0.0370083 0.
0.616013 0.0370086 0.
0.618015 0.0370087 0.
0.620016 0.0370087 0.
0.622018 0.0370088 0.
0.62402 0.037009 0.
0.626022 0.0370093 0.
0.628024 0.0370095 0.
0.630026 0.0370096 0.
0.632027 0.0370097 0.
0.634028 0.0370097 0.
0.636029 0.0370095 0.
0.638031 0.0370093 0.
0.640032 0.0370094 0.
0.642033 0.0370099 0.
0.644034 0.0370103 0.
0.646035 0.03701 0.
0.648036 0.0370095 0.
0.650037 0.037009 0.
0.652038 0.0370093 0.
0.65404 0.0370096 0.
0.656041 0.0370098 0.
0.658042 0.0370096 0.
0.660043 0.0370094 0.
0.662045 0.0370096 0.
0.664046 0.03701 0.
0.666047 0.0370105 0.
0.668047 0.0370109 0.
0.670048 0.0370114 0.
0.672048 0.0370118 0.
0.674049 0.0370125 0.
0.676049 0.0370131 0.
0.67805 0.0370137 0.
0.68005 0.037014 0.
0.68205 0.0370143 0.
0.68405 0.0370146 0.
0.686051 0.0370151 0.
0.688051 0.0370156 0.
0.690052 0.0370162 0.
0.692053 0.0370169 0.
0.694054 0.0370175 0.
0.696054 0.0370182 0.
0.698055 0.0370189 0.
0.499946 0.0390206 0.
0.501947 0.0390196 0.
0.503948 0.0390184 0.
0.505949 0.0390174 0.
0.507949 0.0390168 0.
0.509949 0.0390163 0.
0.51195 0.0390158 0.
0.51395 0.0390153 0.
0.515951 0.0390149 0.
0.517951 0.0390143 0.
0.519952 0.0390136 0.
0.521952 0.0390129 0.
0.523953 0.039012 0.
0.525954 0.039011 0.
0.527954 0.03901 0.
0.529955 0.03901 0.
0.531956 0.0390099 0.
0.533956 0.0390098 0.
0.535957 0.0390096 0.
0.537958 0.0390094 0.
0.53996 0.0390094 0.
0.541961 0.0390095 0.
0.543962 0.0390096 0.
0.545963 0.0390095 0.
0.547964 0.0390093 0.
0.549965 0.0390091 0.
0.551966 0.0390096 0.
0.553967 0.0390101 0.
0.555968 0.0390104 0.
0.557969 0.0390099 0.
0.55997 0.0390093 0.
0.561971 0.039009 0.
0.563972 0.0390089 0.
0.565974 0.0390088 0.
0.567975 0.0390087 0.
0.569977 0.0390087 0.
0.571978 0.0390086 0.
0.57398 0.0390086 0.
0.575982 0.0390087 0.
0.577984 0.0390088 0.
0.579985 0.0390091 0.
0.581987 0.0390093 0.
0.583988 0.0390095 0.
0.585989 0.0390092 0.
0.58799 0.039009 0.
0.589992 0.0390092 0.
0.591993 0.0390096 0.
0.593995 0.0390101 0.
0.595997 0.03901 0.
0.597999 0.0390096 0.
0.600001 0.0390093 0.
0.602003 0.039009 0.
0.604005 0.0390086 0.
0.606007 0.0390083 0.
0.608008 0.0390083 0.
0.61001 0.0390082 0.
0.612011 0.0390083 0.
0.614012 0.0390086 0.
0.616014 0.039009 0.
0.618015 0.0390091 0.
0.620016 0.0390091 0.
0.622018 0.0390091 0.
0.62402 0.0390092 0.
0.626022 0.0390093 0.
0.628024 0.0390094 0.
0.630025 0.0390096 0.
0.632027 0.0390097 0.
0.634028 0.0390098 0.
0.636029 0.0390097 0.
0.63803 0.0390096 0.
0.640031 0.0390099 0.
0.642033 0.0390104 0.
0.644034 0.0390109 0.
0.646035 0.0390104 0.
0.648036 0.0390096 0.
0.650036 0.0390089 0.
0.652038 0.0390095 0.
0.654039 0.0390101 0.
0.656041 0.0390105 0.
0.658042 0.0390103 0.
0.660043 0.0390101 0.
0.662044 0.0390101 0.
0.664045 0.0390103 0.
0.666046 0.0390104 0.
0.668046 0.039011 0.
0.670047 0.0390117 0.
0.672047 0.0390125 0.
0.674048 0.0390131 0.
0.676048 0.0390137 0.
0.678049 0.0390142 0.
0.680049 0.0390149 0.
0.682049 0.0390155 0.
0.68405 0.039016 0.
0.68605 0.0390164 0.
0.68805 0.0390167 0.
0.690051 0.0390173 0.
0.692052 0.039018 0.
0.694053 0.0390187 0.
0.696053 0.0390192 0.
0.698054 0.0390196 0.
0.499947 0.0410212 0.
0.501948 0.0410202 0.
0.503949 0.041019 0.
0.505949 0.0410179 0.
0.50795 0.0410174 0.
0.50995 0.0410169 0.
0.511951 0.0410165 0.
0.513951 0.0410161 0.
0.515952 0.0410157 0.
0.517952 0.041015 0.
0.519953 0.0410142 0.
0.521953 0.0410133 0.
0.523954 0.0410123 0.
0.525954 0.0410113 0.
0.527955 0.0410104 0.
0.529955 0.0410103 0.
0.531956 0.0410103 0.
0.533957 0.0410102 0.
0.535958 0.0410101 0.
0.537959 0.0410099 0.
0.53996 0.0410099 0.
0.541961 0.04101 0.
0.543962 0.0410101 0.
0.545963 0.04101 0.
0.547964 0.0410098 0.
0.549965 0.0410096 0.
0.551966 0.04101 0.
0.553967 0.0410104 0.
0.555968 0.0410106 0.
0.557969 0.0410101 0.
0.55997 0.0410096 0.
0.561971 0.0410092 0.
0.563973 0.0410092 0.
0.565974 0.0410091 0.
0.567976 0.041009 0.
0.569977 0.0410089 0.
0.571978 0.0410088 0.
0.57398 0.0410088 0.
0.575982 0.0410088 0.
0.577984 0.0410089 0.
0.579986 0.0410091 0.
0.581987 0.0410094 0.
0.583988 0.0410095 0.
0.585989 0.0410093 0.
0.587991 0.0410091 0.
0.589992 0.0410093 0.
0.591993 0.0410097 0.
0.593995 0.0410102 0.
0.595997 0.0410101 0.
0.597999 0.0410098 0.
0.600001 0.0410095 0.
0.602003 0.0410091 0.
0.604005 0.0410088 0.
0.606006 0.0410084 0.
0.608008 0.0410083 0.
0.610009 0.0410081 0.
0.612011 0.0410082 0.
0.614012 0.0410086 0.
0.616014 0.0410089 0.
0.618015 0.0410091 0.
0.620016 0.0410093 0.
0.622017 0.0410094 0.
0.624019 0.0410095 0.
0.626021 0.0410096 0.
0.628024 0.0410097 0.
0.630025 0.0410098 0.
0.632026 0.0410099 0.
0.634028 0.04101 0.
0.636029 0.0410099 0.
0.63803 0.0410098 0.
0.640031 0.04101 0.
0.642032 0.0410106 0.
0.644034 0.0410112 0.
0.646034 0.0410107 0.
0.648035 0.04101 0.
0.650036 0.0410094 0.
0.652038 0.04101 0.
0.654039 0.0410106 0.
0.65604 0.0410111 0.
0.658041 0.0410108 0.
0.660042 0.0410106 0.
0.662043 0.0410106 0.
0.664044 0.0410107 0.
0.666045 0.0410108 0.
0.668046 0.0410114 0.
0.670046 0.0410121 0.
0.672047 0.0410128 0.
0.674047 0.0410135 0.
0.676048 0.0410141 0.
0.678048 0.0410147 0.
0.680048 0.0410155 0.
0.682049 0.0410163 0.
0.684049 0.0410169 0.
0.686049 0.0410172 0.
0.688049 0.0410175 0.
0.69005 0.041018 0.
0.692051 0.0410186 0.
0.694052 0.0410192 0.
0.696052 0.0410197 0.
0.698053 0.0410202 0.
0.499948 0.0430215 0.
0.501949 0.0430205 0.
0.50395 0.0430194 0.
0.50595 0.0430184 0.
0.50795 0.0430179 0.
0.509951 0.0430174 0.
0.511951 0.043017 0.
0.513952 0.0430165 0.
0.515952 0.0430161 0.
0.517953 0.0430153 0.
0.519953 0.0430143 0.
0.521953 0.0430133 0.
0.523954 0.0430126 0.
0.525954 0.043012 0.
0.527955 0.0430114 0.
0.529956 0.0430111 0.
0.531957 0.0430108 0.
0.533958 0.0430106 0.
0.535959 0.0430104 0.
0.53796 0.0430103 0.
0.53996 0.0430103 0.
0.541961 0.0430105 0.
0.543962 0.0430106 0.
0.545963 0.0430104 0.
0.547964 0.0430101 0.
0.549965 0.0430098 0.
0.551966 0.0430101 0.
0.553967 0.0430105 0.
0.555968 0.0430106 0.
0.557969 0.0430101 0.
0.559971 0.0430096 0.
0.561972 0.0430093 0.
0.563973 0.0430094 0.
0.565975 0.0430095 0.
0.567976 0.0430094 0.
0.569978 0.0430093 0.
0.571979 0.0430091 0.
0.573981 0.043009 0.
0.575983 0.0430089 0.
0.577985 0.0430089 0.
0.579986 0.043009 0.
0.581988 0.0430091 0.
0.583989 0.0430092 0.
0.58599 0.0430093 0.
0.587992 0.0430094 0.
0.589993 0.0430096 0.
0.591994 0.0430099 0.
0.593995 0.0430102 0.
0.595997 0.0430101 0.
0.597999 0.0430099 0.
0.600001 0.0430098 0.
0.602003 0.0430094 0.
0.604004 0.043009 0.
0.606006 0.0430086 0.
0.608007 0.0430082 0.
0.610008 0.0430079 0.
0.612009 0.0430078 0.
0.614011 0.0430081 0.
0.616013 0.0430084 0.
0.618014 0.0430088 0.
0.620015 0.0430093 0.
0.622016 0.0430097 0.
0.624019 0.04301 0.
0.626021 0.0430102 0.
0.628023 0.0430104 0.
0.630024 0.0430103 0.
0.632026 0.0430102 0.
0.634027 0.0430101 0.
0.636029 0.04301 0.
0.63803 0.0430098 0.
0.640031 0.04301 0.
0.642032 0.0430106 0.
0.644033 0.0430112 0.
0.646034 0.043011 0.
0.648035 0.0430106 0.
0.650036 0.0430102 0.
0.652038 0.0430107 0.
0.654039 0.0430112 0.
0.65604 0.0430115 0.
0.658041 0.0430112 0.
0.660042 0.0430109 0.
0.662043 0.0430109 0.
0.664043 0.0430112 0.
0.666044 0.0430116 0.
0.668045 0.043012 0.
0.670046 0.0430125 0.
0.672046 0.0430129 0.
0.674047 0.0430137 0.
0.676047 0.0430144 0.
0.678048 0.0430152 0.
0.680048 0.0430159 0.
0.682048 0.0430167 0.
0.684048 0.0430173 0.
0.686049 0.0430176 0.
0.688049 0.0430179 0.
0.69005 0.0430182 0.
0.69205 0.0430186 0.
0.694051 0.043019 0.
0.696051 0.0430198 0.
0.698052 0.0430208 0.
0.499949 0.0450218 0.
0.50195 0.0450209 0.
0.50395 0.0450199 0.
0.505951 0.0450189 0.
0.507951 0.0450184 0.
0.509951 0.0450179 0.
0.511952 0.0450175 0.
0.513952 0.045017 0.
0.515953 0.0450166 0.
0.517953 0.0450157 0.
0.519953 0.0450145 0.
0.521953 0.0450133 0.
0.523954 0.0450129 0.
0.525954 0.0450126 0.
0.527955 0.0450124 0.
0.529956 0.0450118 0.
0.531957 0.0450113 0.
0.533958 0.0450109 0.
0.535959 0.0450108 0.
0.53796 0.0450106 0.
0.539961 0.0450107 0.
0.541961 0.045011 0.
0.543962 0.0450112 0.
0.545963 0.0450109 0.
0.547964 0.0450104 0.
0.549965 0.0450099 0.
0.551966 0.0450102 0.
0.553967 0.0450105 0.
0.555968 0.0450106 0.
0.55797 0.0450101 0.
0.559971 0.0450096 0.
0.561972 0.0450094 0.
0.563974 0.0450096 0.
0.565975 0.0450099 0.
0.567977 0.0450098 0.
0.569978 0.0450096 0.
0.57198 0.0450094 0.
0.573982 0.0450092 0.
0.575984 0.0450091 0.
0.577986 0.0450089 0.
0.579987 0.0450088 0.
0.581988 0.0450087 0.
0.58399 0.0450088 0.
0.585991 0.0450093 0.
0.587993 0.0450097 0.
0.589994 0.04501 0.
0.591995 0.0450101 0.
0.593996 0.0450101 0.
0.595997 0.0450101 0.
0.597999 0.0450101 0.
0.6 0.04501 0.
0.602002 0.0450096 0.
0.604004 0.0450092 0.
0.606005 0.0450088 0.
0.608006 0.0450082 0.
0.610007 0.0450076 0.
0.612008 0.0450074 0.
0.61401 0.0450077 0.
0.616012 0.0450079 0.
0.618013 0.0450085 0.
0.620014 0.0450093 0.
0.622015 0.04501 0.
0.624018 0.0450104 0.
0.62602 0.0450108 0.
0.628022 0.045011 0.
0.630024 0.0450108 0.
0.632026 0.0450106 0.
0.634027 0.0450103 0.
0.636028 0.0450101 0.
0.63803 0.0450098 0.
0.640031 0.04501 0.
0.642032 0.0450106 0.
0.644032 0.0450112 0.
0.646034 0.0450113 0.
0.648035 0.0450112 0.
0.650037 0.0450111 0.
0.652038 0.0450114 0.
0.654039 0.0450118 0.
0.65604 0.0450119 0.
0.65804 0.0450116 0.
0.660041 0.0450112 0.
0.662042 0.0450112 0.
0.664043 0.0450118 0.
0.666044 0.0450123 0.
0.668044 0.0450126 0.
0.670045 0.0450128 0.
0.672046 0.045013 0.
0.674047 0.0450139 0.
0.676047 0.0450148 0.
0.678047 0.0450156 0.
0.680047 0.0450163 0.
0.682047 0.0450171 0.
0.684048 0.0450176 0.
0.686048 0.0450179 0.
0.688049 0.0450183 0.
0.690049 0.0450185 0.
0.692049 0.0450186 0.
0.69405 0.0450188 0.
0.69605 0.0450199 0.
0.698051 0.0450213 0.
0.49995 0.0470228 0.
0.501951 0.0470219 0.
0.503951 0.0470207 0.
0.505952 0.0470197 0.
0.507952 0.0470191 0.
0.509952 0.0470185 0.
0.511953 0.047018 0.
0.513953 0.0470176 0.
0.515954 0.0470171 0.
0.517954 0.0470164 0.
0.519954 0.0470154 0.
0.521955 0.0470144 0.
0.523955 0.0470137 0.
0.525956 0.0470131 0.
0.527956 0.0470125 0.
0.529957 0.0470121 0.
0.531958 0.0470118 0.
0.533959 0.0470114 0.
0.53596 0.0470112 0.
0.537961 0.0470109 0.
0.539962 0.047011 0.
0.541962 0.0470112 0.
0.543963 0.0470114 0.
0.545964 0.0470112 0.
0.547965 0.0470109 0.
0.549966 0.0470105 0.
0.551967 0.0470108 0.
0.553968 0.047011 0.
0.555969 0.0470111 0.
0.557971 0.0470105 0.
0.559972 0.0470099 0.
0.561973 0.0470096 0.
0.563974 0.0470098 0.
0.565976 0.04701 0.
0.567977 0.0470099 0.
0.569978 0.0470096 0.
0.57198 0.0470093 0.
0.573982 0.0470092 0.
0.575984 0.0470091 0.
0.577986 0.0470089 0.
0.579987 0.047009 0.
0.581988 0.047009 0.
0.583989 0.0470091 0.
0.585991 0.0470096 0.
0.587992 0.04701 0.
0.589994 0.0470103 0.
0.591995 0.0470104 0.
0.593996 0.0470105 0.
0.595997 0.0470104 0.
0.597999 0.0470102 0.
0.600001 0.04701 0.
0.602002 0.0470097 0.
0.604004 0.0470095 0.
0.606005 0.0470091 0.
0.608006 0.0470087 0.
0.610007 0.0470082 0.
0.612009 0.047008 0.
0.61401 0.0470081 0.
0.616012 0.0470082 0.
0.618013 0.0470086 0.
0.620015 0.0470092 0.
0.622016 0.0470098 0.
0.624018 0.0470101 0.
0.62602 0.0470105 0.
0.628022 0.0470108 0.
0.630024 0.0470108 0.
0.632025 0.0470109 0.
0.634026 0.0470108 0.
0.636027 0.0470106 0.
0.638029 0.0470104 0.
0.64003 0.0470106 0.
0.642031 0.0470111 0.
0.644032 0.0470117 0.
0.646033 0.0470117 0.
0.648034 0.0470116 0.
0.650035 0.0470114 0.
0.652036 0.0470117 0.
0.654037 0.0470119 0.
0.656038 0.047012 0.
0.658039 0.0470117 0.
0.66004 0.0470115 0.
0.662041 0.0470116 0.
0.664042 0.047012 0.
0.666043 0.0470125 0.
0.668043 0.0470129 0.
0.670044 0.0470134 0.
0.672044 0.0470138 0.
0.674045 0.0470145 0.
0.676045 0.0470152 0.
0.678046 0.0470159 0.
0.680046 0.0470167 0.
0.682046 0.0470175 0.
0.684046 0.0470182 0.
0.686047 0.0470186 0.
0.688047 0.0470191 0.
0.690048 0.0470194 0.
0.692048 0.0470197 0.
0.694049 0.04702 0.
0.696049 0.0470207 0.
0.69805 0.0470215 0.
0.499951 0.0490238 0.
0.501952 0.0490229 0.
0.503952 0.0490216 0.
0.505953 0.0490205 0.
0.507953 0.0490198 0.
0.509953 0.0490192 0.
0.511954 0.0490186 0.
0.513954 0.0490181 0.
0.515955 0.0490177 0.
0.517955 0.0490171 0.
0.519956 0.0490163 0.
0.521956 0.0490155 0.
0.523956 0.0490146 0.
0.525957 0.0490136 0.
0.527957 0.0490126 0.
0.529958 0.0490124 0.
0.531959 0.0490122 0.
0.53396 0.049012 0.
0.535961 0.0490116 0.
0.537962 0.0490113 0.
0.539962 0.0490112 0.
0.541963 0.0490114 0.
0.543964 0.0490116 0.
0.545965 0.0490115 0.
0.547966 0.0490113 0.
0.549967 0.0490111 0.
0.551968 0.0490113 0.
0.553969 0.0490115 0.
0.55597 0.0490115 0.
0.557972 0.0490108 0.
0.559973 0.0490102 0.
0.561974 0.0490099 0.
0.563975 0.04901 0.
0.565976 0.0490102 0.
0.567977 0.04901 0.
0.569978 0.0490096 0.
0.571979 0.0490092 0.
0.573981 0.0490091 0.
0.575983 0.049009 0.
0.577985 0.049009 0.
0.579986 0.0490091 0.
0.581988 0.0490092 0.
0.583989 0.0490094 0.
0.58599 0.0490099 0.
0.587992 0.0490104 0.
0.589993 0.0490106 0.
0.591995 0.0490108 0.
0.593996 0.0490109 0.
0.595998 0.0490106 0.
0.597999 0.0490103 0.
0.600001 0.04901 0.
0.602002 0.0490099 0.
0.604004 0.0490097 0.
0.606005 0.0490095 0.
0.608006 0.0490091 0.
0.610008 0.0490088 0.
0.612009 0.0490086 0.
0.614011 0.0490085 0.
0.616012 0.0490084 0.
0.618014 0.0490087 0.
0.620015 0.0490091 0.
0.622016 0.0490095 0.
0.624018 0.0490099 0.
0.62602 0.0490103 0.
0.628022 0.0490106 0.
0.630023 0.0490109 0.
0.632024 0.0490111 0.
0.634025 0.0490113 0.
0.636026 0.0490112 0.
0.638027 0.049011 0.
0.640029 0.0490112 0.
0.64203 0.0490117 0.
0.644031 0.0490121 0.
0.646032 0.0490121 0.
0.648033 0.0490119 0.
0.650034 0.0490118 0.
0.652035 0.0490119 0.
0.654036 0.049012 0.
0.656037 0.049012 0.
0.658038 0.0490119 0.
0.660039 0.0490118 0.
0.66204 0.0490119 0.
0.664041 0.0490123 0.
0.666042 0.0490126 0.
0.668042 0.0490132 0.
0.670042 0.0490139 0.
0.672043 0.0490146 0.
0.674043 0.0490151 0.
0.676044 0.0490156 0.
0.678044 0.0490162 0.
0.680045 0.0490171 0.
0.682045 0.0490179 0.
0.684045 0.0490187 0.
0.686046 0.0490193 0.
0.688046 0.0490199 0.
0.690047 0.0490204 0.
0.692047 0.0490208 0.
0.694048 0.0490212 0.
0.696048 0.0490215 0.
0.698049 0.0490218 0.
0.499952 0.0510244 0.
0.501952 0.0510234 0.
0.503953 0.0510221 0.
0.505953 0.051021 0.
0.507954 0.0510203 0.
0.509954 0.0510197 0.
0.511955 0.0510191 0.
0.513955 0.0510186 0.
0.515955 0.0510181 0.
0.517956 0.0510175 0.
0.519956 0.0510168 0.
0.521957 0.0510161 0.
0.523957 0.0510151 0.
0.525958 0.051014 0.
0.527958 0.051013 0.
0.529959 0.0510128 0.
0.531959 0.0510126 0.
0.53396 0.0510124 0.
0.535961 0.051012 0.
0.537962 0.0510116 0.
0.539963 0.0510115 0.
0.541964 0.0510116 0.
0.543965 0.0510117 0.
0.545966 0.0510116 0.
0.547967 0.0510116 0.
0.549968 0.0510115 0.
0.551969 0.0510117 0.
0.55397 0.0510118 0.
0.555971 0.0510118 0.
0.557972 0.0510111 0.
0.559973 0.0510105 0.
0.561974 0.0510101 0.
0.563975 0.0510102 0.
0.565976 0.0510102 0.
0.567978 0.0510101 0.
0.569979 0.0510097 0.
0.57198 0.0510094 0.
0.573982 0.0510093 0.
0.575983 0.0510092 0.
0.577985 0.0510092 0.
0.579987 0.0510093 0.
0.581988 0.0510094 0.
0.583989 0.0510097 0.
0.585991 0.0510102 0.
0.587992 0.0510107 0.
0.589994 0.0510109 0.
0.591995 0.051011 0.
0.593996 0.0510111 0.
0.595998 0.0510108 0.
0.597999 0.0510105 0.
0.600001 0.0510101 0.
0.602002 0.05101 0.
0.604004 0.0510099 0.
0.606005 0.0510098 0.
0.608006 0.0510095 0.
0.610008 0.0510092 0.
0.612009 0.051009 0.
0.61401 0.0510088 0.
0.616012 0.0510086 0.
0.618013 0.0510088 0.
0.620014 0.0510091 0.
0.622016 0.0510094 0.
0.624018 0.0510098 0.
0.62602 0.0510103 0.
0.628022 0.0510107 0.
0.630023 0.051011 0.
0.632024 0.0510113 0.
0.634025 0.0510115 0.
0.636026 0.0510115 0.
0.638027 0.0510114 0.
0.640028 0.0510117 0.
0.642029 0.0510121 0.
0.644031 0.0510125 0.
0.646032 0.0510124 0.
0.648033 0.0510122 0.
0.650034 0.051012 0.
0.652035 0.0510121 0.
0.654036 0.0510122 0.
0.656037 0.0510122 0.
0.658037 0.0510122 0.
0.660038 0.0510122 0.
0.662039 0.0510124 0.
0.66404 0.0510127 0.
0.666041 0.0510131 0.
0.668041 0.0510136 0.
0.670042 0.0510143 0.
0.672042 0.051015 0.
0.674043 0.0510155 0.
0.676043 0.051016 0.
0.678044 0.0510165 0.
0.680044 0.0510174 0.
0.682044 0.0510182 0.
0.684045 0.051019 0.
0.686045 0.0510197 0.
0.688045 0.0510204 0.
0.690046 0.0510209 0.
0.692046 0.0510213 0.
0.694047 0.0510216 0.
0.696047 0.0510219 0.
0.698048 0.0510221 0.
0.499952 0.0530246 0.
0.501953 0.0530236 0.
0.503953 0.0530222 0.
0.505954 0.053021 0.
0.507954 0.0530206 0.
0.509955 0.0530201 0.
0.511955 0.0530196 0.
0.513956 0.0530189 0.
0.515956 0.0530183 0.
0.517956 0.0530176 0.
0.519957 0.0530169 0.
0.521957 0.0530161 0.
0.523958 0.0530153 0.
0.525958 0.0530144 0.
0.527959 0.0530135 0.
0.529959 0.0530133 0.
0.53196 0.053013 0.
0.533961 0.0530127 0.
0.535962 0.0530124 0.
0.537963 0.053012 0.
0.539964 0.0530118 0.
0.541965 0.0530117 0.
0.543965 0.0530116 0.
0.545966 0.0530116 0.
0.547967 0.0530116 0.
0.549967 0.0530116 0.
0.551969 0.0530118 0.
0.55397 0.053012 0.
0.555971 0.053012 0.
0.557972 0.0530114 0.
0.559973 0.0530107 0.
0.561974 0.0530104 0.
0.563975 0.0530103 0.
0.565976 0.0530102 0.
0.567978 0.0530101 0.
0.569979 0.05301 0.
0.571981 0.0530099 0.
0.573982 0.0530097 0.
0.575984 0.0530096 0.
0.577986 0.0530094 0.
0.579987 0.0530095 0.
0.581989 0.0530096 0.
0.58399 0.0530099 0.
0.585992 0.0530104 0.
0.587993 0.053011 0.
0.589994 0.0530112 0.
0.591995 0.0530112 0.
0.593996 0.0530111 0.
0.595998 0.0530109 0.
0.597999 0.0530106 0.
0.600001 0.0530103 0.
0.602002 0.0530102 0.
0.604004 0.0530101 0.
0.606005 0.05301 0.
0.608006 0.0530097 0.
0.610007 0.0530095 0.
0.612008 0.0530092 0.
0.614009 0.053009 0.
0.616011 0.0530088 0.
0.618012 0.0530089 0.
0.620013 0.0530092 0.
0.622015 0.0530095 0.
0.624017 0.05301 0.
0.626019 0.0530105 0.
0.628021 0.053011 0.
0.630022 0.0530112 0.
0.632023 0.0530114 0.
0.634025 0.0530115 0.
0.636026 0.0530115 0.
0.638027 0.0530116 0.
0.640028 0.0530119 0.
0.642029 0.0530124 0.
0.644031 0.0530128 0.
0.646032 0.0530128 0.
0.648033 0.0530125 0.
0.650034 0.0530123 0.
0.652035 0.0530124 0.
0.654036 0.0530125 0.
0.656036 0.0530126 0.
0.658037 0.0530126 0.
0.660037 0.0530127 0.
0.662038 0.0530129 0.
0.664039 0.0530133 0.
0.66604 0.0530138 0.
0.668041 0.0530142 0.
0.670041 0.0530146 0.
0.672042 0.0530151 0.
0.674042 0.0530157 0.
0.676043 0.0530163 0.
0.678043 0.0530169 0.
0.680044 0.0530177 0.
0.682044 0.0530185 0.
0.684044 0.0530192 0.
0.686045 0.0530199 0.
0.688045 0.0530205 0.
0.690046 0.0530209 0.
0.692046 0.0530212 0.
0.694046 0.0530214 0.
0.696047 0.0530219 0.
0.698047 0.0530224 0.
0.499953 0.0550248 0.
0.501953 0.0550237 0.
0.503954 0.0550223 0.
0.505954 0.0550211 0.
0.507955 0.0550208 0.
0.509955 0.0550205 0.
0.511956 0.05502 0.
0.513956 0.0550193 0.
0.515957 0.0550185 0.
0.517957 0.0550177 0.
0.519957 0.0550169 0.
0.521957 0.0550162 0.
0.523958 0.0550154 0.
0.525958 0.0550147 0.
0.527959 0.055014 0.
0.52996 0.0550137 0.
0.531961 0.0550134 0.
0.533962 0.0550131 0.
0.535963 0.0550127 0.
0.537964 0.0550123 0.
0.539965 0.055012 0.
0.541965 0.0550118 0.
0.543965 0.0550116 0.
0.545966 0.0550116 0.
0.547967 0.0550117 0.
0.549967 0.0550118 0.
0.551968 0.0550119 0.
0.55397 0.0550121 0.
0.555971 0.0550121 0.
0.557972 0.0550116 0.
0.559973 0.055011 0.
0.561974 0.0550106 0.
0.563975 0.0550103 0.
0.565977 0.0550101 0.
0.567978 0.0550101 0.
0.56998 0.0550102 0.
0.571981 0.0550104 0.
0.573983 0.0550102 0.
0.575985 0.0550099 0.
0.577987 0.0550097 0.
0.579988 0.0550098 0.
0.58199 0.0550099 0.
0.583991 0.0550101 0.
0.585992 0.0550107 0.
0.587994 0.0550113 0.
0.589995 0.0550115 0.
0.591996 0.0550113 0.
0.593996 0.0550111 0.
0.595998 0.0550109 0.
0.597999 0.0550107 0.
0.6 0.0550105 0.
0.602002 0.0550104 0.
0.604003 0.0550103 0.
0.606005 0.0550102 0.
0.608005 0.05501 0.
0.610006 0.0550097 0.
0.612007 0.0550095 0.
0.614009 0.0550092 0.
0.61601 0.055009 0.
0.618011 0.0550091 0.
0.620012 0.0550094 0.
0.622014 0.0550097 0.
0.624016 0.0550102 0.
0.626018 0.0550108 0.
0.62802 0.0550113 0.
0.630022 0.0550114 0.
0.632023 0.0550114 0.
0.634025 0.0550115 0.
0.636026 0.0550116 0.
0.638027 0.0550117 0.
0.640028 0.0550121 0.
0.64203 0.0550126 0.
0.644031 0.0550132 0.
0.646032 0.0550131 0.
0.648033 0.0550128 0.
0.650034 0.0550125 0.
0.652035 0.0550126 0.
0.654035 0.0550128 0.
0.656036 0.0550129 0.
0.658036 0.055013 0.
0.660037 0.0550131 0.
0.662037 0.0550134 0.
0.664038 0.055014 0.
0.666039 0.0550145 0.
0.66804 0.0550148 0.
0.670041 0.055015 0.
0.672042 0.0550151 0.
0.674042 0.0550158 0.
0.676043 0.0550166 0.
0.678043 0.0550174 0.
0.680043 0.055018 0.
0.682044 0.0550187 0.
0.684044 0.0550193 0.
0.686045 0.05502 0.
0.688045 0.0550207 0.
0.690045 0.055021 0.
0.692045 0.0550211 0.
0.694045 0.0550212 0.
0.696046 0.0550219 0.
0.698047 0.0550227 0.
0.499954 0.0570248 0.
0.501954 0.057024 0.
0.503955 0.0570227 0.
0.505955 0.0570216 0.
0.507955 0.0570211 0.
0.509956 0.0570206 0.
0.511957 0.05702 0.
0.513957 0.0570194 0.
0.515958 0.0570187 0.
0.517958 0.0570181 0.
0.519958 0.0570174 0.
0.521958 0.0570167 0.
0.523959 0.057016 0.
0.52596 0.0570152 0.
0.52796 0.0570144 0.
0.529961 0.057014 0.
0.531962 0.0570136 0.
0.533963 0.0570131 0.
0.535964 0.0570128 0.
0.537965 0.0570125 0.
0.539966 0.0570123 0.
0.541966 0.0570123 0.
0.543967 0.0570122 0.
0.545967 0.0570122 0.
0.547968 0.0570122 0.
0.549969 0.0570122 0.
0.55197 0.0570122 0.
0.553971 0.0570121 0.
0.555972 0.057012 0.
0.557973 0.0570114 0.
0.559974 0.0570108 0.
0.561975 0.0570104 0.
0.563976 0.0570102 0.
0.565978 0.05701 0.
0.567979 0.05701 0.
0.56998 0.0570101 0.
0.571982 0.0570101 0.
0.573984 0.05701 0.
0.575985 0.0570099 0.
0.577987 0.0570098 0.
0.579988 0.05701 0.
0.58199 0.0570103 0.
0.583991 0.0570106 0.
0.585992 0.0570109 0.
0.587994 0.0570113 0.
0.589995 0.0570114 0.
0.591996 0.0570113 0.
0.593996 0.0570112 0.
0.595998 0.057011 0.
0.597999 0.0570107 0.
0.6 0.0570104 0.
0.602002 0.0570103 0.
0.604003 0.0570102 0.
0.606005 0.0570101 0.
0.608006 0.05701 0.
0.610006 0.0570099 0.
0.612007 0.0570098 0.
0.614009 0.0570096 0.
0.61601 0.0570094 0.
0.618011 0.0570094 0.
0.620012 0.0570095 0.
0.622013 0.0570096 0.
0.624016 0.0570101 0.
0.626018 0.0570106 0.
0.62802 0.0570111 0.
0.630021 0.0570112 0.
0.632022 0.0570113 0.
0.634024 0.0570114 0.
0.636025 0.0570116 0.
0.638026 0.0570118 0.
0.640027 0.0570122 0.
0.642028 0.0570126 0.
0.644029 0.0570131 0.
0.646031 0.057013 0.
0.648032 0.0570129 0.
0.650033 0.0570127 0.
0.652033 0.0570129 0.
0.654034 0.0570131 0.
0.656034 0.0570133 0.
0.658035 0.0570133 0.
0.660035 0.0570133 0.
0.662036 0.0570136 0.
0.664037 0.057014 0.
0.666038 0.0570145 0.
0.668039 0.0570149 0.
0.67004 0.0570153 0.
0.672041 0.0570157 0.
0.674041 0.0570163 0.
0.676041 0.0570168 0.
0.678042 0.0570174 0.
0.680042 0.0570181 0.
0.682043 0.0570188 0.
0.684043 0.0570195 0.
0.686044 0.0570202 0.
0.688044 0.0570209 0.
0.690044 0.0570214 0.
0.692045 0.0570216 0.
0.694045 0.0570218 0.
0.696046 0.0570223 0.
0.698047 0.0570229 0.
0.499954 0.0590248 0.
0.501955 0.0590242 0.
0.503955 0.0590231 0.
0.505956 0.0590221 0.
0.507956 0.0590214 0.
0.509957 0.0590207 0.
0.511957 0.05902 0.
0.513958 0.0590195 0.
0.515958 0.059019 0.
0.517959 0.0590184 0.
0.519959 0.0590178 0.
0.521959 0.0590173 0.
0.52396 0.0590165 0.
0.525961 0.0590156 0.
0.527962 0.0590148 0.
0.529963 0.0590142 0.
0.531964 0.0590137 0.
0.533964 0.0590132 0.
0.535965 0.0590129 0.
0.537966 0.0590126 0.
0.539967 0.0590125 0.
0.541968 0.0590127 0.
0.543968 0.0590129 0.
0.545969 0.0590128 0.
0.54797 0.0590127 0.
0.54997 0.0590126 0.
0.551971 0.0590124 0.
0.553972 0.0590122 0.
0.555973 0.0590118 0.
0.557974 0.0590112 0.
0.559976 0.0590105 0.
0.561977 0.0590101 0.
0.563978 0.05901 0.
0.565979 0.0590099 0.
0.56798 0.0590099 0.
0.569981 0.0590099 0.
0.571982 0.0590099 0.
0.573984 0.0590099 0.
0.575986 0.0590099 0.
0.577988 0.0590099 0.
0.579989 0.0590103 0.
0.58199 0.0590107 0.
0.583991 0.059011 0.
0.585992 0.0590111 0.
0.587993 0.0590112 0.
0.589994 0.0590113 0.
0.591995 0.0590113 0.
0.593996 0.0590114 0.
0.595998 0.0590111 0.
0.597999 0.0590107 0.
0.600001 0.0590103 0.
0.602002 0.0590102 0.
0.604003 0.0590101 0.
0.606005 0.0590101 0.
0.608006 0.0590101 0.
0.610006 0.0590101 0.
0.612008 0.0590101 0.
0.614009 0.0590099 0.
0.61601 0.0590098 0.
0.618011 0.0590097 0.
0.620012 0.0590096 0.
0.622013 0.0590095 0.
0.624015 0.05901 0.
0.626017 0.0590105 0.
0.628019 0.059011 0.
0.630021 0.059011 0.
0.632022 0.0590111 0.
0.634023 0.0590113 0.
0.636024 0.0590116 0.
0.638025 0.0590119 0.
0.640026 0.0590123 0.
0.642027 0.0590126 0.
0.644028 0.059013 0.
0.646029 0.059013 0.
0.64803 0.059013 0.
0.650031 0.0590129 0.
0.652032 0.0590132 0.
0.654032 0.0590135 0.
0.656033 0.0590137 0.
0.658034 0.0590136 0.
0.660034 0.0590136 0.
0.662035 0.0590137 0.
0.664036 0.059014 0.
0.666037 0.0590144 0.
0.668038 0.059015 0.
0.670038 0.0590156 0.
0.672039 0.0590163 0.
0.67404 0.0590167 0.
0.67604 0.0590171 0.
0.678041 0.0590175 0.
0.680041 0.0590182 0.
0.682042 0.0590189 0.
0.684042 0.0590197 0.
0.686043 0.0590204 0.
0.688043 0.0590212 0.
0.690044 0.0590217 0.
0.692044 0.0590221 0.
0.694045 0.0590224 0.
0.696045 0.0590228 0.
0.698046 0.0590231 0.
0.499955 0.0610253 0.
0.501956 0.0610246 0.
0.503956 0.0610234 0.
0.505957 0.0610223 0.
0.507957 0.0610215 0.
0.509958 0.0610207 0.
0.511958 0.0610201 0.
0.513959 0.0610196 0.
0.515959 0.0610191 0.
0.517959 0.0610186 0.
0.51996 0.061018 0.
0.52196 0.0610175 0.
0.523961 0.0610166 0.
0.525962 0.0610157 0.
0.527963 0.0610149 0.
0.529963 0.0610144 0.
0.531964 0.0610139 0.
0.533965 0.0610134 0.
0.535966 0.0610131 0.
0.537967 0.0610127 0.
0.539968 0.0610127 0.
0.541968 0.0610129 0.
0.543969 0.0610131 0.
0.54597 0.061013 0.
0.54797 0.0610129 0.
0.549971 0.0610128 0.
0.551972 0.0610125 0.
0.553973 0.0610123 0.
0.555974 0.0610119 0.
0.557975 0.0610112 0.
0.559976 0.0610105 0.
0.561977 0.0610101 0.
0.563978 0.06101 0.
0.565979 0.0610099 0.
0.56798 0.0610099 0.
0.569981 0.06101 0.
0.571982 0.0610101 0.
0.573984 0.0610101 0.
0.575986 0.0610101 0.
0.577988 0.0610102 0.
0.579989 0.0610107 0.
0.58199 0.0610112 0.
0.583991 0.0610115 0.
0.585992 0.0610115 0.
0.587993 0.0610115 0.
0.589994 0.0610115 0.
0.591995 0.0610116 0.
0.593996 0.0610117 0.
0.595998 0.0610114 0.
0.597999 0.0610111 0.
0.600001 0.0610107 0.
0.602002 0.0610106 0.
0.604003 0.0610104 0.
0.606005 0.0610103 0.
0.608006 0.0610104 0.
0.610007 0.0610105 0.
0.612008 0.0610105 0.
0.614009 0.0610104 0.
0.61601 0.0610103 0.
0.618011 0.0610102 0.
0.620012 0.06101 0.
0.622013 0.0610097 0.
0.624015 0.0610101 0.
0.626017 0.0610106 0.
0.628019 0.061011 0.
0.63002 0.061011 0.
0.632021 0.061011 0.
0.634022 0.0610111 0.
0.636023 0.0610115 0.
0.638024 0.0610119 0.
0.640025 0.0610123 0.
0.642026 0.0610127 0.
0.644027 0.0610131 0.
0.646028 0.0610132 0.
0.648029 0.0610131 0.
0.65003 0.0610131 0.
0.652031 0.0610133 0.
0.654032 0.0610136 0.
0.656032 0.0610138 0.
0.658033 0.0610138 0.
0.660034 0.0610138 0.
0.662034 0.0610139 0.
0.664035 0.0610141 0.
0.666036 0.0610144 0.
0.668037 0.0610149 0.
0.670038 0.0610156 0.
0.672039 0.0610162 0.
0.674039 0.0610167 0.
0.67604 0.0610172 0.
0.67804 0.0610177 0.
0.680041 0.0610183 0.
0.682041 0.061019 0.
0.684042 0.0610197 0.
0.686042 0.0610205 0.
0.688043 0.0610213 0.
0.690043 0.0610219 0.
0.692044 0.0610223 0.
0.694044 0.0610227 0.
0.696045 0.061023 0.
0.698045 0.0610233 0.
0.499956 0.0630261 0.
0.501956 0.0630251 0.
0.503957 0.0630236 0.
0.505957 0.0630223 0.
0.507958 0.0630215 0.
0.509958 0.0630208 0.
0.511959 0.0630202 0.
0.513959 0.0630197 0.
0.51596 0.0630192 0.
0.51796 0.0630186 0.
0.51996 0.063018 0.
0.52196 0.0630173 0.
0.523961 0.0630165 0.
0.525962 0.0630156 0.
0.527963 0.0630147 0.
0.529964 0.0630144 0.
0.531965 0.0630141 0.
0.533965 0.0630138 0.
0.535966 0.0630134 0.
0.537967 0.063013 0.
0.539968 0.0630128 0.
0.541969 0.0630128 0.
0.543969 0.0630127 0.
0.54597 0.0630127 0.
0.547971 0.0630127 0.
0.549971 0.0630127 0.
0.551972 0.0630126 0.
0.553973 0.0630124 0.
0.555974 0.0630122 0.
0.557975 0.0630114 0.
0.559976 0.0630107 0.
0.561977 0.0630102 0.
0.563979 0.0630101 0.
0.56598 0.0630099 0.
0.567981 0.0630101 0.
0.569982 0.0630104 0.
0.571983 0.0630107 0.
0.573985 0.0630107 0.
0.575987 0.0630107 0.
0.577988 0.0630107 0.
0.579989 0.0630112 0.
0.58199 0.0630117 0.
0.583991 0.063012 0.
0.585992 0.063012 0.
0.587994 0.063012 0.
0.589995 0.0630121 0.
0.591995 0.0630121 0.
0.593996 0.0630122 0.
0.595998 0.0630121 0.
0.597999 0.0630118 0.
0.600001 0.0630116 0.
0.602002 0.0630113 0.
0.604003 0.0630111 0.
0.606004 0.0630109 0.
0.608005 0.063011 0.
0.610006 0.063011 0.
0.612007 0.063011 0.
0.614009 0.063011 0.
0.61601 0.063011 0.
0.618011 0.0630108 0.
0.620012 0.0630106 0.
0.622013 0.0630103 0.
0.624014 0.0630106 0.
0.626016 0.0630109 0.
0.628018 0.0630112 0.
0.630019 0.0630111 0.
0.63202 0.063011 0.
0.634022 0.063011 0.
0.636023 0.0630113 0.
0.638024 0.0630116 0.
0.640025 0.0630121 0.
0.642026 0.0630128 0.
0.644027 0.0630135 0.
0.646028 0.0630135 0.
0.648029 0.0630134 0.
0.65003 0.0630133 0.
0.652031 0.0630133 0.
0.654031 0.0630134 0.
0.656032 0.0630135 0.
0.658033 0.0630138 0.
0.660034 0.063014 0.
0.662034 0.0630142 0.
0.664035 0.0630143 0.
0.666036 0.0630144 0.
0.668037 0.0630147 0.
0.670038 0.0630152 0.
0.672039 0.0630156 0.
0.674039 0.0630164 0.
0.67604 0.0630172 0.
0.67804 0.063018 0.
0.680041 0.0630185 0.
0.682041 0.063019 0.
0.684042 0.0630195 0.
0.686042 0.0630203 0.
0.688042 0.0630211 0.
0.690043 0.0630217 0.
0.692043 0.0630222 0.
0.694044 0.0630227 0.
0.696044 0.0630231 0.
0.698044 0.0630235 0.
0.499956 0.0650268 0.
0.501957 0.0650256 0.
0.503957 0.0650238 0.
0.505958 0.0650222 0.
0.507958 0.0650216 0.
0.509959 0.0650209 0.
0.511959 0.0650203 0.
0.51396 0.0650198 0.
0.51596 0.0650192 0.
0.517961 0.0650186 0.
0.519961 0.0650179 0.
0.521961 0.0650172 0.
0.523961 0.0650163 0.
0.525962 0.0650154 0.
0.527963 0.0650146 0.
0.529964 0.0650145 0.
0.531965 0.0650143 0.
0.533966 0.0650141 0.
0.535966 0.0650136 0.
0.537967 0.0650132 0.
0.539968 0.0650129 0.
0.541969 0.0650126 0.
0.54397 0.0650124 0.
0.54597 0.0650125 0.
0.547971 0.0650126 0.
0.549972 0.0650127 0.
0.551973 0.0650127 0.
0.553973 0.0650126 0.
0.555974 0.0650124 0.
0.557975 0.0650116 0.
0.559977 0.0650109 0.
0.561978 0.0650103 0.
0.563979 0.0650101 0.
0.56598 0.0650099 0.
0.567981 0.0650102 0.
0.569983 0.0650108 0.
0.571984 0.0650113 0.
0.573985 0.0650113 0.
0.575987 0.0650112 0.
0.577989 0.0650111 0.
0.57999 0.0650116 0.
0.581991 0.0650121 0.
0.583992 0.0650125 0.
0.585993 0.0650125 0.
0.587994 0.0650125 0.
0.589995 0.0650126 0.
0.591995 0.0650127 0.
0.593996 0.0650128 0.
0.595998 0.0650127 0.
0.597999 0.0650126 0.
0.600001 0.0650125 0.
0.602002 0.0650121 0.
0.604003 0.0650117 0.
0.606004 0.0650114 0.
0.608005 0.0650115 0.
0.610006 0.0650115 0.
0.612007 0.0650116 0.
0.614008 0.0650117 0.
0.616009 0.0650117 0.
0.61801 0.0650115 0.
0.620011 0.0650112 0.
0.622012 0.0650109 0.
0.624014 0.065011 0.
0.626015 0.0650113 0.
0.628017 0.0650114 0.
0.630019 0.0650112 0.
0.63202 0.0650109 0.
0.634021 0.0650109 0.
0.636022 0.0650111 0.
0.638024 0.0650114 0.
0.640025 0.065012 0.
0.642026 0.0650129 0.
0.644027 0.0650138 0.
0.646028 0.0650139 0.
0.648029 0.0650137 0.
0.65003 0.0650134 0.
0.652031 0.0650133 0.
0.654031 0.0650132 0.
0.656032 0.0650132 0.
0.658033 0.0650137 0.
0.660034 0.0650143 0.
0.662034 0.0650146 0.
0.664035 0.0650145 0.
0.666036 0.0650144 0.
0.668037 0.0650146 0.
0.670038 0.0650148 0.
0.672039 0.065015 0.
0.67404 0.0650161 0.
0.67604 0.0650172 0.
0.67804 0.0650183 0.
0.680041 0.0650186 0.
0.682041 0.0650189 0.
0.684041 0.0650194 0.
0.686042 0.0650202 0.
0.688042 0.0650209 0.
0.690043 0.0650216 0.
0.692043 0.0650221 0.
0.694043 0.0650227 0.
0.696043 0.0650232 0.
0.698043 0.0650237 0.
0.499956 0.0670262 0.
0.501957 0.0670253 0.
0.503958 0.0670239 0.
0.505958 0.0670227 0.
0.507959 0.067022 0.
0.50996 0.0670214 0.
0.51196 0.0670208 0.
0.51396 0.0670201 0.
0.515961 0.0670194 0.
0.517961 0.0670189 0.
0.519962 0.0670183 0.
0.521962 0.0670178 0.
0.523963 0.0670168 0.
0.525963 0.0670158 0.
0.527964 0.0670148 0.
0.529965 0.0670146 0.
0.531966 0.0670145 0.
0.533967 0.0670142 0.
0.535968 0.0670138 0.
0.537968 0.0670134 0.
0.539969 0.0670131 0.
0.54197 0.0670129 0.
0.54397 0.0670128 0.
0.545971 0.0670126 0.
0.547972 0.0670125 0.
0.549973 0.0670124 0.
0.551974 0.0670124 0.
0.553975 0.0670125 0.
0.555975 0.0670124 0.
0.557976 0.0670118 0.
0.559977 0.0670112 0.
0.561978 0.0670108 0.
0.563979 0.0670107 0.
0.565981 0.0670105 0.
0.567982 0.0670107 0.
0.569983 0.0670112 0.
0.571984 0.0670116 0.
0.573986 0.0670116 0.
0.575987 0.0670115 0.
0.577989 0.0670115 0.
0.57999 0.0670119 0.
0.581991 0.0670123 0.
0.583992 0.0670126 0.
0.585993 0.0670125 0.
0.587994 0.0670125 0.
0.589995 0.0670125 0.
0.591996 0.0670125 0.
0.593996 0.0670126 0.
0.595998 0.0670124 0.
0.598 0.0670122 0.
0.600001 0.0670119 0.
0.602002 0.0670117 0.
0.604003 0.0670116 0.
0.606004 0.0670115 0.
0.608005 0.0670116 0.
0.610006 0.0670118 0.
0.612007 0.0670119 0.
0.614008 0.0670119 0.
0.616009 0.067012 0.
0.61801 0.0670118 0.
0.620011 0.0670116 0.
0.622012 0.0670113 0.
0.624014 0.0670115 0.
0.626015 0.0670118 0.
0.628017 0.067012 0.
0.630018 0.0670117 0.
0.632019 0.0670115 0.
0.634021 0.0670113 0.
0.636022 0.0670116 0.
0.638023 0.0670118 0.
0.640024 0.0670123 0.
0.642025 0.0670129 0.
0.644026 0.0670135 0.
0.646027 0.0670136 0.
0.648028 0.0670134 0.
0.650029 0.0670133 0.
0.65203 0.0670134 0.
0.65403 0.0670135 0.
0.656031 0.0670137 0.
0.658032 0.067014 0.
0.660032 0.0670143 0.
0.662033 0.0670145 0.
0.664034 0.0670145 0.
0.666035 0.0670146 0.
0.668036 0.0670148 0.
0.670037 0.067015 0.
0.672038 0.0670153 0.
0.674039 0.0670162 0.
0.676039 0.0670173 0.
0.678039 0.0670183 0.
0.68004 0.0670188 0.
0.68204 0.0670194 0.
0.684041 0.06702 0.
0.686041 0.0670206 0.
0.688042 0.0670212 0.
0.690042 0.0670218 0.
0.692043 0.0670223 0.
0.694043 0.0670228 0.
0.696044 0.0670235 0.
0.698044 0.0670241 0.
0.499956 0.0690255 0.
0.501957 0.069025 0.
0.503958 0.069024 0.
0.505959 0.0690231 0.
0.50796 0.0690225 0.
0.50996 0.0690219 0.
0.511961 0.0690212 0.
0.513961 0.0690205 0.
0.515961 0.0690197 0.
0.517962 0.0690191 0.
0.519962 0.0690187 0.
0.521963 0.0690183 0.
0.523964 0.0690172 0.
0.525965 0.0690161 0.
0.527965 0.069015 0.
0.529966 0.0690148 0.
0.531967 0.0690146 0.
0.533968 0.0690144 0.
0.535969 0.069014 0.
0.53797 0.0690136 0.
0.53997 0.0690134 0.
0.541971 0.0690132 0.
0.543971 0.0690131 0.
0.545972 0.0690128 0.
0.547973 0.0690125 0.
0.549974 0.0690121 0.
0.551975 0.0690122 0.
0.553976 0.0690123 0.
0.555976 0.0690123 0.
0.557977 0.069012 0.
0.559978 0.0690116 0.
0.561979 0.0690114 0.
0.56398 0.0690112 0.
0.565981 0.069011 0.
0.567982 0.0690112 0.
0.569983 0.0690116 0.
0.571985 0.069012 0.
0.573986 0.0690119 0.
0.575987 0.0690118 0.
0.577989 0.0690118 0.
0.57999 0.0690121 0.
0.581991 0.0690125 0.
0.583991 0.0690127 0.
0.585992 0.0690126 0.
0.587994 0.0690125 0.
0.589995 0.0690124 0.
0.591996 0.0690124 0.
0.593997 0.0690124 0.
0.595998 0.0690121 0.
0.598 0.0690117 0.
0.600001 0.0690113 0.
0.602002 0.0690113 0.
0.604003 0.0690114 0.
0.606004 0.0690115 0.
0.608005 0.0690117 0.
0.610006 0.069012 0.
0.612007 0.0690121 0.
0.614008 0.0690122 0.
0.616009 0.0690122 0.
0.61801 0.0690121 0.
0.620011 0.0690119 0.
0.622012 0.0690117 0.
0.624013 0.069012 0.
0.626015 0.0690123 0.
0.628017 0.0690126 0.
0.630018 0.0690123 0.
0.632019 0.069012 0.
0.63402 0.0690118 0.
0.636021 0.069012 0.
0.638022 0.0690122 0.
0.640023 0.0690125 0.
0.642024 0.0690129 0.
0.644025 0.0690132 0.
0.646026 0.0690133 0.
0.648027 0.0690132 0.
0.650028 0.0690132 0.
0.652029 0.0690136 0.
0.654029 0.0690139 0.
0.65603 0.0690142 0.
0.658031 0.0690142 0.
0.660031 0.0690142 0.
0.662032 0.0690143 0.
0.664033 0.0690146 0.
0.666034 0.0690148 0.
0.668035 0.0690151 0.
0.670036 0.0690153 0.
0.672037 0.0690156 0.
0.674037 0.0690164 0.
0.676038 0.0690173 0.
0.678039 0.0690182 0.
0.680039 0.0690191 0.
0.68204 0.0690199 0.
0.68404 0.0690206 0.
0.686041 0.069021 0.
0.688042 0.0690215 0.
0.690042 0.069022 0.
0.692043 0.0690225 0.
0.694043 0.069023 0.
0.696044 0.0690237 0.
0.698044 0.0690245 0.
0.499957 0.0710254 0.
0.501958 0.0710249 0.
0.503959 0.0710241 0.
0.50596 0.0710233 0.
0.50796 0.0710228 0.
0.509961 0.0710222 0.
0.511961 0.0710216 0.
0.513961 0.0710207 0.
0.515962 0.0710198 0.
0.517962 0.0710192 0.
0.519963 0.0710188 0.
0.521964 0.0710184 0.
0.523965 0.0710173 0.
0.525965 0.0710162 0.
0.527966 0.0710151 0.
0.529967 0.0710149 0.
0.531968 0.0710147 0.
0.533969 0.0710144 0.
0.53597 0.0710141 0.
0.537971 0.0710138 0.
0.539971 0.0710135 0.
0.541971 0.0710134 0.
0.543972 0.0710133 0.
0.545973 0.0710129 0.
0.547974 0.0710125 0.
0.549974 0.071012 0.
0.551975 0.0710121 0.
0.553976 0.0710123 0.
0.555977 0.0710123 0.
0.557978 0.0710121 0.
0.559979 0.071012 0.
0.56198 0.0710118 0.
0.563981 0.0710116 0.
0.565982 0.0710114 0.
0.567983 0.0710116 0.
0.569984 0.071012 0.
0.571985 0.0710123 0.
0.573986 0.0710123 0.
0.575988 0.0710123 0.
0.577989 0.0710123 0.
0.57999 0.0710125 0.
0.581991 0.0710127 0.
0.583992 0.0710128 0.
0.585993 0.0710127 0.
0.587994 0.0710126 0.
0.589995 0.0710125 0.
0.591996 0.0710125 0.
0.593997 0.0710125 0.
0.595998 0.0710121 0.
0.598 0.0710117 0.
0.600002 0.0710112 0.
0.602003 0.0710113 0.
0.604004 0.0710114 0.
0.606005 0.0710116 0.
0.608006 0.0710119 0.
0.610007 0.0710122 0.
0.612007 0.0710125 0.
0.614008 0.0710125 0.
0.616009 0.0710126 0.
0.61801 0.0710125 0.
0.620011 0.0710123 0.
0.622012 0.0710121 0.
0.624013 0.0710124 0.
0.626015 0.0710127 0.
0.628016 0.0710129 0.
0.630017 0.0710126 0.
0.632018 0.0710124 0.
0.634019 0.0710122 0.
0.63602 0.0710124 0.
0.638021 0.0710125 0.
0.640022 0.0710127 0.
0.642023 0.0710129 0.
0.644024 0.0710131 0.
0.646025 0.0710132 0.
0.648026 0.0710132 0.
0.650027 0.0710133 0.
0.652028 0.0710137 0.
0.654029 0.071014 0.
0.656029 0.0710143 0.
0.65803 0.0710142 0.
0.660031 0.0710142 0.
0.662031 0.0710143 0.
0.664032 0.0710145 0.
0.666033 0.0710148 0.
0.668034 0.0710151 0.
0.670035 0.0710154 0.
0.672036 0.0710156 0.
0.674037 0.0710165 0.
0.676037 0.0710173 0.
0.678038 0.0710182 0.
0.680039 0.0710191 0.
0.68204 0.0710201 0.
0.68404 0.0710208 0.
0.686041 0.0710212 0.
0.688041 0.0710216 0.
0.690042 0.0710221 0.
0.692042 0.0710226 0.
0.694043 0.0710231 0.
0.696044 0.0710239 0.
0.698044 0.0710247 0.
0.499959 0.0730259 0.
0.501959 0.0730251 0.
0.50396 0.0730241 0.
0.50596 0.0730232 0.
0.507961 0.0730228 0.
0.509961 0.0730224 0.
0.511961 0.0730217 0.
0.513962 0.0730207 0.
0.515962 0.0730197 0.
0.517963 0.073019 0.
0.519964 0.0730185 0.
0.521964 0.073018 0.
0.523965 0.0730171 0.
0.525966 0.0730161 0.
0.527967 0.0730152 0.
0.529967 0.0730149 0.
0.531968 0.0730146 0.
0.533969 0.0730143 0.
0.53597 0.0730141 0.
0.53797 0.0730138 0.
0.539971 0.0730137 0.
0.541972 0.0730135 0.
0.543972 0.0730134 0.
0.545973 0.073013 0.
0.547974 0.0730125 0.
0.549975 0.0730121 0.
0.551976 0.0730122 0.
0.553977 0.0730123 0.
0.555978 0.0730124 0.
0.557978 0.0730123 0.
0.559979 0.0730122 0.
0.56198 0.0730121 0.
0.563981 0.073012 0.
0.565983 0.0730118 0.
0.567984 0.073012 0.
0.569985 0.0730124 0.
0.571986 0.0730128 0.
0.573987 0.0730129 0.
0.575988 0.073013 0.
0.577989 0.073013 0.
0.57999 0.073013 0.
0.581991 0.0730129 0.
0.583992 0.0730129 0.
0.585993 0.0730128 0.
0.587994 0.0730128 0.
0.589995 0.0730128 0.
0.591996 0.0730128 0.
0.593997 0.0730128 0.
0.595998 0.0730125 0.
0.598 0.0730121 0.
0.600002 0.0730117 0.
0.602003 0.0730117 0.
0.604004 0.0730117 0.
0.606005 0.0730118 0.
0.608006 0.0730122 0.
0.610006 0.0730126 0.
0.612007 0.0730128 0.
0.614008 0.0730129 0.
0.616009 0.073013 0.
0.61801 0.0730129 0.
0.620011 0.0730127 0.
0.622011 0.0730126 0.
0.624013 0.0730127 0.
0.626014 0.0730128 0.
0.628015 0.0730129 0.
0.630016 0.0730128 0.
0.632018 0.0730126 0.
0.634019 0.0730125 0.
0.63602 0.0730126 0.
0.638021 0.0730127 0.
0.640022 0.0730128 0.
0.642023 0.073013 0.
0.644024 0.0730132 0.
0.646025 0.0730133 0.
0.648026 0.0730134 0.
0.650027 0.0730136 0.
0.652028 0.0730137 0.
0.654028 0.0730139 0.
0.656029 0.073014 0.
0.65803 0.0730141 0.
0.660031 0.0730141 0.
0.662031 0.0730142 0.
0.664032 0.0730144 0.
0.666033 0.0730145 0.
0.668034 0.0730148 0.
0.670035 0.0730151 0.
0.672036 0.0730155 0.
0.674036 0.0730164 0.
0.676037 0.0730173 0.
0.678038 0.0730182 0.
0.680039 0.0730191 0.
0.682039 0.0730199 0.
0.68404 0.0730206 0.
0.68604 0.0730211 0.
0.688041 0.0730216 0.
0.690041 0.0730221 0.
0.692042 0.0730226 0.
0.694042 0.0730231 0.
0.696043 0.0730239 0.
0.698043 0.0730247 0.
0.49996 0.0750263 0.
0.50196 0.0750253 0.
0.503961 0.0750241 0.
0.505961 0.0750231 0.
0.507961 0.0750228 0.
0.509961 0.0750225 0.
0.511962 0.0750218 0.
0.513962 0.0750207 0.
0.515963 0.0750196 0.
0.517963 0.0750188 0.
0.519964 0.0750182 0.
0.521965 0.0750175 0.
0.523965 0.0750168 0.
0.525966 0.075016 0.
0.527967 0.0750153 0.
0.529968 0.0750149 0.
0.531968 0.0750146 0.
0.533969 0.0750143 0.
0.53597 0.0750141 0.
0.53797 0.0750139 0.
0.539971 0.0750138 0.
0.541972 0.0750136 0.
0.543973 0.0750134 0.
0.545973 0.075013 0.
0.547974 0.0750126 0.
0.549975 0.0750121 0.
0.551976 0.0750123 0.
0.553977 0.0750124 0.
0.555978 0.0750125 0.
0.557979 0.0750125 0.
0.55998 0.0750125 0.
0.561981 0.0750125 0.
0.563982 0.0750123 0.
0.565983 0.0750122 0.
0.567984 0.0750124 0.
0.569985 0.0750128 0.
0.571986 0.0750132 0.
0.573987 0.0750134 0.
0.575988 0.0750136 0.
0.577989 0.0750137 0.
0.57999 0.0750134 0.
0.581991 0.0750131 0.
0.583992 0.075013 0.
0.585993 0.075013 0.
0.587994 0.075013 0.
0.589995 0.0750131 0.
0.591996 0.0750131 0.
0.593997 0.0750131 0.
0.595998 0.0750128 0.
0.598 0.0750125 0.
0.600002 0.0750121 0.
0.602003 0.0750121 0.
0.604004 0.075012 0.
0.606005 0.0750121 0.
0.608005 0.0750125 0.
0.610006 0.0750129 0.
0.612007 0.0750132 0.
0.614008 0.0750133 0.
0.616009 0.0750135 0.
0.61801 0.0750134 0.
0.62001 0.0750132 0.
0.622011 0.075013 0.
0.624012 0.075013 0.
0.626013 0.075013 0.
0.628014 0.075013 0.
0.630016 0.0750129 0.
0.632017 0.0750128 0.
0.634018 0.0750128 0.
0.636019 0.0750129 0.
0.638021 0.0750129 0.
0.640022 0.075013 0.
0.642022 0.0750131 0.
0.644023 0.0750132 0.
0.646024 0.0750134 0.
0.648026 0.0750136 0.
0.650027 0.0750138 0.
0.652028 0.0750138 0.
0.654028 0.0750137 0.
0.656029 0.0750137 0.
0.65803 0.0750139 0.
0.66003 0.0750141 0.
0.662031 0.0750142 0.
0.664032 0.0750142 0.
0.666033 0.0750143 0.
0.668034 0.0750145 0.
0.670035 0.0750149 0.
0.672035 0.0750153 0.
0.674036 0.0750163 0.
0.676037 0.0750173 0.
0.678038 0.0750182 0.
0.680038 0.075019 0.
0.682039 0.0750198 0.
0.68404 0.0750205 0.
0.68604 0.075021 0.
0.688041 0.0750216 0.
0.690041 0.0750221 0.
0.692041 0.0750226 0.
0.694042 0.0750231 0.
0.696042 0.0750239 0.
0.698042 0.0750247 0.
0.49996 0.0770262 0.
0.501961 0.0770254 0.
0.503961 0.0770244 0.
0.505961 0.0770236 0.
0.507962 0.077023 0.
0.509962 0.0770225 0.
0.511962 0.0770218 0.
0.513963 0.0770208 0.
0.515963 0.0770199 0.
0.517964 0.0770191 0.
0.519964 0.0770184 0.
0.521965 0.0770177 0.
0.523966 0.0770169 0.
0.525967 0.0770161 0.
0.527967 0.0770154 0.
0.529968 0.077015 0.
0.531969 0.0770146 0.
0.53397 0.0770143 0.
0.53597 0.0770142 0.
0.537971 0.077014 0.
0.539972 0.0770138 0.
0.541973 0.0770136 0.
0.543974 0.0770134 0.
0.545974 0.0770131 0.
0.547975 0.0770127 0.
0.549976 0.0770124 0.
0.551977 0.0770126 0.
0.553978 0.0770128 0.
0.555979 0.0770129 0.
0.557979 0.077013 0.
0.55998 0.077013 0.
0.561981 0.0770129 0.
0.563982 0.0770127 0.
0.565983 0.0770126 0.
0.567984 0.0770127 0.
0.569985 0.0770131 0.
0.571986 0.0770135 0.
0.573987 0.0770136 0.
0.575988 0.0770137 0.
0.577989 0.0770137 0.
0.57999 0.0770134 0.
0.581991 0.0770131 0.
0.583992 0.0770129 0.
0.585993 0.0770129 0.
0.587994 0.0770129 0.
0.589995 0.0770128 0.
0.591996 0.0770128 0.
0.593997 0.0770127 0.
0.595998 0.0770126 0.
0.598 0.0770123 0.
0.600002 0.0770121 0.
0.602003 0.077012 0.
0.604004 0.077012 0.
0.606005 0.077012 0.
0.608006 0.0770125 0.
0.610006 0.077013 0.
0.612007 0.0770133 0.
0.614008 0.0770134 0.
0.616009 0.0770135 0.
0.61801 0.0770135 0.
0.620011 0.0770134 0.
0.622011 0.0770133 0.
0.624012 0.0770133 0.
0.626014 0.0770134 0.
0.628015 0.0770134 0.
0.630016 0.0770133 0.
0.632017 0.0770132 0.
0.634018 0.0770131 0.
0.636019 0.0770132 0.
0.63802 0.0770133 0.
0.640021 0.0770134 0.
0.642022 0.0770134 0.
0.644023 0.0770135 0.
0.646024 0.0770136 0.
0.648025 0.0770138 0.
0.650026 0.0770139 0.
0.652027 0.0770139 0.
0.654027 0.077014 0.
0.656028 0.0770141 0.
0.658029 0.0770141 0.
0.66003 0.0770141 0.
0.66203 0.0770142 0.
0.664031 0.0770142 0.
0.666032 0.0770143 0.
0.668033 0.0770146 0.
0.670034 0.077015 0.
0.672035 0.0770153 0.
0.674036 0.0770162 0.
0.676036 0.0770172 0.
0.678037 0.0770181 0.
0.680038 0.0770189 0.
0.682038 0.0770197 0.
0.684039 0.0770204 0.
0.68604 0.077021 0.
0.68804 0.0770216 0.
0.690041 0.0770223 0.
0.692041 0.0770229 0.
0.694041 0.0770235 0.
0.696042 0.0770242 0.
0.698042 0.0770249 0.
0.49996 0.0790261 0.
0.501961 0.0790255 0.
0.503961 0.0790248 0.
0.505962 0.0790241 0.
0.507962 0.0790233 0.
0.509963 0.0790225 0.
0.511963 0.0790217 0.
0.513964 0.0790209 0.
0.515964 0.0790202 0.
0.517964 0.0790194 0.
0.519965 0.0790187 0.
0.521965 0.0790179 0.
0.523966 0.0790171 0.
0.525967 0.0790162 0.
0.527968 0.0790154 0.
0.529969 0.0790151 0.
0.53197 0.0790147 0.
0.533971 0.0790144 0.
0.535971 0.0790142 0.
0.537972 0.0790141 0.
0.539973 0.0790138 0.
0.541974 0.0790136 0.
0.543975 0.0790133 0.
0.545975 0.0790131 0.
0.547976 0.0790128 0.
0.549976 0.0790126 0.
0.551977 0.0790128 0.
0.553978 0.0790131 0.
0.555979 0.0790133 0.
0.55798 0.0790134 0.
0.559981 0.0790134 0.
0.561981 0.0790134 0.
0.563982 0.0790132 0.
0.565983 0.079013 0.
0.567984 0.0790131 0.
0.569985 0.0790134 0.
0.571986 0.0790138 0.
0.573987 0.0790138 0.
0.575988 0.0790138 0.
0.57799 0.0790137 0.
0.57999 0.0790134 0.
0.581991 0.0790131 0.
0.583992 0.0790129 0.
0.585993 0.0790128 0.
0.587993 0.0790127 0.
0.589994 0.0790126 0.
0.591996 0.0790125 0.
0.593997 0.0790124 0.
0.595999 0.0790123 0.
0.598 0.0790122 0.
0.600002 0.0790121 0.
0.602003 0.079012 0.
0.604004 0.0790119 0.
0.606005 0.079012 0.
0.608006 0.0790126 0.
0.610006 0.0790132 0.
0.612007 0.0790135 0.
0.614008 0.0790135 0.
0.616009 0.0790136 0.
0.61801 0.0790136 0.
0.620011 0.0790135 0.
0.622012 0.0790135 0.
0.624013 0.0790136 0.
0.626014 0.0790137 0.
0.628015 0.0790138 0.
0.630016 0.0790136 0.
0.632017 0.0790135 0.
0.634018 0.0790134 0.
0.636019 0.0790135 0.
0.63802 0.0790137 0.
0.640021 0.0790137 0.
0.642021 0.0790138 0.
0.644022 0.0790138 0.
0.646023 0.0790138 0.
0.648024 0.0790139 0.
0.650025 0.0790139 0.
0.652026 0.0790141 0.
0.654026 0.0790143 0.
0.656027 0.0790144 0.
0.658028 0.0790143 0.
0.660029 0.0790142 0.
0.662029 0.0790141 0.
0.66403 0.0790142 0.
0.666031 0.0790143 0.
0.668032 0.0790146 0.
0.670033 0.079015 0.
0.672034 0.0790153 0.
0.674035 0.0790162 0.
0.676036 0.0790171 0.
0.678037 0.079018 0.
0.680037 0.0790188 0.
0.682038 0.0790196 0.
0.684038 0.0790203 0.
0.686039 0.079021 0.
0.68804 0.0790217 0.
0.690041 0.0790224 0.
0.692041 0.0790232 0.
0.694041 0.0790239 0.
0.696041 0.0790245 0.
0.698042 0.0790251 0.
0.49996 0.0810261 0.
0.501961 0.0810255 0.
0.503962 0.0810249 0.
0.505962 0.0810243 0.
0.507963 0.0810234 0.
0.509963 0.0810225 0.
0.511964 0.0810217 0.
0.513964 0.0810209 0.
0.515964 0.0810202 0.
0.517965 0.0810195 0.
0.519965 0.0810187 0.
0.521966 0.081018 0.
0.523966 0.0810171 0.
0.525967 0.0810162 0.
0.527968 0.0810153 0.
0.529969 0.0810149 0.
0.53197 0.0810145 0.
0.533971 0.0810141 0.
0.535971 0.081014 0.
0.537972 0.0810138 0.
0.539973 0.0810136 0.
0.541974 0.0810134 0.
0.543975 0.0810131 0.
0.545975 0.081013 0.
0.547976 0.0810128 0.
0.549977 0.0810126 0.
0.551977 0.0810129 0.
0.553978 0.0810133 0.
0.555979 0.0810136 0.
0.55798 0.0810136 0.
0.559981 0.0810136 0.
0.561982 0.0810136 0.
0.563983 0.0810134 0.
0.565984 0.0810132 0.
0.567985 0.0810133 0.
0.569985 0.0810136 0.
0.571986 0.0810139 0.
0.573987 0.0810139 0.
0.575989 0.0810139 0.
0.57799 0.0810138 0.
0.57999 0.0810135 0.
0.581991 0.0810132 0.
0.583992 0.081013 0.
0.585993 0.0810129 0.
0.587993 0.0810128 0.
0.589995 0.0810127 0.
0.591996 0.0810126 0.
0.593997 0.0810124 0.
0.595999 0.0810124 0.
0.598 0.0810123 0.
0.600002 0.0810123 0.
0.602003 0.0810123 0.
0.604004 0.0810123 0.
0.606005 0.0810124 0.
0.608005 0.0810129 0.
0.610006 0.0810134 0.
0.612007 0.0810137 0.
0.614008 0.0810136 0.
0.616009 0.0810136 0.
0.61801 0.0810137 0.
0.620011 0.0810137 0.
0.622012 0.0810137 0.
0.624013 0.0810138 0.
0.626014 0.081014 0.
0.628015 0.081014 0.
0.630016 0.0810139 0.
0.632016 0.0810137 0.
0.634017 0.0810136 0.
0.636018 0.0810138 0.
0.638019 0.0810139 0.
0.64002 0.0810139 0.
0.642021 0.081014 0.
0.644022 0.081014 0.
0.646023 0.0810139 0.
0.648024 0.0810139 0.
0.650025 0.0810139 0.
0.652025 0.081014 0.
0.654026 0.0810141 0.
0.656027 0.0810142 0.
0.658028 0.0810141 0.
0.660028 0.0810139 0.
0.662029 0.0810139 0.
0.66403 0.081014 0.
0.666031 0.081014 0.
0.668032 0.0810143 0.
0.670033 0.0810147 0.
0.672034 0.081015 0.
0.674035 0.0810159 0.
0.676035 0.0810169 0.
0.678036 0.0810178 0.
0.680037 0.0810187 0.
0.682037 0.0810195 0.
0.684038 0.0810203 0.
0.686039 0.081021 0.
0.688039 0.0810217 0.
0.69004 0.0810225 0.
0.69204 0.0810233 0.
0.69404 0.0810241 0.
0.696041 0.0810248 0.
0.698041 0.0810254 0.
0.499961 0.0830262 0.
0.501962 0.0830254 0.
0.503962 0.0830248 0.
0.505963 0.0830242 0.
0.507963 0.0830233 0.
0.509964 0.0830224 0.
0.511964 0.0830216 0.
0.513964 0.0830208 0.
0.515965 0.0830201 0.
0.517965 0.0830194 0.
0.519965 0.0830187 0.
0.521966 0.0830179 0.
0.523966 0.083017 0.
0.525967 0.083016 0.
0.527968 0.083015 0.
0.529968 0.0830145 0.
0.531969 0.083014 0.
0.53397 0.0830136 0.
0.535971 0.0830135 0.
0.537971 0.0830134 0.
0.539972 0.0830132 0.
0.541973 0.083013 0.
0.543974 0.0830128 0.
0.545975 0.0830127 0.
0.547976 0.0830125 0.
0.549976 0.0830124 0.
0.551977 0.0830128 0.
0.553978 0.0830133 0.
0.55598 0.0830136 0.
0.55798 0.0830136 0.
0.559981 0.0830136 0.
0.561982 0.0830136 0.
0.563983 0.0830134 0.
0.565984 0.0830133 0.
0.567985 0.0830134 0.
0.569986 0.0830136 0.
0.571986 0.0830138 0.
0.573987 0.0830139 0.
0.575989 0.0830139 0.
0.57799 0.0830139 0.
0.579991 0.0830137 0.
0.581991 0.0830134 0.
0.583992 0.0830132 0.
0.585993 0.0830132 0.
0.587994 0.0830132 0.
0.589995 0.0830131 0.
0.591996 0.083013 0.
0.593997 0.0830129 0.
0.595999 0.0830128 0.
0.598 0.0830127 0.
0.600002 0.0830127 0.
0.602003 0.0830128 0.
0.604004 0.0830129 0.
0.606004 0.0830131 0.
0.608005 0.0830134 0.
0.610006 0.0830136 0.
0.612007 0.0830138 0.
0.614008 0.0830138 0.
0.616009 0.0830138 0.
0.618009 0.0830138 0.
0.62001 0.0830138 0.
0.622011 0.0830139 0.
0.624012 0.083014 0.
0.626013 0.083014 0.
0.628014 0.0830141 0.
0.630015 0.083014 0.
0.632016 0.0830139 0.
0.634017 0.0830138 0.
0.636018 0.0830139 0.
0.638019 0.0830139 0.
0.64002 0.083014 0.
0.64202 0.083014 0.
0.644021 0.0830141 0.
0.646022 0.083014 0.
0.648024 0.0830138 0.
0.650025 0.0830136 0.
0.652026 0.0830136 0.
0.654026 0.0830135 0.
0.656027 0.0830135 0.
0.658028 0.0830134 0.
0.660029 0.0830134 0.
0.66203 0.0830134 0.
0.66403 0.0830134 0.
0.666031 0.0830135 0.
0.668032 0.0830138 0.
0.670033 0.0830141 0.
0.672034 0.0830145 0.
0.674035 0.0830155 0.
0.676035 0.0830166 0.
0.678036 0.0830177 0.
0.680037 0.0830186 0.
0.682037 0.0830195 0.
0.684038 0.0830203 0.
0.686038 0.083021 0.
0.688039 0.0830216 0.
0.690039 0.0830224 0.
0.692039 0.0830234 0.
0.694039 0.0830243 0.
0.69604 0.0830251 0.
0.69804 0.0830259 0.
0.499962 0.0850262 0.
0.501962 0.0850253 0.
0.503963 0.0850247 0.
0.505963 0.0850241 0.
0.507964 0.0850232 0.
0.509964 0.0850223 0.
0.511964 0.0850215 0.
0.513965 0.0850207 0.
0.515965 0.08502 0.
0.517965 0.0850193 0.
0.519965 0.0850186 0.
0.521966 0.0850179 0.
0.523966 0.0850169 0.
0.525967 0.0850158 0.
0.527968 0.0850148 0.
0.529968 0.0850141 0.
0.531969 0.0850134 0.
0.533969 0.085013 0.
0.53597 0.085013 0.
0.537971 0.0850129 0.
0.539972 0.0850128 0.
0.541972 0.0850127 0.
0.543973 0.0850125 0.
0.545974 0.0850124 0.
0.547975 0.0850123 0.
0.549976 0.0850122 0.
0.551977 0.0850127 0.
0.553979 0.0850133 0.
0.55598 0.0850137 0.
0.557981 0.0850136 0.
0.559982 0.0850136 0.
0.561983 0.0850136 0.
0.563984 0.0850135 0.
0.565985 0.0850134 0.
0.567985 0.0850135 0.
0.569986 0.0850136 0.
0.571986 0.0850138 0.
0.573987 0.0850139 0.
0.575989 0.085014 0.
0.57799 0.0850141 0.
0.579991 0.0850138 0.
0.581992 0.0850136 0.
0.583993 0.0850135 0.
0.585994 0.0850135 0.
0.587994 0.0850135 0.
0.589995 0.0850135 0.
0.591996 0.0850134 0.
0.593997 0.0850133 0.
0.595999 0.0850132 0.
0.598 0.0850131 0.
0.600002 0.0850131 0.
0.602003 0.0850133 0.
0.604003 0.0850136 0.
0.606004 0.0850138 0.
0.608005 0.0850139 0.
0.610006 0.0850139 0.
0.612007 0.0850139 0.
0.614008 0.0850139 0.
0.616008 0.0850139 0.
0.618009 0.0850139 0.
0.62001 0.085014 0.
0.622011 0.0850141 0.
0.624012 0.0850141 0.
0.626013 0.0850141 0.
0.628014 0.0850141 0.
0.630015 0.0850141 0.
0.632015 0.085014 0.
0.634016 0.085014 0.
0.636017 0.085014 0.
0.638018 0.085014 0.
0.640019 0.085014 0.
0.64202 0.0850141 0.
0.644021 0.0850142 0.
0.646022 0.085014 0.
0.648023 0.0850137 0.
0.650025 0.0850134 0.
0.652026 0.0850132 0.
0.654027 0.0850129 0.
0.656027 0.0850127 0.
0.658028 0.0850128 0.
0.660029 0.0850128 0.
0.66203 0.0850129 0.
0.664031 0.0850129 0.
0.666032 0.085013 0.
0.668032 0.0850132 0.
0.670033 0.0850135 0.
0.672034 0.0850139 0.
0.674035 0.085015 0.
0.676035 0.0850163 0.
0.678036 0.0850175 0.
0.680036 0.0850185 0.
0.682037 0.0850195 0.
0.684037 0.0850203 0.
0.686037 0.0850209 0.
0.688038 0.0850215 0.
0.690038 0.0850223 0.
0.692038 0.0850234 0.
0.694039 0.0850245 0.
0.696039 0.0850254 0.
0.698039 0.0850263 0.
0.499962 0.0870262 0.
0.501963 0.0870252 0.
0.503963 0.0870246 0.
0.505964 0.0870238 0.
0.507964 0.0870229 0.
0.509965 0.0870219 0.
0.511965 0.0870211 0.
0.513965 0.0870204 0.
0.515965 0.0870198 0.
0.517966 0.0870191 0.
0.519966 0.0870185 0.
0.521966 0.0870178 0.
0.523967 0.0870167 0.
0.525968 0.0870155 0.
0.527968 0.0870143 0.
0.529969 0.0870138 0.
0.53197 0.0870132 0.
0.53397 0.0870128 0.
0.535971 0.0870127 0.
0.537972 0.0870126 0.
0.539972 0.0870125 0.
0.541973 0.0870124 0.
0.543974 0.0870122 0.
0.545975 0.0870122 0.
0.547976 0.0870121 0.
0.549976 0.0870121 0.
0.551978 0.0870125 0.
0.553979 0.0870129 0.
0.55598 0.0870132 0.
0.557981 0.0870132 0.
0.559982 0.0870132 0.
0.561983 0.0870132 0.
0.563984 0.0870133 0.
0.565984 0.0870133 0.
0.567985 0.0870134 0.
0.569986 0.0870134 0.
0.571987 0.0870135 0.
0.573988 0.0870135 0.
0.575989 0.0870136 0.
0.57799 0.0870137 0.
0.579991 0.0870136 0.
0.581992 0.0870136 0.
0.583993 0.0870135 0.
0.585993 0.0870136 0.
0.587994 0.0870136 0.
0.589995 0.0870135 0.
0.591996 0.0870135 0.
0.593997 0.0870134 0.
0.595999 0.0870135 0.
0.598 0.0870137 0.
0.600002 0.0870139 0.
0.602003 0.087014 0.
0.604004 0.0870141 0.
0.606004 0.0870141 0.
0.608005 0.0870141 0.
0.610006 0.087014 0.
0.612007 0.087014 0.
0.614008 0.0870139 0.
0.616009 0.0870138 0.
0.61801 0.0870138 0.
0.62001 0.0870138 0.
0.622011 0.0870138 0.
0.624012 0.0870138 0.
0.626013 0.0870138 0.
0.628014 0.0870138 0.
0.630015 0.0870138 0.
0.632015 0.0870138 0.
0.634016 0.0870138 0.
0.636017 0.0870138 0.
0.638018 0.0870137 0.
0.640019 0.0870137 0.
0.64202 0.0870136 0.
0.644021 0.0870136 0.
0.646022 0.0870135 0.
0.648023 0.0870134 0.
0.650024 0.0870132 0.
0.652025 0.087013 0.
0.654026 0.0870128 0.
0.656027 0.0870127 0.
0.658028 0.0870127 0.
0.660028 0.0870127 0.
0.662029 0.0870127 0.
0.66403 0.0870127 0.
0.666031 0.0870127 0.
0.668031 0.087013 0.
0.670032 0.0870134 0.
0.672033 0.0870138 0.
0.674033 0.0870149 0.
0.676034 0.087016 0.
0.678035 0.0870171 0.
0.680035 0.087018 0.
0.682036 0.087019 0.
0.684036 0.0870198 0.
0.686036 0.0870204 0.
0.688037 0.0870211 0.
0.690037 0.087022 0.
0.692037 0.0870232 0.
0.694038 0.0870244 0.
0.696038 0.0870255 0.
0.698038 0.0870265 0.
0.499963 0.089026 0.
0.501963 0.0890251 0.
0.503964 0.0890244 0.
0.505965 0.0890236 0.
0.507965 0.0890226 0.
0.509965 0.0890216 0.
0.511965 0.0890208 0.
0.513966 0.0890202 0.
0.515966 0.0890196 0.
0.517966 0.089019 0.
0.519967 0.0890184 0.
0.521967 0.0890178 0.
0.523968 0.0890165 0.
0.525968 0.0890151 0.
0.527969 0.0890138 0.
0.52997 0.0890134 0.
0.53197 0.089013 0.
0.533971 0.0890127 0.
0.535972 0.0890125 0.
0.537972 0.0890123 0.
0.539973 0.0890122 0.
0.541974 0.0890121 0.
0.543974 0.089012 0.
0.545975 0.089012 0.
0.547976 0.089012 0.
0.549977 0.089012 0.
0.551978 0.0890122 0.
0.553979 0.0890125 0.
0.55598 0.0890127 0.
0.557981 0.0890127 0.
0.559982 0.0890128 0.
0.561983 0.0890129 0.
0.563983 0.0890131 0.
0.565984 0.0890133 0.
0.567985 0.0890133 0.
0.569986 0.0890132 0.
0.571987 0.0890131 0.
0.573988 0.0890132 0.
0.575989 0.0890132 0.
0.57799 0.0890133 0.
0.57999 0.0890134 0.
0.581991 0.0890136 0.
0.583992 0.0890136 0.
0.585993 0.0890136 0.
0.587994 0.0890136 0.
0.589995 0.0890135 0.
0.591996 0.0890135 0.
0.593997 0.0890135 0.
0.595999 0.0890139 0.
0.598 0.0890143 0.
0.600002 0.0890147 0.
0.602003 0.0890146 0.
0.604004 0.0890145 0.
0.606005 0.0890144 0.
0.608005 0.0890143 0.
0.610006 0.0890142 0.
0.612007 0.089014 0.
0.614008 0.0890139 0.
0.616009 0.0890137 0.
0.61801 0.0890136 0.
0.620011 0.0890136 0.
0.622012 0.0890135 0.
0.624012 0.0890135 0.
0.626013 0.0890135 0.
0.628014 0.0890136 0.
0.630015 0.0890136 0.
0.632015 0.0890136 0.
0.634016 0.0890136 0.
0.636017 0.0890136 0.
0.638018 0.0890135 0.
0.640019 0.0890133 0.
0.64202 0.0890132 0.
0.644021 0.089013 0.
0.646022 0.089013 0.
0.648023 0.089013 0.
0.650024 0.089013 0.
0.652025 0.0890129 0.
0.654026 0.0890128 0.
0.656026 0.0890127 0.
0.658027 0.0890126 0.
0.660027 0.0890126 0.
0.662028 0.0890125 0.
0.664029 0.0890124 0.
0.66603 0.0890124 0.
0.66803 0.0890127 0.
0.670031 0.0890133 0.
0.672032 0.0890138 0.
0.674032 0.0890147 0.
0.676033 0.0890157 0.
0.678034 0.0890167 0.
0.680034 0.0890176 0.
0.682034 0.0890185 0.
0.684035 0.0890193 0.
0.686035 0.08902 0.
0.688036 0.0890207 0.
0.690036 0.0890218 0.
0.692036 0.0890231 0.
0.694037 0.0890244 0.
0.696037 0.0890256 0.
0.698037 0.0890267 0.
0.499963 0.0910257 0.
0.501964 0.0910249 0.
0.503965 0.0910241 0.
0.505965 0.0910233 0.
0.507965 0.0910223 0.
0.509966 0.0910214 0.
0.511966 0.0910206 0.
0.513966 0.09102 0.
0.515966 0.0910194 0.
0.517967 0.0910188 0.
0.519967 0.0910182 0.
0.521968 0.0910176 0.
0.523968 0.0910163 0.
0.525969 0.0910149 0.
0.52797 0.0910137 0.
0.52997 0.0910133 0.
0.531971 0.0910129 0.
0.533971 0.0910125 0.
0.535972 0.0910122 0.
0.537973 0.091012 0.
0.539973 0.0910118 0.
0.541974 0.0910117 0.
0.543975 0.0910117 0.
0.545975 0.0910117 0.
0.547976 0.0910117 0.
0.549977 0.0910118 0.
0.551978 0.091012 0.
0.553979 0.0910122 0.
0.55598 0.0910123 0.
0.557981 0.0910123 0.
0.559982 0.0910124 0.
0.561983 0.0910125 0.
0.563983 0.0910127 0.
0.565984 0.091013 0.
0.567985 0.091013 0.
0.569986 0.0910129 0.
0.571987 0.0910128 0.
0.573987 0.0910129 0.
0.575988 0.091013 0.
0.577989 0.0910132 0.
0.57999 0.0910134 0.
0.581991 0.0910135 0.
0.583992 0.0910136 0.
0.585993 0.0910136 0.
0.587994 0.0910137 0.
0.589995 0.0910137 0.
0.591996 0.0910137 0.
0.593997 0.0910137 0.
0.595999 0.0910142 0.
0.598 0.0910148 0.
0.600002 0.0910153 0.
0.602003 0.0910151 0.
0.604004 0.0910149 0.
0.606005 0.0910147 0.
0.608005 0.0910145 0.
0.610006 0.0910143 0.
0.612007 0.0910141 0.
0.614008 0.0910139 0.
0.616009 0.0910137 0.
0.61801 0.0910135 0.
0.620011 0.0910134 0.
0.622012 0.0910133 0.
0.624012 0.0910133 0.
0.626013 0.0910133 0.
0.628014 0.0910133 0.
0.630015 0.0910133 0.
0.632015 0.0910134 0.
0.634016 0.0910134 0.
0.636017 0.0910133 0.
0.638018 0.0910132 0.
0.640019 0.0910131 0.
0.64202 0.0910128 0.
0.644021 0.0910126 0.
0.646022 0.0910126 0.
0.648023 0.0910126 0.
0.650024 0.0910126 0.
0.652025 0.0910125 0.
0.654025 0.0910125 0.
0.656026 0.0910124 0.
0.658027 0.0910123 0.
0.660027 0.0910123 0.
0.662028 0.0910122 0.
0.664028 0.0910122 0.
0.666029 0.0910122 0.
0.66803 0.0910126 0.
0.67003 0.0910131 0.
0.672031 0.0910136 0.
0.674031 0.0910145 0.
0.676032 0.0910155 0.
0.678033 0.0910164 0.
0.680033 0.0910172 0.
0.682033 0.0910181 0.
0.684034 0.0910189 0.
0.686034 0.0910197 0.
0.688035 0.0910205 0.
0.690035 0.0910216 0.
0.692036 0.091023 0.
0.694036 0.0910244 0.
0.696036 0.0910257 0.
0.698036 0.0910269 0.
0.499964 0.0930253 0.
0.501965 0.0930245 0.
0.503965 0.0930238 0.
0.505966 0.0930231 0.
0.507966 0.0930222 0.
0.509966 0.0930214 0.
0.511967 0.0930206 0.
0.513967 0.0930199 0.
0.515967 0.0930192 0.
0.517967 0.0930185 0.
0.519968 0.0930179 0.
0.521968 0.0930172 0.
0.523969 0.0930161 0.
0.525969 0.0930149 0.
0.52797 0.0930138 0.
0.52997 0.0930133 0.
0.531971 0.0930128 0.
0.533971 0.0930123 0.
0.535972 0.0930119 0.
0.537973 0.0930115 0.
0.539973 0.0930114 0.
0.541974 0.0930113 0.
0.543974 0.0930113 0.
0.545975 0.0930114 0.
0.547976 0.0930114 0.
0.549976 0.0930115 0.
0.551978 0.0930117 0.
0.553979 0.0930119 0.
0.55598 0.0930121 0.
0.557981 0.0930121 0.
0.559982 0.0930121 0.
0.561983 0.0930122 0.
0.563983 0.0930123 0.
0.565984 0.0930124 0.
0.567985 0.0930125 0.
0.569986 0.0930125 0.
0.571986 0.0930125 0.
0.573987 0.0930128 0.
0.575988 0.093013 0.
0.577989 0.0930133 0.
0.57999 0.0930134 0.
0.581991 0.0930135 0.
0.583992 0.0930136 0.
0.585993 0.0930137 0.
0.587994 0.0930138 0.
0.589995 0.0930139 0.
0.591996 0.093014 0.
0.593997 0.0930141 0.
0.595999 0.0930146 0.
0.598 0.0930151 0.
0.600002 0.0930157 0.
0.602003 0.0930155 0.
0.604004 0.0930153 0.
0.606004 0.0930151 0.
0.608005 0.0930148 0.
0.610006 0.0930145 0.
0.612007 0.0930142 0.
0.614008 0.093014 0.
0.616009 0.0930137 0.
0.61801 0.0930135 0.
0.620011 0.0930133 0.
0.622012 0.0930131 0.
0.624013 0.093013 0.
0.626014 0.093013 0.
0.628014 0.0930129 0.
0.630015 0.093013 0.
0.632016 0.093013 0.
0.634016 0.0930131 0.
0.636017 0.0930131 0.
0.638018 0.0930131 0.
0.640019 0.0930129 0.
0.64202 0.0930127 0.
0.64402 0.0930124 0.
0.646022 0.0930123 0.
0.648023 0.0930121 0.
0.650024 0.093012 0.
0.652025 0.093012 0.
0.654025 0.0930119 0.
0.656026 0.0930119 0.
0.658026 0.0930119 0.
0.660027 0.0930119 0.
0.662028 0.0930119 0.
0.664028 0.093012 0.
0.666029 0.0930122 0.
0.668029 0.0930124 0.
0.67003 0.0930128 0.
0.67203 0.0930132 0.
0.674031 0.0930142 0.
0.676031 0.0930152 0.
0.678032 0.0930162 0.
0.680032 0.093017 0.
0.682032 0.0930177 0.
0.684033 0.0930185 0.
0.686033 0.0930195 0.
0.688034 0.0930204 0.
0.690034 0.0930216 0.
0.692034 0.093023 0.
0.694035 0.0930244 0.
0.696035 0.0930257 0.
0.698035 0.0930271 0.
0.499965 0.0950249 0.
0.501966 0.0950242 0.
0.503966 0.0950235 0.
0.505966 0.0950228 0.
0.507966 0.0950221 0.
0.509967 0.0950213 0.
0.511967 0.0950205 0.
0.513967 0.0950198 0.
0.515968 0.095019 0.
0.517968 0.0950183 0.
0.519968 0.0950176 0.
0.521969 0.0950169 0.
0.523969 0.0950159 0.
0.52597 0.0950149 0.
0.527971 0.095014 0.
0.529971 0.0950133 0.
0.531971 0.0950127 0.
0.533971 0.0950121 0.
0.535972 0.0950116 0.
0.537972 0.0950111 0.
0.539973 0.0950109 0.
0.541974 0.0950109 0.
0.543974 0.095011 0.
0.545975 0.095011 0.
0.547976 0.0950111 0.
0.549976 0.0950112 0.
0.551977 0.0950114 0.
0.553979 0.0950116 0.
0.55598 0.0950118 0.
0.557981 0.0950118 0.
0.559982 0.0950118 0.
0.561983 0.0950118 0.
0.563983 0.0950118 0.
0.565984 0.0950118 0.
0.567985 0.0950119 0.
0.569985 0.0950121 0.
0.571986 0.0950122 0.
0.573987 0.0950126 0.
0.575988 0.095013 0.
0.577989 0.0950134 0.
0.57999 0.0950134 0.
0.581991 0.0950135 0.
0.583992 0.0950136 0.
0.585993 0.0950138 0.
0.587994 0.095014 0.
0.589995 0.0950141 0.
0.591996 0.0950143 0.
0.593997 0.0950144 0.
0.595999 0.0950149 0.
0.598001 0.0950155 0.
0.600002 0.095016 0.
0.602003 0.0950158 0.
0.604004 0.0950157 0.
0.606004 0.0950154 0.
0.608005 0.095015 0.
0.610006 0.0950146 0.
0.612007 0.0950143 0.
0.614008 0.095014 0.
0.616009 0.0950137 0.
0.61801 0.0950135 0.
0.620011 0.0950132 0.
0.622012 0.0950129 0.
0.624013 0.0950128 0.
0.626014 0.0950127 0.
0.628015 0.0950126 0.
0.630015 0.0950127 0.
0.632016 0.0950127 0.
0.634016 0.0950128 0.
0.636017 0.0950128 0.
0.638018 0.0950129 0.
0.640019 0.0950127 0.
0.64202 0.0950125 0.
0.64402 0.0950122 0.
0.646022 0.0950119 0.
0.648023 0.0950117 0.
0.650025 0.0950114 0.
0.652025 0.0950114 0.
0.654025 0.0950113 0.
0.656026 0.0950113 0.
0.658026 0.0950114 0.
0.660027 0.0950115 0.
0.662027 0.0950116 0.
0.664028 0.0950119 0.
0.666028 0.0950121 0.
0.668029 0.0950123 0.
0.670029 0.0950126 0.
0.672029 0.0950128 0.
0.67403 0.0950138 0.
0.67603 0.0950149 0.
0.678031 0.095016 0.
0.680031 0.0950167 0.
0.682032 0.0950174 0.
0.684032 0.0950182 0.
0.686032 0.0950193 0.
0.688033 0.0950203 0.
0.690033 0.0950216 0.
0.692033 0.095023 0.
0.694034 0.0950243 0.
0.696034 0.0950258 0.
0.698034 0.0950274 0.
0.499966 0.0970248 0.
0.501966 0.0970241 0.
0.503966 0.0970234 0.
0.505967 0.0970227 0.
0.507967 0.097022 0.
0.509967 0.0970212 0.
0.511968 0.0970205 0.
0.513968 0.0970196 0.
0.515968 0.0970187 0.
0.517969 0.0970179 0.
0.519969 0.0970172 0.
0.521969 0.0970165 0.
0.52397 0.0970157 0.
0.525971 0.0970148 0.
0.527971 0.0970139 0.
0.529971 0.0970132 0.
0.531972 0.0970125 0.
0.533972 0.0970119 0.
0.535972 0.0970114 0.
0.537973 0.0970108 0.
0.539974 0.0970106 0.
0.541974 0.0970107 0.
0.543975 0.0970108 0.
0.545975 0.0970107 0.
0.547976 0.0970107 0.
0.549976 0.0970106 0.
0.551978 0.0970108 0.
0.553979 0.097011 0.
0.55598 0.0970112 0.
0.557981 0.0970114 0.
0.559982 0.0970115 0.
0.561982 0.0970116 0.
0.563983 0.0970116 0.
0.565984 0.0970117 0.
0.567985 0.0970117 0.
0.569985 0.0970119 0.
0.571986 0.097012 0.
0.573987 0.0970123 0.
0.575988 0.0970126 0.
0.577989 0.0970129 0.
0.57999 0.097013 0.
0.581991 0.0970131 0.
0.583992 0.0970132 0.
0.585993 0.0970134 0.
0.587994 0.0970136 0.
0.589995 0.0970138 0.
0.591996 0.097014 0.
0.593997 0.0970141 0.
0.595999 0.0970147 0.
0.598 0.0970153 0.
0.600002 0.097016 0.
0.602003 0.0970158 0.
0.604004 0.0970156 0.
0.606005 0.0970153 0.
0.608006 0.0970148 0.
0.610007 0.0970143 0.
0.612008 0.0970139 0.
0.614008 0.0970136 0.
0.616009 0.0970133 0.
0.61801 0.097013 0.
0.620011 0.0970127 0.
0.622012 0.0970124 0.
0.624013 0.0970124 0.
0.626014 0.0970124 0.
0.628015 0.0970124 0.
0.630015 0.0970126 0.
0.632016 0.0970127 0.
0.634017 0.0970127 0.
0.636017 0.0970126 0.
0.638018 0.0970124 0.
0.640019 0.0970122 0.
0.64202 0.0970119 0.
0.644021 0.0970116 0.
0.646022 0.0970113 0.
0.648023 0.0970111 0.
0.650024 0.0970109 0.
0.652025 0.097011 0.
0.654025 0.0970111 0.
0.656026 0.0970111 0.
0.658026 0.0970112 0.
0.660027 0.0970112 0.
0.662027 0.0970114 0.
0.664027 0.0970117 0.
0.666028 0.0970121 0.
0.668028 0.0970123 0.
0.670028 0.0970124 0.
0.672029 0.0970126 0.
0.674029 0.0970136 0.
0.67603 0.0970147 0.
0.67803 0.0970157 0.
0.680031 0.0970164 0.
0.682031 0.097017 0.
0.684032 0.0970178 0.
0.686032 0.0970191 0.
0.688032 0.0970203 0.
0.690032 0.0970216 0.
0.692032 0.0970229 0.
0.694032 0.0970243 0.
0.696032 0.0970258 0.
0.698032 0.0970274 0.
0.499967 0.0990248 0.
0.501967 0.099024 0.
0.503967 0.0990232 0.
0.505967 0.0990225 0.
0.507968 0.0990218 0.
0.509968 0.0990212 0.
0.511968 0.0990204 0.
0.513968 0.0990194 0.
0.515969 0.0990184 0.
0.517969 0.0990176 0.
0.51997 0.0990169 0.
0.52197 0.0990162 0.
0.523971 0.0990154 0.
0.525971 0.0990146 0.
0.527972 0.0990139 0.
0.529972 0.0990131 0.
0.531972 0.0990124 0.
0.533973 0.0990117 0.
0.535973 0.0990111 0.
0.537973 0.0990105 0.
0.539974 0.0990103 0.
0.541974 0.0990105 0.
0.543975 0.0990106 0.
0.545975 0.0990104 0.
0.547976 0.0990102 0.
0.549977 0.09901 0.
0.551978 0.0990102 0.
0.553979 0.0990104 0.
0.55598 0.0990106 0.
0.557981 0.0990109 0.
0.559982 0.0990112 0.
0.561982 0.0990114 0.
0.563983 0.0990115 0.
0.565984 0.0990115 0.
0.567984 0.0990116 0.
0.569985 0.0990116 0.
0.571986 0.0990117 0.
0.573987 0.0990119 0.
0.575988 0.0990122 0.
0.577989 0.0990125 0.
0.57999 0.0990126 0.
0.581991 0.0990127 0.
0.583992 0.0990128 0.
0.585993 0.0990131 0.
0.587994 0.0990133 0.
0.589995 0.0990135 0.
0.591996 0.0990137 0.
0.593997 0.0990138 0.
0.595999 0.0990144 0.
0.598 0.0990152 0.
0.600002 0.0990159 0.
0.602003 0.0990157 0.
0.604004 0.0990155 0.
0.606005 0.0990151 0.
0.608006 0.0990145 0.
0.610007 0.0990139 0.
0.612008 0.0990134 0.
0.614009 0.0990132 0.
0.616009 0.0990129 0.
0.61801 0.0990126 0.
0.620011 0.0990122 0.
0.622012 0.0990118 0.
0.624012 0.099012 0.
0.626013 0.0990121 0.
0.628014 0.0990123 0.
0.630015 0.0990125 0.
0.632016 0.0990126 0.
0.634017 0.0990126 0.
0.636018 0.0990123 0.
0.638018 0.099012 0.
0.640019 0.0990116 0.
0.64202 0.0990113 0.
0.644021 0.0990109 0.
0.646022 0.0990107 0.
0.648023 0.0990106 0.
0.650024 0.0990105 0.
0.652025 0.0990107 0.
0.654025 0.0990108 0.
0.656026 0.099011 0.
0.658026 0.0990109 0.
0.660026 0.0990109 0.
0.662027 0.0990111 0.
0.664027 0.0990116 0.
0.666027 0.099012 0.
0.668028 0.0990122 0.
0.670028 0.0990123 0.
0.672028 0.0990124 0.
0.674029 0.0990133 0.
0.676029 0.0990144 0.
0.67803 0.0990154 0.
0.68003 0.099016 0.
0.682031 0.0990166 0.
0.684031 0.0990175 0.
0.686031 0.0990189 0.
0.688031 0.0990202 0.
0.690031 0.0990216 0.
0.692031 0.0990229 0.
0.694031 0.0990243 0.
0.696031 0.0990258 0.
0.698031 0.0990274 0.
CELLS 5000 10000
1 0
1 1
1 2
1 3
1 4
1 5
1 6
1 7
1 8
1 9
1 10
1 11
1 12
1 13
1 14
1 15
1 16
1 17
1 18
1 19
1 20
1 21
1 22
1 23
1 24
1 25
1 26
1 27
1 28
1 29
1 30
1 31
1 32
1 33
1 34
1 35
1 36
1 37
1 38
1 39
1 40
1 41
1 42
1 43
1 44
1 45
1 46
1 47
1 48
1 49
1 50
1 51
1 52
1 53
1 54
1 55
1 56
1 57
1 58
1 59
1 60
1 61
1 62
1 63
1 64
1 65
1 66
1 67
1 68
1 69
1 70
1 71
1 72
1 73
1 74
1 75
1 76
1 77
1 78
1 79
1 80
1 81
1 82
1 83
1 84
1 85
1 86
1 87
1 88
1 89
1 90
1 91
1 92
1 93
1 94
1 95
1 96
1 97
1 98
1 99
1 100
1 101
1 102
1 103
1 104
1 105
1 106
1 107
1 108
1 109
1 110
1 111
1 112
1 113
1 114
1 115
1 116
1 117
1 118
1 119
1 120
1 121
1 122
1 123
1 124
1 125
1 126
1 127
1 128
1 129
1 130
1 131
1 132
1 133
1 134
1 135
1 136
1 137
1 138
1 139
1 140
1 141
1 142
1 143
1 144
1 145
1 146
1 147
1 148
1 149
1 150
1 151
1 152
1 153
1 154
1 155
1 156
1 157
1 158
1 159
1 160
1 161
1 162
1 163
1 164
1 165
1 166
1 167
1 168
1 169
1 170
1 171
1 172
1 173
1 174
1 175
1 176
1 177
1 178
1 179
1 180
1 181
1 182
1 183
1 184
1 185
1 186
1 187
1 188
1 189
1 190
1 191
1 192
1 193
1 194
1 195
1 196
1 197
1 198
1 199
1 200
1 201
1 202
1 203
1 204
1 205
1 206
1 207
1 208
1 209
1 210
1 211
1 212
1 213
1 214
1 215
1 216
1 217
1 218
1 219
1 220
1 221
1 222
1 223
1 224
1 225
1 226
1 227
1 228
1 229
1 230
1 231
1 232
1 233
1 234
1 235
1 236
1 237
1 238
1 239
1 240
1 241
1 242
1 243
1 244
1 245
1 246
1 247
1 248
1 249
1 250
1 251
1 252
1 253
1 254
1 255
1 256
1 257
1 258
1 259
1 260
1 261
1 262
1 263
1 264
1 265
1 266
1 267
1 268
1 269
1 270
1 271
1 272
1 273
1 274
1 275
1 276
1 277
1 278
1 279
1 280
1 281
1 282
1 283
1 284
1 285
1 286
1 287
1 288
1 289
1 290
1 291
1 292
1 293
1 294
1 295
1 296
1 297
1 298
1 299
1 300
1 301
1 302
1 303
1 304
1 305
1 306
1 307
1 308
1 309
1 310
1 311
1 312
1 313
1 314
1 315
1 316
1 317
1 318
1 319
1 320
1 321
1 322
1 323
1 324
1 325
1 326
1 327
1 328
1 329
1 330
1 331
1 332
1 333
1 334
1 335
1 336
1 337
1 338
1 339
1 340
1 341
1 342
1 343
1 344
1 345
1 346
1 347
1 348
1 349
1 350
1 351
1 352
1 353
1 354
1 355
1 356
1 357
1 358
1 359
1 360
1 361
1 362
1 363
1 364
1 365
1 366
1 367
1 368
1 369
1 370
1 371
1 372
1 373
1 374
1 375
1 376
1 377
1 378
1 379
1 380
1 381
1 382
1 383
1 384
1 385
1 386
1 387
1 388
1 389
1 390
1 391
1 392
1 393
1 394
1 395
1 396
1 397
1 398
1 399
1 400
1 401
1 402
1 403
1 404
1 405
1 406
1 407
1 408
1 409
1 410
1 411
1 412
1 413
1 414
1 415
1 416
1 417
1 418
1 419
1 420
1 421
1 422
1 423
1 424
1 425
1 426
1 427
1 428
1 429
1 430
1 431
1 432
1 433
1 434
1 435
1 436
1 437
1 438
1 439
1 440
1 441
1 442
1 443
1 444
1 445
1 446
1 447
1 448
1 449
1 450
1 451
1 452
1 453
1 454
1 455
1 456
1 457
1 458
1 459
1 460
1 461
1 462
1 463
1 464
1 465
1 466
1 467
1 468
1 469
1 470
1 471
1 472
1 473
1 474
1 475
1 476
1 477
1 478
1 479
1 480
1 481
1 482
1 483
1 484
1 485
1 486
1 487
1 488
1 489
1 490
1 491
1 492
1 493
1 494
1 495
1 496
1 497
1 498
1 499
1 500
1 501
1 502
1 503
1 504
1 505
1 506
1 507
1 508
1 509
1 510
1 511
1 512
1 513
1 514
1 515
1 516
1 517
1 518
1 519
1 520
1 521
1 522
1 523
1 524
1 525
1 526
1 527
1 528
1 529
1 530
1 531
1 532
1 533
1 534
1 535
1 536
1 537
1 538
1 539
1 540
1 541
1 542
1 543
1 544
1 545
1 546
1 547
1 548
1 549
1 550
1 551
1 552
1 553
1 554
1 555
1 556
1 557
1 558
1 559
1 560
1 561
1 562
1 563
1 564
1 565
1 566
1 567
1 568
1 569
1 570
1 571
1 572
1 573
1 574
1 575
1 576
1 577
1 578
1 579
1 580
1 581
1 582
1 583
1 584
1 585
1 586
1 587
1 588
1 589
1 590
1 591
1 592
1 593
1 594
1 595
1 596
1 597
1 598
1 599
1 600
1 601
1 602
1 603
1 604
1 605
1 606
1 607
1 608
1 609
1 610
1 611
1 612
1 613
1 614
1 615
1 616
1 617
1 618
1 619
1 620
1 621
1 622
1 623
1 624
1 625
1 626
1 627
1 628
1 629
1 630
1 631
1 632
1 633
1 634
1 635
1 636
1 637
1 638
1 639
1 640
1 641
1 642
1 643
1 644
1 645
1 646
1 647
1 648
1 649
1 650
1 651
1 652
1 653
1 654
1 655
1 656
1 657
1 658
1 659
1 660
1 661
1 662
1 663
1 664
1 665
1 666
1 667
1 668
1 669
1 670
1 671
1 672
1 673
1 674
1 675
1 676
1 677
1 678
1 679
1 680
1 681
1 682
1 683
1 684
1 685
1 686
1 687
1 688
1 689
1 690
1 691
1 692
1 693
1 694
1 695
1 696
1 697
1 698
1 699
1 700
1 701
1 702
1 703
1 704
1 705
1 706
1 707
1 708
1 709
1 710
1 711
1 712
1 713
1 714
1 715
1 716
1 717
1 718
1 719
1 720
1 721
1 722
1 723
1 724
1 725
1 726
1 727
1 728
1 729
1 730
1 731
1 732
1 733
1 734
1 735
1 736
1 737
1 738
1 739
1 740
1 741
1 742
1 743
1 744
1 745
1 746
1 747
1 748
1 749
1 750
1 751
1 752
1 753
1 754
1 755
1 756
1 757
1 758
1 759
1 760
1 761
1 762
1 763
1 764
1 765
1 766
1 767
1 768
1 769
1 770
1 771
1 772
1 773
1 774
1 775
1 776
1 777
1 778
1 779
1 780
1 781
1 782
1 783
1 784
1 785
1 786
1 787
1 788
1 789
1 790
1 791
1 792
1 793
1 794
1 795
1 796
1 797
1 798
1 799
1 800
1 801
1 802
1 803
1 804
1 805
1 806
1 807
1 808
1 809
1 810
1 811
1 812
1 813
1 814
1 815
1 816
1 817
1 818
1 819
1 820
1 821
1 822
1 823
1 824
1 825
1 826
1 827
1 828
1 829
1 830
1 831
1 832
1 833
1 834
1 835
1 836
1 837
1 838
1 839
1 840
1 841
1 842
1 843
1 844
1 845
1 846
1 847
1 848
1 849
1 850
1 851
1 852
1 853
1 854
1 855
1 856
1 857
1 858
1 859
1 860
1 861
1 862
1 863
1 864
1 865
1 866
1 867
1 868
1 869
1 870
1 871
1 872
1 873
1 874
1 875
1 876
1 877
1 878
1 879
1 880
1 881
1 882
1 883
1 884
1 885
1 886
1 887
1 888
1 889
1 890
1 891
1 892
1 893
1 894
1 895
1 896
1 897
1 898
1 899
1 900
1 901
1 902
1 903
1 904
1 905
1 906
1 907
1 908
1 909
1 910
1 911
1 912
1 913
1 914
1 915
1 916
1 917
1 918
1 919
1 920
1 921
1 922
1 923
1 924
1 925
1 926
1 927
1 928
1 929
1 930
1 931
1 932
1 933
1 934
1 935
1 936
1 937
1 938
1 939
1 940
1 941
1 942
1 943
1 944
1 945
1 946
1 947
1 948
1 949
1 950
1 951
1 952
1 953
1 954
1 955
1 956
1 957
1 958
1 959
1 960
1 961
1 962
1 963
1 964
1 965
1 966
1 967
1 968
1 969
1 970
1 971
1 972
1 973
1 974
1 975
1 976
1 977
1 978
1 979
1 980
1 981
1 982
1 983
1 984
1 985
1 986
1 987
1 988
1 989
1 990
1 991
1 992
1 993
1 994
1 995
1 996
1 997
1 998
1 999
1 1000
1 1001
1 1002
1 1003
1 1004
1 1005
1 1006
1 1007
1 1008
1 1009
1 1010
1 1011
1 1012
1 1013
1 1014
1 1015
1 1016
1 1017
1 1018
1 1019
1 1020
1 1021
1 1022
1 1023
1 1024
1 1025
1 1026
1 1027
1 1028
1 1029
1 1030
1 1031
1 1032
1 1033
1 1034
1 1035
1 1036
1 1037
1 1038
1 1039
1 1040
1 1041
1 1042
1 1043
1 1044
1 1045
1 1046
1 1047
1 1048
1 1049
1 1050
1 1051
1 1052
1 1053
1 1054
1 1055
1 1056
1 1057
1 1058
1 1059
1 1060
1 1061
1 1062
1 1063
1 1064
1 1065
1 1066
1 1067
1 1068
1 1069
1 1070
1 1071
1 1072
1 1073
1 1074
1 1075
1 1076
1 1077
1 1078
1 1079
1 1080
1 1081
1 1082
1 1083
1 1084
1 1085
1 1086
1 1087
1 1088
1 1089
1 1090
1 1091
1 1092
1 1093
1 1094
1 1095
1 1096
1 1097
1 1098
1 1099
1 1100
1 1101
1 1102
1 1103
1 1104
1 1105
1 1106
1 1107
1 1108
1 1109
1 1110
1 1111
1 1112
1 1113
1 1114
1 1115
1 1116
1 1117
1 1118
1 1119
1 1120
1 1121
1 1122
1 1123
1 1124
1 1125
1 1126
1 1127
1 1128
1 1129
1 1130
1 1131
1 1132
1 1133
1 1134
1 1135
1 1136
1 1137
1 1138
1 1139
1 1140
1 1141
1 1142
1 1143
1 1144
1 1145
1 1146
1 1147
1 1148
1 1149
1 1150
1 1151
1 1152
1 1153
1 1154
1 1155
1 1156
1 1157
1 1158
1 1159
1 1160
1 1161
1 1162
1 1163
1 1164
1 1165
1 1166
1 1167
1 1168
1 1169
1 1170
1 1171
1 1172
1 1173
1 1174
1 1175
1 1176
1 1177
1 1178
1 1179
1 1180
1 1181
1 1182
1 1183
1 1184
1 1185
1 1186
1 1187
1 1188
1 1189
1 1190
1 1191
1 1192
1 1193
1 1194
1 1195
1 1196
1 1197
1 1198
1 1199
1 1200
1 1201
1 1202
1 1203
1 1204
1 1205
1 1206
1 1207
1 1208
1 1209
1 1210
1 1211
1 1212
1 1213
1 1214
1 1215
1 1216
1 1217
1 1218
1 1219
1 1220
1 1221
1 1222
1 1223
1 1224
1 1225
1 1226
1 1227
1 1228
1 1229
1 1230
1 1231
1 1232
1 1233
1 1234
1 1235
1 1236
1 1237
1 1238
1 1239
1 1240
1 1241
1 1242
1 1243
1 1244
1 1245
1 1246
1 1247
1 1248
1 1249
1 1250
1 1251
1 1252
1 1253
1 1254
1 1255
1 1256
1 1257
1 1258
1 1259
1 1260
1 1261
1 1262
1 1263
1 1264
1 1265
1 1266
1 1267
1 1268
1 1269
1 1270
1 1271
1 1272
1 1273
1 1274
1 1275
1 1276
1 1277
1 1278
1 1279
1 1280
1 1281
1 1282
1 1283
1 1284
1 1285
1 1286
1 1287
1 1288
1 1289
1 1290
1 1291
1 1292
1 1293
1 1294
1 1295
1 1296
1 1297
1 1298
1 1299
1 1300
1 1301
1 1302
1 1303
1 1304
1 1305
1 1306
1 1307
1 1308
1 1309
1 1310
1 1311
1 1312
1 1313
1 1314
1 1315
1 1316
1 1317
1 1318
1 1319
1 1320
1 1321
1 1322
1 1323
1 1324
1 1325
1 1326
1 1327
1 1328
1 1329
1 1330
1 1331
1 1332
1 1333
1 1334
1 1335
1 1336
1 1337
1 1338
1 1339
1 1340
1 1341
1 1342
1 1343
1 1344
1 1345
1 1346
1 1347
1 1348
1 1349
1 1350
1 1351
1 1352
1 1353
1 1354
1 1355
1 1356
1 1357
1 1358
1 1359
1 1360
1 1361
1 1362
1 1363
1 1364
1 1365
1 1366
1 1367
1 1368
1 1369
1 1370
1 1371
1 1372
1 1373
1 1374
1 1375
1 1376
1 1377
1 1378
1 1379
1 1380
1 1381
1 1382
1 1383
1 1384
1 1385
1 1386
1 1387
1 1388
1 1389
1 1390
1 1391
1 1392
1 1393
1 1394
1 1395
1 1396
1 1397
1 1398
1 1399
1 1400
1 1401
1 1402
1 1403
1 1404
1 1405
1 1406
1 1407
1 1408
1 1409
1 1410
1 1411
1 1412
1 1413
1 1414
1 1415
1 1416
1 1417
1 1418
1 1419
1 1420
1 1421
1 1422
1 1423
1 1424
1 1425
1 1426
1 1427
1 1428
1 1429
1 1430
1 1431
1 1432
1 1433
1 1434
1 1435
1 1436
1 1437
1 1438
1 1439
1 1440
1 1441
1 1442
1 1443
1 1444
1 1445
1 1446
1 1447
1 1448
1 1449
1 1450
1 1451
1 1452
1 1453
1 1454
1 1455
1 1456
1 1457
1 1458
1 1459
1 1460
1 1461
1 1462
1 1463
1 1464
1 1465
1 1466
1 1467
1 1468
1 1469
1 1470
1 1471
1 1472
1 1473
1 1474
1 1475
1 1476
1 1477
1 1478
1 1479
1 1480
1 1481
1 1482
1 1483
1 1484
1 1485
1 1486
1 1487
1 1488
1 1489
1 1490
1 1491
1 1492
1 1493
1 1494
1 1495
1 1496
1 1497
1 1498
1 1499
1 1500
1 1501
1 1502
1 1503
1 1504
1 1505
1 1506
1 1507
1 1508
1 1509
1 1510
1 1511
1 1512
1 1513
1 1514
1 1515
1 1516
1 1517
1 1518
1 1519
1 1520
1 1521
1 1522
1 1523
1 1524
1 1525
1 1526
1 1527
1 1528
1 1529
1 1530
1 1531
1 1532
1 1533
1 1534
1 1535
1 1536
1 1537
1 1538
1 1539
1 1540
1 1541
1 1542
1 1543
1 1544
1 1545
1 1546
1 1547
1 1548
1 1549
1 1550
1 1551
1 1552
1 1553
1 1554
1 1555
1 1556
1 1557
1 1558
1 1559
1 1560
1 1561
1 1562
1 1563
1 1564
1 1565
1 1566
1 1567
1 1568
1 1569
1 1570
1 1571
1 1572
1 1573
1 1574
1 1575
1 1576
1 1577
1 1578
1 1579
1 1580
1 1581
1 1582
1 1583
1 1584
1 1585
1 1586
1 1587
1 1588
1 1589
1 1590
1 1591
1 1592
1 1593
1 1594
1 1595
1 1596
1 1597
1 1598
1 1599
1 1600
1 1601
1 1602
1 1603
1 1604
1 1605
1 1606
1 1607
1 1608
1 1609
1 1610
1 1611
1 1612
1 1613
1 1614
1 1615
1 1616
1 1617
1 1618
1 1619
1 1620
1 1621
1 1622
1 1623
1 1624
1 1625
1 1626
1 1627
1 1628
1 1629
1 1630
1 1631
1 1632
1 1633
1 1634
1 1635
1 1636
1 1637
1 1638
1 1639
1 1640
1 1641
1 1642
1 1643
1 1644
1 1645
1 1646
1 1647
1 1648
1 1649
1 1650
1 1651
1 1652
1 1653
1 1654
1 1655
1 1656
1 1657
1 1658
1 1659
1 1660
1 1661
1 1662
1 1663
1 1664
1 1665
1 1666
1 1667
1 1668
1 1669
1 1670
1 1671
1 1672
1 1673
1 1674
1 1675
1 1676
1 1677
1 1678
1 1679
1 1680
1 1681
1 1682
1 1683
1 1684
1 1685
1 1686
1 1687
1 1688
1 1689
1 1690
1 1691
1 1692
1 1693
1 1694
1 1695
1 1696
1 1697
1 1698
1 1699
1 1700
1 1701
1 1702
1 1703
1 1704
1 1705
1 1706
1 1707
1 1708
1 1709
1 1710
1 1711
1 1712
1 1713
1 1714
1 1715
1 1716
1 1717
1 1718
1 1719
1 1720
1 1721
1 1722
1 1723
1 1724
1 1725
1 1726
1 1727
1 1728
1 1729
1 1730
1 1731
1 1732
1 1733
1 1734
1 1735
1 1736
1 1737
1 1738
1 1739
1 1740
1 1741
1 1742
1 1743
1 1744
1 1745
1 1746
1 1747
1 1748
1 1749
1 1750
1 1751
1 1752
1 1753
1 1754
1 1755
1 1756
1 1757
1 1758
1 1759
1 1760
1 1761
1 1762
1 1763
1 1764
1 1765
1 1766
1 1767
1 1768
1 1769
1 1770
1 1771
1 1772
1 1773
1 1774
1 1775
1 1776
1 1777
1 1778
1 1779
1 1780
1 1781
1 1782
1 1783
1 1784
1 1785
1 1786
1 1787
1 1788
1 1789
1 1790
1 1791
1 1792
1 1793
1 1794
1 1795
1 1796
1 1797
1 1798
1 1799
1 1800
1 1801
1 1802
1 1803
1 1804
1 1805
1 1806
1 1807
1 1808
1 1809
1 1810
1 1811
1 1812
1 1813
1 1814
1 1815
1 1816
1 1817
1 1818
1 1819
1 1820
1 1821
1 1822
1 1823
1 1824
1 1825
1 1826
1 1827
1 1828
1 1829
1 1830
1 1831
1 1832
1 1833
1 1834
1 1835
1 1836
1 1837
1 1838
1 1839
1 1840
1 1841
1 1842
1 1843
1 1844
1 1845
1 1846
1 1847
1 1848
1 1849
1 1850
1 1851
1 1852
1 1853
1 1854
1 1855
1 1856
1 1857
1 1858
1 1859
1 1860
1 1861
1 1862
1 1863
1 1864
1 1865
1 1866
1 1867
1 1868
1 1869
1 1870
1 1871
1 1872
1 1873
1 1874
1 1875
1 1876
1 1877
1 1878
1 1879
1 1880
1 1881
1 1882
1 1883
1 1884
1 1885
1 1886
1 1887
1 1888
1 1889
1 1890
1 1891
1 1892
1 1893
1 1894
1 1895
1 1896
1 1897
1 1898
1 1899
1 1900
1 1901
1 1902
1 1903
1 1904
1 1905
1 1906
1 1907
1 1908
1 1909
1 1910
1 1911
1 1912
1 1913
1 1914
1 1915
1 1916
1 1917
1 1918
1 1919
1 1920
1 1921
1 1922
1 1923
1 1924
1 1925
1 1926
1 1927
1 1928
1 1929
1 1930
1 1931
1 1932
1 1933
1 1934
1 1935
1 1936
1 1937
1 1938
1 1939
1 1940
1 1941
1 1942
1 1943
1 1944
1 1945
1 1946
1 1947
1 1948
1 1949
1 1950
1 1951
1 1952
1 1953
1 1954
1 1955
1 1956
1 1957
1 1958
1 1959
1 1960
1 1961
1 1962
1 1963
1 1964
1 1965
1 1966
1 1967
1 1968
1 1969
1 1970
1 1971
1 1972
1 1973
1 1974
1 1975
1 1976
1 1977
1 1978
1 1979
1 1980
1 1981
1 1982
1 1983
1 1984
1 1985
1 1986
1 1987
1 1988
1 1989
1 1990
1 1991
1 1992
1 1993
1 1994
1 1995
1 1996
1 1997
1 1998
1 1999
1 2000
1 2001
1 2002
1 2003
1 2004
1 2005
1 2006
1 2007
1 2008
1 2009
1 2010
1 2011
1 2012
1 2013
1 2014
1 2015
1 2016
1 2017
1 2018
1 2019
1 2020
1 2021
1 2022
1 2023
1 2024
1 2025
1 2026
1 2027
1 2028
1 2029
1 2030
1 2031
1 2032
1 2033
1 2034
1 2035
1 2036
1 2037
1 2038
1 2039
1 2040
1 2041
1 2042
1 2043
1 2044
1 2045
1 2046
1 2047
1 2048
1 2049
1 2050
1 2051
1 2052
1 2053
1 2054
1 2055
1 2056
1 2057
1 2058
1 2059
1 2060
1 2061
1 2062
1 2063
1 2064
1 2065
1 2066
1 2067
1 2068
1 2069
1 2070
1 2071
1 2072
1 2073
1 2074
1 2075
1 2076
1 2077
1 2078
1 2079
1 2080
1 2081
1 2082
1 2083
1 2084
1 2085
1 2086
1 2087
1 2088
1 2089
1 2090
1 2091
1 2092
1 2093
1 2094
1 2095
1 2096
1 2097
1 2098
1 2099
1 2100
1 2101
1 2102
1 2103
1 2104
1 2105
1 2106
1 2107
1 2108
1 2109
1 2110
1 2111
1 2112
1 2113
1 2114
1 2115
1 2116
1 2117
1 2118
1 2119
1 2120
1 2121
1 2122
1 2123
1 2124
1 2125
1 2126
1 2127
1 2128
1 2129
1 2130
1 2131
1 2132
1 2133
1 2134
1 2135
1 2136
1 2137
1 2138
1 2139
1 2140
1 2141
1 2142
1 2143
1 2144
1 2145
1 2146
1 2147
1 2148
1 2149
1 2150
1 2151
1 2152
1 2153
1 2154
1 2155
1 2156
1 2157
1 2158
1 2159
1 2160
1 2161
1 2162
1 2163
1 2164
1 2165
1 2166
1 2167
1 2168
1 2169
1 2170
1 2171
1 2172
1 2173
1 2174
1 2175
1 2176
1 2177
1 2178
1 2179
1 2180
1 2181
1 2182
1 2183
1 2184
1 2185
1 2186
1 2187
1 2188
1 2189
1 2190
1 2191
1 2192
1 2193
1 2194
1 2195
1 2196
1 2197
1 2198
1 2199
1 2200
1 2201
1 2202
1 2203
1 2204
1 2205
1 2206
1 2207
1 2208
1 2209
1 2210
1 2211
1 2212
1 2213
1 2214
1 2215
1 2216
1 2217
1 2218
1 2219
1 2220
1 2221
1 2222
1 2223
1 2224
1 2225
1 2226
1 2227
1 2228
1 2229
1 2230
1 2231
1 2232
1 2233
1 2234
1 2235
1 2236
1 2237
1 2238
1 2239
1 2240
1 2241
1 2242
1 2243
1 2244
1 2245
1 2246
1 2247
1 2248
1 2249
1 2250
1 2251
1 2252
1 2253
1 2254
1 2255
1 2256
1 2257
1 2258
1 2259
1 2260
1 2261
1 2262
1 2263
1 2264
1 2265
1 2266
1 2267
1 2268
1 2269
1 2270
1 2271
1 2272
1 2273
1 2274
1 2275
1 2276
1 2277
1 2278
1 2279
1 2280
1 2281
1 2282
1 2283
1 2284
1 2285
1 2286
1 2287
1 2288
1 2289
1 2290
1 2291
1 2292
1 2293
1 2294
1 2295
1 2296
1 2297
1 2298
1 2299
1 2300
1 2301
1 2302
1 2303
1 2304
1 2305
1 2306
1 2307
1 2308
1 2309
1 2310
1 2311
1 2312
1 2313
1 2314
1 2315
1 2316
1 2317
1 2318
1 2319
1 2320
1 2321
1 2322
1 2323
1 2324
1 2325
1 2326
1 2327
1 2328
1 2329
1 2330
1 2331
1 2332
1 2333
1 2334
1 2335
1 2336
1 2337
1 2338
1 2339
1 2340
1 2341
1 2342
1 2343
1 2344
1 2345
1 2346
1 2347
1 2348
1 2349
1 2350
1 2351
1 2352
1 2353
1 2354
1 2355
1 2356
1 2357
1 2358
1 2359
1 2360
1 2361
1 2362
1 2363
1 2364
1 2365
1 2366
1 2367
1 2368
1 2369
1 2370
1 2371
1 2372
1 2373
1 2374
1 2375
1 2376
1 2377
1 2378
1 2379
1 2380
1 2381
1 2382
1 2383
1 2384
1 2385
1 2386
1 2387
1 2388
1 2389
1 2390
1 2391
1 2392
1 2393
1 2394
1 2395
1 2396
1 2397
1 2398
1 2399
1 2400
1 2401
1 2402
1 2403
1 2404
1 2405
1 2406
1 2407
1 2408
1 2409
1 2410
1 2411
1 2412
1 2413
1 2414
1 2415
1 2416
1 2417
1 2418
1 2419
1 2420
1 2421
1 2422
1 2423
1 2424
1 2425
1 2426
1 2427
1 2428
1 2429
1 2430
1 2431
1 2432
1 2433
1 2434
1 2435
1 2436
1 2437
1 2438
1 2439
1 2440
1 2441
1 2442
1 2443
1 2444
1 2445
1 2446
1 2447
1 2448
1 2449
1 2450
1 2451
1 2452
1 2453
1 2454
1 2455
1 2456
1 2457
1 2458
1 2459
1 2460
1 2461
1 2462
1 2463
1 2464
1 2465
1 2466
1 2467
1 2468
1 2469
1 2470
1 2471
1 2472
1 2473
1 2474
1 2475
1 2476
1 2477
1 2478
1 2479
1 2480
1 2481
1 2482
1 2483
1 2484
1 2485
1 2486
1 2487
1 2488
1 2489
1 2490
1 2491
1 2492
1 2493
1 2494
1 2495
1 2496
1 2497
1 2498
1 2499
1 2500
1 2501
1 2502
1 2503
1 2504
1 2505
1 2506
1 2507
1 2508
1 2509
1 2510
1 2511
1 2512
1 2513
1 2514
1 2515
1 2516
1 2517
1 2518
1 2519
1 2520
1 2521
1 2522
1 2523
1 2524
1 2525
1 2526
1 2527
1 2528
1 2529
1 2530
1 2531
1 2532
1 2533
1 2534
1 2535
1 2536
1 2537
1 2538
1 2539
1 2540
1 2541
1 2542
1 2543
1 2544
1 2545
1 2546
1 2547
1 2548
1 2549
1 2550
1 2551
1 2552
1 2553
1 2554
1 2555
1 2556
1 2557
1 2558
1 2559
1 2560
1 2561
1 2562
1 2563
1 2564
1 2565
1 2566
1 2567
1 2568
1 2569
1 2570
1 2571
1 2572
1 2573
1 2574
1 2575
1 2576
1 2577
1 2578
1 2579
1 2580
1 2581
1 2582
1 2583
1 2584
1 2585
1 2586
1 2587
1 2588
1 2589
1 2590
1 2591
1 2592
1 2593
1 2594
1 2595
1 2596
1 2597
1 2598
1 2599
1 2600
1 2601
1 2602
1 2603
1 2604
1 2605
1 2606
1 2607
1 2608
1 2609
1 2610
1 2611
1 2612
1 2613
1 2614
1 2615
1 2616
1 2617
1 2618
1 2619
1 2620
1 2621
1 2622
1 2623
1 2624
1 2625
1 2626
1 2627
1 2628
1 2629
1 2630
1 2631
1 2632
1 2633
1 2634
1 2635
1 2636
1 2637
1 2638
1 2639
1 2640
1 2641
1 2642
1 2643
1 2644
1 2645
1 2646
1 2647
1 2648
1 2649
1 2650
1 2651
1 2652
1 2653
1 2654
1 2655
1 2656
1 2657
1 2658
1 2659
1 2660
1 2661
1 2662
1 2663
1 2664
1 2665
1 2666
1 2667
1 2668
1 2669
1 2670
1 2671
1 2672
1 2673
1 2674
1 2675
1 2676
1 2677
1 2678
1 2679
1 2680
1 2681
1 2682
1 2683
1 2684
1 2685
1 2686
1 2687
1 2688
1 2689
1 2690
1 2691
1 2692
1 2693
1 2694
1 2695
1 2696
1 2697
1 2698
1 2699
1 2700
1 2701
1 2702
1 2703
1 2704
1 2705
1 2706
1 2707
1 2708
1 2709
1 2710
1 2711
1 2712
1 2713
1 2714
1 2715
1 2716
1 2717
1 2718
1 2719
1 2720
1 2721
1 2722
1 2723
1 2724
1 2725
1 2726
1 2727
1 2728
1 2729
1 2730
1 2731
1 2732
1 2733
1 2734
1 2735
1 2736
1 2737
1 2738
1 2739
1 2740
1 2741
1 2742
1 2743
1 2744
1 2745
1 2746
1 2747
1 2748
1 2749
1 2750
1 2751
1 2752
1 2753
1 2754
1 2755
1 2756
1 2757
1 2758
1 2759
1 2760
1 2761
1 2762
1 2763
1 2764
1 2765
1 2766
1 2767
1 2768
1 2769
1 2770
1 2771
1 2772
1 2773
1 2774
1 2775
1 2776
1 2777
1 2778
1 2779
1 2780
1 2781
1 2782
1 2783
1 2784
1 2785
1 2786
1 2787
1 2788
1 2789
1 2790
1 2791
1 2792
1 2793
1 2794
1 2795
1 2796
1 2797
1 2798
1 2799
1 2800
1 2801
1 2802
1 2803
1 2804
1 2805
1 2806
1 2807
1 2808
1 2809
1 2810
1 2811
1 2812
1 2813
1 2814
1 2815
1 2816
1 2817
1 2818
1 2819
1 2820
1 2821
1 2822
1 2823
1 2824
1 2825
1 2826
1 2827
1 2828
1 2829
1 2830
1 2831
1 2832
1 2833
1 2834
1 2835
1 2836
1 2837
1 2838
1 2839
1 2840
1 2841
1 2842
1 2843
1 2844
1 2845
1 2846
1 2847
1 2848
1 2849
1 2850
1 2851
1 2852
1 2853
1 2854
1 2855
1 2856
1 2857
1 2858
1 2859
1 2860
1 2861
1 2862
1 2863
1 2864
1 2865
1 2866
1 2867
1 2868
1 2869
1 2870
1 2871
1 2872
1 2873
1 2874
1 2875
1 2876
1 2877
1 2878
1 2879
1 2880
1 2881
1 2882
1 2883
1 2884
1 2885
1 2886
1 2887
1 2888
1 2889
1 2890
1 2891
1 2892
1 2893
1 2894
1 2895
1 2896
1 2897
1 2898
1 2899
1 2900
1 2901
1 2902
1 2903
1 2904
1 2905
1 2906
1 2907
1 2908
1 2909
1 2910
1 2911
1 2912
1 2913
1 2914
1 2915
1 2916
1 2917
1 2918
1 2919
1 2920
1 2921
1 2922
1 2923
1 2924
1 2925
1 2926
1 2927
1 2928
1 2929
1 2930
1 2931
1 2932
1 2933
1 2934
1 2935
1 2936
1 2937
1 2938
1 2939
1 2940
1 2941
1 2942
1 2943
1 2944
1 2945
1 2946
1 2947
1 2948
1 2949
1 2950
1 2951
1 2952
1 2953
1 2954
1 2955
1 2956
1 2957
1 2958
1 2959
1 2960
1 2961
1 2962
1 2963
1 2964
1 2965
1 2966
1 2967
1 2968
1 2969
1 2970
1 2971
1 2972
1 2973
1 2974
1 2975
1 2976
1 2977
1 2978
1 2979
1 2980
1 2981
1 2982
1 2983
1 2984
1 2985
1 2986
1 2987
1 2988
1 2989
1 2990
1 2991
1 2992
1 2993
1 2994
1 2995
1 2996
1 2997
1 2998
1 2999
1 3000
1 3001
1 3002
1 3003
1 3004
1 3005
1 3006
1 3007
1 3008
1 3009
1 3010
1 3011
1 3012
1 3013
1 3014
1 3015
1 3016
1 3017
1 3018
1 3019
1 3020
1 3021
1 3022
1 3023
1 3024
1 3025
1 3026
1 3027
1 3028
1 3029
1 3030
1 3031
1 3032
1 3033
1 3034
1 3035
1 3036
1 3037
1 3038
1 3039
1 3040
1 3041
1 3042
1 3043
1 3044
1 3045
1 3046
1 3047
1 3048
1 3049
1 3050
1 3051
1 3052
1 3053
1 3054
1 3055
1 3056
1 3057
1 3058
1 3059
1 3060
1 3061
1 3062
1 3063
1 3064
1 3065
1 3066
1 3067
1 3068
1 3069
1 3070
1 3071
1 3072
1 3073
1 3074
1 3075
1 3076
1 3077
1 3078
1 3079
1 3080
1 3081
1 3082
1 3083
1 3084
1 3085
1 3086
1 3087
1 3088
1 3089
1 3090
1 3091
1 3092
1 3093
1 3094
1 3095
1 3096
1 3097
1 3098
1 3099
1 3100
1 3101
1 3102
1 3103
1 3104
1 3105
1 3106
1 3107
1 3108
1 3109
1 3110
1 3111
1 3112
1 3113
1 3114
1 3115
1 3116
1 3117
1 3118
1 3119
1 3120
1 3121
1 3122
1 3123
1 3124
1 3125
1 3126
1 3127
1 3128
1 3129
1 3130
1 3131
1 3132
1 3133
1 3134
1 3135
1 3136
1 3137
1 3138
1 3139
1 3140
1 3141
1 3142
1 3143
1 3144
1 3145
1 3146
1 3147
1 3148
1 3149
1 3150
1 3151
1 3152
1 3153
1 3154
1 3155
1 3156
1 3157
1 3158
1 3159
1 3160
1 3161
1 3162
1 3163
1 3164
1 3165
1 3166
1 3167
1 3168
1 3169
1 3170
1 3171
1 3172
1 3173
1 3174
1 3175
1 3176
1 3177
1 3178
1 3179
1 3180
1 3181
1 3182
1 3183
1 3184
1 3185
1 3186
1 3187
1 3188
1 3189
1 3190
1 3191
1 3192
1 3193
1 3194
1 3195
1 3196
1 3197
1 3198
1 3199
1 3200
1 3201
1 3202
1 3203
1 3204
1 3205
1 3206
1 3207
1 3208
1 3209
1 3210
1 3211
1 3212
1 3213
1 3214
1 3215
1 3216
1 3217
1 3218
1 3219
1 3220
1 3221
1 3222
1 3223
1 3224
1 3225
1 3226
1 3227
1 3228
1 3229
1 3230
1 3231
1 3232
1 3233
1 3234
1 3235
1 3236
1 3237
1 3238
1 3239
1 3240
1 3241
1 3242
1 3243
1 3244
1 3245
1 3246
1 3247
1 3248
1 3249
1 3250
1 3251
1 3252
1 3253
1 3254
1 3255
1 3256
1 3257
1 3258
1 3259
1 3260
1 3261
1 3262
1 3263
1 3264
1 3265
1 3266
1 3267
1 3268
1 3269
1 3270
1 3271
1 3272
1 3273
1 3274
1 3275
1 3276
1 3277
1 3278
1 3279
1 3280
1 3281
1 3282
1 3283
1 3284
1 3285
1 3286
1 3287
1 3288
1 3289
1 3290
1 3291
1 3292
1 3293
1 3294
1 3295
1 3296
1 3297
1 3298
1 3299
1 3300
1 3301
1 3302
1 3303
1 3304
1 3305
1 3306
1 3307
1 3308
1 3309
1 3310
1 3311
1 3312
1 3313
1 3314
1 3315
1 3316
1 3317
1 3318
1 3319
1 3320
1 3321
1 3322
1 3323
1 3324
1 3325
1 3326
1 3327
1 3328
1 3329
1 3330
1 3331
1 3332
1 3333
1 3334
1 3335
1 3336
1 3337
1 3338
1 3339
1 3340
1 3341
1 3342
1 3343
1 3344
1 3345
1 3346
1 3347
1 3348
1 3349
1 3350
1 3351
1 3352
1 3353
1 3354
1 3355
1 3356
1 3357
1 3358
1 3359
1 3360
1 3361
1 3362
1 3363
1 3364
1 3365
1 3366
1 3367
1 3368
1 3369
1 3370
1 3371
1 3372
1 3373
1 3374
1 3375
1 3376
1 3377
1 3378
1 3379
1 3380
1 3381
1 3382
1 3383
1 3384
1 3385
1 3386
1 3387
1 3388
1 3389
1 3390
1 3391
1 3392
1 3393
1 3394
1 3395
1 3396
1 3397
1 3398
1 3399
1 3400
1 3401
1 3402
1 3403
1 3404
1 3405
1 3406
1 3407
1 3408
1 3409
1 3410
1 3411
1 3412
1 3413
1 3414
1 3415
1 3416
1 3417
1 3418
1 3419
1 3420
1 3421
1 3422
1 3423
1 3424
1 3425
1 3426
1 3427
1 3428
1 3429
1 3430
1 3431
1 3432
1 3433
1 3434
1 3435
1 3436
1 3437
1 3438
1 3439
1 3440
1 3441
1 3442
1 3443
1 3444
1 3445
1 3446
1 3447
1 3448
1 3449
1 3450
1 3451
1 3452
1 3453
1 3454
1 3455
1 3456
1 3457
1 3458
1 3459
1 3460
1 3461
1 3462
1 3463
1 3464
1 3465
1 3466
1 3467
1 3468
1 3469
1 3470
1 3471
1 3472
1 3473
1 3474
1 3475
1 3476
1 3477
1 3478
1 3479
1 3480
1 3481
1 3482
1 3483
1 3484
1 3485
1 3486
1 3487
1 3488
1 3489
1 3490
1 3491
1 3492
1 3493
1 3494
1 3495
1 3496
1 3497
1 3498
1 3499
1 3500
1 3501
1 3502
1 3503
1 3504
1 3505
1 3506
1 3507
1 3508
1 3509
1 3510
1 3511
1 3512
1 3513
1 3514
1 3515
1 3516
1 3517
1 3518
1 3519
1 3520
1 3521
1 3522
1 3523
1 3524
1 3525
1 3526
1 3527
1 3528
1 3529
1 3530
1 3531
1 3532
1 3533
1 3534
1 3535
1 3536
1 3537
1 3538
1 3539
1 3540
1 3541
1 3542
1 3543
1 3544
1 3545
1 3546
1 3547
1 3548
1 3549
1 3550
1 3551
1 3552
1 3553
1 3554
1 3555
1 3556
1 3557
1 3558
1 3559
1 3560
1 3561
1 3562
1 3563
1 3564
1 3565
1 3566
1 3567
1 3568
1 3569
1 3570
1 3571
1 3572
1 3573
1 3574
1 3575
1 3576
1 3577
1 3578
1 3579
1 3580
1 3581
1 3582
1 3583
1 3584
1 3585
1 3586
1 3587
1 3588
1 3589
1 3590
1 3591
1 3592
1 3593
1 3594
1 3595
1 3596
1 3597
1 3598
1 3599
1 3600
1 3601
1 3602
1 3603
1 3604
1 3605
1 3606
1 3607
1 3608
1 3609
1 3610
1 3611
1 3612
1 3613
1 3614
1 3615
1 3616
1 3617
1 3618
1 3619
1 3620
1 3621
1 3622
1 3623
1 3624
1 3625
1 3626
1 3627
1 3628
1 3629
1 3630
1 3631
1 3632
1 3633
1 3634
1 3635
1 3636
1 3637
1 3638
1 3639
1 3640
1 3641
1 3642
1 3643
1 3644
1 3645
1 3646
1 3647
1 3648
1 3649
1 3650
1 3651
1 3652
1 3653
1 3654
1 3655
1 3656
1 3657
1 3658
1 3659
1 3660
1 3661
1 3662
1 3663
1 3664
1 3665
1 3666
1 3667
1 3668
1 3669
1 3670
1 3671
1 3672
1 3673
1 3674
1 3675
1 3676
1 3677
1 3678
1 3679
1 3680
1 3681
1 3682
1 3683
1 3684
1 3685
1 3686
1 3687
1 3688
1 3689
1 3690
1 3691
1 3692
1 3693
1 3694
1 3695
1 3696
1 3697
1 3698
1 3699
1 3700
1 3701
1 3702
1 3703
1 3704
1 3705
1 3706
1 3707
1 3708
1 3709
1 3710
1 3711
1 3712
1 3713
1 3714
1 3715
1 3716
1 3717
1 3718
1 3719
1 3720
1 3721
1 3722
1 3723
1 3724
1 3725
1 3726
1 3727
1 3728
1 3729
1 3730
1 3731
1 3732
1 3733
1 3734
1 3735
1 3736
1 3737
1 3738
1 3739
1 3740
1 3741
1 3742
1 3743
1 3744
1 3745
1 3746
1 3747
1 3748
1 3749
1 3750
1 3751
1 3752
1 3753
1 3754
1 3755
1 3756
1 3757
1 3758
1 3759
1 3760
1 3761
1 3762
1 3763
1 3764
1 3765
1 3766
1 3767
1 3768
1 3769
1 3770
1 3771
1 3772
1 3773
1 3774
1 3775
1 3776
1 3777
1 3778
1 3779
1 3780
1 3781
1 3782
1 3783
1 3784
1 3785
1 3786
1 3787
1 3788
1 3789
1 3790
1 3791
1 3792
1 3793
1 3794
1 3795
1 3796
1 3797
1 3798
1 3799
1 3800
1 3801
1 3802
1 3803
1 3804
1 3805
1 3806
1 3807
1 3808
1 3809
1 3810
1 3811
1 3812
1 3813
1 3814
1 3815
1 3816
1 3817
1 3818
1 3819
1 3820
1 3821
1 3822
1 3823
1 3824
1 3825
1 3826
1 3827
1 3828
1 3829
1 3830
1 3831
1 3832
1 3833
1 3834
1 3835
1 3836
1 3837
1 3838
1 3839
1 3840
1 3841
1 3842
1 3843
1 3844
1 3845
1 3846
1 3847
1 3848
1 3849
1 3850
1 3851
1 3852
1 3853
1 3854
1 3855
1 3856
1 3857
1 3858
1 3859
1 3860
1 3861
1 3862
1 3863
1 3864
1 3865
1 3866
1 3867
1 3868
1 3869
1 3870
1 3871
1 3872
1 3873
1 3874
1 3875
1 3876
1 3877
1 3878
1 3879
1 3880
1 3881
1 3882
1 3883
1 3884
1 3885
1 3886
1 3887
1 3888
1 3889
1 3890
1 3891
1 3892
1 3893
1 3894
1 3895
1 3896
1 3897
1 3898
1 3899
1 3900
1 3901
1 3902
1 3903
1 3904
1 3905
1 3906
1 3907
1 3908
1 3909
1 3910
1 3911
1 3912
1 3913
1 3914
1 3915
1 3916
1 3917
1 3918
1 3919
1 3920
1 3921
1 3922
1 3923
1 3924
1 3925
1 3926
1 3927
1 3928
1 3929
1 3930
1 3931
1 3932
1 3933
1 3934
1 3935
1 3936
1 3937
1 3938
1 3939
1 3940
1 3941
1 3942
1 3943
1 3944
1 3945
1 3946
1 3947
1 3948
1 3949
1 3950
1 3951
1 3952
1 3953
1 3954
1 3955
1 3956
1 3957
1 3958
1 3959
1 3960
1 3961
1 3962
1 3963
1 3964
1 3965
1 3966
1 3967
1 3968
1 3969
1 3970
1 3971
1 3972
1 3973
1 3974
1 3975
1 3976
1 3977
1 3978
1 3979
1 3980
1 3981
1 3982
1 3983
1 3984
1 3985
1 3986
1 3987
1 3988
1 3989
1 3990
1 3991
1 3992
1 3993
1 3994
1 3995
1 3996
1 3997
1 3998
1 3999
1 4000
1 4001
1 4002
1 4003
1 4004
1 4005
1 4006
1 4007
1 4008
1 4009
1 4010
1 4011
1 4012
1 4013
1 4014
1 4015
1 4016
1 4017
1 4018
1 4019
1 4020
1 4021
1 4022
1 4023
1 4024
1 4025
1 4026
1 4027
1 4028
1 4029
1 4030
1 4031
1 4032
1 4033
1 4034
1 4035
1 4036
1 4037
1 4038
1 4039
1 4040
1 4041
1 4042
1 4043
1 4044
1 4045
1 4046
1 4047
1 4048
1 4049
1 4050
1 4051
1 4052
1 4053
1 4054
1 4055
1 4056
1 4057
1 4058
1 4059
1 4060
1 4061
1 4062
1 4063
1 4064
1 4065
1 4066
1 4067
1 4068
1 4069
1 4070
1 4071
1 4072
1 4073
1 4074
1 4075
1 4076
1 4077
1 4078
1 4079
1 4080
1 4081
1 4082
1 4083
1 4084
1 4085
1 4086
1 4087
1 4088
1 4089
1 4090
1 4091
1 4092
1 4093
1 4094
1 4095
1 4096
1 4097
1 4098
1 4099
1 4100
1 4101
1 4102
1 4103
1 4104
1 4105
1 4106
1 4107
1 4108
1 4109
1 4110
1 4111
1 4112
1 4113
1 4114
1 4115
1 4116
1 4117
1 4118
1 4119
1 4120
1 4121
1 4122
1 4123
1 4124
1 4125
1 4126
1 4127
1 4128
1 4129
1 4130
1 4131
1 4132
1 4133
1 4134
1 4135
1 4136
1 4137
1 4138
1 4139
1 4140
1 4141
1 4142
1 4143
1 4144
1 4145
1 4146
1 4147
1 4148
1 4149
1 4150
1 4151
1 4152
1 4153
1 4154
1 4155
1 4156
1 4157
1 4158
1 4159
1 4160
1 4161
1 4162
1 4163
1 4164
1 4165
1 4166
1 4167
1 4168
1 4169
1 4170
1 4171
1 4172
1 4173
1 4174
1 4175
1 4176
1 4177
1 4178
1 4179
1 4180
1 4181
1 4182
1 4183
1 4184
1 4185
1 4186
1 4187
1 4188
1 4189
1 4190
1 4191
1 4192
1 4193
1 4194
1 4195
1 4196
1 4197
1 4198
1 4199
1 4200
1 4201
1 4202
1 4203
1 4204
1 4205
1 4206
1 4207
1 4208
1 4209
1 4210
1 4211
1 4212
1 4213
1 4214
1 4215
1 4216
1 4217
1 4218
1 4219
1 4220
1 4221
1 4222
1 4223
1 4224
1 4225
1 4226
1 4227
1 4228
1 4229
1 4230
1 4231
1 4232
1 4233
1 4234
1 4235
1 4236
1 4237
1 4238
1 4239
1 4240
1 4241
1 4242
1 4243
1 4244
1 4245
1 4246
1 4247
1 4248
1 4249
1 4250
1 4251
1 4252
1 4253
1 4254
1 4255
1 4256
1 4257
1 4258
1 4259
1 4260
1 4261
1 4262
1 4263
1 4264
1 4265
1 4266
1 4267
1 4268
1 4269
1 4270
1 4271
1 4272
1 4273
1 4274
1 4275
1 4276
1 4277
1 4278
1 4279
1 4280
1 4281
1 4282
1 4283
1 4284
1 4285
1 4286
1 4287
1 4288
1 4289
1 4290
1 4291
1 4292
1 4293
1 4294
1 4295
1 4296
1 4297
1 4298
1 4299
1 4300
1 4301
1 4302
1 4303
1 4304
1 4305
1 4306
1 4307
1 4308
1 4309
1 4310
1 4311
1 4312
1 4313
1 4314
1 4315
1 4316
1 4317
1 4318
1 4319
1 4320
1 4321
1 4322
1 4323
1 4324
1 4325
1 4326
1 4327
1 4328
1 4329
1 4330
1 4331
1 4332
1 4333
1 4334
1 4335
1 4336
1 4337
1 4338
1 4339
1 4340
1 4341
1 4342
1 4343
1 4344
1 4345
1 4346
1 4347
1 4348
1 4349
1 4350
1 4351
1 4352
1 4353
1 4354
1 4355
1 4356
1 4357
1 4358
1 4359
1 4360
1 4361
1 4362
1 4363
1 4364
1 4365
1 4366
1 4367
1 4368
1 4369
1 4370
1 4371
1 4372
1 4373
1 4374
1 4375
1 4376
1 4377
1 4378
1 4379
1 4380
1 4381
1 4382
1 4383
1 4384
1 4385
1 4386
1 4387
1 4388
1 4389
1 4390
1 4391
1 4392
1 4393
1 4394
1 4395
1 4396
1 4397
1 4398
1 4399
1 4400
1 4401
1 4402
1 4403
1 4404
1 4405
1 4406
1 4407
1 4408
1 4409
1 4410
1 4411
1 4412
1 4413
1 4414
1 4415
1 4416
1 4417
1 4418
1 4419
1 4420
1 4421
1 4422
1 4423
1 4424
1 4425
1 4426
1 4427
1 4428
1 4429
1 4430
1 4431
1 4432
1 4433
1 4434
1 4435
1 4436
1 4437
1 4438
1 4439
1 4440
1 4441
1 4442
1 4443
1 4444
1 4445
1 4446
1 4447
1 4448
1 4449
1 4450
1 4451
1 4452
1 4453
1 4454
1 4455
1 4456
1 4457
1 4458
1 4459
1 4460
1 4461
1 4462
1 4463
1 4464
1 4465
1 4466
1 4467
1 4468
1 4469
1 4470
1 4471
1 4472
1 4473
1 4474
1 4475
1 4476
1 4477
1 4478
1 4479
1 4480
1 4481
1 4482
1 4483
1 4484
1 4485
1 4486
1 4487
1 4488
1 4489
1 4490
1 4491
1 4492
1 4493
1 4494
1 4495
1 4496
1 4497
1 4498
1 4499
1 4500
1 4501
1 4502
1 4503
1 4504
1 4505
1 4506
1 4507
1 4508
1 4509
1 4510
1 4511
1 4512
1 4513
1 4514
1 4515
1 4516
1 4517
1 4518
1 4519
1 4520
1 4521
1 4522
1 4523
1 4524
1 4525
1 4526
1 4527
1 4528
1 4529
1 4530
1 4531
1 4532
1 4533
1 4534
1 4535
1 4536
1 4537
1 4538
1 4539
1 4540
1 4541
1 4542
1 4543
1 4544
1 4545
1 4546
1 4547
1 4548
1 4549
1 4550
1 4551
1 4552
1 4553
1 4554
1 4555
1 4556
1 4557
1 4558
1 4559
1 4560
1 4561
1 4562
1 4563
1 4564
1 4565
1 4566
1 4567
1 4568
1 4569
1 4570
1 4571
1 4572
1 4573
1 4574
1 4575
1 4576
1 4577
1 4578
1 4579
1 4580
1 4581
1 4582
1 4583
1 4584
1 4585
1 4586
1 4587
1 4588
1 4589
1 4590
1 4591
1 4592
1 4593
1 4594
1 4595
1 4596
1 4597
1 4598
1 4599
1 4600
1 4601
1 4602
1 4603
1 4604
1 4605
1 4606
1 4607
1 4608
1 4609
1 4610
1 4611
1 4612
1 4613
1 4614
1 4615
1 4616
1 4617
1 4618
1 4619
1 4620
1 4621
1 4622
1 4623
1 4624
1 4625
1 4626
1 4627
1 4628
1 4629
1 4630
1 4631
1 4632
1 4633
1 4634
1 4635
1 4636
1 4637
1 4638
1 4639
1 4640
1 4641
1 4642
1 4643
1 4644
1 4645
1 4646
1 4647
1 4648
1 4649
1 4650
1 4651
1 4652
1 4653
1 4654
1 4655
1 4656
1 4657
1 4658
1 4659
1 4660
1 4661
1 4662
1 4663
1 4664
1 4665
1 4666
1 4667
1 4668
1 4669
1 4670
1 4671
1 4672
1 4673
1 4674
1 4675
1 4676
1 4677
1 4678
1 4679
1 4680
1 4681
1 4682
1 4683
1 4684
1 4685
1 4686
1 4687
1 4688
1 4689
1 4690
1 4691
1 4692
1 4693
1 4694
1 4695
1 4696
1 4697
1 4698
1 4699
1 4700
1 4701
1 4702
1 4703
1 4704
1 4705
1 4706
1 4707
1 4708
1 4709
1 4710
1 4711
1 4712
1 4713
1 4714
1 4715
1 4716
1 4717
1 4718
1 4719
1 4720
1 4721
1 4722
1 4723
1 4724
1 4725
1 4726
1 4727
1 4728
1 4729
1 4730
1 4731
1 4732
1 4733
1 4734
1 4735
1 4736
1 4737
1 4738
1 4739
1 4740
1 4741
1 4742
1 4743
1 4744
1 4745
1 4746
1 4747
1 4748
1 4749
1 4750
1 4751
1 4752
1 4753
1 4754
1 4755
1 4756
1 4757
1 4758
1 4759
1 4760
1 4761
1 4762
1 4763
1 4764
1 4765
1 4766
1 4767
1 4768
1 4769
1 4770
1 4771
1 4772
1 4773
1 4774
1 4775
1 4776
1 4777
1 4778
1 4779
1 4780
1 4781
1 4782
1 4783
1 4784
1 4785
1 4786
1 4787
1 4788
1 4789
1 4790
1 4791
1 4792
1 4793
1 4794
1 4795
1 4796
1 4797
1 4798
1 4799
1 4800
1 4801
1 4802
1 4803
1 4804
1 4805
1 4806
1 4807
1 4808
1 4809
1 4810
1 4811
1 4812
1 4813
1 4814
1 4815
1 4816
1 4817
1 4818
1 4819
1 4820
1 4821
1 4822
1 4823
1 4824
1 4825
1 4826
1 4827
1 4828
1 4829
1 4830
1 4831
1 4832
1 4833
1 4834
1 4835
1 4836
1 4837
1 4838
1 4839
1 4840
1 4841
1 4842
1 4843
1 4844
1 4845
1 4846
1 4847
1 4848
1 4849
1 4850
1 4851
1 4852
1 4853
1 4854
1 4855
1 4856
1 4857
1 4858
1 4859
1 4860
1 4861
1 4862
1 4863
1 4864
1 4865
1 4866
1 4867
1 4868
1 4869
1 4870
1 4871
1 4872
1 4873
1 4874
1 4875
1 4876
1 4877
1 4878
1 4879
1 4880
1 4881
1 4882
1 4883
1 4884
1 4885
1 4886
1 4887
1 4888
1 4889
1 4890
1 4891
1 4892
1 4893
1 4894
1 4895
1 4896
1 4897
1 4898
1 4899
1 4900
1 4901
1 4902
1 4903
1 4904
1 4905
1 4906
1 4907
1 4908
1 4909
1 4910
1 4911
1 4912
1 4913
1 4914
1 4915
1 4916
1 4917
1 4918
1 4919
1 4920
1 4921
1 4922
1 4923
1 4924
1 4925
1 4926
1 4927
1 4928
1 4929
1 4930
1 4931
1 4932
1 4933
1 4934
1 4935
1 4936
1 4937
1 4938
1 4939
1 4940
1 4941
1 4942
1 4943
1 4944
1 4945
1 4946
1 4947
1 4948
1 4949
1 4950
1 4951
1 4952
1 4953
1 4954
1 4955
1 4956
1 4957
1 4958
1 4959
1 4960
1 4961
1 4962
1 4963
1 4964
1 4965
1 4966
1 4967
1 4968
1 4969
1 4970
1 4971
1 4972
1 4973
1 4974
1 4975
1 4976
1 4977
1 4978
1 4979
1 4980
1 4981
1 4982
1 4983
1 4984
1 4985
1 4986
1 4987
1 4988
1 4989
1 4990
1 4991
1 4992
1 4993
1 4994
1 4995
1 4996
1 4997
1 4998
1 4999
CELL_TYPES 5000
1 
1 
1 
1 
1 
1 
1 
1 
1 
1 
1 
1 
1 
1 
1 
1 
1 
1 
1 
1 
1 
1 
1 
1 
1 
1 
1 
1 
1 
1 
1 
1 
1 
1 
1 
1 
1 
1 
1 
1 
1 
1 
1 
1 
1 
1 
1 
1 
1 
1 
1 
1 
1 
1 
1 
1 
1 
1 
1 
1 
1 
1 
1 
1 
1 
1 
1 
1 
1 
1 
1 
1 
1 
1 
1 
1 
1 
1 
1 
1 
1 
1 
1 
1 
1 
1 
1 
1 
1 
1 
1 
1 
1 
1 
1 
1 
1 
1 
1 
1 
1 
1 
1 
1 
1 
1 
1 
1 
1 
1 
1 
1 
1 
1 
1 
1 
1 
1 
1 
1 
1 
1 
1 
1 
1 
1 
1 
1 
1 
1 
1 
1 
1 
1 
1 
1 
1 
1 
1 
1 
1 
1 
1 
1 
1 
1 
1 
1 
1 
1 
1 
1 
1 
1 
1 
1 
1 
1 
1 
1 
1 
1 
1 
1 
1 
1 
1 
1 
1 
1 
1 
1 
1 
1 
1 
1 
1 
1 
1 
1 
1 
1 
1 
1 
1 
1 
1 
1 
1 
1 
1 
1 
1 
1 
1 
1 
1 
1 
1 
1 
1 
1 
1 
1 
1 
1 
1 
1 
1 
1 
1 
1 
1 
1 
1 
1 
1 
1 
1 
1 
1 
1 
1 
1 
1 
1 
1 
1 
1 
1 
1 
1 
1 
1 
1 
1 
1 
1 
1 
1 
1 
1 
1 
1 
1 
1 
1 
1 
1 
1 
1 
1 
1 
1 
1 
1 
1 
1 
1 
1 
1 
1 
1 
1 
1 
1 
1 
1 
1 
1 
1 
1 
1 
1 
1 
1 
1 
1 
1 
1 
1 
1 
1 
1 
1 
1 
1 
1 
1 
1 
1 
1 
1 
1 
1 
1 
1 
1 
1 
1 
1 
1 
1 
1 
1 
1 
1 
1 
1 
1 
1 
1 
1 
1 
1 
1 
1 
1 
1 
1 
1 
1 
1 
1 
1 
1 
1 
1 
1 
1 
1 
1 
1 
1 
1 
1 
1 
1 
1 
1 
1 
1 
1 
1 
1 
1 
1 
1 
1 
1 
1 
1 
1 
1 
1 
1 
1 
1 
1 
1 
1 
1 
1 
1 
1 
1 
1 
1 
1 
1 
1 
1 
1 
1 
1 
1 
1 
1 
1 
1 
1 
1 
1 
1 
1 
1 
1 
1 
1 
1 
1 
1 
1 
1 
1 
1 
1 
1 
1 
1 
1 
1 
1 
1 
1 
1 
1 
1 
1 
1 
1 
1 
1 
1 
1 
1 
1 
1 
1 
1 
1 
1 
1 
1 
1 
1 
1 
1 
1 
1 
1 
1 
1 
1 
1 
1 
1 
1 
1 
1 
1 
1 
1 
1 
1 
1 
1 
1 
1 
1 
1 
1 
1 
1 
1 
1 
1 
1 
1 
1 
1 
1 
1 
1 
1 
1 
1 
1 
1 
1 
1 
1 
1 
1 
1 
1 
1 
1 
1 
1 
1 
1 
1 
1 
1 
1 
1 
1 
1 
1 
1 
1 
1 
1 
1 
1 
1 
1 
1 
1 
1 
1 
1 
1 
1 
1 
1 
1 
1 
1 
1 
1 
1 
1 
1 
1 
1 
1 
1 
1 
1 
1 
1 
1 
1 
1 
1 
1 
1 
1 
1 
1 
1 
1 
1 
1 
1 
1 
1 
1 
1 
1 
1 
1 
1 
1 
1 
1 
1 
1 
1 
1 
1 
1 
1 
1 
1 
1 
1 
1 
1 
1 
1 
1 
1 
1 
1 
1 
1 
1 
1 
1 
1 
1 
1 
1 
1 
1 
1 
1 
1 
1 
1 
1 
1 
1 
1 
1 
1 
1 
1 
1 
1 
1 
1 
1 
1 
1 
1 
1 
1 
1 
1 
1 
1 
1 
1 
1 
1 
1 
1 
1 
1 
1 
1 
1 
1 
1 
1 
1 
1 
1 
1 
1 
1 
1 
1 
1 
1 
1 
1 
1 
1 
1 
1 
1 
1 
1 
1 
1 
1 
1 
1 
1 
1 
1 
1 
1 
1 
1 
1 
1 
1 
1 
1 
1 
1 
1 
1 
1 
1 
1 
1 
1 
1 
1 
1 
1 
1 
1 
1 
1 
1 
1 
1 
1 
1 
1 
1 
1 
1 
1 
1 
1 
1 
1 
1 
1 
1 
1 
1 
1 
1 
1 
1 
1 
1 
1 
1 
1 
1 
1 
1 
1 
1 
1 
1 
1 
1 
1 
1 
1 
1 
1 
1 
1 
1 
1 
1 
1 
1 
1 
1 
1 
1 
1 
1 
1 
1 
1 
1 
1 
1 
1 
1 
1 
1 
1 
1 
1 
1 
1 
1 
1 
1 
1 
1 
1 
1 
1 
1 
1 
1 
1 
1 
1 
1 
1 
1 
1 
1 
1 
1 
1 
1 
1 
1 
1 
1 
1 
1 
1 
1 
1 
1 
1 
1 
1 
1 
1 
1 
1 
1 
1 
1 
1 
1 
1 
1 
1 
1 
1 
1 
1 
1 
1 
1 
1 
1 
1 
1 
1 
1 
1 
1 
1 
1 
1 
1 
1 
1 
1 
1 
1 
1 
1 
1 
1 
1 
1 
1 
1 
1 
1 
1 
1 
1 
1 
1 
1 
1 
1 
1 
1 
1 
1 
1 
1 
1 
1 
1 
1 
1 
1 
1 
1 
1 
1 
1 
1 
1 
1 
1 
1 
1 
1 
1 
1 
1 
1 
1 
1 
1 
1 
1 
1 
1 
1 
1 
1 
1 
1 
1 
1 
1 
1 
1 
1 
1 
1 
1 
1 
1 
1 
1 
1 
1 
1 
1 
1 
1 
1 
1 
1 
1 
1 
1 
1 
1 
1 
1 
1 
1 
1 
1 
1 
1 
1 
1 
1 
1 
1 
1 
1 
1 
1 
1 
1 
1 
1 
1 
1 
1 
1 
1 
1 
1 
1 
1 
1 
1 
1 
1 
1 
1 
1 
1 
1 
1 
1 
1 
1 
1 
1 
1 
1 
1 
1 
1 
1 
1 
1 
1 
1 
1 
1 
1 
1 
1 
1 
1 
1 
1 
1 
1 
1 
1 
1 
1 
1 
1 
1 
1 
1 
1 
1 
1 
1 
1 
1 
1 
1 
1 
1 
1 
1 
1 
1 
1 
1 
1 
1 
1 
1 
1 
1 
1 
1 
1 
1 
1 
1 
1 
1 
1 
1 
1 
1 
1 
1 
1 
1 
1 
1 
1 
1 
1 
1 
1 
1 
1 
1 
1 
1 
1 
1 
1 
1 
1 
1 
1 
1 
1 
1 
1 
1 
1 
1 
1 
1 
1 
1 
1 
1 
1 
1 
1 
1 
1 
1 
1 
1 
1 
1 
1 
1 
1 
1 
1 
1 
1 
1 
1 
1 
1 
1 
1 
1 
1 
1 
1 
1 
1 
1 
1 
1 
1 
1 
1 
1 
1 
1 
1 
1 
1 
1 
1 
1 
1 
1 
1 
1 
1 
1 
1 
1 
1 
1 
1 
1 
1 
1 
1 
1 
1 
1 
1 
1 
1 
1 
1 
1 
1 
1 
1 
1 
1 
1 
1 
1 
1 
1 
1 
1 
1 
1 
1 
1 
1 
1 
1 
1 
1 
1 
1 
1 
1 
1 
1 
1 
1 
1 
1 
1 
1 
1 
1 
1 
1 
1 
1 
1 
1 
1 
1 
1 
1 
1 
1 
1 
1 
1 
1 
1 
1 
1 
1 
1 
1 
1 
1 
1 
1 
1 
1 
1 
1 
1 
1 
1 
1 
1 
1 
1 
1 
1 
1 
1 
1 
1 
1 
1 
1 
1 
1 
1 
1 
1 
1 
1 
1 
1 
1 
1 
1 
1 
1 
1 
1 
1 
1 
1 
1 
1 
1 
1 
1 
1 
1 
1 
1 
1 
1 
1 
1 
1 
1 
1 
1 
1 
1 
1 
1 
1 
1 
1 
1 
1 
1 
1 
1 
1 
1 
1 
1 
1 
1 
1 
1 
1 
1 
1 
1 
1 
1 
1 
1 
1 
1 
1 
1 
1 
1 
1 
1 
1 
1 
1 
1 
1 
1 
1 
1 
1 
1 
1 
1 
1 
1 
1 
1 
1 
1 
1 
1 
1 
1 
1 
1 
1 
1 
1 
1 
1 
1 
1 
1 
1 
1 
1 
1 
1 
1 
1 
1 
1 
1 
1 
1 
1 
1 
1 
1 
1 
1 
1 
1 
1 
1 
1 
1 
1 
1 
1 
1 
1 
1 
1 
1 
1 
1 
1 
1 
1 
1 
1 
1 
1 
1 
1 
1 
1 
1 
1 
1 
1 
1 
1 
1 
1 
1 
1 
1 
1 
1 
1 
1 
1 
1 
1 
1 
1 
1 
1 
1 
1 
1 
1 
1 
1 
1 
1 
1 
1 
1 
1 
1 
1 
1 
1 
1 
1 
1 
1 
1 
1 
1 
1 
1 
1 
1 
1 
1 
1 
1 
1 
1 
1 
1 
1 
1 
1 
1 
1 
1 
1 
1 
1 
1 
1 
1 
1 
1 
1 
1 
1 
1 
1 
1 
1 
1 
1 
1 
1 
1 
1 
1 
1 
1 
1 
1 
1 
1 
1 
1 
1 
1 
1 
1 
1 
1 
1 
1 
1 
1 
1 
1 
1 
1 
1 
1 
1 
1 
1 
1 
1 
1 
1 
1 
1 
1 
1 
1 
1 
1 
1 
1 
1 
1 
1 
1 
1 
1 
1 
1 
1 
1 
1 
1 
1 
1 
1 
1 
1 
1 
1 
1 
1 
1 
1 
1 
1 
1 
1 
1 
1 
1 
1 
1 
1 
1 
1 
1 
1 
1 
1 
1 
1 
1 
1 
1 
1 
1 
1 
1 
1 
1 
1 
1 
1 
1 
1 
1 
1 
1 
1 
1 
1 
1 
1 
1 
1 
1 
1 
1 
1 
1 
1 
1 
1 
1 
1 
1 
1 
1 
1 
1 
1 
1 
1 
1 
1 
1 
1 
1 
1 
1 
1 
1 
1 
1 
1 
1 
1 
1 
1 
1 
1 
1 
1 
1 
1 
1 
1 
1 
1 
1 
1 
1 
1 
1 
1 
1 
1 
1 
1 
1 
1 
1 
1 
1 
1 
1 
1 
1 
1 
1 
1 
1 
1 
1 
1 
1 
1 
1 
1 
1 
1 
1 
1 
1 
1 
1 
1 
1 
1 
1 
1 
1 
1 
1 
1 
1 
1 
1 
1 
1 
1 
1 
1 
1 
1 
1 
1 
1 
1 
1 
1 
1 
1 
1 
1 
1 
1 
1 
1 
1 
1 
1 
1 
1 
1 
1 
1 
1 
1 
1 
1 
1 
1 
1 
1 
1 
1 
1 
1 
1 
1 
1 
1 
1 
1 
1 
1 
1 
1 
1 
1 
1 
1 
1 
1 
1 
1 
1 
1 
1 
1 
1 
1 
1 
1 
1 
1 
1 
1 
1 
1 
1 
1 
1 
1 
1 
1 
1 
1 
1 
1 
1 
1 
1 
1 
1 
1 
1 
1 
1 
1 
1 
1 
1 
1 
1 
1 
1 
1 
1 
1 
1 
1 
1 
1 
1 
1 
1 
1 
1 
1 
1 
1 
1 
1 
1 
1 
1 
1 
1 
1 
1 
1 
1 
1 
1 
1 
1 
1 
1 
1 
1 
1 
1 
1 
1 
1 
1 
1 
1 
1 
1 
1 
1 
1 
1 
1 
1 
1 
1 
1 
1 
1 
1 
1 
1 
1 
1 
1 
1 
1 
1 
1 
1 
1 
1 
1 
1 
1 
1 
1 
1 
1 
1 
1 
1 
1 
1 
1 
1 
1 
1 
1 
1 
1 
1 
1 
1 
1 
1 
1 
1 
1 
1 
1 
1 
1 
1 
1 
1 
1 
1 
1 
1 
1 
1 
1 
1 
1 
1 
1 
1 
1 
1 
1 
1 
1 
1 
1 
1 
1 
1 
1 
1 
1 
1 
1 
1 
1 
1 
1 
1 
1 
1 
1 
1 
1 
1 
1 
1 
1 
1 
1 
1 
1 
1 
1 
1 
1 
1 
1 
1 
1 
1 
1 
1 
1 
1 
1 
1 
1 
1 
1 
1 
1 
1 
1 
1 
1 
1 
1 
1 
1 
1 
1 
1 
1 
1 
1 
1 
1 
1 
1 
1 
1 
1 
1 
1 
1 
1 
1 
1 
1 
1 
1 
1 
1 
1 
1 
1 
1 
1 
1 
1 
1 
1 
1 
1 
1 
1 
1 
1 
1 
1 
1 
1 
1 
1 
1 
1 
1 
1 
1 
1 
1 
1 
1 
1 
1 
1 
1 
1 
1 
1 
1 
1 
1 
1 
1 
1 
1 
1 
1 
1 
1 
1 
1 
1 
1 
1 
1 
1 
1 
1 
1 
1 
1 
1 
1 
1 
1 
1 
1 
1 
1 
1 
1 
1 
1 
1 
1 
1 
1 
1 
1 
1 
1 
1 
1 
1 
1 
1 
1 
1 
1 
1 
1 
1 
1 
1 
1 
1 
1 
1 
1 
1 
1 
1 
1 
1 
1 
1 
1 
1 
1 
1 
1 
1 
1 
1 
1 
1 
1 
1 
1 
1 
1 
1 
1 
1 
1 
1 
1 
1 
1 
1 
1 
1 
1 
1 
1 
1 
1 
1 
1 
1 
1 
1 
1 
1 
1 
1 
1 
1 
1 
1 
1 
1 
1 
1 
1 
1 
1 
1 
1 
1 
1 
1 
1 
1 
1 
1 
1 
1 
1 
1 
1 
1 
1 
1 
1 
1 
1 
1 
1 
1 
1 
1 
1 
1 
1 
1 
1 
1 
1 
1 
1 
1 
1 
1 
1 
1 
1 
1 
1 
1 
1 
1 
1 
1 
1 
1 
1 
1 
1 
1 
1 
1 
1 
1 
1 
1 
1 
1 
1 
1 
1 
1 
1 
1 
1 
1 
1 
1 
1 
1 
1 
1 
1 
1 
1 
1 
1 
1 
1 
1 
1 
1 
1 
1 
1 
1 
1 
1 
1 
1 
1 
1 
1 
1 
1 
1 
1 
1 
1 
1 
1 
1 
1 
1 
1 
1 
1 
1 
1 
1 
1 
1 
1 
1 
1 
1 
1 
1 
1 
1 
1 
1 
1 
1 
1 
1 
1 
1 
1 
1 
1 
1 
1 
1 
1 
1 
1 
1 
1 
1 
1 
1 
1 
1 
1 
1 
1 
1 
1 
1 
1 
1 
1 
1 
1 
1 
1 
1 
1 
1 
1 
1 
1 
1 
1 
1 
1 
1 
1 
1 
1 
1 
1 
1 
1 
1 
1 
1 
1 
1 
1 
1 
1 
1 
1 
1 
1 
1 
1 
1 
1 
1 
1 
1 
1 
1 
1 
1 
1 
1 
1 
1 
1 
1 
1 
1 
1 
1 
1 
1 
1 
1 
1 
1 
1 
1 
1 
1 
1 
1 
1 
1 
1 
1 
1 
1 
1 
1 
1 
1 
1 
1 
1 
1 
1 
1 
1 
1 
1 
1 
1 
1 
1 
1 
1 
1 
1 
1 
1 
1 
1 
1 
1 
1 
1 
1 
1 
1 
1 
1 
1 
1 
1 
1 
1 
1 
1 
1 
1 
1 
1 
1 
1 
1 
1 
1 
1 
1 
1 
1 
1 
1 
1 
1 
1 
1 
1 
1 
1 
1 
1 
1 
1 
1 
1 
1 
1 
1 
1 
1 
1 
1 
1 
1 
1 
1 
1 
1 
1 
1 
1 
1 
1 
1 
1 
1 
1 
1 
1 
1 
1 
1 
1 
1 
1 
1 
1 
1 
1 
1 
1 
1 
1 
1 
1 
1 
1 
1 
1 
1 
1 
1 
1 
1 
1 
1 
1 
1 
1 
1 
1 
1 
1 
1 
1 
1 
1 
1 
1 
1 
1 
1 
1 
1 
1 
1 
1 
1 
1 
1 
1 
1 
1 
1 
1 
1 
1 
1 
1 
1 
1 
1 
1 
1 
1 
1 
1 
1 
1 
1 
1 
1 
1 
1 
1 
1 
1 
1 
1 
1 
1 
1 
1 
1 
1 
1 
1 
1 
1 
1 
1 
1 
1 
1 
1 
1 
1 
1 
1 
1 
1 
1 
1 
1 
1 
1 
1 
1 
1 
1 
1 
1 
1 
1 
1 
1 
1 
1 
1 
1 
1 
1 
1 
1 
1 
1 
1 
1 
1 
1 
1 
1 
1 
1 
1 
1 
1 
1 
1 
1 
1 
1 
1 
1 
1 
1 
1 
1 
1 
1 
1 
1 
1 
1 
1 
1 
1 
1 
1 
1 
1 
1 
1 
1 
1 
1 
1 
1 
1 
1 
1 
1 
1 
1 
1 
1 
1 
1 
1 
1 
1 
1 
1 
1 
1 
1 
1 
1 
1 
1 
1 
1 
1 
1 
1 
1 
1 
1 
1 
1 
1 
1 
1 
1 
1 
1 
1 
1 
1 
1 
1 
1 
1 
1 
1 
1 
1 
1 
1 
1 
1 
1 
1 
1 
1 
1 
1 
1 
1 
1 
1 
1 
1 
1 
1 
1 
1 
1 
1 
1 
1 
1 
1 
1 
1 
1 
1 
1 
1 
1 
1 
1 
1 
1 
1 
1 
1 
1 
1 
1 
1 
1 
1 
1 
1 
1 
1 
1 
1 
1 
1 
1 
1 
1 
1 
1 
1 
1 
1 
1 
1 
1 
1 
1 
1 
1 
1 
1 
1 
1 
1 
1 
1 
1 
1 
1 
1 
1 
1 
1 
1 
1 
1 
1 
1 
1 
1 
1 
1 
1 
1 
1 
1 
1 
1 
1 
1 
1 
1 
1 
1 
1 
1 
1 
1 
1 
1 
1 
1 
1 
1 
1 
1 
1 
1 
1 
1 
1 
1 
1 
1 
1 
1 
1 
1 
1 
1 
1 
1 
1 
1 
1 
1 
1 
1 
1 
1 
1 
1 
1 
1 
1 
1 
1 
1 
1 
1 
1 
1 
1 
1 
1 
1 
1 
1 
1 
1 
1 
1 
1 
1 
1 
1 
1 
1 
1 
1 
1 
1 
1 
1 
1 
1 
1 
1 
1 
1 
1 
1 
1 
1 
1 
1 
1 
1 
1 
1 
1 
1 
1 
1 
1 
1 
1 
1 
1 
1 
1 
1 
1 
1 
1 
1 
1 
1 
1 
1 
1 
1 
1 
1 
1 
1 
1 
1 
1 
1 
1 
1 
1 
1 
1 
1 
1 
1 
1 
1 
1 
1 
1 
1 
1 
1 
1 
1 
1 
1 
1 
1 
1 
1 
1 
1 
1 
1 
1 
1 
1 
1 
1 
1 
1 
1 
1 
1 
1 
1 
1 
1 
1 
1 
1 
1 
1 
1 
1 
1 
1 
1 
1 
1 
1 
1 
1 
1 
1 
1 
1 
1 
1 
1 
1 
1 
1 
1 
1 
1 
1 
1 
1 
1 
1 
1 
1 
1 
1 
1 
1 
1 
1 
1 
1 
1 
1 
1 
1 
1 
1 
1 
1 
1 
1 
1 
1 
1 
1 
1 
1 
1 
1 
1 
1 
1 
1 
1 
1 
1 
1 
1 
1 
1 
1 
1 
1 
1 
1 
1 
1 
1 
1 
1 
1 
1 
1 
1 
1 
1 
1 
1 
1 
1 
1 
1 
1 
1 
1 
1 
1 
1 
1 
1 
1 
1 
1 
1 
1 
1 
1 
1 
1 
1 
1 
1 
1 
1 
1 
1 
1 
1 
1 
1 
1 
1 
1 
1 
1 
1 
1 
1 
1 
1 
1 
1 
1 
1 
1 
1 
1 
1 
1 
1 
1 
1 
1 
1 
1 
1 
1 
1 
1 
1 
1 
1 
1 
1 
1 
1 
1 
1 
1 
1 
1 
1 
1 
1 
1 
1 
1 
1 
1 
1 
1 
1 
1 
1 
1 
1 
1 
1 
1 
1 
1 
1 
1 
1 
1 
1 
1 
1 
1 
1 
1 
1 
1 
1 
1 
1 
1 
1 
1 
1 
1 
1 
1 
1 
1 
1 
1 
1 
1 
1 
1 
1 
1 
1 
1 
1 
1 
1 
1 
1 
1 
1 
1 
1 
1 
1 
1 
1 
1 
1 
1 
1 
1 
1 
1 
1 
1 
1 
1 
1 
1 
1 
1 
1 
1 
1 
1 
1 
1 
1 
1 
1 
1 
1 
1 
1 
1 
1 
1 
1 
1 
1 
1 
1 
1 
1 
1 
1 
1 
1 
1 
1 
1 
1 
1 
1 
1 
1 
1 
1 
1 
1 
1 
1 
1 
1 
1 
1 
1 
1 
1 
1 
1 
1 
1 
1 
1 
1 
1 
1 
1 
1 
1 
1 
1 
1 
1 
1 
1 
1 
1 
1 
1 
1 
1 
1 
1 
1 
1 
1 
1 
1 
1 
1 
1 
1 
1 
1 
1 
1 
1 
1 
1 
1 
1 
1 
1 
1 
1 
1 
1 
1 
1 
1 
1 
1 
1 
1 
1 
1 
1 
1 
1 
1 
1 
1 
1 
1 
1 
1 
1 
1 
1 
1 
1 
1 
1 
1 
1 
1 
1 
1 
1 
1 
1 
1 
1 
1 
1 
1 
1 
1 
1 
1 
1 
1 
1 
1 
1 
1 
1 
1 
1 
1 
1 
1 
1 
1 
1 
1 
1 
1 
1 
1 
1 
1 
1 
1 
1 
1 
1 
1 
1 
1 
1 
1 
1 
1 
1 
1 
1 
1 
1 
1 
1 
1 
1 
1 
1 
1 
1 
1 
1 
1 
1 
1 
1 
1 
1 
1 
1 
1 
1 
1 
1 
1 
1 
1 
1 
1 
1 
1 
1 
1 
1 
1 
1 
1 
1 
1 
1 
1 
1 
1 
1 
1 
1 
1 
1 
1 
1 
1 
1 
1 
1 
1 
1 
1 
1 
1 
1 
1 
1 
1 
1 
1 
1 
1 
1 
1 
1 
1 
1 
1 
1 
1 
1 
1 
1 
1 
1 
1 
1 
1 
1 
1 
1 
1 
1 
1 
1 
1 
1 
1 
1 
1 
1 
1 
1 
1 
1 
1 
1 
1 
1 
1 
1 
1 
1 
1 
1 
1 
1 
1 
1 
1 
1 
1 
1 
1 
1 
1 
1 
1 
1 
1 
1 
1 
1 
1 
1 
1 
1 
1 
1 
1 
1 
1 
1 
1 
1 
1 
1 
1 
1 
1 
1 
1 
1 
1 
1 
1 
1 
1 
1 
1 
1 
1 
1 
1 
1 
1 
1 
1 
1 
1 
1 
1 
1 
1 
1 
1 
1 
1 
1 
1 
1 
1 
1 
1 
1 
1 
1 
1 
1 
1 
1 
1 
1 
1 
1 
1 
1 
1 
1 
1 
1 
1 
1 
1 
1 
1 
1 
1 
1 
1 
1 
1 
1 
1 
1 
1 
1 
1 
1 
1 
1 
1 
1 
1 
1 
1 
1 
1 
1 
1 
1 
1 
1 
1 
1 
1 
1 
1 
1 
1 
1 
1 
1 
1 
1 
1 
1 
1 
1 
1 
1 
1 
1 
1 
1 
1 
1 
1 
1 
1 
1 
1 
1 
1 
1 
1 
1 
1 
1 
1 
1 
1 
1 
1 
1 
1 
1 
1 
1 
1 
1 
1 
1 
1 
1 
1 
1 
1 
1 
1 
1 
1 
1 
1 
1 
1 
1 
1 
1 
1 
1 
1 
1 
1 
1 
1 
1 
1 
1 
1 
1 
1 
1 
1 
1 
1 
1 
1 
1 
1 
1 
1 
1 
1 
1 
1 
1 
1 
1 
1 
1 
1 
1 
1 
1 
1 
1 
1 
1 
1 
1 
1 
1 
1 
1 
1 
1 
1 
1 
1 
1 
1 
1 
1 
1 
1 
1 
1 
1 
1 
1 
1 
1 
1 
1 
1 
1 
1 
1 
1 
1 
1 
1 
1 
1 
1 
1 
1 
1 
1 
1 
1 
1 
1 
1 
1 
1 
1 
1 
1 
1 
1 
1 
1 
1 
1 
1 
1 
1 
1 
1 
1 
1 
1 
1 
1 
1 
1 
1 
1 
1 
1 
1 
1 
1 
1 
1 
1 
1 
1 
1 
1 
1 
1 
1 
1 
1 
1 
1 
1 
1 
1 
1 
1 
1 
1 
1 
1 
1 
1 
1 
1 
1 
1 
1 
1 
1 
1 
1 
1 
1 
1 
1 
1 
1 
1 
1 
1 
1 
1 
1 
1 
1 
1 
1 
1 
1 
1 
1 
1 
1 
1 
1 
1 
1 
1 
1 
1 
1 
1 
1 
1 
1 
1 
1 
1 
1 
1 
1 
1 
1 
1 
1 
1 
1 
1 
1 
1 
1 
1 
1 
1 
1 
1 
1 
1 
1 
1 
1 
1 
1 
1 
1 
1 
1 
1 
1 
1 
1 
1 
1 
1 
1 
1 
1 
1 
1 
1 
1 
1 
1 
1 
1 
1 
1 
1 
1 
1 
1 
1 
1 
1 
1 
1 
1 
1 
1 
1 
1 
1 
1 
1 
1 
1 
1 
1 
1 
1 
1 
1 
1 
1 
1 
1 
1 
1 
1 
1 
1 
1 
1 
1 
1 
1 
1 
1 
1 
1 
1 
1 
1 
1 
1 
1 
1 
1 
1 
1 
1 
1 
1 
1 
1 
1 
1 
1 
1 
1 
1 
1 
1 
1 
1 
1 
1 
1 
1 
1 
1 
1 
1 
1 
1 
1 
1 
1 
1 
1 
1 
1 
1 
1 
1 
1 
1 
1 
1 
1 
1 
1 
1 
1 
1 
1 
1 
1 
1 
1 
1 
1 
1 
1 
1 
1 
1 
1 
1 
1 
1 
1 
1 
1 
1 
1 
1 
1 
1 
1 
1 
1 
1 
1 
1 
1 
1 
1 
1 
1 
1 
1 
1 
1 
1 
1 
1 
1 
1 
1 
1 
1 
1 
1 
1 
1 
1 
1 
1 
1 
1 
1 
1 
1 
1 
1 
1 
1 
1 
1 
1 
1 
1 
1 
1 
1 
1 
1 
1 
1 
1 
1 
1 
1 
1 
1 
1 
1 
1 
1 
1 
1 
1 
1 
1 
1 
1 
1 
1 
1 
1 
1 
1 
1 
1 
1 
1 
1 
1 
1 
1 
1 
1 
1 
1 
1 
1 
1 
1 
1 
1 
1 
1 
1 
1 
1 
1 
1 
1 
1 
1 
1 
1 
1 
1 
1 
1 
1 
1 
1 
1 
1 
1 
1 
1 
1 
1 
1 
1 
1 
1 
1 
1 
1 
1 
1 
1 
1 
1 
1 
1 
1 
1 
1 
1 
1 
1 
1 
1 
1 
1 
1 
1 
1 
1 
1 
1 
1 
1 
1 
1 
1 
1 
1 
1 
1 
1 
1 
1 
1 
1 
1 
1 
1 
1 
1 
1 
1 
1 
1 
1 
1 
1 
1 
1 
1 
1 
1 
1 
1 
1 
1 
1 
1 
1 
1 
1 
1 
1 
1 
1 
1 
1 
1 
1 
1 
1 
1 
1 
1 
1 
1 
1 
1 
1 
1 
1 
1 
1 
1 
1 
1 
1 
1 
1 
1 
1 
1 
1 
1 
1 
1 
1 
1 
1 
1 
1 
1 
1 
1 
1 
1 
1 
1 
1 
1 
1 
1 
1 
1 
1 
1 
1 
1 
1 
1 
1 
1 
1 
1 
1 
1 
1 
1 
1 
1 
1 
1 
1 
1 
1 
1 
1 
1 
1 
1 
1 
1 
1 
1 
1 
1 
1 
1 
1 
1 
1 
1 
1 
1 
1 
1 
1 
1 
1 
1 
1 
1 
1 
1 
1 
1 
1 
1 
1 
1 
1 
1 
1 
1 
1 
1 
1 
1 
1 
1 
1 
1 
1 
1 
1 
1 
1 
1 
1 
1 
1 
1 
1 
1 
1 
1 
1 
1 
1 
1 
1 
1 
1 
1 
1 
1 
1 
1 
1 
1 
1 
1 
1 
1 
1 
1 
1 
1 
1 
1 
1 
1 
1 
1 
1 
1 
1 
1 
1 
1 
1 
1 
1 
1 
1 
1 
1 
1 
1 
1 
1 
1 
1 
1 
1 
1 
1 
1 
1 
1 
1 
1 
1 
1 
1 
1 
1 
1 
1 
1 
1 
1 
1 
1 
1 
1 
1 
1 
1 
1 
1 
1 
1 
1 
1 
1 
1 
1 
1 
1 
1 
1 
1 
1 
1 
1 
1 
1 
1 
1 
1 
1 
1 
1 
1 
1 
1 
1 
1 
1 
1 
1 
1 
1 
1 
1 
1 
1 
1 
1 
1 
1 
1 
1 
1 
1 
1 
1 
1 
1 
1 
1 
1 
1 
1 
1 
1 
1 
1 
1 
1 
1 
1 
1 
1 
1 
1 
1 
1 
1 
1 
1 
1 
1 
1 
1 
1 
1 
1 
1 
1 
1 
1 
1 
1 
1 
1 
1 
1 
1 
1 
1 
1 
1 
1 
1 
1 
1 
1 
1 
1 
1 
1 
1 
1 
1 
1 
1 
1 
1 
1 
1 
1 
1 
1 
1 
1 
1 
1 
1 
1 
1 
1 
1 
1 
1 
1 
1 
1 
1 
1 
1 
1 
1 
1 
1 
1 
1 
1 
1 
1 
1 
1 
1 
1 
1 
1 
1 
1 
1 
1 
1 
1 
1 
1 
1 
1 
1 
1 
1 
1 
1 
1 
1 
1 
1 
1 
1 
1 
1 
1 
1 
1 
1 
1 
1 
1 
1 
1 
1 
1 
1 
1 
1 
1 
1 
1 
1 
1 
1 
1 
1 
1 
1 
1 
1 
1 
1 
1 
1 
1 
1 
1 
1 
1 
1 
1 
1 
1 
1 
1 
1 
1 
1 
1 
1 
1 
1 
1 
1 
1 
1 
1 
1 
1 
1 
1 
1 
1 
1 
1 
1 
1 
1 
1 
1 
1 
1 
1 
1 
1 
1 
1 
1 
1 
1 
1 
1 
1 
1 
1 
1 
1 
1 
1 
1 
1 
1 
1 
1 
1 
1 
1 
1 
1 
1 
1 
1 
1 
1 
1 
1 
1 
1 
1 
1 
1 
1 
1 
1 
1 
1 
1 
1 
1 
1 
1 
1 
1 
1 
1 
1 
1 
1 
1 
1 
1 
1 
1 
1 
1 
1 
1 
1 
1 
1 
1 
1 
1 
1 
1 
1 
1 
1 
1 
1 
1 
1 
1 
1 
1 
1 
1 
1 
1 
1 
1 
1 
1 
1 
1 
1 
1 
1 
1 
1 
1 
1 
1 
1 
1 
1 
1 
1 
1 
1 
1 
1 
1 
1 
1 
1 
1 
1 
1 
1 
1 
1 
1 
1 
1 
1 
1 
1 
1 
1 
1 
1 
1 
1 
1 
1 
1 
1 
1 
1 
1 
1 
1 
1 
1 
1 
1 
1 
1 
1 
1 
1 
1 
1 
1 
1 
1 
1 
1 
1 
1 
1 
1 
1 
1 
1 
1 
1 
1 
1 
1 
1 
1 
1 
1 
1 
1 
1 
1 
1 
1 
1 
1 
1 
1 
1 
1 
1 
1 
1 
1 
1 
1 
1 
1 
1 
1 
1 
1 
1 
1 
1 
1 
1 
1 
1 
1 
1 
1 
1 
1 
1 
1 
1 
1 
1 
1 
1 
1 
1 
1 
1 
1 
1 
1 
1 
1 
1 
1 
1 
1 
1 
1 
1 
1 
1 
1 
1 
1 
1 
1 
1 
1 
1 
1 
1 
1 
1 
1 
1 
1 
1 
1 
1 
1 
1 
1 
1 
1 
1 
1 
1 
1 
1 
1 
1 
1 
1 
1 
1 
1 
1 
1 
1 
1 
1 
1 
1 
1 
1 
1 
1 
1 
1 
1 
1 
1 
1 
1 
1 
1 
1 
1 
1 
1 
1 
1 
1 
1 
1 
1 
1 
1 
1 
1 
1 
1 
1 
1 
1 
1 
1 
1 
1 
1 
1 
1 
1 
1 
1 
1 
1 
1 
1 
1 
1 
1 
1 
1 
1 
1 
1 
1 
1 
1 
1 
1 
1 
1 
1 
1 
1 
1 
1 
1 
1 
1 
1 
1 
1 
1 
1 
1 
1 
1 
1 
1 
1 
1 
1 
1 
1 
1 
1 
1 
1 
1 
1 
1 
1 
1 
1 
1 
1 
1 
1 
1 
1 
1 
1 
1 
1 
1 
1 
1 
1 
1 
1 
1 
1 
1 
1 
1 
1 
1 
1 
1 
1 
1 
1 
1 
1 
1 
1 
1 
1 
1 
1 
1 
1 
POINT_DATA 5000
VECTORS Stress float
449.546 -703.322 0.
-112.323 -1026.94 0.
-155.374 -1127.34 0.
-128.608 -1189.19 0.
-149.823 -1238.71 0.
-171.038 -1288.22 0.
-132.726 -1331.23 0.
-178.597 -1438.26 0.
-224.468 -1545.28 0.
-554.552 -1669.32 0.
-514.24 -1575.26 0.
-473.929 -1481.2 0.
-292.31 -1378.08 0.
-283.342 -1357.16 0.
213.042 -1132.19 0.
193.867 -1176.96 0.
174.692 -1221.73 0.
-92.4097 -1346.81 0.
-67.2167 -1288.06 0.
-42.0237 -1229.31 0.
211.906 -1119.38 0.
190.726 -1168.81 0.
169.545 -1218.24 0.
13.311 -1341.76 0.
-18.8719 -1416.88 0.
-256.111 -1579.89 0.
69.6241 -1409.79 0.
86.6387 -1370.1 0.
107.855 -1334.42 0.
110.711 -1327.77 0.
113.567 -1321.12 0.
117.758 -1325.12 0.
106.607 -1351.13 0.
95.4556 -1377.14 0.
575.062 -1180.85 0.
573.504 -1184.48 0.
571.946 -1188.11 0.
255.213 -1272.01 0.
286.39 -1199.24 0.
-18.9696 -1281.34 0.
-40.2435 -1330.97 0.
-61.5175 -1380.59 0.
166.975 -1306.46 0.
172.034 -1294.66 0.
177.094 -1282.86 0.
26.7744 -1320.38 0.
48.6448 -1269.35 0.
70.5153 -1218.31 0.
716.703 -923.223 0.
722.634 -909.414 0.
148.378 -1144.36 0.
216.047 -1119.23 0.
214.05 -1123.91 0.
238.575 -1130.56 0.
205.929 -1206.76 0.
173.283 -1282.96 0.
-416.216 -1547.14 0.
-390.284 -1486.62 0.
-364.352 -1426.1 0.
134.773 -1193.48 0.
137.145 -1187.95 0.
139.516 -1182.41 0.
428.041 -1129.33 0.
386.497 -1226.28 0.
232.841 -1357.35 0.
251.497 -1313.8 0.
270.153 -1270.25 0.
194.737 -1278.18 0.
196.061 -1275.08 0.
197.386 -1271.98 0.
4.90872 -1375.19 0.
-15.0115 -1421.67 0.
-34.9317 -1468.14 0.
150.667 -1373.64 0.
165.519 -1338.98 0.
23.4832 -1372.05 0.
169.534 -1301.66 0.
173.632 -1292.1 0.
228.771 -1241.7 0.
273.08 -1138.3 0.
317.389 -1034.9 0.
-8.87291 -1135.69 0.
-15.3179 -1150.72 0.
-21.7628 -1165.74 0.
67.2209 -1169.14 0.
38.5039 -1236.16 0.
9.78684 -1303.17 0.
-427.316 -1558.85 0.
-463.969 -1644.37 0.
-370.119 -1650.6 0.
-316.627 -1525.79 0.
-263.136 -1400.98 0.
-253.028 -1326.16 0.
-245.268 -1308.04 0.
-237.509 -1289.92 0.
-225.683 -1238.21 0.
-188.554 -1151.59 0.
-151.425 -1064.97 0.
-32.8467 -896.24 0.
35.2319 -737.309 0.
409.899 -688.931 0.
-41.6879 -965.259 0.
-84.7715 -1065.65 0.
-201.673 -1189.1 0.
-222.877 -1238.63 0.
-244.081 -1288.15 0.
-180.849 -1320.42 0.
-226.724 -1427.45 0.
-272.599 -1534.48 0.
-421.696 -1580.97 0.
-381.377 -1486.9 0.
-341.059 -1392.84 0.
-130.819 -1277.41 0.
-121.848 -1256.49 0.
102.935 -1147.98 0.
83.778 -1192.76 0.
64.6212 -1237.54 0.
-46.2634 -1295.55 0.
-21.0516 -1236.83 0.
4.16022 -1178.1 0.
87.1332 -1141.38 0.
65.9636 -1190.81 0.
44.7941 -1240.24 0.
129.187 -1260.6 0.
97.0217 -1335.76 0.
-109.321 -1485.57 0.
21.1178 -1399.15 0.
38.139 -1359.48 0.
126.538 -1294.94 0.
129.399 -1288.3 0.
132.261 -1281.67 0.
243.345 -1239.87 0.
232.188 -1265.88 0.
221.032 -1291.88 0.
346.921 -1247.2 0.
345.359 -1250.84 0.
343.797 -1254.47 0.
369.729 -1191.52 0.
400.893 -1118.73 0.
88.7285 -1203.78 0.
67.4461 -1253.4 0.
46.1638 -1303.01 0.
90.7362 -1307.73 0.
95.7989 -1295.93 0.
100.862 -1284.13 0.
49.6593 -1279.16 0.
71.5293 -1228.12 0.
93.3992 -1177.08 0.
845.765 -836.481 0.
851.712 -822.692 0.
-81.0489 -1211.26 0.
227.506 -1082.87 0.
225.528 -1087.56 0.
99.0458 -1158.91 0.
66.4197 -1235.11 0.
33.7936 -1311.3 0.
-220.84 -1432 0.
-194.912 -1371.47 0.
-168.984 -1310.94 0.
274.111 -1102.35 0.
276.485 -1096.82 0.
278.859 -1091.29 0.
429.408 -1097.32 0.
387.876 -1194.27 0.
83.9639 -1389.73 0.
102.603 -1346.18 0.
121.243 -1302.63 0.
200.433 -1244.33 0.
201.749 -1241.22 0.
203.065 -1238.11 0.
40.6456 -1328.46 0.
20.7235 -1374.93 0.
0.801346 -1421.4 0.
173.925 -1332.24 0.
188.772 -1297.57 0.
108.189 -1304.28 0.
223.172 -1247.2 0.
227.277 -1237.64 0.
118.016 -1257.69 0.
162.311 -1154.3 0.
206.607 -1050.91 0.
25.4021 -1089.59 0.
18.9494 -1104.6 0.
12.4967 -1119.62 0.
23.2449 -1156.58 0.
-5.46736 -1223.6 0.
-34.1796 -1290.61 0.
-252.568 -1452.51 0.
-289.229 -1538.04 0.
-427.969 -1643.97 0.
-374.48 -1519.17 0.
-320.991 -1394.36 0.
-221.12 -1281.06 0.
-213.37 -1262.93 0.
-205.619 -1244.81 0.
-130.018 -1165.76 0.
-92.8761 -1079.16 0.
-55.7342 -992.548 0.
50.2948 -829.154 0.
118.325 -670.174 0.
437.475 -516.553 0.
-8.42105 -990.793 0.
12.2958 -942.524 0.
-245.049 -1120.02 0.
-223.881 -1070.67 0.
-414.722 -1516 0.
-369.719 -1638.11 0.
-255.828 -1372.39 0.
-240.911 -1337.61 0.
-177.415 -1232.33 0.
-245.52 -1391.21 0.
-215.21 -1320.45 0.
-18.927 -1292.41 0.
-52.5595 -1370.9 0.
-289.731 -1823.08 0.
-177.263 -1560.7 0.
-157.226 -1513.98 0.
-167.621 -1635.6 0.
-186.059 -1678.53 0.
-333.483 -2022.43 0.
-400.875 -2010.89 0.
-362.226 -1920.81 0.
-345.38 -1881.6 0.
128.01 -1452.44 0.
173.401 -1346.44 0.
-77.3692 -1588.91 0.
-61.1515 -1467.5 0.
-55.4242 -1454.14 0.
-2.66261 -1600.83 0.
-3.18504 -1601.93 0.
-58.7477 -1731.47 0.
213.176 -1518.09 0.
217.244 -1508.54 0.
190.847 -1570.09 0.
-10.6215 -1616.14 0.
35.0561 -1509.54 0.
-56.5967 -1723.38 0.
362.607 -1394.83 0.
361.959 -1396.39 0.
-153.304 -1941.96 0.
-86.4426 -1786.01 0.
-71.6 -1751.44 0.
-159.464 -1714.96 0.
-32.979 -1419.79 0.
-22.0145 -1394.17 0.
-74.7573 -1581.63 0.
-154.313 -1767.37 0.
-112.863 -1670.76 0.
765.095 -1238.74 0.
864.271 -1007.23 0.
-1015.73 -2265.4 0.
32.0433 -1529.85 0.
76.8598 -1425.26 0.
-301.552 -1796.74 0.
-197.896 -1554.85 0.
-279.787 -1745.9 0.
-50.1869 -1374.44 0.
-118.382 -1533.67 0.
-177.595 -1671.94 0.
197.26 -1515.45 0.
192.427 -1526.77 0.
99.8251 -1742.89 0.
334.616 -1289.93 0.
369.892 -1207.49 0.
-72.4381 -1440.18 0.
-100.924 -1506.7 0.
-211.278 -1764.24 0.
-55.906 -1821.72 0.
-4.53462 -1701.92 0.
-71.5543 -1858.36 0.
-207.115 -1943.24 0.
-110.174 -1717.13 0.
-248.71 -2040.46 0.
94.456 -1530.56 0.
138.94 -1426.64 0.
-50.4051 -1738.29 0.
296.722 -1146.19 0.
162.347 -1459.96 0.
-199.676 -1756.84 0.
-114.018 -1556.92 0.
-290.744 -1969.22 0.
-350.604 -2000.69 0.
-311.515 -1909.55 0.
-337.81 -1970.96 0.
-352.345 -1917.98 0.
-83.3651 -1290.31 0.
-121.93 -1380.26 0.
-130.772 -1469.35 0.
-111.14 -1423.56 0.
-459.44 -1576.12 0.
-352.293 -1326.06 0.
-346.952 -1313.55 0.
-347.911 -1606.41 0.
-207.631 -1279.01 0.
-209.139 -1282.44 0.
-75.2362 -1188.17 0.
54.6785 -885.052 0.
89.3686 -804.125 0.
122.494 -787.856 0.
115.099 -805.222 0.
409.4 -414.736 0.
105.348 -569.454 0.
91.5641 -601.82 0.
-75.5131 -705.348 0.
-105.27 -774.761 0.
-135.028 -844.173 0.
17.3565 -731.833 0.
118.983 -494.794 0.
220.609 -257.754 0.
133.728 -274.242 0.
92.7388 -369.867 0.
51.7497 -465.492 0.
366.667 -455.913 0.
296.429 -619.732 0.
136.732 -803.2 0.
183.527 -693.953 0.
230.322 -584.705 0.
355.07 -492.412 0.
315.659 -584.235 0.
276.248 -676.059 0.
211.484 -737.675 0.
212.785 -734.705 0.
214.087 -731.735 0.
385.132 -597.244 0.
426.923 -499.79 0.
329.544 -461.98 0.
386.861 -461.958 0.
372.634 -495.191 0.
557.038 -442.833 0.
546.231 -467.915 0.
535.425 -492.996 0.
570.289 -464.818 0.
600.562 -394.151 0.
630.834 -323.484 0.
556.879 -330.078 0.
560.905 -320.65 0.
564.932 -311.222 0.
884.239 -265.586 0.
828.963 -394.711 0.
331.091 -702.701 0.
327.889 -710.296 0.
324.686 -717.891 0.
263.035 -732.159 0.
289.163 -671.202 0.
315.291 -610.246 0.
455.356 -537.969 0.
445.12 -561.86 0.
434.884 -585.752 0.
1047.63 -327.313 0.
1047.87 -326.703 0.
-256.044 -885.093 0.
555.238 -528.882 0.
559.699 -518.489 0.
190.76 -663.271 0.
206.506 -626.458 0.
222.251 -589.645 0.
340.31 -541.86 0.
318.122 -593.649 0.
295.934 -645.438 0.
525.344 -565.198 0.
521.497 -574.06 0.
517.65 -582.922 0.
806.259 -336.227 0.
878.754 -166.942 0.
463.136 -236.841 0.
406.916 -367.95 0.
350.695 -499.06 0.
480.914 -530.341 0.
455.4 -589.882 0.
429.886 -649.423 0.
366.196 -657.01 0.
403.595 -569.757 0.
440.994 -482.505 0.
503.145 -485.653 0.
473.455 -554.817 0.
511.405 -592.418 0.
462.821 -546.546 0.
497.843 -464.844 0.
422.969 -463.152 0.
389.264 -541.729 0.
355.559 -620.306 0.
263.721 -710.864 0.
244.207 -756.472 0.
224.692 -802.079 0.
84.7583 -801.551 0.
140.171 -672.346 0.
195.584 -543.14 0.
217.513 -441.133 0.
264.833 -330.779 0.
100.782 -341.743 0.
34.4876 -496.471 0.
-31.8065 -651.198 0.
143.348 -660.415 0.
138.676 -671.237 0.
134.004 -682.059 0.
14.1727 -689.768 0.
56.5297 -590.825 0.
98.8867 -491.882 0.
275.057 -480.479 0.
224.115 -599.452 0.
338.077 -413.832 0.
39.9934 -566.069 0.
26.2398 -598.498 0.
-69.0168 -671.097 0.
-98.7864 -740.48 0.
-128.556 -809.863 0.
32.2914 -693.874 0.
133.935 -456.856 0.
235.578 -219.839 0.
28.4082 -287.892 0.
-12.5719 -383.513 0.
-53.5521 -479.134 0.
416.349 -403.22 0.
346.077 -567.032 0.
140.197 -770.309 0.
186.961 -661.039 0.
233.725 -551.77 0.
411.679 -436.744 0.
372.249 -528.566 0.
332.819 -620.388 0.
309.668 -664.204 0.
310.964 -661.217 0.
312.26 -658.23 0.
267.712 -615.969 0.
309.552 -518.558 0.
192.252 -489.35 0.
424.266 -414.503 0.
410.046 -447.747 0.
651.214 -371.059 0.
640.399 -396.14 0.
629.584 -421.221 0.
471.328 -475.723 0.
501.605 -405.066 0.
531.882 -334.408 0.
593.367 -283.045 0.
597.386 -273.62 0.
601.406 -264.194 0.
946.892 -207.289 0.
891.644 -336.45 0.
290.43 -688.58 0.
287.251 -696.178 0.
284.073 -703.776 0.
281.133 -692.962 0.
307.281 -632.007 0.
333.429 -571.051 0.
573.303 -456.021 0.
563.033 -479.89 0.
552.764 -503.759 0.
931.732 -345.578 0.
931.99 -344.98 0.
-372.097 -903.3 0.
687.157 -440.89 0.
691.631 -430.497 0.
215.27 -621.332 0.
231.003 -584.508 0.
246.735 -547.684 0.
398.033 -485.749 0.
375.813 -537.524 0.
353.592 -589.3 0.
444.874 -568.24 0.
440.976 -577.064 0.
437.078 -585.888 0.
899.824 -264.703 0.
972.329 -95.3963 0.
503.882 -188.1 0.
447.628 -319.166 0.
391.373 -450.232 0.
477.048 -500.559 0.
451.521 -560.078 0.
425.995 -619.596 0.
409.714 -606.961 0.
447.088 -519.695 0.
484.461 -432.429 0.
471.706 -467.718 0.
442.02 -536.873 0.
389.177 -613.406 0.
368.019 -555.68 0.
402.982 -473.903 0.
523.004 -388.888 0.
489.289 -467.47 0.
455.574 -546.052 0.
355.553 -640.148 0.
336.045 -685.759 0.
316.536 -731.371 0.
50.636 -784.648 0.
106.093 -655.472 0.
161.551 -526.295 0.
120.83 -451.192 0.
168.155 -340.864 0.
155.581 -286.678 0.
89.3121 -441.439 0.
23.0434 -596.2 0.
265.078 -576.652 0.
260.407 -587.469 0.
255.737 -598.285 0.
-121.514 -716.588 0.
-79.2024 -617.623 0.
-36.8912 -518.658 0.
317.109 -430.958 0.
266.162 -549.941 0.
164.427 -815.733 0.
-147.107 -997.248 0.
-172.762 -1057.02 0.
-297.311 -1141.48 0.
-272.546 -1083.74 0.
-247.78 -1026.01 0.
-130.671 -1020.01 0.
-222.149 -1233.52 0.
-313.628 -1447.02 0.
-550.741 -1612.19 0.
-551.346 -1613.77 0.
-551.951 -1615.35 0.
17.9001 -1254.49 0.
88.7658 -1089.3 0.
42.532 -994.691 0.
-12.7251 -1123.66 0.
-67.9822 -1252.64 0.
84.3183 -1252.81 0.
96.8224 -1223.67 0.
109.327 -1194.53 0.
117.796 -1205.87 0.
92.6798 -1264.59 0.
67.564 -1323.3 0.
-109.041 -1421.54 0.
-116.388 -1438.53 0.
-286.691 -1525.36 0.
66.4668 -1275.74 0.
119.093 -1152.86 0.
340.576 -987.62 0.
313.934 -1049.61 0.
287.292 -1111.59 0.
154.33 -1206.85 0.
142.901 -1233.57 0.
131.472 -1260.29 0.
235.305 -1208.91 0.
246.936 -1181.8 0.
258.566 -1154.69 0.
585.941 -984.414 0.
602.243 -946.363 0.
100.226 -1128.36 0.
135.558 -1045.95 0.
170.891 -963.532 0.
213.86 -929.147 0.
165.448 -1042.05 0.
117.036 -1154.96 0.
305.459 -1090.26 0.
330.857 -1031.21 0.
356.255 -972.15 0.
690.722 -821.704 0.
688.175 -827.62 0.
-511.482 -1346.82 0.
534.707 -914.544 0.
526.141 -934.348 0.
15.1275 -1157.63 0.
30.9705 -1120.55 0.
46.8134 -1083.47 0.
172.72 -1029.86 0.
152.762 -1076.36 0.
132.804 -1122.85 0.
182.793 -1133.46 0.
167.622 -1168.81 0.
152.452 -1204.17 0.
562.339 -1067.15 0.
541.012 -1116.87 0.
47.6143 -1356.74 0.
78.6107 -1284.47 0.
109.607 -1212.21 0.
225.425 -1115.69 0.
237.378 -1087.62 0.
249.332 -1059.55 0.
132.094 -1127.07 0.
106.932 -1185.9 0.
81.7702 -1244.72 0.
124.364 -1210.36 0.
141.723 -1169.84 0.
128.234 -1144.56 0.
71.7703 -1203.43 0.
53.5693 -1245.91 0.
211.734 -1180.69 0.
260.052 -1067.91 0.
308.37 -955.129 0.
266.96 -914.612 0.
277.068 -891.062 0.
287.176 -867.512 0.
-93.0181 -1106.7 0.
-156.023 -1253.46 0.
-219.028 -1400.23 0.
-363.281 -1464.29 0.
-357.853 -1451.46 0.
-309.124 -1408.34 0.
-260.813 -1295.38 0.
-212.502 -1182.42 0.
67.1625 -983.09 0.
99.1733 -908.525 0.
131.184 -833.959 0.
-252.669 -1015.19 0.
-290.96 -1104.52 0.
-329.25 -1193.85 0.
58.3399 -925.377 0.
133.654 -749.725 0.
262.537 -742.336 0.
-54.7569 -926.231 0.
-80.3961 -986.042 0.
-335.597 -1126.3 0.
-310.841 -1068.52 0.
-286.085 -1010.75 0.
-168.21 -1004.59 0.
-259.66 -1218.1 0.
-351.109 -1431.61 0.
-441.358 -1533.92 0.
-442.02 -1535.47 0.
-442.682 -1537.01 0.
-80.158 -1265.05 0.
-9.35799 -1099.85 0.
68.4129 -952.192 0.
13.1371 -1081.16 0.
-42.1387 -1210.12 0.
116.307 -1207.63 0.
128.818 -1178.53 0.
141.328 -1149.43 0.
152.088 -1159.72 0.
126.944 -1218.41 0.
101.801 -1277.11 0.
-36.8018 -1359.06 0.
-44.0635 -1376.09 0.
-190.641 -1452.83 0.
90.0462 -1234.02 0.
142.696 -1111.15 0.
166.838 -1030.66 0.
140.195 -1092.62 0.
113.552 -1154.58 0.
276.765 -1122.93 0.
265.287 -1149.63 0.
253.81 -1176.34 0.
327.645 -1137.9 0.
339.257 -1110.77 0.
350.869 -1083.64 0.
488.936 -994.337 0.
505.217 -956.25 0.
169.211 -1067.56 0.
204.541 -985.153 0.
239.871 -902.748 0.
311.035 -855.911 0.
262.615 -968.856 0.
214.195 -1081.8 0.
231.425 -1090.57 0.
256.839 -1031.52 0.
282.253 -972.463 0.
748.029 -765.703 0.
745.496 -771.662 0.
-286.161 -1218.7 0.
559.562 -872.443 0.
551.044 -892.276 0.
95.718 -1091.73 0.
111.559 -1054.64 0.
127.399 -1017.54 0.
167.03 -1000.88 0.
147.12 -1047.41 0.
127.209 -1093.95 0.
247.959 -1073.98 0.
232.808 -1109.35 0.
217.657 -1144.72 0.
517.616 -1054.79 0.
496.318 -1104.53 0.
149.712 -1281.56 0.
180.699 -1209.26 0.
211.686 -1136.95 0.
291.552 -1055.89 0.
303.528 -1027.83 0.
315.504 -999.769 0.
-11.542 -1157.2 0.
-36.7027 -1216.03 0.
-61.8633 -1274.86 0.
118.264 -1181.53 0.
135.587 -1140.99 0.
221.719 -1072.93 0.
153.003 -1137.04 0.
134.767 -1179.5 0.
213.976 -1148.32 0.
262.287 -1035.54 0.
310.599 -922.763 0.
280.267 -877.421 0.
290.378 -853.873 0.
300.49 -830.325 0.
-40.3082 -1052.74 0.
-103.276 -1199.55 0.
-166.244 -1346.35 0.
-357.043 -1430.15 0.
-351.621 -1417.33 0.
-291.476 -1369.32 0.
-243.119 -1256.4 0.
-194.762 -1143.48 0.
-77.9161 -1013.56 0.
-45.908 -938.986 0.
-13.9 -864.416 0.
-92.7433 -915.206 0.
-131.093 -1004.5 0.
-169.442 -1093.79 0.
-64.5989 -946.63 0.
10.7254 -771.026 0.
315.904 -769.287 0.
41.9836 -844.305 0.
113.01 -678.498 0.
-261.017 -847.016 0.
-227.834 -769.622 0.
-74.4 -411.651 0.
-256.025 -1107.57 0.
168.656 -116.371 0.
106.261 -261.677 0.
89.6994 -471.103 0.
27.564 -616.002 0.
171.948 -279.021 0.
226.166 -332.639 0.
-38.8975 -951.049 0.
-95.7353 -1352.92 0.
91.9595 -914.933 0.
101.931 -891.634 0.
270.417 -877.65 0.
380.396 -621.038 0.
468.141 -416.303 0.
552.829 -257.959 0.
357.773 -713.19 0.
379.197 -663.279 0.
284.067 -715.983 0.
311.652 -651.528 0.
334.577 -377.918 0.
270.286 -827.014 0.
431.835 -450.142 0.
337.787 -270.073 0.
530.278 179.006 0.
360.834 -216.424 0.
180.568 -1548.71 0.
431.4 -963.315 0.
543.663 -701.235 0.
698.441 -416.813 0.
315.746 -1309.59 0.
-83.9726 -2242.1 0.
291.449 -1239.35 0.
659.397 -380.762 0.
520.709 -347.148 0.
274.905 -920.473 0.
153.567 -1203.38 0.
488.902 -594.247 0.
461.851 -657.291 0.
404.003 -792.2 0.
221.555 -942.551 0.
226.558 -930.963 0.
143.957 -1123.77 0.
780.861 -765.634 0.
985.832 -287.267 0.
14.0708 -1009.73 0.
648.673 -680.495 0.
794.561 -340.349 0.
318.191 -694.378 0.
106.664 -1187.65 0.
-8.45527 -1455.97 0.
148.739 -1001.56 0.
513.105 -151.22 0.
412.989 -384.674 0.
442.16 -713.373 0.
334.511 -964.583 0.
339.047 -953.993 0.
640.377 -652.035 0.
483.021 -1019.18 0.
26.1079 -1732.41 0.
388.256 -887.404 0.
581.1 -437.44 0.
641.745 -333.526 0.
266.318 -1209.59 0.
347.204 -1020.93 0.
134.827 -511.611 0.
561.959 485.071 0.
373.689 45.8177 0.
182.685 -988.85 0.
20.2577 -1367.55 0.
166.349 -1313.17 0.
280.301 -962.485 0.
315.748 -879.573 0.
365.464 -767.312 0.
690.114 -9.69841 0.
542.391 -354.286 0.
553.027 -234.255 0.
363.122 -677.665 0.
145.708 -1185.25 0.
-3.2814 -1035.47 0.
124.404 -737.628 0.
-470.825 -2126.59 0.
-195.92 -1034.67 0.
91.0614 -365.092 0.
382.359 201.338 0.
41.4489 -594.208 0.
44.1178 -588.075 0.
18.6131 -481.656 0.
-94.8229 -746.606 0.
162.237 -147.062 0.
128.606 -669.344 0.
111.772 -709.066 0.
122.155 -685.285 0.
-131.451 -837.887 0.
-179.03 -949.126 0.
243.057 -681.029 0.
108.689 -623.639 0.
172.089 -475.794 0.
-141.247 -515.877 0.
-151.822 -540.619 0.
-162.396 -565.362 0.
77.1222 -461.532 0.
93.4417 -423.264 0.
109.761 -384.996 0.
132.159 -389.157 0.
111.465 -437.548 0.
90.7715 -485.94 0.
153.453 -573.796 0.
86.5418 -729.966 0.
174.502 -799.887 0.
231.371 -667.225 0.
288.239 -534.563 0.
442.462 -432.072 0.
376.661 -585.514 0.
310.86 -738.955 0.
254.488 -769.287 0.
305.499 -650.323 0.
356.51 -531.358 0.
323.303 -514.915 0.
327.865 -504.251 0.
261.652 -523.922 0.
292.204 -651.35 0.
217.233 -826.329 0.
111.292 -963.29 0.
169.028 -828.663 0.
226.764 -694.037 0.
630.945 -477.342 0.
608.49 -529.699 0.
586.036 -582.055 0.
589.469 -572.884 0.
606.604 -532.79 0.
623.74 -492.696 0.
618.262 -531.719 0.
594.386 -587.288 0.
346.694 -727.9 0.
364.633 -685.728 0.
382.572 -643.557 0.
523.787 -544.548 0.
550.424 -482.274 0.
577.06 -419.999 0.
560.69 -427.227 0.
538.078 -479.959 0.
515.466 -532.692 0.
857.1 -329.362 0.
902.318 -223.795 0.
58.1338 -499.664 0.
909.333 -283.828 0.
831.185 -466.283 0.
235.038 -813.928 0.
291.365 -682.539 0.
347.691 -551.151 0.
405.291 -468.994 0.
403.356 -473.46 0.
401.421 -477.927 0.
549.321 -449.642 0.
523.456 -510.146 0.
497.59 -570.65 0.
818.99 -382.239 0.
851.42 -306.395 0.
521.2 -400.734 0.
491.821 -469.361 0.
462.441 -537.988 0.
551.974 -535.605 0.
554.173 -530.514 0.
556.372 -525.422 0.
153.517 -669.373 0.
177.957 -612.248 0.
202.398 -555.122 0.
265.948 -545.402 0.
247.272 -588.864 0.
507.482 -510.657 0.
464.397 -550.433 0.
453.133 -576.574 0.
343.555 -660.768 0.
301.296 -759.516 0.
259.037 -858.264 0.
232.193 -884.356 0.
265.087 -807.619 0.
297.98 -730.881 0.
166.448 -642.341 0.
262.693 -417.861 0.
358.938 -193.381 0.
108.857 -386.942 0.
49.2465 -526.032 0.
19.6924 -639.479 0.
14.9134 -650.676 0.
10.1343 -661.874 0.
-11.674 -670.944 0.
-3.29227 -651.46 0.
5.08945 -631.975 0.
186.346 -530.067 0.
203.282 -490.869 0.
220.218 -451.671 0.
-45.9453 -654.789 0.
-107.53 -798.513 0.
124.09 -700.383 0.
91.2027 -599.421 0.
154.646 -451.641 0.
-151.877 -489.007 0.
-162.431 -513.737 0.
-172.986 -538.468 0.
162.627 -393.332 0.
178.956 -355.07 0.
195.286 -316.808 0.
157.734 -346.782 0.
137.054 -395.183 0.
116.373 -443.583 0.
207.662 -519.066 0.
140.755 -675.262 0.
231.977 -743.741 0.
288.853 -611.077 0.
345.729 -478.414 0.
435.764 -403.394 0.
369.967 -556.88 0.
304.17 -710.367 0.
174.27 -772.181 0.
225.248 -653.211 0.
276.227 -534.241 0.
282.115 -501.191 0.
286.695 -490.558 0.
210.987 -514.336 0.
243.424 -640.788 0.
168.428 -815.738 0.
214.254 -887.771 0.
271.99 -753.127 0.
329.726 -618.484 0.
636.775 -443.545 0.
614.293 -495.86 0.
591.812 -548.174 0.
554.489 -556.486 0.
571.609 -516.382 0.
588.729 -476.279 0.
663.639 -480.906 0.
639.759 -536.471 0.
349.677 -695.131 0.
367.648 -652.994 0.
385.619 -610.858 0.
557.086 -498.86 0.
583.69 -436.574 0.
610.294 -374.288 0.
722.221 -326.398 0.
699.59 -379.143 0.
676.96 -431.888 0.
738.393 -348.743 0.
783.628 -243.213 0.
-579.319 -741.234 0.
1036.68 -197.724 0.
958.54 -380.199 0.
212.654 -791.979 0.
268.994 -660.599 0.
325.334 -529.218 0.
456.562 -415.602 0.
454.653 -420.107 0.
452.743 -424.612 0.
558.946 -413.844 0.
533.063 -474.346 0.
507.18 -534.847 0.
912.808 -310.748 0.
945.176 -234.905 0.
445.152 -401.789 0.
415.795 -470.397 0.
386.437 -539.004 0.
564.439 -498.932 0.
566.661 -493.854 0.
568.883 -488.776 0.
275.778 -585.488 0.
300.222 -528.365 0.
324.666 -471.243 0.
151.464 -563.146 0.
132.81 -606.646 0.
520.022 -473.851 0.
489.922 -508.08 0.
478.671 -534.232 0.
277.817 -657.371 0.
235.651 -756.157 0.
193.485 -854.944 0.
196.659 -868.01 0.
229.589 -791.306 0.
262.519 -714.601 0.
184.507 -603.1 0.
280.757 -378.597 0.
377.007 -154.094 0.
158.665 -334.254 0.
99.0211 -473.318 0.
33.4032 -602.089 0.
28.6043 -613.301 0.
23.8055 -624.512 0.
67.1574 -605.53 0.
75.5012 -585.992 0.
83.845 -566.455 0.
200.396 -492.736 0.
217.3 -453.486 0.
234.205 -414.237 0.
-20.7538 -612.423 0.
-82.4106 -756.119 0.
200.274 -420.58 0.
84.4997 -638.039 0.
-4.49671 -845.767 0.
-421.022 -1166.88 0.
-433.747 -1196.51 0.
-446.472 -1226.13 0.
-153.338 -1134.4 0.
-178.994 -1194.5 0.
-204.65 -1254.6 0.
-280.213 -1295.86 0.
-272.924 -1278.53 0.
-265.634 -1261.2 0.
-36.6494 -1057.69 0.
25.9375 -911.536 0.
278.449 -709.379 0.
186.073 -924.829 0.
93.6976 -1140.28 0.
69.3915 -1254.54 0.
100.455 -1182.02 0.
131.519 -1109.5 0.
-22.6793 -1146.72 0.
-21.3265 -1143.56 0.
-19.9737 -1140.41 0.
13.7858 -1147.59 0.
-1.37652 -1182.82 0.
-80.4479 -1245.43 0.
19.9544 -1100.82 0.
73.861 -974.942 0.
231.711 -829.249 0.
222.021 -851.898 0.
212.331 -874.547 0.
477.86 -763.385 0.
487.787 -740.58 0.
497.714 -717.775 0.
424.619 -776.343 0.
398.324 -837.778 0.
372.03 -899.212 0.
524.243 -888.133 0.
494.674 -957.018 0.
207.783 -1137.46 0.
175.835 -1212.09 0.
143.888 -1286.72 0.
218.213 -1267.62 0.
261.948 -1165.5 0.
305.682 -1063.38 0.
491.186 -927.723 0.
509.076 -885.984 0.
526.965 -844.245 0.
470.572 -902.392 0.
442.49 -967.995 0.
-381.93 -1374.99 0.
739.59 -918.795 0.
726.605 -948.863 0.
-20.1991 -1295.3 0.
-38.9702 -1338.82 0.
-57.7414 -1382.34 0.
71.5099 -1347.34 0.
70.2774 -1350.23 0.
69.0449 -1353.13 0.
233.691 -1222.9 0.
280.808 -1112.92 0.
327.926 -1002.95 0.
750.716 -784.104 0.
767.518 -745.135 0.
182.254 -972.123 0.
165.888 -1010.36 0.
149.522 -1048.59 0.
328.03 -955.958 0.
381.162 -831.901 0.
434.294 -707.844 0.
200.778 -802.521 0.
165.258 -885.42 0.
129.737 -968.318 0.
-73.2736 -1019.25 0.
-39.9044 -941.265 0.
454.602 -672.083 0.
369.661 -822.421 0.
309.893 -961.969 0.
58.9526 -1146.64 0.
73.6962 -1111.88 0.
88.4398 -1077.11 0.
68.2379 -1063.69 0.
75.6363 -1046.33 0.
83.0347 -1028.97 0.
-17.1684 -1112.94 0.
-52.183 -1194.72 0.
-87.1975 -1276.5 0.
-303.836 -1302.76 0.
-262.178 -1205.61 0.
-189.013 -1110.66 0.
-205.891 -1150.18 0.
-222.77 -1189.69 0.
-192.35 -1172.09 0.
-155.885 -1086.97 0.
-119.419 -1001.84 0.
54.0779 -893.997 0.
57.5768 -885.841 0.
61.0757 -877.686 0.
-100.381 -833.379 0.
-27.7287 -664.007 0.
240.618 -371.594 0.
158.405 -574.661 0.
69.4215 -782.433 0.
-326.385 -1095.1 0.
-339.109 -1124.68 0.
-351.833 -1154.26 0.
-199.931 -1122.99 0.
-225.591 -1183.08 0.
-251.251 -1243.16 0.
-349.471 -1294.15 0.
-342.143 -1276.83 0.
-334.814 -1259.5 0.
-89.3232 -1048.65 0.
-26.7192 -902.553 0.
332.221 -655.03 0.
239.844 -870.483 0.
147.467 -1085.94 0.
104.871 -1207.58 0.
135.965 -1135.1 0.
167.059 -1062.61 0.
1.28193 -1105.08 0.
2.62279 -1101.92 0.
3.96366 -1098.76 0.
108.299 -1075.73 0.
93.1141 -1110.95 0.
13.2951 -1173.87 0.
37.2019 -1062 0.
91.0921 -936.089 0.
143.345 -835.688 0.
133.696 -858.341 0.
124.046 -880.994 0.
452.205 -742.924 0.
462.127 -720.102 0.
472.049 -697.279 0.
405.834 -752.911 0.
379.559 -814.383 0.
353.285 -875.855 0.
597.406 -825.369 0.
567.848 -894.279 0.
353.338 -1043.73 0.
321.359 -1118.32 0.
289.38 -1192.92 0.
195.345 -1246.01 0.
239.032 -1143.9 0.
282.719 -1041.79 0.
430.128 -922.502 0.
447.968 -880.749 0.
465.809 -838.996 0.
548.107 -837.727 0.
519.979 -903.324 0.
-444.423 -1370.39 0.
673.92 -915.542 0.
660.92 -945.607 0.
-6.49625 -1258.02 0.
-25.2081 -1301.55 0.
-43.92 -1345.09 0.
88.6442 -1308.49 0.
87.3515 -1311.35 0.
86.0589 -1314.21 0.
309.202 -1159.13 0.
356.297 -1049.17 0.
403.391 -939.218 0.
790.718 -735.636 0.
807.484 -696.67 0.
245.049 -913.765 0.
228.688 -951.971 0.
212.327 -990.178 0.
249.802 -958.197 0.
302.873 -834.109 0.
355.945 -710.022 0.
155.688 -790.454 0.
120.156 -873.33 0.
84.6236 -956.205 0.
1.61648 -955.636 0.
35.0103 -877.661 0.
497.654 -622.303 0.
412.103 -772.824 0.
352.291 -912.314 0.
133.246 -1083.57 0.
148.051 -1048.8 0.
162.857 -1014.02 0.
27.6091 -1049.4 0.
35.0342 -1032.05 0.
42.4593 -1014.7 0.
39.6553 -1057.19 0.
4.58417 -1138.89 0.
-30.487 -1220.58 0.
-434.371 -1327.41 0.
-392.762 -1230.22 0.
-181.419 -1076.06 0.
-198.34 -1115.56 0.
-215.262 -1155.07 0.
-277.199 -1176.98 0.
-240.744 -1091.85 0.
-204.288 -1006.72 0.
135.884 -827.531 0.
139.331 -819.328 0.
142.778 -811.124 0.
-56.0241 -782.925 0.
16.5686 -613.531 0.
104.871 -730.784 0.
140.241 -724.596 0.
140.583 -723.784 0.
-145.382 -820.677 0.
-176.363 -893.181 0.
9.05246 -460.674 0.
185.356 -105.524 0.
36.6199 -452.321 0.
486.675 597.996 0.
299.836 383.266 0.
320.441 431.265 0.
437.14 703.437 0.
521.307 507.008 0.
-24.82 -767.257 0.
43.5432 -1398.61 0.
660.323 40.4053 0.
928.881 666.881 0.
935.733 696.775 0.
876.434 558.064 0.
801.308 382.429 0.
590.605 255.135 0.
534.125 123.44 0.
472.44 -20.3968 0.
808.984 410.971 0.
701.783 160.665 0.
705.392 306.468 0.
612.577 279.285 0.
528.681 83.2236 0.
661.565 572.545 0.
614.457 462.536 0.
534.712 276.368 0.
807.267 165.025 0.
531.64 -478.342 0.
542.908 -452.29 0.
527.914 -402.494 0.
513.273 -436.444 0.
441.121 -604.567 0.
1292.14 688.873 0.
1016.5 45.4739 0.
969.122 149.021 0.
854.786 -117.787 0.
1152.45 576.796 0.
868.282 398.846 0.
736.697 91.7458 0.
755.267 135.013 0.
745.9 -39.0283 0.
779.429 39.4144 0.
729.145 -77.718 0.
1072.89 269.714 0.
1279.49 751.331 0.
541.718 425.373 0.
1058.88 140.537 0.
862.615 -317.432 0.
472.863 -135.727 0.
550.057 44.6513 0.
499.038 -74.133 0.
835.038 431.948 0.
821.292 399.908 0.
1253.27 1407.87 0.
750.478 -241.113 0.
758.701 -221.916 0.
815.101 -90.3075 0.
930.25 -456.322 0.
853.55 -634.971 0.
455.743 -510.063 0.
498.05 -411.414 0.
559.853 -267.27 0.
489.675 -219.523 0.
729.186 339.557 0.
704.011 281.052 0.
545.379 236.176 0.
579.366 315.855 0.
541.073 226.864 0.
485.887 63.0991 0.
798.831 793.549 0.
1166.46 940.226 0.
1022.83 603.162 0.
1016.26 587.906 0.
633.678 -26.016 0.
642.824 -4.8609 0.
875.507 537.895 0.
693.618 613.732 0.
591.422 375.447 0.
494.392 149.218 0.
560.834 83.3653 0.
278.175 -575.859 0.
545.142 47.3049 0.
-64.3849 -187.203 0.
-95.3417 -259.607 0.
182.551 -208.448 0.
371.571 232.472 0.
384.613 262.798 0.
-3.4649 -346.273 0.
-154.419 -698.274 0.
-55.7588 -467.861 0.
135.944 -951.768 0.
295.239 -580.169 0.
320.071 -522.238 0.
29.771 -636.412 0.
11.0802 -680.024 0.
192.062 -578.845 0.
136.797 -579.457 0.
148.315 -552.611 0.
-71.1215 -634.301 0.
-89.8865 -678.189 0.
-108.651 -722.078 0.
-60.7645 -720.296 0.
-56.6826 -710.545 0.
-52.6006 -700.794 0.
-55.3572 -708.363 0.
-63.5545 -727.576 0.
-71.7519 -746.789 0.
-141.903 -937.172 0.
-238.084 -1161.61 0.
78.5703 -1187.69 0.
115.148 -1102.48 0.
151.725 -1017.28 0.
173.405 -965.139 0.
163.895 -987.414 0.
154.385 -1009.69 0.
54.5417 -1058.21 0.
56.3579 -1053.93 0.
58.1741 -1049.66 0.
276.08 -938.007 0.
288.104 -910.127 0.
238.543 -908.64 0.
-101.83 -1039.58 0.
-94.3884 -1022.46 0.
50.9747 -940.542 0.
74.5022 -885.702 0.
98.0297 -830.862 0.
424.38 -712.797 0.
365.941 -849.145 0.
307.502 -985.494 0.
306.103 -1085.12 0.
257.632 -1198.08 0.
209.162 -1311.04 0.
556.653 -1003.06 0.
659.358 -763.494 0.
477.261 -662.651 0.
496.989 -616.491 0.
516.717 -570.332 0.
471.908 -584.965 0.
439.932 -659.571 0.
407.955 -734.176 0.
491.168 -751.274 0.
465.774 -810.418 0.
440.379 -869.562 0.
613.675 -815.358 0.
607.411 -830.005 0.
320.791 -963.834 0.
627.957 -778.142 0.
656.375 -711.892 0.
239.723 -848.707 0.
241.776 -843.93 0.
243.828 -839.154 0.
338.531 -788.106 0.
349.284 -763.128 0.
360.036 -738.15 0.
470.516 -725.462 0.
437.831 -801.776 0.
405.146 -878.09 0.
780.574 -834.37 0.
715.492 -986.242 0.
101.311 -1330.09 0.
215.894 -1062.67 0.
330.477 -795.24 0.
315.328 -689.136 0.
271.757 -790.791 0.
228.187 -892.446 0.
37.647 -979.968 0.
65.1108 -915.538 0.
92.5746 -851.108 0.
-127.131 -1110.9 0.
-244.173 -1383.68 0.
177.961 -1415.86 0.
296.618 -1150.35 0.
409.236 -887.432 0.
285.517 -791.95 0.
257.226 -857.933 0.
228.935 -923.916 0.
13.6656 -1053.64 0.
4.80952 -1074.19 0.
-4.04656 -1094.74 0.
3.02983 -1016.42 0.
64.7243 -872.512 0.
126.419 -728.605 0.
-284.248 -838.167 0.
-252.212 -763.542 0.
-58.1876 -629.022 0.
-63.3107 -640.945 0.
-68.4338 -652.868 0.
-158.477 -705.927 0.
-169.122 -730.671 0.
-179.768 -755.415 0.
349.809 -491.339 0.
390.447 -396.544 0.
431.086 -301.749 0.
181.602 -438.363 0.
153.542 -503.89 0.
235.648 -528.653 0.
72.9535 -575.249 0.
84.4873 -548.408 0.
-61.6174 -599.024 0.
-80.4034 -642.848 0.
-99.1894 -686.671 0.
-23.0732 -672.758 0.
-19.0033 -662.997 0.
-14.9334 -653.236 0.
99.1618 -610.856 0.
90.9821 -630.076 0.
82.8025 -649.295 0.
-179.611 -921.703 0.
-275.79 -1146.13 0.
27.4615 -1178.15 0.
64.0135 -1092.9 0.
100.566 -1007.66 0.
128.59 -952.773 0.
119.067 -974.998 0.
109.545 -997.222 0.
103.978 -1005.58 0.
105.779 -1001.27 0.
107.58 -996.965 0.
347.927 -875.764 0.
359.981 -847.924 0.
306.599 -848.128 0.
-267.882 -1079.35 0.
-260.363 -1062.27 0.
113.73 -882.28 0.
137.271 -827.44 0.
160.813 -772.6 0.
432.579 -677.892 0.
374.106 -814.234 0.
315.633 -950.576 0.
409.206 -1009.54 0.
360.67 -1122.5 0.
312.135 -1235.47 0.
560.196 -970.117 0.
662.877 -730.518 0.
317.533 -699.558 0.
337.193 -653.351 0.
356.853 -607.145 0.
519.881 -533.13 0.
487.86 -607.74 0.
455.84 -682.35 0.
569.467 -686.178 0.
544.064 -745.337 0.
518.661 -804.497 0.
637.206 -773.966 0.
630.898 -788.598 0.
303.371 -939.972 0.
598.703 -759.122 0.
627.138 -692.854 0.
345.484 -771.812 0.
347.588 -767.047 0.
349.691 -762.282 0.
387.378 -735.785 0.
398.101 -710.78 0.
408.824 -685.774 0.
398.54 -724.894 0.
365.811 -801.181 0.
333.083 -877.469 0.
812.262 -789.344 0.
747.223 -941.279 0.
113.806 -1293.21 0.
228.447 -1025.84 0.
343.088 -758.468 0.
364.827 -636.546 0.
321.266 -738.247 0.
277.705 -839.947 0.
70.3839 -934.482 0.
97.8812 -870.022 0.
125.378 -805.561 0.
-245.111 -1130.08 0.
-362.218 -1402.73 0.
211.595 -1370.25 0.
343.912 -1098.85 0.
456.493 -835.907 0.
277.644 -763.887 0.
249.396 -829.89 0.
221.148 -895.892 0.
72.5607 -996.667 0.
63.7401 -1017.25 0.
54.9196 -1037.83 0.
-86.0522 -1023.11 0.
-24.4262 -879.105 0.
37.1997 -735.105 0.
-195.549 -769.015 0.
-163.517 -694.351 0.
-115.969 -622.522 0.
-121.134 -634.402 0.
-126.299 -646.282 0.
-142.925 -667.658 0.
-153.542 -692.432 0.
-164.16 -717.206 0.
386.521 -444.186 0.
427.162 -349.404 0.
467.803 -254.621 0.
280.181 -364.568 0.
252.124 -430.144 0.
207.581 -544.023 0.
-16.4392 -660.554 0.
-26.2959 -683.461 0.
-101.938 -734.883 0.
-110.947 -756.019 0.
-119.955 -777.156 0.
-106.89 -811.445 0.
-146.227 -903.44 0.
-185.564 -995.435 0.
-103.085 -1019.25 0.
-128.733 -1078.98 0.
-154.38 -1138.72 0.
-220.045 -1056.58 0.
-149.236 -891.176 0.
239.02 -606.255 0.
209.2 -675.856 0.
179.38 -745.458 0.
196.804 -794.611 0.
168.344 -861.006 0.
139.884 -927.402 0.
158.909 -891.211 0.
211.984 -767.367 0.
265.058 -643.523 0.
421.916 -669.254 0.
340.84 -858.368 0.
196.597 -1074.55 0.
-277.899 -1141.49 0.
-203.39 -967.536 0.
128 -762.692 0.
1.83357 -1057.29 0.
-124.333 -1351.89 0.
166.542 -1279.67 0.
270.905 -1036.24 0.
375.268 -792.81 0.
618.846 -589.772 0.
642.977 -533.863 0.
667.108 -477.954 0.
766.902 -506.706 0.
720.068 -616.07 0.
193.868 -920.72 0.
197.019 -913.541 0.
200.17 -906.361 0.
387.841 -825.726 0.
380.152 -843.626 0.
372.463 -861.525 0.
488.324 -793.827 0.
512.974 -736.641 0.
537.624 -679.455 0.
652.1 -705.21 0.
594.323 -839.939 0.
-122.538 -1258.05 0.
559.871 -863.44 0.
613.574 -738.004 0.
346.643 -802.139 0.
276.07 -966.661 0.
205.496 -1131.18 0.
188.161 -1183.04 0.
221.826 -1104.48 0.
255.49 -1025.93 0.
290.726 -940.307 0.
329.448 -849.795 0.
368.17 -759.282 0.
1005.84 -390.833 0.
1057.39 -270.286 0.
487.278 -442.501 0.
429.087 -578.063 0.
370.896 -713.624 0.
233.815 -868.682 0.
195.328 -958.424 0.
156.841 -1048.17 0.
-13.5194 -1115.98 0.
19.6732 -1038.55 0.
52.8657 -961.128 0.
-123.024 -924.764 0.
-58.0927 -773.612 0.
617.433 -366.685 0.
570.136 -498.366 0.
511.745 -634.8 0.
253.794 -835.969 0.
236.355 -876.609 0.
218.915 -917.248 0.
136.326 -908.919 0.
205.349 -747.978 0.
274.372 -587.038 0.
-41.8369 -772.461 0.
-111.819 -935.855 0.
-181.801 -1099.25 0.
-315.371 -1070.7 0.
-258.941 -939.152 0.
-253.953 -848.561 0.
-271.168 -888.717 0.
-288.383 -928.873 0.
-237.704 -933.093 0.
-246.08 -952.633 0.
-254.455 -972.173 0.
191.56 -804.592 0.
176.867 -838.82 0.
162.174 -873.048 0.
-5.06829 -898.863 0.
26.961 -824.074 0.
143.363 -539.793 0.
-48.9975 -642.974 0.
-58.8263 -665.876 0.
-35.5962 -675.269 0.
-44.6816 -696.325 0.
-53.7669 -717.38 0.
-170.506 -807.398 0.
-209.885 -899.337 0.
-249.265 -991.277 0.
-289.507 -1068.1 0.
-315.125 -1127.85 0.
-340.743 -1187.61 0.
-106.096 -976.05 0.
-35.2927 -810.579 0.
241.897 -573.659 0.
212.121 -643.255 0.
182.346 -712.85 0.
273.895 -730.289 0.
245.438 -796.666 0.
216.98 -863.044 0.
158.246 -859.676 0.
211.338 -735.857 0.
264.429 -612.038 0.
349.269 -669.25 0.
268.189 -858.335 0.
119.133 -1076.55 0.
-40.3279 -1008.11 0.
34.201 -834.178 0.
7.76581 -782.963 0.
-118.391 -1077.51 0.
-244.547 -1372.06 0.
172.098 -1245.96 0.
276.432 -1002.53 0.
380.765 -759.096 0.
623.393 -556.273 0.
647.431 -500.333 0.
671.469 -444.394 0.
815.763 -454.361 0.
768.935 -563.741 0.
314.693 -837.566 0.
317.819 -830.387 0.
320.945 -823.209 0.
357.865 -807.22 0.
350.171 -825.153 0.
342.477 -843.087 0.
359.008 -817.897 0.
383.658 -760.741 0.
408.308 -703.585 0.
627.387 -684.445 0.
569.699 -819.272 0.
-551.866 -1410.57 0.
634.897 -799.599 0.
688.673 -674.198 0.
309.592 -786.666 0.
239.048 -951.189 0.
168.503 -1115.71 0.
154.322 -1166.18 0.
187.924 -1087.56 0.
221.527 -1008.95 0.
356.302 -880.929 0.
395.054 -790.441 0.
433.807 -699.952 0.
1063.28 -334.623 0.
1114.86 -214.063 0.
528.756 -393.157 0.
470.611 -528.725 0.
412.466 -664.293 0.
140.782 -877.138 0.
102.297 -966.907 0.
63.8112 -1056.68 0.
-27.7136 -1090.57 0.
5.44557 -1013.1 0.
38.6047 -935.626 0.
111.408 -792.895 0.
176.362 -641.72 0.
519.226 -377.632 0.
480.391 -505.594 0.
421.906 -641.977 0.
311.928 -779.477 0.
294.528 -820.135 0.
277.127 -860.793 0.
173.758 -861.607 0.
242.754 -700.646 0.
311.75 -539.686 0.
-74.1061 -754.668 0.
-144.139 -917.986 0.
-214.171 -1081.3 0.
-345.262 -1052.35 0.
-288.86 -920.79 0.
-265.111 -822.183 0.
-282.349 -862.299 0.
-299.587 -902.415 0.
-174.967 -874.748 0.
-183.295 -894.301 0.
-191.624 -913.854 0.
91.9271 -815.842 0.
77.257 -850.1 0.
62.5869 -884.358 0.
-203.553 -952.759 0.
-171.524 -878.039 0.
75.5097 -544.678 0.
-127.352 -735.333 0.
-123.671 -726.72 0.
-7.67987 -703.353 0.
69.5076 -523.543 0.
71.7774 -518.678 0.
-81.9298 -450.021 0.
-17.6888 -300.34 0.
126.377 35.6491 0.
-47.4662 -119.722 0.
262.009 602.396 0.
386.451 892.797 0.
286.378 -245.45 0.
-22.3598 -965.718 0.
-90.7444 -1324.54 0.
33.2073 -1035.33 0.
288.363 -439.954 0.
735.731 235.076 0.
587.096 -111.845 0.
715.235 186.945 0.
602.021 208.194 0.
617.704 244.695 0.
761.173 579.376 0.
642.891 184.944 0.
420.832 -333.286 0.
565.403 108.953 0.
714.971 333.547 0.
786.271 499.098 0.
417.26 431.102 0.
418.466 433.91 0.
367.799 315.678 0.
704.222 16.4102 0.
502.196 -455.067 0.
460.858 -551.621 0.
729.176 -286.039 0.
485.649 -854.263 0.
562.35 -675.339 0.
760.529 -644.506 0.
1261.04 523.616 0.
794.344 82.5054 0.
695.398 -147.959 0.
725.877 -76.4133 0.
739.64 172.712 0.
709.504 102.395 0.
720.148 127.226 0.
673.349 190.567 0.
634.582 100.238 0.
664.687 170.641 0.
1052.63 384.134 0.
1116.42 533.464 0.
-352.1 -94.0864 0.
1212.62 436.963 0.
1147.48 285.114 0.
641.752 89.2697 0.
680.224 178.876 0.
652.54 114.133 0.
690.175 180.399 0.
739.233 294.617 0.
684.971 167.754 0.
754.52 -43.2439 0.
813.971 95.1088 0.
1036.95 615.035 0.
841.341 -930.39 0.
911.529 -766.634 0.
510.175 -483.508 0.
476.844 -561.295 0.
522.446 -454.916 0.
234.435 -450.639 0.
377.445 -116.945 0.
501.854 173.35 0.
543.168 299.635 0.
544.664 302.949 0.
638.138 520.887 0.
672.809 101.898 0.
467.644 -376.715 0.
726.97 306.764 0.
661.642 118.616 0.
821.648 491.688 0.
942.866 614.416 0.
680.901 3.21166 0.
772.301 216.535 0.
615.117 130.255 0.
515.473 -102.087 0.
525.754 -77.9637 0.
-185.564 -922.735 0.
-179.969 -909.413 0.
-58.0059 -624.558 0.
-214.98 -662.618 0.
45.2858 -55.3485 0.
590.109 1225.96 0.
-40.2955 -245.021 0.
20.9291 -102.254 0.
429.86 449.508 0.
135.844 -236.047 0.
289.265 122.152 0.
169.539 -418.375 0.
189.961 -370.496 0.
167.428 -422.835 0.
-268.335 -701.338 0.
-340.505 -869.668 0.
148.086 -422.632 0.
32.6455 -504.369 0.
16.4478 -542.242 0.
-2.52805 -569.891 0.
6.56193 -548.836 0.
15.652 -527.781 0.
-114.035 -551.273 0.
-84.1644 -481.563 0.
-54.2938 -411.854 0.
-103.122 -448.736 0.
-133.918 -520.547 0.
-164.713 -592.357 0.
25.8023 -719.18 0.
-95.6062 -1002.46 0.
-142.791 -1222.05 0.
-77.9323 -1070.59 0.
-13.0741 -919.128 0.
286.336 -671.128 0.
344.418 -535.611 0.
402.501 -400.094 0.
388.386 -413.004 0.
330.711 -547.746 0.
273.036 -682.489 0.
197.542 -637.305 0.
269.037 -470.71 0.
279.352 -330.335 0.
378.032 -439.67 0.
296.34 -630.626 0.
-89.8569 -904.858 0.
-52.4388 -817.389 0.
-15.0208 -729.921 0.
471.266 -528.284 0.
412.621 -664.898 0.
353.976 -801.511 0.
394.145 -811.17 0.
403.676 -788.983 0.
413.207 -766.795 0.
804.626 -569.935 0.
821.705 -530.214 0.
429.849 -667.157 0.
440.114 -643.139 0.
450.379 -619.122 0.
308.354 -695.485 0.
263.109 -801.136 0.
217.864 -906.787 0.
332.656 -865.2 0.
361.414 -797.755 0.
390.171 -730.309 0.
770.28 -551.581 0.
772.66 -545.962 0.
-116.698 -922.194 0.
674.313 -634.861 0.
647.019 -698.234 0.
306.114 -873.103 0.
336.577 -802.013 0.
367.04 -730.924 0.
334.176 -701.791 0.
347.577 -670.605 0.
360.978 -639.42 0.
460.526 -598.364 0.
453.146 -615.916 0.
445.766 -633.468 0.
930.772 -499.831 0.
887.614 -600.505 0.
290.995 -923.477 0.
309.188 -880.888 0.
327.381 -838.299 0.
118.353 -885.858 0.
149.231 -813.887 0.
180.108 -741.916 0.
174.506 -699.897 0.
192.916 -657.211 0.
211.326 -614.525 0.
227.661 -677.194 0.
177.326 -794.376 0.
253.489 -849.853 0.
352.943 -672.215 0.
423.833 -506.819 0.
434.993 -407.136 0.
424.583 -431.444 0.
414.173 -455.751 0.
235.136 -609.358 0.
160.027 -784.49 0.
84.9185 -959.622 0.
-249.575 -1042.03 0.
-168.3 -852.388 0.
-87.0252 -662.744 0.
-196.887 -737.68 0.
-221.742 -796.009 0.
-303.676 -848.082 0.
-206.076 -620.364 0.
-108.476 -392.645 0.
87.5391 -200.589 0.
71.6834 -237.24 0.
55.8276 -273.891 0.
285.882 -194.141 0.
279.302 -209.445 0.
272.721 -224.748 0.
-92.6291 -513.574 0.
-175.837 -707.791 0.
189.363 -373.62 0.
123.865 -433.887 0.
107.71 -471.766 0.
-49.7902 -558.727 0.
-40.7673 -537.613 0.
-31.7443 -516.499 0.
-83.7677 -506.833 0.
-53.9116 -437.088 0.
-24.0555 -367.344 0.
17.8096 -365.814 0.
-13.0224 -437.592 0.
-43.8544 -509.371 0.
-28.2425 -710.956 0.
-149.668 -994.149 0.
-243.897 -1233.88 0.
-178.991 -1082.48 0.
-114.085 -931.08 0.
227.4 -665.187 0.
285.482 -529.663 0.
343.564 -394.14 0.
469.652 -346.117 0.
412.008 -480.948 0.
354.364 -615.78 0.
99.72 -648.169 0.
171.174 -481.55 0.
188.822 -337.99 0.
387.655 -404.071 0.
305.828 -594.912 0.
7.23182 -832.029 0.
44.5967 -744.519 0.
81.9616 -657.009 0.
487.741 -489.86 0.
429.086 -626.506 0.
370.431 -763.152 0.
276.358 -830.015 0.
285.814 -807.807 0.
295.269 -785.6 0.
835.784 -525.369 0.
852.868 -485.617 0.
394.074 -651.211 0.
404.304 -627.174 0.
414.534 -603.137 0.
252.282 -688.099 0.
207.058 -793.76 0.
161.834 -899.421 0.
485.584 -768.409 0.
514.349 -700.98 0.
543.114 -633.55 0.
932.833 -450.402 0.
935.281 -444.879 0.
1145.15 -350.017 0.
594.172 -637.541 0.
566.819 -700.829 0.
417.015 -794.316 0.
447.498 -723.247 0.
477.981 -652.178 0.
377.427 -651.778 0.
390.815 -620.524 0.
404.203 -589.269 0.
408.289 -589.66 0.
400.961 -607.254 0.
393.633 -624.848 0.
830.893 -511.047 0.
787.782 -611.742 0.
270.129 -900.813 0.
288.405 -858.304 0.
306.681 -815.795 0.
221.029 -810.518 0.
251.895 -738.527 0.
282.76 -666.537 0.
264.127 -630.013 0.
282.524 -587.291 0.
300.92 -544.57 0.
107.782 -697.223 0.
57.5103 -814.429 0.
298.679 -799.104 0.
406.344 -617.886 0.
477.143 -452.467 0.
365.545 -405.441 0.
355.179 -429.8 0.
344.813 -454.158 0.
173.958 -604.437 0.
98.7855 -779.515 0.
23.6133 -954.592 0.
-248.726 -1009.95 0.
-167.428 -820.34 0.
-86.1288 -630.728 0.
-118.78 -672.907 0.
-143.63 -731.24 0.
-293.504 -812.42 0.
-195.862 -584.718 0.
-98.2204 -357.015 0.
25.7963 -195.701 0.
9.97486 -232.319 0.
-5.84653 -268.937 0.
327.202 -144.951 0.
320.672 -160.323 0.
314.142 -175.694 0.
40.4693 -425.227 0.
-42.7064 -619.503 0.
43.0605 -673.113 0.
-12.9605 -702.83 0.
-15.9788 -709.584 0.
-176.508 -779.25 0.
-164.348 -751.015 0.
-152.188 -722.78 0.
-136.571 -696.897 0.
-130.839 -683.391 0.
-125.106 -669.885 0.
-151.266 -751.154 0.
-211.043 -890.859 0.
-270.82 -1030.56 0.
-122.042 -804.391 0.
-14.7816 -554.062 0.
189.046 -291.513 0.
124.549 -441.861 0.
60.0518 -592.209 0.
210.366 -609.969 0.
213.743 -602.22 0.
217.12 -594.471 0.
325.822 -530.963 0.
341.471 -494.304 0.
357.12 -457.644 0.
97.0249 -624.823 0.
53.0974 -727.154 0.
-62.9453 -860.391 0.
250.497 -725.378 0.
251.557 -722.785 0.
101.25 -790.908 0.
86.4894 -825.465 0.
71.7291 -860.022 0.
403.199 -694.412 0.
452.433 -579.723 0.
501.666 -465.035 0.
406.297 -495.921 0.
388.731 -537.048 0.
371.165 -578.174 0.
903.488 -407.207 0.
870.498 -483.788 0.
294.999 -793.583 0.
258.701 -878.109 0.
222.403 -962.635 0.
130.922 -996.963 0.
211.886 -807.804 0.
292.85 -618.645 0.
575.904 -479.135 0.
528.238 -590.402 0.
480.571 -701.669 0.
907.892 -481.797 0.
946.468 -391.802 0.
1103.07 -250.951 0.
617.881 -473.417 0.
610.394 -490.975 0.
461.749 -591.137 0.
396.602 -743.401 0.
331.456 -895.665 0.
306.601 -984.121 0.
295.803 -1009.35 0.
285.005 -1034.59 0.
195.304 -973.372 0.
278.405 -779.378 0.
361.506 -585.384 0.
940.891 -258.39 0.
978.078 -171.499 0.
538.764 -309.757 0.
492.079 -418.619 0.
445.393 -527.482 0.
329.25 -649.227 0.
306.456 -702.266 0.
283.663 -755.305 0.
197.397 -796.557 0.
209.699 -767.508 0.
222.002 -738.459 0.
136.927 -666.795 0.
204.728 -508.748 0.
483.576 -266.581 0.
502.576 -329.497 0.
465.429 -416.476 0.
214.767 -579.193 0.
207.425 -596.068 0.
200.083 -612.943 0.
142.079 -605.538 0.
186.889 -500.96 0.
231.699 -396.383 0.
-30.9218 -578.062 0.
-104.867 -750.433 0.
-178.813 -922.804 0.
-184.873 -862.505 0.
-140.04 -757.555 0.
-284.089 -746.082 0.
-292.466 -765.481 0.
-300.843 -784.88 0.
-229.887 -772.548 0.
-242.075 -801.364 0.
-254.262 -830.18 0.
-9.04007 -802.719 0.
-69.3061 -943.102 0.
-129.572 -1083.48 0.
-84.3156 -868.976 0.
56.3067 -540.791 0.
-7.34434 -663.238 0.
-118.898 -716.952 0.
-121.888 -723.653 0.
-175.326 -747.225 0.
-163.234 -718.941 0.
-151.141 -690.657 0.
-63.1729 -634.024 0.
-57.45 -620.484 0.
-51.7271 -606.945 0.
-248.167 -761.822 0.
-307.933 -901.546 0.
-367.698 -1041.27 0.
-165.857 -791.524 0.
-58.5478 -541.277 0.
392.369 -172.823 0.
327.857 -323.174 0.
263.346 -473.524 0.
201.989 -582.547 0.
205.373 -574.763 0.
208.757 -566.98 0.
121.007 -586.806 0.
136.67 -550.206 0.
152.332 -513.605 0.
196.15 -551.11 0.
152.289 -653.488 0.
61.6965 -775.893 0.
277.455 -682.419 0.
278.443 -679.781 0.
223.684 -707.058 0.
208.879 -741.575 0.
194.073 -776.091 0.
428.78 -651.883 0.
478.013 -537.216 0.
527.246 -422.55 0.
523.62 -414.145 0.
505.928 -455.173 0.
488.236 -496.202 0.
946.642 -357.476 0.
913.732 -434.082 0.
269.168 -773.344 0.
232.805 -857.842 0.
196.442 -942.341 0.
243.604 -917.374 0.
324.685 -728.275 0.
405.765 -539.176 0.
377.216 -532.663 0.
329.501 -643.854 0.
281.785 -755.045 0.
750.373 -517.805 0.
788.946 -427.854 0.
-310.234 -825.333 0.
621.246 -440.259 0.
613.562 -457.683 0.
281.893 -637.145 0.
216.628 -789.322 0.
151.362 -941.499 0.
469.884 -882.837 0.
459.022 -907.999 0.
448.16 -933.16 0.
157.892 -958.421 0.
241.086 -764.54 0.
324.28 -570.659 0.
1077.32 -168.337 0.
1114.5 -81.4627 0.
628.605 -239.484 0.
581.984 -348.401 0.
535.364 -457.319 0.
355.91 -606.373 0.
333.083 -659.414 0.
310.256 -712.455 0.
152.991 -784.213 0.
165.296 -755.141 0.
177.601 -726.068 0.
329.111 -553.2 0.
396.922 -395.143 0.
425.363 -259.995 0.
416.898 -334.658 0.
379.71 -421.631 0.
129.386 -584.248 0.
122.083 -601.166 0.
114.781 -618.085 0.
157.659 -567.781 0.
202.422 -463.215 0.
247.186 -358.65 0.
81.3608 -498.095 0.
7.4599 -670.579 0.
-66.441 -843.064 0.
-192.057 -834.41 0.
-147.177 -729.474 0.
-309.473 -725.778 0.
-317.817 -745.168 0.
-326.161 -764.557 0.
-156.42 -709.547 0.
-168.585 -738.351 0.
-180.751 -767.154 0.
-146.135 -830.028 0.
-206.342 -970.472 0.
-266.549 -1110.92 0.
-22.0958 -811.226 0.
118.599 -483.083 0.
53.3937 -397.839 0.
-127.439 -509.3 0.
-113.868 -477.628 0.
-43.4709 -409.922 0.
101.8 -71.0793 0.
256.146 288.851 0.
3.67545 -586.143 0.
-47.9164 -706.989 0.
140.929 -266.764 0.
-176.99 -383.984 0.
122.772 315.929 0.
-28.6195 -36.7346 0.
109.075 -36.7093 0.
84.0379 -95.2923 0.
602.625 -34.2774 0.
486.825 -304.5 0.
424.135 -450.845 0.
225.71 -479.767 0.
97.2413 -779.83 0.
245.759 -433.567 0.
118.547 -172.917 0.
130.095 -146.124 0.
47.6987 -338.488 0.
360.897 -323.937 0.
581.25 190.073 0.
620.035 375.129 0.
500.043 -184.534 0.
812.42 543.567 0.
977.785 852.004 0.
798.772 434.269 0.
713.917 236.268 0.
815.107 233.831 0.
722.867 18.3042 0.
572.283 -333.349 0.
551.594 -539.22 0.
526.658 -597.067 0.
599.591 -426.529 0.
1044.54 -180.095 0.
1395.9 639.865 0.
592.927 61.6953 0.
623.442 133.447 0.
641.089 175.173 0.
835.915 282.598 0.
836.351 283.573 0.
741.709 62.6647 0.
360.891 -164.026 0.
378.622 -121.907 0.
494.852 150.06 0.
1007.85 412.709 0.
970.997 326.785 0.
-76.57 -146.76 0.
846.288 108.002 0.
863.785 149.313 0.
422.009 62.4546 0.
410.322 35.1672 0.
409.145 32.4115 0.
1069.21 239.053 0.
1053.03 201.083 0.
1083.02 270.807 0.
561.943 86.565 0.
589.592 150.582 0.
732.852 484.371 0.
891.529 -829.91 0.
855.065 -914.986 0.
637.081 -356.617 0.
676.462 -264.763 0.
682.824 -249.957 0.
494.964 -300.401 0.
583.994 -92.3397 0.
709.951 201.896 0.
490.827 118.168 0.
552.39 261.777 0.
647.573 483.85 0.
531.834 -415.415 0.
505.721 -476.061 0.
443.409 17.1026 0.
433.085 -103.094 0.
458.3 -44.1226 0.
299.552 6.06669 0.
203.148 -218.898 0.
129.416 -390.953 0.
107.812 -682.097 0.
32.4606 -857.879 0.
226.325 -405.564 0.
199.249 -402.456 0.
289.955 -190.948 0.
428.858 133.015 0.
78.286 -160.599 0.
127.678 -45.1531 0.
348.706 888.512 0.
-110.089 -182.289 0.
-306.109 -639.978 0.
-141.032 -783.576 0.
10.7806 -429.173 0.
109.022 -199.793 0.
278.199 447.216 0.
-63.0822 -349.042 0.
-44.608 -306.021 0.
182.348 -419.28 0.
16.9648 -804.999 0.
174.461 -267.037 0.
16.1492 -322.665 0.
22.2563 -308.518 0.
-11.5913 -325.8 0.
-46.8693 -408.098 0.
-82.1472 -490.396 0.
-11.7193 -510.917 0.
-25.8605 -544.155 0.
-40.0016 -577.394 0.
-167.59 -553.221 0.
-96.5522 -387.131 0.
-25.5145 -221.04 0.
7.51383 -356.296 0.
-93.325 -591.375 0.
198.705 -633.602 0.
237.645 -542.945 0.
276.585 -452.289 0.
267.016 -428.172 0.
229.304 -516.159 0.
191.592 -604.145 0.
-4.59206 -712.125 0.
3.89252 -692.469 0.
12.3771 -672.812 0.
287.276 -498.937 0.
323.209 -415.111 0.
328.2 -344.545 0.
370.231 -379.674 0.
341.527 -446.888 0.
378.325 -475.905 0.
375.07 -483.447 0.
371.816 -490.988 0.
437.006 -478.853 0.
421.733 -514.376 0.
406.46 -549.899 0.
381.848 -597.367 0.
359.88 -648.789 0.
337.912 -700.21 0.
902.899 -438.303 0.
918.564 -402.207 0.
318.183 -630.756 0.
332.722 -597.392 0.
347.26 -564.028 0.
512.739 -471.137 0.
520.214 -453.87 0.
527.689 -436.603 0.
332.253 -512.589 0.
333.058 -510.816 0.
333.864 -509.043 0.
683.203 -432.873 0.
633.009 -549.769 0.
-293.835 -1042.54 0.
438.384 -637.84 0.
486.354 -526.445 0.
307.201 -519.535 0.
341.015 -440.59 0.
374.828 -361.645 0.
796.415 -187.107 0.
747.858 -300.973 0.
699.301 -414.838 0.
279.757 -679.754 0.
236.455 -780.479 0.
193.152 -881.204 0.
914.129 -561.437 0.
925.324 -535.487 0.
328.255 -757.567 0.
390.213 -612.84 0.
452.171 -468.114 0.
400.15 -399.542 0.
421.632 -349.649 0.
443.114 -299.755 0.
365.945 -352.053 0.
332.266 -430.873 0.
298.587 -509.693 0.
397.36 -463.739 0.
408.561 -437.337 0.
284.361 -469.301 0.
268.892 -544.721 0.
232.582 -629.073 0.
48.118 -753.564 0.
66.5465 -710.624 0.
84.9751 -667.684 0.
92.7826 -653.009 0.
84.0327 -673.519 0.
75.2828 -694.03 0.
-23.252 -658.112 0.
41.2435 -507.562 0.
105.739 -357.012 0.
-23.0932 -503.266 0.
-82.6956 -642.608 0.
-366.2 -857.453 0.
-341.365 -799.604 0.
-316.531 -741.754 0.
-42.6774 -559.929 0.
7.93236 -441.495 0.
58.5421 -323.06 0.
19.0789 -266.102 0.
49.0119 -196.564 0.
78.9451 -127.026 0.
163.994 -334.924 0.
-2.73499 -724.055 0.
270.542 -194.54 0.
110.516 -250.882 0.
116.67 -236.732 0.
-0.202033 -289.452 0.
-35.4996 -371.726 0.
-70.7972 -454.001 0.
-53.6938 -497.48 0.
-67.8786 -530.684 0.
-82.0634 -563.888 0.
-50.9384 -472.266 0.
20.1904 -306.254 0.
91.3192 -140.242 0.
66.9917 -299.278 0.
-33.7666 -534.457 0.
34.8422 -672.196 0.
73.7965 -581.572 0.
112.751 -490.948 0.
306.418 -380.178 0.
268.711 -468.123 0.
231.004 -556.067 0.
144.475 -616.392 0.
152.975 -596.762 0.
161.474 -577.132 0.
304.773 -460.344 0.
340.721 -376.554 0.
323.648 -315.487 0.
330.4 -365.046 0.
301.644 -432.189 0.
358.422 -453.047 0.
355.185 -460.612 0.
351.947 -468.178 0.
363.689 -479.295 0.
348.393 -514.792 0.
333.096 -550.29 0.
221.391 -634.476 0.
199.384 -685.885 0.
177.377 -737.294 0.
881.308 -416.314 0.
897.039 -380.246 0.
362.727 -580.405 0.
377.253 -547.007 0.
391.78 -513.61 0.
528.845 -432.865 0.
536.356 -415.629 0.
543.866 -398.392 0.
496.652 -410.501 0.
497.505 -408.734 0.
498.357 -406.968 0.
747.305 -374.016 0.
697.077 -490.873 0.
339.627 -739.566 0.
345.779 -645.982 0.
393.751 -534.607 0.
489.448 -410.19 0.
523.188 -331.201 0.
556.927 -252.211 0.
702.553 -195.805 0.
653.974 -309.635 0.
605.395 -423.466 0.
352.524 -617.626 0.
309.206 -718.424 0.
265.888 -819.222 0.
817.674 -571.111 0.
828.909 -545.175 0.
176.855 -790.907 0.
238.87 -646.262 0.
300.884 -501.616 0.
352.253 -388.86 0.
373.71 -338.948 0.
395.167 -289.037 0.
476.684 -273.337 0.
443.007 -352.121 0.
409.33 -430.904 0.
274.606 -484.97 0.
285.849 -458.652 0.
366.29 -402.656 0.
316.095 -492.942 0.
279.757 -577.291 0.
155.365 -676.026 0.
173.821 -633.11 0.
192.277 -590.195 0.
75.4141 -629.184 0.
66.6257 -649.691 0.
57.8373 -670.198 0.
-145.103 -678.73 0.
-80.6269 -528.271 0.
-16.1508 -377.811 0.
49.0015 -441.16 0.
-10.5756 -580.49 0.
-309.034 -801.614 0.
-284.149 -743.791 0.
-259.265 -685.968 0.
-24.0134 -520.396 0.
26.6587 -401.973 0.
77.3309 -283.551 0.
92.6384 -203.315 0.
122.628 -133.867 0.
152.618 -64.4184 0.
113.681 -325.137 0.
-52.949 -714.311 0.
158.098 -477.356 0.
-56.7195 -653.162 0.
-99.4196 -752.728 0.
-222.233 -849.679 0.
-168.3 -723.873 0.
-114.367 -598.067 0.
-69.8758 -537.154 0.
-91.1268 -586.761 0.
-112.378 -636.369 0.
-132.252 -690.981 0.
-157.916 -750.907 0.
-183.58 -810.832 0.
-87.8998 -693.541 0.
-37.7984 -576.531 0.
108.557 -430.255 0.
89.5354 -474.462 0.
70.5136 -518.668 0.
290.793 -444.352 0.
298.577 -426.128 0.
306.362 -407.904 0.
180.747 -515.344 0.
122.817 -650.34 0.
64.8871 -785.336 0.
139.653 -731.598 0.
172.654 -654.475 0.
152.969 -599.934 0.
266.592 -527.982 0.
278.46 -500.255 0.
346.998 -450.843 0.
351.389 -440.494 0.
355.781 -430.145 0.
342.101 -478.341 0.
284.9 -611.967 0.
227.7 -745.593 0.
208.227 -705.274 0.
278.581 -541.12 0.
348.935 -376.966 0.
962.978 -131.111 0.
942.02 -179.395 0.
465.317 -418.374 0.
465.861 -417.092 0.
466.405 -415.811 0.
556.34 -367.643 0.
569.337 -337.107 0.
582.335 -306.57 0.
496.299 -367.106 0.
463.41 -443.72 0.
430.521 -520.334 0.
723.382 -366.71 0.
752.156 -300.189 0.
639.306 -294.382 0.
451.753 -401.198 0.
437.917 -433.402 0.
460.224 -437.417 0.
474.089 -405.605 0.
487.954 -373.794 0.
595.288 -324.946 0.
581.77 -356.222 0.
568.252 -387.498 0.
421.363 -472.065 0.
411.227 -495.864 0.
401.09 -519.662 0.
946.555 -270.148 0.
957.396 -244.866 0.
277.555 -525.206 0.
249.23 -591.134 0.
220.905 -657.062 0.
216.37 -673.477 0.
246.362 -603.431 0.
276.355 -533.385 0.
486.824 -393.497 0.
510.153 -338.903 0.
533.481 -284.309 0.
262.698 -432.806 0.
234.966 -497.734 0.
288.025 -528.593 0.
245.621 -533.427 0.
252.824 -517.002 0.
181.107 -521.196 0.
214.315 -443.539 0.
247.523 -365.883 0.
218.029 -332.586 0.
230.859 -302.756 0.
243.689 -272.925 0.
-26.0527 -465.735 0.
-91.2295 -617.871 0.
-156.406 -770.007 0.
-72.4127 -670.887 0.
-28.8524 -568.846 0.
-154.774 -558.874 0.
-190.418 -641.973 0.
-226.061 -725.071 0.
-118.979 -728.244 0.
-126.629 -745.989 0.
-134.279 -763.733 0.
-216.564 -839.757 0.
-248.52 -913.965 0.
-280.475 -988.172 0.
-26.6082 -725.607 0.
82.1418 -471.771 0.
118.294 -462.875 0.
-101.014 -640.638 0.
-143.693 -740.2 0.
-157.776 -790.53 0.
-103.835 -664.74 0.
-49.8945 -538.95 0.
6.77608 -472.972 0.
-14.4946 -522.573 0.
-35.7653 -572.173 0.
-184.292 -681.953 0.
-209.921 -741.902 0.
-235.549 -801.852 0.
-79.155 -658.138 0.
-29.0176 -541.148 0.
228.979 -347.295 0.
209.971 -391.515 0.
190.963 -435.736 0.
314.261 -403.071 0.
322.043 -384.843 0.
329.825 -366.616 0.
49.5482 -539.96 0.
-8.35256 -674.978 0.
-66.2533 -809.996 0.
36.7192 -744.412 0.
69.7006 -667.318 0.
86.5938 -597.121 0.
355.264 -458.629 0.
367.121 -430.857 0.
367.111 -410.687 0.
371.575 -400.39 0.
376.038 -390.093 0.
392.911 -425.618 0.
335.676 -559.217 0.
278.442 -692.815 0.
439.997 -574.155 0.
510.403 -410.064 0.
580.808 -245.972 0.
917.501 -119.236 0.
896.575 -167.457 0.
533.312 -357.822 0.
533.813 -356.491 0.
534.314 -355.16 0.
570.717 -330.159 0.
583.774 -299.651 0.
596.831 -269.143 0.
322.875 -409.963 0.
289.999 -486.564 0.
257.123 -563.166 0.
626.651 -376.822 0.
655.445 -310.314 0.
464.533 -337.839 0.
581.333 -314.137 0.
567.481 -346.322 0.
272.348 -486.63 0.
286.12 -454.738 0.
299.892 -422.847 0.
591.346 -295.114 0.
577.814 -326.374 0.
564.282 -357.634 0.
397.469 -451.203 0.
387.276 -474.994 0.
377.082 -498.785 0.
1074.04 -183.921 0.
1084.94 -158.672 0.
425.254 -430.312 0.
396.996 -496.308 0.
368.739 -562.304 0.
262.031 -622.701 0.
291.996 -552.631 0.
321.961 -482.561 0.
559.372 -330.901 0.
582.735 -276.316 0.
606.097 -221.731 0.
335.556 -370.512 0.
307.84 -435.477 0.
211.485 -529.696 0.
103.441 -562.735 0.
110.682 -546.364 0.
9.88615 -563.188 0.
43.1034 -485.567 0.
76.3206 -407.946 0.
306.013 -263.723 0.
318.818 -233.883 0.
331.624 -204.043 0.
191.631 -340.812 0.
126.437 -493.038 0.
61.2435 -645.264 0.
-165.287 -679.135 0.
-121.72 -577.119 0.
-58.1005 -485.968 0.
-93.7277 -569.071 0.
-129.355 -652.173 0.
-116.582 -695.935 0.
-124.227 -713.649 0.
-131.873 -731.362 0.
-342.75 -862.376 0.
-374.693 -936.587 0.
-406.635 -1010.8 0.
127.337 -628.469 0.
236.232 -374.716 0.
-72.4021 -803.628 0.
-191.341 -738.777 0.
4.26912 -282.156 0.
96.3616 -287.388 0.
95.1865 -290.039 0.
422.015 472.638 0.
-103.026 -844.425 0.
-310.87 -1329.52 0.
7.75067 -586.302 0.
75.9707 55.0105 0.
244.478 448.268 0.
124.056 167.391 0.
221.63 57.3193 0.
198.528 3.52315 0.
450.775 -26.1373 0.
316.434 -339.585 0.
248.67 -497.709 0.
313.229 -418.792 0.
339.391 -357.751 0.
421.217 -166.76 0.
78.0806 -194.95 0.
83.2609 -182.851 0.
46.1144 -269.438 0.
213.083 -108.304 0.
296.763 86.94 0.
326.579 210.956 0.
628.515 41.4936 0.
811.089 467.434 0.
982.952 1019.33 0.
899.335 824.673 0.
807.014 609.716 0.
615.912 29.2051 0.
404.456 -464.132 0.
286.759 -738.652 0.
559.883 -702.215 0.
621.709 -557.821 0.
837.702 -53.6858 0.
1321.63 940.939 0.
1029.55 260.04 0.
730.024 4.93542 0.
778.499 118.05 0.
809.8 191.092 0.
801.945 214.356 0.
860.296 350.39 0.
884.367 406.438 0.
387.912 99.6676 0.
124.461 -514.789 0.
172.575 -402.209 0.
465.936 -538.621 0.
257.756 -1024.19 0.
-526.589 -1781.61 0.
390.353 -975.129 0.
692.488 -270.1 0.
277.724 -89.6284 0.
202.655 -264.517 0.
259.783 -130.919 0.
724.755 55.5907 0.
662.405 -89.901 0.
643.937 -132.993 0.
539.959 -41.1623 0.
571.444 32.2959 0.
546.628 -25.6178 0.
1371.67 299.8 0.
1028.31 -502.014 0.
652.615 -147.269 0.
598.496 -273.572 0.
582.065 -311.928 0.
433.973 -276.413 0.
571.246 43.7091 0.
758.091 479.563 0.
1022.86 646.5 0.
985.135 558.265 0.
962.003 504.127 0.
456.866 -197.43 0.
494.229 -110.302 0.
484.24 459.97 0.
283.309 156.42 0.
226.847 24.4727 0.
72.4303 -63.785 0.
-0.457379 -233.776 0.
-53.882 -358.33 0.
238.237 -558.006 0.
114.95 -845.525 0.
240.185 -553.092 0.
378.465 -282.912 0.
461.198 -90.1258 0.
561.996 144.807 0.
-46.9068 -197.193 0.
39.3168 3.88734 0.
427.644 496.889 0.
251.745 86.1848 0.
-62.0465 -646.269 0.
-354.467 -1225.86 0.
-78.468 -581.941 0.
316.656 339.799 0.
-357.387 -631.436 0.
-287.136 -467.909 0.
-164.469 -181.973 0.
335.757 -398.567 0.
266.291 -559.858 0.
84.2016 -664.387 0.
-110.837 -612.316 0.
-38.524 -443.56 0.
97.5667 -299.055 0.
34.519 -446.093 0.
-28.5286 -593.131 0.
-48.7761 -652.697 0.
-27.4003 -602.715 0.
-6.02455 -552.734 0.
-183.614 -574.115 0.
-150.411 -496.467 0.
-117.207 -418.818 0.
194.584 -300.927 0.
180.022 -334.675 0.
316.676 -306.392 0.
284.211 -382.023 0.
251.745 -457.654 0.
265.965 -488.805 0.
273.897 -470.415 0.
281.83 -452.024 0.
-18.0122 -507.743 0.
45.8432 -358.842 0.
109.699 -209.94 0.
216.598 -198.44 0.
172.692 -301.093 0.
123.983 -405.806 0.
344.273 -432.373 0.
280.55 -581.166 0.
279.398 -681.089 0.
273.497 -694.629 0.
267.596 -708.168 0.
236.168 -698.449 0.
272.282 -614.289 0.
308.396 -530.129 0.
543.98 -434.513 0.
519.791 -490.826 0.
495.601 -547.138 0.
814.525 -362.062 0.
847.119 -286.09 0.
431.809 -401.343 0.
470.697 -310.882 0.
509.586 -220.422 0.
594.599 -182.291 0.
518.276 -360.416 0.
441.954 -538.541 0.
107.173 -718.268 0.
135.475 -652.521 0.
163.778 -586.774 0.
532.144 -453.274 0.
506.938 -511.493 0.
167.01 -704.743 0.
542.728 -523.348 0.
553.429 -498.367 0.
91.0433 -669.999 0.
117.124 -608.868 0.
143.205 -547.737 0.
538.185 -328.536 0.
564.105 -268.059 0.
590.025 -207.582 0.
371.88 -343.237 0.
325.913 -450.557 0.
279.946 -557.876 0.
1078.12 -226.78 0.
1076.99 -229.343 0.
417.292 -514.205 0.
412.316 -525.801 0.
407.34 -537.398 0.
289.022 -580.871 0.
311.141 -529.421 0.
333.261 -477.97 0.
459.314 -438.091 0.
429.535 -507.638 0.
399.757 -577.185 0.
247.175 -588.444 0.
290.313 -487.746 0.
244.679 -424.61 0.
96.0699 -427.565 0.
127.773 -353.243 0.
27.5093 -368.148 0.
-9.79088 -455.261 0.
-47.0911 -542.373 0.
242.807 -475.978 0.
221.006 -526.772 0.
199.205 -577.566 0.
257.089 -485.228 0.
319.569 -339.622 0.
382.049 -194.016 0.
-88.4622 -483.696 0.
-145.844 -617.937 0.
-74.6973 -678.187 0.
-54.8152 -632.011 0.
-34.933 -585.836 0.
-61.7195 -560.801 0.
-44.0255 -519.789 0.
-26.3314 -478.778 0.
-161.107 -498.849 0.
-138.691 -446.873 0.
-116.274 -394.896 0.
295.996 -325.827 0.
218.732 -505.524 0.
219.448 -574.983 0.
-62.0123 -559.774 0.
10.3576 -391.059 0.
121.63 -257.425 0.
58.5738 -404.458 0.
-4.48278 -551.491 0.
-66.6393 -628.927 0.
-45.309 -578.906 0.
-23.9786 -528.884 0.
-154.904 -530.624 0.
-121.685 -452.973 0.
-88.4655 -375.323 0.
365.654 -196.097 0.
351.094 -229.849 0.
315.709 -275.287 0.
283.245 -350.911 0.
250.781 -426.534 0.
261.436 -459.439 0.
269.373 -441.051 0.
277.309 -422.664 0.
45.1782 -449.113 0.
109.039 -300.223 0.
172.9 -151.334 0.
284.787 -137.728 0.
240.879 -240.42 0.
189.687 -346.234 0.
260.935 -436.765 0.
197.203 -585.521 0.
327.264 -629.106 0.
321.404 -642.686 0.
315.543 -656.266 0.
169.865 -695.632 0.
205.949 -611.434 0.
242.032 -527.235 0.
400.692 -464.301 0.
376.52 -520.654 0.
352.348 -577.007 0.
894.652 -296.306 0.
927.236 -220.271 0.
296.435 -427.898 0.
335.318 -337.431 0.
374.2 -246.963 0.
564.804 -164.057 0.
488.545 -342.213 0.
412.285 -520.368 0.
209.033 -642.849 0.
237.38 -577.085 0.
265.726 -511.321 0.
585.089 -399.189 0.
559.926 -457.428 0.
316.89 -608.821 0.
508.728 -506.212 0.
519.426 -481.208 0.
183.932 -599.031 0.
209.966 -537.875 0.
236 -476.72 0.
527.774 -301.922 0.
553.655 -241.418 0.
579.536 -180.914 0.
341.065 -324.991 0.
295.169 -432.412 0.
249.274 -539.832 0.
1012 -223.611 0.
1010.85 -226.154 0.
338.253 -516.665 0.
333.279 -528.236 0.
328.306 -539.807 0.
288.216 -549.849 0.
310.266 -498.358 0.
332.316 -446.867 0.
354.658 -451.505 0.
324.894 -521.039 0.
295.131 -590.572 0.
212.243 -572.113 0.
255.384 -471.431 0.
323.205 -359.371 0.
189.439 -356.019 0.
221.192 -281.732 0.
148.92 -284.67 0.
111.622 -371.797 0.
74.3252 -458.924 0.
221.906 -453.612 0.
200.103 -504.399 0.
178.301 -555.185 0.
231.033 -464.854 0.
293.446 -319.245 0.
355.858 -173.637 0.
27.6636 -402.509 0.
-29.7433 -536.755 0.
-56.8286 -639.126 0.
-36.95 -592.971 0.
-17.0713 -546.816 0.
-36.0939 -518.424 0.
-18.3401 -477.465 0.
-0.586219 -436.506 0.
26.0958 -387.245 0.
48.5264 -335.318 0.
70.957 -283.39 0.
225.708 -324.318 0.
148.529 -504.025 0.
542.036 113.727 0.
90.1271 -268.513 0.
-9.59575 -500.968 0.
-42.2596 -659.504 0.
-23.7173 -616.351 0.
-5.17504 -573.198 0.
-48.0323 -575.935 0.
-53.3862 -588.54 0.
-58.74 -601.144 0.
-242.831 -697.576 0.
-254.053 -723.815 0.
-265.275 -750.055 0.
243.617 -558.689 0.
229.21 -592.351 0.
163.124 -636.871 0.
216.265 -512.993 0.
269.407 -389.116 0.
272.08 -327.402 0.
258.342 -359.449 0.
244.604 -391.495 0.
71.7375 -539.435 0.
11.1776 -680.637 0.
-49.3823 -821.839 0.
31.6989 -755.03 0.
73.0855 -658.404 0.
112.941 -562.429 0.
230.985 -435.042 0.
271.41 -340.785 0.
521.447 -180.162 0.
500.441 -229.55 0.
479.436 -278.937 0.
287.296 -402.904 0.
264.454 -456.559 0.
241.613 -510.213 0.
405.649 -373.438 0.
471.917 -218.884 0.
538.185 -64.3292 0.
1071.11 156.243 0.
1057.29 123.947 0.
352.454 -199.538 0.
360.92 -179.599 0.
369.386 -159.659 0.
587.751 -50.0869 0.
595.656 -31.7252 0.
603.561 -13.3634 0.
434.723 -74.5978 0.
438.662 -65.0906 0.
442.601 -55.5834 0.
889.398 191.273 0.
925.794 276.161 0.
308.248 80.5824 0.
751.259 188.403 0.
708.216 87.9709 0.
434.309 -91.1369 0.
436.771 -85.5306 0.
439.232 -79.9243 0.
625.596 14.8857 0.
640.4 49.4444 0.
655.203 84.0031 0.
453.748 -24.3933 0.
429.314 -81.1074 0.
404.881 -137.822 0.
1074.05 78.8968 0.
1035.93 -10.1794 0.
406.487 -351.813 0.
374.483 -426.269 0.
342.48 -500.725 0.
294.905 -561.962 0.
291.916 -569.105 0.
288.927 -576.247 0.
304.705 -499.473 0.
371.392 -343.776 0.
438.079 -188.078 0.
329.038 -255.532 0.
298.694 -326.065 0.
-12.6122 -517.208 0.
128.434 -573.507 0.
67.033 -716.565 0.
-22.7816 -807.095 0.
57.612 -619.378 0.
138.006 -431.661 0.
241.395 -345.607 0.
195.102 -453.655 0.
148.81 -561.703 0.
173.978 -650.81 0.
118.194 -781.091 0.
62.4091 -911.372 0.
-145.361 -827.856 0.
-39.841 -581.613 0.
44.8758 -383.59 0.
-10.163 -511.884 0.
-65.2018 -640.178 0.
-134.999 -746.115 0.
-146.984 -773.628 0.
-158.97 -801.141 0.
-88.0322 -739.79 0.
-51.7735 -654.88 0.
-15.5147 -569.97 0.
67.9195 -489.72 0.
89.0105 -440.649 0.
508.743 130.855 0.
141.125 -215.226 0.
41.4105 -447.653 0.
-13.5377 -615.705 0.
4.9973 -572.544 0.
23.5323 -529.384 0.
-6.60975 -526.757 0.
-12.0138 -539.323 0.
-17.4179 -551.89 0.
-278.25 -681.421 0.
-289.486 -707.625 0.
-300.722 -733.83 0.
189.873 -550.424 0.
175.496 -584.097 0.
203.642 -588.016 0.
256.786 -464.165 0.
309.929 -340.314 0.
198.472 -327.469 0.
184.721 -359.497 0.
170.971 -391.526 0.
202.259 -452.241 0.
141.673 -593.464 0.
81.0873 -734.687 0.
26.0133 -725.985 0.
67.3586 -629.349 0.
37.1542 -563.373 0.
273.45 -385.4 0.
313.846 -291.111 0.
509.53 -153.844 0.
488.521 -203.242 0.
467.513 -252.64 0.
366.104 -337.998 0.
343.22 -391.593 0.
320.335 -445.187 0.
496.115 -303.113 0.
562.437 -148.637 0.
628.759 5.83833 0.
982.205 149.493 0.
968.341 117.238 0.
416.062 -140.864 0.
424.556 -120.95 0.
433.05 -101.036 0.
586.263 -19.3115 0.
594.152 -0.933042 0.
602.042 17.4454 0.
324.655 -90.2819 0.
328.609 -80.7994 0.
332.563 -71.3168 0.
995.244 268.075 0.
1031.67 352.977 0.
391.817 147.959 0.
682.978 190.66 0.
639.935 90.2655 0.
456.675 -50.1287 0.
459.103 -44.5057 0.
461.531 -38.8827 0.
576.531 25.1329 0.
591.338 59.6883 0.
606.145 94.2437 0.
475.394 16.4773 0.
451.004 -40.2839 0.
426.613 -97.0452 0.
1007.74 81.8922 0.
969.637 -7.17451 0.
510.021 -276.025 0.
477.977 -350.423 0.
445.933 -424.821 0.
356.988 -504.161 0.
353.98 -511.308 0.
350.972 -518.454 0.
367.605 -441.128 0.
434.299 -285.405 0.
500.993 -129.682 0.
352.692 -213.854 0.
322.387 -284.428 0.
196.452 -396.158 0.
148.467 -533.525 0.
87.1073 -676.611 0.
18.9161 -757.788 0.
99.3089 -570.058 0.
179.702 -382.328 0.
230.414 -318.814 0.
184.139 -426.874 0.
137.863 -534.934 0.
285.514 -571.611 0.
229.699 -701.898 0.
173.884 -832.185 0.
-203.535 -821.503 0.
-98.0593 -575.258 0.
39.6323 -354.257 0.
-15.3659 -482.589 0.
-70.3641 -610.922 0.
-129.82 -712.468 0.
-141.782 -739.993 0.
-153.744 -767.518 0.
-147.785 -733.867 0.
-111.499 -648.997 0.
-75.2125 -564.127 0.
-40.7822 -504.843 0.
-19.684 -455.775 0.
138.175 -636.549 0.
43.7427 -510.175 0.
-19.9825 -658.675 0.
317.867 135.109 0.
268.788 20.9644 0.
-20.2115 -653.133 0.
-6.00324 -571.613 0.
146.085 -216.849 0.
344.929 246.968 0.
102.902 303.06 0.
65.3534 215.308 0.
-93.8643 -156.363 0.
321.771 -109.188 0.
299.434 -161.348 0.
406.132 -161.601 0.
286.741 -440.255 0.
311.641 -382.213 0.
163.757 -239.056 0.
242.896 -54.4204 0.
266.07 -0.319103 0.
468.593 -45.8459 0.
401.939 -201.464 0.
426.24 -144.792 0.
211.81 -251.416 0.
239.18 -187.743 0.
280.937 -44.8878 0.
546.483 202.371 0.
764.234 710.769 0.
1042.29 1144.32 0.
729.817 415.246 0.
534.537 -40.302 0.
544.908 -40.8379 0.
519.296 -100.587 0.
462.874 -232.203 0.
607.335 -183.734 0.
711.767 59.5816 0.
923.545 553.396 0.
1261.78 1002.15 0.
1187.06 827.821 0.
718.689 476.727 0.
621.675 250.024 0.
517.283 6.09868 0.
544.577 -81.8893 0.
642.188 145.914 0.
739.139 372.182 0.
339.392 182.037 0.
224.115 -86.8097 0.
134.478 -295.816 0.
949.431 -6.84478 0.
911.862 -94.5388 0.
114.927 -584.423 0.
452.21 -186.308 0.
585.492 124.786 0.
591.407 252.5 0.
475.428 -18.0229 0.
376.65 -248.417 0.
412.721 -234.362 0.
476.339 -85.7954 0.
485.933 -63.2598 0.
511.822 93.662 0.
589.971 275.947 0.
621.007 348.286 0.
1221.99 737.68 0.
1224.57 743.588 0.
890.267 446.996 0.
775.751 180.106 0.
728.785 70.851 0.
611.973 3.23619 0.
568.552 -98.0111 0.
483.032 -297.472 0.
449.795 -334.6 0.
771.705 416.269 0.
923.979 771.315 0.
567.875 272.596 0.
337.228 -265.923 0.
564.172 -311.357 0.
195.455 -430.19 0.
310.262 -162.226 0.
445.479 188.986 0.
370.448 13.7936 0.
303.02 -143.636 0.
210.791 -313.885 0.
120.223 -525.202 0.
163.191 -424.889 0.
499.151 -251.647 0.
514.352 -216.222 0.
517.753 -208.331 0.
-79.6338 -392.27 0.
-22.2557 -258.638 0.
269.134 222.418 0.
302.793 301.023 0.
155.905 -41.6249 0.
-83.9375 -587.233 0.
-164.51 -775.366 0.
124.429 -101.32 0.
142.311 86.672 0.
-35.0926 -327.364 0.
-184.586 -676.367 0.
-71.5001 -344.72 0.
-148.081 -523.162 0.
-32.649 -875.624 0.
148.267 -589.695 0.
260.911 -326.694 0.
177.325 -185.394 0.
189.903 -155.942 0.
202.481 -126.489 0.
101.596 -181.799 0.
70.6038 -254.153 0.
39.6111 -326.507 0.
-28.5138 -350.122 0.
-7.90101 -301.953 0.
12.7118 -253.784 0.
318.978 -155.348 0.
296.63 -207.315 0.
418.927 -193.634 0.
413.339 -206.482 0.
407.751 -219.33 0.
174.069 -321.617 0.
181.469 -304.337 0.
188.87 -287.057 0.
223.27 -251.655 0.
237.131 -219.319 0.
250.992 -186.984 0.
265.812 -280.719 0.
192.476 -452.063 0.
375.901 -513.263 0.
213.693 -551.214 0.
232.068 -508.793 0.
294.907 -427.02 0.
365.223 -262.687 0.
435.54 -98.354 0.
592.326 51.4773 0.
600.003 69.3434 0.
607.679 87.2096 0.
673.065 87.0483 0.
645.637 23.241 0.
618.21 -40.5664 0.
819.578 37.5621 0.
818.695 35.3874 0.
387.641 -156.646 0.
362.336 -215.722 0.
337.031 -274.798 0.
445.092 -273.533 0.
425.189 -319.865 0.
405.287 -366.197 0.
171.598 -506.612 0.
149.637 -558.008 0.
127.676 -609.405 0.
731.515 -410.379 0.
697.318 -490.246 0.
197.33 -769.754 0.
254.102 -628.122 0.
315.56 -484.587 0.
349.762 -365.746 0.
381.005 -292.759 0.
412.247 -219.772 0.
385.043 -199.385 0.
383.474 -202.926 0.
381.904 -206.468 0.
363.644 -188.593 0.
384.6 -139.754 0.
405.556 -90.9149 0.
1009.37 208.606 0.
1030.47 257.968 0.
657.427 131.602 0.
646.591 106.02 0.
635.754 80.438 0.
576.573 27.3859 0.
555.852 -20.7385 0.
535.131 -68.8629 0.
431.576 -210.941 0.
357.863 -383.04 0.
284.15 -555.139 0.
288.928 -540.674 0.
315.83 -478.142 0.
265.927 -447.501 0.
209.094 -334.464 0.
281.296 -165.962 0.
293.643 -89.5665 0.
219.746 -262.158 0.
145.848 -434.75 0.
205.885 -443.863 0.
252.408 -335.285 0.
298.932 -226.708 0.
516.497 -114.652 0.
510.077 -129.739 0.
503.657 -144.826 0.
10.5018 -424.225 0.
-28.1642 -514.804 0.
-16.4765 -554.412 0.
64.8426 -364.727 0.
146.162 -175.043 0.
178.94 -88.7697 0.
136.714 -187.513 0.
94.488 -286.257 0.
24.8668 -371.006 0.
6.94474 -413.022 0.
-10.9773 -455.039 0.
37.2736 -359.624 0.
90.0403 -236.296 0.
-99.7025 -872.575 0.
334.537 -478.649 0.
447.202 -215.608 0.
189.936 -148.423 0.
202.53 -118.996 0.
215.124 -89.5698 0.
45.1591 -174.557 0.
14.1483 -246.907 0.
-16.8625 -319.258 0.
169.873 -233.744 0.
190.45 -185.501 0.
211.028 -137.257 0.
355.966 -108.128 0.
333.611 -160.097 0.
467.444 -141.515 0.
461.825 -154.343 0.
456.206 -167.171 0.
246.483 -259.092 0.
253.863 -241.79 0.
261.242 -224.489 0.
47.4828 -295.603 0.
61.333 -263.279 0.
75.1833 -230.955 0.
363.986 -207.115 0.
290.63 -378.489 0.
36.9299 -627.212 0.
217.219 -518.375 0.
235.571 -475.953 0.
221.457 -427.062 0.
291.796 -262.796 0.
362.134 -98.5309 0.
618.568 94.1088 0.
626.217 112.017 0.
633.866 129.925 0.
627.878 99.0837 0.
600.504 35.1997 0.
573.13 -28.6842 0.
800.696 60.9174 0.
799.812 58.761 0.
331.136 -149.301 0.
305.843 -208.398 0.
280.55 -267.495 0.
440.093 -244.358 0.
420.171 -290.662 0.
400.249 -336.967 0.
344.411 -401.005 0.
322.432 -452.401 0.
300.454 -503.798 0.
694.041 -395.117 0.
659.854 -474.957 0.
427.017 -639.772 0.
258.839 -594.612 0.
320.271 -451.059 0.
395.034 -314.923 0.
426.287 -241.943 0.
457.54 -168.964 0.
349.738 -183.15 0.
348.167 -186.692 0.
346.595 -190.234 0.
346.824 -164.221 0.
367.769 -115.356 0.
388.714 -66.491 0.
1043.37 254.499 0.
1064.46 303.888 0.
554.657 118.854 0.
543.814 93.3185 0.
532.971 67.7831 0.
537.552 42.0425 0.
516.868 -6.1195 0.
496.184 -54.2816 0.
360.74 -209.704 0.
287.017 -381.754 0.
213.294 -553.804 0.
390.273 -466.024 0.
417.178 -403.476 0.
117.903 -479.558 0.
191.992 -310.344 0.
264.174 -141.837 0.
270.7 -67.9017 0.
196.784 -240.457 0.
122.869 -413.012 0.
284.482 -378.844 0.
331.014 -270.265 0.
377.546 -161.686 0.
482.079 -98.1365 0.
475.684 -113.247 0.
469.288 -128.358 0.
154.093 -331.072 0.
115.441 -421.675 0.
58.1018 -491 0.
139.446 -301.327 0.
220.791 -111.655 0.
255.88 -24.3819 0.
213.641 -123.111 0.
171.402 -221.841 0.
137.853 -291.081 0.
119.954 -333.123 0.
102.055 -375.165 0.
194.786 -260.773 0.
247.577 -137.461 0.
289.274 -109.556 0.
442.392 -141.562 0.
392.573 -258.059 0.
4.70979 -489.863 0.
33.6353 -422.325 0.
62.5608 -354.788 0.
-43.0329 -395.035 0.
-76.4031 -472.895 0.
-109.773 -550.755 0.
118.443 -495.067 0.
102.887 -531.534 0.
87.3319 -568 0.
226.527 -443.05 0.
267.975 -346.521 0.
388.583 -228.119 0.
364.813 -283.669 0.
341.042 -339.219 0.
195.627 -417.721 0.
220.955 -358.686 0.
246.282 -299.65 0.
-2.43246 -389.783 0.
-8.54837 -404.069 0.
-14.6643 -418.355 0.
350.174 -263.824 0.
351.244 -261.241 0.
501.854 -194.165 0.
368.407 -236.721 0.
376.253 -218.255 0.
265.038 -245.747 0.
285.116 -199.113 0.
305.194 -152.479 0.
587.836 -11.8933 0.
585.762 -16.7351 0.
583.688 -21.5769 0.
535.834 -26.691 0.
549.74 5.60395 0.
563.646 37.8989 0.
780.728 178.28 0.
806.907 239.617 0.
466.987 125.37 0.
400.391 -30.0686 0.
333.795 -185.507 0.
414.405 -220.267 0.
439.724 -161.392 0.
465.043 -102.516 0.
538.485 -39.1037 0.
547.976 -16.856 0.
557.466 5.39155 0.
950.798 191.235 0.
959.989 212.798 0.
593.61 73.2015 0.
502.669 -7.10426 0.
480.969 -57.8064 0.
470.143 -92.1435 0.
474.173 -82.7534 0.
478.202 -73.3634 0.
383.578 -100.435 0.
394.752 -74.3797 0.
405.925 -48.3242 0.
360.994 -57.9741 0.
363.11 -53.0124 0.
365.227 -48.0508 0.
911.716 105.808 0.
864.471 -4.6521 0.
368.459 -288.979 0.
402.814 -208.416 0.
437.168 -127.854 0.
496.528 -65.0545 0.
486.957 -87.3506 0.
477.386 -109.647 0.
337.465 -191.715 0.
323.965 -223.18 0.
310.466 -254.644 0.
581.258 -123.978 0.
594.633 -92.3104 0.
502.852 -107.442 0.
157.41 -354.546 0.
105.673 -475.347 0.
79.462 -548.465 0.
109.006 -479.449 0.
138.55 -410.434 0.
323.839 -333.588 0.
286.488 -420.708 0.
249.136 -507.828 0.
260.486 -487.08 0.
289.219 -419.917 0.
317.952 -352.754 0.
206.2 -369.712 0.
221.761 -333.323 0.
158.303 -340.896 0.
129.205 -408.815 0.
100.108 -476.734 0.
46.5656 -520.255 0.
69.6122 -466.508 0.
92.6588 -412.76 0.
117.823 -375.577 0.
124.084 -360.864 0.
130.344 -346.15 0.
122.149 -374.285 0.
105.735 -413.04 0.
537.378 27.0681 0.
207.173 -211.198 0.
157.342 -327.66 0.
-68.6031 -489.761 0.
-39.6702 -422.248 0.
-10.7373 -354.736 0.
59.0893 -319.836 0.
25.7126 -397.722 0.
-7.66421 -475.607 0.
104.983 -469.413 0.
89.4 -505.844 0.
73.8174 -542.274 0.
256.489 -398.853 0.
297.925 -302.306 0.
274.331 -245.678 0.
250.546 -301.2 0.
226.761 -356.723 0.
200.25 -384.229 0.
225.557 -325.166 0.
250.865 -266.104 0.
179.34 -280.485 0.
173.213 -294.786 0.
167.087 -309.086 0.
312.572 -248.675 0.
313.632 -246.083 0.
467.663 -177.444 0.
473.17 -160.316 0.
480.983 -141.858 0.
284.578 -205.87 0.
304.644 -159.239 0.
324.71 -112.608 0.
631.469 38.0655 0.
629.393 33.2335 0.
627.317 28.4015 0.
520.687 -1.76525 0.
534.625 30.4851 0.
548.563 62.7355 0.
661.241 158.627 0.
687.445 219.944 0.
598.816 213.494 0.
532.221 58.0098 0.
465.625 -97.4744 0.
365.368 -210.08 0.
390.646 -151.164 0.
415.924 -92.2491 0.
496.05 -25.8636 0.
505.588 -3.66723 0.
515.126 18.5291 0.
1031.8 257.407 0.
1041.03 278.952 0.
464.147 49.138 0.
514.298 29.2892 0.
492.602 -21.4107 0.
408.118 -87.3033 0.
412.15 -77.9322 0.
416.181 -68.561 0.
447.801 -41.4763 0.
458.989 -15.4331 0.
470.178 10.61 0.
332.781 -38.4408 0.
334.911 -33.4761 0.
337.041 -28.5114 0.
747.218 66.6245 0.
699.972 -43.7908 0.
472.724 -212.871 0.
507.126 -132.315 0.
541.527 -51.7588 0.
579.741 1.95128 0.
570.162 -20.3567 0.
560.583 -42.6647 0.
363.077 -149.129 0.
349.594 -180.587 0.
336.111 -212.044 0.
624.865 -73.9087 0.
638.315 -42.2757 0.
553.828 -54.1411 0.
168.812 -318.309 0.
117.092 -439.122 0.
170.671 -477.837 0.
200.212 -408.814 0.
229.754 -339.79 0.
328.822 -299.967 0.
291.508 -387.103 0.
254.194 -474.239 0.
192.908 -484.685 0.
221.65 -417.53 0.
250.392 -350.376 0.
263.97 -313.535 0.
279.549 -277.167 0.
203.954 -289.798 0.
174.862 -357.727 0.
145.769 -425.656 0.
14.6725 -502.57 0.
37.7097 -448.835 0.
60.7469 -395.1 0.
77.1191 -361.487 0.
83.4229 -346.826 0.
89.7267 -332.165 0.
-51.9721 -417.467 0.
-68.3231 -456.268 0.
22.3861 -141.667 0.
118.217 54.4781 0.
-47.0208 -331.362 0.
-131.637 -470.847 0.
-37.171 -250.307 0.
66.4335 -8.32857 0.
338.566 171.358 0.
377.556 262.728 0.
453.227 439.68 0.
460.417 417.267 0.
365.156 194.708 0.
204.481 -180.429 0.
383.027 -128.424 0.
394.632 -101.503 0.
189.094 -197.915 0.
140.706 -311.047 0.
178.002 -224.282 0.
393.915 90.5755 0.
458.599 241.325 0.
457.595 238.788 0.
499.291 152.433 0.
465.886 74.3708 0.
437.496 8.02872 0.
313.611 -143.967 0.
371.33 -9.66417 0.
516.322 233.816 0.
782.325 395.862 0.
860.357 578.106 0.
624.443 581.029 0.
454.912 185.448 0.
411.357 83.8129 0.
703.964 156.247 0.
656.712 45.8749 0.
645.536 19.6731 0.
501.332 13.2793 0.
564.535 160.586 0.
615.602 279.587 0.
639.581 364.433 0.
617.829 313.818 0.
675.716 176.336 0.
581.236 -44.2206 0.
529.539 -164.943 0.
311.249 -212.269 0.
372.48 -69.344 0.
430.722 66.6092 0.
533.105 171.072 0.
535.952 177.561 0.
529.957 163.418 0.
1076.76 239.293 0.
983.362 21.4529 0.
310.382 -415.509 0.
443.939 -123.812 0.
525.241 65.935 0.
431.29 115.943 0.
404.022 52.3343 0.
369.433 -28.3578 0.
482.762 -52.0879 0.
436.876 -159.183 0.
428.64 -178.414 0.
277.048 -83.6343 0.
381.708 160.484 0.
462.294 348.432 0.
842.367 630.903 0.
879.35 717.24 0.
879.106 571.268 0.
703.255 160.98 0.
640.141 13.7431 0.
624.645 -20.7732 0.
581.897 -120.484 0.
585.542 -111.927 0.
439.621 13.613 0.
589.238 362.512 0.
686.421 589.063 0.
864.126 433.096 0.
699.305 48.8615 0.
557.071 -13.1647 0.
301.361 -0.190723 0.
326.127 57.6605 0.
494.588 135.989 0.
437.127 1.94694 0.
398.567 -87.9194 0.
422.09 -60.5098 0.
447.235 -1.93767 0.
470.192 51.53 0.
286.973 -106.102 0.
251.451 -188.972 0.
261.173 -166.329 0.
369.886 -142.713 0.
344.579 -201.73 0.
265.209 -200.578 0.
433.047 191.043 0.
391.085 93.1285 0.
102.198 -210.68 0.
40.5482 -354.631 0.
20.6411 -401.204 0.
14.7759 -397.499 0.
-50.2629 -549.162 0.
326.79 330.904 0.
-71.6999 -107.904 0.
-53.1232 -64.0514 0.
-228.686 -472.525 0.
95.9819 -215.654 0.
151.708 -85.6244 0.
140.341 -31.2932 0.
78.2324 -176.156 0.
16.1243 -321.019 0.
105.279 -312.347 0.
151.497 -204.434 0.
197.715 -96.5203 0.
205.79 -99.7949 0.
175.108 -171.391 0.
144.426 -242.987 0.
366.295 -153.157 0.
368.046 -149.044 0.
302.718 -173.09 0.
303.908 -170.329 0.
305.099 -167.568 0.
317.243 -163.394 0.
312.31 -174.952 0.
307.378 -186.511 0.
351.211 -185.425 0.
338.634 -214.891 0.
326.056 -244.357 0.
217.207 -246.3 0.
251.865 -165.639 0.
355.617 -55.4852 0.
529.471 26.8492 0.
533.368 35.8132 0.
411.873 -5.97227 0.
422.826 19.7605 0.
433.779 45.4932 0.
631.039 144.735 0.
634.327 152.391 0.
637.616 160.047 0.
514.616 84.6306 0.
494.389 37.8959 0.
474.162 -8.83874 0.
555.444 -13.9887 0.
534.715 -62.5286 0.
412.72 -150.567 0.
413.475 -148.703 0.
414.23 -146.839 0.
328.414 -196.406 0.
305.64 -249.536 0.
282.866 -302.666 0.
441.097 -275.066 0.
421.622 -320.424 0.
402.147 -365.783 0.
916.127 -100.358 0.
952.08 -16.3613 0.
169.516 -283.033 0.
376.849 -195.294 0.
376.312 -196.577 0.
337.418 -201.971 0.
365.287 -136.971 0.
393.155 -71.9713 0.
446.759 -33.1822 0.
431.344 -69.0147 0.
415.929 -104.847 0.
335.324 -133.834 0.
347.191 -106.095 0.
359.059 -78.3564 0.
599.398 66.1037 0.
621.919 118.926 0.
611.965 149.45 0.
596.921 114.114 0.
581.878 78.7783 0.
634.079 82.4693 0.
634.518 83.4892 0.
634.957 84.5091 0.
402.624 -25.1153 0.
393.565 -46.2225 0.
384.506 -67.3298 0.
615.428 12.8682 0.
604.822 -11.7709 0.
547.461 -56.0015 0.
252.276 -136.486 0.
276.427 -80.1657 0.
408.115 -6.06746 0.
367.934 -99.7935 0.
327.753 -193.52 0.
371.393 -202.443 0.
387.048 -165.889 0.
402.703 -129.336 0.
348.547 -164.98 0.
332.539 -202.397 0.
316.53 -239.815 0.
306.092 -268.411 0.
293.374 -297.966 0.
180.865 -363.875 0.
194.999 -330.985 0.
209.134 -298.095 0.
171.877 -285.45 0.
189.106 -245.297 0.
206.336 -205.144 0.
53.7591 -229.29 0.
78.0077 -172.581 0.
102.256 -115.873 0.
12.3678 -180.801 0.
-11.6374 -236.374 0.
-168.366 -415.222 0.
227.12 -128.036 0.
282.842 2.02819 0.
259.587 51.217 0.
197.466 -93.6591 0.
135.346 -238.535 0.
90.1039 -287.447 0.
136.332 -179.561 0.
182.56 -71.6756 0.
182.028 -78.4674 0.
151.358 -150.072 0.
120.689 -221.676 0.
374.883 -118.06 0.
376.632 -113.945 0.
444.965 -80.6947 0.
446.141 -77.9149 0.
447.317 -75.1352 0.
372.871 -108.018 0.
367.939 -119.576 0.
363.007 -131.133 0.
363.543 -148.991 0.
350.95 -178.45 0.
338.357 -207.909 0.
169.208 -235.492 0.
203.855 -154.817 0.
430.836 8.23632 0.
429.344 15.4687 0.
433.264 24.411 0.
476.762 53.3198 0.
487.684 79.0734 0.
498.606 104.827 0.
563.739 147.254 0.
567.036 154.9 0.
570.334 162.547 0.
509.597 113.837 0.
489.381 67.0748 0.
469.165 20.3123 0.
668.011 65.7693 0.
647.298 17.228 0.
278.711 -176.518 0.
279.465 -174.664 0.
280.22 -172.81 0.
357.348 -152.645 0.
334.584 -205.786 0.
311.82 -258.927 0.
578.954 -184.483 0.
559.483 -229.853 0.
540.012 -275.223 0.
914.507 -69.6453 0.
950.462 14.3531 0.
91.1268 -285.191 0.
348.246 -176.116 0.
347.733 -177.415 0.
405.754 -141.235 0.
433.621 -76.2425 0.
461.487 -11.2502 0.
410.07 -17.4487 0.
394.639 -53.2696 0.
379.207 -89.0905 0.
449.573 -53.397 0.
461.44 -25.6426 0.
473.307 2.11183 0.
614.914 104.113 0.
637.435 156.951 0.
522.558 142.465 0.
507.514 107.14 0.
492.471 71.8144 0.
608.62 103.011 0.
609.05 104.034 0.
609.48 105.057 0.
394.173 2.84427 0.
385.124 -18.2642 0.
376.075 -39.3727 0.
546.707 14.887 0.
536.085 -9.716 0.
578.329 -11.4966 0.
280.357 -93.2028 0.
304.523 -36.8738 0.
393.452 19.0059 0.
353.277 -74.708 0.
313.101 -168.422 0.
400.012 -158.594 0.
415.664 -122.036 0.
431.315 -85.4774 0.
470.992 -81.0979 0.
454.953 -118.493 0.
438.913 -155.887 0.
310.059 -235.331 0.
297.349 -264.899 0.
179.825 -332.861 0.
193.951 -299.974 0.
208.077 -267.087 0.
312.877 -193.618 0.
330.1 -153.46 0.
347.324 -113.303 0.
30.2178 -207.859 0.
54.4818 -151.171 0.
78.7459 -94.4837 0.
170.043 -81.7708 0.
146.093 -137.418 0.
-148.931 -360.029 0.
207.336 -224.318 0.
199.251 -243.121 0.
144.621 -278.554 0.
145.265 -277.089 0.
145.91 -275.624 0.
39.5587 -322.068 0.
38.0529 -325.644 0.
36.5471 -329.22 0.
72.9088 -293.383 0.
90.5636 -252.302 0.
108.218 -211.221 0.
327.373 -171.53 0.
292.304 -253.472 0.
354.948 -292.913 0.
322.71 -368.164 0.
290.472 -443.414 0.
199.215 -513.59 0.
217.267 -471.466 0.
235.318 -429.342 0.
277.138 -382.828 0.
288.975 -355.282 0.
300.811 -327.737 0.
118.302 -388.98 0.
127.094 -368.382 0.
436.102 -219.02 0.
368.783 -173.574 0.
408.027 -81.9752 0.
482.525 2.70107 0.
466.417 -35.0775 0.
450.309 -72.8561 0.
434.278 -91.6573 0.
440.843 -76.4245 0.
447.408 -61.1916 0.
371.395 -99.6802 0.
363.941 -117.45 0.
356.486 -135.219 0.
668.442 14.7818 0.
679.286 40.2187 0.
301.728 -100.658 0.
310.955 -79.0961 0.
320.181 -57.5343 0.
432.459 14.4375 0.
452.148 60.3964 0.
471.837 106.355 0.
780.569 264.216 0.
788.963 283.798 0.
797.357 303.38 0.
1096.18 427.046 0.
1090.66 414.056 0.
159.53 4.30607 0.
527.525 233.816 0.
565.14 321.731 0.
638.097 379.526 0.
571.086 223.194 0.
504.074 66.8611 0.
372.123 -62.8996 0.
368.366 -71.7706 0.
364.609 -80.6416 0.
512.922 -1.7957 0.
526.799 30.5911 0.
540.676 62.9779 0.
559.015 40.6606 0.
539.86 -4.21923 0.
360.987 -109.749 0.
374.64 -77.7414 0.
388.293 -45.734 0.
560.326 40.8354 0.
553.406 24.7043 0.
546.486 8.5731 0.
383.302 -58.8883 0.
390.642 -41.7971 0.
397.981 -24.7059 0.
536.366 -29.4085 0.
492.224 -132.407 0.
544.305 -193.17 0.
161.323 -451.408 0.
112.033 -566.305 0.
111.539 -626.398 0.
138.066 -564.494 0.
164.594 -502.591 0.
288.991 -434.334 0.
275.009 -467.009 0.
261.026 -499.683 0.
301.257 -474.57 0.
313.14 -446.822 0.
325.024 -419.074 0.
236.068 -391.686 0.
273.414 -304.466 0.
173.649 -282.036 0.
183.701 -258.34 0.
193.754 -234.643 0.
300.594 -182.042 0.
290.865 -204.771 0.
281.136 -227.5 0.
-32.3243 -336.307 0.
-1.40578 -264.143 0.
29.5128 -191.979 0.
186.881 -42.3373 0.
232.307 63.728 0.
-145.028 -326.412 0.
162.603 -211.976 0.
154.537 -230.799 0.
126.091 -254.992 0.
126.743 -253.53 0.
127.396 -252.068 0.
0.0313834 -307.578 0.
-1.47881 -311.155 0.
-2.98901 -314.732 0.
86.8529 -255.954 0.
104.512 -214.869 0.
122.172 -173.784 0.
292.603 -155 0.
257.544 -236.957 0.
251.225 -305.933 0.
218.992 -381.161 0.
186.759 -456.388 0.
177.529 -491.429 0.
195.57 -449.298 0.
213.612 -407.166 0.
331.774 -328.235 0.
343.608 -300.686 0.
355.441 -273.138 0.
234.833 -307.539 0.
243.623 -286.947 0.
549.703 -138.834 0.
547.973 -65.2874 0.
587.244 26.2947 0.
518.614 49.6524 0.
502.453 11.9174 0.
486.292 -25.8177 0.
467.686 -46.039 0.
474.259 -30.8004 0.
480.832 -15.5618 0.
296.022 -100.62 0.
288.563 -118.389 0.
281.103 -136.157 0.
645.611 36.5032 0.
656.461 61.9391 0.
441.589 -9.30687 0.
450.807 12.2546 0.
460.026 33.8161 0.
445.083 51.2623 0.
464.77 97.2267 0.
484.456 143.191 0.
701.174 261.751 0.
709.585 281.319 0.
717.996 300.887 0.
1053.92 440.31 0.
1048.38 427.325 0.
362.724 122.832 0.
597.185 295.101 0.
634.816 383.021 0.
626.65 406.033 0.
559.648 249.678 0.
492.647 93.3218 0.
397.62 -20.4781 0.
393.859 -29.3479 0.
390.097 -38.2176 0.
533.227 38.486 0.
547.109 70.8675 0.
560.991 103.249 0.
506.856 49.5874 0.
487.71 4.70635 0.
350.812 -82.751 0.
364.457 -50.732 0.
378.103 -18.7131 0.
566.367 74.8361 0.
559.438 58.724 0.
552.509 42.6119 0.
461.362 6.07098 0.
468.722 23.1586 0.
476.082 40.2462 0.
657.747 54.0662 0.
613.604 -48.9344 0.
667.317 -109.167 0.
251.382 -381.401 0.
202.08 -496.283 0.
146.007 -580.268 0.
172.536 -518.358 0.
199.065 -456.449 0.
311.541 -393.196 0.
297.561 -425.876 0.
283.581 -458.555 0.
211.167 -481.904 0.
223.012 -454.144 0.
234.857 -426.383 0.
247.619 -355.278 0.
284.951 -268.058 0.
138.97 -265.375 0.
149.039 -241.703 0.
159.107 -218.031 0.
157.51 -211.806 0.
147.754 -234.485 0.
137.997 -257.163 0.
3.97239 -289.248 0.
34.892 -217.088 0.
65.8117 -144.928 0.
66.8562 -62.2198 0.
112.245 43.8902 0.
-176.182 -83.8474 0.
145.761 -137.161 0.
243.877 92.0717 0.
167.347 -92.7297 0.
63.7941 -334.4 0.
75.0503 -308.066 0.
-29.891 -270.918 0.
10.505 -176.725 0.
58.0155 -65.9895 0.
218.167 55.1895 0.
244.637 116.854 0.
229.161 80.6567 0.
295.355 -51.544 0.
225.215 -215.283 0.
143.516 -329.685 0.
151.805 -310.447 0.
204.609 -187.362 0.
371.329 33.354 0.
404.057 109.646 0.
383.866 62.5036 0.
531.523 66.4483 0.
518.093 35.0818 0.
434.826 -159.229 0.
347.417 -233.858 0.
432.52 -35.5175 0.
740.923 120.603 0.
682.794 -58.0248 0.
682.607 -58.1526 0.
490.765 -51.2182 0.
525.822 30.7869 0.
550.544 88.6247 0.
538.16 86.9616 0.
476.166 -57.7886 0.
442.319 -136.836 0.
186.478 -183.539 0.
247.937 -40.3448 0.
272.354 16.4437 0.
649.838 121.229 0.
610.617 29.7616 0.
532.046 -29.9739 0.
540.943 -9.23145 0.
551.422 15.1988 0.
438.587 43.1128 0.
512.599 215.753 0.
581.109 375.555 0.
690.497 417.989 0.
635.828 290.429 0.
561.818 117.74 0.
924.55 248.242 0.
945.081 296.191 0.
487.11 115.746 0.
587.438 170.073 0.
570.293 130.121 0.
448.27 41.7933 0.
486.936 132.043 0.
529.269 230.854 0.
489.94 176.706 0.
415.986 4.1985 0.
345.878 -159.342 0.
488.857 -70.0971 0.
520.88 4.53127 0.
527.825 20.6347 0.
410.094 -46.1508 0.
452.69 53.2324 0.
454.282 209.426 0.
395.964 73.4622 0.
316.819 -111.103 0.
428.706 -226.575 0.
392.308 -311.509 0.
402.665 -287.341 0.
427.685 -188.46 0.
448.803 -139.427 0.
470.611 -88.8049 0.
741.322 52.2243 0.
722.471 7.84671 0.
647.545 -139.154 0.
357.729 -272.414 0.
399.07 -175.789 0.
431.007 51.7931 0.
484.148 175.637 0.
454.252 105.701 0.
503.012 43.429 0.
483.381 -2.23479 0.
499.023 34.3946 0.
308.421 -53.2849 0.
276.306 -128.186 0.
249.621 -190.414 0.
367.82 -64.51 0.
419.624 56.3516 0.
250.038 92.0315 0.
263.561 123.583 0.
214.607 9.23856 0.
57.2863 -145.331 0.
-32.6342 -355.026 0.
-27.1586 -342.182 0.
61.159 -193.638 0.
110.803 -78.2671 0.
167.25 52.9454 0.
-16.6848 3.20742 0.
201.4 511.885 0.
-221.186 -286.559 0.
235.258 -137.616 0.
211.802 -192.25 0.
52.019 -300.203 0.
39.8117 -328.72 0.
27.6044 -357.236 0.
-72.6608 -401.543 0.
-57.1617 -365.48 0.
-41.6627 -329.417 0.
80.9554 -255.777 0.
89.6838 -235.464 0.
98.4122 -215.15 0.
257.842 -202.123 0.
223.344 -282.607 0.
160.018 -363.326 0.
191.385 -290.163 0.
222.752 -217 0.
305.782 -152.284 0.
286.422 -197.505 0.
267.062 -242.725 0.
317.364 -231.201 0.
324.202 -215.287 0.
331.039 -199.374 0.
372.595 -148.521 0.
393.115 -100.631 0.
468.584 -29.2069 0.
639.286 -46.5313 0.
590.955 -159.245 0.
330.356 -338.352 0.
343.472 -307.909 0.
356.589 -277.465 0.
376.039 -216.343 0.
422.429 -108.118 0.
468.819 0.106478 0.
305.93 -94.6875 0.
262.084 -197.005 0.
218.238 -299.323 0.
490.145 -189.96 0.
491.981 -185.706 0.
440.235 -194.716 0.
490.167 -78.2195 0.
540.1 38.2765 0.
485.003 74.128 0.
477.786 57.2337 0.
470.57 40.3394 0.
593.736 96.153 0.
602.53 116.701 0.
611.324 137.248 0.
957.433 396.481 0.
1029.93 565.681 0.
562.091 503.197 0.
728.544 475.77 0.
676.612 354.696 0.
552.327 214.946 0.
528.44 159.212 0.
504.553 103.478 0.
446.566 38.8282 0.
429.646 -0.622376 0.
412.725 -40.073 0.
468.009 -58.733 0.
443.275 -116.454 0.
418.541 -174.175 0.
327.744 -210.493 0.
332.142 -200.172 0.
296.343 -204.775 0.
309.591 -173.909 0.
322.84 -143.042 0.
431.968 -88.615 0.
417.839 -121.629 0.
403.71 -154.644 0.
448.465 -189.962 0.
409.079 -281.759 0.
369.692 -373.557 0.
575.492 -223.317 0.
627.243 -102.613 0.
425.9 -91.4863 0.
405.262 -78.0448 0.
417.105 -50.6103 0.
321.93 -79.8698 0.
308.255 -111.757 0.
294.58 -143.645 0.
367.88 -134.09 0.
359.01 -154.704 0.
350.14 -175.319 0.
268.752 -197.193 0.
283.398 -163.148 0.
298.045 -129.102 0.
301.616 -172.8 0.
273.508 -238.162 0.
43.1027 -386.602 0.
30.793 -415.316 0.
18.4834 -444.03 0.
-20.5796 -466.17 0.
-5.63847 -431.286 0.
9.30266 -396.401 0.
28.4477 -330.947 0.
68.9255 -236.607 0.
109.403 -142.267 0.
-63.9035 -153.374 0.
-32.9573 -81.2084 0.
166.876 -89.5497 0.
361.587 -52.0108 0.
338.132 -106.658 0.
36.1957 -275.553 0.
23.9946 -304.079 0.
11.7935 -332.605 0.
-40.2483 -356.206 0.
-24.7421 -320.143 0.
-9.23582 -284.08 0.
92.8332 -219.258 0.
101.573 -198.948 0.
110.313 -178.639 0.
307.041 -149.602 0.
272.526 -230.085 0.
214.325 -308.676 0.
245.698 -235.494 0.
277.072 -162.312 0.
339.311 -106.401 0.
319.949 -151.625 0.
300.587 -196.848 0.
227.262 -238.354 0.
234.103 -222.447 0.
240.945 -206.54 0.
375.07 -116.047 0.
395.566 -68.1339 0.
278.529 -79.1323 0.
596.756 -33.338 0.
548.447 -146.056 0.
300.99 -319.477 0.
314.083 -289.016 0.
327.176 -258.555 0.
353.117 -194.784 0.
399.507 -86.5605 0.
445.897 21.6629 0.
421.968 -13.5354 0.
378.143 -115.907 0.
334.318 -218.279 0.
474.218 -165.313 0.
476.066 -161.058 0.
430.693 -167.298 0.
480.614 -50.7966 0.
530.536 65.7047 0.
541.986 129.91 0.
534.773 113.011 0.
527.56 96.112 0.
660.762 156.287 0.
669.567 176.824 0.
678.372 197.36 0.
937.491 419.474 0.
1010.02 588.643 0.
670.051 580.918 0.
757.561 519.689 0.
705.605 398.659 0.
605.023 268.801 0.
581.15 213.048 0.
557.278 157.295 0.
482.5 85.7047 0.
465.575 46.2607 0.
448.651 6.81671 0.
452.553 -33.9145 0.
427.817 -91.643 0.
403.08 -149.371 0.
329.428 -178.362 0.
333.808 -168.019 0.
336.855 -156.001 0.
350.103 -125.127 0.
363.351 -94.2537 0.
380.072 -79.4992 0.
365.94 -112.504 0.
351.808 -145.508 0.
491.021 -140.191 0.
451.664 -232.022 0.
412.307 -323.853 0.
533.223 -209.97 0.
584.967 -89.2605 0.
417.194 -63.7666 0.
377.701 -58.4486 0.
389.543 -31.0107 0.
273.584 -69.1344 0.
259.892 -101.013 0.
246.2 -132.892 0.
311.782 -126.699 0.
302.908 -147.306 0.
294.034 -167.914 0.
312.225 -147.204 0.
326.879 -113.185 0.
341.534 -79.1649 0.
293.589 -144.645 0.
265.483 -210.009 0.
57.1442 -349.104 0.
44.8335 -377.829 0.
32.5227 -406.554 0.
68.7067 -396.44 0.
83.6312 -361.533 0.
98.5558 -326.626 0.
76.7834 -278.874 0.
117.242 -184.514 0.
157.701 -90.153 0.
-23.4272 -104.795 0.
7.5586 -32.6315 0.
-104.513 -440.844 0.
250.899 -244.82 0.
278.242 -181.198 0.
70.2469 -217.978 0.
97.7322 -153.891 0.
125.217 -89.8049 0.
74.4612 -100.399 0.
51.9422 -153.054 0.
29.4233 -205.709 0.
105.728 -199.929 0.
95.8986 -222.925 0.
86.069 -245.922 0.
343.713 -65.0949 0.
387.742 37.4228 0.
347.411 90.8482 0.
319.569 25.7079 0.
291.728 -39.4324 0.
348.33 -74.6521 0.
310.222 -163.617 0.
272.115 -252.583 0.
163.654 -315.288 0.
180.335 -276.387 0.
197.015 -237.486 0.
319.918 -175.189 0.
321.383 -171.801 0.
253.151 -198.253 0.
599.977 -32.7778 0.
609.241 -11.2387 0.
395.959 -91.6384 0.
388.096 -109.848 0.
380.234 -128.057 0.
330.429 -186.209 0.
296.508 -265.401 0.
262.586 -344.593 0.
327.621 -288.486 0.
367.593 -195.086 0.
407.564 -101.686 0.
547.214 26.7009 0.
582.657 109.523 0.
559.685 156.811 0.
542.548 116.77 0.
525.411 76.7277 0.
555.529 84.4904 0.
582.394 147.18 0.
609.258 209.87 0.
746.422 312.747 0.
766.739 360.086 0.
787.055 407.425 0.
1002.58 509.46 0.
1003.28 511.117 0.
421.697 263.227 0.
659.362 371.204 0.
662.552 378.677 0.
672.559 374.08 0.
640.784 299.93 0.
609.008 225.779 0.
534.297 149.067 0.
521.109 118.32 0.
507.921 87.573 0.
477.246 44.5931 0.
460.196 4.7648 0.
443.146 -35.0635 0.
387.799 -90.4013 0.
371.458 -128.728 0.
299.805 -186.859 0.
301.231 -183.477 0.
302.656 -180.094 0.
331.923 -156.847 0.
345.904 -124.171 0.
359.885 -91.495 0.
530.209 -3.09527 0.
533.196 3.84488 0.
536.183 10.785 0.
626.375 -27.3237 0.
574.725 -147.917 0.
362.839 -335.702 0.
193.627 -380.741 0.
208.031 -347.06 0.
125.2 -354.007 0.
141.956 -314.856 0.
158.711 -275.705 0.
237.865 -192.857 0.
274.332 -107.704 0.
310.799 -22.5503 0.
325.053 -39.2299 0.
289.869 -121.119 0.
254.686 -203.008 0.
242.354 -187.885 0.
257.911 -151.383 0.
137.089 -181.31 0.
118.772 -223.961 0.
100.455 -266.611 0.
151.621 -242.243 0.
189.139 -154.644 0.
226.656 -67.0455 0.
165.271 -64.1896 0.
163.789 -67.5297 0.
162.307 -70.8698 0.
-25.2278 -96.1688 0.
11.5467 -10.2079 0.
-280.775 -485.436 0.
94.8417 -280.213 0.
122.176 -216.595 0.
141.028 -156.157 0.
168.511 -92.0571 0.
195.994 -27.9576 0.
87.6451 -63.3269 0.
65.1263 -115.979 0.
42.6075 -168.631 0.
137.532 -154.851 0.
127.712 -177.855 0.
117.891 -200.859 0.
329.27 -39.8388 0.
373.295 62.683 0.
235.18 74.1775 0.
207.348 9.04677 0.
179.516 -56.084 0.
337.506 -47.8372 0.
299.4 -136.805 0.
261.293 -225.773 0.
211.443 -263.414 0.
228.137 -224.524 0.
244.832 -185.635 0.
276.414 -162.367 0.
277.89 -158.99 0.
350.879 -124.901 0.
682.448 34.0337 0.
691.733 55.5599 0.
450.784 -36.7503 0.
442.922 -54.9564 0.
435.059 -73.1624 0.
321.161 -158.699 0.
287.249 -237.897 0.
253.336 -317.095 0.
304.053 -267.149 0.
344.03 -173.761 0.
384.008 -80.3729 0.
573.476 69.358 0.
608.924 152.172 0.
577.208 195.868 0.
560.054 155.84 0.
542.9 115.812 0.
612.066 140.073 0.
638.933 202.764 0.
665.799 265.455 0.
758.435 349.3 0.
778.748 396.639 0.
799.061 443.977 0.
1119.4 590.964 0.
1120.11 592.62 0.
503.167 329.58 0.
580.94 368.995 0.
584.146 376.466 0.
708.344 420.786 0.
676.567 346.634 0.
644.79 272.482 0.
591.348 204.982 0.
578.159 174.228 0.
564.971 143.475 0.
503.467 87.3254 0.
486.416 47.5083 0.
469.364 7.6912 0.
469.095 -24.1385 0.
452.757 -62.4648 0.
235.188 -183.159 0.
236.61 -179.77 0.
238.031 -176.38 0.
379.269 -105.138 0.
393.256 -72.466 0.
407.243 -39.7938 0.
474.264 4.31056 0.
477.241 11.2575 0.
480.217 18.2045 0.
736.484 51.3248 0.
684.824 -69.2594 0.
335.193 -316.179 0.
141.565 -371.7 0.
155.982 -338.036 0.
142.651 -315.07 0.
159.406 -275.92 0.
176.16 -236.771 0.
215.421 -171.018 0.
251.883 -85.8653 0.
288.344 -0.712922 0.
234.086 -46.7963 0.
198.905 -128.683 0.
163.723 -210.57 0.
203.835 -172.906 0.
219.386 -136.395 0.
175.094 -133.591 0.
156.762 -176.241 0.
138.43 -218.892 0.
139.23 -216.135 0.
176.734 -128.537 0.
214.237 -40.938 0.
143.187 -42.1881 0.
141.702 -45.5377 0.
140.217 -48.8873 0.
-48.0826 -74.5268 0.
-11.3272 11.4422 0.
-12.9124 188.665 0.
147.698 168.69 0.
65.2307 -23.6949 0.
278.707 63.9096 0.
234.445 -39.5993 0.
195.587 -130.497 0.
52.499 -139.079 0.
95.2346 -39.682 0.
102.691 -22.6905 0.
217.19 1.51497 0.
205.194 -26.6123 0.
173.536 -100.582 0.
307.697 -31.1354 0.
311.942 -21.3999 0.
46.2307 -122.77 0.
68.9691 -69.6748 0.
102.498 8.54887 0.
412.346 179.485 0.
350.616 35.3534 0.
212.896 -286.07 0.
256.26 -217.356 0.
375.589 60.9313 0.
405.167 129.786 0.
186.531 -258.606 0.
148.326 -348.019 0.
372.815 -92.0267 0.
814.457 218.914 0.
757.83 86.892 0.
394.953 -238.828 0.
351.196 -340.736 0.
368.002 -301.397 0.
296.979 -165.384 0.
411.649 102.123 0.
502.591 314.268 0.
525.187 324.076 0.
470.43 196.581 0.
395.714 22.524 0.
578.16 61.6693 0.
561.572 23.0636 0.
477.73 -36.6421 0.
472.225 -49.4155 0.
476.612 -39.113 0.
600.438 36.9687 0.
608.119 54.9237 0.
608.325 55.442 0.
607.708 4.97337 0.
556.004 -115.726 0.
483.59 -284.742 0.
927.779 -48.6446 0.
982.119 78.0103 0.
351.135 -80.3423 0.
318.043 -64.3174 0.
309.305 -84.8614 0.
541.971 -3.77373 0.
571.547 65.1235 0.
606.474 146.504 0.
628.209 216.925 0.
658.941 288.596 0.
701.544 387.964 0.
579.153 246.221 0.
491.723 42.1563 0.
409.974 -148.65 0.
524.185 -17.5439 0.
574.138 98.8639 0.
275.107 60.5214 0.
327.017 181.492 0.
324.48 175.489 0.
491.13 98.4321 0.
338.618 -257.368 0.
259.779 -441.291 0.
268.879 -338.059 0.
357.56 -131.175 0.
376.992 -85.852 0.
820.337 72.0725 0.
718.627 -165.699 0.
168.851 -617.737 0.
96.6661 -346.68 0.
260.149 34.9266 0.
245.413 -77.0004 0.
181.465 -226.049 0.
167.981 -257.32 0.
316.247 138.916 0.
430.196 404.689 0.
427.863 399.097 0.
254.488 204.686 0.
198.417 73.8516 0.
175.204 19.6889 0.
230.16 -8.21628 0.
215.886 -41.4162 0.
254.578 11.881 0.
299.105 115.89 0.
291.419 98.0343 0.
202.359 -13.3294 0.
170.025 -88.5719 0.
166.833 -95.8417 0.
129.045 -0.15712 0.
202.85 171.856 0.
125.918 -7.87813 0.
-54.9225 -13.5298 0.
88.5638 321.199 0.
-182.535 -91.0148 0.
81.3602 -23.3668 0.
58.8847 -76.0148 0.
159.39 -62.1308 0.
172.738 -31.0201 0.
186.087 0.0904715 0.
139.344 -31.5543 0.
107.796 -105.207 0.
76.247 -178.859 0.
157.371 -166.476 0.
156.145 -169.359 0.
154.92 -172.242 0.
316.301 -40.9557 0.
353.781 46.326 0.
123.326 7.21722 0.
100.945 -44.8843 0.
78.5639 -96.9857 0.
229.157 -67.119 0.
218.895 -91.1512 0.
208.633 -115.183 0.
274.377 -76.6317 0.
293.636 -31.8689 0.
312.894 12.8939 0.
296.712 -56.852 0.
247.944 -170.883 0.
451.455 -176.994 0.
631.167 -99.1784 0.
631.997 -97.1792 0.
387.836 -184.451 0.
426.767 -93.7053 0.
465.698 -2.95978 0.
372.786 7.03563 0.
382.437 29.5813 0.
392.089 52.127 0.
447.828 60.5189 0.
430.661 20.3018 0.
413.494 -19.9154 0.
503.847 -1.57412 0.
493.906 -24.8187 0.
532.497 -23.8034 0.
540.178 -5.87029 0.
547.858 12.0628 0.
628.831 54.3434 0.
625.297 46.0908 0.
621.762 37.8383 0.
638.508 48.1037 0.
644.423 62.002 0.
650.339 75.9003 0.
947.084 237.569 0.
968.88 288.322 0.
99.3468 -42.9154 0.
571.929 140.476 0.
561.976 117.065 0.
548.026 86.8364 0.
525.538 34.2793 0.
503.05 -18.2777 0.
473.424 -49.6492 0.
479.237 -36.1877 0.
485.049 -22.7262 0.
388.068 -89.0374 0.
366.045 -140.481 0.
344.023 -191.924 0.
467.165 -74.1246 0.
507.805 20.7904 0.
437.129 62.4636 0.
453.337 100.207 0.
469.544 137.949 0.
457.038 119.459 0.
405.808 -0.105503 0.
354.578 -119.67 0.
367.079 -174.448 0.
350.732 -212.616 0.
334.386 -250.784 0.
673.952 -66.5927 0.
704.227 4.10399 0.
444.576 -49.497 0.
227.898 -107.871 0.
245.927 -65.9791 0.
193.185 -68.1689 0.
180.854 -96.85 0.
168.523 -125.531 0.
165.724 -113.197 0.
195.292 -44.3097 0.
224.859 24.5772 0.
147.793 -12.3425 0.
131.361 -50.7247 0.
114.93 -89.1069 0.
258.059 -45.6257 0.
248.848 -67.0111 0.
235.478 -91.9625 0.
220.371 -126.972 0.
205.264 -161.982 0.
5.32618 -236.143 0.
50.9998 -129.262 0.
96.6734 -22.3813 0.
46.6455 -7.9727 0.
44.9747 -11.7679 0.
43.3039 -15.563 0.
-71.5049 -60.3311 0.
-68.6801 -53.8017 0.
-80.3622 -15.7988 0.
117.72 23.6235 0.
95.2639 -29.0402 0.
95.9209 -57.8639 0.
109.256 -26.7367 0.
122.591 4.39047 0.
205.413 28.1763 0.
173.864 -45.4755 0.
142.315 -119.127 0.
189.25 -121.409 0.
188.014 -124.271 0.
186.777 -127.134 0.
348.59 4.4111 0.
386.081 91.6803 0.
165.369 56.6354 0.
142.971 4.55656 0.
120.573 -47.5223 0.
150.955 -69.2341 0.
140.673 -93.2417 0.
130.391 -117.249 0.
239.212 -60.2767 0.
258.487 -15.5234 0.
277.761 29.2298 0.
342.767 -5.63242 0.
293.994 -119.668 0.
621.462 -72.6833 0.
588.882 -85.9177 0.
589.681 -83.8973 0.
367.119 -161.872 0.
406.041 -71.1353 0.
444.964 19.6012 0.
391.347 46.3579 0.
401.001 68.9048 0.
410.655 91.4518 0.
507.882 117.715 0.
490.74 77.4711 0.
473.598 37.2268 0.
462.889 12.3977 0.
452.953 -10.865 0.
608.799 40.3513 0.
616.482 58.2891 0.
624.164 76.2269 0.
671.482 104.057 0.
667.951 95.8048 0.
664.421 87.553 0.
670.151 93.0556 0.
676.055 106.97 0.
681.959 120.884 0.
836.61 221.618 0.
858.428 272.371 0.
115.366 -4.64249 0.
792.411 266.451 0.
782.457 243.056 0.
524.203 108.025 0.
501.716 55.4721 0.
479.229 2.91883 0.
439.851 -32.5013 0.
445.665 -19.056 0.
451.48 -5.61078 0.
346.791 -75.3838 0.
324.812 -126.853 0.
302.833 -178.323 0.
443.336 -52.7405 0.
484.005 42.159 0.
651.3 185.672 0.
667.508 223.42 0.
683.715 261.168 0.
420.435 135.097 0.
369.2 15.5548 0.
317.966 -103.988 0.
417.974 -121.178 0.
401.634 -159.349 0.
385.294 -197.52 0.
582.606 -74.361 0.
612.897 -3.65697 0.
-108.953 -255.165 0.
280.433 -53.7572 0.
298.497 -11.8876 0.
141.007 -59.1857 0.
128.66 -87.8413 0.
116.312 -116.497 0.
130.191 -96.9783 0.
159.767 -28.1 0.
189.343 40.7783 0.
147.556 18.9171 0.
131.145 -19.4814 0.
114.733 -57.88 0.
328.766 16.3489 0.
319.556 -5.02421 0.
282.614 -40.3935 0.
267.479 -75.3772 0.
252.345 -110.361 0.
-102.719 -251.084 0.
-57.0769 -144.179 0.
-11.4349 -37.2752 0.
-33.6302 -10.9041 0.
-35.3181 -14.6774 0.
-37.006 -18.4507 0.
-50.5378 -19.956 0.
-47.6898 -13.4342 0.
