# vtk DataFile Version 2.0
test grain
ASCII
DATASET UNSTRUCTURED_GRID
POINTS 5000 float
0.49987 0.00100173 0.
0.50187 0.00100167 0.
0.50387 0.00100163 0.
0.50587 0.00100157 0.
0.50787 0.0010015 0.
0.509871 0.00100142 0.
0.511871 0.00100119 0.
0.513872 0.00100074 0.
0.515873 0.00100029 0.
0.517874 0.00100028 0.
0.519874 0.00100053 0.
0.521875 0.00100079 0.
0.523874 0.00100081 0.
0.525874 0.00100078 0.
0.527873 0.00100081 0.
0.529872 0.00100135 0.
0.531871 0.0010019 0.
0.53387 0.00100201 0.
0.535871 0.00100111 0.
0.537871 0.00100021 0.
0.539872 0.00100004 0.
0.541873 0.00100056 0.
0.543873 0.00100108 0.
0.545873 0.00100136 0.
0.547872 0.00100155 0.
0.549872 0.00100173 0.
0.551867 0.00100213 0.
0.553863 0.00100254 0.
0.555858 0.00100282 0.
0.557854 0.00100257 0.
0.559849 0.00100232 0.
0.561844 0.00100232 0.
0.563839 0.00100265 0.
0.565834 0.00100297 0.
0.56783 0.00100248 0.
0.569825 0.00100149 0.
0.57182 0.00100051 0.
0.573809 0.00100156 0.
0.575797 0.001003 0.
0.577785 0.00100442 0.
0.579769 0.00100518 0.
0.581753 0.00100594 0.
0.583736 0.00100642 0.
0.585717 0.00100606 0.
0.587697 0.00100571 0.
0.589676 0.0010044 0.
0.591655 0.00100221 0.
0.593634 0.00100003 0.
0.595723 0.000999742 0.
0.597859 0.000999738 0.
0.600001 0.000999728 0.
0.602137 0.000999738 0.
0.604273 0.000999744 0.
0.606362 0.00100005 0.
0.608341 0.00100213 0.
0.61032 0.00100422 0.
0.6123 0.00100547 0.
0.614282 0.00100584 0.
0.616264 0.00100622 0.
0.618248 0.00100608 0.
0.620234 0.00100581 0.
0.62222 0.00100554 0.
0.624205 0.00100491 0.
0.62619 0.00100424 0.
0.628177 0.00100343 0.
0.630171 0.00100199 0.
0.632166 0.00100055 0.
0.634161 0.00100003 0.
0.636159 0.00100098 0.
0.638157 0.00100192 0.
0.640153 0.0010023 0.
0.642149 0.00100235 0.
0.644144 0.00100239 0.
0.64614 0.00100246 0.
0.648135 0.00100255 0.
0.65013 0.00100263 0.
0.65213 0.00100207 0.
0.65413 0.00100151 0.
0.65613 0.00100097 0.
0.65813 0.0010005 0.
0.660129 0.00100003 0.
0.66213 0.0010002 0.
0.664131 0.00100102 0.
0.666132 0.00100185 0.
0.668131 0.00100214 0.
0.67013 0.00100224 0.
0.672129 0.00100234 0.
0.674128 0.00100176 0.
0.676127 0.00100113 0.
0.678127 0.00100066 0.
0.680127 0.00100102 0.
0.682127 0.00100138 0.
0.684127 0.00100158 0.
0.686127 0.00100149 0.
0.688126 0.0010014 0.
0.690126 0.00100129 0.
0.692127 0.00100119 0.
0.694128 0.0010011 0.
0.696127 0.00100129 0.
0.698126 0.00100153 0.
0.499871 0.00300517 0.
0.501871 0.00300501 0.
0.503871 0.00300488 0.
0.505871 0.00300473 0.
0.507871 0.0030045 0.
0.509872 0.00300426 0.
0.511872 0.00300358 0.
0.513872 0.00300222 0.
0.515873 0.00300087 0.
0.517874 0.00300084 0.
0.519875 0.0030016 0.
0.521875 0.00300236 0.
0.523875 0.00300242 0.
0.525874 0.00300235 0.
0.527873 0.00300242 0.
0.529873 0.00300405 0.
0.531872 0.00300569 0.
0.533871 0.00300604 0.
0.535869 0.00300333 0.
0.537868 0.00300062 0.
0.539869 0.00300011 0.
0.541873 0.00300168 0.
0.543877 0.00300325 0.
0.545876 0.00300409 0.
0.547874 0.00300464 0.
0.549872 0.00300519 0.
0.551868 0.0030064 0.
0.553864 0.00300762 0.
0.555859 0.00300845 0.
0.557855 0.00300771 0.
0.559851 0.00300697 0.
0.561847 0.00300698 0.
0.563842 0.00300795 0.
0.565838 0.00300892 0.
0.567833 0.00300743 0.
0.569829 0.00300448 0.
0.571824 0.00300152 0.
0.573814 0.00300468 0.
0.575802 0.003009 0.
0.57779 0.00301327 0.
0.579776 0.00301555 0.
0.581761 0.00301783 0.
0.583745 0.00301922 0.
0.585725 0.00301817 0.
0.587705 0.00301712 0.
0.589685 0.00301316 0.
0.591668 0.00300659 0.
0.59365 0.00300003 0.
0.595736 0.00299918 0.
0.597866 0.00299919 0.
0.599999 0.00299918 0.
0.60213 0.00299919 0.
0.60426 0.00299919 0.
0.606347 0.0030001 0.
0.608329 0.00300636 0.
0.610311 0.00301264 0.
0.612293 0.00301637 0.
0.614274 0.00301751 0.
0.616255 0.00301864 0.
0.61824 0.00301824 0.
0.620227 0.00301744 0.
0.622213 0.00301664 0.
0.6242 0.00301474 0.
0.626186 0.00301273 0.
0.628174 0.00301029 0.
0.630168 0.00300597 0.
0.632161 0.00300165 0.
0.634157 0.00300009 0.
0.636156 0.00300292 0.
0.638156 0.00300576 0.
0.640153 0.00300692 0.
0.642149 0.00300705 0.
0.644146 0.00300718 0.
0.646141 0.00300738 0.
0.648135 0.00300765 0.
0.65013 0.0030079 0.
0.652126 0.00300622 0.
0.654123 0.00300455 0.
0.656122 0.00300289 0.
0.658128 0.00300148 0.
0.660134 0.00300007 0.
0.662136 0.0030006 0.
0.664135 0.00300307 0.
0.666133 0.00300554 0.
0.668132 0.00300642 0.
0.67013 0.00300673 0.
0.672129 0.00300703 0.
0.674127 0.00300529 0.
0.676126 0.00300339 0.
0.678125 0.00300196 0.
0.680126 0.00300305 0.
0.682126 0.00300414 0.
0.684126 0.00300472 0.
0.686126 0.00300445 0.
0.688126 0.00300418 0.
0.690126 0.00300387 0.
0.692126 0.00300358 0.
0.694127 0.00300329 0.
0.696126 0.00300388 0.
0.698126 0.00300461 0.
0.499872 0.0050086 0.
0.501872 0.00500835 0.
0.503872 0.00500812 0.
0.505872 0.00500791 0.
0.507872 0.0050075 0.
0.509872 0.00500709 0.
0.511873 0.00500596 0.
0.513873 0.00500371 0.
0.515873 0.00500146 0.
0.517873 0.0050014 0.
0.519875 0.00500267 0.
0.521876 0.00500394 0.
0.523875 0.00500403 0.
0.525874 0.00500392 0.
0.527873 0.00500402 0.
0.529873 0.00500674 0.
0.531873 0.00500947 0.
0.533872 0.00501006 0.
0.535868 0.00500556 0.
0.537864 0.00500106 0.
0.539866 0.00500019 0.
0.541873 0.00500281 0.
0.543881 0.00500543 0.
0.54588 0.00500683 0.
0.547877 0.00500774 0.
0.549873 0.00500866 0.
0.551869 0.00501065 0.
0.553864 0.00501269 0.
0.55586 0.00501407 0.
0.557857 0.00501284 0.
0.559853 0.00501161 0.
0.561849 0.00501164 0.
0.563845 0.00501326 0.
0.565842 0.00501489 0.
0.567837 0.00501237 0.
0.569833 0.00500745 0.
0.571828 0.00500253 0.
0.573818 0.0050078 0.
0.575806 0.00501501 0.
0.577795 0.00502213 0.
0.579782 0.00502591 0.
0.581769 0.0050297 0.
0.583754 0.00503198 0.
0.585733 0.00503024 0.
0.587713 0.00502855 0.
0.589695 0.00502194 0.
0.59168 0.0050109 0.
0.593666 0.00499996 0.
0.595749 0.00499859 0.
0.597873 0.00499892 0.
0.6 0.00499965 0.
0.602124 0.00499893 0.
0.604248 0.0049986 0.
0.606331 0.00500009 0.
0.608317 0.00501054 0.
0.610302 0.00502103 0.
0.612285 0.00502725 0.
0.614266 0.00502913 0.
0.616247 0.00503102 0.
0.618232 0.00503038 0.
0.620219 0.00502905 0.
0.622206 0.00502775 0.
0.624194 0.00502456 0.
0.626182 0.00502121 0.
0.628171 0.00501715 0.
0.630164 0.00500995 0.
0.632157 0.00500276 0.
0.634153 0.00500014 0.
0.636154 0.00500486 0.
0.638154 0.00500957 0.
0.640153 0.00501155 0.
0.64215 0.00501176 0.
0.644147 0.00501198 0.
0.646142 0.00501229 0.
0.648136 0.00501273 0.
0.65013 0.00501318 0.
0.652123 0.00501039 0.
0.654115 0.0050076 0.
0.656113 0.00500482 0.
0.658126 0.00500248 0.
0.660139 0.00500013 0.
0.662143 0.00500105 0.
0.664139 0.00500514 0.
0.666135 0.00500923 0.
0.668132 0.0050107 0.
0.67013 0.00501121 0.
0.672128 0.00501172 0.
0.674126 0.00500882 0.
0.676125 0.00500566 0.
0.678124 0.00500328 0.
0.680124 0.00500509 0.
0.682125 0.0050069 0.
0.684125 0.00500785 0.
0.686125 0.0050074 0.
0.688125 0.00500695 0.
0.690125 0.00500645 0.
0.692125 0.00500596 0.
0.694125 0.00500548 0.
0.696126 0.00500648 0.
0.698127 0.00500769 0.
0.499874 0.00701171 0.
0.501874 0.00701157 0.
0.503873 0.00701145 0.
0.505873 0.00701127 0.
0.507874 0.00701067 0.
0.509874 0.00701007 0.
0.511875 0.00700956 0.
0.513874 0.00700914 0.
0.515874 0.00700873 0.
0.517875 0.00700875 0.
0.519875 0.00700906 0.
0.521876 0.00700937 0.
0.523876 0.00700997 0.
0.525876 0.0070106 0.
0.527875 0.0070113 0.
0.529875 0.00701322 0.
0.531875 0.00701513 0.
0.533874 0.00701663 0.
0.535871 0.007017 0.
0.537869 0.00701738 0.
0.53987 0.00701705 0.
0.541874 0.00701608 0.
0.543877 0.00701513 0.
0.545877 0.00701508 0.
0.547875 0.00701536 0.
0.549873 0.00701563 0.
0.55187 0.00701714 0.
0.553866 0.00701871 0.
0.555863 0.00702003 0.
0.55786 0.0070204 0.
0.559857 0.00702076 0.
0.561854 0.00702129 0.
0.56385 0.00702197 0.
0.565847 0.00702265 0.
0.567843 0.00702294 0.
0.569838 0.00702303 0.
0.571833 0.00702312 0.
0.573824 0.00702747 0.
0.575814 0.00703265 0.
0.577804 0.00703766 0.
0.579794 0.0070395 0.
0.581784 0.00704136 0.
0.583773 0.00704231 0.
0.585759 0.00704068 0.
0.587745 0.00703911 0.
0.589733 0.00702967 0.
0.591723 0.00701253 0.
0.593713 0.00699551 0.
0.595785 0.00701616 0.
0.597892 0.00705241 0.
0.6 0.00708965 0.
0.602105 0.00705321 0.
0.604211 0.00701772 0.
0.606283 0.00699752 0.
0.608273 0.00701378 0.
0.610264 0.00703011 0.
0.612253 0.00703903 0.
0.61424 0.00704052 0.
0.616228 0.00704201 0.
0.618217 0.00704119 0.
0.620207 0.0070397 0.
0.622197 0.00703822 0.
0.624187 0.00703397 0.
0.626177 0.00702954 0.
0.628168 0.00702548 0.
0.630162 0.00702369 0.
0.632156 0.00702193 0.
0.634152 0.00702094 0.
0.63615 0.00702099 0.
0.638149 0.00702105 0.
0.640147 0.0070212 0.
0.642144 0.00702148 0.
0.644142 0.00702175 0.
0.646138 0.00702094 0.
0.648134 0.00701998 0.
0.65013 0.0070191 0.
0.652126 0.00701904 0.
0.654122 0.00701898 0.
0.656121 0.00701959 0.
0.658127 0.00702209 0.
0.660133 0.00702461 0.
0.662135 0.00702463 0.
0.664132 0.007022 0.
0.66613 0.00701939 0.
0.668128 0.00701815 0.
0.670127 0.00701749 0.
0.672126 0.00701684 0.
0.674125 0.00701429 0.
0.676124 0.00701161 0.
0.678124 0.00700943 0.
0.680124 0.00700999 0.
0.682125 0.00701055 0.
0.684125 0.00701083 0.
0.686125 0.00701062 0.
0.688125 0.0070104 0.
0.690125 0.0070102 0.
0.692125 0.00701003 0.
0.694125 0.00700986 0.
0.696125 0.00701047 0.
0.698126 0.00701121 0.
0.499876 0.00901473 0.
0.501875 0.00901479 0.
0.503875 0.00901478 0.
0.505874 0.00901464 0.
0.507875 0.00901384 0.
0.509876 0.00901305 0.
0.511876 0.00901315 0.
0.513876 0.00901457 0.
0.515876 0.009016 0.
0.517876 0.00901609 0.
0.519876 0.00901544 0.
0.521876 0.00901479 0.
0.523876 0.00901591 0.
0.525877 0.00901728 0.
0.527877 0.00901857 0.
0.529877 0.00901968 0.
0.531876 0.0090208 0.
0.533876 0.0090232 0.
0.535875 0.00902844 0.
0.537875 0.0090337 0.
0.539874 0.0090339 0.
0.541874 0.00902936 0.
0.543873 0.00902484 0.
0.545873 0.00902335 0.
0.547873 0.00902297 0.
0.549873 0.0090226 0.
0.55187 0.00902364 0.
0.553868 0.00902473 0.
0.555865 0.009026 0.
0.557863 0.00902796 0.
0.559861 0.00902991 0.
0.561858 0.00903093 0.
0.563855 0.00903067 0.
0.565852 0.00903042 0.
0.567848 0.00903351 0.
0.569844 0.0090386 0.
0.571839 0.00904371 0.
0.573831 0.00904715 0.
0.575822 0.0090503 0.
0.577813 0.00905318 0.
0.579805 0.0090531 0.
0.581798 0.00905303 0.
0.583791 0.0090526 0.
0.585785 0.00905111 0.
0.587778 0.00904966 0.
0.589772 0.00903722 0.
0.591765 0.00901393 0.
0.593759 0.00899077 0.
0.595821 0.0090348 0.
0.59791 0.00910642 0.
0.6 0.0091796 0.
0.602087 0.00910798 0.
0.604174 0.00903787 0.
0.606235 0.00899473 0.
0.60823 0.00901686 0.
0.610225 0.00903906 0.
0.61222 0.00905082 0.
0.614214 0.0090519 0.
0.616208 0.00905299 0.
0.618201 0.00905201 0.
0.620194 0.00905033 0.
0.622187 0.00904868 0.
0.62418 0.0090434 0.
0.626172 0.00903789 0.
0.628165 0.0090338 0.
0.63016 0.00903742 0.
0.632155 0.00904108 0.
0.634151 0.00904174 0.
0.636147 0.00903713 0.
0.638143 0.00903254 0.
0.64014 0.00903088 0.
0.642138 0.00903121 0.
0.644136 0.00903153 0.
0.646134 0.0090296 0.
0.648132 0.00902724 0.
0.65013 0.00902502 0.
0.65213 0.00902769 0.
0.654129 0.00903036 0.
0.656129 0.00903437 0.
0.658129 0.0090417 0.
0.660128 0.00904906 0.
0.662127 0.00904825 0.
0.664126 0.0090389 0.
0.666125 0.00902957 0.
0.668124 0.0090256 0.
0.670124 0.00902378 0.
0.672124 0.00902195 0.
0.674124 0.00901975 0.
0.676124 0.00901755 0.
0.678124 0.00901557 0.
0.680124 0.00901488 0.
0.682124 0.0090142 0.
0.684125 0.0090138 0.
0.686125 0.00901383 0.
0.688124 0.00901386 0.
0.690124 0.00901395 0.
0.692125 0.00901409 0.
0.694125 0.00901423 0.
0.696125 0.00901446 0.
0.698125 0.00901476 0.
0.499877 0.0110179 0.
0.501877 0.0110177 0.
0.503876 0.0110173 0.
0.505876 0.011017 0.
0.507876 0.0110164 0.
0.509877 0.0110159 0.
0.511878 0.0110163 0.
0.513878 0.0110181 0.
0.515878 0.01102 0.
0.517878 0.0110201 0.
0.519878 0.0110192 0.
0.521877 0.0110184 0.
0.523878 0.0110197 0.
0.525879 0.0110214 0.
0.527879 0.011023 0.
0.529878 0.0110239 0.
0.531878 0.0110248 0.
0.533877 0.0110274 0.
0.535878 0.0110338 0.
0.537878 0.0110402 0.
0.539877 0.0110406 0.
0.541876 0.0110355 0.
0.543874 0.0110303 0.
0.545874 0.0110284 0.
0.547874 0.0110277 0.
0.549874 0.0110269 0.
0.551872 0.0110279 0.
0.553871 0.0110289 0.
0.555869 0.0110301 0.
0.557867 0.0110326 0.
0.559866 0.011035 0.
0.561864 0.0110364 0.
0.563861 0.0110364 0.
0.565858 0.0110364 0.
0.567855 0.0110403 0.
0.569852 0.0110465 0.
0.571848 0.0110527 0.
0.573842 0.0110561 0.
0.575835 0.0110589 0.
0.577828 0.0110613 0.
0.579824 0.0110599 0.
0.58182 0.0110585 0.
0.583817 0.0110568 0.
0.585816 0.0110542 0.
0.587815 0.0110517 0.
0.589814 0.0110389 0.
0.591813 0.011016 0.
0.593812 0.0109931 0.
0.595863 0.0110398 0.
0.597933 0.011111 0.
0.600003 0.0111811 0.
0.602069 0.0111128 0.
0.604135 0.0110436 0.
0.606184 0.0109982 0.
0.608184 0.0110199 0.
0.610184 0.0110415 0.
0.612184 0.0110534 0.
0.614184 0.0110553 0.
0.616183 0.0110572 0.
0.61818 0.0110569 0.
0.620176 0.0110558 0.
0.622172 0.0110546 0.
0.624166 0.0110492 0.
0.626161 0.0110434 0.
0.628156 0.0110394 0.
0.630153 0.0110448 0.
0.632149 0.0110502 0.
0.634145 0.0110514 0.
0.636141 0.0110453 0.
0.638137 0.0110392 0.
0.640135 0.0110369 0.
0.642133 0.0110371 0.
0.644131 0.0110373 0.
0.646129 0.0110349 0.
0.648128 0.0110319 0.
0.650128 0.0110292 0.
0.652128 0.0110332 0.
0.654129 0.0110372 0.
0.656129 0.0110424 0.
0.658126 0.0110502 0.
0.660124 0.0110581 0.
0.662122 0.0110569 0.
0.664122 0.0110462 0.
0.666122 0.0110355 0.
0.668122 0.0110306 0.
0.670122 0.0110281 0.
0.672122 0.0110256 0.
0.674122 0.0110236 0.
0.676123 0.0110216 0.
0.678123 0.0110196 0.
0.680123 0.0110185 0.
0.682123 0.0110173 0.
0.684123 0.0110166 0.
0.686123 0.0110167 0.
0.688123 0.0110168 0.
0.690123 0.011017 0.
0.692123 0.0110173 0.
0.694124 0.0110176 0.
0.696124 0.0110177 0.
0.698124 0.0110179 0.
0.499878 0.0130212 0.
0.501878 0.0130201 0.
0.503878 0.0130192 0.
0.505878 0.0130184 0.
0.507878 0.0130184 0.
0.509878 0.0130184 0.
0.511878 0.0130188 0.
0.513879 0.0130198 0.
0.515879 0.0130207 0.
0.51788 0.0130208 0.
0.51988 0.0130204 0.
0.52188 0.0130201 0.
0.52388 0.0130214 0.
0.52588 0.013023 0.
0.52788 0.0130245 0.
0.52988 0.0130257 0.
0.531879 0.013027 0.
0.533879 0.0130291 0.
0.535879 0.0130332 0.
0.537879 0.0130372 0.
0.53988 0.0130376 0.
0.541879 0.0130346 0.
0.543879 0.0130317 0.
0.545879 0.0130303 0.
0.547878 0.0130294 0.
0.549878 0.0130286 0.
0.551876 0.0130298 0.
0.553875 0.0130311 0.
0.555873 0.0130324 0.
0.557872 0.0130343 0.
0.559871 0.0130361 0.
0.56187 0.0130377 0.
0.563868 0.0130391 0.
0.565865 0.0130405 0.
0.567864 0.0130433 0.
0.569862 0.013047 0.
0.57186 0.0130507 0.
0.573857 0.0130547 0.
0.575853 0.0130588 0.
0.57785 0.0130623 0.
0.579849 0.0130602 0.
0.581848 0.013058 0.
0.583849 0.0130551 0.
0.585852 0.0130503 0.
0.587856 0.0130457 0.
0.589861 0.0130351 0.
0.591867 0.013019 0.
0.593872 0.0130029 0.
0.59591 0.0130304 0.
0.597959 0.0130722 0.
0.600007 0.0131132 0.
0.602051 0.013074 0.
0.604095 0.0130343 0.
0.606129 0.0130081 0.
0.608135 0.0130229 0.
0.610141 0.0130377 0.
0.612146 0.0130472 0.
0.614149 0.013051 0.
0.616152 0.0130549 0.
0.618153 0.0130561 0.
0.620152 0.0130561 0.
0.622151 0.0130562 0.
0.624148 0.0130514 0.
0.626145 0.0130462 0.
0.628141 0.0130423 0.
0.63014 0.013046 0.
0.632138 0.0130497 0.
0.634136 0.0130504 0.
0.636134 0.0130457 0.
0.638132 0.0130411 0.
0.64013 0.0130392 0.
0.642128 0.0130392 0.
0.644126 0.0130392 0.
0.646125 0.0130369 0.
0.648124 0.0130341 0.
0.650123 0.0130315 0.
0.652123 0.0130355 0.
0.654123 0.0130396 0.
0.656122 0.0130437 0.
0.658121 0.0130482 0.
0.66012 0.0130526 0.
0.66212 0.0130515 0.
0.66412 0.0130443 0.
0.66612 0.0130372 0.
0.66812 0.0130332 0.
0.67012 0.0130306 0.
0.67212 0.0130279 0.
0.67412 0.0130257 0.
0.676121 0.0130236 0.
0.678121 0.0130216 0.
0.680122 0.0130207 0.
0.682122 0.0130198 0.
0.684122 0.0130192 0.
0.686122 0.0130193 0.
0.688122 0.0130193 0.
0.690122 0.0130195 0.
0.692122 0.0130197 0.
0.694122 0.0130199 0.
0.696122 0.0130201 0.
0.698121 0.0130204 0.
0.499878 0.0150245 0.
0.501879 0.0150226 0.
0.503879 0.015021 0.
0.50588 0.0150197 0.
0.507879 0.0150203 0.
0.509879 0.015021 0.
0.511879 0.0150214 0.
0.51388 0.0150214 0.
0.515881 0.0150214 0.
0.517881 0.0150215 0.
0.519882 0.0150216 0.
0.521883 0.0150218 0.
0.523882 0.0150231 0.
0.525882 0.0150245 0.
0.527882 0.015026 0.
0.529881 0.0150276 0.
0.53188 0.0150292 0.
0.53388 0.0150309 0.
0.535881 0.0150325 0.
0.537881 0.0150342 0.
0.539882 0.0150346 0.
0.541883 0.0150338 0.
0.543884 0.015033 0.
0.545883 0.0150321 0.
0.547882 0.0150312 0.
0.549881 0.0150302 0.
0.55188 0.0150317 0.
0.553879 0.0150333 0.
0.555878 0.0150347 0.
0.557878 0.015036 0.
0.559877 0.0150372 0.
0.561876 0.015039 0.
0.563874 0.0150417 0.
0.565872 0.0150445 0.
0.567872 0.0150463 0.
0.569872 0.0150474 0.
0.571873 0.0150486 0.
0.573872 0.0150533 0.
0.575872 0.0150586 0.
0.577871 0.0150633 0.
0.579874 0.0150603 0.
0.581877 0.0150574 0.
0.583881 0.0150533 0.
0.585889 0.0150464 0.
0.587896 0.0150396 0.
0.589907 0.0150314 0.
0.59192 0.015022 0.
0.593933 0.0150127 0.
0.595957 0.0150204 0.
0.597984 0.0150333 0.
0.600012 0.0150461 0.
0.602034 0.0150353 0.
0.604055 0.0150245 0.
0.606075 0.0150181 0.
0.608086 0.0150261 0.
0.610098 0.0150341 0.
0.612108 0.0150409 0.
0.614115 0.0150467 0.
0.616122 0.0150525 0.
0.618126 0.0150552 0.
0.620129 0.0150564 0.
0.622131 0.0150577 0.
0.62413 0.0150535 0.
0.626128 0.0150488 0.
0.628127 0.0150452 0.
0.630126 0.0150472 0.
0.632126 0.0150493 0.
0.634126 0.0150493 0.
0.636126 0.0150462 0.
0.638126 0.015043 0.
0.640125 0.0150416 0.
0.642123 0.0150413 0.
0.644121 0.015041 0.
0.64612 0.0150389 0.
0.648119 0.0150362 0.
0.650118 0.0150339 0.
0.652117 0.0150379 0.
0.654116 0.0150419 0.
0.656115 0.0150451 0.
0.658116 0.0150461 0.
0.660116 0.0150472 0.
0.662117 0.0150461 0.
0.664118 0.0150424 0.
0.666119 0.0150388 0.
0.668119 0.0150358 0.
0.670118 0.015033 0.
0.672118 0.0150302 0.
0.674119 0.0150279 0.
0.676119 0.0150256 0.
0.67812 0.0150236 0.
0.68012 0.0150229 0.
0.68212 0.0150223 0.
0.68412 0.0150218 0.
0.68612 0.0150218 0.
0.68812 0.0150218 0.
0.69012 0.0150219 0.
0.69212 0.015022 0.
0.69412 0.0150222 0.
0.69612 0.0150226 0.
0.698119 0.015023 0.
0.49988 0.0170264 0.
0.50188 0.0170249 0.
0.50388 0.0170235 0.
0.505881 0.0170223 0.
0.507881 0.0170222 0.
0.509881 0.0170222 0.
0.511881 0.0170223 0.
0.513882 0.0170227 0.
0.515882 0.0170231 0.
0.517883 0.0170232 0.
0.519884 0.0170232 0.
0.521884 0.0170231 0.
0.523884 0.0170244 0.
0.525884 0.0170258 0.
0.527884 0.0170273 0.
0.529883 0.0170289 0.
0.531883 0.0170305 0.
0.533883 0.017032 0.
0.535884 0.0170331 0.
0.537884 0.0170342 0.
0.539885 0.0170344 0.
0.541886 0.0170339 0.
0.543886 0.0170334 0.
0.545886 0.0170328 0.
0.547886 0.017032 0.
0.549885 0.0170313 0.
0.551884 0.017033 0.
0.553883 0.0170348 0.
0.555883 0.0170365 0.
0.557882 0.0170378 0.
0.559882 0.017039 0.
0.561881 0.0170406 0.
0.56388 0.0170427 0.
0.565879 0.0170448 0.
0.567879 0.0170463 0.
0.56988 0.0170474 0.
0.57188 0.0170486 0.
0.573881 0.0170528 0.
0.575882 0.0170575 0.
0.577884 0.0170615 0.
0.579888 0.0170573 0.
0.581892 0.0170531 0.
0.583897 0.0170482 0.
0.585904 0.0170415 0.
0.587912 0.0170349 0.
0.589921 0.0170273 0.
0.591932 0.0170187 0.
0.593943 0.0170101 0.
0.595963 0.0170152 0.
0.597986 0.0170246 0.
0.600009 0.017034 0.
0.602027 0.0170269 0.
0.604046 0.0170198 0.
0.606062 0.0170161 0.
0.608072 0.0170234 0.
0.610083 0.0170307 0.
0.612092 0.0170371 0.
0.614099 0.0170427 0.
0.616107 0.0170483 0.
0.618112 0.0170515 0.
0.620115 0.0170535 0.
0.622119 0.0170556 0.
0.62412 0.0170523 0.
0.62612 0.0170485 0.
0.62812 0.0170455 0.
0.63012 0.0170467 0.
0.63212 0.017048 0.
0.63412 0.0170481 0.
0.63612 0.0170463 0.
0.63812 0.0170445 0.
0.64012 0.0170433 0.
0.642118 0.0170426 0.
0.644117 0.0170418 0.
0.646116 0.01704 0.
0.648115 0.0170379 0.
0.650114 0.0170359 0.
0.652114 0.017039 0.
0.654113 0.0170421 0.
0.656113 0.0170446 0.
0.658114 0.0170454 0.
0.660114 0.0170463 0.
0.662115 0.0170453 0.
0.664117 0.0170424 0.
0.666118 0.0170394 0.
0.668118 0.0170371 0.
0.670118 0.017035 0.
0.672117 0.017033 0.
0.674118 0.0170299 0.
0.676118 0.0170268 0.
0.678118 0.0170242 0.
0.680118 0.0170242 0.
0.682118 0.0170241 0.
0.684118 0.017024 0.
0.686118 0.0170237 0.
0.688118 0.0170235 0.
0.690118 0.0170236 0.
0.692119 0.0170241 0.
0.694119 0.0170245 0.
0.696118 0.017025 0.
0.698118 0.0170255 0.
0.499881 0.0190284 0.
0.501881 0.0190271 0.
0.503881 0.019026 0.
0.505882 0.0190249 0.
0.507882 0.0190241 0.
0.509882 0.0190234 0.
0.511883 0.0190232 0.
0.513883 0.019024 0.
0.515884 0.0190248 0.
0.517884 0.0190249 0.
0.519885 0.0190247 0.
0.521886 0.0190245 0.
0.523886 0.0190257 0.
0.525886 0.0190271 0.
0.527886 0.0190286 0.
0.529886 0.0190302 0.
0.531886 0.0190319 0.
0.533887 0.0190332 0.
0.535887 0.0190337 0.
0.537888 0.0190342 0.
0.539888 0.0190343 0.
0.541889 0.019034 0.
0.543889 0.0190338 0.
0.545889 0.0190334 0.
0.54789 0.0190329 0.
0.54989 0.0190324 0.
0.551889 0.0190343 0.
0.553888 0.0190364 0.
0.555887 0.0190383 0.
0.557887 0.0190395 0.
0.559886 0.0190408 0.
0.561886 0.0190422 0.
0.563886 0.0190436 0.
0.565886 0.0190451 0.
0.567886 0.0190464 0.
0.569887 0.0190474 0.
0.571888 0.0190486 0.
0.57389 0.0190522 0.
0.575893 0.0190564 0.
0.577896 0.0190598 0.
0.579901 0.0190543 0.
0.581906 0.0190488 0.
0.583912 0.019043 0.
0.58592 0.0190366 0.
0.587927 0.0190303 0.
0.589935 0.0190232 0.
0.591944 0.0190153 0.
0.593953 0.0190074 0.
0.595969 0.0190101 0.
0.597988 0.019016 0.
0.600006 0.0190219 0.
0.602021 0.0190185 0.
0.604036 0.0190151 0.
0.60605 0.019014 0.
0.608059 0.0190206 0.
0.610068 0.0190273 0.
0.612076 0.0190333 0.
0.614084 0.0190387 0.
0.616091 0.0190441 0.
0.618097 0.0190478 0.
0.620102 0.0190506 0.
0.622107 0.0190534 0.
0.624109 0.019051 0.
0.626111 0.0190482 0.
0.628113 0.0190459 0.
0.630114 0.0190463 0.
0.632114 0.0190467 0.
0.634114 0.0190468 0.
0.636114 0.0190464 0.
0.638115 0.019046 0.
0.640114 0.0190451 0.
0.642114 0.0190438 0.
0.644113 0.0190426 0.
0.646112 0.0190411 0.
0.648111 0.0190395 0.
0.65011 0.0190379 0.
0.65211 0.0190401 0.
0.654111 0.0190423 0.
0.656111 0.0190441 0.
0.658112 0.0190447 0.
0.660113 0.0190453 0.
0.662114 0.0190446 0.
0.664115 0.0190423 0.
0.666117 0.01904 0.
0.668117 0.0190384 0.
0.670117 0.0190371 0.
0.672117 0.0190358 0.
0.674117 0.019032 0.
0.676117 0.0190281 0.
0.678117 0.0190248 0.
0.680117 0.0190254 0.
0.682117 0.019026 0.
0.684117 0.0190262 0.
0.686117 0.0190256 0.
0.688116 0.0190251 0.
0.690116 0.0190254 0.
0.692117 0.0190261 0.
0.694118 0.0190269 0.
0.696117 0.0190275 0.
0.698116 0.0190281 0.
0.499883 0.0210305 0.
0.501883 0.0210293 0.
0.503883 0.0210282 0.
0.505884 0.0210272 0.
0.507884 0.021026 0.
0.509885 0.0210248 0.
0.511885 0.0210244 0.
0.513885 0.0210252 0.
0.515886 0.021026 0.
0.517886 0.0210261 0.
0.519887 0.0210258 0.
0.521888 0.0210254 0.
0.523888 0.0210266 0.
0.525888 0.0210281 0.
0.527888 0.0210296 0.
0.529889 0.021031 0.
0.531889 0.0210324 0.
0.53389 0.0210334 0.
0.535891 0.0210336 0.
0.537891 0.0210338 0.
0.539892 0.0210339 0.
0.541892 0.0210339 0.
0.543893 0.0210339 0.
0.545893 0.0210337 0.
0.547894 0.0210334 0.
0.549894 0.021033 0.
0.551894 0.0210352 0.
0.553893 0.0210374 0.
0.555893 0.0210395 0.
0.557892 0.0210406 0.
0.559892 0.0210418 0.
0.561892 0.0210428 0.
0.563893 0.0210435 0.
0.565894 0.0210443 0.
0.567895 0.0210452 0.
0.569896 0.0210463 0.
0.571896 0.0210473 0.
0.5739 0.0210503 0.
0.575904 0.0210535 0.
0.577908 0.021056 0.
0.579914 0.0210501 0.
0.58192 0.0210442 0.
0.583926 0.0210382 0.
0.585933 0.0210323 0.
0.587939 0.0210264 0.
0.589947 0.0210199 0.
0.591954 0.0210129 0.
0.593961 0.0210058 0.
0.595975 0.0210067 0.
0.597989 0.02101 0.
0.600004 0.0210132 0.
0.602017 0.0210124 0.
0.604029 0.0210115 0.
0.60604 0.0210122 0.
0.608048 0.0210179 0.
0.610056 0.0210237 0.
0.612064 0.0210291 0.
0.614071 0.0210343 0.
0.616078 0.0210395 0.
0.618084 0.0210435 0.
0.620089 0.021047 0.
0.622094 0.0210504 0.
0.624098 0.0210487 0.
0.626101 0.0210465 0.
0.628104 0.0210447 0.
0.630105 0.0210452 0.
0.632106 0.0210457 0.
0.634107 0.0210461 0.
0.636107 0.0210462 0.
0.638108 0.0210462 0.
0.640108 0.0210456 0.
0.642108 0.0210445 0.
0.644108 0.0210434 0.
0.646107 0.021042 0.
0.648106 0.0210405 0.
0.650105 0.0210391 0.
0.652106 0.0210406 0.
0.654107 0.0210422 0.
0.656108 0.0210434 0.
0.658108 0.0210438 0.
0.660109 0.0210443 0.
0.662111 0.0210436 0.
0.664112 0.0210418 0.
0.666114 0.0210401 0.
0.668114 0.0210389 0.
0.670114 0.0210381 0.
0.672114 0.0210372 0.
0.674114 0.0210334 0.
0.676114 0.0210294 0.
0.678114 0.021026 0.
0.680114 0.0210268 0.
0.682114 0.0210276 0.
0.684115 0.0210279 0.
0.686114 0.0210274 0.
0.688114 0.0210269 0.
0.690115 0.0210272 0.
0.692115 0.0210282 0.
0.694116 0.0210291 0.
0.696115 0.02103 0.
0.698114 0.0210308 0.
0.499886 0.0230326 0.
0.501886 0.0230312 0.
0.503886 0.0230301 0.
0.505886 0.023029 0.
0.507887 0.0230277 0.
0.509888 0.0230264 0.
0.511888 0.0230259 0.
0.513888 0.0230264 0.
0.515888 0.0230269 0.
0.517889 0.0230268 0.
0.519889 0.0230264 0.
0.52189 0.0230259 0.
0.523891 0.0230272 0.
0.525891 0.0230289 0.
0.527891 0.0230304 0.
0.529892 0.0230312 0.
0.531893 0.0230321 0.
0.533893 0.0230327 0.
0.535894 0.0230328 0.
0.537895 0.023033 0.
0.539896 0.0230332 0.
0.541896 0.0230334 0.
0.543897 0.0230336 0.
0.545898 0.0230336 0.
0.547898 0.0230334 0.
0.549899 0.0230332 0.
0.551899 0.0230355 0.
0.553899 0.023038 0.
0.555899 0.0230401 0.
0.557899 0.023041 0.
0.559899 0.0230418 0.
0.5619 0.0230424 0.
0.563901 0.0230423 0.
0.565903 0.0230423 0.
0.567904 0.0230429 0.
0.569905 0.0230439 0.
0.571907 0.023045 0.
0.573911 0.0230469 0.
0.575916 0.023049 0.
0.57792 0.0230504 0.
0.579926 0.0230449 0.
0.581932 0.0230393 0.
0.583937 0.0230337 0.
0.585943 0.0230284 0.
0.587949 0.0230232 0.
0.589955 0.0230175 0.
0.591962 0.0230113 0.
0.593968 0.0230051 0.
0.595979 0.0230049 0.
0.597991 0.0230064 0.
0.600003 0.0230079 0.
0.602014 0.0230084 0.
0.604025 0.023009 0.
0.606035 0.0230105 0.
0.608041 0.0230152 0.
0.610048 0.0230198 0.
0.612055 0.0230246 0.
0.614061 0.0230295 0.
0.616067 0.0230345 0.
0.618072 0.0230387 0.
0.620077 0.0230427 0.
0.622082 0.0230467 0.
0.624085 0.0230454 0.
0.626089 0.0230435 0.
0.628092 0.0230422 0.
0.630094 0.0230436 0.
0.632096 0.0230451 0.
0.634097 0.0230459 0.
0.636098 0.0230456 0.
0.638099 0.0230454 0.
0.6401 0.023045 0.
0.642101 0.0230446 0.
0.644101 0.0230442 0.
0.646101 0.0230427 0.
0.648101 0.023041 0.
0.6501 0.0230394 0.
0.652101 0.0230405 0.
0.654102 0.0230416 0.
0.656103 0.0230425 0.
0.658104 0.0230427 0.
0.660105 0.023043 0.
0.662106 0.0230424 0.
0.664108 0.0230411 0.
0.666109 0.0230397 0.
0.66811 0.0230388 0.
0.67011 0.0230381 0.
0.67211 0.0230374 0.
0.67411 0.0230342 0.
0.67611 0.0230308 0.
0.67811 0.0230279 0.
0.680111 0.0230284 0.
0.682111 0.0230289 0.
0.684111 0.0230291 0.
0.686112 0.0230289 0.
0.688112 0.0230287 0.
0.690113 0.0230293 0.
0.692113 0.0230303 0.
0.694113 0.0230313 0.
0.696113 0.0230325 0.
0.698112 0.0230337 0.
0.499889 0.0250347 0.
0.501889 0.0250332 0.
0.503889 0.025032 0.
0.505889 0.0250308 0.
0.507889 0.0250294 0.
0.50989 0.025028 0.
0.511891 0.0250274 0.
0.513891 0.0250276 0.
0.51589 0.0250278 0.
0.517891 0.0250275 0.
0.519891 0.025027 0.
0.521892 0.0250265 0.
0.523893 0.0250279 0.
0.525894 0.0250296 0.
0.527894 0.0250312 0.
0.529895 0.0250315 0.
0.531896 0.0250318 0.
0.533897 0.025032 0.
0.535898 0.0250321 0.
0.537899 0.0250323 0.
0.5399 0.0250325 0.
0.541901 0.025033 0.
0.543902 0.0250334 0.
0.545902 0.0250335 0.
0.547903 0.0250335 0.
0.549903 0.0250334 0.
0.551904 0.0250359 0.
0.553905 0.0250385 0.
0.555905 0.0250407 0.
0.557906 0.0250413 0.
0.559907 0.0250419 0.
0.561908 0.0250419 0.
0.56391 0.0250411 0.
0.565911 0.0250404 0.
0.567913 0.0250407 0.
0.569915 0.0250416 0.
0.571917 0.0250426 0.
0.573922 0.0250435 0.
0.575927 0.0250444 0.
0.577933 0.0250448 0.
0.579938 0.0250396 0.
0.581943 0.0250344 0.
0.583949 0.0250292 0.
0.585954 0.0250246 0.
0.587958 0.02502 0.
0.589964 0.025015 0.
0.591969 0.0250097 0.
0.593975 0.0250045 0.
0.595983 0.0250031 0.
0.597992 0.0250028 0.
0.600001 0.0250026 0.
0.602011 0.0250045 0.
0.60402 0.0250065 0.
0.606029 0.0250089 0.
0.608035 0.0250124 0.
0.61004 0.025016 0.
0.612046 0.02502 0.
0.614051 0.0250248 0.
0.616056 0.0250295 0.
0.61806 0.025034 0.
0.620065 0.0250385 0.
0.622069 0.025043 0.
0.624073 0.025042 0.
0.626077 0.0250405 0.
0.62808 0.0250396 0.
0.630083 0.025042 0.
0.632086 0.0250444 0.
0.634088 0.0250457 0.
0.63609 0.0250451 0.
0.638091 0.0250445 0.
0.640092 0.0250444 0.
0.642094 0.0250447 0.
0.644095 0.0250449 0.
0.646095 0.0250434 0.
0.648095 0.0250415 0.
0.650095 0.0250396 0.
0.652096 0.0250403 0.
0.654097 0.025041 0.
0.656098 0.0250416 0.
0.658099 0.0250416 0.
0.6601 0.0250417 0.
0.662102 0.0250413 0.
0.664103 0.0250403 0.
0.666105 0.0250393 0.
0.668106 0.0250387 0.
0.670106 0.0250382 0.
0.672106 0.0250376 0.
0.674106 0.025035 0.
0.676106 0.0250322 0.
0.678107 0.0250298 0.
0.680107 0.02503 0.
0.682108 0.0250302 0.
0.684108 0.0250303 0.
0.68611 0.0250304 0.
0.688111 0.0250306 0.
0.690111 0.0250312 0.
0.692111 0.0250324 0.
0.69411 0.0250335 0.
0.69611 0.025035 0.
0.69811 0.0250366 0.
0.499891 0.0270377 0.
0.501891 0.0270354 0.
0.503891 0.0270332 0.
0.505891 0.0270311 0.
0.507892 0.0270302 0.
0.509893 0.0270293 0.
0.511893 0.0270286 0.
0.513893 0.0270284 0.
0.515893 0.0270282 0.
0.517894 0.0270277 0.
0.519894 0.0270271 0.
0.521895 0.0270266 0.
0.523896 0.0270279 0.
0.525896 0.0270296 0.
0.527897 0.0270312 0.
0.529898 0.0270311 0.
0.531898 0.0270311 0.
0.533899 0.0270311 0.
0.5359 0.0270314 0.
0.537901 0.0270317 0.
0.539902 0.027032 0.
0.541903 0.0270324 0.
0.543904 0.0270329 0.
0.545905 0.027033 0.
0.547906 0.027033 0.
0.549907 0.027033 0.
0.551908 0.0270354 0.
0.553909 0.0270379 0.
0.55591 0.0270399 0.
0.557911 0.0270403 0.
0.559912 0.0270407 0.
0.561913 0.0270407 0.
0.563915 0.0270401 0.
0.565917 0.0270396 0.
0.567919 0.0270395 0.
0.569922 0.0270396 0.
0.571925 0.0270398 0.
0.573929 0.0270403 0.
0.575934 0.0270408 0.
0.577938 0.0270409 0.
0.579943 0.0270361 0.
0.581948 0.0270313 0.
0.583953 0.0270267 0.
0.585958 0.0270223 0.
0.587962 0.0270179 0.
0.589967 0.0270134 0.
0.591973 0.0270086 0.
0.593979 0.027004 0.
0.595986 0.0270024 0.
0.597993 0.0270017 0.
0.600001 0.0270009 0.
0.60201 0.027003 0.
0.604018 0.027005 0.
0.606026 0.0270074 0.
0.608031 0.0270109 0.
0.610035 0.0270144 0.
0.61204 0.0270184 0.
0.614045 0.0270227 0.
0.61605 0.027027 0.
0.618054 0.0270313 0.
0.620058 0.0270355 0.
0.622063 0.0270398 0.
0.624067 0.0270393 0.
0.62607 0.0270384 0.
0.628074 0.0270379 0.
0.630077 0.02704 0.
0.63208 0.0270421 0.
0.634082 0.0270435 0.
0.636084 0.0270434 0.
0.638086 0.0270433 0.
0.640087 0.0270435 0.
0.642089 0.0270438 0.
0.64409 0.0270442 0.
0.646091 0.0270426 0.
0.648092 0.0270406 0.
0.650092 0.0270387 0.
0.652093 0.0270397 0.
0.654094 0.0270406 0.
0.656095 0.0270413 0.
0.658097 0.0270412 0.
0.660098 0.0270411 0.
0.662099 0.0270406 0.
0.6641 0.0270397 0.
0.666101 0.0270387 0.
0.668102 0.0270383 0.
0.670103 0.027038 0.
0.672103 0.0270378 0.
0.674104 0.0270353 0.
0.676104 0.0270328 0.
0.678104 0.0270306 0.
0.680105 0.0270308 0.
0.682105 0.0270311 0.
0.684106 0.0270313 0.
0.686107 0.0270316 0.
0.688107 0.0270319 0.
0.690108 0.0270329 0.
0.692108 0.0270344 0.
0.694107 0.0270359 0.
0.696108 0.0270378 0.
0.698108 0.0270396 0.
0.499894 0.0290406 0.
0.501893 0.0290375 0.
0.503893 0.0290342 0.
0.505893 0.0290315 0.
0.507894 0.029031 0.
0.509896 0.0290305 0.
0.511896 0.0290299 0.
0.513896 0.0290292 0.
0.515896 0.0290286 0.
0.517897 0.0290279 0.
0.519898 0.0290273 0.
0.521899 0.0290267 0.
0.523899 0.029028 0.
0.525899 0.0290296 0.
0.527899 0.0290311 0.
0.5299 0.0290307 0.
0.531901 0.0290303 0.
0.533902 0.0290302 0.
0.535903 0.0290306 0.
0.537903 0.0290311 0.
0.539904 0.0290315 0.
0.541905 0.0290319 0.
0.543907 0.0290324 0.
0.545908 0.0290325 0.
0.54791 0.0290326 0.
0.549911 0.0290326 0.
0.551912 0.0290349 0.
0.553913 0.0290373 0.
0.555914 0.0290392 0.
0.557915 0.0290393 0.
0.559917 0.0290394 0.
0.561918 0.0290394 0.
0.56392 0.0290391 0.
0.565923 0.0290388 0.
0.567926 0.0290383 0.
0.569929 0.0290376 0.
0.571932 0.0290369 0.
0.573936 0.029037 0.
0.57594 0.0290372 0.
0.577944 0.0290369 0.
0.579949 0.0290326 0.
0.581953 0.0290283 0.
0.583958 0.0290241 0.
0.585962 0.0290199 0.
0.587966 0.0290158 0.
0.589971 0.0290117 0.
0.591977 0.0290075 0.
0.593982 0.0290034 0.
0.595988 0.0290016 0.
0.597994 0.0290005 0.
0.600001 0.0289993 0.
0.602008 0.0290014 0.
0.604016 0.0290035 0.
0.606023 0.0290059 0.
0.608026 0.0290094 0.
0.61003 0.0290129 0.
0.612034 0.0290167 0.
0.614039 0.0290206 0.
0.616044 0.0290246 0.
0.618048 0.0290286 0.
0.620052 0.0290325 0.
0.622056 0.0290366 0.
0.62406 0.0290366 0.
0.626064 0.0290363 0.
0.628068 0.0290362 0.
0.630071 0.029038 0.
0.632073 0.0290399 0.
0.634076 0.0290412 0.
0.636078 0.0290417 0.
0.63808 0.0290421 0.
0.640082 0.0290426 0.
0.642084 0.029043 0.
0.644086 0.0290434 0.
0.646087 0.0290418 0.
0.648088 0.0290397 0.
0.650089 0.0290378 0.
0.65209 0.029039 0.
0.654091 0.0290402 0.
0.656092 0.029041 0.
0.658094 0.0290408 0.
0.660096 0.0290405 0.
0.662097 0.02904 0.
0.664097 0.029039 0.
0.666098 0.0290381 0.
0.668099 0.0290378 0.
0.6701 0.0290379 0.
0.6721 0.0290379 0.
0.674101 0.0290357 0.
0.676101 0.0290333 0.
0.678102 0.0290313 0.
0.680102 0.0290316 0.
0.682103 0.0290319 0.
0.684103 0.0290323 0.
0.686104 0.0290327 0.
0.688104 0.0290332 0.
0.690104 0.0290345 0.
0.692104 0.0290365 0.
0.694105 0.0290384 0.
0.696105 0.0290405 0.
0.698105 0.0290427 0.
0.499896 0.0310421 0.
0.501896 0.0310388 0.
0.503896 0.0310354 0.
0.505896 0.0310325 0.
0.507897 0.031032 0.
0.509898 0.0310314 0.
0.511899 0.0310307 0.
0.513899 0.03103 0.
0.515899 0.0310293 0.
0.5179 0.0310285 0.
0.519901 0.0310277 0.
0.521902 0.0310269 0.
0.523902 0.0310281 0.
0.525902 0.0310295 0.
0.527903 0.0310308 0.
0.529904 0.0310304 0.
0.531905 0.0310301 0.
0.533906 0.03103 0.
0.535906 0.0310303 0.
0.537907 0.0310305 0.
0.539908 0.0310309 0.
0.541909 0.0310313 0.
0.54391 0.0310318 0.
0.545912 0.0310319 0.
0.547914 0.0310318 0.
0.549915 0.0310318 0.
0.551916 0.031034 0.
0.553917 0.0310363 0.
0.555918 0.0310381 0.
0.55792 0.0310379 0.
0.559922 0.0310378 0.
0.561924 0.0310376 0.
0.563926 0.0310374 0.
0.565928 0.0310371 0.
0.567931 0.0310363 0.
0.569935 0.0310351 0.
0.571939 0.0310339 0.
0.573942 0.0310338 0.
0.575946 0.0310339 0.
0.57795 0.0310335 0.
0.579954 0.0310296 0.
0.581958 0.0310257 0.
0.583963 0.0310218 0.
0.585967 0.0310178 0.
0.58797 0.0310139 0.
0.589975 0.0310101 0.
0.59198 0.0310064 0.
0.593985 0.0310028 0.
0.59599 0.031001 0.
0.597995 0.0309997 0.
0.6 0.0309985 0.
0.602007 0.0310004 0.
0.604014 0.0310023 0.
0.60602 0.0310046 0.
0.608023 0.031008 0.
0.610026 0.0310114 0.
0.612029 0.031015 0.
0.614034 0.0310186 0.
0.616038 0.0310222 0.
0.618042 0.031026 0.
0.620046 0.0310298 0.
0.62205 0.0310336 0.
0.624054 0.0310339 0.
0.626058 0.0310338 0.
0.628062 0.0310339 0.
0.630065 0.0310356 0.
0.632068 0.0310372 0.
0.63407 0.0310386 0.
0.636072 0.0310395 0.
0.638075 0.0310404 0.
0.640077 0.031041 0.
0.642079 0.0310415 0.
0.644081 0.0310419 0.
0.646083 0.0310405 0.
0.648084 0.0310387 0.
0.650085 0.031037 0.
0.652086 0.0310383 0.
0.654087 0.0310395 0.
0.656088 0.0310403 0.
0.65809 0.0310399 0.
0.660092 0.0310395 0.
0.662093 0.031039 0.
0.664094 0.0310383 0.
0.666094 0.0310376 0.
0.668095 0.0310375 0.
0.670096 0.0310375 0.
0.672097 0.0310376 0.
0.674097 0.0310358 0.
0.676098 0.0310338 0.
0.678099 0.0310321 0.
0.680099 0.0310324 0.
0.6821 0.0310328 0.
0.6841 0.0310333 0.
0.6861 0.0310338 0.
0.688101 0.0310344 0.
0.690101 0.0310359 0.
0.692102 0.0310381 0.
0.694102 0.0310403 0.
0.696102 0.0310426 0.
0.698103 0.031045 0.
0.499898 0.0330422 0.
0.501898 0.0330393 0.
0.503899 0.0330366 0.
0.505899 0.0330342 0.
0.5079 0.0330331 0.
0.5099 0.033032 0.
0.511901 0.0330312 0.
0.513901 0.0330307 0.
0.515902 0.0330303 0.
0.517903 0.0330295 0.
0.519904 0.0330284 0.
0.521904 0.0330273 0.
0.523905 0.0330281 0.
0.525906 0.0330291 0.
0.527907 0.0330301 0.
0.529908 0.0330302 0.
0.531909 0.0330304 0.
0.53391 0.0330304 0.
0.535911 0.0330302 0.
0.537911 0.0330301 0.
0.539912 0.0330302 0.
0.541914 0.0330306 0.
0.543915 0.0330311 0.
0.545917 0.033031 0.
0.547918 0.0330309 0.
0.549919 0.0330307 0.
0.551921 0.0330328 0.
0.553922 0.033035 0.
0.555924 0.0330367 0.
0.557926 0.0330362 0.
0.559927 0.0330358 0.
0.561929 0.0330354 0.
0.563932 0.0330349 0.
0.565934 0.0330345 0.
0.567937 0.0330335 0.
0.56994 0.0330321 0.
0.571944 0.0330307 0.
0.573948 0.0330307 0.
0.575952 0.0330309 0.
0.577956 0.0330307 0.
0.57996 0.0330271 0.
0.581964 0.0330234 0.
0.583967 0.0330197 0.
0.585971 0.033016 0.
0.587975 0.0330122 0.
0.589979 0.0330086 0.
0.591983 0.0330053 0.
0.593986 0.033002 0.
0.595991 0.0330005 0.
0.597996 0.0329994 0.
0.600001 0.0329983 0.
0.602006 0.0329999 0.
0.604012 0.0330015 0.
0.606017 0.0330034 0.
0.60802 0.0330066 0.
0.610023 0.0330098 0.
0.612026 0.0330132 0.
0.61403 0.0330166 0.
0.616033 0.03302 0.
0.618037 0.0330236 0.
0.620041 0.0330273 0.
0.622045 0.033031 0.
0.624049 0.0330312 0.
0.626053 0.0330311 0.
0.628057 0.0330312 0.
0.63006 0.0330327 0.
0.632062 0.0330343 0.
0.634065 0.0330357 0.
0.636067 0.033037 0.
0.638069 0.0330382 0.
0.640071 0.0330389 0.
0.642073 0.0330392 0.
0.644075 0.0330395 0.
0.646077 0.0330387 0.
0.648079 0.0330376 0.
0.65008 0.0330365 0.
0.652081 0.0330375 0.
0.654081 0.0330386 0.
0.656082 0.0330392 0.
0.658085 0.0330387 0.
0.660087 0.0330381 0.
0.662088 0.0330378 0.
0.664089 0.0330376 0.
0.66609 0.0330374 0.
0.668091 0.0330372 0.
0.670091 0.0330371 0.
0.672092 0.0330369 0.
0.674093 0.0330355 0.
0.676095 0.033034 0.
0.678096 0.0330328 0.
0.680096 0.0330332 0.
0.682097 0.0330336 0.
0.684097 0.0330341 0.
0.686097 0.0330348 0.
0.688098 0.0330355 0.
0.690098 0.0330371 0.
0.692099 0.0330393 0.
0.694099 0.0330415 0.
0.6961 0.0330439 0.
0.6981 0.0330464 0.
0.499899 0.0350423 0.
0.5019 0.0350398 0.
0.503901 0.0350378 0.
0.505902 0.0350359 0.
0.507902 0.0350343 0.
0.509902 0.0350327 0.
0.511903 0.0350316 0.
0.513904 0.0350315 0.
0.515905 0.0350313 0.
0.517906 0.0350305 0.
0.519907 0.035029 0.
0.521907 0.0350276 0.
0.523909 0.0350281 0.
0.52591 0.0350288 0.
0.527912 0.0350295 0.
0.529913 0.0350301 0.
0.531914 0.0350306 0.
0.533915 0.0350308 0.
0.535916 0.0350302 0.
0.537916 0.0350296 0.
0.539917 0.0350295 0.
0.541919 0.0350299 0.
0.54392 0.0350303 0.
0.545921 0.0350302 0.
0.547922 0.0350299 0.
0.549923 0.0350295 0.
0.551925 0.0350316 0.
0.553927 0.0350337 0.
0.555929 0.0350353 0.
0.557931 0.0350345 0.
0.559933 0.0350338 0.
0.561935 0.0350332 0.
0.563937 0.0350326 0.
0.565939 0.035032 0.
0.567942 0.0350307 0.
0.569946 0.0350291 0.
0.571949 0.0350275 0.
0.573953 0.0350276 0.
0.575957 0.0350279 0.
0.577962 0.0350279 0.
0.579965 0.0350245 0.
0.581969 0.0350212 0.
0.583972 0.0350177 0.
0.585976 0.0350141 0.
0.58798 0.0350105 0.
0.589984 0.0350072 0.
0.591986 0.0350042 0.
0.593988 0.0350013 0.
0.595992 0.0349999 0.
0.597996 0.034999 0.
0.600001 0.0349981 0.
0.602005 0.0349994 0.
0.604009 0.0350006 0.
0.606013 0.0350022 0.
0.608016 0.0350052 0.
0.610019 0.0350082 0.
0.612022 0.0350114 0.
0.614026 0.0350146 0.
0.616029 0.0350179 0.
0.618032 0.0350213 0.
0.620036 0.0350248 0.
0.62204 0.0350284 0.
0.624044 0.0350286 0.
0.626048 0.0350284 0.
0.628052 0.0350284 0.
0.630054 0.0350299 0.
0.632057 0.0350313 0.
0.634059 0.0350329 0.
0.636061 0.0350345 0.
0.638063 0.0350361 0.
0.640065 0.0350368 0.
0.642067 0.035037 0.
0.644069 0.0350372 0.
0.646071 0.0350369 0.
0.648073 0.0350364 0.
0.650075 0.035036 0.
0.652076 0.0350368 0.
0.654076 0.0350377 0.
0.656077 0.0350381 0.
0.658079 0.0350374 0.
0.660082 0.0350368 0.
0.662083 0.0350365 0.
0.664085 0.0350368 0.
0.666086 0.0350371 0.
0.668087 0.0350369 0.
0.670087 0.0350366 0.
0.672088 0.0350362 0.
0.674089 0.0350353 0.
0.676091 0.0350343 0.
0.678093 0.0350336 0.
0.680093 0.035034 0.
0.682094 0.0350344 0.
0.684094 0.035035 0.
0.686094 0.0350358 0.
0.688094 0.0350366 0.
0.690095 0.0350383 0.
0.692096 0.0350405 0.
0.694097 0.0350428 0.
0.696097 0.0350453 0.
0.698097 0.0350479 0.
0.499904 0.0370418 0.
0.501905 0.0370399 0.
0.503906 0.0370383 0.
0.505906 0.0370367 0.
0.507907 0.0370351 0.
0.509907 0.0370336 0.
0.511907 0.0370325 0.
0.513908 0.0370322 0.
0.515909 0.0370318 0.
0.51791 0.0370308 0.
0.51991 0.0370292 0.
0.521911 0.0370276 0.
0.523912 0.0370281 0.
0.525913 0.037029 0.
0.527915 0.0370298 0.
0.529916 0.0370303 0.
0.531917 0.0370307 0.
0.533918 0.0370308 0.
0.535919 0.03703 0.
0.53792 0.0370291 0.
0.539921 0.0370289 0.
0.541923 0.0370294 0.
0.543924 0.0370298 0.
0.545925 0.0370296 0.
0.547926 0.0370292 0.
0.549927 0.0370287 0.
0.551929 0.0370306 0.
0.553931 0.0370325 0.
0.555933 0.0370339 0.
0.557935 0.0370332 0.
0.559937 0.0370325 0.
0.561938 0.0370316 0.
0.563941 0.0370307 0.
0.565943 0.0370298 0.
0.567946 0.0370283 0.
0.569949 0.0370267 0.
0.571952 0.037025 0.
0.573956 0.037025 0.
0.575961 0.0370252 0.
0.577965 0.037025 0.
0.579968 0.0370219 0.
0.581972 0.0370188 0.
0.583975 0.0370157 0.
0.585979 0.0370126 0.
0.587982 0.0370094 0.
0.589985 0.0370065 0.
0.591987 0.0370038 0.
0.59399 0.0370012 0.
0.595993 0.0370001 0.
0.597997 0.0369995 0.
0.6 0.0369989 0.
0.602004 0.0370002 0.
0.604008 0.0370015 0.
0.606012 0.0370031 0.
0.608014 0.0370056 0.
0.610017 0.0370081 0.
0.61202 0.0370107 0.
0.614023 0.0370134 0.
0.616026 0.037016 0.
0.61803 0.0370191 0.
0.620033 0.0370223 0.
0.622037 0.0370255 0.
0.624041 0.0370261 0.
0.626044 0.0370264 0.
0.628048 0.0370268 0.
0.630051 0.0370284 0.
0.632053 0.0370299 0.
0.634056 0.0370316 0.
0.636058 0.0370333 0.
0.638059 0.0370349 0.
0.640061 0.0370357 0.
0.642063 0.0370358 0.
0.644065 0.037036 0.
0.646067 0.0370358 0.
0.648069 0.0370355 0.
0.650072 0.0370352 0.
0.652072 0.0370357 0.
0.654073 0.0370361 0.
0.656074 0.0370365 0.
0.658076 0.0370365 0.
0.660078 0.0370366 0.
0.66208 0.0370365 0.
0.664081 0.0370364 0.
0.666082 0.0370363 0.
0.668083 0.0370362 0.
0.670084 0.0370362 0.
0.672085 0.0370362 0.
0.674086 0.0370351 0.
0.676088 0.037034 0.
0.678089 0.0370331 0.
0.68009 0.0370338 0.
0.68209 0.0370345 0.
0.684091 0.0370354 0.
0.686091 0.0370364 0.
0.688091 0.0370375 0.
0.690092 0.0370392 0.
0.692092 0.0370414 0.
0.694093 0.0370436 0.
0.696093 0.0370463 0.
0.698094 0.0370491 0.
0.499909 0.0390413 0.
0.501909 0.0390401 0.
0.50391 0.0390388 0.
0.50591 0.0390374 0.
0.507911 0.0390359 0.
0.509911 0.0390345 0.
0.511911 0.0390334 0.
0.513912 0.0390329 0.
0.515913 0.0390323 0.
0.517913 0.0390311 0.
0.519914 0.0390293 0.
0.521915 0.0390276 0.
0.523916 0.0390282 0.
0.525917 0.0390291 0.
0.527918 0.03903 0.
0.529919 0.0390305 0.
0.53192 0.0390309 0.
0.533921 0.0390309 0.
0.535923 0.0390297 0.
0.537924 0.0390286 0.
0.539925 0.0390284 0.
0.541926 0.0390288 0.
0.543927 0.0390293 0.
0.545928 0.039029 0.
0.547929 0.0390285 0.
0.54993 0.0390279 0.
0.551933 0.0390296 0.
0.553935 0.0390314 0.
0.555938 0.0390326 0.
0.557939 0.0390318 0.
0.55994 0.0390311 0.
0.561942 0.0390301 0.
0.563945 0.0390289 0.
0.565947 0.0390276 0.
0.56795 0.039026 0.
0.569953 0.0390243 0.
0.571956 0.0390225 0.
0.57396 0.0390223 0.
0.575964 0.0390224 0.
0.577968 0.0390222 0.
0.579971 0.0390193 0.
0.581975 0.0390164 0.
0.583978 0.0390137 0.
0.585981 0.039011 0.
0.587984 0.0390084 0.
0.589986 0.0390058 0.
0.591989 0.0390035 0.
0.593991 0.0390011 0.
0.595994 0.0390003 0.
0.597997 0.0389999 0.
0.6 0.0389996 0.
0.602003 0.039001 0.
0.604007 0.0390024 0.
0.60601 0.039004 0.
0.608012 0.039006 0.
0.610014 0.0390079 0.
0.612017 0.0390099 0.
0.61402 0.0390121 0.
0.616024 0.0390142 0.
0.618027 0.0390169 0.
0.620031 0.0390198 0.
0.622034 0.0390227 0.
0.624037 0.0390236 0.
0.626041 0.0390244 0.
0.628044 0.0390252 0.
0.630047 0.0390269 0.
0.63205 0.0390285 0.
0.634052 0.0390302 0.
0.636054 0.039032 0.
0.638056 0.0390338 0.
0.640057 0.0390346 0.
0.642059 0.0390347 0.
0.644061 0.0390347 0.
0.646063 0.0390347 0.
0.648066 0.0390345 0.
0.650068 0.0390344 0.
0.652069 0.0390345 0.
0.65407 0.0390346 0.
0.656071 0.0390348 0.
0.658073 0.0390356 0.
0.660075 0.0390364 0.
0.662076 0.0390365 0.
0.664078 0.039036 0.
0.666079 0.0390355 0.
0.66808 0.0390355 0.
0.670081 0.0390358 0.
0.672083 0.0390361 0.
0.674083 0.0390349 0.
0.676084 0.0390336 0.
0.678085 0.0390326 0.
0.680086 0.0390336 0.
0.682087 0.0390347 0.
0.684088 0.0390358 0.
0.686088 0.0390371 0.
0.688088 0.0390384 0.
0.690089 0.0390402 0.
0.692089 0.0390423 0.
0.694089 0.0390445 0.
0.69609 0.0390473 0.
0.69809 0.0390504 0.
0.499913 0.0410421 0.
0.501913 0.0410409 0.
0.503914 0.0410397 0.
0.505914 0.0410383 0.
0.507914 0.0410367 0.
0.509915 0.0410351 0.
0.511915 0.0410338 0.
0.513916 0.041033 0.
0.515916 0.0410323 0.
0.517917 0.0410311 0.
0.519918 0.0410296 0.
0.521919 0.0410281 0.
0.52392 0.0410286 0.
0.525921 0.0410294 0.
0.527922 0.0410302 0.
0.529923 0.0410305 0.
0.531924 0.0410309 0.
0.533925 0.0410307 0.
0.535926 0.0410294 0.
0.537928 0.0410281 0.
0.539929 0.0410276 0.
0.54193 0.041028 0.
0.543931 0.0410283 0.
0.545932 0.0410281 0.
0.547933 0.0410276 0.
0.549934 0.0410272 0.
0.551937 0.0410287 0.
0.55394 0.0410302 0.
0.555942 0.0410313 0.
0.557943 0.0410305 0.
0.559944 0.0410297 0.
0.561946 0.0410287 0.
0.563948 0.0410273 0.
0.565951 0.0410258 0.
0.567954 0.0410241 0.
0.569956 0.0410223 0.
0.571959 0.0410205 0.
0.573963 0.0410202 0.
0.575967 0.0410201 0.
0.577971 0.0410198 0.
0.579974 0.0410172 0.
0.581976 0.0410147 0.
0.583979 0.0410122 0.
0.585982 0.0410098 0.
0.587985 0.0410073 0.
0.589987 0.0410051 0.
0.59199 0.041003 0.
0.593992 0.0410009 0.
0.595995 0.0410004 0.
0.597997 0.0410003 0.
0.6 0.0410002 0.
0.602003 0.0410015 0.
0.604006 0.0410028 0.
0.606009 0.0410042 0.
0.608011 0.0410058 0.
0.610013 0.0410075 0.
0.612015 0.0410091 0.
0.614018 0.0410108 0.
0.616022 0.0410126 0.
0.618025 0.041015 0.
0.620028 0.0410177 0.
0.622031 0.0410205 0.
0.624034 0.0410217 0.
0.626037 0.0410226 0.
0.62804 0.0410237 0.
0.630043 0.0410255 0.
0.632045 0.0410272 0.
0.634048 0.0410289 0.
0.63605 0.0410306 0.
0.638051 0.0410324 0.
0.640053 0.0410332 0.
0.642055 0.0410334 0.
0.644057 0.0410335 0.
0.646059 0.0410336 0.
0.648062 0.0410335 0.
0.650064 0.0410334 0.
0.652065 0.0410333 0.
0.654067 0.0410331 0.
0.656068 0.0410333 0.
0.658069 0.0410345 0.
0.660071 0.0410357 0.
0.662073 0.041036 0.
0.664074 0.0410354 0.
0.666075 0.0410348 0.
0.668076 0.041035 0.
0.670078 0.0410355 0.
0.672079 0.041036 0.
0.67408 0.0410348 0.
0.676081 0.0410335 0.
0.678081 0.0410326 0.
0.680082 0.0410337 0.
0.682083 0.0410349 0.
0.684084 0.0410361 0.
0.686085 0.0410375 0.
0.688085 0.0410388 0.
0.690085 0.0410407 0.
0.692086 0.0410431 0.
0.694086 0.0410454 0.
0.696087 0.0410485 0.
0.698087 0.0410518 0.
0.499917 0.0430439 0.
0.501917 0.0430423 0.
0.503917 0.043041 0.
0.505917 0.0430395 0.
0.507918 0.0430375 0.
0.509918 0.0430355 0.
0.511919 0.0430339 0.
0.51392 0.0430327 0.
0.51592 0.0430316 0.
0.517921 0.0430306 0.
0.519922 0.0430298 0.
0.521923 0.043029 0.
0.523924 0.0430293 0.
0.525925 0.0430297 0.
0.527927 0.0430302 0.
0.529927 0.0430305 0.
0.531928 0.0430307 0.
0.533929 0.0430304 0.
0.53593 0.0430289 0.
0.537931 0.0430274 0.
0.539932 0.0430268 0.
0.541933 0.0430268 0.
0.543935 0.0430268 0.
0.545936 0.0430267 0.
0.547937 0.0430266 0.
0.549939 0.0430265 0.
0.551941 0.0430277 0.
0.553944 0.043029 0.
0.555946 0.0430299 0.
0.557947 0.0430292 0.
0.559948 0.0430284 0.
0.56195 0.0430274 0.
0.563952 0.0430258 0.
0.565955 0.0430243 0.
0.567957 0.0430226 0.
0.56996 0.0430208 0.
0.571962 0.0430191 0.
0.573966 0.0430185 0.
0.575969 0.0430182 0.
0.577973 0.0430177 0.
0.579975 0.0430156 0.
0.581977 0.0430134 0.
0.583979 0.0430112 0.
0.585982 0.0430088 0.
0.587984 0.0430063 0.
0.589987 0.0430043 0.
0.591989 0.0430025 0.
0.593992 0.0430008 0.
0.595994 0.0430004 0.
0.597997 0.0430005 0.
0.6 0.0430006 0.
0.602003 0.0430016 0.
0.604005 0.0430025 0.
0.606008 0.0430036 0.
0.60801 0.0430052 0.
0.610012 0.0430067 0.
0.612015 0.0430082 0.
0.614017 0.0430096 0.
0.61602 0.043011 0.
0.618022 0.0430134 0.
0.620025 0.0430162 0.
0.622027 0.0430189 0.
0.62403 0.0430201 0.
0.626033 0.0430212 0.
0.628036 0.0430223 0.
0.630038 0.0430241 0.
0.632041 0.043026 0.
0.634043 0.0430277 0.
0.636045 0.0430291 0.
0.638047 0.0430305 0.
0.640049 0.0430314 0.
0.642051 0.043032 0.
0.644053 0.0430325 0.
0.646055 0.0430326 0.
0.648058 0.0430325 0.
0.65006 0.0430323 0.
0.652061 0.043032 0.
0.654062 0.0430316 0.
0.656063 0.0430317 0.
0.658065 0.0430331 0.
0.660067 0.0430345 0.
0.662068 0.043035 0.
0.66407 0.0430347 0.
0.666071 0.0430343 0.
0.668072 0.0430346 0.
0.670073 0.0430352 0.
0.672075 0.0430358 0.
0.674076 0.0430348 0.
0.676077 0.0430337 0.
0.678078 0.0430329 0.
0.680078 0.0430341 0.
0.682079 0.0430353 0.
0.68408 0.0430365 0.
0.686081 0.0430376 0.
0.688081 0.0430388 0.
0.690082 0.0430409 0.
0.692083 0.0430437 0.
0.694085 0.0430465 0.
0.696085 0.0430498 0.
0.698085 0.0430533 0.
0.499921 0.0450457 0.
0.501921 0.0450437 0.
0.50392 0.0450422 0.
0.50592 0.0450406 0.
0.507921 0.0450383 0.
0.509922 0.0450359 0.
0.511923 0.0450339 0.
0.513924 0.0450324 0.
0.515924 0.0450309 0.
0.517925 0.0450302 0.
0.519926 0.04503 0.
0.521927 0.0450298 0.
0.523929 0.04503 0.
0.52593 0.0450301 0.
0.527931 0.0450303 0.
0.529932 0.0450304 0.
0.531933 0.0450305 0.
0.533934 0.0450301 0.
0.535934 0.0450285 0.
0.537935 0.0450269 0.
0.539936 0.045026 0.
0.541937 0.0450256 0.
0.543938 0.0450253 0.
0.54594 0.0450254 0.
0.547941 0.0450256 0.
0.549943 0.0450258 0.
0.551946 0.0450268 0.
0.553948 0.0450279 0.
0.555951 0.0450286 0.
0.557952 0.0450279 0.
0.559953 0.0450271 0.
0.561954 0.045026 0.
0.563956 0.0450244 0.
0.565958 0.0450228 0.
0.56796 0.0450211 0.
0.569963 0.0450194 0.
0.571965 0.0450176 0.
0.573969 0.0450169 0.
0.575972 0.0450163 0.
0.577975 0.0450156 0.
0.579976 0.045014 0.
0.581977 0.0450123 0.
0.583979 0.0450102 0.
0.585982 0.0450078 0.
0.587984 0.0450053 0.
0.589987 0.0450034 0.
0.591989 0.045002 0.
0.593991 0.0450006 0.
0.595994 0.0450005 0.
0.597997 0.0450008 0.
0.6 0.045001 0.
0.602003 0.0450017 0.
0.604005 0.0450023 0.
0.606007 0.0450031 0.
0.608009 0.0450045 0.
0.610012 0.045006 0.
0.612014 0.0450073 0.
0.614016 0.0450084 0.
0.616018 0.0450095 0.
0.61802 0.0450118 0.
0.620022 0.0450146 0.
0.622024 0.0450174 0.
0.624027 0.0450186 0.
0.62603 0.0450197 0.
0.628032 0.0450209 0.
0.630034 0.0450228 0.
0.632036 0.0450248 0.
0.634038 0.0450264 0.
0.63604 0.0450276 0.
0.638043 0.0450287 0.
0.640045 0.0450297 0.
0.642047 0.0450306 0.
0.644049 0.0450315 0.
0.646051 0.0450315 0.
0.648054 0.0450313 0.
0.650056 0.0450312 0.
0.652057 0.0450307 0.
0.654058 0.0450302 0.
0.656059 0.0450301 0.
0.658061 0.0450317 0.
0.660063 0.0450333 0.
0.662064 0.045034 0.
0.664066 0.0450339 0.
0.666067 0.0450338 0.
0.668068 0.0450342 0.
0.670069 0.0450349 0.
0.67207 0.0450356 0.
0.674072 0.0450348 0.
0.676073 0.0450338 0.
0.678074 0.0450332 0.
0.680075 0.0450344 0.
0.682075 0.0450357 0.
0.684076 0.0450368 0.
0.686077 0.0450378 0.
0.688077 0.0450387 0.
0.690079 0.045041 0.
0.692081 0.0450443 0.
0.694083 0.0450475 0.
0.696083 0.0450511 0.
0.698082 0.0450548 0.
0.499923 0.047046 0.
0.501923 0.047044 0.
0.503923 0.0470421 0.
0.505923 0.0470402 0.
0.507924 0.047038 0.
0.509925 0.0470358 0.
0.511926 0.047034 0.
0.513926 0.0470326 0.
0.515927 0.0470312 0.
0.517928 0.0470303 0.
0.519929 0.0470297 0.
0.521931 0.0470291 0.
0.523932 0.0470292 0.
0.525933 0.0470294 0.
0.527934 0.0470297 0.
0.529935 0.0470296 0.
0.531936 0.0470296 0.
0.533937 0.0470292 0.
0.535937 0.047028 0.
0.537938 0.0470268 0.
0.539939 0.0470258 0.
0.541941 0.047025 0.
0.543942 0.0470241 0.
0.545943 0.0470241 0.
0.547945 0.0470244 0.
0.549946 0.0470247 0.
0.551949 0.0470257 0.
0.553951 0.0470268 0.
0.555953 0.0470275 0.
0.557955 0.0470266 0.
0.559956 0.0470257 0.
0.561958 0.0470245 0.
0.56396 0.0470229 0.
0.565962 0.0470214 0.
0.567964 0.0470198 0.
0.569966 0.0470182 0.
0.571968 0.0470167 0.
0.573971 0.0470158 0.
0.575974 0.0470151 0.
0.577977 0.0470143 0.
0.579978 0.0470126 0.
0.58198 0.0470109 0.
0.583981 0.047009 0.
0.585984 0.0470069 0.
0.587986 0.0470047 0.
0.589988 0.0470031 0.
0.59199 0.0470018 0.
0.593992 0.0470004 0.
0.595995 0.0470003 0.
0.597997 0.0470006 0.
0.6 0.0470009 0.
0.602002 0.0470016 0.
0.604004 0.0470023 0.
0.606007 0.0470032 0.
0.608009 0.0470046 0.
0.610011 0.0470061 0.
0.612013 0.0470075 0.
0.614015 0.0470087 0.
0.616016 0.04701 0.
0.618018 0.0470118 0.
0.620021 0.0470138 0.
0.622023 0.0470159 0.
0.624026 0.047017 0.
0.626028 0.0470181 0.
0.628031 0.0470193 0.
0.630033 0.0470212 0.
0.632034 0.0470232 0.
0.634036 0.0470249 0.
0.636038 0.0470261 0.
0.63804 0.0470273 0.
0.640042 0.0470283 0.
0.642044 0.0470291 0.
0.644047 0.04703 0.
0.646049 0.0470299 0.
0.648051 0.0470295 0.
0.650053 0.0470292 0.
0.652054 0.0470292 0.
0.654055 0.0470292 0.
0.656056 0.0470294 0.
0.658057 0.0470305 0.
0.660059 0.0470317 0.
0.66206 0.0470323 0.
0.664062 0.0470324 0.
0.666063 0.0470325 0.
0.668064 0.0470333 0.
0.670065 0.0470345 0.
0.672067 0.0470356 0.
0.674068 0.047035 0.
0.676069 0.0470343 0.
0.678071 0.0470338 0.
0.680071 0.0470349 0.
0.682072 0.0470359 0.
0.684073 0.047037 0.
0.686073 0.0470381 0.
0.688074 0.0470391 0.
0.690075 0.0470415 0.
0.692076 0.0470447 0.
0.694078 0.047048 0.
0.696078 0.0470518 0.
0.698077 0.0470557 0.
0.499925 0.0490464 0.
0.501925 0.0490443 0.
0.503926 0.049042 0.
0.505927 0.0490399 0.
0.507927 0.0490378 0.
0.509928 0.0490357 0.
0.511929 0.049034 0.
0.513929 0.0490328 0.
0.51593 0.0490315 0.
0.517931 0.0490304 0.
0.519932 0.0490293 0.
0.521934 0.0490283 0.
0.523934 0.0490284 0.
0.525935 0.0490288 0.
0.527936 0.0490292 0.
0.529937 0.0490289 0.
0.531939 0.0490287 0.
0.53394 0.0490283 0.
0.535941 0.0490275 0.
0.537942 0.0490267 0.
0.539943 0.0490256 0.
0.541944 0.0490243 0.
0.543946 0.049023 0.
0.545947 0.0490229 0.
0.547949 0.0490232 0.
0.54995 0.0490236 0.
0.551952 0.0490247 0.
0.553953 0.0490258 0.
0.555955 0.0490265 0.
0.557957 0.0490253 0.
0.55996 0.0490242 0.
0.561962 0.0490229 0.
0.563964 0.0490214 0.
0.565965 0.04902 0.
0.567967 0.0490185 0.
0.569969 0.0490171 0.
0.57197 0.0490157 0.
0.573973 0.0490148 0.
0.575976 0.0490139 0.
0.577978 0.0490129 0.
0.57998 0.0490112 0.
0.581982 0.0490095 0.
0.583983 0.0490078 0.
0.585985 0.049006 0.
0.587987 0.0490042 0.
0.589989 0.0490027 0.
0.591991 0.0490015 0.
0.593993 0.0490002 0.
0.595995 0.0490002 0.
0.597998 0.0490005 0.
0.6 0.0490008 0.
0.602002 0.0490016 0.
0.604004 0.0490024 0.
0.606006 0.0490033 0.
0.608008 0.0490047 0.
0.61001 0.0490062 0.
0.612012 0.0490077 0.
0.614013 0.049009 0.
0.616015 0.0490104 0.
0.618017 0.0490118 0.
0.620019 0.0490131 0.
0.622022 0.0490144 0.
0.624025 0.0490155 0.
0.626027 0.0490165 0.
0.628029 0.0490177 0.
0.630031 0.0490197 0.
0.632032 0.0490216 0.
0.634034 0.0490233 0.
0.636036 0.0490246 0.
0.638037 0.0490259 0.
0.64004 0.0490269 0.
0.642042 0.0490276 0.
0.644045 0.0490284 0.
0.646047 0.0490282 0.
0.648048 0.0490276 0.
0.65005 0.0490272 0.
0.652051 0.0490277 0.
0.654051 0.0490282 0.
0.656052 0.0490287 0.
0.658053 0.0490294 0.
0.660054 0.0490301 0.
0.662056 0.0490306 0.
0.664058 0.0490309 0.
0.66606 0.0490312 0.
0.668061 0.0490324 0.
0.670062 0.049034 0.
0.672063 0.0490357 0.
0.674064 0.0490354 0.
0.676066 0.0490348 0.
0.678067 0.0490345 0.
0.680068 0.0490353 0.
0.682069 0.0490362 0.
0.68407 0.0490372 0.
0.68607 0.0490384 0.
0.688071 0.0490395 0.
0.690071 0.0490419 0.
0.692072 0.0490452 0.
0.694073 0.0490484 0.
0.696073 0.0490524 0.
0.698073 0.0490567 0.
0.499929 0.0510471 0.
0.501929 0.0510446 0.
0.50393 0.0510421 0.
0.50593 0.0510398 0.
0.507931 0.0510379 0.
0.509932 0.051036 0.
0.511932 0.0510342 0.
0.513933 0.0510328 0.
0.515933 0.0510314 0.
0.517934 0.0510302 0.
0.519936 0.051029 0.
0.521937 0.0510278 0.
0.523938 0.0510279 0.
0.525939 0.0510282 0.
0.527939 0.0510285 0.
0.529941 0.0510282 0.
0.531942 0.0510279 0.
0.533943 0.0510275 0.
0.535944 0.0510268 0.
0.537946 0.0510261 0.
0.539947 0.0510251 0.
0.541948 0.0510238 0.
0.543949 0.0510225 0.
0.545951 0.0510223 0.
0.547952 0.0510225 0.
0.549953 0.0510227 0.
0.551954 0.0510235 0.
0.553956 0.0510244 0.
0.555957 0.0510249 0.
0.55796 0.0510239 0.
0.559962 0.0510228 0.
0.561965 0.0510215 0.
0.563966 0.0510199 0.
0.565968 0.0510182 0.
0.567969 0.051017 0.
0.569971 0.0510161 0.
0.571973 0.0510151 0.
0.573975 0.051014 0.
0.575978 0.0510129 0.
0.57798 0.0510117 0.
0.579982 0.0510101 0.
0.581983 0.0510085 0.
0.583985 0.0510069 0.
0.585987 0.0510054 0.
0.587988 0.0510039 0.
0.58999 0.0510025 0.
0.591992 0.0510013 0.
0.593994 0.0510001 0.
0.595996 0.0510003 0.
0.597998 0.0510007 0.
0.6 0.0510012 0.
0.602002 0.051002 0.
0.604004 0.0510028 0.
0.606006 0.0510037 0.
0.608008 0.051005 0.
0.61001 0.0510063 0.
0.612011 0.0510077 0.
0.614012 0.0510091 0.
0.616013 0.0510105 0.
0.618016 0.0510115 0.
0.620018 0.0510123 0.
0.622021 0.0510131 0.
0.624023 0.0510141 0.
0.626025 0.0510151 0.
0.628027 0.0510163 0.
0.630029 0.051018 0.
0.63203 0.0510198 0.
0.634032 0.0510214 0.
0.636034 0.0510229 0.
0.638035 0.0510244 0.
0.640037 0.0510255 0.
0.64204 0.0510263 0.
0.644042 0.051027 0.
0.646044 0.0510267 0.
0.648045 0.0510262 0.
0.650047 0.0510258 0.
0.652048 0.0510266 0.
0.654048 0.0510274 0.
0.656049 0.0510281 0.
0.65805 0.0510284 0.
0.660051 0.0510288 0.
0.662052 0.0510292 0.
0.664054 0.0510298 0.
0.666056 0.0510305 0.
0.668057 0.0510317 0.
0.670058 0.0510332 0.
0.67206 0.0510348 0.
0.674061 0.051035 0.
0.676062 0.0510351 0.
0.678063 0.0510352 0.
0.680064 0.0510357 0.
0.682065 0.0510363 0.
0.684066 0.0510371 0.
0.686066 0.0510385 0.
0.688067 0.05104 0.
0.690067 0.0510423 0.
0.692067 0.0510454 0.
0.694068 0.0510485 0.
0.696068 0.0510526 0.
0.698068 0.0510568 0.
0.499934 0.0530479 0.
0.501934 0.053045 0.
0.503934 0.0530424 0.
0.505934 0.05304 0.
0.507935 0.0530383 0.
0.509935 0.0530365 0.
0.511936 0.0530347 0.
0.513937 0.0530328 0.
0.515938 0.0530309 0.
0.517939 0.0530296 0.
0.51994 0.0530286 0.
0.521941 0.0530276 0.
0.523942 0.0530275 0.
0.525943 0.0530276 0.
0.527944 0.0530277 0.
0.529945 0.0530274 0.
0.531946 0.0530272 0.
0.533947 0.0530268 0.
0.535948 0.053026 0.
0.53795 0.0530252 0.
0.539951 0.0530244 0.
0.541952 0.0530236 0.
0.543953 0.0530228 0.
0.545954 0.0530224 0.
0.547954 0.0530222 0.
0.549955 0.0530219 0.
0.551957 0.0530223 0.
0.553958 0.0530227 0.
0.55596 0.0530229 0.
0.557962 0.0530223 0.
0.559963 0.0530216 0.
0.561965 0.0530204 0.
0.563968 0.0530183 0.
0.56597 0.0530162 0.
0.567972 0.0530153 0.
0.569974 0.053015 0.
0.571976 0.0530147 0.
0.573978 0.0530135 0.
0.57598 0.053012 0.
0.577982 0.0530107 0.
0.579983 0.0530093 0.
0.581985 0.0530079 0.
0.583986 0.0530065 0.
0.585987 0.0530051 0.
0.587989 0.0530037 0.
0.58999 0.0530024 0.
0.591992 0.0530013 0.
0.593994 0.0530003 0.
0.595996 0.0530006 0.
0.597998 0.0530013 0.
0.6 0.053002 0.
0.602002 0.0530028 0.
0.604004 0.0530035 0.
0.606006 0.0530043 0.
0.608008 0.0530053 0.
0.610009 0.0530063 0.
0.612011 0.0530075 0.
0.614012 0.0530089 0.
0.616013 0.0530103 0.
0.618015 0.0530111 0.
0.620017 0.0530116 0.
0.622019 0.0530121 0.
0.624021 0.053013 0.
0.626023 0.053014 0.
0.628025 0.053015 0.
0.630026 0.0530163 0.
0.632028 0.0530176 0.
0.63403 0.0530192 0.
0.636032 0.0530211 0.
0.638034 0.0530231 0.
0.640036 0.0530243 0.
0.642037 0.053025 0.
0.644039 0.0530256 0.
0.64604 0.0530256 0.
0.648042 0.0530253 0.
0.650044 0.053025 0.
0.652044 0.053026 0.
0.654045 0.053027 0.
0.656046 0.0530277 0.
0.658047 0.0530277 0.
0.660048 0.0530277 0.
0.66205 0.0530282 0.
0.664051 0.0530292 0.
0.666053 0.0530303 0.
0.668054 0.0530312 0.
0.670056 0.0530321 0.
0.672057 0.053033 0.
0.674058 0.053034 0.
0.676058 0.0530351 0.
0.678059 0.0530359 0.
0.68006 0.0530361 0.
0.68206 0.0530362 0.
0.684061 0.0530369 0.
0.686062 0.0530386 0.
0.688062 0.0530404 0.
0.690063 0.0530427 0.
0.692063 0.0530456 0.
0.694063 0.0530484 0.
0.696063 0.0530522 0.
0.698063 0.0530561 0.
0.49994 0.0550486 0.
0.501939 0.0550453 0.
0.503938 0.0550427 0.
0.505938 0.0550402 0.
0.507939 0.0550386 0.
0.509939 0.0550371 0.
0.51194 0.0550351 0.
0.513941 0.0550327 0.
0.515942 0.0550303 0.
0.517943 0.055029 0.
0.519944 0.0550282 0.
0.521945 0.0550275 0.
0.523946 0.0550272 0.
0.525948 0.0550271 0.
0.527949 0.0550269 0.
0.52995 0.0550267 0.
0.53195 0.0550266 0.
0.533951 0.0550262 0.
0.535952 0.0550252 0.
0.537954 0.0550242 0.
0.539955 0.0550236 0.
0.541955 0.0550233 0.
0.543956 0.055023 0.
0.545957 0.0550225 0.
0.547957 0.0550219 0.
0.549957 0.0550212 0.
0.551959 0.0550211 0.
0.553961 0.055021 0.
0.555963 0.0550209 0.
0.557964 0.0550207 0.
0.559965 0.0550204 0.
0.561966 0.0550192 0.
0.563969 0.0550167 0.
0.565972 0.0550142 0.
0.567974 0.0550135 0.
0.569976 0.055014 0.
0.571978 0.0550144 0.
0.57398 0.0550129 0.
0.575982 0.0550112 0.
0.577984 0.0550096 0.
0.579985 0.0550084 0.
0.581986 0.0550073 0.
0.583987 0.055006 0.
0.585988 0.0550047 0.
0.587989 0.0550034 0.
0.589991 0.0550024 0.
0.591993 0.0550014 0.
0.593995 0.0550004 0.
0.595997 0.0550009 0.
0.597999 0.0550019 0.
0.600001 0.0550029 0.
0.602003 0.0550036 0.
0.604005 0.0550043 0.
0.606006 0.055005 0.
0.608008 0.0550057 0.
0.610009 0.0550063 0.
0.61201 0.0550073 0.
0.614012 0.0550087 0.
0.616013 0.05501 0.
0.618014 0.0550106 0.
0.620015 0.0550108 0.
0.622016 0.0550111 0.
0.624018 0.055012 0.
0.62602 0.0550129 0.
0.628022 0.0550138 0.
0.630024 0.0550147 0.
0.632026 0.0550155 0.
0.634028 0.0550169 0.
0.63603 0.0550193 0.
0.638033 0.0550217 0.
0.640034 0.055023 0.
0.642035 0.0550237 0.
0.644035 0.0550243 0.
0.646037 0.0550244 0.
0.648039 0.0550243 0.
0.65004 0.0550243 0.
0.652041 0.0550254 0.
0.654042 0.0550266 0.
0.656043 0.0550274 0.
0.658044 0.055027 0.
0.660046 0.0550267 0.
0.662047 0.0550272 0.
0.664048 0.0550287 0.
0.666049 0.0550302 0.
0.668051 0.0550308 0.
0.670053 0.055031 0.
0.672055 0.0550313 0.
0.674055 0.0550331 0.
0.676055 0.0550351 0.
0.678055 0.0550367 0.
0.680055 0.0550364 0.
0.682055 0.0550361 0.
0.684056 0.0550367 0.
0.686057 0.0550387 0.
0.688058 0.0550407 0.
0.690058 0.0550431 0.
0.692058 0.0550457 0.
0.694058 0.0550483 0.
0.696058 0.0550518 0.
0.698058 0.0550555 0.
0.499943 0.057049 0.
0.501942 0.0570458 0.
0.503942 0.0570429 0.
0.505941 0.0570402 0.
0.507942 0.0570384 0.
0.509942 0.0570366 0.
0.511943 0.0570347 0.
0.513944 0.0570328 0.
0.515945 0.0570309 0.
0.517946 0.0570295 0.
0.519947 0.0570283 0.
0.521948 0.0570271 0.
0.523949 0.0570268 0.
0.52595 0.0570266 0.
0.527951 0.0570264 0.
0.529952 0.0570263 0.
0.531953 0.0570261 0.
0.533954 0.0570257 0.
0.535955 0.0570248 0.
0.537955 0.0570238 0.
0.539956 0.0570231 0.
0.541957 0.0570226 0.
0.543958 0.0570221 0.
0.545959 0.0570215 0.
0.54796 0.0570208 0.
0.54996 0.05702 0.
0.551962 0.0570204 0.
0.553964 0.0570207 0.
0.555966 0.0570209 0.
0.557967 0.0570202 0.
0.559967 0.0570196 0.
0.561969 0.0570182 0.
0.563971 0.057016 0.
0.565973 0.0570137 0.
0.567975 0.0570129 0.
0.569977 0.0570129 0.
0.571979 0.0570129 0.
0.573981 0.0570117 0.
0.575983 0.0570103 0.
0.577984 0.0570089 0.
0.579985 0.057008 0.
0.581986 0.0570071 0.
0.583988 0.0570059 0.
0.585989 0.0570044 0.
0.58799 0.0570029 0.
0.589991 0.057002 0.
0.591993 0.0570014 0.
0.593995 0.0570009 0.
0.595997 0.0570012 0.
0.597999 0.0570018 0.
0.600001 0.0570024 0.
0.602002 0.0570034 0.
0.604004 0.0570043 0.
0.606005 0.0570052 0.
0.608007 0.0570057 0.
0.610008 0.0570063 0.
0.61201 0.0570071 0.
0.614011 0.0570082 0.
0.616013 0.0570093 0.
0.618014 0.0570099 0.
0.620015 0.0570104 0.
0.622016 0.0570109 0.
0.624017 0.0570118 0.
0.626019 0.0570128 0.
0.62802 0.0570137 0.
0.630022 0.0570147 0.
0.632024 0.0570156 0.
0.634026 0.0570169 0.
0.636028 0.057019 0.
0.63803 0.0570212 0.
0.640031 0.0570224 0.
0.642032 0.057023 0.
0.644033 0.0570236 0.
0.646034 0.0570236 0.
0.648036 0.0570235 0.
0.650037 0.0570235 0.
0.652038 0.0570243 0.
0.654039 0.0570251 0.
0.65604 0.0570258 0.
0.658042 0.0570261 0.
0.660043 0.0570264 0.
0.662044 0.0570271 0.
0.664045 0.0570281 0.
0.666047 0.0570292 0.
0.668048 0.0570301 0.
0.67005 0.0570309 0.
0.672051 0.0570317 0.
0.674052 0.0570331 0.
0.676052 0.0570345 0.
0.678052 0.0570358 0.
0.680052 0.0570362 0.
0.682053 0.0570365 0.
0.684053 0.0570374 0.
0.686054 0.0570393 0.
0.688055 0.0570411 0.
0.690055 0.0570434 0.
0.692055 0.0570461 0.
0.694056 0.0570488 0.
0.696056 0.0570523 0.
0.698056 0.0570561 0.
0.499946 0.0590494 0.
0.501946 0.0590462 0.
0.503945 0.0590431 0.
0.505945 0.0590402 0.
0.507945 0.0590381 0.
0.509945 0.0590361 0.
0.511946 0.0590343 0.
0.513947 0.0590329 0.
0.515948 0.0590315 0.
0.517949 0.0590299 0.
0.519949 0.0590284 0.
0.52195 0.0590268 0.
0.523951 0.0590264 0.
0.525952 0.0590262 0.
0.527953 0.059026 0.
0.529954 0.0590258 0.
0.531956 0.0590256 0.
0.533957 0.0590252 0.
0.535957 0.0590244 0.
0.537957 0.0590235 0.
0.539958 0.0590227 0.
0.541959 0.0590219 0.
0.543961 0.0590212 0.
0.545962 0.0590204 0.
0.547962 0.0590196 0.
0.549963 0.0590189 0.
0.551965 0.0590196 0.
0.553967 0.0590204 0.
0.555969 0.0590208 0.
0.557969 0.0590198 0.
0.55997 0.0590187 0.
0.561971 0.0590173 0.
0.563973 0.0590153 0.
0.565975 0.0590133 0.
0.567976 0.0590123 0.
0.569978 0.0590119 0.
0.57198 0.0590115 0.
0.573981 0.0590104 0.
0.575983 0.0590093 0.
0.577984 0.0590083 0.
0.579986 0.0590076 0.
0.581987 0.0590069 0.
0.583988 0.0590058 0.
0.585989 0.0590041 0.
0.58799 0.0590024 0.
0.589992 0.0590016 0.
0.591993 0.0590015 0.
0.593995 0.0590014 0.
0.595997 0.0590016 0.
0.597999 0.0590018 0.
0.6 0.0590019 0.
0.602002 0.0590032 0.
0.604003 0.0590044 0.
0.606004 0.0590054 0.
0.608006 0.0590058 0.
0.610008 0.0590062 0.
0.61201 0.0590068 0.
0.614011 0.0590076 0.
0.616012 0.0590085 0.
0.618013 0.0590093 0.
0.620014 0.05901 0.
0.622015 0.0590107 0.
0.624016 0.0590117 0.
0.626018 0.0590127 0.
0.628019 0.0590137 0.
0.63002 0.0590147 0.
0.632022 0.0590156 0.
0.634024 0.0590169 0.
0.636025 0.0590188 0.
0.638027 0.0590207 0.
0.640028 0.0590218 0.
0.64203 0.0590223 0.
0.644031 0.0590228 0.
0.646032 0.0590229 0.
0.648033 0.0590227 0.
0.650034 0.0590227 0.
0.652035 0.0590232 0.
0.654036 0.0590236 0.
0.656037 0.0590242 0.
0.658039 0.0590252 0.
0.66004 0.0590261 0.
0.662041 0.0590269 0.
0.664043 0.0590276 0.
0.666044 0.0590283 0.
0.668046 0.0590294 0.
0.670047 0.0590307 0.
0.672048 0.059032 0.
0.674048 0.059033 0.
0.676049 0.059034 0.
0.678049 0.059035 0.
0.680049 0.0590359 0.
0.68205 0.0590369 0.
0.684051 0.0590381 0.
0.686051 0.0590398 0.
0.688052 0.0590415 0.
0.690052 0.0590438 0.
0.692053 0.0590465 0.
0.694053 0.0590492 0.
0.696053 0.0590529 0.
0.698054 0.0590567 0.
0.499949 0.0610497 0.
0.501949 0.0610466 0.
0.503949 0.0610434 0.
0.505949 0.0610404 0.
0.507949 0.0610382 0.
0.509949 0.0610359 0.
0.51195 0.0610341 0.
0.513951 0.0610328 0.
0.515952 0.0610316 0.
0.517952 0.0610302 0.
0.519952 0.0610286 0.
0.521953 0.061027 0.
0.523954 0.0610265 0.
0.525954 0.0610262 0.
0.527955 0.0610259 0.
0.529957 0.0610256 0.
0.531958 0.0610252 0.
0.533959 0.0610248 0.
0.535959 0.0610241 0.
0.537959 0.0610233 0.
0.53996 0.0610224 0.
0.541961 0.0610214 0.
0.543963 0.0610204 0.
0.545964 0.0610196 0.
0.547965 0.0610188 0.
0.549966 0.0610181 0.
0.551967 0.0610189 0.
0.553969 0.0610197 0.
0.555971 0.06102 0.
0.557972 0.061019 0.
0.559973 0.0610179 0.
0.561974 0.0610165 0.
0.563975 0.0610148 0.
0.565976 0.0610132 0.
0.567978 0.061012 0.
0.569979 0.0610111 0.
0.571981 0.0610103 0.
0.573982 0.0610095 0.
0.575984 0.0610087 0.
0.577985 0.0610079 0.
0.579986 0.0610072 0.
0.581987 0.0610065 0.
0.583989 0.0610056 0.
0.58599 0.0610039 0.
0.587991 0.0610023 0.
0.589992 0.0610016 0.
0.591993 0.0610017 0.
0.593994 0.0610018 0.
0.595996 0.0610018 0.
0.597998 0.0610018 0.
0.6 0.0610018 0.
0.602002 0.061003 0.
0.604003 0.0610041 0.
0.606005 0.0610051 0.
0.608007 0.0610054 0.
0.610008 0.0610057 0.
0.61201 0.0610063 0.
0.614011 0.0610072 0.
0.616011 0.0610081 0.
0.618012 0.0610089 0.
0.620013 0.0610098 0.
0.622014 0.0610106 0.
0.624015 0.0610115 0.
0.626016 0.0610124 0.
0.628017 0.0610134 0.
0.630019 0.0610144 0.
0.63202 0.0610155 0.
0.634021 0.0610167 0.
0.636023 0.0610183 0.
0.638024 0.0610199 0.
0.640026 0.061021 0.
0.642027 0.0610216 0.
0.644029 0.0610223 0.
0.64603 0.0610223 0.
0.648031 0.0610221 0.
0.650031 0.061022 0.
0.652032 0.0610222 0.
0.654034 0.0610225 0.
0.656035 0.061023 0.
0.658036 0.0610242 0.
0.660038 0.0610255 0.
0.662039 0.0610264 0.
0.664041 0.061027 0.
0.666042 0.0610276 0.
0.668043 0.0610288 0.
0.670044 0.0610302 0.
0.672045 0.0610316 0.
0.674045 0.0610326 0.
0.676046 0.0610335 0.
0.678046 0.0610345 0.
0.680047 0.0610358 0.
0.682047 0.0610371 0.
0.684048 0.0610386 0.
0.686048 0.0610402 0.
0.688049 0.0610418 0.
0.690049 0.061044 0.
0.69205 0.0610466 0.
0.69405 0.0610493 0.
0.696051 0.061053 0.
0.698051 0.0610569 0.
0.499952 0.06305 0.
0.501952 0.0630469 0.
0.503952 0.0630438 0.
0.505952 0.0630409 0.
0.507953 0.0630384 0.
0.509954 0.063036 0.
0.511954 0.063034 0.
0.513955 0.0630327 0.
0.515955 0.0630314 0.
0.517955 0.0630302 0.
0.519956 0.063029 0.
0.521956 0.0630278 0.
0.523957 0.0630272 0.
0.525957 0.0630266 0.
0.527958 0.0630261 0.
0.529959 0.0630255 0.
0.53196 0.063025 0.
0.533961 0.0630244 0.
0.535962 0.0630239 0.
0.537962 0.0630233 0.
0.539963 0.0630224 0.
0.541964 0.0630211 0.
0.543965 0.0630198 0.
0.545966 0.063019 0.
0.547967 0.0630183 0.
0.549967 0.0630177 0.
0.551969 0.0630181 0.
0.55397 0.0630185 0.
0.555971 0.0630186 0.
0.557973 0.0630178 0.
0.559975 0.063017 0.
0.561976 0.0630159 0.
0.563977 0.0630146 0.
0.565978 0.0630133 0.
0.567979 0.063012 0.
0.569981 0.0630107 0.
0.571982 0.0630093 0.
0.573984 0.0630087 0.
0.575985 0.0630083 0.
0.577986 0.0630078 0.
0.579987 0.0630069 0.
0.581989 0.0630061 0.
0.583989 0.0630051 0.
0.58599 0.0630038 0.
0.587991 0.0630025 0.
0.589991 0.063002 0.
0.591992 0.063002 0.
0.593992 0.0630021 0.
0.595995 0.0630021 0.
0.597998 0.063002 0.
0.6 0.0630019 0.
0.602003 0.0630028 0.
0.604005 0.0630036 0.
0.606007 0.0630042 0.
0.608008 0.0630045 0.
0.610009 0.0630048 0.
0.61201 0.0630055 0.
0.61401 0.0630067 0.
0.616011 0.0630079 0.
0.618011 0.0630089 0.
0.620012 0.0630098 0.
0.622013 0.0630106 0.
0.624014 0.0630114 0.
0.626015 0.0630121 0.
0.628016 0.0630129 0.
0.630017 0.063014 0.
0.632018 0.0630152 0.
0.634019 0.0630164 0.
0.636021 0.0630176 0.
0.638022 0.0630189 0.
0.640024 0.06302 0.
0.642025 0.0630209 0.
0.644027 0.0630219 0.
0.646028 0.0630219 0.
0.648029 0.0630216 0.
0.65003 0.0630214 0.
0.652031 0.0630216 0.
0.654032 0.0630217 0.
0.656034 0.0630221 0.
0.658035 0.0630233 0.
0.660036 0.0630244 0.
0.662038 0.0630255 0.
0.664039 0.0630264 0.
0.66604 0.0630273 0.
0.668041 0.0630283 0.
0.670041 0.0630294 0.
0.672042 0.0630306 0.
0.674043 0.0630318 0.
0.676043 0.063033 0.
0.678044 0.0630342 0.
0.680044 0.0630357 0.
0.682044 0.0630372 0.
0.684044 0.0630388 0.
0.686045 0.0630404 0.
0.688045 0.0630421 0.
0.690046 0.0630442 0.
0.692047 0.0630465 0.
0.694048 0.0630489 0.
0.696048 0.0630526 0.
0.698047 0.0630567 0.
0.499954 0.0650501 0.
0.501955 0.0650471 0.
0.503955 0.0650442 0.
0.505956 0.0650414 0.
0.507957 0.0650387 0.
0.509958 0.065036 0.
0.511959 0.0650339 0.
0.513958 0.0650325 0.
0.515958 0.0650311 0.
0.517958 0.0650302 0.
0.519959 0.0650294 0.
0.521959 0.0650286 0.
0.52396 0.0650278 0.
0.52596 0.0650271 0.
0.527961 0.0650263 0.
0.529962 0.0650255 0.
0.531962 0.0650247 0.
0.533963 0.065024 0.
0.535964 0.0650236 0.
0.537965 0.0650233 0.
0.539966 0.0650223 0.
0.541967 0.0650208 0.
0.543967 0.0650192 0.
0.545968 0.0650184 0.
0.547968 0.0650178 0.
0.549969 0.0650173 0.
0.55197 0.0650173 0.
0.553971 0.0650173 0.
0.555972 0.0650172 0.
0.557975 0.0650166 0.
0.559977 0.0650161 0.
0.561979 0.0650153 0.
0.563979 0.0650144 0.
0.565979 0.0650134 0.
0.567981 0.0650119 0.
0.569982 0.0650102 0.
0.571984 0.0650084 0.
0.573985 0.065008 0.
0.575986 0.0650079 0.
0.577988 0.0650077 0.
0.579989 0.0650067 0.
0.58199 0.0650057 0.
0.58399 0.0650046 0.
0.585991 0.0650037 0.
0.587991 0.0650027 0.
0.589991 0.0650023 0.
0.591991 0.0650023 0.
0.59399 0.0650023 0.
0.595993 0.0650023 0.
0.597997 0.0650022 0.
0.6 0.0650021 0.
0.602003 0.0650026 0.
0.604006 0.065003 0.
0.606009 0.0650033 0.
0.60801 0.0650037 0.
0.61001 0.065004 0.
0.612011 0.0650048 0.
0.61401 0.0650063 0.
0.61601 0.0650078 0.
0.61801 0.0650088 0.
0.620011 0.0650097 0.
0.622011 0.0650107 0.
0.624012 0.0650112 0.
0.626013 0.0650118 0.
0.628014 0.0650124 0.
0.630015 0.0650137 0.
0.632016 0.0650149 0.
0.634017 0.065016 0.
0.636018 0.065017 0.
0.63802 0.0650179 0.
0.640022 0.065019 0.
0.642023 0.0650203 0.
0.644025 0.0650215 0.
0.646026 0.0650215 0.
0.648027 0.0650212 0.
0.650028 0.0650208 0.
0.65203 0.0650209 0.
0.654031 0.0650209 0.
0.656032 0.0650212 0.
0.658033 0.0650223 0.
0.660035 0.0650234 0.
0.662036 0.0650245 0.
0.664037 0.0650258 0.
0.666038 0.065027 0.
0.668039 0.0650279 0.
0.670039 0.0650287 0.
0.672039 0.0650295 0.
0.67404 0.0650309 0.
0.676041 0.0650325 0.
0.678042 0.065034 0.
0.680041 0.0650357 0.
0.682041 0.0650373 0.
0.684041 0.065039 0.
0.686041 0.0650407 0.
0.688042 0.0650424 0.
0.690043 0.0650443 0.
0.692044 0.0650464 0.
0.694045 0.0650485 0.
0.696044 0.0650523 0.
0.698043 0.0650565 0.
0.499956 0.06705 0.
0.501957 0.0670469 0.
0.503958 0.067044 0.
0.505958 0.0670412 0.
0.507959 0.0670386 0.
0.509959 0.0670359 0.
0.51196 0.0670338 0.
0.513959 0.0670325 0.
0.515959 0.0670311 0.
0.51796 0.0670301 0.
0.519961 0.0670292 0.
0.521961 0.0670283 0.
0.523962 0.0670278 0.
0.525962 0.0670274 0.
0.527963 0.0670268 0.
0.529964 0.0670254 0.
0.531965 0.0670239 0.
0.533965 0.0670227 0.
0.535967 0.0670223 0.
0.537968 0.0670219 0.
0.539968 0.0670213 0.
0.541969 0.0670205 0.
0.54397 0.0670197 0.
0.54597 0.0670188 0.
0.547971 0.0670179 0.
0.549972 0.0670171 0.
0.551972 0.0670168 0.
0.553973 0.0670166 0.
0.555974 0.0670163 0.
0.557976 0.0670155 0.
0.559978 0.0670147 0.
0.56198 0.067014 0.
0.56398 0.0670133 0.
0.56598 0.0670126 0.
0.567981 0.0670113 0.
0.569983 0.0670096 0.
0.571984 0.067008 0.
0.573985 0.0670076 0.
0.575987 0.0670075 0.
0.577988 0.0670073 0.
0.579989 0.0670068 0.
0.581989 0.0670063 0.
0.58399 0.0670055 0.
0.58599 0.0670041 0.
0.587991 0.0670027 0.
0.589991 0.0670021 0.
0.591992 0.0670022 0.
0.593992 0.0670022 0.
0.595995 0.0670024 0.
0.597997 0.0670026 0.
0.6 0.0670027 0.
0.602003 0.0670031 0.
0.604005 0.0670034 0.
0.606007 0.0670037 0.
0.608008 0.067004 0.
0.610008 0.0670044 0.
0.612009 0.0670052 0.
0.614009 0.0670068 0.
0.616009 0.0670084 0.
0.618009 0.0670093 0.
0.62001 0.0670099 0.
0.62201 0.0670105 0.
0.624011 0.0670111 0.
0.626012 0.0670117 0.
0.628013 0.0670123 0.
0.630014 0.0670135 0.
0.632015 0.0670146 0.
0.634016 0.0670156 0.
0.636017 0.0670163 0.
0.638019 0.067017 0.
0.64002 0.067018 0.
0.642021 0.0670193 0.
0.644023 0.0670205 0.
0.646024 0.0670207 0.
0.648025 0.0670205 0.
0.650026 0.0670203 0.
0.652027 0.0670205 0.
0.654028 0.0670207 0.
0.656029 0.067021 0.
0.65803 0.067022 0.
0.660031 0.067023 0.
0.662032 0.0670241 0.
0.664033 0.0670254 0.
0.666034 0.0670268 0.
0.668035 0.0670277 0.
0.670036 0.0670285 0.
0.672036 0.0670292 0.
0.674037 0.0670306 0.
0.676038 0.0670321 0.
0.678038 0.0670336 0.
0.680038 0.0670355 0.
0.682038 0.0670373 0.
0.684038 0.067039 0.
0.686038 0.0670404 0.
0.688038 0.0670418 0.
0.690039 0.0670437 0.
0.69204 0.0670462 0.
0.694041 0.0670486 0.
0.696041 0.0670527 0.
0.698041 0.0670572 0.
0.499958 0.0690494 0.
0.501959 0.0690466 0.
0.50396 0.0690438 0.
0.505961 0.0690411 0.
0.507961 0.0690385 0.
0.50996 0.0690359 0.
0.51196 0.0690338 0.
0.513961 0.0690325 0.
0.515961 0.0690311 0.
0.517962 0.06903 0.
0.519963 0.069029 0.
0.521964 0.069028 0.
0.523964 0.0690278 0.
0.525964 0.0690277 0.
0.527965 0.0690273 0.
0.529966 0.0690252 0.
0.531967 0.0690231 0.
0.533968 0.0690215 0.
0.535969 0.069021 0.
0.53797 0.0690204 0.
0.539971 0.0690202 0.
0.541971 0.0690202 0.
0.543972 0.0690203 0.
0.545973 0.0690193 0.
0.547974 0.0690181 0.
0.549975 0.0690169 0.
0.551975 0.0690164 0.
0.553976 0.0690159 0.
0.555977 0.0690153 0.
0.557978 0.0690143 0.
0.559979 0.0690133 0.
0.56198 0.0690126 0.
0.563981 0.0690123 0.
0.565981 0.0690119 0.
0.567982 0.0690107 0.
0.569983 0.0690091 0.
0.571984 0.0690075 0.
0.573986 0.0690072 0.
0.575987 0.0690071 0.
0.577988 0.0690069 0.
0.579989 0.0690069 0.
0.581989 0.0690069 0.
0.58399 0.0690063 0.
0.58599 0.0690045 0.
0.587991 0.0690027 0.
0.589991 0.069002 0.
0.591993 0.0690021 0.
0.593994 0.0690022 0.
0.595996 0.0690025 0.
0.597998 0.0690029 0.
0.6 0.0690033 0.
0.602002 0.0690035 0.
0.604004 0.0690038 0.
0.606006 0.069004 0.
0.608006 0.0690044 0.
0.610006 0.0690047 0.
0.612007 0.0690057 0.
0.614007 0.0690073 0.
0.616008 0.069009 0.
0.618008 0.0690097 0.
0.620009 0.06901 0.
0.622009 0.0690103 0.
0.62401 0.0690109 0.
0.62601 0.0690116 0.
0.628011 0.0690123 0.
0.630013 0.0690133 0.
0.632015 0.0690143 0.
0.634016 0.0690152 0.
0.636017 0.0690157 0.
0.638017 0.0690162 0.
0.640018 0.0690171 0.
0.642019 0.0690183 0.
0.64402 0.0690195 0.
0.646021 0.0690198 0.
0.648023 0.0690198 0.
0.650024 0.0690198 0.
0.652024 0.0690201 0.
0.654025 0.0690204 0.
0.656025 0.0690208 0.
0.658026 0.0690217 0.
0.660028 0.0690226 0.
0.662029 0.0690237 0.
0.66403 0.0690251 0.
0.666031 0.0690266 0.
0.668032 0.0690275 0.
0.670033 0.0690282 0.
0.672034 0.069029 0.
0.674034 0.0690303 0.
0.676034 0.0690317 0.
0.678034 0.0690332 0.
0.680034 0.0690352 0.
0.682034 0.0690373 0.
0.684034 0.069039 0.
0.686034 0.0690401 0.
0.688035 0.0690412 0.
0.690036 0.0690432 0.
0.692037 0.0690459 0.
0.694037 0.0690487 0.
0.696038 0.0690531 0.
0.698039 0.0690579 0.
0.499961 0.0710488 0.
0.501962 0.0710462 0.
0.503963 0.0710437 0.
0.505963 0.0710411 0.
0.507963 0.0710383 0.
0.509962 0.0710356 0.
0.511962 0.0710335 0.
0.513963 0.0710323 0.
0.515963 0.0710311 0.
0.517964 0.0710299 0.
0.519965 0.0710287 0.
0.521965 0.0710276 0.
0.523966 0.0710274 0.
0.525967 0.0710274 0.
0.527967 0.0710271 0.
0.529968 0.0710248 0.
0.531969 0.0710226 0.
0.53397 0.0710208 0.
0.535971 0.0710202 0.
0.537972 0.0710196 0.
0.539972 0.0710195 0.
0.541973 0.0710197 0.
0.543974 0.07102 0.
0.545975 0.071019 0.
0.547976 0.0710176 0.
0.549977 0.0710163 0.
0.551977 0.0710158 0.
0.553978 0.0710153 0.
0.555979 0.0710147 0.
0.55798 0.0710137 0.
0.559981 0.0710127 0.
0.561981 0.071012 0.
0.563982 0.0710116 0.
0.565983 0.0710111 0.
0.567983 0.0710101 0.
0.569984 0.0710087 0.
0.571985 0.0710072 0.
0.573986 0.0710071 0.
0.575988 0.0710071 0.
0.577989 0.0710072 0.
0.579989 0.0710071 0.
0.58199 0.071007 0.
0.58399 0.0710064 0.
0.585991 0.0710046 0.
0.587991 0.0710028 0.
0.589992 0.0710021 0.
0.591993 0.0710022 0.
0.593994 0.0710024 0.
0.595996 0.0710026 0.
0.597998 0.0710028 0.
0.6 0.071003 0.
0.602002 0.0710034 0.
0.604003 0.0710038 0.
0.606004 0.0710042 0.
0.608004 0.0710047 0.
0.610005 0.0710052 0.
0.612005 0.0710062 0.
0.614006 0.0710078 0.
0.616007 0.0710094 0.
0.618007 0.07101 0.
0.620007 0.0710102 0.
0.622008 0.0710104 0.
0.624009 0.0710108 0.
0.626009 0.0710113 0.
0.62801 0.0710118 0.
0.630012 0.0710127 0.
0.632013 0.0710137 0.
0.634015 0.0710145 0.
0.636015 0.071015 0.
0.638016 0.0710156 0.
0.640016 0.0710164 0.
0.642017 0.0710175 0.
0.644018 0.0710185 0.
0.646019 0.0710189 0.
0.64802 0.0710191 0.
0.650021 0.0710193 0.
0.652022 0.0710196 0.
0.654022 0.0710199 0.
0.656023 0.0710203 0.
0.658024 0.0710213 0.
0.660025 0.0710222 0.
0.662026 0.0710233 0.
0.664027 0.0710246 0.
0.666028 0.0710259 0.
0.668028 0.071027 0.
0.670029 0.071028 0.
0.67203 0.071029 0.
0.674031 0.0710301 0.
0.676031 0.0710313 0.
0.678031 0.0710327 0.
0.680031 0.0710349 0.
0.682031 0.0710372 0.
0.684031 0.0710391 0.
0.686031 0.0710402 0.
0.688032 0.0710414 0.
0.690032 0.0710435 0.
0.692033 0.0710463 0.
0.694034 0.0710491 0.
0.696035 0.0710534 0.
0.698035 0.0710582 0.
0.499965 0.0730482 0.
0.501965 0.0730458 0.
0.503966 0.0730436 0.
0.505966 0.0730412 0.
0.507966 0.0730382 0.
0.509966 0.0730351 0.
0.511966 0.073033 0.
0.513966 0.073032 0.
0.515967 0.0730309 0.
0.517967 0.0730297 0.
0.519967 0.0730283 0.
0.521967 0.0730269 0.
0.523968 0.0730266 0.
0.525969 0.0730265 0.
0.52797 0.0730261 0.
0.529971 0.0730242 0.
0.531972 0.0730223 0.
0.533973 0.0730207 0.
0.535973 0.07302 0.
0.537974 0.0730193 0.
0.539974 0.073019 0.
0.541975 0.073019 0.
0.543975 0.073019 0.
0.545976 0.073018 0.
0.547977 0.0730166 0.
0.549978 0.0730153 0.
0.551979 0.073015 0.
0.55398 0.0730148 0.
0.555981 0.0730145 0.
0.557982 0.0730137 0.
0.559983 0.0730129 0.
0.561983 0.0730121 0.
0.563984 0.0730112 0.
0.565984 0.0730103 0.
0.567985 0.0730093 0.
0.569986 0.0730082 0.
0.571987 0.0730071 0.
0.573988 0.0730073 0.
0.575989 0.0730077 0.
0.57799 0.0730079 0.
0.579991 0.0730073 0.
0.581991 0.0730066 0.
0.583992 0.0730057 0.
0.585992 0.0730043 0.
0.587992 0.0730028 0.
0.589993 0.0730023 0.
0.591993 0.0730026 0.
0.593994 0.0730029 0.
0.595996 0.0730027 0.
0.597998 0.0730023 0.
0.6 0.073002 0.
0.602001 0.0730027 0.
0.604002 0.0730034 0.
0.606003 0.0730041 0.
0.608003 0.0730049 0.
0.610004 0.0730056 0.
0.612004 0.0730067 0.
0.614005 0.0730081 0.
0.616005 0.0730095 0.
0.618006 0.0730102 0.
0.620006 0.0730105 0.
0.622006 0.0730108 0.
0.624007 0.0730108 0.
0.626008 0.0730108 0.
0.62801 0.0730109 0.
0.630011 0.0730117 0.
0.632012 0.0730126 0.
0.634012 0.0730135 0.
0.636013 0.0730144 0.
0.638014 0.0730154 0.
0.640015 0.0730162 0.
0.642015 0.0730167 0.
0.644016 0.0730173 0.
0.646017 0.0730178 0.
0.648017 0.0730183 0.
0.650018 0.0730188 0.
0.65202 0.073019 0.
0.654021 0.0730192 0.
0.656022 0.0730196 0.
0.658022 0.0730207 0.
0.660023 0.0730219 0.
0.662024 0.0730229 0.
0.664025 0.0730239 0.
0.666025 0.0730248 0.
0.668026 0.0730261 0.
0.670026 0.0730276 0.
0.672027 0.0730291 0.
0.674027 0.0730301 0.
0.676028 0.073031 0.
0.678028 0.0730321 0.
0.680028 0.0730345 0.
0.682028 0.073037 0.
0.684028 0.0730391 0.
0.686028 0.0730406 0.
0.688029 0.0730422 0.
0.690029 0.0730444 0.
0.692029 0.073047 0.
0.69403 0.0730497 0.
0.696031 0.0730539 0.
0.698031 0.0730584 0.
0.499969 0.0750472 0.
0.501969 0.0750453 0.
0.503969 0.0750435 0.
0.505969 0.0750413 0.
0.507969 0.075038 0.
0.509969 0.0750347 0.
0.511969 0.0750325 0.
0.513969 0.0750316 0.
0.51597 0.0750308 0.
0.51797 0.0750294 0.
0.519969 0.0750278 0.
0.521969 0.0750262 0.
0.52397 0.0750258 0.
0.525971 0.0750256 0.
0.527973 0.0750252 0.
0.529973 0.0750236 0.
0.531974 0.0750219 0.
0.533975 0.0750206 0.
0.535975 0.0750198 0.
0.537976 0.075019 0.
0.539976 0.0750185 0.
0.541976 0.0750182 0.
0.543977 0.075018 0.
0.545978 0.075017 0.
0.547979 0.0750156 0.
0.54998 0.0750143 0.
0.551981 0.0750143 0.
0.553983 0.0750143 0.
0.555984 0.0750142 0.
0.557984 0.0750136 0.
0.559984 0.075013 0.
0.561985 0.0750121 0.
0.563985 0.0750108 0.
0.565986 0.0750095 0.
0.567987 0.0750086 0.
0.569987 0.0750078 0.
0.571988 0.075007 0.
0.573989 0.0750075 0.
0.575991 0.0750082 0.
0.577992 0.0750086 0.
0.579992 0.0750074 0.
0.581993 0.0750062 0.
0.583993 0.0750051 0.
0.585993 0.075004 0.
0.587993 0.0750029 0.
0.589994 0.0750026 0.
0.591994 0.075003 0.
0.593994 0.0750033 0.
0.595995 0.0750027 0.
0.597998 0.0750018 0.
0.6 0.0750009 0.
0.602001 0.075002 0.
0.604001 0.075003 0.
0.606002 0.0750041 0.
0.608002 0.0750051 0.
0.610002 0.0750061 0.
0.612003 0.0750072 0.
0.614004 0.0750084 0.
0.616004 0.0750096 0.
0.618004 0.0750103 0.
0.620004 0.0750108 0.
0.622003 0.0750112 0.
0.624005 0.0750108 0.
0.626008 0.0750103 0.
0.62801 0.07501 0.
0.63001 0.0750107 0.
0.63201 0.0750115 0.
0.63401 0.0750124 0.
0.636011 0.0750138 0.
0.638012 0.0750152 0.
0.640013 0.0750159 0.
0.642013 0.075016 0.
0.644013 0.0750162 0.
0.646014 0.0750168 0.
0.648015 0.0750175 0.
0.650016 0.0750183 0.
0.652017 0.0750184 0.
0.654019 0.0750184 0.
0.65602 0.0750189 0.
0.658021 0.0750202 0.
0.660022 0.0750215 0.
0.662022 0.0750226 0.
0.664023 0.0750232 0.
0.666023 0.0750238 0.
0.668023 0.0750253 0.
0.670023 0.0750273 0.
0.672023 0.0750293 0.
0.674023 0.0750301 0.
0.676024 0.0750307 0.
0.678025 0.0750316 0.
0.680025 0.0750341 0.
0.682026 0.0750367 0.
0.684026 0.0750391 0.
0.686026 0.075041 0.
0.688025 0.0750429 0.
0.690026 0.0750453 0.
0.692026 0.0750478 0.
0.694026 0.0750504 0.
0.696027 0.0750543 0.
0.698027 0.0750585 0.
0.499971 0.0770472 0.
0.501971 0.0770453 0.
0.503971 0.0770433 0.
0.505972 0.0770411 0.
0.507972 0.0770382 0.
0.509972 0.0770354 0.
0.511972 0.0770333 0.
0.513972 0.0770321 0.
0.515972 0.077031 0.
0.517972 0.0770294 0.
0.519972 0.0770277 0.
0.521972 0.077026 0.
0.523973 0.0770254 0.
0.525974 0.077025 0.
0.527975 0.0770245 0.
0.529976 0.0770231 0.
0.531977 0.0770217 0.
0.533977 0.0770204 0.
0.535977 0.0770196 0.
0.537978 0.0770188 0.
0.539978 0.0770181 0.
0.541979 0.0770173 0.
0.543979 0.0770166 0.
0.54598 0.0770158 0.
0.547981 0.0770149 0.
0.549981 0.077014 0.
0.551983 0.0770139 0.
0.553984 0.0770138 0.
0.555985 0.0770136 0.
0.557985 0.0770131 0.
0.559985 0.0770126 0.
0.561986 0.0770119 0.
0.563987 0.0770107 0.
0.565988 0.0770096 0.
0.567988 0.0770087 0.
0.569989 0.0770078 0.
0.571989 0.077007 0.
0.57399 0.0770073 0.
0.575991 0.0770078 0.
0.577991 0.0770081 0.
0.579992 0.0770071 0.
0.581993 0.0770061 0.
0.583993 0.0770051 0.
0.585993 0.0770042 0.
0.587994 0.0770033 0.
0.589994 0.0770029 0.
0.591994 0.0770031 0.
0.593994 0.0770032 0.
0.595995 0.0770026 0.
0.597998 0.0770019 0.
0.6 0.0770012 0.
0.602001 0.0770022 0.
0.604001 0.0770031 0.
0.606001 0.0770041 0.
0.608002 0.077005 0.
0.610003 0.077006 0.
0.612003 0.0770069 0.
0.614004 0.0770077 0.
0.616004 0.0770085 0.
0.618004 0.0770092 0.
0.620004 0.0770099 0.
0.622005 0.0770105 0.
0.624006 0.0770104 0.
0.626007 0.0770102 0.
0.628008 0.0770102 0.
0.630008 0.0770108 0.
0.632008 0.0770115 0.
0.634009 0.0770124 0.
0.636009 0.0770137 0.
0.63801 0.0770149 0.
0.64001 0.0770156 0.
0.642011 0.0770158 0.
0.644011 0.0770161 0.
0.646012 0.0770167 0.
0.648013 0.0770175 0.
0.650014 0.0770183 0.
0.652015 0.0770183 0.
0.654016 0.0770182 0.
0.656017 0.0770185 0.
0.658018 0.0770197 0.
0.660018 0.077021 0.
0.662019 0.0770221 0.
0.66402 0.0770229 0.
0.666021 0.0770238 0.
0.668021 0.0770253 0.
0.67002 0.0770272 0.
0.67202 0.0770291 0.
0.67402 0.0770302 0.
0.676021 0.0770313 0.
0.678021 0.0770324 0.
0.680022 0.0770344 0.
0.682022 0.0770364 0.
0.684023 0.0770385 0.
0.686023 0.0770408 0.
0.688023 0.077043 0.
0.690023 0.0770454 0.
0.692023 0.0770477 0.
0.694023 0.0770501 0.
0.696023 0.0770537 0.
0.698023 0.0770577 0.
0.499973 0.0790474 0.
0.501974 0.0790453 0.
0.503974 0.0790431 0.
0.505975 0.0790408 0.
0.507975 0.0790384 0.
0.509975 0.079036 0.
0.511975 0.079034 0.
0.513975 0.0790326 0.
0.515975 0.0790312 0.
0.517975 0.0790295 0.
0.519974 0.0790276 0.
0.521974 0.0790257 0.
0.523975 0.079025 0.
0.525976 0.0790245 0.
0.527978 0.0790238 0.
0.529978 0.0790226 0.
0.531979 0.0790214 0.
0.53398 0.0790203 0.
0.53598 0.0790194 0.
0.53798 0.0790186 0.
0.53998 0.0790176 0.
0.541981 0.0790164 0.
0.543981 0.0790152 0.
0.545982 0.0790146 0.
0.547983 0.0790141 0.
0.549983 0.0790136 0.
0.551984 0.0790135 0.
0.553985 0.0790133 0.
0.555986 0.079013 0.
0.557986 0.0790126 0.
0.559986 0.0790123 0.
0.561986 0.0790116 0.
0.563988 0.0790106 0.
0.565989 0.0790096 0.
0.56799 0.0790087 0.
0.56999 0.0790078 0.
0.571991 0.0790069 0.
0.573991 0.0790071 0.
0.575991 0.0790075 0.
0.577991 0.0790076 0.
0.579992 0.0790068 0.
0.581992 0.079006 0.
0.583993 0.0790052 0.
0.585993 0.0790044 0.
0.587994 0.0790036 0.
0.589994 0.0790032 0.
0.591994 0.0790031 0.
0.593994 0.079003 0.
0.595995 0.0790026 0.
0.597998 0.079002 0.
0.6 0.0790015 0.
0.602 0.0790023 0.
0.604 0.0790032 0.
0.606001 0.0790041 0.
0.608002 0.079005 0.
0.610003 0.0790059 0.
0.612003 0.0790066 0.
0.614004 0.079007 0.
0.616004 0.0790074 0.
0.618004 0.0790081 0.
0.620005 0.079009 0.
0.622006 0.0790099 0.
0.624006 0.0790101 0.
0.626006 0.0790102 0.
0.628007 0.0790103 0.
0.630007 0.079011 0.
0.632007 0.0790116 0.
0.634007 0.0790124 0.
0.636008 0.0790135 0.
0.638008 0.0790147 0.
0.640008 0.0790154 0.
0.642009 0.0790157 0.
0.644009 0.079016 0.
0.64601 0.0790167 0.
0.648011 0.0790175 0.
0.650012 0.0790184 0.
0.652013 0.0790182 0.
0.654014 0.079018 0.
0.656014 0.0790181 0.
0.658014 0.0790193 0.
0.660014 0.0790205 0.
0.662015 0.0790217 0.
0.664016 0.0790227 0.
0.666018 0.0790238 0.
0.668018 0.0790254 0.
0.670018 0.0790271 0.
0.672017 0.0790289 0.
0.674018 0.0790304 0.
0.676018 0.0790318 0.
0.678018 0.0790332 0.
0.680018 0.0790346 0.
0.682019 0.0790361 0.
0.684019 0.079038 0.
0.68602 0.0790405 0.
0.68802 0.0790431 0.
0.690021 0.0790454 0.
0.69202 0.0790476 0.
0.69402 0.0790498 0.
0.69602 0.0790532 0.
0.69802 0.0790569 0.
0.499975 0.0810475 0.
0.501976 0.0810451 0.
0.503976 0.0810428 0.
0.505977 0.0810406 0.
0.507977 0.0810385 0.
0.509977 0.0810364 0.
0.511977 0.0810346 0.
0.513977 0.081033 0.
0.515977 0.0810314 0.
0.517977 0.0810295 0.
0.519977 0.0810275 0.
0.521977 0.0810255 0.
0.523978 0.0810246 0.
0.525979 0.0810238 0.
0.52798 0.081023 0.
0.52998 0.0810219 0.
0.531981 0.0810209 0.
0.533981 0.0810199 0.
0.535981 0.0810191 0.
0.537981 0.0810182 0.
0.539982 0.0810171 0.
0.541982 0.0810157 0.
0.543983 0.0810143 0.
0.545983 0.0810138 0.
0.547984 0.0810135 0.
0.549985 0.0810133 0.
0.551986 0.0810131 0.
0.553986 0.0810128 0.
0.555987 0.0810125 0.
0.557987 0.0810122 0.
0.559987 0.0810118 0.
0.561988 0.0810113 0.
0.563989 0.0810104 0.
0.56599 0.0810095 0.
0.567991 0.0810086 0.
0.569991 0.0810078 0.
0.571992 0.081007 0.
0.573992 0.0810071 0.
0.575991 0.0810072 0.
0.577991 0.0810073 0.
0.579992 0.0810066 0.
0.581992 0.081006 0.
0.583993 0.0810053 0.
0.585994 0.0810045 0.
0.587994 0.0810037 0.
0.589994 0.0810031 0.
0.591994 0.0810029 0.
0.593994 0.0810026 0.
0.595996 0.0810022 0.
0.597998 0.0810018 0.
0.6 0.0810014 0.
0.602 0.0810021 0.
0.604 0.0810029 0.
0.606001 0.0810037 0.
0.608002 0.0810048 0.
0.610003 0.0810059 0.
0.612003 0.0810065 0.
0.614003 0.0810067 0.
0.616003 0.0810068 0.
0.618004 0.0810075 0.
0.620005 0.0810083 0.
0.622006 0.0810092 0.
0.624006 0.0810096 0.
0.626006 0.08101 0.
0.628005 0.0810104 0.
0.630006 0.0810109 0.
0.632006 0.0810115 0.
0.634006 0.0810123 0.
0.636006 0.0810133 0.
0.638006 0.0810144 0.
0.640007 0.0810151 0.
0.642007 0.0810155 0.
0.644007 0.0810159 0.
0.646008 0.0810167 0.
0.648009 0.0810175 0.
0.65001 0.0810184 0.
0.652011 0.0810181 0.
0.654011 0.0810179 0.
0.656012 0.0810179 0.
0.658012 0.0810191 0.
0.660012 0.0810202 0.
0.662012 0.0810214 0.
0.664014 0.0810225 0.
0.666015 0.0810237 0.
0.668015 0.0810253 0.
0.670015 0.0810271 0.
0.672015 0.0810289 0.
0.674015 0.0810304 0.
0.676016 0.0810319 0.
0.678016 0.0810334 0.
0.680016 0.0810349 0.
0.682017 0.0810363 0.
0.684017 0.0810382 0.
0.686017 0.0810408 0.
0.688018 0.0810433 0.
0.690018 0.0810456 0.
0.692018 0.0810477 0.
0.694018 0.0810498 0.
0.696018 0.0810529 0.
0.698018 0.0810563 0.
0.499978 0.0830469 0.
0.501978 0.0830447 0.
0.503979 0.0830425 0.
0.505979 0.0830403 0.
0.507979 0.0830385 0.
0.509978 0.0830367 0.
0.511978 0.0830349 0.
0.513979 0.0830332 0.
0.515979 0.0830315 0.
0.517979 0.0830295 0.
0.519979 0.0830274 0.
0.521979 0.0830252 0.
0.52398 0.0830241 0.
0.525981 0.0830231 0.
0.527981 0.083022 0.
0.529982 0.0830211 0.
0.531983 0.0830202 0.
0.533983 0.0830193 0.
0.535983 0.0830184 0.
0.537983 0.0830176 0.
0.539983 0.0830165 0.
0.541983 0.0830152 0.
0.543984 0.0830139 0.
0.545984 0.0830134 0.
0.547985 0.0830131 0.
0.549986 0.0830129 0.
0.551987 0.0830127 0.
0.553988 0.0830124 0.
0.555988 0.0830121 0.
0.557989 0.0830118 0.
0.559989 0.0830114 0.
0.56199 0.0830108 0.
0.56399 0.0830099 0.
0.565991 0.0830091 0.
0.567991 0.0830084 0.
0.569992 0.0830078 0.
0.571993 0.0830072 0.
0.573992 0.0830071 0.
0.575992 0.083007 0.
0.577992 0.0830069 0.
0.579992 0.0830065 0.
0.581993 0.083006 0.
0.583993 0.0830054 0.
0.585994 0.0830043 0.
0.587994 0.0830033 0.
0.589994 0.0830026 0.
0.591995 0.0830022 0.
0.593995 0.0830019 0.
0.595997 0.0830015 0.
0.597998 0.0830012 0.
0.6 0.0830008 0.
0.602 0.0830015 0.
0.604 0.0830021 0.
0.606001 0.0830029 0.
0.608001 0.0830043 0.
0.610002 0.0830057 0.
0.612002 0.0830066 0.
0.614002 0.0830067 0.
0.616002 0.0830068 0.
0.618003 0.0830073 0.
0.620003 0.0830078 0.
0.622004 0.0830084 0.
0.624004 0.083009 0.
0.626004 0.0830096 0.
0.628004 0.0830102 0.
0.630005 0.0830108 0.
0.632005 0.0830114 0.
0.634005 0.0830121 0.
0.636005 0.0830131 0.
0.638005 0.083014 0.
0.640005 0.0830147 0.
0.642005 0.0830153 0.
0.644006 0.083016 0.
0.646006 0.0830167 0.
0.648007 0.0830175 0.
0.650008 0.0830182 0.
0.652009 0.0830181 0.
0.654009 0.083018 0.
0.656009 0.0830181 0.
0.65801 0.0830192 0.
0.660011 0.0830202 0.
0.662011 0.0830212 0.
0.664011 0.0830223 0.
0.666012 0.0830234 0.
0.668012 0.0830251 0.
0.670013 0.083027 0.
0.672013 0.083029 0.
0.674013 0.0830304 0.
0.676014 0.0830317 0.
0.678015 0.0830331 0.
0.680015 0.0830351 0.
0.682016 0.083037 0.
0.684016 0.0830391 0.
0.686015 0.0830414 0.
0.688015 0.0830437 0.
0.690015 0.0830459 0.
0.692015 0.083048 0.
0.694015 0.0830501 0.
0.696015 0.0830529 0.
0.698016 0.0830558 0.
0.49998 0.0850464 0.
0.50198 0.0850444 0.
0.503981 0.0850421 0.
0.505981 0.08504 0.
0.50798 0.0850384 0.
0.509979 0.0850369 0.
0.511979 0.0850353 0.
0.51398 0.0850335 0.
0.515981 0.0850317 0.
0.517982 0.0850296 0.
0.519982 0.0850273 0.
0.521982 0.085025 0.
0.523982 0.0850236 0.
0.525983 0.0850224 0.
0.527983 0.0850211 0.
0.529984 0.0850203 0.
0.531984 0.0850195 0.
0.533984 0.0850186 0.
0.535984 0.0850179 0.
0.537985 0.0850171 0.
0.539985 0.085016 0.
0.541985 0.0850148 0.
0.543985 0.0850135 0.
0.545985 0.085013 0.
0.547986 0.0850128 0.
0.549987 0.0850125 0.
0.551988 0.0850122 0.
0.553989 0.085012 0.
0.55599 0.0850116 0.
0.55799 0.0850113 0.
0.559991 0.085011 0.
0.561992 0.0850104 0.
0.563992 0.0850095 0.
0.565991 0.0850087 0.
0.567992 0.0850081 0.
0.569993 0.0850078 0.
0.571993 0.0850074 0.
0.573993 0.0850072 0.
0.575993 0.0850069 0.
0.577993 0.0850066 0.
0.579993 0.0850063 0.
0.581993 0.085006 0.
0.583993 0.0850054 0.
0.585994 0.0850042 0.
0.587994 0.0850029 0.
0.589995 0.0850021 0.
0.591995 0.0850016 0.
0.593996 0.0850011 0.
0.595997 0.0850008 0.
0.597998 0.0850006 0.
0.6 0.0850004 0.
0.602 0.0850009 0.
0.604 0.0850014 0.
0.606001 0.0850022 0.
0.608001 0.0850039 0.
0.610001 0.0850056 0.
0.612001 0.0850067 0.
0.614001 0.0850068 0.
0.616001 0.0850069 0.
0.618002 0.0850071 0.
0.620002 0.0850073 0.
0.622002 0.0850076 0.
0.624003 0.0850084 0.
0.626003 0.0850093 0.
0.628004 0.0850101 0.
0.630004 0.0850107 0.
0.632003 0.0850114 0.
0.634004 0.085012 0.
0.636004 0.0850128 0.
0.638004 0.0850136 0.
0.640004 0.0850144 0.
0.642004 0.0850152 0.
0.644004 0.085016 0.
0.646005 0.0850167 0.
0.648006 0.0850174 0.
0.650006 0.0850181 0.
0.652007 0.0850181 0.
0.654007 0.0850181 0.
0.656007 0.0850183 0.
0.658008 0.0850192 0.
0.660009 0.0850201 0.
0.66201 0.0850211 0.
0.664009 0.0850221 0.
0.666009 0.0850231 0.
0.668009 0.0850249 0.
0.67001 0.085027 0.
0.672011 0.0850291 0.
0.674012 0.0850303 0.
0.676013 0.0850314 0.
0.678014 0.0850327 0.
0.680014 0.0850352 0.
0.682015 0.0850377 0.
0.684014 0.0850401 0.
0.686013 0.0850421 0.
0.688012 0.0850441 0.
0.690011 0.0850462 0.
0.692012 0.0850483 0.
0.694013 0.0850504 0.
0.696013 0.0850528 0.
0.698014 0.0850553 0.
0.499983 0.0870464 0.
0.501983 0.0870448 0.
0.503983 0.0870429 0.
0.505983 0.087041 0.
0.507982 0.0870389 0.
0.509982 0.0870369 0.
0.511982 0.0870348 0.
0.513983 0.0870328 0.
0.515983 0.0870309 0.
0.517983 0.0870289 0.
0.519983 0.0870269 0.
0.521983 0.0870249 0.
0.523983 0.0870235 0.
0.525984 0.0870221 0.
0.527984 0.0870208 0.
0.529984 0.08702 0.
0.531985 0.0870192 0.
0.533985 0.0870184 0.
0.535985 0.0870176 0.
0.537986 0.0870168 0.
0.539986 0.0870157 0.
0.541987 0.0870144 0.
0.543987 0.0870131 0.
0.545987 0.0870127 0.
0.547988 0.0870124 0.
0.549989 0.0870122 0.
0.551989 0.0870119 0.
0.55399 0.0870116 0.
0.55599 0.0870113 0.
0.557991 0.0870111 0.
0.559991 0.0870108 0.
0.561992 0.0870104 0.
0.563992 0.0870097 0.
0.565992 0.0870089 0.
0.567992 0.0870086 0.
0.569992 0.0870085 0.
0.571993 0.0870085 0.
0.573993 0.087008 0.
0.575994 0.0870075 0.
0.577994 0.0870069 0.
0.579995 0.0870064 0.
0.581995 0.0870058 0.
0.583995 0.087005 0.
0.585995 0.0870038 0.
0.587995 0.0870026 0.
0.589995 0.0870019 0.
0.591996 0.0870016 0.
0.593997 0.0870012 0.
0.595997 0.0870011 0.
0.597998 0.0870011 0.
0.599999 0.0870011 0.
0.601999 0.0870012 0.
0.604 0.0870014 0.
0.606 0.0870019 0.
0.608 0.0870036 0.
0.610001 0.0870054 0.
0.612001 0.0870064 0.
0.614001 0.0870066 0.
0.616001 0.0870068 0.
0.618001 0.0870069 0.
0.620002 0.0870071 0.
0.622002 0.0870073 0.
0.624002 0.0870085 0.
0.626002 0.0870098 0.
0.628003 0.087011 0.
0.630003 0.0870112 0.
0.632002 0.0870115 0.
0.634002 0.087012 0.
0.636003 0.087013 0.
0.638003 0.0870141 0.
0.640003 0.0870147 0.
0.642004 0.0870151 0.
0.644004 0.0870155 0.
0.646004 0.0870161 0.
0.648004 0.0870169 0.
0.650005 0.0870177 0.
0.652005 0.0870179 0.
0.654005 0.087018 0.
0.656006 0.0870183 0.
0.658007 0.0870189 0.
0.660007 0.0870195 0.
0.662007 0.0870205 0.
0.664007 0.0870219 0.
0.666007 0.0870232 0.
0.668008 0.0870249 0.
0.670008 0.0870268 0.
0.672009 0.0870286 0.
0.674009 0.0870299 0.
0.67601 0.0870312 0.
0.678011 0.0870326 0.
0.680011 0.087035 0.
0.682011 0.0870375 0.
0.684011 0.0870398 0.
0.686011 0.087042 0.
0.68801 0.0870442 0.
0.69001 0.0870463 0.
0.69201 0.0870482 0.
0.694011 0.08705 0.
0.696011 0.0870527 0.
0.698012 0.0870557 0.
0.499987 0.0890464 0.
0.501986 0.0890452 0.
0.503985 0.0890437 0.
0.505984 0.089042 0.
0.507985 0.0890394 0.
0.509985 0.0890368 0.
0.511985 0.0890344 0.
0.513985 0.0890322 0.
0.515985 0.08903 0.
0.517985 0.0890282 0.
0.519985 0.0890265 0.
0.521984 0.0890249 0.
0.523984 0.0890234 0.
0.525984 0.0890219 0.
0.527985 0.0890205 0.
0.529985 0.0890197 0.
0.531985 0.089019 0.
0.533986 0.0890182 0.
0.535987 0.0890173 0.
0.537987 0.0890164 0.
0.539988 0.0890153 0.
0.541988 0.089014 0.
0.543989 0.0890127 0.
0.545989 0.0890123 0.
0.54799 0.0890121 0.
0.54999 0.0890119 0.
0.55199 0.0890116 0.
0.553991 0.0890112 0.
0.555991 0.0890109 0.
0.557991 0.0890108 0.
0.559991 0.0890107 0.
0.561992 0.0890104 0.
0.563992 0.0890098 0.
0.565992 0.0890092 0.
0.567992 0.0890091 0.
0.569992 0.0890093 0.
0.571992 0.0890095 0.
0.573993 0.0890088 0.
0.575995 0.0890081 0.
0.577996 0.0890073 0.
0.579996 0.0890065 0.
0.581997 0.0890056 0.
0.583997 0.0890047 0.
0.585996 0.0890035 0.
0.587996 0.0890024 0.
0.589996 0.0890017 0.
0.591997 0.0890015 0.
0.593997 0.0890013 0.
0.595997 0.0890014 0.
0.597998 0.0890016 0.
0.599999 0.0890017 0.
0.601999 0.0890016 0.
0.603999 0.0890015 0.
0.605999 0.0890017 0.
0.607999 0.0890034 0.
0.61 0.0890051 0.
0.612 0.0890062 0.
0.614001 0.0890064 0.
0.616001 0.0890066 0.
0.618001 0.0890068 0.
0.620001 0.0890069 0.
0.622001 0.0890069 0.
0.624001 0.0890085 0.
0.626002 0.0890103 0.
0.628002 0.0890119 0.
0.630002 0.0890117 0.
0.632001 0.0890116 0.
0.634001 0.0890119 0.
0.636002 0.0890132 0.
0.638002 0.0890145 0.
0.640002 0.0890151 0.
0.642003 0.089015 0.
0.644004 0.0890149 0.
0.646004 0.0890156 0.
0.648003 0.0890165 0.
0.650003 0.0890174 0.
0.652004 0.0890177 0.
0.654004 0.089018 0.
0.656005 0.0890183 0.
0.658005 0.0890186 0.
0.660005 0.0890189 0.
0.662005 0.0890199 0.
0.664005 0.0890216 0.
0.666006 0.0890233 0.
0.668006 0.089025 0.
0.670006 0.0890265 0.
0.672007 0.0890281 0.
0.674007 0.0890295 0.
0.676008 0.0890309 0.
0.678008 0.0890324 0.
0.680008 0.0890348 0.
0.682008 0.0890372 0.
0.684008 0.0890396 0.
0.686008 0.089042 0.
0.688008 0.0890444 0.
0.690008 0.0890464 0.
0.692008 0.089048 0.
0.694008 0.0890497 0.
0.696009 0.0890526 0.
0.698009 0.089056 0.
0.499989 0.0910463 0.
0.501988 0.0910453 0.
0.503987 0.091044 0.
0.505987 0.0910423 0.
0.507987 0.0910395 0.
0.509988 0.0910367 0.
0.511988 0.0910341 0.
0.513988 0.0910319 0.
0.515987 0.0910296 0.
0.517987 0.0910279 0.
0.519986 0.0910265 0.
0.521986 0.0910252 0.
0.523986 0.0910237 0.
0.525986 0.0910221 0.
0.527986 0.0910206 0.
0.529986 0.0910197 0.
0.531986 0.0910189 0.
0.533987 0.091018 0.
0.535988 0.091017 0.
0.537989 0.0910159 0.
0.539989 0.0910148 0.
0.54199 0.0910136 0.
0.543991 0.0910124 0.
0.545991 0.091012 0.
0.547991 0.0910119 0.
0.549991 0.0910118 0.
0.551991 0.0910114 0.
0.553992 0.091011 0.
0.555992 0.0910107 0.
0.557992 0.0910107 0.
0.559992 0.0910106 0.
0.561992 0.0910104 0.
0.563992 0.09101 0.
0.565992 0.0910095 0.
0.567992 0.0910095 0.
0.569992 0.0910097 0.
0.571992 0.0910099 0.
0.573994 0.091009 0.
0.575995 0.0910081 0.
0.577997 0.0910071 0.
0.579997 0.0910063 0.
0.581997 0.0910056 0.
0.583998 0.0910047 0.
0.585997 0.0910037 0.
0.587997 0.0910026 0.
0.589997 0.0910019 0.
0.591997 0.0910017 0.
0.593997 0.0910014 0.
0.595997 0.0910015 0.
0.597997 0.0910016 0.
0.599998 0.0910018 0.
0.601998 0.0910016 0.
0.603998 0.0910015 0.
0.605998 0.0910016 0.
0.607999 0.0910032 0.
0.609999 0.0910048 0.
0.611999 0.0910057 0.
0.614 0.0910059 0.
0.616 0.0910061 0.
0.618001 0.0910063 0.
0.620001 0.0910066 0.
0.622001 0.0910069 0.
0.624001 0.0910085 0.
0.626001 0.0910104 0.
0.628001 0.091012 0.
0.630001 0.0910118 0.
0.632001 0.0910116 0.
0.634001 0.0910118 0.
0.636001 0.0910131 0.
0.638001 0.0910143 0.
0.640002 0.0910147 0.
0.642002 0.0910145 0.
0.644003 0.0910142 0.
0.646003 0.0910151 0.
0.648003 0.0910162 0.
0.650002 0.0910174 0.
0.652003 0.0910176 0.
0.654003 0.0910178 0.
0.656004 0.0910181 0.
0.658004 0.0910183 0.
0.660003 0.0910185 0.
0.662003 0.0910194 0.
0.664004 0.0910213 0.
0.666004 0.0910232 0.
0.668004 0.0910248 0.
0.670004 0.0910264 0.
0.672005 0.0910279 0.
0.674005 0.0910293 0.
0.676005 0.0910308 0.
0.678006 0.0910323 0.
0.680005 0.0910347 0.
0.682005 0.091037 0.
0.684005 0.0910394 0.
0.686006 0.0910418 0.
0.688006 0.0910443 0.
0.690006 0.0910463 0.
0.692006 0.0910479 0.
0.694006 0.0910495 0.
0.696006 0.0910525 0.
0.698006 0.091056 0.
0.49999 0.0930466 0.
0.50199 0.0930452 0.
0.50399 0.0930438 0.
0.505989 0.0930421 0.
0.507989 0.0930393 0.
0.50999 0.0930365 0.
0.51199 0.093034 0.
0.51399 0.0930318 0.
0.51599 0.0930295 0.
0.517989 0.093028 0.
0.519989 0.093027 0.
0.521989 0.0930259 0.
0.523988 0.0930243 0.
0.525988 0.0930227 0.
0.527988 0.0930211 0.
0.529988 0.09302 0.
0.531988 0.0930189 0.
0.533989 0.0930177 0.
0.535989 0.0930165 0.
0.53799 0.0930153 0.
0.539991 0.0930141 0.
0.541992 0.0930131 0.
0.543993 0.093012 0.
0.545992 0.0930118 0.
0.547992 0.0930118 0.
0.549991 0.0930118 0.
0.551992 0.0930114 0.
0.553992 0.0930109 0.
0.555993 0.0930106 0.
0.557993 0.0930106 0.
0.559993 0.0930106 0.
0.561993 0.0930104 0.
0.563993 0.0930102 0.
0.565992 0.0930099 0.
0.567993 0.0930098 0.
0.569993 0.0930098 0.
0.571993 0.0930097 0.
0.573994 0.0930086 0.
0.575995 0.0930075 0.
0.577996 0.0930064 0.
0.579997 0.0930061 0.
0.581997 0.0930058 0.
0.583998 0.0930052 0.
0.585997 0.0930042 0.
0.587997 0.0930032 0.
0.589997 0.0930025 0.
0.591997 0.0930019 0.
0.593997 0.0930014 0.
0.595997 0.0930013 0.
0.597997 0.0930012 0.
0.599996 0.0930012 0.
0.601997 0.0930013 0.
0.603997 0.0930014 0.
0.605997 0.0930017 0.
0.607998 0.093003 0.
0.609998 0.0930044 0.
0.611999 0.093005 0.
0.613999 0.093005 0.
0.615999 0.093005 0.
0.618 0.0930055 0.
0.620001 0.0930063 0.
0.622002 0.0930071 0.
0.624002 0.0930085 0.
0.626002 0.09301 0.
0.628002 0.0930114 0.
0.630001 0.0930115 0.
0.632001 0.0930115 0.
0.634 0.0930118 0.
0.636001 0.0930125 0.
0.638001 0.0930133 0.
0.640001 0.0930136 0.
0.642002 0.0930135 0.
0.644002 0.0930134 0.
0.646002 0.0930146 0.
0.648002 0.0930163 0.
0.650002 0.0930179 0.
0.652003 0.0930178 0.
0.654003 0.0930177 0.
0.656003 0.0930177 0.
0.658003 0.0930179 0.
0.660002 0.0930182 0.
0.662002 0.0930192 0.
0.664002 0.093021 0.
0.666002 0.0930229 0.
0.668002 0.0930245 0.
0.670002 0.0930262 0.
0.672002 0.0930279 0.
0.674002 0.0930294 0.
0.676002 0.0930308 0.
0.678002 0.0930324 0.
0.680002 0.0930346 0.
0.682002 0.0930368 0.
0.684003 0.0930391 0.
0.686003 0.0930416 0.
0.688003 0.093044 0.
0.690003 0.093046 0.
0.692003 0.0930477 0.
0.694002 0.0930494 0.
0.696002 0.0930524 0.
0.698003 0.0930557 0.
0.499992 0.0950465 0.
0.501992 0.0950451 0.
0.503992 0.0950437 0.
0.505992 0.0950419 0.
0.507992 0.0950391 0.
0.509992 0.0950364 0.
0.511992 0.0950339 0.
0.513992 0.0950317 0.
0.515992 0.0950294 0.
0.517992 0.0950282 0.
0.519992 0.0950274 0.
0.521991 0.0950265 0.
0.523991 0.0950249 0.
0.52599 0.0950232 0.
0.52799 0.0950215 0.
0.52999 0.0950202 0.
0.53199 0.0950189 0.
0.533991 0.0950175 0.
0.535991 0.095016 0.
0.537992 0.0950146 0.
0.539992 0.0950135 0.
0.541993 0.0950126 0.
0.543994 0.0950117 0.
0.545994 0.0950116 0.
0.547993 0.0950117 0.
0.549992 0.0950118 0.
0.551992 0.0950113 0.
0.553993 0.0950108 0.
0.555994 0.0950105 0.
0.557994 0.0950105 0.
0.559994 0.0950105 0.
0.561993 0.0950105 0.
0.563993 0.0950104 0.
0.565993 0.0950103 0.
0.567993 0.0950101 0.
0.569994 0.0950098 0.
0.571994 0.0950095 0.
0.573995 0.0950082 0.
0.575995 0.0950068 0.
0.577995 0.0950056 0.
0.579996 0.0950058 0.
0.581997 0.0950059 0.
0.583998 0.0950057 0.
0.585998 0.0950048 0.
0.587998 0.0950039 0.
0.589997 0.095003 0.
0.591997 0.0950022 0.
0.593997 0.0950014 0.
0.595996 0.0950011 0.
0.597996 0.0950009 0.
0.599995 0.0950006 0.
0.601995 0.095001 0.
0.603996 0.0950013 0.
0.605996 0.0950018 0.
0.607997 0.0950029 0.
0.609997 0.0950039 0.
0.611998 0.0950044 0.
0.613998 0.0950041 0.
0.615999 0.0950039 0.
0.617999 0.0950047 0.
0.620001 0.095006 0.
0.622002 0.0950073 0.
0.624002 0.0950085 0.
0.626002 0.0950097 0.
0.628002 0.0950109 0.
0.630001 0.0950111 0.
0.632001 0.0950114 0.
0.634 0.0950117 0.
0.636001 0.095012 0.
0.638001 0.0950123 0.
0.640001 0.0950125 0.
0.642001 0.0950126 0.
0.644001 0.0950126 0.
0.646002 0.0950142 0.
0.648002 0.0950163 0.
0.650003 0.0950183 0.
0.652003 0.0950179 0.
0.654003 0.0950175 0.
0.656003 0.0950173 0.
0.658002 0.0950176 0.
0.66 0.0950179 0.
0.662 0.0950189 0.
0.664 0.0950207 0.
0.666 0.0950225 0.
0.668 0.0950243 0.
0.67 0.0950261 0.
0.672 0.0950279 0.
0.674 0.0950294 0.
0.675999 0.0950309 0.
0.677999 0.0950325 0.
0.679999 0.0950346 0.
0.681999 0.0950367 0.
0.684 0.0950389 0.
0.686 0.0950413 0.
0.688001 0.0950438 0.
0.690001 0.0950458 0.
0.692 0.0950476 0.
0.693999 0.0950494 0.
0.695999 0.0950523 0.
0.697999 0.0950555 0.
0.499995 0.0970471 0.
0.501995 0.0970452 0.
0.503995 0.0970434 0.
0.505995 0.0970415 0.
0.507995 0.097039 0.
0.509995 0.0970365 0.
0.511994 0.0970343 0.
0.513994 0.0970324 0.
0.515993 0.0970305 0.
0.517993 0.097029 0.
0.519993 0.0970278 0.
0.521993 0.0970266 0.
0.523993 0.097025 0.
0.525992 0.0970233 0.
0.527991 0.0970216 0.
0.529992 0.0970201 0.
0.531992 0.0970186 0.
0.533992 0.097017 0.
0.535993 0.0970154 0.
0.537993 0.0970138 0.
0.539994 0.0970129 0.
0.541994 0.0970126 0.
0.543995 0.0970123 0.
0.545994 0.0970122 0.
0.547993 0.0970121 0.
0.549992 0.097012 0.
0.551992 0.0970113 0.
0.553993 0.0970106 0.
0.555993 0.0970102 0.
0.557993 0.0970106 0.
0.559993 0.0970109 0.
0.561993 0.097011 0.
0.563993 0.0970107 0.
0.565992 0.0970104 0.
0.567993 0.0970099 0.
0.569994 0.0970094 0.
0.571994 0.0970089 0.
0.573995 0.0970079 0.
0.575996 0.0970069 0.
0.577996 0.097006 0.
0.579997 0.0970059 0.
0.581997 0.0970058 0.
0.583998 0.0970056 0.
0.585998 0.097005 0.
0.587998 0.0970044 0.
0.589998 0.0970036 0.
0.591998 0.0970028 0.
0.593997 0.0970021 0.
0.595997 0.0970017 0.
0.597996 0.0970013 0.
0.599996 0.0970009 0.
0.601995 0.0970007 0.
0.603995 0.0970004 0.
0.605995 0.0970005 0.
0.607996 0.0970019 0.
0.609997 0.0970033 0.
0.611998 0.097004 0.
0.613998 0.0970039 0.
0.615999 0.0970038 0.
0.617999 0.0970044 0.
0.62 0.0970053 0.
0.622 0.0970062 0.
0.624001 0.0970077 0.
0.626001 0.0970093 0.
0.628002 0.0970107 0.
0.630001 0.0970112 0.
0.632001 0.0970117 0.
0.634 0.0970121 0.
0.636001 0.0970124 0.
0.638001 0.0970126 0.
0.640001 0.0970129 0.
0.642001 0.0970131 0.
0.644 0.0970133 0.
0.646001 0.0970146 0.
0.648001 0.0970161 0.
0.650002 0.0970176 0.
0.652001 0.0970175 0.
0.654001 0.0970174 0.
0.656001 0.0970174 0.
0.658 0.0970179 0.
0.66 0.0970185 0.
0.661999 0.0970193 0.
0.663999 0.0970205 0.
0.665999 0.0970218 0.
0.667999 0.0970236 0.
0.669999 0.0970258 0.
0.671999 0.097028 0.
0.673999 0.0970296 0.
0.675998 0.0970312 0.
0.677998 0.0970329 0.
0.679998 0.0970347 0.
0.681997 0.0970364 0.
0.683997 0.0970385 0.
0.685998 0.0970412 0.
0.687998 0.0970439 0.
0.689998 0.0970462 0.
0.691998 0.0970483 0.
0.693997 0.0970503 0.
0.695997 0.0970527 0.
0.697997 0.0970551 0.
0.499999 0.0990474 0.
0.501999 0.0990453 0.
0.503999 0.0990432 0.
0.505998 0.099041 0.
0.507998 0.0990388 0.
0.509997 0.0990366 0.
0.511997 0.0990347 0.
0.513995 0.0990331 0.
0.515994 0.0990315 0.
0.517994 0.0990299 0.
0.519995 0.0990283 0.
0.521996 0.0990267 0.
0.523995 0.0990251 0.
0.525994 0.0990234 0.
0.527993 0.0990217 0.
0.529994 0.09902 0.
0.531994 0.0990183 0.
0.533994 0.0990166 0.
0.535994 0.0990147 0.
0.537995 0.0990129 0.
0.539995 0.0990123 0.
0.541995 0.0990126 0.
0.543996 0.0990129 0.
0.545995 0.0990128 0.
0.547994 0.0990125 0.
0.549993 0.0990122 0.
0.551993 0.0990113 0.
0.553992 0.0990104 0.
0.555992 0.0990099 0.
0.557993 0.0990106 0.
0.559993 0.0990113 0.
0.561993 0.0990115 0.
0.563993 0.099011 0.
0.565992 0.0990105 0.
0.567992 0.0990098 0.
0.569993 0.099009 0.
0.571995 0.0990083 0.
0.573995 0.0990076 0.
0.575996 0.0990069 0.
0.577997 0.0990063 0.
0.579997 0.099006 0.
0.581998 0.0990057 0.
0.583998 0.0990055 0.
0.585998 0.0990051 0.
0.587998 0.0990048 0.
0.589998 0.0990042 0.
0.591998 0.0990035 0.
0.593998 0.0990027 0.
0.595997 0.0990022 0.
0.597997 0.0990017 0.
0.599996 0.0990012 0.
0.601995 0.0990004 0.
0.603995 0.0989995 0.
0.605995 0.0989992 0.
0.607996 0.0990009 0.
0.609997 0.0990027 0.
0.611998 0.0990036 0.
0.613999 0.0990037 0.
0.615999 0.0990037 0.
0.617999 0.0990041 0.
0.619999 0.0990046 0.
0.621999 0.0990051 0.
0.623999 0.0990069 0.
0.626 0.0990088 0.
0.628001 0.0990106 0.
0.630001 0.0990113 0.
0.632001 0.099012 0.
0.634 0.0990126 0.
0.636001 0.0990127 0.
0.638001 0.0990129 0.
0.640001 0.0990132 0.
0.642 0.0990137 0.
0.643999 0.0990141 0.
0.646 0.099015 0.
0.648 0.0990159 0.
0.65 0.0990169 0.
0.652 0.0990171 0.
0.654 0.0990172 0.
0.655999 0.0990175 0.
0.657999 0.0990183 0.
0.659999 0.099019 0.
0.661998 0.0990197 0.
0.663998 0.0990204 0.
0.665998 0.0990211 0.
0.667998 0.099023 0.
0.669997 0.0990255 0.
0.671997 0.0990281 0.
0.673997 0.0990299 0.
0.675997 0.0990316 0.
0.677997 0.0990333 0.
0.679996 0.0990347 0.
0.681996 0.0990362 0.
0.683995 0.0990381 0.
0.685995 0.099041 0.
0.687996 0.099044 0.
0.689996 0.0990466 0.
0.691996 0.099049 0.
0.693996 0.0990513 0.
0.695996 0.099053 0.
0.697996 0.0990547 0.
CELLS 5000 10000
1 0
1 1
1 2
1 3
1 4
1 5
1 6
1 7
1 8
1 9
1 10
1 11
1 12
1 13
1 14
1 15
1 16
1 17
1 18
1 19
1 20
1 21
1 22
1 23
1 24
1 25
1 26
1 27
1 28
1 29
1 30
1 31
1 32
1 33
1 34
1 35
1 36
1 37
1 38
1 39
1 40
1 41
1 42
1 43
1 44
1 45
1 46
1 47
1 48
1 49
1 50
1 51
1 52
1 53
1 54
1 55
1 56
1 57
1 58
1 59
1 60
1 61
1 62
1 63
1 64
1 65
1 66
1 67
1 68
1 69
1 70
1 71
1 72
1 73
1 74
1 75
1 76
1 77
1 78
1 79
1 80
1 81
1 82
1 83
1 84
1 85
1 86
1 87
1 88
1 89
1 90
1 91
1 92
1 93
1 94
1 95
1 96
1 97
1 98
1 99
1 100
1 101
1 102
1 103
1 104
1 105
1 106
1 107
1 108
1 109
1 110
1 111
1 112
1 113
1 114
1 115
1 116
1 117
1 118
1 119
1 120
1 121
1 122
1 123
1 124
1 125
1 126
1 127
1 128
1 129
1 130
1 131
1 132
1 133
1 134
1 135
1 136
1 137
1 138
1 139
1 140
1 141
1 142
1 143
1 144
1 145
1 146
1 147
1 148
1 149
1 150
1 151
1 152
1 153
1 154
1 155
1 156
1 157
1 158
1 159
1 160
1 161
1 162
1 163
1 164
1 165
1 166
1 167
1 168
1 169
1 170
1 171
1 172
1 173
1 174
1 175
1 176
1 177
1 178
1 179
1 180
1 181
1 182
1 183
1 184
1 185
1 186
1 187
1 188
1 189
1 190
1 191
1 192
1 193
1 194
1 195
1 196
1 197
1 198
1 199
1 200
1 201
1 202
1 203
1 204
1 205
1 206
1 207
1 208
1 209
1 210
1 211
1 212
1 213
1 214
1 215
1 216
1 217
1 218
1 219
1 220
1 221
1 222
1 223
1 224
1 225
1 226
1 227
1 228
1 229
1 230
1 231
1 232
1 233
1 234
1 235
1 236
1 237
1 238
1 239
1 240
1 241
1 242
1 243
1 244
1 245
1 246
1 247
1 248
1 249
1 250
1 251
1 252
1 253
1 254
1 255
1 256
1 257
1 258
1 259
1 260
1 261
1 262
1 263
1 264
1 265
1 266
1 267
1 268
1 269
1 270
1 271
1 272
1 273
1 274
1 275
1 276
1 277
1 278
1 279
1 280
1 281
1 282
1 283
1 284
1 285
1 286
1 287
1 288
1 289
1 290
1 291
1 292
1 293
1 294
1 295
1 296
1 297
1 298
1 299
1 300
1 301
1 302
1 303
1 304
1 305
1 306
1 307
1 308
1 309
1 310
1 311
1 312
1 313
1 314
1 315
1 316
1 317
1 318
1 319
1 320
1 321
1 322
1 323
1 324
1 325
1 326
1 327
1 328
1 329
1 330
1 331
1 332
1 333
1 334
1 335
1 336
1 337
1 338
1 339
1 340
1 341
1 342
1 343
1 344
1 345
1 346
1 347
1 348
1 349
1 350
1 351
1 352
1 353
1 354
1 355
1 356
1 357
1 358
1 359
1 360
1 361
1 362
1 363
1 364
1 365
1 366
1 367
1 368
1 369
1 370
1 371
1 372
1 373
1 374
1 375
1 376
1 377
1 378
1 379
1 380
1 381
1 382
1 383
1 384
1 385
1 386
1 387
1 388
1 389
1 390
1 391
1 392
1 393
1 394
1 395
1 396
1 397
1 398
1 399
1 400
1 401
1 402
1 403
1 404
1 405
1 406
1 407
1 408
1 409
1 410
1 411
1 412
1 413
1 414
1 415
1 416
1 417
1 418
1 419
1 420
1 421
1 422
1 423
1 424
1 425
1 426
1 427
1 428
1 429
1 430
1 431
1 432
1 433
1 434
1 435
1 436
1 437
1 438
1 439
1 440
1 441
1 442
1 443
1 444
1 445
1 446
1 447
1 448
1 449
1 450
1 451
1 452
1 453
1 454
1 455
1 456
1 457
1 458
1 459
1 460
1 461
1 462
1 463
1 464
1 465
1 466
1 467
1 468
1 469
1 470
1 471
1 472
1 473
1 474
1 475
1 476
1 477
1 478
1 479
1 480
1 481
1 482
1 483
1 484
1 485
1 486
1 487
1 488
1 489
1 490
1 491
1 492
1 493
1 494
1 495
1 496
1 497
1 498
1 499
1 500
1 501
1 502
1 503
1 504
1 505
1 506
1 507
1 508
1 509
1 510
1 511
1 512
1 513
1 514
1 515
1 516
1 517
1 518
1 519
1 520
1 521
1 522
1 523
1 524
1 525
1 526
1 527
1 528
1 529
1 530
1 531
1 532
1 533
1 534
1 535
1 536
1 537
1 538
1 539
1 540
1 541
1 542
1 543
1 544
1 545
1 546
1 547
1 548
1 549
1 550
1 551
1 552
1 553
1 554
1 555
1 556
1 557
1 558
1 559
1 560
1 561
1 562
1 563
1 564
1 565
1 566
1 567
1 568
1 569
1 570
1 571
1 572
1 573
1 574
1 575
1 576
1 577
1 578
1 579
1 580
1 581
1 582
1 583
1 584
1 585
1 586
1 587
1 588
1 589
1 590
1 591
1 592
1 593
1 594
1 595
1 596
1 597
1 598
1 599
1 600
1 601
1 602
1 603
1 604
1 605
1 606
1 607
1 608
1 609
1 610
1 611
1 612
1 613
1 614
1 615
1 616
1 617
1 618
1 619
1 620
1 621
1 622
1 623
1 624
1 625
1 626
1 627
1 628
1 629
1 630
1 631
1 632
1 633
1 634
1 635
1 636
1 637
1 638
1 639
1 640
1 641
1 642
1 643
1 644
1 645
1 646
1 647
1 648
1 649
1 650
1 651
1 652
1 653
1 654
1 655
1 656
1 657
1 658
1 659
1 660
1 661
1 662
1 663
1 664
1 665
1 666
1 667
1 668
1 669
1 670
1 671
1 672
1 673
1 674
1 675
1 676
1 677
1 678
1 679
1 680
1 681
1 682
1 683
1 684
1 685
1 686
1 687
1 688
1 689
1 690
1 691
1 692
1 693
1 694
1 695
1 696
1 697
1 698
1 699
1 700
1 701
1 702
1 703
1 704
1 705
1 706
1 707
1 708
1 709
1 710
1 711
1 712
1 713
1 714
1 715
1 716
1 717
1 718
1 719
1 720
1 721
1 722
1 723
1 724
1 725
1 726
1 727
1 728
1 729
1 730
1 731
1 732
1 733
1 734
1 735
1 736
1 737
1 738
1 739
1 740
1 741
1 742
1 743
1 744
1 745
1 746
1 747
1 748
1 749
1 750
1 751
1 752
1 753
1 754
1 755
1 756
1 757
1 758
1 759
1 760
1 761
1 762
1 763
1 764
1 765
1 766
1 767
1 768
1 769
1 770
1 771
1 772
1 773
1 774
1 775
1 776
1 777
1 778
1 779
1 780
1 781
1 782
1 783
1 784
1 785
1 786
1 787
1 788
1 789
1 790
1 791
1 792
1 793
1 794
1 795
1 796
1 797
1 798
1 799
1 800
1 801
1 802
1 803
1 804
1 805
1 806
1 807
1 808
1 809
1 810
1 811
1 812
1 813
1 814
1 815
1 816
1 817
1 818
1 819
1 820
1 821
1 822
1 823
1 824
1 825
1 826
1 827
1 828
1 829
1 830
1 831
1 832
1 833
1 834
1 835
1 836
1 837
1 838
1 839
1 840
1 841
1 842
1 843
1 844
1 845
1 846
1 847
1 848
1 849
1 850
1 851
1 852
1 853
1 854
1 855
1 856
1 857
1 858
1 859
1 860
1 861
1 862
1 863
1 864
1 865
1 866
1 867
1 868
1 869
1 870
1 871
1 872
1 873
1 874
1 875
1 876
1 877
1 878
1 879
1 880
1 881
1 882
1 883
1 884
1 885
1 886
1 887
1 888
1 889
1 890
1 891
1 892
1 893
1 894
1 895
1 896
1 897
1 898
1 899
1 900
1 901
1 902
1 903
1 904
1 905
1 906
1 907
1 908
1 909
1 910
1 911
1 912
1 913
1 914
1 915
1 916
1 917
1 918
1 919
1 920
1 921
1 922
1 923
1 924
1 925
1 926
1 927
1 928
1 929
1 930
1 931
1 932
1 933
1 934
1 935
1 936
1 937
1 938
1 939
1 940
1 941
1 942
1 943
1 944
1 945
1 946
1 947
1 948
1 949
1 950
1 951
1 952
1 953
1 954
1 955
1 956
1 957
1 958
1 959
1 960
1 961
1 962
1 963
1 964
1 965
1 966
1 967
1 968
1 969
1 970
1 971
1 972
1 973
1 974
1 975
1 976
1 977
1 978
1 979
1 980
1 981
1 982
1 983
1 984
1 985
1 986
1 987
1 988
1 989
1 990
1 991
1 992
1 993
1 994
1 995
1 996
1 997
1 998
1 999
1 1000
1 1001
1 1002
1 1003
1 1004
1 1005
1 1006
1 1007
1 1008
1 1009
1 1010
1 1011
1 1012
1 1013
1 1014
1 1015
1 1016
1 1017
1 1018
1 1019
1 1020
1 1021
1 1022
1 1023
1 1024
1 1025
1 1026
1 1027
1 1028
1 1029
1 1030
1 1031
1 1032
1 1033
1 1034
1 1035
1 1036
1 1037
1 1038
1 1039
1 1040
1 1041
1 1042
1 1043
1 1044
1 1045
1 1046
1 1047
1 1048
1 1049
1 1050
1 1051
1 1052
1 1053
1 1054
1 1055
1 1056
1 1057
1 1058
1 1059
1 1060
1 1061
1 1062
1 1063
1 1064
1 1065
1 1066
1 1067
1 1068
1 1069
1 1070
1 1071
1 1072
1 1073
1 1074
1 1075
1 1076
1 1077
1 1078
1 1079
1 1080
1 1081
1 1082
1 1083
1 1084
1 1085
1 1086
1 1087
1 1088
1 1089
1 1090
1 1091
1 1092
1 1093
1 1094
1 1095
1 1096
1 1097
1 1098
1 1099
1 1100
1 1101
1 1102
1 1103
1 1104
1 1105
1 1106
1 1107
1 1108
1 1109
1 1110
1 1111
1 1112
1 1113
1 1114
1 1115
1 1116
1 1117
1 1118
1 1119
1 1120
1 1121
1 1122
1 1123
1 1124
1 1125
1 1126
1 1127
1 1128
1 1129
1 1130
1 1131
1 1132
1 1133
1 1134
1 1135
1 1136
1 1137
1 1138
1 1139
1 1140
1 1141
1 1142
1 1143
1 1144
1 1145
1 1146
1 1147
1 1148
1 1149
1 1150
1 1151
1 1152
1 1153
1 1154
1 1155
1 1156
1 1157
1 1158
1 1159
1 1160
1 1161
1 1162
1 1163
1 1164
1 1165
1 1166
1 1167
1 1168
1 1169
1 1170
1 1171
1 1172
1 1173
1 1174
1 1175
1 1176
1 1177
1 1178
1 1179
1 1180
1 1181
1 1182
1 1183
1 1184
1 1185
1 1186
1 1187
1 1188
1 1189
1 1190
1 1191
1 1192
1 1193
1 1194
1 1195
1 1196
1 1197
1 1198
1 1199
1 1200
1 1201
1 1202
1 1203
1 1204
1 1205
1 1206
1 1207
1 1208
1 1209
1 1210
1 1211
1 1212
1 1213
1 1214
1 1215
1 1216
1 1217
1 1218
1 1219
1 1220
1 1221
1 1222
1 1223
1 1224
1 1225
1 1226
1 1227
1 1228
1 1229
1 1230
1 1231
1 1232
1 1233
1 1234
1 1235
1 1236
1 1237
1 1238
1 1239
1 1240
1 1241
1 1242
1 1243
1 1244
1 1245
1 1246
1 1247
1 1248
1 1249
1 1250
1 1251
1 1252
1 1253
1 1254
1 1255
1 1256
1 1257
1 1258
1 1259
1 1260
1 1261
1 1262
1 1263
1 1264
1 1265
1 1266
1 1267
1 1268
1 1269
1 1270
1 1271
1 1272
1 1273
1 1274
1 1275
1 1276
1 1277
1 1278
1 1279
1 1280
1 1281
1 1282
1 1283
1 1284
1 1285
1 1286
1 1287
1 1288
1 1289
1 1290
1 1291
1 1292
1 1293
1 1294
1 1295
1 1296
1 1297
1 1298
1 1299
1 1300
1 1301
1 1302
1 1303
1 1304
1 1305
1 1306
1 1307
1 1308
1 1309
1 1310
1 1311
1 1312
1 1313
1 1314
1 1315
1 1316
1 1317
1 1318
1 1319
1 1320
1 1321
1 1322
1 1323
1 1324
1 1325
1 1326
1 1327
1 1328
1 1329
1 1330
1 1331
1 1332
1 1333
1 1334
1 1335
1 1336
1 1337
1 1338
1 1339
1 1340
1 1341
1 1342
1 1343
1 1344
1 1345
1 1346
1 1347
1 1348
1 1349
1 1350
1 1351
1 1352
1 1353
1 1354
1 1355
1 1356
1 1357
1 1358
1 1359
1 1360
1 1361
1 1362
1 1363
1 1364
1 1365
1 1366
1 1367
1 1368
1 1369
1 1370
1 1371
1 1372
1 1373
1 1374
1 1375
1 1376
1 1377
1 1378
1 1379
1 1380
1 1381
1 1382
1 1383
1 1384
1 1385
1 1386
1 1387
1 1388
1 1389
1 1390
1 1391
1 1392
1 1393
1 1394
1 1395
1 1396
1 1397
1 1398
1 1399
1 1400
1 1401
1 1402
1 1403
1 1404
1 1405
1 1406
1 1407
1 1408
1 1409
1 1410
1 1411
1 1412
1 1413
1 1414
1 1415
1 1416
1 1417
1 1418
1 1419
1 1420
1 1421
1 1422
1 1423
1 1424
1 1425
1 1426
1 1427
1 1428
1 1429
1 1430
1 1431
1 1432
1 1433
1 1434
1 1435
1 1436
1 1437
1 1438
1 1439
1 1440
1 1441
1 1442
1 1443
1 1444
1 1445
1 1446
1 1447
1 1448
1 1449
1 1450
1 1451
1 1452
1 1453
1 1454
1 1455
1 1456
1 1457
1 1458
1 1459
1 1460
1 1461
1 1462
1 1463
1 1464
1 1465
1 1466
1 1467
1 1468
1 1469
1 1470
1 1471
1 1472
1 1473
1 1474
1 1475
1 1476
1 1477
1 1478
1 1479
1 1480
1 1481
1 1482
1 1483
1 1484
1 1485
1 1486
1 1487
1 1488
1 1489
1 1490
1 1491
1 1492
1 1493
1 1494
1 1495
1 1496
1 1497
1 1498
1 1499
1 1500
1 1501
1 1502
1 1503
1 1504
1 1505
1 1506
1 1507
1 1508
1 1509
1 1510
1 1511
1 1512
1 1513
1 1514
1 1515
1 1516
1 1517
1 1518
1 1519
1 1520
1 1521
1 1522
1 1523
1 1524
1 1525
1 1526
1 1527
1 1528
1 1529
1 1530
1 1531
1 1532
1 1533
1 1534
1 1535
1 1536
1 1537
1 1538
1 1539
1 1540
1 1541
1 1542
1 1543
1 1544
1 1545
1 1546
1 1547
1 1548
1 1549
1 1550
1 1551
1 1552
1 1553
1 1554
1 1555
1 1556
1 1557
1 1558
1 1559
1 1560
1 1561
1 1562
1 1563
1 1564
1 1565
1 1566
1 1567
1 1568
1 1569
1 1570
1 1571
1 1572
1 1573
1 1574
1 1575
1 1576
1 1577
1 1578
1 1579
1 1580
1 1581
1 1582
1 1583
1 1584
1 1585
1 1586
1 1587
1 1588
1 1589
1 1590
1 1591
1 1592
1 1593
1 1594
1 1595
1 1596
1 1597
1 1598
1 1599
1 1600
1 1601
1 1602
1 1603
1 1604
1 1605
1 1606
1 1607
1 1608
1 1609
1 1610
1 1611
1 1612
1 1613
1 1614
1 1615
1 1616
1 1617
1 1618
1 1619
1 1620
1 1621
1 1622
1 1623
1 1624
1 1625
1 1626
1 1627
1 1628
1 1629
1 1630
1 1631
1 1632
1 1633
1 1634
1 1635
1 1636
1 1637
1 1638
1 1639
1 1640
1 1641
1 1642
1 1643
1 1644
1 1645
1 1646
1 1647
1 1648
1 1649
1 1650
1 1651
1 1652
1 1653
1 1654
1 1655
1 1656
1 1657
1 1658
1 1659
1 1660
1 1661
1 1662
1 1663
1 1664
1 1665
1 1666
1 1667
1 1668
1 1669
1 1670
1 1671
1 1672
1 1673
1 1674
1 1675
1 1676
1 1677
1 1678
1 1679
1 1680
1 1681
1 1682
1 1683
1 1684
1 1685
1 1686
1 1687
1 1688
1 1689
1 1690
1 1691
1 1692
1 1693
1 1694
1 1695
1 1696
1 1697
1 1698
1 1699
1 1700
1 1701
1 1702
1 1703
1 1704
1 1705
1 1706
1 1707
1 1708
1 1709
1 1710
1 1711
1 1712
1 1713
1 1714
1 1715
1 1716
1 1717
1 1718
1 1719
1 1720
1 1721
1 1722
1 1723
1 1724
1 1725
1 1726
1 1727
1 1728
1 1729
1 1730
1 1731
1 1732
1 1733
1 1734
1 1735
1 1736
1 1737
1 1738
1 1739
1 1740
1 1741
1 1742
1 1743
1 1744
1 1745
1 1746
1 1747
1 1748
1 1749
1 1750
1 1751
1 1752
1 1753
1 1754
1 1755
1 1756
1 1757
1 1758
1 1759
1 1760
1 1761
1 1762
1 1763
1 1764
1 1765
1 1766
1 1767
1 1768
1 1769
1 1770
1 1771
1 1772
1 1773
1 1774
1 1775
1 1776
1 1777
1 1778
1 1779
1 1780
1 1781
1 1782
1 1783
1 1784
1 1785
1 1786
1 1787
1 1788
1 1789
1 1790
1 1791
1 1792
1 1793
1 1794
1 1795
1 1796
1 1797
1 1798
1 1799
1 1800
1 1801
1 1802
1 1803
1 1804
1 1805
1 1806
1 1807
1 1808
1 1809
1 1810
1 1811
1 1812
1 1813
1 1814
1 1815
1 1816
1 1817
1 1818
1 1819
1 1820
1 1821
1 1822
1 1823
1 1824
1 1825
1 1826
1 1827
1 1828
1 1829
1 1830
1 1831
1 1832
1 1833
1 1834
1 1835
1 1836
1 1837
1 1838
1 1839
1 1840
1 1841
1 1842
1 1843
1 1844
1 1845
1 1846
1 1847
1 1848
1 1849
1 1850
1 1851
1 1852
1 1853
1 1854
1 1855
1 1856
1 1857
1 1858
1 1859
1 1860
1 1861
1 1862
1 1863
1 1864
1 1865
1 1866
1 1867
1 1868
1 1869
1 1870
1 1871
1 1872
1 1873
1 1874
1 1875
1 1876
1 1877
1 1878
1 1879
1 1880
1 1881
1 1882
1 1883
1 1884
1 1885
1 1886
1 1887
1 1888
1 1889
1 1890
1 1891
1 1892
1 1893
1 1894
1 1895
1 1896
1 1897
1 1898
1 1899
1 1900
1 1901
1 1902
1 1903
1 1904
1 1905
1 1906
1 1907
1 1908
1 1909
1 1910
1 1911
1 1912
1 1913
1 1914
1 1915
1 1916
1 1917
1 1918
1 1919
1 1920
1 1921
1 1922
1 1923
1 1924
1 1925
1 1926
1 1927
1 1928
1 1929
1 1930
1 1931
1 1932
1 1933
1 1934
1 1935
1 1936
1 1937
1 1938
1 1939
1 1940
1 1941
1 1942
1 1943
1 1944
1 1945
1 1946
1 1947
1 1948
1 1949
1 1950
1 1951
1 1952
1 1953
1 1954
1 1955
1 1956
1 1957
1 1958
1 1959
1 1960
1 1961
1 1962
1 1963
1 1964
1 1965
1 1966
1 1967
1 1968
1 1969
1 1970
1 1971
1 1972
1 1973
1 1974
1 1975
1 1976
1 1977
1 1978
1 1979
1 1980
1 1981
1 1982
1 1983
1 1984
1 1985
1 1986
1 1987
1 1988
1 1989
1 1990
1 1991
1 1992
1 1993
1 1994
1 1995
1 1996
1 1997
1 1998
1 1999
1 2000
1 2001
1 2002
1 2003
1 2004
1 2005
1 2006
1 2007
1 2008
1 2009
1 2010
1 2011
1 2012
1 2013
1 2014
1 2015
1 2016
1 2017
1 2018
1 2019
1 2020
1 2021
1 2022
1 2023
1 2024
1 2025
1 2026
1 2027
1 2028
1 2029
1 2030
1 2031
1 2032
1 2033
1 2034
1 2035
1 2036
1 2037
1 2038
1 2039
1 2040
1 2041
1 2042
1 2043
1 2044
1 2045
1 2046
1 2047
1 2048
1 2049
1 2050
1 2051
1 2052
1 2053
1 2054
1 2055
1 2056
1 2057
1 2058
1 2059
1 2060
1 2061
1 2062
1 2063
1 2064
1 2065
1 2066
1 2067
1 2068
1 2069
1 2070
1 2071
1 2072
1 2073
1 2074
1 2075
1 2076
1 2077
1 2078
1 2079
1 2080
1 2081
1 2082
1 2083
1 2084
1 2085
1 2086
1 2087
1 2088
1 2089
1 2090
1 2091
1 2092
1 2093
1 2094
1 2095
1 2096
1 2097
1 2098
1 2099
1 2100
1 2101
1 2102
1 2103
1 2104
1 2105
1 2106
1 2107
1 2108
1 2109
1 2110
1 2111
1 2112
1 2113
1 2114
1 2115
1 2116
1 2117
1 2118
1 2119
1 2120
1 2121
1 2122
1 2123
1 2124
1 2125
1 2126
1 2127
1 2128
1 2129
1 2130
1 2131
1 2132
1 2133
1 2134
1 2135
1 2136
1 2137
1 2138
1 2139
1 2140
1 2141
1 2142
1 2143
1 2144
1 2145
1 2146
1 2147
1 2148
1 2149
1 2150
1 2151
1 2152
1 2153
1 2154
1 2155
1 2156
1 2157
1 2158
1 2159
1 2160
1 2161
1 2162
1 2163
1 2164
1 2165
1 2166
1 2167
1 2168
1 2169
1 2170
1 2171
1 2172
1 2173
1 2174
1 2175
1 2176
1 2177
1 2178
1 2179
1 2180
1 2181
1 2182
1 2183
1 2184
1 2185
1 2186
1 2187
1 2188
1 2189
1 2190
1 2191
1 2192
1 2193
1 2194
1 2195
1 2196
1 2197
1 2198
1 2199
1 2200
1 2201
1 2202
1 2203
1 2204
1 2205
1 2206
1 2207
1 2208
1 2209
1 2210
1 2211
1 2212
1 2213
1 2214
1 2215
1 2216
1 2217
1 2218
1 2219
1 2220
1 2221
1 2222
1 2223
1 2224
1 2225
1 2226
1 2227
1 2228
1 2229
1 2230
1 2231
1 2232
1 2233
1 2234
1 2235
1 2236
1 2237
1 2238
1 2239
1 2240
1 2241
1 2242
1 2243
1 2244
1 2245
1 2246
1 2247
1 2248
1 2249
1 2250
1 2251
1 2252
1 2253
1 2254
1 2255
1 2256
1 2257
1 2258
1 2259
1 2260
1 2261
1 2262
1 2263
1 2264
1 2265
1 2266
1 2267
1 2268
1 2269
1 2270
1 2271
1 2272
1 2273
1 2274
1 2275
1 2276
1 2277
1 2278
1 2279
1 2280
1 2281
1 2282
1 2283
1 2284
1 2285
1 2286
1 2287
1 2288
1 2289
1 2290
1 2291
1 2292
1 2293
1 2294
1 2295
1 2296
1 2297
1 2298
1 2299
1 2300
1 2301
1 2302
1 2303
1 2304
1 2305
1 2306
1 2307
1 2308
1 2309
1 2310
1 2311
1 2312
1 2313
1 2314
1 2315
1 2316
1 2317
1 2318
1 2319
1 2320
1 2321
1 2322
1 2323
1 2324
1 2325
1 2326
1 2327
1 2328
1 2329
1 2330
1 2331
1 2332
1 2333
1 2334
1 2335
1 2336
1 2337
1 2338
1 2339
1 2340
1 2341
1 2342
1 2343
1 2344
1 2345
1 2346
1 2347
1 2348
1 2349
1 2350
1 2351
1 2352
1 2353
1 2354
1 2355
1 2356
1 2357
1 2358
1 2359
1 2360
1 2361
1 2362
1 2363
1 2364
1 2365
1 2366
1 2367
1 2368
1 2369
1 2370
1 2371
1 2372
1 2373
1 2374
1 2375
1 2376
1 2377
1 2378
1 2379
1 2380
1 2381
1 2382
1 2383
1 2384
1 2385
1 2386
1 2387
1 2388
1 2389
1 2390
1 2391
1 2392
1 2393
1 2394
1 2395
1 2396
1 2397
1 2398
1 2399
1 2400
1 2401
1 2402
1 2403
1 2404
1 2405
1 2406
1 2407
1 2408
1 2409
1 2410
1 2411
1 2412
1 2413
1 2414
1 2415
1 2416
1 2417
1 2418
1 2419
1 2420
1 2421
1 2422
1 2423
1 2424
1 2425
1 2426
1 2427
1 2428
1 2429
1 2430
1 2431
1 2432
1 2433
1 2434
1 2435
1 2436
1 2437
1 2438
1 2439
1 2440
1 2441
1 2442
1 2443
1 2444
1 2445
1 2446
1 2447
1 2448
1 2449
1 2450
1 2451
1 2452
1 2453
1 2454
1 2455
1 2456
1 2457
1 2458
1 2459
1 2460
1 2461
1 2462
1 2463
1 2464
1 2465
1 2466
1 2467
1 2468
1 2469
1 2470
1 2471
1 2472
1 2473
1 2474
1 2475
1 2476
1 2477
1 2478
1 2479
1 2480
1 2481
1 2482
1 2483
1 2484
1 2485
1 2486
1 2487
1 2488
1 2489
1 2490
1 2491
1 2492
1 2493
1 2494
1 2495
1 2496
1 2497
1 2498
1 2499
1 2500
1 2501
1 2502
1 2503
1 2504
1 2505
1 2506
1 2507
1 2508
1 2509
1 2510
1 2511
1 2512
1 2513
1 2514
1 2515
1 2516
1 2517
1 2518
1 2519
1 2520
1 2521
1 2522
1 2523
1 2524
1 2525
1 2526
1 2527
1 2528
1 2529
1 2530
1 2531
1 2532
1 2533
1 2534
1 2535
1 2536
1 2537
1 2538
1 2539
1 2540
1 2541
1 2542
1 2543
1 2544
1 2545
1 2546
1 2547
1 2548
1 2549
1 2550
1 2551
1 2552
1 2553
1 2554
1 2555
1 2556
1 2557
1 2558
1 2559
1 2560
1 2561
1 2562
1 2563
1 2564
1 2565
1 2566
1 2567
1 2568
1 2569
1 2570
1 2571
1 2572
1 2573
1 2574
1 2575
1 2576
1 2577
1 2578
1 2579
1 2580
1 2581
1 2582
1 2583
1 2584
1 2585
1 2586
1 2587
1 2588
1 2589
1 2590
1 2591
1 2592
1 2593
1 2594
1 2595
1 2596
1 2597
1 2598
1 2599
1 2600
1 2601
1 2602
1 2603
1 2604
1 2605
1 2606
1 2607
1 2608
1 2609
1 2610
1 2611
1 2612
1 2613
1 2614
1 2615
1 2616
1 2617
1 2618
1 2619
1 2620
1 2621
1 2622
1 2623
1 2624
1 2625
1 2626
1 2627
1 2628
1 2629
1 2630
1 2631
1 2632
1 2633
1 2634
1 2635
1 2636
1 2637
1 2638
1 2639
1 2640
1 2641
1 2642
1 2643
1 2644
1 2645
1 2646
1 2647
1 2648
1 2649
1 2650
1 2651
1 2652
1 2653
1 2654
1 2655
1 2656
1 2657
1 2658
1 2659
1 2660
1 2661
1 2662
1 2663
1 2664
1 2665
1 2666
1 2667
1 2668
1 2669
1 2670
1 2671
1 2672
1 2673
1 2674
1 2675
1 2676
1 2677
1 2678
1 2679
1 2680
1 2681
1 2682
1 2683
1 2684
1 2685
1 2686
1 2687
1 2688
1 2689
1 2690
1 2691
1 2692
1 2693
1 2694
1 2695
1 2696
1 2697
1 2698
1 2699
1 2700
1 2701
1 2702
1 2703
1 2704
1 2705
1 2706
1 2707
1 2708
1 2709
1 2710
1 2711
1 2712
1 2713
1 2714
1 2715
1 2716
1 2717
1 2718
1 2719
1 2720
1 2721
1 2722
1 2723
1 2724
1 2725
1 2726
1 2727
1 2728
1 2729
1 2730
1 2731
1 2732
1 2733
1 2734
1 2735
1 2736
1 2737
1 2738
1 2739
1 2740
1 2741
1 2742
1 2743
1 2744
1 2745
1 2746
1 2747
1 2748
1 2749
1 2750
1 2751
1 2752
1 2753
1 2754
1 2755
1 2756
1 2757
1 2758
1 2759
1 2760
1 2761
1 2762
1 2763
1 2764
1 2765
1 2766
1 2767
1 2768
1 2769
1 2770
1 2771
1 2772
1 2773
1 2774
1 2775
1 2776
1 2777
1 2778
1 2779
1 2780
1 2781
1 2782
1 2783
1 2784
1 2785
1 2786
1 2787
1 2788
1 2789
1 2790
1 2791
1 2792
1 2793
1 2794
1 2795
1 2796
1 2797
1 2798
1 2799
1 2800
1 2801
1 2802
1 2803
1 2804
1 2805
1 2806
1 2807
1 2808
1 2809
1 2810
1 2811
1 2812
1 2813
1 2814
1 2815
1 2816
1 2817
1 2818
1 2819
1 2820
1 2821
1 2822
1 2823
1 2824
1 2825
1 2826
1 2827
1 2828
1 2829
1 2830
1 2831
1 2832
1 2833
1 2834
1 2835
1 2836
1 2837
1 2838
1 2839
1 2840
1 2841
1 2842
1 2843
1 2844
1 2845
1 2846
1 2847
1 2848
1 2849
1 2850
1 2851
1 2852
1 2853
1 2854
1 2855
1 2856
1 2857
1 2858
1 2859
1 2860
1 2861
1 2862
1 2863
1 2864
1 2865
1 2866
1 2867
1 2868
1 2869
1 2870
1 2871
1 2872
1 2873
1 2874
1 2875
1 2876
1 2877
1 2878
1 2879
1 2880
1 2881
1 2882
1 2883
1 2884
1 2885
1 2886
1 2887
1 2888
1 2889
1 2890
1 2891
1 2892
1 2893
1 2894
1 2895
1 2896
1 2897
1 2898
1 2899
1 2900
1 2901
1 2902
1 2903
1 2904
1 2905
1 2906
1 2907
1 2908
1 2909
1 2910
1 2911
1 2912
1 2913
1 2914
1 2915
1 2916
1 2917
1 2918
1 2919
1 2920
1 2921
1 2922
1 2923
1 2924
1 2925
1 2926
1 2927
1 2928
1 2929
1 2930
1 2931
1 2932
1 2933
1 2934
1 2935
1 2936
1 2937
1 2938
1 2939
1 2940
1 2941
1 2942
1 2943
1 2944
1 2945
1 2946
1 2947
1 2948
1 2949
1 2950
1 2951
1 2952
1 2953
1 2954
1 2955
1 2956
1 2957
1 2958
1 2959
1 2960
1 2961
1 2962
1 2963
1 2964
1 2965
1 2966
1 2967
1 2968
1 2969
1 2970
1 2971
1 2972
1 2973
1 2974
1 2975
1 2976
1 2977
1 2978
1 2979
1 2980
1 2981
1 2982
1 2983
1 2984
1 2985
1 2986
1 2987
1 2988
1 2989
1 2990
1 2991
1 2992
1 2993
1 2994
1 2995
1 2996
1 2997
1 2998
1 2999
1 3000
1 3001
1 3002
1 3003
1 3004
1 3005
1 3006
1 3007
1 3008
1 3009
1 3010
1 3011
1 3012
1 3013
1 3014
1 3015
1 3016
1 3017
1 3018
1 3019
1 3020
1 3021
1 3022
1 3023
1 3024
1 3025
1 3026
1 3027
1 3028
1 3029
1 3030
1 3031
1 3032
1 3033
1 3034
1 3035
1 3036
1 3037
1 3038
1 3039
1 3040
1 3041
1 3042
1 3043
1 3044
1 3045
1 3046
1 3047
1 3048
1 3049
1 3050
1 3051
1 3052
1 3053
1 3054
1 3055
1 3056
1 3057
1 3058
1 3059
1 3060
1 3061
1 3062
1 3063
1 3064
1 3065
1 3066
1 3067
1 3068
1 3069
1 3070
1 3071
1 3072
1 3073
1 3074
1 3075
1 3076
1 3077
1 3078
1 3079
1 3080
1 3081
1 3082
1 3083
1 3084
1 3085
1 3086
1 3087
1 3088
1 3089
1 3090
1 3091
1 3092
1 3093
1 3094
1 3095
1 3096
1 3097
1 3098
1 3099
1 3100
1 3101
1 3102
1 3103
1 3104
1 3105
1 3106
1 3107
1 3108
1 3109
1 3110
1 3111
1 3112
1 3113
1 3114
1 3115
1 3116
1 3117
1 3118
1 3119
1 3120
1 3121
1 3122
1 3123
1 3124
1 3125
1 3126
1 3127
1 3128
1 3129
1 3130
1 3131
1 3132
1 3133
1 3134
1 3135
1 3136
1 3137
1 3138
1 3139
1 3140
1 3141
1 3142
1 3143
1 3144
1 3145
1 3146
1 3147
1 3148
1 3149
1 3150
1 3151
1 3152
1 3153
1 3154
1 3155
1 3156
1 3157
1 3158
1 3159
1 3160
1 3161
1 3162
1 3163
1 3164
1 3165
1 3166
1 3167
1 3168
1 3169
1 3170
1 3171
1 3172
1 3173
1 3174
1 3175
1 3176
1 3177
1 3178
1 3179
1 3180
1 3181
1 3182
1 3183
1 3184
1 3185
1 3186
1 3187
1 3188
1 3189
1 3190
1 3191
1 3192
1 3193
1 3194
1 3195
1 3196
1 3197
1 3198
1 3199
1 3200
1 3201
1 3202
1 3203
1 3204
1 3205
1 3206
1 3207
1 3208
1 3209
1 3210
1 3211
1 3212
1 3213
1 3214
1 3215
1 3216
1 3217
1 3218
1 3219
1 3220
1 3221
1 3222
1 3223
1 3224
1 3225
1 3226
1 3227
1 3228
1 3229
1 3230
1 3231
1 3232
1 3233
1 3234
1 3235
1 3236
1 3237
1 3238
1 3239
1 3240
1 3241
1 3242
1 3243
1 3244
1 3245
1 3246
1 3247
1 3248
1 3249
1 3250
1 3251
1 3252
1 3253
1 3254
1 3255
1 3256
1 3257
1 3258
1 3259
1 3260
1 3261
1 3262
1 3263
1 3264
1 3265
1 3266
1 3267
1 3268
1 3269
1 3270
1 3271
1 3272
1 3273
1 3274
1 3275
1 3276
1 3277
1 3278
1 3279
1 3280
1 3281
1 3282
1 3283
1 3284
1 3285
1 3286
1 3287
1 3288
1 3289
1 3290
1 3291
1 3292
1 3293
1 3294
1 3295
1 3296
1 3297
1 3298
1 3299
1 3300
1 3301
1 3302
1 3303
1 3304
1 3305
1 3306
1 3307
1 3308
1 3309
1 3310
1 3311
1 3312
1 3313
1 3314
1 3315
1 3316
1 3317
1 3318
1 3319
1 3320
1 3321
1 3322
1 3323
1 3324
1 3325
1 3326
1 3327
1 3328
1 3329
1 3330
1 3331
1 3332
1 3333
1 3334
1 3335
1 3336
1 3337
1 3338
1 3339
1 3340
1 3341
1 3342
1 3343
1 3344
1 3345
1 3346
1 3347
1 3348
1 3349
1 3350
1 3351
1 3352
1 3353
1 3354
1 3355
1 3356
1 3357
1 3358
1 3359
1 3360
1 3361
1 3362
1 3363
1 3364
1 3365
1 3366
1 3367
1 3368
1 3369
1 3370
1 3371
1 3372
1 3373
1 3374
1 3375
1 3376
1 3377
1 3378
1 3379
1 3380
1 3381
1 3382
1 3383
1 3384
1 3385
1 3386
1 3387
1 3388
1 3389
1 3390
1 3391
1 3392
1 3393
1 3394
1 3395
1 3396
1 3397
1 3398
1 3399
1 3400
1 3401
1 3402
1 3403
1 3404
1 3405
1 3406
1 3407
1 3408
1 3409
1 3410
1 3411
1 3412
1 3413
1 3414
1 3415
1 3416
1 3417
1 3418
1 3419
1 3420
1 3421
1 3422
1 3423
1 3424
1 3425
1 3426
1 3427
1 3428
1 3429
1 3430
1 3431
1 3432
1 3433
1 3434
1 3435
1 3436
1 3437
1 3438
1 3439
1 3440
1 3441
1 3442
1 3443
1 3444
1 3445
1 3446
1 3447
1 3448
1 3449
1 3450
1 3451
1 3452
1 3453
1 3454
1 3455
1 3456
1 3457
1 3458
1 3459
1 3460
1 3461
1 3462
1 3463
1 3464
1 3465
1 3466
1 3467
1 3468
1 3469
1 3470
1 3471
1 3472
1 3473
1 3474
1 3475
1 3476
1 3477
1 3478
1 3479
1 3480
1 3481
1 3482
1 3483
1 3484
1 3485
1 3486
1 3487
1 3488
1 3489
1 3490
1 3491
1 3492
1 3493
1 3494
1 3495
1 3496
1 3497
1 3498
1 3499
1 3500
1 3501
1 3502
1 3503
1 3504
1 3505
1 3506
1 3507
1 3508
1 3509
1 3510
1 3511
1 3512
1 3513
1 3514
1 3515
1 3516
1 3517
1 3518
1 3519
1 3520
1 3521
1 3522
1 3523
1 3524
1 3525
1 3526
1 3527
1 3528
1 3529
1 3530
1 3531
1 3532
1 3533
1 3534
1 3535
1 3536
1 3537
1 3538
1 3539
1 3540
1 3541
1 3542
1 3543
1 3544
1 3545
1 3546
1 3547
1 3548
1 3549
1 3550
1 3551
1 3552
1 3553
1 3554
1 3555
1 3556
1 3557
1 3558
1 3559
1 3560
1 3561
1 3562
1 3563
1 3564
1 3565
1 3566
1 3567
1 3568
1 3569
1 3570
1 3571
1 3572
1 3573
1 3574
1 3575
1 3576
1 3577
1 3578
1 3579
1 3580
1 3581
1 3582
1 3583
1 3584
1 3585
1 3586
1 3587
1 3588
1 3589
1 3590
1 3591
1 3592
1 3593
1 3594
1 3595
1 3596
1 3597
1 3598
1 3599
1 3600
1 3601
1 3602
1 3603
1 3604
1 3605
1 3606
1 3607
1 3608
1 3609
1 3610
1 3611
1 3612
1 3613
1 3614
1 3615
1 3616
1 3617
1 3618
1 3619
1 3620
1 3621
1 3622
1 3623
1 3624
1 3625
1 3626
1 3627
1 3628
1 3629
1 3630
1 3631
1 3632
1 3633
1 3634
1 3635
1 3636
1 3637
1 3638
1 3639
1 3640
1 3641
1 3642
1 3643
1 3644
1 3645
1 3646
1 3647
1 3648
1 3649
1 3650
1 3651
1 3652
1 3653
1 3654
1 3655
1 3656
1 3657
1 3658
1 3659
1 3660
1 3661
1 3662
1 3663
1 3664
1 3665
1 3666
1 3667
1 3668
1 3669
1 3670
1 3671
1 3672
1 3673
1 3674
1 3675
1 3676
1 3677
1 3678
1 3679
1 3680
1 3681
1 3682
1 3683
1 3684
1 3685
1 3686
1 3687
1 3688
1 3689
1 3690
1 3691
1 3692
1 3693
1 3694
1 3695
1 3696
1 3697
1 3698
1 3699
1 3700
1 3701
1 3702
1 3703
1 3704
1 3705
1 3706
1 3707
1 3708
1 3709
1 3710
1 3711
1 3712
1 3713
1 3714
1 3715
1 3716
1 3717
1 3718
1 3719
1 3720
1 3721
1 3722
1 3723
1 3724
1 3725
1 3726
1 3727
1 3728
1 3729
1 3730
1 3731
1 3732
1 3733
1 3734
1 3735
1 3736
1 3737
1 3738
1 3739
1 3740
1 3741
1 3742
1 3743
1 3744
1 3745
1 3746
1 3747
1 3748
1 3749
1 3750
1 3751
1 3752
1 3753
1 3754
1 3755
1 3756
1 3757
1 3758
1 3759
1 3760
1 3761
1 3762
1 3763
1 3764
1 3765
1 3766
1 3767
1 3768
1 3769
1 3770
1 3771
1 3772
1 3773
1 3774
1 3775
1 3776
1 3777
1 3778
1 3779
1 3780
1 3781
1 3782
1 3783
1 3784
1 3785
1 3786
1 3787
1 3788
1 3789
1 3790
1 3791
1 3792
1 3793
1 3794
1 3795
1 3796
1 3797
1 3798
1 3799
1 3800
1 3801
1 3802
1 3803
1 3804
1 3805
1 3806
1 3807
1 3808
1 3809
1 3810
1 3811
1 3812
1 3813
1 3814
1 3815
1 3816
1 3817
1 3818
1 3819
1 3820
1 3821
1 3822
1 3823
1 3824
1 3825
1 3826
1 3827
1 3828
1 3829
1 3830
1 3831
1 3832
1 3833
1 3834
1 3835
1 3836
1 3837
1 3838
1 3839
1 3840
1 3841
1 3842
1 3843
1 3844
1 3845
1 3846
1 3847
1 3848
1 3849
1 3850
1 3851
1 3852
1 3853
1 3854
1 3855
1 3856
1 3857
1 3858
1 3859
1 3860
1 3861
1 3862
1 3863
1 3864
1 3865
1 3866
1 3867
1 3868
1 3869
1 3870
1 3871
1 3872
1 3873
1 3874
1 3875
1 3876
1 3877
1 3878
1 3879
1 3880
1 3881
1 3882
1 3883
1 3884
1 3885
1 3886
1 3887
1 3888
1 3889
1 3890
1 3891
1 3892
1 3893
1 3894
1 3895
1 3896
1 3897
1 3898
1 3899
1 3900
1 3901
1 3902
1 3903
1 3904
1 3905
1 3906
1 3907
1 3908
1 3909
1 3910
1 3911
1 3912
1 3913
1 3914
1 3915
1 3916
1 3917
1 3918
1 3919
1 3920
1 3921
1 3922
1 3923
1 3924
1 3925
1 3926
1 3927
1 3928
1 3929
1 3930
1 3931
1 3932
1 3933
1 3934
1 3935
1 3936
1 3937
1 3938
1 3939
1 3940
1 3941
1 3942
1 3943
1 3944
1 3945
1 3946
1 3947
1 3948
1 3949
1 3950
1 3951
1 3952
1 3953
1 3954
1 3955
1 3956
1 3957
1 3958
1 3959
1 3960
1 3961
1 3962
1 3963
1 3964
1 3965
1 3966
1 3967
1 3968
1 3969
1 3970
1 3971
1 3972
1 3973
1 3974
1 3975
1 3976
1 3977
1 3978
1 3979
1 3980
1 3981
1 3982
1 3983
1 3984
1 3985
1 3986
1 3987
1 3988
1 3989
1 3990
1 3991
1 3992
1 3993
1 3994
1 3995
1 3996
1 3997
1 3998
1 3999
1 4000
1 4001
1 4002
1 4003
1 4004
1 4005
1 4006
1 4007
1 4008
1 4009
1 4010
1 4011
1 4012
1 4013
1 4014
1 4015
1 4016
1 4017
1 4018
1 4019
1 4020
1 4021
1 4022
1 4023
1 4024
1 4025
1 4026
1 4027
1 4028
1 4029
1 4030
1 4031
1 4032
1 4033
1 4034
1 4035
1 4036
1 4037
1 4038
1 4039
1 4040
1 4041
1 4042
1 4043
1 4044
1 4045
1 4046
1 4047
1 4048
1 4049
1 4050
1 4051
1 4052
1 4053
1 4054
1 4055
1 4056
1 4057
1 4058
1 4059
1 4060
1 4061
1 4062
1 4063
1 4064
1 4065
1 4066
1 4067
1 4068
1 4069
1 4070
1 4071
1 4072
1 4073
1 4074
1 4075
1 4076
1 4077
1 4078
1 4079
1 4080
1 4081
1 4082
1 4083
1 4084
1 4085
1 4086
1 4087
1 4088
1 4089
1 4090
1 4091
1 4092
1 4093
1 4094
1 4095
1 4096
1 4097
1 4098
1 4099
1 4100
1 4101
1 4102
1 4103
1 4104
1 4105
1 4106
1 4107
1 4108
1 4109
1 4110
1 4111
1 4112
1 4113
1 4114
1 4115
1 4116
1 4117
1 4118
1 4119
1 4120
1 4121
1 4122
1 4123
1 4124
1 4125
1 4126
1 4127
1 4128
1 4129
1 4130
1 4131
1 4132
1 4133
1 4134
1 4135
1 4136
1 4137
1 4138
1 4139
1 4140
1 4141
1 4142
1 4143
1 4144
1 4145
1 4146
1 4147
1 4148
1 4149
1 4150
1 4151
1 4152
1 4153
1 4154
1 4155
1 4156
1 4157
1 4158
1 4159
1 4160
1 4161
1 4162
1 4163
1 4164
1 4165
1 4166
1 4167
1 4168
1 4169
1 4170
1 4171
1 4172
1 4173
1 4174
1 4175
1 4176
1 4177
1 4178
1 4179
1 4180
1 4181
1 4182
1 4183
1 4184
1 4185
1 4186
1 4187
1 4188
1 4189
1 4190
1 4191
1 4192
1 4193
1 4194
1 4195
1 4196
1 4197
1 4198
1 4199
1 4200
1 4201
1 4202
1 4203
1 4204
1 4205
1 4206
1 4207
1 4208
1 4209
1 4210
1 4211
1 4212
1 4213
1 4214
1 4215
1 4216
1 4217
1 4218
1 4219
1 4220
1 4221
1 4222
1 4223
1 4224
1 4225
1 4226
1 4227
1 4228
1 4229
1 4230
1 4231
1 4232
1 4233
1 4234
1 4235
1 4236
1 4237
1 4238
1 4239
1 4240
1 4241
1 4242
1 4243
1 4244
1 4245
1 4246
1 4247
1 4248
1 4249
1 4250
1 4251
1 4252
1 4253
1 4254
1 4255
1 4256
1 4257
1 4258
1 4259
1 4260
1 4261
1 4262
1 4263
1 4264
1 4265
1 4266
1 4267
1 4268
1 4269
1 4270
1 4271
1 4272
1 4273
1 4274
1 4275
1 4276
1 4277
1 4278
1 4279
1 4280
1 4281
1 4282
1 4283
1 4284
1 4285
1 4286
1 4287
1 4288
1 4289
1 4290
1 4291
1 4292
1 4293
1 4294
1 4295
1 4296
1 4297
1 4298
1 4299
1 4300
1 4301
1 4302
1 4303
1 4304
1 4305
1 4306
1 4307
1 4308
1 4309
1 4310
1 4311
1 4312
1 4313
1 4314
1 4315
1 4316
1 4317
1 4318
1 4319
1 4320
1 4321
1 4322
1 4323
1 4324
1 4325
1 4326
1 4327
1 4328
1 4329
1 4330
1 4331
1 4332
1 4333
1 4334
1 4335
1 4336
1 4337
1 4338
1 4339
1 4340
1 4341
1 4342
1 4343
1 4344
1 4345
1 4346
1 4347
1 4348
1 4349
1 4350
1 4351
1 4352
1 4353
1 4354
1 4355
1 4356
1 4357
1 4358
1 4359
1 4360
1 4361
1 4362
1 4363
1 4364
1 4365
1 4366
1 4367
1 4368
1 4369
1 4370
1 4371
1 4372
1 4373
1 4374
1 4375
1 4376
1 4377
1 4378
1 4379
1 4380
1 4381
1 4382
1 4383
1 4384
1 4385
1 4386
1 4387
1 4388
1 4389
1 4390
1 4391
1 4392
1 4393
1 4394
1 4395
1 4396
1 4397
1 4398
1 4399
1 4400
1 4401
1 4402
1 4403
1 4404
1 4405
1 4406
1 4407
1 4408
1 4409
1 4410
1 4411
1 4412
1 4413
1 4414
1 4415
1 4416
1 4417
1 4418
1 4419
1 4420
1 4421
1 4422
1 4423
1 4424
1 4425
1 4426
1 4427
1 4428
1 4429
1 4430
1 4431
1 4432
1 4433
1 4434
1 4435
1 4436
1 4437
1 4438
1 4439
1 4440
1 4441
1 4442
1 4443
1 4444
1 4445
1 4446
1 4447
1 4448
1 4449
1 4450
1 4451
1 4452
1 4453
1 4454
1 4455
1 4456
1 4457
1 4458
1 4459
1 4460
1 4461
1 4462
1 4463
1 4464
1 4465
1 4466
1 4467
1 4468
1 4469
1 4470
1 4471
1 4472
1 4473
1 4474
1 4475
1 4476
1 4477
1 4478
1 4479
1 4480
1 4481
1 4482
1 4483
1 4484
1 4485
1 4486
1 4487
1 4488
1 4489
1 4490
1 4491
1 4492
1 4493
1 4494
1 4495
1 4496
1 4497
1 4498
1 4499
1 4500
1 4501
1 4502
1 4503
1 4504
1 4505
1 4506
1 4507
1 4508
1 4509
1 4510
1 4511
1 4512
1 4513
1 4514
1 4515
1 4516
1 4517
1 4518
1 4519
1 4520
1 4521
1 4522
1 4523
1 4524
1 4525
1 4526
1 4527
1 4528
1 4529
1 4530
1 4531
1 4532
1 4533
1 4534
1 4535
1 4536
1 4537
1 4538
1 4539
1 4540
1 4541
1 4542
1 4543
1 4544
1 4545
1 4546
1 4547
1 4548
1 4549
1 4550
1 4551
1 4552
1 4553
1 4554
1 4555
1 4556
1 4557
1 4558
1 4559
1 4560
1 4561
1 4562
1 4563
1 4564
1 4565
1 4566
1 4567
1 4568
1 4569
1 4570
1 4571
1 4572
1 4573
1 4574
1 4575
1 4576
1 4577
1 4578
1 4579
1 4580
1 4581
1 4582
1 4583
1 4584
1 4585
1 4586
1 4587
1 4588
1 4589
1 4590
1 4591
1 4592
1 4593
1 4594
1 4595
1 4596
1 4597
1 4598
1 4599
1 4600
1 4601
1 4602
1 4603
1 4604
1 4605
1 4606
1 4607
1 4608
1 4609
1 4610
1 4611
1 4612
1 4613
1 4614
1 4615
1 4616
1 4617
1 4618
1 4619
1 4620
1 4621
1 4622
1 4623
1 4624
1 4625
1 4626
1 4627
1 4628
1 4629
1 4630
1 4631
1 4632
1 4633
1 4634
1 4635
1 4636
1 4637
1 4638
1 4639
1 4640
1 4641
1 4642
1 4643
1 4644
1 4645
1 4646
1 4647
1 4648
1 4649
1 4650
1 4651
1 4652
1 4653
1 4654
1 4655
1 4656
1 4657
1 4658
1 4659
1 4660
1 4661
1 4662
1 4663
1 4664
1 4665
1 4666
1 4667
1 4668
1 4669
1 4670
1 4671
1 4672
1 4673
1 4674
1 4675
1 4676
1 4677
1 4678
1 4679
1 4680
1 4681
1 4682
1 4683
1 4684
1 4685
1 4686
1 4687
1 4688
1 4689
1 4690
1 4691
1 4692
1 4693
1 4694
1 4695
1 4696
1 4697
1 4698
1 4699
1 4700
1 4701
1 4702
1 4703
1 4704
1 4705
1 4706
1 4707
1 4708
1 4709
1 4710
1 4711
1 4712
1 4713
1 4714
1 4715
1 4716
1 4717
1 4718
1 4719
1 4720
1 4721
1 4722
1 4723
1 4724
1 4725
1 4726
1 4727
1 4728
1 4729
1 4730
1 4731
1 4732
1 4733
1 4734
1 4735
1 4736
1 4737
1 4738
1 4739
1 4740
1 4741
1 4742
1 4743
1 4744
1 4745
1 4746
1 4747
1 4748
1 4749
1 4750
1 4751
1 4752
1 4753
1 4754
1 4755
1 4756
1 4757
1 4758
1 4759
1 4760
1 4761
1 4762
1 4763
1 4764
1 4765
1 4766
1 4767
1 4768
1 4769
1 4770
1 4771
1 4772
1 4773
1 4774
1 4775
1 4776
1 4777
1 4778
1 4779
1 4780
1 4781
1 4782
1 4783
1 4784
1 4785
1 4786
1 4787
1 4788
1 4789
1 4790
1 4791
1 4792
1 4793
1 4794
1 4795
1 4796
1 4797
1 4798
1 4799
1 4800
1 4801
1 4802
1 4803
1 4804
1 4805
1 4806
1 4807
1 4808
1 4809
1 4810
1 4811
1 4812
1 4813
1 4814
1 4815
1 4816
1 4817
1 4818
1 4819
1 4820
1 4821
1 4822
1 4823
1 4824
1 4825
1 4826
1 4827
1 4828
1 4829
1 4830
1 4831
1 4832
1 4833
1 4834
1 4835
1 4836
1 4837
1 4838
1 4839
1 4840
1 4841
1 4842
1 4843
1 4844
1 4845
1 4846
1 4847
1 4848
1 4849
1 4850
1 4851
1 4852
1 4853
1 4854
1 4855
1 4856
1 4857
1 4858
1 4859
1 4860
1 4861
1 4862
1 4863
1 4864
1 4865
1 4866
1 4867
1 4868
1 4869
1 4870
1 4871
1 4872
1 4873
1 4874
1 4875
1 4876
1 4877
1 4878
1 4879
1 4880
1 4881
1 4882
1 4883
1 4884
1 4885
1 4886
1 4887
1 4888
1 4889
1 4890
1 4891
1 4892
1 4893
1 4894
1 4895
1 4896
1 4897
1 4898
1 4899
1 4900
1 4901
1 4902
1 4903
1 4904
1 4905
1 4906
1 4907
1 4908
1 4909
1 4910
1 4911
1 4912
1 4913
1 4914
1 4915
1 4916
1 4917
1 4918
1 4919
1 4920
1 4921
1 4922
1 4923
1 4924
1 4925
1 4926
1 4927
1 4928
1 4929
1 4930
1 4931
1 4932
1 4933
1 4934
1 4935
1 4936
1 4937
1 4938
1 4939
1 4940
1 4941
1 4942
1 4943
1 4944
1 4945
1 4946
1 4947
1 4948
1 4949
1 4950
1 4951
1 4952
1 4953
1 4954
1 4955
1 4956
1 4957
1 4958
1 4959
1 4960
1 4961
1 4962
1 4963
1 4964
1 4965
1 4966
1 4967
1 4968
1 4969
1 4970
1 4971
1 4972
1 4973
1 4974
1 4975
1 4976
1 4977
1 4978
1 4979
1 4980
1 4981
1 4982
1 4983
1 4984
1 4985
1 4986
1 4987
1 4988
1 4989
1 4990
1 4991
1 4992
1 4993
1 4994
1 4995
1 4996
1 4997
1 4998
1 4999
CELL_TYPES 5000
1 
1 
1 
1 
1 
1 
1 
1 
1 
1 
1 
1 
1 
1 
1 
1 
1 
1 
1 
1 
1 
1 
1 
1 
1 
1 
1 
1 
1 
1 
1 
1 
1 
1 
1 
1 
1 
1 
1 
1 
1 
1 
1 
1 
1 
1 
1 
1 
1 
1 
1 
1 
1 
1 
1 
1 
1 
1 
1 
1 
1 
1 
1 
1 
1 
1 
1 
1 
1 
1 
1 
1 
1 
1 
1 
1 
1 
1 
1 
1 
1 
1 
1 
1 
1 
1 
1 
1 
1 
1 
1 
1 
1 
1 
1 
1 
1 
1 
1 
1 
1 
1 
1 
1 
1 
1 
1 
1 
1 
1 
1 
1 
1 
1 
1 
1 
1 
1 
1 
1 
1 
1 
1 
1 
1 
1 
1 
1 
1 
1 
1 
1 
1 
1 
1 
1 
1 
1 
1 
1 
1 
1 
1 
1 
1 
1 
1 
1 
1 
1 
1 
1 
1 
1 
1 
1 
1 
1 
1 
1 
1 
1 
1 
1 
1 
1 
1 
1 
1 
1 
1 
1 
1 
1 
1 
1 
1 
1 
1 
1 
1 
1 
1 
1 
1 
1 
1 
1 
1 
1 
1 
1 
1 
1 
1 
1 
1 
1 
1 
1 
1 
1 
1 
1 
1 
1 
1 
1 
1 
1 
1 
1 
1 
1 
1 
1 
1 
1 
1 
1 
1 
1 
1 
1 
1 
1 
1 
1 
1 
1 
1 
1 
1 
1 
1 
1 
1 
1 
1 
1 
1 
1 
1 
1 
1 
1 
1 
1 
1 
1 
1 
1 
1 
1 
1 
1 
1 
1 
1 
1 
1 
1 
1 
1 
1 
1 
1 
1 
1 
1 
1 
1 
1 
1 
1 
1 
1 
1 
1 
1 
1 
1 
1 
1 
1 
1 
1 
1 
1 
1 
1 
1 
1 
1 
1 
1 
1 
1 
1 
1 
1 
1 
1 
1 
1 
1 
1 
1 
1 
1 
1 
1 
1 
1 
1 
1 
1 
1 
1 
1 
1 
1 
1 
1 
1 
1 
1 
1 
1 
1 
1 
1 
1 
1 
1 
1 
1 
1 
1 
1 
1 
1 
1 
1 
1 
1 
1 
1 
1 
1 
1 
1 
1 
1 
1 
1 
1 
1 
1 
1 
1 
1 
1 
1 
1 
1 
1 
1 
1 
1 
1 
1 
1 
1 
1 
1 
1 
1 
1 
1 
1 
1 
1 
1 
1 
1 
1 
1 
1 
1 
1 
1 
1 
1 
1 
1 
1 
1 
1 
1 
1 
1 
1 
1 
1 
1 
1 
1 
1 
1 
1 
1 
1 
1 
1 
1 
1 
1 
1 
1 
1 
1 
1 
1 
1 
1 
1 
1 
1 
1 
1 
1 
1 
1 
1 
1 
1 
1 
1 
1 
1 
1 
1 
1 
1 
1 
1 
1 
1 
1 
1 
1 
1 
1 
1 
1 
1 
1 
1 
1 
1 
1 
1 
1 
1 
1 
1 
1 
1 
1 
1 
1 
1 
1 
1 
1 
1 
1 
1 
1 
1 
1 
1 
1 
1 
1 
1 
1 
1 
1 
1 
1 
1 
1 
1 
1 
1 
1 
1 
1 
1 
1 
1 
1 
1 
1 
1 
1 
1 
1 
1 
1 
1 
1 
1 
1 
1 
1 
1 
1 
1 
1 
1 
1 
1 
1 
1 
1 
1 
1 
1 
1 
1 
1 
1 
1 
1 
1 
1 
1 
1 
1 
1 
1 
1 
1 
1 
1 
1 
1 
1 
1 
1 
1 
1 
1 
1 
1 
1 
1 
1 
1 
1 
1 
1 
1 
1 
1 
1 
1 
1 
1 
1 
1 
1 
1 
1 
1 
1 
1 
1 
1 
1 
1 
1 
1 
1 
1 
1 
1 
1 
1 
1 
1 
1 
1 
1 
1 
1 
1 
1 
1 
1 
1 
1 
1 
1 
1 
1 
1 
1 
1 
1 
1 
1 
1 
1 
1 
1 
1 
1 
1 
1 
1 
1 
1 
1 
1 
1 
1 
1 
1 
1 
1 
1 
1 
1 
1 
1 
1 
1 
1 
1 
1 
1 
1 
1 
1 
1 
1 
1 
1 
1 
1 
1 
1 
1 
1 
1 
1 
1 
1 
1 
1 
1 
1 
1 
1 
1 
1 
1 
1 
1 
1 
1 
1 
1 
1 
1 
1 
1 
1 
1 
1 
1 
1 
1 
1 
1 
1 
1 
1 
1 
1 
1 
1 
1 
1 
1 
1 
1 
1 
1 
1 
1 
1 
1 
1 
1 
1 
1 
1 
1 
1 
1 
1 
1 
1 
1 
1 
1 
1 
1 
1 
1 
1 
1 
1 
1 
1 
1 
1 
1 
1 
1 
1 
1 
1 
1 
1 
1 
1 
1 
1 
1 
1 
1 
1 
1 
1 
1 
1 
1 
1 
1 
1 
1 
1 
1 
1 
1 
1 
1 
1 
1 
1 
1 
1 
1 
1 
1 
1 
1 
1 
1 
1 
1 
1 
1 
1 
1 
1 
1 
1 
1 
1 
1 
1 
1 
1 
1 
1 
1 
1 
1 
1 
1 
1 
1 
1 
1 
1 
1 
1 
1 
1 
1 
1 
1 
1 
1 
1 
1 
1 
1 
1 
1 
1 
1 
1 
1 
1 
1 
1 
1 
1 
1 
1 
1 
1 
1 
1 
1 
1 
1 
1 
1 
1 
1 
1 
1 
1 
1 
1 
1 
1 
1 
1 
1 
1 
1 
1 
1 
1 
1 
1 
1 
1 
1 
1 
1 
1 
1 
1 
1 
1 
1 
1 
1 
1 
1 
1 
1 
1 
1 
1 
1 
1 
1 
1 
1 
1 
1 
1 
1 
1 
1 
1 
1 
1 
1 
1 
1 
1 
1 
1 
1 
1 
1 
1 
1 
1 
1 
1 
1 
1 
1 
1 
1 
1 
1 
1 
1 
1 
1 
1 
1 
1 
1 
1 
1 
1 
1 
1 
1 
1 
1 
1 
1 
1 
1 
1 
1 
1 
1 
1 
1 
1 
1 
1 
1 
1 
1 
1 
1 
1 
1 
1 
1 
1 
1 
1 
1 
1 
1 
1 
1 
1 
1 
1 
1 
1 
1 
1 
1 
1 
1 
1 
1 
1 
1 
1 
1 
1 
1 
1 
1 
1 
1 
1 
1 
1 
1 
1 
1 
1 
1 
1 
1 
1 
1 
1 
1 
1 
1 
1 
1 
1 
1 
1 
1 
1 
1 
1 
1 
1 
1 
1 
1 
1 
1 
1 
1 
1 
1 
1 
1 
1 
1 
1 
1 
1 
1 
1 
1 
1 
1 
1 
1 
1 
1 
1 
1 
1 
1 
1 
1 
1 
1 
1 
1 
1 
1 
1 
1 
1 
1 
1 
1 
1 
1 
1 
1 
1 
1 
1 
1 
1 
1 
1 
1 
1 
1 
1 
1 
1 
1 
1 
1 
1 
1 
1 
1 
1 
1 
1 
1 
1 
1 
1 
1 
1 
1 
1 
1 
1 
1 
1 
1 
1 
1 
1 
1 
1 
1 
1 
1 
1 
1 
1 
1 
1 
1 
1 
1 
1 
1 
1 
1 
1 
1 
1 
1 
1 
1 
1 
1 
1 
1 
1 
1 
1 
1 
1 
1 
1 
1 
1 
1 
1 
1 
1 
1 
1 
1 
1 
1 
1 
1 
1 
1 
1 
1 
1 
1 
1 
1 
1 
1 
1 
1 
1 
1 
1 
1 
1 
1 
1 
1 
1 
1 
1 
1 
1 
1 
1 
1 
1 
1 
1 
1 
1 
1 
1 
1 
1 
1 
1 
1 
1 
1 
1 
1 
1 
1 
1 
1 
1 
1 
1 
1 
1 
1 
1 
1 
1 
1 
1 
1 
1 
1 
1 
1 
1 
1 
1 
1 
1 
1 
1 
1 
1 
1 
1 
1 
1 
1 
1 
1 
1 
1 
1 
1 
1 
1 
1 
1 
1 
1 
1 
1 
1 
1 
1 
1 
1 
1 
1 
1 
1 
1 
1 
1 
1 
1 
1 
1 
1 
1 
1 
1 
1 
1 
1 
1 
1 
1 
1 
1 
1 
1 
1 
1 
1 
1 
1 
1 
1 
1 
1 
1 
1 
1 
1 
1 
1 
1 
1 
1 
1 
1 
1 
1 
1 
1 
1 
1 
1 
1 
1 
1 
1 
1 
1 
1 
1 
1 
1 
1 
1 
1 
1 
1 
1 
1 
1 
1 
1 
1 
1 
1 
1 
1 
1 
1 
1 
1 
1 
1 
1 
1 
1 
1 
1 
1 
1 
1 
1 
1 
1 
1 
1 
1 
1 
1 
1 
1 
1 
1 
1 
1 
1 
1 
1 
1 
1 
1 
1 
1 
1 
1 
1 
1 
1 
1 
1 
1 
1 
1 
1 
1 
1 
1 
1 
1 
1 
1 
1 
1 
1 
1 
1 
1 
1 
1 
1 
1 
1 
1 
1 
1 
1 
1 
1 
1 
1 
1 
1 
1 
1 
1 
1 
1 
1 
1 
1 
1 
1 
1 
1 
1 
1 
1 
1 
1 
1 
1 
1 
1 
1 
1 
1 
1 
1 
1 
1 
1 
1 
1 
1 
1 
1 
1 
1 
1 
1 
1 
1 
1 
1 
1 
1 
1 
1 
1 
1 
1 
1 
1 
1 
1 
1 
1 
1 
1 
1 
1 
1 
1 
1 
1 
1 
1 
1 
1 
1 
1 
1 
1 
1 
1 
1 
1 
1 
1 
1 
1 
1 
1 
1 
1 
1 
1 
1 
1 
1 
1 
1 
1 
1 
1 
1 
1 
1 
1 
1 
1 
1 
1 
1 
1 
1 
1 
1 
1 
1 
1 
1 
1 
1 
1 
1 
1 
1 
1 
1 
1 
1 
1 
1 
1 
1 
1 
1 
1 
1 
1 
1 
1 
1 
1 
1 
1 
1 
1 
1 
1 
1 
1 
1 
1 
1 
1 
1 
1 
1 
1 
1 
1 
1 
1 
1 
1 
1 
1 
1 
1 
1 
1 
1 
1 
1 
1 
1 
1 
1 
1 
1 
1 
1 
1 
1 
1 
1 
1 
1 
1 
1 
1 
1 
1 
1 
1 
1 
1 
1 
1 
1 
1 
1 
1 
1 
1 
1 
1 
1 
1 
1 
1 
1 
1 
1 
1 
1 
1 
1 
1 
1 
1 
1 
1 
1 
1 
1 
1 
1 
1 
1 
1 
1 
1 
1 
1 
1 
1 
1 
1 
1 
1 
1 
1 
1 
1 
1 
1 
1 
1 
1 
1 
1 
1 
1 
1 
1 
1 
1 
1 
1 
1 
1 
1 
1 
1 
1 
1 
1 
1 
1 
1 
1 
1 
1 
1 
1 
1 
1 
1 
1 
1 
1 
1 
1 
1 
1 
1 
1 
1 
1 
1 
1 
1 
1 
1 
1 
1 
1 
1 
1 
1 
1 
1 
1 
1 
1 
1 
1 
1 
1 
1 
1 
1 
1 
1 
1 
1 
1 
1 
1 
1 
1 
1 
1 
1 
1 
1 
1 
1 
1 
1 
1 
1 
1 
1 
1 
1 
1 
1 
1 
1 
1 
1 
1 
1 
1 
1 
1 
1 
1 
1 
1 
1 
1 
1 
1 
1 
1 
1 
1 
1 
1 
1 
1 
1 
1 
1 
1 
1 
1 
1 
1 
1 
1 
1 
1 
1 
1 
1 
1 
1 
1 
1 
1 
1 
1 
1 
1 
1 
1 
1 
1 
1 
1 
1 
1 
1 
1 
1 
1 
1 
1 
1 
1 
1 
1 
1 
1 
1 
1 
1 
1 
1 
1 
1 
1 
1 
1 
1 
1 
1 
1 
1 
1 
1 
1 
1 
1 
1 
1 
1 
1 
1 
1 
1 
1 
1 
1 
1 
1 
1 
1 
1 
1 
1 
1 
1 
1 
1 
1 
1 
1 
1 
1 
1 
1 
1 
1 
1 
1 
1 
1 
1 
1 
1 
1 
1 
1 
1 
1 
1 
1 
1 
1 
1 
1 
1 
1 
1 
1 
1 
1 
1 
1 
1 
1 
1 
1 
1 
1 
1 
1 
1 
1 
1 
1 
1 
1 
1 
1 
1 
1 
1 
1 
1 
1 
1 
1 
1 
1 
1 
1 
1 
1 
1 
1 
1 
1 
1 
1 
1 
1 
1 
1 
1 
1 
1 
1 
1 
1 
1 
1 
1 
1 
1 
1 
1 
1 
1 
1 
1 
1 
1 
1 
1 
1 
1 
1 
1 
1 
1 
1 
1 
1 
1 
1 
1 
1 
1 
1 
1 
1 
1 
1 
1 
1 
1 
1 
1 
1 
1 
1 
1 
1 
1 
1 
1 
1 
1 
1 
1 
1 
1 
1 
1 
1 
1 
1 
1 
1 
1 
1 
1 
1 
1 
1 
1 
1 
1 
1 
1 
1 
1 
1 
1 
1 
1 
1 
1 
1 
1 
1 
1 
1 
1 
1 
1 
1 
1 
1 
1 
1 
1 
1 
1 
1 
1 
1 
1 
1 
1 
1 
1 
1 
1 
1 
1 
1 
1 
1 
1 
1 
1 
1 
1 
1 
1 
1 
1 
1 
1 
1 
1 
1 
1 
1 
1 
1 
1 
1 
1 
1 
1 
1 
1 
1 
1 
1 
1 
1 
1 
1 
1 
1 
1 
1 
1 
1 
1 
1 
1 
1 
1 
1 
1 
1 
1 
1 
1 
1 
1 
1 
1 
1 
1 
1 
1 
1 
1 
1 
1 
1 
1 
1 
1 
1 
1 
1 
1 
1 
1 
1 
1 
1 
1 
1 
1 
1 
1 
1 
1 
1 
1 
1 
1 
1 
1 
1 
1 
1 
1 
1 
1 
1 
1 
1 
1 
1 
1 
1 
1 
1 
1 
1 
1 
1 
1 
1 
1 
1 
1 
1 
1 
1 
1 
1 
1 
1 
1 
1 
1 
1 
1 
1 
1 
1 
1 
1 
1 
1 
1 
1 
1 
1 
1 
1 
1 
1 
1 
1 
1 
1 
1 
1 
1 
1 
1 
1 
1 
1 
1 
1 
1 
1 
1 
1 
1 
1 
1 
1 
1 
1 
1 
1 
1 
1 
1 
1 
1 
1 
1 
1 
1 
1 
1 
1 
1 
1 
1 
1 
1 
1 
1 
1 
1 
1 
1 
1 
1 
1 
1 
1 
1 
1 
1 
1 
1 
1 
1 
1 
1 
1 
1 
1 
1 
1 
1 
1 
1 
1 
1 
1 
1 
1 
1 
1 
1 
1 
1 
1 
1 
1 
1 
1 
1 
1 
1 
1 
1 
1 
1 
1 
1 
1 
1 
1 
1 
1 
1 
1 
1 
1 
1 
1 
1 
1 
1 
1 
1 
1 
1 
1 
1 
1 
1 
1 
1 
1 
1 
1 
1 
1 
1 
1 
1 
1 
1 
1 
1 
1 
1 
1 
1 
1 
1 
1 
1 
1 
1 
1 
1 
1 
1 
1 
1 
1 
1 
1 
1 
1 
1 
1 
1 
1 
1 
1 
1 
1 
1 
1 
1 
1 
1 
1 
1 
1 
1 
1 
1 
1 
1 
1 
1 
1 
1 
1 
1 
1 
1 
1 
1 
1 
1 
1 
1 
1 
1 
1 
1 
1 
1 
1 
1 
1 
1 
1 
1 
1 
1 
1 
1 
1 
1 
1 
1 
1 
1 
1 
1 
1 
1 
1 
1 
1 
1 
1 
1 
1 
1 
1 
1 
1 
1 
1 
1 
1 
1 
1 
1 
1 
1 
1 
1 
1 
1 
1 
1 
1 
1 
1 
1 
1 
1 
1 
1 
1 
1 
1 
1 
1 
1 
1 
1 
1 
1 
1 
1 
1 
1 
1 
1 
1 
1 
1 
1 
1 
1 
1 
1 
1 
1 
1 
1 
1 
1 
1 
1 
1 
1 
1 
1 
1 
1 
1 
1 
1 
1 
1 
1 
1 
1 
1 
1 
1 
1 
1 
1 
1 
1 
1 
1 
1 
1 
1 
1 
1 
1 
1 
1 
1 
1 
1 
1 
1 
1 
1 
1 
1 
1 
1 
1 
1 
1 
1 
1 
1 
1 
1 
1 
1 
1 
1 
1 
1 
1 
1 
1 
1 
1 
1 
1 
1 
1 
1 
1 
1 
1 
1 
1 
1 
1 
1 
1 
1 
1 
1 
1 
1 
1 
1 
1 
1 
1 
1 
1 
1 
1 
1 
1 
1 
1 
1 
1 
1 
1 
1 
1 
1 
1 
1 
1 
1 
1 
1 
1 
1 
1 
1 
1 
1 
1 
1 
1 
1 
1 
1 
1 
1 
1 
1 
1 
1 
1 
1 
1 
1 
1 
1 
1 
1 
1 
1 
1 
1 
1 
1 
1 
1 
1 
1 
1 
1 
1 
1 
1 
1 
1 
1 
1 
1 
1 
1 
1 
1 
1 
1 
1 
1 
1 
1 
1 
1 
1 
1 
1 
1 
1 
1 
1 
1 
1 
1 
1 
1 
1 
1 
1 
1 
1 
1 
1 
1 
1 
1 
1 
1 
1 
1 
1 
1 
1 
1 
1 
1 
1 
1 
1 
1 
1 
1 
1 
1 
1 
1 
1 
1 
1 
1 
1 
1 
1 
1 
1 
1 
1 
1 
1 
1 
1 
1 
1 
1 
1 
1 
1 
1 
1 
1 
1 
1 
1 
1 
1 
1 
1 
1 
1 
1 
1 
1 
1 
1 
1 
1 
1 
1 
1 
1 
1 
1 
1 
1 
1 
1 
1 
1 
1 
1 
1 
1 
1 
1 
1 
1 
1 
1 
1 
1 
1 
1 
1 
1 
1 
1 
1 
1 
1 
1 
1 
1 
1 
1 
1 
1 
1 
1 
1 
1 
1 
1 
1 
1 
1 
1 
1 
1 
1 
1 
1 
1 
1 
1 
1 
1 
1 
1 
1 
1 
1 
1 
1 
1 
1 
1 
1 
1 
1 
1 
1 
1 
1 
1 
1 
1 
1 
1 
1 
1 
1 
1 
1 
1 
1 
1 
1 
1 
1 
1 
1 
1 
1 
1 
1 
1 
1 
1 
1 
1 
1 
1 
1 
1 
1 
1 
1 
1 
1 
1 
1 
1 
1 
1 
1 
1 
1 
1 
1 
1 
1 
1 
1 
1 
1 
1 
1 
1 
1 
1 
1 
1 
1 
1 
1 
1 
1 
1 
1 
1 
1 
1 
1 
1 
1 
1 
1 
1 
1 
1 
1 
1 
1 
1 
1 
1 
1 
1 
1 
1 
1 
1 
1 
1 
1 
1 
1 
1 
1 
1 
1 
1 
1 
1 
1 
1 
1 
1 
1 
1 
1 
1 
1 
1 
1 
1 
1 
1 
1 
1 
1 
1 
1 
1 
1 
1 
1 
1 
1 
1 
1 
1 
1 
1 
1 
1 
1 
1 
1 
1 
1 
1 
1 
1 
1 
1 
1 
1 
1 
1 
1 
1 
1 
1 
1 
1 
1 
1 
1 
1 
1 
1 
1 
1 
1 
1 
1 
1 
1 
1 
1 
1 
1 
1 
1 
1 
1 
1 
1 
1 
1 
1 
1 
1 
1 
1 
1 
1 
1 
1 
1 
1 
1 
1 
1 
1 
1 
1 
1 
1 
1 
1 
1 
1 
1 
1 
1 
1 
1 
1 
1 
1 
1 
1 
1 
1 
1 
1 
1 
1 
1 
1 
1 
1 
1 
1 
1 
1 
1 
1 
1 
1 
1 
1 
1 
1 
1 
1 
1 
1 
1 
1 
1 
1 
1 
1 
1 
1 
1 
1 
1 
1 
1 
1 
1 
1 
1 
1 
1 
1 
1 
1 
1 
1 
1 
1 
1 
1 
1 
1 
1 
1 
1 
1 
1 
1 
1 
1 
1 
1 
1 
1 
1 
1 
1 
1 
1 
1 
1 
1 
1 
1 
1 
1 
1 
1 
1 
1 
1 
1 
1 
1 
1 
1 
1 
1 
1 
1 
1 
1 
1 
1 
1 
1 
1 
1 
1 
1 
1 
1 
1 
1 
1 
1 
1 
1 
1 
1 
1 
1 
1 
1 
1 
1 
1 
1 
1 
1 
1 
1 
1 
1 
1 
1 
1 
1 
1 
1 
1 
1 
1 
1 
1 
1 
1 
1 
1 
1 
1 
1 
1 
1 
1 
1 
1 
1 
1 
1 
1 
1 
1 
1 
1 
1 
1 
1 
1 
1 
1 
1 
1 
1 
1 
1 
1 
1 
1 
1 
1 
1 
1 
1 
1 
1 
1 
1 
1 
1 
1 
1 
1 
1 
1 
1 
1 
1 
1 
1 
1 
1 
1 
1 
1 
1 
1 
1 
1 
1 
1 
1 
1 
1 
1 
1 
1 
1 
1 
1 
1 
1 
1 
1 
1 
1 
1 
1 
1 
1 
1 
1 
1 
1 
1 
1 
1 
1 
1 
1 
1 
1 
1 
1 
1 
1 
1 
1 
1 
1 
1 
1 
1 
1 
1 
1 
1 
1 
1 
1 
1 
1 
1 
1 
1 
1 
1 
1 
1 
1 
1 
1 
1 
1 
1 
1 
1 
1 
1 
1 
1 
1 
1 
1 
1 
1 
1 
1 
1 
1 
1 
1 
1 
1 
1 
1 
1 
1 
1 
1 
1 
1 
1 
1 
1 
1 
1 
1 
1 
1 
1 
1 
1 
1 
1 
1 
1 
1 
1 
1 
1 
1 
1 
1 
1 
1 
1 
1 
1 
1 
1 
1 
1 
1 
1 
1 
1 
1 
1 
1 
1 
1 
1 
1 
1 
1 
1 
1 
1 
1 
1 
1 
1 
1 
1 
1 
1 
1 
1 
1 
1 
1 
1 
1 
1 
1 
1 
1 
1 
1 
1 
1 
1 
1 
1 
1 
1 
1 
1 
1 
1 
1 
1 
1 
1 
1 
1 
1 
1 
1 
1 
1 
1 
1 
1 
1 
1 
1 
1 
1 
1 
1 
1 
1 
1 
1 
1 
1 
1 
1 
1 
1 
1 
1 
1 
1 
1 
1 
1 
1 
1 
1 
1 
1 
1 
1 
1 
1 
1 
1 
1 
1 
1 
1 
1 
1 
1 
1 
1 
1 
1 
1 
1 
1 
1 
1 
1 
1 
1 
1 
1 
1 
1 
1 
1 
1 
1 
1 
1 
1 
1 
1 
1 
1 
1 
1 
1 
1 
1 
1 
1 
1 
1 
1 
1 
1 
1 
1 
1 
1 
1 
1 
1 
1 
1 
1 
1 
1 
1 
1 
1 
1 
1 
1 
1 
1 
1 
1 
1 
1 
1 
1 
1 
1 
1 
1 
1 
1 
1 
1 
1 
1 
1 
1 
1 
1 
1 
1 
1 
1 
1 
1 
1 
1 
1 
1 
1 
1 
1 
1 
1 
1 
1 
1 
1 
1 
1 
1 
1 
1 
1 
1 
1 
1 
1 
1 
1 
1 
1 
1 
1 
1 
1 
1 
1 
1 
1 
1 
1 
1 
1 
1 
1 
1 
1 
1 
1 
1 
1 
1 
1 
1 
1 
1 
1 
1 
1 
1 
1 
1 
1 
1 
1 
1 
1 
1 
1 
1 
1 
1 
1 
1 
1 
1 
1 
1 
1 
1 
1 
1 
1 
1 
1 
1 
1 
1 
1 
1 
1 
1 
1 
1 
1 
1 
1 
1 
1 
1 
1 
1 
1 
1 
1 
1 
1 
1 
1 
1 
1 
1 
1 
1 
1 
1 
1 
1 
1 
1 
1 
1 
1 
1 
1 
1 
1 
1 
1 
1 
1 
1 
1 
1 
1 
1 
1 
1 
1 
1 
1 
1 
1 
1 
1 
1 
1 
1 
1 
1 
1 
1 
1 
1 
1 
1 
1 
1 
1 
1 
1 
1 
1 
1 
1 
1 
1 
1 
1 
1 
1 
1 
1 
1 
1 
1 
1 
1 
1 
1 
1 
1 
1 
1 
1 
1 
1 
1 
1 
1 
1 
1 
1 
1 
1 
1 
1 
1 
1 
1 
1 
1 
1 
1 
1 
1 
1 
1 
1 
1 
1 
1 
1 
1 
1 
1 
1 
1 
1 
1 
1 
1 
1 
1 
1 
1 
1 
1 
1 
1 
1 
1 
1 
1 
1 
1 
1 
1 
1 
1 
1 
1 
1 
1 
1 
1 
1 
1 
1 
1 
1 
1 
1 
1 
1 
1 
1 
1 
1 
1 
1 
1 
1 
1 
1 
1 
1 
1 
1 
1 
1 
1 
1 
1 
1 
1 
1 
1 
1 
1 
1 
1 
1 
1 
1 
1 
1 
1 
1 
1 
1 
1 
1 
1 
1 
1 
1 
1 
1 
1 
1 
1 
1 
1 
1 
1 
1 
1 
1 
1 
1 
1 
1 
1 
1 
1 
1 
1 
1 
1 
1 
1 
1 
1 
1 
1 
1 
1 
1 
1 
1 
1 
1 
1 
1 
1 
1 
1 
1 
1 
1 
1 
1 
1 
1 
1 
1 
1 
1 
1 
1 
1 
1 
1 
1 
1 
1 
1 
1 
1 
1 
1 
1 
1 
1 
1 
1 
1 
1 
1 
1 
1 
1 
1 
1 
1 
1 
1 
1 
1 
1 
1 
1 
1 
1 
1 
1 
1 
1 
1 
1 
1 
1 
1 
1 
1 
1 
1 
1 
1 
1 
1 
1 
1 
1 
1 
1 
1 
1 
1 
1 
1 
1 
1 
1 
1 
1 
1 
1 
1 
1 
1 
1 
1 
1 
1 
1 
1 
1 
1 
1 
1 
1 
1 
1 
1 
1 
1 
1 
1 
1 
1 
1 
1 
1 
1 
1 
1 
1 
1 
1 
1 
1 
1 
1 
1 
1 
1 
1 
1 
1 
1 
1 
1 
1 
1 
1 
1 
1 
1 
1 
1 
1 
1 
1 
1 
1 
1 
1 
1 
1 
1 
1 
1 
1 
1 
1 
1 
1 
1 
1 
1 
1 
1 
1 
1 
1 
1 
1 
1 
1 
1 
1 
1 
1 
1 
1 
1 
1 
1 
1 
1 
1 
1 
1 
1 
1 
1 
1 
1 
1 
1 
1 
1 
1 
1 
1 
1 
1 
1 
1 
1 
1 
1 
1 
1 
1 
1 
1 
1 
1 
1 
1 
1 
1 
1 
1 
1 
1 
1 
1 
1 
1 
1 
1 
1 
1 
1 
1 
1 
1 
1 
1 
1 
1 
1 
1 
1 
1 
1 
1 
1 
1 
1 
1 
1 
1 
1 
1 
1 
1 
1 
1 
1 
1 
1 
1 
1 
1 
1 
1 
1 
1 
1 
1 
1 
1 
1 
1 
1 
1 
1 
1 
1 
1 
1 
1 
1 
1 
1 
1 
1 
1 
1 
1 
1 
1 
1 
1 
1 
1 
1 
1 
1 
1 
1 
1 
1 
1 
1 
1 
1 
1 
1 
1 
1 
1 
1 
1 
1 
1 
1 
1 
1 
1 
1 
1 
1 
1 
1 
1 
1 
1 
1 
1 
1 
1 
1 
1 
1 
1 
1 
1 
1 
1 
1 
1 
1 
1 
1 
1 
1 
1 
1 
1 
1 
1 
1 
1 
1 
1 
1 
1 
1 
1 
1 
1 
1 
1 
1 
1 
1 
1 
1 
1 
1 
1 
1 
1 
1 
1 
1 
1 
1 
1 
1 
1 
1 
1 
1 
1 
1 
1 
1 
1 
1 
1 
1 
1 
1 
1 
1 
1 
1 
1 
1 
1 
1 
1 
1 
1 
1 
1 
1 
1 
1 
1 
1 
1 
1 
1 
1 
1 
1 
1 
1 
1 
1 
1 
1 
1 
1 
1 
1 
1 
1 
1 
1 
1 
1 
1 
1 
1 
1 
1 
1 
1 
1 
1 
1 
1 
1 
1 
1 
1 
1 
1 
1 
1 
1 
1 
1 
1 
1 
1 
1 
1 
1 
1 
1 
1 
1 
1 
1 
1 
1 
1 
1 
1 
1 
1 
1 
1 
1 
1 
1 
1 
1 
1 
1 
1 
1 
1 
1 
1 
1 
1 
1 
1 
1 
1 
1 
1 
1 
1 
1 
1 
1 
1 
1 
1 
1 
1 
1 
1 
1 
1 
1 
1 
1 
1 
1 
1 
1 
1 
1 
1 
1 
1 
1 
1 
1 
1 
1 
1 
1 
1 
1 
1 
1 
1 
1 
1 
1 
1 
1 
1 
1 
1 
1 
1 
1 
1 
1 
1 
1 
1 
1 
1 
1 
1 
1 
1 
1 
1 
1 
1 
1 
1 
1 
1 
1 
1 
1 
1 
1 
1 
1 
1 
1 
1 
1 
1 
1 
1 
1 
1 
1 
1 
1 
1 
1 
1 
1 
1 
1 
1 
1 
1 
1 
1 
1 
1 
1 
1 
1 
1 
1 
1 
1 
1 
1 
1 
1 
1 
1 
1 
1 
1 
1 
1 
1 
1 
1 
1 
1 
1 
1 
1 
1 
1 
1 
1 
1 
1 
1 
1 
1 
1 
1 
1 
1 
1 
1 
1 
1 
1 
1 
1 
1 
1 
1 
1 
1 
1 
1 
1 
1 
1 
1 
1 
1 
1 
1 
1 
1 
1 
1 
1 
1 
1 
1 
1 
1 
1 
1 
1 
1 
1 
1 
1 
1 
1 
1 
1 
1 
1 
1 
1 
1 
1 
1 
1 
1 
1 
1 
1 
1 
1 
1 
1 
1 
1 
1 
1 
1 
1 
1 
1 
1 
1 
1 
1 
1 
1 
1 
1 
1 
1 
1 
1 
1 
1 
1 
1 
1 
1 
1 
1 
1 
1 
1 
1 
1 
1 
1 
1 
1 
1 
1 
1 
1 
1 
1 
1 
1 
1 
1 
1 
1 
1 
1 
1 
1 
1 
1 
1 
1 
1 
1 
1 
1 
1 
1 
1 
1 
1 
1 
1 
1 
1 
1 
1 
1 
1 
1 
1 
1 
1 
1 
1 
1 
1 
1 
1 
1 
1 
1 
1 
1 
1 
1 
1 
1 
1 
1 
1 
1 
1 
1 
1 
1 
1 
1 
1 
1 
1 
1 
1 
1 
1 
1 
1 
1 
1 
1 
1 
1 
1 
1 
1 
1 
1 
1 
1 
1 
1 
1 
1 
1 
1 
1 
1 
1 
1 
1 
1 
1 
1 
1 
1 
1 
1 
1 
1 
1 
1 
1 
1 
1 
1 
1 
1 
1 
1 
1 
1 
1 
1 
1 
1 
1 
1 
1 
1 
1 
1 
1 
1 
1 
1 
1 
1 
1 
1 
1 
1 
1 
1 
1 
1 
1 
1 
1 
1 
1 
1 
1 
1 
1 
1 
1 
1 
1 
1 
1 
1 
1 
1 
1 
1 
1 
1 
1 
1 
1 
1 
1 
1 
1 
1 
1 
1 
1 
1 
1 
1 
1 
1 
1 
1 
1 
1 
1 
1 
1 
1 
1 
1 
1 
1 
1 
1 
1 
1 
1 
1 
1 
1 
1 
1 
1 
1 
1 
1 
1 
1 
1 
1 
1 
1 
1 
1 
1 
1 
1 
1 
1 
1 
1 
1 
1 
1 
1 
1 
1 
1 
1 
1 
1 
1 
1 
1 
1 
1 
1 
1 
1 
1 
1 
1 
1 
1 
1 
1 
1 
1 
1 
1 
1 
1 
1 
1 
1 
1 
1 
1 
1 
1 
1 
1 
1 
1 
1 
1 
1 
1 
1 
1 
1 
1 
1 
1 
1 
1 
1 
1 
1 
1 
1 
1 
1 
1 
1 
1 
1 
1 
1 
1 
1 
1 
1 
1 
1 
1 
1 
1 
1 
1 
1 
1 
1 
1 
1 
1 
1 
1 
1 
1 
1 
1 
1 
1 
1 
1 
1 
1 
1 
1 
1 
1 
1 
1 
1 
1 
1 
1 
1 
1 
1 
1 
1 
1 
1 
1 
1 
1 
1 
1 
1 
1 
1 
1 
1 
1 
1 
1 
1 
1 
1 
1 
1 
1 
1 
1 
1 
1 
1 
1 
1 
1 
1 
1 
1 
1 
1 
1 
1 
1 
1 
1 
1 
1 
1 
1 
1 
1 
1 
1 
1 
1 
1 
1 
1 
1 
1 
1 
1 
1 
1 
1 
1 
1 
1 
1 
1 
1 
1 
1 
1 
1 
1 
1 
1 
1 
1 
1 
1 
1 
1 
1 
1 
1 
1 
1 
1 
1 
1 
1 
1 
1 
1 
1 
1 
1 
1 
1 
1 
1 
1 
1 
1 
1 
1 
1 
1 
1 
1 
1 
1 
1 
1 
1 
1 
1 
1 
1 
1 
1 
1 
1 
1 
1 
1 
1 
1 
1 
1 
POINT_DATA 5000
VECTORS Stress float
-392.329 174.366 0.
-160.712 213.851 0.
-176.197 176.996 0.
198.976 292.329 0.
148.419 173.184 0.
97.8613 54.0384 0.
444.444 -48.9548 0.
193.451 -635.508 0.
-57.5409 -1222.06 0.
-569.89 -1454.37 0.
-432.045 -1132.55 0.
-294.2 -810.727 0.
-840.666 -1021.1 0.
-852.895 -1048.62 0.
-1411.56 -1258.57 0.
-1099.81 -531.513 0.
-788.053 195.542 0.
651.727 931.046 0.
131.282 -284.71 0.
-389.164 -1500.47 0.
-612.301 -1778.34 0.
-305.247 -1062.44 0.
1.80658 -346.547 0.
-611.687 -304.087 0.
-508.387 -62.1814 0.
-276.619 234.776 0.
-2743.74 -361.638 0.
-2500.67 207.283 0.
-2571.7 491.996 0.
-2725.31 133.315 0.
-2878.93 -225.366 0.
-2881.02 -238.483 0.
-2693.63 199.397 0.
-2506.24 637.278 0.
-2594.48 70.5799 0.
-3161.76 -1251.91 0.
-3729.04 -2574.4 0.
-8377.95 -3411.92 0.
-7549.48 -1477.41 0.
-10672.7 -1256.88 0.
-8665.25 433.657 0.
-8228.28 1451.13 0.
-10508.8 992.403 0.
-10711.4 523.104 0.
-10914.1 53.8067 0.
-13125.4 -2336.56 0.
-14386.8 -5282.71 0.
-15648.3 -8228.85 0.
89416.9 36498.8 0.
89430.3 36539.8 0.
-1.70383e+06 -731968 0.
87803.7 35837.1 0.
87789.4 35794.1 0.
-14758.2 -7842.52 0.
-13555.4 -5033.24 0.
-12352.7 -2223.95 0.
-10431.3 -29.0355 0.
-10213.4 480.927 0.
-9995.51 990.891 0.
-7106.83 2076.46 0.
-7258.03 1723.29 0.
-7908.73 1156.27 0.
-7972.25 431.749 0.
-8361.46 -474.778 0.
-2952.54 955.095 0.
-3782.12 -980.767 0.
-4611.71 -2916.63 0.
-2455.25 -2560.24 0.
-1906.07 -1279.36 0.
-1356.89 1.52863 0.
-2549.37 -95.771 0.
-2532.26 -56.1033 0.
-2515.16 -16.4357 0.
-2898.58 -96.669 0.
-2843.81 31.8626 0.
515.81 1565.43 0.
231.995 834.929 0.
-87.8248 89.0035 0.
-649.936 -750.83 0.
-930.647 -1404.46 0.
-1211.36 -2058.09 0.
-165.388 -1423.7 0.
309.057 -314.83 0.
783.5 794.041 0.
-524.559 575.593 0.
-454.251 739.982 0.
-383.943 904.371 0.
-518.421 189.836 0.
-893.688 -686.277 0.
-489.294 -1047.22 0.
-274.654 -545.699 0.
-60.0138 -44.1836 0.
-337.436 55.6339 0.
-390.692 -69.8316 0.
-443.947 -195.297 0.
148.433 -55.8739 0.
97.6639 -174.797 0.
46.8945 -293.72 0.
-856.387 -482.033 0.
-727.438 -180.274 0.
-121.958 321.609 0.
-22.6164 303.513 0.
-37.9218 265.628 0.
153.976 307.372 0.
104.067 187.383 0.
54.1574 67.3939 0.
76.9759 -173.195 0.
-173.275 -759.83 0.
-423.527 -1346.47 0.
-186.362 -1258.55 0.
-48.504 -936.331 0.
89.3542 -614.115 0.
-1003.38 -1059.8 0.
-1016.19 -1086.63 0.
-1045.2 -1072.25 0.
-733.164 -345.285 0.
-421.126 381.684 0.
-899.072 298.745 0.
-1418.13 -916.529 0.
-1937.18 -2131.8 0.
1766.06 -728.426 0.
2073.92 -11.7648 0.
2381.79 704.895 0.
-1568.77 -681.545 0.
-1466.43 -440.136 0.
-1694.79 -340.455 0.
-2671.5 -300.95 0.
-2429.52 268.982 0.
-2167.98 696.381 0.
-2321.51 337.413 0.
-2475.05 -21.5542 0.
-2526.22 -51.3289 0.
-2338.81 387.874 0.
-2151.39 827.077 0.
-2664.44 67.4188 0.
-3232.34 -1254.2 0.
-3800.24 -2575.82 0.
-8029.11 -3231.56 0.
-7201.36 -1295.85 0.
-8035.37 -92.418 0.
-7596.68 924.842 0.
-7157.98 1942.1 0.
-10973.3 816.123 0.
-11178.6 347.888 0.
-11383.9 -120.343 0.
-10671.4 -1262.18 0.
-11933.5 -4215.48 0.
-13195.6 -7168.76 0.
85205.9 34709.4 0.
85213.4 34755.6 0.
-1.42516e+06 -612506 0.
83893.4 34184.3 0.
83885.1 34136.1 0.
-12577.3 -6894.41 0.
-11374.6 -4079.45 0.
-10171.9 -1264.48 0.
-10639.6 -95.195 0.
-10422.8 415.387 0.
-10205.9 925.971 0.
-6663.66 2299.98 0.
-6814.63 1946.66 0.
-6965.59 1593.34 0.
-7179.25 806.76 0.
-7569.5 -98.9943 0.
-3221.89 869.03 0.
-4051.13 -1066.36 0.
-4880.37 -3001.76 0.
-1458.6 -2104.91 0.
-908.81 -823.7 0.
-359.022 457.513 0.
-2069.96 145.313 0.
-2052.88 184.442 0.
-2035.8 223.572 0.
-3183.33 -189.724 0.
-3129.11 -60.9919 0.
-2041.03 504.787 0.
-2249.71 -192.361 0.
-2569.27 -937.03 0.
3738.77 1159.51 0.
3456.34 504.602 0.
3173.91 -150.308 0.
-1906.89 -2139.13 0.
-1434.24 -1030.79 0.
-961.599 77.559 0.
-786.324 494.74 0.
-716.398 658.912 0.
-646.472 823.084 0.
-747.167 124.418 0.
-1122.08 -751.85 0.
-304.039 -937.896 0.
-89.8022 -435.944 0.
124.434 66.0074 0.
-186.775 150.314 0.
-239.553 23.558 0.
-292.331 -103.198 0.
-14.5508 -93.8812 0.
-65.1071 -213.229 0.
-115.663 -332.578 0.
-280.808 -202.413 0.
-152.295 100.082 0.
-349.245 -687.534 0.
-344.818 -676.948 0.
-225.51 -397.541 0.
-584.791 -1305.05 0.
-359.716 -778.401 0.
-753.059 -1694.74 0.
-1946.06 -4158.96 0.
-1503.21 -3126.75 0.
-4296.46 -9645.44 0.
-5900.05 -15284.6 0.
-1482.9 -4979.9 0.
-1724.86 -5546.47 0.
-3155.34 -5738.15 0.
-3451.48 -6428.57 0.
-4565.56 -9959.85 0.
-1543.25 -2907.33 0.
-1872.28 -3674.6 0.
-4173.92 -4379.93 0.
-3565.9 -2960.27 0.
-5708.24 -7958.09 0.
-45279.3 -115000 0.
797.459 -7482.77 0.
1327.2 -6241.84 0.
-4821.62 -6428.24 0.
-4147.52 -4856.88 0.
-5031.13 -6976.46 0.
-4491.13 -4636.55 0.
-4420.14 -4472.74 0.
-3648 -3504.54 0.
-3548.7 -3265.47 0.
-4640.46 -5805.55 0.
-8166.69 -13850.3 0.
-5019.13 -6500.26 0.
-5017.39 -6490.5 0.
-5369.67 -6066.55 0.
-5309.07 -5932.49 0.
-21965.7 -44805.3 0.
-16721.8 -24143.6 0.
-13032 -15540.6 0.
-12839.7 -13336.8 0.
-10851.3 -8708.32 0.
-10992.1 -9047.9 0.
-15117.3 -8005.96 0.
-13741.8 -4799.91 0.
-13536.5 -4324.46 0.
-10500.9 -5584.64 0.
-12900.7 -11163.7 0.
-61337.4 -124162 0.
81060.8 33107.4 0.
90084.5 54272.6 0.
-1.39147e+06 -646497 0.
88934.4 53524.3 0.
79729 31934.2 0.
-56745.6 -114100 0.
-13091.4 -12255.8 0.
-12099.8 -9957.74 0.
-14453.9 -8626.25 0.
-13955.3 -7468.69 0.
-15136.1 -10229.8 0.
-10529.1 -7584.4 0.
-9269.81 -4645.07 0.
-9327.57 -4778.9 0.
-8720.34 -4258.75 0.
-9216.63 -5427.96 0.
-7491.89 -8551.21 0.
-6533.99 -6317.48 0.
-8110.69 -9997.8 0.
-31218.3 -73416.1 0.
-2968.75 -7496.84 0.
-3393.33 -8483.91 0.
-5300.23 -8269.14 0.
-4708.06 -6888.35 0.
-6544.6 -11174.5 0.
-4898.49 -3608.78 0.
-4550.41 -2800.1 0.
-6225.23 -4525.78 0.
-5386.43 -2782.45 0.
-6140.17 -4537.44 0.
-1677.39 -19779.8 0.
-1941.02 -20401.8 0.
-64047.2 -165323 0.
-13480.8 -25801.7 0.
-7387.09 -11586.4 0.
-8141.83 -13350.9 0.
-3212.16 -4635.11 0.
-2132.35 -2118.35 0.
-2794.25 -3665.6 0.
-2458.33 -3402.25 0.
-2589.44 -3703.53 0.
-2961.56 -7475.47 0.
-590.411 -1937.86 0.
-622.03 -2007.09 0.
-1317.4 -2748.89 0.
-1158.6 -2378.71 0.
-2097.6 -4570.04 0.
-1274.32 -2702.11 0.
-306.97 -443.469 0.
16.9089 313.714 0.
5.14099 -581.704 0.
-1233.63 -3475.37 0.
18.5753 240.216 0.
-227.561 233.013 0.
-213.21 266.378 0.
420.309 547.858 0.
381.184 461.103 0.
342.061 374.35 0.
84.9733 615.884 0.
593.793 1802.46 0.
1102.61 2989.05 0.
1633.8 3248.66 0.
1367.15 2625.88 0.
1100.51 2003.1 0.
611.229 2055.64 0.
814.223 2529.63 0.
874.241 2870.45 0.
656.778 2366.99 0.
439.314 1863.53 0.
-563.144 1951.94 0.
833.412 5208.57 0.
2229.97 8465.2 0.
6369.81 10518.5 0.
5344.27 8125.52 0.
4318.71 5732.51 0.
157.597 3171.5 0.
-25.6614 2743.88 0.
340.997 2551.88 0.
-1304.88 1548.6 0.
-1458.47 1189.19 0.
-1232.08 1232.48 0.
-761.111 2338.39 0.
-290.143 3444.29 0.
-432.328 3689.04 0.
-697.585 3076.27 0.
-962.841 2463.49 0.
-1028.82 3947.87 0.
382.457 7233.75 0.
1793.74 10519.6 0.
-2169.44 8326.22 0.
-2721.86 7031.31 0.
-3160.62 5743.94 0.
-3725.61 4424.03 0.
-4290.59 3104.12 0.
-7235.9 1093.73 0.
-7203.39 1176.27 0.
-7170.85 1258.81 0.
-5698.93 411.054 0.
-7450.72 -3667.86 0.
-9202.54 -7746.68 0.
74671.5 40261.6 0.
84715.7 63854.2 0.
-1.06191e+06 -408270 0.
83609.6 63817.2 0.
73800.8 40761.3 0.
-7898.29 -6113.69 0.
-6226.48 -2226.67 0.
-4554.68 1660.41 0.
-6037.52 2437.85 0.
-6153.74 2158.03 0.
-6269.96 1878.21 0.
-4644.51 2471.29 0.
-4685.81 2373.62 0.
-4727.1 2275.96 0.
-4828.32 1637.31 0.
-5134.82 913.01 0.
-2466.98 2048.12 0.
-897.083 5703.16 0.
672.821 9358.21 0.
4022.71 11691.5 0.
2683.34 8565.61 0.
1343.97 5439.73 0.
108.363 3910.74 0.
127.783 3952.99 0.
147.205 3995.25 0.
-1034.51 2873.62 0.
-1438.23 1933.85 0.
-1736.36 1083.58 0.
-1038.88 2870.47 0.
-257.777 4693.18 0.
7464.11 9851.64 0.
8857.78 13104.7 0.
10251.4 16357.7 0.
4068.3 13241.9 0.
2143.48 8750.36 0.
218.662 4258.82 0.
460.547 2860.33 0.
114.303 2051.82 0.
-231.941 1243.3 0.
106.79 1568.07 0.
238.843 1883.84 0.
1166.01 2399.41 0.
814.58 1583.58 0.
463.152 767.757 0.
-106.563 158.872 0.
-47.4063 298.575 0.
11.7505 438.278 0.
196.928 663.828 0.
278.451 855.585 0.
359.973 1047.34 0.
522.686 945.923 0.
414.605 692.801 0.
-0.666161 264.705 0.
-544.946 128.848 0.
-530.255 161.866 0.
695.384 697.346 0.
655.255 611.318 0.
615.127 525.293 0.
82.5725 646.067 0.
591.371 1833.04 0.
1100.17 3020.02 0.
1148.03 3069.51 0.
881.187 2447.63 0.
614.343 1825.74 0.
1149.86 2317.58 0.
1352.92 2791.48 0.
816.994 2874.32 0.
598.399 2371.7 0.
379.803 1869.08 0.
552.295 2461.4 0.
1950.92 5719.88 0.
3349.56 8978.38 0.
3759.37 9431.47 0.
2737.21 7041.46 0.
1715.04 4651.43 0.
1234.28 3665.32 0.
1050.14 3237.18 0.
1561.94 3107.21 0.
-632.023 1869.15 0.
-786.062 1509.52 0.
-743.568 1472.23 0.
-272.327 2578.37 0.
198.913 3684.51 0.
-149.789 3840.79 0.
-415.147 3228.22 0.
-680.505 2615.65 0.
-952.237 4012.35 0.
458.813 7297.95 0.
1869.87 10583.6 0.
-1371.08 8703.36 0.
-1924.02 7407.86 0.
-1306.74 6566.07 0.
-1875.25 5247.39 0.
-2443.76 3928.71 0.
-2346.75 3211.71 0.
-2317.58 3296.56 0.
-2288.4 3381.42 0.
-2972.88 1562.62 0.
-4724.93 -2528.93 0.
-6477.05 -6620.36 0.
63256.3 35694 0.
73202.2 59100.4 0.
-711672 -258136 0.
71772.9 58917.2 0.
62068.2 36047.6 0.
-4765.51 -4795.15 0.
-3090.08 -897.668 0.
-1414.66 2999.91 0.
-1519.25 4406.54 0.
-1635.1 4124.76 0.
-1750.96 3842.98 0.
-2698.68 3336.54 0.
-2739.48 3237.76 0.
-2780.27 3138.99 0.
-3136.45 2399.66 0.
-3443.85 1675.35 0.
-1861.21 2336.14 0.
-288.338 5991.43 0.
1284.55 9646.73 0.
2528.38 11083.3 0.
1191.77 7959.51 0.
-144.861 4835.73 0.
358.159 4053.43 0.
378.154 4094.92 0.
398.151 4136.4 0.
312.079 3482.1 0.
-93.7552 2543.14 0.
607.639 2117.5 0.
1335.28 3918.79 0.
2119.04 5744.13 0.
3124.71 8027.69 0.
4511.72 11273.2 0.
5898.7 14518.7 0.
5089.89 13721.4 0.
3162.59 9227.12 0.
1235.3 4732.87 0.
1040.42 3139.16 0.
693.27 2330.73 0.
346.124 1522.31 0.
655.647 1833.76 0.
786.683 2150.24 0.
1054.04 2381.64 0.
702.85 1566.02 0.
351.663 750.411 0.
-133.258 179.081 0.
-74.7816 319.176 0.
-16.3052 459.271 0.
248.108 716.361 0.
329.512 907.889 0.
410.916 1099.42 0.
372.729 916.23 0.
264.099 664.072 0.
118.069 479.343 0.
-659.73 -243.613 0.
-862.869 -710.932 0.
96.9237 -572.16 0.
249.542 -216.56 0.
402.158 139.041 0.
-123.651 -88.4055 0.
-366.552 -654.691 0.
-609.452 -1220.98 0.
-809.908 -1315.86 0.
-667.363 -986.274 0.
-524.817 -656.687 0.
55.0495 -402.073 0.
33.076 -452.07 0.
-810.782 -831.329 0.
-727.073 -636.766 0.
-643.364 -442.203 0.
-235.679 -541.166 0.
-920.445 -2128.37 0.
-1605.21 -3715.56 0.
-2783.24 -4229.88 0.
-2149.9 -2756.78 0.
-1516.56 -1283.68 0.
-291.475 -486.346 0.
-318.329 -555.521 0.
170.689 -403.508 0.
-1489.09 -961.479 0.
-1406.51 -770.929 0.
-1285.72 -664.932 0.
-1459.95 -1070.1 0.
-1634.17 -1475.27 0.
-2283.04 -1644.41 0.
-1888.81 -730.688 0.
-1494.58 183.039 0.
-2423.21 -782.163 0.
-3130.52 -2437.02 0.
-3837.83 -4091.87 0.
-5877.88 -4619.86 0.
-5537.91 -3830.08 0.
-3408.76 -2338.69 0.
-3623.31 -2835.29 0.
-3837.85 -3331.9 0.
-1890.51 -3123.65 0.
-2509.77 -4555.59 0.
-3128.99 -5987.53 0.
-2411.16 -4365.44 0.
-529.442 114.392 0.
1352.2 4594.13 0.
42337.4 11294.9 0.
33568.3 -8684.25 0.
9313.55 -35274 0.
31411.1 -9564.58 0.
40174.3 10432.3 0.
2298.22 5045.82 0.
366.134 493.768 0.
-1566.08 -4058.31 0.
-3111.58 -6115.92 0.
-2538.67 -4780.6 0.
-1965.74 -3445.26 0.
-3874.32 -3472.3 0.
-3545.2 -2701.43 0.
-3216.06 -1930.55 0.
-3807.97 -1844.82 0.
-3638.06 -1447.56 0.
-2449.6 -804.444 0.
-2958.13 -1982.54 0.
-3466.66 -3160.63 0.
-3836.35 -3631.62 0.
-3409.15 -2634.73 0.
-2981.94 -1637.85 0.
-1587.02 -781.732 0.
-1656.92 -943.696 0.
-1726.81 -1105.66 0.
-976.022 -731.533 0.
-918.155 -611.793 0.
413.477 70.0564 0.
370.043 48.2947 0.
364.871 42.9288 0.
-2273.89 -1613.86 0.
-3260.32 -3910.49 0.
-4246.74 -6207.12 0.
-2584.27 -5493.12 0.
-1559.45 -3103.14 0.
-534.629 -713.151 0.
-179.411 -76.0962 0.
-223.565 -185.348 0.
-267.721 -294.601 0.
59.3769 -162.712 0.
52.9194 -178.724 0.
-154.406 -269.863 0.
-116.477 -173.999 0.
-78.5473 -78.1342 0.
-216.421 -81.1868 0.
-226.176 -96.0568 0.
-235.932 -110.927 0.
-104.905 -72.9676 0.
-115.334 -99.8585 0.
-125.764 -126.75 0.
-197.268 -103.801 0.
-165.296 -26.3736 0.
215.488 550.112 0.
-223.872 -25.2793 0.
-428.113 -491.722 0.
-266.067 -700.348 0.
-112.906 -344.945 0.
40.2538 10.4572 0.
146.842 59.2743 0.
-96.1744 -507.199 0.
-339.191 -1073.67 0.
-490.23 -1150.6 0.
-347.475 -820.912 0.
-204.719 -491.219 0.
-291.611 -519.844 0.
-313.82 -570.112 0.
-810.811 -803.62 0.
-728.442 -608.234 0.
-646.075 -412.847 0.
-105.136 -454.844 0.
-789.338 -2042.72 0.
-1473.54 -3630.59 0.
-1912.34 -3824.08 0.
-1278.63 -2350 0.
-644.921 -875.912 0.
-671.382 -619.268 0.
-697.893 -688.407 0.
-1249.38 -982.574 0.
-1273.9 -839.507 0.
-1192.54 -648.652 0.
-832.656 -439.827 0.
-1006.77 -844.91 0.
-1180.88 -1249.99 0.
-2005.67 -1495.53 0.
-1611.95 -581.197 0.
-1218.23 333.141 0.
-1085.49 -183.813 0.
-1795.28 -1838.31 0.
-2505.07 -3492.8 0.
-3762.92 -3682.05 0.
-3421.71 -2892.24 0.
-1045.31 -1300.5 0.
-1261.61 -1797.29 0.
-1477.91 -2294.08 0.
1013.7 -1857.57 0.
390.278 -3291.36 0.
-233.111 -4725.14 0.
2317.66 -2272.96 0.
4212.46 2215.25 0.
6107.21 6703.42 0.
28304.1 5126.48 0.
19682.2 -14704.8 0.
3373.05 -37773 0.
16804.7 -15871.6 0.
25417.2 3965.58 0.
6159.91 6773.41 0.
4216 2214.18 0.
2272 -2345.06 0.
-457.086 -4957.22 0.
116.799 -3619.53 0.
690.696 -2281.84 0.
-1551.21 -2454.21 0.
-1221.97 -1682 0.
-892.715 -909.78 0.
-2641.96 -1313.47 0.
-2472.45 -915.877 0.
-1217.52 -242.607 0.
-1727.07 -1421.47 0.
-2236.61 -2600.33 0.
-2549.68 -3053.48 0.
-2122.89 -2055.54 0.
-1696.09 -1057.6 0.
-1504.63 -715.11 0.
-1574.45 -877.233 0.
-1644.28 -1039.36 0.
-987.062 -707.21 0.
-930.077 -586.044 0.
-153.938 -143.072 0.
-208.756 -170.653 0.
-213.091 -176.6 0.
-1195.41 -1116.76 0.
-2181.56 -3415.38 0.
-3167.7 -5714 0.
-2167.17 -5286.3 0.
-1141.22 -2896.39 0.
-115.273 -506.475 0.
-332.211 -108.645 0.
-375.969 -217.738 0.
-419.729 -326.832 0.
156.198 -91.0189 0.
150.416 -107.686 0.
-181.528 -249.762 0.
-143.461 -154.083 0.
-105.394 -58.4029 0.
-103.77 -1.53085 0.
-113.04 -16.5837 0.
-122.31 -31.6372 0.
-144.95 -60.8686 0.
-155.794 -87.6979 0.
-166.638 -114.528 0.
-350.169 -137.172 0.
-320.041 -58.8947 0.
-47.6635 -200.369 0.
257.551 309.529 0.
248.681 287.402 0.
-480.443 -505.63 0.
-458.349 -451.436 0.
-527.616 -610.398 0.
-495.117 -1916.86 0.
589.976 622.527 0.
685.245 851.912 0.
274.89 27.3799 0.
-140.311 -936.708 0.
258.947 -0.41111 0.
-340.256 59.9776 0.
-449.636 -199.632 0.
-927.907 -1042.63 0.
-624.454 -343.333 0.
-998.118 -1223.99 0.
-616.683 -1846.35 0.
-476.468 -1519.39 0.
-108.712 -661.529 0.
249.192 -379.909 0.
332.772 -187.477 0.
429.531 35.6651 0.
-866.515 -357.554 0.
-1207.67 -1148.87 0.
-1162.54 -929.527 0.
-973.106 -505.077 0.
-1186.02 -1017.77 0.
-382.72 -181.444 0.
78.3245 888.617 0.
452.17 1755.23 0.
-1930.64 -1843.91 0.
-1681.52 -1269.8 0.
-1384 -582.695 0.
111.447 141.915 0.
-875.123 -2157.24 0.
-1686.13 -4046.84 0.
-2077.2 -3739.35 0.
-1620.34 -2673.91 0.
628.96 -1824.81 0.
296.91 -2597.31 0.
169.121 -2893.31 0.
3036.45 -2524.93 0.
2925.72 -2791.88 0.
3654.45 -1100.22 0.
7219.12 403.414 0.
7074.81 57.3415 0.
7365.27 734.927 0.
15710.5 2183.89 0.
15451.5 1589.85 0.
5162.29 -5345.68 0.
11722.4 -173.511 0.
12470.9 1543.51 0.
6487.04 373.157 0.
5887.04 -1059.16 0.
5305.57 -2448.15 0.
3164.05 -1457.43 0.
3837.52 96.3049 0.
3871.16 157.164 0.
392.892 -2271.49 0.
45.9978 -3082.5 0.
1268.98 -230.375 0.
-1890.78 -1792.31 0.
-2442.25 -3072.87 0.
-989.415 -1964.31 0.
-52.8409 222.269 0.
-653.923 -1179.05 0.
-894.862 -1545.8 0.
-770.127 -1258.48 0.
-338.358 -254.697 0.
-1641.86 -1171.53 0.
-913.99 526.588 0.
-1172.12 -75.9128 0.
-1396.86 -1606.47 0.
-1525.9 -1908.03 0.
-323.359 99.3114 0.
-987.647 -892.047 0.
-1426.14 -1916.45 0.
15.0463 -285.042 0.
-508.286 -1503.78 0.
-540.569 -1576.66 0.
-154.154 -1340.17 0.
60.4024 -835.426 0.
237.185 -418.755 0.
-1130.52 -1669.73 0.
-987.09 -1326.01 0.
-1268.53 -1973.71 0.
183.656 -160.133 0.
465.922 496.896 0.
115.403 533.163 0.
173.141 655.528 0.
212.386 734.577 0.
251.068 670.693 0.
158.239 453.296 0.
549.982 1366.57 0.
-23.6698 312.994 0.
-139.206 44.2654 0.
-146.862 27.2902 0.
-64.4137 851.758 0.
-442.111 -40.4191 0.
190.969 -156.697 0.
-2.75431 -114.851 0.
75.9732 66.2801 0.
-54.0773 80.9002 0.
-241.314 -355.123 0.
-428.55 -791.147 0.
-104.374 -809.341 0.
-8.5961 -577.801 0.
87.1808 -346.263 0.
185.875 -276.419 0.
133.608 -394.536 0.
81.3407 -512.652 0.
-670.999 -871.032 0.
-680.513 -895.039 0.
-581.184 -875.189 0.
-560.573 -831.793 0.
-539.964 -788.397 0.
-128.283 -675.877 0.
-303.962 -1086.44 0.
-479.641 -1497 0.
-427.519 -1564.49 0.
-350.403 -1387.51 0.
-273.288 -1210.52 0.
-910.545 -1343.07 0.
-843.489 -1185.75 0.
-781.139 -1030.27 0.
-1133.05 -1034.1 0.
-1035.5 -821.797 0.
-576.922 -499.425 0.
-594.433 -544.366 0.
-611.944 -589.307 0.
-968.755 -893.819 0.
-1147.58 -1316.51 0.
-1326.4 -1739.2 0.
-539.686 -1533.32 0.
-540.824 -1531.06 0.
-541.964 -1528.81 0.
-228.896 -1679.41 0.
-404.222 -2087.09 0.
1353.45 -1659.17 0.
987.57 -2504.27 0.
621.703 -3349.37 0.
2829.99 -2858.54 0.
2873.42 -2762.62 0.
2916.85 -2666.71 0.
5348.92 -1320.3 0.
5605.85 -740.728 0.
5862.75 -161.151 0.
13040.3 1520.59 0.
12015.7 -868.364 0.
5177.03 -5746.17 0.
9043.1 -2018.02 0.
10137.6 521.929 0.
5588.3 57.5728 0.
5391.25 -421.823 0.
5194.18 -901.198 0.
3088.24 -2060.96 0.
3034.74 -2200.22 0.
2981.24 -2339.48 0.
623.443 -3078.5 0.
862.533 -2521.31 0.
1101.63 -1964.12 0.
-1061.19 -2388.68 0.
-803.091 -1784.03 0.
-584.975 -1345.62 0.
-817.235 -1888.07 0.
-1049.49 -2430.52 0.
-1217.08 -2489.94 0.
-825.156 -1581.06 0.
-433.234 -672.173 0.
-1119.44 -821.419 0.
-1245.96 -1114.05 0.
-1372.49 -1406.67 0.
-1222.85 -1185.78 0.
-1099.72 -896.372 0.
-454.171 -411.923 0.
-732.179 -997.799 0.
-978.369 -1570.04 0.
-489.94 -1748.37 0.
-570.437 -1932.3 0.
-650.933 -2116.24 0.
-257.557 -1849.5 0.
-54.689 -1372.39 0.
148.178 -895.275 0.
-669.569 -822.566 0.
-443.396 -288.399 0.
-217.226 245.769 0.
43.3682 -109.521 0.
-237.302 -766.019 0.
-670.656 -1350.65 0.
-451.653 -846.731 0.
-232.649 -342.805 0.
-218.303 -149.589 0.
-307.355 -355.139 0.
-396.408 -560.688 0.
-113.244 -393.481 0.
-16.461 -166.424 0.
80.3231 60.6334 0.
-622.664 -199.956 0.
-610.844 -179.237 0.
475.243 -6.54338 0.
-82.8652 -118.878 0.
-3.73642 62.1072 0.
177.661 213.326 0.
-9.04929 -223.291 0.
-195.76 -659.91 0.
-190.82 -815.265 0.
-95.1483 -583.528 0.
0.522506 -351.794 0.
254.4 -213.357 0.
202.245 -332.035 0.
150.089 -450.713 0.
-571.057 -797.5 0.
-581.483 -820.844 0.
-227.581 -691.952 0.
-208.216 -647.743 0.
-188.851 -603.534 0.
-129.095 -647.001 0.
-304.311 -1057.08 0.
-479.526 -1467.16 0.
-619.188 -1617.36 0.
-541.894 -1440.06 0.
-464.601 -1262.75 0.
-429.617 -1103.82 0.
-361.077 -947.3 0.
-310.824 -798.408 0.
-1033.68 -959.324 0.
-936.404 -747.091 0.
-631.152 -489.807 0.
-649.639 -534.95 0.
-668.127 -580.094 0.
-273.575 -567.219 0.
-453.295 -989.794 0.
-633.014 -1412.37 0.
-442.466 -1462.08 0.
-444.269 -1459.34 0.
-446.076 -1456.61 0.
971.963 -1130.67 0.
795.955 -1538.34 0.
2166.39 -1286.28 0.
1798.41 -2130.16 0.
1430.44 -2974.02 0.
2766.11 -2860.13 0.
2808.76 -2762.58 0.
2851.42 -2665.04 0.
3980.57 -1873.23 0.
4240.96 -1295.58 0.
4501.31 -717.937 0.
10136.2 310.051 0.
9116.9 -2075.24 0.
907.776 -7550.77 0.
6742.13 -2977.81 0.
7829.82 -438.51 0.
4667.33 -310.455 0.
4466.42 -785.991 0.
4265.49 -1261.51 0.
3325.26 -1934.74 0.
3270.8 -2073.09 0.
3216.34 -2211.44 0.
1345.16 -2739.54 0.
1584.31 -2180.8 0.
1823.47 -1622.06 0.
282.66 -1785.61 0.
542.635 -1180.87 0.
-395.338 -1227.51 0.
-626.638 -1770.25 0.
-857.938 -2312.99 0.
-1098.19 -2405.14 0.
-705.765 -1496.86 0.
-313.339 -588.576 0.
-646.655 -587.926 0.
-774.088 -879.618 0.
-901.518 -1171.31 0.
-1214.01 -1150.28 0.
-1091.63 -860.254 0.
14.5864 -181.197 0.
-347.979 -802.22 0.
-595.195 -1373.79 0.
-325.363 -1650.01 0.
-406.251 -1833.31 0.
-487.139 -2016.62 0.
-100.773 -1751 0.
102.411 -1273.97 0.
305.594 -796.938 0.
-531.302 -728.337 0.
-304.233 -194.826 0.
-77.1666 338.686 0.
-136.754 -151.832 0.
-417.467 -808.148 0.
-629.268 -1302.78 0.
-411.79 -797.327 0.
-194.312 -291.87 0.
-347.92 -176.726 0.
-437.949 -381.639 0.
-527.978 -586.55 0.
163.715 -244.856 0.
260.386 -17.6253 0.
357.058 209.606 0.
-738.398 -219.149 0.
-727.861 -197.43 0.
474.643 145.991 0.
-202.707 -195.538 0.
-228.449 -260.382 0.
150.979 -154.665 0.
124.739 -221.062 0.
98.5004 -287.459 0.
-177.294 -493.636 0.
-259.545 -695.144 0.
-341.798 -896.655 0.
-34.7931 -872.776 0.
-63.3832 -941.113 0.
-91.9733 -1009.45 0.
-577.496 -1153.15 0.
-534.126 -1048.73 0.
-129.924 -807.945 0.
-292.626 -1191.36 0.
-455.329 -1574.77 0.
-598.337 -1877.46 0.
-612.012 -1908.72 0.
-625.688 -1939.99 0.
-743.022 -1932.5 0.
-679.851 -1784.44 0.
-616.679 -1636.37 0.
-404.098 -1447.78 0.
-360.819 -1346.09 0.
-32.444 -1122.14 0.
-1057.35 -1510.18 0.
-1027.2 -1441.08 0.
-872.547 -1353.74 0.
-915.714 -1454.28 0.
-958.881 -1554.82 0.
-300.19 -1499.63 0.
-530.946 -2045.35 0.
-761.704 -2591.08 0.
-841.554 -2830.63 0.
-867.424 -2887.5 0.
-893.298 -2944.36 0.
977.502 -2674 0.
647.485 -3443.46 0.
1421.8 -3675.23 0.
1504.15 -3480.15 0.
1586.5 -3285.08 0.
2549.42 -2638.73 0.
2742.45 -2174.85 0.
2935.46 -1710.97 0.
3555.96 -1007.5 0.
3800.9 -432.459 0.
4045.83 142.578 0.
8659.35 1485.29 0.
8149.21 294.783 0.
-41.4029 -4183.35 0.
6397.16 -659.298 0.
6800.4 278.724 0.
3944.45 -493.202 0.
3637.63 -1200.88 0.
3330.83 -1908.56 0.
2861.5 -2484.57 0.
2787.14 -2641.92 0.
2712.78 -2799.27 0.
1336.06 -3241.26 0.
1478.12 -2901.21 0.
1620.18 -2561.16 0.
362.84 -2907.44 0.
452.817 -2689.75 0.
-818.568 -2999.59 0.
-543.445 -2355.53 0.
-268.318 -1711.47 0.
-524.215 -1562.87 0.
-614.259 -1770.13 0.
-704.303 -1977.39 0.
-881.784 -1911.87 0.
-699.592 -1494.67 0.
-517.4 -1077.46 0.
-1185.14 -1353.37 0.
-1209.27 -1416.59 0.
-135.645 -1015.65 0.
-404.913 -1418.2 0.
-549.78 -1767.46 0.
-376.348 -1924.65 0.
-410.015 -2010.65 0.
-443.682 -2096.64 0.
-86.3966 -1875.05 0.
31.5517 -1599.05 0.
149.501 -1323.06 0.
-808.45 -1631.07 0.
-785.942 -1580.87 0.
-763.433 -1530.67 0.
-607.817 -1067.12 0.
-389.974 -561.406 0.
-58.7025 -111.653 0.
-169.277 -372.925 0.
-279.85 -634.197 0.
-505.177 -793.014 0.
-409.292 -576.955 0.
-313.405 -360.893 0.
232.822 -36.8168 0.
244.728 -4.89049 0.
256.635 27.0363 0.
-663.369 -160.776 0.
-538.474 132.022 0.
91.1239 15.0713 0.
-281.653 -197.787 0.
-308.598 -261.908 0.
279.506 -67.7963 0.
253.435 -134.437 0.
227.365 -201.078 0.
-337.039 -531.473 0.
-418.947 -733.34 0.
-500.855 -935.209 0.
-72.7871 -857.01 0.
-101.069 -926.249 0.
-129.351 -995.487 0.
-303.701 -1003.59 0.
-259.84 -900.013 0.
-72.9132 -756.263 0.
-236.551 -1138.88 0.
-400.191 -1521.5 0.
-427.955 -1772.43 0.
-441.768 -1802.99 0.
-455.58 -1833.54 0.
-525.571 -1809.61 0.
-461.873 -1661.36 0.
-398.175 -1513.12 0.
-418.121 -1423.82 0.
-375.418 -1321.66 0.
279.327 -957.124 0.
-602.6 -1283.86 0.
-572.273 -1215.27 0.
-507.553 -1164.95 0.
-551.286 -1265.87 0.
-595.019 -1366.8 0.
-24.5013 -1355.9 0.
-256.642 -1900.65 0.
-488.784 -2445.39 0.
-464.438 -2638.34 0.
-492.277 -2694.36 0.
-520.119 -2750.38 0.
1470.51 -2432.61 0.
1139.07 -3201.41 0.
1374.67 -3668.55 0.
1456.97 -3472.78 0.
1539.27 -3277.02 0.
1877.98 -2891.49 0.
2072.36 -2428.86 0.
2266.73 -1966.24 0.
2947.98 -1235.7 0.
3192.56 -660.411 0.
3437.14 -85.1291 0.
6719.38 681.235 0.
6209.32 -506.864 0.
1600.69 -3451.62 0.
5442.1 -1039.4 0.
5844.35 -101.359 0.
3303.96 -730.52 0.
2998.82 -1440.2 0.
2693.69 -2149.88 0.
2074.52 -2788.93 0.
2001.21 -2947.94 0.
1927.91 -3106.96 0.
1157.03 -3284.84 0.
1298.79 -2945.03 0.
1440.54 -2605.23 0.
499.499 -2820.48 0.
590.649 -2603.31 0.
-201.951 -2707.54 0.
74.271 -2061.99 0.
350.496 -1416.44 0.
-122.759 -1358.31 0.
-212.03 -1565.75 0.
-301.301 -1773.18 0.
-516.349 -1727.78 0.
-334.171 -1310.69 0.
-151.993 -893.595 0.
-875.482 -1185.34 0.
-899.466 -1248.71 0.
-311.131 -1061.47 0.
-237.887 -1316.04 0.
-383.701 -1664.49 0.
-341.944 -1882.37 0.
-375.862 -1967.71 0.
-409.78 -2053.05 0.
-44.2499 -1827.18 0.
73.3105 -1551.07 0.
190.871 -1274.95 0.
-614.864 -1515.43 0.
-592.414 -1465.29 0.
-569.965 -1415.15 0.
-575.622 -1023.92 0.
-358.879 -516.92 0.
79.0541 -19.314 0.
-31.3287 -281.097 0.
-141.712 -542.881 0.
-94.3005 -586.203 0.
0.841348 -368.663 0.
95.9847 -151.123 0.
-50.834 -129.851 0.
-39.1073 -97.4566 0.
-27.3801 -65.0613 0.
-421.679 -28.2429 0.
-295.619 265.268 0.
78.1854 721.659 0.
-266.373 25.3371 0.
62.9386 798.892 0.
479.112 161.047 0.
363.141 -99.9319 0.
584.382 426.059 0.
-46.9469 463.04 0.
-143.06 241.983 0.
-22.3594 525.57 0.
600.25 804.568 0.
570.236 735.732 0.
369.402 268.373 0.
244.073 -203.845 0.
-13.0026 -806.955 0.
5.60499 -658.212 0.
474.235 438.621 0.
187.283 -227.585 0.
448.408 -21.9 0.
407.966 -115.561 0.
327.796 -302.192 0.
515.987 233.004 0.
435.568 47.3198 0.
-285.694 -1633.53 0.
-163.351 -787.982 0.
362.157 429.25 0.
426.79 179.715 0.
324.119 32.969 0.
-149.611 -1081.64 0.
-210.3 -1117.33 0.
126.742 -336.344 0.
204.378 -160.702 0.
700.372 -165.347 0.
613.74 -372.683 0.
717.347 -135.728 0.
986.335 62.9133 0.
1004.67 99.9715 0.
557.742 -948 0.
3271.13 913.636 0.
2564.78 -739.424 0.
2478.04 -945.284 0.
2476.73 -958.566 0.
2729.8 -378.021 0.
2333.64 -508.291 0.
2650.87 222.204 0.
2306.16 -591.219 0.
2782.7 -442.824 0.
2961.71 -15.6482 0.
2361.29 -1410.47 0.
4384.04 -1058.46 0.
4720.19 -268.709 0.
-1089.55 -723.702 0.
5488.19 942.222 0.
5324.6 554.014 0.
2675.81 -952.867 0.
2756.44 -763.491 0.
2858.3 -518.981 0.
2855.44 587.307 0.
2649.77 99.7536 0.
2667.07 131.781 0.
2075.04 -764.45 0.
2128.6 -640.502 0.
2324.26 -185.475 0.
1449.98 -849.399 0.
1645.32 -387.766 0.
1434.61 -19.994 0.
1291.46 -353.099 0.
1290.4 -354.322 0.
382.531 -912.877 0.
846.167 167.308 0.
490.956 -663.237 0.
207.814 -704.626 0.
527.709 44.0456 0.
710.578 472.742 0.
-170.968 -106.968 0.
228.725 822.671 0.
-459.793 -456.178 0.
281.574 -388.685 0.
681.387 539.551 0.
356.702 -295.288 0.
273.795 -493.933 0.
333.228 -360.676 0.
531.477 -541.228 0.
412.475 -816.168 0.
644.572 -271.78 0.
-1.3886 -429.432 0.
-94.7808 -643.803 0.
559.522 885.991 0.
35.9218 382.019 0.
239.001 863.72 0.
157.76 -74.4093 0.
294.34 249.802 0.
282.933 228.586 0.
218.359 -586.16 0.
790.964 751.473 0.
844.775 878.02 0.
-444.699 -486.054 0.
-12.016 524.077 0.
-107.89 301.085 0.
-156.225 161.718 0.
-196.704 74.7166 0.
-154.143 364.301 0.
-320.691 -161.32 0.
-581.798 -767.306 0.
71.6239 -856.359 0.
176.538 -605.216 0.
281.451 -354.073 0.
-427.356 -637.212 0.
-556.547 -937.127 0.
-685.739 -1237.04 0.
-132.346 -1089.85 0.
-127.441 -1079.8 0.
-122.536 -1069.76 0.
-350.865 -1209.34 0.
-379.251 -1273.89 0.
-218.091 -1273.63 0.
-323.141 -1517.19 0.
-428.191 -1760.75 0.
-394.984 -1843.41 0.
-333.79 -1698.93 0.
-272.597 -1554.44 0.
-160.738 -1447.28 0.
-166.395 -1458.43 0.
-172.053 -1469.58 0.
-148.376 -1462.37 0.
-139.221 -1445.75 0.
230.474 -1274.81 0.
-347.244 -1537.87 0.
-355.917 -1565.48 0.
-209.057 -1566.24 0.
-302.323 -1788.17 0.
-395.588 -2010.09 0.
170.587 -1807.47 0.
258.94 -1606.77 0.
347.293 -1406.06 0.
671.914 -1499.57 0.
432.171 -2065.26 0.
192.426 -2630.94 0.
1523.33 -2289.4 0.
1416.71 -2540.14 0.
1515.17 -2662.81 0.
1677.34 -2293.5 0.
1839.5 -1924.19 0.
1609.64 -1785.25 0.
1669.04 -1655.96 0.
1728.43 -1526.67 0.
2512.48 -963.554 0.
2683.52 -566.467 0.
2854.55 -169.367 0.
4216.27 291.997 0.
4092.27 2.75461 0.
941.977 -1580.95 0.
4649.81 60.3753 0.
4677.16 124.502 0.
2001.39 -1003.69 0.
1969.8 -1075.26 0.
1938.22 -1146.83 0.
2070.92 -1197.92 0.
1979.61 -1420.61 0.
1888.3 -1643.3 0.
1385.65 -2028.44 0.
1297.51 -2234.65 0.
1209.36 -2440.85 0.
1013.36 -2223.23 0.
1187.15 -1815.72 0.
669.207 -1773.43 0.
573.976 -1992.93 0.
478.742 -2212.42 0.
-114.725 -2460.93 0.
55.0854 -2067.46 0.
224.896 -1673.99 0.
70.7963 -1577.63 0.
95.2842 -1519.53 0.
119.772 -1461.43 0.
-638.867 -1847.72 0.
-675.622 -1935.53 0.
-534.392 -1939.41 0.
-312.764 -1682.95 0.
-226.449 -1484.41 0.
108.458 -1245.81 0.
74.0978 -1332.46 0.
39.7373 -1419.12 0.
-165.996 -1547.05 0.
-182.771 -1582 0.
-199.547 -1616.95 0.
-386.605 -1572.74 0.
-287.864 -1340.8 0.
-189.123 -1108.87 0.
-490.139 -1133.86 0.
-442.651 -1019.09 0.
-168.668 -812.373 0.
-150.371 -769.37 0.
-132.075 -726.367 0.
45.0073 -587.386 0.
110.615 -436.228 0.
176.223 -285.069 0.
-235.857 -279.448 0.
-119.271 -9.45491 0.
-2.68358 260.539 0.
109.633 458.257 0.
173.494 614.687 0.
-236.574 356.671 0.
-274.48 -113.635 0.
-534.93 -720.615 0.
125.587 -797.212 0.
231.233 -547.488 0.
336.879 -297.763 0.
-298.267 -548.32 0.
-427.022 -848.959 0.
-555.778 -1149.6 0.
-17.6166 -1006.58 0.
-11.6262 -997.212 0.
-5.63614 -987.847 0.
-537.851 -1259.96 0.
-567.338 -1323.41 0.
-153.724 -1214.69 0.
-257.721 -1458.84 0.
-361.718 -1702.98 0.
-455.389 -1837.19 0.
-394.635 -1692.09 0.
-333.882 -1546.99 0.
-89.8813 -1386.84 0.
-95.0442 -1397.69 0.
-100.207 -1408.54 0.
240.447 -1266.28 0.
248.105 -1248.02 0.
650.198 -1061.08 0.
-329.322 -1501.91 0.
-337.769 -1529.79 0.
46.2468 -1425.58 0.
-47.4818 -1647.44 0.
-141.21 -1869.31 0.
401.69 -1673 0.
490.088 -1473.31 0.
578.487 -1273.62 0.
1124.62 -1273.34 0.
884.856 -1838.89 0.
645.095 -2404.43 0.
1079.89 -2450.06 0.
972.695 -2700.09 0.
1255.77 -2739.44 0.
1417.46 -2370.16 0.
1579.15 -2000.88 0.
1407.31 -1845.53 0.
1466.83 -1716.08 0.
1526.35 -1586.63 0.
2471.83 -948.756 0.
2645.89 -554.025 0.
2819.94 -159.282 0.
3326.69 -53.4536 0.
3204.18 -343.653 0.
-2365.17 -2966.77 0.
4096.61 -145.363 0.
4123.93 -81.7762 0.
1222.62 -1300.02 0.
1192.12 -1372.43 0.
1161.62 -1444.85 0.
2065.4 -1167.43 0.
1974.85 -1389.82 0.
1884.3 -1612.22 0.
1219.73 -2070.96 0.
1130.98 -2275.8 0.
1042.23 -2480.65 0.
1217.88 -2102.75 0.
1392.61 -1694.97 0.
669.857 -1743.91 0.
573.829 -1962.05 0.
477.8 -2180.18 0.
102.58 -2338.39 0.
273.528 -1945.46 0.
444.478 -1552.53 0.
376.163 -1414.77 0.
401.863 -1357.65 0.
427.562 -1300.54 0.
-281.325 -1661.13 0.
-318.205 -1748.82 0.
158.759 -1614.29 0.
-346.313 -1667.58 0.
-261.391 -1468.04 0.
324.239 -1119.5 0.
289.891 -1206.38 0.
255.542 -1293.25 0.
-478.123 -1651.42 0.
-495.278 -1686.33 0.
-512.434 -1721.23 0.
-242.212 -1480.75 0.
-143.032 -1249.82 0.
-43.8512 -1018.89 0.
-321.187 -1029.78 0.
-272.735 -916.284 0.
-162.753 -775.733 0.
-143.149 -734.39 0.
-123.546 -693.047 0.
-148.666 -636.631 0.
-81.9898 -485.744 0.
-15.3123 -334.856 0.
-72.5748 -179.216 0.
45.0944 90.6984 0.
162.765 360.614 0.
296.417 570.185 0.
361.065 728.345 0.
-719.634 -1207.4 0.
-445.667 -868.163 0.
-281.587 -485.781 0.
373.924 5.11739 0.
232.062 -325.197 0.
90.2004 -655.512 0.
-298.767 -920.311 0.
-215.527 -727.599 0.
-132.286 -534.888 0.
205.796 -446.563 0.
109.697 -669.625 0.
13.5981 -892.686 0.
-427.907 -1255.58 0.
-523.439 -1479.67 0.
-214.698 -1503.87 0.
-81.4456 -1189.08 0.
51.8064 -874.289 0.
-83.1858 -821.038 0.
-226.329 -1152.99 0.
-369.472 -1484.94 0.
-56.8067 -1495.3 0.
-64.6903 -1509.83 0.
-72.5738 -1524.37 0.
200.456 -1454.72 0.
168.875 -1529.97 0.
800.434 -1320.87 0.
-357.537 -1886.11 0.
-390.707 -1965.05 0.
10.7556 -1871.99 0.
-61.2327 -2041.36 0.
-133.22 -2210.73 0.
253.061 -2171.46 0.
198.289 -2296.26 0.
143.517 -2421.06 0.
846.141 -2226.3 0.
789.848 -2351.52 0.
733.555 -2476.75 0.
1046.7 -2306.34 0.
1076.05 -2239.18 0.
1328.63 -2070.06 0.
1408.68 -1885.54 0.
1488.73 -1701.03 0.
1433.1 -1588.24 0.
1472.08 -1485.19 0.
1511.05 -1382.14 0.
2111.37 -985.271 0.
2219.66 -728.218 0.
2327.95 -471.168 0.
2762.26 -186.781 0.
2800.62 -96.3969 0.
-7658.77 -4504.32 0.
3658.48 160.53 0.
3563.88 -65.0082 0.
901.837 -1358.17 0.
855.09 -1457.34 0.
808.348 -1556.51 0.
1849.64 -1222.16 0.
1767.49 -1406.01 0.
1685.35 -1589.86 0.
1225.11 -1859.27 0.
1204.65 -1898.73 0.
1184.2 -1938.2 0.
1392.49 -1911.3 0.
1355.11 -1984.26 0.
286.378 -2493.3 0.
284.029 -2499.8 0.
281.679 -2506.3 0.
79.0933 -2543.46 0.
154.249 -2357.87 0.
229.406 -2172.27 0.
113.53 -2195.95 0.
77.1803 -2277.04 0.
40.8315 -2358.13 0.
-241.721 -2185.89 0.
-42.1874 -1720.72 0.
731.166 -1034.32 0.
-415.159 -1638.7 0.
-474.088 -1777 0.
285.134 -1552.8 0.
233.464 -1661.55 0.
181.795 -1770.3 0.
-668.752 -2048.71 0.
-526.818 -1718.43 0.
-384.884 -1388.16 0.
-173.851 -1296.75 0.
-236.483 -1439.14 0.
-299.114 -1581.53 0.
-223.128 -1296.32 0.
-70.9399 -941.427 0.
-137.177 -718.246 0.
-137.584 -717.378 0.
-137.99 -716.51 0.
-279.467 -757.78 0.
-241.079 -666.072 0.
-202.692 -574.363 0.
-64.2299 -459.381 0.
-51.0145 -423.18 0.
-37.7994 -386.978 0.
-26.3383 -315.007 0.
11.7586 -228.581 0.
-201.089 -955.303 0.
-93.1479 -686.234 0.
68.9691 -302.982 0.
141.721 -63.7176 0.
-0.887337 -394.305 0.
-143.495 -724.892 0.
-8.96362 -763.623 0.
74.8398 -571.461 0.
158.643 -379.298 0.
98.3264 -460.095 0.
2.66624 -683.286 0.
-92.9942 -906.476 0.
18.012 -1036.36 0.
-78.2553 -1259.4 0.
-113.358 -1428.81 0.
20.7087 -1114.49 0.
154.776 -800.168 0.
-149.266 -818.05 0.
-291.489 -1150.57 0.
-433.712 -1483.09 0.
90.8328 -1402.73 0.
82.7545 -1416.88 0.
74.6764 -1431.04 0.
-47.0451 -1528.84 0.
-78.7725 -1603.8 0.
90.0577 -1592.75 0.
-16.2638 -1712.12 0.
-50.0883 -1790.46 0.
166.579 -1775.58 0.
94.139 -1944.25 0.
21.6996 -2112.92 0.
232.437 -2147.82 0.
177.732 -2274.07 0.
123.028 -2400.32 0.
751.518 -2235.19 0.
695.305 -2361.54 0.
639.091 -2487.89 0.
1256.52 -2181.77 0.
1286.17 -2114.04 0.
1098.46 -2139.31 0.
1177.17 -1953.42 0.
1255.88 -1767.54 0.
1442.35 -1555.39 0.
1481.51 -1453.36 0.
1520.66 -1351.34 0.
1315.06 -1290.31 0.
1422.99 -1034.08 0.
1530.93 -777.842 0.
2424.45 -300.802 0.
2462.61 -210.272 0.
7465.92 2008.69 0.
2874.5 -142.161 0.
2778.61 -366.465 0.
1000.55 -1282.24 0.
954.299 -1381.75 0.
908.05 -1481.27 0.
1393.1 -1386.3 0.
1311.6 -1570.54 0.
1230.11 -1754.79 0.
1200.32 -1839.82 0.
1180.66 -1880.33 0.
1161.01 -1920.84 0.
1445.58 -1852.14 0.
1409.31 -1926.97 0.
181.867 -2508.02 0.
179.905 -2515.56 0.
177.943 -2523.11 0.
49.3731 -2521.47 0.
125.762 -2337.56 0.
202.152 -2153.65 0.
16.7133 -2207.21 0.
-18.9445 -2288.6 0.
-54.6014 -2369.99 0.
69.2443 -2020.44 0.
268.302 -1554.79 0.
592.914 -1062.56 0.
-529.813 -1656.88 0.
-588.986 -1795.11 0.
446.011 -1451.42 0.
394.834 -1560.83 0.
343.659 -1670.25 0.
-395.067 -1899.85 0.
-254.699 -1568.94 0.
-114.332 -1238.02 0.
-299.156 -1319.67 0.
-361.658 -1463.77 0.
-424.161 -1607.87 0.
133.201 -1113.22 0.
285.677 -758.416 0.
-133.254 -685.069 0.
-132.735 -684.876 0.
-132.217 -684.682 0.
-273.319 -722.48 0.
-234.694 -630.884 0.
-196.068 -539.289 0.
112.881 -353.324 0.
125.863 -316.422 0.
138.844 -279.52 0.
-46.2839 -291.349 0.
-8.93982 -204.873 0.
825.664 558.892 0.
325.148 -333.138 0.
303.85 -388.993 0.
-5.56932 59.5295 0.
-81.0248 -116.161 0.
275.795 718.081 0.
271.015 -617.156 0.
357.697 -416.63 0.
432.258 -245.065 0.
-281.293 -1129.3 0.
-22.944 -521.895 0.
47.2022 -353.163 0.
795.922 -1.03511 0.
1059.66 618.672 0.
1004.65 1013.57 0.
320.421 -580.475 0.
460.593 -250.456 0.
198.757 129.411 0.
417.097 639.768 0.
336.294 452.019 0.
1274.32 1122.85 0.
1092.67 691.979 0.
1171.71 869.859 0.
365.006 -95.8498 0.
739.12 778.946 0.
716.177 216.63 0.
818.027 -393.675 0.
1189.68 469.632 0.
1327.9 674.312 0.
1329.02 681.966 0.
989.214 -105.796 0.
1352.98 510.826 0.
856.639 -642.949 0.
844.039 -668.139 0.
1872.3 607.51 0.
1684.52 169.355 0.
1597.82 -33.7295 0.
2899.94 1312.07 0.
2321.6 -31.6438 0.
1475.33 -794.225 0.
2015.58 455.707 0.
1561.46 -612.666 0.
1901.34 -438.429 0.
2155.98 139.296 0.
1814.09 -670.734 0.
916.144 -662.352 0.
978.979 -518.931 0.
1211.95 20.7433 0.
2071.41 -446.09 0.
2393.2 305.281 0.
-6073.17 -1226.68 0.
2486.01 489.005 0.
2009.52 -615.763 0.
1364.24 -591.532 0.
1989.58 870.894 0.
1359.37 -595.219 0.
874.763 -1701.14 0.
1927.28 753.653 0.
1643.45 89.3429 0.
1591.38 -829.649 0.
1887.37 -149.592 0.
1580.93 -874.265 0.
2396.43 323.372 0.
2508.97 581.062 0.
1517.67 836.232 0.
905.752 -594.895 0.
989.567 -403 0.
1033.05 -149.876 0.
885.335 -492.267 0.
843.791 -587.28 0.
1089.52 523.389 0.
796.675 -162.69 0.
742.301 -292.185 0.
965.007 -487.217 0.
926.679 -581.789 0.
741.787 -28.0112 0.
-194.099 -635.492 0.
59.527 -42.3233 0.
1264.99 199.334 0.
1257.83 181.599 0.
944.671 -550.978 0.
704.894 198.458 0.
760.928 324.031 0.
585.628 -89.892 0.
-41.9359 -463.325 0.
-70.161 -523.973 0.
193.06 95.2695 0.
997.732 281.514 0.
772.705 -242.11 0.
423.836 636.18 0.
248.915 233.56 0.
-42.7587 -442.074 0.
376.384 797.866 0.
609.153 1348.04 0.
376.343 811.845 0.
446.178 136.042 0.
528.643 325.027 0.
1022.73 1475.37 0.
517.387 1089.41 0.
679.342 1470.11 0.
116.318 -1214.12 0.
-95.1585 -1009.9 0.
22.2501 -739.439 0.
-283.526 -681.303 0.
-273.369 -653.882 0.
-263.211 -626.461 0.
204.326 -437.382 0.
164.985 -530.313 0.
125.643 -623.244 0.
-44.9808 -802.64 0.
-106.58 -941.79 0.
-168.181 -1080.94 0.
214.455 -868.187 0.
252.252 -778.635 0.
253.063 -700.712 0.
230.428 -751.053 0.
207.793 -801.394 0.
20.2695 -965.092 0.
-56.5096 -1144.61 0.
-133.289 -1324.13 0.
107.643 -1261.65 0.
131.278 -1212.9 0.
154.912 -1164.15 0.
-137.528 -1338.59 0.
-178.679 -1435.48 0.
49.293 -1416.94 0.
562.172 -1296.2 0.
509.974 -1420.44 0.
117.714 -1668.24 0.
118.363 -1663.31 0.
119.011 -1658.38 0.
585.055 -1534.59 0.
485.996 -1763.3 0.
386.937 -1992 0.
691.356 -1955.18 0.
668.571 -2009.8 0.
645.784 -2064.42 0.
1585.52 -1720.56 0.
1556.51 -1785.83 0.
811.018 -2149.97 0.
872.798 -2014.54 0.
934.581 -1879.12 0.
1121.03 -1631.77 0.
1274.85 -1287.42 0.
1428.67 -943.083 0.
789.262 -999.817 0.
873.269 -812.569 0.
957.276 -625.321 0.
1895.22 -53.7152 0.
1993.62 172.507 0.
-1303.12 -1060.43 0.
2165.66 455.06 0.
2182.76 491.053 0.
1456.8 139.984 0.
1297.29 -233.171 0.
1137.78 -606.327 0.
1306.23 -836.316 0.
1157.19 -1183.09 0.
1008.16 -1529.87 0.
1169.02 -1676.49 0.
1068.72 -1917.92 0.
968.424 -2159.35 0.
1230.69 -1819.86 0.
1374.39 -1489.22 0.
623.937 -1565.21 0.
644.919 -1522.79 0.
665.901 -1480.36 0.
308.452 -1599.07 0.
332.482 -1541.85 0.
356.513 -1484.62 0.
210.526 -1529.85 0.
215.204 -1525.36 0.
219.882 -1520.87 0.
717.135 -1242.71 0.
760.502 -1144.27 0.
-5.44106 -1392.24 0.
-530.133 -1805.85 0.
-630.778 -2038.11 0.
350.232 -1669.02 0.
536.453 -1235.77 0.
722.673 -802.524 0.
154.251 -962.515 0.
49.5716 -1207.83 0.
-55.107 -1453.15 0.
-261.75 -1474.72 0.
-170.694 -1257.32 0.
-79.6382 -1039.92 0.
226.474 -973.916 0.
177.38 -1088.17 0.
-260.228 -1339.48 0.
-164.296 -1112.05 0.
-68.3639 -884.615 0.
-305.483 -825.84 0.
-259.108 -711.511 0.
-212.733 -597.183 0.
26.6325 -475.422 0.
13.812 -506.676 0.
0.991152 -537.93 0.
-79.4416 -472.563 0.
-13.2338 -315.927 0.
194.947 -1148.69 0.
-235.688 -1034.16 0.
-119.399 -764.19 0.
-220.199 -625.965 0.
-211.391 -598.223 0.
-202.581 -570.481 0.
43.2009 -477.111 0.
3.77111 -569.864 0.
-35.6595 -662.617 0.
86.9696 -717.128 0.
25.6416 -856.567 0.
-35.6874 -996.006 0.
-25.2449 -938.68 0.
12.3894 -849.301 0.
251.32 -668.883 0.
228.014 -718.99 0.
204.708 -769.097 0.
392.949 -772.399 0.
316.199 -951.586 0.
239.449 -1130.77 0.
-54.7605 -1305.4 0.
-32.3717 -1255.64 0.
-9.98324 -1205.89 0.
-80.7633 -1280.1 0.
-121.565 -1377.81 0.
-591.627 -1659.65 0.
737.757 -1191.42 0.
685.534 -1315.65 0.
-116 -1738.51 0.
-115.496 -1734.06 0.
-114.993 -1729.61 0.
737.637 -1436.32 0.
639.267 -1665.74 0.
540.898 -1895.16 0.
608.231 -1956.39 0.
585.512 -2010.78 0.
562.792 -2065.17 0.
1584.35 -1691.22 0.
1555.79 -1756.79 0.
726.326 -2154.5 0.
787.087 -2018.09 0.
847.853 -1881.68 0.
809.306 -1736.52 0.
961.591 -1391.19 0.
1113.88 -1045.86 0.
833.224 -951.793 0.
916.775 -764.031 0.
1000.33 -576.269 0.
1489.13 -197.886 0.
1587.47 28.9336 0.
-356.489 -623.915 0.
1809.36 333.722 0.
1826.3 370.467 0.
1202.85 63.1786 0.
1044.45 -310.614 0.
886.041 -684.409 0.
1399.05 -761.874 0.
1250.73 -1109.59 0.
1102.42 -1457.3 0.
1110.15 -1670.38 0.
1010.25 -1911.58 0.
910.354 -2152.78 0.
941.636 -1912.62 0.
1084.91 -1582.1 0.
812.077 -1451.71 0.
833.891 -1410.22 0.
855.705 -1368.73 0.
193.777 -1617.09 0.
218.343 -1559.63 0.
242.908 -1502.16 0.
227.524 -1493.57 0.
233.935 -1490.26 0.
240.346 -1486.95 0.
827.1 -1160.48 0.
870.546 -1061.42 0.
-131.054 -1413.39 0.
-311.39 -1680.09 0.
-411.621 -1912.85 0.
226.999 -1691.47 0.
412.851 -1257.77 0.
598.703 -824.064 0.
103.102 -954.397 0.
-2.20447 -1199.3 0.
-107.511 -1444.21 0.
15.9862 -1323.22 0.
107.578 -1106.69 0.
199.17 -890.163 0.
-43.0958 -1057.96 0.
-91.5148 -1172.93 0.
-44.2918 -1215.94 0.
52.0369 -988.951 0.
148.367 -761.959 0.
-268.917 -774.779 0.
-222.204 -660.684 0.
-175.491 -546.591 0.
-151.861 -522.671 0.
-164.962 -553.621 0.
-178.063 -584.57 0.
26.0818 -396.262 0.
92.8546 -238.893 0.
617.875 325.719 0.
-7.4981 -130.638 0.
-39.8749 -206.252 0.
59.1796 -242.617 0.
-41.5575 -477.692 0.
-142.294 -712.766 0.
-197.217 -943.863 0.
-315.505 -1214.67 0.
-433.793 -1485.47 0.
-40.6988 -1169.76 0.
154.319 -715.315 0.
349.336 -260.874 0.
170.769 -455.137 0.
64.7936 -700.031 0.
100.905 -868.035 0.
74.8453 -931.752 0.
48.7858 -995.469 0.
350.51 -927.373 0.
313.591 -1011.11 0.
276.672 -1094.84 0.
-138.546 -1402.8 0.
-235.547 -1632.55 0.
-332.55 -1862.31 0.
-203.073 -1734.15 0.
-120.775 -1539.83 0.
64.3332 -1300.99 0.
897.345 -1043.87 0.
839.25 -1177.15 0.
-218.282 -1712.27 0.
-223.344 -1726.23 0.
-228.405 -1740.19 0.
726.082 -1351.87 0.
708.865 -1394.68 0.
691.65 -1437.5 0.
791.006 -1410.64 0.
791.496 -1414.97 0.
791.986 -1419.31 0.
1709.74 -1124.97 0.
1647.66 -1270.64 0.
638.894 -1788.29 0.
768.978 -1483.31 0.
899.064 -1178.33 0.
1001.48 -962.57 0.
994.691 -974.942 0.
987.902 -987.315 0.
813.084 -985.303 0.
900.334 -786.908 0.
987.585 -588.513 0.
1280.27 -357.007 0.
1334.26 -236.951 0.
-458.742 -911.813 0.
1303.39 -346.562 0.
1204.95 -578.382 0.
664.741 -960.854 0.
651.161 -985.466 0.
637.579 -1010.08 0.
1284.15 -824.614 0.
1188.03 -1047.33 0.
1091.92 -1270.05 0.
1039.32 -1337.55 0.
1050.32 -1302.51 0.
1061.33 -1267.47 0.
1089.77 -1244.33 0.
1096.36 -1220.75 0.
832.962 -1316.13 0.
848.921 -1270.53 0.
864.881 -1224.93 0.
272.386 -1502.25 0.
207.432 -1654.7 0.
142.477 -1807.14 0.
155.028 -1758.04 0.
235.263 -1564.51 0.
315.498 -1370.98 0.
868.411 -1128.8 0.
845.326 -1176.99 0.
101.758 -1546.58 0.
-310.11 -1825.72 0.
-364.438 -1951.15 0.
120.735 -1773.39 0.
193.818 -1603.49 0.
266.9 -1433.58 0.
-97.1207 -1456.28 0.
-24.296 -1286.6 0.
48.5279 -1116.91 0.
237.811 -978.029 0.
246.458 -958.343 0.
255.104 -938.656 0.
-57.7949 -984.402 0.
-2.8291 -856.638 0.
183.854 -672.997 0.
196.473 -645.572 0.
209.091 -618.147 0.
-212.985 -818.57 0.
-249.793 -908.762 0.
-286.602 -998.953 0.
-164.676 -836.793 0.
-45.4658 -562.868 0.
73.744 -288.941 0.
36.6629 -185.223 0.
97.8372 -57.5004 0.
62.5528 116.015 0.
-224.638 -193.074 0.
-257.068 -269.492 0.
323.597 -96.7646 0.
222.357 -332.233 0.
121.117 -567.7 0.
-135.062 -886.062 0.
-252.732 -1158.11 0.
-370.403 -1430.15 0.
17.2918 -1114.65 0.
212.146 -660.503 0.
407.001 -206.351 0.
390.504 -326.527 0.
285.685 -572.758 0.
2.18913 -880.606 0.
-24.6846 -943.967 0.
-51.5581 -1007.33 0.
76.6577 -1013.24 0.
40.6088 -1098.06 0.
4.56037 -1182.87 0.
-53.8721 -1333.87 0.
-150.167 -1564.28 0.
-246.464 -1794.68 0.
-37.2597 -1630.4 0.
44.9246 -1436.21 0.
151.292 -1231.61 0.
1004.33 -965.829 0.
945.555 -1098.03 0.
-229.256 -1688.04 0.
-235.672 -1700.66 0.
-242.087 -1713.28 0.
505.186 -1417.04 0.
486.504 -1458.74 0.
467.826 -1500.44 0.
770.639 -1388.65 0.
771.136 -1392.58 0.
771.634 -1396.51 0.
1450.44 -1208.34 0.
1387.91 -1352.94 0.
156.178 -1962.1 0.
284.935 -1656.34 0.
413.694 -1350.58 0.
989.649 -940.72 0.
982.067 -952.048 0.
974.487 -963.376 0.
796.785 -959.126 0.
884.466 -761.244 0.
972.148 -563.362 0.
1369.41 -288.577 0.
1423.04 -168.284 0.
114.87 -632.895 0.
1181.85 -365.685 0.
1083.47 -597.69 0.
711.452 -909.434 0.
697.308 -933.814 0.
683.162 -958.195 0.
1004.46 -915.525 0.
909.265 -1139.12 0.
814.067 -1362.72 0.
602.088 -1492.62 0.
614.45 -1459.09 0.
626.812 -1425.55 0.
1060.98 -1224.71 0.
1067.56 -1202.27 0.
545.309 -1407.91 0.
562.521 -1363.22 0.
579.735 -1318.54 0.
466.16 -1386.99 0.
401.116 -1539.6 0.
336.072 -1692.22 0.
233.517 -1693.12 0.
313.704 -1499.39 0.
393.89 -1305.66 0.
869.218 -1100.26 0.
845.869 -1149.32 0.
435.045 -1368.3 0.
-319.804 -1795.13 0.
-373.886 -1921.09 0.
108.529 -1750.02 0.
181.575 -1579.44 0.
254.62 -1408.86 0.
17.1091 -1377.75 0.
90.7667 -1208.35 0.
164.423 -1038.95 0.
183.627 -968.826 0.
193.089 -949.616 0.
202.55 -930.406 0.
121.428 -874.553 0.
176.007 -747.117 0.
8.52052 -716.861 0.
21.2875 -689.07 0.
34.0541 -661.28 0.
-16.4008 -702.424 0.
-53.7263 -791.853 0.
-91.0522 -881.28 0.
331.625 -593.659 0.
450.705 -319.763 0.
569.785 -45.8654 0.
-238.93 -271.706 0.
-178.322 -144.594 0.
-363.76 166.603 0.
-155.171 395.677 0.
-485.205 -377.309 0.
892.918 784.841 0.
480.524 -185.299 0.
690.794 298.088 0.
117.861 -385.337 0.
297.205 35.2706 0.
458.568 413.859 0.
1017.56 1132.79 0.
772.093 561.59 0.
827.103 691.768 0.
971.096 652.133 0.
858.644 396.172 0.
409.677 275.207 0.
33.6327 -604.778 0.
299.769 14.2072 0.
368.604 202.313 0.
470.67 446.99 0.
625.295 813.993 0.
554.799 -46.8274 0.
642.472 168.248 0.
916.411 817.896 0.
961.11 393.673 0.
893.845 239.501 0.
899.379 -532.834 0.
1253.07 -564.134 0.
2127.54 1480.16 0.
464.484 -30.2157 0.
740.772 616.742 0.
504.456 68.3655 0.
330.211 -1377.9 0.
972.037 114.07 0.
692.752 -542.475 0.
1674.87 793.482 0.
1460.59 292.708 0.
1592.33 599.898 0.
2135.7 927.882 0.
2051.57 724.564 0.
1302.32 1674.2 0.
663.919 191.837 0.
556.802 -52.8522 0.
1445.19 178.297 0.
1444.69 177.357 0.
1666.67 696.055 0.
1268.21 197.297 0.
1087.74 -227.068 0.
1260.98 174.45 0.
1657.98 238.931 0.
1796.83 568.567 0.
-1699.92 -598.932 0.
1443.43 494.694 0.
492.97 -1720 0.
1333.34 491.508 0.
1821.31 1635.72 0.
794.231 -753.672 0.
791.24 -859.693 0.
796.501 -851.933 0.
378.377 -1829.37 0.
1554.73 1580.08 0.
845.233 -73.3148 0.
865.247 -26.6448 0.
1682.93 310.324 0.
1576.92 56.1625 0.
1412.53 1196.72 0.
1016.82 274.297 0.
950.184 120.397 0.
903.759 -698.648 0.
1453.81 588.76 0.
1310.18 257.727 0.
761.8 -567.373 0.
841.15 -381.011 0.
1185.25 423.669 0.
1201.34 -305.293 0.
996.659 -782.443 0.
1000.44 845.098 0.
612.273 429.83 0.
514.588 200.96 0.
1025.27 443.441 0.
541.256 -688.146 0.
819.644 -41.3087 0.
370.491 -740.363 0.
635.05 -124.546 0.
1117.25 998.949 0.
733.295 442.23 0.
691.681 346.139 0.
248.135 -686.233 0.
873.851 560.16 0.
465.759 -390.422 0.
88.8126 -171.727 0.
477.491 735.995 0.
215.25 124.737 0.
-47.6926 -1119.31 0.
423.973 -17.168 0.
462.962 75.3368 0.
895.096 -151.426 0.
789.023 -393.617 0.
1304.64 813.669 0.
-387.617 -62.8208 0.
-507.787 -334.355 0.
-423.341 -720.835 0.
-356.361 -811.143 0.
-468.727 -1073.6 0.
-14.1873 -1042.53 0.
29.7504 -946.764 0.
73.6898 -850.993 0.
-119.611 -854.105 0.
-76.5943 -752.248 0.
-33.5784 -650.39 0.
355.347 -599.775 0.
229.116 -894.775 0.
102.886 -1189.78 0.
-21.0856 -1227.02 0.
7.9725 -1153.55 0.
0.274788 -1113.88 0.
-51.7286 -1238.96 0.
-103.731 -1364.04 0.
-234.368 -1426.67 0.
-127.754 -1173.82 0.
-21.14 -920.975 0.
276.945 -828.484 0.
138.156 -1145.3 0.
-0.632717 -1462.12 0.
149.738 -1413.42 0.
176.055 -1346.15 0.
24.4049 -1355.35 0.
676.741 -1083.08 0.
675.659 -1086.9 0.
375.084 -1235.33 0.
318.286 -1368.66 0.
261.486 -1502 0.
129.573 -1599.82 0.
152.902 -1552.04 0.
176.23 -1504.27 0.
594.953 -1256.78 0.
647.255 -1139.94 0.
699.557 -1023.11 0.
1193.95 -888.323 0.
1143.79 -1014.4 0.
19.7792 -1595.21 0.
31.5696 -1570.12 0.
43.3596 -1545.04 0.
693.023 -1193.4 0.
786.667 -978.82 0.
880.311 -764.242 0.
775.426 -698.749 0.
811.874 -618.024 0.
848.321 -537.299 0.
1231.69 -352.82 0.
1238.09 -340.546 0.
535.316 -634.255 0.
905.26 -435.358 0.
924.145 -388.461 0.
979.777 -335.969 0.
982.01 -337.677 0.
984.242 -339.383 0.
731.612 -408.778 0.
775.543 -305.474 0.
819.473 -202.172 0.
941.823 -413.847 0.
714.074 -945.675 0.
486.323 -1477.5 0.
826.227 -1385.11 0.
825.494 -1395.02 0.
75.3227 -1715.27 0.
99.6844 -1654.02 0.
124.046 -1592.78 0.
433.657 -1433.48 0.
422.554 -1454.44 0.
411.45 -1475.4 0.
575.338 -1408.48 0.
581.769 -1396.01 0.
588.201 -1383.54 0.
464.413 -1504.1 0.
417.968 -1612.26 0.
561.939 -1629.66 0.
-454.694 -1788.83 0.
-308.676 -1450.07 0.
293.756 -1046.14 0.
157.142 -1370.13 0.
20.526 -1694.12 0.
29.575 -1778.01 0.
90.8435 -1636.76 0.
152.112 -1495.52 0.
-84.2317 -1370.52 0.
62.3545 -1026.62 0.
208.94 -682.722 0.
536.195 -413.7 0.
596.725 -273.087 0.
118.298 -402.886 0.
55.8595 -547.733 0.
-6.57793 -692.581 0.
-49.9961 -770.727 0.
-28.886 -719.039 0.
-7.77557 -667.351 0.
510.303 -421.666 0.
517.395 -400.673 0.
524.487 -379.68 0.
-500.115 -649.605 0.
-398.143 -405.178 0.
-17.3192 -522.272 0.
45.5736 -611.881 0.
-67.6859 -873.525 0.
-147.918 -1067.24 0.
-104.366 -971.864 0.
-60.8122 -876.488 0.
-149.96 -837.178 0.
-106.82 -735.482 0.
-63.6806 -633.786 0.
473.067 -517.705 0.
346.659 -813.351 0.
220.251 -1109 0.
-236.958 -1287.98 0.
-207.802 -1214.73 0.
249.885 -975.944 0.
196.326 -1099.25 0.
142.767 -1222.56 0.
-100.294 -1339.65 0.
6.70196 -1086.73 0.
113.697 -833.81 0.
361.288 -764.246 0.
222.491 -1081.12 0.
83.6944 -1397.99 0.
123.589 -1391.83 0.
149.396 -1324.34 0.
965.841 -918.316 0.
257.861 -1234.77 0.
257.866 -1239.56 0.
917.972 -971.711 0.
861.891 -1105.82 0.
805.808 -1239.93 0.
15.0771 -1616.67 0.
38.9602 -1569.56 0.
62.843 -1522.45 0.
366.062 -1322.84 0.
419.616 -1207.21 0.
473.171 -1091.59 0.
1011.1 -934.152 0.
960.955 -1060.11 0.
188.573 -1489.25 0.
200.3 -1464.6 0.
212.027 -1439.95 0.
509.86 -1242.6 0.
603.368 -1027.71 0.
696.875 -812.82 0.
654.232 -719.87 0.
692.022 -640.095 0.
729.811 -560.32 0.
1052.87 -396.708 0.
1060.32 -385.472 0.
-606.209 -1089.91 0.
740.508 -473.751 0.
759.686 -427.673 0.
1003.8 -295.521 0.
1005.71 -297.582 0.
1007.62 -299.642 0.
441.994 -500.225 0.
485.386 -397.012 0.
528.778 -293.8 0.
1249.23 -252.055 0.
1021.08 -784.253 0.
792.932 -1316.45 0.
686.289 -1413.47 0.
686.118 -1423.27 0.
-19.4917 -1725.6 0.
5.46935 -1664.41 0.
30.4301 -1603.22 0.
259.894 -1474.77 0.
248.481 -1495.83 0.
237.066 -1516.9 0.
808.735 -1274.17 0.
815.618 -1262.05 0.
822.5 -1249.92 0.
208.118 -1588.02 0.
161.71 -1696.01 0.
97.2555 -1794.86 0.
-580.745 -1809.9 0.
-434.163 -1471.81 0.
194.134 -1056.29 0.
57.227 -1380.75 0.
-79.6817 -1705.22 0.
171.433 -1684.3 0.
232.91 -1543.48 0.
294.388 -1402.65 0.
-120.117 -1356.46 0.
27.3825 -1013.42 0.
174.882 -670.373 0.
650.454 -332.095 0.
710.934 -191.647 0.
288.581 -297.569 0.
226.434 -442.256 0.
164.289 -586.943 0.
-218.328 -810.761 0.
-197.508 -758.835 0.
-176.688 -706.909 0.
195.218 -526.641 0.
202.318 -505.823 0.
209.419 -485.005 0.
-311.051 -534.455 0.
-208.648 -291.708 0.
181.313 -301.097 0.
24.9892 -568.688 0.
-2.26274 -631.518 0.
10.6167 -653.438 0.
59.3121 -533.513 0.
108.006 -413.588 0.
15.3004 -499.084 0.
-127.058 -826.118 0.
-269.416 -1153.15 0.
311.178 -931.756 0.
368.193 -799.331 0.
425.21 -666.906 0.
-117.755 -983.229 0.
-182.792 -1135.94 0.
178.694 -1103.13 0.
193.674 -1069.99 0.
208.655 -1036.85 0.
81.1086 -1081.63 0.
52.1862 -1150.1 0.
23.2645 -1218.57 0.
219.568 -1025.31 0.
356.002 -709.58 0.
492.437 -393.85 0.
314.219 -588.856 0.
192.408 -871.712 0.
1059.64 -730.458 0.
117.115 -1374.62 0.
-21.2455 -1693.77 0.
631.687 -1585.16 0.
741.952 -1325.32 0.
852.216 -1065.47 0.
258.166 -1315.7 0.
125.935 -1617.32 0.
-6.2956 -1918.94 0.
179.006 -1650.54 0.
398.466 -1134.57 0.
617.923 -618.599 0.
1055.92 -548.593 0.
956.272 -774.051 0.
276.865 -1208.79 0.
330.146 -1091.64 0.
383.426 -974.488 0.
500.312 -830.401 0.
559.264 -697.751 0.
618.214 -565.101 0.
762.907 -446.086 0.
780.615 -398.28 0.
798.321 -350.474 0.
1071.4 -113.485 0.
1147.4 68.8055 0.
1343.76 299.46 0.
942.822 113.42 0.
935.151 94.0923 0.
1073.51 105.822 0.
971.047 -131.774 0.
868.586 -369.37 0.
248.882 -758.002 0.
241.74 -779.941 0.
234.6 -801.881 0.
1052.34 -548.666 0.
986.334 -700.34 0.
920.329 -852.014 0.
765.672 -954.574 0.
752.668 -985.133 0.
196.055 -1289.93 0.
41.1505 -1656.31 0.
-113.756 -2022.7 0.
13.3588 -2047.87 0.
171.498 -1682.04 0.
329.638 -1316.21 0.
777.066 -1039.78 0.
736.139 -1129.15 0.
695.21 -1218.52 0.
221.914 -1336.14 0.
283.402 -1196.75 0.
616.934 -942.493 0.
-320.261 -1240.3 0.
-269.346 -1114.98 0.
219.826 -866.279 0.
124.918 -1080.27 0.
30.0109 -1294.25 0.
391.29 -1126.42 0.
510.618 -843.126 0.
629.945 -559.829 0.
150.638 -946.305 0.
-40.1762 -1394.59 0.
-230.992 -1842.88 0.
98.5501 -1262.75 0.
370.71 -628.024 0.
287.524 -255.071 0.
180.385 -506.209 0.
73.2477 -757.347 0.
-270.48 -966.124 0.
-179.783 -760.676 0.
-89.0857 -555.225 0.
-22.2216 -536.134 0.
-91.5494 -699.451 0.
-160.878 -862.768 0.
-530.499 -1198.08 0.
-618.101 -1410.82 0.
73.271 -315.572 0.
-417.191 -732.527 0.
-445.272 -793.812 0.
91.9437 -583.515 0.
141.38 -463.797 0.
190.814 -344.079 0.
117.917 -426.249 0.
-24.5332 -753.492 0.
-166.982 -1080.73 0.
259.046 -921.886 0.
315.455 -789.078 0.
371.864 -656.27 0.
110.22 -857.746 0.
45.387 -1010.63 0.
-55.6455 -1166.77 0.
-40.0208 -1133.49 0.
-24.3954 -1100.2 0.
154.596 -1022.13 0.
125.095 -1088.81 0.
95.5955 -1155.49 0.
94.8316 -1047.51 0.
232.478 -731.966 0.
370.124 -416.416 0.
15.8651 -684.227 0.
-105.735 -967.833 0.
-90.0841 -1192.88 0.
347.205 -1245.99 0.
209.039 -1565.72 0.
82.0286 -1787.21 0.
193.248 -1528.81 0.
304.469 -1270.4 0.
663.108 -1108.42 0.
531.937 -1411.37 0.
400.766 -1714.32 0.
308.509 -1563.24 0.
528.757 -1048.55 0.
749.004 -533.867 0.
947.933 -560.991 0.
850.25 -787.639 0.
67.48 -1265.23 0.
120.701 -1148.46 0.
173.922 -1031.69 0.
273.231 -898.299 0.
333.685 -767.23 0.
394.137 -636.161 0.
863.37 -368.782 0.
883.111 -322.547 0.
902.85 -276.312 0.
999.137 -109.143 0.
1077.38 71.1898 0.
-1840.1 -1032.65 0.
1041.15 188.368 0.
1032.23 169.752 0.
810.98 22.2433 0.
707.39 -214.646 0.
603.799 -451.536 0.
375.872 -672.704 0.
368.879 -695.384 0.
361.887 -718.065 0.
609.328 -706.803 0.
543.844 -858.897 0.
478.36 -1010.99 0.
647.915 -972.27 0.
636.038 -1003.49 0.
385.861 -1177.85 0.
230.041 -1543.66 0.
74.2198 -1909.47 0.
217.672 -1932.82 0.
374.921 -1565.96 0.
532.169 -1199.09 0.
246.228 -1233.46 0.
204.486 -1322.33 0.
162.744 -1411.19 0.
292.091 -1278.42 0.
352.122 -1138.32 0.
409.109 -996.808 0.
-135.865 -1127.66 0.
-84.5692 -1002.88 0.
221.946 -834.461 0.
126.787 -1049.22 0.
31.6281 -1263.98 0.
217.285 -1169.49 0.
336.569 -886.796 0.
455.852 -604.105 0.
440.359 -789.261 0.
249.413 -1237.81 0.
58.4652 -1686.37 0.
-321.509 -1411.9 0.
-48.4547 -777.843 0.
112.567 -297.223 0.
5.65084 -547.744 0.
-101.264 -798.265 0.
-40.5731 -837.209 0.
49.712 -631.726 0.
139.997 -426.24 0.
-200.139 -579.583 0.
-269.627 -743.305 0.
-339.116 -907.028 0.
-548.949 -1175.34 0.
-637.025 -1389.14 0.
-122.123 -504.342 0.
-128.084 823.765 0.
-400.763 178.994 0.
432.451 110.961 0.
-74.3911 -1078.76 0.
565.612 407.257 0.
638.287 622.048 0.
181.746 -447.02 0.
462.709 205.731 0.
732.854 325.025 0.
366.747 -532.438 0.
884.563 673.016 0.
818.201 387.153 0.
443.886 -483.354 0.
429.553 429.133 0.
525.426 656.691 0.
-299.849 -1265.53 0.
549.84 -196.615 0.
614.099 -40.175 0.
751.498 286.4 0.
536.509 236.971 0.
640.23 478.549 0.
339.976 -222.102 0.
-49.6665 -250.261 0.
296.299 554.514 0.
-254.853 -239.078 0.
1264.31 485.98 0.
1291.71 550.909 0.
173.736 -499.471 0.
155.852 -537.413 0.
142.852 -564.354 0.
1887.18 1005.48 0.
873.916 -1359 0.
1643.21 434.15 0.
1262.15 454.68 0.
1107.39 95.4355 0.
1082.15 37.2917 0.
1155.27 171.73 0.
1068.42 -28.9398 0.
565.315 310.877 0.
460.185 68.8111 0.
618.797 441.638 0.
478.629 11.8076 0.
406.74 -155.438 0.
588.38 268.475 0.
1119.31 76.7658 0.
1286.09 458.648 0.
854.934 -554.903 0.
516.826 -1046.11 0.
1071.68 249.352 0.
387.698 754.855 0.
1081.73 112.095 0.
1412.42 892.74 0.
947.93 873.914 0.
544.392 -64.1553 0.
928.177 835.517 0.
365.942 -933.094 0.
557.607 -491.915 0.
1118.49 814.356 0.
943.543 955.128 0.
477.68 -132.593 0.
735.299 467.42 0.
1117.36 368.41 0.
786.615 -394.398 0.
1066.63 69.1504 0.
1272.23 555.226 0.
655.384 -877.733 0.
80.8792 -2602.16 0.
921.262 -643.41 0.
1296.99 230.083 0.
455.525 312.168 0.
280.326 -92.1662 0.
626.763 720.069 0.
1397.34 1188.28 0.
557.701 -765.894 0.
123.597 -402.826 0.
570.074 192.889 0.
199.326 -671.985 0.
810.265 581.633 0.
179.292 -893.751 0.
520.254 -101.109 0.
618.574 134.983 0.
522.901 -99.5 0.
288.623 -657.063 0.
977.828 -35.6041 0.
1028.35 82.2193 0.
1150.38 367.114 0.
192.233 591.929 0.
-131.775 -164.883 0.
-470.166 -1303 0.
157.897 169.683 0.
66.4131 -37.3932 0.
669.98 433.61 0.
654.133 400.121 0.
622.547 329.323 0.
-168.301 -149.127 0.
-437.139 -777.436 0.
-365.032 -607.895 0.
-399.781 -748.556 0.
-171.829 -212.978 0.
77.6405 -367.98 0.
-696.986 -674.773 0.
-775.23 -864.807 0.
-84.6723 -727.272 0.
-140.316 -862.22 0.
-195.961 -997.171 0.
140.836 -802.246 0.
279.506 -483.841 0.
418.175 -165.433 0.
250.581 -313.874 0.
127.419 -604.965 0.
4.25614 -896.056 0.
225.251 -822.118 0.
222.078 -821.917 0.
126.07 -864.384 0.
120.183 -874.007 0.
114.297 -883.631 0.
-139.721 -986.438 0.
-129.42 -962.894 0.
-119.119 -939.349 0.
253.907 -824.783 0.
188.219 -970.693 0.
122.532 -1116.6 0.
-357.159 -1391.98 0.
-381.1 -1447.6 0.
5.28492 -1326.32 0.
667.534 -808.468 0.
790.779 -518.836 0.
47.7277 -692.93 0.
-54.7425 -931.541 0.
-157.212 -1170.15 0.
869.33 -778.425 0.
948.159 -596.585 0.
1026.99 -414.745 0.
627.402 -704.101 0.
485.226 -1032.52 0.
343.05 -1360.94 0.
433.107 -1182.94 0.
532.351 -943.103 0.
134.345 -931.5 0.
200.168 -774.029 0.
265.992 -616.558 0.
270.118 -574.806 0.
192.375 -753.133 0.
114.632 -931.459 0.
725.478 -587.719 0.
874.712 -245.925 0.
1023.95 95.8719 0.
919.48 -83.0727 0.
781.768 -394.575 0.
-1450.65 -1602.52 0.
606.758 -542.334 0.
699.694 -323.204 0.
631.138 -238.229 0.
575.544 -366.108 0.
519.95 -493.986 0.
458.785 -630.519 0.
398.325 -769.807 0.
337.866 -909.096 0.
80.2002 -995.52 0.
125.935 -892.695 0.
171.67 -789.871 0.
524.142 -586.923 0.
556.271 -517.417 0.
760.245 -375.239 0.
791.46 -300.976 0.
822.678 -226.714 0.
955.513 -200.998 0.
851.271 -443.523 0.
747.03 -686.048 0.
19.5916 -1065.89 0.
32.1576 -1035.67 0.
44.7237 -1005.44 0.
220.362 -950.32 0.
200.932 -995.876 0.
793.249 -783.571 0.
-0.458874 -1291.4 0.
-88.9713 -1496.95 0.
8.16329 -1503.24 0.
185.195 -1088.64 0.
362.227 -674.044 0.
380.963 -580.891 0.
267.682 -850.919 0.
154.4 -1120.95 0.
410.087 -880.144 0.
569.077 -513.598 0.
728.065 -147.052 0.
-339.458 -827.609 0.
-478.541 -1154.85 0.
-372.227 -1288.61 0.
-195.314 -871.324 0.
-18.3999 -454.041 0.
353.473 -103.284 0.
312.56 -199.001 0.
271.645 -294.717 0.
-222.636 -530.097 0.
-208.981 -497.407 0.
-195.326 -464.717 0.
-192.634 -447.442 0.
-192.532 -442.055 0.
266.889 -258.204 0.
-591.953 -598.855 0.
-670.273 -788.423 0.
-260.02 -771.612 0.
-316.091 -905.612 0.
-372.163 -1039.61 0.
295.297 -704.769 0.
434.433 -387.151 0.
573.57 -69.53 0.
10.9343 -387.417 0.
-112.163 -678.696 0.
-235.261 -969.975 0.
146.963 -822.605 0.
143.541 -822.181 0.
443.815 -700.879 0.
437.691 -709.718 0.
431.567 -718.556 0.
-548.19 -1127.98 0.
-537.429 -1105.02 0.
-526.667 -1082.05 0.
482.716 -695.176 0.
416.752 -840.739 0.
350.789 -986.3 0.
-118.638 -1258.23 0.
-143.515 -1313.57 0.
507.166 -1078.29 0.
632.78 -789.327 0.
756.173 -499.528 0.
12.0099 -679.904 0.
-91.0702 -917.279 0.
-194.15 -1154.65 0.
576.241 -872.015 0.
655.304 -690.018 0.
734.368 -508.02 0.
475.47 -737.9 0.
334.434 -1067.09 0.
193.398 -1396.28 0.
273.876 -1219.61 0.
371.656 -978.204 0.
275.821 -840.74 0.
341.753 -683.607 0.
407.686 -526.474 0.
335.681 -515.702 0.
258.84 -695.416 0.
182 -875.13 0.
604.248 -605.902 0.
753.664 -264.361 0.
903.081 77.183 0.
922.235 -49.0263 0.
784.858 -360.924 0.
-2435.78 -1993.08 0.
387.355 -603.925 0.
479.458 -384.421 0.
849.737 -115.679 0.
793.836 -244.13 0.
737.935 -372.581 0.
428.19 -608.248 0.
367.504 -748.655 0.
306.818 -889.062 0.
64.8244 -973.969 0.
110.295 -870.942 0.
155.766 -767.916 0.
318.87 -641.893 0.
351.393 -572.84 0.
640.541 -390.351 0.
673.471 -317.797 0.
706.403 -245.244 0.
779.839 -243.232 0.
675.799 -486.109 0.
571.759 -728.986 0.
227.696 -945.58 0.
239.545 -915.224 0.
251.394 -884.868 0.
-73.8734 -1042.51 0.
-92.3761 -1089.13 0.
1474.74 -460.933 0.
98.0702 -1218.79 0.
9.93389 -1424.58 0.
133.178 -1416.1 0.
310.294 -1000.95 0.
487.41 -585.802 0.
480.654 -510.926 0.
366.65 -780.762 0.
252.644 -1050.6 0.
178.429 -946.726 0.
337.853 -581.013 0.
497.276 -215.299 0.
-224.357 -742.681 0.
-363.248 -1069.55 0.
-247.439 -1205.8 0.
-70.4973 -788.754 0.
106.445 -371.71 0.
268.959 -106.504 0.
227.546 -202.089 0.
186.131 -297.674 0.
-73.1232 -435.43 0.
-59.6782 -403.128 0.
-46.2331 -370.828 0.
-82.7138 -370.743 0.
-83.1686 -365.346 0.
102.189 -411.472 0.
-438.814 -661.75 0.
-395.331 -552.768 0.
-39.2085 -336.107 0.
-104.61 -487.42 0.
-170.013 -638.731 0.
222.085 -577.824 0.
197.945 -634.829 0.
173.8 -691.832 0.
-176.047 -695.581 0.
-49.834 -399.898 0.
76.3799 -104.214 0.
376.97 -65.3907 0.
309.928 -224.015 0.
661.24 -192.055 0.
592.205 -351.77 0.
523.169 -511.486 0.
-462.49 -979.944 0.
-412.217 -853.885 0.
-361.946 -727.829 0.
567.705 -366.397 0.
482.802 -564.381 0.
397.901 -762.365 0.
62.4817 -890.011 0.
98.378 -806.857 0.
683.462 -488.259 0.
518.66 -793.441 0.
393.35 -1085.95 0.
-125.021 -1471.87 0.
-44.6083 -1287.64 0.
35.8067 -1103.41 0.
317.895 -814.428 0.
409.097 -598.075 0.
500.297 -381.723 0.
564.42 -443.409 0.
450.233 -708.042 0.
336.045 -972.674 0.
360.54 -832.252 0.
453.877 -620.03 0.
428.461 -482.85 0.
370.777 -619.516 0.
313.094 -756.182 0.
119.567 -841.087 0.
245.825 -550.144 0.
372.083 -259.201 0.
559.466 -111.634 0.
523.072 -196.343 0.
486.677 -281.053 0.
1136.02 -3.1212 0.
1152.52 31.6894 0.
-3875.81 -2096.27 0.
578.158 -426.083 0.
455.082 -717.252 0.
451.993 -896.416 0.
467.535 -872.041 0.
483.078 -847.666 0.
93.9881 -937.626 0.
170.683 -758.966 0.
247.379 -580.306 0.
188.498 -531.726 0.
205.783 -490.765 0.
223.068 -449.804 0.
289.415 -521.432 0.
228.716 -656.144 0.
355.957 -698.434 0.
369.686 -663.395 0.
383.416 -628.356 0.
585.119 -566.824 0.
520.727 -718.635 0.
456.333 -870.445 0.
339.144 -908.179 0.
395.563 -775.682 0.
451.982 -643.186 0.
-36.8595 -851.773 0.
-48.8229 -872.525 0.
288.985 -737.313 0.
268.279 -849.367 0.
212.654 -976.767 0.
338.439 -1004.15 0.
344.33 -991.483 0.
350.222 -978.818 0.
315.246 -917.823 0.
380.747 -759.998 0.
446.248 -602.175 0.
19.6669 -858.637 0.
-59.8643 -1037.55 0.
-139.396 -1216.47 0.
-278.68 -1143.47 0.
-195.659 -950.117 0.
-139.532 -776.353 0.
-92.0983 -667.658 0.
-44.6652 -558.962 0.
52.2818 -465.268 0.
46.4598 -473.249 0.
40.6361 -481.229 0.
19.1542 -557.921 0.
-47.7029 -716.836 0.
-114.561 -875.75 0.
-458.693 -970.279 0.
-404.651 -839.883 0.
-237.707 -528.193 0.
-112.174 -490.837 0.
-68.7403 -381.904 0.
219.38 -192.708 0.
155.073 -345.279 0.
90.7634 -497.847 0.
-197.528 -721.057 0.
-220.099 -780.009 0.
-242.674 -838.959 0.
-52.3555 -610.587 0.
73.1226 -314.836 0.
198.602 -19.0863 0.
273.715 -77.3965 0.
206.41 -235.697 0.
406.762 -270.34 0.
336.302 -428.209 0.
265.842 -586.079 0.
-12.5929 -760.344 0.
36.9482 -632.841 0.
86.4872 -505.342 0.
257.241 -468.205 0.
172.254 -665.828 0.
87.2672 -863.449 0.
-60.3959 -913.1 0.
-24.0232 -829.947 0.
123.4 -698.573 0.
323.177 -845.586 0.
198.197 -1137.68 0.
426.171 -1205.11 0.
507.468 -1020.6 0.
588.766 -836.091 0.
-38.9207 -936.44 0.
52.6413 -720.26 0.
144.202 -504.081 0.
640.693 -379.144 0.
527.175 -644.322 0.
413.657 -909.501 0.
352.767 -802.989 0.
445.852 -590.228 0.
339.437 -490.168 0.
282.174 -626.533 0.
224.91 -762.897 0.
-98.9386 -905.182 0.
26.0696 -613.926 0.
151.078 -322.669 0.
95.0136 -280.768 0.
60.1804 -367.627 0.
25.3468 -454.487 0.
1638.18 246.438 0.
1655.23 280.483 0.
-972.863 -819.948 0.
1104.85 -167.504 0.
980.801 -457.495 0.
137.165 -1004.25 0.
150.798 -977.962 0.
164.431 -951.669 0.
-301.514 -1078.75 0.
-224.855 -899.795 0.
-148.196 -720.839 0.
66.5829 -556.242 0.
82.9759 -514.786 0.
99.3692 -473.33 0.
334.334 -471.166 0.
275.348 -607.803 0.
149.539 -751.575 0.
163.331 -716.878 0.
177.124 -682.182 0.
654.689 -504.825 0.
588.894 -655.664 0.
523.098 -806.501 0.
399.344 -852.838 0.
457.019 -721.128 0.
514.693 -589.418 0.
162.888 -732.614 0.
151.072 -753.272 0.
349.299 -681.445 0.
234.533 -834.347 0.
179.243 -962.234 0.
314.573 -984.48 0.
319.926 -971.184 0.
325.279 -957.887 0.
278.613 -905.09 0.
344.807 -747.638 0.
411.002 -590.187 0.
-203.208 -918.382 0.
-282.518 -1097.97 0.
-361.828 -1277.56 0.
-73.3725 -1023.99 0.
10.028 -830.574 0.
-379.285 -850.011 0.
-332.536 -740.805 0.
-285.787 -631.599 0.
-4.59053 -453.609 0.
-11.5168 -460.661 0.
-18.4447 -467.712 0.
249.133 -430.317 0.
182.364 -589.305 0.
115.594 -748.293 0.
-788.817 -1082.06 0.
-734.591 -951.706 0.
-436.213 -653.479 0.
317.043 -32.218 0.
-256.755 -1369.23 0.
-161.127 -1525.55 0.
857.743 856.154 0.
851.429 845.649 0.
25.604 603.221 0.
-407.667 -400.924 0.
-512.188 -637.724 0.
453.684 378.718 0.
184.418 -251.202 0.
186.414 -248.706 0.
109.699 -240.055 0.
-201.598 -969.668 0.
434.18 316.128 0.
561.217 610.244 0.
505.824 479.278 0.
614.041 -99.9265 0.
558.887 -229.742 0.
716.869 136.595 0.
437.409 569.977 0.
351.228 358.927 0.
-514.554 -1669.46 0.
407.627 414.615 0.
280.53 120.131 0.
950.173 76.3162 0.
297.939 -482.803 0.
668.536 377.591 0.
1550.22 405.905 0.
855.537 -1221.71 0.
1440.46 137.383 0.
-12.1498 -177.984 0.
442.356 884.764 0.
-146.694 -484.727 0.
713.575 -324.842 0.
1280.89 998.377 0.
644.897 -485.901 0.
831.838 364.06 0.
677.743 -7.405 0.
728.91 605.136 0.
333.191 -320.525 0.
363.444 -252.722 0.
-535.324 -1480.95 0.
-161.064 -605.802 0.
235.327 321.308 0.
183.754 824.2 0.
-312.437 -329.979 0.
-794.352 -1450.7 0.
1729.03 -479.624 0.
2560.95 1456.71 0.
-14249.5 -3502.94 0.
2431.84 1979.74 0.
1889.24 713.448 0.
132.673 -379.196 0.
160.974 -317.468 0.
-133.481 -1008.67 0.
194.068 854.009 0.
-428.213 -600.793 0.
-278.842 -254.772 0.
543.817 818.021 0.
161.479 -79.36 0.
357.775 375.983 0.
554.948 -21.2491 0.
744.297 427.05 0.
-71.6076 -853.336 0.
-55.5602 -812.854 0.
349.76 139.174 0.
1355.05 1047 0.
1033.47 300.893 0.
885.746 -39.8414 0.
766.982 -78.3371 0.
1020.83 514.099 0.
822.28 50.2907 0.
601.963 -54.342 0.
586.645 -84.5229 0.
-34.4576 -529.808 0.
1484.87 2179.42 0.
746.399 458.571 0.
708.048 -8.88938 0.
177.29 -1246.2 0.
381.447 -769.193 0.
291.622 -775.792 0.
667.981 111.143 0.
413.625 -473.103 0.
132.658 312.95 0.
-56.4448 -138.647 0.
-786.202 -1851.22 0.
335.387 -406.66 0.
813.619 712.79 0.
-465.741 -573.154 0.
110.064 764.969 0.
-177.112 89.4769 0.
33.1884 -202.928 0.
11.4855 -253.708 0.
-248.341 -861.291 0.
314.708 -666.82 0.
752.532 360.071 0.
662.032 153.651 0.
-69.343 1189.4 0.
-513.117 140.654 0.
-195.977 -793.943 0.
154.987 -539.495 0.
170.137 -502.186 0.
-76.336 -602.771 0.
-78.5136 -606.771 0.
-80.6949 -610.771 0.
-361.807 -709.825 0.
-347.204 -670.216 0.
-332.601 -630.606 0.
166.866 -451.992 0.
136.476 -524.85 0.
106.087 -597.708 0.
13.1858 -504.243 0.
97.0825 -311.318 0.
353.287 -95.0369 0.
171.398 -524.645 0.
-10.4897 -954.255 0.
55.0871 -1173.08 0.
32.4291 -1232.67 0.
9.771 -1292.26 0.
-226.302 -1172.87 0.
7.99581 -631.333 0.
242.297 -89.7973 0.
281.385 -123.948 0.
181.184 -357.734 0.
426.905 -443.471 0.
61.9245 -715.872 0.
5.22529 -850.878 0.
802.456 -613.162 0.
729.759 -784.861 0.
657.06 -956.56 0.
-454.723 -1435.51 0.
-348.521 -1190.25 0.
-242.318 -944.986 0.
424.005 -572.613 0.
430.783 -554.007 0.
437.561 -535.4 0.
468.127 -532.799 0.
462.087 -548.512 0.
75.2891 -698.609 0.
235.944 -323.626 0.
396.598 51.3588 0.
163.245 77.6057 0.
30.6923 -231.41 0.
-101.861 -540.425 0.
-67.8899 -618.573 0.
-53.5618 -574.631 0.
-39.2327 -530.69 0.
1733.84 311.696 0.
1782.46 428.623 0.
-3866.64 -1898.15 0.
1398.59 319.165 0.
1379.09 272.108 0.
103.63 -292.967 0.
118.571 -263.497 0.
133.512 -234.027 0.
-123.808 -313.268 0.
-96.1399 -252.256 0.
-68.4709 -191.243 0.
173.095 -189.653 0.
87.5347 -395.63 0.
1.9747 -601.609 0.
173.129 -525.868 0.
178.734 -506.74 0.
417.305 -396.332 0.
404.318 -423.934 0.
391.331 -451.54 0.
372.215 -528.714 0.
284.679 -737.708 0.
197.142 -946.703 0.
283.351 -972.05 0.
296.834 -940.294 0.
310.317 -908.539 0.
262.532 -844.147 0.
310.299 -726.925 0.
683.312 -463.855 0.
67.0648 -666.695 0.
98.692 -590.331 0.
497.257 -398.195 0.
461.862 -482.713 0.
426.467 -567.23 0.
268.466 -635.988 0.
304.396 -547.928 0.
340.325 -459.868 0.
18.6305 -586.063 0.
13.3176 -605.488 0.
8.00475 -624.912 0.
2.2533 -677.953 0.
-25.1815 -741.236 0.
-615.523 -1019.27 0.
-542.305 -851.3 0.
-469.088 -683.327 0.
-58.472 -481.248 0.
-145.281 -684.925 0.
-232.091 -888.602 0.
279.688 -661.447 0.
347.911 -500.134 0.
416.135 -338.821 0.
-367.608 -499.859 0.
-265.058 -267.65 0.
846.534 -321.523 0.
239.722 -472.899 0.
254.902 -436.073 0.
-438.727 -725.444 0.
-439.663 -730.788 0.
-440.602 -736.131 0.
-130.076 -576.38 0.
-114.413 -537.507 0.
-98.751 -498.634 0.
267.803 -375.878 0.
237.295 -448.794 0.
206.787 -521.71 0.
50.9566 -455.303 0.
134.363 -262.397 0.
486.548 -8.39855 0.
303.461 -437.314 0.
120.374 -866.23 0.
-44.9676 -1184.76 0.
-68.1555 -1244.43 0.
-91.3434 -1304.09 0.
-108.934 -1091.43 0.
124.478 -549.085 0.
357.892 -6.73609 0.
428.824 -31.233 0.
329.337 -264.852 0.
-277.207 -716.119 0.
-95.7286 -754.032 0.
-152.067 -888.589 0.
437.052 -739.269 0.
365.23 -911.03 0.
293.405 -1082.79 0.
-327.419 -1350.17 0.
-221.243 -1104.02 0.
-115.067 -857.87 0.
224.753 -627.412 0.
232.277 -610.204 0.
239.801 -592.996 0.
509.389 -483.45 0.
502.438 -498.913 0.
-25.1165 -708.905 0.
135.898 -334.88 0.
296.913 39.1472 0.
220.917 132.56 0.
87.6861 -176.993 0.
-45.5444 -486.547 0.
393.003 -388.956 0.
407.757 -346.113 0.
422.513 -303.27 0.
1329.03 168.845 0.
1378.13 286.111 0.
-5778.76 -2685.12 0.
1021.93 189.721 0.
1003 142.134 0.
37.6708 -290.604 0.
52.5256 -261.503 0.
67.3801 -232.403 0.
115.647 -179.213 0.
143.421 -119.174 0.
171.197 -59.1335 0.
262.748 -119.574 0.
177.678 -326.311 0.
92.6064 -533.05 0.
-14.2423 -574.194 0.
-8.07542 -555.972 0.
786.396 -203.911 0.
774.199 -233.036 0.
762.001 -262.165 0.
22.1553 -646.35 0.
-65.8081 -855.884 0.
-153.772 -1065.42 0.
176.63 -985.271 0.
190.566 -955.131 0.
204.502 -924.991 0.
274.897 -806.016 0.
321.838 -688.85 0.
441.745 -540.766 0.
-163.038 -737.343 0.
-131.832 -660.578 0.
455.784 -384.904 0.
420.811 -469.258 0.
385.838 -553.612 0.
188.708 -636.828 0.
224.361 -547.884 0.
260.013 -458.94 0.
365.9 -407.868 0.
359.637 -426.475 0.
353.374 -445.081 0.
-245.033 -752.679 0.
-271.415 -816.9 0.
-554.69 -960.382 0.
-481.386 -792.722 0.
-408.083 -625.061 0.
-5.34539 -426.243 0.
-92.847 -629.594 0.
-180.35 -832.944 0.
252.263 -642.223 0.
320.919 -481.211 0.
389.575 -320.2 0.
169.168 -241.445 0.
270.513 -7.36945 0.
157.206 -814.187 0.
79.8364 -678.394 0.
183.616 -437.749 0.
-476.883 -585.701 0.
-547.072 -744.216 0.
-617.263 -902.729 0.
-86.4782 -725.656 0.
-51.9688 -641.071 0.
-17.4592 -556.486 0.
88.4495 -544.475 0.
33.4495 -667.745 0.
-21.5509 -791.014 0.
-60.9828 -890.889 0.
-97.5632 -976.423 0.
110.971 -925.11 0.
209.781 -696.561 0.
308.593 -468.013 0.
195.262 -414.664 0.
166.475 -479.151 0.
137.687 -543.638 0.
55.5599 -692.369 0.
-28.3076 -887.805 0.
-112.175 -1083.24 0.
67.1834 -1010.06 0.
83.1795 -971.228 0.
255.894 -863.612 0.
-72.5061 -878.054 0.
-7.30521 -716.391 0.
314.287 -446.866 0.
368.279 -314.798 0.
422.27 -182.731 0.
145.187 -348.184 0.
17.2474 -644.597 0.
-110.692 -941.01 0.
37.9647 -837.104 0.
136.585 -608.611 0.
235.205 -380.119 0.
702.824 -5.76902 0.
794.311 207.055 0.
280.365 113.381 0.
109.07 -283.518 0.
-62.2236 -680.418 0.
-230.036 -912.094 0.
-131.027 -685.911 0.
-32.0159 -459.729 0.
550.31 -94.8637 0.
583.396 -17.714 0.
616.482 59.4347 0.
1160.52 79.7411 0.
1014.93 -263.685 0.
-1434.11 -1592.61 0.
412.535 -623.875 0.
502.887 -410.217 0.
-77.7399 -490.307 0.
-5.72718 -316.889 0.
66.2862 -143.472 0.
276.222 -39.8547 0.
214.617 -181.958 0.
153.013 -324.063 0.
78.6651 -345.477 0.
115.273 -257.197 0.
151.882 -168.918 0.
196.814 -384.085 0.
66.1208 -692.904 0.
505.623 -723.621 0.
477.595 -795.791 0.
449.566 -867.963 0.
-282.31 -1155.11 0.
-159.624 -870.438 0.
-36.9365 -585.769 0.
267.024 -485.212 0.
139.256 -783.38 0.
11.4897 -1081.55 0.
147.442 -973.922 0.
221.444 -806.414 0.
78.2962 -736.174 0.
-140.777 -867.063 0.
-158.195 -911.173 0.
197.149 -755.829 0.
254.95 -622.666 0.
312.751 -489.502 0.
151.784 -585.141 0.
57.2543 -812.27 0.
-37.2767 -1039.4 0.
126.581 -849.316 0.
260.842 -538.166 0.
395.1 -227.016 0.
-193.542 -569.636 0.
-257.719 -717.225 0.
-445.349 -898.6 0.
-411.877 -828.49 0.
-378.405 -758.378 0.
-116.672 -539.424 0.
8.69505 -257.417 0.
134.06 24.5925 0.
563.473 299.87 0.
554.637 278.22 0.
545.802 256.571 0.
395.099 -10.7407 0.
256.872 -330.091 0.
-4.77562 -852.603 0.
-148.857 -743.168 0.
-45.0777 -502.53 0.
-363.304 -506.023 0.
-432.905 -664.872 0.
-502.507 -823.721 0.
-27.9212 -667.41 0.
7.0298 -583.061 0.
41.9809 -498.713 0.
-233.881 -652.657 0.
-287.417 -777.255 0.
-340.953 -901.852 0.
130.049 -772.845 0.
94.3598 -859.379 0.
62.3853 -916.729 0.
160.77 -687.704 0.
259.155 -458.679 0.
105.435 -420.67 0.
77.0449 -485.554 0.
48.654 -550.438 0.
-43.6837 -704.263 0.
-127.007 -899.887 0.
-210.331 -1095.51 0.
86.1645 -970.268 0.
102.263 -930.78 0.
872.16 -566.217 0.
286.408 -693.799 0.
353.356 -532.829 0.
68.7983 -518.339 0.
123.789 -386.313 0.
178.778 -254.288 0.
164.557 -311.602 0.
36.593 -608.086 0.
-91.3709 -904.57 0.
15.3162 -815.946 0.
113.881 -587.418 0.
212.445 -358.89 0.
673.655 14.9772 0.
765.256 227.917 0.
286.602 146.527 0.
114.453 -250.059 0.
-57.6947 -646.644 0.
-268.568 -899.857 0.
-170.069 -674.405 0.
-71.5681 -448.952 0.
210.953 -208.356 0.
243.064 -131.335 0.
275.174 -54.3161 0.
1284.98 163.637 0.
1138.44 -179.501 0.
-1924.03 -1770.61 0.
146.049 -707.666 0.
236.445 -494.15 0.
-47.2069 -447.993 0.
25.7435 -275.568 0.
98.6946 -103.143 0.
295.105 5.21411 0.
235.177 -138.935 0.
175.251 -283.086 0.
-206.673 -434.055 0.
-168.784 -346.952 0.
-130.892 -259.851 0.
754.56 -110.626 0.
623.896 -419.835 0.
48.4424 -887.097 0.
20.6138 -959.731 0.
-7.21623 -1032.37 0.
-130.013 -1060.54 0.
-8.03022 -775.662 0.
113.953 -490.784 0.
96.7259 -525.457 0.
-30.9914 -824.89 0.
-158.708 -1124.33 0.
45.7488 -988.533 0.
119.015 -821.382 0.
997.719 -308.761 0.
306.077 -642.099 0.
288.647 -686.364 0.
35.8748 -793.656 0.
93.6632 -660.099 0.
151.451 -526.541 0.
131.609 -560.566 0.
35.9852 -786.179 0.
-59.6396 -1011.79 0.
-280.333 -995.295 0.
-146.341 -683.87 0.
-12.3509 -372.445 0.
8.33694 -450.284 0.
-55.9359 -597.705 0.
-261.18 -788.539 0.
-228.206 -717.804 0.
-195.233 -647.068 0.
-267.734 -576.129 0.
-143.338 -292.945 0.
-18.9442 -9.75807 0.
391.592 257.718 0.
383.292 236.107 0.
374.992 214.497 0.
252.461 -41.5856 0.
114.967 -360.728 0.
-759.623 225.894 0.
-343.725 -738.922 0.
233.049 602.89 0.
19.339 211.188 0.
-128.9 -131.659 0.
139.688 498.418 0.
-25.5081 -736.965 0.
463.091 406.948 0.
-12.8601 -698.965 0.
-219.403 24.3333 0.
-259.724 -67.17 0.
-167.955 149.735 0.
963.106 838.585 0.
751.536 347.761 0.
-62.817 -1087.03 0.
270.538 -314.917 0.
377.252 -71.3406 0.
396.432 456.732 0.
468.454 621.94 0.
357.767 358.81 0.
348.058 436.654 0.
299.899 319.489 0.
584.897 980.833 0.
415.887 -203.411 0.
275.33 -527.883 0.
-113.791 -1011.98 0.
866.716 15.1291 0.
1129.68 630.675 0.
-168.983 -575.501 0.
-458.532 -1254.58 0.
-465.972 -1274.51 0.
90.2946 -501.453 0.
355.418 118.677 0.
-109.088 -963.139 0.
565.881 529.929 0.
591.375 590.93 0.
347.677 24.1472 0.
347.662 -656.481 0.
692.874 150.211 0.
448.778 560.484 0.
481.552 637.068 0.
180.867 -63.9294 0.
257.111 430.378 0.
219.52 337.214 0.
346.469 628.456 0.
465.643 1049.16 0.
544.489 1233.74 0.
-620.157 -1483.17 0.
1049.49 -580.061 0.
1305.23 8.53242 0.
-3504.51 -2150.37 0.
252.306 91.3428 0.
271.734 132.426 0.
175.916 45.5101 0.
186.534 65.5611 0.
259.732 231.705 0.
300.684 27.229 0.
551.317 602.061 0.
781.815 1130.11 0.
-315.369 -108.645 0.
-429.335 -372.875 0.
164.052 1013.91 0.
1468.01 520.713 0.
1204.43 -95.7772 0.
-139.29 -428.365 0.
103.992 136.065 0.
-448.753 -1154.4 0.
168.218 -626.025 0.
115.384 -743.097 0.
714.663 661.656 0.
131.902 -101.404 0.
-175.214 -810.059 0.
-645.237 -1900.66 0.
96.367 -666.011 0.
489.865 263.285 0.
795.822 202.663 0.
952.434 65.0378 0.
890.831 -78.4744 0.
790.515 1323.56 0.
423.995 461.142 0.
-100.896 -770.05 0.
381.99 95.1653 0.
479.088 318.437 0.
-45.1485 -909.611 0.
-104.785 211.777 0.
133.726 761.656 0.
-257.038 -157.833 0.
375.787 61.4473 0.
333.909 -33.7467 0.
250.638 81.6237 0.
426.759 495.377 0.
459.624 574.754 0.
-549.103 -938.265 0.
-428.593 -657.32 0.
14.8151 377.011 0.
671.694 1269.63 0.
250 293.14 0.
287.132 386.202 0.
123.112 -60.8263 0.
351.8 467.771 0.
-712.826 -574.132 0.
-75.8212 -397.477 0.
-125.633 -512.388 0.
-244.887 -593.196 0.
-122.625 -307.476 0.
-0.363962 -21.7549 0.
197.877 148.331 0.
131.66 -4.12792 0.
65.4421 -156.587 0.
-446.401 -496.789 0.
-508.654 -638.062 0.
-570.907 -779.333 0.
469.948 -395.607 0.
433.024 -476.81 0.
110.9 -669.964 0.
172.36 -529.202 0.
233.821 -388.44 0.
-90.0083 -453.876 0.
-103.858 -484.124 0.
-117.706 -514.373 0.
-24.4464 -606.119 0.
-145.084 -889.857 0.
-265.722 -1173.6 0.
-22.516 -970.343 0.
91.6193 -704.333 0.
-55.8831 -550.2 0.
595.933 -320.284 0.
557.053 -408.839 0.
-376.999 -853.398 0.
-332.618 -750.107 0.
-288.237 -646.816 0.
382.272 -289.524 0.
410.325 -221.662 0.
438.378 -153.8 0.
130.638 -283.748 0.
109.487 -329.128 0.
88.3358 -374.508 0.
128.793 -413.467 0.
99.0693 -480.403 0.
96.8064 -516.533 0.
128.503 -439.561 0.
160.2 -362.588 0.
-46.9262 -368.103 0.
15.3056 -223.143 0.
77.5379 -78.1822 0.
-121.468 -195.265 0.
-196.518 -377.894 0.
-271.567 -560.524 0.
1340.01 178.611 0.
1393.9 300.949 0.
-2372.87 -1216.67 0.
67.2583 -216.682 0.
45.3586 -270.413 0.
202.56 -239.075 0.
187.008 -275.031 0.
171.457 -310.986 0.
-14.7103 -510.11 0.
-130.774 -776.32 0.
-246.838 -1042.53 0.
-398.737 -1090.45 0.
-336.228 -938.096 0.
-273.722 -785.748 0.
546.724 -293.723 0.
621.833 -119.647 0.
-85.6019 -305.796 0.
-95.9121 -329.23 0.
-106.222 -352.665 0.
180.058 -253.803 0.
148.512 -329.708 0.
116.967 -405.613 0.
-40.8448 -485.308 0.
-11.5004 -420.712 0.
17.8437 -356.117 0.
438.022 -145.173 0.
446.851 -122.106 0.
362.073 -134.622 0.
614.036 -118.345 0.
563.462 -233.876 0.
-180.584 -637.156 0.
-190.475 -662.709 0.
-200.366 -688.262 0.
344.305 -423.166 0.
394.522 -304.568 0.
444.74 -185.969 0.
-416.681 -539.487 0.
-427.956 -570.863 0.
-439.231 -602.239 0.
134.691 -191.025 0.
230.721 36.7416 0.
308.202 201.895 0.
153.572 -158.036 0.
-1.05677 -517.966 0.
-278.812 -770.549 0.
-182.476 -549.827 0.
-86.1381 -329.104 0.
-146.616 -358.358 0.
-220.746 -524.547 0.
-294.876 -690.735 0.
-262.783 -728.331 0.
-276.154 -761.402 0.
784.956 98.9289 0.
86.1648 -296.675 0.
35.5143 -410.753 0.
-127.578 -511.938 0.
-5.46797 -226.261 0.
116.641 59.4174 0.
25.7878 106.805 0.
-40.022 -45.8614 0.
-105.833 -198.528 0.
-434.402 -459.157 0.
-495.843 -601.298 0.
-557.285 -743.438 0.
527.855 -337.058 0.
491.673 -418.674 0.
121.41 -633.069 0.
182.613 -492.141 0.
243.817 -351.213 0.
-191.313 -465.907 0.
-205.37 -495.611 0.
-219.427 -525.315 0.
79.69 -534.77 0.
-40.4912 -818.81 0.
-160.672 -1102.85 0.
-137.232 -986.764 0.
-21.1942 -721.783 0.
-690.88 -792.764 0.
454.322 -348.376 0.
416.521 -437.126 0.
-472.009 -863.024 0.
-426.705 -759.658 0.
-381.402 -656.292 0.
640.768 -147.528 0.
668.728 -79.5795 0.
696.689 -11.6314 0.
43.0773 -291.851 0.
22.4661 -337.759 0.
1.85414 -383.666 0.
-252.22 -542.073 0.
-281.703 -609.658 0.
245.437 -422.876 0.
275.991 -345.842 0.
306.545 -268.809 0.
14.5741 -309.748 0.
76.0189 -165.236 0.
137.464 -20.7255 0.
-163.888 -182.934 0.
-239.378 -365.774 0.
-314.868 -548.613 0.
1318.57 199.594 0.
1371.71 322.079 0.
-1677.51 -887.595 0.
15.0161 -207.889 0.
-6.63381 -262.212 0.
396.003 -120.606 0.
380.739 -157.227 0.
365.475 -193.847 0.
-102.509 -517.042 0.
-218.25 -784.384 0.
-333.99 -1051.72 0.
29.3021 -873.326 0.
92.4661 -721.545 0.
155.627 -569.767 0.
-138.097 -554.681 0.
-62.6689 -381.481 0.
-66.4748 -264.234 0.
-76.1445 -289.112 0.
-85.8142 -313.99 0.
21.6554 -287.325 0.
-9.43738 -364.469 0.
-40.5299 -441.613 0.
-33.3383 -450.122 0.
-4.0074 -386.139 0.
25.3233 -322.157 0.
597.309 -47.2201 0.
605.551 -24.3796 0.
132.174 -200.549 0.
313.748 -214.128 0.
263.037 -330.164 0.
-326.355 -667.63 0.
-336.197 -693.865 0.
-346.041 -720.101 0.
583.482 -289.38 0.
633.479 -170.315 0.
683.475 -51.2489 0.
-387.579 -493.621 0.
-398.648 -525.048 0.
-409.717 -556.476 0.
-10.6424 -222.388 0.
85.3873 5.78064 0.
328.654 243.209 0.
174.909 -117.013 0.
21.1626 -477.234 0.
-16.3936 -624.804 0.
80.4554 -403.775 0.
177.306 -182.745 0.
-276.997 -381.818 0.
-350.995 -547.907 0.
-424.993 -713.995 0.
-368.865 -742.106 0.
-382.696 -774.486 0.
-836.677 -870.065 0.
32.0102 -477.348 0.
44.8317 -453.295 0.
-195.482 -514.278 0.
-131.545 -368.617 0.
-67.6091 -222.956 0.
-54.48 -159.191 0.
-68.2845 -187.308 0.
-82.0894 -215.426 0.
-327.209 -377.067 0.
-366.391 -470.556 0.
-405.572 -564.046 0.
449.663 -320.813 0.
371.678 -496.741 0.
7.66689 -773.7 0.
33.0131 -715.243 0.
58.3589 -656.787 0.
-365.895 -804.152 0.
-358.57 -784.392 0.
-351.247 -764.632 0.
40.7966 -581.659 0.
56.8124 -543.053 0.
72.8285 -504.447 0.
62.1009 -493.823 0.
61.8623 -489.546 0.
124.098 -458.481 0.
367.578 -343.95 0.
369.571 -331.075 0.
-275.466 -596.349 0.
-294.628 -641.208 0.
-313.787 -686.068 0.
454.042 -363.542 0.
475.628 -310.158 0.
497.213 -256.776 0.
40.9481 -345.957 0.
104.986 -193.552 0.
169.025 -41.1472 0.
-356.876 -402.766 0.
-444.852 -610.273 0.
193.047 -474.603 0.
274.007 -291.199 0.
354.967 -107.794 0.
90.297 -164.166 0.
17.2643 -334.949 0.
-55.7683 -505.732 0.
-287.539 -703.081 0.
-321.547 -778.507 0.
-355.554 -853.934 0.
989.817 -248.588 0.
1020.52 -175.466 0.
-737.238 -870.031 0.
-198.092 -713.983 0.
-243.396 -812.028 0.
149.05 -662.066 0.
252.835 -417.415 0.
356.62 -172.766 0.
-58.7314 -252.287 0.
-78.9224 -299.501 0.
-99.1135 -346.715 0.
397.085 -255.281 0.
319.54 -438.728 0.
241.994 -622.174 0.
-457.279 -792.757 0.
-375.287 -596.311 0.
-116.193 -344.438 0.
-138.194 -387.601 0.
-160.197 -430.764 0.
-98.6998 -446.346 0.
-118.759 -489.578 0.
-138.818 -532.808 0.
-93.5754 -492.252 0.
-62.9586 -417.793 0.
-32.3424 -343.334 0.
580.556 -80.7895 0.
576.343 -94.9291 0.
1319.67 216.63 0.
135.558 -235.937 0.
165.99 -165.479 0.
-62.573 -230.066 0.
-100.328 -315.079 0.
-138.083 -400.092 0.
521.724 -166.651 0.
517.158 -178.636 0.
512.591 -190.622 0.
-272.495 -490.213 0.
-238.864 -408.046 0.
-205.232 -325.879 0.
10.7455 -309.008 0.
-38.2417 -426.53 0.
10.7936 -452.653 0.
163.375 -100.544 0.
315.956 251.567 0.
271.723 367.241 0.
192.751 181.73 0.
113.781 -3.78024 0.
-156.104 -182.463 0.
-152.382 -174.46 0.
-148.662 -166.456 0.
-163.086 -415.183 0.
-327.976 -795.065 0.
-127.825 -533.315 0.
-18.1534 -467.114 0.
-5.82053 -442.542 0.
-433.402 -586.524 0.
-369.386 -441.051 0.
-305.371 -295.577 0.
223.396 -6.13232 0.
209.523 -34.1576 0.
195.65 -62.184 0.
-136.129 -267.689 0.
-176.046 -359.924 0.
-215.962 -452.161 0.
227.243 -382.086 0.
149.457 -557.528 0.
-88.1895 -786.391 0.
-62.5851 -727.921 0.
-36.981 -669.451 0.
-308.034 -747.032 0.
-300.125 -727.211 0.
-292.217 -707.389 0.
-87.4373 -605.301 0.
-70.9139 -566.865 0.
-54.3902 -528.43 0.
165.339 -418.806 0.
164.093 -413.525 0.
591.154 -223.858 0.
324.349 -330.206 0.
326.062 -316.882 0.
57.2274 -426.362 0.
37.5292 -470.332 0.
17.833 -514.303 0.
-3.46095 -525.896 0.
18.0953 -472.731 0.
39.6507 -419.567 0.
215.073 -239.592 0.
278.764 -86.7582 0.
342.455 66.0753 0.
-351.129 -367.665 0.
-438.979 -575.417 0.
23.539 -514.79 0.
103.645 -331.429 0.
183.752 -148.068 0.
99.1865 -127.338 0.
25.1825 -297.903 0.
-48.8212 -468.469 0.
31.3223 -536.844 0.
-3.31587 -612.12 0.
-37.9534 -687.397 0.
666.46 -357.168 0.
696.903 -283.997 0.
-222.837 -617.485 0.
-90.4548 -634.877 0.
-134.869 -733.475 0.
-42.4741 -708.935 0.
61.7307 -465.255 0.
165.935 -221.575 0.
-107.005 -240.795 0.
-127.683 -288.361 0.
-148.36 -335.927 0.
258.994 -282.655 0.
180.936 -465.345 0.
102.878 -648.034 0.
-268.405 -682.682 0.
-185.697 -486.724 0.
-154.862 -327.943 0.
-177.232 -371.054 0.
-199.603 -414.164 0.
-45.0583 -392.518 0.
-65.6655 -435.546 0.
-86.273 -478.572 0.
-173.429 -496.092 0.
-142.283 -421.771 0.
-111.139 -347.449 0.
480.308 -91.2182 0.
476.139 -105.34 0.
1135.51 167.459 0.
44.6025 -243.621 0.
73.9718 -171.965 0.
284.934 -51.5439 0.
247.106 -136.922 0.
209.278 -222.3 0.
40.4398 -341.296 0.
36.7497 -354.255 0.
33.0599 -367.214 0.
4.65726 -338.541 0.
38.0531 -256.154 0.
71.4487 -173.766 0.
313.063 -147.217 0.
263.404 -264.746 0.
-0.962289 -428.483 0.
151.279 -76.2267 0.
303.519 276.03 0.
-265.273 166.516 0.
-344.564 -18.2824 0.
-423.852 -203.079 0.
84.5318 -47.4543 0.
87.8642 -39.1044 0.
91.1953 -30.7543 0.
108.283 -270.523 0.
-55.8175 -651.696 0.
-881.065 284.625 0.
49.0104 -172.722 0.
288.746 389.231 0.
-427.635 -131.996 0.
-386.311 -22.5966 0.
-320.662 140.981 0.
326.951 -270.157 0.
456.194 40.205 0.
585.385 350.27 0.
425.304 728.935 0.
213.922 238.792 0.
-179.705 -675.422 0.
151.073 -101.979 0.
353.275 367.188 0.
-191.555 -833.108 0.
90.116 -170.498 0.
-33.8814 -452.113 0.
-176.872 -537.354 0.
544.836 1140.94 0.
808.567 1751.69 0.
291.942 549.538 0.
32.6419 -58.2116 0.
536.843 1115.17 0.
648.549 551.176 0.
650.761 558.73 0.
51.4223 -834.971 0.
82.4574 -790.049 0.
128.735 -684.636 0.
-17.5334 -1198.98 0.
513.986 44.61 0.
451.899 -94.4164 0.
-392.6 -534.044 0.
-231.289 -155.803 0.
-283.387 -275.785 0.
624.613 416.874 0.
395.9 -111.844 0.
-87.0149 -1233.85 0.
-135.801 160.506 0.
-46.5662 367.261 0.
5.84774 -202.082 0.
-464.763 -1296.98 0.
-265.491 -828.354 0.
-122.922 -627.07 0.
105.816 -94.533 0.
-6.82148 -358.419 0.
548.451 103.137 0.
610.217 245.858 0.
146.615 -837.201 0.
173.451 -860.516 0.
877.49 780.405 0.
-1023.83 79.0336 0.
148.104 -231.335 0.
318.744 169.562 0.
274.327 424.941 0.
-381.745 -1103.05 0.
-403.266 -1150.47 0.
-13.6853 85.8899 0.
109.642 375.85 0.
-13.6057 90.4536 0.
367.144 279.79 0.
119.456 -302.216 0.
426.623 410.718 0.
392.608 523.617 0.
67.8281 -232.333 0.
-315.979 -597.28 0.
-962.953 -2107.95 0.
75.0105 311.938 0.
38.292 -260.218 0.
483.585 768.666 0.
24.026 -311.907 0.
-39.4978 -1.83076 0.
298.149 779.196 0.
-3.6569 69.4266 0.
701.505 636.66 0.
1023 1393.99 0.
587.337 514.489 0.
440.573 871.561 0.
310.724 567.177 0.
659.304 211.176 0.
195.376 -871.592 0.
1102.02 1242.78 0.
-109.347 247.856 0.
-290.356 -172.346 0.
-64.5516 356.006 0.
458.501 230.297 0.
418.75 137.106 0.
285.339 -175.59 0.
688.836 190.245 0.
672.552 155.492 0.
96.7767 -156.648 0.
-185.81 -806.395 0.
334.053 414.034 0.
-842.543 -182.58 0.
-758.355 21.5713 0.
-1421.52 -1518.29 0.
321.7 90.9215 0.
306.511 55.5341 0.
376.763 217.322 0.
347.177 -200.805 0.
391.552 -108.844 0.
-118.538 -238.767 0.
-203.051 -47.6352 0.
-99.0702 198.362 0.
66.1984 378.234 0.
-69.2187 68.3104 0.
-204.638 -241.608 0.
56.4246 -345.77 0.
-28.8608 -545.266 0.
-114.148 -744.758 0.
-417.293 -804.778 0.
-319.751 -577.39 0.
-222.209 -350 0.
35.0648 -252.171 0.
16.2503 -299.713 0.
22.3466 -325.373 0.
30.5683 -304.118 0.
38.7899 -282.865 0.
132.78 -244.473 0.
118.462 -283.262 0.
104.146 -322.051 0.
-25.9051 -390.128 0.
-27.8085 -389.274 0.
-29.7112 -388.422 0.
218.963 -281.185 0.
224.838 -275.346 0.
708.985 -64.7631 0.
109.114 -328.707 0.
109.156 -336.932 0.
205.296 -284.051 0.
236.816 -211.166 0.
268.337 -138.284 0.
-164.138 -268.103 0.
-131.098 -192.408 0.
-98.0571 -116.714 0.
275.763 172.377 0.
357.953 364.122 0.
440.143 555.866 0.
503.483 502.689 0.
448.869 374.64 0.
174.245 144.17 0.
80.3485 -74.4573 0.
-13.5475 -293.086 0.
-219.503 -496.134 0.
-204.004 -466.151 0.
-188.505 -436.168 0.
262.33 -167.21 0.
318.685 -42.6286 0.
375.041 81.9533 0.
484.47 219.602 0.
529.892 322.77 0.
71.4259 209.73 0.
172.357 80.6302 0.
80.003 -132.865 0.
72.1157 -268.231 0.
64.7268 -279.22 0.
57.3377 -290.208 0.
-88.7248 -342.012 0.
-62.5097 -287.402 0.
-36.2946 -232.791 0.
21.6617 -226.928 0.
-2.0893 -286.749 0.
-25.8402 -346.571 0.
92.6887 -100.281 0.
208.886 171.883 0.
41.5238 272.959 0.
-59.6255 29.5278 0.
-160.775 -213.904 0.
30.3634 -216.989 0.
102.898 -54.8796 0.
175.432 107.229 0.
176.962 57.4705 0.
77.1562 -173.269 0.
-22.6494 -404.008 0.
-68.1703 -456.944 0.
-68.8373 -453.017 0.
497.7 -198.268 0.
75.3319 -286.066 0.
129.144 -166.586 0.
302.946 -50.5219 0.
219.339 -250.834 0.
135.731 -451.149 0.
-347.386 -665.697 0.
-242.007 -422.339 0.
-136.627 -178.983 0.
263.969 -49.8839 0.
185.185 -234.787 0.
106.403 -419.691 0.
362.895 -253.311 0.
404.825 -153.191 0.
-84.6646 -293.379 0.
-102.652 -333.491 0.
-120.637 -373.604 0.
-686.277 -603.246 0.
-637.894 -486.74 0.
-589.511 -370.234 0.
159.752 -80.7712 0.
94.0519 -239.356 0.
28.3524 -397.943 0.
286.983 -109.836 0.
431.217 214.22 0.
-2064.91 -1038.02 0.
-564.027 -172.676 0.
-459.737 73.204 0.
416.553 560.088 0.
282.81 248.542 0.
149.064 -63.0018 0.
-213.556 -425.352 0.
-296.509 -626.037 0.
-379.464 -826.718 0.
-626.338 -864.241 0.
-528.462 -637.356 0.
-430.586 -410.47 0.
-9.05605 -237.041 0.
-28.1005 -285.207 0.
38.9864 -287.303 0.
47.5347 -266.384 0.
56.0829 -245.464 0.
376.507 -110.737 0.
361.621 -148.481 0.
346.736 -186.227 0.
89.6651 -310.709 0.
87.6323 -308.795 0.
85.6001 -306.882 0.
150.355 -280.738 0.
156.092 -274.551 0.
244.036 -234.033 0.
-79.909 -376.701 0.
-80.316 -384.534 0.
18.991 -333.14 0.
49.8944 -259.81 0.
80.7982 -186.481 0.
-8.05275 -169.27 0.
24.568 -93.6391 0.
57.1886 -18.0081 0.
2.43299 86.9153 0.
85.6302 277.885 0.
168.828 468.853 0.
1129.05 803.43 0.
1075.43 674.559 0.
216.142 193.789 0.
122.154 -25.2435 0.
28.1673 -244.277 0.
-379.279 -530.16 0.
-363.271 -500.741 0.
-347.264 -471.322 0.
78.1205 -214.666 0.
134.285 -89.4931 0.
190.45 35.6807 0.
324.855 183.048 0.
370.378 286.102 0.
874.021 583.954 0.
47.6438 60.3261 0.
-45.6808 -152.311 0.
207.654 -178.935 0.
199.795 -189.752 0.
191.936 -200.57 0.
64.6967 -244.654 0.
91.0355 -190.207 0.
117.374 -135.76 0.
-113.5 -252.358 0.
-137.287 -311.813 0.
-161.073 -371.268 0.
71.2344 -78.9103 0.
186.284 194.908 0.
44.346 304.314 0.
-57.4094 61.0995 0.
-159.165 -182.115 0.
15.8534 -192.936 0.
87.4402 -31.2719 0.
159.027 130.392 0.
420.181 192.448 0.
319.829 -38.2639 0.
219.478 -268.975 0.
-426.756 -581.749 0.
-426.397 -577.983 0.
-307.778 -512.918 0.
253.824 -177.527 0.
308.146 -58.6303 0.
21.8816 -139.64 0.
-60.9912 -340.687 0.
-143.866 -541.736 0.
-143.415 -544.616 0.
-36.8769 -302.006 0.
69.6629 -59.3974 0.
187.73 -51.9289 0.
109.959 -237.422 0.
32.1898 -422.918 0.
213.516 -284.708 0.
256.207 -185.487 0.
-218.042 -318.399 0.
-235.915 -358.652 0.
-253.786 -398.904 0.
-254.687 -386.37 0.
-205.941 -270.057 0.
-157.195 -153.744 0.
68.0935 -87.4848 0.
2.20224 -246.409 0.
-63.6889 -405.335 0.
183.662 -126.543 0.
326.94 197.688 0.
-491.177 -362.458 0.
-720.884 -524.807 0.
-715.859 -516.452 0.
201.888 -119.138 0.
199.394 -119.981 0.
196.898 -120.821 0.
-245.78 -305.863 0.
-239.965 -287.458 0.
-234.155 -269.051 0.
-413.909 -222.699 0.
-326.002 -15.6381 0.
-238.097 191.423 0.
116.216 294.786 0.
78.9268 215.858 0.
273.853 229.135 0.
204.229 67.266 0.
134.607 -94.6035 0.
431.466 -92.5884 0.
378.86 -208.425 0.
326.254 -324.26 0.
128.453 -402.325 0.
175.069 -299.449 0.
221.687 -196.575 0.
-33.7733 -244.065 0.
-8.57146 -181.356 0.
429.055 56.9077 0.
22.2143 -150.522 0.
4.46788 -190.198 0.
-48.8591 -239.063 0.
-33.2761 -204.81 0.
-17.6924 -170.557 0.
6.69052 -99.6878 0.
60.4864 20.8325 0.
114.283 141.354 0.
-26.928 14.0388 0.
-105.801 -170.211 0.
-184.675 -354.462 0.
838.451 -25.7016 0.
783.533 -152.854 0.
-40.2465 -576.144 0.
91.8883 -265.594 0.
224.024 44.9564 0.
-130.729 87.9479 0.
-100.806 169.615 0.
-70.8837 251.282 0.
159.754 284.43 0.
67.85 73.9071 0.
-24.0546 -136.615 0.
-32.0275 -252.383 0.
-81.164 -364.42 0.
-311.866 -554.374 0.
-148.556 -344.247 0.
-71.0276 -168.791 0.
372.864 97.2483 0.
291.317 -95.7193 0.
209.77 -288.687 0.
-17.361 -518.118 0.
-67.854 -630.325 0.
-118.346 -742.532 0.
-171.975 -624.772 0.
-36.3112 -309.973 0.
99.3532 4.82642 0.
-7.57028 -157.225 0.
-89.1829 -351.164 0.
-402.256 -606.371 0.
-330.459 -439.49 0.
-258.662 -272.609 0.
52.4019 -128.167 0.
-66.1932 -403.723 0.
-184.79 -679.279 0.
66.6827 -665.305 0.
81.6555 -633.755 0.
96.6279 -602.204 0.
-469.325 -614.904 0.
-323.313 -264.327 0.
-783.795 -179.546 0.
379.496 156.123 0.
291.095 -45.2859 0.
-329.921 -438.356 0.
-326.499 -423.39 0.
-323.077 -408.425 0.
48.1093 -255.526 0.
31.1279 -297.298 0.
14.1469 -339.07 0.
-18.8903 -312.504 0.
26.6368 -204.633 0.
72.1647 -96.7628 0.
149.85 -54.4153 0.
153.169 -48.8546 0.
-176.123 -191.382 0.
-203.992 -256.373 0.
-231.859 -321.364 0.
15.8154 -254.432 0.
8.99421 -274.22 0.
2.17362 -294.005 0.
-197.374 -351.405 0.
-160.756 -263.435 0.
-124.138 -175.466 0.
107.836 -121.117 0.
69.0109 -210.166 0.
-57.7428 -145.455 0.
-370.268 -343.701 0.
-365.461 -335.055 0.
84.7622 -138.222 0.
84.2439 -139.442 0.
83.7235 -140.66 0.
-164.315 -237.138 0.
-156.44 -219.767 0.
-148.569 -202.394 0.
-345.061 -161.432 0.
-256.396 45.0175 0.
-167.731 251.468 0.
-60.1913 251.812 0.
-96.1268 171.613 0.
310.467 275.1 0.
240.852 112.858 0.
171.239 -49.3844 0.
338.098 -98.2167 0.
286.327 -215.009 0.
234.555 -331.801 0.
253.367 -319.602 0.
298.122 -214.793 0.
342.878 -109.984 0.
-431.48 -384.873 0.
-406.488 -322.316 0.
-567.951 -339.093 0.
255.017 -17.1375 0.
236.898 -56.9716 0.
-84.9286 -223.76 0.
-70.1573 -189.37 0.
-55.3854 -154.98 0.
-135.245 -127.552 0.
-81.5079 -7.29803 0.
-27.77 112.956 0.
285.803 179.866 0.
207.418 -5.15716 0.
129.032 -190.18 0.
402.76 -182.119 0.
349.042 -309.927 0.
114.722 -476.909 0.
246.825 -166.535 0.
378.928 143.839 0.
-5.50167 173.774 0.
24.4817 254.85 0.
54.4654 335.926 0.
36.5226 260.075 0.
-55.4053 49.5745 0.
-147.333 -160.925 0.
-253.634 -312.828 0.
-301.282 -425.655 0.
604.584 -130.382 0.
-47.778 -268.117 0.
29.6452 -92.1184 0.
417.195 147.029 0.
335.857 -46.1749 0.
254.519 -239.379 0.
-57.0276 -500.301 0.
-105.472 -614.279 0.
-153.916 -728.257 0.
221.817 -424.472 0.
358.466 -108.954 0.
495.115 206.564 0.
-49.6366 -143.802 0.
-130.489 -337.578 0.
-516.759 -624.248 0.
-444.708 -457.463 0.
-372.656 -290.678 0.
118.934 -66.4388 0.
0.399718 -343.271 0.
-118.137 -620.103 0.
-98.5916 -702.812 0.
-83.9465 -671.976 0.
-69.3016 -641.14 0.
-158.794 -450.615 0.
-11.5521 -100.854 0.
251.639 296.646 0.
202.603 111.879 0.
114.558 -89.2998 0.
-586.911 -514.359 0.
-582.835 -500.092 0.
-578.759 -485.826 0.
36.5419 -229.274 0.
20.1305 -271.253 0.
3.71957 -313.232 0.
-134.583 -328.702 0.
-88.1845 -221.702 0.
-41.7848 -114.703 0.
-62.8854 -113.143 0.
-59.5132 -107.687 0.
-42.9694 -101.316 0.
-69.702 -166.633 0.
-96.433 -231.949 0.
166.18 -161.756 0.
159.408 -180.879 0.
152.636 -199.999 0.
-439.163 -422.049 0.
-402.064 -334.38 0.
-364.965 -246.712 0.
38.5074 -119.019 0.
-0.0957762 -207.878 0.
-732.403 -306.667 0.
-109.837 -361.714 0.
-31.1385 -172.553 0.
372.65 750.241 0.
33.1582 -24.0476 0.
401.541 853.319 0.
315.306 738.567 0.
4.58622 28.2599 0.
223.75 553.549 0.
-70.9759 372.518 0.
-316.838 -198.803 0.
-399.098 -388.593 0.
-161.535 361.299 0.
-144.25 397.348 0.
53.298 -364.139 0.
613.404 938.439 0.
-203.374 -970.215 0.
377.577 188.583 0.
35.2009 -612.734 0.
556.32 599.7 0.
1034.6 1298.37 0.
304.298 -417.713 0.
261.247 -530.08 0.
-588.869 51.3006 0.
-697.188 -202.669 0.
318.344 58.6281 0.
405.997 -68.7639 0.
610.192 411.001 0.
128.751 380.513 0.
501.615 1252.3 0.
403.705 1027.83 0.
-4.58733 483.896 0.
51.8019 617.518 0.
-633.745 -978.744 0.
498.292 84.1324 0.
425.822 -81.3439 0.
810.983 821.063 0.
-158.479 -627.152 0.
-199.344 -724.674 0.
742.443 723.616 0.
625.989 453.499 0.
265.012 -387.279 0.
-1.74594 -13.7029 0.
144.009 326.051 0.
-297.126 -703.189 0.
-325.968 -333.73 0.
-327.744 -327.435 0.
-508.194 -737.809 0.
-468.983 -351.7 0.
-227.586 206.394 0.
-2156.22 85.1793 0.
134.072 -1.28519 0.
45.2944 -211.389 0.
618.918 562.895 0.
562.733 427.594 0.
180.366 -469.529 0.
-347.406 -1086.83 0.
61.0526 -131.561 0.
-4.92955 -282.827 0.
392.734 -728.642 0.
575.977 -298.285 0.
985.735 659.229 0.
-224.612 -456.546 0.
25.136 131.098 0.
-0.941196 816.913 0.
-277.713 168.762 0.
-474.99 -293.66 0.
487.52 727.41 0.
-21.0001 -464.851 0.
413.927 543.949 0.
80.2786 62.4001 0.
-129.502 -431.202 0.
667.641 1424.26 0.
567.832 695.702 0.
639.351 863.92 0.
1592.9 426.945 0.
51.9181 119.793 0.
-185.768 -424.406 0.
-1138.53 -1300.54 0.
-156.054 1000.57 0.
-743.072 -359.944 0.
322.311 489.495 0.
378.395 622.163 0.
-61.9683 -403.499 0.
-772.917 -1570.64 0.
-499.535 -939.151 0.
91.1666 434.625 0.
-182.087 37.5716 0.
-214.437 -43.2892 0.
258.722 408.471 0.
129.86 109.685 0.
-168.848 -586.022 0.
-104.839 -1066.2 0.
596.989 570.618 0.
321.127 -73.8705 0.
-625.302 -385.06 0.
-481.218 -54.2479 0.
-338.409 275.188 0.
253.183 580.794 0.
-272.289 -645.168 0.
391.652 374.468 0.
-66.1398 50.2883 0.
-187.718 -229.339 0.
-263.815 -402.698 0.
-200.78 -248.276 0.
-137.749 -93.8528 0.
-359.428 -22.9729 0.
-248.766 239.862 0.
-138.109 502.701 0.
316.414 621.553 0.
192.202 337.902 0.
67.9904 54.2486 0.
-430.982 -179.557 0.
-431.716 -176.51 0.
195.342 85.1144 0.
140.098 -48.3817 0.
84.8522 -181.879 0.
108.318 -277.353 0.
62.8019 -386.416 0.
17.2843 -495.478 0.
254.011 -259.46 0.
419.072 110.083 0.
584.135 479.63 0.
-656.457 -34.6809 0.
-681.391 -96.4028 0.
41.6696 160.216 0.
175.125 59.2458 0.
90.575 -139.389 0.
56.6802 -229.938 0.
168.944 31.4402 0.
281.208 292.82 0.
-246.895 133.038 0.
-314.831 -20.6353 0.
-382.767 -174.308 0.
566.056 116.276 0.
514.423 -5.032 0.
462.791 -126.339 0.
257.759 -42.5213 0.
355.631 189.51 0.
500.32 397.503 0.
427.583 228.577 0.
354.847 59.6502 0.
-19.2833 -145.578 0.
60.5649 32.2677 0.
140.415 210.114 0.
-62.5729 211.399 0.
-43.5767 254.643 0.
-24.5802 297.888 0.
-273.715 149.345 0.
-312.877 59.5242 0.
-1195.51 -390.631 0.
-199.367 -290.181 0.
-368.562 -690.169 0.
242.708 -642.286 0.
334.43 -432.112 0.
426.151 -221.938 0.
58.6209 -250.566 0.
99.2154 -151.024 0.
139.811 -51.4838 0.
244.745 -103.068 0.
141.253 -340.225 0.
37.7649 -577.381 0.
84.9968 -431.398 0.
168.486 -236.332 0.
-440.046 -346.843 0.
-357.88 -159.155 0.
-275.712 28.5304 0.
354.842 373.826 0.
311.626 271.088 0.
268.409 168.348 0.
-150.654 36.7056 0.
-67.6474 227.676 0.
15.3617 418.645 0.
358.484 365.071 0.
197.014 -14.518 0.
-981.29 -827.131 0.
-184.193 -361.206 0.
-114.596 -205.347 0.
-535.065 -260.032 0.
-468.477 -105.783 0.
-401.888 48.4664 0.
49.204 177.779 0.
-104.204 -173.762 0.
-257.61 -525.301 0.
-303.329 -500.474 0.
-193.936 -244.31 0.
-84.5436 11.8558 0.
-42.6241 97.9969 0.
-11.1809 167.013 0.
-123.07 148.773 0.
-221.019 -77.118 0.
-318.965 -303.008 0.
209.031 -144.472 0.
298.079 57.0881 0.
387.128 258.649 0.
-206.523 134.769 0.
-145.5 272.705 0.
-84.4751 410.639 0.
77.5302 181.7 0.
-142.934 -331.619 0.
176.631 312.156 0.
-209.844 19.6391 0.
-330.745 -260.883 0.
-420.752 -438.706 0.
-355.565 -285.018 0.
-290.382 -131.329 0.
-757.369 -156.86 0.
-642.957 104.644 0.
-528.549 366.152 0.
670.05 804.267 0.
545.689 521.746 0.
421.327 239.223 0.
-457.34 -162.51 0.
-460.096 -157.873 0.
145.636 93.6204 0.
91.3069 -40.083 0.
36.9764 -173.788 0.
35.4214 -280.077 0.
-9.7293 -389.348 0.
-54.8814 -498.618 0.
131.817 -276.735 0.
298.395 92.2916 0.
464.978 461.324 0.
-677.387 -11.1911 0.
-702.621 -72.3355 0.
144.507 235.954 0.
-151.381 -51.7758 0.
-236.783 -249.264 0.
309.597 -90.6975 0.
420.472 170.667 0.
531.346 432.034 0.
-351.453 118.141 0.
-420.47 -35.5275 0.
-489.485 -189.195 0.
660.308 188.432 0.
608.632 66.2043 0.
556.956 -56.0233 0.
473.637 83.5841 0.
573.562 313.354 0.
391.209 381.4 0.
318.287 212.923 0.
245.365 44.4457 0.
50.5752 -84.9917 0.
129.661 93.5434 0.
208.748 272.079 0.
-3.02545 268.125 0.
16.4504 311.951 0.
35.9265 355.777 0.
-276.627 183.654 0.
-314.553 92.8397 0.
-618.2 -109.348 0.
-435.375 -359.439 0.
-604.033 -760.177 0.
429.518 -531.345 0.
521.634 -321.254 0.
613.75 -111.164 0.
139.828 -180.99 0.
181.708 -82.546 0.
223.588 15.8966 0.
-252.256 -284.025 0.
-356.66 -519.653 0.
-461.059 -755.279 0.
463.599 -242.174 0.
548.928 -47.478 0.
-344.086 -271.192 0.
-260.863 -84.814 0.
-177.639 101.562 0.
389.152 423.616 0.
346.109 319.973 0.
303.065 216.329 0.
-397.435 -34.8212 0.
-314.079 155.322 0.
-230.719 345.465 0.
289.831 364.997 0.
127.994 -14.0176 0.
-132.807 -431.776 0.
-206.959 -341.257 0.
-137.281 -186.103 0.
-313.681 -132.335 0.
-246.567 21.7909 0.
-179.453 175.917 0.
-108.308 140.477 0.
-261.594 -210.225 0.
-414.878 -560.925 0.
-275.823 -458.955 0.
-167.314 -201.673 0.
-58.8074 55.6096 0.
114.44 195.954 0.
145.777 264.543 0.
-442.595 43.5989 0.
-540.065 -182.207 0.
-637.532 -408.013 0.
127.359 -148.614 0.
217.373 51.6429 0.
307.389 251.901 0.
46.949 277.763 0.
108.826 415.126 0.
170.705 552.488 0.
91.4625 217.194 0.
-128.967 -295.263 0.
