# vtk DataFile Version 2.0
test grain
ASCII
DATASET UNSTRUCTURED_GRID
POINTS 5000 float
0.499921 0.00100081 0.
0.501922 0.00100075 0.
0.503922 0.00100065 0.
0.505923 0.00100058 0.
0.507924 0.00100063 0.
0.509925 0.00100067 0.
0.511926 0.00100058 0.
0.513927 0.00100029 0.
0.515928 0.001 0.
0.517929 0.00100002 0.
0.51993 0.00100022 0.
0.521931 0.00100041 0.
0.523933 0.00100036 0.
0.525935 0.00100027 0.
0.527937 0.00100021 0.
0.529938 0.00100048 0.
0.531939 0.00100075 0.
0.53394 0.00100082 0.
0.535942 0.00100047 0.
0.537943 0.00100012 0.
0.539945 0.00100001 0.
0.541946 0.0010001 0.
0.543948 0.0010002 0.
0.545949 0.00100034 0.
0.54795 0.0010005 0.
0.549951 0.00100065 0.
0.551951 0.00100085 0.
0.553951 0.00100104 0.
0.555951 0.00100112 0.
0.557951 0.00100076 0.
0.559952 0.0010004 0.
0.561953 0.00100029 0.
0.563953 0.00100048 0.
0.565954 0.00100068 0.
0.567956 0.00100057 0.
0.569957 0.00100029 0.
0.571959 0.001 0.
0.57396 0.00100001 0.
0.575961 0.00100005 0.
0.577962 0.00100013 0.
0.579962 0.00100055 0.
0.581961 0.00100098 0.
0.58396 0.00100136 0.
0.585959 0.00100164 0.
0.587957 0.00100192 0.
0.589954 0.00100161 0.
0.59195 0.00100081 0.
0.593946 0.00100001 0.
0.59596 0.00100072 0.
0.59798 0.00100191 0.
0.6 0.0010031 0.
0.602022 0.00100194 0.
0.604043 0.00100078 0.
0.606058 0.00100001 0.
0.608055 0.00100046 0.
0.610052 0.00100091 0.
0.61205 0.0010011 0.
0.614048 0.00100097 0.
0.616047 0.00100085 0.
0.618046 0.00100094 0.
0.620045 0.00100113 0.
0.622044 0.00100132 0.
0.624044 0.00100117 0.
0.626043 0.00100098 0.
0.628043 0.00100078 0.
0.630043 0.00100047 0.
0.632044 0.00100016 0.
0.634045 0.001 0.
0.636047 0.00100012 0.
0.638048 0.00100024 0.
0.64005 0.00100029 0.
0.64205 0.0010003 0.
0.644051 0.0010003 0.
0.646052 0.00100062 0.
0.648053 0.00100101 0.
0.650053 0.00100138 0.
0.652054 0.00100088 0.
0.654054 0.00100039 0.
0.656055 0.00100001 0.
0.658057 0.00100001 0.
0.660058 0.001 0.
0.66206 0.00100004 0.
0.664061 0.00100014 0.
0.666063 0.00100024 0.
0.668064 0.00100054 0.
0.670065 0.00100091 0.
0.672066 0.00100129 0.
0.674068 0.00100094 0.
0.67607 0.00100053 0.
0.678072 0.0010002 0.
0.680072 0.00100035 0.
0.682072 0.0010005 0.
0.684072 0.0010006 0.
0.686073 0.00100062 0.
0.688073 0.00100064 0.
0.690074 0.00100068 0.
0.692074 0.00100074 0.
0.694075 0.0010008 0.
0.696075 0.0010007 0.
0.698075 0.00100055 0.
0.499922 0.00300242 0.
0.501923 0.00300225 0.
0.503923 0.00300196 0.
0.505924 0.00300175 0.
0.507925 0.00300188 0.
0.509925 0.00300202 0.
0.511926 0.00300174 0.
0.513927 0.00300087 0.
0.515928 0.00300001 0.
0.517929 0.00300007 0.
0.519931 0.00300064 0.
0.521932 0.00300122 0.
0.523934 0.00300107 0.
0.525935 0.0030008 0.
0.527937 0.00300063 0.
0.529938 0.00300144 0.
0.531939 0.00300225 0.
0.53394 0.00300247 0.
0.535941 0.00300142 0.
0.537942 0.00300036 0.
0.539943 0.00300003 0.
0.541946 0.00300031 0.
0.543949 0.00300059 0.
0.54595 0.00300101 0.
0.547951 0.00300149 0.
0.549952 0.00300196 0.
0.551951 0.00300254 0.
0.553951 0.00300313 0.
0.555951 0.00300337 0.
0.557951 0.00300229 0.
0.559952 0.00300121 0.
0.561953 0.00300086 0.
0.563953 0.00300145 0.
0.565954 0.00300205 0.
0.567955 0.0030017 0.
0.569957 0.00300085 0.
0.571958 0.00300001 0.
0.57396 0.00300002 0.
0.575962 0.00300015 0.
0.577964 0.00300039 0.
0.579963 0.00300166 0.
0.581963 0.00300294 0.
0.583963 0.00300407 0.
0.585961 0.00300492 0.
0.587959 0.00300576 0.
0.589957 0.00300483 0.
0.591955 0.00300242 0.
0.593953 0.00300001 0.
0.595966 0.00300218 0.
0.597983 0.00300574 0.
0.600001 0.00300931 0.
0.602019 0.00300583 0.
0.604037 0.00300235 0.
0.60605 0.00300002 0.
0.608049 0.00300137 0.
0.610048 0.00300273 0.
0.612047 0.0030033 0.
0.614046 0.00300292 0.
0.616045 0.00300255 0.
0.618045 0.00300281 0.
0.620044 0.00300338 0.
0.622044 0.00300395 0.
0.624043 0.0030035 0.
0.626042 0.00300295 0.
0.628042 0.00300235 0.
0.630042 0.00300142 0.
0.632043 0.00300049 0.
0.634044 0.003 0.
0.636047 0.00300036 0.
0.638049 0.00300071 0.
0.640051 0.00300087 0.
0.642052 0.00300089 0.
0.644052 0.00300091 0.
0.646053 0.00300185 0.
0.648053 0.00300302 0.
0.650053 0.00300413 0.
0.652052 0.00300265 0.
0.654052 0.00300116 0.
0.656052 0.00300004 0.
0.658055 0.00300002 0.
0.660058 0.003 0.
0.662061 0.00300013 0.
0.664062 0.00300043 0.
0.666064 0.00300073 0.
0.668065 0.00300162 0.
0.670066 0.00300274 0.
0.672067 0.00300387 0.
0.674068 0.00300282 0.
0.676069 0.00300159 0.
0.67807 0.0030006 0.
0.680071 0.00300104 0.
0.682072 0.00300149 0.
0.684072 0.00300179 0.
0.686073 0.00300185 0.
0.688073 0.00300192 0.
0.690074 0.00300205 0.
0.692075 0.00300223 0.
0.694075 0.0030024 0.
0.696075 0.00300209 0.
0.698076 0.00300166 0.
0.499923 0.00500403 0.
0.501923 0.00500373 0.
0.503924 0.00500325 0.
0.505925 0.00500293 0.
0.507925 0.00500314 0.
0.509926 0.00500336 0.
0.511926 0.0050029 0.
0.513927 0.00500145 0.
0.515928 0.00500001 0.
0.517929 0.0050001 0.
0.519931 0.00500107 0.
0.521934 0.00500203 0.
0.523935 0.00500178 0.
0.525935 0.00500133 0.
0.527936 0.00500104 0.
0.529937 0.00500239 0.
0.531939 0.00500375 0.
0.533939 0.00500412 0.
0.53594 0.00500236 0.
0.53794 0.0050006 0.
0.539942 0.00500005 0.
0.541946 0.00500052 0.
0.54395 0.00500098 0.
0.545951 0.00500169 0.
0.547952 0.00500248 0.
0.549952 0.00500326 0.
0.551952 0.00500423 0.
0.553951 0.00500521 0.
0.555951 0.0050056 0.
0.557951 0.00500381 0.
0.559952 0.00500201 0.
0.561953 0.00500142 0.
0.563953 0.00500242 0.
0.565954 0.00500341 0.
0.567955 0.00500282 0.
0.569956 0.00500142 0.
0.571958 0.00500002 0.
0.57396 0.00500003 0.
0.575962 0.00500024 0.
0.577965 0.00500065 0.
0.579965 0.00500277 0.
0.581965 0.0050049 0.
0.583965 0.00500678 0.
0.585963 0.00500819 0.
0.587962 0.0050096 0.
0.589961 0.00500804 0.
0.591961 0.00500402 0.
0.593961 0.00500001 0.
0.595972 0.00500364 0.
0.597986 0.00500957 0.
0.600001 0.00501549 0.
0.602015 0.0050097 0.
0.60403 0.00500392 0.
0.606042 0.00500003 0.
0.608043 0.00500229 0.
0.610044 0.00500455 0.
0.612045 0.00500549 0.
0.614044 0.00500487 0.
0.616044 0.00500425 0.
0.618043 0.00500468 0.
0.620043 0.00500563 0.
0.622043 0.00500658 0.
0.624042 0.00500583 0.
0.626041 0.00500491 0.
0.62804 0.00500391 0.
0.630041 0.00500236 0.
0.632041 0.00500081 0.
0.634043 0.00500001 0.
0.636046 0.0050006 0.
0.63805 0.00500118 0.
0.640052 0.00500145 0.
0.642053 0.00500148 0.
0.644053 0.00500152 0.
0.646053 0.00500307 0.
0.648053 0.00500503 0.
0.650053 0.00500689 0.
0.652051 0.00500442 0.
0.65405 0.00500195 0.
0.656049 0.00500007 0.
0.658054 0.00500004 0.
0.660058 0.00500001 0.
0.662061 0.00500022 0.
0.664064 0.00500072 0.
0.666066 0.00500122 0.
0.668067 0.00500269 0.
0.670067 0.00500457 0.
0.672067 0.00500645 0.
0.674068 0.0050047 0.
0.676069 0.00500264 0.
0.678069 0.005001 0.
0.68007 0.00500174 0.
0.682071 0.00500248 0.
0.684072 0.00500299 0.
0.686073 0.00500309 0.
0.688074 0.00500319 0.
0.690074 0.00500342 0.
0.692075 0.00500371 0.
0.694076 0.00500401 0.
0.696076 0.00500349 0.
0.698076 0.00500278 0.
0.499923 0.00700632 0.
0.501924 0.00700596 0.
0.503925 0.00700557 0.
0.505925 0.00700532 0.
0.507926 0.00700565 0.
0.509927 0.00700597 0.
0.511928 0.00700599 0.
0.513928 0.00700555 0.
0.515929 0.00700511 0.
0.51793 0.00700537 0.
0.519932 0.00700605 0.
0.521934 0.00700673 0.
0.523935 0.00700671 0.
0.525936 0.00700658 0.
0.527937 0.00700652 0.
0.529938 0.00700732 0.
0.531939 0.00700811 0.
0.53394 0.00700864 0.
0.535941 0.00700853 0.
0.537941 0.00700842 0.
0.539943 0.00700822 0.
0.541945 0.00700794 0.
0.543948 0.00700766 0.
0.545949 0.00700786 0.
0.54795 0.00700822 0.
0.549951 0.00700858 0.
0.551951 0.00700897 0.
0.553951 0.00700937 0.
0.555952 0.00700954 0.
0.557952 0.00700885 0.
0.559953 0.00700815 0.
0.561954 0.00700798 0.
0.563955 0.00700852 0.
0.565956 0.00700906 0.
0.567957 0.00700954 0.
0.569958 0.00701 0.
0.571959 0.00701046 0.
0.57396 0.00701043 0.
0.575962 0.00701032 0.
0.577964 0.00701028 0.
0.579965 0.00701082 0.
0.581965 0.00701137 0.
0.583966 0.00701186 0.
0.585966 0.00701225 0.
0.587966 0.00701264 0.
0.589967 0.00701126 0.
0.591968 0.00700843 0.
0.593969 0.00700561 0.
0.595978 0.00700931 0.
0.597989 0.00701493 0.
0.600001 0.00702055 0.
0.602013 0.0070148 0.
0.604025 0.00700905 0.
0.606035 0.0070052 0.
0.608037 0.00700754 0.
0.610039 0.00700988 0.
0.61204 0.00701108 0.
0.61404 0.0070109 0.
0.61604 0.00701073 0.
0.61804 0.0070108 0.
0.620041 0.00701101 0.
0.622041 0.00701123 0.
0.624041 0.00701067 0.
0.626041 0.00701005 0.
0.628041 0.00700955 0.
0.630042 0.00700986 0.
0.632042 0.00701016 0.
0.634044 0.00701018 0.
0.636046 0.00700964 0.
0.638048 0.0070091 0.
0.640049 0.0070088 0.
0.64205 0.00700869 0.
0.644051 0.00700859 0.
0.646051 0.00700906 0.
0.648052 0.00700968 0.
0.650053 0.00701029 0.
0.652053 0.00700997 0.
0.654052 0.00700965 0.
0.656053 0.00700957 0.
0.658055 0.00701018 0.
0.660057 0.0070108 0.
0.662059 0.00701073 0.
0.664061 0.00700987 0.
0.666063 0.00700901 0.
0.668064 0.0070091 0.
0.670065 0.00700962 0.
0.672065 0.00701014 0.
0.674066 0.0070087 0.
0.676067 0.00700709 0.
0.678068 0.00700572 0.
0.68007 0.00700578 0.
0.682071 0.00700584 0.
0.684072 0.00700598 0.
0.686072 0.00700622 0.
0.688073 0.00700646 0.
0.690073 0.00700651 0.
0.692074 0.00700642 0.
0.694075 0.00700632 0.
0.696075 0.00700618 0.
0.698076 0.00700602 0.
0.499923 0.00900851 0.
0.501924 0.00900819 0.
0.503925 0.00900789 0.
0.505926 0.00900772 0.
0.507927 0.00900815 0.
0.509928 0.00900858 0.
0.511929 0.00900908 0.
0.51393 0.00900964 0.
0.51593 0.00901021 0.
0.517931 0.00901064 0.
0.519933 0.00901103 0.
0.521934 0.00901142 0.
0.523935 0.00901165 0.
0.525936 0.00901184 0.
0.527938 0.009012 0.
0.529939 0.00901224 0.
0.531939 0.00901248 0.
0.53394 0.00901316 0.
0.535941 0.00901469 0.
0.537942 0.00901623 0.
0.539944 0.00901639 0.
0.541945 0.00901536 0.
0.543946 0.00901433 0.
0.545947 0.00901403 0.
0.547948 0.00901396 0.
0.549949 0.00901389 0.
0.551951 0.00901372 0.
0.553952 0.00901354 0.
0.555953 0.00901348 0.
0.557953 0.00901389 0.
0.559954 0.00901429 0.
0.561955 0.00901453 0.
0.563956 0.00901462 0.
0.565958 0.00901471 0.
0.567959 0.00901624 0.
0.569959 0.00901857 0.
0.57196 0.00902089 0.
0.573961 0.00902083 0.
0.575962 0.00902041 0.
0.577963 0.00901991 0.
0.579965 0.00901887 0.
0.581966 0.00901784 0.
0.583967 0.00901694 0.
0.585969 0.00901631 0.
0.587971 0.00901569 0.
0.589973 0.00901448 0.
0.591975 0.00901284 0.
0.593978 0.00901121 0.
0.595984 0.00901498 0.
0.597993 0.0090203 0.
0.600001 0.0090256 0.
0.60201 0.00901989 0.
0.60402 0.00901419 0.
0.606028 0.00901036 0.
0.60803 0.00901279 0.
0.610033 0.00901521 0.
0.612034 0.00901666 0.
0.614036 0.00901693 0.
0.616037 0.00901721 0.
0.618037 0.00901692 0.
0.620038 0.00901639 0.
0.622039 0.00901587 0.
0.62404 0.00901552 0.
0.626041 0.0090152 0.
0.628042 0.00901519 0.
0.630043 0.00901735 0.
0.632044 0.00901951 0.
0.634044 0.00902035 0.
0.636045 0.00901868 0.
0.638046 0.00901701 0.
0.640047 0.00901616 0.
0.642047 0.00901591 0.
0.644048 0.00901565 0.
0.64605 0.00901505 0.
0.648051 0.00901435 0.
0.650053 0.00901369 0.
0.652054 0.00901552 0.
0.654055 0.00901736 0.
0.656056 0.00901906 0.
0.658056 0.00902033 0.
0.660056 0.00902159 0.
0.662057 0.00902124 0.
0.664058 0.00901902 0.
0.666059 0.00901679 0.
0.66806 0.00901551 0.
0.670062 0.00901466 0.
0.672063 0.00901383 0.
0.674065 0.0090127 0.
0.676066 0.00901154 0.
0.678068 0.00901043 0.
0.680069 0.00900981 0.
0.68207 0.0090092 0.
0.684071 0.00900898 0.
0.686071 0.00900936 0.
0.688071 0.00900974 0.
0.690072 0.0090096 0.
0.692073 0.00900912 0.
0.694074 0.00900864 0.
0.696075 0.00900887 0.
0.698076 0.00900928 0.
0.499924 0.0110101 0.
0.501925 0.0110099 0.
0.503926 0.0110096 0.
0.505927 0.0110094 0.
0.507928 0.0110099 0.
0.509929 0.0110104 0.
0.51193 0.0110111 0.
0.513931 0.011012 0.
0.515931 0.0110129 0.
0.517932 0.0110134 0.
0.519933 0.0110138 0.
0.521934 0.0110142 0.
0.523935 0.0110146 0.
0.525937 0.0110149 0.
0.527938 0.0110152 0.
0.529939 0.0110151 0.
0.53194 0.011015 0.
0.533941 0.0110157 0.
0.535942 0.0110179 0.
0.537943 0.0110201 0.
0.539944 0.0110204 0.
0.541945 0.0110192 0.
0.543945 0.011018 0.
0.545946 0.0110175 0.
0.547948 0.0110172 0.
0.549949 0.0110168 0.
0.55195 0.0110164 0.
0.553952 0.011016 0.
0.555953 0.0110159 0.
0.557954 0.0110168 0.
0.559955 0.0110177 0.
0.561956 0.0110182 0.
0.563957 0.0110182 0.
0.565958 0.0110183 0.
0.567959 0.0110199 0.
0.56996 0.0110225 0.
0.571961 0.011025 0.
0.573962 0.0110251 0.
0.575963 0.0110248 0.
0.577965 0.0110244 0.
0.579966 0.0110226 0.
0.581968 0.0110209 0.
0.583969 0.0110193 0.
0.585972 0.0110182 0.
0.587974 0.0110172 0.
0.589977 0.0110161 0.
0.59198 0.0110151 0.
0.593983 0.0110141 0.
0.595989 0.0110173 0.
0.597995 0.0110215 0.
0.600001 0.0110258 0.
0.602008 0.0110211 0.
0.604016 0.0110165 0.
0.606022 0.0110134 0.
0.608025 0.0110155 0.
0.610028 0.0110176 0.
0.61203 0.011019 0.
0.614032 0.0110196 0.
0.616033 0.0110202 0.
0.618035 0.0110199 0.
0.620036 0.0110193 0.
0.622037 0.0110186 0.
0.624038 0.0110185 0.
0.62604 0.0110184 0.
0.628041 0.0110186 0.
0.630042 0.0110213 0.
0.632043 0.011024 0.
0.634044 0.0110251 0.
0.636044 0.0110231 0.
0.638044 0.0110212 0.
0.640045 0.0110201 0.
0.642046 0.0110196 0.
0.644047 0.0110191 0.
0.646048 0.0110182 0.
0.648051 0.0110171 0.
0.650053 0.0110161 0.
0.652054 0.0110188 0.
0.654056 0.0110215 0.
0.656057 0.0110238 0.
0.658056 0.0110251 0.
0.660056 0.0110263 0.
0.662056 0.0110259 0.
0.664057 0.0110234 0.
0.666058 0.0110209 0.
0.668059 0.011019 0.
0.670061 0.0110176 0.
0.672062 0.0110161 0.
0.674064 0.0110151 0.
0.676066 0.0110142 0.
0.678067 0.0110132 0.
0.680068 0.0110123 0.
0.682069 0.0110115 0.
0.68407 0.0110111 0.
0.68607 0.0110115 0.
0.68807 0.0110118 0.
0.690071 0.0110117 0.
0.692072 0.0110111 0.
0.694074 0.0110105 0.
0.696074 0.0110109 0.
0.698075 0.0110115 0.
0.499925 0.0130113 0.
0.501925 0.013011 0.
0.503926 0.0130106 0.
0.505927 0.0130104 0.
0.507928 0.0130109 0.
0.50993 0.0130115 0.
0.511931 0.013012 0.
0.513931 0.0130126 0.
0.515932 0.0130132 0.
0.517932 0.0130138 0.
0.519933 0.0130144 0.
0.521934 0.013015 0.
0.523935 0.0130154 0.
0.525936 0.0130158 0.
0.527938 0.0130162 0.
0.529939 0.013016 0.
0.53194 0.0130158 0.
0.533941 0.0130163 0.
0.535942 0.0130181 0.
0.537943 0.0130199 0.
0.539944 0.0130204 0.
0.541945 0.0130195 0.
0.543946 0.0130187 0.
0.545947 0.0130182 0.
0.547948 0.0130178 0.
0.549949 0.0130174 0.
0.551951 0.0130171 0.
0.553952 0.0130168 0.
0.555953 0.0130168 0.
0.557954 0.0130176 0.
0.559956 0.0130184 0.
0.561957 0.013019 0.
0.563957 0.0130194 0.
0.565958 0.0130198 0.
0.567959 0.0130206 0.
0.569961 0.0130217 0.
0.571962 0.0130228 0.
0.573964 0.0130233 0.
0.575966 0.0130236 0.
0.577968 0.0130238 0.
0.579969 0.0130221 0.
0.581971 0.0130205 0.
0.583973 0.0130191 0.
0.585975 0.0130181 0.
0.587977 0.013017 0.
0.58998 0.0130161 0.
0.591983 0.0130152 0.
0.593986 0.0130143 0.
0.595991 0.0130161 0.
0.597996 0.0130187 0.
0.600002 0.0130213 0.
0.602007 0.0130186 0.
0.604013 0.0130159 0.
0.606018 0.0130142 0.
0.608021 0.0130156 0.
0.610023 0.013017 0.
0.612026 0.0130181 0.
0.614028 0.0130188 0.
0.61603 0.0130196 0.
0.618032 0.0130198 0.
0.620033 0.0130196 0.
0.622035 0.0130194 0.
0.624036 0.0130194 0.
0.626038 0.0130195 0.
0.628039 0.0130198 0.
0.63004 0.0130218 0.
0.632041 0.0130237 0.
0.634042 0.0130245 0.
0.636043 0.0130231 0.
0.638044 0.0130217 0.
0.640045 0.0130206 0.
0.642045 0.0130198 0.
0.644046 0.013019 0.
0.646048 0.0130185 0.
0.64805 0.0130181 0.
0.650052 0.0130176 0.
0.652053 0.0130199 0.
0.654055 0.0130221 0.
0.656056 0.013024 0.
0.658056 0.0130246 0.
0.660056 0.0130252 0.
0.662057 0.0130247 0.
0.664058 0.013023 0.
0.666059 0.0130212 0.
0.66806 0.0130197 0.
0.670061 0.0130183 0.
0.672062 0.0130169 0.
0.674064 0.0130159 0.
0.676065 0.0130149 0.
0.678067 0.013014 0.
0.680068 0.0130133 0.
0.682069 0.0130126 0.
0.684069 0.0130123 0.
0.68607 0.0130125 0.
0.68807 0.0130128 0.
0.690071 0.0130127 0.
0.692072 0.0130123 0.
0.694073 0.013012 0.
0.696074 0.0130122 0.
0.698074 0.0130126 0.
0.499925 0.0150124 0.
0.501926 0.0150121 0.
0.503927 0.0150116 0.
0.505928 0.0150113 0.
0.507929 0.0150119 0.
0.50993 0.0150125 0.
0.511931 0.015013 0.
0.513932 0.0150132 0.
0.515932 0.0150135 0.
0.517933 0.0150141 0.
0.519933 0.0150149 0.
0.521934 0.0150158 0.
0.523935 0.0150163 0.
0.525936 0.0150167 0.
0.527938 0.0150171 0.
0.529939 0.0150169 0.
0.53194 0.0150166 0.
0.533941 0.0150168 0.
0.535942 0.0150183 0.
0.537943 0.0150198 0.
0.539944 0.0150203 0.
0.541946 0.0150199 0.
0.543947 0.0150194 0.
0.545948 0.015019 0.
0.547949 0.0150185 0.
0.549949 0.0150179 0.
0.551951 0.0150178 0.
0.553952 0.0150176 0.
0.555953 0.0150177 0.
0.557955 0.0150183 0.
0.559956 0.015019 0.
0.561957 0.0150198 0.
0.563957 0.0150205 0.
0.565957 0.0150212 0.
0.567959 0.0150213 0.
0.569961 0.015021 0.
0.571963 0.0150207 0.
0.573966 0.0150215 0.
0.575968 0.0150224 0.
0.577971 0.0150231 0.
0.579973 0.0150217 0.
0.581974 0.0150202 0.
0.583976 0.0150189 0.
0.585978 0.0150179 0.
0.58798 0.0150169 0.
0.589983 0.015016 0.
0.591985 0.0150153 0.
0.593988 0.0150145 0.
0.595993 0.015015 0.
0.597998 0.0150159 0.
0.600003 0.0150167 0.
0.602006 0.0150161 0.
0.60401 0.0150154 0.
0.606013 0.015015 0.
0.608016 0.0150157 0.
0.610019 0.0150164 0.
0.612022 0.0150171 0.
0.614024 0.0150181 0.
0.616027 0.0150191 0.
0.618029 0.0150196 0.
0.620031 0.0150199 0.
0.622033 0.0150202 0.
0.624034 0.0150204 0.
0.626036 0.0150206 0.
0.628037 0.015021 0.
0.630038 0.0150222 0.
0.632039 0.0150234 0.
0.63404 0.0150239 0.
0.636042 0.015023 0.
0.638043 0.0150221 0.
0.640044 0.0150211 0.
0.642045 0.01502 0.
0.644046 0.015019 0.
0.646048 0.0150189 0.
0.648049 0.015019 0.
0.650051 0.0150191 0.
0.652052 0.015021 0.
0.654053 0.0150228 0.
0.656054 0.0150241 0.
0.658055 0.0150241 0.
0.660056 0.015024 0.
0.662058 0.0150236 0.
0.664059 0.0150226 0.
0.666061 0.0150216 0.
0.668061 0.0150204 0.
0.670062 0.0150191 0.
0.672062 0.0150178 0.
0.674064 0.0150167 0.
0.676065 0.0150157 0.
0.678066 0.0150147 0.
0.680067 0.0150143 0.
0.682068 0.0150138 0.
0.684068 0.0150135 0.
0.686069 0.0150136 0.
0.688069 0.0150137 0.
0.69007 0.0150137 0.
0.692071 0.0150136 0.
0.694073 0.0150134 0.
0.696073 0.0150135 0.
0.698073 0.0150137 0.
0.499926 0.0170139 0.
0.501927 0.0170135 0.
0.503928 0.017013 0.
0.505929 0.0170127 0.
0.50793 0.0170132 0.
0.50993 0.0170137 0.
0.511931 0.0170141 0.
0.513932 0.0170144 0.
0.515932 0.0170147 0.
0.517933 0.0170152 0.
0.519933 0.0170159 0.
0.521934 0.0170166 0.
0.523935 0.017017 0.
0.525936 0.0170173 0.
0.527937 0.0170176 0.
0.529938 0.0170176 0.
0.53194 0.0170176 0.
0.533941 0.0170179 0.
0.535942 0.0170189 0.
0.537943 0.0170199 0.
0.539945 0.0170203 0.
0.541946 0.01702 0.
0.543948 0.0170197 0.
0.545949 0.0170194 0.
0.54795 0.017019 0.
0.549951 0.0170186 0.
0.551952 0.0170184 0.
0.553953 0.0170182 0.
0.555954 0.0170181 0.
0.557955 0.0170189 0.
0.559957 0.0170197 0.
0.561958 0.0170204 0.
0.563958 0.017021 0.
0.565959 0.0170215 0.
0.567961 0.0170216 0.
0.569963 0.0170215 0.
0.571965 0.0170214 0.
0.573967 0.017022 0.
0.575969 0.0170227 0.
0.577971 0.0170232 0.
0.579973 0.0170215 0.
0.581975 0.0170199 0.
0.583977 0.0170185 0.
0.58598 0.0170175 0.
0.587982 0.0170166 0.
0.589985 0.0170157 0.
0.591987 0.0170151 0.
0.59399 0.0170144 0.
0.595994 0.0170147 0.
0.597998 0.0170153 0.
0.600002 0.0170158 0.
0.602006 0.0170157 0.
0.604009 0.0170155 0.
0.606012 0.0170153 0.
0.608015 0.0170156 0.
0.610018 0.0170158 0.
0.61202 0.0170164 0.
0.614023 0.0170175 0.
0.616025 0.0170187 0.
0.618027 0.0170194 0.
0.620029 0.0170199 0.
0.622031 0.0170204 0.
0.624033 0.0170208 0.
0.626034 0.0170212 0.
0.628036 0.0170217 0.
0.630037 0.0170224 0.
0.632038 0.0170231 0.
0.63404 0.0170234 0.
0.636041 0.0170229 0.
0.638043 0.0170224 0.
0.640044 0.0170218 0.
0.642045 0.017021 0.
0.644045 0.0170202 0.
0.646047 0.0170202 0.
0.648049 0.0170205 0.
0.650051 0.0170208 0.
0.652052 0.0170219 0.
0.654053 0.0170229 0.
0.656054 0.0170238 0.
0.658055 0.0170239 0.
0.660056 0.017024 0.
0.662057 0.0170238 0.
0.664059 0.0170232 0.
0.66606 0.0170227 0.
0.668061 0.0170216 0.
0.670062 0.0170204 0.
0.672062 0.0170191 0.
0.674064 0.0170179 0.
0.676065 0.0170166 0.
0.678067 0.0170155 0.
0.680067 0.0170153 0.
0.682068 0.0170151 0.
0.684069 0.0170149 0.
0.686069 0.0170148 0.
0.68807 0.0170146 0.
0.690071 0.0170146 0.
0.692072 0.0170147 0.
0.694073 0.0170149 0.
0.696073 0.017015 0.
0.698073 0.0170152 0.
0.499927 0.0190154 0.
0.501928 0.0190149 0.
0.503929 0.0190144 0.
0.50593 0.0190141 0.
0.50793 0.0190145 0.
0.509931 0.0190149 0.
0.511931 0.0190153 0.
0.513932 0.0190156 0.
0.515932 0.0190159 0.
0.517933 0.0190164 0.
0.519934 0.019017 0.
0.521934 0.0190175 0.
0.523935 0.0190177 0.
0.525936 0.0190179 0.
0.527937 0.019018 0.
0.529938 0.0190183 0.
0.531939 0.0190186 0.
0.533941 0.019019 0.
0.535942 0.0190195 0.
0.537943 0.0190201 0.
0.539945 0.0190203 0.
0.541947 0.0190202 0.
0.543948 0.01902 0.
0.54595 0.0190198 0.
0.547951 0.0190195 0.
0.549953 0.0190192 0.
0.551953 0.019019 0.
0.553954 0.0190187 0.
0.555955 0.0190186 0.
0.557956 0.0190195 0.
0.559957 0.0190204 0.
0.561958 0.019021 0.
0.563959 0.0190214 0.
0.56596 0.0190218 0.
0.567962 0.019022 0.
0.569964 0.019022 0.
0.571966 0.0190221 0.
0.573968 0.0190225 0.
0.57597 0.0190229 0.
0.577972 0.0190232 0.
0.579974 0.0190214 0.
0.581976 0.0190197 0.
0.583978 0.0190182 0.
0.585981 0.0190172 0.
0.587984 0.0190162 0.
0.589986 0.0190155 0.
0.591989 0.0190149 0.
0.593991 0.0190143 0.
0.595995 0.0190144 0.
0.597998 0.0190147 0.
0.600002 0.0190149 0.
0.602005 0.0190152 0.
0.604008 0.0190155 0.
0.606012 0.0190157 0.
0.608014 0.0190154 0.
0.610016 0.0190152 0.
0.612018 0.0190157 0.
0.614021 0.0190169 0.
0.616023 0.0190182 0.
0.618025 0.0190192 0.
0.620027 0.0190199 0.
0.622029 0.0190207 0.
0.624031 0.0190212 0.
0.626033 0.0190218 0.
0.628035 0.0190223 0.
0.630036 0.0190226 0.
0.632037 0.0190228 0.
0.634039 0.019023 0.
0.636041 0.0190229 0.
0.638042 0.0190228 0.
0.640043 0.0190225 0.
0.642044 0.0190219 0.
0.644045 0.0190213 0.
0.646046 0.0190216 0.
0.648048 0.019022 0.
0.65005 0.0190224 0.
0.652051 0.0190228 0.
0.654052 0.0190231 0.
0.656053 0.0190234 0.
0.658054 0.0190237 0.
0.660056 0.019024 0.
0.662057 0.0190241 0.
0.664058 0.0190239 0.
0.666059 0.0190238 0.
0.66806 0.0190229 0.
0.670061 0.0190217 0.
0.672062 0.0190205 0.
0.674064 0.0190191 0.
0.676066 0.0190176 0.
0.678067 0.0190163 0.
0.680068 0.0190164 0.
0.682068 0.0190165 0.
0.684069 0.0190164 0.
0.68607 0.019016 0.
0.68807 0.0190156 0.
0.690071 0.0190156 0.
0.692072 0.0190159 0.
0.694073 0.0190163 0.
0.696073 0.0190165 0.
0.698074 0.0190168 0.
0.499927 0.0210168 0.
0.501928 0.0210162 0.
0.503929 0.0210156 0.
0.50593 0.0210151 0.
0.507931 0.0210155 0.
0.509931 0.0210158 0.
0.511931 0.0210162 0.
0.513932 0.0210167 0.
0.515933 0.0210171 0.
0.517933 0.0210174 0.
0.519934 0.0210178 0.
0.521934 0.0210181 0.
0.523935 0.0210182 0.
0.525937 0.0210182 0.
0.527938 0.0210182 0.
0.529939 0.0210188 0.
0.53194 0.0210193 0.
0.533941 0.0210198 0.
0.535942 0.02102 0.
0.537944 0.0210203 0.
0.539946 0.0210203 0.
0.541947 0.0210201 0.
0.543949 0.02102 0.
0.54595 0.0210198 0.
0.547952 0.0210197 0.
0.549953 0.0210195 0.
0.551954 0.0210194 0.
0.553955 0.0210193 0.
0.555956 0.0210194 0.
0.557957 0.0210201 0.
0.559958 0.0210209 0.
0.561959 0.0210214 0.
0.563961 0.0210215 0.
0.565962 0.0210216 0.
0.567964 0.0210217 0.
0.569965 0.0210218 0.
0.571967 0.0210219 0.
0.573969 0.0210222 0.
0.575971 0.0210227 0.
0.577973 0.0210229 0.
0.579975 0.0210212 0.
0.581977 0.0210196 0.
0.583979 0.0210181 0.
0.585982 0.0210169 0.
0.587985 0.0210158 0.
0.589988 0.0210151 0.
0.59199 0.0210146 0.
0.593992 0.0210142 0.
0.595995 0.0210141 0.
0.597998 0.0210141 0.
0.600001 0.0210142 0.
0.602005 0.0210148 0.
0.604008 0.0210153 0.
0.606011 0.0210157 0.
0.608013 0.0210154 0.
0.610015 0.0210151 0.
0.612017 0.0210154 0.
0.614019 0.0210164 0.
0.616021 0.0210175 0.
0.618024 0.0210185 0.
0.620025 0.0210195 0.
0.622027 0.0210206 0.
0.62403 0.0210212 0.
0.626032 0.0210217 0.
0.628034 0.0210223 0.
0.630035 0.0210223 0.
0.632037 0.0210224 0.
0.634038 0.0210225 0.
0.63604 0.0210227 0.
0.638042 0.0210229 0.
0.640043 0.0210228 0.
0.642043 0.0210225 0.
0.644044 0.0210222 0.
0.646046 0.0210225 0.
0.648047 0.0210228 0.
0.650049 0.0210232 0.
0.65205 0.0210231 0.
0.654051 0.021023 0.
0.656052 0.021023 0.
0.658053 0.0210233 0.
0.660055 0.0210236 0.
0.662057 0.0210238 0.
0.664058 0.0210239 0.
0.666059 0.0210241 0.
0.66806 0.0210235 0.
0.670061 0.0210225 0.
0.672062 0.0210216 0.
0.674064 0.0210201 0.
0.676065 0.0210186 0.
0.678067 0.0210173 0.
0.680067 0.0210173 0.
0.682068 0.0210173 0.
0.684069 0.0210172 0.
0.68607 0.0210168 0.
0.68807 0.0210165 0.
0.690071 0.0210166 0.
0.692072 0.0210172 0.
0.694073 0.0210177 0.
0.696073 0.021018 0.
0.698074 0.0210184 0.
0.499928 0.023018 0.
0.501929 0.0230173 0.
0.503929 0.0230165 0.
0.50593 0.0230158 0.
0.507931 0.0230162 0.
0.509931 0.0230165 0.
0.511932 0.023017 0.
0.513932 0.0230176 0.
0.515933 0.0230182 0.
0.517934 0.0230184 0.
0.519934 0.0230184 0.
0.521935 0.0230183 0.
0.523936 0.0230182 0.
0.525937 0.0230182 0.
0.527938 0.0230182 0.
0.52994 0.0230189 0.
0.531941 0.0230197 0.
0.533942 0.0230203 0.
0.535944 0.0230204 0.
0.537945 0.0230205 0.
0.539947 0.0230204 0.
0.541948 0.0230199 0.
0.543949 0.0230195 0.
0.545951 0.0230194 0.
0.547952 0.0230195 0.
0.549953 0.0230195 0.
0.551954 0.0230198 0.
0.553956 0.0230201 0.
0.555958 0.0230204 0.
0.557958 0.0230208 0.
0.559959 0.0230212 0.
0.56196 0.0230214 0.
0.563962 0.0230212 0.
0.565964 0.0230211 0.
0.567965 0.023021 0.
0.569967 0.0230208 0.
0.571969 0.0230207 0.
0.573971 0.0230212 0.
0.575973 0.0230218 0.
0.577975 0.0230222 0.
0.579977 0.0230209 0.
0.58198 0.0230196 0.
0.583982 0.0230182 0.
0.585984 0.0230168 0.
0.587987 0.0230153 0.
0.589989 0.0230145 0.
0.591991 0.0230142 0.
0.593993 0.0230139 0.
0.595996 0.0230138 0.
0.597999 0.0230137 0.
0.600001 0.0230136 0.
0.602004 0.0230142 0.
0.604008 0.0230148 0.
0.606011 0.0230153 0.
0.608013 0.0230153 0.
0.610015 0.0230153 0.
0.612017 0.0230156 0.
0.614019 0.023016 0.
0.616021 0.0230164 0.
0.618023 0.0230175 0.
0.620024 0.0230188 0.
0.622026 0.0230202 0.
0.624028 0.0230207 0.
0.62603 0.0230211 0.
0.628032 0.0230214 0.
0.630034 0.0230216 0.
0.632035 0.0230218 0.
0.634037 0.023022 0.
0.636039 0.0230224 0.
0.63804 0.0230227 0.
0.640042 0.0230228 0.
0.642043 0.0230228 0.
0.644043 0.0230228 0.
0.646045 0.0230229 0.
0.648047 0.0230229 0.
0.650048 0.0230229 0.
0.652049 0.0230228 0.
0.65405 0.0230226 0.
0.656051 0.0230225 0.
0.658053 0.0230226 0.
0.660054 0.0230227 0.
0.662056 0.0230229 0.
0.664057 0.0230233 0.
0.666059 0.0230236 0.
0.66806 0.0230233 0.
0.670061 0.0230228 0.
0.672062 0.0230222 0.
0.674063 0.0230209 0.
0.676064 0.0230196 0.
0.678065 0.0230183 0.
0.680066 0.023018 0.
0.682067 0.0230176 0.
0.684068 0.0230174 0.
0.686069 0.0230174 0.
0.68807 0.0230174 0.
0.690071 0.0230178 0.
0.692072 0.0230184 0.
0.694072 0.0230191 0.
0.696073 0.0230195 0.
0.698074 0.0230199 0.
0.499928 0.0250193 0.
0.501929 0.0250185 0.
0.50393 0.0250174 0.
0.50593 0.0250165 0.
0.507931 0.0250168 0.
0.509931 0.0250172 0.
0.511932 0.0250177 0.
0.513933 0.0250186 0.
0.515933 0.0250194 0.
0.517934 0.0250194 0.
0.519935 0.0250189 0.
0.521935 0.0250185 0.
0.523936 0.0250183 0.
0.525938 0.0250182 0.
0.527939 0.0250181 0.
0.52994 0.0250191 0.
0.531942 0.0250201 0.
0.533943 0.0250208 0.
0.535945 0.0250208 0.
0.537946 0.0250208 0.
0.539947 0.0250204 0.
0.541949 0.0250197 0.
0.54395 0.025019 0.
0.545951 0.025019 0.
0.547951 0.0250192 0.
0.549952 0.0250195 0.
0.551955 0.0250202 0.
0.553957 0.0250209 0.
0.555959 0.0250215 0.
0.55796 0.0250215 0.
0.559961 0.0250215 0.
0.561962 0.0250214 0.
0.563964 0.025021 0.
0.565966 0.0250206 0.
0.567967 0.0250202 0.
0.569968 0.0250199 0.
0.57197 0.0250196 0.
0.573972 0.0250202 0.
0.575974 0.025021 0.
0.577977 0.0250216 0.
0.579979 0.0250206 0.
0.581982 0.0250197 0.
0.583985 0.0250184 0.
0.585986 0.0250166 0.
0.587988 0.0250148 0.
0.58999 0.0250139 0.
0.591992 0.0250138 0.
0.593994 0.0250136 0.
0.595996 0.0250134 0.
0.597999 0.0250132 0.
0.600001 0.025013 0.
0.602004 0.0250137 0.
0.604007 0.0250143 0.
0.60601 0.0250149 0.
0.608012 0.0250153 0.
0.610014 0.0250156 0.
0.612016 0.0250157 0.
0.614018 0.0250156 0.
0.61602 0.0250154 0.
0.618022 0.0250165 0.
0.620023 0.0250181 0.
0.622025 0.0250198 0.
0.624027 0.0250201 0.
0.626029 0.0250204 0.
0.628031 0.0250206 0.
0.630033 0.0250209 0.
0.632034 0.0250212 0.
0.634036 0.0250216 0.
0.636038 0.025022 0.
0.638039 0.0250225 0.
0.640041 0.0250228 0.
0.642042 0.0250231 0.
0.644043 0.0250234 0.
0.646044 0.0250232 0.
0.648046 0.025023 0.
0.650047 0.0250227 0.
0.652048 0.0250225 0.
0.654049 0.0250223 0.
0.656051 0.025022 0.
0.658052 0.025022 0.
0.660054 0.0250219 0.
0.662055 0.0250221 0.
0.664057 0.0250226 0.
0.666059 0.0250232 0.
0.66806 0.0250232 0.
0.670061 0.025023 0.
0.672063 0.0250228 0.
0.674063 0.0250217 0.
0.676064 0.0250206 0.
0.678064 0.0250194 0.
0.680065 0.0250187 0.
0.682067 0.025018 0.
0.684068 0.0250176 0.
0.686068 0.025018 0.
0.688069 0.0250183 0.
0.69007 0.0250189 0.
0.692071 0.0250197 0.
0.694072 0.0250205 0.
0.696073 0.025021 0.
0.698074 0.0250215 0.
0.499929 0.0270209 0.
0.50193 0.0270198 0.
0.50393 0.0270185 0.
0.505931 0.0270175 0.
0.507931 0.0270177 0.
0.509932 0.0270179 0.
0.511933 0.0270183 0.
0.513933 0.0270188 0.
0.515934 0.0270194 0.
0.517935 0.0270194 0.
0.519936 0.0270191 0.
0.521936 0.0270188 0.
0.523938 0.0270188 0.
0.525939 0.0270187 0.
0.527941 0.0270187 0.
0.529942 0.0270193 0.
0.531943 0.0270198 0.
0.533944 0.0270202 0.
0.535946 0.0270203 0.
0.537947 0.0270203 0.
0.539948 0.0270203 0.
0.541949 0.02702 0.
0.54395 0.0270198 0.
0.545951 0.0270197 0.
0.547952 0.0270195 0.
0.549953 0.0270193 0.
0.551955 0.0270201 0.
0.553957 0.0270208 0.
0.555959 0.0270214 0.
0.55796 0.0270215 0.
0.559961 0.0270217 0.
0.561963 0.0270214 0.
0.563964 0.0270206 0.
0.565966 0.0270199 0.
0.567968 0.0270196 0.
0.569969 0.0270196 0.
0.571971 0.0270196 0.
0.573973 0.0270197 0.
0.575975 0.0270199 0.
0.577977 0.02702 0.
0.57998 0.0270194 0.
0.581983 0.0270188 0.
0.583985 0.0270178 0.
0.585987 0.0270163 0.
0.587988 0.0270147 0.
0.58999 0.0270139 0.
0.591992 0.0270137 0.
0.593994 0.0270135 0.
0.595996 0.0270133 0.
0.597999 0.0270132 0.
0.600001 0.027013 0.
0.602004 0.0270134 0.
0.604007 0.0270139 0.
0.60601 0.0270143 0.
0.608012 0.0270147 0.
0.610014 0.0270151 0.
0.612016 0.0270154 0.
0.614017 0.0270155 0.
0.616019 0.0270157 0.
0.61802 0.0270165 0.
0.620022 0.0270176 0.
0.622024 0.0270187 0.
0.624026 0.0270191 0.
0.626028 0.0270194 0.
0.62803 0.0270198 0.
0.630032 0.0270202 0.
0.632034 0.0270206 0.
0.634035 0.0270211 0.
0.636037 0.0270216 0.
0.638038 0.0270221 0.
0.64004 0.0270225 0.
0.642041 0.0270227 0.
0.644043 0.0270229 0.
0.646044 0.0270228 0.
0.648046 0.0270226 0.
0.650047 0.0270224 0.
0.652048 0.0270222 0.
0.654049 0.0270219 0.
0.65605 0.0270218 0.
0.658052 0.0270219 0.
0.660053 0.0270221 0.
0.662055 0.0270223 0.
0.664056 0.0270227 0.
0.666058 0.027023 0.
0.668059 0.0270232 0.
0.670061 0.0270232 0.
0.672062 0.0270232 0.
0.674063 0.027022 0.
0.676063 0.0270207 0.
0.678064 0.0270195 0.
0.680065 0.027019 0.
0.682066 0.0270185 0.
0.684067 0.0270184 0.
0.686068 0.0270189 0.
0.688068 0.0270194 0.
0.690069 0.02702 0.
0.69207 0.0270208 0.
0.694071 0.0270215 0.
0.696072 0.0270222 0.
0.698073 0.027023 0.
0.49993 0.0290226 0.
0.50193 0.0290211 0.
0.503931 0.0290196 0.
0.505932 0.0290184 0.
0.507932 0.0290186 0.
0.509933 0.0290187 0.
0.511933 0.0290189 0.
0.513934 0.0290191 0.
0.515934 0.0290193 0.
0.517935 0.0290193 0.
0.519937 0.0290192 0.
0.521938 0.0290192 0.
0.523939 0.0290192 0.
0.525941 0.0290193 0.
0.527943 0.0290194 0.
0.529943 0.0290194 0.
0.531944 0.0290195 0.
0.533945 0.0290196 0.
0.535947 0.0290198 0.
0.537948 0.0290199 0.
0.539949 0.0290201 0.
0.54195 0.0290203 0.
0.543951 0.0290206 0.
0.545952 0.0290203 0.
0.547953 0.0290198 0.
0.549954 0.0290192 0.
0.551956 0.02902 0.
0.553957 0.0290207 0.
0.555958 0.0290213 0.
0.55796 0.0290216 0.
0.559962 0.0290218 0.
0.561964 0.0290214 0.
0.563965 0.0290203 0.
0.565967 0.0290192 0.
0.567968 0.029019 0.
0.56997 0.0290193 0.
0.571972 0.0290196 0.
0.573974 0.0290192 0.
0.575976 0.0290188 0.
0.577978 0.0290185 0.
0.57998 0.0290182 0.
0.581983 0.0290179 0.
0.583985 0.0290173 0.
0.585987 0.0290159 0.
0.587988 0.0290146 0.
0.58999 0.0290139 0.
0.591992 0.0290136 0.
0.593994 0.0290133 0.
0.595996 0.0290132 0.
0.597998 0.0290131 0.
0.600001 0.029013 0.
0.602004 0.0290132 0.
0.604007 0.0290134 0.
0.60601 0.0290136 0.
0.608011 0.0290141 0.
0.610013 0.0290146 0.
0.612015 0.0290151 0.
0.614016 0.0290155 0.
0.616017 0.0290159 0.
0.618019 0.0290165 0.
0.620021 0.0290171 0.
0.622022 0.0290177 0.
0.624025 0.0290181 0.
0.626027 0.0290185 0.
0.62803 0.0290189 0.
0.630031 0.0290195 0.
0.632033 0.02902 0.
0.634035 0.0290206 0.
0.636036 0.0290212 0.
0.638037 0.0290217 0.
0.640039 0.0290221 0.
0.64204 0.0290223 0.
0.644042 0.0290225 0.
0.646044 0.0290224 0.
0.648045 0.0290223 0.
0.650047 0.0290221 0.
0.652048 0.0290219 0.
0.654049 0.0290216 0.
0.65605 0.0290215 0.
0.658051 0.0290219 0.
0.660053 0.0290223 0.
0.662054 0.0290226 0.
0.664055 0.0290227 0.
0.666057 0.0290229 0.
0.668059 0.0290231 0.
0.67006 0.0290233 0.
0.672062 0.0290235 0.
0.674063 0.0290222 0.
0.676063 0.0290208 0.
0.678064 0.0290195 0.
0.680065 0.0290193 0.
0.682066 0.029019 0.
0.684067 0.0290191 0.
0.686067 0.0290198 0.
0.688068 0.0290205 0.
0.690068 0.0290212 0.
0.692069 0.0290218 0.
0.69407 0.0290224 0.
0.69607 0.0290234 0.
0.698071 0.0290245 0.
0.499931 0.0310237 0.
0.501931 0.0310221 0.
0.503932 0.0310208 0.
0.505933 0.0310196 0.
0.507933 0.0310196 0.
0.509933 0.0310196 0.
0.511934 0.0310196 0.
0.513935 0.0310196 0.
0.515936 0.0310197 0.
0.517937 0.0310196 0.
0.519938 0.0310195 0.
0.521939 0.0310194 0.
0.523941 0.0310195 0.
0.525942 0.0310196 0.
0.527943 0.0310197 0.
0.529944 0.0310196 0.
0.531945 0.0310194 0.
0.533946 0.0310194 0.
0.535948 0.0310195 0.
0.537949 0.0310197 0.
0.53995 0.03102 0.
0.541951 0.0310205 0.
0.543951 0.031021 0.
0.545953 0.0310206 0.
0.547954 0.0310199 0.
0.549955 0.0310192 0.
0.551956 0.0310199 0.
0.553957 0.0310207 0.
0.555959 0.0310213 0.
0.557961 0.0310214 0.
0.559963 0.0310215 0.
0.561965 0.0310211 0.
0.563966 0.03102 0.
0.565967 0.0310189 0.
0.567969 0.0310186 0.
0.56997 0.0310187 0.
0.571972 0.0310189 0.
0.573974 0.0310184 0.
0.575976 0.0310178 0.
0.577978 0.0310173 0.
0.579981 0.0310173 0.
0.581983 0.0310173 0.
0.583985 0.0310169 0.
0.585987 0.0310157 0.
0.587988 0.0310146 0.
0.58999 0.0310139 0.
0.591992 0.0310136 0.
0.593994 0.0310133 0.
0.595996 0.0310131 0.
0.597998 0.031013 0.
0.6 0.0310129 0.
0.602003 0.0310128 0.
0.604006 0.0310128 0.
0.606009 0.0310128 0.
0.608011 0.0310135 0.
0.610012 0.0310142 0.
0.612014 0.0310148 0.
0.614015 0.0310154 0.
0.616017 0.031016 0.
0.618018 0.0310164 0.
0.62002 0.0310166 0.
0.622021 0.0310169 0.
0.624024 0.0310173 0.
0.626026 0.0310178 0.
0.628029 0.0310183 0.
0.63003 0.0310189 0.
0.632032 0.0310195 0.
0.634034 0.0310201 0.
0.636035 0.0310207 0.
0.638036 0.0310212 0.
0.640038 0.0310216 0.
0.642039 0.0310218 0.
0.644041 0.031022 0.
0.646043 0.031022 0.
0.648045 0.0310221 0.
0.650046 0.0310221 0.
0.652047 0.0310218 0.
0.654048 0.0310216 0.
0.656049 0.0310215 0.
0.658051 0.031022 0.
0.660052 0.0310225 0.
0.662053 0.0310228 0.
0.664055 0.0310227 0.
0.666056 0.0310226 0.
0.668058 0.0310229 0.
0.670059 0.0310233 0.
0.672061 0.0310237 0.
0.674062 0.0310225 0.
0.676063 0.0310212 0.
0.678063 0.03102 0.
0.680064 0.03102 0.
0.682065 0.0310199 0.
0.684066 0.0310201 0.
0.686066 0.0310208 0.
0.688066 0.0310215 0.
0.690067 0.0310222 0.
0.692067 0.0310228 0.
0.694068 0.0310234 0.
0.696069 0.0310245 0.
0.69807 0.0310258 0.
0.499932 0.0330242 0.
0.501933 0.0330229 0.
0.503934 0.0330219 0.
0.505934 0.0330211 0.
0.507935 0.0330209 0.
0.509935 0.0330207 0.
0.511935 0.0330205 0.
0.513936 0.0330204 0.
0.515937 0.0330204 0.
0.517938 0.0330201 0.
0.519939 0.0330198 0.
0.52194 0.0330196 0.
0.523941 0.0330196 0.
0.525942 0.0330197 0.
0.527944 0.0330197 0.
0.529945 0.0330196 0.
0.531946 0.0330195 0.
0.533947 0.0330195 0.
0.535949 0.0330196 0.
0.53795 0.0330198 0.
0.539951 0.0330201 0.
0.541952 0.0330206 0.
0.543953 0.033021 0.
0.545954 0.0330206 0.
0.547955 0.0330199 0.
0.549956 0.0330191 0.
0.551957 0.0330199 0.
0.553959 0.0330207 0.
0.55596 0.0330213 0.
0.557962 0.0330211 0.
0.559964 0.0330208 0.
0.561965 0.0330204 0.
0.563967 0.0330198 0.
0.565968 0.0330191 0.
0.567969 0.0330186 0.
0.569971 0.033018 0.
0.571972 0.0330175 0.
0.573974 0.0330172 0.
0.575977 0.0330168 0.
0.577979 0.0330166 0.
0.579981 0.0330168 0.
0.581984 0.0330169 0.
0.583986 0.0330167 0.
0.585987 0.0330157 0.
0.587989 0.0330146 0.
0.58999 0.033014 0.
0.591992 0.0330137 0.
0.593993 0.0330134 0.
0.595996 0.0330132 0.
0.597998 0.0330129 0.
0.6 0.0330126 0.
0.602003 0.0330123 0.
0.604006 0.033012 0.
0.606008 0.033012 0.
0.60801 0.0330129 0.
0.610011 0.0330138 0.
0.612013 0.0330146 0.
0.614015 0.0330153 0.
0.616016 0.033016 0.
0.618018 0.0330163 0.
0.620019 0.0330163 0.
0.622021 0.0330163 0.
0.624023 0.0330168 0.
0.626025 0.0330173 0.
0.628028 0.0330179 0.
0.630029 0.0330185 0.
0.63203 0.0330191 0.
0.634032 0.0330196 0.
0.636034 0.0330201 0.
0.638035 0.0330206 0.
0.640037 0.0330209 0.
0.642038 0.0330212 0.
0.64404 0.0330215 0.
0.646042 0.0330217 0.
0.648044 0.033022 0.
0.650046 0.0330222 0.
0.652047 0.033022 0.
0.654047 0.0330217 0.
0.656048 0.0330217 0.
0.65805 0.0330222 0.
0.660051 0.0330227 0.
0.662052 0.0330228 0.
0.664054 0.0330226 0.
0.666056 0.0330224 0.
0.668057 0.0330227 0.
0.670058 0.0330232 0.
0.672059 0.0330237 0.
0.67406 0.0330229 0.
0.676062 0.0330219 0.
0.678063 0.033021 0.
0.680063 0.0330211 0.
0.682064 0.0330212 0.
0.684064 0.0330215 0.
0.686064 0.033022 0.
0.688064 0.0330225 0.
0.690065 0.033023 0.
0.692066 0.0330237 0.
0.694067 0.0330243 0.
0.696068 0.0330254 0.
0.698068 0.0330267 0.
0.499934 0.0350247 0.
0.501935 0.0350237 0.
0.503935 0.0350231 0.
0.505936 0.0350225 0.
0.507936 0.0350221 0.
0.509936 0.0350217 0.
0.511937 0.0350214 0.
0.513938 0.0350212 0.
0.515939 0.035021 0.
0.51794 0.0350207 0.
0.519941 0.0350202 0.
0.521942 0.0350197 0.
0.523942 0.0350197 0.
0.525943 0.0350197 0.
0.527944 0.0350197 0.
0.529945 0.0350197 0.
0.531947 0.0350196 0.
0.533948 0.0350196 0.
0.53595 0.0350197 0.
0.537951 0.0350199 0.
0.539952 0.0350202 0.
0.541953 0.0350206 0.
0.543955 0.035021 0.
0.545955 0.0350206 0.
0.547956 0.0350198 0.
0.549956 0.0350191 0.
0.551958 0.0350199 0.
0.55396 0.0350208 0.
0.555962 0.0350214 0.
0.557964 0.0350207 0.
0.559965 0.0350201 0.
0.561966 0.0350197 0.
0.563967 0.0350195 0.
0.565969 0.0350193 0.
0.56797 0.0350185 0.
0.569971 0.0350173 0.
0.571972 0.0350162 0.
0.573975 0.035016 0.
0.575977 0.0350159 0.
0.57798 0.0350158 0.
0.579982 0.0350162 0.
0.581984 0.0350166 0.
0.583986 0.0350166 0.
0.585987 0.0350156 0.
0.587989 0.0350146 0.
0.58999 0.035014 0.
0.591992 0.0350138 0.
0.593993 0.0350136 0.
0.595995 0.0350132 0.
0.597998 0.0350127 0.
0.6 0.0350123 0.
0.602003 0.0350118 0.
0.604005 0.0350113 0.
0.606007 0.0350112 0.
0.608009 0.0350123 0.
0.61001 0.0350135 0.
0.612012 0.0350144 0.
0.614014 0.0350152 0.
0.616016 0.035016 0.
0.618017 0.0350161 0.
0.620019 0.0350159 0.
0.622021 0.0350157 0.
0.624023 0.0350162 0.
0.626025 0.0350169 0.
0.628027 0.0350175 0.
0.630028 0.0350181 0.
0.632029 0.0350186 0.
0.63403 0.0350191 0.
0.636032 0.0350195 0.
0.638034 0.03502 0.
0.640036 0.0350203 0.
0.642037 0.0350206 0.
0.644038 0.0350209 0.
0.646041 0.0350214 0.
0.648043 0.0350219 0.
0.650045 0.0350223 0.
0.652046 0.0350221 0.
0.654046 0.0350219 0.
0.656047 0.0350219 0.
0.658048 0.0350223 0.
0.66005 0.0350228 0.
0.662051 0.0350229 0.
0.664053 0.0350225 0.
0.666055 0.0350221 0.
0.668056 0.0350224 0.
0.670057 0.0350231 0.
0.672057 0.0350237 0.
0.674059 0.0350232 0.
0.676061 0.0350225 0.
0.678062 0.035022 0.
0.680062 0.0350222 0.
0.682062 0.0350225 0.
0.684063 0.0350228 0.
0.686063 0.0350231 0.
0.688063 0.0350234 0.
0.690063 0.0350239 0.
0.692064 0.0350245 0.
0.694066 0.0350252 0.
0.696066 0.0350264 0.
0.698067 0.0350277 0.
0.499936 0.0370253 0.
0.501936 0.0370245 0.
0.503936 0.0370239 0.
0.505937 0.0370232 0.
0.507937 0.0370228 0.
0.509938 0.0370223 0.
0.511938 0.0370219 0.
0.513939 0.0370217 0.
0.515941 0.0370215 0.
0.517941 0.0370211 0.
0.519942 0.0370205 0.
0.521943 0.03702 0.
0.523943 0.0370198 0.
0.525944 0.0370197 0.
0.527944 0.0370196 0.
0.529946 0.0370195 0.
0.531947 0.0370195 0.
0.533949 0.0370195 0.
0.53595 0.0370196 0.
0.537951 0.0370196 0.
0.539953 0.0370198 0.
0.541954 0.03702 0.
0.543955 0.0370202 0.
0.545956 0.0370199 0.
0.547957 0.0370195 0.
0.549958 0.0370191 0.
0.551959 0.0370198 0.
0.553961 0.0370205 0.
0.555963 0.037021 0.
0.557964 0.0370207 0.
0.559965 0.0370204 0.
0.561967 0.03702 0.
0.563968 0.0370195 0.
0.56597 0.037019 0.
0.567971 0.037018 0.
0.569973 0.0370168 0.
0.571974 0.0370156 0.
0.573976 0.0370153 0.
0.575979 0.0370151 0.
0.577981 0.0370149 0.
0.579983 0.0370152 0.
0.581985 0.0370154 0.
0.583986 0.0370153 0.
0.585988 0.0370147 0.
0.587989 0.037014 0.
0.589991 0.0370137 0.
0.591992 0.0370137 0.
0.593994 0.0370137 0.
0.595996 0.0370132 0.
0.597998 0.0370126 0.
0.600001 0.0370121 0.
0.602003 0.0370118 0.
0.604005 0.0370116 0.
0.606007 0.0370116 0.
0.608008 0.0370122 0.
0.61001 0.0370127 0.
0.612012 0.0370134 0.
0.614013 0.0370143 0.
0.616015 0.0370151 0.
0.618017 0.0370155 0.
0.620019 0.0370155 0.
0.62202 0.0370156 0.
0.624022 0.037016 0.
0.626024 0.0370166 0.
0.628026 0.0370171 0.
0.630027 0.0370176 0.
0.632028 0.0370182 0.
0.634029 0.0370187 0.
0.636031 0.037019 0.
0.638033 0.0370193 0.
0.640035 0.0370199 0.
0.642036 0.0370205 0.
0.644038 0.0370212 0.
0.64604 0.0370214 0.
0.648042 0.0370215 0.
0.650044 0.0370215 0.
0.652044 0.0370215 0.
0.654045 0.0370216 0.
0.656046 0.0370217 0.
0.658048 0.037022 0.
0.660049 0.0370224 0.
0.66205 0.0370225 0.
0.664052 0.0370223 0.
0.666053 0.0370221 0.
0.668054 0.0370224 0.
0.670055 0.0370229 0.
0.672056 0.0370234 0.
0.674058 0.0370231 0.
0.676059 0.0370228 0.
0.67806 0.0370225 0.
0.680061 0.0370227 0.
0.682061 0.0370229 0.
0.684062 0.0370231 0.
0.686062 0.0370233 0.
0.688062 0.0370236 0.
0.690063 0.0370241 0.
0.692064 0.0370249 0.
0.694065 0.0370257 0.
0.696065 0.0370268 0.
0.698066 0.0370281 0.
0.499937 0.039026 0.
0.501937 0.0390253 0.
0.503937 0.0390247 0.
0.505938 0.039024 0.
0.507938 0.0390234 0.
0.509939 0.0390228 0.
0.51194 0.0390224 0.
0.513941 0.0390222 0.
0.515942 0.039022 0.
0.517943 0.0390215 0.
0.519943 0.0390209 0.
0.521944 0.0390202 0.
0.523944 0.0390199 0.
0.525945 0.0390197 0.
0.527945 0.0390194 0.
0.529947 0.0390194 0.
0.531948 0.0390194 0.
0.533949 0.0390194 0.
0.535951 0.0390194 0.
0.537952 0.0390194 0.
0.539953 0.0390194 0.
0.541955 0.0390194 0.
0.543956 0.0390194 0.
0.545957 0.0390193 0.
0.547958 0.0390193 0.
0.549959 0.0390192 0.
0.551961 0.0390197 0.
0.553962 0.0390203 0.
0.555963 0.0390207 0.
0.557965 0.0390207 0.
0.559966 0.0390206 0.
0.561968 0.0390203 0.
0.563969 0.0390195 0.
0.565971 0.0390187 0.
0.567973 0.0390176 0.
0.569975 0.0390163 0.
0.571976 0.039015 0.
0.573978 0.0390146 0.
0.57598 0.0390143 0.
0.577982 0.039014 0.
0.579984 0.0390141 0.
0.581985 0.0390142 0.
0.583987 0.0390141 0.
0.585988 0.0390138 0.
0.58799 0.0390134 0.
0.589991 0.0390133 0.
0.591993 0.0390135 0.
0.593994 0.0390138 0.
0.595996 0.0390133 0.
0.597999 0.0390125 0.
0.600001 0.0390118 0.
0.602003 0.0390119 0.
0.604005 0.0390119 0.
0.606007 0.039012 0.
0.608008 0.039012 0.
0.610009 0.039012 0.
0.612011 0.0390124 0.
0.614013 0.0390133 0.
0.616015 0.0390143 0.
0.618017 0.0390148 0.
0.620018 0.0390152 0.
0.62202 0.0390155 0.
0.624022 0.0390159 0.
0.626024 0.0390162 0.
0.628025 0.0390166 0.
0.630026 0.0390172 0.
0.632027 0.0390178 0.
0.634028 0.0390182 0.
0.63603 0.0390185 0.
0.638033 0.0390187 0.
0.640034 0.0390194 0.
0.642036 0.0390204 0.
0.644037 0.0390215 0.
0.646039 0.0390214 0.
0.648041 0.039021 0.
0.650042 0.0390207 0.
0.652043 0.039021 0.
0.654044 0.0390212 0.
0.656045 0.0390215 0.
0.658047 0.0390218 0.
0.660048 0.039022 0.
0.662049 0.0390222 0.
0.66405 0.0390221 0.
0.666051 0.0390221 0.
0.668052 0.0390223 0.
0.670054 0.0390227 0.
0.672055 0.039023 0.
0.674056 0.039023 0.
0.676057 0.039023 0.
0.678059 0.039023 0.
0.680059 0.0390232 0.
0.68206 0.0390233 0.
0.684061 0.0390235 0.
0.686061 0.0390236 0.
0.688062 0.0390238 0.
0.690062 0.0390243 0.
0.692063 0.0390253 0.
0.694064 0.0390262 0.
0.696065 0.0390273 0.
0.698065 0.0390284 0.
0.499939 0.0410265 0.
0.501939 0.041026 0.
0.503939 0.0410254 0.
0.505939 0.0410248 0.
0.50794 0.0410241 0.
0.509941 0.0410234 0.
0.511942 0.0410229 0.
0.513942 0.0410226 0.
0.515943 0.0410223 0.
0.517944 0.0410219 0.
0.519945 0.0410214 0.
0.521945 0.0410209 0.
0.523946 0.0410205 0.
0.525946 0.0410201 0.
0.527947 0.0410197 0.
0.529948 0.0410196 0.
0.531949 0.0410195 0.
0.53395 0.0410194 0.
0.535951 0.0410194 0.
0.537952 0.0410193 0.
0.539954 0.0410192 0.
0.541955 0.041019 0.
0.543956 0.0410187 0.
0.545958 0.0410189 0.
0.547959 0.0410192 0.
0.54996 0.0410195 0.
0.551961 0.0410198 0.
0.553963 0.0410201 0.
0.555964 0.0410203 0.
0.557965 0.0410203 0.
0.559967 0.0410203 0.
0.561968 0.04102 0.
0.56397 0.0410192 0.
0.565972 0.0410184 0.
0.567974 0.0410174 0.
0.569975 0.0410162 0.
0.571977 0.041015 0.
0.573979 0.0410144 0.
0.575981 0.041014 0.
0.577983 0.0410135 0.
0.579984 0.0410135 0.
0.581985 0.0410134 0.
0.583987 0.0410134 0.
0.585988 0.0410133 0.
0.58799 0.0410132 0.
0.589991 0.0410133 0.
0.591993 0.0410135 0.
0.593994 0.0410137 0.
0.595996 0.0410131 0.
0.597999 0.0410124 0.
0.600001 0.0410116 0.
0.602003 0.0410118 0.
0.604005 0.041012 0.
0.606007 0.0410122 0.
0.608008 0.041012 0.
0.610009 0.0410118 0.
0.612011 0.041012 0.
0.614013 0.0410127 0.
0.616015 0.0410134 0.
0.618016 0.0410141 0.
0.620018 0.0410149 0.
0.622019 0.0410156 0.
0.624021 0.0410159 0.
0.626023 0.041016 0.
0.628024 0.0410163 0.
0.630025 0.0410169 0.
0.632026 0.0410175 0.
0.634028 0.041018 0.
0.63603 0.0410182 0.
0.638032 0.0410183 0.
0.640034 0.0410191 0.
0.642035 0.0410202 0.
0.644037 0.0410213 0.
0.646038 0.0410211 0.
0.64804 0.0410206 0.
0.650042 0.0410201 0.
0.652043 0.0410205 0.
0.654043 0.0410209 0.
0.656044 0.0410213 0.
0.658046 0.0410216 0.
0.660048 0.0410219 0.
0.662049 0.0410221 0.
0.664049 0.0410221 0.
0.66605 0.0410222 0.
0.668051 0.0410224 0.
0.670053 0.0410227 0.
0.672054 0.041023 0.
0.674055 0.0410231 0.
0.676056 0.0410233 0.
0.678057 0.0410234 0.
0.680058 0.0410235 0.
0.682059 0.0410236 0.
0.68406 0.0410238 0.
0.686061 0.0410241 0.
0.688061 0.0410244 0.
0.690062 0.0410251 0.
0.692062 0.041026 0.
0.694063 0.041027 0.
0.696063 0.0410281 0.
0.698064 0.0410291 0.
0.499941 0.043027 0.
0.501941 0.0430265 0.
0.503941 0.0430261 0.
0.505941 0.0430256 0.
0.507941 0.0430249 0.
0.509942 0.0430241 0.
0.511943 0.0430235 0.
0.513944 0.0430231 0.
0.515944 0.0430226 0.
0.517945 0.0430224 0.
0.519946 0.0430222 0.
0.521947 0.043022 0.
0.523947 0.0430215 0.
0.525948 0.0430209 0.
0.527948 0.0430204 0.
0.529949 0.0430201 0.
0.53195 0.0430199 0.
0.533951 0.0430196 0.
0.535952 0.0430195 0.
0.537953 0.0430193 0.
0.539954 0.043019 0.
0.541956 0.0430187 0.
0.543957 0.0430183 0.
0.545958 0.0430187 0.
0.547959 0.0430194 0.
0.54996 0.0430201 0.
0.551962 0.04302 0.
0.553963 0.0430199 0.
0.555965 0.0430198 0.
0.557966 0.0430196 0.
0.559968 0.0430193 0.
0.561969 0.043019 0.
0.563971 0.0430186 0.
0.565973 0.0430181 0.
0.567974 0.0430174 0.
0.569976 0.0430165 0.
0.571977 0.0430156 0.
0.573979 0.0430149 0.
0.575981 0.0430141 0.
0.577983 0.0430134 0.
0.579984 0.0430133 0.
0.581986 0.0430131 0.
0.583987 0.0430131 0.
0.585988 0.0430132 0.
0.58799 0.0430134 0.
0.589991 0.0430134 0.
0.591993 0.0430134 0.
0.593994 0.0430134 0.
0.595996 0.0430129 0.
0.597999 0.0430122 0.
0.600001 0.0430115 0.
0.602003 0.0430117 0.
0.604005 0.043012 0.
0.606007 0.0430122 0.
0.608008 0.0430121 0.
0.61001 0.0430121 0.
0.612011 0.0430121 0.
0.614012 0.0430123 0.
0.616014 0.0430125 0.
0.618015 0.0430134 0.
0.620017 0.0430147 0.
0.622019 0.0430159 0.
0.62402 0.043016 0.
0.626022 0.0430159 0.
0.628024 0.043016 0.
0.630025 0.0430167 0.
0.632026 0.0430173 0.
0.634028 0.0430178 0.
0.636029 0.043018 0.
0.638031 0.0430182 0.
0.640033 0.0430188 0.
0.642034 0.0430198 0.
0.644036 0.0430207 0.
0.646038 0.0430206 0.
0.64804 0.0430202 0.
0.650042 0.0430198 0.
0.652043 0.0430202 0.
0.654044 0.0430206 0.
0.656045 0.043021 0.
0.658046 0.0430215 0.
0.660047 0.043022 0.
0.662048 0.0430222 0.
0.664049 0.0430223 0.
0.66605 0.0430223 0.
0.668051 0.0430226 0.
0.670052 0.0430229 0.
0.672053 0.0430233 0.
0.674054 0.0430234 0.
0.676055 0.0430236 0.
0.678057 0.0430237 0.
0.680058 0.0430237 0.
0.682059 0.0430238 0.
0.68406 0.0430241 0.
0.68606 0.0430247 0.
0.68806 0.0430254 0.
0.690061 0.0430262 0.
0.692061 0.0430272 0.
0.694061 0.0430282 0.
0.696061 0.0430292 0.
0.698062 0.0430301 0.
0.499942 0.0450274 0.
0.501942 0.045027 0.
0.503942 0.0450268 0.
0.505942 0.0450264 0.
0.507943 0.0450256 0.
0.509944 0.0450248 0.
0.511944 0.0450241 0.
0.513945 0.0450235 0.
0.515946 0.0450229 0.
0.517947 0.0450228 0.
0.519947 0.0450229 0.
0.521948 0.0450231 0.
0.523949 0.0450225 0.
0.52595 0.0450218 0.
0.52795 0.0450211 0.
0.529951 0.0450207 0.
0.531951 0.0450202 0.
0.533952 0.0450198 0.
0.535953 0.0450195 0.
0.537953 0.0450193 0.
0.539955 0.0450189 0.
0.541956 0.0450184 0.
0.543958 0.0450179 0.
0.545959 0.0450186 0.
0.54796 0.0450197 0.
0.54996 0.0450207 0.
0.551962 0.0450203 0.
0.553964 0.0450198 0.
0.555966 0.0450193 0.
0.557967 0.0450188 0.
0.559968 0.0450184 0.
0.56197 0.0450181 0.
0.563972 0.0450179 0.
0.565973 0.0450178 0.
0.567975 0.0450174 0.
0.569976 0.0450168 0.
0.571977 0.0450162 0.
0.573979 0.0450153 0.
0.575981 0.0450142 0.
0.577984 0.0450133 0.
0.579985 0.0450131 0.
0.581986 0.0450129 0.
0.583987 0.0450128 0.
0.585988 0.0450132 0.
0.58799 0.0450136 0.
0.589991 0.0450136 0.
0.591993 0.0450134 0.
0.593994 0.0450131 0.
0.595996 0.0450126 0.
0.597998 0.0450119 0.
0.600001 0.0450113 0.
0.602003 0.0450116 0.
0.604006 0.0450119 0.
0.606008 0.0450121 0.
0.608009 0.0450122 0.
0.61001 0.0450123 0.
0.612011 0.0450122 0.
0.614012 0.045012 0.
0.616013 0.0450117 0.
0.618014 0.0450127 0.
0.620016 0.0450145 0.
0.622018 0.0450162 0.
0.624019 0.0450161 0.
0.626021 0.0450158 0.
0.628023 0.0450157 0.
0.630024 0.0450164 0.
0.632026 0.0450172 0.
0.634028 0.0450177 0.
0.636029 0.0450179 0.
0.63803 0.045018 0.
0.640032 0.0450186 0.
0.642034 0.0450194 0.
0.644036 0.0450202 0.
0.646038 0.0450201 0.
0.64804 0.0450198 0.
0.650042 0.0450195 0.
0.652043 0.0450199 0.
0.654044 0.0450203 0.
0.656045 0.0450207 0.
0.658046 0.0450214 0.
0.660047 0.045022 0.
0.662048 0.0450224 0.
0.664049 0.0450225 0.
0.66605 0.0450225 0.
0.668051 0.0450228 0.
0.670051 0.0450232 0.
0.672052 0.0450235 0.
0.674053 0.0450237 0.
0.676055 0.0450238 0.
0.678056 0.0450239 0.
0.680057 0.045024 0.
0.682058 0.045024 0.
0.684059 0.0450244 0.
0.686059 0.0450254 0.
0.68806 0.0450264 0.
0.69006 0.0450274 0.
0.692059 0.0450284 0.
0.694059 0.0450294 0.
0.69606 0.0450303 0.
0.69806 0.0450311 0.
0.499943 0.0470279 0.
0.501943 0.0470274 0.
0.503943 0.0470269 0.
0.505944 0.0470265 0.
0.507944 0.0470257 0.
0.509944 0.0470249 0.
0.511945 0.0470243 0.
0.513946 0.0470237 0.
0.515946 0.0470231 0.
0.517947 0.0470228 0.
0.519948 0.0470227 0.
0.521949 0.0470226 0.
0.52395 0.0470222 0.
0.525951 0.0470218 0.
0.527951 0.0470214 0.
0.529952 0.047021 0.
0.531952 0.0470205 0.
0.533953 0.0470201 0.
0.535954 0.0470197 0.
0.537955 0.0470192 0.
0.539956 0.0470187 0.
0.541958 0.047018 0.
0.543959 0.0470174 0.
0.54596 0.047018 0.
0.547961 0.047019 0.
0.549962 0.04702 0.
0.551964 0.0470198 0.
0.553966 0.0470195 0.
0.555967 0.047019 0.
0.557968 0.0470181 0.
0.559969 0.0470172 0.
0.561971 0.0470167 0.
0.563972 0.0470169 0.
0.565974 0.0470171 0.
0.567975 0.0470166 0.
0.569977 0.0470159 0.
0.571978 0.0470152 0.
0.57398 0.0470144 0.
0.575982 0.0470136 0.
0.577983 0.0470129 0.
0.579985 0.0470129 0.
0.581986 0.047013 0.
0.583987 0.0470131 0.
0.585989 0.0470131 0.
0.587991 0.0470131 0.
0.589992 0.0470132 0.
0.591993 0.0470133 0.
0.593995 0.0470134 0.
0.595996 0.0470127 0.
0.597999 0.0470118 0.
0.600001 0.0470109 0.
0.602003 0.0470111 0.
0.604005 0.0470114 0.
0.606007 0.0470117 0.
0.608008 0.047012 0.
0.61001 0.0470123 0.
0.612011 0.0470124 0.
0.614012 0.0470122 0.
0.616013 0.047012 0.
0.618014 0.0470128 0.
0.620016 0.0470141 0.
0.622018 0.0470153 0.
0.624019 0.0470154 0.
0.626021 0.0470153 0.
0.628023 0.0470152 0.
0.630024 0.0470157 0.
0.632026 0.0470162 0.
0.634027 0.0470166 0.
0.636028 0.0470169 0.
0.638029 0.0470172 0.
0.640031 0.047018 0.
0.642033 0.047019 0.
0.644035 0.04702 0.
0.646037 0.04702 0.
0.648039 0.0470197 0.
0.650042 0.0470194 0.
0.652042 0.0470199 0.
0.654043 0.0470204 0.
0.656044 0.0470209 0.
0.658045 0.0470213 0.
0.660046 0.0470217 0.
0.662047 0.047022 0.
0.664048 0.0470223 0.
0.666049 0.0470225 0.
0.668049 0.0470228 0.
0.67005 0.047023 0.
0.67205 0.0470233 0.
0.674052 0.0470234 0.
0.676053 0.0470235 0.
0.678055 0.0470237 0.
0.680056 0.0470241 0.
0.682057 0.0470245 0.
0.684057 0.0470251 0.
0.686057 0.047026 0.
0.688057 0.047027 0.
0.690058 0.0470278 0.
0.692058 0.0470286 0.
0.694058 0.0470293 0.
0.696059 0.0470309 0.
0.698059 0.0470328 0.
0.499943 0.0490284 0.
0.501944 0.0490277 0.
0.503944 0.0490271 0.
0.505945 0.0490265 0.
0.507945 0.0490258 0.
0.509945 0.0490251 0.
0.511946 0.0490244 0.
0.513946 0.0490239 0.
0.515947 0.0490234 0.
0.517948 0.0490229 0.
0.519949 0.0490225 0.
0.521951 0.049022 0.
0.523951 0.0490219 0.
0.525952 0.0490218 0.
0.527952 0.0490217 0.
0.529953 0.0490213 0.
0.531953 0.0490209 0.
0.533954 0.0490204 0.
0.535955 0.0490198 0.
0.537956 0.0490191 0.
0.539957 0.0490184 0.
0.541959 0.0490177 0.
0.543961 0.0490169 0.
0.545962 0.0490175 0.
0.547963 0.0490184 0.
0.549964 0.0490194 0.
0.551966 0.0490193 0.
0.553967 0.0490192 0.
0.555969 0.0490188 0.
0.557969 0.0490174 0.
0.55997 0.0490159 0.
0.561972 0.0490153 0.
0.563973 0.0490158 0.
0.565975 0.0490163 0.
0.567976 0.0490159 0.
0.569978 0.0490151 0.
0.571979 0.0490142 0.
0.57398 0.0490136 0.
0.575982 0.049013 0.
0.577983 0.0490124 0.
0.579984 0.0490128 0.
0.581986 0.0490132 0.
0.583987 0.0490133 0.
0.585989 0.049013 0.
0.587991 0.0490126 0.
0.589993 0.0490128 0.
0.591994 0.0490132 0.
0.593995 0.0490137 0.
0.595997 0.0490129 0.
0.597999 0.0490117 0.
0.6 0.0490104 0.
0.602002 0.0490107 0.
0.604004 0.0490109 0.
0.606006 0.0490112 0.
0.608008 0.0490117 0.
0.610009 0.0490122 0.
0.612011 0.0490125 0.
0.614012 0.0490124 0.
0.616013 0.0490124 0.
0.618014 0.0490129 0.
0.620016 0.0490137 0.
0.622017 0.0490144 0.
0.624019 0.0490146 0.
0.626021 0.0490147 0.
0.628023 0.0490148 0.
0.630024 0.049015 0.
0.632025 0.0490152 0.
0.634026 0.0490155 0.
0.636028 0.0490159 0.
0.638029 0.0490164 0.
0.640031 0.0490173 0.
0.642033 0.0490186 0.
0.644035 0.0490199 0.
0.646037 0.0490199 0.
0.648039 0.0490196 0.
0.650041 0.0490193 0.
0.652042 0.0490199 0.
0.654042 0.0490206 0.
0.656043 0.0490211 0.
0.658044 0.0490213 0.
0.660045 0.0490214 0.
0.662046 0.0490217 0.
0.664047 0.0490221 0.
0.666048 0.0490225 0.
0.668048 0.0490227 0.
0.670048 0.0490229 0.
0.672049 0.049023 0.
0.67405 0.0490231 0.
0.676052 0.0490232 0.
0.678054 0.0490234 0.
0.680054 0.0490242 0.
0.682055 0.049025 0.
0.684056 0.0490258 0.
0.686055 0.0490267 0.
0.688055 0.0490276 0.
0.690056 0.0490283 0.
0.692057 0.0490288 0.
0.694057 0.0490293 0.
0.696058 0.0490316 0.
0.698057 0.0490344 0.
0.499944 0.0510292 0.
0.501945 0.0510284 0.
0.503945 0.0510278 0.
0.505946 0.0510272 0.
0.507946 0.0510263 0.
0.509946 0.0510254 0.
0.511947 0.0510246 0.
0.513947 0.0510242 0.
0.515947 0.0510237 0.
0.517949 0.0510232 0.
0.51995 0.0510226 0.
0.521952 0.0510219 0.
0.523952 0.0510219 0.
0.525953 0.0510219 0.
0.527953 0.0510219 0.
0.529954 0.0510215 0.
0.531955 0.0510211 0.
0.533955 0.0510206 0.
0.535956 0.0510198 0.
0.537957 0.051019 0.
0.539959 0.0510183 0.
0.54196 0.0510177 0.
0.543962 0.0510171 0.
0.545963 0.0510175 0.
0.547964 0.0510182 0.
0.549965 0.0510189 0.
0.551967 0.0510188 0.
0.553968 0.0510188 0.
0.555969 0.0510184 0.
0.55797 0.051017 0.
0.559971 0.0510156 0.
0.561972 0.051015 0.
0.563974 0.0510153 0.
0.565975 0.0510156 0.
0.567977 0.0510152 0.
0.569978 0.0510145 0.
0.571979 0.0510137 0.
0.573981 0.0510132 0.
0.575982 0.0510127 0.
0.577983 0.0510122 0.
0.579985 0.0510127 0.
0.581986 0.0510132 0.
0.583988 0.0510133 0.
0.58599 0.0510128 0.
0.587991 0.0510122 0.
0.589993 0.0510123 0.
0.591994 0.0510129 0.
0.593995 0.0510135 0.
0.595997 0.0510128 0.
0.597999 0.0510117 0.
0.6 0.0510106 0.
0.602002 0.0510108 0.
0.604004 0.0510109 0.
0.606005 0.0510111 0.
0.608007 0.0510115 0.
0.610009 0.0510119 0.
0.61201 0.0510122 0.
0.614012 0.0510122 0.
0.616013 0.0510123 0.
0.618014 0.0510126 0.
0.620016 0.0510131 0.
0.622017 0.0510135 0.
0.624019 0.051014 0.
0.626021 0.0510144 0.
0.628022 0.0510147 0.
0.630024 0.0510147 0.
0.632025 0.0510147 0.
0.634026 0.0510149 0.
0.636027 0.0510155 0.
0.638028 0.0510162 0.
0.64003 0.0510171 0.
0.642032 0.0510183 0.
0.644033 0.0510194 0.
0.646036 0.0510196 0.
0.648038 0.0510196 0.
0.65004 0.0510196 0.
0.65204 0.0510201 0.
0.654041 0.0510206 0.
0.656042 0.051021 0.
0.658043 0.0510212 0.
0.660044 0.0510213 0.
0.662045 0.0510217 0.
0.664046 0.0510221 0.
0.666046 0.0510226 0.
0.668047 0.0510229 0.
0.670047 0.051023 0.
0.672047 0.0510232 0.
0.674049 0.0510232 0.
0.676051 0.0510232 0.
0.678052 0.0510234 0.
0.680053 0.0510245 0.
0.682054 0.0510256 0.
0.684054 0.0510266 0.
0.686054 0.0510274 0.
0.688054 0.0510283 0.
0.690054 0.0510289 0.
0.692055 0.0510294 0.
0.694056 0.05103 0.
0.696056 0.0510326 0.
0.698056 0.0510356 0.
0.499945 0.0530302 0.
0.501945 0.0530293 0.
0.503946 0.053029 0.
0.505947 0.0530285 0.
0.507947 0.0530272 0.
0.509947 0.0530258 0.
0.511948 0.0530249 0.
0.513948 0.0530245 0.
0.515949 0.0530241 0.
0.51795 0.0530236 0.
0.519951 0.053023 0.
0.521952 0.0530223 0.
0.523953 0.0530222 0.
0.525954 0.0530222 0.
0.527955 0.0530221 0.
0.529956 0.0530217 0.
0.531956 0.0530213 0.
0.533957 0.0530208 0.
0.535958 0.0530198 0.
0.537959 0.0530189 0.
0.53996 0.0530183 0.
0.541961 0.0530181 0.
0.543962 0.0530179 0.
0.545963 0.0530181 0.
0.547964 0.0530184 0.
0.549965 0.0530187 0.
0.551967 0.0530185 0.
0.553968 0.0530183 0.
0.55597 0.053018 0.
0.557971 0.0530171 0.
0.559972 0.0530163 0.
0.561973 0.0530156 0.
0.563974 0.0530152 0.
0.565975 0.0530149 0.
0.567977 0.0530145 0.
0.569978 0.0530141 0.
0.571979 0.0530137 0.
0.573981 0.0530132 0.
0.575982 0.0530127 0.
0.577984 0.0530123 0.
0.579986 0.0530127 0.
0.581987 0.0530131 0.
0.583989 0.0530132 0.
0.58599 0.0530125 0.
0.587991 0.0530118 0.
0.589993 0.0530118 0.
0.591994 0.0530122 0.
0.593995 0.0530127 0.
0.595997 0.0530124 0.
0.597998 0.0530119 0.
0.6 0.0530114 0.
0.602002 0.0530114 0.
0.604004 0.0530113 0.
0.606005 0.0530113 0.
0.608007 0.0530113 0.
0.610008 0.0530113 0.
0.612009 0.0530114 0.
0.614011 0.0530117 0.
0.616013 0.0530119 0.
0.618014 0.0530122 0.
0.620016 0.0530124 0.
0.622017 0.0530126 0.
0.624019 0.0530134 0.
0.626021 0.0530143 0.
0.628022 0.053015 0.
0.630023 0.0530149 0.
0.632025 0.0530147 0.
0.634026 0.0530149 0.
0.636027 0.0530157 0.
0.638028 0.0530165 0.
0.640029 0.0530172 0.
0.642031 0.0530179 0.
0.644032 0.0530186 0.
0.646034 0.0530192 0.
0.648036 0.0530198 0.
0.650038 0.0530204 0.
0.652039 0.0530204 0.
0.654039 0.0530204 0.
0.65604 0.0530205 0.
0.658042 0.053021 0.
0.660043 0.0530215 0.
0.662044 0.0530219 0.
0.664045 0.0530224 0.
0.666045 0.0530228 0.
0.668046 0.0530232 0.
0.670047 0.0530235 0.
0.672047 0.0530237 0.
0.674049 0.0530237 0.
0.67605 0.0530236 0.
0.678051 0.0530237 0.
0.680052 0.053025 0.
0.682053 0.0530263 0.
0.684053 0.0530274 0.
0.686053 0.0530282 0.
0.688053 0.0530289 0.
0.690053 0.0530297 0.
0.692054 0.0530306 0.
0.694054 0.0530314 0.
0.696054 0.0530337 0.
0.698054 0.0530365 0.
0.499946 0.0550311 0.
0.501946 0.0550303 0.
0.503947 0.0550301 0.
0.505947 0.0550298 0.
0.507948 0.055028 0.
0.509949 0.0550263 0.
0.511949 0.0550251 0.
0.51395 0.0550248 0.
0.51595 0.0550245 0.
0.517951 0.055024 0.
0.519952 0.0550234 0.
0.521952 0.0550227 0.
0.523954 0.0550225 0.
0.525956 0.0550224 0.
0.527957 0.0550222 0.
0.529957 0.0550219 0.
0.531958 0.0550215 0.
0.533958 0.0550209 0.
0.535959 0.0550198 0.
0.53796 0.0550187 0.
0.539961 0.0550183 0.
0.541962 0.0550185 0.
0.543963 0.0550187 0.
0.545964 0.0550187 0.
0.547964 0.0550186 0.
0.549965 0.0550184 0.
0.551967 0.0550181 0.
0.553969 0.0550178 0.
0.55597 0.0550175 0.
0.557971 0.0550172 0.
0.559972 0.0550169 0.
0.561973 0.0550163 0.
0.563974 0.0550152 0.
0.565976 0.0550141 0.
0.567977 0.0550137 0.
0.569978 0.0550137 0.
0.571979 0.0550136 0.
0.573981 0.0550132 0.
0.575983 0.0550127 0.
0.577985 0.0550124 0.
0.579986 0.0550127 0.
0.581988 0.055013 0.
0.583989 0.055013 0.
0.58599 0.0550122 0.
0.587991 0.0550114 0.
0.589992 0.0550112 0.
0.591994 0.0550116 0.
0.593995 0.055012 0.
0.595996 0.0550121 0.
0.597998 0.0550121 0.
0.6 0.0550122 0.
0.602002 0.0550119 0.
0.604004 0.0550117 0.
0.606005 0.0550115 0.
0.608006 0.0550111 0.
0.610007 0.0550107 0.
0.612009 0.0550107 0.
0.614011 0.0550111 0.
0.616013 0.0550116 0.
0.618015 0.0550117 0.
0.620016 0.0550116 0.
0.622017 0.0550116 0.
0.624019 0.0550128 0.
0.62602 0.0550142 0.
0.628022 0.0550153 0.
0.630023 0.0550151 0.
0.632024 0.0550148 0.
0.634025 0.0550149 0.
0.636027 0.0550159 0.
0.638028 0.0550169 0.
0.640029 0.0550174 0.
0.642029 0.0550176 0.
0.64403 0.0550177 0.
0.646032 0.0550187 0.
0.648034 0.0550199 0.
0.650035 0.0550211 0.
0.652037 0.0550206 0.
0.654038 0.0550202 0.
0.656039 0.05502 0.
0.658041 0.0550208 0.
0.660042 0.0550216 0.
0.662043 0.0550222 0.
0.664044 0.0550226 0.
0.666044 0.0550231 0.
0.668045 0.0550235 0.
0.670046 0.0550239 0.
0.672047 0.0550243 0.
0.674048 0.0550241 0.
0.676049 0.055024 0.
0.67805 0.055024 0.
0.680051 0.0550255 0.
0.682052 0.055027 0.
0.684052 0.0550282 0.
0.686052 0.0550289 0.
0.688053 0.0550296 0.
0.690053 0.0550305 0.
0.692052 0.0550317 0.
0.694052 0.0550328 0.
0.696052 0.0550349 0.
0.698053 0.0550372 0.
0.499947 0.057032 0.
0.501947 0.0570309 0.
0.503948 0.0570301 0.
0.505949 0.0570293 0.
0.507949 0.0570278 0.
0.50995 0.0570264 0.
0.511951 0.0570254 0.
0.513951 0.057025 0.
0.515952 0.0570245 0.
0.517952 0.057024 0.
0.519953 0.0570234 0.
0.521954 0.0570227 0.
0.523955 0.0570224 0.
0.525956 0.0570221 0.
0.527958 0.0570218 0.
0.529958 0.0570215 0.
0.531959 0.0570211 0.
0.53396 0.0570205 0.
0.53596 0.0570195 0.
0.537961 0.0570184 0.
0.539962 0.057018 0.
0.541963 0.057018 0.
0.543964 0.057018 0.
0.545965 0.057018 0.
0.547966 0.0570179 0.
0.549966 0.0570179 0.
0.551968 0.0570177 0.
0.55397 0.0570176 0.
0.555971 0.0570174 0.
0.557972 0.0570171 0.
0.559973 0.0570168 0.
0.561974 0.0570162 0.
0.563975 0.0570152 0.
0.565976 0.0570143 0.
0.567978 0.0570137 0.
0.569979 0.0570133 0.
0.57198 0.0570129 0.
0.573982 0.0570127 0.
0.575984 0.0570125 0.
0.577985 0.0570123 0.
0.579987 0.0570125 0.
0.581988 0.0570127 0.
0.583989 0.0570127 0.
0.585991 0.0570122 0.
0.587992 0.0570117 0.
0.589993 0.0570116 0.
0.591994 0.0570117 0.
0.593995 0.0570118 0.
0.595997 0.0570119 0.
0.597998 0.057012 0.
0.6 0.0570121 0.
0.602002 0.0570119 0.
0.604004 0.0570117 0.
0.606005 0.0570114 0.
0.608007 0.057011 0.
0.610008 0.0570106 0.
0.612009 0.0570105 0.
0.614011 0.0570109 0.
0.616013 0.0570112 0.
0.618014 0.0570112 0.
0.620016 0.0570111 0.
0.622017 0.057011 0.
0.624018 0.0570121 0.
0.62602 0.0570134 0.
0.628022 0.0570145 0.
0.630023 0.0570146 0.
0.632024 0.0570148 0.
0.634026 0.0570151 0.
0.636027 0.0570158 0.
0.638028 0.0570164 0.
0.640029 0.0570169 0.
0.64203 0.0570174 0.
0.64403 0.0570178 0.
0.646032 0.0570186 0.
0.648034 0.0570194 0.
0.650035 0.0570203 0.
0.652036 0.0570201 0.
0.654037 0.0570199 0.
0.656038 0.0570198 0.
0.658039 0.0570205 0.
0.66004 0.0570212 0.
0.662041 0.0570219 0.
0.664042 0.0570225 0.
0.666043 0.0570231 0.
0.668044 0.0570236 0.
0.670045 0.0570239 0.
0.672046 0.0570243 0.
0.674047 0.0570244 0.
0.676048 0.0570245 0.
0.678048 0.0570247 0.
0.680049 0.0570258 0.
0.68205 0.057027 0.
0.68405 0.0570281 0.
0.686051 0.0570291 0.
0.688051 0.0570301 0.
0.690052 0.0570313 0.
0.692051 0.0570325 0.
0.694051 0.0570337 0.
0.696052 0.0570354 0.
0.698052 0.0570371 0.
0.499948 0.0590329 0.
0.501949 0.0590315 0.
0.503949 0.0590301 0.
0.50595 0.0590288 0.
0.507951 0.0590277 0.
0.509952 0.0590265 0.
0.511952 0.0590257 0.
0.513953 0.0590251 0.
0.515953 0.0590245 0.
0.517954 0.0590239 0.
0.519954 0.0590233 0.
0.521955 0.0590227 0.
0.523956 0.0590223 0.
0.525957 0.0590219 0.
0.527958 0.0590215 0.
0.529959 0.0590211 0.
0.53196 0.0590207 0.
0.533961 0.0590202 0.
0.535962 0.0590192 0.
0.537963 0.0590182 0.
0.539964 0.0590176 0.
0.541965 0.0590175 0.
0.543966 0.0590174 0.
0.545966 0.0590173 0.
0.547967 0.0590173 0.
0.549968 0.0590173 0.
0.551969 0.0590173 0.
0.55397 0.0590173 0.
0.555972 0.0590172 0.
0.557973 0.0590169 0.
0.559974 0.0590166 0.
0.561976 0.0590161 0.
0.563977 0.0590153 0.
0.565977 0.0590145 0.
0.567979 0.0590137 0.
0.56998 0.059013 0.
0.571981 0.0590122 0.
0.573983 0.0590122 0.
0.575984 0.0590122 0.
0.577986 0.0590122 0.
0.579987 0.0590123 0.
0.581988 0.0590124 0.
0.583989 0.0590125 0.
0.585991 0.0590123 0.
0.587992 0.0590121 0.
0.589994 0.0590119 0.
0.591995 0.0590118 0.
0.593996 0.0590116 0.
0.595997 0.0590117 0.
0.597999 0.0590119 0.
0.6 0.0590121 0.
0.602002 0.0590119 0.
0.604004 0.0590117 0.
0.606005 0.0590114 0.
0.608007 0.059011 0.
0.610009 0.0590105 0.
0.61201 0.0590103 0.
0.614011 0.0590106 0.
0.616012 0.0590108 0.
0.618014 0.0590108 0.
0.620015 0.0590106 0.
0.622017 0.0590105 0.
0.624018 0.0590114 0.
0.62602 0.0590125 0.
0.628022 0.0590136 0.
0.630023 0.0590142 0.
0.632025 0.0590149 0.
0.634026 0.0590154 0.
0.636027 0.0590157 0.
0.638028 0.059016 0.
0.640029 0.0590165 0.
0.64203 0.0590172 0.
0.644031 0.0590178 0.
0.646032 0.0590184 0.
0.648034 0.0590189 0.
0.650035 0.0590195 0.
0.652036 0.0590195 0.
0.654036 0.0590195 0.
0.656037 0.0590197 0.
0.658037 0.0590203 0.
0.660038 0.0590209 0.
0.662039 0.0590215 0.
0.66404 0.0590224 0.
0.666041 0.0590232 0.
0.668042 0.0590237 0.
0.670043 0.059024 0.
0.672045 0.0590243 0.
0.674045 0.0590246 0.
0.676046 0.0590249 0.
0.678047 0.0590254 0.
0.680047 0.0590262 0.
0.682048 0.059027 0.
0.684048 0.059028 0.
0.686049 0.0590294 0.
0.68805 0.0590307 0.
0.690051 0.059032 0.
0.69205 0.0590333 0.
0.69405 0.0590346 0.
0.696051 0.0590359 0.
0.698052 0.059037 0.
0.49995 0.0610335 0.
0.50195 0.0610321 0.
0.503951 0.0610306 0.
0.505951 0.0610291 0.
0.507952 0.061028 0.
0.509953 0.0610269 0.
0.511954 0.061026 0.
0.513954 0.0610253 0.
0.515955 0.0610247 0.
0.517955 0.0610241 0.
0.519956 0.0610235 0.
0.521957 0.0610229 0.
0.523957 0.0610224 0.
0.525959 0.0610218 0.
0.52796 0.0610213 0.
0.529961 0.0610209 0.
0.531962 0.0610206 0.
0.533963 0.06102 0.
0.535963 0.0610189 0.
0.537964 0.0610178 0.
0.539965 0.0610172 0.
0.541966 0.0610171 0.
0.543967 0.061017 0.
0.545967 0.0610171 0.
0.547968 0.0610172 0.
0.549969 0.0610173 0.
0.55197 0.0610174 0.
0.553971 0.0610175 0.
0.555972 0.0610175 0.
0.557974 0.061017 0.
0.559975 0.0610165 0.
0.561976 0.0610159 0.
0.563977 0.0610151 0.
0.565978 0.0610143 0.
0.567979 0.0610136 0.
0.56998 0.0610127 0.
0.571982 0.0610119 0.
0.573983 0.0610119 0.
0.575985 0.061012 0.
0.577987 0.061012 0.
0.579988 0.0610121 0.
0.581989 0.0610122 0.
0.58399 0.0610122 0.
0.585991 0.0610121 0.
0.587993 0.0610121 0.
0.589994 0.061012 0.
0.591995 0.061012 0.
0.593996 0.061012 0.
0.595998 0.0610119 0.
0.597999 0.0610118 0.
0.6 0.0610117 0.
0.602002 0.0610115 0.
0.604004 0.0610114 0.
0.606006 0.0610112 0.
0.608007 0.0610108 0.
0.610009 0.0610104 0.
0.61201 0.0610103 0.
0.614011 0.0610104 0.
0.616012 0.0610106 0.
0.618013 0.0610105 0.
0.620015 0.0610104 0.
0.622016 0.0610103 0.
0.624018 0.0610111 0.
0.62602 0.061012 0.
0.628021 0.061013 0.
0.630023 0.0610138 0.
0.632024 0.0610147 0.
0.634026 0.0610153 0.
0.636027 0.0610155 0.
0.638028 0.0610156 0.
0.640029 0.0610162 0.
0.64203 0.0610171 0.
0.644031 0.0610179 0.
0.646032 0.0610184 0.
0.648033 0.0610187 0.
0.650034 0.0610191 0.
0.652035 0.0610192 0.
0.654035 0.0610194 0.
0.656036 0.0610197 0.
0.658036 0.0610202 0.
0.660037 0.0610208 0.
0.662037 0.0610215 0.
0.664038 0.0610224 0.
0.66604 0.0610233 0.
0.668041 0.0610237 0.
0.670042 0.0610239 0.
0.672043 0.0610241 0.
0.674044 0.0610247 0.
0.676045 0.0610253 0.
0.678045 0.0610259 0.
0.680046 0.0610266 0.
0.682046 0.0610273 0.
0.684047 0.0610282 0.
0.686048 0.0610296 0.
0.688049 0.0610309 0.
0.690049 0.0610323 0.
0.692049 0.0610337 0.
0.694049 0.0610351 0.
0.69605 0.0610361 0.
0.698051 0.0610371 0.
0.499951 0.063034 0.
0.501952 0.0630327 0.
0.503952 0.0630314 0.
0.505953 0.0630302 0.
0.507954 0.0630288 0.
0.509954 0.0630274 0.
0.511955 0.0630263 0.
0.513955 0.0630256 0.
0.515956 0.0630249 0.
0.517957 0.0630243 0.
0.519957 0.0630238 0.
0.521958 0.0630232 0.
0.523959 0.0630226 0.
0.52596 0.0630219 0.
0.527961 0.0630213 0.
0.529962 0.063021 0.
0.531963 0.0630206 0.
0.533964 0.0630199 0.
0.535964 0.0630186 0.
0.537965 0.0630172 0.
0.539966 0.0630167 0.
0.541967 0.0630169 0.
0.543967 0.063017 0.
0.545968 0.0630173 0.
0.547969 0.0630175 0.
0.54997 0.0630178 0.
0.551971 0.063018 0.
0.553972 0.0630181 0.
0.555973 0.0630181 0.
0.557974 0.0630172 0.
0.559975 0.0630163 0.
0.561976 0.0630154 0.
0.563977 0.0630147 0.
0.565978 0.0630139 0.
0.567979 0.0630132 0.
0.56998 0.0630126 0.
0.571982 0.063012 0.
0.573983 0.0630118 0.
0.575985 0.0630117 0.
0.577986 0.0630117 0.
0.579988 0.0630118 0.
0.581989 0.063012 0.
0.58399 0.063012 0.
0.585991 0.0630118 0.
0.587993 0.0630116 0.
0.589994 0.0630118 0.
0.591995 0.0630124 0.
0.593997 0.0630129 0.
0.595998 0.0630124 0.
0.597999 0.0630116 0.
0.6 0.0630108 0.
0.602003 0.0630108 0.
0.604005 0.0630108 0.
0.606007 0.0630108 0.
0.608008 0.0630106 0.
0.610009 0.0630104 0.
0.61201 0.0630103 0.
0.614011 0.0630103 0.
0.616012 0.0630104 0.
0.618013 0.0630104 0.
0.620014 0.0630104 0.
0.622015 0.0630104 0.
0.624017 0.0630111 0.
0.626019 0.0630118 0.
0.62802 0.0630125 0.
0.630022 0.0630134 0.
0.632023 0.0630144 0.
0.634025 0.063015 0.
0.636026 0.0630152 0.
0.638027 0.0630153 0.
0.640028 0.063016 0.
0.642029 0.063017 0.
0.64403 0.0630181 0.
0.646031 0.0630185 0.
0.648032 0.0630188 0.
0.650033 0.0630191 0.
0.652034 0.0630193 0.
0.654034 0.0630195 0.
0.656035 0.0630198 0.
0.658035 0.0630204 0.
0.660036 0.0630211 0.
0.662037 0.0630218 0.
0.664038 0.0630226 0.
0.666039 0.0630234 0.
0.66804 0.0630236 0.
0.670041 0.0630237 0.
0.672042 0.0630237 0.
0.674043 0.0630246 0.
0.676043 0.0630255 0.
0.678044 0.0630264 0.
0.680044 0.0630271 0.
0.682045 0.0630278 0.
0.684045 0.0630287 0.
0.686046 0.0630297 0.
0.688047 0.0630307 0.
0.690048 0.063032 0.
0.692048 0.0630336 0.
0.694049 0.0630351 0.
0.696049 0.0630362 0.
0.698049 0.0630372 0.
0.499953 0.0650342 0.
0.501953 0.0650332 0.
0.503954 0.0650322 0.
0.505955 0.0650312 0.
0.507955 0.0650296 0.
0.509955 0.065028 0.
0.511956 0.0650267 0.
0.513956 0.0650259 0.
0.515957 0.0650252 0.
0.517958 0.0650246 0.
0.519959 0.065024 0.
0.52196 0.0650235 0.
0.523961 0.0650228 0.
0.525962 0.0650221 0.
0.527962 0.0650214 0.
0.529963 0.065021 0.
0.531964 0.0650206 0.
0.533965 0.0650199 0.
0.535966 0.0650183 0.
0.537966 0.0650167 0.
0.539967 0.0650162 0.
0.541967 0.0650166 0.
0.543968 0.065017 0.
0.545969 0.0650174 0.
0.54797 0.0650178 0.
0.549971 0.0650182 0.
0.551972 0.0650185 0.
0.553973 0.0650188 0.
0.555974 0.0650187 0.
0.557974 0.0650174 0.
0.559975 0.065016 0.
0.561976 0.065015 0.
0.563976 0.0650142 0.
0.565977 0.0650135 0.
0.567979 0.0650129 0.
0.56998 0.0650125 0.
0.571982 0.065012 0.
0.573983 0.0650118 0.
0.575985 0.0650115 0.
0.577986 0.0650113 0.
0.579988 0.0650116 0.
0.581989 0.0650118 0.
0.58399 0.0650118 0.
0.585991 0.0650115 0.
0.587992 0.0650112 0.
0.589994 0.0650117 0.
0.591995 0.0650128 0.
0.593997 0.0650139 0.
0.595998 0.065013 0.
0.597999 0.0650114 0.
0.6 0.0650099 0.
0.602003 0.0650101 0.
0.604006 0.0650102 0.
0.606009 0.0650103 0.
0.608009 0.0650104 0.
0.610009 0.0650104 0.
0.612009 0.0650104 0.
0.61401 0.0650103 0.
0.616012 0.0650102 0.
0.618013 0.0650103 0.
0.620014 0.0650104 0.
0.622015 0.0650106 0.
0.624016 0.0650111 0.
0.626018 0.0650116 0.
0.628019 0.0650121 0.
0.630021 0.065013 0.
0.632023 0.065014 0.
0.634024 0.0650147 0.
0.636025 0.0650148 0.
0.638026 0.065015 0.
0.640028 0.0650158 0.
0.642029 0.065017 0.
0.64403 0.0650183 0.
0.646031 0.0650187 0.
0.648032 0.0650189 0.
0.650032 0.0650191 0.
0.652033 0.0650193 0.
0.654033 0.0650196 0.
0.656034 0.0650199 0.
0.658034 0.0650206 0.
0.660035 0.0650213 0.
0.662036 0.065022 0.
0.664037 0.0650227 0.
0.666038 0.0650235 0.
0.668039 0.0650236 0.
0.670039 0.0650235 0.
0.67204 0.0650233 0.
0.674041 0.0650244 0.
0.676042 0.0650257 0.
0.678043 0.0650269 0.
0.680043 0.0650276 0.
0.682044 0.0650284 0.
0.684044 0.0650291 0.
0.686045 0.0650298 0.
0.688045 0.0650306 0.
0.690046 0.0650318 0.
0.692047 0.0650335 0.
0.694048 0.0650351 0.
0.696048 0.0650363 0.
0.698048 0.0650374 0.
0.499954 0.0670346 0.
0.501955 0.0670334 0.
0.503955 0.0670325 0.
0.505956 0.0670314 0.
0.507956 0.0670298 0.
0.509956 0.0670282 0.
0.511957 0.0670269 0.
0.513958 0.0670261 0.
0.515959 0.0670253 0.
0.51796 0.0670246 0.
0.51996 0.0670239 0.
0.521961 0.0670233 0.
0.523962 0.0670227 0.
0.525963 0.0670221 0.
0.527964 0.0670215 0.
0.529964 0.0670209 0.
0.531965 0.0670202 0.
0.533966 0.0670193 0.
0.535966 0.067018 0.
0.537967 0.0670167 0.
0.539967 0.0670163 0.
0.541968 0.0670167 0.
0.543969 0.067017 0.
0.545969 0.0670172 0.
0.54797 0.0670175 0.
0.549971 0.0670177 0.
0.551973 0.0670177 0.
0.553974 0.0670178 0.
0.555975 0.0670175 0.
0.557975 0.0670164 0.
0.559976 0.0670153 0.
0.561977 0.0670144 0.
0.563978 0.0670138 0.
0.565979 0.0670132 0.
0.56798 0.0670126 0.
0.569982 0.0670119 0.
0.571983 0.0670113 0.
0.573985 0.0670112 0.
0.575986 0.0670112 0.
0.577988 0.0670112 0.
0.579989 0.0670115 0.
0.58199 0.0670118 0.
0.58399 0.0670118 0.
0.585992 0.0670112 0.
0.587993 0.0670106 0.
0.589994 0.0670109 0.
0.591996 0.0670118 0.
0.593997 0.0670127 0.
0.595999 0.0670121 0.
0.598 0.0670111 0.
0.600001 0.06701 0.
0.602004 0.0670101 0.
0.604006 0.0670101 0.
0.606008 0.0670102 0.
0.608008 0.0670104 0.
0.610009 0.0670106 0.
0.612009 0.0670106 0.
0.61401 0.0670103 0.
0.616011 0.0670101 0.
0.618012 0.06701 0.
0.620013 0.0670099 0.
0.622015 0.0670099 0.
0.624016 0.0670106 0.
0.626017 0.0670114 0.
0.628019 0.0670122 0.
0.63002 0.0670128 0.
0.632021 0.0670135 0.
0.634023 0.067014 0.
0.636024 0.0670142 0.
0.638025 0.0670144 0.
0.640026 0.0670152 0.
0.642028 0.0670166 0.
0.644029 0.0670179 0.
0.64603 0.0670182 0.
0.648031 0.0670182 0.
0.650032 0.0670182 0.
0.652032 0.0670189 0.
0.654032 0.0670195 0.
0.656033 0.0670201 0.
0.658033 0.0670208 0.
0.660034 0.0670215 0.
0.662035 0.067022 0.
0.664036 0.0670224 0.
0.666036 0.0670228 0.
0.668037 0.0670231 0.
0.670038 0.0670233 0.
0.672039 0.0670235 0.
0.67404 0.0670243 0.
0.676041 0.0670253 0.
0.678041 0.0670262 0.
0.680042 0.0670274 0.
0.682042 0.0670285 0.
0.684042 0.0670295 0.
0.686043 0.0670301 0.
0.688043 0.0670308 0.
0.690044 0.067032 0.
0.692045 0.0670335 0.
0.694046 0.0670351 0.
0.696046 0.0670363 0.
0.698046 0.0670375 0.
0.499956 0.0690346 0.
0.501956 0.0690336 0.
0.503956 0.0690327 0.
0.505956 0.0690316 0.
0.507957 0.06903 0.
0.509957 0.0690284 0.
0.511958 0.0690271 0.
0.513959 0.0690262 0.
0.515961 0.0690253 0.
0.517962 0.0690245 0.
0.519962 0.0690238 0.
0.521962 0.0690231 0.
0.523963 0.0690226 0.
0.525964 0.0690222 0.
0.527965 0.0690217 0.
0.529966 0.0690207 0.
0.531966 0.0690197 0.
0.533967 0.0690188 0.
0.535967 0.0690178 0.
0.537967 0.0690168 0.
0.539968 0.0690165 0.
0.541969 0.0690167 0.
0.54397 0.0690169 0.
0.54597 0.069017 0.
0.547971 0.0690171 0.
0.549972 0.0690172 0.
0.551973 0.069017 0.
0.553975 0.0690168 0.
0.555976 0.0690164 0.
0.557977 0.0690155 0.
0.559977 0.0690146 0.
0.561978 0.0690139 0.
0.56398 0.0690134 0.
0.565981 0.0690129 0.
0.567982 0.0690122 0.
0.569984 0.0690114 0.
0.571985 0.0690106 0.
0.573986 0.0690107 0.
0.575988 0.0690109 0.
0.577989 0.0690111 0.
0.579989 0.0690115 0.
0.58199 0.0690119 0.
0.583991 0.0690118 0.
0.585992 0.0690109 0.
0.587993 0.0690101 0.
0.589994 0.0690101 0.
0.591996 0.0690108 0.
0.593997 0.0690116 0.
0.595999 0.0690113 0.
0.598001 0.0690107 0.
0.600002 0.0690101 0.
0.602004 0.0690101 0.
0.604005 0.06901 0.
0.606006 0.06901 0.
0.608008 0.0690104 0.
0.610009 0.0690108 0.
0.61201 0.0690108 0.
0.61401 0.0690104 0.
0.616011 0.06901 0.
0.618012 0.0690097 0.
0.620013 0.0690094 0.
0.622014 0.0690092 0.
0.624016 0.0690102 0.
0.626017 0.0690112 0.
0.628018 0.0690122 0.
0.630019 0.0690126 0.
0.63202 0.069013 0.
0.634021 0.0690133 0.
0.636022 0.0690135 0.
0.638024 0.0690138 0.
0.640025 0.0690147 0.
0.642026 0.0690161 0.
0.644028 0.0690175 0.
0.646029 0.0690177 0.
0.648031 0.0690175 0.
0.650032 0.0690174 0.
0.652032 0.0690184 0.
0.654032 0.0690194 0.
0.656032 0.0690203 0.
0.658032 0.069021 0.
0.660033 0.0690216 0.
0.662034 0.069022 0.
0.664034 0.0690221 0.
0.666035 0.0690222 0.
0.668036 0.0690226 0.
0.670037 0.0690231 0.
0.672037 0.0690236 0.
0.674038 0.0690242 0.
0.676039 0.0690248 0.
0.67804 0.0690256 0.
0.68004 0.0690271 0.
0.68204 0.0690286 0.
0.68404 0.0690298 0.
0.686041 0.0690304 0.
0.688042 0.069031 0.
0.690042 0.0690321 0.
0.692043 0.0690336 0.
0.694044 0.0690351 0.
0.696044 0.0690363 0.
0.698045 0.0690375 0.
0.499957 0.0710346 0.
0.501957 0.0710337 0.
0.503957 0.0710328 0.
0.505957 0.0710318 0.
0.507958 0.0710303 0.
0.509958 0.0710288 0.
0.511959 0.0710276 0.
0.513961 0.0710265 0.
0.515962 0.0710254 0.
0.517963 0.0710246 0.
0.519963 0.0710239 0.
0.521963 0.0710232 0.
0.523964 0.0710227 0.
0.525965 0.0710222 0.
0.527966 0.0710216 0.
0.529966 0.0710206 0.
0.531967 0.0710196 0.
0.533967 0.0710186 0.
0.535967 0.0710177 0.
0.537968 0.0710168 0.
0.539968 0.0710165 0.
0.541969 0.0710167 0.
0.54397 0.0710169 0.
0.545971 0.0710169 0.
0.547971 0.0710167 0.
0.549972 0.0710166 0.
0.551974 0.0710162 0.
0.553975 0.0710158 0.
0.555977 0.0710154 0.
0.557977 0.0710147 0.
0.559978 0.071014 0.
0.561979 0.0710133 0.
0.563981 0.0710129 0.
0.565982 0.0710124 0.
0.567983 0.0710118 0.
0.569985 0.0710109 0.
0.571986 0.0710101 0.
0.573987 0.0710103 0.
0.575988 0.0710107 0.
0.577989 0.071011 0.
0.57999 0.0710111 0.
0.58199 0.0710113 0.
0.583991 0.0710112 0.
0.585992 0.0710105 0.
0.587994 0.0710098 0.
0.589995 0.0710098 0.
0.591996 0.0710103 0.
0.593998 0.0710108 0.
0.595999 0.0710107 0.
0.598001 0.0710105 0.
0.600002 0.0710102 0.
0.602004 0.0710102 0.
0.604005 0.0710101 0.
0.606006 0.0710101 0.
0.608007 0.0710104 0.
0.610009 0.0710107 0.
0.61201 0.0710107 0.
0.61401 0.0710102 0.
0.616011 0.0710097 0.
0.618012 0.0710095 0.
0.620013 0.0710093 0.
0.622014 0.0710092 0.
0.624015 0.0710101 0.
0.626016 0.0710111 0.
0.628017 0.071012 0.
0.630018 0.0710123 0.
0.632019 0.0710126 0.
0.63402 0.0710129 0.
0.636021 0.0710132 0.
0.638023 0.0710135 0.
0.640024 0.0710143 0.
0.642025 0.0710156 0.
0.644026 0.0710169 0.
0.646028 0.0710171 0.
0.648029 0.071017 0.
0.650031 0.0710169 0.
0.652031 0.0710183 0.
0.654031 0.0710196 0.
0.656031 0.0710207 0.
0.658031 0.0710213 0.
0.660032 0.071022 0.
0.662033 0.0710223 0.
0.664033 0.0710222 0.
0.666034 0.0710221 0.
0.668035 0.0710225 0.
0.670035 0.071023 0.
0.672036 0.0710235 0.
0.674037 0.0710242 0.
0.676038 0.071025 0.
0.678038 0.0710258 0.
0.680039 0.0710272 0.
0.682039 0.0710286 0.
0.684039 0.0710298 0.
0.68604 0.0710306 0.
0.68804 0.0710314 0.
0.690041 0.0710325 0.
0.692041 0.0710338 0.
0.694042 0.0710352 0.
0.696043 0.0710364 0.
0.698043 0.0710376 0.
0.499958 0.0730348 0.
0.501958 0.0730337 0.
0.503959 0.0730328 0.
0.505959 0.0730318 0.
0.507959 0.0730306 0.
0.50996 0.0730294 0.
0.511961 0.0730282 0.
0.513962 0.0730269 0.
0.515963 0.0730256 0.
0.517963 0.0730247 0.
0.519964 0.0730241 0.
0.521964 0.0730235 0.
0.523965 0.0730228 0.
0.525965 0.0730221 0.
0.527966 0.0730213 0.
0.529966 0.0730205 0.
0.531967 0.0730197 0.
0.533967 0.0730188 0.
0.535967 0.0730177 0.
0.537968 0.0730167 0.
0.539968 0.0730164 0.
0.541969 0.0730167 0.
0.54397 0.0730171 0.
0.545971 0.0730168 0.
0.547972 0.0730163 0.
0.549973 0.0730158 0.
0.551974 0.0730154 0.
0.553976 0.0730151 0.
0.555977 0.0730146 0.
0.557978 0.073014 0.
0.559979 0.0730133 0.
0.56198 0.0730127 0.
0.563981 0.0730122 0.
0.565982 0.0730118 0.
0.567984 0.0730112 0.
0.569985 0.0730105 0.
0.571986 0.0730097 0.
0.573987 0.0730101 0.
0.575988 0.0730106 0.
0.577989 0.073011 0.
0.57999 0.0730105 0.
0.581991 0.0730101 0.
0.583992 0.0730098 0.
0.585993 0.0730098 0.
0.587994 0.0730098 0.
0.589996 0.0730099 0.
0.591997 0.0730101 0.
0.593998 0.0730103 0.
0.595999 0.0730104 0.
0.598001 0.0730103 0.
0.600002 0.0730103 0.
0.602003 0.0730104 0.
0.604004 0.0730104 0.
0.606006 0.0730105 0.
0.608007 0.0730104 0.
0.610008 0.0730103 0.
0.612009 0.0730101 0.
0.61401 0.0730097 0.
0.616011 0.0730093 0.
0.618011 0.0730093 0.
0.620012 0.0730096 0.
0.622013 0.0730098 0.
0.624014 0.0730104 0.
0.626016 0.073011 0.
0.628017 0.0730116 0.
0.630018 0.073012 0.
0.632019 0.0730125 0.
0.63402 0.0730129 0.
0.636021 0.0730132 0.
0.638022 0.0730136 0.
0.640023 0.0730142 0.
0.642024 0.0730152 0.
0.644025 0.0730161 0.
0.646026 0.0730164 0.
0.648027 0.0730166 0.
0.650028 0.0730168 0.
0.652029 0.0730184 0.
0.654029 0.07302 0.
0.65603 0.0730213 0.
0.65803 0.0730219 0.
0.660031 0.0730225 0.
0.662032 0.0730228 0.
0.664032 0.0730227 0.
0.666033 0.0730225 0.
0.668034 0.0730227 0.
0.670034 0.073023 0.
0.672035 0.0730233 0.
0.674036 0.0730244 0.
0.676036 0.0730257 0.
0.678037 0.0730268 0.
0.680037 0.0730277 0.
0.682038 0.0730285 0.
0.684038 0.0730295 0.
0.686039 0.0730306 0.
0.688039 0.0730318 0.
0.69004 0.073033 0.
0.69204 0.0730342 0.
0.69404 0.0730354 0.
0.696041 0.0730366 0.
0.698041 0.0730377 0.
0.499959 0.0750346 0.
0.50196 0.0750337 0.
0.50396 0.0750328 0.
0.50596 0.0750318 0.
0.507961 0.0750309 0.
0.509962 0.07503 0.
0.511962 0.0750289 0.
0.513963 0.0750273 0.
0.515964 0.0750257 0.
0.517964 0.0750248 0.
0.519964 0.0750244 0.
0.521965 0.0750239 0.
0.523965 0.075023 0.
0.525966 0.075022 0.
0.527967 0.0750211 0.
0.529967 0.0750204 0.
0.531967 0.0750198 0.
0.533967 0.075019 0.
0.535968 0.0750178 0.
0.537968 0.0750166 0.
0.539969 0.0750163 0.
0.541969 0.0750167 0.
0.543969 0.0750172 0.
0.54597 0.0750167 0.
0.547972 0.0750158 0.
0.549973 0.075015 0.
0.551975 0.0750146 0.
0.553976 0.0750143 0.
0.555978 0.0750139 0.
0.557979 0.0750133 0.
0.559979 0.0750127 0.
0.56198 0.0750121 0.
0.563981 0.0750116 0.
0.565982 0.0750111 0.
0.567984 0.0750106 0.
0.569985 0.07501 0.
0.571986 0.0750094 0.
0.573987 0.0750099 0.
0.575988 0.0750105 0.
0.577989 0.0750109 0.
0.579991 0.0750099 0.
0.581992 0.0750089 0.
0.583994 0.0750085 0.
0.585994 0.0750091 0.
0.587995 0.0750098 0.
0.589996 0.0750101 0.
0.591998 0.07501 0.
0.593999 0.0750099 0.
0.596 0.07501 0.
0.598 0.0750102 0.
0.600001 0.0750104 0.
0.602002 0.0750106 0.
0.604004 0.0750108 0.
0.606005 0.0750109 0.
0.608007 0.0750104 0.
0.610008 0.0750099 0.
0.612009 0.0750095 0.
0.61401 0.0750092 0.
0.616011 0.0750089 0.
0.618011 0.0750092 0.
0.620012 0.0750098 0.
0.622012 0.0750104 0.
0.624014 0.0750107 0.
0.626015 0.0750109 0.
0.628016 0.0750111 0.
0.630017 0.0750117 0.
0.632018 0.0750124 0.
0.634019 0.0750129 0.
0.63602 0.0750133 0.
0.638021 0.0750136 0.
0.640022 0.0750141 0.
0.642022 0.0750147 0.
0.644023 0.0750153 0.
0.646024 0.0750157 0.
0.648025 0.0750162 0.
0.650025 0.0750167 0.
0.652026 0.0750185 0.
0.654028 0.0750204 0.
0.656029 0.0750219 0.
0.658029 0.0750225 0.
0.66003 0.0750231 0.
0.662031 0.0750233 0.
0.664032 0.0750231 0.
0.666033 0.0750229 0.
0.668033 0.0750229 0.
0.670034 0.075023 0.
0.672034 0.0750231 0.
0.674034 0.0750246 0.
0.676035 0.0750263 0.
0.678035 0.0750278 0.
0.680036 0.0750281 0.
0.682037 0.0750284 0.
0.684037 0.0750291 0.
0.686038 0.0750307 0.
0.688038 0.0750323 0.
0.690038 0.0750336 0.
0.692038 0.0750346 0.
0.694038 0.0750356 0.
0.696039 0.0750367 0.
0.698039 0.0750378 0.
0.499961 0.0770351 0.
0.501961 0.0770339 0.
0.503961 0.0770328 0.
0.505962 0.0770317 0.
0.507962 0.0770309 0.
0.509963 0.07703 0.
0.511964 0.077029 0.
0.513964 0.0770276 0.
0.515964 0.0770263 0.
0.517965 0.0770254 0.
0.519965 0.0770249 0.
0.521965 0.0770243 0.
0.523966 0.0770233 0.
0.525966 0.0770222 0.
0.527967 0.0770211 0.
0.529968 0.0770203 0.
0.531968 0.0770194 0.
0.533968 0.0770185 0.
0.535969 0.0770176 0.
0.537969 0.0770168 0.
0.53997 0.0770164 0.
0.54197 0.0770165 0.
0.543971 0.0770165 0.
0.545972 0.0770159 0.
0.547973 0.0770151 0.
0.549974 0.0770143 0.
0.551976 0.0770141 0.
0.553977 0.0770139 0.
0.555979 0.0770136 0.
0.55798 0.077013 0.
0.55998 0.0770123 0.
0.561981 0.0770117 0.
0.563982 0.0770112 0.
0.565983 0.0770107 0.
0.567984 0.0770102 0.
0.569986 0.0770097 0.
0.571987 0.0770092 0.
0.573988 0.0770096 0.
0.575989 0.07701 0.
0.57799 0.0770103 0.
0.579991 0.0770093 0.
0.581992 0.0770084 0.
0.583993 0.077008 0.
0.585994 0.0770085 0.
0.587995 0.0770091 0.
0.589996 0.0770094 0.
0.591998 0.0770096 0.
0.593999 0.0770097 0.
0.596 0.0770099 0.
0.598 0.0770102 0.
0.600001 0.0770105 0.
0.602003 0.0770104 0.
0.604004 0.0770102 0.
0.606005 0.0770101 0.
0.608006 0.0770099 0.
0.610007 0.0770096 0.
0.612008 0.0770094 0.
0.614009 0.0770092 0.
0.61601 0.077009 0.
0.618011 0.0770092 0.
0.620012 0.0770096 0.
0.622012 0.07701 0.
0.624014 0.0770103 0.
0.626015 0.0770107 0.
0.628016 0.077011 0.
0.630017 0.0770117 0.
0.632018 0.0770123 0.
0.634018 0.0770128 0.
0.636019 0.0770132 0.
0.63802 0.0770135 0.
0.640021 0.077014 0.
0.642022 0.0770147 0.
0.644022 0.0770153 0.
0.646023 0.0770158 0.
0.648024 0.0770163 0.
0.650025 0.0770168 0.
0.652026 0.077018 0.
0.654026 0.0770193 0.
0.656027 0.0770205 0.
0.658028 0.0770214 0.
0.660029 0.0770223 0.
0.66203 0.0770228 0.
0.664031 0.0770228 0.
0.666032 0.0770228 0.
0.668032 0.077023 0.
0.670033 0.0770234 0.
0.672033 0.0770237 0.
0.674033 0.0770249 0.
0.676034 0.0770262 0.
0.678035 0.0770273 0.
0.680035 0.0770278 0.
0.682035 0.0770283 0.
0.684036 0.0770292 0.
0.686036 0.077031 0.
0.688037 0.0770327 0.
0.690037 0.0770338 0.
0.692038 0.0770344 0.
0.694038 0.0770351 0.
0.696038 0.0770362 0.
0.698038 0.0770374 0.
0.499963 0.0790356 0.
0.501963 0.0790341 0.
0.503963 0.0790328 0.
0.505963 0.0790315 0.
0.507964 0.0790308 0.
0.509965 0.07903 0.
0.511965 0.0790291 0.
0.513965 0.079028 0.
0.515965 0.0790269 0.
0.517965 0.079026 0.
0.519965 0.0790254 0.
0.521965 0.0790248 0.
0.523966 0.0790236 0.
0.525967 0.0790224 0.
0.527968 0.0790212 0.
0.529969 0.0790201 0.
0.531969 0.079019 0.
0.53397 0.0790181 0.
0.53597 0.0790175 0.
0.53797 0.0790169 0.
0.539971 0.0790165 0.
0.541972 0.0790161 0.
0.543972 0.0790158 0.
0.545973 0.0790152 0.
0.547974 0.0790145 0.
0.549975 0.0790137 0.
0.551977 0.0790136 0.
0.553978 0.0790136 0.
0.55598 0.0790134 0.
0.557981 0.0790126 0.
0.559981 0.0790119 0.
0.561982 0.0790113 0.
0.563983 0.0790107 0.
0.565984 0.0790102 0.
0.567985 0.0790098 0.
0.569986 0.0790094 0.
0.571987 0.0790091 0.
0.573988 0.0790093 0.
0.575989 0.0790095 0.
0.57799 0.0790096 0.
0.579991 0.0790088 0.
0.581992 0.0790079 0.
0.583993 0.0790075 0.
0.585994 0.0790079 0.
0.587996 0.0790083 0.
0.589996 0.0790087 0.
0.591997 0.0790091 0.
0.593998 0.0790095 0.
0.595999 0.0790099 0.
0.598001 0.0790102 0.
0.600002 0.0790106 0.
0.602003 0.0790101 0.
0.604004 0.0790097 0.
0.606005 0.0790093 0.
0.608006 0.0790094 0.
0.610007 0.0790094 0.
0.612008 0.0790093 0.
0.614009 0.0790092 0.
0.61601 0.0790091 0.
0.618011 0.0790092 0.
0.620011 0.0790093 0.
0.622012 0.0790095 0.
0.624013 0.0790099 0.
0.626015 0.0790105 0.
0.628016 0.079011 0.
0.630017 0.0790116 0.
0.632017 0.0790123 0.
0.634018 0.0790128 0.
0.636018 0.0790131 0.
0.638019 0.0790134 0.
0.64002 0.0790139 0.
0.642021 0.0790146 0.
0.644021 0.0790154 0.
0.646022 0.0790159 0.
0.648024 0.0790164 0.
0.650025 0.0790169 0.
0.652025 0.0790176 0.
0.654025 0.0790182 0.
0.656025 0.079019 0.
0.658026 0.0790202 0.
0.660027 0.0790215 0.
0.662028 0.0790223 0.
0.66403 0.0790225 0.
0.666031 0.0790227 0.
0.668031 0.0790231 0.
0.670031 0.0790238 0.
0.672032 0.0790244 0.
0.674032 0.0790252 0.
0.676033 0.079026 0.
0.678034 0.0790268 0.
0.680034 0.0790275 0.
0.682034 0.0790282 0.
0.684034 0.0790294 0.
0.686035 0.0790312 0.
0.688035 0.079033 0.
0.690036 0.079034 0.
0.692037 0.0790343 0.
0.694037 0.0790345 0.
0.696037 0.0790357 0.
0.698037 0.079037 0.
0.499964 0.0810356 0.
0.501964 0.0810343 0.
0.503964 0.0810329 0.
0.505964 0.0810317 0.
0.507965 0.0810309 0.
0.509966 0.0810301 0.
0.511966 0.0810293 0.
0.513966 0.0810282 0.
0.515966 0.0810272 0.
0.517966 0.0810263 0.
0.519966 0.0810256 0.
0.521966 0.0810248 0.
0.523967 0.0810236 0.
0.525968 0.0810224 0.
0.527969 0.0810211 0.
0.529969 0.08102 0.
0.53197 0.0810189 0.
0.533971 0.081018 0.
0.535971 0.0810176 0.
0.537971 0.0810172 0.
0.539972 0.0810166 0.
0.541973 0.0810159 0.
0.543973 0.0810153 0.
0.545974 0.0810146 0.
0.547975 0.081014 0.
0.549976 0.0810134 0.
0.551977 0.0810133 0.
0.553979 0.0810132 0.
0.55598 0.081013 0.
0.557981 0.0810122 0.
0.559982 0.0810114 0.
0.561983 0.0810109 0.
0.563984 0.0810105 0.
0.565985 0.0810101 0.
0.567986 0.0810097 0.
0.569986 0.0810093 0.
0.571987 0.0810089 0.
0.573988 0.0810089 0.
0.57599 0.0810089 0.
0.577991 0.0810088 0.
0.579992 0.0810083 0.
0.581992 0.0810077 0.
0.583993 0.0810074 0.
0.585994 0.0810077 0.
0.587995 0.0810079 0.
0.589996 0.0810082 0.
0.591997 0.0810087 0.
0.593998 0.0810092 0.
0.595999 0.0810096 0.
0.598 0.0810099 0.
0.600002 0.0810103 0.
0.602003 0.0810098 0.
0.604004 0.0810092 0.
0.606005 0.0810089 0.
0.608006 0.0810091 0.
0.610006 0.0810093 0.
0.612007 0.0810094 0.
0.614008 0.0810092 0.
0.616009 0.0810091 0.
0.61801 0.0810091 0.
0.620011 0.0810091 0.
0.622012 0.0810091 0.
0.624013 0.0810096 0.
0.626014 0.0810102 0.
0.628015 0.0810108 0.
0.630016 0.0810115 0.
0.632016 0.0810122 0.
0.634017 0.0810127 0.
0.636018 0.081013 0.
0.638018 0.0810133 0.
0.640019 0.0810138 0.
0.64202 0.0810146 0.
0.64402 0.0810154 0.
0.646022 0.081016 0.
0.648023 0.0810166 0.
0.650025 0.0810171 0.
0.652024 0.0810174 0.
0.654024 0.0810178 0.
0.656024 0.0810183 0.
0.658025 0.0810195 0.
0.660026 0.0810208 0.
0.662027 0.0810217 0.
0.664028 0.0810222 0.
0.666029 0.0810227 0.
0.66803 0.0810233 0.
0.67003 0.0810239 0.
0.67203 0.0810246 0.
0.674031 0.0810252 0.
0.676032 0.0810257 0.
0.678033 0.0810264 0.
0.680033 0.0810273 0.
0.682033 0.0810283 0.
0.684033 0.0810295 0.
0.686034 0.0810311 0.
0.688034 0.0810328 0.
0.690035 0.0810337 0.
0.692036 0.0810341 0.
0.694036 0.0810345 0.
0.696036 0.0810356 0.
0.698036 0.0810369 0.
0.499966 0.0830353 0.
0.501966 0.0830344 0.
0.503966 0.0830333 0.
0.505966 0.0830322 0.
0.507966 0.0830313 0.
0.509967 0.0830304 0.
0.511967 0.0830295 0.
0.513968 0.0830284 0.
0.515968 0.0830273 0.
0.517968 0.0830263 0.
0.519968 0.0830253 0.
0.521968 0.0830244 0.
0.523969 0.0830232 0.
0.525969 0.0830221 0.
0.52797 0.0830209 0.
0.52997 0.08302 0.
0.531971 0.0830191 0.
0.533971 0.0830183 0.
0.535972 0.083018 0.
0.537972 0.0830176 0.
0.539973 0.0830168 0.
0.541974 0.0830158 0.
0.543974 0.0830148 0.
0.545975 0.0830142 0.
0.547976 0.0830138 0.
0.549977 0.0830135 0.
0.551978 0.0830132 0.
0.553979 0.0830129 0.
0.55598 0.0830125 0.
0.557981 0.0830117 0.
0.559982 0.0830109 0.
0.561983 0.0830104 0.
0.563984 0.0830104 0.
0.565985 0.0830104 0.
0.567986 0.08301 0.
0.569987 0.0830094 0.
0.571987 0.0830088 0.
0.573989 0.0830085 0.
0.57599 0.0830082 0.
0.577991 0.0830079 0.
0.579992 0.0830079 0.
0.581993 0.0830078 0.
0.583993 0.0830078 0.
0.585994 0.0830077 0.
0.587995 0.0830077 0.
0.589996 0.0830079 0.
0.591996 0.0830083 0.
0.593997 0.0830087 0.
0.595998 0.083009 0.
0.598 0.0830093 0.
0.600001 0.0830096 0.
0.602002 0.0830092 0.
0.604003 0.0830089 0.
0.606005 0.0830087 0.
0.608005 0.0830091 0.
0.610006 0.0830095 0.
0.612007 0.0830096 0.
0.614008 0.0830093 0.
0.616008 0.083009 0.
0.618009 0.0830089 0.
0.62001 0.0830089 0.
0.622011 0.0830089 0.
0.624012 0.0830093 0.
0.626013 0.0830098 0.
0.628014 0.0830103 0.
0.630015 0.0830112 0.
0.632015 0.083012 0.
0.634016 0.0830127 0.
0.636017 0.0830129 0.
0.638018 0.0830132 0.
0.640019 0.0830137 0.
0.642019 0.0830146 0.
0.64402 0.0830154 0.
0.646021 0.0830161 0.
0.648022 0.0830168 0.
0.650023 0.0830175 0.
0.652023 0.0830177 0.
0.654024 0.0830179 0.
0.656024 0.0830182 0.
0.658024 0.0830192 0.
0.660025 0.0830202 0.
0.662026 0.0830211 0.
0.664027 0.0830219 0.
0.666028 0.0830228 0.
0.668028 0.0830234 0.
0.670029 0.0830238 0.
0.672029 0.0830243 0.
0.67403 0.0830249 0.
0.67603 0.0830254 0.
0.678031 0.0830261 0.
0.680031 0.0830273 0.
0.682032 0.0830285 0.
0.684032 0.0830297 0.
0.686033 0.0830308 0.
0.688033 0.0830319 0.
0.690034 0.0830329 0.
0.692034 0.0830339 0.
0.694035 0.0830349 0.
0.696035 0.083036 0.
0.698035 0.0830371 0.
0.499967 0.0850354 0.
0.501967 0.0850346 0.
0.503967 0.0850336 0.
0.505967 0.0850326 0.
0.507968 0.0850316 0.
0.509968 0.0850307 0.
0.511969 0.0850297 0.
0.513969 0.0850286 0.
0.515969 0.0850274 0.
0.51797 0.0850263 0.
0.51997 0.0850251 0.
0.52197 0.0850239 0.
0.52397 0.0850229 0.
0.525971 0.0850218 0.
0.527971 0.0850207 0.
0.529972 0.08502 0.
0.531972 0.0850193 0.
0.533972 0.0850187 0.
0.535972 0.0850183 0.
0.537973 0.0850179 0.
0.539974 0.085017 0.
0.541974 0.0850157 0.
0.543975 0.0850143 0.
0.545976 0.0850138 0.
0.547977 0.0850136 0.
0.549978 0.0850135 0.
0.551979 0.085013 0.
0.553979 0.0850126 0.
0.55598 0.0850121 0.
0.557981 0.0850112 0.
0.559983 0.0850104 0.
0.561984 0.08501 0.
0.563984 0.0850103 0.
0.565985 0.0850106 0.
0.567986 0.0850102 0.
0.569987 0.0850095 0.
0.571988 0.0850087 0.
0.573989 0.0850081 0.
0.57599 0.0850075 0.
0.577991 0.085007 0.
0.579992 0.0850074 0.
0.581993 0.0850079 0.
0.583993 0.0850081 0.
0.585994 0.0850078 0.
0.587995 0.0850075 0.
0.589995 0.0850075 0.
0.591996 0.0850079 0.
0.593996 0.0850082 0.
0.595998 0.0850085 0.
0.597999 0.0850087 0.
0.600001 0.0850089 0.
0.602002 0.0850087 0.
0.604003 0.0850085 0.
0.606004 0.0850085 0.
0.608005 0.085009 0.
0.610006 0.0850096 0.
0.612007 0.0850098 0.
0.614007 0.0850093 0.
0.616007 0.0850088 0.
0.618008 0.0850087 0.
0.62001 0.0850087 0.
0.622011 0.0850087 0.
0.624012 0.0850091 0.
0.626013 0.0850094 0.
0.628013 0.0850099 0.
0.630014 0.0850109 0.
0.632014 0.0850119 0.
0.634015 0.0850127 0.
0.636016 0.0850129 0.
0.638017 0.0850131 0.
0.640018 0.0850137 0.
0.642018 0.0850145 0.
0.644019 0.0850154 0.
0.64602 0.0850162 0.
0.648021 0.085017 0.
0.650022 0.0850178 0.
0.652022 0.0850179 0.
0.654023 0.085018 0.
0.656023 0.0850182 0.
0.658024 0.0850189 0.
0.660024 0.0850195 0.
0.662024 0.0850204 0.
0.664025 0.0850217 0.
0.666026 0.0850229 0.
0.668026 0.0850235 0.
0.670027 0.0850238 0.
0.672028 0.085024 0.
0.674028 0.0850246 0.
0.676029 0.0850251 0.
0.678029 0.0850258 0.
0.68003 0.0850273 0.
0.68203 0.0850287 0.
0.684031 0.0850299 0.
0.686032 0.0850305 0.
0.688032 0.085031 0.
0.690032 0.0850322 0.
0.692033 0.0850338 0.
0.694033 0.0850354 0.
0.696033 0.0850364 0.
0.698034 0.0850372 0.
0.499968 0.0870351 0.
0.501968 0.0870344 0.
0.503968 0.0870333 0.
0.505969 0.0870323 0.
0.507969 0.0870314 0.
0.509969 0.0870304 0.
0.51197 0.0870294 0.
0.51397 0.0870285 0.
0.51597 0.0870276 0.
0.51797 0.0870263 0.
0.519971 0.0870249 0.
0.521971 0.0870234 0.
0.523972 0.0870222 0.
0.525972 0.087021 0.
0.527973 0.0870199 0.
0.529973 0.0870193 0.
0.531973 0.0870187 0.
0.533973 0.0870182 0.
0.535974 0.0870176 0.
0.537974 0.087017 0.
0.539975 0.0870162 0.
0.541976 0.0870153 0.
0.543976 0.0870143 0.
0.545977 0.0870138 0.
0.547978 0.0870134 0.
0.549978 0.0870131 0.
0.551979 0.0870124 0.
0.55398 0.0870118 0.
0.55598 0.0870112 0.
0.557982 0.0870107 0.
0.559983 0.0870102 0.
0.561984 0.0870099 0.
0.563985 0.0870101 0.
0.565985 0.0870103 0.
0.567986 0.08701 0.
0.569987 0.0870094 0.
0.571988 0.0870088 0.
0.573989 0.0870082 0.
0.57599 0.0870075 0.
0.577991 0.0870069 0.
0.579991 0.0870071 0.
0.581992 0.0870074 0.
0.583992 0.0870075 0.
0.585994 0.0870075 0.
0.587995 0.0870075 0.
0.589996 0.0870077 0.
0.591996 0.0870081 0.
0.593997 0.0870085 0.
0.595998 0.0870087 0.
0.597999 0.0870088 0.
0.6 0.0870089 0.
0.602002 0.0870087 0.
0.604003 0.0870084 0.
0.606004 0.0870083 0.
0.608004 0.0870088 0.
0.610005 0.0870093 0.
0.612006 0.0870094 0.
0.614006 0.087009 0.
0.616007 0.0870086 0.
0.618008 0.0870087 0.
0.620009 0.0870088 0.
0.62201 0.087009 0.
0.624011 0.0870089 0.
0.626012 0.0870088 0.
0.628013 0.0870088 0.
0.630013 0.08701 0.
0.632014 0.0870111 0.
0.634014 0.087012 0.
0.636015 0.0870121 0.
0.638016 0.0870122 0.
0.640017 0.0870129 0.
0.642017 0.087014 0.
0.644018 0.087015 0.
0.646019 0.087016 0.
0.64802 0.087017 0.
0.650021 0.087018 0.
0.652022 0.0870181 0.
0.654022 0.0870182 0.
0.656022 0.0870184 0.
0.658022 0.0870191 0.
0.660022 0.0870198 0.
0.662023 0.0870207 0.
0.664024 0.0870217 0.
0.666025 0.0870227 0.
0.668025 0.0870231 0.
0.670026 0.0870232 0.
0.672027 0.0870233 0.
0.674027 0.087024 0.
0.676028 0.0870247 0.
0.678029 0.0870256 0.
0.680029 0.0870269 0.
0.682029 0.0870283 0.
0.68403 0.0870294 0.
0.68603 0.0870302 0.
0.68803 0.087031 0.
0.690031 0.0870322 0.
0.692031 0.0870336 0.
0.694031 0.0870351 0.
0.696032 0.0870363 0.
0.698032 0.0870373 0.
0.499969 0.0890354 0.
0.50197 0.0890342 0.
0.50397 0.0890331 0.
0.50597 0.0890321 0.
0.50797 0.0890311 0.
0.509971 0.0890301 0.
0.511971 0.0890292 0.
0.513971 0.0890285 0.
0.515971 0.0890277 0.
0.517971 0.0890263 0.
0.519972 0.0890246 0.
0.521972 0.0890229 0.
0.523973 0.0890216 0.
0.525973 0.0890202 0.
0.527974 0.089019 0.
0.529974 0.0890186 0.
0.531975 0.0890182 0.
0.533975 0.0890177 0.
0.535975 0.0890168 0.
0.537976 0.089016 0.
0.539976 0.0890154 0.
0.541977 0.0890148 0.
0.543977 0.0890143 0.
0.545978 0.0890138 0.
0.547978 0.0890132 0.
0.549979 0.0890126 0.
0.55198 0.0890119 0.
0.553981 0.0890111 0.
0.555981 0.0890104 0.
0.557982 0.0890102 0.
0.559983 0.0890099 0.
0.561984 0.0890098 0.
0.563985 0.0890099 0.
0.565986 0.08901 0.
0.567986 0.0890097 0.
0.569987 0.0890093 0.
0.571987 0.0890089 0.
0.573988 0.0890082 0.
0.575989 0.0890075 0.
0.57799 0.0890069 0.
0.57999 0.0890068 0.
0.581991 0.0890068 0.
0.583992 0.0890069 0.
0.585993 0.0890072 0.
0.587995 0.0890075 0.
0.589996 0.0890079 0.
0.591997 0.0890083 0.
0.593997 0.0890087 0.
0.595998 0.0890089 0.
0.597999 0.0890089 0.
0.6 0.0890088 0.
0.602001 0.0890086 0.
0.604002 0.0890084 0.
0.606003 0.0890083 0.
0.608004 0.0890086 0.
0.610004 0.0890089 0.
0.612005 0.089009 0.
0.614006 0.0890087 0.
0.616007 0.0890085 0.
0.618007 0.0890086 0.
0.620008 0.089009 0.
0.622009 0.0890093 0.
0.62401 0.0890088 0.
0.626011 0.0890082 0.
0.628012 0.0890078 0.
0.630013 0.0890091 0.
0.632013 0.0890104 0.
0.634014 0.0890113 0.
0.636014 0.0890114 0.
0.638015 0.0890114 0.
0.640015 0.0890121 0.
0.642016 0.0890134 0.
0.644018 0.0890146 0.
0.646019 0.0890158 0.
0.648019 0.089017 0.
0.65002 0.0890182 0.
0.652021 0.0890183 0.
0.654021 0.0890184 0.
0.656021 0.0890187 0.
0.658021 0.0890194 0.
0.660021 0.0890201 0.
0.662022 0.0890209 0.
0.664023 0.0890217 0.
0.666024 0.0890225 0.
0.668024 0.0890227 0.
0.670025 0.0890226 0.
0.672026 0.0890225 0.
0.674027 0.0890234 0.
0.676027 0.0890244 0.
0.678028 0.0890254 0.
0.680028 0.0890266 0.
0.682029 0.0890278 0.
0.684029 0.0890289 0.
0.686029 0.0890299 0.
0.688029 0.0890309 0.
0.690029 0.0890322 0.
0.692029 0.0890335 0.
0.69403 0.0890349 0.
0.69603 0.0890362 0.
0.69803 0.0890375 0.
0.49997 0.0910353 0.
0.501971 0.0910341 0.
0.503971 0.091033 0.
0.505971 0.0910318 0.
0.507971 0.0910308 0.
0.509972 0.0910297 0.
0.511972 0.0910289 0.
0.513972 0.0910282 0.
0.515972 0.0910276 0.
0.517972 0.0910261 0.
0.519973 0.0910242 0.
0.521974 0.0910223 0.
0.523974 0.091021 0.
0.525975 0.0910199 0.
0.527975 0.0910188 0.
0.529975 0.0910183 0.
0.531976 0.0910178 0.
0.533976 0.0910172 0.
0.535976 0.0910164 0.
0.537977 0.0910156 0.
0.539977 0.091015 0.
0.541977 0.0910146 0.
0.543978 0.0910142 0.
0.545978 0.0910135 0.
0.547979 0.0910129 0.
0.549979 0.0910122 0.
0.55198 0.0910114 0.
0.553981 0.0910107 0.
0.555982 0.09101 0.
0.557983 0.0910099 0.
0.559983 0.0910097 0.
0.561984 0.0910097 0.
0.563985 0.0910097 0.
0.565986 0.0910097 0.
0.567986 0.0910095 0.
0.569987 0.0910092 0.
0.571987 0.0910089 0.
0.573988 0.0910083 0.
0.575989 0.0910077 0.
0.57799 0.0910071 0.
0.57999 0.0910067 0.
0.581991 0.0910064 0.
0.583991 0.0910064 0.
0.585993 0.0910069 0.
0.587994 0.0910075 0.
0.589995 0.091008 0.
0.591996 0.0910084 0.
0.593997 0.0910089 0.
0.595998 0.091009 0.
0.597999 0.0910089 0.
0.6 0.0910088 0.
0.602001 0.0910085 0.
0.604002 0.0910082 0.
0.606003 0.091008 0.
0.608003 0.0910083 0.
0.610004 0.0910086 0.
0.612004 0.0910087 0.
0.614005 0.0910085 0.
0.616006 0.0910084 0.
0.618007 0.0910085 0.
0.620007 0.0910089 0.
0.622008 0.0910092 0.
0.624009 0.0910086 0.
0.62601 0.0910079 0.
0.628012 0.0910074 0.
0.630012 0.0910087 0.
0.632013 0.0910099 0.
0.634014 0.0910108 0.
0.636014 0.091011 0.
0.638014 0.0910112 0.
0.640015 0.0910119 0.
0.642016 0.091013 0.
0.644017 0.0910141 0.
0.646018 0.0910155 0.
0.648018 0.0910169 0.
0.650019 0.0910184 0.
0.65202 0.0910184 0.
0.65402 0.0910185 0.
0.656021 0.0910187 0.
0.658021 0.0910195 0.
0.660021 0.0910202 0.
0.662021 0.0910209 0.
0.664022 0.0910216 0.
0.666023 0.0910222 0.
0.668024 0.0910223 0.
0.670024 0.0910222 0.
0.672025 0.0910221 0.
0.674026 0.0910231 0.
0.676026 0.0910241 0.
0.678027 0.0910252 0.
0.680027 0.0910264 0.
0.682027 0.0910276 0.
0.684027 0.0910287 0.
0.686027 0.0910298 0.
0.688027 0.0910309 0.
0.690027 0.0910321 0.
0.692028 0.0910332 0.
0.694028 0.0910344 0.
0.696028 0.0910359 0.
0.698028 0.0910375 0.
0.499972 0.0930359 0.
0.501972 0.0930342 0.
0.503972 0.0930329 0.
0.505972 0.0930317 0.
0.507973 0.0930305 0.
0.509973 0.0930294 0.
0.511973 0.0930284 0.
0.513973 0.0930278 0.
0.515973 0.0930272 0.
0.517974 0.0930257 0.
0.519974 0.0930236 0.
0.521975 0.0930216 0.
0.523976 0.0930207 0.
0.525976 0.09302 0.
0.527976 0.0930192 0.
0.529976 0.0930184 0.
0.531976 0.0930176 0.
0.533976 0.0930168 0.
0.535977 0.0930162 0.
0.537977 0.0930157 0.
0.539977 0.0930151 0.
0.541978 0.0930144 0.
0.543978 0.0930138 0.
0.545979 0.0930131 0.
0.547979 0.0930125 0.
0.54998 0.0930118 0.
0.551981 0.0930112 0.
0.553982 0.0930106 0.
0.555983 0.0930101 0.
0.557983 0.0930099 0.
0.559984 0.0930096 0.
0.561984 0.0930095 0.
0.563985 0.0930095 0.
0.565986 0.0930095 0.
0.567986 0.0930094 0.
0.569987 0.0930092 0.
0.571987 0.0930089 0.
0.573988 0.0930085 0.
0.575989 0.093008 0.
0.57799 0.0930075 0.
0.57999 0.0930068 0.
0.581991 0.0930061 0.
0.583992 0.0930059 0.
0.585993 0.0930066 0.
0.587994 0.0930073 0.
0.589994 0.0930079 0.
0.591995 0.0930084 0.
0.593996 0.0930089 0.
0.595997 0.093009 0.
0.597998 0.0930089 0.
0.599999 0.0930088 0.
0.602 0.0930083 0.
0.604002 0.0930078 0.
0.606003 0.0930076 0.
0.608003 0.0930079 0.
0.610004 0.0930082 0.
0.612004 0.0930084 0.
0.614005 0.0930083 0.
0.616006 0.0930082 0.
0.618006 0.0930084 0.
0.620007 0.0930086 0.
0.622007 0.0930088 0.
0.624009 0.0930084 0.
0.62601 0.093008 0.
0.628012 0.0930078 0.
0.630012 0.0930088 0.
0.632013 0.0930098 0.
0.634013 0.0930106 0.
0.636013 0.0930111 0.
0.638014 0.0930117 0.
0.640014 0.0930123 0.
0.642015 0.0930129 0.
0.644016 0.0930136 0.
0.646017 0.0930151 0.
0.648017 0.0930168 0.
0.650018 0.0930185 0.
0.652019 0.0930184 0.
0.65402 0.0930184 0.
0.65602 0.0930185 0.
0.65802 0.0930193 0.
0.660021 0.09302 0.
0.662021 0.0930207 0.
0.664022 0.0930212 0.
0.666022 0.0930218 0.
0.668023 0.093022 0.
0.670024 0.0930221 0.
0.672024 0.0930222 0.
0.674024 0.0930231 0.
0.676024 0.093024 0.
0.678025 0.093025 0.
0.680025 0.0930263 0.
0.682025 0.0930277 0.
0.684025 0.0930289 0.
0.686025 0.0930299 0.
0.688025 0.0930309 0.
0.690025 0.0930318 0.
0.692026 0.0930328 0.
0.694026 0.0930337 0.
0.696026 0.0930354 0.
0.698026 0.0930374 0.
0.499972 0.0950357 0.
0.501972 0.0950343 0.
0.503973 0.0950329 0.
0.505973 0.0950315 0.
0.507974 0.0950302 0.
0.509975 0.095029 0.
0.511975 0.095028 0.
0.513975 0.0950274 0.
0.515975 0.0950268 0.
0.517975 0.0950252 0.
0.519976 0.0950231 0.
0.521977 0.0950209 0.
0.523977 0.0950204 0.
0.525977 0.09502 0.
0.527978 0.0950197 0.
0.529977 0.0950185 0.
0.531977 0.0950173 0.
0.533977 0.0950164 0.
0.535977 0.0950161 0.
0.537977 0.0950158 0.
0.539978 0.0950151 0.
0.541978 0.0950143 0.
0.543979 0.0950134 0.
0.545979 0.0950127 0.
0.54798 0.095012 0.
0.54998 0.0950114 0.
0.551982 0.095011 0.
0.553983 0.0950106 0.
0.555984 0.0950102 0.
0.557984 0.0950099 0.
0.559984 0.0950095 0.
0.561984 0.0950093 0.
0.563985 0.0950093 0.
0.565985 0.0950093 0.
0.567986 0.0950093 0.
0.569987 0.0950091 0.
0.571987 0.0950089 0.
0.573988 0.0950086 0.
0.575989 0.0950083 0.
0.57799 0.095008 0.
0.579991 0.0950069 0.
0.581991 0.0950058 0.
0.583992 0.0950053 0.
0.585992 0.0950063 0.
0.587993 0.0950072 0.
0.589993 0.0950078 0.
0.591994 0.0950084 0.
0.593995 0.0950089 0.
0.595996 0.095009 0.
0.597997 0.0950089 0.
0.599998 0.0950088 0.
0.601999 0.0950081 0.
0.604001 0.0950075 0.
0.606003 0.0950071 0.
0.608003 0.0950075 0.
0.610004 0.0950079 0.
0.612004 0.0950081 0.
0.614005 0.0950081 0.
0.616005 0.0950081 0.
0.618006 0.0950082 0.
0.620006 0.0950082 0.
0.622007 0.0950083 0.
0.624009 0.0950082 0.
0.62601 0.0950081 0.
0.628012 0.0950081 0.
0.630012 0.0950088 0.
0.632012 0.0950096 0.
0.634012 0.0950104 0.
0.636013 0.0950112 0.
0.638014 0.0950121 0.
0.640014 0.0950126 0.
0.642014 0.0950128 0.
0.644015 0.095013 0.
0.646015 0.0950146 0.
0.648016 0.0950166 0.
0.650017 0.0950186 0.
0.652018 0.0950184 0.
0.654019 0.0950183 0.
0.65602 0.0950183 0.
0.65802 0.0950191 0.
0.66002 0.0950199 0.
0.662021 0.0950205 0.
0.664021 0.0950209 0.
0.666022 0.0950213 0.
0.668022 0.0950217 0.
0.670023 0.095022 0.
0.672024 0.0950223 0.
0.674023 0.0950231 0.
0.676023 0.0950239 0.
0.678022 0.0950248 0.
0.680023 0.0950263 0.
0.682023 0.0950278 0.
0.684023 0.095029 0.
0.686023 0.0950299 0.
0.688024 0.0950308 0.
0.690024 0.0950316 0.
0.692024 0.0950323 0.
0.694024 0.0950331 0.
0.696024 0.095035 0.
0.698024 0.0950373 0.
0.499975 0.0970369 0.
0.501975 0.0970351 0.
0.503975 0.0970334 0.
0.505975 0.0970317 0.
0.507975 0.0970302 0.
0.509975 0.0970287 0.
0.511976 0.0970275 0.
0.513976 0.0970268 0.
0.515977 0.097026 0.
0.517977 0.0970244 0.
0.519978 0.0970225 0.
0.521978 0.0970206 0.
0.523978 0.0970201 0.
0.525978 0.0970198 0.
0.527977 0.0970195 0.
0.529977 0.0970187 0.
0.531977 0.0970178 0.
0.533977 0.0970171 0.
0.535978 0.0970166 0.
0.537978 0.097016 0.
0.539979 0.0970151 0.
0.541979 0.0970138 0.
0.54398 0.0970126 0.
0.545981 0.0970121 0.
0.547981 0.0970118 0.
0.549982 0.0970115 0.
0.551982 0.097011 0.
0.553983 0.0970105 0.
0.555983 0.09701 0.
0.557984 0.0970096 0.
0.559985 0.0970092 0.
0.561985 0.097009 0.
0.563985 0.0970091 0.
0.565985 0.0970091 0.
0.567986 0.0970091 0.
0.569987 0.0970091 0.
0.571987 0.097009 0.
0.573988 0.0970084 0.
0.575989 0.0970078 0.
0.57799 0.0970071 0.
0.579991 0.0970066 0.
0.581992 0.097006 0.
0.583992 0.0970057 0.
0.585992 0.0970061 0.
0.587993 0.0970065 0.
0.589993 0.0970071 0.
0.591993 0.0970078 0.
0.593994 0.0970085 0.
0.595996 0.0970087 0.
0.597997 0.0970087 0.
0.599999 0.0970087 0.
0.602 0.097008 0.
0.604001 0.0970074 0.
0.606002 0.0970069 0.
0.608003 0.097007 0.
0.610003 0.0970071 0.
0.612004 0.0970073 0.
0.614005 0.0970075 0.
0.616005 0.0970078 0.
0.618006 0.097008 0.
0.620006 0.0970081 0.
0.622007 0.0970082 0.
0.624008 0.0970081 0.
0.62601 0.097008 0.
0.628011 0.097008 0.
0.630011 0.097009 0.
0.632012 0.09701 0.
0.634012 0.0970108 0.
0.636013 0.0970112 0.
0.638013 0.0970117 0.
0.640014 0.0970121 0.
0.642014 0.0970124 0.
0.644015 0.0970127 0.
0.646015 0.0970141 0.
0.648016 0.0970159 0.
0.650017 0.0970176 0.
0.652017 0.0970178 0.
0.654018 0.097018 0.
0.656018 0.0970184 0.
0.658019 0.097019 0.
0.660019 0.0970197 0.
0.662019 0.0970203 0.
0.66402 0.0970207 0.
0.66602 0.0970212 0.
0.668021 0.0970216 0.
0.670022 0.097022 0.
0.672022 0.0970224 0.
0.674022 0.0970232 0.
0.676022 0.0970239 0.
0.678022 0.0970248 0.
0.680022 0.0970262 0.
0.682023 0.0970276 0.
0.684023 0.0970288 0.
0.686022 0.0970297 0.
0.688022 0.0970307 0.
0.690022 0.0970315 0.
0.692023 0.0970323 0.
0.694023 0.0970331 0.
0.696023 0.0970348 0.
0.698023 0.0970368 0.
0.499977 0.0990378 0.
0.501977 0.0990359 0.
0.503977 0.0990339 0.
0.505977 0.0990319 0.
0.507977 0.0990302 0.
0.509976 0.0990284 0.
0.511977 0.099027 0.
0.513977 0.0990261 0.
0.515978 0.0990251 0.
0.517979 0.0990237 0.
0.51998 0.0990219 0.
0.52198 0.0990202 0.
0.523979 0.0990198 0.
0.525978 0.0990196 0.
0.527977 0.0990193 0.
0.529977 0.0990188 0.
0.531978 0.0990183 0.
0.533978 0.0990178 0.
0.535978 0.099017 0.
0.537979 0.0990162 0.
0.53998 0.099015 0.
0.541981 0.0990134 0.
0.543982 0.0990118 0.
0.545982 0.0990115 0.
0.547983 0.0990116 0.
0.549983 0.0990116 0.
0.551983 0.099011 0.
0.553983 0.0990104 0.
0.555983 0.0990097 0.
0.557984 0.0990094 0.
0.559985 0.099009 0.
0.561986 0.0990088 0.
0.563986 0.0990088 0.
0.565986 0.0990089 0.
0.567986 0.099009 0.
0.569987 0.099009 0.
0.571987 0.0990091 0.
0.573988 0.0990082 0.
0.57599 0.0990072 0.
0.577991 0.0990063 0.
0.579992 0.0990062 0.
0.581992 0.0990061 0.
0.583993 0.0990061 0.
0.585992 0.099006 0.
0.587992 0.0990059 0.
0.589992 0.0990063 0.
0.591993 0.0990072 0.
0.593993 0.099008 0.
0.595995 0.0990083 0.
0.597998 0.0990085 0.
0.6 0.0990086 0.
0.602001 0.0990079 0.
0.604001 0.0990072 0.
0.606002 0.0990067 0.
0.608003 0.0990065 0.
0.610003 0.0990063 0.
0.612004 0.0990064 0.
0.614004 0.0990069 0.
0.616005 0.0990074 0.
0.618006 0.0990077 0.
0.620006 0.0990079 0.
0.622007 0.0990081 0.
0.624008 0.099008 0.
0.626009 0.0990078 0.
0.62801 0.0990078 0.
0.630011 0.0990091 0.
0.632011 0.0990104 0.
0.634012 0.0990112 0.
0.636013 0.0990112 0.
0.638013 0.0990112 0.
0.640014 0.0990115 0.
0.642014 0.0990119 0.
0.644015 0.0990123 0.
0.646015 0.0990136 0.
0.648016 0.0990152 0.
0.650017 0.0990166 0.
0.652017 0.0990172 0.
0.654017 0.0990178 0.
0.656017 0.0990184 0.
0.658017 0.099019 0.
0.660018 0.0990196 0.
0.662018 0.0990201 0.
0.664019 0.0990206 0.
0.666019 0.099021 0.
0.66802 0.0990215 0.
0.67002 0.099022 0.
0.672021 0.0990225 0.
0.674021 0.0990232 0.
0.676022 0.099024 0.
0.678022 0.0990248 0.
0.680022 0.0990261 0.
0.682022 0.0990273 0.
0.684022 0.0990285 0.
0.686021 0.0990295 0.
0.688021 0.0990305 0.
0.690021 0.0990315 0.
0.692021 0.0990323 0.
0.694022 0.0990331 0.
0.696022 0.0990346 0.
0.698022 0.0990362 0.
CELLS 5000 10000
1 0
1 1
1 2
1 3
1 4
1 5
1 6
1 7
1 8
1 9
1 10
1 11
1 12
1 13
1 14
1 15
1 16
1 17
1 18
1 19
1 20
1 21
1 22
1 23
1 24
1 25
1 26
1 27
1 28
1 29
1 30
1 31
1 32
1 33
1 34
1 35
1 36
1 37
1 38
1 39
1 40
1 41
1 42
1 43
1 44
1 45
1 46
1 47
1 48
1 49
1 50
1 51
1 52
1 53
1 54
1 55
1 56
1 57
1 58
1 59
1 60
1 61
1 62
1 63
1 64
1 65
1 66
1 67
1 68
1 69
1 70
1 71
1 72
1 73
1 74
1 75
1 76
1 77
1 78
1 79
1 80
1 81
1 82
1 83
1 84
1 85
1 86
1 87
1 88
1 89
1 90
1 91
1 92
1 93
1 94
1 95
1 96
1 97
1 98
1 99
1 100
1 101
1 102
1 103
1 104
1 105
1 106
1 107
1 108
1 109
1 110
1 111
1 112
1 113
1 114
1 115
1 116
1 117
1 118
1 119
1 120
1 121
1 122
1 123
1 124
1 125
1 126
1 127
1 128
1 129
1 130
1 131
1 132
1 133
1 134
1 135
1 136
1 137
1 138
1 139
1 140
1 141
1 142
1 143
1 144
1 145
1 146
1 147
1 148
1 149
1 150
1 151
1 152
1 153
1 154
1 155
1 156
1 157
1 158
1 159
1 160
1 161
1 162
1 163
1 164
1 165
1 166
1 167
1 168
1 169
1 170
1 171
1 172
1 173
1 174
1 175
1 176
1 177
1 178
1 179
1 180
1 181
1 182
1 183
1 184
1 185
1 186
1 187
1 188
1 189
1 190
1 191
1 192
1 193
1 194
1 195
1 196
1 197
1 198
1 199
1 200
1 201
1 202
1 203
1 204
1 205
1 206
1 207
1 208
1 209
1 210
1 211
1 212
1 213
1 214
1 215
1 216
1 217
1 218
1 219
1 220
1 221
1 222
1 223
1 224
1 225
1 226
1 227
1 228
1 229
1 230
1 231
1 232
1 233
1 234
1 235
1 236
1 237
1 238
1 239
1 240
1 241
1 242
1 243
1 244
1 245
1 246
1 247
1 248
1 249
1 250
1 251
1 252
1 253
1 254
1 255
1 256
1 257
1 258
1 259
1 260
1 261
1 262
1 263
1 264
1 265
1 266
1 267
1 268
1 269
1 270
1 271
1 272
1 273
1 274
1 275
1 276
1 277
1 278
1 279
1 280
1 281
1 282
1 283
1 284
1 285
1 286
1 287
1 288
1 289
1 290
1 291
1 292
1 293
1 294
1 295
1 296
1 297
1 298
1 299
1 300
1 301
1 302
1 303
1 304
1 305
1 306
1 307
1 308
1 309
1 310
1 311
1 312
1 313
1 314
1 315
1 316
1 317
1 318
1 319
1 320
1 321
1 322
1 323
1 324
1 325
1 326
1 327
1 328
1 329
1 330
1 331
1 332
1 333
1 334
1 335
1 336
1 337
1 338
1 339
1 340
1 341
1 342
1 343
1 344
1 345
1 346
1 347
1 348
1 349
1 350
1 351
1 352
1 353
1 354
1 355
1 356
1 357
1 358
1 359
1 360
1 361
1 362
1 363
1 364
1 365
1 366
1 367
1 368
1 369
1 370
1 371
1 372
1 373
1 374
1 375
1 376
1 377
1 378
1 379
1 380
1 381
1 382
1 383
1 384
1 385
1 386
1 387
1 388
1 389
1 390
1 391
1 392
1 393
1 394
1 395
1 396
1 397
1 398
1 399
1 400
1 401
1 402
1 403
1 404
1 405
1 406
1 407
1 408
1 409
1 410
1 411
1 412
1 413
1 414
1 415
1 416
1 417
1 418
1 419
1 420
1 421
1 422
1 423
1 424
1 425
1 426
1 427
1 428
1 429
1 430
1 431
1 432
1 433
1 434
1 435
1 436
1 437
1 438
1 439
1 440
1 441
1 442
1 443
1 444
1 445
1 446
1 447
1 448
1 449
1 450
1 451
1 452
1 453
1 454
1 455
1 456
1 457
1 458
1 459
1 460
1 461
1 462
1 463
1 464
1 465
1 466
1 467
1 468
1 469
1 470
1 471
1 472
1 473
1 474
1 475
1 476
1 477
1 478
1 479
1 480
1 481
1 482
1 483
1 484
1 485
1 486
1 487
1 488
1 489
1 490
1 491
1 492
1 493
1 494
1 495
1 496
1 497
1 498
1 499
1 500
1 501
1 502
1 503
1 504
1 505
1 506
1 507
1 508
1 509
1 510
1 511
1 512
1 513
1 514
1 515
1 516
1 517
1 518
1 519
1 520
1 521
1 522
1 523
1 524
1 525
1 526
1 527
1 528
1 529
1 530
1 531
1 532
1 533
1 534
1 535
1 536
1 537
1 538
1 539
1 540
1 541
1 542
1 543
1 544
1 545
1 546
1 547
1 548
1 549
1 550
1 551
1 552
1 553
1 554
1 555
1 556
1 557
1 558
1 559
1 560
1 561
1 562
1 563
1 564
1 565
1 566
1 567
1 568
1 569
1 570
1 571
1 572
1 573
1 574
1 575
1 576
1 577
1 578
1 579
1 580
1 581
1 582
1 583
1 584
1 585
1 586
1 587
1 588
1 589
1 590
1 591
1 592
1 593
1 594
1 595
1 596
1 597
1 598
1 599
1 600
1 601
1 602
1 603
1 604
1 605
1 606
1 607
1 608
1 609
1 610
1 611
1 612
1 613
1 614
1 615
1 616
1 617
1 618
1 619
1 620
1 621
1 622
1 623
1 624
1 625
1 626
1 627
1 628
1 629
1 630
1 631
1 632
1 633
1 634
1 635
1 636
1 637
1 638
1 639
1 640
1 641
1 642
1 643
1 644
1 645
1 646
1 647
1 648
1 649
1 650
1 651
1 652
1 653
1 654
1 655
1 656
1 657
1 658
1 659
1 660
1 661
1 662
1 663
1 664
1 665
1 666
1 667
1 668
1 669
1 670
1 671
1 672
1 673
1 674
1 675
1 676
1 677
1 678
1 679
1 680
1 681
1 682
1 683
1 684
1 685
1 686
1 687
1 688
1 689
1 690
1 691
1 692
1 693
1 694
1 695
1 696
1 697
1 698
1 699
1 700
1 701
1 702
1 703
1 704
1 705
1 706
1 707
1 708
1 709
1 710
1 711
1 712
1 713
1 714
1 715
1 716
1 717
1 718
1 719
1 720
1 721
1 722
1 723
1 724
1 725
1 726
1 727
1 728
1 729
1 730
1 731
1 732
1 733
1 734
1 735
1 736
1 737
1 738
1 739
1 740
1 741
1 742
1 743
1 744
1 745
1 746
1 747
1 748
1 749
1 750
1 751
1 752
1 753
1 754
1 755
1 756
1 757
1 758
1 759
1 760
1 761
1 762
1 763
1 764
1 765
1 766
1 767
1 768
1 769
1 770
1 771
1 772
1 773
1 774
1 775
1 776
1 777
1 778
1 779
1 780
1 781
1 782
1 783
1 784
1 785
1 786
1 787
1 788
1 789
1 790
1 791
1 792
1 793
1 794
1 795
1 796
1 797
1 798
1 799
1 800
1 801
1 802
1 803
1 804
1 805
1 806
1 807
1 808
1 809
1 810
1 811
1 812
1 813
1 814
1 815
1 816
1 817
1 818
1 819
1 820
1 821
1 822
1 823
1 824
1 825
1 826
1 827
1 828
1 829
1 830
1 831
1 832
1 833
1 834
1 835
1 836
1 837
1 838
1 839
1 840
1 841
1 842
1 843
1 844
1 845
1 846
1 847
1 848
1 849
1 850
1 851
1 852
1 853
1 854
1 855
1 856
1 857
1 858
1 859
1 860
1 861
1 862
1 863
1 864
1 865
1 866
1 867
1 868
1 869
1 870
1 871
1 872
1 873
1 874
1 875
1 876
1 877
1 878
1 879
1 880
1 881
1 882
1 883
1 884
1 885
1 886
1 887
1 888
1 889
1 890
1 891
1 892
1 893
1 894
1 895
1 896
1 897
1 898
1 899
1 900
1 901
1 902
1 903
1 904
1 905
1 906
1 907
1 908
1 909
1 910
1 911
1 912
1 913
1 914
1 915
1 916
1 917
1 918
1 919
1 920
1 921
1 922
1 923
1 924
1 925
1 926
1 927
1 928
1 929
1 930
1 931
1 932
1 933
1 934
1 935
1 936
1 937
1 938
1 939
1 940
1 941
1 942
1 943
1 944
1 945
1 946
1 947
1 948
1 949
1 950
1 951
1 952
1 953
1 954
1 955
1 956
1 957
1 958
1 959
1 960
1 961
1 962
1 963
1 964
1 965
1 966
1 967
1 968
1 969
1 970
1 971
1 972
1 973
1 974
1 975
1 976
1 977
1 978
1 979
1 980
1 981
1 982
1 983
1 984
1 985
1 986
1 987
1 988
1 989
1 990
1 991
1 992
1 993
1 994
1 995
1 996
1 997
1 998
1 999
1 1000
1 1001
1 1002
1 1003
1 1004
1 1005
1 1006
1 1007
1 1008
1 1009
1 1010
1 1011
1 1012
1 1013
1 1014
1 1015
1 1016
1 1017
1 1018
1 1019
1 1020
1 1021
1 1022
1 1023
1 1024
1 1025
1 1026
1 1027
1 1028
1 1029
1 1030
1 1031
1 1032
1 1033
1 1034
1 1035
1 1036
1 1037
1 1038
1 1039
1 1040
1 1041
1 1042
1 1043
1 1044
1 1045
1 1046
1 1047
1 1048
1 1049
1 1050
1 1051
1 1052
1 1053
1 1054
1 1055
1 1056
1 1057
1 1058
1 1059
1 1060
1 1061
1 1062
1 1063
1 1064
1 1065
1 1066
1 1067
1 1068
1 1069
1 1070
1 1071
1 1072
1 1073
1 1074
1 1075
1 1076
1 1077
1 1078
1 1079
1 1080
1 1081
1 1082
1 1083
1 1084
1 1085
1 1086
1 1087
1 1088
1 1089
1 1090
1 1091
1 1092
1 1093
1 1094
1 1095
1 1096
1 1097
1 1098
1 1099
1 1100
1 1101
1 1102
1 1103
1 1104
1 1105
1 1106
1 1107
1 1108
1 1109
1 1110
1 1111
1 1112
1 1113
1 1114
1 1115
1 1116
1 1117
1 1118
1 1119
1 1120
1 1121
1 1122
1 1123
1 1124
1 1125
1 1126
1 1127
1 1128
1 1129
1 1130
1 1131
1 1132
1 1133
1 1134
1 1135
1 1136
1 1137
1 1138
1 1139
1 1140
1 1141
1 1142
1 1143
1 1144
1 1145
1 1146
1 1147
1 1148
1 1149
1 1150
1 1151
1 1152
1 1153
1 1154
1 1155
1 1156
1 1157
1 1158
1 1159
1 1160
1 1161
1 1162
1 1163
1 1164
1 1165
1 1166
1 1167
1 1168
1 1169
1 1170
1 1171
1 1172
1 1173
1 1174
1 1175
1 1176
1 1177
1 1178
1 1179
1 1180
1 1181
1 1182
1 1183
1 1184
1 1185
1 1186
1 1187
1 1188
1 1189
1 1190
1 1191
1 1192
1 1193
1 1194
1 1195
1 1196
1 1197
1 1198
1 1199
1 1200
1 1201
1 1202
1 1203
1 1204
1 1205
1 1206
1 1207
1 1208
1 1209
1 1210
1 1211
1 1212
1 1213
1 1214
1 1215
1 1216
1 1217
1 1218
1 1219
1 1220
1 1221
1 1222
1 1223
1 1224
1 1225
1 1226
1 1227
1 1228
1 1229
1 1230
1 1231
1 1232
1 1233
1 1234
1 1235
1 1236
1 1237
1 1238
1 1239
1 1240
1 1241
1 1242
1 1243
1 1244
1 1245
1 1246
1 1247
1 1248
1 1249
1 1250
1 1251
1 1252
1 1253
1 1254
1 1255
1 1256
1 1257
1 1258
1 1259
1 1260
1 1261
1 1262
1 1263
1 1264
1 1265
1 1266
1 1267
1 1268
1 1269
1 1270
1 1271
1 1272
1 1273
1 1274
1 1275
1 1276
1 1277
1 1278
1 1279
1 1280
1 1281
1 1282
1 1283
1 1284
1 1285
1 1286
1 1287
1 1288
1 1289
1 1290
1 1291
1 1292
1 1293
1 1294
1 1295
1 1296
1 1297
1 1298
1 1299
1 1300
1 1301
1 1302
1 1303
1 1304
1 1305
1 1306
1 1307
1 1308
1 1309
1 1310
1 1311
1 1312
1 1313
1 1314
1 1315
1 1316
1 1317
1 1318
1 1319
1 1320
1 1321
1 1322
1 1323
1 1324
1 1325
1 1326
1 1327
1 1328
1 1329
1 1330
1 1331
1 1332
1 1333
1 1334
1 1335
1 1336
1 1337
1 1338
1 1339
1 1340
1 1341
1 1342
1 1343
1 1344
1 1345
1 1346
1 1347
1 1348
1 1349
1 1350
1 1351
1 1352
1 1353
1 1354
1 1355
1 1356
1 1357
1 1358
1 1359
1 1360
1 1361
1 1362
1 1363
1 1364
1 1365
1 1366
1 1367
1 1368
1 1369
1 1370
1 1371
1 1372
1 1373
1 1374
1 1375
1 1376
1 1377
1 1378
1 1379
1 1380
1 1381
1 1382
1 1383
1 1384
1 1385
1 1386
1 1387
1 1388
1 1389
1 1390
1 1391
1 1392
1 1393
1 1394
1 1395
1 1396
1 1397
1 1398
1 1399
1 1400
1 1401
1 1402
1 1403
1 1404
1 1405
1 1406
1 1407
1 1408
1 1409
1 1410
1 1411
1 1412
1 1413
1 1414
1 1415
1 1416
1 1417
1 1418
1 1419
1 1420
1 1421
1 1422
1 1423
1 1424
1 1425
1 1426
1 1427
1 1428
1 1429
1 1430
1 1431
1 1432
1 1433
1 1434
1 1435
1 1436
1 1437
1 1438
1 1439
1 1440
1 1441
1 1442
1 1443
1 1444
1 1445
1 1446
1 1447
1 1448
1 1449
1 1450
1 1451
1 1452
1 1453
1 1454
1 1455
1 1456
1 1457
1 1458
1 1459
1 1460
1 1461
1 1462
1 1463
1 1464
1 1465
1 1466
1 1467
1 1468
1 1469
1 1470
1 1471
1 1472
1 1473
1 1474
1 1475
1 1476
1 1477
1 1478
1 1479
1 1480
1 1481
1 1482
1 1483
1 1484
1 1485
1 1486
1 1487
1 1488
1 1489
1 1490
1 1491
1 1492
1 1493
1 1494
1 1495
1 1496
1 1497
1 1498
1 1499
1 1500
1 1501
1 1502
1 1503
1 1504
1 1505
1 1506
1 1507
1 1508
1 1509
1 1510
1 1511
1 1512
1 1513
1 1514
1 1515
1 1516
1 1517
1 1518
1 1519
1 1520
1 1521
1 1522
1 1523
1 1524
1 1525
1 1526
1 1527
1 1528
1 1529
1 1530
1 1531
1 1532
1 1533
1 1534
1 1535
1 1536
1 1537
1 1538
1 1539
1 1540
1 1541
1 1542
1 1543
1 1544
1 1545
1 1546
1 1547
1 1548
1 1549
1 1550
1 1551
1 1552
1 1553
1 1554
1 1555
1 1556
1 1557
1 1558
1 1559
1 1560
1 1561
1 1562
1 1563
1 1564
1 1565
1 1566
1 1567
1 1568
1 1569
1 1570
1 1571
1 1572
1 1573
1 1574
1 1575
1 1576
1 1577
1 1578
1 1579
1 1580
1 1581
1 1582
1 1583
1 1584
1 1585
1 1586
1 1587
1 1588
1 1589
1 1590
1 1591
1 1592
1 1593
1 1594
1 1595
1 1596
1 1597
1 1598
1 1599
1 1600
1 1601
1 1602
1 1603
1 1604
1 1605
1 1606
1 1607
1 1608
1 1609
1 1610
1 1611
1 1612
1 1613
1 1614
1 1615
1 1616
1 1617
1 1618
1 1619
1 1620
1 1621
1 1622
1 1623
1 1624
1 1625
1 1626
1 1627
1 1628
1 1629
1 1630
1 1631
1 1632
1 1633
1 1634
1 1635
1 1636
1 1637
1 1638
1 1639
1 1640
1 1641
1 1642
1 1643
1 1644
1 1645
1 1646
1 1647
1 1648
1 1649
1 1650
1 1651
1 1652
1 1653
1 1654
1 1655
1 1656
1 1657
1 1658
1 1659
1 1660
1 1661
1 1662
1 1663
1 1664
1 1665
1 1666
1 1667
1 1668
1 1669
1 1670
1 1671
1 1672
1 1673
1 1674
1 1675
1 1676
1 1677
1 1678
1 1679
1 1680
1 1681
1 1682
1 1683
1 1684
1 1685
1 1686
1 1687
1 1688
1 1689
1 1690
1 1691
1 1692
1 1693
1 1694
1 1695
1 1696
1 1697
1 1698
1 1699
1 1700
1 1701
1 1702
1 1703
1 1704
1 1705
1 1706
1 1707
1 1708
1 1709
1 1710
1 1711
1 1712
1 1713
1 1714
1 1715
1 1716
1 1717
1 1718
1 1719
1 1720
1 1721
1 1722
1 1723
1 1724
1 1725
1 1726
1 1727
1 1728
1 1729
1 1730
1 1731
1 1732
1 1733
1 1734
1 1735
1 1736
1 1737
1 1738
1 1739
1 1740
1 1741
1 1742
1 1743
1 1744
1 1745
1 1746
1 1747
1 1748
1 1749
1 1750
1 1751
1 1752
1 1753
1 1754
1 1755
1 1756
1 1757
1 1758
1 1759
1 1760
1 1761
1 1762
1 1763
1 1764
1 1765
1 1766
1 1767
1 1768
1 1769
1 1770
1 1771
1 1772
1 1773
1 1774
1 1775
1 1776
1 1777
1 1778
1 1779
1 1780
1 1781
1 1782
1 1783
1 1784
1 1785
1 1786
1 1787
1 1788
1 1789
1 1790
1 1791
1 1792
1 1793
1 1794
1 1795
1 1796
1 1797
1 1798
1 1799
1 1800
1 1801
1 1802
1 1803
1 1804
1 1805
1 1806
1 1807
1 1808
1 1809
1 1810
1 1811
1 1812
1 1813
1 1814
1 1815
1 1816
1 1817
1 1818
1 1819
1 1820
1 1821
1 1822
1 1823
1 1824
1 1825
1 1826
1 1827
1 1828
1 1829
1 1830
1 1831
1 1832
1 1833
1 1834
1 1835
1 1836
1 1837
1 1838
1 1839
1 1840
1 1841
1 1842
1 1843
1 1844
1 1845
1 1846
1 1847
1 1848
1 1849
1 1850
1 1851
1 1852
1 1853
1 1854
1 1855
1 1856
1 1857
1 1858
1 1859
1 1860
1 1861
1 1862
1 1863
1 1864
1 1865
1 1866
1 1867
1 1868
1 1869
1 1870
1 1871
1 1872
1 1873
1 1874
1 1875
1 1876
1 1877
1 1878
1 1879
1 1880
1 1881
1 1882
1 1883
1 1884
1 1885
1 1886
1 1887
1 1888
1 1889
1 1890
1 1891
1 1892
1 1893
1 1894
1 1895
1 1896
1 1897
1 1898
1 1899
1 1900
1 1901
1 1902
1 1903
1 1904
1 1905
1 1906
1 1907
1 1908
1 1909
1 1910
1 1911
1 1912
1 1913
1 1914
1 1915
1 1916
1 1917
1 1918
1 1919
1 1920
1 1921
1 1922
1 1923
1 1924
1 1925
1 1926
1 1927
1 1928
1 1929
1 1930
1 1931
1 1932
1 1933
1 1934
1 1935
1 1936
1 1937
1 1938
1 1939
1 1940
1 1941
1 1942
1 1943
1 1944
1 1945
1 1946
1 1947
1 1948
1 1949
1 1950
1 1951
1 1952
1 1953
1 1954
1 1955
1 1956
1 1957
1 1958
1 1959
1 1960
1 1961
1 1962
1 1963
1 1964
1 1965
1 1966
1 1967
1 1968
1 1969
1 1970
1 1971
1 1972
1 1973
1 1974
1 1975
1 1976
1 1977
1 1978
1 1979
1 1980
1 1981
1 1982
1 1983
1 1984
1 1985
1 1986
1 1987
1 1988
1 1989
1 1990
1 1991
1 1992
1 1993
1 1994
1 1995
1 1996
1 1997
1 1998
1 1999
1 2000
1 2001
1 2002
1 2003
1 2004
1 2005
1 2006
1 2007
1 2008
1 2009
1 2010
1 2011
1 2012
1 2013
1 2014
1 2015
1 2016
1 2017
1 2018
1 2019
1 2020
1 2021
1 2022
1 2023
1 2024
1 2025
1 2026
1 2027
1 2028
1 2029
1 2030
1 2031
1 2032
1 2033
1 2034
1 2035
1 2036
1 2037
1 2038
1 2039
1 2040
1 2041
1 2042
1 2043
1 2044
1 2045
1 2046
1 2047
1 2048
1 2049
1 2050
1 2051
1 2052
1 2053
1 2054
1 2055
1 2056
1 2057
1 2058
1 2059
1 2060
1 2061
1 2062
1 2063
1 2064
1 2065
1 2066
1 2067
1 2068
1 2069
1 2070
1 2071
1 2072
1 2073
1 2074
1 2075
1 2076
1 2077
1 2078
1 2079
1 2080
1 2081
1 2082
1 2083
1 2084
1 2085
1 2086
1 2087
1 2088
1 2089
1 2090
1 2091
1 2092
1 2093
1 2094
1 2095
1 2096
1 2097
1 2098
1 2099
1 2100
1 2101
1 2102
1 2103
1 2104
1 2105
1 2106
1 2107
1 2108
1 2109
1 2110
1 2111
1 2112
1 2113
1 2114
1 2115
1 2116
1 2117
1 2118
1 2119
1 2120
1 2121
1 2122
1 2123
1 2124
1 2125
1 2126
1 2127
1 2128
1 2129
1 2130
1 2131
1 2132
1 2133
1 2134
1 2135
1 2136
1 2137
1 2138
1 2139
1 2140
1 2141
1 2142
1 2143
1 2144
1 2145
1 2146
1 2147
1 2148
1 2149
1 2150
1 2151
1 2152
1 2153
1 2154
1 2155
1 2156
1 2157
1 2158
1 2159
1 2160
1 2161
1 2162
1 2163
1 2164
1 2165
1 2166
1 2167
1 2168
1 2169
1 2170
1 2171
1 2172
1 2173
1 2174
1 2175
1 2176
1 2177
1 2178
1 2179
1 2180
1 2181
1 2182
1 2183
1 2184
1 2185
1 2186
1 2187
1 2188
1 2189
1 2190
1 2191
1 2192
1 2193
1 2194
1 2195
1 2196
1 2197
1 2198
1 2199
1 2200
1 2201
1 2202
1 2203
1 2204
1 2205
1 2206
1 2207
1 2208
1 2209
1 2210
1 2211
1 2212
1 2213
1 2214
1 2215
1 2216
1 2217
1 2218
1 2219
1 2220
1 2221
1 2222
1 2223
1 2224
1 2225
1 2226
1 2227
1 2228
1 2229
1 2230
1 2231
1 2232
1 2233
1 2234
1 2235
1 2236
1 2237
1 2238
1 2239
1 2240
1 2241
1 2242
1 2243
1 2244
1 2245
1 2246
1 2247
1 2248
1 2249
1 2250
1 2251
1 2252
1 2253
1 2254
1 2255
1 2256
1 2257
1 2258
1 2259
1 2260
1 2261
1 2262
1 2263
1 2264
1 2265
1 2266
1 2267
1 2268
1 2269
1 2270
1 2271
1 2272
1 2273
1 2274
1 2275
1 2276
1 2277
1 2278
1 2279
1 2280
1 2281
1 2282
1 2283
1 2284
1 2285
1 2286
1 2287
1 2288
1 2289
1 2290
1 2291
1 2292
1 2293
1 2294
1 2295
1 2296
1 2297
1 2298
1 2299
1 2300
1 2301
1 2302
1 2303
1 2304
1 2305
1 2306
1 2307
1 2308
1 2309
1 2310
1 2311
1 2312
1 2313
1 2314
1 2315
1 2316
1 2317
1 2318
1 2319
1 2320
1 2321
1 2322
1 2323
1 2324
1 2325
1 2326
1 2327
1 2328
1 2329
1 2330
1 2331
1 2332
1 2333
1 2334
1 2335
1 2336
1 2337
1 2338
1 2339
1 2340
1 2341
1 2342
1 2343
1 2344
1 2345
1 2346
1 2347
1 2348
1 2349
1 2350
1 2351
1 2352
1 2353
1 2354
1 2355
1 2356
1 2357
1 2358
1 2359
1 2360
1 2361
1 2362
1 2363
1 2364
1 2365
1 2366
1 2367
1 2368
1 2369
1 2370
1 2371
1 2372
1 2373
1 2374
1 2375
1 2376
1 2377
1 2378
1 2379
1 2380
1 2381
1 2382
1 2383
1 2384
1 2385
1 2386
1 2387
1 2388
1 2389
1 2390
1 2391
1 2392
1 2393
1 2394
1 2395
1 2396
1 2397
1 2398
1 2399
1 2400
1 2401
1 2402
1 2403
1 2404
1 2405
1 2406
1 2407
1 2408
1 2409
1 2410
1 2411
1 2412
1 2413
1 2414
1 2415
1 2416
1 2417
1 2418
1 2419
1 2420
1 2421
1 2422
1 2423
1 2424
1 2425
1 2426
1 2427
1 2428
1 2429
1 2430
1 2431
1 2432
1 2433
1 2434
1 2435
1 2436
1 2437
1 2438
1 2439
1 2440
1 2441
1 2442
1 2443
1 2444
1 2445
1 2446
1 2447
1 2448
1 2449
1 2450
1 2451
1 2452
1 2453
1 2454
1 2455
1 2456
1 2457
1 2458
1 2459
1 2460
1 2461
1 2462
1 2463
1 2464
1 2465
1 2466
1 2467
1 2468
1 2469
1 2470
1 2471
1 2472
1 2473
1 2474
1 2475
1 2476
1 2477
1 2478
1 2479
1 2480
1 2481
1 2482
1 2483
1 2484
1 2485
1 2486
1 2487
1 2488
1 2489
1 2490
1 2491
1 2492
1 2493
1 2494
1 2495
1 2496
1 2497
1 2498
1 2499
1 2500
1 2501
1 2502
1 2503
1 2504
1 2505
1 2506
1 2507
1 2508
1 2509
1 2510
1 2511
1 2512
1 2513
1 2514
1 2515
1 2516
1 2517
1 2518
1 2519
1 2520
1 2521
1 2522
1 2523
1 2524
1 2525
1 2526
1 2527
1 2528
1 2529
1 2530
1 2531
1 2532
1 2533
1 2534
1 2535
1 2536
1 2537
1 2538
1 2539
1 2540
1 2541
1 2542
1 2543
1 2544
1 2545
1 2546
1 2547
1 2548
1 2549
1 2550
1 2551
1 2552
1 2553
1 2554
1 2555
1 2556
1 2557
1 2558
1 2559
1 2560
1 2561
1 2562
1 2563
1 2564
1 2565
1 2566
1 2567
1 2568
1 2569
1 2570
1 2571
1 2572
1 2573
1 2574
1 2575
1 2576
1 2577
1 2578
1 2579
1 2580
1 2581
1 2582
1 2583
1 2584
1 2585
1 2586
1 2587
1 2588
1 2589
1 2590
1 2591
1 2592
1 2593
1 2594
1 2595
1 2596
1 2597
1 2598
1 2599
1 2600
1 2601
1 2602
1 2603
1 2604
1 2605
1 2606
1 2607
1 2608
1 2609
1 2610
1 2611
1 2612
1 2613
1 2614
1 2615
1 2616
1 2617
1 2618
1 2619
1 2620
1 2621
1 2622
1 2623
1 2624
1 2625
1 2626
1 2627
1 2628
1 2629
1 2630
1 2631
1 2632
1 2633
1 2634
1 2635
1 2636
1 2637
1 2638
1 2639
1 2640
1 2641
1 2642
1 2643
1 2644
1 2645
1 2646
1 2647
1 2648
1 2649
1 2650
1 2651
1 2652
1 2653
1 2654
1 2655
1 2656
1 2657
1 2658
1 2659
1 2660
1 2661
1 2662
1 2663
1 2664
1 2665
1 2666
1 2667
1 2668
1 2669
1 2670
1 2671
1 2672
1 2673
1 2674
1 2675
1 2676
1 2677
1 2678
1 2679
1 2680
1 2681
1 2682
1 2683
1 2684
1 2685
1 2686
1 2687
1 2688
1 2689
1 2690
1 2691
1 2692
1 2693
1 2694
1 2695
1 2696
1 2697
1 2698
1 2699
1 2700
1 2701
1 2702
1 2703
1 2704
1 2705
1 2706
1 2707
1 2708
1 2709
1 2710
1 2711
1 2712
1 2713
1 2714
1 2715
1 2716
1 2717
1 2718
1 2719
1 2720
1 2721
1 2722
1 2723
1 2724
1 2725
1 2726
1 2727
1 2728
1 2729
1 2730
1 2731
1 2732
1 2733
1 2734
1 2735
1 2736
1 2737
1 2738
1 2739
1 2740
1 2741
1 2742
1 2743
1 2744
1 2745
1 2746
1 2747
1 2748
1 2749
1 2750
1 2751
1 2752
1 2753
1 2754
1 2755
1 2756
1 2757
1 2758
1 2759
1 2760
1 2761
1 2762
1 2763
1 2764
1 2765
1 2766
1 2767
1 2768
1 2769
1 2770
1 2771
1 2772
1 2773
1 2774
1 2775
1 2776
1 2777
1 2778
1 2779
1 2780
1 2781
1 2782
1 2783
1 2784
1 2785
1 2786
1 2787
1 2788
1 2789
1 2790
1 2791
1 2792
1 2793
1 2794
1 2795
1 2796
1 2797
1 2798
1 2799
1 2800
1 2801
1 2802
1 2803
1 2804
1 2805
1 2806
1 2807
1 2808
1 2809
1 2810
1 2811
1 2812
1 2813
1 2814
1 2815
1 2816
1 2817
1 2818
1 2819
1 2820
1 2821
1 2822
1 2823
1 2824
1 2825
1 2826
1 2827
1 2828
1 2829
1 2830
1 2831
1 2832
1 2833
1 2834
1 2835
1 2836
1 2837
1 2838
1 2839
1 2840
1 2841
1 2842
1 2843
1 2844
1 2845
1 2846
1 2847
1 2848
1 2849
1 2850
1 2851
1 2852
1 2853
1 2854
1 2855
1 2856
1 2857
1 2858
1 2859
1 2860
1 2861
1 2862
1 2863
1 2864
1 2865
1 2866
1 2867
1 2868
1 2869
1 2870
1 2871
1 2872
1 2873
1 2874
1 2875
1 2876
1 2877
1 2878
1 2879
1 2880
1 2881
1 2882
1 2883
1 2884
1 2885
1 2886
1 2887
1 2888
1 2889
1 2890
1 2891
1 2892
1 2893
1 2894
1 2895
1 2896
1 2897
1 2898
1 2899
1 2900
1 2901
1 2902
1 2903
1 2904
1 2905
1 2906
1 2907
1 2908
1 2909
1 2910
1 2911
1 2912
1 2913
1 2914
1 2915
1 2916
1 2917
1 2918
1 2919
1 2920
1 2921
1 2922
1 2923
1 2924
1 2925
1 2926
1 2927
1 2928
1 2929
1 2930
1 2931
1 2932
1 2933
1 2934
1 2935
1 2936
1 2937
1 2938
1 2939
1 2940
1 2941
1 2942
1 2943
1 2944
1 2945
1 2946
1 2947
1 2948
1 2949
1 2950
1 2951
1 2952
1 2953
1 2954
1 2955
1 2956
1 2957
1 2958
1 2959
1 2960
1 2961
1 2962
1 2963
1 2964
1 2965
1 2966
1 2967
1 2968
1 2969
1 2970
1 2971
1 2972
1 2973
1 2974
1 2975
1 2976
1 2977
1 2978
1 2979
1 2980
1 2981
1 2982
1 2983
1 2984
1 2985
1 2986
1 2987
1 2988
1 2989
1 2990
1 2991
1 2992
1 2993
1 2994
1 2995
1 2996
1 2997
1 2998
1 2999
1 3000
1 3001
1 3002
1 3003
1 3004
1 3005
1 3006
1 3007
1 3008
1 3009
1 3010
1 3011
1 3012
1 3013
1 3014
1 3015
1 3016
1 3017
1 3018
1 3019
1 3020
1 3021
1 3022
1 3023
1 3024
1 3025
1 3026
1 3027
1 3028
1 3029
1 3030
1 3031
1 3032
1 3033
1 3034
1 3035
1 3036
1 3037
1 3038
1 3039
1 3040
1 3041
1 3042
1 3043
1 3044
1 3045
1 3046
1 3047
1 3048
1 3049
1 3050
1 3051
1 3052
1 3053
1 3054
1 3055
1 3056
1 3057
1 3058
1 3059
1 3060
1 3061
1 3062
1 3063
1 3064
1 3065
1 3066
1 3067
1 3068
1 3069
1 3070
1 3071
1 3072
1 3073
1 3074
1 3075
1 3076
1 3077
1 3078
1 3079
1 3080
1 3081
1 3082
1 3083
1 3084
1 3085
1 3086
1 3087
1 3088
1 3089
1 3090
1 3091
1 3092
1 3093
1 3094
1 3095
1 3096
1 3097
1 3098
1 3099
1 3100
1 3101
1 3102
1 3103
1 3104
1 3105
1 3106
1 3107
1 3108
1 3109
1 3110
1 3111
1 3112
1 3113
1 3114
1 3115
1 3116
1 3117
1 3118
1 3119
1 3120
1 3121
1 3122
1 3123
1 3124
1 3125
1 3126
1 3127
1 3128
1 3129
1 3130
1 3131
1 3132
1 3133
1 3134
1 3135
1 3136
1 3137
1 3138
1 3139
1 3140
1 3141
1 3142
1 3143
1 3144
1 3145
1 3146
1 3147
1 3148
1 3149
1 3150
1 3151
1 3152
1 3153
1 3154
1 3155
1 3156
1 3157
1 3158
1 3159
1 3160
1 3161
1 3162
1 3163
1 3164
1 3165
1 3166
1 3167
1 3168
1 3169
1 3170
1 3171
1 3172
1 3173
1 3174
1 3175
1 3176
1 3177
1 3178
1 3179
1 3180
1 3181
1 3182
1 3183
1 3184
1 3185
1 3186
1 3187
1 3188
1 3189
1 3190
1 3191
1 3192
1 3193
1 3194
1 3195
1 3196
1 3197
1 3198
1 3199
1 3200
1 3201
1 3202
1 3203
1 3204
1 3205
1 3206
1 3207
1 3208
1 3209
1 3210
1 3211
1 3212
1 3213
1 3214
1 3215
1 3216
1 3217
1 3218
1 3219
1 3220
1 3221
1 3222
1 3223
1 3224
1 3225
1 3226
1 3227
1 3228
1 3229
1 3230
1 3231
1 3232
1 3233
1 3234
1 3235
1 3236
1 3237
1 3238
1 3239
1 3240
1 3241
1 3242
1 3243
1 3244
1 3245
1 3246
1 3247
1 3248
1 3249
1 3250
1 3251
1 3252
1 3253
1 3254
1 3255
1 3256
1 3257
1 3258
1 3259
1 3260
1 3261
1 3262
1 3263
1 3264
1 3265
1 3266
1 3267
1 3268
1 3269
1 3270
1 3271
1 3272
1 3273
1 3274
1 3275
1 3276
1 3277
1 3278
1 3279
1 3280
1 3281
1 3282
1 3283
1 3284
1 3285
1 3286
1 3287
1 3288
1 3289
1 3290
1 3291
1 3292
1 3293
1 3294
1 3295
1 3296
1 3297
1 3298
1 3299
1 3300
1 3301
1 3302
1 3303
1 3304
1 3305
1 3306
1 3307
1 3308
1 3309
1 3310
1 3311
1 3312
1 3313
1 3314
1 3315
1 3316
1 3317
1 3318
1 3319
1 3320
1 3321
1 3322
1 3323
1 3324
1 3325
1 3326
1 3327
1 3328
1 3329
1 3330
1 3331
1 3332
1 3333
1 3334
1 3335
1 3336
1 3337
1 3338
1 3339
1 3340
1 3341
1 3342
1 3343
1 3344
1 3345
1 3346
1 3347
1 3348
1 3349
1 3350
1 3351
1 3352
1 3353
1 3354
1 3355
1 3356
1 3357
1 3358
1 3359
1 3360
1 3361
1 3362
1 3363
1 3364
1 3365
1 3366
1 3367
1 3368
1 3369
1 3370
1 3371
1 3372
1 3373
1 3374
1 3375
1 3376
1 3377
1 3378
1 3379
1 3380
1 3381
1 3382
1 3383
1 3384
1 3385
1 3386
1 3387
1 3388
1 3389
1 3390
1 3391
1 3392
1 3393
1 3394
1 3395
1 3396
1 3397
1 3398
1 3399
1 3400
1 3401
1 3402
1 3403
1 3404
1 3405
1 3406
1 3407
1 3408
1 3409
1 3410
1 3411
1 3412
1 3413
1 3414
1 3415
1 3416
1 3417
1 3418
1 3419
1 3420
1 3421
1 3422
1 3423
1 3424
1 3425
1 3426
1 3427
1 3428
1 3429
1 3430
1 3431
1 3432
1 3433
1 3434
1 3435
1 3436
1 3437
1 3438
1 3439
1 3440
1 3441
1 3442
1 3443
1 3444
1 3445
1 3446
1 3447
1 3448
1 3449
1 3450
1 3451
1 3452
1 3453
1 3454
1 3455
1 3456
1 3457
1 3458
1 3459
1 3460
1 3461
1 3462
1 3463
1 3464
1 3465
1 3466
1 3467
1 3468
1 3469
1 3470
1 3471
1 3472
1 3473
1 3474
1 3475
1 3476
1 3477
1 3478
1 3479
1 3480
1 3481
1 3482
1 3483
1 3484
1 3485
1 3486
1 3487
1 3488
1 3489
1 3490
1 3491
1 3492
1 3493
1 3494
1 3495
1 3496
1 3497
1 3498
1 3499
1 3500
1 3501
1 3502
1 3503
1 3504
1 3505
1 3506
1 3507
1 3508
1 3509
1 3510
1 3511
1 3512
1 3513
1 3514
1 3515
1 3516
1 3517
1 3518
1 3519
1 3520
1 3521
1 3522
1 3523
1 3524
1 3525
1 3526
1 3527
1 3528
1 3529
1 3530
1 3531
1 3532
1 3533
1 3534
1 3535
1 3536
1 3537
1 3538
1 3539
1 3540
1 3541
1 3542
1 3543
1 3544
1 3545
1 3546
1 3547
1 3548
1 3549
1 3550
1 3551
1 3552
1 3553
1 3554
1 3555
1 3556
1 3557
1 3558
1 3559
1 3560
1 3561
1 3562
1 3563
1 3564
1 3565
1 3566
1 3567
1 3568
1 3569
1 3570
1 3571
1 3572
1 3573
1 3574
1 3575
1 3576
1 3577
1 3578
1 3579
1 3580
1 3581
1 3582
1 3583
1 3584
1 3585
1 3586
1 3587
1 3588
1 3589
1 3590
1 3591
1 3592
1 3593
1 3594
1 3595
1 3596
1 3597
1 3598
1 3599
1 3600
1 3601
1 3602
1 3603
1 3604
1 3605
1 3606
1 3607
1 3608
1 3609
1 3610
1 3611
1 3612
1 3613
1 3614
1 3615
1 3616
1 3617
1 3618
1 3619
1 3620
1 3621
1 3622
1 3623
1 3624
1 3625
1 3626
1 3627
1 3628
1 3629
1 3630
1 3631
1 3632
1 3633
1 3634
1 3635
1 3636
1 3637
1 3638
1 3639
1 3640
1 3641
1 3642
1 3643
1 3644
1 3645
1 3646
1 3647
1 3648
1 3649
1 3650
1 3651
1 3652
1 3653
1 3654
1 3655
1 3656
1 3657
1 3658
1 3659
1 3660
1 3661
1 3662
1 3663
1 3664
1 3665
1 3666
1 3667
1 3668
1 3669
1 3670
1 3671
1 3672
1 3673
1 3674
1 3675
1 3676
1 3677
1 3678
1 3679
1 3680
1 3681
1 3682
1 3683
1 3684
1 3685
1 3686
1 3687
1 3688
1 3689
1 3690
1 3691
1 3692
1 3693
1 3694
1 3695
1 3696
1 3697
1 3698
1 3699
1 3700
1 3701
1 3702
1 3703
1 3704
1 3705
1 3706
1 3707
1 3708
1 3709
1 3710
1 3711
1 3712
1 3713
1 3714
1 3715
1 3716
1 3717
1 3718
1 3719
1 3720
1 3721
1 3722
1 3723
1 3724
1 3725
1 3726
1 3727
1 3728
1 3729
1 3730
1 3731
1 3732
1 3733
1 3734
1 3735
1 3736
1 3737
1 3738
1 3739
1 3740
1 3741
1 3742
1 3743
1 3744
1 3745
1 3746
1 3747
1 3748
1 3749
1 3750
1 3751
1 3752
1 3753
1 3754
1 3755
1 3756
1 3757
1 3758
1 3759
1 3760
1 3761
1 3762
1 3763
1 3764
1 3765
1 3766
1 3767
1 3768
1 3769
1 3770
1 3771
1 3772
1 3773
1 3774
1 3775
1 3776
1 3777
1 3778
1 3779
1 3780
1 3781
1 3782
1 3783
1 3784
1 3785
1 3786
1 3787
1 3788
1 3789
1 3790
1 3791
1 3792
1 3793
1 3794
1 3795
1 3796
1 3797
1 3798
1 3799
1 3800
1 3801
1 3802
1 3803
1 3804
1 3805
1 3806
1 3807
1 3808
1 3809
1 3810
1 3811
1 3812
1 3813
1 3814
1 3815
1 3816
1 3817
1 3818
1 3819
1 3820
1 3821
1 3822
1 3823
1 3824
1 3825
1 3826
1 3827
1 3828
1 3829
1 3830
1 3831
1 3832
1 3833
1 3834
1 3835
1 3836
1 3837
1 3838
1 3839
1 3840
1 3841
1 3842
1 3843
1 3844
1 3845
1 3846
1 3847
1 3848
1 3849
1 3850
1 3851
1 3852
1 3853
1 3854
1 3855
1 3856
1 3857
1 3858
1 3859
1 3860
1 3861
1 3862
1 3863
1 3864
1 3865
1 3866
1 3867
1 3868
1 3869
1 3870
1 3871
1 3872
1 3873
1 3874
1 3875
1 3876
1 3877
1 3878
1 3879
1 3880
1 3881
1 3882
1 3883
1 3884
1 3885
1 3886
1 3887
1 3888
1 3889
1 3890
1 3891
1 3892
1 3893
1 3894
1 3895
1 3896
1 3897
1 3898
1 3899
1 3900
1 3901
1 3902
1 3903
1 3904
1 3905
1 3906
1 3907
1 3908
1 3909
1 3910
1 3911
1 3912
1 3913
1 3914
1 3915
1 3916
1 3917
1 3918
1 3919
1 3920
1 3921
1 3922
1 3923
1 3924
1 3925
1 3926
1 3927
1 3928
1 3929
1 3930
1 3931
1 3932
1 3933
1 3934
1 3935
1 3936
1 3937
1 3938
1 3939
1 3940
1 3941
1 3942
1 3943
1 3944
1 3945
1 3946
1 3947
1 3948
1 3949
1 3950
1 3951
1 3952
1 3953
1 3954
1 3955
1 3956
1 3957
1 3958
1 3959
1 3960
1 3961
1 3962
1 3963
1 3964
1 3965
1 3966
1 3967
1 3968
1 3969
1 3970
1 3971
1 3972
1 3973
1 3974
1 3975
1 3976
1 3977
1 3978
1 3979
1 3980
1 3981
1 3982
1 3983
1 3984
1 3985
1 3986
1 3987
1 3988
1 3989
1 3990
1 3991
1 3992
1 3993
1 3994
1 3995
1 3996
1 3997
1 3998
1 3999
1 4000
1 4001
1 4002
1 4003
1 4004
1 4005
1 4006
1 4007
1 4008
1 4009
1 4010
1 4011
1 4012
1 4013
1 4014
1 4015
1 4016
1 4017
1 4018
1 4019
1 4020
1 4021
1 4022
1 4023
1 4024
1 4025
1 4026
1 4027
1 4028
1 4029
1 4030
1 4031
1 4032
1 4033
1 4034
1 4035
1 4036
1 4037
1 4038
1 4039
1 4040
1 4041
1 4042
1 4043
1 4044
1 4045
1 4046
1 4047
1 4048
1 4049
1 4050
1 4051
1 4052
1 4053
1 4054
1 4055
1 4056
1 4057
1 4058
1 4059
1 4060
1 4061
1 4062
1 4063
1 4064
1 4065
1 4066
1 4067
1 4068
1 4069
1 4070
1 4071
1 4072
1 4073
1 4074
1 4075
1 4076
1 4077
1 4078
1 4079
1 4080
1 4081
1 4082
1 4083
1 4084
1 4085
1 4086
1 4087
1 4088
1 4089
1 4090
1 4091
1 4092
1 4093
1 4094
1 4095
1 4096
1 4097
1 4098
1 4099
1 4100
1 4101
1 4102
1 4103
1 4104
1 4105
1 4106
1 4107
1 4108
1 4109
1 4110
1 4111
1 4112
1 4113
1 4114
1 4115
1 4116
1 4117
1 4118
1 4119
1 4120
1 4121
1 4122
1 4123
1 4124
1 4125
1 4126
1 4127
1 4128
1 4129
1 4130
1 4131
1 4132
1 4133
1 4134
1 4135
1 4136
1 4137
1 4138
1 4139
1 4140
1 4141
1 4142
1 4143
1 4144
1 4145
1 4146
1 4147
1 4148
1 4149
1 4150
1 4151
1 4152
1 4153
1 4154
1 4155
1 4156
1 4157
1 4158
1 4159
1 4160
1 4161
1 4162
1 4163
1 4164
1 4165
1 4166
1 4167
1 4168
1 4169
1 4170
1 4171
1 4172
1 4173
1 4174
1 4175
1 4176
1 4177
1 4178
1 4179
1 4180
1 4181
1 4182
1 4183
1 4184
1 4185
1 4186
1 4187
1 4188
1 4189
1 4190
1 4191
1 4192
1 4193
1 4194
1 4195
1 4196
1 4197
1 4198
1 4199
1 4200
1 4201
1 4202
1 4203
1 4204
1 4205
1 4206
1 4207
1 4208
1 4209
1 4210
1 4211
1 4212
1 4213
1 4214
1 4215
1 4216
1 4217
1 4218
1 4219
1 4220
1 4221
1 4222
1 4223
1 4224
1 4225
1 4226
1 4227
1 4228
1 4229
1 4230
1 4231
1 4232
1 4233
1 4234
1 4235
1 4236
1 4237
1 4238
1 4239
1 4240
1 4241
1 4242
1 4243
1 4244
1 4245
1 4246
1 4247
1 4248
1 4249
1 4250
1 4251
1 4252
1 4253
1 4254
1 4255
1 4256
1 4257
1 4258
1 4259
1 4260
1 4261
1 4262
1 4263
1 4264
1 4265
1 4266
1 4267
1 4268
1 4269
1 4270
1 4271
1 4272
1 4273
1 4274
1 4275
1 4276
1 4277
1 4278
1 4279
1 4280
1 4281
1 4282
1 4283
1 4284
1 4285
1 4286
1 4287
1 4288
1 4289
1 4290
1 4291
1 4292
1 4293
1 4294
1 4295
1 4296
1 4297
1 4298
1 4299
1 4300
1 4301
1 4302
1 4303
1 4304
1 4305
1 4306
1 4307
1 4308
1 4309
1 4310
1 4311
1 4312
1 4313
1 4314
1 4315
1 4316
1 4317
1 4318
1 4319
1 4320
1 4321
1 4322
1 4323
1 4324
1 4325
1 4326
1 4327
1 4328
1 4329
1 4330
1 4331
1 4332
1 4333
1 4334
1 4335
1 4336
1 4337
1 4338
1 4339
1 4340
1 4341
1 4342
1 4343
1 4344
1 4345
1 4346
1 4347
1 4348
1 4349
1 4350
1 4351
1 4352
1 4353
1 4354
1 4355
1 4356
1 4357
1 4358
1 4359
1 4360
1 4361
1 4362
1 4363
1 4364
1 4365
1 4366
1 4367
1 4368
1 4369
1 4370
1 4371
1 4372
1 4373
1 4374
1 4375
1 4376
1 4377
1 4378
1 4379
1 4380
1 4381
1 4382
1 4383
1 4384
1 4385
1 4386
1 4387
1 4388
1 4389
1 4390
1 4391
1 4392
1 4393
1 4394
1 4395
1 4396
1 4397
1 4398
1 4399
1 4400
1 4401
1 4402
1 4403
1 4404
1 4405
1 4406
1 4407
1 4408
1 4409
1 4410
1 4411
1 4412
1 4413
1 4414
1 4415
1 4416
1 4417
1 4418
1 4419
1 4420
1 4421
1 4422
1 4423
1 4424
1 4425
1 4426
1 4427
1 4428
1 4429
1 4430
1 4431
1 4432
1 4433
1 4434
1 4435
1 4436
1 4437
1 4438
1 4439
1 4440
1 4441
1 4442
1 4443
1 4444
1 4445
1 4446
1 4447
1 4448
1 4449
1 4450
1 4451
1 4452
1 4453
1 4454
1 4455
1 4456
1 4457
1 4458
1 4459
1 4460
1 4461
1 4462
1 4463
1 4464
1 4465
1 4466
1 4467
1 4468
1 4469
1 4470
1 4471
1 4472
1 4473
1 4474
1 4475
1 4476
1 4477
1 4478
1 4479
1 4480
1 4481
1 4482
1 4483
1 4484
1 4485
1 4486
1 4487
1 4488
1 4489
1 4490
1 4491
1 4492
1 4493
1 4494
1 4495
1 4496
1 4497
1 4498
1 4499
1 4500
1 4501
1 4502
1 4503
1 4504
1 4505
1 4506
1 4507
1 4508
1 4509
1 4510
1 4511
1 4512
1 4513
1 4514
1 4515
1 4516
1 4517
1 4518
1 4519
1 4520
1 4521
1 4522
1 4523
1 4524
1 4525
1 4526
1 4527
1 4528
1 4529
1 4530
1 4531
1 4532
1 4533
1 4534
1 4535
1 4536
1 4537
1 4538
1 4539
1 4540
1 4541
1 4542
1 4543
1 4544
1 4545
1 4546
1 4547
1 4548
1 4549
1 4550
1 4551
1 4552
1 4553
1 4554
1 4555
1 4556
1 4557
1 4558
1 4559
1 4560
1 4561
1 4562
1 4563
1 4564
1 4565
1 4566
1 4567
1 4568
1 4569
1 4570
1 4571
1 4572
1 4573
1 4574
1 4575
1 4576
1 4577
1 4578
1 4579
1 4580
1 4581
1 4582
1 4583
1 4584
1 4585
1 4586
1 4587
1 4588
1 4589
1 4590
1 4591
1 4592
1 4593
1 4594
1 4595
1 4596
1 4597
1 4598
1 4599
1 4600
1 4601
1 4602
1 4603
1 4604
1 4605
1 4606
1 4607
1 4608
1 4609
1 4610
1 4611
1 4612
1 4613
1 4614
1 4615
1 4616
1 4617
1 4618
1 4619
1 4620
1 4621
1 4622
1 4623
1 4624
1 4625
1 4626
1 4627
1 4628
1 4629
1 4630
1 4631
1 4632
1 4633
1 4634
1 4635
1 4636
1 4637
1 4638
1 4639
1 4640
1 4641
1 4642
1 4643
1 4644
1 4645
1 4646
1 4647
1 4648
1 4649
1 4650
1 4651
1 4652
1 4653
1 4654
1 4655
1 4656
1 4657
1 4658
1 4659
1 4660
1 4661
1 4662
1 4663
1 4664
1 4665
1 4666
1 4667
1 4668
1 4669
1 4670
1 4671
1 4672
1 4673
1 4674
1 4675
1 4676
1 4677
1 4678
1 4679
1 4680
1 4681
1 4682
1 4683
1 4684
1 4685
1 4686
1 4687
1 4688
1 4689
1 4690
1 4691
1 4692
1 4693
1 4694
1 4695
1 4696
1 4697
1 4698
1 4699
1 4700
1 4701
1 4702
1 4703
1 4704
1 4705
1 4706
1 4707
1 4708
1 4709
1 4710
1 4711
1 4712
1 4713
1 4714
1 4715
1 4716
1 4717
1 4718
1 4719
1 4720
1 4721
1 4722
1 4723
1 4724
1 4725
1 4726
1 4727
1 4728
1 4729
1 4730
1 4731
1 4732
1 4733
1 4734
1 4735
1 4736
1 4737
1 4738
1 4739
1 4740
1 4741
1 4742
1 4743
1 4744
1 4745
1 4746
1 4747
1 4748
1 4749
1 4750
1 4751
1 4752
1 4753
1 4754
1 4755
1 4756
1 4757
1 4758
1 4759
1 4760
1 4761
1 4762
1 4763
1 4764
1 4765
1 4766
1 4767
1 4768
1 4769
1 4770
1 4771
1 4772
1 4773
1 4774
1 4775
1 4776
1 4777
1 4778
1 4779
1 4780
1 4781
1 4782
1 4783
1 4784
1 4785
1 4786
1 4787
1 4788
1 4789
1 4790
1 4791
1 4792
1 4793
1 4794
1 4795
1 4796
1 4797
1 4798
1 4799
1 4800
1 4801
1 4802
1 4803
1 4804
1 4805
1 4806
1 4807
1 4808
1 4809
1 4810
1 4811
1 4812
1 4813
1 4814
1 4815
1 4816
1 4817
1 4818
1 4819
1 4820
1 4821
1 4822
1 4823
1 4824
1 4825
1 4826
1 4827
1 4828
1 4829
1 4830
1 4831
1 4832
1 4833
1 4834
1 4835
1 4836
1 4837
1 4838
1 4839
1 4840
1 4841
1 4842
1 4843
1 4844
1 4845
1 4846
1 4847
1 4848
1 4849
1 4850
1 4851
1 4852
1 4853
1 4854
1 4855
1 4856
1 4857
1 4858
1 4859
1 4860
1 4861
1 4862
1 4863
1 4864
1 4865
1 4866
1 4867
1 4868
1 4869
1 4870
1 4871
1 4872
1 4873
1 4874
1 4875
1 4876
1 4877
1 4878
1 4879
1 4880
1 4881
1 4882
1 4883
1 4884
1 4885
1 4886
1 4887
1 4888
1 4889
1 4890
1 4891
1 4892
1 4893
1 4894
1 4895
1 4896
1 4897
1 4898
1 4899
1 4900
1 4901
1 4902
1 4903
1 4904
1 4905
1 4906
1 4907
1 4908
1 4909
1 4910
1 4911
1 4912
1 4913
1 4914
1 4915
1 4916
1 4917
1 4918
1 4919
1 4920
1 4921
1 4922
1 4923
1 4924
1 4925
1 4926
1 4927
1 4928
1 4929
1 4930
1 4931
1 4932
1 4933
1 4934
1 4935
1 4936
1 4937
1 4938
1 4939
1 4940
1 4941
1 4942
1 4943
1 4944
1 4945
1 4946
1 4947
1 4948
1 4949
1 4950
1 4951
1 4952
1 4953
1 4954
1 4955
1 4956
1 4957
1 4958
1 4959
1 4960
1 4961
1 4962
1 4963
1 4964
1 4965
1 4966
1 4967
1 4968
1 4969
1 4970
1 4971
1 4972
1 4973
1 4974
1 4975
1 4976
1 4977
1 4978
1 4979
1 4980
1 4981
1 4982
1 4983
1 4984
1 4985
1 4986
1 4987
1 4988
1 4989
1 4990
1 4991
1 4992
1 4993
1 4994
1 4995
1 4996
1 4997
1 4998
1 4999
CELL_TYPES 5000
1 
1 
1 
1 
1 
1 
1 
1 
1 
1 
1 
1 
1 
1 
1 
1 
1 
1 
1 
1 
1 
1 
1 
1 
1 
1 
1 
1 
1 
1 
1 
1 
1 
1 
1 
1 
1 
1 
1 
1 
1 
1 
1 
1 
1 
1 
1 
1 
1 
1 
1 
1 
1 
1 
1 
1 
1 
1 
1 
1 
1 
1 
1 
1 
1 
1 
1 
1 
1 
1 
1 
1 
1 
1 
1 
1 
1 
1 
1 
1 
1 
1 
1 
1 
1 
1 
1 
1 
1 
1 
1 
1 
1 
1 
1 
1 
1 
1 
1 
1 
1 
1 
1 
1 
1 
1 
1 
1 
1 
1 
1 
1 
1 
1 
1 
1 
1 
1 
1 
1 
1 
1 
1 
1 
1 
1 
1 
1 
1 
1 
1 
1 
1 
1 
1 
1 
1 
1 
1 
1 
1 
1 
1 
1 
1 
1 
1 
1 
1 
1 
1 
1 
1 
1 
1 
1 
1 
1 
1 
1 
1 
1 
1 
1 
1 
1 
1 
1 
1 
1 
1 
1 
1 
1 
1 
1 
1 
1 
1 
1 
1 
1 
1 
1 
1 
1 
1 
1 
1 
1 
1 
1 
1 
1 
1 
1 
1 
1 
1 
1 
1 
1 
1 
1 
1 
1 
1 
1 
1 
1 
1 
1 
1 
1 
1 
1 
1 
1 
1 
1 
1 
1 
1 
1 
1 
1 
1 
1 
1 
1 
1 
1 
1 
1 
1 
1 
1 
1 
1 
1 
1 
1 
1 
1 
1 
1 
1 
1 
1 
1 
1 
1 
1 
1 
1 
1 
1 
1 
1 
1 
1 
1 
1 
1 
1 
1 
1 
1 
1 
1 
1 
1 
1 
1 
1 
1 
1 
1 
1 
1 
1 
1 
1 
1 
1 
1 
1 
1 
1 
1 
1 
1 
1 
1 
1 
1 
1 
1 
1 
1 
1 
1 
1 
1 
1 
1 
1 
1 
1 
1 
1 
1 
1 
1 
1 
1 
1 
1 
1 
1 
1 
1 
1 
1 
1 
1 
1 
1 
1 
1 
1 
1 
1 
1 
1 
1 
1 
1 
1 
1 
1 
1 
1 
1 
1 
1 
1 
1 
1 
1 
1 
1 
1 
1 
1 
1 
1 
1 
1 
1 
1 
1 
1 
1 
1 
1 
1 
1 
1 
1 
1 
1 
1 
1 
1 
1 
1 
1 
1 
1 
1 
1 
1 
1 
1 
1 
1 
1 
1 
1 
1 
1 
1 
1 
1 
1 
1 
1 
1 
1 
1 
1 
1 
1 
1 
1 
1 
1 
1 
1 
1 
1 
1 
1 
1 
1 
1 
1 
1 
1 
1 
1 
1 
1 
1 
1 
1 
1 
1 
1 
1 
1 
1 
1 
1 
1 
1 
1 
1 
1 
1 
1 
1 
1 
1 
1 
1 
1 
1 
1 
1 
1 
1 
1 
1 
1 
1 
1 
1 
1 
1 
1 
1 
1 
1 
1 
1 
1 
1 
1 
1 
1 
1 
1 
1 
1 
1 
1 
1 
1 
1 
1 
1 
1 
1 
1 
1 
1 
1 
1 
1 
1 
1 
1 
1 
1 
1 
1 
1 
1 
1 
1 
1 
1 
1 
1 
1 
1 
1 
1 
1 
1 
1 
1 
1 
1 
1 
1 
1 
1 
1 
1 
1 
1 
1 
1 
1 
1 
1 
1 
1 
1 
1 
1 
1 
1 
1 
1 
1 
1 
1 
1 
1 
1 
1 
1 
1 
1 
1 
1 
1 
1 
1 
1 
1 
1 
1 
1 
1 
1 
1 
1 
1 
1 
1 
1 
1 
1 
1 
1 
1 
1 
1 
1 
1 
1 
1 
1 
1 
1 
1 
1 
1 
1 
1 
1 
1 
1 
1 
1 
1 
1 
1 
1 
1 
1 
1 
1 
1 
1 
1 
1 
1 
1 
1 
1 
1 
1 
1 
1 
1 
1 
1 
1 
1 
1 
1 
1 
1 
1 
1 
1 
1 
1 
1 
1 
1 
1 
1 
1 
1 
1 
1 
1 
1 
1 
1 
1 
1 
1 
1 
1 
1 
1 
1 
1 
1 
1 
1 
1 
1 
1 
1 
1 
1 
1 
1 
1 
1 
1 
1 
1 
1 
1 
1 
1 
1 
1 
1 
1 
1 
1 
1 
1 
1 
1 
1 
1 
1 
1 
1 
1 
1 
1 
1 
1 
1 
1 
1 
1 
1 
1 
1 
1 
1 
1 
1 
1 
1 
1 
1 
1 
1 
1 
1 
1 
1 
1 
1 
1 
1 
1 
1 
1 
1 
1 
1 
1 
1 
1 
1 
1 
1 
1 
1 
1 
1 
1 
1 
1 
1 
1 
1 
1 
1 
1 
1 
1 
1 
1 
1 
1 
1 
1 
1 
1 
1 
1 
1 
1 
1 
1 
1 
1 
1 
1 
1 
1 
1 
1 
1 
1 
1 
1 
1 
1 
1 
1 
1 
1 
1 
1 
1 
1 
1 
1 
1 
1 
1 
1 
1 
1 
1 
1 
1 
1 
1 
1 
1 
1 
1 
1 
1 
1 
1 
1 
1 
1 
1 
1 
1 
1 
1 
1 
1 
1 
1 
1 
1 
1 
1 
1 
1 
1 
1 
1 
1 
1 
1 
1 
1 
1 
1 
1 
1 
1 
1 
1 
1 
1 
1 
1 
1 
1 
1 
1 
1 
1 
1 
1 
1 
1 
1 
1 
1 
1 
1 
1 
1 
1 
1 
1 
1 
1 
1 
1 
1 
1 
1 
1 
1 
1 
1 
1 
1 
1 
1 
1 
1 
1 
1 
1 
1 
1 
1 
1 
1 
1 
1 
1 
1 
1 
1 
1 
1 
1 
1 
1 
1 
1 
1 
1 
1 
1 
1 
1 
1 
1 
1 
1 
1 
1 
1 
1 
1 
1 
1 
1 
1 
1 
1 
1 
1 
1 
1 
1 
1 
1 
1 
1 
1 
1 
1 
1 
1 
1 
1 
1 
1 
1 
1 
1 
1 
1 
1 
1 
1 
1 
1 
1 
1 
1 
1 
1 
1 
1 
1 
1 
1 
1 
1 
1 
1 
1 
1 
1 
1 
1 
1 
1 
1 
1 
1 
1 
1 
1 
1 
1 
1 
1 
1 
1 
1 
1 
1 
1 
1 
1 
1 
1 
1 
1 
1 
1 
1 
1 
1 
1 
1 
1 
1 
1 
1 
1 
1 
1 
1 
1 
1 
1 
1 
1 
1 
1 
1 
1 
1 
1 
1 
1 
1 
1 
1 
1 
1 
1 
1 
1 
1 
1 
1 
1 
1 
1 
1 
1 
1 
1 
1 
1 
1 
1 
1 
1 
1 
1 
1 
1 
1 
1 
1 
1 
1 
1 
1 
1 
1 
1 
1 
1 
1 
1 
1 
1 
1 
1 
1 
1 
1 
1 
1 
1 
1 
1 
1 
1 
1 
1 
1 
1 
1 
1 
1 
1 
1 
1 
1 
1 
1 
1 
1 
1 
1 
1 
1 
1 
1 
1 
1 
1 
1 
1 
1 
1 
1 
1 
1 
1 
1 
1 
1 
1 
1 
1 
1 
1 
1 
1 
1 
1 
1 
1 
1 
1 
1 
1 
1 
1 
1 
1 
1 
1 
1 
1 
1 
1 
1 
1 
1 
1 
1 
1 
1 
1 
1 
1 
1 
1 
1 
1 
1 
1 
1 
1 
1 
1 
1 
1 
1 
1 
1 
1 
1 
1 
1 
1 
1 
1 
1 
1 
1 
1 
1 
1 
1 
1 
1 
1 
1 
1 
1 
1 
1 
1 
1 
1 
1 
1 
1 
1 
1 
1 
1 
1 
1 
1 
1 
1 
1 
1 
1 
1 
1 
1 
1 
1 
1 
1 
1 
1 
1 
1 
1 
1 
1 
1 
1 
1 
1 
1 
1 
1 
1 
1 
1 
1 
1 
1 
1 
1 
1 
1 
1 
1 
1 
1 
1 
1 
1 
1 
1 
1 
1 
1 
1 
1 
1 
1 
1 
1 
1 
1 
1 
1 
1 
1 
1 
1 
1 
1 
1 
1 
1 
1 
1 
1 
1 
1 
1 
1 
1 
1 
1 
1 
1 
1 
1 
1 
1 
1 
1 
1 
1 
1 
1 
1 
1 
1 
1 
1 
1 
1 
1 
1 
1 
1 
1 
1 
1 
1 
1 
1 
1 
1 
1 
1 
1 
1 
1 
1 
1 
1 
1 
1 
1 
1 
1 
1 
1 
1 
1 
1 
1 
1 
1 
1 
1 
1 
1 
1 
1 
1 
1 
1 
1 
1 
1 
1 
1 
1 
1 
1 
1 
1 
1 
1 
1 
1 
1 
1 
1 
1 
1 
1 
1 
1 
1 
1 
1 
1 
1 
1 
1 
1 
1 
1 
1 
1 
1 
1 
1 
1 
1 
1 
1 
1 
1 
1 
1 
1 
1 
1 
1 
1 
1 
1 
1 
1 
1 
1 
1 
1 
1 
1 
1 
1 
1 
1 
1 
1 
1 
1 
1 
1 
1 
1 
1 
1 
1 
1 
1 
1 
1 
1 
1 
1 
1 
1 
1 
1 
1 
1 
1 
1 
1 
1 
1 
1 
1 
1 
1 
1 
1 
1 
1 
1 
1 
1 
1 
1 
1 
1 
1 
1 
1 
1 
1 
1 
1 
1 
1 
1 
1 
1 
1 
1 
1 
1 
1 
1 
1 
1 
1 
1 
1 
1 
1 
1 
1 
1 
1 
1 
1 
1 
1 
1 
1 
1 
1 
1 
1 
1 
1 
1 
1 
1 
1 
1 
1 
1 
1 
1 
1 
1 
1 
1 
1 
1 
1 
1 
1 
1 
1 
1 
1 
1 
1 
1 
1 
1 
1 
1 
1 
1 
1 
1 
1 
1 
1 
1 
1 
1 
1 
1 
1 
1 
1 
1 
1 
1 
1 
1 
1 
1 
1 
1 
1 
1 
1 
1 
1 
1 
1 
1 
1 
1 
1 
1 
1 
1 
1 
1 
1 
1 
1 
1 
1 
1 
1 
1 
1 
1 
1 
1 
1 
1 
1 
1 
1 
1 
1 
1 
1 
1 
1 
1 
1 
1 
1 
1 
1 
1 
1 
1 
1 
1 
1 
1 
1 
1 
1 
1 
1 
1 
1 
1 
1 
1 
1 
1 
1 
1 
1 
1 
1 
1 
1 
1 
1 
1 
1 
1 
1 
1 
1 
1 
1 
1 
1 
1 
1 
1 
1 
1 
1 
1 
1 
1 
1 
1 
1 
1 
1 
1 
1 
1 
1 
1 
1 
1 
1 
1 
1 
1 
1 
1 
1 
1 
1 
1 
1 
1 
1 
1 
1 
1 
1 
1 
1 
1 
1 
1 
1 
1 
1 
1 
1 
1 
1 
1 
1 
1 
1 
1 
1 
1 
1 
1 
1 
1 
1 
1 
1 
1 
1 
1 
1 
1 
1 
1 
1 
1 
1 
1 
1 
1 
1 
1 
1 
1 
1 
1 
1 
1 
1 
1 
1 
1 
1 
1 
1 
1 
1 
1 
1 
1 
1 
1 
1 
1 
1 
1 
1 
1 
1 
1 
1 
1 
1 
1 
1 
1 
1 
1 
1 
1 
1 
1 
1 
1 
1 
1 
1 
1 
1 
1 
1 
1 
1 
1 
1 
1 
1 
1 
1 
1 
1 
1 
1 
1 
1 
1 
1 
1 
1 
1 
1 
1 
1 
1 
1 
1 
1 
1 
1 
1 
1 
1 
1 
1 
1 
1 
1 
1 
1 
1 
1 
1 
1 
1 
1 
1 
1 
1 
1 
1 
1 
1 
1 
1 
1 
1 
1 
1 
1 
1 
1 
1 
1 
1 
1 
1 
1 
1 
1 
1 
1 
1 
1 
1 
1 
1 
1 
1 
1 
1 
1 
1 
1 
1 
1 
1 
1 
1 
1 
1 
1 
1 
1 
1 
1 
1 
1 
1 
1 
1 
1 
1 
1 
1 
1 
1 
1 
1 
1 
1 
1 
1 
1 
1 
1 
1 
1 
1 
1 
1 
1 
1 
1 
1 
1 
1 
1 
1 
1 
1 
1 
1 
1 
1 
1 
1 
1 
1 
1 
1 
1 
1 
1 
1 
1 
1 
1 
1 
1 
1 
1 
1 
1 
1 
1 
1 
1 
1 
1 
1 
1 
1 
1 
1 
1 
1 
1 
1 
1 
1 
1 
1 
1 
1 
1 
1 
1 
1 
1 
1 
1 
1 
1 
1 
1 
1 
1 
1 
1 
1 
1 
1 
1 
1 
1 
1 
1 
1 
1 
1 
1 
1 
1 
1 
1 
1 
1 
1 
1 
1 
1 
1 
1 
1 
1 
1 
1 
1 
1 
1 
1 
1 
1 
1 
1 
1 
1 
1 
1 
1 
1 
1 
1 
1 
1 
1 
1 
1 
1 
1 
1 
1 
1 
1 
1 
1 
1 
1 
1 
1 
1 
1 
1 
1 
1 
1 
1 
1 
1 
1 
1 
1 
1 
1 
1 
1 
1 
1 
1 
1 
1 
1 
1 
1 
1 
1 
1 
1 
1 
1 
1 
1 
1 
1 
1 
1 
1 
1 
1 
1 
1 
1 
1 
1 
1 
1 
1 
1 
1 
1 
1 
1 
1 
1 
1 
1 
1 
1 
1 
1 
1 
1 
1 
1 
1 
1 
1 
1 
1 
1 
1 
1 
1 
1 
1 
1 
1 
1 
1 
1 
1 
1 
1 
1 
1 
1 
1 
1 
1 
1 
1 
1 
1 
1 
1 
1 
1 
1 
1 
1 
1 
1 
1 
1 
1 
1 
1 
1 
1 
1 
1 
1 
1 
1 
1 
1 
1 
1 
1 
1 
1 
1 
1 
1 
1 
1 
1 
1 
1 
1 
1 
1 
1 
1 
1 
1 
1 
1 
1 
1 
1 
1 
1 
1 
1 
1 
1 
1 
1 
1 
1 
1 
1 
1 
1 
1 
1 
1 
1 
1 
1 
1 
1 
1 
1 
1 
1 
1 
1 
1 
1 
1 
1 
1 
1 
1 
1 
1 
1 
1 
1 
1 
1 
1 
1 
1 
1 
1 
1 
1 
1 
1 
1 
1 
1 
1 
1 
1 
1 
1 
1 
1 
1 
1 
1 
1 
1 
1 
1 
1 
1 
1 
1 
1 
1 
1 
1 
1 
1 
1 
1 
1 
1 
1 
1 
1 
1 
1 
1 
1 
1 
1 
1 
1 
1 
1 
1 
1 
1 
1 
1 
1 
1 
1 
1 
1 
1 
1 
1 
1 
1 
1 
1 
1 
1 
1 
1 
1 
1 
1 
1 
1 
1 
1 
1 
1 
1 
1 
1 
1 
1 
1 
1 
1 
1 
1 
1 
1 
1 
1 
1 
1 
1 
1 
1 
1 
1 
1 
1 
1 
1 
1 
1 
1 
1 
1 
1 
1 
1 
1 
1 
1 
1 
1 
1 
1 
1 
1 
1 
1 
1 
1 
1 
1 
1 
1 
1 
1 
1 
1 
1 
1 
1 
1 
1 
1 
1 
1 
1 
1 
1 
1 
1 
1 
1 
1 
1 
1 
1 
1 
1 
1 
1 
1 
1 
1 
1 
1 
1 
1 
1 
1 
1 
1 
1 
1 
1 
1 
1 
1 
1 
1 
1 
1 
1 
1 
1 
1 
1 
1 
1 
1 
1 
1 
1 
1 
1 
1 
1 
1 
1 
1 
1 
1 
1 
1 
1 
1 
1 
1 
1 
1 
1 
1 
1 
1 
1 
1 
1 
1 
1 
1 
1 
1 
1 
1 
1 
1 
1 
1 
1 
1 
1 
1 
1 
1 
1 
1 
1 
1 
1 
1 
1 
1 
1 
1 
1 
1 
1 
1 
1 
1 
1 
1 
1 
1 
1 
1 
1 
1 
1 
1 
1 
1 
1 
1 
1 
1 
1 
1 
1 
1 
1 
1 
1 
1 
1 
1 
1 
1 
1 
1 
1 
1 
1 
1 
1 
1 
1 
1 
1 
1 
1 
1 
1 
1 
1 
1 
1 
1 
1 
1 
1 
1 
1 
1 
1 
1 
1 
1 
1 
1 
1 
1 
1 
1 
1 
1 
1 
1 
1 
1 
1 
1 
1 
1 
1 
1 
1 
1 
1 
1 
1 
1 
1 
1 
1 
1 
1 
1 
1 
1 
1 
1 
1 
1 
1 
1 
1 
1 
1 
1 
1 
1 
1 
1 
1 
1 
1 
1 
1 
1 
1 
1 
1 
1 
1 
1 
1 
1 
1 
1 
1 
1 
1 
1 
1 
1 
1 
1 
1 
1 
1 
1 
1 
1 
1 
1 
1 
1 
1 
1 
1 
1 
1 
1 
1 
1 
1 
1 
1 
1 
1 
1 
1 
1 
1 
1 
1 
1 
1 
1 
1 
1 
1 
1 
1 
1 
1 
1 
1 
1 
1 
1 
1 
1 
1 
1 
1 
1 
1 
1 
1 
1 
1 
1 
1 
1 
1 
1 
1 
1 
1 
1 
1 
1 
1 
1 
1 
1 
1 
1 
1 
1 
1 
1 
1 
1 
1 
1 
1 
1 
1 
1 
1 
1 
1 
1 
1 
1 
1 
1 
1 
1 
1 
1 
1 
1 
1 
1 
1 
1 
1 
1 
1 
1 
1 
1 
1 
1 
1 
1 
1 
1 
1 
1 
1 
1 
1 
1 
1 
1 
1 
1 
1 
1 
1 
1 
1 
1 
1 
1 
1 
1 
1 
1 
1 
1 
1 
1 
1 
1 
1 
1 
1 
1 
1 
1 
1 
1 
1 
1 
1 
1 
1 
1 
1 
1 
1 
1 
1 
1 
1 
1 
1 
1 
1 
1 
1 
1 
1 
1 
1 
1 
1 
1 
1 
1 
1 
1 
1 
1 
1 
1 
1 
1 
1 
1 
1 
1 
1 
1 
1 
1 
1 
1 
1 
1 
1 
1 
1 
1 
1 
1 
1 
1 
1 
1 
1 
1 
1 
1 
1 
1 
1 
1 
1 
1 
1 
1 
1 
1 
1 
1 
1 
1 
1 
1 
1 
1 
1 
1 
1 
1 
1 
1 
1 
1 
1 
1 
1 
1 
1 
1 
1 
1 
1 
1 
1 
1 
1 
1 
1 
1 
1 
1 
1 
1 
1 
1 
1 
1 
1 
1 
1 
1 
1 
1 
1 
1 
1 
1 
1 
1 
1 
1 
1 
1 
1 
1 
1 
1 
1 
1 
1 
1 
1 
1 
1 
1 
1 
1 
1 
1 
1 
1 
1 
1 
1 
1 
1 
1 
1 
1 
1 
1 
1 
1 
1 
1 
1 
1 
1 
1 
1 
1 
1 
1 
1 
1 
1 
1 
1 
1 
1 
1 
1 
1 
1 
1 
1 
1 
1 
1 
1 
1 
1 
1 
1 
1 
1 
1 
1 
1 
1 
1 
1 
1 
1 
1 
1 
1 
1 
1 
1 
1 
1 
1 
1 
1 
1 
1 
1 
1 
1 
1 
1 
1 
1 
1 
1 
1 
1 
1 
1 
1 
1 
1 
1 
1 
1 
1 
1 
1 
1 
1 
1 
1 
1 
1 
1 
1 
1 
1 
1 
1 
1 
1 
1 
1 
1 
1 
1 
1 
1 
1 
1 
1 
1 
1 
1 
1 
1 
1 
1 
1 
1 
1 
1 
1 
1 
1 
1 
1 
1 
1 
1 
1 
1 
1 
1 
1 
1 
1 
1 
1 
1 
1 
1 
1 
1 
1 
1 
1 
1 
1 
1 
1 
1 
1 
1 
1 
1 
1 
1 
1 
1 
1 
1 
1 
1 
1 
1 
1 
1 
1 
1 
1 
1 
1 
1 
1 
1 
1 
1 
1 
1 
1 
1 
1 
1 
1 
1 
1 
1 
1 
1 
1 
1 
1 
1 
1 
1 
1 
1 
1 
1 
1 
1 
1 
1 
1 
1 
1 
1 
1 
1 
1 
1 
1 
1 
1 
1 
1 
1 
1 
1 
1 
1 
1 
1 
1 
1 
1 
1 
1 
1 
1 
1 
1 
1 
1 
1 
1 
1 
1 
1 
1 
1 
1 
1 
1 
1 
1 
1 
1 
1 
1 
1 
1 
1 
1 
1 
1 
1 
1 
1 
1 
1 
1 
1 
1 
1 
1 
1 
1 
1 
1 
1 
1 
1 
1 
1 
1 
1 
1 
1 
1 
1 
1 
1 
1 
1 
1 
1 
1 
1 
1 
1 
1 
1 
1 
1 
1 
1 
1 
1 
1 
1 
1 
1 
1 
1 
1 
1 
1 
1 
1 
1 
1 
1 
1 
1 
1 
1 
1 
1 
1 
1 
1 
1 
1 
1 
1 
1 
1 
1 
1 
1 
1 
1 
1 
1 
1 
1 
1 
1 
1 
1 
1 
1 
1 
1 
1 
1 
1 
1 
1 
1 
1 
1 
1 
1 
1 
1 
1 
1 
1 
1 
1 
1 
1 
1 
1 
1 
1 
1 
1 
1 
1 
1 
1 
1 
1 
1 
1 
1 
1 
1 
1 
1 
1 
1 
1 
1 
1 
1 
1 
1 
1 
1 
1 
1 
1 
1 
1 
1 
1 
1 
1 
1 
1 
1 
1 
1 
1 
1 
1 
1 
1 
1 
1 
1 
1 
1 
1 
1 
1 
1 
1 
1 
1 
1 
1 
1 
1 
1 
1 
1 
1 
1 
1 
1 
1 
1 
1 
1 
1 
1 
1 
1 
1 
1 
1 
1 
1 
1 
1 
1 
1 
1 
1 
1 
1 
1 
1 
1 
1 
1 
1 
1 
1 
1 
1 
1 
1 
1 
1 
1 
1 
1 
1 
1 
1 
1 
1 
1 
1 
1 
1 
1 
1 
1 
1 
1 
1 
1 
1 
1 
1 
1 
1 
1 
1 
1 
1 
1 
1 
1 
1 
1 
1 
1 
1 
1 
1 
1 
1 
1 
1 
1 
1 
1 
1 
1 
1 
1 
1 
1 
1 
1 
1 
1 
1 
1 
1 
1 
1 
1 
1 
1 
1 
1 
1 
1 
1 
1 
1 
1 
1 
1 
1 
1 
1 
1 
1 
1 
1 
1 
1 
1 
1 
1 
1 
1 
1 
1 
1 
1 
1 
1 
1 
1 
1 
1 
1 
1 
1 
1 
1 
1 
1 
1 
1 
1 
1 
1 
1 
1 
1 
1 
1 
1 
1 
1 
1 
1 
1 
1 
1 
1 
1 
1 
1 
1 
1 
1 
1 
1 
1 
1 
1 
1 
1 
1 
1 
1 
1 
1 
1 
1 
1 
1 
1 
1 
1 
1 
1 
1 
1 
1 
1 
1 
1 
1 
1 
1 
1 
1 
1 
1 
1 
1 
1 
1 
1 
1 
1 
1 
1 
1 
1 
1 
1 
1 
1 
1 
1 
1 
1 
1 
1 
1 
1 
1 
1 
1 
1 
1 
1 
1 
1 
1 
1 
1 
1 
1 
1 
1 
1 
1 
1 
1 
1 
1 
1 
1 
1 
1 
1 
1 
1 
1 
1 
1 
1 
1 
1 
1 
1 
1 
1 
1 
1 
1 
1 
1 
1 
1 
1 
1 
1 
1 
1 
1 
1 
1 
1 
1 
1 
1 
1 
1 
1 
1 
1 
1 
1 
1 
1 
1 
1 
1 
1 
1 
1 
1 
1 
1 
1 
1 
1 
1 
1 
1 
1 
1 
1 
1 
1 
1 
1 
1 
1 
1 
1 
1 
1 
1 
1 
1 
1 
1 
1 
1 
1 
1 
1 
1 
1 
1 
1 
1 
1 
1 
1 
1 
1 
1 
1 
1 
1 
1 
1 
1 
1 
1 
1 
1 
1 
1 
1 
1 
1 
1 
1 
1 
1 
1 
1 
1 
1 
1 
1 
1 
1 
1 
1 
1 
1 
1 
1 
1 
1 
1 
1 
1 
1 
1 
1 
1 
1 
1 
1 
1 
1 
1 
1 
1 
1 
1 
1 
1 
1 
1 
1 
1 
1 
1 
1 
1 
1 
1 
1 
1 
1 
1 
1 
1 
1 
1 
1 
1 
1 
1 
1 
1 
1 
1 
1 
1 
1 
1 
1 
1 
1 
1 
1 
1 
1 
1 
1 
1 
1 
1 
1 
1 
1 
1 
1 
1 
1 
1 
1 
1 
1 
1 
1 
1 
1 
1 
1 
1 
1 
1 
1 
1 
1 
1 
1 
1 
1 
1 
1 
1 
1 
1 
1 
1 
1 
1 
1 
1 
1 
1 
1 
1 
1 
1 
1 
1 
1 
1 
1 
1 
1 
1 
1 
1 
1 
1 
1 
1 
1 
1 
1 
1 
1 
1 
1 
1 
1 
1 
1 
1 
1 
1 
1 
1 
1 
1 
1 
1 
1 
1 
1 
1 
1 
1 
1 
1 
1 
1 
1 
1 
1 
1 
1 
1 
1 
1 
1 
1 
1 
1 
1 
1 
1 
1 
1 
1 
1 
1 
1 
1 
1 
1 
1 
1 
1 
1 
1 
1 
1 
1 
1 
1 
1 
1 
1 
1 
1 
1 
1 
1 
1 
1 
1 
1 
1 
1 
1 
1 
1 
1 
1 
1 
1 
1 
1 
1 
1 
1 
1 
1 
1 
1 
1 
1 
1 
1 
1 
1 
1 
1 
1 
1 
1 
1 
1 
1 
1 
1 
1 
1 
1 
1 
1 
1 
1 
1 
1 
1 
1 
1 
1 
1 
1 
1 
1 
1 
1 
1 
1 
1 
1 
1 
1 
1 
1 
1 
1 
1 
1 
1 
1 
1 
1 
1 
1 
1 
1 
1 
1 
1 
1 
1 
1 
1 
1 
1 
1 
1 
1 
1 
1 
1 
1 
1 
1 
1 
1 
1 
1 
1 
1 
1 
1 
1 
1 
1 
1 
1 
1 
1 
1 
1 
1 
1 
1 
1 
1 
1 
1 
1 
1 
1 
1 
1 
1 
1 
1 
1 
1 
1 
1 
1 
1 
1 
1 
1 
1 
1 
1 
1 
1 
1 
1 
1 
1 
1 
1 
1 
1 
1 
1 
1 
1 
1 
1 
1 
1 
1 
1 
1 
1 
1 
1 
1 
1 
1 
1 
1 
1 
1 
1 
1 
1 
1 
1 
1 
1 
1 
1 
1 
1 
1 
1 
1 
1 
1 
1 
1 
1 
1 
1 
1 
1 
1 
1 
1 
1 
1 
1 
1 
1 
1 
1 
1 
1 
1 
1 
1 
1 
1 
1 
1 
1 
1 
1 
1 
1 
1 
1 
1 
1 
1 
1 
1 
1 
1 
1 
1 
1 
1 
1 
1 
1 
1 
1 
1 
1 
1 
1 
1 
1 
1 
1 
1 
1 
1 
1 
1 
1 
1 
1 
1 
1 
1 
1 
1 
1 
1 
1 
1 
1 
1 
1 
1 
1 
1 
1 
1 
1 
1 
1 
1 
1 
1 
1 
1 
1 
1 
1 
1 
1 
1 
1 
1 
1 
1 
1 
1 
1 
1 
1 
1 
1 
1 
1 
1 
1 
1 
1 
1 
1 
1 
1 
1 
1 
1 
1 
1 
1 
1 
1 
1 
1 
1 
1 
1 
1 
1 
1 
1 
1 
1 
1 
1 
1 
1 
1 
1 
1 
1 
1 
1 
1 
1 
1 
1 
1 
1 
1 
1 
1 
1 
1 
1 
1 
1 
1 
1 
1 
1 
1 
1 
1 
1 
1 
1 
1 
1 
1 
1 
1 
1 
1 
1 
1 
1 
1 
1 
1 
1 
1 
1 
1 
1 
1 
1 
1 
1 
1 
1 
1 
1 
1 
1 
1 
1 
1 
1 
1 
1 
1 
1 
1 
1 
1 
1 
1 
1 
1 
1 
1 
1 
1 
1 
1 
1 
1 
1 
1 
1 
1 
1 
1 
1 
1 
1 
1 
1 
1 
1 
1 
1 
1 
1 
1 
1 
1 
1 
1 
1 
1 
1 
1 
1 
1 
1 
1 
1 
1 
1 
1 
1 
1 
1 
1 
1 
1 
1 
1 
1 
1 
1 
1 
1 
1 
1 
1 
1 
1 
1 
1 
1 
1 
1 
1 
1 
1 
1 
1 
1 
1 
1 
1 
1 
1 
1 
1 
1 
1 
1 
1 
1 
1 
1 
1 
1 
1 
1 
1 
1 
1 
1 
1 
1 
1 
1 
1 
1 
1 
1 
1 
1 
1 
1 
1 
1 
1 
1 
1 
1 
1 
1 
1 
1 
1 
1 
1 
1 
1 
1 
1 
1 
1 
1 
1 
1 
1 
1 
1 
1 
1 
1 
1 
1 
1 
1 
1 
1 
1 
1 
1 
1 
1 
1 
1 
1 
1 
1 
1 
1 
1 
1 
1 
1 
1 
1 
1 
1 
1 
1 
1 
1 
1 
1 
1 
1 
1 
1 
1 
1 
1 
1 
1 
1 
1 
1 
1 
1 
1 
1 
1 
1 
1 
1 
1 
1 
1 
1 
1 
1 
1 
1 
1 
1 
1 
1 
1 
1 
1 
1 
1 
1 
1 
1 
1 
1 
1 
1 
1 
1 
1 
1 
1 
1 
1 
1 
1 
1 
1 
1 
1 
1 
1 
1 
1 
1 
1 
1 
1 
1 
1 
1 
1 
1 
1 
1 
1 
1 
1 
1 
1 
1 
1 
1 
1 
1 
1 
1 
1 
1 
1 
1 
1 
1 
1 
1 
1 
1 
1 
1 
1 
1 
1 
1 
1 
1 
1 
1 
1 
1 
1 
1 
1 
1 
1 
1 
1 
1 
1 
1 
1 
1 
1 
1 
1 
1 
1 
1 
1 
1 
1 
1 
1 
1 
1 
1 
1 
1 
1 
1 
1 
1 
1 
1 
1 
1 
1 
1 
1 
1 
1 
1 
1 
1 
1 
1 
1 
1 
1 
1 
1 
1 
1 
1 
1 
1 
1 
1 
1 
1 
1 
1 
1 
1 
1 
1 
1 
1 
1 
1 
1 
1 
1 
1 
1 
1 
1 
1 
1 
1 
1 
1 
1 
1 
1 
1 
1 
1 
1 
1 
1 
1 
1 
1 
1 
1 
1 
1 
1 
1 
1 
1 
1 
1 
1 
1 
1 
1 
1 
1 
1 
1 
1 
1 
1 
1 
1 
1 
1 
1 
1 
1 
1 
1 
1 
1 
1 
1 
1 
1 
1 
1 
1 
1 
1 
1 
1 
1 
1 
1 
1 
1 
1 
1 
1 
1 
1 
1 
1 
1 
1 
1 
1 
1 
1 
1 
1 
1 
1 
1 
1 
1 
1 
1 
1 
1 
1 
1 
1 
1 
1 
1 
1 
1 
1 
1 
1 
1 
1 
1 
1 
1 
1 
1 
1 
1 
1 
1 
1 
1 
1 
1 
1 
1 
1 
1 
1 
1 
1 
1 
1 
1 
1 
1 
1 
1 
1 
1 
1 
1 
1 
1 
1 
1 
1 
1 
1 
1 
1 
1 
1 
1 
1 
1 
1 
1 
1 
1 
1 
1 
1 
1 
1 
1 
1 
1 
1 
1 
1 
1 
1 
1 
1 
1 
1 
1 
1 
1 
1 
1 
1 
1 
1 
1 
1 
1 
1 
1 
1 
1 
1 
1 
1 
1 
1 
1 
1 
1 
1 
1 
1 
1 
1 
1 
1 
1 
1 
1 
1 
1 
1 
1 
1 
1 
1 
1 
1 
1 
1 
1 
1 
1 
1 
1 
1 
1 
1 
1 
1 
1 
1 
1 
1 
1 
1 
1 
1 
1 
1 
1 
1 
1 
1 
1 
1 
1 
1 
1 
1 
1 
1 
1 
1 
1 
1 
1 
1 
1 
1 
1 
1 
1 
1 
1 
1 
1 
1 
1 
1 
1 
1 
1 
1 
1 
1 
1 
1 
1 
1 
1 
1 
1 
1 
1 
1 
1 
1 
1 
1 
1 
1 
1 
1 
1 
1 
1 
1 
1 
1 
1 
1 
1 
1 
1 
1 
1 
1 
1 
1 
1 
1 
1 
1 
1 
1 
1 
1 
1 
1 
1 
1 
1 
1 
1 
1 
1 
1 
1 
1 
1 
1 
1 
1 
1 
1 
1 
1 
1 
1 
1 
1 
1 
1 
1 
1 
1 
1 
1 
1 
1 
1 
1 
1 
1 
1 
1 
1 
1 
1 
1 
1 
1 
1 
1 
1 
1 
1 
1 
1 
1 
1 
1 
1 
1 
1 
1 
1 
1 
1 
1 
1 
1 
1 
1 
1 
1 
1 
1 
1 
1 
1 
1 
1 
1 
1 
1 
1 
1 
1 
1 
1 
1 
1 
1 
1 
1 
1 
1 
1 
1 
1 
1 
1 
1 
1 
1 
1 
1 
1 
POINT_DATA 5000
VECTORS Stress float
-1152.62 -1157.02 0.
-61.9107 -764.48 0.
-107.455 -870.809 0.
88.8956 -852.696 0.
115.562 -791.201 0.
142.229 -729.706 0.
-64.9655 -921.633 0.
-234.731 -1317.95 0.
-404.497 -1714.26 0.
-320.728 -1655.65 0.
-206.308 -1388.68 0.
-91.8888 -1121.72 0.
649.8 -857.435 0.
600.075 -973.593 0.
-142.859 -1350.53 0.
8.2563 -998.071 0.
159.372 -645.614 0.
418.08 -461.107 0.
214.411 -936.915 0.
10.7417 -1412.72 0.
106.47 -1493.58 0.
161.038 -1366.34 0.
215.605 -1239.1 0.
7.70354 -1166.89 0.
103.4 -943.592 0.
327.564 -665.244 0.
-668.261 -890.155 0.
-562.697 -643.346 0.
6.14006 -317.246 0.
-190.433 -776.279 0.
-387.006 -1235.31 0.
-200.95 -1282.91 0.
-98.5743 -1043.32 0.
3.80119 -803.735 0.
341.669 -785.699 0.
185.251 -1150.38 0.
28.8319 -1515.06 0.
-76.3723 -1555.22 0.
-52.1959 -1498.73 0.
-1179.84 -1895.75 0.
-939.757 -1335.67 0.
-699.677 -775.588 0.
-1584.82 -745.905 0.
-1428.53 -380.098 0.
-1272.25 -14.2905 0.
-2632.4 -925.01 0.
-3082.59 -1975.16 0.
-3532.78 -3025.31 0.
12884.7 4789.16 0.
13560.4 6366.67 0.
-89880.8 -36678.1 0.
14336.8 6721.52 0.
13673.6 5172.35 0.
-3119.83 -2872.17 0.
-2861.63 -2270.04 0.
-2603.43 -1667.92 0.
-1191.77 -852.163 0.
-1257.7 -1005.84 0.
-1323.63 -1159.53 0.
-1012.26 -929.659 0.
-906.425 -682.523 0.
-800.594 -435.388 0.
-677.134 -552.095 0.
-785.975 -805.635 0.
-142.724 -750.51 0.
-317.406 -1158.16 0.
-492.089 -1565.82 0.
161.283 -1462.27 0.
222.494 -1319.67 0.
283.704 -1177.07 0.
-221.726 -1328.91 0.
-208.151 -1297.1 0.
-194.576 -1265.28 0.
-171.141 -916.803 0.
48.5699 -404.241 0.
-8.2338 -33.9588 0.
-255.27 -679.342 0.
-538.311 -1340.15 0.
269.429 -1401.9 0.
264.429 -1413.42 0.
259.429 -1424.94 0.
-32.5838 -1507.66 0.
21.6845 -1380.57 0.
75.9527 -1253.48 0.
91.4918 -915.488 0.
313.148 -397.483 0.
534.804 120.522 0.
829.642 -143.081 0.
590.048 -703.154 0.
-813.851 -1672.48 0.
-726.825 -1469.15 0.
-639.8 -1265.83 0.
-184.906 -957.229 0.
-172.174 -928.145 0.
-159.442 -899.06 0.
-346.463 -934.975 0.
-314.107 -859.701 0.
-281.751 -784.426 0.
-255.849 -894.758 0.
-343.546 -1097.95 0.
-471.143 -834.876 0.
-10.2752 -713.414 0.
-55.9187 -820.091 0.
-135.434 -915.563 0.
-108.398 -854.662 0.
-81.3613 -793.759 0.
-67.4963 -891.311 0.
-237.079 -1287.59 0.
-406.661 -1683.86 0.
57.7304 -1462.63 0.
172.179 -1195.62 0.
286.628 -928.601 0.
291.686 -979.322 0.
242.049 -1095.54 0.
-121.277 -1310.57 0.
29.9895 -958.052 0.
181.256 -605.534 0.
92.7186 -569.178 0.
-110.557 -1045.23 0.
-313.832 -1521.28 0.
845.136 -1146.04 0.
899.787 -1018.78 0.
954.438 -891.511 0.
-194.413 -1221.66 0.
-98.8277 -998.61 0.
-333.941 -917.29 0.
-760.994 -898.379 0.
-655.842 -651.542 0.
103.561 -244.451 0.
-92.7606 -703.622 0.
-289.082 -1162.79 0.
-261.861 -1278.06 0.
-159.892 -1037.99 0.
-57.9227 -797.925 0.
258.611 -790.782 0.
102.032 -1155.25 0.
-54.5477 -1519.71 0.
363.045 -1336.11 0.
387.234 -1279.45 0.
-976.16 -1776.31 0.
-735.942 -1216.12 0.
-495.724 -655.923 0.
-1362.17 -620.659 0.
-1206.4 -253.81 0.
-1050.64 113.039 0.
-1369.82 -355.954 0.
-1820.64 -1407 0.
-2271.46 -2458.05 0.
10985.5 4008.89 0.
11659.7 5584.6 0.
-74945 -30245.6 0.
12280.1 5872.13 0.
11618.9 4324.38 0.
-1649.07 -2210.84 0.
-1390.45 -1608.37 0.
-1131.82 -1005.9 0.
-926.549 -707.416 0.
-992.598 -861.064 0.
-1058.65 -1014.71 0.
-808.441 -811.657 0.
-702.681 -564.291 0.
-596.92 -316.925 0.
-793.918 -570.825 0.
-903.009 -824.107 0.
-140.994 -718.653 0.
-315.623 -1126.3 0.
-490.252 -1533.96 0.
838.859 -1140.26 0.
900.263 -997.652 0.
961.667 -855.046 0.
-283.087 -1323.91 0.
-269.623 -1292.07 0.
-256.16 -1260.23 0.
-473.098 -1015.32 0.
-253.405 -502.995 0.
-646.442 -274.854 0.
-818.314 -888.217 0.
-1101.07 -1549.1 0.
1012.24 -1052.41 0.
1007.14 -1063.88 0.
1002.03 -1075.35 0.
367.452 -1305.05 0.
421.447 -1177.66 0.
475.443 -1050.27 0.
-180.667 -1001.61 0.
40.3657 -483.45 0.
261.398 34.7125 0.
401.928 -295.449 0.
162.97 -856.078 0.
-446.451 -1484.59 0.
-359.621 -1281.19 0.
-272.791 -1077.8 0.
-163.375 -916.71 0.
-150.364 -888.22 0.
-137.353 -859.73 0.
-241.183 -858.164 0.
-208.675 -782.982 0.
-176.167 -707.799 0.
-379.438 -915.702 0.
-467.775 -1117.51 0.
-255.393 -1595.58 0.
-137.716 -1077.68 0.
-28.2826 -820.629 0.
-740.917 -1878.01 0.
-465.86 -1235.41 0.
-776.708 -1959.93 0.
-1491.86 -4182.67 0.
-1317.22 -3776.15 0.
-2853.38 -7361.46 0.
-3454.14 -10346.1 0.
-1365.73 -5474.15 0.
-1466.2 -5709.56 0.
-1983.59 -5577.57 0.
-2147.53 -5956.81 0.
-3569.6 -9375.1 0.
-1077.5 -3557.04 0.
-1300.93 -4075.25 0.
-1839.92 -4439.04 0.
-2181.29 -5234.6 0.
-5134.05 -12123.4 0.
-9984.23 -27790.3 0.
-2651.71 -10679.5 0.
-1723.44 -8511.85 0.
-2678.52 -6603.15 0.
-1978.05 -4968.73 0.
-2862.65 -7089.05 0.
-2508.1 -4764.55 0.
-2438.59 -4602.16 0.
-1221.69 -3501.97 0.
-1293.81 -3667.8 0.
-2665.43 -6865.8 0.
-5687 -13789.6 0.
-2792 -7037.67 0.
-2624.38 -6649.68 0.
-2447.32 -6909.87 0.
-3283.26 -8863.94 0.
-7961.04 -19782.3 0.
-8249.9 -22240.4 0.
-5599.89 -16057.6 0.
-5912.64 -13656.3 0.
-3812.56 -8756.93 0.
-3841.67 -8825.71 0.
-3436.17 -5850.28 0.
-2373.57 -3373.79 0.
-2481.24 -3627.9 0.
-2131.91 -4511.31 0.
-2460.68 -5276.71 0.
-7982.44 -18159.1 0.
7028.06 -1574.74 0.
7163.28 -1254.61 0.
-61197.5 -33579 0.
7324.03 -1745.32 0.
6807.06 -2954.23 0.
-7107.62 -17722.9 0.
-2384.55 -6701.31 0.
-3044.64 -8240.43 0.
-3581.52 -7376.75 0.
-2843.48 -5654.4 0.
-3784.87 -7850.67 0.
-3336.51 -7075.08 0.
-2239.28 -4516 0.
-2459.11 -5030.1 0.
-2382.38 -4019.96 0.
-2484.46 -4259.6 0.
-3370.82 -8227.95 0.
-3452.46 -8418.47 0.
-6068.71 -14523.1 0.
-10292.4 -28373.9 0.
-2737.32 -10744.5 0.
-2249.07 -9604.41 0.
-3505.25 -8693.53 0.
-3021.63 -7566.02 0.
-4808.09 -11735.3 0.
-1957.19 -3871.38 0.
-1585.54 -3003.26 0.
-2950.92 -4554.32 0.
-2272.66 -3186.39 0.
-3186.95 -5316.78 0.
-6999.64 -21129.2 0.
-5942.13 -18661.2 0.
-10139.1 -28453.8 0.
-8973.57 -23830.6 0.
-4632.65 -13701.8 0.
-4145.65 -12565.4 0.
-1990.05 -4674.56 0.
-972.023 -2301.84 0.
-1695.71 -3993.13 0.
-1451.27 -3770.59 0.
-1576.79 -4063.53 0.
-2522.6 -7008 0.
-504.442 -2297.24 0.
-397.82 -2047.08 0.
-846.96 -2521.16 0.
-695.738 -2168.32 0.
-1623.04 -4332.02 0.
-985.892 -2772.45 0.
-287.197 -1140.96 0.
-138.438 -792.804 0.
-788.137 -1601.61 0.
-1665.09 -3651.56 0.
232.351 -90.0586 0.
358.412 -5.71508 0.
362.495 5.53684 0.
229.165 -35.4053 0.
256.089 30.1492 0.
283.014 95.7041 0.
485.566 447.842 0.
778.574 1131.29 0.
1071.58 1814.73 0.
1677.65 2164.12 0.
1592.17 1963.28 0.
1506.69 1762.43 0.
1241.77 1772.04 0.
1326.44 1972.1 0.
1331.13 2093.59 0.
1179.56 1743.03 0.
1028 1392.47 0.
843.841 1412.52 0.
1317.64 2518.35 0.
1791.44 3624.18 0.
3078.03 4367.97 0.
2864 3868.07 0.
2649.97 3368.17 0.
1423.82 2553.24 0.
1288.73 2237.71 0.
1703.56 2157.81 0.
618.153 1395.1 0.
463.529 1034.11 0.
733.576 1038.52 0.
1032.56 1739.46 0.
1331.53 2440.4 0.
1566.8 2767.2 0.
1456.62 2508.52 0.
1346.44 2249.84 0.
1615.5 2942.7 0.
2138.4 4160.91 0.
2661.3 5379.13 0.
3372.14 5662.56 0.
3285.98 5461.42 0.
2269.52 4786.85 0.
1819.44 3736.85 0.
1369.36 2686.84 0.
642.279 1627.44 0.
364.682 978.29 0.
87.0872 329.139 0.
842.38 746.313 0.
1162.43 1493.65 0.
1482.48 2240.99 0.
8191.32 5149.81 0.
8117.96 4981.7 0.
-20584.9 -7455.69 0.
8865.5 5182.05 0.
8875.25 5202.3 0.
1720.4 2158.84 0.
1737.19 2198.21 0.
1753.98 2237.58 0.
914.983 2005.57 0.
1037.88 2292.43 0.
1160.77 2579.29 0.
910.372 2279.58 0.
706.39 1802.82 0.
502.409 1326.07 0.
531.001 1451.94 0.
619.922 1657.23 0.
1175.84 2169.33 0.
1703.52 3399.82 0.
2231.2 4630.32 0.
3506.75 5621.43 0.
3190.27 4882.25 0.
2873.78 4143.06 0.
1644.51 3299.58 0.
1591.35 3174.29 0.
1538.2 3049 0.
1264.63 2337.82 0.
885.804 1456.8 0.
-15.2113 389.757 0.
519.712 1799.54 0.
1138.24 3245.15 0.
3254.44 5134.46 0.
3442.44 5573.11 0.
3630.44 6011.75 0.
3267.5 5713.66 0.
2887.65 4826.81 0.
2507.8 3939.96 0.
1533.6 2757.3 0.
1126.07 1804.65 0.
718.541 851.994 0.
904.29 1110.44 0.
1042.7 1433.91 0.
1225.87 1682.82 0.
1029.23 1224.59 0.
832.589 766.355 0.
232.967 301.385 0.
267.805 383.071 0.
302.642 464.757 0.
531.751 466.06 0.
422.938 213.527 0.
314.125 -39.006 0.
143.072 101.553 0.
308.271 485.201 0.
56.1392 -133.876 0.
419.897 52.125 0.
423.925 63.2715 0.
466.613 97.7057 0.
492.81 163.493 0.
519.007 229.281 0.
493.308 482.434 0.
786.09 1166.07 0.
1078.87 1849.71 0.
1412.6 2081.74 0.
1327.32 1880.94 0.
1242.04 1680.13 0.
1350.77 1850.1 0.
1435.67 2049.97 0.
1329.75 2124.06 0.
1178.22 1773.5 0.
1026.69 1422.94 0.
1075.99 1543.69 0.
1550.07 2649.49 0.
2024.15 3755.3 0.
2213.62 4030.7 0.
2000.32 3530.34 0.
1787.01 3029.97 0.
1658.58 2685.27 0.
1523.52 2369.5 0.
2084.41 2351.91 0.
1231.01 1690.15 0.
1076.4 1328.77 0.
761.431 1081.74 0.
1060.11 1782.84 0.
1358.79 2483.95 0.
1776.74 2888.3 0.
1666.12 2630.14 0.
1555.51 2371.97 0.
1435.68 2895.76 0.
1957.96 4114.2 0.
2480.24 5332.64 0.
2977.21 5525.86 0.
2890.89 5324.93 0.
2626.53 4971.32 0.
2176.14 3921.63 0.
1725.75 2871.94 0.
1728.55 2123.42 0.
1450.4 1474.44 0.
1172.25 825.462 0.
1740.71 1160.05 0.
2061.26 1907.38 0.
2381.81 2654.72 0.
6102.9 4287.09 0.
6029.94 4118.4 0.
-3805.1 -232.969 0.
7133.34 4470.93 0.
7143.19 4491.55 0.
2113.26 2358.54 0.
2130.4 2397.83 0.
2147.55 2437.12 0.
1513.44 2292.44 0.
1636.37 2579.23 0.
1759.3 2866.02 0.
1218.5 2443.79 0.
1014.4 1967.1 0.
810.298 1490.4 0.
1244.22 1790.13 0.
1333.46 1995.43 0.
1303.37 2255.29 0.
1831.35 3485.75 0.
2359.32 4716.21 0.
2579.89 5256.09 0.
2264.04 4516.78 0.
1948.18 3777.46 0.
1673.74 3344.81 0.
1620.64 3219.31 0.
1567.54 3093.81 0.
1969.05 2673.1 0.
1589.43 1792.18 0.
775.637 758.398 0.
1338.69 2180.88 0.
1957.86 3627.4 0.
2044.02 4647.57 0.
2232.21 5086.25 0.
2420.41 5524.93 0.
2769.18 5532.7 0.
2389.65 4646.03 0.
2010.12 3759.36 0.
1964.41 2972.54 0.
1556.48 2019.88 0.
1148.54 1067.22 0.
1243.58 1286.85 0.
1381.75 1610.37 0.
1271.16 1732.51 0.
1074.7 1273.94 0.
878.231 815.375 0.
91.5845 274.237 0.
126.329 356.063 0.
161.074 437.888 0.
707.004 572.406 0.
598.118 319.867 0.
489.232 67.3276 0.
406.78 247.394 0.
571.618 632.076 0.
-253.61 -894.54 0.
61.0859 -807.138 0.
55.4853 -824.083 0.
168.707 -785.528 0.
180.463 -760.265 0.
192.219 -735.002 0.
-136.1 -931.81 0.
-218.899 -1127.36 0.
-301.699 -1322.9 0.
-174.318 -1260.25 0.
-117.241 -1126.8 0.
-60.1644 -993.358 0.
246.656 -813.069 0.
266.181 -769.716 0.
60.1767 -828.475 0.
29.1749 -898.274 0.
-1.82677 -968.072 0.
61.8594 -1047.53 0.
-44.6049 -1288.9 0.
-151.068 -1530.26 0.
-464.835 -1638.65 0.
-350.953 -1374.4 0.
-237.072 -1110.16 0.
135.922 -914.278 0.
129.337 -933.158 0.
638.625 -730.85 0.
381.137 -798.925 0.
404.263 -745.224 0.
-4.64211 -897.374 0.
-20.0753 -935.896 0.
-35.5089 -974.418 0.
107.351 -855.56 0.
198.666 -649.48 0.
289.981 -443.399 0.
-150.262 -1082.16 0.
-556.092 -2032.76 0.
-961.921 -2983.35 0.
-494.061 -2586.73 0.
-318.127 -2179.44 0.
-93.8672 -1774.1 0.
-45.4312 -1664.14 0.
3.00452 -1554.17 0.
714.428 -1188.64 0.
714.356 -1189.65 0.
714.285 -1190.67 0.
1129.23 -962.229 0.
1176.56 -855.062 0.
1223.88 -747.894 0.
2959.36 -730.095 0.
2460.84 -1894.68 0.
-756.459 -4225.26 0.
3382.41 -1348.44 0.
3964.64 4.19642 0.
1149.1 -444.997 0.
931.095 -944.121 0.
713.091 -1443.24 0.
27.6741 -1900.19 0.
97.6509 -1739.4 0.
167.628 -1578.61 0.
-228.189 -1544.94 0.
-106.814 -1259.66 0.
14.5621 -974.383 0.
434.75 -686.243 0.
482.948 -573.239 0.
87.4791 -712.802 0.
-121.015 -1197.63 0.
-329.51 -1682.46 0.
-790.043 -2044.07 0.
-646.402 -1706.92 0.
-502.761 -1369.76 0.
-222.264 -1208.2 0.
-290.575 -1366.46 0.
-358.886 -1524.73 0.
669.855 -873.656 0.
827.578 -511.996 0.
571.78 -334.189 0.
418.386 -616.457 0.
303.255 -882.324 0.
-997.804 -1694.48 0.
-1194.03 -2149.7 0.
-1390.25 -2604.92 0.
-688.243 -2308.62 0.
-472.594 -1805.62 0.
-256.946 -1302.61 0.
341.39 -881.723 0.
373.469 -810.921 0.
405.547 -740.119 0.
468.992 -725.916 0.
456.26 -751.68 0.
120.173 -897.768 0.
167.699 -783.822 0.
215.226 -669.875 0.
-447.3 -923.857 0.
-486.944 -1010.16 0.
-526.589 -1096.47 0.
223.218 -724.024 0.
291.699 -565.148 0.
360.179 -406.272 0.
52.8251 -623.931 0.
-18.6505 -790.737 0.
-20.3388 -766.212 0.
61.8093 -775.796 0.
55.6672 -792.193 0.
169.778 -755.362 0.
181.781 -730.537 0.
193.785 -705.713 0.
-172.94 -915.392 0.
-256.084 -1111.18 0.
-339.229 -1306.97 0.
-259.029 -1265.68 0.
-202.039 -1132.39 0.
-145.05 -999.113 0.
252.381 -780.761 0.
271.689 -737.474 0.
83.4911 -787.226 0.
52.2651 -857.034 0.
21.0392 -926.842 0.
89.4208 -1003.82 0.
-16.2597 -1246.19 0.
-121.939 -1488.57 0.
-195.706 -1491.69 0.
-81.7743 -1227.43 0.
32.1572 -963.179 0.
-10.6552 -946.583 0.
-17.1922 -965.423 0.
-548.706 -1209.29 0.
329.032 -790.891 0.
351.624 -737.221 0.
206.282 -776.489 0.
190.218 -814.528 0.
174.153 -852.566 0.
-211.37 -961.64 0.
-120.717 -755.153 0.
-30.065 -548.665 0.
333.426 -845.591 0.
-72.4654 -1796.33 0.
-478.357 -2747.07 0.
-74.5154 -2376.67 0.
101.492 -1969.17 0.
14.0455 -1696.72 0.
62.7433 -1587.29 0.
111.441 -1477.86 0.
648.474 -1185.83 0.
648.382 -1187.02 0.
648.29 -1188.22 0.
993.507 -992.718 0.
1040.8 -885.804 0.
1088.09 -778.89 0.
2590.49 -856.88 0.
2092.58 -2021.31 0.
-1463.72 -4498.56 0.
2072.37 -1880.48 0.
2653.74 -528.926 0.
1345.4 -327.885 0.
1127.96 -827.432 0.
910.519 -1326.98 0.
225.32 -1785.88 0.
294.837 -1624.78 0.
364.353 -1463.68 0.
140.538 -1357.5 0.
261.789 -1071.97 0.
383.042 -786.446 0.
373.212 -681.908 0.
421.535 -569.328 0.
133.548 -661.778 0.
-75.2789 -1146.65 0.
-284.106 -1631.51 0.
-452.399 -1867.45 0.
-308.449 -1530.51 0.
-164.497 -1193.57 0.
-85.1241 -1119.23 0.
-153.291 -1277.57 0.
-221.457 -1435.9 0.
544.957 -895.499 0.
702.407 -533.213 0.
500.666 -333.949 0.
335.143 -621.214 0.
220.102 -886.84 0.
-588.696 -1489.26 0.
-784.789 -1944.2 0.
-980.881 -2399.15 0.
-418.437 -2163.1 0.
-202.488 -1660.03 0.
13.4598 -1156.96 0.
18.9551 -989.465 0.
50.9856 -918.526 0.
83.0151 -847.587 0.
349.789 -747.143 0.
337.729 -773.551 0.
49.9639 -896.684 0.
97.7234 -783.25 0.
145.483 -669.817 0.
-355.803 -853.137 0.
-394.746 -940.099 0.
-433.688 -1027.06 0.
269.837 -674.434 0.
337.838 -515.096 0.
405.84 -355.759 0.
-130.684 -671.001 0.
-202.529 -837.7 0.
364.67 -250.546 0.
385.752 2.02688 0.
283.959 -231.989 0.
104.235 -883.891 0.
286.901 -456.39 0.
378.206 -242.046 0.
-623.963 -1865.16 0.
371.329 457.64 0.
376.797 470.448 0.
50.0128 -364.841 0.
-339.789 -1273.4 0.
84.8669 -281.573 0.
666.478 216.893 0.
512.044 -146.235 0.
-45.1467 -1089.34 0.
318.356 -248.49 0.
4.74247 -987.593 0.
-238.067 -1778.62 0.
-49.0277 -1338.36 0.
367.551 -367.201 0.
596.664 -127.603 0.
642.375 -21.7079 0.
701.267 114.897 0.
267.687 -1.45469 0.
-122.471 -909.982 0.
-126.352 -807.86 0.
448.743 -373.696 0.
138.023 -1105.1 0.
429.131 -612.405 0.
927.129 543.413 0.
1337.93 1495.79 0.
-883.061 -1909.15 0.
-505.834 -1029.17 0.
-80.2093 -36.1817 0.
1460.89 899.898 0.
547.542 -1227.26 0.
-190.245 -2944.87 0.
387.8 -2059.98 0.
933.931 -782.293 0.
414.125 -949.342 0.
393.007 -995.619 0.
576.14 -565.401 0.
665.89 -994.033 0.
527.381 -1317.51 0.
1228.34 317.635 0.
1333.62 80.7397 0.
958.695 -790.459 0.
1142.56 -357.863 0.
2226.09 -978.072 0.
2905.41 612.398 0.
-1210.4 -1906.15 0.
1778.47 -68.616 0.
1563.03 -568.622 0.
1362.54 -611.152 0.
839.523 -1832.57 0.
330.223 -3021.95 0.
822.838 -740.984 0.
1588.16 1044.79 0.
1713.68 1337.69 0.
973.603 -85.0024 0.
450.33 -1308.19 0.
1496.93 1131.75 0.
683.368 175.887 0.
-73.198 -1583.69 0.
-175.657 -1431.29 0.
849.92 959.286 0.
337.84 -238.032 0.
348.99 -601.342 0.
212.257 -921.203 0.
382.56 -524.612 0.
59.945 -1001.52 0.
964.214 1107.46 0.
882.478 915.813 0.
507.56 -717.537 0.
321.775 -1149.99 0.
994.529 539.575 0.
342.579 -422.833 0.
-83.5772 -1418.29 0.
294.945 -159.851 0.
-81.0247 -1037.07 0.
34.0554 -768.432 0.
528.798 -425.253 0.
645.384 -152.377 0.
724.198 32.4222 0.
-449.537 -1454.92 0.
-501.818 -1574.88 0.
-978.971 -2686.24 0.
298.361 -603.135 0.
786.33 534.218 0.
801.226 1015.2 0.
726.028 834.191 0.
632.334 609.863 0.
148.538 183.017 0.
68.7035 -2.27882 0.
473.443 943.098 0.
659.693 179.63 0.
511.438 -167.366 0.
471.06 -262.609 0.
175.714 415.918 0.
-194.356 -443.633 0.
542.614 -230.879 0.
270.002 -359.403 0.
255.653 -390.218 0.
99.1106 -483.543 0.
72.096 -546.037 0.
45.0813 -608.53 0.
-115.476 -707.847 0.
-109.851 -692.486 0.
-104.226 -677.126 0.
-77.972 -686.569 0.
-104.542 -749.225 0.
-131.113 -811.881 0.
187.526 -777.35 0.
133.884 -905.413 0.
-13.5027 -1055.56 0.
67.788 -871.209 0.
149.078 -686.853 0.
349.687 -564.926 0.
222.264 -862.601 0.
94.8401 -1160.28 0.
220.665 -1180.87 0.
259.674 -1090.64 0.
298.684 -1000.41 0.
16.3632 -1077.68 0.
33.4764 -1037.04 0.
45.8855 -998.249 0.
-28.6168 -1039.6 0.
-29.0598 -1045.43 0.
178.857 -957.015 0.
198.513 -915.605 0.
218.168 -874.195 0.
-216.148 -1082.88 0.
-265.902 -1200.21 0.
-315.655 -1317.53 0.
641.345 -845.827 0.
713.91 -672.026 0.
786.473 -498.225 0.
872.442 -585.551 0.
787.164 -781.189 0.
391.719 -1095.39 0.
338.987 -1216.12 0.
286.254 -1336.86 0.
814.561 -1170.31 0.
831.137 -1132.26 0.
847.713 -1094.21 0.
797.64 -1073.87 0.
821.421 -1017.84 0.
845.201 -961.807 0.
1953.97 -615.003 0.
1863.19 -823.339 0.
732.187 -1474.8 0.
1424.11 -913.427 0.
1561.26 -589.892 0.
1092.11 -642.961 0.
971.029 -926.481 0.
849.943 -1210 0.
496.778 -1445.15 0.
536.208 -1353.23 0.
575.638 -1261.32 0.
493.33 -1196.09 0.
555.505 -1051.6 0.
617.68 -907.118 0.
440.262 -877.402 0.
491.895 -752.271 0.
115.834 -864.236 0.
-28.111 -1202.4 0.
-172.056 -1540.56 0.
56.9041 -1534.55 0.
186.683 -1231.92 0.
316.461 -929.283 0.
-3.81029 -903.933 0.
46.6312 -786.259 0.
97.0727 -668.585 0.
718.588 -281.097 0.
785.393 -123.058 0.
393.621 -172.52 0.
128.912 -729.771 0.
-103.977 -1273.39 0.
-153.126 -1596.04 0.
-85.8471 -1438.64 0.
-18.5672 -1281.24 0.
141.179 -1056.59 0.
245.781 -811.083 0.
350.382 -565.582 0.
87.242 -576.942 0.
116.788 -505.661 0.
146.334 -434.379 0.
493.439 -412.325 0.
417.919 -588.309 0.
-123.501 -927.666 0.
-36.423 -727.959 0.
50.6557 -528.252 0.
-13.7026 -504.151 0.
-89.0219 -678.309 0.
-164.341 -852.467 0.
131.664 -713.564 0.
195.872 -564.858 0.
260.08 -416.153 0.
-209.432 -561.502 0.
-188.207 -509.704 0.
766.178 -104.754 0.
334.446 -300.479 0.
320.344 -331.499 0.
-100.642 -537.298 0.
-127.48 -600.163 0.
-154.319 -663.028 0.
-84.1774 -663.97 0.
-79.0102 -648.012 0.
-73.8431 -632.055 0.
-48.4176 -641.437 0.
-74.5777 -704.723 0.
-100.738 -768.009 0.
139.259 -767.051 0.
85.6327 -894.988 0.
25.0211 -1005.99 0.
105.697 -821.418 0.
186.372 -636.841 0.
448.227 -492.827 0.
320.699 -790.432 0.
193.172 -1088.04 0.
329.707 -1102.41 0.
368.656 -1012.09 0.
407.605 -921.76 0.
289.994 -929.144 0.
307.657 -888.773 0.
307.035 -856.032 0.
-246.677 -1101.7 0.
-247.559 -1107.03 0.
68.5578 -974.026 0.
87.4487 -932.224 0.
106.339 -890.423 0.
184.064 -880.106 0.
134.378 -997.822 0.
84.6921 -1115.54 0.
570.154 -845.075 0.
642.533 -671.245 0.
714.911 -497.416 0.
709.64 -622.339 0.
624.457 -818.166 0.
457.792 -1034.2 0.
405.171 -1155.57 0.
352.55 -1276.93 0.
1105.83 -1014.58 0.
1122.55 -976.246 0.
1139.27 -937.913 0.
763.476 -1057.68 0.
788.175 -1001.99 0.
812.875 -946.308 0.
1448.03 -799.177 0.
1357.95 -1007.74 0.
-282.136 -1879.69 0.
1448.09 -873.525 0.
1585.03 -550.009 0.
794.592 -738.457 0.
673.463 -1021.86 0.
552.334 -1305.27 0.
483.542 -1419.55 0.
523.073 -1327.59 0.
562.604 -1235.63 0.
504.237 -1161.2 0.
565.932 -1015.68 0.
627.627 -870.171 0.
711.442 -731.246 0.
763.571 -606.524 0.
192.526 -797.758 0.
48.8532 -1135.93 0.
-94.8195 -1474.1 0.
205.924 -1438.83 0.
335.53 -1135.85 0.
465.135 -832.882 0.
-117.207 -922.965 0.
-67.0989 -804.909 0.
-16.9911 -686.853 0.
764.454 -229.833 0.
830.909 -71.6652 0.
392.283 -142.654 0.
43.9788 -735.378 0.
-188.976 -1278.64 0.
68.3664 -1470.54 0.
135.667 -1312.7 0.
202.969 -1154.86 0.
13.7476 -1080.09 0.
118.369 -834.408 0.
222.99 -588.731 0.
301.338 -451.898 0.
330.864 -380.486 0.
360.39 -309.075 0.
648.684 -314.438 0.
572.569 -490.049 0.
-220.783 -938.844 0.
-134.218 -738.447 0.
-47.6523 -538.05 0.
163.809 -398.175 0.
88.2519 -572.404 0.
12.6958 -746.634 0.
-29.8321 -751.658 0.
34.4087 -602.863 0.
98.6493 -454.067 0.
-152.063 -506.4 0.
-130.344 -455.148 0.
610.724 -256.645 0.
190.362 -559.925 0.
119.848 -727.159 0.
-367.706 -1041.47 0.
-353.311 -1008.9 0.
-338.916 -976.335 0.
-150.365 -840.481 0.
-104.565 -736.095 0.
-58.7644 -631.71 0.
-88.8243 -755.952 0.
-204.168 -1023.84 0.
-319.511 -1291.73 0.
-31.6218 -1210.07 0.
-41.5929 -1229.04 0.
-37.4674 -1235.26 0.
17.6122 -1104.03 0.
72.6918 -972.804 0.
346.989 -803.694 0.
312.412 -884.217 0.
277.835 -964.739 0.
358.723 -1037.01 0.
283.441 -1213.75 0.
208.158 -1390.49 0.
77.1112 -1397.74 0.
135.067 -1262.1 0.
478.12 -1004.2 0.
-69.1162 -1031.99 0.
43.3307 -771.825 0.
144.352 -603.046 0.
45.3072 -833.059 0.
-53.7369 -1063.07 0.
277.935 -1088.32 0.
207.783 -1255.26 0.
137.631 -1422.2 0.
182.915 -1551.88 0.
106.608 -1731.52 0.
30.3004 -1911.17 0.
225.653 -1729.86 0.
290.127 -1577.67 0.
406.409 -1398.06 0.
500.277 -1174.31 0.
594.145 -950.559 0.
1248.26 -608.812 0.
1143.15 -847.57 0.
1038.03 -1086.33 0.
576.889 -1324.49 0.
619.161 -1226.28 0.
661.434 -1128.07 0.
1100.37 -962.259 0.
1074.54 -1027.15 0.
-1069.85 -1998.89 0.
1366.41 -946.243 0.
1370.77 -935.758 0.
472.323 -1262.14 0.
573.698 -1022.42 0.
675.072 -782.689 0.
683.589 -834.437 0.
497.728 -1267.67 0.
311.866 -1700.91 0.
209.677 -1719.75 0.
317.162 -1469.73 0.
424.647 -1219.7 0.
580.556 -1230.6 0.
522.27 -1368.8 0.
-136.123 -1737.99 0.
-99.7726 -1650.82 0.
-63.4226 -1563.64 0.
296.991 -1335.36 0.
332.069 -1252.03 0.
367.148 -1168.71 0.
-290.416 -1326.87 0.
-207.224 -1134.89 0.
-124.031 -942.906 0.
517.816 -779.315 0.
429.337 -989.171 0.
-166.135 -1410.54 0.
-308.667 -1505.87 0.
-326.798 -1547.91 0.
197.171 -1382.45 0.
127.732 -1543.82 0.
58.2935 -1705.19 0.
-307.923 -1861.71 0.
-232.178 -1684.51 0.
-156.431 -1507.32 0.
31.1801 -1249.47 0.
128.136 -1025.61 0.
225.092 -801.742 0.
450.264 -587.831 0.
508.601 -456.742 0.
-50.7499 -639.21 0.
-162.935 -900.521 0.
-275.12 -1161.83 0.
-128.157 -1160.89 0.
-25.7704 -925.266 0.
76.6165 -689.64 0.
48.4493 -577.213 0.
87.4244 -485.222 0.
126.4 -393.231 0.
-20.896 -408.378 0.
4.39143 -353.312 0.
188.184 -404.954 0.
88.5498 -571.027 0.
17.8538 -738.288 0.
-267.946 -967.95 0.
-253.74 -935.184 0.
-239.534 -902.419 0.
-118.834 -794.954 0.
-73.0678 -690.481 0.
-27.3014 -586.007 0.
-62.5295 -714.733 0.
-177.811 -982.645 0.
-293.091 -1250.56 0.
87.6516 -1127.94 0.
77.5594 -1146.77 0.
35.7091 -1172.68 0.
90.9276 -1041.68 0.
146.146 -910.678 0.
367.75 -763.415 0.
332.986 -844.037 0.
298.222 -924.659 0.
283.534 -1036.75 0.
208.668 -1213.74 0.
133.801 -1390.74 0.
-189.583 -1482.99 0.
-131.553 -1347.63 0.
538.521 -949.894 0.
529.487 -743.539 0.
642.356 -483.908 0.
77.4356 -598.95 0.
-21.7372 -829.437 0.
-120.91 -1059.92 0.
365.207 -1020.95 0.
294.698 -1188 0.
224.189 -1355.05 0.
87.4901 -1561.47 0.
9.96565 -1740.47 0.
-67.5595 -1919.47 0.
394.485 -1626.55 0.
458.103 -1473.83 0.
629.41 -1271.7 0.
723.124 -1048.22 0.
816.838 -824.74 0.
905.933 -724.696 0.
801.467 -963.925 0.
697.001 -1203.15 0.
459.277 -1341.98 0.
501.526 -1243.76 0.
543.775 -1145.53 0.
962.7 -991.937 0.
935.897 -1056.03 0.
607.472 -1249.32 0.
1243.46 -967.337 0.
1247.2 -956.482 0.
552.658 -1196.53 0.
654.034 -957.155 0.
755.41 -717.775 0.
607.08 -835.081 0.
421.213 -1268.69 0.
235.346 -1702.31 0.
90.1976 -1738.64 0.
197.156 -1488.44 0.
304.115 -1238.24 0.
571.387 -1203.07 0.
512.795 -1340.82 0.
-13.056 -1655.44 0.
23.4207 -1567.77 0.
59.8973 -1480.09 0.
290.883 -1307.71 0.
325.671 -1223.74 0.
360.459 -1139.78 0.
-156.32 -1240.01 0.
-72.903 -1048.21 0.
10.5143 -856.403 0.
491.278 -756.714 0.
403.094 -967.069 0.
-446.684 -1500.12 0.
-245.947 -1447.94 0.
-264.269 -1489.64 0.
221.794 -1341.8 0.
152.289 -1502.44 0.
82.7847 -1663.09 0.
-124.415 -1753.49 0.
-48.979 -1576.02 0.
26.4579 -1398.55 0.
47.0863 -1209.72 0.
143.699 -985.393 0.
240.312 -761.064 0.
148.186 -688.024 0.
205.982 -555.963 0.
172.292 -511.619 0.
60.338 -773.043 0.
-51.616 -1034.47 0.
-181.261 -1152.8 0.
-79.8412 -916.106 0.
21.5787 -679.41 0.
240.99 -464.272 0.
279.823 -371.967 0.
318.657 -279.661 0.
173.794 -295.044 0.
199.848 -239.743 0.
7.70987 -3.62663 0.
176.789 -137.724 0.
726.177 1145.64 0.
429.18 499.481 0.
155.394 -137.949 0.
218.823 11.5925 0.
333.145 226.744 0.
290.34 126.461 0.
464.349 530.822 0.
541.356 674.195 0.
556.414 708.912 0.
400.652 345.107 0.
727.324 164.804 0.
522.672 -314.776 0.
552.463 -62.0079 0.
1010.58 1003.69 0.
713.104 306.342 0.
877.546 418.041 0.
785.566 202.932 0.
653.858 -105.147 0.
886.759 536.502 0.
952.282 689.674 0.
376.961 -652.316 0.
208.682 -25.9577 0.
617.019 921.811 0.
564.48 402.81 0.
1658.63 791.859 0.
1205.8 -271.76 0.
-44.4049 -730.513 0.
411.52 330.649 0.
608.038 786.468 0.
1208.66 813.163 0.
931.355 166.916 0.
844.289 -35.0425 0.
794.108 299.113 0.
1138.29 1104.45 0.
1017.2 824.749 0.
2036.87 1923.48 0.
1265.31 120.247 0.
1274.15 -151.222 0.
1214.02 -296.321 0.
1408.27 152.404 0.
877.833 -100.051 0.
1209.91 669.029 0.
1142.7 506.766 0.
585.334 -793.39 0.
693.056 -543.388 0.
1193.36 622.991 0.
1642.8 883.022 0.
1710.3 1039.5 0.
-1450.01 1022.85 0.
2387.61 1990.55 0.
1658.28 285.796 0.
1614.81 1165.7 0.
1362.73 576.77 0.
964.38 -352.776 0.
1090.37 469.466 0.
1122.4 545.711 0.
1309.99 984.371 0.
784.876 144.46 0.
778.806 132.752 0.
914.85 452.119 0.
1040.06 -70.8057 0.
1082.64 36.8718 0.
860 179.185 0.
846.85 149.529 0.
975.797 451.753 0.
969.562 326.463 0.
1278.3 1043.22 0.
768.193 -150.762 0.
293.731 -418.548 0.
591.136 275.186 0.
751.515 648.946 0.
1063.74 650.806 0.
1505.21 1683.61 0.
-298.029 -1.89344 0.
365.653 -114.163 0.
687.782 634.308 0.
763.211 -80.9291 0.
784.396 -33.4932 0.
947.923 345.845 0.
791.925 64.1968 0.
615.368 -342.912 0.
789.911 69.3106 0.
581.035 24.4234 0.
455.472 -264.568 0.
1077.61 1190.61 0.
375.69 450.206 0.
493.553 728.472 0.
416.741 -333.818 0.
611.822 121.834 0.
658.916 232.058 0.
-98.6358 -822.548 0.
458.282 474.066 0.
496.405 559.596 0.
368.621 -484.617 0.
662.22 199.015 0.
427.262 -350.477 0.
194.871 -594.973 0.
170.985 -647.114 0.
79.6738 -229.156 0.
116.087 -325.158 0.
74.4029 -420.574 0.
-53.2281 -553.645 0.
-107.289 -677.544 0.
-161.349 -801.442 0.
-137.669 -914.157 0.
-214.202 -1092.72 0.
-290.736 -1271.29 0.
-112.056 -1188.72 0.
-62.7073 -1074.47 0.
-13.3585 -960.216 0.
424.221 -713.837 0.
448.743 -655.538 0.
90.5913 -781.385 0.
-26.1081 -1055.39 0.
-142.808 -1329.39 0.
201.442 -1332.34 0.
211.176 -1309.9 0.
220.911 -1287.46 0.
-118.065 -1281.81 0.
22.3554 -954.589 0.
162.775 -627.367 0.
98.9658 -752.857 0.
-8.05539 -1006.92 0.
245.462 -1106.68 0.
517.06 -978.334 0.
529.285 -954.938 0.
155.272 -1093.47 0.
181.569 -1035.65 0.
207.867 -977.831 0.
340.378 -975.264 0.
238.363 -1213.07 0.
136.349 -1450.87 0.
167.19 -1398 0.
253.525 -1195.49 0.
339.861 -992.986 0.
607.244 -1141.39 0.
435.521 -1542.62 0.
578.761 -1757.25 0.
682.034 -1519.15 0.
785.307 -1281.05 0.
274.804 -1321.67 0.
348.569 -1153.71 0.
422.335 -985.756 0.
606.61 -862.389 0.
593.034 -897.997 0.
579.459 -933.605 0.
802.233 -842.599 0.
805.227 -837.754 0.
-1653.12 -1888.15 0.
1275.86 -739.658 0.
1220.64 -870.039 0.
426.053 -1287.62 0.
442.832 -1247.89 0.
459.61 -1208.16 0.
267.711 -1206.05 0.
346.276 -1022.36 0.
424.841 -838.671 0.
280.426 -1038.76 0.
133.192 -1381.99 0.
-14.0419 -1725.22 0.
552.492 -1466.19 0.
573.294 -1413.3 0.
206.559 -1522.99 0.
242.025 -1440.38 0.
277.491 -1357.78 0.
62.2769 -1396.1 0.
75.7831 -1365.23 0.
89.2899 -1334.36 0.
142.818 -1298.44 0.
144.063 -1294.57 0.
145.308 -1290.7 0.
190.035 -1265.31 0.
195.376 -1250.08 0.
-253.012 -1430.8 0.
-108.106 -1354.87 0.
-98.515 -1336.87 0.
204.317 -1166.2 0.
273.623 -1006.37 0.
342.928 -846.527 0.
357.269 -828.97 0.
283 -995.936 0.
208.732 -1162.9 0.
290.96 -1078.17 0.
357.251 -920.349 0.
423.542 -762.531 0.
-327.15 -1140.8 0.
-364.919 -1228.92 0.
21.2591 -1103.38 0.
96.8676 -927.435 0.
172.476 -751.491 0.
-102.578 -752.976 0.
-53.2739 -642.862 0.
-3.96997 -532.749 0.
229.738 -426.044 0.
206.651 -482.731 0.
183.564 -539.419 0.
293.737 -369.899 0.
373.992 -179.763 0.
301.508 -105.018 0.
155.913 -278.247 0.
114.232 -373.9 0.
-74.1881 -530.219 0.
-128.677 -654.125 0.
-183.165 -778.032 0.
-98.9857 -865.912 0.
-175.734 -1044.62 0.
-252.481 -1223.33 0.
81.8575 -1073.94 0.
131.663 -959.713 0.
181.468 -845.488 0.
529.07 -637.603 0.
552.976 -578.883 0.
-83.2199 -826.406 0.
-199.997 -1100.3 0.
-316.775 -1374.19 0.
308.324 -1254.99 0.
317.697 -1232.54 0.
327.071 -1210.08 0.
-375.308 -1359.41 0.
-234.257 -1032.37 0.
-93.2058 -705.331 0.
363.101 -609.291 0.
255.577 -862.943 0.
542.486 -947.919 0.
64.7808 -1141.72 0.
77.2234 -1118.6 0.
609.012 -866.848 0.
635.526 -809.403 0.
662.041 -751.957 0.
232.983 -987.099 0.
131.321 -1225.5 0.
29.6592 -1463.91 0.
307.392 -1306.4 0.
393.945 -1103.83 0.
480.498 -901.271 0.
481.976 -1163.9 0.
309.791 -1564.72 0.
586.844 -1722.38 0.
689.565 -1483.7 0.
792.287 -1245.02 0.
193.439 -1326.62 0.
266.857 -1158.41 0.
340.275 -990.21 0.
684.537 -798.539 0.
671.68 -834.632 0.
658.824 -870.723 0.
697.251 -854.368 0.
700.596 -850.252 0.
-3042.19 -2451.06 0.
1363.81 -669.727 0.
1308.32 -800.57 0.
275.209 -1319.49 0.
292.002 -1279.72 0.
308.795 -1239.95 0.
156.624 -1223.01 0.
235.54 -1039.28 0.
314.457 -855.552 0.
299.44 -1000.5 0.
152.141 -1343.73 0.
4.84116 -1686.96 0.
706.07 -1367.26 0.
727.596 -1314.74 0.
319.172 -1442.2 0.
354.534 -1359.59 0.
389.895 -1276.97 0.
-130.44 -1448.08 0.
-117.202 -1416.91 0.
-103.964 -1385.75 0.
434.293 -1142.46 0.
435.997 -1138.87 0.
437.701 -1135.27 0.
141.767 -1254.1 0.
147.304 -1238.86 0.
559.754 -1051.34 0.
-21.0794 -1285.95 0.
-11.9189 -1267.72 0.
109.449 -1174.65 0.
178.339 -1014.63 0.
247.228 -854.6 0.
307.957 -820.691 0.
233.371 -987.457 0.
158.785 -1154.22 0.
530.495 -945.461 0.
596.945 -788.143 0.
663.395 -630.827 0.
-334.977 -1111.84 0.
-371.824 -1200.69 0.
-41.8777 -1098.34 0.
33.8486 -922.555 0.
109.575 -746.77 0.
-126.84 -731.421 0.
-77.0837 -621.606 0.
-27.3276 -511.791 0.
45.2978 -473.845 0.
22.7049 -530.792 0.
0.111896 -587.74 0.
313.529 -329.434 0.
394.373 -138.724 0.
115.278 -739.176 0.
8.56721 -637.691 0.
95.2067 -439.053 0.
-76.1049 -396.791 0.
-111.332 -480.49 0.
-146.559 -564.19 0.
132.83 -513.894 0.
96.7049 -600.086 0.
60.5798 -686.277 0.
262.246 -674.511 0.
222.46 -766.052 0.
182.674 -857.594 0.
371.854 -807.242 0.
356.467 -842.628 0.
-145.44 -1087.59 0.
-150.327 -1096.99 0.
-155.214 -1106.4 0.
473.231 -837.765 0.
476.19 -831.587 0.
479.149 -825.41 0.
-299.362 -1163.89 0.
-305.244 -1175.41 0.
-311.126 -1186.93 0.
192.871 -979.119 0.
192.663 -979.283 0.
855.598 -695.111 0.
52.8773 -1032.18 0.
57.0111 -1020.42 0.
733.851 -766.643 0.
643.229 -975.01 0.
552.606 -1183.38 0.
-18.131 -1434.92 0.
94.3956 -1175.53 0.
206.922 -916.143 0.
438.931 -954.951 0.
270.481 -1348.69 0.
102.031 -1742.43 0.
351.059 -1560.98 0.
416.522 -1406.76 0.
779.953 -1130.27 0.
834.935 -1002.32 0.
889.918 -874.37 0.
254.339 -1059.08 0.
273.91 -1008.64 0.
293.482 -958.195 0.
651.592 -769.951 0.
668.362 -724.866 0.
685.13 -679.78 0.
774.568 -710.433 0.
724.175 -824.822 0.
-3754.98 -2837.93 0.
1231.02 -826.896 0.
1166.11 -979.982 0.
138.163 -1486.42 0.
203.864 -1333.89 0.
269.565 -1181.36 0.
206.966 -1102.81 0.
245.498 -1010.45 0.
284.03 -918.087 0.
329.854 -978.136 0.
245.158 -1172.26 0.
160.461 -1366.39 0.
840.031 -1023.61 0.
879.551 -930.59 0.
430.217 -1056.92 0.
410.34 -1100.67 0.
390.464 -1144.42 0.
-45.6997 -1362.29 0.
-59.0533 -1390.72 0.
-72.4069 -1419.14 0.
424.745 -1208.36 0.
429.906 -1196.78 0.
435.066 -1185.19 0.
279.883 -1130.21 0.
361.353 -946.504 0.
1186.61 -455.383 0.
92.3714 -938.498 0.
85.526 -955.529 0.
181.396 -919.747 0.
178.334 -922.981 0.
175.271 -926.214 0.
313.074 -902.406 0.
275.753 -991.509 0.
238.431 -1080.61 0.
443.56 -970.857 0.
476.537 -898.746 0.
509.513 -826.635 0.
-130.421 -944.13 0.
-38.8016 -732.527 0.
112.983 -499.548 0.
157.724 -396.862 0.
202.465 -294.175 0.
-56.7336 -386.637 0.
-98.9669 -485.898 0.
-141.2 -585.158 0.
24.4423 -545.434 0.
22.8339 -545.39 0.
21.2258 -545.346 0.
188.683 -446.602 0.
204.736 -407.395 0.
131.554 -701.721 0.
17.7879 -602.538 0.
103.759 -403.793 0.
-156.518 -400.476 0.
-192.477 -484.049 0.
-228.436 -567.623 0.
325.886 -399.128 0.
289.809 -485.845 0.
253.732 -572.563 0.
131.059 -699.258 0.
91.0992 -790.675 0.
51.1394 -882.092 0.
98.8454 -893.153 0.
83.2631 -927.89 0.
161.042 -925.255 0.
156.294 -934.734 0.
151.547 -944.214 0.
367.894 -852.374 0.
370.786 -846.313 0.
373.678 -840.251 0.
-45.4516 -1024.38 0.
-51.3184 -1035.97 0.
-57.1852 -1047.56 0.
-58.5454 -1055.61 0.
-58.5953 -1055.98 0.
141.913 -970.341 0.
386.103 -857.845 0.
390.815 -846.794 0.
516.108 -828.358 0.
425.443 -1036.53 0.
334.777 -1244.7 0.
-20.9475 -1402.19 0.
91.3982 -1142.85 0.
203.744 -883.514 0.
289.396 -988.462 0.
120.557 -1382.21 0.
-48.2824 -1775.95 0.
600.976 -1421.69 0.
666.882 -1267.19 0.
663.683 -1149.62 0.
718.376 -1021.45 0.
773.069 -893.269 0.
228.808 -1038.94 0.
248.401 -989.074 0.
267.993 -939.208 0.
487.47 -807.762 0.
504.639 -763.747 0.
521.808 -719.731 0.
938.174 -607.208 0.
888.322 -722.368 0.
3593.57 342.97 0.
1013.74 -887.93 0.
948.908 -1040.96 0.
167.36 -1442.14 0.
232.766 -1289.16 0.
298.171 -1136.18 0.
334.785 -1019.07 0.
372.773 -926.342 0.
410.761 -833.614 0.
383.313 -924.556 0.
298.3 -1118.41 0.
213.288 -1312.27 0.
696.154 -1052.66 0.
735.148 -959.309 0.
215.512 -1119.02 0.
196.022 -1162.99 0.
176.532 -1206.96 0.
292.02 -1184.06 0.
279.005 -1212.95 0.
265.989 -1241.84 0.
224.001 -1263.62 0.
229.369 -1252.38 0.
234.736 -1241.15 0.
567.471 -974.648 0.
648.442 -790.506 0.
1035.48 -488.37 0.
-34.6634 -962.201 0.
-41.2517 -979.929 0.
202.478 -879.424 0.
199.863 -883.181 0.
197.248 -886.938 0.
493.555 -792.828 0.
455.684 -882.021 0.
417.813 -971.214 0.
71.9049 -1099.78 0.
104.561 -1028.14 0.
137.218 -956.493 0.
216.167 -764.613 0.
307.592 -552.824 0.
-39.9556 -534.392 0.
4.90712 -431.691 0.
49.7696 -328.99 0.
-192.54 -413.44 0.
-234.8 -512.755 0.
-277.061 -612.07 0.
243.473 -420.719 0.
241.966 -420.762 0.
240.459 -420.806 0.
32.9139 -481.814 0.
48.3259 -442.972 0.
961.055 1254.23 0.
298.834 67.0983 0.
174.677 -226.396 0.
-26.8006 85.0424 0.
-151.278 -209.27 0.
156.52 506.35 0.
299.061 -792.374 0.
431.973 -483.863 0.
552.765 -204.312 0.
-35.2302 -805.892 0.
244.378 -154.633 0.
474.145 380.832 0.
38.5164 -486.745 0.
125.493 -281.403 0.
1023.03 547.284 0.
395.415 -919.909 0.
461.41 -768.34 0.
441.779 -446.675 0.
799.514 387.246 0.
839.555 479.778 0.
1081.83 1159.56 0.
991.75 947.626 0.
1121.87 1249.93 0.
308.803 290.043 0.
708.937 1219.74 0.
616.701 489.924 0.
1095.36 196.841 0.
1264.67 585.936 0.
893.659 500.553 0.
1074.42 923.627 0.
891.826 499.091 0.
1055.97 1142.09 0.
617.228 118.461 0.
679.119 262.881 0.
1092.27 1213.88 0.
922.904 817.559 0.
705.312 308.243 0.
1961.12 1319.66 0.
1521.13 294.071 0.
879.241 -401.872 0.
1280.82 534.577 0.
959.115 -217.054 0.
905.79 625.377 0.
619.283 -45.3548 0.
880.662 562.128 0.
1076.11 922.497 0.
691.564 21.1285 0.
882.407 462.342 0.
1653.06 790.467 0.
2278.03 2250.56 0.
-4629.33 245.286 0.
1740.28 1249.26 0.
1137.8 -155.95 0.
83.9699 -1660.81 0.
1100.58 709.366 0.
934.743 320.86 0.
851.395 -19.7801 0.
987.076 294.23 0.
747.591 -266.712 0.
837.119 78.2413 0.
1356.88 1285.84 0.
644.069 -382.828 0.
1160.09 339.334 0.
1418.73 940.692 0.
814.762 727.483 0.
755.724 590.444 0.
507.31 11.0663 0.
981.959 -184.103 0.
961.404 -232.298 0.
1259.15 462.26 0.
1149.93 1306.63 0.
769.486 417.906 0.
747.065 364.796 0.
1289.28 196.033 0.
1219.82 34.4053 0.
1233.79 682.344 0.
175.307 -208.16 0.
609.943 810.48 0.
937.733 827.449 0.
717.124 310.962 0.
190.517 -920.37 0.
1058.14 215.975 0.
1251.24 666.137 0.
1213 576.804 0.
215.656 -39.0147 0.
65.1383 -388.228 0.
206.067 -57.5506 0.
954.93 335.678 0.
871.987 147.508 0.
600.767 1270.56 0.
314.796 607.539 0.
-87.9268 -328.496 0.
142.329 633.025 0.
288.122 974.902 0.
-31.6646 230.42 0.
474.636 -257.338 0.
622.756 85.6569 0.
1182.5 1390.01 0.
448.038 798.698 0.
529.538 987.588 0.
439.234 -440.967 0.
-159.331 -630.263 0.
-144.577 -596.659 0.
-96.6189 -565.176 0.
-135.144 -655.972 0.
-173.669 -746.768 0.
271.776 -594.334 0.
278.819 -579.447 0.
285.862 -564.56 0.
-21.1996 -738.476 0.
-58.6585 -825.837 0.
-96.1175 -913.198 0.
-270.447 -1071.63 0.
-313.902 -1174.21 0.
254.692 -994.871 0.
280.664 -938.554 0.
306.636 -882.238 0.
307.85 -875.079 0.
278.061 -946.217 0.
248.272 -1017.35 0.
75.7543 -1174.81 0.
17.4494 -1314.24 0.
-40.8557 -1453.68 0.
-242.822 -1421.19 0.
-139.012 -1183.35 0.
233.92 -830.086 0.
498.473 -803.534 0.
452.831 -913.356 0.
198.65 -1062.71 0.
272.605 -890.277 0.
346.56 -717.848 0.
460.129 -646.049 0.
388.533 -814.171 0.
316.936 -982.293 0.
206.972 -1109.72 0.
179.193 -1176.06 0.
151.414 -1242.41 0.
781.559 -1030.63 0.
754.527 -1094.3 0.
315.59 -1337.82 0.
280.649 -1421.92 0.
245.708 -1506.03 0.
18.2285 -1598.95 0.
98.9808 -1412.63 0.
179.733 -1226.32 0.
235.221 -1068.77 0.
295.522 -934.164 0.
355.824 -799.562 0.
1030.61 -525.352 0.
1004.4 -585.999 0.
-1345.58 -1643.79 0.
855.065 -565.638 0.
925.63 -400.705 0.
468.054 -552.7 0.
317.158 -906.286 0.
166.261 -1259.87 0.
419.786 -1318.33 0.
420.859 -1317.93 0.
421.932 -1317.53 0.
217.581 -1279.05 0.
315.294 -1053.94 0.
413.008 -828.831 0.
619.248 -807.158 0.
571.652 -920.812 0.
-87.0837 -1280.78 0.
-71.362 -1245.93 0.
-55.6403 -1211.08 0.
665.623 -909.113 0.
627.221 -999.441 0.
588.82 -1089.77 0.
168.501 -1177.92 0.
284.841 -907.487 0.
401.182 -637.054 0.
721.69 -661.855 0.
585.223 -977.841 0.
43.5908 -1451.01 0.
-300.055 -1439.26 0.
-219.653 -1246.15 0.
338.309 -905.539 0.
311.207 -971.194 0.
284.105 -1036.85 0.
127.991 -1105.69 0.
160.909 -1027.04 0.
193.828 -948.386 0.
82.0371 -1014.45 0.
50.5209 -1085.31 0.
19.0059 -1156.16 0.
295.405 -872.18 0.
388.114 -650.898 0.
-76.643 -702.748 0.
-92.023 -735.258 0.
-107.402 -767.768 0.
-409.671 -937.057 0.
-450.484 -1030.9 0.
-491.298 -1124.75 0.
128.356 -836.715 0.
181.129 -714.24 0.
233.902 -591.764 0.
-241.732 -803.471 0.
-256.901 -839.71 0.
705.442 -297.671 0.
-337.717 -675.115 0.
-323.879 -641.224 0.
174.845 -419.223 0.
135.312 -509.293 0.
95.7797 -599.362 0.
150.054 -615.797 0.
157.164 -600.9 0.
164.272 -586.004 0.
-24.7105 -709.624 0.
-62.2392 -796.866 0.
-99.768 -884.108 0.
-325.364 -1064.53 0.
-368.712 -1167.22 0.
142.116 -1010.75 0.
167.92 -954.416 0.
193.724 -898.082 0.
385.365 -808.926 0.
355.423 -879.723 0.
325.481 -950.521 0.
85.4864 -1141.6 0.
26.5084 -1280.78 0.
-32.4697 -1419.97 0.
-0.802676 -1284.63 0.
102.654 -1046.89 0.
-223.148 -993.276 0.
307.944 -854.79 0.
261.643 -964.594 0.
187.131 -1038.14 0.
260.969 -865.615 0.
334.807 -693.092 0.
688.634 -514.293 0.
617.66 -682.701 0.
546.686 -851.109 0.
360.01 -1010.93 0.
331.966 -1076.95 0.
303.922 -1142.98 0.
588.134 -1082.72 0.
561.154 -1146.27 0.
133.604 -1384.16 0.
99.3462 -1468.58 0.
65.0883 -1553.01 0.
113.082 -1524.99 0.
193.85 -1338.84 0.
274.618 -1152.68 0.
267.992 -1023.67 0.
327.876 -888.66 0.
387.76 -753.65 0.
977.24 -517.38 0.
950.601 -577.777 0.
-568.146 -1278.78 0.
740.051 -582.978 0.
810.669 -417.855 0.
372.611 -563.219 0.
221.757 -917.22 0.
70.9035 -1271.22 0.
590.989 -1211.91 0.
592.343 -1212.08 0.
593.698 -1212.25 0.
187.048 -1260.71 0.
284.551 -1035.21 0.
382.054 -809.712 0.
572.102 -796.368 0.
524.366 -910.321 0.
-114.481 -1258.97 0.
-98.2543 -1224.67 0.
-82.0277 -1190.37 0.
670.728 -875.559 0.
632.734 -965.964 0.
594.74 -1056.37 0.
287.491 -1096.03 0.
404.384 -825.904 0.
521.277 -555.774 0.
492.03 -728.458 0.
355.627 -1044.27 0.
-221.388 -1532.78 0.
-220.641 -1374.23 0.
-139.788 -1181.73 0.
530.415 -792.624 0.
503.066 -857.975 0.
475.717 -923.326 0.
-302.66 -1258.26 0.
-269.838 -1179.82 0.
-237.015 -1101.38 0.
445.968 -827.002 0.
414.709 -898.407 0.
383.451 -969.811 0.
137.569 -908.649 0.
230.673 -688.012 0.
145.948 -576.856 0.
130.703 -609.351 0.
115.459 -641.846 0.
-243.236 -832.37 0.
-283.924 -926.335 0.
-324.611 -1020.3 0.
23.128 -851.877 0.
75.5589 -729.377 0.
127.989 -606.877 0.
-229.147 -767.362 0.
-244.672 -803.934 0.
448.242 -431.706 0.
-452.401 -805.781 0.
-403.848 -691.113 0.
264.749 -336.028 0.
246.357 -378.413 0.
227.964 -420.797 0.
132.558 -521.345 0.
80.7869 -639.494 0.
29.0159 -757.642 0.
9.96035 -679.191 0.
111.888 -441.887 0.
213.816 -204.583 0.
0.431757 -333.592 0.
-40.4504 -425.701 0.
297.798 -355.94 0.
233.702 -501.395 0.
169.607 -646.849 0.
406.871 -641.938 0.
385.394 -690.422 0.
363.917 -738.905 0.
252.658 -854.473 0.
205.582 -965.703 0.
158.505 -1076.93 0.
169.878 -938.076 0.
277.742 -684.546 0.
488.417 -386.494 0.
392.006 -613.293 0.
289.236 -852.709 0.
172.846 -1088.6 0.
101.564 -1255.8 0.
30.2823 -1422.99 0.
447.667 -1249.75 0.
537.107 -1038.08 0.
626.547 -826.404 0.
443.391 -733.394 0.
536.073 -517.893 0.
628.756 -302.391 0.
899.233 -299.665 0.
816.529 -492.16 0.
237.008 -887.324 0.
204.018 -961.311 0.
171.027 -1035.3 0.
396.451 -929.708 0.
470.915 -751.017 0.
545.379 -572.327 0.
432.671 -623.943 0.
370.085 -770.117 0.
307.498 -916.291 0.
877.11 -686.282 0.
889.708 -658.423 0.
-1557.39 -1683.78 0.
733.411 -673.32 0.
748.124 -638.328 0.
175.061 -849.15 0.
206.372 -774.97 0.
237.682 -700.79 0.
791.322 -541.668 0.
661.428 -843.485 0.
531.534 -1145.3 0.
247.186 -1171.07 0.
386.278 -846.179 0.
525.369 -521.287 0.
628.338 -563.668 0.
560.484 -718.989 0.
48.2562 -1049.85 0.
59.7341 -1022.18 0.
71.2121 -994.513 0.
643.938 -737.314 0.
643.647 -735.706 0.
643.356 -734.097 0.
493.187 -842.617 0.
444.499 -954.116 0.
395.809 -1065.61 0.
340.907 -1038.93 0.
382.939 -938.741 0.
291.386 -911.26 0.
-82.5906 -1103.92 0.
-99.0271 -1142.88 0.
476.722 -886.587 0.
529.372 -761.423 0.
582.021 -636.259 0.
-258.184 -943.447 0.
-251.967 -929.694 0.
-245.751 -915.941 0.
544.664 -557.38 0.
556.102 -530.965 0.
567.539 -504.551 0.
208.744 -682.25 0.
197.895 -708.126 0.
177.079 -727.384 0.
175.282 -735.598 0.
173.485 -743.813 0.
-211.933 -846.026 0.
-98.0642 -584.339 0.
15.8048 -322.651 0.
150.744 -183.663 0.
141.543 -205.908 0.
132.341 -228.153 0.
-16.7708 -331.7 0.
-35.2538 -381.469 0.
-275.609 -714.501 0.
-387.458 -748.085 0.
-338.88 -633.472 0.
173.505 -343.202 0.
155.065 -385.436 0.
136.625 -427.669 0.
137.565 -486.899 0.
86.3691 -605.538 0.
35.1729 -724.177 0.
89.6768 -614.914 0.
191.625 -377.649 0.
293.574 -140.385 0.
115.887 -251.799 0.
75.1579 -344.311 0.
134.714 -393.979 0.
69.9771 -539.381 0.
5.24124 -684.782 0.
240.688 -681.499 0.
219.964 -730.665 0.
199.24 -779.831 0.
386.174 -764.617 0.
338.881 -875.664 0.
291.588 -986.712 0.
31.3953 -964.996 0.
139.258 -711.768 0.
271.305 -448.139 0.
568.953 -506.584 0.
466.047 -745.42 0.
228.994 -1033.89 0.
157.741 -1200.85 0.
86.4883 -1367.8 0.
427.525 -1227.49 0.
517.04 -1015.65 0.
606.555 -803.805 0.
243.872 -786.165 0.
337.065 -570.958 0.
430.258 -355.75 0.
1059.96 -200.302 0.
977.126 -392.273 0.
177.376 -881.735 0.
143.972 -954.971 0.
110.568 -1028.21 0.
403.668 -896.778 0.
477.796 -717.418 0.
551.924 -538.058 0.
414.426 -598.365 0.
352.811 -745.388 0.
291.197 -892.412 0.
886.225 -651.801 0.
898.443 -623.698 0.
270.041 -868.988 0.
976.782 -536.951 0.
990.977 -501.801 0.
114.016 -843.01 0.
145.914 -769.35 0.
177.812 -695.691 0.
436.845 -662.986 0.
307.287 -965.08 0.
177.731 -1267.17 0.
361.943 -1090.41 0.
501.574 -766.155 0.
641.206 -441.897 0.
604.717 -542.665 0.
536.608 -697.959 0.
264.339 -924.114 0.
276.543 -897.03 0.
288.747 -869.947 0.
456.824 -785.933 0.
456.965 -784.755 0.
457.106 -783.577 0.
635.369 -749.376 0.
586.892 -860.802 0.
538.415 -972.228 0.
550.536 -920.4 0.
592.4 -820.339 0.
646.29 -724.262 0.
-70.9881 -1064.62 0.
-87.4979 -1104.12 0.
291.36 -935.747 0.
343.914 -810.908 0.
396.468 -686.069 0.
-23.214 -811.093 0.
-16.7299 -797.877 0.
-10.2466 -784.66 0.
188.958 -676.864 0.
201.075 -651.126 0.
213.192 -625.389 0.
331.234 -598.492 0.
320.343 -624.667 0.
233.065 -673.147 0.
231.653 -681.227 0.
230.24 -689.308 0.
-233.489 -822.849 0.
-119.552 -561.312 0.
-5.6137 -299.774 0.
-99.3905 -259.291 0.
-108.782 -281.606 0.
-118.174 -303.921 0.
67.4619 -265.739 0.
48.2357 -316.296 0.
-547.642 38.4552 0.
230.514 598.24 0.
-40.5836 -36.0985 0.
618.991 905.375 0.
179.527 -123.892 0.
362.725 300.368 0.
229.235 -252.398 0.
629.047 683.831 0.
678.82 802.783 0.
659.464 577.137 0.
613.759 474.324 0.
538.641 303.579 0.
383.539 189.415 0.
436.058 312.145 0.
407.439 590.717 0.
234.749 188.018 0.
520.781 856.013 0.
791.45 944.116 0.
892.662 1181.4 0.
624.115 555.78 0.
734.025 -174.46 0.
970.086 380.583 0.
1211.99 949.155 0.
310.726 -35.1037 0.
706.206 884.663 0.
656.181 -22.6199 0.
935.754 41.7125 0.
1654.17 1721.22 0.
1016.49 718.454 0.
1240.63 1245.7 0.
876.046 399.951 0.
601.503 -742.17 0.
1298.32 882.227 0.
1242.28 749.874 0.
323.257 -196.534 0.
424.72 40.0833 0.
673.556 619.989 0.
1263.18 10.4815 0.
1075.93 -427.84 0.
435.236 -126.641 0.
940.818 1058.56 0.
816.484 773.407 0.
872.04 211.627 0.
672.908 -254.554 0.
677.43 -245.095 0.
609.831 -78.6429 0.
442.846 -466.611 0.
797.821 363.069 0.
1267.61 254.427 0.
1347.16 439.945 0.
-2364.48 -1081.46 0.
1736.23 796.684 0.
1293.68 -235.248 0.
148.235 -613.116 0.
408.179 -6.37521 0.
572.757 377.709 0.
793.242 863.315 0.
827.833 946.18 0.
352.029 -161.537 0.
971.029 132.335 0.
735.549 -418.507 0.
1129.81 500.073 0.
593.541 -492.741 0.
919.339 262.132 0.
996.796 401.36 0.
905.068 192.74 0.
1221.68 937.059 0.
1016.98 904.773 0.
1088.71 1076.77 0.
559.441 -153.409 0.
861.435 -469.842 0.
1048 -29.5382 0.
1256.28 461.77 0.
872.02 -545.385 0.
624.191 -1127.17 0.
682.706 216.419 0.
463.931 196.034 0.
610.291 536.224 0.
984.483 1068.15 0.
274.958 -591.134 0.
719.813 442.939 0.
381.796 -276.999 0.
702.639 471.039 0.
1152.01 1518.88 0.
285.795 245.42 0.
383.172 471.436 0.
273.656 215.595 0.
1169.42 1149.97 0.
753.143 178.93 0.
210.044 -811.312 0.
529.274 -63.3717 0.
721.574 388.146 0.
-315.583 -954.784 0.
139.813 108.837 0.
143.767 119.126 0.
-491.87 -670.821 0.
-665.919 -1075.77 0.
-218.277 -31.2476 0.
340.561 245.141 0.
360.989 293.561 0.
-153.774 -651.923 0.
-183.215 -697.136 0.
-235.578 -821.637 0.
-252.72 -906.673 0.
-235.107 -870.05 0.
-217.493 -833.426 0.
-29.7657 -729.498 0.
-20.7903 -706.494 0.
-11.8152 -683.49 0.
288.553 -652.041 0.
201.211 -856.207 0.
113.868 -1060.37 0.
-259.685 -1107.21 0.
-172.947 -906.474 0.
-67.9754 -713.009 0.
-53.2102 -683.023 0.
-38.4451 -653.037 0.
129.253 -591.251 0.
77.4525 -711.329 0.
25.6516 -831.407 0.
558.307 -688.693 0.
518.222 -782.738 0.
478.136 -876.784 0.
-69.0744 -1154.6 0.
-86.3311 -1194.7 0.
-281.557 -1311.27 0.
426.451 -911.215 0.
482.794 -781.818 0.
247.038 -850.041 0.
105.288 -1180.4 0.
-36.4629 -1510.76 0.
213.424 -1477.42 0.
307.672 -1258.18 0.
401.921 -1038.94 0.
24.4041 -1195.98 0.
-21.0507 -1302.94 0.
-66.5055 -1409.9 0.
534.513 -1054.78 0.
598.263 -908.046 0.
168.035 -971.435 0.
250.394 -781.488 0.
332.754 -591.539 0.
689.467 -391.688 0.
596.867 -611.716 0.
504.266 -831.744 0.
222.336 -943.708 0.
307.305 -744.903 0.
392.274 -546.099 0.
864.064 -406.114 0.
797.694 -563.56 0.
-236.343 -1136.73 0.
894.562 -678.056 0.
880.555 -710.225 0.
190.941 -996.462 0.
253.966 -850.706 0.
316.991 -704.949 0.
179.55 -665.421 0.
220.142 -571.531 0.
260.733 -477.641 0.
655.321 -462.779 0.
514.877 -788.448 0.
374.433 -1114.12 0.
411.691 -1047.04 0.
459.16 -942.074 0.
312.477 -947.015 0.
236.087 -1118.57 0.
159.696 -1290.13 0.
22.5431 -1403.49 0.
64.5534 -1301.74 0.
106.563 -1199.98 0.
668.454 -854.638 0.
735.221 -699.872 0.
801.988 -545.105 0.
908.73 -485.095 0.
905.309 -498.043 0.
1057.09 -441.535 0.
-60.8678 -835.689 0.
-16.1769 -731.906 0.
326.624 -554.556 0.
254.009 -729.515 0.
181.393 -904.475 0.
-40.7741 -1030.81 0.
11.8398 -908.425 0.
64.4537 -786.045 0.
-265.021 -944.519 0.
-296.972 -1019.2 0.
-328.923 -1093.88 0.
458.446 -754.464 0.
462.804 -746.066 0.
115.238 -866.243 0.
211.726 -639.06 0.
308.215 -411.878 0.
-291.733 -560.353 0.
-305.527 -590.889 0.
-319.321 -621.424 0.
-192.348 -647.284 0.
-253.48 -789.227 0.
-314.613 -931.17 0.
-121.967 -493.282 0.
119.918 71.7164 0.
705.667 -256.358 0.
6.18486 -586.433 0.
-46.0061 -710.802 0.
-351.055 -916.052 0.
-333.081 -879.842 0.
-315.107 -843.632 0.
-81.6444 -720.904 0.
-72.189 -698.001 0.
-62.7337 -675.098 0.
498.437 -530.766 0.
411.797 -735.679 0.
325.156 -940.592 0.
-352.597 -1114.69 0.
-265.522 -914.555 0.
57.5262 -626.95 0.
71.7037 -596.208 0.
85.8811 -565.467 0.
142.054 -554.63 0.
90.2961 -674.519 0.
38.5382 -794.408 0.
628.852 -629.183 0.
588.676 -723.424 0.
548.499 -817.665 0.
71.4143 -1063.3 0.
53.4512 -1102.87 0.
826.124 -803.913 0.
317.398 -928.897 0.
374.132 -799.78 0.
148.935 -860.066 0.
7.82966 -1190.89 0.
-133.277 -1521.72 0.
138.415 -1476.96 0.
233.149 -1257.96 0.
327.883 -1038.95 0.
200.949 -1087.04 0.
155.978 -1194.28 0.
111.007 -1301.52 0.
215.319 -1159.65 0.
279 -1012.65 0.
306.53 -880.451 0.
388.48 -690.128 0.
470.43 -499.804 0.
801.035 -313.308 0.
708.567 -533.201 0.
616.099 -753.095 0.
218.074 -915.712 0.
303.565 -717.215 0.
389.058 -518.719 0.
736.874 -430.12 0.
670.436 -587.268 0.
-1189.57 -1513.16 0.
649.981 -751.762 0.
636.442 -784.59 0.
461.308 -848.667 0.
524.299 -703.627 0.
587.29 -558.587 0.
251.89 -602.575 0.
292.062 -508.777 0.
332.233 -414.979 0.
596.032 -458.049 0.
455.479 -783.791 0.
314.926 -1109.53 0.
497.398 -978.753 0.
545.262 -873.524 0.
199.942 -962.173 0.
124.292 -1133.93 0.
48.6427 -1305.68 0.
31.0562 -1369.73 0.
73.2824 -1267.96 0.
115.508 -1166.18 0.
653.299 -828.491 0.
720.72 -674.328 0.
788.141 -520.163 0.
941.168 -441.888 0.
937.959 -455.299 0.
633.726 -590.211 0.
-146.34 -839.675 0.
-101.824 -735.997 0.
386.909 -496.777 0.
313.931 -671.68 0.
240.953 -846.584 0.
-148.886 -1046.31 0.
-96.1368 -924.35 0.
-43.3873 -802.389 0.
-300.725 -929.214 0.
-332.212 -1004.5 0.
-363.7 -1079.79 0.
603.108 -661.848 0.
607.343 -653.283 0.
41.0936 -865.502 0.
138.084 -638.497 0.
235.075 -411.493 0.
-452.676 -598.231 0.
-466.63 -628.539 0.
-480.585 -658.846 0.
176.88 -458.482 0.
115.509 -600.775 0.
54.1377 -743.069 0.
-282.932 -529.772 0.
-41.3001 34.164 0.
1043.18 257.592 0.
251.814 -92.0339 0.
298.351 18.3336 0.
33.0458 -64.2712 0.
-82.0041 -327.613 0.
-197.054 -590.953 0.
-62.0402 -640.749 0.
-45.5967 -600.496 0.
-29.1531 -560.243 0.
584.096 -291.491 0.
578.792 -303.164 0.
573.488 -314.837 0.
-11.2089 -589.394 0.
-24.1735 -619.885 0.
39.4299 -621.299 0.
30.1183 -641.824 0.
20.8072 -662.349 0.
119.274 -649.4 0.
83.7135 -730.756 0.
48.1526 -812.112 0.
623.042 -484.343 0.
734.421 -225.261 0.
845.799 33.8218 0.
411.407 -270.901 0.
298.754 -533.862 0.
1175.14 -372.716 0.
403.487 -777.74 0.
358.232 -878.97 0.
9.81322 -1030.41 0.
174.469 -643.057 0.
339.123 -255.704 0.
664.871 -101.981 0.
461.408 -571.002 0.
257.946 -1040.02 0.
247.605 -1053.7 0.
349.913 -813.368 0.
452.22 -573.035 0.
422.314 -562.652 0.
419.018 -567.107 0.
509.784 -529.58 0.
500.537 -552.753 0.
491.289 -575.927 0.
650.221 -546.933 0.
603.676 -654.232 0.
557.129 -761.53 0.
187.827 -976.935 0.
174.757 -1003.8 0.
161.688 -1030.66 0.
599.545 -643.985 0.
739.476 -316.01 0.
1490.88 271.327 0.
832.658 -90.6373 0.
790.734 -188.368 0.
695.552 -337.835 0.
579.455 -607.743 0.
463.357 -877.65 0.
199.572 -1079.04 0.
241.046 -983.935 0.
282.52 -888.828 0.
339.768 -918.162 0.
275.932 -1065.35 0.
212.096 -1212.54 0.
564.812 -831.698 0.
705.583 -500.477 0.
387.647 -407.894 0.
346.19 -505.063 0.
304.732 -602.231 0.
350.688 -598.612 0.
399.355 -485.905 0.
448.022 -373.199 0.
723.906 -368.721 0.
580.101 -699.077 0.
436.296 -1029.43 0.
804.931 -658.979 0.
983.363 -244.574 0.
1143.56 154.157 0.
14.2338 -598.122 0.
-126.978 -927.283 0.
226.368 -935.299 0.
309.746 -734.973 0.
393.124 -534.649 0.
-0.565871 -621.149 0.
-4.88048 -630.192 0.
-9.1953 -639.234 0.
-139.297 -660.01 0.
-110.087 -591.81 0.
-80.8781 -523.611 0.
773.561 -197.028 0.
750.659 -249.471 0.
134.999 -537.077 0.
194.649 -397.64 0.
254.299 -258.203 0.
-399.191 -472.737 0.
-418.688 -518.59 0.
-438.185 -564.442 0.
295.222 -180.1 0.
371.61 -4.08794 0.
447.999 171.925 0.
-151.708 -183.408 0.
-225.989 -358.534 0.
522.035 66.1719 0.
173.399 -98.2166 0.
219.194 13.1998 0.
186.881 35.2909 0.
72.2024 -228.181 0.
-42.4766 -491.652 0.
-21.0567 -593.427 0.
-4.85481 -553.132 0.
11.3472 -512.837 0.
369.64 -351.129 0.
364.681 -363.172 0.
359.721 -375.214 0.
396.131 -384.833 0.
383.218 -415.633 0.
-103.127 -648.424 0.
-112.136 -668.81 0.
-121.145 -689.195 0.
176.176 -594.691 0.
140.586 -675.609 0.
104.996 -756.527 0.
415.007 -542.305 0.
526.828 -283.656 0.
638.649 -25.006 0.
318.344 -276.806 0.
205.678 -539.985 0.
230.261 -744.604 0.
590.189 -667.619 0.
544.976 -769.044 0.
-27.7446 -1013.08 0.
137.133 -626.123 0.
302.01 -239.168 0.
615.716 -91.3964 0.
412.67 -560.777 0.
209.623 -1030.16 0.
187.976 -1047.4 0.
290.308 -807.369 0.
392.639 -567.335 0.
646.203 -435.893 0.
643.846 -440.642 0.
537.103 -484.047 0.
528.397 -507.881 0.
519.691 -531.715 0.
445.984 -605.201 0.
400.073 -713.191 0.
354.16 -821.182 0.
193.262 -941.692 0.
181.029 -969.454 0.
168.796 -997.216 0.
626.105 -600.558 0.
766.662 -273.418 0.
856.627 31.8177 0.
881.566 -36.5886 0.
839.197 -134.297 0.
487.971 -396.189 0.
371.125 -665.778 0.
254.279 -935.366 0.
522.493 -909.93 0.
563.777 -814.874 0.
605.06 -719.818 0.
292.247 -906.755 0.
228.686 -1053.86 0.
165.125 -1200.97 0.
525.306 -817.346 0.
666.491 -486.288 0.
405.276 -369.797 0.
363.557 -466.641 0.
321.838 -563.485 0.
345.167 -571.694 0.
393.387 -458.579 0.
441.608 -345.464 0.
454.538 -451.932 0.
310.309 -782.169 0.
166.081 -1112.4 0.
711.467 -668.267 0.
889.252 -253.302 0.
1006.83 128.678 0.
269.589 -456.162 0.
128.615 -785.36 0.
262.73 -888.787 0.
346.914 -689.4 0.
431.098 -490.015 0.
44.2927 -569.684 0.
40.1316 -579.134 0.
35.9702 -588.583 0.
25.3018 -557.893 0.
54.9231 -490.123 0.
84.5439 -422.352 0.
602.17 -238.063 0.
579.459 -290.484 0.
131.612 -507.694 0.
190.934 -367.256 0.
250.256 -226.817 0.
-214.74 -363.794 0.
-234.628 -409.483 0.
-254.516 -455.172 0.
-27.6756 -286.776 0.
48.5404 -111.116 0.
124.756 64.5451 0.
-9.47793 -91.0374 0.
-83.952 -267.295 0.
-35.7761 -209.563 0.
642.242 1193.58 0.
291.148 371.292 0.
222.54 -146.753 0.
-157.434 -1031.97 0.
663.381 884.426 0.
769.646 1216.5 0.
459.909 486.984 0.
-380.553 -1480.38 0.
151.972 -418.65 0.
367.045 81.6642 0.
376.291 101.256 0.
1096.44 509.864 0.
712.906 -385.146 0.
109.088 152.803 0.
515.986 1101.83 0.
9.08667 -81.6114 0.
384.211 -178.292 0.
559.985 232.354 0.
506.751 108.528 0.
447.069 -39.4694 0.
637.188 401.809 0.
439.768 -61.2436 0.
278.534 -163.953 0.
329.766 -48.5508 0.
5.5376 -312.342 0.
923.364 -209.697 0.
1466.14 1056.69 0.
496.081 316.679 0.
148.732 -491.55 0.
173.136 -431.85 0.
489.807 -264.684 0.
424.094 -418.534 0.
703.974 234.1 0.
600.558 57.4215 0.
324.286 -587.117 0.
865.702 676.135 0.
1310.59 722.697 0.
971.305 -66.4358 0.
691.583 -154.464 0.
648.067 -254.075 0.
634.057 -284.586 0.
460.901 -178.044 0.
697.304 376.401 0.
632.339 228.072 0.
489.304 -230.044 0.
416.672 -403.209 0.
416.118 -407.899 0.
1050.62 382.985 0.
1419.85 1243.8 0.
85.7732 183.006 0.
1086.33 370.8 0.
983.277 132.836 0.
598.092 283.343 0.
496.635 51.0487 0.
837.143 850.228 0.
1297.17 312.691 0.
1056.18 -246.967 0.
894.166 -622.486 0.
43.3748 -1362.43 0.
622.679 -7.83171 0.
1120.38 1156.15 0.
1087.38 589.746 0.
806.053 -60.624 0.
533.809 -85.0293 0.
313.214 -592.684 0.
427.301 -319.099 0.
749.969 412.318 0.
599.954 63.2145 0.
334.365 -555.745 0.
248.832 -380.831 0.
360.362 -118.903 0.
241.745 -394.737 0.
1446.15 1253.75 0.
1040.11 310.915 0.
654.09 422.833 0.
784.029 286.019 0.
195.661 -1081.79 0.
777.255 275.027 0.
677.348 45.4535 0.
845.395 441.189 0.
271.847 -89.3196 0.
493.692 423.401 0.
247.144 -156.295 0.
335.81 -112.626 0.
380.625 -6.62902 0.
309.515 -170.908 0.
953.972 934.956 0.
734.739 422.017 0.
496.356 391.37 0.
484.162 364.577 0.
472.281 337.573 0.
348.843 636.564 0.
193.65 276.993 0.
105.983 74.435 0.
-164.5 29.2329 0.
-421.088 -570.115 0.
-336.732 -371.613 0.
-166.716 -696.962 0.
-118.854 -584.585 0.
166.158 -73.54 0.
53.9087 -313.074 0.
-102.855 -680.807 0.
-9.75855 -861.934 0.
61.7549 -693.001 0.
133.269 -524.068 0.
17.8634 -516.168 0.
-14.4011 -597.391 0.
-46.6657 -678.613 0.
0.353611 -676.415 0.
15.4847 -642.3 0.
30.6157 -608.184 0.
529.895 -462.366 0.
477.765 -581.188 0.
-153.151 -944.269 0.
-147.821 -932.564 0.
-142.49 -920.86 0.
59.4865 -813.472 0.
76.9622 -773.218 0.
94.4383 -732.964 0.
179.498 -725.049 0.
130.857 -838.381 0.
82.2172 -951.712 0.
-129.214 -1060.86 0.
-122.858 -1048.29 0.
293.826 -858.799 0.
572.954 -647.689 0.
621.397 -534.865 0.
256.159 -618.349 0.
259.254 -610.956 0.
262.348 -603.563 0.
281.881 -568.856 0.
312.931 -499.287 0.
343.982 -429.718 0.
374.586 -507.658 0.
277.6 -731.404 0.
180.614 -955.15 0.
699.809 -627.558 0.
774.496 -450.181 0.
416.465 -486.572 0.
371.251 -589.999 0.
326.037 -693.427 0.
373.659 -666.273 0.
471.687 -436.78 0.
569.716 -207.287 0.
469.412 -259.489 0.
386.554 -457.794 0.
303.697 -656.101 0.
519.436 -559.306 0.
545.641 -495.679 0.
652.183 -397.472 0.
815.173 -326.175 0.
814.505 -325.61 0.
415.334 -502.525 0.
400.915 -533.621 0.
386.496 -564.718 0.
713.521 -454.721 0.
692.489 -501.761 0.
671.456 -548.802 0.
333.603 -746.813 0.
301.346 -819.613 0.
269.088 -892.413 0.
523.581 -827.072 0.
500.904 -880.806 0.
219.597 -1011.37 0.
338.83 -730.22 0.
458.063 -449.071 0.
364.581 -397.826 0.
277.405 -599.333 0.
190.229 -800.839 0.
48.0722 -864.524 0.
109.041 -721.815 0.
170.01 -579.106 0.
612.174 -515.046 0.
513.559 -744.751 0.
679.525 -857.354 0.
60.2484 -954.466 0.
146.167 -749.292 0.
189.881 -616.974 0.
154.661 -696.529 0.
119.443 -776.084 0.
83.7403 -778.542 0.
140.114 -648.575 0.
196.487 -518.608 0.
298.37 -466.574 0.
280.143 -511.324 0.
261.916 -556.073 0.
287.98 -422.866 0.
362.963 -250.395 0.
138.945 -247.635 0.
37.7556 -484.669 0.
-63.434 -721.703 0.
-61.2063 -773.606 0.
40.9832 -536.884 0.
143.173 -300.161 0.
-316.172 -392.997 0.
-290.144 -331.298 0.
-264.117 -269.598 0.
83.2587 -375.623 0.
-96.4126 -793.596 0.
357.659 36.0597 0.
139.51 -245.276 0.
-17.4334 -612.721 0.
99.7181 -783.223 0.
171.095 -613.97 0.
242.472 -444.717 0.
22.4284 -482.271 0.
-10.1498 -563.542 0.
-42.728 -644.813 0.
-33.7996 -661.12 0.
-19.0363 -626.658 0.
-4.27295 -592.196 0.
358.28 -504.835 0.
306.309 -623.73 0.
115.133 -799.263 0.
119.894 -786.881 0.
124.656 -774.499 0.
15.0694 -801.503 0.
32.2616 -761.041 0.
49.4542 -720.578 0.
228.332 -672.716 0.
179.71 -786.157 0.
131.088 -899.598 0.
-142.235 -1034.88 0.
-136.21 -1022.24 0.
545.375 -718.997 0.
388.907 -694.9 0.
437.713 -582.329 0.
472.824 -494.713 0.
475.119 -486.366 0.
477.413 -478.02 0.
203.568 -571.845 0.
234.48 -502.185 0.
265.392 -432.525 0.
413.085 -459.684 0.
316.542 -684.046 0.
219.998 -908.408 0.
676.173 -605.182 0.
750.702 -427.369 0.
268.644 -519.901 0.
223.54 -623.501 0.
178.435 -727.102 0.
543.654 -563.645 0.
642.353 -334.642 0.
741.052 -105.639 0.
473.925 -224.821 0.
391.264 -423.584 0.
308.602 -622.347 0.
379.775 -586.723 0.
406.346 -523.393 0.
-156.488 -711.584 0.
867.075 -271.34 0.
865.743 -270.341 0.
622.56 -384.233 0.
607.867 -415.518 0.
593.173 -446.803 0.
418.49 -549.318 0.
397.371 -596.477 0.
376.252 -643.635 0.
381.765 -694.692 0.
349.629 -767.298 0.
317.492 -839.905 0.
593.55 -766.602 0.
571.051 -820.55 0.
343.269 -925.582 0.
463.235 -644.804 0.
583.202 -364.026 0.
332.935 -379.296 0.
246.201 -581.04 0.
159.466 -782.783 0.
74.2001 -822.967 0.
134.565 -679.71 0.
194.929 -536.452 0.
541.941 -513.224 0.
443.892 -743.291 0.
1045.19 -668.595 0.
-156.854 -1016.28 0.
-70.3653 -811.917 0.
-45.6088 -684.108 0.
-80.576 -764.065 0.
-115.542 -844.021 0.
232.214 -685.205 0.
288.14 -554.78 0.
344.067 -424.355 0.
459.082 -364.669 0.
440.987 -409.584 0.
422.893 -454.5 0.
204.283 -426.585 0.
279.396 -253.937 0.
50.1856 -254.139 0.
-51.0134 -491.228 0.
-152.213 -728.317 0.
197.307 -631.319 0.
299.216 -394.536 0.
401.125 -157.752 0.
-263.997 -339.59 0.
-238.055 -278.231 0.
-212.113 -216.873 0.
236.006 -278.701 0.
56.096 -696.82 0.
86.4969 -329.418 0.
194.46 -217.606 0.
265.462 -49.0583 0.
441.367 124.097 0.
380.736 -19.7408 0.
320.105 -163.579 0.
122.474 -340.728 0.
104.402 -380.7 0.
86.3289 -420.67 0.
87.0165 -420.928 0.
89.4227 -415.674 0.
91.8296 -410.419 0.
317.763 -368.57 0.
289.878 -432.975 0.
336.147 -453.702 0.
342.582 -437.371 0.
349.017 -421.041 0.
106.333 -565.221 0.
17.6762 -770.374 0.
-70.9802 -975.526 0.
62.4898 -908.099 0.
148.037 -707.624 0.
233.584 -507.149 0.
150.485 -444.212 0.
194.138 -341.748 0.
786.98 -3.83856 0.
558.298 -49.2614 0.
582.81 6.63448 0.
683.772 27.418 0.
568.462 -246.444 0.
453.15 -520.306 0.
60.6796 -802.624 0.
62.1625 -795.894 0.
63.6455 -789.163 0.
416.417 -588.367 0.
461.981 -481.556 0.
507.546 -374.744 0.
743.888 -332.444 0.
699.909 -436.282 0.
176.222 -733.584 0.
202.652 -671.088 0.
229.082 -608.591 0.
581.857 -448.714 0.
547.354 -529.221 0.
512.851 -609.727 0.
383.823 -528.093 0.
543.813 -153.773 0.
703.804 220.546 0.
546.723 -63.5181 0.
354.228 -512.923 0.
11.8075 -1027.04 0.
857.982 -598.808 0.
894.735 -517.786 0.
383.341 -658.297 0.
456.579 -493.456 0.
529.819 -328.615 0.
412.111 -348.014 0.
359.414 -472.805 0.
306.717 -597.597 0.
427.786 -497.811 0.
488.99 -356.357 0.
550.194 -214.903 0.
823.89 -226.081 0.
737.852 -423.535 0.
514.825 -655.124 0.
534.214 -609.595 0.
553.602 -564.065 0.
202.832 -690.926 0.
193.538 -714.201 0.
184.244 -737.475 0.
184.784 -673.189 0.
254.903 -514.216 0.
325.022 -355.242 0.
533.742 -266.213 0.
517.577 -304.405 0.
-105.2 -596.508 0.
-77.5182 -596.021 0.
-84.7566 -610.879 0.
-68.2247 -601.902 0.
-36.773 -529.068 0.
-5.32065 -456.233 0.
458.715 -244.581 0.
427.036 -318.528 0.
395.357 -392.476 0.
415.987 -461.952 0.
374.29 -555.896 0.
332.592 -649.84 0.
103.436 -596.989 0.
191.335 -392.295 0.
-8.98472 -326.516 0.
10.7963 -280.231 0.
30.5775 -233.946 0.
479.982 -87.3106 0.
377.989 -324.8 0.
275.994 -562.288 0.
-386.274 -888.307 0.
-351.461 -809.848 0.
-316.646 -731.39 0.
89.5312 -505.168 0.
120.033 -433.344 0.
-267.068 -452.989 0.
225.641 -173.658 0.
297.558 -5.82064 0.
262.617 79.6929 0.
202.267 -64.1576 0.
141.916 -208.008 0.
242.662 -254.708 0.
225.266 -295.545 0.
207.87 -336.381 0.
186.823 -348.535 0.
188.754 -343.128 0.
190.686 -337.721 0.
287.397 -348.943 0.
259.55 -413.212 0.
287.621 -443.922 0.
293.277 -426.921 0.
298.933 -409.921 0.
151.664 -516.492 0.
62.344 -720.948 0.
-26.975 -925.405 0.
-108.94 -950.664 0.
-23.3568 -750.522 0.
62.2266 -550.38 0.
290.265 -352.203 0.
333.93 -250.066 0.
488.646 -99.7077 0.
518.858 -34.0632 0.
543.417 21.8472 0.
480.409 -28.1428 0.
365.433 -302.221 0.
250.456 -576.3 0.
67.6857 -769.062 0.
69.4575 -763.104 0.
71.2292 -757.146 0.
546.202 -499.826 0.
592.172 -393.556 0.
638.142 -287.286 0.
679.822 -328.278 0.
636.162 -432.149 0.
352.929 -625.947 0.
380.022 -563.837 0.
407.116 -501.728 0.
415.792 -488.926 0.
380.937 -569.436 0.
346.083 -649.947 0.
517.42 -439.17 0.
678.163 -65.7025 0.
838.906 307.765 0.
577.3 -18.0349 0.
384.847 -467.197 0.
562.643 -758.353 0.
1158.64 -438.428 0.
1195.56 -357.269 0.
-74.9303 -823.563 0.
-2.47745 -658.018 0.
69.9769 -492.471 0.
518.807 -273.127 0.
465.699 -397.523 0.
412.591 -521.919 0.
321.908 -513.032 0.
382.397 -371.011 0.
442.885 -228.991 0.
788.081 -210.777 0.
702.016 -408.567 0.
558.128 -605.882 0.
576.917 -559.759 0.
595.705 -513.636 0.
266.103 -633.783 0.
256.198 -656.369 0.
246.292 -678.954 0.
305.318 -590.655 0.
375.402 -431.68 0.
445.487 -272.705 0.
358.693 -309.908 0.
342.165 -347.781 0.
19.6775 -513.048 0.
-72.396 -563.543 0.
-79.837 -578.243 0.
44.7528 -523.192 0.
75.692 -449.712 0.
106.632 -376.233 0.
444.971 -220.37 0.
413.447 -294.29 0.
381.922 -368.211 0.
288.332 -483.027 0.
246.53 -577.175 0.
204.727 -671.323 0.
151.474 -547.08 0.
238.631 -341.954 0.
45.8171 -272.144 0.
65.7294 -225.973 0.
85.6421 -179.802 0.
372.811 -101.509 0.
270.36 -338.451 0.
167.908 -575.392 0.
-138.392 -751.873 0.
-103.356 -673.618 0.
-68.3187 -595.363 0.
-127.054 -566.819 0.
-96.1251 -495.647 0.
-383.165 -353.874 0.
401.961 238.47 0.
-186.638 -1133.46 0.
-110.042 -432.414 0.
433.01 836.947 0.
329.211 597.056 0.
1257.94 1914.74 0.
622.369 432.403 0.
390.411 -107.361 0.
531.886 314.139 0.
511.007 265.185 0.
369.772 -64.6073 0.
366.932 -83.8778 0.
307.341 -223.474 0.
982.905 1314.72 0.
747.576 765.376 0.
300.056 -278.019 0.
236.469 -374.727 0.
622.336 527.613 0.
581.104 432.365 0.
48.5103 -230.393 0.
275.073 294.044 0.
376.022 525.129 0.
250.918 -684.031 0.
204.436 -785.979 0.
1120.74 -249.122 0.
185.506 -704.558 0.
354.256 -309.728 0.
194.364 -289.012 0.
332.984 30.1947 0.
60.6436 -608.722 0.
270.275 -276.917 0.
458.536 160.99 0.
571.058 422.389 0.
1072.71 507.573 0.
1049.51 454.189 0.
763.691 -212.218 0.
855.703 234.497 0.
869.088 260.682 0.
804.824 119.69 0.
395.378 -838.176 0.
697.105 -136.732 0.
613.689 314.617 0.
594.164 270.143 0.
286.933 -445.539 0.
857.994 130.148 0.
832.528 73.988 0.
904.533 245.318 0.
918.912 738.51 0.
1141.33 1256.08 0.
-1855.4 -368.549 0.
1967.88 929.789 0.
1741.06 397.374 0.
-505.431 -927.897 0.
-242.419 -316.104 0.
26.8445 310.096 0.
752.795 102.245 0.
496.647 -497.011 0.
568.057 -331.806 0.
584.979 326.016 0.
586.855 331.378 0.
456.017 27.0105 0.
831.53 -16.6176 0.
959.545 288.728 0.
660.257 -413.23 0.
616.941 -511.406 0.
978.556 335.568 0.
359.631 -500.106 0.
518.054 -128.453 0.
819.005 576.065 0.
878.613 537.846 0.
935.741 673.336 0.
476.007 -398.171 0.
296.144 -104.957 0.
559.396 512.305 0.
16.8885 -28.3502 0.
445.39 664.69 0.
-121.365 -658.354 0.
194.485 -348.139 0.
321.202 -55.0161 0.
487.725 331.32 0.
490.892 -64.2276 0.
356.565 -370.077 0.
566.082 127.45 0.
526.461 343.05 0.
183.823 -457.887 0.
182.122 -462.932 0.
765.256 829.142 0.
924.005 1203.49 0.
-147.142 -794.607 0.
385.837 449.499 0.
240.943 110.563 0.
311.926 -0.966969 0.
390.687 182.404 0.
268.504 -103.638 0.
82.8175 -678.085 0.
573.696 470.64 0.
400.131 68.5554 0.
479.359 1269.44 0.
-68.5099 -14.1363 0.
-334.649 -575.25 0.
-30.0778 -385.514 0.
-29.7786 -382.657 0.
-23.7167 -394.477 0.
-29.5347 -407.97 0.
-35.3536 -421.463 0.
496.158 -198.903 0.
483.992 -226.183 0.
471.825 -253.463 0.
76.4922 -473.054 0.
49.0865 -539.302 0.
21.6807 -605.551 0.
256.253 -436.413 0.
303.566 -329.215 0.
208.397 -309.427 0.
115.512 -531.274 0.
22.6274 -753.122 0.
-125.474 -881.743 0.
-29.7584 -659.538 0.
65.9571 -437.333 0.
149.84 -343.927 0.
120.634 -414.009 0.
91.4282 -484.091 0.
245.263 -506.451 0.
195.977 -619.699 0.
614.921 -532.463 0.
226.399 -837.517 0.
156.033 -1000.27 0.
-177.089 -1209.44 0.
-106.92 -1043.72 0.
-36.7517 -877.987 0.
275.557 -658.311 0.
301.111 -600.965 0.
326.665 -543.619 0.
543.755 -478.928 0.
500.136 -577.706 0.
456.517 -676.483 0.
513.798 -562.761 0.
576.368 -418.662 0.
284.153 -434.999 0.
302.624 -392.73 0.
321.096 -350.461 0.
391.589 -345.433 0.
315.214 -525.47 0.
238.838 -705.508 0.
481.887 -722.938 0.
426.263 -850.072 0.
370.638 -977.207 0.
399.683 -792.88 0.
534.229 -480.973 0.
-2568.38 -1558.33 0.
1134.6 -35.896 0.
1100.53 -114.421 0.
-30.1677 -623.685 0.
22.5111 -498.671 0.
75.1877 -373.658 0.
433.517 -201.12 0.
393.523 -294.994 0.
353.529 -388.869 0.
314.498 -519.604 0.
247.41 -677.794 0.
180.322 -835.984 0.
464.231 -558.954 0.
559.532 -333.927 0.
627.306 -161.856 0.
537.692 -369.957 0.
448.079 -578.057 0.
307.374 -737.234 0.
324.072 -696.987 0.
340.77 -656.741 0.
428.957 -588.651 0.
438.288 -561.219 0.
447.62 -533.788 0.
265.45 -671.87 0.
218.94 -777.383 0.
282.11 -832.037 0.
-377.885 -922.757 0.
-275.709 -685.445 0.
141.893 -362.488 0.
137.489 -376.408 0.
133.086 -390.328 0.
240.052 -425.973 0.
159.833 -610.157 0.
79.6146 -794.341 0.
72.2654 -729.358 0.
159.772 -529.243 0.
247.279 -329.127 0.
240.918 -473.214 0.
151.185 -681.263 0.
-326.697 -1007.65 0.
-219.189 -755.049 0.
-111.68 -502.444 0.
166.677 -263.606 0.
149.888 -304.677 0.
133.099 -345.749 0.
251.511 -324.805 0.
236.385 -359.213 0.
221.259 -393.622 0.
-166.422 -567.918 0.
-167.511 -571.616 0.
516.059 -183.953 0.
-215.325 -435.624 0.
-215.046 -432.786 0.
80.0731 -317.881 0.
75.1959 -332.221 0.
70.3177 -346.559 0.
688.872 -83.1506 0.
677.728 -111.049 0.
666.584 -138.948 0.
-51.5508 -495.556 0.
-78.8589 -561.862 0.
-106.167 -628.168 0.
325.978 -373.818 0.
373.482 -266.975 0.
130.397 -311.803 0.
37.0326 -533.352 0.
-56.3318 -754.902 0.
-281.564 -917.552 0.
-186.194 -695.226 0.
-90.8249 -472.9 0.
347.723 -227.768 0.
318.789 -298.096 0.
289.855 -368.424 0.
164.798 -510.281 0.
116.045 -623.753 0.
-25.1013 -777.126 0.
360.398 -747.686 0.
290.856 -911.142 0.
-134.398 -1159.76 0.
-64.1758 -994.082 0.
6.04637 -828.399 0.
493.92 -534.136 0.
519.101 -476.21 0.
544.282 -418.284 0.
434.742 -495.305 0.
391.377 -594.92 0.
348.011 -694.535 0.
528.19 -524.829 0.
590.82 -380.993 0.
-48.4005 -545.573 0.
-29.3655 -503.999 0.
-10.3306 -462.425 0.
486.211 -273.146 0.
409.961 -453.607 0.
333.711 -634.068 0.
481.86 -691.029 0.
426.78 -818.863 0.
371.7 -946.699 0.
581.858 -683.134 0.
716.769 -371.381 0.
-220.949 -519.505 0.
637.628 -216.16 0.
604.01 -294.835 0.
404.406 -406.785 0.
457.116 -281.454 0.
509.824 -156.123 0.
219.337 -261.782 0.
179.517 -355.784 0.
139.698 -449.787 0.
442.717 -432.809 0.
375.923 -591.117 0.
309.129 -749.425 0.
314.683 -591.816 0.
410.032 -366.943 0.
469.133 -198.214 0.
379.39 -406.267 0.
289.648 -614.319 0.
386.986 -672.695 0.
403.462 -632.533 0.
419.938 -592.371 0.
485.558 -532.636 0.
494.838 -505.838 0.
504.118 -479.041 0.
538.779 -524.828 0.
491.866 -630.171 0.
870.711 -548.59 0.
-538.111 -958.515 0.
-436.333 -720.745 0.
99.3157 -352.396 0.
94.76 -365.594 0.
90.2042 -378.792 0.
141.847 -436.566 0.
62.2779 -620.815 0.
-17.2905 -805.064 0.
95.1375 -688.864 0.
182.752 -488.672 0.
270.366 -288.48 0.
301.489 -414.92 0.
212.468 -623.467 0.
-425.08 -1016.89 0.
-317.262 -764.745 0.
-209.444 -512.595 0.
144.398 -243.067 0.
127.351 -284.055 0.
110.304 -325.043 0.
291.683 -275.174 0.
276.703 -309.94 0.
261.724 -344.707 0.
22.84 -457.59 0.
20.9979 -460.507 0.
130.151 -368.562 0.
-297.751 -559.466 0.
-297.538 -559.065 0.
143.929 -341.576 0.
224.844 -149.225 0.
305.76 43.126 0.
810.159 278.375 0.
723.18 77.0503 0.
636.201 -124.274 0.
-71.0577 -425.086 0.
-25.1878 -315.028 0.
20.6815 -204.971 0.
406.027 -163.759 0.
328.72 -346.474 0.
-97.793 -648.75 0.
-36.1448 -505.944 0.
25.5033 -363.139 0.
-48.9255 -346.104 0.
-89.933 -444.549 0.
-130.94 -542.995 0.
278.777 -386.159 0.
300.162 -335.752 0.
321.548 -285.345 0.
216.6 -440.67 0.
129.534 -643.514 0.
652.753 -583.088 0.
482.835 -644.206 0.
486.886 -631.019 0.
28.672 -816.539 0.
25.6728 -823.882 0.
22.6735 -831.225 0.
484.032 -631.925 0.
492.29 -610.179 0.
500.547 -588.433 0.
370.743 -594.415 0.
407.468 -509.273 0.
444.194 -424.132 0.
533.742 -339.354 0.
555.149 -288.003 0.
-29.6178 -531.327 0.
-172.421 -860.758 0.
-315.222 -1190.19 0.
159.733 -1057.54 0.
336.876 -643.563 0.
514.019 -229.585 0.
716.071 -75.4223 0.
639.813 -251.595 0.
563.555 -427.768 0.
651.071 -350.103 0.
705.18 -224.987 0.
1444.75 194.783 0.
551.557 -98.9436 0.
597.948 9.76984 0.
768.426 102.979 0.
655.22 -164.464 0.
542.013 -431.907 0.
-70.6093 -795.839 0.
-51.1972 -751.621 0.
-31.7849 -707.402 0.
442.619 -343.23 0.
559.201 -71.8972 0.
675.784 199.436 0.
525.564 -60.958 0.
399.443 -355.962 0.
195.989 -641.743 0.
259.195 -494.592 0.
322.401 -347.441 0.
578.607 -167.022 0.
570.438 -185.775 0.
562.268 -204.528 0.
542.464 -310.224 0.
451.419 -527.195 0.
360.375 -744.167 0.
487.892 -611.894 0.
566.335 -430.824 0.
655.036 -248.918 0.
-239.33 -455.609 0.
-144.576 -237.867 0.
289.189 78.6513 0.
273.593 42.6565 0.
257.997 6.66162 0.
315.337 -12.4286 0.
287.089 -80.0725 0.
258.841 -147.716 0.
255.494 -233.367 0.
201.17 -356.262 0.
146.847 -479.157 0.
365.587 -165.321 0.
496.099 140.092 0.
95.1248 147.363 0.
-67.8558 -236.726 0.
-230.837 -620.815 0.
-34.4449 -655.193 0.
95.9353 -351.295 0.
226.315 -47.3965 0.
331.595 39.8191 0.
272.138 -99.3482 0.
212.681 -238.517 0.
162.888 -268.853 0.
174.271 -246.458 0.
517.737 -174.56 0.
-180.73 -480.169 0.
-180.629 -479.792 0.
232.683 -271.425 0.
313.947 -79.524 0.
395.21 112.377 0.
572.945 209.153 0.
486.223 7.60612 0.
399.501 -193.941 0.
-42.63 -381.783 0.
3.90729 -272.585 0.
50.4442 -163.386 0.
351.634 -154.375 0.
274.746 -337.698 0.
-199.415 -660.456 0.
-137.956 -517.442 0.
-76.4964 -374.427 0.
120.06 -241.728 0.
79.0217 -340.408 0.
37.9836 -439.089 0.
119.301 -422.262 0.
140.578 -371.728 0.
161.855 -321.194 0.
378.583 -339.114 0.
291.276 -541.458 0.
1245.01 -295.512 0.
578.968 -572.121 0.
583.255 -559.15 0.
54.5222 -773.65 0.
51.479 -781.03 0.
48.4358 -788.41 0.
381.531 -644.54 0.
389.78 -622.996 0.
398.028 -601.453 0.
454.714 -527.998 0.
491.154 -443.006 0.
527.594 -358.014 0.
376.08 -374.799 0.
397.857 -323.891 0.
348.348 -336.397 0.
205.895 -666.362 0.
63.4441 -996.326 0.
115.818 -1044.62 0.
293.282 -631.592 0.
470.745 -218.564 0.
678.213 -58.8797 0.
602.095 -235.298 0.
525.978 -411.716 0.
345.864 -449.582 0.
399.877 -324.523 0.
-2524.73 -1475 0.
712.595 1.89018 0.
758.615 110.614 0.
745.487 123.064 0.
632.044 -144.245 0.
518.601 -411.554 0.
15.4411 -726.784 0.
34.8666 -682.555 0.
54.2921 -638.326 0.
253.485 -392.343 0.
370.743 -121.301 0.
488.001 149.74 0.
676.926 35.8732 0.
551.161 -259.479 0.
176.736 -618.365 0.
240.114 -471.388 0.
303.493 -324.411 0.
469.169 -182.352 0.
460.115 -200.683 0.
451.06 -219.015 0.
428.76 -328.944 0.
337.044 -545.971 0.
245.329 -762.998 0.
235.634 -690.371 0.
313.657 -509.311 0.
424.928 -315.757 0.
151.589 -255.695 0.
246.191 -37.8229 0.
369.954 144.001 0.
354.368 107.816 0.
338.784 71.6295 0.
424.916 68.1126 0.
396.709 0.575649 0.
368.502 -66.9614 0.
179.808 -234.597 0.
126.024 -357.605 0.
72.2397 -480.612 0.
231.156 -189.957 0.
361.555 115.739 0.
280.317 257.688 0.
117.211 -126.136 0.
-45.8951 -509.96 0.
11.8649 -606.305 0.
142.208 -302.162 0.
272.551 1.98086 0.
88.2103 -33.0506 0.
29.2555 -172.576 0.
-29.6993 -312.103 0.
154.899 -242.526 0.
166.538 -220.812 0.
-240.404 562.758 0.
64.5339 -87.5267 0.
249.808 342.437 0.
435.938 68.2412 0.
344.208 -141.797 0.
521.681 275.28 0.
-102.648 -893.568 0.
543.563 617.92 0.
368.22 212.73 0.
340.524 495.324 0.
293.659 385.667 0.
4.25637 -289.771 0.
376.794 34.5888 0.
509.653 347.752 0.
-63.7826 -113.983 0.
304.007 741.4 0.
-55.3877 -99.6259 0.
352.36 8.3988 0.
267.918 -186.044 0.
460.824 265.805 0.
59.2379 -223.732 0.
56.6742 -233.423 0.
178.836 48.0626 0.
392.937 -565.975 0.
592.84 -98.436 0.
490.356 658.714 0.
1118.88 533.709 0.
1003.42 264.727 0.
260.215 -305.651 0.
447.436 128.842 0.
631.032 555.42 0.
464.733 -226.269 0.
412.411 -347.408 0.
422.712 -322.05 0.
935.909 459.569 0.
905.194 386.305 0.
510.608 -535.165 0.
716.619 748.392 0.
623.835 531.485 0.
694.533 -194.798 0.
804.34 58.2227 0.
981.71 469.034 0.
640.613 288.128 0.
591.443 171.497 0.
389.817 -300.599 0.
720.629 145.113 0.
1005.69 809.317 0.
576.558 -192.877 0.
155.208 -285.836 0.
55.4877 -522.724 0.
-744.932 -1437.93 0.
830.304 18.6889 0.
857.157 81.1052 0.
580.614 -196.958 0.
699.251 79.3475 0.
749.916 197.652 0.
475.303 220.313 0.
642.601 608.861 0.
562.088 419.253 0.
117.389 -320.813 0.
281.397 60.211 0.
610.622 826.501 0.
691.654 -192.205 0.
714.45 -141.045 0.
438.22 65.9655 0.
225.808 -431.872 0.
188.808 -520.331 0.
483.339 89.7394 0.
615.73 400.296 0.
581.279 321.831 0.
487.373 54.5777 0.
548.104 195.74 0.
547.047 193.616 0.
38.6208 -654.254 0.
162.012 -362.039 0.
233.211 -382.711 0.
1135.16 1332.4 0.
581.576 38.6689 0.
578.869 527.84 0.
598.471 568.921 0.
378.959 52.2623 0.
480.616 29.3621 0.
631.389 380.232 0.
147.105 -750.786 0.
82.4053 -285.23 0.
489.48 663.559 0.
152.943 -122.619 0.
112.438 -184.898 0.
111.9 -183.502 0.
220.931 -194.286 0.
624.333 747.537 0.
264.031 -92.7133 0.
5.76819 -692.291 0.
555.169 591.859 0.
572.222 633.583 0.
173.9 644.931 0.
-56.1614 110.577 0.
-41.2571 146.654 0.
213.746 -51.2636 0.
487.402 589.625 0.
-596.751 -408.84 0.
-90.631 -311.149 0.
-139.431 -424.227 0.
277.078 -309.13 0.
294.167 -266.907 0.
311.256 -224.684 0.
16.246 -270.398 0.
89.6439 -97.9165 0.
163.041 74.5645 0.
44.7363 21.9914 0.
0.56021 -78.3712 0.
-43.6161 -178.733 0.
415.953 -27.4155 0.
390.624 -81.3284 0.
47.4815 -288.066 0.
-20.3181 -446.984 0.
-88.118 -605.902 0.
-16.9214 -607.409 0.
69.2775 -401.232 0.
155.476 -195.055 0.
161.587 -221.411 0.
56.9201 -464.715 0.
-47.7462 -708.018 0.
267.225 -604.252 0.
281.483 -571.061 0.
-600.878 -922.189 0.
831.897 -244.943 0.
859.974 -179.351 0.
183.117 -439.96 0.
170.106 -471.886 0.
157.095 -503.812 0.
372.35 -418.847 0.
380.541 -402.831 0.
388.731 -386.814 0.
462.692 -326.539 0.
480.913 -283.748 0.
499.133 -240.959 0.
318.353 -378.65 0.
278.734 -469.163 0.
492.937 -441.684 0.
497.027 -428.657 0.
501.116 -415.631 0.
295.142 -508.559 0.
274.17 -556.579 0.
253.198 -604.599 0.
354.253 -519.739 0.
411.873 -389.713 0.
469.494 -259.687 0.
332.268 -246.405 0.
363.668 -174.145 0.
-1238.29 -803.643 0.
640.766 -173.494 0.
550.887 -386.767 0.
261.665 -621.992 0.
319.081 -487.86 0.
376.498 -353.728 0.
362.262 -261.707 0.
412.563 -143.847 0.
462.863 -25.9868 0.
227.309 -201.583 0.
138.965 -402.056 0.
50.6205 -602.528 0.
632.427 -280.683 0.
686.853 -153.501 0.
204.72 -269.873 0.
191.779 -304.329 0.
178.838 -338.785 0.
313.6 -291.351 0.
327.469 -259.384 0.
341.337 -227.416 0.
288.12 -228.28 0.
303.421 -194.65 0.
318.722 -161.02 0.
520.109 -63.2636 0.
524.099 -54.6613 0.
571.3 -29.1574 0.
-42.8382 -620.333 0.
-215.706 -1024.61 0.
-60.4887 -1173.75 0.
32.6247 -959.577 0.
125.739 -745.409 0.
332.339 -505.012 0.
398.214 -346.907 0.
464.088 -188.803 0.
42.8735 -242.174 0.
103.357 -100.427 0.
163.84 41.3207 0.
249.147 -110.255 0.
132.549 -380.109 0.
-107.158 -659.903 0.
-41.0658 -504.933 0.
25.0257 -349.964 0.
185.996 -184.287 0.
201.731 -147.64 0.
217.466 -110.992 0.
28.9238 -287.977 0.
-67.5593 -511.235 0.
-164.042 -734.492 0.
-266.684 -761.425 0.
-235.28 -682.691 0.
281.724 0.243483 0.
-149.819 -304.508 0.
-198.565 -417.618 0.
297.287 -270.126 0.
314.031 -227.859 0.
330.776 -185.592 0.
-145.169 -308.059 0.
-71.5463 -135.949 0.
2.07539 36.1597 0.
-52.8711 11.839 0.
-96.9256 -89.0444 0.
-140.98 -189.927 0.
510.672 44.2622 0.
485.715 -10.4021 0.
292.326 -149.537 0.
224.889 -308.976 0.
157.452 -468.416 0.
-128.19 -621.379 0.
-41.75 -415.512 0.
44.6897 -209.647 0.
299.146 -132.129 0.
194.919 -376.117 0.
90.692 -620.104 0.
150.533 -621.813 0.
165.73 -588.865 0.
-657.078 -914.84 0.
902.024 -182.41 0.
930.525 -116.974 0.
177.551 -410.286 0.
164.81 -442.111 0.
152.07 -473.936 0.
375.172 -386.283 0.
383.345 -370.253 0.
391.518 -354.223 0.
310.96 -361.461 0.
328.901 -318.434 0.
346.843 -275.407 0.
442.537 -292.708 0.
402.665 -383.23 0.
386.234 -456.91 0.
389.899 -443.92 0.
393.564 -430.929 0.
305.522 -472.667 0.
284.434 -520.895 0.
263.347 -569.124 0.
272.623 -523.98 0.
329.793 -393.512 0.
386.964 -263.044 0.
542.683 -125.122 0.
573.745 -52.8671 0.
-487.443 -450.425 0.
527.074 -191.382 0.
437.272 -405.105 0.
109.019 -653.327 0.
167.346 -520.178 0.
225.673 -387.029 0.
498.054 -172.562 0.
548.727 -54.8351 0.
599.401 62.8922 0.
311.352 -133.163 0.
223.64 -333.942 0.
135.928 -534.721 0.
622.347 -252.39 0.
677.048 -125.774 0.
115.24 -275.055 0.
102.449 -310.284 0.
89.6581 -345.513 0.
325.033 -254.61 0.
338.592 -222.99 0.
352.151 -191.37 0.
210.8 -229.231 0.
226.274 -195.854 0.
241.747 -162.478 0.
811.782 92.2216 0.
815.617 100.853 0.
-66.6281 -270.983 0.
-441.186 -758.938 0.
-614.009 -1163.18 0.
65.0924 -1087.44 0.
158.995 -873.846 0.
252.898 -660.252 0.
446.056 -422.428 0.
511.915 -264.141 0.
577.773 -105.854 0.
-11.1006 -234.45 0.
49.2758 -92.3369 0.
109.652 49.7765 0.
394.589 -17.1387 0.
278.407 -287.154 0.
-253.153 -690.357 0.
-186.542 -535.981 0.
-119.931 -381.605 0.
157.799 -163.703 0.
173.689 -126.833 0.
189.578 -89.964 0.
358.016 -115.475 0.
261.54 -338.718 0.
165.063 -561.96 0.
-467.3 -817.855 0.
-436.546 -738.916 0.
-552.898 -544.148 0.
-138.184 -256.878 0.
-85.6481 -135.73 0.
428.795 154.864 0.
408.221 104.626 0.
387.647 54.3882 0.
-108.155 -192.996 0.
-126.805 -233.227 0.
-145.454 -273.459 0.
-236.091 -389.237 0.
-286.93 -510.682 0.
-337.768 -632.128 0.
347.43 -315.387 0.
364.496 -274.845 0.
248.823 -286.765 0.
303.736 -158.272 0.
358.65 -29.7787 0.
94.7194 -69.3293 0.
103.516 -51.059 0.
112.313 -32.7888 0.
398.16 -4.88086 0.
300.766 -234.529 0.
203.372 -464.177 0.
209.967 -422.117 0.
264.608 -291.066 0.
593.883 -42.2689 0.
829.363 -26.8886 0.
782.874 -129.54 0.
259.097 -411.933 0.
250.919 -430.026 0.
242.742 -448.119 0.
351.957 -344.006 0.
439.993 -136.166 0.
528.028 71.6725 0.
430.069 19.2718 0.
373.502 -110.52 0.
316.934 -240.312 0.
492.014 -312.993 0.
413.393 -500.337 0.
175.176 -706.76 0.
325.767 -362.31 0.
476.36 -17.8576 0.
550.585 147.343 0.
461.541 -60.613 0.
372.496 -268.569 0.
236.301 -407.497 0.
230.107 -420.696 0.
223.913 -433.894 0.
558.193 -326.514 0.
536.793 -375.512 0.
783.988 -311.592 0.
411.795 -397.286 0.
449.791 -307.654 0.
208.517 -329.452 0.
273.134 -177.086 0.
337.751 -24.7219 0.
569.34 83.371 0.
498.641 -81.927 0.
427.942 -247.225 0.
322.914 -313.207 0.
343.65 -267.317 0.
364.387 -221.427 0.
580.877 -175.812 0.
545.859 -253.61 0.
-57.7364 -555.415 0.
-7.79652 -433.349 0.
42.1431 -311.284 0.
421.278 -100.191 0.
401.575 -146.916 0.
381.872 -193.641 0.
170.098 -274.18 0.
192.233 -219.863 0.
214.368 -165.547 0.
878.237 171.744 0.
908.706 245.727 0.
352.654 70.7392 0.
-275.723 -285.267 0.
-321.427 -390.106 0.
389.856 -179.629 0.
315.922 -345.721 0.
241.989 -511.811 0.
416.111 -433.981 0.
507.766 -220.796 0.
599.42 -7.61179 0.
35.8517 -231.201 0.
3.15081 -305.84 0.
-29.5501 -380.478 0.
289.387 -275.939 0.
274.672 -310.809 0.
-172.918 -512.625 0.
-114.363 -374.827 0.
-55.8093 -237.028 0.
159.155 -160.719 0.
26.1092 -471.657 0.
-106.937 -782.595 0.
168.969 -592.677 0.
334.433 -206.272 0.
499.896 180.132 0.
-151.73 -131.075 0.
-217.68 -289.018 0.
-392.513 -443.989 0.
-67.3475 -195.42 0.
-14.8613 -74.0158 0.
326.288 141.09 0.
305.785 90.8775 0.
285.283 40.6652 0.
46.3544 -94.3395 0.
27.6076 -134.769 0.
8.86063 -175.199 0.
-142.957 -320.272 0.
-194.444 -441.006 0.
-245.932 -561.74 0.
269.451 -317.679 0.
286.477 -276.877 0.
72.5237 -332.247 0.
127.256 -203.656 0.
181.988 -75.0644 0.
200.646 8.62385 0.
209.626 26.8658 0.
218.606 45.1078 0.
405.32 28.3584 0.
308.031 -201.437 0.
210.742 -431.233 0.
288.277 -358.367 0.
342.461 -226.583 0.
980.69 156.509 0.
461.87 -152.493 0.
415.767 -255.28 0.
491.87 -282.078 0.
483.835 -300.019 0.
475.8 -317.96 0.
278.471 -342.915 0.
366.812 -135.563 0.
455.152 71.7881 0.
507.234 84.2244 0.
450.765 -45.7579 0.
394.296 -175.74 0.
537.291 -261.322 0.
458.271 -448.666 0.
78.8156 -717.144 0.
228.997 -372.614 0.
379.18 -28.0832 0.
530.594 170.834 0.
441.268 -36.8682 0.
351.942 -244.571 0.
133.626 -421.461 0.
127.591 -434.733 0.
121.556 -448.005 0.
613.115 -270.747 0.
592.017 -320.306 0.
-599.684 -872.33 0.
502.402 -326.757 0.
540.891 -237.493 0.
289.781 -260.014 0.
355.307 -108.478 0.
420.833 43.0574 0.
370.137 29.4135 0.
299.546 -136.053 0.
228.954 -301.519 0.
500.724 -204.018 0.
521.096 -157.738 0.
541.469 -111.458 0.
459.321 -197.529 0.
424.118 -275.259 0.
-85.9314 -535.553 0.
-35.7505 -414.114 0.
14.4301 -292.676 0.
523.881 -23.6282 0.
504.207 -70.5583 0.
484.533 -117.489 0.
220.009 -221.66 0.
242.931 -167.975 0.
265.853 -114.29 0.
714.328 133.635 0.
744.828 207.539 0.
771.324 281.113 0.
49.3793 -114.233 0.
3.44545 -218.37 0.
127.236 -261.48 0.
54.1574 -427.767 0.
-18.9216 -594.055 0.
279.907 -461.228 0.
372.105 -248.293 0.
464.303 -35.3573 0.
228.093 -116.287 0.
195.338 -191.08 0.
162.583 -265.873 0.
193.746 -284.576 0.
179.067 -319.671 0.
7.82601 -404.842 0.
66.3658 -266.695 0.
124.905 -128.548 0.
218.201 -103.932 0.
85.1301 -414.503 0.
-47.9414 -725.074 0.
-74.8894 -665.701 0.
90.3181 -279.007 0.
255.525 107.688 0.
105.759 8.91245 0.
39.7817 -149.152 0.
-1182.47 -507.333 0.
-224.023 -663.007 0.
227.288 389.251 0.
481.233 714.824 0.
-165.245 -788.731 0.
80.9523 -212.11 0.
58.1666 -337.337 0.
94.9171 -251.044 0.
139.111 -148.049 0.
263.168 479.694 0.
326.724 624.739 0.
195.373 315.456 0.
434.596 238.06 0.
342.119 20.7329 0.
-194.702 -595.264 0.
319.826 607.617 0.
568.383 1190.25 0.
397.019 294.932 0.
247.704 -56.1284 0.
126.316 -340.908 0.
307.941 -190.364 0.
271.053 -277.118 0.
391.974 3.22563 0.
606.864 272.261 0.
688.588 465.465 0.
964.029 -486.124 0.
11.4424 -484.065 0.
295.426 177.63 0.
1056.11 615.665 0.
973.782 429.182 0.
800.723 31.4597 0.
231.062 -279.837 0.
302.591 -113.455 0.
311.124 -94.506 0.
498.144 -58.1679 0.
319.559 -473.503 0.
221.224 -701.447 0.
514.706 -361.533 0.
875.642 479.146 0.
332.373 80.0691 0.
337.214 94.1857 0.
438.206 332.695 0.
590.01 374.685 0.
278.645 -350.171 0.
103.668 -756.79 0.
91.3445 -291.509 0.
215.41 -3.49618 0.
366.587 347.9 0.
813.173 118.937 0.
959.848 459.469 0.
-303.048 -240.876 0.
734.104 91.1972 0.
745.589 116.573 0.
442.933 -29.3726 0.
74.3567 -886.917 0.
614.613 375.956 0.
664.475 1117.38 0.
257.159 168.649 0.
-282.471 -1088.9 0.
368.835 -815.263 0.
598.386 -278.47 0.
676.092 -96.1024 0.
848.923 969.703 0.
883.624 1049.94 0.
216.213 259.405 0.
240.975 317.321 0.
141.437 85.7037 0.
547.502 -133.004 0.
140.504 -1087.98 0.
333.166 -643.483 0.
188.75 -366.059 0.
58.6605 -670.144 0.
-136.025 -1125 0.
374.8 -313.514 0.
626.612 276.761 0.
-0.995898 -103.381 0.
332.14 -43.433 0.
267.539 -194.512 0.
-267.352 -650.901 0.
-88.6216 -233.534 0.
-147.592 -370.461 0.
793.465 1022.97 0.
330.763 -52.6433 0.
546.428 453.983 0.
757.096 792.235 0.
503.447 200.245 0.
111.58 -714.241 0.
167.441 -143.644 0.
394.624 386.763 0.
629.051 745.211 0.
487.352 417.189 0.
468.765 374.581 0.
542.763 577.471 0.
519.989 526.771 0.
-2.14664 -689.259 0.
94.6961 220.168 0.
68.5983 161.162 0.
22.2958 52.6439 0.
103.848 -443.686 0.
86.6764 -484.124 0.
-566.079 -492.767 0.
-91.0721 -301.183 0.
-105.793 -334.369 0.
79.3042 -280.271 0.
56.9552 -330.695 0.
34.6055 -381.119 0.
-63.2664 -394.473 0.
5.67143 -237.46 0.
74.6087 -80.4462 0.
109.49 -121.456 0.
29.1297 -310.866 0.
-51.2306 -500.277 0.
88.7872 -522.641 0.
52.1287 -608.96 0.
-221.114 -776.576 0.
-161.247 -636.953 0.
-101.38 -497.331 0.
86.4784 -390.706 0.
4.54592 -583.337 0.
-77.3866 -775.968 0.
9.43492 -670.523 0.
143.166 -357.292 0.
276.897 -44.0606 0.
389.171 -30.2771 0.
328.132 -178.105 0.
423.953 -258.418 0.
115.646 -479.875 0.
69.2614 -591.479 0.
448.922 -469.177 0.
534.564 -270.269 0.
620.205 -71.3612 0.
337.997 -128.824 0.
309.068 -199.473 0.
280.14 -270.123 0.
307.205 -206.034 0.
363.899 -75.7548 0.
420.594 54.5244 0.
627.141 120.051 0.
609.086 78.4665 0.
189.603 -147.251 0.
111.658 -326.066 0.
33.713 -504.881 0.
483.26 -346.686 0.
587.832 -102.614 0.
692.403 141.458 0.
319.703 75.6107 0.
319.611 74.4618 0.
319.519 73.3129 0.
763.011 218.037 0.
733.964 149.772 0.
-464.276 -420.544 0.
655.54 59.9762 0.
654.471 59.4049 0.
287.453 -109.403 0.
248.704 -193.669 0.
209.955 -277.935 0.
196.774 -287.899 0.
235.343 -199.068 0.
273.911 -110.238 0.
585.783 92.9825 0.
622.896 180.687 0.
660.009 268.391 0.
496.95 -39.2332 0.
351.366 -379.822 0.
-79.1158 -802.116 0.
-46.8575 -726.92 0.
-14.5989 -651.723 0.
129.231 -549.099 0.
122.652 -566.148 0.
116.072 -583.198 0.
270.671 -484.979 0.
308.025 -395.602 0.
345.378 -306.225 0.
417.436 -162.357 0.
480.244 -17.295 0.
-511.524 -323.956 0.
286.716 32.5614 0.
297.197 53.1197 0.
-48.5208 -74.4934 0.
-42.5961 -61.2052 0.
-36.6711 -47.9172 0.
491.097 143.66 0.
447.26 41.4471 0.
403.423 -60.7668 0.
293.951 -238.458 0.
216.194 -417.517 0.
138.438 -596.577 0.
139.779 -499.726 0.
202.129 -353.485 0.
35.0143 -323.686 0.
20.46 -360.343 0.
5.90532 -397 0.
-12.5952 -391.657 0.
38.1431 -273.466 0.
88.8814 -155.275 0.
27.3951 -180.19 0.
-11.8102 -274.851 0.
-51.0158 -369.513 0.
80.2407 -231.271 0.
147.812 -76.2899 0.
59.2139 -188.273 0.
-103.96 -275.429 0.
-118.4 -308.571 0.
123.306 -229.9 0.
101.558 -280.437 0.
79.8085 -330.975 0.
-162.243 -404.22 0.
-92.2517 -247.823 0.
-22.2609 -91.4243 0.
253.121 -29.4929 0.
172.137 -218.838 0.
91.1533 -408.183 0.
81.5321 -494.494 0.
44.6297 -581.427 0.
-136.741 -707.987 0.
-76.7409 -568.898 0.
-16.7412 -429.809 0.
85.4846 -360.626 0.
3.28967 -553.103 0.
-78.9053 -745.581 0.
-90.9495 -681.932 0.
42.8631 -368.498 0.
176.676 -55.0655 0.
299.077 -38.7464 0.
237.854 -186.089 0.
-299.904 -538.232 0.
261.158 -386.45 0.
214.407 -497.499 0.
292.467 -505.536 0.
378.017 -306.967 0.
463.568 -108.399 0.
405.397 -67.0854 0.
376.891 -138.595 0.
348.385 -210.105 0.
173.206 -231.679 0.
230.765 -102.239 0.
288.325 27.2004 0.
528.466 109.891 0.
511.595 67.347 0.
149.522 -130.95 0.
72.2213 -310.318 0.
-5.0792 -489.686 0.
749.945 -199.299 0.
855.168 44.1392 0.
960.391 287.578 0.
422.52 151.15 0.
422.729 149.778 0.
422.938 148.406 0.
675.514 212.881 0.
646.785 144.352 0.
-149.283 -254.114 0.
580.527 59.4714 0.
579.528 59.2505 0.
152.053 -135.6 0.
113.654 -220.025 0.
75.2558 -304.449 0.
382.194 -176.786 0.
420.702 -87.8308 0.
459.21 1.12479 0.
392.863 43.1221 0.
429.603 130.948 0.
466.343 218.774 0.
612.139 41.8051 0.
465.609 -297.644 0.
134.548 -680.386 0.
166.191 -604.572 0.
197.834 -528.757 0.
-150.039 -638.916 0.
-157.206 -655.492 0.
-164.372 -672.069 0.
447.715 -379.257 0.
485.036 -289.498 0.
522.356 -199.74 0.
404.042 -136.463 0.
466.959 8.85914 0.
-198.952 -160.136 0.
209.986 31.0133 0.
220.79 51.5899 0.
-67.321 -52.0135 0.
-60.6756 -39.1404 0.
-54.0299 -26.2676 0.
599.975 222.956 0.
556.928 120.204 0.
513.881 17.4498 0.
283.229 -211.315 0.
205.655 -390.739 0.
128.081 -570.162 0.
309.879 -394.402 0.
372.342 -248.575 0.
-113.35 -355.892 0.
-128.539 -392.081 0.
-143.729 -428.27 0.
-165.876 -426.725 0.
-115.113 -308.238 0.
-64.3491 -189.751 0.
171.679 -86.1376 0.
132.167 -180.908 0.
92.6551 -275.68 0.
-40.6424 -252.808 0.
26.6069 -97.6418 0.
-489.757 -195.264 0.
1.45939 -102.11 0.
-42.1911 -203.826 0.
174.264 -188.561 0.
161.397 -216.677 0.
148.529 -244.794 0.
-203.169 -409.902 0.
-204.985 -409.533 0.
-206.801 -409.165 0.
206.387 -272.293 0.
171.425 -352.942 0.
136.462 -433.592 0.
157.437 -235.724 0.
278.903 49.0212 0.
229.206 216.223 0.
125.326 -24.3235 0.
21.4471 -264.87 0.
63.0001 -334.18 0.
137.361 -158.057 0.
211.722 18.066 0.
163.807 -9.6179 0.
96.6826 -165.87 0.
29.5584 -322.123 0.
166.833 -286.561 0.
167.417 -281.543 0.
648.499 -71.7614 0.
515.441 -16.4382 0.
575.879 124.74 0.
409.369 132.108 0.
377.802 58.3565 0.
346.235 -15.3954 0.
405.738 -29.4247 0.
400.18 -42.5836 0.
394.624 -55.7422 0.
193.38 -113.593 0.
217.577 -57.5582 0.
241.774 -1.52294 0.
543.293 201.585 0.
585.716 301.535 0.
317.165 239.607 0.
220.357 16.9734 0.
123.55 -205.66 0.
797.616 -12.0609 0.
830.318 69.5681 0.
863.018 151.196 0.
400.705 -4.38547 0.
413.24 27.5728 0.
425.775 59.531 0.
573.721 116.003 0.
565.591 96.9514 0.
-586.805 -410.937 0.
637.208 33.5164 0.
595.658 -63.7682 0.
-20.7212 -388.477 0.
-15.0023 -375.851 0.
-9.28371 -363.225 0.
417.228 -152.932 0.
441.507 -92.994 0.
465.785 -33.0555 0.
234.763 -158.158 0.
200.609 -236.521 0.
166.456 -314.885 0.
706.882 66.3942 0.
800.229 281.478 0.
563.442 320.98 0.
497.627 167.962 0.
431.812 14.9437 0.
-27.0381 -211.394 0.
58.4404 -11.451 0.
143.919 188.492 0.
743.526 385.374 0.
620.637 100.241 0.
497.748 -184.891 0.
366.7 -177.516 0.
440.172 -0.139457 0.
259.556 66.8044 0.
226.974 -5.90225 0.
194.609 -77.7832 0.
-101.526 -255.526 0.
-119.822 -293.56 0.
-138.118 -331.594 0.
405.752 -134.599 0.
379.782 -192.415 0.
353.812 -250.231 0.
289.923 -206.747 0.
355.159 -53.6135 0.
420.395 99.5201 0.
396.099 55.1131 0.
369.262 -5.96266 0.
-89.4836 -237.809 0.
-62.9985 -175.208 0.
-36.5131 -112.607 0.
-78.3356 -116.187 0.
-105.226 -176.275 0.
-132.116 -236.363 0.
156.349 -189.349 0.
104.147 -310.096 0.
51.9459 -430.843 0.
-154.212 -401.107 0.
-57.9225 -175.013 0.
724.393 353.208 0.
121.41 -19.897 0.
78.7594 -121.895 0.
246.292 -125.518 0.
234.227 -153.526 0.
222.162 -181.535 0.
-179.07 -367.434 0.
-180.177 -367.328 0.
-181.283 -367.222 0.
233.069 -231.245 0.
198.218 -312.278 0.
163.366 -393.31 0.
112.895 -220.577 0.
235.195 63.0423 0.
94.8804 189.381 0.
-8.82644 -51.3954 0.
-112.533 -292.173 0.
9.56639 -323.78 0.
84.5604 -148.346 0.
159.554 27.0876 0.
220.778 45.9078 0.
153.292 -109.892 0.
85.8058 -265.691 0.
205.816 -242.128 0.
206.62 -237.425 0.
-136.707 -379.184 0.
636.531 69.7686 0.
697.003 210.72 0.
218.444 81.0619 0.
186.553 7.33096 0.
154.661 -66.4005 0.
330.798 -29.2054 0.
325.457 -42.6747 0.
320.116 -56.1439 0.
288.727 -41.3426 0.
313.114 14.3821 0.
337.502 70.1072 0.
609.452 260.682 0.
652.182 360.366 0.
405.122 309.341 0.
308.161 86.7162 0.
211.201 -135.908 0.
474.613 -120.204 0.
507.032 -38.4141 0.
539.45 43.3752 0.
441.364 42.8902 0.
454.003 74.9117 0.
466.641 106.933 0.
536.051 132.561 0.
528.227 113.48 0.
-670.459 -415.697 0.
912.884 183.326 0.
871.375 86.2278 0.
6.90495 -344.334 0.
12.9311 -331.898 0.
18.957 -319.462 0.
329.754 -157.755 0.
354.838 -98.2834 0.
379.922 -38.8114 0.
288.333 -103.768 0.
254.607 -181.921 0.
220.881 -260.075 0.
833.605 153.095 0.
926.857 368.379 0.
389.067 276.956 0.
323.576 123.677 0.
258.085 -29.602 0.
135.601 -107.787 0.
221.848 91.2873 0.
308.095 290.362 0.
527.39 324.589 0.
404.507 39.1118 0.
281.625 -246.365 0.
364.128 -146.179 0.
437.903 30.8157 0.
988.841 410.836 0.
426.117 111.396 0.
393.373 39.8982 0.
59.6748 -155.007 0.
41.549 -193.222 0.
23.424 -231.436 0.
221.271 -182.69 0.
195.781 -240.906 0.
170.291 -299.123 0.
347.584 -149.599 0.
412.97 3.4727 0.
478.355 156.545 0.
9.35361 -79.752 0.
-17.3674 -141.006 0.
19.8524 -158.229 0.
46.7386 -96.167 0.
73.625 -34.1057 0.
-10.925 -56.6269 0.
-37.5416 -116.721 0.
-64.1578 -176.814 0.
120.75 -172.057 0.
68.8238 -292.85 0.
16.8974 -413.643 0.
-141.163 -363.02 0.
-45.0023 -136.813 0.
623.177 168.625 0.
82.5204 -292.548 0.
26.7389 -422.118 0.
683.11 782.639 0.
452.552 250.415 0.
744.63 937.816 0.
136.378 328.113 0.
-404.885 -933.793 0.
25.2378 69.9014 0.
125.835 -494.208 0.
80.4437 -599.987 0.
307.075 -70.8622 0.
388.918 536.523 0.
314.971 368.039 0.
-522.558 -967.594 0.
56.4019 382.683 0.
-165.411 -134.731 0.
119.07 55.2707 0.
-3.15907 -228.249 0.
265.104 398.238 0.
494.49 592.966 0.
183.82 -133.607 0.
-99.7512 -797.224 0.
376.453 120.212 0.
901.664 1343.52 0.
-353.241 307.159 0.
747.89 134.061 0.
714.904 61.8817 0.
199.793 426.421 0.
176.183 374.838 0.
-345.891 -839.409 0.
-129.36 -922.083 0.
311.918 109.041 0.
208.962 -129.915 0.
299.622 -180.514 0.
91.8314 -663.99 0.
413.795 88.5985 0.
299.434 -557.484 0.
152.303 -902.999 0.
222.258 -247.337 0.
537.113 487.652 0.
355.367 63.9487 0.
277.892 78.3106 0.
475.023 538.363 0.
5.0251 -558.163 0.
243.713 -477.94 0.
488.551 98.2863 0.
329.011 -268.844 0.
244.455 -436.434 0.
370.329 -146.188 0.
116.138 819.607 0.
1264.93 514.682 0.
1199.75 359.437 0.
563.913 937.2 0.
518.378 831.774 0.
305.319 335.156 0.
260.459 -134.265 0.
535.299 510.084 0.
518.445 474.098 0.
174.917 -438.179 0.
-212.902 -1340.71 0.
332.701 -65.6801 0.
973.262 273.567 0.
987.901 311.423 0.
258.329 331.782 0.
122.997 14.1888 0.
-85.8704 -474.464 0.
182.273 -275.549 0.
380.368 182.727 0.
49.9176 -591.795 0.
236.868 85.2251 0.
248.679 106.995 0.
450.66 572.724 0.
884.536 1126.71 0.
729.434 767.052 0.
368.804 -46.4466 0.
602.204 161.413 0.
165.919 -846.062 0.
227.701 -40.0575 0.
698.102 1064.1 0.
-383.387 -1452.29 0.
-230.983 -863.964 0.
441.36 704.794 0.
359.066 513.529 0.
261.03 -424.783 0.
122.037 -751.051 0.
272.387 -402.235 0.
-407.123 -295.977 0.
-135.724 336.413 0.
175.641 33.2467 0.
54.149 -248.104 0.
-30.4043 -444.004 0.
-176.926 -536.544 0.
434.831 892.367 0.
82.188 70.5442 0.
-113.558 -622.405 0.
24.5815 -300.551 0.
-199.827 -823.522 0.
85.8941 185.296 0.
-315.097 -751.333 0.
1126.25 1006.61 0.
338.557 538.622 0.
247.036 326.597 0.
148.045 126.516 0.
87.1774 -15.3145 0.
26.3083 -157.145 0.
136.038 -229.045 0.
72.8064 -378.39 0.
9.57395 -527.734 0.
182.211 -404.959 0.
251.231 -241.496 0.
320.252 -78.0329 0.
-396.99 -342.831 0.
-387.105 -313.423 0.
-40.1506 -128.431 0.
40.8852 60.829 0.
121.92 250.088 0.
377.048 440.646 0.
334.845 345.299 0.
292.643 249.953 0.
484.227 176.351 0.
367.261 -101.384 0.
250.295 -379.119 0.
151.333 -315.3 0.
263.013 -56.6902 0.
876.072 417.187 0.
331.808 104.317 0.
285.401 -1.44432 0.
289.781 -65.2261 0.
291.754 -56.8935 0.
293.726 -48.5608 0.
74.5202 -133.078 0.
77.7943 -118.935 0.
81.0685 -104.793 0.
330.809 35.177 0.
355.137 91.1354 0.
379.465 147.094 0.
697.708 128.343 0.
599.441 -101.57 0.
181.813 -419.926 0.
320.349 -99.4505 0.
458.885 221.026 0.
113.39 163.841 0.
-12.9737 -134.607 0.
-139.337 -433.055 0.
162.582 -362.273 0.
209.058 -252.052 0.
255.533 -141.83 0.
1069.22 284.487 0.
1107.67 375.474 0.
-220.835 -118.513 0.
733.676 262.776 0.
719.735 229.466 0.
317.207 3.8391 0.
237.766 -183.197 0.
158.325 -370.233 0.
89.8085 -422.949 0.
166.888 -242.148 0.
243.969 -61.3478 0.
422.036 61.9054 0.
418.906 55.5886 0.
415.776 49.2714 0.
765.72 185.724 0.
758.173 169.15 0.
230.22 -53.8677 0.
301.386 112.506 0.
372.552 278.879 0.
501.609 354.191 0.
395.23 106.426 0.
288.851 -141.34 0.
56.9379 -298.724 0.
86.6268 -232.942 0.
116.316 -167.159 0.
364.223 -166.15 0.
285.168 -350.725 0.
483.083 -409.377 0.
148.179 -347.651 0.
259.327 -92.1196 0.
179.846 36.1089 0.
181.018 37.241 0.
182.19 38.373 0.
225.364 47.7234 0.
215.686 27.324 0.
206.007 6.92483 0.
489.973 142.396 0.
505.765 179.234 0.
521.558 216.073 0.
-85.426 -66.1197 0.
-101.231 -102.353 0.
28.6574 -80.3944 0.
13.9764 -111.941 0.
-0.70445 -143.487 0.
-184.066 -230.253 0.
-169.633 -198.951 0.
-155.2 -167.649 0.
147.998 -16.3843 0.
156.568 6.10699 0.
165.138 28.5982 0.
-23.1014 -185.855 0.
-119.31 -409.203 0.
-400.194 380.358 0.
236.107 525.727 0.
144.738 313.621 0.
-146.862 31.6869 0.
-206.892 -110.055 0.
-266.924 -251.797 0.
455.05 -59.5208 0.
393 -209.197 0.
330.949 -358.873 0.
216.109 -358.617 0.
285.018 -194.881 0.
353.926 -31.1468 0.
-878.85 -520.118 0.
-869.112 -490.457 0.
123.833 -25.6007 0.
205.356 163.462 0.
286.878 352.523 0.
504.714 524.396 0.
462.331 429.299 0.
419.948 334.202 0.
704.682 304.773 0.
588.508 26.7129 0.
472.334 -251.349 0.
121.58 -297.395 0.
233.368 -38.5191 0.
-243.437 -32.7361 0.
-144.515 -68.2015 0.
-191.494 -173.783 0.
675.437 129.386 0.
676.37 138.255 0.
677.303 147.123 0.
-84.1032 -171.673 0.
-81.1982 -157.409 0.
-78.2931 -143.145 0.
272.69 42.5857 0.
297.751 97.2984 0.
322.811 152.011 0.
837.558 222.726 0.
740.629 -8.16363 0.
238.928 -365.047 0.
377.493 -44.5216 0.
516.058 276.004 0.
-114.339 98.3719 0.
-240.772 -200.187 0.
-367.205 -498.746 0.
22.0502 -390.805 0.
68.1901 -279.671 0.
114.33 -168.537 0.
1723.93 595.911 0.
1762.73 687.274 0.
-3236.31 -1378.95 0.
227.591 78.3513 0.
214.181 45.1914 0.
520.268 122.999 0.
441.467 -64.4905 0.
362.664 -251.981 0.
56.6067 -404.756 0.
134.269 -223.985 0.
211.931 -43.2129 0.
479.072 117.933 0.
475.353 112.148 0.
471.634 106.362 0.
575.813 134.984 0.
567.795 118.956 0.
419.474 59.356 0.
490.29 226.156 0.
561.106 392.955 0.
576.458 417.396 0.
470.086 169.715 0.
363.714 -77.966 0.
61.969 -264.488 0.
91.2385 -198.658 0.
120.508 -132.827 0.
419.835 -110.866 0.
340.117 -295.112 0.
203.801 -496.842 0.
-123.013 -433.163 0.
-12.1254 -178.067 0.
104.699 35.3733 0.
106.373 35.8624 0.
108.048 36.3513 0.
319.138 119.787 0.
309.699 99.3367 0.
300.259 78.887 0.
487.627 173.161 0.
503.105 210.524 0.
518.582 247.888 0.
205.594 88.7757 0.
189.385 52.589 0.
-79.6315 -94.8477 0.
-93.8701 -126.371 0.
-108.108 -157.895 0.
-336.874 -265.155 0.
-321.852 -234.034 0.
-306.828 -202.912 0.
162.835 22.6833 0.
171.585 45.4686 0.
180.334 68.2539 0.
57.4876 -122.424 0.
-38.9138 -344.272 0.
