# vtk DataFile Version 2.0
test grain
ASCII
DATASET UNSTRUCTURED_GRID
POINTS 5000 float
0.499915 0.00100147 0.
0.501915 0.00100127 0.
0.503915 0.00100108 0.
0.505915 0.00100094 0.
0.507915 0.00100102 0.
0.509915 0.0010011 0.
0.511916 0.00100097 0.
0.513916 0.00100052 0.
0.515916 0.00100007 0.
0.517917 0.00100003 0.
0.519918 0.00100021 0.
0.521919 0.00100039 0.
0.523919 0.00100049 0.
0.525919 0.00100058 0.
0.52792 0.0010007 0.
0.52992 0.00100092 0.
0.53192 0.00100114 0.
0.53392 0.00100113 0.
0.53592 0.00100064 0.
0.53792 0.00100014 0.
0.539921 0.00100001 0.
0.541923 0.00100019 0.
0.543925 0.00100037 0.
0.545925 0.00100058 0.
0.547924 0.00100079 0.
0.549924 0.001001 0.
0.551923 0.00100123 0.
0.553922 0.00100146 0.
0.555921 0.00100157 0.
0.55792 0.0010012 0.
0.559918 0.00100082 0.
0.561916 0.00100074 0.
0.563914 0.00100107 0.
0.565913 0.0010014 0.
0.567911 0.00100115 0.
0.56991 0.00100058 0.
0.571908 0.00100001 0.
0.573904 0.00100049 0.
0.575899 0.00100113 0.
0.577895 0.00100178 0.
0.579889 0.0010023 0.
0.581884 0.00100282 0.
0.583877 0.00100325 0.
0.585867 0.00100345 0.
0.587856 0.00100365 0.
0.589845 0.00100297 0.
0.591831 0.0010015 0.
0.593818 0.00100002 0.
0.595864 0.00100141 0.
0.597931 0.0010038 0.
0.599999 0.0010062 0.
0.602068 0.00100382 0.
0.604136 0.00100144 0.
0.606182 0.00100002 0.
0.608169 0.00100124 0.
0.610155 0.00100247 0.
0.612143 0.00100297 0.
0.614134 0.00100269 0.
0.616125 0.00100241 0.
0.618118 0.00100241 0.
0.620112 0.00100254 0.
0.622105 0.00100266 0.
0.624099 0.00100242 0.
0.626094 0.00100214 0.
0.628088 0.00100181 0.
0.630087 0.00100108 0.
0.632086 0.00100036 0.
0.634084 0.00100001 0.
0.636084 0.00100032 0.
0.638083 0.00100064 0.
0.640082 0.0010009 0.
0.642082 0.00100111 0.
0.644082 0.00100132 0.
0.64608 0.00100144 0.
0.648078 0.00100154 0.
0.650075 0.00100164 0.
0.652076 0.00100118 0.
0.654076 0.00100073 0.
0.656076 0.00100034 0.
0.658077 0.00100017 0.
0.660078 0.000999995 0.
0.662079 0.00100009 0.
0.664081 0.00100049 0.
0.666082 0.00100089 0.
0.668082 0.00100116 0.
0.670082 0.00100138 0.
0.672081 0.0010016 0.
0.674081 0.00100123 0.
0.676081 0.00100082 0.
0.678081 0.0010005 0.
0.680081 0.0010007 0.
0.682082 0.0010009 0.
0.684082 0.00100099 0.
0.686083 0.0010009 0.
0.688083 0.00100081 0.
0.690084 0.00100088 0.
0.692085 0.00100105 0.
0.694086 0.00100123 0.
0.696088 0.00100098 0.
0.698089 0.00100064 0.
0.499915 0.0030044 0.
0.501915 0.00300381 0.
0.503915 0.00300324 0.
0.505915 0.00300282 0.
0.507915 0.00300306 0.
0.509915 0.00300331 0.
0.511915 0.00300291 0.
0.513916 0.00300156 0.
0.515917 0.00300021 0.
0.517917 0.00300008 0.
0.519919 0.00300062 0.
0.52192 0.00300116 0.
0.52392 0.00300147 0.
0.52592 0.00300176 0.
0.52792 0.00300209 0.
0.529921 0.00300276 0.
0.531921 0.00300342 0.
0.533921 0.0030034 0.
0.53592 0.00300191 0.
0.53792 0.00300041 0.
0.539921 0.00300002 0.
0.541924 0.00300057 0.
0.543927 0.00300112 0.
0.545927 0.00300173 0.
0.547926 0.00300237 0.
0.549926 0.003003 0.
0.551924 0.00300369 0.
0.553923 0.00300439 0.
0.555921 0.00300471 0.
0.55792 0.00300358 0.
0.559918 0.00300246 0.
0.561917 0.00300223 0.
0.563915 0.00300322 0.
0.565913 0.00300421 0.
0.567912 0.00300345 0.
0.569912 0.00300174 0.
0.571911 0.00300003 0.
0.573907 0.00300147 0.
0.575903 0.0030034 0.
0.577899 0.00300534 0.
0.579894 0.00300691 0.
0.581889 0.00300847 0.
0.583883 0.00300974 0.
0.585873 0.00301035 0.
0.587864 0.00301096 0.
0.589855 0.0030089 0.
0.591846 0.00300446 0.
0.593837 0.00300004 0.
0.595879 0.00300425 0.
0.597939 0.00301142 0.
0.6 0.0030186 0.
0.60206 0.00301146 0.
0.60412 0.00300435 0.
0.606163 0.00300003 0.
0.608153 0.00300371 0.
0.610144 0.0030074 0.
0.612135 0.0030089 0.
0.614128 0.00300807 0.
0.61612 0.00300723 0.
0.618114 0.00300723 0.
0.620108 0.00300761 0.
0.622103 0.00300799 0.
0.624097 0.00300726 0.
0.626091 0.00300644 0.
0.628086 0.00300542 0.
0.630085 0.00300325 0.
0.632083 0.00300109 0.
0.634082 0.00300003 0.
0.636083 0.00300097 0.
0.638084 0.00300191 0.
0.640084 0.00300269 0.
0.642084 0.00300333 0.
0.644083 0.00300396 0.
0.646081 0.00300431 0.
0.648078 0.00300463 0.
0.650076 0.00300493 0.
0.652074 0.00300356 0.
0.654073 0.00300218 0.
0.656072 0.00300102 0.
0.658076 0.0030005 0.
0.660079 0.00299998 0.
0.662082 0.00300027 0.
0.664083 0.00300147 0.
0.666084 0.00300267 0.
0.668084 0.00300349 0.
0.670082 0.00300414 0.
0.672081 0.00300479 0.
0.674081 0.0030037 0.
0.676081 0.00300246 0.
0.678081 0.00300149 0.
0.680081 0.00300209 0.
0.682081 0.00300269 0.
0.684082 0.00300297 0.
0.686083 0.00300271 0.
0.688083 0.00300244 0.
0.690084 0.00300264 0.
0.692085 0.00300316 0.
0.694086 0.00300368 0.
0.696087 0.00300295 0.
0.698088 0.00300192 0.
0.499915 0.00500731 0.
0.501915 0.00500633 0.
0.503915 0.00500539 0.
0.505915 0.00500471 0.
0.507915 0.00500511 0.
0.509915 0.00500552 0.
0.511915 0.00500485 0.
0.513916 0.0050026 0.
0.515917 0.00500036 0.
0.517918 0.00500012 0.
0.519919 0.00500102 0.
0.521921 0.00500193 0.
0.523921 0.00500245 0.
0.525921 0.00500292 0.
0.527921 0.00500348 0.
0.529921 0.00500459 0.
0.531922 0.0050057 0.
0.533922 0.00500567 0.
0.535921 0.00500317 0.
0.537919 0.00500068 0.
0.539921 0.00500003 0.
0.541925 0.00500095 0.
0.54393 0.00500187 0.
0.54593 0.00500289 0.
0.547929 0.00500394 0.
0.549928 0.00500499 0.
0.551926 0.00500615 0.
0.553923 0.00500731 0.
0.555921 0.00500784 0.
0.55792 0.00500597 0.
0.559919 0.00500409 0.
0.561917 0.00500372 0.
0.563916 0.00500537 0.
0.565914 0.00500702 0.
0.567914 0.00500575 0.
0.569914 0.00500291 0.
0.571914 0.00500006 0.
0.57391 0.00500244 0.
0.575907 0.00500566 0.
0.577903 0.00500891 0.
0.579899 0.00501151 0.
0.581894 0.00501412 0.
0.583889 0.00501621 0.
0.58588 0.00501723 0.
0.587872 0.00501825 0.
0.589866 0.00501478 0.
0.591861 0.00500739 0.
0.593856 0.00500002 0.
0.595894 0.00500712 0.
0.597947 0.00501905 0.
0.6 0.00503104 0.
0.602052 0.00501913 0.
0.604105 0.00500728 0.
0.606143 0.005 0.
0.608138 0.00500614 0.
0.610133 0.00501229 0.
0.612128 0.00501482 0.
0.614121 0.00501343 0.
0.616115 0.00501203 0.
0.61811 0.00501206 0.
0.620105 0.00501268 0.
0.622101 0.00501331 0.
0.624095 0.0050121 0.
0.626089 0.00501072 0.
0.628084 0.00500902 0.
0.630082 0.00500541 0.
0.63208 0.00500181 0.
0.63408 0.00500005 0.
0.636083 0.00500163 0.
0.638086 0.0050032 0.
0.640086 0.00500448 0.
0.642085 0.00500554 0.
0.644084 0.00500659 0.
0.646081 0.00500718 0.
0.648078 0.00500771 0.
0.650076 0.00500822 0.
0.652073 0.00500593 0.
0.654069 0.00500364 0.
0.656068 0.0050017 0.
0.658074 0.00500084 0.
0.66008 0.00499997 0.
0.662084 0.00500047 0.
0.664085 0.00500246 0.
0.666086 0.00500447 0.
0.668085 0.0050058 0.
0.670083 0.00500688 0.
0.672082 0.00500797 0.
0.674081 0.00500616 0.
0.676081 0.0050041 0.
0.67808 0.00500248 0.
0.680081 0.00500347 0.
0.682081 0.00500446 0.
0.684082 0.00500496 0.
0.686083 0.0050045 0.
0.688083 0.00500405 0.
0.690084 0.0050044 0.
0.692085 0.00500527 0.
0.694085 0.00500615 0.
0.696086 0.00500492 0.
0.698087 0.00500321 0.
0.499916 0.00700982 0.
0.501916 0.00700905 0.
0.503916 0.00700824 0.
0.505916 0.00700765 0.
0.507916 0.00700805 0.
0.509916 0.00700846 0.
0.511917 0.00700842 0.
0.513917 0.00700768 0.
0.515918 0.00700694 0.
0.517919 0.00700683 0.
0.51992 0.00700708 0.
0.521921 0.00700735 0.
0.523922 0.00700804 0.
0.525922 0.00700881 0.
0.527922 0.00700955 0.
0.529923 0.00700999 0.
0.531924 0.00701042 0.
0.533924 0.00701074 0.
0.535923 0.00701075 0.
0.537922 0.00701077 0.
0.539923 0.00701055 0.
0.541925 0.00701011 0.
0.543928 0.00700968 0.
0.545928 0.00700984 0.
0.547928 0.00701019 0.
0.549927 0.00701054 0.
0.551926 0.00701132 0.
0.553925 0.00701211 0.
0.555923 0.00701267 0.
0.557922 0.00701229 0.
0.559921 0.00701192 0.
0.56192 0.00701203 0.
0.563918 0.0070128 0.
0.565917 0.00701357 0.
0.567916 0.00701395 0.
0.569915 0.00701413 0.
0.571915 0.00701431 0.
0.573912 0.0070162 0.
0.575909 0.00701837 0.
0.577906 0.00702047 0.
0.579903 0.00702129 0.
0.5819 0.00702212 0.
0.583896 0.00702267 0.
0.585892 0.00702267 0.
0.587888 0.00702268 0.
0.589886 0.00701813 0.
0.591885 0.00700957 0.
0.593884 0.00700103 0.
0.595916 0.00701184 0.
0.597958 0.00702907 0.
0.6 0.00704637 0.
0.602043 0.00702931 0.
0.604086 0.00701233 0.
0.606117 0.0070016 0.
0.608116 0.0070094 0.
0.610115 0.00701721 0.
0.612112 0.00702102 0.
0.614109 0.0070204 0.
0.616105 0.00701978 0.
0.618102 0.00701957 0.
0.620098 0.00701956 0.
0.622095 0.00701955 0.
0.624091 0.00701845 0.
0.626088 0.00701723 0.
0.628084 0.00701602 0.
0.630083 0.00701503 0.
0.632081 0.00701404 0.
0.634081 0.00701325 0.
0.636081 0.00701272 0.
0.638082 0.0070122 0.
0.640082 0.00701256 0.
0.642082 0.00701354 0.
0.644081 0.00701452 0.
0.646079 0.00701398 0.
0.648078 0.00701312 0.
0.650076 0.00701234 0.
0.652075 0.00701308 0.
0.654073 0.00701383 0.
0.656072 0.00701447 0.
0.658075 0.00701486 0.
0.660077 0.00701525 0.
0.662079 0.00701517 0.
0.66408 0.00701451 0.
0.666081 0.00701385 0.
0.668081 0.00701332 0.
0.67008 0.00701287 0.
0.67208 0.00701244 0.
0.67408 0.00701097 0.
0.67608 0.0070094 0.
0.67808 0.00700803 0.
0.68008 0.00700793 0.
0.682081 0.00700783 0.
0.684082 0.00700772 0.
0.686082 0.00700751 0.
0.688083 0.00700729 0.
0.690084 0.0070075 0.
0.692084 0.00700797 0.
0.694085 0.00700845 0.
0.696085 0.007008 0.
0.698086 0.00700736 0.
0.499917 0.00901222 0.
0.501917 0.00901177 0.
0.503917 0.00901109 0.
0.505917 0.00901059 0.
0.507917 0.00901099 0.
0.509918 0.0090114 0.
0.511918 0.00901199 0.
0.513918 0.00901275 0.
0.515919 0.00901352 0.
0.51792 0.00901353 0.
0.519921 0.00901314 0.
0.521922 0.00901276 0.
0.523922 0.00901364 0.
0.525923 0.0090147 0.
0.527923 0.00901562 0.
0.529924 0.00901539 0.
0.531925 0.00901515 0.
0.533926 0.0090158 0.
0.535926 0.00901832 0.
0.537926 0.00902085 0.
0.539926 0.00902107 0.
0.541926 0.00901928 0.
0.543926 0.00901749 0.
0.545926 0.00901679 0.
0.547926 0.00901644 0.
0.549927 0.0090161 0.
0.551926 0.0090165 0.
0.553926 0.00901692 0.
0.555925 0.00901749 0.
0.557924 0.00901862 0.
0.559923 0.00901975 0.
0.561922 0.00902033 0.
0.563921 0.00902023 0.
0.56592 0.00902013 0.
0.567919 0.00902214 0.
0.569917 0.00902535 0.
0.571916 0.00902856 0.
0.573914 0.00902997 0.
0.575912 0.00903109 0.
0.577909 0.00903202 0.
0.579908 0.00903107 0.
0.581906 0.00903012 0.
0.583904 0.00902913 0.
0.585904 0.00902812 0.
0.587904 0.00902711 0.
0.589906 0.00902144 0.
0.591909 0.00901171 0.
0.593912 0.00900199 0.
0.595937 0.00901664 0.
0.597969 0.00903913 0.
0.6 0.00906169 0.
0.602033 0.00903953 0.
0.604066 0.00901745 0.
0.606092 0.00900316 0.
0.608094 0.00901264 0.
0.610096 0.00902211 0.
0.612097 0.00902722 0.
0.614096 0.00902736 0.
0.616095 0.00902751 0.
0.618093 0.00902708 0.
0.620092 0.00902643 0.
0.62209 0.00902579 0.
0.624088 0.0090248 0.
0.626086 0.00902375 0.
0.628084 0.00902302 0.
0.630083 0.00902464 0.
0.632082 0.00902627 0.
0.634081 0.00902644 0.
0.63608 0.00902382 0.
0.638079 0.00902121 0.
0.640078 0.00902063 0.
0.642078 0.00902154 0.
0.644078 0.00902246 0.
0.646077 0.0090208 0.
0.648077 0.00901855 0.
0.650077 0.00901646 0.
0.652076 0.00902023 0.
0.654076 0.00902401 0.
0.656076 0.00902724 0.
0.658075 0.00902888 0.
0.660074 0.00903052 0.
0.662074 0.00902987 0.
0.664075 0.00902656 0.
0.666075 0.00902325 0.
0.668076 0.00902083 0.
0.670077 0.00901886 0.
0.672078 0.0090169 0.
0.674079 0.00901577 0.
0.676079 0.0090147 0.
0.67808 0.00901358 0.
0.68008 0.00901238 0.
0.682081 0.00901119 0.
0.684081 0.00901049 0.
0.686082 0.00901052 0.
0.688083 0.00901054 0.
0.690084 0.00901059 0.
0.692084 0.00901067 0.
0.694084 0.00901075 0.
0.696085 0.00901109 0.
0.698085 0.00901151 0.
0.499917 0.0110145 0.
0.501917 0.0110141 0.
0.503917 0.0110134 0.
0.505917 0.0110129 0.
0.507918 0.0110133 0.
0.509918 0.0110137 0.
0.511919 0.0110144 0.
0.513919 0.0110156 0.
0.515919 0.0110168 0.
0.51792 0.0110169 0.
0.519921 0.0110165 0.
0.521922 0.0110161 0.
0.523923 0.0110169 0.
0.525923 0.011018 0.
0.527924 0.0110188 0.
0.529925 0.0110185 0.
0.531926 0.0110182 0.
0.533927 0.011019 0.
0.535927 0.0110221 0.
0.537928 0.0110253 0.
0.539927 0.0110257 0.
0.541927 0.0110238 0.
0.543926 0.0110219 0.
0.545926 0.0110209 0.
0.547927 0.0110201 0.
0.549927 0.0110193 0.
0.551927 0.0110195 0.
0.553927 0.0110197 0.
0.555927 0.0110202 0.
0.557926 0.011022 0.
0.559926 0.0110237 0.
0.561925 0.0110246 0.
0.563924 0.0110244 0.
0.565924 0.0110243 0.
0.567922 0.0110267 0.
0.569921 0.0110305 0.
0.57192 0.0110344 0.
0.573919 0.0110356 0.
0.575918 0.0110365 0.
0.577917 0.011037 0.
0.579916 0.0110352 0.
0.581916 0.0110334 0.
0.583916 0.0110315 0.
0.585918 0.0110294 0.
0.587921 0.0110274 0.
0.589925 0.0110216 0.
0.59193 0.0110126 0.
0.593935 0.0110036 0.
0.595954 0.0110174 0.
0.597977 0.0110381 0.
0.600001 0.0110587 0.
0.602025 0.0110385 0.
0.60405 0.0110182 0.
0.606069 0.0110049 0.
0.608074 0.0110138 0.
0.610078 0.0110227 0.
0.612081 0.0110281 0.
0.614082 0.0110295 0.
0.616084 0.0110309 0.
0.618083 0.0110307 0.
0.620083 0.0110297 0.
0.622082 0.0110288 0.
0.624082 0.011028 0.
0.626081 0.011027 0.
0.62808 0.0110266 0.
0.63008 0.0110292 0.
0.63208 0.0110318 0.
0.634079 0.0110324 0.
0.636077 0.0110293 0.
0.638076 0.0110263 0.
0.640076 0.0110253 0.
0.642075 0.0110259 0.
0.644075 0.0110264 0.
0.646075 0.0110246 0.
0.648075 0.0110221 0.
0.650076 0.0110198 0.
0.652076 0.0110245 0.
0.654077 0.0110292 0.
0.656076 0.0110333 0.
0.658075 0.0110353 0.
0.660073 0.0110373 0.
0.662073 0.0110364 0.
0.664073 0.0110323 0.
0.666073 0.0110281 0.
0.668074 0.0110249 0.
0.670076 0.0110222 0.
0.672077 0.0110195 0.
0.674078 0.0110185 0.
0.676079 0.0110177 0.
0.67808 0.0110168 0.
0.68008 0.0110154 0.
0.68208 0.011014 0.
0.684081 0.0110131 0.
0.686082 0.0110132 0.
0.688083 0.0110132 0.
0.690083 0.0110131 0.
0.692083 0.0110129 0.
0.694083 0.0110127 0.
0.696084 0.0110134 0.
0.698085 0.0110143 0.
0.499917 0.0130166 0.
0.501917 0.0130159 0.
0.503917 0.0130151 0.
0.505917 0.0130145 0.
0.507918 0.0130149 0.
0.509918 0.0130153 0.
0.511918 0.0130158 0.
0.513919 0.0130163 0.
0.515919 0.0130168 0.
0.51792 0.013017 0.
0.519921 0.0130171 0.
0.521923 0.0130172 0.
0.523923 0.0130179 0.
0.525924 0.0130186 0.
0.527925 0.0130192 0.
0.529925 0.0130194 0.
0.531926 0.0130195 0.
0.533927 0.0130202 0.
0.535927 0.0130222 0.
0.537928 0.0130242 0.
0.539928 0.0130247 0.
0.541928 0.0130238 0.
0.543928 0.013023 0.
0.545928 0.0130221 0.
0.547928 0.0130211 0.
0.549929 0.0130201 0.
0.551929 0.0130203 0.
0.553929 0.0130205 0.
0.555929 0.0130209 0.
0.557929 0.0130223 0.
0.559929 0.0130238 0.
0.561928 0.0130249 0.
0.563928 0.0130254 0.
0.565928 0.013026 0.
0.567927 0.0130276 0.
0.569927 0.0130298 0.
0.571926 0.0130321 0.
0.573927 0.0130334 0.
0.575927 0.0130347 0.
0.577928 0.0130356 0.
0.579929 0.0130338 0.
0.58193 0.0130319 0.
0.583931 0.0130297 0.
0.585934 0.0130267 0.
0.587937 0.0130236 0.
0.589942 0.0130187 0.
0.591947 0.0130123 0.
0.593953 0.0130059 0.
0.595967 0.013014 0.
0.597984 0.0130264 0.
0.600002 0.0130387 0.
0.602018 0.0130267 0.
0.604036 0.0130145 0.
0.60605 0.0130067 0.
0.608056 0.0130129 0.
0.610062 0.0130191 0.
0.612066 0.0130239 0.
0.614068 0.013027 0.
0.616071 0.0130301 0.
0.618072 0.0130304 0.
0.620072 0.0130296 0.
0.622073 0.0130287 0.
0.624073 0.0130279 0.
0.626073 0.0130271 0.
0.628074 0.0130267 0.
0.630074 0.0130287 0.
0.632074 0.0130307 0.
0.634074 0.0130313 0.
0.636074 0.0130294 0.
0.638074 0.0130274 0.
0.640074 0.0130266 0.
0.642073 0.0130265 0.
0.644073 0.0130265 0.
0.646073 0.0130253 0.
0.648073 0.0130238 0.
0.650073 0.0130224 0.
0.652073 0.013026 0.
0.654074 0.0130296 0.
0.656074 0.0130327 0.
0.658074 0.0130342 0.
0.660074 0.0130358 0.
0.662074 0.0130351 0.
0.664074 0.0130318 0.
0.666074 0.0130285 0.
0.668075 0.0130256 0.
0.670076 0.0130229 0.
0.672077 0.0130202 0.
0.674078 0.0130193 0.
0.676078 0.0130185 0.
0.678079 0.0130177 0.
0.680079 0.0130169 0.
0.68208 0.0130161 0.
0.68408 0.0130155 0.
0.686081 0.0130154 0.
0.688082 0.0130152 0.
0.690082 0.013015 0.
0.692082 0.0130147 0.
0.694082 0.0130143 0.
0.696083 0.0130149 0.
0.698083 0.0130157 0.
0.499916 0.0150188 0.
0.501917 0.0150178 0.
0.503917 0.0150168 0.
0.505918 0.0150161 0.
0.507918 0.0150165 0.
0.509918 0.0150169 0.
0.511918 0.0150171 0.
0.513919 0.0150169 0.
0.515919 0.0150168 0.
0.51792 0.0150171 0.
0.519922 0.0150177 0.
0.521923 0.0150183 0.
0.523924 0.0150188 0.
0.525925 0.0150192 0.
0.527925 0.0150196 0.
0.529926 0.0150202 0.
0.531926 0.0150208 0.
0.533927 0.0150215 0.
0.535928 0.0150223 0.
0.537928 0.0150231 0.
0.539929 0.0150236 0.
0.541929 0.0150238 0.
0.54393 0.0150241 0.
0.54593 0.0150232 0.
0.54793 0.015022 0.
0.54993 0.0150209 0.
0.551931 0.015021 0.
0.553931 0.0150212 0.
0.555931 0.0150216 0.
0.557931 0.0150227 0.
0.559932 0.0150239 0.
0.561932 0.0150251 0.
0.563932 0.0150264 0.
0.565932 0.0150277 0.
0.567932 0.0150285 0.
0.569933 0.0150291 0.
0.571933 0.0150297 0.
0.573935 0.0150312 0.
0.575937 0.0150329 0.
0.577939 0.0150342 0.
0.579942 0.0150324 0.
0.581944 0.0150305 0.
0.583947 0.015028 0.
0.58595 0.0150239 0.
0.587954 0.0150198 0.
0.589958 0.0150159 0.
0.591964 0.015012 0.
0.59397 0.0150082 0.
0.59598 0.0150105 0.
0.597991 0.0150147 0.
0.600002 0.0150189 0.
0.602012 0.0150149 0.
0.604022 0.0150108 0.
0.606031 0.0150085 0.
0.608038 0.015012 0.
0.610045 0.0150155 0.
0.61205 0.0150196 0.
0.614054 0.0150244 0.
0.616058 0.0150292 0.
0.61806 0.0150302 0.
0.620062 0.0150294 0.
0.622064 0.0150286 0.
0.624065 0.0150279 0.
0.626066 0.0150272 0.
0.628067 0.0150268 0.
0.630068 0.0150282 0.
0.632069 0.0150296 0.
0.63407 0.0150302 0.
0.636071 0.0150294 0.
0.638071 0.0150286 0.
0.640072 0.0150279 0.
0.642071 0.0150272 0.
0.644071 0.0150266 0.
0.646071 0.015026 0.
0.648071 0.0150254 0.
0.650071 0.0150249 0.
0.652071 0.0150274 0.
0.654071 0.0150299 0.
0.656071 0.0150321 0.
0.658073 0.0150332 0.
0.660075 0.0150342 0.
0.662075 0.0150337 0.
0.664075 0.0150313 0.
0.666075 0.0150289 0.
0.668075 0.0150263 0.
0.670076 0.0150236 0.
0.672077 0.0150209 0.
0.674077 0.01502 0.
0.676078 0.0150192 0.
0.678079 0.0150186 0.
0.680079 0.0150184 0.
0.682079 0.0150182 0.
0.68408 0.0150179 0.
0.68608 0.0150176 0.
0.688081 0.0150173 0.
0.690081 0.0150169 0.
0.692081 0.0150164 0.
0.694081 0.015016 0.
0.696082 0.0150164 0.
0.698082 0.0150171 0.
0.499918 0.0170205 0.
0.501918 0.0170194 0.
0.503918 0.0170183 0.
0.505918 0.0170174 0.
0.507918 0.0170179 0.
0.509919 0.0170184 0.
0.511919 0.0170186 0.
0.51392 0.0170186 0.
0.51592 0.0170185 0.
0.517921 0.0170184 0.
0.519923 0.0170184 0.
0.521924 0.0170184 0.
0.523925 0.0170191 0.
0.525926 0.0170198 0.
0.527926 0.0170206 0.
0.529927 0.0170213 0.
0.531927 0.0170221 0.
0.533928 0.0170228 0.
0.535928 0.0170232 0.
0.537929 0.0170237 0.
0.539929 0.0170239 0.
0.54193 0.0170241 0.
0.543931 0.0170242 0.
0.545932 0.0170236 0.
0.547932 0.0170227 0.
0.549932 0.0170219 0.
0.551932 0.0170221 0.
0.553932 0.0170223 0.
0.555933 0.0170226 0.
0.557933 0.0170236 0.
0.559933 0.0170247 0.
0.561933 0.0170257 0.
0.563934 0.0170267 0.
0.565934 0.0170278 0.
0.567935 0.0170284 0.
0.569936 0.0170289 0.
0.571937 0.0170294 0.
0.573939 0.0170306 0.
0.575942 0.017032 0.
0.577944 0.0170331 0.
0.579947 0.0170311 0.
0.58195 0.017029 0.
0.583953 0.0170263 0.
0.585956 0.0170223 0.
0.58796 0.0170184 0.
0.589964 0.0170145 0.
0.591969 0.0170107 0.
0.593974 0.017007 0.
0.595983 0.0170086 0.
0.597992 0.0170118 0.
0.600001 0.0170151 0.
0.60201 0.0170123 0.
0.604018 0.0170096 0.
0.606026 0.0170082 0.
0.608032 0.0170114 0.
0.610038 0.0170146 0.
0.612043 0.0170182 0.
0.614047 0.0170224 0.
0.616051 0.0170266 0.
0.618054 0.0170278 0.
0.620056 0.0170278 0.
0.622059 0.0170277 0.
0.62406 0.0170273 0.
0.626062 0.0170269 0.
0.628063 0.0170267 0.
0.630064 0.0170279 0.
0.632065 0.0170292 0.
0.634066 0.0170299 0.
0.636067 0.0170293 0.
0.638068 0.0170288 0.
0.640069 0.0170283 0.
0.642069 0.0170279 0.
0.644069 0.0170275 0.
0.646069 0.0170271 0.
0.648069 0.0170267 0.
0.650069 0.0170263 0.
0.652069 0.0170282 0.
0.654069 0.0170301 0.
0.65607 0.0170318 0.
0.658071 0.0170327 0.
0.660073 0.0170336 0.
0.662074 0.0170333 0.
0.664074 0.0170315 0.
0.666075 0.0170297 0.
0.668075 0.0170276 0.
0.670076 0.0170254 0.
0.672077 0.0170231 0.
0.674077 0.0170218 0.
0.676077 0.0170206 0.
0.678078 0.0170196 0.
0.680078 0.0170194 0.
0.682079 0.0170193 0.
0.684079 0.017019 0.
0.68608 0.0170187 0.
0.68808 0.0170184 0.
0.690081 0.0170181 0.
0.692081 0.0170179 0.
0.694081 0.0170176 0.
0.696082 0.0170179 0.
0.698083 0.0170183 0.
0.499919 0.0190222 0.
0.501919 0.019021 0.
0.503919 0.0190197 0.
0.505918 0.0190187 0.
0.507919 0.0190193 0.
0.509919 0.0190198 0.
0.51192 0.0190202 0.
0.513921 0.0190202 0.
0.515921 0.0190202 0.
0.517923 0.0190198 0.
0.519924 0.0190191 0.
0.521925 0.0190185 0.
0.523926 0.0190194 0.
0.525926 0.0190204 0.
0.527927 0.0190215 0.
0.529928 0.0190224 0.
0.531928 0.0190233 0.
0.533929 0.019024 0.
0.535929 0.0190241 0.
0.537929 0.0190242 0.
0.53993 0.0190242 0.
0.541931 0.0190243 0.
0.543933 0.0190243 0.
0.545933 0.019024 0.
0.547933 0.0190234 0.
0.549934 0.0190229 0.
0.551934 0.0190231 0.
0.553934 0.0190233 0.
0.555934 0.0190236 0.
0.557934 0.0190245 0.
0.559935 0.0190255 0.
0.561935 0.0190263 0.
0.563935 0.0190271 0.
0.565936 0.0190278 0.
0.567937 0.0190283 0.
0.569939 0.0190286 0.
0.571941 0.019029 0.
0.573943 0.01903 0.
0.575946 0.0190312 0.
0.577948 0.0190321 0.
0.579952 0.0190298 0.
0.581955 0.0190275 0.
0.583959 0.0190246 0.
0.585963 0.0190208 0.
0.587967 0.0190169 0.
0.589971 0.0190131 0.
0.591974 0.0190094 0.
0.593978 0.0190057 0.
0.595985 0.0190066 0.
0.597993 0.0190089 0.
0.600001 0.0190112 0.
0.602008 0.0190098 0.
0.604015 0.0190084 0.
0.606022 0.0190079 0.
0.608027 0.0190108 0.
0.610031 0.0190137 0.
0.612035 0.0190168 0.
0.614039 0.0190204 0.
0.616043 0.0190239 0.
0.618047 0.0190255 0.
0.620051 0.0190261 0.
0.622054 0.0190268 0.
0.624056 0.0190267 0.
0.626058 0.0190266 0.
0.628059 0.0190266 0.
0.63006 0.0190277 0.
0.632062 0.0190288 0.
0.634063 0.0190295 0.
0.636064 0.0190292 0.
0.638065 0.019029 0.
0.640066 0.0190288 0.
0.642067 0.0190286 0.
0.644068 0.0190284 0.
0.646068 0.0190282 0.
0.648067 0.019028 0.
0.650067 0.0190278 0.
0.652067 0.0190291 0.
0.654068 0.0190303 0.
0.656068 0.0190315 0.
0.65807 0.0190322 0.
0.660071 0.019033 0.
0.662072 0.0190329 0.
0.664074 0.0190317 0.
0.666075 0.0190306 0.
0.668075 0.0190289 0.
0.670076 0.0190271 0.
0.672076 0.0190253 0.
0.674077 0.0190237 0.
0.676077 0.019022 0.
0.678077 0.0190206 0.
0.680077 0.0190205 0.
0.682078 0.0190203 0.
0.684078 0.0190201 0.
0.686079 0.0190198 0.
0.68808 0.0190195 0.
0.69008 0.0190194 0.
0.692081 0.0190193 0.
0.694081 0.0190193 0.
0.696082 0.0190194 0.
0.698083 0.0190196 0.
0.499919 0.0210241 0.
0.501919 0.0210227 0.
0.503919 0.0210214 0.
0.505919 0.0210204 0.
0.50792 0.0210208 0.
0.50992 0.0210211 0.
0.511921 0.0210213 0.
0.513922 0.0210214 0.
0.515923 0.0210214 0.
0.517924 0.0210209 0.
0.519925 0.0210201 0.
0.521926 0.0210193 0.
0.523927 0.0210201 0.
0.525927 0.0210212 0.
0.527928 0.0210222 0.
0.529929 0.0210231 0.
0.531929 0.0210241 0.
0.53393 0.0210246 0.
0.53593 0.0210245 0.
0.537931 0.0210243 0.
0.539932 0.0210242 0.
0.541933 0.0210242 0.
0.543934 0.0210242 0.
0.545935 0.021024 0.
0.547935 0.0210238 0.
0.549935 0.0210235 0.
0.551936 0.0210237 0.
0.553936 0.0210238 0.
0.555937 0.0210241 0.
0.557937 0.0210249 0.
0.559937 0.0210257 0.
0.561938 0.0210264 0.
0.563939 0.021027 0.
0.565939 0.0210276 0.
0.567941 0.0210279 0.
0.569943 0.021028 0.
0.571945 0.0210282 0.
0.573947 0.0210289 0.
0.57595 0.0210297 0.
0.577953 0.0210302 0.
0.579957 0.0210278 0.
0.58196 0.0210254 0.
0.583964 0.0210226 0.
0.585968 0.021019 0.
0.587972 0.0210155 0.
0.589975 0.021012 0.
0.591978 0.0210085 0.
0.593982 0.021005 0.
0.595987 0.0210054 0.
0.597994 0.0210068 0.
0.6 0.0210082 0.
0.602006 0.0210077 0.
0.604013 0.0210072 0.
0.606019 0.0210073 0.
0.608022 0.0210099 0.
0.610026 0.0210124 0.
0.61203 0.0210151 0.
0.614034 0.021018 0.
0.616038 0.021021 0.
0.618042 0.0210228 0.
0.620045 0.021024 0.
0.622049 0.0210253 0.
0.624051 0.0210255 0.
0.626053 0.0210257 0.
0.628055 0.0210259 0.
0.630057 0.021027 0.
0.632058 0.021028 0.
0.63406 0.0210288 0.
0.636061 0.0210288 0.
0.638062 0.0210289 0.
0.640063 0.0210288 0.
0.642064 0.0210287 0.
0.644065 0.0210286 0.
0.646065 0.0210286 0.
0.648065 0.0210285 0.
0.650065 0.0210285 0.
0.652065 0.0210293 0.
0.654066 0.02103 0.
0.656067 0.0210308 0.
0.658068 0.0210315 0.
0.66007 0.0210323 0.
0.662071 0.0210324 0.
0.664073 0.0210317 0.
0.666074 0.021031 0.
0.668075 0.0210298 0.
0.670075 0.0210284 0.
0.672075 0.0210271 0.
0.674076 0.0210253 0.
0.676076 0.0210234 0.
0.678076 0.0210217 0.
0.680077 0.0210215 0.
0.682077 0.0210213 0.
0.684078 0.0210211 0.
0.686079 0.0210209 0.
0.688079 0.0210206 0.
0.69008 0.0210206 0.
0.692081 0.0210207 0.
0.694081 0.0210209 0.
0.696082 0.021021 0.
0.698083 0.0210212 0.
0.49992 0.0230259 0.
0.50192 0.0230246 0.
0.50392 0.0230233 0.
0.50592 0.0230223 0.
0.507921 0.0230223 0.
0.509922 0.0230222 0.
0.511923 0.0230222 0.
0.513924 0.0230221 0.
0.515925 0.023022 0.
0.517926 0.0230217 0.
0.519927 0.0230212 0.
0.521927 0.0230208 0.
0.523928 0.0230213 0.
0.525928 0.023022 0.
0.527929 0.0230226 0.
0.529929 0.0230234 0.
0.53193 0.0230242 0.
0.533931 0.0230247 0.
0.535932 0.0230243 0.
0.537933 0.023024 0.
0.539934 0.0230238 0.
0.541935 0.0230238 0.
0.543936 0.0230238 0.
0.545936 0.0230238 0.
0.547937 0.0230237 0.
0.549937 0.0230235 0.
0.551938 0.0230237 0.
0.553939 0.0230239 0.
0.555939 0.0230242 0.
0.55794 0.0230248 0.
0.55994 0.0230254 0.
0.561941 0.023026 0.
0.563942 0.0230266 0.
0.565944 0.0230272 0.
0.567945 0.0230273 0.
0.569947 0.0230271 0.
0.571949 0.0230269 0.
0.573951 0.0230272 0.
0.575954 0.0230276 0.
0.577957 0.0230277 0.
0.579961 0.0230252 0.
0.581965 0.0230228 0.
0.583969 0.0230201 0.
0.585972 0.0230172 0.
0.587975 0.0230142 0.
0.589978 0.0230112 0.
0.591981 0.0230081 0.
0.593984 0.0230049 0.
0.595989 0.0230047 0.
0.597995 0.0230054 0.
0.6 0.023006 0.
0.602006 0.023006 0.
0.604011 0.023006 0.
0.606016 0.0230065 0.
0.60802 0.0230087 0.
0.610023 0.0230108 0.
0.612027 0.0230131 0.
0.61403 0.0230155 0.
0.616034 0.0230178 0.
0.618037 0.0230198 0.
0.620041 0.0230215 0.
0.622044 0.0230232 0.
0.624046 0.0230238 0.
0.626049 0.0230242 0.
0.628051 0.0230247 0.
0.630053 0.0230258 0.
0.632055 0.0230269 0.
0.634057 0.0230277 0.
0.636058 0.0230281 0.
0.638059 0.0230284 0.
0.64006 0.0230285 0.
0.642061 0.0230283 0.
0.644062 0.0230282 0.
0.646062 0.0230283 0.
0.648062 0.0230284 0.
0.650062 0.0230285 0.
0.652063 0.0230289 0.
0.654064 0.0230292 0.
0.656065 0.0230297 0.
0.658067 0.0230306 0.
0.660068 0.0230315 0.
0.66207 0.0230318 0.
0.664071 0.0230313 0.
0.666073 0.0230309 0.
0.668073 0.0230301 0.
0.670074 0.0230293 0.
0.672074 0.0230284 0.
0.674074 0.0230266 0.
0.676075 0.0230247 0.
0.678075 0.023023 0.
0.680076 0.0230226 0.
0.682077 0.0230222 0.
0.684077 0.023022 0.
0.686078 0.0230218 0.
0.688079 0.0230217 0.
0.690079 0.0230218 0.
0.69208 0.0230221 0.
0.694081 0.0230224 0.
0.696082 0.0230228 0.
0.698082 0.0230233 0.
0.49992 0.0250278 0.
0.50192 0.0250264 0.
0.50392 0.0250253 0.
0.505921 0.0250242 0.
0.507922 0.0250238 0.
0.509923 0.0250233 0.
0.511924 0.025023 0.
0.513926 0.0250228 0.
0.515928 0.0250227 0.
0.517928 0.0250226 0.
0.519929 0.0250224 0.
0.521929 0.0250222 0.
0.523929 0.0250225 0.
0.525929 0.0250228 0.
0.52793 0.0250231 0.
0.52993 0.0250237 0.
0.531931 0.0250244 0.
0.533932 0.0250247 0.
0.535934 0.0250242 0.
0.537935 0.0250236 0.
0.539936 0.0250234 0.
0.541937 0.0250234 0.
0.543937 0.0250235 0.
0.545938 0.0250235 0.
0.547939 0.0250236 0.
0.549939 0.0250236 0.
0.55194 0.0250238 0.
0.553941 0.025024 0.
0.555942 0.0250242 0.
0.557943 0.0250246 0.
0.559944 0.0250251 0.
0.561945 0.0250255 0.
0.563946 0.0250262 0.
0.565948 0.0250268 0.
0.56795 0.0250266 0.
0.569951 0.0250261 0.
0.571953 0.0250256 0.
0.573956 0.0250255 0.
0.575959 0.0250254 0.
0.577962 0.0250251 0.
0.579966 0.0250226 0.
0.58197 0.0250201 0.
0.583973 0.0250176 0.
0.585976 0.0250153 0.
0.587978 0.0250129 0.
0.589981 0.0250103 0.
0.591984 0.0250076 0.
0.593987 0.0250048 0.
0.595991 0.0250041 0.
0.597996 0.0250039 0.
0.6 0.0250038 0.
0.602005 0.0250043 0.
0.604009 0.0250049 0.
0.606014 0.0250057 0.
0.608017 0.0250075 0.
0.61002 0.0250093 0.
0.612023 0.025011 0.
0.614027 0.0250129 0.
0.61603 0.0250147 0.
0.618033 0.0250168 0.
0.620036 0.025019 0.
0.622038 0.0250211 0.
0.624041 0.025022 0.
0.626045 0.0250227 0.
0.628048 0.0250235 0.
0.63005 0.0250246 0.
0.632052 0.0250257 0.
0.634054 0.0250266 0.
0.636055 0.0250273 0.
0.638056 0.025028 0.
0.640057 0.0250281 0.
0.642058 0.0250279 0.
0.644058 0.0250278 0.
0.646059 0.025028 0.
0.648059 0.0250283 0.
0.650059 0.0250286 0.
0.65206 0.0250285 0.
0.654062 0.0250284 0.
0.656064 0.0250286 0.
0.658065 0.0250296 0.
0.660067 0.0250307 0.
0.662068 0.0250311 0.
0.66407 0.025031 0.
0.666071 0.0250308 0.
0.668072 0.0250305 0.
0.670072 0.0250301 0.
0.672072 0.0250297 0.
0.674073 0.0250279 0.
0.676073 0.0250259 0.
0.678074 0.0250242 0.
0.680075 0.0250237 0.
0.682076 0.0250232 0.
0.684077 0.0250228 0.
0.686078 0.0250228 0.
0.688078 0.0250228 0.
0.690079 0.025023 0.
0.69208 0.0250234 0.
0.694081 0.0250239 0.
0.696081 0.0250246 0.
0.698081 0.0250254 0.
0.499921 0.0270287 0.
0.501922 0.0270275 0.
0.503922 0.0270263 0.
0.505923 0.0270251 0.
0.507924 0.0270244 0.
0.509924 0.0270238 0.
0.511925 0.0270233 0.
0.513927 0.0270231 0.
0.515928 0.0270229 0.
0.517929 0.0270228 0.
0.51993 0.0270227 0.
0.52193 0.0270228 0.
0.523931 0.027023 0.
0.525931 0.0270232 0.
0.527931 0.0270235 0.
0.529932 0.0270238 0.
0.531933 0.0270241 0.
0.533934 0.0270243 0.
0.535936 0.0270241 0.
0.537937 0.0270239 0.
0.539938 0.0270238 0.
0.541938 0.0270238 0.
0.543939 0.0270238 0.
0.54594 0.0270237 0.
0.54794 0.0270235 0.
0.549941 0.0270234 0.
0.551942 0.0270236 0.
0.553943 0.0270238 0.
0.555944 0.0270239 0.
0.557945 0.0270242 0.
0.559946 0.0270245 0.
0.561947 0.0270248 0.
0.563948 0.0270253 0.
0.56595 0.0270257 0.
0.567952 0.0270255 0.
0.569954 0.0270248 0.
0.571955 0.0270242 0.
0.573958 0.0270235 0.
0.575961 0.0270228 0.
0.577964 0.0270219 0.
0.579968 0.0270198 0.
0.581971 0.0270178 0.
0.583975 0.0270156 0.
0.585978 0.0270135 0.
0.587981 0.0270113 0.
0.589983 0.027009 0.
0.591986 0.0270067 0.
0.593988 0.0270044 0.
0.595992 0.0270035 0.
0.597996 0.0270029 0.
0.6 0.0270024 0.
0.602005 0.027003 0.
0.604009 0.0270036 0.
0.606013 0.0270044 0.
0.608016 0.0270062 0.
0.610019 0.027008 0.
0.612022 0.0270097 0.
0.614025 0.0270114 0.
0.616028 0.0270131 0.
0.618031 0.0270151 0.
0.620034 0.0270173 0.
0.622036 0.0270195 0.
0.624039 0.0270206 0.
0.626042 0.0270216 0.
0.628045 0.0270225 0.
0.630047 0.0270236 0.
0.632049 0.0270246 0.
0.634051 0.0270257 0.
0.636052 0.0270266 0.
0.638053 0.0270275 0.
0.640055 0.0270277 0.
0.642056 0.0270275 0.
0.644057 0.0270274 0.
0.646057 0.0270274 0.
0.648057 0.0270275 0.
0.650058 0.0270276 0.
0.652059 0.0270279 0.
0.65406 0.0270282 0.
0.656062 0.0270286 0.
0.658063 0.0270291 0.
0.660065 0.0270297 0.
0.662066 0.0270301 0.
0.664067 0.0270304 0.
0.666069 0.0270307 0.
0.66807 0.0270305 0.
0.67007 0.0270301 0.
0.672071 0.0270298 0.
0.674072 0.0270282 0.
0.676073 0.0270264 0.
0.678074 0.0270249 0.
0.680075 0.0270245 0.
0.682075 0.0270241 0.
0.684076 0.0270238 0.
0.686077 0.0270236 0.
0.688078 0.0270235 0.
0.690078 0.0270239 0.
0.692079 0.0270247 0.
0.69408 0.0270255 0.
0.69608 0.0270265 0.
0.69808 0.0270277 0.
0.499922 0.0290297 0.
0.501923 0.0290286 0.
0.503924 0.0290272 0.
0.505925 0.0290259 0.
0.507925 0.0290251 0.
0.509926 0.0290243 0.
0.511926 0.0290237 0.
0.513928 0.0290233 0.
0.515929 0.029023 0.
0.51793 0.029023 0.
0.519931 0.0290231 0.
0.521932 0.0290233 0.
0.523932 0.0290235 0.
0.525932 0.0290237 0.
0.527933 0.0290239 0.
0.529934 0.0290239 0.
0.531935 0.0290239 0.
0.533937 0.0290239 0.
0.535938 0.029024 0.
0.537938 0.0290241 0.
0.539939 0.0290242 0.
0.54194 0.0290241 0.
0.543941 0.029024 0.
0.545942 0.0290238 0.
0.547942 0.0290235 0.
0.549943 0.0290232 0.
0.551944 0.0290234 0.
0.553944 0.0290235 0.
0.555945 0.0290237 0.
0.557946 0.0290238 0.
0.559948 0.0290239 0.
0.561949 0.0290241 0.
0.56395 0.0290244 0.
0.565952 0.0290247 0.
0.567954 0.0290243 0.
0.569956 0.0290236 0.
0.571958 0.0290228 0.
0.573961 0.0290215 0.
0.575964 0.0290201 0.
0.577967 0.0290187 0.
0.57997 0.0290171 0.
0.581973 0.0290154 0.
0.583976 0.0290136 0.
0.585979 0.0290116 0.
0.587983 0.0290096 0.
0.589985 0.0290077 0.
0.591987 0.0290059 0.
0.593989 0.029004 0.
0.595993 0.0290029 0.
0.597997 0.0290019 0.
0.600001 0.029001 0.
0.602005 0.0290016 0.
0.604009 0.0290022 0.
0.606013 0.0290031 0.
0.608015 0.0290049 0.
0.610018 0.0290068 0.
0.61202 0.0290085 0.
0.614023 0.0290099 0.
0.616025 0.0290114 0.
0.618028 0.0290134 0.
0.620031 0.0290157 0.
0.622034 0.0290179 0.
0.624037 0.0290192 0.
0.62604 0.0290204 0.
0.628042 0.0290215 0.
0.630044 0.0290226 0.
0.632046 0.0290236 0.
0.634048 0.0290247 0.
0.636049 0.0290259 0.
0.638051 0.029027 0.
0.640052 0.0290273 0.
0.642054 0.0290271 0.
0.644055 0.029027 0.
0.646056 0.0290268 0.
0.648056 0.0290267 0.
0.650056 0.0290266 0.
0.652057 0.0290273 0.
0.654058 0.0290281 0.
0.656059 0.0290286 0.
0.658061 0.0290287 0.
0.660063 0.0290288 0.
0.662064 0.0290291 0.
0.664065 0.0290298 0.
0.666066 0.0290305 0.
0.668068 0.0290305 0.
0.670069 0.0290302 0.
0.67207 0.0290299 0.
0.674071 0.0290284 0.
0.676072 0.0290269 0.
0.678073 0.0290256 0.
0.680074 0.0290253 0.
0.682075 0.029025 0.
0.684076 0.0290248 0.
0.686076 0.0290245 0.
0.688077 0.0290242 0.
0.690078 0.0290248 0.
0.692078 0.0290259 0.
0.694078 0.029027 0.
0.696078 0.0290285 0.
0.698078 0.02903 0.
0.499924 0.0310308 0.
0.501925 0.0310296 0.
0.503926 0.0310282 0.
0.505927 0.031027 0.
0.507927 0.0310261 0.
0.509927 0.0310252 0.
0.511928 0.0310245 0.
0.513929 0.0310239 0.
0.51593 0.0310234 0.
0.517931 0.0310233 0.
0.519932 0.0310235 0.
0.521933 0.0310237 0.
0.523933 0.0310239 0.
0.525934 0.0310241 0.
0.527935 0.0310242 0.
0.529936 0.031024 0.
0.531937 0.0310238 0.
0.533938 0.0310238 0.
0.535939 0.0310241 0.
0.53794 0.0310244 0.
0.539941 0.0310244 0.
0.541942 0.0310242 0.
0.543943 0.031024 0.
0.545944 0.0310237 0.
0.547944 0.0310234 0.
0.549945 0.0310231 0.
0.551946 0.0310232 0.
0.553946 0.0310233 0.
0.555947 0.0310234 0.
0.557948 0.0310234 0.
0.55995 0.0310233 0.
0.561951 0.0310234 0.
0.563953 0.0310234 0.
0.565954 0.0310234 0.
0.567956 0.0310229 0.
0.569958 0.0310221 0.
0.571961 0.0310212 0.
0.573963 0.0310197 0.
0.575966 0.031018 0.
0.577969 0.0310164 0.
0.579972 0.0310149 0.
0.581975 0.0310134 0.
0.583978 0.0310118 0.
0.585981 0.03101 0.
0.587984 0.0310082 0.
0.589986 0.0310065 0.
0.591988 0.0310051 0.
0.59399 0.0310036 0.
0.595993 0.0310024 0.
0.597997 0.0310013 0.
0.600001 0.0310002 0.
0.602004 0.0310007 0.
0.604008 0.0310013 0.
0.606012 0.0310021 0.
0.608014 0.0310038 0.
0.610017 0.0310056 0.
0.612019 0.0310072 0.
0.614021 0.0310086 0.
0.616023 0.03101 0.
0.618026 0.0310119 0.
0.620029 0.031014 0.
0.622032 0.0310161 0.
0.624035 0.0310175 0.
0.626037 0.0310189 0.
0.62804 0.0310202 0.
0.630041 0.0310213 0.
0.632043 0.0310225 0.
0.634045 0.0310237 0.
0.636046 0.0310249 0.
0.638048 0.0310261 0.
0.64005 0.0310266 0.
0.642051 0.0310265 0.
0.644053 0.0310265 0.
0.646054 0.0310264 0.
0.648054 0.0310262 0.
0.650055 0.031026 0.
0.652056 0.0310269 0.
0.654057 0.0310278 0.
0.656058 0.0310284 0.
0.658059 0.0310283 0.
0.660061 0.0310281 0.
0.662062 0.0310285 0.
0.664063 0.0310293 0.
0.666065 0.0310301 0.
0.668066 0.0310302 0.
0.670067 0.03103 0.
0.672068 0.0310297 0.
0.67407 0.0310286 0.
0.676071 0.0310273 0.
0.678072 0.0310262 0.
0.680073 0.031026 0.
0.682073 0.0310259 0.
0.684074 0.0310257 0.
0.686075 0.0310257 0.
0.688076 0.0310257 0.
0.690076 0.0310264 0.
0.692076 0.0310275 0.
0.694077 0.0310287 0.
0.696077 0.0310302 0.
0.698077 0.0310318 0.
0.499926 0.0330318 0.
0.501927 0.0330306 0.
0.503928 0.0330293 0.
0.505929 0.0330281 0.
0.507929 0.0330274 0.
0.509929 0.0330266 0.
0.511929 0.0330257 0.
0.51393 0.0330249 0.
0.515931 0.033024 0.
0.517932 0.0330238 0.
0.519933 0.0330239 0.
0.521934 0.033024 0.
0.523935 0.0330242 0.
0.525935 0.0330244 0.
0.527936 0.0330245 0.
0.529937 0.0330242 0.
0.531938 0.033024 0.
0.53394 0.0330239 0.
0.535941 0.0330243 0.
0.537942 0.0330246 0.
0.539943 0.0330245 0.
0.541944 0.033024 0.
0.543945 0.0330235 0.
0.545945 0.0330233 0.
0.547946 0.0330233 0.
0.549947 0.0330232 0.
0.551948 0.0330232 0.
0.553949 0.0330231 0.
0.55595 0.033023 0.
0.557951 0.0330229 0.
0.559952 0.0330227 0.
0.561954 0.0330225 0.
0.563956 0.0330221 0.
0.565957 0.0330218 0.
0.567959 0.0330212 0.
0.569961 0.0330203 0.
0.571963 0.0330195 0.
0.573966 0.033018 0.
0.575968 0.0330164 0.
0.577971 0.0330148 0.
0.579973 0.0330133 0.
0.581976 0.0330118 0.
0.583979 0.0330102 0.
0.585982 0.0330085 0.
0.587984 0.0330068 0.
0.589987 0.0330054 0.
0.591988 0.0330044 0.
0.59399 0.0330033 0.
0.595993 0.0330022 0.
0.597997 0.0330011 0.
0.600001 0.033 0.
0.602004 0.0330004 0.
0.604008 0.0330007 0.
0.606011 0.0330014 0.
0.608013 0.0330029 0.
0.610015 0.0330045 0.
0.612018 0.033006 0.
0.61402 0.0330074 0.
0.616022 0.0330087 0.
0.618024 0.0330104 0.
0.620027 0.0330122 0.
0.62203 0.0330139 0.
0.624032 0.0330155 0.
0.626034 0.0330171 0.
0.628036 0.0330186 0.
0.630038 0.03302 0.
0.63204 0.0330213 0.
0.634041 0.0330226 0.
0.636044 0.0330237 0.
0.638046 0.0330248 0.
0.640047 0.0330254 0.
0.642049 0.0330257 0.
0.64405 0.033026 0.
0.646051 0.033026 0.
0.648053 0.0330259 0.
0.650054 0.0330258 0.
0.652055 0.0330266 0.
0.654056 0.0330273 0.
0.656057 0.0330279 0.
0.658058 0.0330279 0.
0.660059 0.0330278 0.
0.662061 0.0330281 0.
0.664062 0.0330288 0.
0.666063 0.0330294 0.
0.668064 0.0330296 0.
0.670066 0.0330295 0.
0.672067 0.0330294 0.
0.674068 0.0330286 0.
0.676069 0.0330277 0.
0.67807 0.0330268 0.
0.680071 0.0330267 0.
0.682072 0.0330266 0.
0.684073 0.0330267 0.
0.686073 0.0330273 0.
0.688074 0.0330278 0.
0.690074 0.0330286 0.
0.692075 0.0330296 0.
0.694075 0.0330305 0.
0.696075 0.0330316 0.
0.698075 0.0330328 0.
0.499929 0.0350329 0.
0.501929 0.0350316 0.
0.50393 0.0350304 0.
0.505931 0.0350293 0.
0.507931 0.0350286 0.
0.509931 0.0350279 0.
0.511931 0.035027 0.
0.513932 0.0350258 0.
0.515932 0.0350247 0.
0.517933 0.0350243 0.
0.519934 0.0350243 0.
0.521935 0.0350243 0.
0.523936 0.0350245 0.
0.525937 0.0350247 0.
0.527938 0.0350248 0.
0.529939 0.0350245 0.
0.53194 0.0350241 0.
0.533941 0.035024 0.
0.535942 0.0350244 0.
0.537943 0.0350249 0.
0.539945 0.0350246 0.
0.541945 0.0350238 0.
0.543946 0.0350231 0.
0.545947 0.035023 0.
0.547948 0.0350232 0.
0.549949 0.0350233 0.
0.55195 0.0350231 0.
0.553952 0.035023 0.
0.555953 0.0350227 0.
0.557954 0.0350224 0.
0.559955 0.035022 0.
0.561956 0.0350216 0.
0.563958 0.0350209 0.
0.565961 0.0350202 0.
0.567963 0.0350195 0.
0.569964 0.0350186 0.
0.571966 0.0350178 0.
0.573968 0.0350163 0.
0.57597 0.0350148 0.
0.577972 0.0350132 0.
0.579975 0.0350117 0.
0.581977 0.0350102 0.
0.58398 0.0350087 0.
0.585982 0.0350071 0.
0.587985 0.0350055 0.
0.589987 0.0350044 0.
0.591988 0.0350037 0.
0.59399 0.0350031 0.
0.595993 0.035002 0.
0.597997 0.0350009 0.
0.6 0.0349998 0.
0.602004 0.035 0.
0.604007 0.0350002 0.
0.60601 0.0350007 0.
0.608012 0.0350021 0.
0.610014 0.0350034 0.
0.612016 0.0350048 0.
0.614018 0.0350061 0.
0.61602 0.0350075 0.
0.618023 0.0350089 0.
0.620025 0.0350104 0.
0.622027 0.0350118 0.
0.624029 0.0350135 0.
0.626031 0.0350153 0.
0.628033 0.035017 0.
0.630035 0.0350186 0.
0.632036 0.0350202 0.
0.634038 0.0350215 0.
0.636041 0.0350225 0.
0.638043 0.0350235 0.
0.640045 0.0350243 0.
0.642046 0.0350249 0.
0.644047 0.0350256 0.
0.646049 0.0350257 0.
0.648051 0.0350256 0.
0.650052 0.0350256 0.
0.652053 0.0350262 0.
0.654054 0.0350269 0.
0.656055 0.0350274 0.
0.658056 0.0350274 0.
0.660058 0.0350275 0.
0.662059 0.0350278 0.
0.66406 0.0350283 0.
0.666062 0.0350288 0.
0.668063 0.035029 0.
0.670064 0.0350291 0.
0.672066 0.0350291 0.
0.674067 0.0350286 0.
0.676068 0.035028 0.
0.678069 0.0350275 0.
0.680069 0.0350274 0.
0.68207 0.0350273 0.
0.684071 0.0350276 0.
0.686071 0.0350288 0.
0.688072 0.03503 0.
0.690073 0.0350309 0.
0.692073 0.0350316 0.
0.694074 0.0350322 0.
0.696073 0.035033 0.
0.698073 0.0350339 0.
0.49993 0.0370338 0.
0.50193 0.0370326 0.
0.503931 0.0370313 0.
0.505931 0.0370302 0.
0.507932 0.0370296 0.
0.509932 0.0370289 0.
0.511933 0.0370281 0.
0.513934 0.0370269 0.
0.515935 0.0370258 0.
0.517935 0.0370253 0.
0.519936 0.0370252 0.
0.521937 0.037025 0.
0.523938 0.0370249 0.
0.525939 0.0370248 0.
0.52794 0.0370247 0.
0.529941 0.0370244 0.
0.531942 0.0370241 0.
0.533943 0.0370239 0.
0.535944 0.0370239 0.
0.537945 0.0370239 0.
0.539946 0.0370236 0.
0.541947 0.0370232 0.
0.543948 0.0370227 0.
0.545949 0.0370225 0.
0.54795 0.0370225 0.
0.549951 0.0370224 0.
0.551952 0.0370224 0.
0.553953 0.0370225 0.
0.555954 0.0370224 0.
0.557955 0.0370218 0.
0.559956 0.0370212 0.
0.561958 0.0370204 0.
0.56396 0.0370193 0.
0.565962 0.0370182 0.
0.567964 0.0370173 0.
0.569966 0.0370166 0.
0.571968 0.0370159 0.
0.57397 0.0370146 0.
0.575972 0.0370131 0.
0.577974 0.0370117 0.
0.579976 0.0370101 0.
0.581979 0.0370085 0.
0.583981 0.0370071 0.
0.585984 0.0370061 0.
0.587986 0.0370052 0.
0.589988 0.0370043 0.
0.591989 0.0370035 0.
0.593991 0.0370027 0.
0.595994 0.0370014 0.
0.597997 0.037 0.
0.6 0.0369985 0.
0.602003 0.036999 0.
0.604006 0.0369995 0.
0.606008 0.0370001 0.
0.60801 0.0370014 0.
0.610012 0.0370026 0.
0.612014 0.0370038 0.
0.614016 0.0370051 0.
0.616019 0.0370063 0.
0.618021 0.0370076 0.
0.620023 0.0370089 0.
0.622025 0.0370102 0.
0.624027 0.0370121 0.
0.626029 0.037014 0.
0.628032 0.0370159 0.
0.630033 0.0370173 0.
0.632035 0.0370188 0.
0.634037 0.03702 0.
0.636039 0.0370211 0.
0.638041 0.0370222 0.
0.640043 0.0370232 0.
0.642044 0.037024 0.
0.644045 0.0370249 0.
0.646047 0.0370252 0.
0.648049 0.0370253 0.
0.650051 0.0370255 0.
0.652052 0.037026 0.
0.654053 0.0370265 0.
0.656054 0.0370269 0.
0.658055 0.037027 0.
0.660056 0.0370271 0.
0.662057 0.0370273 0.
0.664058 0.0370278 0.
0.666059 0.0370282 0.
0.668061 0.0370285 0.
0.670062 0.0370287 0.
0.672063 0.0370289 0.
0.674064 0.0370283 0.
0.676065 0.0370275 0.
0.678066 0.0370269 0.
0.680067 0.0370274 0.
0.682068 0.0370278 0.
0.684069 0.0370285 0.
0.68607 0.0370295 0.
0.68807 0.0370305 0.
0.690071 0.0370313 0.
0.692072 0.037032 0.
0.694072 0.0370327 0.
0.696072 0.0370335 0.
0.698072 0.0370343 0.
0.499931 0.0390348 0.
0.501932 0.0390335 0.
0.503932 0.0390322 0.
0.505932 0.0390311 0.
0.507933 0.0390305 0.
0.509934 0.0390299 0.
0.511935 0.0390291 0.
0.513936 0.039028 0.
0.515937 0.0390269 0.
0.517938 0.0390263 0.
0.519938 0.039026 0.
0.521939 0.0390257 0.
0.52394 0.0390253 0.
0.525941 0.0390249 0.
0.527942 0.0390245 0.
0.529943 0.0390244 0.
0.531944 0.0390242 0.
0.533945 0.0390239 0.
0.535946 0.0390234 0.
0.537946 0.0390229 0.
0.539947 0.0390227 0.
0.541948 0.0390225 0.
0.543949 0.0390224 0.
0.545951 0.0390221 0.
0.547952 0.0390218 0.
0.549953 0.0390214 0.
0.551954 0.0390217 0.
0.553955 0.039022 0.
0.555956 0.0390221 0.
0.557957 0.0390212 0.
0.559958 0.0390203 0.
0.56196 0.0390192 0.
0.563962 0.0390177 0.
0.565964 0.0390162 0.
0.567966 0.0390152 0.
0.569968 0.0390146 0.
0.57197 0.0390139 0.
0.573972 0.0390128 0.
0.575974 0.0390115 0.
0.577976 0.0390102 0.
0.579978 0.0390085 0.
0.58198 0.0390068 0.
0.583983 0.0390055 0.
0.585985 0.0390052 0.
0.587987 0.0390049 0.
0.589989 0.0390042 0.
0.59199 0.0390032 0.
0.593992 0.0390023 0.
0.595994 0.0390007 0.
0.597997 0.038999 0.
0.6 0.0389973 0.
0.602002 0.038998 0.
0.604004 0.0389987 0.
0.606006 0.0389995 0.
0.608008 0.0390007 0.
0.61001 0.0390018 0.
0.612012 0.0390029 0.
0.614014 0.039004 0.
0.616017 0.0390051 0.
0.618019 0.0390062 0.
0.620021 0.0390074 0.
0.622023 0.0390086 0.
0.624025 0.0390107 0.
0.626028 0.0390128 0.
0.62803 0.0390148 0.
0.630032 0.0390161 0.
0.632034 0.0390174 0.
0.634036 0.0390186 0.
0.636037 0.0390197 0.
0.638039 0.0390209 0.
0.640041 0.039022 0.
0.642042 0.0390231 0.
0.644044 0.0390242 0.
0.646045 0.0390247 0.
0.648047 0.039025 0.
0.650049 0.0390254 0.
0.65205 0.0390257 0.
0.654051 0.0390261 0.
0.656052 0.0390264 0.
0.658053 0.0390265 0.
0.660054 0.0390266 0.
0.662056 0.0390269 0.
0.664056 0.0390272 0.
0.666057 0.0390276 0.
0.668058 0.0390279 0.
0.67006 0.0390283 0.
0.672061 0.0390287 0.
0.674062 0.0390279 0.
0.676063 0.039027 0.
0.678064 0.0390264 0.
0.680065 0.0390274 0.
0.682066 0.0390284 0.
0.684067 0.0390293 0.
0.686068 0.0390301 0.
0.688069 0.0390309 0.
0.69007 0.0390317 0.
0.692071 0.0390324 0.
0.694071 0.0390331 0.
0.696072 0.0390339 0.
0.698072 0.0390347 0.
0.499933 0.041036 0.
0.501933 0.0410346 0.
0.503933 0.0410332 0.
0.505934 0.041032 0.
0.507935 0.0410313 0.
0.509935 0.0410306 0.
0.511936 0.0410297 0.
0.513937 0.0410285 0.
0.515938 0.0410274 0.
0.517939 0.0410268 0.
0.51994 0.0410266 0.
0.52194 0.0410263 0.
0.523941 0.0410259 0.
0.525942 0.0410253 0.
0.527944 0.0410248 0.
0.529944 0.0410245 0.
0.531945 0.0410242 0.
0.533946 0.0410238 0.
0.535947 0.0410231 0.
0.537948 0.0410223 0.
0.539949 0.041022 0.
0.54195 0.0410219 0.
0.543951 0.0410218 0.
0.545952 0.0410216 0.
0.547954 0.0410212 0.
0.549955 0.0410208 0.
0.551956 0.0410211 0.
0.553957 0.0410215 0.
0.555958 0.0410215 0.
0.557959 0.0410205 0.
0.55996 0.0410196 0.
0.561962 0.0410183 0.
0.563963 0.0410166 0.
0.565965 0.0410149 0.
0.567967 0.0410139 0.
0.569969 0.0410132 0.
0.571972 0.0410126 0.
0.573974 0.0410114 0.
0.575976 0.0410101 0.
0.577978 0.0410088 0.
0.57998 0.0410072 0.
0.581982 0.0410057 0.
0.583984 0.0410046 0.
0.585986 0.0410044 0.
0.587988 0.0410042 0.
0.589989 0.0410036 0.
0.591991 0.0410026 0.
0.593992 0.0410015 0.
0.595995 0.041 0.
0.597997 0.0409983 0.
0.6 0.0409966 0.
0.602002 0.0409975 0.
0.604004 0.0409984 0.
0.606005 0.0409994 0.
0.608007 0.0410004 0.
0.610009 0.0410014 0.
0.612011 0.0410022 0.
0.614013 0.041003 0.
0.616015 0.0410038 0.
0.618017 0.0410049 0.
0.620019 0.0410061 0.
0.622021 0.0410073 0.
0.624023 0.0410094 0.
0.626026 0.0410117 0.
0.628029 0.0410138 0.
0.630031 0.041015 0.
0.632032 0.0410162 0.
0.634034 0.0410175 0.
0.636035 0.0410187 0.
0.638037 0.04102 0.
0.640039 0.0410211 0.
0.64204 0.0410222 0.
0.644042 0.0410232 0.
0.646044 0.0410239 0.
0.648045 0.0410245 0.
0.650047 0.041025 0.
0.652048 0.0410253 0.
0.654049 0.0410256 0.
0.65605 0.0410258 0.
0.658052 0.0410259 0.
0.660053 0.0410261 0.
0.662054 0.0410264 0.
0.664055 0.041027 0.
0.666056 0.0410276 0.
0.668057 0.041028 0.
0.670058 0.0410284 0.
0.672059 0.0410288 0.
0.67406 0.041028 0.
0.676061 0.0410271 0.
0.678063 0.0410265 0.
0.680063 0.0410278 0.
0.682064 0.041029 0.
0.684065 0.0410301 0.
0.686066 0.0410307 0.
0.688067 0.0410313 0.
0.690068 0.0410321 0.
0.692069 0.041033 0.
0.69407 0.0410339 0.
0.69607 0.0410348 0.
0.69807 0.0410358 0.
0.499934 0.0430374 0.
0.501935 0.0430359 0.
0.503935 0.0430344 0.
0.505936 0.0430329 0.
0.507936 0.043032 0.
0.509936 0.043031 0.
0.511937 0.0430299 0.
0.513938 0.0430286 0.
0.515939 0.0430272 0.
0.51794 0.0430268 0.
0.519941 0.0430269 0.
0.521942 0.043027 0.
0.523943 0.0430265 0.
0.525944 0.0430259 0.
0.527944 0.0430253 0.
0.529945 0.0430248 0.
0.531946 0.0430242 0.
0.533947 0.0430236 0.
0.535948 0.0430228 0.
0.537949 0.043022 0.
0.53995 0.0430216 0.
0.541951 0.0430214 0.
0.543953 0.0430211 0.
0.545954 0.0430209 0.
0.547955 0.0430207 0.
0.549956 0.0430204 0.
0.551957 0.0430206 0.
0.553958 0.0430208 0.
0.55596 0.0430208 0.
0.557961 0.0430199 0.
0.559962 0.043019 0.
0.561963 0.0430178 0.
0.563965 0.0430161 0.
0.565966 0.0430144 0.
0.567968 0.0430133 0.
0.56997 0.0430125 0.
0.571972 0.0430117 0.
0.573975 0.0430103 0.
0.575977 0.0430089 0.
0.577979 0.0430075 0.
0.579981 0.0430063 0.
0.581983 0.0430051 0.
0.583984 0.0430042 0.
0.585986 0.0430037 0.
0.587988 0.0430032 0.
0.589989 0.0430024 0.
0.591991 0.0430014 0.
0.593993 0.0430005 0.
0.595995 0.0429992 0.
0.597997 0.0429979 0.
0.6 0.0429966 0.
0.602002 0.0429976 0.
0.604003 0.0429987 0.
0.606005 0.0429998 0.
0.608007 0.0430005 0.
0.610009 0.0430012 0.
0.61201 0.0430018 0.
0.614012 0.0430021 0.
0.616014 0.0430024 0.
0.618016 0.0430034 0.
0.620018 0.0430048 0.
0.62202 0.0430061 0.
0.624022 0.0430083 0.
0.626025 0.0430107 0.
0.628028 0.0430129 0.
0.630029 0.0430141 0.
0.632031 0.0430153 0.
0.634032 0.0430166 0.
0.636034 0.043018 0.
0.638035 0.0430194 0.
0.640037 0.0430205 0.
0.642038 0.0430213 0.
0.64404 0.043022 0.
0.646042 0.0430228 0.
0.648044 0.0430236 0.
0.650046 0.0430243 0.
0.652047 0.0430246 0.
0.654048 0.0430249 0.
0.656049 0.0430252 0.
0.65805 0.0430253 0.
0.660051 0.0430254 0.
0.662053 0.0430259 0.
0.664054 0.043027 0.
0.666055 0.0430281 0.
0.668056 0.0430286 0.
0.670057 0.0430288 0.
0.672058 0.0430291 0.
0.674059 0.0430284 0.
0.67606 0.0430276 0.
0.678061 0.0430271 0.
0.680062 0.0430284 0.
0.682062 0.0430298 0.
0.684063 0.0430308 0.
0.686065 0.0430312 0.
0.688066 0.0430316 0.
0.690067 0.0430325 0.
0.692068 0.0430338 0.
0.694068 0.043035 0.
0.696068 0.0430363 0.
0.698068 0.0430376 0.
0.499936 0.0450388 0.
0.501936 0.0450372 0.
0.503937 0.0450355 0.
0.505938 0.0450339 0.
0.507937 0.0450327 0.
0.509937 0.0450314 0.
0.511938 0.0450301 0.
0.513939 0.0450286 0.
0.51594 0.0450271 0.
0.517941 0.0450268 0.
0.519942 0.0450272 0.
0.521943 0.0450276 0.
0.523944 0.0450271 0.
0.525945 0.0450265 0.
0.527945 0.0450259 0.
0.529946 0.045025 0.
0.531947 0.0450242 0.
0.533948 0.0450234 0.
0.535949 0.0450225 0.
0.53795 0.0450217 0.
0.539951 0.0450212 0.
0.541953 0.0450208 0.
0.543955 0.0450205 0.
0.545956 0.0450203 0.
0.547957 0.0450202 0.
0.549958 0.0450201 0.
0.551959 0.0450201 0.
0.55396 0.0450202 0.
0.555961 0.0450201 0.
0.557963 0.0450193 0.
0.559964 0.0450185 0.
0.561965 0.0450173 0.
0.563966 0.0450156 0.
0.565967 0.0450139 0.
0.567969 0.0450127 0.
0.569971 0.0450118 0.
0.571973 0.0450108 0.
0.573976 0.0450093 0.
0.575978 0.0450077 0.
0.577981 0.0450062 0.
0.579982 0.0450054 0.
0.581983 0.0450047 0.
0.583985 0.0450038 0.
0.585986 0.0450029 0.
0.587988 0.0450021 0.
0.589989 0.0450012 0.
0.591991 0.0450003 0.
0.593993 0.0449994 0.
0.595995 0.0449985 0.
0.597997 0.0449975 0.
0.599999 0.0449965 0.
0.602001 0.0449978 0.
0.604003 0.0449991 0.
0.606005 0.0450002 0.
0.608007 0.0450006 0.
0.610008 0.0450011 0.
0.61201 0.0450013 0.
0.614011 0.0450012 0.
0.616012 0.0450011 0.
0.618014 0.045002 0.
0.620017 0.0450035 0.
0.622019 0.0450049 0.
0.624021 0.0450072 0.
0.626024 0.0450096 0.
0.628026 0.0450119 0.
0.630028 0.0450132 0.
0.632029 0.0450145 0.
0.634031 0.0450158 0.
0.636032 0.0450174 0.
0.638033 0.0450189 0.
0.640035 0.0450199 0.
0.642037 0.0450204 0.
0.644039 0.0450209 0.
0.646041 0.0450217 0.
0.648043 0.0450227 0.
0.650045 0.0450236 0.
0.652046 0.045024 0.
0.654046 0.0450243 0.
0.656047 0.0450246 0.
0.658049 0.0450246 0.
0.66005 0.0450247 0.
0.662051 0.0450254 0.
0.664052 0.045027 0.
0.666054 0.0450285 0.
0.668055 0.0450291 0.
0.670056 0.0450292 0.
0.672057 0.0450293 0.
0.674058 0.0450287 0.
0.676059 0.0450281 0.
0.67806 0.0450277 0.
0.68006 0.0450291 0.
0.682061 0.0450305 0.
0.684062 0.0450314 0.
0.686063 0.0450317 0.
0.688064 0.045032 0.
0.690065 0.045033 0.
0.692066 0.0450346 0.
0.694067 0.0450361 0.
0.696066 0.0450377 0.
0.698065 0.0450393 0.
0.499937 0.0470392 0.
0.501938 0.0470376 0.
0.503938 0.0470358 0.
0.505939 0.0470342 0.
0.507939 0.0470332 0.
0.509939 0.0470321 0.
0.511939 0.0470308 0.
0.51394 0.0470291 0.
0.515941 0.0470274 0.
0.517942 0.0470267 0.
0.519943 0.0470267 0.
0.521944 0.0470266 0.
0.523945 0.0470263 0.
0.525946 0.0470258 0.
0.527947 0.0470254 0.
0.529948 0.0470246 0.
0.531949 0.0470239 0.
0.53395 0.0470231 0.
0.535951 0.0470223 0.
0.537952 0.0470214 0.
0.539953 0.0470207 0.
0.541955 0.0470202 0.
0.543956 0.0470196 0.
0.545957 0.0470195 0.
0.547958 0.0470195 0.
0.549959 0.0470195 0.
0.55196 0.0470192 0.
0.553962 0.047019 0.
0.555963 0.0470186 0.
0.557964 0.0470178 0.
0.559966 0.0470171 0.
0.561967 0.047016 0.
0.563968 0.0470145 0.
0.565969 0.0470131 0.
0.567971 0.0470117 0.
0.569973 0.0470104 0.
0.571975 0.0470091 0.
0.573977 0.0470077 0.
0.575979 0.0470064 0.
0.577981 0.0470051 0.
0.579983 0.0470045 0.
0.581984 0.0470039 0.
0.583986 0.0470031 0.
0.585987 0.0470022 0.
0.587989 0.0470012 0.
0.589991 0.0470004 0.
0.591992 0.0469995 0.
0.593994 0.0469986 0.
0.595996 0.046998 0.
0.597998 0.0469975 0.
0.6 0.046997 0.
0.602002 0.046998 0.
0.604004 0.046999 0.
0.606005 0.0469998 0.
0.608007 0.0469999 0.
0.610009 0.0470001 0.
0.61201 0.0470002 0.
0.614011 0.0470005 0.
0.616012 0.0470008 0.
0.618014 0.047002 0.
0.620015 0.0470036 0.
0.622017 0.0470052 0.
0.62402 0.0470071 0.
0.626022 0.047009 0.
0.628025 0.0470108 0.
0.630026 0.0470122 0.
0.632028 0.0470137 0.
0.634029 0.047015 0.
0.636031 0.0470162 0.
0.638033 0.0470174 0.
0.640034 0.0470185 0.
0.642036 0.0470194 0.
0.644037 0.0470203 0.
0.646039 0.0470211 0.
0.648041 0.0470218 0.
0.650043 0.0470225 0.
0.652044 0.047023 0.
0.654045 0.0470235 0.
0.656046 0.0470239 0.
0.658047 0.0470242 0.
0.660048 0.0470246 0.
0.662049 0.0470253 0.
0.66405 0.0470265 0.
0.666052 0.0470277 0.
0.668053 0.0470284 0.
0.670054 0.0470289 0.
0.672056 0.0470294 0.
0.674057 0.047029 0.
0.676058 0.0470284 0.
0.678059 0.0470281 0.
0.680059 0.0470294 0.
0.682059 0.0470306 0.
0.68406 0.0470316 0.
0.686061 0.0470321 0.
0.688062 0.0470326 0.
0.690063 0.0470338 0.
0.692063 0.0470355 0.
0.694064 0.0470371 0.
0.696064 0.0470389 0.
0.698064 0.0470408 0.
0.499938 0.0490397 0.
0.501939 0.049038 0.
0.50394 0.0490362 0.
0.50594 0.0490345 0.
0.507941 0.0490337 0.
0.509941 0.0490328 0.
0.511941 0.0490315 0.
0.513942 0.0490296 0.
0.515943 0.0490276 0.
0.517944 0.0490266 0.
0.519945 0.0490262 0.
0.521946 0.0490257 0.
0.523947 0.0490254 0.
0.525948 0.0490251 0.
0.527949 0.0490249 0.
0.52995 0.0490242 0.
0.531951 0.0490236 0.
0.533952 0.0490229 0.
0.535953 0.049022 0.
0.537955 0.0490211 0.
0.539956 0.0490202 0.
0.541957 0.0490195 0.
0.543957 0.0490187 0.
0.545958 0.0490186 0.
0.547959 0.0490188 0.
0.549961 0.0490189 0.
0.551962 0.0490183 0.
0.553963 0.0490178 0.
0.555965 0.0490172 0.
0.557966 0.0490164 0.
0.559967 0.0490157 0.
0.561968 0.0490147 0.
0.56397 0.0490135 0.
0.565971 0.0490122 0.
0.567973 0.0490107 0.
0.569974 0.049009 0.
0.571976 0.0490073 0.
0.573978 0.0490061 0.
0.57598 0.0490051 0.
0.577982 0.049004 0.
0.579983 0.0490036 0.
0.581985 0.0490031 0.
0.583986 0.0490024 0.
0.585988 0.0490014 0.
0.58799 0.0490004 0.
0.589992 0.0489995 0.
0.591993 0.0489986 0.
0.593995 0.0489978 0.
0.595997 0.0489976 0.
0.597999 0.0489975 0.
0.600001 0.0489975 0.
0.602003 0.0489982 0.
0.604004 0.0489989 0.
0.606006 0.0489994 0.
0.608008 0.0489992 0.
0.610009 0.048999 0.
0.612011 0.0489992 0.
0.614011 0.0489998 0.
0.616012 0.0490005 0.
0.618013 0.0490019 0.
0.620014 0.0490037 0.
0.622015 0.0490055 0.
0.624018 0.0490069 0.
0.626021 0.0490083 0.
0.628023 0.0490097 0.
0.630025 0.0490113 0.
0.632026 0.0490129 0.
0.634028 0.0490142 0.
0.63603 0.0490151 0.
0.638032 0.0490159 0.
0.640034 0.049017 0.
0.642035 0.0490184 0.
0.644036 0.0490197 0.
0.646038 0.0490204 0.
0.64804 0.0490209 0.
0.650042 0.0490215 0.
0.652043 0.0490221 0.
0.654044 0.0490227 0.
0.656045 0.0490233 0.
0.658046 0.0490239 0.
0.660046 0.0490245 0.
0.662047 0.0490252 0.
0.664048 0.049026 0.
0.666049 0.0490268 0.
0.668051 0.0490277 0.
0.670053 0.0490286 0.
0.672054 0.0490295 0.
0.674055 0.0490293 0.
0.676056 0.0490288 0.
0.678057 0.0490286 0.
0.680058 0.0490297 0.
0.682058 0.0490307 0.
0.684058 0.0490317 0.
0.686059 0.0490325 0.
0.68806 0.0490332 0.
0.69006 0.0490346 0.
0.692061 0.0490363 0.
0.694061 0.0490381 0.
0.696062 0.0490401 0.
0.698062 0.0490422 0.
0.49994 0.05104 0.
0.501941 0.0510384 0.
0.503942 0.0510367 0.
0.505942 0.0510351 0.
0.507943 0.0510341 0.
0.509943 0.0510331 0.
0.511944 0.0510317 0.
0.513944 0.0510297 0.
0.515945 0.0510277 0.
0.517945 0.0510266 0.
0.519946 0.0510258 0.
0.521947 0.0510251 0.
0.523948 0.0510249 0.
0.525949 0.0510247 0.
0.52795 0.0510245 0.
0.529951 0.0510239 0.
0.531952 0.0510232 0.
0.533953 0.0510225 0.
0.535955 0.0510215 0.
0.537956 0.0510204 0.
0.539957 0.0510196 0.
0.541958 0.051019 0.
0.543959 0.0510183 0.
0.54596 0.0510182 0.
0.547961 0.0510183 0.
0.549962 0.0510184 0.
0.551963 0.0510176 0.
0.553965 0.0510167 0.
0.555966 0.0510159 0.
0.557967 0.0510151 0.
0.559968 0.0510144 0.
0.56197 0.0510135 0.
0.563971 0.0510125 0.
0.565973 0.0510115 0.
0.567974 0.0510099 0.
0.569976 0.0510081 0.
0.571977 0.0510062 0.
0.573979 0.0510051 0.
0.575981 0.0510039 0.
0.577983 0.0510029 0.
0.579984 0.0510026 0.
0.581985 0.0510023 0.
0.583987 0.0510018 0.
0.585989 0.0510008 0.
0.587991 0.0509998 0.
0.589992 0.050999 0.
0.591994 0.0509981 0.
0.593996 0.0509973 0.
0.595998 0.0509972 0.
0.597999 0.0509973 0.
0.600001 0.0509973 0.
0.602003 0.0509979 0.
0.604004 0.0509984 0.
0.606006 0.0509988 0.
0.608007 0.0509986 0.
0.610009 0.0509984 0.
0.61201 0.0509986 0.
0.614011 0.0509994 0.
0.616012 0.0510002 0.
0.618013 0.0510016 0.
0.620014 0.0510034 0.
0.622015 0.0510051 0.
0.624017 0.0510062 0.
0.626019 0.0510073 0.
0.628022 0.0510084 0.
0.630024 0.05101 0.
0.632025 0.0510117 0.
0.634027 0.0510131 0.
0.636029 0.051014 0.
0.638031 0.0510148 0.
0.640033 0.051016 0.
0.642034 0.0510174 0.
0.644035 0.0510188 0.
0.646036 0.0510194 0.
0.648038 0.0510199 0.
0.65004 0.0510205 0.
0.652041 0.0510213 0.
0.654042 0.0510222 0.
0.656043 0.051023 0.
0.658044 0.0510235 0.
0.660045 0.051024 0.
0.662045 0.0510247 0.
0.664046 0.0510255 0.
0.666047 0.0510263 0.
0.668049 0.0510271 0.
0.670051 0.051028 0.
0.672052 0.0510289 0.
0.674053 0.0510291 0.
0.676054 0.0510292 0.
0.678056 0.0510293 0.
0.680056 0.0510301 0.
0.682056 0.051031 0.
0.684057 0.0510319 0.
0.686057 0.0510328 0.
0.688058 0.0510338 0.
0.690058 0.0510353 0.
0.692059 0.051037 0.
0.694059 0.0510388 0.
0.69606 0.0510409 0.
0.69806 0.0510431 0.
0.499943 0.0530401 0.
0.501943 0.0530387 0.
0.503944 0.0530374 0.
0.505944 0.053036 0.
0.507945 0.0530344 0.
0.509945 0.0530329 0.
0.511946 0.0530312 0.
0.513946 0.0530294 0.
0.515947 0.0530276 0.
0.517947 0.0530265 0.
0.519948 0.0530258 0.
0.521949 0.053025 0.
0.52395 0.0530248 0.
0.52595 0.0530246 0.
0.527951 0.0530243 0.
0.529953 0.0530236 0.
0.531954 0.0530229 0.
0.533955 0.053022 0.
0.535956 0.0530208 0.
0.537957 0.0530196 0.
0.539958 0.0530189 0.
0.541959 0.0530187 0.
0.54396 0.0530185 0.
0.545961 0.0530183 0.
0.547963 0.0530181 0.
0.549964 0.053018 0.
0.551965 0.0530169 0.
0.553966 0.0530158 0.
0.555967 0.0530147 0.
0.557968 0.053014 0.
0.559969 0.0530132 0.
0.561971 0.0530124 0.
0.563972 0.0530116 0.
0.565974 0.0530107 0.
0.567975 0.0530093 0.
0.569977 0.0530076 0.
0.571978 0.053006 0.
0.57398 0.0530045 0.
0.575982 0.0530029 0.
0.577984 0.0530016 0.
0.579985 0.0530015 0.
0.581986 0.0530014 0.
0.583988 0.0530011 0.
0.585989 0.0530004 0.
0.587991 0.0529996 0.
0.589993 0.0529988 0.
0.591994 0.052998 0.
0.593996 0.0529972 0.
0.595997 0.0529969 0.
0.597999 0.0529967 0.
0.6 0.0529965 0.
0.602002 0.052997 0.
0.604003 0.0529974 0.
0.606005 0.0529978 0.
0.608007 0.052998 0.
0.610009 0.0529981 0.
0.61201 0.0529985 0.
0.614011 0.0529993 0.
0.616012 0.053 0.
0.618013 0.0530012 0.
0.620014 0.0530026 0.
0.622014 0.0530039 0.
0.624016 0.0530049 0.
0.626019 0.0530059 0.
0.628021 0.053007 0.
0.630023 0.0530085 0.
0.632025 0.0530101 0.
0.634026 0.0530116 0.
0.636028 0.0530129 0.
0.63803 0.0530143 0.
0.640031 0.0530154 0.
0.642032 0.0530165 0.
0.644033 0.0530175 0.
0.646035 0.0530182 0.
0.648037 0.0530188 0.
0.650039 0.0530194 0.
0.65204 0.0530207 0.
0.654041 0.0530219 0.
0.656041 0.0530229 0.
0.658042 0.0530231 0.
0.660043 0.0530232 0.
0.662044 0.0530238 0.
0.664045 0.0530249 0.
0.666046 0.0530261 0.
0.668047 0.0530267 0.
0.670048 0.0530272 0.
0.67205 0.0530277 0.
0.674051 0.0530286 0.
0.676052 0.0530294 0.
0.678054 0.0530302 0.
0.680054 0.0530307 0.
0.682055 0.0530313 0.
0.684055 0.0530321 0.
0.686056 0.0530332 0.
0.688056 0.0530343 0.
0.690056 0.0530358 0.
0.692057 0.0530375 0.
0.694057 0.0530392 0.
0.696057 0.0530413 0.
0.698058 0.0530435 0.
0.499945 0.0550402 0.
0.501946 0.0550391 0.
0.503946 0.0550381 0.
0.505946 0.0550369 0.
0.507947 0.0550348 0.
0.509948 0.0550327 0.
0.511948 0.0550308 0.
0.513948 0.0550291 0.
0.515949 0.0550275 0.
0.517949 0.0550264 0.
0.51995 0.0550257 0.
0.52195 0.055025 0.
0.523951 0.0550246 0.
0.525952 0.0550244 0.
0.527953 0.0550241 0.
0.529954 0.0550233 0.
0.531955 0.0550225 0.
0.533956 0.0550215 0.
0.535957 0.0550201 0.
0.537958 0.0550187 0.
0.539959 0.0550181 0.
0.54196 0.0550183 0.
0.543961 0.0550186 0.
0.545963 0.0550184 0.
0.547964 0.055018 0.
0.549966 0.0550175 0.
0.551966 0.0550162 0.
0.553967 0.0550148 0.
0.555967 0.0550136 0.
0.557969 0.0550128 0.
0.55997 0.055012 0.
0.561972 0.0550113 0.
0.563973 0.0550106 0.
0.565974 0.05501 0.
0.567976 0.0550088 0.
0.569977 0.0550072 0.
0.571979 0.0550057 0.
0.573981 0.0550039 0.
0.575983 0.055002 0.
0.577985 0.0550003 0.
0.579986 0.0550004 0.
0.581987 0.0550006 0.
0.583988 0.0550005 0.
0.58599 0.0549999 0.
0.587992 0.0549994 0.
0.589993 0.0549987 0.
0.591994 0.0549979 0.
0.593996 0.054997 0.
0.595997 0.0549965 0.
0.597998 0.0549961 0.
0.6 0.0549958 0.
0.602001 0.0549961 0.
0.604003 0.0549965 0.
0.606004 0.0549969 0.
0.608006 0.0549974 0.
0.610008 0.0549978 0.
0.61201 0.0549984 0.
0.614011 0.0549991 0.
0.616012 0.0549999 0.
0.618013 0.0550008 0.
0.620013 0.0550017 0.
0.622014 0.0550027 0.
0.624016 0.0550037 0.
0.626018 0.0550046 0.
0.62802 0.0550055 0.
0.630022 0.055007 0.
0.632024 0.0550085 0.
0.634025 0.05501 0.
0.636027 0.0550119 0.
0.638028 0.0550137 0.
0.640029 0.0550148 0.
0.642031 0.0550155 0.
0.644032 0.0550162 0.
0.646034 0.0550169 0.
0.648036 0.0550176 0.
0.650038 0.0550184 0.
0.652038 0.05502 0.
0.654039 0.0550217 0.
0.65604 0.0550229 0.
0.65804 0.0550226 0.
0.660041 0.0550224 0.
0.662042 0.0550229 0.
0.664043 0.0550244 0.
0.666045 0.0550258 0.
0.668046 0.0550264 0.
0.670046 0.0550265 0.
0.672047 0.0550265 0.
0.674049 0.0550281 0.
0.67605 0.0550297 0.
0.678052 0.0550311 0.
0.680053 0.0550314 0.
0.682053 0.0550316 0.
0.684054 0.0550323 0.
0.686054 0.0550336 0.
0.688054 0.0550348 0.
0.690054 0.0550364 0.
0.692055 0.055038 0.
0.694055 0.0550397 0.
0.696055 0.0550418 0.
0.698055 0.0550439 0.
0.499947 0.0570405 0.
0.501948 0.0570395 0.
0.503948 0.0570386 0.
0.505949 0.0570375 0.
0.507949 0.0570352 0.
0.50995 0.0570329 0.
0.51195 0.0570309 0.
0.51395 0.0570295 0.
0.515951 0.057028 0.
0.517951 0.057027 0.
0.519952 0.0570261 0.
0.521952 0.0570253 0.
0.523953 0.0570249 0.
0.525954 0.0570246 0.
0.527955 0.0570243 0.
0.529956 0.0570233 0.
0.531957 0.0570223 0.
0.533958 0.0570212 0.
0.535959 0.0570199 0.
0.53796 0.0570186 0.
0.539961 0.0570179 0.
0.541962 0.0570177 0.
0.543963 0.0570176 0.
0.545964 0.0570174 0.
0.547965 0.0570172 0.
0.549966 0.057017 0.
0.551967 0.0570159 0.
0.553968 0.0570149 0.
0.555969 0.0570138 0.
0.55797 0.0570128 0.
0.559972 0.0570118 0.
0.561974 0.0570108 0.
0.563975 0.05701 0.
0.565976 0.0570091 0.
0.567977 0.0570078 0.
0.569979 0.0570062 0.
0.57198 0.0570047 0.
0.573981 0.0570032 0.
0.575983 0.0570017 0.
0.577985 0.0570004 0.
0.579986 0.0570003 0.
0.581987 0.0570001 0.
0.583988 0.0569999 0.
0.58599 0.0569993 0.
0.587991 0.0569987 0.
0.589992 0.056998 0.
0.591994 0.0569972 0.
0.593995 0.0569964 0.
0.595997 0.0569957 0.
0.597998 0.0569952 0.
0.6 0.0569946 0.
0.602002 0.0569953 0.
0.604003 0.0569961 0.
0.606005 0.0569967 0.
0.608006 0.056997 0.
0.610008 0.0569972 0.
0.612009 0.0569977 0.
0.61401 0.0569984 0.
0.616011 0.0569991 0.
0.618012 0.057 0.
0.620013 0.057001 0.
0.622014 0.057002 0.
0.624016 0.0570028 0.
0.626018 0.0570036 0.
0.62802 0.0570045 0.
0.630021 0.0570059 0.
0.632023 0.0570074 0.
0.634024 0.057009 0.
0.636025 0.0570109 0.
0.638027 0.0570128 0.
0.640028 0.057014 0.
0.642029 0.0570148 0.
0.644031 0.0570157 0.
0.646032 0.0570165 0.
0.648034 0.0570172 0.
0.650035 0.057018 0.
0.652036 0.0570197 0.
0.654037 0.0570213 0.
0.656038 0.0570226 0.
0.658038 0.0570224 0.
0.660039 0.0570223 0.
0.662041 0.0570228 0.
0.664042 0.057024 0.
0.666044 0.0570252 0.
0.668045 0.0570259 0.
0.670045 0.0570263 0.
0.672045 0.0570268 0.
0.674047 0.057028 0.
0.676049 0.0570293 0.
0.67805 0.0570306 0.
0.680051 0.0570315 0.
0.682051 0.0570325 0.
0.684052 0.0570335 0.
0.686052 0.0570346 0.
0.688052 0.0570357 0.
0.690052 0.0570371 0.
0.692053 0.0570387 0.
0.694053 0.0570403 0.
0.696053 0.0570423 0.
0.698053 0.0570444 0.
0.499948 0.0590408 0.
0.501949 0.0590399 0.
0.50395 0.0590392 0.
0.505951 0.0590381 0.
0.507951 0.0590356 0.
0.509951 0.059033 0.
0.511952 0.059031 0.
0.513952 0.0590298 0.
0.515953 0.0590286 0.
0.517953 0.0590275 0.
0.519954 0.0590265 0.
0.521954 0.0590256 0.
0.523955 0.0590252 0.
0.525956 0.0590249 0.
0.527956 0.0590244 0.
0.529958 0.0590233 0.
0.531959 0.0590221 0.
0.53396 0.0590209 0.
0.535961 0.0590197 0.
0.537962 0.0590184 0.
0.539963 0.0590176 0.
0.541964 0.0590171 0.
0.543964 0.0590167 0.
0.545965 0.0590165 0.
0.547966 0.0590165 0.
0.549966 0.0590164 0.
0.551967 0.0590157 0.
0.553969 0.0590149 0.
0.55597 0.059014 0.
0.557972 0.0590128 0.
0.559974 0.0590115 0.
0.561975 0.0590104 0.
0.563976 0.0590093 0.
0.565977 0.0590082 0.
0.567979 0.0590068 0.
0.56998 0.0590052 0.
0.571981 0.0590036 0.
0.573982 0.0590025 0.
0.575983 0.0590014 0.
0.577984 0.0590004 0.
0.579986 0.0590001 0.
0.581987 0.0589997 0.
0.583988 0.0589993 0.
0.58599 0.0589986 0.
0.587991 0.058998 0.
0.589992 0.0589973 0.
0.591993 0.0589965 0.
0.593994 0.0589957 0.
0.595996 0.0589949 0.
0.597998 0.0589942 0.
0.6 0.0589935 0.
0.602002 0.0589945 0.
0.604004 0.0589956 0.
0.606005 0.0589965 0.
0.608007 0.0589966 0.
0.610008 0.0589966 0.
0.612009 0.058997 0.
0.614009 0.0589977 0.
0.61601 0.0589984 0.
0.618011 0.0589993 0.
0.620012 0.0590002 0.
0.622014 0.0590012 0.
0.624016 0.0590019 0.
0.626018 0.0590026 0.
0.628019 0.0590034 0.
0.630021 0.0590048 0.
0.632022 0.0590063 0.
0.634023 0.0590079 0.
0.636024 0.0590099 0.
0.638025 0.0590118 0.
0.640027 0.0590132 0.
0.642028 0.0590142 0.
0.644029 0.0590151 0.
0.646031 0.059016 0.
0.648032 0.0590168 0.
0.650033 0.0590176 0.
0.652034 0.0590193 0.
0.654034 0.059021 0.
0.656035 0.0590222 0.
0.658037 0.0590222 0.
0.660038 0.0590222 0.
0.662039 0.0590226 0.
0.664041 0.0590235 0.
0.666043 0.0590245 0.
0.668043 0.0590254 0.
0.670044 0.0590262 0.
0.672044 0.059027 0.
0.674045 0.059028 0.
0.676047 0.059029 0.
0.678048 0.0590301 0.
0.680048 0.0590317 0.
0.682049 0.0590333 0.
0.684049 0.0590347 0.
0.68605 0.0590356 0.
0.68805 0.0590366 0.
0.69005 0.0590378 0.
0.692051 0.0590393 0.
0.694052 0.0590408 0.
0.696052 0.0590428 0.
0.698052 0.0590449 0.
0.49995 0.0610415 0.
0.501951 0.0610405 0.
0.503952 0.0610396 0.
0.505952 0.0610384 0.
0.507953 0.0610358 0.
0.509953 0.0610333 0.
0.511953 0.0610314 0.
0.513954 0.0610302 0.
0.515955 0.061029 0.
0.517955 0.061028 0.
0.519956 0.0610269 0.
0.521956 0.0610259 0.
0.523957 0.0610253 0.
0.525957 0.0610248 0.
0.527958 0.0610243 0.
0.529959 0.0610232 0.
0.53196 0.0610221 0.
0.533961 0.061021 0.
0.535962 0.0610196 0.
0.537963 0.0610182 0.
0.539964 0.0610173 0.
0.541965 0.0610167 0.
0.543965 0.0610162 0.
0.545966 0.061016 0.
0.547966 0.0610158 0.
0.549967 0.0610157 0.
0.551968 0.0610151 0.
0.55397 0.0610145 0.
0.555971 0.0610137 0.
0.557973 0.0610121 0.
0.559975 0.0610106 0.
0.561977 0.0610092 0.
0.563978 0.0610082 0.
0.565979 0.0610071 0.
0.56798 0.0610058 0.
0.569981 0.0610044 0.
0.571982 0.061003 0.
0.573983 0.061002 0.
0.575983 0.061001 0.
0.577984 0.0610001 0.
0.579986 0.0609997 0.
0.581987 0.0609993 0.
0.583989 0.0609988 0.
0.58599 0.0609981 0.
0.587991 0.0609974 0.
0.589992 0.0609967 0.
0.591993 0.060996 0.
0.593994 0.0609953 0.
0.595996 0.0609945 0.
0.597998 0.0609937 0.
0.6 0.0609929 0.
0.602002 0.060994 0.
0.604004 0.0609952 0.
0.606005 0.0609961 0.
0.608007 0.0609961 0.
0.610008 0.0609962 0.
0.612008 0.0609965 0.
0.614009 0.0609973 0.
0.616009 0.0609981 0.
0.61801 0.0609988 0.
0.620012 0.0609996 0.
0.622013 0.0610003 0.
0.624015 0.061001 0.
0.626017 0.0610017 0.
0.628019 0.0610025 0.
0.63002 0.061004 0.
0.632021 0.0610054 0.
0.634022 0.061007 0.
0.636023 0.0610089 0.
0.638024 0.0610108 0.
0.640025 0.0610123 0.
0.642027 0.0610135 0.
0.644028 0.0610147 0.
0.646029 0.0610157 0.
0.64803 0.0610166 0.
0.650031 0.0610175 0.
0.652032 0.061019 0.
0.654033 0.0610204 0.
0.656034 0.0610215 0.
0.658036 0.0610219 0.
0.660037 0.0610222 0.
0.662038 0.0610227 0.
0.66404 0.0610235 0.
0.666041 0.0610244 0.
0.668042 0.0610253 0.
0.670042 0.0610261 0.
0.672042 0.061027 0.
0.674043 0.0610279 0.
0.676045 0.0610288 0.
0.678046 0.0610299 0.
0.680046 0.0610319 0.
0.682047 0.061034 0.
0.684047 0.0610356 0.
0.686047 0.0610364 0.
0.688048 0.0610371 0.
0.690048 0.0610384 0.
0.692049 0.0610399 0.
0.694049 0.0610415 0.
0.69605 0.0610435 0.
0.69805 0.0610454 0.
0.499951 0.0630429 0.
0.501952 0.0630413 0.
0.503953 0.0630398 0.
0.505953 0.0630382 0.
0.507954 0.063036 0.
0.509954 0.0630337 0.
0.511955 0.0630319 0.
0.513956 0.0630307 0.
0.515957 0.0630294 0.
0.517957 0.0630283 0.
0.519957 0.0630273 0.
0.521958 0.0630262 0.
0.523958 0.0630254 0.
0.525959 0.0630246 0.
0.527959 0.0630237 0.
0.52996 0.0630231 0.
0.53196 0.0630224 0.
0.533961 0.0630214 0.
0.535962 0.0630196 0.
0.537964 0.0630178 0.
0.539965 0.0630168 0.
0.541965 0.0630165 0.
0.543966 0.0630163 0.
0.545967 0.0630158 0.
0.547967 0.0630153 0.
0.549968 0.0630148 0.
0.55197 0.0630143 0.
0.553971 0.0630137 0.
0.555973 0.0630128 0.
0.557975 0.0630108 0.
0.559976 0.0630089 0.
0.561978 0.0630075 0.
0.563979 0.0630066 0.
0.56598 0.0630058 0.
0.567981 0.0630048 0.
0.569982 0.0630038 0.
0.571983 0.0630027 0.
0.573983 0.0630016 0.
0.575984 0.0630005 0.
0.577985 0.0629995 0.
0.579986 0.0629992 0.
0.581988 0.062999 0.
0.583989 0.0629985 0.
0.58599 0.0629976 0.
0.587991 0.0629967 0.
0.589992 0.062996 0.
0.591993 0.0629956 0.
0.593994 0.0629951 0.
0.595996 0.0629944 0.
0.597998 0.0629936 0.
0.6 0.0629929 0.
0.602002 0.0629938 0.
0.604004 0.0629947 0.
0.606006 0.0629955 0.
0.608006 0.0629957 0.
0.610007 0.0629959 0.
0.612008 0.0629964 0.
0.614009 0.0629973 0.
0.616009 0.0629982 0.
0.61801 0.0629987 0.
0.620011 0.0629991 0.
0.622012 0.0629995 0.
0.624014 0.0630003 0.
0.626016 0.063001 0.
0.628017 0.0630019 0.
0.630018 0.0630033 0.
0.632019 0.0630047 0.
0.63402 0.0630062 0.
0.636022 0.0630079 0.
0.638023 0.0630096 0.
0.640024 0.0630112 0.
0.642026 0.0630127 0.
0.644027 0.0630143 0.
0.646028 0.0630155 0.
0.648029 0.0630166 0.
0.65003 0.0630176 0.
0.652031 0.0630186 0.
0.654033 0.0630196 0.
0.656034 0.0630205 0.
0.658035 0.0630213 0.
0.660036 0.0630221 0.
0.662037 0.063023 0.
0.664038 0.0630239 0.
0.66604 0.0630248 0.
0.66804 0.0630255 0.
0.67004 0.0630262 0.
0.67204 0.0630268 0.
0.674041 0.0630278 0.
0.676042 0.0630288 0.
0.678043 0.06303 0.
0.680044 0.0630323 0.
0.682044 0.0630346 0.
0.684045 0.0630363 0.
0.686045 0.0630368 0.
0.688046 0.0630374 0.
0.690046 0.0630386 0.
0.692047 0.0630405 0.
0.694047 0.0630423 0.
0.696047 0.0630441 0.
0.698047 0.0630459 0.
0.499953 0.0650438 0.
0.501953 0.065042 0.
0.503954 0.06504 0.
0.505954 0.0650381 0.
0.507955 0.0650361 0.
0.509955 0.0650342 0.
0.511956 0.0650324 0.
0.513957 0.0650311 0.
0.515958 0.0650298 0.
0.517959 0.0650287 0.
0.519959 0.0650276 0.
0.521959 0.0650265 0.
0.52396 0.0650254 0.
0.52596 0.0650243 0.
0.527961 0.0650232 0.
0.529961 0.065023 0.
0.531961 0.0650227 0.
0.533961 0.0650218 0.
0.535963 0.0650196 0.
0.537964 0.0650174 0.
0.539965 0.0650164 0.
0.541965 0.0650164 0.
0.543966 0.0650163 0.
0.545967 0.0650157 0.
0.547968 0.0650148 0.
0.549969 0.065014 0.
0.551971 0.0650134 0.
0.553972 0.0650128 0.
0.555974 0.0650119 0.
0.557976 0.0650095 0.
0.559977 0.0650072 0.
0.561979 0.0650057 0.
0.56398 0.0650051 0.
0.565981 0.0650045 0.
0.567982 0.0650039 0.
0.569983 0.0650031 0.
0.571983 0.0650024 0.
0.573984 0.0650012 0.
0.575985 0.065 0.
0.577986 0.0649988 0.
0.579987 0.0649987 0.
0.581988 0.0649987 0.
0.58399 0.0649983 0.
0.585991 0.0649971 0.
0.587992 0.064996 0.
0.589993 0.0649954 0.
0.591993 0.0649951 0.
0.593994 0.0649949 0.
0.595996 0.0649943 0.
0.597998 0.0649936 0.
0.6 0.0649929 0.
0.602002 0.0649936 0.
0.604004 0.0649943 0.
0.606006 0.0649949 0.
0.608006 0.0649952 0.
0.610007 0.0649956 0.
0.612008 0.0649962 0.
0.614009 0.0649972 0.
0.616009 0.0649983 0.
0.61801 0.0649987 0.
0.620011 0.0649987 0.
0.622011 0.0649987 0.
0.624013 0.0649995 0.
0.626015 0.0650004 0.
0.628016 0.0650013 0.
0.630017 0.0650026 0.
0.632018 0.065004 0.
0.634019 0.0650054 0.
0.63602 0.0650069 0.
0.638022 0.0650084 0.
0.640023 0.0650101 0.
0.642025 0.065012 0.
0.644026 0.0650139 0.
0.646027 0.0650153 0.
0.648028 0.0650165 0.
0.650029 0.0650177 0.
0.652031 0.0650182 0.
0.654032 0.0650187 0.
0.656033 0.0650194 0.
0.658034 0.0650207 0.
0.660035 0.065022 0.
0.662036 0.0650232 0.
0.664037 0.0650243 0.
0.666038 0.0650253 0.
0.668038 0.0650259 0.
0.670038 0.0650262 0.
0.672038 0.0650265 0.
0.674039 0.0650276 0.
0.67604 0.0650287 0.
0.67804 0.0650301 0.
0.680041 0.0650326 0.
0.682042 0.0650352 0.
0.684043 0.065037 0.
0.686043 0.0650373 0.
0.688044 0.0650376 0.
0.690044 0.0650389 0.
0.692044 0.065041 0.
0.694044 0.0650431 0.
0.696045 0.0650448 0.
0.698045 0.0650464 0.
0.499954 0.0670435 0.
0.501955 0.0670419 0.
0.503955 0.0670404 0.
0.505956 0.0670388 0.
0.507957 0.0670365 0.
0.509958 0.0670342 0.
0.511959 0.0670323 0.
0.513959 0.067031 0.
0.51596 0.0670296 0.
0.51796 0.0670285 0.
0.519961 0.0670274 0.
0.521961 0.0670263 0.
0.523961 0.0670254 0.
0.525962 0.0670246 0.
0.527962 0.0670237 0.
0.529962 0.0670231 0.
0.531963 0.0670225 0.
0.533963 0.0670214 0.
0.535964 0.0670193 0.
0.537965 0.0670173 0.
0.539966 0.0670161 0.
0.541967 0.0670157 0.
0.543967 0.0670153 0.
0.545969 0.0670147 0.
0.54797 0.0670141 0.
0.549971 0.0670135 0.
0.551972 0.0670127 0.
0.553974 0.0670118 0.
0.555975 0.0670107 0.
0.557977 0.0670089 0.
0.559978 0.0670071 0.
0.56198 0.0670057 0.
0.563981 0.0670048 0.
0.565982 0.067004 0.
0.567983 0.0670033 0.
0.569983 0.0670027 0.
0.571984 0.0670021 0.
0.573985 0.0670011 0.
0.575986 0.067 0.
0.577987 0.0669989 0.
0.579988 0.0669984 0.
0.581989 0.0669978 0.
0.58399 0.0669972 0.
0.585991 0.0669964 0.
0.587992 0.0669956 0.
0.589993 0.0669951 0.
0.591993 0.0669949 0.
0.593994 0.0669947 0.
0.595996 0.0669943 0.
0.597998 0.0669937 0.
0.6 0.0669932 0.
0.602002 0.0669937 0.
0.604003 0.0669943 0.
0.606004 0.0669948 0.
0.608005 0.0669951 0.
0.610006 0.0669955 0.
0.612007 0.066996 0.
0.614008 0.0669968 0.
0.616009 0.0669976 0.
0.61801 0.066998 0.
0.620011 0.0669981 0.
0.622012 0.0669982 0.
0.624013 0.066999 0.
0.626014 0.0669999 0.
0.628016 0.0670009 0.
0.630016 0.0670025 0.
0.632017 0.0670041 0.
0.634018 0.0670056 0.
0.63602 0.0670066 0.
0.638021 0.0670077 0.
0.640022 0.0670092 0.
0.642023 0.0670111 0.
0.644024 0.067013 0.
0.646025 0.0670142 0.
0.648027 0.0670154 0.
0.650028 0.0670165 0.
0.652029 0.0670172 0.
0.65403 0.0670178 0.
0.656032 0.0670186 0.
0.658032 0.0670198 0.
0.660033 0.067021 0.
0.662034 0.0670222 0.
0.664035 0.0670236 0.
0.666036 0.0670249 0.
0.668037 0.0670258 0.
0.670037 0.0670264 0.
0.672037 0.067027 0.
0.674038 0.0670278 0.
0.676038 0.0670287 0.
0.678039 0.0670297 0.
0.680039 0.067032 0.
0.68204 0.0670343 0.
0.68404 0.0670361 0.
0.686041 0.0670371 0.
0.688042 0.067038 0.
0.690042 0.0670394 0.
0.692043 0.0670411 0.
0.694043 0.0670428 0.
0.696043 0.0670447 0.
0.698044 0.0670467 0.
0.499956 0.0690427 0.
0.501957 0.0690417 0.
0.503957 0.0690408 0.
0.505958 0.0690395 0.
0.507959 0.0690369 0.
0.50996 0.0690342 0.
0.511961 0.0690321 0.
0.513961 0.0690308 0.
0.515962 0.0690295 0.
0.517962 0.0690283 0.
0.519962 0.0690272 0.
0.521963 0.0690262 0.
0.523963 0.0690255 0.
0.525963 0.0690248 0.
0.527964 0.0690241 0.
0.529964 0.0690232 0.
0.531964 0.0690222 0.
0.533965 0.069021 0.
0.535965 0.0690191 0.
0.537966 0.0690172 0.
0.539967 0.0690159 0.
0.541968 0.0690151 0.
0.543969 0.0690143 0.
0.54597 0.0690138 0.
0.547971 0.0690134 0.
0.549972 0.0690131 0.
0.551974 0.069012 0.
0.553975 0.0690108 0.
0.555976 0.0690096 0.
0.557978 0.0690083 0.
0.559979 0.069007 0.
0.56198 0.0690057 0.
0.563981 0.0690046 0.
0.565982 0.0690034 0.
0.567983 0.0690027 0.
0.569984 0.0690023 0.
0.571985 0.0690018 0.
0.573986 0.0690009 0.
0.575987 0.069 0.
0.577988 0.068999 0.
0.579989 0.068998 0.
0.58199 0.0689969 0.
0.583991 0.0689961 0.
0.585991 0.0689956 0.
0.587992 0.0689951 0.
0.589993 0.0689948 0.
0.591994 0.0689946 0.
0.593994 0.0689945 0.
0.595996 0.0689942 0.
0.597998 0.0689938 0.
0.6 0.0689935 0.
0.602001 0.0689939 0.
0.604002 0.0689943 0.
0.606003 0.0689947 0.
0.608004 0.068995 0.
0.610005 0.0689953 0.
0.612006 0.0689958 0.
0.614007 0.0689964 0.
0.616008 0.0689969 0.
0.61801 0.0689973 0.
0.620011 0.0689975 0.
0.622012 0.0689978 0.
0.624013 0.0689986 0.
0.626014 0.0689995 0.
0.628015 0.0690005 0.
0.630016 0.0690024 0.
0.632017 0.0690043 0.
0.634018 0.0690058 0.
0.636019 0.0690064 0.
0.63802 0.069007 0.
0.640021 0.0690083 0.
0.642021 0.0690101 0.
0.644022 0.069012 0.
0.646024 0.0690132 0.
0.648025 0.0690142 0.
0.650026 0.0690153 0.
0.652028 0.0690161 0.
0.654029 0.069017 0.
0.65603 0.0690178 0.
0.658031 0.0690189 0.
0.660032 0.0690199 0.
0.662032 0.0690212 0.
0.664033 0.0690229 0.
0.666034 0.0690246 0.
0.668035 0.0690257 0.
0.670036 0.0690266 0.
0.672037 0.0690274 0.
0.674037 0.069028 0.
0.676037 0.0690286 0.
0.678037 0.0690294 0.
0.680037 0.0690314 0.
0.682038 0.0690334 0.
0.684038 0.0690353 0.
0.686039 0.0690368 0.
0.68804 0.0690384 0.
0.69004 0.0690398 0.
0.692041 0.0690412 0.
0.694041 0.0690425 0.
0.696042 0.0690446 0.
0.698042 0.0690469 0.
0.499959 0.0710429 0.
0.501959 0.0710418 0.
0.503959 0.0710408 0.
0.50596 0.0710394 0.
0.507961 0.0710369 0.
0.509962 0.0710343 0.
0.511963 0.0710323 0.
0.513963 0.071031 0.
0.515963 0.0710296 0.
0.517963 0.0710285 0.
0.519964 0.0710274 0.
0.521964 0.0710264 0.
0.523965 0.0710257 0.
0.525965 0.071025 0.
0.527965 0.0710243 0.
0.529966 0.0710231 0.
0.531967 0.0710219 0.
0.533967 0.0710206 0.
0.535967 0.0710189 0.
0.537968 0.0710172 0.
0.539968 0.0710159 0.
0.541969 0.0710148 0.
0.54397 0.0710138 0.
0.545971 0.0710133 0.
0.547973 0.0710131 0.
0.549974 0.0710128 0.
0.551975 0.0710115 0.
0.553976 0.0710101 0.
0.555978 0.0710088 0.
0.557979 0.0710077 0.
0.55998 0.0710067 0.
0.561981 0.0710055 0.
0.563982 0.0710041 0.
0.565983 0.0710028 0.
0.567984 0.071002 0.
0.569985 0.0710016 0.
0.571986 0.0710012 0.
0.573987 0.0710005 0.
0.575988 0.0709997 0.
0.577989 0.070999 0.
0.57999 0.0709977 0.
0.58199 0.0709965 0.
0.583991 0.0709955 0.
0.585992 0.0709952 0.
0.587993 0.0709948 0.
0.589993 0.0709945 0.
0.591994 0.0709943 0.
0.593995 0.0709942 0.
0.595996 0.0709939 0.
0.597998 0.0709937 0.
0.6 0.0709934 0.
0.602001 0.0709938 0.
0.604002 0.0709942 0.
0.606003 0.0709946 0.
0.608004 0.0709951 0.
0.610005 0.0709955 0.
0.612006 0.070996 0.
0.614007 0.0709964 0.
0.616008 0.0709968 0.
0.618009 0.0709971 0.
0.62001 0.0709973 0.
0.622011 0.0709975 0.
0.624012 0.0709983 0.
0.626013 0.0709992 0.
0.628014 0.0710001 0.
0.630015 0.0710022 0.
0.632016 0.0710043 0.
0.634017 0.0710058 0.
0.636018 0.0710062 0.
0.638019 0.0710066 0.
0.640019 0.0710077 0.
0.64202 0.0710094 0.
0.644021 0.0710111 0.
0.646022 0.0710123 0.
0.648024 0.0710133 0.
0.650025 0.0710142 0.
0.652026 0.0710153 0.
0.654027 0.0710163 0.
0.656028 0.0710173 0.
0.658029 0.0710183 0.
0.66003 0.0710193 0.
0.662031 0.0710206 0.
0.664031 0.0710223 0.
0.666032 0.071024 0.
0.668033 0.0710254 0.
0.670034 0.0710265 0.
0.672035 0.0710277 0.
0.674035 0.0710282 0.
0.676035 0.0710287 0.
0.678036 0.0710294 0.
0.680036 0.0710312 0.
0.682036 0.071033 0.
0.684036 0.0710348 0.
0.686037 0.0710366 0.
0.688038 0.0710384 0.
0.690038 0.0710399 0.
0.692039 0.0710412 0.
0.694039 0.0710426 0.
0.69604 0.0710448 0.
0.69804 0.0710473 0.
0.499962 0.0730442 0.
0.501962 0.0730422 0.
0.503963 0.0730404 0.
0.505963 0.0730385 0.
0.507963 0.0730365 0.
0.509964 0.0730345 0.
0.511964 0.0730328 0.
0.513964 0.0730315 0.
0.515965 0.0730301 0.
0.517965 0.073029 0.
0.519965 0.0730279 0.
0.521966 0.0730269 0.
0.523966 0.073026 0.
0.525967 0.0730251 0.
0.527968 0.0730242 0.
0.529968 0.0730229 0.
0.531969 0.0730216 0.
0.53397 0.0730202 0.
0.53597 0.0730188 0.
0.53797 0.0730173 0.
0.539971 0.0730161 0.
0.541971 0.073015 0.
0.543972 0.0730138 0.
0.545973 0.0730133 0.
0.547974 0.073013 0.
0.549975 0.0730127 0.
0.551976 0.0730111 0.
0.553977 0.0730096 0.
0.555979 0.0730082 0.
0.55798 0.0730072 0.
0.559981 0.0730063 0.
0.561982 0.0730051 0.
0.563983 0.0730036 0.
0.565984 0.0730021 0.
0.567985 0.0730012 0.
0.569986 0.0730007 0.
0.571987 0.0730002 0.
0.573988 0.0729997 0.
0.575989 0.0729992 0.
0.57799 0.0729987 0.
0.579991 0.0729976 0.
0.581992 0.0729965 0.
0.583992 0.0729956 0.
0.585993 0.0729951 0.
0.587994 0.0729946 0.
0.589994 0.0729943 0.
0.591995 0.072994 0.
0.593995 0.0729937 0.
0.595996 0.0729935 0.
0.597998 0.0729932 0.
0.599999 0.0729929 0.
0.602 0.0729935 0.
0.604001 0.072994 0.
0.606002 0.0729946 0.
0.608003 0.0729953 0.
0.610005 0.0729961 0.
0.612006 0.0729966 0.
0.614007 0.0729969 0.
0.616008 0.0729971 0.
0.618009 0.0729973 0.
0.62001 0.0729974 0.
0.62201 0.0729976 0.
0.624012 0.0729982 0.
0.626013 0.0729989 0.
0.628014 0.0729998 0.
0.630015 0.0730019 0.
0.632015 0.073004 0.
0.634016 0.0730056 0.
0.636017 0.073006 0.
0.638017 0.0730065 0.
0.640018 0.0730076 0.
0.642019 0.073009 0.
0.64402 0.0730105 0.
0.646022 0.0730115 0.
0.648023 0.0730125 0.
0.650024 0.0730134 0.
0.652025 0.0730146 0.
0.654026 0.0730159 0.
0.656026 0.073017 0.
0.658027 0.073018 0.
0.660028 0.073019 0.
0.662029 0.0730203 0.
0.66403 0.0730218 0.
0.666031 0.0730233 0.
0.668031 0.0730247 0.
0.670032 0.0730262 0.
0.672033 0.0730276 0.
0.674033 0.0730283 0.
0.676034 0.073029 0.
0.678034 0.0730298 0.
0.680034 0.0730314 0.
0.682034 0.073033 0.
0.684034 0.0730347 0.
0.686035 0.0730364 0.
0.688036 0.0730381 0.
0.690036 0.0730397 0.
0.692037 0.0730413 0.
0.694037 0.0730429 0.
0.696037 0.0730452 0.
0.698037 0.0730477 0.
0.499965 0.0750451 0.
0.501965 0.0750427 0.
0.503966 0.07504 0.
0.505966 0.0750376 0.
0.507966 0.0750362 0.
0.509966 0.0750347 0.
0.511966 0.0750334 0.
0.513966 0.075032 0.
0.515966 0.0750306 0.
0.517966 0.0750295 0.
0.519967 0.0750284 0.
0.521967 0.0750274 0.
0.523968 0.0750263 0.
0.525969 0.0750252 0.
0.52797 0.075024 0.
0.529971 0.0750226 0.
0.531972 0.0750212 0.
0.533972 0.0750198 0.
0.535972 0.0750187 0.
0.537973 0.0750175 0.
0.539973 0.0750163 0.
0.541974 0.0750151 0.
0.543974 0.0750139 0.
0.545975 0.0750134 0.
0.547976 0.075013 0.
0.549976 0.0750126 0.
0.551978 0.0750108 0.
0.553979 0.0750091 0.
0.55598 0.0750076 0.
0.55798 0.0750067 0.
0.559981 0.0750059 0.
0.561982 0.0750046 0.
0.563983 0.075003 0.
0.565985 0.0750014 0.
0.567986 0.0750004 0.
0.569987 0.0749998 0.
0.571988 0.0749992 0.
0.573989 0.0749989 0.
0.57599 0.0749987 0.
0.577991 0.0749984 0.
0.579992 0.0749974 0.
0.581993 0.0749965 0.
0.583993 0.0749957 0.
0.585994 0.0749951 0.
0.587995 0.0749945 0.
0.589995 0.074994 0.
0.591995 0.0749937 0.
0.593995 0.0749933 0.
0.595996 0.074993 0.
0.597997 0.0749927 0.
0.599999 0.0749925 0.
0.602 0.0749931 0.
0.604001 0.0749938 0.
0.606002 0.0749946 0.
0.608003 0.0749956 0.
0.610005 0.0749966 0.
0.612006 0.0749972 0.
0.614007 0.0749974 0.
0.616008 0.0749975 0.
0.618009 0.0749976 0.
0.620009 0.0749976 0.
0.62201 0.0749976 0.
0.624011 0.0749981 0.
0.626012 0.0749987 0.
0.628013 0.0749995 0.
0.630014 0.0750016 0.
0.632014 0.0750037 0.
0.634015 0.0750053 0.
0.636015 0.0750059 0.
0.638016 0.0750065 0.
0.640017 0.0750074 0.
0.642018 0.0750086 0.
0.64402 0.0750099 0.
0.646021 0.0750108 0.
0.648022 0.0750117 0.
0.650023 0.0750126 0.
0.652024 0.075014 0.
0.654024 0.0750154 0.
0.656025 0.0750168 0.
0.658025 0.0750178 0.
0.660026 0.0750188 0.
0.662027 0.07502 0.
0.664028 0.0750213 0.
0.666029 0.0750226 0.
0.66803 0.0750241 0.
0.67003 0.0750258 0.
0.67203 0.0750275 0.
0.674031 0.0750285 0.
0.676032 0.0750293 0.
0.678033 0.0750303 0.
0.680033 0.0750317 0.
0.682033 0.0750331 0.
0.684033 0.0750345 0.
0.686033 0.0750361 0.
0.688034 0.0750378 0.
0.690034 0.0750395 0.
0.692035 0.0750414 0.
0.694035 0.0750433 0.
0.696035 0.0750456 0.
0.698035 0.075048 0.
0.499967 0.0770445 0.
0.501967 0.0770423 0.
0.503967 0.0770401 0.
0.505967 0.077038 0.
0.507967 0.0770366 0.
0.509967 0.0770353 0.
0.511967 0.0770339 0.
0.513967 0.0770325 0.
0.515968 0.0770311 0.
0.517968 0.0770298 0.
0.519968 0.0770285 0.
0.521968 0.0770273 0.
0.523969 0.0770259 0.
0.52597 0.0770244 0.
0.527971 0.077023 0.
0.529972 0.077022 0.
0.531973 0.0770209 0.
0.533973 0.0770198 0.
0.535974 0.0770187 0.
0.537974 0.0770175 0.
0.539975 0.0770164 0.
0.541975 0.0770152 0.
0.543975 0.0770141 0.
0.545976 0.0770133 0.
0.547977 0.0770126 0.
0.549978 0.0770119 0.
0.551979 0.0770105 0.
0.553981 0.0770092 0.
0.555982 0.0770079 0.
0.557982 0.0770069 0.
0.559983 0.0770058 0.
0.561983 0.0770046 0.
0.563984 0.077003 0.
0.565985 0.0770015 0.
0.567986 0.0770003 0.
0.569987 0.0769994 0.
0.571988 0.0769985 0.
0.573989 0.0769981 0.
0.57599 0.0769979 0.
0.577991 0.0769975 0.
0.579992 0.0769969 0.
0.581992 0.0769962 0.
0.583993 0.0769956 0.
0.585993 0.076995 0.
0.587994 0.0769945 0.
0.589995 0.0769939 0.
0.591995 0.0769932 0.
0.593995 0.0769926 0.
0.595996 0.0769924 0.
0.597998 0.0769924 0.
0.599999 0.0769924 0.
0.602 0.0769931 0.
0.604001 0.0769938 0.
0.606001 0.0769945 0.
0.608002 0.0769951 0.
0.610004 0.0769958 0.
0.612005 0.0769963 0.
0.614006 0.0769965 0.
0.616006 0.0769966 0.
0.618007 0.0769969 0.
0.620008 0.0769971 0.
0.622009 0.0769974 0.
0.62401 0.076998 0.
0.626011 0.0769987 0.
0.628012 0.0769996 0.
0.630012 0.0770016 0.
0.632013 0.0770036 0.
0.634014 0.0770052 0.
0.636014 0.077006 0.
0.638014 0.0770068 0.
0.640015 0.0770077 0.
0.642017 0.0770086 0.
0.644018 0.0770095 0.
0.646019 0.0770103 0.
0.64802 0.077011 0.
0.650021 0.0770118 0.
0.652022 0.077013 0.
0.654022 0.0770143 0.
0.656023 0.0770155 0.
0.658023 0.0770168 0.
0.660024 0.0770181 0.
0.662025 0.0770195 0.
0.664026 0.0770207 0.
0.666027 0.077022 0.
0.668028 0.0770236 0.
0.670028 0.0770255 0.
0.672029 0.0770274 0.
0.674029 0.0770284 0.
0.67603 0.0770292 0.
0.678031 0.0770302 0.
0.680031 0.0770315 0.
0.682031 0.0770328 0.
0.684031 0.0770343 0.
0.686031 0.077036 0.
0.688032 0.0770377 0.
0.690032 0.0770394 0.
0.692032 0.0770412 0.
0.694033 0.0770429 0.
0.696033 0.0770452 0.
0.698032 0.0770477 0.
0.499968 0.0790439 0.
0.501968 0.079042 0.
0.503968 0.0790401 0.
0.505969 0.0790384 0.
0.507968 0.0790371 0.
0.509968 0.0790359 0.
0.511968 0.0790345 0.
0.513969 0.079033 0.
0.515969 0.0790315 0.
0.51797 0.07903 0.
0.51997 0.0790286 0.
0.52197 0.0790272 0.
0.523971 0.0790255 0.
0.525972 0.0790237 0.
0.527972 0.079022 0.
0.529973 0.0790213 0.
0.531973 0.0790206 0.
0.533974 0.0790198 0.
0.535975 0.0790187 0.
0.537976 0.0790176 0.
0.539976 0.0790165 0.
0.541976 0.0790154 0.
0.543977 0.0790143 0.
0.545978 0.0790133 0.
0.547979 0.0790123 0.
0.54998 0.0790113 0.
0.551981 0.0790102 0.
0.553982 0.0790092 0.
0.555983 0.0790082 0.
0.557984 0.079007 0.
0.559984 0.0790058 0.
0.561985 0.0790045 0.
0.563985 0.079003 0.
0.565986 0.0790016 0.
0.567987 0.0790002 0.
0.569988 0.078999 0.
0.571989 0.0789977 0.
0.57399 0.0789973 0.
0.57599 0.078997 0.
0.577991 0.0789967 0.
0.579992 0.0789963 0.
0.581992 0.0789959 0.
0.583992 0.0789955 0.
0.585993 0.078995 0.
0.587994 0.0789945 0.
0.589994 0.0789938 0.
0.591995 0.0789928 0.
0.593995 0.0789919 0.
0.595997 0.0789918 0.
0.597998 0.0789921 0.
0.599999 0.0789923 0.
0.602 0.078993 0.
0.604001 0.0789937 0.
0.606001 0.0789943 0.
0.608002 0.0789947 0.
0.610002 0.078995 0.
0.612003 0.0789953 0.
0.614004 0.0789956 0.
0.616005 0.0789958 0.
0.618006 0.0789962 0.
0.620007 0.0789967 0.
0.622008 0.0789971 0.
0.624009 0.0789979 0.
0.626009 0.0789987 0.
0.62801 0.0789997 0.
0.630011 0.0790016 0.
0.632012 0.0790034 0.
0.634013 0.079005 0.
0.636013 0.0790061 0.
0.638013 0.0790071 0.
0.640014 0.079008 0.
0.642015 0.0790086 0.
0.644016 0.0790092 0.
0.646017 0.0790098 0.
0.648018 0.0790104 0.
0.650019 0.079011 0.
0.652019 0.0790121 0.
0.65402 0.0790131 0.
0.656021 0.0790143 0.
0.658021 0.0790159 0.
0.660022 0.0790175 0.
0.662023 0.0790189 0.
0.664024 0.0790201 0.
0.666025 0.0790213 0.
0.668025 0.0790231 0.
0.670026 0.0790252 0.
0.672027 0.0790272 0.
0.674028 0.0790282 0.
0.676028 0.0790291 0.
0.678029 0.0790301 0.
0.680029 0.0790313 0.
0.682029 0.0790326 0.
0.684029 0.0790341 0.
0.686029 0.0790358 0.
0.68803 0.0790376 0.
0.69003 0.0790393 0.
0.69203 0.0790409 0.
0.69403 0.0790426 0.
0.69603 0.0790449 0.
0.69803 0.0790473 0.
0.49997 0.0810437 0.
0.50197 0.0810418 0.
0.50397 0.08104 0.
0.50597 0.0810383 0.
0.50797 0.0810371 0.
0.50997 0.0810359 0.
0.51197 0.0810345 0.
0.513971 0.0810331 0.
0.515971 0.0810317 0.
0.517972 0.0810303 0.
0.519972 0.0810288 0.
0.521972 0.0810273 0.
0.523973 0.0810254 0.
0.525973 0.0810234 0.
0.527974 0.0810216 0.
0.529975 0.0810211 0.
0.531975 0.0810206 0.
0.533976 0.0810199 0.
0.535976 0.0810188 0.
0.537977 0.0810176 0.
0.539978 0.0810164 0.
0.541978 0.0810153 0.
0.543978 0.0810142 0.
0.545979 0.0810131 0.
0.54798 0.081012 0.
0.549981 0.0810109 0.
0.551982 0.08101 0.
0.553984 0.081009 0.
0.555984 0.081008 0.
0.557985 0.0810068 0.
0.559985 0.0810056 0.
0.561986 0.0810044 0.
0.563987 0.081003 0.
0.565987 0.0810016 0.
0.567988 0.0810002 0.
0.569988 0.0809989 0.
0.571989 0.0809976 0.
0.57399 0.080997 0.
0.575991 0.0809965 0.
0.577991 0.080996 0.
0.579992 0.0809958 0.
0.581992 0.0809955 0.
0.583992 0.0809951 0.
0.585993 0.0809947 0.
0.587994 0.0809942 0.
0.589994 0.0809935 0.
0.591995 0.0809926 0.
0.593996 0.0809918 0.
0.595997 0.0809917 0.
0.597998 0.080992 0.
0.599999 0.0809922 0.
0.602 0.0809929 0.
0.604 0.0809936 0.
0.606001 0.0809942 0.
0.608002 0.0809944 0.
0.610002 0.0809947 0.
0.612003 0.0809948 0.
0.614003 0.0809949 0.
0.616004 0.080995 0.
0.618005 0.0809955 0.
0.620006 0.0809963 0.
0.622007 0.080997 0.
0.624008 0.0809979 0.
0.626008 0.0809989 0.
0.628009 0.0809999 0.
0.63001 0.0810017 0.
0.632011 0.0810034 0.
0.634011 0.0810049 0.
0.636011 0.0810059 0.
0.638012 0.081007 0.
0.640012 0.0810077 0.
0.642014 0.0810081 0.
0.644015 0.0810085 0.
0.646015 0.0810091 0.
0.648016 0.0810099 0.
0.650017 0.0810107 0.
0.652018 0.0810117 0.
0.654018 0.0810127 0.
0.656019 0.0810138 0.
0.65802 0.0810153 0.
0.660021 0.0810169 0.
0.662021 0.0810183 0.
0.664022 0.0810196 0.
0.666023 0.0810209 0.
0.668023 0.0810227 0.
0.670024 0.0810247 0.
0.672025 0.0810268 0.
0.674026 0.0810279 0.
0.676027 0.081029 0.
0.678027 0.08103 0.
0.680027 0.0810313 0.
0.682027 0.0810326 0.
0.684027 0.081034 0.
0.686028 0.0810357 0.
0.688028 0.0810374 0.
0.690028 0.0810391 0.
0.692028 0.0810408 0.
0.694028 0.0810426 0.
0.696029 0.0810446 0.
0.698029 0.0810468 0.
0.499971 0.0830438 0.
0.501971 0.0830418 0.
0.503972 0.0830397 0.
0.505972 0.0830377 0.
0.507972 0.0830365 0.
0.509973 0.0830353 0.
0.511973 0.0830341 0.
0.513973 0.0830329 0.
0.515974 0.0830318 0.
0.517974 0.0830304 0.
0.519974 0.083029 0.
0.521975 0.0830276 0.
0.523975 0.0830257 0.
0.525975 0.0830236 0.
0.527976 0.0830217 0.
0.529977 0.0830213 0.
0.531977 0.0830209 0.
0.533978 0.0830202 0.
0.535978 0.0830188 0.
0.537979 0.0830174 0.
0.539979 0.0830162 0.
0.54198 0.0830151 0.
0.54398 0.0830139 0.
0.545981 0.0830129 0.
0.547982 0.0830119 0.
0.549982 0.083011 0.
0.551983 0.0830097 0.
0.553984 0.0830084 0.
0.555985 0.0830072 0.
0.557986 0.0830062 0.
0.559986 0.0830053 0.
0.561987 0.0830042 0.
0.563987 0.0830029 0.
0.565988 0.0830016 0.
0.567989 0.0830004 0.
0.569989 0.0829992 0.
0.57199 0.082998 0.
0.57399 0.0829971 0.
0.575991 0.0829963 0.
0.577991 0.0829956 0.
0.579992 0.0829952 0.
0.581992 0.0829949 0.
0.583993 0.0829945 0.
0.585993 0.0829941 0.
0.587994 0.0829937 0.
0.589995 0.0829932 0.
0.591995 0.0829927 0.
0.593996 0.0829922 0.
0.595996 0.0829921 0.
0.597997 0.082992 0.
0.599998 0.082992 0.
0.601999 0.0829927 0.
0.604 0.0829933 0.
0.606001 0.0829939 0.
0.608002 0.0829943 0.
0.610002 0.0829947 0.
0.612003 0.0829948 0.
0.614003 0.0829945 0.
0.616004 0.0829943 0.
0.618004 0.082995 0.
0.620005 0.082996 0.
0.622006 0.082997 0.
0.624007 0.0829981 0.
0.626008 0.0829991 0.
0.628009 0.0830003 0.
0.630009 0.0830019 0.
0.632009 0.0830036 0.
0.634009 0.0830049 0.
0.63601 0.0830056 0.
0.638011 0.0830063 0.
0.640012 0.0830068 0.
0.642013 0.0830071 0.
0.644014 0.0830074 0.
0.646015 0.0830084 0.
0.648015 0.0830097 0.
0.650016 0.0830109 0.
0.652016 0.0830119 0.
0.654017 0.083013 0.
0.656018 0.083014 0.
0.658019 0.0830152 0.
0.660019 0.0830164 0.
0.66202 0.0830177 0.
0.664021 0.0830192 0.
0.666021 0.0830207 0.
0.668022 0.0830224 0.
0.670023 0.0830242 0.
0.672024 0.083026 0.
0.674025 0.0830274 0.
0.676025 0.0830288 0.
0.678026 0.0830301 0.
0.680026 0.0830315 0.
0.682026 0.0830328 0.
0.684026 0.0830342 0.
0.686026 0.0830356 0.
0.688026 0.0830371 0.
0.690026 0.0830388 0.
0.692026 0.0830409 0.
0.694027 0.0830429 0.
0.696027 0.0830445 0.
0.698028 0.0830461 0.
0.499972 0.0850441 0.
0.501973 0.0850419 0.
0.503973 0.0850394 0.
0.505974 0.0850372 0.
0.507974 0.085036 0.
0.509975 0.0850348 0.
0.511976 0.0850337 0.
0.513976 0.0850328 0.
0.515976 0.0850318 0.
0.517977 0.0850306 0.
0.519977 0.0850292 0.
0.521977 0.0850279 0.
0.523977 0.0850259 0.
0.525978 0.0850239 0.
0.527978 0.0850219 0.
0.529979 0.0850215 0.
0.531979 0.0850212 0.
0.53398 0.0850204 0.
0.53598 0.0850189 0.
0.537981 0.0850173 0.
0.539981 0.0850159 0.
0.541982 0.0850148 0.
0.543982 0.0850136 0.
0.545983 0.0850127 0.
0.547983 0.0850118 0.
0.549983 0.085011 0.
0.551984 0.0850094 0.
0.553985 0.0850078 0.
0.555985 0.0850064 0.
0.557986 0.0850056 0.
0.559987 0.0850049 0.
0.561988 0.085004 0.
0.563988 0.0850028 0.
0.565989 0.0850017 0.
0.567989 0.0850005 0.
0.56999 0.0849994 0.
0.57199 0.0849983 0.
0.573991 0.0849973 0.
0.575991 0.0849961 0.
0.577991 0.0849951 0.
0.579992 0.0849947 0.
0.581993 0.0849943 0.
0.583993 0.0849939 0.
0.585994 0.0849935 0.
0.587994 0.0849931 0.
0.589995 0.0849929 0.
0.591995 0.0849928 0.
0.593996 0.0849927 0.
0.595996 0.0849925 0.
0.597997 0.0849921 0.
0.599997 0.0849918 0.
0.601998 0.0849924 0.
0.604 0.0849931 0.
0.606001 0.0849937 0.
0.608002 0.0849942 0.
0.610003 0.0849947 0.
0.612003 0.0849947 0.
0.614003 0.0849942 0.
0.616003 0.0849936 0.
0.618004 0.0849944 0.
0.620004 0.0849957 0.
0.622005 0.0849971 0.
0.624006 0.0849982 0.
0.626008 0.0849994 0.
0.628009 0.0850006 0.
0.630008 0.0850022 0.
0.632008 0.0850038 0.
0.634008 0.085005 0.
0.636009 0.0850053 0.
0.63801 0.0850057 0.
0.640011 0.085006 0.
0.642012 0.0850062 0.
0.644013 0.0850064 0.
0.646014 0.0850077 0.
0.648014 0.0850094 0.
0.650015 0.085011 0.
0.652015 0.0850121 0.
0.654016 0.0850133 0.
0.656016 0.0850143 0.
0.658017 0.0850151 0.
0.660018 0.0850159 0.
0.662019 0.0850171 0.
0.664019 0.0850188 0.
0.666019 0.0850205 0.
0.66802 0.0850221 0.
0.670021 0.0850236 0.
0.672022 0.0850252 0.
0.674023 0.0850268 0.
0.676024 0.0850286 0.
0.678024 0.0850302 0.
0.680024 0.0850316 0.
0.682024 0.0850329 0.
0.684024 0.0850343 0.
0.686024 0.0850355 0.
0.688024 0.0850368 0.
0.690024 0.0850386 0.
0.692025 0.0850409 0.
0.694025 0.0850432 0.
0.696026 0.0850444 0.
0.698028 0.0850454 0.
0.499974 0.0870437 0.
0.501975 0.0870418 0.
0.503975 0.0870395 0.
0.505976 0.0870375 0.
0.507976 0.0870364 0.
0.509977 0.0870352 0.
0.511977 0.087034 0.
0.513977 0.0870326 0.
0.515978 0.0870312 0.
0.517978 0.0870299 0.
0.519978 0.0870288 0.
0.521979 0.0870276 0.
0.523979 0.087026 0.
0.525979 0.0870242 0.
0.527979 0.0870225 0.
0.52998 0.0870216 0.
0.53198 0.0870206 0.
0.533981 0.0870195 0.
0.535981 0.0870182 0.
0.537982 0.0870169 0.
0.539982 0.0870155 0.
0.541983 0.0870141 0.
0.543984 0.0870126 0.
0.545984 0.0870119 0.
0.547984 0.0870114 0.
0.549984 0.0870108 0.
0.551985 0.0870092 0.
0.553985 0.0870075 0.
0.555986 0.087006 0.
0.557987 0.0870053 0.
0.559988 0.0870046 0.
0.561989 0.0870037 0.
0.563989 0.0870026 0.
0.56599 0.0870015 0.
0.56799 0.0870004 0.
0.569991 0.0869993 0.
0.571991 0.0869983 0.
0.573992 0.0869972 0.
0.575992 0.0869961 0.
0.577992 0.0869951 0.
0.579993 0.0869945 0.
0.581993 0.0869939 0.
0.583994 0.0869933 0.
0.585994 0.0869928 0.
0.587995 0.0869923 0.
0.589995 0.0869921 0.
0.591996 0.0869919 0.
0.593996 0.0869918 0.
0.595997 0.0869918 0.
0.597997 0.0869917 0.
0.599998 0.0869916 0.
0.601999 0.0869923 0.
0.604 0.0869929 0.
0.606 0.0869935 0.
0.608001 0.0869939 0.
0.610002 0.0869943 0.
0.612002 0.0869945 0.
0.614003 0.0869942 0.
0.616003 0.086994 0.
0.618003 0.0869946 0.
0.620004 0.0869957 0.
0.622004 0.0869967 0.
0.624005 0.0869978 0.
0.626006 0.0869989 0.
0.628007 0.087 0.
0.630007 0.0870015 0.
0.632007 0.0870031 0.
0.634007 0.0870042 0.
0.636008 0.0870046 0.
0.63801 0.087005 0.
0.64001 0.0870053 0.
0.642011 0.0870057 0.
0.644012 0.0870061 0.
0.646013 0.0870075 0.
0.648014 0.0870092 0.
0.650014 0.087011 0.
0.652014 0.0870121 0.
0.654015 0.0870132 0.
0.656015 0.0870142 0.
0.658016 0.087015 0.
0.660017 0.0870158 0.
0.662017 0.087017 0.
0.664017 0.0870187 0.
0.666018 0.0870203 0.
0.668019 0.0870219 0.
0.67002 0.0870234 0.
0.67202 0.087025 0.
0.674021 0.0870269 0.
0.676022 0.0870288 0.
0.678022 0.0870306 0.
0.680022 0.0870317 0.
0.682022 0.0870328 0.
0.684022 0.0870341 0.
0.686022 0.0870357 0.
0.688022 0.0870373 0.
0.690022 0.087039 0.
0.692023 0.0870408 0.
0.694023 0.0870426 0.
0.696024 0.0870438 0.
0.698024 0.0870449 0.
0.499976 0.0890438 0.
0.501977 0.0890416 0.
0.503977 0.0890397 0.
0.505978 0.0890379 0.
0.507978 0.0890368 0.
0.509978 0.0890357 0.
0.511978 0.0890343 0.
0.513979 0.0890324 0.
0.515979 0.0890305 0.
0.517979 0.0890292 0.
0.51998 0.0890283 0.
0.52198 0.0890273 0.
0.52398 0.089026 0.
0.52598 0.0890246 0.
0.527981 0.0890231 0.
0.529981 0.0890216 0.
0.531981 0.08902 0.
0.533982 0.0890186 0.
0.535982 0.0890175 0.
0.537983 0.0890165 0.
0.539984 0.0890151 0.
0.541984 0.0890134 0.
0.543985 0.0890117 0.
0.545985 0.0890111 0.
0.547985 0.0890109 0.
0.549985 0.0890107 0.
0.551986 0.089009 0.
0.553986 0.0890072 0.
0.555987 0.0890057 0.
0.557988 0.089005 0.
0.559989 0.0890042 0.
0.561989 0.0890034 0.
0.56399 0.0890023 0.
0.56599 0.0890013 0.
0.567991 0.0890002 0.
0.569992 0.0889992 0.
0.571992 0.0889982 0.
0.573993 0.0889971 0.
0.575993 0.0889961 0.
0.577993 0.088995 0.
0.579993 0.0889943 0.
0.581994 0.0889935 0.
0.583994 0.0889928 0.
0.585994 0.0889922 0.
0.587995 0.0889916 0.
0.589995 0.0889912 0.
0.591996 0.0889911 0.
0.593996 0.0889909 0.
0.595997 0.0889911 0.
0.597998 0.0889913 0.
0.599999 0.0889915 0.
0.601999 0.0889921 0.
0.604 0.0889927 0.
0.606 0.0889932 0.
0.608001 0.0889936 0.
0.610001 0.088994 0.
0.612002 0.0889942 0.
0.614002 0.0889943 0.
0.616003 0.0889943 0.
0.618003 0.0889949 0.
0.620004 0.0889956 0.
0.622004 0.0889964 0.
0.624004 0.0889974 0.
0.626005 0.0889984 0.
0.628006 0.0889995 0.
0.630006 0.0890009 0.
0.632007 0.0890023 0.
0.634007 0.0890034 0.
0.636008 0.0890038 0.
0.638009 0.0890042 0.
0.640009 0.0890047 0.
0.64201 0.0890052 0.
0.644011 0.0890058 0.
0.646012 0.0890073 0.
0.648013 0.0890091 0.
0.650014 0.0890109 0.
0.652014 0.089012 0.
0.654014 0.0890131 0.
0.656014 0.0890141 0.
0.658014 0.0890149 0.
0.660015 0.0890158 0.
0.662015 0.089017 0.
0.664016 0.0890186 0.
0.666016 0.0890202 0.
0.668017 0.0890217 0.
0.670018 0.0890233 0.
0.672019 0.0890248 0.
0.674019 0.0890269 0.
0.67602 0.089029 0.
0.67802 0.089031 0.
0.68002 0.0890318 0.
0.68202 0.0890326 0.
0.68402 0.0890338 0.
0.68602 0.0890358 0.
0.68802 0.0890378 0.
0.690021 0.0890394 0.
0.692021 0.0890407 0.
0.694021 0.089042 0.
0.696021 0.0890432 0.
0.698021 0.0890445 0.
0.499978 0.0910433 0.
0.501979 0.0910417 0.
0.503979 0.09104 0.
0.505979 0.0910385 0.
0.507979 0.091037 0.
0.509979 0.0910356 0.
0.51198 0.091034 0.
0.51398 0.0910319 0.
0.515981 0.0910299 0.
0.517981 0.0910287 0.
0.519981 0.0910278 0.
0.521982 0.0910269 0.
0.523982 0.0910259 0.
0.525982 0.0910247 0.
0.527982 0.0910235 0.
0.529983 0.0910216 0.
0.531983 0.0910198 0.
0.533983 0.0910181 0.
0.535984 0.091017 0.
0.537985 0.0910158 0.
0.539985 0.0910145 0.
0.541986 0.0910129 0.
0.543987 0.0910114 0.
0.545987 0.0910108 0.
0.547986 0.0910105 0.
0.549986 0.0910102 0.
0.551987 0.0910086 0.
0.553988 0.091007 0.
0.555988 0.0910055 0.
0.557989 0.0910047 0.
0.55999 0.091004 0.
0.56199 0.0910031 0.
0.563991 0.091002 0.
0.565991 0.091001 0.
0.567992 0.0910001 0.
0.569992 0.0909992 0.
0.571993 0.0909984 0.
0.573994 0.0909972 0.
0.575994 0.090996 0.
0.577994 0.0909949 0.
0.579994 0.090994 0.
0.581994 0.0909931 0.
0.583994 0.0909923 0.
0.585995 0.0909916 0.
0.587995 0.090991 0.
0.589995 0.0909906 0.
0.591996 0.0909904 0.
0.593996 0.0909902 0.
0.595997 0.0909905 0.
0.597998 0.0909909 0.
0.599999 0.0909913 0.
0.602 0.0909919 0.
0.604 0.0909925 0.
0.606 0.090993 0.
0.608 0.0909933 0.
0.610001 0.0909935 0.
0.612001 0.0909939 0.
0.614002 0.0909942 0.
0.616003 0.0909946 0.
0.618003 0.0909951 0.
0.620003 0.0909957 0.
0.622003 0.0909963 0.
0.624004 0.0909973 0.
0.626004 0.0909984 0.
0.628004 0.0909995 0.
0.630005 0.0910007 0.
0.632006 0.0910019 0.
0.634006 0.0910029 0.
0.636007 0.0910033 0.
0.638007 0.0910038 0.
0.640008 0.0910044 0.
0.642009 0.0910049 0.
0.64401 0.0910055 0.
0.646011 0.091007 0.
0.648011 0.0910088 0.
0.650012 0.0910106 0.
0.652012 0.0910117 0.
0.654012 0.0910128 0.
0.656012 0.0910139 0.
0.658013 0.0910149 0.
0.660013 0.0910159 0.
0.662014 0.0910171 0.
0.664014 0.0910186 0.
0.666015 0.0910201 0.
0.668016 0.0910216 0.
0.670016 0.0910232 0.
0.672017 0.0910248 0.
0.674017 0.0910269 0.
0.676018 0.091029 0.
0.678018 0.091031 0.
0.680018 0.0910318 0.
0.682018 0.0910326 0.
0.684018 0.0910338 0.
0.686018 0.0910358 0.
0.688019 0.0910377 0.
0.690019 0.0910393 0.
0.692019 0.0910404 0.
0.694019 0.0910416 0.
0.696019 0.091043 0.
0.698019 0.0910446 0.
0.499981 0.0930433 0.
0.50198 0.0930418 0.
0.50398 0.0930406 0.
0.50598 0.0930392 0.
0.507981 0.0930371 0.
0.509981 0.093035 0.
0.511982 0.0930331 0.
0.513982 0.0930313 0.
0.515982 0.0930295 0.
0.517983 0.0930282 0.
0.519983 0.0930273 0.
0.521983 0.0930264 0.
0.523984 0.0930255 0.
0.525984 0.0930246 0.
0.527984 0.0930237 0.
0.529985 0.0930218 0.
0.531985 0.0930199 0.
0.533985 0.0930182 0.
0.535986 0.0930166 0.
0.537986 0.093015 0.
0.539987 0.0930138 0.
0.541988 0.0930128 0.
0.543989 0.0930118 0.
0.545988 0.093011 0.
0.547988 0.0930102 0.
0.549988 0.0930094 0.
0.551988 0.0930081 0.
0.553989 0.0930067 0.
0.555989 0.0930054 0.
0.55799 0.0930046 0.
0.559991 0.0930038 0.
0.561991 0.0930028 0.
0.563991 0.0930017 0.
0.565992 0.0930006 0.
0.567992 0.0929999 0.
0.569993 0.0929994 0.
0.571994 0.0929989 0.
0.573994 0.0929975 0.
0.575995 0.092996 0.
0.577995 0.0929946 0.
0.579995 0.0929936 0.
0.581995 0.0929926 0.
0.583995 0.0929917 0.
0.585995 0.0929911 0.
0.587995 0.0929904 0.
0.589995 0.09299 0.
0.591996 0.0929899 0.
0.593996 0.0929898 0.
0.595997 0.0929902 0.
0.597998 0.0929907 0.
0.599999 0.0929912 0.
0.601999 0.0929918 0.
0.603999 0.0929925 0.
0.605999 0.092993 0.
0.608 0.092993 0.
0.610001 0.092993 0.
0.612001 0.0929934 0.
0.614001 0.0929941 0.
0.616002 0.0929948 0.
0.618002 0.0929954 0.
0.620002 0.092996 0.
0.622003 0.0929965 0.
0.624003 0.0929977 0.
0.626003 0.092999 0.
0.628004 0.0930003 0.
0.630004 0.0930011 0.
0.632005 0.0930019 0.
0.634005 0.0930026 0.
0.636005 0.0930032 0.
0.638006 0.0930038 0.
0.640006 0.0930043 0.
0.642007 0.0930047 0.
0.644008 0.0930052 0.
0.646008 0.0930065 0.
0.648008 0.0930082 0.
0.650009 0.0930099 0.
0.65201 0.0930111 0.
0.654011 0.0930123 0.
0.656011 0.0930135 0.
0.658012 0.0930148 0.
0.660012 0.0930161 0.
0.662012 0.0930174 0.
0.664013 0.0930187 0.
0.666013 0.0930201 0.
0.668014 0.0930216 0.
0.670015 0.0930234 0.
0.672015 0.0930251 0.
0.674016 0.0930269 0.
0.676016 0.0930287 0.
0.678017 0.0930304 0.
0.680017 0.0930316 0.
0.682016 0.0930327 0.
0.684017 0.093034 0.
0.686017 0.0930355 0.
0.688017 0.0930371 0.
0.690017 0.0930386 0.
0.692017 0.0930399 0.
0.694017 0.0930413 0.
0.696017 0.0930432 0.
0.698017 0.0930452 0.
0.499983 0.0950427 0.
0.501982 0.095042 0.
0.503982 0.0950412 0.
0.505981 0.09504 0.
0.507982 0.0950373 0.
0.509983 0.0950345 0.
0.511983 0.0950322 0.
0.513984 0.0950306 0.
0.515984 0.095029 0.
0.517985 0.0950278 0.
0.519985 0.0950268 0.
0.521985 0.0950259 0.
0.523986 0.0950252 0.
0.525986 0.0950245 0.
0.527987 0.0950238 0.
0.529987 0.0950219 0.
0.531987 0.0950201 0.
0.533987 0.0950182 0.
0.535987 0.0950162 0.
0.537988 0.0950142 0.
0.539989 0.095013 0.
0.541989 0.0950126 0.
0.54399 0.0950121 0.
0.54599 0.0950111 0.
0.54799 0.0950099 0.
0.54999 0.0950087 0.
0.55199 0.0950075 0.
0.55399 0.0950064 0.
0.555991 0.0950053 0.
0.557991 0.0950044 0.
0.559992 0.0950036 0.
0.561992 0.0950026 0.
0.563992 0.0950014 0.
0.565992 0.0950002 0.
0.567993 0.0949997 0.
0.569994 0.0949995 0.
0.571994 0.0949994 0.
0.573995 0.0949978 0.
0.575995 0.094996 0.
0.577996 0.0949943 0.
0.579996 0.0949933 0.
0.581996 0.0949922 0.
0.583995 0.0949912 0.
0.585995 0.0949905 0.
0.587995 0.0949898 0.
0.589995 0.0949894 0.
0.591995 0.0949894 0.
0.593996 0.0949893 0.
0.595997 0.0949898 0.
0.597998 0.0949905 0.
0.599999 0.0949911 0.
0.601999 0.0949918 0.
0.603999 0.0949924 0.
0.605999 0.0949929 0.
0.608 0.0949927 0.
0.61 0.0949925 0.
0.612001 0.0949929 0.
0.614001 0.094994 0.
0.616001 0.094995 0.
0.618001 0.0949957 0.
0.620002 0.0949962 0.
0.622003 0.0949967 0.
0.624003 0.0949981 0.
0.626003 0.0949996 0.
0.628003 0.095001 0.
0.630004 0.0950015 0.
0.632004 0.0950019 0.
0.634004 0.0950024 0.
0.636004 0.095003 0.
0.638004 0.0950037 0.
0.640004 0.0950042 0.
0.642005 0.0950045 0.
0.644005 0.0950049 0.
0.646006 0.0950061 0.
0.648006 0.0950077 0.
0.650006 0.0950092 0.
0.652007 0.0950105 0.
0.654009 0.0950118 0.
0.65601 0.0950131 0.
0.65801 0.0950147 0.
0.66001 0.0950163 0.
0.662011 0.0950177 0.
0.664011 0.0950189 0.
0.666012 0.09502 0.
0.668012 0.0950216 0.
0.670013 0.0950235 0.
0.672013 0.0950253 0.
0.674014 0.0950269 0.
0.676014 0.0950284 0.
0.678015 0.0950299 0.
0.680015 0.0950314 0.
0.682015 0.0950328 0.
0.684015 0.0950341 0.
0.686016 0.0950353 0.
0.688016 0.0950365 0.
0.690016 0.0950379 0.
0.692016 0.0950395 0.
0.694016 0.0950411 0.
0.696016 0.0950433 0.
0.698016 0.0950458 0.
0.499984 0.0970421 0.
0.501984 0.0970416 0.
0.503984 0.097041 0.
0.505984 0.0970398 0.
0.507984 0.0970371 0.
0.509985 0.0970344 0.
0.511985 0.0970322 0.
0.513985 0.0970306 0.
0.515986 0.0970291 0.
0.517986 0.0970279 0.
0.519986 0.0970269 0.
0.521986 0.097026 0.
0.523987 0.097025 0.
0.525988 0.097024 0.
0.527988 0.097023 0.
0.529988 0.0970213 0.
0.531988 0.0970196 0.
0.533989 0.0970178 0.
0.535989 0.0970158 0.
0.537989 0.0970138 0.
0.53999 0.0970126 0.
0.54199 0.0970121 0.
0.54399 0.0970116 0.
0.54599 0.0970111 0.
0.54799 0.0970106 0.
0.549991 0.09701 0.
0.551991 0.0970084 0.
0.553991 0.0970067 0.
0.555992 0.0970051 0.
0.557992 0.0970043 0.
0.559992 0.0970034 0.
0.561993 0.0970025 0.
0.563993 0.0970014 0.
0.565994 0.0970003 0.
0.567994 0.0969996 0.
0.569995 0.0969991 0.
0.571996 0.0969985 0.
0.573996 0.0969972 0.
0.575996 0.0969958 0.
0.577996 0.0969944 0.
0.579996 0.0969933 0.
0.581996 0.0969921 0.
0.583996 0.0969911 0.
0.585996 0.0969905 0.
0.587996 0.0969898 0.
0.589996 0.0969895 0.
0.591996 0.0969894 0.
0.593996 0.0969893 0.
0.595997 0.0969898 0.
0.597998 0.0969904 0.
0.599999 0.0969911 0.
0.601999 0.0969917 0.
0.603999 0.0969923 0.
0.606 0.0969927 0.
0.608 0.0969925 0.
0.61 0.0969923 0.
0.612 0.0969926 0.
0.614 0.0969936 0.
0.615999 0.0969945 0.
0.618 0.0969953 0.
0.62 0.0969958 0.
0.622001 0.0969964 0.
0.624001 0.0969975 0.
0.626002 0.0969987 0.
0.628002 0.0969999 0.
0.630003 0.097001 0.
0.632003 0.0970021 0.
0.634003 0.097003 0.
0.636003 0.0970033 0.
0.638004 0.0970036 0.
0.640004 0.0970041 0.
0.642004 0.0970046 0.
0.644005 0.097005 0.
0.646005 0.0970062 0.
0.648005 0.0970075 0.
0.650006 0.0970088 0.
0.652007 0.0970103 0.
0.654008 0.0970118 0.
0.656008 0.0970132 0.
0.658009 0.0970144 0.
0.660009 0.0970156 0.
0.662009 0.0970168 0.
0.66401 0.0970182 0.
0.66601 0.0970195 0.
0.668011 0.0970213 0.
0.670012 0.0970233 0.
0.672012 0.0970253 0.
0.674013 0.0970268 0.
0.676013 0.0970282 0.
0.678014 0.0970296 0.
0.680014 0.0970311 0.
0.682014 0.0970326 0.
0.684014 0.0970341 0.
0.686014 0.0970356 0.
0.688014 0.0970371 0.
0.690014 0.0970385 0.
0.692014 0.0970396 0.
0.694014 0.0970407 0.
0.696013 0.0970431 0.
0.698013 0.0970459 0.
0.499984 0.0990421 0.
0.501985 0.0990413 0.
0.503986 0.0990407 0.
0.505987 0.0990396 0.
0.507987 0.099037 0.
0.509986 0.0990343 0.
0.511986 0.0990321 0.
0.513987 0.0990306 0.
0.515987 0.0990291 0.
0.517987 0.099028 0.
0.519987 0.099027 0.
0.521987 0.099026 0.
0.523988 0.0990248 0.
0.525989 0.0990235 0.
0.52799 0.0990221 0.
0.52999 0.0990207 0.
0.53199 0.0990192 0.
0.53399 0.0990175 0.
0.53599 0.0990154 0.
0.537991 0.0990133 0.
0.539991 0.0990121 0.
0.54199 0.0990116 0.
0.54399 0.0990111 0.
0.54599 0.0990111 0.
0.547991 0.0990113 0.
0.549992 0.0990114 0.
0.551992 0.0990092 0.
0.553992 0.099007 0.
0.555993 0.099005 0.
0.557993 0.0990042 0.
0.559993 0.0990033 0.
0.561994 0.0990024 0.
0.563994 0.0990014 0.
0.565995 0.0990003 0.
0.567996 0.0989994 0.
0.569996 0.0989986 0.
0.571997 0.0989977 0.
0.573997 0.0989967 0.
0.575997 0.0989956 0.
0.577997 0.0989945 0.
0.579996 0.0989933 0.
0.581996 0.098992 0.
0.583996 0.098991 0.
0.585996 0.0989904 0.
0.587997 0.0989898 0.
0.589996 0.0989895 0.
0.591996 0.0989894 0.
0.593996 0.0989893 0.
0.595997 0.0989898 0.
0.597998 0.0989904 0.
0.599999 0.098991 0.
0.602 0.0989916 0.
0.604 0.0989921 0.
0.606001 0.0989925 0.
0.608 0.0989923 0.
0.61 0.0989921 0.
0.612 0.0989923 0.
0.613999 0.0989932 0.
0.615998 0.0989941 0.
0.617998 0.0989948 0.
0.619998 0.0989954 0.
0.621999 0.098996 0.
0.624 0.0989969 0.
0.626001 0.0989977 0.
0.628002 0.0989987 0.
0.630002 0.0990005 0.
0.632001 0.0990023 0.
0.634002 0.0990035 0.
0.636003 0.0990036 0.
0.638004 0.0990036 0.
0.640004 0.099004 0.
0.642004 0.0990046 0.
0.644004 0.0990052 0.
0.646004 0.0990062 0.
0.648005 0.0990073 0.
0.650006 0.0990084 0.
0.652006 0.0990101 0.
0.654006 0.0990118 0.
0.656007 0.0990133 0.
0.658007 0.0990141 0.
0.660007 0.0990149 0.
0.662007 0.099016 0.
0.664008 0.0990175 0.
0.666009 0.099019 0.
0.668009 0.0990209 0.
0.67001 0.0990231 0.
0.672011 0.0990253 0.
0.674011 0.0990267 0.
0.676012 0.099028 0.
0.678013 0.0990293 0.
0.680013 0.0990309 0.
0.682013 0.0990324 0.
0.684013 0.0990341 0.
0.686013 0.0990359 0.
0.688013 0.0990378 0.
0.690013 0.099039 0.
0.692012 0.0990397 0.
0.694011 0.0990404 0.
0.696011 0.0990429 0.
0.69801 0.0990459 0.
CELLS 5000 10000
1 0
1 1
1 2
1 3
1 4
1 5
1 6
1 7
1 8
1 9
1 10
1 11
1 12
1 13
1 14
1 15
1 16
1 17
1 18
1 19
1 20
1 21
1 22
1 23
1 24
1 25
1 26
1 27
1 28
1 29
1 30
1 31
1 32
1 33
1 34
1 35
1 36
1 37
1 38
1 39
1 40
1 41
1 42
1 43
1 44
1 45
1 46
1 47
1 48
1 49
1 50
1 51
1 52
1 53
1 54
1 55
1 56
1 57
1 58
1 59
1 60
1 61
1 62
1 63
1 64
1 65
1 66
1 67
1 68
1 69
1 70
1 71
1 72
1 73
1 74
1 75
1 76
1 77
1 78
1 79
1 80
1 81
1 82
1 83
1 84
1 85
1 86
1 87
1 88
1 89
1 90
1 91
1 92
1 93
1 94
1 95
1 96
1 97
1 98
1 99
1 100
1 101
1 102
1 103
1 104
1 105
1 106
1 107
1 108
1 109
1 110
1 111
1 112
1 113
1 114
1 115
1 116
1 117
1 118
1 119
1 120
1 121
1 122
1 123
1 124
1 125
1 126
1 127
1 128
1 129
1 130
1 131
1 132
1 133
1 134
1 135
1 136
1 137
1 138
1 139
1 140
1 141
1 142
1 143
1 144
1 145
1 146
1 147
1 148
1 149
1 150
1 151
1 152
1 153
1 154
1 155
1 156
1 157
1 158
1 159
1 160
1 161
1 162
1 163
1 164
1 165
1 166
1 167
1 168
1 169
1 170
1 171
1 172
1 173
1 174
1 175
1 176
1 177
1 178
1 179
1 180
1 181
1 182
1 183
1 184
1 185
1 186
1 187
1 188
1 189
1 190
1 191
1 192
1 193
1 194
1 195
1 196
1 197
1 198
1 199
1 200
1 201
1 202
1 203
1 204
1 205
1 206
1 207
1 208
1 209
1 210
1 211
1 212
1 213
1 214
1 215
1 216
1 217
1 218
1 219
1 220
1 221
1 222
1 223
1 224
1 225
1 226
1 227
1 228
1 229
1 230
1 231
1 232
1 233
1 234
1 235
1 236
1 237
1 238
1 239
1 240
1 241
1 242
1 243
1 244
1 245
1 246
1 247
1 248
1 249
1 250
1 251
1 252
1 253
1 254
1 255
1 256
1 257
1 258
1 259
1 260
1 261
1 262
1 263
1 264
1 265
1 266
1 267
1 268
1 269
1 270
1 271
1 272
1 273
1 274
1 275
1 276
1 277
1 278
1 279
1 280
1 281
1 282
1 283
1 284
1 285
1 286
1 287
1 288
1 289
1 290
1 291
1 292
1 293
1 294
1 295
1 296
1 297
1 298
1 299
1 300
1 301
1 302
1 303
1 304
1 305
1 306
1 307
1 308
1 309
1 310
1 311
1 312
1 313
1 314
1 315
1 316
1 317
1 318
1 319
1 320
1 321
1 322
1 323
1 324
1 325
1 326
1 327
1 328
1 329
1 330
1 331
1 332
1 333
1 334
1 335
1 336
1 337
1 338
1 339
1 340
1 341
1 342
1 343
1 344
1 345
1 346
1 347
1 348
1 349
1 350
1 351
1 352
1 353
1 354
1 355
1 356
1 357
1 358
1 359
1 360
1 361
1 362
1 363
1 364
1 365
1 366
1 367
1 368
1 369
1 370
1 371
1 372
1 373
1 374
1 375
1 376
1 377
1 378
1 379
1 380
1 381
1 382
1 383
1 384
1 385
1 386
1 387
1 388
1 389
1 390
1 391
1 392
1 393
1 394
1 395
1 396
1 397
1 398
1 399
1 400
1 401
1 402
1 403
1 404
1 405
1 406
1 407
1 408
1 409
1 410
1 411
1 412
1 413
1 414
1 415
1 416
1 417
1 418
1 419
1 420
1 421
1 422
1 423
1 424
1 425
1 426
1 427
1 428
1 429
1 430
1 431
1 432
1 433
1 434
1 435
1 436
1 437
1 438
1 439
1 440
1 441
1 442
1 443
1 444
1 445
1 446
1 447
1 448
1 449
1 450
1 451
1 452
1 453
1 454
1 455
1 456
1 457
1 458
1 459
1 460
1 461
1 462
1 463
1 464
1 465
1 466
1 467
1 468
1 469
1 470
1 471
1 472
1 473
1 474
1 475
1 476
1 477
1 478
1 479
1 480
1 481
1 482
1 483
1 484
1 485
1 486
1 487
1 488
1 489
1 490
1 491
1 492
1 493
1 494
1 495
1 496
1 497
1 498
1 499
1 500
1 501
1 502
1 503
1 504
1 505
1 506
1 507
1 508
1 509
1 510
1 511
1 512
1 513
1 514
1 515
1 516
1 517
1 518
1 519
1 520
1 521
1 522
1 523
1 524
1 525
1 526
1 527
1 528
1 529
1 530
1 531
1 532
1 533
1 534
1 535
1 536
1 537
1 538
1 539
1 540
1 541
1 542
1 543
1 544
1 545
1 546
1 547
1 548
1 549
1 550
1 551
1 552
1 553
1 554
1 555
1 556
1 557
1 558
1 559
1 560
1 561
1 562
1 563
1 564
1 565
1 566
1 567
1 568
1 569
1 570
1 571
1 572
1 573
1 574
1 575
1 576
1 577
1 578
1 579
1 580
1 581
1 582
1 583
1 584
1 585
1 586
1 587
1 588
1 589
1 590
1 591
1 592
1 593
1 594
1 595
1 596
1 597
1 598
1 599
1 600
1 601
1 602
1 603
1 604
1 605
1 606
1 607
1 608
1 609
1 610
1 611
1 612
1 613
1 614
1 615
1 616
1 617
1 618
1 619
1 620
1 621
1 622
1 623
1 624
1 625
1 626
1 627
1 628
1 629
1 630
1 631
1 632
1 633
1 634
1 635
1 636
1 637
1 638
1 639
1 640
1 641
1 642
1 643
1 644
1 645
1 646
1 647
1 648
1 649
1 650
1 651
1 652
1 653
1 654
1 655
1 656
1 657
1 658
1 659
1 660
1 661
1 662
1 663
1 664
1 665
1 666
1 667
1 668
1 669
1 670
1 671
1 672
1 673
1 674
1 675
1 676
1 677
1 678
1 679
1 680
1 681
1 682
1 683
1 684
1 685
1 686
1 687
1 688
1 689
1 690
1 691
1 692
1 693
1 694
1 695
1 696
1 697
1 698
1 699
1 700
1 701
1 702
1 703
1 704
1 705
1 706
1 707
1 708
1 709
1 710
1 711
1 712
1 713
1 714
1 715
1 716
1 717
1 718
1 719
1 720
1 721
1 722
1 723
1 724
1 725
1 726
1 727
1 728
1 729
1 730
1 731
1 732
1 733
1 734
1 735
1 736
1 737
1 738
1 739
1 740
1 741
1 742
1 743
1 744
1 745
1 746
1 747
1 748
1 749
1 750
1 751
1 752
1 753
1 754
1 755
1 756
1 757
1 758
1 759
1 760
1 761
1 762
1 763
1 764
1 765
1 766
1 767
1 768
1 769
1 770
1 771
1 772
1 773
1 774
1 775
1 776
1 777
1 778
1 779
1 780
1 781
1 782
1 783
1 784
1 785
1 786
1 787
1 788
1 789
1 790
1 791
1 792
1 793
1 794
1 795
1 796
1 797
1 798
1 799
1 800
1 801
1 802
1 803
1 804
1 805
1 806
1 807
1 808
1 809
1 810
1 811
1 812
1 813
1 814
1 815
1 816
1 817
1 818
1 819
1 820
1 821
1 822
1 823
1 824
1 825
1 826
1 827
1 828
1 829
1 830
1 831
1 832
1 833
1 834
1 835
1 836
1 837
1 838
1 839
1 840
1 841
1 842
1 843
1 844
1 845
1 846
1 847
1 848
1 849
1 850
1 851
1 852
1 853
1 854
1 855
1 856
1 857
1 858
1 859
1 860
1 861
1 862
1 863
1 864
1 865
1 866
1 867
1 868
1 869
1 870
1 871
1 872
1 873
1 874
1 875
1 876
1 877
1 878
1 879
1 880
1 881
1 882
1 883
1 884
1 885
1 886
1 887
1 888
1 889
1 890
1 891
1 892
1 893
1 894
1 895
1 896
1 897
1 898
1 899
1 900
1 901
1 902
1 903
1 904
1 905
1 906
1 907
1 908
1 909
1 910
1 911
1 912
1 913
1 914
1 915
1 916
1 917
1 918
1 919
1 920
1 921
1 922
1 923
1 924
1 925
1 926
1 927
1 928
1 929
1 930
1 931
1 932
1 933
1 934
1 935
1 936
1 937
1 938
1 939
1 940
1 941
1 942
1 943
1 944
1 945
1 946
1 947
1 948
1 949
1 950
1 951
1 952
1 953
1 954
1 955
1 956
1 957
1 958
1 959
1 960
1 961
1 962
1 963
1 964
1 965
1 966
1 967
1 968
1 969
1 970
1 971
1 972
1 973
1 974
1 975
1 976
1 977
1 978
1 979
1 980
1 981
1 982
1 983
1 984
1 985
1 986
1 987
1 988
1 989
1 990
1 991
1 992
1 993
1 994
1 995
1 996
1 997
1 998
1 999
1 1000
1 1001
1 1002
1 1003
1 1004
1 1005
1 1006
1 1007
1 1008
1 1009
1 1010
1 1011
1 1012
1 1013
1 1014
1 1015
1 1016
1 1017
1 1018
1 1019
1 1020
1 1021
1 1022
1 1023
1 1024
1 1025
1 1026
1 1027
1 1028
1 1029
1 1030
1 1031
1 1032
1 1033
1 1034
1 1035
1 1036
1 1037
1 1038
1 1039
1 1040
1 1041
1 1042
1 1043
1 1044
1 1045
1 1046
1 1047
1 1048
1 1049
1 1050
1 1051
1 1052
1 1053
1 1054
1 1055
1 1056
1 1057
1 1058
1 1059
1 1060
1 1061
1 1062
1 1063
1 1064
1 1065
1 1066
1 1067
1 1068
1 1069
1 1070
1 1071
1 1072
1 1073
1 1074
1 1075
1 1076
1 1077
1 1078
1 1079
1 1080
1 1081
1 1082
1 1083
1 1084
1 1085
1 1086
1 1087
1 1088
1 1089
1 1090
1 1091
1 1092
1 1093
1 1094
1 1095
1 1096
1 1097
1 1098
1 1099
1 1100
1 1101
1 1102
1 1103
1 1104
1 1105
1 1106
1 1107
1 1108
1 1109
1 1110
1 1111
1 1112
1 1113
1 1114
1 1115
1 1116
1 1117
1 1118
1 1119
1 1120
1 1121
1 1122
1 1123
1 1124
1 1125
1 1126
1 1127
1 1128
1 1129
1 1130
1 1131
1 1132
1 1133
1 1134
1 1135
1 1136
1 1137
1 1138
1 1139
1 1140
1 1141
1 1142
1 1143
1 1144
1 1145
1 1146
1 1147
1 1148
1 1149
1 1150
1 1151
1 1152
1 1153
1 1154
1 1155
1 1156
1 1157
1 1158
1 1159
1 1160
1 1161
1 1162
1 1163
1 1164
1 1165
1 1166
1 1167
1 1168
1 1169
1 1170
1 1171
1 1172
1 1173
1 1174
1 1175
1 1176
1 1177
1 1178
1 1179
1 1180
1 1181
1 1182
1 1183
1 1184
1 1185
1 1186
1 1187
1 1188
1 1189
1 1190
1 1191
1 1192
1 1193
1 1194
1 1195
1 1196
1 1197
1 1198
1 1199
1 1200
1 1201
1 1202
1 1203
1 1204
1 1205
1 1206
1 1207
1 1208
1 1209
1 1210
1 1211
1 1212
1 1213
1 1214
1 1215
1 1216
1 1217
1 1218
1 1219
1 1220
1 1221
1 1222
1 1223
1 1224
1 1225
1 1226
1 1227
1 1228
1 1229
1 1230
1 1231
1 1232
1 1233
1 1234
1 1235
1 1236
1 1237
1 1238
1 1239
1 1240
1 1241
1 1242
1 1243
1 1244
1 1245
1 1246
1 1247
1 1248
1 1249
1 1250
1 1251
1 1252
1 1253
1 1254
1 1255
1 1256
1 1257
1 1258
1 1259
1 1260
1 1261
1 1262
1 1263
1 1264
1 1265
1 1266
1 1267
1 1268
1 1269
1 1270
1 1271
1 1272
1 1273
1 1274
1 1275
1 1276
1 1277
1 1278
1 1279
1 1280
1 1281
1 1282
1 1283
1 1284
1 1285
1 1286
1 1287
1 1288
1 1289
1 1290
1 1291
1 1292
1 1293
1 1294
1 1295
1 1296
1 1297
1 1298
1 1299
1 1300
1 1301
1 1302
1 1303
1 1304
1 1305
1 1306
1 1307
1 1308
1 1309
1 1310
1 1311
1 1312
1 1313
1 1314
1 1315
1 1316
1 1317
1 1318
1 1319
1 1320
1 1321
1 1322
1 1323
1 1324
1 1325
1 1326
1 1327
1 1328
1 1329
1 1330
1 1331
1 1332
1 1333
1 1334
1 1335
1 1336
1 1337
1 1338
1 1339
1 1340
1 1341
1 1342
1 1343
1 1344
1 1345
1 1346
1 1347
1 1348
1 1349
1 1350
1 1351
1 1352
1 1353
1 1354
1 1355
1 1356
1 1357
1 1358
1 1359
1 1360
1 1361
1 1362
1 1363
1 1364
1 1365
1 1366
1 1367
1 1368
1 1369
1 1370
1 1371
1 1372
1 1373
1 1374
1 1375
1 1376
1 1377
1 1378
1 1379
1 1380
1 1381
1 1382
1 1383
1 1384
1 1385
1 1386
1 1387
1 1388
1 1389
1 1390
1 1391
1 1392
1 1393
1 1394
1 1395
1 1396
1 1397
1 1398
1 1399
1 1400
1 1401
1 1402
1 1403
1 1404
1 1405
1 1406
1 1407
1 1408
1 1409
1 1410
1 1411
1 1412
1 1413
1 1414
1 1415
1 1416
1 1417
1 1418
1 1419
1 1420
1 1421
1 1422
1 1423
1 1424
1 1425
1 1426
1 1427
1 1428
1 1429
1 1430
1 1431
1 1432
1 1433
1 1434
1 1435
1 1436
1 1437
1 1438
1 1439
1 1440
1 1441
1 1442
1 1443
1 1444
1 1445
1 1446
1 1447
1 1448
1 1449
1 1450
1 1451
1 1452
1 1453
1 1454
1 1455
1 1456
1 1457
1 1458
1 1459
1 1460
1 1461
1 1462
1 1463
1 1464
1 1465
1 1466
1 1467
1 1468
1 1469
1 1470
1 1471
1 1472
1 1473
1 1474
1 1475
1 1476
1 1477
1 1478
1 1479
1 1480
1 1481
1 1482
1 1483
1 1484
1 1485
1 1486
1 1487
1 1488
1 1489
1 1490
1 1491
1 1492
1 1493
1 1494
1 1495
1 1496
1 1497
1 1498
1 1499
1 1500
1 1501
1 1502
1 1503
1 1504
1 1505
1 1506
1 1507
1 1508
1 1509
1 1510
1 1511
1 1512
1 1513
1 1514
1 1515
1 1516
1 1517
1 1518
1 1519
1 1520
1 1521
1 1522
1 1523
1 1524
1 1525
1 1526
1 1527
1 1528
1 1529
1 1530
1 1531
1 1532
1 1533
1 1534
1 1535
1 1536
1 1537
1 1538
1 1539
1 1540
1 1541
1 1542
1 1543
1 1544
1 1545
1 1546
1 1547
1 1548
1 1549
1 1550
1 1551
1 1552
1 1553
1 1554
1 1555
1 1556
1 1557
1 1558
1 1559
1 1560
1 1561
1 1562
1 1563
1 1564
1 1565
1 1566
1 1567
1 1568
1 1569
1 1570
1 1571
1 1572
1 1573
1 1574
1 1575
1 1576
1 1577
1 1578
1 1579
1 1580
1 1581
1 1582
1 1583
1 1584
1 1585
1 1586
1 1587
1 1588
1 1589
1 1590
1 1591
1 1592
1 1593
1 1594
1 1595
1 1596
1 1597
1 1598
1 1599
1 1600
1 1601
1 1602
1 1603
1 1604
1 1605
1 1606
1 1607
1 1608
1 1609
1 1610
1 1611
1 1612
1 1613
1 1614
1 1615
1 1616
1 1617
1 1618
1 1619
1 1620
1 1621
1 1622
1 1623
1 1624
1 1625
1 1626
1 1627
1 1628
1 1629
1 1630
1 1631
1 1632
1 1633
1 1634
1 1635
1 1636
1 1637
1 1638
1 1639
1 1640
1 1641
1 1642
1 1643
1 1644
1 1645
1 1646
1 1647
1 1648
1 1649
1 1650
1 1651
1 1652
1 1653
1 1654
1 1655
1 1656
1 1657
1 1658
1 1659
1 1660
1 1661
1 1662
1 1663
1 1664
1 1665
1 1666
1 1667
1 1668
1 1669
1 1670
1 1671
1 1672
1 1673
1 1674
1 1675
1 1676
1 1677
1 1678
1 1679
1 1680
1 1681
1 1682
1 1683
1 1684
1 1685
1 1686
1 1687
1 1688
1 1689
1 1690
1 1691
1 1692
1 1693
1 1694
1 1695
1 1696
1 1697
1 1698
1 1699
1 1700
1 1701
1 1702
1 1703
1 1704
1 1705
1 1706
1 1707
1 1708
1 1709
1 1710
1 1711
1 1712
1 1713
1 1714
1 1715
1 1716
1 1717
1 1718
1 1719
1 1720
1 1721
1 1722
1 1723
1 1724
1 1725
1 1726
1 1727
1 1728
1 1729
1 1730
1 1731
1 1732
1 1733
1 1734
1 1735
1 1736
1 1737
1 1738
1 1739
1 1740
1 1741
1 1742
1 1743
1 1744
1 1745
1 1746
1 1747
1 1748
1 1749
1 1750
1 1751
1 1752
1 1753
1 1754
1 1755
1 1756
1 1757
1 1758
1 1759
1 1760
1 1761
1 1762
1 1763
1 1764
1 1765
1 1766
1 1767
1 1768
1 1769
1 1770
1 1771
1 1772
1 1773
1 1774
1 1775
1 1776
1 1777
1 1778
1 1779
1 1780
1 1781
1 1782
1 1783
1 1784
1 1785
1 1786
1 1787
1 1788
1 1789
1 1790
1 1791
1 1792
1 1793
1 1794
1 1795
1 1796
1 1797
1 1798
1 1799
1 1800
1 1801
1 1802
1 1803
1 1804
1 1805
1 1806
1 1807
1 1808
1 1809
1 1810
1 1811
1 1812
1 1813
1 1814
1 1815
1 1816
1 1817
1 1818
1 1819
1 1820
1 1821
1 1822
1 1823
1 1824
1 1825
1 1826
1 1827
1 1828
1 1829
1 1830
1 1831
1 1832
1 1833
1 1834
1 1835
1 1836
1 1837
1 1838
1 1839
1 1840
1 1841
1 1842
1 1843
1 1844
1 1845
1 1846
1 1847
1 1848
1 1849
1 1850
1 1851
1 1852
1 1853
1 1854
1 1855
1 1856
1 1857
1 1858
1 1859
1 1860
1 1861
1 1862
1 1863
1 1864
1 1865
1 1866
1 1867
1 1868
1 1869
1 1870
1 1871
1 1872
1 1873
1 1874
1 1875
1 1876
1 1877
1 1878
1 1879
1 1880
1 1881
1 1882
1 1883
1 1884
1 1885
1 1886
1 1887
1 1888
1 1889
1 1890
1 1891
1 1892
1 1893
1 1894
1 1895
1 1896
1 1897
1 1898
1 1899
1 1900
1 1901
1 1902
1 1903
1 1904
1 1905
1 1906
1 1907
1 1908
1 1909
1 1910
1 1911
1 1912
1 1913
1 1914
1 1915
1 1916
1 1917
1 1918
1 1919
1 1920
1 1921
1 1922
1 1923
1 1924
1 1925
1 1926
1 1927
1 1928
1 1929
1 1930
1 1931
1 1932
1 1933
1 1934
1 1935
1 1936
1 1937
1 1938
1 1939
1 1940
1 1941
1 1942
1 1943
1 1944
1 1945
1 1946
1 1947
1 1948
1 1949
1 1950
1 1951
1 1952
1 1953
1 1954
1 1955
1 1956
1 1957
1 1958
1 1959
1 1960
1 1961
1 1962
1 1963
1 1964
1 1965
1 1966
1 1967
1 1968
1 1969
1 1970
1 1971
1 1972
1 1973
1 1974
1 1975
1 1976
1 1977
1 1978
1 1979
1 1980
1 1981
1 1982
1 1983
1 1984
1 1985
1 1986
1 1987
1 1988
1 1989
1 1990
1 1991
1 1992
1 1993
1 1994
1 1995
1 1996
1 1997
1 1998
1 1999
1 2000
1 2001
1 2002
1 2003
1 2004
1 2005
1 2006
1 2007
1 2008
1 2009
1 2010
1 2011
1 2012
1 2013
1 2014
1 2015
1 2016
1 2017
1 2018
1 2019
1 2020
1 2021
1 2022
1 2023
1 2024
1 2025
1 2026
1 2027
1 2028
1 2029
1 2030
1 2031
1 2032
1 2033
1 2034
1 2035
1 2036
1 2037
1 2038
1 2039
1 2040
1 2041
1 2042
1 2043
1 2044
1 2045
1 2046
1 2047
1 2048
1 2049
1 2050
1 2051
1 2052
1 2053
1 2054
1 2055
1 2056
1 2057
1 2058
1 2059
1 2060
1 2061
1 2062
1 2063
1 2064
1 2065
1 2066
1 2067
1 2068
1 2069
1 2070
1 2071
1 2072
1 2073
1 2074
1 2075
1 2076
1 2077
1 2078
1 2079
1 2080
1 2081
1 2082
1 2083
1 2084
1 2085
1 2086
1 2087
1 2088
1 2089
1 2090
1 2091
1 2092
1 2093
1 2094
1 2095
1 2096
1 2097
1 2098
1 2099
1 2100
1 2101
1 2102
1 2103
1 2104
1 2105
1 2106
1 2107
1 2108
1 2109
1 2110
1 2111
1 2112
1 2113
1 2114
1 2115
1 2116
1 2117
1 2118
1 2119
1 2120
1 2121
1 2122
1 2123
1 2124
1 2125
1 2126
1 2127
1 2128
1 2129
1 2130
1 2131
1 2132
1 2133
1 2134
1 2135
1 2136
1 2137
1 2138
1 2139
1 2140
1 2141
1 2142
1 2143
1 2144
1 2145
1 2146
1 2147
1 2148
1 2149
1 2150
1 2151
1 2152
1 2153
1 2154
1 2155
1 2156
1 2157
1 2158
1 2159
1 2160
1 2161
1 2162
1 2163
1 2164
1 2165
1 2166
1 2167
1 2168
1 2169
1 2170
1 2171
1 2172
1 2173
1 2174
1 2175
1 2176
1 2177
1 2178
1 2179
1 2180
1 2181
1 2182
1 2183
1 2184
1 2185
1 2186
1 2187
1 2188
1 2189
1 2190
1 2191
1 2192
1 2193
1 2194
1 2195
1 2196
1 2197
1 2198
1 2199
1 2200
1 2201
1 2202
1 2203
1 2204
1 2205
1 2206
1 2207
1 2208
1 2209
1 2210
1 2211
1 2212
1 2213
1 2214
1 2215
1 2216
1 2217
1 2218
1 2219
1 2220
1 2221
1 2222
1 2223
1 2224
1 2225
1 2226
1 2227
1 2228
1 2229
1 2230
1 2231
1 2232
1 2233
1 2234
1 2235
1 2236
1 2237
1 2238
1 2239
1 2240
1 2241
1 2242
1 2243
1 2244
1 2245
1 2246
1 2247
1 2248
1 2249
1 2250
1 2251
1 2252
1 2253
1 2254
1 2255
1 2256
1 2257
1 2258
1 2259
1 2260
1 2261
1 2262
1 2263
1 2264
1 2265
1 2266
1 2267
1 2268
1 2269
1 2270
1 2271
1 2272
1 2273
1 2274
1 2275
1 2276
1 2277
1 2278
1 2279
1 2280
1 2281
1 2282
1 2283
1 2284
1 2285
1 2286
1 2287
1 2288
1 2289
1 2290
1 2291
1 2292
1 2293
1 2294
1 2295
1 2296
1 2297
1 2298
1 2299
1 2300
1 2301
1 2302
1 2303
1 2304
1 2305
1 2306
1 2307
1 2308
1 2309
1 2310
1 2311
1 2312
1 2313
1 2314
1 2315
1 2316
1 2317
1 2318
1 2319
1 2320
1 2321
1 2322
1 2323
1 2324
1 2325
1 2326
1 2327
1 2328
1 2329
1 2330
1 2331
1 2332
1 2333
1 2334
1 2335
1 2336
1 2337
1 2338
1 2339
1 2340
1 2341
1 2342
1 2343
1 2344
1 2345
1 2346
1 2347
1 2348
1 2349
1 2350
1 2351
1 2352
1 2353
1 2354
1 2355
1 2356
1 2357
1 2358
1 2359
1 2360
1 2361
1 2362
1 2363
1 2364
1 2365
1 2366
1 2367
1 2368
1 2369
1 2370
1 2371
1 2372
1 2373
1 2374
1 2375
1 2376
1 2377
1 2378
1 2379
1 2380
1 2381
1 2382
1 2383
1 2384
1 2385
1 2386
1 2387
1 2388
1 2389
1 2390
1 2391
1 2392
1 2393
1 2394
1 2395
1 2396
1 2397
1 2398
1 2399
1 2400
1 2401
1 2402
1 2403
1 2404
1 2405
1 2406
1 2407
1 2408
1 2409
1 2410
1 2411
1 2412
1 2413
1 2414
1 2415
1 2416
1 2417
1 2418
1 2419
1 2420
1 2421
1 2422
1 2423
1 2424
1 2425
1 2426
1 2427
1 2428
1 2429
1 2430
1 2431
1 2432
1 2433
1 2434
1 2435
1 2436
1 2437
1 2438
1 2439
1 2440
1 2441
1 2442
1 2443
1 2444
1 2445
1 2446
1 2447
1 2448
1 2449
1 2450
1 2451
1 2452
1 2453
1 2454
1 2455
1 2456
1 2457
1 2458
1 2459
1 2460
1 2461
1 2462
1 2463
1 2464
1 2465
1 2466
1 2467
1 2468
1 2469
1 2470
1 2471
1 2472
1 2473
1 2474
1 2475
1 2476
1 2477
1 2478
1 2479
1 2480
1 2481
1 2482
1 2483
1 2484
1 2485
1 2486
1 2487
1 2488
1 2489
1 2490
1 2491
1 2492
1 2493
1 2494
1 2495
1 2496
1 2497
1 2498
1 2499
1 2500
1 2501
1 2502
1 2503
1 2504
1 2505
1 2506
1 2507
1 2508
1 2509
1 2510
1 2511
1 2512
1 2513
1 2514
1 2515
1 2516
1 2517
1 2518
1 2519
1 2520
1 2521
1 2522
1 2523
1 2524
1 2525
1 2526
1 2527
1 2528
1 2529
1 2530
1 2531
1 2532
1 2533
1 2534
1 2535
1 2536
1 2537
1 2538
1 2539
1 2540
1 2541
1 2542
1 2543
1 2544
1 2545
1 2546
1 2547
1 2548
1 2549
1 2550
1 2551
1 2552
1 2553
1 2554
1 2555
1 2556
1 2557
1 2558
1 2559
1 2560
1 2561
1 2562
1 2563
1 2564
1 2565
1 2566
1 2567
1 2568
1 2569
1 2570
1 2571
1 2572
1 2573
1 2574
1 2575
1 2576
1 2577
1 2578
1 2579
1 2580
1 2581
1 2582
1 2583
1 2584
1 2585
1 2586
1 2587
1 2588
1 2589
1 2590
1 2591
1 2592
1 2593
1 2594
1 2595
1 2596
1 2597
1 2598
1 2599
1 2600
1 2601
1 2602
1 2603
1 2604
1 2605
1 2606
1 2607
1 2608
1 2609
1 2610
1 2611
1 2612
1 2613
1 2614
1 2615
1 2616
1 2617
1 2618
1 2619
1 2620
1 2621
1 2622
1 2623
1 2624
1 2625
1 2626
1 2627
1 2628
1 2629
1 2630
1 2631
1 2632
1 2633
1 2634
1 2635
1 2636
1 2637
1 2638
1 2639
1 2640
1 2641
1 2642
1 2643
1 2644
1 2645
1 2646
1 2647
1 2648
1 2649
1 2650
1 2651
1 2652
1 2653
1 2654
1 2655
1 2656
1 2657
1 2658
1 2659
1 2660
1 2661
1 2662
1 2663
1 2664
1 2665
1 2666
1 2667
1 2668
1 2669
1 2670
1 2671
1 2672
1 2673
1 2674
1 2675
1 2676
1 2677
1 2678
1 2679
1 2680
1 2681
1 2682
1 2683
1 2684
1 2685
1 2686
1 2687
1 2688
1 2689
1 2690
1 2691
1 2692
1 2693
1 2694
1 2695
1 2696
1 2697
1 2698
1 2699
1 2700
1 2701
1 2702
1 2703
1 2704
1 2705
1 2706
1 2707
1 2708
1 2709
1 2710
1 2711
1 2712
1 2713
1 2714
1 2715
1 2716
1 2717
1 2718
1 2719
1 2720
1 2721
1 2722
1 2723
1 2724
1 2725
1 2726
1 2727
1 2728
1 2729
1 2730
1 2731
1 2732
1 2733
1 2734
1 2735
1 2736
1 2737
1 2738
1 2739
1 2740
1 2741
1 2742
1 2743
1 2744
1 2745
1 2746
1 2747
1 2748
1 2749
1 2750
1 2751
1 2752
1 2753
1 2754
1 2755
1 2756
1 2757
1 2758
1 2759
1 2760
1 2761
1 2762
1 2763
1 2764
1 2765
1 2766
1 2767
1 2768
1 2769
1 2770
1 2771
1 2772
1 2773
1 2774
1 2775
1 2776
1 2777
1 2778
1 2779
1 2780
1 2781
1 2782
1 2783
1 2784
1 2785
1 2786
1 2787
1 2788
1 2789
1 2790
1 2791
1 2792
1 2793
1 2794
1 2795
1 2796
1 2797
1 2798
1 2799
1 2800
1 2801
1 2802
1 2803
1 2804
1 2805
1 2806
1 2807
1 2808
1 2809
1 2810
1 2811
1 2812
1 2813
1 2814
1 2815
1 2816
1 2817
1 2818
1 2819
1 2820
1 2821
1 2822
1 2823
1 2824
1 2825
1 2826
1 2827
1 2828
1 2829
1 2830
1 2831
1 2832
1 2833
1 2834
1 2835
1 2836
1 2837
1 2838
1 2839
1 2840
1 2841
1 2842
1 2843
1 2844
1 2845
1 2846
1 2847
1 2848
1 2849
1 2850
1 2851
1 2852
1 2853
1 2854
1 2855
1 2856
1 2857
1 2858
1 2859
1 2860
1 2861
1 2862
1 2863
1 2864
1 2865
1 2866
1 2867
1 2868
1 2869
1 2870
1 2871
1 2872
1 2873
1 2874
1 2875
1 2876
1 2877
1 2878
1 2879
1 2880
1 2881
1 2882
1 2883
1 2884
1 2885
1 2886
1 2887
1 2888
1 2889
1 2890
1 2891
1 2892
1 2893
1 2894
1 2895
1 2896
1 2897
1 2898
1 2899
1 2900
1 2901
1 2902
1 2903
1 2904
1 2905
1 2906
1 2907
1 2908
1 2909
1 2910
1 2911
1 2912
1 2913
1 2914
1 2915
1 2916
1 2917
1 2918
1 2919
1 2920
1 2921
1 2922
1 2923
1 2924
1 2925
1 2926
1 2927
1 2928
1 2929
1 2930
1 2931
1 2932
1 2933
1 2934
1 2935
1 2936
1 2937
1 2938
1 2939
1 2940
1 2941
1 2942
1 2943
1 2944
1 2945
1 2946
1 2947
1 2948
1 2949
1 2950
1 2951
1 2952
1 2953
1 2954
1 2955
1 2956
1 2957
1 2958
1 2959
1 2960
1 2961
1 2962
1 2963
1 2964
1 2965
1 2966
1 2967
1 2968
1 2969
1 2970
1 2971
1 2972
1 2973
1 2974
1 2975
1 2976
1 2977
1 2978
1 2979
1 2980
1 2981
1 2982
1 2983
1 2984
1 2985
1 2986
1 2987
1 2988
1 2989
1 2990
1 2991
1 2992
1 2993
1 2994
1 2995
1 2996
1 2997
1 2998
1 2999
1 3000
1 3001
1 3002
1 3003
1 3004
1 3005
1 3006
1 3007
1 3008
1 3009
1 3010
1 3011
1 3012
1 3013
1 3014
1 3015
1 3016
1 3017
1 3018
1 3019
1 3020
1 3021
1 3022
1 3023
1 3024
1 3025
1 3026
1 3027
1 3028
1 3029
1 3030
1 3031
1 3032
1 3033
1 3034
1 3035
1 3036
1 3037
1 3038
1 3039
1 3040
1 3041
1 3042
1 3043
1 3044
1 3045
1 3046
1 3047
1 3048
1 3049
1 3050
1 3051
1 3052
1 3053
1 3054
1 3055
1 3056
1 3057
1 3058
1 3059
1 3060
1 3061
1 3062
1 3063
1 3064
1 3065
1 3066
1 3067
1 3068
1 3069
1 3070
1 3071
1 3072
1 3073
1 3074
1 3075
1 3076
1 3077
1 3078
1 3079
1 3080
1 3081
1 3082
1 3083
1 3084
1 3085
1 3086
1 3087
1 3088
1 3089
1 3090
1 3091
1 3092
1 3093
1 3094
1 3095
1 3096
1 3097
1 3098
1 3099
1 3100
1 3101
1 3102
1 3103
1 3104
1 3105
1 3106
1 3107
1 3108
1 3109
1 3110
1 3111
1 3112
1 3113
1 3114
1 3115
1 3116
1 3117
1 3118
1 3119
1 3120
1 3121
1 3122
1 3123
1 3124
1 3125
1 3126
1 3127
1 3128
1 3129
1 3130
1 3131
1 3132
1 3133
1 3134
1 3135
1 3136
1 3137
1 3138
1 3139
1 3140
1 3141
1 3142
1 3143
1 3144
1 3145
1 3146
1 3147
1 3148
1 3149
1 3150
1 3151
1 3152
1 3153
1 3154
1 3155
1 3156
1 3157
1 3158
1 3159
1 3160
1 3161
1 3162
1 3163
1 3164
1 3165
1 3166
1 3167
1 3168
1 3169
1 3170
1 3171
1 3172
1 3173
1 3174
1 3175
1 3176
1 3177
1 3178
1 3179
1 3180
1 3181
1 3182
1 3183
1 3184
1 3185
1 3186
1 3187
1 3188
1 3189
1 3190
1 3191
1 3192
1 3193
1 3194
1 3195
1 3196
1 3197
1 3198
1 3199
1 3200
1 3201
1 3202
1 3203
1 3204
1 3205
1 3206
1 3207
1 3208
1 3209
1 3210
1 3211
1 3212
1 3213
1 3214
1 3215
1 3216
1 3217
1 3218
1 3219
1 3220
1 3221
1 3222
1 3223
1 3224
1 3225
1 3226
1 3227
1 3228
1 3229
1 3230
1 3231
1 3232
1 3233
1 3234
1 3235
1 3236
1 3237
1 3238
1 3239
1 3240
1 3241
1 3242
1 3243
1 3244
1 3245
1 3246
1 3247
1 3248
1 3249
1 3250
1 3251
1 3252
1 3253
1 3254
1 3255
1 3256
1 3257
1 3258
1 3259
1 3260
1 3261
1 3262
1 3263
1 3264
1 3265
1 3266
1 3267
1 3268
1 3269
1 3270
1 3271
1 3272
1 3273
1 3274
1 3275
1 3276
1 3277
1 3278
1 3279
1 3280
1 3281
1 3282
1 3283
1 3284
1 3285
1 3286
1 3287
1 3288
1 3289
1 3290
1 3291
1 3292
1 3293
1 3294
1 3295
1 3296
1 3297
1 3298
1 3299
1 3300
1 3301
1 3302
1 3303
1 3304
1 3305
1 3306
1 3307
1 3308
1 3309
1 3310
1 3311
1 3312
1 3313
1 3314
1 3315
1 3316
1 3317
1 3318
1 3319
1 3320
1 3321
1 3322
1 3323
1 3324
1 3325
1 3326
1 3327
1 3328
1 3329
1 3330
1 3331
1 3332
1 3333
1 3334
1 3335
1 3336
1 3337
1 3338
1 3339
1 3340
1 3341
1 3342
1 3343
1 3344
1 3345
1 3346
1 3347
1 3348
1 3349
1 3350
1 3351
1 3352
1 3353
1 3354
1 3355
1 3356
1 3357
1 3358
1 3359
1 3360
1 3361
1 3362
1 3363
1 3364
1 3365
1 3366
1 3367
1 3368
1 3369
1 3370
1 3371
1 3372
1 3373
1 3374
1 3375
1 3376
1 3377
1 3378
1 3379
1 3380
1 3381
1 3382
1 3383
1 3384
1 3385
1 3386
1 3387
1 3388
1 3389
1 3390
1 3391
1 3392
1 3393
1 3394
1 3395
1 3396
1 3397
1 3398
1 3399
1 3400
1 3401
1 3402
1 3403
1 3404
1 3405
1 3406
1 3407
1 3408
1 3409
1 3410
1 3411
1 3412
1 3413
1 3414
1 3415
1 3416
1 3417
1 3418
1 3419
1 3420
1 3421
1 3422
1 3423
1 3424
1 3425
1 3426
1 3427
1 3428
1 3429
1 3430
1 3431
1 3432
1 3433
1 3434
1 3435
1 3436
1 3437
1 3438
1 3439
1 3440
1 3441
1 3442
1 3443
1 3444
1 3445
1 3446
1 3447
1 3448
1 3449
1 3450
1 3451
1 3452
1 3453
1 3454
1 3455
1 3456
1 3457
1 3458
1 3459
1 3460
1 3461
1 3462
1 3463
1 3464
1 3465
1 3466
1 3467
1 3468
1 3469
1 3470
1 3471
1 3472
1 3473
1 3474
1 3475
1 3476
1 3477
1 3478
1 3479
1 3480
1 3481
1 3482
1 3483
1 3484
1 3485
1 3486
1 3487
1 3488
1 3489
1 3490
1 3491
1 3492
1 3493
1 3494
1 3495
1 3496
1 3497
1 3498
1 3499
1 3500
1 3501
1 3502
1 3503
1 3504
1 3505
1 3506
1 3507
1 3508
1 3509
1 3510
1 3511
1 3512
1 3513
1 3514
1 3515
1 3516
1 3517
1 3518
1 3519
1 3520
1 3521
1 3522
1 3523
1 3524
1 3525
1 3526
1 3527
1 3528
1 3529
1 3530
1 3531
1 3532
1 3533
1 3534
1 3535
1 3536
1 3537
1 3538
1 3539
1 3540
1 3541
1 3542
1 3543
1 3544
1 3545
1 3546
1 3547
1 3548
1 3549
1 3550
1 3551
1 3552
1 3553
1 3554
1 3555
1 3556
1 3557
1 3558
1 3559
1 3560
1 3561
1 3562
1 3563
1 3564
1 3565
1 3566
1 3567
1 3568
1 3569
1 3570
1 3571
1 3572
1 3573
1 3574
1 3575
1 3576
1 3577
1 3578
1 3579
1 3580
1 3581
1 3582
1 3583
1 3584
1 3585
1 3586
1 3587
1 3588
1 3589
1 3590
1 3591
1 3592
1 3593
1 3594
1 3595
1 3596
1 3597
1 3598
1 3599
1 3600
1 3601
1 3602
1 3603
1 3604
1 3605
1 3606
1 3607
1 3608
1 3609
1 3610
1 3611
1 3612
1 3613
1 3614
1 3615
1 3616
1 3617
1 3618
1 3619
1 3620
1 3621
1 3622
1 3623
1 3624
1 3625
1 3626
1 3627
1 3628
1 3629
1 3630
1 3631
1 3632
1 3633
1 3634
1 3635
1 3636
1 3637
1 3638
1 3639
1 3640
1 3641
1 3642
1 3643
1 3644
1 3645
1 3646
1 3647
1 3648
1 3649
1 3650
1 3651
1 3652
1 3653
1 3654
1 3655
1 3656
1 3657
1 3658
1 3659
1 3660
1 3661
1 3662
1 3663
1 3664
1 3665
1 3666
1 3667
1 3668
1 3669
1 3670
1 3671
1 3672
1 3673
1 3674
1 3675
1 3676
1 3677
1 3678
1 3679
1 3680
1 3681
1 3682
1 3683
1 3684
1 3685
1 3686
1 3687
1 3688
1 3689
1 3690
1 3691
1 3692
1 3693
1 3694
1 3695
1 3696
1 3697
1 3698
1 3699
1 3700
1 3701
1 3702
1 3703
1 3704
1 3705
1 3706
1 3707
1 3708
1 3709
1 3710
1 3711
1 3712
1 3713
1 3714
1 3715
1 3716
1 3717
1 3718
1 3719
1 3720
1 3721
1 3722
1 3723
1 3724
1 3725
1 3726
1 3727
1 3728
1 3729
1 3730
1 3731
1 3732
1 3733
1 3734
1 3735
1 3736
1 3737
1 3738
1 3739
1 3740
1 3741
1 3742
1 3743
1 3744
1 3745
1 3746
1 3747
1 3748
1 3749
1 3750
1 3751
1 3752
1 3753
1 3754
1 3755
1 3756
1 3757
1 3758
1 3759
1 3760
1 3761
1 3762
1 3763
1 3764
1 3765
1 3766
1 3767
1 3768
1 3769
1 3770
1 3771
1 3772
1 3773
1 3774
1 3775
1 3776
1 3777
1 3778
1 3779
1 3780
1 3781
1 3782
1 3783
1 3784
1 3785
1 3786
1 3787
1 3788
1 3789
1 3790
1 3791
1 3792
1 3793
1 3794
1 3795
1 3796
1 3797
1 3798
1 3799
1 3800
1 3801
1 3802
1 3803
1 3804
1 3805
1 3806
1 3807
1 3808
1 3809
1 3810
1 3811
1 3812
1 3813
1 3814
1 3815
1 3816
1 3817
1 3818
1 3819
1 3820
1 3821
1 3822
1 3823
1 3824
1 3825
1 3826
1 3827
1 3828
1 3829
1 3830
1 3831
1 3832
1 3833
1 3834
1 3835
1 3836
1 3837
1 3838
1 3839
1 3840
1 3841
1 3842
1 3843
1 3844
1 3845
1 3846
1 3847
1 3848
1 3849
1 3850
1 3851
1 3852
1 3853
1 3854
1 3855
1 3856
1 3857
1 3858
1 3859
1 3860
1 3861
1 3862
1 3863
1 3864
1 3865
1 3866
1 3867
1 3868
1 3869
1 3870
1 3871
1 3872
1 3873
1 3874
1 3875
1 3876
1 3877
1 3878
1 3879
1 3880
1 3881
1 3882
1 3883
1 3884
1 3885
1 3886
1 3887
1 3888
1 3889
1 3890
1 3891
1 3892
1 3893
1 3894
1 3895
1 3896
1 3897
1 3898
1 3899
1 3900
1 3901
1 3902
1 3903
1 3904
1 3905
1 3906
1 3907
1 3908
1 3909
1 3910
1 3911
1 3912
1 3913
1 3914
1 3915
1 3916
1 3917
1 3918
1 3919
1 3920
1 3921
1 3922
1 3923
1 3924
1 3925
1 3926
1 3927
1 3928
1 3929
1 3930
1 3931
1 3932
1 3933
1 3934
1 3935
1 3936
1 3937
1 3938
1 3939
1 3940
1 3941
1 3942
1 3943
1 3944
1 3945
1 3946
1 3947
1 3948
1 3949
1 3950
1 3951
1 3952
1 3953
1 3954
1 3955
1 3956
1 3957
1 3958
1 3959
1 3960
1 3961
1 3962
1 3963
1 3964
1 3965
1 3966
1 3967
1 3968
1 3969
1 3970
1 3971
1 3972
1 3973
1 3974
1 3975
1 3976
1 3977
1 3978
1 3979
1 3980
1 3981
1 3982
1 3983
1 3984
1 3985
1 3986
1 3987
1 3988
1 3989
1 3990
1 3991
1 3992
1 3993
1 3994
1 3995
1 3996
1 3997
1 3998
1 3999
1 4000
1 4001
1 4002
1 4003
1 4004
1 4005
1 4006
1 4007
1 4008
1 4009
1 4010
1 4011
1 4012
1 4013
1 4014
1 4015
1 4016
1 4017
1 4018
1 4019
1 4020
1 4021
1 4022
1 4023
1 4024
1 4025
1 4026
1 4027
1 4028
1 4029
1 4030
1 4031
1 4032
1 4033
1 4034
1 4035
1 4036
1 4037
1 4038
1 4039
1 4040
1 4041
1 4042
1 4043
1 4044
1 4045
1 4046
1 4047
1 4048
1 4049
1 4050
1 4051
1 4052
1 4053
1 4054
1 4055
1 4056
1 4057
1 4058
1 4059
1 4060
1 4061
1 4062
1 4063
1 4064
1 4065
1 4066
1 4067
1 4068
1 4069
1 4070
1 4071
1 4072
1 4073
1 4074
1 4075
1 4076
1 4077
1 4078
1 4079
1 4080
1 4081
1 4082
1 4083
1 4084
1 4085
1 4086
1 4087
1 4088
1 4089
1 4090
1 4091
1 4092
1 4093
1 4094
1 4095
1 4096
1 4097
1 4098
1 4099
1 4100
1 4101
1 4102
1 4103
1 4104
1 4105
1 4106
1 4107
1 4108
1 4109
1 4110
1 4111
1 4112
1 4113
1 4114
1 4115
1 4116
1 4117
1 4118
1 4119
1 4120
1 4121
1 4122
1 4123
1 4124
1 4125
1 4126
1 4127
1 4128
1 4129
1 4130
1 4131
1 4132
1 4133
1 4134
1 4135
1 4136
1 4137
1 4138
1 4139
1 4140
1 4141
1 4142
1 4143
1 4144
1 4145
1 4146
1 4147
1 4148
1 4149
1 4150
1 4151
1 4152
1 4153
1 4154
1 4155
1 4156
1 4157
1 4158
1 4159
1 4160
1 4161
1 4162
1 4163
1 4164
1 4165
1 4166
1 4167
1 4168
1 4169
1 4170
1 4171
1 4172
1 4173
1 4174
1 4175
1 4176
1 4177
1 4178
1 4179
1 4180
1 4181
1 4182
1 4183
1 4184
1 4185
1 4186
1 4187
1 4188
1 4189
1 4190
1 4191
1 4192
1 4193
1 4194
1 4195
1 4196
1 4197
1 4198
1 4199
1 4200
1 4201
1 4202
1 4203
1 4204
1 4205
1 4206
1 4207
1 4208
1 4209
1 4210
1 4211
1 4212
1 4213
1 4214
1 4215
1 4216
1 4217
1 4218
1 4219
1 4220
1 4221
1 4222
1 4223
1 4224
1 4225
1 4226
1 4227
1 4228
1 4229
1 4230
1 4231
1 4232
1 4233
1 4234
1 4235
1 4236
1 4237
1 4238
1 4239
1 4240
1 4241
1 4242
1 4243
1 4244
1 4245
1 4246
1 4247
1 4248
1 4249
1 4250
1 4251
1 4252
1 4253
1 4254
1 4255
1 4256
1 4257
1 4258
1 4259
1 4260
1 4261
1 4262
1 4263
1 4264
1 4265
1 4266
1 4267
1 4268
1 4269
1 4270
1 4271
1 4272
1 4273
1 4274
1 4275
1 4276
1 4277
1 4278
1 4279
1 4280
1 4281
1 4282
1 4283
1 4284
1 4285
1 4286
1 4287
1 4288
1 4289
1 4290
1 4291
1 4292
1 4293
1 4294
1 4295
1 4296
1 4297
1 4298
1 4299
1 4300
1 4301
1 4302
1 4303
1 4304
1 4305
1 4306
1 4307
1 4308
1 4309
1 4310
1 4311
1 4312
1 4313
1 4314
1 4315
1 4316
1 4317
1 4318
1 4319
1 4320
1 4321
1 4322
1 4323
1 4324
1 4325
1 4326
1 4327
1 4328
1 4329
1 4330
1 4331
1 4332
1 4333
1 4334
1 4335
1 4336
1 4337
1 4338
1 4339
1 4340
1 4341
1 4342
1 4343
1 4344
1 4345
1 4346
1 4347
1 4348
1 4349
1 4350
1 4351
1 4352
1 4353
1 4354
1 4355
1 4356
1 4357
1 4358
1 4359
1 4360
1 4361
1 4362
1 4363
1 4364
1 4365
1 4366
1 4367
1 4368
1 4369
1 4370
1 4371
1 4372
1 4373
1 4374
1 4375
1 4376
1 4377
1 4378
1 4379
1 4380
1 4381
1 4382
1 4383
1 4384
1 4385
1 4386
1 4387
1 4388
1 4389
1 4390
1 4391
1 4392
1 4393
1 4394
1 4395
1 4396
1 4397
1 4398
1 4399
1 4400
1 4401
1 4402
1 4403
1 4404
1 4405
1 4406
1 4407
1 4408
1 4409
1 4410
1 4411
1 4412
1 4413
1 4414
1 4415
1 4416
1 4417
1 4418
1 4419
1 4420
1 4421
1 4422
1 4423
1 4424
1 4425
1 4426
1 4427
1 4428
1 4429
1 4430
1 4431
1 4432
1 4433
1 4434
1 4435
1 4436
1 4437
1 4438
1 4439
1 4440
1 4441
1 4442
1 4443
1 4444
1 4445
1 4446
1 4447
1 4448
1 4449
1 4450
1 4451
1 4452
1 4453
1 4454
1 4455
1 4456
1 4457
1 4458
1 4459
1 4460
1 4461
1 4462
1 4463
1 4464
1 4465
1 4466
1 4467
1 4468
1 4469
1 4470
1 4471
1 4472
1 4473
1 4474
1 4475
1 4476
1 4477
1 4478
1 4479
1 4480
1 4481
1 4482
1 4483
1 4484
1 4485
1 4486
1 4487
1 4488
1 4489
1 4490
1 4491
1 4492
1 4493
1 4494
1 4495
1 4496
1 4497
1 4498
1 4499
1 4500
1 4501
1 4502
1 4503
1 4504
1 4505
1 4506
1 4507
1 4508
1 4509
1 4510
1 4511
1 4512
1 4513
1 4514
1 4515
1 4516
1 4517
1 4518
1 4519
1 4520
1 4521
1 4522
1 4523
1 4524
1 4525
1 4526
1 4527
1 4528
1 4529
1 4530
1 4531
1 4532
1 4533
1 4534
1 4535
1 4536
1 4537
1 4538
1 4539
1 4540
1 4541
1 4542
1 4543
1 4544
1 4545
1 4546
1 4547
1 4548
1 4549
1 4550
1 4551
1 4552
1 4553
1 4554
1 4555
1 4556
1 4557
1 4558
1 4559
1 4560
1 4561
1 4562
1 4563
1 4564
1 4565
1 4566
1 4567
1 4568
1 4569
1 4570
1 4571
1 4572
1 4573
1 4574
1 4575
1 4576
1 4577
1 4578
1 4579
1 4580
1 4581
1 4582
1 4583
1 4584
1 4585
1 4586
1 4587
1 4588
1 4589
1 4590
1 4591
1 4592
1 4593
1 4594
1 4595
1 4596
1 4597
1 4598
1 4599
1 4600
1 4601
1 4602
1 4603
1 4604
1 4605
1 4606
1 4607
1 4608
1 4609
1 4610
1 4611
1 4612
1 4613
1 4614
1 4615
1 4616
1 4617
1 4618
1 4619
1 4620
1 4621
1 4622
1 4623
1 4624
1 4625
1 4626
1 4627
1 4628
1 4629
1 4630
1 4631
1 4632
1 4633
1 4634
1 4635
1 4636
1 4637
1 4638
1 4639
1 4640
1 4641
1 4642
1 4643
1 4644
1 4645
1 4646
1 4647
1 4648
1 4649
1 4650
1 4651
1 4652
1 4653
1 4654
1 4655
1 4656
1 4657
1 4658
1 4659
1 4660
1 4661
1 4662
1 4663
1 4664
1 4665
1 4666
1 4667
1 4668
1 4669
1 4670
1 4671
1 4672
1 4673
1 4674
1 4675
1 4676
1 4677
1 4678
1 4679
1 4680
1 4681
1 4682
1 4683
1 4684
1 4685
1 4686
1 4687
1 4688
1 4689
1 4690
1 4691
1 4692
1 4693
1 4694
1 4695
1 4696
1 4697
1 4698
1 4699
1 4700
1 4701
1 4702
1 4703
1 4704
1 4705
1 4706
1 4707
1 4708
1 4709
1 4710
1 4711
1 4712
1 4713
1 4714
1 4715
1 4716
1 4717
1 4718
1 4719
1 4720
1 4721
1 4722
1 4723
1 4724
1 4725
1 4726
1 4727
1 4728
1 4729
1 4730
1 4731
1 4732
1 4733
1 4734
1 4735
1 4736
1 4737
1 4738
1 4739
1 4740
1 4741
1 4742
1 4743
1 4744
1 4745
1 4746
1 4747
1 4748
1 4749
1 4750
1 4751
1 4752
1 4753
1 4754
1 4755
1 4756
1 4757
1 4758
1 4759
1 4760
1 4761
1 4762
1 4763
1 4764
1 4765
1 4766
1 4767
1 4768
1 4769
1 4770
1 4771
1 4772
1 4773
1 4774
1 4775
1 4776
1 4777
1 4778
1 4779
1 4780
1 4781
1 4782
1 4783
1 4784
1 4785
1 4786
1 4787
1 4788
1 4789
1 4790
1 4791
1 4792
1 4793
1 4794
1 4795
1 4796
1 4797
1 4798
1 4799
1 4800
1 4801
1 4802
1 4803
1 4804
1 4805
1 4806
1 4807
1 4808
1 4809
1 4810
1 4811
1 4812
1 4813
1 4814
1 4815
1 4816
1 4817
1 4818
1 4819
1 4820
1 4821
1 4822
1 4823
1 4824
1 4825
1 4826
1 4827
1 4828
1 4829
1 4830
1 4831
1 4832
1 4833
1 4834
1 4835
1 4836
1 4837
1 4838
1 4839
1 4840
1 4841
1 4842
1 4843
1 4844
1 4845
1 4846
1 4847
1 4848
1 4849
1 4850
1 4851
1 4852
1 4853
1 4854
1 4855
1 4856
1 4857
1 4858
1 4859
1 4860
1 4861
1 4862
1 4863
1 4864
1 4865
1 4866
1 4867
1 4868
1 4869
1 4870
1 4871
1 4872
1 4873
1 4874
1 4875
1 4876
1 4877
1 4878
1 4879
1 4880
1 4881
1 4882
1 4883
1 4884
1 4885
1 4886
1 4887
1 4888
1 4889
1 4890
1 4891
1 4892
1 4893
1 4894
1 4895
1 4896
1 4897
1 4898
1 4899
1 4900
1 4901
1 4902
1 4903
1 4904
1 4905
1 4906
1 4907
1 4908
1 4909
1 4910
1 4911
1 4912
1 4913
1 4914
1 4915
1 4916
1 4917
1 4918
1 4919
1 4920
1 4921
1 4922
1 4923
1 4924
1 4925
1 4926
1 4927
1 4928
1 4929
1 4930
1 4931
1 4932
1 4933
1 4934
1 4935
1 4936
1 4937
1 4938
1 4939
1 4940
1 4941
1 4942
1 4943
1 4944
1 4945
1 4946
1 4947
1 4948
1 4949
1 4950
1 4951
1 4952
1 4953
1 4954
1 4955
1 4956
1 4957
1 4958
1 4959
1 4960
1 4961
1 4962
1 4963
1 4964
1 4965
1 4966
1 4967
1 4968
1 4969
1 4970
1 4971
1 4972
1 4973
1 4974
1 4975
1 4976
1 4977
1 4978
1 4979
1 4980
1 4981
1 4982
1 4983
1 4984
1 4985
1 4986
1 4987
1 4988
1 4989
1 4990
1 4991
1 4992
1 4993
1 4994
1 4995
1 4996
1 4997
1 4998
1 4999
CELL_TYPES 5000
1 
1 
1 
1 
1 
1 
1 
1 
1 
1 
1 
1 
1 
1 
1 
1 
1 
1 
1 
1 
1 
1 
1 
1 
1 
1 
1 
1 
1 
1 
1 
1 
1 
1 
1 
1 
1 
1 
1 
1 
1 
1 
1 
1 
1 
1 
1 
1 
1 
1 
1 
1 
1 
1 
1 
1 
1 
1 
1 
1 
1 
1 
1 
1 
1 
1 
1 
1 
1 
1 
1 
1 
1 
1 
1 
1 
1 
1 
1 
1 
1 
1 
1 
1 
1 
1 
1 
1 
1 
1 
1 
1 
1 
1 
1 
1 
1 
1 
1 
1 
1 
1 
1 
1 
1 
1 
1 
1 
1 
1 
1 
1 
1 
1 
1 
1 
1 
1 
1 
1 
1 
1 
1 
1 
1 
1 
1 
1 
1 
1 
1 
1 
1 
1 
1 
1 
1 
1 
1 
1 
1 
1 
1 
1 
1 
1 
1 
1 
1 
1 
1 
1 
1 
1 
1 
1 
1 
1 
1 
1 
1 
1 
1 
1 
1 
1 
1 
1 
1 
1 
1 
1 
1 
1 
1 
1 
1 
1 
1 
1 
1 
1 
1 
1 
1 
1 
1 
1 
1 
1 
1 
1 
1 
1 
1 
1 
1 
1 
1 
1 
1 
1 
1 
1 
1 
1 
1 
1 
1 
1 
1 
1 
1 
1 
1 
1 
1 
1 
1 
1 
1 
1 
1 
1 
1 
1 
1 
1 
1 
1 
1 
1 
1 
1 
1 
1 
1 
1 
1 
1 
1 
1 
1 
1 
1 
1 
1 
1 
1 
1 
1 
1 
1 
1 
1 
1 
1 
1 
1 
1 
1 
1 
1 
1 
1 
1 
1 
1 
1 
1 
1 
1 
1 
1 
1 
1 
1 
1 
1 
1 
1 
1 
1 
1 
1 
1 
1 
1 
1 
1 
1 
1 
1 
1 
1 
1 
1 
1 
1 
1 
1 
1 
1 
1 
1 
1 
1 
1 
1 
1 
1 
1 
1 
1 
1 
1 
1 
1 
1 
1 
1 
1 
1 
1 
1 
1 
1 
1 
1 
1 
1 
1 
1 
1 
1 
1 
1 
1 
1 
1 
1 
1 
1 
1 
1 
1 
1 
1 
1 
1 
1 
1 
1 
1 
1 
1 
1 
1 
1 
1 
1 
1 
1 
1 
1 
1 
1 
1 
1 
1 
1 
1 
1 
1 
1 
1 
1 
1 
1 
1 
1 
1 
1 
1 
1 
1 
1 
1 
1 
1 
1 
1 
1 
1 
1 
1 
1 
1 
1 
1 
1 
1 
1 
1 
1 
1 
1 
1 
1 
1 
1 
1 
1 
1 
1 
1 
1 
1 
1 
1 
1 
1 
1 
1 
1 
1 
1 
1 
1 
1 
1 
1 
1 
1 
1 
1 
1 
1 
1 
1 
1 
1 
1 
1 
1 
1 
1 
1 
1 
1 
1 
1 
1 
1 
1 
1 
1 
1 
1 
1 
1 
1 
1 
1 
1 
1 
1 
1 
1 
1 
1 
1 
1 
1 
1 
1 
1 
1 
1 
1 
1 
1 
1 
1 
1 
1 
1 
1 
1 
1 
1 
1 
1 
1 
1 
1 
1 
1 
1 
1 
1 
1 
1 
1 
1 
1 
1 
1 
1 
1 
1 
1 
1 
1 
1 
1 
1 
1 
1 
1 
1 
1 
1 
1 
1 
1 
1 
1 
1 
1 
1 
1 
1 
1 
1 
1 
1 
1 
1 
1 
1 
1 
1 
1 
1 
1 
1 
1 
1 
1 
1 
1 
1 
1 
1 
1 
1 
1 
1 
1 
1 
1 
1 
1 
1 
1 
1 
1 
1 
1 
1 
1 
1 
1 
1 
1 
1 
1 
1 
1 
1 
1 
1 
1 
1 
1 
1 
1 
1 
1 
1 
1 
1 
1 
1 
1 
1 
1 
1 
1 
1 
1 
1 
1 
1 
1 
1 
1 
1 
1 
1 
1 
1 
1 
1 
1 
1 
1 
1 
1 
1 
1 
1 
1 
1 
1 
1 
1 
1 
1 
1 
1 
1 
1 
1 
1 
1 
1 
1 
1 
1 
1 
1 
1 
1 
1 
1 
1 
1 
1 
1 
1 
1 
1 
1 
1 
1 
1 
1 
1 
1 
1 
1 
1 
1 
1 
1 
1 
1 
1 
1 
1 
1 
1 
1 
1 
1 
1 
1 
1 
1 
1 
1 
1 
1 
1 
1 
1 
1 
1 
1 
1 
1 
1 
1 
1 
1 
1 
1 
1 
1 
1 
1 
1 
1 
1 
1 
1 
1 
1 
1 
1 
1 
1 
1 
1 
1 
1 
1 
1 
1 
1 
1 
1 
1 
1 
1 
1 
1 
1 
1 
1 
1 
1 
1 
1 
1 
1 
1 
1 
1 
1 
1 
1 
1 
1 
1 
1 
1 
1 
1 
1 
1 
1 
1 
1 
1 
1 
1 
1 
1 
1 
1 
1 
1 
1 
1 
1 
1 
1 
1 
1 
1 
1 
1 
1 
1 
1 
1 
1 
1 
1 
1 
1 
1 
1 
1 
1 
1 
1 
1 
1 
1 
1 
1 
1 
1 
1 
1 
1 
1 
1 
1 
1 
1 
1 
1 
1 
1 
1 
1 
1 
1 
1 
1 
1 
1 
1 
1 
1 
1 
1 
1 
1 
1 
1 
1 
1 
1 
1 
1 
1 
1 
1 
1 
1 
1 
1 
1 
1 
1 
1 
1 
1 
1 
1 
1 
1 
1 
1 
1 
1 
1 
1 
1 
1 
1 
1 
1 
1 
1 
1 
1 
1 
1 
1 
1 
1 
1 
1 
1 
1 
1 
1 
1 
1 
1 
1 
1 
1 
1 
1 
1 
1 
1 
1 
1 
1 
1 
1 
1 
1 
1 
1 
1 
1 
1 
1 
1 
1 
1 
1 
1 
1 
1 
1 
1 
1 
1 
1 
1 
1 
1 
1 
1 
1 
1 
1 
1 
1 
1 
1 
1 
1 
1 
1 
1 
1 
1 
1 
1 
1 
1 
1 
1 
1 
1 
1 
1 
1 
1 
1 
1 
1 
1 
1 
1 
1 
1 
1 
1 
1 
1 
1 
1 
1 
1 
1 
1 
1 
1 
1 
1 
1 
1 
1 
1 
1 
1 
1 
1 
1 
1 
1 
1 
1 
1 
1 
1 
1 
1 
1 
1 
1 
1 
1 
1 
1 
1 
1 
1 
1 
1 
1 
1 
1 
1 
1 
1 
1 
1 
1 
1 
1 
1 
1 
1 
1 
1 
1 
1 
1 
1 
1 
1 
1 
1 
1 
1 
1 
1 
1 
1 
1 
1 
1 
1 
1 
1 
1 
1 
1 
1 
1 
1 
1 
1 
1 
1 
1 
1 
1 
1 
1 
1 
1 
1 
1 
1 
1 
1 
1 
1 
1 
1 
1 
1 
1 
1 
1 
1 
1 
1 
1 
1 
1 
1 
1 
1 
1 
1 
1 
1 
1 
1 
1 
1 
1 
1 
1 
1 
1 
1 
1 
1 
1 
1 
1 
1 
1 
1 
1 
1 
1 
1 
1 
1 
1 
1 
1 
1 
1 
1 
1 
1 
1 
1 
1 
1 
1 
1 
1 
1 
1 
1 
1 
1 
1 
1 
1 
1 
1 
1 
1 
1 
1 
1 
1 
1 
1 
1 
1 
1 
1 
1 
1 
1 
1 
1 
1 
1 
1 
1 
1 
1 
1 
1 
1 
1 
1 
1 
1 
1 
1 
1 
1 
1 
1 
1 
1 
1 
1 
1 
1 
1 
1 
1 
1 
1 
1 
1 
1 
1 
1 
1 
1 
1 
1 
1 
1 
1 
1 
1 
1 
1 
1 
1 
1 
1 
1 
1 
1 
1 
1 
1 
1 
1 
1 
1 
1 
1 
1 
1 
1 
1 
1 
1 
1 
1 
1 
1 
1 
1 
1 
1 
1 
1 
1 
1 
1 
1 
1 
1 
1 
1 
1 
1 
1 
1 
1 
1 
1 
1 
1 
1 
1 
1 
1 
1 
1 
1 
1 
1 
1 
1 
1 
1 
1 
1 
1 
1 
1 
1 
1 
1 
1 
1 
1 
1 
1 
1 
1 
1 
1 
1 
1 
1 
1 
1 
1 
1 
1 
1 
1 
1 
1 
1 
1 
1 
1 
1 
1 
1 
1 
1 
1 
1 
1 
1 
1 
1 
1 
1 
1 
1 
1 
1 
1 
1 
1 
1 
1 
1 
1 
1 
1 
1 
1 
1 
1 
1 
1 
1 
1 
1 
1 
1 
1 
1 
1 
1 
1 
1 
1 
1 
1 
1 
1 
1 
1 
1 
1 
1 
1 
1 
1 
1 
1 
1 
1 
1 
1 
1 
1 
1 
1 
1 
1 
1 
1 
1 
1 
1 
1 
1 
1 
1 
1 
1 
1 
1 
1 
1 
1 
1 
1 
1 
1 
1 
1 
1 
1 
1 
1 
1 
1 
1 
1 
1 
1 
1 
1 
1 
1 
1 
1 
1 
1 
1 
1 
1 
1 
1 
1 
1 
1 
1 
1 
1 
1 
1 
1 
1 
1 
1 
1 
1 
1 
1 
1 
1 
1 
1 
1 
1 
1 
1 
1 
1 
1 
1 
1 
1 
1 
1 
1 
1 
1 
1 
1 
1 
1 
1 
1 
1 
1 
1 
1 
1 
1 
1 
1 
1 
1 
1 
1 
1 
1 
1 
1 
1 
1 
1 
1 
1 
1 
1 
1 
1 
1 
1 
1 
1 
1 
1 
1 
1 
1 
1 
1 
1 
1 
1 
1 
1 
1 
1 
1 
1 
1 
1 
1 
1 
1 
1 
1 
1 
1 
1 
1 
1 
1 
1 
1 
1 
1 
1 
1 
1 
1 
1 
1 
1 
1 
1 
1 
1 
1 
1 
1 
1 
1 
1 
1 
1 
1 
1 
1 
1 
1 
1 
1 
1 
1 
1 
1 
1 
1 
1 
1 
1 
1 
1 
1 
1 
1 
1 
1 
1 
1 
1 
1 
1 
1 
1 
1 
1 
1 
1 
1 
1 
1 
1 
1 
1 
1 
1 
1 
1 
1 
1 
1 
1 
1 
1 
1 
1 
1 
1 
1 
1 
1 
1 
1 
1 
1 
1 
1 
1 
1 
1 
1 
1 
1 
1 
1 
1 
1 
1 
1 
1 
1 
1 
1 
1 
1 
1 
1 
1 
1 
1 
1 
1 
1 
1 
1 
1 
1 
1 
1 
1 
1 
1 
1 
1 
1 
1 
1 
1 
1 
1 
1 
1 
1 
1 
1 
1 
1 
1 
1 
1 
1 
1 
1 
1 
1 
1 
1 
1 
1 
1 
1 
1 
1 
1 
1 
1 
1 
1 
1 
1 
1 
1 
1 
1 
1 
1 
1 
1 
1 
1 
1 
1 
1 
1 
1 
1 
1 
1 
1 
1 
1 
1 
1 
1 
1 
1 
1 
1 
1 
1 
1 
1 
1 
1 
1 
1 
1 
1 
1 
1 
1 
1 
1 
1 
1 
1 
1 
1 
1 
1 
1 
1 
1 
1 
1 
1 
1 
1 
1 
1 
1 
1 
1 
1 
1 
1 
1 
1 
1 
1 
1 
1 
1 
1 
1 
1 
1 
1 
1 
1 
1 
1 
1 
1 
1 
1 
1 
1 
1 
1 
1 
1 
1 
1 
1 
1 
1 
1 
1 
1 
1 
1 
1 
1 
1 
1 
1 
1 
1 
1 
1 
1 
1 
1 
1 
1 
1 
1 
1 
1 
1 
1 
1 
1 
1 
1 
1 
1 
1 
1 
1 
1 
1 
1 
1 
1 
1 
1 
1 
1 
1 
1 
1 
1 
1 
1 
1 
1 
1 
1 
1 
1 
1 
1 
1 
1 
1 
1 
1 
1 
1 
1 
1 
1 
1 
1 
1 
1 
1 
1 
1 
1 
1 
1 
1 
1 
1 
1 
1 
1 
1 
1 
1 
1 
1 
1 
1 
1 
1 
1 
1 
1 
1 
1 
1 
1 
1 
1 
1 
1 
1 
1 
1 
1 
1 
1 
1 
1 
1 
1 
1 
1 
1 
1 
1 
1 
1 
1 
1 
1 
1 
1 
1 
1 
1 
1 
1 
1 
1 
1 
1 
1 
1 
1 
1 
1 
1 
1 
1 
1 
1 
1 
1 
1 
1 
1 
1 
1 
1 
1 
1 
1 
1 
1 
1 
1 
1 
1 
1 
1 
1 
1 
1 
1 
1 
1 
1 
1 
1 
1 
1 
1 
1 
1 
1 
1 
1 
1 
1 
1 
1 
1 
1 
1 
1 
1 
1 
1 
1 
1 
1 
1 
1 
1 
1 
1 
1 
1 
1 
1 
1 
1 
1 
1 
1 
1 
1 
1 
1 
1 
1 
1 
1 
1 
1 
1 
1 
1 
1 
1 
1 
1 
1 
1 
1 
1 
1 
1 
1 
1 
1 
1 
1 
1 
1 
1 
1 
1 
1 
1 
1 
1 
1 
1 
1 
1 
1 
1 
1 
1 
1 
1 
1 
1 
1 
1 
1 
1 
1 
1 
1 
1 
1 
1 
1 
1 
1 
1 
1 
1 
1 
1 
1 
1 
1 
1 
1 
1 
1 
1 
1 
1 
1 
1 
1 
1 
1 
1 
1 
1 
1 
1 
1 
1 
1 
1 
1 
1 
1 
1 
1 
1 
1 
1 
1 
1 
1 
1 
1 
1 
1 
1 
1 
1 
1 
1 
1 
1 
1 
1 
1 
1 
1 
1 
1 
1 
1 
1 
1 
1 
1 
1 
1 
1 
1 
1 
1 
1 
1 
1 
1 
1 
1 
1 
1 
1 
1 
1 
1 
1 
1 
1 
1 
1 
1 
1 
1 
1 
1 
1 
1 
1 
1 
1 
1 
1 
1 
1 
1 
1 
1 
1 
1 
1 
1 
1 
1 
1 
1 
1 
1 
1 
1 
1 
1 
1 
1 
1 
1 
1 
1 
1 
1 
1 
1 
1 
1 
1 
1 
1 
1 
1 
1 
1 
1 
1 
1 
1 
1 
1 
1 
1 
1 
1 
1 
1 
1 
1 
1 
1 
1 
1 
1 
1 
1 
1 
1 
1 
1 
1 
1 
1 
1 
1 
1 
1 
1 
1 
1 
1 
1 
1 
1 
1 
1 
1 
1 
1 
1 
1 
1 
1 
1 
1 
1 
1 
1 
1 
1 
1 
1 
1 
1 
1 
1 
1 
1 
1 
1 
1 
1 
1 
1 
1 
1 
1 
1 
1 
1 
1 
1 
1 
1 
1 
1 
1 
1 
1 
1 
1 
1 
1 
1 
1 
1 
1 
1 
1 
1 
1 
1 
1 
1 
1 
1 
1 
1 
1 
1 
1 
1 
1 
1 
1 
1 
1 
1 
1 
1 
1 
1 
1 
1 
1 
1 
1 
1 
1 
1 
1 
1 
1 
1 
1 
1 
1 
1 
1 
1 
1 
1 
1 
1 
1 
1 
1 
1 
1 
1 
1 
1 
1 
1 
1 
1 
1 
1 
1 
1 
1 
1 
1 
1 
1 
1 
1 
1 
1 
1 
1 
1 
1 
1 
1 
1 
1 
1 
1 
1 
1 
1 
1 
1 
1 
1 
1 
1 
1 
1 
1 
1 
1 
1 
1 
1 
1 
1 
1 
1 
1 
1 
1 
1 
1 
1 
1 
1 
1 
1 
1 
1 
1 
1 
1 
1 
1 
1 
1 
1 
1 
1 
1 
1 
1 
1 
1 
1 
1 
1 
1 
1 
1 
1 
1 
1 
1 
1 
1 
1 
1 
1 
1 
1 
1 
1 
1 
1 
1 
1 
1 
1 
1 
1 
1 
1 
1 
1 
1 
1 
1 
1 
1 
1 
1 
1 
1 
1 
1 
1 
1 
1 
1 
1 
1 
1 
1 
1 
1 
1 
1 
1 
1 
1 
1 
1 
1 
1 
1 
1 
1 
1 
1 
1 
1 
1 
1 
1 
1 
1 
1 
1 
1 
1 
1 
1 
1 
1 
1 
1 
1 
1 
1 
1 
1 
1 
1 
1 
1 
1 
1 
1 
1 
1 
1 
1 
1 
1 
1 
1 
1 
1 
1 
1 
1 
1 
1 
1 
1 
1 
1 
1 
1 
1 
1 
1 
1 
1 
1 
1 
1 
1 
1 
1 
1 
1 
1 
1 
1 
1 
1 
1 
1 
1 
1 
1 
1 
1 
1 
1 
1 
1 
1 
1 
1 
1 
1 
1 
1 
1 
1 
1 
1 
1 
1 
1 
1 
1 
1 
1 
1 
1 
1 
1 
1 
1 
1 
1 
1 
1 
1 
1 
1 
1 
1 
1 
1 
1 
1 
1 
1 
1 
1 
1 
1 
1 
1 
1 
1 
1 
1 
1 
1 
1 
1 
1 
1 
1 
1 
1 
1 
1 
1 
1 
1 
1 
1 
1 
1 
1 
1 
1 
1 
1 
1 
1 
1 
1 
1 
1 
1 
1 
1 
1 
1 
1 
1 
1 
1 
1 
1 
1 
1 
1 
1 
1 
1 
1 
1 
1 
1 
1 
1 
1 
1 
1 
1 
1 
1 
1 
1 
1 
1 
1 
1 
1 
1 
1 
1 
1 
1 
1 
1 
1 
1 
1 
1 
1 
1 
1 
1 
1 
1 
1 
1 
1 
1 
1 
1 
1 
1 
1 
1 
1 
1 
1 
1 
1 
1 
1 
1 
1 
1 
1 
1 
1 
1 
1 
1 
1 
1 
1 
1 
1 
1 
1 
1 
1 
1 
1 
1 
1 
1 
1 
1 
1 
1 
1 
1 
1 
1 
1 
1 
1 
1 
1 
1 
1 
1 
1 
1 
1 
1 
1 
1 
1 
1 
1 
1 
1 
1 
1 
1 
1 
1 
1 
1 
1 
1 
1 
1 
1 
1 
1 
1 
1 
1 
1 
1 
1 
1 
1 
1 
1 
1 
1 
1 
1 
1 
1 
1 
1 
1 
1 
1 
1 
1 
1 
1 
1 
1 
1 
1 
1 
1 
1 
1 
1 
1 
1 
1 
1 
1 
1 
1 
1 
1 
1 
1 
1 
1 
1 
1 
1 
1 
1 
1 
1 
1 
1 
1 
1 
1 
1 
1 
1 
1 
1 
1 
1 
1 
1 
1 
1 
1 
1 
1 
1 
1 
1 
1 
1 
1 
1 
1 
1 
1 
1 
1 
1 
1 
1 
1 
1 
1 
1 
1 
1 
1 
1 
1 
1 
1 
1 
1 
1 
1 
1 
1 
1 
1 
1 
1 
1 
1 
1 
1 
1 
1 
1 
1 
1 
1 
1 
1 
1 
1 
1 
1 
1 
1 
1 
1 
1 
1 
1 
1 
1 
1 
1 
1 
1 
1 
1 
1 
1 
1 
1 
1 
1 
1 
1 
1 
1 
1 
1 
1 
1 
1 
1 
1 
1 
1 
1 
1 
1 
1 
1 
1 
1 
1 
1 
1 
1 
1 
1 
1 
1 
1 
1 
1 
1 
1 
1 
1 
1 
1 
1 
1 
1 
1 
1 
1 
1 
1 
1 
1 
1 
1 
1 
1 
1 
1 
1 
1 
1 
1 
1 
1 
1 
1 
1 
1 
1 
1 
1 
1 
1 
1 
1 
1 
1 
1 
1 
1 
1 
1 
1 
1 
1 
1 
1 
1 
1 
1 
1 
1 
1 
1 
1 
1 
1 
1 
1 
1 
1 
1 
1 
1 
1 
1 
1 
1 
1 
1 
1 
1 
1 
1 
1 
1 
1 
1 
1 
1 
1 
1 
1 
1 
1 
1 
1 
1 
1 
1 
1 
1 
1 
1 
1 
1 
1 
1 
1 
1 
1 
1 
1 
1 
1 
1 
1 
1 
1 
1 
1 
1 
1 
1 
1 
1 
1 
1 
1 
1 
1 
1 
1 
1 
1 
1 
1 
1 
1 
1 
1 
1 
1 
1 
1 
1 
1 
1 
1 
1 
1 
1 
1 
1 
1 
1 
1 
1 
1 
1 
1 
1 
1 
1 
1 
1 
1 
1 
1 
1 
1 
1 
1 
1 
1 
1 
1 
1 
1 
1 
1 
1 
1 
1 
1 
1 
1 
1 
1 
1 
1 
1 
1 
1 
1 
1 
1 
1 
1 
1 
1 
1 
1 
1 
1 
1 
1 
1 
1 
1 
1 
1 
1 
1 
1 
1 
1 
1 
1 
1 
1 
1 
1 
1 
1 
1 
1 
1 
1 
1 
1 
1 
1 
1 
1 
1 
1 
1 
1 
1 
1 
1 
1 
1 
1 
1 
1 
1 
1 
1 
1 
1 
1 
1 
1 
1 
1 
1 
1 
1 
1 
1 
1 
1 
1 
1 
1 
1 
1 
1 
1 
1 
1 
1 
1 
1 
1 
1 
1 
1 
1 
1 
1 
1 
1 
1 
1 
1 
1 
1 
1 
1 
1 
1 
1 
1 
1 
1 
1 
1 
1 
1 
1 
1 
1 
1 
1 
1 
1 
1 
1 
1 
1 
1 
1 
1 
1 
1 
1 
1 
1 
1 
1 
1 
1 
1 
1 
1 
1 
1 
1 
1 
1 
1 
1 
1 
1 
1 
1 
1 
1 
1 
1 
1 
1 
1 
1 
1 
1 
1 
1 
1 
1 
1 
1 
1 
1 
1 
1 
1 
1 
1 
1 
1 
1 
1 
1 
1 
1 
1 
1 
1 
1 
1 
1 
1 
1 
1 
1 
1 
1 
1 
1 
1 
1 
1 
1 
1 
1 
1 
1 
1 
1 
1 
1 
1 
1 
1 
1 
1 
1 
1 
1 
1 
1 
1 
1 
1 
1 
1 
1 
1 
1 
1 
1 
1 
1 
1 
1 
1 
1 
1 
1 
1 
1 
1 
1 
1 
1 
1 
1 
1 
1 
1 
1 
1 
1 
1 
1 
1 
1 
1 
1 
1 
1 
1 
1 
1 
1 
1 
1 
1 
1 
1 
1 
1 
1 
1 
1 
1 
1 
1 
1 
1 
1 
1 
1 
1 
1 
1 
1 
1 
1 
1 
1 
1 
1 
1 
1 
1 
1 
1 
1 
1 
1 
1 
1 
1 
1 
1 
1 
1 
1 
1 
1 
1 
1 
1 
1 
1 
1 
1 
1 
1 
1 
1 
1 
1 
1 
1 
1 
1 
1 
1 
1 
1 
1 
1 
1 
1 
1 
1 
1 
1 
1 
1 
1 
1 
1 
1 
1 
1 
1 
1 
1 
1 
1 
1 
1 
1 
1 
1 
1 
1 
1 
1 
1 
1 
1 
1 
1 
1 
1 
1 
1 
1 
1 
1 
1 
1 
1 
1 
1 
1 
1 
1 
1 
1 
1 
1 
1 
1 
1 
1 
1 
1 
1 
1 
1 
1 
1 
1 
1 
1 
1 
1 
1 
1 
1 
1 
1 
1 
1 
1 
1 
1 
1 
1 
1 
1 
1 
1 
1 
1 
1 
1 
1 
1 
1 
1 
1 
1 
1 
1 
1 
1 
1 
1 
1 
1 
1 
1 
1 
1 
1 
1 
1 
1 
1 
1 
1 
1 
1 
1 
1 
1 
1 
1 
1 
1 
1 
1 
1 
1 
1 
1 
1 
1 
1 
1 
1 
1 
1 
1 
1 
1 
1 
1 
1 
1 
1 
1 
1 
1 
1 
1 
1 
1 
1 
1 
1 
1 
1 
1 
1 
1 
1 
1 
1 
1 
1 
1 
1 
1 
1 
1 
1 
1 
1 
1 
1 
1 
1 
1 
1 
1 
1 
1 
1 
1 
1 
1 
1 
1 
1 
1 
1 
1 
1 
1 
1 
1 
1 
1 
1 
1 
1 
1 
1 
1 
1 
1 
1 
1 
1 
1 
1 
1 
1 
1 
1 
1 
1 
1 
1 
1 
1 
1 
1 
1 
1 
1 
1 
1 
1 
1 
1 
1 
1 
1 
1 
1 
1 
1 
1 
1 
1 
1 
1 
1 
1 
1 
1 
1 
1 
1 
1 
1 
1 
1 
1 
1 
1 
1 
1 
1 
1 
1 
1 
1 
1 
1 
1 
1 
1 
1 
1 
1 
1 
1 
1 
1 
1 
1 
1 
1 
1 
1 
1 
1 
1 
1 
1 
1 
1 
1 
1 
1 
1 
1 
1 
1 
1 
1 
1 
1 
1 
1 
1 
1 
1 
1 
1 
1 
1 
1 
1 
1 
1 
1 
1 
1 
1 
1 
1 
1 
1 
1 
1 
1 
1 
1 
1 
1 
1 
1 
1 
1 
1 
1 
1 
1 
1 
1 
1 
1 
1 
1 
1 
1 
1 
1 
1 
1 
1 
1 
1 
1 
1 
1 
1 
1 
1 
1 
1 
1 
1 
1 
1 
1 
1 
1 
1 
1 
1 
1 
1 
1 
1 
1 
1 
1 
1 
1 
1 
1 
1 
1 
1 
1 
1 
1 
1 
1 
1 
1 
1 
1 
1 
1 
1 
1 
1 
1 
1 
1 
1 
1 
1 
1 
1 
1 
1 
1 
1 
1 
1 
1 
1 
1 
1 
1 
1 
1 
1 
1 
1 
1 
1 
1 
1 
1 
1 
1 
1 
1 
1 
1 
1 
1 
1 
1 
1 
1 
1 
1 
1 
1 
1 
1 
1 
1 
1 
1 
1 
1 
1 
1 
1 
1 
1 
1 
1 
1 
1 
1 
1 
1 
1 
1 
1 
1 
1 
1 
1 
1 
1 
1 
1 
1 
1 
1 
1 
1 
1 
1 
1 
1 
1 
1 
1 
1 
1 
1 
1 
1 
1 
1 
1 
1 
1 
1 
1 
1 
1 
1 
1 
1 
1 
1 
1 
1 
1 
1 
1 
1 
1 
1 
1 
1 
1 
1 
1 
1 
1 
1 
1 
1 
1 
1 
1 
1 
1 
1 
1 
1 
1 
1 
1 
1 
1 
1 
1 
1 
1 
1 
1 
1 
1 
1 
1 
1 
1 
1 
1 
1 
1 
1 
1 
1 
1 
1 
1 
1 
1 
1 
1 
1 
1 
1 
1 
1 
1 
1 
1 
1 
1 
1 
1 
1 
1 
1 
1 
1 
1 
1 
1 
1 
1 
1 
1 
1 
1 
1 
1 
1 
1 
1 
1 
1 
1 
1 
1 
1 
1 
1 
1 
1 
1 
1 
1 
1 
1 
1 
1 
1 
1 
1 
1 
1 
1 
1 
1 
1 
1 
1 
1 
1 
1 
1 
1 
1 
1 
1 
1 
1 
1 
1 
1 
1 
1 
1 
1 
1 
1 
1 
1 
1 
1 
1 
1 
1 
1 
1 
1 
1 
1 
1 
1 
1 
1 
1 
1 
1 
1 
1 
1 
1 
1 
1 
1 
1 
1 
1 
1 
1 
1 
1 
1 
1 
1 
1 
1 
1 
1 
1 
1 
1 
1 
1 
1 
1 
1 
1 
1 
1 
1 
1 
1 
1 
1 
1 
1 
1 
1 
1 
1 
1 
1 
1 
1 
1 
1 
1 
1 
1 
1 
1 
1 
1 
1 
1 
1 
1 
1 
1 
1 
1 
1 
1 
1 
1 
1 
1 
1 
1 
1 
1 
1 
1 
1 
1 
1 
1 
1 
1 
1 
1 
1 
1 
1 
1 
1 
1 
1 
1 
1 
1 
1 
1 
1 
1 
1 
1 
1 
1 
1 
1 
1 
1 
1 
1 
1 
1 
1 
1 
1 
1 
1 
1 
1 
1 
1 
1 
1 
1 
1 
1 
1 
1 
1 
1 
1 
1 
1 
1 
1 
1 
1 
1 
1 
1 
1 
1 
1 
1 
1 
1 
1 
1 
1 
1 
1 
1 
1 
1 
1 
1 
1 
1 
1 
1 
1 
1 
1 
1 
1 
1 
1 
1 
1 
1 
1 
1 
1 
1 
1 
1 
1 
1 
1 
1 
1 
1 
1 
1 
1 
1 
1 
1 
1 
1 
1 
1 
1 
1 
1 
1 
1 
1 
1 
1 
1 
1 
1 
1 
1 
1 
1 
1 
1 
1 
1 
1 
1 
1 
1 
1 
1 
1 
1 
1 
1 
1 
1 
1 
1 
1 
1 
1 
1 
1 
1 
1 
1 
1 
1 
1 
1 
1 
1 
1 
1 
1 
1 
1 
1 
1 
1 
1 
1 
1 
1 
1 
1 
1 
1 
1 
1 
1 
1 
1 
1 
1 
1 
1 
1 
1 
1 
1 
1 
1 
1 
1 
1 
1 
1 
1 
1 
1 
1 
1 
1 
1 
1 
1 
1 
1 
1 
1 
1 
1 
1 
1 
1 
1 
1 
1 
1 
1 
1 
1 
1 
1 
1 
1 
1 
1 
1 
1 
1 
1 
1 
1 
1 
1 
1 
1 
1 
1 
1 
1 
1 
1 
1 
1 
1 
1 
1 
1 
1 
1 
1 
1 
1 
1 
1 
1 
1 
1 
1 
1 
1 
1 
1 
1 
1 
1 
1 
1 
1 
1 
1 
1 
1 
1 
1 
1 
1 
1 
1 
1 
1 
1 
1 
1 
1 
1 
1 
1 
1 
1 
1 
1 
1 
1 
1 
1 
1 
1 
1 
1 
1 
1 
1 
1 
1 
1 
1 
1 
1 
1 
1 
1 
1 
1 
1 
1 
1 
1 
1 
1 
1 
1 
1 
1 
1 
1 
1 
1 
1 
1 
1 
1 
1 
1 
1 
1 
1 
1 
1 
1 
1 
1 
1 
1 
1 
1 
1 
1 
1 
1 
1 
1 
1 
1 
1 
1 
1 
1 
1 
1 
1 
1 
1 
1 
1 
1 
1 
1 
1 
1 
1 
1 
1 
1 
1 
1 
1 
1 
1 
1 
1 
1 
1 
1 
1 
1 
1 
1 
1 
1 
1 
1 
1 
1 
1 
1 
1 
1 
1 
1 
1 
1 
1 
1 
1 
1 
1 
1 
1 
1 
1 
1 
1 
1 
1 
1 
1 
1 
1 
1 
1 
1 
1 
1 
1 
1 
1 
1 
1 
1 
1 
1 
1 
1 
1 
1 
1 
1 
1 
1 
1 
1 
1 
1 
1 
1 
1 
1 
1 
1 
1 
1 
1 
1 
1 
1 
1 
1 
1 
1 
1 
1 
1 
1 
1 
1 
1 
1 
1 
1 
1 
1 
1 
1 
1 
1 
1 
1 
1 
1 
1 
1 
1 
1 
1 
1 
1 
1 
1 
1 
1 
1 
1 
1 
1 
1 
1 
1 
1 
1 
1 
1 
1 
1 
1 
1 
1 
1 
1 
1 
1 
1 
1 
1 
1 
1 
1 
1 
1 
1 
1 
1 
1 
1 
1 
1 
1 
1 
1 
1 
1 
1 
1 
1 
1 
1 
1 
1 
1 
1 
1 
1 
1 
1 
1 
1 
1 
1 
1 
1 
1 
1 
1 
1 
1 
1 
1 
1 
1 
1 
1 
1 
1 
1 
1 
1 
1 
1 
1 
1 
1 
1 
1 
1 
1 
1 
1 
1 
1 
1 
1 
1 
1 
1 
1 
1 
1 
1 
1 
1 
1 
1 
1 
1 
1 
1 
1 
1 
1 
1 
1 
1 
1 
1 
1 
1 
1 
1 
1 
1 
1 
1 
1 
1 
1 
1 
1 
1 
1 
1 
1 
1 
1 
1 
1 
1 
1 
1 
1 
1 
1 
1 
1 
1 
1 
1 
1 
1 
1 
1 
1 
1 
1 
1 
1 
1 
1 
1 
1 
1 
1 
1 
1 
1 
1 
1 
1 
1 
1 
1 
1 
1 
1 
1 
1 
1 
1 
1 
1 
1 
1 
1 
1 
1 
1 
1 
1 
1 
1 
1 
1 
1 
1 
1 
1 
1 
1 
1 
1 
1 
1 
1 
1 
1 
1 
1 
1 
1 
1 
1 
1 
1 
1 
1 
1 
1 
1 
1 
1 
1 
1 
1 
1 
1 
1 
1 
1 
1 
1 
1 
1 
1 
1 
1 
1 
1 
1 
1 
1 
1 
1 
1 
1 
1 
1 
1 
1 
1 
1 
1 
1 
1 
1 
1 
1 
1 
1 
1 
1 
1 
1 
1 
1 
1 
1 
1 
1 
1 
1 
1 
1 
1 
1 
1 
1 
1 
1 
1 
1 
1 
1 
1 
1 
1 
1 
1 
1 
1 
1 
1 
1 
1 
1 
1 
1 
1 
1 
1 
1 
1 
1 
1 
1 
1 
1 
1 
1 
1 
1 
1 
1 
1 
1 
1 
1 
1 
1 
1 
1 
1 
1 
1 
1 
1 
1 
1 
1 
1 
1 
1 
1 
1 
1 
1 
1 
1 
1 
1 
1 
1 
1 
1 
1 
1 
1 
1 
1 
1 
1 
1 
1 
1 
1 
POINT_DATA 5000
VECTORS Stress float
541.413 313.675 0.
-184.105 -200.946 0.
-294.051 -458.068 0.
-264.012 -610.619 0.
-219.043 -506.728 0.
-174.074 -402.838 0.
-195.021 -563.324 0.
-454.868 -1169.57 0.
-714.715 -1775.82 0.
-471.518 -1717.23 0.
-363.517 -1465.22 0.
-255.515 -1213.21 0.
-388.44 -1147.61 0.
-327.398 -1005.17 0.
-620.015 -994.646 0.
-502.645 -720.736 0.
-385.276 -446.825 0.
-41.9548 -318.347 0.
-323.523 -975.722 0.
-605.091 -1633.1 0.
20.2522 -1511.88 0.
117.235 -1285.43 0.
214.218 -1058.98 0.
-882.986 -1301.92 0.
-755.167 -1004.22 0.
-498.881 -651.461 0.
-891.864 -571.532 0.
-761.284 -265.853 0.
-1111.02 -299.454 0.
-1323.1 -794.478 0.
-1535.17 -1289.5 0.
-1748.75 -1465.06 0.
-1568.63 -1044.31 0.
-1388.51 -623.554 0.
-1306.13 -858.962 0.
-1625.72 -1603.86 0.
-1945.32 -2348.76 0.
-3790.35 -2622.14 0.
-3425.9 -1771.72 0.
-3726.37 -1203.13 0.
-3415 -477.744 0.
-3103.64 247.646 0.
-5917.12 -487.912 0.
-5814.35 -246.795 0.
-5711.58 -5.67822 0.
-8572.96 -1981.06 0.
-9413.68 -3940.33 0.
-10254.4 -5899.59 0.
45253.7 19408 0.
46618.4 22598.8 0.
-357823 -148129 0.
45928.5 22321.1 0.
44574 19154.1 0.
-10136.6 -5850.84 0.
-9435.1 -4215.43 0.
-8733.61 -2580 0.
-5304.45 -561.519 0.
-5454.56 -913.058 0.
-5604.67 -1264.6 0.
-3875.44 -546.24 0.
-3821.38 -420.229 0.
-3767.32 -294.219 0.
-3562.17 -441.958 0.
-3704.27 -773.554 0.
-838.523 108.047 0.
-1260.29 -876.62 0.
-1682.06 -1861.29 0.
-1455.92 -2158.74 0.
-1269.91 -1725.28 0.
-1083.89 -1291.83 0.
-670.332 -831.336 0.
-554.215 -561.04 0.
-438.097 -290.743 0.
-1687.69 -697.632 0.
-1623.27 -547.332 0.
-18.1016 255.799 0.
-244.148 -340.402 0.
-506.2 -952.026 0.
-40.4613 -1175.6 0.
-139.466 -1406.71 0.
-238.47 -1637.82 0.
-46.532 -1457.34 0.
176.849 -935.574 0.
400.23 -413.81 0.
-570.14 -531.844 0.
-446.972 -243.393 0.
-323.804 45.0582 0.
-439.581 -387.896 0.
-668.199 -922.265 0.
-398.483 -1150.77 0.
-285.265 -886.942 0.
-172.047 -623.109 0.
-60.2289 -474.443 0.
-107.42 -585.951 0.
-154.612 -697.458 0.
335.036 -420.362 0.
431.014 -196.109 0.
526.991 28.1439 0.
207.186 -381.673 0.
6.06638 -849.866 0.
402.928 285.104 0.
-276.944 -211.567 0.
-386.74 -469.506 0.
-328.034 -604.361 0.
-282.542 -501.324 0.
-237.049 -398.287 0.
-47.8397 -468.427 0.
-307.65 -1074.47 0.
-567.461 -1680.51 0.
-198.001 -1569.65 0.
-90.0021 -1317.63 0.
17.9969 -1065.61 0.
-561.829 -1189.91 0.
-500.809 -1047.51 0.
-330.548 -840.266 0.
-213.149 -566.189 0.
-95.7504 -292.112 0.
-674.718 -558.52 0.
-955.905 -1215.77 0.
-1237.09 -1873.02 0.
1017.07 -1054.17 0.
1114.03 -827.439 0.
1211 -600.712 0.
-1119.15 -1370.84 0.
-991.15 -1073.78 0.
-1193.84 -918.45 0.
-1274.87 -704.577 0.
-1145.04 -398.669 0.
-1026.95 -232.459 0.
-1238.87 -727.518 0.
-1450.79 -1222.58 0.
-1666.41 -1398.9 0.
-1486.42 -977.516 0.
-1306.43 -556.133 0.
-808.311 -615.021 0.
-1128.45 -1359.54 0.
-1448.59 -2104.07 0.
-3425.97 -2434.92 0.
-3061.4 -1584.18 0.
-3334.1 -1001.23 0.
-3021.95 -276.295 0.
-2709.81 448.64 0.
-5272.66 -181.553 0.
-5170.57 60.6016 0.
-5068.48 302.757 0.
-5513.96 -645.737 0.
-6358.05 -2608.02 0.
-7202.14 -4570.3 0.
40236.7 17298 0.
41592.4 20480.5 0.
-309493 -127384 0.
40884.8 20195.2 0.
39539.3 17036.1 0.
-7055.27 -4507.17 0.
-6351.41 -2868.96 0.
-5647.55 -1230.74 0.
-4431.6 -156.088 0.
-4581.13 -508.871 0.
-4730.67 -861.654 0.
-3218.48 -231.88 0.
-3164.3 -105.858 0.
-3110.12 20.164 0.
-3530.5 -396.006 0.
-3672.63 -727.725 0.
-999.564 70.1755 0.
-1420.92 -914.61 0.
-1842.27 -1899.4 0.
-243.865 -1606.49 0.
-57.3084 -1172.95 0.
129.248 -739.41 0.
-969.266 -928.742 0.
-852.794 -658.909 0.
-736.321 -389.075 0.
-1836.7 -730.124 0.
-1772.31 -579.869 0.
-1182.1 -210.95 0.
-1332.98 -774.701 0.
-1594.74 -1385.97 0.
1597 -442.35 0.
1497.93 -673.81 0.
1398.87 -905.27 0.
-163.407 -1475.3 0.
59.6183 -953.277 0.
282.643 -431.258 0.
-940.546 -660.925 0.
-818.203 -372.283 0.
-695.861 -83.6408 0.
-478.982 -373.737 0.
-707.074 -908.726 0.
-375.886 -1111.24 0.
-262.518 -847.738 0.
-149.149 -584.238 0.
42.6286 -397.739 0.
-3.86424 -510.406 0.
-50.3572 -623.073 0.
156.724 -464.137 0.
252.466 -239.823 0.
348.209 -15.5082 0.
189.222 -358.035 0.
-12.4464 -825.338 0.
-274.894 -998.955 0.
-778.41 -1176.12 0.
-633.18 -837.965 0.
-825.816 -1622.88 0.
-561.865 -1006.33 0.
-916.334 -1832.78 0.
-1466.36 -4026.67 0.
-1098.01 -3168.69 0.
-2993.29 -7592.51 0.
-5103.11 -13503.8 0.
-1526.3 -5159.31 0.
-1691.35 -5545.83 0.
-2652.15 -5705.91 0.
-3015.01 -6548.56 0.
-4139.66 -10258.2 0.
-1180.7 -3350.94 0.
-1482.42 -4051.91 0.
-2994.05 -4742.79 0.
-3064.18 -4906.08 0.
-5839.03 -11380.4 0.
-18455.3 -48357.5 0.
-2508.95 -11147 0.
-1326.37 -8385.25 0.
-3568.32 -6607.59 0.
-2929.95 -5118.3 0.
-3849.32 -7319.96 0.
-3410.85 -4924.13 0.
-3285.16 -4632.98 0.
-2385.28 -3537.81 0.
-2328.38 -3403.48 0.
-3462.55 -6048.3 0.
-7084.43 -14167.7 0.
-3909.9 -6761.13 0.
-3881.2 -6694.83 0.
-2859.41 -6301.79 0.
-3354.83 -7464.03 0.
-14888.6 -34382.5 0.
-13156.9 -25805.1 0.
-9200.44 -16575.4 0.
-8439.42 -13638.4 0.
-6415.14 -8914.5 0.
-6520.05 -9158.68 0.
-7649.51 -6941.09 0.
-6588.99 -4470.16 0.
-6698.73 -4729.82 0.
-5235.39 -5792.74 0.
-6229.1 -8101.74 0.
-19725.2 -39583.1 0.
32467.9 8776.2 0.
34189.8 12841.8 0.
-243709 -106220 0.
33268.9 12086.9 0.
31268.1 7376.99 0.
-18957.3 -38129.7 0.
-6763.66 -9685.98 0.
-6949.91 -10128.7 0.
-7377.98 -8672.9 0.
-6553.55 -6748.4 0.
-7408.56 -8742.53 0.
-5739.37 -7346.09 0.
-4597.96 -4683.92 0.
-4773.62 -5094.92 0.
-5245.71 -4424.97 0.
-5413.14 -4817.38 0.
-4649.87 -8119.11 0.
-4492.8 -7751.48 0.
-6870.32 -13297.9 0.
-18957.6 -47549.4 0.
-2997.92 -10307.9 0.
-2691.37 -9590.35 0.
-4636.44 -8893.67 0.
-4073.73 -7579.46 0.
-5939.72 -11932.2 0.
-3358.61 -3964.64 0.
-3004.43 -3138 0.
-3928.54 -4518.08 0.
-3016.16 -2603.29 0.
-3696.32 -4186.82 0.
-6703.7 -22898.3 0.
-7795.32 -25445.5 0.
-22086.5 -58791.6 0.
-12429.2 -29840.1 0.
-5381.03 -13394.1 0.
-4968.95 -12432.2 0.
-2882.61 -4456.26 0.
-1890.33 -2145.02 0.
-2639.78 -3897.79 0.
-1846.75 -3455.47 0.
-1978.91 -3763.2 0.
-3287.31 -7934.89 0.
-867.069 -2284.4 0.
-857.255 -2258.61 0.
-854.666 -2669.37 0.
-701.433 -2308.75 0.
-1646 -4509.64 0.
-1074.98 -2974.79 0.
-297.387 -1159.72 0.
-163.268 -846.122 0.
-157.932 -1100.9 0.
-967.706 -2991.82 0.
-296.272 -238.964 0.
-267.949 -98.1436 0.
-228.518 -5.52792 0.
35.5534 167.943 0.
35.3288 170.789 0.
35.1046 173.635 0.
524.128 730.156 0.
958.312 1742.14 0.
1392.5 2754.12 0.
1831.91 3009.66 0.
1647.35 2576.8 0.
1462.78 2143.94 0.
791.193 1940.97 0.
867.431 2120.91 0.
1341.2 2419.9 0.
1152.03 1982.11 0.
962.859 1544.32 0.
52.7086 1347.46 0.
769.895 3019.66 0.
1487.08 4691.86 0.
3606.01 5846.78 0.
3231.33 4971.43 0.
2856.64 4096.08 0.
777.567 2720.71 0.
559.315 2211.26 0.
890.979 1937.43 0.
-310.814 1223.63 0.
-409.443 991.697 0.
-354.501 1034.98 0.
73.6366 2036.15 0.
501.773 3037.33 0.
612.056 3354.95 0.
373.552 2799.06 0.
135.049 2243.17 0.
927.606 3473.74 0.
1782.03 5463.44 0.
2636.45 7453.13 0.
1092.55 6533.01 0.
806.937 5865.15 0.
287.479 5038.32 0.
-238.804 3812.53 0.
-765.086 2586.74 0.
-1859.5 1270.07 0.
-2139.98 614.801 0.
-2420.44 -40.4677 0.
-488.455 217.685 0.
-834.571 -580.353 0.
-1180.67 -1378.38 0.
28697.6 13407.8 0.
30199.4 16969.6 0.
-152265 -58311.9 0.
30229.8 17061.1 0.
28765.3 13594.5 0.
-1251.57 -1125.01 0.
-759.993 12.7103 0.
-268.415 1150.44 0.
-1598.8 1257.59 0.
-1389.56 1747.26 0.
-1180.33 2236.93 0.
-904.134 2259.35 0.
-1063.99 1885.5 0.
-1223.84 1511.65 0.
-1714.56 1312.9 0.
-1691.08 1365.57 0.
97.8206 2363.47 0.
864.824 4152.16 0.
1631.83 5940.84 0.
3489.57 7272.95 0.
2879.95 5850.15 0.
2270.33 4427.35 0.
837.914 3311.2 0.
827.769 3287.09 0.
817.624 3262.98 0.
9.22772 2307.52 0.
-387.208 1385.05 0.
-787.593 513.811 0.
-18.0786 2471.01 0.
835.041 4464.05 0.
4466.14 7418.64 0.
4831.49 8270.58 0.
5196.84 9122.52 0.
3787.37 8220.98 0.
3031.99 6458.2 0.
2276.62 4695.41 0.
1085.98 3165.8 0.
652.33 2151.4 0.
218.676 1136.99 0.
498.529 1422.01 0.
630.089 1730.88 0.
950.475 2001.15 0.
640.433 1279.79 0.
330.391 558.438 0.
462.239 285.334 0.
516.18 415.374 0.
570.121 545.414 0.
270.864 337.874 0.
162.487 86.3308 0.
54.1103 -165.213 0.
472.913 473.005 0.
794.172 1222.13 0.
-704.688 -382.212 0.
-192.132 -34.292 0.
-153.203 58.479 0.
166.899 255.338 0.
165.693 258.619 0.
164.488 261.902 0.
481.19 742.318 0.
915.216 1754.33 0.
1349.24 2766.34 0.
1674.24 2973.53 0.
1490.04 2540.69 0.
1305.83 2107.85 0.
1011.35 2067.06 0.
1088.18 2246.42 0.
1415.67 2483.14 0.
1226.35 2045.56 0.
1037.03 1607.98 0.
604.134 1615.31 0.
1322.17 3287.88 0.
2040.21 4960.46 0.
2191.01 5273.11 0.
1817.75 4397.55 0.
1444.48 3521.99 0.
1220.92 2943.09 0.
1002.53 2433.36 0.
1480.08 2221.81 0.
275.826 1506.78 0.
177.02 1274.78 0.
-251.133 1110.5 0.
176.847 2111.91 0.
604.827 3113.33 0.
856.726 3490.02 0.
617.903 2934.68 0.
379.08 2379.34 0.
450.358 3299.33 0.
1303.72 5288.86 0.
2157.09 7278.39 0.
1587.98 6778.42 0.
1302.04 6110.4 0.
1189.24 5456.4 0.
662.244 4230.56 0.
135.248 3004.71 0.
938.322 2499.49 0.
656.493 1843.83 0.
374.672 1188.17 0.
2182.5 1384.2 0.
1835.65 584.381 0.
1488.82 -215.426 0.
21675.4 10451.9 0.
23166.3 13997.7 0.
-75515.2 -25387.7 0.
23917 14396.8 0.
22462.2 10944.6 0.
1022.25 -128.096 0.
1515.14 1011.48 0.
2008.02 2151.06 0.
282.337 2092.62 0.
491.567 2582.89 0.
700.795 3073.15 0.
-7.65612 2674.35 0.
-167.68 2300.37 0.
-327.702 1926.39 0.
-383.579 1917.06 0.
-359.852 1969.89 0.
426.374 2534.74 0.
1194.28 4323.42 0.
1962.2 6112.11 0.
2222.41 6761.92 0.
1614.15 5339.66 0.
1005.89 3917.39 0.
1153.48 3478.9 0.
1143.8 3454.22 0.
1134.11 3429.54 0.
859.672 2705.77 0.
462.297 1783.43 0.
208.502 970.259 0.
1006.6 2940.72 0.
1860.82 4935.23 0.
2249.93 6501.52 0.
2615.06 7352.43 0.
2980.2 8203.34 0.
3688.77 8213.34 0.
2933.55 6450.38 0.
2178.33 4687.43 0.
1961.74 3571.25 0.
1527.31 2556.56 0.
1092.88 1541.87 0.
827.551 1594.87 0.
958.644 1903.98 0.
941.062 2026.68 0.
631.214 1304.99 0.
321.366 583.294 0.
541.612 352.489 0.
595.225 482.817 0.
648.839 613.144 0.
196.637 337.126 0.
88.0021 85.6354 0.
-20.6332 -165.855 0.
436.258 489.591 0.
757.31 1239.18 0.
-695.771 -525.141 0.
-299.456 -474.902 0.
-338.368 -564.773 0.
-156.067 -546.801 0.
-152.89 -540.117 0.
-149.714 -533.433 0.
-155.512 -688.629 0.
-353.735 -1148.39 0.
-551.958 -1608.16 0.
-212.604 -1425.95 0.
-64.2738 -1079.99 0.
84.0568 -734.032 0.
-177.206 -941.908 0.
-262.382 -1140.74 0.
-191.774 -1236.94 0.
-64.0536 -938.787 0.
63.6667 -640.634 0.
-178.818 -774.696 0.
-513.805 -1547.58 0.
-848.789 -2320.46 0.
-1628.2 -2648.83 0.
-1328.92 -1952.14 0.
-1029.64 -1255.45 0.
-240.232 -838.947 0.
-278.919 -932.654 0.
198.269 -805.171 0.
-609.85 -1163.75 0.
-616.421 -1180.5 0.
-1189.29 -1482.2 0.
-1283.89 -1703.33 0.
-1378.49 -1924.47 0.
-1230.36 -1789.56 0.
-1014.78 -1294.08 0.
-799.191 -798.602 0.
-1529.94 -1545.82 0.
-1996.94 -2638.76 0.
-2463.93 -3731.7 0.
-2201.65 -3524.45 0.
-2075.56 -3234.48 0.
-1612.27 -2825.33 0.
-1615.54 -2835.85 0.
-1618.81 -2846.36 0.
189.38 -2246.74 0.
-102.002 -2928.52 0.
-393.383 -3610.3 0.
1828.24 -2176.4 0.
2555.09 -482.026 0.
3281.94 1212.35 0.
13761.6 2569.64 0.
11362.3 -2986.42 0.
-3215.99 -13760 0.
11994 -2731.09 0.
14389 2805.83 0.
2727.13 871.727 0.
1922.29 -998.406 0.
1117.45 -2868.53 0.
-1326.64 -4277.38 0.
-817.402 -3093.26 0.
-308.158 -1909.14 0.
-1334.67 -2051.62 0.
-1334.15 -2044.2 0.
-1333.62 -2036.77 0.
-1301.78 -1942.58 0.
-1259.86 -1843.6 0.
-1056.46 -1724.33 0.
-1238.46 -2147.11 0.
-1420.46 -2569.89 0.
-2115.42 -2879.08 0.
-1788.24 -2114.84 0.
-1461.07 -1350.59 0.
-625.745 -931.113 0.
-805.709 -1350.4 0.
-985.674 -1769.68 0.
-529.761 -1222.3 0.
-256.407 -592.392 0.
165.015 71.7526 0.
-186.581 -672.127 0.
-499.914 -1399.6 0.
-2074.79 -2575.54 0.
-2210.92 -2889.14 0.
-2347.06 -3202.73 0.
-1040.6 -2565.03 0.
-791.356 -1985.07 0.
-542.112 -1405.11 0.
288.035 -890.483 0.
298.843 -867.944 0.
309.649 -845.405 0.
-165.579 -1034.05 0.
-159.788 -1015.53 0.
-388.255 -1046.43 0.
-217.28 -641.096 0.
-46.3056 -235.766 0.
438.163 141.177 0.
382.959 17.4275 0.
327.754 -106.322 0.
-194.375 -410.59 0.
-231.205 -497.882 0.
-268.035 -585.174 0.
-34.89 -553.195 0.
-75.4232 -641.481 0.
-115.908 -248.267 0.
-143.699 -377.176 0.
-183.654 -466.359 0.
-198.846 -536.183 0.
-195.037 -530.073 0.
-191.228 -523.964 0.
-157.332 -657.39 0.
-355.73 -1117.65 0.
-554.127 -1577.9 0.
-28.5346 -1317.11 0.
119.982 -971.572 0.
268.498 -626.033 0.
-135.411 -893.748 0.
-221.006 -1092.57 0.
-257.551 -1235.26 0.
-130.079 -937.037 0.
-2.60637 -638.814 0.
-120.106 -717.859 0.
-454.25 -1491.95 0.
-788.393 -2266.05 0.
-1256.46 -2456.93 0.
-956.591 -1760.47 0.
-656.721 -1064.02 0.
-254.017 -815.386 0.
-292.45 -909.127 0.
-855.861 -1227.9 0.
-540.458 -1104.41 0.
-547.966 -1120.82 0.
-842.523 -1303.29 0.
-937.534 -1523.99 0.
-1032.55 -1744.7 0.
-1014.91 -1668.72 0.
-800.317 -1172.2 0.
-585.718 -675.682 0.
-831.712 -1218.49 0.
-1299.5 -2311 0.
-1767.28 -3403.5 0.
-1145.33 -3042.88 0.
-1019.32 -2752.67 0.
-639.204 -2378.21 0.
-642.738 -2388.73 0.
-646.27 -2399.24 0.
610.137 -2038.74 0.
318.383 -2721 0.
26.6311 -3403.27 0.
2079.2 -2034.38 0.
2806.75 -340.743 0.
3534.29 1352.9 0.
9634.49 819.238 0.
7248.24 -4725.26 0.
-100.764 -12394 0.
7100.47 -4804.55 0.
9480.61 718.502 0.
3599.33 1284.31 0.
2793.93 -586.563 0.
1988.52 -2457.43 0.
-429.302 -3869.6 0.
79.4291 -2683.62 0.
588.161 -1497.64 0.
-482.028 -1656.56 0.
-481.976 -1648.79 0.
-481.921 -1641.02 0.
-801.149 -1697.37 0.
-759.177 -1598.66 0.
-522.553 -1466.3 0.
-704.691 -1889.06 0.
-886.828 -2311.82 0.
-1374.85 -2530.07 0.
-1046.9 -1765.7 0.
-718.957 -1001.33 0.
-631.493 -903.041 0.
-811.037 -1322.43 0.
-990.58 -1741.81 0.
-618.223 -1229.51 0.
-345.597 -598.526 0.
82.2721 67.4064 0.
-281.385 -681.572 0.
-594.559 -1408.91 0.
-994.211 -2083.43 0.
-1130.05 -2397.2 0.
-1265.88 -2710.97 0.
-1181.81 -2596.21 0.
-932.387 -2016.13 0.
-682.962 -1436.06 0.
42.6956 -964.894 0.
53.8631 -942.435 0.
65.0288 -919.976 0.
-167.535 -1003.92 0.
-161.042 -986.031 0.
-377.073 -1010.95 0.
-205.744 -606.213 0.
-34.4155 -201.481 0.
359.146 139.107 0.
304.225 15.1247 0.
249.304 -108.857 0.
-251.194 -405.187 0.
-288.766 -491.88 0.
-326.338 -578.574 0.
-36.9387 -521.588 0.
-78.4729 -609.757 0.
410.341 -26.8119 0.
116.152 -37.5567 0.
-39.0401 -400.598 0.
-555.135 -1265.52 0.
-318.003 -712.406 0.
-172.231 -372.445 0.
-610.191 -1675.54 0.
408.516 702.712 0.
437.4 770.972 0.
686.665 13.6096 0.
140.574 -1257.4 0.
408.94 -628.017 0.
140.896 -287.403 0.
138.39 -297.731 0.
-170.295 -871.138 0.
165.543 -91.9894 0.
-175.735 -892.79 0.
-539.191 -1763.44 0.
-339.627 -1298.13 0.
87.4758 -301.928 0.
-16.1456 -251.045 0.
-26.5009 -275.219 0.
-23.6757 -268.682 0.
28.1692 -107.632 0.
-292.811 -855.872 0.
-227.514 -593.462 0.
-192.471 -393.112 0.
-500.073 -1121.39 0.
-316.929 -689.097 0.
145.352 384.237 0.
520.434 1254.13 0.
-944.088 -1886.25 0.
-597.41 -1082.17 0.
-202.335 -165.093 0.
326.659 191.69 0.
-687.579 -2172.01 0.
-1526.25 -4126.16 0.
-274.047 -2975.46 0.
270.854 -1698.77 0.
504.933 -1542.45 0.
468.289 -1624.54 0.
635.897 -1230.14 0.
1185.49 -1470 0.
1066.65 -1748.62 0.
1787.27 -68.6229 0.
3270.54 312.958 0.
2904.73 -537.216 0.
3097.71 -83.5951 0.
5797.39 -298.232 0.
6278.06 832.106 0.
-527.977 -3217 0.
5295.23 260.472 0.
5306.71 282.8 0.
3729.83 7.76469 0.
3248.92 -1122.7 0.
2786.57 -2209.85 0.
1594.44 -813.424 0.
2125.73 418.073 0.
2017.2 156.686 0.
202.839 -1652.6 0.
-153.931 -2491.74 0.
1059.17 332.237 0.
45.1682 -645.77 0.
-692.381 -2361.43 0.
-311.382 -1943.9 0.
816.673 687.964 0.
407.07 -268.061 0.
-9.5135 -715.883 0.
-182.128 -1116.08 0.
-47.7063 -799.819 0.
-918.086 -1535.55 0.
-10.2899 583.693 0.
-88.4978 402.315 0.
-766.184 -1381.02 0.
-966.531 -1846.03 0.
176.197 24.7956 0.
-412.916 -793.482 0.
-776.235 -1644.8 0.
822.566 162.912 0.
319.553 -1007.49 0.
307.588 -1032.03 0.
-799.781 -1421.13 0.
-596.873 -943.697 0.
-431.738 -554.34 0.
-325.937 -1341.35 0.
-301.327 -1281.9 0.
-701.589 -2213.87 0.
70.7364 -396.804 0.
523.668 657.998 0.
498.831 1041.02 0.
336.594 654.828 0.
155.861 225.319 0.
208.853 -17.8248 0.
217.184 0.658746 0.
710.087 1149.81 0.
-134.629 2.61364 0.
-290.509 -363.366 0.
-338.51 -477.592 0.
368.22 460.304 0.
-103.734 -646.199 0.
-177.821 -336.167 0.
-227.048 -496.448 0.
-294.568 -656.51 0.
-250.052 -731.775 0.
-222.796 -668.531 0.
-195.539 -605.287 0.
-10.6258 -478.758 0.
18.3819 -407.98 0.
47.3895 -337.201 0.
452.797 -353.118 0.
269.714 -777.928 0.
86.6308 -1202.74 0.
-229.306 -1236.21 0.
-131.356 -1011.35 0.
-186.795 -858.937 0.
-133.408 -736.3 0.
-80.0226 -613.664 0.
-143.727 -632.059 0.
-260.977 -904.641 0.
-378.227 -1177.22 0.
-194.615 -1220.39 0.
-211.225 -1260.67 0.
-227.836 -1300.95 0.
-496.759 -1301.53 0.
-410.313 -1100.87 0.
-328.57 -902.051 0.
-412.051 -946.692 0.
-408.773 -950.005 0.
-473.06 -992.418 0.
-489.236 -1033.65 0.
-505.412 -1074.89 0.
-440.174 -1130.86 0.
-520.998 -1323.53 0.
-601.821 -1516.19 0.
-45.4621 -1363.31 0.
-74.2517 -1425.76 0.
-103.039 -1488.22 0.
563.763 -1350.18 0.
477.204 -1547.05 0.
811.336 -1548.7 0.
742.63 -1704.87 0.
673.926 -1861.04 0.
1170.81 -1717.06 0.
1207.16 -1633.92 0.
1243.52 -1550.79 0.
2110.73 -1109.26 0.
2144.18 -1032.54 0.
2177.63 -955.825 0.
4956.74 -178.184 0.
4667.98 -846.589 0.
1004.13 -2961.49 0.
4139.04 -927.59 0.
4502.34 -81.8944 0.
2954.31 -250.553 0.
2879.69 -431.385 0.
2805.06 -612.216 0.
1355.49 -1480.26 0.
1160.38 -1942.33 0.
965.272 -2404.4 0.
328.277 -2505.44 0.
556.65 -1976.22 0.
785.023 -1447 0.
-206.213 -1702.98 0.
-135.84 -1533.36 0.
-54.9595 -1393.37 0.
-96.0301 -1490.52 0.
-137.101 -1587.67 0.
-343.242 -1664.86 0.
-248.766 -1443.22 0.
-154.29 -1221.59 0.
-444.474 -1207.36 0.
-390.341 -1079.62 0.
-336.207 -951.88 0.
-634.413 -978.718 0.
-582.573 -852.995 0.
-222.99 -601.848 0.
-425.224 -1014.89 0.
-595.638 -1414.3 0.
123.889 -1380.25 0.
64.2945 -1516.36 0.
4.69969 -1652.47 0.
-633.855 -1815.09 0.
-442.688 -1365.08 0.
-251.522 -915.07 0.
-45.4601 -572.788 0.
60.9068 -322.121 0.
167.274 -71.4536 0.
-2.14586 -320.177 0.
-112.746 -578.612 0.
-294.055 -845.287 0.
-293.98 -850.756 0.
-293.905 -856.225 0.
-62.7457 -752.323 0.
-49.7224 -722.796 0.
-36.6991 -693.268 0.
-318.317 -742.453 0.
-261.733 -612.706 0.
-205.149 -482.958 0.
-2.91052 -510.57 0.
-84.8554 -704.497 0.
-720.374 -539.063 0.
-390.053 -534.987 0.
-457.098 -695.473 0.
-139.598 -652.13 0.
-112.36 -589.136 0.
-85.1224 -526.143 0.
111.75 -395.413 0.
140.267 -324.07 0.
168.785 -252.729 0.
376.467 -352.984 0.
193.572 -778.13 0.
10.6768 -1203.28 0.
-168.822 -1180.48 0.
-71.1935 -955.365 0.
-196.415 -830.938 0.
-143.884 -708.102 0.
-91.3529 -585.265 0.
-237.479 -642.28 0.
-355.183 -914.743 0.
-472.887 -1187.21 0.
111.957 -1058.01 0.
95.733 -1098.64 0.
79.5097 -1139.26 0.
-496.733 -1270.67 0.
-409.581 -1070.54 0.
-340.715 -878.033 0.
-372.33 -896.477 0.
-368.89 -899.884 0.
-489.218 -968.139 0.
-506.272 -1009.15 0.
-523.326 -1050.15 0.
-202.962 -998.962 0.
-284.238 -1191.46 0.
-365.515 -1383.95 0.
330.77 -1171.83 0.
301.33 -1233.97 0.
271.892 -1296.11 0.
754.131 -1236.11 0.
667.616 -1433.41 0.
1206.22 -1347.7 0.
1137.18 -1504.14 0.
1068.14 -1660.57 0.
1298.72 -1632.11 0.
1335.33 -1548.46 0.
1371.94 -1464.81 0.
1452.75 -1360.67 0.
1487.67 -1284.64 0.
1522.58 -1208.61 0.
3882.26 -605.381 0.
3594.89 -1273.95 0.
-140.591 -3421.6 0.
3361.2 -1230.94 0.
3723.52 -385.435 0.
2156.54 -561.282 0.
2081.38 -741.54 0.
2006.22 -921.797 0.
1429.37 -1417.34 0.
1233.86 -1879.07 0.
1038.35 -2340.79 0.
944.894 -2212.32 0.
1172.48 -1681.37 0.
1400.07 -1150.42 0.
56.6922 -1560.75 0.
127.287 -1390.97 0.
-13.3368 -1343.41 0.
-53.7386 -1440.85 0.
-94.1403 -1538.29 0.
-235.866 -1584.9 0.
-140.984 -1363.59 0.
-46.1016 -1142.28 0.
-20.5065 -995.791 0.
33.4584 -867.868 0.
87.4237 -739.944 0.
-667.804 -961.594 0.
-616.716 -835.5 0.
-22.6094 -486.529 0.
-308.799 -934.971 0.
-479.64 -1333.95 0.
94.7765 -1361.71 0.
35.3734 -1497.72 0.
-24.0299 -1633.72 0.
-207.741 -1601.21 0.
-16.3116 -1151.08 0.
175.118 -700.945 0.
-87.6675 -557.164 0.
18.6094 -306.381 0.
124.887 -55.5992 0.
-114.861 -336.472 0.
-226.101 -594.436 0.
-259.495 -799.904 0.
-259.898 -804.677 0.
-260.301 -809.451 0.
5.40733 -693.676 0.
18.3711 -664.314 0.
31.335 -634.953 0.
-135.471 -632.419 0.
-78.8539 -502.557 0.
-22.2372 -372.695 0.
68.4756 -448.922 0.
-14.2619 -642.169 0.
-768.173 -614.022 0.
-314.734 -326.461 0.
-280.198 -247.693 0.
207.832 -30.7338 0.
82.1602 -327.153 0.
-43.5117 -623.574 0.
132.384 -702.246 0.
114.933 -749.508 0.
97.4812 -796.771 0.
92.3446 -705.981 0.
183.439 -493.537 0.
274.533 -281.093 0.
69.2339 -538.057 0.
-56.741 -822.965 0.
-338.129 -1163 0.
-372.072 -1241.82 0.
-406.016 -1320.65 0.
-439.867 -1412.79 0.
-490.306 -1531.64 0.
-540.743 -1650.48 0.
-62.8683 -1482.81 0.
-56.0317 -1467.14 0.
-49.1955 -1451.46 0.
-601.397 -1612.5 0.
-551.729 -1495.29 0.
-216.965 -1255.83 0.
-482.022 -1376.94 0.
-484.005 -1380.8 0.
-629.369 -1470.25 0.
-676.979 -1581.61 0.
-724.59 -1692.97 0.
-268.279 -1562.08 0.
-277.988 -1588.72 0.
-287.698 -1615.35 0.
289.083 -1490.55 0.
196.481 -1704.96 0.
103.879 -1919.37 0.
572.102 -1946.89 0.
442.537 -2243.67 0.
979.265 -2233.72 0.
971.894 -2247.34 0.
964.523 -2260.97 0.
1005.35 -2152.4 0.
1166.06 -1767.34 0.
1326.77 -1382.28 0.
1195.75 -1193.03 0.
1290.35 -969.791 0.
1384.95 -746.548 0.
3340.46 -186.267 0.
3121.97 -698.129 0.
-361.605 -2610.96 0.
2960.81 -889.823 0.
3117.92 -524.678 0.
1566 -999.201 0.
1461.92 -1238.66 0.
1357.83 -1478.13 0.
1255.79 -1775.85 0.
1091.25 -2157.14 0.
926.71 -2538.43 0.
896.777 -2481.4 0.
1027.03 -2177.52 0.
1157.28 -1873.65 0.
41.9346 -2170.12 0.
133.404 -1960.72 0.
-118.281 -1917.61 0.
-117.627 -1914.78 0.
-116.973 -1911.95 0.
-351.126 -1951.1 0.
-274.584 -1768.59 0.
-198.043 -1586.08 0.
-149.39 -1501.83 0.
-150.886 -1507.36 0.
-152.381 -1512.89 0.
-1003.03 -1814.92 0.
-957.7 -1714.51 0.
-197.127 -1312.99 0.
-440.461 -1645.13 0.
-559.394 -1923.97 0.
-132.009 -1889.92 0.
-88.3217 -1790.07 0.
-44.6341 -1690.22 0.
-27.6199 -1576.96 0.
42.4494 -1412.24 0.
112.519 -1247.53 0.
-428.026 -1231.01 0.
-276.429 -879.469 0.
-124.832 -527.932 0.
-229.559 -596.565 0.
-255.626 -659.569 0.
-108.869 -650.501 0.
-138.761 -720.003 0.
-168.653 -789.505 0.
-25.0236 -749.127 0.
-0.235138 -698.621 0.
24.5536 -648.114 0.
-1.48691 -581.337 0.
50.9341 -456.722 0.
103.355 -332.106 0.
146.491 -160.599 0.
234.756 43.0476 0.
-267.391 -364.653 0.
-149.386 -222.438 0.
-115.057 -143.72 0.
331.167 52.875 0.
205.362 -243.387 0.
79.5569 -539.65 0.
422.857 -545.938 0.
405.213 -593.01 0.
387.568 -640.082 0.
-115.269 -766.074 0.
-24.3336 -553.534 0.
66.602 -340.995 0.
-56.3879 -560.31 0.
-181.798 -845.927 0.
-303.94 -1118.45 0.
-338.304 -1197.14 0.
-372.668 -1275.84 0.
-5.33059 -1195.61 0.
-56.1339 -1314.48 0.
-106.936 -1433.36 0.
-318.068 -1560.57 0.
-310.854 -1545.33 0.
-303.64 -1530.08 0.
-480.674 -1531.84 0.
-430.929 -1414.99 0.
230.859 -1035.78 0.
-254.434 -1245.95 0.
-255.557 -1250.66 0.
-401.187 -1339.84 0.
-449.142 -1451.23 0.
-497.096 -1562.63 0.
-34.4808 -1433.23 0.
-45.1734 -1459.14 0.
-55.8668 -1485.04 0.
196.587 -1499.7 0.
103.049 -1713.71 0.
9.51063 -1927.72 0.
713.536 -1854.6 0.
584.036 -2151.52 0.
1011.5 -2188.91 0.
1004.16 -2202.85 0.
996.814 -2216.79 0.
722.984 -2241.94 0.
884.474 -1857.53 0.
1045.96 -1473.12 0.
1056.26 -1219.66 0.
1150.83 -996.36 0.
1245.4 -773.064 0.
2679.23 -441.387 0.
2460.09 -952.391 0.
1045.05 -1977.87 0.
2425.32 -1087.71 0.
2581.65 -722.384 0.
1397.41 -1038.84 0.
1293.14 -1278.86 0.
1188.86 -1518.89 0.
1162.25 -1784.37 0.
997.368 -2166.34 0.
832.488 -2548.32 0.
494.644 -2620.28 0.
624.552 -2316.45 0.
754.463 -2012.62 0.
434.244 -1970.69 0.
525.309 -1760.7 0.
200.031 -1751.38 0.
200.715 -1747.81 0.
201.398 -1744.24 0.
-330.563 -1912.06 0.
-254.066 -1729.21 0.
-177.569 -1546.36 0.
-318.095 -1544.66 0.
-319.316 -1550.4 0.
-320.536 -1556.15 0.
-851.029 -1715.93 0.
-805.982 -1615.23 0.
-201.224 -1283.68 0.
-101.365 -1468.25 0.
-220.563 -1746.69 0.
-80.3208 -1838.71 0.
-37.0603 -1737.96 0.
6.20031 -1637.21 0.
5.12934 -1533.14 0.
74.9449 -1368.16 0.
144.761 -1203.17 0.
-454.3 -1209.6 0.
-302.844 -857.819 0.
-151.389 -506.035 0.
-88.1636 -505.962 0.
-114.866 -567.974 0.
87.6109 -534.396 0.
58.1238 -604.346 0.
28.6369 -674.295 0.
-73.3067 -739.504 0.
-49.6119 -687.907 0.
-25.9169 -636.311 0.
118.376 -499.852 0.
170.842 -375.015 0.
223.309 -250.178 0.
0.591666 -193.121 0.
89.2004 11.1456 0.
181.044 -250.534 0.
-159.269 -526.404 0.
418.868 826.669 0.
579.969 423.359 0.
307.429 -209.349 0.
372.101 -55.0867 0.
1066.41 436.928 0.
1060.75 425.264 0.
1271.9 918.242 0.
311.776 648.313 0.
334.596 701.519 0.
186.597 356.203 0.
33.4812 -84.2265 0.
-206.496 -647.158 0.
28.214 -370.349 0.
510.361 751.159 0.
236.925 109.631 0.
1104.52 610.797 0.
1105.31 612.389 0.
1066.37 521.011 0.
437.621 702.535 0.
330.455 451.607 0.
-417.553 -1294.48 0.
111.496 -346.31 0.
589.999 767.991 0.
607.626 415.523 0.
587.294 307.905 0.
117.152 -793.013 0.
-9.75328 -824.689 0.
367.988 52.6532 0.
486.323 324.651 0.
853.12 225.734 0.
654.536 -239.627 0.
646.19 -260.697 0.
761.533 29.2202 0.
970.757 514.727 0.
714.72 -84.7932 0.
2088.17 1126.16 0.
1310.68 -694.208 0.
1585.39 -865.996 0.
1531.84 -1000.57 0.
1732.68 -541.314 0.
1072.76 -849.049 0.
1400.3 -92.3999 0.
1328.56 -267.092 0.
1303.57 -338.777 0.
1589.92 327.767 0.
1340.49 -256.257 0.
2405.27 204.097 0.
2482.38 383.057 0.
-446.616 775.571 0.
3018.28 1370.8 0.
2437.21 13.5307 0.
2030.71 784.078 0.
1554 -327.15 0.
1190.84 -1172.9 0.
2024.87 450.386 0.
1866.54 80.6334 0.
1931.18 230.46 0.
997.963 -655.553 0.
1152.71 -293.953 0.
1449.56 398.723 0.
1571.4 -27.7284 0.
1653.66 168.161 0.
1324.14 312.015 0.
1269.75 185.795 0.
1357.45 391.456 0.
431.84 -142.19 0.
789.735 690.398 0.
328.782 -387.746 0.
-43.7338 -563.887 0.
261.92 149.658 0.
430.548 543.228 0.
62.8219 147.398 0.
434.839 1016.13 0.
-15.584 -214.313 0.
753.164 -80.6029 0.
1180.36 913.85 0.
749.237 40.1081 0.
574.801 -369.988 0.
542.705 -448.183 0.
344.452 -782.104 0.
347.343 -769.001 0.
701.333 63.4307 0.
-36.4709 -170.976 0.
-211.986 -575.73 0.
360.193 763.681 0.
454.699 529.533 0.
670.925 1034.47 0.
495.618 77.2686 0.
647.782 432.68 0.
651.96 442.662 0.
-118.483 -729.626 0.
360.868 390.246 0.
321.425 299.033 0.
109.557 -704.574 0.
523.732 259.8 0.
409.35 -8.95049 0.
-191.293 -345.839 0.
-200.038 -362.992 0.
401.636 -413.33 0.
-85.2701 -656.762 0.
-97.6997 -682.475 0.
-32.4302 -685.595 0.
-85.0572 -804.798 0.
-137.684 -924.001 0.
445.97 -767.625 0.
407.005 -857.871 0.
368.041 -948.118 0.
-334.042 -1210.47 0.
-276.837 -1077.79 0.
-219.631 -945.114 0.
-373.263 -1007.85 0.
-384.146 -1032.77 0.
18.6526 -894.485 0.
-73.9686 -1112.69 0.
-166.588 -1330.88 0.
73.5527 -1291.9 0.
176.112 -1052.81 0.
278.671 -813.716 0.
-172.374 -946.883 0.
-204.719 -1023.77 0.
-237.064 -1100.65 0.
-262.454 -1186.03 0.
-299.648 -1273.45 0.
23.6966 -1206.54 0.
-186.505 -1306.38 0.
-191.525 -1320.26 0.
-84.0384 -1305.37 0.
-136.012 -1431.28 0.
-187.986 -1557.2 0.
62.3477 -1528.33 0.
39.1558 -1585.35 0.
15.964 -1642.36 0.
228.921 -1628.21 0.
179.952 -1744.91 0.
130.983 -1861.6 0.
740.428 -1904.46 0.
562.154 -2322.13 0.
701.423 -2553.04 0.
811.186 -2304.62 0.
920.949 -2056.19 0.
676.799 -1982.2 0.
745.978 -1826.42 0.
815.157 -1670.65 0.
576.067 -1577.86 0.
709.267 -1270.21 0.
842.468 -962.567 0.
1897.68 -633.658 0.
1778.68 -913.657 0.
-743.989 -2223.89 0.
1820.3 -1117.8 0.
1823.67 -1109.14 0.
864.653 -1512.54 0.
874.172 -1488.67 0.
883.692 -1464.81 0.
914.481 -1476.73 0.
870.274 -1581.82 0.
826.068 -1686.91 0.
682.25 -1758.28 0.
695.572 -1727.57 0.
708.893 -1696.85 0.
839.775 -1529.18 0.
899.684 -1387.64 0.
403.179 -1505.35 0.
397.218 -1519.2 0.
391.256 -1533.05 0.
-170.809 -1733.86 0.
-107.83 -1587.47 0.
-44.8507 -1441.08 0.
-161.273 -1429.62 0.
-151.606 -1405.93 0.
-141.94 -1382.23 0.
-676.547 -1710.63 0.
-740.55 -1859.62 0.
-254.683 -1765.35 0.
-5.0169 -1443.4 0.
109.336 -1179.38 0.
342.308 -979.753 0.
216.317 -1277.85 0.
90.3262 -1575.94 0.
-86.8185 -1672.88 0.
18.3798 -1419.75 0.
123.578 -1166.62 0.
-305.86 -1263.88 0.
-289.094 -1222.02 0.
-272.328 -1180.16 0.
-31.2289 -969.879 0.
29.0915 -830.925 0.
126.032 -681.928 0.
158.929 -606.373 0.
191.826 -530.818 0.
-24.3485 -617.188 0.
-51.9768 -684.322 0.
-79.6053 -751.456 0.
-34.8692 -648.642 0.
62.3488 -424.585 0.
159.567 -200.527 0.
-69.3968 -110.989 0.
25.6225 114.427 0.
772.119 -226.431 0.
89.2578 -552.773 0.
77.3359 -578.726 0.
-183.382 -717.995 0.
-236.248 -837.233 0.
-289.115 -956.47 0.
335.026 -783.033 0.
296.273 -873.726 0.
257.52 -964.42 0.
-132.536 -1091.57 0.
-74.7787 -958.976 0.
-17.0212 -826.381 0.
-372.055 -976.603 0.
-383.634 -1000.96 0.
297.15 -744.265 0.
204.496 -962.368 0.
111.843 -1180.47 0.
-174.427 -1366.87 0.
-72.1765 -1127.81 0.
30.074 -888.744 0.
-34.7858 -855.584 0.
-66.5788 -932.657 0.
-98.3715 -1009.73 0.
-262.553 -1155.29 0.
-300.589 -1242.17 0.
55.8091 -1160.36 0.
-271.017 -1313.86 0.
-275.747 -1327.99 0.
95.7385 -1196.47 0.
43.8951 -1322.67 0.
-7.94831 -1448.88 0.
32.4631 -1505.81 0.
9.72537 -1563.53 0.
-13.0122 -1621.25 0.
463.429 -1496.92 0.
414.328 -1612.94 0.
365.228 -1728.96 0.
697.043 -1892.71 0.
517.692 -2309.27 0.
520.928 -2599.19 0.
630.044 -2350.39 0.
739.161 -2101.58 0.
802.501 -1898.69 0.
871.282 -1742.41 0.
940.063 -1586.13 0.
351.689 -1643.1 0.
485.256 -1335.54 0.
618.823 -1027.98 0.
1733.24 -671.88 0.
1614.36 -952.303 0.
-3069.31 -3188.21 0.
1674.8 -1148.24 0.
1678.08 -1140.26 0.
659.953 -1565.37 0.
669.865 -1541.98 0.
679.778 -1518.58 0.
583.09 -1588.12 0.
539.403 -1693.12 0.
495.716 -1798.11 0.
890.001 -1639.54 0.
902.999 -1608.19 0.
915.997 -1576.84 0.
749.296 -1536.32 0.
809.353 -1394.72 0.
248.271 -1539.76 0.
242.02 -1553.48 0.
235.769 -1567.22 0.
-58.8894 -1654.95 0.
4.13835 -1508.58 0.
67.1656 -1362.21 0.
163.574 -1259.49 0.
173.873 -1236.05 0.
184.172 -1212.62 0.
-590.477 -1641.32 0.
-654.178 -1790.45 0.
273.966 -1508.02 0.
-202.412 -1496.57 0.
-88.7951 -1232.28 0.
399.405 -922.782 0.
273.325 -1221.09 0.
147.243 -1519.41 0.
-132.744 -1662.21 0.
-27.8453 -1409 0.
77.0525 -1155.79 0.
-45.6398 -1121.49 0.
-28.2863 -1080.33 0.
-10.9331 -1039.16 0.
177.856 -849.327 0.
238.826 -710.699 0.
88.791 -666.523 0.
122.011 -591.275 0.
155.231 -516.027 0.
49.4655 -552.767 0.
22.9238 -620.704 0.
-3.61824 -688.641 0.
-224.852 -699.084 0.
-127.412 -475.283 0.
-29.971 -251.483 0.
-26.5743 -60.7475 0.
68.657 165.534 0.
658.746 -158.871 0.
211.774 -378.264 0.
227.533 -342.782 0.
-183.142 -488.323 0.
-161.653 -440.91 0.
-140.162 -393.498 0.
480.108 -169.253 0.
400.128 -360.333 0.
320.147 -551.414 0.
69.2407 -746.799 0.
44.2371 -805.497 0.
19.2332 -864.194 0.
-292.027 -1010.13 0.
-299.406 -1026.91 0.
330.823 -774.741 0.
307.289 -826.556 0.
283.756 -878.37 0.
-83.0274 -1064.4 0.
-86.0751 -1071.2 0.
-89.1229 -1078 0.
-75.2971 -1118.39 0.
-117.48 -1211.14 0.
-159.662 -1303.9 0.
-316.657 -1342.94 0.
-279.871 -1259.13 0.
420.058 -890.987 0.
-199.682 -1196.97 0.
-221.971 -1248.85 0.
131.311 -1153.01 0.
83.149 -1261.72 0.
34.9866 -1370.43 0.
136.412 -1467.59 0.
30.2416 -1716.86 0.
-75.929 -1966.13 0.
325.989 -1869.43 0.
325.533 -1868.93 0.
325.077 -1868.43 0.
666.992 -1706.66 0.
673.609 -1691.52 0.
796.73 -1629.62 0.
815.522 -1586.09 0.
834.314 -1542.57 0.
977.004 -1452.39 0.
980.456 -1440.04 0.
983.909 -1427.7 0.
199.99 -1628.39 0.
329.753 -1323.58 0.
459.515 -1018.78 0.
1788.04 -407.31 0.
1779.7 -425.222 0.
-5034.45 -3360.91 0.
1796.45 -487.929 0.
1770.12 -553.32 0.
773.851 -1049.59 0.
700.879 -1217.49 0.
627.906 -1385.39 0.
439.095 -1541.54 0.
428.96 -1563.71 0.
418.825 -1585.88 0.
943.716 -1488.4 0.
850.461 -1704.84 0.
757.206 -1921.28 0.
428.281 -1992.37 0.
477.598 -1875.42 0.
-10.6543 -1984.21 0.
53.0703 -1834.75 0.
116.795 -1685.29 0.
122.179 -1618.12 0.
102.548 -1660.79 0.
82.9167 -1703.47 0.
57.5778 -1639.49 0.
134.874 -1458.72 0.
212.17 -1277.95 0.
-328.907 -1442.53 0.
-301.206 -1382.48 0.
880.687 -837.122 0.
-233.816 -1366.74 0.
-260.922 -1430.28 0.
248.46 -1235.26 0.
259.021 -1201.74 0.
269.583 -1168.23 0.
17.0672 -1284.18 0.
-8.46011 -1347.97 0.
-33.9873 -1411.75 0.
-41.2906 -1388.14 0.
-9.94541 -1318.16 0.
21.4002 -1248.18 0.
151.955 -1020.08 0.
254.004 -785.268 0.
43.5521 -701.888 0.
54.2427 -676.718 0.
64.9331 -651.548 0.
82.3303 -507.924 0.
262.981 -87.3905 0.
443.631 333.143 0.
150.531 252.048 0.
63.3108 51.3187 0.
-23.9095 -149.411 0.
-257.266 -408.941 0.
-337.495 -600.744 0.
-2.57004 -412.108 0.
190.971 -356.654 0.
206.144 -320.917 0.
-228.707 -476.476 0.
-208.084 -428.828 0.
-187.461 -381.181 0.
340.229 -196.802 0.
260.37 -388.245 0.
180.51 -579.689 0.
42.1614 -727.224 0.
17.1868 -786.272 0.
-7.788 -845.32 0.
-42.9704 -873.6 0.
-50.7903 -889.362 0.
187.414 -805.378 0.
164.682 -857.434 0.
141.95 -909.49 0.
89.8358 -959.096 0.
87.101 -966.077 0.
84.3661 -973.058 0.
-9.45221 -1059.94 0.
-51.6501 -1152.89 0.
-93.848 -1245.85 0.
-227.247 -1272.86 0.
-190.625 -1188.93 0.
46.5549 -1018.99 0.
-31.6359 -1094.81 0.
-53.6061 -1147.18 0.
16.9077 -1170.78 0.
-31.1515 -1279.47 0.
-79.2108 -1388.16 0.
404.243 -1319.55 0.
298.305 -1569.39 0.
192.366 -1819.23 0.
184.279 -1897.99 0.
183.88 -1897.83 0.
183.481 -1897.67 0.
478.068 -1755.91 0.
484.887 -1740.26 0.
664.695 -1655.08 0.
683.274 -1611.47 0.
701.854 -1567.87 0.
840.874 -1480.54 0.
844.208 -1468.59 0.
847.543 -1456.63 0.
53.6169 -1657.75 0.
183.409 -1353.73 0.
313.201 -1049.71 0.
1840.53 -352.123 0.
1832.53 -370.715 0.
5922.61 1366.51 0.
1582.61 -547 0.
1555.82 -612.094 0.
758.489 -1024.02 0.
684.884 -1191.43 0.
611.279 -1358.84 0.
388.476 -1534.18 0.
377.554 -1555.83 0.
366.632 -1577.48 0.
736.242 -1546.19 0.
642.549 -1762.47 0.
548.857 -1978.76 0.
243.603 -2039.11 0.
292.261 -1922.04 0.
-2.63131 -1950.84 0.
61.4679 -1801.85 0.
125.567 -1652.86 0.
444.954 -1447.39 0.
425.576 -1490.28 0.
406.197 -1533.18 0.
-87.4224 -1671.69 0.
-9.91808 -1490.75 0.
67.5866 -1309.81 0.
49.9966 -1246.91 0.
77.2791 -1186.37 0.
877.145 -808.118 0.
-213.604 -1327.84 0.
-240.797 -1391.46 0.
165.665 -1239.39 0.
176.928 -1206.53 0.
188.191 -1173.66 0.
73.2623 -1228.75 0.
46.4067 -1291.85 0.
19.5513 -1354.94 0.
34.3619 -1325.28 0.
65.3676 -1255.81 0.
96.3737 -1186.35 0.
89.8793 -1015.27 0.
191.694 -780.4 0.
27.1573 -678.012 0.
38.2023 -653.017 0.
49.2472 -628.023 0.
65.339 -484.497 0.
246.159 -64.131 0.
426.979 356.236 0.
275.041 336.369 0.
187.947 135.546 0.
100.854 -65.276 0.
-461.414 -464.186 0.
-542.622 -656.71 0.
49.7111 1010.51 0.
418.845 251.538 0.
270.265 -100.57 0.
-3.3452 160.005 0.
-79.9694 -21.4664 0.
275.681 806.995 0.
46.0897 -594.415 0.
182.266 -275.86 0.
306.324 13.7351 0.
51.0804 -624.383 0.
319.655 3.58222 0.
400.029 192.876 0.
563.41 107.414 0.
712.318 456.722 0.
689.895 665.354 0.
47.3829 -833.913 0.
229.27 -409.118 0.
776.327 351.385 0.
962.078 784.301 0.
848.684 519.11 0.
816.232 777.996 0.
666.608 425.145 0.
777.675 681.042 0.
329.104 -122.287 0.
700.796 743.075 0.
675.431 171.323 0.
382.57 -419.41 0.
858.246 690.072 0.
824.849 959.691 0.
762.903 818.942 0.
360.04 -117.224 0.
1489.84 734.609 0.
962.448 -492.353 0.
918.796 -590.731 0.
1009.54 336.35 0.
880.663 34.1808 0.
852.87 -32.9191 0.
1573.87 1200.11 0.
1070.81 26.9339 0.
1202.89 -126.344 0.
1477.83 512.23 0.
1194.53 -152.122 0.
1576.17 533.19 0.
1206.44 -331.057 0.
1426.58 182.264 0.
825.826 469.244 0.
427.546 -465.781 0.
352.359 -646.778 0.
1631.69 -904.23 0.
2462 1035.58 0.
-6772.54 -1651.58 0.
1844.78 507.911 0.
1332.89 -684.346 0.
833.228 -790.31 0.
1536.84 852.794 0.
1238.71 158.289 0.
892.935 -221.606 0.
953.36 -84.2541 0.
691.752 -698.556 0.
1189.6 -51.2468 0.
1551.22 787.145 0.
866.119 -817.129 0.
943.684 -18.7086 0.
1130.16 409.191 0.
1244.71 981.503 0.
578.45 -573.983 0.
607.932 -506.449 0.
1292.13 -47.5285 0.
1134.27 -417.265 0.
1082.59 -539.623 0.
641.771 339.913 0.
416.559 -188.752 0.
429.815 -160.832 0.
768.151 -260.886 0.
735.85 -335.438 0.
1269.11 544.623 0.
396.586 87.4204 0.
713.572 830.867 0.
886.097 627.971 0.
695.565 186.629 0.
199.035 -969.556 0.
617.525 -35.7165 0.
761.056 296.046 0.
673.253 88.3132 0.
617.088 -68.3833 0.
531.502 -265.859 0.
737.362 216.555 0.
439.068 -58.0245 0.
225.181 -552.24 0.
578.828 669.598 0.
461.822 401.335 0.
228.063 -139.944 0.
743.537 1136.32 0.
871.889 1437.51 0.
534.661 652.349 0.
90.4777 -298.032 0.
199.568 -45.7879 0.
720.283 1167.82 0.
-228.752 472.715 0.
-145.603 664.951 0.
-1010.78 -914.571 0.
-29.675 -441.585 0.
-39.6512 -466.355 0.
-15.3976 -466.511 0.
-5.95452 -444.536 0.
3.48926 -422.561 0.
221.583 -308.887 0.
231.859 -284.125 0.
242.136 -259.363 0.
103.358 -375.248 0.
51.4366 -493.731 0.
-0.484615 -612.214 0.
269.262 -638.225 0.
192.258 -819.097 0.
-72.0311 -1053.81 0.
-52.8079 -1009.59 0.
-33.5843 -965.379 0.
151.601 -933.796 0.
42.254 -1190.67 0.
-67.0933 -1447.55 0.
-217.256 -1547.87 0.
-161.359 -1421.62 0.
-105.461 -1295.36 0.
-45.2097 -1311.1 0.
-88.9903 -1417.17 0.
136.351 -1407.82 0.
-86.6357 -1411.65 0.
-34.6814 -1289.96 0.
-115.937 -1268.15 0.
-178.401 -1410.96 0.
-240.865 -1553.77 0.
478.338 -1414.74 0.
348.118 -1716.24 0.
217.898 -2017.75 0.
91.2556 -2114.2 0.
126.606 -2032.34 0.
161.956 -1950.47 0.
218.415 -1849.79 0.
264.155 -1743.84 0.
509.618 -1569.55 0.
470.14 -1665.49 0.
430.662 -1761.42 0.
539.947 -1647.16 0.
733.278 -1198.86 0.
926.611 -750.55 0.
269.284 -910.01 0.
228.141 -1013.49 0.
186.997 -1116.97 0.
1503.88 -692.964 0.
1423.65 -879.953 0.
-1505 -2289.21 0.
803.499 -1197.35 0.
856.812 -1072.4 0.
615.633 -1097.57 0.
599.663 -1136.3 0.
583.693 -1175.02 0.
525.124 -1256.2 0.
494.152 -1329.7 0.
463.182 -1403.19 0.
430.814 -1491.81 0.
384.453 -1602.53 0.
338.094 -1713.25 0.
492.053 -1558.65 0.
553.675 -1421.74 0.
213.958 -1477.63 0.
180.209 -1559.3 0.
146.46 -1640.98 0.
435.072 -1553.79 0.
448.648 -1524.11 0.
462.225 -1494.42 0.
-91.7392 -1648.8 0.
-20.4486 -1486 0.
50.8423 -1323.2 0.
401.502 -1070.79 0.
450.796 -952.382 0.
402.428 -871.955 0.
-58.731 -1135.2 0.
-95.8426 -1217.09 0.
109.263 -1179.67 0.
112.269 -1170.3 0.
115.275 -1160.93 0.
5.48402 -1221.62 0.
-11.525 -1261.1 0.
-28.5338 -1300.58 0.
91.052 -1212 0.
124.456 -1131.16 0.
157.859 -1050.32 0.
0.430512 -1171.29 0.
-37.5575 -1256.25 0.
-301.493 -1390.7 0.
-147.984 -1028.53 0.
5.5251 -666.357 0.
217.363 -423.024 0.
158.661 -557.302 0.
99.9583 -691.581 0.
-60.7535 -794.512 0.
-46.9599 -762.797 0.
-33.1662 -731.082 0.
-568.427 -978.904 0.
-582.186 -1011.72 0.
-1283.27 -1001.18 0.
-198.416 -482.197 0.
-209.616 -506.441 0.
313.832 -296.855 0.
322.383 -274.224 0.
330.935 -251.593 0.
302.64 -242.863 0.
312.95 -218.26 0.
323.26 -193.657 0.
51.2733 -367.258 0.
-0.924372 -485.926 0.
-53.1219 -604.593 0.
316.882 -587.206 0.
239.746 -768.276 0.
-84.1149 -1026.87 0.
-65.4189 -982.637 0.
-46.7225 -938.407 0.
78.0408 -931.782 0.
-31.2553 -1188.25 0.
-140.551 -1444.71 0.
-246.474 -1533 0.
-191.586 -1406.25 0.
-136.698 -1279.5 0.
139.775 -1198.69 0.
96.1351 -1305.32 0.
-376.764 -1596.08 0.
-124.399 -1396.58 0.
-72.3415 -1275.13 0.
-80.2496 -1223.71 0.
-142.911 -1366.34 0.
-205.573 -1508.96 0.
387.343 -1420.4 0.
257.702 -1722.23 0.
128.063 -2024.06 0.
270.785 -2003.27 0.
305.435 -1920.68 0.
340.086 -1838.08 0.
176.214 -1837.71 0.
221.872 -1731.39 0.
435.005 -1570.48 0.
395.938 -1666.48 0.
356.872 -1762.47 0.
429.795 -1661.43 0.
623.093 -1213.49 0.
816.392 -765.542 0.
332.188 -851.702 0.
290.867 -955.037 0.
249.546 -1058.37 0.
1253.76 -769.06 0.
1173.24 -955.874 0.
-738.804 -1929.1 0.
437.359 -1322.8 0.
490.737 -1197.81 0.
528.73 -1104.34 0.
512.687 -1143.42 0.
496.644 -1182.49 0.
636.298 -1174.62 0.
605.665 -1248.99 0.
575.033 -1323.36 0.
272.005 -1529.44 0.
225.504 -1639.84 0.
179.003 -1750.24 0.
761.103 -1412.12 0.
822.288 -1275.28 0.
265.088 -1421.81 0.
231.774 -1504.17 0.
198.46 -1586.53 0.
187.945 -1628.89 0.
201.737 -1599.15 0.
215.53 -1569.41 0.
70.7403 -1548 0.
142.748 -1385.48 0.
214.755 -1222.97 0.
392.689 -1042.96 0.
441.961 -924.001 0.
157.358 -945.452 0.
40.7278 -1061.71 0.
4.20393 -1144.01 0.
123.957 -1141.41 0.
126.749 -1131.85 0.
129.542 -1122.29 0.
-107.062 -1238.44 0.
-124.527 -1277.85 0.
-141.991 -1317.26 0.
62.5663 -1192.74 0.
96.2161 -1112.49 0.
129.865 -1032.24 0.
63.4812 -1113.16 0.
26.1346 -1198.96 0.
-281.813 -1351.8 0.
-128.244 -989.688 0.
25.325 -627.577 0.
409.624 -307.596 0.
350.6 -441.743 0.
291.576 -575.891 0.
29.067 -726.777 0.
42.5683 -695.048 0.
56.0695 -663.319 0.
-205.747 -792.245 0.
-220.101 -825.318 0.
-897.963 -507.404 0.
-115.05 -318.875 0.
-162.913 -428.472 0.
262.795 -337.508 0.
204.334 -473.093 0.
145.873 -608.678 0.
149.946 -713.407 0.
96.8773 -834.288 0.
43.809 -955.17 0.
-171.7 -980.678 0.
-84.6967 -779.033 0.
2.30605 -577.388 0.
365.927 -413.369 0.
355.578 -433.824 0.
124.843 -557.41 0.
46.1615 -740.465 0.
-32.5197 -923.52 0.
-41.7402 -1047.97 0.
-63.7879 -1097.19 0.
-85.8357 -1146.41 0.
5.4468 -1153.42 0.
-19.2659 -1213.37 0.
-43.9798 -1273.32 0.
174.553 -1149.87 0.
197.461 -1095.23 0.
323.181 -996.066 0.
-44.5381 -1200.81 0.
-68.4011 -1259.15 0.
-46.6745 -1283.03 0.
-44.9964 -1280.52 0.
-43.3178 -1278 0.
395.034 -1080.24 0.
411.205 -1045.41 0.
427.378 -1010.57 0.
779.062 -910.601 0.
734.626 -1019.62 0.
690.189 -1128.63 0.
447.282 -1316.01 0.
400.911 -1423.32 0.
366.962 -1497.48 0.
484.369 -1220.91 0.
601.776 -944.337 0.
648.258 -825.104 0.
554.715 -1038.22 0.
461.172 -1251.33 0.
154.425 -1451.82 0.
166.128 -1423.33 0.
177.83 -1394.85 0.
996.599 -895.291 0.
1098.11 -660.512 0.
-705.014 -1241.16 0.
637.609 -562.786 0.
692.047 -436.591 0.
765.784 -357.276 0.
689.923 -535.757 0.
614.063 -714.238 0.
708.723 -864.135 0.
579.857 -1163.23 0.
450.991 -1462.32 0.
233.085 -1595.62 0.
264.028 -1521.23 0.
294.97 -1446.84 0.
959.224 -1116.25 0.
980.27 -1059.68 0.
315.798 -1302.44 0.
323.742 -1281.93 0.
331.686 -1261.43 0.
171.419 -1301.77 0.
203.011 -1225.93 0.
234.603 -1150.09 0.
372.056 -1126.75 0.
308.936 -1271.72 0.
245.816 -1416.7 0.
301.682 -1331 0.
351.79 -1213.56 0.
281.341 -1160.81 0.
-69.8453 -1301.75 0.
-63.491 -1289.01 0.
89.2299 -1215.99 0.
79.6624 -1236.85 0.
70.0944 -1257.71 0.
-88.0961 -1220 0.
42.8543 -915.217 0.
173.804 -610.433 0.
333.142 -483.075 0.
318.131 -519.64 0.
303.12 -556.205 0.
323.62 -519.537 0.
344.691 -468.216 0.
23.53 -555.029 0.
35.7399 -530.948 0.
47.9501 -506.866 0.
475.83 -350.594 0.
434.082 -453.307 0.
392.334 -556.02 0.
77.6157 -617.8 0.
172.313 -398.383 0.
267.009 -178.965 0.
23.2425 -92.6275 0.
130.891 150.414 0.
-223.316 -190.114 0.
108.512 -193.078 0.
60.9351 -303.203 0.
-84.3118 -454.49 0.
-143.062 -589.854 0.
-201.813 -725.217 0.
213.985 -653.72 0.
161.629 -775.302 0.
109.274 -896.884 0.
-3.36801 -878.808 0.
83.369 -677.2 0.
170.106 -475.592 0.
288.455 -413.019 0.
278.407 -434.374 0.
199.172 -493.979 0.
119.857 -677.184 0.
40.5424 -860.389 0.
-112.148 -1046.4 0.
-133.621 -1096.31 0.
-155.094 -1146.22 0.
285.185 -1000.52 0.
260.039 -1060.1 0.
234.893 -1119.69 0.
66.513 -1166.31 0.
89.5729 -1111.99 0.
136.817 -1047.26 0.
22.5534 -1139.89 0.
-1.5566 -1197.56 0.
94.8591 -1192.17 0.
96.1736 -1188.96 0.
97.4886 -1185.76 0.
186.17 -1140.31 0.
201.488 -1104.52 0.
216.809 -1068.72 0.
744.838 -892.065 0.
700.645 -1001.07 0.
656.451 -1110.07 0.
640.568 -1203.54 0.
594.438 -1310.45 0.
223.921 -1525.35 0.
340.781 -1248.16 0.
457.641 -970.963 0.
445.292 -884.243 0.
351.247 -1096.58 0.
257.202 -1308.91 0.
314.049 -1349.67 0.
326.608 -1322.02 0.
339.167 -1294.37 0.
775.795 -959.349 0.
876.944 -724.373 0.
1843.36 -117.659 0.
741.08 -486.687 0.
795.292 -360.435 0.
686.483 -358.322 0.
610.732 -537.051 0.
534.98 -715.781 0.
471.41 -936.313 0.
342.636 -1235.53 0.
213.863 -1534.74 0.
396.558 -1494.15 0.
428.638 -1420.85 0.
460.717 -1347.55 0.
900.558 -1109.71 0.
921.696 -1053.83 0.
276.509 -1285.62 0.
285.112 -1265.78 0.
293.716 -1245.94 0.
57.353 -1319.82 0.
89.2805 -1244.4 0.
121.209 -1168.99 0.
517.409 -1032.18 0.
454.017 -1176.51 0.
390.623 -1320.84 0.
426.631 -1249.03 0.
476.31 -1131.26 0.
547.393 -1012.53 0.
-146.738 -1301.25 0.
-140.101 -1289.12 0.
112.919 -1174.87 0.
103.091 -1195.63 0.
93.262 -1216.39 0.
85.8197 -1115.06 0.
217.312 -810.662 0.
348.804 -506.267 0.
307.151 -462.616 0.
292.975 -499.847 0.
278.799 -537.078 0.
304.952 -495.501 0.
326.045 -444.77 0.
-40.4255 -552.173 0.
-28.1322 -527.671 0.
-15.8385 -503.17 0.
548.779 -287.975 0.
506.563 -390.374 0.
464.346 -492.773 0.
31.639 -605.373 0.
126.123 -386.33 0.
220.606 -167.287 0.
-446.87 -263.993 0.
-339.867 -21.8327 0.
596.908 501.549 0.
718.457 837.782 0.
499.458 325.289 0.
226.411 953.688 0.
-189.101 -19.9958 0.
18.0504 459.849 0.
612.01 184.907 0.
678.713 344.005 0.
727.433 461.085 0.
903.077 944.797 0.
666.56 395.637 0.
730.517 547.852 0.
564.239 410.243 0.
473.634 201.432 0.
620.159 382.956 0.
326.315 -302.631 0.
674.65 510.753 0.
554.149 657.91 0.
533.077 612.97 0.
228.08 -94.6816 0.
604.036 -747.106 0.
981.289 139.222 0.
1299.25 887.144 0.
617.458 332.213 0.
781.529 718.139 0.
915.279 245.785 0.
414.492 -336.93 0.
846.266 675.502 0.
393.903 -737.166 0.
979.487 631.022 0.
881.927 405.895 0.
108.392 -891.844 0.
936.809 1036.34 0.
915.641 981.656 0.
1136.25 122.695 0.
903.949 -418.104 0.
1010.54 -168.724 0.
967.404 -774.248 0.
925.722 -873.099 0.
503.732 -550.82 0.
954.48 504.368 0.
551.432 -433.243 0.
147.404 -1158.07 0.
412.039 -543.757 0.
779.569 311.469 0.
1086.21 174.734 0.
657.159 -827.036 0.
737.899 -639.424 0.
922.209 -168.562 0.
1133.04 324.948 0.
-864.825 -284.51 0.
1212.46 441.176 0.
447.359 -1339.64 0.
617.867 -330.422 0.
822.481 146.784 0.
669.707 -209.899 0.
385.54 -657.452 0.
582.127 -198.158 0.
262.582 -943.084 0.
959.074 -476.227 0.
946.745 -503.546 0.
1576.07 966.147 0.
1505.7 445.305 0.
1529.02 493.565 0.
464.209 -749.491 0.
683.442 -232.483 0.
829.685 115.273 0.
333.332 -437.127 0.
802.186 660.858 0.
561.35 103.112 0.
996.172 -150.35 0.
1168.98 258.232 0.
1351.98 691.319 0.
1056.39 3.21026 0.
909.36 -340.01 0.
908.764 840.751 0.
510.095 398.808 0.
388.902 112.966 0.
804.173 434.661 0.
493.191 -298.689 0.
995.99 866.308 0.
852.452 374.658 0.
951.997 607.264 0.
1269.19 1347.55 0.
713.025 548.335 0.
622.73 338.605 0.
130.504 -807.403 0.
648.315 368.595 0.
225.787 -615.5 0.
-12.9018 -350.617 0.
405.214 627.889 0.
172.41 87.4141 0.
327.964 -911.69 0.
841.589 285.798 0.
922.538 473.653 0.
139.697 -226.224 0.
50.384 -432.527 0.
582.763 810.648 0.
-693.509 52.8907 0.
-854.744 -319.638 0.
131.309 -558.948 0.
137.719 -530.181 0.
136.948 -532.426 0.
-385.48 -746.769 0.
-344.254 -654.656 0.
-303.027 -562.544 0.
284.699 -321.966 0.
215.298 -481.588 0.
145.897 -641.209 0.
112.481 -842.18 0.
-4.03603 -1115.22 0.
-120.553 -1388.26 0.
-109.776 -1332.85 0.
-58.8146 -1212.3 0.
-33.9779 -1109.43 0.
-3.21907 -1040.97 0.
27.54 -972.503 0.
104.889 -905.036 0.
88.1092 -941.707 0.
71.3282 -978.378 0.
241.499 -970.335 0.
187.31 -1095.02 0.
133.122 -1219.7 0.
-29.657 -1268.6 0.
-1.1796 -1197.7 0.
-150.671 -1203.27 0.
32.5802 -1293.41 0.
-55.2439 -1497.57 0.
8.33321 -1598.73 0.
20.3366 -1571.78 0.
32.3396 -1544.83 0.
-61.3151 -1518.88 0.
-2.4185 -1384.81 0.
56.4773 -1250.73 0.
422.514 -1184 0.
324.836 -1413.36 0.
227.157 -1642.72 0.
599.601 -1396.96 0.
666.075 -1247.31 0.
100.521 -1375.91 0.
153.741 -1255.68 0.
206.961 -1135.45 0.
316.315 -1041.49 0.
282.224 -1125.83 0.
248.134 -1210.16 0.
493.653 -1130.03 0.
501.873 -1112.33 0.
510.092 -1094.63 0.
618.001 -830.536 0.
764.271 -491.952 0.
1236.18 -14.4713 0.
762.756 -371.019 0.
679.968 -560.42 0.
456.453 -817.103 0.
357.204 -1049.26 0.
257.956 -1281.42 0.
-55.1257 -1436.51 0.
44.2284 -1205.64 0.
143.582 -974.768 0.
549.484 -652.858 0.
616.749 -493.618 0.
684.011 -334.38 0.
1163.86 -367.764 0.
1018.9 -713.559 0.
304.576 -1263.51 0.
332.595 -1191.24 0.
360.615 -1118.96 0.
232.212 -1182.91 0.
142.728 -1387.78 0.
53.2457 -1592.64 0.
189.313 -1496.22 0.
290.448 -1259.69 0.
391.585 -1023.16 0.
609.807 -967.79 0.
562.198 -1080.22 0.
926.752 -1013.26 0.
-200.359 -1429.79 0.
-164.82 -1348.37 0.
-9.69556 -1191.16 0.
78.0207 -996.381 0.
165.737 -801.596 0.
256.081 -773.608 0.
152.782 -1015.63 0.
49.483 -1257.66 0.
213.98 -1126.64 0.
311.899 -896.432 0.
409.818 -666.224 0.
180.18 -662.276 0.
226.13 -554.91 0.
-126.426 -643.285 0.
-159.56 -717.303 0.
-192.694 -791.321 0.
226.011 -607.323 0.
289.229 -460.342 0.
352.447 -313.361 0.
109.386 -344.138 0.
133.192 -287.626 0.
156.998 -231.115 0.
-482.648 -397.491 0.
-422.021 -254.113 0.
131.276 -533.484 0.
160.109 -492.064 0.
159.003 -493.767 0.
-223.995 -644.556 0.
-182.748 -552.953 0.
-141.5 -461.348 0.
164.509 -343.145 0.
95.4564 -502.897 0.
26.4043 -662.649 0.
101.817 -814.526 0.
-14.1114 -1088.29 0.
-130.04 -1362.06 0.
-7.47972 -1257.76 0.
43.6339 -1137.49 0.
-29.1018 -1074.79 0.
0.66251 -1005.42 0.
30.4269 -936.042 0.
392.677 -751.973 0.
376.021 -788.476 0.
359.364 -824.978 0.
-70.0963 -1074.13 0.
-124.058 -1199.17 0.
-178.019 -1324.2 0.
36.3015 -1208.74 0.
64.7612 -1137.98 0.
883.857 -728.688 0.
82.2993 -1242.44 0.
-4.78098 -1447.11 0.
8.79366 -1566.2 0.
21.5 -1539.87 0.
34.2061 -1513.53 0.
73.4263 -1430.02 0.
132.526 -1296.08 0.
191.624 -1162.15 0.
251.198 -1225.02 0.
154.517 -1455.21 0.
57.8358 -1685.41 0.
492.938 -1410 0.
559.71 -1260.28 0.
64.0206 -1357.78 0.
116.955 -1237.66 0.
169.89 -1117.55 0.
481.68 -940.31 0.
447.322 -1024.39 0.
412.966 -1108.46 0.
468.247 -1110.97 0.
476.919 -1093.56 0.
485.59 -1076.14 0.
614.999 -800.424 0.
761.735 -461.924 0.
-1082.38 -975.924 0.
652.707 -387.043 0.
570.529 -577.281 0.
530.82 -752.233 0.
431.859 -985.356 0.
332.898 -1218.48 0.
-165.386 -1451.51 0.
-66.6215 -1220.67 0.
32.1432 -989.823 0.
156.994 -790.972 0.
224.218 -631.972 0.
291.441 -472.973 0.
1190.17 -325.137 0.
1045.89 -671.139 0.
397.046 -1189.54 0.
426.023 -1117.58 0.
455.001 -1045.62 0.
514.717 -1031.63 0.
425.281 -1236.35 0.
335.846 -1441.06 0.
-72.522 -1575.88 0.
29.2749 -1339.89 0.
131.073 -1103.9 0.
591.546 -945.892 0.
544.162 -1058.76 0.
694.695 -1080.21 0.
-94.5922 -1351.92 0.
-59.297 -1270.49 0.
-140.296 -1217.65 0.
-52.9512 -1022.72 0.
34.3932 -827.785 0.
142.481 -790.523 0.
39.8368 -1033.03 0.
-62.8072 -1275.54 0.
496.575 -974.799 0.
595.42 -745.503 0.
694.266 -516.208 0.
163.96 -637.683 0.
209.715 -530.216 0.
-99.1525 -599.48 0.
-132.128 -673.29 0.
-165.103 -747.101 0.
-41.9699 -691.569 0.
21.1052 -544.408 0.
84.1805 -397.247 0.
148.781 -296.787 0.
172.55 -240.82 0.
196.319 -184.853 0.
29.7753 -145.939 0.
90.5531 -4.29676 0.
141.786 -558.619 0.
85.5399 -518.667 0.
172.101 -317.503 0.
29.3667 -300.543 0.
-117.559 -640.692 0.
-264.484 -980.841 0.
-247.881 -1091.69 0.
-197.06 -972.274 0.
-146.239 -852.853 0.
85.0883 -734.428 0.
72.4177 -764.369 0.
59.7466 -794.31 0.
206.196 -742.994 0.
199.806 -759.47 0.
114.777 -818.388 0.
88.2598 -878.535 0.
61.7416 -938.682 0.
403.742 -851.844 0.
353.319 -969.9 0.
302.896 -1087.96 0.
-241.779 -1255.15 0.
-129.51 -997.464 0.
-17.2399 -739.773 0.
362.278 -597.858 0.
316.878 -702.246 0.
1260.52 -382.527 0.
68.884 -1071.2 0.
-33.1979 -1305.07 0.
94.1341 -1399.57 0.
97.8039 -1387.85 0.
101.474 -1376.13 0.
174.51 -1301.41 0.
226.707 -1174.94 0.
278.904 -1048.47 0.
307.535 -955.48 0.
346.267 -863.82 0.
384.999 -772.159 0.
717.457 -784.284 0.
615.382 -1014.48 0.
-7.61168 -1435.9 0.
37.3215 -1330.85 0.
82.2544 -1225.79 0.
529.051 -927.649 0.
606.234 -747.653 0.
683.416 -567.657 0.
644.09 -528.635 0.
642.079 -529.459 0.
640.067 -530.283 0.
625.108 -644.353 0.
552.103 -810.394 0.
248.679 -1077.51 0.
291.299 -1108.17 0.
265.159 -1168.3 0.
427.531 -1089.82 0.
520.19 -874.009 0.
612.85 -658.196 0.
134.233 -766.384 0.
141.672 -754.774 0.
149.11 -743.165 0.
-141.71 -1013.26 0.
-256.703 -1277.45 0.
-371.696 -1541.64 0.
811.282 -1112.78 0.
776.247 -1191.07 0.
317.16 -1449.1 0.
304.603 -1480.08 0.
292.046 -1511.06 0.
380.092 -1402.82 0.
503.063 -1116.37 0.
626.032 -829.908 0.
88.2078 -1054.32 0.
-1.72303 -1259.41 0.
-91.6533 -1464.5 0.
456.617 -1221.41 0.
486.981 -1158.5 0.
881.516 -934.099 0.
-0.228977 -1106.98 0.
106.137 -856.736 0.
-47.4317 -811.207 0.
-153.283 -1051.81 0.
-259.133 -1292.41 0.
-1.93977 -1212.05 0.
86.6723 -1004.32 0.
175.285 -796.585 0.
555.354 -715.171 0.
453.922 -950.955 0.
352.489 -1186.74 0.
119.717 -932.125 0.
335.436 -427.526 0.
106.739 -196.556 0.
16.3525 -410.7 0.
-74.0343 -624.846 0.
-195.903 -750.287 0.
-149.299 -642.851 0.
-102.694 -535.414 0.
51.0051 -434.903 0.
50.4765 -437.121 0.
49.948 -439.338 0.
39.7636 -458.839 0.
37.6146 -466.42 0.
209.134 -498.5 0.
-66.4656 -556.591 0.
19.2843 -354.181 0.
149.191 -215.97 0.
2.52001 -556.232 0.
-144.152 -896.493 0.
-322.318 -1093.31 0.
-271.555 -974.006 0.
-220.793 -854.698 0.
-7.33434 -740.982 0.
-19.7298 -771.204 0.
-32.1256 -801.426 0.
139.412 -743.108 0.
132.918 -759.35 0.
224.991 -735.372 0.
199.097 -795.533 0.
173.203 -855.693 0.
290.823 -870.703 0.
239.974 -987.557 0.
189.126 -1104.41 0.
-144.389 -1183.84 0.
-31.5679 -926.162 0.
81.2535 -668.485 0.
493.675 -508.375 0.
448.618 -613.191 0.
540.807 -659.448 0.
-158.08 -1137.94 0.
-259.815 -1372.07 0.
148.907 -1343.96 0.
153.047 -1332.73 0.
157.187 -1321.49 0.
180.392 -1266.02 0.
233.389 -1140.34 0.
286.385 -1014.65 0.
358.406 -903.229 0.
397.177 -811.932 0.
435.948 -720.633 0.
734.881 -745.554 0.
634.163 -976.515 0.
-35.7031 -1413.76 0.
9.84293 -1309.71 0.
55.3888 -1205.66 0.
494.473 -913.281 0.
572.503 -734.403 0.
650.533 -555.524 0.
504.953 -554.265 0.
504.074 -556.272 0.
503.194 -558.279 0.
498.002 -666.409 0.
426.39 -833.869 0.
-76.5074 -1184.85 0.
324.967 -1060.51 0.
298.153 -1120.24 0.
475.305 -1039.54 0.
566.705 -822.936 0.
658.105 -606.334 0.
293.344 -668.76 0.
300.114 -657.181 0.
306.883 -645.602 0.
-211.75 -1010.72 0.
-326.046 -1275.51 0.
-440.341 -1540.31 0.
714.373 -1122.64 0.
679.843 -1201.22 0.
333.236 -1411.59 0.
319.862 -1441.86 0.
306.487 -1472.12 0.
196.503 -1452.96 0.
318.351 -1165.68 0.
440.199 -878.41 0.
204.547 -973.166 0.
113.401 -1177.47 0.
22.2556 -1381.77 0.
481.958 -1180.4 0.
510.994 -1116.79 0.
396.733 -1108.24 0.
-92.7663 -1114.07 0.
14.005 -864.255 0.
-91.9719 -800 0.
-197.071 -1041.26 0.
-302.169 -1282.51 0.
202.969 -1092.48 0.
291.965 -885.178 0.
380.962 -677.874 0.
186.247 -840.585 0.
85.5506 -1077.31 0.
-15.1461 -1314.04 0.
365.974 -794.503 0.
582.117 -289.872 0.
211.594 -120.499 0.
120.677 -333.606 0.
29.7592 -546.713 0.
-217.594 -728.927 0.
-171.193 -621.457 0.
-124.793 -513.986 0.
-50.0789 -446.042 0.
-50.4575 -448.989 0.
-50.8361 -451.935 0.
-75.2695 -476.844 0.
-78.1785 -485.454 0.
234.712 -509.476 0.
487.898 1065.13 0.
321.469 673.248 0.
540.521 508.315 0.
25.4836 -694.626 0.
657.292 778.176 0.
405.971 781.068 0.
-127.785 -468.138 0.
75.9624 4.47281 0.
294.094 172.753 0.
22.5368 -461.139 0.
634.903 967.884 0.
718.773 756.523 0.
333.942 -141.867 0.
1059.22 1049.2 0.
1100.16 1142.95 0.
431.896 -418.664 0.
185.001 -876.147 0.
602.661 101.391 0.
611.069 124.045 0.
293.854 -315.965 0.
485.825 131.258 0.
522.686 216.603 0.
871.427 151.492 0.
888.358 187.665 0.
467.841 -299.817 0.
-151.923 -673.03 0.
446.555 723.45 0.
935.407 428.605 0.
635.453 -269.098 0.
887.915 322.658 0.
1071.63 823.132 0.
617.011 -237.694 0.
930.954 494.979 0.
632.305 -328.057 0.
363.762 -954.815 0.
876.574 241.526 0.
1314.01 607.087 0.
853.637 -462.353 0.
422.253 -269.636 0.
433.474 -241.715 0.
207.235 -767.78 0.
628.077 -528.014 0.
1067.52 497.108 0.
1010.37 364.092 0.
236.708 -879.013 0.
350.117 -618.374 0.
516.275 -234.262 0.
599.965 -146.71 0.
1019.03 831.042 0.
1669.6 997.944 0.
861.792 154.341 0.
685.466 -251.404 0.
988.987 93.6345 0.
569.82 -878.897 0.
881.766 -144.771 0.
427.877 -638.127 0.
926.947 527.892 0.
1148.07 1045.07 0.
71.1007 -181.733 0.
153.317 13.3747 0.
289.92 334.51 0.
1405.63 697.975 0.
1172.65 160.145 0.
1091.5 354.329 0.
651.761 -667.52 0.
680.385 -597.105 0.
450.167 -481.415 0.
487.241 -397.049 0.
476.658 -423.881 0.
661.142 -70.2231 0.
801.529 257.617 0.
449.304 -565.064 0.
1460.91 1082.17 0.
1205.42 492.049 0.
454.492 797.217 0.
603.816 705.57 0.
-100.605 -932.9 0.
540.583 783.019 0.
89.1803 -270.475 0.
237.338 75.3455 0.
617.111 -477.985 0.
803.991 -46.9415 0.
684.816 -329.407 0.
96.6029 -313.483 0.
78.4136 -354.244 0.
131.727 -227.932 0.
1329.51 1021.09 0.
1066.89 407.185 0.
-87.1571 -980.129 0.
562.606 540.223 0.
492.821 380.811 0.
288.358 525.421 0.
261.211 464.164 0.
218.325 365.598 0.
97.9015 115.565 0.
-215.777 -617.071 0.
-188.509 -551.855 0.
-304.754 -755.567 0.
-82.3002 -235.214 0.
38.8174 -542.834 0.
76.5774 -366.747 0.
104.312 -303.701 0.
40.4714 -320.998 0.
-23.1058 -469.633 0.
-86.6837 -618.269 0.
-97.1808 -644.574 0.
-36.1173 -505.921 0.
24.9464 -367.267 0.
45.5068 -365.779 0.
16.5832 -432.687 0.
-12.3406 -499.595 0.
209.24 -418.586 0.
195.993 -446.199 0.
458.455 -370.66 0.
397.11 -514.054 0.
335.767 -657.449 0.
216.867 -762.569 0.
255.059 -675.218 0.
293.252 -587.866 0.
40.2427 -765.591 0.
-68.8455 -1015.93 0.
-177.934 -1266.28 0.
30.0294 -1167.01 0.
77.7444 -1058.24 0.
535.787 -772.553 0.
45.5624 -797.148 0.
141.074 -573.009 0.
780.251 -179.453 0.
713.848 -334.028 0.
647.446 -488.604 0.
285.876 -769.021 0.
223.702 -915.83 0.
161.528 -1062.64 0.
213.601 -1095.95 0.
194.015 -1137.94 0.
174.43 -1179.93 0.
391.474 -888.687 0.
508.4 -609.482 0.
453.571 -440.67 0.
400.056 -565.586 0.
346.542 -690.501 0.
393.969 -757.464 0.
364.056 -827.142 0.
334.143 -896.82 0.
197.234 -973.019 0.
210.279 -948.422 0.
223.325 -923.824 0.
459.172 -902.257 0.
399.884 -1035.48 0.
105.487 -1269.58 0.
463.676 -908.124 0.
571.625 -654.46 0.
574.146 -518.265 0.
517.064 -650.686 0.
459.981 -783.107 0.
40.9831 -1028.35 0.
30.1795 -1049.24 0.
19.3763 -1070.13 0.
-46.1932 -1115.83 0.
-59.0612 -1143.63 0.
-71.9285 -1171.43 0.
645.569 -898.746 0.
630.363 -938.557 0.
328.83 -1097.7 0.
318.643 -1122.38 0.
308.457 -1147.06 0.
78.4143 -1241.21 0.
110.743 -1167.94 0.
143.072 -1094.67 0.
261.176 -979.944 0.
294.511 -904.004 0.
327.846 -828.064 0.
446.695 -740.316 0.
462.88 -699.815 0.
721.98 -557.903 0.
24.0825 -839.494 0.
31.3804 -818.799 0.
90.0012 -769.635 0.
113.199 -712.652 0.
136.397 -655.67 0.
601.885 -494.172 0.
530.35 -662.83 0.
458.814 -831.488 0.
-289.071 -1078.75 0.
-198.879 -870.407 0.
-108.688 -662.068 0.
632.897 -471.022 0.
554.98 -655.289 0.
-223.656 -1066.21 0.
-25.188 -601.07 0.
173.28 -135.934 0.
129.529 55.6304 0.
77.3664 -67.9425 0.
25.2028 -191.515 0.
7.25683 -281.24 0.
-23.7593 -353.031 0.
-54.7753 -424.822 0.
-201.095 -497.492 0.
-206.137 -507.616 0.
-167.562 -602.706 0.
339.191 -224.174 0.
366.578 -160.463 0.
-117.803 -356.419 0.
-181.545 -504.574 0.
-245.287 -652.73 0.
51.5775 -548.444 0.
112.718 -410.192 0.
173.859 -271.939 0.
39.5439 -338.956 0.
10.3745 -405.438 0.
-18.7952 -471.921 0.
214.37 -384.91 0.
201.315 -412.232 0.
478.913 -333.503 0.
416.814 -476.066 0.
354.715 -618.631 0.
217.755 -729.852 0.
256.052 -642.903 0.
294.349 -555.954 0.
-17.004 -758.946 0.
-125.688 -1009.68 0.
-234.372 -1260.42 0.
-289.662 -1270.3 0.
-242.262 -1161.53 0.
480.699 -762.153 0.
367.084 -627.58 0.
462.955 -403.341 0.
926.599 -86.5783 0.
859.467 -240.069 0.
792.335 -393.559 0.
176.337 -784.681 0.
114.139 -931.374 0.
51.9409 -1078.07 0.
122.479 -1103.39 0.
103.271 -1145.86 0.
84.0632 -1188.34 0.
61.9814 -997.932 0.
178.475 -718.05 0.
597.31 -349.591 0.
544.092 -474.612 0.
490.874 -599.634 0.
246.805 -791.366 0.
217.299 -861.235 0.
187.794 -931.105 0.
210.217 -934.607 0.
223.565 -910.685 0.
236.914 -886.762 0.
701.895 -765.76 0.
642.936 -899.431 0.
-2388.79 -2306.03 0.
549.207 -838.622 0.
656.563 -584.577 0.
409.074 -559.043 0.
351.787 -691.683 0.
294.499 -824.324 0.
-214.488 -1106.31 0.
-225.703 -1127.27 0.
-236.919 -1148.22 0.
316.13 -931.167 0.
302.96 -958.394 0.
289.791 -985.62 0.
569.784 -899.434 0.
555.354 -940.021 0.
178.889 -1128.81 0.
169.354 -1154.02 0.
159.819 -1179.24 0.
37.4326 -1226.61 0.
70.2786 -1153.65 0.
103.125 -1080.7 0.
267.543 -947.262 0.
300.22 -870.613 0.
332.896 -793.964 0.
184.981 -819.293 0.
201.801 -779.404 0.
1423.19 -225.867 0.
142.689 -758.125 0.
150.722 -738.325 0.
367.147 -618.098 0.
390.652 -561.253 0.
414.158 -504.409 0.
607.841 -461.82 0.
536.559 -630.576 0.
465.277 -799.333 0.
-338.662 -1066.05 0.
-248.12 -858.17 0.
-157.579 -650.286 0.
583.078 -458.669 0.
505.129 -642.492 0.
-333.305 -1083.87 0.
-134.954 -618.787 0.
63.3959 -153.701 0.
202.693 119.515 0.
150.081 -4.01522 0.
97.4679 -127.545 0.
120.46 -202.407 0.
89.4033 -274.742 0.
58.347 -347.078 0.
-194.663 -463.832 0.
-199.905 -474.231 0.
80.1614 124.404 0.
468.477 -10.5042 0.
335.284 -319.185 0.
-315.992 -764.376 0.
-248.752 -609.37 0.
-181.512 -454.365 0.
313.403 -187.222 0.
302.374 -212.914 0.
291.345 -238.604 0.
11.3369 -379.069 0.
-4.80581 -418.155 0.
-20.9482 -457.241 0.
81.9743 -571.125 0.
-4.76909 -774.682 0.
132.343 -837.153 0.
255.768 -548.03 0.
379.193 -258.907 0.
505.39 -115.083 0.
373.597 -417.773 0.
241.804 -720.463 0.
-101.963 -904.124 0.
-25.2194 -724.962 0.
51.5242 -545.8 0.
-112.196 -739.172 0.
-222.39 -994.994 0.
216.605 -1015.37 0.
370.466 -928.968 0.
381.713 -902.268 0.
622.371 -835.572 0.
513.23 -1093.55 0.
404.088 -1351.53 0.
-219.432 -1674.45 0.
-150.558 -1512.5 0.
-81.6823 -1350.56 0.
1.98943 -1141.68 0.
110.771 -888.642 0.
219.553 -635.6 0.
45.1005 -761.624 0.
-2.61042 -875.731 0.
429.878 -770.959 0.
457.247 -704.042 0.
484.617 -637.125 0.
219.607 -733.589 0.
188.483 -805.123 0.
157.361 -876.657 0.
182.5 -834.118 0.
240.622 -694.175 0.
298.744 -554.233 0.
1067.72 -187.884 0.
1074.76 -171.697 0.
-1369.28 -1206.98 0.
759.657 -410.597 0.
701.004 -551.905 0.
156.656 -859.291 0.
205.742 -752.047 0.
254.828 -644.802 0.
-121.612 -726.645 0.
-87.704 -651.811 0.
-53.7963 -576.977 0.
577.92 -404.768 0.
482.521 -630.958 0.
387.121 -857.147 0.
579.244 -749.107 0.
600.578 -692.141 0.
196.275 -828.734 0.
181.824 -859.091 0.
167.373 -889.448 0.
212.276 -921.969 0.
153.281 -1060.56 0.
94.2859 -1199.15 0.
211.948 -1093.84 0.
309.21 -869.004 0.
406.472 -644.165 0.
164.377 -635.24 0.
217.249 -515.466 0.
376.876 -347.278 0.
267.8 -667.132 0.
123.804 -1002.33 0.
197.37 -1117.98 0.
342.15 -780.036 0.
486.929 -442.093 0.
646.793 -189.729 0.
680.037 -110.314 0.
713.281 -30.901 0.
-132.748 -476.998 0.
-206.478 -645.507 0.
-280.208 -814.014 0.
465.901 -444.665 0.
500.785 -365.39 0.
-80.6437 -539.884 0.
-17.4894 -395.579 0.
45.6647 -251.274 0.
103.787 -191.259 0.
46.6155 -321.615 0.
-10.5558 -451.971 0.
62.3476 -377.043 0.
140.568 -195.512 0.
218.789 -13.9805 0.
-96.3198 -229.522 0.
-164.131 -385.831 0.
217.12 210.092 0.
325.281 -41.1974 0.
192.724 -350.114 0.
-191.258 -678.247 0.
-123.723 -523.355 0.
-56.1884 -368.462 0.
463.875 -88.4431 0.
453.472 -114.987 0.
443.069 -141.531 0.
15.4972 -347.189 0.
-1.17043 -385.979 0.
-17.8377 -424.768 0.
-4.85738 -576.121 0.
-91.3986 -779.451 0.
-165.897 -934.071 0.
-43.3715 -644.206 0.
79.1536 -354.343 0.
585.023 -52.3889 0.
452.84 -354.426 0.
320.658 -656.463 0.
-68.9206 -858.05 0.
7.8494 -679.023 0.
84.6191 -499.996 0.
118.884 -609.18 0.
8.78616 -865.527 0.
9.73993 -1073.65 0.
420.777 -875.237 0.
432.151 -848.501 0.
555.409 -832.876 0.
447.07 -1091.27 0.
338.73 -1349.66 0.
-106.592 -1594.69 0.
-37.5739 -1433.16 0.
31.4451 -1271.63 0.
-136.542 -1170.04 0.
-27.6762 -917.279 0.
81.1897 -664.518 0.
118.199 -699.383 0.
70.1695 -812.904 0.
344.348 -776.859 0.
372.042 -709.658 0.
399.737 -642.456 0.
263.005 -685.851 0.
231.477 -757.05 0.
199.949 -828.249 0.
24.9243 -869.86 0.
84.2921 -731.339 0.
143.66 -592.819 0.
1144.9 -122.395 0.
1152.1 -106.105 0.
-1276.4 -1134.72 0.
773.515 -372.903 0.
714.685 -513.938 0.
61.682 -868.551 0.
109.694 -760.404 0.
157.706 -652.256 0.
3.47532 -644.855 0.
36.4991 -569.118 0.
69.5225 -493.38 0.
344.498 -475.162 0.
247.911 -700.237 0.
151.326 -925.312 0.
555.022 -729.985 0.
576.577 -673.364 0.
97.2749 -838.805 0.
82.5511 -868.589 0.
67.8274 -898.371 0.
387.22 -817.784 0.
327.241 -955.479 0.
267.262 -1093.17 0.
249.097 -1046.57 0.
346.726 -821.831 0.
444.356 -597.093 0.
218 -580.306 0.
270.236 -459.858 0.
597.59 -223.353 0.
393.945 -583.463 0.
249.775 -918.556 0.
66.5014 -1143.15 0.
210.853 -804.688 0.
355.204 -466.222 0.
489.949 -227.088 0.
523.616 -147.794 0.
557.283 -68.5005 0.
-171.481 -459.057 0.
-244.878 -628.283 0.
-318.275 -797.509 0.
253.617 -505.302 0.
287.987 -425.769 0.
114.607 -426.178 0.
177.825 -281.748 0.
241.044 -137.319 0.
129.349 -147.665 0.
72.0562 -277.893 0.
14.7636 -408.121 0.
21.7804 -364.714 0.
100.576 -183.804 0.
179.373 -2.89475 0.
-82.5915 -192.353 0.
-149.905 -349.197 0.
120.48 -535.009 0.
184.417 -50.4161 0.
-274.378 -1118.63 0.
-313.622 -1182.76 0.
625.238 1013.36 0.
538.917 817.265 0.
1054.04 1044.51 0.
597.539 -20.1352 0.
469.788 -317.437 0.
244.839 223.328 0.
15.929 -311.418 0.
58.2807 -213.748 0.
74.4646 -201.194 0.
-262.961 -989.595 0.
190.263 498.625 0.
176.198 465.046 0.
10.6009 78.9854 0.
994.274 786.27 0.
1045 905.898 0.
936.602 654.125 0.
238.598 -173.657 0.
379.46 150.628 0.
331.505 34.089 0.
379.947 -411.788 0.
78.0212 -1113.98 0.
781.005 -1079.65 0.
248.923 -1332.58 0.
748.98 -165.708 0.
1052.09 469.406 0.
793.247 -138.361 0.
422.063 -1007.18 0.
614.234 -91.5314 0.
695.152 99.3837 0.
345.206 -714.745 0.
-64.0521 -718.819 0.
600.959 836.145 0.
402.487 376.095 0.
988.132 1219.96 0.
630.882 378.762 0.
891.856 693.713 0.
436.583 -370.731 0.
468.466 -298.667 0.
479.654 -237.021 0.
565.257 -36.0936 0.
549.155 -72.2762 0.
431.047 401.217 0.
320.728 147.727 0.
320.797 151.868 0.
1436.69 430.392 0.
1388.27 314.865 0.
-4080.18 -983.892 0.
1215.65 683.359 0.
944.593 47.206 0.
30.7973 -724.137 0.
214.809 -297.619 0.
250.512 -217.486 0.
291.822 -175.228 0.
258.191 -254.854 0.
623.13 595.601 0.
889.327 1264.4 0.
470.55 283.999 0.
-496.333 -1975.2 0.
201.283 -1480.53 0.
646.554 -435.636 0.
428.462 161.818 0.
328.211 -70.03 0.
620.145 613.282 0.
860.302 -7.96017 0.
449.657 -965.158 0.
848.442 -33.6888 0.
802.385 201.146 0.
984.729 628.178 0.
615.21 -233.688 0.
301.5 -462.401 0.
736.823 560.714 0.
581.331 480.379 0.
1058.95 754.526 0.
631.744 -243.496 0.
429.167 -17.4744 0.
240.77 -460.531 0.
-55.0126 -1153.98 0.
-101.609 -1283.54 0.
207.929 -554.153 0.
659.514 507.659 0.
464.435 1123.6 0.
19.7074 82.3319 0.
-627.136 -1429.85 0.
188.87 -215.978 0.
601.964 752.332 0.
341.639 -235.787 0.
783.669 796.424 0.
362.72 -184.982 0.
-127.939 -761.524 0.
112.156 -199.932 0.
114.129 -195.144 0.
19.0986 -277.92 0.
274.123 321.947 0.
0.822697 -311.495 0.
517.494 1204.34 0.
79.1654 177.36 0.
-426.818 -1012.09 0.
7.31024 -565.144 0.
137.461 -258.396 0.
402.45 10.5695 0.
320.184 -178.754 0.
237.917 -368.077 0.
151.701 -490.526 0.
142.795 -511.06 0.
133.888 -531.593 0.
-146.849 -652.439 0.
-136.708 -629.822 0.
-126.567 -607.205 0.
-36.1675 -471.629 0.
22.0756 -337.579 0.
-56.1157 -291.515 0.
-151.69 -518.949 0.
-247.264 -746.385 0.
151.103 -675.164 0.
192.162 -582.171 0.
233.22 -489.177 0.
187.755 -580.46 0.
81.1772 -833.179 0.
-25.4006 -1085.9 0.
152.087 -949.607 0.
232.122 -762.727 0.
658.078 -427.798 0.
516.207 -657.512 0.
428.913 -862.059 0.
356.751 -959.922 0.
494.753 -637.224 0.
632.753 -314.528 0.
410.676 -338.201 0.
331.621 -523.434 0.
252.566 -708.668 0.
-7.49151 -816.489 0.
27.5452 -730.707 0.
62.5819 -644.925 0.
283.392 -465.842 0.
333.433 -353.603 0.
433.845 -256.401 0.
300.497 -569.61 0.
167.149 -882.819 0.
20.6053 -1064.34 0.
102.635 -874.603 0.
184.665 -684.87 0.
10.7284 -686.718 0.
11.2064 -681.976 0.
11.6844 -677.234 0.
1166.41 -76.3986 0.
1239.66 93.8758 0.
-3720.95 -1894.78 0.
638.827 -135.786 0.
582.125 -268.955 0.
159.337 -529.541 0.
168.682 -508.982 0.
178.026 -488.424 0.
283.825 -494.998 0.
215.466 -655.084 0.
147.107 -815.171 0.
57.0829 -859.599 0.
90.8651 -784.034 0.
124.648 -708.469 0.
450.272 -571.332 0.
440.48 -591.824 0.
146.083 -712.964 0.
241.086 -491.567 0.
336.088 -270.169 0.
603.401 -122.091 0.
466.897 -441.802 0.
330.393 -761.513 0.
168.46 -947.209 0.
165.204 -950.558 0.
161.948 -953.908 0.
175.107 -999.75 0.
135.464 -1087.59 0.
855.173 -848.919 0.
267.384 -988.445 0.
327.47 -848.766 0.
6.5177 -923.302 0.
-34.968 -1025.19 0.
-76.4536 -1127.07 0.
0.523412 -1064.51 0.
88.1035 -858.112 0.
175.683 -651.713 0.
-73.2501 -601.018 0.
5.26054 -420.844 0.
83.7711 -240.668 0.
-23.4908 -434.46 0.
-116.164 -648.75 0.
-58.9401 -788.792 0.
-118.937 -927.292 0.
-178.933 -1065.79 0.
-115.454 -996.643 0.
60.2285 -588.482 0.
235.911 -180.321 0.
48.0689 -243.847 0.
-66.6844 -509.681 0.
-181.437 -775.515 0.
-202.291 -664.961 0.
-93.3831 -412.348 0.
-171.702 -876.243 0.
76.9937 -506.001 0.
207.171 -199.093 0.
671.34 158.451 0.
590.235 -31.9551 0.
509.129 -222.36 0.
-131.496 -579.072 0.
-139.623 -599.984 0.
-147.75 -620.896 0.
-150.78 -621.382 0.
-140.584 -598.522 0.
-130.387 -575.662 0.
-12.5147 -428.934 0.
45.7135 -294.993 0.
73.4348 -205.821 0.
-22.9182 -432.801 0.
-119.271 -659.782 0.
-94.0237 -749.629 0.
-53.3588 -656.666 0.
-12.6941 -563.702 0.
354.673 -477.18 0.
248.325 -730.127 0.
141.978 -983.075 0.
174.327 -909.272 0.
254.763 -722.317 0.
-171.859 -753.01 0.
499.525 -634.406 0.
412.739 -839.371 0.
271.771 -964.923 0.
410.083 -642.474 0.
548.395 -320.026 0.
300.186 -355.406 0.
220.939 -540.057 0.
141.69 -724.71 0.
134.827 -724.375 0.
170.108 -639.438 0.
205.389 -554.501 0.
319.218 -418.427 0.
368.79 -306.109 0.
386.725 -246.248 0.
253.477 -559.589 0.
120.228 -872.932 0.
-86.6501 -1079.42 0.
-4.69432 -890.053 0.
77.2613 -700.69 0.
80.499 -625.028 0.
81.1821 -621.082 0.
81.8652 -617.137 0.
1114.38 -67.218 0.
1187.79 102.878 0.
-3641.45 -1828.32 0.
378.613 -214.707 0.
322.189 -348.138 0.
231.389 -467.896 0.
240.7 -447.396 0.
250.01 -426.896 0.
462.432 -386.796 0.
393.876 -547.202 0.
325.32 -707.609 0.
167.871 -779.092 0.
201.988 -703.94 0.
236.105 -628.789 0.
293.942 -607.002 0.
284.288 -627.931 0.
272.227 -627.307 0.
367.212 -406.138 0.
462.198 -184.97 0.
368.762 -190.785 0.
231.978 -510.816 0.
95.1932 -830.849 0.
10.1634 -984.097 0.
6.87462 -988.242 0.
3.5861 -992.387 0.
316.618 -907.5 0.
277.155 -995.632 0.
803.712 -840.734 0.
227.674 -973.784 0.
287.626 -833.49 0.
-21.6817 -906.516 0.
-62.9751 -1007.67 0.
-104.268 -1108.82 0.
30.8061 -1020.42 0.
118.671 -813.653 0.
206.535 -606.887 0.
188.899 -458.357 0.
267.368 -278.163 0.
345.836 -97.9701 0.
-150.004 -456.376 0.
-241.727 -671.473 0.
-248.908 -836.792 0.
-308.257 -976.163 0.
-367.606 -1115.53 0.
41.8168 -898.436 0.
217.499 -490.481 0.
393.182 -82.5263 0.
84.635 -195.923 0.
-29.8624 -462.183 0.
-144.359 -728.443 0.
-87.033 -586.579 0.
21.5788 -333.467 0.
-290.627 43.1024 0.
218.388 -114.701 0.
-5.01611 -637.52 0.
199.545 -830.622 0.
352.765 -469.118 0.
505.987 -107.615 0.
-75.3149 -199.841 0.
-91.7327 -234.654 0.
-108.15 -269.467 0.
45.8823 -197.88 0.
54.5321 -175.182 0.
63.1811 -152.484 0.
127.846 -232.911 0.
67.015 -378.093 0.
50.7406 -494.368 0.
19.006 -569.864 0.
-12.7286 -645.36 0.
-206.363 -730.636 0.
-128.208 -549.149 0.
-50.053 -367.663 0.
515.602 -77.8237 0.
498.493 -115.092 0.
481.384 -152.36 0.
449.692 -214.972 0.
413.679 -297.455 0.
534.385 -311.154 0.
557.337 -382.877 0.
511.212 -485.502 0.
326.249 -614.522 0.
349.728 -559.256 0.
373.208 -503.99 0.
190.364 -593.738 0.
152.266 -682.163 0.
114.17 -770.587 0.
178.702 -806.771 0.
149.639 -877.178 0.
120.577 -947.585 0.
159.827 -813.697 0.
233.002 -642.695 0.
222.182 -515.66 0.
268.982 -404.396 0.
315.781 -293.132 0.
194.668 -306.274 0.
165.487 -377.354 0.
136.306 -448.434 0.
71.4843 -530.415 0.
48.6025 -583.474 0.
25.7206 -636.533 0.
895.581 -292.709 0.
889.123 -310.83 0.
1280.74 -157.096 0.
161.466 -541.221 0.
210.8 -424.35 0.
424.916 -231.403 0.
485.061 -89.5108 0.
545.207 52.3814 0.
731.426 178.806 0.
711.503 131.252 0.
691.579 83.6971 0.
450.641 -86.2099 0.
406.289 -188.638 0.
361.937 -291.066 0.
373.249 -335.909 0.
353.853 -382.753 0.
334.884 -421.108 0.
331.796 -429.558 0.
328.708 -438.008 0.
109.504 -525.201 0.
139.083 -456.78 0.
168.662 -388.358 0.
263.193 -392.223 0.
191.875 -563.08 0.
120.555 -733.937 0.
450.169 -646.152 0.
439.15 -673.861 0.
389.648 -715.865 0.
238.922 -686.889 0.
289.848 -571.134 0.
109.591 -565.753 0.
126.813 -525.071 0.
144.035 -484.389 0.
289.655 -466.595 0.
225.21 -620.416 0.
160.765 -774.236 0.
118.369 -719.952 0.
202.957 -520.632 0.
287.546 -321.312 0.
-112.765 -401.505 0.
-69.1662 -298.352 0.
-90.0237 -242.95 0.
-140.82 -364.9 0.
-191.617 -486.85 0.
268.065 -390.422 0.
225.62 -490.301 0.
183.175 -590.18 0.
-71.8501 -622.285 0.
28.8655 -389.64 0.
129.582 -156.994 0.
20.2196 -183.682 0.
7.91892 -212.902 0.
158.687 263.289 0.
117.152 -128.95 0.
-106.705 -650.897 0.
-153.351 -950.898 0.
0.062558 -589.582 0.
153.477 -228.266 0.
-34.1353 -149.206 0.
-50.2304 -184.375 0.
-66.3254 -219.543 0.
112.798 -138.651 0.
122.478 -117.111 0.
132.157 -95.5717 0.
282.079 -133.925 0.
221.657 -279.782 0.
196.075 -400.879 0.
164.59 -476.504 0.
133.104 -552.129 0.
-221.912 -704.456 0.
-143.785 -523.474 0.
-65.6588 -342.491 0.
353.715 -116.037 0.
336.778 -153.278 0.
319.842 -190.518 0.
399.271 -203.345 0.
363.373 -285.71 0.
1081.28 -43.0009 0.
489.382 -381.17 0.
443.519 -484.004 0.
197.711 -637.886 0.
221.611 -582.845 0.
245.511 -527.805 0.
317.14 -508.325 0.
278.932 -596.881 0.
240.726 -685.438 0.
261.048 -741.629 0.
231.448 -811.74 0.
201.848 -881.851 0.
187.988 -770.405 0.
261.423 -599.861 0.
167.072 -506.114 0.
214.386 -395.514 0.
261.699 -284.914 0.
210.233 -268.12 0.
180.961 -340.063 0.
151.688 -412.006 0.
-83.9869 -564.869 0.
-107.377 -617.871 0.
-130.767 -670.873 0.
694.164 -347.781 0.
687.457 -365.78 0.
-591.247 -927.893 0.
240.808 -475.321 0.
289.937 -358.558 0.
619.628 -118.193 0.
679.649 23.4932 0.
739.67 165.179 0.
646.948 175.843 0.
627.337 127.927 0.
607.725 80.0103 0.
333.153 -103.958 0.
289.736 -206.791 0.
246.319 -309.624 0.
483.207 -257.607 0.
463.935 -304.834 0.
173.53 -457.911 0.
170.626 -466.808 0.
167.722 -475.705 0.
89.1191 -501.359 0.
118.003 -432.778 0.
146.887 -364.196 0.
452.625 -281.194 0.
380.525 -452.103 0.
308.425 -623.012 0.
404.486 -635.67 0.
392.744 -663.053 0.
667.21 -564.601 0.
43.9298 -738.07 0.
94.8613 -622.467 0.
130.605 -526.328 0.
147.839 -485.692 0.
165.073 -445.056 0.
343.833 -409.28 0.
279.579 -563.064 0.
215.326 -716.849 0.
4.24721 -737.216 0.
89.4051 -538.16 0.
174.563 -339.103 0.
64.941 -292.049 0.
108.283 -188.394 0.
-98.3157 -215.684 0.
-149.55 -337.22 0.
-200.785 -458.755 0.
171.099 -402.71 0.
128.268 -502.055 0.
85.4376 -601.399 0.
-17.7263 -568.46 0.
83.263 -335.92 0.
184.253 -103.38 0.
-215.712 -254.964 0.
-227.774 -284.883 0.
-787.316 -205.408 0.
-309.736 -909.237 0.
431.541 813.464 0.
226.531 639.891 0.
-19.9539 66.5427 0.
150.39 466.118 0.
-368.789 -985.58 0.
178.251 293.859 0.
-239.258 -676.526 0.
400.83 441.899 0.
353.026 331.059 0.
437.313 528.628 0.
792.034 791.017 0.
617.137 385.672 0.
243.037 -529.656 0.
688.614 509.173 0.
425.287 -105.802 0.
-166.159 -527.133 0.
-70.2221 -300.976 0.
67.3848 21.502 0.
408.143 359.474 0.
395.238 326.82 0.
192.756 -147.86 0.
35.33 -916.028 0.
281.192 -339.899 0.
0.220797 -573.242 0.
490.163 -224.892 0.
610.087 57.7447 0.
238.761 -265.806 0.
403.775 117.014 0.
187.468 -389.338 0.
778.174 353.018 0.
491.473 -316.589 0.
329.288 -695.392 0.
729.639 214.136 0.
601.429 -87.2399 0.
170.984 -1093.07 0.
472.746 -128.532 0.
371.927 -365.179 0.
159.231 -376.47 0.
-29.7231 -820.924 0.
-31.7107 -828.919 0.
192.303 -309.628 0.
244.727 -190.379 0.
122.286 -478.789 0.
-123.985 -328.222 0.
45.6941 66.1251 0.
-530.373 -1279.6 0.
669.999 20.4295 0.
869.986 482.72 0.
-666.285 -430.813 0.
641.023 350.969 0.
488.727 -6.11038 0.
729.417 -210.813 0.
789.248 -70.9468 0.
831.249 28.1519 0.
535.748 115.046 0.
821.24 778.565 0.
745.439 599.275 0.
41.3487 -525.611 0.
156.191 -261.042 0.
73.3629 -458.437 0.
584.775 -205.454 0.
863.797 441.496 0.
511.95 676.061 0.
88.5081 -315.597 0.
8.99657 -503.343 0.
160.777 -261.532 0.
290.468 43.934 0.
189.139 -188.817 0.
311.111 -945.441 0.
1008.95 683.889 0.
1483.56 1793.14 0.
236.879 -912.101 0.
433.878 -445.11 0.
-207.274 -427.413 0.
229.286 89.6926 0.
-134.327 -757.136 0.
480.201 297.11 0.
444.291 206.129 0.
265.226 -218.364 0.
595.132 120.66 0.
895.326 818.615 0.
469.655 -177.209 0.
220.361 9.33837 0.
558.883 799.234 0.
221.796 10.989 0.
254.85 -151.569 0.
136.922 -424.811 0.
-262.838 -548.963 0.
32.9368 142.923 0.
185.455 500.43 0.
25.6511 -533.451 0.
84.7156 -395.421 0.
466.678 495.995 0.
776.448 1214.4 0.
383.564 301.911 0.
449.507 458.97 0.
-413.172 -263.393 0.
-179.314 277.131 0.
-531.202 -915.5 0.
-217.484 -642.064 0.
-102.176 -376.519 0.
-215.043 -241.786 0.
-191.398 -186.153 0.
-167.753 -130.52 0.
158.872 29.4472 0.
151.057 12.3042 0.
143.242 -4.83859 0.
113.712 -106.397 0.
43.6971 -267.166 0.
-26.3187 -427.935 0.
242.874 -468.334 0.
155.453 -667.779 0.
-1.999 -873.828 0.
88.6552 -661.986 0.
179.309 -450.143 0.
59.5453 -370.192 0.
71.8281 -336.365 0.
84.1108 -302.539 0.
108.325 -263.244 0.
120.301 -234.965 0.
132.277 -206.686 0.
420.566 -215.087 0.
332.613 -419.244 0.
-16.978 -735.28 0.
451.714 -314.395 0.
563.19 -54.3588 0.
272.553 -35.5362 0.
230.149 -135.809 0.
187.745 -236.081 0.
414.449 -174.993 0.
428.107 -145.658 0.
441.765 -116.323 0.
451.921 -204.571 0.
369.741 -396.014 0.
287.561 -587.456 0.
223.681 -668.708 0.
203.056 -716.476 0.
-182.518 -898.918 0.
-104.004 -712.861 0.
-25.4905 -526.803 0.
240.492 -303.078 0.
253.45 -271.682 0.
266.408 -240.286 0.
-72.1066 -461.063 0.
-151.726 -651.092 0.
-231.345 -841.121 0.
503.926 -446.816 0.
579.114 -273.665 0.
-2221.57 -1335.16 0.
267.259 -276.106 0.
265.159 -284.551 0.
474.599 -234.887 0.
395.228 -419.347 0.
315.857 -603.808 0.
136.453 -769.76 0.
132.464 -776.66 0.
128.476 -783.559 0.
120.235 -696.284 0.
190.361 -529.103 0.
260.486 -361.922 0.
374.691 -255.935 0.
401.211 -194.631 0.
270.96 -212.68 0.
237.328 -294.141 0.
203.696 -375.603 0.
-52.3 -485.523 0.
19.8168 -318.986 0.
91.9336 -152.45 0.
699.439 66.3604 0.
612.042 -142.061 0.
524.645 -350.483 0.
309.508 -520.377 0.
282.229 -585.523 0.
309.697 -625.247 0.
-114.166 -899.372 0.
-164.262 -1015.38 0.
-78.8747 -1022.27 0.
-3.16499 -848.857 0.
72.5449 -675.443 0.
272.457 -523.704 0.
263.199 -542.722 0.
253.941 -561.74 0.
29.1355 -603.594 0.
71.4528 -503.434 0.
113.771 -403.273 0.
225.639 -312.738 0.
246.387 -263.579 0.
-190.986 -422.505 0.
-225.961 -504.544 0.
-260.936 -586.582 0.
-68.37 -523.125 0.
-33.7403 -445.386 0.
0.889841 -367.647 0.
3.4312 -394.443 0.
-41.8448 -496.957 0.
-87.1208 -599.47 0.
-486.132 -798.496 0.
-494.821 -820.202 0.
1175.87 -152.484 0.
-231.149 -615.534 0.
-116.064 -349.592 0.
-275.08 -237.821 0.
-251.96 -181.816 0.
-228.839 -125.811 0.
291.058 117.651 0.
283.612 100.091 0.
276.165 82.5313 0.
65.5926 -95.9375 0.
-3.89155 -257.737 0.
-73.3764 -419.535 0.
244.779 -434.945 0.
158.009 -635.327 0.
-103.411 -883.2 0.
-12.2267 -671.973 0.
78.9574 -460.744 0.
271.459 -245.998 0.
283.813 -212.125 0.
296.167 -178.253 0.
82.1034 -244.904 0.
94.5628 -217.172 0.
107.023 -189.441 0.
542.039 -131.222 0.
455.545 -336.069 0.
-416.674 -876.883 0.
464.667 -276.328 0.
576.916 -16.6793 0.
211.92 -28.7886 0.
170.007 -129.291 0.
128.094 -229.793 0.
258.451 -210.904 0.
271.746 -181.393 0.
285.041 -151.882 0.
347.947 -220.059 0.
265.672 -411.693 0.
183.397 -603.328 0.
217.12 -637.986 0.
196.457 -686.363 0.
-315.897 -924.722 0.
-237.935 -739.021 0.
-159.973 -553.32 0.
311.595 -241.473 0.
324.04 -210.402 0.
336.485 -179.33 0.
80.2638 -365.447 0.
-0.487713 -554.747 0.
-81.2392 -744.049 0.
566.079 -388.589 0.
641.119 -215.666 0.
-1319.11 -917.522 0.
153.12 -294.59 0.
150.944 -303.372 0.
190.423 -321.446 0.
111.843 -506.838 0.
33.263 -692.231 0.
128.981 -743.081 0.
125.601 -750.567 0.
122.221 -758.053 0.
317.182 -579.125 0.
387.695 -412.214 0.
458.208 -245.303 0.
158.961 -316.668 0.
185.658 -255.973 0.
461.035 -98.101 0.
427.621 -180.561 0.
394.206 -263.021 0.
-178.148 -506.938 0.
-106.059 -341.139 0.
-33.9694 -175.339 0.
664.285 83.5453 0.
577.059 -125.059 0.
489.832 -333.665 0.
206.273 -534.514 0.
178.691 -599.487 0.
574.22 -479.728 0.
4.89953 -815.913 0.
-45.1391 -932.161 0.
-55.1567 -978.818 0.
21.0909 -805.976 0.
97.3387 -633.132 0.
229.214 -509.477 0.
219.897 -528.299 0.
210.58 -547.12 0.
132.577 -528.174 0.
175.014 -427.771 0.
217.453 -327.368 0.
292.189 -252.797 0.
313.703 -203.794 0.
-156.245 -375.004 0.
-190.337 -457.573 0.
-224.428 -540.143 0.
-170.265 -534.768 0.
-135.383 -456.791 0.
-100.501 -378.814 0.
-81.6564 -398.76 0.
-126.757 -501.495 0.
-171.858 -604.23 0.
-279.28 -679.87 0.
-288.913 -701.445 0.
6.8979 -160.192 0.
-62.9893 -303.222 0.
-154.525 -515.681 0.
-395.781 -752.3 0.
-383.177 -726.467 0.
-370.574 -700.635 0.
52.5228 -463.843 0.
99.816 -348.796 0.
147.109 -233.75 0.
-0.862147 -218.396 0.
37.5775 -129.817 0.
76.0175 -41.239 0.
384.718 53.0824 0.
350.889 -23.3288 0.
206.271 -132.547 0.
242.037 -46.9711 0.
277.803 38.6053 0.
437.934 111.197 0.
374.138 -39.5797 0.
310.341 -190.357 0.
32.7216 -395.052 0.
6.51954 -456.218 0.
-19.6822 -517.384 0.
422.478 -257.291 0.
473.957 -133.814 0.
587.907 16.4504 0.
442.839 -227.726 0.
343.1 -453.58 0.
-52.3905 -735.514 0.
-0.973071 -612.632 0.
50.4448 -489.751 0.
101.558 -379.779 0.
146.634 -271.161 0.
191.71 -162.543 0.
361.918 -29.7159 0.
383.432 23.1066 0.
404.945 75.9292 0.
361.98 -73.9663 0.
282.966 -260.901 0.
-162.629 -592.149 0.
-178.899 -636.623 0.
-195.169 -681.097 0.
166.26 -545.304 0.
171.882 -533.299 0.
177.504 -521.295 0.
89.6433 -431.752 0.
207.319 -158.247 0.
324.994 115.258 0.
768.898 223.012 0.
679.8 17.8405 0.
170.097 -368.724 0.
144.203 -367.676 0.
150.131 -354.425 0.
117.376 -348.653 0.
147.924 -277.358 0.
178.472 -206.063 0.
250.606 -213.942 0.
165.823 -414.126 0.
81.0399 -614.309 0.
387.788 -436.338 0.
471.909 -242.127 0.
556.029 -47.9152 0.
281.066 -74.1011 0.
320.485 21.2779 0.
461.208 146.42 0.
427.57 74.9699 0.
393.932 3.5192 0.
9.06126 -262.648 0.
-81.9072 -472.065 0.
-172.875 -681.482 0.
341.773 -570.258 0.
305.552 -650.572 0.
269.331 -730.884 0.
63.0212 -658 0.
182.017 -378.464 0.
1181.25 279.701 0.
356.718 -39.9713 0.
374.403 2.44469 0.
414.094 5.92777 0.
311.214 -230.124 0.
208.336 -466.175 0.
103.634 -575.556 0.
159.061 -446.776 0.
214.489 -317.996 0.
291.218 -337.69 0.
225.389 -491.659 0.
159.56 -645.628 0.
195.069 -487.76 0.
285.272 -277.548 0.
-130.47 -302.677 0.
-119.375 -275.078 0.
-108.279 -247.478 0.
-133.976 -285.185 0.
-192.963 -423.291 0.
-251.95 -561.397 0.
-90.1857 -441.163 0.
-2.81999 -236.292 0.
84.5454 -31.4203 0.
107.397 -242.092 0.
-62.194 -638.431 0.
575.438 116.522 0.
74.0867 -212.749 0.
-17.2831 -425.298 0.
-79.7696 -586.963 0.
-67.1204 -561.197 0.
-54.4716 -535.431 0.
-10.4299 -457.969 0.
36.6881 -342.937 0.
83.8061 -227.904 0.
29.2762 -176.471 0.
66.974 -86.9511 0.
104.672 2.56787 0.
250.807 27.9471 0.
217.094 -48.0261 0.
300.712 -62.9708 0.
336.419 22.6537 0.
372.127 108.278 0.
306.45 88.0098 0.
243.07 -62.9375 0.
179.69 -213.885 0.
119.728 -327.007 0.
93.7328 -388.243 0.
67.7379 -449.48 0.
172.741 -334.01 0.
223.278 -209.102 0.
702.121 100.19 0.
365.702 -229.509 0.
266.199 -455.461 0.
125.936 -629.931 0.
177.2 -506.86 0.
228.464 -383.789 0.
75.5841 -358.295 0.
120.8 -250.272 0.
166.016 -142.25 0.
336.256 -9.12404 0.
357.898 43.3526 0.
379.539 95.8294 0.
156.556 -129.04 0.
77.5395 -316.3 0.
53.8115 -466.742 0.
37.1178 -511.381 0.
20.4245 -556.021 0.
96.2597 -543.287 0.
101.149 -530.95 0.
106.038 -518.613 0.
63.7325 -412.823 0.
181.266 -139.184 0.
298.799 134.455 0.
555.397 163.119 0.
466.439 -42.381 0.
124.731 -356.235 0.
366.06 -240.912 0.
372.155 -227.618 0.
281.715 -243.536 0.
312.925 -172.884 0.
344.135 -102.231 0.
34.609 -275.651 0.
-50.5027 -475.811 0.
-135.615 -675.97 0.
249.395 -462.786 0.
333.158 -267.983 0.
416.92 -73.1793 0.
587.958 86.5718 0.
627.387 182.076 0.
26.0118 -8.08695 0.
-7.6996 -79.9082 0.
-41.4111 -151.729 0.
370.261 -75.2679 0.
279.058 -285.089 0.
187.856 -494.91 0.
296.519 -558.358 0.
261.093 -639.103 0.
225.666 -719.847 0.
-14.1095 -659.685 0.
104.915 -380.122 0.
796.013 143.625 0.
312.547 -28.3755 0.
329.588 15.3881 0.
524.316 83.7062 0.
422.305 -152.745 0.
320.295 -389.196 0.
-58.6872 -613.682 0.
-2.07565 -485.816 0.
54.5369 -357.951 0.
412.944 -252.051 0.
347.041 -405.889 0.
281.137 -559.726 0.
168.371 -467.208 0.
258.636 -257.158 0.
-146.973 -279.966 0.
-135.735 -252.032 0.
-124.496 -224.099 0.
-177.374 -272.442 0.
-236.514 -410.092 0.
-295.654 -547.743 0.
37.1635 -355.399 0.
124.379 -150.359 0.
211.595 54.6801 0.
418.897 -79.9371 0.
249.589 -477.432 0.
-1134.21 66.0315 0.
90.785 -405.745 0.
295.344 71.0478 0.
366.763 -110.345 0.
540.17 301.391 0.
737.902 767.299 0.
96.6144 -75.2279 0.
198.876 166.172 0.
301.087 407.272 0.
476.75 848.561 0.
219.635 246.195 0.
-219.724 -780.243 0.
110.644 -15.5944 0.
268.766 352.353 0.
159.079 -547.659 0.
427.731 83.647 0.
443.359 125.147 0.
121.099 -76.4277 0.
254.944 233.312 0.
154.909 -1.97662 0.
173.917 -339.144 0.
216.652 -240.516 0.
198.762 -283.932 0.
81.561 -39.833 0.
435.354 789.533 0.
37.5252 -132.255 0.
652.34 609.947 0.
470.269 183.18 0.
135.628 -927.33 0.
668.526 322.499 0.
368.91 -369.785 0.
-477.399 -1561.66 0.
337.719 339.982 0.
168.12 -56.2775 0.
239.139 -163.865 0.
59.4899 -583.232 0.
-190.105 -1165.68 0.
-283.115 -720.39 0.
-231.727 -604.478 0.
-54.0836 -1101.2 0.
86.8747 -770.731 0.
246.893 -395.714 0.
164.077 -216.652 0.
101.489 -362.038 0.
-100.168 -831.957 0.
317.106 261.013 0.
122.309 -196.113 0.
85.0845 -285.387 0.
-57.3067 -832.993 0.
188.866 -260.388 0.
625.985 -456.247 0.
405.201 -516.975 0.
549.688 -179.949 0.
496.221 -33.8208 0.
82.3336 -996.512 0.
457.917 -117.113 0.
304.129 791.83 0.
249.844 665.017 0.
41.9214 179.662 0.
220.979 -230.701 0.
-31.4342 -820.371 0.
-354.403 -1574.49 0.
649.429 -323.333 0.
914.933 296.875 0.
-393.798 -123.437 0.
-269.17 167.417 0.
-206.925 312.735 0.
934.083 586.043 0.
546.438 -323.642 0.
901.818 500.822 0.
794.135 717.029 0.
603.096 270.71 0.
435.68 -120.503 0.
-257.507 -1053.16 0.
701.147 1188.68 0.
135.145 820.093 0.
567.751 677.53 0.
315.422 87.0485 0.
348.554 -501.189 0.
455.029 -252.511 0.
609.449 108.358 0.
502.296 1025.08 0.
-122.391 -429.111 0.
17.5958 -99.8146 0.
743.648 326.483 0.
668.755 149.993 0.
678.875 171.45 0.
477.789 333.433 0.
482.249 344.914 0.
-20.5105 83.3071 0.
-366.162 -721.282 0.
90.6348 344.306 0.
-35.4697 158.498 0.
112.101 506.212 0.
-487.682 -890.084 0.
410.294 311.745 0.
304.489 66.053 0.
284.124 17.5363 0.
490.278 -444.101 0.
457.51 -521.861 0.
52.2526 -274.498 0.
243.491 -106.284 0.
312.045 55.1032 0.
299.782 159.12 0.
295.906 152.573 0.
292.028 146.027 0.
175.347 -4.25611 0.
61.8229 -271.858 0.
-51.7026 -539.461 0.
-124.414 -581.222 0.
-73.317 -465.592 0.
-22.2196 -349.961 0.
49.0129 -143.968 0.
149.343 88.2506 0.
421.84 344.539 0.
238.114 -83.2446 0.
54.3879 -511.028 0.
-66.2409 -759.11 0.
1.81423 -599.973 0.
69.8691 -440.836 0.
169.989 -390.784 0.
117.61 -509.293 0.
65.2308 -627.803 0.
-343.814 -708.267 0.
-260.45 -519.413 0.
229.9 -156.343 0.
403.165 -132.392 0.
377.252 -197.676 0.
323.083 -257.008 0.
332.695 -236.433 0.
342.307 -215.859 0.
119.099 -298.376 0.
132.801 -269.869 0.
146.503 -241.362 0.
268.708 -156.967 0.
287.259 -116.204 0.
305.811 -75.4418 0.
-35.7188 -223.833 0.
-34.7892 -222.065 0.
195.191 -134.732 0.
143.183 -254.409 0.
91.1768 -374.087 0.
46.8485 -478.091 0.
18.028 -546.101 0.
-10.7924 -614.11 0.
-27.4403 -648.894 0.
-34.4841 -666.637 0.
-41.5279 -684.381 0.
209.194 -456.166 0.
292.126 -262.074 0.
543.036 3.38241 0.
322.222 -126.524 0.
301.822 -171.232 0.
335.241 -188.603 0.
314.89 -229.578 0.
294.539 -270.553 0.
6.55662 -332.412 0.
103.404 -109.944 0.
200.25 112.524 0.
202.747 61.6453 0.
115.913 -140.442 0.
29.0792 -342.529 0.
495.172 -196.811 0.
470.932 -253.152 0.
-323.213 -641.634 0.
-349.48 -703.851 0.
-375.748 -766.067 0.
338.882 -486.655 0.
345.746 -474.888 0.
352.61 -463.122 0.
305.145 -423.403 0.
358.659 -296.177 0.
412.172 -168.95 0.
217.314 -190.546 0.
241.44 -135.649 0.
-232.022 -293.939 0.
43.0893 -195.969 0.
36.9725 -217.108 0.
365.251 -77.159 0.
381.059 -42.6218 0.
396.867 -8.08512 0.
142.206 -127.919 0.
118.694 -183.368 0.
95.1819 -238.817 0.
438.439 -109.66 0.
441.717 -102.022 0.
444.995 -94.3831 0.
300.326 -46.5233 0.
362.432 100.319 0.
-118.396 -18.5439 0.
-200.291 -212.789 0.
-282.186 -407.034 0.
-116.431 -366.088 0.
-4.98208 -105.415 0.
106.467 155.259 0.
264.031 146.946 0.
107.709 -221.806 0.
-48.6131 -590.56 0.
50.453 -514.357 0.
117.841 -360.43 0.
502.873 -46.0445 0.
287.279 -56.9502 0.
355.894 104.87 0.
89.3172 100.211 0.
86.5758 93.0811 0.
83.8334 85.952 0.
254.625 62.7497 0.
142.174 -205.187 0.
29.7221 -473.124 0.
-92.0306 -536.755 0.
-41.3102 -421.163 0.
9.41024 -305.571 0.
59.2694 -107.017 0.
159.466 124.631 0.
296.374 322.503 0.
113.068 -105.812 0.
-70.2384 -534.128 0.
81.0493 -664.909 0.
148.836 -505.289 0.
216.622 -345.669 0.
204.23 -345.954 0.
151.779 -463.806 0.
99.3281 -581.657 0.
-494.115 -742.567 0.
-410.957 -553.46 0.
548.568 10.4245 0.
507.115 -56.5948 0.
481.277 -121.956 0.
221.865 -268.152 0.
231.337 -247.793 0.
240.81 -227.436 0.
204.273 -230.221 0.
217.728 -202.056 0.
231.183 -173.89 0.
324.374 -101.571 0.
343.796 -61.8764 0.
363.219 -22.1817 0.
25.6858 -164.988 0.
27.7183 -164.157 0.
6.07102 -182.807 0.
-45.277 -303.131 0.
-96.6242 -423.455 0.
62.0822 -437.664 0.
33.533 -505.801 0.
4.98398 -573.937 0.
44.7076 -587.437 0.
37.9057 -604.972 0.
31.1037 -622.508 0.
364.717 -357.469 0.
447.903 -163.514 0.
-625.183 -466.569 0.
19.6895 -224.375 0.
-0.874344 -268.786 0.
233.872 -199.685 0.
213.699 -240.719 0.
193.526 -281.754 0.
253.891 -195.681 0.
350.467 27.1262 0.
447.043 249.934 0.
44.7362 26.6773 0.
-42.6612 -174.983 0.
-130.059 -376.643 0.
256.94 -267.913 0.
231.902 -323.058 0.
54.1767 -449.582 0.
27.0471 -511.186 0.
-0.0824572 -572.789 0.
190.956 -519.95 0.
197.282 -507.913 0.
203.608 -495.876 0.
317.865 -388.391 0.
371.234 -260.793 0.
424.602 -133.196 0.
361.43 -97.0128 0.
385.9 -42.0671 0.
748.591 155.926 0.
-121.993 -235.3 0.
-127.926 -256.349 0.
179.338 -126.758 0.
195.992 -92.7572 0.
212.645 -58.7572 0.
322.924 -17.5406 0.
300.283 -73.3842 0.
277.641 -129.229 0.
308.728 -133.998 0.
312.283 -126.671 0.
315.839 -119.345 0.
299.426 -14.3215 0.
361.725 132.112 0.
-168.215 -8.68603 0.
-250.839 -202.362 0.
-333.464 -396.038 0.
77.9318 -253.135 0.
189.426 7.95022 0.
300.921 269.036 0.
188.059 147.124 0.
31.5399 -221.829 0.
-124.98 -590.783 0.
-432.5 -692.29 0.
-365.77 -538.596 0.
239.936 -239.348 0.
186.267 -5.62229 0.
314.47 292.099 0.
198.014 355.819 0.
14.0226 -67.5046 0.
-169.97 -490.826 0.
6.55239 -570.434 0.
54.7819 -454.904 0.
103.011 -339.373 0.
1.23077 -374.047 0.
-21.9975 -425.487 0.
-45.2258 -476.927 0.
-24.2622 -339.405 0.
57.4519 -145.224 0.
102.386 16.7024 0.
99.343 10.4164 0.
96.3008 4.1299 0.
404.14 64.4991 0.
297.186 -186.503 0.
190.231 -437.506 0.
232.804 -367.278 0.
371.618 -46.779 0.
510.433 273.72 0.
-333.113 -215.953 0.
-462.972 -518.647 0.
710.759 -264.054 0.
374.453 -277.988 0.
444.165 -113.156 0.
247.455 -95.5419 0.
241.66 -108.906 0.
235.865 -122.27 0.
205.759 -159.76 0.
183.01 -217.019 0.
160.263 -274.279 0.
350.79 -81.7925 0.
448.979 147.785 0.
547.167 377.364 0.
201.621 106.534 0.
117.95 -88.6713 0.
-174.775 -364.285 0.
-199.494 -418.213 0.
-224.214 -472.141 0.
30.4316 -389.584 0.
27.1696 -391.572 0.
23.907 -393.56 0.
119.118 -350.792 0.
121.348 -344.09 0.
123.577 -337.389 0.
523.864 -122.214 0.
553.506 -54.1185 0.
-1535.95 -893.369 0.
-117.841 -238.066 0.
-91.0177 -177.975 0.
296.145 -4.06189 0.
225.884 -168.914 0.
155.624 -333.766 0.
198.035 -313.087 0.
289.083 -97.6921 0.
380.131 117.702 0.
70.6101 38.0297 0.
66.618 27.3816 0.
62.626 16.7337 0.
321.678 214.271 0.
374.147 334.402 0.
548.115 475.022 0.
458.1 261.68 0.
368.085 48.3379 0.
232.766 -117.434 0.
248.27 -80.5914 0.
263.775 -43.7487 0.
438.845 10.803 0.
411.462 -54.061 0.
384.078 -118.925 0.
282.622 -232.64 0.
241.789 -320.545 0.
650.01 -217.928 0.
-122.935 -492.445 0.
-95.0344 -423.983 0.
13.7739 -305.905 0.
79.6245 -147.016 0.
145.475 11.8708 0.
454.14 188.209 0.
418.552 105.016 0.
382.964 21.8231 0.
302.915 9.85417 0.
338.413 93.3686 0.
373.912 176.883 0.
295.211 9.99521 0.
215.404 -178.077 0.
-349.533 -536.164 0.
-267.348 -343.145 0.
-185.162 -150.127 0.
244.294 67.3997 0.
138.249 -180.499 0.
32.2039 -428.397 0.
-154.257 -529.727 0.
-93.1334 -385.267 0.
-32.0095 -240.808 0.
-335.682 -163.683 0.
-211.276 127.199 0.
308.718 -177.708 0.
-86.7451 -91.2627 0.
42.0091 206.361 0.
416.689 480.697 0.
233.584 57.6035 0.
50.4775 -365.488 0.
11.2057 -536.628 0.
60.4264 -421.17 0.
109.646 -305.712 0.
52.0117 -322.118 0.
29.0677 -373.856 0.
6.1236 -425.594 0.
31.1749 -281.227 0.
113.925 -88.4936 0.
99.1437 46.5378 0.
96.1739 39.9225 0.
93.2045 33.3066 0.
322.652 62.6959 0.
216.05 -188.739 0.
109.447 -440.174 0.
337.272 -292.325 0.
475.447 29.2205 0.
613.622 350.766 0.
-327.356 -185.96 0.
-457.323 -488.736 0.
-465.042 -738.744 0.
210.289 -314.04 0.
279.806 -149.266 0.
264.91 -57.8418 0.
258.368 -70.8855 0.
251.826 -83.9298 0.
84.0633 -179.901 0.
60.9638 -237.116 0.
37.8649 -294.332 0.
381.833 -38.3151 0.
480.262 190.803 0.
578.691 419.921 0.
308.319 183.683 0.
225.17 -11.8462 0.
-210.209 -347.262 0.
-234.733 -401.372 0.
-259.257 -455.483 0.
-95.4159 -411.153 0.
-98.7964 -413.057 0.
-102.177 -414.961 0.
10.58 -368.593 0.
12.7985 -361.803 0.
15.0166 -355.014 0.
545.655 -78.2154 0.
575.881 -10.3799 0.
-418.107 -381.866 0.
-105.988 -201.492 0.
-79.4778 -140.759 0.
399.5 72.0398 0.
329.787 -93.4073 0.
260.074 -258.855 0.
-35.841 -379.654 0.
56.3354 -165.218 0.
148.512 49.2183 0.
322.215 177.588 0.
318.959 167.01 0.
315.702 156.432 0.
246.636 214.719 0.
299.728 334.476 0.
453.729 466.268 0.
363.926 252.916 0.
274.122 39.5635 0.
95.9935 -142.233 0.
112.467 -106.4 0.
128.941 -70.5666 0.
340.38 0.684257 0.
313.226 -64.6805 0.
286.072 -130.045 0.
119.445 -269.779 0.
79.4189 -358.289 0.
-298.874 -593.068 0.
345.197 -260.066 0.
373.067 -191.227 0.
-7.15243 -283.125 0.
58.857 -124.338 0.
124.866 34.449 0.
401.823 195.987 0.
366.838 112.39 0.
331.855 28.7926 0.
302.918 43.1292 0.
338.977 126.166 0.
375.036 209.202 0.
293.921 40.8889 0.
213.855 -147.091 0.
-166.216 -424.793 0.
-83.4604 -232.357 0.
-0.704767 -39.922 0.
166.696 64.1161 0.
60.3952 -183.326 0.
-45.9061 -430.767 0.
-175.735 -507.558 0.
-114.343 -363.319 0.
-52.9505 -219.08 0.
-187.062 -68.4039 0.
-62.9693 222.383 0.
-99.5122 -430.677 0.
-613.648 -823.221 0.
-412.521 -350.795 0.
844.413 1096.5 0.
449.332 182.078 0.
762.129 919.307 0.
493.552 589.982 0.
95.7245 -332.475 0.
227.785 -19.3373 0.
225.75 24.966 0.
107.608 -249.129 0.
153.07 -141.692 0.
399.962 490.963 0.
230.555 102.311 0.
-478.177 -1266.3 0.
-12.0426 -177.073 0.
-5.9727 -161.327 0.
277.466 127.517 0.
46.5332 -406.702 0.
325.144 246.448 0.
625.553 200.905 0.
344.003 -457.129 0.
1.94861 -1256.59 0.
-569.712 -730.245 0.
-198.037 136.3 0.
-1342.27 -755.666 0.
-205.998 -943.958 0.
299.816 243.163 0.
525.211 545.88 0.
682.869 920.405 0.
375.27 209.735 0.
20.8334 -61.9199 0.
352.092 714.475 0.
77.0525 76.2808 0.
456.393 88.8441 0.
233.593 -431.745 0.
515.774 226.055 0.
38.6047 -609.051 0.
326.367 58.4393 0.
180.351 666.12 0.
70.8682 409.063 0.
-385.284 -656.859 0.
-425.591 -893.618 0.
49.9112 215.226 0.
80.9588 287.151 0.
295.43 516.037 0.
89.9429 45.3209 0.
-167.716 -546.804 0.
381.017 -464.707 0.
663.026 187.667 0.
-1613.85 555.799 0.
67.073 215.804 0.
-84.9666 -140.786 0.
828.887 910.129 0.
711.527 637.26 0.
480.716 99.2211 0.
-341.88 -635.254 0.
-76.2817 -10.4777 0.
-339.226 -618.632 0.
6.40776 -1009.19 0.
78.5646 -837.035 0.
605.317 396.137 0.
16.2325 -159.389 0.
42.139 -97.3219 0.
320.661 368.636 0.
53.0962 -257.443 0.
-193.553 -834.286 0.
-285.463 -734.601 0.
-63.779 -221.458 0.
297.984 617.906 0.
218.637 -71.0639 0.
-384.17 -1485.76 0.
261.259 12.8495 0.
126.93 109.644 0.
351.78 636.18 0.
490.456 -231.221 0.
844.321 33.455 0.
428.169 -926.465 0.
115.19 65.3357 0.
458.579 873.967 0.
-703.315 -1829 0.
-203.813 -1092.26 0.
633.141 863.061 0.
555.215 684.32 0.
56.1452 -502.849 0.
-9.98785 -658.615 0.
520.337 577.542 0.
280.743 42.1064 0.
162.289 -236.371 0.
90.8984 -133.571 0.
98.6878 -113.833 0.
-63.3725 -491.016 0.
-337.779 -942.814 0.
359.436 683.228 0.
78.9605 27.9595 0.
-42.9135 -118.896 0.
-79.9128 -207.606 0.
-118.189 -297.691 0.
18.9712 190.962 0.
-202.83 -326.983 0.
238.223 -95.4653 0.
73.3972 -135.167 0.
74.0773 -130.863 0.
48.168 -125.388 0.
54.5555 -110.396 0.
60.9413 -95.4037 0.
188.593 -16.21 0.
210.395 35.4932 0.
232.195 87.1976 0.
193.479 94.4137 0.
197.262 107.223 0.
201.045 120.031 0.
348.891 1.50716 0.
231.697 -260.744 0.
-234.68 -637.243 0.
-170.117 -483.391 0.
-105.554 -329.54 0.
119.466 -164.455 0.
91.989 -222.594 0.
64.5117 -280.733 0.
5.37966 -312.569 0.
18.0557 -288.972 0.
30.7318 -265.376 0.
123.052 53.4058 0.
312.028 493.677 0.
154.85 786.762 0.
438.185 604.724 0.
276.357 230.093 0.
194.955 -42.2013 0.
192.07 -46.6497 0.
189.186 -51.0976 0.
210.527 -23.6443 0.
230.631 31.7141 0.
250.736 87.0716 0.
394.261 51.988 0.
305.367 -155.659 0.
216.473 -363.305 0.
-21.0824 -337.017 0.
63.5688 -138.826 0.
-134.45 -80.0342 0.
-140.01 -93.7967 0.
-145.57 -107.559 0.
-8.73342 -65.75 0.
-11.9151 -80.3744 0.
-15.0965 -94.9988 0.
-91.0557 -103.462 0.
-64.8075 -44.3196 0.
-38.5598 14.8229 0.
757.606 340.154 0.
742.252 301.938 0.
-1636.6 -748.549 0.
134.293 -34.3975 0.
111.333 -87.9268 0.
70.2725 -132.677 0.
73.2606 -124.369 0.
76.249 -116.061 0.
-361.527 -331.889 0.
-393.986 -402.67 0.
-426.445 -473.449 0.
187.87 -206.567 0.
201.395 -169.201 0.
214.921 -131.835 0.
259.896 -247.083 0.
177.796 -436.086 0.
-265.092 -730.11 0.
-88.6529 -320.182 0.
87.7867 89.7469 0.
450.064 415.366 0.
371.794 230.767 0.
293.524 46.1672 0.
77.532 -80.7838 0.
111.349 -4.58463 0.
145.166 71.6147 0.
202.608 36.5419 0.
153.309 -78.0219 0.
97.5767 -187.456 0.
594.319 123.846 0.
648.423 247.925 0.
86.5209 34.2531 0.
-30.2048 -237.258 0.
-146.93 -508.769 0.
103.969 -478.914 0.
159.42 -343.041 0.
214.871 -207.168 0.
302.908 -67.028 0.
355.658 57.3771 0.
408.407 181.782 0.
343.502 70.2561 0.
288.687 -58.0843 0.
-3.92271 -270.969 0.
34.3252 -178.327 0.
72.573 -85.6857 0.
28.8327 1.07093 0.
112.594 192.838 0.
196.356 384.606 0.
-97.9643 196.649 0.
-218.828 -84.1648 0.
-339.692 -364.978 0.
-310.36 -275.001 0.
-227.887 -80.1809 0.
82.1232 -133.658 0.
573.04 110.238 0.
574.226 114.312 0.
-268.552 -230.346 0.
-261.072 -215.38 0.
-253.593 -200.415 0.
160.426 5.25555 0.
184.224 56.6432 0.
208.02 108.032 0.
127.456 97.5415 0.
131.362 110.715 0.
135.268 123.887 0.
563.561 122.803 0.
445.824 -138.95 0.
-254.886 -613.499 0.
-189.931 -459.98 0.
-124.976 -306.461 0.
92.5566 -146.868 0.
64.8272 -204.723 0.
37.0978 -262.578 0.
-468.467 -481.362 0.
-454.177 -458.134 0.
-439.887 -434.904 0.
578.993 280.069 0.
768.602 720.581 0.
-336.072 607.324 0.
431.498 633.946 0.
268.733 260.275 0.
122.974 -45.2402 0.
118.454 -48.4338 0.
113.934 -51.6268 0.
429.348 98.1043 0.
448.762 153.856 0.
468.177 209.606 0.
354.517 67.9183 0.
266.193 -140.869 0.
177.87 -349.656 0.
-227.63 -390.919 0.
-141.609 -194.057 0.
-114.374 -40.7188 0.
-120.235 -54.4464 0.
-126.095 -68.1737 0.
87.3442 5.61176 0.
83.633 -8.80184 0.
79.922 -23.2154 0.
-215.513 -125.522 0.
-189.331 -65.5837 0.
-163.149 -5.64491 0.
820.614 400.883 0.
806.624 361.533 0.
-1835.97 -802.675 0.
366.095 97.2984 0.
343.326 43.9046 0.
-298.444 -258.927 0.
-295.229 -250.72 0.
-292.013 -242.512 0.
-518.17 -366.614 0.
-549.942 -437.48 0.
-581.713 -508.345 0.
3.40233 -254.94 0.
15.7099 -216.26 0.
28.0171 -177.58 0.
623.416 -62.3518 0.
541.123 -250.851 0.
-384.619 -748.469 0.
-207.883 -338.734 0.
-31.1463 71.0006 0.
759.97 581.137 0.
682.473 396.388 0.
604.975 211.637 0.
-65.6305 -108.911 0.
-32.176 -32.4272 0.
1.27981 44.0571 0.
346.957 128.292 0.
296.432 14.5758 0.
428.096 -13.7009 0.
257.103 10.6531 0.
310.54 134.9 0.
91.7977 67.189 0.
-24.8322 -204.529 0.
-141.462 -476.248 0.
172.316 -418.814 0.
227.832 -282.602 0.
283.348 -146.39 0.
392.779 2.70273 0.
445.351 127.624 0.
497.923 252.545 0.
423.863 135.938 0.
368.788 7.43187 0.
-36.4758 -253.842 0.
1.79657 -161.109 0.
40.0687 -68.3751 0.
-0.0967148 19.0802 0.
83.9582 210.532 0.
168.013 401.984 0.
-318.324 135.358 0.
-439.136 -145.255 0.
-559.948 -425.868 0.
-450.104 -306.381 0.
-368.33 -110.574 0.
