# vtk DataFile Version 2.0
test grain
ASCII
DATASET UNSTRUCTURED_GRID
POINTS 5000 float
0.499979 0.00100024 0.
0.50198 0.00100018 0.
0.503981 0.00100021 0.
0.505982 0.00100023 0.
0.507982 0.0010002 0.
0.509982 0.00100017 0.
0.511983 0.00100013 0.
0.513985 0.00100006 0.
0.515986 0.001 0.
0.517988 0.00100002 0.
0.51999 0.00100009 0.
0.521992 0.00100016 0.
0.523991 0.00100013 0.
0.52599 0.00100008 0.
0.527989 0.00100006 0.
0.52999 0.00100033 0.
0.531991 0.0010006 0.
0.533992 0.00100069 0.
0.535993 0.00100039 0.
0.537993 0.00100008 0.
0.539994 0.00100001 0.
0.541995 0.00100013 0.
0.543995 0.00100024 0.
0.545995 0.00100036 0.
0.547995 0.00100047 0.
0.549995 0.00100059 0.
0.551994 0.00100065 0.
0.553993 0.00100071 0.
0.555991 0.0010007 0.
0.557991 0.00100041 0.
0.55999 0.00100012 0.
0.561989 0.00100007 0.
0.56399 0.00100034 0.
0.56599 0.0010006 0.
0.56799 0.00100052 0.
0.56999 0.00100027 0.
0.57199 0.00100001 0.
0.57399 0.001 0.
0.57599 0.00100002 0.
0.57799 0.00100006 0.
0.579988 0.00100023 0.
0.581987 0.00100039 0.
0.583985 0.00100061 0.
0.585983 0.00100096 0.
0.587981 0.00100131 0.
0.589979 0.00100115 0.
0.591975 0.00100058 0.
0.593972 0.00100001 0.
0.595979 0.00100035 0.
0.59799 0.00100097 0.
0.6 0.0010016 0.
0.60201 0.001001 0.
0.604019 0.0010004 0.
0.606026 0.001 0.
0.608024 0.00100028 0.
0.610022 0.00100055 0.
0.61202 0.00100068 0.
0.614018 0.00100062 0.
0.616017 0.00100056 0.
0.618016 0.00100061 0.
0.620015 0.00100072 0.
0.622013 0.00100083 0.
0.624012 0.00100061 0.
0.62601 0.00100036 0.
0.628008 0.00100013 0.
0.630009 0.00100008 0.
0.632009 0.00100004 0.
0.634009 0.00100001 0.
0.63601 0.001 0.
0.638011 0.000999996 0.
0.640011 0.00100006 0.
0.642012 0.00100018 0.
0.644012 0.0010003 0.
0.64601 0.00100058 0.
0.648008 0.00100089 0.
0.650006 0.00100119 0.
0.652006 0.00100076 0.
0.654005 0.00100034 0.
0.656005 0.00100001 0.
0.658006 0.00100001 0.
0.660006 0.001 0.
0.662007 0.00100002 0.
0.664008 0.00100006 0.
0.66601 0.00100009 0.
0.668011 0.00100025 0.
0.670011 0.00100045 0.
0.672011 0.00100066 0.
0.674011 0.00100051 0.
0.67601 0.00100034 0.
0.67801 0.00100019 0.
0.680011 0.00100018 0.
0.682012 0.00100018 0.
0.684013 0.00100016 0.
0.686014 0.00100015 0.
0.688015 0.00100015 0.
0.690016 0.00100024 0.
0.692016 0.00100039 0.
0.694017 0.00100055 0.
0.696017 0.00100041 0.
0.698018 0.00100018 0.
0.49998 0.0030007 0.
0.501981 0.00300054 0.
0.503982 0.00300063 0.
0.505983 0.00300069 0.
0.507983 0.0030006 0.
0.509984 0.00300051 0.
0.511984 0.00300038 0.
0.513985 0.00300019 0.
0.515986 0.003 0.
0.517988 0.00300006 0.
0.519989 0.00300028 0.
0.521991 0.00300049 0.
0.523991 0.00300038 0.
0.52599 0.00300023 0.
0.52799 0.00300017 0.
0.529991 0.00300098 0.
0.531991 0.0030018 0.
0.533992 0.00300207 0.
0.535992 0.00300116 0.
0.537992 0.00300025 0.
0.539993 0.00300002 0.
0.541994 0.00300038 0.
0.543995 0.00300073 0.
0.545995 0.00300107 0.
0.547995 0.00300142 0.
0.549995 0.00300176 0.
0.551994 0.00300195 0.
0.553993 0.00300213 0.
0.555992 0.0030021 0.
0.557991 0.00300123 0.
0.55999 0.00300036 0.
0.56199 0.00300022 0.
0.56399 0.00300101 0.
0.56599 0.0030018 0.
0.56799 0.00300157 0.
0.56999 0.0030008 0.
0.571991 0.00300003 0.
0.57399 0.003 0.
0.57599 0.00300007 0.
0.57799 0.00300019 0.
0.579989 0.00300068 0.
0.581988 0.00300117 0.
0.583987 0.00300184 0.
0.585985 0.00300288 0.
0.587982 0.00300392 0.
0.58998 0.00300345 0.
0.591979 0.00300173 0.
0.593977 0.00300001 0.
0.595983 0.00300106 0.
0.597992 0.00300293 0.
0.6 0.00300479 0.
0.602008 0.003003 0.
0.604016 0.0030012 0.
0.606022 0.00300001 0.
0.608021 0.00300083 0.
0.610019 0.00300166 0.
0.612018 0.00300203 0.
0.614017 0.00300185 0.
0.616016 0.00300167 0.
0.618015 0.00300183 0.
0.620014 0.00300216 0.
0.622013 0.00300248 0.
0.624011 0.00300183 0.
0.626009 0.00300107 0.
0.628007 0.00300039 0.
0.630008 0.00300025 0.
0.632008 0.00300012 0.
0.634009 0.00300003 0.
0.63601 0.00300001 0.
0.638011 0.00299999 0.
0.640011 0.00300018 0.
0.642011 0.00300054 0.
0.644011 0.0030009 0.
0.64601 0.00300173 0.
0.648008 0.00300268 0.
0.650006 0.00300358 0.
0.652005 0.00300229 0.
0.654005 0.00300101 0.
0.656004 0.00300004 0.
0.658005 0.00300002 0.
0.660007 0.00300001 0.
0.662008 0.00300005 0.
0.664009 0.00300017 0.
0.666011 0.00300028 0.
0.668011 0.00300074 0.
0.670011 0.00300136 0.
0.67201 0.00300197 0.
0.67401 0.00300153 0.
0.676009 0.003001 0.
0.678009 0.00300057 0.
0.68001 0.00300055 0.
0.682011 0.00300053 0.
0.684013 0.00300049 0.
0.686014 0.00300046 0.
0.688015 0.00300044 0.
0.690016 0.00300071 0.
0.692016 0.00300117 0.
0.694016 0.00300164 0.
0.696018 0.00300122 0.
0.698019 0.00300055 0.
0.499981 0.00500113 0.
0.501982 0.00500089 0.
0.503982 0.00500104 0.
0.505983 0.00500115 0.
0.507984 0.005001 0.
0.509985 0.00500085 0.
0.511986 0.00500063 0.
0.513986 0.00500032 0.
0.515986 0.005 0.
0.517987 0.0050001 0.
0.519989 0.00500046 0.
0.52199 0.00500081 0.
0.523991 0.00500063 0.
0.525991 0.00500038 0.
0.527991 0.00500028 0.
0.529991 0.00500164 0.
0.531991 0.005003 0.
0.533991 0.00500344 0.
0.535991 0.00500192 0.
0.537991 0.0050004 0.
0.539992 0.00500004 0.
0.541994 0.00500062 0.
0.543996 0.00500121 0.
0.545996 0.00500178 0.
0.547995 0.00500236 0.
0.549994 0.00500293 0.
0.551994 0.00500324 0.
0.553993 0.00500355 0.
0.555992 0.0050035 0.
0.557991 0.00500205 0.
0.559991 0.0050006 0.
0.56199 0.00500036 0.
0.56399 0.00500168 0.
0.56599 0.00500301 0.
0.567991 0.00500261 0.
0.569991 0.00500133 0.
0.571991 0.00500005 0.
0.573991 0.005 0.
0.57599 0.00500012 0.
0.577989 0.00500031 0.
0.579989 0.00500113 0.
0.581989 0.00500195 0.
0.583988 0.00500307 0.
0.585986 0.00500481 0.
0.587983 0.00500655 0.
0.589982 0.00500574 0.
0.591982 0.00500287 0.
0.593982 0.00500001 0.
0.595987 0.00500177 0.
0.597994 0.00500488 0.
0.6 0.00500798 0.
0.602007 0.00500499 0.
0.604013 0.005002 0.
0.606018 0.00500002 0.
0.608018 0.00500139 0.
0.610017 0.00500276 0.
0.612017 0.00500337 0.
0.614016 0.00500308 0.
0.616016 0.00500279 0.
0.618015 0.00500305 0.
0.620014 0.00500359 0.
0.622013 0.00500414 0.
0.624011 0.00500305 0.
0.626009 0.00500178 0.
0.628006 0.00500064 0.
0.630007 0.00500042 0.
0.632007 0.0050002 0.
0.634008 0.00500006 0.
0.636009 0.00500002 0.
0.63801 0.00499998 0.
0.640011 0.00500029 0.
0.642011 0.00500089 0.
0.644011 0.00500149 0.
0.646009 0.00500287 0.
0.648008 0.00500446 0.
0.650006 0.00500597 0.
0.652005 0.00500382 0.
0.654004 0.00500168 0.
0.656003 0.00500006 0.
0.658005 0.00500004 0.
0.660007 0.00500002 0.
0.662009 0.00500009 0.
0.66401 0.00500028 0.
0.666011 0.00500046 0.
0.668011 0.00500123 0.
0.67001 0.00500226 0.
0.672009 0.00500328 0.
0.674009 0.00500254 0.
0.676008 0.00500167 0.
0.678008 0.00500094 0.
0.68001 0.0050009 0.
0.682011 0.00500088 0.
0.684012 0.00500082 0.
0.686014 0.00500077 0.
0.688015 0.00500073 0.
0.690016 0.00500118 0.
0.692016 0.00500196 0.
0.694016 0.00500274 0.
0.696018 0.00500203 0.
0.69802 0.00500092 0.
0.499981 0.0070028 0.
0.501982 0.00700259 0.
0.503983 0.00700253 0.
0.505983 0.00700254 0.
0.507985 0.00700284 0.
0.509986 0.00700314 0.
0.511987 0.00700349 0.
0.513987 0.00700389 0.
0.515987 0.00700428 0.
0.517988 0.00700451 0.
0.519989 0.00700465 0.
0.52199 0.0070048 0.
0.523991 0.00700487 0.
0.525991 0.00700492 0.
0.527991 0.00700507 0.
0.529991 0.00700612 0.
0.531991 0.00700717 0.
0.533991 0.0070078 0.
0.535992 0.00700754 0.
0.537992 0.00700728 0.
0.539993 0.00700727 0.
0.541994 0.00700745 0.
0.543995 0.00700763 0.
0.545995 0.0070078 0.
0.547994 0.00700797 0.
0.549994 0.00700815 0.
0.551993 0.00700803 0.
0.553992 0.00700791 0.
0.555992 0.00700774 0.
0.557991 0.00700735 0.
0.559991 0.00700696 0.
0.561991 0.00700696 0.
0.563991 0.00700748 0.
0.565991 0.00700801 0.
0.567991 0.0070083 0.
0.569991 0.00700846 0.
0.571992 0.00700863 0.
0.573991 0.00700874 0.
0.57599 0.00700883 0.
0.57799 0.0070089 0.
0.579989 0.0070087 0.
0.581989 0.00700851 0.
0.583989 0.00700855 0.
0.585987 0.00700905 0.
0.587986 0.00700956 0.
0.589986 0.00700869 0.
0.591986 0.00700674 0.
0.593987 0.00700479 0.
0.595991 0.00700678 0.
0.597996 0.0070099 0.
0.6 0.00701302 0.
0.602005 0.00701015 0.
0.604011 0.00700728 0.
0.606015 0.00700537 0.
0.608015 0.00700663 0.
0.610015 0.00700788 0.
0.612014 0.0070085 0.
0.614014 0.00700836 0.
0.616014 0.00700823 0.
0.618014 0.00700825 0.
0.620013 0.00700837 0.
0.622012 0.00700849 0.
0.624011 0.00700778 0.
0.626009 0.00700698 0.
0.628008 0.00700636 0.
0.630008 0.00700712 0.
0.632008 0.00700787 0.
0.634008 0.00700818 0.
0.636009 0.00700759 0.
0.638009 0.00700699 0.
0.640009 0.00700703 0.
0.642009 0.00700757 0.
0.644009 0.00700812 0.
0.646009 0.00700854 0.
0.648008 0.00700893 0.
0.650007 0.00700931 0.
0.652007 0.00700876 0.
0.654006 0.00700821 0.
0.656006 0.00700789 0.
0.658007 0.0070083 0.
0.660008 0.0070087 0.
0.662008 0.00700867 0.
0.664009 0.00700811 0.
0.66601 0.00700755 0.
0.66801 0.0070073 0.
0.670009 0.00700717 0.
0.672008 0.00700706 0.
0.674008 0.00700628 0.
0.676008 0.00700545 0.
0.678009 0.00700465 0.
0.68001 0.00700398 0.
0.682011 0.00700332 0.
0.684012 0.00700291 0.
0.686014 0.00700299 0.
0.688015 0.00700307 0.
0.690016 0.0070033 0.
0.692017 0.00700362 0.
0.694017 0.00700395 0.
0.696018 0.00700358 0.
0.69802 0.00700303 0.
0.499982 0.00900443 0.
0.501982 0.00900428 0.
0.503983 0.00900401 0.
0.505984 0.00900394 0.
0.507985 0.00900469 0.
0.509987 0.00900544 0.
0.511988 0.00900635 0.
0.513988 0.00900746 0.
0.515989 0.00900857 0.
0.517989 0.00900891 0.
0.51999 0.00900885 0.
0.52199 0.00900879 0.
0.523991 0.00900911 0.
0.525991 0.00900947 0.
0.527992 0.00900986 0.
0.529992 0.0090106 0.
0.531992 0.00901134 0.
0.533992 0.00901215 0.
0.535992 0.00901315 0.
0.537993 0.00901416 0.
0.539993 0.00901451 0.
0.541994 0.00901427 0.
0.543994 0.00901404 0.
0.545994 0.00901382 0.
0.547994 0.00901359 0.
0.549993 0.00901337 0.
0.551993 0.00901282 0.
0.553992 0.00901227 0.
0.555991 0.00901199 0.
0.557992 0.00901265 0.
0.559992 0.00901331 0.
0.561992 0.00901356 0.
0.563992 0.00901329 0.
0.565992 0.00901302 0.
0.567992 0.00901397 0.
0.569992 0.00901559 0.
0.571992 0.00901721 0.
0.573991 0.00901748 0.
0.575991 0.00901755 0.
0.57799 0.00901749 0.
0.579989 0.00901628 0.
0.581989 0.00901508 0.
0.583989 0.00901402 0.
0.585989 0.0090133 0.
0.587989 0.00901257 0.
0.58999 0.00901164 0.
0.591991 0.0090106 0.
0.593991 0.00900956 0.
0.595994 0.00901179 0.
0.597997 0.00901492 0.
0.6 0.00901805 0.
0.602004 0.00901531 0.
0.604008 0.00901256 0.
0.606011 0.00901072 0.
0.608012 0.00901186 0.
0.610012 0.009013 0.
0.612012 0.00901363 0.
0.614012 0.00901365 0.
0.616012 0.00901366 0.
0.618012 0.00901345 0.
0.620011 0.00901315 0.
0.622011 0.00901285 0.
0.62401 0.00901252 0.
0.626009 0.00901217 0.
0.628009 0.00901208 0.
0.630009 0.00901381 0.
0.632008 0.00901555 0.
0.634008 0.0090163 0.
0.636008 0.00901515 0.
0.638008 0.009014 0.
0.640008 0.00901378 0.
0.642008 0.00901426 0.
0.644008 0.00901474 0.
0.646008 0.00901421 0.
0.648008 0.00901342 0.
0.650008 0.00901265 0.
0.652008 0.00901369 0.
0.654009 0.00901473 0.
0.656009 0.00901572 0.
0.658008 0.00901655 0.
0.660008 0.00901739 0.
0.662008 0.00901724 0.
0.664008 0.00901594 0.
0.666008 0.00901465 0.
0.668008 0.00901336 0.
0.670008 0.00901209 0.
0.672008 0.00901083 0.
0.674008 0.00901001 0.
0.676009 0.00900923 0.
0.678009 0.00900835 0.
0.68001 0.00900705 0.
0.682011 0.00900576 0.
0.684012 0.00900501 0.
0.686014 0.00900521 0.
0.688015 0.00900542 0.
0.690016 0.00900542 0.
0.692017 0.00900529 0.
0.694018 0.00900515 0.
0.696019 0.00900514 0.
0.69802 0.00900514 0.
0.499982 0.0110055 0.
0.501983 0.0110053 0.
0.503983 0.0110049 0.
0.505984 0.0110047 0.
0.507985 0.0110056 0.
0.509987 0.0110066 0.
0.511988 0.0110077 0.
0.513988 0.0110092 0.
0.515989 0.0110107 0.
0.51799 0.0110111 0.
0.51999 0.0110109 0.
0.52199 0.0110108 0.
0.523991 0.0110113 0.
0.525991 0.0110117 0.
0.527992 0.0110123 0.
0.529992 0.0110129 0.
0.531992 0.0110135 0.
0.533992 0.0110144 0.
0.535992 0.0110159 0.
0.537993 0.0110174 0.
0.539993 0.011018 0.
0.541994 0.0110176 0.
0.543994 0.0110173 0.
0.545994 0.011017 0.
0.547993 0.0110166 0.
0.549993 0.0110162 0.
0.551993 0.0110156 0.
0.553992 0.011015 0.
0.555992 0.0110147 0.
0.557992 0.0110156 0.
0.559992 0.0110164 0.
0.561992 0.0110167 0.
0.563992 0.0110162 0.
0.565992 0.0110157 0.
0.567992 0.0110169 0.
0.569992 0.0110189 0.
0.571993 0.0110209 0.
0.573992 0.0110212 0.
0.575991 0.0110214 0.
0.577991 0.0110213 0.
0.579991 0.0110197 0.
0.58199 0.0110181 0.
0.58399 0.0110166 0.
0.585991 0.0110154 0.
0.587992 0.0110142 0.
0.589992 0.0110133 0.
0.591993 0.0110128 0.
0.593994 0.0110123 0.
0.595996 0.0110143 0.
0.597998 0.0110169 0.
0.6 0.0110195 0.
0.602003 0.0110171 0.
0.604006 0.0110147 0.
0.606008 0.0110131 0.
0.608009 0.0110141 0.
0.61001 0.0110152 0.
0.61201 0.0110159 0.
0.61401 0.0110162 0.
0.61601 0.0110165 0.
0.61801 0.0110162 0.
0.62001 0.0110157 0.
0.622009 0.0110151 0.
0.624009 0.011015 0.
0.626009 0.0110148 0.
0.628009 0.011015 0.
0.630008 0.0110169 0.
0.632008 0.0110189 0.
0.634008 0.0110198 0.
0.636008 0.0110186 0.
0.638008 0.0110174 0.
0.640008 0.0110171 0.
0.642007 0.0110175 0.
0.644007 0.0110179 0.
0.646007 0.011017 0.
0.648007 0.0110158 0.
0.650008 0.0110146 0.
0.652008 0.0110163 0.
0.654009 0.0110179 0.
0.656009 0.0110194 0.
0.658008 0.0110204 0.
0.660008 0.0110214 0.
0.662007 0.0110212 0.
0.664008 0.0110195 0.
0.666008 0.0110178 0.
0.668008 0.0110161 0.
0.670008 0.0110145 0.
0.672008 0.0110128 0.
0.674009 0.0110119 0.
0.676009 0.0110111 0.
0.67801 0.0110102 0.
0.680011 0.0110087 0.
0.682011 0.0110072 0.
0.684012 0.0110064 0.
0.686014 0.0110065 0.
0.688015 0.0110067 0.
0.690016 0.0110065 0.
0.692017 0.0110063 0.
0.694018 0.011006 0.
0.696019 0.011006 0.
0.69802 0.0110062 0.
0.499982 0.0130059 0.
0.501983 0.0130057 0.
0.503984 0.0130051 0.
0.505984 0.0130048 0.
0.507985 0.0130057 0.
0.509986 0.0130066 0.
0.511987 0.0130077 0.
0.513988 0.0130091 0.
0.515988 0.0130106 0.
0.517989 0.013011 0.
0.519989 0.0130109 0.
0.52199 0.0130109 0.
0.52399 0.0130113 0.
0.52599 0.0130118 0.
0.527991 0.0130122 0.
0.529991 0.013013 0.
0.531991 0.0130137 0.
0.533991 0.0130145 0.
0.535992 0.0130158 0.
0.537993 0.0130171 0.
0.539993 0.0130177 0.
0.541994 0.0130176 0.
0.543994 0.0130175 0.
0.545994 0.0130172 0.
0.547994 0.013017 0.
0.549994 0.0130167 0.
0.551993 0.0130164 0.
0.553993 0.0130161 0.
0.555992 0.0130159 0.
0.557992 0.0130161 0.
0.559992 0.0130163 0.
0.561992 0.0130164 0.
0.563992 0.0130163 0.
0.565993 0.0130161 0.
0.567993 0.013017 0.
0.569993 0.0130184 0.
0.571993 0.0130198 0.
0.573993 0.0130201 0.
0.575993 0.0130204 0.
0.577993 0.0130204 0.
0.579992 0.013019 0.
0.581992 0.0130176 0.
0.583992 0.0130163 0.
0.585993 0.0130153 0.
0.587994 0.0130143 0.
0.589994 0.0130137 0.
0.591995 0.0130134 0.
0.593995 0.0130131 0.
0.595997 0.0130143 0.
0.597999 0.0130158 0.
0.6 0.0130173 0.
0.602003 0.0130155 0.
0.604005 0.0130136 0.
0.606006 0.0130124 0.
0.608007 0.0130135 0.
0.610008 0.0130145 0.
0.612008 0.0130154 0.
0.614008 0.013016 0.
0.616008 0.0130166 0.
0.618008 0.0130164 0.
0.620008 0.0130159 0.
0.622008 0.0130153 0.
0.624008 0.0130151 0.
0.626008 0.013015 0.
0.628007 0.013015 0.
0.630007 0.0130165 0.
0.632007 0.013018 0.
0.634006 0.0130187 0.
0.636007 0.013018 0.
0.638007 0.0130173 0.
0.640007 0.0130172 0.
0.642007 0.0130174 0.
0.644007 0.0130177 0.
0.646007 0.013017 0.
0.648007 0.013016 0.
0.650007 0.0130151 0.
0.652007 0.0130165 0.
0.654007 0.0130178 0.
0.656008 0.0130191 0.
0.658007 0.0130199 0.
0.660007 0.0130208 0.
0.662007 0.0130205 0.
0.664008 0.0130188 0.
0.666008 0.0130171 0.
0.668008 0.0130157 0.
0.670009 0.0130143 0.
0.672009 0.013013 0.
0.67401 0.013012 0.
0.67601 0.013011 0.
0.678011 0.01301 0.
0.680011 0.0130089 0.
0.682012 0.0130078 0.
0.684013 0.013007 0.
0.686014 0.0130069 0.
0.688015 0.0130068 0.
0.690016 0.0130067 0.
0.692017 0.0130065 0.
0.694018 0.0130064 0.
0.696018 0.0130063 0.
0.698019 0.0130062 0.
0.499983 0.0150064 0.
0.501983 0.015006 0.
0.503984 0.0150054 0.
0.505984 0.015005 0.
0.507985 0.0150057 0.
0.509986 0.0150065 0.
0.511986 0.0150076 0.
0.513987 0.015009 0.
0.515987 0.0150105 0.
0.517988 0.0150109 0.
0.519989 0.0150109 0.
0.52199 0.0150109 0.
0.52399 0.0150113 0.
0.52599 0.0150118 0.
0.52799 0.0150122 0.
0.52999 0.015013 0.
0.531991 0.0150138 0.
0.533991 0.0150147 0.
0.535992 0.0150158 0.
0.537992 0.0150168 0.
0.539993 0.0150174 0.
0.541994 0.0150175 0.
0.543994 0.0150176 0.
0.545994 0.0150175 0.
0.547994 0.0150173 0.
0.549994 0.0150172 0.
0.551994 0.0150172 0.
0.553993 0.0150172 0.
0.555993 0.0150171 0.
0.557992 0.0150167 0.
0.559992 0.0150162 0.
0.561992 0.0150161 0.
0.563992 0.0150163 0.
0.565993 0.0150165 0.
0.567993 0.0150171 0.
0.569994 0.0150179 0.
0.571994 0.0150186 0.
0.573994 0.015019 0.
0.575994 0.0150193 0.
0.577994 0.0150195 0.
0.579994 0.0150183 0.
0.581994 0.0150171 0.
0.583995 0.015016 0.
0.585995 0.0150152 0.
0.587996 0.0150145 0.
0.589996 0.0150141 0.
0.591996 0.015014 0.
0.593997 0.0150139 0.
0.595998 0.0150142 0.
0.597999 0.0150147 0.
0.6 0.0150151 0.
0.602002 0.0150139 0.
0.604003 0.0150126 0.
0.606004 0.0150118 0.
0.608005 0.0150128 0.
0.610006 0.0150139 0.
0.612006 0.0150148 0.
0.614006 0.0150158 0.
0.616006 0.0150167 0.
0.618006 0.0150167 0.
0.620006 0.0150161 0.
0.622006 0.0150155 0.
0.624006 0.0150153 0.
0.626006 0.0150151 0.
0.628006 0.015015 0.
0.630006 0.015016 0.
0.632005 0.015017 0.
0.634005 0.0150176 0.
0.636006 0.0150174 0.
0.638007 0.0150172 0.
0.640007 0.0150172 0.
0.642007 0.0150173 0.
0.644006 0.0150174 0.
0.646006 0.0150169 0.
0.648006 0.0150163 0.
0.650006 0.0150156 0.
0.652006 0.0150167 0.
0.654006 0.0150178 0.
0.656006 0.0150187 0.
0.658006 0.0150194 0.
0.660007 0.0150202 0.
0.662008 0.0150198 0.
0.664008 0.0150181 0.
0.666008 0.0150164 0.
0.668009 0.0150152 0.
0.67001 0.0150142 0.
0.672011 0.0150132 0.
0.674011 0.0150121 0.
0.676012 0.015011 0.
0.678012 0.0150099 0.
0.680012 0.0150091 0.
0.682012 0.0150083 0.
0.684013 0.0150076 0.
0.686014 0.0150073 0.
0.688016 0.015007 0.
0.690017 0.0150068 0.
0.692017 0.0150068 0.
0.694017 0.0150068 0.
0.696018 0.0150065 0.
0.698019 0.0150061 0.
0.499982 0.0170071 0.
0.501983 0.017007 0.
0.503984 0.0170067 0.
0.505984 0.0170065 0.
0.507985 0.017007 0.
0.509986 0.0170075 0.
0.511986 0.0170083 0.
0.513987 0.0170096 0.
0.515987 0.0170108 0.
0.517988 0.0170113 0.
0.519989 0.0170115 0.
0.52199 0.0170116 0.
0.52399 0.017012 0.
0.52599 0.0170125 0.
0.52799 0.017013 0.
0.529991 0.0170137 0.
0.531992 0.0170144 0.
0.533992 0.0170152 0.
0.535993 0.017016 0.
0.537993 0.0170168 0.
0.539993 0.0170172 0.
0.541994 0.0170173 0.
0.543994 0.0170175 0.
0.545995 0.0170176 0.
0.547995 0.0170177 0.
0.549995 0.0170177 0.
0.551994 0.0170179 0.
0.553994 0.0170182 0.
0.555993 0.0170182 0.
0.557993 0.0170175 0.
0.559992 0.0170169 0.
0.561992 0.0170166 0.
0.563992 0.0170167 0.
0.565993 0.0170169 0.
0.567993 0.0170176 0.
0.569994 0.0170187 0.
0.571994 0.0170198 0.
0.573994 0.0170197 0.
0.575995 0.0170195 0.
0.577995 0.0170193 0.
0.579995 0.0170184 0.
0.581995 0.0170176 0.
0.583995 0.0170167 0.
0.585996 0.0170156 0.
0.587996 0.0170145 0.
0.589997 0.017014 0.
0.591997 0.0170141 0.
0.593997 0.0170142 0.
0.595998 0.0170144 0.
0.597999 0.0170146 0.
0.6 0.0170148 0.
0.602002 0.0170142 0.
0.604003 0.0170136 0.
0.606004 0.0170133 0.
0.608005 0.017014 0.
0.610005 0.0170148 0.
0.612005 0.0170153 0.
0.614005 0.0170157 0.
0.616005 0.0170161 0.
0.618005 0.0170162 0.
0.620005 0.017016 0.
0.622006 0.0170159 0.
0.624005 0.0170158 0.
0.626005 0.0170157 0.
0.628005 0.0170157 0.
0.630005 0.0170164 0.
0.632005 0.0170171 0.
0.634005 0.0170176 0.
0.636005 0.0170176 0.
0.638006 0.0170176 0.
0.640006 0.0170178 0.
0.642006 0.0170181 0.
0.644006 0.0170184 0.
0.646006 0.017018 0.
0.648005 0.0170174 0.
0.650005 0.0170167 0.
0.652005 0.0170175 0.
0.654005 0.0170183 0.
0.656006 0.0170189 0.
0.658006 0.0170193 0.
0.660007 0.0170196 0.
0.662007 0.0170193 0.
0.664008 0.0170181 0.
0.666009 0.017017 0.
0.668009 0.017016 0.
0.67001 0.0170151 0.
0.672011 0.0170143 0.
0.674011 0.0170129 0.
0.676011 0.0170116 0.
0.678011 0.0170103 0.
0.680012 0.0170094 0.
0.682012 0.0170085 0.
0.684013 0.0170078 0.
0.686014 0.0170075 0.
0.688015 0.0170071 0.
0.690016 0.0170071 0.
0.692016 0.0170074 0.
0.694017 0.0170077 0.
0.696018 0.0170074 0.
0.698018 0.017007 0.
0.499981 0.0190079 0.
0.501982 0.0190079 0.
0.503983 0.019008 0.
0.505984 0.019008 0.
0.507985 0.0190082 0.
0.509985 0.0190085 0.
0.511986 0.019009 0.
0.513987 0.0190101 0.
0.515988 0.0190112 0.
0.517989 0.0190117 0.
0.519989 0.019012 0.
0.52199 0.0190123 0.
0.523991 0.0190128 0.
0.525991 0.0190133 0.
0.527991 0.0190138 0.
0.529992 0.0190144 0.
0.531993 0.0190151 0.
0.533994 0.0190157 0.
0.535994 0.0190162 0.
0.537994 0.0190167 0.
0.539994 0.019017 0.
0.541994 0.0190172 0.
0.543995 0.0190173 0.
0.545995 0.0190176 0.
0.547995 0.019018 0.
0.549995 0.0190183 0.
0.551995 0.0190187 0.
0.553994 0.0190192 0.
0.555993 0.0190193 0.
0.557993 0.0190184 0.
0.559992 0.0190175 0.
0.561992 0.019017 0.
0.563993 0.0190171 0.
0.565993 0.0190172 0.
0.567994 0.0190181 0.
0.569994 0.0190195 0.
0.571994 0.019021 0.
0.573995 0.0190205 0.
0.575995 0.0190197 0.
0.577996 0.019019 0.
0.579996 0.0190185 0.
0.581996 0.0190181 0.
0.583996 0.0190173 0.
0.585996 0.0190159 0.
0.587997 0.0190145 0.
0.589997 0.019014 0.
0.591998 0.0190142 0.
0.593998 0.0190145 0.
0.595999 0.0190145 0.
0.598 0.0190145 0.
0.6 0.0190144 0.
0.602002 0.0190146 0.
0.604003 0.0190147 0.
0.606004 0.0190148 0.
0.608004 0.0190153 0.
0.610004 0.0190157 0.
0.612004 0.0190159 0.
0.614004 0.0190156 0.
0.616004 0.0190154 0.
0.618004 0.0190156 0.
0.620005 0.019016 0.
0.622005 0.0190163 0.
0.624005 0.0190164 0.
0.626004 0.0190164 0.
0.628004 0.0190165 0.
0.630004 0.0190169 0.
0.632004 0.0190173 0.
0.634004 0.0190176 0.
0.636004 0.0190178 0.
0.638005 0.019018 0.
0.640005 0.0190184 0.
0.642006 0.0190189 0.
0.644006 0.0190194 0.
0.646006 0.019019 0.
0.648005 0.0190184 0.
0.650004 0.0190178 0.
0.652005 0.0190183 0.
0.654005 0.0190188 0.
0.656006 0.0190192 0.
0.658006 0.0190191 0.
0.660006 0.0190191 0.
0.662007 0.0190188 0.
0.664008 0.0190182 0.
0.666009 0.0190175 0.
0.66801 0.0190168 0.
0.67001 0.0190161 0.
0.672011 0.0190153 0.
0.674011 0.0190138 0.
0.676011 0.0190121 0.
0.678011 0.0190106 0.
0.680012 0.0190097 0.
0.682013 0.0190088 0.
0.684013 0.019008 0.
0.686014 0.0190076 0.
0.688015 0.0190073 0.
0.690015 0.0190074 0.
0.692016 0.019008 0.
0.694016 0.0190086 0.
0.696017 0.0190083 0.
0.698018 0.0190079 0.
0.499981 0.0210083 0.
0.501982 0.0210084 0.
0.503983 0.0210087 0.
0.505984 0.0210088 0.
0.507985 0.021009 0.
0.509986 0.0210092 0.
0.511986 0.0210097 0.
0.513987 0.0210105 0.
0.515988 0.0210113 0.
0.517989 0.0210119 0.
0.519989 0.0210123 0.
0.52199 0.0210127 0.
0.523991 0.0210132 0.
0.525991 0.0210136 0.
0.527992 0.021014 0.
0.529993 0.0210146 0.
0.531993 0.0210152 0.
0.533994 0.0210158 0.
0.535994 0.0210162 0.
0.537994 0.0210166 0.
0.539994 0.0210168 0.
0.541995 0.0210169 0.
0.543995 0.0210171 0.
0.545995 0.0210176 0.
0.547995 0.0210182 0.
0.549995 0.0210187 0.
0.551995 0.0210191 0.
0.553994 0.0210195 0.
0.555994 0.0210197 0.
0.557993 0.0210188 0.
0.559993 0.021018 0.
0.561993 0.0210175 0.
0.563993 0.0210175 0.
0.565994 0.0210174 0.
0.567994 0.0210183 0.
0.569994 0.0210197 0.
0.571995 0.021021 0.
0.573995 0.0210204 0.
0.575996 0.0210195 0.
0.577996 0.0210187 0.
0.579996 0.0210183 0.
0.581996 0.021018 0.
0.583996 0.0210173 0.
0.585997 0.0210158 0.
0.587997 0.0210144 0.
0.589997 0.0210139 0.
0.591998 0.0210141 0.
0.593998 0.0210144 0.
0.595999 0.0210144 0.
0.598 0.0210143 0.
0.6 0.0210142 0.
0.602002 0.0210147 0.
0.604003 0.0210153 0.
0.606004 0.0210157 0.
0.608004 0.0210158 0.
0.610004 0.0210159 0.
0.612003 0.0210158 0.
0.614003 0.0210155 0.
0.616003 0.0210152 0.
0.618004 0.0210156 0.
0.620004 0.0210161 0.
0.622004 0.0210167 0.
0.624004 0.0210167 0.
0.626003 0.0210167 0.
0.628003 0.0210168 0.
0.630003 0.021017 0.
0.632003 0.0210173 0.
0.634004 0.0210176 0.
0.636004 0.0210179 0.
0.638004 0.0210181 0.
0.640005 0.0210185 0.
0.642005 0.021019 0.
0.644006 0.0210195 0.
0.646005 0.0210193 0.
0.648005 0.021019 0.
0.650004 0.0210186 0.
0.652004 0.0210188 0.
0.654005 0.021019 0.
0.656005 0.0210191 0.
0.658006 0.0210188 0.
0.660006 0.0210185 0.
0.662007 0.0210182 0.
0.664008 0.0210179 0.
0.666009 0.0210176 0.
0.66801 0.021017 0.
0.67001 0.0210162 0.
0.672011 0.0210154 0.
0.674011 0.021014 0.
0.67601 0.0210125 0.
0.67801 0.021011 0.
0.680011 0.02101 0.
0.682012 0.021009 0.
0.684013 0.0210082 0.
0.686014 0.0210079 0.
0.688014 0.0210076 0.
0.690015 0.0210078 0.
0.692016 0.0210084 0.
0.694016 0.021009 0.
0.696017 0.0210088 0.
0.698018 0.0210085 0.
0.499982 0.0230085 0.
0.501983 0.0230086 0.
0.503984 0.0230088 0.
0.505985 0.023009 0.
0.507986 0.0230094 0.
0.509986 0.0230098 0.
0.511987 0.0230103 0.
0.513987 0.0230107 0.
0.515988 0.0230111 0.
0.517988 0.0230117 0.
0.519989 0.0230124 0.
0.521989 0.023013 0.
0.52399 0.0230132 0.
0.525991 0.0230134 0.
0.527992 0.0230136 0.
0.529993 0.0230142 0.
0.531993 0.0230148 0.
0.533994 0.0230154 0.
0.535994 0.0230158 0.
0.537994 0.0230163 0.
0.539994 0.0230166 0.
0.541995 0.0230166 0.
0.543996 0.0230167 0.
0.545995 0.0230173 0.
0.547995 0.0230182 0.
0.549995 0.023019 0.
0.551995 0.0230192 0.
0.553994 0.0230193 0.
0.555994 0.0230193 0.
0.557994 0.0230189 0.
0.559994 0.0230184 0.
0.561994 0.023018 0.
0.563994 0.0230178 0.
0.565994 0.0230175 0.
0.567994 0.0230181 0.
0.569994 0.0230191 0.
0.571995 0.02302 0.
0.573995 0.0230196 0.
0.575996 0.0230189 0.
0.577996 0.0230183 0.
0.579996 0.0230177 0.
0.581997 0.0230172 0.
0.583997 0.0230165 0.
0.585997 0.0230153 0.
0.587997 0.0230142 0.
0.589997 0.0230137 0.
0.591998 0.0230137 0.
0.593998 0.0230138 0.
0.595999 0.0230139 0.
0.598 0.0230139 0.
0.6 0.023014 0.
0.602001 0.0230147 0.
0.604003 0.0230155 0.
0.606003 0.0230159 0.
0.608003 0.0230156 0.
0.610003 0.0230153 0.
0.612003 0.0230152 0.
0.614003 0.0230153 0.
0.616003 0.0230155 0.
0.618003 0.0230159 0.
0.620003 0.0230164 0.
0.622003 0.0230169 0.
0.624003 0.0230169 0.
0.626003 0.0230167 0.
0.628003 0.0230166 0.
0.630003 0.0230169 0.
0.632003 0.0230172 0.
0.634003 0.0230175 0.
0.636004 0.0230177 0.
0.638004 0.023018 0.
0.640004 0.0230182 0.
0.642005 0.0230185 0.
0.644006 0.0230187 0.
0.646005 0.0230189 0.
0.648004 0.0230189 0.
0.650004 0.023019 0.
0.652004 0.023019 0.
0.654004 0.023019 0.
0.656005 0.0230188 0.
0.658005 0.0230183 0.
0.660006 0.0230178 0.
0.662006 0.0230175 0.
0.664007 0.0230173 0.
0.666008 0.0230171 0.
0.668009 0.0230164 0.
0.670009 0.0230155 0.
0.67201 0.0230145 0.
0.67401 0.0230135 0.
0.67601 0.0230126 0.
0.67801 0.0230115 0.
0.680011 0.0230103 0.
0.682012 0.0230091 0.
0.684013 0.0230082 0.
0.686014 0.0230083 0.
0.688015 0.0230083 0.
0.690015 0.0230084 0.
0.692016 0.0230087 0.
0.694016 0.023009 0.
0.696017 0.0230089 0.
0.698018 0.0230088 0.
0.499983 0.0250086 0.
0.501984 0.0250087 0.
0.503985 0.0250089 0.
0.505986 0.0250091 0.
0.507986 0.0250098 0.
0.509986 0.0250104 0.
0.511987 0.0250108 0.
0.513987 0.0250109 0.
0.515988 0.025011 0.
0.517988 0.0250115 0.
0.519988 0.0250124 0.
0.521989 0.0250133 0.
0.52399 0.0250133 0.
0.525991 0.0250132 0.
0.527992 0.0250132 0.
0.529992 0.0250138 0.
0.531993 0.0250144 0.
0.533993 0.025015 0.
0.535994 0.0250155 0.
0.537994 0.0250161 0.
0.539995 0.0250163 0.
0.541996 0.0250163 0.
0.543996 0.0250163 0.
0.545996 0.0250171 0.
0.547995 0.0250182 0.
0.549994 0.0250193 0.
0.551994 0.0250192 0.
0.553995 0.0250191 0.
0.555995 0.025019 0.
0.557995 0.0250189 0.
0.559996 0.0250188 0.
0.561996 0.0250185 0.
0.563995 0.0250181 0.
0.565995 0.0250176 0.
0.567995 0.0250178 0.
0.569995 0.0250184 0.
0.571995 0.0250191 0.
0.573995 0.0250187 0.
0.575996 0.0250183 0.
0.577996 0.0250178 0.
0.579997 0.0250172 0.
0.581997 0.0250165 0.
0.583998 0.0250157 0.
0.585997 0.0250149 0.
0.587997 0.025014 0.
0.589997 0.0250135 0.
0.591998 0.0250134 0.
0.593998 0.0250132 0.
0.595999 0.0250134 0.
0.598 0.0250136 0.
0.6 0.0250139 0.
0.602001 0.0250148 0.
0.604002 0.0250157 0.
0.606003 0.0250162 0.
0.608003 0.0250155 0.
0.610003 0.0250147 0.
0.612003 0.0250146 0.
0.614003 0.0250152 0.
0.616003 0.0250157 0.
0.618003 0.0250162 0.
0.620003 0.0250167 0.
0.622002 0.0250172 0.
0.624002 0.025017 0.
0.626002 0.0250167 0.
0.628002 0.0250165 0.
0.630003 0.0250168 0.
0.632003 0.0250172 0.
0.634003 0.0250175 0.
0.636003 0.0250176 0.
0.638004 0.0250178 0.
0.640004 0.0250179 0.
0.642005 0.0250179 0.
0.644006 0.025018 0.
0.646005 0.0250184 0.
0.648004 0.0250189 0.
0.650003 0.0250194 0.
0.652003 0.0250192 0.
0.654004 0.0250189 0.
0.656004 0.0250185 0.
0.658005 0.0250179 0.
0.660005 0.0250172 0.
0.662006 0.0250168 0.
0.664007 0.0250167 0.
0.666007 0.0250165 0.
0.668008 0.0250158 0.
0.670009 0.0250147 0.
0.672009 0.0250137 0.
0.67401 0.0250131 0.
0.67601 0.0250127 0.
0.67801 0.0250121 0.
0.680011 0.0250106 0.
0.682012 0.0250092 0.
0.684013 0.0250083 0.
0.686014 0.0250086 0.
0.688015 0.0250089 0.
0.690015 0.025009 0.
0.692016 0.025009 0.
0.694017 0.0250091 0.
0.696017 0.025009 0.
0.698018 0.025009 0.
0.499984 0.0270089 0.
0.501984 0.0270093 0.
0.503985 0.0270096 0.
0.505985 0.0270099 0.
0.507986 0.0270101 0.
0.509987 0.0270104 0.
0.511987 0.0270107 0.
0.513988 0.027011 0.
0.515988 0.0270114 0.
0.517989 0.0270117 0.
0.519989 0.027012 0.
0.521989 0.0270123 0.
0.52399 0.0270127 0.
0.525992 0.027013 0.
0.527993 0.0270134 0.
0.529993 0.0270138 0.
0.531994 0.0270142 0.
0.533994 0.0270146 0.
0.535994 0.0270151 0.
0.537995 0.0270156 0.
0.539995 0.027016 0.
0.541996 0.0270163 0.
0.543996 0.0270166 0.
0.545996 0.0270174 0.
0.547996 0.0270183 0.
0.549995 0.0270193 0.
0.551995 0.0270193 0.
0.553995 0.0270193 0.
0.555995 0.0270193 0.
0.557995 0.0270189 0.
0.559996 0.0270186 0.
0.561996 0.0270183 0.
0.563996 0.027018 0.
0.565996 0.0270177 0.
0.567996 0.0270176 0.
0.569996 0.0270176 0.
0.571996 0.0270176 0.
0.573996 0.0270176 0.
0.575996 0.0270175 0.
0.577997 0.0270174 0.
0.579997 0.0270169 0.
0.581998 0.0270163 0.
0.583998 0.0270157 0.
0.585998 0.0270148 0.
0.587998 0.0270139 0.
0.589998 0.0270133 0.
0.591998 0.027013 0.
0.593998 0.0270126 0.
0.595999 0.0270129 0.
0.598 0.0270134 0.
0.6 0.0270139 0.
0.602001 0.0270144 0.
0.604002 0.0270149 0.
0.606003 0.0270151 0.
0.608003 0.0270147 0.
0.610003 0.0270143 0.
0.612003 0.0270144 0.
0.614003 0.027015 0.
0.616003 0.0270156 0.
0.618003 0.027016 0.
0.620002 0.0270163 0.
0.622002 0.0270166 0.
0.624002 0.0270166 0.
0.626002 0.0270165 0.
0.628001 0.0270164 0.
0.630002 0.0270166 0.
0.632002 0.0270167 0.
0.634003 0.0270169 0.
0.636003 0.0270172 0.
0.638003 0.0270175 0.
0.640004 0.0270176 0.
0.642004 0.0270176 0.
0.644005 0.0270176 0.
0.646005 0.0270181 0.
0.648004 0.0270187 0.
0.650004 0.0270193 0.
0.652004 0.027019 0.
0.654004 0.0270187 0.
0.656004 0.0270183 0.
0.658005 0.0270178 0.
0.660006 0.0270173 0.
0.662006 0.0270169 0.
0.664007 0.0270168 0.
0.666008 0.0270167 0.
0.668008 0.0270159 0.
0.670009 0.0270148 0.
0.672009 0.0270136 0.
0.674009 0.0270129 0.
0.676009 0.0270122 0.
0.67801 0.0270115 0.
0.680011 0.0270106 0.
0.682011 0.0270097 0.
0.684012 0.0270091 0.
0.686013 0.0270092 0.
0.688015 0.0270093 0.
0.690015 0.0270094 0.
0.692016 0.0270094 0.
0.694017 0.0270094 0.
0.696018 0.0270091 0.
0.698019 0.0270087 0.
0.499984 0.0290092 0.
0.501985 0.0290098 0.
0.503985 0.0290103 0.
0.505985 0.0290106 0.
0.507986 0.0290105 0.
0.509987 0.0290104 0.
0.511988 0.0290106 0.
0.513988 0.0290112 0.
0.515989 0.0290118 0.
0.517989 0.0290118 0.
0.51999 0.0290116 0.
0.52199 0.0290113 0.
0.523991 0.029012 0.
0.525992 0.0290128 0.
0.527993 0.0290135 0.
0.529994 0.0290138 0.
0.531994 0.029014 0.
0.533995 0.0290143 0.
0.535995 0.0290147 0.
0.537996 0.0290152 0.
0.539996 0.0290157 0.
0.541996 0.0290163 0.
0.543996 0.0290169 0.
0.545996 0.0290177 0.
0.547996 0.0290185 0.
0.549996 0.0290192 0.
0.551996 0.0290194 0.
0.553996 0.0290195 0.
0.555995 0.0290196 0.
0.557996 0.029019 0.
0.559996 0.0290184 0.
0.561996 0.0290181 0.
0.563996 0.0290179 0.
0.565997 0.0290178 0.
0.567997 0.0290173 0.
0.569997 0.0290167 0.
0.571997 0.0290162 0.
0.573997 0.0290164 0.
0.575997 0.0290167 0.
0.577997 0.029017 0.
0.579998 0.0290166 0.
0.581998 0.0290162 0.
0.583999 0.0290156 0.
0.585999 0.0290147 0.
0.587999 0.0290139 0.
0.589999 0.0290132 0.
0.591998 0.0290126 0.
0.593998 0.029012 0.
0.595999 0.0290124 0.
0.598 0.0290132 0.
0.6 0.0290139 0.
0.602001 0.029014 0.
0.604002 0.0290141 0.
0.606003 0.0290141 0.
0.608003 0.029014 0.
0.610003 0.0290139 0.
0.612003 0.0290141 0.
0.614003 0.0290148 0.
0.616002 0.0290154 0.
0.618002 0.0290157 0.
0.620002 0.0290159 0.
0.622002 0.029016 0.
0.624002 0.0290161 0.
0.626001 0.0290162 0.
0.628001 0.0290163 0.
0.630001 0.0290163 0.
0.632002 0.0290163 0.
0.634002 0.0290164 0.
0.636002 0.0290167 0.
0.638003 0.0290171 0.
0.640003 0.0290172 0.
0.642003 0.0290172 0.
0.644004 0.0290172 0.
0.646004 0.0290178 0.
0.648004 0.0290185 0.
0.650004 0.0290192 0.
0.652004 0.0290189 0.
0.654004 0.0290185 0.
0.656005 0.0290181 0.
0.658005 0.0290177 0.
0.660006 0.0290174 0.
0.662006 0.0290171 0.
0.664007 0.029017 0.
0.666008 0.0290169 0.
0.668008 0.029016 0.
0.670008 0.0290148 0.
0.672009 0.0290135 0.
0.674009 0.0290127 0.
0.676009 0.0290118 0.
0.678009 0.029011 0.
0.68001 0.0290106 0.
0.682011 0.0290102 0.
0.684012 0.0290099 0.
0.686013 0.0290098 0.
0.688014 0.0290098 0.
0.690015 0.0290097 0.
0.692016 0.0290098 0.
0.694017 0.0290098 0.
0.696018 0.0290092 0.
0.698019 0.0290084 0.
0.499985 0.0310097 0.
0.501985 0.0310103 0.
0.503985 0.0310108 0.
0.505986 0.0310111 0.
0.507987 0.0310108 0.
0.509987 0.0310106 0.
0.511988 0.0310107 0.
0.513989 0.0310113 0.
0.51599 0.0310119 0.
0.51799 0.0310118 0.
0.51999 0.0310114 0.
0.521991 0.0310111 0.
0.523992 0.0310118 0.
0.525993 0.0310127 0.
0.527993 0.0310135 0.
0.529994 0.0310136 0.
0.531994 0.0310137 0.
0.533995 0.0310139 0.
0.535995 0.0310143 0.
0.537996 0.0310148 0.
0.539996 0.0310154 0.
0.541996 0.0310162 0.
0.543996 0.0310169 0.
0.545996 0.0310177 0.
0.547996 0.0310184 0.
0.549996 0.0310191 0.
0.551996 0.0310192 0.
0.553996 0.0310193 0.
0.555995 0.0310193 0.
0.557996 0.0310186 0.
0.559996 0.031018 0.
0.561997 0.0310176 0.
0.563997 0.0310175 0.
0.565998 0.0310175 0.
0.567998 0.0310169 0.
0.569998 0.0310161 0.
0.571998 0.0310153 0.
0.573998 0.0310156 0.
0.575998 0.031016 0.
0.577998 0.0310164 0.
0.579998 0.0310161 0.
0.581998 0.0310159 0.
0.583999 0.0310154 0.
0.585999 0.0310146 0.
0.587999 0.0310137 0.
0.589999 0.0310129 0.
0.591999 0.0310123 0.
0.593998 0.0310117 0.
0.595999 0.0310121 0.
0.598 0.0310129 0.
0.6 0.0310136 0.
0.602001 0.0310135 0.
0.604002 0.0310134 0.
0.606003 0.0310133 0.
0.608003 0.0310135 0.
0.610003 0.0310137 0.
0.612003 0.0310141 0.
0.614002 0.0310147 0.
0.616002 0.0310153 0.
0.618002 0.0310155 0.
0.620002 0.0310156 0.
0.622002 0.0310157 0.
0.624002 0.0310158 0.
0.626001 0.031016 0.
0.628001 0.0310161 0.
0.630001 0.031016 0.
0.632001 0.0310159 0.
0.634002 0.031016 0.
0.636002 0.0310164 0.
0.638003 0.0310167 0.
0.640003 0.0310169 0.
0.642003 0.0310168 0.
0.644003 0.0310167 0.
0.646003 0.0310174 0.
0.648003 0.0310182 0.
0.650004 0.031019 0.
0.652004 0.0310186 0.
0.654004 0.0310181 0.
0.656005 0.0310177 0.
0.658005 0.0310176 0.
0.660006 0.0310174 0.
0.662006 0.0310173 0.
0.664007 0.0310171 0.
0.666007 0.031017 0.
0.668008 0.0310161 0.
0.670008 0.0310148 0.
0.672008 0.0310136 0.
0.674008 0.0310127 0.
0.676009 0.0310118 0.
0.678009 0.031011 0.
0.68001 0.0310107 0.
0.682011 0.0310105 0.
0.684012 0.0310102 0.
0.686013 0.03101 0.
0.688014 0.0310099 0.
0.690015 0.0310098 0.
0.692016 0.0310098 0.
0.694017 0.0310099 0.
0.696018 0.0310093 0.
0.698019 0.0310086 0.
0.499984 0.0330106 0.
0.501986 0.0330108 0.
0.503987 0.0330111 0.
0.505987 0.0330112 0.
0.507988 0.033011 0.
0.509988 0.0330108 0.
0.511989 0.0330108 0.
0.513989 0.0330113 0.
0.51599 0.0330117 0.
0.517991 0.0330118 0.
0.519991 0.0330116 0.
0.521991 0.0330115 0.
0.523992 0.0330121 0.
0.525992 0.0330128 0.
0.527993 0.0330133 0.
0.529993 0.0330134 0.
0.531994 0.0330134 0.
0.533995 0.0330135 0.
0.535995 0.0330139 0.
0.537995 0.0330144 0.
0.539995 0.033015 0.
0.541996 0.0330158 0.
0.543996 0.0330166 0.
0.545996 0.0330174 0.
0.547996 0.0330182 0.
0.549996 0.033019 0.
0.551996 0.0330188 0.
0.553996 0.0330187 0.
0.555996 0.0330184 0.
0.557996 0.0330178 0.
0.559997 0.0330172 0.
0.561997 0.0330169 0.
0.563998 0.0330168 0.
0.565999 0.0330168 0.
0.567999 0.0330164 0.
0.569999 0.0330157 0.
0.571999 0.0330151 0.
0.573999 0.0330152 0.
0.575998 0.0330155 0.
0.577998 0.0330157 0.
0.579998 0.0330156 0.
0.581999 0.0330156 0.
0.583999 0.0330152 0.
0.585999 0.0330143 0.
0.587999 0.0330134 0.
0.589999 0.0330127 0.
0.591999 0.0330123 0.
0.593999 0.0330118 0.
0.595999 0.0330121 0.
0.598 0.0330125 0.
0.6 0.033013 0.
0.602001 0.033013 0.
0.604002 0.0330129 0.
0.606003 0.033013 0.
0.608002 0.0330134 0.
0.610002 0.0330137 0.
0.612002 0.0330141 0.
0.614002 0.0330146 0.
0.616002 0.0330151 0.
0.618002 0.0330153 0.
0.620002 0.0330155 0.
0.622002 0.0330157 0.
0.624002 0.0330157 0.
0.626001 0.0330157 0.
0.628001 0.0330157 0.
0.630001 0.0330156 0.
0.632001 0.0330156 0.
0.634002 0.0330156 0.
0.636002 0.033016 0.
0.638002 0.0330164 0.
0.640003 0.0330165 0.
0.642003 0.0330164 0.
0.644003 0.0330163 0.
0.646003 0.0330169 0.
0.648003 0.0330178 0.
0.650003 0.0330187 0.
0.652003 0.0330181 0.
0.654004 0.0330175 0.
0.656004 0.0330171 0.
0.658005 0.0330173 0.
0.660005 0.0330174 0.
0.662006 0.0330174 0.
0.664006 0.0330171 0.
0.666006 0.0330169 0.
0.668007 0.0330161 0.
0.670007 0.0330149 0.
0.672008 0.0330138 0.
0.674008 0.033013 0.
0.676009 0.0330122 0.
0.67801 0.0330114 0.
0.68001 0.033011 0.
0.682011 0.0330105 0.
0.684011 0.0330101 0.
0.686012 0.0330099 0.
0.688014 0.0330097 0.
0.690015 0.0330096 0.
0.692015 0.0330096 0.
0.694016 0.0330096 0.
0.696017 0.0330094 0.
0.698018 0.0330092 0.
0.499984 0.0350114 0.
0.501986 0.0350112 0.
0.503988 0.0350113 0.
0.505989 0.0350114 0.
0.507989 0.0350112 0.
0.509989 0.035011 0.
0.511989 0.035011 0.
0.51399 0.0350113 0.
0.515991 0.0350115 0.
0.517991 0.0350117 0.
0.519991 0.0350118 0.
0.521991 0.0350119 0.
0.523991 0.0350124 0.
0.525992 0.0350128 0.
0.527992 0.0350131 0.
0.529993 0.0350131 0.
0.531994 0.0350131 0.
0.533994 0.0350132 0.
0.535995 0.0350136 0.
0.537995 0.035014 0.
0.539995 0.0350146 0.
0.541995 0.0350155 0.
0.543995 0.0350163 0.
0.545995 0.0350171 0.
0.547995 0.035018 0.
0.549996 0.0350188 0.
0.551996 0.0350184 0.
0.553996 0.0350181 0.
0.555996 0.0350176 0.
0.557996 0.035017 0.
0.559997 0.0350165 0.
0.561998 0.0350162 0.
0.563999 0.0350162 0.
0.565999 0.0350162 0.
0.567999 0.0350158 0.
0.57 0.0350153 0.
0.572 0.0350148 0.
0.573999 0.0350149 0.
0.575998 0.035015 0.
0.577998 0.035015 0.
0.579998 0.0350151 0.
0.581999 0.0350152 0.
0.583999 0.035015 0.
0.585999 0.035014 0.
0.588 0.0350131 0.
0.59 0.0350125 0.
0.591999 0.0350122 0.
0.593999 0.0350119 0.
0.595999 0.035012 0.
0.598 0.0350122 0.
0.6 0.0350124 0.
0.602001 0.0350124 0.
0.604002 0.0350125 0.
0.606002 0.0350126 0.
0.608002 0.0350132 0.
0.610001 0.0350138 0.
0.612001 0.0350142 0.
0.614001 0.0350146 0.
0.616002 0.0350149 0.
0.618002 0.0350152 0.
0.620002 0.0350154 0.
0.622002 0.0350157 0.
0.624002 0.0350155 0.
0.626002 0.0350154 0.
0.628001 0.0350152 0.
0.630001 0.0350152 0.
0.632001 0.0350152 0.
0.634002 0.0350153 0.
0.636002 0.0350157 0.
0.638002 0.0350161 0.
0.640002 0.0350162 0.
0.642002 0.035016 0.
0.644003 0.0350158 0.
0.646002 0.0350165 0.
0.648002 0.0350175 0.
0.650002 0.0350184 0.
0.652003 0.0350177 0.
0.654003 0.035017 0.
0.656004 0.0350166 0.
0.658004 0.035017 0.
0.660005 0.0350174 0.
0.662005 0.0350175 0.
0.664005 0.0350172 0.
0.666006 0.0350168 0.
0.668006 0.035016 0.
0.670007 0.035015 0.
0.672007 0.035014 0.
0.674008 0.0350133 0.
0.676009 0.0350126 0.
0.67801 0.0350119 0.
0.68001 0.0350112 0.
0.682011 0.0350105 0.
0.684011 0.03501 0.
0.686012 0.0350097 0.
0.688013 0.0350095 0.
0.690014 0.0350094 0.
0.692015 0.0350093 0.
0.694016 0.0350093 0.
0.696017 0.0350095 0.
0.698017 0.0350098 0.
0.499986 0.0370114 0.
0.501987 0.0370113 0.
0.503988 0.0370113 0.
0.505989 0.0370113 0.
0.507989 0.0370113 0.
0.509989 0.0370114 0.
0.51199 0.0370114 0.
0.513991 0.0370115 0.
0.515992 0.0370116 0.
0.517992 0.0370118 0.
0.519992 0.0370119 0.
0.521992 0.037012 0.
0.523992 0.0370123 0.
0.525992 0.0370126 0.
0.527993 0.0370129 0.
0.529993 0.0370131 0.
0.531994 0.0370132 0.
0.533994 0.0370134 0.
0.535995 0.0370136 0.
0.537995 0.0370137 0.
0.539995 0.0370142 0.
0.541995 0.037015 0.
0.543996 0.0370157 0.
0.545996 0.0370165 0.
0.547996 0.0370174 0.
0.549997 0.0370182 0.
0.551997 0.0370179 0.
0.553997 0.0370176 0.
0.555997 0.0370173 0.
0.557997 0.0370168 0.
0.559998 0.0370164 0.
0.561998 0.0370161 0.
0.563998 0.037016 0.
0.565999 0.0370158 0.
0.567999 0.0370153 0.
0.57 0.0370146 0.
0.572 0.0370139 0.
0.574 0.037014 0.
0.575999 0.0370141 0.
0.577999 0.0370142 0.
0.579999 0.0370141 0.
0.581999 0.037014 0.
0.584 0.0370138 0.
0.586 0.0370135 0.
0.588 0.0370132 0.
0.59 0.0370128 0.
0.592 0.0370124 0.
0.594 0.037012 0.
0.596 0.0370119 0.
0.598 0.037012 0.
0.6 0.0370121 0.
0.602001 0.0370121 0.
0.604001 0.0370121 0.
0.606002 0.0370122 0.
0.608002 0.0370129 0.
0.610001 0.0370135 0.
0.612001 0.037014 0.
0.614002 0.0370144 0.
0.616002 0.0370147 0.
0.618002 0.037015 0.
0.620002 0.0370152 0.
0.622002 0.0370154 0.
0.624002 0.0370152 0.
0.626001 0.037015 0.
0.628001 0.0370149 0.
0.630001 0.0370151 0.
0.632001 0.0370153 0.
0.634001 0.0370155 0.
0.636001 0.0370158 0.
0.638002 0.037016 0.
0.640002 0.0370161 0.
0.642002 0.037016 0.
0.644002 0.037016 0.
0.646002 0.0370164 0.
0.648002 0.0370169 0.
0.650002 0.0370174 0.
0.652002 0.0370171 0.
0.654003 0.0370167 0.
0.656003 0.0370165 0.
0.658004 0.0370169 0.
0.660004 0.0370174 0.
0.662005 0.0370174 0.
0.664005 0.0370169 0.
0.666006 0.0370165 0.
0.668007 0.0370157 0.
0.670007 0.0370148 0.
0.672008 0.0370139 0.
0.674009 0.0370131 0.
0.676009 0.0370124 0.
0.67801 0.0370116 0.
0.68001 0.037011 0.
0.682011 0.0370104 0.
0.684012 0.0370099 0.
0.686012 0.0370096 0.
0.688013 0.0370092 0.
0.690014 0.0370091 0.
0.692015 0.0370092 0.
0.694016 0.0370093 0.
0.696016 0.0370093 0.
0.698017 0.0370093 0.
0.499987 0.0390114 0.
0.501987 0.0390113 0.
0.503988 0.0390112 0.
0.505988 0.0390113 0.
0.507989 0.0390115 0.
0.50999 0.0390117 0.
0.511991 0.0390118 0.
0.513992 0.0390118 0.
0.515993 0.0390117 0.
0.517993 0.0390118 0.
0.519993 0.039012 0.
0.521993 0.0390121 0.
0.523993 0.0390123 0.
0.525993 0.0390124 0.
0.527994 0.0390126 0.
0.529994 0.039013 0.
0.531994 0.0390134 0.
0.533995 0.0390136 0.
0.535995 0.0390135 0.
0.537995 0.0390134 0.
0.539995 0.0390138 0.
0.541996 0.0390145 0.
0.543996 0.0390151 0.
0.545997 0.0390159 0.
0.547997 0.0390168 0.
0.549998 0.0390176 0.
0.551998 0.0390174 0.
0.553998 0.0390171 0.
0.555998 0.0390169 0.
0.557998 0.0390166 0.
0.559998 0.0390163 0.
0.561998 0.0390161 0.
0.563998 0.0390158 0.
0.565999 0.0390155 0.
0.567999 0.0390148 0.
0.57 0.0390139 0.
0.572001 0.039013 0.
0.574 0.0390131 0.
0.576 0.0390133 0.
0.577999 0.0390134 0.
0.58 0.0390131 0.
0.582 0.0390127 0.
0.584 0.0390126 0.
0.586 0.039013 0.
0.588 0.0390133 0.
0.59 0.0390132 0.
0.592 0.0390126 0.
0.594 0.039012 0.
0.596 0.0390119 0.
0.598 0.0390119 0.
0.6 0.0390118 0.
0.602001 0.0390117 0.
0.604001 0.0390117 0.
0.606002 0.0390118 0.
0.608002 0.0390125 0.
0.610002 0.0390133 0.
0.612002 0.0390138 0.
0.614002 0.0390142 0.
0.616002 0.0390145 0.
0.618002 0.0390147 0.
0.620002 0.0390149 0.
0.622002 0.0390151 0.
0.624001 0.0390149 0.
0.626001 0.0390147 0.
0.628 0.0390145 0.
0.630001 0.039015 0.
0.632001 0.0390154 0.
0.634001 0.0390158 0.
0.636001 0.0390159 0.
0.638001 0.039016 0.
0.640001 0.0390161 0.
0.642001 0.0390161 0.
0.644001 0.0390161 0.
0.646002 0.0390162 0.
0.648002 0.0390163 0.
0.650002 0.0390164 0.
0.652002 0.0390164 0.
0.654002 0.0390164 0.
0.656003 0.0390165 0.
0.658003 0.0390169 0.
0.660004 0.0390173 0.
0.662005 0.0390172 0.
0.664005 0.0390167 0.
0.666006 0.0390161 0.
0.668007 0.0390153 0.
0.670008 0.0390145 0.
0.672008 0.0390137 0.
0.674009 0.0390129 0.
0.676009 0.0390121 0.
0.67801 0.0390114 0.
0.680011 0.0390108 0.
0.682011 0.0390102 0.
0.684012 0.0390097 0.
0.686012 0.0390094 0.
0.688013 0.039009 0.
0.690013 0.0390089 0.
0.692014 0.0390091 0.
0.694015 0.0390093 0.
0.696016 0.0390091 0.
0.698016 0.0390088 0.
0.499987 0.0410114 0.
0.501988 0.0410113 0.
0.503988 0.0410112 0.
0.505989 0.0410111 0.
0.507989 0.0410114 0.
0.50999 0.0410117 0.
0.511991 0.0410119 0.
0.513992 0.0410118 0.
0.515993 0.0410118 0.
0.517994 0.0410119 0.
0.519994 0.0410121 0.
0.521994 0.0410122 0.
0.523994 0.0410123 0.
0.525994 0.0410123 0.
0.527994 0.0410123 0.
0.529994 0.0410128 0.
0.531994 0.0410132 0.
0.533994 0.0410135 0.
0.535995 0.0410133 0.
0.537995 0.0410131 0.
0.539995 0.0410133 0.
0.541996 0.0410139 0.
0.543997 0.0410145 0.
0.545997 0.0410153 0.
0.547998 0.0410161 0.
0.549998 0.0410169 0.
0.551998 0.0410168 0.
0.553999 0.0410166 0.
0.555999 0.0410165 0.
0.557999 0.0410164 0.
0.559998 0.0410163 0.
0.561998 0.041016 0.
0.563999 0.0410154 0.
0.565999 0.0410149 0.
0.567999 0.0410141 0.
0.57 0.0410132 0.
0.572001 0.0410123 0.
0.574001 0.0410125 0.
0.576 0.0410127 0.
0.578 0.0410129 0.
0.58 0.0410124 0.
0.582 0.041012 0.
0.584001 0.041012 0.
0.586 0.0410127 0.
0.588 0.0410135 0.
0.59 0.0410134 0.
0.592 0.0410127 0.
0.594 0.041012 0.
0.596 0.0410117 0.
0.598 0.0410116 0.
0.600001 0.0410115 0.
0.602001 0.0410115 0.
0.604001 0.0410114 0.
0.606002 0.0410116 0.
0.608002 0.0410124 0.
0.610002 0.0410132 0.
0.612002 0.0410138 0.
0.614002 0.0410142 0.
0.616002 0.0410146 0.
0.618002 0.0410148 0.
0.620002 0.0410148 0.
0.622002 0.0410148 0.
0.624001 0.0410147 0.
0.626 0.0410145 0.
0.628 0.0410145 0.
0.63 0.0410149 0.
0.632001 0.0410154 0.
0.634001 0.0410157 0.
0.636001 0.0410157 0.
0.638001 0.0410157 0.
0.640001 0.0410159 0.
0.642001 0.041016 0.
0.644001 0.0410161 0.
0.646001 0.041016 0.
0.648002 0.0410159 0.
0.650002 0.0410157 0.
0.652002 0.0410159 0.
0.654002 0.041016 0.
0.656002 0.0410162 0.
0.658003 0.0410164 0.
0.660004 0.0410166 0.
0.662005 0.0410165 0.
0.664005 0.0410161 0.
0.666006 0.0410156 0.
0.668007 0.0410149 0.
0.670008 0.0410141 0.
0.672008 0.0410133 0.
0.674009 0.0410127 0.
0.676009 0.0410121 0.
0.67801 0.0410114 0.
0.68001 0.0410108 0.
0.682011 0.0410101 0.
0.684012 0.0410096 0.
0.686012 0.0410092 0.
0.688013 0.0410087 0.
0.690013 0.0410087 0.
0.692014 0.0410088 0.
0.694015 0.041009 0.
0.696015 0.0410089 0.
0.698015 0.0410088 0.
0.499988 0.0430115 0.
0.501988 0.0430113 0.
0.503989 0.0430111 0.
0.50599 0.0430109 0.
0.50799 0.0430112 0.
0.509991 0.0430114 0.
0.511992 0.0430115 0.
0.513992 0.0430117 0.
0.515993 0.0430118 0.
0.517994 0.043012 0.
0.519994 0.0430122 0.
0.521994 0.0430123 0.
0.523994 0.0430123 0.
0.525994 0.0430121 0.
0.527994 0.043012 0.
0.529994 0.0430124 0.
0.531994 0.0430128 0.
0.533994 0.043013 0.
0.535994 0.0430128 0.
0.537995 0.0430126 0.
0.539995 0.0430128 0.
0.541996 0.0430134 0.
0.543996 0.0430139 0.
0.545997 0.0430146 0.
0.547998 0.0430154 0.
0.549998 0.0430162 0.
0.551999 0.0430162 0.
0.553999 0.0430161 0.
0.555999 0.0430161 0.
0.557999 0.0430161 0.
0.559999 0.0430162 0.
0.561999 0.0430158 0.
0.563999 0.0430149 0.
0.566 0.043014 0.
0.568 0.0430133 0.
0.570001 0.0430127 0.
0.572001 0.043012 0.
0.574001 0.0430122 0.
0.576001 0.0430124 0.
0.578001 0.0430126 0.
0.580001 0.0430122 0.
0.582001 0.0430117 0.
0.584001 0.0430118 0.
0.586001 0.0430127 0.
0.588001 0.0430136 0.
0.59 0.0430135 0.
0.592 0.0430127 0.
0.594 0.0430118 0.
0.596 0.0430115 0.
0.598 0.0430113 0.
0.600001 0.0430111 0.
0.602001 0.0430112 0.
0.604002 0.0430114 0.
0.606002 0.0430116 0.
0.608002 0.0430124 0.
0.610001 0.0430131 0.
0.612001 0.0430138 0.
0.614001 0.0430145 0.
0.616002 0.0430151 0.
0.618002 0.0430151 0.
0.620001 0.0430147 0.
0.622001 0.0430143 0.
0.624001 0.0430144 0.
0.626 0.0430146 0.
0.628 0.0430148 0.
0.63 0.043015 0.
0.632001 0.0430152 0.
0.634001 0.0430153 0.
0.636001 0.0430153 0.
0.638001 0.0430153 0.
0.640001 0.0430155 0.
0.642001 0.0430158 0.
0.644001 0.043016 0.
0.646001 0.0430159 0.
0.648001 0.0430156 0.
0.650002 0.0430153 0.
0.652002 0.0430154 0.
0.654002 0.0430155 0.
0.656002 0.0430156 0.
0.658003 0.0430155 0.
0.660004 0.0430154 0.
0.662005 0.0430153 0.
0.664005 0.0430152 0.
0.666006 0.0430151 0.
0.668007 0.0430145 0.
0.670007 0.0430137 0.
0.672008 0.0430128 0.
0.674008 0.0430125 0.
0.676009 0.0430122 0.
0.67801 0.0430118 0.
0.68001 0.0430109 0.
0.682011 0.04301 0.
0.684011 0.0430093 0.
0.686012 0.0430089 0.
0.688013 0.0430085 0.
0.690013 0.0430084 0.
0.692014 0.0430085 0.
0.694014 0.0430085 0.
0.696014 0.0430089 0.
0.698014 0.0430093 0.
0.499988 0.0450115 0.
0.501989 0.0450113 0.
0.50399 0.045011 0.
0.505991 0.0450108 0.
0.507991 0.0450109 0.
0.509992 0.045011 0.
0.511992 0.0450112 0.
0.513993 0.0450115 0.
0.515993 0.0450118 0.
0.517994 0.045012 0.
0.519994 0.0450122 0.
0.521994 0.0450124 0.
0.523994 0.0450122 0.
0.525994 0.045012 0.
0.527994 0.0450117 0.
0.529994 0.045012 0.
0.531994 0.0450123 0.
0.533994 0.0450124 0.
0.535994 0.0450123 0.
0.537995 0.0450121 0.
0.539995 0.0450123 0.
0.541995 0.0450128 0.
0.543996 0.0450133 0.
0.545997 0.045014 0.
0.547998 0.0450147 0.
0.549999 0.0450155 0.
0.551999 0.0450155 0.
0.553999 0.0450156 0.
0.555999 0.0450157 0.
0.557999 0.0450159 0.
0.559999 0.0450161 0.
0.562 0.0450157 0.
0.564 0.0450144 0.
0.566 0.0450132 0.
0.568001 0.0450125 0.
0.570001 0.0450121 0.
0.572001 0.0450117 0.
0.574001 0.0450119 0.
0.576001 0.0450122 0.
0.578001 0.0450123 0.
0.580002 0.0450119 0.
0.582002 0.0450115 0.
0.584002 0.0450116 0.
0.586001 0.0450126 0.
0.588001 0.0450137 0.
0.59 0.0450136 0.
0.592 0.0450126 0.
0.594 0.0450117 0.
0.596 0.0450112 0.
0.598 0.045011 0.
0.6 0.0450107 0.
0.602001 0.045011 0.
0.604002 0.0450113 0.
0.606003 0.0450117 0.
0.608002 0.0450124 0.
0.610001 0.0450131 0.
0.612001 0.0450139 0.
0.614001 0.0450147 0.
0.616002 0.0450156 0.
0.618002 0.0450153 0.
0.620001 0.0450146 0.
0.622001 0.0450138 0.
0.624 0.0450142 0.
0.626 0.0450146 0.
0.628 0.045015 0.
0.63 0.045015 0.
0.632 0.0450149 0.
0.634001 0.0450149 0.
0.636001 0.0450149 0.
0.638002 0.0450148 0.
0.640002 0.0450151 0.
0.642001 0.0450155 0.
0.644001 0.0450159 0.
0.646001 0.0450157 0.
0.648001 0.0450153 0.
0.650001 0.0450149 0.
0.652002 0.0450149 0.
0.654002 0.045015 0.
0.656002 0.045015 0.
0.658003 0.0450146 0.
0.660004 0.0450142 0.
0.662005 0.0450141 0.
0.664005 0.0450143 0.
0.666006 0.0450145 0.
0.668006 0.0450141 0.
0.670007 0.0450132 0.
0.672007 0.0450123 0.
0.674008 0.0450122 0.
0.676009 0.0450122 0.
0.678009 0.0450121 0.
0.68001 0.045011 0.
0.68201 0.0450099 0.
0.68401 0.0450091 0.
0.686011 0.0450087 0.
0.688012 0.0450083 0.
0.690013 0.0450081 0.
0.692013 0.0450081 0.
0.694013 0.0450081 0.
0.696013 0.0450088 0.
0.698013 0.0450097 0.
0.499988 0.0470107 0.
0.501989 0.0470105 0.
0.50399 0.0470102 0.
0.505991 0.0470101 0.
0.507991 0.0470105 0.
0.509992 0.0470109 0.
0.511992 0.0470112 0.
0.513993 0.0470112 0.
0.515993 0.0470113 0.
0.517994 0.0470114 0.
0.519994 0.0470116 0.
0.521994 0.0470117 0.
0.523994 0.0470117 0.
0.525995 0.0470117 0.
0.527995 0.0470117 0.
0.529995 0.0470117 0.
0.531995 0.0470117 0.
0.533995 0.0470118 0.
0.535996 0.047012 0.
0.537996 0.0470122 0.
0.539997 0.0470124 0.
0.541997 0.0470126 0.
0.543997 0.0470127 0.
0.545998 0.0470134 0.
0.547998 0.0470141 0.
0.549999 0.0470148 0.
0.551999 0.0470148 0.
0.553999 0.0470148 0.
0.556 0.0470149 0.
0.558 0.0470154 0.
0.56 0.0470158 0.
0.562 0.0470155 0.
0.564 0.0470142 0.
0.566001 0.047013 0.
0.568001 0.0470123 0.
0.570001 0.047012 0.
0.572001 0.0470116 0.
0.574001 0.0470117 0.
0.576001 0.0470119 0.
0.578001 0.0470119 0.
0.580001 0.0470116 0.
0.582002 0.0470113 0.
0.584002 0.0470114 0.
0.586001 0.0470124 0.
0.588001 0.0470133 0.
0.590001 0.0470134 0.
0.592001 0.0470126 0.
0.594 0.0470119 0.
0.596 0.0470116 0.
0.598 0.0470114 0.
0.6 0.0470112 0.
0.602001 0.0470114 0.
0.604001 0.0470116 0.
0.606001 0.0470119 0.
0.608001 0.0470124 0.
0.61 0.047013 0.
0.612 0.0470136 0.
0.614001 0.0470142 0.
0.616001 0.0470149 0.
0.618001 0.0470148 0.
0.620001 0.0470143 0.
0.622001 0.0470137 0.
0.624 0.0470141 0.
0.626 0.0470146 0.
0.628 0.047015 0.
0.63 0.0470147 0.
0.632 0.0470144 0.
0.634001 0.0470143 0.
0.636001 0.0470146 0.
0.638002 0.0470149 0.
0.640002 0.0470152 0.
0.642002 0.0470154 0.
0.644001 0.0470156 0.
0.646002 0.0470154 0.
0.648002 0.0470151 0.
0.650002 0.0470148 0.
0.652002 0.0470146 0.
0.654002 0.0470144 0.
0.656002 0.0470143 0.
0.658003 0.0470142 0.
0.660004 0.0470141 0.
0.662004 0.047014 0.
0.664005 0.0470139 0.
0.666006 0.0470138 0.
0.668006 0.0470133 0.
0.670007 0.0470127 0.
0.672008 0.0470121 0.
0.674008 0.047012 0.
0.676009 0.0470119 0.
0.678009 0.0470118 0.
0.68001 0.047011 0.
0.68201 0.0470102 0.
0.68401 0.0470095 0.
0.686011 0.047009 0.
0.688012 0.0470085 0.
0.690012 0.0470084 0.
0.692013 0.0470085 0.
0.694013 0.0470086 0.
0.696013 0.0470094 0.
0.698014 0.0470102 0.
0.499989 0.04901 0.
0.501989 0.0490098 0.
0.50399 0.0490095 0.
0.50599 0.0490095 0.
0.507991 0.0490102 0.
0.509992 0.0490108 0.
0.511992 0.0490111 0.
0.513993 0.0490109 0.
0.515993 0.0490107 0.
0.517993 0.0490107 0.
0.519993 0.0490109 0.
0.521994 0.049011 0.
0.523994 0.0490112 0.
0.525995 0.0490114 0.
0.527996 0.0490116 0.
0.529996 0.0490114 0.
0.531996 0.0490111 0.
0.533996 0.0490112 0.
0.535997 0.0490117 0.
0.537998 0.0490122 0.
0.539998 0.0490124 0.
0.541999 0.0490123 0.
0.543999 0.0490122 0.
0.545999 0.0490127 0.
0.547999 0.0490135 0.
0.549999 0.0490142 0.
0.551999 0.0490141 0.
0.554 0.049014 0.
0.556 0.0490141 0.
0.558 0.0490148 0.
0.56 0.0490155 0.
0.562001 0.0490153 0.
0.564001 0.0490141 0.
0.566001 0.0490128 0.
0.568002 0.0490121 0.
0.570002 0.0490118 0.
0.572002 0.0490115 0.
0.574002 0.0490115 0.
0.576001 0.0490115 0.
0.578001 0.0490115 0.
0.580001 0.0490113 0.
0.582002 0.0490111 0.
0.584002 0.0490113 0.
0.586002 0.0490121 0.
0.588002 0.049013 0.
0.590002 0.0490131 0.
0.592001 0.0490126 0.
0.594001 0.0490122 0.
0.596001 0.049012 0.
0.598001 0.0490119 0.
0.6 0.0490118 0.
0.602 0.0490119 0.
0.604 0.049012 0.
0.606 0.0490121 0.
0.608 0.0490125 0.
0.609999 0.0490128 0.
0.611999 0.0490133 0.
0.614 0.0490137 0.
0.616001 0.0490142 0.
0.618001 0.0490142 0.
0.620001 0.0490139 0.
0.622001 0.0490136 0.
0.624 0.049014 0.
0.626 0.0490145 0.
0.628 0.0490149 0.
0.63 0.0490144 0.
0.632 0.0490138 0.
0.634 0.0490136 0.
0.636001 0.0490143 0.
0.638002 0.049015 0.
0.640002 0.0490153 0.
0.642002 0.0490153 0.
0.644002 0.0490152 0.
0.646002 0.0490151 0.
0.648002 0.0490149 0.
0.650002 0.0490148 0.
0.652002 0.0490143 0.
0.654002 0.0490139 0.
0.656002 0.0490136 0.
0.658003 0.0490138 0.
0.660004 0.0490141 0.
0.662004 0.049014 0.
0.664005 0.0490135 0.
0.666005 0.0490131 0.
0.668006 0.0490126 0.
0.670007 0.0490122 0.
0.672008 0.0490118 0.
0.674009 0.0490117 0.
0.676009 0.0490116 0.
0.678009 0.0490115 0.
0.68001 0.049011 0.
0.68201 0.0490105 0.
0.68401 0.04901 0.
0.686011 0.0490094 0.
0.688011 0.0490088 0.
0.690011 0.0490087 0.
0.692012 0.0490089 0.
0.694013 0.0490092 0.
0.696014 0.0490099 0.
0.698015 0.0490108 0.
0.499989 0.0510099 0.
0.501989 0.0510094 0.
0.50399 0.0510092 0.
0.50599 0.0510092 0.
0.507991 0.0510099 0.
0.509992 0.0510107 0.
0.511993 0.051011 0.
0.513993 0.0510107 0.
0.515993 0.0510104 0.
0.517994 0.0510103 0.
0.519994 0.0510104 0.
0.521994 0.0510105 0.
0.523995 0.0510108 0.
0.525996 0.0510111 0.
0.527997 0.0510114 0.
0.529997 0.0510112 0.
0.531997 0.051011 0.
0.533997 0.051011 0.
0.535998 0.0510115 0.
0.537999 0.0510121 0.
0.539999 0.0510122 0.
0.541999 0.051012 0.
0.544 0.0510119 0.
0.545999 0.0510124 0.
0.547999 0.0510132 0.
0.549999 0.0510139 0.
0.551999 0.0510137 0.
0.554 0.0510135 0.
0.556 0.0510135 0.
0.558001 0.0510143 0.
0.560001 0.0510151 0.
0.562001 0.051015 0.
0.564001 0.0510138 0.
0.566002 0.0510126 0.
0.568002 0.0510121 0.
0.570002 0.0510118 0.
0.572002 0.0510116 0.
0.574002 0.0510114 0.
0.576001 0.0510112 0.
0.578001 0.051011 0.
0.580001 0.0510111 0.
0.582001 0.0510111 0.
0.584002 0.0510114 0.
0.586002 0.0510121 0.
0.588002 0.0510128 0.
0.590002 0.051013 0.
0.592002 0.0510128 0.
0.594001 0.0510126 0.
0.596001 0.0510124 0.
0.598001 0.0510123 0.
0.6 0.0510121 0.
0.602 0.0510122 0.
0.604 0.0510123 0.
0.606 0.0510124 0.
0.607999 0.0510125 0.
0.609999 0.0510126 0.
0.612 0.0510128 0.
0.614 0.0510132 0.
0.616001 0.0510136 0.
0.618001 0.0510137 0.
0.620001 0.0510136 0.
0.622001 0.0510136 0.
0.624001 0.0510139 0.
0.626 0.0510143 0.
0.628 0.0510146 0.
0.63 0.0510141 0.
0.632 0.0510136 0.
0.634001 0.0510135 0.
0.636001 0.0510142 0.
0.638001 0.0510149 0.
0.640002 0.0510151 0.
0.642002 0.051015 0.
0.644002 0.0510149 0.
0.646002 0.0510148 0.
0.648002 0.0510147 0.
0.650002 0.0510147 0.
0.652002 0.051014 0.
0.654002 0.0510134 0.
0.656002 0.0510131 0.
0.658003 0.0510134 0.
0.660003 0.0510138 0.
0.662004 0.0510138 0.
0.664005 0.0510132 0.
0.666005 0.0510127 0.
0.668006 0.0510122 0.
0.670007 0.0510119 0.
0.672008 0.0510115 0.
0.674009 0.0510114 0.
0.676009 0.0510112 0.
0.678009 0.0510111 0.
0.680009 0.0510109 0.
0.68201 0.0510107 0.
0.68401 0.0510103 0.
0.68601 0.0510096 0.
0.68801 0.051009 0.
0.690011 0.0510089 0.
0.692011 0.0510093 0.
0.694012 0.0510096 0.
0.696013 0.0510104 0.
0.698014 0.0510112 0.
0.49999 0.0530102 0.
0.50199 0.0530095 0.
0.503991 0.0530092 0.
0.505991 0.0530092 0.
0.507992 0.0530099 0.
0.509992 0.0530106 0.
0.511993 0.0530108 0.
0.513993 0.0530105 0.
0.515994 0.0530102 0.
0.517994 0.0530101 0.
0.519995 0.0530101 0.
0.521995 0.0530101 0.
0.523996 0.0530104 0.
0.525996 0.0530107 0.
0.527997 0.0530109 0.
0.529997 0.053011 0.
0.531998 0.0530111 0.
0.533998 0.0530113 0.
0.535999 0.0530115 0.
0.537999 0.0530117 0.
0.539999 0.0530118 0.
0.541999 0.0530118 0.
0.543999 0.0530118 0.
0.545999 0.0530124 0.
0.547999 0.0530133 0.
0.549999 0.0530141 0.
0.551999 0.0530137 0.
0.553999 0.0530133 0.
0.556 0.0530131 0.
0.558 0.0530138 0.
0.560001 0.0530145 0.
0.562001 0.0530145 0.
0.564002 0.0530135 0.
0.566002 0.0530124 0.
0.568002 0.053012 0.
0.570002 0.0530119 0.
0.572002 0.0530118 0.
0.574002 0.0530113 0.
0.576001 0.0530108 0.
0.578001 0.0530104 0.
0.580001 0.0530109 0.
0.582001 0.0530113 0.
0.584001 0.0530117 0.
0.586002 0.0530123 0.
0.588002 0.0530129 0.
0.590002 0.0530132 0.
0.592002 0.0530132 0.
0.594002 0.0530131 0.
0.596001 0.0530129 0.
0.598001 0.0530126 0.
0.6 0.0530123 0.
0.602 0.0530125 0.
0.604 0.0530127 0.
0.606 0.0530128 0.
0.608 0.0530125 0.
0.61 0.0530122 0.
0.612001 0.0530122 0.
0.614001 0.0530126 0.
0.616001 0.053013 0.
0.618001 0.0530132 0.
0.620001 0.0530134 0.
0.622001 0.0530136 0.
0.624001 0.0530138 0.
0.626001 0.0530139 0.
0.628001 0.0530141 0.
0.630001 0.0530139 0.
0.632001 0.0530138 0.
0.634001 0.0530138 0.
0.636001 0.0530142 0.
0.638001 0.0530146 0.
0.640001 0.0530147 0.
0.642001 0.0530146 0.
0.644002 0.0530145 0.
0.646001 0.0530145 0.
0.648001 0.0530144 0.
0.650001 0.0530144 0.
0.652002 0.0530137 0.
0.654002 0.0530131 0.
0.656002 0.0530127 0.
0.658003 0.0530131 0.
0.660003 0.0530134 0.
0.662004 0.0530135 0.
0.664004 0.053013 0.
0.666005 0.0530126 0.
0.668006 0.0530122 0.
0.670007 0.0530117 0.
0.672008 0.0530112 0.
0.674008 0.053011 0.
0.676008 0.0530109 0.
0.678009 0.0530107 0.
0.680009 0.0530107 0.
0.682009 0.0530107 0.
0.684009 0.0530105 0.
0.686009 0.0530098 0.
0.68801 0.0530092 0.
0.69001 0.0530091 0.
0.692011 0.0530095 0.
0.694012 0.0530099 0.
0.696012 0.0530106 0.
0.698012 0.0530114 0.
0.49999 0.0550104 0.
0.501991 0.0550096 0.
0.503991 0.0550092 0.
0.505991 0.0550092 0.
0.507992 0.0550098 0.
0.509993 0.0550104 0.
0.511993 0.0550107 0.
0.513994 0.0550104 0.
0.515994 0.0550101 0.
0.517995 0.0550099 0.
0.519996 0.0550098 0.
0.521996 0.0550098 0.
0.523996 0.05501 0.
0.525997 0.0550102 0.
0.527997 0.0550105 0.
0.529998 0.0550109 0.
0.531998 0.0550113 0.
0.533999 0.0550115 0.
0.535999 0.0550114 0.
0.537999 0.0550113 0.
0.539999 0.0550114 0.
0.541999 0.0550115 0.
0.543999 0.0550117 0.
0.545999 0.0550124 0.
0.547999 0.0550134 0.
0.55 0.0550143 0.
0.551999 0.0550136 0.
0.553999 0.055013 0.
0.555999 0.0550127 0.
0.558 0.0550133 0.
0.560001 0.055014 0.
0.562002 0.0550139 0.
0.564002 0.0550131 0.
0.566002 0.0550123 0.
0.568002 0.055012 0.
0.570002 0.055012 0.
0.572002 0.055012 0.
0.574002 0.0550113 0.
0.576001 0.0550105 0.
0.578001 0.0550099 0.
0.580001 0.0550107 0.
0.582001 0.0550114 0.
0.584001 0.0550121 0.
0.586001 0.0550125 0.
0.588002 0.055013 0.
0.590002 0.0550133 0.
0.592002 0.0550135 0.
0.594002 0.0550137 0.
0.596002 0.0550134 0.
0.598001 0.0550129 0.
0.6 0.0550124 0.
0.602 0.0550127 0.
0.604 0.055013 0.
0.606 0.0550131 0.
0.608001 0.0550125 0.
0.610001 0.0550118 0.
0.612002 0.0550116 0.
0.614002 0.055012 0.
0.616002 0.0550124 0.
0.618001 0.0550128 0.
0.620001 0.0550132 0.
0.622001 0.0550137 0.
0.624001 0.0550136 0.
0.626001 0.0550136 0.
0.628001 0.0550135 0.
0.630001 0.0550138 0.
0.632001 0.055014 0.
0.634001 0.0550142 0.
0.636001 0.0550142 0.
0.638001 0.0550142 0.
0.640001 0.0550142 0.
0.642001 0.0550142 0.
0.644001 0.0550142 0.
0.646001 0.0550142 0.
0.648001 0.0550141 0.
0.65 0.0550141 0.
0.652001 0.0550134 0.
0.654002 0.0550127 0.
0.656003 0.0550123 0.
0.658003 0.0550127 0.
0.660003 0.055013 0.
0.662003 0.0550131 0.
0.664004 0.0550129 0.
0.666005 0.0550126 0.
0.668006 0.0550121 0.
0.670007 0.0550114 0.
0.672008 0.0550108 0.
0.674008 0.0550106 0.
0.676008 0.0550105 0.
0.678008 0.0550103 0.
0.680008 0.0550105 0.
0.682008 0.0550107 0.
0.684008 0.0550106 0.
0.686009 0.05501 0.
0.68801 0.0550093 0.
0.69001 0.0550093 0.
0.692011 0.0550097 0.
0.694011 0.0550101 0.
0.696011 0.0550108 0.
0.69801 0.0550116 0.
0.49999 0.0570107 0.
0.501991 0.0570099 0.
0.503991 0.0570096 0.
0.505992 0.0570094 0.
0.507992 0.0570096 0.
0.509993 0.0570097 0.
0.511994 0.0570098 0.
0.513994 0.0570097 0.
0.515995 0.0570097 0.
0.517995 0.0570096 0.
0.519996 0.0570094 0.
0.521996 0.0570093 0.
0.523997 0.0570097 0.
0.525997 0.0570103 0.
0.527997 0.0570108 0.
0.529998 0.057011 0.
0.531998 0.0570113 0.
0.533998 0.0570114 0.
0.535999 0.0570111 0.
0.537999 0.0570109 0.
0.539999 0.057011 0.
0.541999 0.0570115 0.
0.544 0.057012 0.
0.546 0.0570126 0.
0.548 0.0570133 0.
0.550001 0.0570139 0.
0.552 0.0570135 0.
0.554 0.0570131 0.
0.556 0.0570129 0.
0.558001 0.0570132 0.
0.560001 0.0570135 0.
0.562002 0.0570135 0.
0.564002 0.0570131 0.
0.566002 0.0570127 0.
0.568003 0.0570122 0.
0.570003 0.0570118 0.
0.572003 0.0570114 0.
0.574002 0.0570108 0.
0.576002 0.0570103 0.
0.578001 0.0570099 0.
0.580001 0.0570105 0.
0.582001 0.0570111 0.
0.584001 0.0570117 0.
0.586001 0.0570122 0.
0.588002 0.0570126 0.
0.590002 0.057013 0.
0.592002 0.0570132 0.
0.594002 0.0570134 0.
0.596001 0.0570132 0.
0.598001 0.0570128 0.
0.6 0.0570125 0.
0.602 0.0570125 0.
0.604 0.0570124 0.
0.606 0.0570123 0.
0.608001 0.057012 0.
0.610001 0.0570117 0.
0.612002 0.0570118 0.
0.614001 0.0570123 0.
0.616001 0.0570128 0.
0.618001 0.0570132 0.
0.620001 0.0570134 0.
0.622001 0.0570136 0.
0.624001 0.0570135 0.
0.626001 0.0570132 0.
0.628002 0.0570131 0.
0.630001 0.0570134 0.
0.632001 0.0570136 0.
0.634001 0.0570138 0.
0.636001 0.0570139 0.
0.638001 0.057014 0.
0.640001 0.0570141 0.
0.642001 0.0570142 0.
0.644001 0.0570144 0.
0.646001 0.0570141 0.
0.648001 0.0570137 0.
0.65 0.0570133 0.
0.652001 0.0570128 0.
0.654001 0.0570123 0.
0.656002 0.0570119 0.
0.658002 0.0570123 0.
0.660002 0.0570127 0.
0.662003 0.0570128 0.
0.664003 0.0570125 0.
0.666004 0.0570123 0.
0.668005 0.057012 0.
0.670005 0.0570117 0.
0.672006 0.0570113 0.
0.674006 0.0570109 0.
0.676007 0.0570105 0.
0.678007 0.0570101 0.
0.680007 0.0570101 0.
0.682007 0.0570101 0.
0.684008 0.05701 0.
0.686008 0.0570096 0.
0.688009 0.0570093 0.
0.690009 0.0570094 0.
0.69201 0.0570098 0.
0.69401 0.0570103 0.
0.696011 0.0570111 0.
0.698011 0.057012 0.
0.49999 0.0590109 0.
0.501991 0.0590102 0.
0.503991 0.05901 0.
0.505992 0.0590097 0.
0.507992 0.0590094 0.
0.509993 0.059009 0.
0.511994 0.0590089 0.
0.513994 0.0590091 0.
0.515995 0.0590092 0.
0.517995 0.0590092 0.
0.519996 0.059009 0.
0.521996 0.0590088 0.
0.523997 0.0590095 0.
0.525997 0.0590103 0.
0.527998 0.059011 0.
0.529998 0.0590112 0.
0.531998 0.0590113 0.
0.533998 0.0590113 0.
0.535998 0.0590109 0.
0.537999 0.0590104 0.
0.539999 0.0590107 0.
0.542 0.0590115 0.
0.544001 0.0590123 0.
0.546001 0.0590128 0.
0.548001 0.0590132 0.
0.550002 0.0590136 0.
0.552001 0.0590134 0.
0.554001 0.0590132 0.
0.556001 0.059013 0.
0.558001 0.0590131 0.
0.560002 0.0590131 0.
0.562002 0.0590131 0.
0.564002 0.0590131 0.
0.566003 0.059013 0.
0.568003 0.0590124 0.
0.570003 0.0590116 0.
0.572004 0.0590107 0.
0.574003 0.0590104 0.
0.576002 0.0590101 0.
0.578001 0.05901 0.
0.580001 0.0590104 0.
0.582001 0.0590108 0.
0.584001 0.0590113 0.
0.586001 0.0590118 0.
0.588001 0.0590123 0.
0.590002 0.0590126 0.
0.592002 0.0590128 0.
0.594002 0.059013 0.
0.596001 0.059013 0.
0.598001 0.0590128 0.
0.6 0.0590126 0.
0.602 0.0590122 0.
0.604 0.0590118 0.
0.606 0.0590115 0.
0.608 0.0590115 0.
0.610001 0.0590116 0.
0.612001 0.0590119 0.
0.614001 0.0590126 0.
0.616001 0.0590133 0.
0.618001 0.0590135 0.
0.620001 0.0590135 0.
0.622001 0.0590135 0.
0.624001 0.0590133 0.
0.626002 0.0590129 0.
0.628002 0.0590127 0.
0.630002 0.059013 0.
0.632001 0.0590133 0.
0.634001 0.0590135 0.
0.636001 0.0590136 0.
0.638 0.0590137 0.
0.64 0.0590139 0.
0.642001 0.0590142 0.
0.644001 0.0590145 0.
0.646001 0.059014 0.
0.648001 0.0590132 0.
0.65 0.0590125 0.
0.652 0.0590121 0.
0.654 0.0590118 0.
0.656001 0.0590116 0.
0.658001 0.059012 0.
0.660001 0.0590123 0.
0.662002 0.0590124 0.
0.664003 0.0590122 0.
0.666003 0.0590119 0.
0.668004 0.0590119 0.
0.670004 0.0590119 0.
0.672005 0.0590119 0.
0.674005 0.0590112 0.
0.676005 0.0590105 0.
0.678005 0.0590099 0.
0.680006 0.0590097 0.
0.682007 0.0590096 0.
0.684007 0.0590094 0.
0.686007 0.0590093 0.
0.688008 0.0590092 0.
0.690008 0.0590094 0.
0.692009 0.0590099 0.
0.69401 0.0590104 0.
0.696011 0.0590114 0.
0.698011 0.0590124 0.
0.499991 0.0610107 0.
0.501992 0.0610102 0.
0.503992 0.0610099 0.
0.505993 0.0610095 0.
0.507993 0.061009 0.
0.509994 0.0610086 0.
0.511995 0.0610084 0.
0.513995 0.0610087 0.
0.515995 0.0610089 0.
0.517996 0.0610089 0.
0.519996 0.0610088 0.
0.521997 0.0610087 0.
0.523997 0.0610094 0.
0.525998 0.0610102 0.
0.527998 0.0610109 0.
0.529998 0.0610111 0.
0.531998 0.0610112 0.
0.533998 0.0610112 0.
0.535999 0.0610108 0.
0.537999 0.0610103 0.
0.54 0.0610106 0.
0.542 0.0610115 0.
0.544001 0.0610123 0.
0.546001 0.0610128 0.
0.548002 0.061013 0.
0.550002 0.0610133 0.
0.552002 0.0610133 0.
0.554002 0.0610133 0.
0.556001 0.0610132 0.
0.558002 0.0610129 0.
0.560002 0.0610125 0.
0.562002 0.0610124 0.
0.564003 0.0610127 0.
0.566003 0.0610129 0.
0.568003 0.0610123 0.
0.570003 0.0610112 0.
0.572004 0.0610101 0.
0.574003 0.06101 0.
0.576002 0.0610101 0.
0.578001 0.0610102 0.
0.580001 0.0610105 0.
0.582001 0.0610108 0.
0.584001 0.0610111 0.
0.586001 0.0610115 0.
0.588002 0.0610119 0.
0.590002 0.0610123 0.
0.592002 0.0610126 0.
0.594002 0.0610128 0.
0.596001 0.0610128 0.
0.598001 0.0610126 0.
0.6 0.0610124 0.
0.602 0.0610119 0.
0.604 0.0610114 0.
0.606 0.0610111 0.
0.608 0.0610114 0.
0.610001 0.0610117 0.
0.612001 0.0610122 0.
0.614001 0.0610128 0.
0.616001 0.0610134 0.
0.618001 0.0610137 0.
0.620001 0.0610137 0.
0.622001 0.0610138 0.
0.624001 0.0610133 0.
0.626001 0.0610128 0.
0.628002 0.0610124 0.
0.630001 0.0610128 0.
0.632001 0.0610131 0.
0.634001 0.0610134 0.
0.636 0.0610135 0.
0.638 0.0610137 0.
0.64 0.0610139 0.
0.642 0.0610141 0.
0.644001 0.0610144 0.
0.646001 0.0610139 0.
0.648001 0.0610132 0.
0.65 0.0610125 0.
0.652 0.0610121 0.
0.654 0.0610117 0.
0.656 0.0610114 0.
0.658001 0.0610118 0.
0.660001 0.0610122 0.
0.662001 0.0610123 0.
0.664002 0.061012 0.
0.666002 0.0610118 0.
0.668003 0.0610119 0.
0.670003 0.061012 0.
0.672004 0.0610122 0.
0.674004 0.0610115 0.
0.676004 0.0610107 0.
0.678004 0.06101 0.
0.680005 0.0610097 0.
0.682006 0.0610093 0.
0.684006 0.0610091 0.
0.686007 0.0610091 0.
0.688007 0.0610092 0.
0.690007 0.0610095 0.
0.692008 0.06101 0.
0.694009 0.0610105 0.
0.69601 0.0610116 0.
0.69801 0.0610127 0.
0.499992 0.0630104 0.
0.501993 0.0630098 0.
0.503994 0.0630093 0.
0.505995 0.0630088 0.
0.507995 0.0630086 0.
0.509996 0.0630084 0.
0.511996 0.0630083 0.
0.513996 0.0630085 0.
0.515996 0.0630087 0.
0.517996 0.0630088 0.
0.519997 0.0630088 0.
0.521997 0.0630088 0.
0.523998 0.0630093 0.
0.525998 0.06301 0.
0.527999 0.0630105 0.
0.529999 0.0630107 0.
0.531999 0.0630109 0.
0.533999 0.063011 0.
0.535999 0.0630108 0.
0.538 0.0630106 0.
0.54 0.0630108 0.
0.542001 0.0630114 0.
0.544001 0.063012 0.
0.546002 0.0630124 0.
0.548002 0.0630127 0.
0.550002 0.063013 0.
0.552002 0.0630132 0.
0.554002 0.0630134 0.
0.556002 0.0630133 0.
0.558002 0.0630125 0.
0.560003 0.0630118 0.
0.562003 0.0630115 0.
0.564003 0.063012 0.
0.566003 0.0630124 0.
0.568003 0.0630118 0.
0.570004 0.0630106 0.
0.572004 0.0630095 0.
0.574003 0.0630097 0.
0.576002 0.0630102 0.
0.578001 0.0630106 0.
0.580001 0.0630109 0.
0.582002 0.0630111 0.
0.584002 0.0630113 0.
0.586002 0.0630114 0.
0.588002 0.0630115 0.
0.590003 0.0630118 0.
0.592002 0.0630123 0.
0.594002 0.0630128 0.
0.596002 0.0630126 0.
0.598001 0.0630122 0.
0.6 0.0630118 0.
0.602 0.0630115 0.
0.604001 0.0630111 0.
0.606001 0.063011 0.
0.608 0.0630116 0.
0.61 0.0630121 0.
0.612 0.0630126 0.
0.614 0.0630129 0.
0.616 0.0630132 0.
0.618 0.0630136 0.
0.62 0.063014 0.
0.622 0.0630144 0.
0.624 0.0630137 0.
0.626 0.0630129 0.
0.628001 0.0630123 0.
0.63 0.0630127 0.
0.632 0.0630131 0.
0.634 0.0630134 0.
0.636 0.0630137 0.
0.637999 0.0630139 0.
0.64 0.063014 0.
0.642 0.063014 0.
0.644 0.063014 0.
0.646 0.0630138 0.
0.648 0.0630136 0.
0.65 0.0630133 0.
0.652 0.0630126 0.
0.654 0.0630118 0.
0.656 0.0630113 0.
0.658001 0.0630117 0.
0.660001 0.0630121 0.
0.662001 0.0630123 0.
0.664002 0.0630121 0.
0.666002 0.0630118 0.
0.668002 0.0630119 0.
0.670003 0.0630121 0.
0.672003 0.0630123 0.
0.674003 0.0630118 0.
0.676003 0.0630111 0.
0.678003 0.0630105 0.
0.680004 0.0630099 0.
0.682005 0.0630093 0.
0.684006 0.0630089 0.
0.686006 0.063009 0.
0.688006 0.0630091 0.
0.690006 0.0630095 0.
0.692007 0.06301 0.
0.694007 0.0630105 0.
0.696008 0.0630116 0.
0.698008 0.0630129 0.
0.499994 0.06501 0.
0.501995 0.0650094 0.
0.503996 0.0650087 0.
0.505997 0.0650082 0.
0.507997 0.0650082 0.
0.509997 0.0650082 0.
0.511997 0.0650083 0.
0.513997 0.0650084 0.
0.515997 0.0650085 0.
0.517997 0.0650087 0.
0.519998 0.0650088 0.
0.521998 0.0650089 0.
0.523998 0.0650093 0.
0.525999 0.0650097 0.
0.527999 0.0650101 0.
0.529999 0.0650104 0.
0.532 0.0650107 0.
0.534 0.0650108 0.
0.536 0.0650108 0.
0.538001 0.0650109 0.
0.540001 0.0650111 0.
0.542001 0.0650114 0.
0.544002 0.0650118 0.
0.546002 0.0650121 0.
0.548002 0.0650124 0.
0.550002 0.0650127 0.
0.552002 0.0650131 0.
0.554002 0.0650134 0.
0.556003 0.0650134 0.
0.558003 0.0650122 0.
0.560003 0.065011 0.
0.562004 0.0650106 0.
0.564004 0.0650113 0.
0.566004 0.0650119 0.
0.568004 0.0650113 0.
0.570004 0.06501 0.
0.572004 0.0650088 0.
0.574003 0.0650094 0.
0.576002 0.0650103 0.
0.578002 0.0650111 0.
0.580002 0.0650112 0.
0.582002 0.0650113 0.
0.584002 0.0650114 0.
0.586003 0.0650112 0.
0.588003 0.0650111 0.
0.590003 0.0650114 0.
0.592003 0.0650121 0.
0.594002 0.0650128 0.
0.596002 0.0650125 0.
0.598001 0.0650119 0.
0.6 0.0650113 0.
0.602001 0.0650111 0.
0.604001 0.0650109 0.
0.606001 0.0650109 0.
0.608001 0.0650117 0.
0.61 0.0650126 0.
0.612 0.065013 0.
0.614 0.065013 0.
0.616 0.065013 0.
0.618 0.0650135 0.
0.62 0.0650143 0.
0.622 0.065015 0.
0.624 0.0650141 0.
0.626 0.0650131 0.
0.628 0.0650122 0.
0.629999 0.0650126 0.
0.631999 0.0650131 0.
0.633999 0.0650135 0.
0.635999 0.0650138 0.
0.637999 0.0650142 0.
0.639999 0.0650142 0.
0.642 0.0650139 0.
0.644 0.0650137 0.
0.646 0.0650137 0.
0.648 0.0650139 0.
0.65 0.0650141 0.
0.652 0.065013 0.
0.654 0.065012 0.
0.656001 0.0650113 0.
0.658 0.0650117 0.
0.66 0.0650121 0.
0.662001 0.0650123 0.
0.664001 0.0650121 0.
0.666002 0.0650119 0.
0.668002 0.0650119 0.
0.670002 0.0650121 0.
0.672003 0.0650124 0.
0.674003 0.065012 0.
0.676002 0.0650115 0.
0.678002 0.0650111 0.
0.680003 0.0650102 0.
0.682004 0.0650094 0.
0.684005 0.0650088 0.
0.686005 0.0650089 0.
0.688005 0.0650091 0.
0.690005 0.0650094 0.
0.692006 0.06501 0.
0.694006 0.0650105 0.
0.696006 0.0650117 0.
0.698006 0.0650131 0.
0.499995 0.0670099 0.
0.501995 0.0670091 0.
0.503996 0.0670085 0.
0.505996 0.0670081 0.
0.507997 0.0670082 0.
0.509997 0.0670083 0.
0.511997 0.0670084 0.
0.513997 0.0670086 0.
0.515997 0.0670087 0.
0.517998 0.0670087 0.
0.519998 0.0670086 0.
0.521999 0.0670086 0.
0.523999 0.0670091 0.
0.525999 0.0670098 0.
0.527999 0.0670103 0.
0.529999 0.0670104 0.
0.532 0.0670104 0.
0.534 0.0670105 0.
0.536 0.0670107 0.
0.538 0.0670108 0.
0.540001 0.0670111 0.
0.542001 0.0670115 0.
0.544001 0.0670119 0.
0.546002 0.0670122 0.
0.548002 0.0670124 0.
0.550002 0.0670127 0.
0.552003 0.0670127 0.
0.554003 0.0670128 0.
0.556003 0.0670126 0.
0.558003 0.0670118 0.
0.560004 0.0670109 0.
0.562004 0.0670106 0.
0.564004 0.0670108 0.
0.566004 0.0670111 0.
0.568004 0.0670106 0.
0.570004 0.0670098 0.
0.572004 0.067009 0.
0.574003 0.0670096 0.
0.576002 0.0670104 0.
0.578001 0.0670111 0.
0.580001 0.0670113 0.
0.582002 0.0670115 0.
0.584002 0.0670116 0.
0.586002 0.0670114 0.
0.588003 0.0670113 0.
0.590003 0.0670116 0.
0.592002 0.0670122 0.
0.594002 0.0670127 0.
0.596002 0.0670124 0.
0.598002 0.0670117 0.
0.600001 0.0670111 0.
0.602001 0.067011 0.
0.604001 0.067011 0.
0.606001 0.0670111 0.
0.608001 0.0670118 0.
0.61 0.0670125 0.
0.612 0.0670128 0.
0.614 0.0670127 0.
0.616 0.0670127 0.
0.618 0.0670131 0.
0.62 0.0670138 0.
0.622 0.0670144 0.
0.624 0.067014 0.
0.626 0.0670134 0.
0.628 0.0670129 0.
0.629999 0.0670134 0.
0.631999 0.0670139 0.
0.633999 0.0670142 0.
0.635999 0.0670141 0.
0.637999 0.0670141 0.
0.64 0.0670138 0.
0.642 0.0670134 0.
0.644 0.0670131 0.
0.646 0.0670129 0.
0.648 0.0670129 0.
0.65 0.0670128 0.
0.652 0.0670122 0.
0.654 0.0670117 0.
0.656 0.0670114 0.
0.658 0.0670118 0.
0.660001 0.0670122 0.
0.662001 0.0670123 0.
0.664001 0.0670119 0.
0.666001 0.0670116 0.
0.668001 0.0670116 0.
0.670002 0.0670117 0.
0.672002 0.0670118 0.
0.674002 0.0670114 0.
0.676003 0.067011 0.
0.678003 0.0670105 0.
0.680003 0.0670099 0.
0.682004 0.0670092 0.
0.684004 0.0670089 0.
0.686004 0.067009 0.
0.688005 0.0670092 0.
0.690005 0.0670096 0.
0.692005 0.0670101 0.
0.694005 0.0670107 0.
0.696006 0.0670116 0.
0.698006 0.0670127 0.
0.499996 0.0690092 0.
0.501996 0.0690088 0.
0.503996 0.0690084 0.
0.505996 0.0690081 0.
0.507996 0.0690083 0.
0.509997 0.0690084 0.
0.511997 0.0690086 0.
0.513998 0.0690087 0.
0.515998 0.0690089 0.
0.517998 0.0690087 0.
0.519999 0.0690085 0.
0.521999 0.0690082 0.
0.523999 0.0690089 0.
0.525999 0.0690098 0.
0.527999 0.0690106 0.
0.53 0.0690103 0.
0.532 0.0690101 0.
0.534 0.0690101 0.
0.536 0.0690105 0.
0.538 0.0690108 0.
0.54 0.0690112 0.
0.542 0.0690116 0.
0.544001 0.069012 0.
0.546002 0.0690122 0.
0.548002 0.0690124 0.
0.550003 0.0690126 0.
0.552003 0.0690124 0.
0.554003 0.0690122 0.
0.556003 0.0690119 0.
0.558004 0.0690114 0.
0.560004 0.0690109 0.
0.562004 0.0690105 0.
0.564004 0.0690104 0.
0.566004 0.0690103 0.
0.568004 0.06901 0.
0.570004 0.0690096 0.
0.572004 0.0690092 0.
0.574003 0.0690098 0.
0.576002 0.0690105 0.
0.578001 0.0690112 0.
0.580001 0.0690114 0.
0.582001 0.0690116 0.
0.584001 0.0690118 0.
0.586002 0.0690116 0.
0.588002 0.0690115 0.
0.590002 0.0690117 0.
0.592002 0.0690122 0.
0.594002 0.0690127 0.
0.596002 0.0690123 0.
0.598002 0.0690116 0.
0.600002 0.0690109 0.
0.602002 0.069011 0.
0.604001 0.0690111 0.
0.606001 0.0690113 0.
0.608001 0.0690118 0.
0.610001 0.0690123 0.
0.612001 0.0690126 0.
0.614001 0.0690125 0.
0.616001 0.0690124 0.
0.618001 0.0690127 0.
0.620001 0.0690133 0.
0.622 0.0690139 0.
0.624 0.0690138 0.
0.626 0.0690137 0.
0.628 0.0690137 0.
0.629999 0.0690142 0.
0.631998 0.0690147 0.
0.633998 0.0690149 0.
0.635999 0.0690145 0.
0.638 0.069014 0.
0.64 0.0690135 0.
0.642 0.069013 0.
0.644 0.0690125 0.
0.646 0.0690121 0.
0.648 0.0690118 0.
0.65 0.0690115 0.
0.652 0.0690114 0.
0.654 0.0690114 0.
0.656 0.0690115 0.
0.658 0.0690119 0.
0.660001 0.0690123 0.
0.662001 0.0690123 0.
0.664001 0.0690118 0.
0.666 0.0690113 0.
0.668001 0.0690112 0.
0.670001 0.0690112 0.
0.672002 0.0690113 0.
0.674002 0.0690109 0.
0.676003 0.0690104 0.
0.678003 0.0690099 0.
0.680003 0.0690095 0.
0.682003 0.0690091 0.
0.684004 0.0690089 0.
0.686004 0.0690091 0.
0.688004 0.0690093 0.
0.690004 0.0690097 0.
0.692004 0.0690102 0.
0.694004 0.0690108 0.
0.696005 0.0690116 0.
0.698006 0.0690124 0.
0.499996 0.0710089 0.
0.501996 0.0710087 0.
0.503995 0.0710083 0.
0.505995 0.0710081 0.
0.507996 0.0710083 0.
0.509997 0.0710086 0.
0.511997 0.0710088 0.
0.513998 0.0710088 0.
0.515998 0.0710087 0.
0.517999 0.0710086 0.
0.519999 0.0710084 0.
0.522 0.0710082 0.
0.524 0.0710088 0.
0.525999 0.0710096 0.
0.527999 0.0710102 0.
0.53 0.0710101 0.
0.532 0.0710099 0.
0.534 0.0710099 0.
0.536 0.0710103 0.
0.538 0.0710107 0.
0.54 0.0710112 0.
0.542001 0.0710116 0.
0.544001 0.071012 0.
0.546002 0.0710121 0.
0.548003 0.0710122 0.
0.550004 0.0710123 0.
0.552003 0.071012 0.
0.554003 0.0710118 0.
0.556003 0.0710115 0.
0.558004 0.0710111 0.
0.560004 0.0710108 0.
0.562004 0.0710105 0.
0.564004 0.0710103 0.
0.566004 0.0710101 0.
0.568004 0.0710099 0.
0.570004 0.0710098 0.
0.572004 0.0710096 0.
0.574003 0.0710101 0.
0.576002 0.0710106 0.
0.578001 0.0710111 0.
0.580001 0.0710113 0.
0.582001 0.0710114 0.
0.584001 0.0710115 0.
0.586002 0.0710114 0.
0.588002 0.0710114 0.
0.590002 0.0710116 0.
0.592002 0.0710119 0.
0.594002 0.0710123 0.
0.596002 0.071012 0.
0.598002 0.0710115 0.
0.600002 0.071011 0.
0.602002 0.0710111 0.
0.604001 0.0710112 0.
0.606001 0.0710114 0.
0.608001 0.0710119 0.
0.610001 0.0710123 0.
0.612001 0.0710125 0.
0.614001 0.0710123 0.
0.616001 0.0710122 0.
0.618001 0.0710125 0.
0.620001 0.071013 0.
0.622 0.0710135 0.
0.624 0.0710137 0.
0.626 0.0710138 0.
0.627999 0.071014 0.
0.629999 0.0710145 0.
0.631998 0.0710149 0.
0.633998 0.071015 0.
0.635999 0.0710144 0.
0.637999 0.0710137 0.
0.64 0.0710132 0.
0.642 0.0710127 0.
0.644 0.0710123 0.
0.646 0.0710118 0.
0.648 0.0710113 0.
0.65 0.0710108 0.
0.652 0.0710111 0.
0.653999 0.0710113 0.
0.655999 0.0710116 0.
0.658 0.071012 0.
0.66 0.0710124 0.
0.662 0.0710123 0.
0.664 0.0710116 0.
0.666 0.071011 0.
0.668 0.0710108 0.
0.670001 0.071011 0.
0.672001 0.0710111 0.
0.674002 0.0710105 0.
0.676002 0.0710099 0.
0.678003 0.0710093 0.
0.680003 0.0710093 0.
0.682003 0.0710092 0.
0.684003 0.0710092 0.
0.686003 0.0710094 0.
0.688004 0.0710096 0.
0.690004 0.0710099 0.
0.692004 0.0710105 0.
0.694004 0.071011 0.
0.696004 0.0710116 0.
0.698005 0.0710123 0.
0.499994 0.0730093 0.
0.501995 0.0730088 0.
0.503995 0.0730083 0.
0.505996 0.0730081 0.
0.507996 0.0730085 0.
0.509997 0.0730089 0.
0.511998 0.073009 0.
0.513998 0.0730087 0.
0.515998 0.0730084 0.
0.517999 0.0730083 0.
0.519999 0.0730084 0.
0.521999 0.0730085 0.
0.523999 0.0730088 0.
0.525999 0.0730091 0.
0.528 0.0730094 0.
0.53 0.0730096 0.
0.532001 0.0730097 0.
0.534001 0.0730099 0.
0.536001 0.0730102 0.
0.538001 0.0730105 0.
0.540001 0.073011 0.
0.542002 0.0730114 0.
0.544002 0.0730119 0.
0.546002 0.0730119 0.
0.548003 0.0730118 0.
0.550003 0.0730117 0.
0.552003 0.0730117 0.
0.554003 0.0730116 0.
0.556003 0.0730115 0.
0.558003 0.0730111 0.
0.560004 0.0730107 0.
0.562004 0.0730105 0.
0.564004 0.0730105 0.
0.566004 0.0730106 0.
0.568004 0.0730105 0.
0.570004 0.0730103 0.
0.572004 0.0730101 0.
0.574003 0.0730104 0.
0.576002 0.0730107 0.
0.578002 0.0730109 0.
0.580002 0.0730109 0.
0.582002 0.0730108 0.
0.584002 0.0730108 0.
0.586002 0.0730109 0.
0.588003 0.0730109 0.
0.590003 0.0730111 0.
0.592002 0.0730113 0.
0.594002 0.0730116 0.
0.596002 0.0730115 0.
0.598001 0.0730114 0.
0.600001 0.0730112 0.
0.602001 0.0730113 0.
0.604002 0.0730114 0.
0.606002 0.0730116 0.
0.608002 0.0730119 0.
0.610001 0.0730123 0.
0.612001 0.0730124 0.
0.614001 0.0730123 0.
0.616 0.0730122 0.
0.618 0.0730124 0.
0.62 0.0730129 0.
0.622 0.0730133 0.
0.624 0.0730135 0.
0.626 0.0730137 0.
0.627999 0.0730139 0.
0.629999 0.0730142 0.
0.631999 0.0730145 0.
0.633998 0.0730145 0.
0.635999 0.0730139 0.
0.637999 0.0730134 0.
0.639999 0.073013 0.
0.641999 0.0730127 0.
0.643999 0.0730123 0.
0.645999 0.0730118 0.
0.647999 0.0730113 0.
0.649999 0.0730108 0.
0.651999 0.0730111 0.
0.653999 0.0730113 0.
0.655999 0.0730116 0.
0.657999 0.0730121 0.
0.659999 0.0730125 0.
0.661999 0.0730124 0.
0.664 0.0730115 0.
0.666 0.0730106 0.
0.668 0.0730106 0.
0.67 0.0730109 0.
0.672001 0.0730113 0.
0.674001 0.0730105 0.
0.676001 0.0730095 0.
0.678002 0.0730087 0.
0.680002 0.073009 0.
0.682002 0.0730094 0.
0.684003 0.0730096 0.
0.686003 0.0730098 0.
0.688003 0.0730099 0.
0.690003 0.0730103 0.
0.692003 0.0730108 0.
0.694003 0.0730113 0.
0.696003 0.0730119 0.
0.698004 0.0730125 0.
0.499993 0.0750093 0.
0.501994 0.0750088 0.
0.503995 0.0750084 0.
0.505996 0.0750081 0.
0.507997 0.0750086 0.
0.509997 0.0750091 0.
0.511998 0.0750091 0.
0.513998 0.0750086 0.
0.515998 0.075008 0.
0.517999 0.0750081 0.
0.519999 0.0750084 0.
0.521999 0.0750088 0.
0.523999 0.0750087 0.
0.525999 0.0750086 0.
0.528 0.0750086 0.
0.530001 0.0750091 0.
0.532001 0.0750095 0.
0.534002 0.0750099 0.
0.536002 0.0750101 0.
0.538002 0.0750103 0.
0.540002 0.0750107 0.
0.542003 0.0750112 0.
0.544003 0.0750117 0.
0.546003 0.0750117 0.
0.548003 0.0750114 0.
0.550002 0.0750111 0.
0.552003 0.0750113 0.
0.554003 0.0750115 0.
0.556003 0.0750116 0.
0.558003 0.0750111 0.
0.560003 0.0750106 0.
0.562003 0.0750105 0.
0.564004 0.0750108 0.
0.566004 0.0750111 0.
0.568004 0.075011 0.
0.570004 0.0750108 0.
0.572004 0.0750107 0.
0.574003 0.0750107 0.
0.576002 0.0750107 0.
0.578002 0.0750107 0.
0.580002 0.0750105 0.
0.582002 0.0750102 0.
0.584003 0.0750101 0.
0.586003 0.0750103 0.
0.588004 0.0750105 0.
0.590003 0.0750107 0.
0.592003 0.0750108 0.
0.594002 0.0750109 0.
0.596001 0.0750111 0.
0.598001 0.0750113 0.
0.6 0.0750115 0.
0.602001 0.0750115 0.
0.604002 0.0750116 0.
0.606002 0.0750117 0.
0.608002 0.075012 0.
0.610001 0.0750123 0.
0.612001 0.0750124 0.
0.614 0.0750123 0.
0.616 0.0750122 0.
0.618 0.0750124 0.
0.62 0.0750127 0.
0.622 0.0750131 0.
0.624 0.0750134 0.
0.625999 0.0750136 0.
0.627999 0.0750138 0.
0.629999 0.0750139 0.
0.631999 0.075014 0.
0.633998 0.0750139 0.
0.635998 0.0750135 0.
0.637998 0.0750131 0.
0.639998 0.0750128 0.
0.641998 0.0750126 0.
0.643999 0.0750124 0.
0.645999 0.0750119 0.
0.647998 0.0750113 0.
0.649998 0.0750108 0.
0.651998 0.0750111 0.
0.653998 0.0750114 0.
0.655998 0.0750117 0.
0.657998 0.0750122 0.
0.659998 0.0750127 0.
0.661998 0.0750125 0.
0.663999 0.0750114 0.
0.666 0.0750102 0.
0.668 0.0750103 0.
0.67 0.0750109 0.
0.672 0.0750115 0.
0.674 0.0750104 0.
0.676 0.0750092 0.
0.678001 0.0750081 0.
0.680001 0.0750088 0.
0.682002 0.0750096 0.
0.684002 0.0750101 0.
0.686002 0.0750102 0.
0.688003 0.0750103 0.
0.690003 0.0750106 0.
0.692003 0.0750111 0.
0.694003 0.0750115 0.
0.696003 0.0750121 0.
0.698002 0.0750127 0.
0.499994 0.0770088 0.
0.501995 0.0770087 0.
0.503995 0.0770084 0.
0.505996 0.0770082 0.
0.507997 0.0770086 0.
0.509998 0.077009 0.
0.511998 0.0770091 0.
0.513998 0.0770087 0.
0.515999 0.0770083 0.
0.517999 0.0770082 0.
0.519999 0.0770083 0.
0.521999 0.0770084 0.
0.523999 0.0770084 0.
0.526 0.0770084 0.
0.528 0.0770084 0.
0.530001 0.0770088 0.
0.532001 0.0770092 0.
0.534002 0.0770095 0.
0.536002 0.0770099 0.
0.538002 0.0770102 0.
0.540002 0.0770106 0.
0.542002 0.0770113 0.
0.544002 0.0770119 0.
0.546002 0.0770116 0.
0.548002 0.077011 0.
0.550002 0.0770104 0.
0.552002 0.0770106 0.
0.554002 0.0770108 0.
0.556003 0.0770109 0.
0.558003 0.0770105 0.
0.560003 0.0770101 0.
0.562003 0.0770101 0.
0.564003 0.0770103 0.
0.566004 0.0770106 0.
0.568004 0.0770107 0.
0.570004 0.0770106 0.
0.572004 0.0770105 0.
0.574003 0.0770107 0.
0.576002 0.0770108 0.
0.578002 0.077011 0.
0.580002 0.0770106 0.
0.582003 0.0770103 0.
0.584003 0.0770102 0.
0.586003 0.0770104 0.
0.588003 0.0770107 0.
0.590002 0.0770108 0.
0.592002 0.077011 0.
0.594001 0.0770111 0.
0.596001 0.0770113 0.
0.598001 0.0770115 0.
0.6 0.0770117 0.
0.602001 0.0770118 0.
0.604002 0.077012 0.
0.606002 0.0770121 0.
0.608002 0.0770123 0.
0.610001 0.0770126 0.
0.612001 0.0770127 0.
0.614001 0.0770128 0.
0.616 0.0770128 0.
0.618 0.0770129 0.
0.62 0.0770132 0.
0.621999 0.0770134 0.
0.623999 0.0770136 0.
0.625999 0.0770137 0.
0.627999 0.0770139 0.
0.629999 0.0770139 0.
0.631998 0.0770138 0.
0.633998 0.0770136 0.
0.635998 0.0770133 0.
0.637998 0.077013 0.
0.639998 0.0770126 0.
0.641998 0.0770121 0.
0.643998 0.0770116 0.
0.645998 0.0770115 0.
0.647998 0.0770116 0.
0.649998 0.0770116 0.
0.651998 0.0770116 0.
0.653998 0.0770117 0.
0.655998 0.0770118 0.
0.657998 0.0770122 0.
0.659998 0.0770125 0.
0.661998 0.0770124 0.
0.663999 0.0770116 0.
0.665999 0.0770109 0.
0.668 0.0770108 0.
0.67 0.0770111 0.
0.672 0.0770115 0.
0.674 0.0770105 0.
0.676 0.0770093 0.
0.678 0.0770083 0.
0.68 0.0770087 0.
0.682 0.077009 0.
0.684001 0.0770094 0.
0.686001 0.0770098 0.
0.688002 0.0770102 0.
0.690002 0.0770106 0.
0.692002 0.0770108 0.
0.694002 0.077011 0.
0.696002 0.0770112 0.
0.698002 0.0770114 0.
0.499996 0.0790087 0.
0.501996 0.0790086 0.
0.503996 0.0790085 0.
0.505996 0.0790084 0.
0.507997 0.0790087 0.
0.509998 0.0790089 0.
0.511998 0.079009 0.
0.513999 0.0790088 0.
0.515999 0.0790086 0.
0.517999 0.0790084 0.
0.519999 0.0790082 0.
0.522 0.079008 0.
0.524 0.079008 0.
0.526 0.0790081 0.
0.528 0.0790082 0.
0.53 0.0790085 0.
0.532001 0.0790089 0.
0.534002 0.0790092 0.
0.536002 0.0790096 0.
0.538002 0.07901 0.
0.540001 0.0790105 0.
0.542001 0.0790113 0.
0.544001 0.079012 0.
0.546001 0.0790115 0.
0.548001 0.0790106 0.
0.550001 0.0790097 0.
0.552002 0.0790099 0.
0.554002 0.0790101 0.
0.556002 0.0790102 0.
0.558003 0.0790099 0.
0.560003 0.0790096 0.
0.562003 0.0790096 0.
0.564003 0.0790099 0.
0.566003 0.0790102 0.
0.568003 0.0790103 0.
0.570003 0.0790103 0.
0.572004 0.0790103 0.
0.574003 0.0790106 0.
0.576003 0.079011 0.
0.578002 0.0790112 0.
0.580002 0.0790108 0.
0.582003 0.0790104 0.
0.584003 0.0790103 0.
0.586002 0.0790105 0.
0.588002 0.0790108 0.
0.590002 0.079011 0.
0.592001 0.0790111 0.
0.594001 0.0790113 0.
0.596001 0.0790115 0.
0.598001 0.0790117 0.
0.600001 0.079012 0.
0.602001 0.0790122 0.
0.604002 0.0790123 0.
0.606002 0.0790125 0.
0.608002 0.0790127 0.
0.610001 0.0790129 0.
0.612001 0.0790131 0.
0.614001 0.0790132 0.
0.616001 0.0790134 0.
0.618 0.0790135 0.
0.619999 0.0790136 0.
0.621999 0.0790137 0.
0.623999 0.0790138 0.
0.625999 0.0790139 0.
0.627999 0.079014 0.
0.629998 0.0790138 0.
0.631998 0.0790136 0.
0.633998 0.0790133 0.
0.635998 0.0790131 0.
0.637998 0.0790129 0.
0.639998 0.0790124 0.
0.641998 0.0790116 0.
0.643998 0.0790109 0.
0.645998 0.0790112 0.
0.647998 0.0790118 0.
0.649998 0.0790123 0.
0.651998 0.0790122 0.
0.653997 0.079012 0.
0.655997 0.0790119 0.
0.657997 0.0790121 0.
0.659998 0.0790124 0.
0.661998 0.0790123 0.
0.663999 0.0790119 0.
0.665999 0.0790115 0.
0.667999 0.0790114 0.
0.669999 0.0790114 0.
0.671999 0.0790114 0.
0.673999 0.0790105 0.
0.675999 0.0790095 0.
0.677999 0.0790085 0.
0.679999 0.0790085 0.
0.681999 0.0790084 0.
0.684 0.0790086 0.
0.686 0.0790094 0.
0.688 0.0790101 0.
0.690001 0.0790105 0.
0.692001 0.0790105 0.
0.694001 0.0790105 0.
0.696001 0.0790103 0.
0.698001 0.0790101 0.
0.499997 0.0810087 0.
0.501997 0.0810087 0.
0.503997 0.0810087 0.
0.505997 0.0810087 0.
0.507998 0.0810086 0.
0.509998 0.0810086 0.
0.511999 0.0810086 0.
0.513999 0.0810086 0.
0.515999 0.0810086 0.
0.517999 0.0810085 0.
0.52 0.0810083 0.
0.522 0.0810081 0.
0.524 0.0810081 0.
0.526 0.0810082 0.
0.528 0.0810082 0.
0.53 0.0810083 0.
0.532001 0.0810085 0.
0.534001 0.0810087 0.
0.536002 0.0810093 0.
0.538002 0.0810098 0.
0.540002 0.0810106 0.
0.542001 0.0810114 0.
0.544001 0.0810122 0.
0.546001 0.0810117 0.
0.548001 0.0810107 0.
0.550001 0.0810097 0.
0.552002 0.0810098 0.
0.554002 0.0810097 0.
0.556002 0.0810097 0.
0.558003 0.0810096 0.
0.560003 0.0810095 0.
0.562003 0.0810095 0.
0.564003 0.0810098 0.
0.566003 0.08101 0.
0.568003 0.0810101 0.
0.570003 0.0810101 0.
0.572003 0.0810102 0.
0.574003 0.0810105 0.
0.576003 0.0810109 0.
0.578002 0.0810111 0.
0.580002 0.0810108 0.
0.582003 0.0810105 0.
0.584003 0.0810103 0.
0.586002 0.0810106 0.
0.588001 0.0810108 0.
0.590001 0.0810111 0.
0.592001 0.0810113 0.
0.594 0.0810115 0.
0.596 0.0810117 0.
0.598001 0.0810119 0.
0.600001 0.0810121 0.
0.602001 0.0810122 0.
0.604002 0.0810123 0.
0.606002 0.0810125 0.
0.608001 0.0810128 0.
0.610001 0.0810132 0.
0.612001 0.0810134 0.
0.614001 0.0810135 0.
0.616001 0.0810135 0.
0.618 0.0810136 0.
0.619999 0.0810136 0.
0.621998 0.0810136 0.
0.623998 0.0810138 0.
0.625998 0.081014 0.
0.627998 0.0810141 0.
0.629998 0.0810136 0.
0.631998 0.0810131 0.
0.633998 0.0810128 0.
0.635998 0.0810128 0.
0.637998 0.0810127 0.
0.639998 0.0810123 0.
0.641998 0.0810116 0.
0.643998 0.0810108 0.
0.645998 0.0810111 0.
0.647998 0.0810117 0.
0.649998 0.0810122 0.
0.651997 0.0810121 0.
0.653997 0.081012 0.
0.655996 0.081012 0.
0.657997 0.0810121 0.
0.659998 0.0810122 0.
0.661998 0.0810122 0.
0.663999 0.0810121 0.
0.665999 0.081012 0.
0.667999 0.0810118 0.
0.669999 0.0810116 0.
0.671999 0.0810113 0.
0.673999 0.0810105 0.
0.675999 0.0810096 0.
0.677998 0.0810087 0.
0.679999 0.0810085 0.
0.681999 0.0810082 0.
0.683999 0.0810084 0.
0.685999 0.0810091 0.
0.688 0.0810098 0.
0.69 0.0810101 0.
0.692 0.0810102 0.
0.694 0.0810102 0.
0.696 0.08101 0.
0.698 0.0810097 0.
0.499999 0.0830085 0.
0.501998 0.0830088 0.
0.503998 0.0830091 0.
0.505998 0.0830091 0.
0.507998 0.0830086 0.
0.509998 0.0830081 0.
0.511999 0.0830079 0.
0.513999 0.0830082 0.
0.516 0.0830084 0.
0.518 0.0830085 0.
0.52 0.0830085 0.
0.522001 0.0830086 0.
0.524 0.0830086 0.
0.526 0.0830086 0.
0.528 0.0830085 0.
0.53 0.0830082 0.
0.532001 0.0830079 0.
0.534001 0.083008 0.
0.536002 0.0830089 0.
0.538002 0.0830098 0.
0.540002 0.0830107 0.
0.542002 0.0830116 0.
0.544002 0.0830124 0.
0.546002 0.083012 0.
0.548002 0.0830113 0.
0.550002 0.0830105 0.
0.552002 0.0830101 0.
0.554002 0.0830098 0.
0.556002 0.0830095 0.
0.558003 0.0830095 0.
0.560003 0.0830096 0.
0.562003 0.0830097 0.
0.564003 0.08301 0.
0.566003 0.0830102 0.
0.568003 0.0830102 0.
0.570003 0.0830101 0.
0.572003 0.08301 0.
0.574003 0.0830102 0.
0.576003 0.0830105 0.
0.578002 0.0830108 0.
0.580002 0.0830106 0.
0.582002 0.0830104 0.
0.584002 0.0830104 0.
0.586002 0.0830106 0.
0.588001 0.0830107 0.
0.590001 0.083011 0.
0.592 0.0830114 0.
0.594 0.0830118 0.
0.596 0.083012 0.
0.598 0.083012 0.
0.600001 0.0830121 0.
0.602001 0.083012 0.
0.604001 0.0830119 0.
0.606001 0.083012 0.
0.608001 0.0830126 0.
0.610001 0.0830133 0.
0.612 0.0830136 0.
0.614 0.0830135 0.
0.616 0.0830133 0.
0.618 0.0830133 0.
0.619999 0.0830133 0.
0.621998 0.0830133 0.
0.623998 0.0830136 0.
0.625998 0.083014 0.
0.627998 0.0830143 0.
0.629997 0.0830134 0.
0.631997 0.0830125 0.
0.633997 0.083012 0.
0.635997 0.0830122 0.
0.637998 0.0830124 0.
0.639998 0.0830123 0.
0.641998 0.0830118 0.
0.643997 0.0830114 0.
0.645997 0.0830113 0.
0.647997 0.0830113 0.
0.649997 0.0830113 0.
0.651997 0.0830115 0.
0.653996 0.0830118 0.
0.655996 0.083012 0.
0.657997 0.083012 0.
0.659997 0.083012 0.
0.661997 0.083012 0.
0.663998 0.0830122 0.
0.665999 0.0830123 0.
0.667999 0.083012 0.
0.669998 0.0830116 0.
0.671998 0.0830111 0.
0.673998 0.0830104 0.
0.675998 0.0830096 0.
0.677998 0.0830088 0.
0.679998 0.0830087 0.
0.681999 0.0830085 0.
0.683999 0.0830085 0.
0.685999 0.0830089 0.
0.687999 0.0830093 0.
0.689999 0.0830096 0.
0.692 0.0830098 0.
0.694 0.08301 0.
0.696 0.0830101 0.
0.697999 0.0830101 0.
0.5 0.0850087 0.
0.502 0.085009 0.
0.503999 0.0850094 0.
0.505999 0.0850096 0.
0.507999 0.0850086 0.
0.509999 0.0850076 0.
0.511999 0.0850072 0.
0.514 0.0850077 0.
0.516001 0.0850082 0.
0.518001 0.0850085 0.
0.520001 0.0850088 0.
0.522001 0.0850091 0.
0.524001 0.085009 0.
0.526 0.0850089 0.
0.528 0.0850087 0.
0.53 0.0850081 0.
0.532001 0.0850074 0.
0.534001 0.0850074 0.
0.536002 0.0850086 0.
0.538002 0.0850098 0.
0.540003 0.0850108 0.
0.542003 0.0850117 0.
0.544003 0.0850127 0.
0.546003 0.0850124 0.
0.548003 0.0850119 0.
0.550002 0.0850113 0.
0.552002 0.0850105 0.
0.554002 0.0850098 0.
0.556003 0.0850092 0.
0.558003 0.0850095 0.
0.560003 0.0850097 0.
0.562004 0.08501 0.
0.564004 0.0850101 0.
0.566004 0.0850103 0.
0.568004 0.0850102 0.
0.570003 0.08501 0.
0.572003 0.0850098 0.
0.574003 0.08501 0.
0.576003 0.0850102 0.
0.578002 0.0850104 0.
0.580002 0.0850104 0.
0.582002 0.0850104 0.
0.584002 0.0850104 0.
0.586001 0.0850105 0.
0.588001 0.0850107 0.
0.59 0.085011 0.
0.592 0.0850115 0.
0.594 0.0850121 0.
0.596 0.0850122 0.
0.598 0.0850122 0.
0.6 0.0850121 0.
0.602 0.0850118 0.
0.604 0.0850115 0.
0.606 0.0850115 0.
0.608 0.0850125 0.
0.61 0.0850134 0.
0.612 0.0850138 0.
0.614 0.0850135 0.
0.616 0.0850131 0.
0.617999 0.085013 0.
0.619999 0.085013 0.
0.621999 0.085013 0.
0.623998 0.0850135 0.
0.625998 0.0850141 0.
0.627997 0.0850145 0.
0.629997 0.0850132 0.
0.631997 0.0850119 0.
0.633997 0.0850112 0.
0.635997 0.0850116 0.
0.637997 0.0850121 0.
0.639997 0.0850122 0.
0.641997 0.0850121 0.
0.643997 0.085012 0.
0.645997 0.0850115 0.
0.647996 0.0850109 0.
0.649996 0.0850103 0.
0.651996 0.0850109 0.
0.653996 0.0850115 0.
0.655996 0.085012 0.
0.657996 0.0850119 0.
0.659996 0.0850118 0.
0.661997 0.0850119 0.
0.663997 0.0850122 0.
0.665998 0.0850126 0.
0.667998 0.0850123 0.
0.669998 0.0850116 0.
0.671998 0.085011 0.
0.673998 0.0850103 0.
0.675998 0.0850096 0.
0.677998 0.085009 0.
0.679998 0.0850089 0.
0.681999 0.0850087 0.
0.683999 0.0850087 0.
0.685999 0.0850087 0.
0.687999 0.0850088 0.
0.689999 0.0850091 0.
0.691999 0.0850095 0.
0.693999 0.0850099 0.
0.695999 0.0850102 0.
0.697999 0.0850105 0.
0.500001 0.087009 0.
0.502 0.0870092 0.
0.504 0.0870093 0.
0.505999 0.0870093 0.
0.508 0.0870087 0.
0.51 0.087008 0.
0.512 0.0870077 0.
0.514 0.0870078 0.
0.516 0.0870079 0.
0.518001 0.0870082 0.
0.52 0.0870087 0.
0.522 0.0870091 0.
0.524 0.087009 0.
0.526 0.0870088 0.
0.528 0.0870086 0.
0.530001 0.0870079 0.
0.532001 0.0870073 0.
0.534001 0.0870072 0.
0.536002 0.0870082 0.
0.538002 0.0870092 0.
0.540003 0.0870101 0.
0.542003 0.087011 0.
0.544003 0.0870119 0.
0.546003 0.0870118 0.
0.548003 0.0870116 0.
0.550003 0.0870113 0.
0.552003 0.0870104 0.
0.554003 0.0870096 0.
0.556003 0.087009 0.
0.558003 0.0870094 0.
0.560003 0.0870098 0.
0.562003 0.0870101 0.
0.564003 0.0870101 0.
0.566003 0.0870101 0.
0.568003 0.0870101 0.
0.570003 0.0870102 0.
0.572003 0.0870102 0.
0.574002 0.0870103 0.
0.576002 0.0870105 0.
0.578002 0.0870105 0.
0.580001 0.0870104 0.
0.582001 0.0870103 0.
0.584001 0.0870104 0.
0.586001 0.0870106 0.
0.588001 0.0870109 0.
0.590001 0.0870113 0.
0.592 0.0870117 0.
0.594 0.0870121 0.
0.596 0.0870121 0.
0.598 0.0870121 0.
0.6 0.0870121 0.
0.602 0.0870119 0.
0.604 0.0870118 0.
0.606 0.0870118 0.
0.608 0.0870124 0.
0.61 0.087013 0.
0.611999 0.0870133 0.
0.613999 0.0870133 0.
0.615999 0.0870132 0.
0.617999 0.0870133 0.
0.619998 0.0870134 0.
0.621998 0.0870135 0.
0.623998 0.0870137 0.
0.625997 0.0870139 0.
0.627997 0.087014 0.
0.629996 0.087013 0.
0.631996 0.0870119 0.
0.633996 0.0870113 0.
0.635997 0.0870116 0.
0.637997 0.0870119 0.
0.639997 0.0870121 0.
0.641997 0.087012 0.
0.643997 0.087012 0.
0.645997 0.0870116 0.
0.647997 0.0870111 0.
0.649997 0.0870105 0.
0.651997 0.0870113 0.
0.653997 0.087012 0.
0.655997 0.0870125 0.
0.657997 0.0870123 0.
0.659997 0.087012 0.
0.661997 0.087012 0.
0.663997 0.0870122 0.
0.665998 0.0870125 0.
0.667998 0.0870122 0.
0.669998 0.0870116 0.
0.671998 0.087011 0.
0.673998 0.0870103 0.
0.675998 0.0870096 0.
0.677998 0.087009 0.
0.679998 0.0870089 0.
0.681998 0.0870088 0.
0.683998 0.0870088 0.
0.685998 0.087009 0.
0.687998 0.0870092 0.
0.689999 0.0870095 0.
0.691999 0.0870098 0.
0.693999 0.0870101 0.
0.695999 0.0870104 0.
0.697999 0.0870107 0.
0.500001 0.0890096 0.
0.502001 0.0890094 0.
0.504 0.0890092 0.
0.506 0.089009 0.
0.508 0.0890087 0.
0.510001 0.0890085 0.
0.512001 0.0890082 0.
0.514 0.0890079 0.
0.516 0.0890076 0.
0.518 0.0890079 0.
0.52 0.0890086 0.
0.522 0.0890092 0.
0.524 0.089009 0.
0.526 0.0890087 0.
0.528001 0.0890084 0.
0.530001 0.0890078 0.
0.532001 0.0890072 0.
0.534001 0.0890071 0.
0.536002 0.0890079 0.
0.538002 0.0890087 0.
0.540002 0.0890095 0.
0.542003 0.0890103 0.
0.544003 0.0890111 0.
0.546003 0.0890113 0.
0.548003 0.0890113 0.
0.550003 0.0890113 0.
0.552003 0.0890103 0.
0.554003 0.0890094 0.
0.556003 0.0890087 0.
0.558002 0.0890093 0.
0.560002 0.08901 0.
0.562002 0.0890102 0.
0.564003 0.08901 0.
0.566003 0.0890098 0.
0.568003 0.08901 0.
0.570003 0.0890103 0.
0.572003 0.0890107 0.
0.574002 0.0890107 0.
0.576001 0.0890107 0.
0.578001 0.0890107 0.
0.580001 0.0890105 0.
0.582 0.0890103 0.
0.584 0.0890103 0.
0.586001 0.0890108 0.
0.588001 0.0890112 0.
0.590001 0.0890115 0.
0.592001 0.0890118 0.
0.594 0.089012 0.
0.596 0.0890121 0.
0.598 0.089012 0.
0.6 0.089012 0.
0.602 0.089012 0.
0.604 0.089012 0.
0.606 0.0890121 0.
0.607999 0.0890123 0.
0.609999 0.0890125 0.
0.611999 0.0890128 0.
0.613998 0.089013 0.
0.615998 0.0890133 0.
0.617998 0.0890135 0.
0.619998 0.0890137 0.
0.621997 0.089014 0.
0.623997 0.0890139 0.
0.625997 0.0890138 0.
0.627996 0.0890136 0.
0.629996 0.0890128 0.
0.631996 0.0890119 0.
0.633996 0.0890115 0.
0.635996 0.0890116 0.
0.637997 0.0890118 0.
0.639997 0.0890119 0.
0.641996 0.089012 0.
0.643996 0.089012 0.
0.645997 0.0890117 0.
0.647997 0.0890112 0.
0.649998 0.0890108 0.
0.651997 0.0890116 0.
0.653997 0.0890125 0.
0.655997 0.0890131 0.
0.657997 0.0890127 0.
0.659997 0.0890123 0.
0.661997 0.0890122 0.
0.663998 0.0890122 0.
0.665998 0.0890123 0.
0.667998 0.089012 0.
0.669998 0.0890115 0.
0.671998 0.089011 0.
0.673998 0.0890103 0.
0.675998 0.0890096 0.
0.677998 0.089009 0.
0.679997 0.0890089 0.
0.681997 0.0890088 0.
0.683997 0.0890089 0.
0.685997 0.0890092 0.
0.687998 0.0890096 0.
0.689998 0.0890099 0.
0.691998 0.0890101 0.
0.693999 0.0890103 0.
0.695999 0.0890106 0.
0.697998 0.0890109 0.
0.500001 0.0910096 0.
0.502001 0.0910094 0.
0.504001 0.0910091 0.
0.506 0.0910089 0.
0.508001 0.0910089 0.
0.510001 0.0910089 0.
0.512001 0.0910087 0.
0.514001 0.0910082 0.
0.516 0.0910077 0.
0.518 0.0910079 0.
0.52 0.0910084 0.
0.521999 0.0910089 0.
0.524 0.0910088 0.
0.526001 0.0910086 0.
0.528001 0.0910084 0.
0.530001 0.0910078 0.
0.532001 0.0910073 0.
0.534001 0.0910071 0.
0.536002 0.0910078 0.
0.538002 0.0910085 0.
0.540002 0.0910092 0.
0.542003 0.0910099 0.
0.544003 0.0910106 0.
0.546003 0.0910108 0.
0.548003 0.091011 0.
0.550003 0.0910111 0.
0.552003 0.0910104 0.
0.554003 0.0910096 0.
0.556003 0.0910091 0.
0.558002 0.0910095 0.
0.560002 0.0910098 0.
0.562002 0.09101 0.
0.564002 0.09101 0.
0.566003 0.0910099 0.
0.568003 0.0910101 0.
0.570002 0.0910105 0.
0.572002 0.0910109 0.
0.574002 0.0910109 0.
0.576001 0.0910109 0.
0.578001 0.0910108 0.
0.58 0.0910105 0.
0.582 0.0910102 0.
0.584 0.0910101 0.
0.586 0.0910106 0.
0.588001 0.091011 0.
0.590001 0.0910115 0.
0.592 0.091012 0.
0.594 0.0910124 0.
0.596 0.0910123 0.
0.598 0.0910121 0.
0.6 0.0910118 0.
0.602 0.0910119 0.
0.604 0.0910121 0.
0.605999 0.0910123 0.
0.607999 0.0910123 0.
0.609999 0.0910124 0.
0.611998 0.0910126 0.
0.613998 0.0910129 0.
0.615997 0.0910131 0.
0.617997 0.0910134 0.
0.619997 0.0910138 0.
0.621997 0.0910142 0.
0.623997 0.091014 0.
0.625996 0.0910136 0.
0.627996 0.0910133 0.
0.629996 0.0910126 0.
0.631996 0.091012 0.
0.633996 0.0910116 0.
0.635996 0.0910115 0.
0.637996 0.0910114 0.
0.639996 0.0910115 0.
0.641996 0.0910116 0.
0.643996 0.0910118 0.
0.645997 0.0910117 0.
0.647997 0.0910114 0.
0.649997 0.0910111 0.
0.651997 0.091012 0.
0.653997 0.0910128 0.
0.655997 0.0910134 0.
0.657997 0.091013 0.
0.659997 0.0910125 0.
0.661997 0.0910123 0.
0.663998 0.0910123 0.
0.665998 0.0910123 0.
0.667998 0.0910119 0.
0.669998 0.0910114 0.
0.671999 0.0910108 0.
0.673998 0.0910103 0.
0.675998 0.0910097 0.
0.677997 0.0910092 0.
0.679997 0.0910091 0.
0.681997 0.0910091 0.
0.683997 0.0910091 0.
0.685997 0.0910094 0.
0.687997 0.0910097 0.
0.689998 0.09101 0.
0.691998 0.0910103 0.
0.693998 0.0910106 0.
0.695998 0.0910109 0.
0.697998 0.0910112 0.
0.500001 0.0930094 0.
0.502001 0.0930092 0.
0.504001 0.0930091 0.
0.506001 0.0930091 0.
0.508001 0.0930091 0.
0.510001 0.0930092 0.
0.512001 0.093009 0.
0.514001 0.0930086 0.
0.516 0.0930082 0.
0.518 0.0930081 0.
0.52 0.0930082 0.
0.522 0.0930083 0.
0.524001 0.0930084 0.
0.526001 0.0930085 0.
0.528002 0.0930086 0.
0.530002 0.093008 0.
0.532002 0.0930074 0.
0.534002 0.0930073 0.
0.536002 0.093008 0.
0.538002 0.0930088 0.
0.540002 0.0930093 0.
0.542002 0.0930098 0.
0.544003 0.0930103 0.
0.546003 0.0930105 0.
0.548003 0.0930107 0.
0.550003 0.0930109 0.
0.552003 0.0930106 0.
0.554003 0.0930103 0.
0.556003 0.09301 0.
0.558002 0.0930098 0.
0.560002 0.0930095 0.
0.562002 0.0930096 0.
0.564002 0.0930099 0.
0.566002 0.0930102 0.
0.568002 0.0930105 0.
0.570002 0.0930107 0.
0.572002 0.093011 0.
0.574001 0.093011 0.
0.576001 0.093011 0.
0.578001 0.0930109 0.
0.58 0.0930104 0.
0.582 0.0930099 0.
0.583999 0.0930097 0.
0.586 0.0930101 0.
0.588 0.0930105 0.
0.59 0.0930112 0.
0.592 0.0930122 0.
0.594 0.0930132 0.
0.595999 0.0930129 0.
0.597999 0.0930122 0.
0.599999 0.0930115 0.
0.601999 0.0930118 0.
0.603999 0.093012 0.
0.605999 0.0930122 0.
0.607998 0.0930124 0.
0.609998 0.0930126 0.
0.611998 0.0930128 0.
0.613997 0.0930128 0.
0.615997 0.0930127 0.
0.617997 0.0930131 0.
0.619997 0.0930137 0.
0.621997 0.0930142 0.
0.623997 0.0930139 0.
0.625996 0.0930136 0.
0.627996 0.0930132 0.
0.629996 0.0930127 0.
0.631996 0.0930121 0.
0.633996 0.0930116 0.
0.635996 0.0930112 0.
0.637996 0.0930107 0.
0.639996 0.0930107 0.
0.641996 0.093011 0.
0.643996 0.0930114 0.
0.645996 0.0930115 0.
0.647997 0.0930115 0.
0.649997 0.0930116 0.
0.651997 0.0930123 0.
0.653997 0.0930131 0.
0.655997 0.0930136 0.
0.657997 0.0930131 0.
0.659997 0.0930126 0.
0.661997 0.0930123 0.
0.663998 0.0930123 0.
0.665998 0.0930122 0.
0.667998 0.0930118 0.
0.669999 0.0930111 0.
0.671999 0.0930105 0.
0.673999 0.0930101 0.
0.675998 0.0930098 0.
0.677997 0.0930095 0.
0.679997 0.0930095 0.
0.681997 0.0930095 0.
0.683997 0.0930095 0.
0.685997 0.0930095 0.
0.687997 0.0930095 0.
0.689997 0.0930098 0.
0.691997 0.0930103 0.
0.693997 0.0930109 0.
0.695998 0.0930112 0.
0.697998 0.0930115 0.
0.5 0.0950087 0.
0.502001 0.0950091 0.
0.504001 0.0950092 0.
0.506002 0.0950092 0.
0.508001 0.0950093 0.
0.510001 0.0950095 0.
0.512001 0.0950094 0.
0.514001 0.095009 0.
0.516001 0.0950087 0.
0.518001 0.0950084 0.
0.520001 0.095008 0.
0.522001 0.0950076 0.
0.524001 0.095008 0.
0.526002 0.0950084 0.
0.528002 0.0950088 0.
0.530002 0.0950082 0.
0.532002 0.0950076 0.
0.534002 0.0950075 0.
0.536002 0.0950082 0.
0.538001 0.095009 0.
0.540001 0.0950095 0.
0.542002 0.0950097 0.
0.544003 0.09501 0.
0.546003 0.0950102 0.
0.548002 0.0950104 0.
0.550002 0.0950106 0.
0.552002 0.0950108 0.
0.554003 0.095011 0.
0.556003 0.0950109 0.
0.558002 0.0950101 0.
0.560002 0.0950092 0.
0.562002 0.0950091 0.
0.564002 0.0950098 0.
0.566002 0.0950105 0.
0.568002 0.0950108 0.
0.570001 0.095011 0.
0.572001 0.0950111 0.
0.574001 0.0950111 0.
0.576001 0.0950111 0.
0.578002 0.095011 0.
0.580001 0.0950103 0.
0.582 0.0950096 0.
0.583999 0.0950093 0.
0.585999 0.0950096 0.
0.588 0.09501 0.
0.59 0.095011 0.
0.591999 0.0950125 0.
0.593999 0.095014 0.
0.595999 0.0950135 0.
0.597998 0.0950124 0.
0.599998 0.0950113 0.
0.601998 0.0950116 0.
0.603998 0.0950119 0.
0.605998 0.0950122 0.
0.607998 0.0950125 0.
0.609998 0.0950128 0.
0.611997 0.0950129 0.
0.613997 0.0950126 0.
0.615997 0.0950124 0.
0.617997 0.0950128 0.
0.619997 0.0950135 0.
0.621997 0.0950142 0.
0.623997 0.0950139 0.
0.625996 0.0950135 0.
0.627996 0.0950131 0.
0.629996 0.0950127 0.
0.631996 0.0950122 0.
0.633996 0.0950117 0.
0.635996 0.0950109 0.
0.637995 0.09501 0.
0.639995 0.09501 0.
0.641996 0.0950104 0.
0.643996 0.0950109 0.
0.645996 0.0950113 0.
0.647996 0.0950117 0.
0.649996 0.095012 0.
0.651996 0.0950127 0.
0.653996 0.0950133 0.
0.655997 0.0950138 0.
0.657997 0.0950132 0.
0.659997 0.0950127 0.
0.661997 0.0950124 0.
0.663998 0.0950123 0.
0.665998 0.0950122 0.
0.667998 0.0950117 0.
0.669999 0.0950109 0.
0.672 0.0950101 0.
0.673999 0.09501 0.
0.675998 0.0950099 0.
0.677997 0.0950099 0.
0.679997 0.0950099 0.
0.681998 0.0950099 0.
0.683998 0.0950098 0.
0.685997 0.0950096 0.
0.687996 0.0950093 0.
0.689996 0.0950096 0.
0.691996 0.0950104 0.
0.693996 0.0950112 0.
0.695997 0.0950116 0.
0.697998 0.0950119 0.
0.500002 0.0970094 0.
0.502002 0.0970095 0.
0.504002 0.0970094 0.
0.506002 0.0970094 0.
0.508002 0.0970095 0.
0.510001 0.0970095 0.
0.512001 0.0970095 0.
0.514002 0.0970092 0.
0.516002 0.097009 0.
0.518001 0.0970087 0.
0.520001 0.0970082 0.
0.522 0.0970078 0.
0.524001 0.0970081 0.
0.526001 0.0970085 0.
0.528001 0.0970088 0.
0.530001 0.0970083 0.
0.532001 0.0970077 0.
0.534001 0.0970076 0.
0.536001 0.0970084 0.
0.538001 0.0970091 0.
0.540001 0.0970095 0.
0.542002 0.0970097 0.
0.544002 0.0970098 0.
0.546002 0.09701 0.
0.548002 0.0970103 0.
0.550002 0.0970106 0.
0.552003 0.0970106 0.
0.554003 0.0970105 0.
0.556003 0.0970103 0.
0.558003 0.0970096 0.
0.560002 0.097009 0.
0.562002 0.0970089 0.
0.564002 0.0970095 0.
0.566002 0.0970101 0.
0.568002 0.0970105 0.
0.570002 0.0970108 0.
0.572002 0.0970111 0.
0.574002 0.0970113 0.
0.576001 0.0970114 0.
0.578001 0.0970115 0.
0.580001 0.0970106 0.
0.582 0.0970097 0.
0.584 0.0970092 0.
0.585999 0.0970096 0.
0.587999 0.09701 0.
0.589999 0.097011 0.
0.591998 0.0970127 0.
0.593998 0.0970144 0.
0.595998 0.097014 0.
0.597999 0.0970131 0.
0.599999 0.0970121 0.
0.601999 0.0970121 0.
0.603999 0.0970121 0.
0.605998 0.0970122 0.
0.607998 0.0970123 0.
0.609998 0.0970124 0.
0.611997 0.0970125 0.
0.613997 0.0970124 0.
0.615997 0.0970123 0.
0.617997 0.0970126 0.
0.619997 0.0970131 0.
0.621998 0.0970137 0.
0.623997 0.0970135 0.
0.625997 0.0970133 0.
0.627997 0.097013 0.
0.629996 0.0970121 0.
0.631996 0.0970112 0.
0.633996 0.0970106 0.
0.635996 0.0970105 0.
0.637996 0.0970104 0.
0.639996 0.0970105 0.
0.641996 0.0970108 0.
0.643996 0.0970111 0.
0.645996 0.0970115 0.
0.647996 0.0970119 0.
0.649996 0.0970122 0.
0.651997 0.0970127 0.
0.653997 0.0970132 0.
0.655997 0.0970134 0.
0.657997 0.0970129 0.
0.659997 0.0970123 0.
0.661998 0.0970121 0.
0.663998 0.0970121 0.
0.665999 0.0970122 0.
0.667999 0.0970117 0.
0.669999 0.097011 0.
0.672 0.0970103 0.
0.673999 0.09701 0.
0.675999 0.0970097 0.
0.677998 0.0970096 0.
0.679998 0.0970098 0.
0.681997 0.0970101 0.
0.683997 0.0970102 0.
0.685997 0.09701 0.
0.687996 0.0970098 0.
0.689996 0.0970099 0.
0.691996 0.0970104 0.
0.693995 0.0970109 0.
0.695996 0.0970112 0.
0.697997 0.0970113 0.
0.500004 0.0990098 0.
0.502004 0.0990098 0.
0.504003 0.0990097 0.
0.506003 0.0990096 0.
0.508002 0.0990096 0.
0.510002 0.0990096 0.
0.512002 0.0990096 0.
0.514002 0.0990094 0.
0.516003 0.0990093 0.
0.518002 0.099009 0.
0.520001 0.0990085 0.
0.522 0.099008 0.
0.524 0.0990083 0.
0.526 0.0990086 0.
0.528001 0.0990089 0.
0.530001 0.0990084 0.
0.532001 0.0990079 0.
0.534001 0.0990078 0.
0.536001 0.0990085 0.
0.538001 0.0990093 0.
0.540002 0.0990096 0.
0.542001 0.0990096 0.
0.544001 0.0990096 0.
0.546002 0.0990099 0.
0.548002 0.0990103 0.
0.550003 0.0990106 0.
0.552003 0.0990103 0.
0.554003 0.09901 0.
0.556003 0.0990097 0.
0.558003 0.0990092 0.
0.560003 0.0990088 0.
0.562003 0.0990087 0.
0.564002 0.0990092 0.
0.566001 0.0990097 0.
0.568001 0.0990101 0.
0.570002 0.0990106 0.
0.572002 0.0990111 0.
0.574002 0.0990114 0.
0.576001 0.0990118 0.
0.578001 0.0990119 0.
0.580001 0.0990109 0.
0.582001 0.0990098 0.
0.584 0.0990092 0.
0.586 0.0990096 0.
0.587999 0.0990099 0.
0.589998 0.0990111 0.
0.591998 0.099013 0.
0.593997 0.0990148 0.
0.595998 0.0990146 0.
0.597999 0.0990138 0.
0.6 0.099013 0.
0.602 0.0990127 0.
0.603999 0.0990124 0.
0.605998 0.0990121 0.
0.607998 0.0990121 0.
0.609998 0.099012 0.
0.611997 0.099012 0.
0.613998 0.0990121 0.
0.615998 0.0990121 0.
0.617998 0.0990124 0.
0.619998 0.0990128 0.
0.621998 0.0990132 0.
0.623998 0.0990132 0.
0.625998 0.0990131 0.
0.627998 0.099013 0.
0.629997 0.0990116 0.
0.631996 0.0990102 0.
0.633996 0.0990095 0.
0.635996 0.0990101 0.
0.637996 0.0990108 0.
0.639996 0.0990111 0.
0.641996 0.0990112 0.
0.643995 0.0990113 0.
0.645996 0.0990116 0.
0.647996 0.0990121 0.
0.649997 0.0990125 0.
0.651997 0.0990127 0.
0.653997 0.099013 0.
0.655997 0.099013 0.
0.657998 0.0990125 0.
0.659998 0.099012 0.
0.661998 0.0990118 0.
0.663999 0.099012 0.
0.666 0.0990122 0.
0.668 0.0990118 0.
0.67 0.0990111 0.
0.672 0.0990104 0.
0.673999 0.0990099 0.
0.675999 0.0990095 0.
0.677999 0.0990092 0.
0.679998 0.0990098 0.
0.681997 0.0990103 0.
0.683997 0.0990106 0.
0.685997 0.0990104 0.
0.687997 0.0990102 0.
0.689996 0.0990103 0.
0.691995 0.0990105 0.
0.693994 0.0990107 0.
0.695995 0.0990107 0.
0.697995 0.0990108 0.
CELLS 5000 10000
1 0
1 1
1 2
1 3
1 4
1 5
1 6
1 7
1 8
1 9
1 10
1 11
1 12
1 13
1 14
1 15
1 16
1 17
1 18
1 19
1 20
1 21
1 22
1 23
1 24
1 25
1 26
1 27
1 28
1 29
1 30
1 31
1 32
1 33
1 34
1 35
1 36
1 37
1 38
1 39
1 40
1 41
1 42
1 43
1 44
1 45
1 46
1 47
1 48
1 49
1 50
1 51
1 52
1 53
1 54
1 55
1 56
1 57
1 58
1 59
1 60
1 61
1 62
1 63
1 64
1 65
1 66
1 67
1 68
1 69
1 70
1 71
1 72
1 73
1 74
1 75
1 76
1 77
1 78
1 79
1 80
1 81
1 82
1 83
1 84
1 85
1 86
1 87
1 88
1 89
1 90
1 91
1 92
1 93
1 94
1 95
1 96
1 97
1 98
1 99
1 100
1 101
1 102
1 103
1 104
1 105
1 106
1 107
1 108
1 109
1 110
1 111
1 112
1 113
1 114
1 115
1 116
1 117
1 118
1 119
1 120
1 121
1 122
1 123
1 124
1 125
1 126
1 127
1 128
1 129
1 130
1 131
1 132
1 133
1 134
1 135
1 136
1 137
1 138
1 139
1 140
1 141
1 142
1 143
1 144
1 145
1 146
1 147
1 148
1 149
1 150
1 151
1 152
1 153
1 154
1 155
1 156
1 157
1 158
1 159
1 160
1 161
1 162
1 163
1 164
1 165
1 166
1 167
1 168
1 169
1 170
1 171
1 172
1 173
1 174
1 175
1 176
1 177
1 178
1 179
1 180
1 181
1 182
1 183
1 184
1 185
1 186
1 187
1 188
1 189
1 190
1 191
1 192
1 193
1 194
1 195
1 196
1 197
1 198
1 199
1 200
1 201
1 202
1 203
1 204
1 205
1 206
1 207
1 208
1 209
1 210
1 211
1 212
1 213
1 214
1 215
1 216
1 217
1 218
1 219
1 220
1 221
1 222
1 223
1 224
1 225
1 226
1 227
1 228
1 229
1 230
1 231
1 232
1 233
1 234
1 235
1 236
1 237
1 238
1 239
1 240
1 241
1 242
1 243
1 244
1 245
1 246
1 247
1 248
1 249
1 250
1 251
1 252
1 253
1 254
1 255
1 256
1 257
1 258
1 259
1 260
1 261
1 262
1 263
1 264
1 265
1 266
1 267
1 268
1 269
1 270
1 271
1 272
1 273
1 274
1 275
1 276
1 277
1 278
1 279
1 280
1 281
1 282
1 283
1 284
1 285
1 286
1 287
1 288
1 289
1 290
1 291
1 292
1 293
1 294
1 295
1 296
1 297
1 298
1 299
1 300
1 301
1 302
1 303
1 304
1 305
1 306
1 307
1 308
1 309
1 310
1 311
1 312
1 313
1 314
1 315
1 316
1 317
1 318
1 319
1 320
1 321
1 322
1 323
1 324
1 325
1 326
1 327
1 328
1 329
1 330
1 331
1 332
1 333
1 334
1 335
1 336
1 337
1 338
1 339
1 340
1 341
1 342
1 343
1 344
1 345
1 346
1 347
1 348
1 349
1 350
1 351
1 352
1 353
1 354
1 355
1 356
1 357
1 358
1 359
1 360
1 361
1 362
1 363
1 364
1 365
1 366
1 367
1 368
1 369
1 370
1 371
1 372
1 373
1 374
1 375
1 376
1 377
1 378
1 379
1 380
1 381
1 382
1 383
1 384
1 385
1 386
1 387
1 388
1 389
1 390
1 391
1 392
1 393
1 394
1 395
1 396
1 397
1 398
1 399
1 400
1 401
1 402
1 403
1 404
1 405
1 406
1 407
1 408
1 409
1 410
1 411
1 412
1 413
1 414
1 415
1 416
1 417
1 418
1 419
1 420
1 421
1 422
1 423
1 424
1 425
1 426
1 427
1 428
1 429
1 430
1 431
1 432
1 433
1 434
1 435
1 436
1 437
1 438
1 439
1 440
1 441
1 442
1 443
1 444
1 445
1 446
1 447
1 448
1 449
1 450
1 451
1 452
1 453
1 454
1 455
1 456
1 457
1 458
1 459
1 460
1 461
1 462
1 463
1 464
1 465
1 466
1 467
1 468
1 469
1 470
1 471
1 472
1 473
1 474
1 475
1 476
1 477
1 478
1 479
1 480
1 481
1 482
1 483
1 484
1 485
1 486
1 487
1 488
1 489
1 490
1 491
1 492
1 493
1 494
1 495
1 496
1 497
1 498
1 499
1 500
1 501
1 502
1 503
1 504
1 505
1 506
1 507
1 508
1 509
1 510
1 511
1 512
1 513
1 514
1 515
1 516
1 517
1 518
1 519
1 520
1 521
1 522
1 523
1 524
1 525
1 526
1 527
1 528
1 529
1 530
1 531
1 532
1 533
1 534
1 535
1 536
1 537
1 538
1 539
1 540
1 541
1 542
1 543
1 544
1 545
1 546
1 547
1 548
1 549
1 550
1 551
1 552
1 553
1 554
1 555
1 556
1 557
1 558
1 559
1 560
1 561
1 562
1 563
1 564
1 565
1 566
1 567
1 568
1 569
1 570
1 571
1 572
1 573
1 574
1 575
1 576
1 577
1 578
1 579
1 580
1 581
1 582
1 583
1 584
1 585
1 586
1 587
1 588
1 589
1 590
1 591
1 592
1 593
1 594
1 595
1 596
1 597
1 598
1 599
1 600
1 601
1 602
1 603
1 604
1 605
1 606
1 607
1 608
1 609
1 610
1 611
1 612
1 613
1 614
1 615
1 616
1 617
1 618
1 619
1 620
1 621
1 622
1 623
1 624
1 625
1 626
1 627
1 628
1 629
1 630
1 631
1 632
1 633
1 634
1 635
1 636
1 637
1 638
1 639
1 640
1 641
1 642
1 643
1 644
1 645
1 646
1 647
1 648
1 649
1 650
1 651
1 652
1 653
1 654
1 655
1 656
1 657
1 658
1 659
1 660
1 661
1 662
1 663
1 664
1 665
1 666
1 667
1 668
1 669
1 670
1 671
1 672
1 673
1 674
1 675
1 676
1 677
1 678
1 679
1 680
1 681
1 682
1 683
1 684
1 685
1 686
1 687
1 688
1 689
1 690
1 691
1 692
1 693
1 694
1 695
1 696
1 697
1 698
1 699
1 700
1 701
1 702
1 703
1 704
1 705
1 706
1 707
1 708
1 709
1 710
1 711
1 712
1 713
1 714
1 715
1 716
1 717
1 718
1 719
1 720
1 721
1 722
1 723
1 724
1 725
1 726
1 727
1 728
1 729
1 730
1 731
1 732
1 733
1 734
1 735
1 736
1 737
1 738
1 739
1 740
1 741
1 742
1 743
1 744
1 745
1 746
1 747
1 748
1 749
1 750
1 751
1 752
1 753
1 754
1 755
1 756
1 757
1 758
1 759
1 760
1 761
1 762
1 763
1 764
1 765
1 766
1 767
1 768
1 769
1 770
1 771
1 772
1 773
1 774
1 775
1 776
1 777
1 778
1 779
1 780
1 781
1 782
1 783
1 784
1 785
1 786
1 787
1 788
1 789
1 790
1 791
1 792
1 793
1 794
1 795
1 796
1 797
1 798
1 799
1 800
1 801
1 802
1 803
1 804
1 805
1 806
1 807
1 808
1 809
1 810
1 811
1 812
1 813
1 814
1 815
1 816
1 817
1 818
1 819
1 820
1 821
1 822
1 823
1 824
1 825
1 826
1 827
1 828
1 829
1 830
1 831
1 832
1 833
1 834
1 835
1 836
1 837
1 838
1 839
1 840
1 841
1 842
1 843
1 844
1 845
1 846
1 847
1 848
1 849
1 850
1 851
1 852
1 853
1 854
1 855
1 856
1 857
1 858
1 859
1 860
1 861
1 862
1 863
1 864
1 865
1 866
1 867
1 868
1 869
1 870
1 871
1 872
1 873
1 874
1 875
1 876
1 877
1 878
1 879
1 880
1 881
1 882
1 883
1 884
1 885
1 886
1 887
1 888
1 889
1 890
1 891
1 892
1 893
1 894
1 895
1 896
1 897
1 898
1 899
1 900
1 901
1 902
1 903
1 904
1 905
1 906
1 907
1 908
1 909
1 910
1 911
1 912
1 913
1 914
1 915
1 916
1 917
1 918
1 919
1 920
1 921
1 922
1 923
1 924
1 925
1 926
1 927
1 928
1 929
1 930
1 931
1 932
1 933
1 934
1 935
1 936
1 937
1 938
1 939
1 940
1 941
1 942
1 943
1 944
1 945
1 946
1 947
1 948
1 949
1 950
1 951
1 952
1 953
1 954
1 955
1 956
1 957
1 958
1 959
1 960
1 961
1 962
1 963
1 964
1 965
1 966
1 967
1 968
1 969
1 970
1 971
1 972
1 973
1 974
1 975
1 976
1 977
1 978
1 979
1 980
1 981
1 982
1 983
1 984
1 985
1 986
1 987
1 988
1 989
1 990
1 991
1 992
1 993
1 994
1 995
1 996
1 997
1 998
1 999
1 1000
1 1001
1 1002
1 1003
1 1004
1 1005
1 1006
1 1007
1 1008
1 1009
1 1010
1 1011
1 1012
1 1013
1 1014
1 1015
1 1016
1 1017
1 1018
1 1019
1 1020
1 1021
1 1022
1 1023
1 1024
1 1025
1 1026
1 1027
1 1028
1 1029
1 1030
1 1031
1 1032
1 1033
1 1034
1 1035
1 1036
1 1037
1 1038
1 1039
1 1040
1 1041
1 1042
1 1043
1 1044
1 1045
1 1046
1 1047
1 1048
1 1049
1 1050
1 1051
1 1052
1 1053
1 1054
1 1055
1 1056
1 1057
1 1058
1 1059
1 1060
1 1061
1 1062
1 1063
1 1064
1 1065
1 1066
1 1067
1 1068
1 1069
1 1070
1 1071
1 1072
1 1073
1 1074
1 1075
1 1076
1 1077
1 1078
1 1079
1 1080
1 1081
1 1082
1 1083
1 1084
1 1085
1 1086
1 1087
1 1088
1 1089
1 1090
1 1091
1 1092
1 1093
1 1094
1 1095
1 1096
1 1097
1 1098
1 1099
1 1100
1 1101
1 1102
1 1103
1 1104
1 1105
1 1106
1 1107
1 1108
1 1109
1 1110
1 1111
1 1112
1 1113
1 1114
1 1115
1 1116
1 1117
1 1118
1 1119
1 1120
1 1121
1 1122
1 1123
1 1124
1 1125
1 1126
1 1127
1 1128
1 1129
1 1130
1 1131
1 1132
1 1133
1 1134
1 1135
1 1136
1 1137
1 1138
1 1139
1 1140
1 1141
1 1142
1 1143
1 1144
1 1145
1 1146
1 1147
1 1148
1 1149
1 1150
1 1151
1 1152
1 1153
1 1154
1 1155
1 1156
1 1157
1 1158
1 1159
1 1160
1 1161
1 1162
1 1163
1 1164
1 1165
1 1166
1 1167
1 1168
1 1169
1 1170
1 1171
1 1172
1 1173
1 1174
1 1175
1 1176
1 1177
1 1178
1 1179
1 1180
1 1181
1 1182
1 1183
1 1184
1 1185
1 1186
1 1187
1 1188
1 1189
1 1190
1 1191
1 1192
1 1193
1 1194
1 1195
1 1196
1 1197
1 1198
1 1199
1 1200
1 1201
1 1202
1 1203
1 1204
1 1205
1 1206
1 1207
1 1208
1 1209
1 1210
1 1211
1 1212
1 1213
1 1214
1 1215
1 1216
1 1217
1 1218
1 1219
1 1220
1 1221
1 1222
1 1223
1 1224
1 1225
1 1226
1 1227
1 1228
1 1229
1 1230
1 1231
1 1232
1 1233
1 1234
1 1235
1 1236
1 1237
1 1238
1 1239
1 1240
1 1241
1 1242
1 1243
1 1244
1 1245
1 1246
1 1247
1 1248
1 1249
1 1250
1 1251
1 1252
1 1253
1 1254
1 1255
1 1256
1 1257
1 1258
1 1259
1 1260
1 1261
1 1262
1 1263
1 1264
1 1265
1 1266
1 1267
1 1268
1 1269
1 1270
1 1271
1 1272
1 1273
1 1274
1 1275
1 1276
1 1277
1 1278
1 1279
1 1280
1 1281
1 1282
1 1283
1 1284
1 1285
1 1286
1 1287
1 1288
1 1289
1 1290
1 1291
1 1292
1 1293
1 1294
1 1295
1 1296
1 1297
1 1298
1 1299
1 1300
1 1301
1 1302
1 1303
1 1304
1 1305
1 1306
1 1307
1 1308
1 1309
1 1310
1 1311
1 1312
1 1313
1 1314
1 1315
1 1316
1 1317
1 1318
1 1319
1 1320
1 1321
1 1322
1 1323
1 1324
1 1325
1 1326
1 1327
1 1328
1 1329
1 1330
1 1331
1 1332
1 1333
1 1334
1 1335
1 1336
1 1337
1 1338
1 1339
1 1340
1 1341
1 1342
1 1343
1 1344
1 1345
1 1346
1 1347
1 1348
1 1349
1 1350
1 1351
1 1352
1 1353
1 1354
1 1355
1 1356
1 1357
1 1358
1 1359
1 1360
1 1361
1 1362
1 1363
1 1364
1 1365
1 1366
1 1367
1 1368
1 1369
1 1370
1 1371
1 1372
1 1373
1 1374
1 1375
1 1376
1 1377
1 1378
1 1379
1 1380
1 1381
1 1382
1 1383
1 1384
1 1385
1 1386
1 1387
1 1388
1 1389
1 1390
1 1391
1 1392
1 1393
1 1394
1 1395
1 1396
1 1397
1 1398
1 1399
1 1400
1 1401
1 1402
1 1403
1 1404
1 1405
1 1406
1 1407
1 1408
1 1409
1 1410
1 1411
1 1412
1 1413
1 1414
1 1415
1 1416
1 1417
1 1418
1 1419
1 1420
1 1421
1 1422
1 1423
1 1424
1 1425
1 1426
1 1427
1 1428
1 1429
1 1430
1 1431
1 1432
1 1433
1 1434
1 1435
1 1436
1 1437
1 1438
1 1439
1 1440
1 1441
1 1442
1 1443
1 1444
1 1445
1 1446
1 1447
1 1448
1 1449
1 1450
1 1451
1 1452
1 1453
1 1454
1 1455
1 1456
1 1457
1 1458
1 1459
1 1460
1 1461
1 1462
1 1463
1 1464
1 1465
1 1466
1 1467
1 1468
1 1469
1 1470
1 1471
1 1472
1 1473
1 1474
1 1475
1 1476
1 1477
1 1478
1 1479
1 1480
1 1481
1 1482
1 1483
1 1484
1 1485
1 1486
1 1487
1 1488
1 1489
1 1490
1 1491
1 1492
1 1493
1 1494
1 1495
1 1496
1 1497
1 1498
1 1499
1 1500
1 1501
1 1502
1 1503
1 1504
1 1505
1 1506
1 1507
1 1508
1 1509
1 1510
1 1511
1 1512
1 1513
1 1514
1 1515
1 1516
1 1517
1 1518
1 1519
1 1520
1 1521
1 1522
1 1523
1 1524
1 1525
1 1526
1 1527
1 1528
1 1529
1 1530
1 1531
1 1532
1 1533
1 1534
1 1535
1 1536
1 1537
1 1538
1 1539
1 1540
1 1541
1 1542
1 1543
1 1544
1 1545
1 1546
1 1547
1 1548
1 1549
1 1550
1 1551
1 1552
1 1553
1 1554
1 1555
1 1556
1 1557
1 1558
1 1559
1 1560
1 1561
1 1562
1 1563
1 1564
1 1565
1 1566
1 1567
1 1568
1 1569
1 1570
1 1571
1 1572
1 1573
1 1574
1 1575
1 1576
1 1577
1 1578
1 1579
1 1580
1 1581
1 1582
1 1583
1 1584
1 1585
1 1586
1 1587
1 1588
1 1589
1 1590
1 1591
1 1592
1 1593
1 1594
1 1595
1 1596
1 1597
1 1598
1 1599
1 1600
1 1601
1 1602
1 1603
1 1604
1 1605
1 1606
1 1607
1 1608
1 1609
1 1610
1 1611
1 1612
1 1613
1 1614
1 1615
1 1616
1 1617
1 1618
1 1619
1 1620
1 1621
1 1622
1 1623
1 1624
1 1625
1 1626
1 1627
1 1628
1 1629
1 1630
1 1631
1 1632
1 1633
1 1634
1 1635
1 1636
1 1637
1 1638
1 1639
1 1640
1 1641
1 1642
1 1643
1 1644
1 1645
1 1646
1 1647
1 1648
1 1649
1 1650
1 1651
1 1652
1 1653
1 1654
1 1655
1 1656
1 1657
1 1658
1 1659
1 1660
1 1661
1 1662
1 1663
1 1664
1 1665
1 1666
1 1667
1 1668
1 1669
1 1670
1 1671
1 1672
1 1673
1 1674
1 1675
1 1676
1 1677
1 1678
1 1679
1 1680
1 1681
1 1682
1 1683
1 1684
1 1685
1 1686
1 1687
1 1688
1 1689
1 1690
1 1691
1 1692
1 1693
1 1694
1 1695
1 1696
1 1697
1 1698
1 1699
1 1700
1 1701
1 1702
1 1703
1 1704
1 1705
1 1706
1 1707
1 1708
1 1709
1 1710
1 1711
1 1712
1 1713
1 1714
1 1715
1 1716
1 1717
1 1718
1 1719
1 1720
1 1721
1 1722
1 1723
1 1724
1 1725
1 1726
1 1727
1 1728
1 1729
1 1730
1 1731
1 1732
1 1733
1 1734
1 1735
1 1736
1 1737
1 1738
1 1739
1 1740
1 1741
1 1742
1 1743
1 1744
1 1745
1 1746
1 1747
1 1748
1 1749
1 1750
1 1751
1 1752
1 1753
1 1754
1 1755
1 1756
1 1757
1 1758
1 1759
1 1760
1 1761
1 1762
1 1763
1 1764
1 1765
1 1766
1 1767
1 1768
1 1769
1 1770
1 1771
1 1772
1 1773
1 1774
1 1775
1 1776
1 1777
1 1778
1 1779
1 1780
1 1781
1 1782
1 1783
1 1784
1 1785
1 1786
1 1787
1 1788
1 1789
1 1790
1 1791
1 1792
1 1793
1 1794
1 1795
1 1796
1 1797
1 1798
1 1799
1 1800
1 1801
1 1802
1 1803
1 1804
1 1805
1 1806
1 1807
1 1808
1 1809
1 1810
1 1811
1 1812
1 1813
1 1814
1 1815
1 1816
1 1817
1 1818
1 1819
1 1820
1 1821
1 1822
1 1823
1 1824
1 1825
1 1826
1 1827
1 1828
1 1829
1 1830
1 1831
1 1832
1 1833
1 1834
1 1835
1 1836
1 1837
1 1838
1 1839
1 1840
1 1841
1 1842
1 1843
1 1844
1 1845
1 1846
1 1847
1 1848
1 1849
1 1850
1 1851
1 1852
1 1853
1 1854
1 1855
1 1856
1 1857
1 1858
1 1859
1 1860
1 1861
1 1862
1 1863
1 1864
1 1865
1 1866
1 1867
1 1868
1 1869
1 1870
1 1871
1 1872
1 1873
1 1874
1 1875
1 1876
1 1877
1 1878
1 1879
1 1880
1 1881
1 1882
1 1883
1 1884
1 1885
1 1886
1 1887
1 1888
1 1889
1 1890
1 1891
1 1892
1 1893
1 1894
1 1895
1 1896
1 1897
1 1898
1 1899
1 1900
1 1901
1 1902
1 1903
1 1904
1 1905
1 1906
1 1907
1 1908
1 1909
1 1910
1 1911
1 1912
1 1913
1 1914
1 1915
1 1916
1 1917
1 1918
1 1919
1 1920
1 1921
1 1922
1 1923
1 1924
1 1925
1 1926
1 1927
1 1928
1 1929
1 1930
1 1931
1 1932
1 1933
1 1934
1 1935
1 1936
1 1937
1 1938
1 1939
1 1940
1 1941
1 1942
1 1943
1 1944
1 1945
1 1946
1 1947
1 1948
1 1949
1 1950
1 1951
1 1952
1 1953
1 1954
1 1955
1 1956
1 1957
1 1958
1 1959
1 1960
1 1961
1 1962
1 1963
1 1964
1 1965
1 1966
1 1967
1 1968
1 1969
1 1970
1 1971
1 1972
1 1973
1 1974
1 1975
1 1976
1 1977
1 1978
1 1979
1 1980
1 1981
1 1982
1 1983
1 1984
1 1985
1 1986
1 1987
1 1988
1 1989
1 1990
1 1991
1 1992
1 1993
1 1994
1 1995
1 1996
1 1997
1 1998
1 1999
1 2000
1 2001
1 2002
1 2003
1 2004
1 2005
1 2006
1 2007
1 2008
1 2009
1 2010
1 2011
1 2012
1 2013
1 2014
1 2015
1 2016
1 2017
1 2018
1 2019
1 2020
1 2021
1 2022
1 2023
1 2024
1 2025
1 2026
1 2027
1 2028
1 2029
1 2030
1 2031
1 2032
1 2033
1 2034
1 2035
1 2036
1 2037
1 2038
1 2039
1 2040
1 2041
1 2042
1 2043
1 2044
1 2045
1 2046
1 2047
1 2048
1 2049
1 2050
1 2051
1 2052
1 2053
1 2054
1 2055
1 2056
1 2057
1 2058
1 2059
1 2060
1 2061
1 2062
1 2063
1 2064
1 2065
1 2066
1 2067
1 2068
1 2069
1 2070
1 2071
1 2072
1 2073
1 2074
1 2075
1 2076
1 2077
1 2078
1 2079
1 2080
1 2081
1 2082
1 2083
1 2084
1 2085
1 2086
1 2087
1 2088
1 2089
1 2090
1 2091
1 2092
1 2093
1 2094
1 2095
1 2096
1 2097
1 2098
1 2099
1 2100
1 2101
1 2102
1 2103
1 2104
1 2105
1 2106
1 2107
1 2108
1 2109
1 2110
1 2111
1 2112
1 2113
1 2114
1 2115
1 2116
1 2117
1 2118
1 2119
1 2120
1 2121
1 2122
1 2123
1 2124
1 2125
1 2126
1 2127
1 2128
1 2129
1 2130
1 2131
1 2132
1 2133
1 2134
1 2135
1 2136
1 2137
1 2138
1 2139
1 2140
1 2141
1 2142
1 2143
1 2144
1 2145
1 2146
1 2147
1 2148
1 2149
1 2150
1 2151
1 2152
1 2153
1 2154
1 2155
1 2156
1 2157
1 2158
1 2159
1 2160
1 2161
1 2162
1 2163
1 2164
1 2165
1 2166
1 2167
1 2168
1 2169
1 2170
1 2171
1 2172
1 2173
1 2174
1 2175
1 2176
1 2177
1 2178
1 2179
1 2180
1 2181
1 2182
1 2183
1 2184
1 2185
1 2186
1 2187
1 2188
1 2189
1 2190
1 2191
1 2192
1 2193
1 2194
1 2195
1 2196
1 2197
1 2198
1 2199
1 2200
1 2201
1 2202
1 2203
1 2204
1 2205
1 2206
1 2207
1 2208
1 2209
1 2210
1 2211
1 2212
1 2213
1 2214
1 2215
1 2216
1 2217
1 2218
1 2219
1 2220
1 2221
1 2222
1 2223
1 2224
1 2225
1 2226
1 2227
1 2228
1 2229
1 2230
1 2231
1 2232
1 2233
1 2234
1 2235
1 2236
1 2237
1 2238
1 2239
1 2240
1 2241
1 2242
1 2243
1 2244
1 2245
1 2246
1 2247
1 2248
1 2249
1 2250
1 2251
1 2252
1 2253
1 2254
1 2255
1 2256
1 2257
1 2258
1 2259
1 2260
1 2261
1 2262
1 2263
1 2264
1 2265
1 2266
1 2267
1 2268
1 2269
1 2270
1 2271
1 2272
1 2273
1 2274
1 2275
1 2276
1 2277
1 2278
1 2279
1 2280
1 2281
1 2282
1 2283
1 2284
1 2285
1 2286
1 2287
1 2288
1 2289
1 2290
1 2291
1 2292
1 2293
1 2294
1 2295
1 2296
1 2297
1 2298
1 2299
1 2300
1 2301
1 2302
1 2303
1 2304
1 2305
1 2306
1 2307
1 2308
1 2309
1 2310
1 2311
1 2312
1 2313
1 2314
1 2315
1 2316
1 2317
1 2318
1 2319
1 2320
1 2321
1 2322
1 2323
1 2324
1 2325
1 2326
1 2327
1 2328
1 2329
1 2330
1 2331
1 2332
1 2333
1 2334
1 2335
1 2336
1 2337
1 2338
1 2339
1 2340
1 2341
1 2342
1 2343
1 2344
1 2345
1 2346
1 2347
1 2348
1 2349
1 2350
1 2351
1 2352
1 2353
1 2354
1 2355
1 2356
1 2357
1 2358
1 2359
1 2360
1 2361
1 2362
1 2363
1 2364
1 2365
1 2366
1 2367
1 2368
1 2369
1 2370
1 2371
1 2372
1 2373
1 2374
1 2375
1 2376
1 2377
1 2378
1 2379
1 2380
1 2381
1 2382
1 2383
1 2384
1 2385
1 2386
1 2387
1 2388
1 2389
1 2390
1 2391
1 2392
1 2393
1 2394
1 2395
1 2396
1 2397
1 2398
1 2399
1 2400
1 2401
1 2402
1 2403
1 2404
1 2405
1 2406
1 2407
1 2408
1 2409
1 2410
1 2411
1 2412
1 2413
1 2414
1 2415
1 2416
1 2417
1 2418
1 2419
1 2420
1 2421
1 2422
1 2423
1 2424
1 2425
1 2426
1 2427
1 2428
1 2429
1 2430
1 2431
1 2432
1 2433
1 2434
1 2435
1 2436
1 2437
1 2438
1 2439
1 2440
1 2441
1 2442
1 2443
1 2444
1 2445
1 2446
1 2447
1 2448
1 2449
1 2450
1 2451
1 2452
1 2453
1 2454
1 2455
1 2456
1 2457
1 2458
1 2459
1 2460
1 2461
1 2462
1 2463
1 2464
1 2465
1 2466
1 2467
1 2468
1 2469
1 2470
1 2471
1 2472
1 2473
1 2474
1 2475
1 2476
1 2477
1 2478
1 2479
1 2480
1 2481
1 2482
1 2483
1 2484
1 2485
1 2486
1 2487
1 2488
1 2489
1 2490
1 2491
1 2492
1 2493
1 2494
1 2495
1 2496
1 2497
1 2498
1 2499
1 2500
1 2501
1 2502
1 2503
1 2504
1 2505
1 2506
1 2507
1 2508
1 2509
1 2510
1 2511
1 2512
1 2513
1 2514
1 2515
1 2516
1 2517
1 2518
1 2519
1 2520
1 2521
1 2522
1 2523
1 2524
1 2525
1 2526
1 2527
1 2528
1 2529
1 2530
1 2531
1 2532
1 2533
1 2534
1 2535
1 2536
1 2537
1 2538
1 2539
1 2540
1 2541
1 2542
1 2543
1 2544
1 2545
1 2546
1 2547
1 2548
1 2549
1 2550
1 2551
1 2552
1 2553
1 2554
1 2555
1 2556
1 2557
1 2558
1 2559
1 2560
1 2561
1 2562
1 2563
1 2564
1 2565
1 2566
1 2567
1 2568
1 2569
1 2570
1 2571
1 2572
1 2573
1 2574
1 2575
1 2576
1 2577
1 2578
1 2579
1 2580
1 2581
1 2582
1 2583
1 2584
1 2585
1 2586
1 2587
1 2588
1 2589
1 2590
1 2591
1 2592
1 2593
1 2594
1 2595
1 2596
1 2597
1 2598
1 2599
1 2600
1 2601
1 2602
1 2603
1 2604
1 2605
1 2606
1 2607
1 2608
1 2609
1 2610
1 2611
1 2612
1 2613
1 2614
1 2615
1 2616
1 2617
1 2618
1 2619
1 2620
1 2621
1 2622
1 2623
1 2624
1 2625
1 2626
1 2627
1 2628
1 2629
1 2630
1 2631
1 2632
1 2633
1 2634
1 2635
1 2636
1 2637
1 2638
1 2639
1 2640
1 2641
1 2642
1 2643
1 2644
1 2645
1 2646
1 2647
1 2648
1 2649
1 2650
1 2651
1 2652
1 2653
1 2654
1 2655
1 2656
1 2657
1 2658
1 2659
1 2660
1 2661
1 2662
1 2663
1 2664
1 2665
1 2666
1 2667
1 2668
1 2669
1 2670
1 2671
1 2672
1 2673
1 2674
1 2675
1 2676
1 2677
1 2678
1 2679
1 2680
1 2681
1 2682
1 2683
1 2684
1 2685
1 2686
1 2687
1 2688
1 2689
1 2690
1 2691
1 2692
1 2693
1 2694
1 2695
1 2696
1 2697
1 2698
1 2699
1 2700
1 2701
1 2702
1 2703
1 2704
1 2705
1 2706
1 2707
1 2708
1 2709
1 2710
1 2711
1 2712
1 2713
1 2714
1 2715
1 2716
1 2717
1 2718
1 2719
1 2720
1 2721
1 2722
1 2723
1 2724
1 2725
1 2726
1 2727
1 2728
1 2729
1 2730
1 2731
1 2732
1 2733
1 2734
1 2735
1 2736
1 2737
1 2738
1 2739
1 2740
1 2741
1 2742
1 2743
1 2744
1 2745
1 2746
1 2747
1 2748
1 2749
1 2750
1 2751
1 2752
1 2753
1 2754
1 2755
1 2756
1 2757
1 2758
1 2759
1 2760
1 2761
1 2762
1 2763
1 2764
1 2765
1 2766
1 2767
1 2768
1 2769
1 2770
1 2771
1 2772
1 2773
1 2774
1 2775
1 2776
1 2777
1 2778
1 2779
1 2780
1 2781
1 2782
1 2783
1 2784
1 2785
1 2786
1 2787
1 2788
1 2789
1 2790
1 2791
1 2792
1 2793
1 2794
1 2795
1 2796
1 2797
1 2798
1 2799
1 2800
1 2801
1 2802
1 2803
1 2804
1 2805
1 2806
1 2807
1 2808
1 2809
1 2810
1 2811
1 2812
1 2813
1 2814
1 2815
1 2816
1 2817
1 2818
1 2819
1 2820
1 2821
1 2822
1 2823
1 2824
1 2825
1 2826
1 2827
1 2828
1 2829
1 2830
1 2831
1 2832
1 2833
1 2834
1 2835
1 2836
1 2837
1 2838
1 2839
1 2840
1 2841
1 2842
1 2843
1 2844
1 2845
1 2846
1 2847
1 2848
1 2849
1 2850
1 2851
1 2852
1 2853
1 2854
1 2855
1 2856
1 2857
1 2858
1 2859
1 2860
1 2861
1 2862
1 2863
1 2864
1 2865
1 2866
1 2867
1 2868
1 2869
1 2870
1 2871
1 2872
1 2873
1 2874
1 2875
1 2876
1 2877
1 2878
1 2879
1 2880
1 2881
1 2882
1 2883
1 2884
1 2885
1 2886
1 2887
1 2888
1 2889
1 2890
1 2891
1 2892
1 2893
1 2894
1 2895
1 2896
1 2897
1 2898
1 2899
1 2900
1 2901
1 2902
1 2903
1 2904
1 2905
1 2906
1 2907
1 2908
1 2909
1 2910
1 2911
1 2912
1 2913
1 2914
1 2915
1 2916
1 2917
1 2918
1 2919
1 2920
1 2921
1 2922
1 2923
1 2924
1 2925
1 2926
1 2927
1 2928
1 2929
1 2930
1 2931
1 2932
1 2933
1 2934
1 2935
1 2936
1 2937
1 2938
1 2939
1 2940
1 2941
1 2942
1 2943
1 2944
1 2945
1 2946
1 2947
1 2948
1 2949
1 2950
1 2951
1 2952
1 2953
1 2954
1 2955
1 2956
1 2957
1 2958
1 2959
1 2960
1 2961
1 2962
1 2963
1 2964
1 2965
1 2966
1 2967
1 2968
1 2969
1 2970
1 2971
1 2972
1 2973
1 2974
1 2975
1 2976
1 2977
1 2978
1 2979
1 2980
1 2981
1 2982
1 2983
1 2984
1 2985
1 2986
1 2987
1 2988
1 2989
1 2990
1 2991
1 2992
1 2993
1 2994
1 2995
1 2996
1 2997
1 2998
1 2999
1 3000
1 3001
1 3002
1 3003
1 3004
1 3005
1 3006
1 3007
1 3008
1 3009
1 3010
1 3011
1 3012
1 3013
1 3014
1 3015
1 3016
1 3017
1 3018
1 3019
1 3020
1 3021
1 3022
1 3023
1 3024
1 3025
1 3026
1 3027
1 3028
1 3029
1 3030
1 3031
1 3032
1 3033
1 3034
1 3035
1 3036
1 3037
1 3038
1 3039
1 3040
1 3041
1 3042
1 3043
1 3044
1 3045
1 3046
1 3047
1 3048
1 3049
1 3050
1 3051
1 3052
1 3053
1 3054
1 3055
1 3056
1 3057
1 3058
1 3059
1 3060
1 3061
1 3062
1 3063
1 3064
1 3065
1 3066
1 3067
1 3068
1 3069
1 3070
1 3071
1 3072
1 3073
1 3074
1 3075
1 3076
1 3077
1 3078
1 3079
1 3080
1 3081
1 3082
1 3083
1 3084
1 3085
1 3086
1 3087
1 3088
1 3089
1 3090
1 3091
1 3092
1 3093
1 3094
1 3095
1 3096
1 3097
1 3098
1 3099
1 3100
1 3101
1 3102
1 3103
1 3104
1 3105
1 3106
1 3107
1 3108
1 3109
1 3110
1 3111
1 3112
1 3113
1 3114
1 3115
1 3116
1 3117
1 3118
1 3119
1 3120
1 3121
1 3122
1 3123
1 3124
1 3125
1 3126
1 3127
1 3128
1 3129
1 3130
1 3131
1 3132
1 3133
1 3134
1 3135
1 3136
1 3137
1 3138
1 3139
1 3140
1 3141
1 3142
1 3143
1 3144
1 3145
1 3146
1 3147
1 3148
1 3149
1 3150
1 3151
1 3152
1 3153
1 3154
1 3155
1 3156
1 3157
1 3158
1 3159
1 3160
1 3161
1 3162
1 3163
1 3164
1 3165
1 3166
1 3167
1 3168
1 3169
1 3170
1 3171
1 3172
1 3173
1 3174
1 3175
1 3176
1 3177
1 3178
1 3179
1 3180
1 3181
1 3182
1 3183
1 3184
1 3185
1 3186
1 3187
1 3188
1 3189
1 3190
1 3191
1 3192
1 3193
1 3194
1 3195
1 3196
1 3197
1 3198
1 3199
1 3200
1 3201
1 3202
1 3203
1 3204
1 3205
1 3206
1 3207
1 3208
1 3209
1 3210
1 3211
1 3212
1 3213
1 3214
1 3215
1 3216
1 3217
1 3218
1 3219
1 3220
1 3221
1 3222
1 3223
1 3224
1 3225
1 3226
1 3227
1 3228
1 3229
1 3230
1 3231
1 3232
1 3233
1 3234
1 3235
1 3236
1 3237
1 3238
1 3239
1 3240
1 3241
1 3242
1 3243
1 3244
1 3245
1 3246
1 3247
1 3248
1 3249
1 3250
1 3251
1 3252
1 3253
1 3254
1 3255
1 3256
1 3257
1 3258
1 3259
1 3260
1 3261
1 3262
1 3263
1 3264
1 3265
1 3266
1 3267
1 3268
1 3269
1 3270
1 3271
1 3272
1 3273
1 3274
1 3275
1 3276
1 3277
1 3278
1 3279
1 3280
1 3281
1 3282
1 3283
1 3284
1 3285
1 3286
1 3287
1 3288
1 3289
1 3290
1 3291
1 3292
1 3293
1 3294
1 3295
1 3296
1 3297
1 3298
1 3299
1 3300
1 3301
1 3302
1 3303
1 3304
1 3305
1 3306
1 3307
1 3308
1 3309
1 3310
1 3311
1 3312
1 3313
1 3314
1 3315
1 3316
1 3317
1 3318
1 3319
1 3320
1 3321
1 3322
1 3323
1 3324
1 3325
1 3326
1 3327
1 3328
1 3329
1 3330
1 3331
1 3332
1 3333
1 3334
1 3335
1 3336
1 3337
1 3338
1 3339
1 3340
1 3341
1 3342
1 3343
1 3344
1 3345
1 3346
1 3347
1 3348
1 3349
1 3350
1 3351
1 3352
1 3353
1 3354
1 3355
1 3356
1 3357
1 3358
1 3359
1 3360
1 3361
1 3362
1 3363
1 3364
1 3365
1 3366
1 3367
1 3368
1 3369
1 3370
1 3371
1 3372
1 3373
1 3374
1 3375
1 3376
1 3377
1 3378
1 3379
1 3380
1 3381
1 3382
1 3383
1 3384
1 3385
1 3386
1 3387
1 3388
1 3389
1 3390
1 3391
1 3392
1 3393
1 3394
1 3395
1 3396
1 3397
1 3398
1 3399
1 3400
1 3401
1 3402
1 3403
1 3404
1 3405
1 3406
1 3407
1 3408
1 3409
1 3410
1 3411
1 3412
1 3413
1 3414
1 3415
1 3416
1 3417
1 3418
1 3419
1 3420
1 3421
1 3422
1 3423
1 3424
1 3425
1 3426
1 3427
1 3428
1 3429
1 3430
1 3431
1 3432
1 3433
1 3434
1 3435
1 3436
1 3437
1 3438
1 3439
1 3440
1 3441
1 3442
1 3443
1 3444
1 3445
1 3446
1 3447
1 3448
1 3449
1 3450
1 3451
1 3452
1 3453
1 3454
1 3455
1 3456
1 3457
1 3458
1 3459
1 3460
1 3461
1 3462
1 3463
1 3464
1 3465
1 3466
1 3467
1 3468
1 3469
1 3470
1 3471
1 3472
1 3473
1 3474
1 3475
1 3476
1 3477
1 3478
1 3479
1 3480
1 3481
1 3482
1 3483
1 3484
1 3485
1 3486
1 3487
1 3488
1 3489
1 3490
1 3491
1 3492
1 3493
1 3494
1 3495
1 3496
1 3497
1 3498
1 3499
1 3500
1 3501
1 3502
1 3503
1 3504
1 3505
1 3506
1 3507
1 3508
1 3509
1 3510
1 3511
1 3512
1 3513
1 3514
1 3515
1 3516
1 3517
1 3518
1 3519
1 3520
1 3521
1 3522
1 3523
1 3524
1 3525
1 3526
1 3527
1 3528
1 3529
1 3530
1 3531
1 3532
1 3533
1 3534
1 3535
1 3536
1 3537
1 3538
1 3539
1 3540
1 3541
1 3542
1 3543
1 3544
1 3545
1 3546
1 3547
1 3548
1 3549
1 3550
1 3551
1 3552
1 3553
1 3554
1 3555
1 3556
1 3557
1 3558
1 3559
1 3560
1 3561
1 3562
1 3563
1 3564
1 3565
1 3566
1 3567
1 3568
1 3569
1 3570
1 3571
1 3572
1 3573
1 3574
1 3575
1 3576
1 3577
1 3578
1 3579
1 3580
1 3581
1 3582
1 3583
1 3584
1 3585
1 3586
1 3587
1 3588
1 3589
1 3590
1 3591
1 3592
1 3593
1 3594
1 3595
1 3596
1 3597
1 3598
1 3599
1 3600
1 3601
1 3602
1 3603
1 3604
1 3605
1 3606
1 3607
1 3608
1 3609
1 3610
1 3611
1 3612
1 3613
1 3614
1 3615
1 3616
1 3617
1 3618
1 3619
1 3620
1 3621
1 3622
1 3623
1 3624
1 3625
1 3626
1 3627
1 3628
1 3629
1 3630
1 3631
1 3632
1 3633
1 3634
1 3635
1 3636
1 3637
1 3638
1 3639
1 3640
1 3641
1 3642
1 3643
1 3644
1 3645
1 3646
1 3647
1 3648
1 3649
1 3650
1 3651
1 3652
1 3653
1 3654
1 3655
1 3656
1 3657
1 3658
1 3659
1 3660
1 3661
1 3662
1 3663
1 3664
1 3665
1 3666
1 3667
1 3668
1 3669
1 3670
1 3671
1 3672
1 3673
1 3674
1 3675
1 3676
1 3677
1 3678
1 3679
1 3680
1 3681
1 3682
1 3683
1 3684
1 3685
1 3686
1 3687
1 3688
1 3689
1 3690
1 3691
1 3692
1 3693
1 3694
1 3695
1 3696
1 3697
1 3698
1 3699
1 3700
1 3701
1 3702
1 3703
1 3704
1 3705
1 3706
1 3707
1 3708
1 3709
1 3710
1 3711
1 3712
1 3713
1 3714
1 3715
1 3716
1 3717
1 3718
1 3719
1 3720
1 3721
1 3722
1 3723
1 3724
1 3725
1 3726
1 3727
1 3728
1 3729
1 3730
1 3731
1 3732
1 3733
1 3734
1 3735
1 3736
1 3737
1 3738
1 3739
1 3740
1 3741
1 3742
1 3743
1 3744
1 3745
1 3746
1 3747
1 3748
1 3749
1 3750
1 3751
1 3752
1 3753
1 3754
1 3755
1 3756
1 3757
1 3758
1 3759
1 3760
1 3761
1 3762
1 3763
1 3764
1 3765
1 3766
1 3767
1 3768
1 3769
1 3770
1 3771
1 3772
1 3773
1 3774
1 3775
1 3776
1 3777
1 3778
1 3779
1 3780
1 3781
1 3782
1 3783
1 3784
1 3785
1 3786
1 3787
1 3788
1 3789
1 3790
1 3791
1 3792
1 3793
1 3794
1 3795
1 3796
1 3797
1 3798
1 3799
1 3800
1 3801
1 3802
1 3803
1 3804
1 3805
1 3806
1 3807
1 3808
1 3809
1 3810
1 3811
1 3812
1 3813
1 3814
1 3815
1 3816
1 3817
1 3818
1 3819
1 3820
1 3821
1 3822
1 3823
1 3824
1 3825
1 3826
1 3827
1 3828
1 3829
1 3830
1 3831
1 3832
1 3833
1 3834
1 3835
1 3836
1 3837
1 3838
1 3839
1 3840
1 3841
1 3842
1 3843
1 3844
1 3845
1 3846
1 3847
1 3848
1 3849
1 3850
1 3851
1 3852
1 3853
1 3854
1 3855
1 3856
1 3857
1 3858
1 3859
1 3860
1 3861
1 3862
1 3863
1 3864
1 3865
1 3866
1 3867
1 3868
1 3869
1 3870
1 3871
1 3872
1 3873
1 3874
1 3875
1 3876
1 3877
1 3878
1 3879
1 3880
1 3881
1 3882
1 3883
1 3884
1 3885
1 3886
1 3887
1 3888
1 3889
1 3890
1 3891
1 3892
1 3893
1 3894
1 3895
1 3896
1 3897
1 3898
1 3899
1 3900
1 3901
1 3902
1 3903
1 3904
1 3905
1 3906
1 3907
1 3908
1 3909
1 3910
1 3911
1 3912
1 3913
1 3914
1 3915
1 3916
1 3917
1 3918
1 3919
1 3920
1 3921
1 3922
1 3923
1 3924
1 3925
1 3926
1 3927
1 3928
1 3929
1 3930
1 3931
1 3932
1 3933
1 3934
1 3935
1 3936
1 3937
1 3938
1 3939
1 3940
1 3941
1 3942
1 3943
1 3944
1 3945
1 3946
1 3947
1 3948
1 3949
1 3950
1 3951
1 3952
1 3953
1 3954
1 3955
1 3956
1 3957
1 3958
1 3959
1 3960
1 3961
1 3962
1 3963
1 3964
1 3965
1 3966
1 3967
1 3968
1 3969
1 3970
1 3971
1 3972
1 3973
1 3974
1 3975
1 3976
1 3977
1 3978
1 3979
1 3980
1 3981
1 3982
1 3983
1 3984
1 3985
1 3986
1 3987
1 3988
1 3989
1 3990
1 3991
1 3992
1 3993
1 3994
1 3995
1 3996
1 3997
1 3998
1 3999
1 4000
1 4001
1 4002
1 4003
1 4004
1 4005
1 4006
1 4007
1 4008
1 4009
1 4010
1 4011
1 4012
1 4013
1 4014
1 4015
1 4016
1 4017
1 4018
1 4019
1 4020
1 4021
1 4022
1 4023
1 4024
1 4025
1 4026
1 4027
1 4028
1 4029
1 4030
1 4031
1 4032
1 4033
1 4034
1 4035
1 4036
1 4037
1 4038
1 4039
1 4040
1 4041
1 4042
1 4043
1 4044
1 4045
1 4046
1 4047
1 4048
1 4049
1 4050
1 4051
1 4052
1 4053
1 4054
1 4055
1 4056
1 4057
1 4058
1 4059
1 4060
1 4061
1 4062
1 4063
1 4064
1 4065
1 4066
1 4067
1 4068
1 4069
1 4070
1 4071
1 4072
1 4073
1 4074
1 4075
1 4076
1 4077
1 4078
1 4079
1 4080
1 4081
1 4082
1 4083
1 4084
1 4085
1 4086
1 4087
1 4088
1 4089
1 4090
1 4091
1 4092
1 4093
1 4094
1 4095
1 4096
1 4097
1 4098
1 4099
1 4100
1 4101
1 4102
1 4103
1 4104
1 4105
1 4106
1 4107
1 4108
1 4109
1 4110
1 4111
1 4112
1 4113
1 4114
1 4115
1 4116
1 4117
1 4118
1 4119
1 4120
1 4121
1 4122
1 4123
1 4124
1 4125
1 4126
1 4127
1 4128
1 4129
1 4130
1 4131
1 4132
1 4133
1 4134
1 4135
1 4136
1 4137
1 4138
1 4139
1 4140
1 4141
1 4142
1 4143
1 4144
1 4145
1 4146
1 4147
1 4148
1 4149
1 4150
1 4151
1 4152
1 4153
1 4154
1 4155
1 4156
1 4157
1 4158
1 4159
1 4160
1 4161
1 4162
1 4163
1 4164
1 4165
1 4166
1 4167
1 4168
1 4169
1 4170
1 4171
1 4172
1 4173
1 4174
1 4175
1 4176
1 4177
1 4178
1 4179
1 4180
1 4181
1 4182
1 4183
1 4184
1 4185
1 4186
1 4187
1 4188
1 4189
1 4190
1 4191
1 4192
1 4193
1 4194
1 4195
1 4196
1 4197
1 4198
1 4199
1 4200
1 4201
1 4202
1 4203
1 4204
1 4205
1 4206
1 4207
1 4208
1 4209
1 4210
1 4211
1 4212
1 4213
1 4214
1 4215
1 4216
1 4217
1 4218
1 4219
1 4220
1 4221
1 4222
1 4223
1 4224
1 4225
1 4226
1 4227
1 4228
1 4229
1 4230
1 4231
1 4232
1 4233
1 4234
1 4235
1 4236
1 4237
1 4238
1 4239
1 4240
1 4241
1 4242
1 4243
1 4244
1 4245
1 4246
1 4247
1 4248
1 4249
1 4250
1 4251
1 4252
1 4253
1 4254
1 4255
1 4256
1 4257
1 4258
1 4259
1 4260
1 4261
1 4262
1 4263
1 4264
1 4265
1 4266
1 4267
1 4268
1 4269
1 4270
1 4271
1 4272
1 4273
1 4274
1 4275
1 4276
1 4277
1 4278
1 4279
1 4280
1 4281
1 4282
1 4283
1 4284
1 4285
1 4286
1 4287
1 4288
1 4289
1 4290
1 4291
1 4292
1 4293
1 4294
1 4295
1 4296
1 4297
1 4298
1 4299
1 4300
1 4301
1 4302
1 4303
1 4304
1 4305
1 4306
1 4307
1 4308
1 4309
1 4310
1 4311
1 4312
1 4313
1 4314
1 4315
1 4316
1 4317
1 4318
1 4319
1 4320
1 4321
1 4322
1 4323
1 4324
1 4325
1 4326
1 4327
1 4328
1 4329
1 4330
1 4331
1 4332
1 4333
1 4334
1 4335
1 4336
1 4337
1 4338
1 4339
1 4340
1 4341
1 4342
1 4343
1 4344
1 4345
1 4346
1 4347
1 4348
1 4349
1 4350
1 4351
1 4352
1 4353
1 4354
1 4355
1 4356
1 4357
1 4358
1 4359
1 4360
1 4361
1 4362
1 4363
1 4364
1 4365
1 4366
1 4367
1 4368
1 4369
1 4370
1 4371
1 4372
1 4373
1 4374
1 4375
1 4376
1 4377
1 4378
1 4379
1 4380
1 4381
1 4382
1 4383
1 4384
1 4385
1 4386
1 4387
1 4388
1 4389
1 4390
1 4391
1 4392
1 4393
1 4394
1 4395
1 4396
1 4397
1 4398
1 4399
1 4400
1 4401
1 4402
1 4403
1 4404
1 4405
1 4406
1 4407
1 4408
1 4409
1 4410
1 4411
1 4412
1 4413
1 4414
1 4415
1 4416
1 4417
1 4418
1 4419
1 4420
1 4421
1 4422
1 4423
1 4424
1 4425
1 4426
1 4427
1 4428
1 4429
1 4430
1 4431
1 4432
1 4433
1 4434
1 4435
1 4436
1 4437
1 4438
1 4439
1 4440
1 4441
1 4442
1 4443
1 4444
1 4445
1 4446
1 4447
1 4448
1 4449
1 4450
1 4451
1 4452
1 4453
1 4454
1 4455
1 4456
1 4457
1 4458
1 4459
1 4460
1 4461
1 4462
1 4463
1 4464
1 4465
1 4466
1 4467
1 4468
1 4469
1 4470
1 4471
1 4472
1 4473
1 4474
1 4475
1 4476
1 4477
1 4478
1 4479
1 4480
1 4481
1 4482
1 4483
1 4484
1 4485
1 4486
1 4487
1 4488
1 4489
1 4490
1 4491
1 4492
1 4493
1 4494
1 4495
1 4496
1 4497
1 4498
1 4499
1 4500
1 4501
1 4502
1 4503
1 4504
1 4505
1 4506
1 4507
1 4508
1 4509
1 4510
1 4511
1 4512
1 4513
1 4514
1 4515
1 4516
1 4517
1 4518
1 4519
1 4520
1 4521
1 4522
1 4523
1 4524
1 4525
1 4526
1 4527
1 4528
1 4529
1 4530
1 4531
1 4532
1 4533
1 4534
1 4535
1 4536
1 4537
1 4538
1 4539
1 4540
1 4541
1 4542
1 4543
1 4544
1 4545
1 4546
1 4547
1 4548
1 4549
1 4550
1 4551
1 4552
1 4553
1 4554
1 4555
1 4556
1 4557
1 4558
1 4559
1 4560
1 4561
1 4562
1 4563
1 4564
1 4565
1 4566
1 4567
1 4568
1 4569
1 4570
1 4571
1 4572
1 4573
1 4574
1 4575
1 4576
1 4577
1 4578
1 4579
1 4580
1 4581
1 4582
1 4583
1 4584
1 4585
1 4586
1 4587
1 4588
1 4589
1 4590
1 4591
1 4592
1 4593
1 4594
1 4595
1 4596
1 4597
1 4598
1 4599
1 4600
1 4601
1 4602
1 4603
1 4604
1 4605
1 4606
1 4607
1 4608
1 4609
1 4610
1 4611
1 4612
1 4613
1 4614
1 4615
1 4616
1 4617
1 4618
1 4619
1 4620
1 4621
1 4622
1 4623
1 4624
1 4625
1 4626
1 4627
1 4628
1 4629
1 4630
1 4631
1 4632
1 4633
1 4634
1 4635
1 4636
1 4637
1 4638
1 4639
1 4640
1 4641
1 4642
1 4643
1 4644
1 4645
1 4646
1 4647
1 4648
1 4649
1 4650
1 4651
1 4652
1 4653
1 4654
1 4655
1 4656
1 4657
1 4658
1 4659
1 4660
1 4661
1 4662
1 4663
1 4664
1 4665
1 4666
1 4667
1 4668
1 4669
1 4670
1 4671
1 4672
1 4673
1 4674
1 4675
1 4676
1 4677
1 4678
1 4679
1 4680
1 4681
1 4682
1 4683
1 4684
1 4685
1 4686
1 4687
1 4688
1 4689
1 4690
1 4691
1 4692
1 4693
1 4694
1 4695
1 4696
1 4697
1 4698
1 4699
1 4700
1 4701
1 4702
1 4703
1 4704
1 4705
1 4706
1 4707
1 4708
1 4709
1 4710
1 4711
1 4712
1 4713
1 4714
1 4715
1 4716
1 4717
1 4718
1 4719
1 4720
1 4721
1 4722
1 4723
1 4724
1 4725
1 4726
1 4727
1 4728
1 4729
1 4730
1 4731
1 4732
1 4733
1 4734
1 4735
1 4736
1 4737
1 4738
1 4739
1 4740
1 4741
1 4742
1 4743
1 4744
1 4745
1 4746
1 4747
1 4748
1 4749
1 4750
1 4751
1 4752
1 4753
1 4754
1 4755
1 4756
1 4757
1 4758
1 4759
1 4760
1 4761
1 4762
1 4763
1 4764
1 4765
1 4766
1 4767
1 4768
1 4769
1 4770
1 4771
1 4772
1 4773
1 4774
1 4775
1 4776
1 4777
1 4778
1 4779
1 4780
1 4781
1 4782
1 4783
1 4784
1 4785
1 4786
1 4787
1 4788
1 4789
1 4790
1 4791
1 4792
1 4793
1 4794
1 4795
1 4796
1 4797
1 4798
1 4799
1 4800
1 4801
1 4802
1 4803
1 4804
1 4805
1 4806
1 4807
1 4808
1 4809
1 4810
1 4811
1 4812
1 4813
1 4814
1 4815
1 4816
1 4817
1 4818
1 4819
1 4820
1 4821
1 4822
1 4823
1 4824
1 4825
1 4826
1 4827
1 4828
1 4829
1 4830
1 4831
1 4832
1 4833
1 4834
1 4835
1 4836
1 4837
1 4838
1 4839
1 4840
1 4841
1 4842
1 4843
1 4844
1 4845
1 4846
1 4847
1 4848
1 4849
1 4850
1 4851
1 4852
1 4853
1 4854
1 4855
1 4856
1 4857
1 4858
1 4859
1 4860
1 4861
1 4862
1 4863
1 4864
1 4865
1 4866
1 4867
1 4868
1 4869
1 4870
1 4871
1 4872
1 4873
1 4874
1 4875
1 4876
1 4877
1 4878
1 4879
1 4880
1 4881
1 4882
1 4883
1 4884
1 4885
1 4886
1 4887
1 4888
1 4889
1 4890
1 4891
1 4892
1 4893
1 4894
1 4895
1 4896
1 4897
1 4898
1 4899
1 4900
1 4901
1 4902
1 4903
1 4904
1 4905
1 4906
1 4907
1 4908
1 4909
1 4910
1 4911
1 4912
1 4913
1 4914
1 4915
1 4916
1 4917
1 4918
1 4919
1 4920
1 4921
1 4922
1 4923
1 4924
1 4925
1 4926
1 4927
1 4928
1 4929
1 4930
1 4931
1 4932
1 4933
1 4934
1 4935
1 4936
1 4937
1 4938
1 4939
1 4940
1 4941
1 4942
1 4943
1 4944
1 4945
1 4946
1 4947
1 4948
1 4949
1 4950
1 4951
1 4952
1 4953
1 4954
1 4955
1 4956
1 4957
1 4958
1 4959
1 4960
1 4961
1 4962
1 4963
1 4964
1 4965
1 4966
1 4967
1 4968
1 4969
1 4970
1 4971
1 4972
1 4973
1 4974
1 4975
1 4976
1 4977
1 4978
1 4979
1 4980
1 4981
1 4982
1 4983
1 4984
1 4985
1 4986
1 4987
1 4988
1 4989
1 4990
1 4991
1 4992
1 4993
1 4994
1 4995
1 4996
1 4997
1 4998
1 4999
CELL_TYPES 5000
1 
1 
1 
1 
1 
1 
1 
1 
1 
1 
1 
1 
1 
1 
1 
1 
1 
1 
1 
1 
1 
1 
1 
1 
1 
1 
1 
1 
1 
1 
1 
1 
1 
1 
1 
1 
1 
1 
1 
1 
1 
1 
1 
1 
1 
1 
1 
1 
1 
1 
1 
1 
1 
1 
1 
1 
1 
1 
1 
1 
1 
1 
1 
1 
1 
1 
1 
1 
1 
1 
1 
1 
1 
1 
1 
1 
1 
1 
1 
1 
1 
1 
1 
1 
1 
1 
1 
1 
1 
1 
1 
1 
1 
1 
1 
1 
1 
1 
1 
1 
1 
1 
1 
1 
1 
1 
1 
1 
1 
1 
1 
1 
1 
1 
1 
1 
1 
1 
1 
1 
1 
1 
1 
1 
1 
1 
1 
1 
1 
1 
1 
1 
1 
1 
1 
1 
1 
1 
1 
1 
1 
1 
1 
1 
1 
1 
1 
1 
1 
1 
1 
1 
1 
1 
1 
1 
1 
1 
1 
1 
1 
1 
1 
1 
1 
1 
1 
1 
1 
1 
1 
1 
1 
1 
1 
1 
1 
1 
1 
1 
1 
1 
1 
1 
1 
1 
1 
1 
1 
1 
1 
1 
1 
1 
1 
1 
1 
1 
1 
1 
1 
1 
1 
1 
1 
1 
1 
1 
1 
1 
1 
1 
1 
1 
1 
1 
1 
1 
1 
1 
1 
1 
1 
1 
1 
1 
1 
1 
1 
1 
1 
1 
1 
1 
1 
1 
1 
1 
1 
1 
1 
1 
1 
1 
1 
1 
1 
1 
1 
1 
1 
1 
1 
1 
1 
1 
1 
1 
1 
1 
1 
1 
1 
1 
1 
1 
1 
1 
1 
1 
1 
1 
1 
1 
1 
1 
1 
1 
1 
1 
1 
1 
1 
1 
1 
1 
1 
1 
1 
1 
1 
1 
1 
1 
1 
1 
1 
1 
1 
1 
1 
1 
1 
1 
1 
1 
1 
1 
1 
1 
1 
1 
1 
1 
1 
1 
1 
1 
1 
1 
1 
1 
1 
1 
1 
1 
1 
1 
1 
1 
1 
1 
1 
1 
1 
1 
1 
1 
1 
1 
1 
1 
1 
1 
1 
1 
1 
1 
1 
1 
1 
1 
1 
1 
1 
1 
1 
1 
1 
1 
1 
1 
1 
1 
1 
1 
1 
1 
1 
1 
1 
1 
1 
1 
1 
1 
1 
1 
1 
1 
1 
1 
1 
1 
1 
1 
1 
1 
1 
1 
1 
1 
1 
1 
1 
1 
1 
1 
1 
1 
1 
1 
1 
1 
1 
1 
1 
1 
1 
1 
1 
1 
1 
1 
1 
1 
1 
1 
1 
1 
1 
1 
1 
1 
1 
1 
1 
1 
1 
1 
1 
1 
1 
1 
1 
1 
1 
1 
1 
1 
1 
1 
1 
1 
1 
1 
1 
1 
1 
1 
1 
1 
1 
1 
1 
1 
1 
1 
1 
1 
1 
1 
1 
1 
1 
1 
1 
1 
1 
1 
1 
1 
1 
1 
1 
1 
1 
1 
1 
1 
1 
1 
1 
1 
1 
1 
1 
1 
1 
1 
1 
1 
1 
1 
1 
1 
1 
1 
1 
1 
1 
1 
1 
1 
1 
1 
1 
1 
1 
1 
1 
1 
1 
1 
1 
1 
1 
1 
1 
1 
1 
1 
1 
1 
1 
1 
1 
1 
1 
1 
1 
1 
1 
1 
1 
1 
1 
1 
1 
1 
1 
1 
1 
1 
1 
1 
1 
1 
1 
1 
1 
1 
1 
1 
1 
1 
1 
1 
1 
1 
1 
1 
1 
1 
1 
1 
1 
1 
1 
1 
1 
1 
1 
1 
1 
1 
1 
1 
1 
1 
1 
1 
1 
1 
1 
1 
1 
1 
1 
1 
1 
1 
1 
1 
1 
1 
1 
1 
1 
1 
1 
1 
1 
1 
1 
1 
1 
1 
1 
1 
1 
1 
1 
1 
1 
1 
1 
1 
1 
1 
1 
1 
1 
1 
1 
1 
1 
1 
1 
1 
1 
1 
1 
1 
1 
1 
1 
1 
1 
1 
1 
1 
1 
1 
1 
1 
1 
1 
1 
1 
1 
1 
1 
1 
1 
1 
1 
1 
1 
1 
1 
1 
1 
1 
1 
1 
1 
1 
1 
1 
1 
1 
1 
1 
1 
1 
1 
1 
1 
1 
1 
1 
1 
1 
1 
1 
1 
1 
1 
1 
1 
1 
1 
1 
1 
1 
1 
1 
1 
1 
1 
1 
1 
1 
1 
1 
1 
1 
1 
1 
1 
1 
1 
1 
1 
1 
1 
1 
1 
1 
1 
1 
1 
1 
1 
1 
1 
1 
1 
1 
1 
1 
1 
1 
1 
1 
1 
1 
1 
1 
1 
1 
1 
1 
1 
1 
1 
1 
1 
1 
1 
1 
1 
1 
1 
1 
1 
1 
1 
1 
1 
1 
1 
1 
1 
1 
1 
1 
1 
1 
1 
1 
1 
1 
1 
1 
1 
1 
1 
1 
1 
1 
1 
1 
1 
1 
1 
1 
1 
1 
1 
1 
1 
1 
1 
1 
1 
1 
1 
1 
1 
1 
1 
1 
1 
1 
1 
1 
1 
1 
1 
1 
1 
1 
1 
1 
1 
1 
1 
1 
1 
1 
1 
1 
1 
1 
1 
1 
1 
1 
1 
1 
1 
1 
1 
1 
1 
1 
1 
1 
1 
1 
1 
1 
1 
1 
1 
1 
1 
1 
1 
1 
1 
1 
1 
1 
1 
1 
1 
1 
1 
1 
1 
1 
1 
1 
1 
1 
1 
1 
1 
1 
1 
1 
1 
1 
1 
1 
1 
1 
1 
1 
1 
1 
1 
1 
1 
1 
1 
1 
1 
1 
1 
1 
1 
1 
1 
1 
1 
1 
1 
1 
1 
1 
1 
1 
1 
1 
1 
1 
1 
1 
1 
1 
1 
1 
1 
1 
1 
1 
1 
1 
1 
1 
1 
1 
1 
1 
1 
1 
1 
1 
1 
1 
1 
1 
1 
1 
1 
1 
1 
1 
1 
1 
1 
1 
1 
1 
1 
1 
1 
1 
1 
1 
1 
1 
1 
1 
1 
1 
1 
1 
1 
1 
1 
1 
1 
1 
1 
1 
1 
1 
1 
1 
1 
1 
1 
1 
1 
1 
1 
1 
1 
1 
1 
1 
1 
1 
1 
1 
1 
1 
1 
1 
1 
1 
1 
1 
1 
1 
1 
1 
1 
1 
1 
1 
1 
1 
1 
1 
1 
1 
1 
1 
1 
1 
1 
1 
1 
1 
1 
1 
1 
1 
1 
1 
1 
1 
1 
1 
1 
1 
1 
1 
1 
1 
1 
1 
1 
1 
1 
1 
1 
1 
1 
1 
1 
1 
1 
1 
1 
1 
1 
1 
1 
1 
1 
1 
1 
1 
1 
1 
1 
1 
1 
1 
1 
1 
1 
1 
1 
1 
1 
1 
1 
1 
1 
1 
1 
1 
1 
1 
1 
1 
1 
1 
1 
1 
1 
1 
1 
1 
1 
1 
1 
1 
1 
1 
1 
1 
1 
1 
1 
1 
1 
1 
1 
1 
1 
1 
1 
1 
1 
1 
1 
1 
1 
1 
1 
1 
1 
1 
1 
1 
1 
1 
1 
1 
1 
1 
1 
1 
1 
1 
1 
1 
1 
1 
1 
1 
1 
1 
1 
1 
1 
1 
1 
1 
1 
1 
1 
1 
1 
1 
1 
1 
1 
1 
1 
1 
1 
1 
1 
1 
1 
1 
1 
1 
1 
1 
1 
1 
1 
1 
1 
1 
1 
1 
1 
1 
1 
1 
1 
1 
1 
1 
1 
1 
1 
1 
1 
1 
1 
1 
1 
1 
1 
1 
1 
1 
1 
1 
1 
1 
1 
1 
1 
1 
1 
1 
1 
1 
1 
1 
1 
1 
1 
1 
1 
1 
1 
1 
1 
1 
1 
1 
1 
1 
1 
1 
1 
1 
1 
1 
1 
1 
1 
1 
1 
1 
1 
1 
1 
1 
1 
1 
1 
1 
1 
1 
1 
1 
1 
1 
1 
1 
1 
1 
1 
1 
1 
1 
1 
1 
1 
1 
1 
1 
1 
1 
1 
1 
1 
1 
1 
1 
1 
1 
1 
1 
1 
1 
1 
1 
1 
1 
1 
1 
1 
1 
1 
1 
1 
1 
1 
1 
1 
1 
1 
1 
1 
1 
1 
1 
1 
1 
1 
1 
1 
1 
1 
1 
1 
1 
1 
1 
1 
1 
1 
1 
1 
1 
1 
1 
1 
1 
1 
1 
1 
1 
1 
1 
1 
1 
1 
1 
1 
1 
1 
1 
1 
1 
1 
1 
1 
1 
1 
1 
1 
1 
1 
1 
1 
1 
1 
1 
1 
1 
1 
1 
1 
1 
1 
1 
1 
1 
1 
1 
1 
1 
1 
1 
1 
1 
1 
1 
1 
1 
1 
1 
1 
1 
1 
1 
1 
1 
1 
1 
1 
1 
1 
1 
1 
1 
1 
1 
1 
1 
1 
1 
1 
1 
1 
1 
1 
1 
1 
1 
1 
1 
1 
1 
1 
1 
1 
1 
1 
1 
1 
1 
1 
1 
1 
1 
1 
1 
1 
1 
1 
1 
1 
1 
1 
1 
1 
1 
1 
1 
1 
1 
1 
1 
1 
1 
1 
1 
1 
1 
1 
1 
1 
1 
1 
1 
1 
1 
1 
1 
1 
1 
1 
1 
1 
1 
1 
1 
1 
1 
1 
1 
1 
1 
1 
1 
1 
1 
1 
1 
1 
1 
1 
1 
1 
1 
1 
1 
1 
1 
1 
1 
1 
1 
1 
1 
1 
1 
1 
1 
1 
1 
1 
1 
1 
1 
1 
1 
1 
1 
1 
1 
1 
1 
1 
1 
1 
1 
1 
1 
1 
1 
1 
1 
1 
1 
1 
1 
1 
1 
1 
1 
1 
1 
1 
1 
1 
1 
1 
1 
1 
1 
1 
1 
1 
1 
1 
1 
1 
1 
1 
1 
1 
1 
1 
1 
1 
1 
1 
1 
1 
1 
1 
1 
1 
1 
1 
1 
1 
1 
1 
1 
1 
1 
1 
1 
1 
1 
1 
1 
1 
1 
1 
1 
1 
1 
1 
1 
1 
1 
1 
1 
1 
1 
1 
1 
1 
1 
1 
1 
1 
1 
1 
1 
1 
1 
1 
1 
1 
1 
1 
1 
1 
1 
1 
1 
1 
1 
1 
1 
1 
1 
1 
1 
1 
1 
1 
1 
1 
1 
1 
1 
1 
1 
1 
1 
1 
1 
1 
1 
1 
1 
1 
1 
1 
1 
1 
1 
1 
1 
1 
1 
1 
1 
1 
1 
1 
1 
1 
1 
1 
1 
1 
1 
1 
1 
1 
1 
1 
1 
1 
1 
1 
1 
1 
1 
1 
1 
1 
1 
1 
1 
1 
1 
1 
1 
1 
1 
1 
1 
1 
1 
1 
1 
1 
1 
1 
1 
1 
1 
1 
1 
1 
1 
1 
1 
1 
1 
1 
1 
1 
1 
1 
1 
1 
1 
1 
1 
1 
1 
1 
1 
1 
1 
1 
1 
1 
1 
1 
1 
1 
1 
1 
1 
1 
1 
1 
1 
1 
1 
1 
1 
1 
1 
1 
1 
1 
1 
1 
1 
1 
1 
1 
1 
1 
1 
1 
1 
1 
1 
1 
1 
1 
1 
1 
1 
1 
1 
1 
1 
1 
1 
1 
1 
1 
1 
1 
1 
1 
1 
1 
1 
1 
1 
1 
1 
1 
1 
1 
1 
1 
1 
1 
1 
1 
1 
1 
1 
1 
1 
1 
1 
1 
1 
1 
1 
1 
1 
1 
1 
1 
1 
1 
1 
1 
1 
1 
1 
1 
1 
1 
1 
1 
1 
1 
1 
1 
1 
1 
1 
1 
1 
1 
1 
1 
1 
1 
1 
1 
1 
1 
1 
1 
1 
1 
1 
1 
1 
1 
1 
1 
1 
1 
1 
1 
1 
1 
1 
1 
1 
1 
1 
1 
1 
1 
1 
1 
1 
1 
1 
1 
1 
1 
1 
1 
1 
1 
1 
1 
1 
1 
1 
1 
1 
1 
1 
1 
1 
1 
1 
1 
1 
1 
1 
1 
1 
1 
1 
1 
1 
1 
1 
1 
1 
1 
1 
1 
1 
1 
1 
1 
1 
1 
1 
1 
1 
1 
1 
1 
1 
1 
1 
1 
1 
1 
1 
1 
1 
1 
1 
1 
1 
1 
1 
1 
1 
1 
1 
1 
1 
1 
1 
1 
1 
1 
1 
1 
1 
1 
1 
1 
1 
1 
1 
1 
1 
1 
1 
1 
1 
1 
1 
1 
1 
1 
1 
1 
1 
1 
1 
1 
1 
1 
1 
1 
1 
1 
1 
1 
1 
1 
1 
1 
1 
1 
1 
1 
1 
1 
1 
1 
1 
1 
1 
1 
1 
1 
1 
1 
1 
1 
1 
1 
1 
1 
1 
1 
1 
1 
1 
1 
1 
1 
1 
1 
1 
1 
1 
1 
1 
1 
1 
1 
1 
1 
1 
1 
1 
1 
1 
1 
1 
1 
1 
1 
1 
1 
1 
1 
1 
1 
1 
1 
1 
1 
1 
1 
1 
1 
1 
1 
1 
1 
1 
1 
1 
1 
1 
1 
1 
1 
1 
1 
1 
1 
1 
1 
1 
1 
1 
1 
1 
1 
1 
1 
1 
1 
1 
1 
1 
1 
1 
1 
1 
1 
1 
1 
1 
1 
1 
1 
1 
1 
1 
1 
1 
1 
1 
1 
1 
1 
1 
1 
1 
1 
1 
1 
1 
1 
1 
1 
1 
1 
1 
1 
1 
1 
1 
1 
1 
1 
1 
1 
1 
1 
1 
1 
1 
1 
1 
1 
1 
1 
1 
1 
1 
1 
1 
1 
1 
1 
1 
1 
1 
1 
1 
1 
1 
1 
1 
1 
1 
1 
1 
1 
1 
1 
1 
1 
1 
1 
1 
1 
1 
1 
1 
1 
1 
1 
1 
1 
1 
1 
1 
1 
1 
1 
1 
1 
1 
1 
1 
1 
1 
1 
1 
1 
1 
1 
1 
1 
1 
1 
1 
1 
1 
1 
1 
1 
1 
1 
1 
1 
1 
1 
1 
1 
1 
1 
1 
1 
1 
1 
1 
1 
1 
1 
1 
1 
1 
1 
1 
1 
1 
1 
1 
1 
1 
1 
1 
1 
1 
1 
1 
1 
1 
1 
1 
1 
1 
1 
1 
1 
1 
1 
1 
1 
1 
1 
1 
1 
1 
1 
1 
1 
1 
1 
1 
1 
1 
1 
1 
1 
1 
1 
1 
1 
1 
1 
1 
1 
1 
1 
1 
1 
1 
1 
1 
1 
1 
1 
1 
1 
1 
1 
1 
1 
1 
1 
1 
1 
1 
1 
1 
1 
1 
1 
1 
1 
1 
1 
1 
1 
1 
1 
1 
1 
1 
1 
1 
1 
1 
1 
1 
1 
1 
1 
1 
1 
1 
1 
1 
1 
1 
1 
1 
1 
1 
1 
1 
1 
1 
1 
1 
1 
1 
1 
1 
1 
1 
1 
1 
1 
1 
1 
1 
1 
1 
1 
1 
1 
1 
1 
1 
1 
1 
1 
1 
1 
1 
1 
1 
1 
1 
1 
1 
1 
1 
1 
1 
1 
1 
1 
1 
1 
1 
1 
1 
1 
1 
1 
1 
1 
1 
1 
1 
1 
1 
1 
1 
1 
1 
1 
1 
1 
1 
1 
1 
1 
1 
1 
1 
1 
1 
1 
1 
1 
1 
1 
1 
1 
1 
1 
1 
1 
1 
1 
1 
1 
1 
1 
1 
1 
1 
1 
1 
1 
1 
1 
1 
1 
1 
1 
1 
1 
1 
1 
1 
1 
1 
1 
1 
1 
1 
1 
1 
1 
1 
1 
1 
1 
1 
1 
1 
1 
1 
1 
1 
1 
1 
1 
1 
1 
1 
1 
1 
1 
1 
1 
1 
1 
1 
1 
1 
1 
1 
1 
1 
1 
1 
1 
1 
1 
1 
1 
1 
1 
1 
1 
1 
1 
1 
1 
1 
1 
1 
1 
1 
1 
1 
1 
1 
1 
1 
1 
1 
1 
1 
1 
1 
1 
1 
1 
1 
1 
1 
1 
1 
1 
1 
1 
1 
1 
1 
1 
1 
1 
1 
1 
1 
1 
1 
1 
1 
1 
1 
1 
1 
1 
1 
1 
1 
1 
1 
1 
1 
1 
1 
1 
1 
1 
1 
1 
1 
1 
1 
1 
1 
1 
1 
1 
1 
1 
1 
1 
1 
1 
1 
1 
1 
1 
1 
1 
1 
1 
1 
1 
1 
1 
1 
1 
1 
1 
1 
1 
1 
1 
1 
1 
1 
1 
1 
1 
1 
1 
1 
1 
1 
1 
1 
1 
1 
1 
1 
1 
1 
1 
1 
1 
1 
1 
1 
1 
1 
1 
1 
1 
1 
1 
1 
1 
1 
1 
1 
1 
1 
1 
1 
1 
1 
1 
1 
1 
1 
1 
1 
1 
1 
1 
1 
1 
1 
1 
1 
1 
1 
1 
1 
1 
1 
1 
1 
1 
1 
1 
1 
1 
1 
1 
1 
1 
1 
1 
1 
1 
1 
1 
1 
1 
1 
1 
1 
1 
1 
1 
1 
1 
1 
1 
1 
1 
1 
1 
1 
1 
1 
1 
1 
1 
1 
1 
1 
1 
1 
1 
1 
1 
1 
1 
1 
1 
1 
1 
1 
1 
1 
1 
1 
1 
1 
1 
1 
1 
1 
1 
1 
1 
1 
1 
1 
1 
1 
1 
1 
1 
1 
1 
1 
1 
1 
1 
1 
1 
1 
1 
1 
1 
1 
1 
1 
1 
1 
1 
1 
1 
1 
1 
1 
1 
1 
1 
1 
1 
1 
1 
1 
1 
1 
1 
1 
1 
1 
1 
1 
1 
1 
1 
1 
1 
1 
1 
1 
1 
1 
1 
1 
1 
1 
1 
1 
1 
1 
1 
1 
1 
1 
1 
1 
1 
1 
1 
1 
1 
1 
1 
1 
1 
1 
1 
1 
1 
1 
1 
1 
1 
1 
1 
1 
1 
1 
1 
1 
1 
1 
1 
1 
1 
1 
1 
1 
1 
1 
1 
1 
1 
1 
1 
1 
1 
1 
1 
1 
1 
1 
1 
1 
1 
1 
1 
1 
1 
1 
1 
1 
1 
1 
1 
1 
1 
1 
1 
1 
1 
1 
1 
1 
1 
1 
1 
1 
1 
1 
1 
1 
1 
1 
1 
1 
1 
1 
1 
1 
1 
1 
1 
1 
1 
1 
1 
1 
1 
1 
1 
1 
1 
1 
1 
1 
1 
1 
1 
1 
1 
1 
1 
1 
1 
1 
1 
1 
1 
1 
1 
1 
1 
1 
1 
1 
1 
1 
1 
1 
1 
1 
1 
1 
1 
1 
1 
1 
1 
1 
1 
1 
1 
1 
1 
1 
1 
1 
1 
1 
1 
1 
1 
1 
1 
1 
1 
1 
1 
1 
1 
1 
1 
1 
1 
1 
1 
1 
1 
1 
1 
1 
1 
1 
1 
1 
1 
1 
1 
1 
1 
1 
1 
1 
1 
1 
1 
1 
1 
1 
1 
1 
1 
1 
1 
1 
1 
1 
1 
1 
1 
1 
1 
1 
1 
1 
1 
1 
1 
1 
1 
1 
1 
1 
1 
1 
1 
1 
1 
1 
1 
1 
1 
1 
1 
1 
1 
1 
1 
1 
1 
1 
1 
1 
1 
1 
1 
1 
1 
1 
1 
1 
1 
1 
1 
1 
1 
1 
1 
1 
1 
1 
1 
1 
1 
1 
1 
1 
1 
1 
1 
1 
1 
1 
1 
1 
1 
1 
1 
1 
1 
1 
1 
1 
1 
1 
1 
1 
1 
1 
1 
1 
1 
1 
1 
1 
1 
1 
1 
1 
1 
1 
1 
1 
1 
1 
1 
1 
1 
1 
1 
1 
1 
1 
1 
1 
1 
1 
1 
1 
1 
1 
1 
1 
1 
1 
1 
1 
1 
1 
1 
1 
1 
1 
1 
1 
1 
1 
1 
1 
1 
1 
1 
1 
1 
1 
1 
1 
1 
1 
1 
1 
1 
1 
1 
1 
1 
1 
1 
1 
1 
1 
1 
1 
1 
1 
1 
1 
1 
1 
1 
1 
1 
1 
1 
1 
1 
1 
1 
1 
1 
1 
1 
1 
1 
1 
1 
1 
1 
1 
1 
1 
1 
1 
1 
1 
1 
1 
1 
1 
1 
1 
1 
1 
1 
1 
1 
1 
1 
1 
1 
1 
1 
1 
1 
1 
1 
1 
1 
1 
1 
1 
1 
1 
1 
1 
1 
1 
1 
1 
1 
1 
1 
1 
1 
1 
1 
1 
1 
1 
1 
1 
1 
1 
1 
1 
1 
1 
1 
1 
1 
1 
1 
1 
1 
1 
1 
1 
1 
1 
1 
1 
1 
1 
1 
1 
1 
1 
1 
1 
1 
1 
1 
1 
1 
1 
1 
1 
1 
1 
1 
1 
1 
1 
1 
1 
1 
1 
1 
1 
1 
1 
1 
1 
1 
1 
1 
1 
1 
1 
1 
1 
1 
1 
1 
1 
1 
1 
1 
1 
1 
1 
1 
1 
1 
1 
1 
1 
1 
1 
1 
1 
1 
1 
1 
1 
1 
1 
1 
1 
1 
1 
1 
1 
1 
1 
1 
1 
1 
1 
1 
1 
1 
1 
1 
1 
1 
1 
1 
1 
1 
1 
1 
1 
1 
1 
1 
1 
1 
1 
1 
1 
1 
1 
1 
1 
1 
1 
1 
1 
1 
1 
1 
1 
1 
1 
1 
1 
1 
1 
1 
1 
1 
1 
1 
1 
1 
1 
1 
1 
1 
1 
1 
1 
1 
1 
1 
1 
1 
1 
1 
1 
1 
1 
1 
1 
1 
1 
1 
1 
1 
1 
1 
1 
1 
1 
1 
1 
1 
1 
1 
1 
1 
1 
1 
1 
1 
1 
1 
1 
1 
1 
1 
1 
1 
1 
1 
1 
1 
1 
1 
1 
1 
1 
1 
1 
1 
1 
1 
1 
1 
1 
1 
1 
1 
1 
1 
1 
1 
1 
1 
1 
1 
1 
1 
1 
1 
1 
1 
1 
1 
1 
1 
1 
1 
1 
1 
1 
1 
1 
1 
1 
1 
1 
1 
1 
1 
1 
1 
1 
1 
1 
1 
1 
1 
1 
1 
1 
1 
1 
1 
1 
1 
1 
1 
1 
1 
1 
1 
1 
1 
1 
1 
1 
1 
1 
1 
1 
1 
1 
1 
1 
1 
1 
1 
1 
1 
1 
1 
1 
1 
1 
1 
1 
1 
1 
1 
1 
1 
1 
1 
1 
1 
1 
1 
1 
1 
1 
1 
1 
1 
1 
1 
1 
1 
1 
1 
1 
1 
1 
1 
1 
1 
1 
1 
1 
1 
1 
1 
1 
1 
1 
1 
1 
1 
1 
1 
1 
1 
1 
1 
1 
1 
1 
1 
1 
1 
1 
1 
1 
1 
1 
1 
1 
1 
1 
1 
1 
1 
1 
1 
1 
1 
1 
1 
1 
1 
1 
1 
1 
1 
1 
1 
1 
1 
1 
1 
1 
1 
1 
1 
1 
1 
1 
1 
1 
1 
1 
1 
1 
1 
1 
1 
1 
1 
1 
1 
1 
1 
1 
1 
1 
1 
1 
1 
1 
1 
1 
1 
1 
1 
1 
1 
1 
1 
1 
1 
1 
1 
1 
1 
1 
1 
1 
1 
1 
1 
1 
1 
1 
1 
1 
1 
1 
1 
1 
1 
1 
1 
1 
1 
1 
1 
1 
1 
1 
1 
1 
1 
1 
1 
1 
1 
1 
1 
1 
1 
1 
1 
1 
1 
1 
1 
1 
1 
1 
1 
1 
1 
1 
1 
1 
1 
1 
1 
1 
1 
1 
1 
1 
1 
1 
1 
1 
1 
1 
1 
1 
1 
1 
1 
1 
1 
1 
1 
1 
1 
1 
1 
1 
1 
1 
1 
1 
1 
1 
1 
1 
1 
1 
1 
1 
1 
1 
1 
1 
1 
1 
1 
1 
1 
1 
1 
1 
1 
1 
1 
1 
1 
1 
1 
1 
1 
1 
1 
1 
1 
1 
1 
1 
1 
1 
1 
1 
1 
1 
1 
1 
1 
1 
1 
1 
1 
1 
1 
1 
1 
1 
1 
1 
1 
1 
1 
1 
1 
1 
1 
1 
1 
1 
1 
1 
1 
1 
1 
1 
1 
1 
1 
1 
1 
1 
1 
1 
1 
1 
1 
1 
1 
1 
1 
1 
1 
1 
1 
1 
1 
1 
1 
1 
1 
1 
1 
1 
1 
1 
1 
1 
1 
1 
1 
1 
1 
1 
1 
1 
1 
1 
1 
1 
1 
1 
1 
1 
1 
1 
1 
1 
1 
1 
1 
1 
1 
1 
1 
1 
1 
1 
1 
1 
1 
1 
1 
1 
1 
1 
1 
1 
1 
1 
1 
1 
1 
1 
1 
1 
1 
1 
1 
1 
1 
1 
1 
1 
1 
1 
1 
1 
1 
1 
1 
1 
1 
1 
1 
1 
1 
1 
1 
1 
1 
1 
1 
1 
1 
1 
1 
1 
1 
1 
1 
1 
1 
1 
1 
1 
1 
1 
1 
1 
1 
1 
1 
1 
1 
1 
1 
1 
1 
1 
1 
1 
1 
1 
1 
1 
1 
1 
1 
1 
1 
1 
1 
1 
1 
1 
1 
1 
1 
1 
1 
1 
1 
1 
1 
1 
1 
1 
1 
1 
1 
1 
1 
1 
1 
1 
1 
1 
1 
1 
1 
1 
1 
1 
1 
1 
1 
1 
1 
1 
1 
1 
1 
1 
1 
1 
1 
1 
1 
1 
1 
1 
1 
1 
1 
1 
1 
1 
1 
1 
1 
1 
1 
1 
1 
1 
1 
1 
1 
1 
1 
1 
1 
1 
1 
1 
1 
1 
1 
1 
1 
1 
1 
1 
1 
1 
1 
1 
1 
1 
1 
1 
1 
1 
1 
1 
1 
1 
1 
1 
1 
1 
1 
1 
1 
1 
1 
1 
1 
1 
1 
1 
1 
1 
1 
1 
1 
1 
1 
1 
1 
1 
1 
1 
1 
1 
1 
1 
1 
1 
1 
1 
1 
1 
1 
1 
1 
1 
1 
1 
1 
1 
1 
1 
1 
1 
1 
1 
1 
1 
1 
1 
1 
1 
1 
1 
1 
1 
1 
1 
1 
1 
1 
1 
1 
1 
1 
1 
1 
1 
1 
1 
1 
1 
1 
1 
1 
1 
1 
1 
1 
1 
1 
1 
1 
1 
1 
1 
1 
1 
1 
1 
1 
1 
1 
1 
1 
1 
1 
1 
1 
1 
1 
1 
1 
1 
1 
1 
1 
1 
1 
1 
1 
1 
1 
1 
1 
1 
1 
1 
1 
1 
1 
1 
1 
1 
1 
1 
1 
1 
1 
1 
1 
1 
1 
1 
1 
1 
1 
1 
1 
1 
1 
1 
1 
1 
1 
1 
1 
1 
1 
1 
1 
1 
1 
1 
1 
1 
1 
1 
1 
1 
1 
1 
1 
1 
1 
1 
1 
1 
1 
1 
1 
1 
1 
1 
1 
1 
1 
1 
1 
1 
1 
1 
1 
1 
1 
1 
1 
1 
1 
1 
1 
1 
1 
1 
1 
1 
1 
1 
1 
1 
1 
1 
1 
1 
1 
1 
1 
1 
1 
1 
1 
1 
1 
1 
1 
1 
1 
1 
1 
1 
1 
1 
1 
1 
1 
1 
1 
1 
1 
1 
1 
1 
1 
1 
1 
1 
1 
1 
1 
1 
1 
1 
1 
1 
1 
1 
1 
1 
1 
1 
1 
1 
1 
1 
1 
1 
1 
1 
1 
1 
1 
1 
1 
1 
1 
1 
1 
1 
1 
1 
1 
1 
1 
1 
1 
1 
1 
1 
1 
1 
1 
1 
1 
1 
1 
1 
1 
1 
1 
1 
1 
1 
1 
1 
1 
1 
1 
1 
1 
1 
1 
1 
1 
1 
1 
1 
1 
1 
1 
1 
1 
1 
1 
1 
1 
1 
1 
1 
1 
1 
1 
1 
1 
1 
1 
1 
1 
1 
1 
1 
1 
1 
1 
1 
1 
1 
1 
1 
1 
1 
1 
1 
1 
1 
1 
1 
1 
1 
1 
1 
1 
1 
1 
1 
1 
1 
1 
1 
1 
1 
1 
1 
1 
1 
1 
1 
1 
1 
1 
1 
1 
1 
1 
1 
1 
1 
1 
1 
1 
1 
1 
1 
1 
1 
1 
1 
1 
1 
1 
1 
1 
1 
1 
1 
1 
1 
1 
1 
1 
1 
1 
1 
1 
1 
1 
1 
1 
1 
1 
1 
1 
1 
1 
1 
1 
1 
1 
1 
1 
1 
1 
1 
1 
1 
1 
1 
1 
1 
1 
1 
1 
1 
1 
1 
1 
1 
1 
1 
1 
1 
1 
1 
1 
1 
1 
1 
1 
1 
1 
1 
1 
1 
1 
1 
1 
1 
1 
1 
1 
1 
1 
1 
1 
1 
1 
1 
1 
1 
1 
1 
1 
1 
1 
1 
1 
1 
1 
1 
1 
1 
1 
1 
1 
1 
1 
1 
1 
1 
1 
1 
1 
1 
1 
1 
1 
1 
1 
1 
1 
1 
1 
1 
1 
1 
1 
1 
1 
1 
1 
1 
1 
1 
1 
1 
1 
1 
1 
1 
1 
1 
1 
1 
1 
1 
1 
1 
1 
1 
1 
1 
1 
1 
1 
1 
1 
1 
1 
1 
1 
1 
1 
1 
1 
1 
1 
1 
1 
1 
1 
1 
1 
1 
1 
1 
1 
1 
1 
1 
1 
1 
1 
1 
1 
1 
1 
1 
1 
1 
1 
1 
1 
1 
1 
1 
1 
1 
1 
1 
1 
1 
1 
1 
1 
1 
1 
1 
1 
1 
1 
1 
1 
1 
1 
1 
1 
1 
1 
1 
1 
1 
1 
1 
1 
1 
1 
1 
1 
1 
1 
1 
1 
1 
1 
1 
1 
1 
1 
1 
1 
1 
1 
1 
1 
1 
1 
1 
1 
1 
1 
1 
1 
1 
1 
1 
1 
1 
1 
1 
1 
1 
1 
1 
1 
1 
1 
1 
1 
1 
1 
1 
1 
1 
1 
1 
1 
1 
1 
1 
1 
1 
1 
1 
1 
1 
1 
1 
1 
1 
1 
1 
1 
1 
1 
1 
1 
1 
1 
1 
1 
1 
1 
1 
1 
1 
1 
1 
1 
1 
1 
1 
1 
1 
1 
1 
1 
1 
1 
1 
1 
1 
1 
1 
1 
1 
1 
1 
1 
1 
1 
1 
1 
1 
1 
1 
1 
1 
1 
1 
1 
1 
1 
1 
1 
1 
1 
1 
1 
1 
1 
1 
1 
1 
1 
1 
1 
1 
1 
1 
1 
1 
1 
1 
1 
1 
1 
1 
1 
1 
1 
1 
1 
1 
1 
1 
1 
1 
1 
1 
1 
1 
1 
1 
1 
1 
1 
1 
1 
1 
1 
1 
1 
1 
1 
1 
1 
1 
1 
1 
1 
1 
1 
1 
1 
1 
1 
1 
1 
1 
1 
1 
1 
1 
1 
1 
1 
1 
1 
1 
1 
1 
1 
1 
1 
1 
1 
1 
1 
1 
1 
1 
1 
1 
1 
1 
1 
1 
1 
1 
1 
1 
1 
1 
1 
1 
1 
1 
1 
1 
1 
1 
1 
1 
1 
1 
1 
1 
1 
1 
1 
1 
1 
1 
1 
1 
1 
1 
1 
1 
1 
1 
1 
1 
1 
1 
1 
1 
1 
1 
1 
1 
1 
1 
1 
1 
1 
1 
1 
1 
1 
1 
1 
1 
1 
1 
1 
1 
1 
1 
1 
1 
1 
1 
1 
1 
1 
1 
1 
1 
1 
1 
1 
1 
1 
1 
1 
1 
1 
1 
1 
1 
1 
1 
1 
1 
1 
1 
1 
1 
1 
1 
1 
1 
1 
1 
1 
1 
1 
1 
1 
1 
1 
1 
1 
1 
1 
1 
1 
1 
1 
1 
1 
1 
1 
1 
1 
1 
1 
1 
1 
1 
1 
1 
1 
1 
1 
1 
1 
1 
1 
1 
1 
1 
1 
1 
1 
1 
1 
1 
1 
1 
1 
1 
1 
1 
1 
1 
1 
1 
POINT_DATA 5000
VECTORS Stress float
150.467 -1249.81 0.
-104.747 -1350.44 0.
-97.7306 -1334.08 0.
-836.133 -1646.73 0.
-849.624 -1678.33 0.
-863.114 -1709.93 0.
265.818 -1271.74 0.
224.259 -1368.88 0.
182.699 -1466.03 0.
213.321 -1426.29 0.
259.468 -1318.57 0.
305.615 -1210.85 0.
-1507.11 -2038.92 0.
-1543.69 -2124.08 0.
-295.866 -1620.6 0.
-131.102 -1236.08 0.
33.6628 -851.547 0.
-195.644 -845.473 0.
-376.181 -1267.26 0.
-556.718 -1689.05 0.
-631.724 -1807.39 0.
-562.825 -1646.7 0.
-493.927 -1486.01 0.
-716.409 -1460.38 0.
-653.038 -1312.49 0.
-461.198 -1109.55 0.
-1502.94 -1484.77 0.
-1464.64 -1395.23 0.
-1131.67 -1255.21 0.
-1290.65 -1626.69 0.
-1449.63 -1998.17 0.
-713.587 -1736.49 0.
-569.116 -1399.15 0.
-424.644 -1061.8 0.
-747.449 -1287.19 0.
-893.088 -1626.7 0.
-1038.73 -1966.21 0.
-906.422 -1921.37 0.
-894.255 -1892.87 0.
-2052.97 -2352.33 0.
-1965.37 -2148.11 0.
-1877.77 -1943.89 0.
-1828.79 -1678.33 0.
-1617.04 -1183.33 0.
-1405.3 -688.332 0.
-2686.42 -1403.1 0.
-3024.13 -2190.84 0.
-3361.84 -2978.58 0.
6410.16 1592.27 0.
6773.69 2440.91 0.
-49772.9 -21101 0.
5901.93 2095.12 0.
5553.53 1281.43 0.
-2511.82 -2617.21 0.
-2352.49 -2245.57 0.
-2193.16 -1873.93 0.
-1512.96 -1446.35 0.
-1551.17 -1535.3 0.
-1589.39 -1624.26 0.
-1348.4 -1460.18 0.
-1281.68 -1304.35 0.
-1214.96 -1148.53 0.
-1939.94 -1698.88 0.
-2086.04 -2039.6 0.
-638.165 -1670.67 0.
-670.614 -1746.41 0.
-703.063 -1822.15 0.
-468.158 -1754.93 0.
-460.96 -1738.34 0.
-453.761 -1721.76 0.
-741.404 -1772.28 0.
-678.53 -1625.42 0.
-615.657 -1478.57 0.
-2068.31 -1790.7 0.
-1880.88 -1353.44 0.
-559.271 -450.258 0.
-775.749 -1024.25 0.
-1028.23 -1613.66 0.
-815.496 -1884.52 0.
-815.747 -1885.01 0.
-815.998 -1885.49 0.
99.1281 -1474.9 0.
120.534 -1424.47 0.
141.94 -1374.05 0.
-541.05 -1496.75 0.
-426.471 -1228.64 0.
-311.892 -960.534 0.
-1066.7 -1445.87 0.
-1166.8 -1679.98 0.
-231.73 -1437.25 0.
-230.627 -1434.14 0.
-229.525 -1431.04 0.
-76.0919 -1375.96 0.
-83.4698 -1393.71 0.
-90.8478 -1411.46 0.
-688.159 -1572.66 0.
-598.185 -1362.62 0.
-508.211 -1152.59 0.
-203.306 -1176.73 0.
-331.184 -1474.02 0.
287.995 -1160.4 0.
-231.593 -1375.5 0.
-224.654 -1359.33 0.
-435.554 -1442.84 0.
-449.023 -1474.64 0.
-462.493 -1506.44 0.
-281.022 -1474.85 0.
-322.419 -1571.97 0.
-363.815 -1669.08 0.
161.181 -1417.5 0.
207.295 -1309.76 0.
253.409 -1202.02 0.
-1143.92 -1851.94 0.
-1180.63 -1937 0.
-576.841 -1710.32 0.
-412.11 -1325.71 0.
-247.379 -941.105 0.
-377.302 -891.892 0.
-557.492 -1313.94 0.
-737.683 -1735.99 0.
-157.197 -1572.89 0.
-88.2227 -1412.17 0.
-19.2488 -1251.46 0.
-941.857 -1525.56 0.
-878.573 -1377.84 0.
-1145.99 -1371.84 0.
-1277.55 -1356 0.
-1239.39 -1266.47 0.
-1095.82 -1208.85 0.
-1254.45 -1580.58 0.
-1413.09 -1952.31 0.
-776.791 -1732.36 0.
-632.439 -1394.82 0.
-488.087 -1057.27 0.
-600.589 -1193.23 0.
-746.422 -1532.57 0.
-892.255 -1871.92 0.
-1111.09 -1978.33 0.
-1098.97 -1949.7 0.
-1557.35 -2108.63 0.
-1469.61 -1904.46 0.
-1381.88 -1700.29 0.
-2019.67 -1728.88 0.
-1808.36 -1233.08 0.
-1597.06 -737.285 0.
-1483.71 -859.298 0.
-1821.85 -1647.51 0.
-2159.98 -2435.71 0.
5051.77 1042.19 0.
5414.69 1890.21 0.
-41004.3 -17311.6 0.
4890.52 1693.07 0.
4542.85 879.595 0.
-1846.1 -2299.85 0.
-1686.65 -1928.18 0.
-1527.19 -1556.51 0.
-1183 -1274.04 0.
-1221.37 -1362.89 0.
-1259.73 -1451.75 0.
-1262.04 -1392.14 0.
-1195.39 -1236.19 0.
-1128.75 -1080.23 0.
-2109.85 -1740.2 0.
-2256.08 -2080.79 0.
-621.461 -1632.59 0.
-653.89 -1708.33 0.
-686.319 -1784.07 0.
-329.872 -1663.61 0.
-322.525 -1647.11 0.
-315.178 -1630.61 0.
-778.392 -1756.83 0.
-715.629 -1609.94 0.
-652.867 -1463.05 0.
-1904.09 -1689.7 0.
-1716.58 -1252.44 0.
-895.846 -562.095 0.
-1037.25 -1104.08 0.
-1289.53 -1693.59 0.
-189.978 -1585.22 0.
-190.306 -1585.68 0.
-190.634 -1586.15 0.
-8.8082 -1489.97 0.
12.2963 -1439.29 0.
33.4007 -1388.61 0.
-993.636 -1660.06 0.
-879.593 -1391.68 0.
-765.549 -1123.31 0.
-1000.7 -1386.72 0.
-1100.51 -1621.22 0.
-74.2854 -1339.81 0.
-73.5025 -1336.39 0.
-72.7197 -1332.97 0.
50.6787 -1289.82 0.
43.5388 -1308.1 0.
36.3988 -1326.38 0.
-697.063 -1545.4 0.
-607.102 -1335.2 0.
-517.14 -1125 0.
185.182 -978.454 0.
56.81 -1274.72 0.
227.508 -1530.75 0.
-452.408 -1622.23 0.
-375.247 -1439.99 0.
-333.716 -1936.97 0.
-97.6875 -1386.28 0.
-335.411 -1941.07 0.
-1978.23 -4365.71 0.
-1880.1 -4137.46 0.
-3624.56 -8208.6 0.
-3180.4 -9083.16 0.
-1763.81 -5778.7 0.
-1905.96 -6111.3 0.
-2693.41 -6128.94 0.
-2780.84 -6330.64 0.
-4034.02 -9215.33 0.
-1837 -4086.73 0.
-2009.93 -4488.01 0.
-2088.99 -4519.78 0.
-2541.87 -5575.26 0.
-5340.7 -12104.6 0.
-8580.08 -22098.7 0.
-3306.88 -9793.13 0.
-2637.32 -8229.36 0.
-3310.81 -6594.58 0.
-2566.62 -4857.85 0.
-3375.46 -6801.08 0.
-2548.22 -4712.35 0.
-2456.85 -4498.4 0.
-2171.19 -3766.84 0.
-2249.33 -3946.48 0.
-3630.3 -7166.04 0.
-5298.58 -12132.6 0.
-3243.84 -7340.41 0.
-3171.91 -7174.8 0.
-3241.77 -7600.08 0.
-4059.55 -9510.97 0.
-7505.09 -17553.3 0.
-8306.36 -18347.9 0.
-6490.26 -14111 0.
-6345.31 -14198.5 0.
-4172.11 -9127.63 0.
-4019.16 -8770.62 0.
-3935.83 -5803.52 0.
-2971.92 -3556.14 0.
-3178.26 -4039.36 0.
-2195.76 -4780.79 0.
-2570 -5653.9 0.
-6329.45 -14425.9 0.
1682.85 -4200.66 0.
1892.75 -3710.03 0.
-35709.5 -22713.7 0.
1510.19 -4235.31 0.
1023.46 -5371.49 0.
-6363.13 -14080.9 0.
-3396.56 -7157.93 0.
-4111.97 -8826.28 0.
-3668.66 -7666.99 0.
-3005.88 -6120.61 0.
-3925.19 -8265.75 0.
-3955.98 -7816.83 0.
-2776.83 -5066.67 0.
-2914.75 -5389.69 0.
-3470.57 -4557.79 0.
-3528.14 -4693.71 0.
-3446.46 -8223.93 0.
-3709.39 -8837.84 0.
-6176.51 -14594.9 0.
-9048.71 -22240.6 0.
-3934.37 -10306.3 0.
-3698.23 -9754.39 0.
-3801.04 -8706.42 0.
-3340.28 -7631.82 0.
-4934.43 -11352 0.
-2952.43 -4418 0.
-2557.69 -3496.04 0.
-2827.94 -4541.57 0.
-2301.49 -3529.14 0.
-3367.59 -6015.01 0.
-6662.66 -17847.7 0.
-5071.81 -14135.2 0.
-7212.11 -19128.7 0.
-6821.23 -17147.9 0.
-4467.84 -11656.6 0.
-4614.5 -11998.7 0.
-2932.47 -5290.85 0.
-1796.69 -2643.06 0.
-2409.88 -4076.22 0.
-2119.21 -4086.05 0.
-2360.87 -4649.5 0.
-2125.43 -6400.85 0.
-594.288 -2827.25 0.
-470.97 -2538.91 0.
-535.893 -2868.55 0.
-396.405 -2543.93 0.
-1146.96 -4296.05 0.
-1427.01 -3202.46 0.
-790.42 -1717.3 0.
-636.529 -1358.59 0.
117.64 -1848.73 0.
-679.369 -3710.49 0.
310.721 -406.266 0.
-4.79193 -570.949 0.
-44.5689 -662.524 0.
389.103 -493.111 0.
509.809 -210.508 0.
630.516 72.0939 0.
110.106 148.422 0.
318.02 633.117 0.
525.935 1117.81 0.
984.815 1377.18 0.
925.024 1236.38 0.
865.232 1095.58 0.
519.012 1101.91 0.
618.431 1335.48 0.
517.648 1447.47 0.
416.26 1212.75 0.
314.873 978.022 0.
449.098 1125.41 0.
814.491 1978.67 0.
1179.88 2831.93 0.
1945.92 3349.68 0.
1820.39 3056.42 0.
1694.86 2763.17 0.
482.747 2045.17 0.
382.223 1810.43 0.
831.615 1811.31 0.
-4.9317 1197.12 0.
-137.537 887.726 0.
80.3185 900.995 0.
373.691 1588.03 0.
667.064 2275.07 0.
996.664 2551.39 0.
782.273 2050.2 0.
567.882 1549.01 0.
811.611 2027.26 0.
1224.23 2988.39 0.
1636.86 3949.52 0.
1170.82 3836.79 0.
1166.6 3827.16 0.
1326.16 3830.59 0.
1047.75 3181.37 0.
769.349 2532.14 0.
-85.0396 1576.85 0.
-461.315 698.43 0.
-837.59 -179.989 0.
207.745 232 0.
482.118 871.486 0.
756.492 1510.97 0.
3817.68 2940.42 0.
3818.84 2942.68 0.
-5198.29 -919.558 0.
3956.93 3080.14 0.
3996.74 3173.14 0.
659.764 1786.96 0.
621.069 1697.08 0.
582.373 1607.2 0.
411.919 1537.68 0.
459.904 1649.64 0.
507.89 1761.61 0.
79.2556 1446.96 0.
-42.8618 1161.58 0.
-164.979 876.19 0.
-610.869 890.703 0.
-477.598 1199.96 0.
793.177 2035.06 0.
1089.5 2725.52 0.
1385.83 3415.99 0.
1843.89 3855.17 0.
1657.72 3420.11 0.
1471.54 2985.05 0.
971.469 2621.8 0.
973.828 2625.82 0.
976.188 2629.84 0.
135.302 1733.66 0.
-220.366 906.481 0.
-150.265 292.1 0.
232.389 1346.1 0.
698.648 2435.94 0.
1858.86 3660.18 0.
1979.49 3942.23 0.
2100.11 4224.28 0.
2065.49 4144.93 0.
1846.62 3634.25 0.
1627.75 3123.58 0.
424.815 2064.68 0.
114.553 1338.61 0.
-195.71 612.54 0.
184.474 728.667 0.
179.953 719.662 0.
967.531 994.638 0.
780.616 559.376 0.
593.701 124.114 0.
604.714 -60.1419 0.
650.124 46.0637 0.
695.534 152.269 0.
34.6198 -246.479 0.
-98.0449 -555.407 0.
-230.709 -864.335 0.
559.458 -355.765 0.
702.652 -21.8711 0.
-160.723 -576.098 0.
8.18228 -533.789 0.
-31.3461 -625.736 0.
533.398 -399.228 0.
653.696 -116.519 0.
773.994 166.19 0.
314.913 267.642 0.
522.775 752.512 0.
730.638 1237.38 0.
612.052 1248.94 0.
552.445 1108.18 0.
492.838 967.416 0.
674.317 1199.48 0.
774.01 1432.96 0.
511.859 1476.21 0.
410.624 1241.46 0.
309.389 1006.71 0.
610.962 1226.11 0.
976.574 2079.3 0.
1342.19 2932.48 0.
1497.08 3190.17 0.
1372.13 2896.4 0.
1247.17 2602.63 0.
610.851 2132.18 0.
510.447 1897.25 0.
1105.99 1960.5 0.
24.9589 1241.97 0.
-107.481 932.255 0.
404.418 1071.56 0.
697.909 1758.67 0.
991.4 2445.79 0.
1015.56 2590.55 0.
800.853 2089.91 0.
586.142 1589.26 0.
738.75 2026.69 0.
1150.97 2987.97 0.
1563.19 3949.26 0.
1150.18 3859.89 0.
1145.64 3850.42 0.
1275.21 3840.73 0.
996.794 3191.77 0.
718.382 2542.81 0.
773.574 1975.47 0.
396.745 1097.07 0.
19.9182 218.673 0.
535.3 400.899 0.
809.962 1040.24 0.
1084.63 1679.59 0.
2700.81 2494.24 0.
2702.23 2495.78 0.
-2471.77 280.326 0.
3130.03 2757.1 0.
3169.75 2850.5 0.
948.67 1942.17 0.
910.167 1852.18 0.
871.663 1762.2 0.
594.448 1646.89 0.
642.337 1758.74 0.
690.226 1870.58 0.
175.74 1520.31 0.
53.4482 1235.27 0.
-68.8433 950.238 0.
48.6644 1205.48 0.
182.105 1514.99 0.
616.994 1990.45 0.
913.452 2680.68 0.
1209.91 3370.92 0.
1503.96 3741.7 0.
1318.22 3306.16 0.
1132.49 2870.61 0.
887.874 2619.1 0.
890.456 2622.68 0.
893.039 2626.26 0.
705.638 2011.4 0.
349.241 1184.33 0.
382.552 550.332 0.
792.873 1616.75 0.
1259.31 2707.21 0.
1022.69 3333.4 0.
1143.4 3615.75 0.
1264.11 3898.09 0.
1789.63 4058.41 0.
1570.81 3547.8 0.
1351.99 3037.18 0.
692.256 2210.57 0.
381.859 1484.44 0.
71.4621 758.304 0.
495.151 893.017 0.
490.165 884.134 0.
889.586 991.013 0.
702.555 555.772 0.
515.523 120.53 0.
544.728 -53.0945 0.
589.841 53.4671 0.
634.953 160.029 0.
289.253 -106.77 0.
156.261 -415.608 0.
23.2688 -724.446 0.
333.774 -420.122 0.
476.517 -85.4599 0.
-660.511 -1374.5 0.
-364.102 -1350.08 0.
-396.852 -1429.32 0.
114.568 -1276.11 0.
87.8129 -1340.67 0.
61.057 -1405.23 0.
-497.661 -1662.74 0.
-483.944 -1631.94 0.
-470.227 -1601.13 0.
-677.57 -1671.42 0.
-663.615 -1640.05 0.
-649.661 -1608.68 0.
-537.583 -1579.53 0.
-553.177 -1616.76 0.
-843.237 -1765.6 0.
-815.173 -1700.93 0.
-787.108 -1636.26 0.
-460.984 -1493.45 0.
-521.901 -1633.13 0.
-582.817 -1772.82 0.
-820.19 -1867.3 0.
-754.76 -1716.86 0.
-689.33 -1566.42 0.
-917.811 -1598.21 0.
-891.548 -1540.8 0.
-349.411 -1262.2 0.
-1065.39 -1397.84 0.
-973.717 -1182.49 0.
-390.986 -871.306 0.
-574.328 -1299.96 0.
-757.67 -1728.62 0.
-868.945 -1895.84 0.
-773.045 -1678.93 0.
-677.144 -1462.01 0.
-829.541 -1688.21 0.
-1003.94 -2098.3 0.
-1178.33 -2508.39 0.
-1589.84 -2690.57 0.
-1568.11 -2644.34 0.
-1415.42 -2533.89 0.
-1353.06 -2391.98 0.
-1290.7 -2250.07 0.
-504.849 -1788.59 0.
-428.434 -1612.53 0.
-352.019 -1436.47 0.
-141.7 -1222.72 0.
-86.7134 -1097.52 0.
-31.7281 -972.322 0.
586.025 -1157.84 0.
272.658 -1890.53 0.
-2611.97 -3726.38 0.
519.172 -2067.19 0.
687.726 -1677.64 0.
-601.3 -1988.42 0.
-613.061 -2007.49 0.
-624.821 -2026.56 0.
-985.577 -2099.9 0.
-880.225 -1857.08 0.
-774.872 -1614.25 0.
-1083.82 -1694.7 0.
-1096.12 -1721.89 0.
-1108.41 -1749.08 0.
-912.037 -1693.09 0.
-927.831 -1728.69 0.
-1141.26 -1878.14 0.
-1284.81 -2211.03 0.
-1428.36 -2543.92 0.
-1193.77 -2520.52 0.
-1035.08 -2148.27 0.
-876.395 -1776.01 0.
-1041.93 -1780.77 0.
-1102.84 -1919.46 0.
-1163.75 -2058.15 0.
-742.8 -1749.58 0.
-639.192 -1514.86 0.
-242.422 -1159.48 0.
-373.642 -1390.73 0.
-466.6 -1605.59 0.
-1488.58 -2191.16 0.
-1529.35 -2284.29 0.
-1570.12 -2377.42 0.
-963.759 -2158.77 0.
-966.873 -2166.58 0.
-969.988 -2174.4 0.
-932.788 -2057.5 0.
-852.092 -1870.11 0.
-771.397 -1682.73 0.
-444.317 -1566.44 0.
-466.655 -1616.49 0.
-365.122 -1582.3 0.
-269.869 -1359.69 0.
-174.617 -1137.09 0.
186.709 -922.296 0.
101.461 -1118.07 0.
16.2139 -1313.84 0.
-257.216 -1440.89 0.
-206.475 -1323.69 0.
-155.733 -1206.5 0.
-172.83 -1312.99 0.
-249.244 -1490.3 0.
-558.693 -1301.63 0.
-388.551 -1329.11 0.
-421.846 -1407.97 0.
-99.6139 -1337.93 0.
-126.081 -1402.94 0.
-152.548 -1467.96 0.
-635.613 -1689.34 0.
-622.084 -1658.8 0.
-608.555 -1628.26 0.
-374.658 -1511.06 0.
-360.815 -1479.65 0.
-346.971 -1448.23 0.
-717.557 -1626.67 0.
-733.554 -1663.65 0.
-719.383 -1681.28 0.
-691.601 -1616.39 0.
-663.819 -1551.5 0.
-363.574 -1420.93 0.
-424.436 -1561.01 0.
-485.299 -1701.08 0.
-714.027 -1790.54 0.
-648.754 -1639.89 0.
-583.48 -1489.23 0.
-840.363 -1534.74 0.
-814.085 -1477.23 0.
-1312.78 -1644.75 0.
-969.384 -1325.65 0.
-877.876 -1110.68 0.
-580.475 -921.403 0.
-764.26 -1349.72 0.
-948.046 -1778.04 0.
-756.162 -1817.18 0.
-660.94 -1599.75 0.
-565.717 -1382.32 0.
-674.744 -1591.85 0.
-848.837 -2002.02 0.
-1022.93 -2412.19 0.
-1374.49 -2568.31 0.
-1352.84 -2521.77 0.
-1227.32 -2421.96 0.
-1164.64 -2280.58 0.
-1101.95 -2139.2 0.
-515.572 -1761.62 0.
-439.152 -1585.81 0.
-362.731 -1409.99 0.
-395.027 -1303.7 0.
-340.013 -1178.71 0.
-285.001 -1053.73 0.
345.206 -1229.48 0.
32.2948 -1962.16 0.
-2427.56 -3617.52 0.
49.4483 -2238.74 0.
218.015 -1849.44 0.
-546.142 -1932.88 0.
-557.557 -1952.13 0.
-568.972 -1971.39 0.
-1070.91 -2106.92 0.
-965.974 -1863.79 0.
-861.035 -1620.66 0.
-856.907 -1567.41 0.
-869.532 -1594.25 0.
-882.156 -1621.09 0.
-847.109 -1633.98 0.
-862.476 -1670.09 0.
-1178.57 -1862.24 0.
-1322.2 -2195.31 0.
-1465.83 -2528.38 0.
-872.251 -2350.45 0.
-713.179 -1978.51 0.
-554.107 -1606.56 0.
-1035.43 -1747.2 0.
-1096.38 -1885.73 0.
-1157.33 -2024.27 0.
-872.057 -1773.61 0.
-768.798 -1538.17 0.
-441.779 -1214.35 0.
-585.337 -1450.59 0.
-678.414 -1665.19 0.
-997.965 -1950.9 0.
-1038.66 -2043.6 0.
-1079.36 -2136.3 0.
-886.214 -2096.06 0.
-889.438 -2103.8 0.
-892.663 -2111.53 0.
-674.33 -1916 0.
-593.645 -1728.55 0.
-512.96 -1541.1 0.
-468.172 -1547.28 0.
-490.023 -1597.77 0.
-623.138 -1661.32 0.
-527.556 -1439.15 0.
-431.974 -1216.97 0.
301.624 -842.483 0.
216.69 -1038.56 0.
131.755 -1234.64 0.
-405.999 -1474.65 0.
-355.672 -1357.24 0.
-305.346 -1239.83 0.
-219.691 -1301.83 0.
-296.83 -1478.82 0.
-363.445 -984.751 0.
-36.2011 -436.619 0.
-40.0799 -442.633 0.
-103.87 -914.703 0.
36.4958 -585.971 0.
85.5008 -470.396 0.
-991.595 -2225.48 0.
-62.1098 -58.3878 0.
-122.449 -201.289 0.
198.823 -725.672 0.
-127.412 -1486.83 0.
360.81 -347.596 0.
-289.735 -251.724 0.
-375.879 -457.198 0.
-366.091 -1058.3 0.
-108.218 -461.857 0.
-527.461 -1445.37 0.
-685.784 -2310.77 0.
-445.123 -1752.12 0.
23.0776 -662.575 0.
-116.854 -563.205 0.
-99.6948 -523.775 0.
-69.355 -453.634 0.
-312.402 -425.434 0.
-648.626 -1207.87 0.
-598.572 -979.654 0.
-630.655 -681.287 0.
-878.48 -1265.22 0.
-676.116 -747.032 0.
-256.496 225.571 0.
75.9262 994.73 0.
-692.283 -1851.06 0.
-287.178 -906.233 0.
166.324 151.606 0.
356.9 547.211 0.
-538.245 -1539.46 0.
-1257.83 -3216.58 0.
-1255.01 -2672.98 0.
-768.034 -1534.72 0.
-700.82 -1528.69 0.
-576.591 -1235.82 0.
-248.112 -466.465 0.
-104.806 -754.082 0.
-352.882 -1333.29 0.
238.506 46.121 0.
-269.919 -514.156 0.
-612.118 -1308.5 0.
-395.525 -799.055 0.
-60.2903 -1691.27 0.
643.098 -46.8517 0.
-1367.23 -1619 0.
561.888 -134.238 0.
399.474 -510.258 0.
91.5078 -501.264 0.
-387.849 -1622.63 0.
-853.489 -2711.97 0.
-522.423 -641.571 0.
28.7726 643.185 0.
-59.8474 435.057 0.
-375.03 -843.213 0.
-823.179 -1892.07 0.
298.544 722.2 0.
-147.679 -93.8221 0.
-921.817 -1897.34 0.
-1215.59 -1843.36 0.
-131.948 683.929 0.
-585.967 -376.677 0.
216.417 -380.702 0.
-1.46659 -888.447 0.
87.6849 -679.739 0.
-943.526 -1511.67 0.
-22.9067 633.714 0.
-88.2914 478.482 0.
-833.641 -1406.66 0.
-1087.97 -1998.66 0.
-17.1355 -262.529 0.
-511.305 -855.93 0.
-779.68 -1482.38 0.
313.472 225.498 0.
-251.082 -1091.48 0.
-324.587 -1262.62 0.
-519.427 -1359.25 0.
-345.321 -953.524 0.
-208.988 -635.876 0.
-349.433 -1620.34 0.
-384.149 -1700.36 0.
-843.738 -2771.78 0.
-274.179 -1011.87 0.
201.277 97.0724 0.
75.877 473.249 0.
-104.344 50.6046 0.
-303.061 -415.36 0.
607.346 -316.573 0.
605.463 -319.782 0.
1088.15 807.681 0.
-118.25 -490.963 0.
-263.55 -830.524 0.
-300.971 -918.332 0.
364.682 174.358 0.
-5.2253 -687.842 0.
-234.578 -986.699 0.
-17.5388 -739.834 0.
66.2931 -542.811 0.
77.7194 -434.214 0.
8.35053 -595.424 0.
-61.0183 -756.634 0.
-286.812 -983.11 0.
-347.05 -1123.5 0.
-407.287 -1263.89 0.
-26.6 -1089.93 0.
10.2285 -1005.04 0.
47.0567 -920.141 0.
-553.688 -1153.68 0.
-539.216 -1124.01 0.
-221.149 -976.13 0.
-245.116 -1036.39 0.
-269.084 -1096.64 0.
-447.254 -1246.3 0.
-523.185 -1425.57 0.
-599.116 -1604.84 0.
-590.841 -1658.37 0.
-580.473 -1634.7 0.
-570.105 -1611.02 0.
-728.573 -1571.76 0.
-657.369 -1405.1 0.
-590.87 -1240.28 0.
-978.684 -1291.94 0.
-916.242 -1150.36 0.
-782.224 -1029.97 0.
-840.898 -1171.72 0.
-899.572 -1313.47 0.
-434.939 -1200.28 0.
-456.693 -1252.87 0.
-478.447 -1305.47 0.
-362.702 -1155.06 0.
-271.951 -940.706 0.
-181.201 -726.355 0.
-422.188 -1049.91 0.
-566.662 -1384.96 0.
-847.115 -1727.49 0.
-754.412 -1509.25 0.
-661.709 -1291.02 0.
-232.659 -1048.72 0.
-325.627 -1266.57 0.
-418.595 -1484.42 0.
-712.974 -1628.65 0.
-656.511 -1495.79 0.
-600.048 -1362.92 0.
47.5657 -1165.59 0.
-19.5706 -1319.86 0.
-696.731 -1733 0.
192.407 -985.624 0.
382.631 -538.095 0.
-121.461 -508.256 0.
-198.861 -691.666 0.
-276.26 -875.075 0.
-779.537 -1315.97 0.
-954.12 -1725.07 0.
-1128.7 -2134.18 0.
-762.382 -1914.04 0.
-624.957 -1595.27 0.
-487.532 -1276.5 0.
-799.872 -1322.39 0.
-765.918 -1241.09 0.
-796.964 -1222.1 0.
-882.875 -1423.5 0.
-968.785 -1624.9 0.
-374.073 -1441.47 0.
-325.383 -1326.87 0.
-276.693 -1212.27 0.
-611.316 -1244.89 0.
-544.663 -1090.67 0.
-478.009 -936.445 0.
-804.759 -1047.86 0.
-806.418 -1049.42 0.
-340.871 -856.053 0.
-447.849 -1044.44 0.
-523.007 -1219.19 0.
-434.055 -1337.87 0.
-555.334 -1620.33 0.
-676.612 -1902.78 0.
-512.432 -1821.65 0.
-350.46 -1443 0.
-188.488 -1064.35 0.
-123.025 -876.41 0.
-76.007 -765.061 0.
-28.9889 -653.711 0.
-391.801 -955.115 0.
-479.627 -1159.5 0.
-461.97 -1303.57 0.
-479.667 -1345.71 0.
-497.363 -1387.85 0.
-25.8732 -1206.16 0.
-23.2367 -1198.23 0.
-20.6006 -1190.29 0.
-384.263 -1271.55 0.
-317.153 -1115.49 0.
-250.043 -959.422 0.
-100.66 -837.219 0.
-79.8517 -787.718 0.
-60.0933 -882.2 0.
181.318 -622.695 0.
265.664 -426.042 0.
64.6806 -407.828 0.
-4.5661 -569.357 0.
-73.8128 -730.886 0.
-59.2194 -854.177 0.
-119.969 -994.007 0.
-180.719 -1133.84 0.
-94.4839 -1087.33 0.
-57.4132 -1002.92 0.
-20.3426 -918.506 0.
-386.955 -1051.1 0.
-372.646 -1021.22 0.
-69.3264 -878.165 0.
-93.5369 -938.405 0.
-117.748 -998.646 0.
-697.938 -1323.42 0.
-774.102 -1502.61 0.
-850.266 -1681.79 0.
-579.787 -1621.82 0.
-569.569 -1598.14 0.
-559.351 -1574.45 0.
-619.789 -1493.33 0.
-547.88 -1327 0.
-494.256 -1168.31 0.
-1067.41 -1298.8 0.
-1005.42 -1156.77 0.
-748.358 -985.308 0.
-807.748 -1126.61 0.
-867.137 -1267.92 0.
-444.295 -1172.99 0.
-465.86 -1226.09 0.
-487.425 -1279.2 0.
-333.95 -1110.85 0.
-243.402 -896.406 0.
-152.854 -681.966 0.
-236.809 -938.047 0.
-381.228 -1273.29 0.
-904.93 -1719.05 0.
-812.027 -1501.62 0.
-719.124 -1284.19 0.
-217.913 -1011.35 0.
-310.714 -1229.08 0.
-403.515 -1446.81 0.
-654.214 -1572.34 0.
-596.876 -1439.84 0.
-539.537 -1307.35 0.
-78.4035 -1187.15 0.
-145.25 -1341.53 0.
-1359.13 -1986.99 0.
201.277 -952.296 0.
391.323 -504.779 0.
-361.525 -578.936 0.
-438.943 -762.167 0.
-516.361 -945.399 0.
-723.827 -1260.59 0.
-898.191 -1669.65 0.
-1072.56 -2078.72 0.
-658.554 -1838.89 0.
-521.483 -1519.14 0.
-384.412 -1199.39 0.
-937.777 -1351.51 0.
-903.433 -1270.5 0.
-593.14 -1101.42 0.
-678.806 -1302.78 0.
-764.472 -1504.13 0.
-523.457 -1473.3 0.
-474.878 -1358.52 0.
-426.299 -1243.73 0.
-328.749 -1094.73 0.
-262.568 -939.985 0.
-196.387 -785.241 0.
-941.039 -1074.23 0.
-942.971 -1075.72 0.
-65.0374 -707.615 0.
-255.66 -931.621 0.
-330.934 -1106.17 0.
-512.018 -1339.56 0.
-633.249 -1621.65 0.
-754.479 -1903.75 0.
-245.249 -1676.22 0.
-83.4078 -1297.09 0.
78.4339 -917.972 0.
-219.302 -885.415 0.
-172.396 -773.807 0.
-125.491 -662.2 0.
-549.257 -991.286 0.
-637.472 -1195.29 0.
-172.373 -1148.7 0.
-190.334 -1190.36 0.
-208.295 -1232.01 0.
-319.34 -1302.61 0.
-316.935 -1294.73 0.
-314.53 -1286.86 0.
-283.742 -1197.04 0.
-216.654 -1040.96 0.
-149.565 -884.884 0.
-123.486 -816.275 0.
-102.764 -766.969 0.
-105.83 -1222.12 0.
-3.08554 -1156.71 0.
-2.365 -1157.29 0.
-340.158 -1276.46 0.
-279.725 -1137.22 0.
-219.29 -997.992 0.
-85.2625 -961.078 0.
-185.629 -1197.52 0.
-285.995 -1433.96 0.
-341.944 -1452.66 0.
-284.999 -1318.96 0.
-228.054 -1185.26 0.
-358.602 -1341.02 0.
-427.523 -1498.94 0.
-357.839 -1588.28 0.
-354.23 -1577.91 0.
-350.62 -1567.54 0.
-946.625 -1809.81 0.
-932.888 -1777.58 0.
-919.149 -1745.34 0.
-521.992 -1579.46 0.
-537.24 -1614.84 0.
-552.487 -1650.22 0.
-779.067 -1665.18 0.
-717.93 -1521.18 0.
-371.698 -1254.93 0.
-1174.22 -1716.35 0.
-1235.78 -1861.64 0.
-996.916 -1818.87 0.
-902.743 -1596.07 0.
-808.57 -1373.28 0.
-571.455 -1217.4 0.
-625.58 -1345.32 0.
-679.704 -1473.24 0.
-569.618 -1598.37 0.
-673.649 -1841.19 0.
-777.681 -2084.01 0.
-633.992 -1946.82 0.
-579.22 -1818.3 0.
-902.765 -1871.61 0.
-942.43 -1960.82 0.
-982.095 -2050.04 0.
-715.269 -1929.47 0.
-630.464 -1726.28 0.
-545.66 -1523.09 0.
-578.317 -1537.96 0.
-650.75 -1708.02 0.
-723.181 -1878.07 0.
-369.602 -1691.68 0.
-324.184 -1590.23 0.
-1886.07 -2176.15 0.
18.5667 -1239.36 0.
81.8773 -1091.54 0.
-806.303 -1424.9 0.
-932.519 -1715.74 0.
-1058.73 -2006.58 0.
-976.048 -1998.18 0.
-849.889 -1701.99 0.
-723.73 -1405.8 0.
-458.872 -1231.57 0.
-472.385 -1262.75 0.
-485.897 -1293.92 0.
-1050.85 -1602.6 0.
-1089.98 -1694.91 0.
-697.059 -1588.73 0.
-691.583 -1574.34 0.
-686.108 -1559.96 0.
-600.076 -1520.06 0.
-611.597 -1546.56 0.
-623.119 -1573.05 0.
-412.179 -1554.98 0.
-476.557 -1707.28 0.
-540.936 -1859.57 0.
-1473.29 -2103.34 0.
-1342.42 -1801.61 0.
-164.899 -1051.37 0.
-372.389 -1299.24 0.
-455.479 -1493.82 0.
-662.306 -1718.02 0.
-697.056 -1798.48 0.
-731.805 -1878.93 0.
-209.43 -1664.93 0.
-181.887 -1602.16 0.
-154.346 -1539.39 0.
-624.092 -1793.4 0.
-679.929 -1926.96 0.
-735.766 -2060.52 0.
-973.683 -1896.57 0.
-813.808 -1526.1 0.
14.6447 -923.724 0.
-46.6119 -1066.61 0.
-107.869 -1209.49 0.
-391.342 -1351.89 0.
-311.711 -1168.58 0.
-232.08 -985.273 0.
-171.166 -980.079 0.
-251.023 -1165.96 0.
-330.879 -1351.83 0.
-316.997 -1307.1 0.
-266.544 -1193.89 0.
-20.2763 -1152.49 0.
-53.532 -1146.14 0.
-53.028 -1146.76 0.
-373.56 -1260.22 0.
-313.394 -1120.65 0.
-253.227 -981.074 0.
-223.301 -987.946 0.
-323.451 -1224.4 0.
-423.601 -1460.86 0.
-458.926 -1472.73 0.
-401.927 -1339.02 0.
-344.928 -1205.31 0.
-124.062 -1209.59 0.
-193.147 -1367.39 0.
-438.775 -1591.42 0.
-434.987 -1581.24 0.
-431.199 -1571.07 0.
-766.056 -1701.1 0.
-752.438 -1668.99 0.
-738.819 -1636.88 0.
-410.4 -1499.15 0.
-425.288 -1534.88 0.
-440.177 -1570.61 0.
-1066.08 -1758.31 0.
-1004.89 -1614.72 0.
-331.659 -1208.75 0.
-880.003 -1558.75 0.
-941.381 -1704.43 0.
-744.882 -1677.75 0.
-650.62 -1455.59 0.
-556.358 -1233.43 0.
-795.084 -1282.99 0.
-849.342 -1411.22 0.
-903.601 -1539.46 0.
-622.923 -1589.21 0.
-727.806 -1831.73 0.
-832.69 -2074.25 0.
-695.459 -1942.23 0.
-641.414 -1813.38 0.
-646.733 -1731.23 0.
-686.692 -1820.83 0.
-726.649 -1910.43 0.
-965.588 -2004.97 0.
-880.16 -1802.69 0.
-794.732 -1600.41 0.
-461.986 -1455.17 0.
-534.568 -1625.18 0.
-607.151 -1795.2 0.
-387.923 -1669.83 0.
-343.371 -1567.75 0.
-663.437 -1621.71 0.
-108.632 -1262.59 0.
-45.9338 -1114.41 0.
-746.916 -1367.86 0.
-872.973 -1659.09 0.
-999.03 -1950.32 0.
-842.934 -1908.66 0.
-716.293 -1613.26 0.
-589.652 -1317.86 0.
-682.968 -1294.44 0.
-696.872 -1325.36 0.
-710.775 -1356.28 0.
-884.987 -1500.37 0.
-924.32 -1592.3 0.
-618.873 -1525.2 0.
-613.383 -1510.19 0.
-607.893 -1495.17 0.
-564.834 -1474.53 0.
-576.429 -1500.44 0.
-588.024 -1526.34 0.
-383.024 -1512.89 0.
-447.225 -1665.24 0.
-511.425 -1817.6 0.
-1519.05 -2089.52 0.
-1388.05 -1788.08 0.
-557.473 -1188.97 0.
-421.743 -1289.38 0.
-505.072 -1483.66 0.
-538.547 -1634.73 0.
-573.392 -1714.62 0.
-608.237 -1794.51 0.
-357.544 -1698.29 0.
-330.292 -1635.24 0.
-303.041 -1572.2 0.
-520.132 -1716.49 0.
-576.399 -1849.49 0.
-632.666 -1982.5 0.
-865.313 -1820.42 0.
-705.85 -1449.13 0.
-19.1245 -906.169 0.
-80.2223 -1049.01 0.
-141.32 -1191.85 0.
-190.646 -1234.96 0.
-112.003 -1050.71 0.
-33.359 -866.461 0.
-193.836 -959.208 0.
-273.862 -1144.76 0.
-353.887 -1330.32 0.
-216.762 -1233.38 0.
-165.827 -1119.57 0.
285.884 -569.004 0.
100.093 -656.363 0.
745.886 849.848 0.
227.273 231.67 0.
-88.5518 -504.375 0.
-67.1629 -453.449 0.
-7.47082 -198.248 0.
79.3349 4.5078 0.
382.954 711.907 0.
337.199 639.84 0.
154.384 212.945 0.
-199.25 -612.474 0.
323.5 -578.373 0.
222.617 -815.645 0.
-57.6549 -509.307 0.
461.513 698.671 0.
225.097 143.613 0.
195.36 231.639 0.
73.2433 -54.3376 0.
-88.6008 -433.283 0.
422.342 260.788 0.
443.932 311.599 0.
-175.321 -1132.75 0.
-830.205 -640.047 0.
-353.23 467.989 0.
-337.132 109.255 0.
126.781 259.582 0.
-310.19 -768.129 0.
-99.7484 -607.792 0.
270.356 252.675 0.
381.054 507.798 0.
-456.101 -45.9425 0.
-575.373 -323.003 0.
-504.407 -155.775 0.
95.3256 218.853 0.
161.876 376.83 0.
-236.836 -550.222 0.
428.427 834.906 0.
-42.5292 -265.959 0.
340.511 123.714 0.
210.973 -182.367 0.
335.814 105.376 0.
-478.194 -357.267 0.
-238.406 198.953 0.
-456.209 -312.84 0.
-21.7238 -608.795 0.
-131.539 -867.674 0.
643.279 937.842 0.
697.782 922.539 0.
562.945 607.025 0.
-2049.42 186.211 0.
826.87 1213.49 0.
498.088 442.997 0.
507.161 1484.59 0.
-3.20689 291.508 0.
-496.098 -860.069 0.
165.549 224.772 0.
72.5848 8.84179 0.
333.014 617.545 0.
-553.679 -530.961 0.
-464.501 -321.672 0.
-233.208 218.692 0.
-242.267 -287.357 0.
-166.281 -103.389 0.
229.771 338.794 0.
132.537 112.217 0.
177.399 217.52 0.
56.6564 -56.676 0.
374.313 681.99 0.
-126.878 -490.075 0.
70.8732 -475.25 0.
359.107 196.378 0.
510.313 548.032 0.
-695.568 -66.2641 0.
-229.577 1023.45 0.
-639.487 -15.7417 0.
2.85487 -176.606 0.
303.643 523.271 0.
89.956 -360.942 0.
85.809 -371.127 0.
224.003 -49.4098 0.
126.766 -269.938 0.
18.1118 -518.033 0.
260.557 53.2028 0.
300.214 28.9824 0.
82.371 -476.141 0.
612.223 762.9 0.
-9.71296 11.1317 0.
86.359 239.5 0.
-42.4262 -869.449 0.
231.182 -230.059 0.
356.803 63.9013 0.
186.248 -699.73 0.
647.298 373.008 0.
589.555 234.661 0.
-325.386 -1186.99 0.
0.351698 -427.626 0.
-202.468 -901.387 0.
-202.094 -1365.15 0.
-444.17 -1926.41 0.
428.116 -765.902 0.
-174.151 -935.905 0.
-119.727 -808.167 0.
-60.4623 -738.917 0.
-156.484 -961.557 0.
-252.506 -1184.2 0.
-411.862 -1310.03 0.
-358.672 -1185.49 0.
-305.482 -1060.95 0.
-450.141 -1280.62 0.
-598.806 -1627.79 0.
-747.473 -1974.96 0.
-108.722 -1512.43 0.
19.5197 -1211.81 0.
-393.634 -1174.33 0.
-449.498 -1306 0.
-505.362 -1437.66 0.
-494.232 -1524.62 0.
-514.549 -1573.08 0.
-534.866 -1621.54 0.
-485.339 -1515.72 0.
-388.626 -1290.96 0.
-291.914 -1066.21 0.
-962.169 -1375.41 0.
-1000.54 -1469.21 0.
-678.379 -1408.69 0.
-694.829 -1373.34 0.
-667.116 -1313.86 0.
-438.85 -1202.07 0.
-498.534 -1344.92 0.
-558.217 -1487.77 0.
-837.908 -1625.98 0.
-782.248 -1494.37 0.
-726.589 -1362.77 0.
-690.766 -1546.89 0.
-882.12 -1991.74 0.
-1073.47 -2436.59 0.
-986.561 -2223.68 0.
-857.621 -1922.6 0.
-418.385 -1509.28 0.
-384.323 -1432.33 0.
-350.26 -1355.38 0.
-834.106 -1524.34 0.
-840.422 -1540.96 0.
-846.737 -1557.57 0.
-656.089 -1539.64 0.
-708.823 -1666.89 0.
-761.556 -1794.15 0.
-314.185 -1511.03 0.
-234.137 -1325.49 0.
-1828.63 -1857.98 0.
-236.668 -1426.57 0.
-367.601 -1733.4 0.
-1045.77 -2178.5 0.
-950.556 -1956.38 0.
-855.339 -1734.25 0.
-775.201 -1589.29 0.
-761.341 -1556.63 0.
-747.48 -1523.97 0.
-947.206 -1666.28 0.
-999.191 -1788.44 0.
-1051.18 -1910.61 0.
-1049.86 -1820.79 0.
-995.909 -1691.45 0.
-445.585 -1372.84 0.
-494.129 -1487.16 0.
-542.672 -1601.47 0.
-657.929 -1696.44 0.
-635.276 -1643.89 0.
-612.623 -1591.34 0.
-488.124 -1529.42 0.
-496.196 -1547.6 0.
-504.268 -1565.78 0.
-1099.1 -1780.48 0.
-1069.35 -1708.26 0.
-492.739 -1401.31 0.
-607.395 -1476.34 0.
-618.958 -1507.14 0.
-360.948 -1401.16 0.
-316.808 -1298.96 0.
-272.669 -1196.75 0.
-264.464 -1143.38 0.
-270.659 -1151.55 0.
-276.855 -1159.73 0.
-344.608 -1224.6 0.
-370.442 -1283.03 0.
-396.275 -1341.45 0.
-702.189 -1575.77 0.
-761.886 -1713.53 0.
-293.639 -1576.69 0.
-139.291 -1217.14 0.
15.058 -857.592 0.
236.022 -607.734 0.
189.403 -721.489 0.
142.784 -835.245 0.
-89.7691 -967.692 0.
-80.4816 -948.776 0.
-71.1938 -929.86 0.
-171.969 -1169.27 0.
-310.373 -1487.99 0.
720.236 -613.093 0.
-347.864 -981.1 0.
-293.735 -853.289 0.
113.25 -632.951 0.
16.8784 -855.727 0.
-79.4929 -1078.5 0.
-306.756 -1232.66 0.
-253.667 -1108.2 0.
-200.578 -983.739 0.
-390.156 -1223.39 0.
-538.507 -1570.4 0.
-686.858 -1917.4 0.
-132.992 -1491.61 0.
-5.41592 -1190.56 0.
-441.553 -1165 0.
-497.714 -1296.5 0.
-553.875 -1428.01 0.
-400.838 -1453.15 0.
-421.431 -1501.62 0.
-442.024 -1550.09 0.
-645.439 -1551.51 0.
-547.871 -1327.04 0.
-450.302 -1102.58 0.
-720.281 -1240.31 0.
-759.148 -1333.7 0.
-403.579 -1258.39 0.
-827.153 -1399.46 0.
-799.587 -1340.08 0.
-523.891 -1206.77 0.
-583.517 -1349.97 0.
-643.143 -1493.17 0.
-458.826 -1429.43 0.
-403.173 -1298.2 0.
-347.521 -1166.97 0.
-709.736 -1523.91 0.
-900.932 -1968.71 0.
-1092.13 -2413.51 0.
-1097.19 -2239.89 0.
-968.653 -1938.47 0.
-473.807 -1501.39 0.
-440.102 -1424.02 0.
-406.397 -1346.66 0.
-641.109 -1411.15 0.
-647.77 -1427.65 0.
-654.432 -1444.16 0.
-928.923 -1626 0.
-981.188 -1753.63 0.
-1033.45 -1881.26 0.
-257.843 -1454.27 0.
-177.584 -1269.22 0.
-3539.35 -2558.86 0.
-136.356 -1351.2 0.
-267.638 -1658.35 0.
-1008.8 -2130.32 0.
-913.527 -1908.27 0.
-818.255 -1686.22 0.
-958.136 -1636.22 0.
-943.861 -1603.58 0.
-929.586 -1570.94 0.
-817.271 -1580.13 0.
-869.32 -1702.22 0.
-921.368 -1824.32 0.
-1216.32 -1859.92 0.
-1161.89 -1730.8 0.
-354.888 -1301.52 0.
-403.46 -1415.82 0.
-452.033 -1530.12 0.
-657.947 -1665.63 0.
-635.333 -1613.01 0.
-612.718 -1560.4 0.
-604.735 -1547.73 0.
-612.492 -1566.12 0.
-620.248 -1584.51 0.
-677.194 -1567.36 0.
-647.366 -1495.05 0.
-103.168 -1203.5 0.
-656.859 -1466.45 0.
-668.667 -1497.22 0.
-347.826 -1364.55 0.
-303.935 -1262.17 0.
-260.045 -1159.8 0.
-270.349 -1115.37 0.
-276.693 -1123.57 0.
-283.036 -1131.77 0.
-459.819 -1242.89 0.
-485.337 -1301.92 0.
-510.856 -1360.95 0.
-699.651 -1542.72 0.
-758.564 -1680.93 0.
-212.506 -1509.34 0.
-57.8276 -1150.08 0.
96.8513 -790.814 0.
265.477 -563.756 0.
219.254 -677.801 0.
173.031 -791.848 0.
100.29 -854.769 0.
110.307 -836.241 0.
120.325 -817.712 0.
-220.918 -1157.99 0.
-359.202 -1475.88 0.
595.146 -393.836 0.
-233.157 -896.391 0.
-297.078 -1048.37 0.
-117.214 -1065.99 0.
-107.513 -1046.27 0.
-97.8123 -1026.54 0.
-195.717 -1092.9 0.
-230.961 -1176.46 0.
-266.205 -1260.01 0.
-428.302 -1267.5 0.
-361.282 -1110.7 0.
-294.263 -953.904 0.
-16.3859 -933.599 0.
-86.8801 -1098.61 0.
-488.62 -1398.54 0.
-505.932 -1437.52 0.
-523.243 -1476.51 0.
-417.684 -1451.38 0.
-413.885 -1441.5 0.
-410.087 -1431.62 0.
-709.861 -1565.67 0.
-721.478 -1591.1 0.
-733.096 -1616.53 0.
-765.308 -1593.74 0.
-734.097 -1520.68 0.
-402.422 -1318.71 0.
-977.258 -1692.91 0.
-1044.28 -1848.06 0.
-745.08 -1826.69 0.
-741.541 -1814.81 0.
-738.002 -1802.93 0.
-422.82 -1655.44 0.
-414.841 -1639.96 0.
-406.862 -1624.48 0.
-802.553 -1723.07 0.
-747.675 -1594.57 0.
-692.797 -1466.08 0.
-942.721 -1650.06 0.
-997.952 -1777.86 0.
-590.675 -1692.54 0.
-552.394 -1602.38 0.
-514.112 -1512.21 0.
-596.284 -1486.34 0.
-586.845 -1461.18 0.
-577.407 -1436.02 0.
-1009.67 -1581.36 0.
-977.283 -1502.72 0.
-944.899 -1424.08 0.
-153.204 -1186.5 0.
-228.812 -1362.04 0.
-4423.88 -3303.72 0.
-204.102 -1463.14 0.
-185.987 -1422.69 0.
-817.669 -1636.23 0.
-751.678 -1481.87 0.
-685.687 -1327.52 0.
-852.679 -1364.39 0.
-899.822 -1470.66 0.
-946.964 -1576.94 0.
-707.541 -1468.96 0.
-685.062 -1412.32 0.
-662.582 -1355.67 0.
-1129.82 -1622.03 0.
-1170.86 -1717.56 0.
-459.317 -1477.72 0.
-455.939 -1467.41 0.
-452.561 -1457.1 0.
-599.361 -1515.4 0.
-599.284 -1512.94 0.
-599.206 -1510.49 0.
-668.58 -1552.8 0.
-681.292 -1583.87 0.
-694.004 -1614.95 0.
-585.348 -1551.26 0.
-567.675 -1516.77 0.
-56.3511 -1275.86 0.
-672.26 -1589.79 0.
-698.062 -1650.75 0.
-433.316 -1540.95 0.
-363.589 -1374.57 0.
-293.862 -1208.19 0.
-332.727 -1174.05 0.
-361.56 -1242.74 0.
-390.394 -1311.43 0.
-502.816 -1308.42 0.
-452.161 -1193.4 0.
-401.504 -1078.38 0.
-383.059 -1017.63 0.
-351.392 -947.061 0.
75.1227 -719.906 0.
3.59732 -887.289 0.
-67.9285 -1054.67 0.
13.4178 -1124.59 0.
-4.87881 -1167.24 0.
-23.1753 -1209.88 0.
-14.6232 -1217.79 0.
-11.9784 -1207.04 0.
-9.33391 -1196.3 0.
-188.934 -1060.86 0.
-48.0458 -733.237 0.
-199.795 -704.949 0.
156.494 -699.497 0.
91.9036 -851.362 0.
-359.048 -1138.87 0.
-350.074 -1118.89 0.
-341.1 -1098.91 0.
-139.944 -1037.22 0.
-175.171 -1121.22 0.
-210.399 -1205.21 0.
-497.137 -1265.54 0.
-430.256 -1108.58 0.
-363.375 -951.631 0.
-258.259 -1006.41 0.
-328.977 -1170.81 0.
-289.735 -1282.73 0.
-307.159 -1321.59 0.
-324.583 -1360.45 0.
-519.654 -1464.02 0.
-515.834 -1454.29 0.
-512.014 -1444.57 0.
-670.212 -1517.59 0.
-681.95 -1542.88 0.
-693.689 -1568.17 0.
-708.777 -1538.64 0.
-677.577 -1465.69 0.
-899.279 -1501.04 0.
-866.32 -1613.7 0.
-932.823 -1769.67 0.
-535.556 -1704.81 0.
-532.138 -1693.02 0.
-528.72 -1681.23 0.
-433.374 -1626.01 0.
-425.585 -1610.69 0.
-417.797 -1595.37 0.
-769.237 -1677.95 0.
-714.715 -1549.65 0.
-660.194 -1421.34 0.
-1037.2 -1658.79 0.
-1091.97 -1786.43 0.
-588.473 -1661 0.
-550.392 -1570.59 0.
-512.311 -1480.18 0.
-570.853 -1444.2 0.
-561.286 -1419.55 0.
-551.72 -1394.89 0.
-957.066 -1526.01 0.
-924.306 -1448.19 0.
-891.546 -1370.38 0.
-206.222 -1175.96 0.
-281.154 -1352.32 0.
676.782 -1086.27 0.
-321.742 -1481.28 0.
-303.78 -1440.65 0.
-868.134 -1627.26 0.
-802.518 -1472.43 0.
-736.902 -1317.6 0.
-678.179 -1259.91 0.
-725.479 -1366.06 0.
-772.779 -1472.2 0.
-663.386 -1419.89 0.
-640.995 -1362.99 0.
-618.605 -1306.09 0.
-967.764 -1519.66 0.
-1009.11 -1615.02 0.
-594.702 -1505.8 0.
-590.817 -1495.79 0.
-586.931 -1485.79 0.
-578.577 -1472.48 0.
-577.924 -1470.66 0.
-577.271 -1468.83 0.
-667.878 -1521.74 0.
-680.444 -1553.12 0.
-693.01 -1584.51 0.
-749.986 -1589.18 0.
-732.928 -1554.19 0.
-226.078 -1316.56 0.
-496.951 -1483.45 0.
-522.702 -1545.01 0.
-450.267 -1517.47 0.
-380.184 -1351.5 0.
-310.101 -1185.53 0.
-378.899 -1162.05 0.
-408.36 -1230.63 0.
-437.821 -1299.2 0.
-390.014 -1230.12 0.
-339.661 -1115.36 0.
-289.307 -1000.61 0.
-139.539 -881.35 0.
-108.24 -810.364 0.
-97.5086 -763.791 0.
-169.042 -930.885 0.
-240.575 -1097.98 0.
-16.9851 -1106.36 0.
-34.9879 -1149.32 0.
-52.9906 -1192.27 0.
-84.3003 -1216.88 0.
-81.4768 -1206.3 0.
-78.6537 -1195.72 0.
-126.293 -1002.61 0.
14.0554 -675.246 0.
-421.426 326.105 0.
690.657 -159.047 0.
534.663 -526.421 0.
-291.996 -496.495 0.
-322.624 -569.766 0.
79.022 366.895 0.
-95.8662 -1008.66 0.
-18.018 -828.786 0.
47.7111 -677.872 0.
-564.444 -1259.36 0.
-127.641 -241.004 0.
161.284 432.676 0.
-214.878 -417.42 0.
-137.646 -235.236 0.
598.19 452.203 0.
-124.194 -1236.24 0.
216.311 -444.25 0.
-157.446 -389.752 0.
249.231 558.16 0.
210.182 466.106 0.
475.838 1110.64 0.
265.155 619.342 0.
209.962 491.314 0.
-331.723 -748.189 0.
-211.731 -470.661 0.
-529.94 -700.394 0.
-280.409 -432.806 0.
62.2609 360.913 0.
673.073 764.29 0.
575.823 538.165 0.
109.194 -549.622 0.
352.074 260.031 0.
231.632 -21.0366 0.
194.819 -107.12 0.
3.07258 107.256 0.
104.953 343.023 0.
310.174 819.514 0.
-52.9893 851.28 0.
-630.264 -495.415 0.
-157.052 -636.052 0.
259.241 335.281 0.
-54.4485 -397.107 0.
260.472 487.829 0.
123.519 166.562 0.
276.144 520.663 0.
-141.55 316.841 0.
-507.884 -540.318 0.
-39.4894 550.03 0.
573.093 784.3 0.
961.119 1691.1 0.
-6342.54 -1517.07 0.
497.086 677.851 0.
362.539 364.971 0.
-511.638 -666.879 0.
-23.4512 471.377 0.
-421.954 -459.033 0.
-358.721 -813.281 0.
-24.6418 -36.6372 0.
-203.059 -455.409 0.
-124.534 -203.346 0.
312.484 812.152 0.
-302.695 -627.756 0.
-303.603 -239.664 0.
-361.093 -375.901 0.
-191.73 -273.035 0.
72.6954 345.067 0.
176.49 587.944 0.
-22.7244 -184.942 0.
-114.43 -398.17 0.
98.6666 99.84 0.
310.865 790.394 0.
-278.156 -585.313 0.
-378.512 -820.616 0.
-352.271 -326.515 0.
-470.861 -602.288 0.
328.019 506.822 0.
209.514 -137.09 0.
609.211 799.808 0.
371.983 467.099 0.
104.901 -156.587 0.
-99.3246 -634.135 0.
61.5469 -31.4727 0.
174.132 230.214 0.
65.2057 -24.6832 0.
134.26 -184.603 0.
15.9064 -458.771 0.
188.999 -53.0485 0.
398.993 -56.5821 0.
218.948 -471.995 0.
369.862 684.016 0.
124.84 116.378 0.
-236.935 -724.275 0.
685.564 602.992 0.
856.125 1003.25 0.
561.107 317.144 0.
105.068 -611.159 0.
212.247 -364.012 0.
731.049 844.498 0.
524.296 416.873 0.
572.573 529.376 0.
-576.57 -1212 0.
67.168 -927.666 0.
50.2182 -967.945 0.
-379.457 -1152.97 0.
-323.606 -1023.09 0.
-267.755 -893.205 0.
102.598 -713.522 0.
54.3665 -827.154 0.
6.13496 -940.785 0.
-562.536 -1197.21 0.
-548.961 -1164.92 0.
-535.387 -1132.64 0.
-501.073 -1186.57 0.
-540.56 -1279.71 0.
-282.531 -1217.46 0.
-221.894 -1080.26 0.
-161.257 -943.055 0.
-454.228 -1038.59 0.
-526.425 -1208.82 0.
-598.623 -1379.04 0.
-462.827 -1390.84 0.
-468.402 -1406.13 0.
-473.976 -1421.41 0.
-599.453 -1509.38 0.
-619.683 -1559.45 0.
-517.369 -1557.06 0.
-706.262 -1590.02 0.
-679.779 -1530.7 0.
-521.933 -1402.95 0.
-469.1 -1280.61 0.
-416.267 -1158.27 0.
-292.872 -1090.32 0.
-343.782 -1210.46 0.
-394.691 -1330.61 0.
-518.093 -1491.52 0.
-578.305 -1634.58 0.
-638.518 -1777.65 0.
-1285.05 -2051.15 0.
-1271.13 -2019.3 0.
-631.97 -1730.63 0.
-669.452 -1819.95 0.
-706.933 -1909.28 0.
-806.927 -1900.33 0.
-646.652 -1527.81 0.
-486.377 -1155.3 0.
-653.395 -1114.83 0.
-677.189 -1174.4 0.
-700.982 -1233.98 0.
-409.753 -1171.02 0.
-442.788 -1247.46 0.
-1596.16 -1805.44 0.
-412.311 -1331.08 0.
-430.011 -1372.03 0.
-799.735 -1544.61 0.
-777.815 -1493.7 0.
-755.894 -1442.78 0.
-638.396 -1373.39 0.
-636.466 -1369.14 0.
-634.537 -1364.89 0.
-595.765 -1351.81 0.
-600.297 -1364.63 0.
-604.829 -1377.46 0.
-1024.2 -1581.73 0.
-1035.99 -1611.93 0.
-544.468 -1409.12 0.
-475.676 -1250.51 0.
-406.883 -1091.89 0.
-536.808 -1080.69 0.
-568.751 -1155.28 0.
-600.694 -1229.88 0.
-520.092 -1204 0.
-500.322 -1158.84 0.
-480.552 -1113.68 0.
-677.505 -1359.82 0.
-789.286 -1617.95 0.
-206.547 -1568.93 0.
-511.628 -1548.87 0.
-435.472 -1365.84 0.
-292.994 -1182.97 0.
-273.714 -1139.17 0.
-254.434 -1095.37 0.
-281.204 -1121.05 0.
-318.937 -1207.84 0.
-356.67 -1294.63 0.
-269.395 -1276.04 0.
-268.609 -1271.85 0.
-267.822 -1267.67 0.
-252.208 -1260.45 0.
-256.636 -1266.21 0.
-337.159 -1302.01 0.
-311.616 -1239.04 0.
-286.072 -1176.06 0.
-230.072 -1123.13 0.
-246.162 -1158.52 0.
-262.251 -1193.9 0.
-58.9716 -1112.19 0.
-46.9923 -1085.59 0.
-35.013 -1058.99 0.
-277.732 -1232.99 0.
-325.445 -1345.94 0.
56.3263 -911.612 0.
-276.542 -1043.78 0.
-294.275 -1083.77 0.
-125.635 -1013.27 0.
-70.264 -883.026 0.
-14.8926 -752.782 0.
206.626 -637.888 0.
158.248 -751.39 0.
109.871 -864.893 0.
-578.169 -1173.62 0.
-564.705 -1141.33 0.
-551.242 -1109.03 0.
-431.374 -1125.69 0.
-471.019 -1218.81 0.
-465.958 -1264.35 0.
-405.571 -1127.02 0.
-345.184 -989.698 0.
-460.976 -1009.45 0.
-533.267 -1179.32 0.
-605.557 -1349.18 0.
-282.031 -1283.25 0.
-287.871 -1298.53 0.
-293.71 -1313.82 0.
-508.679 -1438.18 0.
-529.213 -1488.57 0.
-1028.77 -1744.53 0.
-604.737 -1515.3 0.
-578.881 -1456.12 0.
-828.582 -1504.63 0.
-775.907 -1382.33 0.
-723.234 -1260.03 0.
-353.836 -1081.99 0.
-404.028 -1202.63 0.
-454.219 -1323.28 0.
-299.633 -1364.86 0.
-360.306 -1507.54 0.
-420.979 -1650.22 0.
-1252.84 -2006.74 0.
-1239.06 -1974.74 0.
-622.463 -1695.15 0.
-659.331 -1784.85 0.
-696.199 -1874.54 0.
-846.585 -1884.08 0.
-686.317 -1511.81 0.
-526.05 -1139.55 0.
-512.017 -1023.44 0.
-536.24 -1082.73 0.
-560.463 -1142.01 0.
-568.886 -1208.18 0.
-602.263 -1284.43 0.
-805.698 -1434.94 0.
-455.373 -1317.87 0.
-472.879 -1358.78 0.
-675.05 -1460.4 0.
-653.272 -1409.68 0.
-631.494 -1358.96 0.
-670.382 -1354.89 0.
-668.604 -1350.67 0.
-666.825 -1346.46 0.
-554.363 -1303.14 0.
-559.063 -1315.64 0.
-563.762 -1328.14 0.
-1188.93 -1621.04 0.
-1200.67 -1651.69 0.
-356.922 -1295.62 0.
-287.525 -1137.63 0.
-218.129 -979.64 0.
-684.336 -1111.59 0.
-715.741 -1186.6 0.
-747.147 -1261.61 0.
-474.582 -1153.17 0.
-454.403 -1108.42 0.
-434.225 -1063.66 0.
-518.188 -1260.2 0.
-629.93 -1518.35 0.
436.362 -1261.57 0.
-638.003 -1571.86 0.
-561.458 -1389.28 0.
-224.591 -1122.4 0.
-205.341 -1078.26 0.
-186.091 -1034.13 0.
-114.639 -1018.63 0.
-152.428 -1105.5 0.
-190.217 -1192.37 0.
-175.501 -1204.59 0.
-174.318 -1200.96 0.
-173.135 -1197.33 0.
-401.72 -1292.93 0.
-405.788 -1299.13 0.
-144.179 -1188.84 0.
-118.525 -1125.75 0.
-92.8708 -1062.66 0.
-427.273 -1174.48 0.
-443.282 -1209.91 0.
-459.291 -1245.33 0.
18.0411 -1049.01 0.
29.8254 -1022.41 0.
41.6097 -995.804 0.
-377.404 -1244.58 0.
-424.794 -1358.17 0.
334.995 -688.101 0.
-340.804 -1074.5 0.
-357.246 -1110.76 0.
-85.6867 -1030.25 0.
-114.471 -1095.4 0.
-143.256 -1160.54 0.
3.62327 -1083.87 0.
53.6489 -964.743 0.
103.674 -845.621 0.
-528.76 -1092.08 0.
-532.474 -1101.2 0.
-536.188 -1110.32 0.
-453.767 -1143.73 0.
-496.254 -1241.38 0.
-614.199 -1366.05 0.
-638.525 -1417.19 0.
-662.851 -1468.33 0.
-637.977 -1478.69 0.
-627.457 -1451.7 0.
-616.937 -1424.7 0.
-266.674 -1298.1 0.
-297.516 -1370.23 0.
-328.358 -1442.35 0.
-451.333 -1513.68 0.
-453.229 -1518.33 0.
-449.377 -1520.26 0.
-562.31 -1485.79 0.
-522.239 -1391.96 0.
-884.405 -1475.94 0.
-848.292 -1392.48 0.
-812.179 -1309.01 0.
-421.008 -1188.2 0.
-517.968 -1410.69 0.
-614.928 -1633.19 0.
-322.802 -1469.95 0.
-242.538 -1283.21 0.
-162.275 -1096.47 0.
-925.294 -1421.19 0.
-935.782 -1446.37 0.
-462.488 -1263.02 0.
-464.68 -1267.21 0.
-466.873 -1271.4 0.
-687.157 -1337.11 0.
-640.315 -1226.27 0.
-593.474 -1115.43 0.
-533.267 -1085.24 0.
-563.148 -1156.42 0.
-593.028 -1227.6 0.
-642.584 -1320.47 0.
-677.796 -1404.44 0.
-3176.28 -2543.13 0.
-370.845 -1208.72 0.
-301.711 -1047 0.
-558.009 -1064.92 0.
-584.295 -1127.59 0.
-610.581 -1190.27 0.
-550.495 -1133.74 0.
-479.681 -968.284 0.
-408.868 -802.828 0.
-441.332 -916.86 0.
-556.199 -1184.77 0.
-671.065 -1452.67 0.
-1176.12 -1557.7 0.
-1095.82 -1366.59 0.
-110.904 -819.268 0.
-171.711 -959.759 0.
-232.516 -1100.25 0.
-798.129 -1438.34 0.
-823.855 -1494.93 0.
-849.581 -1551.51 0.
-631.837 -1416.28 0.
-582.18 -1297.85 0.
-532.523 -1179.42 0.
-439.272 -1179.54 0.
-484.259 -1283.92 0.
621.842 -907.309 0.
-624.589 -1429.47 0.
-617.954 -1414.14 0.
-250.155 -1281.57 0.
-355.613 -1526.53 0.
-461.072 -1771.49 0.
-414.237 -1788.26 0.
-319.728 -1566.49 0.
-225.219 -1344.73 0.
-194.394 -1253.33 0.
-183.493 -1227.25 0.
-172.591 -1201.16 0.
-368.173 -1143.77 0.
-281.537 -941.986 0.
98.4911 -641.302 0.
27.6481 -809.323 0.
-43.195 -977.345 0.
-468.327 -1252.05 0.
-458.093 -1231.99 0.
-447.859 -1211.93 0.
-57.7406 -1063.86 0.
-85.3956 -1128.96 0.
-113.051 -1194.06 0.
-405.894 -1121.55 0.
-263.513 -792.351 0.
169.582 -732.189 0.
-94.9358 -939.204 0.
-111.299 -975.527 0.
-182.248 -1039.6 0.
-210.963 -1104.77 0.
-239.678 -1169.94 0.
-95.3258 -1093.65 0.
-44.8238 -974.963 0.
5.67791 -856.275 0.
-453.729 -1029.79 0.
-457.439 -1038.98 0.
-461.149 -1048.17 0.
-523.799 -1141.3 0.
-566.218 -1239.31 0.
-661.145 -1354.3 0.
-685.962 -1405.44 0.
-710.78 -1456.59 0.
-544.927 -1407.47 0.
-533.732 -1381.01 0.
-522.537 -1354.55 0.
-355.737 -1304.15 0.
-386.832 -1376.05 0.
-417.928 -1447.95 0.
-280.47 -1408.14 0.
-282.219 -1413.08 0.
-259.79 -1407.63 0.
-550.034 -1449.65 0.
-509.999 -1355.41 0.
-723.605 -1376.35 0.
-687.416 -1292.82 0.
-651.227 -1209.3 0.
-389.255 -1143.68 0.
-486.173 -1366.2 0.
-583.091 -1588.71 0.
-453.212 -1493.22 0.
-372.525 -1306.85 0.
-291.839 -1120.48 0.
-743.733 -1312.95 0.
-754.398 -1337.62 0.
-498.676 -1247.81 0.
-501.083 -1251.51 0.
-503.49 -1255.21 0.
-795.994 -1353.63 0.
-749.513 -1242.3 0.
-703.032 -1130.97 0.
-622.744 -1091.46 0.
-651.725 -1163.4 0.
-680.707 -1235.34 0.
-528.534 -1239.97 0.
-563.704 -1324.01 0.
-1739.78 -1895.88 0.
-185.033 -1096.97 0.
-116.372 -935.035 0.
-778.425 -1127.58 0.
-804.347 -1190.54 0.
-830.269 -1253.5 0.
-423.876 -1048.69 0.
-352.763 -883.447 0.
-281.649 -718.205 0.
-576.503 -943.908 0.
-690.814 -1212.42 0.
-805.125 -1480.93 0.
-1014.51 -1456.26 0.
-934.349 -1265.26 0.
-176.861 -814.566 0.
-237.081 -955.578 0.
-297.301 -1096.59 0.
-565.913 -1306.81 0.
-591.282 -1363.83 0.
-616.652 -1420.85 0.
-756.429 -1437.91 0.
-706.584 -1319.34 0.
-656.738 -1200.77 0.
-451.565 -1155.77 0.
-496.938 -1259.89 0.
113.548 -1090.86 0.
-580.638 -1376.78 0.
-574.056 -1361.84 0.
-182.935 -1222.57 0.
-288.384 -1467.73 0.
-393.834 -1712.89 0.
-462.112 -1777.53 0.
-367.295 -1556.21 0.
-272.478 -1334.89 0.
-253.25 -1245.49 0.
-241.453 -1220.19 0.
-229.656 -1194.9 0.
-262.812 -1067.26 0.
-176.072 -865.771 0.
-36.2513 -668.421 0.
-106.668 -836.35 0.
-177.084 -1004.28 0.
-246.126 -1124.53 0.
-235.749 -1104.59 0.
-225.372 -1084.65 0.
-270.374 -1123.76 0.
-298.123 -1188.87 0.
-325.873 -1253.98 0.
-461.775 -1116.24 0.
-319.84 -787.943 0.
215.369 -261.597 0.
567.446 174.215 0.
336.545 -365.421 0.
337.332 388.25 0.
-31.3073 -474.775 0.
222.717 115.728 0.
97.1063 -426.379 0.
413.032 314.064 0.
389.36 261.581 0.
-25.0075 -153.246 0.
182.241 333.429 0.
58.3039 48.1516 0.
-173.201 -162.208 0.
-135.973 -74.4822 0.
-99.2667 86.9309 0.
-383.144 -576.417 0.
-256.824 -282.277 0.
40.7346 -192.913 0.
431.608 720.716 0.
312.999 445.287 0.
-127.613 -570.686 0.
-85.3675 -469.261 0.
-125.762 -560.745 0.
173.256 -649.685 0.
860.466 953.536 0.
1058.75 628.204 0.
-31.3037 -239.48 0.
222.293 355.187 0.
-269.116 -601.512 0.
281.837 687.603 0.
138.273 356.387 0.
-197.569 -719.924 0.
269.972 369.487 0.
250.564 322.946 0.
10.5116 -130.723 0.
210.252 336.241 0.
432.632 855.561 0.
-301.4 -590.104 0.
-511.709 -1081.37 0.
-101.647 -221.75 0.
223.661 542.942 0.
162.781 406.432 0.
-443.041 -302.264 0.
-485.621 -402.129 0.
-337.805 -57.3937 0.
-227.624 23.8602 0.
-570.242 -776.027 0.
-341.178 -242.256 0.
141.621 142.793 0.
392.457 726.918 0.
-4155.34 -1219.98 0.
947.792 1218.55 0.
537.684 261.707 0.
-615.704 -297.528 0.
-639.985 -353.884 0.
-837.424 -814.357 0.
16.6815 -238.233 0.
353.502 548.281 0.
-133.824 -587.894 0.
-490.06 -465.502 0.
-431.52 -331.226 0.
233.67 1218.46 0.
-298.719 -58.3938 0.
-178.533 217.052 0.
237.437 302.02 0.
-112.604 -509.008 0.
1.87473 -236.25 0.
-52.5133 -517.61 0.
524.032 831.855 0.
336.975 399.669 0.
-335.456 -198.753 0.
-282.131 -67.3949 0.
-95.6874 374.682 0.
-397.585 -992.887 0.
-562.395 -1380.55 0.
-272.658 88.7724 0.
-0.0501679 -71.1602 0.
-136.172 -390.505 0.
146.64 -541.51 0.
-150.87 -1237.66 0.
685.861 712.492 0.
235.027 -34.622 0.
143.673 -247.895 0.
177.446 -169.266 0.
-34.9474 -596.82 0.
123.167 -227.99 0.
354.986 313.777 0.
682.267 966.737 0.
311.414 101.331 0.
164.282 78.5736 0.
-72.2089 -471.16 0.
152.268 54.3727 0.
17.5674 -912.391 0.
437.094 68.7934 0.
405.178 -3.3518 0.
-290.566 -728.879 0.
-355.477 -878.529 0.
201.305 421.297 0.
-33.5714 3.77785 0.
-270.989 -548.162 0.
-96.9002 -1254.62 0.
-178.016 -1263.05 0.
-190.071 -1292.9 0.
-304.716 -1325.64 0.
-216.288 -1122.63 0.
-127.86 -919.625 0.
-198.411 -919.259 0.
-273.561 -1091.8 0.
-348.712 -1264.33 0.
-573.671 -1414.24 0.
-580.387 -1430.34 0.
-587.103 -1446.43 0.
-400.439 -1247.48 0.
-323.989 -1069.67 0.
-537.426 -1047.81 0.
-616.976 -1238.61 0.
-696.525 -1429.4 0.
-325.394 -1310.24 0.
-223.299 -1071.47 0.
-121.203 -832.709 0.
-258.869 -889.238 0.
-341.004 -1081.39 0.
-423.139 -1273.55 0.
-428.317 -1306.53 0.
-427.323 -1301.8 0.
-241.871 -1218.21 0.
-420.574 -1370.67 0.
-456.701 -1455.02 0.
-710.903 -1582.08 0.
-633.663 -1401.76 0.
-556.423 -1221.44 0.
-319.003 -1039.75 0.
-323.898 -1052.7 0.
-328.792 -1065.64 0.
-431.885 -1109.33 0.
-428.909 -1101.66 0.
-425.933 -1093.99 0.
-687.631 -1248.38 0.
-712.766 -1309.02 0.
-505.571 -1259.68 0.
-475.747 -1190.83 0.
-445.923 -1121.98 0.
-708.965 -1210.77 0.
-728.487 -1258.28 0.
-748.009 -1305.8 0.
-796.798 -1276.93 0.
-733.104 -1128.33 0.
-669.41 -979.744 0.
-351.816 -762.662 0.
-315.443 -678.214 0.
-1515.69 -1124.89 0.
-123.013 -625.958 0.
-174.854 -746.453 0.
-869.322 -1129.73 0.
-894.827 -1189.84 0.
-920.331 -1249.94 0.
-237.269 -1043.25 0.
-304.386 -1201.28 0.
-371.502 -1359.31 0.
-867.23 -1523.74 0.
-795.019 -1353.54 0.
-722.807 -1183.35 0.
-751.888 -1173.31 0.
-746.301 -1165.65 0.
-380.225 -1021.26 0.
-464.568 -1212.66 0.
-548.912 -1404.06 0.
-379.746 -1354.95 0.
-267.589 -1089.75 0.
-155.433 -824.544 0.
-584.092 -990.829 0.
-657.449 -1161.66 0.
-730.806 -1332.49 0.
-454.676 -1184.74 0.
-410.805 -1086.22 0.
59.3969 -803.497 0.
-597.597 -1236.34 0.
-676.694 -1421.97 0.
-219.812 -1308.35 0.
-125.451 -1092.66 0.
-31.0902 -876.98 0.
-128.046 -893.416 0.
-216.442 -1100.49 0.
-304.838 -1307.56 0.
-189.982 -1255.38 0.
-138.095 -1133.01 0.
-86.2077 -1010.65 0.
-328.285 -1127.56 0.
-344.724 -1167.28 0.
-322.23 -1165.74 0.
-219.752 -924.629 0.
-117.274 -683.517 0.
4.82949 -534.224 0.
-44.7176 -647.131 0.
-94.2645 -760.037 0.
-213.595 -800.71 0.
-165.46 -687.348 0.
-117.324 -573.986 0.
22.2029 -512.182 0.
6.91641 -547.358 0.
56.3624 -1161.74 0.
-320.347 -1294.23 0.
-332.12 -1324.01 0.
-173.386 -1236.85 0.
-84.6089 -1034.12 0.
4.16881 -831.389 0.
-286.807 -926.444 0.
-361.717 -1098.84 0.
-436.627 -1271.23 0.
-564.935 -1379.31 0.
-570.977 -1396.16 0.
-577.018 -1413.02 0.
-93.6455 -1083.26 0.
-17.0473 -905.815 0.
-455.822 -981.541 0.
-536.281 -1171.41 0.
-616.74 -1361.28 0.
-169.574 -1212.58 0.
-67.3709 -973.778 0.
34.8314 -734.978 0.
-235.804 -849.996 0.
-318.015 -1042.12 0.
-400.227 -1234.25 0.
-803.155 -1435.48 0.
-802.572 -1430.55 0.
425.329 -899.718 0.
-288.355 -1284.98 0.
-324.394 -1369.52 0.
-718.199 -1552.94 0.
-640.589 -1373.16 0.
-562.978 -1193.38 0.
-285.091 -993.388 0.
-289.81 -1006.47 0.
-294.529 -1019.55 0.
-444.729 -1081.55 0.
-441.47 -1074.18 0.
-438.212 -1066.8 0.
-801.489 -1266.43 0.
-827.033 -1326.58 0.
-433.385 -1197.4 0.
-403.768 -1128.17 0.
-374.15 -1058.94 0.
-541.966 -1108.1 0.
-561.054 -1155.88 0.
-580.143 -1203.67 0.
-795.187 -1246.01 0.
-731.444 -1097.37 0.
-667.7 -948.734 0.
-461.12 -779.164 0.
-424.989 -694.427 0.
-2494.86 -1512.58 0.
-453.987 -736.172 0.
-505.596 -856.874 0.
-725.257 -1036.39 0.
-750.516 -1096.92 0.
-775.776 -1157.45 0.
-107.098 -955.868 0.
-174.43 -1113.65 0.
-241.763 -1271.43 0.
-758.602 -1446.7 0.
-686.425 -1276.67 0.
-614.248 -1106.63 0.
-705.069 -1121.44 0.
-699.008 -1113.63 0.
-422.589 -1006.69 0.
-506.127 -1198.38 0.
-589.664 -1390.06 0.
-325.037 -1300.41 0.
-212.389 -1035.41 0.
-99.7419 -770.409 0.
-453.84 -902.396 0.
-526.372 -1073.93 0.
-598.905 -1245.46 0.
-404.961 -1133.69 0.
-360.88 -1035.54 0.
-251.988 -904.658 0.
-702.732 -1249 0.
-782.038 -1434.65 0.
-251.741 -1290.99 0.
-157.533 -1075.35 0.
-63.3253 -859.714 0.
-107.532 -852.937 0.
-195.492 -1060.41 0.
-283.451 -1267.89 0.
-20.131 -1151.66 0.
32.3134 -1029.85 0.
84.758 -908.046 0.
-450.645 -1148.9 0.
-467.331 -1188.33 0.
-252.018 -1103.63 0.
-149.307 -862.316 0.
-46.5946 -620.998 0.
-192.702 -588.367 0.
-242.292 -700.981 0.
-291.882 -813.594 0.
-66.917 -707.276 0.
-18.8917 -594.26 0.
29.1336 -481.244 0.
379.541 -326.21 0.
364.674 -362.262 0.
193.903 -520.61 0.
-170.993 -784.3 0.
-178.732 -800.418 0.
89.0363 -701.19 0.
70.3078 -741.969 0.
51.5794 -782.748 0.
-311.831 -957.633 0.
-316.842 -969.532 0.
-321.852 -981.432 0.
-369.343 -1025.7 0.
-384.445 -1060.44 0.
-399.547 -1095.17 0.
-8.07889 -960.643 0.
-25.5788 -1002.15 0.
-443.008 -1197.09 0.
-361.21 -1005.08 0.
-279.413 -813.074 0.
33.3927 -628.774 0.
-58.719 -840.996 0.
-150.83 -1053.22 0.
-426.779 -1196.06 0.
-376.891 -1079.94 0.
-327.003 -963.825 0.
-715.567 -1073.28 0.
-685.714 -1004.2 0.
722.779 -343.142 0.
-161.246 -834.352 0.
-228.627 -988.406 0.
-445.938 -1190.54 0.
-463.619 -1230.37 0.
-481.301 -1270.2 0.
-382.97 -1198.96 0.
-331.939 -1075.24 0.
-280.908 -951.519 0.
-410.05 -940.815 0.
-380.25 -871.013 0.
-350.45 -801.211 0.
-785.923 -1117.24 0.
-868.759 -1309.28 0.
-474.357 -1254.06 0.
-365.061 -999.243 0.
-255.765 -744.431 0.
-258.358 -636.073 0.
-310.106 -756.614 0.
-361.853 -877.156 0.
-616.923 -964.289 0.
-549.116 -803.314 0.
-481.309 -642.34 0.
-573.122 -726.019 0.
-622.146 -839.498 0.
-1212.05 -1187.07 0.
-578.025 -845.976 0.
-540.912 -760.647 0.
-424.405 -707.163 0.
-548.689 -997.455 0.
-672.974 -1287.75 0.
-289.741 -1249.36 0.
-279.723 -1227.4 0.
-269.705 -1205.44 0.
-636.084 -1260.55 0.
-560.266 -1084.7 0.
-484.448 -908.848 0.
-645.155 -1091.64 0.
-721.606 -1267.21 0.
-584.111 -1310.74 0.
-469.735 -1043.27 0.
-355.359 -775.798 0.
-63.176 -568.956 0.
-167.425 -811.759 0.
-271.673 -1054.56 0.
-561.755 -1246.91 0.
-545.774 -1205.56 0.
-529.793 -1164.21 0.
-475.243 -1130.67 0.
-472.395 -1126.58 0.
-12.3538 -925.492 0.
-592.662 -1196.15 0.
-604.645 -1223.59 0.
-235.262 -1079.45 0.
-237.46 -1080.48 0.
-239.658 -1081.51 0.
-136.019 -1001.38 0.
-94.9282 -903.142 0.
-53.8372 -804.905 0.
201.659 -728.639 0.
157.212 -832.922 0.
112.765 -937.204 0.
-520.287 -1217.09 0.
-519.603 -1214.45 0.
-317.787 -1115.95 0.
-260.914 -983.58 0.
-204.04 -851.208 0.
-310.415 -809.96 0.
-293.592 -771.198 0.
-276.769 -732.435 0.
31.4092 -575.209 0.
39.6309 -558.207 0.
47.8525 -541.204 0.
250.44 -475.988 0.
240.558 -498.696 0.
-283.794 -693.759 0.
-178.191 -759.868 0.
-186.337 -775.223 0.
57.9139 -680.676 0.
39.4869 -721.5 0.
21.06 -762.324 0.
-222.576 -889.786 0.
-227.887 -901.523 0.
-233.198 -913.26 0.
-238.761 -937.517 0.
-253.339 -972.612 0.
-267.916 -1007.71 0.
-191.54 -1009.12 0.
-208.922 -1050.87 0.
-235.454 -1074.54 0.
-153.493 -882.421 0.
-71.5312 -690.3 0.
-207.566 -702.01 0.
-299.854 -913.804 0.
-392.142 -1125.6 0.
-530.23 -1209.39 0.
-479.992 -1093.67 0.
-429.754 -977.956 0.
-472.59 -935.315 0.
-442.757 -866.369 0.
-157.157 -686.931 0.
-418.92 -915.352 0.
-486.267 -1069.35 0.
-125.035 -1019.76 0.
-142.443 -1060.05 0.
-159.852 -1100.34 0.
-406.552 -1177.77 0.
-355.401 -1054.3 0.
-304.251 -930.821 0.
-426.79 -915.553 0.
-397.071 -846.029 0.
-367.351 -776.506 0.
-754.454 -1072.99 0.
-836.91 -1265.16 0.
-557.281 -1256.68 0.
-447.868 -1002.25 0.
-338.455 -747.823 0.
-194.349 -579.384 0.
-245.575 -700.509 0.
-296.8 -821.635 0.
-458.353 -863.339 0.
-389.968 -703.294 0.
-321.584 -543.25 0.
-776.487 -781.557 0.
-825.013 -895.62 0.
-501.869 -850.301 0.
-384.383 -729.856 0.
-347.831 -644.166 0.
-154.635 -560.502 0.
-279.509 -850.441 0.
-404.382 -1140.38 0.
-525.337 -1319.83 0.
-515.404 -1297.89 0.
-505.47 -1275.95 0.
-602.036 -1213.89 0.
-525.908 -1038.03 0.
-449.78 -862.18 0.
-541.049 -1015.58 0.
-616.998 -1191.34 0.
-593.47 -1283.68 0.
-479.256 -1015.91 0.
-365.042 -748.145 0.
-214.846 -604.547 0.
-319.343 -846.9 0.
-423.84 -1089.25 0.
-572.958 -1219.23 0.
-557.572 -1177.63 0.
-542.185 -1136.04 0.
-650.722 -1175.26 0.
-648.457 -1170.64 0.
110.443 -840.051 0.
-243.134 -1014.26 0.
-254.663 -1041.73 0.
-359.643 -1101.99 0.
-360.944 -1103.89 0.
-362.244 -1105.78 0.
-49.5895 -932.682 0.
-8.4481 -834.495 0.
32.6931 -736.308 0.
159.187 -715.185 0.
114.912 -819.599 0.
70.6371 -924.013 0.
-462.361 -1159.84 0.
-461.675 -1157.06 0.
-494.787 -1161.26 0.
-438.191 -1027.97 0.
-381.596 -894.675 0.
-136.776 -705.293 0.
-120.239 -666.28 0.
-103.703 -627.268 0.
19.6766 -548.57 0.
27.7784 -531.749 0.
35.8801 -514.929 0.
-218.692 -645.946 0.
-228.652 -669.413 0.
-825.153 -999.255 0.
555.71 1011.41 0.
363.771 562.137 0.
423.799 258.623 0.
-168.634 -1123.76 0.
439.722 295.466 0.
391.299 416.07 0.
150.303 -151.976 0.
-211.868 -1002.9 0.
212.399 -102.44 0.
207.231 -113.61 0.
122.868 -310.117 0.
-0.719445 -191.695 0.
-344.897 -994.757 0.
420.06 101.115 0.
597.133 514.636 0.
410.52 79.3704 0.
-143.62 -58.1607 0.
30.4109 347.951 0.
-62.9404 130.054 0.
-227.687 -276.576 0.
-122.31 -32.0773 0.
-187.16 -184.788 0.
84.6852 -64.8574 0.
196.262 192.927 0.
-136.925 142.564 0.
-560.553 -730.252 0.
-421.083 -403.937 0.
468.45 -208.226 0.
355.658 -467.519 0.
652.912 229.929 0.
139.356 169.347 0.
208.785 332.473 0.
612.484 1275.52 0.
203.83 618.129 0.
-402.791 -796.485 0.
62.6114 290.076 0.
-254.464 62.8281 0.
-577.143 -687.524 0.
-196.002 -227.657 0.
-173.34 -175.058 0.
-159.362 -142.5 0.
82.0543 -44.7527 0.
83.7778 -39.1505 0.
-166.664 -621.609 0.
-359.303 -898.92 0.
-152.116 -418.76 0.
7.82901 -48.563 0.
-598.825 56.1903 0.
-533.086 208.28 0.
-436.631 -928.018 0.
-205.88 -655.353 0.
-139.295 -498.936 0.
366.586 178.577 0.
188.698 -234.859 0.
442.707 359.753 0.
-403.814 -563.845 0.
-304.492 -329.677 0.
-92.245 167.86 0.
-359 -674.912 0.
-283.282 -495.006 0.
52.0492 290.403 0.
-126.118 -225.765 0.
-265.825 -547.295 0.
-81.119 -42.4746 0.
-387.911 -753.273 0.
-393.222 -760.755 0.
-172.437 -188.323 0.
55.4929 344.531 0.
-202.921 -257.643 0.
-24.9787 123.752 0.
52.4627 305.114 0.
-53.7661 57.1432 0.
72.8616 872.754 0.
-307.503 -10.5626 0.
1125.73 792.278 0.
898.172 1010.07 0.
447.882 -35.2046 0.
398.426 927.218 0.
-18.332 -42.491 0.
-183.028 -423.923 0.
51.0911 -825.912 0.
637.711 540.629 0.
409.943 6.89035 0.
316.262 -232.436 0.
284.049 -307.379 0.
431.143 36.3197 0.
279.108 490.649 0.
16.0366 -123.083 0.
-268.356 -263.908 0.
-401.544 -573.139 0.
-165.941 -22.9245 0.
482.144 443.742 0.
300.933 23.8974 0.
187.246 -238.934 0.
132.08 -235.073 0.
-147.08 -887.967 0.
-85.295 -743.01 0.
-813.848 -1118.58 0.
-538.915 -477.353 0.
-569.657 -840.035 0.
-81.3439 -515.836 0.
-78.8569 -510.742 0.
159.344 -470.806 0.
18.3605 -799.09 0.
-122.623 -1127.37 0.
-370.498 -1320.24 0.
-292.916 -1144.65 0.
-215.334 -969.068 0.
-157.63 -940.095 0.
-187.119 -1008.08 0.
-216.609 -1076.07 0.
-273.136 -951.32 0.
-189.149 -751.777 0.
-87.1426 -573.946 0.
-109.647 -626.721 0.
-132.151 -679.496 0.
-326.807 -820.206 0.
-381.199 -947.771 0.
-435.59 -1075.34 0.
-314.638 -964.485 0.
-219.91 -743.085 0.
-125.181 -521.684 0.
-145.742 -611.829 0.
-226.686 -802.666 0.
40.5375 -843.666 0.
-690.857 -1031.91 0.
-623.592 -873.44 0.
158.77 -472.8 0.
66.7804 -686.418 0.
-25.2084 -900.036 0.
-349.206 -1049.48 0.
-240.959 -798.332 0.
-132.712 -547.181 0.
-264.035 -674.316 0.
-381.939 -945.992 0.
-499.843 -1217.67 0.
-992.374 -1323.61 0.
-915.068 -1142.77 0.
-428.273 -818.744 0.
-486.802 -956.34 0.
-545.332 -1093.94 0.
-385.901 -1083.67 0.
-360.479 -1024.53 0.
-335.057 -965.387 0.
-411.447 -989.112 0.
-418.742 -1010.59 0.
-426.037 -1032.06 0.
-1068.4 -1235.33 0.
-1017.47 -1115.3 0.
322.652 -443.171 0.
-384.915 -947.675 0.
-491.67 -1195.15 0.
-285.189 -1221.74 0.
-182.92 -982.386 0.
-80.6503 -743.036 0.
-398.974 -735.623 0.
-359.143 -641.991 0.
-319.313 -548.359 0.
-394.42 -646.373 0.
-465.366 -808.723 0.
-536.312 -971.073 0.
-346.782 -939.102 0.
-367.605 -988.865 0.
-608.901 -1129.23 0.
-613.578 -1138.67 0.
-618.255 -1148.11 0.
-672.98 -1163.45 0.
-650.57 -1109.27 0.
-628.159 -1055.09 0.
-328.489 -862.845 0.
-288.324 -770.285 0.
-248.159 -677.725 0.
-700.097 -1009.4 0.
-803.289 -1250.99 0.
418.763 -925.217 0.
-273.603 -1106.44 0.
-215.235 -966.341 0.
-299.393 -919.585 0.
-316.698 -958.371 0.
-334.003 -997.158 0.
-40.2446 -886.143 0.
-33.0382 -870.149 0.
-25.8319 -854.155 0.
7.48244 -709.57 0.
105.828 -482.801 0.
204.173 -256.033 0.
-149.664 -528.24 0.
-229.131 -715.628 0.
-337.353 -907.959 0.
-393.197 -1039.51 0.
-449.042 -1171.06 0.
-284.58 -1119.6 0.
-208.532 -943.026 0.
-132.485 -766.453 0.
31.8324 -635.225 0.
35.2671 -627.07 0.
38.7018 -618.915 0.
-277.635 -674.808 0.
-230.501 -564.071 0.
-324.623 -707.29 0.
-44.4625 -468.623 0.
-42.0603 -463.435 0.
236.665 -406.341 0.
95.5056 -734.356 0.
-45.6533 -1062.37 0.
-375.946 -1289.99 0.
-298.529 -1114.65 0.
-221.112 -939.307 0.
-155.274 -909.197 0.
-185.193 -976.789 0.
-215.111 -1044.38 0.
-195.753 -887.248 0.
-111.664 -687.92 0.
-339.623 -651.029 0.
-362.663 -703.421 0.
-385.702 -755.813 0.
-131.81 -705.818 0.
-186.623 -833.216 0.
-241.436 -960.615 0.
-43.5431 -816.84 0.
51.4294 -595.773 0.
146.402 -374.706 0.
-125.141 -571.142 0.
-206.112 -762.156 0.
309.304 -696.743 0.
-675.493 -993.888 0.
-607.649 -835.736 0.
-63.5687 -536.788 0.
-155.908 -749.965 0.
-248.247 -963.141 0.
-292.233 -994.471 0.
-183.942 -743.469 0.
-75.6505 -492.467 0.
-141.305 -590.122 0.
-258.803 -862.477 0.
-376.301 -1134.83 0.
-1151.78 -1359.74 0.
-1074.43 -1178.73 0.
-385.849 -770.435 0.
-444.446 -907.995 0.
-503.043 -1045.56 0.
-394.69 -1057.41 0.
-368.623 -998.78 0.
-342.556 -940.146 0.
-415.597 -958.425 0.
-422.819 -980.296 0.
-430.04 -1002.17 0.
-948.18 -1151.2 0.
-896.911 -1031.52 0.
-930.967 -948.075 0.
-432.637 -935.734 0.
-539.828 -1182.95 0.
-330.507 -1211.68 0.
-228.655 -972.238 0.
-126.804 -732.795 0.
-284.845 -654.714 0.
-244.89 -561.284 0.
-204.935 -467.853 0.
-437.035 -632.975 0.
-507.888 -795.178 0.
-578.741 -957.381 0.
-225.925 -856.624 0.
-246.655 -906.521 0.
-663.653 -1120.08 0.
-667.712 -1129.83 0.
-671.77 -1139.58 0.
-758.051 -1167.86 0.
-735.314 -1113.87 0.
-712.577 -1059.87 0.
-163.546 -761.228 0.
-123.832 -668.128 0.
-84.1181 -575.028 0.
-638.408 -952.054 0.
-740.952 -1193.99 0.
277.215 -953.434 0.
-578.935 -1205.64 0.
-519.708 -1066.34 0.
-168.546 -829.438 0.
-185.442 -868.624 0.
-202.339 -907.81 0.
-103.886 -883.658 0.
-97.0577 -867.091 0.
-90.2289 -850.523 0.
-99.5205 -722.999 0.
-1.16638 -496.22 0.
97.1873 -269.441 0.
-120.496 -483.502 0.
-199.658 -670.86 0.
-69.8333 -761.327 0.
-125.685 -892.946 0.
-181.537 -1024.57 0.
-382.741 -1130.48 0.
-307.097 -953.724 0.
-231.454 -776.967 0.
135.432 -559.739 0.
138.76 -551.924 0.
142.087 -544.108 0.
161.351 -455.455 0.
207.98 -345.001 0.
-406.322 -868.333 0.
-127.084 -886.06 0.
-166.306 -975.435 0.
-48.8361 -947.423 0.
14.6273 -800.623 0.
78.0906 -653.823 0.
-216.879 -738.225 0.
-235.923 -781.463 0.
-254.969 -824.7 0.
-68.8706 -682.044 0.
-16.1381 -560.15 0.
36.5947 -438.255 0.
-61.3724 -611.155 0.
-138.507 -791.672 0.
-592.425 -1103.6 0.
-565.324 -1039.93 0.
-538.223 -976.259 0.
-82.2822 -714.373 0.
-37.3961 -608.701 0.
7.49035 -503.03 0.
165.463 -458.257 0.
110.157 -587.375 0.
54.8509 -716.492 0.
-313.2 -905.921 0.
-319.561 -919.04 0.
91.5064 -752.995 0.
-572.071 -928.899 0.
-514.36 -797.182 0.
-181.057 -629.437 0.
-298.299 -907.023 0.
-415.542 -1184.61 0.
-417.25 -1250.1 0.
-359.309 -1112.38 0.
-301.369 -974.663 0.
-310.224 -984.512 0.
-339.205 -1054.17 0.
-368.185 -1123.82 0.
-1144.19 -1258.52 0.
-1025.97 -983.747 0.
-209.789 -439.917 0.
-226.425 -478.334 0.
-243.061 -516.751 0.
-170.688 -567.173 0.
-261.711 -779.372 0.
-352.734 -991.571 0.
-506.409 -1063.5 0.
-437.495 -900.246 0.
-368.58 -736.994 0.
-875.592 -1033.97 0.
-949.221 -1203.91 0.
-1066.27 -1391.04 0.
-441.565 -1034.04 0.
-392.727 -924.338 0.
-306.509 -789.423 0.
-231.923 -619.325 0.
-157.337 -449.225 0.
-164.75 -448.505 0.
-251.942 -652.973 0.
-339.133 -857.441 0.
-522.849 -863.459 0.
-424.974 -637.333 0.
-327.098 -411.206 0.
-51.0239 -401.931 0.
-129.417 -581.912 0.
-589.549 -903.073 0.
-572.222 -861.135 0.
-554.895 -819.197 0.
-587.255 -796.807 0.
-574.504 -767.539 0.
-561.755 -738.27 0.
-37.1369 -574.95 0.
-103.171 -731.214 0.
-169.204 -887.477 0.
-565.258 -883.938 0.
-429.379 -565.161 0.
-678.275 -408.378 0.
-335.769 -481.328 0.
-452.118 -750.587 0.
-164.532 -789.593 0.
-135.772 -722.43 0.
-107.013 -655.268 0.
-17.4864 -575.012 0.
-14.3729 -569.305 0.
-11.2595 -563.598 0.
-95.6713 -596.226 0.
-88.8791 -577.094 0.
-82.087 -557.961 0.
-179.171 -521.228 0.
-138.204 -426.716 0.
308.564 -181.722 0.
237.417 -346.829 0.
166.271 -511.936 0.
-308.579 -798.66 0.
-297.892 -774.015 0.
-287.204 -749.369 0.
136.282 -538.312 0.
152.065 -502.965 0.
167.849 -467.618 0.
210.008 -424.376 0.
228.801 -381.156 0.
-577.085 -914.092 0.
87.3222 -764.092 0.
48.7085 -853.907 0.
-217.09 -986.92 0.
-153.357 -840.294 0.
-89.6251 -693.668 0.
-370.214 -770.205 0.
-388.724 -814.307 0.
-407.236 -858.409 0.
-69.0281 -652.129 0.
-16.6869 -530.111 0.
35.6545 -408.093 0.
-56.4118 -576.1 0.
-133.803 -756.102 0.
-446.417 -1011.18 0.
-420.173 -946.92 0.
-393.928 -882.659 0.
-117.831 -699.971 0.
-73.6955 -593.589 0.
-29.5593 -487.207 0.
67.9688 -469.303 0.
12.7047 -598.678 0.
-42.5594 -728.054 0.
-409.636 -915.258 0.
-415.947 -928.796 0.
-518.55 -982.927 0.
-365.536 -808.06 0.
-307.834 -676.286 0.
-120.026 -571.578 0.
-237.248 -849.124 0.
-354.471 -1126.67 0.
-472.539 -1244.28 0.
-414.707 -1106.79 0.
-356.875 -969.302 0.
-405.271 -992.835 0.
-434.255 -1062.61 0.
-463.239 -1132.38 0.
-1038.88 -1182.61 0.
-920.824 -907.493 0.
-138.341 -378.267 0.
-154.429 -416.905 0.
-170.517 -455.543 0.
-100.494 -506.23 0.
-191.816 -718.412 0.
-283.138 -930.595 0.
-573.957 -1060.56 0.
-504.375 -898.184 0.
-434.792 -735.805 0.
-912.519 -1017.23 0.
-986.329 -1186.84 0.
546.422 -667.511 0.
-277.695 -932.495 0.
-228.683 -822.735 0.
-606.561 -886.901 0.
-532.635 -716.127 0.
-458.707 -545.353 0.
-164.625 -418.816 0.
-252.305 -622.839 0.
-339.985 -826.862 0.
-414.316 -787.225 0.
-317.163 -560.477 0.
-220.011 -333.728 0.
-178.866 -425.67 0.
-257.384 -606.002 0.
-558.326 -859.719 0.
-541.544 -817.221 0.
-524.762 -774.722 0.
-450.368 -707.929 0.
-438.046 -677.957 0.
-425.725 -647.985 0.
-54.5556 -550.971 0.
-120.399 -707.281 0.
-186.242 -863.592 0.
-489.03 -819.754 0.
-353.273 -500.824 0.
-404.354 -260.754 0.
-165.353 -378.002 0.
-281.59 -647.357 0.
-297.211 -815.712 0.
-268.841 -747.948 0.
-240.471 -680.185 0.
-27.7425 -548.965 0.
-24.6772 -542.975 0.
-21.6119 -536.985 0.
-82.5939 -557.273 0.
-76.0222 -538.167 0.
-69.4506 -519.062 0.
-273.514 -531.666 0.
-233.306 -436.594 0.
400.952 -111.041 0.
330.03 -276.306 0.
259.108 -441.571 0.
-346.491 -783.352 0.
-336.535 -757.902 0.
-326.579 -732.451 0.
41.764 -548.481 0.
57.8528 -513.469 0.
73.9416 -478.457 0.
-93.8537 -523.399 0.
-74.623 -480.847 0.
-527.52 -753.042 0.
582.431 38.0234 0.
38.3002 -1230.82 0.
-190.957 -583.537 0.
374.155 736.808 0.
292.417 547.901 0.
203.14 888.616 0.
-272.332 -220.186 0.
-434.927 -598.717 0.
322.383 297.068 0.
223.124 66.1333 0.
200.124 13.3801 0.
237.733 130.434 0.
187.813 12.9848 0.
643.779 1294.43 0.
259.54 398.891 0.
-273.824 -843.611 0.
-252.699 -916.413 0.
244.394 243.908 0.
58.8718 -188.528 0.
-58.2606 -545.01 0.
367.081 445.11 0.
550.78 871.268 0.
-347.025 -568.701 0.
-402.673 -692.886 0.
158.3 -428.664 0.
172.275 90.9992 0.
-0.470105 -310.215 0.
171.347 18.4783 0.
370.424 480.889 0.
187.878 53.1978 0.
8.17951 17.6243 0.
47.7351 108.514 0.
101.683 233.167 0.
120.473 439.572 0.
-33.9127 79.794 0.
-328.172 -606.279 0.
-417.358 94.1797 0.
-340.348 271.379 0.
180.003 253.803 0.
-202.892 -640.237 0.
99.3451 64.467 0.
448.797 665.642 0.
431.196 626.099 0.
114.242 -111.841 0.
-176.227 24.8992 0.
-122.759 149.921 0.
84.219 633.21 0.
-273.545 567.254 0.
-350.909 386.436 0.
-2018.93 -1122.69 0.
294.262 134.624 0.
404.223 389.622 0.
-471.882 31.4192 0.
-400.887 196.323 0.
-374.489 256.881 0.
-146.296 -348.671 0.
-230.749 -545.062 0.
41.5639 91.1574 0.
278.553 651.733 0.
134.519 318.169 0.
36.5503 92.0742 0.
-201.312 -214.617 0.
-142.283 -71.9317 0.
-641.29 -1075.07 0.
-483.921 -704.897 0.
-140.534 99.6846 0.
-296.509 -576.936 0.
-334.788 -663.964 0.
-295.708 -570.055 0.
-111.429 -627.5 0.
73.2038 -194.122 0.
-135.349 -679.019 0.
-395.043 -720.843 0.
-327.859 -560.887 0.
-255.649 -887.322 0.
304.395 423.899 0.
125.928 7.57324 0.
232.293 709.932 0.
19.3737 210.335 0.
-371.468 -704.455 0.
-248.806 -1018.37 0.
-120.824 -714.789 0.
327.928 338.398 0.
500.804 815.367 0.
123.922 -65.4876 0.
59.0587 -218.463 0.
145.438 655.072 0.
376.508 1197.86 0.
417.282 -216.184 0.
1010.11 1167.33 0.
474.895 -82.2648 0.
-133.476 -176.74 0.
67.021 290.467 0.
-52.3003 10.7989 0.
-156.65 -803.081 0.
346.542 374.654 0.
185.291 1.57992 0.
376.736 1163.94 0.
-235.368 -267.895 0.
-706.861 -1072.11 0.
-85.1603 -686.463 0.
-40.4043 -580.564 0.
-59.2619 -526.222 0.
-43.3374 -488.499 0.
-27.4132 -450.774 0.
-246.848 -523.019 0.
-248.344 -525.132 0.
-249.84 -527.244 0.
20.9304 -499.093 0.
-42.2928 -647.67 0.
-105.516 -796.246 0.
-270.944 -734.499 0.
-184.084 -535.281 0.
-81.7549 -366.914 0.
-164.092 -562.639 0.
-246.43 -758.364 0.
-302.43 -842.165 0.
-229.71 -673.269 0.
-156.991 -504.373 0.
-1.25205 -390.849 0.
-22.1477 -440.362 0.
-43.0433 -489.875 0.
-62.6275 -523.15 0.
-69.3359 -537.552 0.
-92.8962 -559.252 0.
-305.587 -812.268 0.
-390.228 -1008.3 0.
-281.12 -1041.1 0.
-187.387 -820.141 0.
-93.6538 -599.18 0.
-332.81 -699.321 0.
-440.745 -953.335 0.
-548.68 -1207.35 0.
-568.233 -1116.19 0.
-439.098 -813.535 0.
-309.964 -510.885 0.
-828.657 -748.251 0.
-850.763 -801.347 0.
-272.096 -590.923 0.
-262.996 -569.337 0.
-253.896 -547.752 0.
-6.60538 -426.507 0.
-0.408499 -413.505 0.
5.78839 -400.504 0.
-379.112 -591.639 0.
-408.833 -661.677 0.
-438.554 -731.715 0.
-618.093 -830.445 0.
-621.182 -841.488 0.
-2018.2 -1451.84 0.
-264.93 -620.167 0.
-223.427 -521.568 0.
-572.055 -625.235 0.
-616.116 -726.171 0.
-660.177 -827.106 0.
-347.932 -755.686 0.
-364.184 -794.163 0.
-380.436 -832.64 0.
-421.594 -890.429 0.
-442.143 -939.652 0.
-462.692 -988.876 0.
-502.525 -778.44 0.
-368.57 -465.696 0.
-346.084 -228.145 0.
-339.876 -213.467 0.
-333.666 -198.79 0.
87.6384 -82.6914 0.
-28.6318 -352.509 0.
-144.902 -622.326 0.
-294.789 -819.016 0.
-333.712 -903.12 0.
-372.636 -987.223 0.
-536.39 -1179.07 0.
-611.149 -1351.72 0.
-263.409 -1341.28 0.
-480.124 -1140.29 0.
-324.782 -778.571 0.
-161.497 -483.27 0.
-165.261 -495.764 0.
-169.025 -508.258 0.
-241.682 -600.251 0.
-297.305 -728.566 0.
-352.927 -856.881 0.
-153.965 -818.62 0.
-166.684 -852.912 0.
-179.402 -887.204 0.
-356.784 -974.669 0.
-361.83 -983.205 0.
-121.447 -870.881 0.
-60.2 -726.798 0.
1.04708 -582.716 0.
-242.779 -604.739 0.
-230.707 -578.834 0.
-218.635 -552.928 0.
-104.392 -499.807 0.
-107.189 -505.2 0.
-109.986 -510.595 0.
-103.673 -602.457 0.
-168.749 -754.814 0.
-83.8999 -778.326 0.
-505.961 -837.076 0.
-461.236 -731.231 0.
89.8976 -430.249 0.
106.445 -393.138 0.
122.992 -356.025 0.
-40.9804 -401.861 0.
-41.6118 -404.461 0.
-42.2434 -407.061 0.
86.5844 -438.42 0.
23.3295 -586.951 0.
-39.9251 -735.482 0.
-420.581 -766.96 0.
-333.635 -568.072 0.
-81.4124 -334.622 0.
-163.913 -530.486 0.
-246.413 -726.35 0.
-381.643 -845.08 0.
-309.191 -675.985 0.
-236.74 -506.89 0.
2.79172 -356.914 0.
-17.6991 -406.681 0.
-38.19 -456.448 0.
280.188 -345.693 0.
273.906 -360.162 0.
-509.242 -707.893 0.
-402.495 -822.092 0.
-486.233 -1018.83 0.
-264.414 -1002.61 0.
-170.419 -781.967 0.
-76.4235 -561.321 0.
-361.402 -679.909 0.
-469.371 -933.715 0.
-577.341 -1187.52 0.
-575.811 -1088.7 0.
-446.632 -786.585 0.
-317.453 -484.467 0.
-873.689 -735.929 0.
-895.749 -789.306 0.
-366.56 -599.135 0.
-356.876 -578.259 0.
-347.191 -557.382 0.
27.5888 -380.406 0.
34.0308 -367.788 0.
40.4729 -355.171 0.
-290.543 -521.782 0.
-319.725 -592.39 0.
-348.908 -662.997 0.
-290.796 -658.712 0.
-293.622 -669.988 0.
-2962.06 -1823.57 0.
-536.884 -704.087 0.
-494.887 -605.844 0.
-337.053 -493.918 0.
-381.119 -594.775 0.
-425.187 -695.632 0.
-362.328 -730.234 0.
-378.083 -769.021 0.
-393.838 -807.808 0.
-453.3 -872.229 0.
-473.411 -921.623 0.
-493.521 -971.017 0.
-559.522 -770.963 0.
-425.485 -458.376 0.
-413.129 -226 0.
-407.238 -211.093 0.
-401.347 -196.186 0.
318.547 47.0363 0.
201.865 -222.72 0.
85.1835 -492.475 0.
-404.14 -834.295 0.
-443.244 -918.841 0.
-482.348 -1003.39 0.
-454.145 -1113.91 0.
-529.298 -1286.35 0.
17.0918 -1189.98 0.
-605.012 -1160.95 0.
-450.051 -798.761 0.
-3.89012 -387.256 0.
-7.75349 -399.1 0.
-11.6167 -410.944 0.
-432.953 -650.834 0.
-487.993 -779.162 0.
-543.034 -907.49 0.
-82.1076 -756.625 0.
-94.7731 -790.802 0.
-107.439 -824.979 0.
-97.0577 -831.376 0.
-101.466 -840.243 0.
-426.942 -969.178 0.
-365.347 -825.469 0.
-303.751 -681.759 0.
-134.282 -527.749 0.
-122.342 -501.749 0.
-110.402 -475.749 0.
-180.656 -500.181 0.
-183.291 -505.929 0.
-185.925 -511.677 0.
250.959 -421.172 0.
185.379 -573.143 0.
-281.228 -480.489 0.
-363.334 -556.683 0.
-385.942 -609.999 0.
151.042 -401.566 0.
189.262 -311.177 0.
227.482 -220.788 0.
68.1819 -312.471 0.
-5.81156 -484.393 0.
-79.8052 -656.314 0.
-19.5626 -576.628 0.
57.9915 -395.264 0.
135.545 -213.899 0.
-355.635 -626.043 0.
-483.154 -923.532 0.
-338.68 -1053.82 0.
-241.472 -827.066 0.
-144.265 -600.314 0.
-284.319 -563.714 0.
-317.885 -642.952 0.
-351.451 -722.19 0.
-123.383 -635.776 0.
-101.862 -585.532 0.
-80.3416 -535.288 0.
226.188 -459.349 0.
178.567 -570.57 0.
138.917 -676.719 0.
-414.178 -803.151 0.
-358.531 -669.064 0.
-58.2185 -456.328 0.
-72.7592 -490.053 0.
-87.3003 -523.778 0.
-264.839 -560.373 0.
-194.622 -394.521 0.
-124.405 -228.669 0.
-233.846 -229.941 0.
-233.386 -229.416 0.
-232.926 -228.891 0.
-792.274 -594.186 0.
-865.226 -764.061 0.
-397.154 -699.902 0.
-464.719 -856.243 0.
-532.284 -1012.58 0.
-200.497 -927.861 0.
-154.951 -819.762 0.
-109.405 -711.663 0.
-493.3 -896.683 0.
-546.521 -1017.94 0.
-599.741 -1139.2 0.
-395.081 -914.043 0.
-282.723 -653.139 0.
-669.421 -605.082 0.
-408.657 -530.641 0.
-428.809 -576.851 0.
-308.18 -555.622 0.
-312.569 -568.978 0.
-316.958 -582.335 0.
-406.967 -626.506 0.
-407.601 -628.875 0.
-408.235 -631.243 0.
-320.118 -614.865 0.
-336.904 -654.061 0.
-353.689 -693.257 0.
-592.985 -790.037 0.
-585.993 -772.971 0.
-646.635 -798.564 0.
-694.931 -910.366 0.
-743.226 -1022.17 0.
-53.7249 -769.904 0.
-21.1671 -694.303 0.
11.3907 -618.703 0.
-361.422 -695.584 0.
-319.464 -603.803 0.
-277.507 -512.022 0.
-200.068 -496.002 0.
-218.379 -539.44 0.
-108.057 -523.773 0.
-387.696 -596.798 0.
-361.504 -537.866 0.
15.6356 -343.937 0.
10.5153 -355.337 0.
5.39516 -366.737 0.
-392.391 -584.852 0.
-442.817 -703.87 0.
-493.242 -822.888 0.
-18.9759 -579.716 0.
36.9372 -445.511 0.
92.8507 -311.307 0.
110.232 -433.472 0.
23.9328 -634.942 0.
-484.098 -974.042 0.
-363.782 -696.521 0.
-243.465 -418.999 0.
80.6417 -136.661 0.
68.6734 -163.89 0.
56.7053 -191.12 0.
-153.539 -298.839 0.
-160.908 -316.939 0.
-168.276 -335.039 0.
371.278 -137.179 0.
352.492 -183.923 0.
261.591 -219.126 0.
121.669 -318.938 0.
99.1481 -372.542 0.
142.602 -372.632 0.
181.322 -282.759 0.
220.041 -192.886 0.
67.0137 -280.183 0.
-6.78404 -452.278 0.
-80.582 -624.374 0.
-160.624 -605.858 0.
-82.8868 -424.958 0.
-5.1496 -244.057 0.
-164.272 -511.82 0.
-291.744 -809.634 0.
-190.38 -958.286 0.
-93.3602 -731.471 0.
3.65873 -504.656 0.
-215.566 -502.824 0.
-249.251 -582.2 0.
-282.935 -661.576 0.
-113.28 -598.26 0.
-91.728 -548.142 0.
-70.1765 -498.025 0.
-87.6579 -562.034 0.
-135.471 -672.873 0.
729.562 -390.104 0.
-333.945 -737.952 0.
-277.907 -604.161 0.
-112.921 -447.673 0.
-127.231 -481.628 0.
-141.541 -515.584 0.
-97.7813 -457.546 0.
-27.6433 -291.864 0.
42.4954 -126.182 0.
-256.751 -209.342 0.
-256.394 -209.301 0.
-256.037 -209.259 0.
-666.423 -507.643 0.
-739.227 -677.968 0.
-248.654 -604.105 0.
-315.951 -760.825 0.
-383.248 -917.544 0.
-193.585 -893.211 0.
-147.605 -785.869 0.
-101.625 -678.528 0.
-653.835 -932.527 0.
-706.74 -1054.1 0.
-759.645 -1175.66 0.
-656.97 -995.121 0.
-544.584 -734.238 0.
-1440.81 -904.314 0.
-5.48763 -326.158 0.
-25.9718 -372.318 0.
-358.043 -546.891 0.
-362.483 -560.312 0.
-366.924 -573.733 0.
-583.032 -669.698 0.
-583.489 -672.174 0.
-583.945 -674.65 0.
-204.993 -533.66 0.
-221.212 -572.937 0.
-237.43 -612.215 0.
-554.414 -742.191 0.
-546.833 -725.589 0.
-528.61 -715.865 0.
-576.708 -827.879 0.
-624.807 -939.894 0.
-293.783 -841.138 0.
-262.068 -765.22 0.
-230.354 -689.302 0.
-251.933 -618.837 0.
-210.766 -526.883 0.
-169.599 -434.928 0.
-261.462 -491.931 0.
-279.904 -535.427 0.
184.043 -367.382 0.
-290.413 -523.098 0.
-264.189 -464.307 0.
-114.042 -368.7 0.
-118.883 -380.344 0.
-123.723 -391.988 0.
-139.287 -443 0.
-189.438 -561.939 0.
-239.588 -680.878 0.
-96.1651 -581.347 0.
-39.6448 -447.382 0.
16.876 -313.418 0.
-25.3996 -458.544 0.
-111.794 -659.73 0.
-275.851 -854.232 0.
-155.33 -576.443 0.
-34.8087 -298.653 0.
118.481 -90.9255 0.
106.547 -118.044 0.
94.6119 -145.162 0.
-204.866 -289.487 0.
-211.94 -307.889 0.
-219.014 -326.292 0.
65.7473 -237.661 0.
47.4009 -285.116 0.
221.421 429.657 0.
645.708 18.644 0.
924.487 666.694 0.
363.624 190.412 0.
219.341 -141.693 0.
49.4517 -534.438 0.
-56.1357 -541.954 0.
386.747 494.158 0.
122.575 -119.565 0.
170.396 469.951 0.
-63.0581 -77.827 0.
-301.881 -637.753 0.
155.155 -92.9845 0.
277.826 192.558 0.
206.105 -275.44 0.
511.989 435.056 0.
263.12 -148.587 0.
1.45485 -93.5393 0.
-167.229 -486.822 0.
38.5158 -7.35596 0.
123.024 -25.4183 0.
47.0441 -205.898 0.
198.259 143.842 0.
-428.151 -723.842 0.
-430.106 -726.781 0.
-166.67 502.499 0.
360.469 757.661 0.
377.139 797.54 0.
79.6346 136.334 0.
86.3299 150.466 0.
188.482 387.997 0.
-35.8743 -598.649 0.
-4.19924 -525.651 0.
112.124 -254.548 0.
34.7039 535.473 0.
27.0951 516.343 0.
-441.366 -577.663 0.
-18.9846 794.843 0.
-25.3722 780.998 0.
296.284 426.045 0.
205.127 211.367 0.
196.967 190.5 0.
90.7866 -211.951 0.
11.1484 -400.016 0.
41.1764 -331.996 0.
-364.479 82.6129 0.
-37.0563 845.049 0.
-400.796 -5.24202 0.
-363.423 208.104 0.
-655.122 -474.599 0.
-1639.4 -2063.87 0.
475.704 81.0662 0.
731.725 678.787 0.
-7.73138 387.978 0.
-130.24 102.105 0.
-290.379 -270.948 0.
-646.955 -459.291 0.
-409.606 93.1912 0.
-399.29 116.049 0.
82.2417 -46.5539 0.
154.093 120.364 0.
404.939 704.49 0.
-433.574 -510.427 0.
-193.412 48.8047 0.
73.1087 499.411 0.
-192.801 -123.563 0.
-265.421 -295.335 0.
-125.422 32.7936 0.
-126.991 31.6813 0.
-269.117 -297.195 0.
-146.903 -553.297 0.
-88.2437 -416.771 0.
-62.5107 -356.216 0.
-347.471 -549.326 0.
-344.771 -538.068 0.
-28.7164 -707.682 0.
210.173 487.436 0.
-144.458 -340.716 0.
-106.122 -60.929 0.
10.8086 208.541 0.
-170.068 -216.778 0.
204.65 -85.0479 0.
377.532 317.111 0.
-142.646 -897.975 0.
66.3017 -20.7012 0.
379.839 709.77 0.
-61.3156 -320.865 0.
93.2449 112.237 0.
150.294 246.203 0.
444.171 458.304 0.
369.181 283.745 0.
14.6791 -543.17 0.
-235.033 -970.342 0.
243.949 150.278 0.
345.268 388.407 0.
74.6175 493.097 0.
-118.909 43.6071 0.
-67.4696 164.549 0.
-280.469 -440.77 0.
-150.525 -136.691 0.
-427.696 -668.476 0.
216.929 -321.993 0.
261.541 -216.858 0.
285.749 -152.38 0.
250.365 -232.234 0.
214.982 -312.089 0.
-72.7349 -427.059 0.
-22.0297 -308.251 0.
28.6753 -189.443 0.
-52.8695 -285.413 0.
-127.288 -458.405 0.
-201.707 -631.397 0.
-169.56 -595.311 0.
-149.527 -547.267 0.
156.609 -391.228 0.
140.648 -430.059 0.
124.686 -468.89 0.
-254.485 -638.413 0.
-234.289 -590.131 0.
-214.093 -541.849 0.
-214.351 -484.8 0.
-179.419 -402.514 0.
-144.487 -320.229 0.
-257.505 -503.166 0.
-353.287 -727.222 0.
-718.565 -1066.37 0.
-274.879 -846.941 0.
-265.102 -824.326 0.
-238.045 -797.983 0.
-213.923 -741.911 0.
-189.802 -685.84 0.
-193.308 -662.16 0.
-199.209 -678.031 0.
-205.109 -693.903 0.
-393.17 -732.947 0.
-355.767 -644.555 0.
-318.364 -556.163 0.
-600.988 -617.536 0.
-571.9 -547.327 0.
1.93565 -250.661 0.
-1.87704 -255.089 0.
-5.68994 -259.517 0.
-150.718 -326.575 0.
-154.56 -335.682 0.
-158.402 -344.789 0.
-576.939 -501.784 0.
-551.272 -445.246 0.
-525.605 -388.708 0.
-292.682 -285.708 0.
-298.992 -300.52 0.
-1235.1 -715.193 0.
298.965 -20.7362 0.
320.331 25.7391 0.
-304.501 -223.701 0.
-328.012 -277.768 0.
-351.522 -331.835 0.
-446.903 -363.763 0.
-401.855 -257.564 0.
-356.808 -151.365 0.
-197.512 -113.423 0.
-248.775 -228.263 0.
-300.037 -343.103 0.
-289.021 -380.528 0.
-305.479 -418.597 0.
-327.908 -458.3 0.
-357.71 -531.772 0.
-387.512 -605.243 0.
-329.77 -601.491 0.
-302.711 -537.219 0.
-275.651 -472.947 0.
-213.261 -515.927 0.
-292.699 -702.735 0.
-372.138 -889.543 0.
-348.983 -675.231 0.
-191.215 -305.86 0.
-258.645 -35.8537 0.
-203.14 -148.752 0.
-275.819 -318.774 0.
-60.9004 -348.994 0.
-94.6309 -429.982 0.
-128.361 -510.97 0.
79.3286 -371.7 0.
181.886 -127.886 0.
284.444 115.927 0.
-21.0748 -46.7349 0.
-101.426 -233.664 0.
-181.776 -420.594 0.
-223.079 -413.22 0.
-199.895 -357.979 0.
84.0671 -220.175 0.
-21.6338 -465.014 0.
-127.335 -709.854 0.
-142.249 -793.973 0.
-59.7373 -600.355 0.
22.7741 -406.736 0.
-287.22 -532.84 0.
-347.208 -671.096 0.
-407.195 -809.351 0.
-545.48 -1057.9 0.
-657.759 -1315.72 0.
220.369 -359.752 0.
-115.874 -432.367 0.
-71.2997 -327.139 0.
386.944 -78.7966 0.
351.297 -158.619 0.
315.65 -238.441 0.
-133.789 -421.679 0.
-82.899 -303.249 0.
-32.0087 -184.82 0.
85.8929 -194.329 0.
11.5034 -367.703 0.
-62.886 -541.077 0.
-289.577 -615.573 0.
-269.351 -567.955 0.
173.721 -350.945 0.
158.022 -390.284 0.
142.322 -429.622 0.
-263.877 -609.143 0.
-243.525 -561.178 0.
-223.174 -513.213 0.
-372.622 -522.355 0.
-337.118 -440.827 0.
-301.615 -359.298 0.
-145.769 -422.493 0.
-240.639 -646.878 0.
-564.073 -968.68 0.
-195.71 -781.257 0.
-185.443 -758.852 0.
-119.506 -714.418 0.
-95.1532 -658.378 0.
-70.8011 -602.338 0.
-336.769 -692.561 0.
-342.95 -708.305 0.
-349.131 -724.05 0.
-237.642 -636.431 0.
-200.64 -547.759 0.
-163.638 -459.087 0.
-550.872 -563.102 0.
-521.934 -493.109 0.
6.90013 -217.747 0.
2.91114 -222.409 0.
-1.07807 -227.071 0.
-370.346 -388.762 0.
-374.199 -398.104 0.
-378.053 -407.445 0.
-511.263 -442.071 0.
-485.906 -385.101 0.
-460.549 -328.13 0.
69.9486 -99.4124 0.
63.5139 -114.188 0.
-734.193 -469.301 0.
152.942 -52.3716 0.
174.285 -6.20946 0.
-333.366 -202.558 0.
-355.952 -257.583 0.
-378.538 -312.609 0.
-230.503 -239.699 0.
-185.001 -133.766 0.
-139.498 -27.8335 0.
-494.294 -208.279 0.
-544.954 -323.282 0.
-595.612 -438.284 0.
-164.263 -296.039 0.
-180.211 -334.664 0.
-295.91 -410.627 0.
-325.535 -484.719 0.
-355.161 -558.812 0.
-228.081 -526.078 0.
-201.334 -462.197 0.
-174.587 -398.317 0.
-297.245 -519.916 0.
-376.598 -706.979 0.
-455.951 -894.042 0.
-271.425 -611.187 0.
-113.614 -241.815 0.
-1259.11 -433.304 0.
-357.206 -183.305 0.
-429.925 -353.178 0.
162.074 -220.902 0.
129.148 -302.36 0.
96.2226 -383.819 0.
91.4274 -332.46 0.
193.969 -88.501 0.
296.51 155.458 0.
-97.9901 -48.7445 0.
-178.522 -235.32 0.
-259.053 -421.895 0.
-316.985 -422.661 0.
-293.484 -367.435 0.
9.43957 -220.464 0.
-95.7871 -465.885 0.
-201.014 -711.306 0.
-104.129 -744.952 0.
-21.6874 -551 0.
60.754 -357.049 0.
-174.989 -453.368 0.
-235.009 -591.47 0.
-295.029 -729.571 0.
-530.679 -1021.31 0.
-643.579 -1278.66 0.
236.585 -189.646 0.
-236.81 -294.638 0.
-172.085 -146.187 0.
415.278 143.841 0.
281.193 -170.437 0.
147.107 -484.715 0.
-205.642 -721.652 0.
-141.118 -566.781 0.
-76.5943 -411.91 0.
76.5783 -227.747 0.
139.113 -83.6475 0.
201.648 60.4521 0.
-196.585 -122.106 0.
-214.505 -163.261 0.
332.464 10.8617 0.
216.337 -259.988 0.
100.211 -530.838 0.
-296.909 -789.114 0.
-203.761 -572.931 0.
-110.613 -356.747 0.
-295.087 -349.226 0.
-283.324 -323.009 0.
-271.561 -296.792 0.
-18.5359 -88.564 0.
42.7434 57.0869 0.
455.848 352.95 0.
126.427 -30.366 0.
-1.03009 -321.385 0.
20.0648 -454.756 0.
92.843 -284.807 0.
165.621 -114.857 0.
-166.23 -203.592 0.
-184.191 -244.343 0.
-202.152 -285.095 0.
-100.654 -303.736 0.
-142.452 -400.808 0.
-184.249 -497.879 0.
-541.158 -671.541 0.
-547.228 -689.867 0.
-169.275 -534.993 0.
-131.517 -454.089 0.
-93.7577 -373.184 0.
-560.076 -532.308 0.
-568.993 -553.296 0.
-577.911 -574.284 0.
-456.862 -490.109 0.
-419.47 -402.262 0.
-382.078 -314.414 0.
152.661 -120.145 0.
117.965 -200.217 0.
260.28 -206.428 0.
-91.0559 -449.112 0.
-138.897 -561.956 0.
-580.409 -787.584 0.
-490.604 -578.449 0.
-400.799 -369.314 0.
-150.295 -225.255 0.
-216.602 -381.19 0.
-282.91 -537.126 0.
-824.244 -811.967 0.
-823.644 -813.526 0.
-823.043 -815.084 0.
-242.807 -444.033 0.
-175.999 -282.894 0.
-207.997 -207.667 0.
-349.971 -532.796 0.
-491.944 -857.924 0.
-343.002 -927.15 0.
-263.912 -744.378 0.
-184.822 -561.605 0.
-303.299 -444.447 0.
-212.097 -230.889 0.
-120.896 -17.331 0.
-132.534 -235.851 0.
-300.345 -623.97 0.
-419.906 -985.958 0.
-657.158 -900.015 0.
-559.225 -669.241 0.
195.719 -206.024 0.
173.041 -252.51 0.
150.363 -298.996 0.
131.702 -281.491 0.
189.453 -146.723 0.
247.204 -11.9542 0.
-235.868 -263.691 0.
-303.951 -421.249 0.
-372.033 -578.806 0.
-338.748 -503.117 0.
-293.455 -396.81 0.
-4.51476 -191.624 0.
5.05938 -168.179 0.
14.6334 -144.734 0.
102.507 -159.247 0.
5.45593 -387.854 0.
-91.5946 -616.46 0.
-242.114 -695.227 0.
-179.761 -549.59 0.
-117.409 -403.954 0.
-213.917 -296.663 0.
-130.845 -105.958 0.
-213.364 -351.031 0.
-306.549 -293.866 0.
-242.091 -144.989 0.
188.129 77.1999 0.
54.0359 -237.067 0.
-80.0575 -551.334 0.
19.8768 -593.172 0.
84.4074 -438.488 0.
148.938 -283.804 0.
-24.0955 -240.888 0.
38.0916 -96.3253 0.
100.279 48.2376 0.
-336.71 -151.328 0.
-354.622 -192.268 0.
352.089 49.2128 0.
235.69 -221.391 0.
119.292 -491.995 0.
-158.259 -697.855 0.
-64.8958 -481.87 0.
28.4669 -265.885 0.
-99.8832 -234.02 0.
-87.8555 -208.164 0.
-75.828 -182.308 0.
-138.86 -110.499 0.
-77.9215 35.7257 0.
410.41 365.732 0.
81.7274 -16.9563 0.
-45.3749 -308.318 0.
8.2519 -429.817 0.
80.9414 -259.649 0.
153.631 -89.4818 0.
-88.7902 -137.524 0.
-106.582 -178.65 0.
-124.375 -219.777 0.
-227.807 -327.156 0.
-269.738 -424.319 0.
-311.67 -521.482 0.
-428.649 -591.114 0.
-435.179 -609.501 0.
-214.366 -522.856 0.
-177.073 -441.798 0.
-139.78 -360.739 0.
-615.531 -524.801 0.
-624.746 -545.428 0.
-633.961 -566.055 0.
-310.785 -396.898 0.
-273.104 -309.092 0.
-235.423 -221.287 0.
41.0285 -135.987 0.
6.51241 -216.514 0.
-1937.93 -1116.23 0.
-90.4556 -416.967 0.
-137.812 -530.128 0.
-512.574 -724.636 0.
-422.12 -515.985 0.
-331.667 -307.333 0.
-152.996 -195.087 0.
-219.431 -350.914 0.
-285.866 -506.74 0.
-659.585 -709.297 0.
-659.396 -710.373 0.
-659.208 -711.449 0.
-361.996 -464.785 0.
-295.373 -303.611 0.
-223.53 -182.262 0.
-365.21 -507.995 0.
-506.889 -833.728 0.
-256.89 -858.143 0.
-177.86 -675.566 0.
-98.8292 -492.99 0.
-282.842 -404.965 0.
-191.094 -191.853 0.
-99.3462 21.2586 0.
-228.409 -244.991 0.
-396.033 -633.214 0.
266.892 -660.851 0.
-455.933 -782.513 0.
-358.093 -551.094 0.
56.4539 -234.211 0.
34.5429 -280.998 0.
12.6319 -327.786 0.
205.007 -219.155 0.
262.982 -84.1906 0.
320.957 50.7741 0.
-236.791 -231.438 0.
-304.755 -389.316 0.
-372.72 -547.194 0.
-191.786 -408.312 0.
-146.534 -302.108 0.
40.0974 -142.078 0.
49.6575 -118.396 0.
59.2174 -94.7143 0.
-5.65038 -174.668 0.
-102.935 -402.731 0.
-200.22 -630.794 0.
-230.381 -658.441 0.
-168.178 -512.539 0.
-105.975 -366.637 0.
-188.323 -255.853 0.
-105.482 -64.8078 0.
24.0882 326.865 0.
-510.827 -604.059 0.
-137.208 267.716 0.
201.532 566.509 0.
-167.509 -292.738 0.
119.959 377.849 0.
296.502 -351.733 0.
192.308 -596.975 0.
117.212 -774.016 0.
-36.4947 -46.9354 0.
12.396 63.7098 0.
112.8 294.848 0.
-483.397 -204.208 0.
-671.387 -644.214 0.
-173.749 -1183.46 0.
372.156 92.3237 0.
806.77 1108.76 0.
478.224 556.851 0.
386.12 338.096 0.
266.647 56.5087 0.
167.811 45.0383 0.
-329.684 -1115.56 0.
-16.9024 -386.889 0.
-158.967 100.862 0.
-111.624 212.243 0.
-432.346 -734.723 0.
-70.5017 -255.313 0.
34.2699 -12.3867 0.
287.41 264.729 0.
307.129 316.159 0.
97.8123 -166.293 0.
-180.378 -463.502 0.
-150.309 -393.639 0.
-110.758 -302.224 0.
-222.004 -50.2048 0.
-138.926 145.131 0.
-13.946 438.381 0.
-14.8722 200.53 0.
-7.60899 215.927 0.
-482.469 -1038.84 0.
-188.793 -352.458 0.
204.737 566.952 0.
-122.633 759.584 0.
-446.881 4.05255 0.
-590.29 -329.53 0.
61.6756 227.12 0.
-15.9424 44.9078 0.
-54.9514 -47.1015 0.
-144.312 -332.984 0.
178.659 419.16 0.
-2296.5 -466.613 0.
151.808 196.079 0.
75.5569 17.4758 0.
-284.153 -292.791 0.
-754.567 -1388.68 0.
-307.53 -344.05 0.
201.161 663.416 0.
-4.7175 184.149 0.
-317.839 -545.408 0.
-504.75 -631.365 0.
-311.474 -178.663 0.
-197.371 89.2714 0.
156.6 1000.79 0.
-52.1524 513.755 0.
-368.562 -456.713 0.
-180.811 -18.8745 0.
-53.3452 278.782 0.
269.24 230.147 0.
-177.783 -817.23 0.
54.9664 -278.204 0.
-67.1808 79.5664 0.
-128.21 -62.4653 0.
-275.14 -404.805 0.
-128.125 202.281 0.
-214.926 2.26373 0.
-169.993 -431.249 0.
43.3842 25.0996 0.
43.1643 24.4979 0.
-164.787 -447.824 0.
-42.8057 -164.263 0.
-44.0101 -167.756 0.
495.631 349.948 0.
118.816 -527.377 0.
485.395 329.299 0.
200.696 826.589 0.
75.5534 533.706 0.
-391.272 -556.662 0.
127.767 89.301 0.
90.535 3.35577 0.
-73.311 -451.482 0.
-62.6271 -427.304 0.
496.031 875.405 0.
202.852 545.734 0.
60.6236 216.018 0.
13.5758 108.114 0.
543.013 1154.9 0.
247.399 467.411 0.
207.032 373.213 0.
-268.973 -461.366 0.
-376.867 -716.159 0.
465.262 264.721 0.
-391.204 -247.419 0.
-483.256 -461.326 0.
-68.2468 -371.828 0.
34.8769 -130.491 0.
138 110.845 0.
159.144 131.208 0.
46.3749 -136.078 0.
-66.395 -403.365 0.
-237.093 -464.239 0.
-170.539 -311.03 0.
-103.985 -157.82 0.
-173.986 -244.59 0.
-211.699 -334.787 0.
48.6365 -278.84 0.
68.7858 -232.424 0.
88.9354 -186.008 0.
143.536 -181.991 0.
80.9453 -329.819 0.
18.355 -477.648 0.
-84.9675 -586.874 0.
-97.2455 -613.767 0.
-109.523 -640.66 0.
-419.152 -665.497 0.
-338.788 -482.263 0.
-583.168 -438.157 0.
-130.967 -275.581 0.
-147.554 -317.703 0.
-118.662 -321.149 0.
-82.8692 -238.745 0.
-47.0768 -156.341 0.
59.143 -116.135 0.
12.3551 -228.42 0.
-34.4327 -340.704 0.
-340.218 -389.812 0.
-252.305 -186.675 0.
-164.391 16.4627 0.
-251.135 -75.2326 0.
-290.674 -166.998 0.
-180.492 -190.978 0.
-201.914 -238.899 0.
-223.336 -286.82 0.
-267.369 -307.452 0.
-224.173 -206.925 0.
-180.977 -106.397 0.
-150.761 -108.234 0.
-202.107 -227.542 0.
-253.453 -346.849 0.
-124.445 -295.853 0.
-111.4 -265.207 0.
-1421.14 -801.995 0.
-87.1884 -156.657 0.
-50.1367 -67.4265 0.
-247.635 -138.82 0.
-352.855 -379.613 0.
-458.075 -620.406 0.
-421.319 -641.887 0.
-337.483 -447.78 0.
-253.647 -253.673 0.
-229.951 -147.832 0.
-194.433 -62.7477 0.
-158.914 22.3359 0.
-369.225 -258.712 0.
-488.013 -537.147 0.
-402.178 -682.803 0.
-313.957 -476.986 0.
-225.736 -271.169 0.
124.82 -33.4167 0.
78.7036 -141.776 0.
32.5872 -250.135 0.
-271.699 -405.614 0.
-256.187 -366.27 0.
-240.675 -326.927 0.
-75.234 -202.041 0.
-46.6323 -136.543 0.
-131.931 -119.377 0.
-48.8926 -19.0217 0.
-12.4295 62.382 0.
50.4876 129.089 0.
11.5218 36.8484 0.
-27.4437 -55.3929 0.
268.755 1.11825 0.
238.434 -72.0725 0.
208.113 -145.264 0.
-183.507 -314.138 0.
-167.355 -274.534 0.
-151.203 -234.932 0.
-126.484 -220.8 0.
-129.208 -227.509 0.
-142.021 -238.154 0.
-140.296 -237.387 0.
-138.57 -236.619 0.
83.711 -110.778 0.
128.715 -5.59178 0.
173.72 99.5946 0.
71.1571 56.9023 0.
37.9068 -23.5476 0.
4.65645 -103.998 0.
-102.102 -167.709 0.
-104.788 -178.608 0.
1206.64 616.949 0.
-417.42 -226.849 0.
-508.831 -440.952 0.
107.905 -264.696 0.
210.965 -22.8729 0.
314.025 218.949 0.
-243.329 -10.411 0.
-355.666 -277.786 0.
-468.004 -545.161 0.
-247.551 -438.524 0.
-181.463 -285.31 0.
-115.374 -132.096 0.
243.063 -34.1442 0.
205.477 -125.21 0.
-132.604 -323.427 0.
-112.117 -277.655 0.
-91.6296 -231.882 0.
138.831 -153.509 0.
76.0762 -301.111 0.
13.3219 -448.713 0.
-51.6054 -541.286 0.
-63.7242 -568.083 0.
-75.8431 -594.881 0.
-317.493 -591.316 0.
-237.175 -407.903 0.
-66.0223 -186.222 0.
-174.705 -262.842 0.
-191.777 -304.356 0.
-289.248 -363.847 0.
-253.537 -281.748 0.
-217.827 -199.65 0.
183.796 -30.3889 0.
137.417 -143.45 0.
91.0392 -256.511 0.
-284.348 -334.24 0.
-195.69 -131.901 0.
-107.031 70.4396 0.
-379.289 -97.8975 0.
-418.152 -190.115 0.
-242.006 -183.936 0.
-262.656 -232.393 0.
-283.305 -280.849 0.
133.05 -103.4 0.
176.532 -3.1446 0.
220.015 97.1103 0.
-219.044 -105.969 0.
-270.168 -225.599 0.
-321.291 -345.228 0.
-95.2723 -251.52 0.
-82.1346 -221.038 0.
-632.422 -432.387 0.
-187.367 -167.933 0.
-149.945 -78.7541 0.
-269.956 -115.867 0.
-374.819 -356.648 0.
-479.681 -597.428 0.
-477.466 -634.339 0.
-393.531 -440.087 0.
-309.596 -245.834 0.
-128.639 -71.4295 0.
-93.5173 13.8697 0.
-58.396 99.1683 0.
-335.228 -212.769 0.
-454.655 -490.319 0.
-306.944 -611.429 0.
-219.148 -405.245 0.
-131.352 -199.06 0.
99.8219 -15.2377 0.
53.1318 -123.125 0.
6.44216 -231.013 0.
-253.862 -367.528 0.
-238.113 -328.221 0.
-222.365 -288.915 0.
214.891 -45.8612 0.
243.603 19.8542 0.
20.5191 -23.9366 0.
-118.577 -17.0751 0.
-81.9248 64.4748 0.
26.0399 148.841 0.
-12.3652 56.5106 0.
-50.7702 -35.8204 0.
192.821 -0.144865 0.
162.816 -73.5197 0.
132.812 -146.895 0.
-41.4097 -221.129 0.
-24.8884 -182.027 0.
-8.36671 -142.925 0.
-258.182 -244.914 0.
-260.808 -252.078 0.
-320.346 -282.438 0.
-319.269 -281.203 0.
-318.193 -279.966 0.
299.305 11.5631 0.
344.223 117.161 0.
389.142 222.76 0.
86.2253 95.6247 0.
52.7439 15.2026 0.
19.2625 -65.2198 0.
-32.5064 -108.003 0.
-35.7252 -118.492 0.
-198.9 -406.187 0.
-397.798 -402.214 0.
-336.987 -259.248 0.
224.654 71.3426 0.
238.929 105.034 0.
253.205 138.725 0.
-371.488 -89.0626 0.
-342.056 -16.7402 0.
-312.624 55.5824 0.
-36.4624 18.0902 0.
-174.381 -303.533 0.
-312.3 -625.156 0.
291.831 -239.855 0.
386.331 -17.2184 0.
-95.981 -62.8876 0.
-100.185 -72.596 0.
-104.389 -82.3049 0.
123.707 13.4458 0.
130.788 31.5702 0.
137.868 49.6946 0.
234.246 32.5131 0.
175.566 -105.921 0.
116.886 -244.355 0.
-228.365 -408.843 0.
-225.627 -399.966 0.
478.526 -91.2622 0.
-70.0657 -65.2789 0.
68.6816 258.928 0.
-56.1998 340.853 0.
-232.636 -70.6065 0.
-409.072 -482.066 0.
35.5578 -374.566 0.
159.619 -85.8124 0.
283.681 202.942 0.
-122.723 37.3256 0.
-178.495 -93.7069 0.
-234.268 -224.739 0.
-414.708 -288.32 0.
-397.694 -250.143 0.
-362.992 -221.647 0.
-422.115 -357.151 0.
-481.238 -492.654 0.
171.133 -289.731 0.
159.029 -314.728 0.
146.924 -339.725 0.
-372.285 -413.273 0.
-220.224 -57.6006 0.
-68.1637 298.072 0.
59.0607 221.536 0.
-72.5479 -85.6258 0.
-824.401 -655.866 0.
-265.864 -376.093 0.
-244.734 -326.718 0.
-377.304 -336.133 0.
-339.217 -248.681 0.
-301.131 -161.23 0.
-302.174 -180.864 0.
-373.632 -345.837 0.
-445.09 -510.809 0.
-204.929 -403.342 0.
-165.381 -312.729 0.
-125.834 -222.117 0.
-373.903 -305.401 0.
-363.899 -285.83 0.
-80.7779 -147.661 0.
-65.227 -111.284 0.
-49.6764 -74.9063 0.
14.7829 -95.3418 0.
-87.9845 -335.673 0.
-190.752 -576.004 0.
-320.656 -664.665 0.
-271.561 -547.71 0.
-222.466 -430.756 0.
211.616 -96.9253 0.
294.522 102.202 0.
233.432 238.673 0.
-58.8562 54.7687 0.
-91.8348 -17.9616 0.
-45.4293 -47.8968 0.
-63.849 -86.7353 0.
-82.2681 -125.574 0.
133.352 -61.7368 0.
119.876 -89.3745 0.
106.4 -117.012 0.
76.6078 -168.339 0.
49.2997 -228.526 0.
21.9921 -288.714 0.
-425.598 -366.265 0.
-355.53 -200.79 0.
-207.112 -15.5091 0.
-194.846 13.9011 0.
-182.579 43.3108 0.
311.645 225.88 0.
238.113 55.3805 0.
164.582 -115.119 0.
-19.8693 -190.82 0.
42.5827 -44.2831 0.
105.035 102.254 0.
221.317 183.801 0.
227.529 199.995 0.
848.844 72.3472 0.
-109.885 -247.734 0.
-47.9092 -105.308 0.
21.8304 16.9041 0.
36.7151 50.7141 0.
51.5996 84.5241 0.
-177.433 25.3151 0.
-147.638 97.5182 0.
-117.842 169.721 0.
39.5952 81.1108 0.
-98.2739 -240.929 0.
-236.143 -562.969 0.
244.768 -225.477 0.
340.192 -3.9245 0.
-82.4377 -27.2466 0.
-86.6834 -37.0732 0.
-90.9286 -46.9003 0.
-56.0961 -30.4714 0.
-48.4703 -12.7953 0.
-40.8448 4.88069 0.
339.484 108.082 0.
280.141 -29.7086 0.
220.799 -167.5 0.
-285.788 -404.874 0.
-282.726 -396.466 0.
-252.356 -375.543 0.
51.6138 20.7453 0.
190.379 344.743 0.
-23.5925 385.51 0.
-200.367 -25.7786 0.
-377.141 -437.067 0.
-58.3784 -382.751 0.
65.9376 -94.2319 0.
190.254 194.288 0.
-135.641 63.0339 0.
-191.276 -68.2318 0.
-246.912 -199.497 0.
-143.012 -140.974 0.
-125.707 -103.077 0.
-526.544 -259.546 0.
-585.502 -395.143 0.
-644.459 -530.741 0.
88.9612 -293.719 0.
76.7256 -318.577 0.
64.4896 -343.434 0.
-324.402 -362.925 0.
-172.303 -7.16667 0.
-20.2033 348.591 0.
-55.3018 205.501 0.
-186.588 -101.646 0.
-721.603 -581.004 0.
-107.04 -276.713 0.
-85.7766 -227.143 0.
-335.713 -286.524 0.
-297.41 -199.076 0.
-259.108 -111.628 0.
-259.066 -129.821 0.
-329.848 -295.181 0.
-400.63 -460.54 0.
-103.99 -328.554 0.
-64.4142 -237.577 0.
-24.8383 -146.599 0.
-370.76 -272.169 0.
-361.157 -252.197 0.
-74.6199 -114.341 0.
-58.6832 -78.4149 0.
-42.7467 -42.489 0.
-47.7765 -88.6614 0.
-150.005 -329.687 0.
-252.234 -570.713 0.
-155.994 -562.181 0.
-106.966 -445.641 0.
-57.9373 -329.1 0.
7.42862 -152.056 0.
90.4338 46.7246 0.
576.443 417.009 0.
119.482 163.196 0.
86.0242 90.8619 0.
26.5936 14.4832 0.
8.3998 -24.7171 0.
-9.79344 -63.9179 0.
151.36 -23.2113 0.
138.193 -51.1591 0.
125.026 -79.1069 0.
199.64 -82.5184 0.
172.697 -143.012 0.
145.756 -203.505 0.
-544.221 -386.266 0.
-474.118 -220.968 0.
-4.08418 104.07 0.
8.50388 133.129 0.
21.092 162.187 0.
-57.1408 98.0102 0.
-130.609 -72.261 0.
-204.077 -242.532 0.
40.6219 -132.397 0.
103.301 14.0643 0.
165.98 160.526 0.
486.582 329.987 0.
492.76 346.247 0.
347.052 114.816 0.
200.79 -33.379 0.
-149.845 -851.259 0.
-33.0771 295.251 0.
-0.353756 374.374 0.
97.0561 604.318 0.
-144.147 -251.309 0.
-61.5185 -60.7974 0.
115.183 348.977 0.
93.1269 107.055 0.
-62.3134 -255.992 0.
-31.5638 -184.932 0.
798.626 1178.31 0.
722.945 1006.78 0.
-293.681 -516.562 0.
76.2692 346.337 0.
-402.999 -771.525 0.
-682.986 -1128.56 0.
-593.961 -920.54 0.
-269.238 -163.589 0.
497.275 305.963 0.
259.873 -248.813 0.
103.015 -616.097 0.
-128.044 100.23 0.
4.88504 407.889 0.
-912.52 -507.72 0.
29.7072 -230.694 0.
17.9182 -252.966 0.
147.065 751.695 0.
198.15 874.55 0.
-204.575 -60.9785 0.
-132.856 -341.492 0.
192.979 421.303 0.
133.188 284.263 0.
7.43948 434.637 0.
-133.646 107.114 0.
-307.545 -296.848 0.
-114.265 -556.031 0.
-151.587 -647.146 0.
-525.97 81.5222 0.
-326.264 548.124 0.
-610.658 -114.796 0.
174.694 113.324 0.
413.44 666.769 0.
32.1613 -226.487 0.
-244.118 -248.582 0.
-47.1543 212.78 0.
-242.568 -241.171 0.
-492.488 -563.375 0.
-379.527 -304.515 0.
-548.423 685.454 0.
204.802 185.859 0.
-8.72585 -314.008 0.
-137.924 127.663 0.
-176.454 37.7887 0.
-251.998 -138.629 0.
-344.243 -393.569 0.
-45.1193 305.469 0.
19.0563 456.576 0.
-2.32306 -243.73 0.
-339.567 -1029.72 0.
350.092 580.053 0.
-194.591 161.226 0.
-342.068 -179.829 0.
15.0451 114.487 0.
110.683 336.574 0.
89.0065 285.127 0.
-30.4876 98.133 0.
29.2076 236.136 0.
-297.52 -527.099 0.
144.997 -140.889 0.
232.764 60.6561 0.
120.422 -204.267 0.
77.0135 440.847 0.
259.079 868.381 0.
579.337 443.69 0.
145.03 -95.9085 0.
-357.274 -1258.64 0.
-160.396 -531.908 0.
696.738 1474.12 0.
12.6695 -115.388 0.
401.678 554.64 0.
573.027 953.631 0.
46.1023 -276.123 0.
-67.8632 -900.081 0.
58.7681 -606.427 0.
40.9687 -649.945 0.
-1071.85 -1359.77 0.
-608.304 -279.328 0.
39.1422 -147.142 0.
-19.3847 -282.768 0.
-11.8332 -264.542 0.
-619.597 -488.007 0.
-248.432 378.226 0.
-299.669 258.848 0.
228.604 229.452 0.
135.878 11.2928 0.
-291.421 -986.805 0.
705.042 383.598 0.
362.886 -415.452 0.
338.102 390.638 0.
40.2219 219.54 0.
-6.87053 110.489 0.
-226.991 -48.3535 0.
-223.083 -40.3803 0.
-219.176 -32.4073 0.
180.695 139.211 0.
180.924 135.867 0.
181.153 132.523 0.
-289.521 -56.0562 0.
-281.684 -36.0525 0.
-273.849 -16.0498 0.
255.591 178.433 0.
229.665 125.711 0.
-5.92324 -11.0239 0.
7.25203 20.3362 0.
20.4268 51.6958 0.
18.2564 75.504 0.
25.3668 96.2986 0.
32.4771 117.093 0.
192.508 137.538 0.
137.355 3.92989 0.
82.2009 -129.678 0.
31.9484 -129.728 0.
66.56 -49.7505 0.
1266.5 530.004 0.
17.3421 -128.666 0.
-52.0356 -287.747 0.
-306.475 -478.164 0.
-254.195 -353.07 0.
-201.914 -227.976 0.
-228.849 -213.994 0.
-274.178 -312.029 0.
-319.506 -410.064 0.
-106.571 -273.191 0.
-47.9717 -135.81 0.
10.6279 1.57122 0.
-43.5081 70.8802 0.
0.181566 174.026 0.
-216.967 144.551 0.
-281.615 -7.89557 0.
-346.264 -160.342 0.
-273.187 -204.933 0.
-252.718 -161.606 0.
-232.248 -118.278 0.
-240.895 -61.148 0.
-198.777 36.9092 0.
-156.66 134.966 0.
419.051 465.761 0.
463.766 570.771 0.
-572.089 214.279 0.
-4.2025 314.246 0.
-80.3009 138.369 0.
-216.011 -56.4392 0.
-285.456 -218.857 0.
-354.901 -381.275 0.
-192.955 -355.21 0.
-150.337 -255.552 0.
-107.719 -155.896 0.
4.80808 -119.187 0.
-27.447 -194.131 0.
-59.7024 -269.075 0.
-310.605 -342.449 0.
-285.364 -282.561 0.
-267.455 -256.311 0.
-390.416 -542.262 0.
-513.377 -828.213 0.
-333.783 -771.812 0.
-118.299 -267.751 0.
97.1855 236.309 0.
149.167 378.022 0.
91.6807 240.552 0.
34.1944 103.081 0.
163.527 143.398 0.
168.848 155.099 0.
494.783 309.835 0.
152.97 76.7462 0.
109.972 -26.8515 0.
83.7392 -111.323 0.
71.8229 -141.437 0.
59.9064 -171.551 0.
199.316 -96.6757 0.
235.496 -11.8029 0.
271.676 73.07 0.
159.899 60.783 0.
167.914 79.8744 0.
175.93 98.9661 0.
-440.033 -261.586 0.
-497.785 -396.353 0.
-304.874 -394.218 0.
-218.806 -192.614 0.
-132.738 8.98956 0.
-220.645 76.7295 0.
-220.077 74.1889 0.
-219.509 71.648 0.
-139.588 34.9595 0.
-207.515 -122.867 0.
-275.441 -280.692 0.
379.565 -79.8615 0.
342.361 -165.919 0.
180.34 352.775 0.
-268.657 118.77 0.
-315.493 9.51249 0.
-267.917 -33.9866 0.
-263.608 -25.4691 0.
-259.3 -16.952 0.
400.188 264.25 0.
400.779 261.335 0.
401.37 258.421 0.
-661.501 -184.688 0.
-653.655 -164.665 0.
-645.809 -144.643 0.
133.542 156.191 0.
107.669 103.443 0.
97.5569 66.6238 0.
111.375 97.5235 0.
125.193 128.422 0.
257.917 207.959 0.
264.818 229.122 0.
271.719 250.284 0.
-77.2167 54.7273 0.
-131.891 -78.8184 0.
-186.565 -212.364 0.
366.698 44.849 0.
401.501 124.976 0.
-6.4068 14.4514 0.
-32.9343 -118.725 0.
-102.901 -277.639 0.
-199.837 -403.086 0.
-148.21 -277.625 0.
-96.5842 -152.164 0.
-405.88 -259.856 0.
-451.31 -357.569 0.
-496.74 -455.281 0.
140.693 -135.733 0.
200.132 0.614288 0.
259.572 136.962 0.
-273.866 6.00619 0.
-228.904 108.201 0.
144.318 331.171 0.
80.0085 178.499 0.
15.6978 25.827 0.
-640.147 -330.074 0.
-619.91 -286.972 0.
-599.672 -243.868 0.
-314.487 -62.0155 0.
-273.081 37.0542 0.
-231.676 136.123 0.
1017.07 753.079 0.
1061.83 858.609 0.
-1999.15 -365.513 0.
-313.634 214.136 0.
-389.485 38.6291 0.
-201.464 -18.3499 0.
-270.136 -181.202 0.
-338.809 -344.054 0.
-5.74799 -242.539 0.
37.8384 -143.245 0.
81.4249 -43.9506 0.
-35.458 -104.858 0.
-68.2119 -179.349 0.
-100.966 -253.841 0.
-170.84 -251.767 0.
-145.833 -191.646 0.
-399.889 -280.981 0.
-523.111 -566.578 0.
-646.333 -852.176 0.
-232.925 -697.418 0.
-17.3192 -193.39 0.
198.286 310.638 0.
-95.0085 305.144 0.
-152.693 167.453 0.
-210.377 29.7618 0.
443.237 296.005 0.
447.915 307.744 0.
893.948 512.902 0.
91.2088 80.4999 0.
47.6262 -23.3629 0.
185.085 -36.7497 0.
173.642 -67.5352 0.
162.198 -98.3211 0.
308.524 -17.8635 0.
344.615 67.1174 0.
380.706 152.098 0.
-50.3196 2.24691 0.
-42.6777 21.7554 0.
-35.0357 41.2642 0.
-224.857 -138.603 0.
-282.854 -273.153 0.
-583.913 -482.099 0.
-497.203 -280.625 0.
-410.492 -79.151 0.
-11.1624 197.715 0.
-9.82645 194.879 0.
-8.48957 192.043 0.
-475.68 -76.4369 0.
-543.387 -233.914 0.
-611.092 -391.39 0.
243.673 -108.739 0.
206.448 -193.584 0.
