# vtk DataFile Version 2.0
test grain
ASCII
DATASET UNSTRUCTURED_GRID
POINTS 5000 float
0.499956 0.00100047 0.
0.501957 0.00100045 0.
0.503958 0.00100049 0.
0.505959 0.00100049 0.
0.50796 0.00100031 0.
0.509961 0.00100013 0.
0.511962 0.00100002 0.
0.513964 0.00100001 0.
0.515966 0.001 0.
0.517968 0.00100003 0.
0.51997 0.00100008 0.
0.521971 0.00100012 0.
0.523972 0.0010001 0.
0.525973 0.00100006 0.
0.527974 0.00100003 0.
0.529975 0.00100006 0.
0.531976 0.0010001 0.
0.533976 0.00100011 0.
0.535978 0.00100006 0.
0.537979 0.00100002 0.
0.53998 0.001 0.
0.541981 0.00100001 0.
0.543982 0.00100002 0.
0.545983 0.00100009 0.
0.547984 0.00100019 0.
0.549985 0.00100029 0.
0.551985 0.00100029 0.
0.553986 0.0010003 0.
0.555986 0.0010003 0.
0.557987 0.00100024 0.
0.559987 0.00100019 0.
0.561988 0.00100018 0.
0.563989 0.00100022 0.
0.565991 0.00100027 0.
0.567992 0.00100028 0.
0.569993 0.00100027 0.
0.571994 0.00100025 0.
0.573994 0.00100021 0.
0.575994 0.00100016 0.
0.577994 0.00100014 0.
0.579995 0.00100033 0.
0.581996 0.00100051 0.
0.583996 0.00100065 0.
0.585996 0.00100068 0.
0.587996 0.00100071 0.
0.589997 0.00100058 0.
0.591997 0.00100034 0.
0.593997 0.00100009 0.
0.595998 0.00100007 0.
0.597999 0.00100012 0.
0.6 0.00100017 0.
0.602002 0.00100022 0.
0.604004 0.00100028 0.
0.606005 0.0010003 0.
0.608005 0.00100018 0.
0.610005 0.00100006 0.
0.612005 0.00100002 0.
0.614006 0.00100009 0.
0.616006 0.00100017 0.
0.618007 0.00100015 0.
0.620007 0.0010001 0.
0.622007 0.00100004 0.
0.624008 0.00100006 0.
0.626009 0.0010001 0.
0.62801 0.00100012 0.
0.63001 0.00100008 0.
0.632011 0.00100003 0.
0.634011 0.00100002 0.
0.636013 0.00100008 0.
0.638014 0.00100014 0.
0.640015 0.00100017 0.
0.642016 0.00100017 0.
0.644016 0.00100018 0.
0.646017 0.00100024 0.
0.648017 0.00100031 0.
0.650018 0.00100038 0.
0.652018 0.00100025 0.
0.654019 0.00100011 0.
0.65602 0.00100001 0.
0.658021 0.001 0.
0.660022 0.001 0.
0.662023 0.00100001 0.
0.664024 0.00100001 0.
0.666025 0.00100002 0.
0.668027 0.00100004 0.
0.670028 0.00100005 0.
0.67203 0.00100007 0.
0.674031 0.00100006 0.
0.676032 0.00100004 0.
0.678033 0.00100002 0.
0.680035 0.00100002 0.
0.682037 0.00100002 0.
0.684039 0.00100002 0.
0.68604 0.00100004 0.
0.68804 0.00100005 0.
0.690041 0.00100012 0.
0.692042 0.00100023 0.
0.694042 0.00100034 0.
0.696044 0.00100027 0.
0.698045 0.00100016 0.
0.499956 0.0030014 0.
0.501957 0.00300136 0.
0.503959 0.00300147 0.
0.50596 0.00300146 0.
0.50796 0.00300092 0.
0.509961 0.00300039 0.
0.511963 0.00300007 0.
0.513964 0.00300004 0.
0.515966 0.003 0.
0.517968 0.00300008 0.
0.519969 0.00300023 0.
0.521971 0.00300037 0.
0.523972 0.00300029 0.
0.525973 0.00300017 0.
0.527973 0.00300008 0.
0.529974 0.00300019 0.
0.531975 0.0030003 0.
0.533977 0.00300033 0.
0.535978 0.00300019 0.
0.537979 0.00300006 0.
0.53998 0.00300001 0.
0.541981 0.00300003 0.
0.543983 0.00300006 0.
0.545983 0.00300028 0.
0.547984 0.00300057 0.
0.549985 0.00300086 0.
0.551985 0.00300088 0.
0.553986 0.0030009 0.
0.555986 0.00300089 0.
0.557987 0.00300073 0.
0.559988 0.00300056 0.
0.561988 0.00300053 0.
0.56399 0.00300067 0.
0.565991 0.00300081 0.
0.567992 0.00300083 0.
0.569993 0.0030008 0.
0.571994 0.00300076 0.
0.573994 0.00300063 0.
0.575994 0.00300049 0.
0.577994 0.00300042 0.
0.579995 0.00300098 0.
0.581995 0.00300153 0.
0.583996 0.00300194 0.
0.585996 0.00300203 0.
0.587996 0.00300212 0.
0.589997 0.00300175 0.
0.591997 0.003001 0.
0.593998 0.00300026 0.
0.595999 0.00300021 0.
0.598 0.00300035 0.
0.6 0.0030005 0.
0.602002 0.00300067 0.
0.604003 0.00300084 0.
0.606005 0.00300089 0.
0.608005 0.00300053 0.
0.610005 0.00300017 0.
0.612005 0.00300007 0.
0.614006 0.00300028 0.
0.616006 0.0030005 0.
0.618007 0.00300045 0.
0.620007 0.00300029 0.
0.622007 0.00300012 0.
0.624008 0.00300019 0.
0.626008 0.00300029 0.
0.628009 0.00300036 0.
0.63001 0.00300023 0.
0.63201 0.00300009 0.
0.634011 0.00300006 0.
0.636012 0.00300023 0.
0.638013 0.00300041 0.
0.640014 0.0030005 0.
0.642014 0.00300052 0.
0.644015 0.00300053 0.
0.646016 0.00300071 0.
0.648016 0.00300093 0.
0.650017 0.00300114 0.
0.652018 0.00300074 0.
0.654019 0.00300033 0.
0.65602 0.00300002 0.
0.658021 0.00300001 0.
0.660022 0.00300001 0.
0.662023 0.00300002 0.
0.664024 0.00300004 0.
0.666026 0.00300007 0.
0.668027 0.00300011 0.
0.670028 0.00300016 0.
0.67203 0.00300022 0.
0.674031 0.00300017 0.
0.676032 0.00300011 0.
0.678033 0.00300006 0.
0.680035 0.00300006 0.
0.682036 0.00300006 0.
0.684038 0.00300007 0.
0.686039 0.00300011 0.
0.68804 0.00300015 0.
0.690041 0.00300036 0.
0.692041 0.00300069 0.
0.694042 0.00300102 0.
0.696043 0.00300082 0.
0.698045 0.00300049 0.
0.499957 0.00500231 0.
0.501958 0.00500226 0.
0.503959 0.00500245 0.
0.50596 0.00500243 0.
0.507961 0.00500154 0.
0.509962 0.00500065 0.
0.511963 0.00500012 0.
0.513964 0.00500006 0.
0.515966 0.005 0.
0.517967 0.00500014 0.
0.519969 0.00500038 0.
0.521971 0.00500062 0.
0.523972 0.00500048 0.
0.525972 0.00500029 0.
0.527973 0.00500013 0.
0.529974 0.00500032 0.
0.531975 0.0050005 0.
0.533977 0.00500056 0.
0.535978 0.00500032 0.
0.53798 0.00500009 0.
0.539981 0.00500001 0.
0.541982 0.00500005 0.
0.543983 0.00500009 0.
0.545984 0.00500047 0.
0.547984 0.00500095 0.
0.549984 0.00500143 0.
0.551985 0.00500147 0.
0.553986 0.00500151 0.
0.555986 0.00500148 0.
0.557987 0.00500121 0.
0.559988 0.00500093 0.
0.561989 0.00500088 0.
0.56399 0.00500111 0.
0.565991 0.00500134 0.
0.567992 0.00500139 0.
0.569993 0.00500133 0.
0.571995 0.00500127 0.
0.573995 0.00500105 0.
0.575995 0.00500081 0.
0.577994 0.0050007 0.
0.579995 0.00500162 0.
0.581995 0.00500255 0.
0.583995 0.00500323 0.
0.585995 0.00500338 0.
0.587996 0.00500353 0.
0.589997 0.00500291 0.
0.591998 0.00500167 0.
0.593998 0.00500043 0.
0.595999 0.00500035 0.
0.598 0.00500059 0.
0.6 0.00500083 0.
0.602002 0.00500111 0.
0.604003 0.00500139 0.
0.606004 0.00500148 0.
0.608005 0.00500088 0.
0.610005 0.00500028 0.
0.612005 0.00500011 0.
0.614006 0.00500047 0.
0.616006 0.00500083 0.
0.618007 0.00500076 0.
0.620007 0.00500048 0.
0.622008 0.0050002 0.
0.624008 0.00500031 0.
0.626008 0.00500048 0.
0.628008 0.0050006 0.
0.630009 0.00500037 0.
0.63201 0.00500015 0.
0.634011 0.0050001 0.
0.636011 0.00500039 0.
0.638012 0.00500068 0.
0.640013 0.00500083 0.
0.642013 0.00500086 0.
0.644014 0.00500089 0.
0.646015 0.00500118 0.
0.648015 0.00500155 0.
0.650016 0.00500191 0.
0.652017 0.00500123 0.
0.654018 0.00500055 0.
0.656019 0.00500003 0.
0.65802 0.00500002 0.
0.660022 0.00500001 0.
0.662023 0.00500002 0.
0.664025 0.00500007 0.
0.666026 0.00500011 0.
0.668028 0.00500018 0.
0.670029 0.00500027 0.
0.67203 0.00500036 0.
0.674031 0.00500028 0.
0.676032 0.00500018 0.
0.678033 0.00500011 0.
0.680034 0.0050001 0.
0.682036 0.0050001 0.
0.684037 0.00500012 0.
0.686038 0.00500019 0.
0.68804 0.00500026 0.
0.690041 0.0050006 0.
0.692041 0.00500115 0.
0.694042 0.0050017 0.
0.696043 0.00500137 0.
0.698044 0.00500082 0.
0.499958 0.00700427 0.
0.501959 0.00700425 0.
0.50396 0.00700424 0.
0.505961 0.0070041 0.
0.507962 0.00700339 0.
0.509963 0.00700268 0.
0.511964 0.00700238 0.
0.513965 0.00700264 0.
0.515966 0.0070029 0.
0.517967 0.00700308 0.
0.519969 0.00700322 0.
0.52197 0.00700335 0.
0.523971 0.0070033 0.
0.525972 0.00700321 0.
0.527974 0.00700316 0.
0.529975 0.00700337 0.
0.531976 0.00700358 0.
0.533978 0.00700369 0.
0.535979 0.00700359 0.
0.53798 0.00700349 0.
0.539981 0.00700346 0.
0.541982 0.00700347 0.
0.543983 0.00700349 0.
0.545983 0.0070037 0.
0.547984 0.00700397 0.
0.549984 0.00700424 0.
0.551985 0.00700438 0.
0.553986 0.00700453 0.
0.555987 0.00700469 0.
0.557988 0.00700489 0.
0.559989 0.00700509 0.
0.56199 0.00700516 0.
0.563991 0.00700508 0.
0.565991 0.00700499 0.
0.567992 0.00700511 0.
0.569994 0.00700535 0.
0.571995 0.00700558 0.
0.573995 0.00700557 0.
0.575995 0.00700552 0.
0.577995 0.00700553 0.
0.579995 0.00700597 0.
0.581995 0.0070064 0.
0.583996 0.00700674 0.
0.585996 0.00700688 0.
0.587997 0.00700702 0.
0.589998 0.00700662 0.
0.591998 0.0070058 0.
0.593999 0.00700497 0.
0.595999 0.00700495 0.
0.598 0.00700515 0.
0.6 0.00700536 0.
0.602002 0.00700538 0.
0.604003 0.0070054 0.
0.606004 0.00700531 0.
0.608004 0.00700483 0.
0.610005 0.00700435 0.
0.612005 0.00700423 0.
0.614005 0.00700454 0.
0.616006 0.00700485 0.
0.618006 0.00700469 0.
0.620007 0.0070043 0.
0.622007 0.00700392 0.
0.624008 0.00700402 0.
0.626008 0.00700418 0.
0.628009 0.00700434 0.
0.63001 0.00700448 0.
0.63201 0.00700463 0.
0.634011 0.00700473 0.
0.636012 0.00700477 0.
0.638012 0.00700481 0.
0.640012 0.00700486 0.
0.642013 0.00700491 0.
0.644013 0.00700495 0.
0.646014 0.00700478 0.
0.648015 0.00700456 0.
0.650016 0.00700435 0.
0.652017 0.00700389 0.
0.654018 0.00700343 0.
0.65602 0.00700307 0.
0.658021 0.00700302 0.
0.660022 0.00700298 0.
0.662023 0.00700297 0.
0.664024 0.00700299 0.
0.666026 0.00700301 0.
0.668027 0.00700304 0.
0.670028 0.00700308 0.
0.672029 0.00700312 0.
0.67403 0.00700291 0.
0.676032 0.00700268 0.
0.678033 0.00700245 0.
0.680034 0.00700232 0.
0.682035 0.00700218 0.
0.684037 0.00700212 0.
0.686038 0.00700221 0.
0.688039 0.00700229 0.
0.69004 0.00700253 0.
0.692041 0.00700289 0.
0.694042 0.00700325 0.
0.696043 0.00700307 0.
0.698044 0.00700277 0.
0.499958 0.00900627 0.
0.50196 0.00900623 0.
0.503961 0.00900604 0.
0.505962 0.00900578 0.
0.507963 0.00900524 0.
0.509963 0.0090047 0.
0.511964 0.00900464 0.
0.513965 0.00900522 0.
0.515966 0.0090058 0.
0.517967 0.00900602 0.
0.519968 0.00900605 0.
0.52197 0.00900608 0.
0.523971 0.00900611 0.
0.525973 0.00900614 0.
0.527974 0.0090062 0.
0.529976 0.00900643 0.
0.531977 0.00900666 0.
0.533978 0.00900682 0.
0.535979 0.00900686 0.
0.53798 0.00900689 0.
0.539981 0.00900691 0.
0.541981 0.0090069 0.
0.543982 0.00900689 0.
0.545983 0.00900693 0.
0.547983 0.00900699 0.
0.549984 0.00900704 0.
0.551985 0.0090073 0.
0.553987 0.00900756 0.
0.555988 0.0090079 0.
0.557989 0.00900857 0.
0.55999 0.00900924 0.
0.56199 0.00900944 0.
0.563991 0.00900904 0.
0.565992 0.00900864 0.
0.567993 0.00900884 0.
0.569994 0.00900936 0.
0.571995 0.00900988 0.
0.573995 0.00901008 0.
0.575995 0.00901023 0.
0.577995 0.00901037 0.
0.579996 0.00901031 0.
0.581996 0.00901026 0.
0.583997 0.00901026 0.
0.585998 0.00901038 0.
0.587998 0.00901051 0.
0.589999 0.00901033 0.
0.591999 0.00900992 0.
0.593999 0.0090095 0.
0.596 0.00900955 0.
0.598 0.00900972 0.
0.6 0.00900989 0.
0.602002 0.00900965 0.
0.604003 0.0090094 0.
0.606004 0.00900914 0.
0.608004 0.00900879 0.
0.610005 0.00900843 0.
0.612005 0.00900835 0.
0.614005 0.00900861 0.
0.616006 0.00900887 0.
0.618006 0.00900862 0.
0.620006 0.00900813 0.
0.622007 0.00900763 0.
0.624008 0.00900772 0.
0.626009 0.00900788 0.
0.628009 0.00900808 0.
0.63001 0.00900859 0.
0.632011 0.00900911 0.
0.634011 0.00900937 0.
0.636012 0.00900915 0.
0.638012 0.00900894 0.
0.640012 0.00900889 0.
0.642012 0.00900895 0.
0.644012 0.00900901 0.
0.646014 0.00900839 0.
0.648015 0.00900758 0.
0.650016 0.00900678 0.
0.652018 0.00900655 0.
0.654019 0.00900631 0.
0.65602 0.0090061 0.
0.658021 0.00900603 0.
0.660022 0.00900596 0.
0.662023 0.00900592 0.
0.664024 0.00900591 0.
0.666025 0.00900591 0.
0.668026 0.0090059 0.
0.670027 0.00900589 0.
0.672029 0.00900588 0.
0.67403 0.00900555 0.
0.676031 0.00900517 0.
0.678033 0.0090048 0.
0.680034 0.00900453 0.
0.682035 0.00900426 0.
0.684036 0.00900413 0.
0.686038 0.00900423 0.
0.688039 0.00900433 0.
0.69004 0.00900446 0.
0.692041 0.00900463 0.
0.694041 0.00900479 0.
0.696042 0.00900478 0.
0.698043 0.00900473 0.
0.499959 0.0110075 0.
0.501961 0.0110073 0.
0.503962 0.011007 0.
0.505963 0.0110067 0.
0.507963 0.0110063 0.
0.509964 0.0110059 0.
0.511965 0.0110059 0.
0.513966 0.0110065 0.
0.515967 0.0110072 0.
0.517968 0.0110074 0.
0.519969 0.0110074 0.
0.52197 0.0110074 0.
0.523971 0.0110074 0.
0.525973 0.0110075 0.
0.527974 0.0110076 0.
0.529976 0.0110078 0.
0.531978 0.011008 0.
0.533979 0.0110082 0.
0.53598 0.0110084 0.
0.53798 0.0110086 0.
0.539981 0.0110087 0.
0.541982 0.0110087 0.
0.543982 0.0110087 0.
0.545983 0.0110086 0.
0.547984 0.0110085 0.
0.549984 0.0110085 0.
0.551986 0.011009 0.
0.553988 0.0110095 0.
0.555989 0.0110101 0.
0.55799 0.0110108 0.
0.55999 0.0110116 0.
0.561991 0.0110118 0.
0.563992 0.0110114 0.
0.565992 0.011011 0.
0.567993 0.0110111 0.
0.569994 0.0110114 0.
0.571995 0.0110118 0.
0.573995 0.0110122 0.
0.575995 0.0110126 0.
0.577996 0.0110129 0.
0.579996 0.0110127 0.
0.581997 0.0110125 0.
0.583997 0.0110124 0.
0.585998 0.0110124 0.
0.587999 0.0110124 0.
0.589999 0.0110124 0.
0.592 0.0110124 0.
0.594 0.0110123 0.
0.596 0.0110123 0.
0.598 0.0110123 0.
0.600001 0.0110123 0.
0.602002 0.0110121 0.
0.604003 0.0110118 0.
0.606003 0.0110115 0.
0.608004 0.0110111 0.
0.610004 0.0110107 0.
0.612005 0.0110106 0.
0.614005 0.0110109 0.
0.616005 0.0110112 0.
0.618006 0.0110108 0.
0.620006 0.0110103 0.
0.622006 0.0110097 0.
0.624007 0.0110098 0.
0.626008 0.01101 0.
0.628009 0.0110102 0.
0.63001 0.0110109 0.
0.63201 0.0110116 0.
0.634011 0.0110119 0.
0.636011 0.0110115 0.
0.638012 0.0110112 0.
0.640012 0.011011 0.
0.642012 0.011011 0.
0.644012 0.011011 0.
0.646013 0.0110102 0.
0.648015 0.0110091 0.
0.650016 0.011008 0.
0.652018 0.0110079 0.
0.654019 0.0110078 0.
0.65602 0.0110077 0.
0.658021 0.0110076 0.
0.660022 0.0110076 0.
0.662023 0.0110075 0.
0.664024 0.0110074 0.
0.666025 0.0110073 0.
0.668026 0.0110072 0.
0.670027 0.0110071 0.
0.672028 0.011007 0.
0.67403 0.0110067 0.
0.676031 0.0110063 0.
0.678033 0.0110059 0.
0.680034 0.0110058 0.
0.682035 0.0110056 0.
0.684036 0.0110055 0.
0.686037 0.0110054 0.
0.688038 0.0110053 0.
0.690039 0.0110054 0.
0.69204 0.0110055 0.
0.694041 0.0110057 0.
0.696042 0.0110058 0.
0.698042 0.011006 0.
0.499961 0.0130079 0.
0.501961 0.0130074 0.
0.503962 0.0130071 0.
0.505963 0.0130068 0.
0.507964 0.0130065 0.
0.509965 0.0130062 0.
0.511966 0.0130062 0.
0.513967 0.0130066 0.
0.515968 0.013007 0.
0.517969 0.0130072 0.
0.51997 0.0130072 0.
0.521971 0.0130072 0.
0.523972 0.0130072 0.
0.525973 0.0130072 0.
0.527974 0.0130073 0.
0.529976 0.0130075 0.
0.531977 0.0130077 0.
0.533979 0.013008 0.
0.53598 0.0130083 0.
0.537981 0.0130087 0.
0.539982 0.0130089 0.
0.541983 0.0130089 0.
0.543984 0.0130089 0.
0.545984 0.0130088 0.
0.547985 0.0130086 0.
0.549986 0.0130085 0.
0.551987 0.0130094 0.
0.553988 0.0130103 0.
0.555989 0.0130111 0.
0.55799 0.0130116 0.
0.559991 0.0130121 0.
0.561991 0.0130123 0.
0.563992 0.0130121 0.
0.565993 0.0130119 0.
0.567993 0.0130118 0.
0.569994 0.0130115 0.
0.571995 0.0130113 0.
0.573995 0.0130119 0.
0.575996 0.0130126 0.
0.577996 0.0130132 0.
0.579996 0.0130132 0.
0.581997 0.0130131 0.
0.583998 0.0130131 0.
0.585998 0.0130129 0.
0.587999 0.0130127 0.
0.59 0.0130128 0.
0.592 0.0130131 0.
0.594 0.0130134 0.
0.596001 0.0130132 0.
0.598001 0.013013 0.
0.600002 0.0130127 0.
0.602002 0.0130126 0.
0.604002 0.0130125 0.
0.606003 0.0130123 0.
0.608003 0.0130118 0.
0.610004 0.0130112 0.
0.612004 0.0130111 0.
0.614004 0.0130114 0.
0.616005 0.0130117 0.
0.618005 0.0130114 0.
0.620005 0.0130107 0.
0.622006 0.0130101 0.
0.624007 0.0130102 0.
0.626008 0.0130104 0.
0.628009 0.0130107 0.
0.630009 0.0130114 0.
0.632009 0.013012 0.
0.63401 0.0130123 0.
0.636011 0.0130119 0.
0.638011 0.0130115 0.
0.640012 0.0130113 0.
0.642012 0.0130112 0.
0.644012 0.0130111 0.
0.646013 0.0130101 0.
0.648014 0.013009 0.
0.650016 0.0130079 0.
0.652017 0.0130079 0.
0.654018 0.0130078 0.
0.656019 0.0130078 0.
0.65802 0.0130079 0.
0.660022 0.0130079 0.
0.662023 0.0130079 0.
0.664023 0.0130076 0.
0.666024 0.0130073 0.
0.668025 0.0130071 0.
0.670026 0.0130068 0.
0.672028 0.0130065 0.
0.67403 0.0130063 0.
0.676032 0.013006 0.
0.678033 0.0130058 0.
0.680034 0.013006 0.
0.682035 0.0130062 0.
0.684035 0.0130061 0.
0.686037 0.0130057 0.
0.688038 0.0130053 0.
0.690039 0.0130052 0.
0.692039 0.0130056 0.
0.69404 0.0130059 0.
0.696041 0.0130063 0.
0.698042 0.0130067 0.
0.499962 0.0150083 0.
0.501962 0.0150076 0.
0.503962 0.0150073 0.
0.505963 0.0150069 0.
0.507965 0.0150067 0.
0.509966 0.0150065 0.
0.511968 0.0150064 0.
0.513969 0.0150067 0.
0.51597 0.0150069 0.
0.517971 0.015007 0.
0.519971 0.015007 0.
0.521972 0.0150071 0.
0.523973 0.015007 0.
0.525973 0.015007 0.
0.527974 0.015007 0.
0.529976 0.0150072 0.
0.531977 0.0150074 0.
0.533979 0.0150077 0.
0.53598 0.0150082 0.
0.537982 0.0150087 0.
0.539983 0.015009 0.
0.541984 0.015009 0.
0.543985 0.015009 0.
0.545986 0.0150089 0.
0.547986 0.0150087 0.
0.549987 0.0150086 0.
0.551988 0.0150099 0.
0.553988 0.0150112 0.
0.555989 0.0150122 0.
0.55799 0.0150124 0.
0.559991 0.0150126 0.
0.561992 0.0150128 0.
0.563992 0.0150128 0.
0.565993 0.0150129 0.
0.567993 0.0150124 0.
0.569994 0.0150117 0.
0.571995 0.0150109 0.
0.573996 0.0150117 0.
0.575996 0.0150126 0.
0.577996 0.0150135 0.
0.579997 0.0150137 0.
0.581997 0.0150138 0.
0.583998 0.0150138 0.
0.585999 0.0150134 0.
0.587999 0.0150131 0.
0.59 0.0150133 0.
0.592 0.0150138 0.
0.594001 0.0150144 0.
0.596001 0.0150142 0.
0.598002 0.0150136 0.
0.600002 0.0150131 0.
0.602002 0.0150131 0.
0.604002 0.0150132 0.
0.606002 0.0150131 0.
0.608003 0.0150124 0.
0.610003 0.0150118 0.
0.612004 0.0150115 0.
0.614004 0.0150119 0.
0.616004 0.0150122 0.
0.618004 0.0150119 0.
0.620005 0.0150112 0.
0.622005 0.0150105 0.
0.624006 0.0150106 0.
0.626007 0.0150109 0.
0.628008 0.0150112 0.
0.630008 0.0150118 0.
0.632008 0.0150124 0.
0.634009 0.0150126 0.
0.63601 0.0150122 0.
0.638011 0.0150119 0.
0.640011 0.0150115 0.
0.642012 0.0150113 0.
0.644012 0.0150111 0.
0.646013 0.0150101 0.
0.648014 0.015009 0.
0.650015 0.0150078 0.
0.652016 0.0150078 0.
0.654017 0.0150078 0.
0.656018 0.0150079 0.
0.65802 0.0150081 0.
0.660021 0.0150083 0.
0.662022 0.0150082 0.
0.664023 0.0150077 0.
0.666023 0.0150073 0.
0.668024 0.0150069 0.
0.670026 0.0150065 0.
0.672028 0.0150061 0.
0.67403 0.0150059 0.
0.676032 0.0150058 0.
0.678034 0.0150057 0.
0.680034 0.0150062 0.
0.682034 0.0150068 0.
0.684035 0.0150068 0.
0.686036 0.015006 0.
0.688037 0.0150052 0.
0.690038 0.0150051 0.
0.692039 0.0150056 0.
0.69404 0.0150061 0.
0.69604 0.0150067 0.
0.698041 0.0150073 0.
0.499963 0.0170091 0.
0.501963 0.0170086 0.
0.503964 0.0170084 0.
0.505964 0.0170081 0.
0.507966 0.0170076 0.
0.509967 0.017007 0.
0.511968 0.0170068 0.
0.513969 0.017007 0.
0.515971 0.0170071 0.
0.517971 0.0170073 0.
0.519972 0.0170074 0.
0.521973 0.0170075 0.
0.523974 0.0170075 0.
0.525974 0.0170075 0.
0.527975 0.0170074 0.
0.529977 0.0170078 0.
0.531978 0.0170081 0.
0.533979 0.0170084 0.
0.535981 0.0170086 0.
0.537982 0.0170088 0.
0.539983 0.017009 0.
0.541984 0.0170093 0.
0.543985 0.0170096 0.
0.545986 0.0170096 0.
0.547987 0.0170096 0.
0.549988 0.0170095 0.
0.551988 0.0170105 0.
0.553989 0.0170116 0.
0.555989 0.0170124 0.
0.55799 0.0170125 0.
0.559991 0.0170127 0.
0.561992 0.017013 0.
0.563993 0.0170136 0.
0.565993 0.0170142 0.
0.567994 0.0170139 0.
0.569994 0.0170132 0.
0.571995 0.0170125 0.
0.573995 0.0170131 0.
0.575995 0.0170138 0.
0.577996 0.0170144 0.
0.579996 0.0170146 0.
0.581997 0.0170147 0.
0.583998 0.0170147 0.
0.585998 0.0170142 0.
0.587999 0.0170136 0.
0.59 0.0170137 0.
0.592 0.0170142 0.
0.594001 0.0170148 0.
0.596001 0.0170147 0.
0.598001 0.0170144 0.
0.600002 0.0170141 0.
0.602002 0.0170142 0.
0.604002 0.0170143 0.
0.606002 0.0170142 0.
0.608003 0.0170136 0.
0.610004 0.017013 0.
0.612004 0.0170126 0.
0.614004 0.0170125 0.
0.616004 0.0170124 0.
0.618005 0.0170121 0.
0.620005 0.0170119 0.
0.622005 0.0170116 0.
0.624006 0.0170118 0.
0.626006 0.017012 0.
0.628007 0.0170122 0.
0.630008 0.0170124 0.
0.632008 0.0170125 0.
0.634009 0.0170125 0.
0.63601 0.0170124 0.
0.638011 0.0170122 0.
0.640011 0.0170121 0.
0.642012 0.0170122 0.
0.644012 0.0170122 0.
0.646013 0.0170112 0.
0.648014 0.0170098 0.
0.650015 0.0170084 0.
0.652016 0.0170084 0.
0.654017 0.0170083 0.
0.656018 0.0170083 0.
0.658019 0.0170084 0.
0.66002 0.0170086 0.
0.662021 0.0170085 0.
0.664022 0.017008 0.
0.666023 0.0170075 0.
0.668024 0.0170073 0.
0.670026 0.0170072 0.
0.672027 0.0170071 0.
0.674029 0.0170066 0.
0.676031 0.0170062 0.
0.678032 0.0170058 0.
0.680033 0.0170062 0.
0.682033 0.0170066 0.
0.684034 0.0170067 0.
0.686035 0.0170061 0.
0.688036 0.0170056 0.
0.690037 0.0170056 0.
0.692038 0.0170062 0.
0.694039 0.0170067 0.
0.69604 0.0170074 0.
0.698041 0.0170082 0.
0.499963 0.0190099 0.
0.501964 0.0190095 0.
0.503965 0.0190095 0.
0.505966 0.0190093 0.
0.507967 0.0190084 0.
0.509968 0.0190075 0.
0.511969 0.0190071 0.
0.51397 0.0190073 0.
0.515971 0.0190074 0.
0.517972 0.0190076 0.
0.519973 0.0190078 0.
0.521974 0.019008 0.
0.523975 0.019008 0.
0.525975 0.0190079 0.
0.527976 0.0190079 0.
0.529977 0.0190084 0.
0.531979 0.0190088 0.
0.53398 0.0190091 0.
0.535981 0.0190089 0.
0.537982 0.0190088 0.
0.539983 0.019009 0.
0.541984 0.0190096 0.
0.543985 0.0190102 0.
0.545986 0.0190104 0.
0.547987 0.0190104 0.
0.549989 0.0190104 0.
0.551989 0.0190112 0.
0.553989 0.0190119 0.
0.55599 0.0190125 0.
0.557991 0.0190127 0.
0.559992 0.0190128 0.
0.561992 0.0190133 0.
0.563993 0.0190144 0.
0.565993 0.0190154 0.
0.567994 0.0190154 0.
0.569994 0.0190148 0.
0.571994 0.0190142 0.
0.573994 0.0190145 0.
0.575995 0.019015 0.
0.577995 0.0190154 0.
0.579996 0.0190155 0.
0.581997 0.0190157 0.
0.583997 0.0190156 0.
0.585998 0.0190149 0.
0.587999 0.0190142 0.
0.59 0.0190142 0.
0.592 0.0190146 0.
0.594001 0.0190151 0.
0.596001 0.0190152 0.
0.598001 0.0190152 0.
0.600001 0.0190152 0.
0.602002 0.0190153 0.
0.604002 0.0190154 0.
0.606003 0.0190154 0.
0.608003 0.0190148 0.
0.610004 0.0190143 0.
0.612004 0.0190137 0.
0.614004 0.0190131 0.
0.616004 0.0190125 0.
0.618005 0.0190124 0.
0.620005 0.0190126 0.
0.622006 0.0190128 0.
0.624006 0.0190129 0.
0.626006 0.0190131 0.
0.628006 0.0190132 0.
0.630007 0.0190129 0.
0.632008 0.0190126 0.
0.63401 0.0190124 0.
0.63601 0.0190125 0.
0.63801 0.0190125 0.
0.640011 0.0190127 0.
0.642012 0.019013 0.
0.644012 0.0190134 0.
0.646013 0.0190122 0.
0.648014 0.0190106 0.
0.650015 0.019009 0.
0.652016 0.0190089 0.
0.654017 0.0190088 0.
0.656017 0.0190087 0.
0.658018 0.0190088 0.
0.660019 0.0190089 0.
0.66202 0.0190088 0.
0.664021 0.0190083 0.
0.666023 0.0190078 0.
0.668024 0.0190077 0.
0.670026 0.0190079 0.
0.672027 0.0190081 0.
0.674028 0.0190074 0.
0.676029 0.0190066 0.
0.67803 0.0190059 0.
0.680031 0.0190062 0.
0.682032 0.0190065 0.
0.684033 0.0190066 0.
0.686034 0.0190062 0.
0.688035 0.0190059 0.
0.690036 0.0190061 0.
0.692038 0.0190068 0.
0.694039 0.0190074 0.
0.69604 0.0190082 0.
0.69804 0.019009 0.
0.499964 0.0210106 0.
0.501965 0.0210103 0.
0.503966 0.0210103 0.
0.505967 0.02101 0.
0.507968 0.021009 0.
0.509969 0.0210079 0.
0.51197 0.0210074 0.
0.513971 0.0210074 0.
0.515972 0.0210074 0.
0.517973 0.0210076 0.
0.519974 0.0210078 0.
0.521975 0.021008 0.
0.523976 0.0210081 0.
0.525977 0.0210082 0.
0.527977 0.0210083 0.
0.529978 0.0210087 0.
0.531979 0.0210092 0.
0.533981 0.0210094 0.
0.535982 0.0210091 0.
0.537983 0.0210088 0.
0.539984 0.021009 0.
0.541985 0.0210097 0.
0.543986 0.0210103 0.
0.545987 0.0210107 0.
0.547988 0.0210109 0.
0.549989 0.0210111 0.
0.551989 0.0210116 0.
0.553989 0.0210121 0.
0.55599 0.0210125 0.
0.557991 0.0210127 0.
0.559991 0.0210129 0.
0.561992 0.0210136 0.
0.563993 0.0210148 0.
0.565993 0.021016 0.
0.567994 0.0210161 0.
0.569994 0.0210157 0.
0.571994 0.0210152 0.
0.573994 0.0210154 0.
0.575995 0.0210158 0.
0.577995 0.0210161 0.
0.579996 0.0210161 0.
0.581996 0.0210161 0.
0.583997 0.0210159 0.
0.585998 0.0210153 0.
0.587999 0.0210147 0.
0.589999 0.0210147 0.
0.592 0.021015 0.
0.594 0.0210154 0.
0.596001 0.0210156 0.
0.598001 0.0210156 0.
0.600001 0.0210157 0.
0.602002 0.0210159 0.
0.604002 0.0210162 0.
0.606003 0.0210162 0.
0.608004 0.0210157 0.
0.610004 0.0210151 0.
0.612004 0.0210144 0.
0.614004 0.0210136 0.
0.616004 0.0210127 0.
0.618005 0.0210127 0.
0.620005 0.0210131 0.
0.622006 0.0210135 0.
0.624006 0.0210136 0.
0.626005 0.0210137 0.
0.628005 0.0210137 0.
0.630007 0.0210132 0.
0.632008 0.0210127 0.
0.634009 0.0210124 0.
0.63601 0.0210126 0.
0.63801 0.0210129 0.
0.640011 0.0210132 0.
0.642011 0.0210135 0.
0.644012 0.0210138 0.
0.646013 0.0210126 0.
0.648014 0.021011 0.
0.650015 0.0210093 0.
0.652015 0.0210091 0.
0.654016 0.0210089 0.
0.656017 0.0210087 0.
0.658017 0.0210087 0.
0.660018 0.0210088 0.
0.662019 0.0210086 0.
0.664021 0.0210082 0.
0.666022 0.0210078 0.
0.668023 0.0210079 0.
0.670025 0.0210082 0.
0.672026 0.0210084 0.
0.674027 0.0210077 0.
0.676028 0.0210069 0.
0.678029 0.0210062 0.
0.68003 0.0210063 0.
0.682031 0.0210065 0.
0.684033 0.0210065 0.
0.686034 0.0210063 0.
0.688035 0.0210062 0.
0.690036 0.0210065 0.
0.692037 0.0210071 0.
0.694038 0.0210078 0.
0.696039 0.0210089 0.
0.698039 0.0210101 0.
0.499965 0.0230113 0.
0.501966 0.0230108 0.
0.503967 0.0230106 0.
0.505968 0.0230102 0.
0.507969 0.0230092 0.
0.509969 0.0230083 0.
0.51197 0.0230076 0.
0.513972 0.0230074 0.
0.515973 0.0230072 0.
0.517974 0.0230072 0.
0.519975 0.0230074 0.
0.521976 0.0230076 0.
0.523977 0.0230079 0.
0.525978 0.0230082 0.
0.527979 0.0230085 0.
0.52998 0.0230089 0.
0.531981 0.0230092 0.
0.533981 0.0230094 0.
0.535983 0.0230091 0.
0.537984 0.0230089 0.
0.539985 0.0230091 0.
0.541985 0.0230095 0.
0.543986 0.02301 0.
0.545987 0.0230106 0.
0.547988 0.0230111 0.
0.549989 0.0230117 0.
0.551989 0.0230118 0.
0.553989 0.0230119 0.
0.55599 0.0230121 0.
0.55799 0.0230126 0.
0.559991 0.023013 0.
0.561992 0.0230138 0.
0.563992 0.0230149 0.
0.565993 0.023016 0.
0.567994 0.0230162 0.
0.569994 0.0230159 0.
0.571995 0.0230156 0.
0.573995 0.0230159 0.
0.575995 0.0230162 0.
0.577995 0.0230165 0.
0.579996 0.0230163 0.
0.581996 0.0230161 0.
0.583997 0.0230158 0.
0.585998 0.0230155 0.
0.587998 0.0230151 0.
0.589999 0.0230152 0.
0.591999 0.0230155 0.
0.594 0.0230158 0.
0.596 0.0230158 0.
0.598 0.0230157 0.
0.600001 0.0230157 0.
0.602002 0.0230161 0.
0.604002 0.0230165 0.
0.606003 0.0230167 0.
0.608004 0.0230161 0.
0.610004 0.0230155 0.
0.612004 0.0230148 0.
0.614004 0.0230139 0.
0.616004 0.0230131 0.
0.618005 0.023013 0.
0.620006 0.0230134 0.
0.622007 0.0230137 0.
0.624006 0.0230137 0.
0.626006 0.0230137 0.
0.628006 0.0230137 0.
0.630007 0.0230132 0.
0.632007 0.0230127 0.
0.634008 0.0230125 0.
0.636008 0.0230129 0.
0.638009 0.0230133 0.
0.64001 0.0230135 0.
0.64201 0.0230135 0.
0.644011 0.0230135 0.
0.646012 0.0230123 0.
0.648013 0.0230108 0.
0.650014 0.0230093 0.
0.652014 0.023009 0.
0.654015 0.0230087 0.
0.656016 0.0230084 0.
0.658017 0.0230082 0.
0.660017 0.0230081 0.
0.662019 0.0230079 0.
0.66402 0.0230078 0.
0.666021 0.0230077 0.
0.668022 0.0230078 0.
0.670024 0.023008 0.
0.672025 0.0230081 0.
0.674026 0.0230077 0.
0.676027 0.0230072 0.
0.678028 0.0230067 0.
0.68003 0.0230066 0.
0.682031 0.0230066 0.
0.684032 0.0230066 0.
0.686033 0.0230064 0.
0.688035 0.0230063 0.
0.690036 0.0230066 0.
0.692037 0.0230072 0.
0.694037 0.0230078 0.
0.696038 0.0230095 0.
0.698039 0.0230115 0.
0.499967 0.0250119 0.
0.501968 0.0250114 0.
0.503968 0.025011 0.
0.505969 0.0250104 0.
0.507969 0.0250095 0.
0.50997 0.0250086 0.
0.511971 0.0250078 0.
0.513973 0.0250074 0.
0.515974 0.0250069 0.
0.517975 0.0250069 0.
0.519976 0.025007 0.
0.521977 0.0250071 0.
0.523978 0.0250077 0.
0.525979 0.0250083 0.
0.52798 0.0250088 0.
0.529981 0.025009 0.
0.531982 0.0250092 0.
0.533982 0.0250093 0.
0.535983 0.0250091 0.
0.537984 0.025009 0.
0.539985 0.0250091 0.
0.541986 0.0250094 0.
0.543987 0.0250097 0.
0.545988 0.0250104 0.
0.547988 0.0250113 0.
0.549988 0.0250122 0.
0.551989 0.025012 0.
0.553989 0.0250118 0.
0.55599 0.0250118 0.
0.55799 0.0250125 0.
0.55999 0.0250132 0.
0.561991 0.025014 0.
0.563992 0.0250149 0.
0.565993 0.0250159 0.
0.567994 0.0250162 0.
0.569994 0.0250161 0.
0.571995 0.0250159 0.
0.573995 0.0250163 0.
0.575995 0.0250167 0.
0.577996 0.0250169 0.
0.579996 0.0250165 0.
0.581996 0.025016 0.
0.583997 0.0250156 0.
0.585997 0.0250156 0.
0.587998 0.0250156 0.
0.589998 0.0250157 0.
0.591999 0.0250159 0.
0.593999 0.0250161 0.
0.595999 0.025016 0.
0.598 0.0250159 0.
0.6 0.0250157 0.
0.602001 0.0250163 0.
0.604002 0.0250169 0.
0.606003 0.0250172 0.
0.608004 0.0250166 0.
0.610004 0.0250159 0.
0.612004 0.0250151 0.
0.614004 0.0250143 0.
0.616004 0.0250135 0.
0.618005 0.0250134 0.
0.620006 0.0250136 0.
0.622007 0.0250139 0.
0.624007 0.0250139 0.
0.626007 0.0250138 0.
0.628007 0.0250136 0.
0.630006 0.0250132 0.
0.632006 0.0250127 0.
0.634006 0.0250125 0.
0.636007 0.0250131 0.
0.638008 0.0250137 0.
0.640009 0.0250138 0.
0.64201 0.0250135 0.
0.64401 0.0250132 0.
0.646011 0.0250121 0.
0.648012 0.0250107 0.
0.650013 0.0250094 0.
0.652013 0.0250089 0.
0.654014 0.0250085 0.
0.656015 0.025008 0.
0.658016 0.0250077 0.
0.660017 0.0250074 0.
0.662018 0.0250073 0.
0.664019 0.0250075 0.
0.666021 0.0250076 0.
0.668021 0.0250077 0.
0.670022 0.0250078 0.
0.672023 0.0250078 0.
0.674025 0.0250076 0.
0.676026 0.0250074 0.
0.678028 0.0250071 0.
0.680029 0.0250069 0.
0.68203 0.0250068 0.
0.684031 0.0250066 0.
0.686033 0.0250065 0.
0.688035 0.0250065 0.
0.690036 0.0250067 0.
0.692036 0.0250073 0.
0.694036 0.0250079 0.
0.696037 0.0250101 0.
0.698038 0.0250128 0.
0.499968 0.0270125 0.
0.501969 0.0270119 0.
0.50397 0.0270114 0.
0.505971 0.0270108 0.
0.507971 0.0270099 0.
0.509972 0.0270089 0.
0.511973 0.0270082 0.
0.513974 0.0270076 0.
0.515975 0.0270071 0.
0.517976 0.0270069 0.
0.519977 0.027007 0.
0.521978 0.0270072 0.
0.523979 0.0270077 0.
0.52598 0.0270082 0.
0.52798 0.0270087 0.
0.529981 0.0270087 0.
0.531982 0.0270087 0.
0.533983 0.0270088 0.
0.535984 0.0270088 0.
0.537985 0.0270088 0.
0.539986 0.0270091 0.
0.541987 0.0270096 0.
0.543988 0.0270101 0.
0.545988 0.0270106 0.
0.547989 0.0270112 0.
0.549989 0.0270118 0.
0.551989 0.0270119 0.
0.55399 0.0270119 0.
0.55599 0.0270121 0.
0.55799 0.0270127 0.
0.559991 0.0270133 0.
0.561991 0.0270139 0.
0.563992 0.0270147 0.
0.565993 0.0270155 0.
0.567994 0.0270158 0.
0.569995 0.027016 0.
0.571995 0.0270162 0.
0.573996 0.0270165 0.
0.575996 0.0270168 0.
0.577996 0.027017 0.
0.579996 0.0270167 0.
0.581996 0.0270163 0.
0.583996 0.027016 0.
0.585997 0.0270159 0.
0.587998 0.0270158 0.
0.589998 0.0270158 0.
0.591999 0.027016 0.
0.593999 0.0270162 0.
0.595999 0.0270162 0.
0.598 0.0270161 0.
0.6 0.0270161 0.
0.602001 0.0270166 0.
0.604002 0.0270171 0.
0.606003 0.0270173 0.
0.608003 0.0270166 0.
0.610004 0.0270159 0.
0.612004 0.0270151 0.
0.614004 0.0270142 0.
0.616004 0.0270133 0.
0.618005 0.0270133 0.
0.620005 0.0270137 0.
0.622006 0.027014 0.
0.624006 0.0270141 0.
0.626006 0.0270142 0.
0.628006 0.0270141 0.
0.630006 0.0270134 0.
0.632006 0.0270126 0.
0.634006 0.0270122 0.
0.636007 0.0270126 0.
0.638008 0.027013 0.
0.640009 0.0270131 0.
0.64201 0.0270129 0.
0.64401 0.0270127 0.
0.646011 0.0270116 0.
0.648011 0.0270102 0.
0.650012 0.0270087 0.
0.652013 0.0270083 0.
0.654014 0.0270078 0.
0.656015 0.0270075 0.
0.658015 0.0270074 0.
0.660016 0.0270073 0.
0.662017 0.0270073 0.
0.664018 0.0270075 0.
0.666019 0.0270076 0.
0.66802 0.0270077 0.
0.670022 0.0270077 0.
0.672023 0.0270076 0.
0.674024 0.0270074 0.
0.676026 0.0270071 0.
0.678027 0.0270068 0.
0.680028 0.0270066 0.
0.682029 0.0270064 0.
0.684031 0.0270063 0.
0.686032 0.0270065 0.
0.688033 0.0270067 0.
0.690034 0.0270073 0.
0.692034 0.0270082 0.
0.694035 0.027009 0.
0.696036 0.0270111 0.
0.698037 0.0270136 0.
0.499969 0.0290132 0.
0.50197 0.0290124 0.
0.503971 0.0290118 0.
0.505972 0.0290112 0.
0.507973 0.0290102 0.
0.509974 0.0290093 0.
0.511974 0.0290085 0.
0.513975 0.0290079 0.
0.515976 0.0290072 0.
0.517977 0.029007 0.
0.519978 0.0290071 0.
0.521979 0.0290072 0.
0.523979 0.0290076 0.
0.52598 0.0290081 0.
0.527981 0.0290086 0.
0.529982 0.0290084 0.
0.531983 0.0290083 0.
0.533984 0.0290082 0.
0.535985 0.0290084 0.
0.537986 0.0290086 0.
0.539987 0.029009 0.
0.541987 0.0290097 0.
0.543988 0.0290105 0.
0.545989 0.0290108 0.
0.54799 0.0290111 0.
0.54999 0.0290114 0.
0.55199 0.0290117 0.
0.55399 0.0290121 0.
0.55599 0.0290124 0.
0.55799 0.0290129 0.
0.559991 0.0290134 0.
0.561992 0.0290139 0.
0.563993 0.0290145 0.
0.565993 0.029015 0.
0.567994 0.0290155 0.
0.569995 0.029016 0.
0.571996 0.0290164 0.
0.573996 0.0290167 0.
0.575996 0.0290169 0.
0.577996 0.0290171 0.
0.579996 0.0290169 0.
0.581996 0.0290167 0.
0.583996 0.0290164 0.
0.585996 0.0290162 0.
0.587997 0.029016 0.
0.589998 0.0290159 0.
0.591999 0.0290161 0.
0.593999 0.0290163 0.
0.596 0.0290164 0.
0.598 0.0290164 0.
0.6 0.0290165 0.
0.602001 0.0290169 0.
0.604002 0.0290173 0.
0.606003 0.0290174 0.
0.608003 0.0290166 0.
0.610003 0.0290159 0.
0.612003 0.029015 0.
0.614004 0.0290141 0.
0.616004 0.0290132 0.
0.618004 0.0290132 0.
0.620004 0.0290137 0.
0.622005 0.0290141 0.
0.624005 0.0290144 0.
0.626005 0.0290146 0.
0.628006 0.0290146 0.
0.630006 0.0290136 0.
0.632006 0.0290125 0.
0.634006 0.0290119 0.
0.636007 0.0290121 0.
0.638008 0.0290123 0.
0.640009 0.0290123 0.
0.64201 0.0290123 0.
0.64401 0.0290123 0.
0.646011 0.0290111 0.
0.648011 0.0290096 0.
0.650012 0.0290081 0.
0.652013 0.0290076 0.
0.654014 0.0290072 0.
0.656015 0.0290069 0.
0.658015 0.029007 0.
0.660016 0.0290072 0.
0.662016 0.0290073 0.
0.664017 0.0290075 0.
0.666018 0.0290077 0.
0.668019 0.0290077 0.
0.670021 0.0290076 0.
0.672022 0.0290075 0.
0.674024 0.0290072 0.
0.676025 0.0290068 0.
0.678027 0.0290065 0.
0.680028 0.0290062 0.
0.682029 0.029006 0.
0.68403 0.029006 0.
0.686031 0.0290065 0.
0.688032 0.0290069 0.
0.690032 0.0290078 0.
0.692033 0.029009 0.
0.694033 0.0290102 0.
0.696034 0.0290122 0.
0.698035 0.0290144 0.
0.49997 0.0310137 0.
0.501971 0.0310128 0.
0.503972 0.0310122 0.
0.505973 0.0310115 0.
0.507974 0.0310106 0.
0.509975 0.0310098 0.
0.511975 0.0310089 0.
0.513976 0.0310081 0.
0.515977 0.0310073 0.
0.517978 0.031007 0.
0.519979 0.0310071 0.
0.521979 0.0310071 0.
0.52398 0.0310075 0.
0.525981 0.0310079 0.
0.527981 0.0310083 0.
0.529982 0.0310081 0.
0.531983 0.031008 0.
0.533984 0.0310079 0.
0.535985 0.0310081 0.
0.537986 0.0310083 0.
0.539987 0.0310089 0.
0.541988 0.0310098 0.
0.543988 0.0310106 0.
0.545989 0.0310109 0.
0.54799 0.0310111 0.
0.54999 0.0310112 0.
0.55199 0.0310117 0.
0.55399 0.0310121 0.
0.555991 0.0310126 0.
0.557991 0.031013 0.
0.559992 0.0310134 0.
0.561993 0.0310138 0.
0.563993 0.0310142 0.
0.565994 0.0310145 0.
0.567995 0.0310151 0.
0.569995 0.0310158 0.
0.571996 0.0310165 0.
0.573996 0.0310168 0.
0.575996 0.0310171 0.
0.577996 0.0310173 0.
0.579996 0.0310172 0.
0.581996 0.031017 0.
0.583996 0.0310168 0.
0.585997 0.0310165 0.
0.587997 0.0310163 0.
0.589998 0.0310162 0.
0.591998 0.0310163 0.
0.593999 0.0310164 0.
0.596 0.0310165 0.
0.598 0.0310166 0.
0.6 0.0310167 0.
0.602001 0.0310171 0.
0.604002 0.0310175 0.
0.606003 0.0310176 0.
0.608003 0.0310167 0.
0.610003 0.0310157 0.
0.612003 0.0310149 0.
0.614003 0.0310142 0.
0.616004 0.0310135 0.
0.618004 0.0310135 0.
0.620004 0.0310139 0.
0.622004 0.0310142 0.
0.624005 0.0310143 0.
0.626005 0.0310144 0.
0.628005 0.0310144 0.
0.630005 0.0310135 0.
0.632006 0.0310125 0.
0.634006 0.0310119 0.
0.636007 0.031012 0.
0.638008 0.031012 0.
0.640009 0.031012 0.
0.642009 0.0310119 0.
0.64401 0.0310119 0.
0.64601 0.0310108 0.
0.648011 0.0310095 0.
0.650011 0.0310081 0.
0.652012 0.0310075 0.
0.654013 0.0310069 0.
0.656014 0.0310065 0.
0.658014 0.0310068 0.
0.660015 0.0310071 0.
0.662015 0.0310073 0.
0.664016 0.0310074 0.
0.666017 0.0310075 0.
0.668018 0.0310075 0.
0.67002 0.0310074 0.
0.672022 0.0310074 0.
0.674023 0.031007 0.
0.676024 0.0310066 0.
0.678025 0.0310062 0.
0.680026 0.031006 0.
0.682027 0.0310059 0.
0.684029 0.031006 0.
0.686029 0.0310067 0.
0.68803 0.0310074 0.
0.690031 0.0310084 0.
0.692031 0.0310096 0.
0.694032 0.0310109 0.
0.696032 0.0310128 0.
0.698033 0.0310148 0.
0.49997 0.0330141 0.
0.501971 0.0330133 0.
0.503972 0.0330127 0.
0.505974 0.033012 0.
0.507974 0.0330111 0.
0.509975 0.0330102 0.
0.511976 0.0330093 0.
0.513977 0.0330083 0.
0.515977 0.0330074 0.
0.517978 0.033007 0.
0.519979 0.033007 0.
0.52198 0.0330069 0.
0.523981 0.0330072 0.
0.525982 0.0330075 0.
0.527983 0.0330078 0.
0.529984 0.0330078 0.
0.531985 0.0330078 0.
0.533985 0.0330079 0.
0.535986 0.033008 0.
0.537986 0.0330081 0.
0.539987 0.0330087 0.
0.541987 0.0330097 0.
0.543988 0.0330106 0.
0.545989 0.0330109 0.
0.547989 0.033011 0.
0.54999 0.0330111 0.
0.551991 0.0330117 0.
0.553991 0.0330122 0.
0.555992 0.0330127 0.
0.557993 0.033013 0.
0.559993 0.0330133 0.
0.561994 0.0330136 0.
0.563994 0.0330138 0.
0.565994 0.033014 0.
0.567995 0.0330146 0.
0.569995 0.0330155 0.
0.571995 0.0330163 0.
0.573995 0.0330169 0.
0.575995 0.0330174 0.
0.577996 0.0330177 0.
0.579996 0.0330175 0.
0.581997 0.0330173 0.
0.583997 0.033017 0.
0.585997 0.0330168 0.
0.587998 0.0330167 0.
0.589998 0.0330165 0.
0.591998 0.0330165 0.
0.593999 0.0330164 0.
0.595999 0.0330165 0.
0.598 0.0330167 0.
0.6 0.0330168 0.
0.602002 0.0330173 0.
0.604003 0.0330178 0.
0.606004 0.0330179 0.
0.608003 0.0330167 0.
0.610003 0.0330155 0.
0.612003 0.0330147 0.
0.614003 0.0330145 0.
0.616004 0.0330142 0.
0.618004 0.0330142 0.
0.620004 0.0330142 0.
0.622005 0.0330142 0.
0.624005 0.033014 0.
0.626005 0.0330138 0.
0.628005 0.0330136 0.
0.630006 0.0330131 0.
0.632006 0.0330125 0.
0.634007 0.0330122 0.
0.636008 0.0330122 0.
0.638008 0.0330121 0.
0.640009 0.033012 0.
0.642009 0.0330118 0.
0.644009 0.0330116 0.
0.64601 0.0330107 0.
0.64801 0.0330097 0.
0.650011 0.0330088 0.
0.652012 0.0330078 0.
0.654012 0.0330069 0.
0.656013 0.0330063 0.
0.658013 0.0330066 0.
0.660013 0.033007 0.
0.662014 0.0330071 0.
0.664015 0.0330071 0.
0.666017 0.0330071 0.
0.668018 0.0330071 0.
0.670019 0.0330073 0.
0.67202 0.0330075 0.
0.674021 0.0330069 0.
0.676022 0.0330063 0.
0.678023 0.0330058 0.
0.680024 0.0330059 0.
0.682025 0.033006 0.
0.684027 0.0330064 0.
0.686027 0.0330072 0.
0.688028 0.033008 0.
0.690029 0.033009 0.
0.69203 0.03301 0.
0.69403 0.033011 0.
0.696031 0.0330129 0.
0.698032 0.0330149 0.
0.49997 0.0350146 0.
0.501972 0.0350138 0.
0.503973 0.0350131 0.
0.505974 0.0350124 0.
0.507975 0.0350115 0.
0.509975 0.0350107 0.
0.511976 0.0350097 0.
0.513977 0.0350086 0.
0.515978 0.0350075 0.
0.517979 0.035007 0.
0.51998 0.0350068 0.
0.521981 0.0350067 0.
0.523982 0.0350069 0.
0.525984 0.0350071 0.
0.527985 0.0350074 0.
0.529985 0.0350076 0.
0.531986 0.0350077 0.
0.533986 0.0350079 0.
0.535986 0.0350079 0.
0.537986 0.0350079 0.
0.539987 0.0350085 0.
0.541987 0.0350096 0.
0.543988 0.0350106 0.
0.545988 0.0350109 0.
0.547989 0.035011 0.
0.549989 0.0350111 0.
0.551991 0.0350117 0.
0.553992 0.0350123 0.
0.555994 0.0350128 0.
0.557994 0.035013 0.
0.559995 0.0350132 0.
0.561995 0.0350134 0.
0.563995 0.0350134 0.
0.565995 0.0350134 0.
0.567995 0.0350141 0.
0.569995 0.0350152 0.
0.571995 0.0350162 0.
0.573995 0.0350169 0.
0.575995 0.0350176 0.
0.577995 0.0350182 0.
0.579996 0.0350178 0.
0.581997 0.0350175 0.
0.583998 0.0350173 0.
0.585998 0.0350172 0.
0.587998 0.0350171 0.
0.589998 0.0350169 0.
0.591998 0.0350167 0.
0.593998 0.0350164 0.
0.595999 0.0350166 0.
0.598 0.0350168 0.
0.6 0.035017 0.
0.602002 0.0350176 0.
0.604003 0.0350181 0.
0.606004 0.0350182 0.
0.608004 0.0350167 0.
0.610003 0.0350152 0.
0.612003 0.0350145 0.
0.614003 0.0350147 0.
0.616003 0.0350149 0.
0.618004 0.0350148 0.
0.620004 0.0350145 0.
0.622005 0.0350142 0.
0.624005 0.0350137 0.
0.626005 0.0350133 0.
0.628004 0.0350128 0.
0.630006 0.0350127 0.
0.632007 0.0350126 0.
0.634008 0.0350125 0.
0.636008 0.0350124 0.
0.638009 0.0350123 0.
0.640009 0.0350121 0.
0.642008 0.0350117 0.
0.644008 0.0350113 0.
0.646009 0.0350107 0.
0.64801 0.03501 0.
0.650011 0.0350094 0.
0.652011 0.0350082 0.
0.654011 0.0350069 0.
0.656012 0.0350061 0.
0.658012 0.0350065 0.
0.660012 0.0350069 0.
0.662013 0.035007 0.
0.664015 0.0350068 0.
0.666016 0.0350066 0.
0.668017 0.0350068 0.
0.670018 0.0350072 0.
0.672019 0.0350075 0.
0.67402 0.0350069 0.
0.67602 0.0350061 0.
0.678021 0.0350055 0.
0.680022 0.0350058 0.
0.682023 0.0350062 0.
0.684025 0.0350067 0.
0.686025 0.0350077 0.
0.688026 0.0350087 0.
0.690027 0.0350095 0.
0.692028 0.0350103 0.
0.694029 0.0350111 0.
0.69603 0.0350129 0.
0.698031 0.035015 0.
0.499972 0.0370152 0.
0.501973 0.0370142 0.
0.503974 0.0370131 0.
0.505975 0.0370121 0.
0.507976 0.0370112 0.
0.509976 0.0370103 0.
0.511977 0.0370093 0.
0.513978 0.0370083 0.
0.515979 0.0370073 0.
0.51798 0.0370068 0.
0.519981 0.0370066 0.
0.521982 0.0370064 0.
0.523983 0.0370066 0.
0.525984 0.0370068 0.
0.527986 0.037007 0.
0.529986 0.0370073 0.
0.531986 0.0370077 0.
0.533987 0.037008 0.
0.535987 0.0370083 0.
0.537988 0.0370087 0.
0.539988 0.0370091 0.
0.541989 0.0370096 0.
0.543989 0.0370101 0.
0.54599 0.0370105 0.
0.54799 0.037011 0.
0.549991 0.0370114 0.
0.551991 0.0370119 0.
0.553992 0.0370124 0.
0.555993 0.0370128 0.
0.557994 0.037013 0.
0.559994 0.0370132 0.
0.561994 0.0370135 0.
0.563995 0.0370139 0.
0.565995 0.0370143 0.
0.567995 0.0370149 0.
0.569995 0.0370157 0.
0.571995 0.0370165 0.
0.573995 0.0370171 0.
0.575996 0.0370177 0.
0.577996 0.0370181 0.
0.579997 0.037018 0.
0.581997 0.0370179 0.
0.583998 0.0370177 0.
0.585998 0.0370174 0.
0.587998 0.0370171 0.
0.589998 0.0370168 0.
0.591998 0.0370167 0.
0.593999 0.0370166 0.
0.595999 0.0370166 0.
0.598 0.0370167 0.
0.6 0.0370168 0.
0.602001 0.0370172 0.
0.604002 0.0370176 0.
0.606003 0.0370176 0.
0.608003 0.0370166 0.
0.610003 0.0370156 0.
0.612003 0.0370149 0.
0.614004 0.0370148 0.
0.616004 0.0370147 0.
0.618004 0.0370147 0.
0.620004 0.0370147 0.
0.622005 0.0370148 0.
0.624005 0.0370143 0.
0.626004 0.0370137 0.
0.628004 0.0370132 0.
0.630005 0.0370129 0.
0.632006 0.0370127 0.
0.634007 0.0370125 0.
0.636007 0.0370124 0.
0.638008 0.0370123 0.
0.640008 0.037012 0.
0.642008 0.0370116 0.
0.644008 0.0370112 0.
0.646009 0.0370105 0.
0.64801 0.0370097 0.
0.65001 0.0370089 0.
0.65201 0.0370078 0.
0.654011 0.0370067 0.
0.656011 0.0370059 0.
0.658012 0.0370062 0.
0.660012 0.0370064 0.
0.662013 0.0370066 0.
0.664014 0.0370066 0.
0.666016 0.0370066 0.
0.668016 0.0370068 0.
0.670017 0.037007 0.
0.672018 0.0370072 0.
0.674019 0.0370066 0.
0.67602 0.0370058 0.
0.678021 0.0370052 0.
0.680022 0.0370057 0.
0.682023 0.0370062 0.
0.684023 0.0370068 0.
0.686024 0.0370077 0.
0.688025 0.0370086 0.
0.690026 0.0370093 0.
0.692026 0.0370099 0.
0.694027 0.0370106 0.
0.696028 0.0370123 0.
0.698029 0.0370143 0.
0.499974 0.0390159 0.
0.501975 0.0390146 0.
0.503975 0.0390132 0.
0.505976 0.0390118 0.
0.507977 0.0390108 0.
0.509978 0.0390099 0.
0.511978 0.0390089 0.
0.513979 0.039008 0.
0.51598 0.0390071 0.
0.517981 0.0390067 0.
0.519982 0.0390064 0.
0.521983 0.0390062 0.
0.523984 0.0390063 0.
0.525985 0.0390065 0.
0.527986 0.0390066 0.
0.529986 0.0390071 0.
0.531987 0.0390076 0.
0.533987 0.0390081 0.
0.535988 0.0390088 0.
0.537989 0.0390094 0.
0.53999 0.0390096 0.
0.54199 0.0390096 0.
0.543991 0.0390095 0.
0.545991 0.0390101 0.
0.547992 0.0390109 0.
0.549992 0.0390117 0.
0.551992 0.0390121 0.
0.553992 0.0390125 0.
0.555993 0.0390128 0.
0.557993 0.039013 0.
0.559994 0.0390132 0.
0.561994 0.0390137 0.
0.563994 0.0390144 0.
0.565995 0.0390151 0.
0.567995 0.0390157 0.
0.569995 0.0390162 0.
0.571995 0.0390167 0.
0.573996 0.0390172 0.
0.575996 0.0390177 0.
0.577997 0.0390181 0.
0.579997 0.0390182 0.
0.581997 0.0390183 0.
0.583998 0.0390182 0.
0.585998 0.0390176 0.
0.587998 0.0390171 0.
0.589998 0.0390168 0.
0.591998 0.0390167 0.
0.593999 0.0390167 0.
0.595999 0.0390167 0.
0.598 0.0390167 0.
0.600001 0.0390167 0.
0.602001 0.0390168 0.
0.604002 0.039017 0.
0.606003 0.039017 0.
0.608003 0.0390164 0.
0.610003 0.0390159 0.
0.612004 0.0390153 0.
0.614004 0.0390149 0.
0.616004 0.0390144 0.
0.618004 0.0390146 0.
0.620004 0.039015 0.
0.622005 0.0390153 0.
0.624005 0.0390148 0.
0.626004 0.0390141 0.
0.628004 0.0390135 0.
0.630005 0.0390132 0.
0.632006 0.0390128 0.
0.634006 0.0390126 0.
0.636007 0.0390124 0.
0.638007 0.0390123 0.
0.640008 0.039012 0.
0.642008 0.0390116 0.
0.644009 0.0390112 0.
0.646009 0.0390103 0.
0.648009 0.0390093 0.
0.650009 0.0390083 0.
0.65201 0.0390074 0.
0.65401 0.0390064 0.
0.656011 0.0390057 0.
0.658011 0.0390058 0.
0.660012 0.0390059 0.
0.662013 0.0390061 0.
0.664014 0.0390064 0.
0.666015 0.0390066 0.
0.668016 0.0390067 0.
0.670016 0.0390068 0.
0.672017 0.0390069 0.
0.674018 0.0390063 0.
0.676019 0.0390055 0.
0.678021 0.0390049 0.
0.680021 0.0390056 0.
0.682022 0.0390062 0.
0.684022 0.0390069 0.
0.686023 0.0390077 0.
0.688024 0.0390085 0.
0.690024 0.0390091 0.
0.692025 0.0390095 0.
0.694025 0.03901 0.
0.696027 0.0390117 0.
0.698028 0.0390136 0.
0.499976 0.0410161 0.
0.501976 0.0410148 0.
0.503977 0.0410132 0.
0.505977 0.0410117 0.
0.507978 0.0410107 0.
0.509979 0.0410096 0.
0.51198 0.0410087 0.
0.513981 0.0410078 0.
0.515981 0.041007 0.
0.517982 0.0410066 0.
0.519983 0.0410064 0.
0.521984 0.0410062 0.
0.523985 0.0410063 0.
0.525986 0.0410064 0.
0.527987 0.0410066 0.
0.529987 0.041007 0.
0.531988 0.0410074 0.
0.533988 0.0410079 0.
0.535989 0.0410085 0.
0.53799 0.0410091 0.
0.539991 0.0410094 0.
0.541992 0.0410093 0.
0.543992 0.0410093 0.
0.545992 0.04101 0.
0.547993 0.041011 0.
0.549993 0.0410119 0.
0.551993 0.0410123 0.
0.553993 0.0410127 0.
0.555993 0.0410131 0.
0.557993 0.0410133 0.
0.559994 0.0410134 0.
0.561994 0.0410139 0.
0.563995 0.0410147 0.
0.565995 0.0410155 0.
0.567995 0.0410161 0.
0.569995 0.0410165 0.
0.571996 0.041017 0.
0.573996 0.0410173 0.
0.575997 0.0410176 0.
0.577997 0.0410179 0.
0.579997 0.0410182 0.
0.581997 0.0410186 0.
0.583997 0.0410186 0.
0.585998 0.041018 0.
0.587998 0.0410175 0.
0.589998 0.0410171 0.
0.591999 0.041017 0.
0.593999 0.0410169 0.
0.596 0.0410168 0.
0.598 0.0410166 0.
0.600001 0.0410164 0.
0.602001 0.0410167 0.
0.604002 0.041017 0.
0.606002 0.0410171 0.
0.608003 0.0410167 0.
0.610003 0.0410163 0.
0.612003 0.0410158 0.
0.614004 0.0410152 0.
0.616004 0.0410146 0.
0.618004 0.0410148 0.
0.620004 0.0410152 0.
0.622004 0.0410157 0.
0.624004 0.0410152 0.
0.626004 0.0410145 0.
0.628004 0.0410139 0.
0.630005 0.0410136 0.
0.632005 0.0410132 0.
0.634006 0.0410129 0.
0.636006 0.0410126 0.
0.638006 0.0410123 0.
0.640007 0.0410121 0.
0.642007 0.0410119 0.
0.644008 0.0410116 0.
0.646008 0.0410106 0.
0.648009 0.0410094 0.
0.650009 0.0410081 0.
0.652009 0.0410073 0.
0.65401 0.0410065 0.
0.65601 0.0410058 0.
0.658011 0.0410058 0.
0.660011 0.0410058 0.
0.662012 0.0410059 0.
0.664013 0.0410061 0.
0.666014 0.0410064 0.
0.668015 0.0410065 0.
0.670015 0.0410066 0.
0.672016 0.0410067 0.
0.674017 0.0410061 0.
0.676018 0.0410054 0.
0.678019 0.0410049 0.
0.68002 0.0410054 0.
0.682021 0.0410059 0.
0.684021 0.0410066 0.
0.686022 0.0410074 0.
0.688023 0.0410083 0.
0.690023 0.0410089 0.
0.692024 0.0410093 0.
0.694024 0.0410097 0.
0.696025 0.0410113 0.
0.698026 0.0410132 0.
0.499977 0.043016 0.
0.501978 0.0430147 0.
0.503979 0.0430131 0.
0.50598 0.0430117 0.
0.507981 0.0430107 0.
0.509982 0.0430096 0.
0.511982 0.0430086 0.
0.513983 0.0430078 0.
0.515983 0.0430069 0.
0.517984 0.0430066 0.
0.519985 0.0430065 0.
0.521986 0.0430065 0.
0.523986 0.0430066 0.
0.525987 0.0430068 0.
0.527988 0.0430069 0.
0.529988 0.043007 0.
0.531989 0.0430072 0.
0.53399 0.0430073 0.
0.53599 0.0430076 0.
0.537991 0.0430078 0.
0.539992 0.0430083 0.
0.541992 0.0430089 0.
0.543993 0.0430095 0.
0.545993 0.0430103 0.
0.547993 0.0430111 0.
0.549993 0.0430119 0.
0.551994 0.0430125 0.
0.553994 0.0430131 0.
0.555994 0.0430136 0.
0.557994 0.0430137 0.
0.559995 0.0430138 0.
0.561995 0.0430142 0.
0.563995 0.043015 0.
0.565995 0.0430157 0.
0.567995 0.0430162 0.
0.569996 0.0430167 0.
0.571996 0.0430171 0.
0.573996 0.0430172 0.
0.575997 0.0430173 0.
0.577997 0.0430174 0.
0.579997 0.0430181 0.
0.581997 0.0430187 0.
0.583998 0.043019 0.
0.585998 0.0430186 0.
0.587999 0.0430182 0.
0.589999 0.0430179 0.
0.591999 0.0430177 0.
0.593999 0.0430174 0.
0.596 0.043017 0.
0.598 0.0430166 0.
0.600001 0.0430161 0.
0.602001 0.0430168 0.
0.604001 0.0430175 0.
0.606002 0.0430179 0.
0.608002 0.0430174 0.
0.610003 0.0430168 0.
0.612003 0.0430163 0.
0.614003 0.0430158 0.
0.616003 0.0430153 0.
0.618004 0.0430153 0.
0.620004 0.0430155 0.
0.622004 0.0430158 0.
0.624004 0.0430153 0.
0.626004 0.0430149 0.
0.628004 0.0430144 0.
0.630005 0.0430141 0.
0.632005 0.0430138 0.
0.634005 0.0430134 0.
0.636005 0.0430129 0.
0.638005 0.0430124 0.
0.640006 0.0430123 0.
0.642006 0.0430124 0.
0.644007 0.0430125 0.
0.646007 0.0430113 0.
0.648008 0.0430098 0.
0.650009 0.0430082 0.
0.652009 0.0430075 0.
0.654009 0.0430068 0.
0.656009 0.0430062 0.
0.65801 0.0430061 0.
0.66001 0.043006 0.
0.662011 0.0430059 0.
0.664012 0.0430059 0.
0.666013 0.0430059 0.
0.668013 0.0430061 0.
0.670014 0.0430063 0.
0.672015 0.0430066 0.
0.674016 0.0430061 0.
0.676017 0.0430056 0.
0.678018 0.0430051 0.
0.680018 0.0430052 0.
0.682019 0.0430053 0.
0.68402 0.0430058 0.
0.686021 0.0430069 0.
0.688022 0.0430079 0.
0.690022 0.0430087 0.
0.692023 0.0430092 0.
0.694023 0.0430097 0.
0.696023 0.0430113 0.
0.698024 0.0430132 0.
0.499978 0.0450159 0.
0.50198 0.0450145 0.
0.503981 0.0450131 0.
0.505983 0.0450118 0.
0.507983 0.0450107 0.
0.509984 0.0450096 0.
0.511984 0.0450086 0.
0.513985 0.0450077 0.
0.515985 0.0450068 0.
0.517986 0.0450065 0.
0.519986 0.0450067 0.
0.521987 0.0450068 0.
0.523987 0.0450069 0.
0.525988 0.0450071 0.
0.527989 0.0450072 0.
0.52999 0.0450071 0.
0.53199 0.0450069 0.
0.533991 0.0450068 0.
0.535991 0.0450067 0.
0.537991 0.0450066 0.
0.539992 0.0450072 0.
0.541993 0.0450084 0.
0.543994 0.0450096 0.
0.545994 0.0450105 0.
0.547994 0.0450112 0.
0.549994 0.0450119 0.
0.551994 0.0450128 0.
0.553995 0.0450136 0.
0.555995 0.0450142 0.
0.557995 0.0450142 0.
0.559996 0.0450143 0.
0.561996 0.0450146 0.
0.563996 0.0450152 0.
0.565996 0.0450158 0.
0.567996 0.0450163 0.
0.569996 0.0450168 0.
0.571996 0.0450172 0.
0.573996 0.0450172 0.
0.575997 0.045017 0.
0.577997 0.0450169 0.
0.579997 0.0450179 0.
0.581997 0.0450189 0.
0.583998 0.0450194 0.
0.585999 0.0450192 0.
0.587999 0.045019 0.
0.589999 0.0450187 0.
0.591999 0.0450183 0.
0.593999 0.0450178 0.
0.596 0.0450172 0.
0.598 0.0450165 0.
0.6 0.0450158 0.
0.602001 0.0450169 0.
0.604001 0.045018 0.
0.606001 0.0450187 0.
0.608002 0.0450181 0.
0.610002 0.0450174 0.
0.612002 0.0450168 0.
0.614002 0.0450163 0.
0.616002 0.0450159 0.
0.618003 0.0450158 0.
0.620004 0.0450158 0.
0.622004 0.0450159 0.
0.624004 0.0450155 0.
0.626004 0.0450152 0.
0.628004 0.0450148 0.
0.630004 0.0450146 0.
0.632005 0.0450144 0.
0.634005 0.0450139 0.
0.636005 0.0450132 0.
0.638004 0.0450125 0.
0.640004 0.0450125 0.
0.642005 0.0450129 0.
0.644006 0.0450134 0.
0.646006 0.0450121 0.
0.648007 0.0450102 0.
0.650008 0.0450083 0.
0.652008 0.0450077 0.
0.654009 0.0450071 0.
0.656009 0.0450066 0.
0.658009 0.0450064 0.
0.66001 0.0450063 0.
0.66201 0.045006 0.
0.664011 0.0450057 0.
0.666011 0.0450054 0.
0.668012 0.0450056 0.
0.670013 0.0450061 0.
0.672014 0.0450065 0.
0.674014 0.0450062 0.
0.676015 0.0450057 0.
0.678016 0.0450053 0.
0.680016 0.045005 0.
0.682017 0.0450047 0.
0.684018 0.045005 0.
0.686019 0.0450063 0.
0.688021 0.0450076 0.
0.690022 0.0450085 0.
0.692022 0.0450091 0.
0.694022 0.0450098 0.
0.696022 0.0450113 0.
0.698022 0.0450131 0.
0.499981 0.0470159 0.
0.501982 0.0470144 0.
0.503983 0.047013 0.
0.505984 0.0470117 0.
0.507985 0.0470105 0.
0.509985 0.0470094 0.
0.511986 0.0470084 0.
0.513986 0.0470077 0.
0.515986 0.047007 0.
0.517987 0.0470068 0.
0.519987 0.0470069 0.
0.521988 0.0470071 0.
0.523988 0.047007 0.
0.525989 0.0470069 0.
0.52799 0.0470067 0.
0.52999 0.0470067 0.
0.531991 0.0470066 0.
0.533991 0.0470065 0.
0.535992 0.0470067 0.
0.537992 0.0470068 0.
0.539992 0.0470074 0.
0.541993 0.0470084 0.
0.543994 0.0470095 0.
0.545994 0.0470102 0.
0.547993 0.0470109 0.
0.549993 0.0470117 0.
0.551994 0.0470125 0.
0.553994 0.0470134 0.
0.555995 0.047014 0.
0.557995 0.047014 0.
0.559995 0.047014 0.
0.561996 0.0470143 0.
0.563996 0.0470151 0.
0.565996 0.0470158 0.
0.567996 0.0470164 0.
0.569996 0.0470167 0.
0.571997 0.0470171 0.
0.573997 0.0470172 0.
0.575997 0.0470172 0.
0.577997 0.0470173 0.
0.579997 0.0470178 0.
0.581998 0.0470182 0.
0.583998 0.0470186 0.
0.585999 0.0470188 0.
0.587999 0.047019 0.
0.589999 0.0470188 0.
0.591999 0.0470184 0.
0.593999 0.0470179 0.
0.596 0.0470175 0.
0.598 0.0470171 0.
0.6 0.0470166 0.
0.602001 0.0470172 0.
0.604001 0.0470178 0.
0.606001 0.0470181 0.
0.608002 0.0470178 0.
0.610002 0.0470174 0.
0.612002 0.047017 0.
0.614003 0.0470166 0.
0.616003 0.0470161 0.
0.618003 0.0470159 0.
0.620004 0.0470158 0.
0.622004 0.0470158 0.
0.624004 0.0470153 0.
0.626004 0.0470149 0.
0.628003 0.0470144 0.
0.630004 0.0470143 0.
0.632004 0.0470142 0.
0.634004 0.0470139 0.
0.636004 0.0470134 0.
0.638004 0.0470129 0.
0.640004 0.0470126 0.
0.642005 0.0470124 0.
0.644005 0.0470122 0.
0.646006 0.0470111 0.
0.648006 0.0470098 0.
0.650007 0.0470084 0.
0.652007 0.0470078 0.
0.654008 0.0470071 0.
0.656008 0.0470066 0.
0.658009 0.0470065 0.
0.660009 0.0470065 0.
0.66201 0.0470063 0.
0.66401 0.0470061 0.
0.66601 0.0470059 0.
0.668011 0.0470061 0.
0.670012 0.0470064 0.
0.672013 0.0470067 0.
0.674013 0.0470064 0.
0.676014 0.0470059 0.
0.678014 0.0470055 0.
0.680015 0.0470055 0.
0.682016 0.0470054 0.
0.684016 0.0470057 0.
0.686017 0.0470067 0.
0.688019 0.0470077 0.
0.690019 0.0470086 0.
0.69202 0.0470094 0.
0.69402 0.0470102 0.
0.69602 0.0470115 0.
0.698021 0.047013 0.
0.499983 0.0490158 0.
0.501984 0.0490143 0.
0.503985 0.049013 0.
0.505986 0.0490117 0.
0.507986 0.0490104 0.
0.509987 0.0490091 0.
0.511987 0.0490082 0.
0.513987 0.0490077 0.
0.515988 0.0490072 0.
0.517988 0.0490071 0.
0.519989 0.0490072 0.
0.521989 0.0490073 0.
0.52399 0.049007 0.
0.52599 0.0490067 0.
0.527991 0.0490063 0.
0.529991 0.0490063 0.
0.531991 0.0490062 0.
0.533992 0.0490063 0.
0.535992 0.0490067 0.
0.537992 0.049007 0.
0.539992 0.0490076 0.
0.541993 0.0490085 0.
0.543993 0.0490093 0.
0.545993 0.04901 0.
0.547993 0.0490107 0.
0.549993 0.0490114 0.
0.551993 0.0490123 0.
0.553994 0.0490132 0.
0.555994 0.0490138 0.
0.557995 0.0490138 0.
0.559995 0.0490138 0.
0.561995 0.0490141 0.
0.563996 0.049015 0.
0.565996 0.0490159 0.
0.567997 0.0490164 0.
0.569997 0.0490167 0.
0.571997 0.049017 0.
0.573997 0.0490173 0.
0.575997 0.0490175 0.
0.577997 0.0490177 0.
0.579998 0.0490176 0.
0.581998 0.0490176 0.
0.583998 0.0490178 0.
0.585999 0.0490184 0.
0.587999 0.049019 0.
0.589999 0.049019 0.
0.591999 0.0490185 0.
0.594 0.049018 0.
0.596 0.0490178 0.
0.598 0.0490176 0.
0.600001 0.0490174 0.
0.602001 0.0490175 0.
0.604001 0.0490175 0.
0.606001 0.0490175 0.
0.608002 0.0490175 0.
0.610002 0.0490175 0.
0.612003 0.0490173 0.
0.614003 0.0490168 0.
0.616003 0.0490163 0.
0.618003 0.049016 0.
0.620003 0.0490158 0.
0.622004 0.0490156 0.
0.624003 0.0490151 0.
0.626003 0.0490145 0.
0.628003 0.049014 0.
0.630003 0.049014 0.
0.632003 0.0490139 0.
0.634003 0.0490138 0.
0.636004 0.0490135 0.
0.638004 0.0490133 0.
0.640004 0.0490127 0.
0.642005 0.0490119 0.
0.644005 0.049011 0.
0.646005 0.0490102 0.
0.648006 0.0490094 0.
0.650006 0.0490085 0.
0.652006 0.0490078 0.
0.654007 0.049007 0.
0.656007 0.0490065 0.
0.658008 0.0490066 0.
0.660009 0.0490067 0.
0.662009 0.0490067 0.
0.664009 0.0490066 0.
0.666009 0.0490064 0.
0.66801 0.0490065 0.
0.670011 0.0490067 0.
0.672011 0.0490069 0.
0.674012 0.0490065 0.
0.676013 0.0490062 0.
0.678013 0.0490058 0.
0.680014 0.0490059 0.
0.682014 0.049006 0.
0.684015 0.0490063 0.
0.686016 0.0490071 0.
0.688016 0.0490078 0.
0.690017 0.0490086 0.
0.692017 0.0490096 0.
0.694018 0.0490106 0.
0.696018 0.0490118 0.
0.698019 0.049013 0.
0.499986 0.0510155 0.
0.501987 0.0510141 0.
0.503987 0.0510129 0.
0.505988 0.0510117 0.
0.507988 0.0510104 0.
0.509988 0.0510091 0.
0.511988 0.0510082 0.
0.513989 0.0510077 0.
0.515989 0.0510073 0.
0.517989 0.0510073 0.
0.51999 0.0510074 0.
0.52199 0.0510075 0.
0.523991 0.0510071 0.
0.525991 0.0510067 0.
0.527991 0.0510064 0.
0.529992 0.0510063 0.
0.531992 0.0510063 0.
0.533992 0.0510064 0.
0.535993 0.0510068 0.
0.537993 0.0510073 0.
0.539993 0.0510079 0.
0.541993 0.0510086 0.
0.543994 0.0510093 0.
0.545994 0.0510101 0.
0.547993 0.0510108 0.
0.549993 0.0510116 0.
0.551994 0.0510124 0.
0.553994 0.0510132 0.
0.555994 0.0510138 0.
0.557995 0.0510137 0.
0.559995 0.0510137 0.
0.561995 0.0510141 0.
0.563996 0.051015 0.
0.565997 0.051016 0.
0.567997 0.0510166 0.
0.569997 0.051017 0.
0.571998 0.0510174 0.
0.573998 0.0510176 0.
0.575997 0.0510178 0.
0.577997 0.0510179 0.
0.579998 0.0510176 0.
0.581998 0.0510173 0.
0.583998 0.0510174 0.
0.585999 0.0510182 0.
0.587999 0.051019 0.
0.589999 0.0510192 0.
0.591999 0.0510187 0.
0.594 0.0510182 0.
0.596 0.0510181 0.
0.598 0.051018 0.
0.6 0.051018 0.
0.602001 0.0510177 0.
0.604001 0.0510174 0.
0.606001 0.0510172 0.
0.608002 0.0510174 0.
0.610002 0.0510176 0.
0.612002 0.0510175 0.
0.614003 0.051017 0.
0.616003 0.0510165 0.
0.618003 0.0510162 0.
0.620003 0.051016 0.
0.622003 0.0510158 0.
0.624003 0.0510152 0.
0.626003 0.0510146 0.
0.628002 0.0510141 0.
0.630003 0.051014 0.
0.632003 0.051014 0.
0.634003 0.0510139 0.
0.636003 0.0510137 0.
0.638003 0.0510135 0.
0.640004 0.0510128 0.
0.642004 0.0510115 0.
0.644005 0.0510103 0.
0.646005 0.0510097 0.
0.648005 0.0510092 0.
0.650005 0.0510088 0.
0.652006 0.0510079 0.
0.654006 0.051007 0.
0.656006 0.0510064 0.
0.658007 0.0510065 0.
0.660008 0.0510066 0.
0.662008 0.0510067 0.
0.664008 0.0510066 0.
0.666009 0.0510065 0.
0.668009 0.0510066 0.
0.67001 0.0510068 0.
0.67201 0.0510069 0.
0.674011 0.0510065 0.
0.676011 0.0510061 0.
0.678012 0.0510057 0.
0.680012 0.0510059 0.
0.682013 0.0510062 0.
0.684013 0.0510065 0.
0.686014 0.0510071 0.
0.688014 0.0510077 0.
0.690015 0.0510085 0.
0.692015 0.0510095 0.
0.694016 0.0510106 0.
0.696017 0.0510116 0.
0.698018 0.0510127 0.
0.499989 0.0530151 0.
0.501989 0.0530138 0.
0.503989 0.0530128 0.
0.505989 0.0530117 0.
0.507989 0.0530104 0.
0.509989 0.0530091 0.
0.511989 0.0530082 0.
0.51399 0.0530078 0.
0.51599 0.0530074 0.
0.517991 0.0530073 0.
0.519991 0.0530074 0.
0.521991 0.0530074 0.
0.523992 0.0530073 0.
0.525992 0.0530071 0.
0.527992 0.053007 0.
0.529993 0.0530069 0.
0.531993 0.0530068 0.
0.533993 0.0530068 0.
0.535993 0.0530072 0.
0.537994 0.0530075 0.
0.539994 0.0530081 0.
0.541995 0.0530088 0.
0.543995 0.0530096 0.
0.545995 0.0530105 0.
0.547995 0.0530114 0.
0.549994 0.0530123 0.
0.551994 0.0530129 0.
0.553995 0.0530134 0.
0.555995 0.0530138 0.
0.557995 0.0530138 0.
0.559995 0.0530139 0.
0.561996 0.0530143 0.
0.563996 0.0530152 0.
0.565997 0.0530161 0.
0.567997 0.0530169 0.
0.569998 0.0530176 0.
0.571999 0.0530183 0.
0.573999 0.0530183 0.
0.575998 0.0530182 0.
0.577998 0.053018 0.
0.579998 0.0530177 0.
0.581998 0.0530174 0.
0.583998 0.0530174 0.
0.585999 0.0530183 0.
0.587999 0.0530191 0.
0.589999 0.0530193 0.
0.592 0.053019 0.
0.594 0.0530186 0.
0.596 0.0530185 0.
0.598 0.0530184 0.
0.6 0.0530183 0.
0.602 0.0530178 0.
0.604001 0.0530174 0.
0.606001 0.0530171 0.
0.608001 0.0530174 0.
0.610002 0.0530177 0.
0.612002 0.0530176 0.
0.614002 0.0530172 0.
0.616002 0.0530167 0.
0.618002 0.0530165 0.
0.620003 0.0530164 0.
0.622003 0.0530162 0.
0.624003 0.0530157 0.
0.626002 0.0530151 0.
0.628002 0.0530146 0.
0.630002 0.0530144 0.
0.632003 0.0530142 0.
0.634003 0.0530141 0.
0.636003 0.0530138 0.
0.638003 0.0530136 0.
0.640003 0.0530128 0.
0.642003 0.0530114 0.
0.644004 0.05301 0.
0.646004 0.0530095 0.
0.648005 0.0530093 0.
0.650005 0.0530092 0.
0.652005 0.0530081 0.
0.654005 0.0530071 0.
0.656005 0.0530063 0.
0.658006 0.0530063 0.
0.660006 0.0530063 0.
0.662007 0.0530063 0.
0.664008 0.0530062 0.
0.666009 0.0530061 0.
0.668009 0.0530063 0.
0.67001 0.0530066 0.
0.67201 0.0530068 0.
0.67401 0.0530063 0.
0.676011 0.0530057 0.
0.678011 0.0530051 0.
0.680011 0.0530055 0.
0.682012 0.0530059 0.
0.684012 0.0530063 0.
0.686012 0.0530069 0.
0.688013 0.0530074 0.
0.690013 0.0530082 0.
0.692014 0.0530091 0.
0.694015 0.0530101 0.
0.696015 0.0530111 0.
0.698016 0.0530122 0.
0.499991 0.0550146 0.
0.501991 0.0550135 0.
0.50399 0.0550127 0.
0.50599 0.0550117 0.
0.50799 0.0550105 0.
0.50999 0.0550092 0.
0.51199 0.0550083 0.
0.513991 0.0550079 0.
0.515991 0.0550076 0.
0.517992 0.0550074 0.
0.519992 0.0550074 0.
0.521992 0.0550074 0.
0.523993 0.0550075 0.
0.525993 0.0550075 0.
0.527994 0.0550075 0.
0.529994 0.0550074 0.
0.531994 0.0550072 0.
0.533994 0.0550072 0.
0.535994 0.0550075 0.
0.537995 0.0550078 0.
0.539995 0.0550083 0.
0.541996 0.0550091 0.
0.543996 0.0550099 0.
0.545996 0.0550109 0.
0.547996 0.055012 0.
0.549996 0.0550131 0.
0.551995 0.0550133 0.
0.553995 0.0550136 0.
0.555995 0.0550138 0.
0.557995 0.0550139 0.
0.559996 0.055014 0.
0.561996 0.0550145 0.
0.563997 0.0550154 0.
0.565997 0.0550163 0.
0.567998 0.0550173 0.
0.569999 0.0550182 0.
0.572 0.0550192 0.
0.573999 0.0550189 0.
0.575999 0.0550185 0.
0.577999 0.0550181 0.
0.579998 0.0550178 0.
0.581998 0.0550174 0.
0.583998 0.0550175 0.
0.585998 0.0550184 0.
0.587999 0.0550193 0.
0.59 0.0550195 0.
0.592 0.0550193 0.
0.594 0.055019 0.
0.596 0.0550188 0.
0.598 0.0550187 0.
0.6 0.0550185 0.
0.602 0.055018 0.
0.604 0.0550174 0.
0.606 0.0550171 0.
0.608001 0.0550174 0.
0.610001 0.0550178 0.
0.612001 0.0550178 0.
0.614001 0.0550174 0.
0.616001 0.055017 0.
0.618002 0.0550168 0.
0.620002 0.0550167 0.
0.622003 0.0550167 0.
0.624002 0.0550161 0.
0.626002 0.0550156 0.
0.628002 0.0550151 0.
0.630002 0.0550148 0.
0.632003 0.0550145 0.
0.634003 0.0550142 0.
0.636003 0.055014 0.
0.638003 0.0550138 0.
0.640003 0.0550128 0.
0.642003 0.0550113 0.
0.644003 0.0550097 0.
0.646003 0.0550094 0.
0.648004 0.0550095 0.
0.650005 0.0550095 0.
0.652005 0.0550084 0.
0.654004 0.0550072 0.
0.656004 0.0550062 0.
0.658005 0.0550061 0.
0.660005 0.055006 0.
0.662006 0.0550059 0.
0.664007 0.0550058 0.
0.666009 0.0550057 0.
0.66801 0.0550059 0.
0.67001 0.0550063 0.
0.67201 0.0550068 0.
0.67401 0.0550061 0.
0.67601 0.0550053 0.
0.67801 0.0550046 0.
0.68001 0.0550051 0.
0.68201 0.0550056 0.
0.684011 0.0550061 0.
0.686011 0.0550066 0.
0.688011 0.0550072 0.
0.690012 0.0550079 0.
0.692013 0.0550087 0.
0.694013 0.0550096 0.
0.696014 0.0550106 0.
0.698014 0.0550116 0.
0.499992 0.0570148 0.
0.501991 0.0570137 0.
0.503991 0.0570126 0.
0.505991 0.0570115 0.
0.507991 0.0570103 0.
0.509992 0.0570092 0.
0.511992 0.0570085 0.
0.513992 0.0570082 0.
0.515993 0.0570079 0.
0.517993 0.0570078 0.
0.519993 0.0570079 0.
0.521993 0.0570079 0.
0.523994 0.0570078 0.
0.525994 0.0570077 0.
0.527995 0.0570076 0.
0.529995 0.0570073 0.
0.531995 0.057007 0.
0.533995 0.057007 0.
0.535995 0.0570074 0.
0.537996 0.0570079 0.
0.539996 0.0570086 0.
0.541996 0.0570095 0.
0.543997 0.0570104 0.
0.545997 0.0570112 0.
0.547996 0.057012 0.
0.549996 0.0570128 0.
0.551996 0.0570133 0.
0.553996 0.0570139 0.
0.555996 0.0570143 0.
0.557996 0.0570143 0.
0.559997 0.0570143 0.
0.561997 0.0570147 0.
0.563997 0.0570154 0.
0.565997 0.0570162 0.
0.567998 0.057017 0.
0.569998 0.0570178 0.
0.571999 0.0570187 0.
0.573999 0.0570186 0.
0.575999 0.0570184 0.
0.577998 0.0570183 0.
0.579998 0.0570179 0.
0.581998 0.0570176 0.
0.583998 0.0570176 0.
0.585998 0.0570183 0.
0.587999 0.057019 0.
0.589999 0.0570192 0.
0.592 0.057019 0.
0.594 0.0570187 0.
0.596 0.0570187 0.
0.598 0.0570187 0.
0.6 0.0570187 0.
0.602 0.057018 0.
0.604 0.0570174 0.
0.606 0.0570169 0.
0.608001 0.0570173 0.
0.610001 0.0570176 0.
0.612001 0.0570177 0.
0.614001 0.0570174 0.
0.616001 0.0570171 0.
0.618001 0.0570169 0.
0.620002 0.0570167 0.
0.622002 0.0570165 0.
0.624002 0.057016 0.
0.626002 0.0570156 0.
0.628002 0.0570151 0.
0.630002 0.0570148 0.
0.632002 0.0570144 0.
0.634003 0.0570141 0.
0.636003 0.0570138 0.
0.638003 0.0570135 0.
0.640002 0.0570126 0.
0.642002 0.0570113 0.
0.644002 0.05701 0.
0.646003 0.0570096 0.
0.648003 0.0570094 0.
0.650004 0.0570092 0.
0.652004 0.0570083 0.
0.654004 0.0570074 0.
0.656004 0.0570066 0.
0.658004 0.0570062 0.
0.660004 0.0570057 0.
0.662005 0.0570054 0.
0.664006 0.0570053 0.
0.666008 0.0570052 0.
0.668008 0.0570056 0.
0.670008 0.0570062 0.
0.672008 0.0570068 0.
0.674009 0.0570061 0.
0.676009 0.0570054 0.
0.678009 0.0570047 0.
0.680009 0.0570049 0.
0.682009 0.0570051 0.
0.68401 0.0570056 0.
0.686011 0.0570066 0.
0.688011 0.0570075 0.
0.690012 0.0570085 0.
0.692013 0.0570093 0.
0.694013 0.0570102 0.
0.696013 0.0570112 0.
0.698014 0.0570124 0.
0.499992 0.0590151 0.
0.501992 0.0590139 0.
0.503992 0.0590125 0.
0.505992 0.0590112 0.
0.507993 0.0590102 0.
0.509993 0.0590092 0.
0.511993 0.0590086 0.
0.513994 0.0590084 0.
0.515994 0.0590082 0.
0.517995 0.0590082 0.
0.519994 0.0590083 0.
0.521994 0.0590084 0.
0.523995 0.0590082 0.
0.525995 0.0590079 0.
0.527996 0.0590076 0.
0.529996 0.0590072 0.
0.531996 0.0590068 0.
0.533996 0.0590067 0.
0.535996 0.0590073 0.
0.537996 0.059008 0.
0.539997 0.0590088 0.
0.541997 0.0590098 0.
0.543997 0.0590108 0.
0.545997 0.0590115 0.
0.547997 0.059012 0.
0.549997 0.0590126 0.
0.551997 0.0590134 0.
0.553997 0.0590141 0.
0.555997 0.0590147 0.
0.557997 0.0590147 0.
0.559997 0.0590147 0.
0.561997 0.0590149 0.
0.563997 0.0590155 0.
0.565997 0.0590161 0.
0.567997 0.0590167 0.
0.569998 0.0590175 0.
0.571998 0.0590182 0.
0.573998 0.0590183 0.
0.575998 0.0590184 0.
0.577998 0.0590184 0.
0.579998 0.0590181 0.
0.581998 0.0590178 0.
0.583998 0.0590178 0.
0.585998 0.0590182 0.
0.587999 0.0590187 0.
0.589999 0.0590188 0.
0.592 0.0590187 0.
0.594 0.0590185 0.
0.596 0.0590186 0.
0.598 0.0590187 0.
0.6 0.0590188 0.
0.602 0.0590181 0.
0.604 0.0590173 0.
0.606 0.0590167 0.
0.608001 0.0590171 0.
0.610001 0.0590174 0.
0.612001 0.0590175 0.
0.614001 0.0590174 0.
0.616001 0.0590172 0.
0.618001 0.0590169 0.
0.620002 0.0590166 0.
0.622002 0.0590163 0.
0.624002 0.0590159 0.
0.626002 0.0590155 0.
0.628002 0.0590152 0.
0.630002 0.0590147 0.
0.632002 0.0590143 0.
0.634003 0.0590139 0.
0.636002 0.0590135 0.
0.638002 0.0590132 0.
0.640002 0.0590124 0.
0.642002 0.0590114 0.
0.644002 0.0590104 0.
0.646002 0.0590098 0.
0.648002 0.0590093 0.
0.650002 0.0590088 0.
0.652003 0.0590082 0.
0.654003 0.0590076 0.
0.656004 0.059007 0.
0.658004 0.0590062 0.
0.660004 0.0590055 0.
0.662004 0.059005 0.
0.664005 0.0590049 0.
0.666006 0.0590048 0.
0.668006 0.0590052 0.
0.670007 0.059006 0.
0.672007 0.0590067 0.
0.674007 0.0590062 0.
0.676008 0.0590054 0.
0.678009 0.0590048 0.
0.680009 0.0590047 0.
0.682009 0.0590046 0.
0.684009 0.059005 0.
0.68601 0.0590065 0.
0.688011 0.0590079 0.
0.690012 0.059009 0.
0.692012 0.0590099 0.
0.694013 0.0590107 0.
0.696013 0.0590119 0.
0.698013 0.0590132 0.
0.499993 0.0610152 0.
0.501993 0.0610139 0.
0.503993 0.0610124 0.
0.505993 0.061011 0.
0.507994 0.0610101 0.
0.509994 0.0610092 0.
0.511995 0.0610086 0.
0.513995 0.0610085 0.
0.515996 0.0610085 0.
0.517996 0.0610084 0.
0.519996 0.0610085 0.
0.521996 0.0610085 0.
0.523996 0.0610082 0.
0.525996 0.0610079 0.
0.527997 0.0610075 0.
0.529997 0.0610072 0.
0.531997 0.0610068 0.
0.533997 0.0610068 0.
0.535997 0.0610073 0.
0.537997 0.0610079 0.
0.539997 0.0610088 0.
0.541998 0.0610099 0.
0.543998 0.061011 0.
0.545998 0.0610115 0.
0.547998 0.0610119 0.
0.549998 0.0610123 0.
0.551998 0.0610133 0.
0.553998 0.0610143 0.
0.555998 0.0610151 0.
0.557998 0.0610151 0.
0.559998 0.0610152 0.
0.561998 0.0610154 0.
0.563998 0.0610158 0.
0.565997 0.0610163 0.
0.567997 0.0610168 0.
0.569998 0.0610174 0.
0.571998 0.061018 0.
0.573998 0.0610182 0.
0.575998 0.0610184 0.
0.577998 0.0610185 0.
0.579998 0.0610183 0.
0.581998 0.0610181 0.
0.583998 0.0610181 0.
0.585999 0.0610183 0.
0.587999 0.0610186 0.
0.589999 0.0610186 0.
0.591999 0.0610185 0.
0.594 0.0610183 0.
0.596 0.0610185 0.
0.598 0.0610189 0.
0.6 0.0610192 0.
0.602 0.0610184 0.
0.604 0.0610175 0.
0.606 0.061017 0.
0.608001 0.0610173 0.
0.610001 0.0610177 0.
0.612001 0.0610178 0.
0.614001 0.0610176 0.
0.616001 0.0610175 0.
0.618001 0.0610171 0.
0.620001 0.0610167 0.
0.622001 0.0610162 0.
0.624001 0.0610159 0.
0.626002 0.0610155 0.
0.628002 0.0610152 0.
0.630002 0.0610148 0.
0.632002 0.0610143 0.
0.634002 0.0610139 0.
0.636002 0.0610135 0.
0.638002 0.0610131 0.
0.640002 0.0610124 0.
0.642002 0.0610115 0.
0.644002 0.0610106 0.
0.646002 0.06101 0.
0.648001 0.0610094 0.
0.650001 0.0610089 0.
0.652002 0.0610084 0.
0.654003 0.0610078 0.
0.656003 0.0610072 0.
0.658003 0.0610064 0.
0.660003 0.0610055 0.
0.662004 0.061005 0.
0.664004 0.0610048 0.
0.666005 0.0610046 0.
0.668005 0.061005 0.
0.670005 0.0610058 0.
0.672006 0.0610065 0.
0.674006 0.061006 0.
0.676007 0.0610053 0.
0.678008 0.0610047 0.
0.680008 0.0610046 0.
0.682008 0.0610045 0.
0.684008 0.061005 0.
0.686009 0.0610065 0.
0.688011 0.061008 0.
0.690011 0.0610091 0.
0.692011 0.06101 0.
0.694011 0.0610109 0.
0.696012 0.0610121 0.
0.698012 0.0610134 0.
0.499993 0.063015 0.
0.501994 0.0630137 0.
0.503994 0.0630122 0.
0.505995 0.0630109 0.
0.507995 0.06301 0.
0.509996 0.063009 0.
0.511996 0.0630085 0.
0.513997 0.0630085 0.
0.515997 0.0630086 0.
0.517997 0.0630085 0.
0.519998 0.0630083 0.
0.521998 0.0630081 0.
0.523998 0.0630078 0.
0.525998 0.0630075 0.
0.527998 0.0630072 0.
0.529998 0.0630072 0.
0.531998 0.0630072 0.
0.533998 0.0630072 0.
0.535998 0.0630074 0.
0.537998 0.0630076 0.
0.539998 0.0630084 0.
0.541998 0.0630096 0.
0.543998 0.0630109 0.
0.545998 0.0630114 0.
0.547998 0.0630116 0.
0.549999 0.0630119 0.
0.551999 0.0630131 0.
0.553999 0.0630144 0.
0.555999 0.0630154 0.
0.557999 0.0630157 0.
0.559999 0.0630159 0.
0.561999 0.0630162 0.
0.563998 0.0630165 0.
0.565998 0.0630168 0.
0.567998 0.0630172 0.
0.569998 0.0630177 0.
0.571998 0.0630182 0.
0.573998 0.0630183 0.
0.575998 0.0630184 0.
0.577998 0.0630184 0.
0.579999 0.0630184 0.
0.581999 0.0630185 0.
0.583999 0.0630185 0.
0.585999 0.0630186 0.
0.587999 0.0630187 0.
0.589999 0.0630186 0.
0.591999 0.0630184 0.
0.593999 0.0630182 0.
0.595999 0.0630186 0.
0.598 0.0630192 0.
0.6 0.0630197 0.
0.602 0.0630189 0.
0.604001 0.0630181 0.
0.606001 0.0630176 0.
0.608001 0.063018 0.
0.610001 0.0630183 0.
0.612001 0.0630184 0.
0.614001 0.0630182 0.
0.616001 0.0630179 0.
0.618001 0.0630175 0.
0.620001 0.0630169 0.
0.622 0.0630164 0.
0.624 0.0630159 0.
0.626001 0.0630155 0.
0.628001 0.0630151 0.
0.630001 0.0630148 0.
0.632001 0.0630145 0.
0.634001 0.0630142 0.
0.636001 0.0630136 0.
0.638002 0.0630131 0.
0.640002 0.0630124 0.
0.642002 0.0630115 0.
0.644001 0.0630107 0.
0.646001 0.0630102 0.
0.648001 0.0630099 0.
0.650001 0.0630095 0.
0.652001 0.0630088 0.
0.654002 0.063008 0.
0.656002 0.0630072 0.
0.658003 0.0630066 0.
0.660003 0.0630059 0.
0.662004 0.0630054 0.
0.664004 0.0630051 0.
0.666004 0.0630048 0.
0.668005 0.063005 0.
0.670005 0.0630055 0.
0.672005 0.0630061 0.
0.674006 0.0630055 0.
0.676007 0.0630048 0.
0.678007 0.0630043 0.
0.680007 0.0630046 0.
0.682007 0.0630049 0.
0.684008 0.0630055 0.
0.686008 0.0630066 0.
0.688009 0.0630077 0.
0.690009 0.0630088 0.
0.692009 0.0630097 0.
0.694009 0.0630106 0.
0.69601 0.0630119 0.
0.69801 0.0630133 0.
0.499994 0.0650146 0.
0.501995 0.0650135 0.
0.503996 0.0650121 0.
0.505996 0.0650108 0.
0.507997 0.0650098 0.
0.509997 0.0650089 0.
0.511998 0.0650084 0.
0.513998 0.0650086 0.
0.515999 0.0650087 0.
0.517999 0.0650085 0.
0.519999 0.0650081 0.
0.522 0.0650077 0.
0.524 0.0650074 0.
0.525999 0.0650071 0.
0.527999 0.0650069 0.
0.529999 0.0650072 0.
0.531999 0.0650075 0.
0.533999 0.0650076 0.
0.535999 0.0650074 0.
0.537999 0.0650073 0.
0.539999 0.065008 0.
0.541999 0.0650094 0.
0.543998 0.0650108 0.
0.545999 0.0650112 0.
0.547999 0.0650113 0.
0.55 0.0650115 0.
0.552 0.065013 0.
0.553999 0.0650145 0.
0.555999 0.0650158 0.
0.557999 0.0650162 0.
0.559999 0.0650166 0.
0.561999 0.0650169 0.
0.563999 0.0650171 0.
0.565999 0.0650172 0.
0.567999 0.0650176 0.
0.569999 0.065018 0.
0.571998 0.0650185 0.
0.573998 0.0650185 0.
0.575999 0.0650184 0.
0.577999 0.0650184 0.
0.579999 0.0650186 0.
0.582 0.0650188 0.
0.584 0.0650189 0.
0.585999 0.0650189 0.
0.587999 0.0650188 0.
0.589999 0.0650186 0.
0.591999 0.0650183 0.
0.593999 0.0650181 0.
0.595999 0.0650186 0.
0.597999 0.0650195 0.
0.6 0.0650203 0.
0.602001 0.0650195 0.
0.604001 0.0650188 0.
0.606002 0.0650182 0.
0.608001 0.0650186 0.
0.610001 0.065019 0.
0.612001 0.0650191 0.
0.614001 0.0650187 0.
0.616001 0.0650184 0.
0.618001 0.0650178 0.
0.62 0.0650172 0.
0.621999 0.0650165 0.
0.623999 0.065016 0.
0.626 0.0650155 0.
0.628 0.0650151 0.
0.63 0.0650149 0.
0.632 0.0650147 0.
0.634 0.0650144 0.
0.636001 0.0650138 0.
0.638001 0.0650131 0.
0.640002 0.0650124 0.
0.642001 0.0650116 0.
0.644001 0.0650108 0.
0.646001 0.0650105 0.
0.648001 0.0650103 0.
0.650001 0.0650102 0.
0.652001 0.0650092 0.
0.654001 0.0650082 0.
0.656001 0.0650073 0.
0.658002 0.0650068 0.
0.660003 0.0650062 0.
0.662003 0.0650058 0.
0.664003 0.0650054 0.
0.666003 0.065005 0.
0.668004 0.065005 0.
0.670004 0.0650053 0.
0.672005 0.0650056 0.
0.674005 0.0650051 0.
0.676006 0.0650044 0.
0.678006 0.0650039 0.
0.680007 0.0650046 0.
0.682007 0.0650053 0.
0.684007 0.065006 0.
0.686007 0.0650067 0.
0.688007 0.0650075 0.
0.690007 0.0650084 0.
0.692007 0.0650094 0.
0.694007 0.0650104 0.
0.696008 0.0650117 0.
0.698009 0.0650131 0.
0.499996 0.0670139 0.
0.501996 0.0670129 0.
0.503997 0.0670116 0.
0.505997 0.0670104 0.
0.507998 0.0670099 0.
0.509999 0.0670094 0.
0.511999 0.067009 0.
0.513999 0.0670086 0.
0.516 0.0670082 0.
0.518 0.067008 0.
0.52 0.0670079 0.
0.522 0.0670078 0.
0.524 0.0670077 0.
0.526 0.0670077 0.
0.528 0.0670076 0.
0.53 0.0670078 0.
0.532 0.067008 0.
0.533999 0.067008 0.
0.535999 0.0670079 0.
0.537999 0.0670077 0.
0.539999 0.0670083 0.
0.541999 0.0670095 0.
0.543998 0.0670107 0.
0.545998 0.0670112 0.
0.547999 0.0670113 0.
0.549999 0.0670115 0.
0.551999 0.0670131 0.
0.553999 0.0670146 0.
0.555999 0.0670158 0.
0.557999 0.0670163 0.
0.559999 0.0670167 0.
0.561999 0.067017 0.
0.563999 0.0670171 0.
0.565999 0.0670172 0.
0.567999 0.0670174 0.
0.569999 0.0670177 0.
0.571999 0.067018 0.
0.573999 0.0670182 0.
0.575999 0.0670184 0.
0.577999 0.0670185 0.
0.579999 0.0670186 0.
0.582 0.0670186 0.
0.584 0.0670186 0.
0.586 0.0670186 0.
0.588 0.0670185 0.
0.59 0.0670185 0.
0.592 0.0670185 0.
0.594 0.0670184 0.
0.596 0.0670185 0.
0.598 0.0670187 0.
0.6 0.0670188 0.
0.602001 0.0670186 0.
0.604002 0.0670183 0.
0.606002 0.0670182 0.
0.608002 0.0670185 0.
0.610001 0.0670189 0.
0.612001 0.0670189 0.
0.614001 0.0670186 0.
0.616001 0.0670182 0.
0.618001 0.0670178 0.
0.62 0.0670173 0.
0.621999 0.0670168 0.
0.623999 0.0670162 0.
0.625999 0.0670156 0.
0.627999 0.0670151 0.
0.63 0.0670148 0.
0.632 0.0670145 0.
0.634 0.0670141 0.
0.636001 0.0670137 0.
0.638001 0.0670134 0.
0.640001 0.0670127 0.
0.642001 0.0670118 0.
0.644001 0.0670108 0.
0.646001 0.0670104 0.
0.648001 0.0670102 0.
0.650001 0.0670099 0.
0.652001 0.0670089 0.
0.654001 0.0670079 0.
0.656001 0.067007 0.
0.658001 0.0670066 0.
0.660002 0.0670062 0.
0.662003 0.0670058 0.
0.664003 0.0670054 0.
0.666003 0.0670051 0.
0.668003 0.067005 0.
0.670004 0.0670051 0.
0.672004 0.0670051 0.
0.674004 0.0670048 0.
0.676005 0.0670045 0.
0.678005 0.0670042 0.
0.680005 0.0670048 0.
0.682006 0.0670053 0.
0.684006 0.067006 0.
0.686006 0.0670068 0.
0.688006 0.0670077 0.
0.690006 0.0670085 0.
0.692006 0.0670093 0.
0.694006 0.0670101 0.
0.696007 0.0670112 0.
0.698007 0.0670124 0.
0.499998 0.0690134 0.
0.501998 0.0690123 0.
0.503998 0.069011 0.
0.505999 0.0690101 0.
0.507999 0.06901 0.
0.51 0.06901 0.
0.512 0.0690095 0.
0.514001 0.0690086 0.
0.516001 0.0690077 0.
0.518001 0.0690075 0.
0.520001 0.0690077 0.
0.522001 0.0690079 0.
0.524001 0.0690081 0.
0.526001 0.0690082 0.
0.528001 0.0690083 0.
0.53 0.0690084 0.
0.532 0.0690085 0.
0.533999 0.0690085 0.
0.535999 0.0690083 0.
0.537999 0.0690081 0.
0.539999 0.0690086 0.
0.541999 0.0690096 0.
0.543998 0.0690107 0.
0.545998 0.0690111 0.
0.547998 0.0690114 0.
0.549998 0.0690116 0.
0.551998 0.0690131 0.
0.553998 0.0690146 0.
0.555999 0.0690159 0.
0.557999 0.0690163 0.
0.559999 0.0690168 0.
0.561999 0.069017 0.
0.563999 0.069017 0.
0.565999 0.0690171 0.
0.567999 0.0690172 0.
0.569999 0.0690173 0.
0.571999 0.0690175 0.
0.573999 0.0690179 0.
0.575999 0.0690183 0.
0.577999 0.0690187 0.
0.579999 0.0690186 0.
0.582 0.0690185 0.
0.584 0.0690184 0.
0.586 0.0690183 0.
0.588 0.0690182 0.
0.59 0.0690183 0.
0.592001 0.0690186 0.
0.594001 0.0690188 0.
0.596001 0.0690184 0.
0.598 0.0690179 0.
0.6 0.0690173 0.
0.602001 0.0690176 0.
0.604002 0.0690178 0.
0.606002 0.0690181 0.
0.608002 0.0690184 0.
0.610001 0.0690188 0.
0.612001 0.0690188 0.
0.614001 0.0690184 0.
0.616001 0.0690181 0.
0.618 0.0690178 0.
0.62 0.0690175 0.
0.622 0.0690172 0.
0.623999 0.0690165 0.
0.625999 0.0690157 0.
0.627999 0.069015 0.
0.629999 0.0690146 0.
0.632 0.0690142 0.
0.634 0.0690138 0.
0.636001 0.0690137 0.
0.638001 0.0690136 0.
0.640001 0.069013 0.
0.642001 0.0690119 0.
0.644002 0.0690108 0.
0.646001 0.0690103 0.
0.648001 0.06901 0.
0.650001 0.0690097 0.
0.652001 0.0690087 0.
0.654001 0.0690077 0.
0.656001 0.0690068 0.
0.658001 0.0690065 0.
0.660001 0.0690061 0.
0.662002 0.0690058 0.
0.664002 0.0690055 0.
0.666002 0.0690052 0.
0.668002 0.069005 0.
0.670003 0.0690048 0.
0.672003 0.0690046 0.
0.674004 0.0690046 0.
0.676004 0.0690045 0.
0.678004 0.0690045 0.
0.680004 0.069005 0.
0.682005 0.0690054 0.
0.684005 0.0690059 0.
0.686005 0.0690069 0.
0.688004 0.0690079 0.
0.690004 0.0690087 0.
0.692005 0.0690092 0.
0.694005 0.0690098 0.
0.696005 0.0690107 0.
0.698005 0.0690117 0.
0.499999 0.0710126 0.
0.501999 0.0710115 0.
0.504 0.0710105 0.
0.506 0.0710097 0.
0.508 0.0710098 0.
0.510001 0.0710098 0.
0.512002 0.0710095 0.
0.514002 0.0710085 0.
0.516002 0.0710076 0.
0.518002 0.0710075 0.
0.520002 0.0710079 0.
0.522002 0.0710082 0.
0.524002 0.0710083 0.
0.526002 0.0710084 0.
0.528001 0.0710085 0.
0.530001 0.0710087 0.
0.532001 0.0710089 0.
0.534 0.071009 0.
0.536 0.0710089 0.
0.538 0.0710087 0.
0.539999 0.0710092 0.
0.541999 0.07101 0.
0.543999 0.0710109 0.
0.545998 0.0710112 0.
0.547998 0.0710113 0.
0.549998 0.0710114 0.
0.551998 0.0710129 0.
0.553999 0.0710145 0.
0.555999 0.0710157 0.
0.557999 0.0710162 0.
0.559999 0.0710167 0.
0.561999 0.071017 0.
0.563999 0.0710169 0.
0.565999 0.0710168 0.
0.567999 0.0710169 0.
0.569999 0.071017 0.
0.572 0.0710171 0.
0.574 0.0710177 0.
0.576 0.0710183 0.
0.577999 0.0710188 0.
0.58 0.0710187 0.
0.582 0.0710186 0.
0.584 0.0710185 0.
0.586 0.0710183 0.
0.588001 0.0710182 0.
0.590001 0.0710183 0.
0.592001 0.0710186 0.
0.594001 0.071019 0.
0.596001 0.0710184 0.
0.598001 0.0710176 0.
0.6 0.0710168 0.
0.602001 0.0710173 0.
0.604002 0.0710179 0.
0.606002 0.0710183 0.
0.608001 0.0710186 0.
0.610001 0.0710188 0.
0.612001 0.0710188 0.
0.614001 0.0710185 0.
0.616001 0.0710181 0.
0.618 0.0710179 0.
0.62 0.0710178 0.
0.622 0.0710176 0.
0.624 0.0710168 0.
0.625999 0.0710159 0.
0.627999 0.071015 0.
0.63 0.0710145 0.
0.632 0.0710141 0.
0.634 0.0710137 0.
0.636 0.0710137 0.
0.638001 0.0710137 0.
0.640001 0.0710131 0.
0.642001 0.0710121 0.
0.644001 0.0710112 0.
0.646001 0.0710105 0.
0.648001 0.07101 0.
0.65 0.0710095 0.
0.652 0.0710086 0.
0.654 0.0710077 0.
0.656 0.0710069 0.
0.658 0.0710065 0.
0.66 0.0710061 0.
0.662001 0.0710058 0.
0.664001 0.0710055 0.
0.666001 0.0710052 0.
0.668001 0.071005 0.
0.670002 0.0710048 0.
0.672002 0.0710047 0.
0.674003 0.0710047 0.
0.676003 0.0710047 0.
0.678003 0.0710047 0.
0.680003 0.0710051 0.
0.682003 0.0710056 0.
0.684003 0.0710061 0.
0.686003 0.071007 0.
0.688003 0.0710078 0.
0.690003 0.0710085 0.
0.692004 0.0710092 0.
0.694004 0.0710098 0.
0.696004 0.0710105 0.
0.698004 0.0710111 0.
0.5 0.0730116 0.
0.502 0.0730107 0.
0.504001 0.0730099 0.
0.506001 0.0730093 0.
0.508001 0.0730092 0.
0.510002 0.073009 0.
0.512002 0.0730088 0.
0.514003 0.0730084 0.
0.516003 0.073008 0.
0.518003 0.0730081 0.
0.520003 0.0730083 0.
0.522002 0.0730086 0.
0.524002 0.0730084 0.
0.526002 0.0730082 0.
0.528002 0.0730081 0.
0.530002 0.0730087 0.
0.532002 0.0730093 0.
0.534001 0.0730097 0.
0.536001 0.0730097 0.
0.538 0.0730096 0.
0.54 0.07301 0.
0.542 0.0730107 0.
0.544 0.0730113 0.
0.546 0.0730114 0.
0.548 0.0730112 0.
0.55 0.0730111 0.
0.552 0.0730126 0.
0.553999 0.0730141 0.
0.555999 0.0730154 0.
0.558 0.073016 0.
0.56 0.0730166 0.
0.562 0.0730169 0.
0.564 0.0730167 0.
0.566 0.0730165 0.
0.568 0.0730166 0.
0.57 0.0730168 0.
0.572 0.073017 0.
0.574 0.0730176 0.
0.576 0.0730183 0.
0.578 0.073019 0.
0.58 0.073019 0.
0.582 0.073019 0.
0.584 0.073019 0.
0.586001 0.0730186 0.
0.588001 0.0730183 0.
0.590001 0.0730183 0.
0.592001 0.0730187 0.
0.594001 0.0730191 0.
0.596001 0.0730186 0.
0.598001 0.0730179 0.
0.6 0.0730173 0.
0.602001 0.0730178 0.
0.604001 0.0730184 0.
0.606001 0.0730189 0.
0.608001 0.0730189 0.
0.610001 0.073019 0.
0.612001 0.0730189 0.
0.614001 0.0730186 0.
0.616001 0.0730183 0.
0.618 0.0730182 0.
0.62 0.0730182 0.
0.622 0.0730181 0.
0.624 0.0730172 0.
0.626 0.0730161 0.
0.628 0.0730151 0.
0.63 0.0730146 0.
0.632 0.0730141 0.
0.634 0.0730138 0.
0.636 0.0730137 0.
0.638 0.0730136 0.
0.64 0.0730132 0.
0.642 0.0730125 0.
0.644001 0.0730119 0.
0.646001 0.073011 0.
0.648 0.0730102 0.
0.65 0.0730093 0.
0.652 0.0730086 0.
0.654 0.073008 0.
0.656 0.0730074 0.
0.658 0.0730067 0.
0.66 0.0730061 0.
0.661999 0.0730057 0.
0.664 0.0730054 0.
0.666 0.0730051 0.
0.668 0.0730051 0.
0.670001 0.0730052 0.
0.672001 0.0730052 0.
0.674002 0.0730051 0.
0.676002 0.0730049 0.
0.678002 0.0730048 0.
0.680002 0.0730053 0.
0.682002 0.0730059 0.
0.684002 0.0730064 0.
0.686002 0.0730069 0.
0.688002 0.0730074 0.
0.690002 0.0730082 0.
0.692002 0.0730091 0.
0.694003 0.0730101 0.
0.696003 0.0730105 0.
0.698004 0.0730107 0.
0.500002 0.0750103 0.
0.502002 0.0750098 0.
0.504002 0.0750094 0.
0.506002 0.0750089 0.
0.508002 0.0750086 0.
0.510003 0.0750082 0.
0.512003 0.0750081 0.
0.514003 0.0750082 0.
0.516004 0.0750084 0.
0.518004 0.0750086 0.
0.520003 0.0750087 0.
0.522003 0.0750089 0.
0.524003 0.0750085 0.
0.526003 0.0750081 0.
0.528002 0.0750078 0.
0.530003 0.0750088 0.
0.532003 0.0750098 0.
0.534002 0.0750104 0.
0.536002 0.0750105 0.
0.538001 0.0750106 0.
0.540001 0.0750108 0.
0.542001 0.0750113 0.
0.544 0.0750118 0.
0.546001 0.0750116 0.
0.548001 0.0750112 0.
0.550001 0.0750107 0.
0.552001 0.0750122 0.
0.554 0.0750138 0.
0.556 0.0750151 0.
0.558001 0.0750158 0.
0.560001 0.0750165 0.
0.562001 0.0750167 0.
0.564001 0.0750164 0.
0.566 0.0750161 0.
0.568 0.0750162 0.
0.57 0.0750165 0.
0.572 0.0750168 0.
0.574 0.0750176 0.
0.576 0.0750184 0.
0.578 0.0750191 0.
0.58 0.0750193 0.
0.582001 0.0750195 0.
0.584001 0.0750194 0.
0.586001 0.0750189 0.
0.588001 0.0750184 0.
0.590001 0.0750184 0.
0.592001 0.0750188 0.
0.594 0.0750191 0.
0.596 0.0750188 0.
0.598 0.0750182 0.
0.6 0.0750177 0.
0.602 0.0750184 0.
0.604 0.075019 0.
0.606 0.0750195 0.
0.608 0.0750193 0.
0.610001 0.0750191 0.
0.612001 0.075019 0.
0.614001 0.0750188 0.
0.616 0.0750186 0.
0.618 0.0750186 0.
0.62 0.0750186 0.
0.622 0.0750187 0.
0.624 0.0750176 0.
0.626001 0.0750163 0.
0.628001 0.0750151 0.
0.63 0.0750147 0.
0.632 0.0750142 0.
0.634 0.0750138 0.
0.635999 0.0750136 0.
0.637999 0.0750135 0.
0.639999 0.0750132 0.
0.642 0.0750129 0.
0.644 0.0750126 0.
0.646 0.0750115 0.
0.648 0.0750103 0.
0.649999 0.0750091 0.
0.652 0.0750087 0.
0.654 0.0750083 0.
0.656 0.0750078 0.
0.657999 0.075007 0.
0.659999 0.0750062 0.
0.661998 0.0750056 0.
0.663998 0.0750054 0.
0.665999 0.0750051 0.
0.667999 0.0750052 0.
0.67 0.0750055 0.
0.672 0.0750058 0.
0.674001 0.0750054 0.
0.676001 0.0750051 0.
0.678001 0.0750048 0.
0.680001 0.0750055 0.
0.682 0.0750063 0.
0.684 0.0750068 0.
0.686001 0.0750069 0.
0.688001 0.075007 0.
0.690001 0.0750078 0.
0.692001 0.0750091 0.
0.694002 0.0750104 0.
0.696002 0.0750106 0.
0.698004 0.0750104 0.
0.500003 0.0770103 0.
0.502002 0.0770097 0.
0.504002 0.0770093 0.
0.506002 0.0770089 0.
0.508003 0.0770086 0.
0.510003 0.0770083 0.
0.512004 0.0770082 0.
0.514004 0.0770085 0.
0.516004 0.0770088 0.
0.518004 0.0770089 0.
0.520003 0.0770089 0.
0.522003 0.077009 0.
0.524003 0.0770087 0.
0.526003 0.0770083 0.
0.528003 0.0770081 0.
0.530003 0.0770089 0.
0.532003 0.0770097 0.
0.534003 0.0770102 0.
0.536002 0.0770102 0.
0.538002 0.0770102 0.
0.540001 0.0770104 0.
0.542001 0.0770109 0.
0.544001 0.0770114 0.
0.546001 0.0770116 0.
0.548001 0.0770117 0.
0.550001 0.0770118 0.
0.552001 0.077013 0.
0.554 0.0770142 0.
0.556 0.0770152 0.
0.558 0.0770159 0.
0.560001 0.0770166 0.
0.562001 0.0770168 0.
0.564001 0.0770166 0.
0.566001 0.0770163 0.
0.568 0.0770163 0.
0.57 0.0770164 0.
0.572 0.0770165 0.
0.574 0.0770174 0.
0.576 0.0770183 0.
0.578001 0.0770192 0.
0.580001 0.0770193 0.
0.582001 0.0770194 0.
0.584001 0.0770194 0.
0.586001 0.0770191 0.
0.588001 0.0770189 0.
0.590001 0.0770189 0.
0.592 0.077019 0.
0.594 0.0770191 0.
0.596 0.0770188 0.
0.598 0.0770185 0.
0.6 0.0770182 0.
0.602 0.0770185 0.
0.604 0.0770189 0.
0.606 0.0770192 0.
0.608 0.0770192 0.
0.610001 0.0770193 0.
0.612001 0.0770191 0.
0.614001 0.0770187 0.
0.616001 0.0770183 0.
0.618 0.0770181 0.
0.62 0.0770181 0.
0.622 0.0770181 0.
0.624 0.0770172 0.
0.626 0.0770162 0.
0.628 0.0770152 0.
0.63 0.0770147 0.
0.632 0.0770141 0.
0.634 0.0770137 0.
0.636 0.0770136 0.
0.638 0.0770136 0.
0.64 0.0770133 0.
0.642 0.0770129 0.
0.644 0.0770124 0.
0.646 0.0770116 0.
0.648 0.0770106 0.
0.65 0.0770096 0.
0.652 0.0770092 0.
0.654 0.0770088 0.
0.655999 0.0770083 0.
0.657999 0.0770074 0.
0.659999 0.0770065 0.
0.661998 0.0770059 0.
0.663998 0.0770058 0.
0.665998 0.0770056 0.
0.667999 0.0770057 0.
0.669999 0.0770059 0.
0.672 0.0770061 0.
0.674 0.0770058 0.
0.676 0.0770053 0.
0.678001 0.0770051 0.
0.68 0.0770058 0.
0.682 0.0770065 0.
0.684 0.077007 0.
0.686 0.0770071 0.
0.688 0.0770072 0.
0.69 0.0770077 0.
0.692001 0.0770085 0.
0.694001 0.0770093 0.
0.696002 0.0770101 0.
0.698003 0.0770108 0.
0.500004 0.07901 0.
0.502003 0.0790097 0.
0.504003 0.0790093 0.
0.506003 0.0790089 0.
0.508003 0.0790086 0.
0.510004 0.0790084 0.
0.512004 0.0790084 0.
0.514004 0.0790088 0.
0.516004 0.0790092 0.
0.518004 0.0790093 0.
0.520004 0.0790091 0.
0.522003 0.079009 0.
0.524003 0.0790088 0.
0.526003 0.0790085 0.
0.528003 0.0790084 0.
0.530003 0.079009 0.
0.532003 0.0790096 0.
0.534003 0.07901 0.
0.536003 0.0790099 0.
0.538002 0.0790098 0.
0.540002 0.07901 0.
0.542002 0.0790105 0.
0.544002 0.0790109 0.
0.546001 0.0790116 0.
0.548001 0.0790122 0.
0.550001 0.0790129 0.
0.552001 0.0790137 0.
0.554 0.0790145 0.
0.556 0.0790153 0.
0.558 0.079016 0.
0.56 0.0790167 0.
0.562 0.0790169 0.
0.564001 0.0790167 0.
0.566001 0.0790165 0.
0.568001 0.0790163 0.
0.570001 0.0790162 0.
0.572 0.0790161 0.
0.574001 0.0790172 0.
0.576001 0.0790183 0.
0.578001 0.0790193 0.
0.580001 0.0790193 0.
0.582001 0.0790193 0.
0.584002 0.0790193 0.
0.586001 0.0790194 0.
0.588001 0.0790194 0.
0.590001 0.0790193 0.
0.592 0.0790192 0.
0.594 0.079019 0.
0.596 0.0790189 0.
0.598 0.0790188 0.
0.6 0.0790187 0.
0.602 0.0790187 0.
0.604 0.0790187 0.
0.606 0.0790188 0.
0.608 0.0790191 0.
0.61 0.0790195 0.
0.612 0.0790193 0.
0.614001 0.0790187 0.
0.616001 0.079018 0.
0.618001 0.0790177 0.
0.620001 0.0790176 0.
0.622 0.0790174 0.
0.624 0.0790168 0.
0.626 0.079016 0.
0.628 0.0790153 0.
0.63 0.0790147 0.
0.632 0.079014 0.
0.634 0.0790136 0.
0.636 0.0790137 0.
0.638 0.0790137 0.
0.64 0.0790134 0.
0.642 0.0790128 0.
0.644 0.0790123 0.
0.646 0.0790116 0.
0.648001 0.0790109 0.
0.650001 0.0790102 0.
0.652 0.0790097 0.
0.653999 0.0790093 0.
0.655999 0.0790087 0.
0.657999 0.0790078 0.
0.659999 0.0790069 0.
0.661999 0.0790063 0.
0.663998 0.0790062 0.
0.665998 0.079006 0.
0.667998 0.0790061 0.
0.669999 0.0790062 0.
0.671999 0.0790064 0.
0.674 0.0790061 0.
0.676 0.0790056 0.
0.678 0.0790053 0.
0.68 0.079006 0.
0.682 0.0790067 0.
0.684 0.0790072 0.
0.686 0.0790073 0.
0.688 0.0790074 0.
0.69 0.0790076 0.
0.692 0.0790079 0.
0.694 0.0790082 0.
0.696001 0.0790096 0.
0.698002 0.0790113 0.
0.500005 0.0810098 0.
0.502004 0.0810094 0.
0.504004 0.0810092 0.
0.506003 0.0810089 0.
0.508004 0.0810086 0.
0.510004 0.0810083 0.
0.512004 0.0810083 0.
0.514004 0.0810088 0.
0.516005 0.0810093 0.
0.518004 0.0810093 0.
0.520004 0.081009 0.
0.522003 0.0810087 0.
0.524003 0.0810085 0.
0.526003 0.0810083 0.
0.528003 0.0810082 0.
0.530003 0.0810089 0.
0.532003 0.0810097 0.
0.534003 0.0810101 0.
0.536003 0.0810099 0.
0.538003 0.0810096 0.
0.540002 0.0810099 0.
0.542002 0.0810105 0.
0.544002 0.081011 0.
0.546002 0.0810118 0.
0.548002 0.0810126 0.
0.550001 0.0810134 0.
0.552001 0.0810141 0.
0.554001 0.0810149 0.
0.556 0.0810155 0.
0.558 0.0810162 0.
0.56 0.0810168 0.
0.562 0.081017 0.
0.564001 0.0810168 0.
0.566001 0.0810167 0.
0.568001 0.0810165 0.
0.570001 0.0810164 0.
0.572001 0.0810163 0.
0.574001 0.0810173 0.
0.576001 0.0810184 0.
0.578001 0.0810193 0.
0.580001 0.0810194 0.
0.582002 0.0810194 0.
0.584002 0.0810194 0.
0.586001 0.0810195 0.
0.588001 0.0810196 0.
0.590001 0.0810195 0.
0.592 0.0810193 0.
0.594 0.0810191 0.
0.596 0.081019 0.
0.598 0.081019 0.
0.6 0.081019 0.
0.602 0.0810189 0.
0.604 0.0810187 0.
0.606001 0.0810187 0.
0.608 0.0810191 0.
0.61 0.0810195 0.
0.612 0.0810195 0.
0.614 0.0810188 0.
0.616 0.0810181 0.
0.618 0.0810178 0.
0.62 0.0810176 0.
0.622 0.0810174 0.
0.624 0.0810168 0.
0.626 0.0810162 0.
0.628 0.0810155 0.
0.63 0.0810149 0.
0.632 0.0810142 0.
0.634 0.0810137 0.
0.636 0.0810137 0.
0.638 0.0810136 0.
0.64 0.0810133 0.
0.642 0.0810128 0.
0.644 0.0810122 0.
0.646 0.0810117 0.
0.648001 0.0810111 0.
0.650001 0.0810105 0.
0.652 0.0810102 0.
0.653999 0.08101 0.
0.655999 0.0810095 0.
0.657999 0.0810085 0.
0.659999 0.0810074 0.
0.661999 0.0810067 0.
0.663998 0.0810065 0.
0.665998 0.0810062 0.
0.667998 0.0810062 0.
0.669998 0.0810063 0.
0.671999 0.0810064 0.
0.673999 0.0810062 0.
0.675999 0.0810059 0.
0.678 0.0810057 0.
0.68 0.0810062 0.
0.682 0.0810067 0.
0.684 0.0810071 0.
0.686 0.0810073 0.
0.687999 0.0810076 0.
0.689999 0.0810078 0.
0.691999 0.0810079 0.
0.693999 0.081008 0.
0.696 0.0810093 0.
0.698001 0.0810108 0.
0.500005 0.0830094 0.
0.502005 0.0830091 0.
0.504005 0.083009 0.
0.506005 0.0830088 0.
0.508004 0.0830084 0.
0.510004 0.083008 0.
0.512004 0.083008 0.
0.514005 0.0830086 0.
0.516005 0.0830091 0.
0.518005 0.083009 0.
0.520004 0.0830085 0.
0.522004 0.0830081 0.
0.524003 0.0830079 0.
0.526003 0.0830077 0.
0.528003 0.0830077 0.
0.530003 0.0830088 0.
0.532003 0.0830099 0.
0.534003 0.0830105 0.
0.536003 0.0830101 0.
0.538003 0.0830097 0.
0.540003 0.08301 0.
0.542003 0.0830108 0.
0.544003 0.0830116 0.
0.546003 0.0830122 0.
0.548002 0.0830128 0.
0.550002 0.0830134 0.
0.552001 0.0830142 0.
0.554001 0.0830151 0.
0.556001 0.0830159 0.
0.558001 0.0830164 0.
0.560001 0.0830169 0.
0.562001 0.0830171 0.
0.564001 0.083017 0.
0.566001 0.0830169 0.
0.568001 0.0830169 0.
0.570001 0.0830169 0.
0.572002 0.0830169 0.
0.574001 0.0830177 0.
0.576001 0.0830185 0.
0.578001 0.0830193 0.
0.580001 0.0830195 0.
0.582001 0.0830196 0.
0.584001 0.0830197 0.
0.586001 0.0830196 0.
0.588001 0.0830195 0.
0.590001 0.0830194 0.
0.592001 0.0830194 0.
0.594 0.0830193 0.
0.596 0.0830193 0.
0.598 0.0830193 0.
0.6 0.0830193 0.
0.602 0.0830191 0.
0.604 0.0830189 0.
0.606 0.0830188 0.
0.608 0.0830192 0.
0.61 0.0830196 0.
0.612 0.0830196 0.
0.614 0.0830191 0.
0.616 0.0830187 0.
0.618 0.0830184 0.
0.62 0.0830181 0.
0.622 0.0830179 0.
0.624 0.0830172 0.
0.626 0.0830165 0.
0.628 0.0830159 0.
0.63 0.0830152 0.
0.632 0.0830146 0.
0.634 0.0830141 0.
0.636 0.0830138 0.
0.637999 0.0830134 0.
0.639999 0.0830131 0.
0.642 0.0830127 0.
0.644 0.0830123 0.
0.646 0.0830117 0.
0.648 0.0830112 0.
0.65 0.0830106 0.
0.652 0.0830107 0.
0.654 0.0830108 0.
0.655999 0.0830106 0.
0.657999 0.0830094 0.
0.659999 0.0830082 0.
0.661998 0.0830073 0.
0.663998 0.0830067 0.
0.665998 0.0830062 0.
0.667998 0.083006 0.
0.669998 0.083006 0.
0.671998 0.0830061 0.
0.673999 0.0830061 0.
0.675999 0.0830062 0.
0.677999 0.0830062 0.
0.679999 0.0830064 0.
0.681999 0.0830065 0.
0.683999 0.0830068 0.
0.685999 0.0830072 0.
0.687999 0.0830077 0.
0.689999 0.0830081 0.
0.691999 0.0830084 0.
0.693999 0.0830088 0.
0.696 0.0830091 0.
0.698 0.0830094 0.
0.500005 0.0850091 0.
0.502005 0.0850088 0.
0.504006 0.0850088 0.
0.506006 0.0850087 0.
0.508005 0.0850083 0.
0.510005 0.0850078 0.
0.512005 0.0850078 0.
0.514005 0.0850083 0.
0.516006 0.0850088 0.
0.518005 0.0850086 0.
0.520004 0.0850081 0.
0.522004 0.0850075 0.
0.524003 0.0850073 0.
0.526003 0.0850071 0.
0.528002 0.0850071 0.
0.530002 0.0850086 0.
0.532003 0.0850101 0.
0.534003 0.0850109 0.
0.536003 0.0850103 0.
0.538003 0.0850097 0.
0.540003 0.0850101 0.
0.542003 0.0850112 0.
0.544004 0.0850122 0.
0.546003 0.0850127 0.
0.548003 0.085013 0.
0.550002 0.0850133 0.
0.552002 0.0850143 0.
0.554002 0.0850153 0.
0.556001 0.0850162 0.
0.558001 0.0850166 0.
0.560002 0.0850171 0.
0.562001 0.0850173 0.
0.564001 0.0850172 0.
0.566001 0.0850171 0.
0.568001 0.0850172 0.
0.570002 0.0850173 0.
0.572002 0.0850175 0.
0.574002 0.0850181 0.
0.576001 0.0850187 0.
0.578 0.0850193 0.
0.580001 0.0850196 0.
0.582001 0.0850199 0.
0.584001 0.0850199 0.
0.586001 0.0850196 0.
0.588 0.0850194 0.
0.59 0.0850193 0.
0.592001 0.0850194 0.
0.594001 0.0850196 0.
0.596001 0.0850196 0.
0.598001 0.0850196 0.
0.600001 0.0850195 0.
0.602001 0.0850193 0.
0.604001 0.085019 0.
0.606 0.0850189 0.
0.608 0.0850193 0.
0.61 0.0850196 0.
0.611999 0.0850197 0.
0.613999 0.0850195 0.
0.615999 0.0850192 0.
0.617999 0.085019 0.
0.619999 0.0850187 0.
0.621999 0.0850184 0.
0.624 0.0850177 0.
0.626 0.0850169 0.
0.628 0.0850162 0.
0.63 0.0850156 0.
0.632 0.085015 0.
0.633999 0.0850144 0.
0.635999 0.0850138 0.
0.637999 0.0850132 0.
0.639999 0.0850128 0.
0.641999 0.0850125 0.
0.644 0.0850123 0.
0.646 0.0850118 0.
0.648 0.0850112 0.
0.65 0.0850106 0.
0.652 0.0850111 0.
0.654 0.0850116 0.
0.656 0.0850117 0.
0.657999 0.0850103 0.
0.659999 0.0850089 0.
0.661998 0.0850078 0.
0.663998 0.085007 0.
0.665998 0.0850061 0.
0.667998 0.0850058 0.
0.669998 0.0850058 0.
0.671998 0.0850057 0.
0.673998 0.0850061 0.
0.675999 0.0850065 0.
0.677999 0.0850068 0.
0.679999 0.0850066 0.
0.681999 0.0850064 0.
0.683999 0.0850064 0.
0.685999 0.0850071 0.
0.688 0.0850078 0.
0.689999 0.0850085 0.
0.691999 0.085009 0.
0.693999 0.0850096 0.
0.695999 0.0850089 0.
0.698 0.0850081 0.
0.500006 0.0870093 0.
0.502006 0.087009 0.
0.504007 0.087009 0.
0.506006 0.087009 0.
0.508006 0.0870084 0.
0.510006 0.0870078 0.
0.512006 0.0870078 0.
0.514005 0.0870083 0.
0.516005 0.0870088 0.
0.518005 0.0870086 0.
0.520005 0.0870082 0.
0.522004 0.0870077 0.
0.524004 0.0870076 0.
0.526003 0.0870075 0.
0.528003 0.0870075 0.
0.530003 0.0870086 0.
0.532003 0.0870097 0.
0.534003 0.0870103 0.
0.536003 0.0870102 0.
0.538003 0.0870101 0.
0.540003 0.0870105 0.
0.542003 0.0870114 0.
0.544003 0.0870123 0.
0.546003 0.0870129 0.
0.548002 0.0870134 0.
0.550002 0.0870139 0.
0.552002 0.0870146 0.
0.554002 0.0870154 0.
0.556002 0.0870161 0.
0.558002 0.0870165 0.
0.560001 0.087017 0.
0.562001 0.0870172 0.
0.564001 0.0870172 0.
0.566001 0.0870172 0.
0.568001 0.0870173 0.
0.570002 0.0870175 0.
0.572002 0.0870176 0.
0.574002 0.0870183 0.
0.576001 0.087019 0.
0.578001 0.0870197 0.
0.580001 0.0870198 0.
0.582001 0.0870199 0.
0.584001 0.0870199 0.
0.586001 0.0870197 0.
0.588001 0.0870196 0.
0.590001 0.0870195 0.
0.592001 0.0870195 0.
0.594001 0.0870196 0.
0.596001 0.0870196 0.
0.598001 0.0870197 0.
0.600001 0.0870197 0.
0.602001 0.0870195 0.
0.604001 0.0870193 0.
0.606001 0.0870192 0.
0.608 0.0870195 0.
0.61 0.0870197 0.
0.612 0.0870197 0.
0.614 0.0870195 0.
0.616 0.0870192 0.
0.617999 0.087019 0.
0.619999 0.0870189 0.
0.621999 0.0870188 0.
0.623999 0.087018 0.
0.626 0.0870172 0.
0.628 0.0870164 0.
0.63 0.0870158 0.
0.631999 0.0870151 0.
0.633999 0.0870144 0.
0.635999 0.0870137 0.
0.637999 0.0870129 0.
0.639999 0.0870124 0.
0.641999 0.0870121 0.
0.643999 0.0870117 0.
0.646 0.0870114 0.
0.648 0.087011 0.
0.65 0.0870107 0.
0.652 0.087011 0.
0.654 0.0870112 0.
0.656 0.0870112 0.
0.658 0.0870101 0.
0.659999 0.0870089 0.
0.661999 0.087008 0.
0.663999 0.0870072 0.
0.665999 0.0870065 0.
0.667999 0.0870062 0.
0.669998 0.0870061 0.
0.671998 0.087006 0.
0.673999 0.0870062 0.
0.675999 0.0870065 0.
0.677999 0.0870067 0.
0.679999 0.0870066 0.
0.681999 0.0870065 0.
0.683999 0.0870067 0.
0.685999 0.0870073 0.
0.687999 0.087008 0.
0.689999 0.0870085 0.
0.691999 0.0870088 0.
0.693999 0.0870091 0.
0.696 0.0870086 0.
0.698 0.0870079 0.
0.500008 0.0890095 0.
0.502007 0.0890092 0.
0.504007 0.0890093 0.
0.506007 0.0890092 0.
0.508007 0.0890085 0.
0.510007 0.0890079 0.
0.512006 0.0890078 0.
0.514006 0.0890082 0.
0.516005 0.0890087 0.
0.518005 0.0890086 0.
0.520005 0.0890082 0.
0.522005 0.0890078 0.
0.524004 0.0890078 0.
0.526004 0.0890078 0.
0.528003 0.0890079 0.
0.530003 0.0890086 0.
0.532004 0.0890092 0.
0.534004 0.0890097 0.
0.536004 0.0890101 0.
0.538003 0.0890104 0.
0.540003 0.089011 0.
0.542003 0.0890116 0.
0.544002 0.0890123 0.
0.546002 0.089013 0.
0.548002 0.0890137 0.
0.550002 0.0890144 0.
0.552002 0.089015 0.
0.554002 0.0890155 0.
0.556002 0.0890161 0.
0.558002 0.0890165 0.
0.560001 0.0890169 0.
0.562001 0.0890172 0.
0.564001 0.0890173 0.
0.566001 0.0890174 0.
0.568002 0.0890175 0.
0.570002 0.0890176 0.
0.572002 0.0890177 0.
0.574002 0.0890185 0.
0.576002 0.0890193 0.
0.578001 0.0890201 0.
0.580001 0.0890201 0.
0.582001 0.08902 0.
0.584001 0.0890199 0.
0.586001 0.0890198 0.
0.588001 0.0890198 0.
0.590001 0.0890197 0.
0.592001 0.0890196 0.
0.594001 0.0890196 0.
0.596001 0.0890197 0.
0.598001 0.0890198 0.
0.600001 0.0890199 0.
0.602001 0.0890198 0.
0.604001 0.0890196 0.
0.606001 0.0890195 0.
0.608001 0.0890196 0.
0.61 0.0890198 0.
0.612 0.0890197 0.
0.614 0.0890194 0.
0.616 0.0890192 0.
0.618 0.0890191 0.
0.62 0.0890191 0.
0.621999 0.0890191 0.
0.623999 0.0890184 0.
0.625999 0.0890175 0.
0.627999 0.0890166 0.
0.629999 0.0890159 0.
0.631999 0.0890152 0.
0.633999 0.0890144 0.
0.635999 0.0890135 0.
0.637999 0.0890126 0.
0.639999 0.089012 0.
0.641999 0.0890116 0.
0.643999 0.0890111 0.
0.646 0.089011 0.
0.648 0.0890109 0.
0.65 0.0890108 0.
0.652001 0.0890108 0.
0.654001 0.0890108 0.
0.656001 0.0890107 0.
0.658 0.0890098 0.
0.66 0.0890089 0.
0.662 0.0890081 0.
0.664 0.0890075 0.
0.666 0.0890069 0.
0.667999 0.0890066 0.
0.669999 0.0890064 0.
0.671998 0.0890063 0.
0.673999 0.0890064 0.
0.675999 0.0890065 0.
0.678 0.0890066 0.
0.68 0.0890066 0.
0.681999 0.0890067 0.
0.683999 0.0890069 0.
0.685999 0.0890075 0.
0.687999 0.0890081 0.
0.689999 0.0890084 0.
0.691999 0.0890086 0.
0.694 0.0890087 0.
0.696 0.0890083 0.
0.698001 0.0890077 0.
0.500008 0.0910099 0.
0.502008 0.0910095 0.
0.504008 0.0910094 0.
0.506007 0.0910092 0.
0.508007 0.0910087 0.
0.510007 0.0910081 0.
0.512007 0.091008 0.
0.514006 0.0910083 0.
0.516006 0.0910086 0.
0.518005 0.0910085 0.
0.520005 0.0910082 0.
0.522006 0.091008 0.
0.524005 0.091008 0.
0.526004 0.0910081 0.
0.528004 0.0910081 0.
0.530004 0.0910085 0.
0.532004 0.0910088 0.
0.534004 0.0910093 0.
0.536003 0.09101 0.
0.538003 0.0910106 0.
0.540003 0.0910112 0.
0.542002 0.0910118 0.
0.544001 0.0910124 0.
0.546001 0.0910131 0.
0.548001 0.0910138 0.
0.550001 0.0910146 0.
0.552002 0.091015 0.
0.554002 0.0910155 0.
0.556002 0.091016 0.
0.558002 0.0910165 0.
0.560001 0.0910171 0.
0.562001 0.0910174 0.
0.564001 0.0910176 0.
0.566001 0.0910177 0.
0.568001 0.0910178 0.
0.570001 0.0910179 0.
0.572001 0.091018 0.
0.574001 0.0910186 0.
0.576001 0.0910193 0.
0.578001 0.0910199 0.
0.580001 0.0910199 0.
0.582001 0.0910199 0.
0.584001 0.0910199 0.
0.586001 0.0910198 0.
0.588001 0.0910198 0.
0.590001 0.0910197 0.
0.592001 0.0910197 0.
0.594001 0.0910196 0.
0.596001 0.0910197 0.
0.598001 0.0910199 0.
0.600001 0.09102 0.
0.602001 0.09102 0.
0.604001 0.0910199 0.
0.606001 0.0910199 0.
0.608001 0.0910199 0.
0.610001 0.0910199 0.
0.612 0.0910198 0.
0.614 0.0910195 0.
0.616 0.0910192 0.
0.618 0.0910191 0.
0.62 0.0910191 0.
0.622 0.0910191 0.
0.623999 0.0910183 0.
0.625999 0.0910173 0.
0.627999 0.0910163 0.
0.629999 0.0910157 0.
0.631999 0.091015 0.
0.633999 0.0910143 0.
0.635999 0.0910135 0.
0.638 0.0910127 0.
0.64 0.0910121 0.
0.642 0.0910115 0.
0.644 0.091011 0.
0.646 0.0910108 0.
0.648 0.0910108 0.
0.65 0.0910108 0.
0.652001 0.0910107 0.
0.654001 0.0910106 0.
0.656001 0.0910103 0.
0.658001 0.0910095 0.
0.66 0.0910088 0.
0.662 0.0910081 0.
0.664 0.0910076 0.
0.666 0.0910071 0.
0.668 0.0910068 0.
0.669999 0.0910066 0.
0.671999 0.0910065 0.
0.673999 0.0910065 0.
0.676 0.0910066 0.
0.678 0.0910066 0.
0.68 0.0910067 0.
0.682 0.0910068 0.
0.684 0.091007 0.
0.685999 0.0910076 0.
0.687999 0.0910082 0.
0.689999 0.0910085 0.
0.692 0.0910085 0.
0.694 0.0910085 0.
0.696 0.0910081 0.
0.698001 0.0910076 0.
0.500008 0.0930103 0.
0.502008 0.0930098 0.
0.504007 0.0930095 0.
0.506007 0.0930092 0.
0.508007 0.0930089 0.
0.510006 0.0930086 0.
0.512006 0.0930084 0.
0.514006 0.0930083 0.
0.516006 0.0930083 0.
0.518006 0.0930083 0.
0.520006 0.0930082 0.
0.522006 0.0930082 0.
0.524005 0.0930082 0.
0.526005 0.0930082 0.
0.528004 0.0930082 0.
0.530004 0.0930084 0.
0.532003 0.0930087 0.
0.534003 0.0930091 0.
0.536003 0.0930099 0.
0.538002 0.0930107 0.
0.540002 0.0930114 0.
0.542001 0.0930119 0.
0.544001 0.0930124 0.
0.546001 0.093013 0.
0.548001 0.0930137 0.
0.55 0.0930144 0.
0.552001 0.0930149 0.
0.554001 0.0930153 0.
0.556002 0.0930159 0.
0.558001 0.0930167 0.
0.560001 0.0930175 0.
0.562001 0.0930181 0.
0.564001 0.0930182 0.
0.566001 0.0930183 0.
0.568001 0.0930184 0.
0.570001 0.0930185 0.
0.572 0.0930185 0.
0.574 0.0930186 0.
0.576001 0.0930188 0.
0.578001 0.093019 0.
0.580001 0.0930193 0.
0.582001 0.0930196 0.
0.584001 0.0930197 0.
0.586001 0.0930197 0.
0.588001 0.0930197 0.
0.590001 0.0930196 0.
0.592001 0.0930196 0.
0.594001 0.0930195 0.
0.596001 0.0930197 0.
0.598 0.0930199 0.
0.6 0.0930201 0.
0.602 0.0930201 0.
0.604001 0.0930202 0.
0.606001 0.0930203 0.
0.608001 0.0930202 0.
0.61 0.09302 0.
0.612 0.0930199 0.
0.614001 0.0930195 0.
0.616001 0.0930192 0.
0.618 0.0930191 0.
0.62 0.0930189 0.
0.622 0.0930188 0.
0.623999 0.0930178 0.
0.625999 0.0930167 0.
0.627999 0.0930156 0.
0.629999 0.093015 0.
0.632 0.0930145 0.
0.634 0.093014 0.
0.636 0.0930136 0.
0.638 0.0930132 0.
0.64 0.0930127 0.
0.642 0.093012 0.
0.644 0.0930113 0.
0.646 0.093011 0.
0.648 0.0930108 0.
0.65 0.0930107 0.
0.652001 0.0930105 0.
0.654001 0.0930104 0.
0.656001 0.0930101 0.
0.658001 0.0930093 0.
0.66 0.0930084 0.
0.662 0.0930078 0.
0.664 0.0930075 0.
0.666 0.0930071 0.
0.668 0.0930068 0.
0.669999 0.0930066 0.
0.671999 0.0930064 0.
0.673999 0.0930066 0.
0.676 0.0930067 0.
0.678 0.0930069 0.
0.68 0.0930068 0.
0.682 0.0930067 0.
0.684 0.0930069 0.
0.686 0.0930076 0.
0.687999 0.0930082 0.
0.69 0.0930085 0.
0.692 0.0930086 0.
0.694 0.0930086 0.
0.696001 0.0930081 0.
0.698001 0.0930075 0.
0.500008 0.0950107 0.
0.502008 0.0950102 0.
0.504007 0.0950095 0.
0.506007 0.0950091 0.
0.508006 0.095009 0.
0.510006 0.095009 0.
0.512006 0.0950088 0.
0.514006 0.0950084 0.
0.516007 0.095008 0.
0.518007 0.095008 0.
0.520007 0.0950082 0.
0.522006 0.0950084 0.
0.524006 0.0950083 0.
0.526005 0.0950083 0.
0.528004 0.0950082 0.
0.530004 0.0950083 0.
0.532003 0.0950085 0.
0.534002 0.0950089 0.
0.536002 0.0950098 0.
0.538001 0.0950108 0.
0.540001 0.0950115 0.
0.542001 0.095012 0.
0.544001 0.0950124 0.
0.546 0.095013 0.
0.548 0.0950136 0.
0.549999 0.0950142 0.
0.552 0.0950147 0.
0.554001 0.0950152 0.
0.556001 0.0950158 0.
0.558001 0.0950169 0.
0.560001 0.095018 0.
0.562001 0.0950187 0.
0.564001 0.0950188 0.
0.566001 0.0950189 0.
0.568 0.095019 0.
0.57 0.095019 0.
0.571999 0.095019 0.
0.573999 0.0950187 0.
0.576 0.0950183 0.
0.578 0.0950181 0.
0.580001 0.0950187 0.
0.582001 0.0950193 0.
0.584001 0.0950196 0.
0.586001 0.0950196 0.
0.588001 0.0950195 0.
0.590001 0.0950195 0.
0.592001 0.0950195 0.
0.594 0.0950195 0.
0.596 0.0950197 0.
0.598 0.0950199 0.
0.599999 0.0950201 0.
0.602 0.0950203 0.
0.604001 0.0950205 0.
0.606001 0.0950207 0.
0.608001 0.0950204 0.
0.61 0.0950202 0.
0.612 0.09502 0.
0.614001 0.0950196 0.
0.616001 0.0950193 0.
0.618001 0.095019 0.
0.62 0.0950187 0.
0.622 0.0950185 0.
0.623999 0.0950173 0.
0.625999 0.095016 0.
0.627999 0.0950149 0.
0.63 0.0950144 0.
0.632 0.095014 0.
0.634001 0.0950137 0.
0.636001 0.0950137 0.
0.638001 0.0950137 0.
0.640001 0.0950132 0.
0.642001 0.0950124 0.
0.644001 0.0950115 0.
0.646001 0.0950111 0.
0.648001 0.0950109 0.
0.65 0.0950106 0.
0.652 0.0950104 0.
0.654 0.0950102 0.
0.656001 0.0950099 0.
0.658001 0.095009 0.
0.660001 0.0950081 0.
0.662 0.0950075 0.
0.664 0.0950073 0.
0.666 0.0950071 0.
0.667999 0.0950069 0.
0.67 0.0950067 0.
0.672 0.0950064 0.
0.674 0.0950066 0.
0.676 0.0950069 0.
0.678 0.0950071 0.
0.68 0.0950069 0.
0.682 0.0950066 0.
0.684 0.0950068 0.
0.686 0.0950075 0.
0.688 0.0950083 0.
0.69 0.0950086 0.
0.692 0.0950087 0.
0.694001 0.0950087 0.
0.696001 0.0950082 0.
0.698001 0.0950075 0.
0.500008 0.0970107 0.
0.502008 0.0970104 0.
0.504007 0.0970102 0.
0.506007 0.09701 0.
0.508006 0.0970093 0.
0.510006 0.0970087 0.
0.512006 0.0970082 0.
0.514006 0.0970079 0.
0.516006 0.0970076 0.
0.518006 0.0970078 0.
0.520006 0.0970082 0.
0.522005 0.0970086 0.
0.524005 0.0970087 0.
0.526004 0.0970087 0.
0.528004 0.0970087 0.
0.530003 0.0970088 0.
0.532003 0.0970088 0.
0.534002 0.0970092 0.
0.536001 0.0970102 0.
0.538001 0.0970112 0.
0.540001 0.0970118 0.
0.542001 0.097012 0.
0.544001 0.0970123 0.
0.546 0.0970128 0.
0.547999 0.0970134 0.
0.549999 0.0970139 0.
0.551999 0.0970147 0.
0.554 0.0970154 0.
0.556 0.0970161 0.
0.558001 0.0970169 0.
0.560001 0.0970176 0.
0.562001 0.0970181 0.
0.564001 0.0970185 0.
0.566 0.0970189 0.
0.568 0.0970191 0.
0.57 0.0970192 0.
0.572 0.0970194 0.
0.574 0.0970189 0.
0.575999 0.0970184 0.
0.577999 0.0970181 0.
0.58 0.0970184 0.
0.582 0.0970188 0.
0.584001 0.0970191 0.
0.586001 0.0970193 0.
0.588001 0.0970195 0.
0.590001 0.0970196 0.
0.592001 0.0970197 0.
0.594 0.0970198 0.
0.596 0.0970198 0.
0.598 0.0970197 0.
0.6 0.0970196 0.
0.602 0.0970201 0.
0.604 0.0970205 0.
0.606 0.0970208 0.
0.608 0.0970207 0.
0.61 0.0970207 0.
0.612 0.0970203 0.
0.614001 0.0970196 0.
0.616001 0.0970188 0.
0.618001 0.0970188 0.
0.62 0.0970192 0.
0.622 0.0970196 0.
0.624 0.097018 0.
0.626 0.0970162 0.
0.628 0.0970146 0.
0.63 0.0970143 0.
0.632001 0.097014 0.
0.634001 0.0970137 0.
0.636001 0.0970136 0.
0.638001 0.0970134 0.
0.640001 0.0970131 0.
0.642002 0.0970127 0.
0.644002 0.0970123 0.
0.646002 0.0970116 0.
0.648002 0.0970109 0.
0.650002 0.0970102 0.
0.652002 0.0970101 0.
0.654002 0.09701 0.
0.656002 0.0970097 0.
0.658002 0.0970088 0.
0.660002 0.0970079 0.
0.662002 0.0970075 0.
0.664001 0.0970076 0.
0.666001 0.0970077 0.
0.668 0.0970074 0.
0.67 0.097007 0.
0.672 0.0970065 0.
0.674 0.0970067 0.
0.676 0.097007 0.
0.678 0.0970073 0.
0.68 0.0970071 0.
0.682 0.0970069 0.
0.684 0.0970069 0.
0.686 0.0970075 0.
0.687999 0.097008 0.
0.69 0.0970082 0.
0.692 0.0970081 0.
0.694 0.097008 0.
0.696 0.0970078 0.
0.698001 0.0970076 0.
0.500008 0.0990104 0.
0.502008 0.0990106 0.
0.504007 0.0990109 0.
0.506007 0.0990109 0.
0.508007 0.0990097 0.
0.510006 0.0990084 0.
0.512006 0.0990077 0.
0.514006 0.0990074 0.
0.516006 0.0990072 0.
0.518005 0.0990076 0.
0.520005 0.0990082 0.
0.522004 0.0990089 0.
0.524004 0.099009 0.
0.526004 0.0990091 0.
0.528004 0.0990092 0.
0.530003 0.0990092 0.
0.532002 0.0990092 0.
0.534002 0.0990096 0.
0.536001 0.0990106 0.
0.538001 0.0990116 0.
0.54 0.0990121 0.
0.542 0.0990121 0.
0.544 0.0990122 0.
0.546 0.0990126 0.
0.547999 0.0990131 0.
0.549999 0.0990137 0.
0.551999 0.0990147 0.
0.553999 0.0990157 0.
0.555999 0.0990165 0.
0.558 0.0990168 0.
0.56 0.0990171 0.
0.562 0.0990176 0.
0.564 0.0990182 0.
0.566 0.0990189 0.
0.568 0.0990192 0.
0.57 0.0990195 0.
0.572 0.0990197 0.
0.574 0.0990192 0.
0.575999 0.0990186 0.
0.577999 0.099018 0.
0.579999 0.0990182 0.
0.582 0.0990184 0.
0.584 0.0990187 0.
0.586 0.099019 0.
0.588001 0.0990194 0.
0.590001 0.0990197 0.
0.592001 0.0990199 0.
0.594 0.0990201 0.
0.596 0.0990199 0.
0.598001 0.0990195 0.
0.600001 0.0990192 0.
0.602001 0.0990198 0.
0.604 0.0990205 0.
0.606 0.099021 0.
0.608 0.099021 0.
0.61 0.0990211 0.
0.612 0.0990207 0.
0.614 0.0990195 0.
0.616001 0.0990184 0.
0.618001 0.0990186 0.
0.62 0.0990197 0.
0.622 0.0990207 0.
0.624 0.0990187 0.
0.626001 0.0990164 0.
0.628001 0.0990144 0.
0.630001 0.0990142 0.
0.632001 0.0990139 0.
0.634002 0.0990137 0.
0.636002 0.0990134 0.
0.638002 0.0990132 0.
0.640002 0.0990131 0.
0.642002 0.099013 0.
0.644002 0.099013 0.
0.646002 0.0990121 0.
0.648002 0.0990109 0.
0.650003 0.0990097 0.
0.652003 0.0990097 0.
0.654003 0.0990098 0.
0.656003 0.0990096 0.
0.658003 0.0990086 0.
0.660003 0.0990077 0.
0.662003 0.0990074 0.
0.664002 0.0990079 0.
0.666002 0.0990083 0.
0.668001 0.099008 0.
0.67 0.0990073 0.
0.672 0.0990066 0.
0.673999 0.0990069 0.
0.675999 0.0990072 0.
0.677999 0.0990075 0.
0.679999 0.0990073 0.
0.681999 0.0990072 0.
0.683999 0.0990071 0.
0.685999 0.0990075 0.
0.687999 0.0990078 0.
0.689999 0.0990078 0.
0.691999 0.0990076 0.
0.693999 0.0990073 0.
0.696 0.0990075 0.
0.698 0.0990078 0.
CELLS 5000 10000
1 0
1 1
1 2
1 3
1 4
1 5
1 6
1 7
1 8
1 9
1 10
1 11
1 12
1 13
1 14
1 15
1 16
1 17
1 18
1 19
1 20
1 21
1 22
1 23
1 24
1 25
1 26
1 27
1 28
1 29
1 30
1 31
1 32
1 33
1 34
1 35
1 36
1 37
1 38
1 39
1 40
1 41
1 42
1 43
1 44
1 45
1 46
1 47
1 48
1 49
1 50
1 51
1 52
1 53
1 54
1 55
1 56
1 57
1 58
1 59
1 60
1 61
1 62
1 63
1 64
1 65
1 66
1 67
1 68
1 69
1 70
1 71
1 72
1 73
1 74
1 75
1 76
1 77
1 78
1 79
1 80
1 81
1 82
1 83
1 84
1 85
1 86
1 87
1 88
1 89
1 90
1 91
1 92
1 93
1 94
1 95
1 96
1 97
1 98
1 99
1 100
1 101
1 102
1 103
1 104
1 105
1 106
1 107
1 108
1 109
1 110
1 111
1 112
1 113
1 114
1 115
1 116
1 117
1 118
1 119
1 120
1 121
1 122
1 123
1 124
1 125
1 126
1 127
1 128
1 129
1 130
1 131
1 132
1 133
1 134
1 135
1 136
1 137
1 138
1 139
1 140
1 141
1 142
1 143
1 144
1 145
1 146
1 147
1 148
1 149
1 150
1 151
1 152
1 153
1 154
1 155
1 156
1 157
1 158
1 159
1 160
1 161
1 162
1 163
1 164
1 165
1 166
1 167
1 168
1 169
1 170
1 171
1 172
1 173
1 174
1 175
1 176
1 177
1 178
1 179
1 180
1 181
1 182
1 183
1 184
1 185
1 186
1 187
1 188
1 189
1 190
1 191
1 192
1 193
1 194
1 195
1 196
1 197
1 198
1 199
1 200
1 201
1 202
1 203
1 204
1 205
1 206
1 207
1 208
1 209
1 210
1 211
1 212
1 213
1 214
1 215
1 216
1 217
1 218
1 219
1 220
1 221
1 222
1 223
1 224
1 225
1 226
1 227
1 228
1 229
1 230
1 231
1 232
1 233
1 234
1 235
1 236
1 237
1 238
1 239
1 240
1 241
1 242
1 243
1 244
1 245
1 246
1 247
1 248
1 249
1 250
1 251
1 252
1 253
1 254
1 255
1 256
1 257
1 258
1 259
1 260
1 261
1 262
1 263
1 264
1 265
1 266
1 267
1 268
1 269
1 270
1 271
1 272
1 273
1 274
1 275
1 276
1 277
1 278
1 279
1 280
1 281
1 282
1 283
1 284
1 285
1 286
1 287
1 288
1 289
1 290
1 291
1 292
1 293
1 294
1 295
1 296
1 297
1 298
1 299
1 300
1 301
1 302
1 303
1 304
1 305
1 306
1 307
1 308
1 309
1 310
1 311
1 312
1 313
1 314
1 315
1 316
1 317
1 318
1 319
1 320
1 321
1 322
1 323
1 324
1 325
1 326
1 327
1 328
1 329
1 330
1 331
1 332
1 333
1 334
1 335
1 336
1 337
1 338
1 339
1 340
1 341
1 342
1 343
1 344
1 345
1 346
1 347
1 348
1 349
1 350
1 351
1 352
1 353
1 354
1 355
1 356
1 357
1 358
1 359
1 360
1 361
1 362
1 363
1 364
1 365
1 366
1 367
1 368
1 369
1 370
1 371
1 372
1 373
1 374
1 375
1 376
1 377
1 378
1 379
1 380
1 381
1 382
1 383
1 384
1 385
1 386
1 387
1 388
1 389
1 390
1 391
1 392
1 393
1 394
1 395
1 396
1 397
1 398
1 399
1 400
1 401
1 402
1 403
1 404
1 405
1 406
1 407
1 408
1 409
1 410
1 411
1 412
1 413
1 414
1 415
1 416
1 417
1 418
1 419
1 420
1 421
1 422
1 423
1 424
1 425
1 426
1 427
1 428
1 429
1 430
1 431
1 432
1 433
1 434
1 435
1 436
1 437
1 438
1 439
1 440
1 441
1 442
1 443
1 444
1 445
1 446
1 447
1 448
1 449
1 450
1 451
1 452
1 453
1 454
1 455
1 456
1 457
1 458
1 459
1 460
1 461
1 462
1 463
1 464
1 465
1 466
1 467
1 468
1 469
1 470
1 471
1 472
1 473
1 474
1 475
1 476
1 477
1 478
1 479
1 480
1 481
1 482
1 483
1 484
1 485
1 486
1 487
1 488
1 489
1 490
1 491
1 492
1 493
1 494
1 495
1 496
1 497
1 498
1 499
1 500
1 501
1 502
1 503
1 504
1 505
1 506
1 507
1 508
1 509
1 510
1 511
1 512
1 513
1 514
1 515
1 516
1 517
1 518
1 519
1 520
1 521
1 522
1 523
1 524
1 525
1 526
1 527
1 528
1 529
1 530
1 531
1 532
1 533
1 534
1 535
1 536
1 537
1 538
1 539
1 540
1 541
1 542
1 543
1 544
1 545
1 546
1 547
1 548
1 549
1 550
1 551
1 552
1 553
1 554
1 555
1 556
1 557
1 558
1 559
1 560
1 561
1 562
1 563
1 564
1 565
1 566
1 567
1 568
1 569
1 570
1 571
1 572
1 573
1 574
1 575
1 576
1 577
1 578
1 579
1 580
1 581
1 582
1 583
1 584
1 585
1 586
1 587
1 588
1 589
1 590
1 591
1 592
1 593
1 594
1 595
1 596
1 597
1 598
1 599
1 600
1 601
1 602
1 603
1 604
1 605
1 606
1 607
1 608
1 609
1 610
1 611
1 612
1 613
1 614
1 615
1 616
1 617
1 618
1 619
1 620
1 621
1 622
1 623
1 624
1 625
1 626
1 627
1 628
1 629
1 630
1 631
1 632
1 633
1 634
1 635
1 636
1 637
1 638
1 639
1 640
1 641
1 642
1 643
1 644
1 645
1 646
1 647
1 648
1 649
1 650
1 651
1 652
1 653
1 654
1 655
1 656
1 657
1 658
1 659
1 660
1 661
1 662
1 663
1 664
1 665
1 666
1 667
1 668
1 669
1 670
1 671
1 672
1 673
1 674
1 675
1 676
1 677
1 678
1 679
1 680
1 681
1 682
1 683
1 684
1 685
1 686
1 687
1 688
1 689
1 690
1 691
1 692
1 693
1 694
1 695
1 696
1 697
1 698
1 699
1 700
1 701
1 702
1 703
1 704
1 705
1 706
1 707
1 708
1 709
1 710
1 711
1 712
1 713
1 714
1 715
1 716
1 717
1 718
1 719
1 720
1 721
1 722
1 723
1 724
1 725
1 726
1 727
1 728
1 729
1 730
1 731
1 732
1 733
1 734
1 735
1 736
1 737
1 738
1 739
1 740
1 741
1 742
1 743
1 744
1 745
1 746
1 747
1 748
1 749
1 750
1 751
1 752
1 753
1 754
1 755
1 756
1 757
1 758
1 759
1 760
1 761
1 762
1 763
1 764
1 765
1 766
1 767
1 768
1 769
1 770
1 771
1 772
1 773
1 774
1 775
1 776
1 777
1 778
1 779
1 780
1 781
1 782
1 783
1 784
1 785
1 786
1 787
1 788
1 789
1 790
1 791
1 792
1 793
1 794
1 795
1 796
1 797
1 798
1 799
1 800
1 801
1 802
1 803
1 804
1 805
1 806
1 807
1 808
1 809
1 810
1 811
1 812
1 813
1 814
1 815
1 816
1 817
1 818
1 819
1 820
1 821
1 822
1 823
1 824
1 825
1 826
1 827
1 828
1 829
1 830
1 831
1 832
1 833
1 834
1 835
1 836
1 837
1 838
1 839
1 840
1 841
1 842
1 843
1 844
1 845
1 846
1 847
1 848
1 849
1 850
1 851
1 852
1 853
1 854
1 855
1 856
1 857
1 858
1 859
1 860
1 861
1 862
1 863
1 864
1 865
1 866
1 867
1 868
1 869
1 870
1 871
1 872
1 873
1 874
1 875
1 876
1 877
1 878
1 879
1 880
1 881
1 882
1 883
1 884
1 885
1 886
1 887
1 888
1 889
1 890
1 891
1 892
1 893
1 894
1 895
1 896
1 897
1 898
1 899
1 900
1 901
1 902
1 903
1 904
1 905
1 906
1 907
1 908
1 909
1 910
1 911
1 912
1 913
1 914
1 915
1 916
1 917
1 918
1 919
1 920
1 921
1 922
1 923
1 924
1 925
1 926
1 927
1 928
1 929
1 930
1 931
1 932
1 933
1 934
1 935
1 936
1 937
1 938
1 939
1 940
1 941
1 942
1 943
1 944
1 945
1 946
1 947
1 948
1 949
1 950
1 951
1 952
1 953
1 954
1 955
1 956
1 957
1 958
1 959
1 960
1 961
1 962
1 963
1 964
1 965
1 966
1 967
1 968
1 969
1 970
1 971
1 972
1 973
1 974
1 975
1 976
1 977
1 978
1 979
1 980
1 981
1 982
1 983
1 984
1 985
1 986
1 987
1 988
1 989
1 990
1 991
1 992
1 993
1 994
1 995
1 996
1 997
1 998
1 999
1 1000
1 1001
1 1002
1 1003
1 1004
1 1005
1 1006
1 1007
1 1008
1 1009
1 1010
1 1011
1 1012
1 1013
1 1014
1 1015
1 1016
1 1017
1 1018
1 1019
1 1020
1 1021
1 1022
1 1023
1 1024
1 1025
1 1026
1 1027
1 1028
1 1029
1 1030
1 1031
1 1032
1 1033
1 1034
1 1035
1 1036
1 1037
1 1038
1 1039
1 1040
1 1041
1 1042
1 1043
1 1044
1 1045
1 1046
1 1047
1 1048
1 1049
1 1050
1 1051
1 1052
1 1053
1 1054
1 1055
1 1056
1 1057
1 1058
1 1059
1 1060
1 1061
1 1062
1 1063
1 1064
1 1065
1 1066
1 1067
1 1068
1 1069
1 1070
1 1071
1 1072
1 1073
1 1074
1 1075
1 1076
1 1077
1 1078
1 1079
1 1080
1 1081
1 1082
1 1083
1 1084
1 1085
1 1086
1 1087
1 1088
1 1089
1 1090
1 1091
1 1092
1 1093
1 1094
1 1095
1 1096
1 1097
1 1098
1 1099
1 1100
1 1101
1 1102
1 1103
1 1104
1 1105
1 1106
1 1107
1 1108
1 1109
1 1110
1 1111
1 1112
1 1113
1 1114
1 1115
1 1116
1 1117
1 1118
1 1119
1 1120
1 1121
1 1122
1 1123
1 1124
1 1125
1 1126
1 1127
1 1128
1 1129
1 1130
1 1131
1 1132
1 1133
1 1134
1 1135
1 1136
1 1137
1 1138
1 1139
1 1140
1 1141
1 1142
1 1143
1 1144
1 1145
1 1146
1 1147
1 1148
1 1149
1 1150
1 1151
1 1152
1 1153
1 1154
1 1155
1 1156
1 1157
1 1158
1 1159
1 1160
1 1161
1 1162
1 1163
1 1164
1 1165
1 1166
1 1167
1 1168
1 1169
1 1170
1 1171
1 1172
1 1173
1 1174
1 1175
1 1176
1 1177
1 1178
1 1179
1 1180
1 1181
1 1182
1 1183
1 1184
1 1185
1 1186
1 1187
1 1188
1 1189
1 1190
1 1191
1 1192
1 1193
1 1194
1 1195
1 1196
1 1197
1 1198
1 1199
1 1200
1 1201
1 1202
1 1203
1 1204
1 1205
1 1206
1 1207
1 1208
1 1209
1 1210
1 1211
1 1212
1 1213
1 1214
1 1215
1 1216
1 1217
1 1218
1 1219
1 1220
1 1221
1 1222
1 1223
1 1224
1 1225
1 1226
1 1227
1 1228
1 1229
1 1230
1 1231
1 1232
1 1233
1 1234
1 1235
1 1236
1 1237
1 1238
1 1239
1 1240
1 1241
1 1242
1 1243
1 1244
1 1245
1 1246
1 1247
1 1248
1 1249
1 1250
1 1251
1 1252
1 1253
1 1254
1 1255
1 1256
1 1257
1 1258
1 1259
1 1260
1 1261
1 1262
1 1263
1 1264
1 1265
1 1266
1 1267
1 1268
1 1269
1 1270
1 1271
1 1272
1 1273
1 1274
1 1275
1 1276
1 1277
1 1278
1 1279
1 1280
1 1281
1 1282
1 1283
1 1284
1 1285
1 1286
1 1287
1 1288
1 1289
1 1290
1 1291
1 1292
1 1293
1 1294
1 1295
1 1296
1 1297
1 1298
1 1299
1 1300
1 1301
1 1302
1 1303
1 1304
1 1305
1 1306
1 1307
1 1308
1 1309
1 1310
1 1311
1 1312
1 1313
1 1314
1 1315
1 1316
1 1317
1 1318
1 1319
1 1320
1 1321
1 1322
1 1323
1 1324
1 1325
1 1326
1 1327
1 1328
1 1329
1 1330
1 1331
1 1332
1 1333
1 1334
1 1335
1 1336
1 1337
1 1338
1 1339
1 1340
1 1341
1 1342
1 1343
1 1344
1 1345
1 1346
1 1347
1 1348
1 1349
1 1350
1 1351
1 1352
1 1353
1 1354
1 1355
1 1356
1 1357
1 1358
1 1359
1 1360
1 1361
1 1362
1 1363
1 1364
1 1365
1 1366
1 1367
1 1368
1 1369
1 1370
1 1371
1 1372
1 1373
1 1374
1 1375
1 1376
1 1377
1 1378
1 1379
1 1380
1 1381
1 1382
1 1383
1 1384
1 1385
1 1386
1 1387
1 1388
1 1389
1 1390
1 1391
1 1392
1 1393
1 1394
1 1395
1 1396
1 1397
1 1398
1 1399
1 1400
1 1401
1 1402
1 1403
1 1404
1 1405
1 1406
1 1407
1 1408
1 1409
1 1410
1 1411
1 1412
1 1413
1 1414
1 1415
1 1416
1 1417
1 1418
1 1419
1 1420
1 1421
1 1422
1 1423
1 1424
1 1425
1 1426
1 1427
1 1428
1 1429
1 1430
1 1431
1 1432
1 1433
1 1434
1 1435
1 1436
1 1437
1 1438
1 1439
1 1440
1 1441
1 1442
1 1443
1 1444
1 1445
1 1446
1 1447
1 1448
1 1449
1 1450
1 1451
1 1452
1 1453
1 1454
1 1455
1 1456
1 1457
1 1458
1 1459
1 1460
1 1461
1 1462
1 1463
1 1464
1 1465
1 1466
1 1467
1 1468
1 1469
1 1470
1 1471
1 1472
1 1473
1 1474
1 1475
1 1476
1 1477
1 1478
1 1479
1 1480
1 1481
1 1482
1 1483
1 1484
1 1485
1 1486
1 1487
1 1488
1 1489
1 1490
1 1491
1 1492
1 1493
1 1494
1 1495
1 1496
1 1497
1 1498
1 1499
1 1500
1 1501
1 1502
1 1503
1 1504
1 1505
1 1506
1 1507
1 1508
1 1509
1 1510
1 1511
1 1512
1 1513
1 1514
1 1515
1 1516
1 1517
1 1518
1 1519
1 1520
1 1521
1 1522
1 1523
1 1524
1 1525
1 1526
1 1527
1 1528
1 1529
1 1530
1 1531
1 1532
1 1533
1 1534
1 1535
1 1536
1 1537
1 1538
1 1539
1 1540
1 1541
1 1542
1 1543
1 1544
1 1545
1 1546
1 1547
1 1548
1 1549
1 1550
1 1551
1 1552
1 1553
1 1554
1 1555
1 1556
1 1557
1 1558
1 1559
1 1560
1 1561
1 1562
1 1563
1 1564
1 1565
1 1566
1 1567
1 1568
1 1569
1 1570
1 1571
1 1572
1 1573
1 1574
1 1575
1 1576
1 1577
1 1578
1 1579
1 1580
1 1581
1 1582
1 1583
1 1584
1 1585
1 1586
1 1587
1 1588
1 1589
1 1590
1 1591
1 1592
1 1593
1 1594
1 1595
1 1596
1 1597
1 1598
1 1599
1 1600
1 1601
1 1602
1 1603
1 1604
1 1605
1 1606
1 1607
1 1608
1 1609
1 1610
1 1611
1 1612
1 1613
1 1614
1 1615
1 1616
1 1617
1 1618
1 1619
1 1620
1 1621
1 1622
1 1623
1 1624
1 1625
1 1626
1 1627
1 1628
1 1629
1 1630
1 1631
1 1632
1 1633
1 1634
1 1635
1 1636
1 1637
1 1638
1 1639
1 1640
1 1641
1 1642
1 1643
1 1644
1 1645
1 1646
1 1647
1 1648
1 1649
1 1650
1 1651
1 1652
1 1653
1 1654
1 1655
1 1656
1 1657
1 1658
1 1659
1 1660
1 1661
1 1662
1 1663
1 1664
1 1665
1 1666
1 1667
1 1668
1 1669
1 1670
1 1671
1 1672
1 1673
1 1674
1 1675
1 1676
1 1677
1 1678
1 1679
1 1680
1 1681
1 1682
1 1683
1 1684
1 1685
1 1686
1 1687
1 1688
1 1689
1 1690
1 1691
1 1692
1 1693
1 1694
1 1695
1 1696
1 1697
1 1698
1 1699
1 1700
1 1701
1 1702
1 1703
1 1704
1 1705
1 1706
1 1707
1 1708
1 1709
1 1710
1 1711
1 1712
1 1713
1 1714
1 1715
1 1716
1 1717
1 1718
1 1719
1 1720
1 1721
1 1722
1 1723
1 1724
1 1725
1 1726
1 1727
1 1728
1 1729
1 1730
1 1731
1 1732
1 1733
1 1734
1 1735
1 1736
1 1737
1 1738
1 1739
1 1740
1 1741
1 1742
1 1743
1 1744
1 1745
1 1746
1 1747
1 1748
1 1749
1 1750
1 1751
1 1752
1 1753
1 1754
1 1755
1 1756
1 1757
1 1758
1 1759
1 1760
1 1761
1 1762
1 1763
1 1764
1 1765
1 1766
1 1767
1 1768
1 1769
1 1770
1 1771
1 1772
1 1773
1 1774
1 1775
1 1776
1 1777
1 1778
1 1779
1 1780
1 1781
1 1782
1 1783
1 1784
1 1785
1 1786
1 1787
1 1788
1 1789
1 1790
1 1791
1 1792
1 1793
1 1794
1 1795
1 1796
1 1797
1 1798
1 1799
1 1800
1 1801
1 1802
1 1803
1 1804
1 1805
1 1806
1 1807
1 1808
1 1809
1 1810
1 1811
1 1812
1 1813
1 1814
1 1815
1 1816
1 1817
1 1818
1 1819
1 1820
1 1821
1 1822
1 1823
1 1824
1 1825
1 1826
1 1827
1 1828
1 1829
1 1830
1 1831
1 1832
1 1833
1 1834
1 1835
1 1836
1 1837
1 1838
1 1839
1 1840
1 1841
1 1842
1 1843
1 1844
1 1845
1 1846
1 1847
1 1848
1 1849
1 1850
1 1851
1 1852
1 1853
1 1854
1 1855
1 1856
1 1857
1 1858
1 1859
1 1860
1 1861
1 1862
1 1863
1 1864
1 1865
1 1866
1 1867
1 1868
1 1869
1 1870
1 1871
1 1872
1 1873
1 1874
1 1875
1 1876
1 1877
1 1878
1 1879
1 1880
1 1881
1 1882
1 1883
1 1884
1 1885
1 1886
1 1887
1 1888
1 1889
1 1890
1 1891
1 1892
1 1893
1 1894
1 1895
1 1896
1 1897
1 1898
1 1899
1 1900
1 1901
1 1902
1 1903
1 1904
1 1905
1 1906
1 1907
1 1908
1 1909
1 1910
1 1911
1 1912
1 1913
1 1914
1 1915
1 1916
1 1917
1 1918
1 1919
1 1920
1 1921
1 1922
1 1923
1 1924
1 1925
1 1926
1 1927
1 1928
1 1929
1 1930
1 1931
1 1932
1 1933
1 1934
1 1935
1 1936
1 1937
1 1938
1 1939
1 1940
1 1941
1 1942
1 1943
1 1944
1 1945
1 1946
1 1947
1 1948
1 1949
1 1950
1 1951
1 1952
1 1953
1 1954
1 1955
1 1956
1 1957
1 1958
1 1959
1 1960
1 1961
1 1962
1 1963
1 1964
1 1965
1 1966
1 1967
1 1968
1 1969
1 1970
1 1971
1 1972
1 1973
1 1974
1 1975
1 1976
1 1977
1 1978
1 1979
1 1980
1 1981
1 1982
1 1983
1 1984
1 1985
1 1986
1 1987
1 1988
1 1989
1 1990
1 1991
1 1992
1 1993
1 1994
1 1995
1 1996
1 1997
1 1998
1 1999
1 2000
1 2001
1 2002
1 2003
1 2004
1 2005
1 2006
1 2007
1 2008
1 2009
1 2010
1 2011
1 2012
1 2013
1 2014
1 2015
1 2016
1 2017
1 2018
1 2019
1 2020
1 2021
1 2022
1 2023
1 2024
1 2025
1 2026
1 2027
1 2028
1 2029
1 2030
1 2031
1 2032
1 2033
1 2034
1 2035
1 2036
1 2037
1 2038
1 2039
1 2040
1 2041
1 2042
1 2043
1 2044
1 2045
1 2046
1 2047
1 2048
1 2049
1 2050
1 2051
1 2052
1 2053
1 2054
1 2055
1 2056
1 2057
1 2058
1 2059
1 2060
1 2061
1 2062
1 2063
1 2064
1 2065
1 2066
1 2067
1 2068
1 2069
1 2070
1 2071
1 2072
1 2073
1 2074
1 2075
1 2076
1 2077
1 2078
1 2079
1 2080
1 2081
1 2082
1 2083
1 2084
1 2085
1 2086
1 2087
1 2088
1 2089
1 2090
1 2091
1 2092
1 2093
1 2094
1 2095
1 2096
1 2097
1 2098
1 2099
1 2100
1 2101
1 2102
1 2103
1 2104
1 2105
1 2106
1 2107
1 2108
1 2109
1 2110
1 2111
1 2112
1 2113
1 2114
1 2115
1 2116
1 2117
1 2118
1 2119
1 2120
1 2121
1 2122
1 2123
1 2124
1 2125
1 2126
1 2127
1 2128
1 2129
1 2130
1 2131
1 2132
1 2133
1 2134
1 2135
1 2136
1 2137
1 2138
1 2139
1 2140
1 2141
1 2142
1 2143
1 2144
1 2145
1 2146
1 2147
1 2148
1 2149
1 2150
1 2151
1 2152
1 2153
1 2154
1 2155
1 2156
1 2157
1 2158
1 2159
1 2160
1 2161
1 2162
1 2163
1 2164
1 2165
1 2166
1 2167
1 2168
1 2169
1 2170
1 2171
1 2172
1 2173
1 2174
1 2175
1 2176
1 2177
1 2178
1 2179
1 2180
1 2181
1 2182
1 2183
1 2184
1 2185
1 2186
1 2187
1 2188
1 2189
1 2190
1 2191
1 2192
1 2193
1 2194
1 2195
1 2196
1 2197
1 2198
1 2199
1 2200
1 2201
1 2202
1 2203
1 2204
1 2205
1 2206
1 2207
1 2208
1 2209
1 2210
1 2211
1 2212
1 2213
1 2214
1 2215
1 2216
1 2217
1 2218
1 2219
1 2220
1 2221
1 2222
1 2223
1 2224
1 2225
1 2226
1 2227
1 2228
1 2229
1 2230
1 2231
1 2232
1 2233
1 2234
1 2235
1 2236
1 2237
1 2238
1 2239
1 2240
1 2241
1 2242
1 2243
1 2244
1 2245
1 2246
1 2247
1 2248
1 2249
1 2250
1 2251
1 2252
1 2253
1 2254
1 2255
1 2256
1 2257
1 2258
1 2259
1 2260
1 2261
1 2262
1 2263
1 2264
1 2265
1 2266
1 2267
1 2268
1 2269
1 2270
1 2271
1 2272
1 2273
1 2274
1 2275
1 2276
1 2277
1 2278
1 2279
1 2280
1 2281
1 2282
1 2283
1 2284
1 2285
1 2286
1 2287
1 2288
1 2289
1 2290
1 2291
1 2292
1 2293
1 2294
1 2295
1 2296
1 2297
1 2298
1 2299
1 2300
1 2301
1 2302
1 2303
1 2304
1 2305
1 2306
1 2307
1 2308
1 2309
1 2310
1 2311
1 2312
1 2313
1 2314
1 2315
1 2316
1 2317
1 2318
1 2319
1 2320
1 2321
1 2322
1 2323
1 2324
1 2325
1 2326
1 2327
1 2328
1 2329
1 2330
1 2331
1 2332
1 2333
1 2334
1 2335
1 2336
1 2337
1 2338
1 2339
1 2340
1 2341
1 2342
1 2343
1 2344
1 2345
1 2346
1 2347
1 2348
1 2349
1 2350
1 2351
1 2352
1 2353
1 2354
1 2355
1 2356
1 2357
1 2358
1 2359
1 2360
1 2361
1 2362
1 2363
1 2364
1 2365
1 2366
1 2367
1 2368
1 2369
1 2370
1 2371
1 2372
1 2373
1 2374
1 2375
1 2376
1 2377
1 2378
1 2379
1 2380
1 2381
1 2382
1 2383
1 2384
1 2385
1 2386
1 2387
1 2388
1 2389
1 2390
1 2391
1 2392
1 2393
1 2394
1 2395
1 2396
1 2397
1 2398
1 2399
1 2400
1 2401
1 2402
1 2403
1 2404
1 2405
1 2406
1 2407
1 2408
1 2409
1 2410
1 2411
1 2412
1 2413
1 2414
1 2415
1 2416
1 2417
1 2418
1 2419
1 2420
1 2421
1 2422
1 2423
1 2424
1 2425
1 2426
1 2427
1 2428
1 2429
1 2430
1 2431
1 2432
1 2433
1 2434
1 2435
1 2436
1 2437
1 2438
1 2439
1 2440
1 2441
1 2442
1 2443
1 2444
1 2445
1 2446
1 2447
1 2448
1 2449
1 2450
1 2451
1 2452
1 2453
1 2454
1 2455
1 2456
1 2457
1 2458
1 2459
1 2460
1 2461
1 2462
1 2463
1 2464
1 2465
1 2466
1 2467
1 2468
1 2469
1 2470
1 2471
1 2472
1 2473
1 2474
1 2475
1 2476
1 2477
1 2478
1 2479
1 2480
1 2481
1 2482
1 2483
1 2484
1 2485
1 2486
1 2487
1 2488
1 2489
1 2490
1 2491
1 2492
1 2493
1 2494
1 2495
1 2496
1 2497
1 2498
1 2499
1 2500
1 2501
1 2502
1 2503
1 2504
1 2505
1 2506
1 2507
1 2508
1 2509
1 2510
1 2511
1 2512
1 2513
1 2514
1 2515
1 2516
1 2517
1 2518
1 2519
1 2520
1 2521
1 2522
1 2523
1 2524
1 2525
1 2526
1 2527
1 2528
1 2529
1 2530
1 2531
1 2532
1 2533
1 2534
1 2535
1 2536
1 2537
1 2538
1 2539
1 2540
1 2541
1 2542
1 2543
1 2544
1 2545
1 2546
1 2547
1 2548
1 2549
1 2550
1 2551
1 2552
1 2553
1 2554
1 2555
1 2556
1 2557
1 2558
1 2559
1 2560
1 2561
1 2562
1 2563
1 2564
1 2565
1 2566
1 2567
1 2568
1 2569
1 2570
1 2571
1 2572
1 2573
1 2574
1 2575
1 2576
1 2577
1 2578
1 2579
1 2580
1 2581
1 2582
1 2583
1 2584
1 2585
1 2586
1 2587
1 2588
1 2589
1 2590
1 2591
1 2592
1 2593
1 2594
1 2595
1 2596
1 2597
1 2598
1 2599
1 2600
1 2601
1 2602
1 2603
1 2604
1 2605
1 2606
1 2607
1 2608
1 2609
1 2610
1 2611
1 2612
1 2613
1 2614
1 2615
1 2616
1 2617
1 2618
1 2619
1 2620
1 2621
1 2622
1 2623
1 2624
1 2625
1 2626
1 2627
1 2628
1 2629
1 2630
1 2631
1 2632
1 2633
1 2634
1 2635
1 2636
1 2637
1 2638
1 2639
1 2640
1 2641
1 2642
1 2643
1 2644
1 2645
1 2646
1 2647
1 2648
1 2649
1 2650
1 2651
1 2652
1 2653
1 2654
1 2655
1 2656
1 2657
1 2658
1 2659
1 2660
1 2661
1 2662
1 2663
1 2664
1 2665
1 2666
1 2667
1 2668
1 2669
1 2670
1 2671
1 2672
1 2673
1 2674
1 2675
1 2676
1 2677
1 2678
1 2679
1 2680
1 2681
1 2682
1 2683
1 2684
1 2685
1 2686
1 2687
1 2688
1 2689
1 2690
1 2691
1 2692
1 2693
1 2694
1 2695
1 2696
1 2697
1 2698
1 2699
1 2700
1 2701
1 2702
1 2703
1 2704
1 2705
1 2706
1 2707
1 2708
1 2709
1 2710
1 2711
1 2712
1 2713
1 2714
1 2715
1 2716
1 2717
1 2718
1 2719
1 2720
1 2721
1 2722
1 2723
1 2724
1 2725
1 2726
1 2727
1 2728
1 2729
1 2730
1 2731
1 2732
1 2733
1 2734
1 2735
1 2736
1 2737
1 2738
1 2739
1 2740
1 2741
1 2742
1 2743
1 2744
1 2745
1 2746
1 2747
1 2748
1 2749
1 2750
1 2751
1 2752
1 2753
1 2754
1 2755
1 2756
1 2757
1 2758
1 2759
1 2760
1 2761
1 2762
1 2763
1 2764
1 2765
1 2766
1 2767
1 2768
1 2769
1 2770
1 2771
1 2772
1 2773
1 2774
1 2775
1 2776
1 2777
1 2778
1 2779
1 2780
1 2781
1 2782
1 2783
1 2784
1 2785
1 2786
1 2787
1 2788
1 2789
1 2790
1 2791
1 2792
1 2793
1 2794
1 2795
1 2796
1 2797
1 2798
1 2799
1 2800
1 2801
1 2802
1 2803
1 2804
1 2805
1 2806
1 2807
1 2808
1 2809
1 2810
1 2811
1 2812
1 2813
1 2814
1 2815
1 2816
1 2817
1 2818
1 2819
1 2820
1 2821
1 2822
1 2823
1 2824
1 2825
1 2826
1 2827
1 2828
1 2829
1 2830
1 2831
1 2832
1 2833
1 2834
1 2835
1 2836
1 2837
1 2838
1 2839
1 2840
1 2841
1 2842
1 2843
1 2844
1 2845
1 2846
1 2847
1 2848
1 2849
1 2850
1 2851
1 2852
1 2853
1 2854
1 2855
1 2856
1 2857
1 2858
1 2859
1 2860
1 2861
1 2862
1 2863
1 2864
1 2865
1 2866
1 2867
1 2868
1 2869
1 2870
1 2871
1 2872
1 2873
1 2874
1 2875
1 2876
1 2877
1 2878
1 2879
1 2880
1 2881
1 2882
1 2883
1 2884
1 2885
1 2886
1 2887
1 2888
1 2889
1 2890
1 2891
1 2892
1 2893
1 2894
1 2895
1 2896
1 2897
1 2898
1 2899
1 2900
1 2901
1 2902
1 2903
1 2904
1 2905
1 2906
1 2907
1 2908
1 2909
1 2910
1 2911
1 2912
1 2913
1 2914
1 2915
1 2916
1 2917
1 2918
1 2919
1 2920
1 2921
1 2922
1 2923
1 2924
1 2925
1 2926
1 2927
1 2928
1 2929
1 2930
1 2931
1 2932
1 2933
1 2934
1 2935
1 2936
1 2937
1 2938
1 2939
1 2940
1 2941
1 2942
1 2943
1 2944
1 2945
1 2946
1 2947
1 2948
1 2949
1 2950
1 2951
1 2952
1 2953
1 2954
1 2955
1 2956
1 2957
1 2958
1 2959
1 2960
1 2961
1 2962
1 2963
1 2964
1 2965
1 2966
1 2967
1 2968
1 2969
1 2970
1 2971
1 2972
1 2973
1 2974
1 2975
1 2976
1 2977
1 2978
1 2979
1 2980
1 2981
1 2982
1 2983
1 2984
1 2985
1 2986
1 2987
1 2988
1 2989
1 2990
1 2991
1 2992
1 2993
1 2994
1 2995
1 2996
1 2997
1 2998
1 2999
1 3000
1 3001
1 3002
1 3003
1 3004
1 3005
1 3006
1 3007
1 3008
1 3009
1 3010
1 3011
1 3012
1 3013
1 3014
1 3015
1 3016
1 3017
1 3018
1 3019
1 3020
1 3021
1 3022
1 3023
1 3024
1 3025
1 3026
1 3027
1 3028
1 3029
1 3030
1 3031
1 3032
1 3033
1 3034
1 3035
1 3036
1 3037
1 3038
1 3039
1 3040
1 3041
1 3042
1 3043
1 3044
1 3045
1 3046
1 3047
1 3048
1 3049
1 3050
1 3051
1 3052
1 3053
1 3054
1 3055
1 3056
1 3057
1 3058
1 3059
1 3060
1 3061
1 3062
1 3063
1 3064
1 3065
1 3066
1 3067
1 3068
1 3069
1 3070
1 3071
1 3072
1 3073
1 3074
1 3075
1 3076
1 3077
1 3078
1 3079
1 3080
1 3081
1 3082
1 3083
1 3084
1 3085
1 3086
1 3087
1 3088
1 3089
1 3090
1 3091
1 3092
1 3093
1 3094
1 3095
1 3096
1 3097
1 3098
1 3099
1 3100
1 3101
1 3102
1 3103
1 3104
1 3105
1 3106
1 3107
1 3108
1 3109
1 3110
1 3111
1 3112
1 3113
1 3114
1 3115
1 3116
1 3117
1 3118
1 3119
1 3120
1 3121
1 3122
1 3123
1 3124
1 3125
1 3126
1 3127
1 3128
1 3129
1 3130
1 3131
1 3132
1 3133
1 3134
1 3135
1 3136
1 3137
1 3138
1 3139
1 3140
1 3141
1 3142
1 3143
1 3144
1 3145
1 3146
1 3147
1 3148
1 3149
1 3150
1 3151
1 3152
1 3153
1 3154
1 3155
1 3156
1 3157
1 3158
1 3159
1 3160
1 3161
1 3162
1 3163
1 3164
1 3165
1 3166
1 3167
1 3168
1 3169
1 3170
1 3171
1 3172
1 3173
1 3174
1 3175
1 3176
1 3177
1 3178
1 3179
1 3180
1 3181
1 3182
1 3183
1 3184
1 3185
1 3186
1 3187
1 3188
1 3189
1 3190
1 3191
1 3192
1 3193
1 3194
1 3195
1 3196
1 3197
1 3198
1 3199
1 3200
1 3201
1 3202
1 3203
1 3204
1 3205
1 3206
1 3207
1 3208
1 3209
1 3210
1 3211
1 3212
1 3213
1 3214
1 3215
1 3216
1 3217
1 3218
1 3219
1 3220
1 3221
1 3222
1 3223
1 3224
1 3225
1 3226
1 3227
1 3228
1 3229
1 3230
1 3231
1 3232
1 3233
1 3234
1 3235
1 3236
1 3237
1 3238
1 3239
1 3240
1 3241
1 3242
1 3243
1 3244
1 3245
1 3246
1 3247
1 3248
1 3249
1 3250
1 3251
1 3252
1 3253
1 3254
1 3255
1 3256
1 3257
1 3258
1 3259
1 3260
1 3261
1 3262
1 3263
1 3264
1 3265
1 3266
1 3267
1 3268
1 3269
1 3270
1 3271
1 3272
1 3273
1 3274
1 3275
1 3276
1 3277
1 3278
1 3279
1 3280
1 3281
1 3282
1 3283
1 3284
1 3285
1 3286
1 3287
1 3288
1 3289
1 3290
1 3291
1 3292
1 3293
1 3294
1 3295
1 3296
1 3297
1 3298
1 3299
1 3300
1 3301
1 3302
1 3303
1 3304
1 3305
1 3306
1 3307
1 3308
1 3309
1 3310
1 3311
1 3312
1 3313
1 3314
1 3315
1 3316
1 3317
1 3318
1 3319
1 3320
1 3321
1 3322
1 3323
1 3324
1 3325
1 3326
1 3327
1 3328
1 3329
1 3330
1 3331
1 3332
1 3333
1 3334
1 3335
1 3336
1 3337
1 3338
1 3339
1 3340
1 3341
1 3342
1 3343
1 3344
1 3345
1 3346
1 3347
1 3348
1 3349
1 3350
1 3351
1 3352
1 3353
1 3354
1 3355
1 3356
1 3357
1 3358
1 3359
1 3360
1 3361
1 3362
1 3363
1 3364
1 3365
1 3366
1 3367
1 3368
1 3369
1 3370
1 3371
1 3372
1 3373
1 3374
1 3375
1 3376
1 3377
1 3378
1 3379
1 3380
1 3381
1 3382
1 3383
1 3384
1 3385
1 3386
1 3387
1 3388
1 3389
1 3390
1 3391
1 3392
1 3393
1 3394
1 3395
1 3396
1 3397
1 3398
1 3399
1 3400
1 3401
1 3402
1 3403
1 3404
1 3405
1 3406
1 3407
1 3408
1 3409
1 3410
1 3411
1 3412
1 3413
1 3414
1 3415
1 3416
1 3417
1 3418
1 3419
1 3420
1 3421
1 3422
1 3423
1 3424
1 3425
1 3426
1 3427
1 3428
1 3429
1 3430
1 3431
1 3432
1 3433
1 3434
1 3435
1 3436
1 3437
1 3438
1 3439
1 3440
1 3441
1 3442
1 3443
1 3444
1 3445
1 3446
1 3447
1 3448
1 3449
1 3450
1 3451
1 3452
1 3453
1 3454
1 3455
1 3456
1 3457
1 3458
1 3459
1 3460
1 3461
1 3462
1 3463
1 3464
1 3465
1 3466
1 3467
1 3468
1 3469
1 3470
1 3471
1 3472
1 3473
1 3474
1 3475
1 3476
1 3477
1 3478
1 3479
1 3480
1 3481
1 3482
1 3483
1 3484
1 3485
1 3486
1 3487
1 3488
1 3489
1 3490
1 3491
1 3492
1 3493
1 3494
1 3495
1 3496
1 3497
1 3498
1 3499
1 3500
1 3501
1 3502
1 3503
1 3504
1 3505
1 3506
1 3507
1 3508
1 3509
1 3510
1 3511
1 3512
1 3513
1 3514
1 3515
1 3516
1 3517
1 3518
1 3519
1 3520
1 3521
1 3522
1 3523
1 3524
1 3525
1 3526
1 3527
1 3528
1 3529
1 3530
1 3531
1 3532
1 3533
1 3534
1 3535
1 3536
1 3537
1 3538
1 3539
1 3540
1 3541
1 3542
1 3543
1 3544
1 3545
1 3546
1 3547
1 3548
1 3549
1 3550
1 3551
1 3552
1 3553
1 3554
1 3555
1 3556
1 3557
1 3558
1 3559
1 3560
1 3561
1 3562
1 3563
1 3564
1 3565
1 3566
1 3567
1 3568
1 3569
1 3570
1 3571
1 3572
1 3573
1 3574
1 3575
1 3576
1 3577
1 3578
1 3579
1 3580
1 3581
1 3582
1 3583
1 3584
1 3585
1 3586
1 3587
1 3588
1 3589
1 3590
1 3591
1 3592
1 3593
1 3594
1 3595
1 3596
1 3597
1 3598
1 3599
1 3600
1 3601
1 3602
1 3603
1 3604
1 3605
1 3606
1 3607
1 3608
1 3609
1 3610
1 3611
1 3612
1 3613
1 3614
1 3615
1 3616
1 3617
1 3618
1 3619
1 3620
1 3621
1 3622
1 3623
1 3624
1 3625
1 3626
1 3627
1 3628
1 3629
1 3630
1 3631
1 3632
1 3633
1 3634
1 3635
1 3636
1 3637
1 3638
1 3639
1 3640
1 3641
1 3642
1 3643
1 3644
1 3645
1 3646
1 3647
1 3648
1 3649
1 3650
1 3651
1 3652
1 3653
1 3654
1 3655
1 3656
1 3657
1 3658
1 3659
1 3660
1 3661
1 3662
1 3663
1 3664
1 3665
1 3666
1 3667
1 3668
1 3669
1 3670
1 3671
1 3672
1 3673
1 3674
1 3675
1 3676
1 3677
1 3678
1 3679
1 3680
1 3681
1 3682
1 3683
1 3684
1 3685
1 3686
1 3687
1 3688
1 3689
1 3690
1 3691
1 3692
1 3693
1 3694
1 3695
1 3696
1 3697
1 3698
1 3699
1 3700
1 3701
1 3702
1 3703
1 3704
1 3705
1 3706
1 3707
1 3708
1 3709
1 3710
1 3711
1 3712
1 3713
1 3714
1 3715
1 3716
1 3717
1 3718
1 3719
1 3720
1 3721
1 3722
1 3723
1 3724
1 3725
1 3726
1 3727
1 3728
1 3729
1 3730
1 3731
1 3732
1 3733
1 3734
1 3735
1 3736
1 3737
1 3738
1 3739
1 3740
1 3741
1 3742
1 3743
1 3744
1 3745
1 3746
1 3747
1 3748
1 3749
1 3750
1 3751
1 3752
1 3753
1 3754
1 3755
1 3756
1 3757
1 3758
1 3759
1 3760
1 3761
1 3762
1 3763
1 3764
1 3765
1 3766
1 3767
1 3768
1 3769
1 3770
1 3771
1 3772
1 3773
1 3774
1 3775
1 3776
1 3777
1 3778
1 3779
1 3780
1 3781
1 3782
1 3783
1 3784
1 3785
1 3786
1 3787
1 3788
1 3789
1 3790
1 3791
1 3792
1 3793
1 3794
1 3795
1 3796
1 3797
1 3798
1 3799
1 3800
1 3801
1 3802
1 3803
1 3804
1 3805
1 3806
1 3807
1 3808
1 3809
1 3810
1 3811
1 3812
1 3813
1 3814
1 3815
1 3816
1 3817
1 3818
1 3819
1 3820
1 3821
1 3822
1 3823
1 3824
1 3825
1 3826
1 3827
1 3828
1 3829
1 3830
1 3831
1 3832
1 3833
1 3834
1 3835
1 3836
1 3837
1 3838
1 3839
1 3840
1 3841
1 3842
1 3843
1 3844
1 3845
1 3846
1 3847
1 3848
1 3849
1 3850
1 3851
1 3852
1 3853
1 3854
1 3855
1 3856
1 3857
1 3858
1 3859
1 3860
1 3861
1 3862
1 3863
1 3864
1 3865
1 3866
1 3867
1 3868
1 3869
1 3870
1 3871
1 3872
1 3873
1 3874
1 3875
1 3876
1 3877
1 3878
1 3879
1 3880
1 3881
1 3882
1 3883
1 3884
1 3885
1 3886
1 3887
1 3888
1 3889
1 3890
1 3891
1 3892
1 3893
1 3894
1 3895
1 3896
1 3897
1 3898
1 3899
1 3900
1 3901
1 3902
1 3903
1 3904
1 3905
1 3906
1 3907
1 3908
1 3909
1 3910
1 3911
1 3912
1 3913
1 3914
1 3915
1 3916
1 3917
1 3918
1 3919
1 3920
1 3921
1 3922
1 3923
1 3924
1 3925
1 3926
1 3927
1 3928
1 3929
1 3930
1 3931
1 3932
1 3933
1 3934
1 3935
1 3936
1 3937
1 3938
1 3939
1 3940
1 3941
1 3942
1 3943
1 3944
1 3945
1 3946
1 3947
1 3948
1 3949
1 3950
1 3951
1 3952
1 3953
1 3954
1 3955
1 3956
1 3957
1 3958
1 3959
1 3960
1 3961
1 3962
1 3963
1 3964
1 3965
1 3966
1 3967
1 3968
1 3969
1 3970
1 3971
1 3972
1 3973
1 3974
1 3975
1 3976
1 3977
1 3978
1 3979
1 3980
1 3981
1 3982
1 3983
1 3984
1 3985
1 3986
1 3987
1 3988
1 3989
1 3990
1 3991
1 3992
1 3993
1 3994
1 3995
1 3996
1 3997
1 3998
1 3999
1 4000
1 4001
1 4002
1 4003
1 4004
1 4005
1 4006
1 4007
1 4008
1 4009
1 4010
1 4011
1 4012
1 4013
1 4014
1 4015
1 4016
1 4017
1 4018
1 4019
1 4020
1 4021
1 4022
1 4023
1 4024
1 4025
1 4026
1 4027
1 4028
1 4029
1 4030
1 4031
1 4032
1 4033
1 4034
1 4035
1 4036
1 4037
1 4038
1 4039
1 4040
1 4041
1 4042
1 4043
1 4044
1 4045
1 4046
1 4047
1 4048
1 4049
1 4050
1 4051
1 4052
1 4053
1 4054
1 4055
1 4056
1 4057
1 4058
1 4059
1 4060
1 4061
1 4062
1 4063
1 4064
1 4065
1 4066
1 4067
1 4068
1 4069
1 4070
1 4071
1 4072
1 4073
1 4074
1 4075
1 4076
1 4077
1 4078
1 4079
1 4080
1 4081
1 4082
1 4083
1 4084
1 4085
1 4086
1 4087
1 4088
1 4089
1 4090
1 4091
1 4092
1 4093
1 4094
1 4095
1 4096
1 4097
1 4098
1 4099
1 4100
1 4101
1 4102
1 4103
1 4104
1 4105
1 4106
1 4107
1 4108
1 4109
1 4110
1 4111
1 4112
1 4113
1 4114
1 4115
1 4116
1 4117
1 4118
1 4119
1 4120
1 4121
1 4122
1 4123
1 4124
1 4125
1 4126
1 4127
1 4128
1 4129
1 4130
1 4131
1 4132
1 4133
1 4134
1 4135
1 4136
1 4137
1 4138
1 4139
1 4140
1 4141
1 4142
1 4143
1 4144
1 4145
1 4146
1 4147
1 4148
1 4149
1 4150
1 4151
1 4152
1 4153
1 4154
1 4155
1 4156
1 4157
1 4158
1 4159
1 4160
1 4161
1 4162
1 4163
1 4164
1 4165
1 4166
1 4167
1 4168
1 4169
1 4170
1 4171
1 4172
1 4173
1 4174
1 4175
1 4176
1 4177
1 4178
1 4179
1 4180
1 4181
1 4182
1 4183
1 4184
1 4185
1 4186
1 4187
1 4188
1 4189
1 4190
1 4191
1 4192
1 4193
1 4194
1 4195
1 4196
1 4197
1 4198
1 4199
1 4200
1 4201
1 4202
1 4203
1 4204
1 4205
1 4206
1 4207
1 4208
1 4209
1 4210
1 4211
1 4212
1 4213
1 4214
1 4215
1 4216
1 4217
1 4218
1 4219
1 4220
1 4221
1 4222
1 4223
1 4224
1 4225
1 4226
1 4227
1 4228
1 4229
1 4230
1 4231
1 4232
1 4233
1 4234
1 4235
1 4236
1 4237
1 4238
1 4239
1 4240
1 4241
1 4242
1 4243
1 4244
1 4245
1 4246
1 4247
1 4248
1 4249
1 4250
1 4251
1 4252
1 4253
1 4254
1 4255
1 4256
1 4257
1 4258
1 4259
1 4260
1 4261
1 4262
1 4263
1 4264
1 4265
1 4266
1 4267
1 4268
1 4269
1 4270
1 4271
1 4272
1 4273
1 4274
1 4275
1 4276
1 4277
1 4278
1 4279
1 4280
1 4281
1 4282
1 4283
1 4284
1 4285
1 4286
1 4287
1 4288
1 4289
1 4290
1 4291
1 4292
1 4293
1 4294
1 4295
1 4296
1 4297
1 4298
1 4299
1 4300
1 4301
1 4302
1 4303
1 4304
1 4305
1 4306
1 4307
1 4308
1 4309
1 4310
1 4311
1 4312
1 4313
1 4314
1 4315
1 4316
1 4317
1 4318
1 4319
1 4320
1 4321
1 4322
1 4323
1 4324
1 4325
1 4326
1 4327
1 4328
1 4329
1 4330
1 4331
1 4332
1 4333
1 4334
1 4335
1 4336
1 4337
1 4338
1 4339
1 4340
1 4341
1 4342
1 4343
1 4344
1 4345
1 4346
1 4347
1 4348
1 4349
1 4350
1 4351
1 4352
1 4353
1 4354
1 4355
1 4356
1 4357
1 4358
1 4359
1 4360
1 4361
1 4362
1 4363
1 4364
1 4365
1 4366
1 4367
1 4368
1 4369
1 4370
1 4371
1 4372
1 4373
1 4374
1 4375
1 4376
1 4377
1 4378
1 4379
1 4380
1 4381
1 4382
1 4383
1 4384
1 4385
1 4386
1 4387
1 4388
1 4389
1 4390
1 4391
1 4392
1 4393
1 4394
1 4395
1 4396
1 4397
1 4398
1 4399
1 4400
1 4401
1 4402
1 4403
1 4404
1 4405
1 4406
1 4407
1 4408
1 4409
1 4410
1 4411
1 4412
1 4413
1 4414
1 4415
1 4416
1 4417
1 4418
1 4419
1 4420
1 4421
1 4422
1 4423
1 4424
1 4425
1 4426
1 4427
1 4428
1 4429
1 4430
1 4431
1 4432
1 4433
1 4434
1 4435
1 4436
1 4437
1 4438
1 4439
1 4440
1 4441
1 4442
1 4443
1 4444
1 4445
1 4446
1 4447
1 4448
1 4449
1 4450
1 4451
1 4452
1 4453
1 4454
1 4455
1 4456
1 4457
1 4458
1 4459
1 4460
1 4461
1 4462
1 4463
1 4464
1 4465
1 4466
1 4467
1 4468
1 4469
1 4470
1 4471
1 4472
1 4473
1 4474
1 4475
1 4476
1 4477
1 4478
1 4479
1 4480
1 4481
1 4482
1 4483
1 4484
1 4485
1 4486
1 4487
1 4488
1 4489
1 4490
1 4491
1 4492
1 4493
1 4494
1 4495
1 4496
1 4497
1 4498
1 4499
1 4500
1 4501
1 4502
1 4503
1 4504
1 4505
1 4506
1 4507
1 4508
1 4509
1 4510
1 4511
1 4512
1 4513
1 4514
1 4515
1 4516
1 4517
1 4518
1 4519
1 4520
1 4521
1 4522
1 4523
1 4524
1 4525
1 4526
1 4527
1 4528
1 4529
1 4530
1 4531
1 4532
1 4533
1 4534
1 4535
1 4536
1 4537
1 4538
1 4539
1 4540
1 4541
1 4542
1 4543
1 4544
1 4545
1 4546
1 4547
1 4548
1 4549
1 4550
1 4551
1 4552
1 4553
1 4554
1 4555
1 4556
1 4557
1 4558
1 4559
1 4560
1 4561
1 4562
1 4563
1 4564
1 4565
1 4566
1 4567
1 4568
1 4569
1 4570
1 4571
1 4572
1 4573
1 4574
1 4575
1 4576
1 4577
1 4578
1 4579
1 4580
1 4581
1 4582
1 4583
1 4584
1 4585
1 4586
1 4587
1 4588
1 4589
1 4590
1 4591
1 4592
1 4593
1 4594
1 4595
1 4596
1 4597
1 4598
1 4599
1 4600
1 4601
1 4602
1 4603
1 4604
1 4605
1 4606
1 4607
1 4608
1 4609
1 4610
1 4611
1 4612
1 4613
1 4614
1 4615
1 4616
1 4617
1 4618
1 4619
1 4620
1 4621
1 4622
1 4623
1 4624
1 4625
1 4626
1 4627
1 4628
1 4629
1 4630
1 4631
1 4632
1 4633
1 4634
1 4635
1 4636
1 4637
1 4638
1 4639
1 4640
1 4641
1 4642
1 4643
1 4644
1 4645
1 4646
1 4647
1 4648
1 4649
1 4650
1 4651
1 4652
1 4653
1 4654
1 4655
1 4656
1 4657
1 4658
1 4659
1 4660
1 4661
1 4662
1 4663
1 4664
1 4665
1 4666
1 4667
1 4668
1 4669
1 4670
1 4671
1 4672
1 4673
1 4674
1 4675
1 4676
1 4677
1 4678
1 4679
1 4680
1 4681
1 4682
1 4683
1 4684
1 4685
1 4686
1 4687
1 4688
1 4689
1 4690
1 4691
1 4692
1 4693
1 4694
1 4695
1 4696
1 4697
1 4698
1 4699
1 4700
1 4701
1 4702
1 4703
1 4704
1 4705
1 4706
1 4707
1 4708
1 4709
1 4710
1 4711
1 4712
1 4713
1 4714
1 4715
1 4716
1 4717
1 4718
1 4719
1 4720
1 4721
1 4722
1 4723
1 4724
1 4725
1 4726
1 4727
1 4728
1 4729
1 4730
1 4731
1 4732
1 4733
1 4734
1 4735
1 4736
1 4737
1 4738
1 4739
1 4740
1 4741
1 4742
1 4743
1 4744
1 4745
1 4746
1 4747
1 4748
1 4749
1 4750
1 4751
1 4752
1 4753
1 4754
1 4755
1 4756
1 4757
1 4758
1 4759
1 4760
1 4761
1 4762
1 4763
1 4764
1 4765
1 4766
1 4767
1 4768
1 4769
1 4770
1 4771
1 4772
1 4773
1 4774
1 4775
1 4776
1 4777
1 4778
1 4779
1 4780
1 4781
1 4782
1 4783
1 4784
1 4785
1 4786
1 4787
1 4788
1 4789
1 4790
1 4791
1 4792
1 4793
1 4794
1 4795
1 4796
1 4797
1 4798
1 4799
1 4800
1 4801
1 4802
1 4803
1 4804
1 4805
1 4806
1 4807
1 4808
1 4809
1 4810
1 4811
1 4812
1 4813
1 4814
1 4815
1 4816
1 4817
1 4818
1 4819
1 4820
1 4821
1 4822
1 4823
1 4824
1 4825
1 4826
1 4827
1 4828
1 4829
1 4830
1 4831
1 4832
1 4833
1 4834
1 4835
1 4836
1 4837
1 4838
1 4839
1 4840
1 4841
1 4842
1 4843
1 4844
1 4845
1 4846
1 4847
1 4848
1 4849
1 4850
1 4851
1 4852
1 4853
1 4854
1 4855
1 4856
1 4857
1 4858
1 4859
1 4860
1 4861
1 4862
1 4863
1 4864
1 4865
1 4866
1 4867
1 4868
1 4869
1 4870
1 4871
1 4872
1 4873
1 4874
1 4875
1 4876
1 4877
1 4878
1 4879
1 4880
1 4881
1 4882
1 4883
1 4884
1 4885
1 4886
1 4887
1 4888
1 4889
1 4890
1 4891
1 4892
1 4893
1 4894
1 4895
1 4896
1 4897
1 4898
1 4899
1 4900
1 4901
1 4902
1 4903
1 4904
1 4905
1 4906
1 4907
1 4908
1 4909
1 4910
1 4911
1 4912
1 4913
1 4914
1 4915
1 4916
1 4917
1 4918
1 4919
1 4920
1 4921
1 4922
1 4923
1 4924
1 4925
1 4926
1 4927
1 4928
1 4929
1 4930
1 4931
1 4932
1 4933
1 4934
1 4935
1 4936
1 4937
1 4938
1 4939
1 4940
1 4941
1 4942
1 4943
1 4944
1 4945
1 4946
1 4947
1 4948
1 4949
1 4950
1 4951
1 4952
1 4953
1 4954
1 4955
1 4956
1 4957
1 4958
1 4959
1 4960
1 4961
1 4962
1 4963
1 4964
1 4965
1 4966
1 4967
1 4968
1 4969
1 4970
1 4971
1 4972
1 4973
1 4974
1 4975
1 4976
1 4977
1 4978
1 4979
1 4980
1 4981
1 4982
1 4983
1 4984
1 4985
1 4986
1 4987
1 4988
1 4989
1 4990
1 4991
1 4992
1 4993
1 4994
1 4995
1 4996
1 4997
1 4998
1 4999
CELL_TYPES 5000
1 
1 
1 
1 
1 
1 
1 
1 
1 
1 
1 
1 
1 
1 
1 
1 
1 
1 
1 
1 
1 
1 
1 
1 
1 
1 
1 
1 
1 
1 
1 
1 
1 
1 
1 
1 
1 
1 
1 
1 
1 
1 
1 
1 
1 
1 
1 
1 
1 
1 
1 
1 
1 
1 
1 
1 
1 
1 
1 
1 
1 
1 
1 
1 
1 
1 
1 
1 
1 
1 
1 
1 
1 
1 
1 
1 
1 
1 
1 
1 
1 
1 
1 
1 
1 
1 
1 
1 
1 
1 
1 
1 
1 
1 
1 
1 
1 
1 
1 
1 
1 
1 
1 
1 
1 
1 
1 
1 
1 
1 
1 
1 
1 
1 
1 
1 
1 
1 
1 
1 
1 
1 
1 
1 
1 
1 
1 
1 
1 
1 
1 
1 
1 
1 
1 
1 
1 
1 
1 
1 
1 
1 
1 
1 
1 
1 
1 
1 
1 
1 
1 
1 
1 
1 
1 
1 
1 
1 
1 
1 
1 
1 
1 
1 
1 
1 
1 
1 
1 
1 
1 
1 
1 
1 
1 
1 
1 
1 
1 
1 
1 
1 
1 
1 
1 
1 
1 
1 
1 
1 
1 
1 
1 
1 
1 
1 
1 
1 
1 
1 
1 
1 
1 
1 
1 
1 
1 
1 
1 
1 
1 
1 
1 
1 
1 
1 
1 
1 
1 
1 
1 
1 
1 
1 
1 
1 
1 
1 
1 
1 
1 
1 
1 
1 
1 
1 
1 
1 
1 
1 
1 
1 
1 
1 
1 
1 
1 
1 
1 
1 
1 
1 
1 
1 
1 
1 
1 
1 
1 
1 
1 
1 
1 
1 
1 
1 
1 
1 
1 
1 
1 
1 
1 
1 
1 
1 
1 
1 
1 
1 
1 
1 
1 
1 
1 
1 
1 
1 
1 
1 
1 
1 
1 
1 
1 
1 
1 
1 
1 
1 
1 
1 
1 
1 
1 
1 
1 
1 
1 
1 
1 
1 
1 
1 
1 
1 
1 
1 
1 
1 
1 
1 
1 
1 
1 
1 
1 
1 
1 
1 
1 
1 
1 
1 
1 
1 
1 
1 
1 
1 
1 
1 
1 
1 
1 
1 
1 
1 
1 
1 
1 
1 
1 
1 
1 
1 
1 
1 
1 
1 
1 
1 
1 
1 
1 
1 
1 
1 
1 
1 
1 
1 
1 
1 
1 
1 
1 
1 
1 
1 
1 
1 
1 
1 
1 
1 
1 
1 
1 
1 
1 
1 
1 
1 
1 
1 
1 
1 
1 
1 
1 
1 
1 
1 
1 
1 
1 
1 
1 
1 
1 
1 
1 
1 
1 
1 
1 
1 
1 
1 
1 
1 
1 
1 
1 
1 
1 
1 
1 
1 
1 
1 
1 
1 
1 
1 
1 
1 
1 
1 
1 
1 
1 
1 
1 
1 
1 
1 
1 
1 
1 
1 
1 
1 
1 
1 
1 
1 
1 
1 
1 
1 
1 
1 
1 
1 
1 
1 
1 
1 
1 
1 
1 
1 
1 
1 
1 
1 
1 
1 
1 
1 
1 
1 
1 
1 
1 
1 
1 
1 
1 
1 
1 
1 
1 
1 
1 
1 
1 
1 
1 
1 
1 
1 
1 
1 
1 
1 
1 
1 
1 
1 
1 
1 
1 
1 
1 
1 
1 
1 
1 
1 
1 
1 
1 
1 
1 
1 
1 
1 
1 
1 
1 
1 
1 
1 
1 
1 
1 
1 
1 
1 
1 
1 
1 
1 
1 
1 
1 
1 
1 
1 
1 
1 
1 
1 
1 
1 
1 
1 
1 
1 
1 
1 
1 
1 
1 
1 
1 
1 
1 
1 
1 
1 
1 
1 
1 
1 
1 
1 
1 
1 
1 
1 
1 
1 
1 
1 
1 
1 
1 
1 
1 
1 
1 
1 
1 
1 
1 
1 
1 
1 
1 
1 
1 
1 
1 
1 
1 
1 
1 
1 
1 
1 
1 
1 
1 
1 
1 
1 
1 
1 
1 
1 
1 
1 
1 
1 
1 
1 
1 
1 
1 
1 
1 
1 
1 
1 
1 
1 
1 
1 
1 
1 
1 
1 
1 
1 
1 
1 
1 
1 
1 
1 
1 
1 
1 
1 
1 
1 
1 
1 
1 
1 
1 
1 
1 
1 
1 
1 
1 
1 
1 
1 
1 
1 
1 
1 
1 
1 
1 
1 
1 
1 
1 
1 
1 
1 
1 
1 
1 
1 
1 
1 
1 
1 
1 
1 
1 
1 
1 
1 
1 
1 
1 
1 
1 
1 
1 
1 
1 
1 
1 
1 
1 
1 
1 
1 
1 
1 
1 
1 
1 
1 
1 
1 
1 
1 
1 
1 
1 
1 
1 
1 
1 
1 
1 
1 
1 
1 
1 
1 
1 
1 
1 
1 
1 
1 
1 
1 
1 
1 
1 
1 
1 
1 
1 
1 
1 
1 
1 
1 
1 
1 
1 
1 
1 
1 
1 
1 
1 
1 
1 
1 
1 
1 
1 
1 
1 
1 
1 
1 
1 
1 
1 
1 
1 
1 
1 
1 
1 
1 
1 
1 
1 
1 
1 
1 
1 
1 
1 
1 
1 
1 
1 
1 
1 
1 
1 
1 
1 
1 
1 
1 
1 
1 
1 
1 
1 
1 
1 
1 
1 
1 
1 
1 
1 
1 
1 
1 
1 
1 
1 
1 
1 
1 
1 
1 
1 
1 
1 
1 
1 
1 
1 
1 
1 
1 
1 
1 
1 
1 
1 
1 
1 
1 
1 
1 
1 
1 
1 
1 
1 
1 
1 
1 
1 
1 
1 
1 
1 
1 
1 
1 
1 
1 
1 
1 
1 
1 
1 
1 
1 
1 
1 
1 
1 
1 
1 
1 
1 
1 
1 
1 
1 
1 
1 
1 
1 
1 
1 
1 
1 
1 
1 
1 
1 
1 
1 
1 
1 
1 
1 
1 
1 
1 
1 
1 
1 
1 
1 
1 
1 
1 
1 
1 
1 
1 
1 
1 
1 
1 
1 
1 
1 
1 
1 
1 
1 
1 
1 
1 
1 
1 
1 
1 
1 
1 
1 
1 
1 
1 
1 
1 
1 
1 
1 
1 
1 
1 
1 
1 
1 
1 
1 
1 
1 
1 
1 
1 
1 
1 
1 
1 
1 
1 
1 
1 
1 
1 
1 
1 
1 
1 
1 
1 
1 
1 
1 
1 
1 
1 
1 
1 
1 
1 
1 
1 
1 
1 
1 
1 
1 
1 
1 
1 
1 
1 
1 
1 
1 
1 
1 
1 
1 
1 
1 
1 
1 
1 
1 
1 
1 
1 
1 
1 
1 
1 
1 
1 
1 
1 
1 
1 
1 
1 
1 
1 
1 
1 
1 
1 
1 
1 
1 
1 
1 
1 
1 
1 
1 
1 
1 
1 
1 
1 
1 
1 
1 
1 
1 
1 
1 
1 
1 
1 
1 
1 
1 
1 
1 
1 
1 
1 
1 
1 
1 
1 
1 
1 
1 
1 
1 
1 
1 
1 
1 
1 
1 
1 
1 
1 
1 
1 
1 
1 
1 
1 
1 
1 
1 
1 
1 
1 
1 
1 
1 
1 
1 
1 
1 
1 
1 
1 
1 
1 
1 
1 
1 
1 
1 
1 
1 
1 
1 
1 
1 
1 
1 
1 
1 
1 
1 
1 
1 
1 
1 
1 
1 
1 
1 
1 
1 
1 
1 
1 
1 
1 
1 
1 
1 
1 
1 
1 
1 
1 
1 
1 
1 
1 
1 
1 
1 
1 
1 
1 
1 
1 
1 
1 
1 
1 
1 
1 
1 
1 
1 
1 
1 
1 
1 
1 
1 
1 
1 
1 
1 
1 
1 
1 
1 
1 
1 
1 
1 
1 
1 
1 
1 
1 
1 
1 
1 
1 
1 
1 
1 
1 
1 
1 
1 
1 
1 
1 
1 
1 
1 
1 
1 
1 
1 
1 
1 
1 
1 
1 
1 
1 
1 
1 
1 
1 
1 
1 
1 
1 
1 
1 
1 
1 
1 
1 
1 
1 
1 
1 
1 
1 
1 
1 
1 
1 
1 
1 
1 
1 
1 
1 
1 
1 
1 
1 
1 
1 
1 
1 
1 
1 
1 
1 
1 
1 
1 
1 
1 
1 
1 
1 
1 
1 
1 
1 
1 
1 
1 
1 
1 
1 
1 
1 
1 
1 
1 
1 
1 
1 
1 
1 
1 
1 
1 
1 
1 
1 
1 
1 
1 
1 
1 
1 
1 
1 
1 
1 
1 
1 
1 
1 
1 
1 
1 
1 
1 
1 
1 
1 
1 
1 
1 
1 
1 
1 
1 
1 
1 
1 
1 
1 
1 
1 
1 
1 
1 
1 
1 
1 
1 
1 
1 
1 
1 
1 
1 
1 
1 
1 
1 
1 
1 
1 
1 
1 
1 
1 
1 
1 
1 
1 
1 
1 
1 
1 
1 
1 
1 
1 
1 
1 
1 
1 
1 
1 
1 
1 
1 
1 
1 
1 
1 
1 
1 
1 
1 
1 
1 
1 
1 
1 
1 
1 
1 
1 
1 
1 
1 
1 
1 
1 
1 
1 
1 
1 
1 
1 
1 
1 
1 
1 
1 
1 
1 
1 
1 
1 
1 
1 
1 
1 
1 
1 
1 
1 
1 
1 
1 
1 
1 
1 
1 
1 
1 
1 
1 
1 
1 
1 
1 
1 
1 
1 
1 
1 
1 
1 
1 
1 
1 
1 
1 
1 
1 
1 
1 
1 
1 
1 
1 
1 
1 
1 
1 
1 
1 
1 
1 
1 
1 
1 
1 
1 
1 
1 
1 
1 
1 
1 
1 
1 
1 
1 
1 
1 
1 
1 
1 
1 
1 
1 
1 
1 
1 
1 
1 
1 
1 
1 
1 
1 
1 
1 
1 
1 
1 
1 
1 
1 
1 
1 
1 
1 
1 
1 
1 
1 
1 
1 
1 
1 
1 
1 
1 
1 
1 
1 
1 
1 
1 
1 
1 
1 
1 
1 
1 
1 
1 
1 
1 
1 
1 
1 
1 
1 
1 
1 
1 
1 
1 
1 
1 
1 
1 
1 
1 
1 
1 
1 
1 
1 
1 
1 
1 
1 
1 
1 
1 
1 
1 
1 
1 
1 
1 
1 
1 
1 
1 
1 
1 
1 
1 
1 
1 
1 
1 
1 
1 
1 
1 
1 
1 
1 
1 
1 
1 
1 
1 
1 
1 
1 
1 
1 
1 
1 
1 
1 
1 
1 
1 
1 
1 
1 
1 
1 
1 
1 
1 
1 
1 
1 
1 
1 
1 
1 
1 
1 
1 
1 
1 
1 
1 
1 
1 
1 
1 
1 
1 
1 
1 
1 
1 
1 
1 
1 
1 
1 
1 
1 
1 
1 
1 
1 
1 
1 
1 
1 
1 
1 
1 
1 
1 
1 
1 
1 
1 
1 
1 
1 
1 
1 
1 
1 
1 
1 
1 
1 
1 
1 
1 
1 
1 
1 
1 
1 
1 
1 
1 
1 
1 
1 
1 
1 
1 
1 
1 
1 
1 
1 
1 
1 
1 
1 
1 
1 
1 
1 
1 
1 
1 
1 
1 
1 
1 
1 
1 
1 
1 
1 
1 
1 
1 
1 
1 
1 
1 
1 
1 
1 
1 
1 
1 
1 
1 
1 
1 
1 
1 
1 
1 
1 
1 
1 
1 
1 
1 
1 
1 
1 
1 
1 
1 
1 
1 
1 
1 
1 
1 
1 
1 
1 
1 
1 
1 
1 
1 
1 
1 
1 
1 
1 
1 
1 
1 
1 
1 
1 
1 
1 
1 
1 
1 
1 
1 
1 
1 
1 
1 
1 
1 
1 
1 
1 
1 
1 
1 
1 
1 
1 
1 
1 
1 
1 
1 
1 
1 
1 
1 
1 
1 
1 
1 
1 
1 
1 
1 
1 
1 
1 
1 
1 
1 
1 
1 
1 
1 
1 
1 
1 
1 
1 
1 
1 
1 
1 
1 
1 
1 
1 
1 
1 
1 
1 
1 
1 
1 
1 
1 
1 
1 
1 
1 
1 
1 
1 
1 
1 
1 
1 
1 
1 
1 
1 
1 
1 
1 
1 
1 
1 
1 
1 
1 
1 
1 
1 
1 
1 
1 
1 
1 
1 
1 
1 
1 
1 
1 
1 
1 
1 
1 
1 
1 
1 
1 
1 
1 
1 
1 
1 
1 
1 
1 
1 
1 
1 
1 
1 
1 
1 
1 
1 
1 
1 
1 
1 
1 
1 
1 
1 
1 
1 
1 
1 
1 
1 
1 
1 
1 
1 
1 
1 
1 
1 
1 
1 
1 
1 
1 
1 
1 
1 
1 
1 
1 
1 
1 
1 
1 
1 
1 
1 
1 
1 
1 
1 
1 
1 
1 
1 
1 
1 
1 
1 
1 
1 
1 
1 
1 
1 
1 
1 
1 
1 
1 
1 
1 
1 
1 
1 
1 
1 
1 
1 
1 
1 
1 
1 
1 
1 
1 
1 
1 
1 
1 
1 
1 
1 
1 
1 
1 
1 
1 
1 
1 
1 
1 
1 
1 
1 
1 
1 
1 
1 
1 
1 
1 
1 
1 
1 
1 
1 
1 
1 
1 
1 
1 
1 
1 
1 
1 
1 
1 
1 
1 
1 
1 
1 
1 
1 
1 
1 
1 
1 
1 
1 
1 
1 
1 
1 
1 
1 
1 
1 
1 
1 
1 
1 
1 
1 
1 
1 
1 
1 
1 
1 
1 
1 
1 
1 
1 
1 
1 
1 
1 
1 
1 
1 
1 
1 
1 
1 
1 
1 
1 
1 
1 
1 
1 
1 
1 
1 
1 
1 
1 
1 
1 
1 
1 
1 
1 
1 
1 
1 
1 
1 
1 
1 
1 
1 
1 
1 
1 
1 
1 
1 
1 
1 
1 
1 
1 
1 
1 
1 
1 
1 
1 
1 
1 
1 
1 
1 
1 
1 
1 
1 
1 
1 
1 
1 
1 
1 
1 
1 
1 
1 
1 
1 
1 
1 
1 
1 
1 
1 
1 
1 
1 
1 
1 
1 
1 
1 
1 
1 
1 
1 
1 
1 
1 
1 
1 
1 
1 
1 
1 
1 
1 
1 
1 
1 
1 
1 
1 
1 
1 
1 
1 
1 
1 
1 
1 
1 
1 
1 
1 
1 
1 
1 
1 
1 
1 
1 
1 
1 
1 
1 
1 
1 
1 
1 
1 
1 
1 
1 
1 
1 
1 
1 
1 
1 
1 
1 
1 
1 
1 
1 
1 
1 
1 
1 
1 
1 
1 
1 
1 
1 
1 
1 
1 
1 
1 
1 
1 
1 
1 
1 
1 
1 
1 
1 
1 
1 
1 
1 
1 
1 
1 
1 
1 
1 
1 
1 
1 
1 
1 
1 
1 
1 
1 
1 
1 
1 
1 
1 
1 
1 
1 
1 
1 
1 
1 
1 
1 
1 
1 
1 
1 
1 
1 
1 
1 
1 
1 
1 
1 
1 
1 
1 
1 
1 
1 
1 
1 
1 
1 
1 
1 
1 
1 
1 
1 
1 
1 
1 
1 
1 
1 
1 
1 
1 
1 
1 
1 
1 
1 
1 
1 
1 
1 
1 
1 
1 
1 
1 
1 
1 
1 
1 
1 
1 
1 
1 
1 
1 
1 
1 
1 
1 
1 
1 
1 
1 
1 
1 
1 
1 
1 
1 
1 
1 
1 
1 
1 
1 
1 
1 
1 
1 
1 
1 
1 
1 
1 
1 
1 
1 
1 
1 
1 
1 
1 
1 
1 
1 
1 
1 
1 
1 
1 
1 
1 
1 
1 
1 
1 
1 
1 
1 
1 
1 
1 
1 
1 
1 
1 
1 
1 
1 
1 
1 
1 
1 
1 
1 
1 
1 
1 
1 
1 
1 
1 
1 
1 
1 
1 
1 
1 
1 
1 
1 
1 
1 
1 
1 
1 
1 
1 
1 
1 
1 
1 
1 
1 
1 
1 
1 
1 
1 
1 
1 
1 
1 
1 
1 
1 
1 
1 
1 
1 
1 
1 
1 
1 
1 
1 
1 
1 
1 
1 
1 
1 
1 
1 
1 
1 
1 
1 
1 
1 
1 
1 
1 
1 
1 
1 
1 
1 
1 
1 
1 
1 
1 
1 
1 
1 
1 
1 
1 
1 
1 
1 
1 
1 
1 
1 
1 
1 
1 
1 
1 
1 
1 
1 
1 
1 
1 
1 
1 
1 
1 
1 
1 
1 
1 
1 
1 
1 
1 
1 
1 
1 
1 
1 
1 
1 
1 
1 
1 
1 
1 
1 
1 
1 
1 
1 
1 
1 
1 
1 
1 
1 
1 
1 
1 
1 
1 
1 
1 
1 
1 
1 
1 
1 
1 
1 
1 
1 
1 
1 
1 
1 
1 
1 
1 
1 
1 
1 
1 
1 
1 
1 
1 
1 
1 
1 
1 
1 
1 
1 
1 
1 
1 
1 
1 
1 
1 
1 
1 
1 
1 
1 
1 
1 
1 
1 
1 
1 
1 
1 
1 
1 
1 
1 
1 
1 
1 
1 
1 
1 
1 
1 
1 
1 
1 
1 
1 
1 
1 
1 
1 
1 
1 
1 
1 
1 
1 
1 
1 
1 
1 
1 
1 
1 
1 
1 
1 
1 
1 
1 
1 
1 
1 
1 
1 
1 
1 
1 
1 
1 
1 
1 
1 
1 
1 
1 
1 
1 
1 
1 
1 
1 
1 
1 
1 
1 
1 
1 
1 
1 
1 
1 
1 
1 
1 
1 
1 
1 
1 
1 
1 
1 
1 
1 
1 
1 
1 
1 
1 
1 
1 
1 
1 
1 
1 
1 
1 
1 
1 
1 
1 
1 
1 
1 
1 
1 
1 
1 
1 
1 
1 
1 
1 
1 
1 
1 
1 
1 
1 
1 
1 
1 
1 
1 
1 
1 
1 
1 
1 
1 
1 
1 
1 
1 
1 
1 
1 
1 
1 
1 
1 
1 
1 
1 
1 
1 
1 
1 
1 
1 
1 
1 
1 
1 
1 
1 
1 
1 
1 
1 
1 
1 
1 
1 
1 
1 
1 
1 
1 
1 
1 
1 
1 
1 
1 
1 
1 
1 
1 
1 
1 
1 
1 
1 
1 
1 
1 
1 
1 
1 
1 
1 
1 
1 
1 
1 
1 
1 
1 
1 
1 
1 
1 
1 
1 
1 
1 
1 
1 
1 
1 
1 
1 
1 
1 
1 
1 
1 
1 
1 
1 
1 
1 
1 
1 
1 
1 
1 
1 
1 
1 
1 
1 
1 
1 
1 
1 
1 
1 
1 
1 
1 
1 
1 
1 
1 
1 
1 
1 
1 
1 
1 
1 
1 
1 
1 
1 
1 
1 
1 
1 
1 
1 
1 
1 
1 
1 
1 
1 
1 
1 
1 
1 
1 
1 
1 
1 
1 
1 
1 
1 
1 
1 
1 
1 
1 
1 
1 
1 
1 
1 
1 
1 
1 
1 
1 
1 
1 
1 
1 
1 
1 
1 
1 
1 
1 
1 
1 
1 
1 
1 
1 
1 
1 
1 
1 
1 
1 
1 
1 
1 
1 
1 
1 
1 
1 
1 
1 
1 
1 
1 
1 
1 
1 
1 
1 
1 
1 
1 
1 
1 
1 
1 
1 
1 
1 
1 
1 
1 
1 
1 
1 
1 
1 
1 
1 
1 
1 
1 
1 
1 
1 
1 
1 
1 
1 
1 
1 
1 
1 
1 
1 
1 
1 
1 
1 
1 
1 
1 
1 
1 
1 
1 
1 
1 
1 
1 
1 
1 
1 
1 
1 
1 
1 
1 
1 
1 
1 
1 
1 
1 
1 
1 
1 
1 
1 
1 
1 
1 
1 
1 
1 
1 
1 
1 
1 
1 
1 
1 
1 
1 
1 
1 
1 
1 
1 
1 
1 
1 
1 
1 
1 
1 
1 
1 
1 
1 
1 
1 
1 
1 
1 
1 
1 
1 
1 
1 
1 
1 
1 
1 
1 
1 
1 
1 
1 
1 
1 
1 
1 
1 
1 
1 
1 
1 
1 
1 
1 
1 
1 
1 
1 
1 
1 
1 
1 
1 
1 
1 
1 
1 
1 
1 
1 
1 
1 
1 
1 
1 
1 
1 
1 
1 
1 
1 
1 
1 
1 
1 
1 
1 
1 
1 
1 
1 
1 
1 
1 
1 
1 
1 
1 
1 
1 
1 
1 
1 
1 
1 
1 
1 
1 
1 
1 
1 
1 
1 
1 
1 
1 
1 
1 
1 
1 
1 
1 
1 
1 
1 
1 
1 
1 
1 
1 
1 
1 
1 
1 
1 
1 
1 
1 
1 
1 
1 
1 
1 
1 
1 
1 
1 
1 
1 
1 
1 
1 
1 
1 
1 
1 
1 
1 
1 
1 
1 
1 
1 
1 
1 
1 
1 
1 
1 
1 
1 
1 
1 
1 
1 
1 
1 
1 
1 
1 
1 
1 
1 
1 
1 
1 
1 
1 
1 
1 
1 
1 
1 
1 
1 
1 
1 
1 
1 
1 
1 
1 
1 
1 
1 
1 
1 
1 
1 
1 
1 
1 
1 
1 
1 
1 
1 
1 
1 
1 
1 
1 
1 
1 
1 
1 
1 
1 
1 
1 
1 
1 
1 
1 
1 
1 
1 
1 
1 
1 
1 
1 
1 
1 
1 
1 
1 
1 
1 
1 
1 
1 
1 
1 
1 
1 
1 
1 
1 
1 
1 
1 
1 
1 
1 
1 
1 
1 
1 
1 
1 
1 
1 
1 
1 
1 
1 
1 
1 
1 
1 
1 
1 
1 
1 
1 
1 
1 
1 
1 
1 
1 
1 
1 
1 
1 
1 
1 
1 
1 
1 
1 
1 
1 
1 
1 
1 
1 
1 
1 
1 
1 
1 
1 
1 
1 
1 
1 
1 
1 
1 
1 
1 
1 
1 
1 
1 
1 
1 
1 
1 
1 
1 
1 
1 
1 
1 
1 
1 
1 
1 
1 
1 
1 
1 
1 
1 
1 
1 
1 
1 
1 
1 
1 
1 
1 
1 
1 
1 
1 
1 
1 
1 
1 
1 
1 
1 
1 
1 
1 
1 
1 
1 
1 
1 
1 
1 
1 
1 
1 
1 
1 
1 
1 
1 
1 
1 
1 
1 
1 
1 
1 
1 
1 
1 
1 
1 
1 
1 
1 
1 
1 
1 
1 
1 
1 
1 
1 
1 
1 
1 
1 
1 
1 
1 
1 
1 
1 
1 
1 
1 
1 
1 
1 
1 
1 
1 
1 
1 
1 
1 
1 
1 
1 
1 
1 
1 
1 
1 
1 
1 
1 
1 
1 
1 
1 
1 
1 
1 
1 
1 
1 
1 
1 
1 
1 
1 
1 
1 
1 
1 
1 
1 
1 
1 
1 
1 
1 
1 
1 
1 
1 
1 
1 
1 
1 
1 
1 
1 
1 
1 
1 
1 
1 
1 
1 
1 
1 
1 
1 
1 
1 
1 
1 
1 
1 
1 
1 
1 
1 
1 
1 
1 
1 
1 
1 
1 
1 
1 
1 
1 
1 
1 
1 
1 
1 
1 
1 
1 
1 
1 
1 
1 
1 
1 
1 
1 
1 
1 
1 
1 
1 
1 
1 
1 
1 
1 
1 
1 
1 
1 
1 
1 
1 
1 
1 
1 
1 
1 
1 
1 
1 
1 
1 
1 
1 
1 
1 
1 
1 
1 
1 
1 
1 
1 
1 
1 
1 
1 
1 
1 
1 
1 
1 
1 
1 
1 
1 
1 
1 
1 
1 
1 
1 
1 
1 
1 
1 
1 
1 
1 
1 
1 
1 
1 
1 
1 
1 
1 
1 
1 
1 
1 
1 
1 
1 
1 
1 
1 
1 
1 
1 
1 
1 
1 
1 
1 
1 
1 
1 
1 
1 
1 
1 
1 
1 
1 
1 
1 
1 
1 
1 
1 
1 
1 
1 
1 
1 
1 
1 
1 
1 
1 
1 
1 
1 
1 
1 
1 
1 
1 
1 
1 
1 
1 
1 
1 
1 
1 
1 
1 
1 
1 
1 
1 
1 
1 
1 
1 
1 
1 
1 
1 
1 
1 
1 
1 
1 
1 
1 
1 
1 
1 
1 
1 
1 
1 
1 
1 
1 
1 
1 
1 
1 
1 
1 
1 
1 
1 
1 
1 
1 
1 
1 
1 
1 
1 
1 
1 
1 
1 
1 
1 
1 
1 
1 
1 
1 
1 
1 
1 
1 
1 
1 
1 
1 
1 
1 
1 
1 
1 
1 
1 
1 
1 
1 
1 
1 
1 
1 
1 
1 
1 
1 
1 
1 
1 
1 
1 
1 
1 
1 
1 
1 
1 
1 
1 
1 
1 
1 
1 
1 
1 
1 
1 
1 
1 
1 
1 
1 
1 
1 
1 
1 
1 
1 
1 
1 
1 
1 
1 
1 
1 
1 
1 
1 
1 
1 
1 
1 
1 
1 
1 
1 
1 
1 
1 
1 
1 
1 
1 
1 
1 
1 
1 
1 
1 
1 
1 
1 
1 
1 
1 
1 
1 
1 
1 
1 
1 
1 
1 
1 
1 
1 
1 
1 
1 
1 
1 
1 
1 
1 
1 
1 
1 
1 
1 
1 
1 
1 
1 
1 
1 
1 
1 
1 
1 
1 
1 
1 
1 
1 
1 
1 
1 
1 
1 
1 
1 
1 
1 
1 
1 
1 
1 
1 
1 
1 
1 
1 
1 
1 
1 
1 
1 
1 
1 
1 
1 
1 
1 
1 
1 
1 
1 
1 
1 
1 
1 
1 
1 
1 
1 
1 
1 
1 
1 
1 
1 
1 
1 
1 
1 
1 
1 
1 
1 
1 
1 
1 
1 
1 
1 
1 
1 
1 
1 
1 
1 
1 
1 
1 
1 
1 
1 
1 
1 
1 
1 
1 
1 
1 
1 
1 
1 
1 
1 
1 
1 
1 
1 
1 
1 
1 
1 
1 
1 
1 
1 
1 
1 
1 
1 
1 
1 
1 
1 
1 
1 
1 
1 
1 
1 
1 
1 
1 
1 
1 
1 
1 
1 
1 
1 
1 
1 
1 
1 
1 
1 
1 
1 
1 
1 
1 
1 
1 
1 
1 
1 
1 
1 
1 
1 
1 
1 
1 
1 
1 
1 
1 
1 
1 
1 
1 
1 
1 
1 
1 
1 
1 
1 
1 
1 
1 
1 
1 
1 
1 
1 
1 
1 
1 
1 
1 
1 
1 
1 
1 
1 
1 
1 
1 
1 
1 
1 
1 
1 
1 
1 
1 
1 
1 
1 
1 
1 
1 
1 
1 
1 
1 
1 
1 
1 
1 
1 
1 
1 
1 
1 
1 
1 
1 
1 
1 
1 
1 
1 
1 
1 
1 
1 
1 
1 
1 
1 
1 
1 
1 
1 
1 
1 
1 
1 
1 
1 
1 
1 
1 
1 
1 
1 
1 
1 
1 
1 
1 
1 
1 
1 
1 
1 
1 
1 
1 
1 
1 
1 
1 
1 
1 
1 
1 
1 
1 
1 
1 
1 
1 
1 
1 
1 
1 
1 
1 
1 
1 
1 
1 
1 
1 
1 
1 
1 
1 
1 
1 
1 
1 
1 
1 
1 
1 
1 
1 
1 
1 
1 
1 
1 
1 
1 
1 
1 
1 
1 
1 
1 
1 
1 
1 
1 
1 
1 
1 
1 
1 
1 
1 
1 
1 
1 
1 
1 
1 
1 
1 
1 
1 
1 
1 
1 
1 
1 
1 
1 
1 
1 
1 
1 
1 
1 
1 
1 
1 
1 
1 
1 
1 
1 
1 
1 
1 
1 
1 
1 
1 
1 
1 
1 
1 
1 
1 
1 
1 
1 
1 
1 
1 
1 
1 
1 
1 
1 
1 
1 
1 
1 
1 
1 
1 
1 
1 
1 
1 
1 
1 
1 
1 
1 
1 
1 
1 
1 
1 
1 
1 
1 
1 
1 
1 
1 
1 
1 
1 
1 
1 
1 
1 
1 
1 
1 
1 
1 
1 
1 
1 
1 
1 
1 
1 
1 
1 
1 
1 
1 
1 
1 
1 
1 
1 
1 
1 
1 
1 
1 
1 
1 
1 
1 
1 
1 
1 
1 
1 
1 
1 
1 
1 
1 
1 
1 
1 
1 
1 
1 
1 
1 
1 
1 
1 
1 
1 
1 
1 
1 
1 
1 
1 
1 
1 
1 
1 
1 
1 
1 
1 
1 
1 
1 
1 
1 
1 
1 
1 
1 
1 
1 
1 
1 
1 
1 
1 
1 
1 
1 
1 
1 
1 
1 
1 
1 
1 
1 
1 
1 
1 
1 
1 
1 
1 
1 
1 
1 
1 
1 
1 
1 
1 
1 
1 
1 
1 
1 
1 
1 
1 
1 
1 
1 
1 
1 
1 
1 
1 
1 
1 
1 
1 
1 
1 
1 
1 
1 
1 
1 
1 
1 
1 
1 
1 
1 
1 
1 
1 
1 
1 
1 
1 
1 
1 
1 
1 
1 
1 
1 
1 
1 
1 
1 
1 
1 
1 
1 
1 
1 
1 
1 
1 
1 
1 
1 
1 
1 
1 
1 
1 
1 
1 
1 
1 
1 
1 
1 
1 
1 
1 
1 
1 
1 
1 
1 
1 
1 
1 
1 
1 
1 
1 
1 
1 
1 
1 
1 
1 
1 
1 
1 
1 
1 
1 
1 
1 
1 
1 
1 
1 
1 
1 
1 
1 
1 
1 
1 
1 
1 
1 
1 
1 
1 
1 
1 
1 
1 
1 
1 
1 
1 
1 
1 
1 
1 
1 
1 
1 
1 
1 
1 
1 
1 
1 
1 
1 
1 
1 
1 
1 
1 
1 
1 
1 
1 
1 
1 
1 
1 
1 
1 
1 
1 
1 
1 
1 
1 
1 
1 
1 
1 
1 
1 
1 
1 
1 
1 
1 
1 
1 
1 
1 
1 
1 
1 
1 
1 
1 
1 
1 
1 
1 
1 
1 
1 
1 
1 
1 
1 
1 
1 
1 
1 
1 
1 
1 
1 
1 
1 
1 
1 
1 
1 
1 
1 
1 
1 
1 
1 
1 
1 
1 
1 
1 
1 
1 
1 
1 
1 
1 
1 
1 
1 
1 
1 
1 
1 
1 
1 
1 
1 
1 
1 
1 
1 
1 
1 
1 
1 
1 
1 
1 
1 
1 
1 
1 
1 
1 
1 
1 
1 
1 
1 
1 
1 
1 
1 
1 
1 
1 
1 
1 
1 
1 
1 
1 
1 
1 
1 
1 
1 
1 
1 
1 
1 
1 
1 
1 
1 
1 
1 
1 
1 
1 
1 
1 
1 
1 
1 
1 
1 
1 
1 
1 
1 
1 
1 
1 
1 
1 
1 
1 
1 
1 
1 
1 
1 
1 
1 
1 
1 
1 
1 
1 
1 
1 
1 
1 
1 
1 
1 
1 
1 
1 
1 
1 
1 
1 
1 
1 
1 
1 
1 
1 
1 
1 
1 
1 
1 
1 
1 
1 
1 
1 
1 
1 
1 
1 
1 
1 
1 
1 
1 
1 
1 
1 
1 
1 
1 
1 
1 
1 
1 
1 
1 
1 
1 
1 
1 
1 
1 
1 
1 
1 
1 
1 
1 
1 
1 
1 
1 
1 
1 
1 
1 
1 
1 
1 
1 
1 
1 
1 
1 
1 
1 
1 
1 
1 
1 
1 
1 
1 
1 
1 
1 
1 
1 
1 
1 
1 
1 
1 
1 
1 
1 
1 
1 
1 
1 
1 
1 
1 
1 
1 
1 
1 
1 
1 
1 
1 
1 
1 
1 
1 
1 
1 
1 
1 
1 
1 
1 
1 
1 
1 
1 
1 
1 
1 
1 
1 
1 
1 
1 
1 
1 
1 
1 
1 
1 
1 
1 
1 
1 
1 
1 
1 
1 
1 
1 
1 
1 
1 
1 
1 
1 
1 
1 
1 
1 
1 
1 
1 
1 
1 
1 
1 
1 
1 
1 
1 
1 
1 
1 
1 
1 
1 
1 
1 
1 
1 
1 
1 
1 
1 
1 
1 
1 
1 
1 
1 
1 
1 
1 
1 
1 
1 
1 
1 
1 
1 
1 
1 
1 
1 
1 
1 
1 
1 
1 
1 
1 
1 
1 
1 
1 
1 
1 
1 
1 
1 
1 
1 
1 
1 
1 
1 
1 
1 
1 
1 
1 
1 
1 
1 
1 
1 
1 
1 
1 
1 
1 
1 
1 
1 
1 
1 
1 
1 
1 
1 
1 
1 
1 
1 
1 
1 
1 
1 
1 
1 
1 
1 
1 
1 
1 
1 
1 
1 
1 
1 
1 
1 
1 
1 
1 
POINT_DATA 5000
VECTORS Stress float
726.025 -699.599 0.
30.0573 -1003.19 0.
37.3368 -986.184 0.
-181.939 -1102.99 0.
-272.859 -1315.17 0.
-363.779 -1527.35 0.
510.503 -1265.32 0.
494.652 -1302.32 0.
478.801 -1339.31 0.
112.349 -1466.74 0.
144.65 -1391.34 0.
176.951 -1315.95 0.
-402.855 -1595.7 0.
-425.896 -1649.43 0.
-340.181 -1648.63 0.
-323.267 -1609.21 0.
-306.354 -1569.8 0.
-187.372 -1512.58 0.
-211.681 -1569.39 0.
-235.991 -1626.2 0.
-320.257 -1677.08 0.
-314.194 -1662.88 0.
-308.13 -1648.67 0.
-179.105 -1507.01 0.
-122.12 -1373.93 0.
63.3351 -1185.79 0.
-562.9 -1452.94 0.
-562.177 -1451.28 0.
-497.397 -1433.07 0.
-525.295 -1498.41 0.
-553.192 -1563.74 0.
146.044 -1275.12 0.
169.719 -1219.9 0.
193.393 -1164.67 0.
-253.427 -1347.1 0.
-259.056 -1359.96 0.
-264.685 -1372.82 0.
-716.22 -1614.9 0.
-744.495 -1680.75 0.
-468.095 -1587.77 0.
-361.992 -1339.89 0.
-255.888 -1092.01 0.
-576.69 -1081.91 0.
-558.6 -1039.64 0.
-540.51 -997.383 0.
-345.851 -1038.78 0.
-479.028 -1349.6 0.
-612.204 -1660.42 0.
-206.688 -1516.13 0.
-187.585 -1471.58 0.
-5301.35 -3627.07 0.
221.293 -1207.35 0.
249.157 -1142.42 0.
-803.911 -1577.63 0.
-862.29 -1713.72 0.
-920.669 -1849.8 0.
-626.283 -1755.8 0.
-593.262 -1678.71 0.
-560.241 -1601.61 0.
-695.733 -1679.58 0.
-727.318 -1753.17 0.
-758.904 -1826.76 0.
-313.711 -1596.36 0.
-286.197 -1531.83 0.
-569.998 -1613.43 0.
-608.121 -1702.26 0.
-646.244 -1791.09 0.
-128.237 -1590.91 0.
-86.8502 -1494.45 0.
-45.4634 -1397.99 0.
-451.389 -1538.91 0.
-452.902 -1542.61 0.
-454.415 -1546.31 0.
-497.27 -1497.18 0.
-450.967 -1389.28 0.
-351.659 -1262.52 0.
-291.125 -1391.69 0.
-372.544 -1581.71 0.
-337.368 -1683.82 0.
-337.489 -1684.06 0.
-337.61 -1684.29 0.
-199.378 -1620.17 0.
-193.335 -1605.8 0.
-187.291 -1591.43 0.
-45.8569 -1515.87 0.
-38.9362 -1499.48 0.
-32.0156 -1483.1 0.
-182.007 -1562.72 0.
-190.934 -1583.69 0.
388.676 -1350.75 0.
388.892 -1350.24 0.
389.109 -1349.73 0.
-365.342 -1672.08 0.
-365.715 -1672.95 0.
-366.088 -1673.83 0.
-525.092 -1657.81 0.
-448.061 -1478.01 0.
-371.029 -1298.2 0.
86.9441 -1178.79 0.
17.2534 -1341.21 0.
63.7797 -952.054 0.
51.706 -962.581 0.
58.9594 -945.591 0.
-122.712 -1046.06 0.
-213.64 -1258.32 0.
-304.569 -1470.58 0.
256.905 -1342.73 0.
241.077 -1379.69 0.
225.25 -1416.65 0.
182.366 -1405.4 0.
214.666 -1329.95 0.
246.966 -1254.51 0.
-446.496 -1583.21 0.
-469.524 -1636.82 0.
-204.429 -1559.17 0.
-187.481 -1519.76 0.
-170.534 -1480.35 0.
-46.8553 -1420.62 0.
-71.1264 -1477.5 0.
-95.3974 -1534.39 0.
-208.308 -1597.91 0.
-202.269 -1583.65 0.
-196.229 -1569.39 0.
-453.729 -1593.42 0.
-396.839 -1460.32 0.
-670.646 -1468.95 0.
-476.999 -1384.62 0.
-476.274 -1382.99 0.
-304.818 -1318.97 0.
-332.571 -1384.45 0.
-360.324 -1449.92 0.
-71.334 -1336.86 0.
-47.6494 -1281.64 0.
-23.9648 -1226.43 0.
-10.9264 -1211.73 0.
-16.7359 -1224.47 0.
-22.5454 -1237.21 0.
-835.643 -1634.88 0.
-863.987 -1700.66 0.
-624.313 -1624.02 0.
-518.404 -1376 0.
-412.495 -1127.97 0.
-412.467 -980.286 0.
-394.381 -937.928 0.
-376.295 -895.571 0.
-176.143 -935.2 0.
-309.268 -1246.05 0.
-442.393 -1556.9 0.
-316.877 -1531.9 0.
-297.77 -1487.4 0.
-3478.19 -2814.26 0.
176.983 -1194.9 0.
204.898 -1130.04 0.
-739.122 -1518.33 0.
-797.611 -1654.4 0.
-856.1 -1790.48 0.
-582.595 -1705.84 0.
-549.63 -1628.78 0.
-516.665 -1551.72 0.
-610.887 -1612.14 0.
-642.548 -1685.7 0.
-674.209 -1759.26 0.
-552.704 -1667.03 0.
-525.422 -1602.38 0.
-398.828 -1509.21 0.
-437.045 -1598.01 0.
-475.262 -1686.82 0.
-342.732 -1651.28 0.
-301.274 -1554.87 0.
-259.816 -1458.46 0.
-394.703 -1483.46 0.
-396.105 -1487.23 0.
-397.508 -1491.01 0.
-509.559 -1471.03 0.
-463.16 -1363.21 0.
-181.597 -1157.65 0.
-152.148 -1300.23 0.
-233.577 -1490.34 0.
-212.171 -1598.93 0.
-212.325 -1599.15 0.
-212.48 -1599.37 0.
-14.992 -1509.66 0.
-9.11279 -1495.13 0.
-3.23354 -1480.6 0.
-117.695 -1515.47 0.
-110.916 -1498.95 0.
-104.138 -1482.43 0.
-188.416 -1534.44 0.
-197.266 -1555.52 0.
186.574 -1405.63 0.
186.763 -1405.17 0.
186.952 -1404.71 0.
-178.008 -1560.24 0.
-178.377 -1561.12 0.
-178.747 -1562.01 0.
-540.251 -1633.08 0.
-463.201 -1453.1 0.
-386.151 -1273.12 0.
150.147 -1120.35 0.
80.4026 -1282.5 0.
-574.046 -1151.69 0.
9.2708 -1074.96 0.
25.8486 -1035.17 0.
-526.527 -2067.59 0.
-256.915 -1438.58 0.
-558.585 -2142.6 0.
-782.625 -3255.62 0.
-641.638 -2927.37 0.
-1163.85 -4146.56 0.
-944.825 -4136.09 0.
-880.606 -3986.8 0.
-1047.93 -4377.77 0.
-1570.88 -4092.27 0.
-1291.02 -3438.56 0.
-1462.85 -4724.17 0.
-969.115 -3572.02 0.
-1203.56 -4118.97 0.
-957.58 -3784.42 0.
-1211.44 -4376.27 0.
-2130.56 -6520.4 0.
-2581.3 -7316.69 0.
-1757.71 -5394.55 0.
-1566.44 -4947.79 0.
-1746.99 -4057.17 0.
-1550.33 -3598.79 0.
-2096.15 -4929.15 0.
-1665.06 -4289.71 0.
-1487.63 -3874.69 0.
-838.787 -2904.02 0.
-968.348 -3205.72 0.
-1632.08 -4753.82 0.
-2058.36 -5529.18 0.
-1773.84 -4865.38 0.
-1754.32 -4819.91 0.
-1058.77 -4084.41 0.
-1430.58 -4953.35 0.
-2440.94 -7312.22 0.
-3018.41 -6469.18 0.
-2354.52 -4920.68 0.
-2818.17 -6417.45 0.
-2345.64 -5315.54 0.
-2467.68 -5600.94 0.
-1870.57 -4663.83 0.
-1099.29 -2864.29 0.
-952.189 -2521.2 0.
-1133.28 -3459.21 0.
-1471.62 -4248.88 0.
-1846.79 -5124.48 0.
-1724.05 -4575.38 0.
-1597.44 -4280.08 0.
-5185.52 -7859.21 0.
-1248.48 -4405.29 0.
-1368.31 -4684.17 0.
-2432.44 -5563.18 0.
-1922.44 -4372.53 0.
-2280.87 -5208.26 0.
-1767.67 -4522.29 0.
-1537.87 -3985.91 0.
-2028.69 -5130.94 0.
-2080.65 -5176.86 0.
-1380.01 -3542.32 0.
-1343.65 -3457.78 0.
-1512.71 -3417.84 0.
-1680.34 -3810 0.
-1922.08 -5357.24 0.
-1860.29 -5212.8 0.
-2326.3 -6299.88 0.
-2506.89 -6262.83 0.
-1765.29 -4532.35 0.
-2154.52 -5440.45 0.
-1884.83 -5037.24 0.
-1604.12 -4382.75 0.
-2159.4 -5678.9 0.
-1629.2 -4029.23 0.
-1344.86 -3365.37 0.
-1208.48 -3783.48 0.
-946.778 -3390.17 0.
-1739.47 -5239.48 0.
-2301.3 -6679.78 0.
-1614.02 -5075.85 0.
-1903.84 -5751.84 0.
-1776.38 -5938.21 0.
-1563.16 -5441.23 0.
-1787.28 -5964.72 0.
-1333.27 -4180.03 0.
-711.514 -2729.61 0.
-809.415 -2958.39 0.
-1030.72 -3456.42 0.
-1151.05 -3737.38 0.
-1044.84 -3862.41 0.
-474.169 -2530.33 0.
-468.182 -2515.86 0.
-337.044 -2253.75 0.
-65.0815 -1619.32 0.
-408.033 -2419.69 0.
-765.621 -2100.63 0.
-383.937 -1209.99 0.
-547.184 -1590.95 0.
-53.3957 -1688.1 0.
-302.64 -2268.86 0.
-102.797 -427.106 0.
450.713 -204.02 0.
422.42 -268.899 0.
68.3743 -453.73 0.
94.7202 -392.523 0.
121.066 -331.317 0.
488.215 -56.9742 0.
597.163 196.654 0.
706.112 450.282 0.
971.446 586.156 0.
932.367 493.962 0.
893.289 401.767 0.
535.192 302.564 0.
571.169 387.308 0.
897.355 593.266 0.
914.122 632.232 0.
930.889 671.198 0.
743.687 632.321 0.
776.533 709.012 0.
809.379 785.703 0.
751.297 777.442 0.
736.992 743.979 0.
722.687 710.515 0.
263.787 425.635 0.
208.311 295.142 0.
702.751 400.271 0.
653.516 447.338 0.
689.638 532.255 0.
538.106 570.982 0.
662.801 862.505 0.
787.495 1154.03 0.
872.829 1259.03 0.
794.642 1076.83 0.
716.456 894.637 0.
961.229 1046.46 0.
1039.87 1228.32 0.
1118.5 1410.18 0.
383.993 1212.25 0.
442.861 1348.59 0.
695.142 1526.92 0.
551.059 1190.28 0.
406.975 853.634 0.
510.635 710.056 0.
503.273 693.007 0.
495.911 675.957 0.
529.664 806.649 0.
644.809 1075 0.
759.953 1343.34 0.
746.958 1376.09 0.
741.138 1360.95 0.
-1216.61 509.174 0.
1208.6 1429.91 0.
1145.84 1284.02 0.
364.342 864.635 0.
376.043 892.604 0.
387.744 920.573 0.
557.374 1009.3 0.
560.352 1016.4 0.
563.33 1023.5 0.
544.584 968.722 0.
508.218 883.717 0.
471.852 798.712 0.
462.997 770.392 0.
452.992 746.508 0.
690.117 859.498 0.
815.099 1151.51 0.
940.081 1443.52 0.
729.913 1450.81 0.
640.517 1241.59 0.
551.122 1032.38 0.
513.732 958.761 0.
528.962 992.77 0.
544.191 1026.78 0.
747.104 858.155 0.
573.51 454.252 0.
704.037 187.96 0.
688.591 312.012 0.
756.75 471.894 0.
694.781 538.169 0.
684.027 513.083 0.
673.272 487.997 0.
861.014 549.371 0.
851.923 527.19 0.
842.833 505.008 0.
642.063 399.26 0.
632.244 375.491 0.
622.425 351.723 0.
664.081 292.779 0.
618.399 186.861 0.
626.843 103.181 0.
587.097 11.2851 0.
547.35 -80.6111 0.
529.747 -120.643 0.
551.115 -70.099 0.
572.482 -19.5547 0.
92.0941 -296.153 0.
12.0962 -482.377 0.
-67.9017 -668.601 0.
325.658 -390.942 0.
415.153 -181.965 0.
110.974 -303.262 0.
550.581 -130.033 0.
522.248 -195.01 0.
-33.5322 -465.809 0.
-7.1626 -404.694 0.
19.2071 -343.579 0.
382.581 -70.0888 0.
491.503 183.608 0.
600.425 437.306 0.
856.524 568.959 0.
817.636 476.747 0.
778.748 384.536 0.
824.063 457.255 0.
860.041 542.08 0.
1013.4 674.328 0.
1030.25 713.239 0.
1047.11 752.15 0.
525.781 571.019 0.
558.779 647.614 0.
591.777 724.209 0.
600.949 744.719 0.
586.852 711.197 0.
572.755 677.675 0.
390.455 512.173 0.
335.102 381.441 0.
975.697 548.883 0.
1023.52 637.714 0.
1059.77 722.549 0.
417.009 550.69 0.
541.682 842.105 0.
666.354 1133.52 0.
916.258 1309.13 0.
837.963 1127 0.
759.668 944.875 0.
758.329 990.568 0.
837.031 1172.33 0.
915.734 1354.09 0.
536.112 1309.68 0.
595.143 1445.96 0.
845.201 1623.7 0.
701.094 1287.2 0.
556.987 950.708 0.
622.487 788.779 0.
615.04 771.79 0.
607.593 754.801 0.
343.118 757.028 0.
458.267 1025.27 0.
573.416 1293.52 0.
666.381 1373.87 0.
660.933 1358.19 0.
-1472.96 430.453 0.
1171.29 1444.86 0.
1108.65 1299.06 0.
432.124 924.774 0.
443.811 952.745 0.
455.499 980.717 0.
517.901 1023.67 0.
520.845 1030.67 0.
523.789 1037.67 0.
550.768 1003.17 0.
514.356 918.192 0.
477.944 833.212 0.
701.405 904.929 0.
691.237 881.151 0.
642.45 869.892 0.
767.413 1161.97 0.
892.376 1454.05 0.
661.98 1453.4 0.
572.78 1243.92 0.
483.58 1034.45 0.
320.801 907.945 0.
336.363 941.7 0.
351.926 975.456 0.
1109.19 1045.7 0.
935.25 641.738 0.
753.111 240.574 0.
764.933 376.453 0.
832.875 536.383 0.
591.994 525.418 0.
581.355 500.357 0.
570.717 475.295 0.
702.409 512.996 0.
693.445 490.67 0.
684.481 468.344 0.
674.604 445.375 0.
664.928 421.426 0.
655.252 397.477 0.
788.364 377.43 0.
742.369 271.653 0.
609.037 126.6 0.
569.097 34.6253 0.
529.157 -57.3497 0.
488.579 -106.099 0.
509.728 -55.248 0.
530.877 -4.39699 0.
211.741 -213.813 0.
131.6 -399.946 0.
51.4593 -586.078 0.
125.703 -444.599 0.
215.327 -236.036 0.
-94.1646 -1157.53 0.
-20.4625 -1234.91 0.
-63.5172 -1336.57 0.
-420.071 -1540.15 0.
-374.442 -1433.12 0.
-328.813 -1326.1 0.
-139.804 -1246.26 0.
-205.552 -1400.42 0.
-271.301 -1554.57 0.
-164.176 -1549.15 0.
-157.958 -1534.19 0.
-151.739 -1519.23 0.
28.1861 -1458.45 0.
15.008 -1488.5 0.
115.077 -1470.01 0.
100.125 -1504 0.
85.1738 -1537.99 0.
-465.563 -1764.87 0.
-416.213 -1648.2 0.
-366.863 -1531.54 0.
-395.296 -1486.66 0.
-380.795 -1452.44 0.
-366.295 -1418.22 0.
-369.872 -1452.35 0.
-397.601 -1517.06 0.
90.5444 -1360.58 0.
289.538 -1051.83 0.
409.555 -773.146 0.
-175.292 -874.221 0.
-247.983 -1042.58 0.
-320.674 -1210.94 0.
-191.719 -1180.62 0.
-127.791 -1032.06 0.
-63.8633 -883.503 0.
-212.558 -1113.87 0.
-376.774 -1496.46 0.
-540.99 -1879.06 0.
-759.137 -1863.06 0.
-674.024 -1662.36 0.
-395.192 -1388.8 0.
-346.419 -1275.27 0.
-297.647 -1161.73 0.
-153.166 -1067.44 0.
-203.968 -1186.52 0.
-254.77 -1305.6 0.
-630.051 -1411.75 0.
-537.164 -1195.66 0.
-444.277 -979.567 0.
-350.618 -1017.46 0.
-427.066 -1194.63 0.
-2824.72 -2367.39 0.
-121.466 -1139.63 0.
-85.2473 -1054.86 0.
-395.748 -1144.52 0.
-419.404 -1199.26 0.
-443.059 -1254 0.
-509.577 -1309.59 0.
-509.912 -1310.52 0.
-510.246 -1311.46 0.
-461.537 -1306.33 0.
-474.805 -1336.77 0.
-488.072 -1367.22 0.
-96.7087 -1180.5 0.
-84.678 -1153.14 0.
-345.359 -1249.28 0.
-364.094 -1293.07 0.
-382.83 -1336.86 0.
-511.236 -1410.08 0.
-502.527 -1387.93 0.
-493.817 -1365.79 0.
-763.614 -1522.5 0.
-809.336 -1626.15 0.
-855.057 -1729.79 0.
168.717 -1322.51 0.
159.885 -1344.86 0.
20.7083 -1423.23 0.
-6.04642 -1411.62 0.
5.46176 -1383.61 0.
-238.41 -1451.09 0.
-198.33 -1356.51 0.
-158.249 -1261.92 0.
-202.874 -1281.41 0.
-254.489 -1401.34 0.
-306.105 -1521.27 0.
-90.3511 -1523.54 0.
-138.945 -1636.06 0.
-187.539 -1748.58 0.
79.5968 -1573.63 0.
119.926 -1479.4 0.
-226.416 -1535.13 0.
-126.171 -1300.78 0.
-25.9261 -1066.42 0.
95.5091 -964.961 0.
-13.5475 -1219.31 0.
-122.604 -1473.66 0.
-367.695 -1608.01 0.
-315.943 -1487.78 0.
-264.191 -1367.56 0.
-264.505 -1258.55 0.
-206.188 -1119.63 0.
114.572 -1037.82 0.
-314.5 -1329.26 0.
-357.658 -1430.8 0.
-112.316 -1377.19 0.
-66.6903 -1270.24 0.
-21.0647 -1163.3 0.
-44.8869 -1173.89 0.
-110.539 -1328.17 0.
-176.192 -1482.45 0.
-291.557 -1572.03 0.
-285.28 -1557.12 0.
-279.003 -1542.2 0.
-163.943 -1510.04 0.
-177.302 -1539.95 0.
85.3404 -1450.6 0.
70.4911 -1484.65 0.
55.6418 -1518.69 0.
-194.62 -1617.48 0.
-145.309 -1500.89 0.
-95.9993 -1384.29 0.
-313.875 -1419.95 0.
-299.641 -1385.5 0.
-285.407 -1351.06 0.
-260.747 -1374.59 0.
-288.503 -1439.23 0.
-841.235 -1728.9 0.
-63.3551 -1171.13 0.
56.3683 -892.363 0.
23.1165 -758.374 0.
-49.6318 -926.904 0.
-122.38 -1095.43 0.
-303.431 -1197.13 0.
-239.407 -1048.78 0.
-175.383 -900.428 0.
-150.892 -1055.99 0.
-314.909 -1438.8 0.
-478.925 -1821.62 0.
-714.286 -1812.56 0.
-629.068 -1611.88 0.
-383.539 -1351.72 0.
-334.82 -1238.16 0.
-286.101 -1124.6 0.
-183.695 -1049 0.
-234.51 -1168.12 0.
-285.324 -1287.24 0.
-525.064 -1336.99 0.
-432.031 -1121.05 0.
-338.997 -905.122 0.
-238.493 -937.657 0.
-314.497 -1115.28 0.
-65.5142 -1154.05 0.
-503.363 -1272.99 0.
-466.558 -1188.62 0.
-292.865 -1068.04 0.
-316.29 -1122.97 0.
-339.716 -1177.9 0.
-507.622 -1277.74 0.
-508.004 -1278.65 0.
-508.385 -1279.57 0.
-484.352 -1284.55 0.
-497.669 -1314.9 0.
-510.985 -1345.26 0.
-66.4005 -1136.12 0.
-54.2049 -1108.83 0.
-454.335 -1264.55 0.
-473.047 -1308.36 0.
-491.76 -1352.17 0.
-282.024 -1280.04 0.
-272.926 -1258.28 0.
-263.827 -1236.52 0.
-653.528 -1442.98 0.
-699.185 -1546.69 0.
-744.842 -1650.39 0.
27.8224 -1352.04 0.
18.9296 -1374.37 0.
-17.8533 -1407.81 0.
-56.8288 -1401.52 0.
-45.3229 -1373.59 0.
-66.1389 -1346.02 0.
-26.1768 -1251.13 0.
13.7852 -1156.24 0.
-346.067 -1312.19 0.
-398.017 -1431.78 0.
-449.967 -1551.38 0.
98.5917 -1411.53 0.
49.7085 -1523.91 0.
0.825439 -1636.3 0.
296.696 -1450.36 0.
337.006 -1356 0.
-473.418 -1608.44 0.
-372.892 -1374.23 0.
-272.367 -1140.02 0.
110.206 -927.164 0.
1.33802 -1181.41 0.
-107.53 -1435.66 0.
-401.592 -1591.42 0.
-350.129 -1470.92 0.
-298.666 -1350.41 0.
-127.547 -1167.8 0.
-69.4166 -1028.99 0.
418.807 -678.379 0.
-243.041 -580.941 0.
-257.957 -612.633 0.
361.488 -822.324 0.
457.135 -597.89 0.
461.422 -586.612 0.
-455.278 -2279.48 0.
524.176 6.65439 0.
513.807 -17.2106 0.
-126.491 -922.745 0.
-453.76 -1686.17 0.
33.4294 -549.206 0.
264.241 -110.844 0.
154.186 -369.046 0.
260.856 -948.919 0.
579.171 -206.982 0.
220.372 -1045 0.
-120.462 -1920.74 0.
105.678 -1394.92 0.
559.358 -338.206 0.
233.083 -259.416 0.
316.823 -64.9881 0.
413.744 160.15 0.
543.591 328.008 0.
173.896 -534.569 0.
388.24 16.1677 0.
-56.2402 -451.098 0.
-449.518 -1369.78 0.
113.698 -891.373 0.
571.623 174.573 0.
942.348 1037.08 0.
-764.735 -2028.55 0.
-192.338 -693.356 0.
428.456 754.847 0.
891.262 1290.73 0.
-70.3631 -952.961 0.
-856.426 -2787.09 0.
-827.713 -2134.13 0.
-272.242 -840.809 0.
-109.323 -698.674 0.
-69.5621 -606.944 0.
174.449 -38.7184 0.
-3.26678 -541.004 0.
-202.274 -1004.96 0.
438.183 489.707 0.
99.4361 -51.3663 0.
-330.992 -1054.27 0.
-196.803 -739.792 0.
-498.816 -1722.23 0.
358.069 278.532 0.
549.786 -64.0894 0.
-329.193 -119.484 0.
-667.552 -906.387 0.
-192.97 -999.149 0.
-476.439 -1659.41 0.
-861.459 -2556.58 0.
-43.6942 -162.911 0.
544.034 1207.49 0.
491.946 1085.01 0.
-87.5705 -288.037 0.
-541.642 -1346.27 0.
574.158 1258.62 0.
684.645 593.917 0.
-138.889 -1325.53 0.
-633.113 -1445.03 0.
412.86 994.957 0.
-78.824 -152.951 0.
264.095 -407.7 0.
42.5928 -924.011 0.
128.126 -723.87 0.
-553.755 -1382.07 0.
394.794 829.561 0.
357.338 740.569 0.
30.3002 -1047.71 0.
-288.112 -1790.89 0.
373.251 -351.477 0.
189.113 -697.084 0.
-18.7137 -1182.65 0.
879.29 568.19 0.
408.622 -529.369 0.
429.003 -481.078 0.
-267.274 -824.618 0.
-242.704 -769.292 0.
-255.906 -802.042 0.
157.384 -1601.11 0.
155.41 -1607.57 0.
-271.436 -2605.44 0.
811.535 -627.474 0.
1280.4 464.523 0.
176.315 401.177 0.
-26.9954 -73.0634 0.
-248.803 -590.623 0.
220.932 -666.083 0.
282.388 -522.824 0.
828.416 751.107 0.
97.1914 -327.594 0.
-82.9983 -747.61 0.
-155.309 -915.874 0.
548.053 173.582 0.
176.983 -692.332 0.
161.358 -844.294 0.
-156.753 -855.754 0.
-84.1119 -684.272 0.
416.333 -396.404 0.
302.294 -661.793 0.
188.255 -927.182 0.
5.44315 -1140.75 0.
-4.33104 -1162.67 0.
-14.1053 -1184.6 0.
-190.382 -1217.73 0.
-154.828 -1134.76 0.
-119.273 -1051.79 0.
-189.435 -1093.27 0.
-198.915 -1116.29 0.
203.553 -954.151 0.
240.248 -868.846 0.
276.943 -783.541 0.
329.594 -764.922 0.
239.325 -977.031 0.
149.056 -1189.14 0.
-231.485 -1350.58 0.
-154.568 -1171.83 0.
-77.6519 -993.082 0.
130.996 -816.8 0.
168.127 -730.097 0.
222.927 -635.69 0.
-394.947 -1057.5 0.
-477.672 -1250.93 0.
-22.4832 -1186.23 0.
-42.4977 -1234.91 0.
-62.5123 -1283.58 0.
-460.578 -1358.01 0.
-315.434 -1019.64 0.
-170.289 -681.264 0.
-33.2734 -499.67 0.
-8.78726 -442.53 0.
15.6981 -385.39 0.
-195.145 -598.071 0.
-271.401 -777.791 0.
-106.531 -834.419 0.
-98.5861 -816.612 0.
-90.6409 -798.805 0.
-71.7065 -810.982 0.
-115.793 -913.529 0.
-159.88 -1016.08 0.
-351.179 -1167.76 0.
-383.318 -1243.41 0.
-415.458 -1319.05 0.
-438.068 -1217.56 0.
-352.001 -1015.34 0.
-188.808 -780.888 0.
-365.077 -826.049 0.
-350.452 -789.498 0.
-120.472 -669.798 0.
-115.619 -658.049 0.
-110.767 -646.299 0.
-370.675 -867.043 0.
-508.977 -1190.59 0.
-647.279 -1514.13 0.
-498.553 -1368.59 0.
-366.954 -1059.86 0.
-235.356 -751.133 0.
-184.6 -727.082 0.
-200.257 -761.503 0.
23.6996 -721.779 0.
-99.9142 -1010.67 0.
-223.528 -1299.57 0.
-344.672 -1476.85 0.
-299.671 -1370.74 0.
-254.672 -1264.63 0.
-344.974 -1166.32 0.
-250.13 -946.138 0.
-155.285 -725.953 0.
166.776 -644.483 0.
101.098 -797.092 0.
-11.6172 -970.305 0.
-57.9032 -1017.88 0.
-72.3691 -1051.82 0.
68.7989 -1022.25 0.
41.4761 -1085.58 0.
14.1529 -1148.91 0.
-224.545 -1271.59 0.
-212.012 -1243.67 0.
-199.478 -1215.76 0.
410.363 -845.707 0.
490.174 -660.968 0.
569.986 -476.228 0.
477.198 -663.646 0.
382.875 -884.98 0.
-348.554 -1369.56 0.
-389.16 -1463.62 0.
-429.767 -1557.68 0.
-135.63 -1436.05 0.
-69.5979 -1281.35 0.
-3.56608 -1126.66 0.
-52.6041 -1058.2 0.
-20.3319 -982.638 0.
11.9404 -907.075 0.
-98.0898 -914.17 0.
-77.9696 -868.524 0.
-50.4776 -903.753 0.
109.73 -710.214 0.
182.731 -538.963 0.
276.549 -424.585 0.
162.681 -690.175 0.
48.813 -955.764 0.
-11.0245 -1115.47 0.
-20.8183 -1137.4 0.
-30.6121 -1159.33 0.
-96.7345 -1145.85 0.
-61.1779 -1063.02 0.
-25.6213 -980.197 0.
-212.425 -1071.15 0.
-222.107 -1093.93 0.
153.131 -943.584 0.
189.802 -858.2 0.
226.472 -772.816 0.
290.435 -750.699 0.
200.116 -962.729 0.
109.797 -1174.76 0.
-211.012 -1310.02 0.
-134.277 -1131.19 0.
-57.5424 -952.355 0.
243.356 -736.838 0.
280.59 -650.296 0.
340.324 -553.966 0.
-474.354 -1060.11 0.
-557.242 -1253.35 0.
-18.6908 -1153.48 0.
-39.0656 -1201.98 0.
-59.4406 -1250.49 0.
-423.123 -1310.96 0.
-278.182 -972.496 0.
-133.241 -634.035 0.
-209.455 -543.593 0.
-184.956 -486.556 0.
-160.459 -429.519 0.
-210.021 -573.227 0.
-286.499 -752.855 0.
-15.2602 -762.925 0.
-7.40471 -745.215 0.
0.450727 -727.504 0.
2.45149 -748.954 0.
-41.6551 -851.336 0.
-85.7615 -953.717 0.
-299.979 -1113.34 0.
-331.616 -1189.31 0.
-363.254 -1265.27 0.
-611.146 -1260.14 0.
-525.082 -1057.87 0.
-1627.13 -1365.66 0.
-22.6113 -647.901 0.
-7.81832 -611.456 0.
-187.408 -666.239 0.
-182.406 -654.739 0.
-177.404 -643.239 0.
-384.831 -841.407 0.
-523.166 -1164.99 0.
-661.501 -1488.57 0.
-418.355 -1303.16 0.
-287.014 -994.112 0.
-155.673 -685.066 0.
-539.557 -848.636 0.
-555.039 -883.143 0.
465.715 -499.105 0.
342.308 -788.153 0.
218.9 -1077.2 0.
-512.332 -1517.07 0.
-467.515 -1410.7 0.
-422.698 -1304.33 0.
-185.835 -1067.2 0.
-91.2012 -846.771 0.
3.43299 -626.344 0.
138.088 -626.428 0.
72.2063 -778.829 0.
-46.3997 -954.079 0.
-176.187 -1037.35 0.
-190.624 -1071.16 0.
-72.1277 -1051 0.
-99.333 -1114.28 0.
-126.539 -1177.55 0.
78.3701 -1110.73 0.
90.8717 -1082.67 0.
103.373 -1054.61 0.
340.657 -843.235 0.
420.407 -658.408 0.
500.158 -473.581 0.
103.028 -792.74 0.
8.41108 -1013.7 0.
-45.9777 -1208.61 0.
-86.6693 -1302.52 0.
-127.361 -1396.42 0.
-152.439 -1412.88 0.
-86.5835 -1257.95 0.
-20.7277 -1103.02 0.
164.134 -933.708 0.
196.437 -858.177 0.
228.74 -782.646 0.
-301.717 -969.4 0.
-281.208 -924.091 0.
-32.0903 -817.247 0.
114.459 -854.153 0.
43.1599 -1021.75 0.
-159.776 -1207.28 0.
-134.909 -1150.04 0.
-110.041 -1092.81 0.
62.1091 -1045.05 0.
-5.5917 -1203.06 0.
-73.2926 -1361.07 0.
-234.784 -1503.46 0.
-256.125 -1553.79 0.
-277.465 -1604.11 0.
-351.311 -1513.48 0.
-276.276 -1338.56 0.
-11.4955 -1106.37 0.
-46.9845 -1189.58 0.
-82.4735 -1272.78 0.
20.5523 -1266.1 0.
38.2471 -1224.42 0.
55.9419 -1182.73 0.
-210.945 -1324.23 0.
-252.334 -1421.45 0.
-293.724 -1518.67 0.
-51.481 -1304.04 0.
36.3362 -1098.87 0.
280.144 -826.762 0.
-610.873 -1398.29 0.
-713.096 -1636.53 0.
-297.654 -1580.2 0.
-218.154 -1392.65 0.
-138.654 -1205.1 0.
-299.96 -1221.61 0.
-339.452 -1317.12 0.
-378.943 -1412.64 0.
-649.361 -1491.75 0.
-598.115 -1370.79 0.
-546.869 -1249.82 0.
-494.712 -1204.09 0.
-487.619 -1186.99 0.
-154.606 -1046.4 0.
-230.785 -1221.37 0.
-306.965 -1396.35 0.
-281.946 -1424.12 0.
-199.015 -1228.32 0.
-116.085 -1032.52 0.
-308.892 -1065.41 0.
-327.198 -1107.71 0.
-345.503 -1150.01 0.
-654.117 -1352.36 0.
-696.857 -1454.99 0.
-2022.39 -2106.65 0.
-98.9097 -1173.36 0.
-40.5232 -1039.4 0.
-416.282 -1122.12 0.
-440.121 -1177.86 0.
-463.96 -1233.61 0.
-600.087 -1304.8 0.
-583.159 -1266.08 0.
-566.231 -1227.35 0.
-256.49 -1118.1 0.
-282.458 -1179.93 0.
-308.426 -1241.75 0.
-976.854 -1566.31 0.
-999.029 -1618.69 0.
153.239 -1161.08 0.
151.024 -1165.09 0.
148.808 -1169.1 0.
-478.602 -1402.83 0.
-422.046 -1273.71 0.
-365.491 -1144.59 0.
-167.305 -1108.01 0.
-260.002 -1324.97 0.
-352.698 -1541.94 0.
-246.52 -1462.93 0.
-196.001 -1346.67 0.
-83.9903 -1209.01 0.
-383.056 -1416.78 0.
-425.04 -1514.4 0.
-329.924 -1548.68 0.
-365.198 -1632.05 0.
-400.471 -1715.42 0.
13.1575 -1527.84 0.
67.906 -1401.23 0.
122.655 -1274.62 0.
39.1687 -1296.48 0.
24.2381 -1331.52 0.
9.30756 -1366.55 0.
-151.41 -1299.96 0.
-71.9761 -1115.76 0.
163.84 -899.141 0.
119.97 -1002.36 0.
76.1005 -1105.58 0.
16.9136 -1169 0.
34.8291 -1128.56 0.
52.7445 -1088.12 0.
48.8937 -1104.44 0.
24.9744 -1160.5 0.
1.05538 -1216.56 0.
-287.959 -1001.83 0.
-61.0251 -469.991 0.
159.328 -702.561 0.
49.8774 -849.823 0.
-21.5583 -1017.19 0.
-234.64 -1208.54 0.
-210.091 -1150.79 0.
-185.541 -1093.05 0.
217.227 -946.599 0.
149.517 -1104.59 0.
81.8072 -1262.59 0.
-249.192 -1478.88 0.
-270.618 -1529.1 0.
-292.043 -1579.31 0.
-168.827 -1404.05 0.
-93.9329 -1228.93 0.
-159.365 -1138.22 0.
-194.743 -1221.41 0.
-230.12 -1304.59 0.
-25.3861 -1254.35 0.
-7.64272 -1212.83 0.
10.1006 -1171.32 0.
-188.192 -1282.21 0.
-229.691 -1379.45 0.
-271.189 -1476.69 0.
-257.3 -1362.43 0.
-169.738 -1157.21 0.
55.2406 -893.024 0.
-483.947 -1312.57 0.
-585.798 -1551.16 0.
-503.479 -1635.75 0.
-424.046 -1448.4 0.
-344.613 -1261.05 0.
-105.052 -1107.87 0.
-144.897 -1203.2 0.
-184.742 -1298.54 0.
-525.999 -1407.59 0.
-475.057 -1286.49 0.
-424.116 -1165.38 0.
-481.702 -1166.94 0.
-474.814 -1149.65 0.
-259.576 -1060.81 0.
-336.217 -1235.68 0.
-412.857 -1410.54 0.
-313.24 -1407.46 0.
-230.282 -1211.83 0.
-147.325 -1016.2 0.
-404.475 -1074.42 0.
-422.99 -1116.58 0.
-441.504 -1158.73 0.
-453.674 -1235.57 0.
-496.689 -1337.96 0.
-1111.39 -1685.74 0.
-41.6749 -1117.8 0.
16.2567 -983.477 0.
-398.561 -1083.76 0.
-422.534 -1139.4 0.
-446.506 -1195.04 0.
-595.742 -1271.08 0.
-578.958 -1232.52 0.
-562.174 -1193.96 0.
-104.308 -1021.4 0.
-130.864 -1082.75 0.
-157.42 -1144.09 0.
-905.057 -1505.05 0.
-927.678 -1557.08 0.
-325.356 -1335.12 0.
-327.821 -1338.75 0.
-330.287 -1342.39 0.
-319.562 -1304.66 0.
-263.421 -1174.85 0.
-207.28 -1045.04 0.
-209.803 -1096.52 0.
-302.56 -1313.27 0.
-395.318 -1530.01 0.
-244.778 -1430.94 0.
-194.166 -1314.85 0.
-581.234 -1390.25 0.
-343.891 -1368.34 0.
-385.767 -1466.09 0.
-270.102 -1491.48 0.
-305.394 -1574.76 0.
-340.687 -1658.04 0.
29.7329 -1489.9 0.
84.4555 -1363.42 0.
139.178 -1236.94 0.
-118.907 -1332.13 0.
-133.781 -1367.13 0.
-148.655 -1402.13 0.
165.07 -1133.62 0.
244.399 -949.036 0.
87.5966 -900.17 0.
43.7555 -1003.35 0.
-0.0856031 -1106.53 0.
229.8 -1046.91 0.
247.374 -1006.16 0.
264.947 -965.418 0.
-237.485 -1195.91 0.
-261.461 -1251.94 0.
-285.436 -1307.96 0.
17.9425 -839.654 0.
245.156 -307.602 0.
436.211 -389.838 0.
45.337 -707.59 0.
623.685 641.368 0.
211.955 12.0728 0.
-5.9041 -497.801 0.
113.451 -220.704 0.
894.422 370.009 0.
851.968 270.697 0.
831.223 220.854 0.
419.645 144.487 0.
461.907 241.075 0.
784.095 990.924 0.
685.774 274.381 0.
277.213 -680.712 0.
324.385 305.99 0.
441.554 576.38 0.
376.991 422.731 0.
620.218 370.742 0.
609.801 345.993 0.
680.928 511.454 0.
649.796 661.263 0.
472.132 246.436 0.
-61.3242 -998.515 0.
-142.101 -674.405 0.
264.618 273.828 0.
-367.09 -396.434 0.
407.846 560.854 0.
340.045 400.175 0.
228.593 494.243 0.
98.3019 188.51 0.
281.777 614.957 0.
859.159 808.317 0.
641.308 299.724 0.
648.816 317.106 0.
485.791 749.319 0.
651.091 1135.65 0.
153.506 -24.6021 0.
700.182 1602.1 0.
251.375 555.112 0.
37.6757 -131.796 0.
3.9883 -213.437 0.
-38.3031 -314.768 0.
-6.80999 -599.718 0.
621.736 865.52 0.
417.461 387.387 0.
-225.71 -447.045 0.
70.6165 243.518 0.
-29.7929 8.30207 0.
429.521 469.376 0.
583.309 828.45 0.
142.925 374.898 0.
647.004 422.681 0.
505.397 91.0812 0.
454.339 902.385 0.
324.78 599.819 0.
-26.7051 -219.963 0.
181.13 566.962 0.
43.4415 245.217 0.
728.365 1842.89 0.
330.444 -259.28 0.
571.302 303.383 0.
586.641 339.839 0.
-208.415 8.46443 0.
-116.127 228.092 0.
89.9389 575.688 0.
81.8893 556.708 0.
199.757 831.681 0.
455.398 233.292 0.
995.58 1494.04 0.
934.776 1352.34 0.
591.361 883.804 0.
310.48 228.118 0.
-80.5055 -684.612 0.
67.6008 -678.776 0.
831.738 1103.72 0.
-140.248 517.012 0.
255.154 -13.2238 0.
573.933 732.038 0.
393.135 -26.1553 0.
347.309 -133.016 0.
353.247 -118.96 0.
778.53 252.164 0.
896.085 528.351 0.
1116.4 1044.38 0.
204.744 -247.892 0.
20.7845 -675.767 0.
505.556 456.428 0.
1115.1 515.512 0.
1127.31 546.068 0.
142.381 -597.152 0.
460.721 145.851 0.
632.054 545.497 0.
952.389 264.801 0.
953.742 269.158 0.
897.016 137.412 0.
-537.856 -1323.61 0.
46.1013 38.9013 0.
-91.8848 -282.957 0.
363.672 -591.268 0.
173.791 -1034.56 0.
96.7324 -791.413 0.
59.8349 -861.578 0.
47.1435 -891.328 0.
-219.845 -1020.98 0.
-218.041 -1016.76 0.
-216.236 -1012.55 0.
205.34 -864.338 0.
166.32 -955.825 0.
127.3 -1047.31 0.
-166.648 -1195.96 0.
-163.392 -1188.13 0.
-160.136 -1180.29 0.
-88.6217 -1170.64 0.
-102.491 -1202.74 0.
-232.68 -1288.88 0.
-275.818 -1390.51 0.
-318.956 -1492.13 0.
-161.438 -1457.55 0.
-118.836 -1358.16 0.
-76.2336 -1258.77 0.
-147.172 -1203.84 0.
-97.3415 -1088.01 0.
-47.5108 -972.182 0.
-320.228 -1186.29 0.
-403.001 -1379.9 0.
-213.58 -1457 0.
-641.631 -1482.79 0.
-556.078 -1282.9 0.
-333.571 -1069.75 0.
-362.228 -1138.4 0.
-390.885 -1207.05 0.
-63.2458 -1156.17 0.
-132.686 -1317.83 0.
-202.126 -1479.48 0.
-355.644 -1473.23 0.
-264.029 -1260.38 0.
-172.414 -1047.54 0.
-610.024 -1265.44 0.
-639.678 -1333.74 0.
-624.935 -1368.79 0.
-581.867 -1270.55 0.
-538.798 -1172.3 0.
-163.318 -977.691 0.
-197.233 -1057.63 0.
-231.147 -1137.58 0.
-398.374 -1237.22 0.
-398.101 -1238.62 0.
-397.827 -1240.02 0.
-319.98 -1158.61 0.
-285.8 -1078.54 0.
468.085 -690.421 0.
35.0134 -950.501 0.
-4.15268 -1041.97 0.
-590.653 -1354.15 0.
-595.932 -1365.6 0.
-601.212 -1377.05 0.
-595.654 -1399.89 0.
-615.49 -1446.99 0.
-635.327 -1494.09 0.
-339.414 -1339.19 0.
-309.115 -1270.09 0.
-278.816 -1200.99 0.
-607.033 -1266.54 0.
-567.499 -1173.35 0.
-598.204 -1135.38 0.
-674.139 -1312.99 0.
-750.074 -1490.6 0.
-203.881 -1382.69 0.
-253.991 -1499.06 0.
-304.102 -1615.42 0.
-466.584 -1696.5 0.
-439.771 -1632.6 0.
-412.959 -1568.7 0.
-466.653 -1620.48 0.
-490.185 -1675.91 0.
-217.545 -1600.78 0.
-304.347 -1625.55 0.
-296.967 -1609.92 0.
-413.981 -1628.8 0.
-356.94 -1494.69 0.
-299.898 -1360.57 0.
8.2949 -1151.19 0.
25.5469 -1108.36 0.
42.7988 -1065.54 0.
65.8656 -1088.99 0.
31.1728 -1168.48 0.
-3.52007 -1247.96 0.
311.791 -1142.82 0.
296.499 -1177.05 0.
-156.075 -1392.57 0.
-157.864 -1397.38 0.
-159.653 -1402.19 0.
107.424 -1245.67 0.
182.476 -1071.56 0.
257.527 -897.443 0.
-376.303 -1005.79 0.
-282.468 -787.77 0.
-188.634 -569.755 0.
351.621 -425.287 0.
271.002 -613.424 0.
-92.8751 -843.306 0.
174.862 -781.22 0.
162.205 -811.132 0.
-190.198 -977.47 0.
-188.883 -972.712 0.
-187.568 -967.954 0.
25.7541 -909.541 0.
-13.1202 -1000.94 0.
-51.9945 -1092.34 0.
-165.166 -1164.38 0.
-162.189 -1156.11 0.
-159.211 -1147.83 0.
-264.07 -1215.14 0.
-278.229 -1247.28 0.
-62.4009 -1184.3 0.
-105.789 -1285.85 0.
-149.177 -1387.4 0.
-142.733 -1418.5 0.
-100.37 -1319.06 0.
-58.0068 -1219.63 0.
-126.359 -1162.4 0.
-76.2337 -1046.77 0.
-26.1087 -931.141 0.
-252.435 -1125.96 0.
-335.346 -1319.35 0.
-14.9548 -1340.11 0.
-837.728 -1535.89 0.
-752.208 -1335.98 0.
-182.857 -973.291 0.
-211.492 -1042.01 0.
-240.127 -1110.74 0.
-145.532 -1159.26 0.
-215.003 -1320.99 0.
-284.474 -1482.72 0.
-202.698 -1376.14 0.
-110.862 -1163.28 0.
-19.0252 -950.43 0.
-692.409 -1269.35 0.
-722.052 -1337.72 0.
-769.828 -1398.52 0.
-727.008 -1299.93 0.
-684.187 -1201.34 0.
-139.821 -937.327 0.
-173.858 -1017.06 0.
-207.895 -1096.79 0.
-179.302 -1112.23 0.
-178.767 -1113.74 0.
-178.231 -1115.25 0.
-365.341 -1146.57 0.
-331.092 -1066.6 0.
-2101.36 -1759.76 0.
22.3506 -924.384 0.
-16.7462 -1016.13 0.
-670.248 -1356.2 0.
-675.41 -1367.93 0.
-680.572 -1379.66 0.
-496.682 -1324.86 0.
-516.264 -1372.16 0.
-535.847 -1419.45 0.
-577.143 -1410.43 0.
-546.813 -1341.31 0.
-516.482 -1272.19 0.
-407.302 -1149.04 0.
-367.554 -1055.99 0.
-524.163 -1071.9 0.
-600.502 -1249.29 0.
-676.841 -1426.67 0.
-147.381 -1327.03 0.
-197.361 -1443.58 0.
-247.342 -1560.12 0.
-393.481 -1634.03 0.
-366.47 -1570.19 0.
-339.459 -1506.35 0.
-610.685 -1650.57 0.
-634.105 -1706.04 0.
243.458 -1371.68 0.
-127.356 -1518.39 0.
-119.763 -1503.01 0.
-542.577 -1652.76 0.
-485.738 -1518.37 0.
-428.898 -1383.98 0.
-183.326 -1202.3 0.
-166.144 -1159.37 0.
-148.962 -1116.44 0.
353.889 -934.203 0.
319.231 -1013.7 0.
284.573 -1093.21 0.
215.631 -1152.5 0.
200.387 -1186.57 0.
-87.184 -1331.86 0.
-88.9955 -1336.7 0.
-90.807 -1341.54 0.
-117.98 -1311.31 0.
-42.5142 -1137.57 0.
32.9519 -963.829 0.
-328.496 -953.428 0.
-234.415 -735.713 0.
-140.334 -517.997 0.
266.296 -430.38 0.
185.586 -618.596 0.
-168.391 -888.875 0.
237.319 -728.509 0.
235.939 -731.869 0.
-122.08 -887.052 0.
-112.42 -865.613 0.
-102.761 -844.174 0.
-1.87974 -816.707 0.
-35.7357 -894.944 0.
-69.5917 -973.181 0.
-95.817 -1063.39 0.
-139.88 -1166.92 0.
-183.943 -1270.45 0.
-322.186 -1380.17 0.
-346.718 -1438.84 0.
-165.221 -1396.57 0.
-121.7 -1294.91 0.
-78.179 -1193.25 0.
-135.386 -1170.11 0.
-151.482 -1208.08 0.
-167.577 -1246.04 0.
-184.56 -1240.36 0.
-158.838 -1180.91 0.
-133.116 -1121.46 0.
-283.176 -1192.77 0.
-294.322 -1218.15 0.
12.5138 -1107.27 0.
-629.391 -1339.31 0.
-609.336 -1293.16 0.
-221.483 -1116.64 0.
-257.063 -1197.62 0.
-292.643 -1278.61 0.
-338.635 -1362.83 0.
-369.466 -1436.64 0.
-400.296 -1510.45 0.
-298.586 -1436.1 0.
-256.488 -1338.04 0.
-214.39 -1239.98 0.
-727.65 -1341.43 0.
-664.715 -1193.15 0.
-519.527 -1028.22 0.
-545.816 -1088.98 0.
-572.105 -1149.73 0.
-268.327 -1039.68 0.
-248.537 -993.145 0.
-228.747 -946.608 0.
-87.4354 -918.988 0.
-134.65 -1027.97 0.
-181.864 -1136.96 0.
-382.777 -1234.01 0.
-375.349 -1216.35 0.
-3601.17 -2585.14 0.
25.0472 -964.196 0.
60.8939 -881.496 0.
-632.428 -1158.96 0.
-713.454 -1348.77 0.
-794.479 -1538.59 0.
-539.975 -1399.26 0.
-407.96 -1088.4 0.
-275.945 -777.538 0.
-365.52 -848.681 0.
-458.306 -1063.5 0.
-551.093 -1278.32 0.
-541.836 -1447.56 0.
-632.082 -1658.16 0.
-711.679 -1820.48 0.
-592.775 -1543 0.
-473.871 -1265.52 0.
-9.23201 -926.744 0.
-29.862 -974.91 0.
-50.492 -1023.08 0.
-296.755 -1190.51 0.
-341.084 -1294.88 0.
-385.413 -1399.25 0.
-429.983 -1288.59 0.
-330.085 -1056.89 0.
552.162 -496.438 0.
111.966 -846.125 0.
27.5598 -1043.36 0.
-487.483 -1373.27 0.
-464.876 -1319.46 0.
-442.269 -1265.65 0.
-141.24 -1157.47 0.
-192.69 -1279.75 0.
-244.141 -1402.04 0.
273.487 -1138.74 0.
329.123 -1010.19 0.
384.759 -881.639 0.
132.059 -1043.57 0.
96.3607 -1127.65 0.
14.1681 -1202.52 0.
77.241 -1055.22 0.
140.314 -907.927 0.
-21.1848 -875.767 0.
16.1722 -788.531 0.
53.5294 -701.295 0.
-219.503 -849.661 0.
-276.715 -981.047 0.
-333.926 -1112.43 0.
-9.07525 -1017.69 0.
-25.1107 -1056.05 0.
-83.7367 -822.307 0.
255.239 -689.437 0.
253.662 -692.833 0.
-43.6329 -822.42 0.
-34.2069 -800.757 0.
-24.7809 -779.095 0.
43.9238 -765.366 0.
10.219 -843.738 0.
-23.4859 -922.111 0.
-1.78732 -992.097 0.
-45.9868 -1095.49 0.
-90.1863 -1198.88 0.
-83.0251 -1246.75 0.
-107.699 -1305.22 0.
-330.905 -1436.35 0.
-287.595 -1334.5 0.
-244.286 -1232.64 0.
-360.284 -1235.33 0.
-376.684 -1272.92 0.
-393.082 -1310.51 0.
-236.261 -1231.44 0.
-210.656 -1171.86 0.
-185.051 -1112.28 0.
-317.288 -1176.31 0.
-328.423 -1201.72 0.
-646.656 -1358.89 0.
-101.94 -1081.67 0.
-81.7628 -1035.61 0.
-285.947 -1112.93 0.
-321.534 -1194.09 0.
-357.121 -1275.24 0.
-480.797 -1391.07 0.
-511.553 -1465.13 0.
-542.309 -1539.19 0.
-579.883 -1524.95 0.
-537.912 -1427.05 0.
-495.94 -1329.15 0.
-629.273 -1268.06 0.
-565.875 -1119.86 0.
-122.976 -826.791 0.
-149.493 -887.288 0.
-176.01 -947.784 0.
-462.596 -1092 0.
-442.975 -1045.48 0.
-423.354 -998.965 0.
-250.023 -957.33 0.
-297.195 -1066.57 0.
-344.366 -1175.81 0.
-260.383 -1149.91 0.
-252.786 -1132.47 0.
-787.115 -1347.43 0.
117.55 -892.528 0.
153.499 -809.885 0.
-633.367 -1128.96 0.
-714.724 -1318.48 0.
-796.08 -1508.01 0.
-641.887 -1411.51 0.
-510.059 -1100.53 0.
-378.23 -789.547 0.
-176.807 -737.524 0.
-269.606 -952.235 0.
-362.406 -1166.95 0.
-715.433 -1489.86 0.
-805.559 -1700.5 0.
-427.412 -1666.9 0.
-308.11 -1389.56 0.
-188.808 -1112.21 0.
-113.726 -939.863 0.
-134.301 -987.999 0.
-154.876 -1036.14 0.
-562.33 -1273.64 0.
-606.4 -1378.09 0.
-650.469 -1482.54 0.
-190.515 -1154.65 0.
-90.7158 -922.823 0.
313.056 -568.146 0.
-149.855 -927.86 0.
-234.228 -1125.29 0.
-493.012 -1344.13 0.
-470.073 -1290.44 0.
-447.133 -1236.75 0.
143.638 -1003.57 0.
91.9184 -1125.68 0.
40.1989 -1247.79 0.
42.7272 -1207.15 0.
98.0287 -1078.33 0.
153.33 -949.505 0.
-60.2845 -1094.96 0.
-96.2316 -1178.64 0.
85.6359 -1141.55 0.
148.939 -994.402 0.
212.242 -847.254 0.
9.18437 -831.531 0.
46.8131 -744.601 0.
84.4419 -657.671 0.
-88.0776 -761.88 0.
-145.174 -893.384 0.
-202.269 -1024.89 0.
57.4185 -958.661 0.
41.3845 -997.568 0.
866.01 1269.91 0.
540.015 -24.1555 0.
294.352 -600.649 0.
208.831 -348.709 0.
80.8854 -649.109 0.
533.202 404.795 0.
277.602 -273.672 0.
243.524 -354.668 0.
469.7 171.317 0.
-124.026 -1424.39 0.
303.953 -426.4 0.
630.587 335.397 0.
579.41 -124.821 0.
913.452 656.922 0.
531.656 923.779 0.
159.308 55.6815 0.
201.648 155.454 0.
-141.639 -266.51 0.
59.7201 202.626 0.
48.3047 175.329 0.
393.105 366.663 0.
233.48 -5.77806 0.
430.696 454.659 0.
73.6406 -173.376 0.
279.951 307.437 0.
-68.583 87.661 0.
717.214 -140.992 0.
893.76 270.6 0.
5.17373 -276.444 0.
121.797 -4.82715 0.
156.157 75.1664 0.
-118.366 -241.511 0.
-41.9482 -62.8926 0.
120.152 315.661 0.
85.8394 586.491 0.
-317.062 -351.732 0.
-10.6343 364.875 0.
77.704 228.57 0.
55.7767 176.438 0.
419.898 -276.134 0.
547.037 19.3577 0.
597.768 136.599 0.
419.482 1368.4 0.
20.6488 437.523 0.
83.152 583.099 0.
284.184 632.525 0.
-74.8788 -205.378 0.
83.0763 163.209 0.
387.499 166.929 0.
583.02 623.306 0.
-3149.79 -1672.88 0.
483.673 -185.505 0.
846.675 660.819 0.
17.1683 421.192 0.
102.134 619.064 0.
-38.876 289.915 0.
-47.3165 201.833 0.
236.193 862.871 0.
-171.492 -88.5322 0.
180.585 -216.751 0.
357.305 194.504 0.
336.145 143.789 0.
-510.925 -660.579 0.
-383.58 -364.556 0.
794.049 677.554 0.
770.111 621.478 0.
508.767 11.5839 0.
196.804 12.2025 0.
257.351 155.282 0.
458.08 625.462 0.
-165.923 177.2 0.
-206.154 84.4558 0.
14.4839 600.688 0.
732.098 567.794 0.
266.999 -515.525 0.
168.701 -303.006 0.
-307.872 -771.228 0.
248.263 528.124 0.
113.299 113.516 0.
-87.858 -356.408 0.
40.4841 -57.2698 0.
1100 710.752 0.
862.277 156.479 0.
694.551 -234.194 0.
331.685 -59.3283 0.
398.085 95.5581 0.
925.877 1326.86 0.
93.6149 -342.476 0.
-26.7023 -621.97 0.
796.843 411.371 0.
625.344 13.5531 0.
381.073 -554.317 0.
639.866 602.066 0.
197.046 -428.556 0.
423.12 101.06 0.
311.394 -44.7762 0.
284.67 -107.438 0.
568.541 555.34 0.
625.407 261.398 0.
227.034 -665.692 0.
-179.709 -644.358 0.
2.05869 -755.921 0.
-103.902 -1005.66 0.
-92.0451 -1168.84 0.
-118.31 -1231.07 0.
-144.574 -1293.3 0.
-179.454 -1314.28 0.
-148.337 -1242.37 0.
-117.221 -1170.46 0.
32.6437 -1080.23 0.
35.6992 -1073.39 0.
38.7547 -1066.55 0.
73.8693 -1079.91 0.
56.9138 -1118.64 0.
-441.452 -1350.77 0.
-393.694 -1239.38 0.
-345.937 -1127.99 0.
-213.786 -962.731 0.
-140.872 -793.95 0.
-67.9572 -625.17 0.
-136.197 -747.953 0.
-285.143 -1095.86 0.
-434.09 -1443.78 0.
-451.101 -1360.47 0.
-344.98 -1113.99 0.
-64.2517 -792.644 0.
63.0321 -828.399 0.
16.8231 -935.184 0.
-342.698 -1147.59 0.
-327.36 -1113.49 0.
-312.021 -1079.39 0.
-435.598 -1049.39 0.
-356.346 -863.99 0.
-277.094 -678.592 0.
-360.759 -736.642 0.
-418.311 -870.108 0.
-475.863 -1003.57 0.
-380.879 -1043.77 0.
-420.455 -1136.21 0.
-135.512 -1069.54 0.
-70.3233 -919.639 0.
-5.13475 -769.735 0.
-532.704 -954.048 0.
-597.016 -1103.91 0.
-661.329 -1253.78 0.
-403.411 -1175.6 0.
-381.946 -1127.34 0.
-360.482 -1079.08 0.
-171.583 -1022.58 0.
-194.808 -1077.1 0.
-2487.61 -2105.28 0.
-64.2276 -1187.26 0.
-127.87 -1335.24 0.
-744.847 -1634.31 0.
-605.678 -1308.95 0.
-466.509 -983.587 0.
-407.197 -899.451 0.
-508.564 -1134.84 0.
-609.931 -1370.23 0.
-392.834 -1217.96 0.
-296.917 -995.683 0.
-200.999 -773.407 0.
-582.385 -948.838 0.
-599.799 -989.798 0.
61.622 -740.203 0.
28.0176 -818.57 0.
-5.58677 -896.936 0.
-286.582 -1068.9 0.
-298.079 -1094.73 0.
-309.575 -1120.55 0.
-539.971 -1228.83 0.
-537.992 -1223.02 0.
-536.012 -1217.2 0.
-235.731 -1154.96 0.
-282.104 -1261.26 0.
-209.014 -1311.92 0.
-507.38 -1384.94 0.
-479.79 -1318.27 0.
-398.076 -1263.25 0.
-440.167 -1361.72 0.
-482.258 -1460.19 0.
142.824 -1185.52 0.
203.803 -1042.16 0.
264.781 -898.798 0.
-129.873 -1074.85 0.
-164.218 -1154.93 0.
-198.562 -1235.02 0.
-125.59 -1201.67 0.
-124.044 -1196.41 0.
-45.7283 -1152.87 0.
-8.39392 -1062.99 0.
28.9405 -973.115 0.
-96.2113 -987.475 0.
-114.8 -1028.41 0.
-133.389 -1069.34 0.
-235.631 -1188.37 0.
-289.995 -1315.31 0.
-344.359 -1442.26 0.
10.1832 -1307.72 0.
14.0118 -1298.19 0.
-437.44 -720.178 0.
-256.118 -835.178 0.
-362.202 -1084.96 0.
-13.4538 -1103.66 0.
-40.1398 -1165.67 0.
-66.8254 -1227.69 0.
-177.213 -1282.32 0.
-146.419 -1210.15 0.
-115.626 -1137.99 0.
60.271 -1037.85 0.
63.1131 -1030.91 0.
65.9552 -1023.98 0.
-28.185 -1092.05 0.
-45.0507 -1130.79 0.
-421.664 -1310.17 0.
-373.844 -1198.78 0.
-326.025 -1087.39 0.
80.6368 -804.898 0.
153.674 -635.923 0.
226.711 -466.949 0.
-183.111 -737.132 0.
-332.069 -1085.16 0.
-481.027 -1433.18 0.
-453.416 -1329.79 0.
-347.641 -1083.37 0.
719.81 -424.907 0.
-359.594 -977.717 0.
-406.018 -1084.53 0.
-292.598 -1095.7 0.
-277.491 -1061.57 0.
-262.384 -1027.45 0.
-384.1 -995.777 0.
-304.29 -810.892 0.
-224.481 -626.008 0.
-195.123 -631.699 0.
-252.463 -765.448 0.
-309.803 -899.197 0.
-258.066 -960.306 0.
-297.776 -1052.42 0.
-382.929 -1145.48 0.
-317.669 -995.355 0.
-252.41 -845.23 0.
-464.873 -893.497 0.
-529.223 -1043.27 0.
-593.573 -1193.05 0.
-278.373 -1090.67 0.
-256.823 -1042.44 0.
-235.273 -994.206 0.
-214.248 -1009.4 0.
-237.506 -1063.83 0.
-939.246 -1409.97 0.
-192.624 -1210.46 0.
-256.058 -1358.32 0.
-582.749 -1533.81 0.
-443.631 -1208.64 0.
-304.512 -883.47 0.
-254.157 -802.015 0.
-355.462 -1037.67 0.
-456.766 -1273.33 0.
-553.214 -1255.02 0.
-457.306 -1032.89 0.
-361.398 -810.764 0.
-503.28 -883.44 0.
-520.883 -924.409 0.
-73.7047 -766.613 0.
-106.847 -845.32 0.
-139.989 -924.026 0.
-296.503 -1041 0.
-307.766 -1067 0.
-319.028 -1093.01 0.
-243.354 -1071.28 0.
-241.022 -1065.58 0.
-238.69 -1059.88 0.
-502.811 -1238.01 0.
-548.716 -1344.63 0.
-79.8229 -1224.32 0.
-413.122 -1312.9 0.
-385.18 -1246.66 0.
-286.078 -1183.62 0.
-328.035 -1282.27 0.
-369.993 -1380.93 0.
-18.9451 -1223.61 0.
42.0867 -1080.34 0.
103.119 -937.078 0.
-144.461 -1048.75 0.
-178.735 -1128.86 0.
-213.008 -1208.96 0.
73.1875 -1085.31 0.
74.4667 -1079.74 0.
-240.956 -1206.22 0.
-203.693 -1116.08 0.
-166.431 -1025.94 0.
-146.299 -977.629 0.
-164.944 -1018.47 0.
-183.588 -1059.3 0.
-289.597 -1180.16 0.
-343.821 -1307.39 0.
-398.045 -1434.62 0.
97.3137 -1238.56 0.
101.496 -1230.02 0.
-710.912 -1304.52 0.
-322.742 -1112.42 0.
-293.857 -1042.38 0.
96.7757 -832.194 0.
95.1814 -835.451 0.
93.5872 -838.707 0.
-91.5777 -931.443 0.
-108.229 -971.003 0.
-124.88 -1010.56 0.
69.9762 -893.642 0.
107.666 -806.595 0.
145.356 -719.549 0.
61.1704 -732.017 0.
68.5121 -715.078 0.
-166.661 -818.421 0.
-250.118 -1011.44 0.
-333.574 -1204.46 0.
-101.594 -1273.29 0.
-199.054 -1499.05 0.
-296.514 -1724.81 0.
-582.883 -1747.93 0.
-408.558 -1340.81 0.
-234.233 -933.686 0.
-343.056 -946.857 0.
-369.915 -1009.34 0.
475.109 -698.086 0.
-483.025 -973.105 0.
-415.502 -815.213 0.
-92.2586 -592.886 0.
-125.218 -669.857 0.
-158.178 -746.828 0.
-342.969 -876.504 0.
-363.001 -921.768 0.
-383.033 -967.033 0.
-291.816 -961.152 0.
-304.886 -993.057 0.
-317.956 -1024.96 0.
-329.527 -1121.33 0.
-384.663 -1249.14 0.
-574.209 -1403.49 0.
-490.728 -1207.25 0.
-407.246 -1011 0.
-346.669 -840.879 0.
-287.094 -701.998 0.
-227.519 -563.117 0.
-44.4591 -481.234 0.
-88.6959 -583.695 0.
-132.933 -686.156 0.
-168.757 -841.636 0.
-247.387 -1026.3 0.
-931.917 -1470.02 0.
-165.108 -922.611 0.
-50.6759 -654.885 0.
-90.5205 -516.079 0.
-128.402 -606.072 0.
-166.283 -696.065 0.
-215.378 -743.444 0.
-198.705 -704.826 0.
-182.032 -666.207 0.
-341.89 -783.474 0.
-389.741 -894.957 0.
-437.592 -1006.44 0.
-538.144 -999.333 0.
-502.196 -913.542 0.
-123.704 -688.525 0.
-118.672 -676.006 0.
-113.64 -663.487 0.
-256.543 -756.697 0.
-309.468 -880.553 0.
-362.392 -1004.41 0.
-30.7477 -795.051 0.
67.2593 -565.147 0.
165.266 -335.242 0.
-243.293 -604.846 0.
-334.902 -819.082 0.
99.725 -816.118 0.
-242.953 -906.932 0.
-213.036 -838.149 0.
-77.7351 -741.417 0.
-101.69 -796.655 0.
-125.644 -851.893 0.
30.2181 -873.522 0.
-39.1915 -1036.4 0.
-108.601 -1199.29 0.
-228.978 -1222.06 0.
-175.606 -1098.65 0.
-122.235 -975.239 0.
203.031 -792.858 0.
226.702 -739.294 0.
-166.284 -888.355 0.
-272.271 -1137.87 0.
-378.258 -1387.38 0.
-285.715 -1449.31 0.
-228.714 -1318.11 0.
-171.712 -1186.92 0.
-344.384 -1171.47 0.
-304.49 -1078.83 0.
-264.597 -986.191 0.
102.845 -885.912 0.
54.2889 -998.364 0.
-490.514 -1181.9 0.
91.2952 -903.606 0.
120.232 -833.611 0.
39.5886 -825.013 0.
37.8122 -828.2 0.
36.0359 -831.387 0.
-216.18 -953.154 0.
-232.71 -992.781 0.
-249.24 -1032.41 0.
-50.9357 -914.776 0.
-13.321 -827.685 0.
24.2936 -740.593 0.
38.2352 -709.438 0.
45.4722 -692.671 0.
-45.0455 -735.052 0.
-128.992 -927.854 0.
-212.939 -1120.66 0.
-317.661 -1334.86 0.
-414.884 -1560.68 0.
-512.107 -1786.51 0.
-420.989 -1646.87 0.
-246.523 -1239.71 0.
-72.057 -832.555 0.
-431.311 -952.4 0.
-457.988 -1015.07 0.
145.412 -807.641 0.
-333.115 -877.693 0.
-265.636 -719.542 0.
-149.981 -586.11 0.
-182.828 -663.078 0.
-215.675 -740.046 0.
-390.575 -866.311 0.
-410.663 -911.587 0.
-430.751 -956.863 0.
-309.736 -936.44 0.
-323.008 -968.261 0.
-336.28 -1000.08 0.
-424.228 -1131.05 0.
-479.485 -1258.54 0.
-498.887 -1340.83 0.
-415.553 -1144.11 0.
-332.22 -947.392 0.
-156.557 -728.871 0.
-96.9711 -589.583 0.
-37.3852 -450.295 0.
-207.806 -519.701 0.
-251.751 -622.161 0.
-295.696 -724.62 0.
-167.128 -809.917 0.
-245.887 -994.309 0.
-1020.83 -1476.2 0.
-229.83 -918.163 0.
-115.703 -650.327 0.
-81.3759 -481.47 0.
-119.538 -571.158 0.
-157.7 -660.845 0.
-295.496 -747.371 0.
-279.044 -708.465 0.
-262.593 -669.559 0.
-137.637 -665.607 0.
-185.293 -777.452 0.
-232.949 -889.297 0.
-539.48 -967.474 0.
-503.482 -882.082 0.
-167.754 -674.634 0.
-162.386 -662.409 0.
-157.017 -650.184 0.
-413.306 -792.345 0.
-466.001 -916.402 0.
-518.697 -1040.46 0.
-59.9154 -775.983 0.
38.128 -545.874 0.
136.171 -315.764 0.
26.3477 -458.771 0.
-65.3792 -672.977 0.
-12.0671 -831.443 0.
-313.274 -904.652 0.
-283.377 -836.027 0.
-110.669 -723.672 0.
-134.662 -778.955 0.
-158.654 -834.237 0.
-13.9977 -861.772 0.
-83.5951 -1024.63 0.
-153.192 -1187.49 0.
-206.903 -1180.34 0.
-153.288 -1057.3 0.
-99.6743 -934.265 0.
49.6958 -827.797 0.
73.538 -774.254 0.
-80.7422 -820.171 0.
-186.5 -1069.53 0.
-292.259 -1318.88 0.
-43.081 -1313.92 0.
13.9566 -1182.65 0.
70.9945 -1051.38 0.
-401.217 -1164.72 0.
-361.494 -1072.11 0.
-321.772 -979.493 0.
-296.023 -1026 0.
-345.413 -1139.15 0.
210.464 66.8695 0.
1117.3 736.378 0.
638.379 -381.51 0.
475.622 334.359 0.
-7.9505 -795.237 0.
323.604 -22.3539 0.
179.496 238.863 0.
482.724 946.812 0.
-75.1599 -354.766 0.
105.16 -295.661 0.
324.215 216.088 0.
151.551 -185.891 0.
275.957 -76.9222 0.
576.918 626.261 0.
775.746 989.33 0.
268.608 -196.533 0.
393.791 93.4333 0.
201.564 320.089 0.
161.079 225.412 0.
-92.0455 -365.365 0.
-3.51765 -940.989 0.
259.09 -328.149 0.
483.737 196.122 0.
-215.524 -257.629 0.
387.336 1147.85 0.
564.243 460.048 0.
-101.967 -595.244 0.
-25.6945 -418.578 0.
-283.852 -768.835 0.
246.937 471.998 0.
-52.2681 -223.452 0.
-652.599 -1354.23 0.
-271.298 -464.022 0.
-184.92 -261.966 0.
-263.901 -765.195 0.
-77.184 -328.648 0.
293.177 536.283 0.
135.979 390.675 0.
102.996 313.641 0.
199.654 175.312 0.
169.032 108.149 0.
76.687 -102.92 0.
226.379 -164.879 0.
137.686 -371.165 0.
43.8161 -589.591 0.
-279.236 -349.508 0.
-199.827 -164.746 0.
-204.955 -177.42 0.
135.803 -68.7937 0.
319.39 358.023 0.
-2625.4 -1200.13 0.
300.417 467.593 0.
98.3023 -3.99733 0.
-36.5827 -363.964 0.
90.9034 -65.4099 0.
106.196 -28.7822 0.
-24.2836 64.3438 0.
303.5 830.649 0.
-49.234 9.1699 0.
375.079 175.229 0.
339.275 90.63 0.
724.151 987.282 0.
-143.731 -11.196 0.
-15.9181 285.393 0.
510.741 1024.25 0.
302.74 540.939 0.
234.349 383.239 0.
-276.898 -152.763 0.
270.153 1124.24 0.
135.941 811.837 0.
398.11 378.452 0.
430.983 456.029 0.
334.394 231.548 0.
-34.755 -1088.5 0.
-217.514 -1516.34 0.
322.296 391.66 0.
-358.165 -846.025 0.
-234.247 -558.802 0.
274.483 276.745 0.
33.8012 -286.628 0.
442.769 665.545 0.
256.967 -117.148 0.
282.717 -57.8772 0.
502.027 453.26 0.
471.432 389.736 0.
756.385 1054.72 0.
500.925 459.089 0.
404.978 321.333 0.
2.29786 -620.3 0.
330.017 1.77762 0.
358.07 67.0445 0.
419.667 210.114 0.
625.59 -186.424 0.
876.715 399.029 0.
516.196 -442.836 0.
-135.802 -405.308 0.
-246.015 -662.284 0.
-68.2127 -248.609 0.
-537.993 -813.646 0.
-207.693 -47.4317 0.
-310.633 -1014.02 0.
303.917 -729.141 0.
304.969 -727.402 0.
-192.87 -946.855 0.
-214.136 -998.046 0.
-235.401 -1049.24 0.
-344.383 -1069.97 0.
-284.969 -930.346 0.
-225.554 -790.717 0.
-90.9914 -686.726 0.
-85.5929 -673.76 0.
-80.1946 -660.795 0.
-100.354 -815.619 0.
-185.838 -1014.75 0.
-247.344 -1182.36 0.
-225.108 -1134.69 0.
-202.872 -1087.01 0.
-434.763 -1119.46 0.
-376.051 -983.116 0.
-317.338 -846.775 0.
-21.2448 -728.463 0.
-75.2794 -854.502 0.
-129.314 -980.54 0.
-696.9 -1247.41 0.
-699.339 -1252.83 0.
-48.6138 -978.499 0.
-269.884 -1069.36 0.
-263.274 -1054.71 0.
-403.254 -1104.11 0.
-411.214 -1121.8 0.
-419.175 -1139.49 0.
-410.737 -1116.06 0.
-379.632 -1043.69 0.
-348.526 -971.312 0.
-375.317 -968.004 0.
-378.946 -975.883 0.
-382.574 -983.763 0.
-438.244 -933.943 0.
-393.411 -830.249 0.
-162.501 -685.855 0.
-302.902 -1015.87 0.
-443.304 -1345.89 0.
-424.78 -1446.15 0.
-310.514 -1180.6 0.
-196.249 -915.047 0.
-400.242 -922.125 0.
-414.859 -957.617 0.
-429.475 -993.109 0.
-242.37 -795.737 0.
-157.445 -600.133 0.
-1498.99 -1017.58 0.
-210.811 -760.733 0.
-365.965 -1122.84 0.
-452.595 -1348.76 0.
-357.314 -1126.77 0.
-262.032 -904.768 0.
-379.607 -853.915 0.
-380.216 -856.356 0.
-380.824 -858.797 0.
-148.333 -808.187 0.
-186.025 -894.861 0.
-223.718 -981.536 0.
-738.285 -1264.86 0.
-771.091 -1343.31 0.
-500.084 -1275.6 0.
-451.184 -1159.95 0.
-402.284 -1044.3 0.
-525.511 -1006.58 0.
-490.039 -923.093 0.
-454.567 -839.602 0.
-137.971 -870.651 0.
-318.449 -1293.24 0.
-498.927 -1715.83 0.
-444.148 -1541.65 0.
-291.006 -1186.52 0.
284.155 -646.23 0.
-283.099 -925.865 0.
-301.99 -970.455 0.
-195.299 -937.653 0.
-147.251 -828.897 0.
-99.2034 -720.141 0.
-111.023 -656.24 0.
-90.6594 -609.181 0.
-70.2955 -562.122 0.
101.883 -536.534 0.
56.6907 -641.238 0.
11.4985 -745.943 0.
-84.4025 -768.531 0.
-69.3087 -734.399 0.
-0.371761 -671.751 0.
52.252 -548.387 0.
104.876 -425.023 0.
383.773 -290.842 0.
299.686 -487.095 0.
215.598 -683.347 0.
-279.064 -915.032 0.
-228.909 -798.849 0.
-178.755 -682.666 0.
-247.521 -789.303 0.
-312.672 -944.406 0.
-366.167 -1008.96 0.
93.6592 -788.58 0.
94.8528 -786.878 0.
-321.932 -970.569 0.
-342.963 -1021.91 0.
-363.994 -1073.25 0.
-282.915 -1011.99 0.
-223.349 -872.489 0.
-163.783 -732.99 0.
-110.247 -663.683 0.
-104.658 -650.973 0.
-99.0704 -638.263 0.
-157.565 -808.188 0.
-243.194 -1007.52 0.
-338.754 -1189.84 0.
-316.952 -1141.68 0.
-295.15 -1093.52 0.
-441.117 -1091.56 0.
-382.519 -954.987 0.
-323.921 -818.414 0.
-138.717 -748.183 0.
-192.859 -874.052 0.
-247.001 -999.921 0.
-750.468 -1239.06 0.
-753.44 -1244 0.
459.735 -728.098 0.
-211.494 -1014.78 0.
-204.899 -1000.14 0.
-357.595 -1052.07 0.
-364.978 -1070.21 0.
-372.361 -1088.35 0.
-223.943 -1004.71 0.
-192.433 -932.618 0.
-160.922 -860.527 0.
-387.198 -939.726 0.
-390.836 -947.664 0.
-394.474 -955.602 0.
-431.665 -900.959 0.
-387.134 -796.952 0.
-133.889 -642.928 0.
-274.429 -972.499 0.
-414.969 -1302.07 0.
-532.747 -1461.67 0.
-418.204 -1196.28 0.
-303.661 -930.886 0.
-230.331 -817.548 0.
-244.904 -853.116 0.
-259.476 -888.685 0.
-304.107 -791.544 0.
-219.381 -595.788 0.
-1403.62 -944.801 0.
-177.205 -714.566 0.
-332.301 -1076.8 0.
-428.457 -1307.07 0.
-332.742 -1085.65 0.
-237.028 -864.225 0.
-315.697 -795.498 0.
-316.516 -797.649 0.
-317.334 -799.799 0.
-259.591 -825.391 0.
-297.256 -912.325 0.
-334.921 -999.26 0.
-791.683 -1256.19 0.
-824.241 -1334.59 0.
-512.977 -1249 0.
-463.718 -1133.63 0.
-414.46 -1018.26 0.
-365.154 -906.408 0.
-329.545 -823.09 0.
-293.936 -739.772 0.
-122.944 -832.859 0.
-303.121 -1255.78 0.
-483.297 -1678.7 0.
-689.826 -1615.48 0.
-536.527 -1260.93 0.
-65.221 -764.184 0.
-133.21 -830.05 0.
-152.123 -874.878 0.
-117.881 -873.084 0.
-69.8794 -764.23 0.
-21.8777 -655.376 0.
-263.432 -690.657 0.
-242.765 -643.861 0.
-222.097 -597.066 0.
150.896 -483.087 0.
106.1 -588.34 0.
61.3041 -693.593 0.
-96.4503 -742.709 0.
-81.5252 -708.334 0.
-38.0986 -656.912 0.
14.4802 -533.242 0.
67.059 -409.572 0.
159.865 -355.817 0.
75.4181 -551.437 0.
-9.02862 -747.055 0.
-171.352 -838.369 0.
-121.279 -722.326 0.
-71.2058 -606.284 0.
113.288 -602.131 0.
47.6477 -757.346 0.
-468.328 -1187.2 0.
-216.283 -1009.22 0.
-163.398 -885.529 0.
-357.034 -887.317 0.
-355.764 -883.682 0.
-354.494 -880.046 0.
-169.88 -798.153 0.
-169.428 -796.848 0.
-168.975 -795.543 0.
-189.319 -811.999 0.
-196.023 -827.804 0.
-202.727 -843.608 0.
-146.282 -706.12 0.
-78.0695 -546.316 0.
-100.304 -445.575 0.
-128.395 -509.348 0.
-156.485 -573.122 0.
-193.52 -624.808 0.
-194.516 -625.451 0.
-195.512 -626.094 0.
-142.404 -609.46 0.
-149.675 -627.458 0.
-156.945 -645.456 0.
-552.992 -766.988 0.
-512.529 -674.395 0.
778.444 -45.8375 0.
-76.2588 -531.498 0.
-144.462 -689.152 0.
-242.047 -831.044 0.
-231.517 -804.113 0.
-220.987 -777.181 0.
-24.839 -675.654 0.
-14.8284 -650.623 0.
-4.81794 -625.591 0.
-181.287 -627.413 0.
-126.596 -500.877 0.
-71.9056 -374.34 0.
-355.737 -586.722 0.
-417.597 -732.2 0.
-268.679 -778.188 0.
-284.319 -814.974 0.
-299.959 -851.76 0.
-260.199 -846.665 0.
-250.48 -821.412 0.
-240.761 -796.159 0.
-147.05 -715.052 0.
-115.536 -640.245 0.
-84.023 -565.437 0.
-287.401 -668.386 0.
-308.31 -717.395 0.
-464.758 -825.476 0.
-236.2 -766.928 0.
-256.377 -814.784 0.
-211.079 -818.856 0.
-196.242 -784.325 0.
-181.405 -749.795 0.
-314.602 -789.495 0.
-307.508 -774.801 0.
-300.413 -760.107 0.
-212.044 -689.274 0.
-189.038 -635.422 0.
-166.033 -581.569 0.
-608.495 -754.957 0.
-600.033 -735.724 0.
-197.287 -559.819 0.
-245.642 -672.229 0.
-293.998 -784.638 0.
-319.025 -846.755 0.
-300.67 -804.911 0.
-282.315 -763.068 0.
-150.803 -752.436 0.
-210.646 -889.2 0.
-270.489 -1025.96 0.
-436.061 -1010.68 0.
-361.881 -835.966 0.
39.3223 -523.296 0.
-106.289 -677.93 0.
-155.15 -791.009 0.
-116.016 -856.124 0.
-148.348 -927.761 0.
-180.68 -999.399 0.
-340.312 -1108.51 0.
-350.383 -1129.31 0.
-360.454 -1150.11 0.
-140.256 -997.805 0.
-89.6798 -879.791 0.
-39.1037 -761.777 0.
-244.451 -948.205 0.
-306.133 -1091.74 0.
-327.523 -1196.91 0.
-289.527 -1109.26 0.
-251.531 -1021.6 0.
-203.155 -951.748 0.
-201.904 -950.115 0.
-200.653 -948.482 0.
-164.701 -960.319 0.
-194.339 -1029.76 0.
-223.977 -1099.2 0.
-3.22734 -1040.93 0.
-13.3107 -1064.22 0.
-447.915 -1145.52 0.
-500.398 -1100.7 0.
-447.696 -976.614 0.
-376.032 -863.572 0.
-374.502 -860.128 0.
-372.972 -856.684 0.
-148.881 -757.57 0.
-148.445 -756.326 0.
-148.009 -755.083 0.
-176.633 -775.39 0.
-183.264 -791.283 0.
-189.896 -807.176 0.
-131.439 -668.671 0.
-63.1269 -508.958 0.
-182.633 -449.379 0.
-210.551 -513.192 0.
-238.469 -577.005 0.
-46.3577 -530.735 0.
-47.3636 -531.391 0.
-48.3696 -532.047 0.
-159.696 -585.4 0.
-166.669 -603.678 0.
-173.642 -621.955 0.
-471.954 -699.808 0.
-431.48 -607.256 0.
671.079 -59.6298 0.
-273.313 -585.739 0.
-341.447 -743.432 0.
-203.526 -781.967 0.
-192.653 -755.412 0.
-181.779 -728.858 0.
-35.5368 -648.717 0.
-25.2731 -623.762 0.
-15.0095 -598.807 0.
36.5814 -501.614 0.
91.5247 -375.188 0.
146.468 -248.762 0.
-469.15 -604.602 0.
-531.051 -749.836 0.
-457.365 -826.914 0.
-472.847 -863.873 0.
-488.329 -900.832 0.
-107.132 -750.802 0.
-97.27 -725.758 0.
-87.4077 -700.714 0.
-189.866 -700.985 0.
-158.375 -626.498 0.
-126.883 -552.011 0.
-294.178 -640.083 0.
-315.118 -689.133 0.
-415.676 -773.325 0.
-312.087 -767.641 0.
-332.802 -815.125 0.
-186.02 -776.516 0.
-171.088 -742.006 0.
-156.156 -707.497 0.
-351.079 -773.819 0.
-343.921 -759.204 0.
-336.763 -744.588 0.
-99.3266 -609.487 0.
-76.1444 -555.849 0.
-52.9622 -502.211 0.
-596.064 -718.135 0.
-587.543 -698.855 0.
-108.236 -490.24 0.
-156.53 -602.565 0.
-204.823 -714.889 0.
-395.847 -849.647 0.
-377.297 -807.922 0.
-358.748 -766.197 0.
-286.405 -778.008 0.
-346.086 -915.087 0.
-405.767 -1052.17 0.
-171.734 -865.477 0.
-97.6587 -691 0.
9.2568 -503.905 0.
-313.055 -734.662 0.
-361.879 -847.754 0.
-182.28 -853.87 0.
-214.262 -925.959 0.
-246.244 -998.049 0.
86.7257 -893.617 0.
76.9355 -914.57 0.
67.1453 -935.522 0.
-331.917 -1048.36 0.
-280.878 -930.761 0.
-229.838 -813.16 0.
-343.16 -958.099 0.
-404.624 -1101.6 0.
-394.728 -1194.36 0.
-356.792 -1106.36 0.
-318.856 -1018.37 0.
-207.355 -922.446 0.
-206.15 -920.701 0.
-204.946 -918.955 0.
-94.3733 -898.989 0.
-124.183 -968.432 0.
-153.993 -1037.88 0.
-146.566 -1071.19 0.
-156.75 -1094.64 0.
-221.431 -623.136 0.
-280.336 -16.7695 0.
-465.895 -451.036 0.
33.7734 155.56 0.
109.405 334.925 0.
147.914 426.986 0.
-98.1888 -648.776 0.
303.664 287.165 0.
254.256 170.512 0.
161.63 25.9407 0.
51.9068 -230.15 0.
98.2855 -122.204 0.
303.72 344.736 0.
55.351 -235.504 0.
-197.416 -296.442 0.
-155.93 -198.149 0.
-223.873 -355.238 0.
339.733 125.915 0.
343.543 134.467 0.
302.828 38.9688 0.
-136.81 -461.988 0.
-166.408 -531.116 0.
22.1877 -91.1893 0.
-264.721 -339.221 0.
-281.462 -380.467 0.
536.148 515.795 0.
-398.164 -477.378 0.
-191.043 5.50669 0.
370.904 520.735 0.
36.773 -259.703 0.
151.99 8.51188 0.
586.188 858.548 0.
609.934 914.603 0.
539.046 749.762 0.
476.697 143.733 0.
304.335 -257.773 0.
861.193 1041.58 0.
28.8166 795.128 0.
-418.463 -248.255 0.
-228.285 97.2483 0.
-141.931 298.153 0.
-172.291 226.784 0.
430.638 244.411 0.
482.369 366.152 0.
519.537 454.008 0.
89.5881 60.2332 0.
-273.888 -786.626 0.
-135.348 -462.058 0.
19.3381 144.491 0.
267.262 722.513 0.
-1842.97 -391.892 0.
-85.3239 -68.8723 0.
-233.17 -414.834 0.
200.611 109.687 0.
17.3556 -318.125 0.
214.32 141.44 0.
-187.45 -294.466 0.
45.6484 250.964 0.
271.979 780.854 0.
236.967 -5.6221 0.
239.106 1.04184 0.
438.581 468.015 0.
-366.103 -181.135 0.
-527.708 -558.154 0.
357.918 461.005 0.
148.787 -24.9292 0.
-67.5043 -527.599 0.
-258.38 -358.556 0.
6.55503 258.589 0.
-21.587 191.699 0.
55.3399 309.76 0.
-31.4853 108.61 0.
-83.6599 -12.2004 0.
580.988 421.038 0.
246.117 -359.391 0.
-150.366 -325.528 0.
-214.147 -85.6471 0.
-374.463 -455.412 0.
332.548 508.114 0.
-42.3867 -366.553 0.
104.111 -24.4799 0.
734.709 -160.639 0.
930.336 294.146 0.
740.761 -149.729 0.
-92.1944 -92.7777 0.
-99.1143 -109.681 0.
-58.2808 -15.2424 0.
-76.5584 -115.398 0.
-190.434 -381.637 0.
251.142 473.216 0.
200.753 356.346 0.
217.696 396.169 0.
181.919 18.8653 0.
372.234 463.68 0.
305.675 309 0.
311.713 -49.6951 0.
264.354 -162.203 0.
708.153 872.034 0.
-214.144 -927.104 0.
136.033 -110.378 0.
142.211 -424.874 0.
-511.929 -779.262 0.
-574.111 -925.434 0.
-303.542 -895.311 0.
-275.464 -827.777 0.
-247.385 -760.242 0.
-62.1567 -613.753 0.
-19.4157 -516 0.
23.3253 -418.246 0.
-203.68 -496.544 0.
-208.131 -506.729 0.
-212.582 -516.914 0.
-25.33 -501.856 0.
-66.4121 -595.854 0.
-368.541 -801.11 0.
-401.7 -878.94 0.
-434.859 -956.77 0.
-243.255 -897.191 0.
-215.63 -833.57 0.
-188.006 -769.949 0.
-187.568 -689.702 0.
-133.544 -562.486 0.
-79.5205 -435.27 0.
-436.655 -674.851 0.
-511.567 -850.799 0.
625.795 -506.503 0.
-412.572 -828.765 0.
-344.665 -670.762 0.
-236.006 -527.697 0.
-244.466 -550.653 0.
-252.925 -573.609 0.
-164.54 -595.817 0.
-222.339 -732.181 0.
-280.138 -868.545 0.
-72.0247 -836.407 0.
-90.317 -876.276 0.
-108.61 -916.144 0.
-677.865 -1081.58 0.
-630.841 -970.732 0.
-505.985 -835.312 0.
-490.423 -799.451 0.
-474.86 -763.59 0.
-40.2673 -602.783 0.
-110.401 -767.145 0.
-180.535 -931.507 0.
-291.454 -1011.67 0.
-265.378 -953.22 0.
-239.301 -894.768 0.
-448.613 -914.448 0.
-408.409 -819.89 0.
-648.089 -845.063 0.
-413.956 -822.382 0.
-454.883 -918.1 0.
-185.188 -864.442 0.
-189.636 -874.453 0.
-194.084 -884.464 0.
-531.881 -993.321 0.
-483.823 -881.567 0.
-435.764 -769.813 0.
-78.0003 -649.822 0.
-127.689 -764.397 0.
-177.377 -878.973 0.
-619.153 -1025.24 0.
-588.644 -953.147 0.
-216.446 -743.163 0.
-221.101 -753.187 0.
-225.757 -763.212 0.
-494.465 -907.184 0.
-534.178 -998.134 0.
-573.89 -1089.08 0.
-532.176 -1016.63 0.
-448.216 -819.449 0.
-364.257 -622.272 0.
-42.137 -580.112 0.
-130.242 -786.309 0.
-186.063 -977.313 0.
-331.011 -856.875 0.
-235.872 -633.922 0.
-232.674 -533.548 0.
-326.01 -752.809 0.
-419.346 -972.069 0.
328.812 -752.491 0.
329.99 -750.837 0.
331.168 -749.183 0.
-469.441 -1046.69 0.
-434.412 -965.909 0.
-399.383 -885.132 0.
-168.592 -730.341 0.
-138.417 -660.883 0.
-295.715 -697.141 0.
-391.4 -919.823 0.
-487.085 -1142.51 0.
-57.8038 -995.611 0.
70.3112 -696.502 0.
198.426 -397.393 0.
98.147 -338.56 0.
97.0279 -341.304 0.
95.9083 -344.048 0.
-53.0391 -337.924 0.
-11.89 -241.269 0.
499.677 -243.153 0.
-379.539 -691.118 0.
-441.595 -837.531 0.
-147.781 -796.375 0.
-119.354 -729.112 0.
-90.927 -661.849 0.
-20.7423 -564.124 0.
21.9875 -466.576 0.
64.7173 -369.028 0.
-361.132 -533.283 0.
-365.892 -543.091 0.
-370.651 -552.899 0.
28.6972 -447.723 0.
-12.5335 -541.423 0.
-296.007 -739.481 0.
-329.493 -816.943 0.
-362.979 -894.405 0.
-401.987 -934.796 0.
-374.513 -871.239 0.
-347.038 -807.681 0.
-113.433 -626.062 0.
-59.3635 -499.031 0.
-5.2942 -371.999 0.
-454.979 -650.787 0.
-529.752 -826.815 0.
160.469 -674.409 0.
-229.484 -718.862 0.
-161.244 -561.097 0.
-412.244 -571.59 0.
-420.783 -594.466 0.
-429.322 -617.343 0.
-303.517 -623.766 0.
-361.046 -760.375 0.
-418.576 -896.985 0.
-211.905 -863.617 0.
-229.685 -903.95 0.
-247.466 -944.284 0.
-541.609 -991.343 0.
-494.696 -880.119 0.
-340.842 -734.1 0.
-325.466 -698.218 0.
-310.09 -662.336 0.
-153.886 -621.383 0.
-224.098 -785.676 0.
-294.31 -949.969 0.
-180.859 -932.872 0.
-154.491 -874.857 0.
-128.123 -816.842 0.
-446.814 -881.152 0.
-406.387 -786.974 0.
-64.6194 -563.289 0.
-404.905 -787.068 0.
-446.054 -882.622 0.
-129.191 -809.26 0.
-133.63 -819.383 0.
-138.069 -829.507 0.
-569.176 -977.776 0.
-520.962 -866.188 0.
-472.748 -754.6 0.
-109.579 -632.537 0.
-159.349 -746.967 0.
-209.119 -861.397 0.
-469.854 -929.477 0.
-439.416 -857.245 0.
-270.047 -735.121 0.
-274.721 -745.061 0.
-279.395 -755.002 0.
-479.721 -869.963 0.
-519.269 -961.034 0.
-558.817 -1052.11 0.
-539.449 -987.696 0.
-455.586 -790.423 0.
-371.723 -593.151 0.
-261.708 -643.459 0.
-349.833 -849.617 0.
238.37 -763.196 0.
-53.0557 -705.989 0.
42.4357 -483.475 0.
-362.035 -556.929 0.
-455.167 -776.541 0.
-548.299 -996.154 0.
160.141 -794.174 0.
161.073 -792.188 0.
162.004 -790.203 0.
-412.625 -990.332 0.
-377.366 -909.801 0.
-342.108 -829.269 0.
59.169 -600.576 0.
89.421 -530.965 0.
-336.999 -682.726 0.
-432.453 -905.521 0.
-527.907 -1128.32 0.
198.972 -854.877 0.
326.901 -555.438 0.
454.83 -255.999 0.
3.96496 -347.748 0.
2.47822 -350.274 0.
0.991044 -352.8 0.
-149.746 -348.399 0.
-109.044 -251.489 0.
372.523 -556.691 0.
-319.444 -867.034 0.
-309.375 -842.299 0.
-61.2305 -717.283 0.
-56.3242 -707.43 0.
-51.4178 -697.577 0.
-77.882 -688.226 0.
-53.9357 -630.861 0.
-29.9897 -573.494 0.
-462.008 -800.652 0.
-509.856 -912.658 0.
-557.703 -1024.66 0.
-247.172 -899.68 0.
-242.035 -888.819 0.
-354.378 -908.431 0.
-266.802 -704.016 0.
-179.226 -499.601 0.
-279.916 -487.86 0.
-367.849 -693.892 0.
-455.781 -899.924 0.
-281.903 -880.805 0.
-261.732 -835.872 0.
-241.561 -790.94 0.
-498.644 -931.465 0.
-523.127 -987.54 0.
-309.01 -940.465 0.
-262.039 -777.688 0.
-186.691 -604.852 0.
-433.169 -586.153 0.
-391.342 -486.229 0.
-349.517 -386.305 0.
-234.595 -312.702 0.
-265.55 -382.72 0.
-296.505 -452.739 0.
-173.307 -467.081 0.
-205.672 -543.547 0.
-238.037 -620.013 0.
-333.753 -690.282 0.
-348.628 -726.004 0.
-243.707 -695.37 0.
-194.321 -579.533 0.
-144.934 -463.696 0.
-186.22 -443.365 0.
-223.149 -529.831 0.
-260.078 -616.297 0.
-78.5647 -597.797 0.
-105.181 -657.302 0.
-131.796 -716.807 0.
-313.662 -700.939 0.
-241.856 -531.835 0.
-126.437 -344.447 0.
-128.639 -348.406 0.
-130.038 -352.186 0.
6.57032 -286.519 0.
30.1236 -232.496 0.
53.6774 -178.472 0.
-278.307 -332.718 0.
-320.257 -430.889 0.
-362.208 -529.059 0.
-167.706 -489.585 0.
-181.339 -524.118 0.
-194.972 -558.651 0.
-290.275 -649.85 0.
-316.327 -711.89 0.
-316.869 -750.426 0.
-296.081 -701.759 0.
-275.294 -653.092 0.
-293.706 -639.821 0.
-302.641 -660.826 0.
-311.577 -681.83 0.
-455.869 -745.955 0.
-449.269 -732.839 0.
-442.67 -719.722 0.
-337.332 -587.523 0.
-281.797 -456.787 0.
-343.218 -377.105 0.
146.794 -288.953 0.
83.027 -437.692 0.
-342.981 -699.75 0.
-306.213 -613.256 0.
-269.444 -526.761 0.
193.324 -314.135 0.
164.323 -384.439 0.
135.322 -454.745 0.
-239.863 -711.015 0.
-299.92 -848.717 0.
-359.977 -986.419 0.
19.3078 -836.635 0.
15.6032 -844.935 0.
-512.214 -1054.29 0.
-394.117 -778.907 0.
-276.02 -503.524 0.
491.711 -93.7837 0.
385.882 -339.32 0.
280.053 -584.856 0.
-284.558 -894.279 0.
-268.87 -858.441 0.
-253.182 -822.604 0.
-307.029 -817.431 0.
-289.203 -775.604 0.
61.0822 -660.144 0.
-95.472 -739.667 0.
-85.0696 -715.306 0.
-53.0835 -682.756 0.
-48.2265 -672.981 0.
-43.3695 -663.206 0.
-94.3324 -662.244 0.
-69.9092 -605.61 0.
-45.4864 -548.976 0.
-246.822 -677.295 0.
-294.674 -789.416 0.
-342.525 -901.537 0.
-455.94 -957.855 0.
-450.274 -947.2 0.
-358.452 -878.642 0.
-271.162 -674.134 0.
-183.872 -469.627 0.
-262.988 -449.544 0.
-351.111 -655.445 0.
-439.234 -861.347 0.
-470.704 -931.704 0.
-450.705 -886.707 0.
-430.707 -841.711 0.
-259.352 -796.981 0.
-283.791 -853.19 0.
-864.5 -1146.67 0.
-417.191 -812.294 0.
-342.001 -639.108 0.
-268.522 -483.957 0.
-226.354 -384.268 0.
-184.186 -284.579 0.
-227.98 -279.097 0.
-259.001 -349.25 0.
-290.021 -419.403 0.
-320.756 -497.521 0.
-353.137 -574.088 0.
-385.517 -650.656 0.
-239.153 -619.257 0.
-254.314 -654.484 0.
-178.785 -635.766 0.
-129.09 -520.164 0.
-79.3946 -404.561 0.
-311.133 -466.002 0.
-348.017 -552.544 0.
-384.9 -639.086 0.
-252.825 -640.926 0.
-279.023 -701.02 0.
-305.221 -761.114 0.
-162.621 -604.108 0.
-90.641 -435.239 0.
-673.927 -547.588 0.
116.448 -212.084 0.
115.022 -215.719 0.
-231.187 -357.527 0.
-207.954 -303.125 0.
-184.721 -248.723 0.
-178.331 -259.076 0.
-220.113 -357.379 0.
-261.894 -455.683 0.
-397.971 -557.328 0.
-411.917 -591.657 0.
-425.863 -625.986 0.
-253.889 -602.803 0.
-280.121 -664.788 0.
-326.827 -724.239 0.
-306.263 -675.394 0.
-285.7 -626.55 0.
-67.0072 -511.643 0.
-75.9912 -532.524 0.
-84.9757 -553.405 0.
-464.685 -718.983 0.
-458.084 -705.652 0.
-451.484 -692.321 0.
-327.998 -552.213 0.
-272.401 -421.571 0.
-160.559 -267.555 0.
-42.8923 -339.06 0.
-106.57 -487.869 0.
6.59658 -518.134 0.
43.483 -431.503 0.
80.3701 -344.872 0.
-23.6408 -375.14 0.
-52.5264 -445.356 0.
-81.4124 -515.573 0.
-131.016 -633.097 0.
-191.28 -770.64 0.
-251.544 -908.182 0.
-27.5212 -826.021 0.
-31.5494 -834.206 0.
-472.664 -1006.22 0.
-354.423 -730.976 0.
-236.182 -455.732 0.
184.058 -193.892 0.
78.1827 -439.213 0.
-27.6928 -684.535 0.
-292.512 -866.926 0.
-276.58 -831.284 0.
-260.648 -795.642 0.
-66.7673 -682.153 0.
-48.7485 -640.345 0.
258.057 412.824 0.
262.023 -293.642 0.
141.223 -574.825 0.
-59.8427 -688.09 0.
353.722 278.338 0.
312.911 184.441 0.
145.743 -42.8362 0.
-65.7821 -536.271 0.
363.666 465.818 0.
367.555 382.343 0.
125.395 -181.417 0.
44.4916 -368.977 0.
-337.508 -264.631 0.
-333.314 -254.853 0.
139.071 323.881 0.
152.958 356.798 0.
-242.122 -564.23 0.
-611.579 -1264.35 0.
-80.5368 -24.943 0.
-223.064 -357.285 0.
-562.839 -759.285 0.
-254.472 -41.73 0.
1.46146 553.336 0.
189.997 -174.4 0.
158.452 -248.355 0.
238.776 480.252 0.
-42.0486 387.566 0.
-485.545 -647.395 0.
-150.582 -494.295 0.
79.2124 42.7163 0.
300.265 559.634 0.
258.817 880.853 0.
172.67 680.603 0.
8.23183 297.832 0.
-333.366 -223.108 0.
-404.118 -390.06 0.
30.5207 622.338 0.
487.472 927.512 0.
162.926 169.787 0.
78.9678 -129.964 0.
-106.149 -560.988 0.
4.03171 -303.066 0.
-261.286 -87.5121 0.
-130.818 216.908 0.
-89.3557 313.701 0.
108.579 563.594 0.
-169.065 -84.8772 0.
-265.207 -309.855 0.
302.071 227.371 0.
522.04 740.915 0.
-1209.87 -170.108 0.
570.933 421.035 0.
603.161 494.968 0.
-237.152 117.263 0.
-289.934 -5.82669 0.
-221.935 152.603 0.
-94.8834 -226.785 0.
-171.963 -406.708 0.
-248.999 -586.364 0.
-617.283 -603.605 0.
-549.875 -445.855 0.
-418.331 -138.44 0.
23.4163 -0.645262 0.
178.273 360.59 0.
-268.717 -541.512 0.
-136.411 -233.035 0.
-12.7497 55.4385 0.
481.256 371.654 0.
488.761 389.189 0.
747.565 993.152 0.
-127.865 113.279 0.
-115.379 142.599 0.
-44.664 307.378 0.
-217.905 -286.774 0.
-186.221 -214.294 0.
425.341 -696.51 0.
100.201 385.238 0.
22.2134 204.848 0.
821.082 750.48 0.
698.488 463.185 0.
483.388 -39.9746 0.
-234.584 -423.839 0.
-134.784 -189.86 0.
336.097 910.516 0.
538.998 748.904 0.
119.016 -229.505 0.
-221.041 -1021.31 0.
363.952 208.174 0.
595.862 753.146 0.
-278.058 -598.959 0.
43.64 152.755 0.
20.7212 100.203 0.
-15.1913 -42.2336 0.
114.225 259.25 0.
59.7669 130.999 0.
63.5611 10.5521 0.
338.829 654.754 0.
-238.417 -691.376 0.
549.378 331.109 0.
130.398 -647.597 0.
-94.0712 -923.085 0.
-93.9256 -872.521 0.
-79.3749 -837.244 0.
-64.5815 -756.409 0.
72.7389 -436.487 0.
210.059 -116.565 0.
95.3127 -146.956 0.
-57.4206 -500.896 0.
-210.154 -854.836 0.
-307.858 -895.111 0.
-227.293 -707.206 0.
-146.729 -519.302 0.
-388.614 -502.443 0.
-328.832 -363.077 0.
-246.639 -234.433 0.
-267.104 -283.659 0.
-287.568 -332.886 0.
-233.666 -350.244 0.
-256.078 -401.935 0.
-278.491 -453.625 0.
-514.122 -604.498 0.
-546.851 -681.1 0.
-579.581 -757.702 0.
-153.108 -576.762 0.
-142.607 -552.043 0.
612.075 -208.446 0.
-342.129 -637.034 0.
-352.352 -659.536 0.
-191.226 -593.595 0.
-172.409 -549.194 0.
-153.591 -504.793 0.
-395.661 -611.27 0.
-418.175 -665.006 0.
-440.689 -718.742 0.
-369.75 -750.667 0.
-412.929 -850.729 0.
-456.108 -950.791 0.
-351.228 -824.203 0.
-294.539 -693.172 0.
-109.784 -524.885 0.
-137.581 -588.751 0.
-165.377 -652.616 0.
-438.075 -813.018 0.
-450.327 -842.159 0.
-462.579 -871.299 0.
-355.743 -758.363 0.
-281.738 -585.997 0.
-207.733 -413.63 0.
-285.6 -701.469 0.
-478.111 -1151.47 0.
-117.999 -1365.49 0.
-34.3493 -1040.15 0.
117.799 -685.356 0.
-709.867 -818.818 0.
-720.502 -843.541 0.
-731.138 -868.264 0.
-312.09 -700.063 0.
-311.758 -697.853 0.
-311.427 -695.643 0.
-656.2 -792.023 0.
-614.613 -695.942 0.
-573.026 -599.861 0.
-270.534 -515.122 0.
-302.727 -590.872 0.
-212.946 -612.382 0.
-244.81 -687.541 0.
-276.674 -762.701 0.
3.87602 -640.43 0.
68.8161 -488.588 0.
133.756 -336.746 0.
-322.026 -509.927 0.
-355.658 -584.147 0.
-389.289 -658.367 0.
-451.935 -733.883 0.
-475.271 -789.122 0.
-69.0056 -659.59 0.
-441.376 -819.018 0.
-441.493 -818.349 0.
96.1893 -581.976 0.
114.875 -539.679 0.
133.56 -497.382 0.
-278.076 -639.63 0.
-258.504 -593 0.
-238.932 -546.369 0.
-19.483 -521.894 0.
-83.9371 -674.256 0.
-148.392 -826.619 0.
-77.2301 -672.275 0.
3.96734 -481.294 0.
-148.767 -416.4 0.
-196.75 -526.029 0.
-244.733 -635.657 0.
-381.672 -726.33 0.
-340.424 -630.878 0.
-299.175 -535.425 0.
-117.854 -489.368 0.
-177.621 -628.542 0.
-237.388 -767.716 0.
-229.078 -908.654 0.
-310.588 -1099.75 0.
458.967 -656.289 0.
-209.717 -891.626 0.
-195.33 -856.306 0.
-16.4445 -703.79 0.
121.18 -384.235 0.
258.803 -64.6788 0.
101.6 -112.658 0.
-50.8839 -466.763 0.
-203.368 -820.868 0.
-447.48 -923.315 0.
-366.9 -735.326 0.
-286.321 -547.338 0.
-309.941 -437.828 0.
-249.966 -298.579 0.
-409.635 -272.552 0.
-430.01 -321.905 0.
-450.385 -371.258 0.
-233.404 -318.588 0.
-255.908 -370.193 0.
-278.411 -421.799 0.
-521.176 -576.044 0.
-553.668 -652.802 0.
-586.161 -729.561 0.
-344.754 -627.867 0.
-334.337 -602.9 0.
356.64 -286.468 0.
-158.618 -526.767 0.
-168.54 -549.526 0.
-172.541 -554.472 0.
-153.749 -510.064 0.
-134.957 -465.657 0.
-395.983 -580.156 0.
-418.637 -633.71 0.
-441.292 -687.263 0.
-119.622 -611.735 0.
-162.793 -711.999 0.
-205.964 -812.263 0.
-441.483 -831.748 0.
-384.683 -700.775 0.
-117.622 -496.201 0.
-145.265 -560.151 0.
-172.908 -624.101 0.
-255.643 -703.533 0.
-267.708 -732.811 0.
-279.773 -762.088 0.
-215.94 -667.044 0.
-141.748 -494.872 0.
-67.555 -322.699 0.
-499.784 -762.14 0.
-692.035 -1212.28 0.
-891.353 -1664.23 0.
5.82386 -990.738 0.
158.354 -636.426 0.
-781.586 -818.318 0.
-792.117 -843.255 0.
-802.647 -868.192 0.
-313.303 -669.168 0.
-312.56 -667.216 0.
-311.817 -665.264 0.
-588.865 -731.419 0.
-547.065 -635.516 0.
-505.265 -539.613 0.
-344.036 -514.843 0.
-375.954 -590.807 0.
-91.2758 -529.043 0.
-123.212 -604.121 0.
-155.149 -679.198 0.
-32.4091 -624.759 0.
32.3642 -472.678 0.
97.1374 -320.597 0.
-218.043 -434.552 0.
-252.062 -508.618 0.
-286.081 -582.683 0.
-489.732 -719.961 0.
-513.275 -774.878 0.
-214.125 -690.555 0.
-456.141 -793.239 0.
-456.28 -792.238 0.
-76.7385 -625.982 0.
-57.8137 -583.503 0.
-38.8889 -541.025 0.
-202.838 -576.12 0.
-182.679 -529.813 0.
-162.519 -483.506 0.
-19.0425 -490.481 0.
-83.4005 -642.894 0.
-147.759 -795.307 0.
-137.42 -666.41 0.
-55.9939 -475.523 0.
-72.9169 -351.41 0.
-120.805 -461.172 0.
-168.693 -570.935 0.
-455.309 -727.611 0.
-414.244 -631.898 0.
-373.179 -536.185 0.
-60.7363 -432.592 0.
-120.356 -572.004 0.
-179.975 -711.415 0.
-515.672 -1001.22 0.
-597.382 -1192.15 0.
148.228 -927.733 0.
-333.469 -997.275 0.
-259.53 -825.796 0.
18.4599 -627.925 0.
-46.6168 -780.341 0.
-111.693 -932.756 0.
-254.164 -929.153 0.
-96.7756 -564.226 0.
60.6134 -199.298 0.
-257.677 -261.536 0.
-277.315 -307.731 0.
-296.953 -353.926 0.
-310.618 -504.607 0.
-392.982 -697.62 0.
-696.662 -945.652 0.
-590.099 -697.641 0.
-483.537 -449.63 0.
-243.731 -182.064 0.
-194.989 -69.4972 0.
-146.248 43.0697 0.
-276.286 -52.6843 0.
-347.734 -220.023 0.
-419.183 -387.362 0.
-308.666 -475.74 0.
-379.977 -643.697 0.
274.839 -499.902 0.
-248.986 -718.805 0.
-247.771 -713.439 0.
-207.085 -683.134 0.
-182.796 -627.225 0.
-158.506 -571.316 0.
-464.339 -707.835 0.
-501.248 -793.612 0.
-538.157 -879.39 0.
-134.254 -693.63 0.
-102.417 -620.301 0.
-70.58 -546.972 0.
-378.169 -615.974 0.
-347.76 -543.915 0.
-44.4944 -354.408 0.
-9.36103 -272.995 0.
25.7723 -191.581 0.
-5.35088 -188.823 0.
-49.9075 -293.078 0.
-94.4641 -397.333 0.
-107.427 -442.329 0.
-108.424 -444.368 0.
-109.421 -446.406 0.
-451.487 -540.742 0.
-413.601 -452.507 0.
-1233.97 -732.089 0.
290.057 -40.2492 0.
309.718 6.91049 0.
-438.052 -308.322 0.
-502.783 -460.177 0.
-567.514 -612.033 0.
-300.199 -539.826 0.
-271.671 -473.246 0.
-243.143 -406.666 0.
-419.352 -431.428 0.
-393.514 -369.502 0.
-367.677 -307.577 0.
-221.486 -323.582 0.
-271.25 -436.926 0.
-117.307 -452.232 0.
-115.906 -447.57 0.
-114.504 -442.907 0.
-30.3781 -417.29 0.
-49.157 -461.243 0.
-67.9359 -505.197 0.
-166.076 -467.744 0.
-78.3267 -267.898 0.
9.42261 -68.0504 0.
-345.204 -330.569 0.
-441.605 -556.45 0.
41.402 -533.068 0.
-332.106 -558.229 0.
-259.475 -391.54 0.
-66.2689 -225.424 0.
-124.147 -359.695 0.
-182.026 -493.965 0.
-172.824 -548.235 0.
-169.536 -540.565 0.
-166.247 -532.896 0.
60.9596 -353.498 0.
122.457 -208.261 0.
183.955 -63.024 0.
24.2001 -195.162 0.
-21.1291 -301.216 0.
-138.612 -416.904 0.
-88.3516 -300.797 0.
-38.091 -184.688 0.
-239.299 -282.882 0.
-361.288 -567.265 0.
-483.276 -851.647 0.
-174.958 -720.05 0.
-79.2439 -496.921 0.
16.471 -273.792 0.
-285.915 -522.437 0.
-390.526 -766.641 0.
-442.326 -1150.56 0.
-377.863 -984.496 0.
-304.146 -812.9 0.
4.21732 -603.089 0.
-60.907 -755.502 0.
-126.031 -907.915 0.
-238.077 -890.795 0.
-80.897 -525.647 0.
76.283 -160.499 0.
-317.144 -256.025 0.
-336.57 -302.353 0.
-355.996 -348.681 0.
-285.222 -462.371 0.
-367.609 -655.314 0.
-505.532 -832.399 0.
-399.072 -584.319 0.
-292.613 -336.239 0.
-371.348 -205.585 0.
-322.753 -92.9961 0.
-274.158 19.5928 0.
-184.412 18.7743 0.
-255.879 -148.512 0.
-327.345 -315.797 0.
-156.129 -379.019 0.
-227.497 -546.899 0.
-395.319 -755.357 0.
-410.063 -756.831 0.
-408.657 -751.482 0.
-141.061 -622.668 0.
-116.564 -566.912 0.
-92.0665 -511.156 0.
-467.74 -678.6 0.
-504.898 -764.219 0.
-542.057 -849.837 0.
-293.476 -730.128 0.
-261.603 -656.902 0.
-229.731 -583.675 0.
-329.506 -563.584 0.
-298.98 -491.502 0.
27.9031 -291.642 0.
62.9859 -210.225 0.
98.0685 -128.808 0.
-82.5001 -191.049 0.
-127.087 -295.282 0.
-171.675 -399.515 0.
-185.254 -444.048 0.
-186.088 -446.328 0.
-186.922 -448.608 0.
-320.212 -453.029 0.
-282.306 -364.73 0.
-832.756 -528.446 0.
-28.1548 -144.722 0.
-8.68458 -97.6057 0.
-32.2564 -104.423 0.
-97.5275 -255.925 0.
-162.798 -407.428 0.
-374.117 -540.144 0.
-345.387 -473.478 0.
-316.657 -406.811 0.
-356.792 -372.843 0.
-330.48 -311.037 0.
-304.168 -249.231 0.
-12.2635 -202.421 0.
-61.5698 -316.019 0.
-350.994 -520.128 0.
-349.603 -515.467 0.
-348.212 -510.806 0.
-172.591 -447.19 0.
-191.823 -490.825 0.
-211.056 -534.461 0.
-63.2915 -392.547 0.
23.7864 -192.233 0.
110.864 8.08245 0.
-325.485 -291.38 0.
-421.923 -517.269 0.
-21.9361 -529.248 0.
-229.327 -482.69 0.
-156.948 -315.723 0.
-259.202 -277.175 0.
-316.868 -411.49 0.
-374.535 -545.806 0.
-179.512 -519.337 0.
-175.855 -511.658 0.
-172.197 -503.978 0.
141.038 -288.429 0.
202.781 -142.912 0.
264.526 2.60531 0.
17.4817 -165.958 0.
-28.1392 -271.406 0.
-262.764 -438.916 0.
-212.588 -322.572 0.
-162.412 -206.227 0.
-69.5343 -180.008 0.
-191.588 -464.37 0.
-313.642 -748.733 0.
-185.876 -693.551 0.
-89.9039 -470.64 0.
6.06905 -247.729 0.
92.2061 -328.86 0.
-11.7975 -573.283 0.
-53.8177 -18.5566 0.
-24.8043 -47.4748 0.
-172.346 -394.198 0.
405.308 389.665 0.
8.18932 -535.706 0.
29.4301 -484.573 0.
78.7976 -153.313 0.
191.193 110.677 0.
85.9858 -133.14 0.
-618.105 -816.751 0.
-670.648 -942.077 0.
-380.614 -267.683 0.
-22.6007 138.962 0.
-167.789 -199.922 0.
-59.9812 -126.317 0.
80.6416 202.085 0.
40.1981 108.141 0.
-555.357 -361.327 0.
-664.162 -616.602 0.
-69.6506 768.913 0.
39.5513 398.352 0.
-403.061 -635.3 0.
78.0754 486.381 0.
42.8887 -166.945 0.
26.2986 -207.135 0.
100.217 631.731 0.
-99.9735 300.915 0.
-74.1678 360.675 0.
272.713 248.58 0.
279.514 264.658 0.
550.078 896.268 0.
77.9784 628.676 0.
7.01699 464.205 0.
-393.114 -467.707 0.
-368.75 -580.584 0.
-294.065 -405.537 0.
-430.676 -723.11 0.
209.335 628.849 0.
175.613 551.642 0.
359.668 384.606 0.
186.416 -21.5792 0.
322.897 294.945 0.
78.8864 362.422 0.
-84.556 -18.1556 0.
-180.323 -240.795 0.
-143.808 -163.402 0.
-96.6429 -54.6337 0.
-485.504 -963.286 0.
-463.07 -1006.6 0.
-241.169 -488.225 0.
252.41 121.68 0.
-139.17 232.423 0.
-147.91 212.603 0.
385.384 135.547 0.
476.505 348.956 0.
452.932 295.192 0.
-205.623 21.7212 0.
-204.755 21.1253 0.
-46.8837 386.958 0.
-180.934 -46.6995 0.
-318.558 -369.34 0.
-266.595 -249.624 0.
-71.4637 -704.744 0.
338.175 251.773 0.
-198.763 306.527 0.
-330.783 0.00874125 0.
-429.779 -229.373 0.
-121.445 -29.3086 0.
47.9624 366.614 0.
202.955 729.077 0.
418.13 569.569 0.
410.086 548.916 0.
435.973 608.007 0.
-83.7176 262.505 0.
-309.63 -262.719 0.
179.603 -487.281 0.
56.5661 20.4461 0.
7.28487 -95.5151 0.
-77.071 547.619 0.
-385.362 -173.168 0.
-535.889 -525.782 0.
-96.7131 -281.41 0.
332.69 719.933 0.
75.1605 118.44 0.
369.674 125.035 0.
100.369 -502.808 0.
8.31799 -717.125 0.
40.2013 -62.4866 0.
15.1607 -120.856 0.
-383.767 -451.541 0.
-110.23 185.755 0.
-59.3237 303.553 0.
113.161 -50.6715 0.
13.5801 -282.767 0.
357.76 520.75 0.
325.208 551.656 0.
-55.0611 -336.071 0.
60.9016 -65.6992 0.
392.548 -323.328 0.
696.487 389.549 0.
509.4 -290.686 0.
-403.734 -607.027 0.
-373.392 -536.727 0.
117.254 -273.415 0.
129.264 -245.36 0.
141.274 -217.304 0.
-4.58321 -245.045 0.
24.3744 -177.319 0.
53.3317 -109.594 0.
-395.53 -332.774 0.
-435.555 -426.305 0.
-475.58 -519.835 0.
-228.627 -361.125 0.
-191.614 -275.382 0.
-92.9107 -186.182 0.
-154.267 -330.575 0.
-215.623 -474.969 0.
-662.775 -764.007 0.
-691.668 -832.351 0.
-720.562 -900.696 0.
-458.125 -790.654 0.
-439.081 -746.49 0.
-420.036 -702.327 0.
-170.596 -386.909 0.
-32.3152 -65.0882 0.
143.902 273.543 0.
-265.395 -73.3648 0.
-357.02 -287.826 0.
-35.189 -291.497 0.
-42.8691 -308.28 0.
-50.5493 -325.063 0.
-228.813 -399.172 0.
-220.495 -380.954 0.
-212.176 -362.736 0.
-309.125 -466.503 0.
-362.895 -590.64 0.
-416.665 -714.777 0.
-175.51 -539.822 0.
-125.599 -423.335 0.
-32.7591 -305.935 0.
-61.4341 -371.426 0.
-90.1093 -436.917 0.
-280.815 -502.974 0.
-199.958 -316.101 0.
-119.101 -129.228 0.
-314.731 -224.149 0.
-387.261 -393.869 0.
-459.791 -563.59 0.
-174.088 -369.215 0.
-105.882 -210.164 0.
-1202.4 -550.586 0.
-203.58 -314.599 0.
-303.868 -549.636 0.
-108.296 -585.613 0.
-36.6612 -418.793 0.
34.9742 -251.973 0.
-262.686 -363.258 0.
-330.723 -521.977 0.
-398.76 -680.695 0.
-423.203 -767.266 0.
-448.973 -826.058 0.
-474.743 -884.85 0.
-221.959 -654.515 0.
-146.535 -479.177 0.
-400.256 -467.674 0.
-427.257 -532.493 0.
-454.258 -597.313 0.
-271.841 -530.925 0.
-238.323 -452.608 0.
-204.805 -374.29 0.
-61.5192 -316.31 0.
-85.8064 -374.8 0.
-110.094 -433.289 0.
-205.71 -379.5 0.
-137.652 -219.603 0.
-100.04 -73.5074 0.
-251.238 -153.194 0.
-258.961 -171.485 0.
-266.235 -192.532 0.
-280.111 -225.394 0.
-293.987 -258.257 0.
-182.213 -212.114 0.
-165.183 -170.398 0.
-148.154 -128.682 0.
321.403 62.1668 0.
303.515 20.067 0.
285.627 -22.0328 0.
28.1126 -169.504 0.
6.90172 -219.964 0.
-264.733 -375.683 0.
-271.637 -391.982 0.
-278.542 -408.282 0.
-163.522 -358.95 0.
-151.14 -329.768 0.
-138.758 -300.586 0.
-158.896 -457.953 0.
-309.466 -808.588 0.
-460.037 -1159.22 0.
375.622 -452.649 0.
651.797 195.476 0.
586.379 -229.075 0.
-560.058 -642.843 0.
-529.924 -572.425 0.
129.884 -236.389 0.
141.933 -208.599 0.
153.982 -180.808 0.
-40.668 -228.824 0.
-11.4147 -161.398 0.
17.8383 -93.9718 0.
-360.388 -285.735 0.
-400.362 -379.452 0.
-440.336 -473.169 0.
-204.722 -319.295 0.
-167.791 -233.473 0.
-82.8572 -150.687 0.
-144.084 -295.372 0.
-205.311 -440.058 0.
-565.691 -690.303 0.
-594.729 -758.559 0.
-623.768 -826.815 0.
-427.247 -745.796 0.
-407.933 -701.841 0.
-388.619 -657.885 0.
-301.595 -411.956 0.
-163.122 -90.2482 0.
-540.289 11.0592 0.
-258.409 -38.8464 0.
-349.859 -253.424 0.
-112.133 -292.412 0.
-119.894 -309.195 0.
-127.656 -325.978 0.
-47.6183 -290.382 0.
-39.2734 -272.139 0.
-30.9283 -253.897 0.
-279.518 -423.226 0.
-333.454 -547.202 0.
-387.389 -671.179 0.
-15.0059 -438.676 0.
34.7616 -321.906 0.
-136.121 -319.589 0.
-164.836 -385.007 0.
-193.552 -450.424 0.
-248.597 -457.152 0.
-167.715 -270.243 0.
-86.8331 -83.3342 0.
-475.523 -261.391 0.
-548.04 -431.029 0.
-620.558 -600.667 0.
-136.646 -322.333 0.
-68.6588 -163.117 0.
-1168.57 -504.768 0.
22.7657 -186.254 0.
-77.5605 -421.496 0.
-319.373 -644.841 0.
-247.445 -478.319 0.
-175.516 -311.796 0.
-111.275 -266.901 0.
-178.994 -425.932 0.
-246.712 -584.963 0.
-329.231 -695.16 0.
-354.575 -754.066 0.
-379.919 -812.972 0.
-417.653 -706.92 0.
-341.913 -531.887 0.
-218.707 -357.307 0.
-245.868 -422.159 0.
-273.029 -487.012 0.
-173.48 -457.088 0.
-140.037 -378.854 0.
-106.594 -300.619 0.
-168.964 -331.214 0.
-193.24 -389.693 0.
-217.516 -448.171 0.
-2.35651 -260.996 0.
65.9515 -100.977 0.
-146.287 -62.8228 0.
-520.717 -237.833 0.
-528.321 -256.108 0.
-94.4865 -87.0113 0.
-107.979 -119.975 0.
-121.471 -152.939 0.
-306.547 -232.48 0.
-289.396 -190.768 0.
-272.245 -149.055 0.
312.109 89.0222 0.
294.15 47.291 0.
276.192 5.55978 0.
87.7119 -112.629 0.
66.6624 -163.177 0.
-145.999 -294.176 0.
-153.052 -310.302 0.
-160.105 -326.428 0.
-322.982 -395.662 0.
-310.91 -366.274 0.
-298.839 -336.886 0.
-205.223 -446.501 0.
-355.886 -796.98 0.
-506.549 -1147.46 0.
439.532 -395.516 0.
715.385 252.85 0.
527.545 -211.067 0.
-545.573 -669.023 0.
-518.876 -607.912 0.
-34.5001 -371.593 0.
-54.0968 -417.511 0.
-73.6938 -463.428 0.
-138.503 -505.208 0.
-131.656 -487.551 0.
-124.81 -469.893 0.
-580.14 -713.002 0.
-623.256 -812.774 0.
-666.371 -912.546 0.
-466.06 -831.303 0.
-463.289 -824.048 0.
-313.624 -726.908 0.
-193.031 -444.494 0.
-72.4388 -162.081 0.
-216.005 -107.499 0.
-271.442 -237.38 0.
-326.88 -367.26 0.
-195.009 -292.984 0.
-132.603 -149.03 0.
-70.1979 -5.07582 0.
-266.638 -160.486 0.
-333.546 -314.377 0.
-362.158 -452.514 0.
-422.496 -416.051 0.
-390.734 -338.549 0.
-83.6454 -161.574 0.
-105.869 -212.827 0.
-128.093 -264.081 0.
-14.7792 -225.546 0.
5.14793 -178.26 0.
25.075 -130.975 0.
-62.806 -107.154 0.
-23.5081 -17.0489 0.
15.7896 73.0566 0.
94.5909 -3.90715 0.
24.5253 -168.148 0.
-160.644 -359.144 0.
-120.51 -266.935 0.
-80.3753 -174.726 0.
-167.153 -200.916 0.
-229.222 -344.931 0.
-291.291 -488.947 0.
-573.448 -604.309 0.
-519.111 -476.868 0.
-464.773 -349.427 0.
-75.88 -179.371 0.
-89.0361 -210.246 0.
-82.959 -233.348 0.
50.2851 -173.836 0.
51.737 -170.69 0.
-280.406 -317.545 0.
-289.827 -340.101 0.
-299.248 -362.657 0.
-59.7327 -227.307 0.
-8.27592 -108.73 0.
43.1809 9.84702 0.
-7.65527 22.0805 0.
-7.31892 21.2795 0.
-6.98243 20.4785 0.
-151.202 -90.3119 0.
-181.173 -157.932 0.
-104.25 -168.117 0.
-85.1985 -122.276 0.
-66.1476 -76.4352 0.
-56.005 -109.493 0.
-145.008 -318.671 0.
-234.011 -527.85 0.
-265.691 -571.809 0.
-226.963 -480.633 0.
-188.235 -389.457 0.
33.5215 -275.975 0.
38.0206 -263.165 0.
121.565 -209.59 0.
-563.236 -294.466 0.
-454.76 -38.795 0.
89.9692 334.372 0.
40.7787 221.487 0.
-8.41213 108.602 0.
-273.157 -127.049 0.
-358.326 -326.063 0.
-443.495 -525.076 0.
30.9278 -400.373 0.
7.29632 -453.776 0.
-16.3351 -507.178 0.
18.3964 -313.522 0.
127.767 -56.6571 0.
40.0779 71.9301 0.
-63.8057 -168.998 0.
-167.689 -409.926 0.
-408.216 -609.372 0.
-348.383 -470.802 0.
-288.549 -332.232 0.
-130.208 -146.241 0.
-66.5838 1.98359 0.
-2.96024 150.209 0.
488.874 -153.155 0.
124.823 -1007.1 0.
-507.583 -623.505 0.
-291.028 -529.146 0.
-264.383 -467.765 0.
-271.959 -441.266 0.
-291.497 -487.334 0.
-311.036 -533.401 0.
-22.45 -423.591 0.
-15.6048 -406.017 0.
-8.75971 -388.442 0.
-671.107 -721.262 0.
-714.417 -820.816 0.
-757.727 -920.369 0.
-563.321 -841.56 0.
-560.451 -834.572 0.
-256.339 -671.804 0.
-135.752 -389.408 0.
-15.1654 -107.013 0.
-42.0816 -1.17265 0.
-97.4105 -131.075 0.
-152.739 -260.977 0.
-100.715 -221.784 0.
-38.2937 -77.8018 0.
24.1275 66.1803 0.
-280.065 -135.702 0.
-346.975 -289.436 0.
-418.081 -445.053 0.
-403.955 -375.843 0.
-372.047 -298.544 0.
-43.7337 -113.972 0.
-66.2138 -165.025 0.
-88.6935 -216.078 0.
-148.236 -251.709 0.
-128.318 -204.392 0.
-108.399 -157.075 0.
143.627 12.4416 0.
182.781 102.754 0.
221.934 193.066 0.
-210.449 -103.228 0.
-280.406 -267.718 0.
-41.4295 -276.168 0.
-1.38987 -183.739 0.
38.6498 -91.3098 0.
-238.548 -199.806 0.
-300.69 -343.784 0.
-362.832 -487.762 0.
-271.949 -444.039 0.
-217.389 -316.868 0.
-162.829 -189.696 0.
-90.2974 -153.934 0.
-103.441 -184.958 0.
-1333.63 -738.143 0.
-86.0327 -200.806 0.
-84.5454 -197.526 0.
-287.729 -288.453 0.
-297.081 -310.989 0.
-306.433 -333.524 0.
-91.1341 -209.485 0.
-39.8283 -90.6656 0.
11.4776 28.1541 0.
-25.0999 46.0033 0.
-25.0101 45.5453 0.
-24.9201 45.0872 0.
79.7775 39.0383 0.
49.6134 -28.5381 0.
-171.081 -165.196 0.
-152.02 -119.709 0.
-132.958 -74.2223 0.
-186.09 -132.826 0.
-274.825 -342.402 0.
-363.56 -551.978 0.
-114.105 -475.683 0.
-75.0233 -384.733 0.
-35.9409 -293.783 0.
-27.6758 -269.595 0.
-22.9307 -256.844 0.
70.5656 -200.821 0.
-315.157 -157.402 0.
-206.652 98.4705 0.
-38.4473 310.977 0.
-87.5996 198.131 0.
-136.752 85.2851 0.
-145.829 -41.4037 0.
-230.842 -240.443 0.
-315.855 -439.483 0.
-103.779 -427.131 0.
-127.499 -480.665 0.
-151.219 -534.199 0.
22.6071 -280.358 0.
132.133 -23.7644 0.
24.1624 96.8461 0.
-79.652 -144.14 0.
-183.466 -385.125 0.
-198.802 -488.409 0.
-138.941 -349.77 0.
-79.0813 -211.131 0.
-182.068 -136.429 0.
-118.648 12.0254 0.
-55.229 160.48 0.
323.985 -193.618 0.
-40.6385 -1046.53 0.
103.294 -609.215 0.
29.7869 -225.758 0.
74.3098 -121.428 0.
-475.662 -431.162 0.
-374.483 -194.269 0.
-373.127 -190.871 0.
251.517 23.9357 0.
390.428 348.825 0.
336.048 222.72 0.
-458.799 -26.3121 0.
-347.165 231.921 0.
-388.18 134.096 0.
-286.803 21.5006 0.
-520.6 -523.203 0.
221.376 361.536 0.
53.2624 -27.7175 0.
-19.9949 -195.691 0.
-72.0181 -366.339 0.
249.353 380.878 0.
279.224 448.319 0.
24.4219 -78.8201 0.
-503.359 -1310.77 0.
-89.4887 -346.275 0.
-276.396 -76.6813 0.
-223.964 46.1031 0.
-317.304 292.931 0.
21.861 611.245 0.
-118.778 281.496 0.
240.637 505.254 0.
189.394 386.46 0.
81.4596 135.755 0.
-152.769 22.151 0.
-34.0214 297.664 0.
51.5867 495.881 0.
415.986 285.174 0.
303.778 24.1867 0.
251.301 -97.2842 0.
-578.305 -354.255 0.
-495.434 -161.47 0.
108.227 -120.27 0.
117.025 -98.5177 0.
117.746 -95.5402 0.
-460.816 -553.286 0.
-592.568 -858.567 0.
-505.798 -653.994 0.
165.428 38.8794 0.
149.768 2.02362 0.
245.626 225.389 0.
164.157 494.257 0.
242.32 676.354 0.
-309.875 -25.7678 0.
-209.819 -189.757 0.
-222.618 -219.54 0.
-333.797 -354.106 0.
-403.173 -516.081 0.
-254.386 -169.142 0.
144.687 429 0.
186.686 527.87 0.
32.9656 170.191 0.
-78.4643 -17.373 0.
-173.691 -240.007 0.
-188.938 -276.004 0.
412.262 415.318 0.
303.086 158.598 0.
-271.475 -239.262 0.
-184.022 -35.2894 0.
-73.7028 222.165 0.
-53.4808 447.522 0.
-301.702 -133.766 0.
-432.984 -441.999 0.
92.3684 -250.804 0.
150.399 -115.461 0.
210.259 23.9036 0.
166.241 333.487 0.
-2.23894 -60.5582 0.
497.053 698.587 0.
115.581 403.152 0.
-149.884 -214.844 0.
-547.246 -594.299 0.
-159.881 308.507 0.
-78.322 498.169 0.
213.442 582.301 0.
-57.1058 -47.6595 0.
-515.344 -1116.06 0.
-196.638 -352.107 0.
67.6314 264.066 0.
190.829 550.952 0.
283.235 350.697 0.
193.762 141.921 0.
-143.086 -230.699 0.
-189.412 -338.68 0.
205.203 582.535 0.
343.505 409.478 0.
-53.3812 -517.938 0.
119.464 -115.92 0.
-2.59784 413.539 0.
-55.9946 288.978 0.
-144.419 81.71 0.
223.056 -92.5144 0.
207.339 -129.812 0.
-422.044 -259.8 0.
1.44112 -49.2434 0.
2.76309 -44.607 0.
-282.361 -176.474 0.
-314.472 -250.772 0.
-346.583 -325.07 0.
-159.255 -274.424 0.
-154.475 -264.799 0.
-149.695 -255.173 0.
-392.941 -340.536 0.
-378.369 -308.195 0.
-363.797 -275.853 0.
-432.248 -249.333 0.
-400.656 -175.758 0.
100.693 64.776 0.
-31.7173 -243.306 0.
-164.127 -551.387 0.
-294.064 -685.336 0.
-152.169 -355.141 0.
-10.274 -24.9461 0.
-148.644 -24.6088 0.
-207.495 -159.112 0.
-266.346 -293.615 0.
-181.052 -200.854 0.
-126.259 -74.3248 0.
-86.8235 44.6518 0.
-194.404 -99.0196 0.
-243.203 -216.949 0.
-185.039 -272.516 0.
-193.933 -295.184 0.
-202.826 -317.852 0.
-185.089 -295.39 0.
-154.877 -227.566 0.
-124.664 -159.741 0.
154.793 -53.0935 0.
131.195 -109.669 0.
107.596 -166.245 0.
-386.544 -304.185 0.
-338.674 -193.006 0.
3.78442 22.8816 0.
-45.6538 -92.2698 0.
-95.0915 -207.421 0.
-193.786 -289.053 0.
-158.072 -205.48 0.
-122.357 -121.906 0.
56.4798 -52.9042 0.
20.8775 -135.493 0.
-14.7249 -218.082 0.
-150.993 -245.639 0.
-119.012 -170.456 0.
613.6 205.282 0.
-151.88 -120.295 0.
-150.553 -117.167 0.
-207.194 -149.793 0.
-235.36 -215.104 0.
-263.526 -280.415 0.
-204.19 -285.866 0.
-204.677 -285.991 0.
-205.165 -286.116 0.
-171.054 -219.511 0.
-130.932 -124.958 0.
-90.81 -30.406 0.
145.828 58.572 0.
134.045 28.4987 0.
-218.443 -152.197 0.
-247.124 -218.983 0.
-275.805 -285.769 0.
-246.74 -321.867 0.
-269.632 -375.598 0.
-292.524 -429.329 0.
-31.458 -382.829 0.
-70.6722 -474.216 0.
-109.886 -565.603 0.
-117.933 -462.856 0.
-36.1886 -274.915 0.
0.912775 -110.349 0.
-96.8716 -297.244 0.
-170.972 -473.46 0.
-576.088 -719.346 0.
-494.467 -530.574 0.
-412.847 -341.802 0.
-72.3303 -102.235 0.
-60.6491 -73.1957 0.
-48.9677 -44.1566 0.
-201.011 -100.108 0.
-198.387 -92.8765 0.
-195.764 -85.6451 0.
199.734 5.77074 0.
151.137 -107.88 0.
-230.084 -348.221 0.
-193.192 -264.295 0.
-156.299 -180.37 0.
63.1562 -46.3493 0.
51.5022 -73.394 0.
39.8477 -100.439 0.
-206.547 -275.882 0.
-259.74 -401.513 0.
-312.934 -527.144 0.
187.857 -273.89 0.
228.333 -182.406 0.
-1038.49 -493.836 0.
-112.144 -66.3263 0.
-110.727 -61.8047 0.
-164.861 -95.006 0.
-197.178 -169.118 0.
-229.494 -243.23 0.
-487.297 -383.517 0.
-482.376 -374.081 0.
-477.454 -364.645 0.
-130.44 -197.978 0.
-116.08 -165.591 0.
-101.721 -133.204 0.
-453.264 -225.852 0.
-421.189 -152.94 0.
127.698 108.323 0.
-4.47012 -199.948 0.
-136.638 -508.22 0.
-382.381 -692.214 0.
-240.637 -361.833 0.
-98.8924 -31.4525 0.
-377.078 -91.178 0.
-435.671 -225.821 0.
-494.263 -360.463 0.
17.9816 -84.9489 0.
72.872 41.5912 0.
112.546 160.753 0.
-68.9916 -13.7026 0.
-117.805 -131.465 0.
-279.75 -282.178 0.
-288.81 -304.654 0.
-297.87 -327.13 0.
-42.6356 -203.346 0.
-12.1475 -135.776 0.
18.3412 -68.2047 0.
30.2748 -74.4517 0.
7.19655 -131.579 0.
-15.8817 -188.706 0.
-163.31 -176.768 0.
-115.475 -65.7077 0.
-181.383 -24.4222 0.
-230.693 -139.55 0.
-280.002 -254.677 0.
13.2193 -169.545 0.
48.7843 -85.8367 0.
84.3493 -2.12851 0.
-11.5171 -50.1907 0.
-47.0332 -132.983 0.
-82.5492 -215.776 0.
-126.993 -203.539 0.
-95.0281 -128.425 0.
-538.338 -256.488 0.
-105.276 -68.3176 0.
-104.131 -64.9008 0.
-142.603 -91.6171 0.
-170.804 -156.801 0.
-199.006 -221.984 0.
-238.439 -269.173 0.
-238.759 -269.228 0.
-239.08 -269.283 0.
-163.666 -184.732 0.
-123.663 -90.1539 0.
-83.6595 4.4239 0.
22.2075 37.0335 0.
10.1485 7.27851 0.
-183.557 -105.304 0.
-212.345 -172.052 0.
-241.133 -238.799 0.
-65.169 -213.308 0.
-88.1543 -267.075 0.
-111.139 -320.842 0.
-98.7796 -380.472 0.
-137.891 -471.889 0.
-177.003 -563.306 0.
-33.7579 -395.393 0.
47.8853 -207.304 0.
-168.601 -151.893 0.
30.6571 -210.418 0.
-43.4353 -386.477 0.
-529.631 -669.198 0.
-448.096 -480.101 0.
-366.562 -291.005 0.
-46.0206 -59.8226 0.
-34.1149 -30.8955 0.
-22.2089 -1.9685 0.
-325.486 -122.731 0.
-323 -115.474 0.
-320.515 -108.217 0.
295.465 78.9124 0.
246.714 -34.7151 0.
-255.753 -327.779 0.
-219.406 -243.537 0.
-183.058 -159.295 0.
-24.197 -53.8189 0.
-36.2658 -80.6109 0.
-48.3349 -107.403 0.
-78.8973 -189.349 0.
-132.16 -314.897 0.
-185.422 -440.446 0.
260.184 -212.468 0.
300.978 -120.55 0.
708.324 447.632 0.
-195.092 -67.8766 0.
-258.654 -217.038 0.
-241.383 -271.604 0.
-163.697 -88.7284 0.
-86.011 94.1466 0.
-309.636 -15.4024 0.
-421.273 -273.62 0.
-532.909 -531.836 0.
-128.562 -333.328 0.
-56.0396 -163.702 0.
16.4823 5.92351 0.
-473.413 -224.571 0.
-493.664 -269.647 0.
-60.4201 -124.033 0.
-90.2035 -193.243 0.
-119.987 -262.454 0.
-310.643 -352.961 0.
-267.709 -250.432 0.
-224.775 -147.903 0.
-461.741 -235.087 0.
-483.015 -285.327 0.
-504.29 -335.568 0.
-23.8618 -160.235 0.
-39.148 -194.43 0.
298.328 -77.3918 0.
-21.6634 -226.533 0.
-28.2927 -240.837 0.
-328.93 -341.719 0.
-244.416 -144.332 0.
-159.902 53.0559 0.
199.265 294.382 0.
199.246 294.339 0.
199.226 294.296 0.
15.6894 216.577 0.
17.7215 220.287 0.
19.7536 223.997 0.
17.6534 -49.1113 0.
-141.844 -421.302 0.
-505.065 -829.777 0.
-424.423 -641.377 0.
-343.781 -452.977 0.
56.2938 -173.823 0.
62.8288 -157.985 0.
69.3637 -142.147 0.
-155.728 -228.048 0.
-148.982 -212.284 0.
-142.235 -196.52 0.
-164.037 -195.862 0.
-158.722 -183.959 0.
-999.829 -533.769 0.
18.6667 -8.69511 0.
65.5746 99.7233 0.
-64.3707 93.4252 0.
-107.053 -5.63254 0.
-149.736 -104.69 0.
-134.695 -138.156 0.
-130.209 -127.886 0.
-125.722 -117.616 0.
-231.883 -225.573 0.
-280.935 -341.202 0.
-329.987 -456.832 0.
-281.005 -516.79 0.
-323.059 -615.847 0.
-348.422 -688.475 0.
-299.064 -573.965 0.
-249.706 -459.455 0.
8.32902 -231.557 0.
98.2366 -22.2668 0.
188.144 187.024 0.
93.4353 191.453 0.
65.2518 126.125 0.
37.0682 60.7975 0.
107.392 3.64227 0.
55.6836 -114.822 0.
-441.646 -422.027 0.
41.8945 -214.42 0.
41.4397 -213.708 0.
-352.755 -397.566 0.
-378.804 -456.835 0.
-404.852 -516.103 0.
-239.371 -418.648 0.
-179.712 -279.711 0.
-120.052 -140.775 0.
-342.061 -217.426 0.
-359.577 -258.516 0.
-377.093 -299.606 0.
250.858 16.8397 0.
283.751 94.1683 0.
-105.17 -24.5109 0.
-145.899 -119.979 0.
-186.627 -215.448 0.
-177.546 -254.145 0.
-159.992 -215.607 0.
-142.438 -177.068 0.
67.2074 -74.6864 0.
65.0291 -79.4985 0.
62.851 -84.3106 0.
271.348 1.08211 0.
271.188 1.61872 0.
111.307 220.157 0.
-256.238 -63.5652 0.
-319.909 -212.675 0.
-328.339 -277.256 0.
-250.638 -94.4524 0.
-172.938 88.3514 0.
92.6061 188.676 0.
-18.9768 -69.872 0.
-130.56 -328.419 0.
-212.051 -337.747 0.
-139.314 -168.323 0.
-66.5776 1.10066 0.
-472.365 -192.021 0.
-492.096 -237.413 0.
-271.374 -183.517 0.
-301.113 -252.72 0.
-330.852 -321.923 0.
-373.535 -347.576 0.
-330.469 -245.326 0.
-287.403 -143.076 0.
-254.622 -115.2 0.
-276.1 -165.312 0.
-297.577 -215.424 0.
-219.78 -213.281 0.
-234.929 -247.607 0.
-79.722 -208.572 0.
224.83 -89.2184 0.
217.96 -103.244 0.
-264.94 -283.327 0.
-180.401 -85.8532 0.
-95.8612 111.62 0.
161.537 310.624 0.
161.746 310.357 0.
161.955 310.09 0.
-165.518 169.807 0.
-163.473 173.499 0.
-161.428 177.191 0.
139.557 34.2699 0.
-19.8207 -338.044 0.
-243.095 -685.387 0.
-162.268 -496.981 0.
-81.4409 -308.575 0.
-1.5532 -167.714 0.
5.09282 -151.912 0.
11.7387 -136.11 0.
-223.643 -225.544 0.
-216.776 -209.9 0.
-209.91 -194.257 0.
-251.324 -201.282 0.
-245.844 -189.429 0.
-64.9838 -101.54 0.
242.867 118.547 0.
289.739 227.125 0.
-97.0224 110.436 0.
-139.651 11.468 0.
-182.28 -87.4997 0.
40.15 -31.2672 0.
45.0101 -21.1596 0.
49.8701 -11.0518 0.
-320.301 -231.881 0.
-369.442 -347.371 0.
-418.583 -462.861 0.
-287.395 -487.618 0.
-329.527 -586.708 0.
-143.393 -569.445 0.
-94.0146 -455.101 0.
-44.6359 -340.757 0.
61.9696 -176.339 0.
152.067 32.6013 0.
242.164 241.542 0.
65.0949 211.025 0.
36.9292 145.459 0.
8.76336 79.8922 0.
-17.8169 -17.9551 0.
-69.1082 -137.026 0.
471.864 0.886704 0.
-13.1655 -206.842 0.
-13.4509 -206.436 0.
-227.651 -311.669 0.
-253.391 -371.099 0.
-279.13 -430.529 0.
-331.841 -426.962 0.
-272.074 -288.09 0.
-212.307 -149.218 0.
-125.388 -93.5915 0.
-142.905 -134.65 0.
-160.421 -175.708 0.
143.831 2.82563 0.
176.961 79.8489 0.
6.72567 55.5708 0.
-33.6042 -40.2919 0.
-73.9338 -136.155 0.
-216.963 -239.414 0.
-199.295 -200.859 0.
-181.626 -162.305 0.
209.007 17.3871 0.
207.004 12.5376 0.
205.001 7.68805 0.
38.2493 -66.5854 0.
38.0671 -65.6185 0.
-389.016 -375.541 0.
-643.843 -811.48 0.
-474.899 -419.019 0.
-209.871 201.208 0.
-130.536 384.848 0.
-160.348 313.897 0.
305.343 -48.2769 0.
356.39 72.9415 0.
403.304 183.706 0.
-148.822 0.66726 0.
-161.387 -27.2232 0.
-203.439 -124.091 0.
-327.385 169.052 0.
-158.234 566.28 0.
-64.1671 726.052 0.
118.912 1154.29 0.
50.6353 996.237 0.
-337.303 -117.271 0.
-501.425 -499.547 0.
-552.77 -619.22 0.
115.518 390.105 0.
80.1885 307.42 0.
-43.1078 19.2574 0.
-80.2165 512.112 0.
-272.248 63.0986 0.
19.3521 -48.0863 0.
767.615 743.251 0.
364.362 -195.877 0.
-139.777 -83.3389 0.
51.6154 363.188 0.
-237.285 -310.882 0.
-55.9601 -94.2885 0.
224.152 558.861 0.
270.584 666.894 0.
-96.0179 694.672 0.
-349.984 101.988 0.
-568.924 -409.162 0.
262.34 126.423 0.
277.972 161.041 0.
338.177 214.322 0.
198.876 -112.561 0.
9.08732 -557.245 0.
-320.019 -773.628 0.
-43.6602 -131.559 0.
47.2724 78.0694 0.
-306.275 -257.654 0.
-317.897 -284.218 0.
-277.826 -189.991 0.
-325.27 -182.551 0.
-446.093 -466.96 0.
-473.356 392.208 0.
640.024 661.727 0.
458.166 235.586 0.
-107.753 179.381 0.
-152.147 76.2377 0.
-178.707 14.6067 0.
286.269 247.49 0.
517.014 784.728 0.
450.719 628.959 0.
-566.865 -611.28 0.
-942.048 -1486.4 0.
-631.579 -761.883 0.
-342.914 -576.036 0.
-241.577 -336.526 0.
333.246 186.568 0.
313.936 142.112 0.
292.706 93.5178 0.
177.575 23.7841 0.
378.11 491.49 0.
389.433 517.888 0.
-9.94037 111.543 0.
-308.976 -587.723 0.
-513.886 -1066.89 0.
-93.7352 81.2308 0.
132.563 608.361 0.
-22.5208 495.662 0.
204.833 430.389 0.
-351.902 -865.51 0.
-328.268 -759.609 0.
418.434 985.468 0.
-218.954 -499.127 0.
-285.503 -112.004 0.
-31.2276 480.003 0.
-67.2021 394.714 0.
72.4138 -11.0202 0.
27.5527 -116.968 0.
178.069 232.935 0.
103.86 142.553 0.
159.222 270.36 0.
149.156 210.298 0.
79.7553 48.9827 0.
-56.8328 -269.474 0.
-247.059 -211.783 0.
-273.988 -273.924 0.
-358.142 -468.997 0.
87.9533 -496.689 0.
232.12 -160.379 0.
340.919 93.232 0.
-194.629 -150.85 0.
-317.236 -436.309 0.
150.73 -43.894 0.
-304.724 -25.5394 0.
-187.891 246.519 0.
-21.4369 418.597 0.
-184.04 37.6182 0.
-346.643 -343.361 0.
-51.9376 -365.44 0.
-24.8756 -302.916 0.
2.186 -240.391 0.
-347.678 -288.517 0.
-283.003 -135.224 0.
-218.328 18.0681 0.
-209.254 66.2796 0.
-192.222 108.913 0.
-335.066 77.8586 0.
-351.021 41.0612 0.
-366.977 4.26379 0.
-279.61 25.3949 0.
-275.449 36.4222 0.
-271.287 47.4496 0.
4.36347 116.835 0.
-45.1474 0.622674 0.
-94.6581 -115.59 0.
-452.231 -310.064 0.
-465.966 -341.836 0.
-65.2287 -197.488 0.
368.968 133.128 0.
443.674 307.25 0.
170.216 252.527 0.
54.7415 -16.101 0.
-60.7335 -284.729 0.
-307.476 -459.455 0.
-249.114 -321.166 0.
-190.753 -182.878 0.
-186.902 -85.439 0.
-140.239 23.7771 0.
-93.5757 132.993 0.
24.3192 118.579 0.
-20.0866 14.0883 0.
280.032 57.6956 0.
237.555 -42.575 0.
195.078 -142.846 0.
21.1481 -246.23 0.
65.0955 -146.938 0.
109.043 -47.6468 0.
-226.117 -108.61 0.
-180.063 -2.52738 0.
-134.009 103.555 0.
-44.8942 34.445 0.
-128.304 -161.815 0.
-1558.78 -935.729 0.
2.30052 -175.189 0.
50.1806 -63.6314 0.
-98.0655 -29.9031 0.
-41.3934 101.656 0.
15.2788 233.216 0.
302.763 298.884 0.
166.536 -17.6138 0.
30.3098 -334.111 0.
-403.334 -356.887 0.
-209.468 95.2028 0.
-15.6017 547.292 0.
269.196 473.432 0.
130.752 152.791 0.
166.718 -57.2315 0.
178.148 -27.7674 0.
189.578 1.6967 0.
77.2913 -45.613 0.
58.5309 -87.1561 0.
39.7706 -128.699 0.
-8.66891 -44.3407 0.
99.771 207.774 0.
208.211 459.888 0.
113.138 285.761 0.
-5.76997 10.3399 0.
-150.382 -273.727 0.
-56.9858 -210.027 0.
-44.1455 -179.22 0.
-26.3177 -153.646 0.
-34.5541 -172.685 0.
-42.7909 -191.723 0.
-424.373 -272.81 0.
-315.179 -17.1798 0.
-205.985 238.451 0.
-26.2261 276.999 0.
-109.999 82.2564 0.
-193.773 -112.486 0.
-31.0224 -23.7801 0.
-13.552 17.1939 0.
107.511 95.1599 0.
111.645 106.61 0.
115.779 118.059 0.
-99.5961 5.82384 0.
-140.99 -89.4532 0.
-182.384 -184.73 0.
131.154 -136.803 0.
82.5691 -249.703 0.
33.9848 -362.603 0.
-39.8218 -227.108 0.
84.6978 65.4871 0.
30.9148 -63.6537 0.
-281.955 16.32 0.
-165.193 288.309 0.
110.136 505.789 0.
-52.6396 125.085 0.
-215.416 -255.62 0.
-301.5 -441.174 0.
-274.527 -378.577 0.
-247.555 -315.98 0.
-423.461 -289.775 0.
-358.86 -136.334 0.
-294.259 17.1061 0.
5.22184 189.106 0.
22.1281 231.95 0.
-307.41 121.077 0.
-323.468 84.1369 0.
-339.525 47.1969 0.
-268.221 62.0537 0.
-264.241 73.4036 0.
-260.261 84.7536 0.
26.7181 157.288 0.
-23.1473 41.4438 0.
-73.0125 -74.4005 0.
-458.678 -282.006 0.
-472.366 -313.627 0.
1020.71 298.895 0.
217.583 100.909 0.
291.852 275.581 0.
391.774 376.958 0.
275.468 109.056 0.
159.163 -158.845 0.
-409.997 -473.487 0.
-351.445 -335.423 0.
-292.892 -197.36 0.
125.878 80.8016 0.
172.825 189.433 0.
219.773 298.064 0.
-247.296 34.9959 0.
-291.345 -69.529 0.
305.166 99.6344 0.
262.716 -0.324268 0.
220.265 -100.283 0.
179.819 -146.603 0.
223.777 -47.1861 0.
267.735 52.2306 0.
-188.037 -61.3958 0.
-142.106 45.1976 0.
-96.1754 151.791 0.
203.939 172.169 0.
120.678 -24.056 0.
815.48 113.945 0.
-325.269 -283.271 0.
-277.332 -171.571 0.
39.6562 60.285 0.
96.6505 191.906 0.
153.645 323.528 0.
311.242 333.506 0.
175.124 17.2069 0.
39.0073 -299.092 0.
-319.916 -290.435 0.
-126.082 161.762 0.
67.7529 613.959 0.
484.899 598.491 0.
346.512 277.495 0.
109.103 -49.2158 0.
120.569 -20.0515 0.
132.036 9.11284 0.
5.56399 -44.9845 0.
-13.3329 -86.8608 0.
-32.2296 -128.737 0.
94.8942 31.7672 0.
203.076 283.624 0.
311.258 535.481 0.
274.089 387.546 0.
154.827 112.284 0.
-653.912 -457.507 0.
-25.1336 -166.425 0.
-12.4673 -135.893 0.
45.7668 -90.871 0.
38.0575 -110.212 0.
30.3478 -129.554 0.
-496.441 -271.819 0.
-387.567 -15.6825 0.
-278.693 240.454 0.
-284.076 196.575 0.
-368.086 2.18408 0.
-452.096 -192.207 0.
-89.8016 -16.664 0.
-72.6244 24.5421 0.
128.858 135.482 0.
133.073 147.072 0.
137.288 158.663 0.
-17.6543 71.5799 0.
-58.7572 -23.9012 0.
-99.86 -119.382 0.
9.0165 -156.708 0.
-39.5035 -269.323 0.
-88.0231 -381.938 0.
211.494 -89.5188 0.
335.543 204.335 0.
