# vtk DataFile Version 2.0
test grain
ASCII
DATASET UNSTRUCTURED_GRID
POINTS 5000 float
0.499935 0.00100044 0.
0.501937 0.00100028 0.
0.503938 0.00100012 0.
0.505939 0.000999987 0.
0.50794 0.000999992 0.
0.509942 0.000999997 0.
0.511944 0.000999999 0.
0.513946 0.001 0.
0.515948 0.001 0.
0.517949 0.00100001 0.
0.519951 0.00100001 0.
0.521952 0.00100001 0.
0.523954 0.001 0.
0.525955 0.000999999 0.
0.527956 0.001 0.
0.529958 0.00100001 0.
0.531959 0.00100002 0.
0.533961 0.00100002 0.
0.535962 0.00100001 0.
0.537963 0.000999997 0.
0.539964 0.000999997 0.
0.541965 0.000999997 0.
0.543966 0.000999998 0.
0.545967 0.000999999 0.
0.547967 0.001 0.
0.549968 0.001 0.
0.551969 0.00100001 0.
0.55397 0.00100002 0.
0.555971 0.00100003 0.
0.557972 0.00100002 0.
0.559972 0.00100001 0.
0.561973 0.001 0.
0.563975 0.001 0.
0.565976 0.000999999 0.
0.567977 0.000999998 0.
0.569977 0.000999997 0.
0.571977 0.000999997 0.
0.573977 0.001 0.
0.575977 0.001 0.
0.577977 0.00100001 0.
0.579978 0.00100001 0.
0.581978 0.00100001 0.
0.583979 0.00100005 0.
0.585978 0.00100014 0.
0.587978 0.00100024 0.
0.589978 0.00100023 0.
0.591977 0.00100011 0.
0.593976 0.001 0.
0.595982 0.00100017 0.
0.597991 0.00100043 0.
0.600001 0.00100069 0.
0.60201 0.00100044 0.
0.60402 0.00100019 0.
0.606027 0.000999999 0.
0.608026 0.001 0.
0.610024 0.001 0.
0.612024 0.00100001 0.
0.614024 0.001 0.
0.616024 0.001 0.
0.618024 0.00100005 0.
0.620024 0.00100011 0.
0.622024 0.00100018 0.
0.624023 0.00100013 0.
0.626023 0.00100006 0.
0.628022 0.00100001 0.
0.630023 0.00100001 0.
0.632024 0.001 0.
0.634025 0.001 0.
0.636026 0.001 0.
0.638027 0.001 0.
0.640027 0.001 0.
0.642028 0.001 0.
0.644029 0.000999997 0.
0.646029 0.00100007 0.
0.64803 0.00100015 0.
0.65003 0.00100024 0.
0.652032 0.00100015 0.
0.654033 0.00100007 0.
0.656034 0.00100001 0.
0.658036 0.00100001 0.
0.660038 0.001 0.
0.662039 0.001 0.
0.66404 0.001 0.
0.666041 0.000999997 0.
0.668042 0.001 0.
0.670044 0.001 0.
0.672045 0.001 0.
0.674047 0.001 0.
0.676048 0.001 0.
0.67805 0.001 0.
0.680051 0.001 0.
0.682052 0.001 0.
0.684053 0.001 0.
0.686054 0.001 0.
0.688056 0.001 0.
0.690057 0.00100004 0.
0.692059 0.0010001 0.
0.694061 0.00100016 0.
0.696063 0.00100018 0.
0.698065 0.00100017 0.
0.499936 0.0030013 0.
0.501938 0.00300083 0.
0.503939 0.00300035 0.
0.50594 0.00299996 0.
0.507941 0.00299998 0.
0.509943 0.00299999 0.
0.511944 0.003 0.
0.513946 0.003 0.
0.515948 0.00300001 0.
0.51795 0.00300002 0.
0.519951 0.00300002 0.
0.521953 0.00300002 0.
0.523954 0.003 0.
0.525955 0.003 0.
0.527956 0.003 0.
0.529957 0.00300003 0.
0.531958 0.00300005 0.
0.533959 0.00300005 0.
0.53596 0.00300002 0.
0.537962 0.00299999 0.
0.539963 0.00299999 0.
0.541965 0.00299999 0.
0.543967 0.00299999 0.
0.545968 0.003 0.
0.547968 0.00300001 0.
0.549969 0.00300001 0.
0.551969 0.00300004 0.
0.55397 0.00300007 0.
0.55597 0.00300009 0.
0.557971 0.00300005 0.
0.559972 0.00300002 0.
0.561973 0.00300001 0.
0.563974 0.003 0.
0.565975 0.003 0.
0.567976 0.00299999 0.
0.569977 0.00299999 0.
0.571977 0.00299999 0.
0.573978 0.003 0.
0.575978 0.00300001 0.
0.577978 0.00300002 0.
0.579979 0.00300003 0.
0.58198 0.00300004 0.
0.58398 0.00300014 0.
0.58598 0.00300043 0.
0.58798 0.00300073 0.
0.589979 0.00300067 0.
0.591979 0.00300033 0.
0.593979 0.00299999 0.
0.595985 0.00300052 0.
0.597993 0.00300129 0.
0.600001 0.00300206 0.
0.602009 0.00300132 0.
0.604017 0.00300058 0.
0.606023 0.003 0.
0.608023 0.003 0.
0.610023 0.00300001 0.
0.612023 0.00300002 0.
0.614023 0.00300001 0.
0.616023 0.00300001 0.
0.618023 0.00300014 0.
0.620024 0.00300034 0.
0.622024 0.00300055 0.
0.624023 0.00300039 0.
0.626022 0.00300019 0.
0.628021 0.00300003 0.
0.630022 0.00300002 0.
0.632023 0.00300001 0.
0.634024 0.00300001 0.
0.636025 0.00300001 0.
0.638026 0.00300001 0.
0.640027 0.00300001 0.
0.642028 0.003 0.
0.64403 0.00299999 0.
0.64603 0.0030002 0.
0.64803 0.00300046 0.
0.65003 0.00300071 0.
0.652031 0.00300046 0.
0.654031 0.00300021 0.
0.656032 0.00300002 0.
0.658034 0.00300001 0.
0.660036 0.00300001 0.
0.662038 0.00300001 0.
0.66404 0.003 0.
0.666042 0.00299999 0.
0.668043 0.003 0.
0.670044 0.00300001 0.
0.672045 0.00300001 0.
0.674046 0.00300001 0.
0.676047 0.00300001 0.
0.678049 0.00300001 0.
0.68005 0.00300001 0.
0.682052 0.00300001 0.
0.684054 0.00300001 0.
0.686055 0.003 0.
0.688056 0.003 0.
0.690058 0.00300011 0.
0.692059 0.0030003 0.
0.69406 0.00300049 0.
0.696062 0.00300053 0.
0.698064 0.00300053 0.
0.499937 0.00500215 0.
0.501939 0.00500138 0.
0.50394 0.00500057 0.
0.505941 0.00499994 0.
0.507942 0.00499996 0.
0.509943 0.00499999 0.
0.511945 0.00499999 0.
0.513946 0.005 0.
0.515948 0.00500001 0.
0.51795 0.00500003 0.
0.519951 0.00500003 0.
0.521953 0.00500002 0.
0.523954 0.005 0.
0.525954 0.00499999 0.
0.527955 0.005 0.
0.529956 0.00500004 0.
0.531957 0.00500008 0.
0.533958 0.00500008 0.
0.535959 0.00500002 0.
0.53796 0.00499998 0.
0.539962 0.00499998 0.
0.541965 0.00499999 0.
0.543968 0.00499999 0.
0.545969 0.00499999 0.
0.547969 0.005 0.
0.549969 0.00500002 0.
0.551969 0.00500007 0.
0.553969 0.00500012 0.
0.555969 0.00500014 0.
0.557971 0.00500008 0.
0.559972 0.00500003 0.
0.561974 0.00500001 0.
0.563974 0.005 0.
0.565975 0.005 0.
0.567976 0.00499998 0.
0.569977 0.00499999 0.
0.571978 0.00499999 0.
0.573979 0.005 0.
0.575979 0.00500001 0.
0.57798 0.00500003 0.
0.579981 0.00500004 0.
0.581982 0.00500006 0.
0.583982 0.00500023 0.
0.585981 0.00500072 0.
0.587981 0.00500123 0.
0.589981 0.00500111 0.
0.591982 0.00500054 0.
0.593983 0.00499998 0.
0.595988 0.00500087 0.
0.597994 0.00500215 0.
0.6 0.00500343 0.
0.602007 0.00500219 0.
0.604014 0.00500095 0.
0.606019 0.005 0.
0.60802 0.00500001 0.
0.610021 0.00500001 0.
0.612021 0.00500002 0.
0.614022 0.00500001 0.
0.616022 0.00500001 0.
0.618023 0.00500023 0.
0.620023 0.00500057 0.
0.622024 0.00500091 0.
0.624022 0.00500064 0.
0.626021 0.00500032 0.
0.628019 0.00500004 0.
0.63002 0.00500003 0.
0.632021 0.00500002 0.
0.634022 0.00500001 0.
0.636024 0.00500001 0.
0.638026 0.00500002 0.
0.640028 0.00500001 0.
0.642029 0.005 0.
0.644031 0.00499998 0.
0.646031 0.00500032 0.
0.648031 0.00500076 0.
0.65003 0.00500119 0.
0.65203 0.00500077 0.
0.654029 0.00500034 0.
0.65603 0.00500003 0.
0.658032 0.00500002 0.
0.660035 0.00500002 0.
0.662037 0.00500001 0.
0.66404 0.005 0.
0.666043 0.00499999 0.
0.668044 0.005 0.
0.670045 0.00500001 0.
0.672045 0.00500002 0.
0.674046 0.00500001 0.
0.676047 0.005 0.
0.678048 0.00500001 0.
0.68005 0.00500001 0.
0.682052 0.00500001 0.
0.684054 0.00500001 0.
0.686055 0.005 0.
0.688057 0.00499999 0.
0.690058 0.00500018 0.
0.692059 0.0050005 0.
0.69406 0.00500082 0.
0.696061 0.00500089 0.
0.698063 0.00500088 0.
0.499939 0.00700333 0.
0.50194 0.00700234 0.
0.503941 0.00700125 0.
0.505942 0.00700047 0.
0.507943 0.00700097 0.
0.509945 0.00700148 0.
0.511946 0.00700194 0.
0.513948 0.00700233 0.
0.515949 0.00700272 0.
0.51795 0.00700271 0.
0.519952 0.00700247 0.
0.521953 0.00700223 0.
0.523954 0.00700235 0.
0.525955 0.00700254 0.
0.527956 0.0070027 0.
0.529957 0.0070028 0.
0.531958 0.0070029 0.
0.533959 0.00700315 0.
0.53596 0.00700373 0.
0.537961 0.0070043 0.
0.539963 0.00700438 0.
0.541965 0.00700402 0.
0.543967 0.00700365 0.
0.545968 0.00700366 0.
0.547968 0.00700378 0.
0.549969 0.0070039 0.
0.551969 0.00700356 0.
0.55397 0.0070032 0.
0.55597 0.00700299 0.
0.557972 0.00700333 0.
0.559973 0.00700367 0.
0.561974 0.00700387 0.
0.563975 0.00700388 0.
0.565976 0.00700389 0.
0.567976 0.00700436 0.
0.569977 0.0070051 0.
0.571978 0.00700583 0.
0.573979 0.00700606 0.
0.575979 0.00700622 0.
0.57798 0.00700629 0.
0.579981 0.00700565 0.
0.581982 0.00700501 0.
0.583982 0.00700449 0.
0.585983 0.0070042 0.
0.587983 0.00700392 0.
0.589984 0.00700352 0.
0.591985 0.0070031 0.
0.593987 0.00700267 0.
0.595991 0.00700394 0.
0.597996 0.00700568 0.
0.6 0.00700742 0.
0.602006 0.00700576 0.
0.604012 0.00700412 0.
0.606017 0.00700296 0.
0.608018 0.00700345 0.
0.610019 0.00700392 0.
0.612019 0.00700432 0.
0.61402 0.0070046 0.
0.616021 0.00700488 0.
0.618021 0.00700495 0.
0.620022 0.00700495 0.
0.622022 0.00700495 0.
0.624022 0.0070049 0.
0.626021 0.00700485 0.
0.62802 0.00700485 0.
0.630021 0.00700511 0.
0.632022 0.00700537 0.
0.634023 0.0070054 0.
0.636024 0.00700499 0.
0.638025 0.00700459 0.
0.640026 0.00700435 0.
0.642027 0.00700425 0.
0.644028 0.00700415 0.
0.646029 0.00700408 0.
0.648029 0.00700403 0.
0.65003 0.00700399 0.
0.65203 0.00700442 0.
0.654031 0.00700486 0.
0.656031 0.00700523 0.
0.658033 0.00700539 0.
0.660035 0.00700554 0.
0.662037 0.00700538 0.
0.664039 0.00700485 0.
0.666041 0.00700432 0.
0.668042 0.00700374 0.
0.670043 0.00700313 0.
0.672045 0.00700253 0.
0.674046 0.00700229 0.
0.676047 0.00700208 0.
0.678048 0.00700188 0.
0.68005 0.00700169 0.
0.682052 0.0070015 0.
0.684053 0.00700141 0.
0.686055 0.00700147 0.
0.688056 0.00700153 0.
0.690057 0.00700177 0.
0.692058 0.00700213 0.
0.694059 0.00700249 0.
0.696061 0.00700306 0.
0.698062 0.00700368 0.
0.49994 0.00900447 0.
0.501941 0.0090033 0.
0.503942 0.00900192 0.
0.505943 0.00900099 0.
0.507945 0.00900199 0.
0.509946 0.00900298 0.
0.511948 0.0090039 0.
0.513949 0.00900466 0.
0.51595 0.00900543 0.
0.517951 0.00900539 0.
0.519952 0.00900491 0.
0.521953 0.00900444 0.
0.523954 0.0090047 0.
0.525955 0.00900508 0.
0.527956 0.00900541 0.
0.529957 0.00900557 0.
0.531959 0.00900572 0.
0.53396 0.00900623 0.
0.535961 0.00900742 0.
0.537962 0.00900863 0.
0.539963 0.00900878 0.
0.541965 0.00900805 0.
0.543966 0.00900731 0.
0.545967 0.00900733 0.
0.547968 0.00900756 0.
0.549969 0.00900779 0.
0.55197 0.00900705 0.
0.55397 0.00900629 0.
0.555971 0.00900584 0.
0.557972 0.00900658 0.
0.559974 0.00900732 0.
0.561975 0.00900773 0.
0.563975 0.00900776 0.
0.565976 0.00900778 0.
0.567977 0.00900874 0.
0.569978 0.00901021 0.
0.571979 0.00901168 0.
0.573979 0.00901212 0.
0.57598 0.00901242 0.
0.57798 0.00901255 0.
0.579981 0.00901126 0.
0.581981 0.00900996 0.
0.583982 0.00900874 0.
0.585984 0.00900767 0.
0.587985 0.0090066 0.
0.589987 0.00900593 0.
0.591989 0.00900563 0.
0.59399 0.00900535 0.
0.595993 0.00900702 0.
0.597997 0.00900921 0.
0.600001 0.0090114 0.
0.602005 0.00900934 0.
0.60401 0.00900728 0.
0.606014 0.00900592 0.
0.608015 0.00900688 0.
0.610016 0.00900784 0.
0.612017 0.00900862 0.
0.614018 0.00900918 0.
0.616019 0.00900974 0.
0.61802 0.00900968 0.
0.62002 0.00900933 0.
0.622021 0.00900899 0.
0.624021 0.00900916 0.
0.626021 0.00900938 0.
0.628022 0.00900965 0.
0.630022 0.00901018 0.
0.632023 0.00901071 0.
0.634023 0.00901079 0.
0.636024 0.00900997 0.
0.638025 0.00900915 0.
0.640025 0.0090087 0.
0.642026 0.00900851 0.
0.644026 0.00900832 0.
0.646027 0.00900784 0.
0.648028 0.0090073 0.
0.650029 0.00900679 0.
0.65203 0.00900808 0.
0.654032 0.00900937 0.
0.656033 0.00901043 0.
0.658035 0.00901075 0.
0.660036 0.00901107 0.
0.662037 0.00901075 0.
0.664038 0.0090097 0.
0.666039 0.00900865 0.
0.66804 0.00900747 0.
0.670042 0.00900625 0.
0.672044 0.00900504 0.
0.674045 0.00900457 0.
0.676047 0.00900417 0.
0.678048 0.00900375 0.
0.68005 0.00900336 0.
0.682051 0.00900298 0.
0.684053 0.00900281 0.
0.686054 0.00900294 0.
0.688055 0.00900308 0.
0.690057 0.00900336 0.
0.692058 0.00900376 0.
0.694059 0.00900416 0.
0.69606 0.00900523 0.
0.698061 0.00900648 0.
0.49994 0.011005 0.
0.501942 0.0110037 0.
0.503943 0.0110022 0.
0.505944 0.0110012 0.
0.507946 0.0110023 0.
0.509947 0.0110035 0.
0.511948 0.0110045 0.
0.513949 0.0110054 0.
0.51595 0.0110063 0.
0.517951 0.0110062 0.
0.519952 0.0110057 0.
0.521953 0.0110052 0.
0.523954 0.0110055 0.
0.525956 0.0110059 0.
0.527957 0.0110063 0.
0.529958 0.0110065 0.
0.531959 0.0110067 0.
0.53396 0.0110073 0.
0.535961 0.0110086 0.
0.537962 0.0110098 0.
0.539964 0.01101 0.
0.541965 0.0110092 0.
0.543966 0.0110085 0.
0.545967 0.0110085 0.
0.547968 0.0110087 0.
0.549969 0.011009 0.
0.55197 0.0110082 0.
0.553971 0.0110075 0.
0.555972 0.0110071 0.
0.557973 0.0110078 0.
0.559974 0.0110086 0.
0.561975 0.0110091 0.
0.563975 0.0110092 0.
0.565976 0.0110092 0.
0.567977 0.0110103 0.
0.569978 0.0110118 0.
0.571978 0.0110134 0.
0.573979 0.011014 0.
0.57598 0.0110145 0.
0.577981 0.0110147 0.
0.579982 0.0110131 0.
0.581982 0.0110116 0.
0.583983 0.0110101 0.
0.585985 0.0110087 0.
0.587987 0.0110074 0.
0.589989 0.0110066 0.
0.591991 0.0110063 0.
0.593993 0.0110059 0.
0.595995 0.0110076 0.
0.597998 0.0110097 0.
0.600001 0.0110119 0.
0.602004 0.01101 0.
0.604008 0.0110082 0.
0.606011 0.011007 0.
0.608013 0.011008 0.
0.610014 0.0110091 0.
0.612016 0.0110099 0.
0.614017 0.0110106 0.
0.616017 0.0110113 0.
0.618018 0.0110112 0.
0.620019 0.0110108 0.
0.622019 0.0110104 0.
0.62402 0.0110106 0.
0.626021 0.0110109 0.
0.628022 0.0110113 0.
0.630022 0.0110119 0.
0.632023 0.0110124 0.
0.634023 0.0110125 0.
0.636024 0.0110116 0.
0.638024 0.0110107 0.
0.640025 0.0110102 0.
0.642025 0.0110099 0.
0.644025 0.0110097 0.
0.646026 0.0110091 0.
0.648028 0.0110084 0.
0.650029 0.0110078 0.
0.65203 0.0110093 0.
0.654032 0.0110109 0.
0.656034 0.0110121 0.
0.658035 0.0110124 0.
0.660036 0.0110126 0.
0.662037 0.0110122 0.
0.664038 0.011011 0.
0.666039 0.0110097 0.
0.66804 0.0110085 0.
0.670042 0.0110073 0.
0.672043 0.0110061 0.
0.674045 0.0110055 0.
0.676047 0.011005 0.
0.678048 0.0110044 0.
0.680049 0.0110039 0.
0.682051 0.0110034 0.
0.684052 0.0110032 0.
0.686053 0.0110035 0.
0.688054 0.0110038 0.
0.690056 0.0110042 0.
0.692057 0.0110047 0.
0.694059 0.0110052 0.
0.696059 0.0110064 0.
0.69806 0.0110077 0.
0.499941 0.0130049 0.
0.501942 0.0130034 0.
0.503943 0.013002 0.
0.505945 0.0130011 0.
0.507946 0.013002 0.
0.509947 0.013003 0.
0.511948 0.0130038 0.
0.513949 0.0130045 0.
0.51595 0.0130052 0.
0.517951 0.0130052 0.
0.519952 0.0130048 0.
0.521954 0.0130044 0.
0.523955 0.0130047 0.
0.525956 0.0130051 0.
0.527956 0.0130054 0.
0.529958 0.0130057 0.
0.531959 0.013006 0.
0.53396 0.0130064 0.
0.535962 0.0130071 0.
0.537963 0.0130079 0.
0.539964 0.013008 0.
0.541965 0.0130075 0.
0.543966 0.0130071 0.
0.545967 0.0130071 0.
0.547968 0.0130073 0.
0.549968 0.0130074 0.
0.551969 0.0130071 0.
0.55397 0.0130068 0.
0.555971 0.0130066 0.
0.557972 0.0130071 0.
0.559973 0.0130076 0.
0.561974 0.013008 0.
0.563975 0.0130081 0.
0.565976 0.0130082 0.
0.567976 0.0130089 0.
0.569977 0.0130099 0.
0.571978 0.013011 0.
0.573979 0.0130117 0.
0.57598 0.0130124 0.
0.577981 0.0130128 0.
0.579983 0.0130113 0.
0.581984 0.0130099 0.
0.583986 0.0130085 0.
0.585987 0.0130074 0.
0.587989 0.0130063 0.
0.58999 0.0130055 0.
0.591992 0.013005 0.
0.593993 0.0130044 0.
0.595996 0.0130056 0.
0.597998 0.0130072 0.
0.600001 0.0130089 0.
0.602004 0.0130079 0.
0.604006 0.0130068 0.
0.606009 0.0130062 0.
0.608011 0.0130069 0.
0.610013 0.0130076 0.
0.612014 0.0130083 0.
0.614015 0.0130089 0.
0.616016 0.0130095 0.
0.618017 0.0130095 0.
0.620018 0.0130094 0.
0.622019 0.0130092 0.
0.62402 0.0130093 0.
0.62602 0.0130095 0.
0.628021 0.0130097 0.
0.630021 0.0130102 0.
0.632022 0.0130106 0.
0.634022 0.0130107 0.
0.636023 0.01301 0.
0.638025 0.0130093 0.
0.640025 0.0130089 0.
0.642025 0.0130085 0.
0.644025 0.0130082 0.
0.646027 0.0130078 0.
0.648028 0.0130073 0.
0.650029 0.0130069 0.
0.652031 0.0130082 0.
0.654032 0.0130094 0.
0.656033 0.0130103 0.
0.658035 0.0130103 0.
0.660037 0.0130102 0.
0.662038 0.0130097 0.
0.664039 0.0130086 0.
0.66604 0.0130076 0.
0.668041 0.0130069 0.
0.670042 0.0130063 0.
0.672043 0.0130057 0.
0.674045 0.0130051 0.
0.676047 0.0130044 0.
0.678048 0.0130038 0.
0.680049 0.0130033 0.
0.682051 0.0130028 0.
0.684052 0.0130027 0.
0.686052 0.0130031 0.
0.688053 0.0130036 0.
0.690054 0.0130042 0.
0.692056 0.0130049 0.
0.694058 0.0130056 0.
0.696059 0.0130065 0.
0.69806 0.0130074 0.
0.499941 0.0150048 0.
0.501942 0.0150032 0.
0.503944 0.0150019 0.
0.505945 0.0150009 0.
0.507946 0.0150017 0.
0.509947 0.0150025 0.
0.511947 0.0150032 0.
0.513949 0.0150037 0.
0.51595 0.0150042 0.
0.517951 0.0150042 0.
0.519953 0.0150039 0.
0.521954 0.0150036 0.
0.523955 0.0150039 0.
0.525956 0.0150042 0.
0.527956 0.0150045 0.
0.529958 0.0150049 0.
0.531959 0.0150052 0.
0.53396 0.0150055 0.
0.535962 0.0150057 0.
0.537963 0.0150059 0.
0.539964 0.015006 0.
0.541965 0.0150059 0.
0.543966 0.0150057 0.
0.545967 0.0150058 0.
0.547968 0.0150058 0.
0.549968 0.0150059 0.
0.551969 0.0150059 0.
0.55397 0.0150061 0.
0.555971 0.0150062 0.
0.557972 0.0150064 0.
0.559973 0.0150066 0.
0.561973 0.0150068 0.
0.563974 0.015007 0.
0.565975 0.0150072 0.
0.567976 0.0150076 0.
0.569976 0.0150081 0.
0.571977 0.0150085 0.
0.573978 0.0150094 0.
0.57598 0.0150103 0.
0.577981 0.0150109 0.
0.579984 0.0150095 0.
0.581986 0.0150081 0.
0.583988 0.0150069 0.
0.585989 0.0150061 0.
0.587991 0.0150053 0.
0.589992 0.0150045 0.
0.591993 0.0150037 0.
0.593994 0.0150029 0.
0.595996 0.0150036 0.
0.597998 0.0150048 0.
0.600001 0.0150059 0.
0.602003 0.0150057 0.
0.604005 0.0150055 0.
0.606007 0.0150054 0.
0.608009 0.0150058 0.
0.610011 0.0150062 0.
0.612013 0.0150066 0.
0.614014 0.0150071 0.
0.616015 0.0150077 0.
0.618016 0.0150079 0.
0.620017 0.0150079 0.
0.622018 0.015008 0.
0.624019 0.015008 0.
0.626019 0.0150081 0.
0.62802 0.0150082 0.
0.63002 0.0150085 0.
0.632021 0.0150088 0.
0.634022 0.0150088 0.
0.636023 0.0150084 0.
0.638025 0.0150079 0.
0.640025 0.0150075 0.
0.642025 0.0150071 0.
0.644026 0.0150067 0.
0.646027 0.0150065 0.
0.648028 0.0150062 0.
0.650029 0.015006 0.
0.652031 0.015007 0.
0.654032 0.0150079 0.
0.656033 0.0150085 0.
0.658035 0.0150082 0.
0.660037 0.0150078 0.
0.662038 0.0150072 0.
0.66404 0.0150063 0.
0.666041 0.0150054 0.
0.668042 0.0150052 0.
0.670043 0.0150053 0.
0.672043 0.0150053 0.
0.674045 0.0150046 0.
0.676047 0.0150039 0.
0.678048 0.0150032 0.
0.680049 0.0150027 0.
0.68205 0.0150022 0.
0.684051 0.0150021 0.
0.686051 0.0150028 0.
0.688052 0.0150034 0.
0.690053 0.0150042 0.
0.692055 0.0150051 0.
0.694057 0.015006 0.
0.696058 0.0150066 0.
0.698059 0.0150071 0.
0.499942 0.017005 0.
0.501943 0.0170036 0.
0.503944 0.0170025 0.
0.505945 0.0170016 0.
0.507946 0.0170023 0.
0.509946 0.017003 0.
0.511947 0.0170034 0.
0.513949 0.0170033 0.
0.515951 0.0170033 0.
0.517952 0.0170034 0.
0.519953 0.0170035 0.
0.521955 0.0170037 0.
0.523955 0.0170039 0.
0.525956 0.0170041 0.
0.527957 0.0170043 0.
0.529958 0.0170045 0.
0.531959 0.0170048 0.
0.53396 0.017005 0.
0.535962 0.0170052 0.
0.537963 0.0170054 0.
0.539964 0.0170054 0.
0.541965 0.0170051 0.
0.543966 0.0170048 0.
0.545967 0.017005 0.
0.547968 0.0170052 0.
0.549969 0.0170055 0.
0.55197 0.0170056 0.
0.55397 0.0170057 0.
0.555971 0.0170058 0.
0.557972 0.0170056 0.
0.559973 0.0170055 0.
0.561974 0.0170057 0.
0.563975 0.0170062 0.
0.565976 0.0170067 0.
0.567977 0.0170072 0.
0.569978 0.0170077 0.
0.571979 0.0170083 0.
0.57398 0.0170088 0.
0.575982 0.0170094 0.
0.577983 0.0170098 0.
0.579985 0.0170087 0.
0.581986 0.0170076 0.
0.583988 0.0170066 0.
0.585989 0.0170056 0.
0.587991 0.0170046 0.
0.589992 0.0170038 0.
0.591993 0.0170032 0.
0.593995 0.0170026 0.
0.595997 0.0170033 0.
0.597999 0.0170044 0.
0.600001 0.0170055 0.
0.602003 0.0170054 0.
0.604005 0.0170052 0.
0.606007 0.0170052 0.
0.608009 0.0170054 0.
0.610011 0.0170055 0.
0.612012 0.0170057 0.
0.614013 0.017006 0.
0.616014 0.0170062 0.
0.618015 0.0170066 0.
0.620016 0.0170071 0.
0.622017 0.0170076 0.
0.624018 0.0170077 0.
0.626019 0.0170078 0.
0.628019 0.0170078 0.
0.63002 0.0170077 0.
0.632021 0.0170076 0.
0.634022 0.0170075 0.
0.636023 0.0170075 0.
0.638025 0.0170075 0.
0.640025 0.0170071 0.
0.642026 0.0170065 0.
0.644026 0.0170058 0.
0.646027 0.0170058 0.
0.648028 0.0170059 0.
0.650029 0.017006 0.
0.652031 0.0170065 0.
0.654032 0.017007 0.
0.656033 0.0170073 0.
0.658035 0.0170071 0.
0.660037 0.017007 0.
0.662038 0.0170066 0.
0.664039 0.0170058 0.
0.666041 0.0170051 0.
0.668042 0.0170051 0.
0.670043 0.0170054 0.
0.672044 0.0170057 0.
0.674045 0.0170047 0.
0.676046 0.0170035 0.
0.678047 0.0170025 0.
0.680048 0.0170023 0.
0.682049 0.0170022 0.
0.68405 0.0170023 0.
0.686051 0.0170029 0.
0.688052 0.0170035 0.
0.690053 0.0170041 0.
0.692054 0.0170048 0.
0.694056 0.0170056 0.
0.696057 0.0170066 0.
0.698058 0.0170078 0.
0.499942 0.0190051 0.
0.501943 0.0190041 0.
0.503944 0.0190031 0.
0.505945 0.0190024 0.
0.507946 0.019003 0.
0.509946 0.0190036 0.
0.511947 0.0190036 0.
0.513949 0.019003 0.
0.515951 0.0190024 0.
0.517953 0.0190025 0.
0.519954 0.0190031 0.
0.521955 0.0190037 0.
0.523956 0.0190039 0.
0.525956 0.019004 0.
0.527957 0.0190041 0.
0.529958 0.0190042 0.
0.531959 0.0190043 0.
0.533961 0.0190045 0.
0.535962 0.0190047 0.
0.537963 0.0190048 0.
0.539964 0.0190047 0.
0.541965 0.0190043 0.
0.543967 0.0190039 0.
0.545968 0.0190042 0.
0.547969 0.0190047 0.
0.54997 0.0190051 0.
0.55197 0.0190053 0.
0.553971 0.0190054 0.
0.555971 0.0190054 0.
0.557972 0.0190049 0.
0.559973 0.0190044 0.
0.561974 0.0190045 0.
0.563975 0.0190053 0.
0.565976 0.0190062 0.
0.567977 0.0190069 0.
0.569979 0.0190074 0.
0.571981 0.019008 0.
0.573982 0.0190083 0.
0.575983 0.0190085 0.
0.577984 0.0190087 0.
0.579986 0.0190079 0.
0.581987 0.0190071 0.
0.583988 0.0190062 0.
0.585989 0.0190051 0.
0.587991 0.019004 0.
0.589992 0.0190032 0.
0.591994 0.0190027 0.
0.593995 0.0190023 0.
0.595997 0.0190029 0.
0.597999 0.019004 0.
0.600001 0.019005 0.
0.602003 0.019005 0.
0.604005 0.019005 0.
0.606007 0.019005 0.
0.608009 0.0190049 0.
0.61001 0.0190049 0.
0.612011 0.0190048 0.
0.614012 0.0190048 0.
0.616013 0.0190048 0.
0.618014 0.0190054 0.
0.620015 0.0190063 0.
0.622016 0.0190071 0.
0.624017 0.0190073 0.
0.626018 0.0190074 0.
0.628019 0.0190074 0.
0.63002 0.019007 0.
0.632021 0.0190065 0.
0.634022 0.0190063 0.
0.636023 0.0190067 0.
0.638024 0.019007 0.
0.640025 0.0190067 0.
0.642026 0.0190058 0.
0.644027 0.0190049 0.
0.646028 0.0190051 0.
0.648029 0.0190055 0.
0.65003 0.0190059 0.
0.652031 0.0190059 0.
0.654032 0.019006 0.
0.656033 0.019006 0.
0.658035 0.0190061 0.
0.660036 0.0190061 0.
0.662038 0.0190059 0.
0.664039 0.0190053 0.
0.66604 0.0190047 0.
0.668041 0.0190049 0.
0.670043 0.0190055 0.
0.672044 0.0190061 0.
0.674045 0.0190047 0.
0.676045 0.0190031 0.
0.678046 0.0190018 0.
0.680047 0.019002 0.
0.682048 0.0190022 0.
0.68405 0.0190025 0.
0.68605 0.019003 0.
0.688051 0.0190035 0.
0.690052 0.019004 0.
0.692054 0.0190046 0.
0.694055 0.0190051 0.
0.696056 0.0190067 0.
0.698057 0.0190085 0.
0.499943 0.0210055 0.
0.501944 0.0210045 0.
0.503945 0.0210035 0.
0.505945 0.0210028 0.
0.507946 0.0210031 0.
0.509947 0.0210034 0.
0.511948 0.0210032 0.
0.51395 0.0210025 0.
0.515952 0.0210018 0.
0.517953 0.021002 0.
0.519954 0.0210026 0.
0.521955 0.0210033 0.
0.523956 0.0210033 0.
0.525957 0.0210032 0.
0.527958 0.0210032 0.
0.529959 0.0210034 0.
0.53196 0.0210036 0.
0.533961 0.0210038 0.
0.535962 0.021004 0.
0.537963 0.0210041 0.
0.539965 0.0210039 0.
0.541966 0.0210034 0.
0.543967 0.0210029 0.
0.545968 0.0210031 0.
0.547969 0.0210035 0.
0.54997 0.021004 0.
0.55197 0.0210042 0.
0.553971 0.0210043 0.
0.555972 0.0210044 0.
0.557973 0.0210039 0.
0.559974 0.0210033 0.
0.561975 0.0210034 0.
0.563975 0.0210042 0.
0.565976 0.021005 0.
0.567978 0.0210057 0.
0.56998 0.0210063 0.
0.571982 0.021007 0.
0.573984 0.0210071 0.
0.575984 0.0210072 0.
0.577985 0.0210072 0.
0.579986 0.0210066 0.
0.581987 0.0210061 0.
0.583989 0.0210053 0.
0.58599 0.0210042 0.
0.587991 0.021003 0.
0.589993 0.0210023 0.
0.591994 0.0210018 0.
0.593996 0.0210014 0.
0.595997 0.021002 0.
0.597999 0.0210029 0.
0.600001 0.0210038 0.
0.602003 0.0210039 0.
0.604005 0.021004 0.
0.606007 0.021004 0.
0.608009 0.0210039 0.
0.61001 0.0210038 0.
0.612011 0.0210037 0.
0.614012 0.0210036 0.
0.616013 0.0210035 0.
0.618014 0.0210041 0.
0.620015 0.021005 0.
0.622015 0.0210059 0.
0.624017 0.021006 0.
0.626018 0.021006 0.
0.628019 0.021006 0.
0.63002 0.0210055 0.
0.632021 0.0210049 0.
0.634022 0.0210047 0.
0.636023 0.0210051 0.
0.638024 0.0210055 0.
0.640025 0.0210053 0.
0.642027 0.0210045 0.
0.644028 0.0210038 0.
0.646028 0.0210041 0.
0.648029 0.0210047 0.
0.65003 0.0210053 0.
0.652031 0.021005 0.
0.654032 0.0210047 0.
0.656033 0.0210045 0.
0.658034 0.0210047 0.
0.660036 0.0210049 0.
0.662037 0.0210048 0.
0.664038 0.0210044 0.
0.66604 0.021004 0.
0.668041 0.0210043 0.
0.670042 0.021005 0.
0.672044 0.0210057 0.
0.674044 0.0210043 0.
0.676045 0.0210028 0.
0.678045 0.0210014 0.
0.680046 0.0210016 0.
0.682048 0.0210018 0.
0.684049 0.0210021 0.
0.68605 0.0210027 0.
0.688051 0.0210033 0.
0.690052 0.0210038 0.
0.692053 0.0210043 0.
0.694054 0.0210048 0.
0.696055 0.0210065 0.
0.698056 0.0210085 0.
0.499944 0.0230059 0.
0.501945 0.0230049 0.
0.503946 0.0230038 0.
0.505946 0.0230028 0.
0.507947 0.0230026 0.
0.509948 0.0230024 0.
0.51195 0.0230022 0.
0.513951 0.0230018 0.
0.515952 0.0230014 0.
0.517953 0.0230016 0.
0.519954 0.0230021 0.
0.521955 0.0230026 0.
0.523956 0.0230023 0.
0.525957 0.0230019 0.
0.527959 0.0230016 0.
0.52996 0.0230021 0.
0.531961 0.0230026 0.
0.533962 0.023003 0.
0.535963 0.0230032 0.
0.537964 0.0230033 0.
0.539965 0.023003 0.
0.541966 0.0230024 0.
0.543967 0.0230017 0.
0.545968 0.0230017 0.
0.547969 0.0230019 0.
0.54997 0.023002 0.
0.551971 0.0230023 0.
0.553972 0.0230026 0.
0.555973 0.0230028 0.
0.557974 0.0230026 0.
0.559975 0.0230024 0.
0.561976 0.0230024 0.
0.563976 0.0230028 0.
0.565977 0.0230031 0.
0.567979 0.0230037 0.
0.569981 0.0230045 0.
0.571983 0.0230052 0.
0.573984 0.0230053 0.
0.575985 0.0230053 0.
0.577986 0.0230053 0.
0.579987 0.023005 0.
0.581988 0.0230047 0.
0.583989 0.0230041 0.
0.585991 0.0230029 0.
0.587992 0.0230018 0.
0.589993 0.023001 0.
0.591995 0.0230005 0.
0.593996 0.023 0.
0.595997 0.0230005 0.
0.597999 0.0230012 0.
0.600001 0.0230019 0.
0.602003 0.023002 0.
0.604005 0.023002 0.
0.606007 0.0230021 0.
0.608009 0.0230022 0.
0.61001 0.0230024 0.
0.612011 0.0230024 0.
0.614012 0.0230024 0.
0.616012 0.0230024 0.
0.618013 0.0230028 0.
0.620014 0.0230034 0.
0.622015 0.023004 0.
0.624016 0.0230038 0.
0.626018 0.0230036 0.
0.628019 0.0230034 0.
0.63002 0.0230032 0.
0.632021 0.023003 0.
0.634022 0.0230029 0.
0.636023 0.023003 0.
0.638024 0.023003 0.
0.640026 0.0230029 0.
0.642027 0.0230027 0.
0.644028 0.0230024 0.
0.646029 0.0230029 0.
0.648029 0.0230035 0.
0.65003 0.0230041 0.
0.652031 0.0230036 0.
0.654032 0.0230031 0.
0.656033 0.0230027 0.
0.658034 0.0230031 0.
0.660036 0.0230034 0.
0.662037 0.0230034 0.
0.664038 0.0230031 0.
0.666039 0.0230029 0.
0.66804 0.0230032 0.
0.670042 0.0230039 0.
0.672043 0.0230046 0.
0.674044 0.0230036 0.
0.676044 0.0230025 0.
0.678045 0.0230014 0.
0.680046 0.0230012 0.
0.682047 0.023001 0.
0.684048 0.0230011 0.
0.686049 0.0230019 0.
0.688049 0.0230027 0.
0.690051 0.0230034 0.
0.692052 0.023004 0.
0.694053 0.0230046 0.
0.696054 0.0230061 0.
0.698055 0.0230078 0.
0.499945 0.0250064 0.
0.501946 0.0250053 0.
0.503946 0.025004 0.
0.505947 0.0250028 0.
0.507948 0.0250022 0.
0.50995 0.0250015 0.
0.511951 0.0250011 0.
0.513952 0.0250011 0.
0.515952 0.0250011 0.
0.517953 0.0250013 0.
0.519954 0.0250015 0.
0.521955 0.0250018 0.
0.523957 0.0250012 0.
0.525958 0.0250005 0.
0.527959 0.025 0.
0.52996 0.0250008 0.
0.531961 0.0250017 0.
0.533962 0.0250023 0.
0.535964 0.0250024 0.
0.537965 0.0250025 0.
0.539966 0.0250021 0.
0.541967 0.0250013 0.
0.543968 0.0250006 0.
0.545968 0.0250003 0.
0.547969 0.0250002 0.
0.549969 0.0250001 0.
0.551971 0.0250005 0.
0.553972 0.0250008 0.
0.555973 0.0250011 0.
0.557974 0.0250013 0.
0.559976 0.0250014 0.
0.561977 0.0250014 0.
0.563977 0.0250014 0.
0.565978 0.0250013 0.
0.567979 0.0250018 0.
0.569981 0.0250026 0.
0.571983 0.0250035 0.
0.573984 0.0250035 0.
0.575986 0.0250035 0.
0.577987 0.0250034 0.
0.579988 0.0250033 0.
0.581989 0.0250032 0.
0.58399 0.0250028 0.
0.585992 0.0250017 0.
0.587993 0.0250006 0.
0.589994 0.0249998 0.
0.591995 0.0249992 0.
0.593996 0.0249986 0.
0.595998 0.0249989 0.
0.597999 0.0249995 0.
0.6 0.025 0.
0.602003 0.0250001 0.
0.604005 0.0250001 0.
0.606007 0.0250002 0.
0.608009 0.0250006 0.
0.61001 0.0250009 0.
0.612011 0.0250011 0.
0.614012 0.0250012 0.
0.616012 0.0250013 0.
0.618013 0.0250015 0.
0.620014 0.0250017 0.
0.622015 0.025002 0.
0.624016 0.0250017 0.
0.626018 0.0250013 0.
0.628019 0.0250009 0.
0.63002 0.025001 0.
0.632021 0.0250011 0.
0.634022 0.0250011 0.
0.636023 0.0250008 0.
0.638024 0.0250005 0.
0.640026 0.0250005 0.
0.642027 0.0250008 0.
0.644028 0.025001 0.
0.646029 0.0250016 0.
0.648029 0.0250024 0.
0.65003 0.025003 0.
0.652031 0.0250022 0.
0.654032 0.0250015 0.
0.656033 0.025001 0.
0.658034 0.0250014 0.
0.660036 0.0250019 0.
0.662037 0.025002 0.
0.664038 0.0250019 0.
0.666039 0.0250017 0.
0.66804 0.0250022 0.
0.670041 0.0250028 0.
0.672042 0.0250035 0.
0.674043 0.0250029 0.
0.676044 0.0250022 0.
0.678045 0.0250015 0.
0.680045 0.0250008 0.
0.682046 0.0250002 0.
0.684047 0.0250002 0.
0.686047 0.0250011 0.
0.688048 0.0250021 0.
0.690049 0.0250029 0.
0.692051 0.0250037 0.
0.694052 0.0250044 0.
0.696053 0.0250057 0.
0.698054 0.0250071 0.
0.499946 0.0270062 0.
0.501947 0.027005 0.
0.503948 0.0270037 0.
0.505949 0.0270025 0.
0.50795 0.0270021 0.
0.509951 0.0270017 0.
0.511952 0.0270013 0.
0.513953 0.0270009 0.
0.515954 0.0270005 0.
0.517955 0.0270006 0.
0.519955 0.027001 0.
0.521956 0.0270014 0.
0.523957 0.0270009 0.
0.525959 0.0270002 0.
0.52796 0.0269997 0.
0.529961 0.0270002 0.
0.531962 0.0270006 0.
0.533963 0.0270009 0.
0.535964 0.0270009 0.
0.537966 0.0270009 0.
0.539967 0.0270008 0.
0.541968 0.0270004 0.
0.543969 0.0270001 0.
0.54597 0.0269999 0.
0.54797 0.0269996 0.
0.549971 0.0269994 0.
0.551972 0.0269996 0.
0.553973 0.0269998 0.
0.555974 0.0269999 0.
0.557975 0.0269999 0.
0.559976 0.0269999 0.
0.561978 0.027 0.
0.563979 0.027 0.
0.56598 0.0270001 0.
0.567981 0.0270004 0.
0.569982 0.0270009 0.
0.571984 0.0270015 0.
0.573985 0.0270015 0.
0.575986 0.0270015 0.
0.577988 0.0270015 0.
0.579989 0.0270016 0.
0.58199 0.0270017 0.
0.583991 0.0270015 0.
0.585992 0.0270005 0.
0.587994 0.0269996 0.
0.589995 0.0269988 0.
0.591996 0.0269981 0.
0.593997 0.0269974 0.
0.595998 0.0269979 0.
0.597999 0.0269987 0.
0.6 0.0269996 0.
0.602003 0.0269995 0.
0.604005 0.0269994 0.
0.606007 0.0269994 0.
0.608008 0.0269994 0.
0.61001 0.0269995 0.
0.612011 0.0269996 0.
0.614011 0.0269998 0.
0.616012 0.027 0.
0.618013 0.0270003 0.
0.620014 0.0270006 0.
0.622015 0.0270009 0.
0.624016 0.0270006 0.
0.626017 0.0270002 0.
0.628019 0.0269998 0.
0.630019 0.0269998 0.
0.63202 0.0269997 0.
0.634021 0.0269997 0.
0.636023 0.0269995 0.
0.638024 0.0269994 0.
0.640025 0.0269994 0.
0.642026 0.0269996 0.
0.644027 0.0269998 0.
0.646028 0.0270003 0.
0.648028 0.0270008 0.
0.650029 0.0270012 0.
0.65203 0.027001 0.
0.654031 0.0270007 0.
0.656032 0.0270006 0.
0.658034 0.0270009 0.
0.660035 0.0270012 0.
0.662036 0.0270013 0.
0.664037 0.0270013 0.
0.666038 0.0270013 0.
0.668039 0.0270016 0.
0.67004 0.027002 0.
0.672041 0.0270025 0.
0.674042 0.0270019 0.
0.676043 0.0270013 0.
0.678044 0.0270006 0.
0.680045 0.0270006 0.
0.682045 0.0270006 0.
0.684046 0.0270008 0.
0.686047 0.0270014 0.
0.688047 0.027002 0.
0.690049 0.0270028 0.
0.69205 0.0270036 0.
0.694051 0.0270045 0.
0.696053 0.0270061 0.
0.698054 0.027008 0.
0.499947 0.0290061 0.
0.501948 0.0290048 0.
0.503949 0.0290033 0.
0.50595 0.0290022 0.
0.507952 0.029002 0.
0.509953 0.0290019 0.
0.511954 0.0290015 0.
0.513954 0.0290007 0.
0.515955 0.0289999 0.
0.517956 0.0289999 0.
0.519957 0.0290004 0.
0.521957 0.0290009 0.
0.523958 0.0290005 0.
0.525959 0.029 0.
0.52796 0.0289994 0.
0.529961 0.0289995 0.
0.531962 0.0289996 0.
0.533963 0.0289996 0.
0.535965 0.0289995 0.
0.537966 0.0289994 0.
0.539968 0.0289994 0.
0.541969 0.0289995 0.
0.543971 0.0289996 0.
0.545971 0.0289994 0.
0.547972 0.0289991 0.
0.549973 0.0289988 0.
0.551973 0.0289987 0.
0.553974 0.0289987 0.
0.555975 0.0289987 0.
0.557976 0.0289986 0.
0.559977 0.0289985 0.
0.561979 0.0289985 0.
0.56398 0.0289987 0.
0.565981 0.0289989 0.
0.567982 0.0289991 0.
0.569984 0.0289992 0.
0.571985 0.0289994 0.
0.573986 0.0289995 0.
0.575987 0.0289995 0.
0.577988 0.0289996 0.
0.579989 0.0289999 0.
0.581991 0.0290003 0.
0.583992 0.0290002 0.
0.585993 0.0289994 0.
0.587994 0.0289986 0.
0.589995 0.0289978 0.
0.591997 0.028997 0.
0.593998 0.0289961 0.
0.595999 0.0289968 0.
0.598 0.028998 0.
0.6 0.0289991 0.
0.602002 0.0289989 0.
0.604004 0.0289988 0.
0.606006 0.0289986 0.
0.608008 0.0289983 0.
0.610009 0.028998 0.
0.61201 0.0289981 0.
0.614011 0.0289984 0.
0.616012 0.0289987 0.
0.618013 0.0289991 0.
0.620014 0.0289994 0.
0.622015 0.0289997 0.
0.624016 0.0289995 0.
0.626017 0.0289991 0.
0.628018 0.0289988 0.
0.630019 0.0289986 0.
0.63202 0.0289984 0.
0.634021 0.0289982 0.
0.636022 0.0289982 0.
0.638023 0.0289982 0.
0.640024 0.0289983 0.
0.642025 0.0289984 0.
0.644026 0.0289986 0.
0.646026 0.0289989 0.
0.648027 0.0289992 0.
0.650028 0.0289995 0.
0.652029 0.0289997 0.
0.65403 0.0289999 0.
0.656031 0.0290002 0.
0.658033 0.0290003 0.
0.660034 0.0290005 0.
0.662035 0.0290006 0.
0.664036 0.0290007 0.
0.666037 0.0290008 0.
0.668038 0.029001 0.
0.670039 0.0290013 0.
0.67204 0.0290016 0.
0.674041 0.029001 0.
0.676042 0.0290003 0.
0.678043 0.0289998 0.
0.680044 0.0290004 0.
0.682045 0.0290009 0.
0.684045 0.0290014 0.
0.686046 0.0290017 0.
0.688047 0.0290019 0.
0.690048 0.0290026 0.
0.692049 0.0290036 0.
0.69405 0.0290045 0.
0.696052 0.0290066 0.
0.698053 0.0290089 0.
0.499948 0.0310055 0.
0.50195 0.0310042 0.
0.503951 0.031003 0.
0.505952 0.031002 0.
0.507953 0.0310018 0.
0.509954 0.0310016 0.
0.511955 0.0310012 0.
0.513956 0.0310005 0.
0.515956 0.0309998 0.
0.517957 0.0309997 0.
0.519958 0.0310001 0.
0.521959 0.0310005 0.
0.52396 0.0310001 0.
0.525961 0.0309995 0.
0.527962 0.0309989 0.
0.529962 0.0309988 0.
0.531963 0.0309988 0.
0.533965 0.0309986 0.
0.535966 0.0309983 0.
0.537968 0.030998 0.
0.539969 0.030998 0.
0.54197 0.0309983 0.
0.543972 0.0309986 0.
0.545973 0.0309985 0.
0.547973 0.0309984 0.
0.549974 0.0309983 0.
0.551975 0.0309979 0.
0.553975 0.0309976 0.
0.555976 0.0309973 0.
0.557977 0.0309973 0.
0.559978 0.0309972 0.
0.56198 0.0309972 0.
0.563981 0.0309974 0.
0.565982 0.0309976 0.
0.567984 0.0309977 0.
0.569985 0.0309978 0.
0.571986 0.0309979 0.
0.573986 0.0309979 0.
0.575987 0.0309979 0.
0.577988 0.0309979 0.
0.57999 0.0309984 0.
0.581991 0.0309988 0.
0.583993 0.0309989 0.
0.585994 0.0309982 0.
0.587995 0.0309975 0.
0.589996 0.0309968 0.
0.591997 0.030996 0.
0.593999 0.0309952 0.
0.595999 0.0309959 0.
0.598 0.0309971 0.
0.6 0.0309982 0.
0.602002 0.0309979 0.
0.604004 0.0309976 0.
0.606006 0.0309973 0.
0.608008 0.0309971 0.
0.610009 0.0309969 0.
0.61201 0.030997 0.
0.614011 0.0309973 0.
0.616012 0.0309975 0.
0.618013 0.0309979 0.
0.620014 0.0309983 0.
0.622015 0.0309987 0.
0.624015 0.0309984 0.
0.626016 0.0309979 0.
0.628017 0.0309975 0.
0.630018 0.0309973 0.
0.632019 0.0309972 0.
0.63402 0.0309971 0.
0.636022 0.0309971 0.
0.638023 0.0309971 0.
0.640024 0.0309973 0.
0.642024 0.0309975 0.
0.644025 0.0309977 0.
0.646026 0.0309978 0.
0.648027 0.0309979 0.
0.650028 0.030998 0.
0.652029 0.0309986 0.
0.65403 0.0309991 0.
0.656031 0.0309995 0.
0.658032 0.0309997 0.
0.660033 0.0309999 0.
0.662034 0.031 0.
0.664035 0.0310001 0.
0.666036 0.0310002 0.
0.668037 0.0310003 0.
0.670038 0.0310005 0.
0.672039 0.0310008 0.
0.67404 0.0310001 0.
0.676041 0.0309994 0.
0.678042 0.0309989 0.
0.680043 0.0309999 0.
0.682044 0.0310009 0.
0.684045 0.0310015 0.
0.686045 0.0310017 0.
0.688046 0.0310018 0.
0.690047 0.0310024 0.
0.692048 0.0310034 0.
0.694049 0.0310043 0.
0.696051 0.0310065 0.
0.698052 0.0310091 0.
0.49995 0.0330042 0.
0.501951 0.0330033 0.
0.503953 0.0330027 0.
0.505954 0.0330021 0.
0.507954 0.0330015 0.
0.509955 0.0330008 0.
0.511955 0.0330004 0.
0.513956 0.0330002 0.
0.515957 0.0330001 0.
0.517958 0.0330001 0.
0.519959 0.0330001 0.
0.52196 0.0330002 0.
0.523961 0.0329996 0.
0.525962 0.0329988 0.
0.527963 0.0329982 0.
0.529964 0.0329982 0.
0.531966 0.0329981 0.
0.533967 0.0329979 0.
0.535968 0.0329973 0.
0.537969 0.0329967 0.
0.539971 0.0329965 0.
0.541972 0.0329967 0.
0.543973 0.0329969 0.
0.545974 0.0329972 0.
0.547975 0.0329976 0.
0.549975 0.0329979 0.
0.551976 0.0329972 0.
0.553977 0.0329965 0.
0.555978 0.0329959 0.
0.557979 0.032996 0.
0.55998 0.0329961 0.
0.561981 0.0329962 0.
0.563982 0.0329962 0.
0.565983 0.0329963 0.
0.567984 0.0329964 0.
0.569985 0.0329966 0.
0.571986 0.0329968 0.
0.573987 0.0329967 0.
0.575988 0.0329965 0.
0.577988 0.0329965 0.
0.57999 0.0329969 0.
0.581992 0.0329974 0.
0.583993 0.0329975 0.
0.585994 0.0329969 0.
0.587995 0.0329964 0.
0.589997 0.0329958 0.
0.591998 0.0329952 0.
0.593999 0.0329945 0.
0.595999 0.0329951 0.
0.598 0.032996 0.
0.6 0.0329969 0.
0.602003 0.0329964 0.
0.604005 0.032996 0.
0.606007 0.0329957 0.
0.608008 0.0329959 0.
0.610009 0.0329961 0.
0.61201 0.0329963 0.
0.614011 0.0329964 0.
0.616011 0.0329964 0.
0.618012 0.0329968 0.
0.620013 0.0329973 0.
0.622014 0.0329979 0.
0.624015 0.0329973 0.
0.626016 0.0329965 0.
0.628016 0.0329959 0.
0.630017 0.0329961 0.
0.632018 0.0329963 0.
0.63402 0.0329964 0.
0.636021 0.0329962 0.
0.638022 0.0329961 0.
0.640023 0.0329963 0.
0.642024 0.0329967 0.
0.644025 0.0329972 0.
0.646026 0.0329972 0.
0.648026 0.0329971 0.
0.650027 0.032997 0.
0.652028 0.0329976 0.
0.65403 0.0329982 0.
0.656031 0.0329987 0.
0.658032 0.0329991 0.
0.660033 0.0329994 0.
0.662033 0.0329996 0.
0.664034 0.0329995 0.
0.666034 0.0329995 0.
0.668036 0.0329996 0.
0.670037 0.0329998 0.
0.672039 0.0330001 0.
0.674039 0.0329994 0.
0.67604 0.0329985 0.
0.678041 0.032998 0.
0.680042 0.0329992 0.
0.682043 0.0330004 0.
0.684044 0.0330013 0.
0.686045 0.0330014 0.
0.688045 0.0330016 0.
0.690046 0.0330022 0.
0.692047 0.0330031 0.
0.694048 0.0330039 0.
0.696049 0.033006 0.
0.69805 0.0330084 0.
0.499952 0.0350031 0.
0.501953 0.0350025 0.
0.503954 0.0350025 0.
0.505955 0.0350022 0.
0.507956 0.0350011 0.
0.509956 0.035 0.
0.511956 0.0349996 0.
0.513957 0.035 0.
0.515958 0.0350004 0.
0.517959 0.0350004 0.
0.51996 0.0350001 0.
0.521961 0.0349998 0.
0.523963 0.034999 0.
0.525964 0.0349982 0.
0.527965 0.0349974 0.
0.529967 0.0349975 0.
0.531968 0.0349975 0.
0.533969 0.0349972 0.
0.53597 0.0349963 0.
0.537971 0.0349953 0.
0.539972 0.034995 0.
0.541973 0.0349951 0.
0.543974 0.0349953 0.
0.545975 0.0349959 0.
0.547976 0.0349967 0.
0.549977 0.0349975 0.
0.551978 0.0349964 0.
0.553979 0.0349954 0.
0.555979 0.0349946 0.
0.55798 0.0349948 0.
0.559981 0.0349951 0.
0.561982 0.0349952 0.
0.563983 0.0349951 0.
0.565985 0.0349949 0.
0.567985 0.0349951 0.
0.569986 0.0349954 0.
0.571986 0.0349957 0.
0.573987 0.0349955 0.
0.575988 0.0349952 0.
0.577989 0.034995 0.
0.579991 0.0349955 0.
0.581992 0.0349959 0.
0.583994 0.0349961 0.
0.585995 0.0349957 0.
0.587996 0.0349953 0.
0.589997 0.0349948 0.
0.591998 0.0349943 0.
0.593999 0.0349939 0.
0.595999 0.0349943 0.
0.598 0.034995 0.
0.6 0.0349956 0.
0.602003 0.034995 0.
0.604006 0.0349943 0.
0.606008 0.034994 0.
0.608009 0.0349947 0.
0.61001 0.0349953 0.
0.61201 0.0349956 0.
0.614011 0.0349954 0.
0.616011 0.0349953 0.
0.618012 0.0349957 0.
0.620012 0.0349963 0.
0.622013 0.034997 0.
0.624014 0.0349962 0.
0.626015 0.0349952 0.
0.628015 0.0349944 0.
0.630017 0.0349949 0.
0.632018 0.0349954 0.
0.634019 0.0349956 0.
0.63602 0.0349953 0.
0.638022 0.034995 0.
0.640023 0.0349953 0.
0.642024 0.034996 0.
0.644025 0.0349967 0.
0.646025 0.0349966 0.
0.648026 0.0349962 0.
0.650027 0.0349959 0.
0.652028 0.0349966 0.
0.65403 0.0349973 0.
0.656031 0.0349979 0.
0.658031 0.0349984 0.
0.660032 0.0349989 0.
0.662032 0.0349991 0.
0.664033 0.0349989 0.
0.666033 0.0349988 0.
0.668035 0.0349989 0.
0.670036 0.0349991 0.
0.672038 0.0349994 0.
0.674039 0.0349986 0.
0.67604 0.0349977 0.
0.678041 0.034997 0.
0.680042 0.0349985 0.
0.682042 0.035 0.
0.684043 0.035001 0.
0.686044 0.0350012 0.
0.688044 0.0350014 0.
0.690045 0.0350019 0.
0.692046 0.0350027 0.
0.694047 0.0350036 0.
0.696048 0.0350055 0.
0.698048 0.0350077 0.
0.499954 0.0370025 0.
0.501955 0.0370023 0.
0.503956 0.0370023 0.
0.505957 0.0370022 0.
0.507957 0.0370015 0.
0.509957 0.0370007 0.
0.511957 0.0370002 0.
0.513958 0.037 0.
0.515959 0.0369997 0.
0.51796 0.0369994 0.
0.519962 0.0369989 0.
0.521963 0.0369985 0.
0.523964 0.0369978 0.
0.525965 0.0369972 0.
0.527966 0.0369965 0.
0.529967 0.0369962 0.
0.531968 0.0369959 0.
0.533969 0.0369955 0.
0.53597 0.036995 0.
0.537971 0.0369944 0.
0.539972 0.036994 0.
0.541973 0.0369939 0.
0.543974 0.0369937 0.
0.545975 0.0369944 0.
0.547976 0.0369953 0.
0.549977 0.0369962 0.
0.551978 0.0369954 0.
0.553979 0.0369945 0.
0.555979 0.0369938 0.
0.55798 0.0369939 0.
0.55998 0.036994 0.
0.561981 0.036994 0.
0.563982 0.0369936 0.
0.565983 0.0369932 0.
0.567984 0.0369933 0.
0.569985 0.0369936 0.
0.571986 0.036994 0.
0.573987 0.0369941 0.
0.575988 0.0369941 0.
0.57799 0.0369942 0.
0.579991 0.0369944 0.
0.581992 0.0369946 0.
0.583994 0.0369945 0.
0.585995 0.036994 0.
0.587996 0.0369935 0.
0.589997 0.0369934 0.
0.591998 0.0369935 0.
0.593998 0.0369936 0.
0.595999 0.0369935 0.
0.598 0.0369933 0.
0.600001 0.0369931 0.
0.602003 0.0369929 0.
0.604005 0.0369927 0.
0.606007 0.0369927 0.
0.608008 0.0369935 0.
0.610009 0.0369943 0.
0.61201 0.0369946 0.
0.61401 0.0369944 0.
0.616011 0.0369942 0.
0.618012 0.0369946 0.
0.620013 0.0369952 0.
0.622014 0.0369958 0.
0.624014 0.036995 0.
0.626015 0.0369941 0.
0.628015 0.0369934 0.
0.630016 0.0369938 0.
0.632017 0.0369942 0.
0.634018 0.0369943 0.
0.636019 0.0369939 0.
0.638021 0.0369936 0.
0.640022 0.0369938 0.
0.642023 0.0369943 0.
0.644024 0.0369948 0.
0.646025 0.0369948 0.
0.648026 0.0369947 0.
0.650027 0.0369947 0.
0.652028 0.0369954 0.
0.654029 0.0369961 0.
0.65603 0.0369968 0.
0.65803 0.0369973 0.
0.660031 0.0369979 0.
0.662032 0.0369981 0.
0.664033 0.0369979 0.
0.666033 0.0369978 0.
0.668034 0.0369979 0.
0.670035 0.0369981 0.
0.672036 0.0369983 0.
0.674037 0.0369977 0.
0.676038 0.0369971 0.
0.678039 0.0369967 0.
0.68004 0.0369979 0.
0.682041 0.0369992 0.
0.684041 0.0370001 0.
0.686042 0.0370006 0.
0.688043 0.037001 0.
0.690044 0.0370017 0.
0.692045 0.0370027 0.
0.694046 0.0370036 0.
0.696047 0.0370055 0.
0.698048 0.0370077 0.
0.499955 0.039002 0.
0.501956 0.0390022 0.
0.503957 0.0390022 0.
0.505958 0.0390021 0.
0.507958 0.0390018 0.
0.509958 0.0390015 0.
0.511959 0.0390009 0.
0.51396 0.039 0.
0.51596 0.038999 0.
0.517962 0.0389983 0.
0.519963 0.0389977 0.
0.521964 0.0389971 0.
0.523965 0.0389966 0.
0.525965 0.0389961 0.
0.527966 0.0389956 0.
0.529967 0.0389949 0.
0.531969 0.0389943 0.
0.53397 0.0389938 0.
0.535971 0.0389936 0.
0.537972 0.0389935 0.
0.539973 0.0389931 0.
0.541973 0.0389926 0.
0.543974 0.0389921 0.
0.545975 0.0389928 0.
0.547977 0.0389939 0.
0.549978 0.038995 0.
0.551978 0.0389943 0.
0.553979 0.0389936 0.
0.555979 0.038993 0.
0.55798 0.038993 0.
0.55998 0.038993 0.
0.561981 0.0389927 0.
0.563982 0.0389921 0.
0.565982 0.0389915 0.
0.567983 0.0389915 0.
0.569985 0.0389919 0.
0.571986 0.0389923 0.
0.573988 0.0389927 0.
0.575989 0.0389931 0.
0.57799 0.0389934 0.
0.579991 0.0389933 0.
0.581992 0.0389932 0.
0.583993 0.038993 0.
0.585994 0.0389924 0.
0.587995 0.0389918 0.
0.589996 0.0389919 0.
0.591997 0.0389927 0.
0.593998 0.0389934 0.
0.595999 0.0389927 0.
0.598 0.0389917 0.
0.600001 0.0389906 0.
0.602003 0.0389908 0.
0.604005 0.0389911 0.
0.606006 0.0389915 0.
0.608008 0.0389923 0.
0.610009 0.0389932 0.
0.61201 0.0389936 0.
0.61401 0.0389934 0.
0.616011 0.0389932 0.
0.618012 0.0389935 0.
0.620013 0.038994 0.
0.622014 0.0389946 0.
0.624014 0.0389939 0.
0.626015 0.0389931 0.
0.628015 0.0389924 0.
0.630016 0.0389927 0.
0.632016 0.0389929 0.
0.634017 0.0389929 0.
0.636019 0.0389926 0.
0.63802 0.0389922 0.
0.640021 0.0389922 0.
0.642022 0.0389926 0.
0.644024 0.0389929 0.
0.646025 0.0389931 0.
0.648026 0.0389932 0.
0.650027 0.0389934 0.
0.652027 0.0389942 0.
0.654028 0.038995 0.
0.656029 0.0389957 0.
0.658029 0.0389963 0.
0.66003 0.0389968 0.
0.662031 0.0389971 0.
0.664032 0.038997 0.
0.666033 0.0389968 0.
0.668034 0.0389969 0.
0.670034 0.038997 0.
0.672034 0.0389971 0.
0.674035 0.0389968 0.
0.676036 0.0389965 0.
0.678037 0.0389963 0.
0.680038 0.0389973 0.
0.682039 0.0389983 0.
0.684039 0.0389992 0.
0.686041 0.0389999 0.
0.688042 0.0390006 0.
0.690042 0.0390015 0.
0.692043 0.0390026 0.
0.694044 0.0390037 0.
0.696046 0.0390056 0.
0.698048 0.0390076 0.
0.499957 0.0410021 0.
0.501957 0.0410023 0.
0.503958 0.0410023 0.
0.505959 0.0410023 0.
0.507959 0.0410019 0.
0.50996 0.0410016 0.
0.51196 0.0410008 0.
0.513961 0.0409996 0.
0.515962 0.0409983 0.
0.517963 0.0409974 0.
0.519964 0.0409968 0.
0.521965 0.0409961 0.
0.523966 0.0409956 0.
0.525966 0.040995 0.
0.527967 0.0409945 0.
0.529968 0.0409938 0.
0.531969 0.0409931 0.
0.533971 0.0409926 0.
0.535971 0.0409926 0.
0.537972 0.0409925 0.
0.539973 0.0409922 0.
0.541974 0.0409918 0.
0.543974 0.0409913 0.
0.545975 0.0409919 0.
0.547977 0.0409927 0.
0.549978 0.0409936 0.
0.551978 0.0409931 0.
0.553979 0.0409925 0.
0.555979 0.0409921 0.
0.55798 0.040992 0.
0.55998 0.0409919 0.
0.561981 0.0409916 0.
0.563982 0.040991 0.
0.565982 0.0409903 0.
0.567983 0.0409903 0.
0.569985 0.0409906 0.
0.571986 0.0409908 0.
0.573988 0.0409914 0.
0.575989 0.0409919 0.
0.57799 0.0409924 0.
0.579991 0.0409921 0.
0.581992 0.0409918 0.
0.583993 0.0409915 0.
0.585994 0.040991 0.
0.587995 0.0409905 0.
0.589996 0.0409908 0.
0.591997 0.0409917 0.
0.593998 0.0409926 0.
0.595999 0.0409918 0.
0.598 0.0409905 0.
0.600001 0.0409892 0.
0.602003 0.0409895 0.
0.604004 0.0409898 0.
0.606006 0.0409903 0.
0.608007 0.0409911 0.
0.610008 0.0409919 0.
0.612009 0.0409923 0.
0.61401 0.0409921 0.
0.61601 0.040992 0.
0.618011 0.0409923 0.
0.620013 0.0409929 0.
0.622014 0.0409934 0.
0.624014 0.0409928 0.
0.626014 0.0409921 0.
0.628014 0.0409916 0.
0.630015 0.0409918 0.
0.632016 0.0409921 0.
0.634017 0.0409921 0.
0.636018 0.0409917 0.
0.638019 0.0409912 0.
0.640021 0.0409911 0.
0.642022 0.0409913 0.
0.644023 0.0409914 0.
0.646024 0.0409918 0.
0.648025 0.0409922 0.
0.650026 0.0409927 0.
0.652027 0.0409935 0.
0.654027 0.0409943 0.
0.656028 0.040995 0.
0.658029 0.0409954 0.
0.66003 0.0409958 0.
0.662031 0.040996 0.
0.664032 0.040996 0.
0.666033 0.040996 0.
0.668033 0.0409961 0.
0.670033 0.0409962 0.
0.672033 0.0409964 0.
0.674034 0.0409962 0.
0.676035 0.0409959 0.
0.678036 0.0409958 0.
0.680037 0.0409968 0.
0.682037 0.0409978 0.
0.684038 0.0409987 0.
0.686039 0.0409995 0.
0.68804 0.0410003 0.
0.690041 0.0410013 0.
0.692042 0.0410024 0.
0.694043 0.0410034 0.
0.696045 0.0410053 0.
0.698047 0.0410073 0.
0.499958 0.0430026 0.
0.501958 0.0430027 0.
0.503959 0.0430028 0.
0.50596 0.0430026 0.
0.50796 0.0430018 0.
0.509961 0.043001 0.
0.511962 0.043 0.
0.513962 0.0429987 0.
0.515963 0.0429975 0.
0.517964 0.0429966 0.
0.519965 0.042996 0.
0.521966 0.0429954 0.
0.523967 0.0429947 0.
0.525968 0.0429939 0.
0.527969 0.0429932 0.
0.52997 0.0429928 0.
0.53197 0.0429923 0.
0.533971 0.042992 0.
0.535972 0.0429917 0.
0.537973 0.0429915 0.
0.539974 0.0429914 0.
0.541974 0.0429913 0.
0.543975 0.0429913 0.
0.545976 0.0429915 0.
0.547976 0.0429918 0.
0.549977 0.0429921 0.
0.551978 0.0429917 0.
0.553979 0.0429912 0.
0.555979 0.0429909 0.
0.55798 0.0429909 0.
0.559981 0.0429909 0.
0.561982 0.0429907 0.
0.563983 0.0429902 0.
0.565984 0.0429897 0.
0.567984 0.0429895 0.
0.569985 0.0429896 0.
0.571986 0.0429896 0.
0.573987 0.0429901 0.
0.575988 0.0429907 0.
0.57799 0.0429912 0.
0.579991 0.0429908 0.
0.581991 0.0429904 0.
0.583992 0.0429901 0.
0.585993 0.04299 0.
0.587994 0.0429898 0.
0.589995 0.0429901 0.
0.591996 0.0429907 0.
0.593997 0.0429913 0.
0.595998 0.0429907 0.
0.598 0.0429898 0.
0.600001 0.0429888 0.
0.602002 0.0429889 0.
0.604004 0.042989 0.
0.606005 0.0429893 0.
0.608006 0.0429899 0.
0.610008 0.0429905 0.
0.612009 0.0429908 0.
0.614009 0.0429907 0.
0.61601 0.0429907 0.
0.618011 0.0429911 0.
0.620012 0.0429917 0.
0.622013 0.0429923 0.
0.624013 0.0429918 0.
0.626014 0.0429913 0.
0.628014 0.0429909 0.
0.630015 0.0429913 0.
0.632016 0.0429917 0.
0.634017 0.0429918 0.
0.636018 0.0429913 0.
0.638019 0.0429907 0.
0.640021 0.0429904 0.
0.642022 0.0429903 0.
0.644023 0.0429902 0.
0.646024 0.0429909 0.
0.648025 0.0429917 0.
0.650026 0.0429925 0.
0.652026 0.0429933 0.
0.654026 0.042994 0.
0.656027 0.0429946 0.
0.658028 0.0429947 0.
0.660029 0.0429948 0.
0.66203 0.0429949 0.
0.664031 0.0429951 0.
0.666032 0.0429952 0.
0.668032 0.0429954 0.
0.670033 0.0429957 0.
0.672033 0.042996 0.
0.674034 0.0429957 0.
0.676034 0.0429954 0.
0.678035 0.0429952 0.
0.680036 0.0429964 0.
0.682036 0.0429976 0.
0.684037 0.0429986 0.
0.686038 0.0429993 0.
0.688039 0.043 0.
0.69004 0.0430009 0.
0.692041 0.0430019 0.
0.694042 0.0430029 0.
0.696043 0.0430046 0.
0.698044 0.0430066 0.
0.499959 0.0450032 0.
0.50196 0.0450031 0.
0.50396 0.0450032 0.
0.505961 0.045003 0.
0.507962 0.0450017 0.
0.509962 0.0450004 0.
0.511963 0.0449991 0.
0.513964 0.0449979 0.
0.515965 0.0449967 0.
0.517966 0.0449959 0.
0.519966 0.0449953 0.
0.521967 0.0449947 0.
0.523968 0.0449938 0.
0.525969 0.0449928 0.
0.52797 0.0449919 0.
0.529971 0.0449917 0.
0.531972 0.0449916 0.
0.533972 0.0449913 0.
0.535973 0.0449909 0.
0.537974 0.0449905 0.
0.539975 0.0449905 0.
0.541975 0.0449909 0.
0.543975 0.0449913 0.
0.545976 0.0449912 0.
0.547976 0.0449909 0.
0.549976 0.0449907 0.
0.551977 0.0449903 0.
0.553978 0.0449899 0.
0.55598 0.0449897 0.
0.557981 0.0449898 0.
0.559982 0.04499 0.
0.561983 0.0449899 0.
0.563984 0.0449895 0.
0.565985 0.0449891 0.
0.567985 0.0449888 0.
0.569986 0.0449886 0.
0.571986 0.0449884 0.
0.573987 0.0449889 0.
0.575988 0.0449895 0.
0.577989 0.0449899 0.
0.57999 0.0449894 0.
0.581991 0.0449889 0.
0.583992 0.0449887 0.
0.585993 0.0449889 0.
0.587994 0.0449891 0.
0.589995 0.0449894 0.
0.591996 0.0449897 0.
0.593997 0.0449899 0.
0.595998 0.0449896 0.
0.597999 0.0449891 0.
0.6 0.0449885 0.
0.602002 0.0449884 0.
0.604003 0.0449882 0.
0.606005 0.0449882 0.
0.608006 0.0449887 0.
0.610007 0.0449891 0.
0.612008 0.0449893 0.
0.614009 0.0449893 0.
0.61601 0.0449893 0.
0.61801 0.0449898 0.
0.620011 0.0449905 0.
0.622012 0.0449911 0.
0.624013 0.0449908 0.
0.626013 0.0449905 0.
0.628014 0.0449902 0.
0.630015 0.0449908 0.
0.632016 0.0449914 0.
0.634017 0.0449916 0.
0.636018 0.0449909 0.
0.638019 0.0449902 0.
0.640021 0.0449897 0.
0.642022 0.0449894 0.
0.644023 0.0449891 0.
0.646024 0.0449899 0.
0.648024 0.0449912 0.
0.650025 0.0449924 0.
0.652025 0.0449931 0.
0.654026 0.0449938 0.
0.656026 0.0449942 0.
0.658027 0.044994 0.
0.660028 0.0449938 0.
0.662029 0.0449938 0.
0.66403 0.0449941 0.
0.66603 0.0449945 0.
0.668031 0.0449949 0.
0.670032 0.0449952 0.
0.672033 0.0449956 0.
0.674033 0.0449952 0.
0.676033 0.0449948 0.
0.678033 0.0449946 0.
0.680035 0.044996 0.
0.682036 0.0449973 0.
0.684037 0.0449984 0.
0.686037 0.0449991 0.
0.688038 0.0449998 0.
0.690039 0.0450005 0.
0.69204 0.0450014 0.
0.694041 0.0450023 0.
0.696042 0.045004 0.
0.698042 0.0450059 0.
0.49996 0.0470035 0.
0.501961 0.0470031 0.
0.503961 0.0470029 0.
0.505962 0.0470024 0.
0.507963 0.0470012 0.
0.509964 0.047 0.
0.511964 0.0469989 0.
0.513966 0.046998 0.
0.515967 0.0469971 0.
0.517967 0.0469959 0.
0.519968 0.0469947 0.
0.521968 0.0469935 0.
0.523969 0.0469926 0.
0.52597 0.0469918 0.
0.527971 0.046991 0.
0.529972 0.0469909 0.
0.531973 0.0469908 0.
0.533974 0.0469905 0.
0.535975 0.04699 0.
0.537976 0.0469896 0.
0.539977 0.0469895 0.
0.541977 0.0469898 0.
0.543977 0.0469901 0.
0.545977 0.04699 0.
0.547978 0.0469898 0.
0.549978 0.0469896 0.
0.551979 0.0469892 0.
0.553979 0.0469887 0.
0.55598 0.0469884 0.
0.557981 0.0469886 0.
0.559982 0.0469888 0.
0.561983 0.0469888 0.
0.563984 0.0469885 0.
0.565985 0.0469882 0.
0.567985 0.046988 0.
0.569986 0.0469879 0.
0.571986 0.0469879 0.
0.573987 0.0469881 0.
0.575988 0.0469883 0.
0.577989 0.0469885 0.
0.57999 0.0469882 0.
0.581991 0.0469878 0.
0.583992 0.0469876 0.
0.585993 0.0469876 0.
0.587994 0.0469877 0.
0.589995 0.0469879 0.
0.591996 0.0469883 0.
0.593997 0.0469888 0.
0.595998 0.0469886 0.
0.597999 0.0469882 0.
0.6 0.0469877 0.
0.602002 0.0469875 0.
0.604003 0.0469874 0.
0.606004 0.0469873 0.
0.608005 0.0469876 0.
0.610006 0.046988 0.
0.612007 0.0469883 0.
0.614008 0.0469885 0.
0.616009 0.0469887 0.
0.61801 0.0469891 0.
0.620011 0.0469896 0.
0.622011 0.0469901 0.
0.624012 0.0469899 0.
0.626013 0.0469895 0.
0.628013 0.0469893 0.
0.630015 0.0469896 0.
0.632016 0.0469899 0.
0.634017 0.0469898 0.
0.636018 0.0469891 0.
0.638019 0.0469884 0.
0.64002 0.0469882 0.
0.642021 0.0469883 0.
0.644022 0.0469884 0.
0.646023 0.0469894 0.
0.648023 0.0469906 0.
0.650024 0.0469918 0.
0.652024 0.0469925 0.
0.654025 0.0469932 0.
0.656025 0.0469936 0.
0.658026 0.0469934 0.
0.660027 0.0469932 0.
0.662027 0.0469932 0.
0.664028 0.0469934 0.
0.666029 0.0469936 0.
0.668029 0.046994 0.
0.67003 0.0469946 0.
0.672031 0.0469951 0.
0.674031 0.046995 0.
0.676032 0.0469948 0.
0.678032 0.0469948 0.
0.680033 0.0469961 0.
0.682034 0.0469975 0.
0.684035 0.0469986 0.
0.686036 0.0469992 0.
0.688037 0.0469999 0.
0.690037 0.0470006 0.
0.692038 0.0470014 0.
0.694039 0.0470023 0.
0.69604 0.0470039 0.
0.698041 0.0470057 0.
0.499961 0.049004 0.
0.501962 0.0490032 0.
0.503963 0.0490025 0.
0.505963 0.0490019 0.
0.507964 0.0490007 0.
0.509965 0.0489996 0.
0.511966 0.0489987 0.
0.513967 0.048998 0.
0.515968 0.0489974 0.
0.517969 0.048996 0.
0.519969 0.0489941 0.
0.52197 0.0489922 0.
0.523971 0.0489914 0.
0.525972 0.0489907 0.
0.527973 0.0489901 0.
0.529974 0.04899 0.
0.531975 0.04899 0.
0.533976 0.0489897 0.
0.535977 0.0489892 0.
0.537978 0.0489887 0.
0.539978 0.0489885 0.
0.541978 0.0489887 0.
0.543978 0.048989 0.
0.545979 0.0489889 0.
0.547979 0.0489887 0.
0.54998 0.0489886 0.
0.55198 0.048988 0.
0.55398 0.0489875 0.
0.555981 0.0489872 0.
0.557981 0.0489874 0.
0.559982 0.0489876 0.
0.561983 0.0489877 0.
0.563984 0.0489875 0.
0.565985 0.0489872 0.
0.567986 0.0489872 0.
0.569986 0.0489873 0.
0.571986 0.0489873 0.
0.573988 0.0489873 0.
0.575989 0.0489872 0.
0.57799 0.0489871 0.
0.579991 0.0489869 0.
0.581992 0.0489867 0.
0.583993 0.0489865 0.
0.585993 0.0489864 0.
0.587994 0.0489862 0.
0.589994 0.0489865 0.
0.591995 0.048987 0.
0.593996 0.0489876 0.
0.595998 0.0489875 0.
0.597999 0.0489872 0.
0.6 0.048987 0.
0.602001 0.0489867 0.
0.604002 0.0489865 0.
0.606003 0.0489863 0.
0.608004 0.0489866 0.
0.610005 0.0489869 0.
0.612006 0.0489872 0.
0.614007 0.0489877 0.
0.616009 0.0489881 0.
0.618009 0.0489885 0.
0.62001 0.0489888 0.
0.622011 0.0489891 0.
0.624011 0.0489889 0.
0.626012 0.0489886 0.
0.628013 0.0489883 0.
0.630014 0.0489883 0.
0.632015 0.0489883 0.
0.634017 0.0489881 0.
0.636018 0.0489874 0.
0.638019 0.0489867 0.
0.64002 0.0489867 0.
0.642021 0.0489873 0.
0.644022 0.0489878 0.
0.646022 0.0489889 0.
0.648022 0.0489901 0.
0.650022 0.0489913 0.
0.652023 0.0489919 0.
0.654024 0.0489926 0.
0.656024 0.048993 0.
0.658025 0.0489928 0.
0.660025 0.0489926 0.
0.662026 0.0489925 0.
0.664026 0.0489926 0.
0.666027 0.0489927 0.
0.668028 0.0489932 0.
0.670028 0.0489939 0.
0.672029 0.0489946 0.
0.67403 0.0489947 0.
0.67603 0.0489948 0.
0.678031 0.048995 0.
0.680032 0.0489963 0.
0.682032 0.0489976 0.
0.684033 0.0489987 0.
0.686034 0.0489993 0.
0.688035 0.049 0.
0.690036 0.0490007 0.
0.692037 0.0490015 0.
0.694038 0.0490022 0.
0.696039 0.0490038 0.
0.69804 0.0490055 0.
0.499963 0.051004 0.
0.501963 0.0510031 0.
0.503964 0.0510023 0.
0.505965 0.0510015 0.
0.507966 0.0510003 0.
0.509966 0.0509992 0.
0.511967 0.0509982 0.
0.513969 0.0509978 0.
0.51597 0.0509973 0.
0.517971 0.0509957 0.
0.519971 0.0509936 0.
0.521971 0.0509916 0.
0.523972 0.0509907 0.
0.525973 0.05099 0.
0.527974 0.0509893 0.
0.529975 0.0509892 0.
0.531976 0.0509891 0.
0.533977 0.0509888 0.
0.535978 0.0509884 0.
0.537979 0.0509879 0.
0.539979 0.0509878 0.
0.541979 0.050988 0.
0.54398 0.0509881 0.
0.54598 0.0509881 0.
0.54798 0.0509879 0.
0.54998 0.0509877 0.
0.551981 0.0509872 0.
0.553981 0.0509867 0.
0.555981 0.0509863 0.
0.557982 0.0509865 0.
0.559982 0.0509866 0.
0.561983 0.0509866 0.
0.563984 0.0509864 0.
0.565985 0.0509862 0.
0.567986 0.0509862 0.
0.569986 0.0509863 0.
0.571987 0.0509865 0.
0.573988 0.0509864 0.
0.575989 0.0509862 0.
0.57799 0.050986 0.
0.579991 0.0509859 0.
0.581992 0.0509859 0.
0.583993 0.0509857 0.
0.585993 0.0509855 0.
0.587993 0.0509852 0.
0.589994 0.0509854 0.
0.591995 0.0509859 0.
0.593996 0.0509864 0.
0.595997 0.0509865 0.
0.597999 0.0509865 0.
0.6 0.0509865 0.
0.602001 0.050986 0.
0.604002 0.0509856 0.
0.606003 0.0509853 0.
0.608004 0.0509856 0.
0.610005 0.050986 0.
0.612006 0.0509863 0.
0.614007 0.0509867 0.
0.616008 0.0509871 0.
0.618009 0.0509874 0.
0.62001 0.0509878 0.
0.62201 0.0509881 0.
0.624011 0.0509879 0.
0.626012 0.0509877 0.
0.628013 0.0509875 0.
0.630014 0.0509873 0.
0.632015 0.050987 0.
0.634016 0.0509867 0.
0.636017 0.0509861 0.
0.638018 0.0509854 0.
0.640019 0.0509857 0.
0.64202 0.0509866 0.
0.644021 0.0509874 0.
0.646021 0.0509885 0.
0.648021 0.0509896 0.
0.650021 0.0509908 0.
0.652022 0.0509914 0.
0.654023 0.050992 0.
0.656023 0.0509924 0.
0.658023 0.0509922 0.
0.660024 0.050992 0.
0.662024 0.050992 0.
0.664025 0.0509921 0.
0.666025 0.0509922 0.
0.668026 0.0509927 0.
0.670027 0.0509933 0.
0.672028 0.0509939 0.
0.674028 0.0509943 0.
0.676029 0.0509946 0.
0.67803 0.050995 0.
0.68003 0.0509961 0.
0.682031 0.0509973 0.
0.684031 0.0509982 0.
0.686032 0.0509989 0.
0.688033 0.0509996 0.
0.690034 0.0510004 0.
0.692035 0.0510012 0.
0.694036 0.051002 0.
0.696037 0.0510035 0.
0.698038 0.0510052 0.
0.499965 0.0530037 0.
0.501965 0.0530029 0.
0.503966 0.0530022 0.
0.505967 0.0530014 0.
0.507968 0.0530001 0.
0.509969 0.0529987 0.
0.511969 0.0529977 0.
0.51397 0.0529971 0.
0.515971 0.0529965 0.
0.517972 0.0529951 0.
0.519972 0.0529933 0.
0.521973 0.0529915 0.
0.523974 0.0529904 0.
0.525975 0.0529895 0.
0.527976 0.0529887 0.
0.529977 0.0529884 0.
0.531977 0.0529881 0.
0.533978 0.0529878 0.
0.535978 0.0529876 0.
0.537979 0.0529873 0.
0.539979 0.0529873 0.
0.54198 0.0529875 0.
0.54398 0.0529877 0.
0.54598 0.0529875 0.
0.54798 0.0529873 0.
0.54998 0.0529871 0.
0.551981 0.0529867 0.
0.553981 0.0529862 0.
0.555982 0.0529859 0.
0.557982 0.0529858 0.
0.559983 0.0529857 0.
0.561984 0.0529855 0.
0.563984 0.0529852 0.
0.565985 0.052985 0.
0.567986 0.052985 0.
0.569987 0.0529851 0.
0.571988 0.0529853 0.
0.573989 0.0529853 0.
0.575989 0.0529853 0.
0.57799 0.0529853 0.
0.579991 0.0529853 0.
0.581992 0.0529853 0.
0.583992 0.0529852 0.
0.585993 0.0529849 0.
0.587993 0.0529847 0.
0.589994 0.0529847 0.
0.591995 0.0529849 0.
0.593996 0.0529851 0.
0.595997 0.0529855 0.
0.597998 0.0529859 0.
0.6 0.0529862 0.
0.602001 0.0529854 0.
0.604001 0.0529847 0.
0.606002 0.0529842 0.
0.608003 0.0529847 0.
0.610004 0.0529852 0.
0.612005 0.0529855 0.
0.614006 0.0529856 0.
0.616007 0.0529857 0.
0.618008 0.052986 0.
0.620009 0.0529865 0.
0.622011 0.052987 0.
0.624011 0.0529869 0.
0.626012 0.0529868 0.
0.628013 0.0529866 0.
0.630014 0.0529863 0.
0.632015 0.052986 0.
0.634016 0.0529857 0.
0.636017 0.0529852 0.
0.638018 0.0529848 0.
0.640019 0.0529852 0.
0.642019 0.0529862 0.
0.64402 0.0529872 0.
0.64602 0.0529882 0.
0.64802 0.0529892 0.
0.65002 0.0529902 0.
0.652021 0.0529908 0.
0.654021 0.0529913 0.
0.656022 0.0529917 0.
0.658022 0.0529916 0.
0.660022 0.0529914 0.
0.662023 0.0529915 0.
0.664023 0.0529918 0.
0.666024 0.0529921 0.
0.668025 0.0529924 0.
0.670026 0.0529927 0.
0.672027 0.052993 0.
0.674027 0.0529936 0.
0.676028 0.0529942 0.
0.678028 0.0529948 0.
0.680028 0.0529956 0.
0.682029 0.0529965 0.
0.684029 0.0529973 0.
0.68603 0.052998 0.
0.688031 0.0529988 0.
0.690032 0.0529997 0.
0.692033 0.0530007 0.
0.694034 0.0530016 0.
0.696034 0.0530031 0.
0.698035 0.0530047 0.
0.499967 0.0550033 0.
0.501968 0.0550027 0.
0.503968 0.0550021 0.
0.505969 0.0550014 0.
0.50797 0.0549998 0.
0.509971 0.0549982 0.
0.511971 0.0549971 0.
0.513972 0.0549964 0.
0.515972 0.0549958 0.
0.517973 0.0549946 0.
0.519974 0.054993 0.
0.521975 0.0549914 0.
0.523976 0.0549902 0.
0.525977 0.054989 0.
0.527978 0.054988 0.
0.529978 0.0549875 0.
0.531978 0.0549871 0.
0.533979 0.0549868 0.
0.535979 0.0549867 0.
0.537979 0.0549867 0.
0.539979 0.0549868 0.
0.54198 0.054987 0.
0.543981 0.0549872 0.
0.545981 0.054987 0.
0.547981 0.0549868 0.
0.54998 0.0549865 0.
0.551981 0.0549861 0.
0.553982 0.0549858 0.
0.555982 0.0549855 0.
0.557983 0.0549851 0.
0.559984 0.0549848 0.
0.561984 0.0549844 0.
0.563985 0.0549841 0.
0.565985 0.0549838 0.
0.567986 0.0549837 0.
0.569987 0.0549839 0.
0.571989 0.0549841 0.
0.573989 0.0549843 0.
0.575989 0.0549845 0.
0.57799 0.0549847 0.
0.579991 0.0549847 0.
0.581991 0.0549847 0.
0.583992 0.0549846 0.
0.585992 0.0549844 0.
0.587993 0.0549841 0.
0.589994 0.054984 0.
0.591995 0.0549839 0.
0.593996 0.0549839 0.
0.595997 0.0549845 0.
0.597998 0.0549852 0.
0.599999 0.054986 0.
0.602 0.0549849 0.
0.604001 0.0549838 0.
0.606002 0.0549831 0.
0.608003 0.0549837 0.
0.610004 0.0549844 0.
0.612005 0.0549847 0.
0.614006 0.0549845 0.
0.616007 0.0549843 0.
0.618008 0.0549847 0.
0.620009 0.0549853 0.
0.622011 0.0549859 0.
0.624011 0.0549859 0.
0.626012 0.0549859 0.
0.628013 0.0549858 0.
0.630014 0.0549854 0.
0.632015 0.054985 0.
0.634017 0.0549846 0.
0.636017 0.0549844 0.
0.638018 0.0549842 0.
0.640019 0.0549847 0.
0.642019 0.0549859 0.
0.644019 0.054987 0.
0.646019 0.0549879 0.
0.648019 0.0549888 0.
0.650019 0.0549896 0.
0.652019 0.0549902 0.
0.65402 0.0549907 0.
0.65602 0.0549911 0.
0.658021 0.054991 0.
0.660021 0.0549908 0.
0.662021 0.0549909 0.
0.664022 0.0549915 0.
0.666023 0.054992 0.
0.668024 0.0549921 0.
0.670025 0.0549922 0.
0.672027 0.0549922 0.
0.674026 0.054993 0.
0.676026 0.0549938 0.
0.678026 0.0549946 0.
0.680026 0.0549951 0.
0.682027 0.0549956 0.
0.684028 0.0549963 0.
0.686029 0.0549971 0.
0.68803 0.054998 0.
0.69003 0.054999 0.
0.692031 0.0550001 0.
0.694031 0.0550013 0.
0.696031 0.0550027 0.
0.698031 0.0550042 0.
0.499968 0.0570033 0.
0.501969 0.0570024 0.
0.50397 0.0570014 0.
0.505971 0.0570005 0.
0.507972 0.0569993 0.
0.509972 0.0569982 0.
0.511973 0.0569971 0.
0.513974 0.0569961 0.
0.515974 0.0569951 0.
0.517975 0.0569939 0.
0.519976 0.0569926 0.
0.521976 0.0569913 0.
0.523977 0.0569899 0.
0.525978 0.0569886 0.
0.527978 0.0569873 0.
0.529979 0.056987 0.
0.531979 0.0569866 0.
0.53398 0.0569863 0.
0.53598 0.0569862 0.
0.53798 0.056986 0.
0.539981 0.0569861 0.
0.541981 0.0569863 0.
0.543982 0.0569865 0.
0.545982 0.0569862 0.
0.547982 0.0569858 0.
0.549982 0.0569854 0.
0.551982 0.056985 0.
0.553983 0.0569845 0.
0.555983 0.0569841 0.
0.557984 0.0569839 0.
0.559985 0.0569836 0.
0.561985 0.0569834 0.
0.563986 0.0569832 0.
0.565986 0.056983 0.
0.567987 0.056983 0.
0.569988 0.0569831 0.
0.571989 0.0569832 0.
0.573989 0.0569834 0.
0.575989 0.0569837 0.
0.57799 0.0569839 0.
0.579991 0.0569839 0.
0.581991 0.0569839 0.
0.583992 0.0569839 0.
0.585993 0.0569837 0.
0.587993 0.0569834 0.
0.589994 0.0569832 0.
0.591995 0.056983 0.
0.593996 0.0569827 0.
0.595998 0.0569833 0.
0.597999 0.0569842 0.
0.6 0.056985 0.
0.602001 0.056984 0.
0.604001 0.056983 0.
0.606002 0.0569823 0.
0.608003 0.0569827 0.
0.610004 0.0569831 0.
0.612005 0.0569833 0.
0.614006 0.0569834 0.
0.616007 0.0569834 0.
0.618008 0.0569838 0.
0.620009 0.0569842 0.
0.62201 0.0569847 0.
0.624011 0.0569844 0.
0.626012 0.0569841 0.
0.628013 0.0569838 0.
0.630014 0.0569836 0.
0.632015 0.0569834 0.
0.634016 0.0569833 0.
0.636016 0.0569835 0.
0.638017 0.0569837 0.
0.640017 0.0569843 0.
0.642018 0.0569853 0.
0.644018 0.0569863 0.
0.646018 0.0569871 0.
0.648018 0.0569879 0.
0.650018 0.0569886 0.
0.652019 0.056989 0.
0.654019 0.0569893 0.
0.65602 0.0569896 0.
0.65802 0.0569897 0.
0.660021 0.0569898 0.
0.662021 0.0569901 0.
0.664022 0.0569905 0.
0.666023 0.0569909 0.
0.668024 0.0569913 0.
0.670025 0.0569915 0.
0.672025 0.0569918 0.
0.674025 0.0569927 0.
0.676025 0.0569936 0.
0.678025 0.0569944 0.
0.680026 0.056995 0.
0.682026 0.0569956 0.
0.684027 0.0569963 0.
0.686028 0.056997 0.
0.688028 0.0569977 0.
0.690029 0.0569988 0.
0.692029 0.0570002 0.
0.69403 0.0570016 0.
0.69603 0.0570029 0.
0.698031 0.0570041 0.
0.49997 0.0590033 0.
0.501971 0.059002 0.
0.503972 0.0590007 0.
0.505973 0.0589996 0.
0.507973 0.0589989 0.
0.509974 0.0589981 0.
0.511975 0.0589971 0.
0.513975 0.0589957 0.
0.515976 0.0589943 0.
0.517977 0.0589932 0.
0.519977 0.0589921 0.
0.521977 0.0589911 0.
0.523978 0.0589897 0.
0.525979 0.0589881 0.
0.527979 0.0589867 0.
0.52998 0.0589864 0.
0.53198 0.0589861 0.
0.533981 0.0589859 0.
0.535981 0.0589856 0.
0.537981 0.0589854 0.
0.539982 0.0589854 0.
0.541982 0.0589856 0.
0.543983 0.0589858 0.
0.545983 0.0589855 0.
0.547983 0.0589849 0.
0.549984 0.0589843 0.
0.551984 0.0589838 0.
0.553984 0.0589832 0.
0.555984 0.0589828 0.
0.557985 0.0589827 0.
0.559986 0.0589825 0.
0.561986 0.0589824 0.
0.563987 0.0589824 0.
0.565987 0.0589823 0.
0.567987 0.0589823 0.
0.569988 0.0589824 0.
0.571989 0.0589824 0.
0.573989 0.0589826 0.
0.575989 0.0589829 0.
0.57799 0.0589831 0.
0.579991 0.0589831 0.
0.581992 0.0589832 0.
0.583992 0.0589832 0.
0.585993 0.0589829 0.
0.587993 0.0589827 0.
0.589994 0.0589824 0.
0.591995 0.058982 0.
0.593996 0.0589816 0.
0.595998 0.0589822 0.
0.597999 0.0589832 0.
0.600001 0.0589841 0.
0.602001 0.0589831 0.
0.604002 0.0589822 0.
0.606002 0.0589815 0.
0.608004 0.0589816 0.
0.610005 0.0589817 0.
0.612006 0.0589819 0.
0.614007 0.0589822 0.
0.616007 0.0589826 0.
0.618008 0.0589829 0.
0.620009 0.0589832 0.
0.622009 0.0589835 0.
0.62401 0.0589829 0.
0.626012 0.0589823 0.
0.628013 0.0589817 0.
0.630014 0.0589818 0.
0.632014 0.0589819 0.
0.634015 0.0589821 0.
0.636015 0.0589826 0.
0.638016 0.0589832 0.
0.640016 0.0589839 0.
0.642017 0.0589848 0.
0.644017 0.0589857 0.
0.646018 0.0589863 0.
0.648018 0.058987 0.
0.650018 0.0589876 0.
0.652018 0.0589877 0.
0.654018 0.0589879 0.
0.656019 0.0589881 0.
0.65802 0.0589885 0.
0.66002 0.0589889 0.
0.662021 0.0589892 0.
0.664022 0.0589896 0.
0.666023 0.0589899 0.
0.668023 0.0589904 0.
0.670024 0.0589909 0.
0.672024 0.0589914 0.
0.674024 0.0589923 0.
0.676024 0.0589933 0.
0.678024 0.0589942 0.
0.680025 0.0589949 0.
0.682026 0.0589956 0.
0.684026 0.0589963 0.
0.686027 0.0589969 0.
0.688027 0.0589975 0.
0.690028 0.0589986 0.
0.692028 0.0590002 0.
0.694028 0.0590018 0.
0.696029 0.059003 0.
0.69803 0.0590041 0.
0.499972 0.0610033 0.
0.501973 0.0610018 0.
0.503974 0.0610004 0.
0.505975 0.0609991 0.
0.507975 0.0609984 0.
0.509975 0.0609977 0.
0.511976 0.0609966 0.
0.513977 0.0609952 0.
0.515978 0.0609938 0.
0.517978 0.0609927 0.
0.519978 0.0609917 0.
0.521979 0.0609908 0.
0.523979 0.0609894 0.
0.525979 0.0609878 0.
0.52798 0.0609863 0.
0.52998 0.060986 0.
0.531981 0.0609857 0.
0.533981 0.0609853 0.
0.535982 0.0609851 0.
0.537982 0.0609848 0.
0.539982 0.0609847 0.
0.541983 0.0609848 0.
0.543983 0.0609848 0.
0.545984 0.0609846 0.
0.547984 0.0609842 0.
0.549985 0.0609839 0.
0.551985 0.0609831 0.
0.553985 0.0609824 0.
0.555985 0.0609818 0.
0.557986 0.0609818 0.
0.559987 0.0609817 0.
0.561987 0.0609816 0.
0.563988 0.0609817 0.
0.565988 0.0609817 0.
0.567988 0.0609817 0.
0.569989 0.0609816 0.
0.571989 0.0609814 0.
0.573989 0.0609817 0.
0.57599 0.060982 0.
0.57799 0.0609823 0.
0.579991 0.0609825 0.
0.581992 0.0609827 0.
0.583993 0.0609827 0.
0.585993 0.0609823 0.
0.587993 0.0609819 0.
0.589994 0.0609815 0.
0.591995 0.0609811 0.
0.593996 0.0609806 0.
0.595998 0.0609812 0.
0.597999 0.060982 0.
0.600001 0.0609828 0.
0.602001 0.0609821 0.
0.604002 0.0609813 0.
0.606003 0.0609806 0.
0.608004 0.0609806 0.
0.610005 0.0609805 0.
0.612006 0.0609807 0.
0.614006 0.0609812 0.
0.616007 0.0609818 0.
0.618008 0.0609821 0.
0.620008 0.0609823 0.
0.622009 0.0609826 0.
0.62401 0.0609818 0.
0.626011 0.060981 0.
0.628012 0.0609804 0.
0.630013 0.0609807 0.
0.632013 0.0609811 0.
0.634014 0.0609816 0.
0.636014 0.0609821 0.
0.638015 0.0609827 0.
0.640015 0.0609834 0.
0.642016 0.0609842 0.
0.644017 0.060985 0.
0.646017 0.0609857 0.
0.648017 0.0609862 0.
0.650017 0.0609868 0.
0.652017 0.0609868 0.
0.654018 0.0609868 0.
0.656018 0.060987 0.
0.658019 0.0609876 0.
0.660019 0.0609882 0.
0.66202 0.0609886 0.
0.664021 0.0609888 0.
0.666022 0.0609891 0.
0.668022 0.0609896 0.
0.670023 0.0609902 0.
0.672023 0.0609909 0.
0.674023 0.0609918 0.
0.676023 0.0609928 0.
0.678023 0.0609938 0.
0.680024 0.0609946 0.
0.682024 0.0609955 0.
0.684025 0.0609962 0.
0.686025 0.0609967 0.
0.688026 0.0609973 0.
0.690026 0.0609984 0.
0.692027 0.0609999 0.
0.694027 0.0610015 0.
0.696027 0.0610027 0.
0.698028 0.0610039 0.
0.499974 0.0630035 0.
0.501975 0.0630019 0.
0.503976 0.0630004 0.
0.505976 0.062999 0.
0.507977 0.0629979 0.
0.509977 0.0629968 0.
0.511977 0.0629956 0.
0.513978 0.0629945 0.
0.515979 0.0629934 0.
0.51798 0.0629924 0.
0.51998 0.0629913 0.
0.52198 0.0629903 0.
0.52398 0.062989 0.
0.525981 0.0629876 0.
0.527981 0.0629863 0.
0.529981 0.0629858 0.
0.531981 0.0629852 0.
0.533982 0.0629848 0.
0.535982 0.0629845 0.
0.537982 0.0629843 0.
0.539983 0.0629841 0.
0.541983 0.0629838 0.
0.543984 0.0629835 0.
0.545984 0.0629836 0.
0.547984 0.0629838 0.
0.549985 0.062984 0.
0.551985 0.0629831 0.
0.553986 0.0629821 0.
0.555986 0.0629813 0.
0.557987 0.0629812 0.
0.559987 0.0629811 0.
0.561988 0.062981 0.
0.563988 0.0629811 0.
0.565989 0.0629812 0.
0.567989 0.062981 0.
0.569989 0.0629807 0.
0.57199 0.0629804 0.
0.57399 0.0629807 0.
0.57599 0.0629811 0.
0.577991 0.0629815 0.
0.579991 0.0629819 0.
0.581992 0.0629824 0.
0.583993 0.0629825 0.
0.585993 0.0629818 0.
0.587994 0.0629812 0.
0.589994 0.0629807 0.
0.591995 0.0629802 0.
0.593996 0.0629797 0.
0.595997 0.0629801 0.
0.597998 0.0629807 0.
0.599999 0.0629814 0.
0.602001 0.0629808 0.
0.604002 0.0629802 0.
0.606003 0.0629796 0.
0.608003 0.0629795 0.
0.610004 0.0629793 0.
0.612005 0.0629795 0.
0.614005 0.0629803 0.
0.616006 0.0629811 0.
0.618007 0.0629815 0.
0.620008 0.0629817 0.
0.622009 0.062982 0.
0.62401 0.0629812 0.
0.62601 0.0629804 0.
0.628011 0.0629797 0.
0.630011 0.0629805 0.
0.632012 0.0629812 0.
0.634012 0.0629818 0.
0.636013 0.062982 0.
0.638014 0.0629821 0.
0.640014 0.0629827 0.
0.642015 0.0629836 0.
0.644016 0.0629845 0.
0.646016 0.0629851 0.
0.648016 0.0629857 0.
0.650016 0.0629862 0.
0.652017 0.0629862 0.
0.654017 0.0629861 0.
0.656017 0.0629862 0.
0.658017 0.062987 0.
0.660018 0.0629877 0.
0.662019 0.0629882 0.
0.664019 0.0629883 0.
0.66602 0.0629885 0.
0.668021 0.0629889 0.
0.670021 0.0629895 0.
0.672022 0.0629901 0.
0.674022 0.0629911 0.
0.676022 0.0629921 0.
0.678021 0.0629932 0.
0.680022 0.0629941 0.
0.682022 0.0629951 0.
0.684023 0.0629959 0.
0.686024 0.0629965 0.
0.688024 0.0629971 0.
0.690025 0.0629981 0.
0.692025 0.0629993 0.
0.694026 0.0630005 0.
0.696026 0.0630019 0.
0.698027 0.0630034 0.
0.499976 0.0650037 0.
0.501977 0.065002 0.
0.503977 0.0650004 0.
0.505978 0.064999 0.
0.507978 0.0649974 0.
0.509978 0.0649959 0.
0.511979 0.0649946 0.
0.51398 0.0649939 0.
0.515981 0.0649931 0.
0.517981 0.0649921 0.
0.519981 0.0649909 0.
0.521981 0.0649898 0.
0.523981 0.0649886 0.
0.525982 0.0649874 0.
0.527982 0.0649863 0.
0.529982 0.0649855 0.
0.531982 0.0649848 0.
0.533982 0.0649842 0.
0.535982 0.064984 0.
0.537983 0.0649838 0.
0.539983 0.0649834 0.
0.541983 0.0649828 0.
0.543984 0.0649821 0.
0.545984 0.0649826 0.
0.547985 0.0649834 0.
0.549985 0.0649842 0.
0.551986 0.064983 0.
0.553987 0.0649818 0.
0.555988 0.0649807 0.
0.557988 0.0649806 0.
0.559988 0.0649804 0.
0.561989 0.0649804 0.
0.563989 0.0649806 0.
0.565989 0.0649807 0.
0.56799 0.0649804 0.
0.56999 0.0649799 0.
0.571991 0.0649793 0.
0.573991 0.0649797 0.
0.575991 0.0649802 0.
0.577991 0.0649807 0.
0.579992 0.0649814 0.
0.581992 0.064982 0.
0.583993 0.0649822 0.
0.585993 0.0649814 0.
0.587994 0.0649805 0.
0.589995 0.0649799 0.
0.591996 0.0649794 0.
0.593996 0.0649789 0.
0.595997 0.0649791 0.
0.597998 0.0649795 0.
0.599998 0.0649799 0.
0.602 0.0649795 0.
0.604002 0.064979 0.
0.606003 0.0649787 0.
0.608003 0.0649784 0.
0.610003 0.0649781 0.
0.612004 0.0649784 0.
0.614005 0.0649794 0.
0.616005 0.0649805 0.
0.618007 0.0649809 0.
0.620008 0.0649812 0.
0.622009 0.0649814 0.
0.62401 0.0649806 0.
0.62601 0.0649797 0.
0.62801 0.0649791 0.
0.63001 0.0649802 0.
0.63201 0.0649813 0.
0.634011 0.064982 0.
0.636012 0.0649818 0.
0.638012 0.0649816 0.
0.640013 0.0649821 0.
0.642014 0.064983 0.
0.644015 0.064984 0.
0.646015 0.0649846 0.
0.648015 0.0649851 0.
0.650016 0.0649856 0.
0.652016 0.0649855 0.
0.654016 0.0649854 0.
0.656016 0.0649854 0.
0.658016 0.0649864 0.
0.660017 0.0649873 0.
0.662017 0.0649878 0.
0.664018 0.0649878 0.
0.666018 0.0649879 0.
0.668019 0.0649882 0.
0.67002 0.0649888 0.
0.672021 0.0649893 0.
0.674021 0.0649904 0.
0.67602 0.0649915 0.
0.67802 0.0649926 0.
0.68002 0.0649937 0.
0.68202 0.0649947 0.
0.684021 0.0649957 0.
0.686022 0.0649963 0.
0.688022 0.064997 0.
0.690023 0.0649978 0.
0.692024 0.0649986 0.
0.694024 0.0649995 0.
0.696025 0.0650011 0.
0.698025 0.0650029 0.
0.499978 0.0670036 0.
0.501978 0.0670017 0.
0.503979 0.0670002 0.
0.505979 0.0669987 0.
0.507979 0.0669972 0.
0.50998 0.0669956 0.
0.51198 0.0669944 0.
0.513981 0.0669936 0.
0.515981 0.0669929 0.
0.517982 0.0669918 0.
0.519982 0.0669906 0.
0.521982 0.0669894 0.
0.523983 0.0669883 0.
0.525983 0.0669871 0.
0.527983 0.066986 0.
0.529983 0.0669853 0.
0.531983 0.0669846 0.
0.533983 0.066984 0.
0.535983 0.0669836 0.
0.537983 0.0669832 0.
0.539984 0.0669827 0.
0.541984 0.0669821 0.
0.543985 0.0669816 0.
0.545986 0.066982 0.
0.547986 0.0669827 0.
0.549986 0.0669834 0.
0.551987 0.0669824 0.
0.553988 0.0669813 0.
0.555989 0.0669804 0.
0.557989 0.0669802 0.
0.559989 0.06698 0.
0.56199 0.0669798 0.
0.56399 0.0669798 0.
0.565991 0.0669797 0.
0.567991 0.0669795 0.
0.569991 0.0669792 0.
0.571992 0.066979 0.
0.573992 0.0669792 0.
0.575992 0.0669795 0.
0.577992 0.0669798 0.
0.579993 0.0669803 0.
0.581993 0.0669809 0.
0.583994 0.066981 0.
0.585994 0.0669804 0.
0.587995 0.0669797 0.
0.589995 0.0669792 0.
0.591996 0.0669787 0.
0.593996 0.0669782 0.
0.595997 0.0669784 0.
0.597998 0.0669788 0.
0.599999 0.0669792 0.
0.602001 0.0669786 0.
0.604002 0.066978 0.
0.606003 0.0669775 0.
0.608003 0.0669777 0.
0.610003 0.0669778 0.
0.612004 0.0669782 0.
0.614004 0.066979 0.
0.616005 0.0669797 0.
0.618006 0.06698 0.
0.620007 0.06698 0.
0.622008 0.06698 0.
0.624008 0.0669795 0.
0.626008 0.0669791 0.
0.628009 0.0669787 0.
0.630009 0.0669796 0.
0.632009 0.0669805 0.
0.63401 0.066981 0.
0.636011 0.0669811 0.
0.638011 0.0669811 0.
0.640012 0.0669816 0.
0.642013 0.0669825 0.
0.644013 0.0669833 0.
0.646014 0.0669839 0.
0.648014 0.0669844 0.
0.650014 0.0669849 0.
0.652014 0.0669848 0.
0.654014 0.0669847 0.
0.656015 0.0669849 0.
0.658015 0.066986 0.
0.660016 0.0669871 0.
0.662016 0.0669877 0.
0.664017 0.0669877 0.
0.666017 0.0669877 0.
0.668018 0.0669879 0.
0.670019 0.0669883 0.
0.672019 0.0669888 0.
0.674019 0.0669899 0.
0.676019 0.0669912 0.
0.678019 0.0669924 0.
0.680019 0.0669933 0.
0.68202 0.0669941 0.
0.68402 0.0669949 0.
0.686021 0.0669958 0.
0.688021 0.0669966 0.
0.690022 0.0669973 0.
0.692022 0.0669981 0.
0.694023 0.0669989 0.
0.696023 0.0670005 0.
0.698024 0.0670022 0.
0.499979 0.069003 0.
0.501979 0.0690014 0.
0.50398 0.0689999 0.
0.50598 0.0689985 0.
0.507981 0.068997 0.
0.509981 0.0689954 0.
0.511981 0.0689942 0.
0.513982 0.0689934 0.
0.515982 0.0689926 0.
0.517983 0.0689915 0.
0.519983 0.0689903 0.
0.521983 0.0689891 0.
0.523984 0.0689879 0.
0.525984 0.0689868 0.
0.527984 0.0689857 0.
0.529984 0.0689851 0.
0.531984 0.0689845 0.
0.533984 0.0689838 0.
0.535984 0.0689832 0.
0.537984 0.0689825 0.
0.539985 0.0689819 0.
0.541986 0.0689815 0.
0.543987 0.068981 0.
0.545987 0.0689814 0.
0.547987 0.068982 0.
0.549988 0.0689826 0.
0.551988 0.0689818 0.
0.553989 0.0689809 0.
0.55599 0.0689801 0.
0.55799 0.0689798 0.
0.55999 0.0689795 0.
0.561991 0.0689792 0.
0.563991 0.0689789 0.
0.565992 0.0689786 0.
0.567992 0.0689786 0.
0.569992 0.0689786 0.
0.571993 0.0689786 0.
0.573993 0.0689786 0.
0.575993 0.0689787 0.
0.577993 0.0689788 0.
0.579994 0.0689793 0.
0.581994 0.0689797 0.
0.583994 0.0689798 0.
0.585995 0.0689794 0.
0.587995 0.0689789 0.
0.589996 0.0689784 0.
0.591996 0.068978 0.
0.593996 0.0689775 0.
0.595998 0.0689778 0.
0.597999 0.0689782 0.
0.600001 0.0689785 0.
0.602001 0.0689777 0.
0.604002 0.0689769 0.
0.606003 0.0689764 0.
0.608003 0.0689769 0.
0.610003 0.0689775 0.
0.612003 0.068978 0.
0.614004 0.0689785 0.
0.616005 0.068979 0.
0.618006 0.068979 0.
0.620006 0.0689788 0.
0.622006 0.0689786 0.
0.624007 0.0689785 0.
0.626007 0.0689784 0.
0.628008 0.0689784 0.
0.630008 0.068979 0.
0.632009 0.0689796 0.
0.634009 0.0689801 0.
0.63601 0.0689804 0.
0.63801 0.0689807 0.
0.640011 0.0689812 0.
0.642011 0.068982 0.
0.644012 0.0689827 0.
0.646012 0.0689833 0.
0.648013 0.0689837 0.
0.650013 0.0689842 0.
0.652013 0.0689841 0.
0.654013 0.0689841 0.
0.656013 0.0689844 0.
0.658014 0.0689857 0.
0.660015 0.0689869 0.
0.662015 0.0689876 0.
0.664016 0.0689875 0.
0.666016 0.0689874 0.
0.668016 0.0689876 0.
0.670017 0.0689879 0.
0.672018 0.0689882 0.
0.674018 0.0689895 0.
0.676018 0.0689909 0.
0.678018 0.0689923 0.
0.680018 0.0689929 0.
0.682019 0.0689935 0.
0.68402 0.0689942 0.
0.68602 0.0689952 0.
0.68802 0.0689961 0.
0.69002 0.0689969 0.
0.692021 0.0689976 0.
0.694021 0.0689983 0.
0.696022 0.0689998 0.
0.698023 0.0690016 0.
0.49998 0.0710026 0.
0.501981 0.0710012 0.
0.503981 0.0709998 0.
0.505982 0.0709984 0.
0.507982 0.0709969 0.
0.509982 0.0709954 0.
0.511983 0.0709941 0.
0.513983 0.0709932 0.
0.515984 0.0709923 0.
0.517984 0.0709912 0.
0.519984 0.07099 0.
0.521985 0.0709889 0.
0.523985 0.0709877 0.
0.525985 0.0709865 0.
0.527985 0.0709854 0.
0.529985 0.0709849 0.
0.531985 0.0709844 0.
0.533985 0.0709838 0.
0.535985 0.0709829 0.
0.537985 0.070982 0.
0.539985 0.0709814 0.
0.541986 0.0709811 0.
0.543987 0.0709807 0.
0.545988 0.070981 0.
0.547988 0.0709814 0.
0.549989 0.0709819 0.
0.551989 0.0709811 0.
0.55399 0.0709804 0.
0.55599 0.0709798 0.
0.557991 0.0709794 0.
0.559991 0.070979 0.
0.561992 0.0709787 0.
0.563992 0.0709783 0.
0.565992 0.070978 0.
0.567993 0.0709779 0.
0.569993 0.0709781 0.
0.571993 0.0709782 0.
0.573994 0.0709782 0.
0.575994 0.0709783 0.
0.577994 0.0709783 0.
0.579994 0.0709786 0.
0.581995 0.0709789 0.
0.583995 0.070979 0.
0.585995 0.0709787 0.
0.587996 0.0709784 0.
0.589996 0.070978 0.
0.591996 0.0709775 0.
0.593997 0.0709769 0.
0.595998 0.0709772 0.
0.597999 0.0709776 0.
0.6 0.0709781 0.
0.602001 0.0709772 0.
0.604002 0.0709764 0.
0.606002 0.0709759 0.
0.608002 0.0709765 0.
0.610003 0.0709771 0.
0.612003 0.0709776 0.
0.614004 0.070978 0.
0.616005 0.0709784 0.
0.618005 0.0709783 0.
0.620005 0.0709781 0.
0.622006 0.0709778 0.
0.624006 0.0709778 0.
0.626006 0.0709778 0.
0.628007 0.0709779 0.
0.630007 0.0709784 0.
0.632008 0.0709789 0.
0.634008 0.0709794 0.
0.636009 0.0709799 0.
0.638009 0.0709803 0.
0.64001 0.0709808 0.
0.64201 0.0709815 0.
0.64401 0.0709822 0.
0.646011 0.0709827 0.
0.648011 0.0709831 0.
0.650012 0.0709836 0.
0.652012 0.0709837 0.
0.654012 0.0709838 0.
0.656012 0.0709841 0.
0.658013 0.0709852 0.
0.660014 0.0709864 0.
0.662014 0.070987 0.
0.664015 0.0709871 0.
0.666015 0.0709871 0.
0.668015 0.0709873 0.
0.670016 0.0709875 0.
0.672017 0.0709877 0.
0.674017 0.070989 0.
0.676017 0.0709904 0.
0.678017 0.0709917 0.
0.680017 0.0709925 0.
0.682018 0.0709933 0.
0.684019 0.0709941 0.
0.686019 0.0709949 0.
0.688019 0.0709957 0.
0.690019 0.0709964 0.
0.69202 0.0709971 0.
0.69402 0.0709979 0.
0.696021 0.0709994 0.
0.698021 0.0710012 0.
0.499981 0.0730025 0.
0.501982 0.0730012 0.
0.503983 0.0729999 0.
0.505983 0.0729986 0.
0.507984 0.0729971 0.
0.509984 0.0729956 0.
0.511984 0.0729942 0.
0.513985 0.0729931 0.
0.515985 0.0729919 0.
0.517986 0.0729908 0.
0.519986 0.0729897 0.
0.521987 0.0729887 0.
0.523986 0.0729875 0.
0.525986 0.0729863 0.
0.527986 0.0729852 0.
0.529986 0.0729848 0.
0.531986 0.0729844 0.
0.533986 0.0729838 0.
0.535986 0.0729828 0.
0.537986 0.0729817 0.
0.539986 0.0729812 0.
0.541987 0.072981 0.
0.543987 0.0729808 0.
0.545988 0.0729809 0.
0.547988 0.072981 0.
0.549989 0.072981 0.
0.55199 0.0729805 0.
0.55399 0.0729799 0.
0.555991 0.0729794 0.
0.557991 0.072979 0.
0.559991 0.0729785 0.
0.561992 0.0729781 0.
0.563992 0.0729779 0.
0.565992 0.0729777 0.
0.567993 0.0729776 0.
0.569993 0.0729777 0.
0.571994 0.0729778 0.
0.573994 0.0729779 0.
0.575994 0.072978 0.
0.577994 0.0729782 0.
0.579995 0.0729783 0.
0.581995 0.0729784 0.
0.583995 0.0729784 0.
0.585996 0.0729784 0.
0.587996 0.0729783 0.
0.589997 0.0729778 0.
0.591997 0.0729771 0.
0.593998 0.0729764 0.
0.595998 0.0729767 0.
0.597999 0.0729772 0.
0.599999 0.0729777 0.
0.602 0.072977 0.
0.604001 0.0729763 0.
0.606002 0.0729759 0.
0.608002 0.0729763 0.
0.610002 0.0729768 0.
0.612003 0.0729772 0.
0.614004 0.0729775 0.
0.616004 0.0729779 0.
0.618005 0.0729779 0.
0.620005 0.0729778 0.
0.622005 0.0729777 0.
0.624005 0.0729775 0.
0.626006 0.0729774 0.
0.628006 0.0729774 0.
0.630007 0.072978 0.
0.632007 0.0729786 0.
0.634008 0.0729791 0.
0.636008 0.0729795 0.
0.638009 0.07298 0.
0.640009 0.0729805 0.
0.642009 0.0729812 0.
0.64401 0.0729818 0.
0.64601 0.0729822 0.
0.64801 0.0729826 0.
0.650011 0.072983 0.
0.652011 0.0729834 0.
0.654011 0.0729837 0.
0.656011 0.0729842 0.
0.658012 0.0729847 0.
0.660013 0.0729853 0.
0.662013 0.0729858 0.
0.664014 0.0729863 0.
0.666014 0.0729867 0.
0.668015 0.072987 0.
0.670015 0.0729872 0.
0.672015 0.0729873 0.
0.674015 0.0729884 0.
0.676016 0.0729896 0.
0.678016 0.0729908 0.
0.680016 0.0729921 0.
0.682017 0.0729935 0.
0.684017 0.0729945 0.
0.686017 0.0729948 0.
0.688017 0.0729952 0.
0.690018 0.0729958 0.
0.692018 0.0729967 0.
0.694019 0.0729976 0.
0.696019 0.0729992 0.
0.698019 0.073001 0.
0.499981 0.0750022 0.
0.501983 0.0750011 0.
0.503984 0.0749999 0.
0.505985 0.0749987 0.
0.507985 0.0749972 0.
0.509986 0.0749958 0.
0.511986 0.0749944 0.
0.513986 0.0749929 0.
0.515987 0.0749915 0.
0.517987 0.0749904 0.
0.519988 0.0749894 0.
0.521988 0.0749885 0.
0.523988 0.0749873 0.
0.525987 0.0749861 0.
0.527987 0.0749849 0.
0.529987 0.0749847 0.
0.531987 0.0749845 0.
0.533987 0.0749839 0.
0.535987 0.0749827 0.
0.537987 0.0749814 0.
0.539987 0.0749809 0.
0.541987 0.0749809 0.
0.543987 0.0749809 0.
0.545987 0.0749807 0.
0.547989 0.0749805 0.
0.54999 0.0749802 0.
0.55199 0.0749798 0.
0.553991 0.0749795 0.
0.555992 0.0749791 0.
0.557991 0.0749785 0.
0.559991 0.0749779 0.
0.561992 0.0749776 0.
0.563992 0.0749775 0.
0.565992 0.0749773 0.
0.567993 0.0749773 0.
0.569994 0.0749774 0.
0.571994 0.0749774 0.
0.573994 0.0749776 0.
0.575995 0.0749778 0.
0.577995 0.074978 0.
0.579995 0.0749779 0.
0.581995 0.0749779 0.
0.583995 0.0749779 0.
0.585996 0.074978 0.
0.587997 0.0749782 0.
0.589998 0.0749777 0.
0.591998 0.0749768 0.
0.593999 0.0749758 0.
0.595998 0.0749761 0.
0.597998 0.0749768 0.
0.599998 0.0749774 0.
0.601999 0.0749768 0.
0.604001 0.0749762 0.
0.606002 0.0749759 0.
0.608002 0.0749761 0.
0.610002 0.0749764 0.
0.612002 0.0749767 0.
0.614003 0.0749771 0.
0.616004 0.0749774 0.
0.618005 0.0749775 0.
0.620005 0.0749775 0.
0.622005 0.0749775 0.
0.624005 0.0749773 0.
0.626005 0.074977 0.
0.628005 0.0749768 0.
0.630006 0.0749775 0.
0.632006 0.0749782 0.
0.634007 0.0749788 0.
0.636008 0.0749792 0.
0.638008 0.0749797 0.
0.640009 0.0749802 0.
0.642009 0.0749808 0.
0.644009 0.0749813 0.
0.646009 0.0749817 0.
0.648009 0.0749821 0.
0.650009 0.0749824 0.
0.65201 0.0749831 0.
0.65401 0.0749837 0.
0.656011 0.0749842 0.
0.658011 0.0749842 0.
0.660011 0.0749843 0.
0.662012 0.0749847 0.
0.664013 0.0749855 0.
0.666014 0.0749863 0.
0.668014 0.0749867 0.
0.670014 0.0749868 0.
0.672014 0.0749869 0.
0.674014 0.0749878 0.
0.676015 0.0749888 0.
0.678015 0.0749899 0.
0.680015 0.0749917 0.
0.682016 0.0749936 0.
0.684016 0.0749948 0.
0.686016 0.0749948 0.
0.688016 0.0749947 0.
0.690016 0.0749952 0.
0.692017 0.0749963 0.
0.694018 0.0749973 0.
0.696018 0.074999 0.
0.698017 0.0750008 0.
0.499984 0.0770014 0.
0.501985 0.0770006 0.
0.503986 0.0769996 0.
0.505987 0.0769985 0.
0.507987 0.0769971 0.
0.509987 0.0769957 0.
0.511987 0.0769942 0.
0.513988 0.0769925 0.
0.515988 0.0769909 0.
0.517989 0.0769899 0.
0.519989 0.0769891 0.
0.52199 0.0769884 0.
0.523989 0.0769874 0.
0.525989 0.0769864 0.
0.527988 0.0769855 0.
0.529988 0.0769851 0.
0.531988 0.0769847 0.
0.533988 0.0769841 0.
0.535989 0.076983 0.
0.537989 0.076982 0.
0.539989 0.0769813 0.
0.541989 0.076981 0.
0.543989 0.0769806 0.
0.545989 0.0769804 0.
0.54799 0.0769801 0.
0.549991 0.0769799 0.
0.551991 0.0769794 0.
0.553992 0.0769789 0.
0.555992 0.0769784 0.
0.557993 0.076978 0.
0.559993 0.0769777 0.
0.561993 0.0769774 0.
0.563993 0.0769773 0.
0.565993 0.0769771 0.
0.567994 0.0769771 0.
0.569994 0.0769771 0.
0.571994 0.076977 0.
0.573995 0.0769774 0.
0.575995 0.0769778 0.
0.577995 0.0769781 0.
0.579995 0.0769778 0.
0.581996 0.0769776 0.
0.583996 0.0769774 0.
0.585997 0.0769773 0.
0.587997 0.0769773 0.
0.589998 0.076977 0.
0.591998 0.0769765 0.
0.593998 0.0769761 0.
0.595999 0.0769763 0.
0.597999 0.0769768 0.
0.599999 0.0769772 0.
0.602 0.0769765 0.
0.604001 0.0769758 0.
0.606002 0.0769753 0.
0.608002 0.0769759 0.
0.610002 0.0769764 0.
0.612003 0.0769767 0.
0.614003 0.0769766 0.
0.616004 0.0769766 0.
0.618004 0.0769766 0.
0.620005 0.0769767 0.
0.622005 0.0769768 0.
0.624005 0.0769767 0.
0.626006 0.0769767 0.
0.628006 0.0769767 0.
0.630006 0.0769771 0.
0.632007 0.0769775 0.
0.634007 0.076978 0.
0.636008 0.0769784 0.
0.638008 0.0769788 0.
0.640008 0.0769794 0.
0.642009 0.0769801 0.
0.644009 0.0769808 0.
0.646009 0.0769812 0.
0.648009 0.0769815 0.
0.650009 0.0769818 0.
0.652009 0.0769824 0.
0.65401 0.0769829 0.
0.65601 0.0769834 0.
0.65801 0.0769836 0.
0.660011 0.0769837 0.
0.662011 0.0769842 0.
0.664012 0.076985 0.
0.666013 0.0769858 0.
0.668013 0.0769864 0.
0.670013 0.0769868 0.
0.672013 0.0769871 0.
0.674013 0.0769881 0.
0.676014 0.076989 0.
0.678014 0.07699 0.
0.680014 0.0769917 0.
0.682014 0.0769933 0.
0.684015 0.0769945 0.
0.686015 0.0769947 0.
0.688015 0.076995 0.
0.690016 0.0769956 0.
0.692016 0.0769967 0.
0.694016 0.0769977 0.
0.696016 0.0769987 0.
0.698016 0.0769997 0.
0.499986 0.0790009 0.
0.501987 0.0790002 0.
0.503988 0.0789994 0.
0.505988 0.0789984 0.
0.507988 0.078997 0.
0.509988 0.0789956 0.
0.511988 0.078994 0.
0.513989 0.0789921 0.
0.515989 0.0789903 0.
0.51799 0.0789894 0.
0.519991 0.0789888 0.
0.521991 0.0789882 0.
0.52399 0.0789875 0.
0.52599 0.0789868 0.
0.527989 0.0789861 0.
0.529989 0.0789855 0.
0.531989 0.078985 0.
0.533989 0.0789843 0.
0.53599 0.0789834 0.
0.53799 0.0789825 0.
0.539991 0.0789817 0.
0.54199 0.078981 0.
0.54399 0.0789803 0.
0.545991 0.07898 0.
0.547991 0.0789798 0.
0.549992 0.0789796 0.
0.551992 0.078979 0.
0.553993 0.0789783 0.
0.555993 0.0789778 0.
0.557994 0.0789776 0.
0.559994 0.0789774 0.
0.561995 0.0789772 0.
0.563994 0.0789771 0.
0.565994 0.0789769 0.
0.567994 0.0789768 0.
0.569994 0.0789768 0.
0.571994 0.0789767 0.
0.573995 0.0789772 0.
0.575995 0.0789778 0.
0.577996 0.0789782 0.
0.579996 0.0789777 0.
0.581996 0.0789772 0.
0.583997 0.0789768 0.
0.585997 0.0789766 0.
0.587998 0.0789765 0.
0.589998 0.0789764 0.
0.591998 0.0789763 0.
0.593998 0.0789763 0.
0.595999 0.0789765 0.
0.597999 0.0789768 0.
0.6 0.078977 0.
0.602 0.0789762 0.
0.604001 0.0789753 0.
0.606002 0.0789748 0.
0.608002 0.0789756 0.
0.610002 0.0789764 0.
0.612003 0.0789766 0.
0.614003 0.0789762 0.
0.616004 0.0789758 0.
0.618004 0.0789757 0.
0.620005 0.0789759 0.
0.622005 0.078976 0.
0.624006 0.0789761 0.
0.626006 0.0789763 0.
0.628007 0.0789765 0.
0.630007 0.0789767 0.
0.632007 0.0789769 0.
0.634007 0.0789771 0.
0.636007 0.0789775 0.
0.638008 0.0789779 0.
0.640008 0.0789785 0.
0.642008 0.0789794 0.
0.644009 0.0789803 0.
0.646009 0.0789807 0.
0.648009 0.078981 0.
0.650009 0.0789812 0.
0.652009 0.0789817 0.
0.65401 0.0789822 0.
0.65601 0.0789826 0.
0.65801 0.0789829 0.
0.66001 0.0789832 0.
0.662011 0.0789837 0.
0.664011 0.0789845 0.
0.666011 0.0789854 0.
0.668012 0.0789861 0.
0.670012 0.0789867 0.
0.672013 0.0789874 0.
0.674012 0.0789883 0.
0.676012 0.0789892 0.
0.678012 0.0789902 0.
0.680012 0.0789916 0.
0.682013 0.078993 0.
0.684013 0.0789941 0.
0.686014 0.0789947 0.
0.688015 0.0789952 0.
0.690015 0.078996 0.
0.692015 0.0789971 0.
0.694015 0.0789981 0.
0.696015 0.0789984 0.
0.698015 0.0789987 0.
0.499988 0.0810009 0.
0.501989 0.081 0.
0.503989 0.0809992 0.
0.50599 0.0809982 0.
0.507989 0.0809968 0.
0.509989 0.0809954 0.
0.511989 0.0809938 0.
0.51399 0.080992 0.
0.515991 0.0809901 0.
0.517991 0.080989 0.
0.519992 0.0809884 0.
0.521992 0.0809878 0.
0.523992 0.0809874 0.
0.525991 0.0809871 0.
0.527991 0.0809866 0.
0.529991 0.0809859 0.
0.53199 0.0809851 0.
0.533991 0.0809843 0.
0.535991 0.0809836 0.
0.537992 0.0809828 0.
0.539992 0.0809819 0.
0.541992 0.080981 0.
0.543992 0.08098 0.
0.545992 0.0809796 0.
0.547992 0.0809794 0.
0.549993 0.0809793 0.
0.551993 0.0809785 0.
0.553993 0.0809778 0.
0.555994 0.0809772 0.
0.557994 0.0809772 0.
0.559995 0.0809772 0.
0.561995 0.0809771 0.
0.563995 0.0809769 0.
0.565995 0.0809767 0.
0.567995 0.0809766 0.
0.569995 0.0809767 0.
0.571995 0.0809767 0.
0.573995 0.0809772 0.
0.575996 0.0809777 0.
0.577996 0.0809781 0.
0.579996 0.0809776 0.
0.581997 0.0809771 0.
0.583997 0.0809766 0.
0.585997 0.0809763 0.
0.587998 0.0809759 0.
0.589998 0.0809759 0.
0.591998 0.080976 0.
0.593998 0.0809762 0.
0.595999 0.0809763 0.
0.597999 0.0809764 0.
0.6 0.0809764 0.
0.602001 0.0809757 0.
0.604001 0.080975 0.
0.606001 0.0809746 0.
0.608002 0.0809754 0.
0.610002 0.0809763 0.
0.612003 0.0809764 0.
0.614003 0.0809758 0.
0.616003 0.0809751 0.
0.618004 0.080975 0.
0.620004 0.0809752 0.
0.622005 0.0809754 0.
0.624005 0.0809756 0.
0.626006 0.0809759 0.
0.628006 0.0809762 0.
0.630007 0.0809763 0.
0.632007 0.0809764 0.
0.634007 0.0809766 0.
0.636007 0.080977 0.
0.638007 0.0809774 0.
0.640007 0.080978 0.
0.642008 0.0809789 0.
0.644008 0.0809797 0.
0.646008 0.0809802 0.
0.648008 0.0809807 0.
0.650009 0.0809811 0.
0.652009 0.0809814 0.
0.654009 0.0809817 0.
0.656009 0.080982 0.
0.658009 0.0809824 0.
0.660009 0.0809828 0.
0.662009 0.0809834 0.
0.66401 0.0809841 0.
0.66601 0.0809848 0.
0.66801 0.0809856 0.
0.670011 0.0809865 0.
0.672011 0.0809874 0.
0.674011 0.0809883 0.
0.676011 0.0809891 0.
0.678011 0.08099 0.
0.680011 0.0809911 0.
0.682011 0.0809923 0.
0.684012 0.0809933 0.
0.686013 0.0809942 0.
0.688014 0.080995 0.
0.690014 0.080996 0.
0.692014 0.0809971 0.
0.694013 0.0809982 0.
0.696014 0.0809983 0.
0.698014 0.0809982 0.
0.49999 0.0830012 0.
0.501991 0.0830001 0.
0.503991 0.082999 0.
0.505991 0.0829979 0.
0.507991 0.0829965 0.
0.509991 0.0829952 0.
0.511991 0.0829937 0.
0.513992 0.0829919 0.
0.515992 0.0829902 0.
0.517992 0.0829889 0.
0.519992 0.0829879 0.
0.521993 0.0829869 0.
0.523992 0.082987 0.
0.525992 0.0829872 0.
0.527992 0.0829872 0.
0.529992 0.0829861 0.
0.531992 0.0829851 0.
0.533992 0.0829842 0.
0.535992 0.0829835 0.
0.537993 0.0829829 0.
0.539993 0.0829819 0.
0.541993 0.0829807 0.
0.543993 0.0829795 0.
0.545994 0.0829791 0.
0.547994 0.082979 0.
0.549994 0.0829788 0.
0.551994 0.082978 0.
0.553994 0.0829772 0.
0.555995 0.0829766 0.
0.557995 0.0829769 0.
0.559994 0.0829771 0.
0.561995 0.0829771 0.
0.563995 0.0829767 0.
0.565995 0.0829764 0.
0.567996 0.0829765 0.
0.569996 0.0829768 0.
0.571996 0.0829771 0.
0.573996 0.0829774 0.
0.575996 0.0829776 0.
0.577996 0.0829777 0.
0.579997 0.0829774 0.
0.581997 0.0829771 0.
0.583997 0.0829767 0.
0.585998 0.0829762 0.
0.587998 0.0829757 0.
0.589998 0.0829756 0.
0.591999 0.0829757 0.
0.593999 0.0829758 0.
0.595999 0.0829758 0.
0.598 0.0829756 0.
0.6 0.0829754 0.
0.602 0.0829751 0.
0.604001 0.0829748 0.
0.606001 0.0829748 0.
0.608001 0.0829754 0.
0.610002 0.0829761 0.
0.612002 0.0829761 0.
0.614002 0.0829754 0.
0.616003 0.0829747 0.
0.618003 0.0829746 0.
0.620004 0.0829747 0.
0.622004 0.0829748 0.
0.624005 0.0829752 0.
0.626005 0.0829755 0.
0.628005 0.0829759 0.
0.630006 0.082976 0.
0.632006 0.0829762 0.
0.634007 0.0829764 0.
0.636007 0.0829769 0.
0.638006 0.0829774 0.
0.640007 0.0829779 0.
0.642007 0.0829785 0.
0.644007 0.082979 0.
0.646008 0.0829798 0.
0.648008 0.0829806 0.
0.650008 0.0829814 0.
0.652008 0.0829815 0.
0.654009 0.0829816 0.
0.656009 0.0829817 0.
0.658008 0.0829822 0.
0.660008 0.0829827 0.
0.662008 0.0829832 0.
0.664008 0.0829837 0.
0.666008 0.0829842 0.
0.668009 0.0829851 0.
0.670009 0.0829861 0.
0.672009 0.0829872 0.
0.674009 0.0829879 0.
0.67601 0.0829887 0.
0.67801 0.0829894 0.
0.68001 0.0829903 0.
0.68201 0.0829912 0.
0.684011 0.0829922 0.
0.686012 0.0829933 0.
0.688012 0.0829943 0.
0.690012 0.0829955 0.
0.692012 0.0829967 0.
0.694012 0.0829979 0.
0.696012 0.0829983 0.
0.698013 0.0829983 0.
0.499993 0.0850019 0.
0.501993 0.0850001 0.
0.503993 0.0849988 0.
0.505992 0.0849976 0.
0.507993 0.0849963 0.
0.509993 0.084995 0.
0.511993 0.0849935 0.
0.513993 0.0849919 0.
0.515993 0.0849903 0.
0.517993 0.0849888 0.
0.519993 0.0849875 0.
0.521993 0.0849861 0.
0.523993 0.0849866 0.
0.525993 0.0849873 0.
0.527993 0.0849877 0.
0.529993 0.0849864 0.
0.531993 0.084985 0.
0.533993 0.084984 0.
0.535994 0.0849834 0.
0.537994 0.0849829 0.
0.539994 0.0849819 0.
0.541994 0.0849805 0.
0.543995 0.0849791 0.
0.545995 0.0849787 0.
0.547995 0.0849785 0.
0.549995 0.0849784 0.
0.551995 0.0849776 0.
0.553995 0.0849767 0.
0.555995 0.0849761 0.
0.557995 0.0849765 0.
0.559994 0.084977 0.
0.561994 0.084977 0.
0.563995 0.0849766 0.
0.565996 0.0849761 0.
0.567997 0.0849764 0.
0.569997 0.084977 0.
0.571998 0.0849775 0.
0.573997 0.0849775 0.
0.575997 0.0849774 0.
0.577997 0.0849773 0.
0.579997 0.0849772 0.
0.581997 0.0849771 0.
0.583997 0.0849768 0.
0.585998 0.0849762 0.
0.587998 0.0849755 0.
0.589999 0.0849753 0.
0.591999 0.0849754 0.
0.594 0.0849755 0.
0.596 0.0849752 0.
0.598 0.0849748 0.
0.6 0.0849744 0.
0.602 0.0849746 0.
0.604001 0.0849747 0.
0.606001 0.0849749 0.
0.608001 0.0849754 0.
0.610001 0.0849759 0.
0.612001 0.0849758 0.
0.614002 0.084975 0.
0.616002 0.0849743 0.
0.618002 0.0849741 0.
0.620003 0.0849742 0.
0.622004 0.0849743 0.
0.624004 0.0849747 0.
0.626004 0.0849751 0.
0.628004 0.0849755 0.
0.630005 0.0849757 0.
0.632006 0.0849759 0.
0.634006 0.0849763 0.
0.636006 0.0849768 0.
0.638006 0.0849774 0.
0.640006 0.0849778 0.
0.642006 0.084978 0.
0.644007 0.0849783 0.
0.646007 0.0849793 0.
0.648007 0.0849805 0.
0.650008 0.0849817 0.
0.652008 0.0849816 0.
0.654008 0.0849814 0.
0.656008 0.0849814 0.
0.658007 0.084982 0.
0.660007 0.0849826 0.
0.662007 0.084983 0.
0.664007 0.0849833 0.
0.666007 0.0849837 0.
0.668007 0.0849846 0.
0.670007 0.0849858 0.
0.672007 0.0849869 0.
0.674008 0.0849876 0.
0.676008 0.0849882 0.
0.678009 0.0849888 0.
0.680009 0.0849895 0.
0.68201 0.0849902 0.
0.68401 0.0849911 0.
0.68601 0.0849924 0.
0.688011 0.0849936 0.
0.690011 0.084995 0.
0.69201 0.0849964 0.
0.69401 0.0849977 0.
0.696011 0.0849982 0.
0.698012 0.0849985 0.
0.499993 0.0870009 0.
0.501993 0.0869997 0.
0.503993 0.0869986 0.
0.505993 0.0869974 0.
0.507994 0.0869959 0.
0.509994 0.0869944 0.
0.511994 0.0869929 0.
0.513994 0.0869916 0.
0.515995 0.0869903 0.
0.517995 0.0869889 0.
0.519995 0.0869876 0.
0.521995 0.0869863 0.
0.523995 0.0869867 0.
0.525995 0.0869873 0.
0.527995 0.0869876 0.
0.529995 0.0869861 0.
0.531995 0.0869845 0.
0.533995 0.0869834 0.
0.535995 0.0869831 0.
0.537995 0.0869827 0.
0.539995 0.0869819 0.
0.541995 0.0869807 0.
0.543995 0.0869794 0.
0.545996 0.0869787 0.
0.547996 0.0869781 0.
0.549996 0.0869776 0.
0.551996 0.0869772 0.
0.553996 0.0869768 0.
0.555995 0.0869766 0.
0.557995 0.0869767 0.
0.559995 0.0869769 0.
0.561995 0.0869768 0.
0.563996 0.0869764 0.
0.565996 0.086976 0.
0.567997 0.0869759 0.
0.569997 0.0869761 0.
0.571998 0.0869763 0.
0.573998 0.0869766 0.
0.575998 0.0869769 0.
0.577998 0.0869771 0.
0.579998 0.0869769 0.
0.581998 0.0869767 0.
0.583998 0.0869763 0.
0.585998 0.0869759 0.
0.587998 0.0869754 0.
0.589999 0.086975 0.
0.591999 0.0869748 0.
0.594 0.0869745 0.
0.596 0.0869745 0.
0.598 0.0869745 0.
0.6 0.0869745 0.
0.602001 0.0869748 0.
0.604001 0.0869752 0.
0.606001 0.0869754 0.
0.608001 0.0869753 0.
0.610001 0.0869752 0.
0.612002 0.0869748 0.
0.614002 0.0869741 0.
0.616003 0.0869734 0.
0.618003 0.0869733 0.
0.620004 0.0869737 0.
0.622004 0.086974 0.
0.624004 0.0869744 0.
0.626005 0.0869748 0.
0.628005 0.0869752 0.
0.630005 0.0869753 0.
0.632006 0.0869755 0.
0.634006 0.0869757 0.
0.636006 0.0869762 0.
0.638006 0.0869767 0.
0.640006 0.0869772 0.
0.642006 0.0869778 0.
0.644006 0.0869783 0.
0.646006 0.0869792 0.
0.648007 0.0869802 0.
0.650007 0.0869812 0.
0.652007 0.0869812 0.
0.654006 0.0869813 0.
0.656006 0.0869815 0.
0.658006 0.0869822 0.
0.660006 0.0869829 0.
0.662006 0.0869834 0.
0.664006 0.0869835 0.
0.666006 0.0869836 0.
0.668006 0.0869844 0.
0.670006 0.0869856 0.
0.672007 0.0869868 0.
0.674007 0.0869874 0.
0.676007 0.0869878 0.
0.678008 0.0869884 0.
0.680008 0.0869892 0.
0.682008 0.0869901 0.
0.684009 0.0869911 0.
0.686009 0.0869923 0.
0.68801 0.0869936 0.
0.69001 0.0869948 0.
0.69201 0.0869958 0.
0.69401 0.0869969 0.
0.69601 0.0869977 0.
0.698011 0.0869985 0.
0.499994 0.0890004 0.
0.501994 0.0889993 0.
0.503994 0.0889984 0.
0.505994 0.0889973 0.
0.507995 0.0889955 0.
0.509995 0.0889937 0.
0.511996 0.0889923 0.
0.513996 0.0889913 0.
0.515996 0.0889902 0.
0.517996 0.088989 0.
0.519996 0.0889877 0.
0.521997 0.0889864 0.
0.523996 0.0889868 0.
0.525996 0.0889873 0.
0.527996 0.0889876 0.
0.529996 0.0889858 0.
0.531996 0.0889839 0.
0.533996 0.0889827 0.
0.535996 0.0889827 0.
0.537995 0.0889826 0.
0.539996 0.088982 0.
0.541996 0.0889809 0.
0.543996 0.0889798 0.
0.545996 0.0889787 0.
0.547997 0.0889777 0.
0.549997 0.0889767 0.
0.551996 0.0889768 0.
0.553996 0.088977 0.
0.555996 0.0889771 0.
0.557996 0.0889769 0.
0.559996 0.0889768 0.
0.561996 0.0889766 0.
0.563996 0.0889762 0.
0.565996 0.0889758 0.
0.567996 0.0889755 0.
0.569997 0.0889752 0.
0.571998 0.088975 0.
0.573999 0.0889756 0.
0.575999 0.0889763 0.
0.577999 0.0889769 0.
0.579999 0.0889765 0.
0.581999 0.0889762 0.
0.583999 0.0889758 0.
0.585998 0.0889756 0.
0.587998 0.0889753 0.
0.589999 0.0889748 0.
0.591999 0.0889741 0.
0.594 0.0889735 0.
0.596 0.0889737 0.
0.598 0.0889742 0.
0.6 0.0889746 0.
0.602001 0.0889751 0.
0.604001 0.0889756 0.
0.606002 0.0889759 0.
0.608002 0.0889752 0.
0.610002 0.0889745 0.
0.612002 0.0889739 0.
0.614003 0.0889732 0.
0.616004 0.0889725 0.
0.618004 0.0889726 0.
0.620004 0.0889731 0.
0.622005 0.0889736 0.
0.624005 0.0889741 0.
0.626005 0.0889745 0.
0.628005 0.088975 0.
0.630006 0.088975 0.
0.632006 0.088975 0.
0.634006 0.0889752 0.
0.636006 0.0889756 0.
0.638006 0.088976 0.
0.640006 0.0889767 0.
0.642006 0.0889775 0.
0.644006 0.0889783 0.
0.646006 0.0889791 0.
0.648006 0.0889799 0.
0.650006 0.0889807 0.
0.652006 0.0889809 0.
0.654005 0.0889811 0.
0.656005 0.0889815 0.
0.658005 0.0889824 0.
0.660006 0.0889833 0.
0.662006 0.0889838 0.
0.664006 0.0889837 0.
0.666006 0.0889835 0.
0.668006 0.0889843 0.
0.670006 0.0889855 0.
0.672006 0.0889867 0.
0.674006 0.0889871 0.
0.676006 0.0889875 0.
0.678007 0.0889879 0.
0.680007 0.088989 0.
0.682007 0.08899 0.
0.684007 0.0889911 0.
0.686008 0.0889923 0.
0.688008 0.0889935 0.
0.690009 0.0889945 0.
0.692009 0.0889953 0.
0.69401 0.0889961 0.
0.69601 0.0889972 0.
0.698009 0.0889984 0.
0.499995 0.0909999 0.
0.501995 0.0909991 0.
0.503995 0.0909983 0.
0.505996 0.0909973 0.
0.507996 0.0909953 0.
0.509996 0.0909934 0.
0.511997 0.0909918 0.
0.513997 0.0909909 0.
0.515997 0.0909899 0.
0.517997 0.0909889 0.
0.519998 0.0909878 0.
0.521998 0.0909868 0.
0.523998 0.090987 0.
0.525997 0.0909874 0.
0.527997 0.0909876 0.
0.529997 0.0909857 0.
0.531997 0.0909838 0.
0.533996 0.0909825 0.
0.535996 0.0909825 0.
0.537996 0.0909824 0.
0.539996 0.0909819 0.
0.541997 0.0909809 0.
0.543997 0.09098 0.
0.545997 0.0909789 0.
0.547997 0.0909778 0.
0.549997 0.0909767 0.
0.551997 0.0909768 0.
0.553996 0.0909769 0.
0.555996 0.0909769 0.
0.557997 0.0909768 0.
0.559997 0.0909766 0.
0.561997 0.0909763 0.
0.563997 0.090976 0.
0.565996 0.0909757 0.
0.567997 0.0909752 0.
0.569998 0.0909747 0.
0.571998 0.0909742 0.
0.573999 0.0909749 0.
0.575999 0.0909758 0.
0.578 0.0909765 0.
0.579999 0.0909763 0.
0.581999 0.090976 0.
0.583999 0.0909757 0.
0.585999 0.0909756 0.
0.587999 0.0909754 0.
0.589999 0.0909748 0.
0.591999 0.090974 0.
0.594 0.0909732 0.
0.596 0.0909735 0.
0.598 0.0909741 0.
0.6 0.0909748 0.
0.602001 0.0909753 0.
0.604001 0.0909758 0.
0.606002 0.090976 0.
0.608002 0.090975 0.
0.610002 0.090974 0.
0.612003 0.0909732 0.
0.614003 0.0909725 0.
0.616004 0.0909718 0.
0.618004 0.090972 0.
0.620004 0.0909728 0.
0.622005 0.0909735 0.
0.624005 0.0909739 0.
0.626005 0.0909743 0.
0.628006 0.0909746 0.
0.630005 0.0909746 0.
0.632005 0.0909746 0.
0.634005 0.0909748 0.
0.636005 0.0909752 0.
0.638006 0.0909756 0.
0.640006 0.0909762 0.
0.642006 0.0909771 0.
0.644006 0.090978 0.
0.646005 0.0909788 0.
0.648005 0.0909795 0.
0.650005 0.0909803 0.
0.652004 0.0909807 0.
0.654004 0.0909811 0.
0.656004 0.0909816 0.
0.658004 0.0909824 0.
0.660005 0.0909833 0.
0.662005 0.0909837 0.
0.664005 0.0909837 0.
0.666005 0.0909837 0.
0.668005 0.0909844 0.
0.670005 0.0909854 0.
0.672006 0.0909865 0.
0.674006 0.0909869 0.
0.676006 0.0909872 0.
0.678006 0.0909876 0.
0.680006 0.0909887 0.
0.682006 0.0909899 0.
0.684006 0.090991 0.
0.686006 0.0909922 0.
0.688007 0.0909933 0.
0.690007 0.0909943 0.
0.692008 0.0909951 0.
0.694009 0.0909959 0.
0.696009 0.090997 0.
0.698008 0.0909982 0.
0.499998 0.0929998 0.
0.501998 0.092999 0.
0.503998 0.0929983 0.
0.505998 0.0929974 0.
0.507998 0.0929953 0.
0.509998 0.0929933 0.
0.511998 0.0929916 0.
0.513998 0.0929905 0.
0.515998 0.0929893 0.
0.517998 0.0929885 0.
0.519999 0.0929879 0.
0.521999 0.0929872 0.
0.523999 0.0929873 0.
0.525998 0.0929875 0.
0.527998 0.0929875 0.
0.529998 0.0929857 0.
0.531997 0.092984 0.
0.533997 0.0929827 0.
0.535997 0.0929825 0.
0.537997 0.0929822 0.
0.539997 0.0929816 0.
0.541998 0.0929808 0.
0.543998 0.09298 0.
0.545998 0.0929792 0.
0.547998 0.0929784 0.
0.549997 0.0929776 0.
0.551997 0.0929771 0.
0.553997 0.0929766 0.
0.555997 0.0929761 0.
0.557997 0.0929761 0.
0.559998 0.0929762 0.
0.561998 0.0929761 0.
0.563998 0.0929759 0.
0.565997 0.0929757 0.
0.567998 0.0929753 0.
0.569998 0.0929747 0.
0.571999 0.0929741 0.
0.573999 0.0929747 0.
0.575999 0.0929754 0.
0.577999 0.0929761 0.
0.579999 0.0929761 0.
0.581999 0.0929761 0.
0.583999 0.0929761 0.
0.585999 0.0929759 0.
0.587999 0.0929756 0.
0.589999 0.0929751 0.
0.592 0.0929743 0.
0.594 0.0929735 0.
0.596 0.0929738 0.
0.598 0.0929745 0.
0.600001 0.0929752 0.
0.602001 0.0929754 0.
0.604001 0.0929756 0.
0.606002 0.0929756 0.
0.608002 0.0929746 0.
0.610003 0.0929736 0.
0.612003 0.0929727 0.
0.614003 0.092972 0.
0.616004 0.0929713 0.
0.618004 0.0929717 0.
0.620004 0.0929727 0.
0.622005 0.0929736 0.
0.624005 0.0929739 0.
0.626005 0.0929741 0.
0.628005 0.0929743 0.
0.630005 0.0929743 0.
0.632005 0.0929743 0.
0.634004 0.0929744 0.
0.636004 0.0929749 0.
0.638004 0.0929754 0.
0.640004 0.0929759 0.
0.642005 0.0929766 0.
0.644005 0.0929773 0.
0.646005 0.0929782 0.
0.648004 0.0929791 0.
0.650004 0.09298 0.
0.652004 0.0929806 0.
0.654003 0.0929812 0.
0.656003 0.0929818 0.
0.658004 0.0929823 0.
0.660004 0.0929828 0.
0.662004 0.0929832 0.
0.664004 0.0929836 0.
0.666004 0.092984 0.
0.668004 0.0929846 0.
0.670005 0.0929854 0.
0.672006 0.0929862 0.
0.674006 0.0929865 0.
0.676006 0.0929869 0.
0.678006 0.0929873 0.
0.680006 0.0929885 0.
0.682006 0.0929896 0.
0.684006 0.0929907 0.
0.686006 0.0929919 0.
0.688006 0.092993 0.
0.690006 0.0929941 0.
0.692007 0.0929952 0.
0.694007 0.0929964 0.
0.696007 0.0929971 0.
0.698007 0.0929977 0.
0.5 0.0949992 0.
0.502 0.0949988 0.
0.504 0.0949983 0.
0.506 0.0949974 0.
0.508 0.0949953 0.
0.509999 0.0949932 0.
0.511999 0.0949914 0.
0.513999 0.0949901 0.
0.515999 0.0949887 0.
0.517999 0.0949881 0.
0.52 0.0949879 0.
0.522 0.0949877 0.
0.523999 0.0949876 0.
0.525999 0.0949876 0.
0.527999 0.0949874 0.
0.529998 0.0949858 0.
0.531998 0.0949842 0.
0.533997 0.094983 0.
0.535998 0.0949825 0.
0.537998 0.094982 0.
0.539998 0.0949814 0.
0.541999 0.0949807 0.
0.543999 0.09498 0.
0.545999 0.0949795 0.
0.547998 0.094979 0.
0.549997 0.0949786 0.
0.551998 0.0949774 0.
0.553998 0.0949762 0.
0.555998 0.0949753 0.
0.557998 0.0949755 0.
0.559999 0.0949758 0.
0.561999 0.0949759 0.
0.563998 0.0949758 0.
0.565998 0.0949758 0.
0.567999 0.0949753 0.
0.569999 0.0949747 0.
0.571999 0.094974 0.
0.573999 0.0949745 0.
0.575999 0.094975 0.
0.577999 0.0949756 0.
0.579999 0.094976 0.
0.581999 0.0949763 0.
0.584 0.0949764 0.
0.586 0.0949762 0.
0.588 0.0949759 0.
0.59 0.0949753 0.
0.592 0.0949745 0.
0.594 0.0949737 0.
0.596 0.0949741 0.
0.598 0.0949749 0.
0.600001 0.0949756 0.
0.602001 0.0949755 0.
0.604001 0.0949754 0.
0.606002 0.0949752 0.
0.608003 0.0949741 0.
0.610004 0.0949731 0.
0.612004 0.0949723 0.
0.614004 0.0949716 0.
0.616003 0.0949708 0.
0.618003 0.0949714 0.
0.620004 0.0949726 0.
0.622005 0.0949737 0.
0.624005 0.0949739 0.
0.626004 0.0949739 0.
0.628004 0.0949739 0.
0.630004 0.0949739 0.
0.632004 0.0949739 0.
0.634004 0.0949741 0.
0.636003 0.0949746 0.
0.638003 0.0949751 0.
0.640003 0.0949756 0.
0.642004 0.0949762 0.
0.644004 0.0949767 0.
0.646004 0.0949776 0.
0.648003 0.0949787 0.
0.650002 0.0949798 0.
0.652003 0.0949805 0.
0.654003 0.0949813 0.
0.656003 0.0949819 0.
0.658003 0.0949821 0.
0.660004 0.0949823 0.
0.662004 0.0949827 0.
0.664003 0.0949836 0.
0.666003 0.0949844 0.
0.668004 0.0949849 0.
0.670004 0.0949854 0.
0.672005 0.0949859 0.
0.674005 0.0949862 0.
0.676005 0.0949866 0.
0.678005 0.0949871 0.
0.680005 0.0949882 0.
0.682005 0.0949893 0.
0.684005 0.0949904 0.
0.686005 0.0949915 0.
0.688005 0.0949926 0.
0.690005 0.0949939 0.
0.692005 0.0949954 0.
0.694006 0.0949968 0.
0.696006 0.0949971 0.
0.698006 0.0949972 0.
0.500001 0.0969994 0.
0.502001 0.0969986 0.
0.504002 0.096998 0.
0.506002 0.0969971 0.
0.508001 0.0969954 0.
0.510001 0.0969936 0.
0.512001 0.096992 0.
0.514001 0.0969906 0.
0.516001 0.0969891 0.
0.518001 0.0969883 0.
0.52 0.0969878 0.
0.522 0.0969873 0.
0.524 0.0969871 0.
0.526 0.0969869 0.
0.527999 0.0969866 0.
0.529999 0.0969855 0.
0.531999 0.0969845 0.
0.533999 0.0969836 0.
0.535999 0.0969831 0.
0.537999 0.0969826 0.
0.539999 0.0969817 0.
0.542 0.0969804 0.
0.544 0.0969792 0.
0.546 0.0969787 0.
0.547999 0.0969783 0.
0.549999 0.096978 0.
0.551999 0.0969771 0.
0.553998 0.0969762 0.
0.555998 0.0969755 0.
0.557998 0.0969756 0.
0.559999 0.0969756 0.
0.561999 0.0969757 0.
0.563999 0.0969757 0.
0.565999 0.0969758 0.
0.567999 0.0969754 0.
0.569999 0.0969746 0.
0.571999 0.0969739 0.
0.573999 0.0969744 0.
0.575999 0.0969751 0.
0.577999 0.0969757 0.
0.579999 0.0969758 0.
0.582 0.0969759 0.
0.584 0.0969759 0.
0.586 0.0969758 0.
0.588 0.0969757 0.
0.59 0.0969753 0.
0.592 0.0969746 0.
0.594 0.0969739 0.
0.596 0.0969742 0.
0.598 0.0969747 0.
0.600001 0.0969753 0.
0.602001 0.0969752 0.
0.604002 0.0969751 0.
0.606003 0.0969748 0.
0.608003 0.0969738 0.
0.610004 0.0969728 0.
0.612004 0.096972 0.
0.614004 0.0969713 0.
0.616003 0.0969707 0.
0.618003 0.0969712 0.
0.620004 0.0969722 0.
0.622004 0.0969733 0.
0.624004 0.0969737 0.
0.626004 0.096974 0.
0.628003 0.0969743 0.
0.630003 0.0969745 0.
0.632003 0.0969746 0.
0.634003 0.0969749 0.
0.636003 0.0969751 0.
0.638003 0.0969754 0.
0.640003 0.0969758 0.
0.642003 0.0969764 0.
0.644003 0.0969769 0.
0.646003 0.0969776 0.
0.648003 0.0969784 0.
0.650003 0.0969792 0.
0.652003 0.0969802 0.
0.654003 0.0969813 0.
0.656003 0.0969821 0.
0.658003 0.0969822 0.
0.660003 0.0969823 0.
0.662004 0.0969826 0.
0.664004 0.0969833 0.
0.666004 0.096984 0.
0.668004 0.0969846 0.
0.670004 0.0969851 0.
0.672005 0.0969857 0.
0.674005 0.0969859 0.
0.676005 0.0969861 0.
0.678005 0.0969865 0.
0.680005 0.0969877 0.
0.682005 0.096989 0.
0.684005 0.0969901 0.
0.686005 0.096991 0.
0.688004 0.096992 0.
0.690004 0.0969933 0.
0.692004 0.0969948 0.
0.694004 0.0969963 0.
0.696004 0.0969973 0.
0.698005 0.0969983 0.
0.500002 0.0989991 0.
0.502003 0.0989984 0.
0.504003 0.0989977 0.
0.506003 0.0989969 0.
0.508003 0.0989954 0.
0.510003 0.098994 0.
0.512003 0.0989926 0.
0.514003 0.098991 0.
0.516002 0.0989895 0.
0.518002 0.0989885 0.
0.520001 0.0989876 0.
0.522001 0.0989868 0.
0.524 0.0989864 0.
0.526 0.0989861 0.
0.528 0.0989857 0.
0.53 0.0989853 0.
0.532001 0.0989848 0.
0.534001 0.0989843 0.
0.536001 0.0989837 0.
0.538 0.0989832 0.
0.54 0.098982 0.
0.542 0.0989802 0.
0.544001 0.0989784 0.
0.546001 0.0989779 0.
0.548001 0.0989777 0.
0.55 0.0989775 0.
0.552 0.0989769 0.
0.553999 0.0989763 0.
0.555998 0.0989757 0.
0.557998 0.0989756 0.
0.559999 0.0989755 0.
0.561999 0.0989755 0.
0.563999 0.0989756 0.
0.565999 0.0989758 0.
0.567999 0.0989754 0.
0.569999 0.0989746 0.
0.571999 0.0989739 0.
0.573999 0.0989744 0.
0.575999 0.0989751 0.
0.577999 0.0989757 0.
0.579999 0.0989756 0.
0.582 0.0989755 0.
0.584 0.0989754 0.
0.586 0.0989755 0.
0.588 0.0989755 0.
0.59 0.0989752 0.
0.592 0.0989746 0.
0.593999 0.098974 0.
0.596 0.0989742 0.
0.598 0.0989746 0.
0.600001 0.098975 0.
0.602002 0.0989749 0.
0.604003 0.0989747 0.
0.606004 0.0989744 0.
0.608004 0.0989735 0.
0.610004 0.0989726 0.
0.612004 0.0989718 0.
0.614004 0.0989711 0.
0.616003 0.0989705 0.
0.618003 0.0989709 0.
0.620004 0.0989719 0.
0.622004 0.0989729 0.
0.624003 0.0989735 0.
0.626003 0.0989741 0.
0.628002 0.0989747 0.
0.630002 0.098975 0.
0.632002 0.0989754 0.
0.634002 0.0989756 0.
0.636002 0.0989757 0.
0.638002 0.0989757 0.
0.640002 0.098976 0.
0.642002 0.0989766 0.
0.644002 0.0989771 0.
0.646002 0.0989776 0.
0.648003 0.0989781 0.
0.650003 0.0989786 0.
0.652003 0.0989799 0.
0.654003 0.0989812 0.
0.656002 0.0989823 0.
0.658003 0.0989823 0.
0.660003 0.0989823 0.
0.662004 0.0989825 0.
0.664004 0.0989831 0.
0.666004 0.0989836 0.
0.668004 0.0989842 0.
0.670004 0.0989849 0.
0.672004 0.0989855 0.
0.674004 0.0989856 0.
0.676004 0.0989857 0.
0.678004 0.0989859 0.
0.680004 0.0989872 0.
0.682004 0.0989886 0.
0.684004 0.0989897 0.
0.686004 0.0989906 0.
0.688004 0.0989914 0.
0.690004 0.0989926 0.
0.692003 0.0989942 0.
0.694003 0.0989957 0.
0.696003 0.0989975 0.
0.698003 0.0989993 0.
CELLS 5000 10000
1 0
1 1
1 2
1 3
1 4
1 5
1 6
1 7
1 8
1 9
1 10
1 11
1 12
1 13
1 14
1 15
1 16
1 17
1 18
1 19
1 20
1 21
1 22
1 23
1 24
1 25
1 26
1 27
1 28
1 29
1 30
1 31
1 32
1 33
1 34
1 35
1 36
1 37
1 38
1 39
1 40
1 41
1 42
1 43
1 44
1 45
1 46
1 47
1 48
1 49
1 50
1 51
1 52
1 53
1 54
1 55
1 56
1 57
1 58
1 59
1 60
1 61
1 62
1 63
1 64
1 65
1 66
1 67
1 68
1 69
1 70
1 71
1 72
1 73
1 74
1 75
1 76
1 77
1 78
1 79
1 80
1 81
1 82
1 83
1 84
1 85
1 86
1 87
1 88
1 89
1 90
1 91
1 92
1 93
1 94
1 95
1 96
1 97
1 98
1 99
1 100
1 101
1 102
1 103
1 104
1 105
1 106
1 107
1 108
1 109
1 110
1 111
1 112
1 113
1 114
1 115
1 116
1 117
1 118
1 119
1 120
1 121
1 122
1 123
1 124
1 125
1 126
1 127
1 128
1 129
1 130
1 131
1 132
1 133
1 134
1 135
1 136
1 137
1 138
1 139
1 140
1 141
1 142
1 143
1 144
1 145
1 146
1 147
1 148
1 149
1 150
1 151
1 152
1 153
1 154
1 155
1 156
1 157
1 158
1 159
1 160
1 161
1 162
1 163
1 164
1 165
1 166
1 167
1 168
1 169
1 170
1 171
1 172
1 173
1 174
1 175
1 176
1 177
1 178
1 179
1 180
1 181
1 182
1 183
1 184
1 185
1 186
1 187
1 188
1 189
1 190
1 191
1 192
1 193
1 194
1 195
1 196
1 197
1 198
1 199
1 200
1 201
1 202
1 203
1 204
1 205
1 206
1 207
1 208
1 209
1 210
1 211
1 212
1 213
1 214
1 215
1 216
1 217
1 218
1 219
1 220
1 221
1 222
1 223
1 224
1 225
1 226
1 227
1 228
1 229
1 230
1 231
1 232
1 233
1 234
1 235
1 236
1 237
1 238
1 239
1 240
1 241
1 242
1 243
1 244
1 245
1 246
1 247
1 248
1 249
1 250
1 251
1 252
1 253
1 254
1 255
1 256
1 257
1 258
1 259
1 260
1 261
1 262
1 263
1 264
1 265
1 266
1 267
1 268
1 269
1 270
1 271
1 272
1 273
1 274
1 275
1 276
1 277
1 278
1 279
1 280
1 281
1 282
1 283
1 284
1 285
1 286
1 287
1 288
1 289
1 290
1 291
1 292
1 293
1 294
1 295
1 296
1 297
1 298
1 299
1 300
1 301
1 302
1 303
1 304
1 305
1 306
1 307
1 308
1 309
1 310
1 311
1 312
1 313
1 314
1 315
1 316
1 317
1 318
1 319
1 320
1 321
1 322
1 323
1 324
1 325
1 326
1 327
1 328
1 329
1 330
1 331
1 332
1 333
1 334
1 335
1 336
1 337
1 338
1 339
1 340
1 341
1 342
1 343
1 344
1 345
1 346
1 347
1 348
1 349
1 350
1 351
1 352
1 353
1 354
1 355
1 356
1 357
1 358
1 359
1 360
1 361
1 362
1 363
1 364
1 365
1 366
1 367
1 368
1 369
1 370
1 371
1 372
1 373
1 374
1 375
1 376
1 377
1 378
1 379
1 380
1 381
1 382
1 383
1 384
1 385
1 386
1 387
1 388
1 389
1 390
1 391
1 392
1 393
1 394
1 395
1 396
1 397
1 398
1 399
1 400
1 401
1 402
1 403
1 404
1 405
1 406
1 407
1 408
1 409
1 410
1 411
1 412
1 413
1 414
1 415
1 416
1 417
1 418
1 419
1 420
1 421
1 422
1 423
1 424
1 425
1 426
1 427
1 428
1 429
1 430
1 431
1 432
1 433
1 434
1 435
1 436
1 437
1 438
1 439
1 440
1 441
1 442
1 443
1 444
1 445
1 446
1 447
1 448
1 449
1 450
1 451
1 452
1 453
1 454
1 455
1 456
1 457
1 458
1 459
1 460
1 461
1 462
1 463
1 464
1 465
1 466
1 467
1 468
1 469
1 470
1 471
1 472
1 473
1 474
1 475
1 476
1 477
1 478
1 479
1 480
1 481
1 482
1 483
1 484
1 485
1 486
1 487
1 488
1 489
1 490
1 491
1 492
1 493
1 494
1 495
1 496
1 497
1 498
1 499
1 500
1 501
1 502
1 503
1 504
1 505
1 506
1 507
1 508
1 509
1 510
1 511
1 512
1 513
1 514
1 515
1 516
1 517
1 518
1 519
1 520
1 521
1 522
1 523
1 524
1 525
1 526
1 527
1 528
1 529
1 530
1 531
1 532
1 533
1 534
1 535
1 536
1 537
1 538
1 539
1 540
1 541
1 542
1 543
1 544
1 545
1 546
1 547
1 548
1 549
1 550
1 551
1 552
1 553
1 554
1 555
1 556
1 557
1 558
1 559
1 560
1 561
1 562
1 563
1 564
1 565
1 566
1 567
1 568
1 569
1 570
1 571
1 572
1 573
1 574
1 575
1 576
1 577
1 578
1 579
1 580
1 581
1 582
1 583
1 584
1 585
1 586
1 587
1 588
1 589
1 590
1 591
1 592
1 593
1 594
1 595
1 596
1 597
1 598
1 599
1 600
1 601
1 602
1 603
1 604
1 605
1 606
1 607
1 608
1 609
1 610
1 611
1 612
1 613
1 614
1 615
1 616
1 617
1 618
1 619
1 620
1 621
1 622
1 623
1 624
1 625
1 626
1 627
1 628
1 629
1 630
1 631
1 632
1 633
1 634
1 635
1 636
1 637
1 638
1 639
1 640
1 641
1 642
1 643
1 644
1 645
1 646
1 647
1 648
1 649
1 650
1 651
1 652
1 653
1 654
1 655
1 656
1 657
1 658
1 659
1 660
1 661
1 662
1 663
1 664
1 665
1 666
1 667
1 668
1 669
1 670
1 671
1 672
1 673
1 674
1 675
1 676
1 677
1 678
1 679
1 680
1 681
1 682
1 683
1 684
1 685
1 686
1 687
1 688
1 689
1 690
1 691
1 692
1 693
1 694
1 695
1 696
1 697
1 698
1 699
1 700
1 701
1 702
1 703
1 704
1 705
1 706
1 707
1 708
1 709
1 710
1 711
1 712
1 713
1 714
1 715
1 716
1 717
1 718
1 719
1 720
1 721
1 722
1 723
1 724
1 725
1 726
1 727
1 728
1 729
1 730
1 731
1 732
1 733
1 734
1 735
1 736
1 737
1 738
1 739
1 740
1 741
1 742
1 743
1 744
1 745
1 746
1 747
1 748
1 749
1 750
1 751
1 752
1 753
1 754
1 755
1 756
1 757
1 758
1 759
1 760
1 761
1 762
1 763
1 764
1 765
1 766
1 767
1 768
1 769
1 770
1 771
1 772
1 773
1 774
1 775
1 776
1 777
1 778
1 779
1 780
1 781
1 782
1 783
1 784
1 785
1 786
1 787
1 788
1 789
1 790
1 791
1 792
1 793
1 794
1 795
1 796
1 797
1 798
1 799
1 800
1 801
1 802
1 803
1 804
1 805
1 806
1 807
1 808
1 809
1 810
1 811
1 812
1 813
1 814
1 815
1 816
1 817
1 818
1 819
1 820
1 821
1 822
1 823
1 824
1 825
1 826
1 827
1 828
1 829
1 830
1 831
1 832
1 833
1 834
1 835
1 836
1 837
1 838
1 839
1 840
1 841
1 842
1 843
1 844
1 845
1 846
1 847
1 848
1 849
1 850
1 851
1 852
1 853
1 854
1 855
1 856
1 857
1 858
1 859
1 860
1 861
1 862
1 863
1 864
1 865
1 866
1 867
1 868
1 869
1 870
1 871
1 872
1 873
1 874
1 875
1 876
1 877
1 878
1 879
1 880
1 881
1 882
1 883
1 884
1 885
1 886
1 887
1 888
1 889
1 890
1 891
1 892
1 893
1 894
1 895
1 896
1 897
1 898
1 899
1 900
1 901
1 902
1 903
1 904
1 905
1 906
1 907
1 908
1 909
1 910
1 911
1 912
1 913
1 914
1 915
1 916
1 917
1 918
1 919
1 920
1 921
1 922
1 923
1 924
1 925
1 926
1 927
1 928
1 929
1 930
1 931
1 932
1 933
1 934
1 935
1 936
1 937
1 938
1 939
1 940
1 941
1 942
1 943
1 944
1 945
1 946
1 947
1 948
1 949
1 950
1 951
1 952
1 953
1 954
1 955
1 956
1 957
1 958
1 959
1 960
1 961
1 962
1 963
1 964
1 965
1 966
1 967
1 968
1 969
1 970
1 971
1 972
1 973
1 974
1 975
1 976
1 977
1 978
1 979
1 980
1 981
1 982
1 983
1 984
1 985
1 986
1 987
1 988
1 989
1 990
1 991
1 992
1 993
1 994
1 995
1 996
1 997
1 998
1 999
1 1000
1 1001
1 1002
1 1003
1 1004
1 1005
1 1006
1 1007
1 1008
1 1009
1 1010
1 1011
1 1012
1 1013
1 1014
1 1015
1 1016
1 1017
1 1018
1 1019
1 1020
1 1021
1 1022
1 1023
1 1024
1 1025
1 1026
1 1027
1 1028
1 1029
1 1030
1 1031
1 1032
1 1033
1 1034
1 1035
1 1036
1 1037
1 1038
1 1039
1 1040
1 1041
1 1042
1 1043
1 1044
1 1045
1 1046
1 1047
1 1048
1 1049
1 1050
1 1051
1 1052
1 1053
1 1054
1 1055
1 1056
1 1057
1 1058
1 1059
1 1060
1 1061
1 1062
1 1063
1 1064
1 1065
1 1066
1 1067
1 1068
1 1069
1 1070
1 1071
1 1072
1 1073
1 1074
1 1075
1 1076
1 1077
1 1078
1 1079
1 1080
1 1081
1 1082
1 1083
1 1084
1 1085
1 1086
1 1087
1 1088
1 1089
1 1090
1 1091
1 1092
1 1093
1 1094
1 1095
1 1096
1 1097
1 1098
1 1099
1 1100
1 1101
1 1102
1 1103
1 1104
1 1105
1 1106
1 1107
1 1108
1 1109
1 1110
1 1111
1 1112
1 1113
1 1114
1 1115
1 1116
1 1117
1 1118
1 1119
1 1120
1 1121
1 1122
1 1123
1 1124
1 1125
1 1126
1 1127
1 1128
1 1129
1 1130
1 1131
1 1132
1 1133
1 1134
1 1135
1 1136
1 1137
1 1138
1 1139
1 1140
1 1141
1 1142
1 1143
1 1144
1 1145
1 1146
1 1147
1 1148
1 1149
1 1150
1 1151
1 1152
1 1153
1 1154
1 1155
1 1156
1 1157
1 1158
1 1159
1 1160
1 1161
1 1162
1 1163
1 1164
1 1165
1 1166
1 1167
1 1168
1 1169
1 1170
1 1171
1 1172
1 1173
1 1174
1 1175
1 1176
1 1177
1 1178
1 1179
1 1180
1 1181
1 1182
1 1183
1 1184
1 1185
1 1186
1 1187
1 1188
1 1189
1 1190
1 1191
1 1192
1 1193
1 1194
1 1195
1 1196
1 1197
1 1198
1 1199
1 1200
1 1201
1 1202
1 1203
1 1204
1 1205
1 1206
1 1207
1 1208
1 1209
1 1210
1 1211
1 1212
1 1213
1 1214
1 1215
1 1216
1 1217
1 1218
1 1219
1 1220
1 1221
1 1222
1 1223
1 1224
1 1225
1 1226
1 1227
1 1228
1 1229
1 1230
1 1231
1 1232
1 1233
1 1234
1 1235
1 1236
1 1237
1 1238
1 1239
1 1240
1 1241
1 1242
1 1243
1 1244
1 1245
1 1246
1 1247
1 1248
1 1249
1 1250
1 1251
1 1252
1 1253
1 1254
1 1255
1 1256
1 1257
1 1258
1 1259
1 1260
1 1261
1 1262
1 1263
1 1264
1 1265
1 1266
1 1267
1 1268
1 1269
1 1270
1 1271
1 1272
1 1273
1 1274
1 1275
1 1276
1 1277
1 1278
1 1279
1 1280
1 1281
1 1282
1 1283
1 1284
1 1285
1 1286
1 1287
1 1288
1 1289
1 1290
1 1291
1 1292
1 1293
1 1294
1 1295
1 1296
1 1297
1 1298
1 1299
1 1300
1 1301
1 1302
1 1303
1 1304
1 1305
1 1306
1 1307
1 1308
1 1309
1 1310
1 1311
1 1312
1 1313
1 1314
1 1315
1 1316
1 1317
1 1318
1 1319
1 1320
1 1321
1 1322
1 1323
1 1324
1 1325
1 1326
1 1327
1 1328
1 1329
1 1330
1 1331
1 1332
1 1333
1 1334
1 1335
1 1336
1 1337
1 1338
1 1339
1 1340
1 1341
1 1342
1 1343
1 1344
1 1345
1 1346
1 1347
1 1348
1 1349
1 1350
1 1351
1 1352
1 1353
1 1354
1 1355
1 1356
1 1357
1 1358
1 1359
1 1360
1 1361
1 1362
1 1363
1 1364
1 1365
1 1366
1 1367
1 1368
1 1369
1 1370
1 1371
1 1372
1 1373
1 1374
1 1375
1 1376
1 1377
1 1378
1 1379
1 1380
1 1381
1 1382
1 1383
1 1384
1 1385
1 1386
1 1387
1 1388
1 1389
1 1390
1 1391
1 1392
1 1393
1 1394
1 1395
1 1396
1 1397
1 1398
1 1399
1 1400
1 1401
1 1402
1 1403
1 1404
1 1405
1 1406
1 1407
1 1408
1 1409
1 1410
1 1411
1 1412
1 1413
1 1414
1 1415
1 1416
1 1417
1 1418
1 1419
1 1420
1 1421
1 1422
1 1423
1 1424
1 1425
1 1426
1 1427
1 1428
1 1429
1 1430
1 1431
1 1432
1 1433
1 1434
1 1435
1 1436
1 1437
1 1438
1 1439
1 1440
1 1441
1 1442
1 1443
1 1444
1 1445
1 1446
1 1447
1 1448
1 1449
1 1450
1 1451
1 1452
1 1453
1 1454
1 1455
1 1456
1 1457
1 1458
1 1459
1 1460
1 1461
1 1462
1 1463
1 1464
1 1465
1 1466
1 1467
1 1468
1 1469
1 1470
1 1471
1 1472
1 1473
1 1474
1 1475
1 1476
1 1477
1 1478
1 1479
1 1480
1 1481
1 1482
1 1483
1 1484
1 1485
1 1486
1 1487
1 1488
1 1489
1 1490
1 1491
1 1492
1 1493
1 1494
1 1495
1 1496
1 1497
1 1498
1 1499
1 1500
1 1501
1 1502
1 1503
1 1504
1 1505
1 1506
1 1507
1 1508
1 1509
1 1510
1 1511
1 1512
1 1513
1 1514
1 1515
1 1516
1 1517
1 1518
1 1519
1 1520
1 1521
1 1522
1 1523
1 1524
1 1525
1 1526
1 1527
1 1528
1 1529
1 1530
1 1531
1 1532
1 1533
1 1534
1 1535
1 1536
1 1537
1 1538
1 1539
1 1540
1 1541
1 1542
1 1543
1 1544
1 1545
1 1546
1 1547
1 1548
1 1549
1 1550
1 1551
1 1552
1 1553
1 1554
1 1555
1 1556
1 1557
1 1558
1 1559
1 1560
1 1561
1 1562
1 1563
1 1564
1 1565
1 1566
1 1567
1 1568
1 1569
1 1570
1 1571
1 1572
1 1573
1 1574
1 1575
1 1576
1 1577
1 1578
1 1579
1 1580
1 1581
1 1582
1 1583
1 1584
1 1585
1 1586
1 1587
1 1588
1 1589
1 1590
1 1591
1 1592
1 1593
1 1594
1 1595
1 1596
1 1597
1 1598
1 1599
1 1600
1 1601
1 1602
1 1603
1 1604
1 1605
1 1606
1 1607
1 1608
1 1609
1 1610
1 1611
1 1612
1 1613
1 1614
1 1615
1 1616
1 1617
1 1618
1 1619
1 1620
1 1621
1 1622
1 1623
1 1624
1 1625
1 1626
1 1627
1 1628
1 1629
1 1630
1 1631
1 1632
1 1633
1 1634
1 1635
1 1636
1 1637
1 1638
1 1639
1 1640
1 1641
1 1642
1 1643
1 1644
1 1645
1 1646
1 1647
1 1648
1 1649
1 1650
1 1651
1 1652
1 1653
1 1654
1 1655
1 1656
1 1657
1 1658
1 1659
1 1660
1 1661
1 1662
1 1663
1 1664
1 1665
1 1666
1 1667
1 1668
1 1669
1 1670
1 1671
1 1672
1 1673
1 1674
1 1675
1 1676
1 1677
1 1678
1 1679
1 1680
1 1681
1 1682
1 1683
1 1684
1 1685
1 1686
1 1687
1 1688
1 1689
1 1690
1 1691
1 1692
1 1693
1 1694
1 1695
1 1696
1 1697
1 1698
1 1699
1 1700
1 1701
1 1702
1 1703
1 1704
1 1705
1 1706
1 1707
1 1708
1 1709
1 1710
1 1711
1 1712
1 1713
1 1714
1 1715
1 1716
1 1717
1 1718
1 1719
1 1720
1 1721
1 1722
1 1723
1 1724
1 1725
1 1726
1 1727
1 1728
1 1729
1 1730
1 1731
1 1732
1 1733
1 1734
1 1735
1 1736
1 1737
1 1738
1 1739
1 1740
1 1741
1 1742
1 1743
1 1744
1 1745
1 1746
1 1747
1 1748
1 1749
1 1750
1 1751
1 1752
1 1753
1 1754
1 1755
1 1756
1 1757
1 1758
1 1759
1 1760
1 1761
1 1762
1 1763
1 1764
1 1765
1 1766
1 1767
1 1768
1 1769
1 1770
1 1771
1 1772
1 1773
1 1774
1 1775
1 1776
1 1777
1 1778
1 1779
1 1780
1 1781
1 1782
1 1783
1 1784
1 1785
1 1786
1 1787
1 1788
1 1789
1 1790
1 1791
1 1792
1 1793
1 1794
1 1795
1 1796
1 1797
1 1798
1 1799
1 1800
1 1801
1 1802
1 1803
1 1804
1 1805
1 1806
1 1807
1 1808
1 1809
1 1810
1 1811
1 1812
1 1813
1 1814
1 1815
1 1816
1 1817
1 1818
1 1819
1 1820
1 1821
1 1822
1 1823
1 1824
1 1825
1 1826
1 1827
1 1828
1 1829
1 1830
1 1831
1 1832
1 1833
1 1834
1 1835
1 1836
1 1837
1 1838
1 1839
1 1840
1 1841
1 1842
1 1843
1 1844
1 1845
1 1846
1 1847
1 1848
1 1849
1 1850
1 1851
1 1852
1 1853
1 1854
1 1855
1 1856
1 1857
1 1858
1 1859
1 1860
1 1861
1 1862
1 1863
1 1864
1 1865
1 1866
1 1867
1 1868
1 1869
1 1870
1 1871
1 1872
1 1873
1 1874
1 1875
1 1876
1 1877
1 1878
1 1879
1 1880
1 1881
1 1882
1 1883
1 1884
1 1885
1 1886
1 1887
1 1888
1 1889
1 1890
1 1891
1 1892
1 1893
1 1894
1 1895
1 1896
1 1897
1 1898
1 1899
1 1900
1 1901
1 1902
1 1903
1 1904
1 1905
1 1906
1 1907
1 1908
1 1909
1 1910
1 1911
1 1912
1 1913
1 1914
1 1915
1 1916
1 1917
1 1918
1 1919
1 1920
1 1921
1 1922
1 1923
1 1924
1 1925
1 1926
1 1927
1 1928
1 1929
1 1930
1 1931
1 1932
1 1933
1 1934
1 1935
1 1936
1 1937
1 1938
1 1939
1 1940
1 1941
1 1942
1 1943
1 1944
1 1945
1 1946
1 1947
1 1948
1 1949
1 1950
1 1951
1 1952
1 1953
1 1954
1 1955
1 1956
1 1957
1 1958
1 1959
1 1960
1 1961
1 1962
1 1963
1 1964
1 1965
1 1966
1 1967
1 1968
1 1969
1 1970
1 1971
1 1972
1 1973
1 1974
1 1975
1 1976
1 1977
1 1978
1 1979
1 1980
1 1981
1 1982
1 1983
1 1984
1 1985
1 1986
1 1987
1 1988
1 1989
1 1990
1 1991
1 1992
1 1993
1 1994
1 1995
1 1996
1 1997
1 1998
1 1999
1 2000
1 2001
1 2002
1 2003
1 2004
1 2005
1 2006
1 2007
1 2008
1 2009
1 2010
1 2011
1 2012
1 2013
1 2014
1 2015
1 2016
1 2017
1 2018
1 2019
1 2020
1 2021
1 2022
1 2023
1 2024
1 2025
1 2026
1 2027
1 2028
1 2029
1 2030
1 2031
1 2032
1 2033
1 2034
1 2035
1 2036
1 2037
1 2038
1 2039
1 2040
1 2041
1 2042
1 2043
1 2044
1 2045
1 2046
1 2047
1 2048
1 2049
1 2050
1 2051
1 2052
1 2053
1 2054
1 2055
1 2056
1 2057
1 2058
1 2059
1 2060
1 2061
1 2062
1 2063
1 2064
1 2065
1 2066
1 2067
1 2068
1 2069
1 2070
1 2071
1 2072
1 2073
1 2074
1 2075
1 2076
1 2077
1 2078
1 2079
1 2080
1 2081
1 2082
1 2083
1 2084
1 2085
1 2086
1 2087
1 2088
1 2089
1 2090
1 2091
1 2092
1 2093
1 2094
1 2095
1 2096
1 2097
1 2098
1 2099
1 2100
1 2101
1 2102
1 2103
1 2104
1 2105
1 2106
1 2107
1 2108
1 2109
1 2110
1 2111
1 2112
1 2113
1 2114
1 2115
1 2116
1 2117
1 2118
1 2119
1 2120
1 2121
1 2122
1 2123
1 2124
1 2125
1 2126
1 2127
1 2128
1 2129
1 2130
1 2131
1 2132
1 2133
1 2134
1 2135
1 2136
1 2137
1 2138
1 2139
1 2140
1 2141
1 2142
1 2143
1 2144
1 2145
1 2146
1 2147
1 2148
1 2149
1 2150
1 2151
1 2152
1 2153
1 2154
1 2155
1 2156
1 2157
1 2158
1 2159
1 2160
1 2161
1 2162
1 2163
1 2164
1 2165
1 2166
1 2167
1 2168
1 2169
1 2170
1 2171
1 2172
1 2173
1 2174
1 2175
1 2176
1 2177
1 2178
1 2179
1 2180
1 2181
1 2182
1 2183
1 2184
1 2185
1 2186
1 2187
1 2188
1 2189
1 2190
1 2191
1 2192
1 2193
1 2194
1 2195
1 2196
1 2197
1 2198
1 2199
1 2200
1 2201
1 2202
1 2203
1 2204
1 2205
1 2206
1 2207
1 2208
1 2209
1 2210
1 2211
1 2212
1 2213
1 2214
1 2215
1 2216
1 2217
1 2218
1 2219
1 2220
1 2221
1 2222
1 2223
1 2224
1 2225
1 2226
1 2227
1 2228
1 2229
1 2230
1 2231
1 2232
1 2233
1 2234
1 2235
1 2236
1 2237
1 2238
1 2239
1 2240
1 2241
1 2242
1 2243
1 2244
1 2245
1 2246
1 2247
1 2248
1 2249
1 2250
1 2251
1 2252
1 2253
1 2254
1 2255
1 2256
1 2257
1 2258
1 2259
1 2260
1 2261
1 2262
1 2263
1 2264
1 2265
1 2266
1 2267
1 2268
1 2269
1 2270
1 2271
1 2272
1 2273
1 2274
1 2275
1 2276
1 2277
1 2278
1 2279
1 2280
1 2281
1 2282
1 2283
1 2284
1 2285
1 2286
1 2287
1 2288
1 2289
1 2290
1 2291
1 2292
1 2293
1 2294
1 2295
1 2296
1 2297
1 2298
1 2299
1 2300
1 2301
1 2302
1 2303
1 2304
1 2305
1 2306
1 2307
1 2308
1 2309
1 2310
1 2311
1 2312
1 2313
1 2314
1 2315
1 2316
1 2317
1 2318
1 2319
1 2320
1 2321
1 2322
1 2323
1 2324
1 2325
1 2326
1 2327
1 2328
1 2329
1 2330
1 2331
1 2332
1 2333
1 2334
1 2335
1 2336
1 2337
1 2338
1 2339
1 2340
1 2341
1 2342
1 2343
1 2344
1 2345
1 2346
1 2347
1 2348
1 2349
1 2350
1 2351
1 2352
1 2353
1 2354
1 2355
1 2356
1 2357
1 2358
1 2359
1 2360
1 2361
1 2362
1 2363
1 2364
1 2365
1 2366
1 2367
1 2368
1 2369
1 2370
1 2371
1 2372
1 2373
1 2374
1 2375
1 2376
1 2377
1 2378
1 2379
1 2380
1 2381
1 2382
1 2383
1 2384
1 2385
1 2386
1 2387
1 2388
1 2389
1 2390
1 2391
1 2392
1 2393
1 2394
1 2395
1 2396
1 2397
1 2398
1 2399
1 2400
1 2401
1 2402
1 2403
1 2404
1 2405
1 2406
1 2407
1 2408
1 2409
1 2410
1 2411
1 2412
1 2413
1 2414
1 2415
1 2416
1 2417
1 2418
1 2419
1 2420
1 2421
1 2422
1 2423
1 2424
1 2425
1 2426
1 2427
1 2428
1 2429
1 2430
1 2431
1 2432
1 2433
1 2434
1 2435
1 2436
1 2437
1 2438
1 2439
1 2440
1 2441
1 2442
1 2443
1 2444
1 2445
1 2446
1 2447
1 2448
1 2449
1 2450
1 2451
1 2452
1 2453
1 2454
1 2455
1 2456
1 2457
1 2458
1 2459
1 2460
1 2461
1 2462
1 2463
1 2464
1 2465
1 2466
1 2467
1 2468
1 2469
1 2470
1 2471
1 2472
1 2473
1 2474
1 2475
1 2476
1 2477
1 2478
1 2479
1 2480
1 2481
1 2482
1 2483
1 2484
1 2485
1 2486
1 2487
1 2488
1 2489
1 2490
1 2491
1 2492
1 2493
1 2494
1 2495
1 2496
1 2497
1 2498
1 2499
1 2500
1 2501
1 2502
1 2503
1 2504
1 2505
1 2506
1 2507
1 2508
1 2509
1 2510
1 2511
1 2512
1 2513
1 2514
1 2515
1 2516
1 2517
1 2518
1 2519
1 2520
1 2521
1 2522
1 2523
1 2524
1 2525
1 2526
1 2527
1 2528
1 2529
1 2530
1 2531
1 2532
1 2533
1 2534
1 2535
1 2536
1 2537
1 2538
1 2539
1 2540
1 2541
1 2542
1 2543
1 2544
1 2545
1 2546
1 2547
1 2548
1 2549
1 2550
1 2551
1 2552
1 2553
1 2554
1 2555
1 2556
1 2557
1 2558
1 2559
1 2560
1 2561
1 2562
1 2563
1 2564
1 2565
1 2566
1 2567
1 2568
1 2569
1 2570
1 2571
1 2572
1 2573
1 2574
1 2575
1 2576
1 2577
1 2578
1 2579
1 2580
1 2581
1 2582
1 2583
1 2584
1 2585
1 2586
1 2587
1 2588
1 2589
1 2590
1 2591
1 2592
1 2593
1 2594
1 2595
1 2596
1 2597
1 2598
1 2599
1 2600
1 2601
1 2602
1 2603
1 2604
1 2605
1 2606
1 2607
1 2608
1 2609
1 2610
1 2611
1 2612
1 2613
1 2614
1 2615
1 2616
1 2617
1 2618
1 2619
1 2620
1 2621
1 2622
1 2623
1 2624
1 2625
1 2626
1 2627
1 2628
1 2629
1 2630
1 2631
1 2632
1 2633
1 2634
1 2635
1 2636
1 2637
1 2638
1 2639
1 2640
1 2641
1 2642
1 2643
1 2644
1 2645
1 2646
1 2647
1 2648
1 2649
1 2650
1 2651
1 2652
1 2653
1 2654
1 2655
1 2656
1 2657
1 2658
1 2659
1 2660
1 2661
1 2662
1 2663
1 2664
1 2665
1 2666
1 2667
1 2668
1 2669
1 2670
1 2671
1 2672
1 2673
1 2674
1 2675
1 2676
1 2677
1 2678
1 2679
1 2680
1 2681
1 2682
1 2683
1 2684
1 2685
1 2686
1 2687
1 2688
1 2689
1 2690
1 2691
1 2692
1 2693
1 2694
1 2695
1 2696
1 2697
1 2698
1 2699
1 2700
1 2701
1 2702
1 2703
1 2704
1 2705
1 2706
1 2707
1 2708
1 2709
1 2710
1 2711
1 2712
1 2713
1 2714
1 2715
1 2716
1 2717
1 2718
1 2719
1 2720
1 2721
1 2722
1 2723
1 2724
1 2725
1 2726
1 2727
1 2728
1 2729
1 2730
1 2731
1 2732
1 2733
1 2734
1 2735
1 2736
1 2737
1 2738
1 2739
1 2740
1 2741
1 2742
1 2743
1 2744
1 2745
1 2746
1 2747
1 2748
1 2749
1 2750
1 2751
1 2752
1 2753
1 2754
1 2755
1 2756
1 2757
1 2758
1 2759
1 2760
1 2761
1 2762
1 2763
1 2764
1 2765
1 2766
1 2767
1 2768
1 2769
1 2770
1 2771
1 2772
1 2773
1 2774
1 2775
1 2776
1 2777
1 2778
1 2779
1 2780
1 2781
1 2782
1 2783
1 2784
1 2785
1 2786
1 2787
1 2788
1 2789
1 2790
1 2791
1 2792
1 2793
1 2794
1 2795
1 2796
1 2797
1 2798
1 2799
1 2800
1 2801
1 2802
1 2803
1 2804
1 2805
1 2806
1 2807
1 2808
1 2809
1 2810
1 2811
1 2812
1 2813
1 2814
1 2815
1 2816
1 2817
1 2818
1 2819
1 2820
1 2821
1 2822
1 2823
1 2824
1 2825
1 2826
1 2827
1 2828
1 2829
1 2830
1 2831
1 2832
1 2833
1 2834
1 2835
1 2836
1 2837
1 2838
1 2839
1 2840
1 2841
1 2842
1 2843
1 2844
1 2845
1 2846
1 2847
1 2848
1 2849
1 2850
1 2851
1 2852
1 2853
1 2854
1 2855
1 2856
1 2857
1 2858
1 2859
1 2860
1 2861
1 2862
1 2863
1 2864
1 2865
1 2866
1 2867
1 2868
1 2869
1 2870
1 2871
1 2872
1 2873
1 2874
1 2875
1 2876
1 2877
1 2878
1 2879
1 2880
1 2881
1 2882
1 2883
1 2884
1 2885
1 2886
1 2887
1 2888
1 2889
1 2890
1 2891
1 2892
1 2893
1 2894
1 2895
1 2896
1 2897
1 2898
1 2899
1 2900
1 2901
1 2902
1 2903
1 2904
1 2905
1 2906
1 2907
1 2908
1 2909
1 2910
1 2911
1 2912
1 2913
1 2914
1 2915
1 2916
1 2917
1 2918
1 2919
1 2920
1 2921
1 2922
1 2923
1 2924
1 2925
1 2926
1 2927
1 2928
1 2929
1 2930
1 2931
1 2932
1 2933
1 2934
1 2935
1 2936
1 2937
1 2938
1 2939
1 2940
1 2941
1 2942
1 2943
1 2944
1 2945
1 2946
1 2947
1 2948
1 2949
1 2950
1 2951
1 2952
1 2953
1 2954
1 2955
1 2956
1 2957
1 2958
1 2959
1 2960
1 2961
1 2962
1 2963
1 2964
1 2965
1 2966
1 2967
1 2968
1 2969
1 2970
1 2971
1 2972
1 2973
1 2974
1 2975
1 2976
1 2977
1 2978
1 2979
1 2980
1 2981
1 2982
1 2983
1 2984
1 2985
1 2986
1 2987
1 2988
1 2989
1 2990
1 2991
1 2992
1 2993
1 2994
1 2995
1 2996
1 2997
1 2998
1 2999
1 3000
1 3001
1 3002
1 3003
1 3004
1 3005
1 3006
1 3007
1 3008
1 3009
1 3010
1 3011
1 3012
1 3013
1 3014
1 3015
1 3016
1 3017
1 3018
1 3019
1 3020
1 3021
1 3022
1 3023
1 3024
1 3025
1 3026
1 3027
1 3028
1 3029
1 3030
1 3031
1 3032
1 3033
1 3034
1 3035
1 3036
1 3037
1 3038
1 3039
1 3040
1 3041
1 3042
1 3043
1 3044
1 3045
1 3046
1 3047
1 3048
1 3049
1 3050
1 3051
1 3052
1 3053
1 3054
1 3055
1 3056
1 3057
1 3058
1 3059
1 3060
1 3061
1 3062
1 3063
1 3064
1 3065
1 3066
1 3067
1 3068
1 3069
1 3070
1 3071
1 3072
1 3073
1 3074
1 3075
1 3076
1 3077
1 3078
1 3079
1 3080
1 3081
1 3082
1 3083
1 3084
1 3085
1 3086
1 3087
1 3088
1 3089
1 3090
1 3091
1 3092
1 3093
1 3094
1 3095
1 3096
1 3097
1 3098
1 3099
1 3100
1 3101
1 3102
1 3103
1 3104
1 3105
1 3106
1 3107
1 3108
1 3109
1 3110
1 3111
1 3112
1 3113
1 3114
1 3115
1 3116
1 3117
1 3118
1 3119
1 3120
1 3121
1 3122
1 3123
1 3124
1 3125
1 3126
1 3127
1 3128
1 3129
1 3130
1 3131
1 3132
1 3133
1 3134
1 3135
1 3136
1 3137
1 3138
1 3139
1 3140
1 3141
1 3142
1 3143
1 3144
1 3145
1 3146
1 3147
1 3148
1 3149
1 3150
1 3151
1 3152
1 3153
1 3154
1 3155
1 3156
1 3157
1 3158
1 3159
1 3160
1 3161
1 3162
1 3163
1 3164
1 3165
1 3166
1 3167
1 3168
1 3169
1 3170
1 3171
1 3172
1 3173
1 3174
1 3175
1 3176
1 3177
1 3178
1 3179
1 3180
1 3181
1 3182
1 3183
1 3184
1 3185
1 3186
1 3187
1 3188
1 3189
1 3190
1 3191
1 3192
1 3193
1 3194
1 3195
1 3196
1 3197
1 3198
1 3199
1 3200
1 3201
1 3202
1 3203
1 3204
1 3205
1 3206
1 3207
1 3208
1 3209
1 3210
1 3211
1 3212
1 3213
1 3214
1 3215
1 3216
1 3217
1 3218
1 3219
1 3220
1 3221
1 3222
1 3223
1 3224
1 3225
1 3226
1 3227
1 3228
1 3229
1 3230
1 3231
1 3232
1 3233
1 3234
1 3235
1 3236
1 3237
1 3238
1 3239
1 3240
1 3241
1 3242
1 3243
1 3244
1 3245
1 3246
1 3247
1 3248
1 3249
1 3250
1 3251
1 3252
1 3253
1 3254
1 3255
1 3256
1 3257
1 3258
1 3259
1 3260
1 3261
1 3262
1 3263
1 3264
1 3265
1 3266
1 3267
1 3268
1 3269
1 3270
1 3271
1 3272
1 3273
1 3274
1 3275
1 3276
1 3277
1 3278
1 3279
1 3280
1 3281
1 3282
1 3283
1 3284
1 3285
1 3286
1 3287
1 3288
1 3289
1 3290
1 3291
1 3292
1 3293
1 3294
1 3295
1 3296
1 3297
1 3298
1 3299
1 3300
1 3301
1 3302
1 3303
1 3304
1 3305
1 3306
1 3307
1 3308
1 3309
1 3310
1 3311
1 3312
1 3313
1 3314
1 3315
1 3316
1 3317
1 3318
1 3319
1 3320
1 3321
1 3322
1 3323
1 3324
1 3325
1 3326
1 3327
1 3328
1 3329
1 3330
1 3331
1 3332
1 3333
1 3334
1 3335
1 3336
1 3337
1 3338
1 3339
1 3340
1 3341
1 3342
1 3343
1 3344
1 3345
1 3346
1 3347
1 3348
1 3349
1 3350
1 3351
1 3352
1 3353
1 3354
1 3355
1 3356
1 3357
1 3358
1 3359
1 3360
1 3361
1 3362
1 3363
1 3364
1 3365
1 3366
1 3367
1 3368
1 3369
1 3370
1 3371
1 3372
1 3373
1 3374
1 3375
1 3376
1 3377
1 3378
1 3379
1 3380
1 3381
1 3382
1 3383
1 3384
1 3385
1 3386
1 3387
1 3388
1 3389
1 3390
1 3391
1 3392
1 3393
1 3394
1 3395
1 3396
1 3397
1 3398
1 3399
1 3400
1 3401
1 3402
1 3403
1 3404
1 3405
1 3406
1 3407
1 3408
1 3409
1 3410
1 3411
1 3412
1 3413
1 3414
1 3415
1 3416
1 3417
1 3418
1 3419
1 3420
1 3421
1 3422
1 3423
1 3424
1 3425
1 3426
1 3427
1 3428
1 3429
1 3430
1 3431
1 3432
1 3433
1 3434
1 3435
1 3436
1 3437
1 3438
1 3439
1 3440
1 3441
1 3442
1 3443
1 3444
1 3445
1 3446
1 3447
1 3448
1 3449
1 3450
1 3451
1 3452
1 3453
1 3454
1 3455
1 3456
1 3457
1 3458
1 3459
1 3460
1 3461
1 3462
1 3463
1 3464
1 3465
1 3466
1 3467
1 3468
1 3469
1 3470
1 3471
1 3472
1 3473
1 3474
1 3475
1 3476
1 3477
1 3478
1 3479
1 3480
1 3481
1 3482
1 3483
1 3484
1 3485
1 3486
1 3487
1 3488
1 3489
1 3490
1 3491
1 3492
1 3493
1 3494
1 3495
1 3496
1 3497
1 3498
1 3499
1 3500
1 3501
1 3502
1 3503
1 3504
1 3505
1 3506
1 3507
1 3508
1 3509
1 3510
1 3511
1 3512
1 3513
1 3514
1 3515
1 3516
1 3517
1 3518
1 3519
1 3520
1 3521
1 3522
1 3523
1 3524
1 3525
1 3526
1 3527
1 3528
1 3529
1 3530
1 3531
1 3532
1 3533
1 3534
1 3535
1 3536
1 3537
1 3538
1 3539
1 3540
1 3541
1 3542
1 3543
1 3544
1 3545
1 3546
1 3547
1 3548
1 3549
1 3550
1 3551
1 3552
1 3553
1 3554
1 3555
1 3556
1 3557
1 3558
1 3559
1 3560
1 3561
1 3562
1 3563
1 3564
1 3565
1 3566
1 3567
1 3568
1 3569
1 3570
1 3571
1 3572
1 3573
1 3574
1 3575
1 3576
1 3577
1 3578
1 3579
1 3580
1 3581
1 3582
1 3583
1 3584
1 3585
1 3586
1 3587
1 3588
1 3589
1 3590
1 3591
1 3592
1 3593
1 3594
1 3595
1 3596
1 3597
1 3598
1 3599
1 3600
1 3601
1 3602
1 3603
1 3604
1 3605
1 3606
1 3607
1 3608
1 3609
1 3610
1 3611
1 3612
1 3613
1 3614
1 3615
1 3616
1 3617
1 3618
1 3619
1 3620
1 3621
1 3622
1 3623
1 3624
1 3625
1 3626
1 3627
1 3628
1 3629
1 3630
1 3631
1 3632
1 3633
1 3634
1 3635
1 3636
1 3637
1 3638
1 3639
1 3640
1 3641
1 3642
1 3643
1 3644
1 3645
1 3646
1 3647
1 3648
1 3649
1 3650
1 3651
1 3652
1 3653
1 3654
1 3655
1 3656
1 3657
1 3658
1 3659
1 3660
1 3661
1 3662
1 3663
1 3664
1 3665
1 3666
1 3667
1 3668
1 3669
1 3670
1 3671
1 3672
1 3673
1 3674
1 3675
1 3676
1 3677
1 3678
1 3679
1 3680
1 3681
1 3682
1 3683
1 3684
1 3685
1 3686
1 3687
1 3688
1 3689
1 3690
1 3691
1 3692
1 3693
1 3694
1 3695
1 3696
1 3697
1 3698
1 3699
1 3700
1 3701
1 3702
1 3703
1 3704
1 3705
1 3706
1 3707
1 3708
1 3709
1 3710
1 3711
1 3712
1 3713
1 3714
1 3715
1 3716
1 3717
1 3718
1 3719
1 3720
1 3721
1 3722
1 3723
1 3724
1 3725
1 3726
1 3727
1 3728
1 3729
1 3730
1 3731
1 3732
1 3733
1 3734
1 3735
1 3736
1 3737
1 3738
1 3739
1 3740
1 3741
1 3742
1 3743
1 3744
1 3745
1 3746
1 3747
1 3748
1 3749
1 3750
1 3751
1 3752
1 3753
1 3754
1 3755
1 3756
1 3757
1 3758
1 3759
1 3760
1 3761
1 3762
1 3763
1 3764
1 3765
1 3766
1 3767
1 3768
1 3769
1 3770
1 3771
1 3772
1 3773
1 3774
1 3775
1 3776
1 3777
1 3778
1 3779
1 3780
1 3781
1 3782
1 3783
1 3784
1 3785
1 3786
1 3787
1 3788
1 3789
1 3790
1 3791
1 3792
1 3793
1 3794
1 3795
1 3796
1 3797
1 3798
1 3799
1 3800
1 3801
1 3802
1 3803
1 3804
1 3805
1 3806
1 3807
1 3808
1 3809
1 3810
1 3811
1 3812
1 3813
1 3814
1 3815
1 3816
1 3817
1 3818
1 3819
1 3820
1 3821
1 3822
1 3823
1 3824
1 3825
1 3826
1 3827
1 3828
1 3829
1 3830
1 3831
1 3832
1 3833
1 3834
1 3835
1 3836
1 3837
1 3838
1 3839
1 3840
1 3841
1 3842
1 3843
1 3844
1 3845
1 3846
1 3847
1 3848
1 3849
1 3850
1 3851
1 3852
1 3853
1 3854
1 3855
1 3856
1 3857
1 3858
1 3859
1 3860
1 3861
1 3862
1 3863
1 3864
1 3865
1 3866
1 3867
1 3868
1 3869
1 3870
1 3871
1 3872
1 3873
1 3874
1 3875
1 3876
1 3877
1 3878
1 3879
1 3880
1 3881
1 3882
1 3883
1 3884
1 3885
1 3886
1 3887
1 3888
1 3889
1 3890
1 3891
1 3892
1 3893
1 3894
1 3895
1 3896
1 3897
1 3898
1 3899
1 3900
1 3901
1 3902
1 3903
1 3904
1 3905
1 3906
1 3907
1 3908
1 3909
1 3910
1 3911
1 3912
1 3913
1 3914
1 3915
1 3916
1 3917
1 3918
1 3919
1 3920
1 3921
1 3922
1 3923
1 3924
1 3925
1 3926
1 3927
1 3928
1 3929
1 3930
1 3931
1 3932
1 3933
1 3934
1 3935
1 3936
1 3937
1 3938
1 3939
1 3940
1 3941
1 3942
1 3943
1 3944
1 3945
1 3946
1 3947
1 3948
1 3949
1 3950
1 3951
1 3952
1 3953
1 3954
1 3955
1 3956
1 3957
1 3958
1 3959
1 3960
1 3961
1 3962
1 3963
1 3964
1 3965
1 3966
1 3967
1 3968
1 3969
1 3970
1 3971
1 3972
1 3973
1 3974
1 3975
1 3976
1 3977
1 3978
1 3979
1 3980
1 3981
1 3982
1 3983
1 3984
1 3985
1 3986
1 3987
1 3988
1 3989
1 3990
1 3991
1 3992
1 3993
1 3994
1 3995
1 3996
1 3997
1 3998
1 3999
1 4000
1 4001
1 4002
1 4003
1 4004
1 4005
1 4006
1 4007
1 4008
1 4009
1 4010
1 4011
1 4012
1 4013
1 4014
1 4015
1 4016
1 4017
1 4018
1 4019
1 4020
1 4021
1 4022
1 4023
1 4024
1 4025
1 4026
1 4027
1 4028
1 4029
1 4030
1 4031
1 4032
1 4033
1 4034
1 4035
1 4036
1 4037
1 4038
1 4039
1 4040
1 4041
1 4042
1 4043
1 4044
1 4045
1 4046
1 4047
1 4048
1 4049
1 4050
1 4051
1 4052
1 4053
1 4054
1 4055
1 4056
1 4057
1 4058
1 4059
1 4060
1 4061
1 4062
1 4063
1 4064
1 4065
1 4066
1 4067
1 4068
1 4069
1 4070
1 4071
1 4072
1 4073
1 4074
1 4075
1 4076
1 4077
1 4078
1 4079
1 4080
1 4081
1 4082
1 4083
1 4084
1 4085
1 4086
1 4087
1 4088
1 4089
1 4090
1 4091
1 4092
1 4093
1 4094
1 4095
1 4096
1 4097
1 4098
1 4099
1 4100
1 4101
1 4102
1 4103
1 4104
1 4105
1 4106
1 4107
1 4108
1 4109
1 4110
1 4111
1 4112
1 4113
1 4114
1 4115
1 4116
1 4117
1 4118
1 4119
1 4120
1 4121
1 4122
1 4123
1 4124
1 4125
1 4126
1 4127
1 4128
1 4129
1 4130
1 4131
1 4132
1 4133
1 4134
1 4135
1 4136
1 4137
1 4138
1 4139
1 4140
1 4141
1 4142
1 4143
1 4144
1 4145
1 4146
1 4147
1 4148
1 4149
1 4150
1 4151
1 4152
1 4153
1 4154
1 4155
1 4156
1 4157
1 4158
1 4159
1 4160
1 4161
1 4162
1 4163
1 4164
1 4165
1 4166
1 4167
1 4168
1 4169
1 4170
1 4171
1 4172
1 4173
1 4174
1 4175
1 4176
1 4177
1 4178
1 4179
1 4180
1 4181
1 4182
1 4183
1 4184
1 4185
1 4186
1 4187
1 4188
1 4189
1 4190
1 4191
1 4192
1 4193
1 4194
1 4195
1 4196
1 4197
1 4198
1 4199
1 4200
1 4201
1 4202
1 4203
1 4204
1 4205
1 4206
1 4207
1 4208
1 4209
1 4210
1 4211
1 4212
1 4213
1 4214
1 4215
1 4216
1 4217
1 4218
1 4219
1 4220
1 4221
1 4222
1 4223
1 4224
1 4225
1 4226
1 4227
1 4228
1 4229
1 4230
1 4231
1 4232
1 4233
1 4234
1 4235
1 4236
1 4237
1 4238
1 4239
1 4240
1 4241
1 4242
1 4243
1 4244
1 4245
1 4246
1 4247
1 4248
1 4249
1 4250
1 4251
1 4252
1 4253
1 4254
1 4255
1 4256
1 4257
1 4258
1 4259
1 4260
1 4261
1 4262
1 4263
1 4264
1 4265
1 4266
1 4267
1 4268
1 4269
1 4270
1 4271
1 4272
1 4273
1 4274
1 4275
1 4276
1 4277
1 4278
1 4279
1 4280
1 4281
1 4282
1 4283
1 4284
1 4285
1 4286
1 4287
1 4288
1 4289
1 4290
1 4291
1 4292
1 4293
1 4294
1 4295
1 4296
1 4297
1 4298
1 4299
1 4300
1 4301
1 4302
1 4303
1 4304
1 4305
1 4306
1 4307
1 4308
1 4309
1 4310
1 4311
1 4312
1 4313
1 4314
1 4315
1 4316
1 4317
1 4318
1 4319
1 4320
1 4321
1 4322
1 4323
1 4324
1 4325
1 4326
1 4327
1 4328
1 4329
1 4330
1 4331
1 4332
1 4333
1 4334
1 4335
1 4336
1 4337
1 4338
1 4339
1 4340
1 4341
1 4342
1 4343
1 4344
1 4345
1 4346
1 4347
1 4348
1 4349
1 4350
1 4351
1 4352
1 4353
1 4354
1 4355
1 4356
1 4357
1 4358
1 4359
1 4360
1 4361
1 4362
1 4363
1 4364
1 4365
1 4366
1 4367
1 4368
1 4369
1 4370
1 4371
1 4372
1 4373
1 4374
1 4375
1 4376
1 4377
1 4378
1 4379
1 4380
1 4381
1 4382
1 4383
1 4384
1 4385
1 4386
1 4387
1 4388
1 4389
1 4390
1 4391
1 4392
1 4393
1 4394
1 4395
1 4396
1 4397
1 4398
1 4399
1 4400
1 4401
1 4402
1 4403
1 4404
1 4405
1 4406
1 4407
1 4408
1 4409
1 4410
1 4411
1 4412
1 4413
1 4414
1 4415
1 4416
1 4417
1 4418
1 4419
1 4420
1 4421
1 4422
1 4423
1 4424
1 4425
1 4426
1 4427
1 4428
1 4429
1 4430
1 4431
1 4432
1 4433
1 4434
1 4435
1 4436
1 4437
1 4438
1 4439
1 4440
1 4441
1 4442
1 4443
1 4444
1 4445
1 4446
1 4447
1 4448
1 4449
1 4450
1 4451
1 4452
1 4453
1 4454
1 4455
1 4456
1 4457
1 4458
1 4459
1 4460
1 4461
1 4462
1 4463
1 4464
1 4465
1 4466
1 4467
1 4468
1 4469
1 4470
1 4471
1 4472
1 4473
1 4474
1 4475
1 4476
1 4477
1 4478
1 4479
1 4480
1 4481
1 4482
1 4483
1 4484
1 4485
1 4486
1 4487
1 4488
1 4489
1 4490
1 4491
1 4492
1 4493
1 4494
1 4495
1 4496
1 4497
1 4498
1 4499
1 4500
1 4501
1 4502
1 4503
1 4504
1 4505
1 4506
1 4507
1 4508
1 4509
1 4510
1 4511
1 4512
1 4513
1 4514
1 4515
1 4516
1 4517
1 4518
1 4519
1 4520
1 4521
1 4522
1 4523
1 4524
1 4525
1 4526
1 4527
1 4528
1 4529
1 4530
1 4531
1 4532
1 4533
1 4534
1 4535
1 4536
1 4537
1 4538
1 4539
1 4540
1 4541
1 4542
1 4543
1 4544
1 4545
1 4546
1 4547
1 4548
1 4549
1 4550
1 4551
1 4552
1 4553
1 4554
1 4555
1 4556
1 4557
1 4558
1 4559
1 4560
1 4561
1 4562
1 4563
1 4564
1 4565
1 4566
1 4567
1 4568
1 4569
1 4570
1 4571
1 4572
1 4573
1 4574
1 4575
1 4576
1 4577
1 4578
1 4579
1 4580
1 4581
1 4582
1 4583
1 4584
1 4585
1 4586
1 4587
1 4588
1 4589
1 4590
1 4591
1 4592
1 4593
1 4594
1 4595
1 4596
1 4597
1 4598
1 4599
1 4600
1 4601
1 4602
1 4603
1 4604
1 4605
1 4606
1 4607
1 4608
1 4609
1 4610
1 4611
1 4612
1 4613
1 4614
1 4615
1 4616
1 4617
1 4618
1 4619
1 4620
1 4621
1 4622
1 4623
1 4624
1 4625
1 4626
1 4627
1 4628
1 4629
1 4630
1 4631
1 4632
1 4633
1 4634
1 4635
1 4636
1 4637
1 4638
1 4639
1 4640
1 4641
1 4642
1 4643
1 4644
1 4645
1 4646
1 4647
1 4648
1 4649
1 4650
1 4651
1 4652
1 4653
1 4654
1 4655
1 4656
1 4657
1 4658
1 4659
1 4660
1 4661
1 4662
1 4663
1 4664
1 4665
1 4666
1 4667
1 4668
1 4669
1 4670
1 4671
1 4672
1 4673
1 4674
1 4675
1 4676
1 4677
1 4678
1 4679
1 4680
1 4681
1 4682
1 4683
1 4684
1 4685
1 4686
1 4687
1 4688
1 4689
1 4690
1 4691
1 4692
1 4693
1 4694
1 4695
1 4696
1 4697
1 4698
1 4699
1 4700
1 4701
1 4702
1 4703
1 4704
1 4705
1 4706
1 4707
1 4708
1 4709
1 4710
1 4711
1 4712
1 4713
1 4714
1 4715
1 4716
1 4717
1 4718
1 4719
1 4720
1 4721
1 4722
1 4723
1 4724
1 4725
1 4726
1 4727
1 4728
1 4729
1 4730
1 4731
1 4732
1 4733
1 4734
1 4735
1 4736
1 4737
1 4738
1 4739
1 4740
1 4741
1 4742
1 4743
1 4744
1 4745
1 4746
1 4747
1 4748
1 4749
1 4750
1 4751
1 4752
1 4753
1 4754
1 4755
1 4756
1 4757
1 4758
1 4759
1 4760
1 4761
1 4762
1 4763
1 4764
1 4765
1 4766
1 4767
1 4768
1 4769
1 4770
1 4771
1 4772
1 4773
1 4774
1 4775
1 4776
1 4777
1 4778
1 4779
1 4780
1 4781
1 4782
1 4783
1 4784
1 4785
1 4786
1 4787
1 4788
1 4789
1 4790
1 4791
1 4792
1 4793
1 4794
1 4795
1 4796
1 4797
1 4798
1 4799
1 4800
1 4801
1 4802
1 4803
1 4804
1 4805
1 4806
1 4807
1 4808
1 4809
1 4810
1 4811
1 4812
1 4813
1 4814
1 4815
1 4816
1 4817
1 4818
1 4819
1 4820
1 4821
1 4822
1 4823
1 4824
1 4825
1 4826
1 4827
1 4828
1 4829
1 4830
1 4831
1 4832
1 4833
1 4834
1 4835
1 4836
1 4837
1 4838
1 4839
1 4840
1 4841
1 4842
1 4843
1 4844
1 4845
1 4846
1 4847
1 4848
1 4849
1 4850
1 4851
1 4852
1 4853
1 4854
1 4855
1 4856
1 4857
1 4858
1 4859
1 4860
1 4861
1 4862
1 4863
1 4864
1 4865
1 4866
1 4867
1 4868
1 4869
1 4870
1 4871
1 4872
1 4873
1 4874
1 4875
1 4876
1 4877
1 4878
1 4879
1 4880
1 4881
1 4882
1 4883
1 4884
1 4885
1 4886
1 4887
1 4888
1 4889
1 4890
1 4891
1 4892
1 4893
1 4894
1 4895
1 4896
1 4897
1 4898
1 4899
1 4900
1 4901
1 4902
1 4903
1 4904
1 4905
1 4906
1 4907
1 4908
1 4909
1 4910
1 4911
1 4912
1 4913
1 4914
1 4915
1 4916
1 4917
1 4918
1 4919
1 4920
1 4921
1 4922
1 4923
1 4924
1 4925
1 4926
1 4927
1 4928
1 4929
1 4930
1 4931
1 4932
1 4933
1 4934
1 4935
1 4936
1 4937
1 4938
1 4939
1 4940
1 4941
1 4942
1 4943
1 4944
1 4945
1 4946
1 4947
1 4948
1 4949
1 4950
1 4951
1 4952
1 4953
1 4954
1 4955
1 4956
1 4957
1 4958
1 4959
1 4960
1 4961
1 4962
1 4963
1 4964
1 4965
1 4966
1 4967
1 4968
1 4969
1 4970
1 4971
1 4972
1 4973
1 4974
1 4975
1 4976
1 4977
1 4978
1 4979
1 4980
1 4981
1 4982
1 4983
1 4984
1 4985
1 4986
1 4987
1 4988
1 4989
1 4990
1 4991
1 4992
1 4993
1 4994
1 4995
1 4996
1 4997
1 4998
1 4999
CELL_TYPES 5000
1 
1 
1 
1 
1 
1 
1 
1 
1 
1 
1 
1 
1 
1 
1 
1 
1 
1 
1 
1 
1 
1 
1 
1 
1 
1 
1 
1 
1 
1 
1 
1 
1 
1 
1 
1 
1 
1 
1 
1 
1 
1 
1 
1 
1 
1 
1 
1 
1 
1 
1 
1 
1 
1 
1 
1 
1 
1 
1 
1 
1 
1 
1 
1 
1 
1 
1 
1 
1 
1 
1 
1 
1 
1 
1 
1 
1 
1 
1 
1 
1 
1 
1 
1 
1 
1 
1 
1 
1 
1 
1 
1 
1 
1 
1 
1 
1 
1 
1 
1 
1 
1 
1 
1 
1 
1 
1 
1 
1 
1 
1 
1 
1 
1 
1 
1 
1 
1 
1 
1 
1 
1 
1 
1 
1 
1 
1 
1 
1 
1 
1 
1 
1 
1 
1 
1 
1 
1 
1 
1 
1 
1 
1 
1 
1 
1 
1 
1 
1 
1 
1 
1 
1 
1 
1 
1 
1 
1 
1 
1 
1 
1 
1 
1 
1 
1 
1 
1 
1 
1 
1 
1 
1 
1 
1 
1 
1 
1 
1 
1 
1 
1 
1 
1 
1 
1 
1 
1 
1 
1 
1 
1 
1 
1 
1 
1 
1 
1 
1 
1 
1 
1 
1 
1 
1 
1 
1 
1 
1 
1 
1 
1 
1 
1 
1 
1 
1 
1 
1 
1 
1 
1 
1 
1 
1 
1 
1 
1 
1 
1 
1 
1 
1 
1 
1 
1 
1 
1 
1 
1 
1 
1 
1 
1 
1 
1 
1 
1 
1 
1 
1 
1 
1 
1 
1 
1 
1 
1 
1 
1 
1 
1 
1 
1 
1 
1 
1 
1 
1 
1 
1 
1 
1 
1 
1 
1 
1 
1 
1 
1 
1 
1 
1 
1 
1 
1 
1 
1 
1 
1 
1 
1 
1 
1 
1 
1 
1 
1 
1 
1 
1 
1 
1 
1 
1 
1 
1 
1 
1 
1 
1 
1 
1 
1 
1 
1 
1 
1 
1 
1 
1 
1 
1 
1 
1 
1 
1 
1 
1 
1 
1 
1 
1 
1 
1 
1 
1 
1 
1 
1 
1 
1 
1 
1 
1 
1 
1 
1 
1 
1 
1 
1 
1 
1 
1 
1 
1 
1 
1 
1 
1 
1 
1 
1 
1 
1 
1 
1 
1 
1 
1 
1 
1 
1 
1 
1 
1 
1 
1 
1 
1 
1 
1 
1 
1 
1 
1 
1 
1 
1 
1 
1 
1 
1 
1 
1 
1 
1 
1 
1 
1 
1 
1 
1 
1 
1 
1 
1 
1 
1 
1 
1 
1 
1 
1 
1 
1 
1 
1 
1 
1 
1 
1 
1 
1 
1 
1 
1 
1 
1 
1 
1 
1 
1 
1 
1 
1 
1 
1 
1 
1 
1 
1 
1 
1 
1 
1 
1 
1 
1 
1 
1 
1 
1 
1 
1 
1 
1 
1 
1 
1 
1 
1 
1 
1 
1 
1 
1 
1 
1 
1 
1 
1 
1 
1 
1 
1 
1 
1 
1 
1 
1 
1 
1 
1 
1 
1 
1 
1 
1 
1 
1 
1 
1 
1 
1 
1 
1 
1 
1 
1 
1 
1 
1 
1 
1 
1 
1 
1 
1 
1 
1 
1 
1 
1 
1 
1 
1 
1 
1 
1 
1 
1 
1 
1 
1 
1 
1 
1 
1 
1 
1 
1 
1 
1 
1 
1 
1 
1 
1 
1 
1 
1 
1 
1 
1 
1 
1 
1 
1 
1 
1 
1 
1 
1 
1 
1 
1 
1 
1 
1 
1 
1 
1 
1 
1 
1 
1 
1 
1 
1 
1 
1 
1 
1 
1 
1 
1 
1 
1 
1 
1 
1 
1 
1 
1 
1 
1 
1 
1 
1 
1 
1 
1 
1 
1 
1 
1 
1 
1 
1 
1 
1 
1 
1 
1 
1 
1 
1 
1 
1 
1 
1 
1 
1 
1 
1 
1 
1 
1 
1 
1 
1 
1 
1 
1 
1 
1 
1 
1 
1 
1 
1 
1 
1 
1 
1 
1 
1 
1 
1 
1 
1 
1 
1 
1 
1 
1 
1 
1 
1 
1 
1 
1 
1 
1 
1 
1 
1 
1 
1 
1 
1 
1 
1 
1 
1 
1 
1 
1 
1 
1 
1 
1 
1 
1 
1 
1 
1 
1 
1 
1 
1 
1 
1 
1 
1 
1 
1 
1 
1 
1 
1 
1 
1 
1 
1 
1 
1 
1 
1 
1 
1 
1 
1 
1 
1 
1 
1 
1 
1 
1 
1 
1 
1 
1 
1 
1 
1 
1 
1 
1 
1 
1 
1 
1 
1 
1 
1 
1 
1 
1 
1 
1 
1 
1 
1 
1 
1 
1 
1 
1 
1 
1 
1 
1 
1 
1 
1 
1 
1 
1 
1 
1 
1 
1 
1 
1 
1 
1 
1 
1 
1 
1 
1 
1 
1 
1 
1 
1 
1 
1 
1 
1 
1 
1 
1 
1 
1 
1 
1 
1 
1 
1 
1 
1 
1 
1 
1 
1 
1 
1 
1 
1 
1 
1 
1 
1 
1 
1 
1 
1 
1 
1 
1 
1 
1 
1 
1 
1 
1 
1 
1 
1 
1 
1 
1 
1 
1 
1 
1 
1 
1 
1 
1 
1 
1 
1 
1 
1 
1 
1 
1 
1 
1 
1 
1 
1 
1 
1 
1 
1 
1 
1 
1 
1 
1 
1 
1 
1 
1 
1 
1 
1 
1 
1 
1 
1 
1 
1 
1 
1 
1 
1 
1 
1 
1 
1 
1 
1 
1 
1 
1 
1 
1 
1 
1 
1 
1 
1 
1 
1 
1 
1 
1 
1 
1 
1 
1 
1 
1 
1 
1 
1 
1 
1 
1 
1 
1 
1 
1 
1 
1 
1 
1 
1 
1 
1 
1 
1 
1 
1 
1 
1 
1 
1 
1 
1 
1 
1 
1 
1 
1 
1 
1 
1 
1 
1 
1 
1 
1 
1 
1 
1 
1 
1 
1 
1 
1 
1 
1 
1 
1 
1 
1 
1 
1 
1 
1 
1 
1 
1 
1 
1 
1 
1 
1 
1 
1 
1 
1 
1 
1 
1 
1 
1 
1 
1 
1 
1 
1 
1 
1 
1 
1 
1 
1 
1 
1 
1 
1 
1 
1 
1 
1 
1 
1 
1 
1 
1 
1 
1 
1 
1 
1 
1 
1 
1 
1 
1 
1 
1 
1 
1 
1 
1 
1 
1 
1 
1 
1 
1 
1 
1 
1 
1 
1 
1 
1 
1 
1 
1 
1 
1 
1 
1 
1 
1 
1 
1 
1 
1 
1 
1 
1 
1 
1 
1 
1 
1 
1 
1 
1 
1 
1 
1 
1 
1 
1 
1 
1 
1 
1 
1 
1 
1 
1 
1 
1 
1 
1 
1 
1 
1 
1 
1 
1 
1 
1 
1 
1 
1 
1 
1 
1 
1 
1 
1 
1 
1 
1 
1 
1 
1 
1 
1 
1 
1 
1 
1 
1 
1 
1 
1 
1 
1 
1 
1 
1 
1 
1 
1 
1 
1 
1 
1 
1 
1 
1 
1 
1 
1 
1 
1 
1 
1 
1 
1 
1 
1 
1 
1 
1 
1 
1 
1 
1 
1 
1 
1 
1 
1 
1 
1 
1 
1 
1 
1 
1 
1 
1 
1 
1 
1 
1 
1 
1 
1 
1 
1 
1 
1 
1 
1 
1 
1 
1 
1 
1 
1 
1 
1 
1 
1 
1 
1 
1 
1 
1 
1 
1 
1 
1 
1 
1 
1 
1 
1 
1 
1 
1 
1 
1 
1 
1 
1 
1 
1 
1 
1 
1 
1 
1 
1 
1 
1 
1 
1 
1 
1 
1 
1 
1 
1 
1 
1 
1 
1 
1 
1 
1 
1 
1 
1 
1 
1 
1 
1 
1 
1 
1 
1 
1 
1 
1 
1 
1 
1 
1 
1 
1 
1 
1 
1 
1 
1 
1 
1 
1 
1 
1 
1 
1 
1 
1 
1 
1 
1 
1 
1 
1 
1 
1 
1 
1 
1 
1 
1 
1 
1 
1 
1 
1 
1 
1 
1 
1 
1 
1 
1 
1 
1 
1 
1 
1 
1 
1 
1 
1 
1 
1 
1 
1 
1 
1 
1 
1 
1 
1 
1 
1 
1 
1 
1 
1 
1 
1 
1 
1 
1 
1 
1 
1 
1 
1 
1 
1 
1 
1 
1 
1 
1 
1 
1 
1 
1 
1 
1 
1 
1 
1 
1 
1 
1 
1 
1 
1 
1 
1 
1 
1 
1 
1 
1 
1 
1 
1 
1 
1 
1 
1 
1 
1 
1 
1 
1 
1 
1 
1 
1 
1 
1 
1 
1 
1 
1 
1 
1 
1 
1 
1 
1 
1 
1 
1 
1 
1 
1 
1 
1 
1 
1 
1 
1 
1 
1 
1 
1 
1 
1 
1 
1 
1 
1 
1 
1 
1 
1 
1 
1 
1 
1 
1 
1 
1 
1 
1 
1 
1 
1 
1 
1 
1 
1 
1 
1 
1 
1 
1 
1 
1 
1 
1 
1 
1 
1 
1 
1 
1 
1 
1 
1 
1 
1 
1 
1 
1 
1 
1 
1 
1 
1 
1 
1 
1 
1 
1 
1 
1 
1 
1 
1 
1 
1 
1 
1 
1 
1 
1 
1 
1 
1 
1 
1 
1 
1 
1 
1 
1 
1 
1 
1 
1 
1 
1 
1 
1 
1 
1 
1 
1 
1 
1 
1 
1 
1 
1 
1 
1 
1 
1 
1 
1 
1 
1 
1 
1 
1 
1 
1 
1 
1 
1 
1 
1 
1 
1 
1 
1 
1 
1 
1 
1 
1 
1 
1 
1 
1 
1 
1 
1 
1 
1 
1 
1 
1 
1 
1 
1 
1 
1 
1 
1 
1 
1 
1 
1 
1 
1 
1 
1 
1 
1 
1 
1 
1 
1 
1 
1 
1 
1 
1 
1 
1 
1 
1 
1 
1 
1 
1 
1 
1 
1 
1 
1 
1 
1 
1 
1 
1 
1 
1 
1 
1 
1 
1 
1 
1 
1 
1 
1 
1 
1 
1 
1 
1 
1 
1 
1 
1 
1 
1 
1 
1 
1 
1 
1 
1 
1 
1 
1 
1 
1 
1 
1 
1 
1 
1 
1 
1 
1 
1 
1 
1 
1 
1 
1 
1 
1 
1 
1 
1 
1 
1 
1 
1 
1 
1 
1 
1 
1 
1 
1 
1 
1 
1 
1 
1 
1 
1 
1 
1 
1 
1 
1 
1 
1 
1 
1 
1 
1 
1 
1 
1 
1 
1 
1 
1 
1 
1 
1 
1 
1 
1 
1 
1 
1 
1 
1 
1 
1 
1 
1 
1 
1 
1 
1 
1 
1 
1 
1 
1 
1 
1 
1 
1 
1 
1 
1 
1 
1 
1 
1 
1 
1 
1 
1 
1 
1 
1 
1 
1 
1 
1 
1 
1 
1 
1 
1 
1 
1 
1 
1 
1 
1 
1 
1 
1 
1 
1 
1 
1 
1 
1 
1 
1 
1 
1 
1 
1 
1 
1 
1 
1 
1 
1 
1 
1 
1 
1 
1 
1 
1 
1 
1 
1 
1 
1 
1 
1 
1 
1 
1 
1 
1 
1 
1 
1 
1 
1 
1 
1 
1 
1 
1 
1 
1 
1 
1 
1 
1 
1 
1 
1 
1 
1 
1 
1 
1 
1 
1 
1 
1 
1 
1 
1 
1 
1 
1 
1 
1 
1 
1 
1 
1 
1 
1 
1 
1 
1 
1 
1 
1 
1 
1 
1 
1 
1 
1 
1 
1 
1 
1 
1 
1 
1 
1 
1 
1 
1 
1 
1 
1 
1 
1 
1 
1 
1 
1 
1 
1 
1 
1 
1 
1 
1 
1 
1 
1 
1 
1 
1 
1 
1 
1 
1 
1 
1 
1 
1 
1 
1 
1 
1 
1 
1 
1 
1 
1 
1 
1 
1 
1 
1 
1 
1 
1 
1 
1 
1 
1 
1 
1 
1 
1 
1 
1 
1 
1 
1 
1 
1 
1 
1 
1 
1 
1 
1 
1 
1 
1 
1 
1 
1 
1 
1 
1 
1 
1 
1 
1 
1 
1 
1 
1 
1 
1 
1 
1 
1 
1 
1 
1 
1 
1 
1 
1 
1 
1 
1 
1 
1 
1 
1 
1 
1 
1 
1 
1 
1 
1 
1 
1 
1 
1 
1 
1 
1 
1 
1 
1 
1 
1 
1 
1 
1 
1 
1 
1 
1 
1 
1 
1 
1 
1 
1 
1 
1 
1 
1 
1 
1 
1 
1 
1 
1 
1 
1 
1 
1 
1 
1 
1 
1 
1 
1 
1 
1 
1 
1 
1 
1 
1 
1 
1 
1 
1 
1 
1 
1 
1 
1 
1 
1 
1 
1 
1 
1 
1 
1 
1 
1 
1 
1 
1 
1 
1 
1 
1 
1 
1 
1 
1 
1 
1 
1 
1 
1 
1 
1 
1 
1 
1 
1 
1 
1 
1 
1 
1 
1 
1 
1 
1 
1 
1 
1 
1 
1 
1 
1 
1 
1 
1 
1 
1 
1 
1 
1 
1 
1 
1 
1 
1 
1 
1 
1 
1 
1 
1 
1 
1 
1 
1 
1 
1 
1 
1 
1 
1 
1 
1 
1 
1 
1 
1 
1 
1 
1 
1 
1 
1 
1 
1 
1 
1 
1 
1 
1 
1 
1 
1 
1 
1 
1 
1 
1 
1 
1 
1 
1 
1 
1 
1 
1 
1 
1 
1 
1 
1 
1 
1 
1 
1 
1 
1 
1 
1 
1 
1 
1 
1 
1 
1 
1 
1 
1 
1 
1 
1 
1 
1 
1 
1 
1 
1 
1 
1 
1 
1 
1 
1 
1 
1 
1 
1 
1 
1 
1 
1 
1 
1 
1 
1 
1 
1 
1 
1 
1 
1 
1 
1 
1 
1 
1 
1 
1 
1 
1 
1 
1 
1 
1 
1 
1 
1 
1 
1 
1 
1 
1 
1 
1 
1 
1 
1 
1 
1 
1 
1 
1 
1 
1 
1 
1 
1 
1 
1 
1 
1 
1 
1 
1 
1 
1 
1 
1 
1 
1 
1 
1 
1 
1 
1 
1 
1 
1 
1 
1 
1 
1 
1 
1 
1 
1 
1 
1 
1 
1 
1 
1 
1 
1 
1 
1 
1 
1 
1 
1 
1 
1 
1 
1 
1 
1 
1 
1 
1 
1 
1 
1 
1 
1 
1 
1 
1 
1 
1 
1 
1 
1 
1 
1 
1 
1 
1 
1 
1 
1 
1 
1 
1 
1 
1 
1 
1 
1 
1 
1 
1 
1 
1 
1 
1 
1 
1 
1 
1 
1 
1 
1 
1 
1 
1 
1 
1 
1 
1 
1 
1 
1 
1 
1 
1 
1 
1 
1 
1 
1 
1 
1 
1 
1 
1 
1 
1 
1 
1 
1 
1 
1 
1 
1 
1 
1 
1 
1 
1 
1 
1 
1 
1 
1 
1 
1 
1 
1 
1 
1 
1 
1 
1 
1 
1 
1 
1 
1 
1 
1 
1 
1 
1 
1 
1 
1 
1 
1 
1 
1 
1 
1 
1 
1 
1 
1 
1 
1 
1 
1 
1 
1 
1 
1 
1 
1 
1 
1 
1 
1 
1 
1 
1 
1 
1 
1 
1 
1 
1 
1 
1 
1 
1 
1 
1 
1 
1 
1 
1 
1 
1 
1 
1 
1 
1 
1 
1 
1 
1 
1 
1 
1 
1 
1 
1 
1 
1 
1 
1 
1 
1 
1 
1 
1 
1 
1 
1 
1 
1 
1 
1 
1 
1 
1 
1 
1 
1 
1 
1 
1 
1 
1 
1 
1 
1 
1 
1 
1 
1 
1 
1 
1 
1 
1 
1 
1 
1 
1 
1 
1 
1 
1 
1 
1 
1 
1 
1 
1 
1 
1 
1 
1 
1 
1 
1 
1 
1 
1 
1 
1 
1 
1 
1 
1 
1 
1 
1 
1 
1 
1 
1 
1 
1 
1 
1 
1 
1 
1 
1 
1 
1 
1 
1 
1 
1 
1 
1 
1 
1 
1 
1 
1 
1 
1 
1 
1 
1 
1 
1 
1 
1 
1 
1 
1 
1 
1 
1 
1 
1 
1 
1 
1 
1 
1 
1 
1 
1 
1 
1 
1 
1 
1 
1 
1 
1 
1 
1 
1 
1 
1 
1 
1 
1 
1 
1 
1 
1 
1 
1 
1 
1 
1 
1 
1 
1 
1 
1 
1 
1 
1 
1 
1 
1 
1 
1 
1 
1 
1 
1 
1 
1 
1 
1 
1 
1 
1 
1 
1 
1 
1 
1 
1 
1 
1 
1 
1 
1 
1 
1 
1 
1 
1 
1 
1 
1 
1 
1 
1 
1 
1 
1 
1 
1 
1 
1 
1 
1 
1 
1 
1 
1 
1 
1 
1 
1 
1 
1 
1 
1 
1 
1 
1 
1 
1 
1 
1 
1 
1 
1 
1 
1 
1 
1 
1 
1 
1 
1 
1 
1 
1 
1 
1 
1 
1 
1 
1 
1 
1 
1 
1 
1 
1 
1 
1 
1 
1 
1 
1 
1 
1 
1 
1 
1 
1 
1 
1 
1 
1 
1 
1 
1 
1 
1 
1 
1 
1 
1 
1 
1 
1 
1 
1 
1 
1 
1 
1 
1 
1 
1 
1 
1 
1 
1 
1 
1 
1 
1 
1 
1 
1 
1 
1 
1 
1 
1 
1 
1 
1 
1 
1 
1 
1 
1 
1 
1 
1 
1 
1 
1 
1 
1 
1 
1 
1 
1 
1 
1 
1 
1 
1 
1 
1 
1 
1 
1 
1 
1 
1 
1 
1 
1 
1 
1 
1 
1 
1 
1 
1 
1 
1 
1 
1 
1 
1 
1 
1 
1 
1 
1 
1 
1 
1 
1 
1 
1 
1 
1 
1 
1 
1 
1 
1 
1 
1 
1 
1 
1 
1 
1 
1 
1 
1 
1 
1 
1 
1 
1 
1 
1 
1 
1 
1 
1 
1 
1 
1 
1 
1 
1 
1 
1 
1 
1 
1 
1 
1 
1 
1 
1 
1 
1 
1 
1 
1 
1 
1 
1 
1 
1 
1 
1 
1 
1 
1 
1 
1 
1 
1 
1 
1 
1 
1 
1 
1 
1 
1 
1 
1 
1 
1 
1 
1 
1 
1 
1 
1 
1 
1 
1 
1 
1 
1 
1 
1 
1 
1 
1 
1 
1 
1 
1 
1 
1 
1 
1 
1 
1 
1 
1 
1 
1 
1 
1 
1 
1 
1 
1 
1 
1 
1 
1 
1 
1 
1 
1 
1 
1 
1 
1 
1 
1 
1 
1 
1 
1 
1 
1 
1 
1 
1 
1 
1 
1 
1 
1 
1 
1 
1 
1 
1 
1 
1 
1 
1 
1 
1 
1 
1 
1 
1 
1 
1 
1 
1 
1 
1 
1 
1 
1 
1 
1 
1 
1 
1 
1 
1 
1 
1 
1 
1 
1 
1 
1 
1 
1 
1 
1 
1 
1 
1 
1 
1 
1 
1 
1 
1 
1 
1 
1 
1 
1 
1 
1 
1 
1 
1 
1 
1 
1 
1 
1 
1 
1 
1 
1 
1 
1 
1 
1 
1 
1 
1 
1 
1 
1 
1 
1 
1 
1 
1 
1 
1 
1 
1 
1 
1 
1 
1 
1 
1 
1 
1 
1 
1 
1 
1 
1 
1 
1 
1 
1 
1 
1 
1 
1 
1 
1 
1 
1 
1 
1 
1 
1 
1 
1 
1 
1 
1 
1 
1 
1 
1 
1 
1 
1 
1 
1 
1 
1 
1 
1 
1 
1 
1 
1 
1 
1 
1 
1 
1 
1 
1 
1 
1 
1 
1 
1 
1 
1 
1 
1 
1 
1 
1 
1 
1 
1 
1 
1 
1 
1 
1 
1 
1 
1 
1 
1 
1 
1 
1 
1 
1 
1 
1 
1 
1 
1 
1 
1 
1 
1 
1 
1 
1 
1 
1 
1 
1 
1 
1 
1 
1 
1 
1 
1 
1 
1 
1 
1 
1 
1 
1 
1 
1 
1 
1 
1 
1 
1 
1 
1 
1 
1 
1 
1 
1 
1 
1 
1 
1 
1 
1 
1 
1 
1 
1 
1 
1 
1 
1 
1 
1 
1 
1 
1 
1 
1 
1 
1 
1 
1 
1 
1 
1 
1 
1 
1 
1 
1 
1 
1 
1 
1 
1 
1 
1 
1 
1 
1 
1 
1 
1 
1 
1 
1 
1 
1 
1 
1 
1 
1 
1 
1 
1 
1 
1 
1 
1 
1 
1 
1 
1 
1 
1 
1 
1 
1 
1 
1 
1 
1 
1 
1 
1 
1 
1 
1 
1 
1 
1 
1 
1 
1 
1 
1 
1 
1 
1 
1 
1 
1 
1 
1 
1 
1 
1 
1 
1 
1 
1 
1 
1 
1 
1 
1 
1 
1 
1 
1 
1 
1 
1 
1 
1 
1 
1 
1 
1 
1 
1 
1 
1 
1 
1 
1 
1 
1 
1 
1 
1 
1 
1 
1 
1 
1 
1 
1 
1 
1 
1 
1 
1 
1 
1 
1 
1 
1 
1 
1 
1 
1 
1 
1 
1 
1 
1 
1 
1 
1 
1 
1 
1 
1 
1 
1 
1 
1 
1 
1 
1 
1 
1 
1 
1 
1 
1 
1 
1 
1 
1 
1 
1 
1 
1 
1 
1 
1 
1 
1 
1 
1 
1 
1 
1 
1 
1 
1 
1 
1 
1 
1 
1 
1 
1 
1 
1 
1 
1 
1 
1 
1 
1 
1 
1 
1 
1 
1 
1 
1 
1 
1 
1 
1 
1 
1 
1 
1 
1 
1 
1 
1 
1 
1 
1 
1 
1 
1 
1 
1 
1 
1 
1 
1 
1 
1 
1 
1 
1 
1 
1 
1 
1 
1 
1 
1 
1 
1 
1 
1 
1 
1 
1 
1 
1 
1 
1 
1 
1 
1 
1 
1 
1 
1 
1 
1 
1 
1 
1 
1 
1 
1 
1 
1 
1 
1 
1 
1 
1 
1 
1 
1 
1 
1 
1 
1 
1 
1 
1 
1 
1 
1 
1 
1 
1 
1 
1 
1 
1 
1 
1 
1 
1 
1 
1 
1 
1 
1 
1 
1 
1 
1 
1 
1 
1 
1 
1 
1 
1 
1 
1 
1 
1 
1 
1 
1 
1 
1 
1 
1 
1 
1 
1 
1 
1 
1 
1 
1 
1 
1 
1 
1 
1 
1 
1 
1 
1 
1 
1 
1 
1 
1 
1 
1 
1 
1 
1 
1 
1 
1 
1 
1 
1 
1 
1 
1 
1 
1 
1 
1 
1 
1 
1 
1 
1 
1 
1 
1 
1 
1 
1 
1 
1 
1 
1 
1 
1 
1 
1 
1 
1 
1 
1 
1 
1 
1 
1 
1 
1 
1 
1 
1 
1 
1 
1 
1 
1 
1 
1 
1 
1 
1 
1 
1 
1 
1 
1 
1 
1 
1 
1 
1 
1 
1 
1 
1 
1 
1 
1 
1 
1 
1 
1 
1 
1 
1 
1 
1 
1 
1 
1 
1 
1 
1 
1 
1 
1 
1 
1 
1 
1 
1 
1 
1 
1 
1 
1 
1 
1 
1 
1 
1 
1 
1 
1 
1 
1 
1 
1 
1 
1 
1 
1 
1 
1 
1 
1 
1 
1 
1 
1 
1 
1 
1 
1 
1 
1 
1 
1 
1 
1 
1 
1 
1 
1 
1 
1 
1 
1 
1 
1 
1 
1 
1 
1 
1 
1 
1 
1 
1 
1 
1 
1 
1 
1 
1 
1 
1 
1 
1 
1 
1 
1 
1 
1 
1 
1 
1 
1 
1 
1 
1 
1 
1 
1 
1 
1 
1 
1 
1 
1 
1 
1 
1 
1 
1 
1 
1 
1 
1 
1 
1 
1 
1 
1 
1 
1 
1 
1 
1 
1 
1 
1 
1 
1 
1 
1 
1 
1 
1 
1 
1 
1 
1 
1 
1 
1 
1 
1 
1 
1 
1 
1 
1 
1 
1 
1 
1 
1 
1 
1 
1 
1 
1 
1 
1 
1 
1 
1 
1 
1 
1 
1 
1 
1 
1 
1 
1 
1 
1 
1 
1 
1 
1 
1 
1 
1 
1 
1 
1 
1 
1 
1 
1 
1 
1 
1 
1 
1 
1 
1 
1 
1 
1 
1 
1 
1 
1 
1 
1 
1 
1 
1 
1 
1 
1 
1 
1 
1 
1 
1 
1 
1 
1 
1 
1 
1 
1 
1 
1 
1 
1 
1 
1 
1 
1 
1 
1 
1 
1 
1 
1 
1 
1 
1 
1 
1 
1 
1 
1 
1 
1 
1 
1 
1 
1 
1 
1 
1 
1 
1 
1 
1 
1 
1 
1 
1 
1 
1 
1 
1 
1 
1 
1 
1 
1 
1 
1 
1 
1 
1 
1 
1 
1 
1 
1 
1 
1 
1 
1 
1 
1 
1 
1 
1 
1 
1 
1 
1 
1 
1 
1 
1 
1 
1 
1 
1 
1 
1 
1 
1 
1 
1 
1 
1 
1 
1 
1 
1 
1 
1 
1 
1 
1 
1 
1 
1 
1 
1 
1 
1 
1 
1 
1 
1 
1 
1 
1 
1 
1 
1 
1 
1 
1 
1 
1 
1 
1 
1 
1 
1 
1 
1 
1 
1 
1 
1 
1 
1 
1 
1 
1 
1 
1 
1 
1 
1 
1 
1 
1 
1 
1 
1 
1 
1 
1 
1 
1 
1 
1 
1 
1 
1 
1 
1 
1 
1 
1 
1 
1 
1 
1 
1 
1 
1 
1 
1 
1 
1 
1 
1 
1 
1 
1 
1 
1 
1 
1 
1 
1 
1 
1 
1 
1 
1 
1 
1 
1 
1 
1 
1 
1 
1 
1 
1 
1 
1 
1 
1 
1 
1 
1 
1 
1 
1 
1 
1 
1 
1 
1 
1 
1 
1 
1 
1 
1 
1 
1 
1 
1 
1 
1 
1 
1 
1 
1 
1 
1 
1 
1 
1 
1 
1 
1 
1 
1 
1 
1 
1 
1 
1 
1 
1 
1 
1 
1 
1 
1 
1 
1 
1 
1 
1 
1 
1 
1 
1 
1 
1 
1 
1 
1 
1 
1 
1 
1 
1 
1 
1 
1 
1 
1 
1 
1 
1 
1 
1 
1 
1 
1 
1 
1 
1 
1 
1 
1 
1 
1 
1 
1 
1 
1 
1 
1 
1 
1 
1 
1 
1 
1 
1 
1 
1 
1 
1 
1 
1 
1 
1 
1 
1 
1 
1 
1 
1 
1 
1 
1 
1 
1 
1 
1 
1 
1 
1 
1 
1 
1 
1 
1 
1 
1 
1 
1 
1 
1 
1 
1 
1 
1 
1 
1 
1 
1 
1 
1 
1 
1 
1 
1 
1 
1 
1 
1 
1 
1 
1 
1 
1 
1 
1 
1 
1 
1 
1 
1 
1 
1 
1 
1 
1 
1 
1 
1 
1 
1 
1 
1 
1 
1 
1 
1 
1 
1 
1 
1 
1 
1 
1 
1 
1 
1 
1 
1 
1 
1 
1 
1 
1 
1 
1 
1 
1 
1 
1 
1 
1 
1 
1 
1 
1 
1 
1 
1 
1 
1 
1 
1 
1 
1 
1 
1 
1 
1 
1 
1 
1 
1 
1 
1 
1 
1 
1 
1 
1 
1 
1 
1 
1 
1 
1 
1 
1 
1 
1 
1 
1 
1 
1 
1 
1 
1 
1 
1 
1 
1 
1 
1 
1 
1 
1 
1 
1 
1 
1 
1 
1 
1 
1 
1 
1 
1 
1 
1 
1 
1 
1 
1 
1 
1 
1 
1 
1 
1 
1 
1 
1 
1 
1 
1 
1 
1 
1 
1 
1 
1 
1 
1 
1 
1 
1 
1 
1 
1 
1 
1 
1 
1 
1 
1 
1 
1 
1 
1 
1 
1 
1 
1 
1 
1 
1 
1 
1 
1 
1 
1 
1 
1 
1 
1 
1 
1 
1 
1 
1 
1 
1 
1 
1 
1 
1 
1 
1 
1 
1 
1 
1 
1 
1 
1 
1 
1 
1 
1 
1 
1 
1 
1 
1 
1 
1 
1 
1 
1 
1 
1 
1 
1 
1 
1 
1 
1 
1 
1 
1 
1 
1 
1 
1 
1 
1 
1 
1 
1 
1 
1 
1 
1 
1 
1 
1 
1 
1 
1 
1 
1 
1 
1 
1 
1 
1 
1 
1 
1 
1 
1 
1 
1 
1 
1 
1 
1 
1 
1 
1 
1 
1 
1 
1 
1 
1 
1 
1 
1 
1 
1 
1 
1 
1 
1 
1 
1 
1 
1 
1 
1 
1 
1 
1 
1 
1 
1 
1 
1 
1 
1 
1 
1 
1 
1 
1 
1 
1 
1 
1 
1 
1 
1 
1 
1 
1 
1 
1 
1 
1 
1 
1 
1 
1 
1 
1 
1 
1 
1 
1 
1 
1 
1 
1 
1 
1 
1 
1 
1 
1 
1 
1 
1 
1 
1 
1 
1 
1 
1 
1 
1 
1 
1 
1 
1 
1 
1 
1 
1 
1 
1 
1 
1 
1 
1 
1 
1 
1 
1 
1 
1 
1 
1 
1 
1 
1 
1 
1 
1 
1 
1 
1 
1 
1 
1 
1 
1 
1 
1 
1 
1 
1 
1 
1 
1 
1 
1 
1 
1 
1 
1 
1 
1 
1 
1 
1 
1 
1 
1 
1 
1 
1 
1 
1 
1 
1 
1 
1 
1 
1 
1 
1 
1 
1 
1 
1 
1 
1 
1 
1 
1 
1 
1 
1 
1 
1 
1 
1 
1 
1 
1 
1 
1 
1 
1 
1 
1 
1 
1 
1 
1 
1 
1 
1 
1 
1 
1 
1 
1 
1 
1 
1 
1 
1 
1 
1 
1 
1 
1 
1 
1 
1 
1 
1 
1 
1 
1 
1 
1 
1 
1 
1 
1 
1 
1 
1 
1 
1 
1 
1 
1 
1 
1 
1 
1 
1 
1 
1 
1 
1 
1 
1 
1 
1 
1 
1 
1 
1 
1 
1 
1 
1 
1 
1 
1 
1 
1 
1 
1 
1 
1 
1 
1 
1 
1 
1 
1 
1 
1 
1 
1 
1 
1 
1 
1 
1 
1 
1 
1 
1 
1 
1 
1 
1 
1 
1 
1 
1 
1 
1 
1 
1 
1 
1 
1 
1 
1 
1 
1 
1 
1 
1 
1 
1 
1 
1 
1 
1 
1 
1 
1 
1 
1 
1 
1 
1 
1 
1 
1 
1 
1 
1 
1 
1 
1 
1 
1 
1 
1 
1 
1 
1 
1 
1 
1 
1 
1 
1 
1 
1 
1 
1 
1 
1 
1 
1 
1 
1 
1 
1 
1 
1 
1 
1 
1 
1 
1 
1 
1 
1 
1 
1 
1 
1 
1 
1 
1 
1 
1 
1 
1 
1 
1 
1 
1 
1 
1 
1 
1 
1 
1 
1 
1 
1 
1 
1 
1 
1 
1 
1 
1 
1 
1 
1 
1 
1 
1 
1 
1 
1 
1 
1 
1 
1 
1 
1 
1 
1 
1 
1 
1 
1 
1 
1 
1 
1 
1 
1 
1 
1 
1 
1 
1 
1 
1 
1 
1 
1 
1 
1 
1 
1 
1 
1 
1 
1 
1 
1 
1 
1 
1 
1 
1 
1 
1 
1 
1 
1 
1 
1 
1 
1 
1 
1 
1 
1 
1 
1 
1 
1 
1 
1 
1 
1 
1 
1 
1 
1 
1 
1 
1 
1 
1 
1 
1 
1 
1 
1 
1 
1 
1 
1 
1 
1 
1 
1 
1 
1 
1 
1 
1 
1 
1 
1 
1 
1 
1 
1 
1 
1 
1 
1 
1 
1 
1 
1 
1 
1 
1 
1 
1 
1 
1 
1 
1 
1 
1 
1 
1 
1 
1 
1 
1 
1 
1 
1 
1 
1 
1 
1 
1 
1 
1 
1 
1 
1 
1 
1 
1 
1 
1 
1 
1 
1 
1 
1 
1 
1 
1 
1 
1 
1 
1 
1 
1 
1 
1 
1 
1 
1 
1 
1 
1 
1 
1 
1 
1 
1 
1 
1 
1 
1 
1 
1 
1 
1 
1 
1 
1 
1 
1 
1 
1 
1 
1 
1 
1 
1 
1 
1 
1 
1 
1 
1 
1 
1 
1 
1 
POINT_DATA 5000
VECTORS Stress float
230.965 -937.23 0.
2.53002 -1219.48 0.
-96.7971 -1451.94 0.
148.899 -1499.59 0.
155.644 -1484.07 0.
162.389 -1468.55 0.
344.483 -1386.06 0.
342.84 -1389.9 0.
341.197 -1393.75 0.
2.35225 -1535.3 0.
2.90226 -1533.99 0.
3.45227 -1532.67 0.
-165.523 -1606.55 0.
-165.2 -1605.57 0.
9.14327 -1527.16 0.
11.0208 -1522.84 0.
12.8984 -1518.53 0.
-35.6284 -1543.01 0.
-37.3592 -1547.53 0.
-39.0899 -1552.04 0.
-473.527 -1735.19 0.
-473.226 -1734.52 0.
-472.924 -1733.86 0.
-365.467 -1687.45 0.
-364.474 -1684.98 0.
-235.013 -1627.46 0.
-377.884 -1686.26 0.
-375.553 -1680.69 0.
-641.477 -1792.25 0.
-644.426 -1799.64 0.
-647.376 -1807.02 0.
83.3229 -1497.24 0.
82.5548 -1498.74 0.
81.7867 -1500.23 0.
-974.517 -1953.33 0.
-974.09 -1951.92 0.
-973.663 -1950.51 0.
-816.579 -1878.23 0.
-815.303 -1875.14 0.
-675.672 -1811.88 0.
-674.721 -1809.73 0.
-673.77 -1807.58 0.
-1024.26 -1924.54 0.
-972.488 -1802.95 0.
-920.72 -1681.37 0.
-1570.07 -1975.7 0.
-1628.92 -2113.11 0.
-1687.78 -2250.52 0.
5215.87 899.523 0.
5361.89 1240.34 0.
-40266.1 -18036.6 0.
5846.57 1451.35 0.
5702.92 1115.3 0.
-1954.39 -2382.5 0.
-1952.98 -2379.33 0.
-1951.58 -2376.16 0.
-874.922 -1908.22 0.
-874.797 -1907.76 0.
-874.671 -1907.3 0.
-953.54 -1898.04 0.
-918.147 -1815.36 0.
-882.754 -1732.67 0.
-1386.45 -2000.15 0.
-1420.09 -2078.49 0.
-228.222 -1621.93 0.
-230.772 -1627.89 0.
-233.322 -1633.85 0.
-533.004 -1767.59 0.
-532.7 -1767.05 0.
-532.396 -1766.51 0.
-524.681 -1762.29 0.
-525.217 -1763.31 0.
-525.752 -1764.33 0.
-619.286 -1726.67 0.
-568.836 -1608.91 0.
35.1357 -1259.95 0.
22.9875 -1357.13 0.
-25.1658 -1469.74 0.
175.074 -1452.12 0.
174.188 -1454.08 0.
173.301 -1456.04 0.
-349.823 -1683.8 0.
-351.945 -1688.29 0.
-354.068 -1692.78 0.
21.747 -1528.34 0.
21.5412 -1528.31 0.
21.3353 -1528.27 0.
10.351 -1534.6 0.
11.5904 -1532.55 0.
-133.096 -1593.85 0.
-130.508 -1587.51 0.
-127.92 -1581.17 0.
-218.331 -1619.14 0.
-222.417 -1629.04 0.
-226.504 -1638.94 0.
294.22 -1373.49 0.
335.184 -1277.7 0.
376.147 -1181.9 0.
361.692 -1179.87 0.
354.946 -1194.71 0.
616.792 -740.72 0.
1.08944 -1189.34 0.
-97.9109 -1422.41 0.
5.03309 -1528.95 0.
11.8565 -1513.67 0.
18.68 -1498.39 0.
263.222 -1389.78 0.
261.602 -1393.59 0.
259.981 -1397.4 0.
101.162 -1461.72 0.
101.706 -1460.36 0.
102.251 -1458.99 0.
-364.669 -1660.77 0.
-364.464 -1659.59 0.
-137.28 -1559.08 0.
-135.325 -1554.72 0.
-133.371 -1550.35 0.
-151.006 -1560.95 0.
-152.475 -1565.81 0.
-153.945 -1570.67 0.
267.928 -1386.02 0.
268.266 -1385.35 0.
268.604 -1384.68 0.
-602.633 -1758.06 0.
-601.806 -1755.67 0.
-931.677 -1895 0.
-622.906 -1759.02 0.
-620.713 -1753.49 0.
-264.29 -1599.64 0.
-266.913 -1607.27 0.
-269.536 -1614.9 0.
-226.587 -1598.87 0.
-227.476 -1600.06 0.
-228.364 -1601.26 0.
-559.792 -1744.74 0.
-559.6 -1743.05 0.
-559.409 -1741.36 0.
-735.309 -1812.62 0.
-734.073 -1809.41 0.
-457.336 -1686.96 0.
-456.353 -1684.87 0.
-455.369 -1682.79 0.
-1189.05 -1964.13 0.
-1137.63 -1841.78 0.
-1086.21 -1719.42 0.
-862.841 -1643.82 0.
-921.594 -1781.16 0.
-980.347 -1918.5 0.
4280.21 530.055 0.
4426.1 870.737 0.
-32766.8 -14791.2 0.
4852 1056.13 0.
4708.99 719.849 0.
-1192.42 -2023.45 0.
-1190.97 -2020.41 0.
-1189.51 -2017.36 0.
-770.977 -1832.8 0.
-770.96 -1832.26 0.
-770.943 -1831.71 0.
-775.84 -1790.65 0.
-740.487 -1707.86 0.
-705.134 -1625.06 0.
-1711.42 -2108.08 0.
-1745.18 -2186.35 0.
-215.055 -1585.42 0.
-217.593 -1591.38 0.
-220.132 -1597.34 0.
-177.632 -1583.2 0.
-177.217 -1582.73 0.
-176.802 -1582.26 0.
-222.014 -1601.33 0.
-222.7 -1602.24 0.
-223.385 -1603.15 0.
-815.526 -1780.22 0.
-765.089 -1662.4 0.
-604.898 -1502.01 0.
-542.015 -1567.22 0.
-590.01 -1679.94 0.
453.966 -1301.36 0.
452.999 -1303.3 0.
452.032 -1305.24 0.
302.211 -1373.33 0.
299.801 -1377.57 0.
297.39 -1381.8 0.
-267.03 -1621.18 0.
-267.604 -1620.98 0.
-268.177 -1620.78 0.
-250.959 -1615.89 0.
-249.241 -1614.41 0.
174.702 -1430.92 0.
177.117 -1424.38 0.
179.531 -1417.84 0.
-63.2402 -1521.32 0.
-67.1721 -1531.59 0.
-71.104 -1541.87 0.
-12.4036 -1473.88 0.
28.4733 -1377.86 0.
69.3502 -1281.83 0.
376.538 -1141.86 0.
369.46 -1155.67 0.
617.603 -1441.58 0.
-307.206 -1879.73 0.
-260.943 -1769.67 0.
-555.969 -2532.04 0.
-301.158 -1937.88 0.
-517.168 -2442.37 0.
-1118.46 -4430.31 0.
-1111.76 -4414.86 0.
-2785.89 -8321.36 0.
-3281.93 -9511.77 0.
-2131.01 -6827.24 0.
-2227.16 -7052.54 0.
-2731.05 -6773.68 0.
-2774.53 -6873.58 0.
-3871.66 -9965.56 0.
-1752.58 -5019.5 0.
-1799.33 -5127.02 0.
-1748.7 -5047.36 0.
-2388.1 -6538.33 0.
-5144.64 -12969.3 0.
-7463.29 -20806.1 0.
-3137.59 -10711.9 0.
-2565.71 -9376.5 0.
-3329.33 -7638.38 0.
-2540.9 -5798.74 0.
-3192.86 -7376.25 0.
-2389.17 -5379.73 0.
-2265.55 -5090.83 0.
-968.665 -3940.63 0.
-1235.65 -4561.51 0.
-2767.94 -8134.78 0.
-5226.03 -12644.1 0.
-3384.28 -8348.56 0.
-3141.08 -7782.93 0.
-2903.4 -7966.83 0.
-3849.78 -10177.7 0.
-7108.59 -17784.2 0.
-7465.93 -17642.6 0.
-5858.06 -13891.6 0.
-5856.24 -14674.3 0.
-3875.97 -10053.6 0.
-3665.06 -9561.35 0.
-3151.71 -6195.86 0.
-2034.67 -3591.52 0.
-2087.88 -3717.78 0.
-1656.71 -4814.4 0.
-2273.02 -6252.87 0.
-5554.25 -13909.5 0.
851.778 -5656.77 0.
1195.75 -4853.76 0.
-29241.4 -20531.9 0.
1354.26 -5181.39 0.
715.288 -6671.84 0.
-5602.31 -13737.4 0.
-3061.78 -7808.21 0.
-3652.02 -9184.21 0.
-3306.18 -7911.93 0.
-2623.12 -6318.22 0.
-3479.41 -8316.31 0.
-3186.78 -7728.31 0.
-1975.52 -4902.93 0.
-2082.58 -5153.65 0.
-3075.27 -4639.25 0.
-3197.94 -4926.79 0.
-3202.46 -8548.57 0.
-3619.93 -9523.16 0.
-6001.95 -15081.7 0.
-8208.42 -20968.2 0.
-3965.78 -11067.8 0.
-3779.27 -10631.7 0.
-3373.68 -9498.71 0.
-2975.06 -8568.94 0.
-4505.45 -12140.2 0.
-2490.91 -5285.12 0.
-1884.98 -3870 0.
-2428.37 -4647.69 0.
-2125.4 -4157.45 0.
-3414.97 -7165.52 0.
-6474.7 -17967.5 0.
-4898.64 -14289.5 0.
-6410.16 -17815.9 0.
-5783.86 -16784.2 0.
-3838.26 -12244.6 0.
-4018.65 -12665.6 0.
-2508.29 -6267.89 0.
-1290.53 -3427.84 0.
-1769.4 -4546.6 0.
-1842.58 -4798.14 0.
-2097.26 -5392.37 0.
-1877.64 -6780.53 0.
-417.163 -3372.12 0.
-266.942 -3021.31 0.
-745.665 -3378.58 0.
-599.375 -3037.67 0.
-1249.59 -4555.24 0.
-1084.18 -3359.77 0.
-337.643 -1618.47 0.
-92.3254 -1046.84 0.
215.585 -1519.13 0.
-484.968 -3155.44 0.
483.854 -616.524 0.
114.172 -877.499 0.
40.3029 -1048.02 0.
172.918 -1058.53 0.
306.702 -745.985 0.
440.486 -433.441 0.
554.073 -142.313 0.
664.162 114.417 0.
774.251 371.146 0.
791.963 363.237 0.
725.555 206.85 0.
659.148 50.4629 0.
302.593 -32.4304 0.
351.205 82.5294 0.
541.749 249.473 0.
566.546 308.429 0.
591.343 367.384 0.
680.12 551.042 0.
850.541 949.21 0.
1020.96 1347.38 0.
1837.68 1727.23 0.
1730.73 1476.86 0.
1623.79 1226.5 0.
434.031 720.204 0.
466.33 794.731 0.
1048.55 1104.88 0.
385.843 629.493 0.
285.693 394.864 0.
824.667 517.13 0.
921.101 744.339 0.
1017.54 971.547 0.
648.16 918.613 0.
657.58 939.764 0.
666.999 960.916 0.
1010.09 1380.6 0.
1223.12 1875.91 0.
1436.15 2371.22 0.
1138.51 2347.53 0.
1172.53 2427.19 0.
1406.06 2545.21 0.
1224.78 2122.48 0.
1043.5 1699.76 0.
540.048 1116.37 0.
317.013 595.21 0.
93.9796 74.0496 0.
719.12 185.666 0.
751.385 259.747 0.
783.651 333.829 0.
3206.84 1579.02 0.
3342.03 1893.45 0.
-2982.08 -559.914 0.
3929.46 2189.21 0.
3817.15 1928.08 0.
637.732 464.055 0.
771.689 777.207 0.
905.646 1090.36 0.
723.344 1224.1 0.
805.633 1416.16 0.
887.922 1608.22 0.
755.775 1465.21 0.
651.295 1221.16 0.
546.814 977.119 0.
-151.514 803.993 0.
-66.1582 1001.74 0.
983.935 1610.92 0.
1064.29 1797.31 0.
1144.64 1983.7 0.
1427.19 2128.24 0.
1310.5 1855.28 0.
1193.8 1582.32 0.
1035.95 1388.64 0.
1008.72 1323.81 0.
981.489 1258.99 0.
407.986 784.921 0.
263.678 451.013 0.
309.559 212.078 0.
468.512 743.772 0.
711.07 1311.3 0.
1814.6 2160.05 0.
1867.01 2283.16 0.
1919.43 2406.26 0.
1938.03 2342.29 0.
1792.22 2001.5 0.
1646.41 1660.71 0.
937.148 1032.06 0.
759.63 616.461 0.
582.113 200.858 0.
405.648 -3.97998 0.
344.207 -145.875 0.
886.67 -34.8108 0.
816.162 -198.566 0.
745.655 -362.321 0.
403.804 -563.171 0.
442.384 -472.465 0.
480.963 -381.759 0.
234.269 -462.783 0.
231.695 -468.597 0.
229.121 -474.411 0.
599.352 -15.3919 0.
796.092 443.418 0.
-96.4684 -833.492 0.
120.583 -843.485 0.
46.7345 -1014.22 0.
309.052 -968.194 0.
442.516 -655.549 0.
575.981 -342.905 0.
368.235 -190.53 0.
478.287 66.1746 0.
588.338 322.879 0.
614.996 319.604 0.
548.81 163.229 0.
482.623 6.85443 0.
495.762 81.0367 0.
544.4 196.028 0.
601.82 306.727 0.
626.774 365.586 0.
651.727 424.445 0.
732.714 604.948 0.
903.267 1002.96 0.
1073.82 1400.98 0.
1418.48 1580.23 0.
1312.12 1329.4 0.
1205.75 1078.57 0.
672.673 854.447 0.
705.208 928.722 0.
1433.69 1301.17 0.
647.457 774.117 0.
547.681 538.96 0.
697.738 494.304 0.
794.152 721.567 0.
890.567 948.83 0.
739.93 989.05 0.
749.115 1010.67 0.
758.301 1032.29 0.
912.81 1369.57 0.
1125.53 1865.02 0.
1338.26 2360.47 0.
1200.79 2405.98 0.
1234.48 2485.83 0.
1279.05 2522.97 0.
1097.77 2100.44 0.
916.491 1677.92 0.
1239.63 1446.86 0.
1016.16 926.012 0.
792.677 405.167 0.
1019 341.84 0.
1051.52 415.732 0.
1084.05 489.623 0.
2310.22 1227.55 0.
2445.6 1541.05 0.
-1621.41 54.5939 0.
3231.03 1921.32 0.
3118.76 1660.73 0.
842.235 582.56 0.
976.437 895.616 0.
1110.64 1208.67 0.
879.348 1321.92 0.
961.526 1513.87 0.
1043.7 1705.82 0.
775.593 1505.66 0.
670.978 1261.94 0.
566.363 1018.22 0.
589.286 1153.66 0.
674.785 1351.62 0.
794.664 1560.53 0.
875.203 1746.76 0.
955.743 1932.98 0.
1122.11 2029.76 0.
1005.86 1756.23 0.
889.617 1482.69 0.
739.365 1294.83 0.
712.374 1229.61 0.
685.382 1164.4 0.
789.489 981.038 0.
644.62 647.357 0.
902.635 496.408 0.
1089.03 1040.39 0.
1331.54 1608.43 0.
1418.65 2022.04 0.
1471.16 2145.67 0.
1523.68 2269.29 0.
1372.36 2131.16 0.
1226.74 1790.38 0.
1081.13 1449.6 0.
1341.83 1236.92 0.
1164.23 821.123 0.
986.629 405.325 0.
659.14 135.769 0.
597.112 -5.95431 0.
747.392 -64.4718 0.
676.694 -228.182 0.
605.997 -391.892 0.
350.896 -553.279 0.
389.179 -462.202 0.
427.462 -371.125 0.
344.424 -385.099 0.
341.553 -390.778 0.
338.682 -396.457 0.
296.741 -113.02 0.
493.146 346.42 0.
-541.044 -1718.51 0.
-121.991 -1542.73 0.
-100.781 -1495.75 0.
48.2663 -1427.12 0.
-12.5714 -1569.14 0.
-73.4099 -1711.15 0.
-443.788 -1975.92 0.
-491.137 -2086.52 0.
-538.487 -2197.13 0.
-462.431 -2147.43 0.
-419.157 -2046.89 0.
-375.883 -1946.36 0.
-358.073 -1943.55 0.
-369.378 -1970.26 0.
-336.321 -1975.47 0.
-335.316 -1972.8 0.
-334.311 -1970.14 0.
-350.678 -2061.99 0.
-490.363 -2385.26 0.
-630.047 -2708.54 0.
-643.672 -2738.26 0.
-546.767 -2513.9 0.
-449.861 -2289.53 0.
-658.591 -2379.28 0.
-685.633 -2444.9 0.
-196.8 -2289.32 0.
-570.552 -2242.65 0.
-460.323 -1983.11 0.
-332.301 -1790.63 0.
-401.349 -1952.4 0.
-470.396 -2114.16 0.
-617.505 -2236.45 0.
-597.399 -2196.51 0.
-577.293 -2156.57 0.
-790.69 -2444.79 0.
-953.243 -2827.11 0.
-1115.8 -3209.43 0.
-1033.85 -3095.14 0.
-962.443 -2932.8 0.
-864.333 -2768.28 0.
-844.686 -2724.95 0.
-825.038 -2681.63 0.
-119.58 -2305.82 0.
-36.3989 -2114.24 0.
46.7824 -1922.66 0.
69.9999 -1910.99 0.
2.82677 -2070.04 0.
-64.3477 -2229.09 0.
384.105 -2290.84 0.
239.223 -2630.25 0.
-2344.31 -4015.93 0.
978.154 -2157.81 0.
1208.14 -1624.99 0.
-71.4346 -1875.85 0.
-163.721 -2082.6 0.
-256.007 -2289.35 0.
-707.507 -2593.45 0.
-727.661 -2643.44 0.
-747.816 -2693.42 0.
-955.509 -2693.24 0.
-878.087 -2510.8 0.
-800.664 -2328.36 0.
-660.056 -2332.28 0.
-707.099 -2441.14 0.
-1082.57 -2691.01 0.
-1130.39 -2801.05 0.
-1178.22 -2911.09 0.
-975.505 -2840.17 0.
-905.373 -2675.13 0.
-835.242 -2510.1 0.
-1072.2 -2578.71 0.
-1095.69 -2630.28 0.
-1119.18 -2681.84 0.
-455.64 -2297.96 0.
-380.905 -2130.58 0.
84.5852 -1799.39 0.
-39.4725 -2015.63 0.
-125.268 -2215.47 0.
-613.657 -2590.67 0.
-711.56 -2817.43 0.
-809.463 -3044.19 0.
-1080.36 -3223.67 0.
-1041.58 -3133.62 0.
-1002.8 -3043.58 0.
-223.311 -2437.97 0.
-32.7236 -1994.19 0.
157.863 -1550.42 0.
43.6641 -1598.42 0.
25.111 -1640.46 0.
-90.0859 -1717.42 0.
-89.8192 -1715.78 0.
-89.553 -1714.15 0.
-285.136 -1770.9 0.
-244.807 -1675.09 0.
-204.477 -1579.28 0.
59.0379 -1361.29 0.
122.941 -1213.2 0.
186.845 -1065.11 0.
-396.656 -1481.93 0.
-520.875 -1769.73 0.
-106.674 -1502.94 0.
54.4055 -1435.73 0.
75.0691 -1388.31 0.
-216.13 -1510.5 0.
-276.721 -1652.89 0.
-337.313 -1795.27 0.
-345.523 -1901.58 0.
-393.054 -2012.39 0.
-440.586 -2123.19 0.
-306.546 -2049.91 0.
-263.334 -1949.37 0.
-220.122 -1848.84 0.
-488.615 -1969.46 0.
-500.345 -1996 0.
-266.063 -1913.72 0.
-265.224 -1911.07 0.
-264.384 -1908.42 0.
-227.926 -1978.2 0.
-367.479 -2301.97 0.
-507.033 -2625.75 0.
-715.409 -2737.3 0.
-618.539 -2512.82 0.
-521.669 -2288.34 0.
-726.716 -2377.83 0.
-753.683 -2443.35 0.
-1305.63 -2733.91 0.
-617.783 -2231.67 0.
-507.691 -1972.53 0.
-294.942 -1743.39 0.
-364.466 -1904.94 0.
-433.99 -2066.5 0.
-608.352 -2202.18 0.
-588.906 -2161.76 0.
-569.46 -2121.35 0.
-838.39 -2435.26 0.
-1000.43 -2817.69 0.
-1162.46 -3200.12 0.
-764.24 -2949.18 0.
-692.701 -2786.73 0.
-404.023 -2540.21 0.
-384.164 -2497.27 0.
-364.304 -2454.33 0.
-181.321 -2300.51 0.
-98.0155 -2109.3 0.
-14.7099 -1918.1 0.
-164.363 -1983.9 0.
-231.41 -2143.21 0.
-298.457 -2302.51 0.
245.462 -2318.58 0.
100.973 -2658.08 0.
-1858.63 -3777.88 0.
477.684 -2342.55 0.
707.663 -1810.07 0.
77.44 -1780.01 0.
-14.5692 -1986.93 0.
-106.578 -2193.85 0.
-607.831 -2520.89 0.
-628.372 -2570.61 0.
-648.913 -2620.32 0.
-774.018 -2585.54 0.
-696.921 -2402.73 0.
-619.824 -2219.91 0.
-761.755 -2344.54 0.
-808.357 -2453.9 0.
-999.498 -2623.41 0.
-1047.31 -2733.74 0.
-1095.13 -2844.07 0.
-678.774 -2680.84 0.
-608.32 -2516.17 0.
-537.866 -2351.51 0.
-1117.61 -2567.21 0.
-1141.07 -2618.67 0.
-1164.52 -2670.13 0.
-406.679 -2245.65 0.
-332.283 -2077.53 0.
-33.8313 -1819.36 0.
-170.344 -2040.65 0.
-256.375 -2240.31 0.
-334.217 -2440.79 0.
-432.023 -2667.15 0.
-529.83 -2893.51 0.
-886.87 -3111.56 0.
-848.285 -3021.3 0.
-809.7 -2931.05 0.
-571.077 -2556.18 0.
-380.698 -2112.39 0.
-190.319 -1668.6 0.
112.917 -1539.6 0.
94.7512 -1582.01 0.
-232.388 -1746.31 0.
-231.551 -1745.23 0.
-230.714 -1744.15 0.
-485.213 -1826.22 0.
-444.487 -1730.63 0.
-403.761 -1635.04 0.
312.918 -1222.23 0.
376.498 -1073.92 0.
440.078 -925.611 0.
-323.596 -1419.36 0.
-448.439 -1706.98 0.
480.299 -902.892 0.
582.427 -512.365 0.
542.415 -603.55 0.
-439.249 -1500.39 0.
-245.249 -1047.79 0.
-142.61 -808.357 0.
-428.379 -2245.92 0.
401.861 -310.331 0.
242.278 -684.742 0.
92.8378 -1393.92 0.
-161.712 -1988.18 0.
398.196 -682.068 0.
1.18493 -540.652 0.
-135.484 -864.314 0.
-54.5827 -1517.73 0.
212.775 -898.661 0.
-196.984 -1859.54 0.
-466.054 -2722.39 0.
-156.895 -2004.12 0.
379.804 -754.96 0.
76.6565 -718.348 0.
41.0437 -802.013 0.
18.6109 -854.967 0.
-126.15 -822.797 0.
-472.872 -1630.71 0.
-433.317 -1427.97 0.
-200.187 -1130.83 0.
-508.713 -1855.91 0.
-115.594 -1355.66 0.
271.304 -458.769 0.
571.004 234.679 0.
-891.623 -2852.42 0.
-372.498 -1641.34 0.
195.024 -317.257 0.
135.372 -49.1622 0.
-836.256 -2314.27 0.
-1632.32 -4169.83 0.
-631.926 -3125.15 0.
-90.6035 -1859.9 0.
362.566 -1596.72 0.
481.491 -1318 0.
804.667 -562.774 0.
263.872 -1118.81 0.
64.9344 -1582.92 0.
705.46 -88.4064 0.
223.911 -614.824 0.
-136.144 -1451.09 0.
62.5939 -983.567 0.
332.321 -1824.66 0.
1094.11 -43.9899 0.
-698.758 -1412.07 0.
912.268 -361.16 0.
593.746 -1101.55 0.
393.104 -1276.98 0.
-83.2247 -2392.22 0.
-545.836 -3475.42 0.
23.2942 -1210.9 0.
678.698 316.153 0.
694.287 350.319 0.
12.7146 -1064.26 0.
-469.665 -2193.14 0.
617.828 341.092 0.
-125.839 -640.087 0.
-918.076 -2486.09 0.
-806.695 -2295.04 0.
254.072 179.113 0.
-222.818 -934.623 0.
238.749 -1068.1 0.
90.3296 -1414.13 0.
248.946 -1043.72 0.
-938.32 -2028.98 0.
-151.446 -195.59 0.
-350.578 -662.823 0.
-341.951 -2157.59 0.
-515.45 -2560.82 0.
533.456 -682.091 0.
-9.2956 -1389 0.
-326.253 -2128.95 0.
738.841 -427.6 0.
350.306 -1333.57 0.
452.82 -1093.69 0.
91.441 -1164.74 0.
166.782 -990.845 0.
204.349 -905.027 0.
-743.85 -2272.95 0.
-758.982 -2306.63 0.
-1198.99 -3331.72 0.
272.094 -1265.69 0.
697.597 -273.559 0.
379.407 -32.1307 0.
330.732 -147.311 0.
263.561 -305.811 0.
-141.676 -622.013 0.
-164.512 -673.057 0.
297.224 406.571 0.
919.002 -257.62 0.
653.391 -877.997 0.
495.658 -1246.62 0.
163.819 -395.92 0.
-56.424 -909.824 0.
465.452 -966.662 0.
141.889 -1012.75 0.
189.451 -900.789 0.
-206.578 -998.055 0.
-222.3 -1035.4 0.
-238.021 -1072.75 0.
318.026 -985.766 0.
158.544 -1357.78 0.
-0.938757 -1729.8 0.
-193.073 -1783.62 0.
-84.6161 -1531.74 0.
23.841 -1279.86 0.
-354.869 -1482.13 0.
-390.958 -1570.6 0.
-125.53 -1528.23 0.
-139.966 -1565.89 0.
-154.402 -1603.55 0.
-20.6193 -1568.87 0.
-28.067 -1588.48 0.
-35.5146 -1608.08 0.
-312.332 -1777.24 0.
-354.711 -1876.58 0.
-397.089 -1975.91 0.
-512.592 -1956.74 0.
-451.996 -1815.41 0.
-396.104 -1675.93 0.
-528.189 -1733.14 0.
-526.368 -1732.67 0.
-289.05 -1667.49 0.
-380.263 -1885.05 0.
-471.477 -2102.61 0.
-562.857 -2170.83 0.
-470.479 -1957.25 0.
-378.101 -1743.68 0.
-114.916 -1550.1 0.
-100.476 -1514.28 0.
-86.0344 -1478.45 0.
-155.887 -1654.85 0.
-246.035 -1862.81 0.
12.5003 -1883.33 0.
99.7506 -1679.09 0.
187.001 -1474.85 0.
40.6295 -1454.44 0.
-3.2377 -1557.19 0.
-47.1052 -1659.95 0.
-83.3619 -1671.08 0.
-44.8624 -1580 0.
-6.3618 -1488.92 0.
426.556 -1305 0.
417.776 -1322.93 0.
39.6087 -1496.75 0.
576.622 -1197.9 0.
610.741 -1114.82 0.
293.189 -1235.51 0.
218.721 -1412.87 0.
144.252 -1590.24 0.
-331.784 -1927.4 0.
-402.15 -2094.24 0.
-472.517 -2261.09 0.
-521.371 -2197.93 0.
-418.184 -1959.24 0.
-314.997 -1720.56 0.
-479.859 -1740.71 0.
-464.096 -1701.85 0.
-381.875 -1671.12 0.
-490.653 -1925.7 0.
-599.432 -2180.27 0.
-304.797 -2108.86 0.
-186.741 -1832.5 0.
-68.6845 -1556.15 0.
-631.861 -1773.1 0.
-699.037 -1930.94 0.
-766.213 -2088.78 0.
-288.985 -1788.78 0.
-209.808 -1601.6 0.
-72.6908 -1396.7 0.
-228.327 -1698.53 0.
-352.142 -1986.72 0.
44.7871 -1968.32 0.
99.4171 -1839.77 0.
154.047 -1711.23 0.
-171.424 -1742.96 0.
-108.342 -1596.21 0.
-45.2588 -1449.47 0.
-161.671 -1376.41 0.
-94.9371 -1218.8 0.
-28.2032 -1061.2 0.
-100.17 -1318.03 0.
-237.827 -1639.3 0.
-261.445 -1853.19 0.
-147.612 -1587.85 0.
-33.7786 -1322.5 0.
-334.577 -1322.65 0.
-352.828 -1362.59 0.
-371.077 -1402.52 0.
302.217 -1188.33 0.
248.96 -1312.94 0.
195.703 -1437.56 0.
-171.388 -1351.67 0.
-1.11502 -953.621 0.
496.237 -923.948 0.
-118.455 -1092.78 0.
-70.5146 -981.08 0.
-168.536 -949.824 0.
-184.121 -987.49 0.
-199.707 -1025.16 0.
587.242 -839.057 0.
427.246 -1210.63 0.
267.251 -1582.2 0.
-321.446 -1806.46 0.
-212.803 -1554.97 0.
-104.16 -1303.48 0.
-280.239 -1419.07 0.
-316.524 -1507.29 0.
-189.599 -1522.94 0.
-204.231 -1560.62 0.
-218.863 -1598.3 0.
-64.399 -1556.95 0.
-72.0942 -1576.42 0.
-79.7894 -1595.89 0.
-216.28 -1704.43 0.
-258.782 -1803.66 0.
-301.284 -1902.89 0.
-374.079 -1865.91 0.
-312.886 -1724.78 0.
-269.979 -1591.27 0.
-596.891 -1731.65 0.
-595.441 -1730.7 0.
-322.532 -1651.73 0.
-414.278 -1868.94 0.
-506.025 -2086.15 0.
-500.792 -2112.73 0.
-408.113 -1899.75 0.
-315.434 -1686.76 0.
383.15 -1304.56 0.
397.56 -1268.73 0.
411.971 -1232.91 0.
-327.291 -1695.77 0.
-417.405 -1903.8 0.
-249.087 -1962.69 0.
-161.785 -1759.12 0.
-74.484 -1555.55 0.
-40.0147 -1458.07 0.
-83.7518 -1560.7 0.
-127.489 -1663.34 0.
111.181 -1556.52 0.
150.447 -1465.67 0.
189.715 -1374.83 0.
286.966 -1332.57 0.
278.429 -1350.52 0.
-769.75 -1813.49 0.
619.327 -1149.92 0.
653.27 -1066.94 0.
166.179 -1257.73 0.
91.5953 -1435 0.
17.0111 -1612.26 0.
-374.037 -1914.13 0.
-444.176 -2080.97 0.
-514.316 -2247.81 0.
-564.276 -2185.62 0.
-461.451 -1946.01 0.
-358.625 -1706.4 0.
-319.591 -1641.89 0.
-303.533 -1603.28 0.
-171.852 -1547.77 0.
-280.383 -1802.35 0.
-388.914 -2056.93 0.
-407.237 -2120.68 0.
-289.39 -1844.1 0.
-171.543 -1567.52 0.
-375.045 -1633.84 0.
-442.776 -1791.23 0.
-510.507 -1948.62 0.
-401.182 -1805.14 0.
-322.268 -1617.91 0.
-79.2688 -1369.35 0.
-318.625 -1706.73 0.
-442.631 -1994.65 0.
20.297 -1947.35 0.
74.8649 -1818.46 0.
129.432 -1689.57 0.
-174.102 -1713.34 0.
-111.273 -1566.2 0.
-48.4446 -1419.07 0.
97.8248 -1232.8 0.
164.578 -1075.02 0.
231.331 -917.234 0.
-512.268 -1463.3 0.
-650.192 -1784.26 0.
-74.8523 -1742.57 0.
38.7004 -1476.72 0.
152.253 -1210.88 0.
-187.728 -1230.14 0.
-206.143 -1270.18 0.
-224.559 -1310.22 0.
51.967 -1263.93 0.
-1.3678 -1388.4 0.
-54.7028 -1512.87 0.
-64.0794 -1274.91 0.
105.908 -876.794 0.
520.884 -682.966 0.
-251.818 -1090.29 0.
-301.38 -1208.36 0.
-226.954 -1303.99 0.
-359.13 -1614.27 0.
-491.306 -1924.56 0.
142.853 -1729.28 0.
230.217 -1528.14 0.
317.581 -1327 0.
-265.386 -1575.16 0.
-310.758 -1680.69 0.
-356.13 -1786.21 0.
-432.89 -1963.62 0.
-515.527 -2153.29 0.
-541.073 -2293.27 0.
-455.678 -2092.18 0.
-370.284 -1891.09 0.
-158.769 -1696.64 0.
-168.363 -1718.52 0.
-177.958 -1740.4 0.
-253.246 -1814.02 0.
-286.21 -1890.23 0.
-319.174 -1966.45 0.
-526.595 -2189.22 0.
-608.879 -2379.73 0.
-406.067 -2448 0.
-896.696 -2599.39 0.
-864.247 -2523.77 0.
-597.393 -2334.7 0.
-517.175 -2143.39 0.
-436.958 -1952.08 0.
-450.714 -1971.04 0.
-573.472 -2258.56 0.
-696.23 -2546.08 0.
120.454 -2237.35 0.
158.047 -2149.37 0.
195.639 -2061.39 0.
-643.083 -2456.28 0.
-672.47 -2524.71 0.
-646.295 -2550.5 0.
-583.393 -2400.2 0.
-520.491 -2249.9 0.
-302.253 -2070.3 0.
-298.449 -2056.01 0.
-294.644 -2041.72 0.
-63.6806 -1949.73 0.
-76.8232 -1981.57 0.
-89.9659 -2013.41 0.
-142.205 -2122.08 0.
-196.509 -2253.45 0.
-1686.71 -2999.01 0.
203.969 -2182.23 0.
207.536 -2174.07 0.
-358.242 -2382.1 0.
-305.613 -2255.55 0.
-252.984 -2128.99 0.
-593.373 -2202.28 0.
-570.952 -2147.63 0.
-548.531 -2092.98 0.
-568.017 -2190.23 0.
-647.453 -2375.04 0.
-726.889 -2559.86 0.
-637.593 -2666.45 0.
-715.029 -2848.05 0.
-744.111 -2965.81 0.
-651.467 -2747.43 0.
-558.822 -2529.06 0.
-579.801 -2485.83 0.
-682.738 -2725.2 0.
-785.676 -2964.58 0.
-777.853 -2879.76 0.
-628.669 -2533.61 0.
-479.485 -2187.45 0.
-656.557 -2180.35 0.
-633.848 -2130.98 0.
-325.287 -1959.97 0.
-529.029 -2199.69 0.
-608.371 -2386.11 0.
-233.578 -2325.44 0.
-197.413 -2241.16 0.
-161.248 -2156.88 0.
-399.377 -2187.66 0.
-362.083 -2102.17 0.
-324.789 -2016.67 0.
-147.559 -1920.57 0.
-150.218 -1930.59 0.
-152.877 -1940.6 0.
-823.427 -1991.35 0.
-688.499 -1678.35 0.
156.679 -1128.23 0.
41.9715 -1396.25 0.
-72.7365 -1664.28 0.
-454.289 -1931.51 0.
-404.568 -1818.9 0.
-354.847 -1706.28 0.
-113.374 -1518.85 0.
-72.4119 -1422.78 0.
-31.4495 -1326.72 0.
-167.371 -1493.45 0.
-244.454 -1678.67 0.
313.271 -738.839 0.
-282.056 -1071.12 0.
-331.846 -1189.19 0.
-3.59708 -1177.76 0.
-136.015 -1487.73 0.
-268.433 -1797.7 0.
-239.058 -1860.22 0.
-151.716 -1658.99 0.
-64.3741 -1457.76 0.
-203.347 -1518.39 0.
-248.717 -1623.89 0.
-294.086 -1729.39 0.
-281.014 -1867.57 0.
-363.795 -2057.1 0.
-501.008 -2244.47 0.
-415.424 -2043.59 0.
-329.84 -1842.71 0.
-166.104 -1668.67 0.
-175.836 -1690.69 0.
-185.567 -1712.7 0.
-295.785 -1799.75 0.
-328.445 -1876.2 0.
-361.106 -1952.65 0.
-672.546 -2221.65 0.
-754.737 -2412.47 0.
-224.884 -2340.92 0.
-619.562 -2449.38 0.
-586.844 -2374.1 0.
-500.282 -2259.65 0.
-419.976 -2068.98 0.
-339.671 -1878.31 0.
-510.426 -1966.73 0.
-633.238 -2254.56 0.
-756.051 -2542.38 0.
0.524237 -2256.13 0.
37.3184 -2167.91 0.
74.1119 -2079.7 0.
-417.642 -2329.25 0.
-447.822 -2397.29 0.
-706.035 -2545.31 0.
-643.429 -2395.42 0.
-580.824 -2245.53 0.
-204.195 -1996.64 0.
-199.84 -1983.08 0.
-195.485 -1969.53 0.
-246.26 -1995.38 0.
-259.564 -2027.08 0.
-272.867 -2058.78 0.
-184.964 -2110.7 0.
-240.116 -2241.47 0.
-375.855 -2406.7 0.
253.311 -2129.74 0.
256.271 -2121.21 0.
-312.053 -2330.77 0.
-259.187 -2204.6 0.
-206.321 -2078.42 0.
-753.413 -2238.18 0.
-730.486 -2184.42 0.
-707.56 -2130.66 0.
-505.053 -2129.99 0.
-584.83 -2314.69 0.
-664.607 -2499.38 0.
-456.635 -2557.62 0.
-534.386 -2738.8 0.
-840.915 -2977.63 0.
-748.386 -2758.64 0.
-655.857 -2539.66 0.
-490.751 -2417.09 0.
-593.78 -2655.9 0.
-696.81 -2894.71 0.
-681.202 -2808.84 0.
-531.828 -2462.77 0.
-382.453 -2116.69 0.
-734.93 -2180.43 0.
-712.05 -2131.33 0.
-541.009 -2021.56 0.
-401.383 -2113.87 0.
-480.814 -2300.06 0.
-404.757 -2367.86 0.
-368.649 -2283.11 0.
-332.541 -2198.36 0.
-414.238 -2164.03 0.
-377.134 -2078.32 0.
-340.03 -1992.61 0.
-239.054 -1927.21 0.
-242.058 -1936.71 0.
-245.062 -1946.21 0.
-577.287 -1856.09 0.
-442.646 -1542.4 0.
-74.5858 -1194.75 0.
-189.093 -1462.78 0.
-303.601 -1730.81 0.
-476.73 -1910.34 0.
-428.047 -1796.96 0.
-379.365 -1683.58 0.
28.2175 -1427.24 0.
69.0886 -1330.94 0.
109.96 -1234.64 0.
-264.036 -1504.04 0.
-340.77 -1688.66 0.
21.2986 -991.876 0.
-426.226 -1321.79 0.
155.979 36.54 0.
583.221 -205.304 0.
428.69 -564.687 0.
611.372 -137.1 0.
225.67 -20.8325 0.
163.116 -167.027 0.
317.375 191.421 0.
650.23 387.99 0.
630.005 341.393 0.
438.961 -103.728 0.
447.671 -424.358 0.
245.537 -898.534 0.
264.242 -495.979 0.
650.063 401.066 0.
359.948 -279.079 0.
434.597 -220.436 0.
298.731 -539.045 0.
123.137 -950.624 0.
258.699 -397.865 0.
315.793 -264.305 0.
-342.418 -1799.66 0.
-204.076 -821.701 0.
294.749 338.233 0.
318.815 -1.00542 0.
617.761 -63.4052 0.
103.683 -1270.31 0.
-58.5386 -1374.09 0.
337.841 -451.879 0.
474.814 -135.009 0.
56.8968 -498.54 0.
-83.2489 -824.442 0.
-33.156 -706.055 0.
804.43 -122.327 0.
965.401 256.473 0.
661.11 -449.755 0.
1021.45 638.975 0.
440.899 -717.403 0.
-56.606 -883.297 0.
-151.824 -1109.24 0.
7.33878 -741.365 0.
464.198 -584.989 0.
797.577 189.578 0.
685.002 -76.7075 0.
116.546 -765.917 0.
-309.299 -1761.59 0.
270.351 -410.88 0.
795.968 285.316 0.
692.604 43.2378 0.
-1868.09 -910.458 0.
1307.63 287.286 0.
1158.57 -63.8945 0.
1262.47 1294.59 0.
852.652 336.787 0.
332.159 -878.602 0.
-203.287 -619.104 0.
-286.494 -812.566 0.
-16.3094 -181.395 0.
92.5593 -815.771 0.
245.489 -457.427 0.
540.533 231.991 0.
658.636 -272.882 0.
695.357 -180.266 0.
278.173 -149.82 0.
192.02 -351.233 0.
247.963 -220.765 0.
458.188 -335.668 0.
780.881 414.112 0.
284.725 -746.839 0.
228.454 -840.448 0.
512.347 -178.824 0.
659.213 162.825 0.
-34.5582 -373.559 0.
338.851 500.32 0.
-497.22 -892.51 0.
310.352 -666.84 0.
776.37 419.573 0.
294.45 -372.441 0.
217.324 -554.955 0.
282.539 -405.567 0.
199.475 -678.416 0.
111.718 -879.014 0.
375.06 -260.283 0.
361.766 -323.979 0.
122.809 -878.704 0.
631.548 310.735 0.
309.865 -214.518 0.
466.74 155.891 0.
-226.958 -1082.31 0.
59.3709 -413.315 0.
197.714 -89.7528 0.
-86.5316 -922.302 0.
333.194 55.0868 0.
234.124 -178.61 0.
213.79 -1228.44 0.
557.508 -427.086 0.
372.668 -858.855 0.
-208.07 -1163.9 0.
-183.782 -1104.11 0.
-177.701 -1333.61 0.
-289.283 -1424.44 0.
-298.284 -1444.81 0.
94.8887 -1261.77 0.
160.148 -1107.63 0.
225.407 -953.498 0.
-255.466 -1166.09 0.
-351.692 -1390.46 0.
-447.917 -1614.83 0.
-288.728 -1597.21 0.
-274.854 -1564.16 0.
-260.98 -1531.12 0.
-52.4074 -1387.57 0.
-25.5431 -1323.79 0.
-131.9 -1338.15 0.
-241.435 -1594.87 0.
-350.97 -1851.58 0.
-194.39 -1951.28 0.
-228.466 -2032.29 0.
-262.542 -2113.3 0.
-339.351 -2041.32 0.
-207.15 -1733.82 0.
-74.9498 -1426.32 0.
-474.187 -1589.58 0.
-504.563 -1663.89 0.
-174.4 -1583.89 0.
-263.693 -1721.93 0.
-313.177 -1841.61 0.
-280.498 -1918.03 0.
-313.872 -1999.16 0.
-347.246 -2080.3 0.
-510.876 -2158.46 0.
-476.154 -2075.69 0.
-441.433 -1992.92 0.
-55.6206 -1919.55 0.
-152.397 -2143.76 0.
-249.173 -2367.98 0.
-515.385 -2471.65 0.
-495.949 -2426.15 0.
-523.678 -2391.64 0.
-455.318 -2234.39 0.
-386.958 -2077.14 0.
-193.709 -1889.74 0.
-163.843 -1821.85 0.
-133.978 -1753.96 0.
-229.599 -1784.9 0.
-240.72 -1814.21 0.
-251.84 -1843.52 0.
-253.782 -1767.98 0.
-196.335 -1635.31 0.
-519.325 -1665.86 0.
516.925 -1272.86 0.
490.944 -1335.03 0.
18.927 -1607.36 0.
-52.272 -1773.18 0.
-123.471 -1939 0.
-798.914 -2285.01 0.
-775.249 -2229.99 0.
-751.584 -2174.98 0.
-365.52 -1978.75 0.
-353.732 -1951.86 0.
-341.945 -1924.98 0.
-152.73 -1808.2 0.
-138.091 -1770.18 0.
-459.787 -1888.32 0.
-497.491 -1977.33 0.
-535.195 -2066.34 0.
-211.96 -1956.75 0.
-184.393 -1892.97 0.
-156.825 -1829.2 0.
-409.692 -1928.51 0.
-422.026 -1956.67 0.
-434.361 -1984.83 0.
-684.649 -2193.59 0.
-747.282 -2337.4 0.
-361.091 -2282.72 0.
-310.404 -1971.32 0.
-156.623 -1615.69 0.
-32.0539 -1359.18 0.
-61.0324 -1429.1 0.
-90.0115 -1499.03 0.
-284.839 -1591.72 0.
-270.087 -1552.37 0.
-255.334 -1513.03 0.
-173.794 -1530.79 0.
-220.689 -1638.84 0.
-267.584 -1746.88 0.
-334.102 -1780.55 0.
-333.004 -1776.23 0.
-419.951 -1764.71 0.
-252.987 -1375.53 0.
-86.0235 -986.341 0.
-110.631 -861.9 0.
-198.586 -1071.11 0.
-286.542 -1280.31 0.
211.852 -1110.82 0.
238.985 -1049.96 0.
266.119 -989.093 0.
174.25 -817.605 0.
302.48 -515.548 0.
-226.845 -1325.69 0.
-51.8113 -1292.75 0.
-60.9449 -1313.28 0.
68.0048 -1241.67 0.
132.901 -1087.56 0.
197.797 -933.452 0.
-227.107 -1122.21 0.
-323.488 -1346.61 0.
-419.87 -1571.01 0.
-380.362 -1604.71 0.
-366.223 -1571.59 0.
-352.084 -1538.47 0.
-144.534 -1395.9 0.
-118.462 -1331.62 0.
-160.335 -1320.12 0.
-270.139 -1576.64 0.
-379.943 -1833.15 0.
-40.391 -1854.4 0.
-74.753 -1935.34 0.
-109.115 -2016.28 0.
-189.819 -1944.06 0.
-56.7794 -1636.85 0.
76.2607 -1329.64 0.
-384.329 -1519.39 0.
-415.167 -1593.3 0.
-51.568 -1498.53 0.
-455.861 -1773.65 0.
-505.582 -1893.38 0.
-248.396 -1872.39 0.
-281.678 -1953.9 0.
-314.959 -2035.42 0.
-317.76 -2041.8 0.
-283.11 -1959.39 0.
-248.46 -1876.99 0.
-148.549 -1928.05 0.
-245.011 -2152.4 0.
-341.473 -2376.74 0.
-747.857 -2539.92 0.
-728.737 -2494.12 0.
-287.275 -2259.09 0.
-219.295 -2101.26 0.
-151.316 -1943.43 0.
-298.328 -1903.99 0.
-268.829 -1835.92 0.
-239.329 -1767.84 0.
-103.003 -1699.97 0.
-113.76 -1729.44 0.
-124.517 -1758.91 0.
-443.467 -1817 0.
-385.863 -1684.68 0.
-3165.44 -2767.62 0.
384.308 -1297.32 0.
358.006 -1359.77 0.
35.3791 -1568.02 0.
-35.7261 -1734 0.
-106.831 -1899.99 0.
-636.726 -2183.77 0.
-612.598 -2128.89 0.
-588.47 -2074.01 0.
-300.136 -1920.26 0.
-288.393 -1893.31 0.
-276.65 -1866.35 0.
-322.953 -1849.21 0.
-307.895 -1811.37 0.
-431.691 -1843.86 0.
-469.667 -1932.71 0.
-507.644 -2021.57 0.
-167.54 -1907.25 0.
-140.133 -1843.3 0.
-112.726 -1779.35 0.
-605.451 -1980.71 0.
-617.392 -2009.06 0.
-629.334 -2037.41 0.
-509.301 -2086.3 0.
-571.655 -2230.19 0.
17.8592 -2089.55 0.
-370.374 -1966.18 0.
-216.725 -1610.62 0.
105.468 -1269.08 0.
76.1016 -1338.63 0.
46.7341 -1408.19 0.
-383.809 -1603.57 0.
-369.153 -1564.22 0.
-354.498 -1524.88 0.
-179.744 -1502.31 0.
-226.271 -1610.98 0.
-272.799 -1719.65 0.
-283.056 -1726.62 0.
-281.181 -1722.73 0.
-280.598 -1672.52 0.
-113.41 -1283.59 0.
53.7785 -894.658 0.
-155.05 -849.514 0.
-242.62 -1059.11 0.
-330.191 -1268.71 0.
164.357 -1099.58 0.
192.085 -1039.14 0.
219.814 -978.71 0.
477.497 -655.924 0.
606.115 -353.295 0.
-525.85 -1959.71 0.
-58.8317 -1518.92 0.
85.239 -1183.53 0.
2.33177 -1048.25 0.
-117.48 -1330.88 0.
-237.293 -1613.52 0.
-423.052 -1700.43 0.
-264.004 -1330.99 0.
-104.956 -961.551 0.
-92.7812 -953.709 0.
-177.518 -1151.21 0.
-262.255 -1348.72 0.
-159.488 -1396.79 0.
-204.941 -1504.19 0.
-249.35 -1602.21 0.
-228.684 -1552.54 0.
-208.017 -1502.88 0.
154.388 -1370.78 0.
67.5064 -1572.21 0.
-19.3746 -1773.63 0.
-206.854 -1962.81 0.
-238.656 -2035.6 0.
-270.458 -2108.39 0.
-533.56 -2035.08 0.
-393.341 -1708.09 0.
47.3432 -1252.19 0.
-470.1 -1681.55 0.
-582.249 -1942.88 0.
-355.029 -2001.56 0.
-302.854 -1876.21 0.
-250.68 -1750.86 0.
-58.8817 -1648.08 0.
-104.589 -1757.08 0.
-150.296 -1866.09 0.
-286.068 -1919.26 0.
-256.014 -1848.48 0.
-225.96 -1777.7 0.
-578.179 -1975.61 0.
-612.206 -2054.41 0.
-19.7838 -1862.18 0.
-23.3634 -1870.98 0.
-26.943 -1879.78 0.
-370.133 -1997.16 0.
-323.522 -1887.41 0.
-276.911 -1777.66 0.
-91.0447 -1633.74 0.
-64.5844 -1569.93 0.
-38.1243 -1506.13 0.
-509.445 -1766.61 0.
-554.826 -1871.5 0.
-4613.13 -3697.2 0.
246.441 -1727.68 0.
188.009 -1865.29 0.
-277.307 -2095.71 0.
-155.428 -1811.31 0.
-33.5496 -1526.91 0.
-368.337 -1590.69 0.
-429.686 -1729.58 0.
-491.036 -1868.48 0.
-237.656 -1758.65 0.
-212.168 -1695.3 0.
-186.68 -1631.94 0.
-417.93 -1838.18 0.
-482.738 -1989.42 0.
-493.236 -2083.52 0.
-423.282 -1918.56 0.
-353.33 -1753.6 0.
-6.84716 -1533.23 0.
-32.7855 -1591.7 0.
-58.7236 -1650.17 0.
-573.823 -1833.82 0.
-519.988 -1708.54 0.
-466.153 -1583.26 0.
-245.555 -1541.81 0.
-293.205 -1658.55 0.
331.077 -1489.85 0.
-235.876 -1689.6 0.
-212.722 -1636.37 0.
-36.3515 -1503.66 0.
3.50568 -1406.67 0.
43.3636 -1309.67 0.
-399.745 -1491.65 0.
-436.962 -1579.23 0.
-474.178 -1666.81 0.
-114.035 -1520.65 0.
-106.347 -1504.82 0.
-98.6576 -1488.99 0.
-243.961 -1598.34 0.
-265.087 -1651.41 0.
-236.947 -1650.18 0.
-170.617 -1497.09 0.
-104.288 -1344.01 0.
-403.568 -1393.54 0.
-400.292 -1387.07 0.
-397.015 -1380.6 0.
53.1539 -1211.15 0.
29.0293 -1263.53 0.
4.90445 -1315.91 0.
194.439 -1286.59 0.
165.181 -1354.62 0.
-512.658 -1923.73 0.
-45.4649 -1482.69 0.
98.1318 -1147.27 0.
-296.075 -1144.77 0.
-416.382 -1427.19 0.
-536.689 -1709.61 0.
-289.382 -1611.32 0.
-130.24 -1242.31 0.
28.9025 -873.306 0.
59.0497 -857.484 0.
-25.8777 -1054.85 0.
-110.805 -1252.22 0.
-69.5507 -1327.37 0.
-115.356 -1434.18 0.
-116.839 -1514.75 0.
-96.4231 -1464.84 0.
-76.0074 -1414.93 0.
1.6749 -1405.28 0.
-85.0425 -1606.93 0.
-171.76 -1808.58 0.
-353.843 -1994.8 0.
-385.688 -2067.49 0.
-417.533 -2140.18 0.
-411.96 -1951.55 0.
-271.792 -1624.6 0.
-384.528 -1405.96 0.
-368.328 -1606.39 0.
-480.155 -1868.31 0.
-487.3 -2026.42 0.
-435.438 -1901.08 0.
-383.577 -1775.74 0.
4.16793 -1587.08 0.
-41.821 -1696.2 0.
-87.8103 -1805.32 0.
-504.086 -1981.51 0.
-474.403 -1910.92 0.
-444.72 -1840.33 0.
-488.15 -1905.41 0.
-521.864 -1983.89 0.
18.3301 -1815.32 0.
14.5148 -1823.74 0.
10.6996 -1832.16 0.
-308.558 -1939.75 0.
-262.076 -1830.12 0.
-215.595 -1720.48 0.
-227.331 -1659.66 0.
-200.633 -1596.44 0.
-173.935 -1533.21 0.
-507.523 -1732.77 0.
-552.296 -1838.39 0.
1460.54 -1062.65 0.
524.772 -1576.1 0.
466.243 -1713.58 0.
-471.411 -2148.24 0.
-349.859 -1863.4 0.
-228.307 -1578.57 0.
-475.77 -1606.93 0.
-537.231 -1745.71 0.
-598.69 -1884.5 0.
-300.826 -1755.33 0.
-275.483 -1691.78 0.
-250.14 -1628.22 0.
-454.51 -1821.09 0.
-519.633 -1972.09 0.
-389.306 -2008.79 0.
-318.919 -1844.09 0.
-248.533 -1679.39 0.
-15.9542 -1503.59 0.
-41.356 -1562.65 0.
-66.7576 -1621.71 0.
-417.142 -1735.75 0.
-362.985 -1610.87 0.
-308.829 -1485.99 0.
-311.05 -1537.22 0.
-359.153 -1653.46 0.
121.101 -1548.15 0.
-100.844 -1600.8 0.
-77.6681 -1548.11 0.
-254.602 -1566.43 0.
-214.221 -1469.89 0.
-173.839 -1373.35 0.
-425.526 -1470.61 0.
-462.982 -1558.37 0.
-500.438 -1646.14 0.
109.406 -1394.4 0.
116.966 -1378.93 0.
124.526 -1363.46 0.
-309.51 -1594.37 0.
-331.028 -1646.99 0.
-258.306 -1629.42 0.
-191.941 -1476.11 0.
-125.575 -1322.8 0.
-367.63 -1347.27 0.
-364.13 -1340.99 0.
-360.63 -1334.71 0.
-35.3778 -1218.28 0.
-59.3275 -1270.85 0.
-83.2773 -1323.42 0.
-98.7682 -1380.54 0.
-128.416 -1449.06 0.
502.547 459.648 0.
388.702 -456.843 0.
269.379 -739.232 0.
-282.004 -515.519 0.
-253.965 -451.907 0.
206.348 621.638 0.
101.331 -921.898 0.
150.646 -807.951 0.
455.256 -99.1139 0.
270.902 -620.457 0.
527.768 -22.9972 0.
668.762 304.508 0.
372.75 -434.73 0.
477.098 -190.189 0.
461.954 -377.403 0.
216.206 -953.397 0.
615.791 -23.2897 0.
449.789 -33.0935 0.
481.07 38.2817 0.
168.588 -692.353 0.
325.486 -98.7832 0.
387.586 46.5638 0.
505.159 321.571 0.
205.834 -722.58 0.
311.805 -476.817 0.
-40.6875 -785.596 0.
171.617 -512.361 0.
560.252 388.781 0.
496.843 563.421 0.
362.22 250.291 0.
-141.781 -924.501 0.
762.311 100.165 0.
602.921 -273.216 0.
534.829 -433.728 0.
-30.688 -415.078 0.
56.7241 -213.499 0.
278.639 301.554 0.
684.182 695.196 0.
400.556 33.5196 0.
805.091 -28.8708 0.
1092.41 641.541 0.
649.281 -392.862 0.
574.132 38.6916 0.
375.904 -426.454 0.
679.76 279.843 0.
406.472 122.592 0.
-39.0463 -920.361 0.
334.452 -52.4778 0.
128.18 -215.977 0.
448.023 532.004 0.
-5110.92 -2130.62 0.
1429.61 34.6733 0.
1321.75 -215.99 0.
-380.237 -1533.07 0.
262.743 -33.8127 0.
6.08439 -633.433 0.
-354.252 -1087.78 0.
-66.9207 -419.804 0.
-346.081 -1073.14 0.
99.2627 -657.929 0.
498.258 268.997 0.
-158.695 -1268.26 0.
31.5869 -582.359 0.
91.5727 -444.295 0.
535.742 -11.8253 0.
852.586 727.758 0.
666.943 294.425 0.
504.879 -241.342 0.
453.721 -360.081 0.
660.844 123.853 0.
651.792 487.837 0.
129.054 -732.973 0.
97.0728 -808.502 0.
140.134 -334.142 0.
33.0383 -583.228 0.
829.987 709.086 0.
566.404 -273.074 0.
804.002 285.865 0.
-5.00553 -532.601 0.
-192.161 -969.257 0.
-325.887 -1281.84 0.
-67.7471 -570.417 0.
24.6923 -355.274 0.
-118.549 -689.798 0.
653.235 -513.868 0.
532.821 -792.941 0.
718.285 -358.429 0.
12.1111 -689.962 0.
-166.95 -1103.57 0.
542.847 307.855 0.
379.028 -69.6335 0.
83.838 -754.247 0.
207.384 -66.0778 0.
476.888 565.151 0.
280.813 110.021 0.
159.494 -560.885 0.
295.575 -245.824 0.
843.279 1030.6 0.
492.054 570.762 0.
555.904 718.651 0.
-113.097 -1274.87 0.
0.975321 -1124.11 0.
20.8143 -1079.45 0.
-520.6 -1237.06 0.
-406.053 -970.231 0.
-291.505 -703.4 0.
221.503 -512.43 0.
28.5066 -963.784 0.
-164.49 -1415.14 0.
-74.9067 -1559.94 0.
-116.661 -1657.52 0.
-158.416 -1755.11 0.
-394.864 -1803.86 0.
-354.377 -1710.81 0.
-20.454 -1508.53 0.
-114.796 -1732.88 0.
-209.137 -1957.23 0.
-474.918 -2132.31 0.
-364.708 -1877.33 0.
-254.499 -1622.34 0.
-362.155 -1664.66 0.
-452.876 -1878.08 0.
-543.598 -2091.5 0.
-251.314 -1934.37 0.
-200.555 -1818.18 0.
-27.2508 -1649.53 0.
-495.339 -1758.93 0.
-444.176 -1642.27 0.
-434.418 -1577.52 0.
-478.186 -1680.36 0.
-521.953 -1783.21 0.
-240.757 -1762.29 0.
-304.915 -1914.52 0.
-369.071 -2066.76 0.
-524.086 -2159.5 0.
-511.003 -2132.16 0.
-497.92 -2104.82 0.
-265.714 -1857.67 0.
-176.244 -1649.8 0.
13.2562 -1434.9 0.
-67.9831 -1625.57 0.
-149.222 -1816.23 0.
-345.009 -2014.7 0.
-359.334 -2050.06 0.
-373.658 -2085.43 0.
-461.138 -1953.28 0.
-287.74 -1553.36 0.
-114.342 -1153.45 0.
-320.516 -1542.53 0.
-571.118 -2126.87 0.
-787.296 -2697.5 0.
334.078 -1982.78 0.
456.87 -1696.34 0.
-384.516 -1864.59 0.
-362.813 -1813.49 0.
-341.11 -1762.39 0.
-632.135 -1857.57 0.
-619.894 -1828.49 0.
-607.652 -1799.41 0.
-246.377 -1662.48 0.
-267.106 -1713.57 0.
-287.836 -1764.66 0.
-663.451 -1908.79 0.
-649.424 -1878.79 0.
-302.418 -1714.49 0.
-323.3 -1764.68 0.
-344.182 -1814.87 0.
-165.748 -1776.03 0.
-183.673 -1817.87 0.
-201.597 -1859.72 0.
-277.009 -1947.12 0.
-310.669 -2026.58 0.
-344.328 -2106.04 0.
-540.667 -2121.18 0.
-485.373 -1989.74 0.
71.3366 -1637.29 0.
-301 -1773.82 0.
-292.098 -1747.39 0.
-462.115 -1802.93 0.
-455.932 -1789.3 0.
-449.749 -1775.67 0.
-447.629 -1752.46 0.
-427.688 -1704.36 0.
-407.748 -1656.25 0.
-166.518 -1578.21 0.
-198.016 -1649.03 0.
-229.516 -1719.85 0.
-307.375 -1613.17 0.
-228.601 -1425 0.
-224.004 -1310.19 0.
-292.292 -1465.87 0.
-360.579 -1621.56 0.
-333.237 -1631.52 0.
-250.37 -1436 0.
-167.504 -1240.48 0.
-121.598 -1111.87 0.
-80.6572 -1017.4 0.
-39.7163 -922.935 0.
280.946 -825.554 0.
248.738 -903.205 0.
59.2958 -1170.87 0.
-106.973 -1138.87 0.
-87.7979 -1093.97 0.
-417.913 -1162.43 0.
-303.817 -895.174 0.
-189.72 -627.915 0.
169.671 -503.419 0.
-23.2938 -954.858 0.
-216.259 -1406.3 0.
9.70417 -1493.01 0.
-32.2453 -1590.55 0.
-74.1951 -1688.09 0.
-600.139 -1860.67 0.
-559.711 -1767.7 0.
1.20095 -1467.24 0.
-93.2689 -1691.46 0.
-187.739 -1915.67 0.
-489.312 -2106.66 0.
-379.207 -1851.28 0.
-269.103 -1595.9 0.
-365.81 -1636.36 0.
-456.721 -1849.85 0.
-547.631 -2063.34 0.
-155.976 -1861.06 0.
-105.464 -1745.21 0.
-533.972 -1834.93 0.
-642.279 -1790.2 0.
-591.68 -1673.7 0.
-431.744 -1546.69 0.
-475.661 -1649.51 0.
-519.577 -1752.34 0.
-472.402 -1827.11 0.
-535.854 -1979.87 0.
-599.306 -2132.63 0.
-193.902 -1984.96 0.
-181.227 -1957.17 0.
-168.552 -1929.39 0.
-70.3685 -1743.31 0.
18.8733 -1535.24 0.
-203.355 -1496.54 0.
-284.199 -1687.39 0.
-365.043 -1878.25 0.
-379.171 -1996.64 0.
-393.571 -2032.14 0.
-407.971 -2067.63 0.
-417.323 -1903.61 0.
-244.396 -1503.38 0.
-71.4678 -1103.16 0.
-154.419 -1440.06 0.
-405.291 -2024.32 0.
77.3812 -2295.15 0.
66.4188 -2065.76 0.
189.385 -1779.28 0.
-197.544 -1753.63 0.
-176.045 -1702.68 0.
-154.546 -1651.74 0.
-551.008 -1790.75 0.
-538.985 -1761.61 0.
-526.961 -1732.47 0.
-126.559 -1580.32 0.
-147.403 -1631.06 0.
-168.247 -1681.81 0.
-804.641 -1938.06 0.
-790.613 -1908.49 0.
-414.888 -1729.65 0.
-435.2 -1780.46 0.
-455.512 -1831.27 0.
-169.627 -1745.6 0.
-187.068 -1787.85 0.
-204.509 -1830.1 0.
-119.891 -1848.62 0.
-153.221 -1928.43 0.
-186.55 -2008.24 0.
-420.347 -2038.44 0.
-364.926 -1907 0.
580.816 -1386.93 0.
-560.72 -1853.82 0.
-551.344 -1827.84 0.
-338.5 -1719.02 0.
-332.326 -1705 0.
-326.153 -1690.98 0.
-277.924 -1648.61 0.
-257.978 -1600.53 0.
-238.03 -1552.46 0.
-596.858 -1731.94 0.
-628.085 -1803.15 0.
-659.314 -1874.36 0.
-197.511 -1534.14 0.
-118.385 -1346.39 0.
-297.476 -1311.01 0.
-365.507 -1466.71 0.
-433.538 -1622.4 0.
-155.423 -1522.2 0.
-72.4627 -1326.78 0.
10.4978 -1131.37 0.
-161.639 -1098.64 0.
-120.832 -1004.22 0.
-80.0259 -909.805 0.
772.192 -583.59 0.
740.238 -661.986 0.
437.128 -433.4 0.
38.0678 -656.614 0.
45.2892 -636.903 0.
-168.448 -766.342 0.
-300.836 -1073.43 0.
-433.224 -1380.52 0.
-262.003 -1452.82 0.
-263.879 -1454.69 0.
-265.755 -1456.56 0.
34.2207 -1325.48 0.
38.7776 -1315.36 0.
43.3344 -1305.24 0.
-496.755 -1623.12 0.
-550.126 -1745.93 0.
-145.242 -1648.07 0.
-81.4897 -1494.54 0.
-17.7374 -1341 0.
-165.909 -1348.06 0.
-212.578 -1454.65 0.
-259.246 -1561.24 0.
-365.673 -1525.93 0.
-247.468 -1250.81 0.
-129.262 -975.698 0.
71.0618 -1075.2 0.
-90.7814 -1453.19 0.
-246.876 -1828.46 0.
-684.825 -1978.4 0.
-666.59 -1935.18 0.
-487.951 -1820.76 0.
-450.562 -1734.8 0.
-413.173 -1648.83 0.
-429.613 -1586.24 0.
-391.787 -1493.89 0.
-353.962 -1401.54 0.
119.507 -1259.43 0.
52.6282 -1415.71 0.
-14.2499 -1571.98 0.
18.0359 -1571.62 0.
17.7593 -1572.99 0.
-381.23 -1751.34 0.
-406.096 -1809.96 0.
-430.963 -1868.57 0.
-328.327 -1800.8 0.
-241.418 -1596.62 0.
-154.509 -1392.44 0.
-168.3 -1406.67 0.
-242.563 -1581.96 0.
-316.827 -1757.25 0.
-133.147 -1557.54 0.
-25.2794 -1307.85 0.
-2190.48 -2031.94 0.
330.278 -1073.29 0.
265.919 -1222.59 0.
8.10609 -1448.49 0.
-43.5945 -1570.99 0.
-95.295 -1693.49 0.
-578.032 -1947.52 0.
-567.871 -1923.93 0.
-557.71 -1900.33 0.
-183.315 -1698.12 0.
-157.708 -1636.68 0.
-132.101 -1575.23 0.
-712.203 -1726.27 0.
-658.862 -1597.89 0.
-264.262 -1329.85 0.
-230.941 -1251.27 0.
-197.619 -1172.69 0.
153.079 -1003.21 0.
121.206 -1074.47 0.
89.334 -1145.73 0.
187.825 -1202.69 0.
110.927 -1379.83 0.
34.0283 -1556.97 0.
-204.798 -1509.68 0.
-89.1063 -1238.67 0.
881.195 -617.216 0.
-381.704 -1177.87 0.
-391.539 -1201.02 0.
-13.9164 -1089.17 0.
-115.628 -1324.8 0.
-217.34 -1560.44 0.
-247.807 -1635.61 0.
-193.359 -1507.39 0.
-138.912 -1379.18 0.
-599.202 -1498.41 0.
-566.333 -1422.05 0.
-533.463 -1345.68 0.
-122.745 -1214.52 0.
-147.238 -1272.53 0.
-302.294 -1359.43 0.
-244.36 -1226.93 0.
-186.426 -1094.42 0.
137.811 -907.734 0.
115.667 -962.877 0.
93.5227 -1018.02 0.
-192.913 -1193.77 0.
-225.768 -1270.8 0.
-258.624 -1347.82 0.
577.954 -1013.28 0.
572.296 -1028.68 0.
431.965 -408.107 0.
22.1668 -632.871 0.
29.5231 -613.279 0.
-35.9004 -677.587 0.
-168.117 -984.787 0.
-300.334 -1291.99 0.
-241.459 -1411.2 0.
-242.814 -1413.52 0.
-244.17 -1415.83 0.
-138.541 -1369.41 0.
-133.885 -1359.34 0.
-129.23 -1349.27 0.
-251.676 -1485.46 0.
-304.884 -1608.71 0.
-312.164 -1687.58 0.
-248.836 -1534.09 0.
-185.508 -1380.61 0.
-125.332 -1299.73 0.
-171.407 -1406.78 0.
-217.483 -1513.82 0.
-445.003 -1527.66 0.
-327.086 -1252.36 0.
-209.17 -977.059 0.
-246.082 -1178.72 0.
-407.729 -1556.97 0.
-545.197 -1924.82 0.
-407.775 -1828.6 0.
-389.463 -1785.12 0.
-306.644 -1712.31 0.
-269.176 -1626.27 0.
-231.709 -1540.22 0.
-321.863 -1508.7 0.
-283.929 -1416.41 0.
-245.994 -1324.12 0.
-178.397 -1354.41 0.
-244.8 -1510.99 0.
-311.202 -1667.58 0.
-117.534 -1599.26 0.
-117.892 -1600.16 0.
-291.395 -1682.12 0.
-316.456 -1740.27 0.
-341.517 -1798.42 0.
-336.755 -1774.32 0.
-250.18 -1569.66 0.
-163.606 -1365 0.
-87.7151 -1339.64 0.
-161.105 -1515.77 0.
-234.495 -1691.89 0.
-97.6658 -1510.7 0.
10.2748 -1261.1 0.
-1180.06 -1567.11 0.
247.546 -1076.49 0.
182.713 -1225.58 0.
34.0449 -1406.02 0.
-17.5081 -1528.53 0.
-69.061 -1651.04 0.
-520.748 -1892.4 0.
-510.461 -1868.85 0.
-500.173 -1845.29 0.
-289.06 -1712.51 0.
-262.992 -1651.63 0.
-236.923 -1590.75 0.
-530.926 -1616.44 0.
-477.788 -1488.14 0.
-181.957 -1261.71 0.
-148.188 -1183.57 0.
-114.42 -1105.44 0.
194.18 -953.705 0.
162.604 -1025.4 0.
131.028 -1097.09 0.
134.4 -1193.86 0.
57.5998 -1370.77 0.
-19.1999 -1547.69 0.
-319.969 -1529.9 0.
-204.706 -1258.66 0.
353.455 -809.279 0.
-357.252 -1133.65 0.
-367.19 -1157.16 0.
25.5205 -1042.22 0.
-76.1498 -1278.03 0.
-177.82 -1513.84 0.
-317.124 -1634.12 0.
-262.368 -1506.43 0.
-207.611 -1378.73 0.
-389.282 -1375.54 0.
-355.555 -1299.95 0.
-321.827 -1224.37 0.
-352.449 -1281.92 0.
-376.767 -1340.29 0.
-152.153 -1263.77 0.
-93.7115 -1131.31 0.
-35.269 -998.851 0.
80.4327 -900.278 0.
58.4371 -955.572 0.
36.4415 -1010.87 0.
-98.8386 -1122.08 0.
-131.8 -1199.11 0.
-164.762 -1276.15 0.
114.048 -1182.73 0.
108.103 -1199.18 0.
829.703 584.719 0.
493.593 530.542 0.
168.556 -228.012 0.
577.615 533.647 0.
146.942 -473.847 0.
338.931 -27.8137 0.
-33.8689 -935.296 0.
494.406 300.196 0.
468.359 241.695 0.
227.197 -170.212 0.
392.037 216.78 0.
227.243 -164.56 0.
397.465 -406.051 0.
318.397 -590.481 0.
-77.6676 -781.557 0.
-170.453 -999.09 0.
157.392 -234.785 0.
427.312 -64.4521 0.
549.999 223.455 0.
360.929 -216.293 0.
-375.057 -1176.43 0.
-148.612 -644.817 0.
-4.80625 -306.118 0.
-371.161 -850.659 0.
145.846 354.887 0.
181.572 -350.283 0.
382.123 -484.326 0.
731.971 335.01 0.
358.824 -489.432 0.
842.602 643.319 0.
643.282 182.388 0.
-65.4719 -1076.28 0.
389.754 -14.6706 0.
338.276 -135.105 0.
-221.58 -856.113 0.
-13.2711 -369.905 0.
418.294 637.075 0.
274.692 -389.713 0.
137.397 -711.426 0.
582.286 213.117 0.
651.685 380.002 0.
362.913 -288.936 0.
-47.5785 -1059.65 0.
54.4974 -821.403 0.
347.844 -136.51 0.
556.345 33.1131 0.
142.309 -932.463 0.
304.393 -554.032 0.
510.381 -128.816 0.
844.832 650.868 0.
-3790.13 -1240.42 0.
1080.22 1051.2 0.
541.768 -205.414 0.
319.171 -755.744 0.
352.169 -679.36 0.
205.472 -1022.35 0.
-117.521 -1037.4 0.
226.862 -233.011 0.
-110.181 -1018.27 0.
103.489 -570.919 0.
120.224 -534.16 0.
757.502 950.435 0.
171.495 -287.944 0.
335.108 89.2141 0.
486.327 164.503 0.
218.815 -454.217 0.
389.81 -49.8382 0.
535.182 -204.959 0.
1055.34 1012.39 0.
879.05 604.773 0.
334.309 -603.803 0.
464.286 -293.726 0.
753.311 387.579 0.
-163.214 -927.478 0.
-210.341 -1039.95 0.
-65.8448 328.233 0.
30.9408 -241.991 0.
-154.371 -676.176 0.
182.064 -713.107 0.
-68.2707 -1300.66 0.
782.205 680.096 0.
308.804 -16.9364 0.
266.34 -116.254 0.
173.168 -333.852 0.
-30.6485 -908.015 0.
149.653 -487.347 0.
423.394 152.274 0.
288.31 676.097 0.
-30.2949 -67.227 0.
641.561 323.752 0.
294.534 -483.355 0.
411.458 -208.196 0.
-139.239 -1284.86 0.
326.203 -196.69 0.
328.058 -190.224 0.
187.178 -593.822 0.
53.9997 -902.55 0.
542.513 238.2 0.
114.343 -290.109 0.
-122.857 -841.402 0.
186.195 -550.228 0.
-31.5982 -812.02 0.
-137.764 -1060.92 0.
-208.788 -1242.22 0.
-182.393 -1183.63 0.
-155.998 -1125.03 0.
120.061 -918.236 0.
196.863 -736.218 0.
273.663 -554.2 0.
-179.313 -903.417 0.
-350.128 -1302.87 0.
-520.942 -1702.32 0.
-143.114 -1526.97 0.
-105.208 -1439.63 0.
-232.094 -1427.68 0.
-208.413 -1377.18 0.
-184.733 -1326.69 0.
-81.3222 -1268.98 0.
-107.726 -1329.67 0.
-134.13 -1390.37 0.
-645.111 -1647.15 0.
-660.674 -1683.78 0.
-676.238 -1720.41 0.
-642.908 -1705.47 0.
-638.746 -1693.95 0.
-450.127 -1603.55 0.
-346.823 -1571.11 0.
-349.732 -1577.98 0.
-223.681 -1524.82 0.
-226.707 -1531.87 0.
-229.734 -1538.92 0.
-185.183 -1496.12 0.
-155.365 -1427.14 0.
-125.548 -1358.17 0.
-454.792 -1452.31 0.
-433.115 -1401.3 0.
-411.437 -1350.28 0.
-49.4626 -1324.13 0.
-128.494 -1511.29 0.
-271.268 -1703.44 0.
-233.197 -1615.47 0.
-195.127 -1527.5 0.
-395.516 -1596.21 0.
-444.488 -1711.83 0.
-493.46 -1827.44 0.
-232.127 -1712.4 0.
-189.162 -1612.4 0.
-146.197 -1512.4 0.
65.4867 -1357.61 0.
97.0832 -1284.03 0.
-1417.86 -1874.23 0.
-29.1889 -1308.5 0.
-44.8296 -1344.91 0.
-2.77887 -1354.95 0.
-17.0727 -1389.41 0.
-31.3667 -1423.87 0.
-216.097 -1468.85 0.
-157.612 -1333.42 0.
-99.1261 -1197.99 0.
-218.717 -1268.7 0.
-261.769 -1367.78 0.
-304.821 -1466.86 0.
-327.301 -1494.95 0.
-332.273 -1511.21 0.
-120.253 -1449.9 0.
-195.275 -1619.8 0.
-270.298 -1789.69 0.
-235.327 -1864.77 0.
-246.766 -1888.56 0.
-258.206 -1912.36 0.
-194.85 -1755.87 0.
-65.7304 -1454.6 0.
63.39 -1153.33 0.
-479.385 -1345.33 0.
-483.671 -1358.6 0.
246.576 -1053.86 0.
-342.889 -1329.49 0.
-354.455 -1357.91 0.
-256.183 -1324.87 0.
-227.631 -1263.9 0.
-199.079 -1202.92 0.
-247.838 -1236.02 0.
-293.307 -1343.33 0.
-338.775 -1450.64 0.
-245.211 -1382.26 0.
-198.23 -1271.59 0.
-151.248 -1160.92 0.
-298.933 -1093.2 0.
-228.711 -930.536 0.
88.0262 -683.372 0.
82.6128 -693.153 0.
77.1995 -702.934 0.
108.894 -696.077 0.
104.564 -703.268 0.
100.235 -710.458 0.
190.429 -697.321 0.
170.292 -743.018 0.
150.155 -788.715 0.
-58.1123 -903.787 0.
-73.2531 -938.215 0.
8.19559 -599.31 0.
46.3399 -748.503 0.
-59.517 -997.452 0.
-221.814 -1215.42 0.
-195.068 -1157.04 0.
-168.323 -1098.66 0.
314.696 -803.871 0.
391.696 -621.646 0.
468.695 -439.422 0.
-273.405 -912.855 0.
-443.589 -1312.95 0.
-613.773 -1713.05 0.
-202.21 -1519.75 0.
-164.274 -1432.73 0.
-57.1162 -1321.42 0.
-34.3811 -1270.06 0.
-11.6461 -1218.71 0.
-54.8285 -1227.01 0.
-81.2424 -1287.68 0.
-107.656 -1348.34 0.
-712.332 -1646.38 0.
-727.847 -1683.08 0.
-743.361 -1719.77 0.
-509.322 -1616.45 0.
-505.52 -1604.67 0.
725.597 -1067 0.
-655.216 -1674.09 0.
-657.884 -1681.27 0.
-375.772 -1557.56 0.
-378.369 -1565.19 0.
-380.966 -1572.82 0.
-97.1392 -1426.74 0.
-67.1071 -1357.94 0.
-37.0751 -1289.13 0.
-409.921 -1399.78 0.
-387.923 -1349.07 0.
-365.925 -1298.36 0.
60.069 -1246.07 0.
-19.3062 -1432.74 0.
-291.023 -1681.17 0.
-253.101 -1592.76 0.
-215.179 -1504.35 0.
-525.152 -1620.91 0.
-573.724 -1736.73 0.
-622.296 -1852.54 0.
-266.92 -1696.73 0.
-223.767 -1596.93 0.
-180.613 -1497.13 0.
185.568 -1275.63 0.
216.958 -1201.82 0.
-2308.43 -2223.77 0.
-135.825 -1322.25 0.
-151.339 -1358.76 0.
-65.6507 -1350.59 0.
-79.7258 -1385.41 0.
-93.8011 -1420.23 0.
-91.9001 -1384.05 0.
-33.587 -1248.42 0.
24.7262 -1112.8 0.
-231.9 -1243.97 0.
-274.941 -1343.18 0.
-317.983 -1442.38 0.
-288.125 -1446.26 0.
-292.672 -1462.41 0.
3.5976 -1364.36 0.
-70.6866 -1534.54 0.
-144.971 -1704.72 0.
-292.869 -1858.52 0.
-303.858 -1882.51 0.
-314.847 -1906.5 0.
-218.569 -1733.09 0.
-88.6614 -1432.5 0.
41.2471 -1131.91 0.
-627.749 -1379.25 0.
-631.996 -1392.77 0.
168.606 -1054.9 0.
-214.5 -1242.16 0.
-226.169 -1270.74 0.
-458.428 -1380.53 0.
-430.006 -1319.54 0.
-401.584 -1258.55 0.
-275.274 -1216.65 0.
-320.215 -1324.51 0.
-365.155 -1432.37 0.
-245.703 -1351.05 0.
-198.085 -1241.07 0.
-150.467 -1131.1 0.
-71.9584 -964.967 0.
-1.91409 -802.052 0.
-48.7073 -709.73 0.
-53.9322 -719.379 0.
-59.1571 -729.028 0.
120.416 -660.629 0.
115.887 -667.46 0.
111.358 -674.291 0.
263.386 -635.556 0.
243.135 -681.581 0.
222.885 -727.605 0.
70.9951 -815.534 0.
56.2027 -850.739 0.
-228.908 -1009.12 0.
20.588 -885.771 0.
67.5765 -773.369 0.
-11.6822 -759.927 0.
-80.1072 -916.841 0.
-148.532 -1073.75 0.
190.383 -998.638 0.
190.269 -1000.08 0.
190.155 -1001.52 0.
-358.347 -1174.28 0.
-306.65 -1051.96 0.
-254.954 -929.647 0.
65.1406 -869.62 0.
11.4595 -995.305 0.
-11.1298 -1111.66 0.
-68.2003 -1244.39 0.
-125.27 -1377.11 0.
-231.058 -1449.46 0.
-161.719 -1286.42 0.
-92.3795 -1123.39 0.
-473.469 -1223.51 0.
-470.342 -1216.22 0.
-467.216 -1208.92 0.
-392.948 -1209.16 0.
-411.324 -1252.08 0.
948.941 -703.026 0.
-551.33 -1309.85 0.
-540.348 -1279.55 0.
-247.599 -1161.43 0.
-311.251 -1306.88 0.
-374.903 -1452.32 0.
-149.021 -1435.11 0.
-167.987 -1475.13 0.
-186.953 -1515.15 0.
-406.898 -1600.88 0.
-386.468 -1553.21 0.
-366.037 -1505.54 0.
-6.97113 -1275.5 0.
32.3825 -1181.53 0.
-99.1807 -1164.18 0.
-86.03 -1132.78 0.
-72.8795 -1101.38 0.
-408.428 -1225.93 0.
-409.484 -1227.61 0.
-410.541 -1229.29 0.
9.56253 -1142.74 0.
-73.3915 -1333.36 0.
-156.346 -1523.98 0.
159.724 -1244.01 0.
281.364 -959.572 0.
-885.953 -1229.84 0.
-52.8908 -1066.56 0.
-154.241 -1303.72 0.
-141.418 -1427.98 0.
-97.6819 -1325.77 0.
-53.946 -1223.56 0.
17.1205 -1209.9 0.
-51.03 -1370.74 0.
-119.181 -1531.59 0.
-346.914 -1638.97 0.
-320.862 -1578.09 0.
-294.809 -1517.22 0.
-274.334 -1435.98 0.
-235.082 -1342.35 0.
156.888 -1115.26 0.
122.532 -1195.74 0.
88.175 -1276.23 0.
-137.069 -1377.53 0.
-79.405 -1242.7 0.
-21.7411 -1107.87 0.
-29.6908 -1011.9 0.
15.3283 -902.5 0.
60.3464 -793.103 0.
-566.891 -1117.6 0.
-613.92 -1230.79 0.
400.275 -885.941 0.
-172.179 -1137.65 0.
-176.307 -1146.14 0.
-470.405 -1276.96 0.
-481.031 -1296.01 0.
-491.656 -1315.06 0.
-239.781 -1165.45 0.
-181.262 -1025.82 0.
-122.744 -886.181 0.
3.09878 -901.135 0.
-75.8656 -1085.35 0.
-154.83 -1269.57 0.
-215.383 -1181.58 0.
-140.504 -1005.7 0.
-199.121 -929.977 0.
-289.65 -1142.22 0.
-380.181 -1354.47 0.
-171.148 -1357.04 0.
-149.002 -1306.32 0.
-126.855 -1255.6 0.
8.49752 -1132.18 0.
50.2749 -1036.77 0.
92.0522 -941.355 0.
-113.199 -1069.5 0.
-144.167 -1140.72 0.
-197.082 -963.909 0.
49.7689 -845.39 0.
96.3653 -732.301 0.
56.233 -697.261 0.
-11.8933 -854.236 0.
-80.0199 -1011.21 0.
-71.0871 -1080.98 0.
-71.4116 -1082.36 0.
-71.7359 -1083.75 0.
-163.95 -1058.64 0.
-111.775 -936.672 0.
-59.6007 -814.705 0.
133.547 -809.903 0.
80.082 -935.991 0.
-265.284 -1187.09 0.
-322.207 -1319.71 0.
-379.13 -1452.33 0.
-426.866 -1503.38 0.
-357.799 -1339.94 0.
-288.731 -1176.51 0.
-241.888 -1093.4 0.
-238.352 -1086.52 0.
-234.816 -1079.63 0.
-631.243 -1277.52 0.
-649.664 -1320.54 0.
-412.317 -1253.08 0.
-339.411 -1189.46 0.
-328.392 -1159.13 0.
-164.107 -1092.36 0.
-227.407 -1238.29 0.
-290.708 -1384.23 0.
-325.534 -1479.28 0.
-344.401 -1519.5 0.
-363.267 -1559.71 0.
-195.231 -1477.7 0.
-174.794 -1430.36 0.
-154.357 -1383.03 0.
-222.241 -1336.85 0.
-182.499 -1243.02 0.
-122.022 -1141.19 0.
-108.588 -1110.22 0.
-95.1545 -1079.26 0.
-376.517 -1182.58 0.
-377.022 -1184.88 0.
-377.527 -1187.19 0.
162.806 -1043.82 0.
80.4927 -1235.43 0.
-1.82056 -1427.04 0.
-39.4674 -1297.64 0.
82.4874 -1013.74 0.
6.09966 -815.246 0.
46.5314 -990.829 0.
-55.466 -1227.66 0.
-157.259 -1403.4 0.
-113.853 -1301.04 0.
-70.4456 -1198.69 0.
3.99382 -1184.76 0.
-64.1952 -1345.65 0.
-132.384 -1506.55 0.
-159.609 -1526.54 0.
-133.24 -1465.79 0.
-106.872 -1405.04 0.
-256.218 -1396.6 0.
-216.591 -1303.04 0.
173.819 -1077.13 0.
139.308 -1157.35 0.
104.797 -1237.57 0.
-173.2 -1363.33 0.
-115.594 -1228.3 0.
-57.9873 -1093.26 0.
-284.302 -1088.52 0.
-239.777 -978.946 0.
-195.253 -869.371 0.
-495.547 -1055.97 0.
-543.107 -1168.77 0.
74.313 -992.787 0.
-271.335 -1148.14 0.
-274.935 -1156.76 0.
-382.791 -1208.61 0.
-392.466 -1228.59 0.
-402.141 -1248.56 0.
-159.375 -1099.52 0.
-100.748 -960.057 0.
-42.122 -820.596 0.
165.028 -799.254 0.
86.3862 -983.843 0.
7.74409 -1168.43 0.
-533.047 -1285.45 0.
-458.157 -1109.56 0.
-157.205 -880.918 0.
-248.053 -1092.2 0.
-338.902 -1303.48 0.
-130.395 -1309.51 0.
-108.648 -1258.47 0.
-86.9016 -1207.42 0.
-133.341 -1161.46 0.
-91.6907 -1066.23 0.
-50.0406 -971.007 0.
-378.458 -1151.88 0.
-409.601 -1223.82 0.
-114.016 -780.402 0.
745.466 765.409 0.
433.068 35.0217 0.
197.982 -470.16 0.
-94.4104 -1151.84 0.
678.173 651.552 0.
296.491 314.829 0.
197.488 78.4401 0.
-288.054 -1059.76 0.
358.346 -178.051 0.
332.541 -238.31 0.
249.514 -432.647 0.
424.114 -236.087 0.
325.464 -466.708 0.
-105.162 -292.217 0.
23.1081 8.12923 0.
-228.054 -577.055 0.
-209.926 -586.623 0.
-33.3678 -174.824 0.
30.1059 -26.9443 0.
431.531 68.8381 0.
499.858 227.356 0.
351.91 -118.791 0.
-477.763 -431.358 0.
-348.076 -130.606 0.
-686.451 -192.367 0.
49.2594 -656.528 0.
218.899 -259.949 0.
218.109 -324.529 0.
28.054 -764.481 0.
253.864 -234.123 0.
16.9422 -315.158 0.
4.8946 -342.135 0.
320.965 396.455 0.
622.888 58.5617 0.
75.6599 -1217.17 0.
613.679 39.1467 0.
72.2617 -211.244 0.
-227.004 -906.985 0.
146.706 -439.705 0.
232.035 -240.522 0.
309.342 -59.8594 0.
135.275 -36.9915 0.
169.905 44.9012 0.
-45.3807 -456.016 0.
511.304 -489.101 0.
615.35 -249.109 0.
678.926 -103.278 0.
376.265 86.4099 0.
456.388 272.146 0.
40.1315 -1032.88 0.
277.334 -612.439 0.
425.391 -266.302 0.
545.513 297.82 0.
193.492 -521.406 0.
259.302 -365.42 0.
29.0876 -1074.6 0.
339.353 -348.457 0.
672.729 431.658 0.
492.356 -326.478 0.
540.805 -210.714 0.
833.119 473.815 0.
153.663 -452.003 0.
19.1951 -763.414 0.
679.745 99.8861 0.
401.407 -546.279 0.
422.446 -494.037 0.
358.528 -25.4359 0.
488.515 278.48 0.
67.5693 -703.32 0.
-253.05 -486.78 0.
-102.181 -134.645 0.
-153.596 -255.283 0.
328.794 760.357 0.
-200.418 -470.832 0.
-148.455 -445.294 0.
232.06 235.008 0.
-101.972 -539.475 0.
589.201 920.069 0.
227.08 77.1416 0.
117.019 -177.51 0.
53.2583 -721.186 0.
567.506 476.897 0.
304.876 -137.779 0.
513.943 -257.123 0.
439.212 -430.716 0.
514.629 -253.76 0.
-277.144 -54.0853 0.
-480.511 -527.806 0.
244.061 11.0314 0.
23.8661 -501.437 0.
136.623 -238.139 0.
442.813 -16.1195 0.
396.726 -120.78 0.
456.607 21.288 0.
313.331 178.582 0.
-133.494 -865.597 0.
6.25862 -538.695 0.
-522.478 -958.532 0.
-354.759 -568.624 0.
-398.618 -853.206 0.
167.29 -736.849 0.
49.2722 -1012.86 0.
-247.506 -1276.88 0.
-127.498 -995.884 0.
-7.48911 -714.89 0.
-16.0803 -679.709 0.
-127.805 -945.179 0.
-239.529 -1210.65 0.
-228.245 -1173.63 0.
-134.79 -955.65 0.
-41.3347 -737.673 0.
91.4471 -747.923 0.
30.1042 -887.607 0.
-325.986 -1146.51 0.
-309.665 -1109.02 0.
-293.343 -1071.54 0.
-449.186 -1125.43 0.
-471.762 -1178.76 0.
-494.337 -1232.1 0.
-122.093 -1094.15 0.
-129.374 -1109.91 0.
-136.656 -1125.68 0.
-745.289 -1429.17 0.
-771.807 -1493.06 0.
-433.361 -1399.9 0.
-463.16 -1472.36 0.
-493.341 -1541.62 0.
-242.117 -1464.13 0.
-210.104 -1388.61 0.
-178.091 -1313.08 0.
-453.614 -1375.69 0.
-424.166 -1308.44 0.
-394.718 -1241.19 0.
-40.5108 -1091.35 0.
-65.5627 -1146.13 0.
-90.6152 -1200.92 0.
-414.286 -1331.7 0.
-405.36 -1310.9 0.
-127.957 -1176.23 0.
-110.127 -1135.75 0.
-92.2977 -1095.28 0.
-379.983 -1194.34 0.
-378.503 -1190.72 0.
-377.022 -1187.09 0.
258.976 -971.082 0.
207.719 -1094.74 0.
156.461 -1218.4 0.
19.6584 -1273.11 0.
38.0272 -1229.2 0.
812.76 -860.773 0.
-140.565 -1196.78 0.
-103.487 -1108.96 0.
92.0531 -1008.42 0.
2.34322 -1216.87 0.
-87.3667 -1425.32 0.
-278.366 -1545.44 0.
-214.297 -1396.12 0.
-150.228 -1246.8 0.
-50.2799 -1207.23 0.
-83.4491 -1281.9 0.
-116.618 -1356.56 0.
-140.475 -1517.73 0.
-225.365 -1717.97 0.
-338.974 -1898.11 0.
-276.739 -1752.86 0.
-214.503 -1607.62 0.
-369.987 -1522.63 0.
-256.238 -1255.45 0.
-142.488 -988.274 0.
-364.359 -1040.16 0.
-412.918 -1155.44 0.
-461.476 -1270.73 0.
-582.813 -1374.08 0.
-603.398 -1421.81 0.
29.4049 -1191.83 0.
-542.089 -1548.53 0.
-602.914 -1686.81 0.
-461.684 -1680.09 0.
-386.167 -1503.41 0.
-310.65 -1326.73 0.
-88.9876 -1170.17 0.
-107.778 -1214.44 0.
-126.569 -1258.7 0.
-169.896 -1213.24 0.
-111.22 -1078.29 0.
-52.5459 -943.341 0.
-608.31 -1133.85 0.
-584.537 -1079.85 0.
-80.5197 -815.307 0.
-50.6089 -746.723 0.
-20.6981 -678.139 0.
98.1125 -618.356 0.
54.6516 -720.683 0.
11.1899 -823.01 0.
-241.781 -884.673 0.
-160.399 -694.522 0.
-79.0183 -504.372 0.
-129.94 -576.184 0.
-190.162 -716.729 0.
-693.657 -952.454 0.
263.05 -664.653 0.
144.901 -940.553 0.
-351.219 -1289.7 0.
-231.279 -1008.5 0.
-111.338 -727.289 0.
140.001 -580.209 0.
28.1611 -845.918 0.
-83.6791 -1111.63 0.
-409.24 -1221.28 0.
-316.412 -1002.77 0.
-223.583 -784.255 0.
-35.8443 -771.817 0.
-97.1428 -911.709 0.
-130.423 -1031.38 0.
-114.423 -993.674 0.
-98.4234 -955.964 0.
-439.094 -1089.81 0.
-461.972 -1142.99 0.
-484.85 -1196.17 0.
-175.769 -1086.08 0.
-182.898 -1102.13 0.
-190.026 -1118.18 0.
-530.283 -1305.36 0.
-556.638 -1369.65 0.
365.283 -1026.58 0.
-646.867 -1518.98 0.
-676.564 -1588.48 0.
-189.596 -1410.37 0.
-158.104 -1334.29 0.
-126.612 -1258.2 0.
-456.637 -1346.53 0.
-427.12 -1279.45 0.
-397.603 -1212.37 0.
-235.863 -1143.3 0.
-260.423 -1198.8 0.
-284.983 -1254.31 0.
-402.718 -1294.34 0.
-393.724 -1273.36 0.
-61.1815 -1117.56 0.
-43.4325 -1076.98 0.
-25.6835 -1036.41 0.
-384.571 -1166.61 0.
-382.702 -1163.24 0.
-380.833 -1159.87 0.
213.732 -958.409 0.
162.593 -1082.5 0.
111.453 -1206.6 0.
317.079 -1112.68 0.
335.704 -1069.11 0.
-448.812 -1368.85 0.
-329.652 -1245.38 0.
-293.095 -1157.29 0.
242.146 -914.507 0.
152.069 -1122.9 0.
61.992 -1331.29 0.
-389.039 -1561.17 0.
-325.124 -1411.91 0.
-261.21 -1262.65 0.
-240.332 -1257.1 0.
-273.549 -1331.61 0.
-306.765 -1406.11 0.
77.2167 -1394.15 0.
-7.81623 -1594.25 0.
-517.72 -1942.23 0.
-455.055 -1797.15 0.
-392.391 -1652.08 0.
-461.438 -1529.96 0.
-347.325 -1262.96 0.
-233.212 -995.966 0.
-187.166 -933.07 0.
-236.11 -1047.97 0.
-285.054 -1162.87 0.
-558.896 -1332.81 0.
-578.894 -1380.83 0.
392.919 -1003.7 0.
-536.097 -1514.32 0.
-596.075 -1653.31 0.
-367.362 -1605.68 0.
-291.479 -1429.34 0.
-215.596 -1253.01 0.
-10.3274 -1106.45 0.
-29.5051 -1150.12 0.
-48.6829 -1193.78 0.
-487.16 -1317.09 0.
-428.473 -1182.12 0.
-369.788 -1047.15 0.
-425.056 -1022.99 0.
-400.998 -968.917 0.
-30.4934 -762.042 0.
-0.607729 -693.476 0.
29.278 -624.91 0.
12.1701 -624.15 0.
-31.6827 -726.244 0.
-75.5363 -828.338 0.
-347.412 -899.059 0.
-266.159 -709.198 0.
-184.907 -519.338 0.
165.371 -418.252 0.
104.503 -559.047 0.
-450.91 -643.665 0.
317.997 -408.214 0.
299.204 -450.58 0.
-152.026 -707.87 0.
-263.721 -970.153 0.
-375.417 -1232.44 0.
-52.2435 -1149.84 0.
40.7194 -931.979 0.
133.682 -714.118 0.
-354.22 -896.835 0.
-389.882 -981.083 0.
-425.544 -1065.33 0.
-170.942 -891.395 0.
-120.263 -773.421 0.
15.2331 -630.874 0.
-28.6087 -731.833 0.
-72.4503 -832.792 0.
-378.8 -1017.71 0.
-379.722 -1019.35 0.
-380.644 -1020.99 0.
-206.568 -1040.82 0.
-294.778 -1246.97 0.
-382.989 -1453.12 0.
-438.819 -1307.15 0.
-296.72 -972.306 0.
662.464 -286.882 0.
-307.775 -808.925 0.
-366.06 -947.742 0.
-27.6533 -906.04 0.
-35.7019 -928.966 0.
-43.7506 -951.89 0.
-334.852 -1059.25 0.
-317.307 -1015.67 0.
-299.761 -972.088 0.
-271.775 -1030.62 0.
-331.205 -1170.86 0.
-390.635 -1311.1 0.
-441.41 -1311.44 0.
-423.43 -1269.53 0.
-33.1818 -1058.04 0.
40.7245 -885.072 0.
114.631 -712.106 0.
-226.758 -815.422 0.
-305.055 -997.72 0.
-383.351 -1180.02 0.
134.298 -1021.39 0.
138.958 -1007.92 0.
143.619 -994.461 0.
345.235 -1010.14 0.
275.159 -1171.79 0.
-833.827 -1777.07 0.
-359.396 -1476.87 0.
-306.865 -1357.98 0.
66.1702 -1132.02 0.
51.4601 -1169.59 0.
36.7505 -1207.16 0.
-292.508 -1316.03 0.
-234.71 -1182.11 0.
-176.913 -1048.18 0.
-111.423 -987.577 0.
-115.622 -999.988 0.
-119.821 -1012.4 0.
221.937 -866.756 0.
220.274 -867.794 0.
-222.48 -1031.37 0.
-117.388 -783.261 0.
-12.2957 -535.15 0.
-3.22178 -471.297 0.
-120.445 -745.313 0.
-237.668 -1019.33 0.
-150.979 -1046.4 0.
-119.129 -973.678 0.
-87.2784 -900.959 0.
-399.553 -1036.85 0.
-408.462 -1056.46 0.
-824.016 -1245.54 0.
-420.341 -1134.13 0.
-453.549 -1209.6 0.
-148.241 -1104.67 0.
-87.5518 -962.465 0.
-26.8621 -820.26 0.
136.362 -718.227 0.
90.7325 -826.397 0.
45.1025 -934.567 0.
-462.622 -1176.93 0.
-454.612 -1155.43 0.
-446.603 -1133.93 0.
-481.551 -1145.09 0.
-484.914 -1153.88 0.
-165.229 -1014.11 0.
-129.368 -929.641 0.
-93.5069 -845.172 0.
-76.0946 -777.506 0.
-51.8202 -721.237 0.
-27.5459 -664.966 0.
-319.027 -878.728 0.
-422.443 -1121.84 0.
-525.858 -1364.96 0.
-89.0815 -1098.28 0.
-3.26846 -898.333 0.
217.099 -329.506 0.
106.683 -468.466 0.
88.4581 -511.213 0.
-131.314 -666.955 0.
-242.683 -929.394 0.
-354.053 -1191.83 0.
-51.8092 -1115.82 0.
41.6268 -898.724 0.
135.062 -681.627 0.
-347.94 -864.104 0.
-383.962 -948.198 0.
-419.983 -1032.29 0.
-206.566 -873.903 0.
-155.958 -755.562 0.
-213.923 -698.676 0.
-258.268 -799.339 0.
-302.612 -900.002 0.
-288.076 -948.748 0.
-289.644 -949.826 0.
-291.212 -950.904 0.
-238.147 -1023.81 0.
-326.315 -1230.31 0.
-414.483 -1436.8 0.
-407.063 -1261.36 0.
-264.95 -926.844 0.
44.2837 -519.921 0.
5.88839 -642.562 0.
-52.404 -781.383 0.
-182.375 -940.56 0.
-190.408 -963.439 0.
-198.442 -986.319 0.
-295.537 -1012.88 0.
-278.105 -969.483 0.
-260.672 -926.082 0.
-250.297 -989.079 0.
-309.733 -1129.41 0.
-369.17 -1269.75 0.
-498.214 -1305.18 0.
-480.337 -1262.99 0.
-68.3631 -1042.01 0.
6.2327 -869.332 0.
80.8286 -696.651 0.
-173.021 -761.442 0.
-251.528 -943.777 0.
-330.036 -1126.11 0.
90.8769 -1008.06 0.
96.2367 -995.48 0.
101.597 -982.905 0.
36.2191 -1110.04 0.
-33.994 -1271.39 0.
-154.025 -1453.26 0.
39.8844 -1274.39 0.
92.5978 -1155.45 0.
-259.429 -1240.79 0.
-274.63 -1277.77 0.
-289.831 -1314.75 0.
-167.283 -1231.99 0.
-109.713 -1098.03 0.
-52.143 -964.079 0.
156.697 -842.729 0.
151.763 -854.615 0.
146.827 -866.502 0.
-166.809 -1002.09 0.
-168.727 -1003.4 0.
-254.924 -1015.56 0.
-150.314 -766.858 0.
-45.7037 -518.155 0.
127.926 -384.059 0.
10.3788 -657.569 0.
-107.169 -931.079 0.
-92.2999 -989.883 0.
-60.3102 -917.187 0.
-28.3205 -844.492 0.
-314.108 -968.759 0.
-323.306 -988.138 0.
-747.345 -1182.66 0.
-504.318 -1139.99 0.
-537.377 -1215.48 0.
-204.975 -1097.48 0.
-144.637 -954.735 0.
-84.2978 -811.994 0.
45.2894 -726.486 0.
-0.495828 -834.314 0.
-46.2813 -942.142 0.
-195.049 -1029.47 0.
-187.307 -1007.92 0.
-179.566 -986.376 0.
-639.374 -1182.59 0.
-643.498 -1190.77 0.
-240.021 -1014.92 0.
-203.89 -930.68 0.
-167.759 -846.444 0.
-14.1422 -719.591 0.
9.4045 -662.501 0.
32.951 -605.41 0.
-136.049 -770.092 0.
-239.29 -1013.45 0.
-342.531 -1256.82 0.
-249.871 -1136.1 0.
-163.684 -936.646 0.
984.888 -84.4657 0.
14.6884 -233.578 0.
-554.746 -1561.58 0.
20.198 -331.917 0.
406.409 570.512 0.
261.197 233.169 0.
678.002 618.808 0.
232.529 -420.516 0.
126.093 -668.488 0.
-0.981323 -31.7512 0.
-23.5454 -83.3533 0.
29.621 41.973 0.
156.036 68.2346 0.
-54.535 -424.217 0.
12.0281 303.147 0.
-268.635 -350.799 0.
-604.465 -1132.74 0.
-140.82 -747.877 0.
415.373 549.772 0.
323.246 334.815 0.
2.53653 -370.781 0.
132.118 -71.1717 0.
65.6168 -229.285 0.
-396.594 -1271.16 0.
-247.765 -920.095 0.
854.555 301.111 0.
843.232 748.73 0.
649.686 299.542 0.
229.842 342.41 0.
308.946 524.518 0.
-23.6698 -253.687 0.
-6.64332 -381.684 0.
50.5809 -250.078 0.
158.514 0.0320377 0.
279.499 235.227 0.
161.25 -40.0741 0.
-105.415 -661.753 0.
13.829 22.8671 0.
-5.35364 -24.4365 0.
179.666 -371.141 0.
-210.356 -1281.93 0.
84.1968 -595.273 0.
159.03 -63.8292 0.
198.149 27.7754 0.
-67.634 -591.962 0.
385.786 -206.354 0.
354.188 -279.55 0.
488.414 34.2607 0.
231.701 -41.2033 0.
215.203 -79.0363 0.
-1711.12 -1416.1 0.
862.278 -73.6646 0.
962.458 159.05 0.
-135.113 -293.694 0.
-20.133 -26.3564 0.
50.6525 137.574 0.
267.998 -430.231 0.
175.661 -645.157 0.
411.598 -93.8948 0.
939.485 501.61 0.
744.037 47.27 0.
586.118 -319.536 0.
-364.76 -701.916 0.
11.2716 180.157 0.
-34.4878 -399.804 0.
-0.61458 -317.61 0.
2.83418 -306.599 0.
109.749 -640.976 0.
110.182 -637.79 0.
191.841 -444.644 0.
197.231 -402.113 0.
504.928 318.234 0.
390.375 52.4912 0.
66.6033 -217.153 0.
-6.78332 -385.88 0.
-439.02 -1064.95 0.
-176.161 -187.133 0.
-549.087 -1057.44 0.
55.8824 -341.161 0.
181.905 -49.4364 0.
85.4672 -276.827 0.
-10.9164 -654.707 0.
-196.021 -1082.41 0.
86.9698 -416.89 0.
641.655 448.707 0.
421.092 -67.0244 0.
440.82 -22.253 0.
-198.085 181.164 0.
59.2815 784.641 0.
-110.022 -540.309 0.
465.226 802.495 0.
-51.7397 -404.199 0.
330.459 4.03064 0.
615.9 668.585 0.
555.017 524.41 0.
94.4553 -552.104 0.
444.404 267.47 0.
180.24 -346.099 0.
503.982 943.692 0.
-50.3169 -353.052 0.
258.833 -637.598 0.
-115.782 -727.879 0.
-96.3716 -681.01 0.
-155.363 -690.223 0.
-154.413 -688.288 0.
-153.463 -686.354 0.
56.8126 -596.706 0.
44.9414 -622.736 0.
33.0695 -648.766 0.
-241.176 -786.141 0.
-244.347 -793.967 0.
-247.517 -801.792 0.
-277.734 -811.642 0.
-275.115 -808.716 0.
-458.989 -880.517 0.
-432.885 -822.758 0.
-406.781 -764.998 0.
-220.67 -706.321 0.
-303.703 -900.421 0.
-386.737 -1094.52 0.
-79.5252 -994.267 0.
-47.1005 -919.399 0.
-14.6754 -844.531 0.
-305.33 -984.665 0.
-322.416 -1024.21 0.
-0.994766 -918.911 0.
86.2692 -812.488 0.
124.293 -721.916 0.
-210.283 -805.8 0.
-225.819 -839.847 0.
-241.354 -873.894 0.
-219.428 -943.536 0.
-284.973 -1099.42 0.
-350.519 -1255.31 0.
-386.419 -1206.72 0.
-305.071 -1016.82 0.
-223.723 -826.915 0.
-380.302 -965.407 0.
-429.93 -1083.2 0.
-189.651 -1076.96 0.
-237.158 -1187.01 0.
-284.665 -1297.06 0.
-424.182 -1374.64 0.
-356.418 -1218.38 0.
-288.653 -1062.11 0.
-82.5243 -915.323 0.
-81.3603 -913.517 0.
-80.1966 -911.712 0.
181.064 -793.442 0.
187.314 -782.628 0.
277.645 -738.108 0.
242.231 -864.416 0.
183.508 -1000.19 0.
-558.888 -1356.75 0.
-452.247 -1106.14 0.
-345.607 -855.528 0.
166.556 -574.857 0.
108.217 -710.816 0.
49.877 -846.774 0.
59.684 -968.868 0.
-8.3846 -1128.45 0.
-76.4528 -1288.04 0.
-494.533 -1300.23 0.
-390.419 -1057.63 0.
-160.994 -797.36 0.
-226.93 -952.415 0.
-292.866 -1107.47 0.
-166.994 -1087.49 0.
-93.3317 -913.762 0.
-19.6701 -740.031 0.
-9.67264 -715.002 0.
-54.2112 -812.418 0.
-98.7493 -909.833 0.
-218.526 -982.976 0.
-224.567 -995.742 0.
-89.8522 -946.93 0.
-536.486 -1084.47 0.
-507.262 -1016.8 0.
-24.2765 -755.87 0.
6.00997 -688.138 0.
36.2967 -620.406 0.
-124.473 -668.548 0.
-128.926 -678.25 0.
-133.379 -687.952 0.
135.617 -625.549 0.
94.2595 -726.573 0.
52.9014 -827.598 0.
-626.274 -1037.59 0.
-573.792 -912.788 0.
-20.7226 -599.108 0.
-78.8397 -733.473 0.
-136.957 -867.837 0.
-213.228 -956.187 0.
-185.287 -893.928 0.
-157.347 -831.67 0.
-63.7819 -787.828 0.
-79.5638 -823.667 0.
-95.3456 -859.507 0.
-117.058 -883.076 0.
-124.272 -900.322 0.
335.219 -577.821 0.
0.537694 -648.306 0.
19.8747 -601.367 0.
-164.455 -662.08 0.
-162.807 -660.704 0.
-161.159 -659.328 0.
-50.0911 -609.632 0.
-61.278 -635.966 0.
-72.4655 -662.3 0.
-122.588 -703.051 0.
-125.863 -710.719 0.
-129.137 -718.388 0.
-327.329 -801.378 0.
-324.648 -798.716 0.
-395.431 -821.193 0.
-369.462 -763.603 0.
-343.492 -706.012 0.
-322.225 -718.701 0.
-405.509 -912.757 0.
-488.792 -1106.81 0.
163.549 -857.743 0.
196.381 -783.24 0.
229.214 -708.736 0.
-325.02 -962.621 0.
-341.703 -1002.12 0.
-471.089 -1090.48 0.
-10.0897 -821.894 0.
28.7689 -731.984 0.
-129.934 -740.198 0.
-145.205 -774.532 0.
-160.477 -808.867 0.
-171.394 -891.7 0.
-236.898 -1047.46 0.
-302.403 -1203.23 0.
-428.943 -1194.07 0.
-347.366 -1004.8 0.
-265.789 -815.522 0.
-324.583 -909.797 0.
-374.147 -1027.88 0.
-256.138 -1072.91 0.
-303.015 -1183.7 0.
-349.891 -1294.49 0.
-433.987 -1347.46 0.
-366.064 -1191.57 0.
-298.141 -1035.67 0.
-271.866 -964.724 0.
-270.153 -963.578 0.
-268.439 -962.433 0.
533.226 -610.728 0.
539.791 -600.237 0.
-2612.24 -1943.41 0.
-91.4129 -974.526 0.
-149.509 -1110.68 0.
-502.57 -1302.34 0.
-395.908 -1051.59 0.
-289.247 -800.844 0.
137.15 -555.993 0.
79.2349 -692.189 0.
21.3195 -828.385 0.
-236.812 -1064.16 0.
-304.539 -1223.84 0.
-372.265 -1383.52 0.
-318.68 -1192.93 0.
-214.475 -950.389 0.
-87.1772 -734.866 0.
-153.654 -889.514 0.
-220.131 -1044.16 0.
-253.464 -1094.37 0.
-180.204 -920.489 0.
-106.943 -746.608 0.
-84.1475 -715.079 0.
-128.79 -812.998 0.
-173.432 -910.917 0.
-150.28 -923.795 0.
-156.788 -936.251 0.
347.338 -728.432 0.
-490.04 -1031.68 0.
-461.143 -963.555 0.
109.461 -669.869 0.
139.643 -601.526 0.
169.826 -533.181 0.
-236.448 -685.142 0.
-240.447 -694.82 0.
-244.446 -704.499 0.
94.5994 -612.111 0.
53.2197 -712.997 0.
11.8396 -813.885 0.
-490.491 -947.381 0.
-437.442 -822.834 0.
130.801 -501.494 0.
73.0615 -636.24 0.
15.3226 -770.985 0.
-358.135 -987.712 0.
-330.211 -925.477 0.
-302.287 -863.243 0.
-115.074 -777.362 0.
-130.735 -813.524 0.
-146.396 -849.687 0.
96.944 -762.159 0.
89.2833 -779.002 0.
-210.502 -647.817 0.
204.936 -407.965 0.
235.5 -337.845 0.
-64.056 -418.003 0.
-49.555 -382.792 0.
-35.0543 -347.581 0.
14.695 -368.444 0.
-53.6803 -528.02 0.
-122.056 -687.597 0.
-61.9812 -661.832 0.
-27.9086 -582.549 0.
6.16397 -503.266 0.
-371.169 -679.36 0.
-383.863 -708.605 0.
-283.206 -678.573 0.
-254.671 -612.237 0.
-226.137 -545.901 0.
-319.641 -569.123 0.
-344.446 -628.111 0.
-369.251 -687.1 0.
307.031 -390.038 0.
341.111 -310.421 0.
375.191 -230.804 0.
-51.2555 -532.98 0.
-146.788 -756.26 0.
321.622 -736.402 0.
-36.833 -776.639 0.
21.3102 -637.207 0.
-107.685 -617.681 0.
-149.127 -714.51 0.
-190.57 -811.34 0.
-110.624 -792.399 0.
-73.6124 -703.25 0.
-36.6007 -614.1 0.
-196.421 -679.241 0.
-212.401 -715.889 0.
-228.379 -752.538 0.
-219.54 -702.568 0.
-189.777 -632.089 0.
-88.1321 -545.777 0.
-135.629 -655.32 0.
-183.127 -764.864 0.
-131.838 -772.629 0.
-80.4737 -650.928 0.
-29.1086 -529.228 0.
-178.786 -610.939 0.
-235.93 -741.486 0.
-293.074 -872.032 0.
487.811 -526.698 0.
515.819 -462.256 0.
-1338.45 -1203.17 0.
63.1824 -526.203 0.
102.169 -433.736 0.
-158.89 -506.291 0.
-203.512 -613.937 0.
-248.135 -721.583 0.
107.81 -632.093 0.
89.9158 -674.848 0.
72.0219 -717.603 0.
-258.036 -803.264 0.
-205.074 -680.45 0.
-152.113 -557.636 0.
-55.9603 -602.232 0.
-111.433 -731.244 0.
-85.9412 -809.523 0.
-59.8864 -747.532 0.
-33.8319 -685.542 0.
-73.9301 -668.75 0.
-70.1855 -660.712 0.
-66.4411 -652.675 0.
-147.127 -681.888 0.
-154.305 -703.976 0.
-161.483 -726.063 0.
-96.6074 -730.789 0.
-111.956 -768.417 0.
56.4064 -725.94 0.
-305.451 -743.698 0.
-231.726 -573.901 0.
255.161 -321.242 0.
112.324 -655.438 0.
-30.5123 -989.634 0.
-441.05 -1227.5 0.
-339.31 -991.258 0.
-237.57 -755.012 0.
8.6337 -611.592 0.
-10.9172 -653.233 0.
-30.4675 -694.874 0.
-398.926 -947.325 0.
-454.079 -1075.37 0.
-57.1986 -961.394 0.
84.0231 -634.629 0.
225.245 -307.863 0.
-182.177 -375.708 0.
-282.75 -609.101 0.
-383.322 -842.495 0.
-113.266 -782.752 0.
-89.2678 -727.522 0.
-65.2688 -672.292 0.
164.75 -518.901 0.
196.565 -447.285 0.
412.668 -351.787 0.
358.549 -311.78 0.
389.136 -241.787 0.
-43.2919 -376.468 0.
-28.3175 -341.712 0.
-13.3434 -306.957 0.
58.8961 -317.024 0.
-9.38194 -476.644 0.
-77.6601 -636.264 0.
-34.7628 -619.046 0.
-0.58898 -540.067 0.
33.5848 -461.087 0.
-526.599 -714.014 0.
-539.257 -743.482 0.
-195.231 -608.961 0.
-166.953 -542.523 0.
-138.675 -476.086 0.
-321.692 -538.832 0.
-346.546 -598.011 0.
-371.401 -657.19 0.
-50.7265 -509.781 0.
-16.5482 -430.398 0.
17.6308 -351.014 0.
221.486 -384.472 0.
125.735 -607.409 0.
915.009 -448.833 0.
-16.0723 -736.767 0.
42.4425 -597.559 0.
-235.244 -640.2 0.
-276.464 -737.241 0.
-317.685 -834.283 0.
-87.1444 -751.105 0.
-50.1558 -662.223 0.
-13.1667 -573.341 0.
-92.1802 -604.186 0.
-108.142 -641.375 0.
-124.105 -678.564 0.
-207.611 -664.661 0.
-177.701 -594.622 0.
-137.595 -535.061 0.
-184.806 -644.98 0.
-232.018 -754.899 0.
42.7243 -665.996 0.
94.5134 -544.95 0.
146.303 -423.903 0.
-97.828 -543.275 0.
-154.756 -673.984 0.
-211.684 -804.693 0.
-31.9902 -718.593 0.
-4.0631 -653.981 0.
-988.885 -1021.83 0.
325.531 -382.045 0.
364.326 -289.676 0.
-165.52 -478.783 0.
-210.211 -586.623 0.
-254.902 -694.463 0.
172.269 -571.783 0.
154.519 -614.653 0.
136.768 -657.523 0.
-247.624 -767.349 0.
-194.251 -644.473 0.
-140.877 -521.597 0.
-170.439 -619.593 0.
-225.347 -748.974 0.
-55.6772 -764.588 0.
-29.5066 -702.714 0.
-3.33621 -640.841 0.
46.8112 -585.354 0.
49.6643 -576.965 0.
52.5173 -568.575 0.
-221.367 -683.876 0.
-229.439 -705.702 0.
-237.51 -727.527 0.
-193.299 -741.739 0.
-208.83 -779.346 0.
183.631 -640.575 0.
-171.802 -655.043 0.
-97.9771 -485.477 0.
137.029 -340.798 0.
-5.57177 -675.12 0.
-148.172 -1009.44 0.
-221.201 -1100.27 0.
-118.998 -863.921 0.
-16.7944 -627.573 0.
-137.707 -642.589 0.
-156.541 -684.544 0.
-175.374 -726.498 0.
-282.219 -864.037 0.
-337.535 -991.751 0.
-145.472 -969.228 0.
-4.1098 -642.25 0.
137.252 -315.271 0.
-219.94 -361.789 0.
-320.362 -595.197 0.
-420.784 -828.604 0.
-35.3232 -718.138 0.
-11.0688 -663.198 0.
13.1861 -608.258 0.
-91.2049 -598.399 0.
-58.8903 -527.548 0.
455.813 337.692 0.
512.417 -215.401 0.
790.011 430.395 0.
238.516 274.071 0.
82.5342 -84.8732 0.
-130.55 -578.065 0.
-89.1653 -725.71 0.
258.984 89.9576 0.
-108.842 -764.835 0.
313.703 179.31 0.
344.725 248.458 0.
168.609 -165.32 0.
-453.868 -212.8 0.
-353.256 21.212 0.
5.62493 -269.163 0.
283.577 376.449 0.
109.06 -33.3264 0.
11.4568 274.844 0.
-205.563 -231.045 0.
-36.9597 161.964 0.
-102.097 90.4576 0.
-163.812 -56.7836 0.
-18.895 278.212 0.
450.76 -327.537 0.
315.568 -641.415 0.
-166.064 128.143 0.
636.436 771.608 0.
735.07 1002.71 0.
-10.0257 161.307 0.
-97.5405 -44.8109 0.
-68.6881 21.282 0.
-90.4777 -772.68 0.
81.0393 -372.5 0.
285.621 105.417 0.
646.943 944.754 0.
475.974 545.274 0.
-162.882 -945.492 0.
213.842 325.021 0.
208.572 313.542 0.
-55.4834 -209.735 0.
-53.9989 -208.095 0.
23.8598 -28.1008 0.
380.393 -178.892 0.
237.197 -515.157 0.
215.036 -568.817 0.
174.688 -27.0754 0.
508.778 752.922 0.
153.285 -76.0866 0.
-152.576 16.2227 0.
-441.316 -658.109 0.
-36.9087 -1681.12 0.
502.047 -424.393 0.
651.439 -75.1617 0.
-198.349 -520.319 0.
-222.362 -576.697 0.
-271.878 -691.954 0.
241.314 -504.16 0.
350.053 -251.519 0.
276.19 -424.857 0.
-315.021 -911.286 0.
-105.594 -424.083 0.
282.827 480.328 0.
-300.208 -678.903 0.
-93.8993 -197.714 0.
424.29 334.602 0.
134.322 -344.079 0.
-35.7954 -742.854 0.
175.599 -487.151 0.
255.529 -298.163 0.
196.275 -433.734 0.
-329.525 -765.73 0.
-161.932 -375.876 0.
-52.9421 -121.884 0.
-182.228 -503.126 0.
-367.353 -929.57 0.
-400.894 -1578.04 0.
205.599 -3.97724 0.
-94.7866 -705.862 0.
31.7533 -316.675 0.
157.78 -25.3132 0.
-11.9811 -424.047 0.
337.458 -182.064 0.
598.335 424.738 0.
168.301 -580.685 0.
-276.489 -652.39 0.
-113.534 -274.072 0.
-427.627 -1008.9 0.
97.129 -165.296 0.
213.451 108.046 0.
278.054 214.714 0.
337.54 354.043 0.
237.072 119.872 0.
-118.778 -36.6734 0.
92.7738 459.992 0.
-227.777 -285.952 0.
424.142 240.01 0.
427.961 249.94 0.
551.857 539.024 0.
-168.093 -265.497 0.
-46.0779 19.9626 0.
-515.839 -898.972 0.
325.059 -452.429 0.
378.097 -327.206 0.
-257.841 -517.267 0.
-255.691 -509.853 0.
-253.541 -502.44 0.
177.262 -359.013 0.
122.869 -485.24 0.
68.477 -611.467 0.
-48.3158 -632.103 0.
1.60713 -515.45 0.
51.53 -398.798 0.
-606.354 -544.86 0.
-533.788 -374.61 0.
53.911 -12.8374 0.
15.5367 -103.961 0.
-22.8381 -195.084 0.
-55.2943 -236.322 0.
-21.8569 -156.253 0.
11.5803 -76.1836 0.
-200.013 -234.225 0.
-295.436 -455.843 0.
-390.858 -677.46 0.
196.701 -456.21 0.
209.978 -425.928 0.
-374.064 -651.262 0.
47.8489 -564.749 0.
-7.36627 -693.927 0.
-292.353 -879.501 0.
-229.168 -732.016 0.
-165.984 -584.531 0.
-140.925 -500.183 0.
-136.509 -491.412 0.
-132.092 -482.64 0.
-73.4642 -483.399 0.
-95.7508 -534.339 0.
-118.037 -585.28 0.
-53.1915 -477.553 0.
-4.16036 -360.986 0.
-31.9759 -300.184 0.
-96.6631 -446.761 0.
-161.35 -593.337 0.
42.5985 -612.918 0.
-0.376257 -713.349 0.
-43.3509 -813.781 0.
-186.189 -776.54 0.
-57.0668 -477.559 0.
72.0557 -178.576 0.
-68.8813 -251.165 0.
-115.668 -360.76 0.
-1263.47 -943.364 0.
352.543 -359.735 0.
297.121 -492.119 0.
-220.948 -764.118 0.
-138.025 -569.574 0.
-55.1031 -375.03 0.
250.412 -251.629 0.
141.752 -504.036 0.
33.0921 -756.443 0.
-258 -926.581 0.
-243.474 -888.646 0.
-228.949 -850.711 0.
-185.011 -718.801 0.
-118.36 -562.713 0.
19.4555 -402.148 0.
-51.2663 -571.255 0.
-121.988 -740.363 0.
-165.431 -858.023 0.
-179.191 -889.162 0.
-192.951 -920.301 0.
-294.724 -931.805 0.
-245.652 -819.098 0.
-196.58 -706.391 0.
-302.433 -739.575 0.
-310.619 -756.794 0.
-617.78 -902.769 0.
-154.583 -775.097 0.
-192.623 -864.171 0.
-294.318 -947.304 0.
-249.333 -843.983 0.
-204.348 -740.661 0.
91.6035 -568.44 0.
91.0529 -565.751 0.
90.5022 -563.06 0.
-168.085 -571.236 0.
-92.2758 -394.215 0.
-16.4666 -217.193 0.
-52.5013 -229.287 0.
-62.0202 -249.806 0.
7.24652 -250.914 0.
-53.4295 -390.76 0.
-114.106 -530.605 0.
-59.1251 -534.921 0.
6.08751 -382.126 0.
71.3009 -229.332 0.
76.3903 -143.622 0.
104.712 -76.2887 0.
133.033 -8.95473 0.
-187.923 -516.383 0.
-445.265 -1112.64 0.
-190.346 -728.794 0.
233.678 -459.194 0.
286.688 -333.94 0.
-433.877 -562.507 0.
-431.969 -555.023 0.
-430.061 -547.538 0.
331.711 -261.231 0.
277.534 -387.83 0.
223.357 -514.429 0.
-50.7788 -601.659 0.
-0.810803 -485.337 0.
49.1571 -369.015 0.
-603.467 -512.26 0.
-530.661 -342.465 0.
-5.36101 -5.40025 0.
-43.4321 -97.024 0.
-81.5038 -188.647 0.
151.254 -114.651 0.
184.901 -34.8707 0.
218.548 44.9101 0.
-134.532 -176.097 0.
-229.38 -398.437 0.
-324.227 -620.777 0.
-30.889 -520.886 0.
-16.6951 -490.947 0.
-283.774 -581.01 0.
43.2895 -534.939 0.
-11.4819 -664.279 0.
-70.8455 -752.157 0.
-7.56569 -604.601 0.
55.7135 -457.046 0.
-331.283 -550.657 0.
-327.089 -541.808 0.
-322.896 -532.959 0.
-194.873 -505.303 0.
-217.455 -556.074 0.
-240.037 -606.847 0.
64.6729 -394.184 0.
113.492 -277.782 0.
55.4356 -231.791 0.
-9.35526 -378.615 0.
-74.1462 -525.439 0.
-131.139 -655.808 0.
-174.059 -756.355 0.
-216.979 -856.903 0.
-217.809 -758.433 0.
-88.8113 -459.079 0.
40.1868 -159.726 0.
198.274 -105.91 0.
151.378 -215.407 0.
-815.489 -720.403 0.
147.48 -416.895 0.
92.0421 -549.495 0.
-105.307 -681.311 0.
-21.4719 -487.709 0.
62.3636 -294.106 0.
148.996 -263.225 0.
40.7897 -515.931 0.
-67.4159 -768.637 0.
-167.741 -855.758 0.
-152.607 -818.014 0.
-137.473 -780.269 0.
-3.67587 -609.826 0.
63.5876 -454.379 0.
-69.8278 -406.398 0.
-140.452 -576.074 0.
-211.077 -745.751 0.
-372.37 -914.691 0.
-386.408 -946.212 0.
-400.446 -977.733 0.
-145.803 -835.818 0.
-96.7457 -723.247 0.
-47.6886 -610.676 0.
-312.061 -713.189 0.
-320.157 -730.424 0.
-1607.29 -1295.69 0.
-172.435 -751.445 0.
-210.521 -840.439 0.
-346.856 -936.757 0.
-301.068 -833.915 0.
-255.28 -731.073 0.
6.5332 -571.245 0.
5.82197 -568.229 0.
5.11052 -565.213 0.
-60.2032 -494.584 0.
15.2756 -316.994 0.
90.7543 -139.405 0.
-185.21 -255.397 0.
-194.349 -276.011 0.
-70.049 -252.31 0.
-130.232 -392.81 0.
-190.415 -533.311 0.
293.713 -350.757 0.
359.063 -197.854 0.
424.413 -44.9516 0.
-131.813 -201.504 0.
-103.564 -133.968 0.
-75.3159 -66.4328 0.
-65.0282 -433.332 0.
-323.038 -1029.15 0.
26.845 -15.1123 0.
252.96 -96.7924 0.
176.576 -278.281 0.
-492.296 -676.267 0.
-481.601 -652.528 0.
-470.906 -628.789 0.
296.909 -258.685 0.
329.239 -179.511 0.
361.569 -100.337 0.
2.35571 -365.088 0.
-100.459 -606.653 0.
-203.275 -848.219 0.
-666.973 -815.523 0.
-518.115 -468.183 0.
-41.3217 -28.0894 0.
-115.602 -200.646 0.
-189.881 -373.202 0.
135.109 -309.306 0.
168.181 -233.293 0.
201.253 -157.279 0.
-172.981 -353.591 0.
-230.783 -489.808 0.
-288.585 -626.025 0.
-159.278 -591.022 0.
-159.235 -588.4 0.
219.99 -423.837 0.
-27.5421 -553.944 0.
-40.6984 -579.353 0.
-25.5471 -554.038 0.
36.5859 -409.837 0.
98.7192 -265.635 0.
-215.507 -378.861 0.
-261.419 -485.236 0.
-307.332 -591.611 0.
-174.2 -454.596 0.
-88.2913 -253.353 0.
-2.38313 -52.1105 0.
105.061 -142.183 0.
14.8216 -357.101 0.
-64.5328 -536.091 0.
-1.88375 -396.094 0.
60.766 -256.097 0.
3.29544 -230.61 0.
-41.9646 -335.639 0.
-87.2247 -440.668 0.
-105.06 -496.303 0.
-115.103 -518.954 0.
-125.145 -541.605 0.
55.3241 -574.372 0.
-16.2766 -740.681 0.
67.6685 -841.748 0.
-58.8819 -629.683 0.
81.1033 -303.738 0.
174.961 -84.995 0.
113.065 -228.747 0.
51.1686 -372.5 0.
-29.0017 -484.012 0.
-41.1533 -514.089 0.
-53.3049 -544.167 0.
18.9773 -536.898 0.
7.67494 -565.606 0.
-3.62749 -594.313 0.
27.9889 -550.251 0.
42.4308 -511.341 0.
-84.0425 -533.423 0.
-73.2634 -502.061 0.
-62.4841 -470.699 0.
-337.243 -556.677 0.
-305.223 -483.493 0.
-273.203 -410.309 0.
137.226 -287.813 0.
58.6022 -471.348 0.
-20.0213 -654.882 0.
-266.11 -653.365 0.
-170.084 -426.847 0.
-61.7786 -191.335 0.
18.7935 -244.805 0.
-28.3305 -352.332 0.
-249.349 -508.682 0.
-238.069 -476.863 0.
-226.79 -445.044 0.
-13.4323 -398.482 0.
-80.5592 -554.595 0.
-147.686 -710.709 0.
-115.429 -653.787 0.
-53.093 -506.704 0.
9.24241 -359.621 0.
-292.807 -554.449 0.
-337.781 -658.608 0.
-252.316 -712.697 0.
-326.906 -885.074 0.
-401.496 -1057.45 0.
142.445 -861.466 0.
232.561 -652.066 0.
322.678 -442.664 0.
-468.372 -688.064 0.
-452.829 -650.895 0.
-437.287 -613.726 0.
147.45 -268.184 0.
206.317 -134.181 0.
-180.493 -72.1549 0.
52.402 -151.906 0.
-24.203 -332.898 0.
-301.599 -563.902 0.
-291.07 -540.137 0.
-280.54 -516.372 0.
78.1732 -320.562 0.
110.478 -241.576 0.
142.782 -162.589 0.
-90.2228 -374.903 0.
-193.354 -615.952 0.
-296.487 -857.001 0.
-475.116 -702.039 0.
-326.359 -354.293 0.
-19.385 10.3347 0.
-93.9629 -161.858 0.
-168.541 -334.05 0.
112.516 -287.072 0.
145.629 -211.054 0.
178.742 -135.036 0.
-114.184 -296.923 0.
-171.808 -433.421 0.
-229.431 -569.919 0.
-140.446 -553.474 0.
-140.766 -550.267 0.
138.138 -426.732 0.
-147.749 -572.984 0.
-160.58 -598.68 0.
-319.319 -649.779 0.
-257.394 -505.199 0.
-195.469 -360.62 0.
120.062 -203.042 0.
74.1408 -309.428 0.
28.2196 -415.814 0.
-9.85932 -353.095 0.
76.0548 -152.022 0.
161.969 49.0507 0.
-159.063 -223.278 0.
-249.734 -438.293 0.
-69.6519 -506.639 0.
-7.3648 -366.568 0.
54.923 -226.497 0.
101.268 -157.176 0.
55.7557 -261.895 0.
10.2438 -366.613 0.
-39.1959 -437.593 0.
-48.9472 -460.286 0.
-58.6983 -482.978 0.
-57.763 -590.903 0.
-129.243 -757.57 0.
-972.992 -1255.57 0.
-95.9914 -613.763 0.
44.3637 -288.016 0.
141.639 -65.4741 0.
80.2934 -209.62 0.
18.9479 -353.767 0.
-98.7618 -482.806 0.
-111.029 -512.766 0.
-123.295 -542.727 0.
95.906 -471.723 0.
84.3112 -500.109 0.
72.7163 -528.494 0.
-106.658 -577.778 0.
-92.3832 -538.904 0.
126.18 -411.131 0.
137.251 -380.413 0.
148.322 -349.695 0.
-365.347 -536.43 0.
-333.345 -463.453 0.
-301.343 -390.476 0.
135.595 -257.651 0.
57.4497 -441.527 0.
-20.6956 -625.402 0.
-171.993 -581.302 0.
-75.7313 -354.977 0.
629.415 135.572 0.
6.49305 -218.776 0.
-40.6916 -325.807 0.
-395.595 -539.828 0.
-383.677 -508.296 0.
-371.759 -476.765 0.
-119.198 -412.967 0.
-186.149 -568.987 0.
-253.101 -725.006 0.
-159.641 -640.396 0.
-97.2235 -493.729 0.
-34.8061 -347.061 0.
-82.13 -432.018 0.
-126.961 -536.475 0.
-101.409 -617.27 0.
-175.972 -789.543 0.
-250.534 -961.816 0.
-13.7331 -897.503 0.
76.2408 -687.784 0.
166.215 -478.064 0.
-540.876 -687.27 0.
-525.483 -649.868 0.
-510.091 -612.466 0.
399.126 -130.741 0.
457.787 3.46938 0.
-172.795 -388.992 0.
-224.291 -380.626 0.
145.719 483.242 0.
249.733 390.429 0.
-227.604 -721.263 0.
59.9322 -50.236 0.
-309.676 -787.771 0.
-240.739 -629.91 0.
-127.23 -367.369 0.
153.98 402.456 0.
-49.2322 -75.3279 0.
-236.688 -516.067 0.
-247.155 -507.703 0.
-131.436 -238.437 0.
-229.781 -493.591 0.
145.9 384.18 0.
426.839 1041.1 0.
408.188 483.214 0.
381.236 415.856 0.
298.459 219.259 0.
108.091 136.673 0.
-423.739 -1104.94 0.
-96.5067 -343.442 0.
272.723 407.495 0.
253.36 364.509 0.
-552.126 -1082.02 0.
-200.05 -435.252 0.
-10.4317 6.87496 0.
-238.33 120.977 0.
-301.899 -22.8409 0.
-647.58 -824.401 0.
204.069 -610.876 0.
490.877 56.9094 0.
747.493 653.879 0.
557.666 680.609 0.
411.582 341.186 0.
306.917 98.5554 0.
-397.814 -238.977 0.
-234.183 141.491 0.
-133.637 -620.336 0.
102.682 -68.8258 0.
451.693 745.671 0.
726.321 1148.7 0.
390.172 364.825 0.
234.162 1.27828 0.
310.654 284.35 0.
214.633 58.7815 0.
157.592 -75.7192 0.
-51.2024 -337.509 0.
327.356 544.376 0.
646.256 944.637 0.
238.785 288.603 0.
114.791 -1.39345 0.
12.983 -271.111 0.
-520.557 -1514.25 0.
-156.237 -662.566 0.
130.513 209.888 0.
17.39 -53.2103 0.
-204.15 -569.337 0.
52.7719 -689.55 0.
46.1201 -703.731 0.
25.8289 -749.716 0.
199.934 424.157 0.
215.763 460.724 0.
493.085 79.3801 0.
576.748 273.946 0.
567.404 251.953 0.
-374.615 -479.787 0.
-746.641 -1352.03 0.
-460.516 -688.316 0.
274.303 88.4972 0.
238.491 4.85742 0.
121.789 -267.392 0.
302.918 383.797 0.
248.732 259.115 0.
-68.2015 -276.424 0.
144.546 149.425 0.
90.9177 24.2151 0.
-648.024 -811.844 0.
-539.517 -559.326 0.
-691.189 -913.479 0.
-144.921 -242.483 0.
-448.969 -950.37 0.
-100.296 -135.773 0.
300.373 554.78 0.
217.667 359.848 0.
-144.04 -486.306 0.
379.991 274.422 0.
330.551 159.566 0.
80.8922 -440.939 0.
79.9298 -444.785 0.
577.476 714.56 0.
312.195 190.164 0.
79.3203 -351.027 0.
54.0672 -407.916 0.
-82.0486 550.801 0.
-242.918 177.992 0.
-183.06 318.224 0.
768.946 280.7 0.
636.685 -30.7717 0.
185.926 -486.466 0.
-239.257 -524.289 0.
-182.05 -389.823 0.
97.8182 -208.857 0.
28.8378 -369.422 0.
-40.1427 -529.986 0.
-208.392 -606.76 0.
-122.154 -409.876 0.
-35.9164 -212.991 0.
-15.2725 -133.44 0.
-2.19966 -105.407 0.
10.8731 -77.375 0.
-148.049 -165.786 0.
-158.454 -192.074 0.
-124.948 -212.193 0.
-212.293 -417.465 0.
-299.639 -622.737 0.
-252.395 -668.221 0.
-175.881 -491.415 0.
-99.3673 -314.609 0.
51.814 -142.462 0.
91.6958 -47.5865 0.
131.578 47.2889 0.
21.2552 -183.4 0.
-111.77 -496.196 0.
-793.189 -1043.75 0.
-391.367 -583.786 0.
-239.729 -232.455 0.
-93.6908 15.1807 0.
-177.091 -181.217 0.
-260.489 -377.615 0.
66.2678 -313.833 0.
86.9973 -270.143 0.
107.725 -226.453 0.
220.578 -321.516 0.
97.1776 -611.493 0.
-26.2224 -901.47 0.
-435.212 -897.994 0.
-309.719 -605.598 0.
-146.012 -333.946 0.
-190.776 -436.661 0.
-235.54 -539.376 0.
-143.923 -521.759 0.
-86.9861 -389.359 0.
-30.0489 -256.958 0.
142.98 -249.505 0.
31.7579 -508.669 0.
-79.4645 -767.833 0.
-216.788 -686.017 0.
-88.5412 -386.413 0.
233.432 -4.41017 0.
193.856 65.6639 0.
238.012 171.208 0.
105.645 113.438 0.
-61.4683 -272.056 0.
-228.581 -657.548 0.
-79.7532 -752.742 0.
-63.2315 -714.518 0.
-46.7107 -676.294 0.
-25.4418 -591.22 0.
26.7851 -467.293 0.
79.0119 -343.367 0.
-49.8479 -357.859 0.
-32.9521 -319.777 0.
150.895 -219.577 0.
119.27 -293.701 0.
87.6444 -367.825 0.
-309.61 -587.357 0.
-331.518 -639.445 0.
-353.425 -691.534 0.
-126.778 -546.203 0.
-62.3823 -392.717 0.
2.01348 -239.231 0.
-77.992 -308.13 0.
-122.795 -412.721 0.
-362.077 -600.144 0.
-274.414 -483.903 0.
-230.795 -385.66 0.
-205.304 -286.034 0.
-154.539 -169.109 0.
-103.774 -52.1841 0.
-27.6273 -7.70171 0.
-72.7979 -115.993 0.
-117.969 -224.286 0.
-26.8084 -237.217 0.
-42.7364 -273.168 0.
-58.6642 -309.12 0.
-11.0658 -350.452 0.
-47.8848 -436.415 0.
-23.9034 -473.369 0.
46.5458 -312.622 0.
116.995 -151.874 0.
246.273 -29.7189 0.
213.878 -105.223 0.
181.483 -180.726 0.
-236.095 -468.298 0.
-310.692 -645.283 0.
-385.29 -822.269 0.
92.6898 -409.237 0.
253.385 -38.877 0.
517.54 -309.916 0.
-167.575 -461.548 0.
-109.699 -327.319 0.
239.943 -116.748 0.
170.865 -276.922 0.
101.786 -437.097 0.
-157.836 -553.829 0.
-71.2437 -357.2 0.
15.3484 -160.569 0.
76.1579 -63.8831 0.
88.8987 -35.9682 0.
101.639 -8.05305 0.
-190.631 -151.988 0.
-200.781 -179.124 0.
-123.339 -178.062 0.
-210.307 -383.885 0.
-297.276 -589.707 0.
-441.509 -719.099 0.
-365.398 -541.803 0.
-289.287 -364.507 0.
142.34 -72.7535 0.
182.288 22.328 0.
222.237 117.409 0.
40.3763 -144.584 0.
-92.6425 -457.256 0.
-241.92 -777.347 0.
-528.84 -611.237 0.
-377.668 -259.325 0.
163.607 155.944 0.
80.2738 -40.7906 0.
-3.05809 -237.525 0.
-249.893 -416.941 0.
-228.721 -373.935 0.
-207.55 -330.929 0.
354.55 -233.205 0.
231.853 -523.956 0.
109.156 -814.709 0.
-112.651 -727.261 0.
13.8966 -435.716 0.
-299.949 -365.808 0.
-343.896 -469.049 0.
-387.843 -572.291 0.
-318.381 -564.655 0.
-261.516 -432.252 0.
-204.65 -299.848 0.
233.347 -179.575 0.
122.059 -438.86 0.
10.7705 -698.145 0.
-209.869 -651.284 0.
-81.687 -351.721 0.
339.956 73.4643 0.
266.034 128.839 0.
310.47 234.279 0.
32.2258 113.803 0.
-134.58 -271.615 0.
-301.386 -657.032 0.
189.828 -605.687 0.
206.539 -567.333 0.
223.249 -528.978 0.
-155.898 -614.376 0.
-104.13 -490.228 0.
-52.3617 -366.08 0.
72.832 -273.839 0.
89.0216 -234.803 0.
-100.603 -296.839 0.
-132.605 -370.612 0.
-164.608 -444.384 0.
-157.586 -493.246 0.
-180.055 -544.894 0.
-202.523 -596.542 0.
-271.886 -577.919 0.
-207.252 -424.478 0.
-142.619 -271.038 0.
-172.302 -316.605 0.
-216.923 -421.084 0.
-290.152 -538.997 0.
-435.173 -520.747 0.
-391.421 -422.325 0.
81.3942 -132.975 0.
132.672 -16.1231 0.
183.95 100.729 0.
13.0518 41.0232 0.
-31.8318 -67.4508 0.
-76.7154 -175.926 0.
2.35017 -192.814 0.
-13.2185 -229.203 0.
-28.7868 -265.592 0.
-147.185 -376.225 0.
-183.83 -462.708 0.
-118.835 -482.085 0.
-49.1228 -320.864 0.
20.5888 -159.642 0.
299.074 22.8922 0.
266.528 -52.2645 0.
233.982 -127.421 0.
128.446 -280.03 0.
53.5212 -456.976 0.
-21.4047 -633.924 0.
-354.691 -571.17 0.
-194.366 -200.735 0.
-613.438 -549.682 0.
-33.7381 -229.428 0.
16.7646 -110.498 0.
228.636 34.756 0.
195.084 -43.7337 0.
161.531 -122.223 0.
-26.3383 -277.324 0.
-71.4628 -379.054 0.
-116.587 -480.783 0.
-12.1549 -320.545 0.
101.202 -55.6392 0.
214.558 209.267 0.
-174.608 -42.3778 0.
-235.527 -183.181 0.
-215.569 -267.642 0.
-172.303 -165.696 0.
-129.036 -63.7496 0.
-159.744 -61.6106 0.
-221.707 -204.892 0.
-283.671 -348.174 0.
106.377 -202.897 0.
137.763 -130.494 0.
169.149 -58.0908 0.
35.1112 46.6251 0.
133.097 276.578 0.
631.133 677.109 0.
-251.771 -48.9193 0.
-434.209 -474.798 0.
-81.7923 -571.189 0.
-31.2226 -452.768 0.
19.3473 -334.348 0.
-332.693 -393.952 0.
-287.382 -287.807 0.
-242.072 -181.662 0.
470.571 109.553 0.
437.566 31.0526 0.
404.562 -47.4475 0.
145.012 -229.389 0.
108.101 -315.507 0.
-373.998 -565.647 0.
-280.6 -344.865 0.
-187.202 -124.083 0.
-109.107 22.2539 0.
-127.007 -17.016 0.
-144.908 -56.2857 0.
362.435 156.127 0.
374.182 183.76 0.
385.93 211.393 0.
96.1609 89.7959 0.
95.1742 86.9009 0.
136.235 103.924 0.
245.986 20.7945 0.
177.375 -138.864 0.
-107.346 -364.119 0.
-113.204 -379.132 0.
-119.063 -394.144 0.
294.468 -242.172 0.
270.793 -295.742 0.
247.118 -349.312 0.
-70.2102 -387.863 0.
17.8943 -184.056 0.
105.999 19.7508 0.
143.993 -71.1219 0.
72.1245 -242.956 0.
-333.21 -538.963 0.
-320.617 -509.197 0.
-308.024 -479.431 0.
-87.0912 -365.931 0.
-78.7698 -346.983 0.
-70.4483 -328.035 0.
-205.733 -414.628 0.
-240.059 -492.624 0.
-274.385 -570.619 0.
-393.592 -582.734 0.
-360.229 -500.011 0.
-38.3452 -293.439 0.
-345.792 -326.355 0.
-295.65 -205.556 0.
251.058 68.5788 0.
159.782 -140.016 0.
68.5057 -348.61 0.
-214.773 -468.802 0.
-106.328 -211.353 0.
2.11661 46.0947 0.
203.761 97.2018 0.
119.577 -96.5501 0.
35.3939 -290.302 0.
-197.547 -376.263 0.
-178.843 -331.21 0.
-77.9196 -258.887 0.
-94.2994 -296.222 0.
-110.679 -333.558 0.
104.014 -261.615 0.
103.721 -261.12 0.
103.428 -260.625 0.
306.734 -79.3184 0.
395.245 127.43 0.
483.757 334.178 0.
-296.677 -224.773 0.
-468.645 -624.429 0.
640.95 17.6504 0.
8.39574 -180.105 0.
59.8497 -61.6475 0.
-66.6102 -59.6852 0.
-99.5615 -138.095 0.
-132.513 -216.505 0.
-17.7789 -242.24 0.
-62.4549 -344.224 0.
-107.131 -446.206 0.
-22.858 -294.148 0.
90.7032 -29.7489 0.
204.264 234.65 0.
-170.656 -6.136 0.
-230.65 -147.934 0.
-330.103 -286.387 0.
-286.768 -184.648 0.
-243.433 -82.9087 0.
63.0792 67.016 0.
1.66218 -76.6586 0.
-59.755 -220.333 0.
100.84 -174.386 0.
131.922 -101.582 0.
163.004 -28.7777 0.
-186.828 -19.5855 0.
-88.6562 210.168 0.
-456.141 241.003 0.
14.2508 98.2092 0.
-168.38 -327.807 0.
-150.901 -570.048 0.
-100.578 -451.492 0.
-50.2557 -332.936 0.
-206.377 -307.601 0.
-160.808 -201.842 0.
-115.24 -96.0827 0.
289.361 63.1861 0.
256.431 -15.616 0.
223.502 -94.418 0.
-52.8078 -283.041 0.
-89.4399 -369.464 0.
-153.647 -438.836 0.
-60.0371 -218.206 0.
33.5728 2.42405 0.
-3.025 98.7522 0.
-21.1266 59.7797 0.
-39.2282 20.8075 0.
267.042 145.034 0.
278.647 172.882 0.
290.251 200.73 0.
99.7132 124.045 0.
98.9815 121.111 0.
173.654 151.105 0.
262.581 59.3382 0.
194.088 -100.13 0.
181.16 -208.778 0.
175.441 -223.711 0.
169.723 -238.644 0.
-78.7473 -369.887 0.
-101.795 -423.756 0.
-124.844 -477.625 0.
79.1708 -292.269 0.
167.287 -88.0884 0.
255.403 116.092 0.
15.7687 -94.0811 0.
-56.4369 -265.568 0.
-355.449 -517.669 0.
-342.385 -488.396 0.
-329.322 -459.122 0.
-171.815 -368.722 0.
-162.994 -350.394 0.
-154.173 -332.065 0.
-29.2392 -307.267 0.
-63.5933 -385.691 0.
-97.9474 -464.116 0.
-521.587 -605.024 0.
-488.092 -522.622 0.
551.147 -9.32749 0.
-128.343 -201.234 0.
-78.7008 -79.9707 0.
179.065 69.3754 0.
88.0216 -139.577 0.
-3.0211 -348.531 0.
-254.254 -454.829 0.
-145.46 -197.781 0.
-36.6658 59.2669 0.
396.538 212.959 0.
312.759 18.9071 0.
228.981 -175.145 0.
-149.61 -324.763 0.
-130.965 -279.806 0.
-82.4498 -228.08 0.
-98.4787 -265.824 0.
-114.507 -303.568 0.
-93.3438 -315.705 0.
-93.5417 -315.162 0.
-93.7395 -314.62 0.
201.829 -91.8152 0.
290.507 114.863 0.
379.184 321.541 0.
-48.7382 -85.7486 0.
-220.628 -485.48 0.
229.538 -513.872 0.
-181.365 -667.933 0.
-93.0249 -462.196 0.
-72.2438 512.437 0.
-150.389 332.171 0.
-13.0013 654.727 0.
51.6454 -83.0354 0.
11.8981 -177.117 0.
79.864 -20.0331 0.
-4.33164 -189.918 0.
-75.6616 -355.705 0.
28.9969 -111.062 0.
204.772 882.979 0.
38.9523 500.944 0.
-781.272 -1091.01 0.
-358.989 -105.346 0.
-520.017 -480.073 0.
43.8365 -375.373 0.
-83.7516 -672.853 0.
3.30267 -470.538 0.
1.0438 -368.859 0.
-128.664 -672.133 0.
-225.346 -898.786 0.
-419.901 -109.438 0.
-220.353 353.642 0.
-1305.37 -344.396 0.
228.002 122.76 0.
30.5446 -331.575 0.
222.346 456.187 0.
427.444 938.605 0.
156.176 310.016 0.
42.3624 64.7703 0.
353.433 794.615 0.
282.05 632.039 0.
404.508 695.781 0.
110.878 10.5134 0.
-224.427 -771.873 0.
-634.1 -1227.6 0.
-625.613 -1210.98 0.
247.898 112.252 0.
510.875 725.475 0.
292.653 215.944 0.
70.9301 114.424 0.
353.267 768.738 0.
28.6396 6.83418 0.
140.292 52.0744 0.
196.085 182.468 0.
-136.341 -592.757 0.
-324.379 -835.027 0.
-146.037 -423.747 0.
433.756 997.657 0.
262.566 61.4179 0.
26.2441 -491.71 0.
581.812 212.001 0.
543.613 122.927 0.
465.058 -60.498 0.
-500.87 -626.94 0.
-149.949 193.339 0.
-60.4152 404.002 0.
191.468 -275.671 0.
-106.865 -971.115 0.
720.704 960.156 0.
136.585 464.949 0.
-72.0978 -19.7844 0.
-181.664 -41.2296 0.
-107.686 130.12 0.
-144.086 44.1236 0.
-137.824 -99.4793 0.
-98.7774 -9.56693 0.
-450.645 -831.375 0.
13.2002 -516.705 0.
50.0822 -433.872 0.
-145.765 -893.611 0.
-495.202 -255.497 0.
-216.514 396.797 0.
983.442 504.081 0.
170.95 102.823 0.
-268.909 -914.381 0.
-137.565 -503.531 0.
498.774 986.747 0.
-190.59 -615.479 0.
-2.1787 240.783 0.
380.446 1132.88 0.
-16.9092 205.544 0.
163.892 -661.265 0.
87.613 -840.58 0.
138.534 -723.299 0.
-361.423 -876.068 0.
-90.4414 -244.704 0.
-174.036 -403.2 0.
-185.821 -429.405 0.
-134.583 -308.89 0.
-358.211 -528.214 0.
-205.835 -172.183 0.
-245.767 -264.758 0.
188.051 109.761 0.
321.011 419.118 0.
-78.3893 -512.957 0.
203.646 76.3782 0.
-32.5003 -473.978 0.
-427.073 -248.542 0.
161.03 -40.4929 0.
118.194 -140.207 0.
-278.781 -324.046 0.
-168.065 -67.0377 0.
-57.3496 189.971 0.
62.9748 329.66 0.
32.8402 255.504 0.
2.70484 181.348 0.
-97.2932 15.5224 0.
-180.82 -177.405 0.
-264.347 -370.333 0.
-416.858 -527.425 0.
-465.912 -634.367 0.
-268.399 -594.665 0.
-119.218 -246.065 0.
29.9611 102.533 0.
147.35 342.994 0.
147.315 345.629 0.
147.281 348.263 0.
257.384 231.133 0.
97.4525 -145.822 0.
-62.4801 -522.778 0.
-562.631 -736.771 0.
-513.338 -622.295 0.
648.308 -30.6807 0.
-259.79 -283.14 0.
-191.356 -121.264 0.
194.14 127.912 0.
150.117 28.6726 0.
106.093 -70.5669 0.
-49.1271 -167.459 0.
-37.5176 -133.708 0.
-25.9079 -99.9575 0.
52.227 -35.0083 0.
68.5659 5.12034 0.
84.9043 45.2489 0.
-172.538 -71.653 0.
-180.673 -89.2059 0.
358.504 119.791 0.
299.835 -19.3196 0.
241.166 -158.431 0.
-212.627 -404.002 0.
-163.485 -295.071 0.
-114.342 -186.139 0.
-82.0443 -98.6185 0.
-49.8908 -25.2304 0.
-17.7376 48.1575 0.
260.965 123.809 0.
223.492 36.1556 0.
-584.481 -379.886 0.
381.925 -17.7636 0.
353.601 -82.1876 0.
206.903 -177.917 0.
218.75 -149.961 0.
230.597 -122.005 0.
-389.519 -354.225 0.
-359.123 -283.291 0.
-328.727 -212.358 0.
239.452 -12.7537 0.
189.383 -129.572 0.
139.313 -246.39 0.
-296.918 -275.551 0.
-197.617 -42.7874 0.
-24.2348 212.696 0.
29.333 339.898 0.
82.9008 467.101 0.
226.434 549.556 0.
154.531 382.812 0.
82.6283 216.067 0.
93.1095 148.189 0.
82.898 121.4 0.
72.6868 94.6112 0.
-53.511 -69.7105 0.
-124.496 -235.734 0.
167.797 -241.559 0.
-129.609 -220.007 0.
-48.7652 -34.3516 0.
232.483 190.776 0.
201.538 116.012 0.
170.594 41.2474 0.
-6.50072 -103.85 0.
-42.1259 -186.249 0.
-77.7518 -268.648 0.
118.791 -174.907 0.
141.105 -121.708 0.
163.419 -68.5089 0.
-102.892 -267.841 0.
-156.54 -393.004 0.
-272.626 -525.883 0.
-227.62 -419.675 0.
-182.614 -313.466 0.
-117.735 -258.812 0.
-158.719 -357.499 0.
-199.703 -456.187 0.
-272.888 -511.169 0.
-262.141 -484.348 0.
-251.394 -457.527 0.
137.232 87.1986 0.
385.245 667.311 0.
-279.609 -155.677 0.
271.538 38.1825 0.
228.903 -61.8721 0.
-75.6557 -204.619 0.
35.5569 52.801 0.
146.769 310.221 0.
-113.413 285.027 0.
-143.018 211.091 0.
-172.624 137.154 0.
-307.678 -43.5379 0.
-390.985 -236.72 0.
-474.293 -429.902 0.
-421.576 -499.162 0.
-470.534 -606.159 0.
119.063 -395.242 0.
268.929 -46.9841 0.
418.794 301.273 0.
-92.0713 270.414 0.
-92.273 273.491 0.
-92.4743 276.568 0.
271.202 268.764 0.
111.702 -107.953 0.
-47.798 -484.672 0.
-387.212 -629.82 0.
-337.659 -515.199 0.
-35.8912 -293.649 0.
-633.597 -411.668 0.
-565.932 -249.436 0.
351.738 224.292 0.
306.87 125.655 0.
262.003 27.0176 0.
-29.7801 -128.98 0.
-18.157 -95.1513 0.
-6.53368 -61.3231 0.
20.5442 -16.7658 0.
37.5573 22.2229 0.
54.5701 61.2114 0.
-198.47 -49.2634 0.
-205.414 -67.72 0.
505.397 214.39 0.
447.084 75.1809 0.
388.769 -64.0283 0.
-272.642 -397.432 0.
-223.729 -288.622 0.
-174.815 -179.81 0.
-255.781 -142.299 0.
-224.364 -67.813 0.
-192.946 6.67227 0.
494.056 254.694 0.
456.508 167.624 0.
-2057.16 -978.964 0.
591.838 104.955 0.
563.394 41.0727 0.
-41.4514 -253.36 0.
-29.0847 -225.735 0.
-16.7172 -198.11 0.
-369.265 -313.174 0.
-338.072 -242.442 0.
-306.879 -171.71 0.
173.865 -9.31516 0.
123.291 -125.604 0.
72.7163 -241.893 0.
-423.299 -298.834 0.
-324.289 -65.8213 0.
53.5573 277.875 0.
106.652 405.588 0.
159.746 533.301 0.
350.525 633.511 0.
278.534 466.752 0.
206.543 299.992 0.
-137.921 80.802 0.
-148.508 53.8648 0.
-159.096 26.9277 0.
409.88 161.553 0.
338.242 -4.42218 0.
64.8091 -254.261 0.
-309.933 -267.251 0.
-229.731 -81.6916 0.
346.588 270.767 0.
316.191 195.391 0.
285.794 120.014 0.
183.516 9.7708 0.
147.855 -72.5556 0.
112.194 -154.882 0.
-179.027 -271.064 0.
-157.126 -217.47 0.
-135.226 -163.876 0.
-87.6571 -230.487 0.
-141.502 -355.44 0.
-316.701 -513.109 0.
-271.055 -406.905 0.
-225.408 -300.7 0.
54.4473 -153.896 0.
14.071 -252.764 0.
-26.3047 -351.633 0.
-498.809 -575.485 0.
-487.891 -548.315 0.
-476.973 -521.146 0.
69.4602 87.1671 0.
317.652 668.25 0.
