# vtk DataFile Version 2.0
test grain
ASCII
DATASET UNSTRUCTURED_GRID
POINTS 5000 float
0.49992 0.00100087 0.
0.501921 0.00100083 0.
0.503922 0.00100077 0.
0.505923 0.0010007 0.
0.507923 0.00100067 0.
0.509923 0.00100064 0.
0.511924 0.00100052 0.
0.513924 0.00100026 0.
0.515925 0.000999997 0.
0.517926 0.001 0.
0.519926 0.00100016 0.
0.521927 0.00100032 0.
0.523927 0.00100023 0.
0.525928 0.00100009 0.
0.527928 0.00100002 0.
0.529929 0.00100048 0.
0.531929 0.00100095 0.
0.533929 0.00100112 0.
0.535931 0.0010006 0.
0.537932 0.00100009 0.
0.539932 0.001 0.
0.541932 0.00100031 0.
0.543932 0.00100062 0.
0.545932 0.00100079 0.
0.547931 0.00100089 0.
0.54993 0.00100099 0.
0.551927 0.00100124 0.
0.553924 0.00100149 0.
0.555921 0.00100161 0.
0.557919 0.00100126 0.
0.559917 0.00100091 0.
0.561915 0.00100081 0.
0.563912 0.00100104 0.
0.565909 0.00100128 0.
0.567906 0.00100103 0.
0.569904 0.00100053 0.
0.571901 0.00100002 0.
0.573895 0.0010008 0.
0.575888 0.0010018 0.
0.57788 0.00100278 0.
0.579871 0.00100321 0.
0.581861 0.00100364 0.
0.58385 0.00100401 0.
0.585836 0.00100426 0.
0.587821 0.00100451 0.
0.589805 0.00100369 0.
0.591786 0.00100186 0.
0.593767 0.00100003 0.
0.595825 0.00100163 0.
0.597912 0.00100451 0.
0.6 0.0010074 0.
0.602086 0.00100454 0.
0.604171 0.00100168 0.
0.606228 0.00100002 0.
0.60821 0.0010015 0.
0.610192 0.00100299 0.
0.612176 0.0010037 0.
0.614163 0.00100358 0.
0.61615 0.00100347 0.
0.618139 0.00100341 0.
0.620129 0.00100339 0.
0.622119 0.00100337 0.
0.62411 0.00100282 0.
0.626102 0.00100221 0.
0.628095 0.00100161 0.
0.630092 0.00100096 0.
0.632089 0.00100031 0.
0.634086 0.00100001 0.
0.636085 0.00100036 0.
0.638083 0.00100071 0.
0.640082 0.00100086 0.
0.642081 0.00100088 0.
0.64408 0.0010009 0.
0.646077 0.00100112 0.
0.648073 0.00100139 0.
0.650069 0.00100165 0.
0.652068 0.0010011 0.
0.654067 0.00100055 0.
0.656067 0.00100012 0.
0.658067 0.00100006 0.
0.660067 0.000999999 0.
0.662068 0.00100008 0.
0.664069 0.0010003 0.
0.66607 0.00100052 0.
0.668071 0.00100066 0.
0.670072 0.00100077 0.
0.672074 0.00100089 0.
0.674074 0.00100062 0.
0.676075 0.00100033 0.
0.678075 0.00100009 0.
0.680075 0.00100021 0.
0.682075 0.00100033 0.
0.684076 0.0010004 0.
0.686077 0.00100041 0.
0.688078 0.00100041 0.
0.69008 0.00100049 0.
0.692081 0.00100063 0.
0.694082 0.00100077 0.
0.696083 0.00100092 0.
0.698084 0.00100107 0.
0.499922 0.00300262 0.
0.501922 0.00300249 0.
0.503922 0.00300229 0.
0.505922 0.00300211 0.
0.507922 0.00300201 0.
0.509923 0.00300191 0.
0.511923 0.00300155 0.
0.513924 0.00300077 0.
0.515925 0.00299999 0.
0.517926 0.003 0.
0.519927 0.00300047 0.
0.521928 0.00300095 0.
0.523929 0.00300068 0.
0.525929 0.00300028 0.
0.527929 0.00300005 0.
0.529929 0.00300145 0.
0.531929 0.00300285 0.
0.533929 0.00300335 0.
0.535929 0.00300181 0.
0.537928 0.00300026 0.
0.53993 0.00300001 0.
0.541932 0.00300094 0.
0.543934 0.00300187 0.
0.545934 0.00300236 0.
0.547932 0.00300267 0.
0.549931 0.00300298 0.
0.551928 0.00300371 0.
0.553925 0.00300446 0.
0.555922 0.00300483 0.
0.55792 0.00300378 0.
0.559918 0.00300272 0.
0.561916 0.00300242 0.
0.563913 0.00300313 0.
0.56591 0.00300383 0.
0.567908 0.0030031 0.
0.569906 0.00300158 0.
0.571904 0.00300006 0.
0.573898 0.0030024 0.
0.575891 0.00300539 0.
0.577884 0.00300833 0.
0.579875 0.00300963 0.
0.581867 0.00301094 0.
0.583857 0.00301203 0.
0.585844 0.00301279 0.
0.587831 0.00301354 0.
0.589818 0.00301105 0.
0.591804 0.00300554 0.
0.593791 0.00300004 0.
0.595844 0.00300492 0.
0.597922 0.00301355 0.
0.6 0.0030222 0.
0.602076 0.00301362 0.
0.604152 0.00300507 0.
0.606204 0.00300001 0.
0.608191 0.00300449 0.
0.610178 0.00300896 0.
0.612166 0.00301109 0.
0.614154 0.00301074 0.
0.616142 0.0030104 0.
0.618133 0.00301022 0.
0.620124 0.00301017 0.
0.622116 0.00301012 0.
0.624107 0.00300845 0.
0.626099 0.00300665 0.
0.628091 0.00300482 0.
0.630088 0.00300287 0.
0.632084 0.00300091 0.
0.634082 0.00300004 0.
0.636083 0.00300108 0.
0.638083 0.00300212 0.
0.640082 0.00300258 0.
0.642081 0.00300264 0.
0.644079 0.00300269 0.
0.646076 0.00300335 0.
0.648072 0.00300417 0.
0.650068 0.00300495 0.
0.652066 0.0030033 0.
0.654063 0.00300165 0.
0.656063 0.00300036 0.
0.658066 0.00300018 0.
0.66007 0.00299999 0.
0.662072 0.00300023 0.
0.664072 0.00300089 0.
0.666073 0.00300156 0.
0.668073 0.00300198 0.
0.670073 0.00300232 0.
0.672073 0.00300266 0.
0.674073 0.00300187 0.
0.676073 0.00300098 0.
0.678073 0.00300027 0.
0.680074 0.00300062 0.
0.682075 0.00300097 0.
0.684076 0.00300121 0.
0.686077 0.00300122 0.
0.688078 0.00300123 0.
0.690079 0.00300147 0.
0.69208 0.00300189 0.
0.694081 0.00300231 0.
0.696082 0.00300276 0.
0.698083 0.00300321 0.
0.499923 0.00500437 0.
0.501922 0.00500413 0.
0.503921 0.00500381 0.
0.505921 0.00500353 0.
0.507921 0.00500335 0.
0.509922 0.00500318 0.
0.511923 0.00500258 0.
0.513923 0.00500128 0.
0.515924 0.00499999 0.
0.517926 0.005 0.
0.519928 0.00500078 0.
0.52193 0.00500157 0.
0.52393 0.00500113 0.
0.52593 0.00500047 0.
0.52793 0.00500008 0.
0.529929 0.00500241 0.
0.531929 0.00500475 0.
0.533929 0.00500559 0.
0.535927 0.00500301 0.
0.537925 0.00500045 0.
0.539927 0.00500002 0.
0.541931 0.00500157 0.
0.543936 0.00500312 0.
0.545936 0.00500393 0.
0.547934 0.00500445 0.
0.549932 0.00500497 0.
0.551929 0.00500618 0.
0.553925 0.00500742 0.
0.555922 0.00500805 0.
0.557921 0.00500629 0.
0.559919 0.00500453 0.
0.561917 0.00500404 0.
0.563914 0.00500521 0.
0.565912 0.0050064 0.
0.56791 0.00500516 0.
0.569908 0.00500263 0.
0.571907 0.0050001 0.
0.573901 0.005004 0.
0.575894 0.00500899 0.
0.577887 0.00501387 0.
0.57988 0.00501605 0.
0.581873 0.00501822 0.
0.583864 0.00502004 0.
0.585852 0.00502129 0.
0.587841 0.00502255 0.
0.589831 0.00501835 0.
0.591823 0.00500916 0.
0.593815 0.005 0.
0.595863 0.00500825 0.
0.597932 0.00502265 0.
0.6 0.00503716 0.
0.602067 0.00502278 0.
0.604133 0.0050085 0.
0.60618 0.00499997 0.
0.608172 0.00500742 0.
0.610164 0.00501488 0.
0.612155 0.00501846 0.
0.614145 0.00501788 0.
0.616134 0.00501731 0.
0.618126 0.00501704 0.
0.620119 0.00501696 0.
0.622113 0.00501689 0.
0.624104 0.00501409 0.
0.626095 0.00501108 0.
0.628087 0.00500805 0.
0.630084 0.00500478 0.
0.63208 0.00500152 0.
0.634079 0.00500008 0.
0.636081 0.00500181 0.
0.638083 0.00500354 0.
0.640082 0.0050043 0.
0.64208 0.00500439 0.
0.644078 0.00500448 0.
0.646075 0.00500558 0.
0.648071 0.00500696 0.
0.650067 0.00500825 0.
0.652063 0.0050055 0.
0.65406 0.00500276 0.
0.656059 0.0050006 0.
0.658066 0.00500029 0.
0.660073 0.00499999 0.
0.662076 0.0050004 0.
0.664076 0.0050015 0.
0.666075 0.0050026 0.
0.668074 0.00500329 0.
0.670073 0.00500385 0.
0.672071 0.00500443 0.
0.674071 0.00500312 0.
0.676071 0.00500164 0.
0.678071 0.00500045 0.
0.680073 0.00500103 0.
0.682074 0.00500162 0.
0.684076 0.00500202 0.
0.686077 0.00500202 0.
0.688078 0.00500204 0.
0.690079 0.00500246 0.
0.69208 0.00500315 0.
0.694081 0.00500385 0.
0.696082 0.00500461 0.
0.698083 0.00500535 0.
0.499923 0.00700704 0.
0.501923 0.00700682 0.
0.503923 0.00700651 0.
0.505923 0.00700622 0.
0.507923 0.00700596 0.
0.509924 0.00700571 0.
0.511925 0.00700557 0.
0.513926 0.00700548 0.
0.515927 0.00700541 0.
0.517928 0.00700553 0.
0.519929 0.00700581 0.
0.52193 0.00700609 0.
0.52393 0.00700627 0.
0.52593 0.00700641 0.
0.52793 0.00700664 0.
0.52993 0.00700789 0.
0.53193 0.00700914 0.
0.53393 0.00701008 0.
0.535929 0.00701022 0.
0.537928 0.00701037 0.
0.539929 0.00701031 0.
0.541932 0.00701012 0.
0.543935 0.00700994 0.
0.545935 0.00701014 0.
0.547934 0.00701044 0.
0.549933 0.00701074 0.
0.55193 0.00701142 0.
0.553927 0.00701211 0.
0.555925 0.00701261 0.
0.557923 0.00701236 0.
0.559921 0.00701212 0.
0.56192 0.00701217 0.
0.563918 0.0070126 0.
0.565917 0.00701304 0.
0.567915 0.00701408 0.
0.569912 0.00701552 0.
0.57191 0.00701697 0.
0.573904 0.00701992 0.
0.575898 0.00702313 0.
0.577892 0.0070262 0.
0.579887 0.00702677 0.
0.581881 0.00702734 0.
0.583875 0.00702776 0.
0.585869 0.00702799 0.
0.587862 0.00702822 0.
0.589857 0.00702235 0.
0.591854 0.00701087 0.
0.59385 0.00699942 0.
0.59589 0.00701366 0.
0.597945 0.00703697 0.
0.6 0.00706041 0.
0.602054 0.00703767 0.
0.604108 0.00701507 0.
0.606148 0.00700099 0.
0.608144 0.00701087 0.
0.61014 0.00702076 0.
0.612135 0.00702591 0.
0.614128 0.00702588 0.
0.616122 0.00702586 0.
0.618116 0.00702523 0.
0.620111 0.0070244 0.
0.622106 0.00702359 0.
0.624099 0.00702121 0.
0.626093 0.00701871 0.
0.628087 0.00701644 0.
0.630084 0.0070157 0.
0.632081 0.00701497 0.
0.634079 0.00701423 0.
0.636079 0.00701339 0.
0.63808 0.00701254 0.
0.640079 0.00701225 0.
0.642077 0.00701237 0.
0.644075 0.0070125 0.
0.646073 0.00701248 0.
0.64807 0.00701246 0.
0.650068 0.00701245 0.
0.652066 0.00701237 0.
0.654064 0.0070123 0.
0.656064 0.00701252 0.
0.658067 0.00701361 0.
0.66007 0.00701471 0.
0.662072 0.00701451 0.
0.664072 0.0070128 0.
0.666072 0.00701109 0.
0.668071 0.00700993 0.
0.670071 0.00700904 0.
0.67207 0.00700816 0.
0.67407 0.00700716 0.
0.676071 0.00700613 0.
0.678071 0.00700514 0.
0.680072 0.00700448 0.
0.682073 0.00700383 0.
0.684074 0.00700371 0.
0.686075 0.00700444 0.
0.688076 0.00700516 0.
0.690077 0.0070057 0.
0.692078 0.00700611 0.
0.694079 0.00700652 0.
0.69608 0.00700749 0.
0.69808 0.00700859 0.
0.499922 0.00900961 0.
0.501923 0.0090095 0.
0.503924 0.00900921 0.
0.505925 0.00900891 0.
0.507926 0.00900858 0.
0.509927 0.00900825 0.
0.511927 0.00900855 0.
0.513928 0.00900968 0.
0.515929 0.00901082 0.
0.51793 0.00901106 0.
0.51993 0.00901084 0.
0.52193 0.00901061 0.
0.523931 0.00901142 0.
0.525931 0.00901235 0.
0.527931 0.00901321 0.
0.529931 0.00901337 0.
0.531931 0.00901353 0.
0.533931 0.00901457 0.
0.535931 0.00901742 0.
0.537931 0.00902028 0.
0.539932 0.0090206 0.
0.541933 0.00901868 0.
0.543933 0.00901676 0.
0.545933 0.00901635 0.
0.547933 0.00901643 0.
0.549933 0.00901652 0.
0.551931 0.00901665 0.
0.553929 0.0090168 0.
0.555927 0.00901717 0.
0.557926 0.00901844 0.
0.559924 0.00901971 0.
0.561923 0.00902029 0.
0.563922 0.00901998 0.
0.565921 0.00901968 0.
0.567919 0.009023 0.
0.569916 0.00902841 0.
0.571913 0.00903383 0.
0.573908 0.00903585 0.
0.575902 0.00903729 0.
0.577897 0.00903851 0.
0.579894 0.00903749 0.
0.58189 0.00903647 0.
0.583887 0.00903549 0.
0.585885 0.00903468 0.
0.587883 0.00903387 0.
0.589883 0.0090263 0.
0.591884 0.00901251 0.
0.593885 0.00899875 0.
0.595917 0.00901924 0.
0.597959 0.00905136 0.
0.600001 0.00908366 0.
0.602042 0.00905263 0.
0.604084 0.00902178 0.
0.606115 0.00900195 0.
0.608115 0.00901427 0.
0.610115 0.00902661 0.
0.612114 0.00903334 0.
0.614112 0.00903388 0.
0.616109 0.00903441 0.
0.618106 0.00903341 0.
0.620103 0.00903184 0.
0.622099 0.00903029 0.
0.624095 0.00902835 0.
0.62609 0.00902634 0.
0.628086 0.00902484 0.
0.630083 0.00902661 0.
0.632081 0.0090284 0.
0.634079 0.00902839 0.
0.636078 0.00902497 0.
0.638076 0.00902155 0.
0.640075 0.0090202 0.
0.642073 0.00902036 0.
0.644072 0.00902052 0.
0.646071 0.00901939 0.
0.64807 0.00901797 0.
0.650069 0.00901664 0.
0.652069 0.00901923 0.
0.654069 0.00902183 0.
0.656069 0.00902444 0.
0.658068 0.00902693 0.
0.660068 0.00902942 0.
0.662068 0.00902863 0.
0.664068 0.0090241 0.
0.666068 0.00901959 0.
0.668068 0.00901656 0.
0.670069 0.00901422 0.
0.672069 0.00901189 0.
0.67407 0.0090112 0.
0.676071 0.00901062 0.
0.678071 0.00900982 0.
0.680072 0.00900793 0.
0.682073 0.00900604 0.
0.684073 0.00900541 0.
0.686074 0.00900686 0.
0.688075 0.0090083 0.
0.690076 0.00900894 0.
0.692077 0.00900907 0.
0.694078 0.00900919 0.
0.696078 0.00901039 0.
0.698078 0.00901185 0.
0.499922 0.0110115 0.
0.501924 0.0110113 0.
0.503925 0.0110109 0.
0.505926 0.0110105 0.
0.507927 0.0110104 0.
0.509928 0.0110102 0.
0.511929 0.0110107 0.
0.51393 0.011012 0.
0.515931 0.0110134 0.
0.517931 0.0110137 0.
0.519932 0.0110134 0.
0.521932 0.0110132 0.
0.523932 0.0110143 0.
0.525932 0.0110155 0.
0.527933 0.0110166 0.
0.529933 0.0110164 0.
0.531932 0.0110162 0.
0.533932 0.0110172 0.
0.535933 0.0110208 0.
0.537934 0.0110243 0.
0.539934 0.0110248 0.
0.541934 0.0110226 0.
0.543933 0.0110204 0.
0.545934 0.0110196 0.
0.547934 0.0110194 0.
0.549934 0.0110192 0.
0.551933 0.0110194 0.
0.553931 0.0110196 0.
0.55593 0.0110202 0.
0.557929 0.011022 0.
0.559928 0.0110237 0.
0.561927 0.0110247 0.
0.563926 0.0110245 0.
0.565926 0.0110244 0.
0.567924 0.0110284 0.
0.569921 0.0110346 0.
0.571918 0.0110408 0.
0.573914 0.0110426 0.
0.57591 0.0110437 0.
0.577906 0.0110445 0.
0.579905 0.0110425 0.
0.581903 0.0110406 0.
0.583902 0.0110386 0.
0.585904 0.0110364 0.
0.587905 0.0110343 0.
0.589908 0.0110265 0.
0.591911 0.0110137 0.
0.593915 0.0110009 0.
0.595939 0.0110204 0.
0.59797 0.0110502 0.
0.600001 0.0110798 0.
0.602031 0.0110516 0.
0.604062 0.0110233 0.
0.606086 0.0110046 0.
0.608089 0.0110162 0.
0.610092 0.0110277 0.
0.612094 0.0110346 0.
0.614094 0.0110364 0.
0.616094 0.0110381 0.
0.618093 0.0110373 0.
0.620091 0.0110355 0.
0.62209 0.0110338 0.
0.624087 0.0110321 0.
0.626084 0.0110303 0.
0.628081 0.0110292 0.
0.63008 0.0110317 0.
0.632078 0.0110343 0.
0.634077 0.0110346 0.
0.636075 0.0110306 0.
0.638073 0.0110266 0.
0.640071 0.0110249 0.
0.64207 0.0110249 0.
0.644068 0.0110249 0.
0.646068 0.0110232 0.
0.648068 0.0110212 0.
0.650068 0.0110193 0.
0.652068 0.0110228 0.
0.654069 0.0110264 0.
0.656069 0.0110297 0.
0.658068 0.0110324 0.
0.660066 0.0110351 0.
0.662066 0.0110342 0.
0.664066 0.011029 0.
0.666066 0.0110238 0.
0.668067 0.0110202 0.
0.670068 0.0110172 0.
0.672068 0.0110143 0.
0.674069 0.0110136 0.
0.67607 0.0110131 0.
0.678071 0.0110123 0.
0.680071 0.0110101 0.
0.682072 0.0110078 0.
0.684072 0.0110069 0.
0.686073 0.0110084 0.
0.688074 0.0110099 0.
0.690074 0.0110107 0.
0.692075 0.011011 0.
0.694076 0.0110114 0.
0.696076 0.0110126 0.
0.698077 0.011014 0.
0.499924 0.0130127 0.
0.501925 0.0130122 0.
0.503926 0.0130115 0.
0.505927 0.013011 0.
0.507928 0.0130113 0.
0.509929 0.0130116 0.
0.51193 0.013012 0.
0.513931 0.0130125 0.
0.515931 0.013013 0.
0.517932 0.0130133 0.
0.519933 0.0130135 0.
0.521934 0.0130137 0.
0.523934 0.0130148 0.
0.525935 0.0130159 0.
0.527935 0.0130169 0.
0.529935 0.0130171 0.
0.531935 0.0130172 0.
0.533935 0.013018 0.
0.535935 0.0130203 0.
0.537935 0.0130226 0.
0.539936 0.0130231 0.
0.541935 0.0130219 0.
0.543935 0.0130207 0.
0.545935 0.01302 0.
0.547936 0.0130194 0.
0.549936 0.0130189 0.
0.551935 0.0130197 0.
0.553934 0.0130206 0.
0.555933 0.0130216 0.
0.557932 0.0130229 0.
0.559931 0.0130242 0.
0.56193 0.0130253 0.
0.56393 0.0130263 0.
0.565929 0.0130272 0.
0.567928 0.0130302 0.
0.569927 0.0130341 0.
0.571926 0.0130382 0.
0.573924 0.0130405 0.
0.575922 0.0130425 0.
0.57792 0.0130442 0.
0.57992 0.013042 0.
0.58192 0.0130398 0.
0.583921 0.0130372 0.
0.585924 0.0130333 0.
0.587927 0.0130295 0.
0.58993 0.0130231 0.
0.591935 0.0130145 0.
0.59394 0.0130058 0.
0.595958 0.013017 0.
0.59798 0.0130343 0.
0.600002 0.0130515 0.
0.602022 0.0130355 0.
0.604043 0.0130194 0.
0.60606 0.0130089 0.
0.608065 0.0130166 0.
0.61007 0.0130243 0.
0.612073 0.01303 0.
0.614075 0.0130334 0.
0.616077 0.0130369 0.
0.618078 0.0130369 0.
0.620077 0.0130355 0.
0.622077 0.0130341 0.
0.624076 0.0130325 0.
0.626074 0.0130307 0.
0.628073 0.0130295 0.
0.630073 0.0130311 0.
0.632072 0.0130328 0.
0.634072 0.013033 0.
0.63607 0.0130304 0.
0.638069 0.0130278 0.
0.640068 0.0130265 0.
0.642067 0.013026 0.
0.644065 0.0130256 0.
0.646065 0.013024 0.
0.648065 0.0130221 0.
0.650065 0.0130203 0.
0.652065 0.0130231 0.
0.654066 0.013026 0.
0.656066 0.0130285 0.
0.658066 0.0130303 0.
0.660065 0.0130322 0.
0.662066 0.0130313 0.
0.664066 0.0130275 0.
0.666067 0.0130237 0.
0.668068 0.0130207 0.
0.670068 0.013018 0.
0.672069 0.0130154 0.
0.674069 0.0130145 0.
0.676069 0.0130137 0.
0.678069 0.0130127 0.
0.68007 0.0130109 0.
0.68207 0.013009 0.
0.684071 0.0130082 0.
0.686071 0.0130091 0.
0.688072 0.01301 0.
0.690073 0.013011 0.
0.692073 0.013012 0.
0.694074 0.0130131 0.
0.696075 0.0130141 0.
0.698076 0.0130151 0.
0.499925 0.015014 0.
0.501926 0.0150131 0.
0.503927 0.0150122 0.
0.505928 0.0150115 0.
0.507929 0.0150122 0.
0.50993 0.0150129 0.
0.511931 0.0150132 0.
0.513931 0.015013 0.
0.515932 0.0150127 0.
0.517933 0.015013 0.
0.519935 0.0150136 0.
0.521936 0.0150143 0.
0.523937 0.0150153 0.
0.525937 0.0150163 0.
0.527937 0.0150172 0.
0.529937 0.0150177 0.
0.531937 0.0150182 0.
0.533937 0.0150188 0.
0.535937 0.0150199 0.
0.537937 0.0150209 0.
0.539937 0.0150213 0.
0.541937 0.0150212 0.
0.543937 0.015021 0.
0.545937 0.0150203 0.
0.547937 0.0150194 0.
0.549937 0.0150185 0.
0.551937 0.0150201 0.
0.553936 0.0150216 0.
0.555936 0.015023 0.
0.557935 0.0150239 0.
0.559935 0.0150247 0.
0.561934 0.0150259 0.
0.563934 0.015028 0.
0.565933 0.01503 0.
0.567933 0.0150319 0.
0.569933 0.0150337 0.
0.571933 0.0150355 0.
0.573933 0.0150383 0.
0.575933 0.0150413 0.
0.577934 0.0150438 0.
0.579935 0.0150414 0.
0.581937 0.015039 0.
0.583939 0.0150357 0.
0.585944 0.0150303 0.
0.587948 0.0150248 0.
0.589953 0.0150198 0.
0.591959 0.0150152 0.
0.593965 0.0150107 0.
0.595976 0.0150135 0.
0.597989 0.0150185 0.
0.600002 0.0150235 0.
0.602013 0.0150195 0.
0.604024 0.0150155 0.
0.606034 0.0150132 0.
0.608041 0.0150171 0.
0.610048 0.0150209 0.
0.612053 0.0150253 0.
0.614057 0.0150305 0.
0.61606 0.0150357 0.
0.618062 0.0150366 0.
0.620064 0.0150355 0.
0.622065 0.0150345 0.
0.624065 0.0150328 0.
0.626065 0.0150311 0.
0.628065 0.0150298 0.
0.630066 0.0150305 0.
0.632066 0.0150313 0.
0.634067 0.0150314 0.
0.636066 0.0150302 0.
0.638065 0.0150289 0.
0.640064 0.015028 0.
0.642063 0.0150272 0.
0.644062 0.0150264 0.
0.646062 0.0150248 0.
0.648062 0.0150231 0.
0.650062 0.0150214 0.
0.652062 0.0150235 0.
0.654062 0.0150256 0.
0.656062 0.0150273 0.
0.658064 0.0150282 0.
0.660065 0.0150292 0.
0.662066 0.0150285 0.
0.664067 0.0150261 0.
0.666067 0.0150236 0.
0.668068 0.0150212 0.
0.670068 0.0150188 0.
0.672069 0.0150165 0.
0.674068 0.0150153 0.
0.676068 0.0150142 0.
0.678068 0.0150131 0.
0.680068 0.0150117 0.
0.682069 0.0150103 0.
0.68407 0.0150095 0.
0.68607 0.0150098 0.
0.68807 0.0150101 0.
0.690071 0.0150113 0.
0.692072 0.015013 0.
0.694072 0.0150148 0.
0.696073 0.0150156 0.
0.698075 0.0150162 0.
0.499927 0.0170156 0.
0.501928 0.0170146 0.
0.503928 0.0170136 0.
0.505929 0.0170127 0.
0.50793 0.017013 0.
0.509931 0.0170133 0.
0.511932 0.0170135 0.
0.513932 0.0170133 0.
0.515933 0.0170131 0.
0.517934 0.0170132 0.
0.519935 0.0170136 0.
0.521936 0.0170139 0.
0.523937 0.0170152 0.
0.525937 0.0170166 0.
0.527937 0.0170179 0.
0.529938 0.0170186 0.
0.531938 0.0170193 0.
0.533938 0.0170199 0.
0.535938 0.0170206 0.
0.537938 0.0170212 0.
0.539938 0.0170213 0.
0.541938 0.017021 0.
0.543939 0.0170207 0.
0.545939 0.0170201 0.
0.54794 0.0170194 0.
0.54994 0.0170187 0.
0.55194 0.0170203 0.
0.553939 0.0170219 0.
0.555938 0.0170234 0.
0.557938 0.0170244 0.
0.559938 0.0170254 0.
0.561937 0.0170267 0.
0.563937 0.0170286 0.
0.565937 0.0170305 0.
0.567937 0.0170322 0.
0.569937 0.0170336 0.
0.571938 0.0170351 0.
0.573939 0.0170374 0.
0.57594 0.0170399 0.
0.577941 0.017042 0.
0.579943 0.0170392 0.
0.581945 0.0170365 0.
0.583948 0.0170332 0.
0.585952 0.0170284 0.
0.587956 0.0170237 0.
0.589961 0.0170192 0.
0.591966 0.0170149 0.
0.59397 0.0170106 0.
0.59598 0.0170122 0.
0.59799 0.0170156 0.
0.600001 0.0170189 0.
0.602011 0.0170162 0.
0.60402 0.0170134 0.
0.606029 0.0170121 0.
0.608035 0.0170158 0.
0.61004 0.0170195 0.
0.612045 0.0170237 0.
0.614048 0.0170285 0.
0.616052 0.0170333 0.
0.618055 0.0170345 0.
0.620057 0.0170342 0.
0.622059 0.0170338 0.
0.62406 0.0170324 0.
0.62606 0.017031 0.
0.628061 0.0170298 0.
0.630061 0.0170305 0.
0.632062 0.0170311 0.
0.634062 0.0170312 0.
0.636062 0.01703 0.
0.638062 0.0170288 0.
0.640061 0.017028 0.
0.642061 0.0170273 0.
0.644061 0.0170266 0.
0.646061 0.0170254 0.
0.648061 0.017024 0.
0.650061 0.0170227 0.
0.652061 0.017024 0.
0.654061 0.0170252 0.
0.656061 0.0170264 0.
0.658062 0.0170274 0.
0.660063 0.0170284 0.
0.662064 0.0170279 0.
0.664066 0.0170259 0.
0.666067 0.0170238 0.
0.668068 0.0170219 0.
0.670068 0.0170202 0.
0.672068 0.0170184 0.
0.674068 0.0170168 0.
0.676068 0.0170152 0.
0.678068 0.0170136 0.
0.680068 0.0170126 0.
0.682069 0.0170115 0.
0.684069 0.0170109 0.
0.686069 0.0170109 0.
0.68807 0.017011 0.
0.69007 0.0170121 0.
0.692071 0.017014 0.
0.694071 0.0170158 0.
0.696072 0.0170169 0.
0.698073 0.0170178 0.
0.499928 0.0190172 0.
0.501929 0.0190162 0.
0.50393 0.019015 0.
0.50593 0.0190139 0.
0.507931 0.0190139 0.
0.509931 0.0190138 0.
0.511932 0.0190137 0.
0.513934 0.0190136 0.
0.515935 0.0190135 0.
0.517935 0.0190135 0.
0.519936 0.0190135 0.
0.521937 0.0190135 0.
0.523937 0.0190151 0.
0.525938 0.0190169 0.
0.527938 0.0190186 0.
0.529938 0.0190195 0.
0.531938 0.0190203 0.
0.533938 0.019021 0.
0.535939 0.0190212 0.
0.537939 0.0190215 0.
0.53994 0.0190213 0.
0.54194 0.0190209 0.
0.54394 0.0190204 0.
0.545941 0.0190199 0.
0.547942 0.0190194 0.
0.549943 0.0190188 0.
0.551942 0.0190205 0.
0.553942 0.0190222 0.
0.555941 0.0190238 0.
0.557941 0.0190249 0.
0.559941 0.0190261 0.
0.56194 0.0190275 0.
0.56394 0.0190293 0.
0.56594 0.0190311 0.
0.567941 0.0190324 0.
0.569941 0.0190335 0.
0.571942 0.0190346 0.
0.573944 0.0190365 0.
0.575946 0.0190385 0.
0.577948 0.0190401 0.
0.579951 0.019037 0.
0.581954 0.019034 0.
0.583957 0.0190306 0.
0.585961 0.0190266 0.
0.587965 0.0190225 0.
0.589968 0.0190185 0.
0.591972 0.0190146 0.
0.593976 0.0190106 0.
0.595983 0.019011 0.
0.597992 0.0190127 0.
0.6 0.0190144 0.
0.602008 0.0190128 0.
0.604016 0.0190113 0.
0.606024 0.0190109 0.
0.608028 0.0190145 0.
0.610033 0.0190181 0.
0.612037 0.019022 0.
0.61404 0.0190264 0.
0.616044 0.0190309 0.
0.618047 0.0190325 0.
0.62005 0.0190328 0.
0.622053 0.0190331 0.
0.624054 0.0190321 0.
0.626055 0.0190308 0.
0.628056 0.0190298 0.
0.630057 0.0190304 0.
0.632058 0.0190309 0.
0.634058 0.0190309 0.
0.636058 0.0190298 0.
0.638058 0.0190287 0.
0.640058 0.0190279 0.
0.642059 0.0190274 0.
0.644059 0.0190268 0.
0.646059 0.019026 0.
0.648059 0.019025 0.
0.65006 0.0190241 0.
0.65206 0.0190245 0.
0.65406 0.0190249 0.
0.65606 0.0190255 0.
0.658061 0.0190265 0.
0.660062 0.0190276 0.
0.662063 0.0190274 0.
0.664065 0.0190257 0.
0.666067 0.0190239 0.
0.668067 0.0190226 0.
0.670067 0.0190215 0.
0.672068 0.0190204 0.
0.674068 0.0190183 0.
0.676067 0.0190161 0.
0.678067 0.0190141 0.
0.680068 0.0190135 0.
0.682068 0.0190128 0.
0.684069 0.0190122 0.
0.686069 0.0190121 0.
0.688069 0.0190119 0.
0.690069 0.019013 0.
0.692069 0.0190149 0.
0.694069 0.0190168 0.
0.69607 0.0190181 0.
0.698071 0.0190193 0.
0.49993 0.0210183 0.
0.501931 0.0210173 0.
0.503931 0.0210161 0.
0.505932 0.021015 0.
0.507932 0.0210147 0.
0.509933 0.0210143 0.
0.511934 0.021014 0.
0.513935 0.0210139 0.
0.515937 0.0210138 0.
0.517937 0.0210137 0.
0.519938 0.0210135 0.
0.521938 0.0210133 0.
0.523938 0.021015 0.
0.525939 0.0210168 0.
0.527939 0.0210186 0.
0.529939 0.0210195 0.
0.531939 0.0210204 0.
0.53394 0.021021 0.
0.53594 0.0210211 0.
0.537941 0.0210211 0.
0.539941 0.0210209 0.
0.541942 0.0210204 0.
0.543942 0.02102 0.
0.545943 0.0210195 0.
0.547944 0.0210191 0.
0.549945 0.0210187 0.
0.551945 0.0210206 0.
0.553944 0.0210225 0.
0.555944 0.0210242 0.
0.557944 0.0210252 0.
0.559944 0.0210261 0.
0.561944 0.0210274 0.
0.563945 0.021029 0.
0.565945 0.0210305 0.
0.567946 0.0210317 0.
0.569946 0.0210326 0.
0.571947 0.0210335 0.
0.57395 0.0210349 0.
0.575953 0.0210364 0.
0.577955 0.0210375 0.
0.579958 0.0210344 0.
0.581961 0.0210312 0.
0.583965 0.021028 0.
0.585968 0.0210246 0.
0.587971 0.0210212 0.
0.589975 0.0210177 0.
0.591978 0.0210139 0.
0.593981 0.0210102 0.
0.595987 0.0210098 0.
0.597994 0.0210105 0.
0.6 0.0210111 0.
0.602007 0.0210105 0.
0.604013 0.0210098 0.
0.606019 0.02101 0.
0.608023 0.0210134 0.
0.610027 0.0210167 0.
0.61203 0.0210204 0.
0.614034 0.0210244 0.
0.616037 0.0210285 0.
0.61804 0.0210302 0.
0.620044 0.0210309 0.
0.622047 0.0210316 0.
0.624049 0.0210308 0.
0.62605 0.0210299 0.
0.628051 0.0210291 0.
0.630052 0.0210296 0.
0.632053 0.0210301 0.
0.634054 0.0210301 0.
0.636054 0.0210292 0.
0.638054 0.0210283 0.
0.640055 0.0210277 0.
0.642055 0.0210271 0.
0.644056 0.0210266 0.
0.646056 0.0210258 0.
0.648057 0.021025 0.
0.650057 0.0210242 0.
0.652057 0.0210242 0.
0.654058 0.0210242 0.
0.656058 0.0210245 0.
0.658059 0.0210254 0.
0.66006 0.0210263 0.
0.662061 0.0210261 0.
0.664063 0.0210248 0.
0.666065 0.0210235 0.
0.668065 0.0210227 0.
0.670066 0.0210222 0.
0.672066 0.0210217 0.
0.674066 0.0210193 0.
0.676066 0.0210168 0.
0.678066 0.0210145 0.
0.680067 0.021014 0.
0.682067 0.0210136 0.
0.684067 0.0210132 0.
0.686068 0.0210131 0.
0.688068 0.0210129 0.
0.690068 0.021014 0.
0.692068 0.0210159 0.
0.694068 0.0210178 0.
0.696069 0.0210193 0.
0.698069 0.0210208 0.
0.499932 0.0230188 0.
0.501933 0.0230179 0.
0.503933 0.0230169 0.
0.505934 0.023016 0.
0.507935 0.0230154 0.
0.509936 0.0230149 0.
0.511937 0.0230145 0.
0.513938 0.0230143 0.
0.515939 0.0230141 0.
0.517939 0.0230139 0.
0.51994 0.0230136 0.
0.52194 0.0230133 0.
0.52394 0.0230148 0.
0.525941 0.0230165 0.
0.527941 0.0230181 0.
0.529941 0.0230188 0.
0.531941 0.0230195 0.
0.533942 0.02302 0.
0.535942 0.0230201 0.
0.537943 0.0230202 0.
0.539943 0.02302 0.
0.541944 0.0230196 0.
0.543945 0.0230193 0.
0.545945 0.023019 0.
0.547946 0.0230186 0.
0.549946 0.0230183 0.
0.551946 0.0230205 0.
0.553947 0.0230228 0.
0.555947 0.0230247 0.
0.557948 0.0230251 0.
0.559948 0.0230256 0.
0.561949 0.0230264 0.
0.56395 0.0230277 0.
0.565951 0.023029 0.
0.567952 0.02303 0.
0.569953 0.0230308 0.
0.571954 0.0230317 0.
0.573956 0.0230326 0.
0.575959 0.0230336 0.
0.577962 0.0230342 0.
0.579965 0.0230312 0.
0.581967 0.0230282 0.
0.58397 0.0230253 0.
0.585973 0.0230225 0.
0.587976 0.0230197 0.
0.589979 0.0230165 0.
0.591983 0.023013 0.
0.593986 0.0230094 0.
0.595991 0.0230088 0.
0.597996 0.023009 0.
0.600002 0.0230092 0.
0.602007 0.023009 0.
0.604012 0.0230087 0.
0.606016 0.0230093 0.
0.608019 0.0230124 0.
0.610022 0.0230155 0.
0.612025 0.0230188 0.
0.614028 0.0230225 0.
0.616031 0.0230262 0.
0.618035 0.0230278 0.
0.620038 0.0230285 0.
0.622041 0.0230291 0.
0.624043 0.0230287 0.
0.626044 0.0230281 0.
0.628046 0.0230276 0.
0.630047 0.0230281 0.
0.632048 0.0230287 0.
0.634049 0.0230288 0.
0.63605 0.0230283 0.
0.63805 0.0230277 0.
0.640051 0.0230272 0.
0.642052 0.0230265 0.
0.644052 0.0230259 0.
0.646052 0.0230251 0.
0.648053 0.0230242 0.
0.650053 0.0230233 0.
0.652054 0.0230233 0.
0.654055 0.0230233 0.
0.656056 0.0230234 0.
0.658057 0.0230239 0.
0.660057 0.0230244 0.
0.662059 0.0230242 0.
0.66406 0.0230233 0.
0.666061 0.0230223 0.
0.668062 0.0230221 0.
0.670062 0.0230222 0.
0.672063 0.0230223 0.
0.674063 0.0230198 0.
0.676064 0.0230171 0.
0.678064 0.0230146 0.
0.680064 0.0230143 0.
0.682064 0.023014 0.
0.684065 0.0230138 0.
0.686065 0.0230139 0.
0.688066 0.023014 0.
0.690066 0.0230152 0.
0.692067 0.023017 0.
0.694067 0.0230189 0.
0.696067 0.0230205 0.
0.698067 0.0230221 0.
0.499934 0.0250193 0.
0.501935 0.0250186 0.
0.503936 0.0250178 0.
0.505936 0.025017 0.
0.507937 0.0250162 0.
0.509938 0.0250154 0.
0.511939 0.0250149 0.
0.51394 0.0250146 0.
0.515941 0.0250144 0.
0.517942 0.025014 0.
0.519942 0.0250137 0.
0.521943 0.0250133 0.
0.523943 0.0250146 0.
0.525943 0.0250161 0.
0.527943 0.0250175 0.
0.529943 0.0250181 0.
0.531943 0.0250186 0.
0.533944 0.0250191 0.
0.535944 0.0250192 0.
0.537945 0.0250193 0.
0.539946 0.0250192 0.
0.541947 0.0250189 0.
0.543948 0.0250186 0.
0.545948 0.0250183 0.
0.547947 0.0250181 0.
0.549947 0.0250179 0.
0.551948 0.0250205 0.
0.553949 0.0250231 0.
0.55595 0.0250252 0.
0.557951 0.0250251 0.
0.559952 0.025025 0.
0.561954 0.0250254 0.
0.563955 0.0250264 0.
0.565957 0.0250275 0.
0.567958 0.0250283 0.
0.569959 0.0250291 0.
0.57196 0.0250299 0.
0.573963 0.0250303 0.
0.575966 0.0250308 0.
0.577969 0.0250309 0.
0.579971 0.0250281 0.
0.581973 0.0250252 0.
0.583976 0.0250226 0.
0.585979 0.0250204 0.
0.587981 0.0250182 0.
0.589984 0.0250154 0.
0.591987 0.025012 0.
0.59399 0.0250087 0.
0.595994 0.0250077 0.
0.597999 0.0250075 0.
0.600003 0.0250072 0.
0.602006 0.0250075 0.
0.60401 0.0250077 0.
0.606013 0.0250085 0.
0.608016 0.0250114 0.
0.610018 0.0250142 0.
0.612021 0.0250173 0.
0.614023 0.0250206 0.
0.616026 0.0250239 0.
0.618029 0.0250254 0.
0.620032 0.0250261 0.
0.622035 0.0250267 0.
0.624037 0.0250265 0.
0.626038 0.0250263 0.
0.62804 0.0250261 0.
0.630041 0.0250267 0.
0.632043 0.0250272 0.
0.634044 0.0250275 0.
0.636045 0.0250273 0.
0.638047 0.0250272 0.
0.640047 0.0250266 0.
0.642048 0.0250259 0.
0.644048 0.0250252 0.
0.646048 0.0250243 0.
0.648049 0.0250233 0.
0.650049 0.0250223 0.
0.65205 0.0250223 0.
0.654052 0.0250223 0.
0.656053 0.0250223 0.
0.658054 0.0250224 0.
0.660055 0.0250226 0.
0.662056 0.0250223 0.
0.664057 0.0250218 0.
0.666058 0.0250212 0.
0.668058 0.0250215 0.
0.670059 0.0250222 0.
0.67206 0.0250229 0.
0.674061 0.0250202 0.
0.676061 0.0250174 0.
0.678062 0.0250148 0.
0.680062 0.0250146 0.
0.682062 0.0250144 0.
0.684063 0.0250144 0.
0.686063 0.0250148 0.
0.688064 0.0250151 0.
0.690064 0.0250163 0.
0.692065 0.0250181 0.
0.694066 0.02502 0.
0.696065 0.0250217 0.
0.698064 0.0250233 0.
0.499937 0.0270207 0.
0.501937 0.0270196 0.
0.503938 0.0270185 0.
0.505938 0.0270174 0.
0.507939 0.0270165 0.
0.50994 0.0270156 0.
0.511941 0.0270149 0.
0.513942 0.0270144 0.
0.515943 0.0270139 0.
0.517944 0.0270137 0.
0.519944 0.0270138 0.
0.521945 0.0270138 0.
0.523945 0.0270149 0.
0.525945 0.0270161 0.
0.527944 0.0270173 0.
0.529945 0.0270179 0.
0.531945 0.0270184 0.
0.533946 0.0270188 0.
0.535946 0.0270186 0.
0.537947 0.0270184 0.
0.539948 0.0270181 0.
0.541949 0.0270178 0.
0.543949 0.0270175 0.
0.54595 0.0270177 0.
0.54795 0.027018 0.
0.54995 0.0270182 0.
0.551951 0.0270203 0.
0.553952 0.0270224 0.
0.555952 0.0270241 0.
0.557954 0.0270242 0.
0.559955 0.0270242 0.
0.561956 0.0270246 0.
0.563958 0.0270254 0.
0.565959 0.0270262 0.
0.56796 0.0270267 0.
0.569962 0.027027 0.
0.571964 0.0270274 0.
0.573966 0.0270279 0.
0.575969 0.0270284 0.
0.577971 0.0270287 0.
0.579973 0.0270262 0.
0.581976 0.0270238 0.
0.583978 0.0270214 0.
0.585981 0.0270191 0.
0.587983 0.0270169 0.
0.589986 0.0270143 0.
0.591988 0.0270116 0.
0.593991 0.0270088 0.
0.595994 0.0270078 0.
0.597998 0.0270074 0.
0.600002 0.0270069 0.
0.602005 0.0270072 0.
0.604008 0.0270075 0.
0.606011 0.0270084 0.
0.608013 0.0270112 0.
0.610015 0.0270139 0.
0.612018 0.0270166 0.
0.61402 0.027019 0.
0.616023 0.0270214 0.
0.618026 0.0270229 0.
0.620029 0.0270239 0.
0.622032 0.027025 0.
0.624034 0.027025 0.
0.626036 0.027025 0.
0.628037 0.027025 0.
0.630039 0.0270256 0.
0.63204 0.0270262 0.
0.634041 0.0270265 0.
0.636043 0.0270262 0.
0.638044 0.027026 0.
0.640045 0.0270256 0.
0.642045 0.0270252 0.
0.644046 0.0270248 0.
0.646046 0.0270237 0.
0.648047 0.0270226 0.
0.650047 0.0270214 0.
0.652048 0.0270216 0.
0.654049 0.0270218 0.
0.656051 0.0270219 0.
0.658052 0.027022 0.
0.660053 0.0270221 0.
0.662054 0.027022 0.
0.664054 0.0270217 0.
0.666055 0.0270214 0.
0.668056 0.0270216 0.
0.670057 0.0270219 0.
0.672057 0.0270223 0.
0.674058 0.02702 0.
0.676059 0.0270176 0.
0.67806 0.0270154 0.
0.68006 0.0270153 0.
0.68206 0.0270152 0.
0.684061 0.0270153 0.
0.686061 0.0270159 0.
0.688061 0.0270165 0.
0.690062 0.0270177 0.
0.692062 0.0270192 0.
0.694063 0.0270208 0.
0.696063 0.0270227 0.
0.698063 0.0270246 0.
0.49994 0.0290223 0.
0.50194 0.0290207 0.
0.50394 0.0290192 0.
0.50594 0.0290177 0.
0.507941 0.0290168 0.
0.509942 0.0290158 0.
0.511943 0.029015 0.
0.513944 0.0290142 0.
0.515945 0.0290134 0.
0.517946 0.0290134 0.
0.519947 0.0290139 0.
0.521947 0.0290143 0.
0.523947 0.0290152 0.
0.525947 0.0290162 0.
0.527946 0.0290171 0.
0.529947 0.0290177 0.
0.531948 0.0290182 0.
0.533948 0.0290185 0.
0.535949 0.029018 0.
0.537949 0.0290174 0.
0.53995 0.029017 0.
0.541951 0.0290168 0.
0.543951 0.0290165 0.
0.545952 0.029017 0.
0.547953 0.0290178 0.
0.549953 0.0290186 0.
0.551954 0.0290201 0.
0.553955 0.0290217 0.
0.555955 0.029023 0.
0.557956 0.0290232 0.
0.559958 0.0290235 0.
0.561959 0.0290239 0.
0.56396 0.0290244 0.
0.565961 0.0290249 0.
0.567963 0.0290251 0.
0.569965 0.029025 0.
0.571967 0.0290249 0.
0.573969 0.0290254 0.
0.575971 0.029026 0.
0.577973 0.0290264 0.
0.579976 0.0290243 0.
0.581978 0.0290223 0.
0.583981 0.0290202 0.
0.585983 0.0290178 0.
0.587985 0.0290155 0.
0.589988 0.0290133 0.
0.59199 0.0290111 0.
0.593992 0.029009 0.
0.595995 0.029008 0.
0.597998 0.0290073 0.
0.6 0.0290066 0.
0.602003 0.029007 0.
0.604006 0.0290074 0.
0.606009 0.0290082 0.
0.60801 0.0290109 0.
0.610012 0.0290137 0.
0.612015 0.0290159 0.
0.614018 0.0290174 0.
0.61602 0.0290189 0.
0.618023 0.0290203 0.
0.620026 0.0290218 0.
0.622029 0.0290232 0.
0.624031 0.0290235 0.
0.626033 0.0290237 0.
0.628034 0.0290239 0.
0.630036 0.0290245 0.
0.632037 0.0290251 0.
0.634039 0.0290255 0.
0.63604 0.0290251 0.
0.638041 0.0290248 0.
0.640042 0.0290246 0.
0.642043 0.0290244 0.
0.644044 0.0290243 0.
0.646044 0.0290232 0.
0.648044 0.0290218 0.
0.650045 0.0290205 0.
0.652046 0.0290208 0.
0.654047 0.0290212 0.
0.656048 0.0290215 0.
0.658049 0.0290215 0.
0.660051 0.0290215 0.
0.662052 0.0290216 0.
0.664052 0.0290216 0.
0.666053 0.0290216 0.
0.668053 0.0290217 0.
0.670054 0.0290217 0.
0.672055 0.0290217 0.
0.674056 0.0290198 0.
0.676057 0.0290178 0.
0.678058 0.029016 0.
0.680058 0.0290159 0.
0.682059 0.0290159 0.
0.684059 0.0290162 0.
0.686059 0.029017 0.
0.688059 0.0290179 0.
0.690059 0.029019 0.
0.69206 0.0290203 0.
0.69406 0.0290217 0.
0.696061 0.0290237 0.
0.698062 0.0290258 0.
0.499942 0.0310231 0.
0.501942 0.0310215 0.
0.503943 0.0310199 0.
0.505943 0.0310184 0.
0.507944 0.0310171 0.
0.509944 0.0310158 0.
0.511945 0.0310147 0.
0.513946 0.031014 0.
0.515947 0.0310133 0.
0.517948 0.0310134 0.
0.519949 0.031014 0.
0.52195 0.0310146 0.
0.523949 0.0310153 0.
0.525949 0.0310159 0.
0.527949 0.0310166 0.
0.529949 0.031017 0.
0.53195 0.0310175 0.
0.533951 0.0310177 0.
0.535951 0.0310172 0.
0.537952 0.0310168 0.
0.539953 0.0310164 0.
0.541953 0.0310161 0.
0.543954 0.0310159 0.
0.545955 0.0310164 0.
0.547956 0.0310172 0.
0.549957 0.031018 0.
0.551957 0.0310192 0.
0.553958 0.0310205 0.
0.555958 0.0310216 0.
0.55796 0.0310221 0.
0.559961 0.0310226 0.
0.561962 0.0310231 0.
0.563963 0.0310234 0.
0.565964 0.0310237 0.
0.567966 0.0310236 0.
0.569968 0.0310233 0.
0.57197 0.031023 0.
0.573972 0.0310235 0.
0.575974 0.031024 0.
0.577976 0.0310243 0.
0.579978 0.0310227 0.
0.581981 0.0310211 0.
0.583983 0.0310192 0.
0.585985 0.0310168 0.
0.587987 0.0310144 0.
0.589989 0.0310124 0.
0.59199 0.0310107 0.
0.593992 0.0310089 0.
0.595995 0.0310079 0.
0.597997 0.0310072 0.
0.6 0.0310064 0.
0.602003 0.0310069 0.
0.604005 0.0310074 0.
0.606007 0.0310083 0.
0.608009 0.0310107 0.
0.610011 0.0310131 0.
0.612013 0.0310149 0.
0.614016 0.0310158 0.
0.616019 0.0310168 0.
0.618021 0.0310183 0.
0.620023 0.03102 0.
0.622026 0.0310217 0.
0.624028 0.0310222 0.
0.626029 0.0310225 0.
0.628031 0.0310228 0.
0.630033 0.0310234 0.
0.632034 0.031024 0.
0.634036 0.0310243 0.
0.636037 0.031024 0.
0.638038 0.0310237 0.
0.640039 0.0310236 0.
0.64204 0.0310238 0.
0.644041 0.031024 0.
0.646041 0.0310228 0.
0.648042 0.0310212 0.
0.650043 0.0310197 0.
0.652043 0.0310201 0.
0.654044 0.0310205 0.
0.656045 0.0310209 0.
0.658046 0.0310209 0.
0.660047 0.031021 0.
0.662048 0.0310211 0.
0.664049 0.0310211 0.
0.66605 0.0310212 0.
0.66805 0.0310212 0.
0.670051 0.0310211 0.
0.672052 0.031021 0.
0.674053 0.0310195 0.
0.676054 0.0310178 0.
0.678055 0.0310164 0.
0.680056 0.0310164 0.
0.682056 0.0310164 0.
0.684056 0.0310168 0.
0.686056 0.0310177 0.
0.688057 0.0310187 0.
0.690057 0.0310198 0.
0.692057 0.0310212 0.
0.694057 0.0310225 0.
0.696058 0.0310245 0.
0.69806 0.0310268 0.
0.499943 0.0330231 0.
0.501944 0.033022 0.
0.503945 0.0330208 0.
0.505946 0.0330194 0.
0.507946 0.0330175 0.
0.509947 0.0330155 0.
0.511948 0.0330142 0.
0.513948 0.0330139 0.
0.515949 0.0330135 0.
0.51795 0.0330137 0.
0.519951 0.0330141 0.
0.521951 0.0330145 0.
0.523951 0.033015 0.
0.525951 0.0330154 0.
0.527951 0.0330158 0.
0.529952 0.033016 0.
0.531953 0.0330163 0.
0.533954 0.0330164 0.
0.535955 0.0330164 0.
0.537955 0.0330163 0.
0.539956 0.0330162 0.
0.541957 0.033016 0.
0.543958 0.0330157 0.
0.545958 0.0330159 0.
0.547959 0.0330162 0.
0.54996 0.0330165 0.
0.551961 0.0330177 0.
0.553961 0.0330188 0.
0.555962 0.0330199 0.
0.557963 0.0330208 0.
0.559964 0.0330217 0.
0.561965 0.0330223 0.
0.563967 0.0330224 0.
0.565969 0.0330225 0.
0.56797 0.0330223 0.
0.569972 0.033022 0.
0.571974 0.0330217 0.
0.573975 0.033022 0.
0.575977 0.0330224 0.
0.577978 0.0330226 0.
0.57998 0.0330213 0.
0.581983 0.0330201 0.
0.583985 0.0330184 0.
0.585986 0.0330161 0.
0.587988 0.0330137 0.
0.589989 0.0330118 0.
0.591991 0.0330102 0.
0.593992 0.0330087 0.
0.595995 0.0330078 0.
0.597997 0.0330071 0.
0.6 0.0330063 0.
0.602003 0.0330071 0.
0.604005 0.0330078 0.
0.606007 0.0330087 0.
0.608009 0.0330105 0.
0.61001 0.0330123 0.
0.612012 0.0330136 0.
0.614015 0.0330143 0.
0.616017 0.033015 0.
0.618019 0.0330166 0.
0.620021 0.0330186 0.
0.622023 0.0330206 0.
0.624025 0.0330212 0.
0.626026 0.0330215 0.
0.628028 0.0330219 0.
0.63003 0.0330223 0.
0.632031 0.0330227 0.
0.634033 0.0330229 0.
0.636034 0.0330228 0.
0.638035 0.0330227 0.
0.640036 0.0330229 0.
0.642037 0.0330233 0.
0.644037 0.0330238 0.
0.646038 0.0330225 0.
0.648039 0.0330208 0.
0.65004 0.0330192 0.
0.65204 0.0330195 0.
0.654041 0.0330198 0.
0.656041 0.03302 0.
0.658042 0.0330202 0.
0.660043 0.0330203 0.
0.662044 0.0330204 0.
0.664046 0.0330203 0.
0.666047 0.0330203 0.
0.668047 0.0330202 0.
0.670048 0.0330201 0.
0.672048 0.03302 0.
0.674049 0.0330189 0.
0.67605 0.0330176 0.
0.678051 0.0330165 0.
0.680052 0.0330166 0.
0.682053 0.0330167 0.
0.684053 0.0330171 0.
0.686054 0.033018 0.
0.688054 0.0330189 0.
0.690054 0.0330202 0.
0.692055 0.0330217 0.
0.694055 0.0330233 0.
0.696056 0.0330253 0.
0.698057 0.0330274 0.
0.499945 0.0350233 0.
0.501946 0.0350225 0.
0.503948 0.0350216 0.
0.505949 0.0350204 0.
0.507949 0.0350178 0.
0.509949 0.0350152 0.
0.51195 0.0350137 0.
0.513951 0.0350137 0.
0.515951 0.0350138 0.
0.517952 0.035014 0.
0.519953 0.0350142 0.
0.521953 0.0350145 0.
0.523954 0.0350147 0.
0.525954 0.0350149 0.
0.527954 0.035015 0.
0.529955 0.035015 0.
0.531956 0.0350151 0.
0.533957 0.0350152 0.
0.535958 0.0350156 0.
0.537958 0.0350159 0.
0.539959 0.035016 0.
0.54196 0.0350158 0.
0.543961 0.0350156 0.
0.545962 0.0350154 0.
0.547962 0.0350152 0.
0.549963 0.0350151 0.
0.551964 0.0350161 0.
0.553965 0.0350172 0.
0.555966 0.0350183 0.
0.557967 0.0350195 0.
0.559968 0.0350208 0.
0.561969 0.0350215 0.
0.563971 0.0350214 0.
0.565973 0.0350213 0.
0.567975 0.035021 0.
0.569976 0.0350207 0.
0.571977 0.0350204 0.
0.573978 0.0350206 0.
0.575979 0.0350208 0.
0.577981 0.0350209 0.
0.579983 0.03502 0.
0.581985 0.035019 0.
0.583987 0.0350176 0.
0.585988 0.0350153 0.
0.587989 0.035013 0.
0.58999 0.0350112 0.
0.591991 0.0350098 0.
0.593992 0.0350084 0.
0.595995 0.0350076 0.
0.597998 0.0350069 0.
0.6 0.0350063 0.
0.602003 0.0350072 0.
0.604005 0.0350082 0.
0.606007 0.0350092 0.
0.608009 0.0350103 0.
0.61001 0.0350114 0.
0.612012 0.0350123 0.
0.614014 0.0350128 0.
0.616016 0.0350133 0.
0.618018 0.035015 0.
0.620019 0.0350173 0.
0.62202 0.0350196 0.
0.624022 0.0350201 0.
0.626023 0.0350205 0.
0.628025 0.0350209 0.
0.630026 0.0350212 0.
0.632028 0.0350214 0.
0.634029 0.0350216 0.
0.63603 0.0350216 0.
0.638031 0.0350217 0.
0.640032 0.0350221 0.
0.642033 0.0350228 0.
0.644034 0.0350235 0.
0.646035 0.0350223 0.
0.648036 0.0350205 0.
0.650038 0.0350187 0.
0.652038 0.0350188 0.
0.654037 0.035019 0.
0.656038 0.0350192 0.
0.658038 0.0350195 0.
0.660039 0.0350197 0.
0.66204 0.0350198 0.
0.664042 0.0350195 0.
0.666044 0.0350193 0.
0.668045 0.0350192 0.
0.670045 0.0350192 0.
0.672045 0.0350191 0.
0.674046 0.0350183 0.
0.676046 0.0350175 0.
0.678047 0.0350168 0.
0.680048 0.0350169 0.
0.682049 0.035017 0.
0.68405 0.0350174 0.
0.686051 0.0350183 0.
0.688052 0.0350191 0.
0.690052 0.0350205 0.
0.692052 0.0350223 0.
0.694052 0.035024 0.
0.696053 0.035026 0.
0.698054 0.035028 0.
0.499949 0.0370244 0.
0.501949 0.0370232 0.
0.503951 0.0370218 0.
0.505952 0.0370202 0.
0.507952 0.0370181 0.
0.509952 0.037016 0.
0.511952 0.0370147 0.
0.513953 0.0370145 0.
0.515953 0.0370143 0.
0.517953 0.0370143 0.
0.519954 0.0370144 0.
0.521954 0.0370145 0.
0.523955 0.0370146 0.
0.525955 0.0370147 0.
0.527956 0.0370147 0.
0.529957 0.0370146 0.
0.531958 0.0370146 0.
0.533959 0.0370146 0.
0.53596 0.0370148 0.
0.53796 0.0370149 0.
0.539961 0.0370149 0.
0.541962 0.0370148 0.
0.543963 0.0370146 0.
0.545964 0.0370145 0.
0.547964 0.0370144 0.
0.549965 0.0370143 0.
0.551966 0.0370154 0.
0.553967 0.0370164 0.
0.555968 0.0370175 0.
0.557969 0.0370186 0.
0.55997 0.0370197 0.
0.561971 0.0370202 0.
0.563973 0.0370198 0.
0.565975 0.0370195 0.
0.567977 0.0370193 0.
0.569978 0.0370193 0.
0.571979 0.0370192 0.
0.57398 0.0370194 0.
0.575981 0.0370195 0.
0.577983 0.0370194 0.
0.579984 0.0370182 0.
0.581986 0.037017 0.
0.583988 0.0370158 0.
0.585989 0.0370145 0.
0.58799 0.0370131 0.
0.589991 0.0370116 0.
0.591992 0.0370101 0.
0.593993 0.0370085 0.
0.595996 0.0370077 0.
0.597998 0.0370071 0.
0.600001 0.0370064 0.
0.602003 0.0370073 0.
0.604005 0.0370081 0.
0.606007 0.0370089 0.
0.608008 0.0370099 0.
0.610009 0.0370108 0.
0.612011 0.0370116 0.
0.614013 0.0370121 0.
0.616014 0.0370127 0.
0.618016 0.0370143 0.
0.620017 0.0370163 0.
0.622018 0.0370183 0.
0.62402 0.037019 0.
0.626021 0.0370194 0.
0.628023 0.0370198 0.
0.630024 0.03702 0.
0.632026 0.0370201 0.
0.634028 0.0370203 0.
0.636029 0.0370205 0.
0.638029 0.0370208 0.
0.640031 0.0370213 0.
0.642032 0.0370221 0.
0.644033 0.0370228 0.
0.646034 0.0370215 0.
0.648035 0.0370198 0.
0.650036 0.037018 0.
0.652036 0.037018 0.
0.654036 0.037018 0.
0.656037 0.0370181 0.
0.658037 0.0370187 0.
0.660038 0.0370193 0.
0.662039 0.0370195 0.
0.66404 0.0370192 0.
0.666041 0.0370189 0.
0.668042 0.0370188 0.
0.670043 0.0370188 0.
0.672043 0.0370189 0.
0.674044 0.0370183 0.
0.676045 0.0370176 0.
0.678046 0.037017 0.
0.680046 0.0370172 0.
0.682047 0.0370173 0.
0.684048 0.0370177 0.
0.686048 0.0370184 0.
0.688049 0.0370192 0.
0.69005 0.0370205 0.
0.69205 0.0370222 0.
0.69405 0.0370239 0.
0.696051 0.0370259 0.
0.698052 0.0370279 0.
0.499952 0.0390256 0.
0.501953 0.0390239 0.
0.503954 0.0390219 0.
0.505954 0.03902 0.
0.507954 0.0390183 0.
0.509954 0.0390167 0.
0.511954 0.0390156 0.
0.513954 0.0390152 0.
0.515954 0.0390148 0.
0.517955 0.0390147 0.
0.519955 0.0390146 0.
0.521955 0.0390145 0.
0.523956 0.0390145 0.
0.525957 0.0390145 0.
0.527957 0.0390145 0.
0.529959 0.0390143 0.
0.53196 0.0390141 0.
0.533961 0.0390139 0.
0.535962 0.039014 0.
0.537962 0.039014 0.
0.539963 0.0390139 0.
0.541964 0.0390138 0.
0.543964 0.0390136 0.
0.545965 0.0390136 0.
0.547966 0.0390136 0.
0.549968 0.0390135 0.
0.551968 0.0390146 0.
0.553968 0.0390157 0.
0.555969 0.0390167 0.
0.55797 0.0390177 0.
0.559972 0.0390186 0.
0.561973 0.0390189 0.
0.563975 0.0390183 0.
0.565977 0.0390177 0.
0.567978 0.0390177 0.
0.569979 0.0390179 0.
0.57198 0.0390181 0.
0.573982 0.0390181 0.
0.575983 0.0390181 0.
0.577985 0.039018 0.
0.579986 0.0390165 0.
0.581988 0.039015 0.
0.583989 0.0390139 0.
0.58599 0.0390136 0.
0.587991 0.0390132 0.
0.589992 0.0390121 0.
0.591994 0.0390104 0.
0.593995 0.0390087 0.
0.595997 0.0390078 0.
0.597999 0.0390072 0.
0.600001 0.0390066 0.
0.602003 0.0390073 0.
0.604004 0.039008 0.
0.606006 0.0390087 0.
0.608007 0.0390095 0.
0.610009 0.0390102 0.
0.61201 0.0390109 0.
0.614011 0.0390115 0.
0.616013 0.0390121 0.
0.618014 0.0390135 0.
0.620015 0.0390153 0.
0.622017 0.0390171 0.
0.624018 0.0390178 0.
0.626019 0.0390183 0.
0.628021 0.0390187 0.
0.630022 0.0390188 0.
0.632024 0.0390188 0.
0.634026 0.039019 0.
0.636027 0.0390195 0.
0.638028 0.03902 0.
0.640029 0.0390206 0.
0.64203 0.0390213 0.
0.644032 0.039022 0.
0.646032 0.0390208 0.
0.648033 0.0390191 0.
0.650034 0.0390174 0.
0.652034 0.0390172 0.
0.654035 0.039017 0.
0.656036 0.039017 0.
0.658036 0.039018 0.
0.660036 0.039019 0.
0.662037 0.0390192 0.
0.664038 0.0390188 0.
0.666038 0.0390184 0.
0.668039 0.0390183 0.
0.670041 0.0390185 0.
0.672042 0.0390186 0.
0.674043 0.0390182 0.
0.676044 0.0390177 0.
0.678044 0.0390173 0.
0.680044 0.0390174 0.
0.682045 0.0390176 0.
0.684045 0.0390179 0.
0.686046 0.0390186 0.
0.688047 0.0390193 0.
0.690047 0.0390205 0.
0.692047 0.0390221 0.
0.694048 0.0390237 0.
0.696048 0.0390257 0.
0.69805 0.0390279 0.
0.499955 0.0410262 0.
0.501956 0.0410243 0.
0.503957 0.0410222 0.
0.505957 0.0410202 0.
0.507957 0.0410187 0.
0.509957 0.0410173 0.
0.511957 0.0410161 0.
0.513957 0.0410155 0.
0.515957 0.0410149 0.
0.517957 0.0410146 0.
0.519958 0.0410146 0.
0.521958 0.0410145 0.
0.523959 0.0410144 0.
0.525959 0.0410142 0.
0.52796 0.041014 0.
0.529961 0.0410138 0.
0.531962 0.0410136 0.
0.533963 0.0410134 0.
0.535964 0.0410132 0.
0.537965 0.0410131 0.
0.539965 0.041013 0.
0.541966 0.0410129 0.
0.543966 0.0410128 0.
0.545967 0.0410129 0.
0.547968 0.0410131 0.
0.549969 0.0410133 0.
0.55197 0.0410143 0.
0.55397 0.0410154 0.
0.555971 0.0410163 0.
0.557972 0.041017 0.
0.559974 0.0410176 0.
0.561975 0.0410178 0.
0.563977 0.0410171 0.
0.565978 0.0410165 0.
0.56798 0.0410165 0.
0.569981 0.0410168 0.
0.571982 0.041017 0.
0.573984 0.0410171 0.
0.575985 0.0410171 0.
0.577986 0.0410169 0.
0.579988 0.0410154 0.
0.581989 0.0410139 0.
0.58399 0.041013 0.
0.585991 0.041013 0.
0.587992 0.0410131 0.
0.589993 0.0410122 0.
0.591995 0.0410105 0.
0.593996 0.0410088 0.
0.595998 0.041008 0.
0.597999 0.0410073 0.
0.600001 0.0410067 0.
0.602002 0.0410074 0.
0.604004 0.0410081 0.
0.606006 0.0410088 0.
0.608007 0.0410094 0.
0.610008 0.0410099 0.
0.612009 0.0410105 0.
0.61401 0.0410109 0.
0.616011 0.0410114 0.
0.618012 0.0410127 0.
0.620014 0.0410145 0.
0.622015 0.0410162 0.
0.624016 0.0410168 0.
0.626018 0.0410171 0.
0.628019 0.0410175 0.
0.630021 0.0410177 0.
0.632023 0.0410179 0.
0.634024 0.0410183 0.
0.636025 0.0410188 0.
0.638026 0.0410193 0.
0.640027 0.0410199 0.
0.642028 0.0410205 0.
0.64403 0.0410211 0.
0.64603 0.0410199 0.
0.648031 0.0410183 0.
0.650031 0.0410166 0.
0.652032 0.0410164 0.
0.654033 0.0410161 0.
0.656034 0.0410162 0.
0.658034 0.0410172 0.
0.660035 0.0410182 0.
0.662035 0.0410185 0.
0.664035 0.0410182 0.
0.666036 0.0410178 0.
0.668037 0.0410179 0.
0.670038 0.0410182 0.
0.67204 0.0410185 0.
0.67404 0.041018 0.
0.676041 0.0410174 0.
0.678042 0.041017 0.
0.680042 0.0410173 0.
0.682042 0.0410176 0.
0.684043 0.0410181 0.
0.686044 0.0410187 0.
0.688044 0.0410193 0.
0.690045 0.0410204 0.
0.692045 0.0410221 0.
0.694045 0.0410238 0.
0.696046 0.0410258 0.
0.698047 0.041028 0.
0.499958 0.0430261 0.
0.501959 0.0430244 0.
0.503959 0.0430226 0.
0.50596 0.0430209 0.
0.50796 0.0430193 0.
0.50996 0.0430177 0.
0.51196 0.0430163 0.
0.513961 0.0430154 0.
0.515961 0.0430144 0.
0.517961 0.0430142 0.
0.519962 0.0430143 0.
0.521962 0.0430144 0.
0.523962 0.0430141 0.
0.525963 0.0430137 0.
0.527964 0.0430133 0.
0.529964 0.0430132 0.
0.531965 0.0430131 0.
0.533966 0.0430129 0.
0.535966 0.0430126 0.
0.537967 0.0430124 0.
0.539968 0.0430122 0.
0.541969 0.0430122 0.
0.543969 0.0430122 0.
0.54597 0.0430126 0.
0.54797 0.0430131 0.
0.549971 0.0430135 0.
0.551972 0.0430144 0.
0.553972 0.0430153 0.
0.555973 0.0430161 0.
0.557974 0.0430165 0.
0.559975 0.0430169 0.
0.561977 0.0430169 0.
0.563978 0.0430164 0.
0.565979 0.0430158 0.
0.567981 0.0430158 0.
0.569982 0.0430159 0.
0.571984 0.0430161 0.
0.573985 0.0430162 0.
0.575986 0.0430163 0.
0.577988 0.0430162 0.
0.579989 0.0430149 0.
0.58199 0.0430137 0.
0.583991 0.0430128 0.
0.585992 0.0430128 0.
0.587993 0.0430128 0.
0.589994 0.043012 0.
0.591995 0.0430105 0.
0.593997 0.0430091 0.
0.595998 0.0430082 0.
0.597999 0.0430074 0.
0.600001 0.0430066 0.
0.602003 0.0430075 0.
0.604004 0.0430083 0.
0.606006 0.043009 0.
0.608007 0.0430095 0.
0.610008 0.04301 0.
0.612008 0.0430103 0.
0.614009 0.0430104 0.
0.61601 0.0430106 0.
0.618011 0.0430119 0.
0.620012 0.0430138 0.
0.622014 0.0430157 0.
0.624015 0.043016 0.
0.626017 0.043016 0.
0.628018 0.0430162 0.
0.63002 0.0430169 0.
0.632021 0.0430176 0.
0.634023 0.0430182 0.
0.636023 0.0430185 0.
0.638024 0.0430189 0.
0.640025 0.0430192 0.
0.642026 0.0430196 0.
0.644027 0.04302 0.
0.646028 0.0430189 0.
0.648029 0.0430173 0.
0.650029 0.0430157 0.
0.65203 0.0430156 0.
0.65403 0.0430155 0.
0.656031 0.0430155 0.
0.658032 0.0430163 0.
0.660033 0.0430171 0.
0.662033 0.0430174 0.
0.664034 0.0430172 0.
0.666034 0.0430171 0.
0.668035 0.0430174 0.
0.670036 0.0430179 0.
0.672037 0.0430184 0.
0.674037 0.0430176 0.
0.676038 0.0430168 0.
0.678039 0.0430161 0.
0.68004 0.0430167 0.
0.68204 0.0430174 0.
0.684041 0.043018 0.
0.686041 0.0430186 0.
0.688042 0.0430191 0.
0.690042 0.0430204 0.
0.692043 0.0430222 0.
0.694043 0.043024 0.
0.696044 0.0430261 0.
0.698045 0.0430283 0.
0.499961 0.0450261 0.
0.501962 0.0450245 0.
0.503962 0.045023 0.
0.505962 0.0450216 0.
0.507962 0.0450198 0.
0.509963 0.0450181 0.
0.511963 0.0450165 0.
0.513964 0.0450153 0.
0.515965 0.045014 0.
0.517965 0.0450137 0.
0.519966 0.045014 0.
0.521966 0.0450144 0.
0.523966 0.0450139 0.
0.525967 0.0450133 0.
0.527967 0.0450127 0.
0.529968 0.0450126 0.
0.531968 0.0450126 0.
0.533968 0.0450124 0.
0.535969 0.045012 0.
0.53797 0.0450116 0.
0.539971 0.0450115 0.
0.541972 0.0450115 0.
0.543972 0.0450116 0.
0.545972 0.0450122 0.
0.547972 0.045013 0.
0.549972 0.0450138 0.
0.551973 0.0450145 0.
0.553975 0.0450153 0.
0.555976 0.0450159 0.
0.557977 0.045016 0.
0.559977 0.0450161 0.
0.561978 0.045016 0.
0.563979 0.0450156 0.
0.56598 0.0450152 0.
0.567982 0.0450151 0.
0.569984 0.0450151 0.
0.571986 0.0450151 0.
0.573987 0.0450153 0.
0.575988 0.0450154 0.
0.577989 0.0450155 0.
0.57999 0.0450145 0.
0.581991 0.0450134 0.
0.583992 0.0450127 0.
0.585993 0.0450125 0.
0.587994 0.0450124 0.
0.589995 0.0450117 0.
0.591996 0.0450105 0.
0.593997 0.0450093 0.
0.595998 0.0450083 0.
0.598 0.0450075 0.
0.600001 0.0450066 0.
0.602003 0.0450075 0.
0.604004 0.0450085 0.
0.606006 0.0450093 0.
0.608006 0.0450096 0.
0.610007 0.04501 0.
0.612007 0.0450101 0.
0.614008 0.04501 0.
0.616009 0.0450098 0.
0.61801 0.0450111 0.
0.620011 0.0450132 0.
0.622012 0.0450152 0.
0.624014 0.0450152 0.
0.626016 0.0450149 0.
0.628017 0.0450148 0.
0.630019 0.045016 0.
0.63202 0.0450172 0.
0.634021 0.045018 0.
0.636022 0.0450182 0.
0.638022 0.0450184 0.
0.640023 0.0450186 0.
0.642024 0.0450188 0.
0.644024 0.045019 0.
0.646025 0.0450178 0.
0.648026 0.0450163 0.
0.650027 0.0450148 0.
0.652027 0.0450148 0.
0.654028 0.0450148 0.
0.656028 0.0450149 0.
0.658029 0.0450154 0.
0.66003 0.0450159 0.
0.662031 0.0450162 0.
0.664032 0.0450163 0.
0.666032 0.0450164 0.
0.668033 0.0450169 0.
0.670033 0.0450176 0.
0.672034 0.0450183 0.
0.674034 0.0450173 0.
0.676035 0.0450161 0.
0.678036 0.0450152 0.
0.680037 0.0450162 0.
0.682038 0.0450172 0.
0.684039 0.045018 0.
0.686039 0.0450185 0.
0.688039 0.045019 0.
0.69004 0.0450203 0.
0.69204 0.0450223 0.
0.694041 0.0450242 0.
0.696042 0.0450264 0.
0.698042 0.0450285 0.
0.499963 0.0470255 0.
0.501964 0.0470241 0.
0.503964 0.0470227 0.
0.505964 0.0470214 0.
0.507965 0.0470197 0.
0.509965 0.0470181 0.
0.511966 0.0470166 0.
0.513966 0.0470154 0.
0.515967 0.0470141 0.
0.517967 0.0470136 0.
0.519968 0.0470135 0.
0.521968 0.0470134 0.
0.523969 0.0470131 0.
0.525969 0.0470128 0.
0.527969 0.0470125 0.
0.52997 0.0470124 0.
0.53197 0.0470123 0.
0.533971 0.047012 0.
0.535971 0.0470116 0.
0.537972 0.0470112 0.
0.539973 0.0470111 0.
0.541973 0.0470112 0.
0.543974 0.0470113 0.
0.545975 0.047012 0.
0.547975 0.0470129 0.
0.549975 0.0470138 0.
0.551976 0.0470142 0.
0.553977 0.0470146 0.
0.555978 0.0470149 0.
0.557979 0.0470148 0.
0.559979 0.0470147 0.
0.56198 0.0470145 0.
0.563981 0.0470144 0.
0.565982 0.0470142 0.
0.567984 0.0470142 0.
0.569985 0.0470143 0.
0.571987 0.0470144 0.
0.573988 0.0470144 0.
0.575989 0.0470144 0.
0.57799 0.0470144 0.
0.579991 0.0470138 0.
0.581992 0.0470132 0.
0.583993 0.0470126 0.
0.585993 0.0470122 0.
0.587994 0.0470118 0.
0.589995 0.047011 0.
0.591996 0.04701 0.
0.593997 0.047009 0.
0.595998 0.0470084 0.
0.598 0.0470078 0.
0.600001 0.0470073 0.
0.602002 0.0470078 0.
0.604004 0.0470082 0.
0.606005 0.0470087 0.
0.608006 0.0470091 0.
0.610007 0.0470096 0.
0.612007 0.0470098 0.
0.614008 0.0470099 0.
0.616009 0.04701 0.
0.61801 0.0470113 0.
0.62001 0.047013 0.
0.622011 0.0470147 0.
0.624013 0.0470148 0.
0.626014 0.0470147 0.
0.628016 0.0470147 0.
0.630017 0.0470155 0.
0.632018 0.0470163 0.
0.63402 0.0470168 0.
0.63602 0.047017 0.
0.638021 0.0470172 0.
0.640021 0.0470175 0.
0.642022 0.0470178 0.
0.644023 0.0470182 0.
0.646024 0.0470171 0.
0.648024 0.0470156 0.
0.650025 0.0470142 0.
0.652026 0.0470142 0.
0.654026 0.0470142 0.
0.656026 0.0470143 0.
0.658027 0.0470147 0.
0.660028 0.0470151 0.
0.662029 0.0470153 0.
0.66403 0.0470155 0.
0.66603 0.0470156 0.
0.66803 0.0470162 0.
0.670031 0.047017 0.
0.672032 0.0470178 0.
0.674032 0.0470172 0.
0.676033 0.0470166 0.
0.678033 0.0470161 0.
0.680034 0.047017 0.
0.682035 0.0470178 0.
0.684036 0.0470186 0.
0.686036 0.0470191 0.
0.688037 0.0470195 0.
0.690037 0.0470207 0.
0.692038 0.0470222 0.
0.694038 0.0470238 0.
0.696039 0.047026 0.
0.698039 0.0470285 0.
0.499965 0.0490249 0.
0.501966 0.0490236 0.
0.503966 0.0490224 0.
0.505966 0.0490211 0.
0.507967 0.0490196 0.
0.509968 0.049018 0.
0.511968 0.0490166 0.
0.513968 0.0490155 0.
0.515969 0.0490143 0.
0.517969 0.0490135 0.
0.51997 0.049013 0.
0.521971 0.0490124 0.
0.523971 0.0490123 0.
0.525971 0.0490123 0.
0.527971 0.0490123 0.
0.529971 0.0490121 0.
0.531972 0.049012 0.
0.533973 0.0490117 0.
0.535973 0.0490113 0.
0.537974 0.0490108 0.
0.539975 0.0490107 0.
0.541975 0.0490108 0.
0.543976 0.0490109 0.
0.545977 0.0490117 0.
0.547977 0.0490128 0.
0.549978 0.0490138 0.
0.551979 0.0490139 0.
0.55398 0.0490139 0.
0.55598 0.0490139 0.
0.557981 0.0490136 0.
0.559981 0.0490133 0.
0.561982 0.0490131 0.
0.563983 0.0490132 0.
0.565984 0.0490132 0.
0.567986 0.0490133 0.
0.569987 0.0490135 0.
0.571988 0.0490138 0.
0.573989 0.0490136 0.
0.57599 0.0490134 0.
0.577991 0.0490132 0.
0.579992 0.0490131 0.
0.581992 0.0490129 0.
0.583993 0.0490125 0.
0.585994 0.0490118 0.
0.587994 0.0490111 0.
0.589995 0.0490104 0.
0.591996 0.0490096 0.
0.593997 0.0490088 0.
0.595998 0.0490084 0.
0.598 0.0490082 0.
0.600001 0.0490079 0.
0.602002 0.049008 0.
0.604003 0.049008 0.
0.606004 0.0490082 0.
0.608005 0.0490086 0.
0.610006 0.0490091 0.
0.612007 0.0490095 0.
0.614008 0.0490099 0.
0.616008 0.0490103 0.
0.618009 0.0490114 0.
0.62001 0.0490128 0.
0.62201 0.0490143 0.
0.624012 0.0490145 0.
0.626013 0.0490146 0.
0.628014 0.0490147 0.
0.630015 0.049015 0.
0.632017 0.0490153 0.
0.634018 0.0490156 0.
0.636018 0.0490158 0.
0.638019 0.049016 0.
0.64002 0.0490164 0.
0.64202 0.0490168 0.
0.644021 0.0490173 0.
0.646022 0.0490163 0.
0.648023 0.049015 0.
0.650024 0.0490137 0.
0.652024 0.0490137 0.
0.654024 0.0490137 0.
0.656024 0.0490137 0.
0.658025 0.049014 0.
0.660026 0.0490142 0.
0.662027 0.0490145 0.
0.664027 0.0490147 0.
0.666028 0.0490149 0.
0.668028 0.0490155 0.
0.670029 0.0490164 0.
0.672029 0.0490172 0.
0.67403 0.0490172 0.
0.67603 0.0490171 0.
0.678031 0.049017 0.
0.680031 0.0490177 0.
0.682032 0.0490185 0.
0.684033 0.0490191 0.
0.686034 0.0490196 0.
0.688034 0.0490201 0.
0.690035 0.049021 0.
0.692035 0.0490221 0.
0.694036 0.0490233 0.
0.696036 0.0490257 0.
0.698036 0.0490284 0.
0.499968 0.0510245 0.
0.501968 0.0510233 0.
0.503968 0.0510222 0.
0.505968 0.0510211 0.
0.507969 0.0510195 0.
0.50997 0.051018 0.
0.51197 0.0510165 0.
0.513971 0.0510153 0.
0.515971 0.0510141 0.
0.517971 0.0510132 0.
0.519972 0.0510125 0.
0.521973 0.0510118 0.
0.523973 0.0510119 0.
0.525973 0.0510121 0.
0.527973 0.0510123 0.
0.529973 0.051012 0.
0.531974 0.0510118 0.
0.533975 0.0510114 0.
0.535975 0.051011 0.
0.537976 0.0510105 0.
0.539977 0.0510103 0.
0.541977 0.0510104 0.
0.543978 0.0510106 0.
0.545979 0.0510113 0.
0.547979 0.0510121 0.
0.54998 0.0510129 0.
0.551981 0.051013 0.
0.553981 0.0510131 0.
0.555982 0.0510131 0.
0.557983 0.0510128 0.
0.559983 0.0510125 0.
0.561984 0.0510123 0.
0.563985 0.0510124 0.
0.565986 0.0510124 0.
0.567987 0.0510126 0.
0.569988 0.0510128 0.
0.57199 0.051013 0.
0.57399 0.0510129 0.
0.575991 0.0510128 0.
0.577992 0.0510127 0.
0.579992 0.0510127 0.
0.581993 0.0510127 0.
0.583993 0.0510125 0.
0.585994 0.0510116 0.
0.587994 0.0510107 0.
0.589995 0.0510099 0.
0.591996 0.0510093 0.
0.593997 0.0510086 0.
0.595998 0.0510084 0.
0.597999 0.0510082 0.
0.600001 0.051008 0.
0.602002 0.051008 0.
0.604003 0.051008 0.
0.606004 0.0510081 0.
0.608005 0.0510085 0.
0.610006 0.0510089 0.
0.612006 0.0510094 0.
0.614007 0.0510098 0.
0.616007 0.0510102 0.
0.618008 0.0510112 0.
0.620009 0.0510124 0.
0.622009 0.0510136 0.
0.62401 0.0510139 0.
0.626011 0.0510142 0.
0.628012 0.0510144 0.
0.630014 0.0510144 0.
0.632015 0.0510145 0.
0.634016 0.0510145 0.
0.636017 0.0510147 0.
0.638017 0.0510149 0.
0.640018 0.0510153 0.
0.642019 0.0510159 0.
0.644019 0.0510165 0.
0.64602 0.0510157 0.
0.648021 0.0510146 0.
0.650022 0.0510135 0.
0.652022 0.0510133 0.
0.654022 0.0510131 0.
0.656022 0.051013 0.
0.658023 0.0510133 0.
0.660024 0.0510136 0.
0.662024 0.0510139 0.
0.664025 0.0510142 0.
0.666025 0.0510144 0.
0.668026 0.051015 0.
0.670027 0.0510157 0.
0.672027 0.0510164 0.
0.674028 0.0510168 0.
0.676028 0.0510171 0.
0.678028 0.0510175 0.
0.680029 0.051018 0.
0.682029 0.0510186 0.
0.68403 0.0510191 0.
0.686031 0.0510196 0.
0.688032 0.0510201 0.
0.690032 0.0510209 0.
0.692032 0.0510221 0.
0.694033 0.0510233 0.
0.696033 0.0510258 0.
0.698033 0.0510287 0.
0.49997 0.0530241 0.
0.50197 0.053023 0.
0.503971 0.0530221 0.
0.505971 0.0530211 0.
0.507972 0.0530195 0.
0.509972 0.0530179 0.
0.511973 0.0530164 0.
0.513973 0.0530149 0.
0.515973 0.0530133 0.
0.517974 0.0530126 0.
0.519974 0.0530121 0.
0.521975 0.0530117 0.
0.523975 0.0530119 0.
0.525975 0.0530122 0.
0.527975 0.0530124 0.
0.529976 0.0530121 0.
0.531976 0.0530117 0.
0.533976 0.0530113 0.
0.535977 0.0530107 0.
0.537978 0.0530101 0.
0.539979 0.0530099 0.
0.541979 0.05301 0.
0.54398 0.0530102 0.
0.54598 0.0530105 0.
0.547981 0.0530109 0.
0.549981 0.0530113 0.
0.551982 0.0530117 0.
0.553983 0.0530121 0.
0.555983 0.0530124 0.
0.557984 0.0530123 0.
0.559984 0.0530123 0.
0.561985 0.0530121 0.
0.563985 0.053012 0.
0.565986 0.0530118 0.
0.567987 0.0530119 0.
0.569989 0.053012 0.
0.57199 0.0530121 0.
0.573991 0.0530123 0.
0.575991 0.0530124 0.
0.577992 0.0530126 0.
0.579992 0.0530126 0.
0.581993 0.0530127 0.
0.583994 0.0530124 0.
0.585994 0.0530115 0.
0.587994 0.0530105 0.
0.589995 0.0530098 0.
0.591996 0.0530092 0.
0.593997 0.0530086 0.
0.595998 0.0530082 0.
0.597999 0.0530079 0.
0.6 0.0530075 0.
0.602002 0.0530079 0.
0.604003 0.0530082 0.
0.606004 0.0530085 0.
0.608004 0.0530088 0.
0.610005 0.053009 0.
0.612005 0.0530092 0.
0.614005 0.0530096 0.
0.616006 0.0530099 0.
0.618007 0.0530106 0.
0.620007 0.0530117 0.
0.622008 0.0530127 0.
0.624009 0.0530132 0.
0.62601 0.0530135 0.
0.628011 0.0530138 0.
0.630012 0.0530137 0.
0.632013 0.0530136 0.
0.634014 0.0530136 0.
0.636015 0.0530137 0.
0.638015 0.0530139 0.
0.640016 0.0530143 0.
0.642017 0.053015 0.
0.644018 0.0530157 0.
0.646018 0.0530152 0.
0.648019 0.0530144 0.
0.65002 0.0530136 0.
0.65202 0.0530131 0.
0.65402 0.0530126 0.
0.65602 0.0530123 0.
0.65802 0.0530128 0.
0.660021 0.0530133 0.
0.662021 0.0530137 0.
0.664022 0.053014 0.
0.666023 0.0530143 0.
0.668023 0.0530146 0.
0.670024 0.053015 0.
0.672025 0.0530154 0.
0.674025 0.0530161 0.
0.676025 0.0530168 0.
0.678026 0.0530175 0.
0.680026 0.0530178 0.
0.682027 0.0530181 0.
0.684027 0.0530185 0.
0.686028 0.053019 0.
0.688028 0.0530195 0.
0.690029 0.0530206 0.
0.692029 0.0530221 0.
0.69403 0.0530237 0.
0.69603 0.0530264 0.
0.69803 0.0530294 0.
0.499973 0.0550237 0.
0.501973 0.0550228 0.
0.503973 0.0550221 0.
0.505973 0.0550212 0.
0.507974 0.0550196 0.
0.509974 0.0550179 0.
0.511975 0.0550162 0.
0.513975 0.0550144 0.
0.515976 0.0550126 0.
0.517976 0.0550119 0.
0.519976 0.0550118 0.
0.521976 0.0550116 0.
0.523977 0.0550119 0.
0.525977 0.0550123 0.
0.527978 0.0550126 0.
0.529978 0.0550121 0.
0.531978 0.0550117 0.
0.533978 0.0550111 0.
0.535979 0.0550105 0.
0.53798 0.0550098 0.
0.539981 0.0550095 0.
0.541981 0.0550096 0.
0.543982 0.0550098 0.
0.545982 0.0550098 0.
0.547983 0.0550098 0.
0.549983 0.0550097 0.
0.551984 0.0550104 0.
0.553984 0.0550112 0.
0.555985 0.0550118 0.
0.557985 0.0550119 0.
0.559985 0.055012 0.
0.561986 0.055012 0.
0.563986 0.0550116 0.
0.565987 0.0550113 0.
0.567988 0.0550112 0.
0.56999 0.0550112 0.
0.571991 0.0550113 0.
0.573992 0.0550117 0.
0.575992 0.0550121 0.
0.577992 0.0550125 0.
0.579993 0.0550126 0.
0.581993 0.0550126 0.
0.583994 0.0550123 0.
0.585994 0.0550113 0.
0.587995 0.0550103 0.
0.589995 0.0550096 0.
0.591996 0.0550091 0.
0.593997 0.0550085 0.
0.595998 0.055008 0.
0.597999 0.0550075 0.
0.6 0.055007 0.
0.602001 0.0550077 0.
0.604002 0.0550084 0.
0.606003 0.055009 0.
0.608003 0.055009 0.
0.610003 0.055009 0.
0.612004 0.0550091 0.
0.614004 0.0550093 0.
0.616005 0.0550095 0.
0.618005 0.0550101 0.
0.620006 0.055011 0.
0.622007 0.0550119 0.
0.624008 0.0550124 0.
0.626009 0.0550129 0.
0.62801 0.0550133 0.
0.630011 0.0550131 0.
0.632012 0.0550128 0.
0.634012 0.0550126 0.
0.636013 0.0550127 0.
0.638014 0.0550128 0.
0.640014 0.0550133 0.
0.642015 0.0550141 0.
0.644016 0.055015 0.
0.646016 0.0550148 0.
0.648017 0.0550143 0.
0.650017 0.0550138 0.
0.652017 0.0550129 0.
0.654018 0.0550121 0.
0.656018 0.0550116 0.
0.658018 0.0550123 0.
0.660018 0.0550131 0.
0.662018 0.0550136 0.
0.664019 0.0550139 0.
0.66602 0.0550142 0.
0.668021 0.0550143 0.
0.670022 0.0550143 0.
0.672022 0.0550144 0.
0.674022 0.0550154 0.
0.676023 0.0550166 0.
0.678023 0.0550175 0.
0.680023 0.0550176 0.
0.682024 0.0550176 0.
0.684025 0.0550179 0.
0.686025 0.0550184 0.
0.688025 0.0550189 0.
0.690026 0.0550203 0.
0.692026 0.0550222 0.
0.694026 0.0550241 0.
0.696027 0.0550269 0.
0.698027 0.0550301 0.
0.499974 0.0570248 0.
0.501975 0.0570235 0.
0.503975 0.0570223 0.
0.505975 0.0570211 0.
0.507975 0.0570194 0.
0.509976 0.0570176 0.
0.511977 0.057016 0.
0.513977 0.0570146 0.
0.515978 0.0570133 0.
0.517978 0.0570124 0.
0.519978 0.0570117 0.
0.521978 0.0570111 0.
0.523978 0.0570114 0.
0.525979 0.0570119 0.
0.527979 0.0570123 0.
0.529979 0.057012 0.
0.531979 0.0570118 0.
0.53398 0.0570113 0.
0.53598 0.0570106 0.
0.537981 0.0570098 0.
0.539982 0.0570094 0.
0.541982 0.0570094 0.
0.543982 0.0570094 0.
0.545983 0.0570093 0.
0.547983 0.0570093 0.
0.549984 0.0570092 0.
0.551984 0.05701 0.
0.553985 0.0570108 0.
0.555985 0.0570114 0.
0.557986 0.0570115 0.
0.559986 0.0570117 0.
0.561986 0.0570116 0.
0.563987 0.0570114 0.
0.565988 0.0570112 0.
0.567989 0.0570113 0.
0.56999 0.0570117 0.
0.571992 0.057012 0.
0.573992 0.0570121 0.
0.575992 0.0570122 0.
0.577992 0.0570122 0.
0.579993 0.0570122 0.
0.581993 0.0570122 0.
0.583994 0.0570119 0.
0.585995 0.0570112 0.
0.587995 0.0570105 0.
0.589996 0.0570098 0.
0.591996 0.0570092 0.
0.593996 0.0570085 0.
0.595997 0.0570081 0.
0.597999 0.0570076 0.
0.6 0.0570072 0.
0.602001 0.0570079 0.
0.604002 0.0570086 0.
0.606003 0.0570091 0.
0.608003 0.0570091 0.
0.610003 0.0570091 0.
0.612004 0.0570091 0.
0.614004 0.0570092 0.
0.616005 0.0570093 0.
0.618005 0.0570098 0.
0.620006 0.0570105 0.
0.622007 0.0570112 0.
0.624007 0.0570115 0.
0.626008 0.0570118 0.
0.628009 0.0570121 0.
0.63001 0.0570121 0.
0.632011 0.0570122 0.
0.634011 0.0570123 0.
0.636012 0.0570125 0.
0.638013 0.0570127 0.
0.640013 0.0570132 0.
0.642014 0.057014 0.
0.644014 0.0570148 0.
0.646015 0.0570144 0.
0.648015 0.0570137 0.
0.650016 0.0570129 0.
0.652016 0.0570124 0.
0.654016 0.0570119 0.
0.656016 0.0570116 0.
0.658017 0.0570123 0.
0.660017 0.057013 0.
0.662018 0.0570134 0.
0.664018 0.0570137 0.
0.666019 0.0570139 0.
0.668019 0.0570141 0.
0.67002 0.0570143 0.
0.672021 0.0570144 0.
0.674021 0.0570153 0.
0.676021 0.0570163 0.
0.678021 0.0570172 0.
0.680021 0.0570175 0.
0.682022 0.0570178 0.
0.684023 0.0570181 0.
0.686023 0.0570186 0.
0.688024 0.0570191 0.
0.690024 0.0570204 0.
0.692024 0.0570224 0.
0.694025 0.0570243 0.
0.696025 0.0570269 0.
0.698026 0.0570296 0.
0.499975 0.0590257 0.
0.501976 0.0590241 0.
0.503976 0.0590226 0.
0.505977 0.059021 0.
0.507977 0.0590192 0.
0.509977 0.0590173 0.
0.511978 0.0590158 0.
0.513979 0.0590149 0.
0.51598 0.0590139 0.
0.51798 0.0590128 0.
0.51998 0.0590117 0.
0.52198 0.0590105 0.
0.52398 0.0590109 0.
0.52598 0.0590114 0.
0.52798 0.0590119 0.
0.52998 0.0590119 0.
0.531981 0.0590118 0.
0.533981 0.0590116 0.
0.535982 0.0590107 0.
0.537982 0.0590097 0.
0.539982 0.0590093 0.
0.541983 0.0590091 0.
0.543983 0.059009 0.
0.545984 0.0590089 0.
0.547984 0.0590088 0.
0.549985 0.0590088 0.
0.551985 0.0590095 0.
0.553986 0.0590103 0.
0.555986 0.059011 0.
0.557986 0.0590111 0.
0.559986 0.0590113 0.
0.561987 0.0590113 0.
0.563988 0.0590112 0.
0.565989 0.0590111 0.
0.56799 0.0590114 0.
0.569991 0.0590121 0.
0.571992 0.0590127 0.
0.573992 0.0590125 0.
0.575992 0.0590122 0.
0.577992 0.0590119 0.
0.579992 0.0590118 0.
0.581993 0.0590117 0.
0.583994 0.0590115 0.
0.585995 0.059011 0.
0.587996 0.0590106 0.
0.589996 0.05901 0.
0.591996 0.0590093 0.
0.593995 0.0590086 0.
0.595997 0.0590081 0.
0.597999 0.0590078 0.
0.6 0.0590074 0.
0.602001 0.0590081 0.
0.604001 0.0590088 0.
0.606002 0.0590093 0.
0.608003 0.0590092 0.
0.610003 0.0590091 0.
0.612004 0.059009 0.
0.614004 0.059009 0.
0.616004 0.0590091 0.
0.618005 0.0590094 0.
0.620006 0.05901 0.
0.622006 0.0590105 0.
0.624007 0.0590106 0.
0.626007 0.0590107 0.
0.628008 0.0590108 0.
0.630009 0.0590112 0.
0.63201 0.0590116 0.
0.634011 0.0590119 0.
0.636011 0.0590122 0.
0.638012 0.0590125 0.
0.640012 0.0590131 0.
0.642013 0.0590139 0.
0.644013 0.0590147 0.
0.646013 0.0590141 0.
0.648014 0.0590131 0.
0.650014 0.0590121 0.
0.652015 0.0590119 0.
0.654015 0.0590117 0.
0.656015 0.0590116 0.
0.658016 0.0590122 0.
0.660017 0.0590129 0.
0.662017 0.0590133 0.
0.664017 0.0590135 0.
0.666017 0.0590137 0.
0.668017 0.059014 0.
0.670018 0.0590142 0.
0.672019 0.0590145 0.
0.674019 0.0590153 0.
0.676019 0.0590161 0.
0.678018 0.0590169 0.
0.680019 0.0590174 0.
0.68202 0.0590179 0.
0.684021 0.0590184 0.
0.686021 0.0590188 0.
0.688022 0.0590193 0.
0.690023 0.0590206 0.
0.692023 0.0590226 0.
0.694023 0.0590245 0.
0.696024 0.0590268 0.
0.698025 0.0590291 0.
0.499977 0.0610259 0.
0.501978 0.0610241 0.
0.503978 0.0610223 0.
0.505979 0.0610206 0.
0.507979 0.0610188 0.
0.50998 0.0610171 0.
0.51198 0.0610157 0.
0.513981 0.0610148 0.
0.515982 0.061014 0.
0.517982 0.0610129 0.
0.519982 0.0610117 0.
0.521982 0.0610106 0.
0.523982 0.0610108 0.
0.525982 0.0610112 0.
0.527982 0.0610115 0.
0.529982 0.0610116 0.
0.531982 0.0610118 0.
0.533983 0.0610116 0.
0.535983 0.0610106 0.
0.537983 0.0610096 0.
0.539984 0.0610092 0.
0.541984 0.0610091 0.
0.543985 0.061009 0.
0.545985 0.0610088 0.
0.547985 0.0610086 0.
0.549986 0.0610084 0.
0.551986 0.0610093 0.
0.553987 0.0610101 0.
0.555987 0.0610108 0.
0.557987 0.0610109 0.
0.559987 0.0610109 0.
0.561988 0.0610109 0.
0.563989 0.0610107 0.
0.56599 0.0610106 0.
0.567991 0.0610111 0.
0.569991 0.061012 0.
0.571992 0.0610129 0.
0.573992 0.0610126 0.
0.575992 0.0610122 0.
0.577992 0.0610117 0.
0.579993 0.0610116 0.
0.581994 0.0610114 0.
0.583994 0.0610112 0.
0.585995 0.061011 0.
0.587996 0.0610108 0.
0.589996 0.0610103 0.
0.591996 0.0610095 0.
0.593995 0.0610087 0.
0.595997 0.0610082 0.
0.597999 0.0610078 0.
0.6 0.0610073 0.
0.602001 0.061008 0.
0.604001 0.0610088 0.
0.606002 0.0610093 0.
0.608003 0.0610091 0.
0.610003 0.0610089 0.
0.612004 0.0610089 0.
0.614004 0.061009 0.
0.616005 0.061009 0.
0.618005 0.0610094 0.
0.620006 0.0610098 0.
0.622006 0.0610103 0.
0.624006 0.0610102 0.
0.626007 0.06101 0.
0.628007 0.0610099 0.
0.630008 0.0610105 0.
0.632009 0.0610112 0.
0.634009 0.0610117 0.
0.63601 0.061012 0.
0.63801 0.0610123 0.
0.640011 0.0610129 0.
0.642011 0.0610135 0.
0.644011 0.0610141 0.
0.646012 0.0610135 0.
0.648012 0.0610125 0.
0.650013 0.0610116 0.
0.652013 0.0610115 0.
0.654013 0.0610115 0.
0.656014 0.0610116 0.
0.658014 0.061012 0.
0.660015 0.0610125 0.
0.662015 0.061013 0.
0.664015 0.0610133 0.
0.666015 0.0610137 0.
0.668016 0.0610141 0.
0.670016 0.0610143 0.
0.672017 0.0610146 0.
0.674017 0.0610152 0.
0.676017 0.0610159 0.
0.678016 0.0610165 0.
0.680017 0.0610173 0.
0.682018 0.0610181 0.
0.684019 0.0610187 0.
0.68602 0.0610188 0.
0.68802 0.061019 0.
0.690021 0.0610202 0.
0.692021 0.0610224 0.
0.694021 0.0610246 0.
0.696022 0.0610267 0.
0.698023 0.0610288 0.
0.49998 0.0630256 0.
0.501981 0.0630235 0.
0.503981 0.0630216 0.
0.505981 0.0630198 0.
0.507982 0.0630183 0.
0.509982 0.0630169 0.
0.511983 0.0630156 0.
0.513983 0.0630145 0.
0.515984 0.0630135 0.
0.517984 0.0630127 0.
0.519984 0.0630119 0.
0.521984 0.0630112 0.
0.523984 0.0630111 0.
0.525984 0.063011 0.
0.527984 0.063011 0.
0.529984 0.0630113 0.
0.531985 0.0630117 0.
0.533985 0.0630116 0.
0.535985 0.0630105 0.
0.537986 0.0630094 0.
0.539986 0.063009 0.
0.541986 0.0630092 0.
0.543987 0.0630093 0.
0.545987 0.063009 0.
0.547987 0.0630086 0.
0.549987 0.0630082 0.
0.551987 0.0630092 0.
0.553988 0.0630102 0.
0.555988 0.0630109 0.
0.557989 0.0630107 0.
0.559989 0.0630105 0.
0.56199 0.0630102 0.
0.563991 0.06301 0.
0.565991 0.0630097 0.
0.567992 0.0630104 0.
0.569992 0.0630115 0.
0.571992 0.0630126 0.
0.573993 0.0630124 0.
0.575993 0.063012 0.
0.577993 0.0630115 0.
0.579994 0.0630114 0.
0.581995 0.0630113 0.
0.583995 0.0630112 0.
0.585995 0.0630111 0.
0.587996 0.063011 0.
0.589996 0.0630105 0.
0.591996 0.0630097 0.
0.593996 0.0630089 0.
0.595997 0.0630083 0.
0.597999 0.0630076 0.
0.6 0.063007 0.
0.602001 0.0630077 0.
0.604002 0.0630085 0.
0.606002 0.0630091 0.
0.608003 0.0630088 0.
0.610003 0.0630086 0.
0.612004 0.0630086 0.
0.614004 0.0630089 0.
0.616005 0.0630092 0.
0.618005 0.0630096 0.
0.620006 0.0630101 0.
0.622006 0.0630106 0.
0.624006 0.0630102 0.
0.626006 0.0630097 0.
0.628006 0.0630094 0.
0.630006 0.0630102 0.
0.632007 0.0630111 0.
0.634007 0.0630117 0.
0.636008 0.063012 0.
0.638009 0.0630123 0.
0.640009 0.0630126 0.
0.642009 0.0630129 0.
0.64401 0.0630132 0.
0.64601 0.0630127 0.
0.648011 0.063012 0.
0.650011 0.0630113 0.
0.652011 0.0630114 0.
0.654011 0.0630114 0.
0.656012 0.0630115 0.
0.658012 0.0630117 0.
0.660012 0.0630119 0.
0.662013 0.0630124 0.
0.664013 0.0630132 0.
0.666014 0.063014 0.
0.668014 0.0630144 0.
0.670014 0.0630146 0.
0.672015 0.0630148 0.
0.674015 0.0630152 0.
0.676015 0.0630155 0.
0.678015 0.063016 0.
0.680015 0.0630172 0.
0.682016 0.0630184 0.
0.684017 0.0630191 0.
0.686018 0.0630187 0.
0.688018 0.0630182 0.
0.690019 0.0630194 0.
0.692019 0.0630219 0.
0.69402 0.0630244 0.
0.69602 0.0630266 0.
0.69802 0.0630287 0.
0.499983 0.0650249 0.
0.501983 0.0650229 0.
0.503984 0.0650208 0.
0.505984 0.065019 0.
0.507984 0.0650179 0.
0.509985 0.0650167 0.
0.511985 0.0650155 0.
0.513985 0.0650143 0.
0.515986 0.065013 0.
0.517986 0.0650124 0.
0.519986 0.0650121 0.
0.521987 0.0650118 0.
0.523987 0.0650114 0.
0.525987 0.0650109 0.
0.527987 0.0650105 0.
0.529987 0.065011 0.
0.531987 0.0650115 0.
0.533987 0.0650115 0.
0.535987 0.0650103 0.
0.537988 0.0650092 0.
0.539988 0.0650089 0.
0.541989 0.0650093 0.
0.543989 0.0650097 0.
0.545989 0.0650093 0.
0.547988 0.0650086 0.
0.549988 0.065008 0.
0.551989 0.0650091 0.
0.553989 0.0650102 0.
0.55599 0.065011 0.
0.55799 0.0650105 0.
0.559991 0.06501 0.
0.561992 0.0650096 0.
0.563992 0.0650092 0.
0.565993 0.0650089 0.
0.567993 0.0650097 0.
0.569993 0.065011 0.
0.571993 0.0650124 0.
0.573993 0.0650122 0.
0.575994 0.0650118 0.
0.577994 0.0650114 0.
0.579995 0.0650113 0.
0.581996 0.0650112 0.
0.583996 0.0650112 0.
0.585996 0.0650112 0.
0.587995 0.0650112 0.
0.589995 0.0650108 0.
0.591996 0.06501 0.
0.593997 0.0650092 0.
0.595998 0.0650084 0.
0.597999 0.0650075 0.
0.6 0.0650066 0.
0.602001 0.0650075 0.
0.604002 0.0650083 0.
0.606003 0.0650088 0.
0.608003 0.0650085 0.
0.610003 0.0650082 0.
0.612004 0.0650083 0.
0.614005 0.0650088 0.
0.616005 0.0650094 0.
0.618006 0.0650099 0.
0.620006 0.0650104 0.
0.622006 0.0650109 0.
0.624006 0.0650102 0.
0.626005 0.0650094 0.
0.628005 0.0650089 0.
0.630005 0.0650099 0.
0.632005 0.065011 0.
0.634005 0.0650118 0.
0.636006 0.065012 0.
0.638007 0.0650122 0.
0.640007 0.0650123 0.
0.642008 0.0650123 0.
0.644008 0.0650123 0.
0.646008 0.065012 0.
0.648009 0.0650116 0.
0.650009 0.0650111 0.
0.652009 0.0650112 0.
0.65401 0.0650113 0.
0.65601 0.0650114 0.
0.65801 0.0650113 0.
0.66001 0.0650113 0.
0.66201 0.0650118 0.
0.664011 0.065013 0.
0.666012 0.0650143 0.
0.668012 0.0650148 0.
0.670012 0.0650149 0.
0.672012 0.065015 0.
0.674013 0.0650151 0.
0.676013 0.0650152 0.
0.678013 0.0650155 0.
0.680013 0.0650171 0.
0.682014 0.0650187 0.
0.684014 0.0650195 0.
0.686015 0.0650185 0.
0.688017 0.0650175 0.
0.690017 0.0650187 0.
0.692017 0.0650215 0.
0.694018 0.0650243 0.
0.696018 0.0650265 0.
0.698017 0.0650285 0.
0.499985 0.0670246 0.
0.501985 0.0670226 0.
0.503985 0.0670208 0.
0.505985 0.0670191 0.
0.507986 0.067018 0.
0.509986 0.0670169 0.
0.511986 0.0670157 0.
0.513987 0.0670144 0.
0.515987 0.067013 0.
0.517988 0.0670124 0.
0.519988 0.067012 0.
0.521988 0.0670117 0.
0.523988 0.0670112 0.
0.525988 0.0670108 0.
0.527988 0.0670104 0.
0.529988 0.0670105 0.
0.531989 0.0670106 0.
0.533989 0.0670104 0.
0.535989 0.0670096 0.
0.537989 0.0670089 0.
0.539989 0.0670088 0.
0.54199 0.0670092 0.
0.54399 0.0670097 0.
0.54599 0.0670093 0.
0.54799 0.0670086 0.
0.54999 0.0670079 0.
0.551991 0.0670088 0.
0.553991 0.0670096 0.
0.555991 0.0670103 0.
0.557992 0.0670101 0.
0.559992 0.0670099 0.
0.561993 0.0670097 0.
0.563993 0.0670096 0.
0.565993 0.0670094 0.
0.567993 0.0670099 0.
0.569993 0.0670108 0.
0.571993 0.0670116 0.
0.573994 0.0670117 0.
0.575994 0.0670117 0.
0.577995 0.0670116 0.
0.579995 0.0670115 0.
0.581996 0.0670113 0.
0.583996 0.0670111 0.
0.585996 0.0670111 0.
0.587996 0.067011 0.
0.589996 0.0670107 0.
0.591997 0.0670101 0.
0.593997 0.0670094 0.
0.595998 0.0670088 0.
0.597999 0.0670082 0.
0.6 0.0670075 0.
0.602001 0.0670081 0.
0.604002 0.0670086 0.
0.606003 0.067009 0.
0.608003 0.0670088 0.
0.610003 0.0670086 0.
0.612003 0.0670087 0.
0.614003 0.067009 0.
0.616004 0.0670093 0.
0.618004 0.0670098 0.
0.620005 0.0670105 0.
0.622005 0.0670112 0.
0.624005 0.0670106 0.
0.626005 0.0670098 0.
0.628004 0.0670092 0.
0.630005 0.0670101 0.
0.632005 0.067011 0.
0.634005 0.0670117 0.
0.636006 0.0670117 0.
0.638006 0.0670118 0.
0.640006 0.0670118 0.
0.642006 0.0670119 0.
0.644007 0.0670119 0.
0.646007 0.0670116 0.
0.648008 0.0670112 0.
0.650008 0.0670108 0.
0.652008 0.0670111 0.
0.654009 0.0670115 0.
0.656009 0.0670118 0.
0.658009 0.0670117 0.
0.660009 0.0670116 0.
0.662009 0.0670119 0.
0.66401 0.0670127 0.
0.66601 0.0670135 0.
0.668011 0.0670139 0.
0.670011 0.0670143 0.
0.672011 0.0670146 0.
0.674011 0.067015 0.
0.676011 0.0670154 0.
0.678011 0.0670159 0.
0.680011 0.0670172 0.
0.682012 0.0670184 0.
0.684013 0.0670191 0.
0.686013 0.0670187 0.
0.688014 0.0670182 0.
0.690014 0.0670193 0.
0.692014 0.0670215 0.
0.694015 0.0670237 0.
0.696015 0.0670258 0.
0.698015 0.0670278 0.
0.499986 0.069024 0.
0.501987 0.0690224 0.
0.503987 0.0690207 0.
0.505987 0.0690193 0.
0.507987 0.0690182 0.
0.509988 0.0690172 0.
0.511988 0.0690159 0.
0.513988 0.0690145 0.
0.515989 0.0690131 0.
0.517989 0.0690123 0.
0.519989 0.069012 0.
0.52199 0.0690116 0.
0.52399 0.0690111 0.
0.525989 0.0690107 0.
0.527989 0.0690103 0.
0.52999 0.06901 0.
0.531991 0.0690097 0.
0.533991 0.0690094 0.
0.535991 0.0690089 0.
0.53799 0.0690085 0.
0.53999 0.0690087 0.
0.541991 0.0690091 0.
0.543991 0.0690096 0.
0.545992 0.0690092 0.
0.547992 0.0690085 0.
0.549993 0.0690079 0.
0.551992 0.0690084 0.
0.553992 0.069009 0.
0.555992 0.0690095 0.
0.557993 0.0690096 0.
0.559993 0.0690097 0.
0.561994 0.0690098 0.
0.563994 0.0690099 0.
0.565994 0.0690099 0.
0.567994 0.0690102 0.
0.569994 0.0690106 0.
0.571994 0.0690109 0.
0.573995 0.0690113 0.
0.575995 0.0690116 0.
0.577996 0.0690119 0.
0.579996 0.0690116 0.
0.581996 0.0690113 0.
0.583997 0.0690111 0.
0.585997 0.069011 0.
0.587997 0.0690108 0.
0.589997 0.0690105 0.
0.591997 0.0690101 0.
0.593997 0.0690097 0.
0.595998 0.0690093 0.
0.597999 0.0690088 0.
0.6 0.0690084 0.
0.602001 0.0690086 0.
0.604002 0.0690089 0.
0.606003 0.0690091 0.
0.608002 0.0690091 0.
0.610002 0.069009 0.
0.612002 0.069009 0.
0.614002 0.0690091 0.
0.616002 0.0690092 0.
0.618002 0.0690098 0.
0.620003 0.0690107 0.
0.622004 0.0690115 0.
0.624004 0.0690109 0.
0.626004 0.0690101 0.
0.628004 0.0690095 0.
0.630004 0.0690103 0.
0.632005 0.0690111 0.
0.634005 0.0690116 0.
0.636005 0.0690114 0.
0.638005 0.0690113 0.
0.640005 0.0690113 0.
0.642005 0.0690114 0.
0.644006 0.0690115 0.
0.646006 0.0690112 0.
0.648006 0.0690108 0.
0.650007 0.0690104 0.
0.652007 0.069011 0.
0.654008 0.0690117 0.
0.656008 0.0690121 0.
0.658008 0.069012 0.
0.660007 0.0690119 0.
0.662008 0.069012 0.
0.664008 0.0690123 0.
0.666009 0.0690126 0.
0.668009 0.0690131 0.
0.670009 0.0690137 0.
0.67201 0.0690142 0.
0.674009 0.0690149 0.
0.676009 0.0690155 0.
0.678009 0.0690162 0.
0.680009 0.0690172 0.
0.68201 0.0690181 0.
0.684011 0.0690187 0.
0.686011 0.0690188 0.
0.688011 0.0690189 0.
0.690012 0.0690199 0.
0.692012 0.0690215 0.
0.694012 0.0690232 0.
0.696012 0.0690251 0.
0.698013 0.0690271 0.
0.499988 0.0710237 0.
0.501988 0.0710223 0.
0.503988 0.0710208 0.
0.505989 0.0710193 0.
0.507989 0.0710181 0.
0.509989 0.0710169 0.
0.51199 0.0710157 0.
0.51399 0.0710144 0.
0.51599 0.071013 0.
0.517991 0.0710122 0.
0.519991 0.0710118 0.
0.521991 0.0710113 0.
0.523991 0.0710109 0.
0.525991 0.0710106 0.
0.527991 0.0710102 0.
0.529992 0.0710097 0.
0.531992 0.0710091 0.
0.533993 0.0710087 0.
0.535992 0.0710085 0.
0.537992 0.0710084 0.
0.539992 0.0710085 0.
0.541992 0.0710089 0.
0.543992 0.0710093 0.
0.545993 0.0710089 0.
0.547993 0.0710081 0.
0.549994 0.0710074 0.
0.551994 0.071008 0.
0.553994 0.0710087 0.
0.555994 0.0710093 0.
0.557994 0.0710094 0.
0.559994 0.0710095 0.
0.561994 0.0710097 0.
0.563994 0.0710099 0.
0.565994 0.0710102 0.
0.567995 0.0710103 0.
0.569995 0.0710103 0.
0.571995 0.0710104 0.
0.573995 0.0710109 0.
0.575996 0.0710114 0.
0.577996 0.0710119 0.
0.579997 0.0710117 0.
0.581997 0.0710114 0.
0.583997 0.0710111 0.
0.585997 0.071011 0.
0.587998 0.0710108 0.
0.589998 0.0710105 0.
0.591997 0.0710102 0.
0.593997 0.0710099 0.
0.595998 0.0710096 0.
0.597999 0.0710094 0.
0.6 0.0710091 0.
0.602001 0.0710091 0.
0.604001 0.0710092 0.
0.606002 0.0710092 0.
0.608002 0.0710093 0.
0.610002 0.0710094 0.
0.612001 0.0710093 0.
0.614001 0.0710092 0.
0.616001 0.071009 0.
0.618001 0.0710096 0.
0.620002 0.0710106 0.
0.622003 0.0710116 0.
0.624003 0.071011 0.
0.626003 0.0710102 0.
0.628003 0.0710095 0.
0.630004 0.0710101 0.
0.632005 0.0710108 0.
0.634005 0.0710111 0.
0.636005 0.0710109 0.
0.638004 0.0710106 0.
0.640004 0.0710107 0.
0.642004 0.0710108 0.
0.644004 0.071011 0.
0.646005 0.0710108 0.
0.648005 0.0710105 0.
0.650006 0.0710102 0.
0.652006 0.0710108 0.
0.654006 0.0710115 0.
0.656007 0.071012 0.
0.658006 0.0710119 0.
0.660006 0.0710118 0.
0.662006 0.0710119 0.
0.664006 0.071012 0.
0.666007 0.0710122 0.
0.668007 0.0710126 0.
0.670007 0.0710132 0.
0.672008 0.0710138 0.
0.674008 0.0710145 0.
0.676007 0.0710153 0.
0.678007 0.0710162 0.
0.680008 0.071017 0.
0.682009 0.0710179 0.
0.684009 0.0710185 0.
0.686009 0.0710188 0.
0.688009 0.0710191 0.
0.690009 0.07102 0.
0.692009 0.0710214 0.
0.694009 0.0710227 0.
0.69601 0.0710246 0.
0.698011 0.0710267 0.
0.49999 0.0730239 0.
0.50199 0.0730224 0.
0.50399 0.0730208 0.
0.505991 0.0730192 0.
0.507991 0.0730178 0.
0.509991 0.0730163 0.
0.511991 0.073015 0.
0.513992 0.0730139 0.
0.515992 0.0730129 0.
0.517992 0.0730121 0.
0.519992 0.0730114 0.
0.521993 0.0730107 0.
0.523993 0.0730105 0.
0.525992 0.0730104 0.
0.527992 0.0730102 0.
0.529993 0.0730096 0.
0.531993 0.0730089 0.
0.533993 0.0730084 0.
0.535993 0.0730084 0.
0.537993 0.0730083 0.
0.539993 0.0730085 0.
0.541993 0.0730086 0.
0.543994 0.0730088 0.
0.545994 0.0730082 0.
0.547994 0.0730074 0.
0.549995 0.0730065 0.
0.551995 0.0730076 0.
0.553995 0.0730087 0.
0.555995 0.0730095 0.
0.557995 0.0730094 0.
0.559995 0.0730092 0.
0.561995 0.0730093 0.
0.563995 0.0730097 0.
0.565995 0.0730102 0.
0.567995 0.0730102 0.
0.569995 0.0730101 0.
0.571995 0.0730099 0.
0.573996 0.0730105 0.
0.575996 0.0730112 0.
0.577997 0.0730118 0.
0.579997 0.0730116 0.
0.581997 0.0730114 0.
0.583998 0.0730112 0.
0.585998 0.0730111 0.
0.587998 0.0730109 0.
0.589998 0.0730106 0.
0.591998 0.0730103 0.
0.593998 0.0730099 0.
0.595998 0.0730098 0.
0.598 0.0730097 0.
0.600001 0.0730097 0.
0.602001 0.0730095 0.
0.604001 0.0730094 0.
0.606001 0.0730093 0.
0.608001 0.0730095 0.
0.610001 0.0730097 0.
0.612001 0.0730096 0.
0.614001 0.0730092 0.
0.616 0.0730088 0.
0.618001 0.0730093 0.
0.620001 0.0730104 0.
0.622001 0.0730115 0.
0.624002 0.0730108 0.
0.626002 0.0730099 0.
0.628003 0.0730091 0.
0.630003 0.0730097 0.
0.632004 0.0730102 0.
0.634004 0.0730104 0.
0.636004 0.0730101 0.
0.638004 0.0730098 0.
0.640004 0.0730099 0.
0.642004 0.0730102 0.
0.644004 0.0730106 0.
0.646004 0.0730104 0.
0.648004 0.0730102 0.
0.650005 0.07301 0.
0.652005 0.0730105 0.
0.654005 0.0730111 0.
0.656005 0.0730115 0.
0.658005 0.0730114 0.
0.660005 0.0730113 0.
0.662005 0.0730115 0.
0.664004 0.0730118 0.
0.666004 0.0730122 0.
0.668004 0.0730126 0.
0.670005 0.0730129 0.
0.672005 0.0730132 0.
0.674006 0.073014 0.
0.676006 0.0730148 0.
0.678006 0.0730157 0.
0.680007 0.0730167 0.
0.682007 0.0730177 0.
0.684007 0.0730184 0.
0.686008 0.0730186 0.
0.688008 0.0730188 0.
0.690008 0.0730197 0.
0.692008 0.0730211 0.
0.694008 0.0730224 0.
0.696009 0.0730244 0.
0.698009 0.0730265 0.
0.499991 0.0750238 0.
0.501992 0.0750226 0.
0.503992 0.0750209 0.
0.505993 0.0750191 0.
0.507993 0.0750174 0.
0.509993 0.0750157 0.
0.511993 0.0750144 0.
0.513993 0.0750135 0.
0.515994 0.0750127 0.
0.517994 0.0750119 0.
0.519994 0.075011 0.
0.521994 0.0750101 0.
0.523994 0.0750101 0.
0.525994 0.0750102 0.
0.527994 0.0750103 0.
0.529994 0.0750095 0.
0.531994 0.0750087 0.
0.533994 0.0750082 0.
0.535994 0.0750083 0.
0.537994 0.0750084 0.
0.539994 0.0750084 0.
0.541995 0.0750083 0.
0.543995 0.0750083 0.
0.545995 0.0750076 0.
0.547995 0.0750066 0.
0.549995 0.0750056 0.
0.551996 0.0750071 0.
0.553996 0.0750086 0.
0.555996 0.0750098 0.
0.557996 0.0750093 0.
0.559995 0.0750089 0.
0.561995 0.0750089 0.
0.563996 0.0750095 0.
0.565996 0.0750102 0.
0.567996 0.0750102 0.
0.569996 0.0750098 0.
0.571996 0.0750095 0.
0.573996 0.0750102 0.
0.575997 0.0750109 0.
0.577997 0.0750116 0.
0.579998 0.0750115 0.
0.581998 0.0750114 0.
0.583998 0.0750113 0.
0.585998 0.0750112 0.
0.587998 0.075011 0.
0.589998 0.0750108 0.
0.591998 0.0750104 0.
0.593998 0.07501 0.
0.595999 0.07501 0.
0.598 0.0750101 0.
0.600001 0.0750103 0.
0.602 0.0750099 0.
0.604 0.0750095 0.
0.606 0.0750093 0.
0.608 0.0750097 0.
0.61 0.07501 0.
0.612 0.0750099 0.
0.614 0.0750092 0.
0.616 0.0750085 0.
0.618 0.0750091 0.
0.62 0.0750102 0.
0.622 0.0750114 0.
0.624001 0.0750106 0.
0.626002 0.0750096 0.
0.628003 0.0750088 0.
0.630003 0.0750092 0.
0.632003 0.0750096 0.
0.634003 0.0750097 0.
0.636004 0.0750094 0.
0.638004 0.075009 0.
0.640004 0.0750092 0.
0.642003 0.0750096 0.
0.644003 0.0750101 0.
0.646003 0.0750101 0.
0.648003 0.07501 0.
0.650003 0.0750099 0.
0.652004 0.0750102 0.
0.654004 0.0750106 0.
0.656004 0.0750109 0.
0.658004 0.0750109 0.
0.660004 0.0750108 0.
0.662003 0.0750111 0.
0.664003 0.0750117 0.
0.666002 0.0750122 0.
0.668002 0.0750125 0.
0.670002 0.0750125 0.
0.672003 0.0750126 0.
0.674003 0.0750134 0.
0.676004 0.0750144 0.
0.678005 0.0750153 0.
0.680005 0.0750164 0.
0.682006 0.0750175 0.
0.684006 0.0750183 0.
0.686006 0.0750184 0.
0.688006 0.0750186 0.
0.690006 0.0750194 0.
0.692007 0.0750208 0.
0.694007 0.0750221 0.
0.696007 0.0750241 0.
0.698007 0.0750263 0.
0.499994 0.0770234 0.
0.501994 0.077022 0.
0.503993 0.0770205 0.
0.505993 0.077019 0.
0.507994 0.0770177 0.
0.509994 0.0770164 0.
0.511994 0.0770152 0.
0.513994 0.0770138 0.
0.515995 0.0770126 0.
0.517995 0.0770116 0.
0.519995 0.0770108 0.
0.521996 0.0770101 0.
0.523996 0.0770099 0.
0.525996 0.0770098 0.
0.527996 0.0770097 0.
0.529996 0.0770093 0.
0.531996 0.077009 0.
0.533996 0.0770087 0.
0.535996 0.0770085 0.
0.537996 0.0770084 0.
0.539996 0.0770082 0.
0.541996 0.0770082 0.
0.543996 0.0770081 0.
0.545996 0.0770078 0.
0.547996 0.0770073 0.
0.549996 0.0770068 0.
0.551996 0.0770078 0.
0.553996 0.0770088 0.
0.555996 0.0770096 0.
0.557996 0.0770093 0.
0.559996 0.077009 0.
0.561996 0.0770091 0.
0.563996 0.0770096 0.
0.565997 0.0770101 0.
0.567997 0.0770101 0.
0.569997 0.0770099 0.
0.571996 0.0770098 0.
0.573996 0.0770104 0.
0.575996 0.0770112 0.
0.577997 0.0770119 0.
0.579997 0.0770117 0.
0.581997 0.0770115 0.
0.583998 0.0770114 0.
0.585998 0.0770112 0.
0.587998 0.0770111 0.
0.589998 0.0770109 0.
0.591998 0.0770107 0.
0.593997 0.0770104 0.
0.595998 0.0770105 0.
0.597999 0.0770108 0.
0.600001 0.0770111 0.
0.602001 0.0770106 0.
0.604 0.07701 0.
0.606 0.0770096 0.
0.608001 0.0770096 0.
0.610001 0.0770097 0.
0.612001 0.0770095 0.
0.614 0.0770091 0.
0.616 0.0770087 0.
0.618 0.0770092 0.
0.62 0.07701 0.
0.622 0.0770108 0.
0.624001 0.0770102 0.
0.626001 0.0770093 0.
0.628002 0.0770086 0.
0.630002 0.0770091 0.
0.632002 0.0770095 0.
0.634002 0.0770097 0.
0.636002 0.0770095 0.
0.638003 0.0770093 0.
0.640003 0.0770095 0.
0.642002 0.0770101 0.
0.644002 0.0770106 0.
0.646002 0.0770106 0.
0.648003 0.0770104 0.
0.650003 0.0770102 0.
0.652003 0.0770103 0.
0.654003 0.0770104 0.
0.656003 0.0770105 0.
0.658002 0.0770107 0.
0.660002 0.0770109 0.
0.662001 0.0770113 0.
0.664001 0.077012 0.
0.666001 0.0770126 0.
0.668001 0.0770129 0.
0.670001 0.077013 0.
0.672002 0.0770131 0.
0.674002 0.0770136 0.
0.676003 0.0770142 0.
0.678003 0.0770149 0.
0.680003 0.0770161 0.
0.682004 0.0770173 0.
0.684004 0.0770181 0.
0.686005 0.0770183 0.
0.688005 0.0770184 0.
0.690005 0.0770192 0.
0.692005 0.0770207 0.
0.694006 0.0770221 0.
0.696006 0.0770239 0.
0.698006 0.0770257 0.
0.499996 0.0790229 0.
0.501995 0.0790215 0.
0.503994 0.0790201 0.
0.505994 0.0790188 0.
0.507995 0.079018 0.
0.509995 0.0790172 0.
0.511996 0.0790159 0.
0.513996 0.0790142 0.
0.515996 0.0790124 0.
0.517996 0.0790113 0.
0.519997 0.0790106 0.
0.521997 0.07901 0.
0.523997 0.0790097 0.
0.525997 0.0790094 0.
0.527998 0.0790092 0.
0.529998 0.0790092 0.
0.531998 0.0790093 0.
0.533998 0.0790092 0.
0.535997 0.0790087 0.
0.537997 0.0790083 0.
0.539997 0.0790081 0.
0.541997 0.079008 0.
0.543998 0.079008 0.
0.545997 0.079008 0.
0.547997 0.0790079 0.
0.549997 0.0790079 0.
0.551997 0.0790085 0.
0.553997 0.079009 0.
0.555996 0.0790094 0.
0.557997 0.0790093 0.
0.559997 0.0790092 0.
0.561997 0.0790093 0.
0.563997 0.0790096 0.
0.565997 0.07901 0.
0.567997 0.0790101 0.
0.569997 0.07901 0.
0.571997 0.07901 0.
0.573996 0.0790107 0.
0.575996 0.0790115 0.
0.577996 0.0790122 0.
0.579996 0.0790119 0.
0.581997 0.0790116 0.
0.583997 0.0790114 0.
0.585997 0.0790113 0.
0.587998 0.0790113 0.
0.589997 0.0790111 0.
0.591997 0.0790109 0.
0.593997 0.0790108 0.
0.595998 0.0790111 0.
0.597999 0.0790115 0.
0.6 0.0790119 0.
0.602001 0.0790112 0.
0.604001 0.0790105 0.
0.606001 0.0790099 0.
0.608001 0.0790096 0.
0.610001 0.0790094 0.
0.612001 0.0790092 0.
0.614001 0.0790091 0.
0.616001 0.079009 0.
0.618001 0.0790093 0.
0.62 0.0790098 0.
0.622 0.0790103 0.
0.624 0.0790097 0.
0.626001 0.0790091 0.
0.628001 0.0790085 0.
0.630001 0.079009 0.
0.632001 0.0790094 0.
0.634001 0.0790097 0.
0.636001 0.0790096 0.
0.638001 0.0790096 0.
0.640001 0.0790099 0.
0.642001 0.0790106 0.
0.644002 0.0790112 0.
0.646002 0.0790111 0.
0.648002 0.0790109 0.
0.650002 0.0790106 0.
0.652002 0.0790104 0.
0.654002 0.0790102 0.
0.656001 0.0790101 0.
0.658001 0.0790105 0.
0.66 0.0790109 0.
0.662 0.0790115 0.
0.664 0.0790123 0.
0.666 0.079013 0.
0.668 0.0790133 0.
0.670001 0.0790134 0.
0.672001 0.0790135 0.
0.674001 0.0790138 0.
0.676001 0.0790141 0.
0.678001 0.0790145 0.
0.680001 0.0790158 0.
0.682002 0.0790171 0.
0.684003 0.079018 0.
0.686003 0.0790181 0.
0.688004 0.0790182 0.
0.690004 0.0790191 0.
0.692004 0.0790206 0.
0.694004 0.0790221 0.
0.696005 0.0790236 0.
0.698005 0.0790252 0.
0.499997 0.0810226 0.
0.501996 0.0810212 0.
0.503995 0.0810199 0.
0.505995 0.0810188 0.
0.507996 0.081018 0.
0.509996 0.0810173 0.
0.511997 0.081016 0.
0.513997 0.0810141 0.
0.515997 0.0810122 0.
0.517997 0.0810112 0.
0.519998 0.0810106 0.
0.521998 0.08101 0.
0.523998 0.0810096 0.
0.525999 0.0810092 0.
0.527999 0.0810089 0.
0.529999 0.0810091 0.
0.531999 0.0810093 0.
0.533999 0.0810093 0.
0.535998 0.0810087 0.
0.537998 0.0810082 0.
0.539998 0.0810079 0.
0.541998 0.0810078 0.
0.543999 0.0810077 0.
0.545999 0.0810079 0.
0.547998 0.0810082 0.
0.549998 0.0810085 0.
0.551997 0.0810088 0.
0.553997 0.081009 0.
0.555997 0.0810092 0.
0.557997 0.0810092 0.
0.559997 0.0810092 0.
0.561998 0.0810093 0.
0.563997 0.0810096 0.
0.565997 0.0810099 0.
0.567997 0.08101 0.
0.569997 0.0810101 0.
0.571997 0.0810101 0.
0.573996 0.0810109 0.
0.575996 0.0810117 0.
0.577996 0.0810124 0.
0.579997 0.0810121 0.
0.581997 0.0810118 0.
0.583997 0.0810116 0.
0.585997 0.0810115 0.
0.587997 0.0810114 0.
0.589997 0.0810113 0.
0.591997 0.0810111 0.
0.593997 0.0810109 0.
0.595997 0.0810113 0.
0.597999 0.0810118 0.
0.6 0.0810123 0.
0.602 0.0810115 0.
0.604001 0.0810106 0.
0.606002 0.0810099 0.
0.608002 0.0810096 0.
0.610002 0.0810093 0.
0.612001 0.0810091 0.
0.614001 0.081009 0.
0.616001 0.081009 0.
0.618001 0.0810093 0.
0.62 0.0810096 0.
0.622 0.0810099 0.
0.624 0.0810096 0.
0.626 0.0810092 0.
0.628 0.0810089 0.
0.63 0.0810092 0.
0.632 0.0810096 0.
0.634 0.0810098 0.
0.636 0.0810097 0.
0.638 0.0810097 0.
0.640001 0.0810099 0.
0.642001 0.0810104 0.
0.644001 0.0810109 0.
0.646001 0.0810109 0.
0.648001 0.0810108 0.
0.650001 0.0810107 0.
0.652001 0.0810104 0.
0.654 0.0810101 0.
0.656 0.08101 0.
0.657999 0.0810106 0.
0.659999 0.0810111 0.
0.661998 0.0810117 0.
0.663999 0.0810122 0.
0.665999 0.0810127 0.
0.667999 0.0810131 0.
0.669999 0.0810135 0.
0.672 0.0810139 0.
0.673999 0.081014 0.
0.675999 0.081014 0.
0.677999 0.0810142 0.
0.68 0.0810154 0.
0.682001 0.0810166 0.
0.684001 0.0810175 0.
0.686002 0.0810177 0.
0.688002 0.0810179 0.
0.690003 0.0810189 0.
0.692003 0.0810204 0.
0.694003 0.081022 0.
0.696003 0.0810233 0.
0.698004 0.0810246 0.
0.499997 0.0830224 0.
0.501997 0.0830212 0.
0.503997 0.0830199 0.
0.505996 0.0830187 0.
0.507997 0.0830178 0.
0.509997 0.0830168 0.
0.511998 0.0830155 0.
0.513998 0.0830138 0.
0.515998 0.083012 0.
0.517998 0.0830111 0.
0.519999 0.0830106 0.
0.521999 0.08301 0.
0.523999 0.0830096 0.
0.525999 0.0830092 0.
0.527999 0.0830089 0.
0.529999 0.083009 0.
0.531999 0.0830092 0.
0.533999 0.083009 0.
0.535999 0.0830084 0.
0.537998 0.0830078 0.
0.539999 0.0830075 0.
0.541999 0.0830074 0.
0.543999 0.0830074 0.
0.545999 0.0830077 0.
0.547999 0.0830081 0.
0.549999 0.0830085 0.
0.551999 0.0830086 0.
0.553998 0.0830088 0.
0.555998 0.0830089 0.
0.557998 0.083009 0.
0.559998 0.083009 0.
0.561997 0.0830092 0.
0.563997 0.0830094 0.
0.565996 0.0830097 0.
0.567996 0.0830099 0.
0.569996 0.08301 0.
0.571996 0.0830102 0.
0.573997 0.083011 0.
0.575997 0.0830119 0.
0.577997 0.0830126 0.
0.579997 0.0830124 0.
0.581997 0.0830121 0.
0.583997 0.0830119 0.
0.585998 0.0830117 0.
0.587998 0.0830116 0.
0.589998 0.0830113 0.
0.591997 0.0830111 0.
0.593997 0.0830109 0.
0.595997 0.0830112 0.
0.597998 0.0830117 0.
0.599999 0.0830122 0.
0.602 0.0830113 0.
0.604 0.0830104 0.
0.606001 0.0830096 0.
0.608001 0.0830095 0.
0.610001 0.0830094 0.
0.612001 0.0830092 0.
0.614001 0.0830091 0.
0.616 0.083009 0.
0.618 0.0830091 0.
0.62 0.0830094 0.
0.622 0.0830097 0.
0.624 0.0830098 0.
0.626 0.0830098 0.
0.628 0.0830098 0.
0.63 0.0830098 0.
0.632 0.0830099 0.
0.634 0.0830099 0.
0.636 0.0830098 0.
0.638 0.0830096 0.
0.64 0.0830096 0.
0.642 0.0830096 0.
0.644 0.0830096 0.
0.646 0.0830099 0.
0.648 0.0830103 0.
0.65 0.0830107 0.
0.651999 0.0830105 0.
0.653998 0.0830102 0.
0.655998 0.0830102 0.
0.657998 0.0830108 0.
0.659998 0.0830114 0.
0.661998 0.0830118 0.
0.663998 0.0830117 0.
0.665998 0.0830117 0.
0.667998 0.0830123 0.
0.669998 0.0830132 0.
0.671998 0.0830142 0.
0.673998 0.0830142 0.
0.675998 0.083014 0.
0.677998 0.083014 0.
0.679999 0.0830149 0.
0.682 0.0830157 0.
0.684 0.0830165 0.
0.686001 0.083017 0.
0.688001 0.0830175 0.
0.690001 0.0830186 0.
0.692001 0.0830202 0.
0.694001 0.0830218 0.
0.696002 0.0830229 0.
0.698003 0.0830239 0.
0.499997 0.0850225 0.
0.501997 0.0850212 0.
0.503998 0.0850199 0.
0.505998 0.0850187 0.
0.507998 0.0850175 0.
0.509998 0.0850163 0.
0.511999 0.085015 0.
0.513999 0.0850134 0.
0.515999 0.0850119 0.
0.518 0.085011 0.
0.52 0.0850106 0.
0.522 0.0850101 0.
0.523999 0.0850097 0.
0.525999 0.0850093 0.
0.527999 0.0850088 0.
0.529999 0.0850089 0.
0.532 0.085009 0.
0.534 0.0850088 0.
0.535999 0.0850081 0.
0.537999 0.0850074 0.
0.539999 0.0850071 0.
0.542 0.0850071 0.
0.544 0.0850071 0.
0.546 0.0850074 0.
0.548 0.0850079 0.
0.55 0.0850084 0.
0.552 0.0850085 0.
0.553999 0.0850086 0.
0.555999 0.0850087 0.
0.557998 0.0850088 0.
0.559998 0.0850089 0.
0.561997 0.085009 0.
0.563996 0.0850093 0.
0.565995 0.0850095 0.
0.567995 0.0850097 0.
0.569995 0.08501 0.
0.571996 0.0850102 0.
0.573997 0.0850111 0.
0.575997 0.085012 0.
0.577998 0.0850128 0.
0.579998 0.0850126 0.
0.581998 0.0850125 0.
0.583998 0.0850123 0.
0.585998 0.085012 0.
0.587998 0.0850117 0.
0.589998 0.0850114 0.
0.591997 0.0850111 0.
0.593997 0.0850108 0.
0.595997 0.0850112 0.
0.597998 0.0850117 0.
0.599998 0.0850122 0.
0.601999 0.0850111 0.
0.604 0.0850101 0.
0.606 0.0850093 0.
0.608001 0.0850094 0.
0.610001 0.0850095 0.
0.612001 0.0850094 0.
0.614 0.0850092 0.
0.615999 0.0850089 0.
0.617999 0.085009 0.
0.62 0.0850093 0.
0.622 0.0850095 0.
0.624 0.0850099 0.
0.626 0.0850103 0.
0.628 0.0850107 0.
0.63 0.0850104 0.
0.632 0.0850102 0.
0.634 0.08501 0.
0.636 0.0850098 0.
0.638 0.0850096 0.
0.64 0.0850093 0.
0.642 0.0850088 0.
0.644 0.0850084 0.
0.646 0.085009 0.
0.647999 0.0850098 0.
0.649999 0.0850106 0.
0.651998 0.0850105 0.
0.653996 0.0850103 0.
0.655995 0.0850103 0.
0.657996 0.085011 0.
0.659997 0.0850117 0.
0.661997 0.0850118 0.
0.663997 0.0850112 0.
0.665996 0.0850106 0.
0.667996 0.0850114 0.
0.669997 0.085013 0.
0.671997 0.0850145 0.
0.673997 0.0850143 0.
0.675997 0.085014 0.
0.677997 0.0850138 0.
0.679998 0.0850143 0.
0.681999 0.0850149 0.
0.683999 0.0850155 0.
0.686 0.0850163 0.
0.688 0.0850171 0.
0.69 0.0850184 0.
0.692 0.08502 0.
0.694 0.0850216 0.
0.696001 0.0850225 0.
0.698001 0.0850232 0.
0.499999 0.0870219 0.
0.501999 0.087021 0.
0.503999 0.08702 0.
0.506 0.087019 0.
0.508 0.0870175 0.
0.51 0.0870161 0.
0.512 0.0870146 0.
0.514 0.0870131 0.
0.516001 0.0870115 0.
0.518 0.0870108 0.
0.52 0.0870105 0.
0.522 0.0870101 0.
0.524 0.0870098 0.
0.526 0.0870094 0.
0.527999 0.087009 0.
0.53 0.0870089 0.
0.532 0.0870088 0.
0.534 0.0870085 0.
0.536 0.0870078 0.
0.538 0.0870071 0.
0.54 0.0870069 0.
0.542 0.087007 0.
0.544 0.0870072 0.
0.546 0.0870075 0.
0.548 0.0870079 0.
0.55 0.0870083 0.
0.552 0.0870081 0.
0.554 0.0870078 0.
0.555999 0.0870077 0.
0.557999 0.0870082 0.
0.559998 0.0870087 0.
0.561998 0.0870091 0.
0.563997 0.0870094 0.
0.565996 0.0870098 0.
0.567996 0.08701 0.
0.569996 0.0870101 0.
0.571996 0.0870102 0.
0.573997 0.0870111 0.
0.575997 0.0870121 0.
0.577998 0.0870129 0.
0.579998 0.0870128 0.
0.581998 0.0870126 0.
0.583998 0.0870125 0.
0.585998 0.0870122 0.
0.587998 0.087012 0.
0.589998 0.0870117 0.
0.591998 0.0870113 0.
0.593997 0.0870109 0.
0.595998 0.0870111 0.
0.597998 0.0870114 0.
0.599999 0.0870117 0.
0.601999 0.087011 0.
0.604 0.0870103 0.
0.606 0.0870097 0.
0.608 0.0870097 0.
0.61 0.0870096 0.
0.612 0.0870094 0.
0.614 0.087009 0.
0.615999 0.0870086 0.
0.617999 0.0870087 0.
0.619999 0.0870091 0.
0.622 0.0870094 0.
0.624 0.0870097 0.
0.626 0.0870099 0.
0.628 0.0870101 0.
0.63 0.08701 0.
0.632 0.0870098 0.
0.634 0.0870096 0.
0.636 0.0870095 0.
0.638 0.0870094 0.
0.64 0.0870092 0.
0.642 0.087009 0.
0.643999 0.0870087 0.
0.645999 0.0870093 0.
0.647999 0.0870101 0.
0.649999 0.0870109 0.
0.651997 0.0870109 0.
0.653996 0.0870109 0.
0.655996 0.087011 0.
0.657996 0.0870112 0.
0.659996 0.0870114 0.
0.661996 0.0870114 0.
0.663996 0.0870113 0.
0.665996 0.0870111 0.
0.667996 0.0870118 0.
0.669995 0.0870128 0.
0.671995 0.0870138 0.
0.673995 0.0870136 0.
0.675996 0.0870134 0.
0.677996 0.0870133 0.
0.679996 0.0870138 0.
0.681997 0.0870144 0.
0.683998 0.0870151 0.
0.685998 0.087016 0.
0.687998 0.087017 0.
0.689998 0.0870183 0.
0.691998 0.0870198 0.
0.693998 0.0870213 0.
0.695999 0.0870225 0.
0.697999 0.0870236 0.
0.499999 0.0890218 0.
0.502 0.0890208 0.
0.504001 0.0890202 0.
0.506001 0.0890193 0.
0.508002 0.0890176 0.
0.510002 0.0890159 0.
0.512002 0.0890143 0.
0.514002 0.0890127 0.
0.516002 0.0890112 0.
0.518001 0.0890106 0.
0.520001 0.0890103 0.
0.522001 0.0890101 0.
0.524 0.0890098 0.
0.526 0.0890095 0.
0.528 0.0890091 0.
0.53 0.0890089 0.
0.532 0.0890086 0.
0.534 0.0890082 0.
0.536001 0.0890075 0.
0.538001 0.0890068 0.
0.540001 0.0890066 0.
0.542 0.0890069 0.
0.544 0.0890072 0.
0.545999 0.0890075 0.
0.547999 0.0890078 0.
0.549999 0.0890081 0.
0.552 0.0890076 0.
0.554 0.0890071 0.
0.556 0.0890068 0.
0.557999 0.0890077 0.
0.559999 0.0890085 0.
0.561998 0.0890092 0.
0.563998 0.0890096 0.
0.565998 0.08901 0.
0.567997 0.0890102 0.
0.569997 0.0890102 0.
0.571997 0.0890102 0.
0.573997 0.0890111 0.
0.575998 0.0890121 0.
0.577998 0.089013 0.
0.579998 0.0890129 0.
0.581998 0.0890128 0.
0.583998 0.0890127 0.
0.585998 0.0890125 0.
0.587998 0.0890123 0.
0.589998 0.0890119 0.
0.591998 0.0890114 0.
0.593998 0.0890109 0.
0.595998 0.089011 0.
0.597999 0.0890111 0.
0.599999 0.0890113 0.
0.601999 0.0890109 0.
0.604 0.0890105 0.
0.606 0.0890101 0.
0.608 0.0890099 0.
0.61 0.0890097 0.
0.611999 0.0890094 0.
0.613999 0.0890089 0.
0.615999 0.0890084 0.
0.617999 0.0890085 0.
0.619999 0.0890089 0.
0.621999 0.0890094 0.
0.624 0.0890095 0.
0.626 0.0890095 0.
0.628001 0.0890096 0.
0.63 0.0890095 0.
0.632 0.0890094 0.
0.634 0.0890093 0.
0.636 0.0890092 0.
0.638001 0.0890092 0.
0.64 0.0890092 0.
0.641999 0.0890091 0.
0.643999 0.089009 0.
0.645998 0.0890096 0.
0.647998 0.0890104 0.
0.649998 0.0890112 0.
0.651997 0.0890114 0.
0.653996 0.0890115 0.
0.655996 0.0890116 0.
0.657996 0.0890113 0.
0.659995 0.089011 0.
0.661995 0.089011 0.
0.663995 0.0890113 0.
0.665995 0.0890117 0.
0.667995 0.0890121 0.
0.669994 0.0890126 0.
0.671993 0.089013 0.
0.673994 0.089013 0.
0.675994 0.0890128 0.
0.677995 0.0890128 0.
0.679995 0.0890133 0.
0.681995 0.0890139 0.
0.683996 0.0890146 0.
0.685996 0.0890158 0.
0.687996 0.0890169 0.
0.689996 0.0890182 0.
0.691996 0.0890196 0.
0.693996 0.089021 0.
0.695997 0.0890225 0.
0.697998 0.089024 0.
0.500001 0.0910209 0.
0.502001 0.0910205 0.
0.504002 0.0910198 0.
0.506002 0.091019 0.
0.508003 0.0910173 0.
0.510003 0.0910156 0.
0.512003 0.0910141 0.
0.514003 0.0910127 0.
0.516003 0.0910113 0.
0.518002 0.0910106 0.
0.520002 0.0910104 0.
0.522002 0.0910101 0.
0.524001 0.0910098 0.
0.526 0.0910095 0.
0.528 0.0910092 0.
0.53 0.0910089 0.
0.532 0.0910086 0.
0.534001 0.0910081 0.
0.536001 0.0910073 0.
0.538001 0.0910065 0.
0.540001 0.0910063 0.
0.542 0.0910068 0.
0.544 0.0910072 0.
0.545999 0.0910074 0.
0.547999 0.0910075 0.
0.549999 0.0910077 0.
0.551999 0.0910073 0.
0.554 0.0910069 0.
0.556 0.0910067 0.
0.557999 0.0910076 0.
0.559999 0.0910084 0.
0.561998 0.091009 0.
0.563998 0.0910093 0.
0.565998 0.0910097 0.
0.567998 0.09101 0.
0.569998 0.0910103 0.
0.571997 0.0910105 0.
0.573997 0.0910112 0.
0.575998 0.0910119 0.
0.577998 0.0910126 0.
0.579998 0.0910126 0.
0.581998 0.0910126 0.
0.583998 0.0910126 0.
0.585998 0.0910124 0.
0.587998 0.0910123 0.
0.589998 0.091012 0.
0.591998 0.0910116 0.
0.593998 0.0910112 0.
0.595998 0.091011 0.
0.597999 0.0910109 0.
0.599999 0.0910109 0.
0.601999 0.0910108 0.
0.604 0.0910107 0.
0.606 0.0910105 0.
0.607999 0.0910103 0.
0.609999 0.0910101 0.
0.611999 0.0910097 0.
0.613999 0.091009 0.
0.615998 0.0910084 0.
0.617998 0.0910084 0.
0.619999 0.0910088 0.
0.621999 0.0910092 0.
0.623999 0.0910092 0.
0.626 0.0910092 0.
0.628 0.0910092 0.
0.63 0.0910091 0.
0.632 0.091009 0.
0.634 0.091009 0.
0.636 0.091009 0.
0.638 0.0910091 0.
0.64 0.0910092 0.
0.641999 0.0910094 0.
0.643998 0.0910095 0.
0.645998 0.09101 0.
0.647997 0.0910106 0.
0.649997 0.0910112 0.
0.651997 0.0910115 0.
0.653996 0.0910118 0.
0.655996 0.0910119 0.
0.657995 0.0910115 0.
0.659995 0.0910111 0.
0.661995 0.091011 0.
0.663994 0.0910114 0.
0.665994 0.0910118 0.
0.667994 0.0910121 0.
0.669993 0.0910124 0.
0.671993 0.0910127 0.
0.673993 0.0910127 0.
0.675994 0.0910127 0.
0.677994 0.0910128 0.
0.679994 0.0910132 0.
0.681994 0.0910136 0.
0.683995 0.0910143 0.
0.685994 0.0910156 0.
0.687994 0.0910168 0.
0.689994 0.0910181 0.
0.691994 0.0910194 0.
0.693994 0.0910207 0.
0.695995 0.0910223 0.
0.697996 0.0910239 0.
0.500003 0.0930207 0.
0.502002 0.0930199 0.
0.504002 0.0930191 0.
0.506002 0.0930181 0.
0.508003 0.0930167 0.
0.510004 0.0930153 0.
0.512004 0.093014 0.
0.514004 0.0930129 0.
0.516003 0.0930117 0.
0.518003 0.093011 0.
0.520003 0.0930105 0.
0.522002 0.0930101 0.
0.524002 0.0930098 0.
0.526001 0.0930095 0.
0.528001 0.0930092 0.
0.530001 0.093009 0.
0.532001 0.0930088 0.
0.534001 0.0930082 0.
0.536001 0.0930072 0.
0.538001 0.0930061 0.
0.540001 0.0930059 0.
0.542001 0.0930065 0.
0.544 0.093007 0.
0.546 0.0930071 0.
0.547999 0.093007 0.
0.549999 0.0930069 0.
0.551999 0.0930071 0.
0.553999 0.0930072 0.
0.555999 0.0930074 0.
0.557999 0.0930079 0.
0.559999 0.0930084 0.
0.561998 0.0930087 0.
0.563998 0.0930088 0.
0.565998 0.0930088 0.
0.567998 0.0930095 0.
0.569998 0.0930103 0.
0.571998 0.0930111 0.
0.573998 0.0930114 0.
0.575998 0.0930116 0.
0.577998 0.0930117 0.
0.579998 0.0930119 0.
0.581998 0.093012 0.
0.583998 0.0930121 0.
0.585998 0.0930121 0.
0.587997 0.0930121 0.
0.589997 0.093012 0.
0.591997 0.0930118 0.
0.593998 0.0930117 0.
0.595998 0.0930113 0.
0.597999 0.0930109 0.
0.599999 0.0930105 0.
0.601999 0.0930107 0.
0.603999 0.0930108 0.
0.605999 0.0930109 0.
0.607999 0.0930107 0.
0.609999 0.0930106 0.
0.611998 0.0930102 0.
0.613998 0.0930094 0.
0.615998 0.0930087 0.
0.617998 0.0930086 0.
0.619998 0.0930087 0.
0.621999 0.0930089 0.
0.623999 0.0930089 0.
0.625999 0.0930089 0.
0.627999 0.0930089 0.
0.629999 0.0930088 0.
0.631999 0.0930088 0.
0.633999 0.0930087 0.
0.635999 0.0930089 0.
0.637999 0.093009 0.
0.639998 0.0930094 0.
0.641998 0.0930098 0.
0.643998 0.0930103 0.
0.645997 0.0930105 0.
0.647996 0.0930107 0.
0.649996 0.0930108 0.
0.651996 0.0930112 0.
0.653995 0.0930116 0.
0.655995 0.0930119 0.
0.657995 0.0930117 0.
0.659995 0.0930115 0.
0.661994 0.0930115 0.
0.663994 0.0930115 0.
0.665994 0.0930115 0.
0.667994 0.0930118 0.
0.669994 0.0930122 0.
0.671993 0.0930127 0.
0.673993 0.0930129 0.
0.675993 0.093013 0.
0.677994 0.0930132 0.
0.679994 0.0930134 0.
0.681994 0.0930136 0.
0.683994 0.0930142 0.
0.685994 0.0930155 0.
0.687993 0.0930168 0.
0.689993 0.0930181 0.
0.691993 0.0930192 0.
0.693994 0.0930204 0.
0.695994 0.0930218 0.
0.697995 0.0930234 0.
0.500003 0.0950201 0.
0.502003 0.0950194 0.
0.504003 0.0950183 0.
0.506003 0.0950172 0.
0.508004 0.0950161 0.
0.510004 0.095015 0.
0.512005 0.095014 0.
0.514004 0.0950131 0.
0.516004 0.0950121 0.
0.518004 0.0950114 0.
0.520003 0.0950107 0.
0.522003 0.0950101 0.
0.524003 0.0950097 0.
0.526002 0.0950095 0.
0.528001 0.0950092 0.
0.530001 0.095009 0.
0.532001 0.0950089 0.
0.534001 0.0950083 0.
0.536001 0.095007 0.
0.538001 0.0950057 0.
0.540001 0.0950055 0.
0.542001 0.0950062 0.
0.544001 0.0950068 0.
0.546 0.0950067 0.
0.548 0.0950064 0.
0.549999 0.0950061 0.
0.551999 0.0950069 0.
0.553999 0.0950076 0.
0.555999 0.0950081 0.
0.557999 0.0950082 0.
0.559998 0.0950083 0.
0.561998 0.0950083 0.
0.563998 0.0950082 0.
0.565998 0.095008 0.
0.567998 0.0950089 0.
0.569998 0.0950103 0.
0.571998 0.0950117 0.
0.573998 0.0950116 0.
0.575998 0.0950112 0.
0.577998 0.0950109 0.
0.579998 0.0950112 0.
0.581998 0.0950114 0.
0.583997 0.0950117 0.
0.585997 0.0950118 0.
0.587997 0.095012 0.
0.589997 0.095012 0.
0.591997 0.095012 0.
0.593997 0.0950121 0.
0.595998 0.0950116 0.
0.597998 0.0950109 0.
0.599999 0.0950102 0.
0.601999 0.0950106 0.
0.603999 0.095011 0.
0.605999 0.0950113 0.
0.607999 0.0950112 0.
0.609998 0.0950111 0.
0.611998 0.0950107 0.
0.613998 0.0950098 0.
0.615998 0.0950089 0.
0.617998 0.0950087 0.
0.619998 0.0950087 0.
0.621998 0.0950087 0.
0.623998 0.0950086 0.
0.625998 0.0950086 0.
0.627998 0.0950087 0.
0.629998 0.0950086 0.
0.631998 0.0950085 0.
0.633998 0.0950085 0.
0.635997 0.0950088 0.
0.637997 0.095009 0.
0.639997 0.0950096 0.
0.641997 0.0950103 0.
0.643997 0.095011 0.
0.645997 0.0950109 0.
0.647995 0.0950107 0.
0.649994 0.0950105 0.
0.651994 0.095011 0.
0.653995 0.0950115 0.
0.655995 0.0950118 0.
0.657994 0.0950119 0.
0.659994 0.095012 0.
0.661994 0.0950119 0.
0.663994 0.0950115 0.
0.665993 0.0950112 0.
0.667993 0.0950115 0.
0.669994 0.0950121 0.
0.671994 0.0950127 0.
0.673994 0.0950131 0.
0.675993 0.0950134 0.
0.677993 0.0950137 0.
0.679993 0.0950137 0.
0.681993 0.0950136 0.
0.683993 0.095014 0.
0.685993 0.0950154 0.
0.687992 0.0950168 0.
0.689992 0.095018 0.
0.691992 0.095019 0.
0.693993 0.09502 0.
0.695993 0.0950214 0.
0.697993 0.0950229 0.
0.500005 0.0970202 0.
0.502005 0.097019 0.
0.504005 0.0970178 0.
0.506004 0.0970168 0.
0.508005 0.0970159 0.
0.510005 0.0970151 0.
0.512005 0.0970142 0.
0.514005 0.0970133 0.
0.516005 0.0970124 0.
0.518004 0.0970115 0.
0.520004 0.0970106 0.
0.522004 0.0970096 0.
0.524003 0.0970098 0.
0.526002 0.09701 0.
0.528001 0.0970101 0.
0.530001 0.0970096 0.
0.532001 0.097009 0.
0.534001 0.0970083 0.
0.536001 0.0970073 0.
0.538001 0.0970063 0.
0.540001 0.0970061 0.
0.542001 0.0970067 0.
0.544001 0.0970072 0.
0.546 0.0970072 0.
0.548 0.097007 0.
0.55 0.0970067 0.
0.551999 0.0970074 0.
0.553999 0.097008 0.
0.555999 0.0970084 0.
0.557999 0.0970082 0.
0.559999 0.0970079 0.
0.561998 0.0970079 0.
0.563998 0.0970082 0.
0.565998 0.0970084 0.
0.567998 0.0970093 0.
0.569997 0.0970103 0.
0.571997 0.0970114 0.
0.573997 0.0970112 0.
0.575997 0.0970108 0.
0.577998 0.0970105 0.
0.579998 0.0970109 0.
0.581997 0.0970114 0.
0.583997 0.0970117 0.
0.585997 0.0970118 0.
0.587997 0.0970119 0.
0.589997 0.0970118 0.
0.591997 0.0970117 0.
0.593997 0.0970117 0.
0.595998 0.0970114 0.
0.597999 0.097011 0.
0.6 0.0970105 0.
0.602 0.0970107 0.
0.604 0.0970109 0.
0.605999 0.097011 0.
0.607999 0.097011 0.
0.609999 0.0970111 0.
0.611999 0.0970108 0.
0.613999 0.0970101 0.
0.615998 0.0970094 0.
0.617998 0.0970092 0.
0.619999 0.097009 0.
0.621999 0.0970089 0.
0.623998 0.0970088 0.
0.625998 0.0970088 0.
0.627998 0.0970088 0.
0.629998 0.0970088 0.
0.631997 0.0970088 0.
0.633997 0.097009 0.
0.635997 0.0970095 0.
0.637997 0.0970099 0.
0.639997 0.0970103 0.
0.641997 0.0970106 0.
0.643997 0.0970109 0.
0.645997 0.097011 0.
0.647996 0.097011 0.
0.649996 0.097011 0.
0.651995 0.0970113 0.
0.653995 0.0970115 0.
0.655994 0.0970117 0.
0.657994 0.0970117 0.
0.659994 0.0970118 0.
0.661994 0.0970118 0.
0.663994 0.0970115 0.
0.665994 0.0970112 0.
0.667994 0.0970114 0.
0.669994 0.097012 0.
0.671994 0.0970126 0.
0.673993 0.0970131 0.
0.675993 0.0970136 0.
0.677993 0.097014 0.
0.679993 0.097014 0.
0.681993 0.097014 0.
0.683993 0.0970144 0.
0.685992 0.0970157 0.
0.687992 0.097017 0.
0.689992 0.0970182 0.
0.691992 0.0970193 0.
0.693992 0.0970204 0.
0.695992 0.0970212 0.
0.697991 0.097022 0.
0.500008 0.09902 0.
0.502007 0.0990186 0.
0.504007 0.0990174 0.
0.506006 0.0990163 0.
0.508006 0.0990157 0.
0.510006 0.0990151 0.
0.512006 0.0990144 0.
0.514006 0.0990136 0.
0.516005 0.0990128 0.
0.518005 0.0990117 0.
0.520005 0.0990105 0.
0.522005 0.0990092 0.
0.524003 0.0990098 0.
0.526002 0.0990105 0.
0.528001 0.0990111 0.
0.530001 0.0990101 0.
0.532001 0.0990092 0.
0.534001 0.0990083 0.
0.536001 0.0990075 0.
0.538001 0.0990068 0.
0.540001 0.0990067 0.
0.542 0.0990072 0.
0.544 0.0990076 0.
0.546 0.0990076 0.
0.548 0.0990075 0.
0.55 0.0990074 0.
0.552 0.0990079 0.
0.554 0.0990084 0.
0.556 0.0990087 0.
0.557999 0.0990081 0.
0.559999 0.0990075 0.
0.561999 0.0990074 0.
0.563998 0.0990081 0.
0.565998 0.0990088 0.
0.567997 0.0990096 0.
0.569997 0.0990103 0.
0.571996 0.0990111 0.
0.573996 0.0990108 0.
0.575997 0.0990103 0.
0.577997 0.09901 0.
0.579997 0.0990107 0.
0.581997 0.0990114 0.
0.583997 0.0990118 0.
0.585997 0.0990118 0.
0.587997 0.0990118 0.
0.589997 0.0990116 0.
0.591997 0.0990114 0.
0.593997 0.0990112 0.
0.595998 0.0990111 0.
0.598 0.099011 0.
0.600002 0.0990109 0.
0.602001 0.0990109 0.
0.604 0.0990108 0.
0.605999 0.0990107 0.
0.607999 0.0990109 0.
0.609999 0.099011 0.
0.611999 0.0990109 0.
0.613999 0.0990104 0.
0.615999 0.0990099 0.
0.617999 0.0990096 0.
0.619999 0.0990094 0.
0.621999 0.0990091 0.
0.623998 0.099009 0.
0.625998 0.099009 0.
0.627998 0.099009 0.
0.629997 0.0990091 0.
0.631997 0.0990091 0.
0.633997 0.0990094 0.
0.635997 0.0990101 0.
0.637997 0.0990109 0.
0.639997 0.0990111 0.
0.641997 0.099011 0.
0.643997 0.0990108 0.
0.645997 0.099011 0.
0.647997 0.0990113 0.
0.649997 0.0990116 0.
0.651996 0.0990115 0.
0.653995 0.0990115 0.
0.655994 0.0990115 0.
0.657994 0.0990116 0.
0.659995 0.0990117 0.
0.661995 0.0990116 0.
0.663994 0.0990114 0.
0.665994 0.0990111 0.
0.667994 0.0990114 0.
0.669994 0.0990119 0.
0.671994 0.0990125 0.
0.673993 0.0990131 0.
0.675993 0.0990138 0.
0.677992 0.0990144 0.
0.679992 0.0990144 0.
0.681992 0.0990144 0.
0.683992 0.0990147 0.
0.685992 0.0990159 0.
0.687992 0.0990171 0.
0.689991 0.0990183 0.
0.691991 0.0990195 0.
0.693991 0.0990207 0.
0.69599 0.099021 0.
0.697989 0.0990211 0.
CELLS 5000 10000
1 0
1 1
1 2
1 3
1 4
1 5
1 6
1 7
1 8
1 9
1 10
1 11
1 12
1 13
1 14
1 15
1 16
1 17
1 18
1 19
1 20
1 21
1 22
1 23
1 24
1 25
1 26
1 27
1 28
1 29
1 30
1 31
1 32
1 33
1 34
1 35
1 36
1 37
1 38
1 39
1 40
1 41
1 42
1 43
1 44
1 45
1 46
1 47
1 48
1 49
1 50
1 51
1 52
1 53
1 54
1 55
1 56
1 57
1 58
1 59
1 60
1 61
1 62
1 63
1 64
1 65
1 66
1 67
1 68
1 69
1 70
1 71
1 72
1 73
1 74
1 75
1 76
1 77
1 78
1 79
1 80
1 81
1 82
1 83
1 84
1 85
1 86
1 87
1 88
1 89
1 90
1 91
1 92
1 93
1 94
1 95
1 96
1 97
1 98
1 99
1 100
1 101
1 102
1 103
1 104
1 105
1 106
1 107
1 108
1 109
1 110
1 111
1 112
1 113
1 114
1 115
1 116
1 117
1 118
1 119
1 120
1 121
1 122
1 123
1 124
1 125
1 126
1 127
1 128
1 129
1 130
1 131
1 132
1 133
1 134
1 135
1 136
1 137
1 138
1 139
1 140
1 141
1 142
1 143
1 144
1 145
1 146
1 147
1 148
1 149
1 150
1 151
1 152
1 153
1 154
1 155
1 156
1 157
1 158
1 159
1 160
1 161
1 162
1 163
1 164
1 165
1 166
1 167
1 168
1 169
1 170
1 171
1 172
1 173
1 174
1 175
1 176
1 177
1 178
1 179
1 180
1 181
1 182
1 183
1 184
1 185
1 186
1 187
1 188
1 189
1 190
1 191
1 192
1 193
1 194
1 195
1 196
1 197
1 198
1 199
1 200
1 201
1 202
1 203
1 204
1 205
1 206
1 207
1 208
1 209
1 210
1 211
1 212
1 213
1 214
1 215
1 216
1 217
1 218
1 219
1 220
1 221
1 222
1 223
1 224
1 225
1 226
1 227
1 228
1 229
1 230
1 231
1 232
1 233
1 234
1 235
1 236
1 237
1 238
1 239
1 240
1 241
1 242
1 243
1 244
1 245
1 246
1 247
1 248
1 249
1 250
1 251
1 252
1 253
1 254
1 255
1 256
1 257
1 258
1 259
1 260
1 261
1 262
1 263
1 264
1 265
1 266
1 267
1 268
1 269
1 270
1 271
1 272
1 273
1 274
1 275
1 276
1 277
1 278
1 279
1 280
1 281
1 282
1 283
1 284
1 285
1 286
1 287
1 288
1 289
1 290
1 291
1 292
1 293
1 294
1 295
1 296
1 297
1 298
1 299
1 300
1 301
1 302
1 303
1 304
1 305
1 306
1 307
1 308
1 309
1 310
1 311
1 312
1 313
1 314
1 315
1 316
1 317
1 318
1 319
1 320
1 321
1 322
1 323
1 324
1 325
1 326
1 327
1 328
1 329
1 330
1 331
1 332
1 333
1 334
1 335
1 336
1 337
1 338
1 339
1 340
1 341
1 342
1 343
1 344
1 345
1 346
1 347
1 348
1 349
1 350
1 351
1 352
1 353
1 354
1 355
1 356
1 357
1 358
1 359
1 360
1 361
1 362
1 363
1 364
1 365
1 366
1 367
1 368
1 369
1 370
1 371
1 372
1 373
1 374
1 375
1 376
1 377
1 378
1 379
1 380
1 381
1 382
1 383
1 384
1 385
1 386
1 387
1 388
1 389
1 390
1 391
1 392
1 393
1 394
1 395
1 396
1 397
1 398
1 399
1 400
1 401
1 402
1 403
1 404
1 405
1 406
1 407
1 408
1 409
1 410
1 411
1 412
1 413
1 414
1 415
1 416
1 417
1 418
1 419
1 420
1 421
1 422
1 423
1 424
1 425
1 426
1 427
1 428
1 429
1 430
1 431
1 432
1 433
1 434
1 435
1 436
1 437
1 438
1 439
1 440
1 441
1 442
1 443
1 444
1 445
1 446
1 447
1 448
1 449
1 450
1 451
1 452
1 453
1 454
1 455
1 456
1 457
1 458
1 459
1 460
1 461
1 462
1 463
1 464
1 465
1 466
1 467
1 468
1 469
1 470
1 471
1 472
1 473
1 474
1 475
1 476
1 477
1 478
1 479
1 480
1 481
1 482
1 483
1 484
1 485
1 486
1 487
1 488
1 489
1 490
1 491
1 492
1 493
1 494
1 495
1 496
1 497
1 498
1 499
1 500
1 501
1 502
1 503
1 504
1 505
1 506
1 507
1 508
1 509
1 510
1 511
1 512
1 513
1 514
1 515
1 516
1 517
1 518
1 519
1 520
1 521
1 522
1 523
1 524
1 525
1 526
1 527
1 528
1 529
1 530
1 531
1 532
1 533
1 534
1 535
1 536
1 537
1 538
1 539
1 540
1 541
1 542
1 543
1 544
1 545
1 546
1 547
1 548
1 549
1 550
1 551
1 552
1 553
1 554
1 555
1 556
1 557
1 558
1 559
1 560
1 561
1 562
1 563
1 564
1 565
1 566
1 567
1 568
1 569
1 570
1 571
1 572
1 573
1 574
1 575
1 576
1 577
1 578
1 579
1 580
1 581
1 582
1 583
1 584
1 585
1 586
1 587
1 588
1 589
1 590
1 591
1 592
1 593
1 594
1 595
1 596
1 597
1 598
1 599
1 600
1 601
1 602
1 603
1 604
1 605
1 606
1 607
1 608
1 609
1 610
1 611
1 612
1 613
1 614
1 615
1 616
1 617
1 618
1 619
1 620
1 621
1 622
1 623
1 624
1 625
1 626
1 627
1 628
1 629
1 630
1 631
1 632
1 633
1 634
1 635
1 636
1 637
1 638
1 639
1 640
1 641
1 642
1 643
1 644
1 645
1 646
1 647
1 648
1 649
1 650
1 651
1 652
1 653
1 654
1 655
1 656
1 657
1 658
1 659
1 660
1 661
1 662
1 663
1 664
1 665
1 666
1 667
1 668
1 669
1 670
1 671
1 672
1 673
1 674
1 675
1 676
1 677
1 678
1 679
1 680
1 681
1 682
1 683
1 684
1 685
1 686
1 687
1 688
1 689
1 690
1 691
1 692
1 693
1 694
1 695
1 696
1 697
1 698
1 699
1 700
1 701
1 702
1 703
1 704
1 705
1 706
1 707
1 708
1 709
1 710
1 711
1 712
1 713
1 714
1 715
1 716
1 717
1 718
1 719
1 720
1 721
1 722
1 723
1 724
1 725
1 726
1 727
1 728
1 729
1 730
1 731
1 732
1 733
1 734
1 735
1 736
1 737
1 738
1 739
1 740
1 741
1 742
1 743
1 744
1 745
1 746
1 747
1 748
1 749
1 750
1 751
1 752
1 753
1 754
1 755
1 756
1 757
1 758
1 759
1 760
1 761
1 762
1 763
1 764
1 765
1 766
1 767
1 768
1 769
1 770
1 771
1 772
1 773
1 774
1 775
1 776
1 777
1 778
1 779
1 780
1 781
1 782
1 783
1 784
1 785
1 786
1 787
1 788
1 789
1 790
1 791
1 792
1 793
1 794
1 795
1 796
1 797
1 798
1 799
1 800
1 801
1 802
1 803
1 804
1 805
1 806
1 807
1 808
1 809
1 810
1 811
1 812
1 813
1 814
1 815
1 816
1 817
1 818
1 819
1 820
1 821
1 822
1 823
1 824
1 825
1 826
1 827
1 828
1 829
1 830
1 831
1 832
1 833
1 834
1 835
1 836
1 837
1 838
1 839
1 840
1 841
1 842
1 843
1 844
1 845
1 846
1 847
1 848
1 849
1 850
1 851
1 852
1 853
1 854
1 855
1 856
1 857
1 858
1 859
1 860
1 861
1 862
1 863
1 864
1 865
1 866
1 867
1 868
1 869
1 870
1 871
1 872
1 873
1 874
1 875
1 876
1 877
1 878
1 879
1 880
1 881
1 882
1 883
1 884
1 885
1 886
1 887
1 888
1 889
1 890
1 891
1 892
1 893
1 894
1 895
1 896
1 897
1 898
1 899
1 900
1 901
1 902
1 903
1 904
1 905
1 906
1 907
1 908
1 909
1 910
1 911
1 912
1 913
1 914
1 915
1 916
1 917
1 918
1 919
1 920
1 921
1 922
1 923
1 924
1 925
1 926
1 927
1 928
1 929
1 930
1 931
1 932
1 933
1 934
1 935
1 936
1 937
1 938
1 939
1 940
1 941
1 942
1 943
1 944
1 945
1 946
1 947
1 948
1 949
1 950
1 951
1 952
1 953
1 954
1 955
1 956
1 957
1 958
1 959
1 960
1 961
1 962
1 963
1 964
1 965
1 966
1 967
1 968
1 969
1 970
1 971
1 972
1 973
1 974
1 975
1 976
1 977
1 978
1 979
1 980
1 981
1 982
1 983
1 984
1 985
1 986
1 987
1 988
1 989
1 990
1 991
1 992
1 993
1 994
1 995
1 996
1 997
1 998
1 999
1 1000
1 1001
1 1002
1 1003
1 1004
1 1005
1 1006
1 1007
1 1008
1 1009
1 1010
1 1011
1 1012
1 1013
1 1014
1 1015
1 1016
1 1017
1 1018
1 1019
1 1020
1 1021
1 1022
1 1023
1 1024
1 1025
1 1026
1 1027
1 1028
1 1029
1 1030
1 1031
1 1032
1 1033
1 1034
1 1035
1 1036
1 1037
1 1038
1 1039
1 1040
1 1041
1 1042
1 1043
1 1044
1 1045
1 1046
1 1047
1 1048
1 1049
1 1050
1 1051
1 1052
1 1053
1 1054
1 1055
1 1056
1 1057
1 1058
1 1059
1 1060
1 1061
1 1062
1 1063
1 1064
1 1065
1 1066
1 1067
1 1068
1 1069
1 1070
1 1071
1 1072
1 1073
1 1074
1 1075
1 1076
1 1077
1 1078
1 1079
1 1080
1 1081
1 1082
1 1083
1 1084
1 1085
1 1086
1 1087
1 1088
1 1089
1 1090
1 1091
1 1092
1 1093
1 1094
1 1095
1 1096
1 1097
1 1098
1 1099
1 1100
1 1101
1 1102
1 1103
1 1104
1 1105
1 1106
1 1107
1 1108
1 1109
1 1110
1 1111
1 1112
1 1113
1 1114
1 1115
1 1116
1 1117
1 1118
1 1119
1 1120
1 1121
1 1122
1 1123
1 1124
1 1125
1 1126
1 1127
1 1128
1 1129
1 1130
1 1131
1 1132
1 1133
1 1134
1 1135
1 1136
1 1137
1 1138
1 1139
1 1140
1 1141
1 1142
1 1143
1 1144
1 1145
1 1146
1 1147
1 1148
1 1149
1 1150
1 1151
1 1152
1 1153
1 1154
1 1155
1 1156
1 1157
1 1158
1 1159
1 1160
1 1161
1 1162
1 1163
1 1164
1 1165
1 1166
1 1167
1 1168
1 1169
1 1170
1 1171
1 1172
1 1173
1 1174
1 1175
1 1176
1 1177
1 1178
1 1179
1 1180
1 1181
1 1182
1 1183
1 1184
1 1185
1 1186
1 1187
1 1188
1 1189
1 1190
1 1191
1 1192
1 1193
1 1194
1 1195
1 1196
1 1197
1 1198
1 1199
1 1200
1 1201
1 1202
1 1203
1 1204
1 1205
1 1206
1 1207
1 1208
1 1209
1 1210
1 1211
1 1212
1 1213
1 1214
1 1215
1 1216
1 1217
1 1218
1 1219
1 1220
1 1221
1 1222
1 1223
1 1224
1 1225
1 1226
1 1227
1 1228
1 1229
1 1230
1 1231
1 1232
1 1233
1 1234
1 1235
1 1236
1 1237
1 1238
1 1239
1 1240
1 1241
1 1242
1 1243
1 1244
1 1245
1 1246
1 1247
1 1248
1 1249
1 1250
1 1251
1 1252
1 1253
1 1254
1 1255
1 1256
1 1257
1 1258
1 1259
1 1260
1 1261
1 1262
1 1263
1 1264
1 1265
1 1266
1 1267
1 1268
1 1269
1 1270
1 1271
1 1272
1 1273
1 1274
1 1275
1 1276
1 1277
1 1278
1 1279
1 1280
1 1281
1 1282
1 1283
1 1284
1 1285
1 1286
1 1287
1 1288
1 1289
1 1290
1 1291
1 1292
1 1293
1 1294
1 1295
1 1296
1 1297
1 1298
1 1299
1 1300
1 1301
1 1302
1 1303
1 1304
1 1305
1 1306
1 1307
1 1308
1 1309
1 1310
1 1311
1 1312
1 1313
1 1314
1 1315
1 1316
1 1317
1 1318
1 1319
1 1320
1 1321
1 1322
1 1323
1 1324
1 1325
1 1326
1 1327
1 1328
1 1329
1 1330
1 1331
1 1332
1 1333
1 1334
1 1335
1 1336
1 1337
1 1338
1 1339
1 1340
1 1341
1 1342
1 1343
1 1344
1 1345
1 1346
1 1347
1 1348
1 1349
1 1350
1 1351
1 1352
1 1353
1 1354
1 1355
1 1356
1 1357
1 1358
1 1359
1 1360
1 1361
1 1362
1 1363
1 1364
1 1365
1 1366
1 1367
1 1368
1 1369
1 1370
1 1371
1 1372
1 1373
1 1374
1 1375
1 1376
1 1377
1 1378
1 1379
1 1380
1 1381
1 1382
1 1383
1 1384
1 1385
1 1386
1 1387
1 1388
1 1389
1 1390
1 1391
1 1392
1 1393
1 1394
1 1395
1 1396
1 1397
1 1398
1 1399
1 1400
1 1401
1 1402
1 1403
1 1404
1 1405
1 1406
1 1407
1 1408
1 1409
1 1410
1 1411
1 1412
1 1413
1 1414
1 1415
1 1416
1 1417
1 1418
1 1419
1 1420
1 1421
1 1422
1 1423
1 1424
1 1425
1 1426
1 1427
1 1428
1 1429
1 1430
1 1431
1 1432
1 1433
1 1434
1 1435
1 1436
1 1437
1 1438
1 1439
1 1440
1 1441
1 1442
1 1443
1 1444
1 1445
1 1446
1 1447
1 1448
1 1449
1 1450
1 1451
1 1452
1 1453
1 1454
1 1455
1 1456
1 1457
1 1458
1 1459
1 1460
1 1461
1 1462
1 1463
1 1464
1 1465
1 1466
1 1467
1 1468
1 1469
1 1470
1 1471
1 1472
1 1473
1 1474
1 1475
1 1476
1 1477
1 1478
1 1479
1 1480
1 1481
1 1482
1 1483
1 1484
1 1485
1 1486
1 1487
1 1488
1 1489
1 1490
1 1491
1 1492
1 1493
1 1494
1 1495
1 1496
1 1497
1 1498
1 1499
1 1500
1 1501
1 1502
1 1503
1 1504
1 1505
1 1506
1 1507
1 1508
1 1509
1 1510
1 1511
1 1512
1 1513
1 1514
1 1515
1 1516
1 1517
1 1518
1 1519
1 1520
1 1521
1 1522
1 1523
1 1524
1 1525
1 1526
1 1527
1 1528
1 1529
1 1530
1 1531
1 1532
1 1533
1 1534
1 1535
1 1536
1 1537
1 1538
1 1539
1 1540
1 1541
1 1542
1 1543
1 1544
1 1545
1 1546
1 1547
1 1548
1 1549
1 1550
1 1551
1 1552
1 1553
1 1554
1 1555
1 1556
1 1557
1 1558
1 1559
1 1560
1 1561
1 1562
1 1563
1 1564
1 1565
1 1566
1 1567
1 1568
1 1569
1 1570
1 1571
1 1572
1 1573
1 1574
1 1575
1 1576
1 1577
1 1578
1 1579
1 1580
1 1581
1 1582
1 1583
1 1584
1 1585
1 1586
1 1587
1 1588
1 1589
1 1590
1 1591
1 1592
1 1593
1 1594
1 1595
1 1596
1 1597
1 1598
1 1599
1 1600
1 1601
1 1602
1 1603
1 1604
1 1605
1 1606
1 1607
1 1608
1 1609
1 1610
1 1611
1 1612
1 1613
1 1614
1 1615
1 1616
1 1617
1 1618
1 1619
1 1620
1 1621
1 1622
1 1623
1 1624
1 1625
1 1626
1 1627
1 1628
1 1629
1 1630
1 1631
1 1632
1 1633
1 1634
1 1635
1 1636
1 1637
1 1638
1 1639
1 1640
1 1641
1 1642
1 1643
1 1644
1 1645
1 1646
1 1647
1 1648
1 1649
1 1650
1 1651
1 1652
1 1653
1 1654
1 1655
1 1656
1 1657
1 1658
1 1659
1 1660
1 1661
1 1662
1 1663
1 1664
1 1665
1 1666
1 1667
1 1668
1 1669
1 1670
1 1671
1 1672
1 1673
1 1674
1 1675
1 1676
1 1677
1 1678
1 1679
1 1680
1 1681
1 1682
1 1683
1 1684
1 1685
1 1686
1 1687
1 1688
1 1689
1 1690
1 1691
1 1692
1 1693
1 1694
1 1695
1 1696
1 1697
1 1698
1 1699
1 1700
1 1701
1 1702
1 1703
1 1704
1 1705
1 1706
1 1707
1 1708
1 1709
1 1710
1 1711
1 1712
1 1713
1 1714
1 1715
1 1716
1 1717
1 1718
1 1719
1 1720
1 1721
1 1722
1 1723
1 1724
1 1725
1 1726
1 1727
1 1728
1 1729
1 1730
1 1731
1 1732
1 1733
1 1734
1 1735
1 1736
1 1737
1 1738
1 1739
1 1740
1 1741
1 1742
1 1743
1 1744
1 1745
1 1746
1 1747
1 1748
1 1749
1 1750
1 1751
1 1752
1 1753
1 1754
1 1755
1 1756
1 1757
1 1758
1 1759
1 1760
1 1761
1 1762
1 1763
1 1764
1 1765
1 1766
1 1767
1 1768
1 1769
1 1770
1 1771
1 1772
1 1773
1 1774
1 1775
1 1776
1 1777
1 1778
1 1779
1 1780
1 1781
1 1782
1 1783
1 1784
1 1785
1 1786
1 1787
1 1788
1 1789
1 1790
1 1791
1 1792
1 1793
1 1794
1 1795
1 1796
1 1797
1 1798
1 1799
1 1800
1 1801
1 1802
1 1803
1 1804
1 1805
1 1806
1 1807
1 1808
1 1809
1 1810
1 1811
1 1812
1 1813
1 1814
1 1815
1 1816
1 1817
1 1818
1 1819
1 1820
1 1821
1 1822
1 1823
1 1824
1 1825
1 1826
1 1827
1 1828
1 1829
1 1830
1 1831
1 1832
1 1833
1 1834
1 1835
1 1836
1 1837
1 1838
1 1839
1 1840
1 1841
1 1842
1 1843
1 1844
1 1845
1 1846
1 1847
1 1848
1 1849
1 1850
1 1851
1 1852
1 1853
1 1854
1 1855
1 1856
1 1857
1 1858
1 1859
1 1860
1 1861
1 1862
1 1863
1 1864
1 1865
1 1866
1 1867
1 1868
1 1869
1 1870
1 1871
1 1872
1 1873
1 1874
1 1875
1 1876
1 1877
1 1878
1 1879
1 1880
1 1881
1 1882
1 1883
1 1884
1 1885
1 1886
1 1887
1 1888
1 1889
1 1890
1 1891
1 1892
1 1893
1 1894
1 1895
1 1896
1 1897
1 1898
1 1899
1 1900
1 1901
1 1902
1 1903
1 1904
1 1905
1 1906
1 1907
1 1908
1 1909
1 1910
1 1911
1 1912
1 1913
1 1914
1 1915
1 1916
1 1917
1 1918
1 1919
1 1920
1 1921
1 1922
1 1923
1 1924
1 1925
1 1926
1 1927
1 1928
1 1929
1 1930
1 1931
1 1932
1 1933
1 1934
1 1935
1 1936
1 1937
1 1938
1 1939
1 1940
1 1941
1 1942
1 1943
1 1944
1 1945
1 1946
1 1947
1 1948
1 1949
1 1950
1 1951
1 1952
1 1953
1 1954
1 1955
1 1956
1 1957
1 1958
1 1959
1 1960
1 1961
1 1962
1 1963
1 1964
1 1965
1 1966
1 1967
1 1968
1 1969
1 1970
1 1971
1 1972
1 1973
1 1974
1 1975
1 1976
1 1977
1 1978
1 1979
1 1980
1 1981
1 1982
1 1983
1 1984
1 1985
1 1986
1 1987
1 1988
1 1989
1 1990
1 1991
1 1992
1 1993
1 1994
1 1995
1 1996
1 1997
1 1998
1 1999
1 2000
1 2001
1 2002
1 2003
1 2004
1 2005
1 2006
1 2007
1 2008
1 2009
1 2010
1 2011
1 2012
1 2013
1 2014
1 2015
1 2016
1 2017
1 2018
1 2019
1 2020
1 2021
1 2022
1 2023
1 2024
1 2025
1 2026
1 2027
1 2028
1 2029
1 2030
1 2031
1 2032
1 2033
1 2034
1 2035
1 2036
1 2037
1 2038
1 2039
1 2040
1 2041
1 2042
1 2043
1 2044
1 2045
1 2046
1 2047
1 2048
1 2049
1 2050
1 2051
1 2052
1 2053
1 2054
1 2055
1 2056
1 2057
1 2058
1 2059
1 2060
1 2061
1 2062
1 2063
1 2064
1 2065
1 2066
1 2067
1 2068
1 2069
1 2070
1 2071
1 2072
1 2073
1 2074
1 2075
1 2076
1 2077
1 2078
1 2079
1 2080
1 2081
1 2082
1 2083
1 2084
1 2085
1 2086
1 2087
1 2088
1 2089
1 2090
1 2091
1 2092
1 2093
1 2094
1 2095
1 2096
1 2097
1 2098
1 2099
1 2100
1 2101
1 2102
1 2103
1 2104
1 2105
1 2106
1 2107
1 2108
1 2109
1 2110
1 2111
1 2112
1 2113
1 2114
1 2115
1 2116
1 2117
1 2118
1 2119
1 2120
1 2121
1 2122
1 2123
1 2124
1 2125
1 2126
1 2127
1 2128
1 2129
1 2130
1 2131
1 2132
1 2133
1 2134
1 2135
1 2136
1 2137
1 2138
1 2139
1 2140
1 2141
1 2142
1 2143
1 2144
1 2145
1 2146
1 2147
1 2148
1 2149
1 2150
1 2151
1 2152
1 2153
1 2154
1 2155
1 2156
1 2157
1 2158
1 2159
1 2160
1 2161
1 2162
1 2163
1 2164
1 2165
1 2166
1 2167
1 2168
1 2169
1 2170
1 2171
1 2172
1 2173
1 2174
1 2175
1 2176
1 2177
1 2178
1 2179
1 2180
1 2181
1 2182
1 2183
1 2184
1 2185
1 2186
1 2187
1 2188
1 2189
1 2190
1 2191
1 2192
1 2193
1 2194
1 2195
1 2196
1 2197
1 2198
1 2199
1 2200
1 2201
1 2202
1 2203
1 2204
1 2205
1 2206
1 2207
1 2208
1 2209
1 2210
1 2211
1 2212
1 2213
1 2214
1 2215
1 2216
1 2217
1 2218
1 2219
1 2220
1 2221
1 2222
1 2223
1 2224
1 2225
1 2226
1 2227
1 2228
1 2229
1 2230
1 2231
1 2232
1 2233
1 2234
1 2235
1 2236
1 2237
1 2238
1 2239
1 2240
1 2241
1 2242
1 2243
1 2244
1 2245
1 2246
1 2247
1 2248
1 2249
1 2250
1 2251
1 2252
1 2253
1 2254
1 2255
1 2256
1 2257
1 2258
1 2259
1 2260
1 2261
1 2262
1 2263
1 2264
1 2265
1 2266
1 2267
1 2268
1 2269
1 2270
1 2271
1 2272
1 2273
1 2274
1 2275
1 2276
1 2277
1 2278
1 2279
1 2280
1 2281
1 2282
1 2283
1 2284
1 2285
1 2286
1 2287
1 2288
1 2289
1 2290
1 2291
1 2292
1 2293
1 2294
1 2295
1 2296
1 2297
1 2298
1 2299
1 2300
1 2301
1 2302
1 2303
1 2304
1 2305
1 2306
1 2307
1 2308
1 2309
1 2310
1 2311
1 2312
1 2313
1 2314
1 2315
1 2316
1 2317
1 2318
1 2319
1 2320
1 2321
1 2322
1 2323
1 2324
1 2325
1 2326
1 2327
1 2328
1 2329
1 2330
1 2331
1 2332
1 2333
1 2334
1 2335
1 2336
1 2337
1 2338
1 2339
1 2340
1 2341
1 2342
1 2343
1 2344
1 2345
1 2346
1 2347
1 2348
1 2349
1 2350
1 2351
1 2352
1 2353
1 2354
1 2355
1 2356
1 2357
1 2358
1 2359
1 2360
1 2361
1 2362
1 2363
1 2364
1 2365
1 2366
1 2367
1 2368
1 2369
1 2370
1 2371
1 2372
1 2373
1 2374
1 2375
1 2376
1 2377
1 2378
1 2379
1 2380
1 2381
1 2382
1 2383
1 2384
1 2385
1 2386
1 2387
1 2388
1 2389
1 2390
1 2391
1 2392
1 2393
1 2394
1 2395
1 2396
1 2397
1 2398
1 2399
1 2400
1 2401
1 2402
1 2403
1 2404
1 2405
1 2406
1 2407
1 2408
1 2409
1 2410
1 2411
1 2412
1 2413
1 2414
1 2415
1 2416
1 2417
1 2418
1 2419
1 2420
1 2421
1 2422
1 2423
1 2424
1 2425
1 2426
1 2427
1 2428
1 2429
1 2430
1 2431
1 2432
1 2433
1 2434
1 2435
1 2436
1 2437
1 2438
1 2439
1 2440
1 2441
1 2442
1 2443
1 2444
1 2445
1 2446
1 2447
1 2448
1 2449
1 2450
1 2451
1 2452
1 2453
1 2454
1 2455
1 2456
1 2457
1 2458
1 2459
1 2460
1 2461
1 2462
1 2463
1 2464
1 2465
1 2466
1 2467
1 2468
1 2469
1 2470
1 2471
1 2472
1 2473
1 2474
1 2475
1 2476
1 2477
1 2478
1 2479
1 2480
1 2481
1 2482
1 2483
1 2484
1 2485
1 2486
1 2487
1 2488
1 2489
1 2490
1 2491
1 2492
1 2493
1 2494
1 2495
1 2496
1 2497
1 2498
1 2499
1 2500
1 2501
1 2502
1 2503
1 2504
1 2505
1 2506
1 2507
1 2508
1 2509
1 2510
1 2511
1 2512
1 2513
1 2514
1 2515
1 2516
1 2517
1 2518
1 2519
1 2520
1 2521
1 2522
1 2523
1 2524
1 2525
1 2526
1 2527
1 2528
1 2529
1 2530
1 2531
1 2532
1 2533
1 2534
1 2535
1 2536
1 2537
1 2538
1 2539
1 2540
1 2541
1 2542
1 2543
1 2544
1 2545
1 2546
1 2547
1 2548
1 2549
1 2550
1 2551
1 2552
1 2553
1 2554
1 2555
1 2556
1 2557
1 2558
1 2559
1 2560
1 2561
1 2562
1 2563
1 2564
1 2565
1 2566
1 2567
1 2568
1 2569
1 2570
1 2571
1 2572
1 2573
1 2574
1 2575
1 2576
1 2577
1 2578
1 2579
1 2580
1 2581
1 2582
1 2583
1 2584
1 2585
1 2586
1 2587
1 2588
1 2589
1 2590
1 2591
1 2592
1 2593
1 2594
1 2595
1 2596
1 2597
1 2598
1 2599
1 2600
1 2601
1 2602
1 2603
1 2604
1 2605
1 2606
1 2607
1 2608
1 2609
1 2610
1 2611
1 2612
1 2613
1 2614
1 2615
1 2616
1 2617
1 2618
1 2619
1 2620
1 2621
1 2622
1 2623
1 2624
1 2625
1 2626
1 2627
1 2628
1 2629
1 2630
1 2631
1 2632
1 2633
1 2634
1 2635
1 2636
1 2637
1 2638
1 2639
1 2640
1 2641
1 2642
1 2643
1 2644
1 2645
1 2646
1 2647
1 2648
1 2649
1 2650
1 2651
1 2652
1 2653
1 2654
1 2655
1 2656
1 2657
1 2658
1 2659
1 2660
1 2661
1 2662
1 2663
1 2664
1 2665
1 2666
1 2667
1 2668
1 2669
1 2670
1 2671
1 2672
1 2673
1 2674
1 2675
1 2676
1 2677
1 2678
1 2679
1 2680
1 2681
1 2682
1 2683
1 2684
1 2685
1 2686
1 2687
1 2688
1 2689
1 2690
1 2691
1 2692
1 2693
1 2694
1 2695
1 2696
1 2697
1 2698
1 2699
1 2700
1 2701
1 2702
1 2703
1 2704
1 2705
1 2706
1 2707
1 2708
1 2709
1 2710
1 2711
1 2712
1 2713
1 2714
1 2715
1 2716
1 2717
1 2718
1 2719
1 2720
1 2721
1 2722
1 2723
1 2724
1 2725
1 2726
1 2727
1 2728
1 2729
1 2730
1 2731
1 2732
1 2733
1 2734
1 2735
1 2736
1 2737
1 2738
1 2739
1 2740
1 2741
1 2742
1 2743
1 2744
1 2745
1 2746
1 2747
1 2748
1 2749
1 2750
1 2751
1 2752
1 2753
1 2754
1 2755
1 2756
1 2757
1 2758
1 2759
1 2760
1 2761
1 2762
1 2763
1 2764
1 2765
1 2766
1 2767
1 2768
1 2769
1 2770
1 2771
1 2772
1 2773
1 2774
1 2775
1 2776
1 2777
1 2778
1 2779
1 2780
1 2781
1 2782
1 2783
1 2784
1 2785
1 2786
1 2787
1 2788
1 2789
1 2790
1 2791
1 2792
1 2793
1 2794
1 2795
1 2796
1 2797
1 2798
1 2799
1 2800
1 2801
1 2802
1 2803
1 2804
1 2805
1 2806
1 2807
1 2808
1 2809
1 2810
1 2811
1 2812
1 2813
1 2814
1 2815
1 2816
1 2817
1 2818
1 2819
1 2820
1 2821
1 2822
1 2823
1 2824
1 2825
1 2826
1 2827
1 2828
1 2829
1 2830
1 2831
1 2832
1 2833
1 2834
1 2835
1 2836
1 2837
1 2838
1 2839
1 2840
1 2841
1 2842
1 2843
1 2844
1 2845
1 2846
1 2847
1 2848
1 2849
1 2850
1 2851
1 2852
1 2853
1 2854
1 2855
1 2856
1 2857
1 2858
1 2859
1 2860
1 2861
1 2862
1 2863
1 2864
1 2865
1 2866
1 2867
1 2868
1 2869
1 2870
1 2871
1 2872
1 2873
1 2874
1 2875
1 2876
1 2877
1 2878
1 2879
1 2880
1 2881
1 2882
1 2883
1 2884
1 2885
1 2886
1 2887
1 2888
1 2889
1 2890
1 2891
1 2892
1 2893
1 2894
1 2895
1 2896
1 2897
1 2898
1 2899
1 2900
1 2901
1 2902
1 2903
1 2904
1 2905
1 2906
1 2907
1 2908
1 2909
1 2910
1 2911
1 2912
1 2913
1 2914
1 2915
1 2916
1 2917
1 2918
1 2919
1 2920
1 2921
1 2922
1 2923
1 2924
1 2925
1 2926
1 2927
1 2928
1 2929
1 2930
1 2931
1 2932
1 2933
1 2934
1 2935
1 2936
1 2937
1 2938
1 2939
1 2940
1 2941
1 2942
1 2943
1 2944
1 2945
1 2946
1 2947
1 2948
1 2949
1 2950
1 2951
1 2952
1 2953
1 2954
1 2955
1 2956
1 2957
1 2958
1 2959
1 2960
1 2961
1 2962
1 2963
1 2964
1 2965
1 2966
1 2967
1 2968
1 2969
1 2970
1 2971
1 2972
1 2973
1 2974
1 2975
1 2976
1 2977
1 2978
1 2979
1 2980
1 2981
1 2982
1 2983
1 2984
1 2985
1 2986
1 2987
1 2988
1 2989
1 2990
1 2991
1 2992
1 2993
1 2994
1 2995
1 2996
1 2997
1 2998
1 2999
1 3000
1 3001
1 3002
1 3003
1 3004
1 3005
1 3006
1 3007
1 3008
1 3009
1 3010
1 3011
1 3012
1 3013
1 3014
1 3015
1 3016
1 3017
1 3018
1 3019
1 3020
1 3021
1 3022
1 3023
1 3024
1 3025
1 3026
1 3027
1 3028
1 3029
1 3030
1 3031
1 3032
1 3033
1 3034
1 3035
1 3036
1 3037
1 3038
1 3039
1 3040
1 3041
1 3042
1 3043
1 3044
1 3045
1 3046
1 3047
1 3048
1 3049
1 3050
1 3051
1 3052
1 3053
1 3054
1 3055
1 3056
1 3057
1 3058
1 3059
1 3060
1 3061
1 3062
1 3063
1 3064
1 3065
1 3066
1 3067
1 3068
1 3069
1 3070
1 3071
1 3072
1 3073
1 3074
1 3075
1 3076
1 3077
1 3078
1 3079
1 3080
1 3081
1 3082
1 3083
1 3084
1 3085
1 3086
1 3087
1 3088
1 3089
1 3090
1 3091
1 3092
1 3093
1 3094
1 3095
1 3096
1 3097
1 3098
1 3099
1 3100
1 3101
1 3102
1 3103
1 3104
1 3105
1 3106
1 3107
1 3108
1 3109
1 3110
1 3111
1 3112
1 3113
1 3114
1 3115
1 3116
1 3117
1 3118
1 3119
1 3120
1 3121
1 3122
1 3123
1 3124
1 3125
1 3126
1 3127
1 3128
1 3129
1 3130
1 3131
1 3132
1 3133
1 3134
1 3135
1 3136
1 3137
1 3138
1 3139
1 3140
1 3141
1 3142
1 3143
1 3144
1 3145
1 3146
1 3147
1 3148
1 3149
1 3150
1 3151
1 3152
1 3153
1 3154
1 3155
1 3156
1 3157
1 3158
1 3159
1 3160
1 3161
1 3162
1 3163
1 3164
1 3165
1 3166
1 3167
1 3168
1 3169
1 3170
1 3171
1 3172
1 3173
1 3174
1 3175
1 3176
1 3177
1 3178
1 3179
1 3180
1 3181
1 3182
1 3183
1 3184
1 3185
1 3186
1 3187
1 3188
1 3189
1 3190
1 3191
1 3192
1 3193
1 3194
1 3195
1 3196
1 3197
1 3198
1 3199
1 3200
1 3201
1 3202
1 3203
1 3204
1 3205
1 3206
1 3207
1 3208
1 3209
1 3210
1 3211
1 3212
1 3213
1 3214
1 3215
1 3216
1 3217
1 3218
1 3219
1 3220
1 3221
1 3222
1 3223
1 3224
1 3225
1 3226
1 3227
1 3228
1 3229
1 3230
1 3231
1 3232
1 3233
1 3234
1 3235
1 3236
1 3237
1 3238
1 3239
1 3240
1 3241
1 3242
1 3243
1 3244
1 3245
1 3246
1 3247
1 3248
1 3249
1 3250
1 3251
1 3252
1 3253
1 3254
1 3255
1 3256
1 3257
1 3258
1 3259
1 3260
1 3261
1 3262
1 3263
1 3264
1 3265
1 3266
1 3267
1 3268
1 3269
1 3270
1 3271
1 3272
1 3273
1 3274
1 3275
1 3276
1 3277
1 3278
1 3279
1 3280
1 3281
1 3282
1 3283
1 3284
1 3285
1 3286
1 3287
1 3288
1 3289
1 3290
1 3291
1 3292
1 3293
1 3294
1 3295
1 3296
1 3297
1 3298
1 3299
1 3300
1 3301
1 3302
1 3303
1 3304
1 3305
1 3306
1 3307
1 3308
1 3309
1 3310
1 3311
1 3312
1 3313
1 3314
1 3315
1 3316
1 3317
1 3318
1 3319
1 3320
1 3321
1 3322
1 3323
1 3324
1 3325
1 3326
1 3327
1 3328
1 3329
1 3330
1 3331
1 3332
1 3333
1 3334
1 3335
1 3336
1 3337
1 3338
1 3339
1 3340
1 3341
1 3342
1 3343
1 3344
1 3345
1 3346
1 3347
1 3348
1 3349
1 3350
1 3351
1 3352
1 3353
1 3354
1 3355
1 3356
1 3357
1 3358
1 3359
1 3360
1 3361
1 3362
1 3363
1 3364
1 3365
1 3366
1 3367
1 3368
1 3369
1 3370
1 3371
1 3372
1 3373
1 3374
1 3375
1 3376
1 3377
1 3378
1 3379
1 3380
1 3381
1 3382
1 3383
1 3384
1 3385
1 3386
1 3387
1 3388
1 3389
1 3390
1 3391
1 3392
1 3393
1 3394
1 3395
1 3396
1 3397
1 3398
1 3399
1 3400
1 3401
1 3402
1 3403
1 3404
1 3405
1 3406
1 3407
1 3408
1 3409
1 3410
1 3411
1 3412
1 3413
1 3414
1 3415
1 3416
1 3417
1 3418
1 3419
1 3420
1 3421
1 3422
1 3423
1 3424
1 3425
1 3426
1 3427
1 3428
1 3429
1 3430
1 3431
1 3432
1 3433
1 3434
1 3435
1 3436
1 3437
1 3438
1 3439
1 3440
1 3441
1 3442
1 3443
1 3444
1 3445
1 3446
1 3447
1 3448
1 3449
1 3450
1 3451
1 3452
1 3453
1 3454
1 3455
1 3456
1 3457
1 3458
1 3459
1 3460
1 3461
1 3462
1 3463
1 3464
1 3465
1 3466
1 3467
1 3468
1 3469
1 3470
1 3471
1 3472
1 3473
1 3474
1 3475
1 3476
1 3477
1 3478
1 3479
1 3480
1 3481
1 3482
1 3483
1 3484
1 3485
1 3486
1 3487
1 3488
1 3489
1 3490
1 3491
1 3492
1 3493
1 3494
1 3495
1 3496
1 3497
1 3498
1 3499
1 3500
1 3501
1 3502
1 3503
1 3504
1 3505
1 3506
1 3507
1 3508
1 3509
1 3510
1 3511
1 3512
1 3513
1 3514
1 3515
1 3516
1 3517
1 3518
1 3519
1 3520
1 3521
1 3522
1 3523
1 3524
1 3525
1 3526
1 3527
1 3528
1 3529
1 3530
1 3531
1 3532
1 3533
1 3534
1 3535
1 3536
1 3537
1 3538
1 3539
1 3540
1 3541
1 3542
1 3543
1 3544
1 3545
1 3546
1 3547
1 3548
1 3549
1 3550
1 3551
1 3552
1 3553
1 3554
1 3555
1 3556
1 3557
1 3558
1 3559
1 3560
1 3561
1 3562
1 3563
1 3564
1 3565
1 3566
1 3567
1 3568
1 3569
1 3570
1 3571
1 3572
1 3573
1 3574
1 3575
1 3576
1 3577
1 3578
1 3579
1 3580
1 3581
1 3582
1 3583
1 3584
1 3585
1 3586
1 3587
1 3588
1 3589
1 3590
1 3591
1 3592
1 3593
1 3594
1 3595
1 3596
1 3597
1 3598
1 3599
1 3600
1 3601
1 3602
1 3603
1 3604
1 3605
1 3606
1 3607
1 3608
1 3609
1 3610
1 3611
1 3612
1 3613
1 3614
1 3615
1 3616
1 3617
1 3618
1 3619
1 3620
1 3621
1 3622
1 3623
1 3624
1 3625
1 3626
1 3627
1 3628
1 3629
1 3630
1 3631
1 3632
1 3633
1 3634
1 3635
1 3636
1 3637
1 3638
1 3639
1 3640
1 3641
1 3642
1 3643
1 3644
1 3645
1 3646
1 3647
1 3648
1 3649
1 3650
1 3651
1 3652
1 3653
1 3654
1 3655
1 3656
1 3657
1 3658
1 3659
1 3660
1 3661
1 3662
1 3663
1 3664
1 3665
1 3666
1 3667
1 3668
1 3669
1 3670
1 3671
1 3672
1 3673
1 3674
1 3675
1 3676
1 3677
1 3678
1 3679
1 3680
1 3681
1 3682
1 3683
1 3684
1 3685
1 3686
1 3687
1 3688
1 3689
1 3690
1 3691
1 3692
1 3693
1 3694
1 3695
1 3696
1 3697
1 3698
1 3699
1 3700
1 3701
1 3702
1 3703
1 3704
1 3705
1 3706
1 3707
1 3708
1 3709
1 3710
1 3711
1 3712
1 3713
1 3714
1 3715
1 3716
1 3717
1 3718
1 3719
1 3720
1 3721
1 3722
1 3723
1 3724
1 3725
1 3726
1 3727
1 3728
1 3729
1 3730
1 3731
1 3732
1 3733
1 3734
1 3735
1 3736
1 3737
1 3738
1 3739
1 3740
1 3741
1 3742
1 3743
1 3744
1 3745
1 3746
1 3747
1 3748
1 3749
1 3750
1 3751
1 3752
1 3753
1 3754
1 3755
1 3756
1 3757
1 3758
1 3759
1 3760
1 3761
1 3762
1 3763
1 3764
1 3765
1 3766
1 3767
1 3768
1 3769
1 3770
1 3771
1 3772
1 3773
1 3774
1 3775
1 3776
1 3777
1 3778
1 3779
1 3780
1 3781
1 3782
1 3783
1 3784
1 3785
1 3786
1 3787
1 3788
1 3789
1 3790
1 3791
1 3792
1 3793
1 3794
1 3795
1 3796
1 3797
1 3798
1 3799
1 3800
1 3801
1 3802
1 3803
1 3804
1 3805
1 3806
1 3807
1 3808
1 3809
1 3810
1 3811
1 3812
1 3813
1 3814
1 3815
1 3816
1 3817
1 3818
1 3819
1 3820
1 3821
1 3822
1 3823
1 3824
1 3825
1 3826
1 3827
1 3828
1 3829
1 3830
1 3831
1 3832
1 3833
1 3834
1 3835
1 3836
1 3837
1 3838
1 3839
1 3840
1 3841
1 3842
1 3843
1 3844
1 3845
1 3846
1 3847
1 3848
1 3849
1 3850
1 3851
1 3852
1 3853
1 3854
1 3855
1 3856
1 3857
1 3858
1 3859
1 3860
1 3861
1 3862
1 3863
1 3864
1 3865
1 3866
1 3867
1 3868
1 3869
1 3870
1 3871
1 3872
1 3873
1 3874
1 3875
1 3876
1 3877
1 3878
1 3879
1 3880
1 3881
1 3882
1 3883
1 3884
1 3885
1 3886
1 3887
1 3888
1 3889
1 3890
1 3891
1 3892
1 3893
1 3894
1 3895
1 3896
1 3897
1 3898
1 3899
1 3900
1 3901
1 3902
1 3903
1 3904
1 3905
1 3906
1 3907
1 3908
1 3909
1 3910
1 3911
1 3912
1 3913
1 3914
1 3915
1 3916
1 3917
1 3918
1 3919
1 3920
1 3921
1 3922
1 3923
1 3924
1 3925
1 3926
1 3927
1 3928
1 3929
1 3930
1 3931
1 3932
1 3933
1 3934
1 3935
1 3936
1 3937
1 3938
1 3939
1 3940
1 3941
1 3942
1 3943
1 3944
1 3945
1 3946
1 3947
1 3948
1 3949
1 3950
1 3951
1 3952
1 3953
1 3954
1 3955
1 3956
1 3957
1 3958
1 3959
1 3960
1 3961
1 3962
1 3963
1 3964
1 3965
1 3966
1 3967
1 3968
1 3969
1 3970
1 3971
1 3972
1 3973
1 3974
1 3975
1 3976
1 3977
1 3978
1 3979
1 3980
1 3981
1 3982
1 3983
1 3984
1 3985
1 3986
1 3987
1 3988
1 3989
1 3990
1 3991
1 3992
1 3993
1 3994
1 3995
1 3996
1 3997
1 3998
1 3999
1 4000
1 4001
1 4002
1 4003
1 4004
1 4005
1 4006
1 4007
1 4008
1 4009
1 4010
1 4011
1 4012
1 4013
1 4014
1 4015
1 4016
1 4017
1 4018
1 4019
1 4020
1 4021
1 4022
1 4023
1 4024
1 4025
1 4026
1 4027
1 4028
1 4029
1 4030
1 4031
1 4032
1 4033
1 4034
1 4035
1 4036
1 4037
1 4038
1 4039
1 4040
1 4041
1 4042
1 4043
1 4044
1 4045
1 4046
1 4047
1 4048
1 4049
1 4050
1 4051
1 4052
1 4053
1 4054
1 4055
1 4056
1 4057
1 4058
1 4059
1 4060
1 4061
1 4062
1 4063
1 4064
1 4065
1 4066
1 4067
1 4068
1 4069
1 4070
1 4071
1 4072
1 4073
1 4074
1 4075
1 4076
1 4077
1 4078
1 4079
1 4080
1 4081
1 4082
1 4083
1 4084
1 4085
1 4086
1 4087
1 4088
1 4089
1 4090
1 4091
1 4092
1 4093
1 4094
1 4095
1 4096
1 4097
1 4098
1 4099
1 4100
1 4101
1 4102
1 4103
1 4104
1 4105
1 4106
1 4107
1 4108
1 4109
1 4110
1 4111
1 4112
1 4113
1 4114
1 4115
1 4116
1 4117
1 4118
1 4119
1 4120
1 4121
1 4122
1 4123
1 4124
1 4125
1 4126
1 4127
1 4128
1 4129
1 4130
1 4131
1 4132
1 4133
1 4134
1 4135
1 4136
1 4137
1 4138
1 4139
1 4140
1 4141
1 4142
1 4143
1 4144
1 4145
1 4146
1 4147
1 4148
1 4149
1 4150
1 4151
1 4152
1 4153
1 4154
1 4155
1 4156
1 4157
1 4158
1 4159
1 4160
1 4161
1 4162
1 4163
1 4164
1 4165
1 4166
1 4167
1 4168
1 4169
1 4170
1 4171
1 4172
1 4173
1 4174
1 4175
1 4176
1 4177
1 4178
1 4179
1 4180
1 4181
1 4182
1 4183
1 4184
1 4185
1 4186
1 4187
1 4188
1 4189
1 4190
1 4191
1 4192
1 4193
1 4194
1 4195
1 4196
1 4197
1 4198
1 4199
1 4200
1 4201
1 4202
1 4203
1 4204
1 4205
1 4206
1 4207
1 4208
1 4209
1 4210
1 4211
1 4212
1 4213
1 4214
1 4215
1 4216
1 4217
1 4218
1 4219
1 4220
1 4221
1 4222
1 4223
1 4224
1 4225
1 4226
1 4227
1 4228
1 4229
1 4230
1 4231
1 4232
1 4233
1 4234
1 4235
1 4236
1 4237
1 4238
1 4239
1 4240
1 4241
1 4242
1 4243
1 4244
1 4245
1 4246
1 4247
1 4248
1 4249
1 4250
1 4251
1 4252
1 4253
1 4254
1 4255
1 4256
1 4257
1 4258
1 4259
1 4260
1 4261
1 4262
1 4263
1 4264
1 4265
1 4266
1 4267
1 4268
1 4269
1 4270
1 4271
1 4272
1 4273
1 4274
1 4275
1 4276
1 4277
1 4278
1 4279
1 4280
1 4281
1 4282
1 4283
1 4284
1 4285
1 4286
1 4287
1 4288
1 4289
1 4290
1 4291
1 4292
1 4293
1 4294
1 4295
1 4296
1 4297
1 4298
1 4299
1 4300
1 4301
1 4302
1 4303
1 4304
1 4305
1 4306
1 4307
1 4308
1 4309
1 4310
1 4311
1 4312
1 4313
1 4314
1 4315
1 4316
1 4317
1 4318
1 4319
1 4320
1 4321
1 4322
1 4323
1 4324
1 4325
1 4326
1 4327
1 4328
1 4329
1 4330
1 4331
1 4332
1 4333
1 4334
1 4335
1 4336
1 4337
1 4338
1 4339
1 4340
1 4341
1 4342
1 4343
1 4344
1 4345
1 4346
1 4347
1 4348
1 4349
1 4350
1 4351
1 4352
1 4353
1 4354
1 4355
1 4356
1 4357
1 4358
1 4359
1 4360
1 4361
1 4362
1 4363
1 4364
1 4365
1 4366
1 4367
1 4368
1 4369
1 4370
1 4371
1 4372
1 4373
1 4374
1 4375
1 4376
1 4377
1 4378
1 4379
1 4380
1 4381
1 4382
1 4383
1 4384
1 4385
1 4386
1 4387
1 4388
1 4389
1 4390
1 4391
1 4392
1 4393
1 4394
1 4395
1 4396
1 4397
1 4398
1 4399
1 4400
1 4401
1 4402
1 4403
1 4404
1 4405
1 4406
1 4407
1 4408
1 4409
1 4410
1 4411
1 4412
1 4413
1 4414
1 4415
1 4416
1 4417
1 4418
1 4419
1 4420
1 4421
1 4422
1 4423
1 4424
1 4425
1 4426
1 4427
1 4428
1 4429
1 4430
1 4431
1 4432
1 4433
1 4434
1 4435
1 4436
1 4437
1 4438
1 4439
1 4440
1 4441
1 4442
1 4443
1 4444
1 4445
1 4446
1 4447
1 4448
1 4449
1 4450
1 4451
1 4452
1 4453
1 4454
1 4455
1 4456
1 4457
1 4458
1 4459
1 4460
1 4461
1 4462
1 4463
1 4464
1 4465
1 4466
1 4467
1 4468
1 4469
1 4470
1 4471
1 4472
1 4473
1 4474
1 4475
1 4476
1 4477
1 4478
1 4479
1 4480
1 4481
1 4482
1 4483
1 4484
1 4485
1 4486
1 4487
1 4488
1 4489
1 4490
1 4491
1 4492
1 4493
1 4494
1 4495
1 4496
1 4497
1 4498
1 4499
1 4500
1 4501
1 4502
1 4503
1 4504
1 4505
1 4506
1 4507
1 4508
1 4509
1 4510
1 4511
1 4512
1 4513
1 4514
1 4515
1 4516
1 4517
1 4518
1 4519
1 4520
1 4521
1 4522
1 4523
1 4524
1 4525
1 4526
1 4527
1 4528
1 4529
1 4530
1 4531
1 4532
1 4533
1 4534
1 4535
1 4536
1 4537
1 4538
1 4539
1 4540
1 4541
1 4542
1 4543
1 4544
1 4545
1 4546
1 4547
1 4548
1 4549
1 4550
1 4551
1 4552
1 4553
1 4554
1 4555
1 4556
1 4557
1 4558
1 4559
1 4560
1 4561
1 4562
1 4563
1 4564
1 4565
1 4566
1 4567
1 4568
1 4569
1 4570
1 4571
1 4572
1 4573
1 4574
1 4575
1 4576
1 4577
1 4578
1 4579
1 4580
1 4581
1 4582
1 4583
1 4584
1 4585
1 4586
1 4587
1 4588
1 4589
1 4590
1 4591
1 4592
1 4593
1 4594
1 4595
1 4596
1 4597
1 4598
1 4599
1 4600
1 4601
1 4602
1 4603
1 4604
1 4605
1 4606
1 4607
1 4608
1 4609
1 4610
1 4611
1 4612
1 4613
1 4614
1 4615
1 4616
1 4617
1 4618
1 4619
1 4620
1 4621
1 4622
1 4623
1 4624
1 4625
1 4626
1 4627
1 4628
1 4629
1 4630
1 4631
1 4632
1 4633
1 4634
1 4635
1 4636
1 4637
1 4638
1 4639
1 4640
1 4641
1 4642
1 4643
1 4644
1 4645
1 4646
1 4647
1 4648
1 4649
1 4650
1 4651
1 4652
1 4653
1 4654
1 4655
1 4656
1 4657
1 4658
1 4659
1 4660
1 4661
1 4662
1 4663
1 4664
1 4665
1 4666
1 4667
1 4668
1 4669
1 4670
1 4671
1 4672
1 4673
1 4674
1 4675
1 4676
1 4677
1 4678
1 4679
1 4680
1 4681
1 4682
1 4683
1 4684
1 4685
1 4686
1 4687
1 4688
1 4689
1 4690
1 4691
1 4692
1 4693
1 4694
1 4695
1 4696
1 4697
1 4698
1 4699
1 4700
1 4701
1 4702
1 4703
1 4704
1 4705
1 4706
1 4707
1 4708
1 4709
1 4710
1 4711
1 4712
1 4713
1 4714
1 4715
1 4716
1 4717
1 4718
1 4719
1 4720
1 4721
1 4722
1 4723
1 4724
1 4725
1 4726
1 4727
1 4728
1 4729
1 4730
1 4731
1 4732
1 4733
1 4734
1 4735
1 4736
1 4737
1 4738
1 4739
1 4740
1 4741
1 4742
1 4743
1 4744
1 4745
1 4746
1 4747
1 4748
1 4749
1 4750
1 4751
1 4752
1 4753
1 4754
1 4755
1 4756
1 4757
1 4758
1 4759
1 4760
1 4761
1 4762
1 4763
1 4764
1 4765
1 4766
1 4767
1 4768
1 4769
1 4770
1 4771
1 4772
1 4773
1 4774
1 4775
1 4776
1 4777
1 4778
1 4779
1 4780
1 4781
1 4782
1 4783
1 4784
1 4785
1 4786
1 4787
1 4788
1 4789
1 4790
1 4791
1 4792
1 4793
1 4794
1 4795
1 4796
1 4797
1 4798
1 4799
1 4800
1 4801
1 4802
1 4803
1 4804
1 4805
1 4806
1 4807
1 4808
1 4809
1 4810
1 4811
1 4812
1 4813
1 4814
1 4815
1 4816
1 4817
1 4818
1 4819
1 4820
1 4821
1 4822
1 4823
1 4824
1 4825
1 4826
1 4827
1 4828
1 4829
1 4830
1 4831
1 4832
1 4833
1 4834
1 4835
1 4836
1 4837
1 4838
1 4839
1 4840
1 4841
1 4842
1 4843
1 4844
1 4845
1 4846
1 4847
1 4848
1 4849
1 4850
1 4851
1 4852
1 4853
1 4854
1 4855
1 4856
1 4857
1 4858
1 4859
1 4860
1 4861
1 4862
1 4863
1 4864
1 4865
1 4866
1 4867
1 4868
1 4869
1 4870
1 4871
1 4872
1 4873
1 4874
1 4875
1 4876
1 4877
1 4878
1 4879
1 4880
1 4881
1 4882
1 4883
1 4884
1 4885
1 4886
1 4887
1 4888
1 4889
1 4890
1 4891
1 4892
1 4893
1 4894
1 4895
1 4896
1 4897
1 4898
1 4899
1 4900
1 4901
1 4902
1 4903
1 4904
1 4905
1 4906
1 4907
1 4908
1 4909
1 4910
1 4911
1 4912
1 4913
1 4914
1 4915
1 4916
1 4917
1 4918
1 4919
1 4920
1 4921
1 4922
1 4923
1 4924
1 4925
1 4926
1 4927
1 4928
1 4929
1 4930
1 4931
1 4932
1 4933
1 4934
1 4935
1 4936
1 4937
1 4938
1 4939
1 4940
1 4941
1 4942
1 4943
1 4944
1 4945
1 4946
1 4947
1 4948
1 4949
1 4950
1 4951
1 4952
1 4953
1 4954
1 4955
1 4956
1 4957
1 4958
1 4959
1 4960
1 4961
1 4962
1 4963
1 4964
1 4965
1 4966
1 4967
1 4968
1 4969
1 4970
1 4971
1 4972
1 4973
1 4974
1 4975
1 4976
1 4977
1 4978
1 4979
1 4980
1 4981
1 4982
1 4983
1 4984
1 4985
1 4986
1 4987
1 4988
1 4989
1 4990
1 4991
1 4992
1 4993
1 4994
1 4995
1 4996
1 4997
1 4998
1 4999
CELL_TYPES 5000
1 
1 
1 
1 
1 
1 
1 
1 
1 
1 
1 
1 
1 
1 
1 
1 
1 
1 
1 
1 
1 
1 
1 
1 
1 
1 
1 
1 
1 
1 
1 
1 
1 
1 
1 
1 
1 
1 
1 
1 
1 
1 
1 
1 
1 
1 
1 
1 
1 
1 
1 
1 
1 
1 
1 
1 
1 
1 
1 
1 
1 
1 
1 
1 
1 
1 
1 
1 
1 
1 
1 
1 
1 
1 
1 
1 
1 
1 
1 
1 
1 
1 
1 
1 
1 
1 
1 
1 
1 
1 
1 
1 
1 
1 
1 
1 
1 
1 
1 
1 
1 
1 
1 
1 
1 
1 
1 
1 
1 
1 
1 
1 
1 
1 
1 
1 
1 
1 
1 
1 
1 
1 
1 
1 
1 
1 
1 
1 
1 
1 
1 
1 
1 
1 
1 
1 
1 
1 
1 
1 
1 
1 
1 
1 
1 
1 
1 
1 
1 
1 
1 
1 
1 
1 
1 
1 
1 
1 
1 
1 
1 
1 
1 
1 
1 
1 
1 
1 
1 
1 
1 
1 
1 
1 
1 
1 
1 
1 
1 
1 
1 
1 
1 
1 
1 
1 
1 
1 
1 
1 
1 
1 
1 
1 
1 
1 
1 
1 
1 
1 
1 
1 
1 
1 
1 
1 
1 
1 
1 
1 
1 
1 
1 
1 
1 
1 
1 
1 
1 
1 
1 
1 
1 
1 
1 
1 
1 
1 
1 
1 
1 
1 
1 
1 
1 
1 
1 
1 
1 
1 
1 
1 
1 
1 
1 
1 
1 
1 
1 
1 
1 
1 
1 
1 
1 
1 
1 
1 
1 
1 
1 
1 
1 
1 
1 
1 
1 
1 
1 
1 
1 
1 
1 
1 
1 
1 
1 
1 
1 
1 
1 
1 
1 
1 
1 
1 
1 
1 
1 
1 
1 
1 
1 
1 
1 
1 
1 
1 
1 
1 
1 
1 
1 
1 
1 
1 
1 
1 
1 
1 
1 
1 
1 
1 
1 
1 
1 
1 
1 
1 
1 
1 
1 
1 
1 
1 
1 
1 
1 
1 
1 
1 
1 
1 
1 
1 
1 
1 
1 
1 
1 
1 
1 
1 
1 
1 
1 
1 
1 
1 
1 
1 
1 
1 
1 
1 
1 
1 
1 
1 
1 
1 
1 
1 
1 
1 
1 
1 
1 
1 
1 
1 
1 
1 
1 
1 
1 
1 
1 
1 
1 
1 
1 
1 
1 
1 
1 
1 
1 
1 
1 
1 
1 
1 
1 
1 
1 
1 
1 
1 
1 
1 
1 
1 
1 
1 
1 
1 
1 
1 
1 
1 
1 
1 
1 
1 
1 
1 
1 
1 
1 
1 
1 
1 
1 
1 
1 
1 
1 
1 
1 
1 
1 
1 
1 
1 
1 
1 
1 
1 
1 
1 
1 
1 
1 
1 
1 
1 
1 
1 
1 
1 
1 
1 
1 
1 
1 
1 
1 
1 
1 
1 
1 
1 
1 
1 
1 
1 
1 
1 
1 
1 
1 
1 
1 
1 
1 
1 
1 
1 
1 
1 
1 
1 
1 
1 
1 
1 
1 
1 
1 
1 
1 
1 
1 
1 
1 
1 
1 
1 
1 
1 
1 
1 
1 
1 
1 
1 
1 
1 
1 
1 
1 
1 
1 
1 
1 
1 
1 
1 
1 
1 
1 
1 
1 
1 
1 
1 
1 
1 
1 
1 
1 
1 
1 
1 
1 
1 
1 
1 
1 
1 
1 
1 
1 
1 
1 
1 
1 
1 
1 
1 
1 
1 
1 
1 
1 
1 
1 
1 
1 
1 
1 
1 
1 
1 
1 
1 
1 
1 
1 
1 
1 
1 
1 
1 
1 
1 
1 
1 
1 
1 
1 
1 
1 
1 
1 
1 
1 
1 
1 
1 
1 
1 
1 
1 
1 
1 
1 
1 
1 
1 
1 
1 
1 
1 
1 
1 
1 
1 
1 
1 
1 
1 
1 
1 
1 
1 
1 
1 
1 
1 
1 
1 
1 
1 
1 
1 
1 
1 
1 
1 
1 
1 
1 
1 
1 
1 
1 
1 
1 
1 
1 
1 
1 
1 
1 
1 
1 
1 
1 
1 
1 
1 
1 
1 
1 
1 
1 
1 
1 
1 
1 
1 
1 
1 
1 
1 
1 
1 
1 
1 
1 
1 
1 
1 
1 
1 
1 
1 
1 
1 
1 
1 
1 
1 
1 
1 
1 
1 
1 
1 
1 
1 
1 
1 
1 
1 
1 
1 
1 
1 
1 
1 
1 
1 
1 
1 
1 
1 
1 
1 
1 
1 
1 
1 
1 
1 
1 
1 
1 
1 
1 
1 
1 
1 
1 
1 
1 
1 
1 
1 
1 
1 
1 
1 
1 
1 
1 
1 
1 
1 
1 
1 
1 
1 
1 
1 
1 
1 
1 
1 
1 
1 
1 
1 
1 
1 
1 
1 
1 
1 
1 
1 
1 
1 
1 
1 
1 
1 
1 
1 
1 
1 
1 
1 
1 
1 
1 
1 
1 
1 
1 
1 
1 
1 
1 
1 
1 
1 
1 
1 
1 
1 
1 
1 
1 
1 
1 
1 
1 
1 
1 
1 
1 
1 
1 
1 
1 
1 
1 
1 
1 
1 
1 
1 
1 
1 
1 
1 
1 
1 
1 
1 
1 
1 
1 
1 
1 
1 
1 
1 
1 
1 
1 
1 
1 
1 
1 
1 
1 
1 
1 
1 
1 
1 
1 
1 
1 
1 
1 
1 
1 
1 
1 
1 
1 
1 
1 
1 
1 
1 
1 
1 
1 
1 
1 
1 
1 
1 
1 
1 
1 
1 
1 
1 
1 
1 
1 
1 
1 
1 
1 
1 
1 
1 
1 
1 
1 
1 
1 
1 
1 
1 
1 
1 
1 
1 
1 
1 
1 
1 
1 
1 
1 
1 
1 
1 
1 
1 
1 
1 
1 
1 
1 
1 
1 
1 
1 
1 
1 
1 
1 
1 
1 
1 
1 
1 
1 
1 
1 
1 
1 
1 
1 
1 
1 
1 
1 
1 
1 
1 
1 
1 
1 
1 
1 
1 
1 
1 
1 
1 
1 
1 
1 
1 
1 
1 
1 
1 
1 
1 
1 
1 
1 
1 
1 
1 
1 
1 
1 
1 
1 
1 
1 
1 
1 
1 
1 
1 
1 
1 
1 
1 
1 
1 
1 
1 
1 
1 
1 
1 
1 
1 
1 
1 
1 
1 
1 
1 
1 
1 
1 
1 
1 
1 
1 
1 
1 
1 
1 
1 
1 
1 
1 
1 
1 
1 
1 
1 
1 
1 
1 
1 
1 
1 
1 
1 
1 
1 
1 
1 
1 
1 
1 
1 
1 
1 
1 
1 
1 
1 
1 
1 
1 
1 
1 
1 
1 
1 
1 
1 
1 
1 
1 
1 
1 
1 
1 
1 
1 
1 
1 
1 
1 
1 
1 
1 
1 
1 
1 
1 
1 
1 
1 
1 
1 
1 
1 
1 
1 
1 
1 
1 
1 
1 
1 
1 
1 
1 
1 
1 
1 
1 
1 
1 
1 
1 
1 
1 
1 
1 
1 
1 
1 
1 
1 
1 
1 
1 
1 
1 
1 
1 
1 
1 
1 
1 
1 
1 
1 
1 
1 
1 
1 
1 
1 
1 
1 
1 
1 
1 
1 
1 
1 
1 
1 
1 
1 
1 
1 
1 
1 
1 
1 
1 
1 
1 
1 
1 
1 
1 
1 
1 
1 
1 
1 
1 
1 
1 
1 
1 
1 
1 
1 
1 
1 
1 
1 
1 
1 
1 
1 
1 
1 
1 
1 
1 
1 
1 
1 
1 
1 
1 
1 
1 
1 
1 
1 
1 
1 
1 
1 
1 
1 
1 
1 
1 
1 
1 
1 
1 
1 
1 
1 
1 
1 
1 
1 
1 
1 
1 
1 
1 
1 
1 
1 
1 
1 
1 
1 
1 
1 
1 
1 
1 
1 
1 
1 
1 
1 
1 
1 
1 
1 
1 
1 
1 
1 
1 
1 
1 
1 
1 
1 
1 
1 
1 
1 
1 
1 
1 
1 
1 
1 
1 
1 
1 
1 
1 
1 
1 
1 
1 
1 
1 
1 
1 
1 
1 
1 
1 
1 
1 
1 
1 
1 
1 
1 
1 
1 
1 
1 
1 
1 
1 
1 
1 
1 
1 
1 
1 
1 
1 
1 
1 
1 
1 
1 
1 
1 
1 
1 
1 
1 
1 
1 
1 
1 
1 
1 
1 
1 
1 
1 
1 
1 
1 
1 
1 
1 
1 
1 
1 
1 
1 
1 
1 
1 
1 
1 
1 
1 
1 
1 
1 
1 
1 
1 
1 
1 
1 
1 
1 
1 
1 
1 
1 
1 
1 
1 
1 
1 
1 
1 
1 
1 
1 
1 
1 
1 
1 
1 
1 
1 
1 
1 
1 
1 
1 
1 
1 
1 
1 
1 
1 
1 
1 
1 
1 
1 
1 
1 
1 
1 
1 
1 
1 
1 
1 
1 
1 
1 
1 
1 
1 
1 
1 
1 
1 
1 
1 
1 
1 
1 
1 
1 
1 
1 
1 
1 
1 
1 
1 
1 
1 
1 
1 
1 
1 
1 
1 
1 
1 
1 
1 
1 
1 
1 
1 
1 
1 
1 
1 
1 
1 
1 
1 
1 
1 
1 
1 
1 
1 
1 
1 
1 
1 
1 
1 
1 
1 
1 
1 
1 
1 
1 
1 
1 
1 
1 
1 
1 
1 
1 
1 
1 
1 
1 
1 
1 
1 
1 
1 
1 
1 
1 
1 
1 
1 
1 
1 
1 
1 
1 
1 
1 
1 
1 
1 
1 
1 
1 
1 
1 
1 
1 
1 
1 
1 
1 
1 
1 
1 
1 
1 
1 
1 
1 
1 
1 
1 
1 
1 
1 
1 
1 
1 
1 
1 
1 
1 
1 
1 
1 
1 
1 
1 
1 
1 
1 
1 
1 
1 
1 
1 
1 
1 
1 
1 
1 
1 
1 
1 
1 
1 
1 
1 
1 
1 
1 
1 
1 
1 
1 
1 
1 
1 
1 
1 
1 
1 
1 
1 
1 
1 
1 
1 
1 
1 
1 
1 
1 
1 
1 
1 
1 
1 
1 
1 
1 
1 
1 
1 
1 
1 
1 
1 
1 
1 
1 
1 
1 
1 
1 
1 
1 
1 
1 
1 
1 
1 
1 
1 
1 
1 
1 
1 
1 
1 
1 
1 
1 
1 
1 
1 
1 
1 
1 
1 
1 
1 
1 
1 
1 
1 
1 
1 
1 
1 
1 
1 
1 
1 
1 
1 
1 
1 
1 
1 
1 
1 
1 
1 
1 
1 
1 
1 
1 
1 
1 
1 
1 
1 
1 
1 
1 
1 
1 
1 
1 
1 
1 
1 
1 
1 
1 
1 
1 
1 
1 
1 
1 
1 
1 
1 
1 
1 
1 
1 
1 
1 
1 
1 
1 
1 
1 
1 
1 
1 
1 
1 
1 
1 
1 
1 
1 
1 
1 
1 
1 
1 
1 
1 
1 
1 
1 
1 
1 
1 
1 
1 
1 
1 
1 
1 
1 
1 
1 
1 
1 
1 
1 
1 
1 
1 
1 
1 
1 
1 
1 
1 
1 
1 
1 
1 
1 
1 
1 
1 
1 
1 
1 
1 
1 
1 
1 
1 
1 
1 
1 
1 
1 
1 
1 
1 
1 
1 
1 
1 
1 
1 
1 
1 
1 
1 
1 
1 
1 
1 
1 
1 
1 
1 
1 
1 
1 
1 
1 
1 
1 
1 
1 
1 
1 
1 
1 
1 
1 
1 
1 
1 
1 
1 
1 
1 
1 
1 
1 
1 
1 
1 
1 
1 
1 
1 
1 
1 
1 
1 
1 
1 
1 
1 
1 
1 
1 
1 
1 
1 
1 
1 
1 
1 
1 
1 
1 
1 
1 
1 
1 
1 
1 
1 
1 
1 
1 
1 
1 
1 
1 
1 
1 
1 
1 
1 
1 
1 
1 
1 
1 
1 
1 
1 
1 
1 
1 
1 
1 
1 
1 
1 
1 
1 
1 
1 
1 
1 
1 
1 
1 
1 
1 
1 
1 
1 
1 
1 
1 
1 
1 
1 
1 
1 
1 
1 
1 
1 
1 
1 
1 
1 
1 
1 
1 
1 
1 
1 
1 
1 
1 
1 
1 
1 
1 
1 
1 
1 
1 
1 
1 
1 
1 
1 
1 
1 
1 
1 
1 
1 
1 
1 
1 
1 
1 
1 
1 
1 
1 
1 
1 
1 
1 
1 
1 
1 
1 
1 
1 
1 
1 
1 
1 
1 
1 
1 
1 
1 
1 
1 
1 
1 
1 
1 
1 
1 
1 
1 
1 
1 
1 
1 
1 
1 
1 
1 
1 
1 
1 
1 
1 
1 
1 
1 
1 
1 
1 
1 
1 
1 
1 
1 
1 
1 
1 
1 
1 
1 
1 
1 
1 
1 
1 
1 
1 
1 
1 
1 
1 
1 
1 
1 
1 
1 
1 
1 
1 
1 
1 
1 
1 
1 
1 
1 
1 
1 
1 
1 
1 
1 
1 
1 
1 
1 
1 
1 
1 
1 
1 
1 
1 
1 
1 
1 
1 
1 
1 
1 
1 
1 
1 
1 
1 
1 
1 
1 
1 
1 
1 
1 
1 
1 
1 
1 
1 
1 
1 
1 
1 
1 
1 
1 
1 
1 
1 
1 
1 
1 
1 
1 
1 
1 
1 
1 
1 
1 
1 
1 
1 
1 
1 
1 
1 
1 
1 
1 
1 
1 
1 
1 
1 
1 
1 
1 
1 
1 
1 
1 
1 
1 
1 
1 
1 
1 
1 
1 
1 
1 
1 
1 
1 
1 
1 
1 
1 
1 
1 
1 
1 
1 
1 
1 
1 
1 
1 
1 
1 
1 
1 
1 
1 
1 
1 
1 
1 
1 
1 
1 
1 
1 
1 
1 
1 
1 
1 
1 
1 
1 
1 
1 
1 
1 
1 
1 
1 
1 
1 
1 
1 
1 
1 
1 
1 
1 
1 
1 
1 
1 
1 
1 
1 
1 
1 
1 
1 
1 
1 
1 
1 
1 
1 
1 
1 
1 
1 
1 
1 
1 
1 
1 
1 
1 
1 
1 
1 
1 
1 
1 
1 
1 
1 
1 
1 
1 
1 
1 
1 
1 
1 
1 
1 
1 
1 
1 
1 
1 
1 
1 
1 
1 
1 
1 
1 
1 
1 
1 
1 
1 
1 
1 
1 
1 
1 
1 
1 
1 
1 
1 
1 
1 
1 
1 
1 
1 
1 
1 
1 
1 
1 
1 
1 
1 
1 
1 
1 
1 
1 
1 
1 
1 
1 
1 
1 
1 
1 
1 
1 
1 
1 
1 
1 
1 
1 
1 
1 
1 
1 
1 
1 
1 
1 
1 
1 
1 
1 
1 
1 
1 
1 
1 
1 
1 
1 
1 
1 
1 
1 
1 
1 
1 
1 
1 
1 
1 
1 
1 
1 
1 
1 
1 
1 
1 
1 
1 
1 
1 
1 
1 
1 
1 
1 
1 
1 
1 
1 
1 
1 
1 
1 
1 
1 
1 
1 
1 
1 
1 
1 
1 
1 
1 
1 
1 
1 
1 
1 
1 
1 
1 
1 
1 
1 
1 
1 
1 
1 
1 
1 
1 
1 
1 
1 
1 
1 
1 
1 
1 
1 
1 
1 
1 
1 
1 
1 
1 
1 
1 
1 
1 
1 
1 
1 
1 
1 
1 
1 
1 
1 
1 
1 
1 
1 
1 
1 
1 
1 
1 
1 
1 
1 
1 
1 
1 
1 
1 
1 
1 
1 
1 
1 
1 
1 
1 
1 
1 
1 
1 
1 
1 
1 
1 
1 
1 
1 
1 
1 
1 
1 
1 
1 
1 
1 
1 
1 
1 
1 
1 
1 
1 
1 
1 
1 
1 
1 
1 
1 
1 
1 
1 
1 
1 
1 
1 
1 
1 
1 
1 
1 
1 
1 
1 
1 
1 
1 
1 
1 
1 
1 
1 
1 
1 
1 
1 
1 
1 
1 
1 
1 
1 
1 
1 
1 
1 
1 
1 
1 
1 
1 
1 
1 
1 
1 
1 
1 
1 
1 
1 
1 
1 
1 
1 
1 
1 
1 
1 
1 
1 
1 
1 
1 
1 
1 
1 
1 
1 
1 
1 
1 
1 
1 
1 
1 
1 
1 
1 
1 
1 
1 
1 
1 
1 
1 
1 
1 
1 
1 
1 
1 
1 
1 
1 
1 
1 
1 
1 
1 
1 
1 
1 
1 
1 
1 
1 
1 
1 
1 
1 
1 
1 
1 
1 
1 
1 
1 
1 
1 
1 
1 
1 
1 
1 
1 
1 
1 
1 
1 
1 
1 
1 
1 
1 
1 
1 
1 
1 
1 
1 
1 
1 
1 
1 
1 
1 
1 
1 
1 
1 
1 
1 
1 
1 
1 
1 
1 
1 
1 
1 
1 
1 
1 
1 
1 
1 
1 
1 
1 
1 
1 
1 
1 
1 
1 
1 
1 
1 
1 
1 
1 
1 
1 
1 
1 
1 
1 
1 
1 
1 
1 
1 
1 
1 
1 
1 
1 
1 
1 
1 
1 
1 
1 
1 
1 
1 
1 
1 
1 
1 
1 
1 
1 
1 
1 
1 
1 
1 
1 
1 
1 
1 
1 
1 
1 
1 
1 
1 
1 
1 
1 
1 
1 
1 
1 
1 
1 
1 
1 
1 
1 
1 
1 
1 
1 
1 
1 
1 
1 
1 
1 
1 
1 
1 
1 
1 
1 
1 
1 
1 
1 
1 
1 
1 
1 
1 
1 
1 
1 
1 
1 
1 
1 
1 
1 
1 
1 
1 
1 
1 
1 
1 
1 
1 
1 
1 
1 
1 
1 
1 
1 
1 
1 
1 
1 
1 
1 
1 
1 
1 
1 
1 
1 
1 
1 
1 
1 
1 
1 
1 
1 
1 
1 
1 
1 
1 
1 
1 
1 
1 
1 
1 
1 
1 
1 
1 
1 
1 
1 
1 
1 
1 
1 
1 
1 
1 
1 
1 
1 
1 
1 
1 
1 
1 
1 
1 
1 
1 
1 
1 
1 
1 
1 
1 
1 
1 
1 
1 
1 
1 
1 
1 
1 
1 
1 
1 
1 
1 
1 
1 
1 
1 
1 
1 
1 
1 
1 
1 
1 
1 
1 
1 
1 
1 
1 
1 
1 
1 
1 
1 
1 
1 
1 
1 
1 
1 
1 
1 
1 
1 
1 
1 
1 
1 
1 
1 
1 
1 
1 
1 
1 
1 
1 
1 
1 
1 
1 
1 
1 
1 
1 
1 
1 
1 
1 
1 
1 
1 
1 
1 
1 
1 
1 
1 
1 
1 
1 
1 
1 
1 
1 
1 
1 
1 
1 
1 
1 
1 
1 
1 
1 
1 
1 
1 
1 
1 
1 
1 
1 
1 
1 
1 
1 
1 
1 
1 
1 
1 
1 
1 
1 
1 
1 
1 
1 
1 
1 
1 
1 
1 
1 
1 
1 
1 
1 
1 
1 
1 
1 
1 
1 
1 
1 
1 
1 
1 
1 
1 
1 
1 
1 
1 
1 
1 
1 
1 
1 
1 
1 
1 
1 
1 
1 
1 
1 
1 
1 
1 
1 
1 
1 
1 
1 
1 
1 
1 
1 
1 
1 
1 
1 
1 
1 
1 
1 
1 
1 
1 
1 
1 
1 
1 
1 
1 
1 
1 
1 
1 
1 
1 
1 
1 
1 
1 
1 
1 
1 
1 
1 
1 
1 
1 
1 
1 
1 
1 
1 
1 
1 
1 
1 
1 
1 
1 
1 
1 
1 
1 
1 
1 
1 
1 
1 
1 
1 
1 
1 
1 
1 
1 
1 
1 
1 
1 
1 
1 
1 
1 
1 
1 
1 
1 
1 
1 
1 
1 
1 
1 
1 
1 
1 
1 
1 
1 
1 
1 
1 
1 
1 
1 
1 
1 
1 
1 
1 
1 
1 
1 
1 
1 
1 
1 
1 
1 
1 
1 
1 
1 
1 
1 
1 
1 
1 
1 
1 
1 
1 
1 
1 
1 
1 
1 
1 
1 
1 
1 
1 
1 
1 
1 
1 
1 
1 
1 
1 
1 
1 
1 
1 
1 
1 
1 
1 
1 
1 
1 
1 
1 
1 
1 
1 
1 
1 
1 
1 
1 
1 
1 
1 
1 
1 
1 
1 
1 
1 
1 
1 
1 
1 
1 
1 
1 
1 
1 
1 
1 
1 
1 
1 
1 
1 
1 
1 
1 
1 
1 
1 
1 
1 
1 
1 
1 
1 
1 
1 
1 
1 
1 
1 
1 
1 
1 
1 
1 
1 
1 
1 
1 
1 
1 
1 
1 
1 
1 
1 
1 
1 
1 
1 
1 
1 
1 
1 
1 
1 
1 
1 
1 
1 
1 
1 
1 
1 
1 
1 
1 
1 
1 
1 
1 
1 
1 
1 
1 
1 
1 
1 
1 
1 
1 
1 
1 
1 
1 
1 
1 
1 
1 
1 
1 
1 
1 
1 
1 
1 
1 
1 
1 
1 
1 
1 
1 
1 
1 
1 
1 
1 
1 
1 
1 
1 
1 
1 
1 
1 
1 
1 
1 
1 
1 
1 
1 
1 
1 
1 
1 
1 
1 
1 
1 
1 
1 
1 
1 
1 
1 
1 
1 
1 
1 
1 
1 
1 
1 
1 
1 
1 
1 
1 
1 
1 
1 
1 
1 
1 
1 
1 
1 
1 
1 
1 
1 
1 
1 
1 
1 
1 
1 
1 
1 
1 
1 
1 
1 
1 
1 
1 
1 
1 
1 
1 
1 
1 
1 
1 
1 
1 
1 
1 
1 
1 
1 
1 
1 
1 
1 
1 
1 
1 
1 
1 
1 
1 
1 
1 
1 
1 
1 
1 
1 
1 
1 
1 
1 
1 
1 
1 
1 
1 
1 
1 
1 
1 
1 
1 
1 
1 
1 
1 
1 
1 
1 
1 
1 
1 
1 
1 
1 
1 
1 
1 
1 
1 
1 
1 
1 
1 
1 
1 
1 
1 
1 
1 
1 
1 
1 
1 
1 
1 
1 
1 
1 
1 
1 
1 
1 
1 
1 
1 
1 
1 
1 
1 
1 
1 
1 
1 
1 
1 
1 
1 
1 
1 
1 
1 
1 
1 
1 
1 
1 
1 
1 
1 
1 
1 
1 
1 
1 
1 
1 
1 
1 
1 
1 
1 
1 
1 
1 
1 
1 
1 
1 
1 
1 
1 
1 
1 
1 
1 
1 
1 
1 
1 
1 
1 
1 
1 
1 
1 
1 
1 
1 
1 
1 
1 
1 
1 
1 
1 
1 
1 
1 
1 
1 
1 
1 
1 
1 
1 
1 
1 
1 
1 
1 
1 
1 
1 
1 
1 
1 
1 
1 
1 
1 
1 
1 
1 
1 
1 
1 
1 
1 
1 
1 
1 
1 
1 
1 
1 
1 
1 
1 
1 
1 
1 
1 
1 
1 
1 
1 
1 
1 
1 
1 
1 
1 
1 
1 
1 
1 
1 
1 
1 
1 
1 
1 
1 
1 
1 
1 
1 
1 
1 
1 
1 
1 
1 
1 
1 
1 
1 
1 
1 
1 
1 
1 
1 
1 
1 
1 
1 
1 
1 
1 
1 
1 
1 
1 
1 
1 
1 
1 
1 
1 
1 
1 
1 
1 
1 
1 
1 
1 
1 
1 
1 
1 
1 
1 
1 
1 
1 
1 
1 
1 
1 
1 
1 
1 
1 
1 
1 
1 
1 
1 
1 
1 
1 
1 
1 
1 
1 
1 
1 
1 
1 
1 
1 
1 
1 
1 
1 
1 
1 
1 
1 
1 
1 
1 
1 
1 
1 
1 
1 
1 
1 
1 
1 
1 
1 
1 
1 
1 
1 
1 
1 
1 
1 
1 
1 
1 
1 
1 
1 
1 
1 
1 
1 
1 
1 
1 
1 
1 
1 
1 
1 
1 
1 
1 
1 
1 
1 
1 
1 
1 
1 
1 
1 
1 
1 
1 
1 
1 
1 
1 
1 
1 
1 
1 
1 
1 
1 
1 
1 
1 
1 
1 
1 
1 
1 
1 
1 
1 
1 
1 
1 
1 
1 
1 
1 
1 
1 
1 
1 
1 
1 
1 
1 
1 
1 
1 
1 
1 
1 
1 
1 
1 
1 
1 
1 
1 
1 
1 
1 
1 
1 
1 
1 
1 
1 
1 
1 
1 
1 
1 
1 
1 
1 
1 
1 
1 
1 
1 
1 
1 
1 
1 
1 
1 
1 
1 
1 
1 
1 
1 
1 
1 
1 
1 
1 
1 
1 
1 
1 
1 
1 
1 
1 
1 
1 
1 
1 
1 
1 
1 
1 
1 
1 
1 
1 
1 
1 
1 
1 
1 
1 
1 
1 
1 
1 
1 
1 
1 
1 
1 
1 
1 
1 
1 
1 
1 
1 
1 
1 
1 
1 
1 
1 
1 
1 
1 
1 
1 
1 
1 
1 
1 
1 
1 
1 
1 
1 
1 
1 
1 
1 
1 
1 
1 
1 
1 
1 
1 
1 
1 
1 
1 
1 
1 
1 
1 
1 
1 
1 
1 
1 
1 
1 
1 
1 
1 
1 
1 
1 
1 
1 
1 
1 
1 
1 
1 
1 
1 
1 
1 
1 
1 
1 
1 
1 
1 
1 
1 
1 
1 
1 
1 
1 
1 
1 
1 
1 
1 
1 
1 
1 
1 
1 
1 
1 
1 
1 
1 
1 
1 
1 
1 
1 
1 
1 
1 
1 
1 
1 
1 
1 
1 
1 
1 
1 
1 
1 
1 
1 
1 
1 
1 
1 
1 
1 
1 
1 
1 
1 
1 
1 
1 
1 
1 
1 
1 
1 
1 
1 
1 
1 
1 
1 
1 
1 
1 
1 
1 
1 
1 
1 
1 
1 
1 
1 
1 
1 
1 
1 
1 
1 
1 
1 
1 
1 
1 
1 
1 
1 
1 
1 
1 
1 
1 
1 
1 
1 
1 
1 
1 
1 
1 
1 
1 
1 
1 
1 
1 
1 
1 
1 
1 
1 
1 
1 
1 
1 
1 
1 
1 
1 
1 
1 
1 
1 
1 
1 
1 
1 
1 
1 
1 
1 
1 
1 
1 
1 
1 
1 
1 
1 
1 
1 
1 
1 
1 
1 
1 
1 
1 
1 
1 
1 
1 
1 
1 
1 
1 
1 
1 
1 
1 
1 
1 
1 
1 
1 
1 
1 
1 
1 
1 
1 
1 
1 
1 
1 
1 
1 
1 
1 
1 
1 
1 
1 
1 
1 
1 
1 
1 
1 
1 
1 
1 
1 
1 
1 
1 
1 
1 
1 
1 
1 
1 
1 
1 
1 
1 
1 
1 
1 
1 
1 
1 
1 
1 
1 
1 
1 
1 
1 
1 
1 
1 
1 
1 
1 
1 
1 
1 
1 
1 
1 
1 
1 
1 
1 
1 
1 
1 
1 
1 
1 
1 
1 
1 
1 
1 
1 
1 
1 
1 
1 
1 
1 
1 
1 
1 
1 
1 
1 
1 
1 
1 
1 
1 
1 
1 
1 
1 
1 
1 
1 
1 
1 
1 
1 
1 
1 
1 
1 
1 
1 
1 
1 
1 
1 
1 
1 
1 
1 
1 
1 
1 
1 
1 
1 
1 
1 
1 
1 
1 
1 
1 
1 
1 
1 
1 
1 
1 
1 
1 
1 
1 
1 
1 
1 
1 
1 
1 
1 
1 
1 
1 
1 
1 
1 
1 
1 
1 
1 
1 
1 
1 
1 
1 
1 
1 
1 
1 
1 
1 
1 
1 
1 
1 
1 
1 
1 
1 
1 
1 
1 
1 
1 
1 
1 
1 
1 
1 
1 
1 
1 
1 
1 
1 
1 
1 
1 
1 
1 
1 
1 
1 
1 
1 
1 
1 
1 
1 
1 
1 
1 
1 
1 
1 
1 
1 
1 
1 
1 
1 
1 
1 
1 
1 
1 
1 
1 
1 
1 
1 
1 
1 
1 
1 
1 
1 
1 
1 
1 
1 
1 
1 
1 
1 
1 
1 
1 
1 
1 
1 
1 
1 
1 
1 
1 
1 
1 
1 
1 
1 
1 
1 
1 
1 
1 
1 
1 
1 
1 
1 
1 
1 
1 
1 
1 
1 
1 
1 
1 
1 
1 
1 
1 
1 
1 
1 
1 
1 
1 
1 
1 
1 
1 
1 
1 
1 
1 
1 
1 
1 
1 
1 
1 
1 
1 
1 
1 
1 
1 
1 
1 
1 
1 
1 
1 
1 
1 
1 
1 
1 
1 
1 
1 
1 
1 
1 
1 
1 
1 
1 
1 
1 
1 
1 
1 
1 
1 
1 
1 
1 
1 
1 
1 
1 
1 
1 
1 
1 
1 
1 
1 
1 
1 
1 
1 
1 
1 
1 
1 
1 
1 
1 
1 
1 
1 
1 
1 
1 
1 
1 
1 
1 
1 
1 
1 
1 
1 
1 
1 
1 
1 
1 
1 
1 
1 
1 
1 
1 
1 
1 
1 
1 
1 
1 
1 
1 
1 
1 
1 
1 
1 
1 
1 
1 
1 
1 
1 
1 
1 
1 
1 
1 
1 
1 
1 
1 
1 
1 
1 
1 
1 
1 
1 
1 
1 
1 
1 
1 
1 
1 
1 
1 
1 
1 
1 
1 
1 
1 
1 
1 
1 
1 
1 
1 
1 
1 
1 
1 
1 
1 
1 
1 
1 
1 
1 
1 
1 
1 
1 
1 
1 
1 
1 
1 
1 
1 
1 
1 
1 
1 
1 
1 
1 
1 
1 
1 
1 
1 
1 
1 
1 
1 
1 
1 
1 
1 
1 
1 
1 
1 
1 
1 
1 
1 
1 
1 
1 
1 
1 
1 
1 
1 
1 
1 
1 
1 
1 
1 
1 
1 
1 
1 
1 
1 
1 
1 
1 
1 
1 
1 
1 
1 
1 
1 
1 
1 
1 
1 
1 
1 
1 
1 
1 
1 
1 
1 
1 
1 
1 
1 
1 
1 
1 
1 
1 
1 
1 
1 
1 
1 
1 
1 
1 
1 
1 
1 
1 
1 
1 
1 
1 
1 
1 
1 
1 
1 
1 
1 
1 
1 
1 
1 
1 
1 
1 
1 
1 
1 
1 
1 
1 
1 
1 
1 
1 
1 
1 
1 
1 
1 
1 
1 
1 
1 
1 
1 
1 
1 
1 
1 
1 
1 
1 
1 
1 
1 
1 
1 
1 
1 
1 
1 
1 
1 
1 
1 
1 
1 
1 
1 
1 
1 
1 
1 
1 
1 
1 
1 
1 
1 
1 
1 
1 
1 
1 
1 
1 
1 
1 
1 
1 
1 
1 
1 
1 
1 
1 
1 
1 
1 
1 
1 
1 
1 
1 
1 
1 
1 
1 
1 
1 
1 
1 
1 
1 
1 
1 
1 
1 
1 
1 
1 
1 
1 
1 
1 
1 
1 
1 
1 
1 
1 
1 
1 
1 
1 
1 
1 
1 
1 
1 
1 
1 
1 
1 
1 
1 
1 
1 
1 
1 
1 
1 
1 
1 
1 
1 
1 
1 
1 
1 
1 
1 
1 
1 
1 
1 
1 
1 
1 
1 
1 
1 
1 
1 
1 
1 
1 
1 
1 
1 
1 
1 
1 
1 
1 
1 
1 
1 
1 
1 
1 
1 
1 
1 
1 
1 
1 
1 
1 
1 
1 
1 
1 
1 
1 
1 
1 
1 
1 
1 
1 
1 
1 
1 
1 
1 
1 
1 
1 
1 
1 
1 
1 
1 
1 
1 
1 
1 
1 
1 
1 
1 
1 
1 
1 
1 
1 
1 
1 
1 
1 
1 
1 
1 
1 
1 
1 
1 
1 
1 
1 
1 
1 
1 
1 
1 
1 
1 
1 
1 
1 
1 
1 
1 
1 
1 
1 
1 
1 
1 
1 
1 
1 
1 
1 
1 
1 
1 
1 
1 
1 
1 
1 
1 
1 
1 
1 
1 
1 
1 
1 
1 
1 
1 
1 
1 
1 
1 
1 
1 
1 
1 
1 
1 
1 
1 
1 
1 
1 
1 
1 
1 
1 
1 
1 
1 
1 
1 
1 
1 
1 
1 
1 
1 
1 
1 
1 
1 
1 
1 
1 
1 
1 
1 
1 
1 
1 
1 
1 
1 
1 
1 
1 
1 
1 
1 
1 
1 
1 
1 
1 
1 
1 
1 
1 
1 
1 
1 
1 
1 
1 
1 
1 
1 
1 
1 
1 
1 
1 
1 
1 
1 
1 
1 
1 
1 
1 
POINT_DATA 5000
VECTORS Stress float
924.234 -194.668 0.
-68.3929 -664.975 0.
-104.991 -750.508 0.
-346.752 -922.823 0.
-366.927 -970.34 0.
-387.102 -1017.86 0.
-261.583 -1093.12 0.
-403.525 -1424.02 0.
-545.466 -1754.92 0.
-510.599 -1741.41 0.
-428.786 -1550.59 0.
-346.973 -1359.76 0.
-545.062 -1544.53 0.
-618.369 -1715.69 0.
-806.213 -1875.22 0.
-526.698 -1223.02 0.
-247.182 -570.824 0.
496.211 -63.8211 0.
186.044 -787.734 0.
-124.123 -1511.65 0.
-1014.59 -1990.43 0.
-830.405 -1560.6 0.
-646.22 -1130.77 0.
-1170.33 -1178.72 0.
-1112.35 -1043.75 0.
-925.901 -853.721 0.
-2217.76 -1142.74 0.
-2076.46 -812.134 0.
-1393.14 -383.226 0.
-1594.88 -854.225 0.
-1796.63 -1325.22 0.
-2447.47 -1710.38 0.
-2311.04 -1391.35 0.
-2174.6 -1072.31 0.
-2103.85 -1310.64 0.
-2399.74 -2000.63 0.
-2695.62 -2690.61 0.
-5350.4 -2962.16 0.
-4768.38 -1603.82 0.
-5889.73 -996.756 0.
-5638.9 -412.155 0.
-5388.06 172.445 0.
-8409.75 -721.731 0.
-8273.54 -402.284 0.
-8137.33 -82.8364 0.
-11486.4 -2420.1 0.
-12539.6 -4873.85 0.
-13592.7 -7327.6 0.
57617.7 24952.1 0.
59271.1 28819.6 0.
-508108 -211185 0.
58175.9 28383.3 0.
56540.6 24557.9 0.
-13058.5 -7098.7 0.
-12208.9 -5117.97 0.
-11359.3 -3137.24 0.
-7971.53 -918.608 0.
-8034.76 -1067.25 0.
-8097.99 -1215.89 0.
-5704.01 -265.53 0.
-5717.96 -298.773 0.
-5731.92 -332.017 0.
-4910.22 -566.169 0.
-5244.1 -1344.12 0.
-2066.58 -624.742 0.
-2450.21 -1520.09 0.
-2833.85 -2415.43 0.
-1963.93 -2376.65 0.
-1767.96 -1919.96 0.
-1571.99 -1463.27 0.
-1196.27 -1134.44 0.
-1182.94 -1103.9 0.
-1169.6 -1073.37 0.
-2906.34 -1567.97 0.
-2742.82 -1186.15 0.
-668.083 -4.49818 0.
-955.037 -742.045 0.
-1278 -1495.01 0.
-782.22 -1758.86 0.
-813.177 -1831 0.
-844.135 -1903.14 0.
-230.858 -1552.87 0.
-105.36 -1259.43 0.
20.1386 -965.989 0.
290.871 -692.937 0.
355.426 -541.179 0.
419.98 -389.42 0.
-379.051 -1014.37 0.
-545.491 -1403.42 0.
-800.877 -1767.92 0.
-739.926 -1625.68 0.
-678.976 -1483.45 0.
127.395 -1063.95 0.
129.282 -1060.93 0.
131.169 -1057.9 0.
-63.6933 -1049.76 0.
21.5517 -850.716 0.
106.797 -651.671 0.
461.82 -337.61 0.
542.854 -147.766 0.
746.089 -240.513 0.
-548.823 -841.734 0.
-585.503 -927.73 0.
-287.525 -865.23 0.
-307.496 -913.152 0.
-327.467 -961.074 0.
-115.645 -999.034 0.
-257.683 -1329.57 0.
-399.721 -1660.11 0.
-116.521 -1542.22 0.
-34.6786 -1351.48 0.
47.1636 -1160.73 0.
-718.754 -1587.3 0.
-792.026 -1758.6 0.
-918.442 -1892.52 0.
-638.982 -1240.47 0.
-359.522 -588.422 0.
-465.451 -444.261 0.
-775.315 -1167.85 0.
-1085.18 -1891.44 0.
555.57 -1287.02 0.
739.904 -856.708 0.
924.237 -426.397 0.
-1442.46 -1263.48 0.
-1384.46 -1129.08 0.
-1657.16 -1136.4 0.
-2357.4 -1171.92 0.
-2216.8 -841.121 0.
-1322.99 -322.077 0.
-1524.57 -793.193 0.
-1726.14 -1264.31 0.
-2267.03 -1601.84 0.
-2130.83 -1282.01 0.
-1994.64 -962.181 0.
-1743.73 -1126.22 0.
-2039.81 -1815.87 0.
-2335.9 -2505.51 0.
-5177.05 -2856.17 0.
-4595.1 -1497.43 0.
-5130.03 -638.475 0.
-4878.64 -53.9448 0.
-4627.24 530.585 0.
-7456.37 -283.227 0.
-7321.03 37.4436 0.
-7185.68 358.114 0.
-7732.66 -789.574 0.
-8790.91 -3248.01 0.
-9849.15 -5706.45 0.
51415.5 22338.4 0.
53055.5 26193.7 0.
-442183 -182900 0.
52007.9 25777.7 0.
50385.8 21964.4 0.
-9611.71 -5601.81 0.
-8758.98 -3617.1 0.
-7906.25 -1632.39 0.
-6942.16 -447.135 0.
-7005.02 -597.097 0.
-7067.88 -747.059 0.
-4686.94 204.903 0.
-4700.48 171.288 0.
-4714.01 137.673 0.
-5041.06 -589.001 0.
-5375.57 -1366.25 0.
-2252.77 -674.507 0.
-2636.21 -1569.79 0.
-3019.64 -2465.08 0.
-731.527 -1816.2 0.
-535.086 -1359.56 0.
-338.646 -902.914 0.
-1543.66 -1251.26 0.
-1530.01 -1221.15 0.
-1516.35 -1191.04 0.
-2937.77 -1549.51 0.
-2774.4 -1167.55 0.
-1607.43 -375.637 0.
-1819.67 -1080.26 0.
-2142.79 -1832.4 0.
1565.1 -721.93 0.
1534.05 -794.117 0.
1502.99 -866.303 0.
-769.316 -1751.62 0.
-644.237 -1457.93 0.
-519.158 -1164.25 0.
-599.294 -1044.83 0.
-535.624 -892.871 0.
-471.955 -740.911 0.
-494.824 -1032.38 0.
-660.867 -1421.87 0.
-344.943 -1542.68 0.
-284.062 -1400.57 0.
-223.182 -1258.46 0.
88.858 -1048.26 0.
91.3939 -1046.49 0.
93.9297 -1044.71 0.
-54.7003 -1013.64 0.
30.4036 -814.641 0.
115.507 -615.644 0.
353.073 -352.795 0.
433.737 -162.283 0.
452.987 -554.904 0.
-1153.11 -1312.24 0.
-1042.02 -1054.95 0.
-571.624 -1617.83 0.
-326.646 -1046.68 0.
-700.088 -1918.51 0.
-1423.86 -4295.95 0.
-1161.84 -3686.18 0.
-3387.61 -8881.21 0.
-5438.79 -14680.5 0.
-1615.53 -5760.9 0.
-1721.11 -6008.59 0.
-2741.28 -5944.08 0.
-2997.96 -6538.81 0.
-4581.98 -10206.7 0.
-1722.56 -3530.9 0.
-2175.3 -4583.56 0.
-3335.21 -5280.65 0.
-3309.32 -5220.74 0.
-5988.14 -11471.8 0.
-21633.5 -56021.4 0.
-2541.68 -11472.8 0.
-1493.26 -9025.36 0.
-4279.01 -7338.89 0.
-3488.99 -5495.12 0.
-4256.69 -7342.3 0.
-4205.6 -5180.38 0.
-4123.68 -4989.4 0.
-2751.54 -3766.28 0.
-2709.57 -3666.7 0.
-3858.66 -6346.27 0.
-7675.46 -14537.4 0.
-4465.43 -7047.89 0.
-4401.23 -6898.63 0.
-3667.97 -6260.96 0.
-3870.03 -6737.83 0.
-16907 -37162.9 0.
-14628 -25209.8 0.
-10902.9 -16519.6 0.
-10265.1 -14045.5 0.
-8174.43 -9169.75 0.
-8212.95 -9262.13 0.
-9587.84 -7060.07 0.
-8534.84 -4606.1 0.
-8652.08 -4882.73 0.
-6985.68 -6163.93 0.
-8305.08 -9229.75 0.
-25578.3 -49521.1 0.
42497.7 13400.6 0.
45242.9 19875.8 0.
-349449 -147269 0.
44158 19282.2 0.
41256.6 12446.8 0.
-24623 -47178.7 0.
-8883.61 -10464 0.
-8844.44 -10383.1 0.
-9764.08 -8979.63 0.
-8997.91 -7190.63 0.
-9911.16 -9320.25 0.
-7201.12 -7573.98 0.
-6101.7 -5009.31 0.
-6319.34 -5517.81 0.
-6940.63 -4736.13 0.
-7007.9 -4897.35 0.
-5422.16 -7688.31 0.
-5284 -7365.53 0.
-7680.43 -12956.8 0.
-21610.3 -52850.1 0.
-3306.96 -10139.9 0.
-3136.66 -9739.96 0.
-5239.71 -9187.26 0.
-4654.21 -7819.89 0.
-6497.43 -12119.5 0.
-4144.18 -4264.35 0.
-3803.49 -3468.87 0.
-4153.22 -4631.06 0.
-3316.14 -2893.08 0.
-4071.61 -4653.42 0.
-6153.36 -23169.2 0.
-7290.43 -25822.8 0.
-26253.6 -70070.6 0.
-13621.2 -30681.4 0.
-6623.92 -14354.5 0.
-6262.68 -13511.7 0.
-3052.78 -5041.59 0.
-2039.21 -2680.27 0.
-2767.36 -4382.96 0.
-1832.78 -3898.61 0.
-1977.03 -4233.84 0.
-2835.2 -8207.22 0.
-459.889 -2661.65 0.
-477.637 -2700.24 0.
-884.256 -3223.44 0.
-595.993 -2548.47 0.
-1405.53 -4435 0.
-803.155 -2753.1 0.
1.49338 -875.69 0.
162.673 -499.746 0.
-113.011 -1195.69 0.
-1133.6 -3578.44 0.
444.705 208.957 0.
-100.966 -2.77219 0.
-95.5546 8.98998 0.
323.979 187.718 0.
304.712 145.245 0.
285.447 102.773 0.
609.34 478.912 0.
937.169 1242.85 0.
1265 2006.79 0.
1337.61 2113.75 0.
1214.49 1824.82 0.
1091.36 1535.88 0.
651.034 1689.69 0.
877.109 2219.72 0.
854.369 2550.5 0.
514.163 1761.07 0.
173.957 971.645 0.
-114.629 884.372 0.
698.891 2779.95 0.
1512.41 4675.53 0.
3820.99 5883.4 0.
3311.86 4694.29 0.
2802.73 3505.18 0.
226.599 2057.98 0.
160.019 1903.1 0.
643.355 1983.84 0.
-1247.07 905.755 0.
-1389.36 573.535 0.
-664.734 830.965 0.
-251.54 1797.5 0.
161.653 2764.04 0.
320.862 3113.36 0.
118.016 2640.2 0.
-84.8284 2167.05 0.
79.5818 3498.65 0.
1227.64 6173.04 0.
2375.69 8847.44 0.
-447.535 7099.6 0.
-964.25 5891.89 0.
-1045.43 4841.6 0.
-1506.07 3767.93 0.
-1966.71 2694.26 0.
-3282.97 1370.99 0.
-3570.61 698.083 0.
-3858.23 25.1766 0.
-1918.91 -22.2118 0.
-2591.58 -1579.03 0.
-3264.22 -3135.82 0.
37096 17355.8 0.
39609.3 23310.9 0.
-230813 -87707.5 0.
39242.7 23461.9 0.
36888.8 17884.2 0.
-3142.24 -2238.29 0.
-2424.47 -575.475 0.
-1706.69 1087.35 0.
-3183.2 1294.68 0.
-3032.46 1648.82 0.
-2881.72 2002.95 0.
-2055.74 2164.78 0.
-2257.88 1693.12 0.
-2460.02 1221.46 0.
-3330.82 1035.04 0.
-3207.2 1319.27 0.
-563.227 2842.32 0.
185.575 4586 0.
934.377 6329.67 0.
3421.84 7804.03 0.
2676.06 6063.57 0.
1930.28 4323.12 0.
99.48 2960.25 0.
112.146 2989.24 0.
124.813 3018.23 0.
-576.209 2093.96 0.
-986.269 1140.04 0.
-800.042 492.041 0.
-105.505 2272.44 0.
672.638 4088.66 0.
4756.06 7150.81 0.
5147.76 8064.62 0.
5539.46 8978.44 0.
2961.59 7536.86 0.
2154.85 5654.83 0.
1348.12 3772.8 0.
648.523 2465.77 0.
236.255 1501.62 0.
-176.012 537.48 0.
508.885 976.936 0.
628.25 1258.32 0.
1093.63 1563.22 0.
756.094 777.823 0.
418.553 -7.57781 0.
309.708 -321.82 0.
498.301 122.742 0.
686.893 567.303 0.
585.608 577.644 0.
504.162 388.518 0.
422.717 199.392 0.
342.961 303.674 0.
453.214 561.12 0.
49.3763 69.5477 0.
516.533 292.566 0.
521.559 304.502 0.
489.557 289.847 0.
469.242 247.878 0.
448.927 205.911 0.
609.109 509.117 0.
936.761 1273.24 0.
1264.41 2037.37 0.
838.114 1930.92 0.
715.204 1642.17 0.
592.294 1353.42 0.
815.421 1791.62 0.
1041.99 2321.13 0.
832.838 2572.6 0.
492.477 1783.44 0.
152.117 994.278 0.
610.618 1226.98 0.
1425.3 3123.11 0.
2239.98 5019.24 0.
2519.53 5357.79 0.
2011.53 4169.04 0.
1503.54 2980.29 0.
829.678 2348.93 0.
762.968 2193.87 0.
1392.21 2336.98 0.
-801.939 1127.28 0.
-944.306 794.868 0.
-505.337 930.94 0.
-92.3165 1897.83 0.
320.703 2864.71 0.
865.366 3376.54 0.
662.361 2903.72 0.
459.356 2430.9 0.
-437.129 3308.32 0.
710.135 5981.87 0.
1857.4 8655.43 0.
-21.0713 7316.34 0.
-537.831 6108.07 0.
349.113 5470.01 0.
-113.001 4396.61 0.
-575.113 3323.2 0.
29.7263 2820.3 0.
-258.916 2146.33 0.
-547.549 1472.36 0.
1071.86 1275.56 0.
397.599 -284.989 0.
-276.635 -1845.52 0.
28442.4 13723.4 0.
30932.9 19646.2 0.
-126090 -42794.6 0.
31053.5 20002.9 0.
28720.5 14454.1 0.
-413.724 -1053.07 0.
306.125 613.093 0.
1025.98 2279.27 0.
-500.358 2473.54 0.
-349.873 2828.23 0.
-199.39 3182.92 0.
-849.112 2713.1 0.
-1051.73 2241 0.
-1254.34 1768.9 0.
-1921.18 1672.5 0.
-1797.33 1957.26 0.
-123.427 3061.65 0.
626.985 4805.15 0.
1377.4 6548.65 0.
2259.74 7338.35 0.
1515.42 5598.45 0.
771.096 3858.55 0.
279.873 3070.58 0.
293.034 3098.94 0.
306.195 3127.3 0.
474.37 2578.36 0.
63.2338 1624.28 0.
408.284 1039.7 0.
1131.74 2833.35 0.
1911.31 4651.06 0.
2219.24 6096.27 0.
2610.38 7009.09 0.
3001.51 7921.9 0.
3229.26 7686.44 0.
2422.15 5804.06 0.
1615.05 3921.68 0.
1256.99 2756.51 0.
844.041 1792.26 0.
431.092 828.019 0.
834.288 1147.86 0.
953.082 1429.5 0.
792.639 1463.71 0.
455.357 678.3 0.
118.074 -107.106 0.
266.141 -307.745 0.
454.028 137.269 0.
641.913 582.281 0.
554.306 594.974 0.
472.472 405.976 0.
390.639 216.979 0.
131.432 245.717 0.
241.288 503.78 0.
-327.038 -883.688 0.
245.23 -809.357 0.
177.997 -964.54 0.
-87.1766 -1145.82 0.
21.6534 -892.551 0.
130.484 -639.278 0.
68.2673 -707.142 0.
-140.842 -1192.24 0.
-349.951 -1677.34 0.
-833.858 -1891.7 0.
-716.528 -1618.73 0.
-599.196 -1345.77 0.
-475.364 -1312.24 0.
-509.917 -1391.9 0.
-928.34 -1613.1 0.
-819.243 -1358.9 0.
-710.146 -1104.7 0.
-134.683 -936.531 0.
-520.479 -1823.58 0.
-906.272 -2710.62 0.
-1570.8 -3036.4 0.
-1268.73 -2334.91 0.
-966.666 -1633.42 0.
-592.702 -1460.86 0.
-680.208 -1670 0.
-251.839 -1657.96 0.
-1836.97 -2009.37 0.
-1654.94 -1589.53 0.
-1247.83 -1190 0.
-1364.89 -1463.82 0.
-1481.95 -1737.64 0.
-983.594 -1404.55 0.
-675.017 -691.115 0.
-366.44 22.325 0.
-2238.84 -1359.75 0.
-2884.62 -2870.24 0.
-3530.4 -4380.73 0.
-4269.15 -4397.75 0.
-3981.41 -3730.38 0.
-2041.64 -2408.55 0.
-2114.12 -2582.64 0.
-2186.6 -2756.73 0.
-433.905 -2375.2 0.
-912.954 -3488.72 0.
-1392 -4602.24 0.
757.29 -2907.56 0.
1959.37 -99.4522 0.
3161.44 2708.66 0.
18653.2 4715.99 0.
15001.6 -3719.51 0.
-2102.25 -17915.2 0.
14828.6 -3902.1 0.
18422 4395.09 0.
2539.99 2149.5 0.
1400.25 -505.318 0.
260.499 -3160.13 0.
-2067.67 -4828.1 0.
-1539.14 -3601.54 0.
-1010.61 -2374.98 0.
-2139.03 -2454.95 0.
-2063.64 -2275.72 0.
-1988.25 -2096.49 0.
-2703.94 -2346.21 0.
-2681.58 -2293.7 0.
-1778.45 -1937.39 0.
-2061.44 -2592.68 0.
-2344.43 -3247.97 0.
-2659.1 -3452.3 0.
-2246.16 -2489.85 0.
-1833.22 -1527.4 0.
-1388.19 -1135.8 0.
-1500.89 -1398.35 0.
-1613.58 -1660.89 0.
-768.688 -1276.19 0.
-723.395 -1181.03 0.
20.9449 -792.358 0.
-233.331 -1306.35 0.
-449.342 -1803.95 0.
-2307.45 -3029.13 0.
-2571.74 -3640.93 0.
-2836.03 -4252.73 0.
-1420.87 -3549.31 0.
-1017.52 -2608.96 0.
-614.162 -1668.62 0.
-242.084 -1181.58 0.
-168.541 -1013.32 0.
-95 -845.05 0.
-95.8592 -964.514 0.
-170.173 -1136.87 0.
-506.196 -1367.87 0.
-403.628 -1122.56 0.
-301.059 -877.256 0.
2.29691 -726.521 0.
-149.227 -1078.64 0.
-300.75 -1430.77 0.
-292.624 -1313.39 0.
-88.9414 -840.755 0.
114.742 -368.119 0.
-207.285 -650.381 0.
-349.248 -976.784 0.
148.619 -652.464 0.
153.711 -817.871 0.
85.4661 -972.195 0.
-121.601 -1132.09 0.
-12.2343 -879.187 0.
97.1323 -626.287 0.
32.6884 -690.19 0.
-176.56 -1175.74 0.
-385.808 -1661.28 0.
-392.277 -1672.73 0.
-274.834 -1400.01 0.
-157.39 -1127.29 0.
-528.977 -1304.82 0.
-563.871 -1384.52 0.
-786.932 -1523.45 0.
-678.397 -1268.89 0.
-569.861 -1014.34 0.
-395.652 -1016.8 0.
-780.485 -1904.92 0.
-1165.32 -2793.05 0.
-1466.69 -2959.2 0.
-1164.33 -2257.99 0.
-861.97 -1556.78 0.
-636.353 -1449.1 0.
-723.731 -1658.15 0.
-1336.09 -2092.23 0.
-1507.19 -1838.41 0.
-1326.03 -1418.01 0.
-969.486 -1040.36 0.
-1087.02 -1313.48 0.
-1204.56 -1586.6 0.
-998.256 -1382.63 0.
-690.919 -668.131 0.
-383.582 46.3721 0.
-1261 -914.338 0.
-1908.1 -2424.66 0.
-2555.19 -3934.99 0.
-2808.47 -3741.29 0.
-2520.34 -3073.48 0.
-958.488 -1915.94 0.
-1031.68 -2089.73 0.
-1104.87 -2263.51 0.
624.536 -1897.89 0.
144.686 -3012.39 0.
-335.157 -4126.88 0.
1436.42 -2572.56 0.
2640.08 235.616 0.
3843.75 3043.8 0.
12749.7 2185.22 0.
9125.07 -6223.99 0.
-10.5425 -16985.9 0.
8376.1 -6651.24 0.
11941.7 1617.16 0.
3704.57 2694.18 0.
2563.69 37.7998 0.
1422.81 -2618.57 0.
-874.543 -4294.81 0.
-346.588 -3065.85 0.
181.367 -1836.89 0.
-1046.3 -1958.07 0.
-971.263 -1778.61 0.
-896.224 -1599.15 0.
-1788.87 -1924.2 0.
-1766.82 -1871.84 0.
-1017.98 -1581.76 0.
-1301.06 -2237.29 0.
-1584.13 -2892.83 0.
-2226.2 -3235.48 0.
-1812.69 -2272.93 0.
-1399.17 -1310.38 0.
-1205.12 -1026.25 0.
-1317.51 -1289 0.
-1429.9 -1551.74 0.
-771.347 -1246.49 0.
-727.019 -1149.99 0.
-142.051 -831.252 0.
-408 -1350.71 0.
-623.465 -1848.53 0.
-1355.01 -2591.51 0.
-1619.13 -3203.38 0.
-1883.24 -3815.24 0.
-1251.91 -3447.61 0.
-848.11 -2507.1 0.
-444.306 -1566.58 0.
-351.61 -1197.43 0.
-277.784 -1029.19 0.
-203.959 -860.956 0.
-473.037 -1095.72 0.
-546.859 -1268.48 0.
-391.637 -1287.79 0.
-288.849 -1042.87 0.
-186.061 -797.948 0.
-123.4 -748.941 0.
-274.778 -1101.12 0.
-426.157 -1453.31 0.
-285.404 -1281.07 0.
-82.1513 -808.162 0.
121.102 -335.256 0.
128.964 -474.096 0.
-14.2192 -799.987 0.
809.61 71.125 0.
457.485 94.2047 0.
327.462 -211.459 0.
-130.943 -1065.46 0.
-33.0609 -837.218 0.
-26.5393 -822.134 0.
-747.459 -2406.55 0.
266.342 -38.6808 0.
290.319 19.1936 0.
371.729 -714.547 0.
-89.5528 -1787.7 0.
263.622 -960.47 0.
-332.963 -709.113 0.
-320.073 -682.26 0.
-545.374 -1188.5 0.
-204.468 -399.366 0.
-540.679 -1190.19 0.
-1107.19 -2139.66 0.
-904.911 -1669.09 0.
-475.09 -667.63 0.
-355.099 -540.729 0.
-386.398 -614.546 0.
-404.516 -657.652 0.
-286.269 -534.005 0.
-646.102 -1372.78 0.
-619.657 -1200.91 0.
-936.243 -1098.31 0.
-1213.58 -1756.46 0.
-816.104 -1166.76 0.
-294.333 44.0511 0.
140.24 1051.42 0.
-1269.17 -1960.62 0.
-873.13 -1042.24 0.
-428.692 -10.8504 0.
17.4914 256.794 0.
-1069.94 -2277.68 0.
-1981.81 -4402.6 0.
-1639.88 -3753.43 0.
-1151.7 -2608.48 0.
-226.555 -2254.96 0.
-293.525 -2407.37 0.
-156.241 -2083.29 0.
1510.48 -1787.2 0.
1561.42 -1670.51 0.
2451.83 404.807 0.
3388.9 754.573 0.
3071.81 19.565 0.
3313.51 588.352 0.
7313.86 686.095 0.
7608.28 1382.85 0.
263.436 -3250.42 0.
6070.64 188.847 0.
6066.12 172.971 0.
3179.81 -660.343 0.
2756.99 -1656.97 0.
2352.71 -2610.3 0.
1514.3 -945.985 0.
2110.5 437.797 0.
2066.88 328.695 0.
3.8395 -1557.1 0.
-358.495 -2405.85 0.
849.043 408.526 0.
-556.31 -761.762 0.
-1306.94 -2506.75 0.
-583.468 -1961.62 0.
559.444 706.698 0.
164.698 -212.877 0.
-916.881 -975.762 0.
-1167.75 -1557.79 0.
-1111.58 -1423.37 0.
-1505.25 -2048.95 0.
-625.853 4.06102 0.
-732.455 -243.546 0.
-1006.72 -1766.46 0.
-1142.3 -2081.09 0.
267.174 17.853 0.
-388.625 -955.501 0.
-818.63 -1961.9 0.
334.05 -398.401 0.
-82.3902 -1368.25 0.
-7.78246 -1192.24 0.
-150.744 -1171.13 0.
-46.1116 -924.025 0.
20.7487 -764.999 0.
-739.516 -1876.98 0.
-639.238 -1639.57 0.
-963.832 -2393.57 0.
-700.726 -872.653 0.
-298.938 64.0648 0.
571.235 777.682 0.
521.272 652.396 0.
452.814 483.792 0.
144.1 159.578 0.
64.2098 -27.2905 0.
468.892 916.513 0.
221.506 -90.6949 0.
21.8072 -556.258 0.
-70.0133 -770.068 0.
828.81 557.036 0.
564.429 -65.023 0.
544.26 -100.531 0.
164.998 -343.69 0.
122.632 -446.51 0.
45.1806 -585.871 0.
-66.7128 -847.677 0.
-178.606 -1109.48 0.
-129.41 -1201.72 0.
-105.261 -1141.45 0.
-81.1123 -1081.18 0.
-60.5649 -1166.7 0.
-159.022 -1393.5 0.
-257.481 -1620.31 0.
-620.819 -1622.2 0.
-507.516 -1360.28 0.
-569.719 -1180.3 0.
-511.716 -1047.49 0.
-453.714 -914.689 0.
-409.238 -878.72 0.
-523.84 -1146.06 0.
-638.442 -1413.41 0.
-752.444 -1604.16 0.
-790.167 -1693.96 0.
-827.89 -1783.75 0.
-491.383 -1590.42 0.
-443.659 -1480.27 0.
-400.638 -1371.98 0.
-1109.83 -1632.5 0.
-1076.25 -1565.64 0.
-953.07 -1462.02 0.
-909.812 -1365.74 0.
-866.553 -1269.46 0.
-851.218 -1241.82 0.
-882.627 -1320.15 0.
-914.035 -1398.49 0.
-481.503 -1352.62 0.
-583.48 -1585.83 0.
-685.456 -1819.04 0.
-287.771 -1907.9 0.
-431.364 -2236.41 0.
151.358 -2231.43 0.
52.2208 -2457.71 0.
-46.9144 -2683.99 0.
1163.04 -2175.44 0.
1369.31 -1697.1 0.
1575.57 -1218.76 0.
2236.15 -663.611 0.
2318.53 -471.751 0.
2400.9 -279.89 0.
6040.73 620.223 0.
5565.85 -480.753 0.
1519.69 -3113.67 0.
4637.92 -1117.69 0.
4984.56 -309.927 0.
2594.08 -838.535 0.
2577.1 -885.38 0.
2560.12 -932.223 0.
1169.13 -1659.71 0.
1039.16 -1969.66 0.
909.198 -2279.62 0.
33.7835 -2450.47 0.
257.106 -1931.38 0.
480.43 -1412.28 0.
-638.695 -1746.38 0.
-581.176 -1606.35 0.
-311.58 -1403.29 0.
-337.749 -1464.14 0.
-363.918 -1525 0.
-1120.07 -1868.4 0.
-1103.91 -1828.64 0.
-1087.74 -1788.88 0.
-1039.82 -1723.86 0.
-1014.11 -1662.4 0.
-988.401 -1600.95 0.
-657.61 -1271.15 0.
-541.069 -994.887 0.
-258.94 -663.127 0.
-527.81 -1231.18 0.
-764.861 -1785.59 0.
-409.006 -1960.52 0.
-382.401 -1895.62 0.
-355.797 -1830.71 0.
-97.9039 -1614.04 0.
-5.44214 -1394.03 0.
87.0202 -1174.02 0.
-451.608 -1105.65 0.
-269.415 -677.18 0.
-87.2211 -248.711 0.
-527.339 -690.236 0.
-689.129 -1066.74 0.
-334.851 -1157.6 0.
-222.892 -902.039 0.
-110.933 -646.478 0.
-204.48 -608.148 0.
-279.921 -783.847 0.
-355.36 -959.546 0.
-325.816 -991.852 0.
-312.895 -961.994 0.
-299.975 -932.137 0.
296.452 -483.346 0.
422.142 -192.935 0.
324.524 -165.724 0.
52.7065 -361.231 0.
10.8014 -464.613 0.
26.6762 -560.387 0.
-85.1363 -822.616 0.
-196.949 -1084.84 0.
11.4502 -1110.33 0.
35.156 -1049.62 0.
58.8617 -988.904 0.
-335.32 -1251.99 0.
-433.775 -1478.98 0.
-532.23 -1705.97 0.
-477.99 -1530.75 0.
-365.051 -1268.7 0.
-587.185 -1156.3 0.
-530.489 -1023.11 0.
-473.793 -889.92 0.
-200.5 -759.378 0.
-315.626 -1026.62 0.
-430.752 -1293.87 0.
-664.748 -1535.87 0.
-702.253 -1625.89 0.
-739.759 -1715.9 0.
-171.543 -1422.06 0.
-122.982 -1312.44 0.
-92.7075 -1210.45 0.
-1024.11 -1562.89 0.
-990.335 -1496.09 0.
-950.063 -1429.67 0.
-907.739 -1333.12 0.
-865.415 -1236.58 0.
-699.965 -1146.5 0.
-731.776 -1224.64 0.
-763.587 -1302.78 0.
-232.143 -1215.56 0.
-334.764 -1448.44 0.
-437.383 -1681.32 0.
416.895 -1573.57 0.
273.035 -1902.42 0.
617.749 -2000.66 0.
518.17 -2226.98 0.
418.592 -2453.3 0.
958.197 -2231.67 0.
1164.85 -1752.92 0.
1371.5 -1274.18 0.
1585.22 -910.99 0.
1669.27 -719.84 0.
1753.32 -528.691 0.
4533.78 7.10755 0.
4060.4 -1093.01 0.
-1352.94 -4314.52 0.
3583.56 -1539.52 0.
3928.53 -731.673 0.
1986.09 -1069.14 0.
1968.14 -1115.26 0.
1950.19 -1161.37 0.
1136.78 -1643.66 0.
1006.65 -1953.45 0.
876.525 -2263.23 0.
554.903 -2197.86 0.
777.957 -1677.57 0.
1001.01 -1157.28 0.
-206.794 -1531.56 0.
-148.826 -1391.63 0.
-254.492 -1345.53 0.
-279.947 -1406.83 0.
-305.404 -1468.14 0.
-882.151 -1732.1 0.
-865.643 -1692.71 0.
-849.135 -1653.31 0.
-624.031 -1515.38 0.
-598.519 -1453.8 0.
-573.007 -1392.22 0.
-473.662 -1161.01 0.
-357.935 -884.221 0.
-185.485 -602.146 0.
-538.262 -1205.52 0.
-775.691 -1759.45 0.
-482.498 -1960.95 0.
-456.074 -1895.47 0.
-429.652 -1829.99 0.
215.124 -1449.12 0.
307.419 -1228.65 0.
399.715 -1008.18 0.
-486.385 -1087.26 0.
-304.122 -658.835 0.
-121.86 -230.414 0.
-393.784 -600.742 0.
-556.258 -976.768 0.
-413.489 -1161.19 0.
-302.4 -904.811 0.
-191.31 -648.429 0.
-213.309 -582.729 0.
-289.051 -758.468 0.
-364.793 -934.207 0.
-506.604 -1037.91 0.
-493.495 -1008.24 0.
-480.387 -978.575 0.
206.609 -491.209 0.
331.57 -200.222 0.
-214.817 -1046.55 0.
-215.135 -950.524 0.
-171.123 -848.657 0.
-55.3657 -746.293 0.
-90.9729 -835.368 0.
-126.58 -924.442 0.
137.105 -877.555 0.
102.473 -967.265 0.
67.841 -1056.98 0.
-480.837 -1342.94 0.
-497.039 -1383.54 0.
-513.241 -1424.14 0.
-491.269 -1511.26 0.
-553.275 -1646.47 0.
-885.643 -1897.8 0.
-930.412 -2002.38 0.
-975.181 -2106.96 0.
-659.337 -2029.68 0.
-653.687 -2017.83 0.
-648.037 -2005.99 0.
-736.33 -2018.3 0.
-717.143 -1973.92 0.
-697.955 -1929.54 0.
-354.43 -1717.11 0.
-315.872 -1625.68 0.
7.78317 -1411.99 0.
-901.774 -1636.25 0.
-811.246 -1424.38 0.
-681.854 -1290.66 0.
-824.551 -1623.61 0.
-967.248 -1956.55 0.
-900.923 -2154.07 0.
-981.814 -2346.26 0.
-1062.71 -2538.46 0.
-637.183 -2444 0.
-660.707 -2496.91 0.
-684.233 -2549.82 0.
373.784 -2343.76 0.
221.81 -2694.31 0.
312.237 -2908.16 0.
355.284 -2803.5 0.
398.329 -2698.84 0.
723.964 -2397 0.
889.284 -2000.7 0.
1054.6 -1604.4 0.
1079.96 -1395.84 0.
1122.31 -1293.7 0.
1164.65 -1191.55 0.
3418.33 -381.171 0.
3299.83 -661.376 0.
-990.069 -2731.24 0.
3089.71 -739.104 0.
3220.78 -438.733 0.
1588.65 -975.488 0.
1513.34 -1148.44 0.
1438.04 -1321.39 0.
992.145 -1687 0.
886.196 -1932.54 0.
780.247 -2178.08 0.
741.811 -2260.98 0.
739.376 -2264.26 0.
736.942 -2267.54 0.
-498.594 -2619.33 0.
-397.49 -2387.14 0.
-585.759 -2299.14 0.
-579.151 -2280.22 0.
-572.543 -2261.29 0.
-904.021 -2318.28 0.
-805.711 -2083.79 0.
-707.401 -1849.29 0.
-565.958 -1729.75 0.
-588.339 -1785.08 0.
-610.72 -1840.41 0.
-778.549 -1976.19 0.
-807.899 -2052.59 0.
-666.323 -2051.1 0.
-795.598 -2117.57 0.
-800.471 -2130.74 0.
-551.221 -2082.05 0.
-653.89 -2326.7 0.
-756.56 -2571.35 0.
-163.355 -2323.21 0.
-53.3501 -2067.62 0.
56.6541 -1812.03 0.
-786.537 -1872.36 0.
-611.867 -1465.95 0.
-437.198 -1059.55 0.
-515.113 -1166.95 0.
-572.929 -1304.8 0.
-563.169 -1386.52 0.
-515.316 -1276.07 0.
-467.464 -1165.62 0.
-350.337 -1009.47 0.
-277.488 -846.038 0.
-204.638 -682.602 0.
-384.166 -716.328 0.
-397.452 -743.463 0.
-410.737 -770.598 0.
-56.3108 -597.883 0.
-38.9398 -557.982 0.
-370.893 -1080.2 0.
-100.745 -868.322 0.
-57.3088 -766.305 0.
-4.08704 -693.187 0.
-40.0034 -782.009 0.
-75.9196 -870.83 0.
110.461 -857.817 0.
75.6003 -947.325 0.
40.7397 -1036.83 0.
-432.646 -1292.66 0.
-448.979 -1333.38 0.
-465.313 -1374.09 0.
-658.93 -1552.12 0.
-720.336 -1688.18 0.
-796.19 -1828.06 0.
-841.349 -1932.67 0.
-886.508 -2037.28 0.
-617.073 -1980.81 0.
-611.855 -1968.85 0.
-606.636 -1956.89 0.
-474.367 -1874.91 0.
-454.829 -1830.78 0.
-435.29 -1786.65 0.
-775.461 -1868.37 0.
-736.952 -1777.17 0.
-86.4004 -1423.59 0.
-581.942 -1466.14 0.
-490.651 -1254.88 0.
-153.248 -1031.76 0.
-296.39 -1364.87 0.
-439.534 -1697.98 0.
-458.053 -1936.13 0.
-540.022 -2127.48 0.
-621.993 -2318.83 0.
-548.045 -2374.27 0.
-572.608 -2426.68 0.
-597.172 -2479.08 0.
429.618 -2288.9 0.
277.62 -2639.35 0.
115.431 -2961.12 0.
158.707 -2856.72 0.
201.98 -2752.32 0.
533.305 -2447.26 0.
699.3 -2051.41 0.
865.295 -1655.55 0.
1006.54 -1395.17 0.
1048.99 -1292.98 0.
1091.44 -1190.79 0.
2628.87 -690.417 0.
2509.7 -970.019 0.
1207.36 -1759.73 0.
2122.42 -1122.27 0.
2252.21 -821.629 0.
1150.74 -1130.73 0.
1075.4 -1304.54 0.
1000.07 -1478.34 0.
746.682 -1760.66 0.
640.237 -2006.85 0.
533.791 -2253.03 0.
773.426 -2213.6 0.
770.779 -2217.04 0.
768.132 -2220.49 0.
-434.89 -2560.9 0.
-334.513 -2328.07 0.
-436.329 -2205.57 0.
-429.65 -2185.92 0.
-422.972 -2166.26 0.
-558.893 -2139.86 0.
-460.566 -1905.06 0.
-362.239 -1670.26 0.
-575.382 -1704.42 0.
-597.702 -1759.91 0.
-620.022 -1815.41 0.
-800.514 -1951.24 0.
-830.171 -2027.19 0.
-640.168 -2009.01 0.
-426.281 -1927.79 0.
-431.452 -1940.45 0.
-489.954 -2026.66 0.
-593.341 -2270.19 0.
-696.727 -2513.72 0.
-433.667 -2409.34 0.
-323.893 -2153.54 0.
-214.12 -1897.74 0.
-609.666 -1763.81 0.
-435.104 -1357 0.
-260.542 -950.197 0.
-311.283 -1049.98 0.
-369.88 -1186.55 0.
-590.551 -1366.55 0.
-542.438 -1256.48 0.
-494.325 -1146.4 0.
-197.363 -913.538 0.
-125.731 -748.933 0.
-54.0986 -584.327 0.
-218.48 -615.57 0.
-231.64 -642.717 0.
-244.8 -669.865 0.
-469.342 -744.243 0.
-451.841 -704.03 0.
-99.7474 -144.879 0.
218.894 -301.265 0.
712.866 854.972 0.
375.637 108.556 0.
110.743 -502.212 0.
183.064 -326.008 0.
429.697 -36.0221 0.
401.104 -102.435 0.
589.324 335.796 0.
330.646 424.534 0.
416.545 626.858 0.
331.625 430.659 0.
-279.568 -316.592 0.
-597.195 -1060.48 0.
-341.542 -893.558 0.
240.268 462.312 0.
66.4962 55.146 0.
399.669 343.487 0.
197 -130.512 0.
-45.3973 -697.481 0.
467.399 -146.763 0.
422.109 -253.46 0.
-264.025 -1855.32 0.
-798.706 -1107.81 0.
-162.068 374.293 0.
13.6938 389.631 0.
389.113 214.801 0.
-211.952 -1191.81 0.
199.969 -1161.5 0.
669.029 -71.2743 0.
878.682 413.603 0.
794.597 186.368 0.
549.922 -387.715 0.
495.487 -517.509 0.
331.744 -453.355 0.
478.85 -114.207 0.
160.693 -860.088 0.
1757.17 744.958 0.
1169.85 -631.898 0.
907.063 -702.192 0.
876.353 -784.436 0.
1100.02 -272.853 0.
1300.2 -245.082 0.
1529.6 280.92 0.
1359.71 -124.422 0.
1455.17 -170.935 0.
1826.65 692.303 0.
888.194 -1501.81 0.
2019.35 -584.259 0.
2560.47 679.055 0.
-723.545 1019.53 0.
2091.84 701.533 0.
1592.33 -464.635 0.
1619.57 811.112 0.
1374.97 242.201 0.
972.781 -692.686 0.
1543.7 601.687 0.
1183.75 -238.761 0.
1046.77 -559.631 0.
1332.49 -927.196 0.
1577.66 -351.634 0.
1964.95 555.002 0.
465.502 -555.161 0.
544.469 -367.665 0.
584.161 -69.2148 0.
535.502 -183.649 0.
628.938 33.7984 0.
538.79 -187.97 0.
820.96 463.662 0.
284.281 -795.437 0.
-309.595 -1031.99 0.
82.3931 -117.075 0.
337.354 477.87 0.
88.4191 179.917 0.
470.192 1071.46 0.
-113.964 -202.639 0.
589.881 -221.137 0.
952.172 621.107 0.
231.172 -419.438 0.
165.093 -577.493 0.
241.356 -403.646 0.
104.814 -623.315 0.
87.1766 -659.487 0.
420.639 123.671 0.
274.594 -9.87731 0.
-4.51313 -658.068 0.
464.076 437.907 0.
384.577 229.535 0.
665.876 885.648 0.
-142.555 -244.155 0.
-12.8692 59.4923 0.
-31.1695 17.7101 0.
-25.5271 -771.417 0.
563.17 602.56 0.
633.072 765.453 0.
-65.5911 -533.097 0.
195.331 72.9505 0.
-72.3044 -554.126 0.
-987.35 -1161.97 0.
-1049.01 -1304.45 0.
-39.0149 -377.235 0.
-50.5789 -579.389 0.
-147.106 -802.241 0.
-93.731 -937.376 0.
-138.222 -1035.46 0.
-182.713 -1133.54 0.
-22.2126 -1168.06 0.
-84.2087 -1313.07 0.
-146.205 -1458.08 0.
-401.901 -1470.4 0.
-281.226 -1189.15 0.
-160.551 -907.895 0.
-790.825 -1284.87 0.
-879.503 -1490.59 0.
-502.682 -1482.12 0.
-495.615 -1465.91 0.
-488.546 -1449.71 0.
-400.174 -1460.57 0.
-501.284 -1696.73 0.
-602.394 -1932.9 0.
-439.977 -1924.8 0.
-410.688 -1857.21 0.
-381.399 -1789.61 0.
-748.202 -1765.72 0.
-627.024 -1485.16 0.
-145.308 -1050.28 0.
-349.563 -1384.96 0.
-485.082 -1704.8 0.
-135.158 -1753.06 0.
-95.8009 -1666 0.
-56.4435 -1578.94 0.
-70.711 -1599.4 0.
-140.149 -1764.87 0.
-209.587 -1930.34 0.
-89.3597 -2063.58 0.
-200.538 -2326.38 0.
-311.717 -2589.17 0.
268.709 -2345.63 0.
280.772 -2319.85 0.
225.487 -2302.12 0.
358.212 -2001.34 0.
490.937 -1700.55 0.
674.38 -1476.74 0.
645.68 -1551.74 0.
616.978 -1626.74 0.
670.13 -1434.83 0.
861.162 -993.867 0.
1052.19 -552.9 0.
1778.43 -268.866 0.
1708.15 -434.005 0.
-1017.15 -1737.37 0.
1306.38 -687.158 0.
1333.72 -620.978 0.
753.923 -841.224 0.
724.562 -906.579 0.
695.201 -971.934 0.
927.182 -1113.5 0.
681.53 -1689.48 0.
435.879 -2265.46 0.
600.259 -2207.6 0.
704.273 -1963.29 0.
808.287 -1718.98 0.
-25.3509 -1953.23 0.
31.3239 -1820.04 0.
-94.469 -1782.14 0.
-94.7802 -1784.01 0.
-95.0918 -1785.88 0.
-146.08 -1815.36 0.
-159.244 -1849.55 0.
-172.41 -1883.75 0.
-672.118 -2003.15 0.
-576.255 -1778 0.
-480.393 -1552.86 0.
-671.436 -1686.79 0.
-725.569 -1813.02 0.
-266.445 -1716.73 0.
-81.6854 -1546.98 0.
-32.24 -1435.16 0.
-99.7839 -1405.87 0.
-117.439 -1451.99 0.
-135.095 -1498.1 0.
-354.738 -1526.81 0.
-270.194 -1322.96 0.
-185.651 -1119.1 0.
-249.832 -1211.21 0.
-336.695 -1412.74 0.
-423.558 -1614.26 0.
-115.765 -1276.84 0.
9.4461 -986.483 0.
-430.621 -968.366 0.
-420.094 -944.583 0.
-409.567 -920.801 0.
-163.957 -758.467 0.
-82.5452 -571.238 0.
-1.13345 -384.009 0.
-95.5481 -428.107 0.
-151.742 -562.225 0.
-207.935 -696.343 0.
-336.403 -700.634 0.
-294.464 -600.484 0.
171.598 -259.909 0.
-219.521 -623.167 0.
-315.473 -846.563 0.
-101.65 -906.757 0.
-145.891 -1005.69 0.
-190.132 -1104.63 0.
35.3744 -1110.95 0.
-26.5097 -1256.43 0.
-88.3939 -1401.91 0.
-287.123 -1387.65 0.
-165.506 -1107.02 0.
-43.8882 -826.399 0.
-894.131 -1298.27 0.
-983.649 -1503.28 0.
-375.763 -1396.32 0.
-368.704 -1379.98 0.
-361.644 -1363.63 0.
-417.03 -1436.89 0.
-518.657 -1672.76 0.
-620.285 -1908.62 0.
-599.771 -1962.12 0.
-570.17 -1894.47 0.
-540.569 -1826.82 0.
-323.847 -1553.16 0.
-203.274 -1271.9 0.
311.734 -821.95 0.
-398.951 -1377.91 0.
-533.755 -1698.27 0.
-216.224 -1755.05 0.
-176.724 -1668.18 0.
-137.224 -1581.31 0.
-175.132 -1608.58 0.
-244.272 -1774.48 0.
-313.412 -1940.39 0.
256.656 -1885.09 0.
145.255 -2146.94 0.
33.854 -2408.8 0.
84.6128 -2393.86 0.
95.7572 -2367.04 0.
247.387 -2261.15 0.
379.588 -1959.96 0.
511.79 -1658.77 0.
570.229 -1491.74 0.
541.389 -1566.36 0.
512.548 -1640.99 0.
388.214 -1524.88 0.
579.499 -1083.95 0.
770.785 -643.022 0.
1336.24 -425.532 0.
1266.25 -591.355 0.
-3991.35 -2979.75 0.
1089.31 -748.355 0.
1116.54 -682.943 0.
578.483 -881.232 0.
549.671 -947.139 0.
520.859 -1013.05 0.
1089.66 -1012.95 0.
844.706 -1589.04 0.
599.747 -2165.12 0.
391.487 -2266.54 0.
495.444 -2021.96 0.
599.402 -1777.38 0.
124.941 -1856.99 0.
181.823 -1723.71 0.
-7.04348 -1712.11 0.
-7.72723 -1713.66 0.
-8.41143 -1715.21 0.
-116.38 -1772.16 0.
-129.915 -1806.01 0.
-143.45 -1839.86 0.
-592.255 -1938.44 0.
-495.897 -1713.48 0.
-399.539 -1488.52 0.
-605.853 -1626.16 0.
-659.569 -1752.58 0.
348.823 -1422.46 0.
-192.465 -1563.2 0.
-143.759 -1451.1 0.
33.2867 -1315.48 0.
15.5189 -1361.87 0.
-2.24973 -1408.26 0.
-428.945 -1528.87 0.
-344.827 -1324.93 0.
-260.709 -1120.98 0.
-244.646 -1177.24 0.
-330.96 -1379.42 0.
-417.274 -1581.59 0.
78.907 -1163.25 0.
204.583 -872.993 0.
-386.343 -917.976 0.
-375.384 -894.509 0.
-364.426 -871.042 0.
-322.707 -793.536 0.
-240.514 -606.852 0.
-158.322 -420.167 0.
-171.062 -429.492 0.
-227.191 -563.715 0.
-283.321 -697.939 0.
235.471 -423.904 0.
277.461 -322.833 0.
-191.199 -1040.25 0.
-299.677 -928.376 0.
-205.143 -706.656 0.
10.3782 -529.266 0.
-155.108 -918.058 0.
-320.594 -1306.85 0.
-98.1074 -1323.06 0.
-5.56534 -1111.28 0.
86.9773 -899.49 0.
-70.4139 -959.019 0.
-115.498 -1062.54 0.
-160.581 -1166.06 0.
-1000.95 -1651.17 0.
-1075.5 -1823.59 0.
-403.792 -1676.27 0.
-467.276 -1823.48 0.
-530.76 -1970.7 0.
-691.472 -2047.73 0.
-569.06 -1762.85 0.
-446.647 -1477.98 0.
-318.018 -1324.35 0.
-328.089 -1343.66 0.
-338.16 -1362.97 0.
-208.52 -1489.65 0.
-329.283 -1773.25 0.
213.095 -1772.5 0.
-713.613 -2241.72 0.
-748.944 -2323.53 0.
-485.039 -2222.7 0.
-366.147 -1941.73 0.
-247.256 -1660.76 0.
-52.1757 -1506.87 0.
-123.652 -1674.97 0.
-195.129 -1843.06 0.
341.757 -1661.07 0.
342.713 -1655.96 0.
343.668 -1650.85 0.
163.643 -1800.88 0.
117.117 -1908.4 0.
397.382 -1856.61 0.
486.328 -1649.2 0.
575.275 -1441.79 0.
440.599 -1366.88 0.
466.718 -1300.45 0.
492.837 -1234.02 0.
301.544 -1257.21 0.
343.221 -1158.08 0.
384.897 -1058.96 0.
1069.71 -720.869 0.
1088.87 -674.443 0.
-6104.91 -3719.88 0.
1053.33 -546.797 0.
1111.39 -416.297 0.
564.368 -639.589 0.
386.919 -1049.35 0.
209.47 -1459.11 0.
861.155 -1420.83 0.
782.889 -1599.68 0.
704.623 -1778.53 0.
356.392 -1874.4 0.
433.24 -1693.03 0.
510.089 -1511.67 0.
245.7 -1570.65 0.
266.222 -1519.61 0.
100.296 -1559.49 0.
66.1979 -1637.79 0.
32.0995 -1716.1 0.
-190.873 -1835.59 0.
-159.991 -1759.2 0.
-129.108 -1682.81 0.
-410.048 -1689.55 0.
-332.978 -1510.54 0.
-255.908 -1331.53 0.
-416.428 -1425.05 0.
-449.164 -1504.97 0.
735.954 -1070.28 0.
-378.637 -1600.91 0.
-405.834 -1665.46 0.
-66.0908 -1539.61 0.
-40.6241 -1471.43 0.
-15.1573 -1403.26 0.
-343.098 -1546.96 0.
-380.847 -1641.04 0.
-418.596 -1735.11 0.
-575.977 -1823.86 0.
-574.912 -1822.56 0.
-573.848 -1821.26 0.
-9.99277 -1385.79 0.
106.875 -1116.43 0.
-350.573 -1112.61 0.
-335.347 -1077.4 0.
-320.122 -1042.19 0.
-457.319 -1098.86 0.
-474.687 -1140.84 0.
-492.056 -1182.82 0.
-496.361 -1125.47 0.
-433.817 -976.348 0.
-371.274 -827.225 0.
370.948 -496.479 0.
366.241 -512.145 0.
-438.601 -1115.44 0.
11.8104 -764.094 0.
105.35 -541.827 0.
-54.3122 -525.898 0.
-220.642 -914.582 0.
-386.971 -1303.27 0.
-218.513 -1342.21 0.
-126.034 -1130.73 0.
-33.5557 -919.249 0.
-65.8499 -925.344 0.
-110.741 -1029.29 0.
-155.633 -1133.23 0.
-772.135 -1523.74 0.
-847.162 -1695.14 0.
-288.483 -1595.91 0.
-351.381 -1743.2 0.
-414.28 -1890.49 0.
-675.052 -2010.44 0.
-552.419 -1725.56 0.
-429.785 -1440.69 0.
-116.023 -1208.31 0.
-126.304 -1227.39 0.
-136.584 -1246.47 0.
-383.164 -1533.62 0.
-503.987 -1817.01 0.
-424.253 -2014.39 0.
-500.224 -2120.65 0.
-535.202 -2202.92 0.
-552.743 -2219.98 0.
-433.902 -1938.86 0.
-315.062 -1657.74 0.
269.626 -1335.58 0.
198.348 -1504.14 0.
127.07 -1672.69 0.
15.7511 -1768.93 0.
16.8897 -1764.21 0.
18.0281 -1759.49 0.
-47.2936 -1859.12 0.
-93.3438 -1966.24 0.
350.338 -1845.7 0.
439.129 -1638.32 0.
527.921 -1430.95 0.
120.24 -1473.42 0.
146.561 -1407.87 0.
172.881 -1342.32 0.
110.614 -1304.45 0.
152.6 -1206.64 0.
194.587 -1108.83 0.
1197.66 -632.85 0.
1217.22 -587.243 0.
5151.87 1136.01 0.
1005.64 -534.563 0.
1063.18 -403.72 0.
498.152 -635.188 0.
319.967 -1044.36 0.
141.782 -1453.53 0.
590.662 -1507.1 0.
511.685 -1685.46 0.
432.708 -1863.81 0.
91.1293 -1958.53 0.
167.274 -1776.9 0.
243.419 -1595.28 0.
130.613 -1587.14 0.
150.529 -1536.15 0.
140.028 -1512.94 0.
106.306 -1591.84 0.
72.5841 -1670.74 0.
-303.126 -1850.96 0.
-271.597 -1775.17 0.
-240.068 -1699.39 0.
-280.192 -1603.69 0.
-202.675 -1424.78 0.
-125.159 -1245.87 0.
-191.009 -1294.77 0.
-223.898 -1374.48 0.
457.098 -1158.75 0.
-633.881 -1679.38 0.
-661.306 -1743.91 0.
-189.585 -1560.45 0.
-163.422 -1492.97 0.
-137.258 -1425.49 0.
-7.58195 -1372.16 0.
-46.4901 -1465.82 0.
-85.399 -1559.47 0.
-672.106 -1833.77 0.
-671.13 -1833.2 0.
-670.154 -1832.63 0.
-160.332 -1418.87 0.
-43.7595 -1149.31 0.
-86.5186 -968.621 0.
-70.9731 -933.486 0.
-55.4275 -898.35 0.
-287.245 -995.156 0.
-304.636 -1037.09 0.
-322.026 -1079.02 0.
-465.099 -1080.95 0.
-402.463 -931.866 0.
-339.828 -782.781 0.
260.162 -511.691 0.
254.432 -527.934 0.
379.34 1309.72 0.
670.637 222.435 0.
370.053 -484.962 0.
-111.004 -503.985 0.
-78.1825 -428.915 0.
386.913 656.087 0.
-84.8671 -769.484 0.
-1.25832 -572.378 0.
70.2302 -404.231 0.
-131.658 -1057.81 0.
134.625 -435.028 0.
212.706 -250.912 0.
-154.568 -477.081 0.
48.2997 -2.21329 0.
734.413 594.528 0.
33.723 -1038.56 0.
157.432 -747.591 0.
62.1537 -296.948 0.
314.648 292.778 0.
267.998 184.398 0.
862.123 727.201 0.
669.385 274.293 0.
737.338 430.131 0.
-68.4123 -457.691 0.
364.684 553.11 0.
400.725 126.799 0.
384.647 -428.638 0.
812.488 569.721 0.
632.416 701.62 0.
572.116 565.239 0.
170.897 -366.558 0.
1334.68 568.677 0.
889.51 -465.64 0.
928.077 -371.374 0.
711.405 513.894 0.
610.373 274.627 0.
610.423 270.43 0.
1112.87 1288.43 0.
533.155 -63.5094 0.
1003.5 -209.651 0.
1252.09 367.249 0.
942.432 -358.777 0.
462.04 -28.3636 0.
167.696 -716.55 0.
318.358 -365.254 0.
730.874 548.217 0.
313.244 -430.923 0.
711.296 493.093 0.
1443.64 -264.826 0.
2057.23 1169.68 0.
-7649.45 -1325.06 0.
1682.03 1172.06 0.
1047.73 -307.723 0.
405.356 -690.735 0.
623.459 -182.465 0.
864.734 379.607 0.
958.903 -89.2536 0.
1216.86 509.476 0.
886.609 -264.574 0.
746.019 117.004 0.
1085.25 902.639 0.
377.749 -754.394 0.
726.767 59.2146 0.
856.367 355.9 0.
1208.52 942.16 0.
553.399 -588.352 0.
594.021 -495.842 0.
194.565 -453.752 0.
90.4777 -699.464 0.
92.5656 -697.799 0.
758.873 614.467 0.
457.099 -93.2162 0.
393.792 -244.314 0.
271.873 -613.12 0.
213.175 -748.825 0.
544.413 -2.9395 0.
-358.15 -531.149 0.
-71.2026 141.292 0.
388.962 62.2767 0.
302.033 -137.865 0.
-90.8926 -1052.85 0.
933.729 221.502 0.
1047.94 487.526 0.
930.811 214.056 0.
-148.393 -401.321 0.
-236.269 -603.297 0.
-32.6996 -125.383 0.
328.331 35.8202 0.
202.339 -253.139 0.
1085.62 1302.88 0.
818.977 686.318 0.
435.584 -203.257 0.
603.016 774.681 0.
774.232 1175.77 0.
479.868 490.5 0.
-250.343 -605.803 0.
-191.995 -472.636 0.
277.977 621.893 0.
577.742 458.406 0.
670.516 672.671 0.
-102.862 -368.406 0.
287.084 -442.908 0.
124.988 -822.918 0.
-514.859 -1298.35 0.
-396.197 -1019.88 0.
-277.534 -741.409 0.
-189.013 -603.786 0.
-231.132 -700.637 0.
-273.252 -797.489 0.
-153.877 -841.111 0.
-207.962 -964.89 0.
-262.046 -1088.67 0.
-322.378 -1167.86 0.
-345.441 -1223.37 0.
50.9148 -1091.44 0.
11.9381 -1181.03 0.
-27.0383 -1270.62 0.
-389.747 -1508.35 0.
-432.31 -1608.37 0.
-474.873 -1708.38 0.
-319.741 -1662.58 0.
-306.781 -1636.39 0.
-293.822 -1610.19 0.
-358.548 -1609.97 0.
-340.691 -1570.74 0.
-53.7103 -1416.08 0.
-259.258 -1496 0.
-254.994 -1485.44 0.
-165.573 -1464.93 0.
-226.316 -1603.46 0.
-287.058 -1741.99 0.
354.007 -1566.79 0.
306.165 -1675.83 0.
258.324 -1784.87 0.
-364.273 -2003.88 0.
-301.06 -1859.04 0.
-237.847 -1714.19 0.
-94.6472 -1698.54 0.
-125.503 -1771.38 0.
202.928 -1698.9 0.
137.022 -1856.43 0.
71.1163 -2013.96 0.
-473.326 -2165.5 0.
-204.51 -1541.25 0.
64.3073 -916.997 0.
312.181 -619.036 0.
277.137 -707.323 0.
242.093 -795.61 0.
1082.49 -456.414 0.
1081.14 -458.947 0.
-1562.72 -1595.75 0.
772.375 -644.012 0.
745.622 -704.723 0.
289.463 -958.399 0.
232.059 -1094.51 0.
174.654 -1230.62 0.
233.612 -1253.36 0.
260.934 -1190.52 0.
288.257 -1127.67 0.
150.191 -1254.04 0.
81.3402 -1417.55 0.
12.49 -1581.05 0.
-27.1683 -1610.12 0.
-22.5863 -1604.29 0.
218.627 -1500.33 0.
196.124 -1556.97 0.
173.621 -1613.61 0.
-348.536 -1824.99 0.
-281.017 -1671.29 0.
-213.498 -1517.59 0.
-18.1158 -1392.92 0.
-23.3422 -1409.24 0.
-28.5685 -1425.56 0.
-282.558 -1502.83 0.
-259.672 -1445.22 0.
-136.326 -1340.75 0.
-627.598 -1674.9 0.
-694.824 -1827.69 0.
-509.154 -1797.13 0.
-402.471 -1546.62 0.
-295.788 -1296.12 0.
76.1124 -1069.2 0.
29.9027 -1174.51 0.
-16.3068 -1279.83 0.
-256.933 -1366.12 0.
-225.718 -1289.72 0.
-194.502 -1213.32 0.
-118.903 -1080.65 0.
-69.2331 -960.034 0.
-116.168 -895.859 0.
-112.398 -881.844 0.
-108.628 -867.83 0.
-29.598 -830.215 0.
-45.4288 -864.532 0.
-61.2597 -898.849 0.
-464.291 -1129.28 0.
-501.415 -1216.5 0.
-538.54 -1303.72 0.
-33.4689 -1109.76 0.
-37.8609 -1120.31 0.
202.942 -208.062 0.
183.308 -455.739 0.
19.8745 -835.174 0.
-577.43 -1296.55 0.
-459.887 -1017.46 0.
-342.345 -738.381 0.
-387.595 -657.591 0.
-429.507 -754.766 0.
-471.421 -851.942 0.
-280.458 -865.553 0.
-334.69 -989.634 0.
-388.922 -1113.71 0.
-148.42 -1061.99 0.
-171.634 -1117.88 0.
117.259 -1031.3 0.
77.7331 -1120.86 0.
38.2075 -1210.42 0.
-290.483 -1432.56 0.
-332.953 -1532.11 0.
-375.424 -1631.66 0.
-497.333 -1711.63 0.
-485.207 -1684.94 0.
-473.08 -1658.25 0.
-89.3858 -1461.02 0.
-71.1537 -1422.48 0.
-482.181 -1568.08 0.
-471.72 -1556.07 0.
-467.208 -1545.74 0.
12.9098 -1359.19 0.
-47.9534 -1497.63 0.
-108.816 -1636.07 0.
293.838 -1558.56 0.
246.735 -1668.11 0.
199.632 -1777.66 0.
-342.139 -1960.18 0.
-279.608 -1814.52 0.
-217.076 -1668.87 0.
11.089 -1623.55 0.
-19.7856 -1696.02 0.
21.0147 -1745.87 0.
-44.5554 -1903.38 0.
-110.125 -2060.89 0.
-482.625 -2136.56 0.
-213.735 -1512.78 0.
55.1557 -889.005 0.
432.481 -535.683 0.
397.319 -623.945 0.
362.157 -712.207 0.
758.417 -564.015 0.
756.688 -566.352 0.
-640.168 -1168.52 0.
627.119 -674.403 0.
600.163 -734.808 0.
305.884 -920.632 0.
248.251 -1056.81 0.
190.619 -1192.99 0.
-25.0035 -1330.21 0.
2.66234 -1268.25 0.
30.3283 -1206.3 0.
154.338 -1222.16 0.
85.2522 -1385.36 0.
16.1663 -1548.56 0.
-60.423 -1592.99 0.
-56.4364 -1587.09 0.
310.615 -1427.86 0.
288.654 -1485.13 0.
266.693 -1542.39 0.
-281.709 -1765.05 0.
-213.798 -1611.31 0.
-145.887 -1457.58 0.
100.885 -1310.79 0.
96.4211 -1327.5 0.
91.9567 -1344.21 0.
-479.154 -1554.81 0.
-456.301 -1496.3 0.
-195.452 -1335.48 0.
-342.271 -1522.53 0.
-408.984 -1675.64 0.
-615.743 -1810.63 0.
-509.2 -1560 0.
-402.656 -1309.38 0.
-282.009 -1190.81 0.
-328.552 -1296.16 0.
-375.095 -1401.51 0.
132.076 -1168.04 0.
163.639 -1092.17 0.
195.202 -1016.3 0.
-64.4494 -1025.74 0.
-14.3746 -905.637 0.
-417.951 -995.395 0.
-414.225 -981.301 0.
-410.501 -967.207 0.
56.2229 -760.343 0.
40.0778 -794.461 0.
23.9325 -828.579 0.
-437.187 -1088.54 0.
-474.778 -1175.61 0.
-512.37 -1262.67 0.
57.6762 -1039.65 0.
52.431 -1050.22 0.
-194.676 -1067.66 0.
-104.552 -923.644 0.
0.185142 -677.992 0.
-326.578 -666.147 0.
-359.591 -742.982 0.
-392.604 -819.816 0.
-484.065 -976.155 0.
-586.594 -1212.31 0.
-689.124 -1448.46 0.
-570.107 -1408.11 0.
-519.308 -1290.69 0.
-468.508 -1173.28 0.
-125.142 -1098.84 0.
-178.473 -1219.63 0.
-65.6739 -1255.83 0.
-51.9446 -1224.67 0.
-38.215 -1193.51 0.
-200.658 -1273.13 0.
-241.06 -1365.56 0.
-281.462 -1457.98 0.
-452.618 -1538.03 0.
-422.301 -1470.77 0.
-391.983 -1403.51 0.
10.3662 -1095.2 0.
88.4997 -910.653 0.
269.445 -681.579 0.
-201.525 -942.49 0.
-231.818 -1016.84 0.
205.945 -907.88 0.
121.286 -1107.2 0.
36.6271 -1306.53 0.
273.352 -1277.3 0.
302.483 -1212.51 0.
331.615 -1147.71 0.
59.3828 -1290 0.
30.0971 -1364.29 0.
0.810423 -1438.57 0.
113.05 -1350.82 0.
138.353 -1290.84 0.
118.671 -1246.9 0.
183.81 -1094.25 0.
248.95 -941.603 0.
-0.0842041 -975.545 0.
-22.7413 -1023.7 0.
-45.398 -1071.85 0.
309.697 -880.552 0.
366.197 -748.455 0.
422.697 -616.358 0.
556.257 -568.603 0.
537.928 -614.03 0.
-1595.01 -1566.02 0.
606.615 -583.842 0.
628.129 -535.98 0.
317.624 -649.148 0.
292.4 -709.203 0.
267.177 -769.258 0.
5.76797 -994.886 0.
-95.1924 -1229.95 0.
-196.152 -1465.01 0.
45.3821 -1371.57 0.
85.916 -1274.93 0.
126.45 -1178.29 0.
95.5492 -1328.13 0.
9.46137 -1522.1 0.
250.625 -1524.07 0.
384.645 -1205.09 0.
518.666 -886.114 0.
24.7496 -964.981 0.
-24.4284 -1075.58 0.
-73.6056 -1186.18 0.
118.986 -1193.42 0.
64.059 -1319.21 0.
9.13274 -1445 0.
-544.133 -1696.75 0.
-544.676 -1699.19 0.
-4.94721 -1479.13 0.
-313.075 -1519 0.
-263.662 -1405.16 0.
-413.606 -1430.42 0.
-496.906 -1623.18 0.
-580.207 -1815.94 0.
-713.209 -1885.69 0.
-629.506 -1691.96 0.
-545.804 -1498.22 0.
217.26 -1056.91 0.
264.435 -948.844 0.
311.609 -840.777 0.
-143.548 -1170.35 0.
-222.102 -1352.91 0.
-670.95 -1639.92 0.
-582.681 -1438.7 0.
-494.411 -1237.47 0.
-105.606 -987.526 0.
-123.396 -1032.36 0.
-141.186 -1077.19 0.
-418.612 -1151.85 0.
-365.648 -1030.12 0.
-312.684 -908.398 0.
214.569 -638.134 0.
236.906 -594.957 0.
-540.484 -1188.73 0.
-184.182 -926.806 0.
-79.3159 -681.611 0.
-262.132 -607.07 0.
-295.654 -683.595 0.
-329.175 -760.119 0.
-175.304 -812.038 0.
-277.129 -1049.01 0.
-378.954 -1285.99 0.
-559.334 -1373.67 0.
-508.747 -1256.45 0.
-458.159 -1139.23 0.
-175.195 -1086.12 0.
-228.046 -1207.91 0.
-289.597 -1320.25 0.
-276.571 -1289.16 0.
-263.545 -1258.07 0.
-216.353 -1248.47 0.
-256.124 -1341.51 0.
-295.894 -1434.56 0.
-318.033 -1447.28 0.
-287.91 -1379.92 0.
-257.788 -1312.57 0.
-348.841 -1218.55 0.
-270.306 -1034.51 0.
-167.587 -840.077 0.
59.9857 -798.505 0.
29.3936 -871.964 0.
68.3342 -937.438 0.
-16.7454 -1135.9 0.
-101.825 -1334.36 0.
26.9689 -1353.73 0.
55.1177 -1287.86 0.
83.2682 -1222 0.
355.654 -1130.06 0.
326.625 -1204.38 0.
297.595 -1278.7 0.
7.47365 -1366.56 0.
33.2334 -1306.33 0.
40.6156 -1247.19 0.
105.045 -1093.82 0.
169.474 -940.446 0.
2.18657 -946.44 0.
-20.9691 -993.946 0.
-44.1244 -1041.45 0.
282.365 -858.345 0.
339.689 -727.105 0.
397.013 -595.864 0.
416.336 -597.855 0.
397.646 -643.106 0.
606.277 -591.215 0.
657.09 -530.331 0.
678.393 -482.533 0.
92.1055 -712.574 0.
66.9531 -772.773 0.
41.8009 -832.972 0.
4.35573 -965.526 0.
-96.2702 -1200.95 0.
-196.896 -1436.37 0.
-38.834 -1376.7 0.
2.91264 -1281.23 0.
44.66 -1185.76 0.
258.385 -1226.57 0.
172.215 -1421.03 0.
118.268 -1548.37 0.
253.197 -1230.34 0.
388.126 -912.314 0.
-109.077 -991.018 0.
-157.961 -1102.02 0.
-206.844 -1213.01 0.
-60.6531 -1238.22 0.
-115.705 -1363.52 0.
-170.755 -1488.83 0.
-325.307 -1574.13 0.
-326.294 -1576.21 0.
169.548 -1370.29 0.
-481.442 -1557.84 0.
-431.664 -1444.52 0.
-180.166 -1299.44 0.
-263.449 -1492.06 0.
-346.733 -1684.68 0.
-645.578 -1826.24 0.
-561.169 -1632.88 0.
-476.761 -1439.52 0.
-37.2863 -1134.04 0.
10.7201 -1026.59 0.
58.7258 -919.127 0.
-208.264 -1165.62 0.
-287.068 -1348.5 0.
-277.924 -1441.7 0.
-189.617 -1239.91 0.
-101.308 -1038.12 0.
-299.34 -1039.3 0.
-317.336 -1083.91 0.
-335.331 -1128.53 0.
-297.771 -1067.73 0.
-244.921 -946.486 0.
-192.071 -825.239 0.
123.693 -646.596 0.
145.518 -604.235 0.
-521.149 -472.019 0.
224.112 208.309 0.
21.0307 -267.611 0.
300.575 617.105 0.
-126.082 -382.674 0.
69.9244 71.0744 0.
274.86 -317.437 0.
423.569 33.5995 0.
554.295 342.617 0.
334.874 712.356 0.
98.5383 164.023 0.
162.675 317.066 0.
400.418 390.611 0.
330.655 232.502 0.
226.232 337.102 0.
-104.131 -433.293 0.
207.685 295.283 0.
552.004 596.979 0.
537.179 566.882 0.
238.431 -125.927 0.
-26.9064 -990.587 0.
403.464 22.5799 0.
774.541 897.339 0.
38.5195 366.464 0.
218.409 789.4 0.
367.976 354.056 0.
637.049 72.9081 0.
1054.54 1050.52 0.
75.4236 -636.339 0.
594.361 574.511 0.
430.155 192.046 0.
-62.3757 -1057.31 0.
764.892 867.052 0.
742.576 808.542 0.
1145.64 184.006 0.
1041.54 -56.7347 0.
1276.35 492.704 0.
185.746 -718.366 0.
48.5249 -1041.03 0.
312.607 -414.949 0.
709.166 513.844 0.
755.894 625.226 0.
315.503 -179.35 0.
309.98 -196.07 0.
683.469 672.717 0.
841.515 525.188 0.
282.863 -778.605 0.
502.347 -267.001 0.
587.981 98.1216 0.
731.207 434.129 0.
-1803.16 -498.167 0.
1103.37 439.192 0.
404.138 -1190.19 0.
-364.643 -1313.06 0.
37.6482 -376.952 0.
132.681 -157.611 0.
238.777 -386.118 0.
469.017 152.06 0.
148.789 -594.256 0.
192.365 -660.311 0.
320.953 -359.634 0.
507.555 76.706 0.
920.201 43.3279 0.
1128.53 522.995 0.
611.233 -121.842 0.
659.492 -5.59359 0.
634.762 -58.5942 0.
-188.188 -897.888 0.
383.136 440.82 0.
244.769 123.796 0.
165.703 -338.936 0.
274.147 -80.1461 0.
392.776 203.148 0.
397.358 -279.477 0.
316.631 -466.968 0.
676.326 995.942 0.
258.243 508.35 0.
117.636 176.857 0.
765.092 505.248 0.
320.998 -537.12 0.
690.684 318.857 0.
-4.2981 -433.01 0.
218.411 90.7588 0.
658.765 1122.21 0.
424.977 445.885 0.
267.926 81.4488 0.
-291.055 -1219.27 0.
277.602 116.716 0.
-57.67 -663.586 0.
729.143 188.961 0.
1152.64 1179.27 0.
925.221 650.589 0.
-468.956 -1049.51 0.
-17.6661 2.89748 0.
0.947958 45.6687 0.
18.4792 -517.236 0.
-213.73 -1057.55 0.
175.752 -148.392 0.
140.611 -403.138 0.
-2.99734 -735.327 0.
-327.184 -1248.97 0.
-396.828 -1176.56 0.
-381.657 -1142.12 0.
-286.381 -1072.95 0.
-256.377 -1006.9 0.
-226.372 -940.847 0.
-119.76 -853.177 0.
-107.158 -820.797 0.
-94.5559 -788.418 0.
-188.868 -960.844 0.
-305.235 -1233.07 0.
-421.602 -1505.29 0.
-635.021 -1507.15 0.
-563.089 -1335.97 0.
-253.178 -1080.32 0.
-258.959 -1096.57 0.
-264.74 -1112.83 0.
-213.794 -1101.72 0.
-224.482 -1123.46 0.
-235.17 -1145.2 0.
-61.571 -1073.62 0.
-62.635 -1071.47 0.
-63.6993 -1069.33 0.
-432.655 -1158.84 0.
-388.346 -1050.83 0.
-522.007 -1019.28 0.
65.3301 -965.359 0.
-36.6428 -1204.23 0.
-355.281 -1517.72 0.
-410.113 -1647.83 0.
-464.945 -1777.94 0.
-303.758 -1715.8 0.
-246.195 -1585.41 0.
-188.632 -1455.02 0.
416.541 -1128.89 0.
447.274 -1058.34 0.
478.006 -987.784 0.
-120.51 -1314.93 0.
-165.849 -1426.5 0.
-242.56 -1524.99 0.
-122.54 -1249.03 0.
-2.52046 -973.074 0.
-86.0094 -914.035 0.
-179.926 -1138.19 0.
-273.843 -1362.34 0.
29.1168 -1227.93 0.
114.984 -1029.44 0.
200.852 -830.936 0.
308.857 -636.562 0.
385.728 -459.955 0.
880.171 -105.524 0.
536.003 -487.729 0.
412.34 -775.367 0.
-175.815 -1202.45 0.
-156.22 -1158.99 0.
-136.625 -1115.53 0.
-104.754 -1013.68 0.
-23.9318 -825.648 0.
56.8899 -637.613 0.
114.108 -671.075 0.
30.3746 -864.332 0.
-53.3591 -1057.59 0.
375.796 -806.482 0.
426.73 -694.556 0.
405.867 -656.001 0.
262.692 -984.278 0.
119.517 -1312.55 0.
-490.836 -1730.51 0.
-477.723 -1694.71 0.
-464.61 -1658.91 0.
-370.119 -1568.42 0.
-332.972 -1481.89 0.
-295.825 -1395.35 0.
-107.454 -1274.99 0.
-88.7977 -1231.49 0.
609.605 -894.699 0.
-536.801 -1356.97 0.
-520.558 -1321.3 0.
30.9021 -1085.63 0.
-14.1999 -1200.16 0.
-59.3027 -1314.7 0.
-470.959 -1524.9 0.
-450.399 -1476.3 0.
-429.839 -1427.7 0.
-360.685 -1351.23 0.
-329.319 -1275.78 0.
-297.954 -1200.33 0.
-170.175 -905.503 0.
-36.9022 -594.384 0.
376.087 -206.677 0.
348.282 -268.736 0.
320.477 -330.795 0.
-57.15 -524.404 0.
-56.1068 -522.534 0.
-55.0633 -520.664 0.
-113.64 -678.498 0.
-232.658 -955.96 0.
-351.677 -1233.42 0.
-282.117 -1125.15 0.
-204.145 -941.132 0.
332.371 -939.952 0.
-414.638 -1155.35 0.
-399.778 -1120.26 0.
-99.9615 -960.329 0.
-70.0137 -894.755 0.
-40.0656 -829.181 0.
-307.259 -903.22 0.
-294.311 -870.909 0.
-281.362 -838.598 0.
67.3199 -819.413 0.
-48.4874 -1092.37 0.
-164.295 -1365.33 0.
-894.15 -1586.73 0.
-821.935 -1415.9 0.
-73.5743 -970.717 0.
-80.3697 -985.966 0.
-87.1652 -1001.22 0.
-242.546 -1084.4 0.
-253.264 -1105.89 0.
-263.982 -1127.37 0.
-45.2965 -1037.22 0.
-46.125 -1035.44 0.
-46.9537 -1033.65 0.
-190.756 -1023.48 0.
-146.452 -915.491 0.
688.487 -468.969 0.
-74.7566 -996.175 0.
-175.849 -1235.44 0.
-399.956 -1505 0.
-454.274 -1635.45 0.
-508.592 -1765.91 0.
-240.691 -1658.39 0.
-183.11 -1528 0.
-125.529 -1397.61 0.
229.87 -1176.1 0.
261.799 -1106.53 0.
293.726 -1036.96 0.
-165.624 -1301.82 0.
-210.812 -1413.17 0.
-315.843 -1522.25 0.
-196.027 -1246.64 0.
-76.211 -971.024 0.
-173.176 -920.33 0.
-267.202 -1144.48 0.
-361.229 -1368.64 0.
-30.1548 -1222.56 0.
56.308 -1024.59 0.
142.771 -826.619 0.
375.914 -576.355 0.
453.159 -399.844 0.
-1585.71 -1130.01 0.
343.334 -539.173 0.
220.129 -827.42 0.
13.244 -1088.6 0.
32.9843 -1045.99 0.
52.7247 -1003.38 0.
-175.274 -1011.77 0.
-95.0592 -823.825 0.
-14.845 -635.882 0.
40.3646 -672.136 0.
-43.3567 -865.618 0.
-127.078 -1059.1 0.
173.038 -862.298 0.
224.416 -750.348 0.
452.601 -602.171 0.
310.165 -930.554 0.
167.729 -1258.94 0.
-409.858 -1666.08 0.
-396.571 -1630.18 0.
-383.284 -1594.28 0.
-360.916 -1531.69 0.
-322.729 -1445.91 0.
-284.542 -1360.12 0.
-183.947 -1277.61 0.
-165.1 -1234.34 0.
292.838 -998.276 0.
-515.626 -1315.82 0.
-499.508 -1280.23 0.
-20.0198 -1077.16 0.
-65.1994 -1191.85 0.
-110.38 -1306.54 0.
-454.849 -1485.44 0.
-432.94 -1437.86 0.
-411.03 -1390.28 0.
-364.707 -1321.53 0.
-332.212 -1247.04 0.
-299.716 -1172.56 0.
-166.036 -872.259 0.
-32.8915 -561.079 0.
163.829 -265.841 0.
136.128 -327.532 0.
108.427 -389.224 0.
188.628 -387.914 0.
189.689 -385.89 0.
190.749 -383.868 0.
-176.053 -674.496 0.
-295.036 -952.46 0.
-414.019 -1230.43 0.
-403.281 -1145.24 0.
-325.441 -962.645 0.
518.579 -743.127 0.
-443.234 -1144.05 0.
-372.879 -981.138 0.
57.5402 -693.872 0.
39.5358 -733.3 0.
21.5314 -772.726 0.
-403.795 -1024.16 0.
-470.977 -1179.83 0.
-538.159 -1335.51 0.
-77.1127 -1106.41 0.
-16.1915 -965.241 0.
44.7291 -824.072 0.
-657.809 -1056.12 0.
-624.988 -982.92 0.
40.6316 -653.745 0.
11.0965 -721.323 0.
-18.4381 -788.901 0.
-123.507 -882.323 0.
-148.279 -941.379 0.
-173.05 -1000.44 0.
-58.7691 -974.703 0.
-56.3051 -975.103 0.
-53.8411 -975.503 0.
-228.152 -1240.73 0.
-355.831 -1536.82 0.
505.533 -1408.81 0.
-409.536 -1631.01 0.
-325.91 -1432.24 0.
-359.541 -1293.64 0.
-291.57 -1131.26 0.
-223.599 -968.877 0.
101.918 -804.692 0.
47.4207 -927.276 0.
-7.07634 -1049.86 0.
260.565 -1001.05 0.
237.441 -1053.81 0.
214.318 -1106.58 0.
-205.495 -1181.65 0.
-144.109 -1030.27 0.
-103.046 -892.275 0.
-85.5146 -850.972 0.
-67.983 -809.669 0.
-169.013 -834.787 0.
-175.339 -849.213 0.
-181.665 -863.638 0.
130.363 -752.175 0.
122.591 -766.108 0.
114.819 -780.042 0.
308.311 -751.098 0.
272.589 -830.842 0.
991.429 -590.415 0.
190.628 -732.417 0.
295.396 -485.641 0.
277.205 -361.621 0.
200.451 -540.254 0.
123.695 -718.887 0.
-186.093 -955.866 0.
-204.738 -1005.37 0.
-223.383 -1054.87 0.
-185.896 -1136.34 0.
-249.914 -1281.38 0.
-313.931 -1426.42 0.
-28.4243 -1226.62 0.
22.1157 -1105.43 0.
225.829 -945.9 0.
184.184 -1045.84 0.
142.538 -1145.77 0.
-276.056 -1381.39 0.
-293.64 -1424.28 0.
-311.225 -1467.16 0.
-309.46 -1458.13 0.
-290.11 -1407.31 0.
-270.759 -1356.49 0.
-165.951 -1114.02 0.
-39.7746 -826.007 0.
708.224 -276.048 0.
-410.482 -1000.83 0.
-541.077 -1302.5 0.
-231.715 -1318.62 0.
-151.401 -1123.54 0.
-71.0859 -928.461 0.
-125.91 -871.523 0.
-130.504 -879.588 0.
-135.097 -887.653 0.
-236.42 -1065.86 0.
-336.792 -1299.77 0.
-437.164 -1533.67 0.
-404.394 -1332.18 0.
-283.867 -1049.67 0.
-156.772 -814.337 0.
-220.969 -966.751 0.
-285.166 -1119.17 0.
-81.3902 -1107.22 0.
-82.8997 -1111.23 0.
-84.4092 -1115.24 0.
-388.726 -1122.39 0.
-274.473 -854.725 0.
-160.219 -587.062 0.
-214.86 -529.954 0.
-184.235 -460.707 0.
147.242 -871.596 0.
-486.047 -1135.58 0.
-416.694 -970.934 0.
3.70765 -683.331 0.
-13.9532 -722.767 0.
-31.614 -762.202 0.
-299.521 -949.39 0.
-366.761 -1105.15 0.
-434.001 -1260.91 0.
-360.152 -1195.12 0.
-298.855 -1054.38 0.
-237.558 -913.651 0.
-333.838 -888.547 0.
-300.983 -815.352 0.
-148.829 -699.176 0.
-177.831 -766.715 0.
-206.832 -834.255 0.
19.8795 -791.68 0.
-5.53485 -849.373 0.
-30.9487 -907.066 0.
-146.858 -983.333 0.
-144.002 -983.494 0.
-141.146 -983.656 0.
-288.316 -1233.68 0.
-415.521 -1530.22 0.
-405.478 -1768.2 0.
-398.829 -1595.56 0.
-314.557 -1397.46 0.
-414.86 -1284.75 0.
-346.277 -1123.13 0.
-277.695 -961.507 0.
8.16758 -811.921 0.
-45.5964 -935.257 0.
-99.3604 -1058.59 0.
361.746 -927.544 0.
338.642 -980.796 0.
315.538 -1034.05 0.
-361.675 -1216.99 0.
-298.957 -1066.26 0.
-141.275 -874.887 0.
-123.323 -834.49 0.
-105.371 -794.093 0.
-134.614 -790.554 0.
-139.929 -806.276 0.
-145.243 -821.999 0.
104.839 -728.954 0.
98.2184 -744.092 0.
91.5978 -759.231 0.
266.653 -736.752 0.
232.397 -817.963 0.
-1024.37 -1422.77 0.
263.772 -668.038 0.
367.966 -421.003 0.
-9.34988 -455.221 0.
-87.3297 -632.986 0.
-165.31 -810.75 0.
-168.569 -918.349 0.
-187.518 -968.084 0.
-206.466 -1017.82 0.
-146.504 -1086.87 0.
-209.762 -1232.43 0.
-273.019 -1377.99 0.
88.2244 -1145.06 0.
139.298 -1024.22 0.
21.6179 -1003.08 0.
-20.8466 -1102.45 0.
-63.3111 -1201.81 0.
-289.775 -1358.34 0.
-308.459 -1400.33 0.
-327.143 -1442.33 0.
-260.808 -1405.27 0.
-242.164 -1354.08 0.
-223.52 -1302.89 0.
-169.628 -1085.94 0.
-44.9562 -797.061 0.
256.898 -434.957 0.
-469.4 -992.883 0.
-599.427 -1295.17 0.
-418.87 -1368.55 0.
-337.856 -1174.2 0.
-256.841 -979.857 0.
24.84 -775.05 0.
20.7824 -783.683 0.
16.7251 -792.317 0.
-161.491 -1000.6 0.
-261.284 -1235.33 0.
-361.077 -1470.05 0.
-471.221 -1329.63 0.
-350.227 -1047.09 0.
-106.599 -761.016 0.
-171.187 -912.414 0.
-235.776 -1063.81 0.
-195.866 -1125.25 0.
-197.325 -1129.56 0.
-198.784 -1133.86 0.
-350.483 -1073.49 0.
-236.04 -806.602 0.
-121.597 -539.71 0.
-260.611 -518.557 0.
-230.528 -450.39 0.
149.819 -107.625 0.
470.475 1223.44 0.
148.824 469.351 0.
250.943 26.3214 0.
-238.377 -1115.99 0.
419.148 417.439 0.
440.727 616.767 0.
-33.9331 -493.49 0.
228.911 118.07 0.
-113.875 -52.6568 0.
-496.124 -943.869 0.
5.5504 227.835 0.
373.805 174.974 0.
26.8946 -633.39 0.
142.465 381.282 0.
299.31 746.326 0.
-253.042 -543.982 0.
212.842 -581.678 0.
566.307 246.117 0.
510.521 119.027 0.
31.1893 -376.622 0.
291.675 231.065 0.
397.051 476.874 0.
245.923 150.409 0.
208.715 60.7625 0.
-265.941 -552.54 0.
-26.1792 -721.469 0.
486.195 476.128 0.
-86.1243 -371.266 0.
-200.787 -636.87 0.
-91.7907 -380.277 0.
675.247 940.132 0.
259.365 -29.9276 0.
551.849 652.857 0.
1122.31 690.627 0.
952.128 294.05 0.
919.214 217.619 0.
207.971 442.371 0.
69.899 125.625 0.
-35.1072 -533.963 0.
97.9828 -220.9 0.
-39.305 -538.805 0.
111.952 -274.303 0.
458.711 534.583 0.
585.107 830.05 0.
343.599 -88.5009 0.
335.322 -111.479 0.
284.436 -233.377 0.
380.749 -351.345 0.
773.069 564.175 0.
66.956 307.247 0.
685.493 201.712 0.
515.785 -186.749 0.
-239.803 -426.291 0.
-291.967 -541.81 0.
61.2877 289.63 0.
136.557 -223.006 0.
462.718 539.782 0.
668.082 1020.5 0.
401.567 153.221 0.
318.626 -37.0721 0.
546.183 496.457 0.
632.195 -70.3999 0.
1049.36 906.795 0.
540.958 613.767 0.
-139.732 -968.689 0.
148.127 -291.302 0.
-122.267 -914.237 0.
108.028 -377.6 0.
193.716 -178.243 0.
429.696 172.933 0.
560.069 479.717 0.
197.83 -364.021 0.
657.13 872.202 0.
289.703 18.5813 0.
-192.039 230.007 0.
42.0026 335.921 0.
-577.7 -1104.99 0.
364.206 843.62 0.
-127.349 -305.61 0.
-19.3431 -55.5249 0.
175.951 -668.954 0.
427.443 -87.1331 0.
372.879 -218.82 0.
302.724 -23.0272 0.
225.174 -201.546 0.
219.127 -212.991 0.
302.525 629.064 0.
83.8217 119.176 0.
-106.726 -821.979 0.
396.046 355.204 0.
179.271 -147.374 0.
145.485 -76.1001 0.
161.824 -35.082 0.
162.424 -31.3721 0.
41.227 -203.648 0.
-234.395 -847.086 0.
-169.071 -692.672 0.
-592.379 -1175.26 0.
-476.177 -903.982 0.
215.455 -29.0305 0.
-36.7529 -249.336 0.
-164.098 -548.564 0.
-112.855 -744.712 0.
-150.695 -832.609 0.
-188.534 -920.507 0.
-61.1331 -808.414 0.
59.2551 -530.897 0.
179.643 -253.379 0.
-314.936 -570.831 0.
-454.327 -895.384 0.
-593.719 -1219.94 0.
-368 -1099.47 0.
-343.23 -1037.38 0.
-360.427 -996.251 0.
-305.809 -868.438 0.
-251.191 -740.625 0.
86.6439 -535.869 0.
60.7088 -598.31 0.
34.774 -660.75 0.
-162.039 -799.786 0.
-202.533 -889.662 0.
-243.027 -979.537 0.
-199.102 -998.427 0.
-205.328 -1015.69 0.
198.772 -856.036 0.
-248.626 -1024.57 0.
-239.045 -999.611 0.
-373.215 -1035.76 0.
-362.932 -1011.8 0.
-352.648 -987.834 0.
4.75133 -818.244 0.
14.2586 -797.193 0.
23.7662 -776.141 0.
503.457 -443.337 0.
592.352 -232.43 0.
681.247 -21.5236 0.
-295.164 -571.403 0.
-389.589 -784.426 0.
-78.9327 -815.98 0.
-118.219 -907.341 0.
-157.505 -998.702 0.
-69.6148 -960.852 0.
9.84356 -774.784 0.
89.3024 -588.717 0.
-237.088 -683.717 0.
-252.542 -725.451 0.
-267.997 -767.185 0.
590.708 -370.356 0.
610.992 -315.502 0.
-970.059 -946.035 0.
231.566 -458.742 0.
215.494 -494.031 0.
-164.428 -679.65 0.
-160.945 -670.219 0.
-157.46 -660.787 0.
-140.426 -693.984 0.
-195.28 -817.106 0.
-250.133 -940.228 0.
-63.6503 -926.355 0.
-92.62 -992.041 0.
-121.59 -1057.73 0.
-48.1082 -1163.27 0.
-120.578 -1337.71 0.
-280.542 -1503.53 0.
-171.619 -1248.98 0.
-62.6949 -994.43 0.
-136.787 -889.174 0.
-125.194 -863.553 0.
-113.6 -837.931 0.
-59.0566 -774.828 0.
-35.8093 -719.86 0.
-12.5628 -664.892 0.
-148.883 -860.07 0.
-244.553 -1083.18 0.
76.2925 -1125.12 0.
-536.881 -1209.13 0.
-444.86 -990.846 0.
-148.477 -736.046 0.
-165.693 -774.394 0.
-182.909 -812.743 0.
-118.128 -805.313 0.
-125.077 -823.129 0.
-132.027 -840.946 0.
-35.6073 -767.891 0.
-4.54408 -697.609 0.
26.5191 -627.326 0.
-428.952 -877.729 0.
-462.667 -958.253 0.
-48.3017 -823.623 0.
3.25758 -701.581 0.
54.8172 -579.539 0.
6.14623 -537.519 0.
-2.65913 -558.645 0.
-11.4654 -579.77 0.
-139.108 -639.132 0.
-132.098 -621.665 0.
-125.087 -604.199 0.
-115.599 -757.558 0.
-227.093 -1016.66 0.
270.595 23.031 0.
129.954 -147.658 0.
2.40462 -446.294 0.
-134.879 -721.852 0.
-172.861 -809.16 0.
-210.844 -896.469 0.
88.9177 -711.825 0.
209.611 -434.794 0.
330.304 -157.761 0.
-273.373 -523.649 0.
-412.786 -848.102 0.
-552.2 -1172.55 0.
-595.141 -1165.12 0.
-570.083 -1103.07 0.
-242.09 -916.762 0.
-188.177 -788.214 0.
-134.263 -659.667 0.
-70.5316 -570.92 0.
-96.2947 -633.811 0.
-122.057 -696.703 0.
-158.902 -766.68 0.
-198.913 -856.946 0.
-238.924 -947.212 0.
-122.42 -932.049 0.
-128.763 -949.528 0.
540.453 -676.397 0.
-347.036 -1033.99 0.
-336.922 -1009.22 0.
-358.801 -999.328 0.
-349.194 -974.309 0.
-339.586 -949.291 0.
123.355 -736.463 0.
132.778 -715.122 0.
142.201 -693.781 0.
359.36 -473.033 0.
448.818 -262.636 0.
538.275 -52.2389 0.
-364.147 -569.387 0.
-459.27 -781.247 0.
32.1962 -738.903 0.
-6.92993 -830.243 0.
-46.0557 -921.583 0.
87.5668 -864.945 0.
167.29 -679.048 0.
247.013 -493.152 0.
-623.627 -816.131 0.
-638.751 -858.599 0.
-653.875 -901.068 0.
874.872 -216.071 0.
895.307 -161.486 0.
-2108.23 -1401.61 0.
37.074 -509.848 0.
20.315 -544.722 0.
83.3134 -543.449 0.
86.5477 -534.163 0.
89.7827 -524.877 0.
-218.817 -695.527 0.
-274.114 -818.844 0.
-329.411 -942.159 0.
-49.4625 -891.018 0.
-78.7205 -955.848 0.
-107.978 -1020.68 0.
-290.526 -1235 0.
-362.313 -1409.94 0.
-153.186 -1416.3 0.
-43.6228 -1162.42 0.
65.9407 -908.536 0.
-151.981 -862.916 0.
-139.63 -837.886 0.
-127.279 -812.856 0.
-141.474 -780.186 0.
-118.961 -724.424 0.
-96.4478 -668.663 0.
-202.396 -848.834 0.
-297.348 -1072.66 0.
778.352 -793.092 0.
-417.425 -1127.74 0.
-324.664 -910.33 0.
66.5681 -611.521 0.
49.3971 -649.603 0.
32.2261 -687.685 0.
-391.026 -893.132 0.
-397.746 -910.984 0.
-404.465 -928.835 0.
-37.8561 -734.798 0.
-6.21004 -665.269 0.
25.436 -595.741 0.
-513.639 -880.056 0.
-547.097 -960.411 0.
36.9732 -756.854 0.
88.4976 -634.787 0.
140.022 -512.72 0.
98.8 -465.264 0.
89.4173 -486.175 0.
80.0335 -507.085 0.
-115.596 -598.979 0.
-108.655 -581.997 0.
-101.714 -565.015 0.
263.952 -564.272 0.
152.057 -823.551 0.
-225.72 -955.856 0.
-211.031 -1066.72 0.
-233.852 -1117.13 0.
-353.321 -1154.43 0.
-264.409 -949.904 0.
-175.497 -745.38 0.
142.931 -568.082 0.
90.1401 -690.873 0.
37.3476 -813.663 0.
-378.836 -872.16 0.
-262.009 -598.992 0.
-145.181 -325.825 0.
-451.971 -640.519 0.
-571.096 -918.529 0.
-254.542 -968.546 0.
-199.359 -839.043 0.
-144.176 -709.54 0.
-147.926 -650.549 0.
-180.493 -719.992 0.
-213.06 -789.435 0.
-160.047 -721.832 0.
-89.3837 -555.808 0.
-18.7204 -389.784 0.
-16.3742 -465.956 0.
-92.9979 -643.046 0.
379.566 -584.691 0.
-214.207 -747.227 0.
-164.884 -631.286 0.
-149.685 -592.518 0.
-230.534 -784.34 0.
-311.384 -976.162 0.
47.8965 -923.295 0.
24.4918 -976.947 0.
1.08687 -1030.6 0.
-58.8922 -991.428 0.
9.92639 -829.823 0.
78.7445 -668.218 0.
-449.728 -877.783 0.
-450.499 -883.609 0.
99.2407 -652.641 0.
112.473 -619.609 0.
125.705 -586.578 0.
136.365 -542.157 0.
171.599 -460 0.
206.834 -377.843 0.
-590.517 -687.399 0.
-586.551 -673.986 0.
-582.585 -660.573 0.
948.553 -123.67 0.
866.955 -316.088 0.
-2331.58 -1845.02 0.
-144.977 -857.045 0.
-115.856 -793.92 0.
32.1793 -705.471 0.
9.11918 -768.791 0.
-13.9408 -832.111 0.
-286.942 -900.458 0.
-198.514 -700.289 0.
-110.086 -500.12 0.
115.649 -353.268 0.
111.751 -367.32 0.
107.854 -381.372 0.
-224.981 -665.775 0.
-313.162 -863.859 0.
41.2163 -845.836 0.
87.1246 -736.733 0.
133.032 -627.63 0.
-32.3201 -637.727 0.
-34.3967 -643.833 0.
-36.4738 -649.939 0.
-238.519 -854.703 0.
-347.002 -1109.68 0.
-455.485 -1364.65 0.
-372.927 -1230.44 0.
-274.653 -1002.7 0.
-280.317 -812.859 0.
-219.224 -735.773 0.
-193.052 -674.033 0.
71.5741 -559.916 0.
-8.78061 -747.081 0.
-89.1357 -934.246 0.
-471.031 -1080.44 0.
-362.545 -824.851 0.
-254.058 -569.258 0.
40.9388 -398.352 0.
28.1034 -422.213 0.
15.2683 -446.074 0.
-467.118 -791.343 0.
-550.628 -986.409 0.
-23.8669 -870.224 0.
99.237 -584.526 0.
222.341 -298.827 0.
260.694 -242.993 0.
89.1939 -639.465 0.
-82.3055 -1035.94 0.
-367.038 -1192.7 0.
-272.931 -974.437 0.
-178.824 -756.177 0.
236.345 -555.409 0.
230.414 -568.268 0.
-374.469 -992.882 0.
-233.721 -1045.34 0.
-255.952 -1095.96 0.
-376.006 -1131.88 0.
-286.589 -927.696 0.
-197.171 -723.512 0.
12.0012 -589.756 0.
-39.8233 -713.597 0.
-91.6494 -837.438 0.
-288.477 -802.549 0.
-171.852 -529.389 0.
-55.2276 -256.229 0.
-388.956 -581.626 0.
-507.865 -859.512 0.
-310.952 -962.007 0.
-256.769 -831.627 0.
-202.586 -701.248 0.
-82.5911 -594.31 0.
-115.392 -663.281 0.
-148.194 -732.251 0.
-175.721 -696.256 0.
-104.835 -530.529 0.
-33.9496 -364.801 0.
-274.194 -545.356 0.
-350.34 -723.142 0.
-315.436 -852.707 0.
-49.3737 -644.015 0.
0.207355 -528.203 0.
-45.6856 -516.673 0.
-125.753 -708.821 0.
-205.821 -900.969 0.
-13.6921 -918.34 0.
-36.912 -972.381 0.
-60.1321 -1026.42 0.
-373.833 -1095.49 0.
-304.978 -934.159 0.
-236.124 -772.831 0.
-239.124 -756.704 0.
-240.255 -761.888 0.
93.953 -624.139 0.
107.751 -590.871 0.
121.549 -557.602 0.
-210.926 -661.687 0.
-176.129 -579.228 0.
-141.332 -496.769 0.
-235.097 -502.872 0.
-229.971 -490.88 0.
-224.844 -478.889 0.
786.535 -160.906 0.
704.971 -353.098 0.
-2981.9 -2091.17 0.
-0.520679 -763.191 0.
28.3459 -699.621 0.
-117.754 -738.721 0.
-142.007 -800.949 0.
-166.261 -863.177 0.
-115.977 -799.287 0.
-28.4225 -598.295 0.
59.1316 -397.302 0.
-19.1206 -381.601 0.
-24.2639 -394.558 0.
-29.4071 -407.515 0.
-382.369 -703.269 0.
-470.139 -901.673 0.
-173.886 -905.151 0.
-128.496 -795.343 0.
-83.1067 -685.536 0.
68.8687 -564.882 0.
65.6871 -569.991 0.
62.5051 -575.1 0.
-282.42 -842.451 0.
-390.707 -1097.2 0.
-498.994 -1351.95 0.
-299.813 -1166.93 0.
-202.163 -938.419 0.
-197.652 -748.379 0.
-231.125 -711.525 0.
-205.122 -649.655 0.
-151.517 -624.545 0.
-232.262 -810.981 0.
-313.008 -997.417 0.
-171.443 -922.429 0.
-62.6018 -666.763 0.
46.2402 -411.096 0.
-86.7996 -418.472 0.
-99.3325 -442.917 0.
-111.865 -467.362 0.
-330.602 -702.617 0.
-414.517 -897.324 0.
-92.0696 -869.579 0.
30.7674 -583.56 0.
153.605 -297.541 0.
349.168 -171.398 0.
177.37 -567.674 0.
5.57316 -963.949 0.
-356.095 -1158.59 0.
-261.426 -940.885 0.
-166.756 -723.179 0.
-163.654 -695.61 0.
-169.169 -708.937 0.
-202.664 -585.485 0.
108.812 -143.028 0.
-439.767 -1420.51 0.
-618.937 -1639.8 0.
424.073 799.134 0.
441.902 845.855 0.
577.31 1004.07 0.
98.9713 -109.99 0.
-50.618 -456.706 0.
234.26 284.018 0.
1.48698 -260.266 0.
39.9757 -172.133 0.
-277.72 -410.661 0.
-680.158 -1350.97 0.
109.89 165.678 0.
70.8793 73.9704 0.
-119.664 -370.219 0.
249.697 90.5417 0.
379.172 394.295 0.
349.527 326.647 0.
-24.4889 -285 0.
175.42 177.644 0.
204.177 240.675 0.
-188.478 157.71 0.
-293.236 -83.9104 0.
478.46 111.409 0.
231.107 -258.193 0.
523.743 424.137 0.
490.039 558.476 0.
103.709 -346.935 0.
-236.116 -1142.63 0.
297.122 -45.6907 0.
579.355 617.136 0.
115.169 -460.213 0.
-31.0583 320.481 0.
305.215 1110.18 0.
-78.8966 218.64 0.
846.404 1406.88 0.
497.47 584.26 0.
305.96 -91.7295 0.
11.7077 -781.236 0.
268.574 -185.077 0.
-253.375 -77.9944 0.
-314.23 -217.329 0.
-626.159 -942.426 0.
102.096 -362.019 0.
417.737 378.187 0.
521.536 624.197 0.
975.511 604.733 0.
879.601 378.413 0.
-5619.19 -1472.2 0.
762.305 792.042 0.
510.289 199.779 0.
-180.001 -561.201 0.
-120.49 -429.228 0.
-195.661 -611.743 0.
206.988 -333.739 0.
242.248 -252.648 0.
632.466 656.808 0.
525.219 1165.38 0.
229.762 472.009 0.
-609.789 -1490.64 0.
-827 -1412.84 0.
-210.576 31.6202 0.
-1.80422 -56.8958 0.
75.03 124.791 0.
297.117 647.227 0.
210.26 -388.653 0.
25.7596 -817.175 0.
355.615 -45.7721 0.
-174.158 -479.936 0.
311.779 653.696 0.
-80.1421 -262.381 0.
208.844 -85.5622 0.
658.979 971.557 0.
-43.717 610.472 0.
414.912 841.501 0.
-42.231 -225.119 0.
92.2275 402.613 0.
-58.6708 46.3025 0.
-316.954 -560.4 0.
205.682 -579.561 0.
317.966 -311.745 0.
572.298 288.494 0.
272.798 697.833 0.
-205.262 -422.621 0.
-885.438 -2013.98 0.
-175.85 -558.819 0.
409.83 811.718 0.
284.147 166.745 0.
698.102 1132.38 0.
249.078 84.3945 0.
348.669 -297.082 0.
561.415 201.232 0.
536.038 142.74 0.
59.1133 -182.759 0.
257.868 285.545 0.
-71.7021 -479.459 0.
118.675 724.418 0.
-416.078 -526.315 0.
-525.239 -966.339 0.
-215.787 -721.033 0.
-175.548 -623.473 0.
-115.403 -537.741 0.
-93.5403 -484.156 0.
-71.679 -430.571 0.
-10.932 -396.616 0.
-41.6284 -466.562 0.
-72.3251 -536.509 0.
-130.128 -579.604 0.
-124.003 -566.491 0.
-117.877 -553.377 0.
-402.514 -687.38 0.
-409.433 -705.114 0.
-34.3892 -581.068 0.
-154.993 -866.646 0.
-275.597 -1152.23 0.
-619.736 -1382.28 0.
-499.897 -1105.28 0.
-380.057 -828.275 0.
-169.916 -620.969 0.
-164.045 -610.065 0.
-158.173 -599.16 0.
-292.813 -654.613 0.
-285.511 -637.312 0.
67.7132 -471.961 0.
-172.398 -738.15 0.
-257.035 -936.438 0.
-212.08 -1006.95 0.
-145.03 -850.062 0.
-77.9804 -693.171 0.
-77.6646 -561.129 0.
8.03062 -361.927 0.
93.7243 -162.725 0.
-286.753 -461.227 0.
-446.753 -832.228 0.
-606.753 -1203.23 0.
-84.9411 -812.213 0.
39.791 -525.868 0.
136.768 -283.208 0.
104.999 -359.162 0.
73.2299 -435.117 0.
-394.307 -690.12 0.
-418.949 -748.005 0.
-443.592 -805.89 0.
-176.485 -654.206 0.
-123.457 -526.969 0.
-70.4294 -399.733 0.
699.318 47.9908 0.
764.867 199.911 0.
-3252.45 -1399.62 0.
400.35 21.5212 0.
325.119 -154.501 0.
-229.086 -487.227 0.
-197.132 -414.101 0.
-165.178 -340.974 0.
3.7934 -300.933 0.
-67.6401 -467.82 0.
-139.073 -634.707 0.
-15.4747 -558.32 0.
42.9296 -425.147 0.
101.335 -291.974 0.
-379.171 -492.371 0.
-386.735 -508.71 0.
-3.13799 -364.189 0.
-35.1959 -438.939 0.
-67.2537 -513.69 0.
-168.417 -625.307 0.
-218.04 -742.432 0.
-267.662 -859.558 0.
-316.54 -908.837 0.
-301.452 -871.168 0.
-286.365 -833.499 0.
-89.5086 -736.099 0.
-92.4999 -738.675 0.
411.819 -522.602 0.
-170.6 -648.423 0.
-105.144 -495.04 0.
-337.545 -505.903 0.
-341.661 -521.106 0.
-345.778 -536.309 0.
182.257 -414.757 0.
72.2818 -669.673 0.
-37.6941 -924.588 0.
-434.278 -1099.32 0.
-389.265 -998.191 0.
-344.253 -897.061 0.
-402.265 -783.673 0.
-322.294 -595.917 0.
130.26 -280.531 0.
41.9122 -485.31 0.
-46.4362 -690.09 0.
25.5138 -676.247 0.
173.62 -331.3 0.
321.726 13.6481 0.
-14.9094 -192.541 0.
-185.828 -589.844 0.
-356.746 -987.148 0.
-302.803 -1016.53 0.
-290.074 -987.661 0.
-45.49 -734.392 0.
-293.595 -725.165 0.
-253.458 -627.368 0.
-59.0514 -481.137 0.
-36.0482 -428.538 0.
-13.0466 -375.938 0.
19.967 -350.811 0.
-9.90168 -421.134 0.
-39.7707 -491.457 0.
-106.761 -536.403 0.
-100.732 -523.012 0.
-94.7027 -509.622 0.
-393.023 -650.969 0.
-400.106 -668.691 0.
197.26 -451.981 0.
75.7944 -737.119 0.
-45.6711 -1022.26 0.
-891.126 -1468.13 0.
-771.649 -1191.27 0.
-652.172 -914.418 0.
-155.93 -582.997 0.
-150.014 -572.072 0.
-144.099 -561.147 0.
25.087 -487.83 0.
32.6517 -470.256 0.
-466.84 -670.331 0.
-404.684 -807.746 0.
-488.896 -1006.27 0.
-234.343 -985.271 0.
-166.83 -828.709 0.
-99.3176 -672.148 0.
-256.831 -606.884 0.
-171.021 -407.3 0.
-85.2119 -207.717 0.
-166.021 -378.363 0.
-325.75 -750.243 0.
-485.478 -1122.12 0.
-46.1994 -763.63 0.
77.9492 -477.138 0.
43.5928 -292.976 0.
11.8357 -369.029 0.
-19.9214 -445.082 0.
-224.121 -586.197 0.
-249.007 -644.296 0.
-273.894 -702.394 0.
-350.228 -696.964 0.
-297.02 -570.415 0.
-243.811 -443.867 0.
665.803 65.0616 0.
731.588 216.841 0.
-4034.71 -1702.41 0.
377.963 44.4764 0.
303.042 -131.783 0.
-314.838 -492.853 0.
-282.773 -420.186 0.
-250.708 -347.519 0.
-243.968 -374.885 0.
-315.197 -542.608 0.
-386.426 -710.332 0.
243.275 -414.108 0.
302.074 -281.426 0.
360.874 -148.744 0.
-297.567 -425.61 0.
-304.937 -442.403 0.
170.3 -258.505 0.
138.21 -333.525 0.
106.12 -408.545 0.
-487.531 -730.418 0.
-537.327 -848.017 0.
-587.123 -965.617 0.
-250.202 -848.785 0.
-235.304 -812.005 0.
-220.406 -775.224 0.
-98.2402 -708.289 0.
-101.394 -710.991 0.
479.454 -463.329 0.
-91.0896 -582.826 0.
-25.6427 -428.98 0.
-372.866 -491.806 0.
-376.921 -506.336 0.
-380.975 -520.865 0.
86.9849 -424.89 0.
-23.0087 -679.181 0.
-133.003 -933.472 0.
-341.517 -1029.19 0.
-296.713 -927.905 0.
-251.909 -826.617 0.
-542.833 -811.959 0.
-461.852 -625.19 0.
186.987 -222.802 0.
99.0086 -428.154 0.
11.0301 -633.506 0.
-152.855 -722.085 0.
-4.97542 -377.279 0.
142.904 -32.4729 0.
-81.3363 -188.472 0.
-251.895 -586.107 0.
-422.452 -983.743 0.
110.759 -809.788 0.
123.439 -780.418 0.
-369.63 -569.823 0.
-147.394 -472.039 0.
-157.239 -496.993 0.
-96.9227 -516.141 0.
-173.216 -688.959 0.
-249.508 -861.776 0.
-202.757 -860.348 0.
-133.701 -696.105 0.
-64.6446 -531.862 0.
-134.269 -594.986 0.
-198.513 -741.926 0.
-262.756 -888.865 0.
-519.097 -908.967 0.
-453.163 -759.822 0.
235.037 -357.864 0.
212.626 -411.79 0.
190.215 -465.716 0.
-657.91 -847.947 0.
-629.016 -780.693 0.
-600.122 -713.439 0.
-145.877 -564.35 0.
-210.354 -711.374 0.
-274.832 -858.397 0.
-73.3467 -837.875 0.
-109.081 -918.855 0.
11.902 -931.053 0.
-476.838 -909.409 0.
-358.085 -625.668 0.
-75.6309 -339.516 0.
-129.884 -464.474 0.
-184.138 -589.432 0.
-276.369 -668.864 0.
-250.25 -607.585 0.
-224.13 -546.304 0.
-275.512 -613.706 0.
-322.585 -724.248 0.
-369.659 -834.791 0.
1.33709 -654.107 0.
19.1422 -611.004 0.
-134.145 -638.899 0.
-94.7864 -544.255 0.
-55.4273 -449.611 0.
-107.88 -424.916 0.
-108.88 -430.536 0.
-109.88 -436.156 0.
-366.732 -557.024 0.
-372.123 -568.887 0.
-377.514 -580.749 0.
552.171 -102.402 0.
614.565 41.1719 0.
-186.908 -184.258 0.
161.463 -158.339 0.
95.2404 -310.785 0.
-360.838 -587.006 0.
-322.058 -494.532 0.
-283.277 -402.059 0.
-357.301 -452.993 0.
-430.225 -621.4 0.
-503.149 -789.808 0.
203.541 -501.518 0.
224.68 -449.13 0.
245.82 -396.743 0.
-271.011 -665.004 0.
-298.002 -726.219 0.
36.7937 -629.263 0.
1.0642 -714.157 0.
-34.6657 -799.051 0.
-694.782 -1143.47 0.
-700.279 -1156.13 0.
-705.776 -1168.79 0.
-406.088 -998.53 0.
-373.897 -927.452 0.
-341.705 -856.374 0.
-123.724 -711.872 0.
-88.1378 -631.651 0.
116.329 -478.989 0.
-117.783 -645.509 0.
-150.243 -725.249 0.
-574.903 -950.639 0.
-564.095 -924.652 0.
-553.287 -898.666 0.
-203.37 -703.438 0.
-160.056 -604.569 0.
-116.74 -505.699 0.
-94.5863 -543.397 0.
-153.511 -679.283 0.
-212.435 -815.168 0.
-526.241 -934.332 0.
-511.364 -897.746 0.
-24.9577 -657.135 0.
-2.65901 -610.516 0.
19.6397 -563.897 0.
-191.496 -642.077 0.
-199.607 -665.513 0.
-207.717 -688.949 0.
-310.426 -725.199 0.
-294.987 -691.581 0.
-279.546 -657.962 0.
287.149 -422.448 0.
278.835 -444.074 0.
156.55 -316.707 0.
40.4045 -360.928 0.
30.1207 -384.895 0.
-193.433 -527.41 0.
-269.317 -700.383 0.
-345.201 -873.355 0.
-212.644 -832.011 0.
-143.382 -667.939 0.
-74.1211 -503.867 0.
-132.847 -563.399 0.
-195.97 -711.652 0.
-259.093 -859.905 0.
-522.248 -876.997 0.
-456.138 -728.428 0.
32.1278 -414.01 0.
9.93656 -467.947 0.
-12.2546 -521.884 0.
-438.134 -720.956 0.
-409.105 -654.231 0.
-380.076 -587.505 0.
-125.173 -524.63 0.
-189.523 -671.567 0.
-253.873 -818.503 0.
-233.029 -873.639 0.
-268.938 -954.111 0.
448.954 -709.509 0.
-284.479 -796.408 0.
-164.951 -513.068 0.
-328.191 -415.771 0.
-381.807 -541.019 0.
-435.424 -666.268 0.
-46.5999 -540.377 0.
-20.6917 -479.121 0.
5.21829 -417.865 0.
-389.261 -632.104 0.
-436.675 -742.627 0.
-484.089 -853.151 0.
5.6272 -620.577 0.
23.594 -577.83 0.
-94.1312 -588.836 0.
-54.2839 -494.831 0.
-14.4365 -400.825 0.
-133.401 -404.819 0.
-134.448 -411.171 0.
-135.495 -417.524 0.
-344.265 -515.016 0.
-349.951 -526.842 0.
-355.637 -538.669 0.
531.783 -79.3257 0.
594.056 64.2051 0.
-1038.12 -517.215 0.
-128.074 -250.995 0.
-194.398 -403.799 0.
-246.479 -507.836 0.
-207.687 -415.822 0.
-168.895 -323.809 0.
-289.132 -390.061 0.
-361.597 -559.081 0.
-434.061 -728.102 0.
-30.3359 -569.561 0.
-8.0276 -517.825 0.
14.2819 -466.09 0.
1.19249 -516.752 0.
-25.457 -578.506 0.
-43.8886 -630.97 0.
-79.4986 -716.059 0.
-115.109 -801.149 0.
-425.579 -996.503 0.
-431.597 -1008.98 0.
-437.615 -1021.46 0.
-657.856 -1076.12 0.
-626.287 -1005.36 0.
-594.718 -934.601 0.
-133.188 -685.397 0.
-98.2141 -605.2 0.
550.267 -259.761 0.
-156.535 -628.785 0.
-189.127 -708.738 0.
-525.947 -899.631 0.
-515.12 -873.577 0.
-504.294 -847.524 0.
-489.291 -792.203 0.
-445.703 -693.325 0.
-402.116 -594.446 0.
-57.6371 -495.794 0.
-116.052 -631.774 0.
-174.467 -767.755 0.
-191.804 -757.552 0.
-177.056 -720.591 0.
-98.3149 -657.677 0.
-76.2552 -610.666 0.
-54.1954 -563.654 0.
-157.137 -598.14 0.
-165.629 -621.069 0.
-174.121 -643.998 0.
-222.458 -656.152 0.
-206.582 -622.697 0.
-190.704 -589.242 0.
-53.6619 -538.571 0.
-61.7494 -560.71 0.
-379.89 42.9118 0.
-25.9005 -826.291 0.
646.96 737.351 0.
86.4446 341.807 0.
-77.824 -38.2382 0.
174.736 554.64 0.
-250.266 -874.259 0.
171.166 112.305 0.
-371.951 -1150.95 0.
64.5407 -74.5627 0.
114.511 43.6713 0.
296.573 470.313 0.
87.672 573.22 0.
-48.0613 259.234 0.
-169.248 -469.319 0.
305.615 637.674 0.
71.5734 90.8629 0.
20.4989 -43.6747 0.
65.5949 64.1037 0.
-106.137 -335.309 0.
156.344 134.201 0.
264.205 382.504 0.
202.418 235.317 0.
-606.091 -1398.97 0.
-159.944 -357.783 0.
-193.722 -16.4727 0.
193.988 -17.8905 0.
304.274 241.553 0.
-565.369 -463.824 0.
-456.408 -211.425 0.
-461.579 -224.804 0.
530.912 398.646 0.
64.1081 -690.198 0.
-28.9752 -907.18 0.
-94.0679 292.028 0.
-305.713 -203.596 0.
-540.331 -751.957 0.
473.947 497.13 0.
348.301 203.519 0.
420.852 579.271 0.
208.157 80.1595 0.
-10.5059 -432.655 0.
-127.804 -312.704 0.
-26.127 -79.29 0.
-87.5594 -226.103 0.
-57.3111 141.84 0.
147.607 618.156 0.
-355.014 -556.428 0.
820.392 675.866 0.
934.161 936.528 0.
-96.2966 27.6728 0.
-236.098 84.3081 0.
-456.948 -431.542 0.
-197.12 -586.754 0.
-45.6154 -234.076 0.
69.9169 35.3998 0.
57.0864 329.489 0.
199.654 660.077 0.
-114.496 -74.8423 0.
-411.037 -979.399 0.
-211.308 -515.407 0.
24.4496 31.9158 0.
419.976 -30.5397 0.
473.58 90.6875 0.
203.954 139.115 0.
31.7141 -268.363 0.
322.16 405.856 0.
843.501 1487.68 0.
263.09 135.656 0.
-211.272 -968.639 0.
-1010.59 -1401.41 0.
-200.341 490.562 0.
69.5963 1122.36 0.
-290.241 -1004.78 0.
185.953 111.555 0.
139.886 667.706 0.
420.429 820.642 0.
-78.9307 -343.339 0.
-6.28991 269.158 0.
-56.1855 145.886 0.
-180.925 -152.042 0.
-356.717 98.2256 0.
-14.2098 893.633 0.
-397.568 -4.74015 0.
431.85 611.238 0.
723.829 1292.17 0.
340.199 394.966 0.
417.997 66.6178 0.
195.028 -451.197 0.
-202.218 -733.67 0.
166.954 129.406 0.
392.869 658.104 0.
-75.4737 -448.733 0.
-59.4027 -411.426 0.
279.566 379.268 0.
595.204 1115.75 0.
246.213 305.849 0.
356.049 565.496 0.
-127.651 -55.2052 0.
53.2492 364.398 0.
-569.072 -857.225 0.
-393.129 -756.039 0.
-346.306 -649.57 0.
-3.47776 -388.791 0.
102.541 -139.873 0.
208.56 109.044 0.
54.7941 45.1199 0.
-78.7124 -264.736 0.
-212.219 -574.592 0.
-70.9635 -557.968 0.
-43.1718 -489.787 0.
-15.3805 -421.605 0.
-302.545 -617.359 0.
-350.795 -725.582 0.
-315.487 -771.632 0.
-195.562 -491.486 0.
-75.6383 -211.34 0.
-122.008 -123.328 0.
-200.764 -302.326 0.
-279.519 -481.323 0.
-86.0884 -461.72 0.
-89.3925 -469.581 0.
-92.6959 -477.442 0.
-287.569 -372.519 0.
-151.406 -55.2886 0.
-276.881 150.064 0.
88.6236 60.7395 0.
-49.2236 -261.72 0.
-404.316 -611.485 0.
-365 -520.794 0.
-325.685 -430.102 0.
130.071 -214.548 0.
105.169 -274.724 0.
80.2667 -334.9 0.
-429.559 -533.125 0.
-401.574 -468.109 0.
-373.589 -403.093 0.
-71.3289 -238.92 0.
-53.8467 -198.768 0.
194.222 -71.1867 0.
151.106 -169.056 0.
107.991 -266.925 0.
-169.279 -419.54 0.
-140.813 -352.002 0.
-112.346 -284.465 0.
-298.054 -326.15 0.
-281.782 -291.69 0.
-265.51 -257.23 0.
708.152 230.157 0.
750.157 326.19 0.
-1554.97 -586.164 0.
-64.1981 -25.419 0.
-104.102 -121.086 0.
-72.2316 -205.685 0.
-157.433 -403.258 0.
-242.633 -600.831 0.
-420.355 -703.177 0.
-342.056 -518.972 0.
-263.758 -334.768 0.
-244.807 -401.004 0.
-346.785 -634.493 0.
-448.762 -867.981 0.
13.178 -592.64 0.
73.2472 -454.631 0.
-129.783 -440.375 0.
-118.655 -418.064 0.
-107.526 -395.754 0.
8.42238 -311.727 0.
39.7678 -242.077 0.
71.1131 -172.426 0.
-319.199 -292.897 0.
-283.365 -214.149 0.
-247.53 -135.4 0.
104.547 -0.296097 0.
82.6487 -54.7881 0.
275.304 -19.6579 0.
-190.109 -391.171 0.
-281.755 -604.563 0.
-659.629 -876.439 0.
-593.058 -724.598 0.
-526.487 -572.756 0.
-330.478 -395.703 0.
-297.328 -317.457 0.
-264.178 -239.211 0.
140.943 -44.6557 0.
136.732 -53.4439 0.
132.522 -62.2319 0.
69.2794 -231.56 0.
-15.1356 -426.764 0.
-50.3035 -573.522 0.
-11.8677 -484.326 0.
26.5684 -395.129 0.
50.9951 -343.256 0.
42.4591 -366.18 0.
33.9236 -389.105 0.
-132.395 -473.86 0.
-133.718 -473.734 0.
-135.041 -473.608 0.
-147.172 -567.641 0.
-208.486 -710.227 0.
692.746 -284.176 0.
-866.274 -926.431 0.
-819.742 -819.581 0.
288.134 -233.747 0.
393.787 15.5242 0.
499.44 264.795 0.
-35.6204 37.6764 0.
-168.842 -272.436 0.
-302.065 -582.548 0.
32.5298 -482.618 0.
60.8852 -415.59 0.
89.2401 -348.56 0.
-141.697 -515.198 0.
-189.288 -624.494 0.
-318.102 -739.145 0.
-197.662 -459.475 0.
-77.2231 -179.803 0.
-236.975 -139.258 0.
-315.435 -318.275 0.
-393.896 -497.291 0.
-56.0025 -419.736 0.
-58.9236 -427.966 0.
-61.844 -436.196 0.
-418.977 -396.947 0.
-281.542 -80.2918 0.
-929.83 -99.6 0.
-68.6813 24.9483 0.
-205.868 -297.732 0.
-110.909 -453.197 0.
-71.0081 -362.659 0.
-31.1081 -272.122 0.
-27.7235 -251.16 0.
-52.9489 -311.113 0.
-78.1739 -371.067 0.
-389.507 -486.603 0.
-361.673 -421.654 0.
-333.838 -356.706 0.
-338.628 -319.872 0.
-321.229 -280.252 0.
270.739 -7.31823 0.
226.914 -105.408 0.
183.089 -203.497 0.
-148.477 -379.675 0.
-120.556 -312.433 0.
-92.6359 -245.192 0.
-329.331 -309.472 0.
-314.076 -274.264 0.
-298.821 -239.056 0.
823.069 310.935 0.
864.714 406.829 0.
-1818.97 -668.031 0.
221.475 127.043 0.
181.476 30.9363 0.
-106.955 -185.217 0.
-191.528 -383.716 0.
-276.102 -582.214 0.
-444.65 -683.872 0.
-365.773 -500.286 0.
-286.896 -316.701 0.
-334.663 -406.605 0.
-436.102 -640.403 0.
-537.54 -874.202 0.
-172.523 -640.156 0.
-112.267 -502.742 0.
-215.604 -443.812 0.
-204.257 -422.401 0.
-192.91 -400.989 0.
-52.5085 -306.121 0.
-21.0841 -237.122 0.
10.3403 -168.123 0.
-33.684 -137.644 0.
2.35885 -59.206 0.
38.4023 19.2322 0.
74.579 15.9827 0.
52.1634 -38.3098 0.
330.235 36.6817 0.
-280.569 -396.911 0.
-372.092 -610.566 0.
-842.809 -921.935 0.
-775.669 -770.857 0.
-708.53 -619.779 0.
-24.8046 -231.038 0.
8.38057 -152.786 0.
41.5652 -74.5327 0.
144.704 -12.1962 0.
140.628 -20.7294 0.
136.552 -29.2625 0.
-183.678 -308.629 0.
-267.447 -503.779 0.
64.499 -492.331 0.
103.833 -403.622 0.
143.167 -314.912 0.
169.59 -259.748 0.
161.134 -282.376 0.
152.678 -305.003 0.
-172.064 -458.943 0.
-173.152 -458.987 0.
-174.24 -459.032 0.
113.118 -426.348 0.
51.1917 -568.762 0.
-470.637 -517.276 0.
-771.169 -613.881 0.
-779.898 -633.985 0.
324.067 -195.57 0.
271.463 -323.195 0.
218.859 -450.82 0.
-330.051 -696.267 0.
-278.75 -573.286 0.
-227.449 -450.305 0.
109.929 -249.496 0.
130.469 -204.155 0.
151.008 -158.814 0.
-11.3272 -246.882 0.
-30.9 -289.985 0.
-147.173 -372.424 0.
-156.145 -392.574 0.
-165.117 -412.724 0.
-484.203 -586.756 0.
-518.388 -667.31 0.
-552.573 -747.864 0.
-72.091 -547.917 0.
-45.8462 -487.27 0.
-19.6012 -426.624 0.
-490.94 -579.625 0.
-470.421 -527.666 0.
-387.428 -448.918 0.
-409.537 -515.231 0.
-442.022 -582.727 0.
-107.458 -466.142 0.
-96.5616 -437.286 0.
-85.6654 -408.43 0.
-306.415 -500.262 0.
-312.577 -511.687 0.
-318.739 -523.113 0.
-306.305 -470.736 0.
-270.442 -382.695 0.
-234.58 -294.654 0.
-307.944 -332.165 0.
-315.1 -350.536 0.
136.44 -161.991 0.
178.007 -71.7903 0.
219.574 18.4107 0.
15.5465 -44.9288 0.
-24.645 -140.693 0.
-64.8367 -236.458 0.
-411.255 -436.392 0.
-424.301 -468.784 0.
-437.348 -501.176 0.
617.187 -57.4971 0.
615.736 -58.3616 0.
-1054.46 -775.234 0.
165.553 -300.537 0.
138.827 -362.597 0.
-232.412 -541.323 0.
-178.617 -416.642 0.
-124.823 -291.961 0.
-394.944 -371.891 0.
-423.412 -439.96 0.
-451.88 -508.028 0.
-330.854 -492.524 0.
-339.328 -514.308 0.
-347.801 -536.092 0.
-102.475 -231.605 0.
11.2418 37.7268 0.
48.4702 231.699 0.
-39.9569 31.4464 0.
-128.384 -168.805 0.
-75.8188 -276.342 0.
-103.702 -339.134 0.
-131.585 -401.926 0.
-134.72 -552.717 0.
-256.273 -833.597 0.
-377.826 -1114.48 0.
-439.814 -1004.15 0.
-311.424 -703.16 0.
482.203 -114.322 0.
-462.366 -459.198 0.
-430.69 -384.556 0.
-512.501 -360.062 0.
-498.145 -322.456 0.
-483.788 -284.85 0.
48.1962 -196.583 0.
-125.583 -601.208 0.
-299.362 -1005.83 0.
-276.853 -897.736 0.
-111.591 -511.291 0.
53.6709 -124.847 0.
-242.957 -323.612 0.
-305.435 -470.921 0.
163.572 -394.125 0.
75.0018 -599.336 0.
-13.5689 -804.545 0.
-115.656 -909.815 0.
-30.5452 -711.812 0.
54.5657 -513.809 0.
-201.832 -518.715 0.
-177.639 -459.326 0.
-153.445 -399.937 0.
222.51 -382.274 0.
118.892 -622.618 0.
752.476 40.1131 0.
-368.726 -408.792 0.
-377.508 -428.821 0.
117.492 -254.94 0.
64.8337 -382.488 0.
12.1754 -510.036 0.
-158.203 -589.602 0.
-106.9 -466.751 0.
-55.5972 -343.901 0.
-23.9421 -278.156 0.
-4.0765 -232.006 0.
15.7895 -185.856 0.
-93.3758 -249.497 0.
-112.7 -292.265 0.
-83.6758 -316.17 0.
-92.6322 -336.336 0.
-101.588 -356.502 0.
-469.558 -547.257 0.
-503.22 -628.02 0.
-536.882 -708.782 0.
19.1103 -477.713 0.
45.825 -417.116 0.
72.5399 -356.52 0.
-318.333 -475.719 0.
-298.647 -422.463 0.
149.346 -184.823 0.
-484.04 -514.893 0.
-516.179 -582.505 0.
-348.464 -540.659 0.
-337.88 -511.424 0.
-327.295 -482.191 0.
-540.388 -567.887 0.
-546.486 -579.696 0.
-552.583 -591.506 0.
-123.643 -360.741 0.
-87.5577 -273.046 0.
-51.4726 -185.351 0.
72.968 -135.551 0.
65.8531 -154.251 0.
-51.0026 -210.124 0.
-9.98418 -120.013 0.
31.0356 -29.9024 0.
85.2657 17.5229 0.
44.3354 -78.1483 0.
3.40488 -173.82 0.
-412.047 -406.628 0.
-425.439 -438.756 0.
-438.83 -470.885 0.
378.21 -128.497 0.
376.841 -129.721 0.
-1353.46 -871.484 0.
242.075 -236.059 0.
215.646 -298.017 0.
-97.5485 -448.879 0.
-43.1165 -324.711 0.
11.3158 -200.543 0.
-544.582 -405.383 0.
-573.471 -473.343 0.
-602.361 -541.303 0.
-105.165 -363.608 0.
-114 -384.69 0.
-122.834 -405.772 0.
-129.858 -214.296 0.
-15.8972 54.8992 0.
83.939 279.097 0.
-4.48795 78.498 0.
-92.9146 -122.1 0.
-68.4454 -240.317 0.
-96.4827 -303.445 0.
-124.52 -366.573 0.
-205.038 -552.28 0.
-325.911 -833.548 0.
-446.783 -1114.81 0.
-556.747 -1022.19 0.
-428.046 -721.699 0.
345.255 -143.308 0.
-726.799 -541.312 0.
-695.819 -465.355 0.
-90.116 -148.952 0.
-74.7684 -112.055 0.
-59.4202 -75.1591 0.
-85.8169 -222.095 0.
-258.372 -627.615 0.
-430.926 -1033.14 0.
-349.267 -895.264 0.
-184.176 -508.703 0.
-19.0872 -122.141 0.
-96.6089 -228.907 0.
-159.21 -376.237 0.
222.651 -338.836 0.
134.029 -543.675 0.
45.4059 -748.512 0.
-218.901 -923.611 0.
-134.049 -725.181 0.
-49.196 -526.751 0.
-148.3 -464.313 0.
-124.211 -404.856 0.
-100.121 -345.4 0.
222.445 -353.567 0.
119.471 -594.879 0.
-335.147 243.972 0.
-134.002 -595.848 0.
99.6854 -50.4746 0.
-87.4554 -327.491 0.
15.8768 -77.7952 0.
143.535 226.075 0.
71.2652 -359.458 0.
282.087 136.115 0.
492.859 631.389 0.
410.648 1025.22 0.
146.629 407.789 0.
-299.634 -633.714 0.
-96.5514 -69.565 0.
-24.3696 98.2974 0.
-352.316 -1046.33 0.
-102.763 -459.912 0.
-62.6909 -361.857 0.
-396.848 -381.223 0.
-135.084 225.304 0.
-363.209 -310.799 0.
127.785 -371.295 0.
186.189 -235.263 0.
162.52 -291.476 0.
-66.5178 -183.547 0.
76.5346 154.231 0.
-260.453 -625.367 0.
-336.466 -5.71676 0.
-670.12 -786.333 0.
-748.227 -990.314 0.
-4.4105 749.312 0.
-318.838 20.2184 0.
-1044.6 -1266.83 0.
-438.047 148.528 0.
-514.87 -31.2137 0.
233.451 150.641 0.
24.5817 -336.204 0.
-155.005 -754.617 0.
416.937 -15.9836 0.
533.679 253.745 0.
-269.85 -334.819 0.
-120.432 15.7577 0.
-83.492 103.932 0.
244.213 290.682 0.
154.302 79.7396 0.
-80.9313 -470.322 0.
-120.978 305.774 0.
-409.155 -368.644 0.
-539.325 -674.19 0.
-79.4604 -709.637 0.
325.811 233.262 0.
-1168.53 -562.944 0.
359.657 -49.9862 0.
428.242 107.992 0.
219.133 57.5807 0.
-245.987 -1025.45 0.
36.7111 -363.555 0.
-297.188 476.969 0.
-296.54 479.003 0.
-482.552 45.4764 0.
168.842 -115.899 0.
69.6062 -349.342 0.
-42.741 -613.356 0.
-239.552 -393.115 0.
-29.4002 99.2999 0.
44.191 150.983 0.
121.541 332.982 0.
187.615 488.805 0.
139.706 259.998 0.
-233.804 -617.429 0.
-93.2805 -294.97 0.
132.388 401.384 0.
-39.4935 -1.33228 0.
-154.047 -269.838 0.
-904.597 -1585.9 0.
53.7586 656.015 0.
-453.031 502.668 0.
-560.411 371.859 0.
-701.732 40.1112 0.
285.335 -46.6319 0.
98.4165 -482.571 0.
203.206 -237.39 0.
218.868 770.076 0.
-198.946 -202.844 0.
-28.3726 196.207 0.
126.837 389.805 0.
-95.707 -132.278 0.
-233.238 -456.414 0.
33.2857 -175.279 0.
7.83761 -233.192 0.
323.565 -178.254 0.
53.6669 -806.255 0.
586.217 435.921 0.
154.297 166.123 0.
228.948 343.754 0.
-443.753 -1222.62 0.
17.5169 -141.332 0.
29.4824 -114.121 0.
126.888 110.267 0.
257.542 -247.291 0.
285.002 -185.837 0.
231.029 -362.278 0.
96.8305 -262.845 0.
194.642 -33.0693 0.
160.487 77.252 0.
86.6165 -91.5823 0.
12.745 -260.415 0.
-126.205 -406.021 0.
-130.94 -419.758 0.
-135.674 -433.494 0.
-291.585 -447.971 0.
-247.313 -347.507 0.
-203.04 -247.043 0.
-276.123 -248.761 0.
-261.739 -216.602 0.
74.3201 -56.4561 0.
10.607 -204.545 0.
-53.1061 -352.635 0.
-290.954 -524.192 0.
-267.705 -471.744 0.
-244.456 -419.295 0.
-131.988 -328.349 0.
-112.645 -278.977 0.
-93.303 -229.606 0.
-125.282 -253.494 0.
-132.992 -277.738 0.
266.283 -127.769 0.
-366.811 -576.85 0.
-458.919 -796.827 0.
-765.227 -1021.42 0.
-658.44 -774.258 0.
-551.652 -527.098 0.
-508.885 -386.086 0.
-488.951 -342.29 0.
-469.015 -298.495 0.
-59.6036 -143.775 0.
-85.9161 -208.688 0.
-112.229 -273.602 0.
287.687 -62.9884 0.
319.213 9.45051 0.
-121.954 -130.031 0.
-131.808 -152.302 0.
-141.663 -174.573 0.
26.3703 -103.671 0.
46.7614 -56.6917 0.
67.1527 -9.71232 0.
-250.396 -154.849 0.
-278.777 -223.705 0.
-307.159 -292.561 0.
175.137 -162.875 0.
131.351 -265.42 0.
200.477 -320.216 0.
185.7 -166.949 0.
268.739 28.959 0.
120.959 79.7156 0.
83.4164 -0.510582 0.
45.8739 -80.7367 0.
-544.275 -406.057 0.
-584.43 -503.48 0.
-624.586 -600.903 0.
23.1003 -312.228 0.
53.5858 -241.693 0.
84.0708 -171.158 0.
-44.3702 -322.709 0.
-107.257 -468.277 0.
-324.527 -663.48 0.
-303.379 -613.615 0.
-282.231 -563.75 0.
-154.28 -457.052 0.
-119.354 -379.382 0.
-84.4272 -301.712 0.
-362.716 -342.23 0.
-314.623 -227.305 0.
-266.531 -112.38 0.
-214.458 -96.9792 0.
-234.134 -141.679 0.
-677.977 -363.424 0.
-733.777 -285.092 0.
-675.703 -156.714 0.
198.546 241.342 0.
55.163 -95.3417 0.
-88.2215 -432.026 0.
-331.113 -569.663 0.
-184.529 -229.004 0.
-37.9452 111.655 0.
-226.564 -67.2493 0.
-371.12 -404.987 0.
-515.675 -742.725 0.
-16.4493 -500.563 0.
15.911 -423.228 0.
154.971 -310.696 0.
148.78 -328.355 0.
142.588 -346.014 0.
-101.823 -432.997 0.
-63.2951 -342.434 0.
-24.7666 -251.869 0.
-140.604 -311.678 0.
-179.372 -407.339 0.
-218.14 -503 0.
412.918 -63.2051 0.
540.695 229.97 0.
61.2187 -399.595 0.
218.746 -179.969 0.
316.747 50.0471 0.
264.947 153.621 0.
192.291 -16.0431 0.
119.634 -185.706 0.
-323.132 -456.553 0.
-326.562 -470.931 0.
-329.993 -485.309 0.
-360.269 -446.911 0.
-316.296 -346.588 0.
-272.322 -246.263 0.
-383.807 -262.634 0.
-369.561 -231.019 0.
98.5732 -13.8494 0.
35.2809 -162.487 0.
-28.0116 -311.125 0.
-68.8505 -398.586 0.
-45.7371 -345.548 0.
-22.6236 -292.51 0.
-460.933 -438.633 0.
-441.402 -388.737 0.
-421.871 -338.841 0.
-140.552 -229.85 0.
-148.355 -253.97 0.
720.208 96.6858 0.
-84.5537 -424.262 0.
-176.602 -644.294 0.
-747.927 -981.778 0.
-641.32 -734.638 0.
-534.712 -487.498 0.
-297.033 -263.425 0.
-277.36 -219.86 0.
-257.687 -176.296 0.
-240.412 -189.878 0.
-265.775 -255.671 0.
-291.137 -321.465 0.
173.309 -80.326 0.
206.086 -8.78581 0.
-33.1859 -59.5654 0.
-42.6691 -82.2685 0.
-52.1516 -104.973 0.
-12.1214 -85.8004 0.
8.36556 -38.9711 0.
28.8527 7.8584 0.
-146.538 -79.6732 0.
-174.943 -148.321 0.
-203.348 -216.969 0.
225.038 -109.524 0.
181.481 -212.357 0.
-773.43 -707.211 0.
40.4443 -197.288 0.
123.061 -0.838035 0.
3.36108 61.7862 0.
-33.9389 -18.5823 0.
-71.239 -98.9507 0.
-361.776 -296.702 0.
-402.197 -393.922 0.
-442.618 -491.143 0.
-34.7263 -304.383 0.
-4.90611 -233.31 0.
24.9136 -162.237 0.
175.794 -197.319 0.
112.049 -341.718 0.
-330.068 -635.768 0.
-309.638 -585.322 0.
-289.207 -534.876 0.
-121.404 -413.682 0.
-86.8861 -335.769 0.
-52.3684 -257.855 0.
-567.303 -400.086 0.
-519.191 -284.991 0.
-471.079 -169.896 0.
-134.731 -30.814 0.
-153.895 -75.6056 0.
362.577 111.904 0.
-581.694 -188.726 0.
-523.444 -60.2927 0.
-42.3857 168.885 0.
-184.876 -168.362 0.
-327.368 -505.611 0.
-285.235 -517.923 0.
-138.062 -177.39 0.
9.11074 163.143 0.
-404.468 -112.498 0.
-548.928 -450.331 0.
-693.389 -788.165 0.
110.378 -413.689 0.
143.095 -336.876 0.
34.443 -331.429 0.
27.4727 -348.521 0.
20.5021 -365.613 0.
-82.6198 -394.578 0.
-44.0464 -303.629 0.
-5.47276 -212.679 0.
-228.434 -317.045 0.
-267.616 -412.721 0.
-306.799 -508.397 0.
525.164 13.205 0.
652.444 306.181 0.
-227.594 -429.476 0.
36.7755 -440.639 0.
-24.7901 -584.084 0.
20.1686 -625.942 0.
99.7755 -434.829 0.
179.381 -243.716 0.
-360.796 -328.484 0.
-290.305 -160.559 0.
-219.815 7.36605 0.
-186.341 -8.64518 0.
-250.177 -155.078 0.
-314.012 -301.511 0.
-492.913 -381.502 0.
-484.913 -359.403 0.
19.6916 -121.458 0.
42.3009 -67.4466 0.
64.9108 -13.4358 0.
153.676 5.18758 0.
80.5597 -165.272 0.
7.44355 -335.732 0.
-612.13 -617.326 0.
-567.343 -516.806 0.
-522.556 -416.288 0.
-295.245 -414.495 0.
-375.127 -599.626 0.
848.581 -227.468 0.
65.3889 -236.708 0.
236.991 166.614 0.
-207.276 183.2 0.
-321.146 -82.1741 0.
-435.015 -347.549 0.
-275.043 -446.417 0.
-331.92 -583.28 0.
-388.798 -720.145 0.
-457.794 -578.307 0.
-296.154 -199.551 0.
-134.513 179.204 0.
151.039 49.827 0.
-17.8701 -343.324 0.
-330.298 -758.057 0.
-280.406 -638.024 0.
-230.514 -517.991 0.
-186.096 -408.022 0.
-155.695 -330.869 0.
-125.295 -253.717 0.
-117.439 -170.017 0.
-68.403 -54.2457 0.
-19.3669 61.5257 0.
346.854 121.501 0.
267.429 -63.268 0.
-1638.4 -1030.46 0.
-23.6905 -209.555 0.
46.1035 -49.7849 0.
-146.236 -20.2717 0.
-123.38 31.7194 0.
-100.524 83.7105 0.
-86.8492 95.6571 0.
-106.997 51.5202 0.
-127.144 7.38347 0.
52.2836 -17.8165 0.
-18.6893 -184.26 0.
-89.6624 -350.703 0.
143.929 -236.615 0.
162.137 -196.871 0.
-199.304 -326.193 0.
-205.7 -344.977 0.
-212.096 -363.761 0.
-107.461 -314.113 0.
-83.0939 -256.914 0.
-58.727 -199.715 0.
-493.145 -282.252 0.
-409.493 -88.7148 0.
-325.841 104.823 0.
-180.973 45.6014 0.
-288.258 -198.22 0.
543.662 -43.768 0.
-547.46 -484.978 0.
-535.086 -452.841 0.
-338.329 -315.493 0.
-263.574 -135.822 0.
-188.819 43.8471 0.
-23.0408 103.495 0.
-138.455 -165.98 0.
-253.869 -435.455 0.
-583.511 -591.777 0.
-533.96 -476.512 0.
-484.409 -361.246 0.
250.069 36.0474 0.
294.19 137.763 0.
188.474 152.742 0.
123.224 1.24125 0.
57.974 -150.259 0.
-145.275 -299.345 0.
-111.024 -219.841 0.
-76.7727 -140.337 0.
-132.94 -176.596 0.
-172.733 -267.261 0.
-212.525 -357.926 0.
407.944 -159.795 0.
376.651 -231.162 0.
-554.469 -538.178 0.
-193.696 -508.123 0.
-254.892 -651.718 0.
159.031 -534.64 0.
239.399 -343.27 0.
319.766 -151.902 0.
-367.54 -299.404 0.
-295.961 -131.69 0.
-224.384 36.025 0.
-128.364 46.3743 0.
-191.943 -100.282 0.
-255.522 -246.938 0.
-501.249 -351.14 0.
-492.214 -330.396 0.
-56.9867 -123.446 0.
-34.3581 -69.7611 0.
-11.7288 -16.077 0.
89.4874 10.9703 0.
16.7859 -159.962 0.
-55.9158 -330.896 0.
-420.934 -505.131 0.
-376.836 -403.455 0.
-332.738 -301.779 0.
-449.036 -452.601 0.
-528.909 -637.931 0.
-486.535 -770.494 0.
-12.6381 -235.948 0.
158.789 167.356 0.
-90.651 263.78 0.
-205.269 -1.273 0.
-319.886 -266.326 0.
-203.731 -383.92 0.
-261.039 -520.672 0.
-318.347 -657.424 0.
-362.001 -506.708 0.
-199.838 -128.532 0.
-37.6748 249.644 0.
91.38 55.827 0.
-76.7828 -337.692 0.
-387.817 -750.478 0.
-337.836 -630.615 0.
-287.855 -510.753 0.
-215.275 -388.066 0.
-185.045 -310.942 0.
-154.815 -233.819 0.
-26.0249 -102.55 0.
22.8573 13.2979 0.
71.7394 129.146 0.
380.776 170.895 0.
302.076 -14.3492 0.
-428.831 -479.668 0.
8.84712 -163.799 0.
78.3075 -3.20163 0.
-249.665 -33.0846 0.
-226.375 18.4245 0.
-203.084 69.9338 0.
24.6651 177.597 0.
5.8249 132.342 0.
-13.0148 87.0874 0.
57.9585 16.302 0.
-12.4822 -149.888 0.
-82.9229 -316.079 0.
-73.6476 -297.512 0.
-54.6692 -258.194 0.
-156.606 -276.138 0.
-162.777 -294.877 0.
-168.948 -313.617 0.
-174.524 -309.444 0.
-149.197 -253.232 0.
-123.871 -197.02 0.
-204.736 -126.641 0.
-120.784 66.597 0.
-36.8318 259.836 0.
-422.533 -25.2635 0.
-528.872 -269.654 0.
-863.623 -615.402 0.
-260.905 -330.502 0.
-248.623 -297.888 0.
-304.676 -269.145 0.
-229.64 -89.7618 0.
-154.604 89.6201 0.
-54.9024 120.301 0.
-169.631 -149.622 0.
-284.359 -419.546 0.
-306.692 -439.341 0.
-256.545 -324.555 0.
-206.398 -209.769 0.
29.9211 -27.0364 0.
73.8972 74.6022 0.
209.3 194.885 0.
144.499 42.8533 0.
79.6981 -109.179 0.
-375.774 -368.733 0.
-341.849 -288.754 0.
-307.924 -208.774 0.
65.6722 -59.6968 0.
26.4027 -150.758 0.
-12.8659 -241.819 0.
208.534 -213.459 0.
177.013 -285.052 0.
-854.311 -649.644 0.
-494.81 -759.994 0.
-358.25 -440.582 0.
892.363 937.434 0.
571.635 196.061 0.
958.785 1106.34 0.
-10.9969 551.997 0.
-409.886 -372.688 0.
-278.888 -61.777 0.
-150.105 -77.1428 0.
-360.067 -565.854 0.
-406.426 -673.033 0.
-219.473 342.894 0.
-134.454 546.52 0.
-131.254 -122.262 0.
15.3442 220.259 0.
-93.744 -33.3795 0.
-91.2531 -271.288 0.
-76.8039 -234.582 0.
197.367 406.859 0.
121.506 411.227 0.
-142.525 -205.886 0.
-462.366 -953.469 0.
-511.673 -270.13 0.
-482.311 -201.63 0.
-1404.24 -573.927 0.
-298.945 -725.29 0.
-380.309 -907.556 0.
-414.394 -685.592 0.
27.2665 352.355 0.
-404.082 -644.757 0.
-266.518 -633.333 0.
255.178 588.225 0.
101.886 234.934 0.
161.08 548.212 0.
16.449 211.55 0.
314.049 906.798 0.
-36.168 -90.563 0.
163.821 371.478 0.
286.735 966.961 0.
82.6547 489.011 0.
-340.377 -499.772 0.
-344.556 -583.829 0.
0.671448 220.171 0.
-150.021 -132.823 0.
107.391 52.0833 0.
1.89017 -184.921 0.
-182.656 -606.064 0.
134.524 -435.585 0.
549.681 526.982 0.
-1621.47 1170.69 0.
298.708 490.119 0.
-23.732 -264.337 0.
-263.896 164.135 0.
-259.155 176.496 0.
-350.363 -35.4886 0.
-47.413 -189.611 0.
151.665 279.505 0.
-167.594 -460.503 0.
-481.794 -1220.4 0.
-413.744 -1056.1 0.
197.406 375.525 0.
-13.8198 271.014 0.
109.223 561.172 0.
167.073 429.925 0.
-235.608 -511.171 0.
-478.811 -1079.93 0.
-447.458 -780.157 0.
-21.3759 212.469 0.
634.357 1740.24 0.
233.886 375.913 0.
-311.936 -904.015 0.
51.5227 -61.3143 0.
-638.757 -21.6806 0.
-240.688 910.207 0.
91.4393 -41.8594 0.
-44.142 -352.527 0.
-499.855 -1403.8 0.
-248.584 -184.793 0.
299.178 1101.88 0.
-562.627 -899.845 0.
-110.642 71.8972 0.
323.67 1089.01 0.
-132.85 28.039 0.
-217.877 -726.388 0.
-209.415 -708.154 0.
252.467 368.099 0.
-191.925 -91.8873 0.
-205.208 -124.847 0.
294.875 392.901 0.
263.344 320.311 0.
61.9631 -149.201 0.
-842.606 -999.979 0.
-264.871 346.346 0.
-664.826 -588.638 0.
108.169 -299.301 0.
213.53 -55.1905 0.
317.615 187.545 0.
242.482 294.156 0.
-216.102 -776.153 0.
-96.8662 -130.94 0.
-409.682 -329.943 0.
-473.638 -478.602 0.
166.735 -254.464 0.
247.511 -66.326 0.
328.286 121.812 0.
-218.124 -12.1391 0.
-197.128 37.2876 0.
-176.135 86.7155 0.
-142.44 8.91406 0.
-230.459 -192.796 0.
-318.478 -394.506 0.
-658.469 -311.897 0.
-521.429 18.2639 0.
201.564 544.407 0.
91.165 289.639 0.
-19.2336 34.8718 0.
-40.3678 -67.0302 0.
29.6184 101.642 0.
99.6046 270.313 0.
23.3293 269.225 0.
-5.80294 195.155 0.
-34.9357 121.085 0.
-140.316 111.351 0.
-104.743 194.265 0.
-415.327 129.994 0.
54.997 259.025 0.
15.1645 169.307 0.
-141.049 15.2207 0.
-228.843 -188.887 0.
-316.637 -392.995 0.
-311.974 -393.682 0.
-205.801 -138.346 0.
-99.6286 116.988 0.
-146.359 54.0238 0.
-236.255 -154.586 0.
-326.152 -363.195 0.
5.15715 -247.501 0.
-2.3703 -264.438 0.
-176.912 -342.739 0.
-129.386 -234.108 0.
-81.8605 -125.477 0.
-210.846 -135.115 0.
-223.569 -171.535 0.
-236.29 -207.955 0.
23.2532 -128.716 0.
1.97261 -179.38 0.
-19.3081 -230.044 0.
737.324 201.237 0.
816.878 385.03 0.
-903.101 -201.238 0.
-221.108 -8.97079 0.
-273.353 -131.043 0.
-223.725 -178.928 0.
-213.475 -152.088 0.
-203.225 -125.248 0.
-10.9227 8.62562 0.
39.009 131.62 0.
88.9411 254.614 0.
83.5256 247.005 0.
50.1937 172.809 0.
16.8611 98.6131 0.
-146.841 12.8655 0.
-153.406 -0.0156011 0.
-63.0427 32.3629 0.
-37.0194 92.3105 0.
-10.9961 152.257 0.
-14.1147 227.768 0.
62.9906 407.144 0.
140.097 586.52 0.
316.126 575.58 0.
172.768 239.596 0.
29.4112 -96.3884 0.
-384.728 -211.037 0.
-301.115 -13.3887 0.
-613.898 21.248 0.
-215.583 63.9566 0.
-281.465 -90.446 0.
-60.9024 -98.6643 0.
-68.4447 -114.265 0.
-75.9869 -129.865 0.
-241.8 -197.932 0.
-226.618 -156.309 0.
-211.435 -114.687 0.
17.1276 -26.176 0.
2.5025 -59.8169 0.
-12.1226 -93.4578 0.
-301.023 -137.205 0.
-250.687 -20.0677 0.
172.152 243.254 0.
170.848 243.718 0.
169.544 244.182 0.
-245.352 42.9467 0.
-281.247 -44.8423 0.
-317.142 -132.632 0.
41.4399 10.6046 0.
62.7535 62.7368 0.
84.0679 114.87 0.
-190.47 -216.003 0.
-345.111 -572.988 0.
1766.64 698.628 0.
-511.956 -342.541 0.
-575.473 -491.378 0.
-79.3679 -329.429 0.
2.53658 -141.224 0.
84.44 46.9806 0.
-148.457 51.3832 0.
-125.211 100.445 0.
-101.966 149.508 0.
-168.527 28.6491 0.
-256.405 -172.599 0.
-344.281 -373.847 0.
-831.722 -355.932 0.
-695.417 -25.1387 0.
270.677 605.755 0.
160.492 350.817 0.
50.3065 95.8788 0.
-72.6175 -52.1036 0.
-3.18516 117.08 0.
66.247 286.263 0.
-5.9504 290.667 0.
-33.4691 216.351 0.
-60.9883 142.034 0.
132.982 259.7 0.
169.114 342.875 0.
-1011.44 -94.4437 0.
-11.0406 261.797 0.
-51.9242 172.992 0.
-148.58 40.4154 0.
-237.923 -162.678 0.
-327.265 -365.77 0.
-484.749 -439.986 0.
-379.123 -184.388 0.
-273.498 71.2081 0.
-246.875 43.6822 0.
-336.244 -165.991 0.
-425.613 -375.664 0.
149.442 -150.538 0.
143.459 -168.727 0.
-39.4611 -253.583 0.
8.0122 -144.595 0.
55.4852 -35.6068 0.
-265.248 -128.229 0.
-278.938 -163.954 0.
-292.628 -199.679 0.
38.2595 -91.1776 0.
17.0589 -141.232 0.
-4.14185 -191.286 0.
1163.96 417.889 0.
1244.8 600.877 0.
-515.602 -3.06563 0.
-574.39 -128.494 0.
-626.862 -250.192 0.
18.3196 -43.5749 0.
28.5996 -16.6019 0.
38.8792 10.3709 0.
-44.4231 26.618 0.
6.12537 149.414 0.
56.6744 272.21 0.
22.8875 252.397 0.
-11.7397 179.58 0.
-46.3677 106.763 0.
-153.08 38.9993 0.
-159.69 26.5933 0.
-116.94 41.8218 0.
-90.7695 101.704 0.
-64.5993 161.586 0.
-0.945789 266.544 0.
77.0114 445.744 0.
154.97 624.944 0.
336.778 617.938 0.
193.064 282.551 0.
49.3514 -52.8351 0.
40.0514 0.975781 0.
122.365 199.833 0.
-406.157 141.833 0.
-628.666 -82.1177 0.
-695.457 -235.935 0.
147.444 20.4478 0.
140.073 4.87694 0.
132.702 -10.6937 0.
-247.092 -168.925 0.
-231.462 -127.105 0.
-215.831 -85.2857 0.
-46.0436 -21.8681 0.
-60.6551 -55.1799 0.
-75.2665 -88.4916 0.
-392.519 -144.991 0.
-342.462 -28.0586 0.
111.697 248.132 0.
110.187 248.839 0.
108.676 249.546 0.
-43.6401 159.997 0.
-79.4174 72.0526 0.
-115.195 -15.8916 0.
-190.598 -56.327 0.
-169.416 -3.86821 0.
-148.233 48.591 0.
-433.835 -291.58 0.
-589.507 -647.022 0.
