# vtk DataFile Version 2.0
test grain
ASCII
DATASET UNSTRUCTURED_GRID
POINTS 5000 float
0.499957 0.00100043 0.
0.501958 0.00100043 0.
0.503959 0.00100042 0.
0.50596 0.00100041 0.
0.507961 0.00100043 0.
0.509962 0.00100044 0.
0.511963 0.00100037 0.
0.513964 0.00100019 0.
0.515965 0.00100001 0.
0.517966 0.001 0.
0.519967 0.0010001 0.
0.521967 0.0010002 0.
0.523968 0.00100014 0.
0.525969 0.00100006 0.
0.527971 0.00100001 0.
0.529972 0.00100021 0.
0.531973 0.00100042 0.
0.533974 0.0010005 0.
0.535976 0.00100029 0.
0.537977 0.00100008 0.
0.539978 0.000999999 0.
0.541979 0.00100002 0.
0.54398 0.00100005 0.
0.545981 0.00100007 0.
0.547982 0.00100009 0.
0.549983 0.00100011 0.
0.551983 0.00100026 0.
0.553983 0.00100042 0.
0.555983 0.00100051 0.
0.557983 0.00100031 0.
0.559984 0.00100011 0.
0.561984 0.00100002 0.
0.563985 0.00100008 0.
0.565986 0.00100013 0.
0.567986 0.00100012 0.
0.569987 0.00100006 0.
0.571987 0.00100001 0.
0.573987 0.00100001 0.
0.575987 0.00100001 0.
0.577987 0.00100002 0.
0.579987 0.00100013 0.
0.581986 0.00100024 0.
0.583985 0.00100044 0.
0.585985 0.00100081 0.
0.587984 0.00100117 0.
0.589983 0.00100105 0.
0.591982 0.00100053 0.
0.593981 0.001 0.
0.595986 0.0010002 0.
0.597993 0.0010006 0.
0.600001 0.001001 0.
0.602008 0.00100064 0.
0.604015 0.00100028 0.
0.60602 0.001 0.
0.608019 0.00100003 0.
0.610018 0.00100006 0.
0.612018 0.00100014 0.
0.614017 0.00100026 0.
0.616016 0.00100039 0.
0.618016 0.00100048 0.
0.620016 0.00100055 0.
0.622017 0.00100062 0.
0.624016 0.0010005 0.
0.626016 0.00100036 0.
0.628015 0.00100023 0.
0.630015 0.00100014 0.
0.632015 0.00100005 0.
0.634015 0.000999994 0.
0.636017 0.00100001 0.
0.638018 0.00100003 0.
0.64002 0.00100004 0.
0.642021 0.00100004 0.
0.644022 0.00100004 0.
0.646022 0.00100023 0.
0.648021 0.00100048 0.
0.65002 0.00100071 0.
0.652021 0.00100046 0.
0.654022 0.0010002 0.
0.656023 0.00100001 0.
0.658023 0.00100001 0.
0.660024 0.00100001 0.
0.662026 0.00100001 0.
0.664027 0.00100001 0.
0.666029 0.001 0.
0.66803 0.00100012 0.
0.67003 0.0010003 0.
0.672031 0.00100047 0.
0.674031 0.00100032 0.
0.676032 0.00100015 0.
0.678032 0.001 0.
0.680032 0.0010001 0.
0.682033 0.00100019 0.
0.684034 0.00100022 0.
0.686035 0.00100012 0.
0.688037 0.00100001 0.
0.690038 0.00100001 0.
0.692039 0.00100007 0.
0.69404 0.00100013 0.
0.696042 0.00100008 0.
0.698043 0.00100001 0.
0.499957 0.00300131 0.
0.501958 0.0030013 0.
0.503959 0.00300126 0.
0.50596 0.00300125 0.
0.507961 0.00300128 0.
0.509962 0.00300132 0.
0.511963 0.00300111 0.
0.513964 0.00300056 0.
0.515965 0.00300002 0.
0.517966 0.00300001 0.
0.519967 0.00300031 0.
0.521968 0.0030006 0.
0.523969 0.00300042 0.
0.525969 0.00300018 0.
0.52797 0.00300002 0.
0.529971 0.00300064 0.
0.531972 0.00300127 0.
0.533973 0.00300149 0.
0.535975 0.00300087 0.
0.537976 0.00300024 0.
0.539978 0.003 0.
0.541979 0.00300007 0.
0.543981 0.00300014 0.
0.545982 0.0030002 0.
0.547982 0.00300026 0.
0.549983 0.00300032 0.
0.551983 0.00300079 0.
0.553982 0.00300127 0.
0.555982 0.00300153 0.
0.557982 0.00300093 0.
0.559982 0.00300033 0.
0.561983 0.00300007 0.
0.563984 0.00300023 0.
0.565985 0.0030004 0.
0.567986 0.00300035 0.
0.569986 0.00300019 0.
0.571987 0.00300003 0.
0.573987 0.00300002 0.
0.575987 0.00300003 0.
0.577987 0.00300007 0.
0.579987 0.0030004 0.
0.581987 0.00300073 0.
0.583987 0.00300132 0.
0.585986 0.00300242 0.
0.587985 0.00300352 0.
0.589984 0.00300314 0.
0.591984 0.00300157 0.
0.593984 0.003 0.
0.595989 0.00300059 0.
0.597995 0.0030018 0.
0.6 0.00300301 0.
0.602007 0.00300192 0.
0.604013 0.00300083 0.
0.606018 0.00300002 0.
0.608017 0.0030001 0.
0.610017 0.00300019 0.
0.612017 0.00300041 0.
0.614017 0.00300079 0.
0.616016 0.00300117 0.
0.618016 0.00300143 0.
0.620016 0.00300165 0.
0.622016 0.00300186 0.
0.624016 0.00300151 0.
0.626015 0.00300109 0.
0.628014 0.0030007 0.
0.630015 0.00300042 0.
0.632016 0.00300015 0.
0.634017 0.00299998 0.
0.636018 0.00300004 0.
0.638019 0.0030001 0.
0.640021 0.00300012 0.
0.642022 0.00300012 0.
0.644023 0.00300012 0.
0.646023 0.0030007 0.
0.648021 0.00300143 0.
0.65002 0.00300214 0.
0.65202 0.00300137 0.
0.654021 0.0030006 0.
0.656021 0.00300002 0.
0.658023 0.00300003 0.
0.660024 0.00300004 0.
0.662026 0.00300004 0.
0.664028 0.00300002 0.
0.666029 0.00300001 0.
0.66803 0.00300037 0.
0.670031 0.0030009 0.
0.672031 0.00300142 0.
0.674031 0.00300097 0.
0.676032 0.00300043 0.
0.678032 0.00300001 0.
0.680033 0.00300029 0.
0.682034 0.00300057 0.
0.684035 0.00300065 0.
0.686036 0.00300034 0.
0.688037 0.00300004 0.
0.690038 0.00300002 0.
0.692039 0.0030002 0.
0.69404 0.00300039 0.
0.696041 0.00300025 0.
0.698042 0.00300002 0.
0.499957 0.00500219 0.
0.501958 0.00500216 0.
0.503959 0.0050021 0.
0.505961 0.00500208 0.
0.507962 0.00500214 0.
0.509963 0.0050022 0.
0.511964 0.00500184 0.
0.513964 0.00500093 0.
0.515965 0.00500002 0.
0.517966 0.00500002 0.
0.519967 0.00500051 0.
0.521968 0.00500099 0.
0.523969 0.00500069 0.
0.525969 0.00500029 0.
0.52797 0.00500002 0.
0.529971 0.00500107 0.
0.531971 0.00500211 0.
0.533972 0.00500249 0.
0.535973 0.00500144 0.
0.537975 0.0050004 0.
0.539977 0.00499999 0.
0.541979 0.00500011 0.
0.543982 0.00500023 0.
0.545983 0.00500033 0.
0.547983 0.00500042 0.
0.549983 0.00500052 0.
0.551982 0.00500132 0.
0.553982 0.00500212 0.
0.555982 0.00500254 0.
0.557982 0.00500155 0.
0.559981 0.00500055 0.
0.561982 0.00500011 0.
0.563983 0.00500039 0.
0.565984 0.00500067 0.
0.567985 0.00500058 0.
0.569986 0.00500031 0.
0.571987 0.00500005 0.
0.573987 0.00500003 0.
0.575987 0.00500004 0.
0.577987 0.00500012 0.
0.579988 0.00500067 0.
0.581988 0.00500122 0.
0.583988 0.00500219 0.
0.585987 0.00500403 0.
0.587985 0.00500586 0.
0.589985 0.00500523 0.
0.591987 0.00500261 0.
0.593988 0.00499999 0.
0.595992 0.00500098 0.
0.597996 0.005003 0.
0.6 0.00500502 0.
0.602006 0.0050032 0.
0.604011 0.00500138 0.
0.606015 0.00500003 0.
0.608015 0.00500017 0.
0.610016 0.00500031 0.
0.612016 0.00500068 0.
0.614016 0.00500131 0.
0.616016 0.00500194 0.
0.618016 0.00500238 0.
0.620016 0.00500274 0.
0.622016 0.00500311 0.
0.624015 0.00500251 0.
0.626014 0.00500182 0.
0.628013 0.00500116 0.
0.630015 0.0050007 0.
0.632016 0.00500024 0.
0.634018 0.00499998 0.
0.636019 0.00500007 0.
0.63802 0.00500016 0.
0.640022 0.0050002 0.
0.642023 0.0050002 0.
0.644024 0.00500019 0.
0.646023 0.00500116 0.
0.648022 0.00500238 0.
0.65002 0.00500357 0.
0.65202 0.00500229 0.
0.654019 0.00500101 0.
0.65602 0.00500004 0.
0.658022 0.00500006 0.
0.660024 0.00500007 0.
0.662026 0.00500007 0.
0.664028 0.00500004 0.
0.66603 0.00500001 0.
0.668031 0.00500061 0.
0.670031 0.00500149 0.
0.672032 0.00500237 0.
0.674032 0.00500161 0.
0.676032 0.00500071 0.
0.678032 0.00500001 0.
0.680033 0.00500048 0.
0.682035 0.00500096 0.
0.684036 0.00500107 0.
0.686037 0.00500057 0.
0.688038 0.00500006 0.
0.690039 0.00500004 0.
0.692039 0.00500034 0.
0.694039 0.00500065 0.
0.69604 0.00500042 0.
0.698042 0.00500005 0.
0.499958 0.0070039 0.
0.50196 0.00700376 0.
0.503961 0.00700345 0.
0.505962 0.00700333 0.
0.507963 0.0070039 0.
0.509963 0.00700447 0.
0.511964 0.00700477 0.
0.513965 0.00700471 0.
0.515966 0.00700464 0.
0.517967 0.00700476 0.
0.519968 0.00700497 0.
0.521968 0.00700519 0.
0.523969 0.00700504 0.
0.52597 0.00700485 0.
0.527971 0.00700471 0.
0.529971 0.00700518 0.
0.531972 0.00700564 0.
0.533973 0.007006 0.
0.535974 0.00700609 0.
0.537976 0.00700619 0.
0.539977 0.00700611 0.
0.541979 0.00700586 0.
0.543981 0.00700561 0.
0.545981 0.00700563 0.
0.547981 0.00700573 0.
0.549981 0.00700583 0.
0.551982 0.00700598 0.
0.553982 0.00700614 0.
0.555982 0.00700628 0.
0.557982 0.00700634 0.
0.559982 0.00700641 0.
0.561983 0.00700643 0.
0.563984 0.00700639 0.
0.565985 0.00700635 0.
0.567985 0.00700656 0.
0.569986 0.00700691 0.
0.571987 0.00700727 0.
0.573987 0.0070076 0.
0.575987 0.00700793 0.
0.577987 0.00700818 0.
0.579988 0.00700785 0.
0.581988 0.00700752 0.
0.583988 0.00700748 0.
0.585988 0.00700803 0.
0.587988 0.00700858 0.
0.589988 0.00700799 0.
0.591989 0.00700649 0.
0.59399 0.00700499 0.
0.595993 0.007006 0.
0.597997 0.00700771 0.
0.600001 0.00700942 0.
0.602005 0.00700796 0.
0.604009 0.0070065 0.
0.606013 0.00700544 0.
0.608013 0.00700566 0.
0.610013 0.00700588 0.
0.612014 0.00700616 0.
0.614014 0.00700649 0.
0.616014 0.00700682 0.
0.618015 0.00700699 0.
0.620015 0.0070071 0.
0.622015 0.00700721 0.
0.624015 0.00700716 0.
0.626015 0.00700709 0.
0.628014 0.00700707 0.
0.630015 0.00700732 0.
0.632016 0.00700758 0.
0.634017 0.00700761 0.
0.636018 0.00700721 0.
0.638019 0.00700681 0.
0.64002 0.00700666 0.
0.642021 0.00700671 0.
0.644022 0.00700676 0.
0.646022 0.00700672 0.
0.648021 0.00700667 0.
0.650021 0.00700662 0.
0.652021 0.00700689 0.
0.654021 0.00700715 0.
0.656021 0.00700738 0.
0.658022 0.00700749 0.
0.660024 0.0070076 0.
0.662025 0.00700735 0.
0.664027 0.00700668 0.
0.666029 0.00700601 0.
0.66803 0.00700565 0.
0.67003 0.00700543 0.
0.672031 0.00700522 0.
0.674031 0.00700453 0.
0.676032 0.00700379 0.
0.678032 0.00700314 0.
0.680033 0.00700307 0.
0.682035 0.00700301 0.
0.684036 0.00700298 0.
0.686037 0.00700301 0.
0.688038 0.00700304 0.
0.690038 0.00700287 0.
0.692039 0.00700254 0.
0.69404 0.00700221 0.
0.69604 0.00700197 0.
0.698041 0.00700177 0.
0.49996 0.00900557 0.
0.501961 0.00900535 0.
0.503962 0.0090048 0.
0.505963 0.00900457 0.
0.507963 0.00900566 0.
0.509964 0.00900674 0.
0.511965 0.00900771 0.
0.513966 0.00900849 0.
0.515967 0.00900927 0.
0.517968 0.0090095 0.
0.519968 0.00900944 0.
0.521969 0.00900938 0.
0.52397 0.00900939 0.
0.525971 0.00900941 0.
0.527972 0.0090094 0.
0.529972 0.00900929 0.
0.531973 0.00900917 0.
0.533974 0.0090095 0.
0.535975 0.00901075 0.
0.537977 0.00901199 0.
0.539978 0.00901223 0.
0.541979 0.00901161 0.
0.54398 0.00901099 0.
0.54598 0.00901093 0.
0.54798 0.00901104 0.
0.54998 0.00901114 0.
0.551981 0.00901065 0.
0.553981 0.00901016 0.
0.555982 0.00901001 0.
0.557983 0.00901114 0.
0.559983 0.00901226 0.
0.561984 0.00901274 0.
0.563985 0.00901238 0.
0.565985 0.00901203 0.
0.567986 0.00901253 0.
0.569986 0.00901351 0.
0.571987 0.00901448 0.
0.573987 0.00901518 0.
0.575987 0.00901582 0.
0.577987 0.00901625 0.
0.579987 0.00901504 0.
0.581987 0.00901382 0.
0.583988 0.00901276 0.
0.585989 0.00901203 0.
0.58799 0.0090113 0.
0.589991 0.00901074 0.
0.591991 0.00901036 0.
0.593992 0.00900998 0.
0.595995 0.00901103 0.
0.597998 0.00901243 0.
0.600001 0.00901382 0.
0.602004 0.00901272 0.
0.604008 0.00901162 0.
0.60601 0.00901084 0.
0.608011 0.00901115 0.
0.610011 0.00901145 0.
0.612012 0.00901163 0.
0.614012 0.00901167 0.
0.616012 0.0090117 0.
0.618013 0.0090116 0.
0.620013 0.00901146 0.
0.622014 0.00901132 0.
0.624014 0.00901181 0.
0.626015 0.00901236 0.
0.628016 0.00901297 0.
0.630016 0.00901394 0.
0.632016 0.0090149 0.
0.634016 0.00901524 0.
0.636017 0.00901435 0.
0.638018 0.00901345 0.
0.640019 0.00901313 0.
0.642019 0.00901322 0.
0.64402 0.00901332 0.
0.64602 0.00901229 0.
0.648021 0.00901096 0.
0.650022 0.00900967 0.
0.652022 0.00901148 0.
0.654022 0.0090133 0.
0.656022 0.00901473 0.
0.658023 0.00901493 0.
0.660024 0.00901514 0.
0.662025 0.00901464 0.
0.664026 0.00901332 0.
0.666028 0.009012 0.
0.668029 0.00901069 0.
0.67003 0.00900938 0.
0.67203 0.00900808 0.
0.674031 0.00900745 0.
0.676032 0.00900687 0.
0.678032 0.00900627 0.
0.680033 0.00900566 0.
0.682034 0.00900505 0.
0.684035 0.00900489 0.
0.686036 0.00900546 0.
0.688037 0.00900603 0.
0.690038 0.00900571 0.
0.692039 0.00900473 0.
0.69404 0.00900376 0.
0.69604 0.00900353 0.
0.698041 0.0090035 0.
0.499961 0.0110069 0.
0.501962 0.0110066 0.
0.503963 0.0110059 0.
0.505963 0.0110056 0.
0.507964 0.0110069 0.
0.509965 0.0110082 0.
0.511966 0.0110094 0.
0.513966 0.0110104 0.
0.515967 0.0110114 0.
0.517968 0.0110117 0.
0.519969 0.0110116 0.
0.52197 0.0110116 0.
0.52397 0.0110116 0.
0.525971 0.0110117 0.
0.527972 0.0110117 0.
0.529973 0.0110114 0.
0.531974 0.0110112 0.
0.533975 0.0110115 0.
0.535976 0.011013 0.
0.537977 0.0110144 0.
0.539978 0.0110148 0.
0.541979 0.0110143 0.
0.543979 0.0110139 0.
0.545979 0.0110137 0.
0.547979 0.0110137 0.
0.54998 0.0110136 0.
0.55198 0.011013 0.
0.553981 0.0110123 0.
0.555982 0.0110121 0.
0.557983 0.0110136 0.
0.559984 0.0110151 0.
0.561985 0.0110158 0.
0.563985 0.0110154 0.
0.565986 0.0110151 0.
0.567986 0.0110156 0.
0.569987 0.0110166 0.
0.571987 0.0110176 0.
0.573987 0.0110184 0.
0.575988 0.0110192 0.
0.577988 0.0110197 0.
0.579988 0.0110182 0.
0.581988 0.0110166 0.
0.583989 0.0110152 0.
0.58599 0.011014 0.
0.587991 0.0110128 0.
0.589992 0.0110123 0.
0.591993 0.0110124 0.
0.593994 0.0110125 0.
0.595996 0.0110133 0.
0.597998 0.0110143 0.
0.600001 0.0110153 0.
0.602003 0.0110146 0.
0.604006 0.011014 0.
0.606008 0.0110135 0.
0.608009 0.0110139 0.
0.61001 0.0110142 0.
0.61201 0.0110143 0.
0.614011 0.0110143 0.
0.616011 0.0110143 0.
0.618012 0.0110141 0.
0.620012 0.0110139 0.
0.622013 0.0110137 0.
0.624014 0.0110144 0.
0.626015 0.0110152 0.
0.628016 0.011016 0.
0.630016 0.011017 0.
0.632016 0.011018 0.
0.634016 0.0110184 0.
0.636017 0.0110175 0.
0.638018 0.0110166 0.
0.640018 0.0110162 0.
0.642019 0.0110161 0.
0.644019 0.0110161 0.
0.64602 0.0110148 0.
0.648021 0.0110132 0.
0.650022 0.0110117 0.
0.652023 0.0110139 0.
0.654023 0.0110162 0.
0.656023 0.011018 0.
0.658023 0.0110182 0.
0.660024 0.0110184 0.
0.662025 0.0110178 0.
0.664026 0.0110162 0.
0.666027 0.0110146 0.
0.668028 0.0110129 0.
0.670029 0.0110113 0.
0.67203 0.0110097 0.
0.674031 0.011009 0.
0.676032 0.0110085 0.
0.678033 0.0110079 0.
0.680034 0.011007 0.
0.682034 0.0110061 0.
0.684035 0.0110059 0.
0.686036 0.0110067 0.
0.688037 0.0110075 0.
0.690038 0.0110073 0.
0.692039 0.0110062 0.
0.69404 0.0110052 0.
0.69604 0.011005 0.
0.698041 0.0110051 0.
0.499961 0.013008 0.
0.501962 0.0130075 0.
0.503963 0.0130067 0.
0.505964 0.0130064 0.
0.507965 0.0130075 0.
0.509965 0.0130087 0.
0.511966 0.0130097 0.
0.513967 0.0130103 0.
0.515968 0.013011 0.
0.517969 0.0130113 0.
0.519969 0.0130116 0.
0.52197 0.0130118 0.
0.523971 0.0130118 0.
0.525971 0.0130116 0.
0.527972 0.0130115 0.
0.529973 0.0130117 0.
0.531973 0.0130118 0.
0.533974 0.0130121 0.
0.535976 0.0130128 0.
0.537977 0.0130136 0.
0.539978 0.013014 0.
0.541979 0.0130141 0.
0.543979 0.0130142 0.
0.54598 0.013014 0.
0.54798 0.0130136 0.
0.54998 0.0130133 0.
0.551981 0.0130129 0.
0.553981 0.0130126 0.
0.555982 0.0130125 0.
0.557983 0.0130137 0.
0.559984 0.0130149 0.
0.561984 0.0130155 0.
0.563985 0.0130155 0.
0.565985 0.0130155 0.
0.567986 0.0130158 0.
0.569987 0.0130162 0.
0.571987 0.0130167 0.
0.573988 0.0130174 0.
0.575989 0.0130181 0.
0.577989 0.0130186 0.
0.57999 0.0130172 0.
0.58199 0.0130159 0.
0.583991 0.0130148 0.
0.585991 0.013014 0.
0.587992 0.0130132 0.
0.589993 0.0130128 0.
0.591994 0.0130127 0.
0.593995 0.0130126 0.
0.595997 0.0130129 0.
0.597999 0.0130134 0.
0.6 0.0130138 0.
0.602003 0.0130137 0.
0.604005 0.0130136 0.
0.606007 0.0130136 0.
0.608008 0.0130138 0.
0.610009 0.013014 0.
0.61201 0.0130142 0.
0.614011 0.0130144 0.
0.616011 0.0130145 0.
0.618011 0.0130145 0.
0.620012 0.0130144 0.
0.622013 0.0130143 0.
0.624013 0.0130149 0.
0.626014 0.0130155 0.
0.628014 0.0130162 0.
0.630014 0.0130166 0.
0.632015 0.013017 0.
0.634015 0.0130172 0.
0.636016 0.0130167 0.
0.638017 0.0130163 0.
0.640018 0.0130159 0.
0.642019 0.0130155 0.
0.64402 0.0130151 0.
0.646021 0.0130143 0.
0.648021 0.0130134 0.
0.650022 0.0130126 0.
0.652022 0.0130142 0.
0.654023 0.0130159 0.
0.656023 0.0130172 0.
0.658024 0.0130174 0.
0.660024 0.0130176 0.
0.662025 0.0130169 0.
0.664026 0.0130153 0.
0.666027 0.0130137 0.
0.668028 0.0130124 0.
0.670029 0.0130112 0.
0.67203 0.0130099 0.
0.674031 0.0130093 0.
0.676032 0.0130087 0.
0.678033 0.013008 0.
0.680034 0.0130071 0.
0.682035 0.0130062 0.
0.684035 0.0130059 0.
0.686037 0.0130067 0.
0.688038 0.0130076 0.
0.690039 0.0130076 0.
0.692039 0.013007 0.
0.69404 0.0130064 0.
0.69604 0.0130064 0.
0.698041 0.0130065 0.
0.499961 0.015009 0.
0.501962 0.0150083 0.
0.503963 0.0150075 0.
0.505964 0.0150071 0.
0.507965 0.0150082 0.
0.509965 0.0150093 0.
0.511966 0.0150101 0.
0.513967 0.0150103 0.
0.515968 0.0150106 0.
0.517969 0.015011 0.
0.51997 0.0150115 0.
0.521971 0.0150121 0.
0.523971 0.0150119 0.
0.525972 0.0150116 0.
0.527972 0.0150114 0.
0.529973 0.0150119 0.
0.531973 0.0150123 0.
0.533974 0.0150126 0.
0.535976 0.0150127 0.
0.537977 0.0150127 0.
0.539978 0.0150131 0.
0.541979 0.0150138 0.
0.543979 0.0150145 0.
0.54598 0.0150142 0.
0.54798 0.0150136 0.
0.54998 0.0150129 0.
0.551981 0.0150129 0.
0.553982 0.0150128 0.
0.555982 0.015013 0.
0.557983 0.0150138 0.
0.559983 0.0150146 0.
0.561984 0.0150153 0.
0.563985 0.0150156 0.
0.565985 0.015016 0.
0.567986 0.015016 0.
0.569987 0.0150159 0.
0.571988 0.0150157 0.
0.573989 0.0150163 0.
0.575989 0.015017 0.
0.57799 0.0150174 0.
0.579991 0.0150163 0.
0.581992 0.0150152 0.
0.583993 0.0150144 0.
0.585993 0.0150139 0.
0.587993 0.0150135 0.
0.589994 0.0150132 0.
0.591995 0.0150129 0.
0.593996 0.0150126 0.
0.595998 0.0150125 0.
0.597999 0.0150124 0.
0.6 0.0150124 0.
0.602002 0.0150128 0.
0.604003 0.0150132 0.
0.606005 0.0150136 0.
0.608007 0.0150137 0.
0.610009 0.0150139 0.
0.61201 0.0150141 0.
0.61401 0.0150144 0.
0.61601 0.0150147 0.
0.618011 0.0150148 0.
0.620012 0.0150149 0.
0.622013 0.0150149 0.
0.624013 0.0150153 0.
0.626013 0.0150159 0.
0.628012 0.0150163 0.
0.630013 0.0150162 0.
0.632014 0.0150161 0.
0.634015 0.015016 0.
0.636016 0.015016 0.
0.638017 0.015016 0.
0.640018 0.0150156 0.
0.64202 0.0150149 0.
0.644021 0.0150141 0.
0.646021 0.0150138 0.
0.648021 0.0150136 0.
0.650021 0.0150134 0.
0.652022 0.0150145 0.
0.654022 0.0150156 0.
0.656023 0.0150165 0.
0.658024 0.0150166 0.
0.660025 0.0150167 0.
0.662026 0.015016 0.
0.664026 0.0150144 0.
0.666027 0.0150129 0.
0.668028 0.0150118 0.
0.670029 0.015011 0.
0.672031 0.0150102 0.
0.674032 0.0150095 0.
0.676032 0.0150089 0.
0.678033 0.0150082 0.
0.680034 0.0150072 0.
0.682035 0.0150063 0.
0.684036 0.015006 0.
0.686037 0.0150068 0.
0.688039 0.0150076 0.
0.690039 0.0150079 0.
0.692039 0.0150078 0.
0.694039 0.0150076 0.
0.69604 0.0150078 0.
0.698041 0.015008 0.
0.499962 0.0170097 0.
0.501962 0.0170093 0.
0.503963 0.0170087 0.
0.505964 0.0170083 0.
0.507965 0.0170091 0.
0.509966 0.0170098 0.
0.511967 0.0170104 0.
0.513968 0.0170107 0.
0.515968 0.017011 0.
0.517969 0.0170114 0.
0.51997 0.0170119 0.
0.521971 0.0170124 0.
0.523971 0.0170125 0.
0.525972 0.0170124 0.
0.527972 0.0170124 0.
0.529973 0.0170126 0.
0.531974 0.0170129 0.
0.533975 0.017013 0.
0.535976 0.0170128 0.
0.537977 0.0170127 0.
0.539978 0.017013 0.
0.541979 0.0170135 0.
0.54398 0.017014 0.
0.545981 0.017014 0.
0.547981 0.0170138 0.
0.549982 0.0170136 0.
0.551982 0.0170136 0.
0.553982 0.0170136 0.
0.555983 0.0170138 0.
0.557983 0.0170143 0.
0.559984 0.0170148 0.
0.561985 0.0170153 0.
0.563985 0.0170156 0.
0.565986 0.0170159 0.
0.567987 0.0170162 0.
0.569987 0.0170164 0.
0.571988 0.0170166 0.
0.573989 0.0170168 0.
0.575989 0.017017 0.
0.57799 0.0170172 0.
0.579991 0.0170165 0.
0.581992 0.0170159 0.
0.583993 0.0170152 0.
0.585993 0.0170144 0.
0.587994 0.0170137 0.
0.589995 0.0170132 0.
0.591996 0.017013 0.
0.593997 0.0170129 0.
0.595998 0.0170128 0.
0.597999 0.0170129 0.
0.6 0.017013 0.
0.602002 0.0170134 0.
0.604003 0.0170137 0.
0.606004 0.017014 0.
0.608006 0.017014 0.
0.610008 0.017014 0.
0.612009 0.0170142 0.
0.61401 0.0170144 0.
0.61601 0.0170147 0.
0.618011 0.017015 0.
0.620012 0.0170154 0.
0.622012 0.0170157 0.
0.624012 0.017016 0.
0.626012 0.0170163 0.
0.628012 0.0170166 0.
0.630013 0.0170165 0.
0.632014 0.0170164 0.
0.634015 0.0170163 0.
0.636016 0.0170163 0.
0.638017 0.0170163 0.
0.640018 0.017016 0.
0.642019 0.0170154 0.
0.64402 0.0170148 0.
0.64602 0.0170147 0.
0.64802 0.0170148 0.
0.65002 0.0170148 0.
0.652021 0.0170154 0.
0.654022 0.017016 0.
0.656023 0.0170164 0.
0.658024 0.0170164 0.
0.660024 0.0170165 0.
0.662025 0.0170159 0.
0.664026 0.0170147 0.
0.666028 0.0170134 0.
0.668029 0.0170126 0.
0.67003 0.0170119 0.
0.672031 0.0170112 0.
0.674032 0.0170102 0.
0.676032 0.0170092 0.
0.678033 0.0170083 0.
0.680033 0.0170075 0.
0.682034 0.0170068 0.
0.684035 0.0170064 0.
0.686036 0.0170069 0.
0.688038 0.0170075 0.
0.690039 0.017008 0.
0.692039 0.0170086 0.
0.694039 0.0170092 0.
0.69604 0.0170091 0.
0.69804 0.0170089 0.
0.499962 0.0190105 0.
0.501963 0.0190102 0.
0.503964 0.0190098 0.
0.505964 0.0190095 0.
0.507966 0.0190099 0.
0.509967 0.0190103 0.
0.511967 0.0190107 0.
0.513968 0.0190111 0.
0.515969 0.0190114 0.
0.517969 0.0190118 0.
0.51997 0.0190123 0.
0.521971 0.0190128 0.
0.523971 0.0190131 0.
0.525972 0.0190132 0.
0.527972 0.0190134 0.
0.529973 0.0190134 0.
0.531974 0.0190134 0.
0.533975 0.0190133 0.
0.535976 0.019013 0.
0.537977 0.0190128 0.
0.539978 0.0190128 0.
0.541979 0.0190132 0.
0.54398 0.0190135 0.
0.545981 0.0190138 0.
0.547982 0.019014 0.
0.549983 0.0190142 0.
0.551983 0.0190143 0.
0.553983 0.0190144 0.
0.555983 0.0190145 0.
0.557984 0.0190148 0.
0.559985 0.019015 0.
0.561986 0.0190152 0.
0.563986 0.0190155 0.
0.565987 0.0190158 0.
0.567987 0.0190163 0.
0.569988 0.0190169 0.
0.571989 0.0190174 0.
0.573989 0.0190173 0.
0.575989 0.0190171 0.
0.577989 0.0190169 0.
0.579991 0.0190167 0.
0.581992 0.0190165 0.
0.583993 0.019016 0.
0.585994 0.0190149 0.
0.587995 0.0190138 0.
0.589995 0.0190133 0.
0.591996 0.0190132 0.
0.593997 0.0190131 0.
0.595998 0.0190132 0.
0.597999 0.0190134 0.
0.6 0.0190136 0.
0.602002 0.0190139 0.
0.604003 0.0190143 0.
0.606004 0.0190145 0.
0.608005 0.0190143 0.
0.610006 0.0190141 0.
0.612008 0.0190142 0.
0.614009 0.0190144 0.
0.61601 0.0190147 0.
0.618011 0.0190153 0.
0.620011 0.0190159 0.
0.622012 0.0190165 0.
0.624012 0.0190166 0.
0.626012 0.0190168 0.
0.628012 0.0190169 0.
0.630013 0.0190168 0.
0.632014 0.0190167 0.
0.634015 0.0190166 0.
0.636015 0.0190166 0.
0.638016 0.0190166 0.
0.640017 0.0190164 0.
0.642018 0.0190159 0.
0.644019 0.0190155 0.
0.646019 0.0190156 0.
0.648019 0.0190159 0.
0.650019 0.0190161 0.
0.65202 0.0190162 0.
0.654021 0.0190163 0.
0.656022 0.0190163 0.
0.658023 0.0190163 0.
0.660024 0.0190163 0.
0.662025 0.0190158 0.
0.664027 0.0190149 0.
0.666028 0.019014 0.
0.668029 0.0190133 0.
0.67003 0.0190128 0.
0.672031 0.0190122 0.
0.674032 0.0190109 0.
0.676032 0.0190096 0.
0.678032 0.0190084 0.
0.680033 0.0190078 0.
0.682033 0.0190072 0.
0.684034 0.0190069 0.
0.686036 0.0190071 0.
0.688037 0.0190073 0.
0.690038 0.0190081 0.
0.692038 0.0190094 0.
0.694039 0.0190108 0.
0.696039 0.0190105 0.
0.69804 0.0190098 0.
0.499962 0.0210111 0.
0.501963 0.021011 0.
0.503964 0.0210107 0.
0.505964 0.0210105 0.
0.507966 0.0210106 0.
0.509967 0.0210107 0.
0.511968 0.021011 0.
0.513968 0.0210114 0.
0.515969 0.0210118 0.
0.517969 0.0210122 0.
0.51997 0.0210126 0.
0.521971 0.0210131 0.
0.523971 0.0210134 0.
0.525972 0.0210136 0.
0.527972 0.0210139 0.
0.529973 0.0210137 0.
0.531975 0.0210136 0.
0.533975 0.0210135 0.
0.535976 0.0210132 0.
0.537977 0.0210129 0.
0.539978 0.0210128 0.
0.541979 0.021013 0.
0.543981 0.0210132 0.
0.545982 0.0210136 0.
0.547983 0.021014 0.
0.549984 0.0210144 0.
0.551984 0.0210147 0.
0.553984 0.021015 0.
0.555984 0.0210152 0.
0.557985 0.0210151 0.
0.559985 0.0210151 0.
0.561986 0.0210152 0.
0.563987 0.0210156 0.
0.565987 0.0210159 0.
0.567988 0.0210165 0.
0.569988 0.0210171 0.
0.571989 0.0210178 0.
0.573989 0.0210174 0.
0.575989 0.0210169 0.
0.577989 0.0210165 0.
0.579991 0.0210166 0.
0.581992 0.0210167 0.
0.583993 0.0210164 0.
0.585994 0.0210151 0.
0.587995 0.0210138 0.
0.589996 0.0210133 0.
0.591996 0.0210133 0.
0.593997 0.0210133 0.
0.595998 0.0210134 0.
0.597999 0.0210137 0.
0.600001 0.0210139 0.
0.602002 0.0210143 0.
0.604003 0.0210146 0.
0.606004 0.0210148 0.
0.608005 0.0210144 0.
0.610006 0.021014 0.
0.612007 0.0210139 0.
0.614008 0.0210143 0.
0.61601 0.0210147 0.
0.61801 0.0210153 0.
0.620011 0.021016 0.
0.622011 0.0210168 0.
0.624012 0.021017 0.
0.626012 0.0210171 0.
0.628013 0.0210172 0.
0.630013 0.021017 0.
0.632014 0.0210167 0.
0.634015 0.0210166 0.
0.636015 0.0210165 0.
0.638016 0.0210165 0.
0.640017 0.0210163 0.
0.642018 0.0210161 0.
0.644018 0.0210159 0.
0.646019 0.0210161 0.
0.648019 0.0210164 0.
0.650019 0.0210167 0.
0.65202 0.0210165 0.
0.654021 0.0210164 0.
0.656022 0.0210162 0.
0.658023 0.021016 0.
0.660024 0.0210159 0.
0.662025 0.0210155 0.
0.664026 0.0210148 0.
0.666028 0.0210141 0.
0.668029 0.0210135 0.
0.67003 0.021013 0.
0.672031 0.0210125 0.
0.674032 0.0210113 0.
0.676032 0.02101 0.
0.678032 0.0210087 0.
0.680033 0.0210081 0.
0.682033 0.0210075 0.
0.684034 0.0210072 0.
0.686035 0.0210073 0.
0.688037 0.0210075 0.
0.690037 0.0210084 0.
0.692038 0.02101 0.
0.694039 0.0210115 0.
0.696039 0.0210112 0.
0.69804 0.0210104 0.
0.499962 0.0230117 0.
0.501963 0.0230117 0.
0.503964 0.0230115 0.
0.505964 0.0230113 0.
0.507966 0.0230111 0.
0.509967 0.0230109 0.
0.511968 0.0230111 0.
0.513968 0.0230116 0.
0.515968 0.0230121 0.
0.517969 0.0230125 0.
0.51997 0.0230129 0.
0.52197 0.0230132 0.
0.523971 0.0230134 0.
0.525972 0.0230136 0.
0.527974 0.0230137 0.
0.529974 0.0230137 0.
0.531975 0.0230136 0.
0.533976 0.0230135 0.
0.535977 0.0230133 0.
0.537977 0.023013 0.
0.539978 0.0230129 0.
0.541979 0.0230129 0.
0.54398 0.023013 0.
0.545981 0.0230133 0.
0.547982 0.0230137 0.
0.549983 0.0230141 0.
0.551983 0.0230147 0.
0.553984 0.0230152 0.
0.555984 0.0230156 0.
0.557985 0.0230153 0.
0.559986 0.023015 0.
0.561986 0.0230151 0.
0.563987 0.0230157 0.
0.565987 0.0230162 0.
0.567988 0.0230167 0.
0.569988 0.0230171 0.
0.571989 0.0230176 0.
0.573989 0.0230171 0.
0.575989 0.0230165 0.
0.577989 0.023016 0.
0.579991 0.0230163 0.
0.581992 0.0230165 0.
0.583993 0.0230162 0.
0.585994 0.0230149 0.
0.587995 0.0230137 0.
0.589996 0.0230132 0.
0.591997 0.0230133 0.
0.593997 0.0230134 0.
0.595998 0.0230136 0.
0.597999 0.0230138 0.
0.6 0.023014 0.
0.602002 0.0230143 0.
0.604003 0.0230147 0.
0.606004 0.0230148 0.
0.608005 0.0230142 0.
0.610006 0.0230136 0.
0.612007 0.0230135 0.
0.614008 0.023014 0.
0.616009 0.0230146 0.
0.618009 0.0230152 0.
0.62001 0.0230159 0.
0.622011 0.0230166 0.
0.624012 0.0230169 0.
0.626012 0.0230172 0.
0.628013 0.0230175 0.
0.630014 0.023017 0.
0.632014 0.0230165 0.
0.634015 0.0230161 0.
0.636015 0.023016 0.
0.638016 0.0230158 0.
0.640017 0.0230158 0.
0.642017 0.0230159 0.
0.644018 0.023016 0.
0.646018 0.0230162 0.
0.648018 0.0230164 0.
0.650019 0.0230165 0.
0.65202 0.0230163 0.
0.65402 0.0230161 0.
0.656021 0.0230159 0.
0.658022 0.0230157 0.
0.660023 0.0230154 0.
0.662024 0.023015 0.
0.664026 0.0230143 0.
0.666027 0.0230136 0.
0.668028 0.0230131 0.
0.670029 0.0230127 0.
0.672031 0.0230123 0.
0.674031 0.0230113 0.
0.676032 0.0230104 0.
0.678033 0.0230094 0.
0.680033 0.0230085 0.
0.682034 0.0230077 0.
0.684034 0.0230073 0.
0.686035 0.0230077 0.
0.688036 0.023008 0.
0.690037 0.0230089 0.
0.692038 0.0230102 0.
0.694039 0.0230115 0.
0.696039 0.0230113 0.
0.69804 0.0230107 0.
0.499962 0.0250123 0.
0.501963 0.0250124 0.
0.503964 0.0250123 0.
0.505964 0.0250121 0.
0.507966 0.0250116 0.
0.509967 0.0250112 0.
0.511968 0.0250112 0.
0.513968 0.0250118 0.
0.515968 0.0250125 0.
0.517969 0.0250129 0.
0.519969 0.0250131 0.
0.52197 0.0250133 0.
0.523972 0.0250134 0.
0.525973 0.0250135 0.
0.527975 0.0250136 0.
0.529975 0.0250136 0.
0.531976 0.0250136 0.
0.533977 0.0250135 0.
0.535977 0.0250134 0.
0.537978 0.0250132 0.
0.539979 0.025013 0.
0.541979 0.0250129 0.
0.54398 0.0250127 0.
0.545981 0.025013 0.
0.547981 0.0250134 0.
0.549982 0.0250138 0.
0.551983 0.0250146 0.
0.553984 0.0250155 0.
0.555985 0.0250161 0.
0.557986 0.0250156 0.
0.559986 0.025015 0.
0.561987 0.025015 0.
0.563987 0.0250158 0.
0.565987 0.0250165 0.
0.567988 0.0250169 0.
0.569988 0.0250171 0.
0.571989 0.0250173 0.
0.573989 0.0250168 0.
0.575989 0.0250161 0.
0.577989 0.0250156 0.
0.579991 0.0250159 0.
0.581992 0.0250162 0.
0.583993 0.025016 0.
0.585994 0.0250148 0.
0.587995 0.0250136 0.
0.589996 0.0250132 0.
0.591997 0.0250133 0.
0.593997 0.0250135 0.
0.595998 0.0250137 0.
0.597999 0.0250139 0.
0.6 0.0250141 0.
0.602002 0.0250144 0.
0.604003 0.0250147 0.
0.606004 0.0250148 0.
0.608005 0.025014 0.
0.610006 0.0250132 0.
0.612007 0.025013 0.
0.614007 0.0250138 0.
0.616008 0.0250145 0.
0.618009 0.0250151 0.
0.62001 0.0250158 0.
0.62201 0.0250164 0.
0.624012 0.0250169 0.
0.626013 0.0250174 0.
0.628013 0.0250177 0.
0.630014 0.025017 0.
0.632014 0.0250162 0.
0.634015 0.0250157 0.
0.636016 0.0250154 0.
0.638016 0.0250152 0.
0.640017 0.0250153 0.
0.642017 0.0250157 0.
0.644017 0.0250161 0.
0.646018 0.0250163 0.
0.648018 0.0250163 0.
0.650018 0.0250164 0.
0.652019 0.0250161 0.
0.65402 0.0250159 0.
0.656021 0.0250157 0.
0.658022 0.0250153 0.
0.660023 0.0250149 0.
0.662024 0.0250144 0.
0.664025 0.0250138 0.
0.666027 0.0250132 0.
0.668028 0.0250128 0.
0.670029 0.0250124 0.
0.67203 0.025012 0.
0.674031 0.0250114 0.
0.676033 0.0250107 0.
0.678034 0.02501 0.
0.680034 0.025009 0.
0.682034 0.0250079 0.
0.684034 0.0250074 0.
0.686035 0.025008 0.
0.688036 0.0250086 0.
0.690037 0.0250094 0.
0.692038 0.0250104 0.
0.694039 0.0250114 0.
0.696039 0.0250113 0.
0.69804 0.025011 0.
0.499963 0.0270129 0.
0.501964 0.0270128 0.
0.503964 0.0270123 0.
0.505965 0.0270119 0.
0.507966 0.0270118 0.
0.509967 0.0270116 0.
0.511968 0.0270116 0.
0.513968 0.0270119 0.
0.515969 0.0270121 0.
0.517969 0.0270124 0.
0.51997 0.0270126 0.
0.521971 0.0270128 0.
0.523972 0.0270131 0.
0.525974 0.0270133 0.
0.527975 0.0270135 0.
0.529976 0.0270134 0.
0.531976 0.0270133 0.
0.533977 0.0270132 0.
0.535978 0.0270132 0.
0.537979 0.0270131 0.
0.539979 0.0270131 0.
0.54198 0.0270131 0.
0.543981 0.0270131 0.
0.545981 0.0270133 0.
0.547982 0.0270135 0.
0.549983 0.0270137 0.
0.551983 0.0270147 0.
0.553984 0.0270156 0.
0.555985 0.0270162 0.
0.557986 0.0270155 0.
0.559986 0.0270148 0.
0.561987 0.0270147 0.
0.563987 0.0270154 0.
0.565988 0.027016 0.
0.567988 0.0270163 0.
0.569989 0.0270162 0.
0.57199 0.0270162 0.
0.57399 0.0270161 0.
0.57599 0.0270159 0.
0.57799 0.0270158 0.
0.579991 0.0270157 0.
0.581992 0.0270156 0.
0.583993 0.0270153 0.
0.585994 0.0270146 0.
0.587996 0.0270138 0.
0.589996 0.0270135 0.
0.591997 0.0270135 0.
0.593997 0.0270135 0.
0.595998 0.0270135 0.
0.597999 0.0270136 0.
0.6 0.0270136 0.
0.602002 0.0270139 0.
0.604003 0.0270142 0.
0.606004 0.0270142 0.
0.608005 0.0270137 0.
0.610006 0.0270131 0.
0.612007 0.0270131 0.
0.614007 0.0270137 0.
0.616008 0.0270143 0.
0.618008 0.0270149 0.
0.620009 0.0270155 0.
0.62201 0.0270161 0.
0.624011 0.0270166 0.
0.626012 0.0270171 0.
0.628013 0.0270174 0.
0.630013 0.0270168 0.
0.632014 0.0270161 0.
0.634014 0.0270157 0.
0.636015 0.0270157 0.
0.638016 0.0270157 0.
0.640016 0.0270156 0.
0.642017 0.0270155 0.
0.644017 0.0270154 0.
0.646018 0.0270157 0.
0.648018 0.0270161 0.
0.650018 0.0270165 0.
0.652019 0.0270163 0.
0.65402 0.027016 0.
0.656021 0.0270157 0.
0.658022 0.0270151 0.
0.660023 0.0270144 0.
0.662024 0.0270139 0.
0.664025 0.0270136 0.
0.666026 0.0270132 0.
0.668027 0.0270127 0.
0.670028 0.0270121 0.
0.672029 0.0270115 0.
0.67403 0.0270111 0.
0.676032 0.0270107 0.
0.678033 0.0270103 0.
0.680033 0.0270095 0.
0.682034 0.0270087 0.
0.684034 0.0270083 0.
0.686035 0.0270087 0.
0.688036 0.0270091 0.
0.690037 0.0270098 0.
0.692037 0.0270107 0.
0.694038 0.0270117 0.
0.696039 0.027012 0.
0.69804 0.0270122 0.
0.499964 0.0290137 0.
0.501964 0.0290131 0.
0.503965 0.0290124 0.
0.505966 0.0290117 0.
0.507966 0.0290119 0.
0.509967 0.0290121 0.
0.511968 0.0290121 0.
0.513969 0.0290119 0.
0.515969 0.0290117 0.
0.51797 0.0290118 0.
0.519971 0.0290121 0.
0.521972 0.0290123 0.
0.523973 0.0290127 0.
0.525974 0.0290131 0.
0.527975 0.0290135 0.
0.529976 0.0290132 0.
0.531977 0.0290129 0.
0.533978 0.0290128 0.
0.535979 0.029013 0.
0.537979 0.0290131 0.
0.53998 0.0290133 0.
0.541981 0.0290134 0.
0.543981 0.0290135 0.
0.545982 0.0290136 0.
0.547982 0.0290136 0.
0.549983 0.0290136 0.
0.551984 0.0290147 0.
0.553984 0.0290158 0.
0.555985 0.0290164 0.
0.557986 0.0290155 0.
0.559987 0.0290146 0.
0.561987 0.0290144 0.
0.563987 0.029015 0.
0.565988 0.0290156 0.
0.567988 0.0290156 0.
0.56999 0.0290154 0.
0.571991 0.0290151 0.
0.573991 0.0290154 0.
0.575991 0.0290157 0.
0.577991 0.029016 0.
0.579992 0.0290155 0.
0.581993 0.0290151 0.
0.583994 0.0290147 0.
0.585995 0.0290144 0.
0.587996 0.0290141 0.
0.589996 0.0290138 0.
0.591997 0.0290137 0.
0.593997 0.0290135 0.
0.595998 0.0290134 0.
0.597999 0.0290132 0.
0.6 0.029013 0.
0.602002 0.0290133 0.
0.604003 0.0290136 0.
0.606004 0.0290137 0.
0.608005 0.0290134 0.
0.610006 0.0290131 0.
0.612007 0.0290131 0.
0.614007 0.0290136 0.
0.616008 0.0290141 0.
0.618008 0.0290147 0.
0.620009 0.0290153 0.
0.622009 0.0290158 0.
0.62401 0.0290163 0.
0.626011 0.0290167 0.
0.628012 0.0290171 0.
0.630012 0.0290166 0.
0.632013 0.029016 0.
0.634014 0.0290158 0.
0.636014 0.029016 0.
0.638015 0.0290162 0.
0.640016 0.0290159 0.
0.642017 0.0290153 0.
0.644017 0.0290146 0.
0.646018 0.0290151 0.
0.648018 0.0290159 0.
0.650018 0.0290166 0.
0.65202 0.0290164 0.
0.654021 0.0290162 0.
0.656022 0.0290158 0.
0.658022 0.0290148 0.
0.660023 0.0290138 0.
0.662024 0.0290133 0.
0.664024 0.0290133 0.
0.666025 0.0290133 0.
0.668026 0.0290127 0.
0.670027 0.0290118 0.
0.672028 0.029011 0.
0.67403 0.0290108 0.
0.676031 0.0290107 0.
0.678032 0.0290105 0.
0.680033 0.02901 0.
0.682033 0.0290095 0.
0.684034 0.0290092 0.
0.686035 0.0290094 0.
0.688035 0.0290096 0.
0.690036 0.0290102 0.
0.692037 0.0290111 0.
0.694037 0.0290119 0.
0.696038 0.0290126 0.
0.698039 0.0290133 0.
0.499965 0.0310142 0.
0.501966 0.0310135 0.
0.503966 0.0310125 0.
0.505967 0.0310118 0.
0.507967 0.031012 0.
0.509968 0.0310121 0.
0.511969 0.031012 0.
0.513969 0.0310118 0.
0.51597 0.0310115 0.
0.517971 0.0310115 0.
0.519972 0.0310118 0.
0.521973 0.031012 0.
0.523974 0.0310125 0.
0.525975 0.0310129 0.
0.527975 0.0310133 0.
0.529976 0.0310129 0.
0.531978 0.0310125 0.
0.533978 0.0310124 0.
0.535979 0.0310127 0.
0.53798 0.031013 0.
0.539981 0.0310132 0.
0.541981 0.0310135 0.
0.543982 0.0310137 0.
0.545982 0.0310139 0.
0.547983 0.031014 0.
0.549983 0.0310141 0.
0.551984 0.0310149 0.
0.553984 0.0310156 0.
0.555985 0.0310161 0.
0.557986 0.0310153 0.
0.559987 0.0310146 0.
0.561988 0.0310143 0.
0.563988 0.0310148 0.
0.565988 0.0310153 0.
0.567989 0.0310151 0.
0.56999 0.0310147 0.
0.571992 0.0310142 0.
0.573992 0.0310148 0.
0.575991 0.0310155 0.
0.577991 0.031016 0.
0.579992 0.0310156 0.
0.581993 0.0310151 0.
0.583994 0.0310146 0.
0.585995 0.0310144 0.
0.587996 0.0310142 0.
0.589997 0.0310139 0.
0.591997 0.0310137 0.
0.593997 0.0310135 0.
0.595998 0.0310134 0.
0.597999 0.0310132 0.
0.6 0.0310129 0.
0.602002 0.0310132 0.
0.604003 0.0310134 0.
0.606004 0.0310135 0.
0.608005 0.0310132 0.
0.610006 0.0310129 0.
0.612007 0.0310131 0.
0.614007 0.0310137 0.
0.616008 0.0310143 0.
0.618008 0.0310148 0.
0.620009 0.0310151 0.
0.622009 0.0310155 0.
0.624009 0.0310159 0.
0.62601 0.0310164 0.
0.628011 0.0310167 0.
0.630012 0.0310163 0.
0.632012 0.0310159 0.
0.634013 0.0310158 0.
0.636014 0.031016 0.
0.638015 0.0310162 0.
0.640016 0.0310159 0.
0.642016 0.0310152 0.
0.644017 0.0310145 0.
0.646017 0.0310149 0.
0.648018 0.0310155 0.
0.650018 0.0310162 0.
0.65202 0.031016 0.
0.654021 0.0310159 0.
0.656022 0.0310155 0.
0.658022 0.0310146 0.
0.660023 0.0310136 0.
0.662023 0.0310131 0.
0.664024 0.0310131 0.
0.666025 0.0310132 0.
0.668025 0.0310125 0.
0.670026 0.0310116 0.
0.672028 0.0310106 0.
0.674029 0.0310106 0.
0.67603 0.0310107 0.
0.678031 0.0310107 0.
0.680032 0.0310103 0.
0.682032 0.0310099 0.
0.684033 0.0310097 0.
0.686034 0.0310099 0.
0.688035 0.0310101 0.
0.690035 0.0310106 0.
0.692036 0.0310114 0.
0.694037 0.0310122 0.
0.696037 0.0310132 0.
0.698038 0.0310142 0.
0.499967 0.0330144 0.
0.501967 0.0330137 0.
0.503968 0.0330128 0.
0.505968 0.0330121 0.
0.507969 0.0330119 0.
0.509969 0.0330117 0.
0.51197 0.0330115 0.
0.51397 0.0330114 0.
0.515971 0.0330113 0.
0.517972 0.0330114 0.
0.519973 0.0330116 0.
0.521974 0.0330119 0.
0.523974 0.0330123 0.
0.525975 0.0330127 0.
0.527976 0.033013 0.
0.529977 0.0330125 0.
0.531978 0.0330121 0.
0.533979 0.0330119 0.
0.53598 0.0330123 0.
0.53798 0.0330127 0.
0.539981 0.0330131 0.
0.541982 0.0330134 0.
0.543982 0.0330138 0.
0.545983 0.0330142 0.
0.547983 0.0330146 0.
0.549983 0.033015 0.
0.551984 0.0330152 0.
0.553985 0.0330153 0.
0.555986 0.0330153 0.
0.557987 0.033015 0.
0.559988 0.0330147 0.
0.561989 0.0330146 0.
0.563989 0.0330149 0.
0.56599 0.0330151 0.
0.56799 0.0330147 0.
0.569991 0.0330141 0.
0.571992 0.0330135 0.
0.573992 0.0330143 0.
0.575991 0.0330152 0.
0.577991 0.033016 0.
0.579992 0.0330158 0.
0.581994 0.0330156 0.
0.583995 0.0330153 0.
0.585995 0.0330147 0.
0.587996 0.0330141 0.
0.589997 0.0330138 0.
0.591997 0.0330137 0.
0.593998 0.0330136 0.
0.595999 0.0330135 0.
0.598 0.0330134 0.
0.6 0.0330134 0.
0.602002 0.0330135 0.
0.604003 0.0330137 0.
0.606005 0.0330137 0.
0.608005 0.0330132 0.
0.610006 0.0330127 0.
0.612006 0.0330129 0.
0.614007 0.0330139 0.
0.616008 0.0330148 0.
0.618008 0.0330152 0.
0.620008 0.0330152 0.
0.622008 0.0330152 0.
0.624009 0.0330156 0.
0.62601 0.033016 0.
0.628011 0.0330163 0.
0.630011 0.0330161 0.
0.632012 0.0330158 0.
0.634013 0.0330157 0.
0.636014 0.0330157 0.
0.638015 0.0330158 0.
0.640016 0.0330156 0.
0.642016 0.0330153 0.
0.644017 0.033015 0.
0.646017 0.033015 0.
0.648018 0.0330151 0.
0.650018 0.0330152 0.
0.652019 0.0330152 0.
0.65402 0.0330152 0.
0.656021 0.033015 0.
0.658022 0.0330143 0.
0.660023 0.0330136 0.
0.662023 0.0330132 0.
0.664024 0.033013 0.
0.666025 0.0330129 0.
0.668025 0.0330122 0.
0.670026 0.0330113 0.
0.672027 0.0330104 0.
0.674028 0.0330105 0.
0.676028 0.0330108 0.
0.678029 0.0330109 0.
0.68003 0.0330105 0.
0.682031 0.03301 0.
0.684032 0.0330099 0.
0.686033 0.0330102 0.
0.688034 0.0330105 0.
0.690034 0.033011 0.
0.692035 0.0330118 0.
0.694035 0.0330125 0.
0.696036 0.0330136 0.
0.698037 0.0330149 0.
0.499969 0.0350147 0.
0.501969 0.035014 0.
0.503969 0.0350132 0.
0.505969 0.0350124 0.
0.50797 0.0350118 0.
0.509971 0.0350113 0.
0.511971 0.035011 0.
0.513971 0.035011 0.
0.515972 0.0350111 0.
0.517972 0.0350113 0.
0.519973 0.0350115 0.
0.521974 0.0350117 0.
0.523975 0.0350121 0.
0.525976 0.0350125 0.
0.527977 0.0350127 0.
0.529978 0.0350122 0.
0.531979 0.0350116 0.
0.53398 0.0350114 0.
0.53598 0.0350119 0.
0.537981 0.0350124 0.
0.539981 0.0350129 0.
0.541982 0.0350134 0.
0.543982 0.0350139 0.
0.545983 0.0350146 0.
0.547983 0.0350153 0.
0.549983 0.035016 0.
0.551984 0.0350155 0.
0.553985 0.0350149 0.
0.555986 0.0350145 0.
0.557988 0.0350147 0.
0.559989 0.0350148 0.
0.56199 0.035015 0.
0.56399 0.0350149 0.
0.565991 0.0350149 0.
0.567991 0.0350144 0.
0.569991 0.0350136 0.
0.571991 0.0350129 0.
0.573991 0.0350138 0.
0.575992 0.035015 0.
0.577992 0.035016 0.
0.579993 0.0350161 0.
0.581994 0.0350162 0.
0.583995 0.0350159 0.
0.585996 0.035015 0.
0.587997 0.0350141 0.
0.589997 0.0350137 0.
0.591998 0.0350137 0.
0.593998 0.0350136 0.
0.595999 0.0350137 0.
0.598 0.0350137 0.
0.6 0.0350138 0.
0.602002 0.0350139 0.
0.604004 0.035014 0.
0.606005 0.035014 0.
0.608005 0.0350132 0.
0.610005 0.0350125 0.
0.612006 0.0350127 0.
0.614007 0.035014 0.
0.616008 0.0350153 0.
0.618008 0.0350155 0.
0.620008 0.0350152 0.
0.622008 0.0350149 0.
0.624009 0.0350152 0.
0.626009 0.0350156 0.
0.62801 0.0350159 0.
0.630011 0.0350158 0.
0.632012 0.0350157 0.
0.634012 0.0350156 0.
0.636014 0.0350155 0.
0.638015 0.0350154 0.
0.640015 0.0350154 0.
0.642016 0.0350154 0.
0.644017 0.0350155 0.
0.646017 0.0350151 0.
0.648018 0.0350147 0.
0.650018 0.0350142 0.
0.652019 0.0350144 0.
0.65402 0.0350145 0.
0.65602 0.0350145 0.
0.658021 0.0350141 0.
0.660022 0.0350136 0.
0.662023 0.0350132 0.
0.664024 0.0350129 0.
0.666025 0.0350126 0.
0.668025 0.0350119 0.
0.670026 0.035011 0.
0.672026 0.0350102 0.
0.674026 0.0350105 0.
0.676027 0.0350108 0.
0.678028 0.0350111 0.
0.680029 0.0350106 0.
0.68203 0.0350101 0.
0.684031 0.03501 0.
0.686032 0.0350104 0.
0.688033 0.0350108 0.
0.690033 0.0350114 0.
0.692034 0.0350121 0.
0.694034 0.0350128 0.
0.696035 0.0350141 0.
0.698035 0.0350155 0.
0.499969 0.0370147 0.
0.501969 0.0370142 0.
0.50397 0.0370135 0.
0.50597 0.0370128 0.
0.507971 0.0370121 0.
0.509971 0.0370114 0.
0.511972 0.0370111 0.
0.513973 0.0370112 0.
0.515973 0.0370114 0.
0.517974 0.0370115 0.
0.519975 0.0370114 0.
0.521975 0.0370114 0.
0.523976 0.0370119 0.
0.525977 0.0370124 0.
0.527978 0.0370127 0.
0.529979 0.0370122 0.
0.531979 0.0370116 0.
0.53398 0.0370114 0.
0.53598 0.0370116 0.
0.537981 0.0370118 0.
0.539981 0.0370123 0.
0.541982 0.0370131 0.
0.543983 0.0370138 0.
0.545984 0.0370146 0.
0.547984 0.0370154 0.
0.549985 0.0370163 0.
0.551986 0.0370156 0.
0.553986 0.0370149 0.
0.555987 0.0370143 0.
0.557988 0.0370141 0.
0.559989 0.037014 0.
0.56199 0.037014 0.
0.563991 0.037014 0.
0.565991 0.0370141 0.
0.567992 0.0370138 0.
0.569992 0.0370135 0.
0.571992 0.0370131 0.
0.573992 0.0370139 0.
0.575993 0.0370149 0.
0.577993 0.0370157 0.
0.579994 0.0370156 0.
0.581995 0.0370156 0.
0.583996 0.0370153 0.
0.585997 0.0370148 0.
0.587997 0.0370142 0.
0.589998 0.0370139 0.
0.591998 0.0370139 0.
0.593999 0.0370138 0.
0.595999 0.0370138 0.
0.598 0.0370138 0.
0.600001 0.0370138 0.
0.602002 0.0370137 0.
0.604004 0.0370136 0.
0.606005 0.0370135 0.
0.608005 0.0370133 0.
0.610005 0.037013 0.
0.612006 0.0370133 0.
0.614006 0.0370142 0.
0.616007 0.0370152 0.
0.618008 0.0370154 0.
0.620008 0.0370154 0.
0.622008 0.0370154 0.
0.624009 0.0370155 0.
0.626009 0.0370155 0.
0.62801 0.0370156 0.
0.630011 0.0370153 0.
0.632011 0.0370151 0.
0.634012 0.037015 0.
0.636013 0.037015 0.
0.638013 0.0370151 0.
0.640014 0.0370152 0.
0.642015 0.0370153 0.
0.644016 0.0370155 0.
0.646017 0.0370151 0.
0.648018 0.0370146 0.
0.650018 0.0370141 0.
0.652019 0.0370143 0.
0.654019 0.0370144 0.
0.65602 0.0370144 0.
0.65802 0.0370138 0.
0.660021 0.0370132 0.
0.662022 0.0370128 0.
0.664023 0.0370125 0.
0.666024 0.0370122 0.
0.668024 0.0370117 0.
0.670025 0.0370112 0.
0.672025 0.0370106 0.
0.674026 0.0370107 0.
0.676026 0.0370109 0.
0.678027 0.037011 0.
0.680028 0.0370106 0.
0.682029 0.0370102 0.
0.68403 0.03701 0.
0.68603 0.0370105 0.
0.688031 0.037011 0.
0.690032 0.0370116 0.
0.692032 0.0370123 0.
0.694033 0.037013 0.
0.696034 0.0370142 0.
0.698034 0.0370155 0.
0.49997 0.0390147 0.
0.50197 0.0390144 0.
0.50397 0.0390138 0.
0.50597 0.0390132 0.
0.507971 0.0390124 0.
0.509972 0.0390116 0.
0.511973 0.0390112 0.
0.513974 0.0390115 0.
0.515974 0.0390117 0.
0.517975 0.0390117 0.
0.519976 0.0390114 0.
0.521977 0.0390111 0.
0.523977 0.0390116 0.
0.525978 0.0390122 0.
0.527979 0.0390127 0.
0.529979 0.0390122 0.
0.53198 0.0390117 0.
0.53398 0.0390113 0.
0.535981 0.0390113 0.
0.537981 0.0390113 0.
0.539981 0.0390118 0.
0.541982 0.0390127 0.
0.543983 0.0390136 0.
0.545984 0.0390146 0.
0.547985 0.0390156 0.
0.549986 0.0390166 0.
0.551987 0.0390157 0.
0.553987 0.0390148 0.
0.555988 0.039014 0.
0.557989 0.0390136 0.
0.559989 0.0390132 0.
0.56199 0.039013 0.
0.563991 0.0390131 0.
0.565992 0.0390132 0.
0.567993 0.0390133 0.
0.569993 0.0390133 0.
0.571993 0.0390134 0.
0.573993 0.039014 0.
0.575994 0.0390148 0.
0.577994 0.0390154 0.
0.579995 0.0390152 0.
0.581996 0.0390149 0.
0.583997 0.0390147 0.
0.585997 0.0390145 0.
0.587998 0.0390143 0.
0.589999 0.0390142 0.
0.591999 0.0390141 0.
0.593999 0.039014 0.
0.596 0.0390139 0.
0.598001 0.0390139 0.
0.600001 0.0390138 0.
0.602003 0.0390135 0.
0.604004 0.0390132 0.
0.606004 0.039013 0.
0.608005 0.0390133 0.
0.610005 0.0390136 0.
0.612005 0.0390139 0.
0.614006 0.0390144 0.
0.616007 0.039015 0.
0.618007 0.0390153 0.
0.620008 0.0390156 0.
0.622009 0.0390159 0.
0.624009 0.0390157 0.
0.626009 0.0390155 0.
0.62801 0.0390152 0.
0.63001 0.0390149 0.
0.632011 0.0390145 0.
0.634011 0.0390144 0.
0.636012 0.0390146 0.
0.638012 0.0390148 0.
0.640013 0.039015 0.
0.642015 0.0390152 0.
0.644016 0.0390155 0.
0.646017 0.0390151 0.
0.648018 0.0390146 0.
0.650019 0.0390141 0.
0.652019 0.0390142 0.
0.654019 0.0390144 0.
0.656019 0.0390143 0.
0.658019 0.0390136 0.
0.66002 0.0390128 0.
0.66202 0.0390123 0.
0.664021 0.0390121 0.
0.666023 0.0390119 0.
0.668023 0.0390116 0.
0.670024 0.0390113 0.
0.672025 0.039011 0.
0.674025 0.0390109 0.
0.676026 0.0390109 0.
0.678026 0.0390109 0.
0.680027 0.0390105 0.
0.682028 0.0390102 0.
0.684029 0.0390101 0.
0.686029 0.0390107 0.
0.688029 0.0390112 0.
0.69003 0.0390118 0.
0.692031 0.0390125 0.
0.694032 0.0390132 0.
0.696033 0.0390143 0.
0.698034 0.0390155 0.
0.499971 0.041015 0.
0.501971 0.0410147 0.
0.503971 0.0410141 0.
0.505972 0.0410134 0.
0.507973 0.0410125 0.
0.509974 0.0410116 0.
0.511974 0.0410111 0.
0.513975 0.0410113 0.
0.515976 0.0410116 0.
0.517976 0.0410115 0.
0.519977 0.0410113 0.
0.521978 0.0410111 0.
0.523978 0.0410115 0.
0.525979 0.041012 0.
0.52798 0.0410124 0.
0.52998 0.0410122 0.
0.531981 0.0410119 0.
0.533981 0.0410116 0.
0.535981 0.0410114 0.
0.537982 0.0410111 0.
0.539982 0.0410116 0.
0.541983 0.0410126 0.
0.543984 0.0410136 0.
0.545985 0.0410146 0.
0.547986 0.0410155 0.
0.549986 0.0410163 0.
0.551987 0.0410155 0.
0.553988 0.0410147 0.
0.555988 0.0410139 0.
0.557989 0.0410134 0.
0.559989 0.0410128 0.
0.56199 0.0410125 0.
0.563991 0.0410125 0.
0.565992 0.0410125 0.
0.567993 0.0410127 0.
0.569993 0.041013 0.
0.571993 0.0410133 0.
0.573994 0.041014 0.
0.575995 0.0410147 0.
0.577995 0.0410152 0.
0.579996 0.0410149 0.
0.581996 0.0410146 0.
0.583997 0.0410144 0.
0.585997 0.0410144 0.
0.587998 0.0410143 0.
0.589999 0.0410143 0.
0.591999 0.0410141 0.
0.594 0.041014 0.
0.596 0.0410139 0.
0.598001 0.0410138 0.
0.600001 0.0410137 0.
0.602002 0.0410135 0.
0.604003 0.0410134 0.
0.606004 0.0410133 0.
0.608004 0.0410136 0.
0.610005 0.0410139 0.
0.612005 0.0410142 0.
0.614006 0.0410145 0.
0.616006 0.0410148 0.
0.618007 0.0410152 0.
0.620008 0.0410157 0.
0.622009 0.0410162 0.
0.624009 0.0410158 0.
0.626009 0.0410154 0.
0.628009 0.041015 0.
0.63001 0.0410148 0.
0.632011 0.0410146 0.
0.634011 0.0410145 0.
0.636011 0.0410144 0.
0.638012 0.0410144 0.
0.640013 0.0410145 0.
0.642014 0.0410148 0.
0.644015 0.041015 0.
0.646016 0.0410148 0.
0.648017 0.0410144 0.
0.650018 0.041014 0.
0.652018 0.041014 0.
0.654018 0.041014 0.
0.656018 0.0410139 0.
0.658019 0.0410132 0.
0.660019 0.0410126 0.
0.66202 0.0410121 0.
0.664021 0.0410119 0.
0.666022 0.0410117 0.
0.668023 0.0410115 0.
0.670023 0.0410113 0.
0.672024 0.0410111 0.
0.674025 0.0410109 0.
0.676025 0.0410107 0.
0.678026 0.0410105 0.
0.680026 0.0410104 0.
0.682027 0.0410103 0.
0.684028 0.0410104 0.
0.686028 0.0410109 0.
0.688028 0.0410114 0.
0.690029 0.0410121 0.
0.69203 0.0410128 0.
0.69403 0.0410135 0.
0.696031 0.0410145 0.
0.698032 0.0410157 0.
0.499972 0.0430157 0.
0.501973 0.0430149 0.
0.503973 0.0430142 0.
0.505974 0.0430134 0.
0.507975 0.0430124 0.
0.509975 0.0430114 0.
0.511976 0.0430108 0.
0.513976 0.0430109 0.
0.515977 0.043011 0.
0.517977 0.0430111 0.
0.519978 0.0430112 0.
0.521979 0.0430114 0.
0.523979 0.0430116 0.
0.52598 0.0430117 0.
0.527981 0.0430119 0.
0.529981 0.0430121 0.
0.531982 0.0430123 0.
0.533982 0.0430123 0.
0.535982 0.0430118 0.
0.537983 0.0430114 0.
0.539983 0.0430118 0.
0.541984 0.0430128 0.
0.543985 0.0430139 0.
0.545985 0.0430146 0.
0.547985 0.0430151 0.
0.549986 0.0430156 0.
0.551987 0.043015 0.
0.553988 0.0430145 0.
0.555989 0.043014 0.
0.557989 0.0430135 0.
0.55999 0.043013 0.
0.56199 0.0430126 0.
0.563991 0.0430122 0.
0.565992 0.0430118 0.
0.567993 0.043012 0.
0.569993 0.0430125 0.
0.571993 0.0430129 0.
0.573994 0.0430137 0.
0.575995 0.0430145 0.
0.577996 0.0430152 0.
0.579996 0.0430149 0.
0.581996 0.0430146 0.
0.583996 0.0430143 0.
0.585997 0.0430143 0.
0.587998 0.0430143 0.
0.589999 0.0430142 0.
0.591999 0.0430141 0.
0.594 0.043014 0.
0.596 0.0430138 0.
0.598001 0.0430137 0.
0.600001 0.0430135 0.
0.602002 0.0430138 0.
0.604003 0.043014 0.
0.606004 0.0430143 0.
0.608004 0.0430142 0.
0.610005 0.0430142 0.
0.612005 0.0430142 0.
0.614006 0.0430144 0.
0.616006 0.0430146 0.
0.618007 0.043015 0.
0.620008 0.0430157 0.
0.622008 0.0430163 0.
0.624009 0.0430158 0.
0.626009 0.0430152 0.
0.628009 0.0430148 0.
0.63001 0.043015 0.
0.63201 0.0430153 0.
0.634011 0.0430152 0.
0.636011 0.0430146 0.
0.638012 0.0430139 0.
0.640013 0.0430138 0.
0.642014 0.043014 0.
0.644014 0.0430143 0.
0.646015 0.0430142 0.
0.648016 0.0430141 0.
0.650017 0.043014 0.
0.652018 0.0430137 0.
0.654018 0.0430134 0.
0.656018 0.0430131 0.
0.658019 0.0430128 0.
0.66002 0.0430124 0.
0.66202 0.0430121 0.
0.664021 0.0430118 0.
0.666022 0.0430115 0.
0.668022 0.0430113 0.
0.670023 0.0430111 0.
0.672024 0.043011 0.
0.674024 0.0430107 0.
0.676024 0.0430103 0.
0.678025 0.0430101 0.
0.680025 0.0430103 0.
0.682026 0.0430105 0.
0.684027 0.0430108 0.
0.686027 0.0430112 0.
0.688028 0.0430116 0.
0.690028 0.0430122 0.
0.692029 0.043013 0.
0.694029 0.0430139 0.
0.69603 0.043015 0.
0.698031 0.0430162 0.
0.499974 0.0450164 0.
0.501974 0.0450152 0.
0.503975 0.0450143 0.
0.505976 0.0450134 0.
0.507976 0.0450123 0.
0.509977 0.0450112 0.
0.511977 0.0450105 0.
0.513978 0.0450104 0.
0.515978 0.0450103 0.
0.517978 0.0450106 0.
0.519979 0.0450112 0.
0.52198 0.0450117 0.
0.52398 0.0450116 0.
0.525981 0.0450114 0.
0.527982 0.0450113 0.
0.529982 0.045012 0.
0.531983 0.0450127 0.
0.533983 0.045013 0.
0.535984 0.0450123 0.
0.537984 0.0450116 0.
0.539984 0.0450119 0.
0.541985 0.045013 0.
0.543985 0.0450142 0.
0.545985 0.0450145 0.
0.547985 0.0450147 0.
0.549985 0.0450148 0.
0.551986 0.0450145 0.
0.553988 0.0450143 0.
0.555989 0.045014 0.
0.557989 0.0450136 0.
0.55999 0.0450132 0.
0.561991 0.0450127 0.
0.563991 0.0450119 0.
0.565992 0.0450111 0.
0.567992 0.0450113 0.
0.569993 0.0450119 0.
0.571994 0.0450126 0.
0.573995 0.0450134 0.
0.575996 0.0450144 0.
0.577997 0.0450151 0.
0.579997 0.0450148 0.
0.581996 0.0450145 0.
0.583996 0.0450143 0.
0.585997 0.0450142 0.
0.587998 0.0450142 0.
0.589999 0.0450141 0.
0.592 0.045014 0.
0.594 0.0450139 0.
0.596 0.0450137 0.
0.598 0.0450135 0.
0.6 0.0450133 0.
0.602001 0.045014 0.
0.604002 0.0450147 0.
0.606003 0.0450152 0.
0.608004 0.0450148 0.
0.610005 0.0450144 0.
0.612005 0.0450142 0.
0.614006 0.0450143 0.
0.616006 0.0450144 0.
0.618007 0.0450149 0.
0.620007 0.0450156 0.
0.622008 0.0450164 0.
0.624008 0.0450158 0.
0.626009 0.0450151 0.
0.628009 0.0450146 0.
0.630009 0.0450153 0.
0.63201 0.0450159 0.
0.63401 0.0450159 0.
0.636011 0.0450147 0.
0.638012 0.0450135 0.
0.640013 0.0450131 0.
0.642013 0.0450133 0.
0.644013 0.0450135 0.
0.646014 0.0450136 0.
0.648015 0.0450138 0.
0.650016 0.0450139 0.
0.652017 0.0450134 0.
0.654017 0.0450128 0.
0.656018 0.0450124 0.
0.658019 0.0450123 0.
0.66002 0.0450123 0.
0.662021 0.0450121 0.
0.664021 0.0450118 0.
0.666021 0.0450114 0.
0.668022 0.0450112 0.
0.670022 0.045011 0.
0.672023 0.0450108 0.
0.674023 0.0450104 0.
0.676024 0.0450099 0.
0.678024 0.0450096 0.
0.680024 0.0450101 0.
0.682025 0.0450107 0.
0.684026 0.0450112 0.
0.686026 0.0450115 0.
0.688027 0.0450118 0.
0.690027 0.0450124 0.
0.692028 0.0450133 0.
0.694028 0.0450142 0.
0.696029 0.0450154 0.
0.698029 0.0450166 0.
0.499974 0.0470158 0.
0.501975 0.0470149 0.
0.503976 0.0470141 0.
0.505977 0.0470133 0.
0.507977 0.0470124 0.
0.509978 0.0470116 0.
0.511978 0.0470109 0.
0.513979 0.0470106 0.
0.515979 0.0470103 0.
0.517979 0.0470104 0.
0.51998 0.0470107 0.
0.521981 0.0470111 0.
0.523981 0.0470112 0.
0.525982 0.0470113 0.
0.527982 0.0470115 0.
0.529983 0.047012 0.
0.531983 0.0470125 0.
0.533983 0.0470127 0.
0.535984 0.0470122 0.
0.537984 0.0470117 0.
0.539984 0.047012 0.
0.541985 0.0470129 0.
0.543985 0.0470138 0.
0.545986 0.0470142 0.
0.547986 0.0470145 0.
0.549986 0.0470147 0.
0.551987 0.0470143 0.
0.553989 0.0470139 0.
0.55599 0.0470135 0.
0.55799 0.0470134 0.
0.55999 0.0470132 0.
0.561991 0.0470128 0.
0.563991 0.047012 0.
0.565992 0.0470111 0.
0.567993 0.0470111 0.
0.569993 0.0470115 0.
0.571994 0.0470119 0.
0.573995 0.0470128 0.
0.575996 0.0470138 0.
0.577996 0.0470147 0.
0.579996 0.0470146 0.
0.581997 0.0470145 0.
0.583997 0.0470143 0.
0.585998 0.0470139 0.
0.587998 0.0470136 0.
0.589999 0.0470134 0.
0.591999 0.0470135 0.
0.594 0.0470136 0.
0.596 0.0470135 0.
0.598 0.0470135 0.
0.6 0.0470134 0.
0.602002 0.0470137 0.
0.604003 0.0470141 0.
0.606004 0.0470143 0.
0.608004 0.0470142 0.
0.610005 0.0470141 0.
0.612006 0.0470141 0.
0.614006 0.0470143 0.
0.616006 0.0470144 0.
0.618007 0.0470148 0.
0.620007 0.0470154 0.
0.622008 0.0470159 0.
0.624008 0.0470155 0.
0.626009 0.047015 0.
0.628009 0.0470145 0.
0.630009 0.0470147 0.
0.63201 0.0470149 0.
0.63401 0.0470147 0.
0.636011 0.0470137 0.
0.638012 0.0470128 0.
0.640012 0.0470127 0.
0.642013 0.0470132 0.
0.644013 0.0470138 0.
0.646014 0.0470138 0.
0.648015 0.0470137 0.
0.650016 0.0470136 0.
0.652017 0.0470134 0.
0.654017 0.0470132 0.
0.656017 0.047013 0.
0.658018 0.0470128 0.
0.660019 0.0470126 0.
0.66202 0.0470123 0.
0.66402 0.047012 0.
0.66602 0.0470117 0.
0.668021 0.0470115 0.
0.670021 0.0470112 0.
0.672022 0.0470109 0.
0.674022 0.0470104 0.
0.676023 0.0470098 0.
0.678023 0.0470094 0.
0.680023 0.0470101 0.
0.682024 0.0470107 0.
0.684025 0.0470113 0.
0.686025 0.0470116 0.
0.688026 0.0470119 0.
0.690026 0.0470126 0.
0.692026 0.0470136 0.
0.694027 0.0470146 0.
0.696027 0.0470158 0.
0.698027 0.047017 0.
0.499975 0.0490154 0.
0.501976 0.0490146 0.
0.503977 0.0490139 0.
0.505978 0.0490133 0.
0.507979 0.0490126 0.
0.509979 0.049012 0.
0.51198 0.0490113 0.
0.51398 0.0490108 0.
0.51598 0.0490103 0.
0.51798 0.0490102 0.
0.519981 0.0490103 0.
0.521982 0.0490105 0.
0.523982 0.0490108 0.
0.525982 0.0490112 0.
0.527983 0.0490116 0.
0.529983 0.049012 0.
0.531983 0.0490123 0.
0.533983 0.0490125 0.
0.535984 0.0490121 0.
0.537984 0.0490118 0.
0.539984 0.049012 0.
0.541985 0.0490128 0.
0.543986 0.0490135 0.
0.545986 0.0490139 0.
0.547986 0.0490142 0.
0.549987 0.0490146 0.
0.551988 0.049014 0.
0.55399 0.0490135 0.
0.555991 0.0490131 0.
0.557991 0.0490131 0.
0.559991 0.0490132 0.
0.561991 0.0490129 0.
0.563992 0.049012 0.
0.565992 0.0490111 0.
0.567993 0.049011 0.
0.569994 0.0490111 0.
0.571995 0.0490112 0.
0.573995 0.0490122 0.
0.575995 0.0490133 0.
0.577995 0.0490143 0.
0.579996 0.0490144 0.
0.581997 0.0490145 0.
0.583998 0.0490144 0.
0.585998 0.0490137 0.
0.587998 0.049013 0.
0.589999 0.0490128 0.
0.591999 0.049013 0.
0.593999 0.0490132 0.
0.596 0.0490133 0.
0.598 0.0490134 0.
0.6 0.0490135 0.
0.602002 0.0490134 0.
0.604003 0.0490134 0.
0.606004 0.0490134 0.
0.608005 0.0490136 0.
0.610006 0.0490138 0.
0.612006 0.049014 0.
0.614006 0.0490142 0.
0.616006 0.0490144 0.
0.618007 0.0490148 0.
0.620008 0.0490151 0.
0.622008 0.0490155 0.
0.624008 0.0490152 0.
0.626009 0.0490148 0.
0.628009 0.0490144 0.
0.630009 0.0490142 0.
0.63201 0.049014 0.
0.63401 0.0490136 0.
0.636011 0.0490128 0.
0.638011 0.0490121 0.
0.640012 0.0490123 0.
0.642012 0.0490132 0.
0.644012 0.0490141 0.
0.646014 0.049014 0.
0.648015 0.0490137 0.
0.650017 0.0490133 0.
0.652017 0.0490135 0.
0.654017 0.0490136 0.
0.656017 0.0490136 0.
0.658017 0.0490132 0.
0.660018 0.0490128 0.
0.662018 0.0490125 0.
0.664019 0.0490123 0.
0.666019 0.0490121 0.
0.66802 0.0490118 0.
0.67002 0.0490114 0.
0.672021 0.049011 0.
0.674021 0.0490104 0.
0.676022 0.0490097 0.
0.678022 0.0490093 0.
0.680022 0.04901 0.
0.682023 0.0490108 0.
0.684023 0.0490113 0.
0.686024 0.0490117 0.
0.688024 0.049012 0.
0.690025 0.0490127 0.
0.692025 0.0490139 0.
0.694025 0.0490151 0.
0.696026 0.0490162 0.
0.698026 0.0490174 0.
0.499976 0.051015 0.
0.501977 0.0510143 0.
0.503978 0.0510137 0.
0.505979 0.0510132 0.
0.507979 0.0510127 0.
0.50998 0.0510122 0.
0.51198 0.0510116 0.
0.51398 0.0510109 0.
0.51598 0.0510102 0.
0.517981 0.05101 0.
0.519982 0.0510101 0.
0.521983 0.0510102 0.
0.523983 0.0510107 0.
0.525983 0.0510112 0.
0.527983 0.0510117 0.
0.529983 0.051012 0.
0.531984 0.0510123 0.
0.533984 0.0510124 0.
0.535984 0.0510122 0.
0.537984 0.0510119 0.
0.539985 0.0510121 0.
0.541985 0.0510126 0.
0.543986 0.0510131 0.
0.545986 0.0510135 0.
0.547987 0.0510139 0.
0.549987 0.0510143 0.
0.551988 0.0510137 0.
0.55399 0.0510131 0.
0.555991 0.0510127 0.
0.557991 0.0510129 0.
0.559991 0.0510131 0.
0.561991 0.0510128 0.
0.563992 0.051012 0.
0.565992 0.0510111 0.
0.567993 0.0510108 0.
0.569994 0.0510108 0.
0.571995 0.0510108 0.
0.573995 0.0510118 0.
0.575995 0.0510129 0.
0.577995 0.0510139 0.
0.579996 0.0510141 0.
0.581997 0.0510143 0.
0.583998 0.0510143 0.
0.585998 0.0510136 0.
0.587999 0.0510129 0.
0.589999 0.0510127 0.
0.591999 0.0510129 0.
0.593999 0.0510131 0.
0.595999 0.0510132 0.
0.598 0.0510133 0.
0.6 0.0510134 0.
0.602002 0.0510131 0.
0.604003 0.0510129 0.
0.606004 0.0510127 0.
0.608005 0.0510131 0.
0.610005 0.0510134 0.
0.612006 0.0510137 0.
0.614006 0.051014 0.
0.616006 0.0510143 0.
0.618007 0.0510146 0.
0.620008 0.0510149 0.
0.622008 0.0510152 0.
0.624008 0.0510149 0.
0.626008 0.0510146 0.
0.628009 0.0510142 0.
0.630009 0.0510138 0.
0.63201 0.0510134 0.
0.63401 0.0510129 0.
0.636011 0.0510125 0.
0.638011 0.051012 0.
0.640011 0.0510122 0.
0.642012 0.0510131 0.
0.644012 0.0510139 0.
0.646013 0.0510139 0.
0.648015 0.0510136 0.
0.650016 0.0510134 0.
0.652016 0.0510135 0.
0.654016 0.0510136 0.
0.656016 0.0510136 0.
0.658016 0.0510132 0.
0.660017 0.0510129 0.
0.662017 0.0510126 0.
0.664018 0.0510124 0.
0.666018 0.0510123 0.
0.668019 0.051012 0.
0.670019 0.0510116 0.
0.67202 0.0510112 0.
0.67402 0.0510106 0.
0.676021 0.0510099 0.
0.678021 0.0510095 0.
0.680021 0.0510103 0.
0.682022 0.051011 0.
0.684022 0.0510117 0.
0.686023 0.051012 0.
0.688023 0.0510124 0.
0.690023 0.0510132 0.
0.692024 0.0510143 0.
0.694024 0.0510154 0.
0.696024 0.0510167 0.
0.698025 0.051018 0.
0.499978 0.0530144 0.
0.501978 0.053014 0.
0.503979 0.0530134 0.
0.505979 0.053013 0.
0.50798 0.0530126 0.
0.509981 0.0530123 0.
0.511981 0.0530117 0.
0.513981 0.0530109 0.
0.515981 0.0530101 0.
0.517982 0.05301 0.
0.519983 0.0530102 0.
0.521984 0.0530104 0.
0.523984 0.0530109 0.
0.525984 0.0530114 0.
0.527984 0.0530119 0.
0.529984 0.0530122 0.
0.531985 0.0530124 0.
0.533985 0.0530125 0.
0.535985 0.0530123 0.
0.537986 0.053012 0.
0.539986 0.0530121 0.
0.541986 0.0530123 0.
0.543986 0.0530126 0.
0.545986 0.053013 0.
0.547987 0.0530134 0.
0.549987 0.0530139 0.
0.551988 0.0530133 0.
0.553989 0.0530128 0.
0.55599 0.0530124 0.
0.557991 0.0530127 0.
0.559991 0.0530129 0.
0.561992 0.0530127 0.
0.563992 0.0530119 0.
0.565992 0.0530111 0.
0.567993 0.0530108 0.
0.569994 0.0530107 0.
0.571994 0.0530106 0.
0.573995 0.0530115 0.
0.575996 0.0530126 0.
0.577996 0.0530135 0.
0.579997 0.0530137 0.
0.581997 0.0530139 0.
0.583998 0.053014 0.
0.585999 0.0530136 0.
0.587999 0.0530133 0.
0.589999 0.0530132 0.
0.591999 0.0530131 0.
0.593999 0.0530131 0.
0.595999 0.0530131 0.
0.598 0.0530131 0.
0.6 0.0530131 0.
0.602001 0.0530128 0.
0.604002 0.0530125 0.
0.606003 0.0530124 0.
0.608004 0.0530127 0.
0.610004 0.053013 0.
0.612005 0.0530133 0.
0.614005 0.0530136 0.
0.616006 0.053014 0.
0.618007 0.0530143 0.
0.620007 0.0530146 0.
0.622008 0.053015 0.
0.624008 0.0530147 0.
0.626008 0.0530143 0.
0.628009 0.0530139 0.
0.630009 0.0530136 0.
0.63201 0.0530132 0.
0.63401 0.0530129 0.
0.636011 0.0530127 0.
0.638011 0.0530125 0.
0.640011 0.0530126 0.
0.642012 0.0530129 0.
0.644012 0.0530132 0.
0.646013 0.0530134 0.
0.648014 0.0530136 0.
0.650014 0.0530137 0.
0.652015 0.0530135 0.
0.654015 0.0530132 0.
0.656015 0.0530129 0.
0.658015 0.0530128 0.
0.660015 0.0530126 0.
0.662016 0.0530125 0.
0.664016 0.0530124 0.
0.666017 0.0530123 0.
0.668018 0.0530121 0.
0.670019 0.0530118 0.
0.67202 0.0530115 0.
0.67402 0.053011 0.
0.67602 0.0530104 0.
0.67802 0.05301 0.
0.68002 0.0530108 0.
0.68202 0.0530116 0.
0.684021 0.0530122 0.
0.686021 0.0530127 0.
0.688022 0.0530132 0.
0.690022 0.0530139 0.
0.692022 0.0530149 0.
0.694023 0.0530158 0.
0.696023 0.0530172 0.
0.698024 0.0530188 0.
0.499979 0.0550138 0.
0.501979 0.0550136 0.
0.503979 0.0550132 0.
0.50598 0.0550128 0.
0.507981 0.0550126 0.
0.509982 0.0550124 0.
0.511982 0.0550119 0.
0.513982 0.0550109 0.
0.515982 0.05501 0.
0.517983 0.0550099 0.
0.519984 0.0550102 0.
0.521985 0.0550105 0.
0.523984 0.055011 0.
0.525984 0.0550116 0.
0.527984 0.0550121 0.
0.529985 0.0550123 0.
0.531985 0.0550125 0.
0.533986 0.0550126 0.
0.535986 0.0550124 0.
0.537987 0.0550121 0.
0.539987 0.0550121 0.
0.541986 0.0550121 0.
0.543986 0.0550121 0.
0.545986 0.0550125 0.
0.547987 0.055013 0.
0.549987 0.0550134 0.
0.551988 0.0550129 0.
0.553989 0.0550125 0.
0.555989 0.0550122 0.
0.557991 0.0550125 0.
0.559992 0.0550128 0.
0.561992 0.0550126 0.
0.563992 0.0550118 0.
0.565992 0.0550111 0.
0.567993 0.0550107 0.
0.569994 0.0550105 0.
0.571994 0.0550104 0.
0.573995 0.0550113 0.
0.575996 0.0550122 0.
0.577997 0.0550132 0.
0.579997 0.0550133 0.
0.581997 0.0550135 0.
0.583998 0.0550137 0.
0.585999 0.0550137 0.
0.588 0.0550138 0.
0.59 0.0550137 0.
0.592 0.0550134 0.
0.594 0.0550131 0.
0.596 0.055013 0.
0.598 0.0550129 0.
0.6 0.0550128 0.
0.602001 0.0550125 0.
0.604001 0.0550122 0.
0.606002 0.055012 0.
0.608003 0.0550123 0.
0.610003 0.0550126 0.
0.612004 0.0550129 0.
0.614005 0.0550133 0.
0.616006 0.0550136 0.
0.618007 0.055014 0.
0.620007 0.0550144 0.
0.622008 0.0550147 0.
0.624008 0.0550144 0.
0.626008 0.0550141 0.
0.628009 0.0550137 0.
0.630009 0.0550133 0.
0.63201 0.055013 0.
0.63401 0.0550128 0.
0.63601 0.0550129 0.
0.638011 0.0550131 0.
0.640011 0.055013 0.
0.642012 0.0550127 0.
0.644012 0.0550125 0.
0.646013 0.0550129 0.
0.648013 0.0550135 0.
0.650013 0.0550141 0.
0.652013 0.0550134 0.
0.654014 0.0550127 0.
0.656014 0.0550122 0.
0.658014 0.0550123 0.
0.660014 0.0550123 0.
0.662015 0.0550124 0.
0.664015 0.0550123 0.
0.666016 0.0550123 0.
0.668017 0.0550122 0.
0.670018 0.055012 0.
0.672019 0.0550118 0.
0.674019 0.0550113 0.
0.676019 0.0550109 0.
0.678019 0.0550105 0.
0.680019 0.0550113 0.
0.682019 0.0550121 0.
0.684019 0.0550128 0.
0.68602 0.0550134 0.
0.68802 0.055014 0.
0.690021 0.0550147 0.
0.692021 0.0550154 0.
0.694021 0.0550162 0.
0.696022 0.0550177 0.
0.698023 0.0550195 0.
0.499979 0.0570145 0.
0.501979 0.057014 0.
0.50398 0.0570132 0.
0.50598 0.0570126 0.
0.507981 0.0570124 0.
0.509982 0.0570121 0.
0.511982 0.0570117 0.
0.513983 0.057011 0.
0.515983 0.0570103 0.
0.517983 0.0570102 0.
0.519984 0.0570105 0.
0.521984 0.0570108 0.
0.523984 0.0570111 0.
0.525984 0.0570114 0.
0.527985 0.0570117 0.
0.529985 0.0570119 0.
0.531986 0.0570121 0.
0.533986 0.0570121 0.
0.535986 0.0570119 0.
0.537987 0.0570117 0.
0.539987 0.0570118 0.
0.541986 0.0570121 0.
0.543986 0.0570125 0.
0.545987 0.0570127 0.
0.547987 0.0570128 0.
0.549988 0.0570129 0.
0.551989 0.0570127 0.
0.553989 0.0570125 0.
0.55599 0.0570124 0.
0.557991 0.0570124 0.
0.559992 0.0570124 0.
0.561993 0.0570122 0.
0.563993 0.0570118 0.
0.565994 0.0570114 0.
0.567994 0.057011 0.
0.569994 0.0570107 0.
0.571995 0.0570104 0.
0.573995 0.0570111 0.
0.575996 0.0570119 0.
0.577997 0.0570127 0.
0.579997 0.057013 0.
0.581997 0.0570133 0.
0.583998 0.0570135 0.
0.585998 0.0570137 0.
0.587998 0.0570138 0.
0.589999 0.0570136 0.
0.591999 0.057013 0.
0.594 0.0570125 0.
0.596 0.0570126 0.
0.598 0.0570128 0.
0.6 0.0570131 0.
0.602001 0.0570127 0.
0.604002 0.0570123 0.
0.606003 0.057012 0.
0.608003 0.0570123 0.
0.610003 0.0570125 0.
0.612004 0.0570127 0.
0.614005 0.057013 0.
0.616006 0.0570132 0.
0.618007 0.0570136 0.
0.620007 0.0570142 0.
0.622007 0.0570147 0.
0.624008 0.0570145 0.
0.626008 0.0570142 0.
0.628008 0.057014 0.
0.630008 0.0570137 0.
0.632009 0.0570134 0.
0.634009 0.0570132 0.
0.636009 0.0570131 0.
0.638009 0.057013 0.
0.64001 0.0570128 0.
0.64201 0.0570126 0.
0.644011 0.0570124 0.
0.646011 0.0570127 0.
0.648011 0.0570133 0.
0.650012 0.0570138 0.
0.652012 0.0570132 0.
0.654013 0.0570125 0.
0.656013 0.0570121 0.
0.658013 0.0570121 0.
0.660014 0.0570122 0.
0.662014 0.0570123 0.
0.664015 0.0570122 0.
0.666016 0.0570122 0.
0.668017 0.0570121 0.
0.670017 0.057012 0.
0.672018 0.057012 0.
0.674018 0.0570117 0.
0.676018 0.0570115 0.
0.678018 0.0570113 0.
0.680018 0.0570118 0.
0.682018 0.0570122 0.
0.684018 0.0570128 0.
0.686019 0.0570135 0.
0.688019 0.0570142 0.
0.690019 0.0570149 0.
0.69202 0.0570157 0.
0.69402 0.0570166 0.
0.696021 0.057018 0.
0.698021 0.0570195 0.
0.499979 0.0590152 0.
0.50198 0.0590143 0.
0.50398 0.0590133 0.
0.505981 0.0590124 0.
0.507982 0.0590121 0.
0.509982 0.0590118 0.
0.511983 0.0590115 0.
0.513983 0.059011 0.
0.515983 0.0590105 0.
0.517983 0.0590106 0.
0.519983 0.0590109 0.
0.521984 0.0590112 0.
0.523984 0.0590112 0.
0.525985 0.0590112 0.
0.527985 0.0590112 0.
0.529985 0.0590114 0.
0.531986 0.0590116 0.
0.533986 0.0590117 0.
0.535986 0.0590114 0.
0.537987 0.0590112 0.
0.539987 0.0590115 0.
0.541987 0.0590122 0.
0.543987 0.0590128 0.
0.545987 0.0590128 0.
0.547988 0.0590126 0.
0.549989 0.0590123 0.
0.551989 0.0590125 0.
0.55399 0.0590126 0.
0.55599 0.0590126 0.
0.557991 0.0590123 0.
0.559992 0.059012 0.
0.561993 0.0590118 0.
0.563994 0.0590117 0.
0.565995 0.0590117 0.
0.567995 0.0590113 0.
0.569995 0.0590109 0.
0.571995 0.0590104 0.
0.573996 0.0590109 0.
0.575997 0.0590116 0.
0.577997 0.0590122 0.
0.579997 0.0590126 0.
0.581997 0.0590131 0.
0.583997 0.0590134 0.
0.585997 0.0590136 0.
0.587997 0.0590139 0.
0.589998 0.0590135 0.
0.591999 0.0590127 0.
0.594 0.0590119 0.
0.596001 0.0590121 0.
0.598001 0.0590127 0.
0.600001 0.0590133 0.
0.602002 0.0590128 0.
0.604002 0.0590124 0.
0.606003 0.0590121 0.
0.608003 0.0590122 0.
0.610004 0.0590124 0.
0.612004 0.0590126 0.
0.614005 0.0590127 0.
0.616006 0.0590128 0.
0.618006 0.0590133 0.
0.620007 0.0590139 0.
0.622007 0.0590146 0.
0.624007 0.0590145 0.
0.626007 0.0590144 0.
0.628007 0.0590143 0.
0.630007 0.059014 0.
0.632008 0.0590138 0.
0.634008 0.0590135 0.
0.636008 0.0590132 0.
0.638008 0.0590129 0.
0.640008 0.0590126 0.
0.642009 0.0590124 0.
0.64401 0.0590122 0.
0.64601 0.0590125 0.
0.64801 0.059013 0.
0.65001 0.0590135 0.
0.652011 0.0590129 0.
0.654011 0.0590123 0.
0.656012 0.0590119 0.
0.658013 0.059012 0.
0.660013 0.0590122 0.
0.662014 0.0590122 0.
0.664015 0.0590121 0.
0.666016 0.059012 0.
0.668016 0.059012 0.
0.670016 0.0590121 0.
0.672016 0.0590122 0.
0.674016 0.0590121 0.
0.676016 0.0590121 0.
0.678016 0.059012 0.
0.680017 0.0590122 0.
0.682017 0.0590124 0.
0.684017 0.0590128 0.
0.686017 0.0590136 0.
0.688018 0.0590143 0.
0.690018 0.0590152 0.
0.692019 0.0590161 0.
0.694019 0.059017 0.
0.696019 0.0590182 0.
0.69802 0.0590196 0.
0.49998 0.0610153 0.
0.501981 0.0610145 0.
0.503981 0.0610136 0.
0.505982 0.0610127 0.
0.507982 0.0610122 0.
0.509983 0.0610117 0.
0.511983 0.0610112 0.
0.513983 0.0610108 0.
0.515983 0.0610105 0.
0.517984 0.0610105 0.
0.519984 0.0610108 0.
0.521984 0.0610112 0.
0.523985 0.0610112 0.
0.525985 0.0610111 0.
0.527986 0.0610111 0.
0.529986 0.0610113 0.
0.531986 0.0610115 0.
0.533987 0.0610115 0.
0.535987 0.0610113 0.
0.537987 0.061011 0.
0.539987 0.0610113 0.
0.541988 0.0610121 0.
0.543988 0.0610129 0.
0.545988 0.0610127 0.
0.547989 0.0610124 0.
0.54999 0.061012 0.
0.55199 0.0610123 0.
0.55399 0.0610126 0.
0.555991 0.0610127 0.
0.557991 0.0610122 0.
0.559992 0.0610116 0.
0.561993 0.0610114 0.
0.563994 0.0610115 0.
0.565995 0.0610117 0.
0.567995 0.0610115 0.
0.569995 0.061011 0.
0.571995 0.0610106 0.
0.573996 0.0610109 0.
0.575997 0.0610114 0.
0.577997 0.0610118 0.
0.579997 0.0610123 0.
0.581997 0.0610127 0.
0.583997 0.0610131 0.
0.585997 0.0610134 0.
0.587997 0.0610136 0.
0.589998 0.0610134 0.
0.591999 0.0610126 0.
0.594 0.0610118 0.
0.596 0.061012 0.
0.598001 0.0610125 0.
0.600001 0.0610129 0.
0.602002 0.0610126 0.
0.604003 0.0610124 0.
0.606003 0.0610121 0.
0.608004 0.0610121 0.
0.610004 0.0610121 0.
0.612004 0.0610121 0.
0.614005 0.0610123 0.
0.616006 0.0610124 0.
0.618006 0.0610129 0.
0.620006 0.0610136 0.
0.622007 0.0610143 0.
0.624007 0.0610143 0.
0.626007 0.0610142 0.
0.628007 0.0610141 0.
0.630007 0.061014 0.
0.632007 0.0610139 0.
0.634007 0.0610137 0.
0.636007 0.0610133 0.
0.638007 0.0610129 0.
0.640008 0.0610126 0.
0.642008 0.0610124 0.
0.644009 0.0610122 0.
0.646009 0.0610124 0.
0.648009 0.0610128 0.
0.650009 0.0610132 0.
0.65201 0.0610125 0.
0.65401 0.0610119 0.
0.656011 0.0610115 0.
0.658012 0.0610117 0.
0.660013 0.061012 0.
0.662013 0.0610121 0.
0.664014 0.061012 0.
0.666015 0.0610118 0.
0.668015 0.061012 0.
0.670015 0.0610122 0.
0.672015 0.0610124 0.
0.674015 0.0610125 0.
0.676015 0.0610126 0.
0.678016 0.0610127 0.
0.680016 0.0610127 0.
0.682016 0.0610127 0.
0.684016 0.0610129 0.
0.686016 0.0610136 0.
0.688017 0.0610144 0.
0.690017 0.0610152 0.
0.692017 0.0610162 0.
0.694018 0.0610172 0.
0.696018 0.0610184 0.
0.698019 0.0610197 0.
0.499981 0.063015 0.
0.501982 0.0630146 0.
0.503982 0.0630141 0.
0.505983 0.0630135 0.
0.507983 0.0630126 0.
0.509984 0.0630116 0.
0.511984 0.0630109 0.
0.513984 0.0630105 0.
0.515984 0.0630101 0.
0.517985 0.0630102 0.
0.519985 0.0630105 0.
0.521985 0.0630108 0.
0.523986 0.063011 0.
0.525986 0.0630112 0.
0.527987 0.0630114 0.
0.529987 0.0630115 0.
0.531987 0.0630116 0.
0.533988 0.0630116 0.
0.535988 0.0630113 0.
0.537989 0.063011 0.
0.539989 0.0630113 0.
0.541989 0.0630119 0.
0.543989 0.0630125 0.
0.54599 0.0630124 0.
0.54799 0.0630121 0.
0.54999 0.0630118 0.
0.55199 0.0630121 0.
0.553991 0.0630125 0.
0.555991 0.0630126 0.
0.557992 0.0630119 0.
0.559992 0.0630112 0.
0.561993 0.0630109 0.
0.563994 0.0630112 0.
0.565995 0.0630114 0.
0.567995 0.0630114 0.
0.569995 0.0630112 0.
0.571995 0.063011 0.
0.573996 0.0630111 0.
0.575996 0.0630112 0.
0.577997 0.0630114 0.
0.579997 0.0630119 0.
0.581997 0.0630123 0.
0.583997 0.0630127 0.
0.585998 0.0630129 0.
0.587998 0.0630132 0.
0.589998 0.0630131 0.
0.591999 0.0630127 0.
0.593999 0.0630123 0.
0.596 0.0630121 0.
0.598 0.063012 0.
0.600001 0.0630119 0.
0.602002 0.0630121 0.
0.604002 0.0630122 0.
0.606003 0.0630122 0.
0.608004 0.0630119 0.
0.610004 0.0630115 0.
0.612004 0.0630114 0.
0.614005 0.0630118 0.
0.616005 0.0630121 0.
0.618005 0.0630126 0.
0.620006 0.0630132 0.
0.622006 0.0630137 0.
0.624006 0.0630136 0.
0.626006 0.0630135 0.
0.628006 0.0630134 0.
0.630007 0.0630135 0.
0.632007 0.0630136 0.
0.634007 0.0630136 0.
0.636007 0.0630132 0.
0.638008 0.0630129 0.
0.640008 0.0630126 0.
0.642008 0.0630124 0.
0.644008 0.0630122 0.
0.646008 0.0630124 0.
0.648008 0.0630126 0.
0.650008 0.0630129 0.
0.652009 0.0630121 0.
0.65401 0.0630113 0.
0.656011 0.0630107 0.
0.658011 0.0630113 0.
0.660012 0.0630119 0.
0.662012 0.0630121 0.
0.664013 0.0630119 0.
0.666013 0.0630117 0.
0.668013 0.0630119 0.
0.670014 0.0630122 0.
0.672014 0.0630126 0.
0.674014 0.0630128 0.
0.676015 0.063013 0.
0.678015 0.0630132 0.
0.680015 0.0630131 0.
0.682015 0.0630131 0.
0.684015 0.0630132 0.
0.686015 0.0630137 0.
0.688016 0.0630142 0.
0.690016 0.063015 0.
0.692016 0.0630161 0.
0.694017 0.0630172 0.
0.696017 0.0630184 0.
0.698018 0.0630197 0.
0.499983 0.0650146 0.
0.501983 0.0650146 0.
0.503984 0.0650145 0.
0.505984 0.0650143 0.
0.507984 0.0650129 0.
0.509985 0.0650115 0.
0.511985 0.0650105 0.
0.513985 0.0650101 0.
0.515985 0.0650097 0.
0.517986 0.0650098 0.
0.519986 0.0650101 0.
0.521986 0.0650105 0.
0.523987 0.0650109 0.
0.525987 0.0650113 0.
0.527988 0.0650117 0.
0.529988 0.0650117 0.
0.531988 0.0650117 0.
0.533988 0.0650117 0.
0.535989 0.0650114 0.
0.53799 0.0650111 0.
0.539991 0.0650112 0.
0.541991 0.0650117 0.
0.543991 0.0650122 0.
0.545991 0.0650121 0.
0.547991 0.0650118 0.
0.549991 0.0650116 0.
0.551991 0.065012 0.
0.553991 0.0650124 0.
0.555991 0.0650125 0.
0.557992 0.0650117 0.
0.559992 0.0650108 0.
0.561993 0.0650105 0.
0.563994 0.0650109 0.
0.565994 0.0650112 0.
0.567995 0.0650114 0.
0.569995 0.0650114 0.
0.571995 0.0650115 0.
0.573996 0.0650113 0.
0.575996 0.0650111 0.
0.577996 0.065011 0.
0.579997 0.0650114 0.
0.581997 0.0650119 0.
0.583998 0.0650123 0.
0.585998 0.0650125 0.
0.587999 0.0650127 0.
0.589999 0.0650128 0.
0.591999 0.0650128 0.
0.593998 0.0650128 0.
0.595999 0.0650123 0.
0.598 0.0650116 0.
0.600001 0.0650109 0.
0.602002 0.0650115 0.
0.604002 0.065012 0.
0.606003 0.0650123 0.
0.608004 0.0650116 0.
0.610004 0.0650109 0.
0.612004 0.0650108 0.
0.614005 0.0650113 0.
0.616005 0.0650118 0.
0.618005 0.0650122 0.
0.620005 0.0650127 0.
0.622006 0.0650132 0.
0.624006 0.065013 0.
0.626006 0.0650128 0.
0.628006 0.0650127 0.
0.630006 0.065013 0.
0.632006 0.0650134 0.
0.634007 0.0650135 0.
0.636007 0.0650132 0.
0.638008 0.0650129 0.
0.640009 0.0650126 0.
0.642008 0.0650124 0.
0.644008 0.0650122 0.
0.646008 0.0650123 0.
0.648007 0.0650125 0.
0.650007 0.0650126 0.
0.652008 0.0650116 0.
0.654009 0.0650106 0.
0.65601 0.06501 0.
0.658011 0.0650109 0.
0.660011 0.0650118 0.
0.662011 0.0650121 0.
0.664011 0.0650118 0.
0.666011 0.0650115 0.
0.668011 0.0650118 0.
0.670012 0.0650123 0.
0.672012 0.0650128 0.
0.674013 0.0650131 0.
0.676014 0.0650135 0.
0.678014 0.0650138 0.
0.680014 0.0650136 0.
0.682014 0.0650134 0.
0.684014 0.0650134 0.
0.686014 0.0650137 0.
0.688015 0.065014 0.
0.690015 0.0650148 0.
0.692015 0.065016 0.
0.694016 0.0650172 0.
0.696016 0.0650185 0.
0.698016 0.0650198 0.
0.499983 0.0670149 0.
0.501984 0.0670145 0.
0.503984 0.0670143 0.
0.505984 0.0670138 0.
0.507985 0.0670125 0.
0.509985 0.0670112 0.
0.511986 0.0670103 0.
0.513986 0.06701 0.
0.515987 0.0670096 0.
0.517987 0.0670097 0.
0.519987 0.0670099 0.
0.521987 0.0670102 0.
0.523988 0.0670107 0.
0.525988 0.0670112 0.
0.527988 0.0670116 0.
0.529988 0.0670115 0.
0.531989 0.0670114 0.
0.533989 0.0670113 0.
0.535989 0.0670109 0.
0.53799 0.0670106 0.
0.53999 0.0670108 0.
0.541991 0.0670114 0.
0.543991 0.067012 0.
0.545991 0.0670121 0.
0.547991 0.0670121 0.
0.549991 0.067012 0.
0.551991 0.0670119 0.
0.553992 0.0670118 0.
0.555992 0.0670116 0.
0.557993 0.0670112 0.
0.559993 0.0670108 0.
0.561994 0.0670106 0.
0.563994 0.067011 0.
0.565995 0.0670113 0.
0.567995 0.0670112 0.
0.569995 0.067011 0.
0.571996 0.0670107 0.
0.573996 0.0670109 0.
0.575996 0.067011 0.
0.577997 0.0670112 0.
0.579997 0.0670114 0.
0.581997 0.0670116 0.
0.583998 0.0670119 0.
0.585998 0.0670123 0.
0.587999 0.0670127 0.
0.589999 0.0670128 0.
0.591999 0.0670127 0.
0.593999 0.0670125 0.
0.596 0.067012 0.
0.598 0.0670114 0.
0.600001 0.0670107 0.
0.602002 0.067011 0.
0.604002 0.0670112 0.
0.606003 0.0670114 0.
0.608004 0.0670112 0.
0.610004 0.067011 0.
0.612004 0.0670111 0.
0.614004 0.0670115 0.
0.616004 0.0670118 0.
0.618004 0.0670125 0.
0.620005 0.0670132 0.
0.622005 0.0670139 0.
0.624005 0.0670136 0.
0.626005 0.0670132 0.
0.628005 0.0670129 0.
0.630006 0.0670131 0.
0.632006 0.0670134 0.
0.634006 0.0670135 0.
0.636007 0.0670133 0.
0.638007 0.067013 0.
0.640008 0.0670128 0.
0.642008 0.0670125 0.
0.644008 0.0670123 0.
0.646007 0.0670123 0.
0.648007 0.0670123 0.
0.650007 0.0670123 0.
0.652007 0.0670115 0.
0.654008 0.0670107 0.
0.656009 0.0670102 0.
0.658009 0.0670109 0.
0.66001 0.0670116 0.
0.66201 0.0670119 0.
0.66401 0.067012 0.
0.66601 0.067012 0.
0.668011 0.0670122 0.
0.670011 0.0670125 0.
0.672012 0.0670128 0.
0.674012 0.067013 0.
0.676013 0.0670131 0.
0.678013 0.0670132 0.
0.680013 0.0670133 0.
0.682013 0.0670134 0.
0.684013 0.0670136 0.
0.686013 0.0670139 0.
0.688013 0.0670143 0.
0.690013 0.0670149 0.
0.692014 0.0670158 0.
0.694014 0.0670167 0.
0.696015 0.067018 0.
0.698015 0.0670193 0.
0.499984 0.0690147 0.
0.501984 0.0690144 0.
0.503984 0.069014 0.
0.505984 0.0690134 0.
0.507985 0.0690122 0.
0.509986 0.0690109 0.
0.511987 0.0690101 0.
0.513987 0.0690099 0.
0.515988 0.0690096 0.
0.517988 0.0690096 0.
0.519988 0.0690098 0.
0.521988 0.0690099 0.
0.523988 0.0690105 0.
0.525988 0.0690111 0.
0.527989 0.0690116 0.
0.529989 0.0690113 0.
0.531989 0.0690111 0.
0.533989 0.0690109 0.
0.535989 0.0690105 0.
0.537989 0.0690101 0.
0.539989 0.0690104 0.
0.54199 0.0690111 0.
0.543991 0.0690119 0.
0.545991 0.0690121 0.
0.547991 0.0690123 0.
0.549992 0.0690125 0.
0.551992 0.0690119 0.
0.553992 0.0690113 0.
0.555993 0.0690108 0.
0.557993 0.0690107 0.
0.559994 0.0690107 0.
0.561994 0.0690108 0.
0.563995 0.069011 0.
0.565995 0.0690113 0.
0.567995 0.0690111 0.
0.569996 0.0690106 0.
0.571996 0.06901 0.
0.573997 0.0690104 0.
0.575997 0.069011 0.
0.577997 0.0690115 0.
0.579997 0.0690114 0.
0.581998 0.0690114 0.
0.583998 0.0690116 0.
0.585999 0.0690121 0.
0.587999 0.0690127 0.
0.589999 0.0690128 0.
0.592 0.0690125 0.
0.594 0.0690122 0.
0.596 0.0690117 0.
0.598 0.0690111 0.
0.600001 0.0690105 0.
0.602002 0.0690105 0.
0.604003 0.0690104 0.
0.606004 0.0690104 0.
0.608004 0.0690108 0.
0.610004 0.0690111 0.
0.612004 0.0690114 0.
0.614004 0.0690117 0.
0.616004 0.0690119 0.
0.618004 0.0690127 0.
0.620004 0.0690136 0.
0.622004 0.0690146 0.
0.624004 0.0690142 0.
0.626004 0.0690136 0.
0.628005 0.0690131 0.
0.630005 0.0690132 0.
0.632006 0.0690134 0.
0.634006 0.0690135 0.
0.636006 0.0690133 0.
0.638006 0.0690132 0.
0.640007 0.0690129 0.
0.642007 0.0690126 0.
0.644007 0.0690123 0.
0.646007 0.0690122 0.
0.648007 0.0690121 0.
0.650007 0.069012 0.
0.652007 0.0690114 0.
0.654007 0.0690108 0.
0.656007 0.0690104 0.
0.658008 0.0690109 0.
0.660009 0.0690113 0.
0.662009 0.0690118 0.
0.664009 0.0690121 0.
0.66601 0.0690124 0.
0.66801 0.0690126 0.
0.67001 0.0690127 0.
0.672011 0.0690128 0.
0.674011 0.0690128 0.
0.676011 0.0690127 0.
0.678012 0.0690126 0.
0.680012 0.069013 0.
0.682012 0.0690134 0.
0.684012 0.0690137 0.
0.686012 0.0690141 0.
0.688012 0.0690145 0.
0.690012 0.069015 0.
0.692012 0.0690156 0.
0.694012 0.0690162 0.
0.696013 0.0690174 0.
0.698014 0.0690189 0.
0.499984 0.0710148 0.
0.501984 0.0710143 0.
0.503985 0.0710137 0.
0.505985 0.0710129 0.
0.507986 0.0710118 0.
0.509987 0.0710108 0.
0.511987 0.0710101 0.
0.513988 0.0710099 0.
0.515988 0.0710097 0.
0.517989 0.0710096 0.
0.519989 0.0710097 0.
0.521989 0.0710097 0.
0.523989 0.0710102 0.
0.525989 0.0710108 0.
0.527989 0.0710113 0.
0.52999 0.071011 0.
0.53199 0.0710108 0.
0.53399 0.0710105 0.
0.53599 0.0710103 0.
0.53799 0.0710101 0.
0.53999 0.0710103 0.
0.541991 0.0710109 0.
0.543992 0.0710114 0.
0.545992 0.0710117 0.
0.547992 0.071012 0.
0.549992 0.0710122 0.
0.551993 0.0710117 0.
0.553993 0.0710111 0.
0.555994 0.0710106 0.
0.557994 0.0710106 0.
0.559994 0.0710106 0.
0.561995 0.0710108 0.
0.563995 0.0710111 0.
0.565995 0.0710114 0.
0.567996 0.071011 0.
0.569996 0.0710103 0.
0.571997 0.0710096 0.
0.573997 0.0710101 0.
0.575997 0.0710108 0.
0.577997 0.0710115 0.
0.579998 0.0710113 0.
0.581998 0.0710111 0.
0.583998 0.0710112 0.
0.585999 0.0710118 0.
0.587999 0.0710124 0.
0.59 0.0710126 0.
0.592 0.0710123 0.
0.594001 0.0710121 0.
0.596001 0.0710117 0.
0.598001 0.0710111 0.
0.6 0.0710106 0.
0.602001 0.0710104 0.
0.604002 0.0710101 0.
0.606003 0.0710101 0.
0.608003 0.0710106 0.
0.610004 0.0710111 0.
0.612004 0.0710115 0.
0.614003 0.0710118 0.
0.616003 0.071012 0.
0.618003 0.0710128 0.
0.620003 0.0710138 0.
0.622004 0.0710148 0.
0.624004 0.0710144 0.
0.626004 0.0710137 0.
0.628004 0.0710132 0.
0.630004 0.0710134 0.
0.632005 0.0710135 0.
0.634005 0.0710136 0.
0.636006 0.0710134 0.
0.638006 0.0710132 0.
0.640006 0.071013 0.
0.642007 0.0710128 0.
0.644007 0.0710125 0.
0.646007 0.0710122 0.
0.648007 0.0710119 0.
0.650006 0.0710116 0.
0.652006 0.0710112 0.
0.654006 0.0710109 0.
0.656006 0.0710106 0.
0.658007 0.0710109 0.
0.660008 0.0710113 0.
0.662008 0.0710116 0.
0.664009 0.071012 0.
0.666009 0.0710125 0.
0.668009 0.0710126 0.
0.67001 0.0710127 0.
0.67201 0.0710127 0.
0.67401 0.0710127 0.
0.67601 0.0710126 0.
0.67801 0.0710126 0.
0.68001 0.0710131 0.
0.682011 0.0710136 0.
0.684011 0.071014 0.
0.686011 0.0710143 0.
0.688011 0.0710146 0.
0.690011 0.071015 0.
0.692011 0.0710155 0.
0.694011 0.0710161 0.
0.696011 0.071017 0.
0.698012 0.0710181 0.
0.499984 0.0730152 0.
0.501984 0.0730142 0.
0.503985 0.0730134 0.
0.505986 0.0730125 0.
0.507986 0.0730116 0.
0.509987 0.0730107 0.
0.511988 0.0730101 0.
0.513988 0.07301 0.
0.515988 0.0730099 0.
0.517988 0.0730098 0.
0.519989 0.0730097 0.
0.521989 0.0730096 0.
0.523989 0.07301 0.
0.52599 0.0730104 0.
0.52799 0.0730109 0.
0.529991 0.0730106 0.
0.531991 0.0730104 0.
0.533991 0.0730103 0.
0.535991 0.0730104 0.
0.537991 0.0730105 0.
0.539992 0.0730106 0.
0.541992 0.0730107 0.
0.543993 0.0730107 0.
0.545993 0.0730109 0.
0.547994 0.0730111 0.
0.549994 0.0730113 0.
0.551994 0.0730113 0.
0.553994 0.0730113 0.
0.555994 0.0730113 0.
0.557994 0.073011 0.
0.559994 0.0730107 0.
0.561994 0.0730107 0.
0.563995 0.0730111 0.
0.565995 0.0730114 0.
0.567996 0.073011 0.
0.569996 0.0730102 0.
0.571997 0.0730093 0.
0.573997 0.0730099 0.
0.575998 0.0730106 0.
0.577998 0.0730112 0.
0.579998 0.073011 0.
0.581998 0.0730108 0.
0.583998 0.0730108 0.
0.585999 0.0730113 0.
0.587999 0.0730119 0.
0.59 0.0730121 0.
0.592 0.0730122 0.
0.594001 0.0730122 0.
0.596001 0.0730118 0.
0.598001 0.0730114 0.
0.6 0.0730109 0.
0.602001 0.0730106 0.
0.604002 0.0730104 0.
0.606002 0.0730103 0.
0.608002 0.0730107 0.
0.610002 0.0730111 0.
0.612002 0.0730114 0.
0.614002 0.0730118 0.
0.616002 0.0730122 0.
0.618003 0.0730129 0.
0.620003 0.0730138 0.
0.622004 0.0730146 0.
0.624004 0.0730142 0.
0.626004 0.0730136 0.
0.628003 0.0730131 0.
0.630004 0.0730135 0.
0.632004 0.0730138 0.
0.634004 0.0730139 0.
0.636005 0.0730136 0.
0.638006 0.0730133 0.
0.640006 0.073013 0.
0.642006 0.0730129 0.
0.644006 0.0730127 0.
0.646006 0.0730123 0.
0.648006 0.0730117 0.
0.650006 0.0730112 0.
0.652006 0.073011 0.
0.654006 0.0730109 0.
0.656006 0.0730108 0.
0.658007 0.073011 0.
0.660008 0.0730113 0.
0.662008 0.0730115 0.
0.664008 0.0730118 0.
0.666009 0.0730121 0.
0.668009 0.0730122 0.
0.67001 0.0730124 0.
0.67201 0.0730125 0.
0.67401 0.0730127 0.
0.676009 0.0730129 0.
0.678009 0.0730131 0.
0.680009 0.0730135 0.
0.68201 0.073014 0.
0.68401 0.0730143 0.
0.68601 0.0730144 0.
0.68801 0.0730145 0.
0.69001 0.0730149 0.
0.69201 0.0730156 0.
0.694009 0.0730163 0.
0.69601 0.0730167 0.
0.69801 0.0730169 0.
0.499984 0.0750153 0.
0.501985 0.0750141 0.
0.503986 0.075013 0.
0.505987 0.075012 0.
0.507987 0.0750113 0.
0.509987 0.0750106 0.
0.511988 0.0750102 0.
0.513988 0.0750102 0.
0.515988 0.0750101 0.
0.517988 0.07501 0.
0.519989 0.0750097 0.
0.521989 0.0750094 0.
0.52399 0.0750097 0.
0.52599 0.0750101 0.
0.527991 0.0750104 0.
0.529991 0.0750102 0.
0.531992 0.07501 0.
0.533992 0.07501 0.
0.535993 0.0750104 0.
0.537993 0.0750109 0.
0.539993 0.0750109 0.
0.541994 0.0750105 0.
0.543994 0.0750101 0.
0.545995 0.0750101 0.
0.547995 0.0750103 0.
0.549995 0.0750105 0.
0.551995 0.075011 0.
0.553995 0.0750116 0.
0.555995 0.0750119 0.
0.557995 0.0750113 0.
0.559994 0.0750107 0.
0.561994 0.0750106 0.
0.563995 0.075011 0.
0.565995 0.0750115 0.
0.567996 0.075011 0.
0.569997 0.07501 0.
0.571997 0.0750091 0.
0.573998 0.0750096 0.
0.575998 0.0750104 0.
0.577998 0.075011 0.
0.579998 0.0750107 0.
0.581998 0.0750104 0.
0.583998 0.0750104 0.
0.585999 0.0750108 0.
0.588 0.0750113 0.
0.59 0.0750117 0.
0.592001 0.075012 0.
0.594001 0.0750123 0.
0.596001 0.075012 0.
0.598001 0.0750116 0.
0.6 0.0750111 0.
0.602001 0.0750109 0.
0.604001 0.0750106 0.
0.606001 0.0750105 0.
0.608001 0.0750107 0.
0.610001 0.075011 0.
0.612001 0.0750114 0.
0.614001 0.0750118 0.
0.616002 0.0750123 0.
0.618002 0.075013 0.
0.620003 0.0750137 0.
0.622004 0.0750144 0.
0.624004 0.075014 0.
0.626003 0.0750135 0.
0.628003 0.0750131 0.
0.630003 0.0750136 0.
0.632003 0.075014 0.
0.634003 0.0750142 0.
0.636004 0.0750137 0.
0.638005 0.0750133 0.
0.640006 0.0750131 0.
0.642006 0.075013 0.
0.644006 0.075013 0.
0.646006 0.0750124 0.
0.648006 0.0750115 0.
0.650006 0.0750107 0.
0.652005 0.0750108 0.
0.654005 0.0750109 0.
0.656005 0.0750111 0.
0.658006 0.0750112 0.
0.660007 0.0750113 0.
0.662008 0.0750114 0.
0.664008 0.0750116 0.
0.666008 0.0750117 0.
0.668009 0.0750119 0.
0.670009 0.0750121 0.
0.67201 0.0750123 0.
0.674009 0.0750127 0.
0.676008 0.0750131 0.
0.678008 0.0750136 0.
0.680008 0.075014 0.
0.682008 0.0750144 0.
0.684009 0.0750147 0.
0.686009 0.0750145 0.
0.688009 0.0750144 0.
0.690009 0.0750149 0.
0.692008 0.0750157 0.
0.694008 0.0750166 0.
0.696008 0.0750164 0.
0.698008 0.0750158 0.
0.499986 0.0770149 0.
0.501986 0.0770139 0.
0.503987 0.0770127 0.
0.505987 0.0770117 0.
0.507988 0.0770113 0.
0.509988 0.077011 0.
0.511988 0.0770107 0.
0.513989 0.0770104 0.
0.515989 0.0770101 0.
0.517989 0.0770098 0.
0.519989 0.0770095 0.
0.521989 0.0770092 0.
0.52399 0.0770093 0.
0.52599 0.0770095 0.
0.527991 0.0770096 0.
0.529991 0.0770097 0.
0.531992 0.0770098 0.
0.533992 0.0770099 0.
0.535992 0.0770102 0.
0.537993 0.0770106 0.
0.539993 0.0770106 0.
0.541993 0.0770103 0.
0.543994 0.0770101 0.
0.545994 0.0770101 0.
0.547994 0.0770103 0.
0.549995 0.0770105 0.
0.551995 0.077011 0.
0.553995 0.0770115 0.
0.555995 0.0770118 0.
0.557995 0.0770114 0.
0.559994 0.0770109 0.
0.561994 0.0770107 0.
0.563995 0.0770107 0.
0.565996 0.0770107 0.
0.567996 0.0770104 0.
0.569997 0.07701 0.
0.571998 0.0770095 0.
0.573998 0.0770099 0.
0.575998 0.0770105 0.
0.577998 0.0770109 0.
0.579998 0.0770106 0.
0.581999 0.0770103 0.
0.583999 0.0770102 0.
0.585999 0.0770106 0.
0.588 0.077011 0.
0.59 0.0770113 0.
0.592 0.0770116 0.
0.594001 0.0770118 0.
0.596001 0.0770117 0.
0.598001 0.0770116 0.
0.6 0.0770115 0.
0.602 0.0770112 0.
0.604001 0.0770108 0.
0.606001 0.0770106 0.
0.608 0.0770108 0.
0.61 0.0770111 0.
0.612 0.0770113 0.
0.614001 0.0770117 0.
0.616001 0.077012 0.
0.618001 0.0770126 0.
0.620002 0.0770132 0.
0.622002 0.0770138 0.
0.624003 0.0770137 0.
0.626003 0.0770135 0.
0.628003 0.0770133 0.
0.630003 0.0770135 0.
0.632003 0.0770138 0.
0.634003 0.0770138 0.
0.636004 0.0770134 0.
0.638004 0.077013 0.
0.640005 0.0770127 0.
0.642005 0.0770125 0.
0.644005 0.0770123 0.
0.646005 0.077012 0.
0.648006 0.0770115 0.
0.650006 0.0770111 0.
0.652006 0.0770111 0.
0.654006 0.077011 0.
0.656006 0.077011 0.
0.658006 0.0770109 0.
0.660007 0.0770108 0.
0.662007 0.0770109 0.
0.664007 0.0770113 0.
0.666008 0.0770117 0.
0.668008 0.077012 0.
0.670008 0.0770123 0.
0.672009 0.0770126 0.
0.674008 0.0770128 0.
0.676008 0.0770129 0.
0.678007 0.0770131 0.
0.680008 0.0770135 0.
0.682008 0.0770138 0.
0.684008 0.077014 0.
0.686008 0.077014 0.
0.688008 0.077014 0.
0.690008 0.0770146 0.
0.692008 0.0770155 0.
0.694008 0.0770165 0.
0.696008 0.0770162 0.
0.698008 0.0770155 0.
0.499988 0.0790148 0.
0.501988 0.0790136 0.
0.503988 0.0790123 0.
0.505988 0.0790113 0.
0.507988 0.0790113 0.
0.509989 0.0790114 0.
0.511989 0.0790111 0.
0.513989 0.0790106 0.
0.515989 0.0790101 0.
0.517989 0.0790097 0.
0.519989 0.0790093 0.
0.521989 0.0790089 0.
0.52399 0.0790089 0.
0.52599 0.0790088 0.
0.527991 0.0790088 0.
0.529991 0.0790092 0.
0.531991 0.0790095 0.
0.533992 0.0790099 0.
0.535992 0.07901 0.
0.537992 0.0790102 0.
0.539992 0.0790103 0.
0.541993 0.0790102 0.
0.543993 0.0790101 0.
0.545993 0.0790101 0.
0.547994 0.0790103 0.
0.549994 0.0790104 0.
0.551995 0.079011 0.
0.553995 0.0790114 0.
0.555995 0.0790117 0.
0.557995 0.0790114 0.
0.559994 0.0790111 0.
0.561995 0.0790108 0.
0.563996 0.0790104 0.
0.565996 0.07901 0.
0.567997 0.0790099 0.
0.569997 0.0790099 0.
0.571998 0.0790099 0.
0.573998 0.0790102 0.
0.575998 0.0790106 0.
0.577998 0.0790108 0.
0.579999 0.0790105 0.
0.581999 0.0790102 0.
0.583999 0.07901 0.
0.585999 0.0790104 0.
0.587999 0.0790107 0.
0.59 0.079011 0.
0.592 0.0790111 0.
0.594001 0.0790112 0.
0.596001 0.0790115 0.
0.598001 0.0790117 0.
0.6 0.0790119 0.
0.602 0.0790115 0.
0.604 0.079011 0.
0.606 0.0790107 0.
0.608 0.0790109 0.
0.61 0.0790111 0.
0.612 0.0790113 0.
0.614 0.0790115 0.
0.616 0.0790117 0.
0.618 0.0790122 0.
0.620001 0.0790127 0.
0.622001 0.0790133 0.
0.624002 0.0790134 0.
0.626002 0.0790135 0.
0.628002 0.0790136 0.
0.630002 0.0790135 0.
0.632003 0.0790135 0.
0.634003 0.0790133 0.
0.636003 0.079013 0.
0.638003 0.0790127 0.
0.640004 0.0790123 0.
0.642004 0.079012 0.
0.644005 0.0790117 0.
0.646005 0.0790116 0.
0.648005 0.0790115 0.
0.650006 0.0790115 0.
0.652006 0.0790113 0.
0.654006 0.0790111 0.
0.656006 0.0790109 0.
0.658006 0.0790106 0.
0.660006 0.0790103 0.
0.662006 0.0790105 0.
0.664007 0.0790111 0.
0.666007 0.0790117 0.
0.668007 0.0790121 0.
0.670007 0.0790125 0.
0.672007 0.0790129 0.
0.674007 0.0790129 0.
0.676007 0.0790128 0.
0.678007 0.0790127 0.
0.680007 0.0790129 0.
0.682007 0.0790132 0.
0.684007 0.0790134 0.
0.686007 0.0790135 0.
0.688006 0.0790136 0.
0.690006 0.0790143 0.
0.692007 0.0790153 0.
0.694008 0.0790164 0.
0.696008 0.0790159 0.
0.698009 0.0790151 0.
0.499989 0.0810147 0.
0.501989 0.0810136 0.
0.503989 0.0810125 0.
0.505989 0.0810116 0.
0.507989 0.0810115 0.
0.50999 0.0810115 0.
0.51199 0.0810113 0.
0.51399 0.0810107 0.
0.51599 0.0810102 0.
0.51799 0.0810097 0.
0.51999 0.0810093 0.
0.52199 0.0810089 0.
0.52399 0.0810087 0.
0.525991 0.0810086 0.
0.527991 0.0810085 0.
0.529991 0.081009 0.
0.531992 0.0810095 0.
0.533992 0.0810098 0.
0.535992 0.0810099 0.
0.537993 0.0810099 0.
0.539993 0.08101 0.
0.541993 0.0810101 0.
0.543993 0.0810103 0.
0.545993 0.0810103 0.
0.547994 0.0810104 0.
0.549994 0.0810105 0.
0.551994 0.0810109 0.
0.553995 0.0810113 0.
0.555995 0.0810116 0.
0.557995 0.0810114 0.
0.559995 0.0810112 0.
0.561995 0.0810109 0.
0.563996 0.0810103 0.
0.565996 0.0810097 0.
0.567997 0.0810096 0.
0.569997 0.0810099 0.
0.571998 0.0810102 0.
0.573998 0.0810104 0.
0.575998 0.0810106 0.
0.577998 0.0810106 0.
0.579998 0.0810103 0.
0.581999 0.08101 0.
0.583999 0.0810099 0.
0.585999 0.0810103 0.
0.587999 0.0810107 0.
0.589999 0.0810109 0.
0.592 0.081011 0.
0.594 0.0810111 0.
0.596 0.0810114 0.
0.598 0.0810117 0.
0.6 0.0810121 0.
0.602 0.0810117 0.
0.604 0.0810112 0.
0.606 0.081011 0.
0.608 0.0810111 0.
0.61 0.0810112 0.
0.612 0.0810114 0.
0.614 0.0810115 0.
0.616 0.0810116 0.
0.618 0.081012 0.
0.620001 0.0810125 0.
0.622001 0.081013 0.
0.624001 0.0810131 0.
0.626002 0.0810133 0.
0.628002 0.0810134 0.
0.630003 0.0810133 0.
0.632003 0.0810132 0.
0.634003 0.081013 0.
0.636003 0.0810128 0.
0.638003 0.0810125 0.
0.640003 0.0810121 0.
0.642004 0.0810118 0.
0.644005 0.0810114 0.
0.646005 0.0810114 0.
0.648006 0.0810114 0.
0.650006 0.0810115 0.
0.652006 0.0810114 0.
0.654006 0.0810112 0.
0.656006 0.0810111 0.
0.658006 0.0810107 0.
0.660006 0.0810103 0.
0.662006 0.0810104 0.
0.664006 0.0810111 0.
0.666006 0.0810118 0.
0.668006 0.0810123 0.
0.670006 0.0810126 0.
0.672006 0.081013 0.
0.674006 0.0810129 0.
0.676006 0.0810128 0.
0.678006 0.0810127 0.
0.680006 0.0810129 0.
0.682006 0.0810131 0.
0.684006 0.0810133 0.
0.686006 0.0810133 0.
0.688006 0.0810133 0.
0.690006 0.0810139 0.
0.692006 0.081015 0.
0.694007 0.0810161 0.
0.696008 0.0810156 0.
0.698009 0.0810147 0.
0.499991 0.0830145 0.
0.501991 0.0830139 0.
0.503991 0.0830131 0.
0.505991 0.0830124 0.
0.507991 0.0830119 0.
0.509991 0.0830114 0.
0.511991 0.083011 0.
0.513991 0.0830107 0.
0.515992 0.0830104 0.
0.517992 0.0830099 0.
0.519991 0.0830095 0.
0.521991 0.083009 0.
0.523991 0.0830088 0.
0.525992 0.0830086 0.
0.527992 0.0830085 0.
0.529992 0.083009 0.
0.531992 0.0830095 0.
0.533993 0.0830099 0.
0.535993 0.0830098 0.
0.537993 0.0830097 0.
0.539994 0.0830099 0.
0.541993 0.0830103 0.
0.543993 0.0830107 0.
0.545993 0.0830107 0.
0.547994 0.0830106 0.
0.549994 0.0830105 0.
0.551994 0.0830108 0.
0.553995 0.0830111 0.
0.555995 0.0830114 0.
0.557995 0.0830113 0.
0.559995 0.0830113 0.
0.561995 0.083011 0.
0.563995 0.0830104 0.
0.565995 0.0830098 0.
0.567995 0.0830098 0.
0.569996 0.0830101 0.
0.571997 0.0830104 0.
0.573997 0.0830104 0.
0.575997 0.0830104 0.
0.577997 0.0830103 0.
0.579998 0.0830101 0.
0.581998 0.0830099 0.
0.583998 0.0830099 0.
0.585999 0.0830104 0.
0.587999 0.0830109 0.
0.589999 0.0830111 0.
0.591999 0.0830112 0.
0.594 0.0830113 0.
0.596 0.0830115 0.
0.598 0.0830117 0.
0.6 0.083012 0.
0.602 0.0830117 0.
0.604 0.0830114 0.
0.606 0.0830113 0.
0.608001 0.0830113 0.
0.610001 0.0830114 0.
0.612001 0.0830114 0.
0.614001 0.0830115 0.
0.616001 0.0830116 0.
0.618001 0.083012 0.
0.620001 0.0830124 0.
0.622001 0.0830129 0.
0.624002 0.0830129 0.
0.626002 0.0830129 0.
0.628003 0.0830128 0.
0.630003 0.0830129 0.
0.632003 0.0830129 0.
0.634003 0.0830128 0.
0.636003 0.0830126 0.
0.638003 0.0830124 0.
0.640004 0.0830121 0.
0.642004 0.0830118 0.
0.644005 0.0830114 0.
0.646005 0.0830113 0.
0.648006 0.0830112 0.
0.650006 0.0830111 0.
0.652006 0.0830112 0.
0.654006 0.0830114 0.
0.656006 0.0830114 0.
0.658006 0.083011 0.
0.660005 0.0830106 0.
0.662005 0.0830107 0.
0.664005 0.0830114 0.
0.666005 0.0830121 0.
0.668005 0.0830125 0.
0.670005 0.0830128 0.
0.672005 0.083013 0.
0.674005 0.083013 0.
0.676005 0.0830131 0.
0.678006 0.0830131 0.
0.680005 0.0830134 0.
0.682005 0.0830136 0.
0.684005 0.0830137 0.
0.686005 0.0830133 0.
0.688005 0.083013 0.
0.690006 0.0830134 0.
0.692006 0.0830145 0.
0.694007 0.0830156 0.
0.696007 0.0830151 0.
0.698008 0.0830142 0.
0.499992 0.0850148 0.
0.501992 0.0850141 0.
0.503992 0.0850137 0.
0.505992 0.0850133 0.
0.507992 0.0850123 0.
0.509992 0.0850114 0.
0.511992 0.0850108 0.
0.513993 0.0850107 0.
0.515993 0.0850105 0.
0.517993 0.0850101 0.
0.519992 0.0850096 0.
0.521992 0.0850091 0.
0.523992 0.0850089 0.
0.525992 0.0850087 0.
0.527993 0.0850085 0.
0.529993 0.0850091 0.
0.531993 0.0850096 0.
0.533993 0.0850099 0.
0.535994 0.0850096 0.
0.537994 0.0850094 0.
0.539994 0.0850097 0.
0.541994 0.0850104 0.
0.543993 0.0850112 0.
0.545994 0.0850111 0.
0.547994 0.0850109 0.
0.549994 0.0850106 0.
0.551994 0.0850108 0.
0.553995 0.085011 0.
0.555995 0.0850111 0.
0.557995 0.0850112 0.
0.559996 0.0850113 0.
0.561996 0.0850111 0.
0.563995 0.0850105 0.
0.565994 0.0850099 0.
0.567994 0.0850099 0.
0.569995 0.0850103 0.
0.571996 0.0850106 0.
0.573996 0.0850105 0.
0.575996 0.0850102 0.
0.577997 0.0850099 0.
0.579997 0.0850098 0.
0.581997 0.0850098 0.
0.583998 0.0850099 0.
0.585998 0.0850105 0.
0.587998 0.0850111 0.
0.589999 0.0850114 0.
0.591999 0.0850114 0.
0.593999 0.0850115 0.
0.595999 0.0850116 0.
0.597999 0.0850118 0.
0.6 0.0850119 0.
0.602 0.0850118 0.
0.604 0.0850116 0.
0.606 0.0850115 0.
0.608001 0.0850115 0.
0.610002 0.0850115 0.
0.612002 0.0850115 0.
0.614002 0.0850116 0.
0.616002 0.0850117 0.
0.618002 0.085012 0.
0.620002 0.0850124 0.
0.622002 0.0850128 0.
0.624002 0.0850126 0.
0.626003 0.0850125 0.
0.628003 0.0850123 0.
0.630003 0.0850124 0.
0.632003 0.0850126 0.
0.634004 0.0850127 0.
0.636004 0.0850125 0.
0.638004 0.0850123 0.
0.640004 0.085012 0.
0.642004 0.0850118 0.
0.644005 0.0850115 0.
0.646005 0.0850112 0.
0.648006 0.0850109 0.
0.650006 0.0850107 0.
0.652006 0.0850111 0.
0.654005 0.0850115 0.
0.656005 0.0850117 0.
0.658005 0.0850113 0.
0.660005 0.0850109 0.
0.662005 0.085011 0.
0.664005 0.0850118 0.
0.666004 0.0850125 0.
0.668004 0.0850128 0.
0.670004 0.0850129 0.
0.672004 0.085013 0.
0.674004 0.0850131 0.
0.676005 0.0850133 0.
0.678005 0.0850135 0.
0.680005 0.0850138 0.
0.682004 0.0850141 0.
0.684004 0.0850141 0.
0.686005 0.0850134 0.
0.688005 0.0850127 0.
0.690005 0.085013 0.
0.692006 0.0850141 0.
0.694006 0.0850152 0.
0.696006 0.0850146 0.
0.698007 0.0850137 0.
0.499991 0.0870143 0.
0.501992 0.0870139 0.
0.503993 0.0870135 0.
0.505993 0.087013 0.
0.507993 0.0870123 0.
0.509993 0.0870116 0.
0.511993 0.0870112 0.
0.513993 0.087011 0.
0.515993 0.0870109 0.
0.517993 0.0870105 0.
0.519993 0.08701 0.
0.521993 0.0870095 0.
0.523993 0.0870091 0.
0.525993 0.0870087 0.
0.527993 0.0870084 0.
0.529993 0.087009 0.
0.531993 0.0870096 0.
0.533994 0.0870099 0.
0.535994 0.0870096 0.
0.537994 0.0870093 0.
0.539994 0.0870095 0.
0.541994 0.0870103 0.
0.543994 0.0870111 0.
0.545994 0.087011 0.
0.547994 0.0870108 0.
0.549994 0.0870106 0.
0.551995 0.0870108 0.
0.553995 0.087011 0.
0.555996 0.0870112 0.
0.557996 0.0870113 0.
0.559996 0.0870114 0.
0.561996 0.0870112 0.
0.563995 0.0870108 0.
0.565995 0.0870103 0.
0.567995 0.0870103 0.
0.569996 0.0870105 0.
0.571996 0.0870108 0.
0.573996 0.0870106 0.
0.575997 0.0870104 0.
0.577997 0.0870102 0.
0.579997 0.0870102 0.
0.581998 0.0870102 0.
0.583998 0.0870103 0.
0.585998 0.0870106 0.
0.587999 0.087011 0.
0.589999 0.0870111 0.
0.591999 0.0870111 0.
0.593999 0.087011 0.
0.595999 0.0870111 0.
0.597999 0.0870111 0.
0.599999 0.0870111 0.
0.602 0.0870113 0.
0.604 0.0870115 0.
0.606 0.0870117 0.
0.608001 0.0870116 0.
0.610001 0.0870115 0.
0.612001 0.0870114 0.
0.614002 0.0870114 0.
0.616002 0.0870114 0.
0.618002 0.0870116 0.
0.620002 0.087012 0.
0.622002 0.0870124 0.
0.624002 0.0870123 0.
0.626002 0.0870121 0.
0.628003 0.087012 0.
0.630003 0.0870122 0.
0.632003 0.0870125 0.
0.634003 0.0870126 0.
0.636003 0.0870123 0.
0.638003 0.0870119 0.
0.640004 0.0870117 0.
0.642004 0.0870116 0.
0.644004 0.0870114 0.
0.646005 0.0870113 0.
0.648006 0.0870112 0.
0.650006 0.0870111 0.
0.652006 0.0870113 0.
0.654006 0.0870116 0.
0.656005 0.0870117 0.
0.658005 0.0870114 0.
0.660005 0.0870112 0.
0.662005 0.0870114 0.
0.664005 0.0870119 0.
0.666004 0.0870125 0.
0.668004 0.0870126 0.
0.670004 0.0870125 0.
0.672004 0.0870125 0.
0.674005 0.0870128 0.
0.676005 0.0870133 0.
0.678005 0.0870137 0.
0.680004 0.0870138 0.
0.682004 0.087014 0.
0.684004 0.0870139 0.
0.686005 0.0870134 0.
0.688005 0.0870128 0.
0.690005 0.087013 0.
0.692006 0.0870138 0.
0.694006 0.0870146 0.
0.696006 0.0870143 0.
0.698006 0.0870137 0.
0.499991 0.0890142 0.
0.501992 0.0890137 0.
0.503993 0.0890132 0.
0.505994 0.0890127 0.
0.507994 0.0890122 0.
0.509994 0.0890118 0.
0.511993 0.0890115 0.
0.513993 0.0890113 0.
0.515992 0.0890112 0.
0.517993 0.0890108 0.
0.519993 0.0890104 0.
0.521994 0.08901 0.
0.523994 0.0890094 0.
0.525993 0.0890088 0.
0.527993 0.0890083 0.
0.529993 0.0890089 0.
0.531994 0.0890095 0.
0.533994 0.0890098 0.
0.535994 0.0890095 0.
0.537994 0.0890091 0.
0.539994 0.0890094 0.
0.541994 0.0890102 0.
0.543994 0.089011 0.
0.545995 0.089011 0.
0.547995 0.0890107 0.
0.549995 0.0890105 0.
0.551995 0.0890108 0.
0.553996 0.089011 0.
0.555996 0.0890112 0.
0.557996 0.0890113 0.
0.559996 0.0890115 0.
0.561996 0.0890114 0.
0.563996 0.089011 0.
0.565996 0.0890106 0.
0.567997 0.0890106 0.
0.569997 0.0890107 0.
0.571997 0.0890109 0.
0.573997 0.0890107 0.
0.575997 0.0890106 0.
0.577997 0.0890104 0.
0.579998 0.0890105 0.
0.581998 0.0890106 0.
0.583999 0.0890106 0.
0.585999 0.0890108 0.
0.587999 0.0890109 0.
0.589999 0.0890109 0.
0.591999 0.0890108 0.
0.593999 0.0890106 0.
0.595999 0.0890105 0.
0.597999 0.0890104 0.
0.599999 0.0890103 0.
0.602 0.0890109 0.
0.604 0.0890114 0.
0.606 0.0890118 0.
0.608 0.0890117 0.
0.61 0.0890115 0.
0.612001 0.0890113 0.
0.614001 0.0890112 0.
0.616002 0.089011 0.
0.618002 0.0890112 0.
0.620002 0.0890116 0.
0.622002 0.089012 0.
0.624002 0.0890119 0.
0.626002 0.0890118 0.
0.628003 0.0890117 0.
0.630002 0.089012 0.
0.632002 0.0890124 0.
0.634002 0.0890125 0.
0.636002 0.0890121 0.
0.638003 0.0890116 0.
0.640003 0.0890114 0.
0.642004 0.0890113 0.
0.644004 0.0890113 0.
0.646005 0.0890114 0.
0.648005 0.0890115 0.
0.650006 0.0890116 0.
0.652006 0.0890116 0.
0.654006 0.0890116 0.
0.656006 0.0890117 0.
0.658006 0.0890116 0.
0.660005 0.0890115 0.
0.662005 0.0890117 0.
0.664005 0.0890121 0.
0.666005 0.0890125 0.
0.668005 0.0890125 0.
0.670005 0.0890122 0.
0.672005 0.0890119 0.
0.674005 0.0890125 0.
0.676005 0.0890133 0.
0.678004 0.0890139 0.
0.680004 0.0890139 0.
0.682005 0.0890138 0.
0.684005 0.0890137 0.
0.686005 0.0890134 0.
0.688005 0.089013 0.
0.690005 0.0890131 0.
0.692005 0.0890135 0.
0.694006 0.0890139 0.
0.696006 0.0890139 0.
0.698006 0.0890138 0.
0.499991 0.0910135 0.
0.501993 0.0910134 0.
0.503994 0.0910131 0.
0.505995 0.0910127 0.
0.507994 0.0910124 0.
0.509994 0.0910121 0.
0.511994 0.0910117 0.
0.513993 0.0910115 0.
0.515992 0.0910112 0.
0.517993 0.0910109 0.
0.519994 0.0910105 0.
0.521994 0.0910102 0.
0.523994 0.0910095 0.
0.525994 0.0910088 0.
0.527993 0.0910083 0.
0.529994 0.0910087 0.
0.531994 0.0910092 0.
0.533994 0.0910095 0.
0.535994 0.0910093 0.
0.537994 0.091009 0.
0.539994 0.0910093 0.
0.541994 0.0910101 0.
0.543995 0.0910108 0.
0.545995 0.0910108 0.
0.547995 0.0910107 0.
0.549995 0.0910106 0.
0.551995 0.0910108 0.
0.553996 0.091011 0.
0.555996 0.0910113 0.
0.557996 0.0910115 0.
0.559996 0.0910117 0.
0.561996 0.0910117 0.
0.563997 0.0910114 0.
0.565997 0.0910111 0.
0.567997 0.0910109 0.
0.569997 0.0910108 0.
0.571997 0.0910106 0.
0.573997 0.0910105 0.
0.575998 0.0910105 0.
0.577998 0.0910104 0.
0.579998 0.0910104 0.
0.581999 0.0910104 0.
0.583999 0.0910105 0.
0.585999 0.0910106 0.
0.587999 0.0910108 0.
0.589999 0.0910108 0.
0.591999 0.0910106 0.
0.593999 0.0910104 0.
0.595999 0.0910103 0.
0.597999 0.0910101 0.
0.6 0.09101 0.
0.602 0.0910107 0.
0.604 0.0910113 0.
0.606 0.0910118 0.
0.608 0.0910116 0.
0.61 0.0910114 0.
0.612 0.0910112 0.
0.614001 0.091011 0.
0.616001 0.0910107 0.
0.618001 0.0910109 0.
0.620001 0.0910113 0.
0.622001 0.0910117 0.
0.624002 0.0910116 0.
0.626002 0.0910115 0.
0.628002 0.0910114 0.
0.630002 0.0910119 0.
0.632002 0.0910124 0.
0.634002 0.0910125 0.
0.636002 0.0910119 0.
0.638003 0.0910114 0.
0.640003 0.0910111 0.
0.642003 0.0910112 0.
0.644004 0.0910113 0.
0.646004 0.0910115 0.
0.648005 0.0910116 0.
0.650005 0.0910118 0.
0.652005 0.0910118 0.
0.654005 0.0910117 0.
0.656005 0.0910117 0.
0.658005 0.0910118 0.
0.660005 0.0910118 0.
0.662005 0.0910119 0.
0.664005 0.0910122 0.
0.666005 0.0910124 0.
0.668005 0.0910123 0.
0.670005 0.0910121 0.
0.672005 0.0910118 0.
0.674005 0.0910126 0.
0.676005 0.0910134 0.
0.678005 0.0910142 0.
0.680005 0.091014 0.
0.682005 0.0910139 0.
0.684005 0.0910136 0.
0.686005 0.0910133 0.
0.688005 0.091013 0.
0.690005 0.0910129 0.
0.692005 0.0910131 0.
0.694005 0.0910132 0.
0.696005 0.0910134 0.
0.698006 0.0910137 0.
0.499993 0.0930129 0.
0.501993 0.093013 0.
0.503994 0.0930131 0.
0.505994 0.0930131 0.
0.507994 0.0930127 0.
0.509995 0.0930123 0.
0.511994 0.0930119 0.
0.513994 0.0930114 0.
0.515993 0.093011 0.
0.517993 0.0930107 0.
0.519994 0.0930104 0.
0.521994 0.0930102 0.
0.523994 0.0930096 0.
0.525994 0.0930089 0.
0.527994 0.0930083 0.
0.529994 0.0930085 0.
0.531995 0.0930086 0.
0.533995 0.0930088 0.
0.535994 0.0930089 0.
0.537994 0.093009 0.
0.539994 0.0930094 0.
0.541994 0.0930099 0.
0.543995 0.0930105 0.
0.545994 0.0930107 0.
0.547994 0.0930107 0.
0.549994 0.0930107 0.
0.551995 0.0930109 0.
0.553995 0.0930111 0.
0.555996 0.0930113 0.
0.557996 0.0930117 0.
0.559997 0.093012 0.
0.561997 0.0930121 0.
0.563997 0.0930119 0.
0.565997 0.0930116 0.
0.567997 0.0930112 0.
0.569997 0.0930106 0.
0.571997 0.0930101 0.
0.573998 0.09301 0.
0.575998 0.09301 0.
0.577998 0.09301 0.
0.579999 0.0930099 0.
0.581999 0.0930098 0.
0.583999 0.0930098 0.
0.585999 0.0930102 0.
0.587999 0.0930107 0.
0.589999 0.0930107 0.
0.591999 0.0930105 0.
0.593999 0.0930104 0.
0.595999 0.0930103 0.
0.598 0.0930103 0.
0.6 0.0930103 0.
0.602 0.0930107 0.
0.604 0.0930112 0.
0.606001 0.0930115 0.
0.608001 0.0930113 0.
0.610001 0.0930111 0.
0.612001 0.0930109 0.
0.614001 0.0930107 0.
0.616001 0.0930105 0.
0.618001 0.0930107 0.
0.620001 0.0930111 0.
0.622001 0.0930115 0.
0.624002 0.0930114 0.
0.626002 0.0930112 0.
0.628003 0.0930111 0.
0.630002 0.0930118 0.
0.632002 0.0930125 0.
0.634002 0.0930127 0.
0.636002 0.0930119 0.
0.638002 0.0930112 0.
0.640003 0.093011 0.
0.642003 0.0930112 0.
0.644004 0.0930114 0.
0.646004 0.0930115 0.
0.648004 0.0930116 0.
0.650004 0.0930116 0.
0.652004 0.0930117 0.
0.654004 0.0930118 0.
0.656004 0.0930119 0.
0.658004 0.0930119 0.
0.660005 0.093012 0.
0.662005 0.0930121 0.
0.664005 0.0930122 0.
0.666004 0.0930122 0.
0.668005 0.0930122 0.
0.670005 0.0930121 0.
0.672005 0.0930121 0.
0.674005 0.0930128 0.
0.676005 0.0930137 0.
0.678005 0.0930145 0.
0.680005 0.0930143 0.
0.682005 0.093014 0.
0.684005 0.0930137 0.
0.686005 0.0930133 0.
0.688005 0.0930128 0.
0.690005 0.0930126 0.
0.692005 0.0930125 0.
0.694005 0.0930124 0.
0.696005 0.0930128 0.
0.698005 0.0930134 0.
0.499994 0.095012 0.
0.501994 0.0950125 0.
0.503994 0.0950132 0.
0.505994 0.0950135 0.
0.507995 0.0950131 0.
0.509995 0.0950126 0.
0.511995 0.095012 0.
0.513994 0.0950114 0.
0.515993 0.0950108 0.
0.517993 0.0950105 0.
0.519994 0.0950103 0.
0.521994 0.0950102 0.
0.523995 0.0950096 0.
0.525995 0.0950089 0.
0.527995 0.0950084 0.
0.529995 0.0950082 0.
0.531995 0.095008 0.
0.533995 0.0950081 0.
0.535995 0.0950085 0.
0.537995 0.095009 0.
0.539994 0.0950094 0.
0.541994 0.0950098 0.
0.543994 0.0950103 0.
0.545994 0.0950105 0.
0.547994 0.0950107 0.
0.549994 0.0950109 0.
0.551994 0.095011 0.
0.553995 0.0950112 0.
0.555996 0.0950114 0.
0.557997 0.0950119 0.
0.559997 0.0950124 0.
0.561998 0.0950126 0.
0.563997 0.0950123 0.
0.565997 0.0950121 0.
0.567997 0.0950114 0.
0.569997 0.0950105 0.
0.571997 0.0950095 0.
0.573998 0.0950095 0.
0.575999 0.0950096 0.
0.577999 0.0950097 0.
0.579999 0.0950094 0.
0.581999 0.0950091 0.
0.583999 0.0950091 0.
0.585999 0.0950098 0.
0.587999 0.0950105 0.
0.59 0.0950107 0.
0.592 0.0950105 0.
0.593999 0.0950103 0.
0.596 0.0950104 0.
0.598 0.0950105 0.
0.6 0.0950106 0.
0.602001 0.0950108 0.
0.604001 0.095011 0.
0.606001 0.0950112 0.
0.608001 0.095011 0.
0.610001 0.0950108 0.
0.612001 0.0950107 0.
0.614001 0.0950105 0.
0.616 0.0950102 0.
0.618 0.0950105 0.
0.620001 0.0950108 0.
0.622001 0.0950112 0.
0.624002 0.0950111 0.
0.626002 0.095011 0.
0.628003 0.0950109 0.
0.630002 0.0950117 0.
0.632002 0.0950125 0.
0.634002 0.0950128 0.
0.636002 0.0950119 0.
0.638002 0.095011 0.
0.640003 0.0950108 0.
0.642003 0.0950111 0.
0.644004 0.0950115 0.
0.646003 0.0950115 0.
0.648003 0.0950115 0.
0.650003 0.0950115 0.
0.652003 0.0950117 0.
0.654003 0.0950119 0.
0.656003 0.0950121 0.
0.658003 0.0950121 0.
0.660004 0.0950122 0.
0.662004 0.0950122 0.
0.664004 0.0950121 0.
0.666004 0.095012 0.
0.668005 0.0950121 0.
0.670005 0.0950122 0.
0.672005 0.0950123 0.
0.674006 0.0950131 0.
0.676006 0.0950141 0.
0.678006 0.0950149 0.
0.680006 0.0950145 0.
0.682005 0.0950141 0.
0.684005 0.0950137 0.
0.686004 0.0950132 0.
0.688004 0.0950127 0.
0.690004 0.0950123 0.
0.692004 0.0950119 0.
0.694004 0.0950116 0.
0.696004 0.0950122 0.
0.698004 0.095013 0.
0.499995 0.0970125 0.
0.501995 0.0970128 0.
0.503995 0.0970134 0.
0.505995 0.0970137 0.
0.507995 0.097013 0.
0.509995 0.0970123 0.
0.511995 0.0970118 0.
0.513994 0.0970115 0.
0.515994 0.0970112 0.
0.517994 0.0970109 0.
0.519994 0.0970105 0.
0.521994 0.09701 0.
0.523995 0.0970096 0.
0.525995 0.0970091 0.
0.527996 0.0970087 0.
0.529995 0.0970085 0.
0.531995 0.0970083 0.
0.533995 0.0970084 0.
0.535994 0.0970089 0.
0.537994 0.0970094 0.
0.539994 0.0970096 0.
0.541994 0.0970096 0.
0.543995 0.0970097 0.
0.545994 0.0970101 0.
0.547994 0.0970107 0.
0.549994 0.0970113 0.
0.551994 0.0970108 0.
0.553995 0.0970103 0.
0.555996 0.0970102 0.
0.557996 0.0970112 0.
0.559997 0.0970121 0.
0.561997 0.0970125 0.
0.563997 0.0970122 0.
0.565997 0.0970119 0.
0.567997 0.0970111 0.
0.569998 0.0970102 0.
0.571998 0.0970092 0.
0.573999 0.0970093 0.
0.575999 0.0970094 0.
0.577999 0.0970095 0.
0.579999 0.0970095 0.
0.581999 0.0970095 0.
0.583999 0.0970096 0.
0.585999 0.0970099 0.
0.587999 0.0970102 0.
0.589999 0.0970104 0.
0.591999 0.0970105 0.
0.593999 0.0970105 0.
0.595999 0.0970105 0.
0.598 0.0970104 0.
0.6 0.0970103 0.
0.602001 0.0970104 0.
0.604001 0.0970104 0.
0.606001 0.0970105 0.
0.608001 0.0970107 0.
0.610001 0.0970109 0.
0.612001 0.0970109 0.
0.614 0.0970106 0.
0.616 0.0970102 0.
0.618 0.0970104 0.
0.62 0.0970108 0.
0.622 0.0970113 0.
0.624 0.097011 0.
0.626001 0.0970107 0.
0.628001 0.0970106 0.
0.630001 0.0970116 0.
0.632002 0.0970126 0.
0.634002 0.097013 0.
0.636002 0.0970122 0.
0.638003 0.0970113 0.
0.640003 0.0970111 0.
0.642003 0.0970114 0.
0.644003 0.0970117 0.
0.646003 0.0970117 0.
0.648003 0.0970117 0.
0.650002 0.0970116 0.
0.652003 0.0970116 0.
0.654003 0.0970117 0.
0.656003 0.0970117 0.
0.658003 0.0970116 0.
0.660003 0.0970115 0.
0.662003 0.0970116 0.
0.664003 0.0970117 0.
0.666004 0.0970119 0.
0.668004 0.0970121 0.
0.670004 0.0970124 0.
0.672005 0.0970127 0.
0.674005 0.0970134 0.
0.676005 0.0970142 0.
0.678005 0.0970149 0.
0.680005 0.0970146 0.
0.682005 0.0970143 0.
0.684004 0.0970138 0.
0.686005 0.097013 0.
0.688005 0.0970122 0.
0.690005 0.0970119 0.
0.692005 0.097012 0.
0.694005 0.0970121 0.
0.696005 0.0970125 0.
0.698004 0.0970129 0.
0.499995 0.0990125 0.
0.501995 0.099013 0.
0.503996 0.0990136 0.
0.505996 0.0990138 0.
0.507995 0.0990129 0.
0.509995 0.099012 0.
0.511995 0.0990115 0.
0.513995 0.0990116 0.
0.515995 0.0990117 0.
0.517995 0.0990113 0.
0.519994 0.0990106 0.
0.521994 0.0990099 0.
0.523995 0.0990096 0.
0.525995 0.0990093 0.
0.527996 0.099009 0.
0.529996 0.0990088 0.
0.531995 0.0990087 0.
0.533995 0.0990087 0.
0.535994 0.0990093 0.
0.537994 0.0990098 0.
0.539994 0.0990099 0.
0.541994 0.0990095 0.
0.543995 0.0990091 0.
0.545995 0.0990097 0.
0.547994 0.0990107 0.
0.549994 0.0990117 0.
0.551995 0.0990106 0.
0.553995 0.0990095 0.
0.555995 0.0990089 0.
0.557996 0.0990104 0.
0.559996 0.0990119 0.
0.561997 0.0990125 0.
0.563997 0.0990121 0.
0.565997 0.0990116 0.
0.567998 0.0990109 0.
0.569999 0.0990099 0.
0.572 0.099009 0.
0.574 0.099009 0.
0.575999 0.0990092 0.
0.577999 0.0990093 0.
0.579999 0.0990097 0.
0.581999 0.09901 0.
0.584 0.0990102 0.
0.585999 0.0990101 0.
0.587999 0.09901 0.
0.589999 0.0990101 0.
0.591999 0.0990104 0.
0.593998 0.0990108 0.
0.595999 0.0990106 0.
0.598 0.0990104 0.
0.6 0.0990101 0.
0.602001 0.09901 0.
0.604001 0.0990098 0.
0.606001 0.0990098 0.
0.608001 0.0990104 0.
0.610001 0.099011 0.
0.612 0.0990111 0.
0.614 0.0990107 0.
0.615999 0.0990102 0.
0.617999 0.0990104 0.
0.619999 0.0990108 0.
0.621999 0.0990113 0.
0.623999 0.099011 0.
0.625999 0.0990105 0.
0.628 0.0990103 0.
0.63 0.0990114 0.
0.632001 0.0990126 0.
0.634002 0.0990132 0.
0.636002 0.0990124 0.
0.638003 0.0990117 0.
0.640003 0.0990115 0.
0.642003 0.0990117 0.
0.644003 0.099012 0.
0.646003 0.0990119 0.
0.648003 0.0990118 0.
0.650002 0.0990117 0.
0.652003 0.0990116 0.
0.654003 0.0990115 0.
0.656004 0.0990113 0.
0.658003 0.0990111 0.
0.660003 0.0990109 0.
0.662003 0.099011 0.
0.664003 0.0990113 0.
0.666003 0.0990117 0.
0.668003 0.0990122 0.
0.670004 0.0990127 0.
0.672004 0.0990131 0.
0.674004 0.0990137 0.
0.676004 0.0990144 0.
0.678004 0.0990149 0.
0.680004 0.0990147 0.
0.682004 0.0990145 0.
0.684004 0.099014 0.
0.686005 0.0990128 0.
0.688006 0.0990116 0.
0.690006 0.0990115 0.
0.692006 0.099012 0.
0.694006 0.0990126 0.
0.696005 0.0990128 0.
0.698005 0.0990128 0.
CELLS 5000 10000
1 0
1 1
1 2
1 3
1 4
1 5
1 6
1 7
1 8
1 9
1 10
1 11
1 12
1 13
1 14
1 15
1 16
1 17
1 18
1 19
1 20
1 21
1 22
1 23
1 24
1 25
1 26
1 27
1 28
1 29
1 30
1 31
1 32
1 33
1 34
1 35
1 36
1 37
1 38
1 39
1 40
1 41
1 42
1 43
1 44
1 45
1 46
1 47
1 48
1 49
1 50
1 51
1 52
1 53
1 54
1 55
1 56
1 57
1 58
1 59
1 60
1 61
1 62
1 63
1 64
1 65
1 66
1 67
1 68
1 69
1 70
1 71
1 72
1 73
1 74
1 75
1 76
1 77
1 78
1 79
1 80
1 81
1 82
1 83
1 84
1 85
1 86
1 87
1 88
1 89
1 90
1 91
1 92
1 93
1 94
1 95
1 96
1 97
1 98
1 99
1 100
1 101
1 102
1 103
1 104
1 105
1 106
1 107
1 108
1 109
1 110
1 111
1 112
1 113
1 114
1 115
1 116
1 117
1 118
1 119
1 120
1 121
1 122
1 123
1 124
1 125
1 126
1 127
1 128
1 129
1 130
1 131
1 132
1 133
1 134
1 135
1 136
1 137
1 138
1 139
1 140
1 141
1 142
1 143
1 144
1 145
1 146
1 147
1 148
1 149
1 150
1 151
1 152
1 153
1 154
1 155
1 156
1 157
1 158
1 159
1 160
1 161
1 162
1 163
1 164
1 165
1 166
1 167
1 168
1 169
1 170
1 171
1 172
1 173
1 174
1 175
1 176
1 177
1 178
1 179
1 180
1 181
1 182
1 183
1 184
1 185
1 186
1 187
1 188
1 189
1 190
1 191
1 192
1 193
1 194
1 195
1 196
1 197
1 198
1 199
1 200
1 201
1 202
1 203
1 204
1 205
1 206
1 207
1 208
1 209
1 210
1 211
1 212
1 213
1 214
1 215
1 216
1 217
1 218
1 219
1 220
1 221
1 222
1 223
1 224
1 225
1 226
1 227
1 228
1 229
1 230
1 231
1 232
1 233
1 234
1 235
1 236
1 237
1 238
1 239
1 240
1 241
1 242
1 243
1 244
1 245
1 246
1 247
1 248
1 249
1 250
1 251
1 252
1 253
1 254
1 255
1 256
1 257
1 258
1 259
1 260
1 261
1 262
1 263
1 264
1 265
1 266
1 267
1 268
1 269
1 270
1 271
1 272
1 273
1 274
1 275
1 276
1 277
1 278
1 279
1 280
1 281
1 282
1 283
1 284
1 285
1 286
1 287
1 288
1 289
1 290
1 291
1 292
1 293
1 294
1 295
1 296
1 297
1 298
1 299
1 300
1 301
1 302
1 303
1 304
1 305
1 306
1 307
1 308
1 309
1 310
1 311
1 312
1 313
1 314
1 315
1 316
1 317
1 318
1 319
1 320
1 321
1 322
1 323
1 324
1 325
1 326
1 327
1 328
1 329
1 330
1 331
1 332
1 333
1 334
1 335
1 336
1 337
1 338
1 339
1 340
1 341
1 342
1 343
1 344
1 345
1 346
1 347
1 348
1 349
1 350
1 351
1 352
1 353
1 354
1 355
1 356
1 357
1 358
1 359
1 360
1 361
1 362
1 363
1 364
1 365
1 366
1 367
1 368
1 369
1 370
1 371
1 372
1 373
1 374
1 375
1 376
1 377
1 378
1 379
1 380
1 381
1 382
1 383
1 384
1 385
1 386
1 387
1 388
1 389
1 390
1 391
1 392
1 393
1 394
1 395
1 396
1 397
1 398
1 399
1 400
1 401
1 402
1 403
1 404
1 405
1 406
1 407
1 408
1 409
1 410
1 411
1 412
1 413
1 414
1 415
1 416
1 417
1 418
1 419
1 420
1 421
1 422
1 423
1 424
1 425
1 426
1 427
1 428
1 429
1 430
1 431
1 432
1 433
1 434
1 435
1 436
1 437
1 438
1 439
1 440
1 441
1 442
1 443
1 444
1 445
1 446
1 447
1 448
1 449
1 450
1 451
1 452
1 453
1 454
1 455
1 456
1 457
1 458
1 459
1 460
1 461
1 462
1 463
1 464
1 465
1 466
1 467
1 468
1 469
1 470
1 471
1 472
1 473
1 474
1 475
1 476
1 477
1 478
1 479
1 480
1 481
1 482
1 483
1 484
1 485
1 486
1 487
1 488
1 489
1 490
1 491
1 492
1 493
1 494
1 495
1 496
1 497
1 498
1 499
1 500
1 501
1 502
1 503
1 504
1 505
1 506
1 507
1 508
1 509
1 510
1 511
1 512
1 513
1 514
1 515
1 516
1 517
1 518
1 519
1 520
1 521
1 522
1 523
1 524
1 525
1 526
1 527
1 528
1 529
1 530
1 531
1 532
1 533
1 534
1 535
1 536
1 537
1 538
1 539
1 540
1 541
1 542
1 543
1 544
1 545
1 546
1 547
1 548
1 549
1 550
1 551
1 552
1 553
1 554
1 555
1 556
1 557
1 558
1 559
1 560
1 561
1 562
1 563
1 564
1 565
1 566
1 567
1 568
1 569
1 570
1 571
1 572
1 573
1 574
1 575
1 576
1 577
1 578
1 579
1 580
1 581
1 582
1 583
1 584
1 585
1 586
1 587
1 588
1 589
1 590
1 591
1 592
1 593
1 594
1 595
1 596
1 597
1 598
1 599
1 600
1 601
1 602
1 603
1 604
1 605
1 606
1 607
1 608
1 609
1 610
1 611
1 612
1 613
1 614
1 615
1 616
1 617
1 618
1 619
1 620
1 621
1 622
1 623
1 624
1 625
1 626
1 627
1 628
1 629
1 630
1 631
1 632
1 633
1 634
1 635
1 636
1 637
1 638
1 639
1 640
1 641
1 642
1 643
1 644
1 645
1 646
1 647
1 648
1 649
1 650
1 651
1 652
1 653
1 654
1 655
1 656
1 657
1 658
1 659
1 660
1 661
1 662
1 663
1 664
1 665
1 666
1 667
1 668
1 669
1 670
1 671
1 672
1 673
1 674
1 675
1 676
1 677
1 678
1 679
1 680
1 681
1 682
1 683
1 684
1 685
1 686
1 687
1 688
1 689
1 690
1 691
1 692
1 693
1 694
1 695
1 696
1 697
1 698
1 699
1 700
1 701
1 702
1 703
1 704
1 705
1 706
1 707
1 708
1 709
1 710
1 711
1 712
1 713
1 714
1 715
1 716
1 717
1 718
1 719
1 720
1 721
1 722
1 723
1 724
1 725
1 726
1 727
1 728
1 729
1 730
1 731
1 732
1 733
1 734
1 735
1 736
1 737
1 738
1 739
1 740
1 741
1 742
1 743
1 744
1 745
1 746
1 747
1 748
1 749
1 750
1 751
1 752
1 753
1 754
1 755
1 756
1 757
1 758
1 759
1 760
1 761
1 762
1 763
1 764
1 765
1 766
1 767
1 768
1 769
1 770
1 771
1 772
1 773
1 774
1 775
1 776
1 777
1 778
1 779
1 780
1 781
1 782
1 783
1 784
1 785
1 786
1 787
1 788
1 789
1 790
1 791
1 792
1 793
1 794
1 795
1 796
1 797
1 798
1 799
1 800
1 801
1 802
1 803
1 804
1 805
1 806
1 807
1 808
1 809
1 810
1 811
1 812
1 813
1 814
1 815
1 816
1 817
1 818
1 819
1 820
1 821
1 822
1 823
1 824
1 825
1 826
1 827
1 828
1 829
1 830
1 831
1 832
1 833
1 834
1 835
1 836
1 837
1 838
1 839
1 840
1 841
1 842
1 843
1 844
1 845
1 846
1 847
1 848
1 849
1 850
1 851
1 852
1 853
1 854
1 855
1 856
1 857
1 858
1 859
1 860
1 861
1 862
1 863
1 864
1 865
1 866
1 867
1 868
1 869
1 870
1 871
1 872
1 873
1 874
1 875
1 876
1 877
1 878
1 879
1 880
1 881
1 882
1 883
1 884
1 885
1 886
1 887
1 888
1 889
1 890
1 891
1 892
1 893
1 894
1 895
1 896
1 897
1 898
1 899
1 900
1 901
1 902
1 903
1 904
1 905
1 906
1 907
1 908
1 909
1 910
1 911
1 912
1 913
1 914
1 915
1 916
1 917
1 918
1 919
1 920
1 921
1 922
1 923
1 924
1 925
1 926
1 927
1 928
1 929
1 930
1 931
1 932
1 933
1 934
1 935
1 936
1 937
1 938
1 939
1 940
1 941
1 942
1 943
1 944
1 945
1 946
1 947
1 948
1 949
1 950
1 951
1 952
1 953
1 954
1 955
1 956
1 957
1 958
1 959
1 960
1 961
1 962
1 963
1 964
1 965
1 966
1 967
1 968
1 969
1 970
1 971
1 972
1 973
1 974
1 975
1 976
1 977
1 978
1 979
1 980
1 981
1 982
1 983
1 984
1 985
1 986
1 987
1 988
1 989
1 990
1 991
1 992
1 993
1 994
1 995
1 996
1 997
1 998
1 999
1 1000
1 1001
1 1002
1 1003
1 1004
1 1005
1 1006
1 1007
1 1008
1 1009
1 1010
1 1011
1 1012
1 1013
1 1014
1 1015
1 1016
1 1017
1 1018
1 1019
1 1020
1 1021
1 1022
1 1023
1 1024
1 1025
1 1026
1 1027
1 1028
1 1029
1 1030
1 1031
1 1032
1 1033
1 1034
1 1035
1 1036
1 1037
1 1038
1 1039
1 1040
1 1041
1 1042
1 1043
1 1044
1 1045
1 1046
1 1047
1 1048
1 1049
1 1050
1 1051
1 1052
1 1053
1 1054
1 1055
1 1056
1 1057
1 1058
1 1059
1 1060
1 1061
1 1062
1 1063
1 1064
1 1065
1 1066
1 1067
1 1068
1 1069
1 1070
1 1071
1 1072
1 1073
1 1074
1 1075
1 1076
1 1077
1 1078
1 1079
1 1080
1 1081
1 1082
1 1083
1 1084
1 1085
1 1086
1 1087
1 1088
1 1089
1 1090
1 1091
1 1092
1 1093
1 1094
1 1095
1 1096
1 1097
1 1098
1 1099
1 1100
1 1101
1 1102
1 1103
1 1104
1 1105
1 1106
1 1107
1 1108
1 1109
1 1110
1 1111
1 1112
1 1113
1 1114
1 1115
1 1116
1 1117
1 1118
1 1119
1 1120
1 1121
1 1122
1 1123
1 1124
1 1125
1 1126
1 1127
1 1128
1 1129
1 1130
1 1131
1 1132
1 1133
1 1134
1 1135
1 1136
1 1137
1 1138
1 1139
1 1140
1 1141
1 1142
1 1143
1 1144
1 1145
1 1146
1 1147
1 1148
1 1149
1 1150
1 1151
1 1152
1 1153
1 1154
1 1155
1 1156
1 1157
1 1158
1 1159
1 1160
1 1161
1 1162
1 1163
1 1164
1 1165
1 1166
1 1167
1 1168
1 1169
1 1170
1 1171
1 1172
1 1173
1 1174
1 1175
1 1176
1 1177
1 1178
1 1179
1 1180
1 1181
1 1182
1 1183
1 1184
1 1185
1 1186
1 1187
1 1188
1 1189
1 1190
1 1191
1 1192
1 1193
1 1194
1 1195
1 1196
1 1197
1 1198
1 1199
1 1200
1 1201
1 1202
1 1203
1 1204
1 1205
1 1206
1 1207
1 1208
1 1209
1 1210
1 1211
1 1212
1 1213
1 1214
1 1215
1 1216
1 1217
1 1218
1 1219
1 1220
1 1221
1 1222
1 1223
1 1224
1 1225
1 1226
1 1227
1 1228
1 1229
1 1230
1 1231
1 1232
1 1233
1 1234
1 1235
1 1236
1 1237
1 1238
1 1239
1 1240
1 1241
1 1242
1 1243
1 1244
1 1245
1 1246
1 1247
1 1248
1 1249
1 1250
1 1251
1 1252
1 1253
1 1254
1 1255
1 1256
1 1257
1 1258
1 1259
1 1260
1 1261
1 1262
1 1263
1 1264
1 1265
1 1266
1 1267
1 1268
1 1269
1 1270
1 1271
1 1272
1 1273
1 1274
1 1275
1 1276
1 1277
1 1278
1 1279
1 1280
1 1281
1 1282
1 1283
1 1284
1 1285
1 1286
1 1287
1 1288
1 1289
1 1290
1 1291
1 1292
1 1293
1 1294
1 1295
1 1296
1 1297
1 1298
1 1299
1 1300
1 1301
1 1302
1 1303
1 1304
1 1305
1 1306
1 1307
1 1308
1 1309
1 1310
1 1311
1 1312
1 1313
1 1314
1 1315
1 1316
1 1317
1 1318
1 1319
1 1320
1 1321
1 1322
1 1323
1 1324
1 1325
1 1326
1 1327
1 1328
1 1329
1 1330
1 1331
1 1332
1 1333
1 1334
1 1335
1 1336
1 1337
1 1338
1 1339
1 1340
1 1341
1 1342
1 1343
1 1344
1 1345
1 1346
1 1347
1 1348
1 1349
1 1350
1 1351
1 1352
1 1353
1 1354
1 1355
1 1356
1 1357
1 1358
1 1359
1 1360
1 1361
1 1362
1 1363
1 1364
1 1365
1 1366
1 1367
1 1368
1 1369
1 1370
1 1371
1 1372
1 1373
1 1374
1 1375
1 1376
1 1377
1 1378
1 1379
1 1380
1 1381
1 1382
1 1383
1 1384
1 1385
1 1386
1 1387
1 1388
1 1389
1 1390
1 1391
1 1392
1 1393
1 1394
1 1395
1 1396
1 1397
1 1398
1 1399
1 1400
1 1401
1 1402
1 1403
1 1404
1 1405
1 1406
1 1407
1 1408
1 1409
1 1410
1 1411
1 1412
1 1413
1 1414
1 1415
1 1416
1 1417
1 1418
1 1419
1 1420
1 1421
1 1422
1 1423
1 1424
1 1425
1 1426
1 1427
1 1428
1 1429
1 1430
1 1431
1 1432
1 1433
1 1434
1 1435
1 1436
1 1437
1 1438
1 1439
1 1440
1 1441
1 1442
1 1443
1 1444
1 1445
1 1446
1 1447
1 1448
1 1449
1 1450
1 1451
1 1452
1 1453
1 1454
1 1455
1 1456
1 1457
1 1458
1 1459
1 1460
1 1461
1 1462
1 1463
1 1464
1 1465
1 1466
1 1467
1 1468
1 1469
1 1470
1 1471
1 1472
1 1473
1 1474
1 1475
1 1476
1 1477
1 1478
1 1479
1 1480
1 1481
1 1482
1 1483
1 1484
1 1485
1 1486
1 1487
1 1488
1 1489
1 1490
1 1491
1 1492
1 1493
1 1494
1 1495
1 1496
1 1497
1 1498
1 1499
1 1500
1 1501
1 1502
1 1503
1 1504
1 1505
1 1506
1 1507
1 1508
1 1509
1 1510
1 1511
1 1512
1 1513
1 1514
1 1515
1 1516
1 1517
1 1518
1 1519
1 1520
1 1521
1 1522
1 1523
1 1524
1 1525
1 1526
1 1527
1 1528
1 1529
1 1530
1 1531
1 1532
1 1533
1 1534
1 1535
1 1536
1 1537
1 1538
1 1539
1 1540
1 1541
1 1542
1 1543
1 1544
1 1545
1 1546
1 1547
1 1548
1 1549
1 1550
1 1551
1 1552
1 1553
1 1554
1 1555
1 1556
1 1557
1 1558
1 1559
1 1560
1 1561
1 1562
1 1563
1 1564
1 1565
1 1566
1 1567
1 1568
1 1569
1 1570
1 1571
1 1572
1 1573
1 1574
1 1575
1 1576
1 1577
1 1578
1 1579
1 1580
1 1581
1 1582
1 1583
1 1584
1 1585
1 1586
1 1587
1 1588
1 1589
1 1590
1 1591
1 1592
1 1593
1 1594
1 1595
1 1596
1 1597
1 1598
1 1599
1 1600
1 1601
1 1602
1 1603
1 1604
1 1605
1 1606
1 1607
1 1608
1 1609
1 1610
1 1611
1 1612
1 1613
1 1614
1 1615
1 1616
1 1617
1 1618
1 1619
1 1620
1 1621
1 1622
1 1623
1 1624
1 1625
1 1626
1 1627
1 1628
1 1629
1 1630
1 1631
1 1632
1 1633
1 1634
1 1635
1 1636
1 1637
1 1638
1 1639
1 1640
1 1641
1 1642
1 1643
1 1644
1 1645
1 1646
1 1647
1 1648
1 1649
1 1650
1 1651
1 1652
1 1653
1 1654
1 1655
1 1656
1 1657
1 1658
1 1659
1 1660
1 1661
1 1662
1 1663
1 1664
1 1665
1 1666
1 1667
1 1668
1 1669
1 1670
1 1671
1 1672
1 1673
1 1674
1 1675
1 1676
1 1677
1 1678
1 1679
1 1680
1 1681
1 1682
1 1683
1 1684
1 1685
1 1686
1 1687
1 1688
1 1689
1 1690
1 1691
1 1692
1 1693
1 1694
1 1695
1 1696
1 1697
1 1698
1 1699
1 1700
1 1701
1 1702
1 1703
1 1704
1 1705
1 1706
1 1707
1 1708
1 1709
1 1710
1 1711
1 1712
1 1713
1 1714
1 1715
1 1716
1 1717
1 1718
1 1719
1 1720
1 1721
1 1722
1 1723
1 1724
1 1725
1 1726
1 1727
1 1728
1 1729
1 1730
1 1731
1 1732
1 1733
1 1734
1 1735
1 1736
1 1737
1 1738
1 1739
1 1740
1 1741
1 1742
1 1743
1 1744
1 1745
1 1746
1 1747
1 1748
1 1749
1 1750
1 1751
1 1752
1 1753
1 1754
1 1755
1 1756
1 1757
1 1758
1 1759
1 1760
1 1761
1 1762
1 1763
1 1764
1 1765
1 1766
1 1767
1 1768
1 1769
1 1770
1 1771
1 1772
1 1773
1 1774
1 1775
1 1776
1 1777
1 1778
1 1779
1 1780
1 1781
1 1782
1 1783
1 1784
1 1785
1 1786
1 1787
1 1788
1 1789
1 1790
1 1791
1 1792
1 1793
1 1794
1 1795
1 1796
1 1797
1 1798
1 1799
1 1800
1 1801
1 1802
1 1803
1 1804
1 1805
1 1806
1 1807
1 1808
1 1809
1 1810
1 1811
1 1812
1 1813
1 1814
1 1815
1 1816
1 1817
1 1818
1 1819
1 1820
1 1821
1 1822
1 1823
1 1824
1 1825
1 1826
1 1827
1 1828
1 1829
1 1830
1 1831
1 1832
1 1833
1 1834
1 1835
1 1836
1 1837
1 1838
1 1839
1 1840
1 1841
1 1842
1 1843
1 1844
1 1845
1 1846
1 1847
1 1848
1 1849
1 1850
1 1851
1 1852
1 1853
1 1854
1 1855
1 1856
1 1857
1 1858
1 1859
1 1860
1 1861
1 1862
1 1863
1 1864
1 1865
1 1866
1 1867
1 1868
1 1869
1 1870
1 1871
1 1872
1 1873
1 1874
1 1875
1 1876
1 1877
1 1878
1 1879
1 1880
1 1881
1 1882
1 1883
1 1884
1 1885
1 1886
1 1887
1 1888
1 1889
1 1890
1 1891
1 1892
1 1893
1 1894
1 1895
1 1896
1 1897
1 1898
1 1899
1 1900
1 1901
1 1902
1 1903
1 1904
1 1905
1 1906
1 1907
1 1908
1 1909
1 1910
1 1911
1 1912
1 1913
1 1914
1 1915
1 1916
1 1917
1 1918
1 1919
1 1920
1 1921
1 1922
1 1923
1 1924
1 1925
1 1926
1 1927
1 1928
1 1929
1 1930
1 1931
1 1932
1 1933
1 1934
1 1935
1 1936
1 1937
1 1938
1 1939
1 1940
1 1941
1 1942
1 1943
1 1944
1 1945
1 1946
1 1947
1 1948
1 1949
1 1950
1 1951
1 1952
1 1953
1 1954
1 1955
1 1956
1 1957
1 1958
1 1959
1 1960
1 1961
1 1962
1 1963
1 1964
1 1965
1 1966
1 1967
1 1968
1 1969
1 1970
1 1971
1 1972
1 1973
1 1974
1 1975
1 1976
1 1977
1 1978
1 1979
1 1980
1 1981
1 1982
1 1983
1 1984
1 1985
1 1986
1 1987
1 1988
1 1989
1 1990
1 1991
1 1992
1 1993
1 1994
1 1995
1 1996
1 1997
1 1998
1 1999
1 2000
1 2001
1 2002
1 2003
1 2004
1 2005
1 2006
1 2007
1 2008
1 2009
1 2010
1 2011
1 2012
1 2013
1 2014
1 2015
1 2016
1 2017
1 2018
1 2019
1 2020
1 2021
1 2022
1 2023
1 2024
1 2025
1 2026
1 2027
1 2028
1 2029
1 2030
1 2031
1 2032
1 2033
1 2034
1 2035
1 2036
1 2037
1 2038
1 2039
1 2040
1 2041
1 2042
1 2043
1 2044
1 2045
1 2046
1 2047
1 2048
1 2049
1 2050
1 2051
1 2052
1 2053
1 2054
1 2055
1 2056
1 2057
1 2058
1 2059
1 2060
1 2061
1 2062
1 2063
1 2064
1 2065
1 2066
1 2067
1 2068
1 2069
1 2070
1 2071
1 2072
1 2073
1 2074
1 2075
1 2076
1 2077
1 2078
1 2079
1 2080
1 2081
1 2082
1 2083
1 2084
1 2085
1 2086
1 2087
1 2088
1 2089
1 2090
1 2091
1 2092
1 2093
1 2094
1 2095
1 2096
1 2097
1 2098
1 2099
1 2100
1 2101
1 2102
1 2103
1 2104
1 2105
1 2106
1 2107
1 2108
1 2109
1 2110
1 2111
1 2112
1 2113
1 2114
1 2115
1 2116
1 2117
1 2118
1 2119
1 2120
1 2121
1 2122
1 2123
1 2124
1 2125
1 2126
1 2127
1 2128
1 2129
1 2130
1 2131
1 2132
1 2133
1 2134
1 2135
1 2136
1 2137
1 2138
1 2139
1 2140
1 2141
1 2142
1 2143
1 2144
1 2145
1 2146
1 2147
1 2148
1 2149
1 2150
1 2151
1 2152
1 2153
1 2154
1 2155
1 2156
1 2157
1 2158
1 2159
1 2160
1 2161
1 2162
1 2163
1 2164
1 2165
1 2166
1 2167
1 2168
1 2169
1 2170
1 2171
1 2172
1 2173
1 2174
1 2175
1 2176
1 2177
1 2178
1 2179
1 2180
1 2181
1 2182
1 2183
1 2184
1 2185
1 2186
1 2187
1 2188
1 2189
1 2190
1 2191
1 2192
1 2193
1 2194
1 2195
1 2196
1 2197
1 2198
1 2199
1 2200
1 2201
1 2202
1 2203
1 2204
1 2205
1 2206
1 2207
1 2208
1 2209
1 2210
1 2211
1 2212
1 2213
1 2214
1 2215
1 2216
1 2217
1 2218
1 2219
1 2220
1 2221
1 2222
1 2223
1 2224
1 2225
1 2226
1 2227
1 2228
1 2229
1 2230
1 2231
1 2232
1 2233
1 2234
1 2235
1 2236
1 2237
1 2238
1 2239
1 2240
1 2241
1 2242
1 2243
1 2244
1 2245
1 2246
1 2247
1 2248
1 2249
1 2250
1 2251
1 2252
1 2253
1 2254
1 2255
1 2256
1 2257
1 2258
1 2259
1 2260
1 2261
1 2262
1 2263
1 2264
1 2265
1 2266
1 2267
1 2268
1 2269
1 2270
1 2271
1 2272
1 2273
1 2274
1 2275
1 2276
1 2277
1 2278
1 2279
1 2280
1 2281
1 2282
1 2283
1 2284
1 2285
1 2286
1 2287
1 2288
1 2289
1 2290
1 2291
1 2292
1 2293
1 2294
1 2295
1 2296
1 2297
1 2298
1 2299
1 2300
1 2301
1 2302
1 2303
1 2304
1 2305
1 2306
1 2307
1 2308
1 2309
1 2310
1 2311
1 2312
1 2313
1 2314
1 2315
1 2316
1 2317
1 2318
1 2319
1 2320
1 2321
1 2322
1 2323
1 2324
1 2325
1 2326
1 2327
1 2328
1 2329
1 2330
1 2331
1 2332
1 2333
1 2334
1 2335
1 2336
1 2337
1 2338
1 2339
1 2340
1 2341
1 2342
1 2343
1 2344
1 2345
1 2346
1 2347
1 2348
1 2349
1 2350
1 2351
1 2352
1 2353
1 2354
1 2355
1 2356
1 2357
1 2358
1 2359
1 2360
1 2361
1 2362
1 2363
1 2364
1 2365
1 2366
1 2367
1 2368
1 2369
1 2370
1 2371
1 2372
1 2373
1 2374
1 2375
1 2376
1 2377
1 2378
1 2379
1 2380
1 2381
1 2382
1 2383
1 2384
1 2385
1 2386
1 2387
1 2388
1 2389
1 2390
1 2391
1 2392
1 2393
1 2394
1 2395
1 2396
1 2397
1 2398
1 2399
1 2400
1 2401
1 2402
1 2403
1 2404
1 2405
1 2406
1 2407
1 2408
1 2409
1 2410
1 2411
1 2412
1 2413
1 2414
1 2415
1 2416
1 2417
1 2418
1 2419
1 2420
1 2421
1 2422
1 2423
1 2424
1 2425
1 2426
1 2427
1 2428
1 2429
1 2430
1 2431
1 2432
1 2433
1 2434
1 2435
1 2436
1 2437
1 2438
1 2439
1 2440
1 2441
1 2442
1 2443
1 2444
1 2445
1 2446
1 2447
1 2448
1 2449
1 2450
1 2451
1 2452
1 2453
1 2454
1 2455
1 2456
1 2457
1 2458
1 2459
1 2460
1 2461
1 2462
1 2463
1 2464
1 2465
1 2466
1 2467
1 2468
1 2469
1 2470
1 2471
1 2472
1 2473
1 2474
1 2475
1 2476
1 2477
1 2478
1 2479
1 2480
1 2481
1 2482
1 2483
1 2484
1 2485
1 2486
1 2487
1 2488
1 2489
1 2490
1 2491
1 2492
1 2493
1 2494
1 2495
1 2496
1 2497
1 2498
1 2499
1 2500
1 2501
1 2502
1 2503
1 2504
1 2505
1 2506
1 2507
1 2508
1 2509
1 2510
1 2511
1 2512
1 2513
1 2514
1 2515
1 2516
1 2517
1 2518
1 2519
1 2520
1 2521
1 2522
1 2523
1 2524
1 2525
1 2526
1 2527
1 2528
1 2529
1 2530
1 2531
1 2532
1 2533
1 2534
1 2535
1 2536
1 2537
1 2538
1 2539
1 2540
1 2541
1 2542
1 2543
1 2544
1 2545
1 2546
1 2547
1 2548
1 2549
1 2550
1 2551
1 2552
1 2553
1 2554
1 2555
1 2556
1 2557
1 2558
1 2559
1 2560
1 2561
1 2562
1 2563
1 2564
1 2565
1 2566
1 2567
1 2568
1 2569
1 2570
1 2571
1 2572
1 2573
1 2574
1 2575
1 2576
1 2577
1 2578
1 2579
1 2580
1 2581
1 2582
1 2583
1 2584
1 2585
1 2586
1 2587
1 2588
1 2589
1 2590
1 2591
1 2592
1 2593
1 2594
1 2595
1 2596
1 2597
1 2598
1 2599
1 2600
1 2601
1 2602
1 2603
1 2604
1 2605
1 2606
1 2607
1 2608
1 2609
1 2610
1 2611
1 2612
1 2613
1 2614
1 2615
1 2616
1 2617
1 2618
1 2619
1 2620
1 2621
1 2622
1 2623
1 2624
1 2625
1 2626
1 2627
1 2628
1 2629
1 2630
1 2631
1 2632
1 2633
1 2634
1 2635
1 2636
1 2637
1 2638
1 2639
1 2640
1 2641
1 2642
1 2643
1 2644
1 2645
1 2646
1 2647
1 2648
1 2649
1 2650
1 2651
1 2652
1 2653
1 2654
1 2655
1 2656
1 2657
1 2658
1 2659
1 2660
1 2661
1 2662
1 2663
1 2664
1 2665
1 2666
1 2667
1 2668
1 2669
1 2670
1 2671
1 2672
1 2673
1 2674
1 2675
1 2676
1 2677
1 2678
1 2679
1 2680
1 2681
1 2682
1 2683
1 2684
1 2685
1 2686
1 2687
1 2688
1 2689
1 2690
1 2691
1 2692
1 2693
1 2694
1 2695
1 2696
1 2697
1 2698
1 2699
1 2700
1 2701
1 2702
1 2703
1 2704
1 2705
1 2706
1 2707
1 2708
1 2709
1 2710
1 2711
1 2712
1 2713
1 2714
1 2715
1 2716
1 2717
1 2718
1 2719
1 2720
1 2721
1 2722
1 2723
1 2724
1 2725
1 2726
1 2727
1 2728
1 2729
1 2730
1 2731
1 2732
1 2733
1 2734
1 2735
1 2736
1 2737
1 2738
1 2739
1 2740
1 2741
1 2742
1 2743
1 2744
1 2745
1 2746
1 2747
1 2748
1 2749
1 2750
1 2751
1 2752
1 2753
1 2754
1 2755
1 2756
1 2757
1 2758
1 2759
1 2760
1 2761
1 2762
1 2763
1 2764
1 2765
1 2766
1 2767
1 2768
1 2769
1 2770
1 2771
1 2772
1 2773
1 2774
1 2775
1 2776
1 2777
1 2778
1 2779
1 2780
1 2781
1 2782
1 2783
1 2784
1 2785
1 2786
1 2787
1 2788
1 2789
1 2790
1 2791
1 2792
1 2793
1 2794
1 2795
1 2796
1 2797
1 2798
1 2799
1 2800
1 2801
1 2802
1 2803
1 2804
1 2805
1 2806
1 2807
1 2808
1 2809
1 2810
1 2811
1 2812
1 2813
1 2814
1 2815
1 2816
1 2817
1 2818
1 2819
1 2820
1 2821
1 2822
1 2823
1 2824
1 2825
1 2826
1 2827
1 2828
1 2829
1 2830
1 2831
1 2832
1 2833
1 2834
1 2835
1 2836
1 2837
1 2838
1 2839
1 2840
1 2841
1 2842
1 2843
1 2844
1 2845
1 2846
1 2847
1 2848
1 2849
1 2850
1 2851
1 2852
1 2853
1 2854
1 2855
1 2856
1 2857
1 2858
1 2859
1 2860
1 2861
1 2862
1 2863
1 2864
1 2865
1 2866
1 2867
1 2868
1 2869
1 2870
1 2871
1 2872
1 2873
1 2874
1 2875
1 2876
1 2877
1 2878
1 2879
1 2880
1 2881
1 2882
1 2883
1 2884
1 2885
1 2886
1 2887
1 2888
1 2889
1 2890
1 2891
1 2892
1 2893
1 2894
1 2895
1 2896
1 2897
1 2898
1 2899
1 2900
1 2901
1 2902
1 2903
1 2904
1 2905
1 2906
1 2907
1 2908
1 2909
1 2910
1 2911
1 2912
1 2913
1 2914
1 2915
1 2916
1 2917
1 2918
1 2919
1 2920
1 2921
1 2922
1 2923
1 2924
1 2925
1 2926
1 2927
1 2928
1 2929
1 2930
1 2931
1 2932
1 2933
1 2934
1 2935
1 2936
1 2937
1 2938
1 2939
1 2940
1 2941
1 2942
1 2943
1 2944
1 2945
1 2946
1 2947
1 2948
1 2949
1 2950
1 2951
1 2952
1 2953
1 2954
1 2955
1 2956
1 2957
1 2958
1 2959
1 2960
1 2961
1 2962
1 2963
1 2964
1 2965
1 2966
1 2967
1 2968
1 2969
1 2970
1 2971
1 2972
1 2973
1 2974
1 2975
1 2976
1 2977
1 2978
1 2979
1 2980
1 2981
1 2982
1 2983
1 2984
1 2985
1 2986
1 2987
1 2988
1 2989
1 2990
1 2991
1 2992
1 2993
1 2994
1 2995
1 2996
1 2997
1 2998
1 2999
1 3000
1 3001
1 3002
1 3003
1 3004
1 3005
1 3006
1 3007
1 3008
1 3009
1 3010
1 3011
1 3012
1 3013
1 3014
1 3015
1 3016
1 3017
1 3018
1 3019
1 3020
1 3021
1 3022
1 3023
1 3024
1 3025
1 3026
1 3027
1 3028
1 3029
1 3030
1 3031
1 3032
1 3033
1 3034
1 3035
1 3036
1 3037
1 3038
1 3039
1 3040
1 3041
1 3042
1 3043
1 3044
1 3045
1 3046
1 3047
1 3048
1 3049
1 3050
1 3051
1 3052
1 3053
1 3054
1 3055
1 3056
1 3057
1 3058
1 3059
1 3060
1 3061
1 3062
1 3063
1 3064
1 3065
1 3066
1 3067
1 3068
1 3069
1 3070
1 3071
1 3072
1 3073
1 3074
1 3075
1 3076
1 3077
1 3078
1 3079
1 3080
1 3081
1 3082
1 3083
1 3084
1 3085
1 3086
1 3087
1 3088
1 3089
1 3090
1 3091
1 3092
1 3093
1 3094
1 3095
1 3096
1 3097
1 3098
1 3099
1 3100
1 3101
1 3102
1 3103
1 3104
1 3105
1 3106
1 3107
1 3108
1 3109
1 3110
1 3111
1 3112
1 3113
1 3114
1 3115
1 3116
1 3117
1 3118
1 3119
1 3120
1 3121
1 3122
1 3123
1 3124
1 3125
1 3126
1 3127
1 3128
1 3129
1 3130
1 3131
1 3132
1 3133
1 3134
1 3135
1 3136
1 3137
1 3138
1 3139
1 3140
1 3141
1 3142
1 3143
1 3144
1 3145
1 3146
1 3147
1 3148
1 3149
1 3150
1 3151
1 3152
1 3153
1 3154
1 3155
1 3156
1 3157
1 3158
1 3159
1 3160
1 3161
1 3162
1 3163
1 3164
1 3165
1 3166
1 3167
1 3168
1 3169
1 3170
1 3171
1 3172
1 3173
1 3174
1 3175
1 3176
1 3177
1 3178
1 3179
1 3180
1 3181
1 3182
1 3183
1 3184
1 3185
1 3186
1 3187
1 3188
1 3189
1 3190
1 3191
1 3192
1 3193
1 3194
1 3195
1 3196
1 3197
1 3198
1 3199
1 3200
1 3201
1 3202
1 3203
1 3204
1 3205
1 3206
1 3207
1 3208
1 3209
1 3210
1 3211
1 3212
1 3213
1 3214
1 3215
1 3216
1 3217
1 3218
1 3219
1 3220
1 3221
1 3222
1 3223
1 3224
1 3225
1 3226
1 3227
1 3228
1 3229
1 3230
1 3231
1 3232
1 3233
1 3234
1 3235
1 3236
1 3237
1 3238
1 3239
1 3240
1 3241
1 3242
1 3243
1 3244
1 3245
1 3246
1 3247
1 3248
1 3249
1 3250
1 3251
1 3252
1 3253
1 3254
1 3255
1 3256
1 3257
1 3258
1 3259
1 3260
1 3261
1 3262
1 3263
1 3264
1 3265
1 3266
1 3267
1 3268
1 3269
1 3270
1 3271
1 3272
1 3273
1 3274
1 3275
1 3276
1 3277
1 3278
1 3279
1 3280
1 3281
1 3282
1 3283
1 3284
1 3285
1 3286
1 3287
1 3288
1 3289
1 3290
1 3291
1 3292
1 3293
1 3294
1 3295
1 3296
1 3297
1 3298
1 3299
1 3300
1 3301
1 3302
1 3303
1 3304
1 3305
1 3306
1 3307
1 3308
1 3309
1 3310
1 3311
1 3312
1 3313
1 3314
1 3315
1 3316
1 3317
1 3318
1 3319
1 3320
1 3321
1 3322
1 3323
1 3324
1 3325
1 3326
1 3327
1 3328
1 3329
1 3330
1 3331
1 3332
1 3333
1 3334
1 3335
1 3336
1 3337
1 3338
1 3339
1 3340
1 3341
1 3342
1 3343
1 3344
1 3345
1 3346
1 3347
1 3348
1 3349
1 3350
1 3351
1 3352
1 3353
1 3354
1 3355
1 3356
1 3357
1 3358
1 3359
1 3360
1 3361
1 3362
1 3363
1 3364
1 3365
1 3366
1 3367
1 3368
1 3369
1 3370
1 3371
1 3372
1 3373
1 3374
1 3375
1 3376
1 3377
1 3378
1 3379
1 3380
1 3381
1 3382
1 3383
1 3384
1 3385
1 3386
1 3387
1 3388
1 3389
1 3390
1 3391
1 3392
1 3393
1 3394
1 3395
1 3396
1 3397
1 3398
1 3399
1 3400
1 3401
1 3402
1 3403
1 3404
1 3405
1 3406
1 3407
1 3408
1 3409
1 3410
1 3411
1 3412
1 3413
1 3414
1 3415
1 3416
1 3417
1 3418
1 3419
1 3420
1 3421
1 3422
1 3423
1 3424
1 3425
1 3426
1 3427
1 3428
1 3429
1 3430
1 3431
1 3432
1 3433
1 3434
1 3435
1 3436
1 3437
1 3438
1 3439
1 3440
1 3441
1 3442
1 3443
1 3444
1 3445
1 3446
1 3447
1 3448
1 3449
1 3450
1 3451
1 3452
1 3453
1 3454
1 3455
1 3456
1 3457
1 3458
1 3459
1 3460
1 3461
1 3462
1 3463
1 3464
1 3465
1 3466
1 3467
1 3468
1 3469
1 3470
1 3471
1 3472
1 3473
1 3474
1 3475
1 3476
1 3477
1 3478
1 3479
1 3480
1 3481
1 3482
1 3483
1 3484
1 3485
1 3486
1 3487
1 3488
1 3489
1 3490
1 3491
1 3492
1 3493
1 3494
1 3495
1 3496
1 3497
1 3498
1 3499
1 3500
1 3501
1 3502
1 3503
1 3504
1 3505
1 3506
1 3507
1 3508
1 3509
1 3510
1 3511
1 3512
1 3513
1 3514
1 3515
1 3516
1 3517
1 3518
1 3519
1 3520
1 3521
1 3522
1 3523
1 3524
1 3525
1 3526
1 3527
1 3528
1 3529
1 3530
1 3531
1 3532
1 3533
1 3534
1 3535
1 3536
1 3537
1 3538
1 3539
1 3540
1 3541
1 3542
1 3543
1 3544
1 3545
1 3546
1 3547
1 3548
1 3549
1 3550
1 3551
1 3552
1 3553
1 3554
1 3555
1 3556
1 3557
1 3558
1 3559
1 3560
1 3561
1 3562
1 3563
1 3564
1 3565
1 3566
1 3567
1 3568
1 3569
1 3570
1 3571
1 3572
1 3573
1 3574
1 3575
1 3576
1 3577
1 3578
1 3579
1 3580
1 3581
1 3582
1 3583
1 3584
1 3585
1 3586
1 3587
1 3588
1 3589
1 3590
1 3591
1 3592
1 3593
1 3594
1 3595
1 3596
1 3597
1 3598
1 3599
1 3600
1 3601
1 3602
1 3603
1 3604
1 3605
1 3606
1 3607
1 3608
1 3609
1 3610
1 3611
1 3612
1 3613
1 3614
1 3615
1 3616
1 3617
1 3618
1 3619
1 3620
1 3621
1 3622
1 3623
1 3624
1 3625
1 3626
1 3627
1 3628
1 3629
1 3630
1 3631
1 3632
1 3633
1 3634
1 3635
1 3636
1 3637
1 3638
1 3639
1 3640
1 3641
1 3642
1 3643
1 3644
1 3645
1 3646
1 3647
1 3648
1 3649
1 3650
1 3651
1 3652
1 3653
1 3654
1 3655
1 3656
1 3657
1 3658
1 3659
1 3660
1 3661
1 3662
1 3663
1 3664
1 3665
1 3666
1 3667
1 3668
1 3669
1 3670
1 3671
1 3672
1 3673
1 3674
1 3675
1 3676
1 3677
1 3678
1 3679
1 3680
1 3681
1 3682
1 3683
1 3684
1 3685
1 3686
1 3687
1 3688
1 3689
1 3690
1 3691
1 3692
1 3693
1 3694
1 3695
1 3696
1 3697
1 3698
1 3699
1 3700
1 3701
1 3702
1 3703
1 3704
1 3705
1 3706
1 3707
1 3708
1 3709
1 3710
1 3711
1 3712
1 3713
1 3714
1 3715
1 3716
1 3717
1 3718
1 3719
1 3720
1 3721
1 3722
1 3723
1 3724
1 3725
1 3726
1 3727
1 3728
1 3729
1 3730
1 3731
1 3732
1 3733
1 3734
1 3735
1 3736
1 3737
1 3738
1 3739
1 3740
1 3741
1 3742
1 3743
1 3744
1 3745
1 3746
1 3747
1 3748
1 3749
1 3750
1 3751
1 3752
1 3753
1 3754
1 3755
1 3756
1 3757
1 3758
1 3759
1 3760
1 3761
1 3762
1 3763
1 3764
1 3765
1 3766
1 3767
1 3768
1 3769
1 3770
1 3771
1 3772
1 3773
1 3774
1 3775
1 3776
1 3777
1 3778
1 3779
1 3780
1 3781
1 3782
1 3783
1 3784
1 3785
1 3786
1 3787
1 3788
1 3789
1 3790
1 3791
1 3792
1 3793
1 3794
1 3795
1 3796
1 3797
1 3798
1 3799
1 3800
1 3801
1 3802
1 3803
1 3804
1 3805
1 3806
1 3807
1 3808
1 3809
1 3810
1 3811
1 3812
1 3813
1 3814
1 3815
1 3816
1 3817
1 3818
1 3819
1 3820
1 3821
1 3822
1 3823
1 3824
1 3825
1 3826
1 3827
1 3828
1 3829
1 3830
1 3831
1 3832
1 3833
1 3834
1 3835
1 3836
1 3837
1 3838
1 3839
1 3840
1 3841
1 3842
1 3843
1 3844
1 3845
1 3846
1 3847
1 3848
1 3849
1 3850
1 3851
1 3852
1 3853
1 3854
1 3855
1 3856
1 3857
1 3858
1 3859
1 3860
1 3861
1 3862
1 3863
1 3864
1 3865
1 3866
1 3867
1 3868
1 3869
1 3870
1 3871
1 3872
1 3873
1 3874
1 3875
1 3876
1 3877
1 3878
1 3879
1 3880
1 3881
1 3882
1 3883
1 3884
1 3885
1 3886
1 3887
1 3888
1 3889
1 3890
1 3891
1 3892
1 3893
1 3894
1 3895
1 3896
1 3897
1 3898
1 3899
1 3900
1 3901
1 3902
1 3903
1 3904
1 3905
1 3906
1 3907
1 3908
1 3909
1 3910
1 3911
1 3912
1 3913
1 3914
1 3915
1 3916
1 3917
1 3918
1 3919
1 3920
1 3921
1 3922
1 3923
1 3924
1 3925
1 3926
1 3927
1 3928
1 3929
1 3930
1 3931
1 3932
1 3933
1 3934
1 3935
1 3936
1 3937
1 3938
1 3939
1 3940
1 3941
1 3942
1 3943
1 3944
1 3945
1 3946
1 3947
1 3948
1 3949
1 3950
1 3951
1 3952
1 3953
1 3954
1 3955
1 3956
1 3957
1 3958
1 3959
1 3960
1 3961
1 3962
1 3963
1 3964
1 3965
1 3966
1 3967
1 3968
1 3969
1 3970
1 3971
1 3972
1 3973
1 3974
1 3975
1 3976
1 3977
1 3978
1 3979
1 3980
1 3981
1 3982
1 3983
1 3984
1 3985
1 3986
1 3987
1 3988
1 3989
1 3990
1 3991
1 3992
1 3993
1 3994
1 3995
1 3996
1 3997
1 3998
1 3999
1 4000
1 4001
1 4002
1 4003
1 4004
1 4005
1 4006
1 4007
1 4008
1 4009
1 4010
1 4011
1 4012
1 4013
1 4014
1 4015
1 4016
1 4017
1 4018
1 4019
1 4020
1 4021
1 4022
1 4023
1 4024
1 4025
1 4026
1 4027
1 4028
1 4029
1 4030
1 4031
1 4032
1 4033
1 4034
1 4035
1 4036
1 4037
1 4038
1 4039
1 4040
1 4041
1 4042
1 4043
1 4044
1 4045
1 4046
1 4047
1 4048
1 4049
1 4050
1 4051
1 4052
1 4053
1 4054
1 4055
1 4056
1 4057
1 4058
1 4059
1 4060
1 4061
1 4062
1 4063
1 4064
1 4065
1 4066
1 4067
1 4068
1 4069
1 4070
1 4071
1 4072
1 4073
1 4074
1 4075
1 4076
1 4077
1 4078
1 4079
1 4080
1 4081
1 4082
1 4083
1 4084
1 4085
1 4086
1 4087
1 4088
1 4089
1 4090
1 4091
1 4092
1 4093
1 4094
1 4095
1 4096
1 4097
1 4098
1 4099
1 4100
1 4101
1 4102
1 4103
1 4104
1 4105
1 4106
1 4107
1 4108
1 4109
1 4110
1 4111
1 4112
1 4113
1 4114
1 4115
1 4116
1 4117
1 4118
1 4119
1 4120
1 4121
1 4122
1 4123
1 4124
1 4125
1 4126
1 4127
1 4128
1 4129
1 4130
1 4131
1 4132
1 4133
1 4134
1 4135
1 4136
1 4137
1 4138
1 4139
1 4140
1 4141
1 4142
1 4143
1 4144
1 4145
1 4146
1 4147
1 4148
1 4149
1 4150
1 4151
1 4152
1 4153
1 4154
1 4155
1 4156
1 4157
1 4158
1 4159
1 4160
1 4161
1 4162
1 4163
1 4164
1 4165
1 4166
1 4167
1 4168
1 4169
1 4170
1 4171
1 4172
1 4173
1 4174
1 4175
1 4176
1 4177
1 4178
1 4179
1 4180
1 4181
1 4182
1 4183
1 4184
1 4185
1 4186
1 4187
1 4188
1 4189
1 4190
1 4191
1 4192
1 4193
1 4194
1 4195
1 4196
1 4197
1 4198
1 4199
1 4200
1 4201
1 4202
1 4203
1 4204
1 4205
1 4206
1 4207
1 4208
1 4209
1 4210
1 4211
1 4212
1 4213
1 4214
1 4215
1 4216
1 4217
1 4218
1 4219
1 4220
1 4221
1 4222
1 4223
1 4224
1 4225
1 4226
1 4227
1 4228
1 4229
1 4230
1 4231
1 4232
1 4233
1 4234
1 4235
1 4236
1 4237
1 4238
1 4239
1 4240
1 4241
1 4242
1 4243
1 4244
1 4245
1 4246
1 4247
1 4248
1 4249
1 4250
1 4251
1 4252
1 4253
1 4254
1 4255
1 4256
1 4257
1 4258
1 4259
1 4260
1 4261
1 4262
1 4263
1 4264
1 4265
1 4266
1 4267
1 4268
1 4269
1 4270
1 4271
1 4272
1 4273
1 4274
1 4275
1 4276
1 4277
1 4278
1 4279
1 4280
1 4281
1 4282
1 4283
1 4284
1 4285
1 4286
1 4287
1 4288
1 4289
1 4290
1 4291
1 4292
1 4293
1 4294
1 4295
1 4296
1 4297
1 4298
1 4299
1 4300
1 4301
1 4302
1 4303
1 4304
1 4305
1 4306
1 4307
1 4308
1 4309
1 4310
1 4311
1 4312
1 4313
1 4314
1 4315
1 4316
1 4317
1 4318
1 4319
1 4320
1 4321
1 4322
1 4323
1 4324
1 4325
1 4326
1 4327
1 4328
1 4329
1 4330
1 4331
1 4332
1 4333
1 4334
1 4335
1 4336
1 4337
1 4338
1 4339
1 4340
1 4341
1 4342
1 4343
1 4344
1 4345
1 4346
1 4347
1 4348
1 4349
1 4350
1 4351
1 4352
1 4353
1 4354
1 4355
1 4356
1 4357
1 4358
1 4359
1 4360
1 4361
1 4362
1 4363
1 4364
1 4365
1 4366
1 4367
1 4368
1 4369
1 4370
1 4371
1 4372
1 4373
1 4374
1 4375
1 4376
1 4377
1 4378
1 4379
1 4380
1 4381
1 4382
1 4383
1 4384
1 4385
1 4386
1 4387
1 4388
1 4389
1 4390
1 4391
1 4392
1 4393
1 4394
1 4395
1 4396
1 4397
1 4398
1 4399
1 4400
1 4401
1 4402
1 4403
1 4404
1 4405
1 4406
1 4407
1 4408
1 4409
1 4410
1 4411
1 4412
1 4413
1 4414
1 4415
1 4416
1 4417
1 4418
1 4419
1 4420
1 4421
1 4422
1 4423
1 4424
1 4425
1 4426
1 4427
1 4428
1 4429
1 4430
1 4431
1 4432
1 4433
1 4434
1 4435
1 4436
1 4437
1 4438
1 4439
1 4440
1 4441
1 4442
1 4443
1 4444
1 4445
1 4446
1 4447
1 4448
1 4449
1 4450
1 4451
1 4452
1 4453
1 4454
1 4455
1 4456
1 4457
1 4458
1 4459
1 4460
1 4461
1 4462
1 4463
1 4464
1 4465
1 4466
1 4467
1 4468
1 4469
1 4470
1 4471
1 4472
1 4473
1 4474
1 4475
1 4476
1 4477
1 4478
1 4479
1 4480
1 4481
1 4482
1 4483
1 4484
1 4485
1 4486
1 4487
1 4488
1 4489
1 4490
1 4491
1 4492
1 4493
1 4494
1 4495
1 4496
1 4497
1 4498
1 4499
1 4500
1 4501
1 4502
1 4503
1 4504
1 4505
1 4506
1 4507
1 4508
1 4509
1 4510
1 4511
1 4512
1 4513
1 4514
1 4515
1 4516
1 4517
1 4518
1 4519
1 4520
1 4521
1 4522
1 4523
1 4524
1 4525
1 4526
1 4527
1 4528
1 4529
1 4530
1 4531
1 4532
1 4533
1 4534
1 4535
1 4536
1 4537
1 4538
1 4539
1 4540
1 4541
1 4542
1 4543
1 4544
1 4545
1 4546
1 4547
1 4548
1 4549
1 4550
1 4551
1 4552
1 4553
1 4554
1 4555
1 4556
1 4557
1 4558
1 4559
1 4560
1 4561
1 4562
1 4563
1 4564
1 4565
1 4566
1 4567
1 4568
1 4569
1 4570
1 4571
1 4572
1 4573
1 4574
1 4575
1 4576
1 4577
1 4578
1 4579
1 4580
1 4581
1 4582
1 4583
1 4584
1 4585
1 4586
1 4587
1 4588
1 4589
1 4590
1 4591
1 4592
1 4593
1 4594
1 4595
1 4596
1 4597
1 4598
1 4599
1 4600
1 4601
1 4602
1 4603
1 4604
1 4605
1 4606
1 4607
1 4608
1 4609
1 4610
1 4611
1 4612
1 4613
1 4614
1 4615
1 4616
1 4617
1 4618
1 4619
1 4620
1 4621
1 4622
1 4623
1 4624
1 4625
1 4626
1 4627
1 4628
1 4629
1 4630
1 4631
1 4632
1 4633
1 4634
1 4635
1 4636
1 4637
1 4638
1 4639
1 4640
1 4641
1 4642
1 4643
1 4644
1 4645
1 4646
1 4647
1 4648
1 4649
1 4650
1 4651
1 4652
1 4653
1 4654
1 4655
1 4656
1 4657
1 4658
1 4659
1 4660
1 4661
1 4662
1 4663
1 4664
1 4665
1 4666
1 4667
1 4668
1 4669
1 4670
1 4671
1 4672
1 4673
1 4674
1 4675
1 4676
1 4677
1 4678
1 4679
1 4680
1 4681
1 4682
1 4683
1 4684
1 4685
1 4686
1 4687
1 4688
1 4689
1 4690
1 4691
1 4692
1 4693
1 4694
1 4695
1 4696
1 4697
1 4698
1 4699
1 4700
1 4701
1 4702
1 4703
1 4704
1 4705
1 4706
1 4707
1 4708
1 4709
1 4710
1 4711
1 4712
1 4713
1 4714
1 4715
1 4716
1 4717
1 4718
1 4719
1 4720
1 4721
1 4722
1 4723
1 4724
1 4725
1 4726
1 4727
1 4728
1 4729
1 4730
1 4731
1 4732
1 4733
1 4734
1 4735
1 4736
1 4737
1 4738
1 4739
1 4740
1 4741
1 4742
1 4743
1 4744
1 4745
1 4746
1 4747
1 4748
1 4749
1 4750
1 4751
1 4752
1 4753
1 4754
1 4755
1 4756
1 4757
1 4758
1 4759
1 4760
1 4761
1 4762
1 4763
1 4764
1 4765
1 4766
1 4767
1 4768
1 4769
1 4770
1 4771
1 4772
1 4773
1 4774
1 4775
1 4776
1 4777
1 4778
1 4779
1 4780
1 4781
1 4782
1 4783
1 4784
1 4785
1 4786
1 4787
1 4788
1 4789
1 4790
1 4791
1 4792
1 4793
1 4794
1 4795
1 4796
1 4797
1 4798
1 4799
1 4800
1 4801
1 4802
1 4803
1 4804
1 4805
1 4806
1 4807
1 4808
1 4809
1 4810
1 4811
1 4812
1 4813
1 4814
1 4815
1 4816
1 4817
1 4818
1 4819
1 4820
1 4821
1 4822
1 4823
1 4824
1 4825
1 4826
1 4827
1 4828
1 4829
1 4830
1 4831
1 4832
1 4833
1 4834
1 4835
1 4836
1 4837
1 4838
1 4839
1 4840
1 4841
1 4842
1 4843
1 4844
1 4845
1 4846
1 4847
1 4848
1 4849
1 4850
1 4851
1 4852
1 4853
1 4854
1 4855
1 4856
1 4857
1 4858
1 4859
1 4860
1 4861
1 4862
1 4863
1 4864
1 4865
1 4866
1 4867
1 4868
1 4869
1 4870
1 4871
1 4872
1 4873
1 4874
1 4875
1 4876
1 4877
1 4878
1 4879
1 4880
1 4881
1 4882
1 4883
1 4884
1 4885
1 4886
1 4887
1 4888
1 4889
1 4890
1 4891
1 4892
1 4893
1 4894
1 4895
1 4896
1 4897
1 4898
1 4899
1 4900
1 4901
1 4902
1 4903
1 4904
1 4905
1 4906
1 4907
1 4908
1 4909
1 4910
1 4911
1 4912
1 4913
1 4914
1 4915
1 4916
1 4917
1 4918
1 4919
1 4920
1 4921
1 4922
1 4923
1 4924
1 4925
1 4926
1 4927
1 4928
1 4929
1 4930
1 4931
1 4932
1 4933
1 4934
1 4935
1 4936
1 4937
1 4938
1 4939
1 4940
1 4941
1 4942
1 4943
1 4944
1 4945
1 4946
1 4947
1 4948
1 4949
1 4950
1 4951
1 4952
1 4953
1 4954
1 4955
1 4956
1 4957
1 4958
1 4959
1 4960
1 4961
1 4962
1 4963
1 4964
1 4965
1 4966
1 4967
1 4968
1 4969
1 4970
1 4971
1 4972
1 4973
1 4974
1 4975
1 4976
1 4977
1 4978
1 4979
1 4980
1 4981
1 4982
1 4983
1 4984
1 4985
1 4986
1 4987
1 4988
1 4989
1 4990
1 4991
1 4992
1 4993
1 4994
1 4995
1 4996
1 4997
1 4998
1 4999
CELL_TYPES 5000
1 
1 
1 
1 
1 
1 
1 
1 
1 
1 
1 
1 
1 
1 
1 
1 
1 
1 
1 
1 
1 
1 
1 
1 
1 
1 
1 
1 
1 
1 
1 
1 
1 
1 
1 
1 
1 
1 
1 
1 
1 
1 
1 
1 
1 
1 
1 
1 
1 
1 
1 
1 
1 
1 
1 
1 
1 
1 
1 
1 
1 
1 
1 
1 
1 
1 
1 
1 
1 
1 
1 
1 
1 
1 
1 
1 
1 
1 
1 
1 
1 
1 
1 
1 
1 
1 
1 
1 
1 
1 
1 
1 
1 
1 
1 
1 
1 
1 
1 
1 
1 
1 
1 
1 
1 
1 
1 
1 
1 
1 
1 
1 
1 
1 
1 
1 
1 
1 
1 
1 
1 
1 
1 
1 
1 
1 
1 
1 
1 
1 
1 
1 
1 
1 
1 
1 
1 
1 
1 
1 
1 
1 
1 
1 
1 
1 
1 
1 
1 
1 
1 
1 
1 
1 
1 
1 
1 
1 
1 
1 
1 
1 
1 
1 
1 
1 
1 
1 
1 
1 
1 
1 
1 
1 
1 
1 
1 
1 
1 
1 
1 
1 
1 
1 
1 
1 
1 
1 
1 
1 
1 
1 
1 
1 
1 
1 
1 
1 
1 
1 
1 
1 
1 
1 
1 
1 
1 
1 
1 
1 
1 
1 
1 
1 
1 
1 
1 
1 
1 
1 
1 
1 
1 
1 
1 
1 
1 
1 
1 
1 
1 
1 
1 
1 
1 
1 
1 
1 
1 
1 
1 
1 
1 
1 
1 
1 
1 
1 
1 
1 
1 
1 
1 
1 
1 
1 
1 
1 
1 
1 
1 
1 
1 
1 
1 
1 
1 
1 
1 
1 
1 
1 
1 
1 
1 
1 
1 
1 
1 
1 
1 
1 
1 
1 
1 
1 
1 
1 
1 
1 
1 
1 
1 
1 
1 
1 
1 
1 
1 
1 
1 
1 
1 
1 
1 
1 
1 
1 
1 
1 
1 
1 
1 
1 
1 
1 
1 
1 
1 
1 
1 
1 
1 
1 
1 
1 
1 
1 
1 
1 
1 
1 
1 
1 
1 
1 
1 
1 
1 
1 
1 
1 
1 
1 
1 
1 
1 
1 
1 
1 
1 
1 
1 
1 
1 
1 
1 
1 
1 
1 
1 
1 
1 
1 
1 
1 
1 
1 
1 
1 
1 
1 
1 
1 
1 
1 
1 
1 
1 
1 
1 
1 
1 
1 
1 
1 
1 
1 
1 
1 
1 
1 
1 
1 
1 
1 
1 
1 
1 
1 
1 
1 
1 
1 
1 
1 
1 
1 
1 
1 
1 
1 
1 
1 
1 
1 
1 
1 
1 
1 
1 
1 
1 
1 
1 
1 
1 
1 
1 
1 
1 
1 
1 
1 
1 
1 
1 
1 
1 
1 
1 
1 
1 
1 
1 
1 
1 
1 
1 
1 
1 
1 
1 
1 
1 
1 
1 
1 
1 
1 
1 
1 
1 
1 
1 
1 
1 
1 
1 
1 
1 
1 
1 
1 
1 
1 
1 
1 
1 
1 
1 
1 
1 
1 
1 
1 
1 
1 
1 
1 
1 
1 
1 
1 
1 
1 
1 
1 
1 
1 
1 
1 
1 
1 
1 
1 
1 
1 
1 
1 
1 
1 
1 
1 
1 
1 
1 
1 
1 
1 
1 
1 
1 
1 
1 
1 
1 
1 
1 
1 
1 
1 
1 
1 
1 
1 
1 
1 
1 
1 
1 
1 
1 
1 
1 
1 
1 
1 
1 
1 
1 
1 
1 
1 
1 
1 
1 
1 
1 
1 
1 
1 
1 
1 
1 
1 
1 
1 
1 
1 
1 
1 
1 
1 
1 
1 
1 
1 
1 
1 
1 
1 
1 
1 
1 
1 
1 
1 
1 
1 
1 
1 
1 
1 
1 
1 
1 
1 
1 
1 
1 
1 
1 
1 
1 
1 
1 
1 
1 
1 
1 
1 
1 
1 
1 
1 
1 
1 
1 
1 
1 
1 
1 
1 
1 
1 
1 
1 
1 
1 
1 
1 
1 
1 
1 
1 
1 
1 
1 
1 
1 
1 
1 
1 
1 
1 
1 
1 
1 
1 
1 
1 
1 
1 
1 
1 
1 
1 
1 
1 
1 
1 
1 
1 
1 
1 
1 
1 
1 
1 
1 
1 
1 
1 
1 
1 
1 
1 
1 
1 
1 
1 
1 
1 
1 
1 
1 
1 
1 
1 
1 
1 
1 
1 
1 
1 
1 
1 
1 
1 
1 
1 
1 
1 
1 
1 
1 
1 
1 
1 
1 
1 
1 
1 
1 
1 
1 
1 
1 
1 
1 
1 
1 
1 
1 
1 
1 
1 
1 
1 
1 
1 
1 
1 
1 
1 
1 
1 
1 
1 
1 
1 
1 
1 
1 
1 
1 
1 
1 
1 
1 
1 
1 
1 
1 
1 
1 
1 
1 
1 
1 
1 
1 
1 
1 
1 
1 
1 
1 
1 
1 
1 
1 
1 
1 
1 
1 
1 
1 
1 
1 
1 
1 
1 
1 
1 
1 
1 
1 
1 
1 
1 
1 
1 
1 
1 
1 
1 
1 
1 
1 
1 
1 
1 
1 
1 
1 
1 
1 
1 
1 
1 
1 
1 
1 
1 
1 
1 
1 
1 
1 
1 
1 
1 
1 
1 
1 
1 
1 
1 
1 
1 
1 
1 
1 
1 
1 
1 
1 
1 
1 
1 
1 
1 
1 
1 
1 
1 
1 
1 
1 
1 
1 
1 
1 
1 
1 
1 
1 
1 
1 
1 
1 
1 
1 
1 
1 
1 
1 
1 
1 
1 
1 
1 
1 
1 
1 
1 
1 
1 
1 
1 
1 
1 
1 
1 
1 
1 
1 
1 
1 
1 
1 
1 
1 
1 
1 
1 
1 
1 
1 
1 
1 
1 
1 
1 
1 
1 
1 
1 
1 
1 
1 
1 
1 
1 
1 
1 
1 
1 
1 
1 
1 
1 
1 
1 
1 
1 
1 
1 
1 
1 
1 
1 
1 
1 
1 
1 
1 
1 
1 
1 
1 
1 
1 
1 
1 
1 
1 
1 
1 
1 
1 
1 
1 
1 
1 
1 
1 
1 
1 
1 
1 
1 
1 
1 
1 
1 
1 
1 
1 
1 
1 
1 
1 
1 
1 
1 
1 
1 
1 
1 
1 
1 
1 
1 
1 
1 
1 
1 
1 
1 
1 
1 
1 
1 
1 
1 
1 
1 
1 
1 
1 
1 
1 
1 
1 
1 
1 
1 
1 
1 
1 
1 
1 
1 
1 
1 
1 
1 
1 
1 
1 
1 
1 
1 
1 
1 
1 
1 
1 
1 
1 
1 
1 
1 
1 
1 
1 
1 
1 
1 
1 
1 
1 
1 
1 
1 
1 
1 
1 
1 
1 
1 
1 
1 
1 
1 
1 
1 
1 
1 
1 
1 
1 
1 
1 
1 
1 
1 
1 
1 
1 
1 
1 
1 
1 
1 
1 
1 
1 
1 
1 
1 
1 
1 
1 
1 
1 
1 
1 
1 
1 
1 
1 
1 
1 
1 
1 
1 
1 
1 
1 
1 
1 
1 
1 
1 
1 
1 
1 
1 
1 
1 
1 
1 
1 
1 
1 
1 
1 
1 
1 
1 
1 
1 
1 
1 
1 
1 
1 
1 
1 
1 
1 
1 
1 
1 
1 
1 
1 
1 
1 
1 
1 
1 
1 
1 
1 
1 
1 
1 
1 
1 
1 
1 
1 
1 
1 
1 
1 
1 
1 
1 
1 
1 
1 
1 
1 
1 
1 
1 
1 
1 
1 
1 
1 
1 
1 
1 
1 
1 
1 
1 
1 
1 
1 
1 
1 
1 
1 
1 
1 
1 
1 
1 
1 
1 
1 
1 
1 
1 
1 
1 
1 
1 
1 
1 
1 
1 
1 
1 
1 
1 
1 
1 
1 
1 
1 
1 
1 
1 
1 
1 
1 
1 
1 
1 
1 
1 
1 
1 
1 
1 
1 
1 
1 
1 
1 
1 
1 
1 
1 
1 
1 
1 
1 
1 
1 
1 
1 
1 
1 
1 
1 
1 
1 
1 
1 
1 
1 
1 
1 
1 
1 
1 
1 
1 
1 
1 
1 
1 
1 
1 
1 
1 
1 
1 
1 
1 
1 
1 
1 
1 
1 
1 
1 
1 
1 
1 
1 
1 
1 
1 
1 
1 
1 
1 
1 
1 
1 
1 
1 
1 
1 
1 
1 
1 
1 
1 
1 
1 
1 
1 
1 
1 
1 
1 
1 
1 
1 
1 
1 
1 
1 
1 
1 
1 
1 
1 
1 
1 
1 
1 
1 
1 
1 
1 
1 
1 
1 
1 
1 
1 
1 
1 
1 
1 
1 
1 
1 
1 
1 
1 
1 
1 
1 
1 
1 
1 
1 
1 
1 
1 
1 
1 
1 
1 
1 
1 
1 
1 
1 
1 
1 
1 
1 
1 
1 
1 
1 
1 
1 
1 
1 
1 
1 
1 
1 
1 
1 
1 
1 
1 
1 
1 
1 
1 
1 
1 
1 
1 
1 
1 
1 
1 
1 
1 
1 
1 
1 
1 
1 
1 
1 
1 
1 
1 
1 
1 
1 
1 
1 
1 
1 
1 
1 
1 
1 
1 
1 
1 
1 
1 
1 
1 
1 
1 
1 
1 
1 
1 
1 
1 
1 
1 
1 
1 
1 
1 
1 
1 
1 
1 
1 
1 
1 
1 
1 
1 
1 
1 
1 
1 
1 
1 
1 
1 
1 
1 
1 
1 
1 
1 
1 
1 
1 
1 
1 
1 
1 
1 
1 
1 
1 
1 
1 
1 
1 
1 
1 
1 
1 
1 
1 
1 
1 
1 
1 
1 
1 
1 
1 
1 
1 
1 
1 
1 
1 
1 
1 
1 
1 
1 
1 
1 
1 
1 
1 
1 
1 
1 
1 
1 
1 
1 
1 
1 
1 
1 
1 
1 
1 
1 
1 
1 
1 
1 
1 
1 
1 
1 
1 
1 
1 
1 
1 
1 
1 
1 
1 
1 
1 
1 
1 
1 
1 
1 
1 
1 
1 
1 
1 
1 
1 
1 
1 
1 
1 
1 
1 
1 
1 
1 
1 
1 
1 
1 
1 
1 
1 
1 
1 
1 
1 
1 
1 
1 
1 
1 
1 
1 
1 
1 
1 
1 
1 
1 
1 
1 
1 
1 
1 
1 
1 
1 
1 
1 
1 
1 
1 
1 
1 
1 
1 
1 
1 
1 
1 
1 
1 
1 
1 
1 
1 
1 
1 
1 
1 
1 
1 
1 
1 
1 
1 
1 
1 
1 
1 
1 
1 
1 
1 
1 
1 
1 
1 
1 
1 
1 
1 
1 
1 
1 
1 
1 
1 
1 
1 
1 
1 
1 
1 
1 
1 
1 
1 
1 
1 
1 
1 
1 
1 
1 
1 
1 
1 
1 
1 
1 
1 
1 
1 
1 
1 
1 
1 
1 
1 
1 
1 
1 
1 
1 
1 
1 
1 
1 
1 
1 
1 
1 
1 
1 
1 
1 
1 
1 
1 
1 
1 
1 
1 
1 
1 
1 
1 
1 
1 
1 
1 
1 
1 
1 
1 
1 
1 
1 
1 
1 
1 
1 
1 
1 
1 
1 
1 
1 
1 
1 
1 
1 
1 
1 
1 
1 
1 
1 
1 
1 
1 
1 
1 
1 
1 
1 
1 
1 
1 
1 
1 
1 
1 
1 
1 
1 
1 
1 
1 
1 
1 
1 
1 
1 
1 
1 
1 
1 
1 
1 
1 
1 
1 
1 
1 
1 
1 
1 
1 
1 
1 
1 
1 
1 
1 
1 
1 
1 
1 
1 
1 
1 
1 
1 
1 
1 
1 
1 
1 
1 
1 
1 
1 
1 
1 
1 
1 
1 
1 
1 
1 
1 
1 
1 
1 
1 
1 
1 
1 
1 
1 
1 
1 
1 
1 
1 
1 
1 
1 
1 
1 
1 
1 
1 
1 
1 
1 
1 
1 
1 
1 
1 
1 
1 
1 
1 
1 
1 
1 
1 
1 
1 
1 
1 
1 
1 
1 
1 
1 
1 
1 
1 
1 
1 
1 
1 
1 
1 
1 
1 
1 
1 
1 
1 
1 
1 
1 
1 
1 
1 
1 
1 
1 
1 
1 
1 
1 
1 
1 
1 
1 
1 
1 
1 
1 
1 
1 
1 
1 
1 
1 
1 
1 
1 
1 
1 
1 
1 
1 
1 
1 
1 
1 
1 
1 
1 
1 
1 
1 
1 
1 
1 
1 
1 
1 
1 
1 
1 
1 
1 
1 
1 
1 
1 
1 
1 
1 
1 
1 
1 
1 
1 
1 
1 
1 
1 
1 
1 
1 
1 
1 
1 
1 
1 
1 
1 
1 
1 
1 
1 
1 
1 
1 
1 
1 
1 
1 
1 
1 
1 
1 
1 
1 
1 
1 
1 
1 
1 
1 
1 
1 
1 
1 
1 
1 
1 
1 
1 
1 
1 
1 
1 
1 
1 
1 
1 
1 
1 
1 
1 
1 
1 
1 
1 
1 
1 
1 
1 
1 
1 
1 
1 
1 
1 
1 
1 
1 
1 
1 
1 
1 
1 
1 
1 
1 
1 
1 
1 
1 
1 
1 
1 
1 
1 
1 
1 
1 
1 
1 
1 
1 
1 
1 
1 
1 
1 
1 
1 
1 
1 
1 
1 
1 
1 
1 
1 
1 
1 
1 
1 
1 
1 
1 
1 
1 
1 
1 
1 
1 
1 
1 
1 
1 
1 
1 
1 
1 
1 
1 
1 
1 
1 
1 
1 
1 
1 
1 
1 
1 
1 
1 
1 
1 
1 
1 
1 
1 
1 
1 
1 
1 
1 
1 
1 
1 
1 
1 
1 
1 
1 
1 
1 
1 
1 
1 
1 
1 
1 
1 
1 
1 
1 
1 
1 
1 
1 
1 
1 
1 
1 
1 
1 
1 
1 
1 
1 
1 
1 
1 
1 
1 
1 
1 
1 
1 
1 
1 
1 
1 
1 
1 
1 
1 
1 
1 
1 
1 
1 
1 
1 
1 
1 
1 
1 
1 
1 
1 
1 
1 
1 
1 
1 
1 
1 
1 
1 
1 
1 
1 
1 
1 
1 
1 
1 
1 
1 
1 
1 
1 
1 
1 
1 
1 
1 
1 
1 
1 
1 
1 
1 
1 
1 
1 
1 
1 
1 
1 
1 
1 
1 
1 
1 
1 
1 
1 
1 
1 
1 
1 
1 
1 
1 
1 
1 
1 
1 
1 
1 
1 
1 
1 
1 
1 
1 
1 
1 
1 
1 
1 
1 
1 
1 
1 
1 
1 
1 
1 
1 
1 
1 
1 
1 
1 
1 
1 
1 
1 
1 
1 
1 
1 
1 
1 
1 
1 
1 
1 
1 
1 
1 
1 
1 
1 
1 
1 
1 
1 
1 
1 
1 
1 
1 
1 
1 
1 
1 
1 
1 
1 
1 
1 
1 
1 
1 
1 
1 
1 
1 
1 
1 
1 
1 
1 
1 
1 
1 
1 
1 
1 
1 
1 
1 
1 
1 
1 
1 
1 
1 
1 
1 
1 
1 
1 
1 
1 
1 
1 
1 
1 
1 
1 
1 
1 
1 
1 
1 
1 
1 
1 
1 
1 
1 
1 
1 
1 
1 
1 
1 
1 
1 
1 
1 
1 
1 
1 
1 
1 
1 
1 
1 
1 
1 
1 
1 
1 
1 
1 
1 
1 
1 
1 
1 
1 
1 
1 
1 
1 
1 
1 
1 
1 
1 
1 
1 
1 
1 
1 
1 
1 
1 
1 
1 
1 
1 
1 
1 
1 
1 
1 
1 
1 
1 
1 
1 
1 
1 
1 
1 
1 
1 
1 
1 
1 
1 
1 
1 
1 
1 
1 
1 
1 
1 
1 
1 
1 
1 
1 
1 
1 
1 
1 
1 
1 
1 
1 
1 
1 
1 
1 
1 
1 
1 
1 
1 
1 
1 
1 
1 
1 
1 
1 
1 
1 
1 
1 
1 
1 
1 
1 
1 
1 
1 
1 
1 
1 
1 
1 
1 
1 
1 
1 
1 
1 
1 
1 
1 
1 
1 
1 
1 
1 
1 
1 
1 
1 
1 
1 
1 
1 
1 
1 
1 
1 
1 
1 
1 
1 
1 
1 
1 
1 
1 
1 
1 
1 
1 
1 
1 
1 
1 
1 
1 
1 
1 
1 
1 
1 
1 
1 
1 
1 
1 
1 
1 
1 
1 
1 
1 
1 
1 
1 
1 
1 
1 
1 
1 
1 
1 
1 
1 
1 
1 
1 
1 
1 
1 
1 
1 
1 
1 
1 
1 
1 
1 
1 
1 
1 
1 
1 
1 
1 
1 
1 
1 
1 
1 
1 
1 
1 
1 
1 
1 
1 
1 
1 
1 
1 
1 
1 
1 
1 
1 
1 
1 
1 
1 
1 
1 
1 
1 
1 
1 
1 
1 
1 
1 
1 
1 
1 
1 
1 
1 
1 
1 
1 
1 
1 
1 
1 
1 
1 
1 
1 
1 
1 
1 
1 
1 
1 
1 
1 
1 
1 
1 
1 
1 
1 
1 
1 
1 
1 
1 
1 
1 
1 
1 
1 
1 
1 
1 
1 
1 
1 
1 
1 
1 
1 
1 
1 
1 
1 
1 
1 
1 
1 
1 
1 
1 
1 
1 
1 
1 
1 
1 
1 
1 
1 
1 
1 
1 
1 
1 
1 
1 
1 
1 
1 
1 
1 
1 
1 
1 
1 
1 
1 
1 
1 
1 
1 
1 
1 
1 
1 
1 
1 
1 
1 
1 
1 
1 
1 
1 
1 
1 
1 
1 
1 
1 
1 
1 
1 
1 
1 
1 
1 
1 
1 
1 
1 
1 
1 
1 
1 
1 
1 
1 
1 
1 
1 
1 
1 
1 
1 
1 
1 
1 
1 
1 
1 
1 
1 
1 
1 
1 
1 
1 
1 
1 
1 
1 
1 
1 
1 
1 
1 
1 
1 
1 
1 
1 
1 
1 
1 
1 
1 
1 
1 
1 
1 
1 
1 
1 
1 
1 
1 
1 
1 
1 
1 
1 
1 
1 
1 
1 
1 
1 
1 
1 
1 
1 
1 
1 
1 
1 
1 
1 
1 
1 
1 
1 
1 
1 
1 
1 
1 
1 
1 
1 
1 
1 
1 
1 
1 
1 
1 
1 
1 
1 
1 
1 
1 
1 
1 
1 
1 
1 
1 
1 
1 
1 
1 
1 
1 
1 
1 
1 
1 
1 
1 
1 
1 
1 
1 
1 
1 
1 
1 
1 
1 
1 
1 
1 
1 
1 
1 
1 
1 
1 
1 
1 
1 
1 
1 
1 
1 
1 
1 
1 
1 
1 
1 
1 
1 
1 
1 
1 
1 
1 
1 
1 
1 
1 
1 
1 
1 
1 
1 
1 
1 
1 
1 
1 
1 
1 
1 
1 
1 
1 
1 
1 
1 
1 
1 
1 
1 
1 
1 
1 
1 
1 
1 
1 
1 
1 
1 
1 
1 
1 
1 
1 
1 
1 
1 
1 
1 
1 
1 
1 
1 
1 
1 
1 
1 
1 
1 
1 
1 
1 
1 
1 
1 
1 
1 
1 
1 
1 
1 
1 
1 
1 
1 
1 
1 
1 
1 
1 
1 
1 
1 
1 
1 
1 
1 
1 
1 
1 
1 
1 
1 
1 
1 
1 
1 
1 
1 
1 
1 
1 
1 
1 
1 
1 
1 
1 
1 
1 
1 
1 
1 
1 
1 
1 
1 
1 
1 
1 
1 
1 
1 
1 
1 
1 
1 
1 
1 
1 
1 
1 
1 
1 
1 
1 
1 
1 
1 
1 
1 
1 
1 
1 
1 
1 
1 
1 
1 
1 
1 
1 
1 
1 
1 
1 
1 
1 
1 
1 
1 
1 
1 
1 
1 
1 
1 
1 
1 
1 
1 
1 
1 
1 
1 
1 
1 
1 
1 
1 
1 
1 
1 
1 
1 
1 
1 
1 
1 
1 
1 
1 
1 
1 
1 
1 
1 
1 
1 
1 
1 
1 
1 
1 
1 
1 
1 
1 
1 
1 
1 
1 
1 
1 
1 
1 
1 
1 
1 
1 
1 
1 
1 
1 
1 
1 
1 
1 
1 
1 
1 
1 
1 
1 
1 
1 
1 
1 
1 
1 
1 
1 
1 
1 
1 
1 
1 
1 
1 
1 
1 
1 
1 
1 
1 
1 
1 
1 
1 
1 
1 
1 
1 
1 
1 
1 
1 
1 
1 
1 
1 
1 
1 
1 
1 
1 
1 
1 
1 
1 
1 
1 
1 
1 
1 
1 
1 
1 
1 
1 
1 
1 
1 
1 
1 
1 
1 
1 
1 
1 
1 
1 
1 
1 
1 
1 
1 
1 
1 
1 
1 
1 
1 
1 
1 
1 
1 
1 
1 
1 
1 
1 
1 
1 
1 
1 
1 
1 
1 
1 
1 
1 
1 
1 
1 
1 
1 
1 
1 
1 
1 
1 
1 
1 
1 
1 
1 
1 
1 
1 
1 
1 
1 
1 
1 
1 
1 
1 
1 
1 
1 
1 
1 
1 
1 
1 
1 
1 
1 
1 
1 
1 
1 
1 
1 
1 
1 
1 
1 
1 
1 
1 
1 
1 
1 
1 
1 
1 
1 
1 
1 
1 
1 
1 
1 
1 
1 
1 
1 
1 
1 
1 
1 
1 
1 
1 
1 
1 
1 
1 
1 
1 
1 
1 
1 
1 
1 
1 
1 
1 
1 
1 
1 
1 
1 
1 
1 
1 
1 
1 
1 
1 
1 
1 
1 
1 
1 
1 
1 
1 
1 
1 
1 
1 
1 
1 
1 
1 
1 
1 
1 
1 
1 
1 
1 
1 
1 
1 
1 
1 
1 
1 
1 
1 
1 
1 
1 
1 
1 
1 
1 
1 
1 
1 
1 
1 
1 
1 
1 
1 
1 
1 
1 
1 
1 
1 
1 
1 
1 
1 
1 
1 
1 
1 
1 
1 
1 
1 
1 
1 
1 
1 
1 
1 
1 
1 
1 
1 
1 
1 
1 
1 
1 
1 
1 
1 
1 
1 
1 
1 
1 
1 
1 
1 
1 
1 
1 
1 
1 
1 
1 
1 
1 
1 
1 
1 
1 
1 
1 
1 
1 
1 
1 
1 
1 
1 
1 
1 
1 
1 
1 
1 
1 
1 
1 
1 
1 
1 
1 
1 
1 
1 
1 
1 
1 
1 
1 
1 
1 
1 
1 
1 
1 
1 
1 
1 
1 
1 
1 
1 
1 
1 
1 
1 
1 
1 
1 
1 
1 
1 
1 
1 
1 
1 
1 
1 
1 
1 
1 
1 
1 
1 
1 
1 
1 
1 
1 
1 
1 
1 
1 
1 
1 
1 
1 
1 
1 
1 
1 
1 
1 
1 
1 
1 
1 
1 
1 
1 
1 
1 
1 
1 
1 
1 
1 
1 
1 
1 
1 
1 
1 
1 
1 
1 
1 
1 
1 
1 
1 
1 
1 
1 
1 
1 
1 
1 
1 
1 
1 
1 
1 
1 
1 
1 
1 
1 
1 
1 
1 
1 
1 
1 
1 
1 
1 
1 
1 
1 
1 
1 
1 
1 
1 
1 
1 
1 
1 
1 
1 
1 
1 
1 
1 
1 
1 
1 
1 
1 
1 
1 
1 
1 
1 
1 
1 
1 
1 
1 
1 
1 
1 
1 
1 
1 
1 
1 
1 
1 
1 
1 
1 
1 
1 
1 
1 
1 
1 
1 
1 
1 
1 
1 
1 
1 
1 
1 
1 
1 
1 
1 
1 
1 
1 
1 
1 
1 
1 
1 
1 
1 
1 
1 
1 
1 
1 
1 
1 
1 
1 
1 
1 
1 
1 
1 
1 
1 
1 
1 
1 
1 
1 
1 
1 
1 
1 
1 
1 
1 
1 
1 
1 
1 
1 
1 
1 
1 
1 
1 
1 
1 
1 
1 
1 
1 
1 
1 
1 
1 
1 
1 
1 
1 
1 
1 
1 
1 
1 
1 
1 
1 
1 
1 
1 
1 
1 
1 
1 
1 
1 
1 
1 
1 
1 
1 
1 
1 
1 
1 
1 
1 
1 
1 
1 
1 
1 
1 
1 
1 
1 
1 
1 
1 
1 
1 
1 
1 
1 
1 
1 
1 
1 
1 
1 
1 
1 
1 
1 
1 
1 
1 
1 
1 
1 
1 
1 
1 
1 
1 
1 
1 
1 
1 
1 
1 
1 
1 
1 
1 
1 
1 
1 
1 
1 
1 
1 
1 
1 
1 
1 
1 
1 
1 
1 
1 
1 
1 
1 
1 
1 
1 
1 
1 
1 
1 
1 
1 
1 
1 
1 
1 
1 
1 
1 
1 
1 
1 
1 
1 
1 
1 
1 
1 
1 
1 
1 
1 
1 
1 
1 
1 
1 
1 
1 
1 
1 
1 
1 
1 
1 
1 
1 
1 
1 
1 
1 
1 
1 
1 
1 
1 
1 
1 
1 
1 
1 
1 
1 
1 
1 
1 
1 
1 
1 
1 
1 
1 
1 
1 
1 
1 
1 
1 
1 
1 
1 
1 
1 
1 
1 
1 
1 
1 
1 
1 
1 
1 
1 
1 
1 
1 
1 
1 
1 
1 
1 
1 
1 
1 
1 
1 
1 
1 
1 
1 
1 
1 
1 
1 
1 
1 
1 
1 
1 
1 
1 
1 
1 
1 
1 
1 
1 
1 
1 
1 
1 
1 
1 
1 
1 
1 
1 
1 
1 
1 
1 
1 
1 
1 
1 
1 
1 
1 
1 
1 
1 
1 
1 
1 
1 
1 
1 
1 
1 
1 
1 
1 
1 
1 
1 
1 
1 
1 
1 
1 
1 
1 
1 
1 
1 
1 
1 
1 
1 
1 
1 
1 
1 
1 
1 
1 
1 
1 
1 
1 
1 
1 
1 
1 
1 
1 
1 
1 
1 
1 
1 
1 
1 
1 
1 
1 
1 
1 
1 
1 
1 
1 
1 
1 
1 
1 
1 
1 
1 
1 
1 
1 
1 
1 
1 
1 
1 
1 
1 
1 
1 
1 
1 
1 
1 
1 
1 
1 
1 
1 
1 
1 
1 
1 
1 
1 
1 
1 
1 
1 
1 
1 
1 
1 
1 
1 
1 
1 
1 
1 
1 
1 
1 
1 
1 
1 
1 
1 
1 
1 
1 
1 
1 
1 
1 
1 
1 
1 
1 
1 
1 
1 
1 
1 
1 
1 
1 
1 
1 
1 
1 
1 
1 
1 
1 
1 
1 
1 
1 
1 
1 
1 
1 
1 
1 
1 
1 
1 
1 
1 
1 
1 
1 
1 
1 
1 
1 
1 
1 
1 
1 
1 
1 
1 
1 
1 
1 
1 
1 
1 
1 
1 
1 
1 
1 
1 
1 
1 
1 
1 
1 
1 
1 
1 
1 
1 
1 
1 
1 
1 
1 
1 
1 
1 
1 
1 
1 
1 
1 
1 
1 
1 
1 
1 
1 
1 
1 
1 
1 
1 
1 
1 
1 
1 
1 
1 
1 
1 
1 
1 
1 
1 
1 
1 
1 
1 
1 
1 
1 
1 
1 
1 
1 
1 
1 
1 
1 
1 
1 
1 
1 
1 
1 
1 
1 
1 
1 
1 
1 
1 
1 
1 
1 
1 
1 
1 
1 
1 
1 
1 
1 
1 
1 
1 
1 
1 
1 
1 
1 
1 
1 
1 
1 
1 
1 
1 
1 
1 
1 
1 
1 
1 
1 
1 
1 
1 
1 
1 
1 
1 
1 
1 
1 
1 
1 
1 
1 
1 
1 
1 
1 
1 
1 
1 
1 
1 
1 
1 
1 
1 
1 
1 
1 
1 
1 
1 
1 
1 
1 
1 
1 
1 
1 
1 
1 
1 
1 
1 
1 
1 
1 
1 
1 
1 
1 
1 
1 
1 
1 
1 
1 
1 
1 
1 
1 
1 
1 
1 
1 
1 
1 
1 
1 
1 
1 
1 
1 
1 
1 
1 
1 
1 
1 
1 
1 
1 
1 
1 
1 
1 
1 
1 
1 
1 
1 
1 
1 
1 
1 
1 
1 
1 
1 
1 
1 
1 
1 
1 
1 
1 
1 
1 
1 
1 
1 
1 
1 
1 
1 
1 
1 
1 
1 
1 
1 
1 
1 
1 
1 
1 
1 
1 
1 
1 
1 
1 
1 
1 
1 
1 
1 
1 
1 
1 
1 
1 
1 
1 
1 
1 
1 
1 
1 
1 
1 
1 
1 
1 
1 
1 
1 
1 
1 
1 
1 
1 
1 
1 
1 
1 
1 
1 
1 
1 
1 
1 
1 
1 
1 
1 
1 
1 
1 
1 
1 
1 
1 
1 
1 
1 
1 
1 
1 
1 
1 
1 
1 
1 
1 
1 
1 
1 
1 
1 
1 
1 
1 
1 
1 
1 
1 
1 
1 
1 
1 
1 
1 
1 
1 
1 
1 
1 
1 
1 
1 
1 
1 
1 
1 
1 
1 
1 
1 
1 
1 
1 
1 
1 
1 
1 
1 
1 
1 
1 
1 
1 
1 
1 
1 
1 
1 
1 
1 
1 
1 
1 
1 
1 
1 
1 
1 
1 
1 
1 
1 
1 
1 
1 
1 
1 
1 
1 
1 
1 
1 
1 
1 
1 
1 
1 
1 
1 
1 
1 
1 
1 
1 
1 
1 
1 
1 
1 
1 
1 
1 
1 
1 
1 
1 
1 
1 
1 
1 
1 
1 
1 
1 
1 
1 
1 
1 
1 
1 
1 
1 
1 
1 
1 
1 
1 
1 
1 
1 
1 
1 
1 
1 
1 
1 
1 
1 
1 
1 
1 
1 
1 
1 
1 
1 
1 
1 
1 
1 
1 
1 
1 
1 
1 
1 
1 
1 
1 
1 
1 
1 
1 
1 
1 
1 
1 
1 
1 
1 
1 
1 
1 
1 
1 
1 
1 
1 
1 
1 
1 
1 
1 
1 
1 
1 
1 
1 
1 
1 
1 
1 
1 
1 
1 
1 
1 
1 
1 
1 
1 
1 
1 
1 
1 
1 
1 
1 
1 
1 
1 
1 
1 
1 
1 
1 
1 
1 
1 
1 
1 
1 
1 
1 
1 
1 
1 
1 
1 
1 
1 
1 
1 
1 
1 
1 
1 
1 
1 
1 
1 
1 
1 
1 
1 
1 
1 
1 
1 
1 
1 
1 
1 
1 
1 
1 
1 
1 
1 
1 
1 
1 
1 
1 
1 
1 
1 
1 
1 
1 
1 
1 
1 
1 
1 
1 
1 
1 
1 
1 
1 
1 
1 
1 
1 
1 
1 
1 
1 
1 
1 
1 
1 
1 
1 
1 
1 
1 
1 
1 
1 
1 
1 
1 
1 
1 
1 
1 
1 
1 
1 
1 
1 
1 
1 
1 
1 
1 
1 
1 
1 
1 
1 
1 
1 
1 
1 
1 
1 
1 
1 
1 
1 
1 
1 
1 
1 
1 
1 
1 
1 
1 
1 
1 
1 
1 
1 
1 
1 
1 
1 
1 
1 
1 
1 
1 
1 
1 
1 
1 
1 
1 
1 
1 
1 
1 
1 
1 
1 
1 
1 
1 
1 
1 
1 
1 
1 
1 
1 
1 
1 
1 
1 
1 
1 
1 
1 
1 
1 
1 
1 
1 
1 
1 
1 
1 
1 
1 
1 
1 
1 
1 
1 
1 
1 
1 
1 
1 
1 
1 
1 
1 
1 
1 
1 
1 
1 
1 
1 
1 
1 
1 
1 
1 
1 
1 
1 
1 
1 
1 
1 
1 
1 
1 
1 
1 
1 
1 
1 
1 
1 
1 
1 
1 
1 
1 
1 
1 
1 
1 
1 
1 
1 
1 
1 
1 
1 
1 
1 
1 
1 
1 
1 
1 
1 
1 
1 
1 
1 
1 
1 
1 
1 
1 
1 
1 
1 
1 
1 
1 
1 
1 
1 
1 
1 
1 
1 
1 
1 
1 
1 
1 
1 
1 
1 
1 
1 
1 
1 
1 
1 
1 
1 
1 
1 
1 
1 
1 
1 
1 
1 
1 
1 
1 
1 
1 
1 
1 
1 
1 
1 
1 
1 
1 
1 
1 
1 
1 
1 
1 
1 
1 
1 
1 
1 
1 
1 
1 
1 
1 
1 
1 
1 
1 
1 
1 
1 
1 
1 
1 
1 
1 
1 
1 
1 
1 
1 
1 
1 
1 
1 
1 
1 
1 
1 
1 
1 
1 
1 
1 
1 
1 
1 
1 
1 
1 
1 
1 
1 
1 
1 
1 
1 
1 
1 
1 
1 
POINT_DATA 5000
VECTORS Stress float
259.28 -958.886 0.
8.96114 -1079.21 0.
11.0179 -1074.99 0.
-49.3173 -1098.43 0.
-46.3021 -1091.58 0.
-43.2869 -1084.73 0.
-51.5416 -1165.57 0.
-151.979 -1399.93 0.
-252.417 -1634.28 0.
-504.07 -1746.76 0.
-453.299 -1628.27 0.
-402.528 -1509.78 0.
-132.056 -1456.41 0.
-176.655 -1560.43 0.
-204.97 -1626.83 0.
-80.6307 -1336.91 0.
43.7089 -1046.98 0.
359.701 -826.839 0.
237.087 -1113.41 0.
114.473 -1399.97 0.
-552.191 -1778.86 0.
-539.503 -1749.41 0.
-526.816 -1719.96 0.
-213.361 -1567.44 0.
-203.685 -1544.73 0.
-65.5397 -1466.96 0.
-750.123 -1574.58 0.
-650.638 -1342.47 0.
-530.189 -1187.82 0.
-649.124 -1465.58 0.
-768.058 -1743.34 0.
-423.165 -1698.69 0.
-393.06 -1628.14 0.
-362.955 -1557.6 0.
-640.093 -1693.2 0.
-670.188 -1763.01 0.
-700.283 -1832.81 0.
-917.893 -1928.19 0.
-915.881 -1923.39 0.
-1413.39 -2120.35 0.
-1349.31 -1970.84 0.
-1285.23 -1821.33 0.
-1216.84 -1580.53 0.
-1010.97 -1099.42 0.
-805.1 -618.311 0.
-1118.85 -882.619 0.
-1414.2 -1571.9 0.
-1709.56 -2261.18 0.
3994.75 393.892 0.
4226.64 934.97 0.
-33104.8 -14622.9 0.
4291.75 1008.81 0.
4084.6 524.804 0.
-1625.65 -2223.84 0.
-1612.66 -2193.66 0.
-1599.66 -2163.48 0.
-1339.91 -1973.27 0.
-1268.07 -1805.47 0.
-1196.23 -1637.68 0.
-588.373 -1277 0.
-544.151 -1173.56 0.
-499.928 -1070.13 0.
-984.907 -1412.89 0.
-1067.81 -1606.17 0.
-956.121 -1705.61 0.
-1003.74 -1816.71 0.
-1051.36 -1927.81 0.
-35.0233 -1547.51 0.
-25.8802 -1526.37 0.
-16.737 -1505.23 0.
-136.926 -1549.7 0.
-138.267 -1552.64 0.
-139.609 -1555.59 0.
-1340.08 -1862.49 0.
-1202.52 -1541.76 0.
-105.285 -822.692 0.
-213.293 -1143.62 0.
-357.307 -1479.97 0.
-359.824 -1687.89 0.
-361.246 -1691.1 0.
-362.669 -1694.31 0.
22.411 -1529.4 0.
24.259 -1524.68 0.
26.107 -1519.97 0.
-396.364 -1565.38 0.
-297.972 -1335.08 0.
-199.579 -1104.79 0.
-554.269 -1421.68 0.
-656.796 -1661.72 0.
-748.501 -1857.66 0.
-693.715 -1729.53 0.
-638.929 -1601.4 0.
222.383 -1205.2 0.
162.745 -1344.4 0.
103.107 -1483.59 0.
-194.254 -1618.13 0.
-157.375 -1531.99 0.
-120.496 -1445.85 0.
-38.6549 -1463.29 0.
-83.4646 -1566.78 0.
-4.71746 -1040.97 0.
99.0563 -1009.81 0.
101.38 -1006.12 0.
-64.6295 -1072.56 0.
-61.5612 -1065.95 0.
-58.493 -1059.35 0.
-85.2902 -1148.99 0.
-185.745 -1383.38 0.
-286.2 -1617.77 0.
-413.556 -1676.6 0.
-362.788 -1558.06 0.
-312.02 -1439.52 0.
-306.796 -1500.33 0.
-351.385 -1604.24 0.
-348.894 -1657.53 0.
-224.424 -1367.69 0.
-99.9532 -1077.85 0.
308.984 -816.738 0.
186.647 -1103.6 0.
64.3091 -1390.45 0.
196.692 -1426.42 0.
209.49 -1397.02 0.
222.289 -1367.63 0.
-590.662 -1698.03 0.
-581.154 -1675.44 0.
-902.345 -1794.57 0.
-873.625 -1595.45 0.
-774.191 -1363.47 0.
-679.027 -1220.37 0.
-797.778 -1498.19 0.
-916.529 -1776.01 0.
-266.746 -1600.47 0.
-236.779 -1529.64 0.
-206.813 -1458.8 0.
-455.876 -1583.46 0.
-486.231 -1653.05 0.
-516.585 -1722.63 0.
-920.512 -1898.34 0.
-918.531 -1893.41 0.
-950.095 -1890.41 0.
-885.994 -1740.86 0.
-821.893 -1591.32 0.
-1461.04 -1654.07 0.
-1255.54 -1172.35 0.
-1050.04 -690.633 0.
-285.456 -496.732 0.
-580.861 -1186.34 0.
-876.266 -1875.94 0.
3045.16 18.834 0.
3276.88 559.57 0.
-26789.9 -11885.1 0.
3605.39 745.836 0.
3398.75 261.699 0.
-1172.34 -1997.22 0.
-1159.28 -1967.18 0.
-1146.23 -1937.14 0.
-1017.61 -1804.06 0.
-945.872 -1636.19 0.
-874.13 -1468.32 0.
-630.14 -1263.89 0.
-586.058 -1160.28 0.
-541.976 -1056.67 0.
-1225.46 -1484.6 0.
-1308.46 -1677.78 0.
-405.73 -1438.79 0.
-453.38 -1549.91 0.
-501.029 -1661.04 0.
-18.5025 -1508.29 0.
-9.23632 -1487.26 0.
0.0298615 -1466.23 0.
-83.2445 -1495.49 0.
-84.7013 -1498.33 0.
-86.1581 -1501.16 0.
-1600.58 -1943.49 0.
-1462.85 -1622.88 0.
-508.915 -963.025 0.
-541.835 -1251.98 0.
-685.633 -1588.46 0.
67.1277 -1473.63 0.
65.6234 -1476.81 0.
64.119 -1480 0.
181.869 -1429.75 0.
183.474 -1424.8 0.
185.079 -1419.84 0.
-487.856 -1573.83 0.
-389.953 -1343.25 0.
-292.05 -1112.67 0.
-659.969 -1436.36 0.
-762.025 -1676.91 0.
-322.221 -1644.19 0.
-267.599 -1515.84 0.
-212.977 -1387.5 0.
36.7227 -1254.18 0.
-22.9387 -1393.52 0.
-82.6002 -1532.86 0.
-491.872 -1714.64 0.
-454.992 -1628.32 0.
-418.113 -1542 0.
-2.39425 -1416.06 0.
-47.682 -1518.52 0.
-447.994 -1540.1 0.
-2.48799 -1391.01 0.
44.3064 -1280.44 0.
-675.801 -2436.8 0.
-316.715 -1599.41 0.
-475.967 -1971.53 0.
-1324.08 -3945.43 0.
-1191.78 -3637.54 0.
-2726.88 -7220.27 0.
-3229.91 -8388.71 0.
-2042.13 -5618.36 0.
-2125.96 -5815.11 0.
-2179.77 -5509.14 0.
-2285.89 -5754.88 0.
-3465.18 -8626.83 0.
-1552.59 -4162.79 0.
-1771.51 -4672.3 0.
-1353.35 -4577.14 0.
-1831.88 -5692.66 0.
-4290.61 -11428.6 0.
-6674.41 -18853.6 0.
-2590.96 -9324.91 0.
-2043.7 -8047.26 0.
-2939.66 -6430.5 0.
-2222.7 -4757.95 0.
-2863.75 -6310.34 0.
-2320.64 -4702.34 0.
-2276.11 -4597.44 0.
-1964.75 -3911.79 0.
-2046.85 -4101.63 0.
-3348.36 -7136.77 0.
-4019.5 -10624.9 0.
-2309.07 -6635.42 0.
-2188.53 -6355.71 0.
-2562.05 -6812.26 0.
-3494.9 -8991.5 0.
-6621.01 -16288.4 0.
-6975.43 -15991.7 0.
-5232.32 -11925 0.
-5407.95 -13146.9 0.
-3582.82 -8888.05 0.
-3477.03 -8640.97 0.
-3419.93 -5727.55 0.
-2443.11 -3449.85 0.
-2636.55 -3902.75 0.
-1308.31 -4440.37 0.
-1640.64 -5216.88 0.
-4625.74 -12183.2 0.
168.251 -4854.63 0.
283.797 -4585.44 0.
-25061.4 -18517.1 0.
628.416 -4862.05 0.
202.941 -5854 0.
-5225.22 -12290.5 0.
-2748.94 -6510.81 0.
-3450.54 -8146.22 0.
-3045.79 -7115.79 0.
-2524.58 -5899.64 0.
-3551.19 -8295.05 0.
-3476.57 -7800.26 0.
-2270.21 -4986.68 0.
-2337.64 -5145.27 0.
-2591.7 -4181.47 0.
-2597.09 -4195.9 0.
-2607.7 -7591.89 0.
-2877.07 -8220.94 0.
-5016.19 -13212.7 0.
-7232.87 -18342.9 0.
-3391.85 -9379.56 0.
-3271 -9096.62 0.
-2833.79 -7982.07 0.
-2392.29 -6952.41 0.
-3827.75 -10302.4 0.
-2911.24 -4474.61 0.
-2530.25 -3585.55 0.
-2284.32 -4444.51 0.
-1777.25 -3479.01 0.
-2852.67 -5988.4 0.
-5729.46 -15780.1 0.
-4144.53 -12081.5 0.
-5337.68 -14865 0.
-5286.68 -14461.1 0.
-3677.97 -10707.6 0.
-4051.03 -11578.2 0.
-2243.36 -5462.41 0.
-1134.52 -2876.77 0.
-1668.88 -4125.25 0.
-2029.18 -4399.65 0.
-2231.08 -4870.35 0.
-1863.03 -6027.37 0.
-524.972 -2905 0.
-511.032 -2872.58 0.
-957.3 -3186.99 0.
-676.719 -2533.63 0.
-1266.49 -3911.06 0.
-1176.76 -2718.62 0.
-604.104 -1382.26 0.
-530.638 -1210.84 0.
-246.362 -2029.35 0.
-1028.17 -3854.54 0.
124.753 -438.158 0.
249.576 -461.578 0.
176.223 -631.521 0.
21.0234 -756.026 0.
174.731 -397.011 0.
328.438 -37.9961 0.
518.006 403.095 0.
751.397 946.901 0.
984.788 1490.71 0.
999.161 1563.71 0.
931.006 1403.11 0.
862.852 1242.52 0.
814.043 1311.39 0.
874.932 1455.36 0.
949.805 1560.5 0.
771.495 1145.18 0.
593.185 729.865 0.
985.84 873.849 0.
1322.95 1660.97 0.
1660.05 2448.08 0.
2091.66 2814.23 0.
1985.71 2565.9 0.
1879.75 2317.58 0.
606.515 1736.76 0.
612.374 1749.71 0.
1168.15 1998.28 0.
532.259 1338.44 0.
328.959 863.591 0.
277.775 664.704 0.
593.992 1404.41 0.
910.208 2144.11 0.
1531.23 2670.05 0.
1437.55 2451.05 0.
1343.87 2232.04 0.
1224.68 2354.52 0.
1413.76 2793.85 0.
1602.84 3233.17 0.
1362.19 3314.11 0.
1445.9 3509.97 0.
1631.42 3679.08 0.
1378.15 3088.41 0.
1124.89 2497.74 0.
407.824 1643.37 0.
44.5766 795.216 0.
-318.67 -52.9342 0.
665.296 388.214 0.
981.465 1124.29 0.
1297.63 1860.36 0.
2978.78 2575.78 0.
2885.66 2356.72 0.
-719.512 633.097 0.
3283.55 2542.59 0.
3384.63 2779.66 0.
889.286 1875.59 0.
917.571 1942.62 0.
945.857 2009.65 0.
901.369 1952 0.
820.63 1763.42 0.
739.892 1574.84 0.
545.85 1339.5 0.
469.082 1159.74 0.
392.315 979.981 0.
268.095 1219.72 0.
447.716 1637.27 0.
1301.71 2348.5 0.
1504.99 2821.54 0.
1708.26 3294.59 0.
2048.03 3595.97 0.
1900.8 3251.66 0.
1753.57 2907.35 0.
1494.83 2701.98 0.
1519.81 2758.65 0.
1544.78 2815.32 0.
408.713 1778.87 0.
37.1415 913.963 0.
-19.1294 209.177 0.
345.579 1220.58 0.
793.893 2267.81 0.
2148.35 3512.14 0.
2177.77 3581.65 0.
2207.18 3651.17 0.
2340.32 3566.19 0.
2141.85 3102.62 0.
1943.38 2639.06 0.
869.197 1661.34 0.
569.04 959.192 0.
268.883 257.046 0.
191.19 247.136 0.
229.625 338.435 0.
833.841 618.902 0.
680.214 260.739 0.
526.586 -97.4251 0.
278.072 -283.091 0.
431.125 73.7945 0.
584.178 430.68 0.
249.816 204.198 0.
64.8427 -226.604 0.
-120.131 -657.406 0.
147.31 -543.739 0.
191.52 -440.574 0.
264.716 -346.04 0.
86.6733 -500.365 0.
13.3263 -670.452 0.
9.06303 -729.158 0.
162.417 -370.071 0.
315.771 -10.9844 0.
508.21 430.558 0.
741.568 974.342 0.
974.927 1518.13 0.
971.57 1583.94 0.
903.592 1423.31 0.
835.615 1262.69 0.
916.816 1386.16 0.
977.709 1530.15 0.
1026.16 1624.38 0.
848.035 1208.9 0.
669.908 793.422 0.
1006.28 914.43 0.
1343.53 1701.37 0.
1680.78 2488.32 0.
1471.65 2581.28 0.
1366.29 2332.5 0.
1260.92 2083.73 0.
679.575 1800.09 0.
685.512 1812.87 0.
1387.4 2123.82 0.
872.725 1516.87 0.
669.811 1041.44 0.
638.885 851.242 0.
955.12 1591.11 0.
1271.36 2330.98 0.
1367.29 2630.77 0.
1273.31 2412.19 0.
1179.33 2193.6 0.
1066.93 2317.52 0.
1255.75 2756.96 0.
1444.56 3196.4 0.
1456.8 3386.26 0.
1540.18 3582.38 0.
1437.91 3628.37 0.
1184.71 3037.91 0.
931.515 2447.45 0.
1243.4 2032.54 0.
879.724 1184.36 0.
516.047 336.168 0.
562.953 372.91 0.
879.3 1108.82 0.
1195.65 1844.74 0.
2537.63 2418.93 0.
2444.81 2199.27 0.
-946.138 567.348 0.
2665.04 2308.74 0.
2766.05 2546.06 0.
958.787 1936.62 0.
987.273 2003.49 0.
1015.76 2070.35 0.
992.469 2022.31 0.
911.716 1833.53 0.
830.963 1644.74 0.
691.89 1434.36 0.
614.97 1254.86 0.
538.05 1075.36 0.
952.421 1544.81 0.
1132.09 1962.77 0.
888.309 2202.32 0.
1091.78 2675.08 0.
1295.25 3147.84 0.
1916.1 3571.56 0.
1769.35 3226.64 0.
1622.59 2881.73 0.
1205.81 2611.52 0.
1231.05 2667.74 0.
1256.29 2723.96 0.
1209.77 2154.9 0.
837.301 1289.93 0.
103.11 291.86 0.
495.01 1315.58 0.
943.028 2363.35 0.
1686.79 3345.88 0.
1716.28 3415.96 0.
1745.77 3486.04 0.
2235.54 3552.71 0.
2037.19 3089.08 0.
1838.84 2625.45 0.
958.74 1731.39 0.
658.554 1029.05 0.
358.367 326.699 0.
487.837 405.222 0.
525.779 496.671 0.
664.322 576.589 0.
510.541 218.495 0.
356.76 -139.599 0.
283.745 -248.465 0.
436.523 108.816 0.
589.3 466.097 0.
478.966 333.077 0.
293.73 -97.6819 0.
108.495 -528.441 0.
-133.866 -632.586 0.
-89.8172 -528.832 0.
-24.3947 -831.214 0.
-113.634 -927.826 0.
-125.015 -955.913 0.
-138.092 -997.887 0.
-174.457 -1083.26 0.
-210.822 -1168.64 0.
-233.658 -1304.54 0.
-339.988 -1552.68 0.
-446.319 -1800.82 0.
-456.855 -1775.53 0.
-371.617 -1576.5 0.
-286.378 -1377.47 0.
-327.788 -1456.64 0.
-379.116 -1577.36 0.
-360.954 -1640.69 0.
-257.772 -1400.26 0.
-154.591 -1159.84 0.
187.993 -1004.98 0.
-16.8553 -1481.03 0.
-221.703 -1957.08 0.
-805.194 -2208.34 0.
-631.228 -1803.88 0.
-457.261 -1399.42 0.
-717.56 -1568.73 0.
-807.964 -1782.19 0.
-382.493 -1774.47 0.
-359.487 -1573.4 0.
-256.185 -1331.83 0.
-110.189 -1155.49 0.
-207.703 -1383.89 0.
-305.217 -1612.29 0.
-590.936 -1755.79 0.
-486.503 -1518.8 0.
-382.07 -1281.8 0.
-564.879 -1516.03 0.
-739.622 -1926.03 0.
-914.363 -2336.03 0.
-927.633 -2399.15 0.
-935.26 -2421.36 0.
-1177.67 -2527.71 0.
-1105.61 -2361.22 0.
-1033.55 -2194.74 0.
-146.105 -1661.05 0.
-45.0063 -1426.62 0.
56.0911 -1192.19 0.
-122.396 -1231.59 0.
-170.565 -1345.62 0.
-218.733 -1459.65 0.
584.707 -1358.13 0.
441.548 -1693.27 0.
-2669.19 -3301.48 0.
601.376 -1608.88 0.
756.127 -1251.58 0.
-310.267 -1494.45 0.
-338.578 -1552.74 0.
-366.89 -1611.02 0.
-639.321 -1717.01 0.
-594.955 -1616.31 0.
-550.589 -1515.6 0.
-384.302 -1372.67 0.
-351.303 -1294 0.
-318.305 -1215.32 0.
-129.307 -1185.67 0.
-163.696 -1265.46 0.
-840.288 -1652.47 0.
-1010.97 -2048.83 0.
-1181.64 -2445.19 0.
-607.619 -2322.69 0.
-467.115 -1993.7 0.
-326.611 -1664.71 0.
-697.775 -1825.03 0.
-806.183 -2074.35 0.
-914.589 -2323.67 0.
-288.097 -1781.2 0.
-74.4997 -1288.69 0.
-411.082 -1041.89 0.
-635.992 -1493.27 0.
-822.64 -1928.25 0.
-817.284 -2200.8 0.
-830.654 -2230.86 0.
-844.023 -2260.92 0.
-276.632 -2012.07 0.
-256.526 -1965.58 0.
-236.42 -1919.09 0.
-473.882 -1873.36 0.
-369.452 -1630.78 0.
-265.022 -1388.21 0.
-159.185 -1337.84 0.
-167.93 -1357.21 0.
-283.696 -1421.79 0.
-297.322 -1452.58 0.
-310.947 -1483.38 0.
-174.769 -1445.51 0.
-173.246 -1440.52 0.
-171.724 -1435.53 0.
-249.946 -1309.91 0.
-108.683 -981.666 0.
32.5804 -653.422 0.
-178.121 -671.41 0.
-164.819 -639.613 0.
-344.015 -938.7 0.
46.3015 -827.877 0.
34.4058 -855.594 0.
-175.496 -983.92 0.
-211.725 -1069.57 0.
-247.955 -1155.21 0.
-190.621 -1253.85 0.
-297.005 -1502.26 0.
-403.39 -1750.68 0.
-370.983 -1707.75 0.
-285.786 -1508.76 0.
-200.589 -1309.77 0.
-466.979 -1486.31 0.
-518.76 -1606.78 0.
-374.171 -1614.63 0.
-271.197 -1374.14 0.
-168.223 -1133.66 0.
210.545 -964.335 0.
5.72058 -1440.72 0.
-199.104 -1917.1 0.
-711.687 -2136.35 0.
-537.74 -1731.69 0.
-363.794 -1327.04 0.
-639.159 -1504.78 0.
-729.629 -1718.08 0.
-1345.07 -2156.41 0.
-440.993 -1576.82 0.
-337.991 -1335.56 0.
-158.355 -1144.89 0.
-256.323 -1373.15 0.
-354.292 -1601.41 0.
-583.897 -1722.38 0.
-479.994 -1485.02 0.
-376.09 -1247.67 0.
-360.773 -1398.42 0.
-534.979 -1808.71 0.
-709.184 -2219 0.
-757.258 -2295.92 0.
-764.836 -2317.98 0.
-899.485 -2377.36 0.
-827.159 -2211.29 0.
-754.833 -2045.22 0.
-474.445 -1769.2 0.
-373.147 -1535.39 0.
-271.85 -1301.57 0.
1.29398 -1151.12 0.
-46.771 -1265.5 0.
-94.8351 -1379.88 0.
204.698 -1489.19 0.
61.9824 -1824.44 0.
-2322.39 -3123.04 0.
312.553 -1703.06 0.
467.471 -1346.12 0.
118.799 -1278.34 0.
90.8347 -1336.91 0.
62.8695 -1395.48 0.
-768.817 -1742.79 0.
-724.835 -1641.81 0.
-680.854 -1540.84 0.
-184.747 -1256.9 0.
-152.017 -1177.96 0.
-119.286 -1099.02 0.
-551.503 -1335.58 0.
-585.607 -1415.73 0.
-593.563 -1514.87 0.
-764.203 -1911.56 0.
-934.843 -2308.24 0.
-448.906 -2222.4 0.
-307.925 -1893.93 0.
-166.943 -1565.45 0.
-394.39 -1663.72 0.
-502.666 -1913.11 0.
-610.941 -2162.51 0.
-579.248 -1874.73 0.
-365.839 -1381.81 0.
-335.62 -978.505 0.
-572.902 -1435.06 0.
-759.703 -1869.98 0.
-644.524 -2096.67 0.
-657.785 -2126.29 0.
-671.046 -2155.91 0.
-452.981 -2057.58 0.
-433.06 -2011.07 0.
-413.138 -1964.55 0.
-262.737 -1752.28 0.
-158.524 -1509.44 0.
-54.3108 -1266.61 0.
-199.286 -1325.85 0.
-207.707 -1345.53 0.
-304.808 -1398.69 0.
-317.786 -1430.11 0.
-330.765 -1461.54 0.
-21.2311 -1349.07 0.
-19.3746 -1344.13 0.
-17.5183 -1339.19 0.
-498.596 -1386.06 0.
-357.622 -1057.7 0.
-216.647 -729.34 0.
68.3402 -534.499 0.
81.2029 -502.525 0.
-681.045 -1062.12 0.
390.055 -302.811 0.
334.864 -429.814 0.
-327.05 -1238.66 0.
-195.033 -931.121 0.
-154.377 -836.742 0.
-611.101 -2280.99 0.
384.011 39.9195 0.
389.299 50.8344 0.
102.813 -744.798 0.
-266.362 -1606.82 0.
178.92 -568.453 0.
-45.1439 -200.564 0.
-72.5 -268.85 0.
-34.0747 -762.786 0.
177.428 -272.968 0.
-288.186 -1363.1 0.
-327.949 -2217.83 0.
-51.3481 -1574.85 0.
452.793 -400.97 0.
78.0151 -436.893 0.
30.3954 -549.283 0.
-4.04424 -630.963 0.
-157.468 -507.855 0.
-435.654 -1156.35 0.
-327.563 -794.186 0.
-36.8628 -440.339 0.
-329.492 -1127.86 0.
6.95872 -629.606 0.
394.762 269.545 0.
695.366 965.253 0.
-799.755 -2208.62 0.
-371.485 -1210.71 0.
105.181 -99.7889 0.
584.706 445.174 0.
-299.559 -1617.06 0.
-1008.26 -3269.74 0.
-750.157 -2572.07 0.
-238.443 -1376.56 0.
-247.729 -1358.24 0.
-101.378 -1015.68 0.
249.223 -196.624 0.
-318.014 -758.111 0.
-561.619 -1325.87 0.
34.2406 64.9932 0.
546.08 -91.2307 0.
168.908 -967.872 0.
350.526 -540.719 0.
-197.336 -1680.63 0.
604.104 192.451 0.
-1204.38 -1106.72 0.
829.344 71.3248 0.
482.256 -735.275 0.
656.801 -786.946 0.
196.261 -1865.55 0.
-250.562 -2912.12 0.
-536.955 -935.564 0.
190.325 758.989 0.
277.791 960.659 0.
479.615 -52.6163 0.
-18.5833 -1218.73 0.
1053.09 1278.28 0.
-386.761 -129.041 0.
-1252.59 -2146.67 0.
-527.109 -1789.14 0.
646.819 948.995 0.
283.09 99.2378 0.
603.187 -33.7847 0.
332.244 -664.989 0.
368.336 -579.741 0.
39.9407 -1184.61 0.
932.052 894.731 0.
838.158 673.449 0.
-634.432 -1424.49 0.
-815.244 -1844.96 0.
352.075 70.3838 0.
-205.313 -671.029 0.
-536.907 -1445.49 0.
447.466 160.557 0.
-26.1308 -943.893 0.
-8.67897 -902.493 0.
-125.331 -932.241 0.
-24.0974 -697.408 0.
39.3631 -550.651 0.
-16.3149 -1550.57 0.
-54.626 -1637.79 0.
-517.81 -2716.42 0.
-127.845 -1048.34 0.
338.713 39.3731 0.
500.734 537.851 0.
386.293 269.337 0.
253.356 -42.4969 0.
605.968 -154.109 0.
523.303 -344.771 0.
925.21 595.239 0.
-420.165 -699.184 0.
-447.388 -763.083 0.
-366.732 -575.228 0.
720.656 542.129 0.
218.167 -629.239 0.
-231.109 -926.585 0.
114.487 -732.567 0.
146.746 -656.368 0.
39.8467 -678.934 0.
-37.9429 -861.255 0.
-115.732 -1043.58 0.
-187.861 -1159.27 0.
-182.326 -1145.9 0.
-176.792 -1132.53 0.
-116.164 -1106.12 0.
-122.336 -1121.87 0.
-128.508 -1137.62 0.
-454.073 -1164.64 0.
-380.81 -997.741 0.
87.9311 -690.764 0.
17.6953 -857.79 0.
-52.5411 -1024.82 0.
4.52504 -1112.48 0.
-35.3257 -1207.42 0.
-75.1762 -1302.36 0.
-182.031 -1440.62 0.
-236.442 -1568.62 0.
-290.852 -1696.63 0.
-457.743 -1604.89 0.
-328.646 -1304.1 0.
-204.254 -1005.16 0.
-484.972 -1094.09 0.
-467.227 -1056.12 0.
-67.8566 -898.744 0.
-158.032 -1114.24 0.
-248.207 -1329.75 0.
-468.311 -1525.55 0.
-466.795 -1525.18 0.
-465.278 -1524.8 0.
-271.893 -1315.61 0.
-170.081 -1076.97 0.
-68.2702 -838.323 0.
-291.793 -1110.03 0.
-411.466 -1387.73 0.
-174.327 -1462.78 0.
-59.3346 -1194.8 0.
55.6578 -926.81 0.
-240.083 -964.46 0.
-328.601 -1170.92 0.
-417.119 -1377.38 0.
-154.545 -1315.98 0.
-133.228 -1265.27 0.
-111.911 -1214.56 0.
111.215 -1069.28 0.
142.008 -994.728 0.
-879.703 -1368.57 0.
271.444 -860.756 0.
277.05 -844.003 0.
459.528 -787.33 0.
400.794 -927.957 0.
342.06 -1068.58 0.
-393.234 -1438.59 0.
-391.719 -1438.01 0.
-390.203 -1437.42 0.
-232.068 -1262.2 0.
-144.697 -1060.78 0.
-57.3257 -859.351 0.
-691.307 -1208.35 0.
-749.208 -1341.02 0.
-272.829 -1238.54 0.
-268.423 -1229.1 0.
-264.017 -1219.66 0.
-6.96868 -1102.88 0.
-11.2851 -1111.75 0.
-15.6017 -1120.62 0.
59.7913 -1051.43 0.
97.9214 -963.305 0.
136.052 -875.181 0.
-488.612 -1015.92 0.
-416.718 -845.936 0.
66.0454 -507.299 0.
-104.264 -843.627 0.
-242.753 -1166.32 0.
-223.752 -1370.38 0.
-254.173 -1440.28 0.
-284.593 -1510.17 0.
-120.584 -1395.92 0.
-31.5629 -1188.26 0.
57.4587 -980.609 0.
202.45 -809.51 0.
246.122 -705.648 0.
289.794 -601.786 0.
-243.174 -990.358 0.
-339.919 -1216.1 0.
-369.873 -1381.63 0.
-321.783 -1269.74 0.
-273.693 -1157.85 0.
260.061 -920.369 0.
182.007 -1099.94 0.
103.952 -1279.5 0.
-580.111 -1434.17 0.
-394.881 -1002.4 0.
-209.651 -570.629 0.
84.7884 -542.129 0.
-26.8445 -801.897 0.
264.455 -684.589 0.
19.1143 -741.97 0.
51.6264 -665.973 0.
212.115 -573.313 0.
134.376 -755.868 0.
56.6372 -938.422 0.
-241.81 -1150.98 0.
-236.643 -1137.11 0.
-231.477 -1123.24 0.
-177.602 -1100.59 0.
-183.591 -1116.6 0.
-189.581 -1132.61 0.
-432.316 -1124.16 0.
-359.212 -957.03 0.
216.817 -602.944 0.
146.44 -770.102 0.
76.0615 -937.261 0.
-152.216 -1148.73 0.
-192.159 -1243.58 0.
-232.102 -1338.43 0.
42.9634 -1312.62 0.
-11.5959 -1440.48 0.
-66.1552 -1568.34 0.
-233.064 -1477.15 0.
-103.406 -1176.53 0.
7.96574 -883.534 0.
-673.782 -1144.04 0.
-656.38 -1105.64 0.
-2.69801 -840.283 0.
-93.2725 -1055.63 0.
-183.847 -1270.99 0.
-403.568 -1465.97 0.
-401.757 -1466.22 0.
-399.945 -1466.47 0.
-380.137 -1329.92 0.
-278.349 -1091.33 0.
-176.56 -852.738 0.
-480.873 -1159.21 0.
-600.428 -1436.98 0.
-12.4453 -1360.08 0.
102.915 -1092.85 0.
218.274 -825.61 0.
-19.5536 -838.803 0.
-107.926 -1045.21 0.
-196.298 -1251.61 0.
-353.355 -1369.93 0.
-331.335 -1319.44 0.
-309.315 -1268.95 0.
185.94 -1005.17 0.
216.901 -930.569 0.
-2151.35 -1883.47 0.
91.8963 -908.124 0.
97.3779 -891.579 0.
235.161 -851.401 0.
176.256 -991.833 0.
117.352 -1132.27 0.
63.3104 -1211.85 0.
65.0584 -1211.33 0.
66.8071 -1210.8 0.
-452.571 -1325.81 0.
-365.558 -1123.49 0.
-278.546 -921.161 0.
-481.567 -1088.22 0.
-539.246 -1221.03 0.
-233.347 -1188.52 0.
-228.67 -1179.04 0.
-223.993 -1169.57 0.
-176.019 -1143.04 0.
-180.394 -1151.73 0.
-184.768 -1160.42 0.
30.0005 -1034.87 0.
67.6433 -946.274 0.
105.286 -857.679 0.
-507.955 -992.526 0.
-436.295 -822.448 0.
379.583 -343.02 0.
125.517 -714.894 0.
-13.1996 -1037.31 0.
-225.406 -1339.63 0.
-255.877 -1409.15 0.
-286.349 -1478.66 0.
144.349 -1251.77 0.
233.163 -1043.74 0.
321.977 -835.712 0.
98.5306 -821.381 0.
142.339 -717.545 0.
186.147 -613.708 0.
-398.336 -1025.3 0.
-495.492 -1250.78 0.
-413.035 -1369.42 0.
-365.203 -1257.15 0.
-317.371 -1144.89 0.
253.906 -893.482 0.
175.711 -1073.17 0.
97.516 -1252.85 0.
-373.522 -1314.05 0.
-188.271 -882.227 0.
-3.01928 -450.4 0.
-108.564 -593.866 0.
-220.141 -853.927 0.
294.865 -842.588 0.
-92.1514 -907.188 0.
-45.3974 -800.069 0.
262.739 -636.689 0.
162.918 -871.093 0.
63.0965 -1105.5 0.
-415.34 -1377.3 0.
-363.727 -1258.32 0.
-312.114 -1139.35 0.
-218.772 -1120.28 0.
-262.689 -1222.64 0.
-306.605 -1324.99 0.
-409.591 -1419.54 0.
-435.007 -1475.53 0.
-123.73 -1381.19 0.
-95.8432 -1314.95 0.
-67.9565 -1248.71 0.
-281.53 -1300.48 0.
-272.527 -1279.58 0.
-263.524 -1258.69 0.
111.033 -1134.9 0.
67.3253 -1235.72 0.
23.6175 -1336.55 0.
-163.296 -1440.4 0.
-166.271 -1445.72 0.
115.851 -1328.78 0.
-796.461 -1583.84 0.
-724.358 -1416.07 0.
-115.821 -1073.93 0.
-170.349 -1196.98 0.
-224.876 -1320.03 0.
-390.893 -1412.57 0.
-344.655 -1305.61 0.
-298.417 -1198.66 0.
-421.989 -1303.5 0.
-481.84 -1442.5 0.
-541.691 -1581.51 0.
-811.8 -1773.69 0.
-849.852 -1862.09 0.
-60.4949 -1577.68 0.
-9.19659 -1453.46 0.
42.1012 -1329.24 0.
-129.08 -1340.32 0.
-139.855 -1360.8 0.
-150.63 -1381.28 0.
-469.808 -1485.46 0.
-433.677 -1401.8 0.
-397.547 -1318.14 0.
145.665 -1065.68 0.
148.917 -1062.83 0.
-1928.95 -1950.88 0.
-92.3797 -1219.32 0.
-121.296 -1287.16 0.
-50.6415 -1314.49 0.
-98.667 -1423.63 0.
-146.693 -1532.77 0.
-6.58321 -1482.25 0.
44.0936 -1361.55 0.
94.7704 -1240.86 0.
-542.768 -1503.74 0.
-558.455 -1540 0.
-574.141 -1576.27 0.
-481.183 -1456.21 0.
-433.73 -1346.71 0.
-256.607 -1204.08 0.
-332.937 -1380.2 0.
-409.267 -1556.31 0.
-483.474 -1695.61 0.
-506.411 -1747.99 0.
-529.347 -1800.36 0.
-311.81 -1620.4 0.
-218.543 -1404.85 0.
-125.277 -1189.3 0.
-705.506 -1486.31 0.
-756.261 -1607.76 0.
-18.6251 -1389.1 0.
-137.742 -1431.74 0.
-132.457 -1421.1 0.
-266.557 -1485.11 0.
-298.184 -1558.31 0.
-329.812 -1631.51 0.
115.535 -1459.17 0.
130.053 -1427.17 0.
144.57 -1395.16 0.
-233.578 -1531.48 0.
-220.849 -1505.99 0.
-208.119 -1480.5 0.
-522.471 -1442.03 0.
-425.002 -1216.76 0.
-327.77 -1034.89 0.
-388.116 -1176.14 0.
-448.462 -1317.39 0.
98.6077 -1120.31 0.
149.301 -1006.01 0.
199.993 -891.714 0.
-186.077 -1084.5 0.
-247.169 -1226.72 0.
-308.262 -1368.94 0.
-466.253 -1363.85 0.
-400.342 -1213.82 0.
58.8149 -910.191 0.
-58.2492 -860.194 0.
-11.6438 -753.222 0.
315.511 -583.316 0.
215.578 -817.343 0.
115.645 -1051.37 0.
-510.855 -1385.91 0.
-459.214 -1266.67 0.
-407.573 -1147.44 0.
-198.276 -1081.51 0.
-242.177 -1183.82 0.
-286.079 -1286.13 0.
-40.7466 -1230.43 0.
-66.2676 -1286.3 0.
-236.804 -1397.81 0.
-208.773 -1331.72 0.
-180.741 -1265.64 0.
-251.18 -1256.29 0.
-242.244 -1235.5 0.
-233.308 -1214.71 0.
-102.095 -1193.73 0.
-145.47 -1294.8 0.
-188.846 -1395.87 0.
-227.575 -1437.83 0.
-230.444 -1443.46 0.
378.729 -1186.73 0.
-419.288 -1390.84 0.
-346.748 -1223.52 0.
-187.67 -1071.62 0.
-241.995 -1195.43 0.
-296.32 -1319.23 0.
-454.73 -1409.1 0.
-408.463 -1302.62 0.
-362.195 -1196.15 0.
-408.044 -1264.87 0.
-468.304 -1404.02 0.
-528.563 -1543.18 0.
-762.312 -1721.09 0.
-800.802 -1809.35 0.
-79.5358 -1555.14 0.
-28.4076 -1431.39 0.
22.7202 -1307.64 0.
-71.6087 -1283.93 0.
-81.8113 -1305.12 0.
-92.0142 -1326.32 0.
-412.419 -1428.17 0.
-376.355 -1344.43 0.
-340.292 -1260.69 0.
79.4754 -1064.24 0.
81.9428 -1060.84 0.
-142.443 -1154.65 0.
-14.6544 -1154.78 0.
-44.0475 -1222.24 0.
-16.3739 -1268.02 0.
-64.1548 -1377.52 0.
-111.936 -1487.02 0.
-310.243 -1579.39 0.
-259.149 -1459.48 0.
-208.054 -1339.56 0.
-338.879 -1383.79 0.
-354.831 -1419.84 0.
-370.784 -1455.89 0.
-256.361 -1328.31 0.
-209.283 -1218.34 0.
-310.35 -1197.71 0.
-386.812 -1373.18 0.
-463.274 -1548.66 0.
-463.288 -1656.45 0.
-486.26 -1708.27 0.
-509.232 -1760.09 0.
-476.762 -1661.61 0.
-383.309 -1446.11 0.
-289.857 -1230.61 0.
-611.374 -1412.58 0.
-661.77 -1534.44 0.
-442.998 -1540.16 0.
-218.686 -1435.43 0.
-213.432 -1424.57 0.
-187.479 -1420.32 0.
-219.053 -1493.07 0.
-250.627 -1565.81 0.
39.1711 -1461.82 0.
53.4911 -1429.6 0.
67.8108 -1397.39 0.
-155.181 -1465.26 0.
-142.799 -1439.27 0.
-130.417 -1413.28 0.
-193.403 -1271.48 0.
-96.2155 -1045.63 0.
-394.788 -1030.61 0.
-454.973 -1171.94 0.
-515.158 -1313.28 0.
2.43716 -1130.98 0.
52.1271 -1016.02 0.
101.817 -901.046 0.
-142.78 -1034.75 0.
-203.973 -1176.76 0.
-265.167 -1318.78 0.
-308.335 -1265.87 0.
-242.093 -1115.22 0.
39.3891 -473.625 0.
-2.83302 -765.075 0.
490.751 386.963 0.
535.456 -141.113 0.
410.886 -430.422 0.
623.529 67.2403 0.
34.726 93.6994 0.
-70.4469 -152.049 0.
41.1935 106.846 0.
396.821 299.373 0.
387.528 278.169 0.
207.415 -141.558 0.
663.87 -250.642 0.
471.53 -701.793 0.
69.1391 -431.646 0.
507.306 587.761 0.
280.239 54.9481 0.
416.009 274.409 0.
368.137 162.529 0.
280.537 -42.3201 0.
441.689 507.603 0.
409.646 433.012 0.
-337.703 -1310.49 0.
219.461 -240.255 0.
684.505 841.581 0.
674.79 424.245 0.
650.226 416.335 0.
239.481 -547.447 0.
-41.2732 -560.721 0.
321.28 283.356 0.
424.425 522.09 0.
141.491 140.234 0.
-46.8088 -298.107 0.
-44.8693 -292.159 0.
143.708 18.6852 0.
336.812 471.904 0.
64.6538 -159.906 0.
500.089 1170.76 0.
40.1472 96.1862 0.
836.049 652.629 0.
550.262 -17.4089 0.
518.855 -93.6242 0.
345.826 -378.888 0.
793.892 663.528 0.
796.005 665.091 0.
254.944 55.1136 0.
-141.633 -872.162 0.
297.918 151.826 0.
845.209 872.031 0.
729.949 601.928 0.
-2168.9 -1048.76 0.
519.522 -6.04728 0.
398.063 -291.905 0.
1162.56 1455.88 0.
901.896 846.232 0.
530.563 -21.0035 0.
310.838 476.033 0.
166.895 140.553 0.
376.345 629.705 0.
344.496 -131.105 0.
475.81 176.988 0.
749.238 816.156 0.
541.155 133.047 0.
558.056 179.24 0.
248.22 239.729 0.
236.886 212.486 0.
367.648 517.123 0.
441.947 452.823 0.
786.796 1254.85 0.
312.797 146.137 0.
16.3087 -170.182 0.
171.327 191.443 0.
189.318 233.093 0.
130.02 161.066 0.
666.151 1414.43 0.
-269.552 281.574 0.
380.214 139.766 0.
688.425 858.7 0.
428.782 -90.9295 0.
292.707 -410.927 0.
298.974 -399.023 0.
329.261 -613.58 0.
322.968 -623.831 0.
667.775 185.247 0.
567.749 98.9927 0.
302.403 -517.323 0.
784.753 610.528 0.
732.128 303.794 0.
950.994 819.13 0.
-256.175 -554.193 0.
-43.5979 -56.6928 0.
20.9933 95.3781 0.
121.484 -635.634 0.
577.475 426.843 0.
514.671 278.234 0.
-134.873 -1065.56 0.
161.235 -375.172 0.
-71.2143 -917.907 0.
-71.3904 -985.429 0.
-42.1341 -913.961 0.
-133.464 -803.663 0.
-130.052 -980.866 0.
-227.361 -1207.62 0.
-77.5241 -1251.04 0.
17.8303 -1026.75 0.
113.185 -802.461 0.
-268.496 -975.199 0.
-407.295 -1299.03 0.
-546.095 -1622.86 0.
-345.188 -1601.6 0.
-320.503 -1543.08 0.
-295.819 -1484.56 0.
45.4229 -1264.88 0.
82.0756 -1178.12 0.
-155.509 -1220.66 0.
-201.933 -1330.11 0.
-248.358 -1439.57 0.
-354.87 -1516.59 0.
-300.636 -1391.03 0.
-246.402 -1265.48 0.
-259.074 -1179.74 0.
-216.137 -1080.36 0.
-173.2 -980.979 0.
-204.123 -1074.58 0.
-268.318 -1226.89 0.
28.0245 -1224.89 0.
-202.457 -1229.67 0.
-148.187 -1106.62 0.
-127.126 -1045.48 0.
-194.233 -1204.84 0.
-261.34 -1364.21 0.
-669.1 -1623.83 0.
-682.216 -1653.77 0.
-695.332 -1683.71 0.
-282.317 -1591.94 0.
-347.172 -1741.65 0.
-412.027 -1891.37 0.
-954.112 -1904.75 0.
-813.99 -1577.46 0.
92.6007 -973.796 0.
-29.5217 -1260.75 0.
-151.644 -1547.71 0.
-223.503 -1645.49 0.
-78.8914 -1309.76 0.
65.7208 -974.029 0.
-295.676 -1059.42 0.
-343.135 -1173.82 0.
-390.594 -1288.21 0.
-18.5487 -1238.31 0.
-75.8675 -1373.94 0.
-52.4011 -1475.11 0.
-67.4943 -1478.98 0.
-65.8786 -1475.84 0.
-160.397 -1480.82 0.
-82.4784 -1298.5 0.
-4.5603 -1116.17 0.
-366.611 -1224.55 0.
-403.577 -1311.67 0.
-440.543 -1398.79 0.
-342.42 -1392.15 0.
-352.111 -1415.57 0.
-361.801 -1438.99 0.
-170.507 -1359.25 0.
-175.669 -1367.62 0.
-442.395 -1478.63 0.
-405.335 -1393.38 0.
-368.274 -1308.14 0.
-180.328 -1147.97 0.
-130.561 -1031.91 0.
-80.7955 -915.856 0.
-338.926 -1136.96 0.
-480.046 -1465.22 0.
-621.166 -1793.49 0.
-616.002 -1700.13 0.
-515.922 -1464.4 0.
71.4644 -1021.28 0.
-35.7901 -1077.16 0.
-39.9514 -1088.81 0.
-165.528 -1192.7 0.
-253.475 -1400.03 0.
-341.421 -1607.35 0.
-229.484 -1558.77 0.
-133.223 -1329.1 0.
-36.9613 -1099.43 0.
70.4673 -1091.28 0.
-2.78967 -1260.93 0.
-76.0467 -1430.57 0.
50.1681 -1278.6 0.
113.154 -1129.24 0.
-428.268 -1227.69 0.
-335.143 -1010.03 0.
-242.018 -792.37 0.
102.033 -573.145 0.
50.4013 -697.316 0.
-1.23042 -821.488 0.
-101.952 -932.854 0.
-122.435 -982.897 0.
-142.918 -1032.94 0.
89.3575 -734.194 0.
222.577 -420.635 0.
-156.433 -783.983 0.
-156.742 -962.312 0.
-253.868 -1189.31 0.
-229.057 -1284.41 0.
-133.93 -1060.06 0.
-38.8039 -835.718 0.
-62.2213 -854.953 0.
-201.132 -1178.73 0.
-340.044 -1502.52 0.
-239.872 -1524.89 0.
-215.044 -1466.2 0.
-190.217 -1407.51 0.
-165.073 -1324.24 0.
-129.218 -1237.02 0.
-1.74899 -1124.5 0.
-48.3792 -1233.83 0.
-95.0091 -1343.15 0.
-342.763 -1479.86 0.
-288.498 -1354.4 0.
-234.233 -1228.93 0.
-212.255 -1126.37 0.
-168.605 -1027.25 0.
-124.956 -928.128 0.
-267.738 -1070.84 0.
-332.435 -1222.65 0.
-2.69539 -1205.77 0.
-365.854 -1268.87 0.
-311.399 -1146.28 0.
41.0838 -940.656 0.
-25.8374 -1100.5 0.
-92.759 -1260.34 0.
-718.803 -1611.31 0.
-731.675 -1641.89 0.
-744.545 -1672.47 0.
58.7786 -1413.84 0.
-5.97434 -1563.61 0.
-70.7273 -1713.37 0.
-1103.95 -1937.89 0.
-964.068 -1610.34 0.
52.6266 -959.333 0.
-69.7895 -1245.83 0.
-192.206 -1532.32 0.
-239.545 -1621.6 0.
-95.24 -1285.69 0.
49.0652 -949.774 0.
-369.379 -1060.3 0.
-416.386 -1174.95 0.
-463.392 -1289.6 0.
49.6795 -1176.74 0.
-7.42835 -1312.72 0.
-3196.73 -2790.31 0.
3.58337 -1416.23 0.
4.86434 -1413.37 0.
-223.35 -1476.24 0.
-145.382 -1294.08 0.
-67.4136 -1111.92 0.
-286.244 -1158 0.
-322.644 -1245.36 0.
-359.043 -1332.73 0.
-505.873 -1431.72 0.
-515.469 -1455.13 0.
-525.065 -1478.55 0.
-241.024 -1357.23 0.
-245.751 -1365.76 0.
-366.956 -1414.03 0.
-330.221 -1328.54 0.
-293.486 -1243.04 0.
-88.0342 -1078.18 0.
-38.3863 -961.913 0.
11.261 -845.647 0.
-251.773 -1067.88 0.
-392.412 -1396.44 0.
-533.05 -1724.99 0.
-536.586 -1633.99 0.
-436.234 -1398.31 0.
655.303 -740.754 0.
108.992 -984.466 0.
104.565 -995.999 0.
-295.81 -1217.64 0.
-384.166 -1424.51 0.
-472.521 -1631.38 0.
-402.884 -1602.52 0.
-306.675 -1372.87 0.
-210.467 -1143.21 0.
102.797 -1046.25 0.
29.9341 -1216.54 0.
-42.9284 -1386.83 0.
63.2217 -1241.03 0.
126.882 -1091.99 0.
-268.014 -1126.58 0.
-174.752 -909.215 0.
-81.4904 -691.847 0.
62.262 -558.673 0.
11.0738 -683.289 0.
-40.1147 -807.905 0.
-114.588 -906.521 0.
-134.483 -956.936 0.
-154.377 -1007.35 0.
171.032 -667.567 0.
304.661 -353.621 0.
-254.025 -980.038 0.
-238.98 -999.272 0.
-231.37 -982.692 0.
-172.9 -990.625 0.
-278.614 -1240.25 0.
-384.328 -1489.87 0.
-346.466 -1535.66 0.
-277.143 -1375.22 0.
-207.82 -1214.77 0.
-43.3572 -1129.48 0.
-68.0864 -1187.24 0.
-92.8155 -1245 0.
-224.22 -1298.71 0.
-221.617 -1294.15 0.
-1.06994 -1204.05 0.
-25.9226 -1260.5 0.
-50.775 -1316.95 0.
-348.667 -1462.4 0.
-330.371 -1417.96 0.
-312.075 -1373.53 0.
-282.214 -1303.24 0.
-242.37 -1209.39 0.
-202.525 -1115.54 0.
-286.828 -995.996 0.
-190.045 -771.18 0.
207.202 -417.448 0.
-265.136 -994.88 0.
-464.809 -1461.06 0.
-127.576 -1568.06 0.
10.5949 -1242.55 0.
148.766 -917.038 0.
-480.396 -1100.01 0.
-557.921 -1282.09 0.
-635.446 -1464.18 0.
80.7204 -1267.03 0.
35.821 -1372.88 0.
-9.07791 -1478.73 0.
-1044.17 -1798.44 0.
-967.141 -1618.39 0.
-4.30734 -1061.45 0.
75.9459 -874.357 0.
156.199 -687.267 0.
158.505 -635.457 0.
71.1865 -838.577 0.
-16.1321 -1041.7 0.
-487.591 -1309 0.
-476.368 -1280.14 0.
-465.145 -1251.27 0.
126.809 -933.984 0.
168.628 -834.866 0.
-4199.18 -2626.6 0.
348.859 -717.536 0.
329.223 -765.442 0.
-127.231 -1015.56 0.
-192.094 -1168.71 0.
-256.958 -1321.87 0.
-298.208 -1321.01 0.
-200.676 -1088.8 0.
-103.145 -856.598 0.
-439.108 -1063.48 0.
-542.824 -1301.2 0.
-646.54 -1538.92 0.
-292.992 -1407.7 0.
-291.933 -1404.72 0.
-329.021 -1410.11 0.
-301.428 -1343.29 0.
-273.834 -1276.46 0.
-79.4163 -1182.6 0.
-120.603 -1276.77 0.
-161.79 -1370.94 0.
-354.599 -1370.69 0.
-246.451 -1118.63 0.
-138.303 -866.575 0.
-307.438 -1125.34 0.
-459.858 -1485.77 0.
417.65 -1406.84 0.
-131.257 -1564.36 0.
-90.0567 -1468.91 0.
-417.277 -1510.05 0.
-343.254 -1332.57 0.
-269.23 -1155.1 0.
-252.164 -1129.76 0.
-319.56 -1287.96 0.
-386.956 -1446.15 0.
-105.178 -1333.03 0.
-82.6229 -1282.32 0.
-60.0681 -1231.62 0.
48.7757 -1088.2 0.
109.445 -950.174 0.
-77.429 -928.858 0.
-103.705 -991.857 0.
-129.98 -1054.86 0.
-154.413 -1083.64 0.
-125.894 -1018.04 0.
-97.3748 -952.439 0.
-166.737 -971.42 0.
-178.472 -995.107 0.
-190.208 -1018.79 0.
34.29 -825.432 0.
99.6907 -672.461 0.
-233.166 -941.438 0.
-345.138 -1014.94 0.
-338.09 -998.109 0.
-155.783 -951.942 0.
-262.051 -1201.21 0.
-368.318 -1450.48 0.
-495.623 -1567.78 0.
-426.184 -1407.75 0.
-356.744 -1247.71 0.
-42.2122 -1097.82 0.
-67.1394 -1155.43 0.
-92.0666 -1213.04 0.
-155.962 -1238.63 0.
-153.539 -1233.65 0.
-41.3487 -1190.33 0.
-66.4471 -1246.5 0.
-91.5452 -1302.66 0.
-362.75 -1437.54 0.
-344.261 -1393.34 0.
-325.773 -1349.13 0.
-290.482 -1276.15 0.
-250.784 -1182.11 0.
-211.085 -1088.08 0.
-314.702 -976.778 0.
-218.132 -751.993 0.
-374.464 -635.515 0.
-104.938 -894.71 0.
-304.307 -1361.46 0.
-23.3196 -1492.04 0.
114.529 -1166.4 0.
252.378 -840.766 0.
-355.13 -1012.5 0.
-432.92 -1194.7 0.
-510.709 -1376.89 0.
-312.182 -1404.24 0.
-357.447 -1510.1 0.
-402.711 -1615.96 0.
-863.625 -1689.93 0.
-786.273 -1509.59 0.
36.068 -1013.57 0.
116.123 -826.139 0.
196.177 -638.707 0.
149.103 -608.397 0.
61.7304 -811.691 0.
-25.6419 -1014.98 0.
-412.704 -1244.45 0.
-401.108 -1216.25 0.
-389.513 -1188.04 0.
20.1221 -946.403 0.
62.6284 -848.127 0.
1440.3 -178.155 0.
420.305 -654.651 0.
400.502 -702.485 0.
-273.306 -1047.47 0.
-338.528 -1200.12 0.
-403.751 -1352.78 0.
-218.552 -1256.66 0.
-121.179 -1024.32 0.
-23.8059 -791.983 0.
-483.593 -1052.7 0.
-587.477 -1290.21 0.
-691.359 -1527.72 0.
-259.694 -1360.8 0.
-258.887 -1357.74 0.
-287.07 -1361.37 0.
-259.005 -1294.83 0.
-230.941 -1228.3 0.
-6.58479 -1118.73 0.
-47.4325 -1213.26 0.
-88.28 -1307.79 0.
-340.638 -1333.73 0.
-232.239 -1082.01 0.
-123.839 -830.29 0.
-325.244 -1100.88 0.
-477.873 -1461.03 0.
-13.3136 -1559.29 0.
-217.189 -1569.74 0.
-175.943 -1474.86 0.
-261.731 -1412.59 0.
-187.154 -1235.55 0.
-112.577 -1058.51 0.
-175.846 -1064.98 0.
-243.477 -1223.37 0.
-311.109 -1381.76 0.
-307.159 -1388.94 0.
-284.724 -1338.62 0.
-262.289 -1288.31 0.
-132.663 -1133.89 0.
-72.3062 -995.514 0.
57.7124 -840.838 0.
31.5401 -903.678 0.
5.36782 -966.518 0.
-66.9142 -1015.2 0.
-38.1431 -949.811 0.
-9.37181 -884.427 0.
-191.772 -951.272 0.
-203.356 -975.164 0.
-214.939 -999.057 0.
-176.727 -884.451 0.
-111.829 -731.865 0.
447.891 647.57 0.
-214.767 -472.978 0.
-304.343 -685.667 0.
253.814 -0.55258 0.
127.672 -296.397 0.
621.504 855.659 0.
-216.698 -603.196 0.
-226.482 -627.185 0.
77.6529 80.6658 0.
300.565 -266.577 0.
565.978 350.311 0.
801.963 898.962 0.
439.416 53.0327 0.
590.835 406.942 0.
621.497 473.262 0.
139.212 -654.042 0.
548.168 298.434 0.
382.113 359.893 0.
423.848 456.208 0.
53.043 -409.955 0.
283.655 107.158 0.
414.875 413.456 0.
627.416 909.734 0.
53.3152 -47.2001 0.
277.626 474.925 0.
-9.39889 319.172 0.
538.543 327.757 0.
736.746 786.37 0.
1042.43 839.73 0.
796.77 267.127 0.
235.57 -1041.5 0.
37.8648 -295.591 0.
199.45 79.8636 0.
199.676 78.6783 0.
62.6308 252.712 0.
88.5643 312.757 0.
309.623 827.687 0.
408.201 970.234 0.
72.2127 186.859 0.
528.975 84.9744 0.
886.086 917.852 0.
521.689 66.7845 0.
683.016 690.816 0.
442.852 128.172 0.
716.079 763.373 0.
411.733 578.628 0.
-49.6656 -500.675 0.
307.953 330.857 0.
662.25 792.859 0.
1048.22 1695.49 0.
-5326.62 -1389.88 0.
1100.97 828.162 0.
1040.55 688.052 0.
-125.525 -392.121 0.
317.06 638.553 0.
-118.178 -378.724 0.
31.3551 -790.496 0.
298.164 -169.941 0.
-8.79921 -887.682 0.
-381.207 -690.085 0.
224.196 719.091 0.
-150.455 -158.818 0.
363.933 67.1547 0.
209.78 -294.475 0.
215.194 -231.168 0.
593.248 649.892 0.
471.391 364.331 0.
441.84 -176.861 0.
326.634 -446.391 0.
489.086 -68.0394 0.
365.97 311.666 0.
-94.7934 -763.825 0.
-61.5571 -686.467 0.
14.3353 -251.305 0.
-105.261 -528.805 0.
500.744 664.587 0.
324.416 -114.551 0.
670.453 696.887 0.
560.901 249.308 0.
186.665 -623.937 0.
31.2527 -987.197 0.
407.631 167.031 0.
519.193 426.898 0.
383.438 109.947 0.
23.3109 -199.286 0.
-134.383 -564.678 0.
11.9168 -220.839 0.
97.2583 -225.427 0.
-12.3202 -476.044 0.
970.647 1060.68 0.
688.255 406.562 0.
317.754 -453.803 0.
691.59 600.452 0.
949.732 1204.83 0.
694.955 612.294 0.
10.5043 -401.148 0.
98.6397 -197.627 0.
598.399 967.257 0.
234.524 489.288 0.
301.158 644.032 0.
-81.564 -1050.44 0.
-411.447 -1058.58 0.
-361.885 -944.22 0.
-1.20745 -729.135 0.
-40.7394 -821.787 0.
-80.2711 -914.44 0.
-261.514 -1014.97 0.
-239.302 -964.305 0.
-217.089 -913.637 0.
7.00531 -883.781 0.
-56.8148 -1032.92 0.
-120.635 -1182.05 0.
-161.605 -1177.96 0.
-137.316 -1121.41 0.
-105.529 -1057.69 0.
-94.9161 -1036.31 0.
-84.3025 -1014.93 0.
-399.599 -1178.66 0.
-463.84 -1330.47 0.
-528.08 -1482.28 0.
-240.932 -1363.52 0.
-190.806 -1248.44 0.
-140.679 -1133.37 0.
-201.038 -1058.12 0.
-146.817 -933.554 0.
29.9494 -756.533 0.
-66.7682 -905.959 0.
-120.557 -1033.11 0.
-20.4505 -1106.29 0.
-111.565 -1319.92 0.
-202.679 -1533.55 0.
-380.349 -1680.44 0.
-349.529 -1610.57 0.
-318.709 -1540.7 0.
-706.445 -1550.57 0.
-597.767 -1298.86 0.
-489.089 -1047.14 0.
-383.879 -1080.87 0.
-441.822 -1216.95 0.
-84.3547 -1174.55 0.
-126.49 -1274.7 0.
-168.625 -1374.86 0.
-242.652 -1405.14 0.
-152.326 -1195.88 0.
-61.9999 -986.621 0.
-265.513 -995.539 0.
-262.005 -991.996 0.
-258.497 -988.452 0.
-107.642 -951.859 0.
-126.748 -996.263 0.
-289.284 -1103.45 0.
202.072 -994.614 0.
148.447 -1119.71 0.
-584.513 -1455.24 0.
-451.609 -1144.58 0.
-318.705 -833.922 0.
51.2081 -633.584 0.
-58.8843 -889.646 0.
-168.977 -1145.71 0.
-431.652 -1204.87 0.
-337.157 -986.739 0.
-242.661 -768.608 0.
-150.603 -884.489 0.
-251.248 -1122.07 0.
-282.855 -1314.24 0.
-306.033 -1370.49 0.
-329.212 -1426.74 0.
-284.661 -1409.18 0.
-242.972 -1312.59 0.
-201.283 -1215.99 0.
16.0516 -1073.71 0.
33.8209 -1033.04 0.
51.5903 -992.363 0.
-208.927 -1101.21 0.
-211.751 -1104.66 0.
12.4204 -1003.46 0.
-374.713 -1175.11 0.
-380.609 -1183.79 0.
-175.969 -1118.62 0.
-209.86 -1198.73 0.
-243.752 -1278.84 0.
-101.004 -1240.96 0.
-86.5522 -1205.77 0.
-72.1004 -1170.59 0.
-310.28 -1167.23 0.
-237.763 -995.417 0.
-165.247 -823.604 0.
-190.878 -939.186 0.
-265.587 -1108.4 0.
-24.7657 -1122.6 0.
3.4075 -1053.18 0.
31.5807 -983.758 0.
-201.608 -1026.44 0.
-177.514 -968.256 0.
-153.42 -910.068 0.
-80.5416 -870.422 0.
-87.508 -887.54 0.
-94.4742 -904.657 0.
-217.006 -1010.22 0.
-246.365 -1081.02 0.
177.018 -909.942 0.
-328.348 -991.666 0.
-279.476 -877.074 0.
85.0553 -661.545 0.
45.1728 -753.795 0.
5.2907 -846.046 0.
-84.1796 -907.355 0.
-61.8873 -856.857 0.
-39.5945 -806.358 0.
-13.4912 -861.869 0.
-77.5799 -1010.89 0.
-141.669 -1159.9 0.
-235.56 -1178.47 0.
-211.347 -1121.84 0.
-174.071 -1054.91 0.
-163.499 -1033.42 0.
-152.926 -1011.93 0.
-532.943 -1203.97 0.
-597.216 -1355.41 0.
-661.49 -1506.84 0.
-94.5752 -1270.54 0.
-44.6125 -1155.63 0.
5.35038 -1040.72 0.
36.5923 -924.559 0.
90.6171 -800.373 0.
-334.379 -881.755 0.
-144.522 -907.019 0.
-198.565 -1034.57 0.
-281.125 -1188.14 0.
-372.374 -1401.74 0.
-463.623 -1615.34 0.
-146.427 -1546.87 0.
-114.992 -1477.41 0.
-83.558 -1407.94 0.
-684.395 -1507.84 0.
-575.89 -1255.94 0.
-467.385 -1004.04 0.
-259.321 -996.931 0.
-317.367 -1132.99 0.
-158.258 -1174.94 0.
-200.031 -1275.32 0.
-241.804 -1375.71 0.
-262.473 -1381.15 0.
-172.195 -1172.03 0.
-81.9173 -962.899 0.
-252.119 -958.93 0.
-248.94 -955.27 0.
-245.762 -951.609 0.
-116.171 -923.573 0.
-135.248 -968.084 0.
988.271 -524.206 0.
74.571 -1017.55 0.
21.2095 -1142.53 0.
-571.824 -1418.78 0.
-439.216 -1108.28 0.
-306.608 -797.774 0.
10.1721 -619.127 0.
-100.179 -875.1 0.
-210.531 -1131.07 0.
-207.227 -1077.82 0.
-112.782 -859.408 0.
-18.3371 -640.997 0.
-267.537 -903.399 0.
-368.168 -1141.39 0.
-303.559 -1290.05 0.
-326.079 -1346.88 0.
-348.6 -1403.71 0.
-515.915 -1476.49 0.
-473.848 -1380.21 0.
-431.781 -1283.92 0.
331.412 -907.276 0.
349.656 -866.967 0.
367.9 -826.659 0.
-20.6649 -989.368 0.
-23.3622 -992.914 0.
497.955 -762.889 0.
-658.405 -1265.01 0.
-663.853 -1274.26 0.
-343.379 -1159.47 0.
-377.357 -1239.15 0.
-411.334 -1318.82 0.
29.613 -1153.73 0.
44.1188 -1118.53 0.
58.6248 -1083.33 0.
-194.702 -1087.21 0.
-121.957 -915.757 0.
-49.2109 -744.3 0.
-152.462 -890.717 0.
-226.758 -1060.45 0.
-81.297 -1115.65 0.
-52.8411 -1046.28 0.
-24.3852 -976.913 0.
-423.714 -1089.12 0.
-399.595 -1030.97 0.
-375.476 -972.81 0.
69.4645 -775.482 0.
62.4009 -792.694 0.
55.3375 -809.907 0.
33.8176 -871.452 0.
4.77934 -942.993 0.
393.938 -404.062 0.
-191.92 -834.51 0.
-255.753 -980.708 0.
-67.6175 -1003.55 0.
-91.2643 -1056.11 0.
-114.911 -1108.67 0.
-200.501 -1199.81 0.
-238.92 -1286.43 0.
-277.339 -1373.05 0.
-213.199 -1235.41 0.
-102.49 -977.702 0.
8.21854 -719.995 0.
-148.539 -928.009 0.
-248.624 -1161.7 0.
-336.18 -1342.67 0.
-206.646 -1035.54 0.
-77.1136 -728.411 0.
-335.458 -707.021 0.
-394.795 -843.107 0.
-454.132 -979.193 0.
94.0248 -775.503 0.
111.412 -733.816 0.
128.8 -692.13 0.
7.59833 -919.326 0.
-115.982 -1208.5 0.
-233.815 -1494.95 0.
-295.574 -1331.58 0.
-198.851 -1105.06 0.
-278.252 -994.993 0.
-266.923 -969.017 0.
-255.594 -943.04 0.
189.447 -821.741 0.
94.1459 -1041.18 0.
-1.15444 -1260.61 0.
-640.169 -1544.17 0.
-598.516 -1447.57 0.
-556.863 -1350.97 0.
-185.427 -1125.89 0.
-153.086 -1050.87 0.
-270.378 -1048.51 0.
-272.513 -1054.22 0.
-274.647 -1059.93 0.
-75.0058 -979.876 0.
-80.8914 -992.165 0.
-86.7766 -1004.45 0.
-295.738 -1086.46 0.
-281.102 -1052.55 0.
-266.466 -1018.65 0.
-235.949 -1038.72 0.
-258.547 -1091.61 0.
-2150.3 -1944.62 0.
142.222 -722.062 0.
267.79 -428.153 0.
-109.414 -443.519 0.
-204.981 -668.158 0.
-300.548 -892.798 0.
-161.986 -965.884 0.
-197.075 -1048.36 0.
-232.165 -1130.84 0.
-149.367 -1079.46 0.
-121.555 -1013.4 0.
-93.7433 -947.339 0.
-411.449 -1121.25 0.
-437.889 -1179.09 0.
-251.508 -1115.14 0.
-129.808 -829.434 0.
-8.10815 -543.729 0.
-143.229 -562.173 0.
-315.74 -961.876 0.
-488.252 -1361.58 0.
162.041 -1223.77 0.
154.517 -1238.57 0.
146.994 -1253.38 0.
-75.7398 -1237.5 0.
-3.33746 -1067.51 0.
615.664 -677.043 0.
-718.074 -1402.85 0.
-798.748 -1591.15 0.
-490.213 -1530.03 0.
-404.093 -1327.19 0.
-317.974 -1124.36 0.
70.6736 -888.36 0.
52.0091 -930.261 0.
33.3453 -972.162 0.
-138.813 -1055.92 0.
-139.58 -1058.15 0.
-140.346 -1060.38 0.
-316.423 -1197.37 0.
-346.965 -1269.85 0.
-182.462 -1222.59 0.
-89.0712 -1007.24 0.
4.32037 -791.883 0.
-365.631 -857.773 0.
-386.117 -908.836 0.
-406.603 -959.9 0.
87.4648 -743.947 0.
105.235 -702.964 0.
123.006 -661.98 0.
137.143 -624.109 0.
155.455 -584.042 0.
154.3 -478.34 0.
-79.0028 -755.533 0.
-142.627 -901.916 0.
-128.263 -997.709 0.
-151.743 -1050.28 0.
-175.223 -1102.85 0.
-322.984 -1219.53 0.
-360.882 -1306.58 0.
-398.781 -1393.63 0.
-262.588 -1226.15 0.
-151.822 -968.439 0.
-41.0554 -710.724 0.
-86.6715 -869.032 0.
-186.76 -1102.94 0.
-337.511 -1311.6 0.
-208.42 -1004.39 0.
-79.329 -697.192 0.
-209.101 -621.877 0.
-268.032 -758.215 0.
-326.964 -894.553 0.
-76.2488 -816.741 0.
-59.0487 -774.927 0.
-41.8485 -733.114 0.
-257.358 -1000.24 0.
-380.796 -1289.67 0.
-480.055 -1568.71 0.
-103.495 -1217.83 0.
-6.70322 -991.21 0.
-187.741 -925.331 0.
-176.228 -899.36 0.
-164.715 -873.39 0.
44.4981 -852.148 0.
-50.6671 -1071.59 0.
-145.832 -1291.03 0.
-485.792 -1445.73 0.
-443.753 -1349.28 0.
-401.714 -1252.82 0.
31.0323 -1002.76 0.
63.3914 -927.329 0.
-562.521 -1143.2 0.
-564.874 -1148.39 0.
-567.227 -1153.57 0.
16.0702 -910.636 0.
9.8992 -922.441 0.
3.72855 -934.245 0.
-247.818 -1033.56 0.
-232.25 -1000.5 0.
-216.681 -967.438 0.
-373.683 -1065.72 0.
-396.101 -1118.85 0.
-1718.76 -1728.14 0.
167.011 -679.362 0.
292.105 -385.242 0.
15.0412 -358.937 0.
-80.4679 -583.52 0.
-175.977 -808.102 0.
-139.92 -925.788 0.
-174.916 -1008.32 0.
-209.912 -1090.85 0.
-193.887 -1067.62 0.
-165.624 -1002.14 0.
-137.36 -936.657 0.
-384.526 -1077.46 0.
-411.169 -1135.44 0.
-270.557 -1090.43 0.
-148.392 -805.263 0.
-26.2259 -520.093 0.
60.6919 -442.569 0.
-111.556 -842.713 0.
-283.804 -1242.86 0.
-195.337 -1345.34 0.
-202.763 -1359.93 0.
-210.187 -1374.52 0.
-101.466 -1218.26 0.
-29.4286 -1048.03 0.
378.09 -745.232 0.
-403.534 -1234.71 0.
-484.391 -1423.32 0.
-267.187 -1404.49 0.
-181 -1201.76 0.
-94.8132 -999.037 0.
-195.233 -970.993 0.
-213.504 -1013.4 0.
-231.774 -1055.81 0.
-120.961 -1015.63 0.
-120.928 -1018.59 0.
-120.896 -1021.54 0.
-400.891 -1202.72 0.
-431.194 -1275.63 0.
-225.774 -1209.86 0.
-131.899 -994.562 0.
-38.024 -779.26 0.
-200.961 -755.019 0.
-221.323 -806.236 0.
-241.684 -857.452 0.
-15.2437 -756.652 0.
2.40252 -715.639 0.
20.0483 -674.625 0.
-66.858 -681.956 0.
-48.8042 -642.874 0.
76.7535 -154.976 0.
485.22 382.208 0.
296.917 -56.4517 0.
479.391 565.988 0.
163.621 -172.637 0.
363.564 292.954 0.
-123.338 -488.033 0.
255.652 398.541 0.
162.491 182.819 0.
200.345 -34.7502 0.
423.765 489.042 0.
309.414 225.52 0.
350.505 64.428 0.
379.859 132.836 0.
172.182 -74.1526 0.
256.215 120.442 0.
595.368 910.668 0.
584.122 1014.04 0.
574.914 993.734 0.
119.867 -66.915 0.
-323.676 -1033.8 0.
-111.104 -535.542 0.
13.9874 -241.486 0.
-282.181 -538.612 0.
356.594 951.241 0.
504.201 507.293 0.
601.28 87.3409 0.
771.935 488.738 0.
-88.4962 -844.186 0.
535.692 616.396 0.
443.468 405.502 0.
17.8254 -603.078 0.
542.665 621.702 0.
543.175 623.301 0.
171.691 -175.59 0.
227.433 -45.4219 0.
497.971 585.803 0.
507.928 -260.726 0.
435.736 -429.365 0.
-267.789 119.62 0.
-148.114 403.249 0.
-384.42 -143.862 0.
298.362 -395.543 0.
377.658 -210.684 0.
651.847 429.278 0.
397.468 409.002 0.
-8.11576 -537.384 0.
161.663 -141.532 0.
-0.769811 95.3989 0.
334.038 876.003 0.
-3330.14 -593.512 0.
990.318 1219.12 0.
288.399 -419.494 0.
-318.363 -1337.81 0.
-56.0746 -726.734 0.
-1.71018 -600.911 0.
169.774 -218.281 0.
499.429 551.32 0.
135.552 -296.979 0.
194.795 -54.0867 0.
126.722 -215.437 0.
684.663 1083.81 0.
23.8526 -141.321 0.
231.466 338.451 0.
372.722 471.864 0.
74.2688 -219.655 0.
196.989 71.4442 0.
342.296 -137.804 0.
941.028 1263.61 0.
784.088 901.83 0.
-133.031 -499.263 0.
-30.9671 -254.282 0.
259.12 429.54 0.
40.9777 -822.614 0.
-170.318 -1316.94 0.
-94.7773 -281.943 0.
303.618 -147.919 0.
323.55 -102.689 0.
500.697 4.00108 0.
219.521 -655.446 0.
1035.17 1244.14 0.
148.687 361.015 0.
136.112 330.947 0.
72.1695 181.058 0.
159.411 -367.856 0.
265.562 -120.359 0.
534.986 509.04 0.
443.067 951.738 0.
164.809 302.209 0.
544.186 691.318 0.
108.887 -321.505 0.
38.9634 -482.102 0.
-43.3792 -681.939 0.
321.638 171.792 0.
123.298 -289.013 0.
-82.0982 -679.691 0.
-144.716 -823.675 0.
414.357 481.819 0.
47.0114 -19.4626 0.
-208.608 -613.654 0.
-175.426 -1121.35 0.
-23.4796 -952.914 0.
7.1204 -881.852 0.
-101.128 -855.622 0.
-38.0971 -710.568 0.
24.9338 -565.514 0.
-290.164 -694.552 0.
-364.341 -865.51 0.
-438.517 -1036.47 0.
-144.557 -1027.45 0.
-202.19 -1162.69 0.
-259.823 -1297.94 0.
-294.955 -1182.54 0.
-204.772 -972.522 0.
-221.994 -835.17 0.
-261.045 -931.409 0.
-300.095 -1027.65 0.
-381.863 -1093.19 0.
-347.723 -1012.81 0.
-313.583 -932.429 0.
-193.039 -900.469 0.
-241.354 -1014.15 0.
-289.67 -1127.84 0.
-432.391 -1158.49 0.
-398.713 -1077.34 0.
-180.578 -917.313 0.
249.849 -847.477 0.
192.71 -980.372 0.
-453.39 -1299.92 0.
-366.055 -1096.56 0.
-278.721 -893.2 0.
-29.4771 -719.717 0.
-61.1341 -793.842 0.
-92.7912 -867.967 0.
-105.81 -967.535 0.
-164.844 -1105.03 0.
-223.879 -1242.52 0.
-184.698 -1208.87 0.
-167.029 -1169.42 0.
-486.914 -1266.13 0.
-420.649 -1112.93 0.
-354.382 -959.72 0.
-65.7936 -810.042 0.
-155.808 -1021.43 0.
-245.823 -1232.82 0.
-473.915 -1376.6 0.
-444.437 -1308.44 0.
-414.959 -1240.28 0.
-394.863 -1137.49 0.
-339.283 -1007.99 0.
-837.468 -1116.85 0.
136.708 -913.779 0.
24.2471 -1176.7 0.
-325.918 -1457.74 0.
-244.114 -1268.54 0.
-162.309 -1079.33 0.
-313.82 -1036.51 0.
-287.86 -976.984 0.
-261.899 -917.461 0.
-123.473 -907.811 0.
-174.19 -1024.62 0.
-224.907 -1141.42 0.
-473.877 -1188.43 0.
-432.327 -1095.83 0.
-225.68 -970.367 0.
-355.178 -1267.81 0.
-484.676 -1565.26 0.
-376.852 -1629.12 0.
-312.214 -1475.11 0.
-247.576 -1321.09 0.
-472.162 -1262.13 0.
-377.601 -1041.34 0.
-283.039 -820.56 0.
334.341 -605.166 0.
278.543 -737.511 0.
232.617 -859.528 0.
-251.625 -889.121 0.
-157.971 -671.491 0.
212.972 -400.045 0.
164.829 -518.079 0.
116.685 -636.112 0.
-304.228 -850.896 0.
-282.946 -802.48 0.
-261.663 -754.063 0.
6.87785 -660.908 0.
-16.5003 -714.446 0.
-39.8783 -767.984 0.
-337.395 -952.562 0.
-369.427 -1028.21 0.
-187.939 -999.105 0.
-150.171 -908.081 0.
-112.403 -817.056 0.
-119.138 -781.411 0.
-136.449 -818.791 0.
-153.759 -856.17 0.
-240.064 -852.462 0.
-189.728 -733.295 0.
-139.393 -614.127 0.
-193.663 -662.54 0.
-227.148 -739.938 0.
37.9336 -1001.8 0.
70.9505 -881.957 0.
101.891 -810.88 0.
-48.0803 -800.858 0.
15.2615 -655.925 0.
78.6033 -510.991 0.
-371.148 -698.513 0.
-445.125 -869.371 0.
-519.101 -1040.23 0.
-26.3892 -945.217 0.
-83.4011 -1081.19 0.
-140.413 -1217.16 0.
-416.029 -1201.89 0.
-325.964 -992.066 0.
-282.503 -830.032 0.
-322.49 -925.381 0.
-362.476 -1020.73 0.
-440.832 -1087.95 0.
-406.816 -1007.41 0.
-372.799 -926.873 0.
-86.4397 -825.073 0.
-134.781 -938.774 0.
-183.123 -1052.48 0.
-274.385 -1059.28 0.
-241.039 -977.814 0.
1019.62 -370.452 0.
325.827 -785.531 0.
269.018 -918.853 0.
-641.864 -1347.96 0.
-554.008 -1145.28 0.
-466.152 -942.587 0.
-11.6155 -680.378 0.
-42.9595 -754.769 0.
-74.3036 -829.161 0.
-13.3121 -894.621 0.
-72.0466 -1032.37 0.
-130.781 -1170.13 0.
-521.415 -1322.24 0.
-504.034 -1282.27 0.
-6.9002 -1029.59 0.
59.2167 -875.865 0.
125.335 -722.138 0.
-278.82 -870.584 0.
-368.531 -1082.1 0.
-458.243 -1293.62 0.
-588.177 -1395.2 0.
-558.648 -1327.11 0.
-529.119 -1259.02 0.
-211.601 -1028.53 0.
-156.244 -898.787 0.
-931.098 -1124.9 0.
224.683 -844.073 0.
112.343 -1107.04 0.
-255.162 -1396.24 0.
-173.13 -1207.42 0.
-91.098 -1018.59 0.
-458.746 -1067.29 0.
-432.974 -1007.54 0.
-407.203 -947.785 0.
-49.8321 -845.57 0.
-100.522 -962.541 0.
-151.212 -1079.51 0.
-517.28 -1175.18 0.
-475.487 -1082.42 0.
-182.651 -919.85 0.
-311.63 -1217.47 0.
-440.61 -1515.08 0.
-458.611 -1633.07 0.
-393.473 -1479.32 0.
-328.335 -1325.56 0.
-468.028 -1227.46 0.
-372.707 -1007.31 0.
-277.385 -787.151 0.
599.333 -461.474 0.
543.472 -593.997 0.
-249.112 -1033.92 0.
-527.054 -975.126 0.
-433.559 -757.651 0.
87.3313 -423.151 0.
39.1348 -541.12 0.
-9.0622 -659.09 0.
-208.984 -779.289 0.
-187.254 -731.226 0.
-165.524 -683.163 0.
-11.9197 -637.443 0.
-34.6736 -691.638 0.
-57.4275 -745.832 0.
-277.231 -895.551 0.
-309.398 -971.066 0.
-184.316 -965.314 0.
-146.325 -874.188 0.
-108.333 -783.063 0.
-143.089 -761.09 0.
-160.639 -798.045 0.
-178.189 -834.999 0.
-328.322 -859.969 0.
-278.189 -741.009 0.
-228.056 -622.049 0.
-132.774 -603.685 0.
-165.836 -681.932 0.
-20.0033 -1052.19 0.
-41.8344 -1044.7 0.
8.53298 -925.007 0.
-32.3275 -850.177 0.
-1.75707 -776.971 0.
28.813 -703.765 0.
-469.56 -900.15 0.
-492.645 -954.182 0.
-515.73 -1008.21 0.
97.7113 -725.788 0.
125.315 -659.43 0.
152.918 -593.071 0.
-352.689 -814.705 0.
-359.67 -831.075 0.
-238.265 -795.415 0.
-243.65 -807.353 0.
-249.034 -819.292 0.
-355.709 -861.763 0.
-344.837 -835.921 0.
-333.964 -810.08 0.
-139.573 -794.313 0.
-211.984 -963.623 0.
-284.396 -1132.93 0.
-266.504 -1149.86 0.
-257.476 -1129.27 0.
1130.19 -516.706 0.
252.428 -848.3 0.
267.708 -807.555 0.
-473.67 -1099.23 0.
-471.797 -1090.83 0.
-469.926 -1082.43 0.
-194.725 -945.667 0.
-180.561 -909.231 0.
-166.398 -872.794 0.
41.7833 -800.098 0.
25.9205 -836.829 0.
10.0576 -873.56 0.
-464.588 -1111.66 0.
-486.199 -1160.74 0.
105.297 -942.42 0.
98.4399 -957.49 0.
91.5824 -972.559 0.
-380.541 -1107.93 0.
-266.714 -841.432 0.
-152.886 -574.934 0.
-342.556 -631.225 0.
-405.508 -775.64 0.
-468.46 -920.055 0.
-123.748 -845.171 0.
-155.091 -917.64 0.
-526.478 -1138.1 0.
210.614 -832.225 0.
205.231 -844.486 0.
-93.452 -979.052 0.
-96.2059 -984.946 0.
-98.9599 -990.84 0.
-421.901 -1132 0.
-415.309 -1118.5 0.
-408.717 -1105.01 0.
-86.7987 -941.67 0.
-70.2679 -903.007 0.
-53.7371 -864.345 0.
-477.688 -1061.71 0.
-488.538 -1085.33 0.
-195.393 -976.801 0.
-192.002 -969.256 0.
-188.612 -961.71 0.
-201.623 -899.783 0.
-105.488 -675.161 0.
-9.35229 -450.539 0.
-151.094 -596.35 0.
-309.25 -961.295 0.
-467.405 -1326.24 0.
331.349 -884.904 0.
442.942 -628.135 0.
68.513 -580.102 0.
-599.936 -1056.33 0.
-700.06 -1289.35 0.
-380.559 -1270.65 0.
-328.751 -1143.57 0.
-276.943 -1016.49 0.
-175.4 -895.635 0.
-150.964 -835.503 0.
-126.528 -775.371 0.
-1.89071 -678.915 0.
20.9562 -625.897 0.
43.8028 -572.879 0.
-194.664 -623.067 0.
-166.759 -556.707 0.
-13.448 -448.122 0.
-21.9201 -469.274 0.
-30.3922 -490.426 0.
-23.433 -469.126 0.
13.0526 -385.108 0.
49.5379 -301.09 0.
-163.59 -423.878 0.
-222.814 -564.667 0.
-282.038 -705.455 0.
-4.41106 -480.693 0.
87.7894 -263.981 0.
-305.802 -1143.61 0.
-217.549 -1091.97 0.
-167.632 -971.544 0.
25.5073 -792.267 0.
56.2853 -719.048 0.
87.0629 -645.829 0.
-387.541 -835.291 0.
-410.933 -889.202 0.
-434.325 -943.113 0.
84.836 -699.219 0.
112.847 -633.199 0.
140.857 -567.178 0.
-442.553 -822.553 0.
-449.251 -839.362 0.
-80.5218 -694.067 0.
-85.7459 -706.109 0.
-90.97 -718.152 0.
-295.486 -806.183 0.
-284.825 -780.063 0.
-274.164 -753.942 0.
-384.772 -868.505 0.
-456.877 -1038.14 0.
-528.982 -1207.77 0.
-268.681 -1117.32 0.
-259.635 -1096.89 0.
5.17915 -965.965 0.
97.269 -885.424 0.
112.69 -844.757 0.
-114.466 -911.769 0.
-112.215 -903.887 0.
-109.964 -896.005 0.
-349.11 -980.337 0.
-334.861 -944.059 0.
-320.611 -907.781 0.
18.7405 -777.704 0.
2.98246 -814.794 0.
-12.7757 -851.883 0.
-183.142 -960.339 0.
-204.389 -1009.47 0.
-152.992 -1020.28 0.
-159.612 -1035.75 0.
-166.231 -1051.21 0.
-144.637 -977.485 0.
-30.4427 -711.476 0.
83.7518 -445.466 0.
-408.17 -626.17 0.
-470.537 -771.549 0.
-532.904 -916.928 0.
-258.49 -871.151 0.
-289.57 -944.055 0.
-354.562 -1032.2 0.
132.865 -832.689 0.
126.856 -844.583 0.
-179.58 -984.709 0.
-182.614 -990.474 0.
-185.647 -996.239 0.
-96.2503 -961.508 0.
-89.6518 -948.131 0.
-83.0538 -934.754 0.
-110.811 -919.701 0.
-93.9739 -881.224 0.
-77.137 -842.747 0.
-420.709 -1005.58 0.
-431.293 -1029.19 0.
-180.474 -939.78 0.
-177.285 -931.968 0.
-174.097 -924.155 0.
-234.072 -884.051 0.
-138.045 -659.203 0.
-42.0174 -434.356 0.
-23.1108 -509.1 0.
-181.6 -873.97 0.
-340.087 -1238.84 0.
-90.0812 -1034.11 0.
20.9888 -777.036 0.
61.2999 -550.319 0.
-380.383 -930.153 0.
-480.018 -1163.26 0.
-495.244 -1289.09 0.
-442.498 -1162.81 0.
-389.751 -1036.54 0.
-46.6706 -809.347 0.
-22.2201 -749.239 0.
2.23024 -689.13 0.
109.012 -599.194 0.
132.157 -546.49 0.
155.302 -493.786 0.
-300.319 -636.265 0.
-272.378 -569.808 0.
-98.2742 -453.394 0.
-107.091 -473.567 0.
-115.908 -493.739 0.
23.9825 -419.124 0.
60.0001 -334.672 0.
96.0173 -250.22 0.
-95.3152 -362.962 0.
-154.747 -503.81 0.
-214.18 -644.658 0.
163.773 -377.364 0.
255.727 -161.22 0.
-273.467 -489.052 0.
544.15 1059.4 0.
247.445 365.624 0.
267.405 -313.152 0.
35.6118 -853.116 0.
542.265 330.047 0.
57.3744 86.8496 0.
175.541 356.783 0.
-89.4483 -267.206 0.
539.046 422.798 0.
232.701 -293.089 0.
45.7059 -731.091 0.
-437.858 -620.114 0.
-419.53 -578.727 0.
460.353 306.602 0.
392.863 150.353 0.
137.638 -444.059 0.
-150.033 -545.233 0.
-10.37 -219.235 0.
100.285 38.9765 0.
-218.563 13.1517 0.
-47.6958 411.521 0.
-93.8614 303.457 0.
398.94 474.793 0.
431.637 549.177 0.
7.69765 287.745 0.
181.81 -365.352 0.
362.126 56.3865 0.
577.438 59.6482 0.
356.642 -452.272 0.
550.603 3.52868 0.
-153.59 -203.922 0.
-56.79 23.4784 0.
350.389 975.053 0.
599.441 653.848 0.
44.39 -640.717 0.
547.246 532.954 0.
653.905 486.979 0.
352.376 -214.056 0.
27.5955 -83.2195 0.
86.3164 52.8789 0.
148.486 197.225 0.
703.826 578.161 0.
812.131 831.086 0.
643.415 437.949 0.
-333.259 -301.014 0.
-288.311 -198.066 0.
-279.665 -179.551 0.
103.272 263.026 0.
173.419 425.49 0.
238.002 -649.436 0.
205.279 -486.687 0.
370.863 -100.036 0.
365.772 482.325 0.
-1.54079 -372.379 0.
56.6799 -233.899 0.
229.183 -791.034 0.
538.61 -66.4943 0.
867.268 702.963 0.
130.633 -273.582 0.
199.424 -110.4 0.
512.08 621.546 0.
1.04113 -106.677 0.
-123.518 -395.545 0.
283.37 146.744 0.
2.62206 -505.224 0.
86.2767 -307.066 0.
229.701 289.858 0.
262.949 368.575 0.
-249.744 -826.774 0.
83.1067 -458.679 0.
221.446 -135.251 0.
359.42 186.572 0.
256.737 597.685 0.
-340.244 -790.902 0.
-160.045 -609.485 0.
256.603 155.487 0.
-19.9434 -484.498 0.
340.01 901.305 0.
-83.8147 -85.0687 0.
-256.193 -484.599 0.
-4.42326 -921.114 0.
566.738 409.369 0.
375.169 -39.907 0.
369.994 -161.592 0.
366.282 -169.142 0.
522.892 197.582 0.
110.849 552.879 0.
-160.05 -78.519 0.
-11.5646 -54.9307 0.
138.446 296.316 0.
287.028 643.319 0.
501.051 637.421 0.
370.769 336.332 0.
331.937 248.073 0.
300.873 460.146 0.
-205.171 -722.596 0.
107.533 7.22347 0.
180.98 -626.487 0.
338.075 -262.953 0.
-206.454 -410.316 0.
-71.2215 -458.447 0.
-173.497 -697.904 0.
48.7443 -764.115 0.
46.3489 -768.546 0.
43.9536 -772.977 0.
-395.92 -910.041 0.
-331.754 -765.518 0.
-267.587 -620.993 0.
64.1486 -458.124 0.
56.5437 -476.519 0.
48.939 -494.913 0.
-329.562 -768.189 0.
-402.846 -935.539 0.
-166.421 -964.491 0.
-170.414 -974.907 0.
-174.408 -985.323 0.
-390.821 -1079.14 0.
-391.61 -1081.43 0.
-392.398 -1083.71 0.
-597.745 -1081.51 0.
-516.15 -889.627 0.
-434.554 -697.742 0.
-6.85114 -619.325 0.
-102.372 -843.701 0.
167.072 -911.029 0.
-83.5904 -847.628 0.
8.26273 -631.482 0.
315.477 -397.313 0.
226.557 -604.22 0.
137.637 -811.126 0.
-213.991 -967.759 0.
-104.653 -713.995 0.
4.68558 -460.231 0.
-125.872 -511.558 0.
-185.311 -646.483 0.
-244.75 -781.408 0.
151.198 -687.777 0.
114.42 -773.508 0.
-453.261 -1076.37 0.
-425.781 -1013.75 0.
-398.301 -951.129 0.
-146.453 -790.059 0.
-118.638 -725.783 0.
-90.8227 -661.506 0.
-152.746 -745.19 0.
-225.652 -918.891 0.
-298.558 -1092.59 0.
-423.539 -1051.86 0.
-338.161 -852.357 0.
1270.73 0.631613 0.
154.396 -513.888 0.
134.829 -558.861 0.
-194.375 -740.108 0.
-222.146 -804.054 0.
-249.918 -868.001 0.
188.697 -721.948 0.
171.686 -761.725 0.
154.675 -801.502 0.
-217.232 -937.556 0.
-189.394 -869.584 0.
-161.557 -801.613 0.
-331.593 -802.063 0.
-292.844 -713.983 0.
-123.008 -575.023 0.
-102.224 -526.598 0.
-81.4402 -478.173 0.
-213.687 -551.353 0.
-280.435 -705.056 0.
-347.183 -858.759 0.
-8.39856 -759.241 0.
-0.444993 -741.436 0.
7.50854 -723.631 0.
-352.542 -897.964 0.
-367.943 -932.799 0.
319.16 -666.974 0.
-191.914 -882.755 0.
-192.319 -880.12 0.
-246.921 -893.314 0.
-225.038 -842.011 0.
-203.155 -790.71 0.
155.208 -626.633 0.
140.801 -660.895 0.
126.394 -695.157 0.
-101.958 -755.514 0.
-66.2396 -672.986 0.
-30.5225 -590.458 0.
-374.733 -620.526 0.
-308.761 -467.906 0.
-51.3045 -266.1 0.
-140.549 -475.173 0.
-229.793 -684.247 0.
-192.637 -758.806 0.
-161.957 -688.117 0.
-131.278 -617.429 0.
-51.1978 -533.146 0.
-22.9428 -467.237 0.
5.3121 -401.328 0.
134.5 -432.471 0.
63.1641 -598.879 0.
-149.876 -357.998 0.
-12.6576 -401.843 0.
-115.014 -641.247 0.
35.8032 -738.565 0.
33.4111 -742.818 0.
31.0189 -747.071 0.
-411.559 -884.128 0.
-347.495 -739.783 0.
-283.431 -595.437 0.
-38.9585 -472.106 0.
-47.2302 -489.845 0.
-55.5017 -507.584 0.
-106.905 -642.47 0.
-180.315 -809.847 0.
-250.482 -969.282 0.
-254.834 -979.535 0.
-259.187 -989.787 0.
-386.823 -1046.03 0.
-387.771 -1048.37 0.
-388.719 -1050.71 0.
-471.986 -996.569 0.
-390.26 -804.894 0.
-308.533 -613.22 0.
86.6316 -547.707 0.
-8.70867 -772.473 0.
844.226 -589.882 0.
-138.355 -838.919 0.
-46.1267 -622.996 0.
252.19 -393.177 0.
162.775 -599.546 0.
73.3609 -805.915 0.
128.71 -790.457 0.
238.15 -536.795 0.
347.591 -283.133 0.
-385.122 -591.05 0.
-444.139 -726.629 0.
-503.157 -862.208 0.
169.078 -647.58 0.
132.366 -733.109 0.
-504.038 -1068.55 0.
-476.81 -1005.69 0.
-449.583 -942.832 0.
-451.487 -891.323 0.
-423.334 -827.317 0.
-395.182 -763.31 0.
313.967 -512.973 0.
241.258 -687.275 0.
168.55 -861.577 0.
-359.997 -991.581 0.
-274.303 -792.519 0.
-451.885 -704.985 0.
124.114 -494.237 0.
104.043 -538.878 0.
-220.693 -722.039 0.
-248.79 -785.947 0.
-276.888 -849.854 0.
121.576 -719.026 0.
104.491 -758.901 0.
87.4059 -798.777 0.
-279.411 -932.347 0.
-251.713 -864.156 0.
-224.014 -795.966 0.
-357.589 -783.081 0.
-319.125 -694.669 0.
-220.359 -584.667 0.
-199.216 -536.364 0.
-178.074 -488.061 0.
-299.267 -555.506 0.
-365.606 -709.423 0.
-431.944 -863.34 0.
56.4341 -700.143 0.
64.0937 -682.008 0.
71.7533 -663.872 0.
-292.458 -841.2 0.
-307.422 -876.256 0.
689.086 -476.317 0.
-179.529 -845.94 0.
-179.106 -843.939 0.
-4.43301 -755.607 0.
17.7514 -704.536 0.
39.9352 -653.465 0.
212.539 -572.281 0.
197.715 -605.926 0.
182.89 -639.571 0.
-348.702 -829.271 0.
-312.892 -746.737 0.
-277.083 -664.203 0.
-333.85 -570.919 0.
-267.585 -418.277 0.
24.3537 -201.498 0.
-64.896 -410.616 0.
-154.146 -619.735 0.
-289.21 -769.237 0.
-258.957 -698.308 0.
-228.705 -627.379 0.
55.2908 -456.474 0.
83.347 -390.737 0.
111.403 -325.001 0.
-9.20601 -462.871 0.
-81.6796 -629.018 0.
-386.107 -921.938 0.
-65.3659 -605.377 0.
55.359 -321.61 0.
247.475 -95.1988 0.
132.456 -364.96 0.
17.4372 -634.722 0.
-438.803 -976.99 0.
-452.444 -1007.84 0.
-466.086 -1038.7 0.
-270.24 -934.594 0.
-255.226 -900.621 0.
-240.212 -866.648 0.
-57.7558 -705.614 0.
-2.95748 -578.464 0.
-137.395 -539.581 0.
-153.089 -574.297 0.
-168.782 -609.014 0.
-138.184 -616.243 0.
-143.508 -628.205 0.
-148.831 -640.167 0.
-306.564 -751.705 0.
-341.396 -833.728 0.
-376.228 -915.75 0.
-64.1685 -777.847 0.
-51.9486 -746.147 0.
777.357 -363.872 0.
-173.242 -734.939 0.
-154.866 -695.684 0.
133.728 -576.298 0.
88.9505 -684.841 0.
44.1733 -793.384 0.
199.094 -748.92 0.
216.774 -705.407 0.
234.454 -661.894 0.
-549.229 -902.752 0.
-477.129 -736.288 0.
-405.029 -569.823 0.
183.25 -451.814 0.
92.3058 -664.243 0.
-472.037 -1059.71 0.
-458.432 -1027.32 0.
-444.826 -994.921 0.
-530.374 -1024.39 0.
-543.583 -1054.18 0.
-556.791 -1083.97 0.
251.355 -644.886 0.
350.242 -410.716 0.
449.129 -176.547 0.
-101.786 -601.132 0.
-257.405 -961.128 0.
-1149.96 -1635.54 0.
-81.6501 -946.96 0.
40.3152 -664.674 0.
-150.445 -605.545 0.
-233.619 -802.304 0.
-316.794 -999.063 0.
-96.5947 -965.261 0.
-62.8708 -887.585 0.
-29.1467 -809.908 0.
-306.829 -937.452 0.
-331.34 -997.655 0.
-355.851 -1057.86 0.
-514.902 -1154.36 0.
-529.121 -1186 0.
-524.035 -1188.44 0.
-457.247 -1029.67 0.
-390.458 -870.887 0.
-314.393 -747.759 0.
-308.773 -734.871 0.
-303.153 -721.982 0.
5.10598 -587.651 0.
2.86642 -593.966 0.
0.626697 -600.282 0.
-298.441 -769.155 0.
-324.348 -829.237 0.
-512.248 -953.939 0.
-129.299 -890.676 0.
-183.231 -1014.28 0.
-90.8137 -1022.62 0.
-12.0453 -838.061 0.
66.7229 -653.5 0.
153.979 -543.174 0.
134.45 -590.635 0.
114.921 -638.095 0.
-401.193 -818.276 0.
-355.932 -709.904 0.
-310.672 -601.532 0.
-192.967 -480.756 0.
-161.927 -408.337 0.
-57.8749 -316.557 0.
-81.7866 -371.793 0.
-105.698 -427.03 0.
-227.72 -550.243 0.
-289.567 -694.923 0.
-351.415 -839.603 0.
-36.8347 -730.047 0.
-15.6019 -681.504 0.
5.6312 -632.96 0.
-190.382 -686.148 0.
-168.861 -637.399 0.
-315.331 -862.982 0.
-17.1825 -554.283 0.
104.152 -270.984 0.
144.472 -107.08 0.
29.8102 -377.004 0.
-84.8518 -646.928 0.
-363.494 -911.119 0.
-376.658 -942.712 0.
-389.822 -974.305 0.
-224.731 -884.868 0.
-210.03 -850.74 0.
-195.329 -816.611 0.
-46.4221 -668.296 0.
8.29962 -540.773 0.
-193.856 -533.502 0.
-209.99 -568.028 0.
-226.124 -602.554 0.
37.822 -510.221 0.
31.9188 -521.739 0.
26.0162 -533.256 0.
-248.466 -696.414 0.
-283.298 -778.738 0.
-318.129 -861.061 0.
-255.024 -827.245 0.
-242.869 -795.765 0.
-63.5928 -691.879 0.
-272.418 -745.654 0.
-254.148 -706.25 0.
132.747 -545.058 0.
87.9974 -653.524 0.
43.2474 -761.99 0.
26.8723 -793.323 0.
44.4712 -750.093 0.
62.0693 -706.863 0.
-341.242 -781.337 0.
-269.185 -614.949 0.
-197.127 -448.56 0.
29.6802 -487.086 0.
-61.1664 -699.345 0.
-324.585 -965.308 0.
-310.201 -933.322 0.
-295.817 -901.336 0.
-261.881 -878.191 0.
-275.225 -908.109 0.
-288.57 -938.027 0.
-181.029 -798.221 0.
-81.4747 -564.957 0.
18.0809 -331.694 0.
86.2705 -488.21 0.
-69.382 -848.043 0.
-701.052 -1411 0.
-48.2765 -901.132 0.
73.8401 -618.859 0.
-40.6218 -527.607 0.
-124.29 -723.897 0.
-207.958 -920.187 0.
-270.137 -1009.14 0.
-236.638 -931.417 0.
-203.138 -853.698 0.
-271.917 -892.256 0.
-297.035 -951.915 0.
-322.154 -1011.57 0.
-446.423 -1093.54 0.
-460.964 -1125.25 0.
-518.261 -1156.07 0.
-451.834 -996.876 0.
-385.407 -837.682 0.
-42.5261 -600.145 0.
-37.2147 -586.74 0.
-31.9035 -573.334 0.
-271.399 -674.79 0.
-273.634 -680.956 0.
-275.869 -687.123 0.
-415.081 -788.077 0.
-441.425 -847.795 0.
-152.483 -769.324 0.
69.7184 -774.795 0.
15.835 -898.436 0.
-231.422 -1051.71 0.
-153.13 -866.49 0.
-74.8376 -681.271 0.
-34.5658 -593.27 0.
-54.2522 -640.409 0.
-73.939 -687.548 0.
-270.397 -730.046 0.
-225.42 -621.53 0.
-180.443 -513.015 0.
50.6394 -346.361 0.
81.0129 -273.383 0.
-171.538 -333.799 0.
-195.127 -389.319 0.
-218.716 -444.839 0.
-180.695 -498.725 0.
-243.306 -642.639 0.
-305.918 -786.552 0.
-53.2468 -706.898 0.
-31.7781 -658.65 0.
-10.3092 -610.403 0.
-215.352 -665.51 0.
-193.566 -617.067 0.
170.947 -147.94 0.
240.93 1.29777 0.
-466.866 -1649.17 0.
-203.554 -704.193 0.
265.217 390.706 0.
299.966 473.115 0.
535.082 1075.42 0.
97.0153 53.6744 0.
-49.2623 -287.037 0.
311.994 319.713 0.
123.36 -119.353 0.
153.628 -47.6303 0.
307.385 159.877 0.
195.039 -103.168 0.
324.179 817.835 0.
69.9379 225.337 0.
-243.281 -504.049 0.
321.94 -144.172 0.
638.007 592.396 0.
252.372 -308.217 0.
-324.802 -954.906 0.
259.497 404.768 0.
605.553 1208.33 0.
-146.05 -185.111 0.
-241.495 -404.931 0.
608.449 226.476 0.
153.349 469.225 0.
-37.5316 26.8301 0.
580.313 526.245 0.
602.352 575.14 0.
242.798 -265.939 0.
41.3745 -401.698 0.
211.564 -6.37359 0.
401.879 436.146 0.
412.597 610.595 0.
253.141 238.68 0.
-49.9475 -468.458 0.
256.538 359.956 0.
347.685 570.011 0.
442.598 567.368 0.
37.8148 -377.938 0.
208.346 19.2778 0.
515.028 455.896 0.
542.097 519.48 0.
210.542 -253.675 0.
-334.723 -309.22 0.
-314.273 -261.465 0.
-127.998 173.296 0.
749.085 729.704 0.
803.821 859.201 0.
-1728.82 -680.795 0.
425.648 182.99 0.
356.839 21.3436 0.
146.722 -259.225 0.
364.322 248.05 0.
541.113 659.815 0.
-77.1291 -205.175 0.
-241.702 -587.328 0.
-27.097 -84.5062 0.
342.725 505.432 0.
177.093 120.671 0.
52.7809 -167.716 0.
-30.636 -229.905 0.
324.224 600.432 0.
-111.321 -180.194 0.
-91.2524 -130.68 0.
-108.759 -169.028 0.
216.651 -471.505 0.
195.474 -518.786 0.
278.918 -321.545 0.
-390.177 -402.55 0.
63.7072 658.238 0.
90.3901 721.367 0.
45.2782 531.313 0.
-108.257 175.13 0.
570.225 -216.586 0.
764.889 501.727 0.
248.532 -703.643 0.
-141.456 -538.566 0.
147.363 133.116 0.
184.49 217.478 0.
7.9295 -108.958 0.
-208.825 -610.51 0.
44.4507 -14.3738 0.
377.341 568.575 0.
40.7409 -217.481 0.
-6.47293 -328.471 0.
549.053 387.13 0.
827.355 1039.66 0.
-431.147 -697.448 0.
253.544 900.33 0.
-187.419 -129.455 0.
137.156 193.085 0.
249.586 454.023 0.
28.4747 -63.9451 0.
68.133 -362.336 0.
532.117 723.085 0.
324.361 240.825 0.
464.28 982.208 0.
-87.974 -310.213 0.
-20.1636 -471.903 0.
-110.151 -587.713 0.
-168.618 -723.009 0.
-80.8924 -775.876 0.
-56.4023 -718.436 0.
-31.9126 -660.995 0.
-114.571 -643.671 0.
-93.4843 -592.301 0.
-72.3977 -540.932 0.
-181.268 -614.673 0.
-207.012 -675.078 0.
-232.757 -735.484 0.
-134.426 -645.367 0.
-102.418 -574.001 0.
-188.951 -569.889 0.
-237.067 -685.14 0.
-285.183 -800.391 0.
-235.99 -847.639 0.
-243.215 -864.881 0.
-250.439 -882.124 0.
-82.8824 -768.023 0.
-42.0902 -673.422 0.
-1.29796 -578.821 0.
-294.929 -608.801 0.
-238.161 -476.041 0.
157.115 -198.446 0.
-209.397 -638.868 0.
-357.545 -982.818 0.
-148.705 -1056.88 0.
-33.2362 -785.481 0.
82.2323 -514.081 0.
-9.85113 -444.882 0.
-17.131 -464.753 0.
-24.4113 -484.623 0.
-91.5419 -603.543 0.
-162.114 -768.479 0.
-232.685 -933.415 0.
-252.771 -807.43 0.
-160.251 -593.634 0.
34.9789 -371.466 0.
-36.4073 -537.318 0.
-107.793 -703.171 0.
-110.949 -761.305 0.
-58.0781 -639.477 0.
-5.20682 -517.649 0.
-254.79 -617.805 0.
-289.834 -701.015 0.
-324.878 -784.225 0.
-60.6805 -681.419 0.
-55.3988 -672.793 0.
554.362 -407.338 0.
97.9977 -755.276 0.
18.2512 -940.957 0.
-263.903 -1121.54 0.
-133.274 -814.804 0.
-2.64399 -508.063 0.
-325.338 -527.386 0.
-347.007 -576.723 0.
-368.676 -626.06 0.
-101.917 -434.263 0.
-28.3058 -263.395 0.
45.3062 -92.5265 0.
-47.1769 -214.419 0.
-106.393 -353.799 0.
-74.5157 -444.831 0.
-95.4208 -495.232 0.
-116.326 -545.632 0.
40.365 -490.41 0.
61.5499 -440.084 0.
82.7343 -389.758 0.
-272.47 -531.355 0.
-285.169 -556.192 0.
-297.869 -581.03 0.
-501.533 -730.129 0.
-542.256 -824.508 0.
473.266 -464.461 0.
52.2703 -542.436 0.
107.134 -415.192 0.
56.9302 -381.145 0.
6.59174 -501.472 0.
-43.7466 -621.799 0.
-230.302 -682.828 0.
-141.98 -475.647 0.
-53.6582 -268.467 0.
74.8703 -227.488 0.
19.2355 -361.69 0.
-36.3998 -495.893 0.
-36.0803 -628.047 0.
-106.751 -791.204 0.
-560.947 -1083.59 0.
-474.563 -880.599 0.
-388.179 -677.609 0.
-149.664 -467.927 0.
-149.238 -469.866 0.
-148.812 -471.804 0.
-99.6954 -527.174 0.
-168.268 -686.939 0.
-236.84 -846.705 0.
-70.5887 -807.645 0.
-75.7121 -820.441 0.
591.035 -183.006 0.
-214.44 -602.85 0.
-272.976 -738.117 0.
125.355 -655.353 0.
150.484 -598.391 0.
175.613 -541.43 0.
7.81306 -558.322 0.
29.5428 -507.181 0.
51.2721 -456.04 0.
-278.047 -624.23 0.
-303.885 -684.358 0.
-329.723 -744.487 0.
-233.279 -656.12 0.
-201.052 -584.931 0.
-71.1529 -487.272 0.
-119.452 -602.607 0.
-167.75 -717.942 0.
-530.184 -942.108 0.
-537.724 -959.26 0.
-545.265 -976.412 0.
129.431 -645.628 0.
170.332 -551.194 0.
211.232 -456.76 0.
-236.234 -553.062 0.
-179.266 -420.088 0.
-235 -335.982 0.
-58.411 -542.687 0.
-205.827 -887.19 0.
-195.458 -1045.76 0.
-79.817 -774.581 0.
35.8235 -503.398 0.
-37.1734 -425.446 0.
-44.3632 -445.201 0.
-51.5536 -464.956 0.
-53.2456 -556.324 0.
-123.573 -721.832 0.
-193.901 -887.34 0.
-246.678 -773.057 0.
-154.165 -559.519 0.
44.1386 -334.984 0.
-26.598 -501.666 0.
-97.3345 -668.348 0.
-221.234 -776.917 0.
-168.149 -655.496 0.
-115.065 -534.075 0.
19.5205 -468.441 0.
-15.1404 -552.218 0.
-49.8011 -635.995 0.
-296.179 -750.922 0.
-290.629 -742.516 0.
-745.908 -931.561 0.
205.92 -676.044 0.
126.83 -862.169 0.
-301.298 -1107.3 0.
-170.568 -800.57 0.
-39.8377 -493.836 0.
-440.985 -545.205 0.
-462.114 -594.883 0.
-483.244 -644.561 0.
-137.105 -417.543 0.
-63.146 -246.853 0.
10.8133 -76.1641 0.
-59.3058 -187.306 0.
-118.385 -326.766 0.
128.259 -327.262 0.
106.819 -377.29 0.
85.3787 -427.319 0.
-146.248 -539.866 0.
-125.24 -489.505 0.
-104.233 -439.145 0.
-43.5395 -401.452 0.
-56.5152 -426.637 0.
-69.491 -451.822 0.
-492.614 -696.201 0.
-533.773 -790.376 0.
553.893 -398.733 0.
-257.9 -642.444 0.
-203.42 -514.772 0.
231.95 -276.971 0.
181.356 -396.712 0.
130.763 -516.453 0.
-202.508 -639.873 0.
-113.575 -432.866 0.
-24.6421 -225.859 0.
138.75 -169.473 0.
83.07 -303.533 0.
27.3891 -437.594 0.
-199.746 -665.714 0.
-269.759 -829.237 0.
-506.449 -1027.65 0.
-419.663 -825.029 0.
-332.877 -622.412 0.
-137.44 -432.231 0.
-137.066 -434.096 0.
-136.693 -435.961 0.
-199.428 -537.485 0.
-267.875 -697.557 0.
-336.322 -857.629 0.
229.585 -649.815 0.
224.06 -662.079 0.
48.5483 -352.375 0.
-115.577 -541.651 0.
-177.515 -686.414 0.
166.375 -615.787 0.
213.83 -504.238 0.
261.284 -392.69 0.
61.8085 -403.372 0.
91.3923 -335.022 0.
120.976 -266.671 0.
-200.414 -453.111 0.
-254.952 -581.339 0.
-309.489 -709.567 0.
-239.68 -711.98 0.
-251.988 -739.583 0.
-122.735 -701.485 0.
-118.199 -692.214 0.
-113.664 -682.942 0.
-515.454 -794.881 0.
-420.218 -573.349 0.
-324.981 -351.816 0.
383.109 -115.397 0.
248.985 -429.701 0.
114.862 -744.005 0.
-380.113 -1017.57 0.
-386.067 -1033.48 0.
171.922 -806.248 0.
-126.656 -659.036 0.
16.3849 -321.934 0.
85.3387 -105.075 0.
16.3434 -266.671 0.
-52.6528 -428.267 0.
-56.3296 -491.31 0.
-41.329 -453.883 0.
-26.3278 -416.456 0.
45.2008 -439.174 0.
-2.48504 -549.481 0.
-50.1706 -659.787 0.
-217.733 -695.607 0.
-190.108 -630.29 0.
-86.8902 -543.262 0.
-116.13 -610.644 0.
-145.371 -678.026 0.
-205.971 -756.833 0.
-227.074 -804.226 0.
-248.176 -851.618 0.
9.53054 -682.335 0.
82.4469 -509.89 0.
155.363 -337.445 0.
-305.166 -472.409 0.
-279.238 -413.442 0.
-809.18 -591.656 0.
408.573 -96.6622 0.
393.504 -130.133 0.
-51.0392 -350.992 0.
-72.9007 -404.679 0.
-94.7624 -458.367 0.
-427.965 -603.36 0.
-402.559 -545.202 0.
-377.153 -487.044 0.
-91.3598 -420.382 0.
-148.094 -553.236 0.
-204.828 -686.091 0.
-341.129 -703.033 0.
-308.019 -624.693 0.
104.384 -386.633 0.
130.606 -323.823 0.
156.829 -261.013 0.
-41.637 -337.026 0.
-76.5845 -417.872 0.
-111.532 -498.717 0.
-22.3015 -436.485 0.
19.3308 -344.651 0.
60.9633 -252.817 0.
-416.868 -569.338 0.
-499.459 -763.496 0.
-73.722 -739.374 0.
-424.971 -732.712 0.
-340.636 -538.494 0.
368.186 -129.704 0.
327.623 -224.687 0.
287.06 -319.67 0.
-175.418 -595.498 0.
-216.666 -693.307 0.
-257.913 -791.117 0.
-63.1805 -705.737 0.
-40.5793 -649.014 0.
-17.9776 -592.291 0.
-344.174 -589.046 0.
-264.496 -402.335 0.
-70.6491 -185.908 0.
-91.7586 -238.084 0.
-112.868 -290.26 0.
-118.245 -346.459 0.
-154.453 -430.26 0.
-190.662 -514.062 0.
-286.92 -548.523 0.
-253.088 -469.94 0.
-219.257 -391.356 0.
262.293 -503.156 0.
41.8094 -1019.83 0.
270.243 -228.478 0.
182.502 -383.752 0.
120.661 -528.77 0.
43.5003 -635.418 0.
91.4526 -524.366 0.
139.405 -413.313 0.
-58.9232 -422.768 0.
-29.1761 -354.421 0.
0.570833 -286.073 0.
-56.8067 -360.517 0.
-111.173 -489.092 0.
-165.539 -617.667 0.
-65.2445 -605.539 0.
-77.571 -633.285 0.
-109.854 -664.004 0.
-105.461 -654.776 0.
-101.068 -645.549 0.
-303.586 -672.858 0.
-208.234 -451.584 0.
-112.882 -230.31 0.
275.061 -128.315 0.
141.076 -442.695 0.
7.0902 -757.076 0.
-269.958 -938.847 0.
-276.11 -954.329 0.
602.762 -588.297 0.
-286.948 -697.218 0.
-143.574 -360.396 0.
-132.395 -165.758 0.
-201.163 -327.644 0.
-269.932 -489.529 0.
21.5979 -427.049 0.
36.7531 -389.959 0.
51.9089 -352.87 0.
150.511 -363.426 0.
102.995 -474.395 0.
55.4792 -585.363 0.
-203.156 -656.336 0.
-175.415 -591.449 0.
-169.691 -546.958 0.
-198.609 -614.785 0.
-227.528 -682.612 0.
-58.5886 -661.91 0.
-79.2986 -709.931 0.
-100.008 -757.952 0.
-31.6662 -667.276 0.
41.3439 -494.934 0.
114.354 -322.592 0.
-340.092 -456.661 0.
-314.289 -397.409 0.
-1375.42 -802.568 0.
198.986 -154.611 0.
183.731 -188.156 0.
-151.276 -363.87 0.
-173.075 -417.823 0.
-194.873 -471.777 0.
-196.368 -471.566 0.
-170.738 -413.509 0.
-145.107 -355.452 0.
87.3089 -312.348 0.
31.059 -445.219 0.
-25.1913 -578.092 0.
-432.603 -710.603 0.
-398.916 -632.683 0.
-67.971 -428.538 0.
-41.5853 -365.949 0.
-15.1998 -303.36 0.
216.001 -194.568 0.
180.321 -275.241 0.
144.639 -355.914 0.
-119.506 -447.862 0.
-78.7731 -355.796 0.
-38.0403 -263.729 0.
-332.064 -502.522 0.
-414.756 -696.732 0.
-52.469 -699.277 0.
-397.243 -689.37 0.
-312.76 -495.429 0.
401.85 -84.3811 0.
361.521 -179.547 0.
321.192 -274.713 0.
-150.868 -552.066 0.
-191.559 -650.013 0.
-232.249 -747.96 0.
-33.7851 -661.598 0.
-10.4653 -605.24 0.
12.855 -548.881 0.
-584.172 -658.845 0.
-504.617 -471.913 0.
100.95 -81.7337 0.
80.0557 -133.638 0.
59.1611 -185.543 0.
-145.61 -328.417 0.
-181.752 -412.102 0.
-217.895 -495.787 0.
-376.432 -555.834 0.
-342.169 -477.741 0.
-307.906 -399.649 0.
-59.4898 -610.272 0.
-279.267 -1127.79 0.
-68.9627 317.653 0.
527.295 -106.008 0.
667.41 219.644 0.
131.381 -166.505 0.
114.885 -199.949 0.
90.9223 -251.65 0.
-101.999 -273.352 0.
163.799 350.053 0.
-240.277 -589.478 0.
337.314 323.656 0.
260.319 141.68 0.
-9.06816 -488.806 0.
153.624 -391.576 0.
127.514 -452.118 0.
-399.248 -1333.28 0.
10.3436 -379.342 0.
-47.7273 -516.245 0.
214.664 169.726 0.
171.282 68.51 0.
530.854 906.643 0.
673.859 1042.74 0.
583.561 828.275 0.
697.492 1090.43 0.
207.896 4.53057 0.
36.3599 -394.123 0.
-493.423 263.11 0.
105.089 546.808 0.
71.8163 470.482 0.
-380.995 -304.531 0.
-239.622 24.2595 0.
-5.84083 569.373 0.
192.996 -149.157 0.
126.955 -302.62 0.
114.441 -330.615 0.
655.889 638.814 0.
622.424 561.108 0.
121.07 -607.886 0.
256.308 417.348 0.
160.703 195.208 0.
-259.687 -564.346 0.
-250.82 -545.053 0.
-164.281 -344.369 0.
121.244 -486.804 0.
38.537 -681.955 0.
102.143 -535.527 0.
275.59 162.221 0.
588.257 892.132 0.
206.036 0.653712 0.
-137.909 105.356 0.
-397.359 -500.272 0.
322.325 -1331.63 0.
-179.371 -592.391 0.
-69.349 -335.608 0.
-322.128 -550.418 0.
-256.576 -397.74 0.
-232.265 -340.674 0.
92.8763 -207.969 0.
179.469 -6.48274 0.
82.582 -233.019 0.
186.018 -385.04 0.
436.798 198.962 0.
873.048 1215.28 0.
-358.758 -342.689 0.
-224.846 -30.9338 0.
150.344 442.592 0.
-127.172 -206.744 0.
-271.873 -545.925 0.
488.304 -12.4743 0.
566.802 173.373 0.
463.713 -64.3245 0.
-273.952 -597.543 0.
-139.086 -283.699 0.
-40.8587 -54.4737 0.
-169.656 -256.83 0.
-229.197 -390.46 0.
-368.486 -812.508 0.
33.6315 285.218 0.
-475.541 -903.304 0.
245.179 -467.684 0.
507.621 141.636 0.
463.124 34.8618 0.
181.298 205.84 0.
523.25 1001.83 0.
167.36 169.423 0.
424.208 388.713 0.
578.316 746.162 0.
245.875 -31.7053 0.
-436.038 172.67 0.
-454.354 131.84 0.
352.437 210.153 0.
283.021 47.3575 0.
7.95472 -595.591 0.
-425.008 -905.985 0.
43.3825 189.082 0.
-34.446 8.56191 0.
-106.105 274.485 0.
-121.817 238.39 0.
110.206 779.326 0.
-156.535 -203.753 0.
-65.1601 10.2165 0.
-656.373 -753.996 0.
45.3317 -496.368 0.
27.7772 -536.558 0.
-29.7902 -545.907 0.
66.4059 -318.688 0.
162.602 -91.4695 0.
18.3707 -100.645 0.
-43.9044 -244.999 0.
-106.179 -389.354 0.
-178.079 -472.169 0.
-189.702 -498.417 0.
-201.325 -524.664 0.
108.935 -512.359 0.
36.5368 -679.999 0.
-238.008 -908.043 0.
-150.24 -703.746 0.
-62.4722 -499.448 0.
-49.7823 -400.719 0.
-82.1269 -474.268 0.
-114.471 -547.817 0.
-41.1083 -516.528 0.
-17.5945 -460.835 0.
5.9195 -405.142 0.
39.323 -389.012 0.
40.1878 -387.813 0.
-556.266 -642.231 0.
-181.643 -449.088 0.
-170.365 -422.893 0.
-464.154 -531.762 0.
-446.02 -489.245 0.
-427.886 -446.727 0.
247.384 -229.263 0.
137.225 -487.409 0.
27.0665 -745.556 0.
42.7777 -616.431 0.
194.782 -260.114 0.
346.787 96.2034 0.
-9.96246 -162.95 0.
-93.1563 -354.987 0.
-169.599 -523.285 0.
-159.401 -494.814 0.
-149.204 -466.342 0.
4.69563 -403.59 0.
-25.404 -473.607 0.
-55.5036 -543.625 0.
5.35251 -558.549 0.
-8.59003 -593.313 0.
-22.5326 -628.077 0.
-436.538 -678.258 0.
-348.339 -472.47 0.
-898.449 -541.008 0.
-117.088 -252.938 0.
-139.849 -309.536 0.
-272.731 -409.162 0.
-286.855 -440.886 0.
-300.979 -472.611 0.
-74.068 -429.978 0.
-118.213 -531.428 0.
-162.358 -632.877 0.
13.8936 -582.024 0.
13.2477 -579.18 0.
12.6022 -576.336 0.
-264.246 -582.736 0.
-196.076 -423.844 0.
-104.075 -279.461 0.
-164.24 -423.458 0.
-224.406 -567.456 0.
60.6644 -514.991 0.
70.943 -490.023 0.
81.2217 -465.056 0.
-101.538 -587.478 0.
-143.361 -686.329 0.
-185.184 -785.18 0.
-273.761 -678.867 0.
-167.822 -429.597 0.
-569.396 -399.381 0.
-109.885 -279.92 0.
-151.611 -377.205 0.
-0.79858 -395.914 0.
-46.3401 -504.479 0.
-91.8818 -613.044 0.
-107.017 -614.763 0.
-43.1175 -461.852 0.
20.7818 -308.94 0.
57.2065 -216.982 0.
81.8425 -159.25 0.
106.478 -101.517 0.
-567.065 -525.487 0.
-652.405 -723.269 0.
-99.6073 -636.524 0.
-115.393 -672.633 0.
-131.178 -708.743 0.
-523.602 -875.244 0.
-498.289 -815.649 0.
-472.977 -756.054 0.
-255.122 -626.125 0.
-240.571 -591.675 0.
-226.02 -557.225 0.
-76.0784 -519.343 0.
-99.644 -569.806 0.
53.4477 -418.72 0.
-326.592 -623.65 0.
-344.114 -663.772 0.
-10.4086 -506.884 0.
85.6395 -279.692 0.
181.688 -52.4997 0.
94.5929 -36.1002 0.
32.5487 -180.915 0.
-29.4955 -325.73 0.
-376.156 -525.581 0.
-387.66 -552.245 0.
-399.165 -578.908 0.
131.865 -471.538 0.
59.7437 -639.685 0.
-245.954 -878.215 0.
-157.797 -674.58 0.
-69.6394 -470.943 0.
-56.4618 -370.971 0.
-88.7513 -444.754 0.
-121.041 -518.536 0.
-86.3366 -505.561 0.
-62.3734 -450.579 0.
-38.41 -395.597 0.
57.7067 -348.506 0.
59.5923 -347.829 0.
-219.794 -467.154 0.
6.05551 -336.865 0.
17.7867 -310.778 0.
-429.493 -484.55 0.
-411.324 -441.949 0.
-393.156 -399.348 0.
371.724 -144.666 0.
261.484 -402.789 0.
151.244 -660.912 0.
-34.0433 -619.377 0.
117.602 -262.904 0.
269.247 93.5692 0.
-10.3848 -130.325 0.
-93.8055 -322.613 0.
-69.959 -449.27 0.
-59.8307 -420.995 0.
-49.7025 -392.719 0.
-166.766 -445.732 0.
-196.961 -515.658 0.
-227.157 -585.584 0.
71.1922 -498.741 0.
57.1448 -533.075 0.
43.0973 -567.409 0.
-373.827 -620.694 0.
-285.719 -414.68 0.
-23.3105 -134.85 0.
-202.493 -258.74 0.
-225.279 -315.505 0.
-273.166 -376.424 0.
-286.482 -409.013 0.
-299.798 -441.601 0.
-140.74 -426.789 0.
-184.439 -528.534 0.
-228.137 -630.277 0.
-80.8802 -590.499 0.
-80.8963 -587.865 0.
-80.912 -585.231 0.
-7.76274 -441.079 0.
61.1 -282.864 0.
-14.6193 -207.224 0.
-74.8036 -351.75 0.
-134.988 -496.277 0.
-180.365 -586.349 0.
-170.494 -561.661 0.
-160.623 -536.974 0.
121.729 -459.576 0.
79.8061 -558.517 0.
37.8837 -657.459 0.
-166.141 -602.321 0.
-60.2054 -352.896 0.
-1402.39 -725.291 0.
28.8247 -189.29 0.
-12.9083 -286.527 0.
-324.183 -501.754 0.
-369.032 -610.652 0.
-413.88 -719.55 0.
-13.1038 -541.027 0.
50.6101 -387.811 0.
114.324 -234.595 0.
-58.6462 -236.68 0.
-34.4786 -178.296 0.
-10.3113 -119.912 0.
-342.741 -398.171 0.
-427.742 -596.081 0.
-199.108 -648.053 0.
-214.482 -684.728 0.
-229.857 -721.402 0.
-643.212 -893.135 0.
-617.87 -833.516 0.
-592.527 -773.898 0.
52.3507 -463.035 0.
66.8422 -428.43 0.
81.3338 -393.824 0.
203.596 -369.248 0.
179.277 -419.015 0.
204.249 -167.844 0.
-234.849 -205.619 0.
-140.755 11.5161 0.
249.89 269.248 0.
135.874 2.14386 0.
21.8568 -264.961 0.
8.85474 -358.366 0.
45.3608 -268.874 0.
81.8666 -179.383 0.
-411.191 -365.459 0.
-408.873 -361.341 0.
-406.555 -357.222 0.
260.974 -106.049 0.
239.232 -156.493 0.
-16.4178 -301.1 0.
-4.50046 -273.05 0.
7.41691 -244.999 0.
15.6533 -259.392 0.
-32.6885 -373.749 0.
-81.0307 -488.105 0.
-162.437 -461.736 0.
-62.1007 -228.934 0.
38.2356 3.86777 0.
210.366 49.1341 0.
158.485 -68.8451 0.
485.785 -24.8842 0.
93.51 -276.065 0.
49.6771 -373.504 0.
-397.155 -598.846 0.
-350.011 -490.231 0.
-302.866 -381.615 0.
252.911 -99.5619 0.
253.07 -98.7897 0.
253.23 -98.0175 0.
148.935 -143.962 0.
148.147 -145.419 0.
147.359 -146.877 0.
-67.5261 -313.974 0.
-110.877 -419.086 0.
-48.4779 -467.484 0.
-31.508 -433.183 0.
-14.5375 -398.882 0.
-189.008 -420.623 0.
-138.346 -302.389 0.
-87.6841 -184.156 0.
255.293 -15.9367 0.
234.943 -62.6371 0.
214.592 -109.338 0.
-182.81 -306.869 0.
-196.515 -337.731 0.
639.936 -6.68424 0.
-239.1 -317.445 0.
-204.574 -236.797 0.
-45.2032 -127.273 0.
-64.6384 -172.902 0.
-84.0737 -218.53 0.
-143.8 -268.336 0.
-145.585 -274.19 0.
-147.37 -280.044 0.
5.51734 -253.915 0.
-24.7392 -326.95 0.
-54.9958 -399.986 0.
67.0721 -416.724 0.
25.7631 -507.46 0.
-179.288 -655.676 0.
-163.174 -612.996 0.
-147.06 -570.316 0.
-267.02 -582.51 0.
-233.106 -505.094 0.
-199.193 -427.678 0.
278.067 -181.331 0.
287.125 -160.623 0.
296.183 -139.915 0.
16.824 -315.979 0.
-21.7661 -404.131 0.
-280.406 -580.017 0.
-85.4635 -366.233 0.
-18.218 -206.506 0.
-279.1 -222.157 0.
-291.79 -246.206 0.
-304.48 -270.254 0.
98.7094 -109.251 0.
99.662 -105.934 0.
100.614 -102.617 0.
-98.8052 -230.578 0.
-137.587 -319.736 0.
-176.368 -408.894 0.
-192.89 -326.059 0.
-132.866 -185.648 0.
-22.0442 -33.3911 0.
-20.4528 -27.3814 0.
-18.8616 -21.3715 0.
-298.353 -203.987 0.
-397.352 -435.578 0.
-496.352 -667.17 0.
124.272 -481.258 0.
125.92 -475.86 0.
127.569 -470.462 0.
196.947 -465.623 0.
179.269 -510.226 0.
-59.6776 -248.94 0.
-45.9009 -93.6659 0.
48.0186 123.923 0.
94.7829 233.918 0.
-19.2253 -33.2016 0.
-133.234 -300.321 0.
88.9623 -292.429 0.
125.575 -203.188 0.
162.187 -113.948 0.
-443.191 -348.741 0.
-441.117 -344.338 0.
-439.042 -339.935 0.
197.699 -102.068 0.
175.905 -152.417 0.
-21.5435 -273.997 0.
-9.78223 -245.754 0.
1.97903 -217.511 0.
100.724 -190.431 0.
52.4369 -304.861 0.
4.14963 -419.291 0.
-313.621 -495.182 0.
-213.219 -262.668 0.
-112.818 -30.1534 0.
174.366 63.2581 0.
122.254 -54.2761 0.
349.366 -51.4803 0.
85.9124 -246.793 0.
42.4363 -344.551 0.
-194.08 -481.59 0.
-147.13 -372.579 0.
-100.18 -263.568 0.
-166.318 -247.226 0.
-166.014 -246.514 0.
-165.71 -245.803 0.
209.462 -86.693 0.
208.684 -88.3151 0.
207.907 -89.9371 0.
16.9034 -245.614 0.
-26.5371 -351.178 0.
-19.7193 -422.879 0.
-2.94062 -388.565 0.
13.8385 -354.251 0.
-61.7789 -334.84 0.
-11.344 -216.237 0.
39.0908 -97.6335 0.
164.51 -24.4183 0.
144.502 -71.0704 0.
124.493 -117.723 0.
-86.0942 -233.778 0.
-99.4755 -265.153 0.
-322.101 -386.77 0.
-148.096 -246.614 0.
-113.113 -166.217 0.
278.759 45.1181 0.
259.785 -0.797799 0.
240.811 -46.7141 0.
-216.777 -268.414 0.
-218.792 -273.942 0.
-220.807 -279.47 0.
1.18233 -224.183 0.
-29.3326 -296.805 0.
-59.8475 -369.428 0.
10.5968 -410.374 0.
-30.8628 -501.144 0.
-181.338 -624.331 0.
-164.82 -582.415 0.
-148.302 -540.5 0.
-194.79 -519.012 0.
-160.987 -441.669 0.
-127.184 -364.325 0.
184.703 -190.328 0.
194.122 -169.838 0.
203.542 -149.347 0.
92.3209 -252.035 0.
53.8362 -340.232 0.
228.22 -331.562 0.
-280.294 -418.725 0.
-213.072 -258.572 0.
-130.67 -126.822 0.
-142.697 -151.194 0.
-154.725 -175.566 0.
-136.469 -179.007 0.
-135.373 -175.659 0.
-134.277 -172.311 0.
-56.4596 -181.106 0.
-95.2858 -270.575 0.
-134.112 -360.044 0.
-99.1882 -253.453 0.
-39.0711 -113.233 0.
-100.226 -36.0566 0.
-98.5347 -30.0096 0.
-96.844 -23.9625 0.
-27.5139 -56.7271 0.
-126.642 -287.985 0.
-225.771 -519.243 0.
48.862 -481.808 0.
50.3785 -476.135 0.
51.8947 -470.463 0.
31.3197 -506.621 0.
13.4974 -550.915 0.
-10.4478 -367.626 0.
-39.4358 -403.406 0.
511.745 883.758 0.
124.235 628.649 0.
-366.271 -513.675 0.
14.9579 376.029 0.
168.064 -238.901 0.
121.214 -349.843 0.
145.03 -295.211 0.
-217.435 266.889 0.
-327.663 6.99307 0.
-418.174 -206.618 0.
100.591 -177.291 0.
80.9567 -222.069 0.
-259.191 -797.211 0.
156.734 175.004 0.
491.223 957.418 0.
445.959 493.884 0.
465.29 533.932 0.
428.255 443.478 0.
-97.4788 321.707 0.
-571.06 -784.736 0.
-157.296 177.919 0.
528.752 992.27 0.
433.768 773.262 0.
-447.924 -850.65 0.
95.1501 -180.585 0.
240.934 159.564 0.
316.412 349.563 0.
358.328 450.764 0.
172.431 20.9236 0.
-596.961 -427.135 0.
-506.274 -216.697 0.
-432.427 -45.9229 0.
414.744 302.957 0.
309.524 58.6245 0.
267.985 -36.9799 0.
212.225 86.2844 0.
469.737 686.723 0.
101.393 -172.044 0.
203.296 65.3689 0.
423.749 579.444 0.
497.727 765.072 0.
185.485 36.6607 0.
61.6708 -252.085 0.
166.163 185.121 0.
163.976 178.367 0.
194.851 248.864 0.
14.6082 -163.116 0.
255.98 399.517 0.
1019.93 731.078 0.
-44.3959 -127.472 0.
-123.094 -311.232 0.
417.3 -214.634 0.
-74.0854 -1359.76 0.
299.34 -487.14 0.
-121.921 116.03 0.
-224.7 -123.138 0.
-418.282 -574.239 0.
-227.703 -719.815 0.
-246.982 -763.895 0.
-287.758 -858.115 0.
320.958 451.854 0.
305.107 414.427 0.
-43.8722 -263.925 0.
88.8901 46.0175 0.
149.884 188.865 0.
34.6098 -98.6769 0.
-332.642 -959.919 0.
-123.659 -476.3 0.
175.11 -14.2405 0.
154.275 -62.5648 0.
106.43 -173.807 0.
449.084 475.911 0.
302.208 134.195 0.
-677.995 -885.195 0.
-402.493 -312.927 0.
-387.06 -277.016 0.
-219.123 -575.848 0.
-32.4988 -141.064 0.
-110.189 -322.6 0.
-170.657 215.795 0.
-418.097 -359.679 0.
-29.4051 548.608 0.
490.18 1048.86 0.
208.394 389.211 0.
-325.849 -859.714 0.
57.8496 -35.107 0.
95.9206 54.8645 0.
-367.348 -473.004 0.
-270.35 -247.65 0.
320.489 1130.01 0.
589.725 898.475 0.
262.872 137.046 0.
150.612 -123.801 0.
637.788 1066.93 0.
383.155 475.337 0.
390.648 493.349 0.
140 86.8241 0.
11.7518 -215.993 0.
1005.76 55.3262 0.
287.431 -220.214 0.
286.884 -220.234 0.
-396.159 -483.551 0.
-335.456 -341.586 0.
-274.752 -199.621 0.
24.4907 -11.1357 0.
23.539 -16.9299 0.
22.5869 -22.7237 0.
-24.9495 -23.233 0.
-8.48432 13.4453 0.
7.97982 50.1234 0.
-43.0277 -71.9915 0.
-101.528 -208.677 0.
-1.20564 -256.775 0.
15.4651 -217.164 0.
32.1356 -177.552 0.
69.4307 -158.313 0.
44.7695 -217.389 0.
20.1084 -276.465 0.
-250.774 -397.13 0.
-235.872 -361.302 0.
-220.971 -325.474 0.
-19.355 -226.143 0.
-12.0067 -210.861 0.
-553.052 -430.34 0.
169.605 -103.102 0.
178.589 -84.2656 0.
-71.9317 -181.259 0.
-64.2998 -165.367 0.
-56.6682 -149.476 0.
-187.648 -176.896 0.
-157.994 -111.982 0.
-128.339 -47.0674 0.
208.252 79.8728 0.
180.719 13.0098 0.
153.186 -53.8534 0.
56.4224 -92.6519 0.
64.1784 -73.3629 0.
254.931 28.3496 0.
288.656 108.929 0.
322.381 189.508 0.
152.775 112.012 0.
78.4544 -61.6825 0.
4.13454 -235.377 0.
-169.444 -393.182 0.
-191.548 -444.237 0.
-213.653 -495.292 0.
-123.642 -546.653 0.
-176.114 -668.526 0.
925.087 -296.382 0.
-203.856 -560.865 0.
-90.3895 -293.4 0.
331.807 46.3735 0.
300.136 -22.7533 0.
268.464 -91.8801 0.
-105.669 -312.936 0.
-142.722 -399.011 0.
-179.776 -485.086 0.
-163.942 -488.273 0.
-152.607 -460.121 0.
-141.272 -431.97 0.
-26.1796 -365.996 0.
-18.826 -350.124 0.
-209.908 -412.064 0.
-173.337 -325.912 0.
-136.767 -239.76 0.
78.1434 -131.198 0.
23.5547 -259.449 0.
-31.0336 -387.701 0.
51.3271 -354.448 0.
94.0349 -251.832 0.
136.743 -149.215 0.
334.032 25.7204 0.
379.309 130.963 0.
-256.554 -56.7148 0.
-269.978 -176.089 0.
-327.447 -313.462 0.
-190.283 -311.778 0.
-133.223 -179.97 0.
-76.1631 -48.1613 0.
-244.548 -92.6711 0.
-279.678 -177.147 0.
-314.807 -261.623 0.
-83.0602 -266.488 0.
-144.747 -410.558 0.
-206.433 -554.629 0.
-174.479 -422.292 0.
-98.7204 -245.537 0.
-131.322 -142.811 0.
-180.278 -260.483 0.
-229.235 -378.155 0.
20.1462 -303.479 0.
68.1025 -192.279 0.
116.059 -81.0785 0.
45.0215 -167.168 0.
-43.2483 -375.469 0.
-131.518 -583.77 0.
41.8757 -347.805 0.
174.834 -42.634 0.
1869.46 459.384 0.
606.214 -51.628 0.
606.24 -51.8557 0.
-435.576 -469.04 0.
-374.865 -326.72 0.
-314.154 -184.4 0.
-251.095 -98.1094 0.
-251.634 -104.216 0.
-252.173 -110.322 0.
378.941 180.293 0.
395.068 216.838 0.
411.194 253.384 0.
-257.725 -131.782 0.
-315.979 -269.165 0.
51.6442 -201.056 0.
68.5611 -161.694 0.
85.4778 -122.333 0.
-32.5732 -172.364 0.
-57.6859 -230.86 0.
-82.7984 -289.356 0.
-49.3372 -279.883 0.
-34.4956 -243.867 0.
-19.6543 -207.853 0.
-33.7018 -201.53 0.
-26.4088 -186.032 0.
-35.3744 -177.951 0.
240.483 -41.2435 0.
249.114 -21.8038 0.
-250.679 -227.552 0.
-243.052 -211.807 0.
-235.425 -196.064 0.
196.691 20.0241 0.
226.933 84.2258 0.
257.177 148.428 0.
94.4349 62.2536 0.
67.6134 -5.34488 0.
40.7919 -72.9437 0.
-24.9203 -95.4524 0.
-16.1075 -77.0661 0.
351.26 103.039 0.
385.609 183.307 0.
419.958 263.575 0.
89.7653 116.819 0.
15.3048 -56.7808 0.
-59.1555 -230.381 0.
-262.091 -401.785 0.
-284.343 -452.828 0.
-306.596 -503.871 0.
-65.5993 -490.484 0.
-117.989 -612.432 0.
465.144 -461.095 0.
-164.085 -511.346 0.
-50.29 -244.036 0.
103.817 -19.5532 0.
72.513 -88.7304 0.
41.2084 -157.908 0.
157.406 -168.497 0.
120.452 -254.412 0.
83.4983 -340.328 0.
-188.334 -466.096 0.
-177.483 -437.677 0.
-166.631 -409.258 0.
-5.65858 -325.708 0.
0.879844 -308.791 0.
-318.418 -428.343 0.
-282.254 -341.764 0.
-246.09 -255.184 0.
162.482 -65.7829 0.
107.399 -193.61 0.
52.3168 -321.437 0.
92.1932 -306.381 0.
135.159 -203.723 0.
178.124 -101.066 0.
440.948 103.061 0.
486.257 208.534 0.
86.8011 120.69 0.
-159.431 -96.5818 0.
-216.891 -233.683 0.
-277.667 -319.145 0.
-220.25 -187.337 0.
-162.833 -55.5303 0.
-154.272 -22.6224 0.
-189.153 -107.229 0.
-224.033 -191.835 0.
-80.3688 -234.231 0.
-141.76 -378.638 0.
-203.151 -523.045 0.
-239.15 -417.36 0.
-163.206 -241.185 0.
2.88641 -53.0738 0.
-46.6806 -170.354 0.
-96.2486 -287.633 0.
-28.571 -294.158 0.
19.1995 -182.515 0.
66.9701 -70.8709 0.
-16.2019 -161.441 0.
-104.778 -369.656 0.
-193.354 -577.871 0.
169.833 -262.84 0.
302.48 42.6755 0.
13.1188 -512.552 0.
579.326 -82.3674 0.
691.316 180.414 0.
-176.572 -33.7443 0.
-184.363 -51.7708 0.
-192.154 -69.7972 0.
-434.718 -222.83 0.
-482.234 -330.331 0.
-529.75 -437.831 0.
389.171 -47.851 0.
410.39 1.87316 0.
431.609 51.5973 0.
-304.46 -237.451 0.
-288.796 -200.069 0.
104.171 -24.0309 0.
1.29287 -263.4 0.
-101.585 -502.768 0.
-318.23 -663.294 0.
-216.324 -425.296 0.
-114.418 -187.297 0.
84.7341 -66.3796 0.
38.5804 -174.623 0.
-7.57318 -282.868 0.
-114.919 -285.634 0.
-74.992 -191.224 0.
364.984 73.7629 0.
306.516 37.5432 0.
300.062 23.156 0.
-148.208 -158.037 0.
-108.057 -64.2356 0.
-67.9037 29.566 0.
330.144 253.028 0.
343.513 285.034 0.
356.881 317.039 0.
37.8276 41.9482 0.
-77.2573 -227.32 0.
-192.342 -496.589 0.
-119.18 -446.381 0.
-92.8105 -385.218 0.
123.126 -259.492 0.
71.5627 -377.953 0.
19.9995 -496.414 0.
-209.501 -609.063 0.
-136.156 -436.282 0.
-62.8118 -263.501 0.
-227.606 -269.85 0.
-222.145 -257.398 0.
-216.683 -244.946 0.
136.078 -35.4669 0.
174.081 52.6407 0.
-550.457 -184.848 0.
80.888 -34.638 0.
17.9483 -181.82 0.
-131.338 -333.801 0.
-120.451 -309.828 0.
-109.565 -285.855 0.
141.461 -165.034 0.
141.727 -162.964 0.
141.993 -160.894 0.
-87.7383 -266.975 0.
-95.3506 -286.046 0.
-102.963 -305.118 0.
56.5661 -260.39 0.
45.8937 -289.33 0.
-406.342 -492.027 0.
-349.311 -359.024 0.
-292.28 -226.022 0.
226.605 41.0829 0.
186.171 -53.1383 0.
145.737 -147.359 0.
169.87 -145.426 0.
192.706 -89.4896 0.
215.541 -33.5536 0.
304.23 -3.3574 0.
290.424 -30.9668 0.
172.797 -102.251 0.
-151.986 -175.509 0.
-119.18 -95.0539 0.
-71.7452 -22.2206 0.
-74.2812 -24.0057 0.
-76.8162 -25.7913 0.
-137.896 -99.7434 0.
-196.655 -232.618 0.
-255.414 -365.493 0.
-47.2607 -234.222 0.
11.6596 -93.6421 0.
70.5803 46.9378 0.
-26.8137 22.0171 0.
-23.8779 30.2937 0.
3.70472 42.5238 0.
-22.3518 -17.6385 0.
-48.4075 -77.8009 0.
-1.02728 -107.878 0.
-28.7937 -171.577 0.
-56.5597 -235.275 0.
-146.763 -367.736 0.
-213.767 -523.972 0.
-280.771 -680.208 0.
37.8234 -486.931 0.
98.4069 -343.936 0.
-248.196 -595.089 0.
262.503 -187.141 0.
375.23 75.2169 0.
68.8187 103.247 0.
61.5302 85.3334 0.
54.2414 67.4199 0.
-451.491 -198.668 0.
-498.583 -306.409 0.
-545.676 -414.149 0.
286.111 -60.5784 0.
307.509 -11.3162 0.
328.907 37.9462 0.
-62.3412 -99.8057 0.
-45.9221 -63.2115 0.
23.2902 -28.3831 0.
-79.5389 -267.923 0.
-182.368 -507.463 0.
-372.265 -653.142 0.
-269.877 -415.475 0.
-167.489 -177.807 0.
26.8572 -60.4818 0.
-19.5533 -168.311 0.
-65.9638 -276.141 0.
-193.176 -290.299 0.
-153.036 -195.937 0.
-578.55 -300.486 0.
345.217 86.7144 0.
338.64 72.3195 0.
231.845 35.5121 0.
271.618 129.609 0.
311.392 223.705 0.
61.0607 169.529 0.
74.6386 201.285 0.
88.2167 233.041 0.
65.0162 84.4794 0.
-50.0526 -184.942 0.
-165.122 -454.363 0.
126.848 -309.764 0.
153.579 -248.946 0.
-114.811 -329 0.
-166.227 -447.539 0.
-217.644 -566.077 0.
-87.9959 -526.123 0.
-14.9295 -353.042 0.
58.1367 -179.962 0.
-155.893 -208.82 0.
-150.717 -196.102 0.
-145.541 -183.384 0.
129.556 -5.99358 0.
167.724 82.1233 0.
-430.706 -102.216 0.
172.239 36.082 0.
109.291 -110.872 0.
-103.57 -290.432 0.
-92.5258 -266.329 0.
-81.4817 -242.226 0.
-122.766 -246.367 0.
-122.164 -244.398 0.
-121.562 -242.43 0.
12.3197 -192.824 0.
4.63365 -211.527 0.
-3.05254 -230.231 0.
157.964 -184.792 0.
146.916 -213.407 0.
-411.919 -463.563 0.
-354.5 -331.014 0.
-297.082 -198.464 0.
226.265 74.0379 0.
186.278 -20.7317 0.
146.291 -115.501 0.
181.368 -108.682 0.
204.128 -53.0614 0.
226.888 2.55948 0.
11.2442 -96.4053 0.
-2.40603 -124.314 0.
577.89 102.801 0.
-118.921 -129.512 0.
-86.6001 -48.6561 0.
225.603 136.716 0.
223.254 134.593 0.
220.906 132.469 0.
-84.4603 -45.5622 0.
-142.895 -178.75 0.
-201.328 -311.937 0.
63.7682 -153.875 0.
123.164 -13.5618 0.
182.561 126.751 0.
124.15 117.75 0.
126.902 126.052 0.
-190.822 -8.23515 0.
-216.424 -68.7701 0.
-242.024 -129.305 0.
-42.5245 -94.6521 0.
-70.0593 -158.329 0.
-97.5937 -222.005 0.
-155.445 -339.146 0.
-222.176 -495.459 0.
-288.907 -651.772 0.
-152.063 -535.774 0.
-91.3796 -392.715 0.
167.813 -268.491 0.
-123.86 -448.785 0.
-86.0804 -361.323 0.
553.075 796.899 0.
436.297 525.616 0.
472.369 611.109 0.
-670.635 -668.682 0.
-494.89 -260.054 0.
-215.938 389.222 0.
302.547 217.67 0.
-59.4682 -627.06 0.
-227.342 -1019 0.
393.908 526.858 0.
466.832 702.676 0.
-238.619 -458.852 0.
121.675 382.883 0.
-102.522 -138.514 0.
-320.476 -401.933 0.
-404.329 -597.838 0.
-294.503 -342.882 0.
-108.713 -237.582 0.
-321.161 -734.415 0.
-498.246 -1149.18 0.
-250.243 -243.884 0.
-52.6106 215.125 0.
-617.66 -230.586 0.
359.587 78.0001 0.
197.751 -293.783 0.
799.658 664.937 0.
891.788 883.711 0.
504.214 -16.2912 0.
-551.445 -720.156 0.
-173.017 165.145 0.
-197.485 110.22 0.
285.523 564.63 0.
200.801 365.753 0.
62.8868 42.8809 0.
372.715 -167.768 0.
309.775 -318.34 0.
-26.9909 361.018 0.
131.747 730.936 0.
-189.071 -18.0677 0.
196.912 -45.7775 0.
363.297 337.114 0.
-80.548 -703.834 0.
-289.034 -629.582 0.
2.84709 50.2268 0.
-119.376 -235.987 0.
-190.668 -703.313 0.
-233.593 -808.336 0.
238.488 240.374 0.
47.3412 -397.506 0.
-41.7557 -607.558 0.
64.8409 87.844 0.
25.3565 -4.76966 0.
-19.0273 -109.015 0.
-427.377 -439.214 0.
-203.1 85.9611 0.
-276.328 -82.7251 0.
-195.215 -828.08 0.
-414.726 -1339.56 0.
473.411 733.093 0.
591.462 671.435 0.
466.36 381.547 0.
-95.3272 311.288 0.
-84.2542 336.043 0.
-169.015 137.398 0.
299.623 273.715 0.
496.316 731.367 0.
129.9 -124.371 0.
166.454 -133.25 0.
162.29 -145.152 0.
-87.0302 -728.659 0.
-306.172 -236.532 0.
-63.7968 331.526 0.
710.578 263.829 0.
-71.038 -65.3044 0.
-480.016 -1010.38 0.
282.32 -265.152 0.
953.351 1306.45 0.
283.756 -249.276 0.
114.978 350.111 0.
391.435 994.275 0.
-84.4993 -116.624 0.
-164.373 -864.644 0.
-15.4613 -518.318 0.
269.212 144.587 0.
115.143 -149.792 0.
189.093 21.6807 0.
-698.535 -798.39 0.
-523.74 -389.211 0.
-316.236 95.9416 0.
25.386 166.052 0.
-8.17539 88.3874 0.
-193.908 -344.225 0.
-85.1979 -122.444 0.
132.129 383.325 0.
-195.762 -382.417 0.
-69.8113 59.592 0.
-329.182 -544.664 0.
-525.644 -142.34 0.
146.23 158.59 0.
135.54 132.863 0.
3.13 39.5666 0.
-51.679 -91.4876 0.
-106.489 -222.542 0.
-253.801 -269.432 0.
-160.196 -54.3494 0.
-66.5904 160.734 0.
93.6167 200.037 0.
21.3038 32.5093 0.
-51.0097 -135.019 0.
297.91 84.8346 0.
343.632 198.289 0.
-66.8501 109.355 0.
-52.3048 144.078 0.
-37.7592 178.8 0.
-144.776 151.875 0.
-145.446 153.401 0.
-146.116 154.928 0.
181.32 179.674 0.
68.2919 -87.3979 0.
-44.7365 -354.471 0.
-287.507 -345.096 0.
-176.412 -85.3618 0.
1254.52 740.782 0.
290.337 -11.2297 0.
108.602 -432.465 0.
82.9545 -650.784 0.
231.716 -301.412 0.
380.477 47.959 0.
-39.209 -17.8677 0.
-98.3855 -150.56 0.
-157.561 -283.251 0.
193.608 -156.186 0.
202.579 -133.383 0.
211.55 -110.581 0.
140.72 -109.65 0.
156.029 -72.514 0.
-142.8 -152.345 0.
-50.1022 61.951 0.
42.5949 276.247 0.
269.641 410.548 0.
153.915 134.282 0.
38.1881 -141.984 0.
-282.607 -307.821 0.
-213.508 -149.459 0.
-144.41 8.90291 0.
382.506 182.942 0.
330.063 59.3357 0.
-623.777 -448.777 0.
87.315 -240.569 0.
35.874 -359.368 0.
-278.982 -523.294 0.
-177.177 -285.022 0.
-75.3709 -46.7499 0.
-285.59 -56.7949 0.
-312.932 -121.446 0.
-340.273 -186.098 0.
38.3517 -36.3921 0.
42.08 -28.0426 0.
45.8081 -19.6931 0.
209.94 2.65599 0.
181.308 -62.937 0.
47.3722 -159.551 0.
82.6498 -74.939 0.
117.927 9.67277 0.
261.681 136.117 0.
292.158 207.726 0.
322.636 279.334 0.
245.125 258.53 0.
234.857 231.096 0.
224.589 203.662 0.
-222.015 -24.9205 0.
-243.953 -75.7178 0.
537.045 221.585 0.
118.283 -40.0597 0.
77.7694 -137.603 0.
-44.3274 -267.567 0.
-81.1426 -355.89 0.
-117.958 -444.213 0.
-191.514 -467.167 0.
-128.691 -319.999 0.
-65.8689 -172.83 0.
275.772 82.6779 0.
327.071 203.318 0.
378.37 323.958 0.
222.193 208.108 0.
186.878 125.419 0.
-250.861 -119.339 0.
-232.55 -75.4561 0.
-214.238 -31.5727 0.
166.874 101.754 0.
89.7845 -80.4783 0.
12.6961 -262.711 0.
-165.638 -279.335 0.
-47.7677 -3.41915 0.
70.1029 272.497 0.
-162.974 94.4803 0.
-251.198 -110.549 0.
-946.058 -292.403 0.
179.031 204.394 0.
168.75 178.179 0.
-255.844 -39.0081 0.
-310.152 -169.797 0.
-364.461 -300.586 0.
74.1565 -98.1201 0.
168.187 117.25 0.
262.218 332.621 0.
-141.739 130.437 0.
-213.822 -37.4923 0.
-285.904 -205.423 0.
430.313 172.253 0.
476.168 285.47 0.
-137.344 112.225 0.
-122.305 146.626 0.
-107.265 181.025 0.
-207.286 155.368 0.
-208.09 157.36 0.
-208.893 159.351 0.
331.289 275.359 0.
218.6 8.55237 0.
105.91 -258.255 0.
-264.06 -303.097 0.
-152.847 -43.1035 0.
63.9383 261.136 0.
269.708 11.2545 0.
87.0251 -409.264 0.
-83.7908 -693.262 0.
64.0351 -343.252 0.
211.861 6.75658 0.
230.421 126.928 0.
171.084 -5.72722 0.
111.747 -138.382 0.
475.053 -3.75006 0.
484.643 17.9494 0.
494.234 39.6487 0.
-161.594 -205.722 0.
-145.173 -169.522 0.
0.671212 -59.2969 0.
93.7108 154.936 0.
186.75 369.169 0.
135.907 385.698 0.
19.8574 109.435 0.
-96.1925 -166.828 0.
-423.113 -337.291 0.
-354.842 -177.692 0.
-286.572 -18.0927 0.
638.742 323.371 0.
586.091 200.345 0.
-1850.51 -942.46 0.
73.7753 -213.477 0.
22.2613 -331.828 0.
-368.586 -530.842 0.
-266.287 -292.796 0.
-163.988 -54.7488 0.
-290.683 -26.7668 0.
-317.237 -91.5391 0.
-343.79 -156.311 0.
-73.9468 -53.0411 0.
-70.7403 -44.1474 0.
-67.5339 -35.2538 0.
108.854 -9.91771 0.
79.9473 -75.2157 0.
487.554 60.769 0.
522.357 145.895 0.
557.159 231.022 0.
303.406 185.149 0.
333.905 256.829 0.
364.405 328.509 0.
159.833 253.273 0.
149.18 225.869 0.
138.528 198.466 0.
-212.912 11.5725 0.
-235.591 -39.0315 0.
851.398 387.63 0.
355.327 91.4535 0.
314.199 -6.17438 0.
-419.188 -396.793 0.
-455.337 -485.782 0.
-491.486 -574.771 0.
-124.117 -406.074 0.
-61.2595 -258.877 0.
1.59763 -111.68 0.
333.944 139.2 0.
384.943 260.221 0.
435.942 381.242 0.
183.118 222.097 0.
147.682 139.619 0.
-46.1933 0.287618 0.
-27.1521 44.2586 0.
-8.11022 88.23 0.
391.594 229.007 0.
315.155 46.6434 0.
238.717 -135.721 0.
-169.548 -248.776 0.
-51.5279 27.6021 0.
66.4926 303.981 0.
-274.379 75.8528 0.
-362.421 -127.981 0.
