# vtk DataFile Version 2.0
test grain
ASCII
DATASET UNSTRUCTURED_GRID
POINTS 5000 float
0.499945 0.00100085 0.
0.501946 0.00100074 0.
0.503947 0.00100069 0.
0.505948 0.00100061 0.
0.507949 0.00100047 0.
0.50995 0.00100033 0.
0.511951 0.00100021 0.
0.513953 0.00100013 0.
0.515954 0.00100006 0.
0.517955 0.00100002 0.
0.519957 0.00100001 0.
0.521958 0.001 0.
0.52396 0.001 0.
0.525962 0.001 0.
0.527964 0.001 0.
0.529965 0.001 0.
0.531966 0.00100001 0.
0.533968 0.00100001 0.
0.535969 0.001 0.
0.53797 0.001 0.
0.539972 0.001 0.
0.541973 0.001 0.
0.543974 0.00100001 0.
0.545975 0.00100001 0.
0.547976 0.00100001 0.
0.549977 0.00100001 0.
0.551979 0.00100002 0.
0.55398 0.00100003 0.
0.555981 0.00100003 0.
0.557983 0.00100002 0.
0.559984 0.00100001 0.
0.561985 0.001 0.
0.563987 0.001 0.
0.565988 0.001 0.
0.567989 0.00100001 0.
0.56999 0.00100002 0.
0.571991 0.00100004 0.
0.573992 0.00100007 0.
0.575992 0.00100012 0.
0.577993 0.00100015 0.
0.579993 0.00100017 0.
0.581994 0.00100018 0.
0.583995 0.00100021 0.
0.585996 0.00100027 0.
0.587998 0.00100032 0.
0.589998 0.00100036 0.
0.591999 0.00100038 0.
0.594 0.0010004 0.
0.596 0.00100037 0.
0.598 0.00100033 0.
0.6 0.00100028 0.
0.602001 0.00100033 0.
0.604002 0.00100037 0.
0.606003 0.00100039 0.
0.608004 0.0010003 0.
0.610004 0.00100021 0.
0.612005 0.00100017 0.
0.614007 0.00100018 0.
0.616008 0.00100019 0.
0.618009 0.00100021 0.
0.620009 0.00100024 0.
0.622009 0.00100027 0.
0.624009 0.00100019 0.
0.62601 0.00100009 0.
0.62801 0.00100001 0.
0.630012 0.001 0.
0.632013 0.001 0.
0.634014 0.001 0.
0.636015 0.001 0.
0.638017 0.001 0.
0.640018 0.001 0.
0.64202 0.001 0.
0.644022 0.00100001 0.
0.646023 0.00100001 0.
0.648025 0.00100001 0.
0.650026 0.00100002 0.
0.652027 0.00100002 0.
0.654027 0.00100001 0.
0.656028 0.00100001 0.
0.658029 0.00100001 0.
0.66003 0.00100001 0.
0.662031 0.001 0.
0.664032 0.001 0.
0.666033 0.001 0.
0.668034 0.00100001 0.
0.670036 0.00100001 0.
0.672037 0.00100002 0.
0.674039 0.00100001 0.
0.676041 0.001 0.
0.678043 0.000999999 0.
0.680045 0.00100003 0.
0.682046 0.00100007 0.
0.684048 0.0010001 0.
0.686049 0.00100012 0.
0.688049 0.00100014 0.
0.690051 0.00100024 0.
0.692052 0.00100039 0.
0.694053 0.00100055 0.
0.696054 0.00100068 0.
0.698054 0.00100081 0.
0.499946 0.00300254 0.
0.501947 0.00300223 0.
0.503948 0.00300206 0.
0.505948 0.00300184 0.
0.50795 0.00300141 0.
0.509951 0.00300098 0.
0.511952 0.00300064 0.
0.513953 0.0030004 0.
0.515955 0.00300017 0.
0.517956 0.00300007 0.
0.519957 0.00300003 0.
0.521958 0.003 0.
0.52396 0.003 0.
0.525962 0.003 0.
0.527964 0.00300001 0.
0.529965 0.00300001 0.
0.531967 0.00300001 0.
0.533968 0.00300002 0.
0.535969 0.00300001 0.
0.537971 0.00300001 0.
0.539972 0.00300001 0.
0.541973 0.00300001 0.
0.543974 0.00300002 0.
0.545975 0.00300002 0.
0.547977 0.00300002 0.
0.549978 0.00300002 0.
0.551979 0.00300005 0.
0.55398 0.00300008 0.
0.555981 0.0030001 0.
0.557983 0.00300006 0.
0.559984 0.00300002 0.
0.561986 0.003 0.
0.563987 0.003 0.
0.565988 0.003 0.
0.567989 0.00300003 0.
0.56999 0.00300007 0.
0.571992 0.00300011 0.
0.573992 0.00300022 0.
0.575993 0.00300035 0.
0.577993 0.00300046 0.
0.579994 0.0030005 0.
0.581995 0.00300055 0.
0.583996 0.00300063 0.
0.585997 0.0030008 0.
0.587998 0.00300096 0.
0.589999 0.00300107 0.
0.591999 0.00300113 0.
0.594 0.00300119 0.
0.596 0.00300111 0.
0.598 0.00300098 0.
0.600001 0.00300085 0.
0.602001 0.00300099 0.
0.604002 0.00300112 0.
0.606002 0.00300116 0.
0.608003 0.0030009 0.
0.610004 0.00300064 0.
0.612005 0.00300051 0.
0.614006 0.00300054 0.
0.616007 0.00300057 0.
0.618008 0.00300064 0.
0.620008 0.00300073 0.
0.622009 0.00300082 0.
0.624009 0.00300057 0.
0.62601 0.00300028 0.
0.62801 0.00300002 0.
0.630011 0.00300001 0.
0.632013 0.00300001 0.
0.634014 0.00300001 0.
0.636015 0.003 0.
0.638016 0.003 0.
0.640018 0.00300001 0.
0.64202 0.00300001 0.
0.644021 0.00300002 0.
0.646023 0.00300003 0.
0.648024 0.00300004 0.
0.650025 0.00300005 0.
0.652026 0.00300005 0.
0.654027 0.00300004 0.
0.656028 0.00300004 0.
0.658029 0.00300003 0.
0.660031 0.00300002 0.
0.662032 0.00300001 0.
0.664033 0.00300001 0.
0.666034 0.00300001 0.
0.668035 0.00300002 0.
0.670036 0.00300004 0.
0.672037 0.00300005 0.
0.674039 0.00300003 0.
0.676041 0.00300001 0.
0.678042 0.003 0.
0.680044 0.0030001 0.
0.682046 0.00300021 0.
0.684047 0.0030003 0.
0.686048 0.00300037 0.
0.688049 0.00300043 0.
0.690051 0.00300072 0.
0.692052 0.00300118 0.
0.694053 0.00300165 0.
0.696054 0.00300204 0.
0.698054 0.00300242 0.
0.499947 0.00500422 0.
0.501947 0.00500371 0.
0.503948 0.00500343 0.
0.505949 0.00500307 0.
0.50795 0.00500235 0.
0.509951 0.00500163 0.
0.511952 0.00500106 0.
0.513954 0.00500067 0.
0.515955 0.00500029 0.
0.517957 0.00500011 0.
0.519957 0.00500006 0.
0.521958 0.005 0.
0.52396 0.005 0.
0.525962 0.005 0.
0.527963 0.00500001 0.
0.529965 0.00500002 0.
0.531967 0.00500002 0.
0.533968 0.00500003 0.
0.53597 0.00500002 0.
0.537971 0.00500001 0.
0.539972 0.00500001 0.
0.541973 0.00500002 0.
0.543974 0.00500003 0.
0.545975 0.00500003 0.
0.547977 0.00500004 0.
0.549978 0.00500004 0.
0.551979 0.00500008 0.
0.55398 0.00500013 0.
0.555981 0.00500016 0.
0.557983 0.0050001 0.
0.559985 0.00500004 0.
0.561986 0.00500001 0.
0.563987 0.00500001 0.
0.565988 0.005 0.
0.567989 0.00500005 0.
0.569991 0.00500011 0.
0.571992 0.00500018 0.
0.573993 0.00500037 0.
0.575993 0.00500058 0.
0.577994 0.00500077 0.
0.579995 0.00500084 0.
0.581996 0.00500091 0.
0.583997 0.00500105 0.
0.585997 0.00500133 0.
0.587998 0.0050016 0.
0.589999 0.00500178 0.
0.592 0.00500188 0.
0.594001 0.00500199 0.
0.596001 0.00500185 0.
0.598001 0.00500163 0.
0.600001 0.00500142 0.
0.602001 0.00500164 0.
0.604001 0.00500186 0.
0.606002 0.00500194 0.
0.608003 0.0050015 0.
0.610004 0.00500106 0.
0.612005 0.00500084 0.
0.614005 0.0050009 0.
0.616006 0.00500095 0.
0.618007 0.00500106 0.
0.620008 0.00500122 0.
0.622009 0.00500137 0.
0.624009 0.00500095 0.
0.626009 0.00500047 0.
0.62801 0.00500003 0.
0.630011 0.00500002 0.
0.632013 0.00500001 0.
0.634014 0.00500001 0.
0.636015 0.00500001 0.
0.638016 0.005 0.
0.640017 0.00500001 0.
0.642019 0.00500002 0.
0.644021 0.00500004 0.
0.646022 0.00500005 0.
0.648023 0.00500007 0.
0.650024 0.00500009 0.
0.652026 0.00500008 0.
0.654027 0.00500007 0.
0.656028 0.00500006 0.
0.658029 0.00500005 0.
0.660031 0.00500003 0.
0.662032 0.00500002 0.
0.664033 0.00500002 0.
0.666034 0.00500001 0.
0.668035 0.00500003 0.
0.670036 0.00500006 0.
0.672038 0.00500009 0.
0.674039 0.00500005 0.
0.67604 0.00500001 0.
0.678042 0.00499999 0.
0.680044 0.00500017 0.
0.682045 0.00500035 0.
0.684047 0.00500051 0.
0.686048 0.00500061 0.
0.688049 0.00500071 0.
0.69005 0.0050012 0.
0.692052 0.00500197 0.
0.694053 0.00500274 0.
0.696053 0.0050034 0.
0.698054 0.00500404 0.
0.499948 0.00700607 0.
0.501949 0.00700533 0.
0.503949 0.00700472 0.
0.50595 0.00700413 0.
0.507951 0.00700363 0.
0.509952 0.00700313 0.
0.511953 0.00700266 0.
0.513955 0.00700222 0.
0.515956 0.00700179 0.
0.517957 0.00700159 0.
0.519958 0.00700152 0.
0.521959 0.00700144 0.
0.523961 0.00700141 0.
0.525962 0.00700137 0.
0.527964 0.00700134 0.
0.529965 0.00700138 0.
0.531967 0.00700143 0.
0.533968 0.00700148 0.
0.53597 0.00700156 0.
0.537971 0.00700163 0.
0.539972 0.0070016 0.
0.541974 0.00700148 0.
0.543975 0.00700136 0.
0.545976 0.0070014 0.
0.547977 0.00700149 0.
0.549978 0.00700159 0.
0.551979 0.0070018 0.
0.553981 0.00700202 0.
0.555982 0.00700216 0.
0.557984 0.00700202 0.
0.559985 0.00700189 0.
0.561987 0.00700179 0.
0.563988 0.00700173 0.
0.565989 0.00700167 0.
0.56799 0.00700182 0.
0.569991 0.00700209 0.
0.571991 0.00700237 0.
0.573992 0.00700247 0.
0.575993 0.00700255 0.
0.577994 0.00700264 0.
0.579995 0.00700275 0.
0.581996 0.00700287 0.
0.583997 0.00700304 0.
0.585997 0.00700329 0.
0.587998 0.00700355 0.
0.589999 0.00700368 0.
0.591999 0.00700372 0.
0.594 0.00700376 0.
0.596 0.00700374 0.
0.598 0.00700369 0.
0.600001 0.00700365 0.
0.602001 0.0070037 0.
0.604002 0.00700376 0.
0.606002 0.0070037 0.
0.608003 0.00700328 0.
0.610004 0.00700285 0.
0.612004 0.00700267 0.
0.614005 0.00700279 0.
0.616006 0.0070029 0.
0.618007 0.00700293 0.
0.620008 0.0070029 0.
0.622008 0.00700288 0.
0.624009 0.00700257 0.
0.62601 0.00700222 0.
0.62801 0.00700191 0.
0.630011 0.00700191 0.
0.632012 0.00700191 0.
0.634013 0.00700187 0.
0.636014 0.00700179 0.
0.638015 0.0070017 0.
0.640017 0.0070017 0.
0.642018 0.00700176 0.
0.64402 0.00700182 0.
0.646021 0.00700173 0.
0.648022 0.0070016 0.
0.650024 0.00700148 0.
0.652025 0.00700152 0.
0.654026 0.00700156 0.
0.656028 0.00700158 0.
0.658029 0.00700153 0.
0.66003 0.00700149 0.
0.662031 0.00700142 0.
0.664032 0.00700133 0.
0.666033 0.00700123 0.
0.668035 0.00700122 0.
0.670036 0.00700126 0.
0.672038 0.00700129 0.
0.674039 0.00700128 0.
0.67604 0.00700125 0.
0.678041 0.00700125 0.
0.680043 0.00700142 0.
0.682044 0.0070016 0.
0.684046 0.00700176 0.
0.686047 0.00700189 0.
0.688048 0.00700202 0.
0.690049 0.00700252 0.
0.69205 0.00700329 0.
0.694051 0.00700406 0.
0.696052 0.00700502 0.
0.698053 0.00700605 0.
0.49995 0.00900792 0.
0.50195 0.00900695 0.
0.503951 0.009006 0.
0.505951 0.00900519 0.
0.507952 0.00900491 0.
0.509953 0.00900463 0.
0.511955 0.00900426 0.
0.513956 0.00900378 0.
0.515957 0.00900329 0.
0.517958 0.00900306 0.
0.519959 0.00900298 0.
0.52196 0.00900289 0.
0.523961 0.00900281 0.
0.525963 0.00900273 0.
0.527964 0.00900267 0.
0.529966 0.00900275 0.
0.531967 0.00900283 0.
0.533969 0.00900294 0.
0.53597 0.00900309 0.
0.537972 0.00900325 0.
0.539973 0.00900319 0.
0.541974 0.00900293 0.
0.543975 0.00900268 0.
0.545976 0.00900277 0.
0.547977 0.00900295 0.
0.549979 0.00900313 0.
0.55198 0.00900351 0.
0.553981 0.0090039 0.
0.555983 0.00900416 0.
0.557984 0.00900395 0.
0.559986 0.00900374 0.
0.561987 0.00900357 0.
0.563988 0.00900345 0.
0.565989 0.00900333 0.
0.56799 0.0090036 0.
0.56999 0.00900407 0.
0.571991 0.00900455 0.
0.573992 0.00900457 0.
0.575993 0.00900452 0.
0.577994 0.00900451 0.
0.579995 0.00900467 0.
0.581996 0.00900484 0.
0.583997 0.00900503 0.
0.585997 0.00900526 0.
0.587998 0.0090055 0.
0.589999 0.00900559 0.
0.591999 0.00900556 0.
0.594 0.00900553 0.
0.596 0.00900563 0.
0.598 0.00900575 0.
0.600001 0.00900588 0.
0.602001 0.00900576 0.
0.604002 0.00900565 0.
0.606003 0.00900547 0.
0.608003 0.00900506 0.
0.610004 0.00900464 0.
0.612004 0.00900449 0.
0.614005 0.00900468 0.
0.616006 0.00900486 0.
0.618007 0.00900479 0.
0.620008 0.00900459 0.
0.622008 0.0090044 0.
0.624009 0.00900419 0.
0.62601 0.00900397 0.
0.62801 0.00900379 0.
0.630011 0.00900379 0.
0.632012 0.0090038 0.
0.634012 0.00900374 0.
0.636014 0.00900357 0.
0.638015 0.0090034 0.
0.640016 0.00900339 0.
0.642017 0.0090035 0.
0.644019 0.0090036 0.
0.64602 0.00900341 0.
0.648022 0.00900314 0.
0.650023 0.00900286 0.
0.652024 0.00900296 0.
0.654026 0.00900305 0.
0.656027 0.0090031 0.
0.658028 0.00900302 0.
0.660029 0.00900295 0.
0.662031 0.00900282 0.
0.664032 0.00900263 0.
0.666033 0.00900245 0.
0.668034 0.00900241 0.
0.670036 0.00900246 0.
0.672037 0.0090025 0.
0.674039 0.0090025 0.
0.67604 0.00900249 0.
0.678041 0.0090025 0.
0.680042 0.00900268 0.
0.682044 0.00900285 0.
0.684045 0.00900302 0.
0.686046 0.00900318 0.
0.688047 0.00900333 0.
0.690048 0.00900383 0.
0.692049 0.0090046 0.
0.69405 0.00900537 0.
0.69605 0.00900665 0.
0.698051 0.00900806 0.
0.499951 0.0110092 0.
0.501951 0.0110081 0.
0.503952 0.011007 0.
0.505952 0.011006 0.
0.507953 0.0110059 0.
0.509954 0.0110057 0.
0.511955 0.0110054 0.
0.513957 0.0110049 0.
0.515958 0.0110044 0.
0.517959 0.0110041 0.
0.51996 0.0110038 0.
0.521961 0.0110036 0.
0.523962 0.0110035 0.
0.525963 0.0110034 0.
0.527965 0.0110033 0.
0.529966 0.0110033 0.
0.531968 0.0110034 0.
0.533969 0.0110035 0.
0.535971 0.0110037 0.
0.537972 0.0110039 0.
0.539973 0.0110038 0.
0.541975 0.0110035 0.
0.543976 0.0110032 0.
0.545977 0.0110033 0.
0.547978 0.0110035 0.
0.549979 0.0110037 0.
0.551981 0.0110042 0.
0.553982 0.0110047 0.
0.555983 0.011005 0.
0.557985 0.0110048 0.
0.559986 0.0110045 0.
0.561987 0.0110044 0.
0.563988 0.0110043 0.
0.565989 0.0110042 0.
0.56799 0.0110045 0.
0.569991 0.011005 0.
0.571991 0.0110055 0.
0.573992 0.0110056 0.
0.575993 0.0110055 0.
0.577994 0.0110056 0.
0.579995 0.0110058 0.
0.581996 0.0110059 0.
0.583997 0.0110062 0.
0.585997 0.0110065 0.
0.587998 0.0110068 0.
0.589999 0.0110069 0.
0.591999 0.0110068 0.
0.593999 0.0110067 0.
0.596 0.0110068 0.
0.598 0.0110069 0.
0.6 0.011007 0.
0.602001 0.0110069 0.
0.604002 0.0110067 0.
0.606003 0.0110065 0.
0.608003 0.0110062 0.
0.610004 0.0110059 0.
0.612004 0.0110058 0.
0.614005 0.011006 0.
0.616006 0.0110062 0.
0.618007 0.0110061 0.
0.620007 0.0110058 0.
0.622008 0.0110055 0.
0.624009 0.0110052 0.
0.626009 0.011005 0.
0.62801 0.0110048 0.
0.630011 0.0110048 0.
0.632011 0.0110047 0.
0.634012 0.0110046 0.
0.636013 0.0110044 0.
0.638014 0.0110042 0.
0.640015 0.0110042 0.
0.642017 0.0110043 0.
0.644018 0.0110045 0.
0.646019 0.0110041 0.
0.648021 0.0110037 0.
0.650023 0.0110032 0.
0.652024 0.0110034 0.
0.654025 0.0110036 0.
0.656026 0.0110037 0.
0.658028 0.0110036 0.
0.660029 0.0110035 0.
0.66203 0.0110034 0.
0.664031 0.0110032 0.
0.666032 0.0110031 0.
0.668034 0.011003 0.
0.670035 0.011003 0.
0.672037 0.0110029 0.
0.674038 0.011003 0.
0.676039 0.0110031 0.
0.67804 0.0110031 0.
0.680041 0.0110034 0.
0.682043 0.0110037 0.
0.684044 0.0110039 0.
0.686044 0.011004 0.
0.688045 0.0110042 0.
0.690046 0.0110047 0.
0.692047 0.0110055 0.
0.694048 0.0110064 0.
0.696049 0.0110078 0.
0.69805 0.0110093 0.
0.499952 0.0130098 0.
0.501953 0.0130087 0.
0.503953 0.0130076 0.
0.505953 0.0130067 0.
0.507954 0.0130065 0.
0.509955 0.0130063 0.
0.511956 0.013006 0.
0.513957 0.0130056 0.
0.515958 0.0130051 0.
0.517959 0.0130046 0.
0.519961 0.0130041 0.
0.521962 0.0130035 0.
0.523963 0.0130033 0.
0.525964 0.0130032 0.
0.527966 0.0130031 0.
0.529967 0.0130031 0.
0.531969 0.0130031 0.
0.53397 0.0130031 0.
0.535971 0.0130034 0.
0.537972 0.0130036 0.
0.539974 0.0130035 0.
0.541975 0.0130033 0.
0.543976 0.013003 0.
0.545977 0.013003 0.
0.547979 0.0130032 0.
0.54998 0.0130033 0.
0.551981 0.0130038 0.
0.553983 0.0130043 0.
0.555984 0.0130047 0.
0.557985 0.0130045 0.
0.559986 0.0130043 0.
0.561988 0.0130042 0.
0.563989 0.0130043 0.
0.56599 0.0130044 0.
0.567991 0.0130046 0.
0.569991 0.0130049 0.
0.571992 0.0130052 0.
0.573993 0.0130054 0.
0.575994 0.0130056 0.
0.577995 0.0130058 0.
0.579995 0.013006 0.
0.581996 0.0130062 0.
0.583997 0.0130065 0.
0.585997 0.013007 0.
0.587998 0.0130074 0.
0.589999 0.0130076 0.
0.591999 0.0130074 0.
0.593999 0.0130073 0.
0.596 0.0130072 0.
0.598 0.0130072 0.
0.6 0.0130071 0.
0.602001 0.013007 0.
0.604002 0.013007 0.
0.606003 0.0130069 0.
0.608003 0.0130067 0.
0.610003 0.0130066 0.
0.612004 0.0130066 0.
0.614005 0.0130068 0.
0.616006 0.013007 0.
0.618006 0.0130068 0.
0.620007 0.0130065 0.
0.622007 0.0130061 0.
0.624008 0.0130057 0.
0.626008 0.0130053 0.
0.628009 0.0130049 0.
0.63001 0.0130048 0.
0.632011 0.0130047 0.
0.634011 0.0130045 0.
0.636013 0.0130043 0.
0.638014 0.013004 0.
0.640015 0.013004 0.
0.642016 0.0130042 0.
0.644018 0.0130044 0.
0.646019 0.0130039 0.
0.648021 0.0130032 0.
0.650022 0.0130025 0.
0.652023 0.0130028 0.
0.654024 0.0130031 0.
0.656026 0.0130034 0.
0.658027 0.0130033 0.
0.660028 0.0130033 0.
0.662029 0.0130032 0.
0.66403 0.0130031 0.
0.666031 0.0130031 0.
0.668032 0.0130029 0.
0.670034 0.0130027 0.
0.672036 0.0130026 0.
0.674037 0.0130027 0.
0.676038 0.0130029 0.
0.678039 0.0130032 0.
0.68004 0.0130036 0.
0.682041 0.013004 0.
0.684042 0.0130044 0.
0.686043 0.0130044 0.
0.688044 0.0130045 0.
0.690045 0.0130051 0.
0.692046 0.0130061 0.
0.694047 0.0130071 0.
0.696048 0.0130084 0.
0.698048 0.0130097 0.
0.499953 0.0150105 0.
0.501954 0.0150094 0.
0.503954 0.0150083 0.
0.505955 0.0150073 0.
0.507955 0.0150071 0.
0.509956 0.0150069 0.
0.511957 0.0150066 0.
0.513958 0.0150062 0.
0.515959 0.0150059 0.
0.51796 0.0150052 0.
0.519961 0.0150043 0.
0.521962 0.0150034 0.
0.523964 0.0150032 0.
0.525965 0.0150031 0.
0.527966 0.015003 0.
0.529968 0.0150029 0.
0.531969 0.0150028 0.
0.533971 0.0150028 0.
0.535972 0.015003 0.
0.537973 0.0150032 0.
0.539974 0.0150032 0.
0.541975 0.015003 0.
0.543976 0.0150028 0.
0.545978 0.0150028 0.
0.547979 0.0150028 0.
0.549981 0.0150029 0.
0.551982 0.0150034 0.
0.553984 0.015004 0.
0.555985 0.0150044 0.
0.557986 0.0150042 0.
0.559987 0.0150041 0.
0.561988 0.0150041 0.
0.563989 0.0150043 0.
0.56599 0.0150045 0.
0.567991 0.0150047 0.
0.569992 0.0150048 0.
0.571993 0.015005 0.
0.573994 0.0150053 0.
0.575995 0.0150057 0.
0.577996 0.015006 0.
0.579996 0.0150062 0.
0.581996 0.0150064 0.
0.583997 0.0150068 0.
0.585997 0.0150074 0.
0.587998 0.015008 0.
0.589998 0.0150082 0.
0.591999 0.0150081 0.
0.593999 0.0150079 0.
0.596 0.0150077 0.
0.598 0.0150074 0.
0.6 0.0150072 0.
0.602001 0.0150072 0.
0.604002 0.0150072 0.
0.606002 0.0150072 0.
0.608003 0.0150073 0.
0.610003 0.0150073 0.
0.612004 0.0150074 0.
0.614005 0.0150076 0.
0.616005 0.0150078 0.
0.618006 0.0150075 0.
0.620006 0.0150071 0.
0.622007 0.0150067 0.
0.624007 0.0150062 0.
0.626008 0.0150056 0.
0.628008 0.015005 0.
0.630009 0.0150048 0.
0.63201 0.0150046 0.
0.634011 0.0150044 0.
0.636012 0.0150041 0.
0.638013 0.0150039 0.
0.640015 0.0150039 0.
0.642016 0.0150041 0.
0.644018 0.0150043 0.
0.646019 0.0150037 0.
0.64802 0.0150027 0.
0.650021 0.0150018 0.
0.652023 0.0150022 0.
0.654024 0.0150027 0.
0.656025 0.015003 0.
0.658026 0.015003 0.
0.660027 0.015003 0.
0.662028 0.015003 0.
0.664029 0.015003 0.
0.66603 0.0150031 0.
0.668031 0.0150029 0.
0.670033 0.0150025 0.
0.672035 0.0150022 0.
0.674036 0.0150025 0.
0.676037 0.0150028 0.
0.678038 0.0150032 0.
0.680039 0.0150038 0.
0.68204 0.0150044 0.
0.684041 0.0150048 0.
0.686042 0.0150048 0.
0.688043 0.0150049 0.
0.690044 0.0150055 0.
0.692045 0.0150067 0.
0.694046 0.0150079 0.
0.696046 0.015009 0.
0.698047 0.0150101 0.
0.499954 0.0170119 0.
0.501954 0.0170107 0.
0.503955 0.0170096 0.
0.505956 0.0170085 0.
0.507956 0.0170081 0.
0.509957 0.0170077 0.
0.511958 0.0170072 0.
0.513959 0.0170067 0.
0.51596 0.0170062 0.
0.517961 0.0170055 0.
0.519963 0.0170047 0.
0.521964 0.017004 0.
0.523965 0.0170037 0.
0.525966 0.0170034 0.
0.527967 0.0170032 0.
0.529969 0.0170034 0.
0.53197 0.0170035 0.
0.533972 0.0170036 0.
0.535973 0.0170036 0.
0.537974 0.0170035 0.
0.539975 0.0170034 0.
0.541976 0.0170033 0.
0.543977 0.0170031 0.
0.545978 0.0170032 0.
0.54798 0.0170034 0.
0.549981 0.0170036 0.
0.551983 0.017004 0.
0.553984 0.0170044 0.
0.555985 0.0170047 0.
0.557986 0.0170047 0.
0.559988 0.0170048 0.
0.561989 0.0170049 0.
0.563989 0.0170051 0.
0.56599 0.0170053 0.
0.567991 0.0170056 0.
0.569992 0.017006 0.
0.571993 0.0170064 0.
0.573994 0.0170067 0.
0.575994 0.017007 0.
0.577995 0.0170073 0.
0.579996 0.0170078 0.
0.581996 0.0170082 0.
0.583997 0.0170086 0.
0.585997 0.0170088 0.
0.587998 0.017009 0.
0.589998 0.0170091 0.
0.591998 0.0170091 0.
0.593999 0.0170091 0.
0.595999 0.017009 0.
0.598 0.0170088 0.
0.6 0.0170086 0.
0.602001 0.0170085 0.
0.604002 0.0170085 0.
0.606002 0.0170084 0.
0.608003 0.0170084 0.
0.610003 0.0170084 0.
0.612004 0.0170085 0.
0.614004 0.0170086 0.
0.616005 0.0170088 0.
0.618006 0.0170085 0.
0.620006 0.0170079 0.
0.622007 0.0170073 0.
0.624007 0.0170067 0.
0.626008 0.0170061 0.
0.628008 0.0170055 0.
0.630009 0.0170052 0.
0.63201 0.017005 0.
0.634011 0.0170048 0.
0.636012 0.0170047 0.
0.638013 0.0170046 0.
0.640014 0.0170046 0.
0.642015 0.0170047 0.
0.644017 0.0170048 0.
0.646018 0.0170043 0.
0.64802 0.0170037 0.
0.650021 0.017003 0.
0.652022 0.0170033 0.
0.654023 0.0170035 0.
0.656024 0.0170037 0.
0.658025 0.0170036 0.
0.660026 0.0170036 0.
0.662027 0.0170036 0.
0.664028 0.0170036 0.
0.666029 0.0170036 0.
0.66803 0.0170036 0.
0.670032 0.0170035 0.
0.672033 0.0170034 0.
0.674035 0.0170033 0.
0.676036 0.0170032 0.
0.678037 0.0170032 0.
0.680038 0.0170039 0.
0.682039 0.0170046 0.
0.68404 0.0170052 0.
0.686041 0.0170054 0.
0.688042 0.0170056 0.
0.690043 0.0170063 0.
0.692044 0.0170074 0.
0.694044 0.0170086 0.
0.696045 0.0170098 0.
0.698046 0.0170111 0.
0.499954 0.0190134 0.
0.501955 0.0190121 0.
0.503956 0.0190109 0.
0.505957 0.0190097 0.
0.507958 0.0190091 0.
0.509959 0.0190085 0.
0.51196 0.0190079 0.
0.513961 0.0190072 0.
0.515962 0.0190064 0.
0.517963 0.0190058 0.
0.519964 0.0190052 0.
0.521965 0.0190045 0.
0.523966 0.0190041 0.
0.525967 0.0190037 0.
0.527968 0.0190034 0.
0.52997 0.0190038 0.
0.531971 0.0190042 0.
0.533973 0.0190044 0.
0.535974 0.0190041 0.
0.537975 0.0190038 0.
0.539976 0.0190036 0.
0.541977 0.0190035 0.
0.543978 0.0190034 0.
0.545979 0.0190037 0.
0.54798 0.019004 0.
0.549981 0.0190044 0.
0.551983 0.0190046 0.
0.553984 0.0190047 0.
0.555985 0.0190049 0.
0.557987 0.0190052 0.
0.559988 0.0190055 0.
0.561989 0.0190057 0.
0.56399 0.0190059 0.
0.56599 0.0190061 0.
0.567991 0.0190066 0.
0.569992 0.0190072 0.
0.571993 0.0190078 0.
0.573994 0.0190081 0.
0.575994 0.0190084 0.
0.577995 0.0190087 0.
0.579996 0.0190093 0.
0.581996 0.01901 0.
0.583997 0.0190104 0.
0.585997 0.0190102 0.
0.587998 0.01901 0.
0.589998 0.01901 0.
0.591998 0.0190101 0.
0.593998 0.0190103 0.
0.595999 0.0190102 0.
0.598 0.0190101 0.
0.6 0.01901 0.
0.602001 0.0190099 0.
0.604002 0.0190097 0.
0.606002 0.0190096 0.
0.608003 0.0190096 0.
0.610003 0.0190096 0.
0.612004 0.0190096 0.
0.614004 0.0190097 0.
0.616004 0.0190098 0.
0.618005 0.0190094 0.
0.620006 0.0190087 0.
0.622007 0.019008 0.
0.624008 0.0190073 0.
0.626008 0.0190066 0.
0.628008 0.0190059 0.
0.630009 0.0190056 0.
0.63201 0.0190054 0.
0.634011 0.0190052 0.
0.636012 0.0190052 0.
0.638012 0.0190052 0.
0.640013 0.0190052 0.
0.642015 0.0190052 0.
0.644016 0.0190052 0.
0.646017 0.019005 0.
0.648019 0.0190046 0.
0.65002 0.0190043 0.
0.652021 0.0190043 0.
0.654022 0.0190044 0.
0.656023 0.0190044 0.
0.658024 0.0190043 0.
0.660025 0.0190042 0.
0.662026 0.0190042 0.
0.664027 0.0190042 0.
0.666028 0.0190041 0.
0.668029 0.0190043 0.
0.670031 0.0190044 0.
0.672032 0.0190046 0.
0.674033 0.0190042 0.
0.676034 0.0190036 0.
0.678035 0.0190032 0.
0.680037 0.0190041 0.
0.682038 0.0190049 0.
0.684039 0.0190055 0.
0.68604 0.0190059 0.
0.688041 0.0190063 0.
0.690042 0.0190071 0.
0.692043 0.0190082 0.
0.694043 0.0190093 0.
0.696044 0.0190106 0.
0.698045 0.019012 0.
0.499955 0.0210141 0.
0.501956 0.0210128 0.
0.503957 0.0210115 0.
0.505958 0.0210103 0.
0.507959 0.0210096 0.
0.50996 0.0210089 0.
0.511961 0.0210082 0.
0.513962 0.0210074 0.
0.515963 0.0210066 0.
0.517964 0.021006 0.
0.519965 0.0210054 0.
0.521966 0.0210049 0.
0.523967 0.0210045 0.
0.525968 0.0210041 0.
0.52797 0.0210037 0.
0.529971 0.0210041 0.
0.531972 0.0210044 0.
0.533974 0.0210046 0.
0.535975 0.0210043 0.
0.537976 0.0210039 0.
0.539977 0.0210037 0.
0.541978 0.0210037 0.
0.543979 0.0210036 0.
0.54598 0.0210039 0.
0.547981 0.0210043 0.
0.549982 0.0210047 0.
0.551983 0.0210048 0.
0.553984 0.021005 0.
0.555986 0.0210052 0.
0.557987 0.0210055 0.
0.559988 0.0210059 0.
0.561989 0.0210062 0.
0.56399 0.0210064 0.
0.56599 0.0210066 0.
0.567991 0.0210071 0.
0.569992 0.0210077 0.
0.571993 0.0210083 0.
0.573994 0.0210087 0.
0.575994 0.021009 0.
0.577995 0.0210094 0.
0.579995 0.0210102 0.
0.581996 0.021011 0.
0.583997 0.0210115 0.
0.585997 0.0210112 0.
0.587998 0.0210109 0.
0.589998 0.0210109 0.
0.591998 0.0210111 0.
0.593998 0.0210113 0.
0.595999 0.0210112 0.
0.598 0.021011 0.
0.6 0.0210109 0.
0.602001 0.0210106 0.
0.604002 0.0210104 0.
0.606003 0.0210102 0.
0.608003 0.0210104 0.
0.610003 0.0210105 0.
0.612004 0.0210106 0.
0.614004 0.0210106 0.
0.616004 0.0210107 0.
0.618005 0.0210101 0.
0.620006 0.0210093 0.
0.622007 0.0210085 0.
0.624007 0.0210077 0.
0.626008 0.0210069 0.
0.628008 0.0210061 0.
0.630009 0.0210059 0.
0.63201 0.0210058 0.
0.634011 0.0210057 0.
0.636011 0.0210057 0.
0.638012 0.0210057 0.
0.640013 0.0210057 0.
0.642014 0.0210058 0.
0.644016 0.0210058 0.
0.646017 0.0210055 0.
0.648018 0.0210052 0.
0.65002 0.0210048 0.
0.652021 0.0210048 0.
0.654022 0.0210047 0.
0.656023 0.0210047 0.
0.658023 0.0210045 0.
0.660024 0.0210044 0.
0.662025 0.0210043 0.
0.664026 0.0210043 0.
0.666027 0.0210042 0.
0.668028 0.0210044 0.
0.670029 0.0210046 0.
0.672031 0.0210049 0.
0.674032 0.0210044 0.
0.676033 0.0210038 0.
0.678034 0.0210033 0.
0.680036 0.0210042 0.
0.682037 0.021005 0.
0.684038 0.0210058 0.
0.686039 0.0210063 0.
0.68804 0.0210068 0.
0.69004 0.0210076 0.
0.692041 0.0210087 0.
0.694042 0.0210098 0.
0.696043 0.0210112 0.
0.698044 0.0210127 0.
0.499957 0.0230142 0.
0.501958 0.0230129 0.
0.503959 0.0230115 0.
0.50596 0.0230103 0.
0.507961 0.0230095 0.
0.509961 0.0230088 0.
0.511962 0.0230081 0.
0.513963 0.0230073 0.
0.515964 0.0230065 0.
0.517966 0.023006 0.
0.519967 0.0230056 0.
0.521968 0.0230052 0.
0.523969 0.0230048 0.
0.52597 0.0230045 0.
0.527971 0.0230041 0.
0.529973 0.0230041 0.
0.531974 0.0230041 0.
0.533975 0.0230041 0.
0.535976 0.0230039 0.
0.537977 0.0230038 0.
0.539978 0.0230037 0.
0.541979 0.0230037 0.
0.54398 0.0230037 0.
0.545981 0.0230039 0.
0.547982 0.0230042 0.
0.549983 0.0230045 0.
0.551984 0.0230048 0.
0.553985 0.0230051 0.
0.555986 0.0230054 0.
0.557987 0.0230057 0.
0.559988 0.023006 0.
0.561989 0.0230063 0.
0.56399 0.0230065 0.
0.565991 0.0230067 0.
0.567992 0.023007 0.
0.569993 0.0230074 0.
0.571993 0.0230078 0.
0.573994 0.0230083 0.
0.575994 0.0230089 0.
0.577995 0.0230095 0.
0.579996 0.0230103 0.
0.581996 0.0230112 0.
0.583997 0.0230117 0.
0.585997 0.0230117 0.
0.587997 0.0230117 0.
0.589998 0.0230118 0.
0.591998 0.023012 0.
0.593998 0.0230121 0.
0.595999 0.0230119 0.
0.598 0.0230115 0.
0.6 0.0230112 0.
0.602001 0.0230108 0.
0.604002 0.0230105 0.
0.606003 0.0230103 0.
0.608004 0.0230107 0.
0.610004 0.0230111 0.
0.612004 0.0230114 0.
0.614004 0.0230114 0.
0.616004 0.0230114 0.
0.618005 0.0230107 0.
0.620006 0.0230098 0.
0.622006 0.0230088 0.
0.624007 0.0230079 0.
0.626007 0.0230069 0.
0.628008 0.0230061 0.
0.630008 0.0230061 0.
0.632009 0.0230062 0.
0.63401 0.0230062 0.
0.636011 0.0230061 0.
0.638012 0.023006 0.
0.640013 0.0230061 0.
0.642014 0.0230063 0.
0.644015 0.0230065 0.
0.646017 0.023006 0.
0.648018 0.0230054 0.
0.650019 0.0230047 0.
0.65202 0.0230047 0.
0.654021 0.0230046 0.
0.656022 0.0230046 0.
0.658023 0.0230044 0.
0.660023 0.0230042 0.
0.662024 0.0230041 0.
0.664025 0.023004 0.
0.666026 0.0230038 0.
0.668027 0.0230039 0.
0.670028 0.0230041 0.
0.672029 0.0230042 0.
0.674031 0.023004 0.
0.676032 0.0230037 0.
0.678034 0.0230035 0.
0.680035 0.0230044 0.
0.682036 0.0230052 0.
0.684037 0.0230059 0.
0.686037 0.0230065 0.
0.688038 0.0230071 0.
0.690039 0.0230079 0.
0.692039 0.0230089 0.
0.69404 0.0230099 0.
0.696041 0.0230114 0.
0.698042 0.0230132 0.
0.499959 0.0250143 0.
0.501959 0.0250129 0.
0.50396 0.0250115 0.
0.505961 0.0250102 0.
0.507962 0.0250095 0.
0.509963 0.0250087 0.
0.511964 0.025008 0.
0.513965 0.0250072 0.
0.515966 0.0250064 0.
0.517967 0.025006 0.
0.519968 0.0250057 0.
0.521969 0.0250055 0.
0.523971 0.0250052 0.
0.525972 0.0250049 0.
0.527973 0.0250045 0.
0.529974 0.0250042 0.
0.531975 0.0250038 0.
0.533976 0.0250036 0.
0.535977 0.0250036 0.
0.537978 0.0250037 0.
0.539979 0.0250037 0.
0.54198 0.0250037 0.
0.543981 0.0250038 0.
0.545982 0.025004 0.
0.547983 0.0250042 0.
0.549984 0.0250044 0.
0.551985 0.0250048 0.
0.553986 0.0250052 0.
0.555986 0.0250056 0.
0.557987 0.0250059 0.
0.559988 0.0250062 0.
0.561989 0.0250064 0.
0.56399 0.0250066 0.
0.565991 0.0250068 0.
0.567992 0.025007 0.
0.569993 0.0250071 0.
0.571994 0.0250073 0.
0.573994 0.025008 0.
0.575995 0.0250088 0.
0.577995 0.0250096 0.
0.579996 0.0250105 0.
0.581996 0.0250114 0.
0.583997 0.025012 0.
0.585997 0.0250123 0.
0.587997 0.0250126 0.
0.589998 0.0250127 0.
0.591998 0.0250128 0.
0.593998 0.025013 0.
0.595999 0.0250126 0.
0.598 0.025012 0.
0.6 0.0250115 0.
0.602002 0.025011 0.
0.604003 0.0250106 0.
0.606003 0.0250104 0.
0.608004 0.0250111 0.
0.610005 0.0250118 0.
0.612005 0.0250122 0.
0.614005 0.0250121 0.
0.616005 0.025012 0.
0.618005 0.0250113 0.
0.620005 0.0250102 0.
0.622006 0.0250092 0.
0.624006 0.0250081 0.
0.626007 0.025007 0.
0.628007 0.025006 0.
0.630008 0.0250063 0.
0.632009 0.0250067 0.
0.63401 0.0250068 0.
0.636011 0.0250066 0.
0.638012 0.0250063 0.
0.640013 0.0250064 0.
0.642014 0.0250068 0.
0.644015 0.0250072 0.
0.646016 0.0250065 0.
0.648017 0.0250056 0.
0.650018 0.0250046 0.
0.652019 0.0250046 0.
0.65402 0.0250045 0.
0.656021 0.0250045 0.
0.658022 0.0250043 0.
0.660023 0.025004 0.
0.662023 0.0250038 0.
0.664024 0.0250036 0.
0.666025 0.0250034 0.
0.668026 0.0250034 0.
0.670027 0.0250035 0.
0.672028 0.0250036 0.
0.67403 0.0250036 0.
0.676031 0.0250036 0.
0.678033 0.0250037 0.
0.680034 0.0250045 0.
0.682034 0.0250053 0.
0.684035 0.0250061 0.
0.686036 0.0250068 0.
0.688036 0.0250075 0.
0.690037 0.0250083 0.
0.692038 0.0250091 0.
0.694038 0.02501 0.
0.696039 0.0250117 0.
0.698039 0.0250137 0.
0.49996 0.027015 0.
0.501961 0.0270137 0.
0.503962 0.0270124 0.
0.505963 0.0270111 0.
0.507963 0.02701 0.
0.509964 0.0270089 0.
0.511965 0.0270079 0.
0.513966 0.0270072 0.
0.515967 0.0270064 0.
0.517968 0.0270059 0.
0.519969 0.0270056 0.
0.521971 0.0270053 0.
0.523972 0.0270051 0.
0.525973 0.0270048 0.
0.527974 0.0270046 0.
0.529975 0.0270043 0.
0.531976 0.027004 0.
0.533977 0.0270039 0.
0.535978 0.027004 0.
0.537979 0.0270041 0.
0.53998 0.0270041 0.
0.541981 0.0270042 0.
0.543982 0.0270042 0.
0.545983 0.0270044 0.
0.547983 0.0270047 0.
0.549984 0.0270049 0.
0.551985 0.0270052 0.
0.553986 0.0270055 0.
0.555987 0.0270058 0.
0.557988 0.0270059 0.
0.559989 0.027006 0.
0.561989 0.0270062 0.
0.56399 0.0270066 0.
0.565991 0.027007 0.
0.567992 0.0270073 0.
0.569993 0.0270075 0.
0.571994 0.0270078 0.
0.573995 0.0270085 0.
0.575995 0.0270093 0.
0.577995 0.02701 0.
0.579995 0.0270107 0.
0.581996 0.0270115 0.
0.583996 0.0270121 0.
0.585997 0.0270124 0.
0.587997 0.0270128 0.
0.589998 0.027013 0.
0.591998 0.0270131 0.
0.593998 0.0270132 0.
0.595999 0.0270129 0.
0.598 0.0270124 0.
0.6 0.0270119 0.
0.602001 0.0270117 0.
0.604002 0.0270114 0.
0.606003 0.0270113 0.
0.608003 0.0270116 0.
0.610004 0.0270119 0.
0.612004 0.0270121 0.
0.614004 0.0270121 0.
0.616004 0.0270121 0.
0.618005 0.0270114 0.
0.620005 0.0270105 0.
0.622006 0.0270095 0.
0.624006 0.0270084 0.
0.626006 0.0270073 0.
0.628007 0.0270064 0.
0.630008 0.0270064 0.
0.632009 0.0270065 0.
0.634009 0.0270064 0.
0.63601 0.0270062 0.
0.638011 0.027006 0.
0.640012 0.0270061 0.
0.642013 0.0270062 0.
0.644014 0.0270064 0.
0.646015 0.0270059 0.
0.648017 0.0270053 0.
0.650018 0.0270046 0.
0.652018 0.0270046 0.
0.654019 0.0270046 0.
0.65602 0.0270045 0.
0.65802 0.0270042 0.
0.660021 0.0270039 0.
0.662022 0.0270038 0.
0.664023 0.0270038 0.
0.666024 0.0270039 0.
0.668025 0.0270039 0.
0.670026 0.027004 0.
0.672027 0.0270041 0.
0.674028 0.0270042 0.
0.67603 0.0270043 0.
0.678031 0.0270044 0.
0.680032 0.0270049 0.
0.682033 0.0270055 0.
0.684033 0.0270062 0.
0.686034 0.0270071 0.
0.688035 0.027008 0.
0.690035 0.0270089 0.
0.692036 0.0270098 0.
0.694037 0.0270107 0.
0.696038 0.0270125 0.
0.698039 0.0270147 0.
0.499961 0.0290157 0.
0.501962 0.0290145 0.
0.503963 0.0290133 0.
0.505964 0.0290119 0.
0.507965 0.0290105 0.
0.509966 0.029009 0.
0.511967 0.0290079 0.
0.513968 0.0290071 0.
0.515969 0.0290064 0.
0.51797 0.0290059 0.
0.519971 0.0290055 0.
0.521972 0.0290052 0.
0.523973 0.029005 0.
0.525974 0.0290048 0.
0.527975 0.0290046 0.
0.529977 0.0290044 0.
0.531978 0.0290043 0.
0.533979 0.0290042 0.
0.53598 0.0290043 0.
0.537981 0.0290045 0.
0.539981 0.0290045 0.
0.541982 0.0290046 0.
0.543982 0.0290046 0.
0.545983 0.0290049 0.
0.547983 0.0290052 0.
0.549984 0.0290055 0.
0.551985 0.0290057 0.
0.553986 0.0290059 0.
0.555987 0.029006 0.
0.557988 0.0290059 0.
0.559989 0.0290059 0.
0.56199 0.029006 0.
0.563991 0.0290066 0.
0.565992 0.0290071 0.
0.567993 0.0290075 0.
0.569994 0.0290079 0.
0.571995 0.0290083 0.
0.573995 0.029009 0.
0.575995 0.0290097 0.
0.577995 0.0290104 0.
0.579995 0.029011 0.
0.581996 0.0290116 0.
0.583996 0.0290121 0.
0.585997 0.0290125 0.
0.587997 0.0290129 0.
0.589998 0.0290132 0.
0.591998 0.0290133 0.
0.593998 0.0290135 0.
0.595999 0.0290132 0.
0.598 0.0290128 0.
0.6 0.0290124 0.
0.602001 0.0290123 0.
0.604002 0.0290122 0.
0.606003 0.0290121 0.
0.608003 0.029012 0.
0.610003 0.0290119 0.
0.612003 0.0290119 0.
0.614004 0.029012 0.
0.616004 0.0290121 0.
0.618004 0.0290116 0.
0.620005 0.0290107 0.
0.622006 0.0290098 0.
0.624006 0.0290088 0.
0.626006 0.0290077 0.
0.628006 0.0290068 0.
0.630007 0.0290065 0.
0.632008 0.0290063 0.
0.634009 0.0290061 0.
0.63601 0.0290059 0.
0.63801 0.0290057 0.
0.640011 0.0290057 0.
0.642012 0.0290057 0.
0.644014 0.0290057 0.
0.646015 0.0290054 0.
0.648016 0.029005 0.
0.650017 0.0290046 0.
0.652018 0.0290046 0.
0.654018 0.0290046 0.
0.656019 0.0290045 0.
0.658019 0.0290042 0.
0.66002 0.0290038 0.
0.662021 0.0290037 0.
0.664022 0.029004 0.
0.666023 0.0290043 0.
0.668024 0.0290044 0.
0.670025 0.0290045 0.
0.672026 0.0290046 0.
0.674027 0.0290047 0.
0.676028 0.0290049 0.
0.678029 0.0290051 0.
0.68003 0.0290054 0.
0.682031 0.0290056 0.
0.684032 0.0290062 0.
0.686032 0.0290074 0.
0.688033 0.0290086 0.
0.690034 0.0290096 0.
0.692035 0.0290105 0.
0.694035 0.0290114 0.
0.696037 0.0290134 0.
0.698038 0.0290156 0.
0.499962 0.0310161 0.
0.501964 0.0310149 0.
0.503965 0.0310135 0.
0.505966 0.0310121 0.
0.507967 0.0310106 0.
0.509968 0.031009 0.
0.511969 0.0310078 0.
0.51397 0.0310071 0.
0.51597 0.0310064 0.
0.517971 0.0310059 0.
0.519972 0.0310055 0.
0.521974 0.0310051 0.
0.523975 0.0310049 0.
0.525976 0.0310048 0.
0.527977 0.0310047 0.
0.529978 0.0310045 0.
0.531979 0.0310044 0.
0.53398 0.0310043 0.
0.535981 0.0310044 0.
0.537982 0.0310045 0.
0.539983 0.0310046 0.
0.541983 0.0310047 0.
0.543983 0.0310048 0.
0.545984 0.0310051 0.
0.547985 0.0310055 0.
0.549985 0.0310058 0.
0.551986 0.031006 0.
0.553987 0.0310063 0.
0.555988 0.0310064 0.
0.557989 0.0310062 0.
0.55999 0.0310059 0.
0.561991 0.0310061 0.
0.563991 0.0310066 0.
0.565992 0.0310071 0.
0.567993 0.0310076 0.
0.569994 0.031008 0.
0.571995 0.0310085 0.
0.573995 0.0310092 0.
0.575995 0.03101 0.
0.577995 0.0310108 0.
0.579995 0.0310114 0.
0.581996 0.031012 0.
0.583996 0.0310125 0.
0.585997 0.0310129 0.
0.587997 0.0310132 0.
0.589998 0.0310135 0.
0.591998 0.0310136 0.
0.593998 0.0310137 0.
0.595999 0.0310135 0.
0.598 0.0310133 0.
0.6 0.031013 0.
0.602001 0.0310129 0.
0.604002 0.0310127 0.
0.606002 0.0310126 0.
0.608002 0.0310123 0.
0.610003 0.0310121 0.
0.612003 0.0310119 0.
0.614003 0.031012 0.
0.616004 0.031012 0.
0.618004 0.0310115 0.
0.620005 0.0310107 0.
0.622006 0.03101 0.
0.624006 0.031009 0.
0.626006 0.031008 0.
0.628006 0.0310071 0.
0.630007 0.0310067 0.
0.632008 0.0310063 0.
0.634009 0.031006 0.
0.636009 0.0310058 0.
0.638009 0.0310057 0.
0.64001 0.0310056 0.
0.642011 0.0310055 0.
0.644013 0.0310054 0.
0.646014 0.0310052 0.
0.648015 0.0310048 0.
0.650016 0.0310045 0.
0.652017 0.0310045 0.
0.654017 0.0310045 0.
0.656018 0.0310044 0.
0.658018 0.031004 0.
0.660019 0.0310036 0.
0.66202 0.0310036 0.
0.664021 0.031004 0.
0.666021 0.0310045 0.
0.668022 0.0310046 0.
0.670023 0.0310045 0.
0.672024 0.0310045 0.
0.674025 0.0310047 0.
0.676026 0.031005 0.
0.678027 0.0310053 0.
0.680028 0.0310055 0.
0.682029 0.0310058 0.
0.68403 0.0310064 0.
0.686031 0.0310076 0.
0.688031 0.0310088 0.
0.690032 0.0310099 0.
0.692033 0.0310109 0.
0.694034 0.0310119 0.
0.696035 0.0310138 0.
0.698037 0.0310159 0.
0.499963 0.0330161 0.
0.501965 0.0330147 0.
0.503966 0.0330132 0.
0.505968 0.0330117 0.
0.507969 0.0330103 0.
0.50997 0.0330089 0.
0.511971 0.0330078 0.
0.513972 0.0330071 0.
0.515972 0.0330064 0.
0.517974 0.0330058 0.
0.519975 0.0330054 0.
0.521976 0.033005 0.
0.523977 0.0330049 0.
0.525978 0.0330049 0.
0.527979 0.0330048 0.
0.52998 0.0330046 0.
0.531981 0.0330043 0.
0.533982 0.0330041 0.
0.535983 0.0330041 0.
0.537983 0.0330041 0.
0.539984 0.0330043 0.
0.541984 0.0330046 0.
0.543985 0.0330049 0.
0.545986 0.0330052 0.
0.547986 0.0330055 0.
0.549987 0.0330058 0.
0.551988 0.0330063 0.
0.553989 0.0330067 0.
0.555989 0.0330069 0.
0.55799 0.0330066 0.
0.55999 0.0330063 0.
0.561991 0.0330063 0.
0.563992 0.0330067 0.
0.565992 0.0330071 0.
0.567993 0.0330075 0.
0.569994 0.0330079 0.
0.571994 0.0330083 0.
0.573995 0.0330092 0.
0.575995 0.0330102 0.
0.577995 0.0330111 0.
0.579995 0.0330118 0.
0.581996 0.0330126 0.
0.583996 0.0330132 0.
0.585997 0.0330134 0.
0.587997 0.0330136 0.
0.589998 0.0330138 0.
0.591998 0.0330139 0.
0.593998 0.0330139 0.
0.595999 0.0330139 0.
0.598 0.0330139 0.
0.600001 0.0330139 0.
0.602001 0.0330134 0.
0.604002 0.033013 0.
0.606002 0.0330127 0.
0.608002 0.0330125 0.
0.610003 0.0330123 0.
0.612003 0.0330121 0.
0.614003 0.0330119 0.
0.616003 0.0330117 0.
0.618004 0.0330112 0.
0.620005 0.0330106 0.
0.622005 0.03301 0.
0.624006 0.0330092 0.
0.626006 0.0330082 0.
0.628006 0.0330074 0.
0.630007 0.033007 0.
0.632007 0.0330066 0.
0.634008 0.0330063 0.
0.636009 0.0330061 0.
0.638009 0.0330058 0.
0.64001 0.0330057 0.
0.642011 0.0330058 0.
0.644012 0.0330058 0.
0.646013 0.0330054 0.
0.648014 0.0330048 0.
0.650016 0.0330043 0.
0.652016 0.0330042 0.
0.654016 0.0330042 0.
0.656017 0.0330041 0.
0.658017 0.0330037 0.
0.660018 0.0330034 0.
0.662018 0.0330034 0.
0.664019 0.0330039 0.
0.66602 0.0330045 0.
0.66802 0.0330044 0.
0.670021 0.0330042 0.
0.672022 0.0330039 0.
0.674023 0.0330042 0.
0.676024 0.0330045 0.
0.678026 0.0330049 0.
0.680027 0.0330054 0.
0.682028 0.033006 0.
0.684029 0.0330067 0.
0.686029 0.0330077 0.
0.68803 0.0330087 0.
0.69003 0.0330098 0.
0.692032 0.033011 0.
0.694033 0.0330123 0.
0.696034 0.0330139 0.
0.698035 0.0330157 0.
0.499964 0.0350162 0.
0.501966 0.0350145 0.
0.503968 0.0350129 0.
0.50597 0.0350113 0.
0.507971 0.03501 0.
0.509972 0.0350088 0.
0.511973 0.0350077 0.
0.513974 0.035007 0.
0.515975 0.0350063 0.
0.517976 0.0350058 0.
0.519977 0.0350054 0.
0.521978 0.0350049 0.
0.52398 0.0350049 0.
0.525981 0.035005 0.
0.527982 0.035005 0.
0.529983 0.0350046 0.
0.531984 0.0350042 0.
0.533984 0.0350039 0.
0.535985 0.0350039 0.
0.537985 0.0350038 0.
0.539985 0.035004 0.
0.541986 0.0350045 0.
0.543987 0.0350049 0.
0.545987 0.0350053 0.
0.547988 0.0350056 0.
0.549989 0.0350059 0.
0.551989 0.0350065 0.
0.55399 0.0350071 0.
0.55599 0.0350074 0.
0.557991 0.035007 0.
0.559991 0.0350066 0.
0.561991 0.0350065 0.
0.563992 0.0350068 0.
0.565993 0.035007 0.
0.567993 0.0350074 0.
0.569993 0.0350077 0.
0.571994 0.0350081 0.
0.573994 0.0350092 0.
0.575994 0.0350103 0.
0.577995 0.0350114 0.
0.579995 0.0350123 0.
0.581996 0.0350132 0.
0.583996 0.0350138 0.
0.585997 0.0350139 0.
0.587997 0.035014 0.
0.589997 0.0350141 0.
0.591998 0.0350141 0.
0.593999 0.0350141 0.
0.595999 0.0350143 0.
0.598 0.0350145 0.
0.600001 0.0350147 0.
0.602001 0.035014 0.
0.604001 0.0350133 0.
0.606002 0.0350127 0.
0.608002 0.0350126 0.
0.610002 0.0350125 0.
0.612003 0.0350123 0.
0.614003 0.0350118 0.
0.616003 0.0350114 0.
0.618003 0.0350109 0.
0.620004 0.0350105 0.
0.622005 0.0350101 0.
0.624005 0.0350093 0.
0.626006 0.0350084 0.
0.628006 0.0350077 0.
0.630006 0.0350073 0.
0.632007 0.035007 0.
0.634007 0.0350066 0.
0.636008 0.0350063 0.
0.638009 0.035006 0.
0.640009 0.0350059 0.
0.64201 0.035006 0.
0.644011 0.0350061 0.
0.646012 0.0350056 0.
0.648013 0.0350048 0.
0.650015 0.0350041 0.
0.652015 0.035004 0.
0.654015 0.0350039 0.
0.656016 0.0350038 0.
0.658016 0.0350035 0.
0.660017 0.0350031 0.
0.662017 0.0350032 0.
0.664017 0.0350038 0.
0.666018 0.0350044 0.
0.668018 0.0350043 0.
0.670019 0.0350038 0.
0.67202 0.0350033 0.
0.674021 0.0350036 0.
0.676023 0.035004 0.
0.678024 0.0350045 0.
0.680025 0.0350053 0.
0.682026 0.0350062 0.
0.684027 0.035007 0.
0.686027 0.0350077 0.
0.688028 0.0350085 0.
0.690029 0.0350097 0.
0.69203 0.0350111 0.
0.694031 0.0350126 0.
0.696033 0.035014 0.
0.698033 0.0350155 0.
0.499967 0.0370158 0.
0.501968 0.0370143 0.
0.50397 0.0370128 0.
0.505971 0.0370114 0.
0.507972 0.0370101 0.
0.509973 0.0370088 0.
0.511974 0.0370077 0.
0.513975 0.037007 0.
0.515976 0.0370062 0.
0.517977 0.0370057 0.
0.519978 0.0370053 0.
0.52198 0.0370049 0.
0.52398 0.0370048 0.
0.525981 0.0370046 0.
0.527982 0.0370045 0.
0.529983 0.0370042 0.
0.531984 0.0370039 0.
0.533985 0.0370037 0.
0.535985 0.0370038 0.
0.537985 0.0370039 0.
0.539986 0.0370042 0.
0.541986 0.0370047 0.
0.543987 0.0370051 0.
0.545988 0.0370054 0.
0.547989 0.0370057 0.
0.549989 0.0370059 0.
0.55199 0.0370063 0.
0.55399 0.0370066 0.
0.555991 0.0370068 0.
0.557991 0.0370064 0.
0.559991 0.0370061 0.
0.561992 0.0370061 0.
0.563993 0.0370066 0.
0.565993 0.0370071 0.
0.567994 0.0370076 0.
0.569994 0.037008 0.
0.571995 0.0370085 0.
0.573995 0.0370095 0.
0.575995 0.0370106 0.
0.577996 0.0370117 0.
0.579996 0.0370123 0.
0.581997 0.037013 0.
0.583997 0.0370135 0.
0.585997 0.0370137 0.
0.587997 0.0370139 0.
0.589998 0.037014 0.
0.591998 0.0370141 0.
0.593998 0.0370141 0.
0.595999 0.0370143 0.
0.598 0.0370146 0.
0.6 0.0370149 0.
0.602001 0.0370143 0.
0.604001 0.0370138 0.
0.606002 0.0370133 0.
0.608002 0.037013 0.
0.610002 0.0370128 0.
0.612002 0.0370125 0.
0.614003 0.0370121 0.
0.616003 0.0370117 0.
0.618003 0.0370113 0.
0.620004 0.0370109 0.
0.622004 0.0370104 0.
0.624005 0.0370096 0.
0.626005 0.0370087 0.
0.628005 0.0370078 0.
0.630006 0.0370074 0.
0.632006 0.0370069 0.
0.634007 0.0370065 0.
0.636008 0.0370062 0.
0.638009 0.0370059 0.
0.640009 0.0370058 0.
0.64201 0.037006 0.
0.644011 0.0370061 0.
0.646012 0.0370055 0.
0.648013 0.0370048 0.
0.650014 0.037004 0.
0.652015 0.0370039 0.
0.654015 0.0370038 0.
0.656015 0.0370037 0.
0.658016 0.0370035 0.
0.660016 0.0370033 0.
0.662017 0.0370033 0.
0.664017 0.0370036 0.
0.666018 0.0370039 0.
0.668018 0.0370039 0.
0.670019 0.0370037 0.
0.672019 0.0370036 0.
0.674021 0.037004 0.
0.676022 0.0370044 0.
0.678023 0.0370049 0.
0.680024 0.0370057 0.
0.682024 0.0370064 0.
0.684025 0.0370072 0.
0.686026 0.0370081 0.
0.688027 0.0370089 0.
0.690028 0.03701 0.
0.692029 0.0370114 0.
0.69403 0.0370128 0.
0.696031 0.0370144 0.
0.698032 0.0370161 0.
0.499969 0.0390154 0.
0.50197 0.0390141 0.
0.503972 0.0390128 0.
0.505973 0.0390114 0.
0.507974 0.0390101 0.
0.509975 0.0390088 0.
0.511976 0.0390077 0.
0.513977 0.0390069 0.
0.515978 0.0390061 0.
0.517979 0.0390056 0.
0.51998 0.0390052 0.
0.521981 0.0390049 0.
0.523981 0.0390046 0.
0.525982 0.0390043 0.
0.527983 0.039004 0.
0.529983 0.0390037 0.
0.531984 0.0390035 0.
0.533985 0.0390034 0.
0.535985 0.0390037 0.
0.537986 0.039004 0.
0.539986 0.0390044 0.
0.541987 0.0390049 0.
0.543988 0.0390054 0.
0.545988 0.0390056 0.
0.547989 0.0390058 0.
0.54999 0.039006 0.
0.55199 0.0390061 0.
0.55399 0.0390061 0.
0.555991 0.0390061 0.
0.557991 0.0390058 0.
0.559992 0.0390055 0.
0.561993 0.0390056 0.
0.563993 0.0390064 0.
0.565994 0.0390072 0.
0.567995 0.0390078 0.
0.569995 0.0390084 0.
0.571996 0.0390089 0.
0.573996 0.0390099 0.
0.575996 0.039011 0.
0.577996 0.039012 0.
0.579997 0.0390124 0.
0.581997 0.0390128 0.
0.583997 0.0390132 0.
0.585998 0.0390135 0.
0.587998 0.0390138 0.
0.589998 0.039014 0.
0.591998 0.039014 0.
0.593998 0.039014 0.
0.595999 0.0390143 0.
0.598 0.0390147 0.
0.6 0.0390151 0.
0.602001 0.0390146 0.
0.604001 0.0390142 0.
0.606001 0.0390138 0.
0.608002 0.0390135 0.
0.610002 0.0390131 0.
0.612002 0.0390128 0.
0.614002 0.0390124 0.
0.616003 0.0390121 0.
0.618003 0.0390116 0.
0.620003 0.0390112 0.
0.622004 0.0390108 0.
0.624004 0.0390099 0.
0.626004 0.0390089 0.
0.628005 0.039008 0.
0.630005 0.0390074 0.
0.632006 0.0390069 0.
0.634006 0.0390064 0.
0.636008 0.0390061 0.
0.638009 0.0390058 0.
0.640009 0.0390058 0.
0.64201 0.0390059 0.
0.644011 0.039006 0.
0.646012 0.0390055 0.
0.648013 0.0390047 0.
0.650014 0.039004 0.
0.652014 0.0390039 0.
0.654015 0.0390037 0.
0.656015 0.0390036 0.
0.658015 0.0390035 0.
0.660016 0.0390034 0.
0.662016 0.0390034 0.
0.664017 0.0390034 0.
0.666017 0.0390034 0.
0.668018 0.0390035 0.
0.670019 0.0390036 0.
0.672019 0.0390038 0.
0.67402 0.0390043 0.
0.676021 0.0390048 0.
0.678022 0.0390053 0.
0.680022 0.039006 0.
0.682023 0.0390067 0.
0.684023 0.0390075 0.
0.686024 0.0390084 0.
0.688025 0.0390093 0.
0.690026 0.0390104 0.
0.692028 0.0390117 0.
0.694029 0.039013 0.
0.696029 0.0390148 0.
0.69803 0.0390168 0.
0.499972 0.0410152 0.
0.501973 0.0410138 0.
0.503974 0.0410125 0.
0.505975 0.0410112 0.
0.507976 0.0410099 0.
0.509977 0.0410085 0.
0.511978 0.0410074 0.
0.513979 0.0410066 0.
0.515979 0.0410057 0.
0.51798 0.0410053 0.
0.519981 0.0410051 0.
0.521982 0.0410048 0.
0.523983 0.0410044 0.
0.525983 0.041004 0.
0.527984 0.0410037 0.
0.529984 0.0410034 0.
0.531985 0.0410032 0.
0.533985 0.0410032 0.
0.535986 0.0410034 0.
0.537987 0.0410037 0.
0.539987 0.0410041 0.
0.541988 0.0410046 0.
0.543988 0.0410052 0.
0.545989 0.0410054 0.
0.54799 0.0410056 0.
0.54999 0.0410057 0.
0.551991 0.0410058 0.
0.553991 0.0410059 0.
0.555992 0.0410059 0.
0.557992 0.0410057 0.
0.559993 0.0410054 0.
0.561993 0.0410057 0.
0.563994 0.0410066 0.
0.565995 0.0410076 0.
0.567995 0.0410082 0.
0.569996 0.0410087 0.
0.571996 0.0410092 0.
0.573996 0.0410102 0.
0.575997 0.0410112 0.
0.577997 0.0410122 0.
0.579997 0.0410126 0.
0.581998 0.041013 0.
0.583998 0.0410133 0.
0.585998 0.0410137 0.
0.587998 0.0410141 0.
0.589998 0.0410143 0.
0.591998 0.0410143 0.
0.593998 0.0410143 0.
0.595999 0.0410145 0.
0.598 0.0410149 0.
0.6 0.0410152 0.
0.602001 0.0410148 0.
0.604001 0.0410144 0.
0.606001 0.041014 0.
0.608002 0.0410136 0.
0.610002 0.0410133 0.
0.612002 0.0410129 0.
0.614002 0.0410126 0.
0.616002 0.0410122 0.
0.618003 0.0410118 0.
0.620003 0.0410113 0.
0.622003 0.0410109 0.
0.624004 0.04101 0.
0.626004 0.041009 0.
0.628004 0.0410081 0.
0.630005 0.0410075 0.
0.632005 0.0410069 0.
0.634006 0.0410064 0.
0.636007 0.0410061 0.
0.638008 0.0410057 0.
0.640009 0.0410056 0.
0.642009 0.0410056 0.
0.64401 0.0410056 0.
0.646011 0.0410051 0.
0.648012 0.0410044 0.
0.650013 0.0410037 0.
0.652013 0.0410036 0.
0.654014 0.0410036 0.
0.656014 0.0410036 0.
0.658015 0.0410034 0.
0.660015 0.0410033 0.
0.662015 0.0410032 0.
0.664016 0.0410032 0.
0.666017 0.0410031 0.
0.668017 0.0410032 0.
0.670018 0.0410035 0.
0.672018 0.0410037 0.
0.674019 0.0410043 0.
0.67602 0.0410048 0.
0.678021 0.0410054 0.
0.680021 0.0410061 0.
0.682021 0.0410068 0.
0.684022 0.0410075 0.
0.686023 0.0410085 0.
0.688024 0.0410095 0.
0.690025 0.0410106 0.
0.692026 0.0410119 0.
0.694027 0.0410132 0.
0.696028 0.0410148 0.
0.698028 0.0410165 0.
0.499974 0.0430152 0.
0.501975 0.0430136 0.
0.503976 0.0430121 0.
0.505976 0.0430107 0.
0.507977 0.0430092 0.
0.509978 0.0430078 0.
0.511979 0.0430067 0.
0.51398 0.0430059 0.
0.515981 0.0430052 0.
0.517982 0.0430049 0.
0.519982 0.0430048 0.
0.521983 0.0430047 0.
0.523984 0.0430043 0.
0.525984 0.0430038 0.
0.527985 0.0430034 0.
0.529986 0.0430032 0.
0.531986 0.043003 0.
0.533987 0.0430029 0.
0.535988 0.043003 0.
0.537988 0.0430031 0.
0.539989 0.0430034 0.
0.541989 0.043004 0.
0.54399 0.0430046 0.
0.54599 0.0430048 0.
0.547991 0.043005 0.
0.549992 0.0430051 0.
0.551992 0.0430055 0.
0.553993 0.0430058 0.
0.555993 0.0430061 0.
0.557993 0.043006 0.
0.559994 0.0430059 0.
0.561994 0.0430063 0.
0.563994 0.0430072 0.
0.565995 0.0430082 0.
0.567995 0.0430087 0.
0.569996 0.0430091 0.
0.571996 0.0430096 0.
0.573996 0.0430105 0.
0.575997 0.0430114 0.
0.577997 0.0430123 0.
0.579997 0.0430129 0.
0.581998 0.0430134 0.
0.583998 0.0430139 0.
0.585998 0.0430144 0.
0.587998 0.0430148 0.
0.589998 0.043015 0.
0.591998 0.0430149 0.
0.593998 0.0430148 0.
0.595999 0.0430149 0.
0.598 0.0430151 0.
0.6 0.0430153 0.
0.602001 0.0430148 0.
0.604001 0.0430143 0.
0.606001 0.0430138 0.
0.608002 0.0430136 0.
0.610002 0.0430134 0.
0.612002 0.043013 0.
0.614002 0.0430126 0.
0.616002 0.0430121 0.
0.618002 0.0430117 0.
0.620003 0.0430112 0.
0.622003 0.0430108 0.
0.624003 0.0430099 0.
0.626003 0.043009 0.
0.628004 0.0430081 0.
0.630004 0.0430075 0.
0.632004 0.043007 0.
0.634005 0.0430064 0.
0.636006 0.043006 0.
0.638006 0.0430055 0.
0.640007 0.0430052 0.
0.642007 0.043005 0.
0.644008 0.0430048 0.
0.646009 0.0430043 0.
0.64801 0.0430037 0.
0.650011 0.0430031 0.
0.652012 0.0430033 0.
0.654013 0.0430035 0.
0.656013 0.0430035 0.
0.658014 0.0430032 0.
0.660014 0.043003 0.
0.662015 0.0430028 0.
0.664015 0.0430029 0.
0.666016 0.043003 0.
0.668016 0.0430031 0.
0.670017 0.0430032 0.
0.672017 0.0430033 0.
0.674018 0.0430039 0.
0.676019 0.0430046 0.
0.678019 0.0430052 0.
0.68002 0.0430059 0.
0.68202 0.0430066 0.
0.68402 0.0430074 0.
0.686021 0.0430084 0.
0.688022 0.0430094 0.
0.690023 0.0430106 0.
0.692024 0.043012 0.
0.694025 0.0430133 0.
0.696026 0.0430143 0.
0.698026 0.0430153 0.
0.499976 0.0450152 0.
0.501977 0.0450133 0.
0.503978 0.0450117 0.
0.505978 0.0450101 0.
0.507979 0.0450086 0.
0.50998 0.0450071 0.
0.51198 0.045006 0.
0.513981 0.0450053 0.
0.515982 0.0450047 0.
0.517983 0.0450045 0.
0.519984 0.0450045 0.
0.521984 0.0450046 0.
0.523985 0.0450041 0.
0.525986 0.0450037 0.
0.527986 0.0450032 0.
0.529987 0.045003 0.
0.531987 0.0450029 0.
0.533988 0.0450027 0.
0.535989 0.0450026 0.
0.53799 0.0450024 0.
0.539991 0.0450027 0.
0.541991 0.0450033 0.
0.543991 0.045004 0.
0.545991 0.0450042 0.
0.547992 0.0450044 0.
0.549993 0.0450045 0.
0.551994 0.0450051 0.
0.553995 0.0450058 0.
0.555995 0.0450062 0.
0.557995 0.0450063 0.
0.559994 0.0450064 0.
0.561994 0.0450069 0.
0.563995 0.0450078 0.
0.565995 0.0450087 0.
0.567995 0.0450093 0.
0.569996 0.0450096 0.
0.571996 0.0450099 0.
0.573996 0.0450107 0.
0.575997 0.0450116 0.
0.577997 0.0450125 0.
0.579997 0.0450132 0.
0.581998 0.0450139 0.
0.583998 0.0450145 0.
0.585998 0.045015 0.
0.587998 0.0450155 0.
0.589998 0.0450156 0.
0.591998 0.0450155 0.
0.593999 0.0450153 0.
0.595999 0.0450153 0.
0.598 0.0450154 0.
0.6 0.0450155 0.
0.602001 0.0450148 0.
0.604001 0.0450142 0.
0.606001 0.0450137 0.
0.608002 0.0450136 0.
0.610002 0.0450134 0.
0.612002 0.0450131 0.
0.614002 0.0450126 0.
0.616002 0.0450121 0.
0.618002 0.0450116 0.
0.620003 0.0450111 0.
0.622003 0.0450106 0.
0.624003 0.0450098 0.
0.626003 0.045009 0.
0.628003 0.0450082 0.
0.630003 0.0450076 0.
0.632004 0.045007 0.
0.634004 0.0450065 0.
0.636004 0.0450059 0.
0.638005 0.0450053 0.
0.640005 0.0450049 0.
0.642006 0.0450044 0.
0.644006 0.045004 0.
0.646007 0.0450036 0.
0.648009 0.0450031 0.
0.65001 0.0450026 0.
0.652011 0.045003 0.
0.654012 0.0450033 0.
0.656012 0.0450035 0.
0.658013 0.0450031 0.
0.660013 0.0450026 0.
0.662014 0.0450025 0.
0.664014 0.0450027 0.
0.666015 0.045003 0.
0.668015 0.045003 0.
0.670015 0.0450029 0.
0.672016 0.0450029 0.
0.674016 0.0450035 0.
0.676017 0.0450043 0.
0.678018 0.045005 0.
0.680018 0.0450057 0.
0.682019 0.0450064 0.
0.684019 0.0450072 0.
0.68602 0.0450083 0.
0.688021 0.0450094 0.
0.690022 0.0450106 0.
0.692023 0.045012 0.
0.694023 0.0450134 0.
0.696024 0.0450139 0.
0.698025 0.0450141 0.
0.499977 0.0470147 0.
0.501978 0.0470132 0.
0.503979 0.0470118 0.
0.50598 0.0470103 0.
0.507981 0.0470087 0.
0.509981 0.0470072 0.
0.511982 0.047006 0.
0.513983 0.0470054 0.
0.515983 0.0470047 0.
0.517984 0.0470045 0.
0.519984 0.0470044 0.
0.521985 0.0470043 0.
0.523985 0.047004 0.
0.525986 0.0470037 0.
0.527987 0.0470034 0.
0.529987 0.0470033 0.
0.531988 0.0470032 0.
0.533989 0.0470031 0.
0.535989 0.047003 0.
0.53799 0.0470028 0.
0.539991 0.047003 0.
0.541991 0.0470035 0.
0.543991 0.047004 0.
0.545992 0.0470044 0.
0.547992 0.0470048 0.
0.549993 0.0470051 0.
0.551993 0.0470054 0.
0.553994 0.0470057 0.
0.555994 0.0470059 0.
0.557994 0.0470061 0.
0.559994 0.0470062 0.
0.561995 0.0470067 0.
0.563995 0.0470076 0.
0.565996 0.0470086 0.
0.567996 0.0470093 0.
0.569996 0.0470098 0.
0.571997 0.0470103 0.
0.573997 0.0470112 0.
0.575997 0.0470121 0.
0.577997 0.047013 0.
0.579998 0.0470137 0.
0.581998 0.0470143 0.
0.583998 0.0470149 0.
0.585998 0.0470153 0.
0.587999 0.0470157 0.
0.589999 0.047016 0.
0.591999 0.047016 0.
0.593999 0.0470161 0.
0.596 0.0470161 0.
0.598 0.0470161 0.
0.6 0.0470161 0.
0.602001 0.0470157 0.
0.604001 0.0470154 0.
0.606001 0.047015 0.
0.608001 0.0470146 0.
0.610002 0.0470143 0.
0.612002 0.0470138 0.
0.614002 0.0470132 0.
0.616002 0.0470127 0.
0.618002 0.0470121 0.
0.620003 0.0470115 0.
0.622003 0.0470109 0.
0.624003 0.0470099 0.
0.626003 0.0470088 0.
0.628003 0.0470079 0.
0.630004 0.0470073 0.
0.632004 0.0470068 0.
0.634004 0.0470062 0.
0.636005 0.0470057 0.
0.638006 0.0470052 0.
0.640006 0.0470049 0.
0.642007 0.0470047 0.
0.644007 0.0470046 0.
0.646008 0.0470041 0.
0.648009 0.0470034 0.
0.65001 0.0470027 0.
0.652011 0.0470028 0.
0.654011 0.0470029 0.
0.656012 0.0470029 0.
0.658013 0.0470028 0.
0.660013 0.0470026 0.
0.662013 0.0470027 0.
0.664014 0.0470031 0.
0.666014 0.0470035 0.
0.668015 0.0470035 0.
0.670015 0.0470034 0.
0.672015 0.0470033 0.
0.674016 0.0470037 0.
0.676016 0.0470041 0.
0.678017 0.0470046 0.
0.680017 0.0470054 0.
0.682018 0.0470062 0.
0.684018 0.0470071 0.
0.686019 0.0470081 0.
0.68802 0.0470092 0.
0.690021 0.0470105 0.
0.692022 0.0470119 0.
0.694023 0.0470134 0.
0.696023 0.0470143 0.
0.698024 0.047015 0.
0.499978 0.0490143 0.
0.501979 0.049013 0.
0.50398 0.0490118 0.
0.505981 0.0490105 0.
0.507982 0.0490089 0.
0.509983 0.0490072 0.
0.511984 0.049006 0.
0.513984 0.0490054 0.
0.515984 0.0490048 0.
0.517985 0.0490044 0.
0.519985 0.0490042 0.
0.521985 0.049004 0.
0.523986 0.0490038 0.
0.525987 0.0490037 0.
0.527987 0.0490035 0.
0.529988 0.0490035 0.
0.531988 0.0490036 0.
0.533989 0.0490035 0.
0.53599 0.0490034 0.
0.53799 0.0490032 0.
0.539991 0.0490033 0.
0.541992 0.0490037 0.
0.543992 0.049004 0.
0.545992 0.0490046 0.
0.547992 0.0490052 0.
0.549993 0.0490058 0.
0.551993 0.0490057 0.
0.553993 0.0490057 0.
0.555994 0.0490056 0.
0.557994 0.0490058 0.
0.559995 0.049006 0.
0.561995 0.0490065 0.
0.563996 0.0490075 0.
0.565996 0.0490084 0.
0.567997 0.0490092 0.
0.569997 0.04901 0.
0.571998 0.0490107 0.
0.573998 0.0490117 0.
0.575998 0.0490127 0.
0.577998 0.0490136 0.
0.579998 0.0490142 0.
0.581998 0.0490147 0.
0.583998 0.0490152 0.
0.585999 0.0490156 0.
0.587999 0.049016 0.
0.589999 0.0490163 0.
0.592 0.0490165 0.
0.594 0.0490168 0.
0.596 0.0490168 0.
0.598 0.0490167 0.
0.6 0.0490167 0.
0.602 0.0490166 0.
0.604 0.0490165 0.
0.606 0.0490163 0.
0.608001 0.0490157 0.
0.610001 0.0490151 0.
0.612002 0.0490145 0.
0.614002 0.0490139 0.
0.616002 0.0490132 0.
0.618003 0.0490126 0.
0.620003 0.0490119 0.
0.622004 0.0490112 0.
0.624004 0.04901 0.
0.626003 0.0490087 0.
0.628003 0.0490076 0.
0.630004 0.049007 0.
0.632004 0.0490065 0.
0.634005 0.049006 0.
0.636006 0.0490055 0.
0.638006 0.049005 0.
0.640007 0.0490049 0.
0.642008 0.049005 0.
0.644009 0.0490052 0.
0.646009 0.0490046 0.
0.648009 0.0490037 0.
0.65001 0.0490028 0.
0.65201 0.0490026 0.
0.654011 0.0490025 0.
0.656012 0.0490023 0.
0.658012 0.0490025 0.
0.660013 0.0490026 0.
0.662013 0.0490029 0.
0.664014 0.0490034 0.
0.666014 0.0490039 0.
0.668014 0.049004 0.
0.670014 0.0490039 0.
0.672014 0.0490038 0.
0.674015 0.0490038 0.
0.676015 0.0490039 0.
0.678015 0.0490041 0.
0.680016 0.049005 0.
0.682017 0.049006 0.
0.684018 0.049007 0.
0.686018 0.049008 0.
0.688018 0.049009 0.
0.690019 0.0490103 0.
0.692021 0.0490118 0.
0.694022 0.0490133 0.
0.696023 0.0490147 0.
0.698023 0.0490159 0.
0.49998 0.0510138 0.
0.501981 0.0510127 0.
0.503981 0.0510117 0.
0.505982 0.0510105 0.
0.507983 0.051009 0.
0.509984 0.0510074 0.
0.511985 0.0510062 0.
0.513985 0.0510056 0.
0.515985 0.0510051 0.
0.517986 0.0510047 0.
0.519986 0.0510044 0.
0.521986 0.0510041 0.
0.523987 0.0510039 0.
0.525987 0.0510037 0.
0.527988 0.0510035 0.
0.529989 0.0510035 0.
0.531989 0.0510035 0.
0.53399 0.0510035 0.
0.53599 0.0510034 0.
0.537991 0.0510033 0.
0.539992 0.0510033 0.
0.541992 0.0510035 0.
0.543993 0.0510037 0.
0.545993 0.0510043 0.
0.547993 0.051005 0.
0.549993 0.0510057 0.
0.551993 0.0510057 0.
0.553994 0.0510057 0.
0.555994 0.0510057 0.
0.557995 0.0510058 0.
0.559995 0.051006 0.
0.561996 0.0510065 0.
0.563996 0.0510075 0.
0.565997 0.0510085 0.
0.567997 0.0510094 0.
0.569998 0.0510102 0.
0.571998 0.051011 0.
0.573998 0.051012 0.
0.575998 0.051013 0.
0.577998 0.0510139 0.
0.579998 0.0510145 0.
0.581998 0.0510151 0.
0.583999 0.0510156 0.
0.585999 0.0510159 0.
0.587999 0.0510162 0.
0.59 0.0510165 0.
0.592 0.0510167 0.
0.594 0.051017 0.
0.596 0.0510171 0.
0.598 0.0510171 0.
0.600001 0.0510171 0.
0.602001 0.0510171 0.
0.604001 0.051017 0.
0.606001 0.0510169 0.
0.608001 0.0510163 0.
0.610001 0.0510156 0.
0.612001 0.0510149 0.
0.614002 0.0510142 0.
0.616002 0.0510134 0.
0.618003 0.0510127 0.
0.620003 0.0510119 0.
0.622004 0.0510112 0.
0.624004 0.0510102 0.
0.626003 0.0510091 0.
0.628003 0.0510081 0.
0.630004 0.0510074 0.
0.632004 0.0510067 0.
0.634005 0.0510061 0.
0.636005 0.0510055 0.
0.638006 0.051005 0.
0.640007 0.0510049 0.
0.642008 0.0510052 0.
0.644009 0.0510055 0.
0.646009 0.0510048 0.
0.648009 0.0510038 0.
0.650009 0.0510028 0.
0.65201 0.0510024 0.
0.654011 0.0510021 0.
0.656011 0.0510019 0.
0.658012 0.0510022 0.
0.660012 0.0510024 0.
0.662012 0.0510029 0.
0.664013 0.0510034 0.
0.666013 0.051004 0.
0.668013 0.0510042 0.
0.670014 0.0510041 0.
0.672014 0.0510041 0.
0.674014 0.051004 0.
0.676014 0.0510039 0.
0.678014 0.051004 0.
0.680015 0.051005 0.
0.682016 0.051006 0.
0.684017 0.0510071 0.
0.686017 0.0510081 0.
0.688017 0.0510092 0.
0.690018 0.0510104 0.
0.692019 0.0510117 0.
0.694021 0.051013 0.
0.696021 0.0510145 0.
0.698022 0.0510159 0.
0.499981 0.0530132 0.
0.501982 0.0530122 0.
0.503983 0.0530114 0.
0.505984 0.0530104 0.
0.507985 0.0530091 0.
0.509985 0.0530077 0.
0.511986 0.0530067 0.
0.513986 0.0530061 0.
0.515986 0.0530055 0.
0.517986 0.0530051 0.
0.519987 0.0530048 0.
0.521987 0.0530045 0.
0.523988 0.0530041 0.
0.525988 0.0530036 0.
0.527989 0.0530032 0.
0.52999 0.0530031 0.
0.53199 0.053003 0.
0.533991 0.053003 0.
0.535992 0.053003 0.
0.537992 0.0530031 0.
0.539992 0.0530031 0.
0.541993 0.0530031 0.
0.543994 0.0530031 0.
0.545994 0.0530036 0.
0.547994 0.0530042 0.
0.549995 0.0530049 0.
0.551995 0.0530054 0.
0.553996 0.0530059 0.
0.555996 0.0530062 0.
0.557996 0.0530062 0.
0.559996 0.0530061 0.
0.561996 0.0530066 0.
0.563997 0.0530077 0.
0.565998 0.0530087 0.
0.567998 0.0530096 0.
0.569998 0.0530104 0.
0.571998 0.0530112 0.
0.573998 0.0530121 0.
0.575998 0.0530131 0.
0.577998 0.053014 0.
0.579998 0.0530147 0.
0.581998 0.0530153 0.
0.583998 0.0530159 0.
0.585999 0.0530161 0.
0.587999 0.0530164 0.
0.589999 0.0530166 0.
0.592 0.0530166 0.
0.594 0.0530167 0.
0.596 0.0530169 0.
0.598001 0.053017 0.
0.600001 0.0530172 0.
0.602001 0.0530171 0.
0.604001 0.0530169 0.
0.606001 0.0530167 0.
0.608001 0.0530163 0.
0.610001 0.0530158 0.
0.612002 0.0530151 0.
0.614002 0.0530142 0.
0.616002 0.0530133 0.
0.618002 0.0530125 0.
0.620003 0.0530117 0.
0.622004 0.053011 0.
0.624004 0.0530104 0.
0.626003 0.0530099 0.
0.628003 0.0530094 0.
0.630004 0.0530083 0.
0.632004 0.0530073 0.
0.634004 0.0530064 0.
0.636005 0.0530057 0.
0.638005 0.053005 0.
0.640006 0.0530049 0.
0.642007 0.0530052 0.
0.644007 0.0530055 0.
0.646008 0.0530048 0.
0.648008 0.0530037 0.
0.650008 0.0530026 0.
0.652009 0.0530022 0.
0.65401 0.0530018 0.
0.65601 0.0530015 0.
0.65801 0.0530019 0.
0.660011 0.0530023 0.
0.662011 0.0530027 0.
0.664011 0.0530032 0.
0.666012 0.0530036 0.
0.668012 0.0530039 0.
0.670012 0.0530041 0.
0.672013 0.0530043 0.
0.674013 0.0530043 0.
0.676013 0.0530042 0.
0.678013 0.0530042 0.
0.680014 0.0530053 0.
0.682014 0.0530064 0.
0.684015 0.0530074 0.
0.686015 0.0530086 0.
0.688016 0.0530097 0.
0.690016 0.0530107 0.
0.692017 0.0530116 0.
0.694018 0.0530125 0.
0.696019 0.0530137 0.
0.69802 0.053015 0.
0.499983 0.0550126 0.
0.501984 0.0550118 0.
0.503985 0.055011 0.
0.505986 0.0550103 0.
0.507986 0.0550091 0.
0.509987 0.055008 0.
0.511987 0.0550071 0.
0.513987 0.0550065 0.
0.515987 0.055006 0.
0.517987 0.0550056 0.
0.519988 0.0550053 0.
0.521988 0.055005 0.
0.523989 0.0550044 0.
0.525989 0.0550036 0.
0.52799 0.055003 0.
0.529991 0.0550027 0.
0.531991 0.0550025 0.
0.533992 0.0550024 0.
0.535993 0.0550026 0.
0.537993 0.0550029 0.
0.539993 0.0550029 0.
0.541994 0.0550027 0.
0.543994 0.0550025 0.
0.545995 0.0550029 0.
0.547996 0.0550034 0.
0.549996 0.055004 0.
0.551997 0.055005 0.
0.553997 0.055006 0.
0.555998 0.0550067 0.
0.557997 0.0550065 0.
0.559997 0.0550063 0.
0.561997 0.0550067 0.
0.563998 0.0550078 0.
0.565998 0.055009 0.
0.567998 0.0550099 0.
0.569998 0.0550106 0.
0.571997 0.0550114 0.
0.573997 0.0550122 0.
0.575997 0.0550131 0.
0.577998 0.055014 0.
0.579998 0.0550148 0.
0.581998 0.0550156 0.
0.583998 0.0550162 0.
0.585998 0.0550164 0.
0.587998 0.0550166 0.
0.589999 0.0550166 0.
0.591999 0.0550165 0.
0.594 0.0550165 0.
0.596001 0.0550167 0.
0.598001 0.055017 0.
0.600001 0.0550173 0.
0.602002 0.0550171 0.
0.604002 0.0550168 0.
0.606002 0.0550166 0.
0.608002 0.0550163 0.
0.610002 0.0550159 0.
0.612002 0.0550153 0.
0.614002 0.0550142 0.
0.616002 0.0550131 0.
0.618002 0.0550123 0.
0.620003 0.0550115 0.
0.622003 0.0550108 0.
0.624003 0.0550107 0.
0.626003 0.0550108 0.
0.628004 0.0550107 0.
0.630003 0.0550093 0.
0.632003 0.0550079 0.
0.634003 0.0550067 0.
0.636004 0.0550059 0.
0.638004 0.0550051 0.
0.640005 0.0550049 0.
0.642005 0.0550052 0.
0.644006 0.0550055 0.
0.646006 0.0550047 0.
0.648007 0.0550036 0.
0.650008 0.0550024 0.
0.652008 0.0550019 0.
0.654009 0.0550014 0.
0.656009 0.0550011 0.
0.658009 0.0550016 0.
0.660009 0.0550021 0.
0.662009 0.0550025 0.
0.66401 0.0550029 0.
0.66601 0.0550033 0.
0.66801 0.0550037 0.
0.670011 0.0550041 0.
0.672012 0.0550045 0.
0.674012 0.0550045 0.
0.676012 0.0550044 0.
0.678013 0.0550044 0.
0.680013 0.0550056 0.
0.682013 0.0550067 0.
0.684013 0.0550078 0.
0.686014 0.055009 0.
0.688014 0.0550102 0.
0.690015 0.055011 0.
0.692015 0.0550115 0.
0.694016 0.0550119 0.
0.696017 0.0550129 0.
0.698018 0.055014 0.
0.499984 0.0570131 0.
0.501985 0.0570119 0.
0.503985 0.0570108 0.
0.505986 0.0570097 0.
0.507987 0.0570087 0.
0.509987 0.0570078 0.
0.511988 0.0570071 0.
0.513988 0.0570065 0.
0.515988 0.057006 0.
0.517988 0.0570056 0.
0.519989 0.0570051 0.
0.521989 0.0570047 0.
0.523989 0.0570042 0.
0.52599 0.0570037 0.
0.52799 0.0570032 0.
0.529991 0.0570029 0.
0.531992 0.0570026 0.
0.533993 0.0570024 0.
0.535993 0.0570025 0.
0.537993 0.0570025 0.
0.539994 0.0570025 0.
0.541994 0.0570024 0.
0.543995 0.0570024 0.
0.545995 0.0570028 0.
0.547995 0.0570035 0.
0.549995 0.0570041 0.
0.551996 0.057005 0.
0.553996 0.0570059 0.
0.555996 0.0570066 0.
0.557996 0.0570066 0.
0.559997 0.0570066 0.
0.561997 0.0570071 0.
0.563997 0.0570082 0.
0.565998 0.0570093 0.
0.567998 0.0570101 0.
0.569998 0.0570108 0.
0.571998 0.0570115 0.
0.573998 0.0570126 0.
0.575998 0.0570137 0.
0.577998 0.0570148 0.
0.579998 0.0570155 0.
0.581998 0.0570161 0.
0.583999 0.0570166 0.
0.585999 0.0570166 0.
0.587999 0.0570166 0.
0.589999 0.0570165 0.
0.592 0.0570163 0.
0.594 0.0570161 0.
0.596 0.0570162 0.
0.598001 0.0570164 0.
0.600001 0.0570166 0.
0.602001 0.0570166 0.
0.604002 0.0570166 0.
0.606002 0.0570165 0.
0.608002 0.057016 0.
0.610002 0.0570156 0.
0.612002 0.0570151 0.
0.614002 0.0570145 0.
0.616002 0.0570139 0.
0.618002 0.0570132 0.
0.620003 0.0570125 0.
0.622003 0.0570117 0.
0.624003 0.0570112 0.
0.626003 0.0570106 0.
0.628003 0.0570101 0.
0.630003 0.057009 0.
0.632003 0.0570079 0.
0.634003 0.0570069 0.
0.636004 0.0570062 0.
0.638004 0.0570054 0.
0.640005 0.0570052 0.
0.642005 0.0570052 0.
0.644006 0.0570053 0.
0.646007 0.0570046 0.
0.648007 0.0570035 0.
0.650007 0.0570025 0.
0.652008 0.057002 0.
0.654008 0.0570015 0.
0.656008 0.0570013 0.
0.658008 0.0570018 0.
0.660009 0.0570022 0.
0.662009 0.0570026 0.
0.664009 0.0570029 0.
0.666009 0.0570032 0.
0.66801 0.0570037 0.
0.67001 0.0570042 0.
0.672011 0.0570048 0.
0.674011 0.0570048 0.
0.676011 0.0570047 0.
0.678011 0.0570048 0.
0.680012 0.0570056 0.
0.682012 0.0570065 0.
0.684012 0.0570075 0.
0.686013 0.0570086 0.
0.688013 0.0570097 0.
0.690014 0.0570106 0.
0.692014 0.0570113 0.
0.694015 0.057012 0.
0.696016 0.057013 0.
0.698017 0.0570141 0.
0.499985 0.0590137 0.
0.501986 0.0590121 0.
0.503986 0.0590105 0.
0.505987 0.0590091 0.
0.507987 0.0590084 0.
0.509988 0.0590076 0.
0.511989 0.059007 0.
0.513989 0.0590066 0.
0.515989 0.0590061 0.
0.517989 0.0590055 0.
0.51999 0.0590049 0.
0.52199 0.0590043 0.
0.52399 0.059004 0.
0.52599 0.0590037 0.
0.52799 0.0590034 0.
0.529991 0.059003 0.
0.531992 0.0590027 0.
0.533993 0.0590024 0.
0.535994 0.0590023 0.
0.537994 0.0590021 0.
0.539994 0.0590021 0.
0.541995 0.0590022 0.
0.543995 0.0590022 0.
0.545995 0.0590028 0.
0.547995 0.0590035 0.
0.549994 0.0590042 0.
0.551995 0.059005 0.
0.553995 0.0590058 0.
0.555995 0.0590064 0.
0.557996 0.0590067 0.
0.559996 0.059007 0.
0.561996 0.0590076 0.
0.563997 0.0590086 0.
0.565997 0.0590097 0.
0.567998 0.0590104 0.
0.569998 0.059011 0.
0.571998 0.0590117 0.
0.573998 0.059013 0.
0.575998 0.0590144 0.
0.577998 0.0590157 0.
0.579998 0.0590161 0.
0.581998 0.0590166 0.
0.583999 0.0590169 0.
0.585999 0.0590167 0.
0.588 0.0590165 0.
0.59 0.0590163 0.
0.592 0.059016 0.
0.594 0.0590157 0.
0.596 0.0590157 0.
0.598 0.0590158 0.
0.600001 0.0590158 0.
0.602001 0.0590161 0.
0.604002 0.0590163 0.
0.606002 0.0590164 0.
0.608002 0.0590158 0.
0.610002 0.0590153 0.
0.612002 0.0590149 0.
0.614002 0.0590148 0.
0.616002 0.0590146 0.
0.618002 0.0590141 0.
0.620003 0.0590134 0.
0.622003 0.0590127 0.
0.624003 0.0590116 0.
0.626003 0.0590105 0.
0.628002 0.0590094 0.
0.630003 0.0590087 0.
0.632003 0.0590079 0.
0.634003 0.0590072 0.
0.636004 0.0590065 0.
0.638004 0.0590058 0.
0.640005 0.0590054 0.
0.642006 0.0590053 0.
0.644006 0.0590051 0.
0.646007 0.0590044 0.
0.648007 0.0590035 0.
0.650007 0.0590026 0.
0.652007 0.0590021 0.
0.654008 0.0590017 0.
0.656008 0.0590014 0.
0.658008 0.0590019 0.
0.660008 0.0590024 0.
0.662008 0.0590027 0.
0.664008 0.059003 0.
0.666009 0.0590032 0.
0.668009 0.0590037 0.
0.670009 0.0590044 0.
0.67201 0.059005 0.
0.67401 0.0590051 0.
0.67601 0.0590051 0.
0.67801 0.0590051 0.
0.68001 0.0590057 0.
0.682011 0.0590064 0.
0.684011 0.0590071 0.
0.686012 0.0590081 0.
0.688012 0.0590092 0.
0.690013 0.0590102 0.
0.692013 0.0590111 0.
0.694014 0.0590121 0.
0.696015 0.0590131 0.
0.698016 0.0590142 0.
0.499986 0.061014 0.
0.501987 0.0610122 0.
0.503987 0.0610105 0.
0.505988 0.061009 0.
0.507988 0.0610083 0.
0.509989 0.0610075 0.
0.51199 0.0610069 0.
0.51399 0.0610065 0.
0.51599 0.0610061 0.
0.51799 0.0610055 0.
0.519991 0.0610048 0.
0.521991 0.0610042 0.
0.523991 0.0610039 0.
0.525991 0.0610036 0.
0.527991 0.0610033 0.
0.529992 0.061003 0.
0.531993 0.0610028 0.
0.533994 0.0610025 0.
0.535994 0.0610023 0.
0.537995 0.061002 0.
0.539995 0.061002 0.
0.541995 0.0610021 0.
0.543996 0.0610022 0.
0.545995 0.0610027 0.
0.547995 0.0610034 0.
0.549995 0.0610041 0.
0.551995 0.0610049 0.
0.553995 0.0610058 0.
0.555995 0.0610065 0.
0.557996 0.0610069 0.
0.559996 0.0610073 0.
0.561997 0.061008 0.
0.563997 0.061009 0.
0.565997 0.06101 0.
0.567998 0.0610107 0.
0.569998 0.0610114 0.
0.571998 0.061012 0.
0.573998 0.0610133 0.
0.575998 0.0610146 0.
0.577998 0.0610159 0.
0.579998 0.0610163 0.
0.581999 0.0610167 0.
0.583999 0.0610169 0.
0.585999 0.0610168 0.
0.588 0.0610166 0.
0.59 0.0610164 0.
0.592 0.0610161 0.
0.594 0.0610159 0.
0.596 0.0610158 0.
0.598 0.0610157 0.
0.600001 0.0610157 0.
0.602001 0.061016 0.
0.604002 0.0610163 0.
0.606002 0.0610164 0.
0.608002 0.0610158 0.
0.610002 0.0610152 0.
0.612002 0.0610149 0.
0.614002 0.061015 0.
0.616002 0.061015 0.
0.618002 0.0610146 0.
0.620003 0.0610138 0.
0.622003 0.0610131 0.
0.624003 0.0610119 0.
0.626002 0.0610106 0.
0.628002 0.0610094 0.
0.630002 0.0610088 0.
0.632002 0.0610081 0.
0.634003 0.0610075 0.
0.636003 0.0610068 0.
0.638004 0.0610062 0.
0.640004 0.0610057 0.
0.642005 0.0610053 0.
0.644006 0.061005 0.
0.646006 0.0610043 0.
0.648006 0.0610036 0.
0.650007 0.0610028 0.
0.652007 0.0610024 0.
0.654007 0.0610019 0.
0.656007 0.0610016 0.
0.658007 0.0610021 0.
0.660007 0.0610025 0.
0.662007 0.0610028 0.
0.664008 0.061003 0.
0.666008 0.0610031 0.
0.668008 0.0610037 0.
0.670008 0.0610043 0.
0.672008 0.061005 0.
0.674009 0.0610051 0.
0.676009 0.0610052 0.
0.678009 0.0610054 0.
0.680009 0.0610059 0.
0.68201 0.0610064 0.
0.68401 0.0610071 0.
0.686011 0.0610081 0.
0.688011 0.061009 0.
0.690012 0.06101 0.
0.692012 0.0610111 0.
0.694013 0.0610121 0.
0.696013 0.0610131 0.
0.698014 0.0610141 0.
0.499987 0.0630138 0.
0.501988 0.0630123 0.
0.503988 0.0630108 0.
0.505989 0.0630094 0.
0.50799 0.0630085 0.
0.50999 0.0630075 0.
0.511991 0.0630068 0.
0.513991 0.0630064 0.
0.515991 0.0630059 0.
0.517992 0.0630054 0.
0.519992 0.0630048 0.
0.521993 0.0630042 0.
0.523993 0.0630037 0.
0.525993 0.0630033 0.
0.527993 0.0630029 0.
0.529994 0.0630029 0.
0.531995 0.0630029 0.
0.533995 0.0630028 0.
0.535996 0.0630025 0.
0.537996 0.0630021 0.
0.539996 0.0630021 0.
0.541996 0.0630022 0.
0.543996 0.0630023 0.
0.545996 0.0630027 0.
0.547996 0.0630032 0.
0.549996 0.0630037 0.
0.551996 0.0630048 0.
0.553997 0.063006 0.
0.555997 0.0630069 0.
0.557997 0.0630073 0.
0.559997 0.0630077 0.
0.561997 0.0630084 0.
0.563998 0.0630093 0.
0.565998 0.0630102 0.
0.567998 0.063011 0.
0.569998 0.0630118 0.
0.571998 0.0630125 0.
0.573998 0.0630135 0.
0.575998 0.0630145 0.
0.577998 0.0630155 0.
0.579998 0.0630159 0.
0.581999 0.0630164 0.
0.583999 0.0630167 0.
0.586 0.0630167 0.
0.588 0.0630167 0.
0.59 0.0630166 0.
0.592 0.0630166 0.
0.594 0.0630165 0.
0.596 0.0630164 0.
0.598 0.0630163 0.
0.600001 0.0630161 0.
0.602001 0.0630163 0.
0.604002 0.0630165 0.
0.606002 0.0630165 0.
0.608002 0.0630159 0.
0.610002 0.0630154 0.
0.612002 0.0630151 0.
0.614002 0.063015 0.
0.616002 0.063015 0.
0.618002 0.0630145 0.
0.620003 0.0630138 0.
0.622003 0.0630131 0.
0.624002 0.0630121 0.
0.626002 0.063011 0.
0.628002 0.06301 0.
0.630002 0.0630093 0.
0.632002 0.0630086 0.
0.634002 0.0630079 0.
0.636003 0.0630072 0.
0.638003 0.0630065 0.
0.640004 0.063006 0.
0.642004 0.0630055 0.
0.644004 0.063005 0.
0.646005 0.0630044 0.
0.648005 0.0630038 0.
0.650005 0.0630031 0.
0.652005 0.0630027 0.
0.654005 0.0630022 0.
0.656005 0.0630019 0.
0.658006 0.0630022 0.
0.660006 0.0630025 0.
0.662006 0.0630028 0.
0.664006 0.0630029 0.
0.666007 0.0630031 0.
0.668007 0.0630035 0.
0.670007 0.0630042 0.
0.672007 0.0630048 0.
0.674007 0.063005 0.
0.676008 0.0630053 0.
0.678008 0.0630055 0.
0.680008 0.0630062 0.
0.682009 0.0630068 0.
0.684009 0.0630075 0.
0.686009 0.0630084 0.
0.68801 0.0630093 0.
0.69001 0.0630102 0.
0.692011 0.0630111 0.
0.694011 0.0630121 0.
0.696012 0.063013 0.
0.698013 0.0630139 0.
0.499988 0.0650135 0.
0.501989 0.0650123 0.
0.50399 0.0650111 0.
0.505991 0.0650098 0.
0.507991 0.0650087 0.
0.509991 0.0650076 0.
0.511992 0.0650067 0.
0.513992 0.0650063 0.
0.515992 0.0650058 0.
0.517993 0.0650053 0.
0.519994 0.0650047 0.
0.521994 0.0650042 0.
0.523995 0.0650036 0.
0.525995 0.0650031 0.
0.527995 0.0650026 0.
0.529996 0.0650028 0.
0.531996 0.065003 0.
0.533997 0.065003 0.
0.535997 0.0650026 0.
0.537997 0.0650023 0.
0.539997 0.0650022 0.
0.541997 0.0650023 0.
0.543997 0.0650024 0.
0.545997 0.0650026 0.
0.547997 0.065003 0.
0.549997 0.0650033 0.
0.551998 0.0650048 0.
0.553998 0.0650062 0.
0.555998 0.0650073 0.
0.557998 0.0650078 0.
0.559998 0.0650082 0.
0.561998 0.0650088 0.
0.563998 0.0650096 0.
0.565998 0.0650104 0.
0.567998 0.0650113 0.
0.569998 0.0650122 0.
0.571998 0.065013 0.
0.573998 0.0650137 0.
0.575998 0.0650144 0.
0.577998 0.0650151 0.
0.579999 0.0650156 0.
0.581999 0.0650161 0.
0.583999 0.0650166 0.
0.586 0.0650167 0.
0.588 0.0650168 0.
0.59 0.0650169 0.
0.592 0.0650171 0.
0.594 0.0650172 0.
0.596 0.065017 0.
0.598001 0.0650168 0.
0.600001 0.0650165 0.
0.602001 0.0650166 0.
0.604002 0.0650166 0.
0.606002 0.0650166 0.
0.608002 0.0650161 0.
0.610002 0.0650156 0.
0.612002 0.0650153 0.
0.614002 0.0650151 0.
0.616002 0.065015 0.
0.618002 0.0650145 0.
0.620003 0.0650138 0.
0.622003 0.0650131 0.
0.624002 0.0650123 0.
0.626002 0.0650114 0.
0.628001 0.0650106 0.
0.630002 0.0650098 0.
0.632002 0.065009 0.
0.634002 0.0650083 0.
0.636002 0.0650076 0.
0.638003 0.0650069 0.
0.640003 0.0650062 0.
0.642003 0.0650056 0.
0.644003 0.065005 0.
0.646003 0.0650045 0.
0.648003 0.065004 0.
0.650004 0.0650034 0.
0.652004 0.065003 0.
0.654004 0.0650025 0.
0.656004 0.0650022 0.
0.658004 0.0650024 0.
0.660005 0.0650026 0.
0.662005 0.0650028 0.
0.664005 0.0650029 0.
0.666006 0.065003 0.
0.668006 0.0650034 0.
0.670006 0.065004 0.
0.672006 0.0650045 0.
0.674006 0.0650049 0.
0.676007 0.0650053 0.
0.678007 0.0650057 0.
0.680007 0.0650064 0.
0.682008 0.0650071 0.
0.684008 0.0650079 0.
0.686008 0.0650087 0.
0.688009 0.0650095 0.
0.690009 0.0650103 0.
0.69201 0.0650112 0.
0.69401 0.0650121 0.
0.69601 0.0650129 0.
0.698011 0.0650137 0.
0.49999 0.067013 0.
0.50199 0.0670118 0.
0.503991 0.0670106 0.
0.505992 0.0670094 0.
0.507992 0.0670086 0.
0.509992 0.0670077 0.
0.511993 0.067007 0.
0.513993 0.0670063 0.
0.515993 0.0670057 0.
0.517994 0.0670052 0.
0.519994 0.0670047 0.
0.521995 0.0670042 0.
0.523995 0.0670037 0.
0.525995 0.0670032 0.
0.527995 0.0670028 0.
0.529996 0.0670028 0.
0.531996 0.0670029 0.
0.533997 0.0670028 0.
0.535997 0.0670025 0.
0.537997 0.0670022 0.
0.539997 0.0670023 0.
0.541997 0.0670027 0.
0.543997 0.067003 0.
0.545997 0.0670033 0.
0.547997 0.0670035 0.
0.549997 0.0670037 0.
0.551998 0.0670048 0.
0.553998 0.0670058 0.
0.555998 0.0670068 0.
0.557998 0.0670075 0.
0.559998 0.0670083 0.
0.561998 0.067009 0.
0.563998 0.0670097 0.
0.565998 0.0670105 0.
0.567998 0.0670112 0.
0.569998 0.0670119 0.
0.571998 0.0670127 0.
0.573998 0.0670135 0.
0.575999 0.0670144 0.
0.577999 0.0670153 0.
0.579999 0.0670159 0.
0.581999 0.0670166 0.
0.583999 0.0670171 0.
0.586 0.0670172 0.
0.588 0.0670173 0.
0.59 0.0670174 0.
0.592 0.0670174 0.
0.594 0.0670174 0.
0.596 0.0670172 0.
0.598 0.067017 0.
0.600001 0.0670167 0.
0.602001 0.0670168 0.
0.604002 0.0670168 0.
0.606002 0.0670168 0.
0.608002 0.0670164 0.
0.610002 0.067016 0.
0.612002 0.0670158 0.
0.614002 0.0670158 0.
0.616002 0.0670158 0.
0.618002 0.0670152 0.
0.620002 0.0670144 0.
0.622003 0.0670136 0.
0.624002 0.0670124 0.
0.626002 0.0670112 0.
0.628001 0.0670101 0.
0.630002 0.0670094 0.
0.632002 0.0670088 0.
0.634002 0.0670082 0.
0.636002 0.0670076 0.
0.638002 0.0670071 0.
0.640002 0.0670065 0.
0.642003 0.0670059 0.
0.644003 0.0670052 0.
0.646003 0.0670046 0.
0.648003 0.067004 0.
0.650004 0.0670034 0.
0.652004 0.0670031 0.
0.654003 0.0670028 0.
0.656004 0.0670025 0.
0.658004 0.0670025 0.
0.660004 0.0670024 0.
0.662005 0.0670025 0.
0.664005 0.0670026 0.
0.666005 0.0670028 0.
0.668005 0.0670033 0.
0.670005 0.067004 0.
0.672005 0.0670046 0.
0.674005 0.067005 0.
0.676006 0.0670054 0.
0.678006 0.0670057 0.
0.680007 0.0670064 0.
0.682007 0.067007 0.
0.684007 0.0670077 0.
0.686008 0.0670085 0.
0.688008 0.0670093 0.
0.690008 0.0670101 0.
0.692009 0.067011 0.
0.694009 0.0670118 0.
0.696009 0.0670124 0.
0.698009 0.0670129 0.
0.499992 0.0690126 0.
0.501992 0.0690113 0.
0.503992 0.0690101 0.
0.505992 0.069009 0.
0.507993 0.0690084 0.
0.509993 0.0690079 0.
0.511994 0.0690072 0.
0.513994 0.0690064 0.
0.515994 0.0690057 0.
0.517995 0.0690051 0.
0.519995 0.0690047 0.
0.521995 0.0690042 0.
0.523995 0.0690038 0.
0.525995 0.0690034 0.
0.527995 0.0690031 0.
0.529996 0.0690029 0.
0.531996 0.0690028 0.
0.533997 0.0690026 0.
0.535997 0.0690023 0.
0.537997 0.0690021 0.
0.539997 0.0690024 0.
0.541997 0.0690031 0.
0.543998 0.0690037 0.
0.545998 0.069004 0.
0.547997 0.0690041 0.
0.549997 0.0690042 0.
0.551998 0.0690048 0.
0.553998 0.0690054 0.
0.555998 0.0690062 0.
0.557998 0.0690073 0.
0.559998 0.0690084 0.
0.561998 0.0690093 0.
0.563998 0.0690099 0.
0.565998 0.0690105 0.
0.567998 0.0690111 0.
0.569998 0.0690117 0.
0.571999 0.0690123 0.
0.573999 0.0690133 0.
0.575999 0.0690144 0.
0.577999 0.0690155 0.
0.579999 0.0690163 0.
0.581999 0.0690171 0.
0.583999 0.0690176 0.
0.586 0.0690177 0.
0.588 0.0690179 0.
0.59 0.0690179 0.
0.592 0.0690177 0.
0.594001 0.0690176 0.
0.596001 0.0690174 0.
0.598 0.0690172 0.
0.6 0.069017 0.
0.602001 0.069017 0.
0.604002 0.069017 0.
0.606002 0.069017 0.
0.608002 0.0690167 0.
0.610002 0.0690164 0.
0.612002 0.0690163 0.
0.614002 0.0690165 0.
0.616002 0.0690166 0.
0.618002 0.069016 0.
0.620002 0.069015 0.
0.622002 0.0690141 0.
0.624002 0.0690125 0.
0.626002 0.069011 0.
0.628002 0.0690095 0.
0.630002 0.069009 0.
0.632002 0.0690085 0.
0.634002 0.0690081 0.
0.636002 0.0690077 0.
0.638002 0.0690073 0.
0.640002 0.0690068 0.
0.642002 0.0690061 0.
0.644002 0.0690055 0.
0.646003 0.0690048 0.
0.648003 0.069004 0.
0.650003 0.0690033 0.
0.652003 0.0690032 0.
0.654003 0.069003 0.
0.656003 0.0690028 0.
0.658003 0.0690025 0.
0.660004 0.0690022 0.
0.662004 0.0690022 0.
0.664004 0.0690024 0.
0.666004 0.0690026 0.
0.668004 0.0690032 0.
0.670004 0.069004 0.
0.672005 0.0690047 0.
0.674005 0.0690051 0.
0.676005 0.0690054 0.
0.678005 0.0690058 0.
0.680006 0.0690064 0.
0.682007 0.069007 0.
0.684007 0.0690076 0.
0.686007 0.0690084 0.
0.688007 0.0690092 0.
0.690007 0.06901 0.
0.692007 0.0690107 0.
0.694008 0.0690115 0.
0.696008 0.0690119 0.
0.698008 0.0690121 0.
0.499993 0.0710124 0.
0.501993 0.0710111 0.
0.503993 0.0710098 0.
0.505994 0.0710087 0.
0.507994 0.0710083 0.
0.509994 0.071008 0.
0.511995 0.0710074 0.
0.513995 0.0710065 0.
0.515995 0.0710057 0.
0.517996 0.0710051 0.
0.519996 0.0710046 0.
0.521996 0.0710042 0.
0.523996 0.0710038 0.
0.525996 0.0710034 0.
0.527996 0.0710031 0.
0.529996 0.0710029 0.
0.531997 0.0710026 0.
0.533997 0.0710024 0.
0.535997 0.0710023 0.
0.537997 0.0710022 0.
0.539997 0.0710025 0.
0.541998 0.0710032 0.
0.543998 0.0710039 0.
0.545998 0.0710041 0.
0.547998 0.0710042 0.
0.549998 0.0710043 0.
0.551998 0.0710048 0.
0.553998 0.0710053 0.
0.555999 0.071006 0.
0.557999 0.0710073 0.
0.559999 0.0710086 0.
0.561999 0.0710095 0.
0.563999 0.0710101 0.
0.565998 0.0710107 0.
0.567998 0.0710112 0.
0.569999 0.0710117 0.
0.571999 0.0710122 0.
0.573999 0.0710134 0.
0.576 0.0710146 0.
0.578 0.0710158 0.
0.58 0.0710165 0.
0.582 0.0710173 0.
0.584 0.0710178 0.
0.586 0.071018 0.
0.588 0.0710181 0.
0.59 0.0710181 0.
0.592 0.0710179 0.
0.594001 0.0710178 0.
0.596001 0.0710176 0.
0.598001 0.0710174 0.
0.6 0.0710172 0.
0.602001 0.0710172 0.
0.604002 0.0710171 0.
0.606002 0.0710171 0.
0.608002 0.0710169 0.
0.610002 0.0710168 0.
0.612002 0.0710168 0.
0.614002 0.071017 0.
0.616002 0.0710172 0.
0.618002 0.0710166 0.
0.620002 0.0710156 0.
0.622002 0.0710146 0.
0.624002 0.0710129 0.
0.626002 0.0710112 0.
0.628001 0.0710096 0.
0.630002 0.0710092 0.
0.632002 0.0710087 0.
0.634002 0.0710082 0.
0.636002 0.0710079 0.
0.638002 0.0710075 0.
0.640002 0.0710069 0.
0.642002 0.0710062 0.
0.644002 0.0710055 0.
0.646002 0.0710047 0.
0.648003 0.071004 0.
0.650003 0.0710033 0.
0.652003 0.0710032 0.
0.654002 0.0710031 0.
0.656002 0.071003 0.
0.658003 0.0710026 0.
0.660003 0.0710022 0.
0.662004 0.0710021 0.
0.664004 0.0710024 0.
0.666003 0.0710026 0.
0.668004 0.0710031 0.
0.670004 0.0710038 0.
0.672004 0.0710044 0.
0.674004 0.0710049 0.
0.676004 0.0710053 0.
0.678005 0.0710057 0.
0.680005 0.0710063 0.
0.682006 0.0710069 0.
0.684006 0.0710075 0.
0.686006 0.0710082 0.
0.688006 0.071009 0.
0.690006 0.0710097 0.
0.692006 0.0710105 0.
0.694007 0.0710113 0.
0.696007 0.0710115 0.
0.698007 0.0710116 0.
0.499994 0.073013 0.
0.501994 0.0730113 0.
0.503995 0.0730098 0.
0.505995 0.0730086 0.
0.507996 0.0730083 0.
0.509996 0.0730081 0.
0.511996 0.0730076 0.
0.513997 0.0730067 0.
0.515997 0.0730058 0.
0.517997 0.0730052 0.
0.519997 0.0730046 0.
0.521998 0.0730041 0.
0.523997 0.0730037 0.
0.525997 0.0730033 0.
0.527997 0.0730029 0.
0.529997 0.0730027 0.
0.531998 0.0730025 0.
0.533998 0.0730023 0.
0.535998 0.0730024 0.
0.537998 0.0730024 0.
0.539998 0.0730026 0.
0.541998 0.0730031 0.
0.543998 0.0730036 0.
0.545998 0.0730038 0.
0.547998 0.0730039 0.
0.549998 0.073004 0.
0.551999 0.0730047 0.
0.553999 0.0730054 0.
0.555999 0.0730062 0.
0.557999 0.0730075 0.
0.559999 0.0730088 0.
0.561999 0.0730098 0.
0.563999 0.0730104 0.
0.565999 0.073011 0.
0.567999 0.0730115 0.
0.569999 0.0730119 0.
0.571999 0.0730124 0.
0.573999 0.0730136 0.
0.576 0.0730149 0.
0.578 0.0730161 0.
0.58 0.0730166 0.
0.582001 0.0730172 0.
0.584001 0.0730176 0.
0.586001 0.0730179 0.
0.588 0.0730181 0.
0.59 0.0730181 0.
0.592001 0.073018 0.
0.594001 0.0730179 0.
0.596001 0.0730178 0.
0.598001 0.0730177 0.
0.600001 0.0730175 0.
0.602001 0.0730174 0.
0.604002 0.0730172 0.
0.606002 0.0730171 0.
0.608002 0.0730171 0.
0.610002 0.0730172 0.
0.612002 0.0730173 0.
0.614002 0.0730174 0.
0.616002 0.0730175 0.
0.618002 0.0730169 0.
0.620002 0.073016 0.
0.622002 0.0730151 0.
0.624002 0.0730135 0.
0.626001 0.0730119 0.
0.628001 0.0730104 0.
0.630001 0.0730098 0.
0.632001 0.0730092 0.
0.634001 0.0730086 0.
0.636001 0.0730081 0.
0.638001 0.0730077 0.
0.640001 0.073007 0.
0.642001 0.0730061 0.
0.644001 0.0730052 0.
0.646002 0.0730045 0.
0.648002 0.0730039 0.
0.650002 0.0730032 0.
0.652002 0.0730032 0.
0.654002 0.0730031 0.
0.656002 0.0730029 0.
0.658002 0.0730027 0.
0.660002 0.0730024 0.
0.662003 0.0730023 0.
0.664003 0.0730026 0.
0.666003 0.0730028 0.
0.668003 0.0730031 0.
0.670003 0.0730034 0.
0.672003 0.0730038 0.
0.674003 0.0730043 0.
0.676003 0.0730049 0.
0.678003 0.0730055 0.
0.680004 0.0730061 0.
0.682004 0.0730067 0.
0.684005 0.0730074 0.
0.686005 0.073008 0.
0.688005 0.0730087 0.
0.690005 0.0730094 0.
0.692005 0.0730102 0.
0.694006 0.0730109 0.
0.696006 0.0730112 0.
0.698007 0.0730114 0.
0.499994 0.0750133 0.
0.501995 0.0750115 0.
0.503996 0.0750098 0.
0.505997 0.0750085 0.
0.507997 0.0750083 0.
0.509997 0.0750082 0.
0.511998 0.0750077 0.
0.513998 0.0750068 0.
0.515998 0.0750059 0.
0.517999 0.0750052 0.
0.519999 0.0750047 0.
0.521999 0.0750041 0.
0.523999 0.0750036 0.
0.525999 0.0750031 0.
0.527998 0.0750026 0.
0.529998 0.0750025 0.
0.531998 0.0750023 0.
0.533998 0.0750023 0.
0.535999 0.0750024 0.
0.537999 0.0750025 0.
0.539999 0.0750027 0.
0.541999 0.075003 0.
0.543999 0.0750032 0.
0.545999 0.0750034 0.
0.547999 0.0750036 0.
0.549999 0.0750038 0.
0.551999 0.0750046 0.
0.553999 0.0750055 0.
0.556 0.0750064 0.
0.558 0.0750078 0.
0.56 0.0750091 0.
0.562 0.0750101 0.
0.564 0.0750107 0.
0.566 0.0750113 0.
0.568 0.0750118 0.
0.57 0.0750121 0.
0.571999 0.0750125 0.
0.574 0.0750138 0.
0.576 0.0750151 0.
0.578001 0.0750163 0.
0.580001 0.0750167 0.
0.582001 0.0750172 0.
0.584002 0.0750175 0.
0.586001 0.0750178 0.
0.588001 0.075018 0.
0.590001 0.0750181 0.
0.592001 0.0750181 0.
0.594001 0.075018 0.
0.596001 0.075018 0.
0.598001 0.0750179 0.
0.600001 0.0750179 0.
0.602001 0.0750175 0.
0.604002 0.0750172 0.
0.606002 0.0750171 0.
0.608002 0.0750173 0.
0.610002 0.0750176 0.
0.612002 0.0750177 0.
0.614002 0.0750178 0.
0.616002 0.0750178 0.
0.618002 0.0750172 0.
0.620001 0.0750164 0.
0.622001 0.0750156 0.
0.624001 0.0750141 0.
0.626001 0.0750126 0.
0.628001 0.0750111 0.
0.63 0.0750104 0.
0.632 0.0750096 0.
0.634 0.075009 0.
0.636 0.0750084 0.
0.638 0.0750079 0.
0.64 0.0750071 0.
0.642 0.075006 0.
0.644001 0.0750049 0.
0.646001 0.0750043 0.
0.648001 0.0750038 0.
0.650002 0.0750032 0.
0.652001 0.0750031 0.
0.654001 0.075003 0.
0.656001 0.0750029 0.
0.658001 0.0750028 0.
0.660002 0.0750026 0.
0.662002 0.0750026 0.
0.664002 0.0750027 0.
0.666002 0.0750029 0.
0.668002 0.075003 0.
0.670002 0.0750031 0.
0.672002 0.0750031 0.
0.674002 0.0750038 0.
0.676002 0.0750045 0.
0.678002 0.0750053 0.
0.680003 0.0750059 0.
0.682003 0.0750066 0.
0.684003 0.0750072 0.
0.686003 0.0750078 0.
0.688003 0.0750084 0.
0.690004 0.0750091 0.
0.692004 0.0750099 0.
0.694005 0.0750106 0.
0.696006 0.075011 0.
0.698006 0.0750112 0.
0.499996 0.0770126 0.
0.501997 0.0770112 0.
0.503997 0.0770099 0.
0.505998 0.0770088 0.
0.507998 0.0770084 0.
0.509998 0.0770081 0.
0.511998 0.0770075 0.
0.513999 0.0770067 0.
0.515999 0.0770059 0.
0.517999 0.0770053 0.
0.519999 0.0770047 0.
0.522 0.0770041 0.
0.523999 0.0770035 0.
0.525999 0.077003 0.
0.527999 0.0770025 0.
0.529999 0.0770025 0.
0.531999 0.0770025 0.
0.533999 0.0770025 0.
0.535999 0.0770023 0.
0.537999 0.0770022 0.
0.539999 0.0770024 0.
0.541999 0.0770029 0.
0.543999 0.0770033 0.
0.545999 0.0770035 0.
0.547999 0.0770038 0.
0.549999 0.077004 0.
0.551999 0.0770049 0.
0.553999 0.0770058 0.
0.555999 0.0770068 0.
0.558 0.0770079 0.
0.56 0.0770091 0.
0.562 0.07701 0.
0.564 0.0770108 0.
0.566 0.0770115 0.
0.568 0.077012 0.
0.57 0.0770124 0.
0.572 0.0770127 0.
0.574 0.077014 0.
0.576001 0.0770153 0.
0.578001 0.0770166 0.
0.580001 0.077017 0.
0.582001 0.0770174 0.
0.584002 0.0770178 0.
0.586001 0.0770181 0.
0.588001 0.0770184 0.
0.590001 0.0770186 0.
0.592001 0.0770186 0.
0.594001 0.0770187 0.
0.596001 0.0770185 0.
0.598001 0.0770183 0.
0.600001 0.0770181 0.
0.602001 0.0770179 0.
0.604002 0.0770177 0.
0.606002 0.0770175 0.
0.608002 0.0770176 0.
0.610002 0.0770177 0.
0.612001 0.0770177 0.
0.614001 0.0770178 0.
0.616001 0.0770178 0.
0.618001 0.0770172 0.
0.620001 0.0770164 0.
0.622001 0.0770155 0.
0.624001 0.0770142 0.
0.626 0.0770128 0.
0.628 0.0770114 0.
0.63 0.0770108 0.
0.631999 0.0770102 0.
0.633999 0.0770095 0.
0.635999 0.0770089 0.
0.637999 0.0770083 0.
0.64 0.0770074 0.
0.642 0.0770064 0.
0.644 0.0770053 0.
0.646001 0.0770046 0.
0.648001 0.0770041 0.
0.650001 0.0770035 0.
0.652001 0.0770032 0.
0.654001 0.0770029 0.
0.656001 0.0770027 0.
0.658001 0.0770025 0.
0.660001 0.0770023 0.
0.662001 0.0770024 0.
0.664001 0.0770026 0.
0.666001 0.0770028 0.
0.668001 0.0770029 0.
0.670002 0.0770029 0.
0.672002 0.0770029 0.
0.674002 0.0770036 0.
0.676002 0.0770044 0.
0.678002 0.0770052 0.
0.680002 0.0770059 0.
0.682002 0.0770066 0.
0.684003 0.0770072 0.
0.686003 0.0770078 0.
0.688003 0.0770083 0.
0.690003 0.077009 0.
0.692003 0.0770096 0.
0.694004 0.0770103 0.
0.696004 0.0770104 0.
0.698005 0.0770104 0.
0.499998 0.0790118 0.
0.501999 0.079011 0.
0.503999 0.07901 0.
0.505999 0.0790091 0.
0.507999 0.0790085 0.
0.509999 0.079008 0.
0.511999 0.0790074 0.
0.513999 0.0790067 0.
0.516 0.079006 0.
0.518 0.0790053 0.
0.52 0.0790047 0.
0.522 0.0790041 0.
0.524 0.0790035 0.
0.526 0.0790029 0.
0.528 0.0790024 0.
0.53 0.0790025 0.
0.532 0.0790027 0.
0.534 0.0790026 0.
0.536 0.0790023 0.
0.537999 0.079002 0.
0.539999 0.0790021 0.
0.541999 0.0790027 0.
0.543999 0.0790033 0.
0.545999 0.0790037 0.
0.547999 0.0790039 0.
0.55 0.0790041 0.
0.551999 0.0790052 0.
0.553999 0.0790062 0.
0.555999 0.0790072 0.
0.557999 0.0790081 0.
0.56 0.079009 0.
0.562 0.0790099 0.
0.564 0.0790109 0.
0.566 0.0790118 0.
0.568 0.0790123 0.
0.570001 0.0790126 0.
0.572001 0.0790129 0.
0.574001 0.0790142 0.
0.576001 0.0790156 0.
0.578001 0.0790169 0.
0.580001 0.0790173 0.
0.582002 0.0790177 0.
0.584002 0.0790181 0.
0.586002 0.0790185 0.
0.588002 0.0790188 0.
0.590002 0.079019 0.
0.592002 0.0790191 0.
0.594002 0.0790193 0.
0.596002 0.079019 0.
0.598001 0.0790186 0.
0.600001 0.0790183 0.
0.602001 0.0790182 0.
0.604001 0.0790181 0.
0.606002 0.079018 0.
0.608001 0.0790179 0.
0.610001 0.0790178 0.
0.612001 0.0790178 0.
0.614001 0.0790178 0.
0.616001 0.0790178 0.
0.618001 0.0790172 0.
0.620001 0.0790164 0.
0.622001 0.0790155 0.
0.624 0.0790142 0.
0.626 0.0790129 0.
0.627999 0.0790117 0.
0.629999 0.0790112 0.
0.631999 0.0790107 0.
0.633999 0.0790101 0.
0.635999 0.0790094 0.
0.637999 0.0790086 0.
0.639999 0.0790077 0.
0.642 0.0790067 0.
0.644 0.0790057 0.
0.646001 0.079005 0.
0.648001 0.0790044 0.
0.650001 0.0790038 0.
0.652001 0.0790033 0.
0.654001 0.0790028 0.
0.656 0.0790024 0.
0.658001 0.0790023 0.
0.660001 0.0790021 0.
0.662001 0.0790022 0.
0.664001 0.0790025 0.
0.666001 0.0790028 0.
0.668001 0.0790028 0.
0.670001 0.0790028 0.
0.672002 0.0790027 0.
0.674001 0.0790035 0.
0.676001 0.0790043 0.
0.678001 0.0790052 0.
0.680002 0.0790059 0.
0.682002 0.0790066 0.
0.684002 0.0790072 0.
0.686002 0.0790077 0.
0.688002 0.0790082 0.
0.690002 0.0790088 0.
0.692002 0.0790094 0.
0.694003 0.07901 0.
0.696003 0.0790099 0.
0.698003 0.0790095 0.
0.5 0.0810116 0.
0.501999 0.0810108 0.
0.503999 0.0810099 0.
0.505999 0.0810091 0.
0.507999 0.0810084 0.
0.51 0.0810078 0.
0.512 0.0810072 0.
0.514 0.0810065 0.
0.516 0.0810059 0.
0.518 0.0810052 0.
0.520001 0.0810046 0.
0.522001 0.0810039 0.
0.524001 0.0810034 0.
0.526001 0.0810029 0.
0.528001 0.0810024 0.
0.530001 0.0810025 0.
0.532001 0.0810027 0.
0.534001 0.0810026 0.
0.536 0.0810023 0.
0.538 0.0810019 0.
0.54 0.0810021 0.
0.542 0.0810028 0.
0.544 0.0810035 0.
0.546 0.0810039 0.
0.548 0.0810041 0.
0.55 0.0810043 0.
0.552 0.0810054 0.
0.553999 0.0810064 0.
0.555999 0.0810074 0.
0.558 0.0810082 0.
0.56 0.081009 0.
0.562 0.0810099 0.
0.564 0.0810109 0.
0.566001 0.0810119 0.
0.568001 0.0810124 0.
0.570001 0.0810127 0.
0.572001 0.0810129 0.
0.574001 0.0810142 0.
0.576001 0.0810156 0.
0.578001 0.0810169 0.
0.580001 0.0810174 0.
0.582002 0.0810178 0.
0.584002 0.0810182 0.
0.586002 0.0810186 0.
0.588002 0.081019 0.
0.590002 0.0810192 0.
0.592002 0.0810194 0.
0.594002 0.0810195 0.
0.596002 0.0810192 0.
0.598001 0.0810188 0.
0.600001 0.0810185 0.
0.602001 0.0810185 0.
0.604001 0.0810185 0.
0.606001 0.0810184 0.
0.608001 0.0810183 0.
0.610001 0.0810181 0.
0.612001 0.081018 0.
0.614001 0.081018 0.
0.616001 0.081018 0.
0.618001 0.0810174 0.
0.620001 0.0810165 0.
0.622001 0.0810156 0.
0.624 0.0810144 0.
0.626 0.0810132 0.
0.627999 0.0810121 0.
0.629999 0.0810116 0.
0.631999 0.0810111 0.
0.633999 0.0810104 0.
0.635999 0.0810096 0.
0.637999 0.0810087 0.
0.639999 0.0810078 0.
0.641999 0.0810068 0.
0.644 0.0810058 0.
0.646 0.0810051 0.
0.648 0.0810045 0.
0.650001 0.0810039 0.
0.652 0.0810035 0.
0.654 0.081003 0.
0.656 0.0810026 0.
0.658 0.0810023 0.
0.66 0.0810021 0.
0.662 0.0810021 0.
0.664 0.0810024 0.
0.666 0.0810026 0.
0.668001 0.0810027 0.
0.670001 0.0810028 0.
0.672001 0.0810028 0.
0.674001 0.0810035 0.
0.676001 0.0810043 0.
0.678001 0.0810051 0.
0.680001 0.0810057 0.
0.682001 0.0810064 0.
0.684002 0.081007 0.
0.686001 0.0810075 0.
0.688001 0.081008 0.
0.690001 0.0810086 0.
0.692002 0.0810091 0.
0.694002 0.0810096 0.
0.696002 0.0810096 0.
0.698002 0.0810093 0.
0.499999 0.0830117 0.
0.501999 0.0830108 0.
0.504 0.0830097 0.
0.506 0.0830087 0.
0.508 0.0830081 0.
0.51 0.0830076 0.
0.512 0.083007 0.
0.514001 0.0830064 0.
0.516001 0.0830057 0.
0.518001 0.0830051 0.
0.520001 0.0830044 0.
0.522002 0.0830037 0.
0.524002 0.0830033 0.
0.526002 0.083003 0.
0.528002 0.0830027 0.
0.530002 0.0830026 0.
0.532002 0.0830025 0.
0.534002 0.0830024 0.
0.536001 0.0830023 0.
0.538001 0.0830021 0.
0.540001 0.0830024 0.
0.542001 0.0830031 0.
0.544001 0.0830038 0.
0.546 0.0830042 0.
0.548 0.0830044 0.
0.55 0.0830046 0.
0.552 0.0830056 0.
0.554 0.0830066 0.
0.556 0.0830075 0.
0.558 0.0830082 0.
0.56 0.083009 0.
0.562001 0.0830098 0.
0.564001 0.0830108 0.
0.566001 0.0830118 0.
0.568001 0.0830123 0.
0.570001 0.0830126 0.
0.572001 0.0830128 0.
0.574002 0.0830141 0.
0.576002 0.0830155 0.
0.578002 0.0830168 0.
0.580002 0.0830172 0.
0.582002 0.0830175 0.
0.584002 0.0830179 0.
0.586002 0.0830184 0.
0.588002 0.0830189 0.
0.590002 0.0830192 0.
0.592002 0.0830193 0.
0.594002 0.0830193 0.
0.596001 0.0830192 0.
0.598001 0.0830189 0.
0.600001 0.0830187 0.
0.602001 0.0830187 0.
0.604001 0.0830188 0.
0.606001 0.0830188 0.
0.608001 0.0830187 0.
0.610001 0.0830185 0.
0.612001 0.0830184 0.
0.614001 0.0830183 0.
0.616001 0.0830182 0.
0.618001 0.0830176 0.
0.620001 0.0830167 0.
0.622001 0.0830158 0.
0.624 0.0830147 0.
0.625999 0.0830136 0.
0.627999 0.0830126 0.
0.629999 0.0830119 0.
0.631999 0.0830113 0.
0.633999 0.0830105 0.
0.635998 0.0830095 0.
0.637998 0.0830085 0.
0.639999 0.0830075 0.
0.641999 0.0830066 0.
0.643999 0.0830056 0.
0.646 0.083005 0.
0.648 0.0830045 0.
0.65 0.083004 0.
0.652 0.0830037 0.
0.653999 0.0830034 0.
0.655999 0.083003 0.
0.657999 0.0830027 0.
0.659999 0.0830024 0.
0.662 0.0830023 0.
0.664 0.0830023 0.
0.666 0.0830024 0.
0.668 0.0830026 0.
0.67 0.0830029 0.
0.672 0.0830031 0.
0.674 0.0830037 0.
0.676 0.0830044 0.
0.678 0.083005 0.
0.68 0.0830054 0.
0.682001 0.0830059 0.
0.684001 0.0830064 0.
0.686001 0.0830071 0.
0.688001 0.0830078 0.
0.690001 0.0830083 0.
0.692001 0.0830088 0.
0.694002 0.0830092 0.
0.696002 0.0830094 0.
0.698001 0.0830097 0.
0.499999 0.0850118 0.
0.501999 0.0850107 0.
0.504 0.0850094 0.
0.506 0.0850083 0.
0.508 0.0850078 0.
0.510001 0.0850073 0.
0.512001 0.0850068 0.
0.514001 0.0850062 0.
0.516002 0.0850056 0.
0.518002 0.0850049 0.
0.520002 0.0850042 0.
0.522003 0.0850035 0.
0.524003 0.0850033 0.
0.526003 0.0850031 0.
0.528003 0.085003 0.
0.530003 0.0850027 0.
0.532003 0.0850024 0.
0.534002 0.0850022 0.
0.536002 0.0850022 0.
0.538002 0.0850023 0.
0.540001 0.0850027 0.
0.542001 0.0850034 0.
0.544001 0.0850041 0.
0.546001 0.0850045 0.
0.548001 0.0850047 0.
0.55 0.0850049 0.
0.552 0.0850058 0.
0.554 0.0850067 0.
0.556 0.0850075 0.
0.558 0.0850083 0.
0.560001 0.085009 0.
0.562001 0.0850098 0.
0.564002 0.0850107 0.
0.566002 0.0850117 0.
0.568002 0.0850122 0.
0.570002 0.0850125 0.
0.572002 0.0850128 0.
0.574002 0.085014 0.
0.576002 0.0850154 0.
0.578002 0.0850167 0.
0.580002 0.085017 0.
0.582002 0.0850173 0.
0.584002 0.0850177 0.
0.586002 0.0850183 0.
0.588002 0.0850189 0.
0.590002 0.0850192 0.
0.592002 0.0850192 0.
0.594002 0.0850192 0.
0.596001 0.0850191 0.
0.598001 0.085019 0.
0.6 0.0850189 0.
0.602001 0.085019 0.
0.604001 0.0850191 0.
0.606001 0.0850192 0.
0.608001 0.0850191 0.
0.610001 0.085019 0.
0.612001 0.0850189 0.
0.614001 0.0850187 0.
0.616001 0.0850185 0.
0.618001 0.0850178 0.
0.620001 0.0850169 0.
0.622001 0.085016 0.
0.624 0.085015 0.
0.625999 0.085014 0.
0.627999 0.0850131 0.
0.629999 0.0850123 0.
0.631999 0.0850115 0.
0.633999 0.0850105 0.
0.635998 0.0850094 0.
0.637998 0.0850083 0.
0.639998 0.0850073 0.
0.641999 0.0850064 0.
0.643999 0.0850054 0.
0.645999 0.0850049 0.
0.647999 0.0850045 0.
0.649999 0.0850041 0.
0.651999 0.0850039 0.
0.653999 0.0850037 0.
0.655999 0.0850035 0.
0.657999 0.0850031 0.
0.659999 0.0850027 0.
0.661999 0.0850024 0.
0.663999 0.0850023 0.
0.665999 0.0850022 0.
0.667999 0.0850025 0.
0.669999 0.0850029 0.
0.671998 0.0850034 0.
0.673999 0.0850039 0.
0.675999 0.0850045 0.
0.677999 0.0850049 0.
0.68 0.0850052 0.
0.682 0.0850054 0.
0.684 0.0850058 0.
0.686 0.0850067 0.
0.688001 0.0850075 0.
0.690001 0.0850081 0.
0.692001 0.0850084 0.
0.694001 0.0850087 0.
0.696001 0.0850093 0.
0.698 0.08501 0.
0.500001 0.0870115 0.
0.502001 0.0870105 0.
0.504001 0.0870094 0.
0.506001 0.0870085 0.
0.508001 0.087008 0.
0.510002 0.0870074 0.
0.512002 0.0870068 0.
0.514002 0.087006 0.
0.516002 0.0870052 0.
0.518002 0.0870047 0.
0.520002 0.0870042 0.
0.522003 0.0870038 0.
0.524002 0.0870035 0.
0.526002 0.0870033 0.
0.528002 0.087003 0.
0.530002 0.0870029 0.
0.532002 0.0870028 0.
0.534002 0.0870026 0.
0.536002 0.0870025 0.
0.538002 0.0870023 0.
0.540002 0.0870027 0.
0.542001 0.0870035 0.
0.544001 0.0870043 0.
0.546001 0.0870047 0.
0.548 0.087005 0.
0.55 0.0870052 0.
0.552 0.0870061 0.
0.554 0.087007 0.
0.556 0.0870079 0.
0.558 0.0870084 0.
0.560001 0.087009 0.
0.562001 0.0870096 0.
0.564001 0.0870105 0.
0.566002 0.0870113 0.
0.568002 0.0870119 0.
0.570002 0.0870124 0.
0.572002 0.0870129 0.
0.574002 0.0870141 0.
0.576002 0.0870153 0.
0.578001 0.0870165 0.
0.580001 0.0870169 0.
0.582002 0.0870174 0.
0.584002 0.0870179 0.
0.586002 0.0870184 0.
0.588002 0.0870189 0.
0.590002 0.0870192 0.
0.592002 0.0870194 0.
0.594002 0.0870195 0.
0.596002 0.0870193 0.
0.598001 0.0870191 0.
0.600001 0.0870188 0.
0.602001 0.087019 0.
0.604001 0.0870191 0.
0.606001 0.0870192 0.
0.608001 0.0870191 0.
0.610001 0.0870189 0.
0.612001 0.0870188 0.
0.614001 0.0870186 0.
0.616001 0.0870184 0.
0.618001 0.0870179 0.
0.620001 0.0870171 0.
0.622001 0.0870163 0.
0.624001 0.0870152 0.
0.626 0.087014 0.
0.627999 0.0870128 0.
0.629999 0.0870122 0.
0.631999 0.0870116 0.
0.633999 0.0870108 0.
0.635999 0.0870097 0.
0.637999 0.0870087 0.
0.639999 0.0870077 0.
0.641999 0.0870067 0.
0.644 0.0870058 0.
0.646 0.0870052 0.
0.647999 0.0870046 0.
0.649999 0.087004 0.
0.651999 0.0870038 0.
0.653999 0.0870036 0.
0.655998 0.0870034 0.
0.657998 0.087003 0.
0.659998 0.0870026 0.
0.661998 0.0870024 0.
0.663999 0.0870024 0.
0.665999 0.0870024 0.
0.667999 0.0870026 0.
0.669999 0.087003 0.
0.671999 0.0870034 0.
0.673999 0.0870039 0.
0.675999 0.0870045 0.
0.677999 0.087005 0.
0.679999 0.0870051 0.
0.682 0.0870052 0.
0.684 0.0870057 0.
0.686 0.0870067 0.
0.688 0.0870077 0.
0.69 0.0870082 0.
0.692 0.0870083 0.
0.694 0.0870083 0.
0.696 0.087009 0.
0.698 0.0870098 0.
0.500002 0.0890109 0.
0.502002 0.0890103 0.
0.504002 0.0890095 0.
0.506002 0.0890087 0.
0.508002 0.0890081 0.
0.510002 0.0890075 0.
0.512003 0.0890068 0.
0.514003 0.0890059 0.
0.516002 0.0890049 0.
0.518002 0.0890045 0.
0.520002 0.0890043 0.
0.522002 0.0890041 0.
0.524002 0.0890037 0.
0.526002 0.0890034 0.
0.528002 0.0890031 0.
0.530002 0.0890031 0.
0.532002 0.0890031 0.
0.534002 0.089003 0.
0.536002 0.0890027 0.
0.538002 0.0890024 0.
0.540002 0.0890027 0.
0.542001 0.0890036 0.
0.544001 0.0890044 0.
0.546 0.0890049 0.
0.548 0.0890053 0.
0.549999 0.0890056 0.
0.551999 0.0890065 0.
0.553999 0.0890074 0.
0.555999 0.0890082 0.
0.558 0.0890086 0.
0.56 0.089009 0.
0.562001 0.0890095 0.
0.564001 0.0890102 0.
0.566002 0.0890109 0.
0.568002 0.0890116 0.
0.570002 0.0890124 0.
0.572002 0.0890131 0.
0.574002 0.0890141 0.
0.576001 0.0890152 0.
0.578001 0.0890162 0.
0.580001 0.0890169 0.
0.582001 0.0890175 0.
0.584001 0.0890181 0.
0.586001 0.0890185 0.
0.588001 0.089019 0.
0.590002 0.0890193 0.
0.592002 0.0890195 0.
0.594002 0.0890197 0.
0.596002 0.0890195 0.
0.598002 0.0890191 0.
0.600001 0.0890188 0.
0.602001 0.0890189 0.
0.604001 0.0890191 0.
0.606001 0.0890192 0.
0.608001 0.089019 0.
0.610001 0.0890189 0.
0.612001 0.0890187 0.
0.614001 0.0890185 0.
0.616002 0.0890184 0.
0.618002 0.0890179 0.
0.620002 0.0890173 0.
0.622002 0.0890167 0.
0.624001 0.0890153 0.
0.626001 0.0890139 0.
0.628 0.0890126 0.
0.63 0.0890122 0.
0.632 0.0890118 0.
0.634 0.0890111 0.
0.636 0.0890101 0.
0.638 0.089009 0.
0.64 0.0890081 0.
0.642 0.0890071 0.
0.644 0.0890062 0.
0.646 0.0890054 0.
0.647999 0.0890046 0.
0.649999 0.0890039 0.
0.651999 0.0890037 0.
0.653998 0.0890035 0.
0.655998 0.0890033 0.
0.657998 0.0890029 0.
0.659998 0.0890026 0.
0.661998 0.0890024 0.
0.663999 0.0890025 0.
0.665999 0.0890026 0.
0.667999 0.0890028 0.
0.669999 0.0890031 0.
0.671999 0.0890034 0.
0.673999 0.0890039 0.
0.675999 0.0890045 0.
0.677999 0.089005 0.
0.679999 0.089005 0.
0.681999 0.0890051 0.
0.683999 0.0890055 0.
0.685999 0.0890067 0.
0.687999 0.0890079 0.
0.689999 0.0890083 0.
0.691999 0.0890081 0.
0.693999 0.0890079 0.
0.695999 0.0890087 0.
0.697999 0.0890097 0.
0.500004 0.0910112 0.
0.502003 0.0910104 0.
0.504003 0.0910094 0.
0.506003 0.0910086 0.
0.508003 0.091008 0.
0.510003 0.0910074 0.
0.512003 0.0910067 0.
0.514003 0.0910058 0.
0.516003 0.0910049 0.
0.518003 0.0910045 0.
0.520003 0.0910044 0.
0.522002 0.0910042 0.
0.524002 0.0910039 0.
0.526002 0.0910035 0.
0.528002 0.0910031 0.
0.530002 0.0910033 0.
0.532002 0.0910034 0.
0.534002 0.0910033 0.
0.536002 0.091003 0.
0.538002 0.0910027 0.
0.540002 0.0910031 0.
0.542001 0.0910039 0.
0.544 0.0910047 0.
0.546 0.0910051 0.
0.547999 0.0910054 0.
0.549999 0.0910058 0.
0.551999 0.0910066 0.
0.553999 0.0910074 0.
0.555999 0.0910081 0.
0.558 0.0910085 0.
0.56 0.0910088 0.
0.562 0.0910093 0.
0.564001 0.09101 0.
0.566001 0.0910107 0.
0.568001 0.0910115 0.
0.570001 0.0910123 0.
0.572002 0.0910131 0.
0.574001 0.091014 0.
0.576 0.091015 0.
0.578 0.0910159 0.
0.58 0.0910167 0.
0.582001 0.0910174 0.
0.584001 0.0910181 0.
0.586001 0.0910185 0.
0.588001 0.0910189 0.
0.590001 0.0910192 0.
0.592002 0.0910195 0.
0.594002 0.0910197 0.
0.596002 0.0910196 0.
0.598001 0.0910194 0.
0.600001 0.0910191 0.
0.602001 0.0910191 0.
0.604001 0.0910191 0.
0.606001 0.091019 0.
0.608001 0.0910189 0.
0.610001 0.0910188 0.
0.612001 0.0910186 0.
0.614001 0.0910184 0.
0.616002 0.0910181 0.
0.618002 0.0910177 0.
0.620002 0.0910171 0.
0.622002 0.0910165 0.
0.624002 0.0910152 0.
0.626001 0.0910139 0.
0.628001 0.0910127 0.
0.630001 0.0910122 0.
0.632 0.0910118 0.
0.634 0.0910111 0.
0.636 0.09101 0.
0.638 0.091009 0.
0.640001 0.091008 0.
0.642001 0.0910071 0.
0.644001 0.0910062 0.
0.646001 0.0910055 0.
0.648 0.0910047 0.
0.649999 0.091004 0.
0.651999 0.0910038 0.
0.653999 0.0910036 0.
0.655998 0.0910033 0.
0.657998 0.0910029 0.
0.659998 0.0910025 0.
0.661998 0.0910023 0.
0.663998 0.0910025 0.
0.665999 0.0910026 0.
0.667999 0.0910028 0.
0.669999 0.091003 0.
0.671999 0.0910032 0.
0.673999 0.0910038 0.
0.675999 0.0910044 0.
0.677999 0.0910049 0.
0.679999 0.091005 0.
0.681999 0.0910052 0.
0.683999 0.0910056 0.
0.685998 0.0910067 0.
0.687998 0.0910078 0.
0.689998 0.0910081 0.
0.691998 0.0910079 0.
0.693998 0.0910077 0.
0.695998 0.0910084 0.
0.697998 0.0910094 0.
0.500005 0.093012 0.
0.502004 0.0930107 0.
0.504004 0.0930093 0.
0.506004 0.0930081 0.
0.508004 0.0930076 0.
0.510004 0.0930071 0.
0.512004 0.0930065 0.
0.514004 0.0930058 0.
0.516004 0.0930051 0.
0.518003 0.0930047 0.
0.520003 0.0930045 0.
0.522003 0.0930043 0.
0.524003 0.0930039 0.
0.526002 0.0930035 0.
0.528002 0.0930032 0.
0.530002 0.0930033 0.
0.532002 0.0930035 0.
0.534002 0.0930036 0.
0.536002 0.0930035 0.
0.538002 0.0930035 0.
0.540001 0.0930038 0.
0.542001 0.0930044 0.
0.544 0.093005 0.
0.545999 0.0930053 0.
0.547999 0.0930055 0.
0.549998 0.0930057 0.
0.551999 0.0930063 0.
0.553999 0.093007 0.
0.555999 0.0930076 0.
0.557999 0.093008 0.
0.56 0.0930085 0.
0.562 0.0930092 0.
0.564 0.09301 0.
0.566 0.0930108 0.
0.568 0.0930116 0.
0.57 0.0930122 0.
0.572 0.0930129 0.
0.574 0.0930138 0.
0.576 0.0930147 0.
0.578 0.0930156 0.
0.58 0.0930164 0.
0.582 0.0930172 0.
0.584001 0.0930178 0.
0.586001 0.0930183 0.
0.588001 0.0930187 0.
0.590001 0.0930191 0.
0.592001 0.0930193 0.
0.594002 0.0930195 0.
0.596002 0.0930196 0.
0.598001 0.0930198 0.
0.600001 0.0930199 0.
0.602001 0.0930195 0.
0.604001 0.0930191 0.
0.606001 0.0930188 0.
0.608001 0.0930187 0.
0.610001 0.0930186 0.
0.612001 0.0930184 0.
0.614001 0.0930181 0.
0.616001 0.0930177 0.
0.618002 0.0930172 0.
0.620002 0.0930165 0.
0.622002 0.0930158 0.
0.624002 0.093015 0.
0.626002 0.0930141 0.
0.628001 0.0930132 0.
0.630001 0.0930124 0.
0.632001 0.0930116 0.
0.634001 0.0930107 0.
0.636001 0.0930096 0.
0.638001 0.0930085 0.
0.640001 0.0930076 0.
0.642002 0.0930068 0.
0.644002 0.093006 0.
0.646001 0.0930054 0.
0.648001 0.0930048 0.
0.65 0.0930042 0.
0.651999 0.093004 0.
0.653999 0.0930037 0.
0.655999 0.0930034 0.
0.657998 0.0930029 0.
0.659998 0.0930024 0.
0.661998 0.0930022 0.
0.663998 0.0930024 0.
0.665998 0.0930025 0.
0.667998 0.0930027 0.
0.669998 0.0930028 0.
0.671998 0.093003 0.
0.673998 0.0930035 0.
0.675998 0.0930041 0.
0.677998 0.0930047 0.
0.679998 0.0930051 0.
0.681998 0.0930055 0.
0.683998 0.093006 0.
0.685998 0.0930066 0.
0.687998 0.0930072 0.
0.689998 0.0930075 0.
0.691998 0.0930075 0.
0.693998 0.0930075 0.
0.695998 0.0930082 0.
0.697998 0.093009 0.
0.500006 0.0950127 0.
0.502006 0.095011 0.
0.504005 0.0950092 0.
0.506005 0.0950077 0.
0.508005 0.0950072 0.
0.510005 0.0950067 0.
0.512005 0.0950063 0.
0.514005 0.0950058 0.
0.516005 0.0950053 0.
0.518004 0.095005 0.
0.520004 0.0950047 0.
0.522003 0.0950043 0.
0.524003 0.0950039 0.
0.526003 0.0950035 0.
0.528003 0.0950032 0.
0.530003 0.0950034 0.
0.532002 0.0950036 0.
0.534002 0.0950038 0.
0.536002 0.095004 0.
0.538001 0.0950042 0.
0.540001 0.0950045 0.
0.542 0.0950049 0.
0.543999 0.0950054 0.
0.545999 0.0950055 0.
0.547999 0.0950056 0.
0.549998 0.0950056 0.
0.551999 0.0950061 0.
0.553999 0.0950065 0.
0.555999 0.095007 0.
0.557999 0.0950076 0.
0.56 0.0950082 0.
0.562 0.095009 0.
0.563999 0.09501 0.
0.565999 0.095011 0.
0.567999 0.0950116 0.
0.569999 0.0950122 0.
0.571999 0.0950127 0.
0.573999 0.0950135 0.
0.575999 0.0950144 0.
0.577999 0.0950152 0.
0.579999 0.095016 0.
0.582 0.0950169 0.
0.584 0.0950176 0.
0.586 0.0950181 0.
0.588 0.0950186 0.
0.590001 0.0950189 0.
0.592001 0.0950191 0.
0.594001 0.0950192 0.
0.596001 0.0950197 0.
0.598001 0.0950202 0.
0.6 0.0950207 0.
0.602 0.0950199 0.
0.604001 0.0950191 0.
0.606001 0.0950185 0.
0.608 0.0950185 0.
0.61 0.0950184 0.
0.612001 0.0950182 0.
0.614001 0.0950178 0.
0.616001 0.0950173 0.
0.618001 0.0950167 0.
0.620002 0.0950159 0.
0.622002 0.0950152 0.
0.624002 0.0950147 0.
0.626002 0.0950143 0.
0.628002 0.0950137 0.
0.630002 0.0950126 0.
0.632002 0.0950115 0.
0.634002 0.0950103 0.
0.636002 0.0950092 0.
0.638002 0.095008 0.
0.640002 0.0950071 0.
0.642002 0.0950065 0.
0.644002 0.0950058 0.
0.646002 0.0950054 0.
0.648001 0.0950049 0.
0.650001 0.0950045 0.
0.652 0.0950042 0.
0.654 0.0950038 0.
0.655999 0.0950034 0.
0.657999 0.0950028 0.
0.659999 0.0950023 0.
0.661998 0.0950021 0.
0.663998 0.0950023 0.
0.665997 0.0950025 0.
0.667998 0.0950026 0.
0.669998 0.0950026 0.
0.671998 0.0950027 0.
0.673998 0.0950033 0.
0.675998 0.0950039 0.
0.677998 0.0950046 0.
0.679998 0.0950052 0.
0.681998 0.0950058 0.
0.683997 0.0950063 0.
0.685997 0.0950065 0.
0.687997 0.0950067 0.
0.689998 0.0950069 0.
0.691998 0.0950072 0.
0.693998 0.0950074 0.
0.695998 0.095008 0.
0.697998 0.0950086 0.
0.500007 0.0970126 0.
0.502007 0.097011 0.
0.504007 0.0970094 0.
0.506007 0.0970081 0.
0.508006 0.0970076 0.
0.510006 0.0970072 0.
0.512006 0.0970067 0.
0.514006 0.0970061 0.
0.516005 0.0970055 0.
0.518005 0.097005 0.
0.520004 0.0970047 0.
0.522003 0.0970044 0.
0.524003 0.097004 0.
0.526003 0.0970037 0.
0.528003 0.0970034 0.
0.530002 0.0970036 0.
0.532002 0.0970037 0.
0.534002 0.0970039 0.
0.536001 0.0970043 0.
0.538001 0.0970047 0.
0.540001 0.0970049 0.
0.542 0.097005 0.
0.544 0.0970052 0.
0.545999 0.0970054 0.
0.547999 0.0970057 0.
0.549999 0.0970059 0.
0.551999 0.0970063 0.
0.553999 0.0970066 0.
0.555999 0.097007 0.
0.557999 0.0970075 0.
0.559999 0.0970081 0.
0.561999 0.0970089 0.
0.563999 0.0970099 0.
0.565999 0.0970109 0.
0.567999 0.0970115 0.
0.569999 0.097012 0.
0.571999 0.0970124 0.
0.573999 0.0970132 0.
0.575999 0.0970139 0.
0.577999 0.0970147 0.
0.579999 0.0970155 0.
0.581999 0.0970163 0.
0.584 0.097017 0.
0.586 0.0970176 0.
0.588001 0.0970181 0.
0.590001 0.0970186 0.
0.592001 0.0970189 0.
0.594002 0.0970192 0.
0.596001 0.0970194 0.
0.598001 0.0970197 0.
0.600001 0.0970199 0.
0.602001 0.0970195 0.
0.604001 0.0970191 0.
0.606001 0.0970188 0.
0.608001 0.0970185 0.
0.610001 0.0970183 0.
0.612001 0.0970179 0.
0.614002 0.0970173 0.
0.616002 0.0970167 0.
0.618002 0.0970162 0.
0.620002 0.0970156 0.
0.622003 0.0970151 0.
0.624003 0.0970147 0.
0.626003 0.0970142 0.
0.628002 0.0970137 0.
0.630003 0.0970125 0.
0.632003 0.0970112 0.
0.634003 0.0970101 0.
0.636003 0.0970093 0.
0.638003 0.0970084 0.
0.640003 0.0970077 0.
0.642003 0.0970069 0.
0.644002 0.0970062 0.
0.646002 0.0970058 0.
0.648002 0.0970055 0.
0.650001 0.0970051 0.
0.652001 0.0970047 0.
0.654 0.0970042 0.
0.656 0.0970038 0.
0.657999 0.0970034 0.
0.659999 0.097003 0.
0.661998 0.0970027 0.
0.663998 0.0970026 0.
0.665998 0.0970026 0.
0.667998 0.0970026 0.
0.669998 0.0970026 0.
0.671998 0.0970027 0.
0.673998 0.0970033 0.
0.675998 0.0970039 0.
0.677998 0.0970045 0.
0.679997 0.0970052 0.
0.681997 0.097006 0.
0.683997 0.0970065 0.
0.685997 0.0970065 0.
0.687997 0.0970066 0.
0.689998 0.0970068 0.
0.691997 0.0970071 0.
0.693997 0.0970074 0.
0.695997 0.097008 0.
0.697997 0.0970087 0.
0.500008 0.0990124 0.
0.502008 0.099011 0.
0.504008 0.0990097 0.
0.506008 0.0990085 0.
0.508008 0.0990081 0.
0.510007 0.0990077 0.
0.512007 0.0990072 0.
0.514006 0.0990064 0.
0.516006 0.0990056 0.
0.518005 0.0990051 0.
0.520005 0.0990047 0.
0.522004 0.0990044 0.
0.524003 0.0990041 0.
0.526003 0.0990038 0.
0.528002 0.0990036 0.
0.530002 0.0990037 0.
0.532002 0.0990038 0.
0.534002 0.0990041 0.
0.536001 0.0990046 0.
0.538001 0.0990052 0.
0.54 0.0990053 0.
0.542 0.0990052 0.
0.544 0.099005 0.
0.546 0.0990053 0.
0.548 0.0990058 0.
0.55 0.0990062 0.
0.552 0.0990064 0.
0.553999 0.0990066 0.
0.555999 0.0990069 0.
0.557999 0.0990075 0.
0.559999 0.099008 0.
0.561999 0.0990087 0.
0.563999 0.0990098 0.
0.565999 0.0990108 0.
0.567999 0.0990114 0.
0.569998 0.0990118 0.
0.571998 0.0990122 0.
0.573998 0.0990128 0.
0.575998 0.0990135 0.
0.577998 0.0990142 0.
0.579999 0.099015 0.
0.581999 0.0990157 0.
0.584 0.0990164 0.
0.586 0.0990171 0.
0.588001 0.0990177 0.
0.590001 0.0990183 0.
0.592002 0.0990187 0.
0.594002 0.0990192 0.
0.596002 0.0990192 0.
0.598001 0.0990191 0.
0.600001 0.099019 0.
0.602001 0.0990191 0.
0.604001 0.0990192 0.
0.606002 0.0990191 0.
0.608002 0.0990186 0.
0.610002 0.0990182 0.
0.612002 0.0990176 0.
0.614002 0.0990168 0.
0.616003 0.0990161 0.
0.618003 0.0990156 0.
0.620003 0.0990153 0.
0.622003 0.099015 0.
0.624003 0.0990146 0.
0.626003 0.0990142 0.
0.628003 0.0990137 0.
0.630003 0.0990124 0.
0.632003 0.099011 0.
0.634004 0.0990099 0.
0.636004 0.0990094 0.
0.638004 0.0990089 0.
0.640004 0.0990082 0.
0.642003 0.0990074 0.
0.644003 0.0990065 0.
0.646002 0.0990062 0.
0.648002 0.099006 0.
0.650002 0.0990058 0.
0.652001 0.0990052 0.
0.654001 0.0990046 0.
0.656 0.0990041 0.
0.658 0.0990039 0.
0.659999 0.0990036 0.
0.661999 0.0990033 0.
0.663998 0.099003 0.
0.665998 0.0990027 0.
0.667998 0.0990026 0.
0.669997 0.0990027 0.
0.671997 0.0990028 0.
0.673997 0.0990033 0.
0.675997 0.0990038 0.
0.677997 0.0990044 0.
0.679997 0.0990052 0.
0.681997 0.0990061 0.
0.683996 0.0990066 0.
0.685997 0.0990066 0.
0.687997 0.0990065 0.
0.689997 0.0990067 0.
0.691997 0.0990071 0.
0.693997 0.0990075 0.
0.695997 0.0990081 0.
0.697997 0.0990088 0.
CELLS 5000 10000
1 0
1 1
1 2
1 3
1 4
1 5
1 6
1 7
1 8
1 9
1 10
1 11
1 12
1 13
1 14
1 15
1 16
1 17
1 18
1 19
1 20
1 21
1 22
1 23
1 24
1 25
1 26
1 27
1 28
1 29
1 30
1 31
1 32
1 33
1 34
1 35
1 36
1 37
1 38
1 39
1 40
1 41
1 42
1 43
1 44
1 45
1 46
1 47
1 48
1 49
1 50
1 51
1 52
1 53
1 54
1 55
1 56
1 57
1 58
1 59
1 60
1 61
1 62
1 63
1 64
1 65
1 66
1 67
1 68
1 69
1 70
1 71
1 72
1 73
1 74
1 75
1 76
1 77
1 78
1 79
1 80
1 81
1 82
1 83
1 84
1 85
1 86
1 87
1 88
1 89
1 90
1 91
1 92
1 93
1 94
1 95
1 96
1 97
1 98
1 99
1 100
1 101
1 102
1 103
1 104
1 105
1 106
1 107
1 108
1 109
1 110
1 111
1 112
1 113
1 114
1 115
1 116
1 117
1 118
1 119
1 120
1 121
1 122
1 123
1 124
1 125
1 126
1 127
1 128
1 129
1 130
1 131
1 132
1 133
1 134
1 135
1 136
1 137
1 138
1 139
1 140
1 141
1 142
1 143
1 144
1 145
1 146
1 147
1 148
1 149
1 150
1 151
1 152
1 153
1 154
1 155
1 156
1 157
1 158
1 159
1 160
1 161
1 162
1 163
1 164
1 165
1 166
1 167
1 168
1 169
1 170
1 171
1 172
1 173
1 174
1 175
1 176
1 177
1 178
1 179
1 180
1 181
1 182
1 183
1 184
1 185
1 186
1 187
1 188
1 189
1 190
1 191
1 192
1 193
1 194
1 195
1 196
1 197
1 198
1 199
1 200
1 201
1 202
1 203
1 204
1 205
1 206
1 207
1 208
1 209
1 210
1 211
1 212
1 213
1 214
1 215
1 216
1 217
1 218
1 219
1 220
1 221
1 222
1 223
1 224
1 225
1 226
1 227
1 228
1 229
1 230
1 231
1 232
1 233
1 234
1 235
1 236
1 237
1 238
1 239
1 240
1 241
1 242
1 243
1 244
1 245
1 246
1 247
1 248
1 249
1 250
1 251
1 252
1 253
1 254
1 255
1 256
1 257
1 258
1 259
1 260
1 261
1 262
1 263
1 264
1 265
1 266
1 267
1 268
1 269
1 270
1 271
1 272
1 273
1 274
1 275
1 276
1 277
1 278
1 279
1 280
1 281
1 282
1 283
1 284
1 285
1 286
1 287
1 288
1 289
1 290
1 291
1 292
1 293
1 294
1 295
1 296
1 297
1 298
1 299
1 300
1 301
1 302
1 303
1 304
1 305
1 306
1 307
1 308
1 309
1 310
1 311
1 312
1 313
1 314
1 315
1 316
1 317
1 318
1 319
1 320
1 321
1 322
1 323
1 324
1 325
1 326
1 327
1 328
1 329
1 330
1 331
1 332
1 333
1 334
1 335
1 336
1 337
1 338
1 339
1 340
1 341
1 342
1 343
1 344
1 345
1 346
1 347
1 348
1 349
1 350
1 351
1 352
1 353
1 354
1 355
1 356
1 357
1 358
1 359
1 360
1 361
1 362
1 363
1 364
1 365
1 366
1 367
1 368
1 369
1 370
1 371
1 372
1 373
1 374
1 375
1 376
1 377
1 378
1 379
1 380
1 381
1 382
1 383
1 384
1 385
1 386
1 387
1 388
1 389
1 390
1 391
1 392
1 393
1 394
1 395
1 396
1 397
1 398
1 399
1 400
1 401
1 402
1 403
1 404
1 405
1 406
1 407
1 408
1 409
1 410
1 411
1 412
1 413
1 414
1 415
1 416
1 417
1 418
1 419
1 420
1 421
1 422
1 423
1 424
1 425
1 426
1 427
1 428
1 429
1 430
1 431
1 432
1 433
1 434
1 435
1 436
1 437
1 438
1 439
1 440
1 441
1 442
1 443
1 444
1 445
1 446
1 447
1 448
1 449
1 450
1 451
1 452
1 453
1 454
1 455
1 456
1 457
1 458
1 459
1 460
1 461
1 462
1 463
1 464
1 465
1 466
1 467
1 468
1 469
1 470
1 471
1 472
1 473
1 474
1 475
1 476
1 477
1 478
1 479
1 480
1 481
1 482
1 483
1 484
1 485
1 486
1 487
1 488
1 489
1 490
1 491
1 492
1 493
1 494
1 495
1 496
1 497
1 498
1 499
1 500
1 501
1 502
1 503
1 504
1 505
1 506
1 507
1 508
1 509
1 510
1 511
1 512
1 513
1 514
1 515
1 516
1 517
1 518
1 519
1 520
1 521
1 522
1 523
1 524
1 525
1 526
1 527
1 528
1 529
1 530
1 531
1 532
1 533
1 534
1 535
1 536
1 537
1 538
1 539
1 540
1 541
1 542
1 543
1 544
1 545
1 546
1 547
1 548
1 549
1 550
1 551
1 552
1 553
1 554
1 555
1 556
1 557
1 558
1 559
1 560
1 561
1 562
1 563
1 564
1 565
1 566
1 567
1 568
1 569
1 570
1 571
1 572
1 573
1 574
1 575
1 576
1 577
1 578
1 579
1 580
1 581
1 582
1 583
1 584
1 585
1 586
1 587
1 588
1 589
1 590
1 591
1 592
1 593
1 594
1 595
1 596
1 597
1 598
1 599
1 600
1 601
1 602
1 603
1 604
1 605
1 606
1 607
1 608
1 609
1 610
1 611
1 612
1 613
1 614
1 615
1 616
1 617
1 618
1 619
1 620
1 621
1 622
1 623
1 624
1 625
1 626
1 627
1 628
1 629
1 630
1 631
1 632
1 633
1 634
1 635
1 636
1 637
1 638
1 639
1 640
1 641
1 642
1 643
1 644
1 645
1 646
1 647
1 648
1 649
1 650
1 651
1 652
1 653
1 654
1 655
1 656
1 657
1 658
1 659
1 660
1 661
1 662
1 663
1 664
1 665
1 666
1 667
1 668
1 669
1 670
1 671
1 672
1 673
1 674
1 675
1 676
1 677
1 678
1 679
1 680
1 681
1 682
1 683
1 684
1 685
1 686
1 687
1 688
1 689
1 690
1 691
1 692
1 693
1 694
1 695
1 696
1 697
1 698
1 699
1 700
1 701
1 702
1 703
1 704
1 705
1 706
1 707
1 708
1 709
1 710
1 711
1 712
1 713
1 714
1 715
1 716
1 717
1 718
1 719
1 720
1 721
1 722
1 723
1 724
1 725
1 726
1 727
1 728
1 729
1 730
1 731
1 732
1 733
1 734
1 735
1 736
1 737
1 738
1 739
1 740
1 741
1 742
1 743
1 744
1 745
1 746
1 747
1 748
1 749
1 750
1 751
1 752
1 753
1 754
1 755
1 756
1 757
1 758
1 759
1 760
1 761
1 762
1 763
1 764
1 765
1 766
1 767
1 768
1 769
1 770
1 771
1 772
1 773
1 774
1 775
1 776
1 777
1 778
1 779
1 780
1 781
1 782
1 783
1 784
1 785
1 786
1 787
1 788
1 789
1 790
1 791
1 792
1 793
1 794
1 795
1 796
1 797
1 798
1 799
1 800
1 801
1 802
1 803
1 804
1 805
1 806
1 807
1 808
1 809
1 810
1 811
1 812
1 813
1 814
1 815
1 816
1 817
1 818
1 819
1 820
1 821
1 822
1 823
1 824
1 825
1 826
1 827
1 828
1 829
1 830
1 831
1 832
1 833
1 834
1 835
1 836
1 837
1 838
1 839
1 840
1 841
1 842
1 843
1 844
1 845
1 846
1 847
1 848
1 849
1 850
1 851
1 852
1 853
1 854
1 855
1 856
1 857
1 858
1 859
1 860
1 861
1 862
1 863
1 864
1 865
1 866
1 867
1 868
1 869
1 870
1 871
1 872
1 873
1 874
1 875
1 876
1 877
1 878
1 879
1 880
1 881
1 882
1 883
1 884
1 885
1 886
1 887
1 888
1 889
1 890
1 891
1 892
1 893
1 894
1 895
1 896
1 897
1 898
1 899
1 900
1 901
1 902
1 903
1 904
1 905
1 906
1 907
1 908
1 909
1 910
1 911
1 912
1 913
1 914
1 915
1 916
1 917
1 918
1 919
1 920
1 921
1 922
1 923
1 924
1 925
1 926
1 927
1 928
1 929
1 930
1 931
1 932
1 933
1 934
1 935
1 936
1 937
1 938
1 939
1 940
1 941
1 942
1 943
1 944
1 945
1 946
1 947
1 948
1 949
1 950
1 951
1 952
1 953
1 954
1 955
1 956
1 957
1 958
1 959
1 960
1 961
1 962
1 963
1 964
1 965
1 966
1 967
1 968
1 969
1 970
1 971
1 972
1 973
1 974
1 975
1 976
1 977
1 978
1 979
1 980
1 981
1 982
1 983
1 984
1 985
1 986
1 987
1 988
1 989
1 990
1 991
1 992
1 993
1 994
1 995
1 996
1 997
1 998
1 999
1 1000
1 1001
1 1002
1 1003
1 1004
1 1005
1 1006
1 1007
1 1008
1 1009
1 1010
1 1011
1 1012
1 1013
1 1014
1 1015
1 1016
1 1017
1 1018
1 1019
1 1020
1 1021
1 1022
1 1023
1 1024
1 1025
1 1026
1 1027
1 1028
1 1029
1 1030
1 1031
1 1032
1 1033
1 1034
1 1035
1 1036
1 1037
1 1038
1 1039
1 1040
1 1041
1 1042
1 1043
1 1044
1 1045
1 1046
1 1047
1 1048
1 1049
1 1050
1 1051
1 1052
1 1053
1 1054
1 1055
1 1056
1 1057
1 1058
1 1059
1 1060
1 1061
1 1062
1 1063
1 1064
1 1065
1 1066
1 1067
1 1068
1 1069
1 1070
1 1071
1 1072
1 1073
1 1074
1 1075
1 1076
1 1077
1 1078
1 1079
1 1080
1 1081
1 1082
1 1083
1 1084
1 1085
1 1086
1 1087
1 1088
1 1089
1 1090
1 1091
1 1092
1 1093
1 1094
1 1095
1 1096
1 1097
1 1098
1 1099
1 1100
1 1101
1 1102
1 1103
1 1104
1 1105
1 1106
1 1107
1 1108
1 1109
1 1110
1 1111
1 1112
1 1113
1 1114
1 1115
1 1116
1 1117
1 1118
1 1119
1 1120
1 1121
1 1122
1 1123
1 1124
1 1125
1 1126
1 1127
1 1128
1 1129
1 1130
1 1131
1 1132
1 1133
1 1134
1 1135
1 1136
1 1137
1 1138
1 1139
1 1140
1 1141
1 1142
1 1143
1 1144
1 1145
1 1146
1 1147
1 1148
1 1149
1 1150
1 1151
1 1152
1 1153
1 1154
1 1155
1 1156
1 1157
1 1158
1 1159
1 1160
1 1161
1 1162
1 1163
1 1164
1 1165
1 1166
1 1167
1 1168
1 1169
1 1170
1 1171
1 1172
1 1173
1 1174
1 1175
1 1176
1 1177
1 1178
1 1179
1 1180
1 1181
1 1182
1 1183
1 1184
1 1185
1 1186
1 1187
1 1188
1 1189
1 1190
1 1191
1 1192
1 1193
1 1194
1 1195
1 1196
1 1197
1 1198
1 1199
1 1200
1 1201
1 1202
1 1203
1 1204
1 1205
1 1206
1 1207
1 1208
1 1209
1 1210
1 1211
1 1212
1 1213
1 1214
1 1215
1 1216
1 1217
1 1218
1 1219
1 1220
1 1221
1 1222
1 1223
1 1224
1 1225
1 1226
1 1227
1 1228
1 1229
1 1230
1 1231
1 1232
1 1233
1 1234
1 1235
1 1236
1 1237
1 1238
1 1239
1 1240
1 1241
1 1242
1 1243
1 1244
1 1245
1 1246
1 1247
1 1248
1 1249
1 1250
1 1251
1 1252
1 1253
1 1254
1 1255
1 1256
1 1257
1 1258
1 1259
1 1260
1 1261
1 1262
1 1263
1 1264
1 1265
1 1266
1 1267
1 1268
1 1269
1 1270
1 1271
1 1272
1 1273
1 1274
1 1275
1 1276
1 1277
1 1278
1 1279
1 1280
1 1281
1 1282
1 1283
1 1284
1 1285
1 1286
1 1287
1 1288
1 1289
1 1290
1 1291
1 1292
1 1293
1 1294
1 1295
1 1296
1 1297
1 1298
1 1299
1 1300
1 1301
1 1302
1 1303
1 1304
1 1305
1 1306
1 1307
1 1308
1 1309
1 1310
1 1311
1 1312
1 1313
1 1314
1 1315
1 1316
1 1317
1 1318
1 1319
1 1320
1 1321
1 1322
1 1323
1 1324
1 1325
1 1326
1 1327
1 1328
1 1329
1 1330
1 1331
1 1332
1 1333
1 1334
1 1335
1 1336
1 1337
1 1338
1 1339
1 1340
1 1341
1 1342
1 1343
1 1344
1 1345
1 1346
1 1347
1 1348
1 1349
1 1350
1 1351
1 1352
1 1353
1 1354
1 1355
1 1356
1 1357
1 1358
1 1359
1 1360
1 1361
1 1362
1 1363
1 1364
1 1365
1 1366
1 1367
1 1368
1 1369
1 1370
1 1371
1 1372
1 1373
1 1374
1 1375
1 1376
1 1377
1 1378
1 1379
1 1380
1 1381
1 1382
1 1383
1 1384
1 1385
1 1386
1 1387
1 1388
1 1389
1 1390
1 1391
1 1392
1 1393
1 1394
1 1395
1 1396
1 1397
1 1398
1 1399
1 1400
1 1401
1 1402
1 1403
1 1404
1 1405
1 1406
1 1407
1 1408
1 1409
1 1410
1 1411
1 1412
1 1413
1 1414
1 1415
1 1416
1 1417
1 1418
1 1419
1 1420
1 1421
1 1422
1 1423
1 1424
1 1425
1 1426
1 1427
1 1428
1 1429
1 1430
1 1431
1 1432
1 1433
1 1434
1 1435
1 1436
1 1437
1 1438
1 1439
1 1440
1 1441
1 1442
1 1443
1 1444
1 1445
1 1446
1 1447
1 1448
1 1449
1 1450
1 1451
1 1452
1 1453
1 1454
1 1455
1 1456
1 1457
1 1458
1 1459
1 1460
1 1461
1 1462
1 1463
1 1464
1 1465
1 1466
1 1467
1 1468
1 1469
1 1470
1 1471
1 1472
1 1473
1 1474
1 1475
1 1476
1 1477
1 1478
1 1479
1 1480
1 1481
1 1482
1 1483
1 1484
1 1485
1 1486
1 1487
1 1488
1 1489
1 1490
1 1491
1 1492
1 1493
1 1494
1 1495
1 1496
1 1497
1 1498
1 1499
1 1500
1 1501
1 1502
1 1503
1 1504
1 1505
1 1506
1 1507
1 1508
1 1509
1 1510
1 1511
1 1512
1 1513
1 1514
1 1515
1 1516
1 1517
1 1518
1 1519
1 1520
1 1521
1 1522
1 1523
1 1524
1 1525
1 1526
1 1527
1 1528
1 1529
1 1530
1 1531
1 1532
1 1533
1 1534
1 1535
1 1536
1 1537
1 1538
1 1539
1 1540
1 1541
1 1542
1 1543
1 1544
1 1545
1 1546
1 1547
1 1548
1 1549
1 1550
1 1551
1 1552
1 1553
1 1554
1 1555
1 1556
1 1557
1 1558
1 1559
1 1560
1 1561
1 1562
1 1563
1 1564
1 1565
1 1566
1 1567
1 1568
1 1569
1 1570
1 1571
1 1572
1 1573
1 1574
1 1575
1 1576
1 1577
1 1578
1 1579
1 1580
1 1581
1 1582
1 1583
1 1584
1 1585
1 1586
1 1587
1 1588
1 1589
1 1590
1 1591
1 1592
1 1593
1 1594
1 1595
1 1596
1 1597
1 1598
1 1599
1 1600
1 1601
1 1602
1 1603
1 1604
1 1605
1 1606
1 1607
1 1608
1 1609
1 1610
1 1611
1 1612
1 1613
1 1614
1 1615
1 1616
1 1617
1 1618
1 1619
1 1620
1 1621
1 1622
1 1623
1 1624
1 1625
1 1626
1 1627
1 1628
1 1629
1 1630
1 1631
1 1632
1 1633
1 1634
1 1635
1 1636
1 1637
1 1638
1 1639
1 1640
1 1641
1 1642
1 1643
1 1644
1 1645
1 1646
1 1647
1 1648
1 1649
1 1650
1 1651
1 1652
1 1653
1 1654
1 1655
1 1656
1 1657
1 1658
1 1659
1 1660
1 1661
1 1662
1 1663
1 1664
1 1665
1 1666
1 1667
1 1668
1 1669
1 1670
1 1671
1 1672
1 1673
1 1674
1 1675
1 1676
1 1677
1 1678
1 1679
1 1680
1 1681
1 1682
1 1683
1 1684
1 1685
1 1686
1 1687
1 1688
1 1689
1 1690
1 1691
1 1692
1 1693
1 1694
1 1695
1 1696
1 1697
1 1698
1 1699
1 1700
1 1701
1 1702
1 1703
1 1704
1 1705
1 1706
1 1707
1 1708
1 1709
1 1710
1 1711
1 1712
1 1713
1 1714
1 1715
1 1716
1 1717
1 1718
1 1719
1 1720
1 1721
1 1722
1 1723
1 1724
1 1725
1 1726
1 1727
1 1728
1 1729
1 1730
1 1731
1 1732
1 1733
1 1734
1 1735
1 1736
1 1737
1 1738
1 1739
1 1740
1 1741
1 1742
1 1743
1 1744
1 1745
1 1746
1 1747
1 1748
1 1749
1 1750
1 1751
1 1752
1 1753
1 1754
1 1755
1 1756
1 1757
1 1758
1 1759
1 1760
1 1761
1 1762
1 1763
1 1764
1 1765
1 1766
1 1767
1 1768
1 1769
1 1770
1 1771
1 1772
1 1773
1 1774
1 1775
1 1776
1 1777
1 1778
1 1779
1 1780
1 1781
1 1782
1 1783
1 1784
1 1785
1 1786
1 1787
1 1788
1 1789
1 1790
1 1791
1 1792
1 1793
1 1794
1 1795
1 1796
1 1797
1 1798
1 1799
1 1800
1 1801
1 1802
1 1803
1 1804
1 1805
1 1806
1 1807
1 1808
1 1809
1 1810
1 1811
1 1812
1 1813
1 1814
1 1815
1 1816
1 1817
1 1818
1 1819
1 1820
1 1821
1 1822
1 1823
1 1824
1 1825
1 1826
1 1827
1 1828
1 1829
1 1830
1 1831
1 1832
1 1833
1 1834
1 1835
1 1836
1 1837
1 1838
1 1839
1 1840
1 1841
1 1842
1 1843
1 1844
1 1845
1 1846
1 1847
1 1848
1 1849
1 1850
1 1851
1 1852
1 1853
1 1854
1 1855
1 1856
1 1857
1 1858
1 1859
1 1860
1 1861
1 1862
1 1863
1 1864
1 1865
1 1866
1 1867
1 1868
1 1869
1 1870
1 1871
1 1872
1 1873
1 1874
1 1875
1 1876
1 1877
1 1878
1 1879
1 1880
1 1881
1 1882
1 1883
1 1884
1 1885
1 1886
1 1887
1 1888
1 1889
1 1890
1 1891
1 1892
1 1893
1 1894
1 1895
1 1896
1 1897
1 1898
1 1899
1 1900
1 1901
1 1902
1 1903
1 1904
1 1905
1 1906
1 1907
1 1908
1 1909
1 1910
1 1911
1 1912
1 1913
1 1914
1 1915
1 1916
1 1917
1 1918
1 1919
1 1920
1 1921
1 1922
1 1923
1 1924
1 1925
1 1926
1 1927
1 1928
1 1929
1 1930
1 1931
1 1932
1 1933
1 1934
1 1935
1 1936
1 1937
1 1938
1 1939
1 1940
1 1941
1 1942
1 1943
1 1944
1 1945
1 1946
1 1947
1 1948
1 1949
1 1950
1 1951
1 1952
1 1953
1 1954
1 1955
1 1956
1 1957
1 1958
1 1959
1 1960
1 1961
1 1962
1 1963
1 1964
1 1965
1 1966
1 1967
1 1968
1 1969
1 1970
1 1971
1 1972
1 1973
1 1974
1 1975
1 1976
1 1977
1 1978
1 1979
1 1980
1 1981
1 1982
1 1983
1 1984
1 1985
1 1986
1 1987
1 1988
1 1989
1 1990
1 1991
1 1992
1 1993
1 1994
1 1995
1 1996
1 1997
1 1998
1 1999
1 2000
1 2001
1 2002
1 2003
1 2004
1 2005
1 2006
1 2007
1 2008
1 2009
1 2010
1 2011
1 2012
1 2013
1 2014
1 2015
1 2016
1 2017
1 2018
1 2019
1 2020
1 2021
1 2022
1 2023
1 2024
1 2025
1 2026
1 2027
1 2028
1 2029
1 2030
1 2031
1 2032
1 2033
1 2034
1 2035
1 2036
1 2037
1 2038
1 2039
1 2040
1 2041
1 2042
1 2043
1 2044
1 2045
1 2046
1 2047
1 2048
1 2049
1 2050
1 2051
1 2052
1 2053
1 2054
1 2055
1 2056
1 2057
1 2058
1 2059
1 2060
1 2061
1 2062
1 2063
1 2064
1 2065
1 2066
1 2067
1 2068
1 2069
1 2070
1 2071
1 2072
1 2073
1 2074
1 2075
1 2076
1 2077
1 2078
1 2079
1 2080
1 2081
1 2082
1 2083
1 2084
1 2085
1 2086
1 2087
1 2088
1 2089
1 2090
1 2091
1 2092
1 2093
1 2094
1 2095
1 2096
1 2097
1 2098
1 2099
1 2100
1 2101
1 2102
1 2103
1 2104
1 2105
1 2106
1 2107
1 2108
1 2109
1 2110
1 2111
1 2112
1 2113
1 2114
1 2115
1 2116
1 2117
1 2118
1 2119
1 2120
1 2121
1 2122
1 2123
1 2124
1 2125
1 2126
1 2127
1 2128
1 2129
1 2130
1 2131
1 2132
1 2133
1 2134
1 2135
1 2136
1 2137
1 2138
1 2139
1 2140
1 2141
1 2142
1 2143
1 2144
1 2145
1 2146
1 2147
1 2148
1 2149
1 2150
1 2151
1 2152
1 2153
1 2154
1 2155
1 2156
1 2157
1 2158
1 2159
1 2160
1 2161
1 2162
1 2163
1 2164
1 2165
1 2166
1 2167
1 2168
1 2169
1 2170
1 2171
1 2172
1 2173
1 2174
1 2175
1 2176
1 2177
1 2178
1 2179
1 2180
1 2181
1 2182
1 2183
1 2184
1 2185
1 2186
1 2187
1 2188
1 2189
1 2190
1 2191
1 2192
1 2193
1 2194
1 2195
1 2196
1 2197
1 2198
1 2199
1 2200
1 2201
1 2202
1 2203
1 2204
1 2205
1 2206
1 2207
1 2208
1 2209
1 2210
1 2211
1 2212
1 2213
1 2214
1 2215
1 2216
1 2217
1 2218
1 2219
1 2220
1 2221
1 2222
1 2223
1 2224
1 2225
1 2226
1 2227
1 2228
1 2229
1 2230
1 2231
1 2232
1 2233
1 2234
1 2235
1 2236
1 2237
1 2238
1 2239
1 2240
1 2241
1 2242
1 2243
1 2244
1 2245
1 2246
1 2247
1 2248
1 2249
1 2250
1 2251
1 2252
1 2253
1 2254
1 2255
1 2256
1 2257
1 2258
1 2259
1 2260
1 2261
1 2262
1 2263
1 2264
1 2265
1 2266
1 2267
1 2268
1 2269
1 2270
1 2271
1 2272
1 2273
1 2274
1 2275
1 2276
1 2277
1 2278
1 2279
1 2280
1 2281
1 2282
1 2283
1 2284
1 2285
1 2286
1 2287
1 2288
1 2289
1 2290
1 2291
1 2292
1 2293
1 2294
1 2295
1 2296
1 2297
1 2298
1 2299
1 2300
1 2301
1 2302
1 2303
1 2304
1 2305
1 2306
1 2307
1 2308
1 2309
1 2310
1 2311
1 2312
1 2313
1 2314
1 2315
1 2316
1 2317
1 2318
1 2319
1 2320
1 2321
1 2322
1 2323
1 2324
1 2325
1 2326
1 2327
1 2328
1 2329
1 2330
1 2331
1 2332
1 2333
1 2334
1 2335
1 2336
1 2337
1 2338
1 2339
1 2340
1 2341
1 2342
1 2343
1 2344
1 2345
1 2346
1 2347
1 2348
1 2349
1 2350
1 2351
1 2352
1 2353
1 2354
1 2355
1 2356
1 2357
1 2358
1 2359
1 2360
1 2361
1 2362
1 2363
1 2364
1 2365
1 2366
1 2367
1 2368
1 2369
1 2370
1 2371
1 2372
1 2373
1 2374
1 2375
1 2376
1 2377
1 2378
1 2379
1 2380
1 2381
1 2382
1 2383
1 2384
1 2385
1 2386
1 2387
1 2388
1 2389
1 2390
1 2391
1 2392
1 2393
1 2394
1 2395
1 2396
1 2397
1 2398
1 2399
1 2400
1 2401
1 2402
1 2403
1 2404
1 2405
1 2406
1 2407
1 2408
1 2409
1 2410
1 2411
1 2412
1 2413
1 2414
1 2415
1 2416
1 2417
1 2418
1 2419
1 2420
1 2421
1 2422
1 2423
1 2424
1 2425
1 2426
1 2427
1 2428
1 2429
1 2430
1 2431
1 2432
1 2433
1 2434
1 2435
1 2436
1 2437
1 2438
1 2439
1 2440
1 2441
1 2442
1 2443
1 2444
1 2445
1 2446
1 2447
1 2448
1 2449
1 2450
1 2451
1 2452
1 2453
1 2454
1 2455
1 2456
1 2457
1 2458
1 2459
1 2460
1 2461
1 2462
1 2463
1 2464
1 2465
1 2466
1 2467
1 2468
1 2469
1 2470
1 2471
1 2472
1 2473
1 2474
1 2475
1 2476
1 2477
1 2478
1 2479
1 2480
1 2481
1 2482
1 2483
1 2484
1 2485
1 2486
1 2487
1 2488
1 2489
1 2490
1 2491
1 2492
1 2493
1 2494
1 2495
1 2496
1 2497
1 2498
1 2499
1 2500
1 2501
1 2502
1 2503
1 2504
1 2505
1 2506
1 2507
1 2508
1 2509
1 2510
1 2511
1 2512
1 2513
1 2514
1 2515
1 2516
1 2517
1 2518
1 2519
1 2520
1 2521
1 2522
1 2523
1 2524
1 2525
1 2526
1 2527
1 2528
1 2529
1 2530
1 2531
1 2532
1 2533
1 2534
1 2535
1 2536
1 2537
1 2538
1 2539
1 2540
1 2541
1 2542
1 2543
1 2544
1 2545
1 2546
1 2547
1 2548
1 2549
1 2550
1 2551
1 2552
1 2553
1 2554
1 2555
1 2556
1 2557
1 2558
1 2559
1 2560
1 2561
1 2562
1 2563
1 2564
1 2565
1 2566
1 2567
1 2568
1 2569
1 2570
1 2571
1 2572
1 2573
1 2574
1 2575
1 2576
1 2577
1 2578
1 2579
1 2580
1 2581
1 2582
1 2583
1 2584
1 2585
1 2586
1 2587
1 2588
1 2589
1 2590
1 2591
1 2592
1 2593
1 2594
1 2595
1 2596
1 2597
1 2598
1 2599
1 2600
1 2601
1 2602
1 2603
1 2604
1 2605
1 2606
1 2607
1 2608
1 2609
1 2610
1 2611
1 2612
1 2613
1 2614
1 2615
1 2616
1 2617
1 2618
1 2619
1 2620
1 2621
1 2622
1 2623
1 2624
1 2625
1 2626
1 2627
1 2628
1 2629
1 2630
1 2631
1 2632
1 2633
1 2634
1 2635
1 2636
1 2637
1 2638
1 2639
1 2640
1 2641
1 2642
1 2643
1 2644
1 2645
1 2646
1 2647
1 2648
1 2649
1 2650
1 2651
1 2652
1 2653
1 2654
1 2655
1 2656
1 2657
1 2658
1 2659
1 2660
1 2661
1 2662
1 2663
1 2664
1 2665
1 2666
1 2667
1 2668
1 2669
1 2670
1 2671
1 2672
1 2673
1 2674
1 2675
1 2676
1 2677
1 2678
1 2679
1 2680
1 2681
1 2682
1 2683
1 2684
1 2685
1 2686
1 2687
1 2688
1 2689
1 2690
1 2691
1 2692
1 2693
1 2694
1 2695
1 2696
1 2697
1 2698
1 2699
1 2700
1 2701
1 2702
1 2703
1 2704
1 2705
1 2706
1 2707
1 2708
1 2709
1 2710
1 2711
1 2712
1 2713
1 2714
1 2715
1 2716
1 2717
1 2718
1 2719
1 2720
1 2721
1 2722
1 2723
1 2724
1 2725
1 2726
1 2727
1 2728
1 2729
1 2730
1 2731
1 2732
1 2733
1 2734
1 2735
1 2736
1 2737
1 2738
1 2739
1 2740
1 2741
1 2742
1 2743
1 2744
1 2745
1 2746
1 2747
1 2748
1 2749
1 2750
1 2751
1 2752
1 2753
1 2754
1 2755
1 2756
1 2757
1 2758
1 2759
1 2760
1 2761
1 2762
1 2763
1 2764
1 2765
1 2766
1 2767
1 2768
1 2769
1 2770
1 2771
1 2772
1 2773
1 2774
1 2775
1 2776
1 2777
1 2778
1 2779
1 2780
1 2781
1 2782
1 2783
1 2784
1 2785
1 2786
1 2787
1 2788
1 2789
1 2790
1 2791
1 2792
1 2793
1 2794
1 2795
1 2796
1 2797
1 2798
1 2799
1 2800
1 2801
1 2802
1 2803
1 2804
1 2805
1 2806
1 2807
1 2808
1 2809
1 2810
1 2811
1 2812
1 2813
1 2814
1 2815
1 2816
1 2817
1 2818
1 2819
1 2820
1 2821
1 2822
1 2823
1 2824
1 2825
1 2826
1 2827
1 2828
1 2829
1 2830
1 2831
1 2832
1 2833
1 2834
1 2835
1 2836
1 2837
1 2838
1 2839
1 2840
1 2841
1 2842
1 2843
1 2844
1 2845
1 2846
1 2847
1 2848
1 2849
1 2850
1 2851
1 2852
1 2853
1 2854
1 2855
1 2856
1 2857
1 2858
1 2859
1 2860
1 2861
1 2862
1 2863
1 2864
1 2865
1 2866
1 2867
1 2868
1 2869
1 2870
1 2871
1 2872
1 2873
1 2874
1 2875
1 2876
1 2877
1 2878
1 2879
1 2880
1 2881
1 2882
1 2883
1 2884
1 2885
1 2886
1 2887
1 2888
1 2889
1 2890
1 2891
1 2892
1 2893
1 2894
1 2895
1 2896
1 2897
1 2898
1 2899
1 2900
1 2901
1 2902
1 2903
1 2904
1 2905
1 2906
1 2907
1 2908
1 2909
1 2910
1 2911
1 2912
1 2913
1 2914
1 2915
1 2916
1 2917
1 2918
1 2919
1 2920
1 2921
1 2922
1 2923
1 2924
1 2925
1 2926
1 2927
1 2928
1 2929
1 2930
1 2931
1 2932
1 2933
1 2934
1 2935
1 2936
1 2937
1 2938
1 2939
1 2940
1 2941
1 2942
1 2943
1 2944
1 2945
1 2946
1 2947
1 2948
1 2949
1 2950
1 2951
1 2952
1 2953
1 2954
1 2955
1 2956
1 2957
1 2958
1 2959
1 2960
1 2961
1 2962
1 2963
1 2964
1 2965
1 2966
1 2967
1 2968
1 2969
1 2970
1 2971
1 2972
1 2973
1 2974
1 2975
1 2976
1 2977
1 2978
1 2979
1 2980
1 2981
1 2982
1 2983
1 2984
1 2985
1 2986
1 2987
1 2988
1 2989
1 2990
1 2991
1 2992
1 2993
1 2994
1 2995
1 2996
1 2997
1 2998
1 2999
1 3000
1 3001
1 3002
1 3003
1 3004
1 3005
1 3006
1 3007
1 3008
1 3009
1 3010
1 3011
1 3012
1 3013
1 3014
1 3015
1 3016
1 3017
1 3018
1 3019
1 3020
1 3021
1 3022
1 3023
1 3024
1 3025
1 3026
1 3027
1 3028
1 3029
1 3030
1 3031
1 3032
1 3033
1 3034
1 3035
1 3036
1 3037
1 3038
1 3039
1 3040
1 3041
1 3042
1 3043
1 3044
1 3045
1 3046
1 3047
1 3048
1 3049
1 3050
1 3051
1 3052
1 3053
1 3054
1 3055
1 3056
1 3057
1 3058
1 3059
1 3060
1 3061
1 3062
1 3063
1 3064
1 3065
1 3066
1 3067
1 3068
1 3069
1 3070
1 3071
1 3072
1 3073
1 3074
1 3075
1 3076
1 3077
1 3078
1 3079
1 3080
1 3081
1 3082
1 3083
1 3084
1 3085
1 3086
1 3087
1 3088
1 3089
1 3090
1 3091
1 3092
1 3093
1 3094
1 3095
1 3096
1 3097
1 3098
1 3099
1 3100
1 3101
1 3102
1 3103
1 3104
1 3105
1 3106
1 3107
1 3108
1 3109
1 3110
1 3111
1 3112
1 3113
1 3114
1 3115
1 3116
1 3117
1 3118
1 3119
1 3120
1 3121
1 3122
1 3123
1 3124
1 3125
1 3126
1 3127
1 3128
1 3129
1 3130
1 3131
1 3132
1 3133
1 3134
1 3135
1 3136
1 3137
1 3138
1 3139
1 3140
1 3141
1 3142
1 3143
1 3144
1 3145
1 3146
1 3147
1 3148
1 3149
1 3150
1 3151
1 3152
1 3153
1 3154
1 3155
1 3156
1 3157
1 3158
1 3159
1 3160
1 3161
1 3162
1 3163
1 3164
1 3165
1 3166
1 3167
1 3168
1 3169
1 3170
1 3171
1 3172
1 3173
1 3174
1 3175
1 3176
1 3177
1 3178
1 3179
1 3180
1 3181
1 3182
1 3183
1 3184
1 3185
1 3186
1 3187
1 3188
1 3189
1 3190
1 3191
1 3192
1 3193
1 3194
1 3195
1 3196
1 3197
1 3198
1 3199
1 3200
1 3201
1 3202
1 3203
1 3204
1 3205
1 3206
1 3207
1 3208
1 3209
1 3210
1 3211
1 3212
1 3213
1 3214
1 3215
1 3216
1 3217
1 3218
1 3219
1 3220
1 3221
1 3222
1 3223
1 3224
1 3225
1 3226
1 3227
1 3228
1 3229
1 3230
1 3231
1 3232
1 3233
1 3234
1 3235
1 3236
1 3237
1 3238
1 3239
1 3240
1 3241
1 3242
1 3243
1 3244
1 3245
1 3246
1 3247
1 3248
1 3249
1 3250
1 3251
1 3252
1 3253
1 3254
1 3255
1 3256
1 3257
1 3258
1 3259
1 3260
1 3261
1 3262
1 3263
1 3264
1 3265
1 3266
1 3267
1 3268
1 3269
1 3270
1 3271
1 3272
1 3273
1 3274
1 3275
1 3276
1 3277
1 3278
1 3279
1 3280
1 3281
1 3282
1 3283
1 3284
1 3285
1 3286
1 3287
1 3288
1 3289
1 3290
1 3291
1 3292
1 3293
1 3294
1 3295
1 3296
1 3297
1 3298
1 3299
1 3300
1 3301
1 3302
1 3303
1 3304
1 3305
1 3306
1 3307
1 3308
1 3309
1 3310
1 3311
1 3312
1 3313
1 3314
1 3315
1 3316
1 3317
1 3318
1 3319
1 3320
1 3321
1 3322
1 3323
1 3324
1 3325
1 3326
1 3327
1 3328
1 3329
1 3330
1 3331
1 3332
1 3333
1 3334
1 3335
1 3336
1 3337
1 3338
1 3339
1 3340
1 3341
1 3342
1 3343
1 3344
1 3345
1 3346
1 3347
1 3348
1 3349
1 3350
1 3351
1 3352
1 3353
1 3354
1 3355
1 3356
1 3357
1 3358
1 3359
1 3360
1 3361
1 3362
1 3363
1 3364
1 3365
1 3366
1 3367
1 3368
1 3369
1 3370
1 3371
1 3372
1 3373
1 3374
1 3375
1 3376
1 3377
1 3378
1 3379
1 3380
1 3381
1 3382
1 3383
1 3384
1 3385
1 3386
1 3387
1 3388
1 3389
1 3390
1 3391
1 3392
1 3393
1 3394
1 3395
1 3396
1 3397
1 3398
1 3399
1 3400
1 3401
1 3402
1 3403
1 3404
1 3405
1 3406
1 3407
1 3408
1 3409
1 3410
1 3411
1 3412
1 3413
1 3414
1 3415
1 3416
1 3417
1 3418
1 3419
1 3420
1 3421
1 3422
1 3423
1 3424
1 3425
1 3426
1 3427
1 3428
1 3429
1 3430
1 3431
1 3432
1 3433
1 3434
1 3435
1 3436
1 3437
1 3438
1 3439
1 3440
1 3441
1 3442
1 3443
1 3444
1 3445
1 3446
1 3447
1 3448
1 3449
1 3450
1 3451
1 3452
1 3453
1 3454
1 3455
1 3456
1 3457
1 3458
1 3459
1 3460
1 3461
1 3462
1 3463
1 3464
1 3465
1 3466
1 3467
1 3468
1 3469
1 3470
1 3471
1 3472
1 3473
1 3474
1 3475
1 3476
1 3477
1 3478
1 3479
1 3480
1 3481
1 3482
1 3483
1 3484
1 3485
1 3486
1 3487
1 3488
1 3489
1 3490
1 3491
1 3492
1 3493
1 3494
1 3495
1 3496
1 3497
1 3498
1 3499
1 3500
1 3501
1 3502
1 3503
1 3504
1 3505
1 3506
1 3507
1 3508
1 3509
1 3510
1 3511
1 3512
1 3513
1 3514
1 3515
1 3516
1 3517
1 3518
1 3519
1 3520
1 3521
1 3522
1 3523
1 3524
1 3525
1 3526
1 3527
1 3528
1 3529
1 3530
1 3531
1 3532
1 3533
1 3534
1 3535
1 3536
1 3537
1 3538
1 3539
1 3540
1 3541
1 3542
1 3543
1 3544
1 3545
1 3546
1 3547
1 3548
1 3549
1 3550
1 3551
1 3552
1 3553
1 3554
1 3555
1 3556
1 3557
1 3558
1 3559
1 3560
1 3561
1 3562
1 3563
1 3564
1 3565
1 3566
1 3567
1 3568
1 3569
1 3570
1 3571
1 3572
1 3573
1 3574
1 3575
1 3576
1 3577
1 3578
1 3579
1 3580
1 3581
1 3582
1 3583
1 3584
1 3585
1 3586
1 3587
1 3588
1 3589
1 3590
1 3591
1 3592
1 3593
1 3594
1 3595
1 3596
1 3597
1 3598
1 3599
1 3600
1 3601
1 3602
1 3603
1 3604
1 3605
1 3606
1 3607
1 3608
1 3609
1 3610
1 3611
1 3612
1 3613
1 3614
1 3615
1 3616
1 3617
1 3618
1 3619
1 3620
1 3621
1 3622
1 3623
1 3624
1 3625
1 3626
1 3627
1 3628
1 3629
1 3630
1 3631
1 3632
1 3633
1 3634
1 3635
1 3636
1 3637
1 3638
1 3639
1 3640
1 3641
1 3642
1 3643
1 3644
1 3645
1 3646
1 3647
1 3648
1 3649
1 3650
1 3651
1 3652
1 3653
1 3654
1 3655
1 3656
1 3657
1 3658
1 3659
1 3660
1 3661
1 3662
1 3663
1 3664
1 3665
1 3666
1 3667
1 3668
1 3669
1 3670
1 3671
1 3672
1 3673
1 3674
1 3675
1 3676
1 3677
1 3678
1 3679
1 3680
1 3681
1 3682
1 3683
1 3684
1 3685
1 3686
1 3687
1 3688
1 3689
1 3690
1 3691
1 3692
1 3693
1 3694
1 3695
1 3696
1 3697
1 3698
1 3699
1 3700
1 3701
1 3702
1 3703
1 3704
1 3705
1 3706
1 3707
1 3708
1 3709
1 3710
1 3711
1 3712
1 3713
1 3714
1 3715
1 3716
1 3717
1 3718
1 3719
1 3720
1 3721
1 3722
1 3723
1 3724
1 3725
1 3726
1 3727
1 3728
1 3729
1 3730
1 3731
1 3732
1 3733
1 3734
1 3735
1 3736
1 3737
1 3738
1 3739
1 3740
1 3741
1 3742
1 3743
1 3744
1 3745
1 3746
1 3747
1 3748
1 3749
1 3750
1 3751
1 3752
1 3753
1 3754
1 3755
1 3756
1 3757
1 3758
1 3759
1 3760
1 3761
1 3762
1 3763
1 3764
1 3765
1 3766
1 3767
1 3768
1 3769
1 3770
1 3771
1 3772
1 3773
1 3774
1 3775
1 3776
1 3777
1 3778
1 3779
1 3780
1 3781
1 3782
1 3783
1 3784
1 3785
1 3786
1 3787
1 3788
1 3789
1 3790
1 3791
1 3792
1 3793
1 3794
1 3795
1 3796
1 3797
1 3798
1 3799
1 3800
1 3801
1 3802
1 3803
1 3804
1 3805
1 3806
1 3807
1 3808
1 3809
1 3810
1 3811
1 3812
1 3813
1 3814
1 3815
1 3816
1 3817
1 3818
1 3819
1 3820
1 3821
1 3822
1 3823
1 3824
1 3825
1 3826
1 3827
1 3828
1 3829
1 3830
1 3831
1 3832
1 3833
1 3834
1 3835
1 3836
1 3837
1 3838
1 3839
1 3840
1 3841
1 3842
1 3843
1 3844
1 3845
1 3846
1 3847
1 3848
1 3849
1 3850
1 3851
1 3852
1 3853
1 3854
1 3855
1 3856
1 3857
1 3858
1 3859
1 3860
1 3861
1 3862
1 3863
1 3864
1 3865
1 3866
1 3867
1 3868
1 3869
1 3870
1 3871
1 3872
1 3873
1 3874
1 3875
1 3876
1 3877
1 3878
1 3879
1 3880
1 3881
1 3882
1 3883
1 3884
1 3885
1 3886
1 3887
1 3888
1 3889
1 3890
1 3891
1 3892
1 3893
1 3894
1 3895
1 3896
1 3897
1 3898
1 3899
1 3900
1 3901
1 3902
1 3903
1 3904
1 3905
1 3906
1 3907
1 3908
1 3909
1 3910
1 3911
1 3912
1 3913
1 3914
1 3915
1 3916
1 3917
1 3918
1 3919
1 3920
1 3921
1 3922
1 3923
1 3924
1 3925
1 3926
1 3927
1 3928
1 3929
1 3930
1 3931
1 3932
1 3933
1 3934
1 3935
1 3936
1 3937
1 3938
1 3939
1 3940
1 3941
1 3942
1 3943
1 3944
1 3945
1 3946
1 3947
1 3948
1 3949
1 3950
1 3951
1 3952
1 3953
1 3954
1 3955
1 3956
1 3957
1 3958
1 3959
1 3960
1 3961
1 3962
1 3963
1 3964
1 3965
1 3966
1 3967
1 3968
1 3969
1 3970
1 3971
1 3972
1 3973
1 3974
1 3975
1 3976
1 3977
1 3978
1 3979
1 3980
1 3981
1 3982
1 3983
1 3984
1 3985
1 3986
1 3987
1 3988
1 3989
1 3990
1 3991
1 3992
1 3993
1 3994
1 3995
1 3996
1 3997
1 3998
1 3999
1 4000
1 4001
1 4002
1 4003
1 4004
1 4005
1 4006
1 4007
1 4008
1 4009
1 4010
1 4011
1 4012
1 4013
1 4014
1 4015
1 4016
1 4017
1 4018
1 4019
1 4020
1 4021
1 4022
1 4023
1 4024
1 4025
1 4026
1 4027
1 4028
1 4029
1 4030
1 4031
1 4032
1 4033
1 4034
1 4035
1 4036
1 4037
1 4038
1 4039
1 4040
1 4041
1 4042
1 4043
1 4044
1 4045
1 4046
1 4047
1 4048
1 4049
1 4050
1 4051
1 4052
1 4053
1 4054
1 4055
1 4056
1 4057
1 4058
1 4059
1 4060
1 4061
1 4062
1 4063
1 4064
1 4065
1 4066
1 4067
1 4068
1 4069
1 4070
1 4071
1 4072
1 4073
1 4074
1 4075
1 4076
1 4077
1 4078
1 4079
1 4080
1 4081
1 4082
1 4083
1 4084
1 4085
1 4086
1 4087
1 4088
1 4089
1 4090
1 4091
1 4092
1 4093
1 4094
1 4095
1 4096
1 4097
1 4098
1 4099
1 4100
1 4101
1 4102
1 4103
1 4104
1 4105
1 4106
1 4107
1 4108
1 4109
1 4110
1 4111
1 4112
1 4113
1 4114
1 4115
1 4116
1 4117
1 4118
1 4119
1 4120
1 4121
1 4122
1 4123
1 4124
1 4125
1 4126
1 4127
1 4128
1 4129
1 4130
1 4131
1 4132
1 4133
1 4134
1 4135
1 4136
1 4137
1 4138
1 4139
1 4140
1 4141
1 4142
1 4143
1 4144
1 4145
1 4146
1 4147
1 4148
1 4149
1 4150
1 4151
1 4152
1 4153
1 4154
1 4155
1 4156
1 4157
1 4158
1 4159
1 4160
1 4161
1 4162
1 4163
1 4164
1 4165
1 4166
1 4167
1 4168
1 4169
1 4170
1 4171
1 4172
1 4173
1 4174
1 4175
1 4176
1 4177
1 4178
1 4179
1 4180
1 4181
1 4182
1 4183
1 4184
1 4185
1 4186
1 4187
1 4188
1 4189
1 4190
1 4191
1 4192
1 4193
1 4194
1 4195
1 4196
1 4197
1 4198
1 4199
1 4200
1 4201
1 4202
1 4203
1 4204
1 4205
1 4206
1 4207
1 4208
1 4209
1 4210
1 4211
1 4212
1 4213
1 4214
1 4215
1 4216
1 4217
1 4218
1 4219
1 4220
1 4221
1 4222
1 4223
1 4224
1 4225
1 4226
1 4227
1 4228
1 4229
1 4230
1 4231
1 4232
1 4233
1 4234
1 4235
1 4236
1 4237
1 4238
1 4239
1 4240
1 4241
1 4242
1 4243
1 4244
1 4245
1 4246
1 4247
1 4248
1 4249
1 4250
1 4251
1 4252
1 4253
1 4254
1 4255
1 4256
1 4257
1 4258
1 4259
1 4260
1 4261
1 4262
1 4263
1 4264
1 4265
1 4266
1 4267
1 4268
1 4269
1 4270
1 4271
1 4272
1 4273
1 4274
1 4275
1 4276
1 4277
1 4278
1 4279
1 4280
1 4281
1 4282
1 4283
1 4284
1 4285
1 4286
1 4287
1 4288
1 4289
1 4290
1 4291
1 4292
1 4293
1 4294
1 4295
1 4296
1 4297
1 4298
1 4299
1 4300
1 4301
1 4302
1 4303
1 4304
1 4305
1 4306
1 4307
1 4308
1 4309
1 4310
1 4311
1 4312
1 4313
1 4314
1 4315
1 4316
1 4317
1 4318
1 4319
1 4320
1 4321
1 4322
1 4323
1 4324
1 4325
1 4326
1 4327
1 4328
1 4329
1 4330
1 4331
1 4332
1 4333
1 4334
1 4335
1 4336
1 4337
1 4338
1 4339
1 4340
1 4341
1 4342
1 4343
1 4344
1 4345
1 4346
1 4347
1 4348
1 4349
1 4350
1 4351
1 4352
1 4353
1 4354
1 4355
1 4356
1 4357
1 4358
1 4359
1 4360
1 4361
1 4362
1 4363
1 4364
1 4365
1 4366
1 4367
1 4368
1 4369
1 4370
1 4371
1 4372
1 4373
1 4374
1 4375
1 4376
1 4377
1 4378
1 4379
1 4380
1 4381
1 4382
1 4383
1 4384
1 4385
1 4386
1 4387
1 4388
1 4389
1 4390
1 4391
1 4392
1 4393
1 4394
1 4395
1 4396
1 4397
1 4398
1 4399
1 4400
1 4401
1 4402
1 4403
1 4404
1 4405
1 4406
1 4407
1 4408
1 4409
1 4410
1 4411
1 4412
1 4413
1 4414
1 4415
1 4416
1 4417
1 4418
1 4419
1 4420
1 4421
1 4422
1 4423
1 4424
1 4425
1 4426
1 4427
1 4428
1 4429
1 4430
1 4431
1 4432
1 4433
1 4434
1 4435
1 4436
1 4437
1 4438
1 4439
1 4440
1 4441
1 4442
1 4443
1 4444
1 4445
1 4446
1 4447
1 4448
1 4449
1 4450
1 4451
1 4452
1 4453
1 4454
1 4455
1 4456
1 4457
1 4458
1 4459
1 4460
1 4461
1 4462
1 4463
1 4464
1 4465
1 4466
1 4467
1 4468
1 4469
1 4470
1 4471
1 4472
1 4473
1 4474
1 4475
1 4476
1 4477
1 4478
1 4479
1 4480
1 4481
1 4482
1 4483
1 4484
1 4485
1 4486
1 4487
1 4488
1 4489
1 4490
1 4491
1 4492
1 4493
1 4494
1 4495
1 4496
1 4497
1 4498
1 4499
1 4500
1 4501
1 4502
1 4503
1 4504
1 4505
1 4506
1 4507
1 4508
1 4509
1 4510
1 4511
1 4512
1 4513
1 4514
1 4515
1 4516
1 4517
1 4518
1 4519
1 4520
1 4521
1 4522
1 4523
1 4524
1 4525
1 4526
1 4527
1 4528
1 4529
1 4530
1 4531
1 4532
1 4533
1 4534
1 4535
1 4536
1 4537
1 4538
1 4539
1 4540
1 4541
1 4542
1 4543
1 4544
1 4545
1 4546
1 4547
1 4548
1 4549
1 4550
1 4551
1 4552
1 4553
1 4554
1 4555
1 4556
1 4557
1 4558
1 4559
1 4560
1 4561
1 4562
1 4563
1 4564
1 4565
1 4566
1 4567
1 4568
1 4569
1 4570
1 4571
1 4572
1 4573
1 4574
1 4575
1 4576
1 4577
1 4578
1 4579
1 4580
1 4581
1 4582
1 4583
1 4584
1 4585
1 4586
1 4587
1 4588
1 4589
1 4590
1 4591
1 4592
1 4593
1 4594
1 4595
1 4596
1 4597
1 4598
1 4599
1 4600
1 4601
1 4602
1 4603
1 4604
1 4605
1 4606
1 4607
1 4608
1 4609
1 4610
1 4611
1 4612
1 4613
1 4614
1 4615
1 4616
1 4617
1 4618
1 4619
1 4620
1 4621
1 4622
1 4623
1 4624
1 4625
1 4626
1 4627
1 4628
1 4629
1 4630
1 4631
1 4632
1 4633
1 4634
1 4635
1 4636
1 4637
1 4638
1 4639
1 4640
1 4641
1 4642
1 4643
1 4644
1 4645
1 4646
1 4647
1 4648
1 4649
1 4650
1 4651
1 4652
1 4653
1 4654
1 4655
1 4656
1 4657
1 4658
1 4659
1 4660
1 4661
1 4662
1 4663
1 4664
1 4665
1 4666
1 4667
1 4668
1 4669
1 4670
1 4671
1 4672
1 4673
1 4674
1 4675
1 4676
1 4677
1 4678
1 4679
1 4680
1 4681
1 4682
1 4683
1 4684
1 4685
1 4686
1 4687
1 4688
1 4689
1 4690
1 4691
1 4692
1 4693
1 4694
1 4695
1 4696
1 4697
1 4698
1 4699
1 4700
1 4701
1 4702
1 4703
1 4704
1 4705
1 4706
1 4707
1 4708
1 4709
1 4710
1 4711
1 4712
1 4713
1 4714
1 4715
1 4716
1 4717
1 4718
1 4719
1 4720
1 4721
1 4722
1 4723
1 4724
1 4725
1 4726
1 4727
1 4728
1 4729
1 4730
1 4731
1 4732
1 4733
1 4734
1 4735
1 4736
1 4737
1 4738
1 4739
1 4740
1 4741
1 4742
1 4743
1 4744
1 4745
1 4746
1 4747
1 4748
1 4749
1 4750
1 4751
1 4752
1 4753
1 4754
1 4755
1 4756
1 4757
1 4758
1 4759
1 4760
1 4761
1 4762
1 4763
1 4764
1 4765
1 4766
1 4767
1 4768
1 4769
1 4770
1 4771
1 4772
1 4773
1 4774
1 4775
1 4776
1 4777
1 4778
1 4779
1 4780
1 4781
1 4782
1 4783
1 4784
1 4785
1 4786
1 4787
1 4788
1 4789
1 4790
1 4791
1 4792
1 4793
1 4794
1 4795
1 4796
1 4797
1 4798
1 4799
1 4800
1 4801
1 4802
1 4803
1 4804
1 4805
1 4806
1 4807
1 4808
1 4809
1 4810
1 4811
1 4812
1 4813
1 4814
1 4815
1 4816
1 4817
1 4818
1 4819
1 4820
1 4821
1 4822
1 4823
1 4824
1 4825
1 4826
1 4827
1 4828
1 4829
1 4830
1 4831
1 4832
1 4833
1 4834
1 4835
1 4836
1 4837
1 4838
1 4839
1 4840
1 4841
1 4842
1 4843
1 4844
1 4845
1 4846
1 4847
1 4848
1 4849
1 4850
1 4851
1 4852
1 4853
1 4854
1 4855
1 4856
1 4857
1 4858
1 4859
1 4860
1 4861
1 4862
1 4863
1 4864
1 4865
1 4866
1 4867
1 4868
1 4869
1 4870
1 4871
1 4872
1 4873
1 4874
1 4875
1 4876
1 4877
1 4878
1 4879
1 4880
1 4881
1 4882
1 4883
1 4884
1 4885
1 4886
1 4887
1 4888
1 4889
1 4890
1 4891
1 4892
1 4893
1 4894
1 4895
1 4896
1 4897
1 4898
1 4899
1 4900
1 4901
1 4902
1 4903
1 4904
1 4905
1 4906
1 4907
1 4908
1 4909
1 4910
1 4911
1 4912
1 4913
1 4914
1 4915
1 4916
1 4917
1 4918
1 4919
1 4920
1 4921
1 4922
1 4923
1 4924
1 4925
1 4926
1 4927
1 4928
1 4929
1 4930
1 4931
1 4932
1 4933
1 4934
1 4935
1 4936
1 4937
1 4938
1 4939
1 4940
1 4941
1 4942
1 4943
1 4944
1 4945
1 4946
1 4947
1 4948
1 4949
1 4950
1 4951
1 4952
1 4953
1 4954
1 4955
1 4956
1 4957
1 4958
1 4959
1 4960
1 4961
1 4962
1 4963
1 4964
1 4965
1 4966
1 4967
1 4968
1 4969
1 4970
1 4971
1 4972
1 4973
1 4974
1 4975
1 4976
1 4977
1 4978
1 4979
1 4980
1 4981
1 4982
1 4983
1 4984
1 4985
1 4986
1 4987
1 4988
1 4989
1 4990
1 4991
1 4992
1 4993
1 4994
1 4995
1 4996
1 4997
1 4998
1 4999
CELL_TYPES 5000
1 
1 
1 
1 
1 
1 
1 
1 
1 
1 
1 
1 
1 
1 
1 
1 
1 
1 
1 
1 
1 
1 
1 
1 
1 
1 
1 
1 
1 
1 
1 
1 
1 
1 
1 
1 
1 
1 
1 
1 
1 
1 
1 
1 
1 
1 
1 
1 
1 
1 
1 
1 
1 
1 
1 
1 
1 
1 
1 
1 
1 
1 
1 
1 
1 
1 
1 
1 
1 
1 
1 
1 
1 
1 
1 
1 
1 
1 
1 
1 
1 
1 
1 
1 
1 
1 
1 
1 
1 
1 
1 
1 
1 
1 
1 
1 
1 
1 
1 
1 
1 
1 
1 
1 
1 
1 
1 
1 
1 
1 
1 
1 
1 
1 
1 
1 
1 
1 
1 
1 
1 
1 
1 
1 
1 
1 
1 
1 
1 
1 
1 
1 
1 
1 
1 
1 
1 
1 
1 
1 
1 
1 
1 
1 
1 
1 
1 
1 
1 
1 
1 
1 
1 
1 
1 
1 
1 
1 
1 
1 
1 
1 
1 
1 
1 
1 
1 
1 
1 
1 
1 
1 
1 
1 
1 
1 
1 
1 
1 
1 
1 
1 
1 
1 
1 
1 
1 
1 
1 
1 
1 
1 
1 
1 
1 
1 
1 
1 
1 
1 
1 
1 
1 
1 
1 
1 
1 
1 
1 
1 
1 
1 
1 
1 
1 
1 
1 
1 
1 
1 
1 
1 
1 
1 
1 
1 
1 
1 
1 
1 
1 
1 
1 
1 
1 
1 
1 
1 
1 
1 
1 
1 
1 
1 
1 
1 
1 
1 
1 
1 
1 
1 
1 
1 
1 
1 
1 
1 
1 
1 
1 
1 
1 
1 
1 
1 
1 
1 
1 
1 
1 
1 
1 
1 
1 
1 
1 
1 
1 
1 
1 
1 
1 
1 
1 
1 
1 
1 
1 
1 
1 
1 
1 
1 
1 
1 
1 
1 
1 
1 
1 
1 
1 
1 
1 
1 
1 
1 
1 
1 
1 
1 
1 
1 
1 
1 
1 
1 
1 
1 
1 
1 
1 
1 
1 
1 
1 
1 
1 
1 
1 
1 
1 
1 
1 
1 
1 
1 
1 
1 
1 
1 
1 
1 
1 
1 
1 
1 
1 
1 
1 
1 
1 
1 
1 
1 
1 
1 
1 
1 
1 
1 
1 
1 
1 
1 
1 
1 
1 
1 
1 
1 
1 
1 
1 
1 
1 
1 
1 
1 
1 
1 
1 
1 
1 
1 
1 
1 
1 
1 
1 
1 
1 
1 
1 
1 
1 
1 
1 
1 
1 
1 
1 
1 
1 
1 
1 
1 
1 
1 
1 
1 
1 
1 
1 
1 
1 
1 
1 
1 
1 
1 
1 
1 
1 
1 
1 
1 
1 
1 
1 
1 
1 
1 
1 
1 
1 
1 
1 
1 
1 
1 
1 
1 
1 
1 
1 
1 
1 
1 
1 
1 
1 
1 
1 
1 
1 
1 
1 
1 
1 
1 
1 
1 
1 
1 
1 
1 
1 
1 
1 
1 
1 
1 
1 
1 
1 
1 
1 
1 
1 
1 
1 
1 
1 
1 
1 
1 
1 
1 
1 
1 
1 
1 
1 
1 
1 
1 
1 
1 
1 
1 
1 
1 
1 
1 
1 
1 
1 
1 
1 
1 
1 
1 
1 
1 
1 
1 
1 
1 
1 
1 
1 
1 
1 
1 
1 
1 
1 
1 
1 
1 
1 
1 
1 
1 
1 
1 
1 
1 
1 
1 
1 
1 
1 
1 
1 
1 
1 
1 
1 
1 
1 
1 
1 
1 
1 
1 
1 
1 
1 
1 
1 
1 
1 
1 
1 
1 
1 
1 
1 
1 
1 
1 
1 
1 
1 
1 
1 
1 
1 
1 
1 
1 
1 
1 
1 
1 
1 
1 
1 
1 
1 
1 
1 
1 
1 
1 
1 
1 
1 
1 
1 
1 
1 
1 
1 
1 
1 
1 
1 
1 
1 
1 
1 
1 
1 
1 
1 
1 
1 
1 
1 
1 
1 
1 
1 
1 
1 
1 
1 
1 
1 
1 
1 
1 
1 
1 
1 
1 
1 
1 
1 
1 
1 
1 
1 
1 
1 
1 
1 
1 
1 
1 
1 
1 
1 
1 
1 
1 
1 
1 
1 
1 
1 
1 
1 
1 
1 
1 
1 
1 
1 
1 
1 
1 
1 
1 
1 
1 
1 
1 
1 
1 
1 
1 
1 
1 
1 
1 
1 
1 
1 
1 
1 
1 
1 
1 
1 
1 
1 
1 
1 
1 
1 
1 
1 
1 
1 
1 
1 
1 
1 
1 
1 
1 
1 
1 
1 
1 
1 
1 
1 
1 
1 
1 
1 
1 
1 
1 
1 
1 
1 
1 
1 
1 
1 
1 
1 
1 
1 
1 
1 
1 
1 
1 
1 
1 
1 
1 
1 
1 
1 
1 
1 
1 
1 
1 
1 
1 
1 
1 
1 
1 
1 
1 
1 
1 
1 
1 
1 
1 
1 
1 
1 
1 
1 
1 
1 
1 
1 
1 
1 
1 
1 
1 
1 
1 
1 
1 
1 
1 
1 
1 
1 
1 
1 
1 
1 
1 
1 
1 
1 
1 
1 
1 
1 
1 
1 
1 
1 
1 
1 
1 
1 
1 
1 
1 
1 
1 
1 
1 
1 
1 
1 
1 
1 
1 
1 
1 
1 
1 
1 
1 
1 
1 
1 
1 
1 
1 
1 
1 
1 
1 
1 
1 
1 
1 
1 
1 
1 
1 
1 
1 
1 
1 
1 
1 
1 
1 
1 
1 
1 
1 
1 
1 
1 
1 
1 
1 
1 
1 
1 
1 
1 
1 
1 
1 
1 
1 
1 
1 
1 
1 
1 
1 
1 
1 
1 
1 
1 
1 
1 
1 
1 
1 
1 
1 
1 
1 
1 
1 
1 
1 
1 
1 
1 
1 
1 
1 
1 
1 
1 
1 
1 
1 
1 
1 
1 
1 
1 
1 
1 
1 
1 
1 
1 
1 
1 
1 
1 
1 
1 
1 
1 
1 
1 
1 
1 
1 
1 
1 
1 
1 
1 
1 
1 
1 
1 
1 
1 
1 
1 
1 
1 
1 
1 
1 
1 
1 
1 
1 
1 
1 
1 
1 
1 
1 
1 
1 
1 
1 
1 
1 
1 
1 
1 
1 
1 
1 
1 
1 
1 
1 
1 
1 
1 
1 
1 
1 
1 
1 
1 
1 
1 
1 
1 
1 
1 
1 
1 
1 
1 
1 
1 
1 
1 
1 
1 
1 
1 
1 
1 
1 
1 
1 
1 
1 
1 
1 
1 
1 
1 
1 
1 
1 
1 
1 
1 
1 
1 
1 
1 
1 
1 
1 
1 
1 
1 
1 
1 
1 
1 
1 
1 
1 
1 
1 
1 
1 
1 
1 
1 
1 
1 
1 
1 
1 
1 
1 
1 
1 
1 
1 
1 
1 
1 
1 
1 
1 
1 
1 
1 
1 
1 
1 
1 
1 
1 
1 
1 
1 
1 
1 
1 
1 
1 
1 
1 
1 
1 
1 
1 
1 
1 
1 
1 
1 
1 
1 
1 
1 
1 
1 
1 
1 
1 
1 
1 
1 
1 
1 
1 
1 
1 
1 
1 
1 
1 
1 
1 
1 
1 
1 
1 
1 
1 
1 
1 
1 
1 
1 
1 
1 
1 
1 
1 
1 
1 
1 
1 
1 
1 
1 
1 
1 
1 
1 
1 
1 
1 
1 
1 
1 
1 
1 
1 
1 
1 
1 
1 
1 
1 
1 
1 
1 
1 
1 
1 
1 
1 
1 
1 
1 
1 
1 
1 
1 
1 
1 
1 
1 
1 
1 
1 
1 
1 
1 
1 
1 
1 
1 
1 
1 
1 
1 
1 
1 
1 
1 
1 
1 
1 
1 
1 
1 
1 
1 
1 
1 
1 
1 
1 
1 
1 
1 
1 
1 
1 
1 
1 
1 
1 
1 
1 
1 
1 
1 
1 
1 
1 
1 
1 
1 
1 
1 
1 
1 
1 
1 
1 
1 
1 
1 
1 
1 
1 
1 
1 
1 
1 
1 
1 
1 
1 
1 
1 
1 
1 
1 
1 
1 
1 
1 
1 
1 
1 
1 
1 
1 
1 
1 
1 
1 
1 
1 
1 
1 
1 
1 
1 
1 
1 
1 
1 
1 
1 
1 
1 
1 
1 
1 
1 
1 
1 
1 
1 
1 
1 
1 
1 
1 
1 
1 
1 
1 
1 
1 
1 
1 
1 
1 
1 
1 
1 
1 
1 
1 
1 
1 
1 
1 
1 
1 
1 
1 
1 
1 
1 
1 
1 
1 
1 
1 
1 
1 
1 
1 
1 
1 
1 
1 
1 
1 
1 
1 
1 
1 
1 
1 
1 
1 
1 
1 
1 
1 
1 
1 
1 
1 
1 
1 
1 
1 
1 
1 
1 
1 
1 
1 
1 
1 
1 
1 
1 
1 
1 
1 
1 
1 
1 
1 
1 
1 
1 
1 
1 
1 
1 
1 
1 
1 
1 
1 
1 
1 
1 
1 
1 
1 
1 
1 
1 
1 
1 
1 
1 
1 
1 
1 
1 
1 
1 
1 
1 
1 
1 
1 
1 
1 
1 
1 
1 
1 
1 
1 
1 
1 
1 
1 
1 
1 
1 
1 
1 
1 
1 
1 
1 
1 
1 
1 
1 
1 
1 
1 
1 
1 
1 
1 
1 
1 
1 
1 
1 
1 
1 
1 
1 
1 
1 
1 
1 
1 
1 
1 
1 
1 
1 
1 
1 
1 
1 
1 
1 
1 
1 
1 
1 
1 
1 
1 
1 
1 
1 
1 
1 
1 
1 
1 
1 
1 
1 
1 
1 
1 
1 
1 
1 
1 
1 
1 
1 
1 
1 
1 
1 
1 
1 
1 
1 
1 
1 
1 
1 
1 
1 
1 
1 
1 
1 
1 
1 
1 
1 
1 
1 
1 
1 
1 
1 
1 
1 
1 
1 
1 
1 
1 
1 
1 
1 
1 
1 
1 
1 
1 
1 
1 
1 
1 
1 
1 
1 
1 
1 
1 
1 
1 
1 
1 
1 
1 
1 
1 
1 
1 
1 
1 
1 
1 
1 
1 
1 
1 
1 
1 
1 
1 
1 
1 
1 
1 
1 
1 
1 
1 
1 
1 
1 
1 
1 
1 
1 
1 
1 
1 
1 
1 
1 
1 
1 
1 
1 
1 
1 
1 
1 
1 
1 
1 
1 
1 
1 
1 
1 
1 
1 
1 
1 
1 
1 
1 
1 
1 
1 
1 
1 
1 
1 
1 
1 
1 
1 
1 
1 
1 
1 
1 
1 
1 
1 
1 
1 
1 
1 
1 
1 
1 
1 
1 
1 
1 
1 
1 
1 
1 
1 
1 
1 
1 
1 
1 
1 
1 
1 
1 
1 
1 
1 
1 
1 
1 
1 
1 
1 
1 
1 
1 
1 
1 
1 
1 
1 
1 
1 
1 
1 
1 
1 
1 
1 
1 
1 
1 
1 
1 
1 
1 
1 
1 
1 
1 
1 
1 
1 
1 
1 
1 
1 
1 
1 
1 
1 
1 
1 
1 
1 
1 
1 
1 
1 
1 
1 
1 
1 
1 
1 
1 
1 
1 
1 
1 
1 
1 
1 
1 
1 
1 
1 
1 
1 
1 
1 
1 
1 
1 
1 
1 
1 
1 
1 
1 
1 
1 
1 
1 
1 
1 
1 
1 
1 
1 
1 
1 
1 
1 
1 
1 
1 
1 
1 
1 
1 
1 
1 
1 
1 
1 
1 
1 
1 
1 
1 
1 
1 
1 
1 
1 
1 
1 
1 
1 
1 
1 
1 
1 
1 
1 
1 
1 
1 
1 
1 
1 
1 
1 
1 
1 
1 
1 
1 
1 
1 
1 
1 
1 
1 
1 
1 
1 
1 
1 
1 
1 
1 
1 
1 
1 
1 
1 
1 
1 
1 
1 
1 
1 
1 
1 
1 
1 
1 
1 
1 
1 
1 
1 
1 
1 
1 
1 
1 
1 
1 
1 
1 
1 
1 
1 
1 
1 
1 
1 
1 
1 
1 
1 
1 
1 
1 
1 
1 
1 
1 
1 
1 
1 
1 
1 
1 
1 
1 
1 
1 
1 
1 
1 
1 
1 
1 
1 
1 
1 
1 
1 
1 
1 
1 
1 
1 
1 
1 
1 
1 
1 
1 
1 
1 
1 
1 
1 
1 
1 
1 
1 
1 
1 
1 
1 
1 
1 
1 
1 
1 
1 
1 
1 
1 
1 
1 
1 
1 
1 
1 
1 
1 
1 
1 
1 
1 
1 
1 
1 
1 
1 
1 
1 
1 
1 
1 
1 
1 
1 
1 
1 
1 
1 
1 
1 
1 
1 
1 
1 
1 
1 
1 
1 
1 
1 
1 
1 
1 
1 
1 
1 
1 
1 
1 
1 
1 
1 
1 
1 
1 
1 
1 
1 
1 
1 
1 
1 
1 
1 
1 
1 
1 
1 
1 
1 
1 
1 
1 
1 
1 
1 
1 
1 
1 
1 
1 
1 
1 
1 
1 
1 
1 
1 
1 
1 
1 
1 
1 
1 
1 
1 
1 
1 
1 
1 
1 
1 
1 
1 
1 
1 
1 
1 
1 
1 
1 
1 
1 
1 
1 
1 
1 
1 
1 
1 
1 
1 
1 
1 
1 
1 
1 
1 
1 
1 
1 
1 
1 
1 
1 
1 
1 
1 
1 
1 
1 
1 
1 
1 
1 
1 
1 
1 
1 
1 
1 
1 
1 
1 
1 
1 
1 
1 
1 
1 
1 
1 
1 
1 
1 
1 
1 
1 
1 
1 
1 
1 
1 
1 
1 
1 
1 
1 
1 
1 
1 
1 
1 
1 
1 
1 
1 
1 
1 
1 
1 
1 
1 
1 
1 
1 
1 
1 
1 
1 
1 
1 
1 
1 
1 
1 
1 
1 
1 
1 
1 
1 
1 
1 
1 
1 
1 
1 
1 
1 
1 
1 
1 
1 
1 
1 
1 
1 
1 
1 
1 
1 
1 
1 
1 
1 
1 
1 
1 
1 
1 
1 
1 
1 
1 
1 
1 
1 
1 
1 
1 
1 
1 
1 
1 
1 
1 
1 
1 
1 
1 
1 
1 
1 
1 
1 
1 
1 
1 
1 
1 
1 
1 
1 
1 
1 
1 
1 
1 
1 
1 
1 
1 
1 
1 
1 
1 
1 
1 
1 
1 
1 
1 
1 
1 
1 
1 
1 
1 
1 
1 
1 
1 
1 
1 
1 
1 
1 
1 
1 
1 
1 
1 
1 
1 
1 
1 
1 
1 
1 
1 
1 
1 
1 
1 
1 
1 
1 
1 
1 
1 
1 
1 
1 
1 
1 
1 
1 
1 
1 
1 
1 
1 
1 
1 
1 
1 
1 
1 
1 
1 
1 
1 
1 
1 
1 
1 
1 
1 
1 
1 
1 
1 
1 
1 
1 
1 
1 
1 
1 
1 
1 
1 
1 
1 
1 
1 
1 
1 
1 
1 
1 
1 
1 
1 
1 
1 
1 
1 
1 
1 
1 
1 
1 
1 
1 
1 
1 
1 
1 
1 
1 
1 
1 
1 
1 
1 
1 
1 
1 
1 
1 
1 
1 
1 
1 
1 
1 
1 
1 
1 
1 
1 
1 
1 
1 
1 
1 
1 
1 
1 
1 
1 
1 
1 
1 
1 
1 
1 
1 
1 
1 
1 
1 
1 
1 
1 
1 
1 
1 
1 
1 
1 
1 
1 
1 
1 
1 
1 
1 
1 
1 
1 
1 
1 
1 
1 
1 
1 
1 
1 
1 
1 
1 
1 
1 
1 
1 
1 
1 
1 
1 
1 
1 
1 
1 
1 
1 
1 
1 
1 
1 
1 
1 
1 
1 
1 
1 
1 
1 
1 
1 
1 
1 
1 
1 
1 
1 
1 
1 
1 
1 
1 
1 
1 
1 
1 
1 
1 
1 
1 
1 
1 
1 
1 
1 
1 
1 
1 
1 
1 
1 
1 
1 
1 
1 
1 
1 
1 
1 
1 
1 
1 
1 
1 
1 
1 
1 
1 
1 
1 
1 
1 
1 
1 
1 
1 
1 
1 
1 
1 
1 
1 
1 
1 
1 
1 
1 
1 
1 
1 
1 
1 
1 
1 
1 
1 
1 
1 
1 
1 
1 
1 
1 
1 
1 
1 
1 
1 
1 
1 
1 
1 
1 
1 
1 
1 
1 
1 
1 
1 
1 
1 
1 
1 
1 
1 
1 
1 
1 
1 
1 
1 
1 
1 
1 
1 
1 
1 
1 
1 
1 
1 
1 
1 
1 
1 
1 
1 
1 
1 
1 
1 
1 
1 
1 
1 
1 
1 
1 
1 
1 
1 
1 
1 
1 
1 
1 
1 
1 
1 
1 
1 
1 
1 
1 
1 
1 
1 
1 
1 
1 
1 
1 
1 
1 
1 
1 
1 
1 
1 
1 
1 
1 
1 
1 
1 
1 
1 
1 
1 
1 
1 
1 
1 
1 
1 
1 
1 
1 
1 
1 
1 
1 
1 
1 
1 
1 
1 
1 
1 
1 
1 
1 
1 
1 
1 
1 
1 
1 
1 
1 
1 
1 
1 
1 
1 
1 
1 
1 
1 
1 
1 
1 
1 
1 
1 
1 
1 
1 
1 
1 
1 
1 
1 
1 
1 
1 
1 
1 
1 
1 
1 
1 
1 
1 
1 
1 
1 
1 
1 
1 
1 
1 
1 
1 
1 
1 
1 
1 
1 
1 
1 
1 
1 
1 
1 
1 
1 
1 
1 
1 
1 
1 
1 
1 
1 
1 
1 
1 
1 
1 
1 
1 
1 
1 
1 
1 
1 
1 
1 
1 
1 
1 
1 
1 
1 
1 
1 
1 
1 
1 
1 
1 
1 
1 
1 
1 
1 
1 
1 
1 
1 
1 
1 
1 
1 
1 
1 
1 
1 
1 
1 
1 
1 
1 
1 
1 
1 
1 
1 
1 
1 
1 
1 
1 
1 
1 
1 
1 
1 
1 
1 
1 
1 
1 
1 
1 
1 
1 
1 
1 
1 
1 
1 
1 
1 
1 
1 
1 
1 
1 
1 
1 
1 
1 
1 
1 
1 
1 
1 
1 
1 
1 
1 
1 
1 
1 
1 
1 
1 
1 
1 
1 
1 
1 
1 
1 
1 
1 
1 
1 
1 
1 
1 
1 
1 
1 
1 
1 
1 
1 
1 
1 
1 
1 
1 
1 
1 
1 
1 
1 
1 
1 
1 
1 
1 
1 
1 
1 
1 
1 
1 
1 
1 
1 
1 
1 
1 
1 
1 
1 
1 
1 
1 
1 
1 
1 
1 
1 
1 
1 
1 
1 
1 
1 
1 
1 
1 
1 
1 
1 
1 
1 
1 
1 
1 
1 
1 
1 
1 
1 
1 
1 
1 
1 
1 
1 
1 
1 
1 
1 
1 
1 
1 
1 
1 
1 
1 
1 
1 
1 
1 
1 
1 
1 
1 
1 
1 
1 
1 
1 
1 
1 
1 
1 
1 
1 
1 
1 
1 
1 
1 
1 
1 
1 
1 
1 
1 
1 
1 
1 
1 
1 
1 
1 
1 
1 
1 
1 
1 
1 
1 
1 
1 
1 
1 
1 
1 
1 
1 
1 
1 
1 
1 
1 
1 
1 
1 
1 
1 
1 
1 
1 
1 
1 
1 
1 
1 
1 
1 
1 
1 
1 
1 
1 
1 
1 
1 
1 
1 
1 
1 
1 
1 
1 
1 
1 
1 
1 
1 
1 
1 
1 
1 
1 
1 
1 
1 
1 
1 
1 
1 
1 
1 
1 
1 
1 
1 
1 
1 
1 
1 
1 
1 
1 
1 
1 
1 
1 
1 
1 
1 
1 
1 
1 
1 
1 
1 
1 
1 
1 
1 
1 
1 
1 
1 
1 
1 
1 
1 
1 
1 
1 
1 
1 
1 
1 
1 
1 
1 
1 
1 
1 
1 
1 
1 
1 
1 
1 
1 
1 
1 
1 
1 
1 
1 
1 
1 
1 
1 
1 
1 
1 
1 
1 
1 
1 
1 
1 
1 
1 
1 
1 
1 
1 
1 
1 
1 
1 
1 
1 
1 
1 
1 
1 
1 
1 
1 
1 
1 
1 
1 
1 
1 
1 
1 
1 
1 
1 
1 
1 
1 
1 
1 
1 
1 
1 
1 
1 
1 
1 
1 
1 
1 
1 
1 
1 
1 
1 
1 
1 
1 
1 
1 
1 
1 
1 
1 
1 
1 
1 
1 
1 
1 
1 
1 
1 
1 
1 
1 
1 
1 
1 
1 
1 
1 
1 
1 
1 
1 
1 
1 
1 
1 
1 
1 
1 
1 
1 
1 
1 
1 
1 
1 
1 
1 
1 
1 
1 
1 
1 
1 
1 
1 
1 
1 
1 
1 
1 
1 
1 
1 
1 
1 
1 
1 
1 
1 
1 
1 
1 
1 
1 
1 
1 
1 
1 
1 
1 
1 
1 
1 
1 
1 
1 
1 
1 
1 
1 
1 
1 
1 
1 
1 
1 
1 
1 
1 
1 
1 
1 
1 
1 
1 
1 
1 
1 
1 
1 
1 
1 
1 
1 
1 
1 
1 
1 
1 
1 
1 
1 
1 
1 
1 
1 
1 
1 
1 
1 
1 
1 
1 
1 
1 
1 
1 
1 
1 
1 
1 
1 
1 
1 
1 
1 
1 
1 
1 
1 
1 
1 
1 
1 
1 
1 
1 
1 
1 
1 
1 
1 
1 
1 
1 
1 
1 
1 
1 
1 
1 
1 
1 
1 
1 
1 
1 
1 
1 
1 
1 
1 
1 
1 
1 
1 
1 
1 
1 
1 
1 
1 
1 
1 
1 
1 
1 
1 
1 
1 
1 
1 
1 
1 
1 
1 
1 
1 
1 
1 
1 
1 
1 
1 
1 
1 
1 
1 
1 
1 
1 
1 
1 
1 
1 
1 
1 
1 
1 
1 
1 
1 
1 
1 
1 
1 
1 
1 
1 
1 
1 
1 
1 
1 
1 
1 
1 
1 
1 
1 
1 
1 
1 
1 
1 
1 
1 
1 
1 
1 
1 
1 
1 
1 
1 
1 
1 
1 
1 
1 
1 
1 
1 
1 
1 
1 
1 
1 
1 
1 
1 
1 
1 
1 
1 
1 
1 
1 
1 
1 
1 
1 
1 
1 
1 
1 
1 
1 
1 
1 
1 
1 
1 
1 
1 
1 
1 
1 
1 
1 
1 
1 
1 
1 
1 
1 
1 
1 
1 
1 
1 
1 
1 
1 
1 
1 
1 
1 
1 
1 
1 
1 
1 
1 
1 
1 
1 
1 
1 
1 
1 
1 
1 
1 
1 
1 
1 
1 
1 
1 
1 
1 
1 
1 
1 
1 
1 
1 
1 
1 
1 
1 
1 
1 
1 
1 
1 
1 
1 
1 
1 
1 
1 
1 
1 
1 
1 
1 
1 
1 
1 
1 
1 
1 
1 
1 
1 
1 
1 
1 
1 
1 
1 
1 
1 
1 
1 
1 
1 
1 
1 
1 
1 
1 
1 
1 
1 
1 
1 
1 
1 
1 
1 
1 
1 
1 
1 
1 
1 
1 
1 
1 
1 
1 
1 
1 
1 
1 
1 
1 
1 
1 
1 
1 
1 
1 
1 
1 
1 
1 
1 
1 
1 
1 
1 
1 
1 
1 
1 
1 
1 
1 
1 
1 
1 
1 
1 
1 
1 
1 
1 
1 
1 
1 
1 
1 
1 
1 
1 
1 
1 
1 
1 
1 
1 
1 
1 
1 
1 
1 
1 
1 
1 
1 
1 
1 
1 
1 
1 
1 
1 
1 
1 
1 
1 
1 
1 
1 
1 
1 
1 
1 
1 
1 
1 
1 
1 
1 
1 
1 
1 
1 
1 
1 
1 
1 
1 
1 
1 
1 
1 
1 
1 
1 
1 
1 
1 
1 
1 
1 
1 
1 
1 
1 
1 
1 
1 
1 
1 
1 
1 
1 
1 
1 
1 
1 
1 
1 
1 
1 
1 
1 
1 
1 
1 
1 
1 
1 
1 
1 
1 
1 
1 
1 
1 
1 
1 
1 
1 
1 
1 
1 
1 
1 
1 
1 
1 
1 
1 
1 
1 
1 
1 
1 
1 
1 
1 
1 
1 
1 
1 
1 
1 
1 
1 
1 
1 
1 
1 
1 
1 
1 
1 
1 
1 
1 
1 
1 
1 
1 
1 
1 
1 
1 
1 
1 
1 
1 
1 
1 
1 
1 
1 
1 
1 
1 
1 
1 
1 
1 
1 
1 
1 
1 
1 
1 
1 
1 
1 
1 
1 
1 
1 
1 
1 
1 
1 
1 
1 
1 
1 
1 
1 
1 
1 
1 
1 
1 
1 
1 
1 
1 
1 
1 
1 
1 
1 
1 
1 
1 
1 
1 
1 
1 
1 
1 
1 
1 
1 
1 
1 
1 
1 
1 
1 
1 
1 
1 
1 
1 
1 
1 
1 
1 
1 
1 
1 
1 
1 
1 
1 
1 
1 
1 
1 
1 
1 
1 
1 
1 
1 
1 
1 
1 
1 
1 
1 
1 
1 
1 
1 
1 
1 
1 
1 
1 
1 
1 
1 
1 
1 
1 
1 
1 
1 
1 
1 
1 
1 
1 
1 
1 
1 
1 
1 
1 
1 
1 
1 
1 
1 
1 
1 
1 
1 
1 
1 
1 
1 
1 
1 
1 
1 
1 
1 
1 
1 
1 
1 
1 
1 
1 
1 
1 
1 
1 
1 
1 
1 
1 
1 
1 
1 
1 
1 
1 
1 
1 
1 
1 
1 
1 
1 
1 
1 
1 
1 
1 
1 
1 
1 
1 
1 
1 
1 
1 
1 
1 
1 
1 
1 
1 
1 
1 
1 
1 
1 
1 
1 
1 
1 
1 
1 
1 
1 
1 
1 
1 
1 
1 
1 
1 
1 
1 
1 
1 
1 
1 
1 
1 
1 
1 
1 
1 
1 
1 
1 
1 
1 
1 
1 
1 
1 
1 
1 
1 
1 
1 
1 
1 
1 
1 
1 
1 
1 
1 
1 
1 
1 
1 
1 
1 
1 
1 
1 
1 
1 
1 
1 
1 
1 
1 
1 
1 
1 
1 
1 
1 
1 
1 
1 
1 
1 
1 
1 
1 
1 
1 
1 
1 
1 
1 
1 
1 
1 
1 
1 
1 
1 
1 
1 
1 
1 
1 
1 
1 
1 
1 
1 
1 
1 
1 
1 
1 
1 
1 
1 
1 
1 
1 
1 
1 
1 
1 
1 
1 
1 
1 
1 
1 
1 
1 
1 
1 
1 
1 
1 
1 
1 
1 
1 
1 
1 
1 
1 
1 
1 
1 
1 
1 
1 
1 
1 
1 
1 
1 
1 
1 
1 
1 
1 
1 
1 
1 
1 
1 
1 
1 
1 
1 
1 
1 
1 
1 
1 
1 
1 
1 
1 
1 
1 
1 
1 
1 
1 
1 
1 
1 
1 
1 
1 
1 
1 
1 
1 
1 
1 
1 
1 
1 
1 
1 
1 
1 
1 
1 
1 
1 
1 
1 
1 
1 
1 
1 
1 
1 
1 
1 
1 
1 
1 
1 
1 
1 
1 
1 
1 
1 
1 
1 
1 
1 
1 
1 
1 
1 
1 
1 
1 
1 
1 
1 
1 
1 
1 
1 
1 
1 
1 
1 
1 
1 
1 
1 
1 
1 
1 
1 
1 
1 
1 
1 
1 
1 
1 
1 
1 
1 
1 
1 
1 
1 
1 
1 
1 
1 
1 
1 
1 
1 
1 
1 
1 
1 
1 
1 
1 
1 
1 
1 
1 
1 
1 
1 
1 
1 
1 
1 
1 
1 
1 
1 
1 
1 
1 
1 
1 
1 
1 
1 
1 
1 
1 
1 
1 
1 
1 
1 
1 
1 
1 
1 
1 
1 
1 
1 
1 
1 
1 
1 
1 
1 
1 
1 
1 
1 
1 
1 
1 
1 
1 
1 
1 
1 
1 
1 
1 
1 
1 
1 
1 
1 
1 
1 
1 
1 
1 
1 
1 
1 
1 
1 
1 
1 
1 
1 
1 
1 
1 
1 
1 
1 
1 
1 
1 
1 
1 
1 
1 
1 
1 
1 
1 
1 
1 
1 
1 
1 
1 
1 
1 
1 
1 
1 
1 
1 
1 
1 
1 
1 
1 
1 
1 
1 
1 
1 
1 
1 
1 
1 
1 
1 
1 
1 
1 
1 
1 
1 
1 
1 
1 
1 
1 
1 
1 
1 
1 
1 
1 
1 
1 
1 
1 
1 
1 
1 
1 
1 
1 
1 
1 
1 
1 
1 
1 
1 
1 
1 
1 
1 
1 
1 
1 
1 
1 
1 
1 
1 
1 
1 
1 
1 
1 
1 
1 
1 
1 
1 
1 
1 
1 
1 
1 
1 
1 
1 
1 
1 
1 
1 
1 
1 
1 
1 
1 
1 
1 
1 
1 
1 
1 
1 
1 
1 
1 
1 
1 
1 
1 
1 
1 
1 
1 
1 
1 
1 
1 
1 
1 
1 
1 
1 
1 
1 
1 
1 
1 
1 
1 
1 
1 
1 
1 
1 
1 
1 
1 
1 
1 
1 
1 
1 
1 
1 
1 
1 
1 
1 
1 
1 
1 
1 
1 
1 
1 
1 
1 
1 
1 
1 
1 
1 
1 
1 
1 
1 
1 
1 
1 
1 
1 
1 
1 
1 
1 
1 
1 
1 
1 
1 
1 
1 
1 
1 
1 
1 
1 
1 
1 
1 
1 
1 
1 
1 
1 
1 
1 
1 
1 
1 
1 
1 
1 
1 
1 
1 
1 
1 
1 
1 
1 
1 
1 
1 
1 
1 
1 
1 
1 
1 
1 
1 
1 
1 
1 
1 
1 
1 
1 
1 
1 
1 
1 
1 
1 
1 
1 
1 
1 
1 
1 
1 
1 
1 
1 
1 
1 
1 
1 
1 
1 
1 
1 
1 
1 
1 
1 
1 
1 
1 
1 
1 
1 
1 
1 
1 
1 
1 
1 
1 
1 
1 
1 
1 
1 
1 
1 
1 
1 
1 
1 
1 
1 
1 
1 
1 
1 
1 
1 
1 
1 
1 
1 
1 
1 
1 
1 
1 
1 
1 
1 
1 
1 
1 
1 
1 
1 
1 
1 
1 
1 
1 
1 
1 
1 
1 
1 
1 
1 
1 
1 
1 
1 
1 
1 
1 
1 
1 
1 
1 
1 
1 
1 
1 
1 
1 
1 
1 
1 
1 
1 
1 
1 
1 
1 
1 
1 
1 
1 
1 
1 
1 
1 
1 
1 
1 
1 
1 
1 
1 
1 
1 
1 
1 
1 
1 
1 
1 
1 
1 
1 
1 
1 
1 
1 
1 
1 
1 
1 
1 
1 
1 
1 
1 
1 
1 
1 
1 
1 
1 
1 
1 
1 
1 
1 
1 
1 
1 
1 
1 
1 
1 
1 
1 
1 
1 
1 
1 
1 
1 
1 
1 
1 
1 
1 
1 
1 
1 
1 
1 
1 
1 
1 
1 
1 
1 
1 
1 
1 
1 
1 
1 
1 
1 
1 
1 
1 
1 
1 
1 
1 
1 
1 
1 
1 
1 
1 
1 
1 
1 
1 
1 
1 
1 
1 
1 
1 
1 
1 
1 
1 
1 
1 
1 
1 
1 
1 
1 
1 
1 
1 
1 
1 
1 
1 
1 
1 
1 
1 
1 
1 
1 
1 
1 
1 
1 
1 
1 
1 
1 
1 
1 
1 
1 
1 
1 
1 
1 
1 
1 
1 
1 
1 
1 
1 
1 
1 
1 
1 
1 
1 
1 
1 
1 
1 
1 
1 
1 
1 
1 
1 
1 
1 
1 
1 
1 
1 
1 
1 
1 
1 
1 
1 
1 
1 
1 
1 
1 
1 
1 
1 
1 
1 
1 
1 
1 
1 
1 
1 
1 
1 
1 
1 
1 
1 
1 
1 
1 
1 
1 
1 
1 
1 
1 
1 
1 
1 
1 
1 
1 
1 
1 
1 
1 
1 
1 
1 
1 
1 
1 
1 
1 
1 
1 
1 
1 
1 
1 
1 
1 
1 
1 
1 
1 
1 
1 
1 
1 
1 
1 
1 
1 
1 
1 
1 
1 
1 
1 
1 
1 
1 
1 
1 
1 
1 
1 
1 
1 
1 
1 
1 
1 
1 
1 
1 
1 
1 
1 
1 
1 
1 
1 
1 
1 
1 
1 
1 
1 
1 
1 
1 
1 
1 
1 
1 
1 
1 
1 
1 
1 
1 
1 
1 
1 
1 
1 
1 
1 
1 
1 
1 
1 
POINT_DATA 5000
VECTORS Stress float
392.125 -473.726 0.
302.644 -590.869 0.
263.814 -681.558 0.
16.7404 -876.996 0.
-64.1881 -1065.88 0.
-145.117 -1254.76 0.
-34.6711 -1329.44 0.
-76.0537 -1425.98 0.
-117.436 -1522.52 0.
8.97378 -1505.78 0.
0.800331 -1524.84 0.
-7.37312 -1543.9 0.
343.144 -1393.94 0.
344.318 -1391.19 0.
-106.304 -1582.2 0.
-105.487 -1580.31 0.
-104.669 -1578.42 0.
-71.6592 -1563.52 0.
-72.0516 -1564.48 0.
-72.444 -1565.44 0.
-165.681 -1605.32 0.
-165.168 -1604.1 0.
-164.656 -1602.88 0.
-235.606 -1631.96 0.
-235.031 -1630.65 0.
-105.987 -1574.29 0.
-51.888 -1543.68 0.
-47.4952 -1533.43 0.
-118.857 -1559.5 0.
-124.003 -1571.55 0.
-129.149 -1583.6 0.
-103.087 -1577.99 0.
-103.442 -1578.8 0.
-103.796 -1579.62 0.
-202.299 -1614.48 0.
-196.5 -1600.93 0.
-190.701 -1587.37 0.
-694.608 -1764.72 0.
-672.497 -1713.04 0.
-452.699 -1579.64 0.
-444.969 -1561.58 0.
-437.239 -1543.53 0.
65.5187 -1294.38 0.
103.117 -1206.66 0.
140.716 -1118.94 0.
-415.755 -1315.64 0.
-405.732 -1292.24 0.
-395.708 -1268.84 0.
-570.66 -1379.02 0.
-597.407 -1441.46 0.
-338.124 -1381.53 0.
-254.732 -1298.09 0.
-229.593 -1239.46 0.
-249.171 -1231.13 0.
-297.444 -1343.8 0.
-345.717 -1456.47 0.
96.533 -1314.22 0.
100.11 -1305.86 0.
103.687 -1297.5 0.
-813.606 -1668.16 0.
-797.624 -1630.83 0.
-781.643 -1593.5 0.
-582.742 -1591.47 0.
-633.422 -1709.75 0.
-141.18 -1584.45 0.
-143.127 -1588.89 0.
-145.073 -1593.34 0.
-150.464 -1598 0.
-151.005 -1599.26 0.
-151.545 -1600.53 0.
241.047 -1431.48 0.
242.158 -1428.87 0.
243.269 -1426.26 0.
-58.2595 -1551.41 0.
-55.9505 -1546.03 0.
-549.578 -1753.63 0.
-408.733 -1695.39 0.
-409.842 -1697.99 0.
-331.228 -1666.83 0.
-334.262 -1673.9 0.
-337.296 -1680.98 0.
-269.577 -1654.69 0.
-268.925 -1653.14 0.
-268.273 -1651.58 0.
-250.763 -1639.18 0.
-247.591 -1631.81 0.
-244.418 -1624.44 0.
525.774 -1300.41 0.
522.031 -1309.15 0.
104.419 -1491.01 0.
121.694 -1450.68 0.
138.968 -1410.35 0.
-310.361 -1572.25 0.
-297.757 -1542.82 0.
-285.153 -1513.39 0.
-0.648324 -1281.01 0.
90.5191 -1068.22 0.
181.686 -855.422 0.
-233.907 -891.327 0.
-162.194 -723.914 0.
209.974 -520.421 0.
64.7787 -661.43 0.
25.9991 -752.169 0.
65.2986 -824.724 0.
-15.603 -1013.64 0.
-96.5046 -1202.55 0.
135.578 -1225.04 0.
94.1765 -1321.58 0.
52.7751 -1418.12 0.
-166.577 -1549.63 0.
-174.753 -1568.68 0.
-182.928 -1587.73 0.
279.684 -1389.67 0.
280.853 -1386.92 0.
40.3095 -1487.97 0.
41.1406 -1486.09 0.
41.9716 -1484.21 0.
-72.1151 -1532.24 0.
-72.4816 -1533.22 0.
-72.848 -1534.19 0.
-192.22 -1585.22 0.
-191.718 -1583.98 0.
-191.216 -1582.73 0.
-138.997 -1559.05 0.
-138.405 -1557.77 0.
-468.51 -1698.22 0.
-128.262 -1545.05 0.
-123.869 -1534.81 0.
44.5146 -1457.99 0.
39.3934 -1470.06 0.
34.2722 -1482.13 0.
-168.013 -1574.38 0.
-168.369 -1575.18 0.
-168.725 -1575.98 0.
-143.109 -1557.71 0.
-137.324 -1544.14 0.
-131.538 -1530.58 0.
-597.167 -1691.58 0.
-575.11 -1639.84 0.
-276.016 -1472.6 0.
-268.294 -1454.52 0.
-260.572 -1436.45 0.
-229.921 -1389.61 0.
-192.327 -1301.92 0.
-154.733 -1214.23 0.
-228.554 -1203.94 0.
-218.535 -1180.53 0.
-208.517 -1157.13 0.
-682.272 -1395.43 0.
-709.006 -1457.9 0.
-220.682 -1299.79 0.
-389.971 -1324.58 0.
-364.818 -1265.97 0.
-159.776 -1161.34 0.
-208.034 -1274.03 0.
-256.293 -1386.72 0.
-105.781 -1369.53 0.
-102.207 -1361.16 0.
-98.6335 -1352.79 0.
-539.522 -1519.39 0.
-523.559 -1482.03 0.
-507.595 -1444.66 0.
-582.549 -1559.87 0.
-633.208 -1678.16 0.
-85.718 -1529.39 0.
-87.7303 -1533.79 0.
-89.7427 -1538.19 0.
-179.459 -1579.04 0.
-179.998 -1580.3 0.
-180.537 -1581.57 0.
228.725 -1405.37 0.
229.824 -1402.76 0.
230.922 -1400.15 0.
-136.911 -1553.68 0.
-134.599 -1548.29 0.
-331.684 -1628.76 0.
-221.903 -1583.84 0.
-222.999 -1586.44 0.
-224.948 -1589.77 0.
-227.989 -1596.86 0.
-231.03 -1603.94 0.
-266.382 -1621.92 0.
-265.752 -1620.35 0.
-265.122 -1618.78 0.
-107.576 -1546.42 0.
-104.389 -1539.08 0.
-101.203 -1531.74 0.
220.468 -1399.8 0.
216.732 -1408.56 0.
180.179 -1427.13 0.
197.444 -1386.78 0.
214.709 -1346.44 0.
-203.561 -1495.08 0.
-190.97 -1465.63 0.
-178.378 -1436.18 0.
-11.3645 -1254.3 0.
79.7697 -1041.44 0.
170.904 -828.583 0.
-179.151 -836.49 0.
-107.5 -669.056 0.
36.983 -546.397 0.
-294.176 -1016.37 0.
-386.14 -1230.55 0.
-156.396 -1403.76 0.
-58.6412 -1175.63 0.
-289.352 -1713.92 0.
105.576 -1587.99 0.
129.453 -1532.4 0.
-56.6028 -1966.65 0.
-648.621 -2308.32 0.
-663.822 -2343.75 0.
-567.663 -2119.35 0.
38.5552 -1800.05 0.
83.5276 -1695.15 0.
-168.817 -2223.7 0.
-36.8748 -1915.79 0.
-78.4499 -2012.74 0.
-414.921 -2300.24 0.
-380.179 -2219.04 0.
-498.587 -2495.2 0.
-704.944 -2698.93 0.
-582.486 -2413.39 0.
-539.277 -2312.76 0.
-232.207 -1928.89 0.
-230.573 -1925.02 0.
-397.001 -2369.54 0.
-421.514 -2052.68 0.
-352.765 -1892.3 0.
73.8774 -1670.01 0.
9.19155 -1820.78 0.
-172.438 -2244.44 0.
-591.808 -2408.27 0.
-586.337 -2395.52 0.
-691.743 -2641.48 0.
-364.83 -2156.6 0.
-335.999 -2089.36 0.
-539.216 -2563.58 0.
-882.177 -2511 0.
-771.803 -2253.58 0.
-668.398 -2693.1 0.
-455.722 -2196.99 0.
-413.548 -2098.72 0.
-836.073 -2210.2 0.
-645.034 -1764.52 0.
-619.274 -1704.5 0.
-368.098 -1854.17 0.
-527.31 -2225.74 0.
-551.729 -2282.8 0.
-1177.48 -2306.86 0.
-1026.07 -1953.49 0.
-1505.09 -2771.53 0.
-873.424 -2164.35 0.
-862.037 -2137.71 0.
-496.56 -2086.2 0.
-414.171 -1893.84 0.
-635.877 -2411.04 0.
-541.485 -1970.21 0.
-537.141 -1959.99 0.
-667.837 -2264.86 0.
-650.417 -2269.19 0.
-573.773 -2090.34 0.
-766.055 -2538.99 0.
-841.364 -2132.81 0.
-879.234 -2220.93 0.
-497.231 -2563.78 0.
-512.564 -2599.63 0.
-471.244 -2503.3 0.
-621.911 -2525.16 0.
-406.362 -2022.16 0.
-602.246 -2479.16 0.
-176.414 -2295.89 0.
-91.1066 -2096.94 0.
-304.2 -2594.26 0.
-399.711 -1985.68 0.
-278.462 -1702.53 0.
-431.732 -2179.81 0.
-163.986 -1772.88 0.
-418.036 -2365.87 0.
-512.461 -2431.98 0.
-321.317 -1985.84 0.
-477.59 -2350.33 0.
-716.968 -2647.2 0.
-671.109 -2540.43 0.
-750.069 -2724.89 0.
-272.605 -2172.72 0.
-132.779 -1846.28 0.
-246.845 -2112.27 0.
-351.229 -2121.54 0.
-381.403 -2191.85 0.
-238.556 -2517.47 0.
12.8982 -1930.6 0.
119.936 -1680.68 0.
-291.019 -1870.62 0.
23.6366 -1136.29 0.
39.2754 -1099.65 0.
-235.672 -1726.17 0.
-6.98772 -1192.72 0.
-88.7473 -1383.63 0.
-329.828 -1261.35 0.
-82.538 -684.344 0.
112.426 -344.775 0.
-147.24 -614.703 0.
-240.247 -831.525 0.
114.632 -799.788 0.
173.656 -662.018 0.
232.68 -524.249 0.
557.331 -336.731 0.
536.681 -385.149 0.
516.032 -433.568 0.
64.0481 -635.533 0.
69.0621 -623.915 0.
74.0761 -612.297 0.
533.052 -438.591 0.
517.919 -473.885 0.
542.575 -488.342 0.
551.644 -467.062 0.
560.714 -445.782 0.
434.777 -473.867 0.
458.792 -417.71 0.
482.807 -361.552 0.
297.48 -459.411 0.
258.663 -550.126 0.
219.846 -640.841 0.
254.04 -605.985 0.
279.669 -546.193 0.
855.213 -250.779 0.
393.393 -351.01 0.
444.277 -232.268 0.
721.814 -47.5055 0.
697.537 -104.132 0.
673.26 -160.758 0.
284.757 -367.39 0.
267.693 -407.282 0.
250.628 -447.175 0.
240.161 -378.175 0.
307.607 -220.861 0.
375.053 -63.5462 0.
144.785 -209.914 0.
107.564 -297.074 0.
381.513 -238.725 0.
398.748 -198.931 0.
415.982 -159.136 0.
92.5346 -291.235 0.
68.1047 -348.376 0.
43.6748 -405.517 0.
76.2419 -418.231 0.
69.6065 -433.796 0.
62.9712 -449.36 0.
-311.382 -530.019 0.
-255.482 -399.608 0.
-715.03 -489.951 0.
46.6417 -266.3 0.
-7.36203 -392.254 0.
70.371 -438.71 0.
71.0269 -436.821 0.
71.6829 -434.931 0.
166.487 -374.536 0.
188.975 -321.926 0.
211.464 -269.317 0.
189.461 -326.963 0.
140.345 -441.577 0.
91.2286 -556.19 0.
-112.796 -601.219 0.
-81.9244 -528.891 0.
279.706 -320.307 0.
282.134 -314.649 0.
284.562 -308.991 0.
341.661 -297.311 0.
317.812 -352.976 0.
293.962 -408.642 0.
569.425 -292.77 0.
585.982 -254.106 0.
602.539 -215.442 0.
448.847 -341.857 0.
403.558 -447.307 0.
458.839 -507.831 0.
392.259 -503.725 0.
409.285 -463.789 0.
303.796 -486.852 0.
299.963 -495.68 0.
296.13 -504.508 0.
217.583 -568.804 0.
186.925 -640.575 0.
156.267 -712.345 0.
412.042 -621.251 0.
413.013 -618.869 0.
413.984 -616.487 0.
280.235 -663.413 0.
284.758 -652.748 0.
432.661 -581.611 0.
435.551 -574.58 0.
438.44 -567.548 0.
169.558 -672.369 0.
179.538 -648.665 0.
189.518 -624.962 0.
213.612 -615.578 0.
205.476 -634.468 0.
197.339 -653.357 0.
-3.11141 -566.653 0.
111.141 -300.122 0.
115.581 -311.821 0.
-161.69 -589.606 0.
-254.64 -806.502 0.
146.164 -754.636 0.
205.191 -616.848 0.
264.218 -479.059 0.
470.348 -342.515 0.
449.738 -390.951 0.
429.128 -439.388 0.
75.4147 -599.113 0.
80.473 -587.512 0.
85.5313 -575.912 0.
440.564 -446.775 0.
425.417 -482.048 0.
519.455 -466.844 0.
528.499 -445.555 0.
537.543 -424.266 0.
533.279 -400.28 0.
557.298 -344.126 0.
581.316 -287.973 0.
366.226 -398.476 0.
327.383 -489.199 0.
288.539 -579.922 0.
171.789 -609.567 0.
197.436 -549.804 0.
919.03 -191.865 0.
514.765 -267.592 0.
565.639 -148.821 0.
680.209 -33.9366 0.
655.973 -90.6037 0.
631.738 -147.271 0.
303.622 -327.81 0.
286.57 -367.73 0.
269.519 -407.649 0.
64.1384 -422.119 0.
131.571 -264.855 0.
199.004 -107.592 0.
211.236 -150.039 0.
174.071 -237.242 0.
395.878 -200.627 0.
413.222 -160.861 0.
430.565 -121.095 0.
239.128 -196.972 0.
214.712 -254.141 0.
190.295 -311.31 0.
-116.818 -469.557 0.
-123.473 -485.172 0.
-130.128 -500.787 0.
-166.792 -436.684 0.
-110.856 -306.291 0.
-765.033 -479.82 0.
193.768 -171.78 0.
139.766 -297.738 0.
-83.622 -473.368 0.
-83.0539 -471.445 0.
-82.4859 -469.522 0.
212.334 -323.825 0.
234.8 -271.21 0.
257.266 -218.595 0.
215.296 -284.171 0.
166.182 -398.815 0.
117.068 -513.459 0.
-7.77763 -524.574 0.
23.0829 -452.223 0.
70.0632 -378.864 0.
72.4826 -373.151 0.
74.902 -367.438 0.
368.94 -254.134 0.
345.113 -309.825 0.
321.285 -365.515 0.
447.932 -313.419 0.
464.437 -274.746 0.
480.943 -236.073 0.
641.866 -227.627 0.
596.564 -333.115 0.
463.155 -474.562 0.
423.952 -458.525 0.
440.868 -418.438 0.
298.991 -457.533 0.
295.153 -466.399 0.
291.315 -475.264 0.
287.695 -507.393 0.
257.042 -579.167 0.
226.388 -650.94 0.
452.807 -572.172 0.
453.796 -569.802 0.
454.785 -567.432 0.
304.772 -621.46 0.
309.279 -610.81 0.
255.121 -626.151 0.
257.973 -619.088 0.
260.826 -612.026 0.
121.216 -661.572 0.
131.142 -637.732 0.
141.067 -613.892 0.
197.344 -591.273 0.
189.135 -610.075 0.
180.925 -628.876 0.
48.8229 -513.092 0.
163.106 -246.587 0.
-212.69 -1113.61 0.
-430.088 -1199.95 0.
-425.599 -1189.67 0.
-3.00991 -1005.14 0.
-9.32734 -1020.21 0.
-15.6448 -1035.28 0.
144.853 -956.407 0.
164.769 -910.225 0.
184.685 -864.043 0.
-93.9417 -1093.96 0.
-194.345 -1328.52 0.
-294.749 -1563.09 0.
-43.2876 -1483.85 0.
-45.7133 -1489.37 0.
87.8383 -1439.16 0.
67.7894 -1486.21 0.
47.7406 -1533.25 0.
4.50923 -1576.14 0.
7.44754 -1569.01 0.
10.3858 -1561.88 0.
-149.005 -1614.26 0.
-135.668 -1583.32 0.
-122.331 -1552.38 0.
-206.327 -1612.57 0.
-226.398 -1659.37 0.
269.405 -1484.98 0.
-45.9058 -1602.47 0.
-36.6149 -1580.58 0.
-44.3694 -1564.8 0.
-33.6951 -1539.47 0.
-23.0208 -1514.15 0.
-198.971 -1543.3 0.
-157.879 -1447.21 0.
-116.786 -1351.11 0.
-451.266 -1540.15 0.
-508.271 -1673.42 0.
-565.277 -1806.69 0.
-401.244 -1647.44 0.
-341.227 -1507.04 0.
-181.26 -1338.28 0.
-181.818 -1339.09 0.
-182.376 -1339.91 0.
-220.735 -1314.76 0.
-155.649 -1162.91 0.
-90.5622 -1011.05 0.
-464.412 -1148.95 0.
-493.264 -1216.88 0.
-522.116 -1284.81 0.
-511.045 -1383.47 0.
-572.203 -1526.38 0.
-1554.16 -2064.4 0.
-324.202 -1471.75 0.
-290.011 -1391.54 0.
-535.019 -1421.83 0.
-483.834 -1302.28 0.
-432.649 -1182.73 0.
-82.985 -985.194 0.
-90.3388 -1002.4 0.
-97.6925 -1019.61 0.
-161.779 -1069.27 0.
-175.528 -1101.11 0.
-189.277 -1132.95 0.
-328.584 -1273.39 0.
-374.966 -1381.57 0.
-439.505 -1492.14 0.
-461.237 -1543.02 0.
-482.969 -1593.89 0.
-143.229 -1480.31 0.
-151.126 -1498.02 0.
-159.023 -1515.73 0.
-76.0202 -1477.75 0.
-68.5569 -1460.01 0.
-61.0936 -1442.28 0.
146.913 -1445.54 0.
83.8038 -1592.72 0.
-152.364 -1812.08 0.
-155.721 -1746.89 0.
-120.816 -1665.3 0.
-232.495 -1659.85 0.
-230.7 -1655.41 0.
-228.905 -1650.97 0.
-175.083 -1593.09 0.
-138.343 -1507.35 0.
-101.603 -1421.62 0.
156.22 -1342.91 0.
114.558 -1439.83 0.
72.8966 -1536.75 0.
-98.827 -1559.37 0.
-63.3924 -1476.56 0.
-198.658 -1460.11 0.
-142.657 -1329.38 0.
-86.6562 -1198.65 0.
-118.825 -1160.75 0.
-143.167 -1217.85 0.
-167.51 -1274.94 0.
-91.0339 -1203.48 0.
-38.8575 -1081.88 0.
13.3188 -960.284 0.
-207.922 -1121.05 0.
-263.533 -1250.68 0.
-146.962 -1054.03 0.
-397.952 -1154.68 0.
-393.426 -1144.45 0.
-102.529 -1016.18 0.
-108.854 -1031.24 0.
-115.179 -1046.29 0.
113.298 -938.349 0.
133.274 -892.187 0.
153.25 -846.025 0.
32.4212 -1008.49 0.
-67.995 -1243.04 0.
-168.411 -1477.59 0.
-14.4014 -1439.87 0.
-16.8578 -1445.42 0.
107.793 -1399.22 0.
87.6848 -1446.22 0.
67.5771 -1493.23 0.
-121.221 -1598.73 0.
-118.315 -1591.64 0.
-115.409 -1584.54 0.
-169.477 -1591.66 0.
-156.212 -1560.69 0.
-142.947 -1529.73 0.
34.5789 -1477.67 0.
14.5995 -1524.54 0.
-530.356 -1796.43 0.
-105.135 -1596.35 0.
-95.8425 -1574.48 0.
-138.638 -1573.67 0.
-127.952 -1548.38 0.
-117.267 -1523.1 0.
-140.474 -1486.75 0.
-99.4347 -1390.63 0.
-58.3953 -1294.51 0.
-331.674 -1457.52 0.
-388.714 -1590.77 0.
-445.754 -1724.01 0.
-360.883 -1598.52 0.
-300.862 -1458.09 0.
-382.91 -1393.23 0.
-383.381 -1394.13 0.
-383.852 -1395.02 0.
-286.357 -1311.25 0.
-221.272 -1159.45 0.
-156.186 -1007.66 0.
-377.721 -1080.39 0.
-406.552 -1148.38 0.
-435.383 -1216.37 0.
-472.534 -1335.56 0.
-533.688 -1478.5 0.
-930.888 -1765.8 0.
-342.511 -1448.3 0.
-308.19 -1368.21 0.
-460.757 -1358.55 0.
-409.606 -1238.96 0.
-358.455 -1119.37 0.
-125.983 -972.453 0.
-133.313 -989.702 0.
-140.643 -1006.95 0.
-251.308 -1076.14 0.
-265.063 -1108.02 0.
-278.819 -1139.9 0.
-399.509 -1271.94 0.
-445.885 -1380.08 0.
-275.301 -1390.57 0.
-297.147 -1441.31 0.
-318.993 -1492.04 0.
-105.24 -1432.57 0.
-113.114 -1450.3 0.
-120.988 -1468.04 0.
16.396 -1406.64 0.
23.878 -1388.99 0.
31.3601 -1371.34 0.
53.3104 -1454.24 0.
-9.75358 -1601.47 0.
-205.873 -1803.32 0.
-221.461 -1743.38 0.
-186.567 -1661.8 0.
-234.808 -1629.28 0.
-232.934 -1624.96 0.
-231.061 -1620.64 0.
-205.057 -1574.4 0.
-168.276 -1488.7 0.
-131.495 -1403 0.
230.892 -1279.42 0.
189.268 -1376.37 0.
147.644 -1473.33 0.
-93.2541 -1525.51 0.
-57.834 -1442.69 0.
-223.154 -1439.18 0.
-167.155 -1308.42 0.
-111.157 -1177.67 0.
-99.4671 -1120.74 0.
-123.868 -1177.75 0.
-148.269 -1234.77 0.
-103.782 -1177.84 0.
-51.7024 -1056.15 0.
0.377721 -934.461 0.
-217.338 -1093.31 0.
-272.943 -1222.94 0.
177.391 -389.347 0.
-84.1603 -453.855 0.
-187.432 -694.361 0.
-224.739 -1082.27 0.
-197.377 -1018.16 0.
-45.1845 -662.808 0.
-331.471 -1885.1 0.
566.334 210.113 0.
698.984 519.966 0.
558.132 8.5999 0.
136.163 -975.681 0.
440.776 -264.589 0.
419.295 -450.255 0.
47.603 -1317.87 0.
-61.6402 -1800.2 0.
265.525 -1036.75 0.
369.179 -794.839 0.
-171.486 -1445.75 0.
-11.815 -1073.35 0.
99.0456 -814.839 0.
115.391 -856.391 0.
78.3636 -942.916 0.
-102.451 -1364.92 0.
299.427 -1286.13 0.
282.452 -1325.53 0.
230.664 -933.901 0.
15.0444 -1172.16 0.
196.404 -748.885 0.
91.5273 -826.273 0.
452.762 16.9132 0.
400.359 -105.044 0.
-379.947 -2124.67 0.
48.2626 -1124.87 0.
129.19 -935.384 0.
160.967 -504.206 0.
-193.767 -1331.43 0.
-729.517 -2581.05 0.
-481.967 -1925.74 0.
-51.163 -920.433 0.
-88.9965 -293.488 0.
-239.135 -643.54 0.
-240.861 -647.303 0.
-160.474 -862.067 0.
-173.412 -892.228 0.
153.815 -128.689 0.
-89.9109 -541.454 0.
-318.145 -1073.6 0.
-345.57 -1137.17 0.
-389.282 -1184.68 0.
148.133 69.7685 0.
-1267.14 -1817.62 0.
-7.22492 -599.491 0.
79.4402 -397.661 0.
-256.748 -992.855 0.
-602.3 -1798.88 0.
-989.515 -2702.12 0.
-124.803 -855.404 0.
336.977 222.247 0.
121.728 -279.814 0.
-468.417 -1384.24 0.
-171.039 -690.123 0.
475.843 819.577 0.
286.434 496.936 0.
-435.234 -1186.64 0.
-952.385 -3250.69 0.
186.753 -592.751 0.
472.499 73.9571 0.
749.454 522.524 0.
86.1832 -1025.61 0.
102.622 -987.699 0.
9.1621 -1567.03 0.
666.874 -32.6269 0.
791.733 258.461 0.
-28.0235 -1435.45 0.
-170.82 -1767.74 0.
-325.495 -1915.24 0.
-52.5834 -1193.51 0.
-31.1445 -1143.14 0.
-57.4588 -1179.17 0.
435.446 -28.7291 0.
274.678 -403.522 0.
171.294 -607.879 0.
54.3422 -880.983 0.
-191.859 -1455.65 0.
283.93 -1265.78 0.
410.538 -970.524 0.
-355.25 -2757.54 0.
-110.863 -1545.92 0.
349.81 -471.073 0.
402.996 98.6239 0.
135.647 -525.276 0.
84.2872 -645.22 0.
291.225 -213.619 0.
5.41756 -880.769 0.
456.687 171.95 0.
151.46 -525.281 0.
47.5654 -768.077 0.
-366.815 -1735.36 0.
-11.1224 -562.87 0.
6.43982 -522.672 0.
227.747 -435.229 0.
21.0671 -571.401 0.
-2.83608 -626.943 0.
22.2647 -667.742 0.
-20.9363 -768.53 0.
-64.1374 -869.318 0.
94.7043 -898.327 0.
34.5566 -1038.3 0.
-25.591 -1178.27 0.
26.4297 -1139.16 0.
70.9787 -1035.12 0.
115.528 -931.074 0.
111.166 -983.934 0.
73.8311 -1071.3 0.
286.356 -1032.79 0.
358.993 -863.102 0.
431.631 -693.413 0.
128.582 -772.859 0.
53.5197 -947.921 0.
-21.5425 -1122.98 0.
-64.3664 -1193.09 0.
-51.4253 -1162.95 0.
-38.4843 -1132.8 0.
306.923 -914.507 0.
350.527 -812.651 0.
328.927 -738.678 0.
202.113 -899.179 0.
145.923 -1030.36 0.
58.4732 -1128.36 0.
118.479 -988.17 0.
178.484 -847.984 0.
-33.8085 -871.261 0.
-29.3747 -860.458 0.
-24.941 -849.656 0.
126.687 -695.434 0.
194.004 -537.963 0.
261.321 -380.492 0.
35.2993 -505.383 0.
9.71977 -564.47 0.
-99.7053 -637.138 0.
-28.6941 -471.262 0.
42.3171 -305.387 0.
-13.8779 -321.863 0.
-142.487 -621.81 0.
-271.096 -921.758 0.
-347.245 -1003.91 0.
-292.403 -875.564 0.
-237.561 -747.215 0.
-48.4537 -608.227 0.
-24.2571 -551.512 0.
-560.19 -734.914 0.
28.1633 -536.946 0.
-0.292678 -603.383 0.
-182.973 -727.788 0.
-187.75 -739.091 0.
-192.528 -750.395 0.
-146.007 -738.482 0.
-150.869 -749.436 0.
-155.731 -760.391 0.
-27.3395 -772.942 0.
-77.3727 -889.515 0.
-127.406 -1006.09 0.
-471.08 -1179.9 0.
-481.411 -1203.41 0.
-25.7878 -1031.75 0.
-49.3919 -1086.65 0.
-72.9961 -1141.56 0.
-92.9599 -1147.18 0.
-43.7704 -1032.55 0.
5.41911 -917.926 0.
310.822 -779.44 0.
279.886 -851.417 0.
248.949 -923.394 0.
317.195 -788.474 0.
394.665 -607.303 0.
225.452 -533.991 0.
137.655 -677.981 0.
81.6781 -808.335 0.
53.4768 -907.008 0.
46.1978 -924.088 0.
38.9188 -941.169 0.
4.80063 -970.981 0.
-3.24152 -989.542 0.
-11.2836 -1008.1 0.
401.097 -738.052 0.
477.314 -560.194 0.
553.532 -382.336 0.
225.348 -721.224 0.
100.674 -1012.12 0.
-37.2908 -1275.2 0.
-20.0461 -1235.17 0.
-2.80136 -1195.13 0.
-175.877 -1211.23 0.
-119.389 -1079.57 0.
-62.9014 -947.917 0.
-17.7021 -889.418 0.
-23.7342 -903.563 0.
-29.7664 -917.708 0.
-94.4886 -892.7 0.
-57.1955 -806.19 0.
330.054 -359.876 0.
228.256 -451.061 0.
204.407 -506.69 0.
123.763 -592.73 0.
80.6322 -693.603 0.
37.5015 -794.477 0.
115.39 -857.712 0.
55.2231 -997.652 0.
-4.94357 -1137.59 0.
-5.67164 -1121.46 0.
38.8825 -1017.42 0.
83.4367 -913.39 0.
30.537 -987.036 0.
-6.83993 -1074.35 0.
326.563 -984.012 0.
399.15 -814.243 0.
471.737 -644.474 0.
159.189 -728.544 0.
84.0732 -903.634 0.
8.95731 -1078.72 0.
-91.1052 -1173.26 0.
-78.2087 -1143.1 0.
-65.3122 -1112.94 0.
137.354 -955.728 0.
180.97 -853.942 0.
334.956 -704.779 0.
304.58 -823.725 0.
248.421 -954.927 0.
193.102 -1039.18 0.
253.142 -899.005 0.
313.182 -758.829 0.
-251.114 -932.925 0.
-246.665 -922.12 0.
-242.216 -911.316 0.
201.618 -631.902 0.
268.95 -474.425 0.
336.281 -316.949 0.
-60.1757 -514.916 0.
-85.8601 -573.89 0.
84.0196 -526.985 0.
155.092 -361.164 0.
226.165 -195.343 0.
-101.254 -327.961 0.
-229.92 -627.818 0.
-358.587 -927.674 0.
-403.024 -996.272 0.
-348.183 -867.972 0.
-293.342 -739.673 0.
83.4639 -520.113 0.
107.785 -463.469 0.
-966.707 -877.545 0.
54.7908 -493.946 0.
26.34 -560.31 0.
-214.83 -709.81 0.
-219.587 -721.075 0.
-224.345 -732.34 0.
-216.92 -737.742 0.
-221.847 -748.639 0.
-226.775 -759.536 0.
208.751 -640.054 0.
158.644 -756.582 0.
108.536 -873.109 0.
-502.073 -1162 0.
-512.514 -1185.5 0.
-39.1836 -1006.18 0.
-62.8613 -1061.02 0.
-86.539 -1115.85 0.
-231.92 -1175.25 0.
-182.806 -1060.55 0.
-133.691 -945.85 0.
283.414 -759.811 0.
252.346 -831.694 0.
221.279 -903.578 0.
416.803 -714.501 0.
494.394 -533.397 0.
287.685 -475.859 0.
116.369 -655.701 0.
60.4019 -786.087 0.
63.5178 -871.117 0.
56.3635 -888.331 0.
49.2093 -905.544 0.
7.71127 -937.946 0.
-0.327489 -956.527 0.
-8.36622 -975.108 0.
284.095 -756.705 0.
360.252 -578.802 0.
436.41 -400.899 0.
220.706 -691.973 0.
95.9791 -982.875 0.
161.283 -1158.43 0.
178.552 -1118.42 0.
195.821 -1078.42 0.
-207.741 -1193.22 0.
-151.292 -1061.54 0.
-94.8423 -929.846 0.
-17.2773 -857.877 0.
-23.4002 -871.907 0.
-29.5232 -885.938 0.
-7.07945 -824.077 0.
30.1209 -737.56 0.
-7.69683 -1138.69 0.
-38.5659 -1181.42 0.
-51.9088 -1212.7 0.
-142.351 -1278.99 0.
-159.641 -1319.15 0.
-176.931 -1359.31 0.
-99.4258 -1334.73 0.
-87.6804 -1307.28 0.
-75.9349 -1279.83 0.
-34.8512 -1215.32 0.
-3.26815 -1141.23 0.
28.3149 -1067.13 0.
5.81519 -1045.76 0.
19.8562 -1012.9 0.
325.657 -875.584 0.
229.378 -1100.23 0.
133.099 -1324.88 0.
-243.124 -1584.97 0.
-200.263 -1485.14 0.
-157.402 -1385.31 0.
-129.193 -1311.06 0.
-105.195 -1254.74 0.
-81.1974 -1198.42 0.
-74.625 -1231.11 0.
-106.21 -1304.5 0.
86.1103 -1281.84 0.
110.839 -1185.89 0.
155.173 -1081.84 0.
171.5 -1008.32 0.
170.205 -1011.06 0.
168.911 -1013.8 0.
-388.895 -1267.2 0.
-403.964 -1303.02 0.
-419.034 -1338.85 0.
-82.0996 -1282.97 0.
-144.469 -1428.6 0.
-206.838 -1574.23 0.
-585.282 -1639.69 0.
-520.479 -1489.18 0.
-180.499 -1231.74 0.
-167.846 -1202.79 0.
-155.193 -1173.83 0.
-533.834 -1271.79 0.
-457.868 -1094.82 0.
-381.903 -917.848 0.
-373.996 -864.806 0.
-387.515 -896.771 0.
-401.033 -928.735 0.
-2.61316 -839.358 0.
-53.8915 -959.173 0.
-1075.34 -1495.08 0.
-204.752 -1186.39 0.
-238.883 -1265.54 0.
-492.059 -1389.21 0.
-413.727 -1206.37 0.
-335.396 -1023.53 0.
-410.246 -992.422 0.
-433.428 -1046.86 0.
-456.611 -1101.3 0.
93.5874 -909.077 0.
70.4073 -963.218 0.
47.2272 -1017.36 0.
-582.576 -1379.91 0.
-633.7 -1499.88 0.
-215.654 -1388.57 0.
-131.144 -1192 0.
-46.633 -995.432 0.
-121.198 -947.509 0.
-163.363 -1046.33 0.
-205.529 -1145.15 0.
118.586 -989.935 0.
165.42 -881.104 0.
212.254 -772.273 0.
354.168 -806.889 0.
278.267 -984.086 0.
56.4099 -1225.07 0.
-208.162 -1352.82 0.
-215.65 -1370.41 0.
-156.106 -1356.42 0.
-162.384 -1370.59 0.
-168.661 -1384.76 0.
-229.804 -1437.55 0.
-253.6 -1492.99 0.
-277.396 -1548.42 0.
-123.87 -1537.58 0.
-156.091 -1612.67 0.
-188.312 -1687.77 0.
-53.1743 -1484.47 0.
34.3472 -1279.79 0.
186.315 -1070.13 0.
189.876 -1061.14 0.
193.436 -1052.15 0.
-255.604 -1223.59 0.
-233.826 -1172.55 0.
-212.049 -1121.51 0.
-142.118 -1101.95 0.
-167.711 -1162.1 0.
-193.305 -1222.26 0.
-146.531 -1127.78 0.
-91.6306 -999.946 0.
-85.7739 -1140.57 0.
-97.558 -1175.01 0.
-110.877 -1206.29 0.
-142.515 -1247.92 0.
-159.787 -1288.06 0.
-177.059 -1328.21 0.
-112.076 -1308.74 0.
-100.372 -1281.24 0.
-88.6679 -1253.75 0.
55.5848 -1144.94 0.
87.2673 -1070.93 0.
118.95 -996.914 0.
120.263 -965.012 0.
134.291 -932.178 0.
203.238 -896.877 0.
106.997 -1121.48 0.
10.7552 -1346.08 0.
-325.776 -1588.62 0.
-282.867 -1488.85 0.
-239.958 -1389.08 0.
-19.434 -1232.62 0.
4.48989 -1176.25 0.
28.4138 -1119.88 0.
-102.826 -1212.21 0.
-134.423 -1285.59 0.
-28.6037 -1300 0.
-52.3351 -1224.2 0.
-7.90536 -1120.17 0.
-13.9694 -1056.31 0.
-15.2232 -1059.01 0.
-16.4769 -1061.71 0.
-126.653 -1123.62 0.
-141.842 -1159.36 0.
-157.03 -1195.1 0.
-133.237 -1273.39 0.
-195.704 -1419 0.
-258.171 -1564.61 0.
-565.124 -1599.69 0.
-500.42 -1449.09 0.
-234.774 -1223.77 0.
-222.195 -1194.76 0.
-209.615 -1165.75 0.
-482.993 -1218.72 0.
-407.136 -1041.71 0.
-331.278 -864.701 0.
-354.157 -825.087 0.
-367.738 -856.992 0.
-381.319 -888.898 0.
27.663 -794.907 0.
-23.6392 -914.735 0.
-1719.5 -1739.52 0.
-110.703 -1114.59 0.
-144.808 -1193.73 0.
-394.424 -1315.96 0.
-316.074 -1133.02 0.
-237.724 -950.072 0.
-509.953 -1003.72 0.
-533.26 -1058.11 0.
-556.567 -1112.49 0.
-104.743 -962.95 0.
-128.007 -1017.04 0.
-151.271 -1071.13 0.
-490.517 -1309.23 0.
-541.608 -1429.36 0.
-198.576 -1349.92 0.
-114.127 -1153.31 0.
-29.6775 -956.696 0.
81.9066 -829.034 0.
39.6212 -927.825 0.
-2.66417 -1026.62 0.
17.528 -1002.01 0.
64.2409 -893.066 0.
110.954 -784.118 0.
232.888 -827.249 0.
156.958 -1004.39 0.
-487.911 -1427.01 0.
-216.208 -1324.91 0.
-223.723 -1342.47 0.
-162.984 -1327.95 0.
-169.159 -1342.14 0.
-175.335 -1356.33 0.
-255.349 -1416.67 0.
-279.129 -1472.11 0.
-302.91 -1527.55 0.
-153.585 -1518.95 0.
-185.828 -1594 0.
-218.071 -1669.05 0.
145.5 -1368.14 0.
233.009 -1163.46 0.
-11.1081 -1123.5 0.
-7.60967 -1114.53 0.
-4.11125 -1105.55 0.
-276.546 -1201 0.
-254.776 -1149.96 0.
-233.005 -1098.93 0.
-159.805 -1078.19 0.
-185.446 -1138.33 0.
-211.087 -1198.47 0.
-219.888 -1127.82 0.
-165.116 -999.98 0.
78.5531 -574.81 0.
129.305 -502.861 0.
459.165 266.178 0.
512.643 312.772 0.
316.101 -145.745 0.
272.502 -247.326 0.
498.841 171.794 0.
233.615 -447.307 0.
541.282 270.344 0.
828.319 521.491 0.
706.739 237.001 0.
891.697 667.627 0.
669.754 130.443 0.
197.525 -971.631 0.
-83.2965 -1300.26 0.
474.033 -0.15832 0.
464.631 -22.4649 0.
320.953 108.384 0.
253.882 -48.8079 0.
216.809 -135.936 0.
582.229 -5.0236 0.
657.806 171.746 0.
621.599 87.7118 0.
562.11 424.485 0.
549.812 394.763 0.
-91.6493 -298.528 0.
367.94 97.1915 0.
199.595 -296.138 0.
324.226 115.415 0.
231.69 -100.55 0.
155.483 -278.418 0.
536.65 -42.816 0.
238.475 -738.415 0.
257.407 -694.104 0.
354.628 -7.9856 0.
414.537 132.281 0.
178.084 -418.937 0.
399.025 645.8 0.
10.3648 -262.544 0.
193.646 -90.1481 0.
176.306 -131.512 0.
430.93 461.783 0.
270.996 475.509 0.
-115.426 -425.812 0.
305.478 556.472 0.
-26.849 -67.5825 0.
21.2573 44.8556 0.
-11.9884 -32.526 0.
471.473 213.385 0.
448.096 157.978 0.
-810.562 -471.006 0.
251.73 -412.508 0.
144.277 -663.044 0.
359.245 289.398 0.
537.671 705.898 0.
413.206 416.103 0.
31.2033 477.748 0.
-99.3075 173.281 0.
252.036 993.118 0.
-35.684 -395.785 0.
-1.8871 -316.439 0.
203.277 162.768 0.
99.5644 -76.98 0.
5.16905 -296.419 0.
421.509 94.3121 0.
443.717 146.505 0.
593.073 495.359 0.
558.948 -70.3947 0.
662.014 170.716 0.
505.095 -194.779 0.
273.052 -183.854 0.
243.241 -252.479 0.
192.011 -371.163 0.
297.762 -415.235 0.
563.414 205.377 0.
-275.83 35.1529 0.
441.745 255.86 0.
499.662 392.061 0.
309.182 -182.482 0.
370.135 -40.2814 0.
591.127 475.351 0.
582.535 617.949 0.
549.788 541.955 0.
479.169 377.596 0.
555.277 223.287 0.
204.788 -594.279 0.
576.086 272.257 0.
931.969 119.88 0.
993.478 262.936 0.
308.44 30.811 0.
414.263 276.969 0.
316.374 47.8165 0.
-80.7453 -673.138 0.
-19.3225 -529.471 0.
161.805 -106.459 0.
-136.104 -958.012 0.
24.9312 -581.929 0.
-116.626 -911.73 0.
16.588 -413.002 0.
-17.4429 -492.98 0.
73.3542 -733.261 0.
96.9049 -687.661 0.
118.199 -638.671 0.
98.7723 -648.172 0.
8.67298 -858.294 0.
-81.4263 -1068.42 0.
-101.349 -1174.92 0.
-100.211 -1172.38 0.
-99.0731 -1169.84 0.
92.8381 -1103.79 0.
79.981 -1133.88 0.
67.1239 -1163.97 0.
100.452 -1117.21 0.
121.414 -1068.3 0.
51.4861 -1058.81 0.
64.1211 -1029.28 0.
76.7562 -999.742 0.
-106.207 -1047.85 0.
-80.5397 -988.006 0.
-54.8723 -928.164 0.
2.1671 -888.333 0.
-5.02863 -905.311 0.
-12.2244 -922.29 0.
-91.4964 -925.759 0.
-69.0313 -873.835 0.
225.629 -705.408 0.
47.0019 -858.718 0.
6.91582 -952.261 0.
-115.374 -1089.09 0.
-176.975 -1232.65 0.
-238.577 -1376.22 0.
-150.968 -1357.41 0.
-95.0988 -1226.82 0.
-39.2298 -1096.23 0.
33.3633 -986.801 0.
66.5554 -909.41 0.
99.7475 -832.02 0.
-494.221 -1084.64 0.
-495.834 -1088.83 0.
-244.921 -994.528 0.
-289.42 -1098.35 0.
-333.919 -1202.18 0.
-406.34 -1278.38 0.
-387.741 -1234.49 0.
-369.143 -1190.6 0.
-523.605 -1237.73 0.
-521.909 -1233.54 0.
-520.212 -1229.35 0.
-66.4618 -1012.4 0.
-51.4912 -977.638 0.
-875.983 -1301.7 0.
34.4902 -791.693 0.
97.3203 -645.026 0.
-168.397 -715.118 0.
-281.836 -979.858 0.
-395.276 -1244.6 0.
-688.302 -1467.58 0.
-659.67 -1401.72 0.
-631.038 -1335.86 0.
-286.771 -1139.98 0.
-263.572 -1085.73 0.
-240.374 -1031.49 0.
-442.249 -1102.3 0.
-436.074 -1087.72 0.
33.5433 -893.435 0.
-53.02 -1095.21 0.
-139.583 -1296.99 0.
-234.78 -1440.06 0.
-221.75 -1409.28 0.
-208.72 -1378.5 0.
-106.659 -1378.46 0.
-158.469 -1498.9 0.
-210.279 -1619.34 0.
-147.899 -1505.84 0.
-75.8878 -1337.58 0.
-221.37 -1260.74 0.
-296.221 -1255.38 0.
-276.888 -1209.62 0.
-124.094 -1136.62 0.
-167.125 -1236.53 0.
-210.155 -1336.43 0.
-183.667 -1298.56 0.
-101.152 -1105.63 0.
-18.6361 -912.704 0.
73.3699 -825.411 0.
70.5918 -831.895 0.
67.8137 -838.379 0.
443.229 -625.691 0.
473.514 -555.277 0.
70.0221 -696.645 0.
-12.1831 -888.949 0.
-94.3883 -1081.25 0.
-325.13 -1238.56 0.
-256.315 -1078.08 0.
-187.499 -917.601 0.
21.1694 -766.577 0.
25.1951 -756.741 0.
29.2208 -746.905 0.
38.028 -683.026 0.
78.063 -590.2 0.
166.617 -661.998 0.
170.94 -624.352 0.
192.33 -575.399 0.
112.667 -610.973 0.
22.5122 -821.021 0.
-67.6423 -1031.07 0.
-113.15 -1148.63 0.
-112.027 -1146.05 0.
-110.903 -1143.48 0.
60.9847 -1086.17 0.
48.0706 -1116.21 0.
35.1564 -1146.25 0.
74.7836 -1096.34 0.
95.6688 -1047.38 0.
106.299 -1004.23 0.
118.889 -974.622 0.
131.479 -945.014 0.
-5.89179 -973.062 0.
19.7534 -913.17 0.
45.3986 -853.277 0.
-227.808 -955.355 0.
-234.963 -972.34 0.
-242.119 -989.324 0.
-167.027 -926.83 0.
-144.582 -874.878 0.
502.795 -555.342 0.
172.523 -773.475 0.
132.453 -866.96 0.
-5.29949 -1010.77 0.
-66.9484 -1154.29 0.
-128.597 -1297.82 0.
-286.886 -1384.44 0.
-231.121 -1253.84 0.
-175.356 -1123.24 0.
170.165 -896.677 0.
203.26 -819.334 0.
236.356 -741.99 0.
-663.422 -1125.97 0.
-665.057 -1130.17 0.
-291.797 -982.901 0.
-336.231 -1086.76 0.
-380.664 -1190.61 0.
-298.136 -1200.86 0.
-279.607 -1156.97 0.
-261.078 -1113.08 0.
-501.217 -1196.41 0.
-499.458 -1192.32 0.
-497.699 -1188.24 0.
-65.6761 -980.51 0.
-50.6902 -945.841 0.
-1209.72 -1413.31 0.
-15.9102 -781.714 0.
46.9633 -635.042 0.
-270.579 -727.476 0.
-383.904 -992.266 0.
-497.228 -1257.06 0.
-531.893 -1368.89 0.
-503.208 -1303.05 0.
-474.523 -1237.22 0.
-187.522 -1066.21 0.
-164.366 -1011.97 0.
-141.211 -957.732 0.
-550.52 -1117.19 0.
-544.288 -1102.76 0.
93.2434 -835.913 0.
6.75306 -1037.84 0.
-79.7373 -1239.78 0.
-472.087 -1510.22 0.
-458.972 -1479.65 0.
-445.856 -1449.08 0.
72.1535 -1270.34 0.
20.3314 -1390.77 0.
-31.4909 -1511.19 0.
-104.451 -1455.88 0.
-32.4612 -1287.59 0.
32.4512 -1120.81 0.
-390.437 -1264.51 0.
-371.095 -1218.77 0.
-137.556 -1111.07 0.
-180.546 -1210.94 0.
-223.536 -1310.81 0.
-99.4491 -1231.1 0.
-16.97 -1038.07 0.
65.5091 -845.046 0.
50.1981 -803.901 0.
47.3681 -810.293 0.
44.5381 -816.684 0.
252.282 -676.355 0.
282.567 -605.886 0.
176.208 -619.96 0.
93.9496 -812.216 0.
11.6909 -1004.47 0.
-311.149 -1201 0.
-242.208 -1040.62 0.
-173.267 -880.241 0.
129.835 -688.505 0.
133.868 -678.669 0.
137.902 -668.833 0.
222.542 -572.538 0.
262.569 -479.754 0.
39.9771 -1028.59 0.
98.1693 -1095.19 0.
57.3295 -1188.45 0.
-177.474 -1337.97 0.
-149.903 -1273.88 0.
-122.332 -1209.78 0.
-122.13 -1173.32 0.
-115.781 -1158.05 0.
-109.432 -1142.78 0.
70.0236 -1075.89 0.
58.8799 -1101.7 0.
47.7361 -1127.52 0.
62.0243 -1079.76 0.
87.8739 -1019.69 0.
110.152 -971.601 0.
87.7038 -1024.15 0.
65.2553 -1076.7 0.
-149.54 -1213.16 0.
-175.949 -1274.9 0.
-202.357 -1336.65 0.
-504.981 -1437.87 0.
-454.452 -1320.07 0.
-403.924 -1202.28 0.
-257.514 -1140.61 0.
-272.001 -1174.37 0.
343.514 -938.068 0.
85.257 -915.478 0.
153.142 -757.079 0.
56.096 -713.434 0.
23.6032 -789.67 0.
-8.88953 -865.907 0.
-174.491 -1005.71 0.
-213.83 -1097.77 0.
-253.168 -1189.84 0.
29.8716 -1106.88 0.
20.2659 -1129.28 0.
10.6602 -1151.68 0.
-791.111 -1416.08 0.
-744.514 -1307.05 0.
-320.32 -1039.01 0.
-286.36 -959.531 0.
-252.4 -880.056 0.
-125.551 -798.329 0.
-153.35 -863.332 0.
-181.149 -928.335 0.
-399.562 -1060.94 0.
-412.781 -1091.84 0.
-426.001 -1122.74 0.
-27.4923 -854.341 0.
42.182 -691.669 0.
-1846.96 -1369.64 0.
-74.9678 -782.801 0.
-165.524 -993.852 0.
-550.866 -1284.91 0.
-533.177 -1243.6 0.
-515.487 -1202.29 0.
-426.12 -1196.64 0.
-487.755 -1340.11 0.
-549.39 -1483.57 0.
-267.67 -1347.45 0.
-225.058 -1247.62 0.
-182.446 -1147.79 0.
-622.867 -1275.11 0.
-591.907 -1202.43 0.
16.8882 -890.203 0.
19.1554 -884.842 0.
21.4225 -879.481 0.
-322.052 -1037.63 0.
-347.74 -1097.41 0.
-373.428 -1157.2 0.
194.093 -912.958 0.
213.739 -867.296 0.
233.385 -821.633 0.
178.125 -919.568 0.
123.698 -1046.85 0.
-71.2168 -1236.84 0.
-516.289 -1439.54 0.
-522.402 -1454.13 0.
-276.218 -1344.96 0.
-257.57 -1301.94 0.
-238.923 -1258.92 0.
-135.802 -1186.11 0.
-124.002 -1159.21 0.
-112.201 -1132.32 0.
-155.776 -1219 0.
-215.015 -1357.43 0.
-274.254 -1495.86 0.
-95.2641 -1402.08 0.
-78.3344 -1362.65 0.
-89.7701 -1320.11 0.
-12.5577 -1140 0.
64.6546 -959.894 0.
-237.059 -1027.01 0.
-287.441 -1144.09 0.
-337.823 -1261.17 0.
27.163 -1083.42 0.
84.5834 -949.427 0.
142.004 -815.436 0.
113.503 -945.94 0.
19.0609 -1166.08 0.
47.8878 -994.112 0.
369.798 -947.294 0.
328.974 -1040.61 0.
-107.368 -1276.77 0.
-79.9886 -1212.51 0.
-52.6093 -1148.25 0.
-73.8878 -1121.18 0.
-67.6089 -1105.85 0.
-61.33 -1090.52 0.
142.963 -1013.74 0.
131.76 -1039.54 0.
120.558 -1065.34 0.
74.2506 -1042.87 0.
100.035 -982.628 0.
64.4643 -959.738 0.
41.9762 -1012.22 0.
19.4882 -1064.7 0.
-314.072 -1252.58 0.
-340.568 -1314.21 0.
-367.065 -1375.84 0.
-415.257 -1367.57 0.
-364.773 -1249.77 0.
-314.289 -1131.97 0.
-145.566 -1061.39 0.
-159.992 -1095.13 0.
-219.848 -1148.4 0.
-71.1329 -950.755 0.
-3.26728 -792.328 0.
-181.104 -784.273 0.
-213.637 -860.426 0.
-246.171 -936.578 0.
-128.363 -954.631 0.
-167.78 -1046.66 0.
-207.197 -1138.69 0.
-194.389 -1171.58 0.
-204.024 -1194.05 0.
-213.66 -1216.52 0.
-602.175 -1303.52 0.
-555.433 -1194.65 0.
-253.195 -978.737 0.
-219.234 -899.26 0.
-185.274 -819.783 0.
-200.185 -799.173 0.
-228.096 -864.184 0.
-256.007 -929.194 0.
-283.22 -979.647 0.
-296.424 -1010.71 0.
-309.629 -1041.77 0.
-33.8853 -825.717 0.
35.8924 -663.202 0.
-532.937 -774.928 0.
-135.239 -776.957 0.
-225.6 -988.143 0.
-518.768 -1239.85 0.
-501.056 -1198.53 0.
-483.344 -1157.21 0.
-473.468 -1185.63 0.
-535.132 -1329 0.
-596.797 -1472.36 0.
-233.388 -1301.41 0.
-190.715 -1201.55 0.
-148.043 -1101.7 0.
-492.912 -1187.76 0.
-461.926 -1115.08 0.
-138.46 -925.151 0.
-136.15 -919.848 0.
-133.84 -914.545 0.
-182.059 -946.106 0.
-207.783 -1005.91 0.
-233.508 -1065.71 0.
-25.8486 -975.878 0.
-6.24884 -930.18 0.
13.351 -884.482 0.
297.843 -836.839 0.
243.48 -964.168 0.
-212.223 -1266.04 0.
-513.417 -1406.92 0.
-519.644 -1421.49 0.
-322.579 -1333.37 0.
-303.822 -1290.39 0.
-285.066 -1247.4 0.
-322.561 -1235.08 0.
-310.826 -1208.08 0.
-299.091 -1181.08 0.
-167.333 -1191.86 0.
-226.614 -1330.23 0.
-285.895 -1468.6 0.
38.8425 -1313.67 0.
55.7428 -1274.18 0.
-81.1037 -1285.58 0.
-3.86943 -1105.42 0.
73.3648 -925.267 0.
-220.325 -988.17 0.
-270.579 -1105.28 0.
-320.833 -1222.38 0.
112.816 -1015.43 0.
170.294 -881.471 0.
227.773 -747.511 0.
96.8137 -921.901 0.
2.5867 -1142.09 0.
375.013 -206.444 0.
491.345 -1145.48 0.
628.202 -827.748 0.
509.433 62.5198 0.
503.652 48.3565 0.
376.032 -250.286 0.
347.69 -196.525 0.
347.183 -198.834 0.
422.795 -23.4834 0.
464.086 -368.157 0.
702.087 186.419 0.
871.047 580.112 0.
391.899 -293.444 0.
369.294 -346.276 0.
405.208 -45.7996 0.
403.324 -50.28 0.
179.872 -571.722 0.
-290.698 -852.731 0.
-379.924 -1060.99 0.
-116.58 -446.552 0.
219.504 -25.1023 0.
90.865 -325.047 0.
404.341 406.557 0.
313.842 -171.997 0.
323.597 -149.834 0.
-704.373 -444.847 0.
137.329 -136.279 0.
275.123 183.945 0.
-123.5 -170.075 0.
92.3138 333.088 0.
258.999 721.628 0.
450.937 341.625 0.
155.641 -347.58 0.
288.737 -37.2321 0.
161.577 113.44 0.
-215.205 -765.268 0.
-593.82 -1648.37 0.
-135.165 -539.553 0.
293.716 461.917 0.
71.9573 -317.065 0.
189.52 -42.3358 0.
297.104 209.041 0.
167.942 234.669 0.
199.167 307.282 0.
253.377 433.556 0.
407.909 443.754 0.
158.949 -137.417 0.
117.81 -233.565 0.
297.512 -5.93025 0.
448.045 345.621 0.
227.826 376.121 0.
300.621 383.271 0.
236.486 233.356 0.
95.1552 161.451 0.
140.827 267.898 0.
152.3 294.564 0.
188.74 481.648 0.
560.394 1349.23 0.
194.397 495.792 0.
362.438 59.4661 0.
407.277 163.293 0.
706.582 860.854 0.
-343.472 -1057.01 0.
-412.477 -1217.57 0.
254.21 316.775 0.
290.986 402.55 0.
339.395 515.479 0.
620.961 693.91 0.
468.17 338.1 0.
440.796 274.914 0.
519.656 747.007 0.
474.391 640.936 0.
381.566 423.883 0.
840.707 230.513 0.
721.365 -47.9109 0.
252.866 153.699 0.
97.2114 43.3788 0.
286.303 484.605 0.
373.08 408.03 0.
156.701 -96.3822 0.
34.4622 -381.413 0.
-165.914 -484.347 0.
-156.393 -461.635 0.
-32.7268 -172.542 0.
183.603 -318.232 0.
52.7904 -622.907 0.
64.2501 -595.599 0.
403.731 -687.084 0.
552.241 -340.088 0.
840.247 880.79 0.
282.026 -422.067 0.
326.448 -318.804 0.
196.281 -21.5584 0.
-286.755 -1147.5 0.
-45.131 -582.933 0.
466.053 -323.21 0.
352.263 -588.743 0.
463.119 -329.908 0.
222.957 -569.82 0.
190.839 -643.996 0.
-36.4022 -1163.45 0.
384.088 -927.743 0.
414.096 -859.065 0.
105.883 -943.23 0.
111.451 -930.658 0.
117.02 -918.085 0.
-16.8139 -986.914 0.
-35.4528 -1031.24 0.
-54.0917 -1075.57 0.
119.531 -985.984 0.
140.261 -937.907 0.
160.991 -889.831 0.
-52.8482 -1072.94 0.
-108.64 -1202.93 0.
-222.634 -1340.27 0.
-197.88 -1282.53 0.
-173.126 -1224.78 0.
-428.379 -1277.96 0.
-390.426 -1189.5 0.
-352.473 -1101.03 0.
-155.493 -976.198 0.
-148.219 -959.56 0.
-140.944 -942.922 0.
-56.2545 -903.035 0.
-57.0925 -905.359 0.
-658.545 -1165.08 0.
-382.483 -1230.6 0.
-476.736 -1450.57 0.
-555.286 -1612.29 0.
-533.829 -1561.62 0.
-512.373 -1510.94 0.
-279.761 -1324.3 0.
-205.594 -1151.23 0.
-131.427 -978.154 0.
-263.483 -960.525 0.
-242.701 -911.966 0.
-221.919 -863.408 0.
-339 -918.05 0.
-342.961 -927.027 0.
-198.621 -883.928 0.
-261.038 -1029.53 0.
-323.455 -1175.14 0.
-538.539 -1333.38 0.
-515.673 -1280.06 0.
-492.806 -1226.74 0.
-382.148 -1159.12 0.
-382.408 -1159.52 0.
-382.668 -1159.91 0.
-135.714 -1029.07 0.
-118.259 -988.487 0.
-1001.25 -1333.97 0.
-278.111 -928.754 0.
-228.189 -812.071 0.
-268.76 -769.264 0.
-299.683 -841.42 0.
-330.607 -913.576 0.
-432.527 -990.679 0.
-432.648 -990.607 0.
-432.77 -990.535 0.
-131.906 -853.587 0.
-125.024 -837.718 0.
-118.141 -821.849 0.
-316.585 -946.254 0.
-341.2 -1003.79 0.
-269.488 -1018.67 0.
-294.13 -1076.06 0.
-318.773 -1133.45 0.
-46.0082 -1048.11 0.
-45.6497 -1047.25 0.
-45.2912 -1046.4 0.
-274.485 -1139.1 0.
-266.529 -1120.72 0.
-258.573 -1102.34 0.
252.735 -872.46 0.
256.441 -862.808 0.
-127.113 -1015.24 0.
-384.456 -1170.64 0.
-408.336 -1226.03 0.
-354.128 -1226.65 0.
-319.346 -1144.83 0.
-284.564 -1063.01 0.
-339.262 -1108.04 0.
-409.241 -1270.7 0.
-479.22 -1433.35 0.
-263.221 -1284.05 0.
-183.767 -1098.37 0.
-104.314 -912.688 0.
228.467 -726.807 0.
243.286 -692.346 0.
0.618608 -775.549 0.
-12.361 -805.44 0.
-25.3406 -835.332 0.
-58.6562 -861.601 0.
-53.2558 -848.506 0.
-47.8554 -835.411 0.
309.172 -691.95 0.
296.122 -722.46 0.
283.072 -752.97 0.
-76.378 -804.718 0.
-4.67174 -637.04 0.
-21.502 -1125.8 0.
154.856 -994.802 0.
184.82 -926.071 0.
155.904 -890.404 0.
161.335 -877.735 0.
166.765 -865.065 0.
-32.2266 -962.017 0.
-50.8944 -1006.32 0.
-69.5622 -1050.63 0.
38.2666 -990.044 0.
58.8202 -941.823 0.
79.3739 -893.604 0.
-172.064 -1092.3 0.
-227.986 -1222.1 0.
-295.612 -1340.35 0.
-270.856 -1282.6 0.
-246.1 -1224.86 0.
-358.22 -1216.85 0.
-320.216 -1128.41 0.
-282.213 -1039.97 0.
-98.5907 -919.718 0.
-91.2822 -903.217 0.
-83.9737 -886.716 0.
-110.081 -894.87 0.
-110.908 -897.223 0.
264.562 -738.35 0.
-428.273 -1218.87 0.
-522.781 -1438.63 0.
-310.681 -1476.53 0.
-289.305 -1425.77 0.
-267.929 -1375.01 0.
-284.998 -1295.2 0.
-210.757 -1122.24 0.
-136.515 -949.282 0.
-203.002 -902.4 0.
-182.18 -853.993 0.
-161.358 -805.586 0.
-373.331 -901.307 0.
-377.23 -910.344 0.
-215.873 -860.121 0.
-278.197 -1005.74 0.
-340.522 -1151.35 0.
-564.25 -1313.3 0.
-541.476 -1259.89 0.
-518.703 -1206.47 0.
-492.941 -1175.26 0.
-493.137 -1175.72 0.
-493.333 -1176.18 0.
-112.247 -987.551 0.
-94.7444 -947.071 0.
-758.517 -1198.4 0.
-281.351 -898.294 0.
-231.516 -781.461 0.
-209.669 -713.062 0.
-240.614 -785.185 0.
-271.559 -857.309 0.
-403.444 -946.459 0.
-403.561 -946.369 0.
-403.678 -946.279 0.
-242.382 -869.859 0.
-235.489 -854.035 0.
-228.595 -838.21 0.
-325.175 -918.142 0.
-349.712 -975.716 0.
-193.271 -954.584 0.
-217.805 -1012.03 0.
-242.34 -1069.48 0.
68.0204 -967.94 0.
68.395 -967.068 0.
68.7696 -966.196 0.
-240.1 -1092.82 0.
-232.246 -1074.31 0.
-224.391 -1055.8 0.
127.591 -894.946 0.
131.348 -885.302 0.
40.3936 -911.746 0.
-320.651 -1111.63 0.
-344.557 -1167.06 0.
-370.917 -1202.68 0.
-336.047 -1120.94 0.
-301.176 -1039.19 0.
-208.057 -1020.75 0.
-278.132 -1183.34 0.
-348.207 -1345.93 0.
-287.032 -1262.36 0.
-207.528 -1076.71 0.
-128.023 -891.059 0.
51.025 -771.703 0.
65.8682 -737.238 0.
-142.714 -805.742 0.
-155.622 -835.648 0.
-168.531 -865.555 0.
86.3564 -768.047 0.
91.7423 -754.911 0.
97.1281 -741.774 0.
327.279 -652.997 0.
314.234 -683.564 0.
301.189 -714.131 0.
-303.529 -871.142 0.
-231.72 -703.672 0.
70.2756 -961.749 0.
20.6111 -1049.62 0.
-10.1207 -1120.66 0.
-14.4278 -1180.31 0.
-43.4488 -1248.46 0.
-72.4698 -1316.61 0.
-202.606 -1384.14 0.
-180.35 -1331.45 0.
-158.094 -1278.76 0.
-135.444 -1203.49 0.
-93.8188 -1106.96 0.
-52.1937 -1010.42 0.
-220.083 -1090.97 0.
-231.889 -1118.53 0.
-237.511 -1140.76 0.
-236.929 -1139.03 0.
-236.348 -1137.3 0.
-274.208 -1180.23 0.
-316.684 -1279.14 0.
-359.159 -1378.05 0.
-348.81 -1397.52 0.
-337.797 -1371.46 0.
-326.784 -1345.4 0.
-292.44 -1356.53 0.
-310.688 -1398.32 0.
-79.1977 -1332.89 0.
-447.828 -1327.23 0.
-364.155 -1132.68 0.
-126.993 -891.431 0.
-82.7406 -788.913 0.
-38.4881 -686.395 0.
-34.4711 -629.465 0.
-24.2548 -605.178 0.
-14.0385 -580.891 0.
-89.4061 -649.048 0.
-121.619 -723.819 0.
-153.832 -798.589 0.
-412.835 -955.437 0.
-437.431 -1012.15 0.
-259.654 -967.33 0.
-214.546 -861.713 0.
-169.438 -756.097 0.
-372.523 -774.471 0.
-356.727 -737.739 0.
-340.931 -701.007 0.
-317.279 -694.953 0.
-333.463 -732.881 0.
-349.647 -770.809 0.
22.0969 -671.599 0.
-14.1778 -756.538 0.
-939.884 -1222.14 0.
-361.697 -1049.26 0.
-401.009 -1140.91 0.
-385.64 -1177.41 0.
-355.858 -1108.02 0.
-326.076 -1038.62 0.
-492.892 -1089.89 0.
-505.891 -1120.53 0.
-518.891 -1151.17 0.
-381.521 -1113.24 0.
-391.141 -1135.98 0.
-400.761 -1158.73 0.
-474.45 -1159.3 0.
-454.129 -1111.57 0.
-203.21 -969.798 0.
-202.536 -968.032 0.
-201.863 -966.266 0.
75.2157 -866.371 0.
47.3528 -931.143 0.
19.4898 -995.914 0.
-286.272 -1213.72 0.
-350.381 -1363.24 0.
-414.489 -1512.76 0.
-98.1126 -1368.83 0.
-73.9151 -1312.68 0.
-87.682 -1279.01 0.
-331.094 -1253.43 0.
-262.905 -1094.39 0.
-301.302 -1022 0.
-341.953 -1117.12 0.
-382.603 -1212.25 0.
-241.8 -1177.49 0.
-218.571 -1123.56 0.
-195.342 -1069.63 0.
-274.038 -1122.24 0.
-301.828 -1187.54 0.
-329.618 -1252.85 0.
-154.842 -1154.78 0.
-134.79 -1107.98 0.
-410.425 -1188.9 0.
-404.352 -1174.79 0.
-398.28 -1160.68 0.
70.1781 -941.308 0.
87.188 -902.423 0.
104.198 -863.539 0.
205.249 -796.341 0.
215.559 -772.194 0.
225.869 -748.046 0.
-542.907 -1391.49 0.
-754.964 -1886.39 0.
132.322 -903.932 0.
9.35347 -1023.11 0.
-21.3307 -1094.13 0.
-141.71 -1203.57 0.
-170.821 -1271.66 0.
-199.933 -1339.75 0.
-129.422 -1321.17 0.
-107.113 -1268.52 0.
-84.8035 -1215.88 0.
-225.45 -1211.15 0.
-183.843 -1114.58 0.
-142.236 -1018 0.
-185.793 -1044.55 0.
-197.629 -1072.17 0.
-200.371 -1093.26 0.
-199.804 -1091.61 0.
-199.236 -1089.97 0.
-144.73 -1093.8 0.
-187.171 -1192.76 0.
-229.612 -1291.72 0.
-484.166 -1423.56 0.
-473.041 -1397.63 0.
-461.915 -1371.7 0.
-167.953 -1271.69 0.
-186.096 -1313.56 0.
-436.906 -1455.03 0.
-301.861 -1233.02 0.
-218.268 -1038.37 0.
-498.18 -1019.27 0.
-454.05 -916.612 0.
-409.92 -813.958 0.
-79.415 -617.316 0.
-69.1747 -593.019 0.
-58.9343 -568.723 0.
-102.189 -622.946 0.
-134.44 -697.704 0.
-166.69 -772.462 0.
-386.182 -912.875 0.
-410.649 -969.673 0.
-206.484 -913.086 0.
-161.371 -807.456 0.
-116.257 -701.826 0.
-411.797 -759.979 0.
-395.936 -723.143 0.
-380.075 -686.307 0.
-246.568 -633.227 0.
-262.92 -670.878 0.
-279.272 -708.528 0.
22.7908 -639.854 0.
-13.5522 -724.795 0.
-1684.43 -1509.58 0.
-359.005 -1016.23 0.
-398.539 -1107.82 0.
-352.882 -1132.19 0.
-323.234 -1062.74 0.
-293.586 -993.285 0.
-557.915 -1086.68 0.
-570.952 -1117.29 0.
-583.988 -1147.91 0.
-327.872 -1059.29 0.
-337.381 -1082.16 0.
-346.89 -1105.04 0.
-541.003 -1156 0.
-520.612 -1108.37 0.
-254.42 -960.098 0.
-253.666 -958.401 0.
-252.912 -956.704 0.
-95.0519 -907.618 0.
-122.919 -972.43 0.
-150.786 -1037.24 0.
-273.343 -1176.62 0.
-337.446 -1326.06 0.
-401.55 -1475.5 0.
6.88139 -1293.02 0.
31.0692 -1236.81 0.
-109.31 -1256.41 0.
-239.999 -1182.8 0.
-171.672 -1023.95 0.
-271.336 -977.394 0.
-311.937 -1072.62 0.
-352.539 -1167.84 0.
-257.156 -1153.06 0.
-233.967 -1099.16 0.
-210.779 -1045.25 0.
-331.355 -1114.8 0.
-359.054 -1180.21 0.
-386.752 -1245.63 0.
-46.6728 -1077.46 0.
-26.4628 -1030.69 0.
-490.266 -1191.97 0.
-484.153 -1177.83 0.
-478.04 -1163.68 0.
104.655 -894.613 0.
121.627 -855.775 0.
138.599 -816.937 0.
72.4762 -822.259 0.
82.7997 -798.208 0.
93.1234 -774.157 0.
-325.329 -1266.46 0.
-537.357 -1761.66 0.
406.447 -350.038 0.
333.281 -214.35 0.
319.677 -245.732 0.
59.0627 -465.036 0.
204.373 -125.29 0.
500.777 566.813 0.
427.217 -129.208 0.
208.134 -641.078 0.
267.645 -502.954 0.
239.626 76.0528 0.
317.051 256.975 0.
218.193 26.6261 0.
319.138 100.524 0.
369.627 217.28 0.
348.009 147.115 0.
69.8083 -502.146 0.
105.416 -419.138 0.
237.147 -416.876 0.
214.681 -469.759 0.
159.565 -598.628 0.
-190.537 -447.925 0.
124.772 287.835 0.
86.6573 199.044 0.
466.77 4.06332 0.
547.06 190.706 0.
-181.435 -659.275 0.
288.311 -102.852 0.
704.603 867.955 0.
-257.702 275.289 0.
-76.9003 697.018 0.
60.4207 1017.39 0.
494.962 840.042 0.
430.043 688.964 0.
237.012 238.983 0.
85.675 -131.242 0.
103.758 -88.7379 0.
343.095 470.103 0.
-11.9118 -61.2079 0.
307.064 683.638 0.
383.116 395.863 0.
490.111 646.582 0.
441.157 533.344 0.
-177.568 -110.957 0.
-209.427 -185.11 0.
-288.296 -368.964 0.
-67.3718 -317.507 0.
-89.8176 -368.995 0.
10.1425 -134.832 0.
407.034 291.444 0.
525.066 566.258 0.
-1392.42 -929.92 0.
249.934 427.883 0.
82.2133 36.9699 0.
56.1399 -210.587 0.
48.4591 -228.575 0.
77.6386 -160.539 0.
-141.528 39.6309 0.
-136.198 51.1492 0.
-173.843 -37.6396 0.
251.717 221.26 0.
330.214 403.596 0.
525.444 858.305 0.
-460.995 -812.847 0.
-387.942 -642.824 0.
128.127 61.2311 0.
50.6926 -119.671 0.
-77.5303 -419.081 0.
-75.576 -508.532 0.
312.429 396.776 0.
198.849 131.629 0.
211.301 -40.8141 0.
421.518 449.549 0.
281.714 123.349 0.
351.264 -659.066 0.
419.099 -501.492 0.
572.028 581.1 0.
228.97 -229.315 0.
557.415 536.825 0.
586.501 999.137 0.
216.336 135.401 0.
191.958 78.4255 0.
-146.783 -836.079 0.
-60.1376 -633.419 0.
195.594 -36.2536 0.
117.77 74.3426 0.
152.005 153.769 0.
-161.379 -577.786 0.
357.569 -310.225 0.
434.036 -131.27 0.
187.477 570.794 0.
-169.377 -262.264 0.
-132.563 -176.883 0.
593.376 210.203 0.
48.4106 -1061.36 0.
168.951 -779.783 0.
349.2 103.518 0.
151.063 -358.997 0.
-102.362 -950.597 0.
-62.7396 -1032.76 0.
410.336 71.7038 0.
235.788 -863.403 0.
89.4605 -850.392 0.
126.436 -763.728 0.
29.8281 -751.992 0.
18.5954 -777.539 0.
7.36276 -803.086 0.
-58.763 -831.713 0.
-43.5732 -796.892 0.
-28.3834 -762.072 0.
-219.317 -896.544 0.
-270.609 -1015.94 0.
-321.902 -1135.34 0.
-139.572 -975.871 0.
-83.4123 -845.1 0.
-52.3486 -731.105 0.
-26.5069 -671.293 0.
-0.665138 -611.481 0.
149.579 -523.198 0.
132.07 -564.516 0.
114.561 -605.834 0.
-232.385 -805.492 0.
-263.947 -879.186 0.
-295.509 -952.879 0.
-101.804 -758.093 0.
-19.5943 -567.094 0.
-92.9426 -442.729 0.
-41.6333 -629.809 0.
-148.411 -878.351 0.
-610.277 -1225.28 0.
-598.99 -1198.84 0.
-587.702 -1172.4 0.
-259.573 -1022.64 0.
-263.008 -1030.68 0.
-266.442 -1038.73 0.
-220.239 -939.396 0.
-156.363 -790.58 0.
-92.4872 -641.763 0.
-310.569 -696.76 0.
-295.11 -660.629 0.
-153.415 -577.446 0.
-171.652 -620.173 0.
-189.888 -662.9 0.
-309.487 -742.369 0.
-315.801 -756.739 0.
-322.116 -771.11 0.
-262.251 -704.429 0.
-219.951 -605.875 0.
-177.652 -507.32 0.
-34.9177 -452.051 0.
-50.9577 -489.185 0.
-1254.36 -1036.11 0.
-163.889 -398.634 0.
-74.5969 -190.444 0.
131.897 0.190125 0.
63.1473 -159.845 0.
-5.60246 -319.881 0.
-253.872 -520.235 0.
-278.649 -578.195 0.
-303.427 -636.155 0.
-69.5612 -594.608 0.
-103.951 -674.237 0.
-138.34 -753.865 0.
-625.643 -1065.7 0.
-682.031 -1197.64 0.
-321.32 -1136.77 0.
-310.636 -1112.12 0.
-299.953 -1087.48 0.
-159.917 -1007.58 0.
-152.469 -990.327 0.
-145.021 -973.078 0.
-116.704 -865.031 0.
-28.4138 -659.619 0.
59.8759 -454.207 0.
171.532 -452.578 0.
114.781 -585.877 0.
149.582 -676.468 0.
-30.3806 -912.092 0.
-113.967 -1106.28 0.
-413.611 -1332.19 0.
-341.908 -1164.9 0.
-270.205 -997.622 0.
-156.842 -829.246 0.
-108.18 -715.437 0.
-59.5184 -601.629 0.
-253.585 -666.963 0.
-260.865 -683.585 0.
-268.145 -700.208 0.
-28.029 -752.021 0.
-119.883 -966.378 0.
-344.792 -1211.46 0.
-315.153 -1142.29 0.
-285.515 -1073.13 0.
-116.346 -963.637 0.
-116.449 -963.456 0.
-116.551 -963.274 0.
125.805 -846.324 0.
137.763 -818.896 0.
149.722 -791.467 0.
-17.8964 -626.79 0.
137.345 -264.597 0.
312.654 -799.366 0.
141.012 -797.327 0.
177.975 -710.648 0.
161.003 -664.258 0.
149.836 -689.883 0.
138.668 -715.507 0.
-268.995 -890.229 0.
-253.818 -855.411 0.
-238.641 -820.592 0.
-254.572 -880.699 0.
-305.724 -1000.23 0.
-356.875 -1119.76 0.
-120.47 -935.737 0.
-64.3104 -805.038 0.
-64.7345 -704.926 0.
-38.8971 -645.178 0.
-13.0596 -585.43 0.
114.272 -507.191 0.
96.8494 -548.508 0.
79.4263 -589.825 0.
-79.6841 -708.245 0.
-111.185 -782.021 0.
-142.687 -855.798 0.
-381.307 -846.432 0.
-299.284 -655.292 0.
491.074 -160.74 0.
-153.134 -646.164 0.
-259.937 -894.646 0.
-236.343 -1033.5 0.
-225.03 -1007.07 0.
-213.717 -980.649 0.
-190.379 -961.797 0.
-193.871 -969.728 0.
-197.363 -977.658 0.
-153.552 -879.288 0.
-89.7886 -730.398 0.
-26.025 -581.507 0.
-327.118 -673.064 0.
-311.611 -636.995 0.
-283.104 -601.472 0.
-301.246 -644.205 0.
-319.388 -686.937 0.
-122.63 -630.858 0.
-128.91 -645.155 0.
-135.189 -659.451 0.
-281.62 -681.24 0.
-239.321 -582.632 0.
-197.021 -484.023 0.
-166.514 -477.109 0.
-182.591 -514.212 0.
-492.267 -677.894 0.
-221.63 -391.739 0.
-132.329 -183.643 0.
131.866 31.183 0.
63.0308 -128.886 0.
-5.80397 -288.955 0.
-82.0818 -414.973 0.
-106.916 -472.922 0.
-131.751 -530.871 0.
-19.4609 -542.339 0.
-53.8329 -622.049 0.
-88.2049 -701.759 0.
-677.792 -1056.25 0.
-734.122 -1188.17 0.
-226.162 -1064.27 0.
-215.385 -1039.72 0.
-204.608 -1015.16 0.
15.2418 -901.327 0.
22.6449 -884.024 0.
30.048 -866.721 0.
-68.6448 -812.978 0.
19.7086 -607.524 0.
108.062 -402.071 0.
-140.563 -555.038 0.
-197.315 -688.32 0.
297.849 -581.204 0.
26.909 -855.948 0.
-56.6068 -1050.25 0.
-398.254 -1294.22 0.
-326.554 -1126.98 0.
-254.854 -959.733 0.
-156.231 -797.385 0.
-107.569 -683.584 0.
-58.9074 -569.784 0.
-302.917 -656.377 0.
-310.199 -673.096 0.
-317.48 -689.816 0.
-252.518 -817.254 0.
-344.364 -1031.48 0.
-45.2535 -1051.93 0.
-15.5698 -982.752 0.
14.1141 -913.578 0.
-353.692 -1033.78 0.
-353.773 -1033.57 0.
-353.854 -1033.36 0.
367.433 -711.604 0.
379.393 -684.201 0.
391.353 -656.798 0.
-159.745 -656.57 0.
-4.35421 -294.584 0.
65.3583 -1123.16 0.
49.2694 -1011.12 0.
116.168 -855.39 0.
117.394 -730.389 0.
176.757 -592.242 0.
236.121 -454.095 0.
-242.79 -602.256 0.
-251.737 -622.452 0.
-260.685 -642.649 0.
-135.317 -583.346 0.
-125.599 -560.527 0.
-115.881 -537.709 0.
0.523067 -615.457 0.
-76.4253 -794.731 0.
-134.159 -957.073 0.
-169.186 -1038.44 0.
-204.213 -1119.8 0.
-223.813 -1140.49 0.
-170.231 -1014.42 0.
-116.65 -888.351 0.
-123.626 -910.165 0.
-185.761 -1054.87 0.
-247.897 -1199.57 0.
-666.405 -1451.49 0.
-696.593 -1521.55 0.
1.50445 -1279.39 0.
-393.359 -1147.38 0.
-236.635 -782.661 0.
44.0746 -451.296 0.
-0.448962 -554.847 0.
-44.9725 -658.398 0.
-51.176 -696.649 0.
-36.9452 -663.502 0.
-22.7144 -630.356 0.
-167.243 -694.183 0.
-175.087 -712.555 0.
-182.932 -730.926 0.
-399.924 -833.716 0.
-405.909 -847.642 0.
-417.255 -857.794 0.
-396.703 -809.465 0.
-376.151 -761.135 0.
-113.886 -635.305 0.
-136.809 -688.426 0.
-159.732 -741.546 0.
-317.705 -874.455 0.
-361.064 -975.548 0.
-404.423 -1076.64 0.
-414.884 -1019.19 0.
-360.152 -892.383 0.
-203.238 -721.051 0.
-465.079 -935.173 0.
-518.567 -1059.81 0.
-387.587 -1059.81 0.
-335.935 -940.398 0.
-284.282 -820.987 0.
-213.521 -768.995 0.
-252.159 -859.734 0.
-290.798 -950.472 0.
-160.23 -914.958 0.
-156.662 -907.397 0.
-153.094 -899.837 0.
-553.739 -807.68 0.
-397.869 -443.801 0.
216.076 60.8443 0.
111.645 -182.482 0.
7.21459 -425.809 0.
183.608 -505.868 0.
147.934 -589.377 0.
112.259 -672.886 0.
-38.6324 -770.322 0.
-42.184 -777.469 0.
-45.7357 -784.615 0.
-393.868 -951.452 0.
-405.972 -978.648 0.
102.266 -783.814 0.
-9.46682 -874.59 0.
-31.9463 -927.175 0.
-337.318 -1077.92 0.
-309.802 -1013.29 0.
-282.287 -948.651 0.
-232.147 -921.071 0.
-258.317 -982.718 0.
-284.488 -1044.37 0.
-431.067 -1047.97 0.
-372.836 -911.979 0.
-314.606 -775.989 0.
-299.956 -762.385 0.
-301.815 -766.56 0.
172.096 -564.298 0.
186.404 -530.966 0.
200.711 -497.633 0.
-252.09 -661.413 0.
-233.806 -618.437 0.
-215.523 -575.461 0.
524.618 -368.192 0.
407.818 -640.915 0.
291.018 -913.637 0.
-471.616 -1364 0.
-522.615 -1483.07 0.
-242.028 -1223.29 0.
28.0401 -988.827 0.
94.9279 -833.05 0.
-15.8021 -756.059 0.
43.5662 -617.943 0.
102.935 -479.828 0.
-240.233 -569.784 0.
-249.116 -590.012 0.
-258 -610.24 0.
-89.1665 -531.946 0.
-79.4636 -509.112 0.
-69.7607 -486.279 0.
-23.0737 -593.97 0.
-100.013 -773.26 0.
5.50488 -866.072 0.
-29.4933 -947.528 0.
-64.4916 -1028.98 0.
-322.809 -1151.5 0.
-269.159 -1025.46 0.
-215.509 -899.425 0.
-141.049 -885.861 0.
-203.204 -1030.53 0.
-265.36 -1175.2 0.
-418.093 -1313.7 0.
-448.246 -1383.84 0.
-157.449 -1316.61 0.
-307.495 -1079.28 0.
-150.815 -714.469 0.
-221.013 -533.158 0.
-265.372 -636.719 0.
-309.731 -740.28 0.
-23.6104 -653.879 0.
-9.30474 -620.718 0.
5.00098 -587.556 0.
-424.961 -772.728 0.
-432.793 -791.092 0.
-440.624 -809.455 0.
-359.565 -785.184 0.
-365.614 -798.956 0.
-319.8 -784.577 0.
-299.348 -736.111 0.
-278.896 -687.645 0.
-236.49 -657.158 0.
-259.535 -710.171 0.
-282.58 -763.184 0.
-150.446 -771.262 0.
-193.863 -872.414 0.
-237.28 -973.567 0.
-298.103 -937.858 0.
-243.316 -811.137 0.
185.808 -522.752 0.
-396.793 -874.084 0.
-450.354 -998.598 0.
-475.51 -1066.41 0.
-424.087 -946.828 0.
-372.665 -827.247 0.
-303.041 -775.894 0.
-341.828 -866.514 0.
-380.615 -957.134 0.
-126.009 -869.364 0.
-122.546 -861.74 0.
-119.084 -854.117 0.
-427.223 -721.786 0.
-271.295 -357.809 0.
56.7335 23.8659 0.
-47.5776 -219.472 0.
-151.889 -462.809 0.
42.2025 -535.481 0.
6.43665 -618.934 0.
-29.3291 -702.387 0.
-25.5561 -732.738 0.
-29.0724 -740.018 0.
-32.5887 -747.298 0.
-254.699 -860.586 0.
-266.868 -887.772 0.
-198.376 -881.074 0.
-102.807 -883.081 0.
-125.174 -935.699 0.
-400.261 -1073.69 0.
-372.759 -1009.05 0.
-345.258 -944.407 0.
-254.934 -899.727 0.
-281.135 -961.332 0.
-307.336 -1022.94 0.
-252.167 -939.913 0.
-193.976 -803.98 0.
-135.785 -668.047 0.
-216.527 -694.99 0.
-218.289 -699.223 0.
-72.3763 -637.767 0.
-58.0821 -604.365 0.
-43.7879 -570.964 0.
-126.835 -576.454 0.
-108.538 -533.461 0.
-90.2409 -490.468 0.
345.666 -413.491 0.
228.871 -686.162 0.
112.076 -958.833 0.
-325.364 -1270.02 0.
-376.233 -1389.24 0.
95.5679 179.559 0.
349.869 -164.327 0.
267.397 -356.644 0.
19.6785 -391.099 0.
-3.48422 -444.683 0.
280.149 217.463 0.
-239.63 -543.235 0.
-277.159 -630.946 0.
167.516 406.528 0.
550.99 907.413 0.
331.297 394.516 0.
24.6757 -321.178 0.
14.467 -430.232 0.
132.023 -156.5 0.
624.317 343.108 0.
489.668 29.2358 0.
349.549 -297.396 0.
-142.293 -508.927 0.
-325.651 -936.703 0.
-242.205 -741.905 0.
111.81 -229.284 0.
151.174 -137.745 0.
227.685 40.5379 0.
283.365 -119.076 0.
177.906 -365.836 0.
82.0132 -101.184 0.
-58.2607 -629.514 0.
45.1502 -389.227 0.
-263.206 -97.625 0.
-214.614 15.5532 0.
-131.725 208.933 0.
360.26 220.092 0.
276.22 24.1225 0.
247.017 -43.8726 0.
-525.503 -492.028 0.
-473.316 -370.774 0.
-177.011 320.12 0.
339.98 800.211 0.
-100.959 -227.501 0.
-42.6275 -288.186 0.
132.562 121.165 0.
245.026 384.088 0.
36.7429 238.977 0.
-13.2109 121.864 0.
-4.87915 140.81 0.
387.991 202.528 0.
121.858 -417.879 0.
133.048 -391.119 0.
163.879 -47.0142 0.
59.8806 -288.879 0.
119.249 -607.194 0.
-275.984 -693.444 0.
-332.399 -825.194 0.
-419.692 -741.802 0.
-273.585 -400.821 0.
-61.3827 94.4245 0.
75.8021 312.614 0.
176.933 548.651 0.
334.41 916.177 0.
183.987 -181.307 0.
302.805 96.0008 0.
504.479 566.637 0.
147.272 409.46 0.
-186.413 -369.964 0.
-33.615 144.843 0.
-108.17 -29.1888 0.
-144.471 -113.927 0.
152.524 20.3768 0.
84.4703 -138.762 0.
78.3982 -153.25 0.
269.32 -36.3429 0.
305.526 47.8696 0.
304.016 44.0084 0.
3.79318 -489.786 0.
98.1298 -269.69 0.
220.75 790.258 0.
348.504 378.697 0.
8.84865 -412.874 0.
12.3985 40.7921 0.
70.0718 175.378 0.
-11.419 -14.6258 0.
-290.908 -910.211 0.
-143.431 -565.784 0.
-52.8721 -354.115 0.
265.711 -39.8066 0.
313.705 71.1565 0.
367.844 196.503 0.
179.29 100.095 0.
226.4 209.425 0.
210.488 519.525 0.
209.372 516.56 0.
66.0273 181.685 0.
41.1181 -390.002 0.
156.28 -121.035 0.
347.987 326.285 0.
91.3207 -638.392 0.
206.312 -369.99 0.
327.813 -86.1676 0.
53.6143 -631.303 0.
144.096 -420.638 0.
-66.1746 -334.225 0.
64.5456 -528.407 0.
-71.0121 -844.801 0.
-196.314 -1078.58 0.
-141.117 -949.45 0.
-85.9202 -820.32 0.
-361.778 -859.329 0.
-336.78 -800.504 0.
-311.782 -741.678 0.
-110.177 -704.714 0.
-163.34 -829.057 0.
-216.504 -953.399 0.
-333.577 -916.311 0.
-274.861 -779.202 0.
300.837 -434.665 0.
287.4 -466.072 0.
273.963 -497.478 0.
-166.01 -737.431 0.
-220.081 -864.081 0.
-274.151 -990.731 0.
-276.42 -999.159 0.
-241.051 -916.9 0.
-205.683 -834.642 0.
-264.641 -796.339 0.
-233.261 -723.321 0.
310.435 -430.603 0.
-169.936 -719.243 0.
-210.745 -814.285 0.
-438.63 -943.136 0.
-372.99 -790.05 0.
-307.35 -636.965 0.
53.2169 -417.055 0.
49.3672 -426.165 0.
45.5175 -435.275 0.
-374.822 -648.419 0.
-400.044 -707.164 0.
-425.265 -765.909 0.
-343.641 -637.718 0.
-285.155 -501.176 0.
-60.2434 -312.002 0.
-85.5372 -371.576 0.
-110.831 -431.151 0.
-173.17 -526.095 0.
-231.159 -661.832 0.
-289.149 -797.568 0.
-214.384 -839.43 0.
-236.539 -891.453 0.
-258.694 -943.477 0.
-321.647 -1053.45 0.
-371.967 -1169.81 0.
68.3688 -1076.53 0.
-383.407 -1111.64 0.
-299.945 -917.295 0.
-373.197 -838.461 0.
-403.819 -909.668 0.
-434.441 -980.874 0.
-522.909 -949.009 0.
-403.034 -669.377 0.
-283.158 -389.745 0.
189.559 -111.31 0.
189.791 -110.728 0.
190.024 -110.147 0.
-396.074 -630.847 0.
-555.052 -1002.62 0.
-581.526 -1264.36 0.
-486.18 -1041.59 0.
-390.833 -818.813 0.
-17.7126 -525.31 0.
1.88344 -479.95 0.
21.4795 -434.589 0.
89.4347 -463.794 0.
18.4509 -630.06 0.
-52.5329 -796.326 0.
-192.457 -844.882 0.
-163.787 -778.673 0.
-226.169 -749.499 0.
-191.348 -711.441 0.
-179.384 -682.884 0.
-286.313 -711.585 0.
-287.158 -713.422 0.
-288.003 -715.259 0.
-221.797 -710.264 0.
-246.437 -767.335 0.
-271.078 -824.406 0.
-109.661 -724.09 0.
-73.1972 -639.567 0.
-36.7334 -555.043 0.
-192.828 -575.936 0.
-169.526 -521.801 0.
-107.216 -472.368 0.
-187.632 -660.056 0.
-268.048 -847.743 0.
-211.276 -938.903 0.
-232.116 -988.135 0.
-252.956 -1037.37 0.
-80.9732 -914.295 0.
-18.0329 -767.379 0.
44.9074 -620.464 0.
152.916 -563.45 0.
142.072 -588.872 0.
21.7369 -265.695 0.
-77.1537 -557.908 0.
-212.656 -874.302 0.
-83.532 -998.771 0.
-28.2081 -869.713 0.
27.1157 -740.655 0.
-329.259 -813.969 0.
-304.254 -755.153 0.
-279.249 -696.336 0.
-57.5742 -651.017 0.
-110.676 -775.383 0.
-163.777 -899.749 0.
-488.416 -950.985 0.
-429.742 -813.877 0.
329.214 -391.25 0.
315.774 -422.692 0.
302.334 -454.134 0.
-58.1872 -659.686 0.
-112.144 -786.429 0.
-166.101 -913.173 0.
-331.241 -991.117 0.
-295.846 -908.863 0.
-260.451 -826.609 0.
-562.747 -892.32 0.
-531.434 -819.245 0.
-111.455 -579.718 0.
-244.396 -719.862 0.
-285.213 -814.827 0.
-192.322 -806.202 0.
-126.603 -653.099 0.
-60.8843 -499.995 0.
27.7992 -396.478 0.
24.0556 -405.628 0.
20.3121 -414.779 0.
-90.6147 -494.754 0.
-115.763 -553.585 0.
-140.91 -612.416 0.
-408.214 -633.663 0.
-349.78 -497.02 0.
-53.4149 -277.796 0.
-78.7969 -337.294 0.
-104.179 -396.792 0.
-11.7581 -426.602 0.
-69.8976 -562.259 0.
-128.037 -697.916 0.
-390.818 -883.595 0.
-412.922 -935.664 0.
-435.027 -987.732 0.
-370.104 -1042.6 0.
-420.253 -1159.16 0.
-660.446 -1357.32 0.
-278.096 -1034.71 0.
-194.752 -840.227 0.
-248.365 -753.68 0.
-279.064 -824.891 0.
-309.762 -896.102 0.
-577.874 -941.882 0.
-458.054 -662.265 0.
-338.235 -382.647 0.
175.688 -85.7865 0.
176.066 -85.3929 0.
176.444 -84.9994 0.
-499.046 -643.2 0.
-657.907 -1015.03 0.
-496.193 -1196.09 0.
-400.869 -973.261 0.
-305.545 -750.434 0.
76.9674 -453.656 0.
96.3637 -408.137 0.
115.76 -362.619 0.
110.385 -423.556 0.
39.3875 -589.791 0.
-31.6098 -756.027 0.
-229.952 -829.338 0.
-201.341 -763.112 0.
397.125 -450.874 0.
-264.376 -710.966 0.
-252.384 -682.436 0.
-240.805 -661.194 0.
-241.682 -662.995 0.
-242.559 -664.795 0.
-225.346 -680.495 0.
-250.046 -737.517 0.
-274.746 -794.539 0.
-193.866 -728.65 0.
-157.605 -643.986 0.
-121.344 -559.321 0.
-276.853 -581.036 0.
-253.682 -526.814 0.
39.8198 -377.784 0.
-40.6227 -565.492 0.
-121.065 -753.199 0.
-215.259 -909.312 0.
-236.05 -958.557 0.
-256.841 -1007.8 0.
-130.771 -904.291 0.
-67.7858 -757.426 0.
-4.80056 -610.561 0.
255.317 -487.836 0.
244.513 -513.255 0.
-193.458 -819.446 0.
-89.9456 -648.812 0.
-20.31 -486.023 0.
217.061 -302.04 0.
164.159 -425.235 0.
111.258 -548.431 0.
-286.52 -780.37 0.
-293.778 -797.546 0.
-301.035 -814.722 0.
-49.1851 -687.168 0.
-28.3086 -637.553 0.
-7.43208 -587.937 0.
-456.93 -844.414 0.
-498.131 -940.264 0.
146.821 -720.762 0.
212.603 -567.01 0.
278.384 -413.258 0.
2.14759 -458.282 0.
-14.9317 -497.307 0.
-32.0109 -536.333 0.
-225.487 -634.995 0.
-227.63 -640.006 0.
-229.773 -645.018 0.
-618.847 -893.58 0.
-671.797 -1017.21 0.
176.167 -754.382 0.
-292.931 -793.982 0.
-209.21 -598.867 0.
3.27097 -381.761 0.
11.3488 -362.902 0.
19.4266 -344.043 0.
9.65647 -362.815 0.
-21.2085 -434.486 0.
-52.0735 -506.157 0.
-44.6342 -476.27 0.
-6.45689 -387.377 0.
31.7204 -298.484 0.
-418.888 -635.821 0.
-508.58 -845.64 0.
-314.675 -912.802 0.
-311.643 -905.716 0.
-308.61 -898.63 0.
-118.575 -782.93 0.
-70.6875 -671.618 0.
-22.8003 -560.306 0.
-351.482 -605.074 0.
-299.179 -482.786 0.
-246.876 -360.499 0.
-53.7098 -279.163 0.
-69.7792 -316.519 0.
-458.703 -514.449 0.
49.1664 -386.299 0.
2.24242 -495.905 0.
-234.545 -663.326 0.
-227.393 -646.814 0.
-220.241 -630.301 0.
-458.293 -731.521 0.
-465.817 -749.062 0.
-473.342 -766.603 0.
-94.3551 -600.818 0.
-87.7219 -584.994 0.
-81.0888 -569.17 0.
-585.846 -696.221 0.
-534.207 -575.001 0.
-63.3136 -291.231 0.
-92.9492 -360.113 0.
-122.585 -428.994 0.
91.5336 -373.668 0.
91.7301 -373.852 0.
91.9266 -374.036 0.
52.2534 -437.942 0.
9.45132 -537.442 0.
-33.3507 -636.943 0.
-175.815 -652.136 0.
-131.917 -549.342 0.
-75.396 -440.666 0.
-214.857 -510.957 0.
-220.133 -523.635 0.
-167.5 -520.411 0.
-199.603 -595.784 0.
-231.705 -671.156 0.
-230.156 -703.197 0.
-229.353 -702.138 0.
-228.549 -701.08 0.
-258.132 -746.322 0.
-282.454 -803.333 0.
-306.776 -860.345 0.
-366.086 -837.957 0.
-335.839 -768.062 0.
-33.1439 -580.169 0.
3.67035 -494.967 0.
40.4847 -409.764 0.
0.893665 -398.184 0.
-28.2972 -465.714 0.
-57.488 -533.245 0.
-8.81389 -551.066 0.
-21.9378 -581.453 0.
-35.0617 -611.84 0.
192.318 -547.917 0.
174.054 -589.489 0.
-199.577 -791.257 0.
143.774 -517.231 0.
213.416 -354.315 0.
142.153 -302.847 0.
89.2619 -426.018 0.
36.3709 -549.189 0.
-216.94 -718.999 0.
-224.209 -736.176 0.
-231.478 -753.353 0.
-12.3541 -640.077 0.
8.54889 -590.468 0.
29.4518 -540.858 0.
-302.534 -746.824 0.
-343.71 -842.671 0.
52.0789 -729.762 0.
117.735 -575.987 0.
183.392 -422.213 0.
-138.667 -487.002 0.
-155.768 -525.98 0.
-172.87 -564.958 0.
-253.605 -616.182 0.
-255.76 -621.192 0.
-257.915 -626.202 0.
-424.832 -778.871 0.
-477.78 -902.491 0.
-343.497 -945.409 0.
-222.564 -731.929 0.
-138.84 -536.737 0.
-175.458 -427.092 0.
-167.36 -408.213 0.
-159.263 -389.334 0.
-11.2394 -340.729 0.
-42.1419 -412.362 0.
-73.0444 -483.994 0.
-197.014 -509.722 0.
-158.858 -420.911 0.
-120.702 -332.099 0.
-346.28 -573.728 0.
-436.07 -783.409 0.
-262.513 -858.771 0.
-259.405 -851.738 0.
-256.297 -844.706 0.
-130.862 -756.856 0.
-83.0713 -645.477 0.
-35.2805 -534.099 0.
-340.079 -568.978 0.
-287.842 -446.688 0.
-235.605 -324.398 0.
-5.76547 -227.208 0.
-21.7802 -264.6 0.
546.19 -52.1986 0.
101.667 -332.428 0.
54.7731 -442.079 0.
-382.905 -695.364 0.
-375.782 -678.865 0.
-368.66 -662.366 0.
-302.028 -633.204 0.
-309.498 -650.853 0.
-316.969 -668.502 0.
-168.796 -601.187 0.
-162.112 -585.427 0.
-155.429 -569.667 0.
-605.953 -673.06 0.
-554.228 -551.927 0.
-2.38945 -233.754 0.
-32.0763 -302.553 0.
-61.7632 -371.351 0.
-13.982 -387.767 0.
-13.8289 -387.892 0.
-13.6757 -388.017 0.
-63.1696 -456.18 0.
-105.876 -555.716 0.
-148.583 -655.251 0.
-157.566 -612.071 0.
-113.646 -509.348 0.
-1.18522 -377.495 0.
-196.002 -471.473 0.
-201.308 -484.114 0.
-149.412 -481.25 0.
-181.553 -556.504 0.
-213.694 -631.759 0.
-181.673 -651.083 0.
-180.885 -650.005 0.
-180.096 -648.927 0.
-277.62 -723.016 0.
-301.984 -780.01 0.
-326.347 -837.004 0.
-198.492 -735.142 0.
-168.383 -665.116 0.
-112.112 -582.637 0.
-75.3274 -497.443 0.
-38.5428 -412.249 0.
26.4322 -355.86 0.
-2.70296 -423.38 0.
-31.838 -490.899 0.
0.32057 -515.57 0.
-12.6985 -546.026 0.
-25.7175 -576.481 0.
37.2842 -582.711 0.
19.2664 -624.456 0.
-5.27169 -294.299 0.
281.946 -604.532 0.
318.805 -518.097 0.
293.29 221.49 0.
-29.1543 -530.834 0.
-276.442 -1107.55 0.
-83.8484 -509.412 0.
196.055 143.733 0.
410.283 643.602 0.
556.222 650.48 0.
317.824 93.7798 0.
152.898 -291.493 0.
-84.3633 -501.511 0.
-33.3141 -382.148 0.
243.737 -68.0147 0.
56.0059 -506.034 0.
-59.0623 -774.473 0.
-390.955 -772.158 0.
-37.7986 51.1355 0.
-237.504 -415.489 0.
63.5562 208.181 0.
160.538 434.845 0.
321.924 811.789 0.
197.124 333.451 0.
93.5849 91.3162 0.
150.288 -75.1781 0.
167.591 77.0084 0.
178.752 102.256 0.
-166.891 -37.7692 0.
-295.458 -337.826 0.
-302.794 -354.879 0.
98.4505 -13.8724 0.
72.1906 -74.6561 0.
48.354 -129.744 0.
-239.263 -291.079 0.
-273.868 -372.876 0.
-168.107 -127.119 0.
138.613 449.94 0.
-54.157 0.813286 0.
-12.2187 -339.608 0.
49.1633 -196.901 0.
164.996 72.8338 0.
328.869 370.548 0.
323.449 358.396 0.
266.371 225.708 0.
-121.325 -51.8054 0.
-203.363 -242.609 0.
-312.93 -497.599 0.
-64.7114 -419.144 0.
-109.131 -521.831 0.
-243.329 -768.414 0.
133.737 -325.919 0.
256.918 -38.5536 0.
-262.207 -102.466 0.
-277.266 -137.866 0.
-309.377 -213.033 0.
82.4236 -0.131552 0.
166.471 195.889 0.
147.642 151.884 0.
0.830129 -34.7007 0.
17.315 4.03421 0.
30.7677 35.6477 0.
-321.525 57.2398 0.
-310.765 82.3598 0.
165.483 73.9834 0.
106.607 -63.3618 0.
113.519 -47.2331 0.
52.0805 -4.25616 0.
11.9062 -98.2949 0.
-38.7818 -216.846 0.
-129.656 -361.085 0.
50.4568 58.9595 0.
76.2362 119.069 0.
143.993 88.7065 0.
286.926 421.825 0.
718.818 373.313 0.
88.9112 189.458 0.
148.289 328.041 0.
480.01 984.189 0.
273.777 502.616 0.
115.983 134.096 0.
160.247 86.9384 0.
-69.4752 -448.883 0.
-203.765 -761.955 0.
-263.104 -622.254 0.
-118.346 -284.868 0.
-14.5501 -43.0734 0.
306.271 155.52 0.
391.772 355.22 0.
33.884 -62.9865 0.
223.214 379.597 0.
117.369 133.47 0.
114.132 -165.913 0.
132.579 -123.072 0.
204.517 44.4729 0.
193.467 -51.8397 0.
-52.4963 -625.263 0.
-345.724 -1308.97 0.
-145.426 -686.43 0.
-445.408 -1385.97 0.
-136.32 -824.467 0.
-21.6594 -754.714 0.
-14.464 -737.907 0.
-143.956 -752.73 0.
-70.1442 -580.628 0.
3.66729 -408.527 0.
-27.1834 -383.409 0.
-74.4555 -493.389 0.
-121.728 -603.37 0.
-11.0259 -563.014 0.
6.4189 -522.869 0.
23.8637 -482.724 0.
-233.593 -547.917 0.
-208.927 -489.998 0.
146.873 -305.931 0.
90.5042 -437.722 0.
34.1351 -569.512 0.
-371.155 -798.117 0.
-343.916 -735.196 0.
-316.677 -672.276 0.
-175.74 -508.013 0.
-100.01 -331.485 0.
-24.2791 -154.957 0.
-112.915 -200.122 0.
-139.642 -262.227 0.
321.811 -114.645 0.
-60.52 -495.649 0.
-173.364 -759.267 0.
-530.017 -1041.18 0.
-439.635 -829.999 0.
-349.254 -618.821 0.
-244.404 -496.556 0.
-266.073 -547.263 0.
-287.742 -597.97 0.
-289.988 -660.882 0.
-329.381 -752.778 0.
-368.775 -844.674 0.
-294.755 -725.927 0.
-238.491 -594.063 0.
-137.613 -448.36 0.
-97.5726 -354.177 0.
-57.5322 -259.994 0.
29.5642 -170.778 0.
29.8893 -169.785 0.
30.2143 -168.792 0.
-95.9745 -271.074 0.
-142.012 -378.474 0.
-188.048 -485.874 0.
-229.168 -529.921 0.
-234.356 -541.448 0.
103.86 -405.341 0.
154.178 -370.882 0.
160.789 -355.346 0.
-441.972 -587.259 0.
-402.132 -493.864 0.
-362.292 -400.468 0.
-61.8326 -211.587 0.
-41.4684 -163.874 0.
-21.1042 -116.161 0.
7.40855 -141.688 0.
-32.4993 -234.984 0.
-72.4073 -328.28 0.
-625.047 -737.146 0.
-721.376 -962.413 0.
-245.448 -910.35 0.
-196.403 -796.427 0.
-147.358 -682.504 0.
-313.838 -672.049 0.
-280.606 -594.286 0.
-247.375 -516.522 0.
-176.006 -449.884 0.
-167.732 -430.05 0.
-159.458 -410.216 0.
-75.8453 -426.688 0.
-115.197 -518.511 0.
294.3 -417.84 0.
-318.02 -593.215 0.
-271.926 -485.852 0.
15.2829 -327.929 0.
-55.393 -492.562 0.
-126.069 -657.196 0.
-306.669 -799.057 0.
-296.167 -773.684 0.
-285.664 -748.31 0.
-280.417 -693.819 0.
-245.31 -612.036 0.
-210.204 -530.253 0.
-22.7554 -452.181 0.
-28.0119 -464.154 0.
-32.5217 -478.58 0.
-53.0613 -525.975 0.
-73.6007 -573.37 0.
-228.921 -662.641 0.
-222.403 -647.985 0.
-215.885 -633.328 0.
-71.5337 -593.59 0.
-98.0567 -655.275 0.
-124.58 -716.96 0.
-297.766 -932.791 0.
-386.169 -1138.86 0.
265.642 -620.402 0.
-298.3 -842.04 0.
-291.091 -825.23 0.
-150.967 -724.248 0.
-77.1172 -552.154 0.
-3.26739 -380.06 0.
-7.32159 -343.581 0.
-54.6428 -453.555 0.
-101.964 -563.528 0.
-52.6473 -549.445 0.
-35.223 -509.222 0.
-17.7987 -468.998 0.
-375.336 -577.472 0.
-350.642 -519.57 0.
169.917 -264.519 0.
113.49 -396.349 0.
57.0619 -528.179 0.
-316.816 -743.075 0.
-289.599 -680.065 0.
-262.382 -617.054 0.
-76.5318 -434.554 0.
-0.805999 -257.97 0.
74.9198 -81.3857 0.
-195.097 -203.537 0.
-221.848 -265.599 0.
-176.21 -296.418 0.
-24.9113 -449.286 0.
-137.728 -712.926 0.
-430.965 -967.323 0.
-340.569 -756.115 0.
-250.173 -544.907 0.
-393.965 -529.167 0.
-415.68 -579.832 0.
-437.394 -630.497 0.
-141.162 -565.642 0.
-180.551 -657.602 0.
-219.939 -749.561 0.
-191.362 -650.25 0.
-135.073 -518.368 0.
-219.369 -451.93 0.
-179.296 -357.798 0.
-139.223 -263.666 0.
-36.4072 -167.662 0.
-36.0643 -166.63 0.
-35.7215 -165.598 0.
67.7802 -169.368 0.
21.7037 -276.789 0.
-24.3728 -384.211 0.
-355.877 -552.893 0.
-361.024 -564.438 0.
-51.3355 -440.518 0.
217.404 -312.393 0.
223.983 -296.823 0.
-390.695 -533.807 0.
-350.874 -440.39 0.
-311.054 -346.973 0.
-111.277 -201.393 0.
-90.9335 -153.665 0.
-70.5903 -105.937 0.
88.0584 -75.7537 0.
48.2758 -169.083 0.
8.49303 -262.413 0.
-562.755 -679.237 0.
-659.098 -904.478 0.
-215.052 -865.795 0.
-165.992 -751.854 0.
-116.932 -637.914 0.
-394.353 -675.138 0.
-361.124 -597.42 0.
-327.895 -519.702 0.
-169.791 -415.884 0.
-161.497 -396.089 0.
-153.203 -376.294 0.
-58.502 -388.115 0.
-97.8985 -479.892 0.
79.9465 -478.238 0.
-389.071 -592.007 0.
-342.973 -484.621 0.
152.138 -237.806 0.
81.3933 -402.374 0.
10.6485 -566.942 0.
-396.62 -806.139 0.
-386.142 -780.781 0.
-375.664 -755.423 0.
-248.014 -648.802 0.
-212.884 -566.992 0.
-177.754 -485.183 0.
-89.7406 -449.42 0.
-94.9695 -461.396 0.
120.643 -381.187 0.
100.228 -428.723 0.
79.8139 -476.26 0.
-371.514 -692.36 0.
-365.049 -677.623 0.
-358.585 -662.886 0.
-94.5346 -571.983 0.
-121.071 -633.69 0.
-147.608 -695.396 0.
-338.638 -918.881 0.
-426.88 -1125.01 0.
282.434 -100.042 0.
-117.714 -390.966 0.
-178.673 -533.452 0.
-118.769 -585.031 0.
-86.0928 -508.673 0.
-53.4167 -432.315 0.
-4.75996 -374.058 0.
-2.13418 -368.58 0.
0.491772 -363.103 0.
-30.173 -405.383 0.
-53.439 -459.308 0.
-76.7049 -513.232 0.
-509.706 -734.982 0.
-529.012 -780.533 0.
-24.7092 -595.319 0.
-10.6458 -562.386 0.
3.41769 -529.453 0.
-240.196 -596.171 0.
-207.72 -519.988 0.
-175.244 -443.805 0.
-87.7387 -435.496 0.
-140.725 -559.313 0.
-193.712 -683.131 0.
-462.359 -812.496 0.
-456.928 -799.874 0.
-221.379 -688.144 0.
-62.4692 -524.667 0.
-12.1366 -406.227 0.
-154.917 -385.82 0.
-146.153 -365.667 0.
-137.389 -345.514 0.
-377.237 -441.291 0.
-377.838 -442.818 0.
-378.438 -444.345 0.
-36.1787 -322.871 0.
-54.3572 -365.707 0.
-72.5356 -408.543 0.
-9.1202 -341.571 0.
15.7505 -283.633 0.
-158.547 -327.626 0.
-216.844 -464.014 0.
-275.141 -600.401 0.
-342.321 -698.334 0.
-332.889 -676.559 0.
-323.456 -654.784 0.
-69.7637 -505.8 0.
-39.7231 -435.632 0.
-9.68251 -365.464 0.
-318.759 -444.728 0.
-291.604 -381.294 0.
-81.0523 -239.465 0.
247.52 -186.062 0.
201.597 -293.088 0.
-385.327 -592.839 0.
-340.537 -488.761 0.
-295.747 -384.683 0.
-188.96 -296.438 0.
-193.623 -306.976 0.
-198.286 -317.514 0.
4.98876 -204.069 0.
27.0297 -152.285 0.
49.0707 -100.501 0.
-331.907 -227.882 0.
-313.273 -184.341 0.
92.8903 10.7782 0.
49.8661 -88.8899 0.
6.84183 -188.558 0.
-275.363 -372.831 0.
-290.306 -407.721 0.
-305.249 -442.611 0.
-158.83 -450.449 0.
-214.886 -581.757 0.
-270.942 -713.065 0.
-173.873 -651.02 0.
-142.827 -578.358 0.
122.878 -405.224 0.
-435.393 -654.254 0.
-440.108 -665.38 0.
58.0893 -443.929 0.
90.0028 -369.922 0.
121.916 -295.915 0.
-281.319 -448.241 0.
-294.989 -480.698 0.
-308.659 -513.154 0.
-219.605 -587.444 0.
-303.064 -782.21 0.
-386.523 -976.976 0.
-300.044 -868.759 0.
-247.15 -745.683 0.
64.0697 -524.195 0.
65.3518 -521.192 0.
66.634 -518.19 0.
-412.478 -733.089 0.
-432.817 -779.988 0.
-453.156 -826.887 0.
-118.077 -685.071 0.
-103.087 -650.074 0.
-88.097 -615.077 0.
-184.941 -641.336 0.
-179.232 -627.857 0.
-200.908 -275.828 0.
156.236 -242.478 0.
95.109 -384.815 0.
-145.989 -565.229 0.
-113.295 -488.892 0.
-80.6012 -412.556 0.
46.781 -320.808 0.
49.2758 -315.235 0.
51.7707 -309.661 0.
-54.2294 -384.448 0.
-77.4959 -438.371 0.
-100.762 -492.294 0.
-498.019 -698.723 0.
-517.289 -744.255 0.
-146.952 -616.278 0.
-132.908 -583.39 0.
-118.863 -550.501 0.
-229.174 -559.677 0.
-196.636 -483.506 0.
-164.098 -407.336 0.
-180.129 -443.822 0.
-233.119 -567.615 0.
-286.108 -691.408 0.
-362.514 -738.226 0.
-357.016 -725.624 0.
-386.446 -727.524 0.
-75.7474 -499.022 0.
-25.402 -380.599 0.
-154.689 -354.086 0.
-145.965 -333.881 0.
-137.241 -313.675 0.
-245.256 -353.728 0.
-245.93 -355.15 0.
-246.604 -356.571 0.
-144.827 -337.997 0.
-163.016 -380.876 0.
-181.204 -423.754 0.
43.7009 -287.393 0.
68.5792 -229.442 0.
-26.442 -239.084 0.
-84.7063 -375.594 0.
-142.971 -512.105 0.
-435.261 -707.008 0.
-425.849 -685.2 0.
-416.437 -663.392 0.
-180.316 -521.801 0.
-150.241 -451.646 0.
-120.166 -381.491 0.
-185.783 -356.402 0.
-158.62 -292.927 0.
-364.868 -329.714 0.
160.382 -192.178 0.
114.517 -299.25 0.
-327.496 -536.669 0.
-282.688 -432.608 0.
-237.88 -328.548 0.
-196.65 -268.148 0.
-201.26 -278.703 0.
-205.869 -289.257 0.
-108.986 -221.258 0.
-86.9051 -169.47 0.
-64.8237 -117.682 0.
-266.908 -168.683 0.
-248.249 -125.155 0.
-71.6245 -28.3859 0.
-114.59 -128.047 0.
-157.555 -227.709 0.
-188.745 -304.02 0.
-203.604 -339.032 0.
-218.462 -374.045 0.
-68.1819 -379.973 0.
-124.266 -511.29 0.
-180.35 -642.606 0.
-162.662 -614.969 0.
-131.548 -542.332 0.
-71.9084 -457.314 0.
-380.471 -599.336 0.
-385.198 -610.397 0.
-57.1169 -461.734 0.
-25.2942 -387.648 0.
6.5285 -313.562 0.
-254.187 -405.401 0.
-267.851 -437.813 0.
-281.515 -470.226 0.
-212.959 -553.201 0.
-296.414 -747.883 0.
-379.87 -942.564 0.
-276.467 -827.561 0.
-223.566 -704.411 0.
-42.0555 -538.212 0.
-40.7074 -535.224 0.
-39.3593 -532.236 0.
-298.929 -653.168 0.
-319.233 -700.173 0.
-339.537 -747.178 0.
-3.48995 -604.309 0.
11.63 -569.433 0.
26.75 -534.558 0.
-26.3624 -542.002 0.
-20.384 -528.628 0.
262.674 -33.4235 0.
164.852 -708.852 0.
462.77 -15.0235 0.
225.558 382.109 0.
61.4168 -0.739186 0.
-34.3848 -223.884 0.
169.883 -100.501 0.
278.853 154.169 0.
458.795 574.484 0.
273.056 456.865 0.
135.372 134.32 0.
41.8392 -84.9329 0.
-431.633 -535.261 0.
-477.465 -642.493 0.
-60.4995 -147.053 0.
-127.384 -303.649 0.
-163.792 -389.156 0.
-89.1628 -220.156 0.
29.0537 54.7686 0.
118.72 263.235 0.
-113.989 -82.6955 0.
-79.5817 -2.50012 0.
-56.3481 51.6156 0.
-140.862 -380.637 0.
45.6653 53.9524 0.
-10.0757 248.984 0.
270.955 367.567 0.
58.616 -126.927 0.
20.3058 83.7603 0.
-45.728 -70.0951 0.
26.7393 99.2165 0.
82.2194 191.126 0.
31.9564 73.7014 0.
20.8322 47.6276 0.
-162.762 -145.385 0.
-223.429 -287.141 0.
-335.204 -548.132 0.
85.7757 -256.194 0.
129.574 -153.306 0.
24.281 -338.448 0.
7.68685 -378.147 0.
197.394 63.5334 0.
-174.856 106.286 0.
-287.361 -156.009 0.
-394.78 -406.432 0.
-232.415 -402.758 0.
-198.321 -323.213 0.
-161.703 -237.782 0.
23.0821 -88.0437 0.
56.1159 -10.5031 0.
-350.311 -65.8181 0.
242.003 196.901 0.
191.303 78.2103 0.
-150.07 -201.355 0.
-170.847 -249.774 0.
-228.907 -385.184 0.
-272.134 -400.604 0.
-195.737 -222.947 0.
-70.3348 69.0721 0.
-95.0379 58.8628 0.
-160.319 -93.6807 0.
-167.172 -109.849 0.
-500.57 -806.478 0.
-420.652 -620.081 0.
-409.486 -473.307 0.
-387.148 -420.741 0.
-345.889 -323.975 0.
18.3224 46.2011 0.
85.1744 201.859 0.
165.675 389.393 0.
399.546 569.393 0.
410.722 595.272 0.
329.835 406.333 0.
230.356 311.741 0.
-5.01019 -237.757 0.
-297.599 -677.89 0.
-312.318 -513.675 0.
-196.267 -243.197 0.
-16.79 -116.9 0.
-188.715 -518.556 0.
-45.135 -183.809 0.
-32.2543 93.6874 0.
54.4953 295.745 0.
-40.7353 73.1414 0.
33.8026 42.4171 0.
-42.6838 -136.165 0.
-9.80498 -59.6553 0.
-12.0006 -224.045 0.
-69.0813 -357.309 0.
-136.655 -526.077 0.
74.5227 -32.9325 0.
93.7896 12.4919 0.
-63.4416 -288.935 0.
-72.0722 -309.021 0.
13.2755 -109.778 0.
413.173 181.589 0.
118.334 -505.988 0.
288.071 -109.398 0.
51.9947 -626.297 0.
120.587 -465.088 0.
-595.123 -1002.31 0.
12.0127 -520.112 0.
122.935 -261.587 0.
-34.6896 -189.569 0.
-92.2818 -323.796 0.
-149.874 -458.023 0.
-28.1812 -449.326 0.
-7.66613 -401.496 0.
12.8488 -353.666 0.
-114.713 -394.895 0.
-115.184 -396.483 0.
-115.655 -398.071 0.
-386.71 -539.601 0.
-400.873 -572.353 0.
-163.797 -484.068 0.
-115.892 -372.521 0.
-67.9862 -260.975 0.
-219.182 -310.883 0.
-291.735 -480.509 0.
-364.288 -650.135 0.
-344.891 -655.549 0.
-300.401 -551.744 0.
-255.91 -447.939 0.
-121.034 -351.225 0.
-106.65 -317.407 0.
-47.2112 -264.194 0.
-107.868 -247.611 0.
-86.1113 -196.71 0.
-34.363 -166.952 0.
-90.9449 -298.71 0.
-147.527 -430.467 0.
-146.344 -449.508 0.
-100.557 -343.115 0.
-54.7705 -236.721 0.
-150.379 -259.472 0.
-160.265 -281.728 0.
-170.152 -303.984 0.
8.99014 -228.807 0.
10.5454 -224.894 0.
62.2468 -197.723 0.
73.1865 -171.906 0.
84.1262 -146.089 0.
-222.679 -251.126 0.
-204.351 -208.439 0.
-186.022 -165.752 0.
-111.59 -101.309 0.
-95.0332 -62.4955 0.
-78.476 -23.6819 0.
-49.738 -90.4865 0.
-107.804 -226.002 0.
-524.694 -515.211 0.
4.20432 -212.572 0.
44.0569 -119.724 0.
-169.528 -172.162 0.
-214.316 -276.483 0.
-259.104 -380.803 0.
-308.888 -461.475 0.
-323.219 -495.003 0.
-337.55 -528.531 0.
-261.741 -505.112 0.
-261.382 -504.273 0.
-261.023 -503.434 0.
-467.581 -524.226 0.
-427.721 -431.186 0.
-315.031 -306.274 0.
-277.46 -219.628 0.
-239.889 -132.982 0.
-16.9978 -13.8712 0.
-52.7766 -97.1684 0.
-88.5554 -180.466 0.
176.739 -92.7281 0.
182.414 -79.847 0.
188.089 -66.9659 0.
43.5486 -141.392 0.
32.8453 -166.752 0.
106.146 -156.73 0.
-302.128 -422.761 0.
-349.898 -534.366 0.
-197.325 -539.789 0.
-198.249 -542.11 0.
-199.172 -544.432 0.
-249.832 -547.13 0.
-226.182 -491.945 0.
-202.532 -436.76 0.
-137.629 -427.015 0.
-161.829 -483.492 0.
-186.029 -539.968 0.
-263.389 -559.145 0.
-253.429 -535.996 0.
-64.337 -433.405 0.
-43.7233 -385.226 0.
-23.1096 -337.046 0.
-184.53 -391.14 0.
-198.305 -423.033 0.
-212.08 -454.925 0.
112.782 -364.537 0.
76.0135 -449.872 0.
39.2449 -535.207 0.
-94.8473 -699.007 0.
-155.616 -839.632 0.
-486.953 -924.519 0.
-258.286 -604.494 0.
-147.45 -346.023 0.
-36.4234 -159.011 0.
-93.9597 -293.283 0.
-151.496 -427.555 0.
-70.8166 -436.218 0.
-50.1826 -388.487 0.
-29.5487 -340.755 0.
-125.974 -368.1 0.
-126.413 -369.773 0.
-126.852 -371.446 0.
-313.369 -476.438 0.
-327.502 -509.205 0.
-97.535 -424.539 0.
-49.654 -312.971 0.
-1.77295 -201.403 0.
-314.678 -320.139 0.
-387.211 -489.733 0.
-459.745 -659.328 0.
-310.579 -609.992 0.
-266.017 -506.266 0.
-221.455 -402.541 0.
-96.8628 -309.485 0.
-82.4482 -275.745 0.
-35.0529 -227.667 0.
-233.065 -269.477 0.
-211.237 -218.621 0.
47.1621 -100.532 0.
-9.42664 -232.294 0.
-66.0154 -364.057 0.
-75.0618 -387.601 0.
-29.2316 -281.225 0.
16.5987 -174.848 0.
-58.9796 -188.991 0.
-68.9082 -211.267 0.
-78.8367 -233.544 0.
-82.5199 -236.406 0.
-80.9679 -232.421 0.
50.687 -171.562 0.
61.5983 -145.669 0.
72.5096 -119.777 0.
-77.1137 -157.327 0.
-58.7552 -114.637 0.
-40.3967 -71.9469 0.
-105.603 -67.25 0.
-89.0141 -28.4533 0.
-72.4248 10.3434 0.
-120.403 -89.4861 0.
-178.528 -224.945 0.
-266.937 -373.285 0.
-56.6647 -207.278 0.
-16.7402 -114.485 0.
-192.485 -150.589 0.
-237.256 -254.962 0.
-282.027 -359.335 0.
-304.776 -428.301 0.
-319.102 -461.859 0.
-333.428 -495.417 0.
-154.037 -427.613 0.
-153.601 -426.844 0.
-153.165 -426.076 0.
-558.75 -531.616 0.
-518.869 -438.662 0.
-269.512 -255.374 0.
-231.954 -168.734 0.
-194.397 -82.0925 0.
-11.7702 19.7555 0.
-47.6331 -63.4889 0.
-83.4961 -146.733 0.
268.494 -21.6613 0.
274.136 -8.74979 0.
279.778 4.16173 0.
68.2385 -99.2406 0.
57.4504 -124.477 0.
286.031 -48.8379 0.
-321.071 -400.062 0.
-368.8 -511.583 0.
-180.073 -500.927 0.
-180.946 -503.231 0.
-181.82 -505.535 0.
-163.155 -478.21 0.
-139.426 -423.072 0.
-115.697 -367.935 0.
-85.3421 -373.128 0.
-109.595 -429.49 0.
-133.848 -485.852 0.
-378.615 -577.172 0.
-368.624 -554.032 0.
-9.06693 -378.367 0.
11.5771 -330.204 0.
32.2211 -282.041 0.
-262.36 -392.751 0.
-276.162 -424.541 0.
-289.964 -456.33 0.
48.6052 -360.646 0.
11.8935 -445.991 0.
-24.8182 -531.335 0.
-220.793 -721.452 0.
-281.531 -861.924 0.
-203.969 -287.326 0.
-255.143 -424.624 0.
-303.941 -538.647 0.
-180.044 -552.069 0.
-168.427 -524.769 0.
-156.811 -497.468 0.
-71.6792 -436.029 0.
-55.0756 -396.812 0.
-38.4721 -357.594 0.
-137.58 -412.262 0.
-155.845 -454.76 0.
-174.109 -497.258 0.
-243.239 -430.323 0.
-183.618 -290.997 0.
10.4171 -120.983 0.
-60.3824 -286.389 0.
-131.182 -451.795 0.
-512.812 -659.924 0.
-439.787 -489.539 0.
-366.762 -319.155 0.
-112.415 -145.719 0.
-110.652 -141.81 0.
-108.89 -137.9 0.
-65.1646 -139.173 0.
-78.1919 -170.002 0.
-87.258 -199.212 0.
-307.172 -318.586 0.
-320.85 -350.134 0.
67.9327 -209.672 0.
52.118 -246.644 0.
36.3032 -283.616 0.
-33.1784 -337.75 0.
-41.5155 -356.746 0.
-49.8526 -375.742 0.
-149.737 -423.185 0.
-148.482 -421.028 0.
-147.228 -418.871 0.
-212.899 -441.986 0.
-210.23 -435.704 0.
-80.0391 -379.572 0.
-101.186 -428.817 0.
-122.332 -478.062 0.
-178.28 -512.224 0.
-151.93 -450.662 0.
-125.579 -389.101 0.
-272.564 -439.984 0.
-282.335 -462.839 0.
-292.106 -485.694 0.
-332.883 -439.25 0.
-287.146 -332.752 0.
-671.434 -410.239 0.
-52.0851 -117.052 0.
-37.5878 -82.9401 0.
-152.485 -110.402 0.
-149.427 -103.48 0.
-146.37 -96.5574 0.
-134.341 -97.5669 0.
-145.744 -124.113 0.
-157.147 -150.659 0.
-13.9223 -114.132 0.
-28.3297 -147.682 0.
-42.7372 -181.232 0.
-550.573 -358.574 0.
-524.845 -298.254 0.
-162.518 -108.147 0.
-204.356 -205.249 0.
-246.194 -302.35 0.
-200.181 -359.11 0.
-238.094 -447.816 0.
-276.006 -536.522 0.
112.659 -383.721 0.
129.391 -344.599 0.
146.122 -305.478 0.
-55.2473 -355.624 0.
-34.3438 -306.74 0.
296.539 -122.002 0.
-292.711 -300.961 0.
-254.109 -210.45 0.
4.73434 -52.5747 0.
-18.1797 -105.67 0.
-41.0937 -158.765 0.
-44.1268 -232.301 0.
-101.173 -365.432 0.
-158.218 -498.563 0.
-142.491 -439.889 0.
-73.953 -279.648 0.
-5.41538 -119.407 0.
-221.797 -253.169 0.
-254.18 -328.319 0.
60.1238 -262.892 0.
-7.7117 -421.292 0.
-75.5472 -579.691 0.
-440.187 -793.045 0.
-396.83 -692.63 0.
-353.473 -592.214 0.
-27.3371 -448.521 0.
-57.1468 -518.342 0.
-86.9565 -588.163 0.
-244.421 -475.58 0.
-115.769 -176.151 0.
-412.992 -345.053 0.
-137.748 -342.808 0.
-186.524 -456.907 0.
-85.942 -480.337 0.
-74.2781 -453.092 0.
-62.6142 -425.848 0.
-0.964382 -374.272 0.
15.7415 -335.088 0.
32.4472 -295.904 0.
-75.5048 -354.254 0.
-93.7167 -396.783 0.
-111.929 -439.312 0.
-159.593 -362.975 0.
-99.9762 -223.633 0.
-76.5362 -126.905 0.
-147.394 -292.24 0.
-218.251 -457.574 0.
-515.393 -629.642 0.
-442.39 -459.231 0.
-369.386 -288.819 0.
-116.519 -116.367 0.
-114.728 -112.476 0.
-112.937 -108.585 0.
-156.494 -146.983 0.
-169.584 -177.777 0.
-135.362 -188.404 0.
-279.243 -275.12 0.
-292.889 -306.714 0.
185.069 -128.006 0.
169.194 -164.874 0.
153.319 -201.742 0.
-19.2455 -300.353 0.
-27.5258 -319.418 0.
-35.806 -338.483 0.
-180.708 -405.159 0.
-179.552 -402.965 0.
-178.396 -400.772 0.
-194.246 -402.619 0.
-191.602 -396.325 0.
-134.27 -371.384 0.
-155.46 -420.591 0.
-176.65 -469.798 0.
-164.859 -475.019 0.
-138.493 -413.484 0.
-112.128 -351.95 0.
-262.893 -404.328 0.
-272.662 -427.168 0.
-282.43 -450.008 0.
-390.537 -432.564 0.
-344.873 -326.03 0.
-522.374 -315.224 0.
-39.1917 -80.2402 0.
-24.72 -46.0336 0.
-42.1518 -31.7789 0.
-39.0733 -24.9096 0.
-35.9948 -18.0403 0.
-35.2989 -23.4558 0.
-46.7167 -50.0555 0.
-58.1345 -76.6552 0.
-71.304 -107.512 0.
-85.7684 -141.07 0.
-100.233 -174.628 0.
-589.015 -343.603 0.
-563.183 -283.389 0.
-68.6442 -36.4754 0.
-110.491 -133.57 0.
-152.338 -230.664 0.
-234.053 -342.14 0.
-272.036 -430.817 0.
-310.019 -519.494 0.
53.1646 -377.795 0.
69.9469 -338.703 0.
86.7292 -299.61 0.
-79.376 -334.516 0.
-58.4506 -285.628 0.
198.236 -133.051 0.
-276.023 -262.557 0.
-237.359 -171.997 0.
1.99901 -22.2211 0.
-20.8536 -75.3156 0.
-43.7062 -128.41 0.
-65.2455 -209.913 0.
-122.281 -343.038 0.
-179.316 -476.162 0.
-231.734 -447.09 0.
-163.202 -286.86 0.
-94.6698 -126.631 0.
-29.7815 -139.059 0.
-62.1172 -214.295 0.
88.0822 -219.37 0.
20.213 -377.784 0.
-47.6562 -536.199 0.
-343.167 -720.006 0.
-299.879 -619.386 0.
-256.59 -518.765 0.
-25.0263 -416.191 0.
-54.8481 -485.92 0.
-84.6699 -555.65 0.
-401.764 -511.503 0.
-273.186 -211.827 0.
149.432 -227.884 0.
31.006 -137.655 0.
197.02 249.775 0.
251.133 158.64 0.
99.3885 -195.152 0.
236.875 125.842 0.
385.588 424.177 0.
420.959 506.897 0.
220.764 39.7056 0.
27.1227 -203.932 0.
52.3935 -145.305 0.
173.654 137.394 0.
129.202 183.406 0.
126.251 176.436 0.
57.0601 384.042 0.
-318.772 -493.43 0.
-191.193 -196.328 0.
-293.537 -74.9443 0.
-211.345 116.896 0.
-227.99 78.2323 0.
-116.394 -77.0663 0.
-327.137 -568.872 0.
-1.27879 191.279 0.
-225.113 -101.579 0.
-300.583 -278.063 0.
-341.591 -585.814 0.
-185.265 -78.5476 0.
4.59273 364.147 0.
630.393 720.715 0.
439.936 276.45 0.
351.636 70.5097 0.
56.467 -119.819 0.
20.6688 -203.331 0.
38.0412 -162.726 0.
-62.1761 -41.5632 0.
58.0311 239.013 0.
154.382 463.996 0.
178.33 466.204 0.
187.491 488.207 0.
179.343 492.115 0.
91.7091 287.782 0.
101.371 310.528 0.
191.295 363.274 0.
22.673 -30.1757 0.
-47.9752 -195.045 0.
-162.168 -158.683 0.
-59.1827 81.6142 0.
8.66056 239.92 0.
-192.107 173.287 0.
-104.02 378.602 0.
-17.1086 618.601 0.
123.544 307.366 0.
-24.1156 -36.5118 0.
-7.34053 -128.426 0.
113.031 152.399 0.
261.11 497.874 0.
309.892 624.365 0.
265.617 521.233 0.
140.734 230.014 0.
-7.94409 178.286 0.
4.25951 206.762 0.
51.4692 316.927 0.
-461.633 57.7271 0.
-498.842 -29.7072 0.
92.7769 194.672 0.
108.594 231.721 0.
0.500459 -20.4499 0.
-196.043 -158.489 0.
-188.233 -140.236 0.
-101.161 62.9702 0.
322.04 393.826 0.
363.5 490.671 0.
423.303 630.301 0.
216.506 434.085 0.
4.65741 -60.8408 0.
-133.991 -174.696 0.
-269.077 -246.783 0.
-261.883 -229.665 0.
-76.2612 -167.095 0.
28.6678 77.5617 0.
161.815 388.055 0.
-33.5263 -63.7707 0.
-80.5431 -173.069 0.
-79.3045 -169.788 0.
-165.284 -89.9093 0.
-168.124 -96.7773 0.
-168.13 -97.0301 0.
174.805 4.40076 0.
244.306 166.493 0.
310.08 277.334 0.
264.773 171.52 0.
378.82 437.539 0.
225.975 455.41 0.
149.281 277.105 0.
66.3493 84.1084 0.
221.882 185.859 0.
244.685 238.796 0.
301.204 370.414 0.
-398.862 -171.823 0.
-435.31 -257.875 0.
133.727 -378.46 0.
-186.256 -381.361 0.
-126.923 -242.306 0.
187.05 -20.3733 0.
186.551 -21.4126 0.
186.053 -22.4519 0.
-3.8129 -161.348 0.
-72.7475 -322.263 0.
-141.682 -483.179 0.
-113.148 -397.988 0.
-20.615 -182.025 0.
71.9183 33.9389 0.
-79.1982 -67.4857 0.
-112.733 -145.706 0.
-159.708 -212.814 0.
-111.037 -99.2286 0.
-62.3655 14.3564 0.
-107.988 19.2801 0.
-169.294 -123.59 0.
-230.601 -266.46 0.
-323.176 -343.331 0.
-308.959 -309.636 0.
-294.742 -275.942 0.
-336.502 -230.949 0.
-298.772 -142.828 0.
-63.4491 29.8843 0.
-77.1154 2.36314 0.
-87.8013 -22.9265 0.
334.05 125.25 0.
294.876 33.6324 0.
255.703 -57.9858 0.
101.861 -194.654 0.
67.1051 -275.887 0.
32.3492 -357.119 0.
-198.874 -401.437 0.
-138.453 -260.695 0.
-78.0311 -119.952 0.
-266.423 -269.05 0.
-314.031 -379.885 0.
-117.735 -365.428 0.
-67.1018 -247.335 0.
-16.469 -129.241 0.
0.962774 -71.2165 0.
-21.5153 -123.867 0.
-43.9934 -176.518 0.
-13.5785 -154.583 0.
13.3392 -92.0644 0.
40.2569 -29.5456 0.
-428.777 -282.675 0.
-471.188 -381.951 0.
157.369 -193.708 0.
-197.027 -334.446 0.
-191.195 -321.016 0.
-20.2453 -237.974 0.
-20.3985 -238.039 0.
-20.5517 -238.104 0.
-49.6891 -255.293 0.
-54.769 -267.017 0.
-59.849 -278.74 0.
-163.797 -262.048 0.
-112.629 -143.068 0.
-61.4607 -24.0887 0.
-529.428 -323.428 0.
-593.554 -473.36 0.
-245.806 -419.054 0.
-183.817 -274.452 0.
-121.828 -129.85 0.
-91.4897 -34.6409 0.
-85.0286 -19.5737 0.
-78.5676 -4.50645 0.
195.911 107.978 0.
186.101 85.3369 0.
176.292 62.6955 0.
-206.708 -159.894 0.
-244.095 -247.272 0.
-316.916 -350.942 0.
-296.924 -351.301 0.
-301.503 -362.035 0.
-191.972 -319.26 0.
-188.777 -311.725 0.
-185.583 -304.191 0.
52.7671 -168.154 0.
89.0329 -83.2877 0.
125.299 1.57805 0.
-186.086 -150.872 0.
-218.483 -226.76 0.
-250.881 -302.648 0.
0.0464224 -198.885 0.
1.73125 -194.556 0.
66.4968 -166.856 0.
47.5296 -211.438 0.
28.5623 -256.019 0.
-179.307 -338.718 0.
-130.853 -225.329 0.
-82.3988 -111.94 0.
-15.4639 -117.333 0.
-87.2429 -284.64 0.
-159.022 -451.946 0.
-328.769 -482.619 0.
-279.549 -367.921 0.
357.89 -251.466 0.
-308.37 -402.456 0.
-249.07 -263.342 0.
218.568 24.6106 0.
218.113 23.5508 0.
217.658 22.491 0.
-156.23 -195.282 0.
-225.1 -356.201 0.
-293.969 -517.12 0.
-166.271 -389.16 0.
-73.7729 -173.18 0.
18.7251 42.7996 0.
-186.31 -82.2825 0.
-219.914 -160.501 0.
-96.5683 -154.264 0.
-47.9099 -40.6884 0.
0.748548 72.8868 0.
86.1489 133.955 0.
24.8221 -8.911 0.
-36.5048 -151.777 0.
-420.998 -353.889 0.
-406.82 -320.168 0.
-392.642 -286.447 0.
-388.921 -222.094 0.
-351.259 -133.931 0.
-11.8244 83.4035 0.
29.523 79.3684 0.
18.7596 54.1297 0.
300.332 142.139 0.
261.057 50.6012 0.
221.781 -40.9371 0.
213.05 -115.618 0.
178.274 -196.837 0.
143.498 -278.057 0.
-160.99 -353.888 0.
-100.527 -213.193 0.
-40.0633 -72.4982 0.
-408.404 -298.34 0.
-455.927 -409.241 0.
-14.6286 -289.359 0.
36.0409 -171.309 0.
86.7105 -53.2588 0.
12.2455 -35.2199 0.
-10.293 -87.8499 0.
-32.8316 -140.48 0.
182.894 -38.8551 0.
209.861 23.6098 0.
236.827 86.0747 0.
-460.246 -264.615 0.
-502.654 -363.889 0.
-121.192 -281.742 0.
-237.472 -320.33 0.
-231.772 -306.729 0.
37.2344 -182.231 0.
37.1021 -182.333 0.
36.9698 -182.435 0.
-11.6719 -207.815 0.
-16.7513 -219.508 0.
-21.8306 -231.201 0.
-107.005 -206.068 0.
-55.7694 -87.1984 0.
-4.53351 31.6717 0.
-396.083 -234.775 0.
-460.135 -384.764 0.
-321.508 -420.129 0.
-259.562 -275.487 0.
-197.616 -130.845 0.
-11.7694 30.9463 0.
-5.34226 46.0249 0.
1.08491 61.1034 0.
208.036 144.682 0.
198.262 122.041 0.
188.488 99.4004 0.
-397.75 -210.405 0.
-435.206 -297.712 0.
-196.586 -268.014 0.
-259.6 -303.901 0.
-264.212 -314.598 0.
-237.363 -307.378 0.
-234.206 -299.796 0.
-231.048 -292.213 0.
229.101 -61.1336 0.
265.403 23.7384 0.
301.704 108.61 0.
-163.194 -109.943 0.
-195.564 -185.837 0.
-227.934 -261.731 0.
-90.5518 -205.772 0.
-88.8662 -201.395 0.
17.9219 -156.275 0.
-1.05657 -200.848 0.
-20.0351 -245.422 0.
-242.318 -334.583 0.
-193.916 -221.159 0.
-145.514 -107.736 0.
-130.711 -135.188 0.
-202.381 -302.547 0.
-274.051 -469.906 0.
-64.4024 -338.155 0.
-15.059 -223.448 0.
506.144 528.295 0.
-205.891 -28.4619 0.
-332.705 -324.789 0.
40.2976 -348.817 0.
46.9114 -333.403 0.
53.5252 -317.989 0.
-325.907 -401.787 0.
-241.015 -203.764 0.
-156.122 -5.74113 0.
-80.0212 21.9135 0.
-127.37 -88.597 0.
-174.719 -199.107 0.
-272.866 -253.967 0.
-273.345 -255.245 0.
-120.995 -187.882 0.
-104.657 -149.744 0.
-88.3198 -111.607 0.
39.4851 8.34578 0.
109.525 171.874 0.
179.564 335.403 0.
-260.838 153.542 0.
-311.212 36.0072 0.
-361.586 -81.528 0.
-369.636 -175.077 0.
-414.977 -281.102 0.
-160.074 -258.509 0.
-83.6849 -323.381 0.
-134.87 -442.776 0.
19.1674 -434.893 0.
55.8137 -349.7 0.
92.4599 -264.507 0.
123.533 -179.583 0.
164.118 -84.8967 0.
204.703 9.78955 0.
-42.0968 -112.662 0.
-75.1825 -189.596 0.
-108.268 -266.53 0.
-474.868 -464.405 0.
-494.384 -509.936 0.
17.9711 -319.546 0.
30.1998 -290.946 0.
42.4285 -262.346 0.
-93.1937 -297.649 0.
-80.4448 -267.878 0.
-67.6958 -238.106 0.
190.406 -130.93 0.
177.809 -160.199 0.
165.211 -189.469 0.
-446.031 -286.266 0.
-330.771 -17.3256 0.
-40.8503 326.705 0.
-60.8496 101.555 0.
-174.548 -163.914 0.
-6.17804 -258.249 0.
0.389889 -243.028 0.
6.95781 -227.808 0.
-6.81894 -246.256 0.
-30.3479 -301.261 0.
-53.8768 -356.266 0.
-149.575 -445.79 0.
-175.949 -506.78 0.
-202.323 -567.77 0.
-397.376 -438.274 0.
-268.035 -136.516 0.
-72.6452 144.296 0.
-175.308 -95.2771 0.
-277.971 -334.851 0.
-178.471 -427.697 0.
-186.79 -447.093 0.
-195.108 -466.49 0.
-45.9831 -371.18 0.
-9.75297 -286.92 0.
26.4772 -202.66 0.
-552.922 -381.38 0.
-515.599 -294.76 0.
-46.8404 -22.1523 0.
-198.884 -110.07 0.
-211.133 -138.807 0.
-216.949 -172.774 0.
-243.86 -235.367 0.
-270.77 -297.961 0.
163.535 -138.613 0.
163.633 -138.396 0.
163.731 -138.178 0.
-187.348 -297.033 0.
-194.419 -313.492 0.
-201.489 -329.952 0.
-186.273 -326.739 0.
-186.57 -327.038 0.
-93.0815 -268.207 0.
-13.7535 -82.6822 0.
65.5746 102.843 0.
-88.3093 50.0845 0.
-224.619 -268.314 0.
-360.929 -586.714 0.
-331.621 -609.304 0.
-255.612 -431.613 0.
-179.603 -253.922 0.
7.02296 -247.956 0.
-64.6723 -414.706 0.
347.027 490.562 0.
-196.013 7.05323 0.
-322.882 -289.202 0.
-2.82185 -335.986 0.
3.77578 -320.55 0.
10.3734 -305.114 0.
-340.757 -376.589 0.
-255.855 -178.599 0.
-170.954 19.3915 0.
-213.625 -3.92533 0.
-260.946 -114.453 0.
-308.266 -224.981 0.
-165.679 -176.521 0.
-166.136 -177.817 0.
-175.295 -179.704 0.
-158.921 -141.569 0.
-142.547 -103.435 0.
-102.132 -20.8804 0.
-32.174 142.675 0.
37.7839 306.23 0.
-271.402 180.298 0.
-321.763 62.7595 0.
-372.123 -54.779 0.
-289.86 -109.348 0.
-335.124 -215.457 0.
-288.145 -281.852 0.
-11.043 -260.518 0.
-62.2971 -379.864 0.
5.52429 -409.419 0.
42.1599 -324.179 0.
78.7955 -238.939 0.
-103.334 -245.253 0.
-62.7183 -150.615 0.
-22.1022 -55.9778 0.
-5.77252 -65.5454 0.
-38.7188 -142.591 0.
-71.6652 -219.637 0.
-292.575 -354.672 0.
-312.071 -400.261 0.
60.0492 -269.679 0.
72.3165 -241.147 0.
84.5838 -212.615 0.
-55.7634 -250.665 0.
-43.0647 -220.888 0.
-30.3661 -191.112 0.
144.9 -118.987 0.
132.297 -148.253 0.
119.694 -177.519 0.
-329.799 -204.883 0.
-214.473 64.1008 0.
656.802 657.19 0.
2.1156 159.932 0.
-111.648 -105.492 0.
-55.3718 -248.099 0.
-48.8324 -232.913 0.
-42.2931 -217.727 0.
39.7727 -195.12 0.
16.2752 -250.153 0.
-7.22238 -305.185 0.
-25.58 -360.951 0.
-51.9343 -421.977 0.
-78.2886 -483.004 0.
-287.372 -359.509 0.
-157.96 -57.7357 0.
51.2947 228.61 0.
-51.4584 -10.9204 0.
-154.211 -250.451 0.
-150.904 -384.331 0.
-159.182 -403.747 0.
-167.46 -423.163 0.
-104.694 -364.869 0.
-68.5241 -280.542 0.
-32.3546 -196.214 0.
-528.977 -339.651 0.
-491.641 -253.029 0.
-265.698 -84.668 0.
-259.416 -104.836 0.
-271.705 -133.558 0.
-231.192 -147.287 0.
-258.075 -209.87 0.
-284.958 -272.452 0.
-57.0927 -201.657 0.
-56.9625 -201.454 0.
-56.8323 -201.251 0.
-40.4431 -202.862 0.
-47.4983 -219.32 0.
-54.5535 -235.779 0.
-169.871 -288.028 0.
-170.063 -288.419 0.
-165.313 -267.639 0.
-85.9133 -82.1988 0.
-6.51341 103.241 0.
-19.5382 111.012 0.
-155.854 -207.406 0.
-292.17 -525.824 0.
-177.131 -511.614 0.
-101.109 -333.915 0.
-25.0859 -156.216 0.
-145.781 -281.572 0.
-217.5 -448.252 0.
424.287 421.865 0.
-241.603 -83.2881 0.
-394.463 -439.989 0.
8.96069 -195.278 0.
244.319 353.826 0.
294.425 470.671 0.
-200.89 10.2404 0.
-290.185 -198.452 0.
-364.18 -371.561 0.
-363.297 -68.0138 0.
-132.028 471.553 0.
-55.2212 650.717 0.
253.986 630.671 0.
91.7301 251.981 0.
-237.495 -189.337 0.
-187.244 -72.2609 0.
-233.406 -180.287 0.
-403.982 -424.197 0.
-149.149 170.615 0.
-275.284 -123.776 0.
-388.674 -41.8594 0.
-207.913 379.89 0.
-131.235 558.701 0.
-59.0217 308.289 0.
-143.379 110.552 0.
-270.257 52.2899 0.
435.169 675.803 0.
-3.0068 -346.278 0.
87.552 -161.291 0.
221.044 149.84 0.
160.275 7.76549 0.
-234.536 -89.2768 0.
-65.0949 305.433 0.
-131.41 150.054 0.
75.5481 87.0036 0.
-59.3661 -228.153 0.
-181.019 -512.274 0.
0.759538 17.3297 0.
123.318 302.812 0.
264.513 161.257 0.
230.84 82.3509 0.
207.557 27.7019 0.
127.402 134.971 0.
331.065 609.941 0.
-53.0143 -286.534 0.
8.47136 -320.93 0.
111.937 -79.4008 0.
177.594 73.9079 0.
-167.803 -18.4367 0.
-148.136 27.524 0.
-516.489 -89.6322 0.
111.986 329.324 0.
90.2552 278.333 0.
103.531 246.116 0.
97.7039 232.571 0.
133.97 317.236 0.
393.225 572.225 0.
423.474 643.127 0.
377.562 536.339 0.
341.037 292.816 0.
245.355 69.4434 0.
341.143 292.845 0.
-6.80142 120.513 0.
-11.7352 109.206 0.
137.696 225.625 0.
-32.3947 -170.999 0.
67.9366 63.411 0.
152.919 303.002 0.
83.651 141.373 0.
-168.235 -446.294 0.
-229.545 -512.631 0.
-206.085 -458.184 0.
-138.596 -300.89 0.
-409.795 -75.4583 0.
-484.112 -249.013 0.
-427.313 -8.33907 0.
-85.7724 445.998 0.
-264.386 29.8939 0.
-271.381 -183.819 0.
-150.484 99.5148 0.
-235.939 -98.7752 0.
2.49351 388.176 0.
-99.3219 150.549 0.
92.372 597.501 0.
134.058 -44.8537 0.
-2.86386 -363.958 0.
16.7163 -317.88 0.
-118.138 -166.802 0.
81.025 297.991 0.
86.5997 488.331 0.
-13.8556 254.382 0.
-236.248 -264.096 0.
-85.5874 -142.326 0.
33.6399 136.304 0.
-4.48757 47.7365 0.
68.2611 -202.261 0.
93.0111 -144.577 0.
73.2657 -190.71 0.
-241.241 -178.395 0.
-58.6261 247.177 0.
67.6226 -85.8727 0.
-155.322 -71.8898 0.
-98.27 60.5251 0.
55.7631 215.801 0.
68.6185 245.579 0.
81.4739 275.356 0.
-182.882 136.04 0.
-229.953 26.198 0.
-277.025 -83.6439 0.
-439.313 -188.367 0.
-441.417 -193.356 0.
-443.52 -198.344 0.
-162.699 -40.2663 0.
-141.414 9.36556 0.
-112.179 55.5814 0.
-129.635 15.0554 0.
-147.09 -25.4707 0.
-249.597 -58.2273 0.
-195.207 68.4037 0.
-140.818 195.035 0.
-228.799 117.135 0.
-310.303 -72.9713 0.
-391.806 -263.078 0.
-103.726 -92.3908 0.
-49.3716 35.2827 0.
-411.622 -16.6871 0.
-30.5116 87.916 0.
-62.1508 14.3229 0.
67.3563 15.3511 0.
52.1553 -19.6071 0.
36.9542 -54.5652 0.
-123.943 -135.754 0.
-121.957 -131.538 0.
-119.971 -127.322 0.
-111.272 -148.103 0.
-130.22 -192.592 0.
-149.167 -237.08 0.
-128.689 -273.522 0.
-153.04 -330.387 0.
118.739 -258.862 0.
106.436 -287.642 0.
94.1338 -316.421 0.
57.3438 -336.463 0.
74.6168 -296.586 0.
91.8897 -256.71 0.
106.327 -189.375 0.
150.409 -86.6741 0.
194.49 16.0271 0.
-349.229 -326.807 0.
-435.624 -528.448 0.
-1079.63 -968.761 0.
-129.424 -329.815 0.
-7.93591 -46.2085 0.
138.93 175.576 0.
86.9569 54.1357 0.
34.984 -67.305 0.
127.839 -127.727 0.
74.9614 -250.764 0.
22.0833 -373.801 0.
-48.7887 -355.028 0.
16.3123 -203.455 0.
81.4133 -51.8826 0.
-71.1348 -109.543 0.
-74.9225 -117.501 0.
44.1091 -77.5709 0.
15.9445 -143.39 0.
-12.2201 -209.209 0.
18.9239 -163.057 0.
126.457 87.9693 0.
233.991 338.995 0.
-101.739 246.495 0.
-138.634 159.973 0.
-175.53 73.4499 0.
-200.08 100.578 0.
-165.144 182.722 0.
6.26308 321.826 0.
-247.771 158.154 0.
-276.425 91.6161 0.
-160.528 120.278 0.
-117.01 221.945 0.
-73.4924 323.612 0.
-40.6381 315.352 0.
-119.116 132.843 0.
-197.595 -49.6654 0.
-20.8616 -38.67 0.
-33.4005 -67.3194 0.
-45.9394 -95.9688 0.
-31.7119 -83.1153 0.
-27.7408 -73.4346 0.
-234.082 -153.777 0.
-220.859 -122.04 0.
-207.636 -90.3033 0.
138.09 63.2537 0.
119.187 19.9336 0.
100.283 -23.3864 0.
-25.7086 -74.7322 0.
-8.35467 -33.8945 0.
8.99918 6.94331 0.
-77.758 -10.067 0.
-69.4235 9.03288 0.
121.85 -30.6658 0.
-38.2176 9.9513 0.
18.9974 142.267 0.
-86.142 186.511 0.
-73.2385 216.231 0.
-60.3351 245.951 0.
-210.819 155.225 0.
-257.911 45.3937 0.
-305.004 -64.4378 0.
-452.484 -162.366 0.
-454.541 -167.396 0.
-456.598 -172.426 0.
-303.539 -69.2626 0.
-282.293 -19.6071 0.
-71.904 104.317 0.
-89.3937 63.8007 0.
-106.883 23.2846 0.
-236.68 -21.2616 0.
-182.277 105.388 0.
-127.874 232.037 0.
-99.0594 203.963 0.
-180.579 13.8095 0.
-262.099 -176.344 0.
68.0081 12.4519 0.
122.408 140.187 0.
-586.994 -60.3576 0.
-276.047 14.7664 0.
-307.769 -58.78 0.
-33.3627 3.27204 0.
-48.6378 -31.6422 0.
-63.9129 -66.5565 0.
52.3594 -29.0311 0.
54.3311 -24.7426 0.
56.3027 -20.4541 0.
-200.316 -154.613 0.
-219.167 -199.199 0.
-238.018 -243.784 0.
-117.071 -236.894 0.
-141.555 -293.653 0.
176.298 -202.541 0.
164.015 -231.336 0.
151.732 -260.13 0.
236.092 -228.882 0.
253.274 -188.955 0.
270.456 -149.027 0.
173.443 -129.267 0.
217.492 -26.5488 0.
261.541 76.1695 0.
-392.164 -313.588 0.
-478.454 -515.233 0.
-1121.06 -955.384 0.
-62.2933 -269.576 0.
59.0491 14.1654 0.
234.876 247.972 0.
182.859 126.469 0.
130.843 4.96562 0.
185.969 -71.7075 0.
133.068 -194.73 0.
80.1677 -317.752 0.
-168.957 -374.6 0.
-103.812 -223.093 0.
-38.6672 -71.5864 0.
-13.0208 -52.9177 0.
-16.7046 -60.97 0.
106.208 -19.6294 0.
78.1056 -85.4611 0.
50.0031 -151.293 0.
115.444 -90.2345 0.
223.072 160.762 0.
330.699 411.759 0.
-326.675 181.634 0.
-363.488 95.0615 0.
-400.301 8.48859 0.
-20.0455 209.737 0.
14.9833 291.851 0.
-246.835 244.701 0.
-278.389 176.209 0.
-307.047 109.721 0.
-166.852 148.954 0.
-123.287 250.625 0.
-79.7222 352.296 0.
-39.7114 347.005 0.
-118.246 164.539 0.
-196.78 -17.9265 0.
-197.181 -83.0259 0.
-209.745 -111.698 0.
-222.31 -140.37 0.
46.8534 -17.5499 0.
50.8547 -7.91687 0.
-274.493 -139.638 0.
-261.392 -107.864 0.
-248.29 -76.091 0.
319.919 172.224 0.
300.928 128.963 0.
281.936 85.7028 0.
-191.183 -114.357 0.
-173.895 -73.4419 0.
-156.607 -32.5268 0.
50.6588 76.5719 0.
58.9872 95.9066 0.
