# vtk DataFile Version 2.0
test grain
ASCII
DATASET UNSTRUCTURED_GRID
POINTS 5000 float
0.499834 0.00100163 0.
0.501835 0.00100162 0.
0.503835 0.0010016 0.
0.505836 0.00100158 0.
0.507835 0.00100158 0.
0.509835 0.00100158 0.
0.511835 0.0010014 0.
0.513836 0.00100093 0.
0.515838 0.00100047 0.
0.517839 0.00100041 0.
0.519841 0.00100058 0.
0.521842 0.00100075 0.
0.523842 0.00100083 0.
0.525842 0.0010009 0.
0.527841 0.00100102 0.
0.52984 0.00100153 0.
0.531839 0.00100204 0.
0.533839 0.00100211 0.
0.535839 0.00100114 0.
0.53784 0.00100016 0.
0.53984 0.00100003 0.
0.54184 0.00100071 0.
0.54384 0.00100138 0.
0.54584 0.00100166 0.
0.54784 0.00100179 0.
0.549841 0.00100192 0.
0.551837 0.0010021 0.
0.553834 0.00100227 0.
0.555831 0.00100235 0.
0.557828 0.00100219 0.
0.559825 0.00100203 0.
0.561822 0.00100214 0.
0.563817 0.0010026 0.
0.565812 0.00100306 0.
0.567807 0.00100249 0.
0.569801 0.00100126 0.
0.571795 0.00100003 0.
0.573789 0.00100119 0.
0.575784 0.00100281 0.
0.577778 0.00100443 0.
0.579761 0.00100519 0.
0.581743 0.00100595 0.
0.583725 0.00100647 0.
0.585707 0.00100637 0.
0.587689 0.00100626 0.
0.58967 0.00100499 0.
0.591649 0.00100251 0.
0.593629 0.00100004 0.
0.59572 0.000999677 0.
0.597857 0.000999756 0.
0.600001 0.00099983 0.
0.602138 0.000999791 0.
0.604274 0.000999748 0.
0.606365 0.00100003 0.
0.608345 0.00100213 0.
0.610325 0.00100423 0.
0.612307 0.00100542 0.
0.61429 0.00100567 0.
0.616274 0.00100593 0.
0.618257 0.00100592 0.
0.62024 0.00100584 0.
0.622223 0.00100576 0.
0.624214 0.00100489 0.
0.626205 0.00100399 0.
0.628196 0.00100302 0.
0.630193 0.00100173 0.
0.632189 0.00100045 0.
0.634186 0.000999994 0.
0.636182 0.00100089 0.
0.638179 0.00100179 0.
0.640175 0.00100215 0.
0.642172 0.00100218 0.
0.644168 0.00100221 0.
0.646165 0.00100247 0.
0.64816 0.00100279 0.
0.650157 0.00100307 0.
0.652156 0.00100233 0.
0.654156 0.0010016 0.
0.656157 0.00100094 0.
0.658159 0.00100047 0.
0.66016 0.001 0.
0.662162 0.00100015 0.
0.664163 0.00100093 0.
0.666165 0.00100172 0.
0.668165 0.00100207 0.
0.670163 0.00100224 0.
0.672162 0.00100242 0.
0.674163 0.00100196 0.
0.676163 0.00100145 0.
0.678163 0.00100105 0.
0.680163 0.00100124 0.
0.682163 0.00100143 0.
0.684163 0.00100154 0.
0.686164 0.00100149 0.
0.688164 0.00100144 0.
0.690164 0.00100155 0.
0.692164 0.00100176 0.
0.694164 0.00100197 0.
0.696163 0.00100188 0.
0.698162 0.00100173 0.
0.499835 0.00300487 0.
0.501835 0.00300485 0.
0.503836 0.00300479 0.
0.505836 0.00300475 0.
0.507836 0.00300474 0.
0.509836 0.00300474 0.
0.511836 0.00300419 0.
0.513837 0.0030028 0.
0.515838 0.0030014 0.
0.517839 0.00300122 0.
0.519841 0.00300173 0.
0.521842 0.00300224 0.
0.523842 0.00300249 0.
0.525842 0.00300272 0.
0.527842 0.00300305 0.
0.529841 0.00300459 0.
0.53184 0.00300613 0.
0.533839 0.00300633 0.
0.535837 0.00300341 0.
0.537836 0.00300049 0.
0.539837 0.0030001 0.
0.54184 0.00300212 0.
0.543844 0.00300413 0.
0.545844 0.00300498 0.
0.547843 0.00300538 0.
0.549842 0.00300578 0.
0.551839 0.0030063 0.
0.553836 0.0030068 0.
0.555833 0.00300704 0.
0.55783 0.00300657 0.
0.559827 0.00300609 0.
0.561823 0.00300642 0.
0.563819 0.00300781 0.
0.565815 0.0030092 0.
0.567811 0.00300747 0.
0.569807 0.00300378 0.
0.571803 0.00300009 0.
0.573796 0.00300355 0.
0.575787 0.00300845 0.
0.577779 0.00301329 0.
0.579765 0.00301557 0.
0.58175 0.00301785 0.
0.583734 0.0030194 0.
0.585715 0.0030191 0.
0.587696 0.00301879 0.
0.589678 0.00301493 0.
0.591661 0.00300747 0.
0.593644 0.00300004 0.
0.595732 0.00299899 0.
0.597864 0.00299925 0.
0.6 0.00299949 0.
0.602132 0.00299935 0.
0.604263 0.0029992 0.
0.606351 0.00300005 0.
0.608334 0.00300636 0.
0.610317 0.00301268 0.
0.6123 0.00301623 0.
0.614282 0.003017 0.
0.616265 0.00301778 0.
0.618249 0.00301775 0.
0.620235 0.00301752 0.
0.622221 0.00301729 0.
0.624211 0.00301469 0.
0.626201 0.00301197 0.
0.628192 0.00300906 0.
0.630187 0.0030052 0.
0.632182 0.00300134 0.
0.634179 0.00299997 0.
0.636178 0.00300267 0.
0.638177 0.00300538 0.
0.640175 0.00300647 0.
0.642172 0.00300655 0.
0.644169 0.00300663 0.
0.646165 0.00300742 0.
0.648161 0.00300837 0.
0.650156 0.00300922 0.
0.652154 0.00300702 0.
0.654151 0.00300482 0.
0.656151 0.00300281 0.
0.658158 0.0030014 0.
0.660165 0.00299999 0.
0.662168 0.00300044 0.
0.664167 0.00300279 0.
0.666166 0.00300515 0.
0.668165 0.0030062 0.
0.670163 0.00300673 0.
0.672162 0.00300726 0.
0.674162 0.00300587 0.
0.676162 0.00300435 0.
0.678162 0.00300315 0.
0.680162 0.00300372 0.
0.682162 0.00300428 0.
0.684163 0.0030046 0.
0.686163 0.00300446 0.
0.688164 0.00300432 0.
0.690164 0.00300464 0.
0.692165 0.00300527 0.
0.694165 0.00300591 0.
0.696165 0.00300564 0.
0.698165 0.00300518 0.
0.499836 0.00500811 0.
0.501836 0.00500808 0.
0.503836 0.00500798 0.
0.505837 0.00500793 0.
0.507837 0.00500791 0.
0.509837 0.0050079 0.
0.511837 0.00500699 0.
0.513837 0.00500466 0.
0.515838 0.00500234 0.
0.517839 0.00500203 0.
0.519841 0.00500289 0.
0.521842 0.00500375 0.
0.523842 0.00500415 0.
0.525842 0.00500453 0.
0.527842 0.00500508 0.
0.529842 0.00500763 0.
0.531841 0.00501019 0.
0.533839 0.00501055 0.
0.535836 0.00500569 0.
0.537832 0.00500084 0.
0.539834 0.00500018 0.
0.541841 0.00500354 0.
0.543848 0.00500689 0.
0.545848 0.0050083 0.
0.547845 0.00500896 0.
0.549843 0.00500962 0.
0.55184 0.00501048 0.
0.553837 0.00501132 0.
0.555834 0.00501174 0.
0.557831 0.00501094 0.
0.559828 0.00501014 0.
0.561825 0.00501071 0.
0.563821 0.00501302 0.
0.565818 0.00501534 0.
0.567815 0.00501243 0.
0.569813 0.00500629 0.
0.571812 0.00500015 0.
0.573802 0.00500593 0.
0.575791 0.00501408 0.
0.57778 0.00502215 0.
0.579769 0.00502593 0.
0.581758 0.00502972 0.
0.583744 0.00503228 0.
0.585724 0.00503178 0.
0.587704 0.00503132 0.
0.589687 0.00502483 0.
0.591673 0.00501235 0.
0.593659 0.00499996 0.
0.595745 0.00499827 0.
0.597871 0.00499901 0.
0.600001 0.00500014 0.
0.602127 0.00499919 0.
0.604252 0.00499862 0.
0.606337 0.005 0.
0.608323 0.00501053 0.
0.610309 0.0050211 0.
0.612293 0.005027 0.
0.614274 0.00502829 0.
0.616255 0.00502958 0.
0.618241 0.00502955 0.
0.62023 0.00502917 0.
0.622218 0.00502881 0.
0.624208 0.00502447 0.
0.626197 0.00501995 0.
0.628187 0.00501511 0.
0.630181 0.00500866 0.
0.632175 0.00500223 0.
0.634172 0.00499995 0.
0.636174 0.00500445 0.
0.638175 0.00500894 0.
0.640174 0.00501079 0.
0.642172 0.00501092 0.
0.64417 0.00501106 0.
0.646165 0.00501234 0.
0.648161 0.00501393 0.
0.650156 0.00501537 0.
0.652151 0.00501171 0.
0.654146 0.00500806 0.
0.656146 0.00500469 0.
0.658158 0.00500235 0.
0.660169 0.005 0.
0.662174 0.00500076 0.
0.66417 0.00500467 0.
0.666167 0.00500858 0.
0.668165 0.00501032 0.
0.670163 0.0050112 0.
0.672162 0.00501209 0.
0.674162 0.00500978 0.
0.676162 0.00500725 0.
0.678161 0.00500525 0.
0.680162 0.00500619 0.
0.682162 0.00500713 0.
0.684162 0.00500765 0.
0.686163 0.00500741 0.
0.688163 0.00500718 0.
0.690164 0.00500773 0.
0.692165 0.00500878 0.
0.694167 0.00500984 0.
0.696167 0.0050094 0.
0.698167 0.00500865 0.
0.499838 0.00701177 0.
0.501838 0.00701179 0.
0.503838 0.0070118 0.
0.505838 0.00701184 0.
0.507838 0.00701188 0.
0.509839 0.00701193 0.
0.511839 0.00701172 0.
0.513839 0.00701103 0.
0.51584 0.00701034 0.
0.517841 0.00701001 0.
0.519842 0.0070099 0.
0.521842 0.00700979 0.
0.523843 0.00701049 0.
0.525843 0.00701135 0.
0.527844 0.00701225 0.
0.529844 0.00701378 0.
0.531843 0.00701531 0.
0.533843 0.00701652 0.
0.53584 0.0070169 0.
0.537838 0.00701729 0.
0.539838 0.00701706 0.
0.541842 0.00701623 0.
0.543846 0.00701541 0.
0.545846 0.00701539 0.
0.547844 0.00701563 0.
0.549843 0.00701588 0.
0.551841 0.0070166 0.
0.553839 0.00701732 0.
0.555837 0.00701795 0.
0.557835 0.00701855 0.
0.559832 0.00701914 0.
0.56183 0.00702001 0.
0.563827 0.00702123 0.
0.565825 0.00702245 0.
0.567822 0.00702229 0.
0.56982 0.0070212 0.
0.571817 0.00702012 0.
0.573809 0.00702455 0.
0.575799 0.00703014 0.
0.57779 0.00703556 0.
0.579781 0.00703821 0.
0.581772 0.00704088 0.
0.583763 0.00704266 0.
0.58575 0.00704189 0.
0.587737 0.00704116 0.
0.589726 0.00703149 0.
0.591718 0.00701264 0.
0.593709 0.00699391 0.
0.595783 0.00701326 0.
0.597891 0.00704843 0.
0.600001 0.00708453 0.
0.602107 0.00704957 0.
0.604213 0.00701551 0.
0.606286 0.00699629 0.
0.608278 0.00701283 0.
0.610269 0.00702943 0.
0.612259 0.00703819 0.
0.614247 0.0070392 0.
0.616235 0.0070402 0.
0.618225 0.00703975 0.
0.620216 0.00703886 0.
0.622208 0.00703799 0.
0.6242 0.0070331 0.
0.626192 0.00702799 0.
0.628184 0.00702347 0.
0.630179 0.00702204 0.
0.632173 0.00702063 0.
0.63417 0.00701986 0.
0.636169 0.00701995 0.
0.638168 0.00702004 0.
0.640167 0.00701989 0.
0.642166 0.00701968 0.
0.644164 0.00701946 0.
0.646162 0.00701978 0.
0.648159 0.0070202 0.
0.650157 0.00702057 0.
0.652154 0.00701968 0.
0.654152 0.0070188 0.
0.656152 0.00701885 0.
0.658158 0.00702142 0.
0.660164 0.00702399 0.
0.662166 0.00702408 0.
0.664164 0.00702159 0.
0.666162 0.00701913 0.
0.668161 0.00701777 0.
0.670161 0.00701687 0.
0.67216 0.00701596 0.
0.67416 0.0070144 0.
0.67616 0.00701277 0.
0.67816 0.00701134 0.
0.680161 0.00701121 0.
0.682161 0.00701107 0.
0.684161 0.00701105 0.
0.686162 0.00701115 0.
0.688163 0.00701125 0.
0.690164 0.00701179 0.
0.692164 0.00701262 0.
0.694165 0.00701345 0.
0.696165 0.0070139 0.
0.698165 0.0070143 0.
0.49984 0.00901534 0.
0.50184 0.00901551 0.
0.50384 0.00901562 0.
0.50584 0.00901574 0.
0.50784 0.00901585 0.
0.50984 0.00901597 0.
0.511841 0.00901645 0.
0.513841 0.00901739 0.
0.515842 0.00901833 0.
0.517842 0.00901798 0.
0.519842 0.0090169 0.
0.521843 0.00901582 0.
0.523843 0.00901683 0.
0.525845 0.00901818 0.
0.527846 0.00901941 0.
0.529846 0.00901991 0.
0.531846 0.00902042 0.
0.533846 0.00902249 0.
0.535845 0.00902811 0.
0.537844 0.00903375 0.
0.539843 0.00903392 0.
0.541843 0.00902893 0.
0.543843 0.00902395 0.
0.545843 0.00902248 0.
0.547844 0.00902231 0.
0.549844 0.00902214 0.
0.551843 0.00902272 0.
0.553841 0.00902332 0.
0.55584 0.00902415 0.
0.557838 0.00902614 0.
0.559837 0.00902813 0.
0.561835 0.0090293 0.
0.563834 0.00902943 0.
0.565832 0.00902956 0.
0.567829 0.00903216 0.
0.569826 0.00903612 0.
0.571822 0.00904009 0.
0.573815 0.00904319 0.
0.575807 0.0090462 0.
0.5778 0.00904896 0.
0.579793 0.00905051 0.
0.581787 0.00905206 0.
0.583781 0.00905301 0.
0.585776 0.00905198 0.
0.58777 0.00905099 0.
0.589766 0.00903795 0.
0.591762 0.00901269 0.
0.593759 0.00898757 0.
0.595822 0.00902928 0.
0.597911 0.00909835 0.
0.600001 0.00916889 0.
0.602087 0.00910043 0.
0.604174 0.00903338 0.
0.606236 0.00899237 0.
0.608232 0.00901495 0.
0.610229 0.00903761 0.
0.612225 0.00904938 0.
0.614219 0.0090501 0.
0.616214 0.00905082 0.
0.618209 0.00904995 0.
0.620203 0.00904856 0.
0.622197 0.00904718 0.
0.624192 0.00904174 0.
0.626186 0.00903606 0.
0.628181 0.00903182 0.
0.630176 0.0090354 0.
0.632172 0.00903902 0.
0.634168 0.00903977 0.
0.636165 0.00903545 0.
0.638162 0.00903115 0.
0.64016 0.00902902 0.
0.64216 0.00902845 0.
0.644159 0.00902787 0.
0.646159 0.00902722 0.
0.648158 0.0090265 0.
0.650158 0.00902576 0.
0.652158 0.00902765 0.
0.654157 0.00902955 0.
0.656158 0.00903304 0.
0.658158 0.00904048 0.
0.660159 0.00904795 0.
0.662158 0.00904742 0.
0.664158 0.00903855 0.
0.666157 0.0090297 0.
0.668157 0.00902523 0.
0.670158 0.00902253 0.
0.672158 0.00901984 0.
0.674159 0.00901902 0.
0.676159 0.0090183 0.
0.678159 0.00901743 0.
0.68016 0.00901622 0.
0.68216 0.009015 0.
0.684161 0.00901445 0.
0.686162 0.00901489 0.
0.688163 0.00901532 0.
0.690163 0.00901585 0.
0.692163 0.00901645 0.
0.694163 0.00901705 0.
0.696163 0.00901841 0.
0.698163 0.00901997 0.
0.499842 0.0110191 0.
0.501841 0.0110192 0.
0.503841 0.0110191 0.
0.505841 0.0110191 0.
0.507841 0.0110194 0.
0.509842 0.0110197 0.
0.511842 0.0110204 0.
0.513843 0.0110217 0.
0.515844 0.011023 0.
0.517844 0.0110226 0.
0.519844 0.0110212 0.
0.521844 0.0110199 0.
0.523845 0.0110209 0.
0.525846 0.0110223 0.
0.527847 0.0110236 0.
0.529847 0.0110238 0.
0.531847 0.011024 0.
0.533847 0.0110263 0.
0.535848 0.0110334 0.
0.537848 0.0110406 0.
0.539847 0.011041 0.
0.541846 0.0110349 0.
0.543845 0.0110289 0.
0.545845 0.0110268 0.
0.547846 0.0110263 0.
0.549847 0.0110257 0.
0.551846 0.0110267 0.
0.553845 0.0110277 0.
0.555844 0.0110289 0.
0.557843 0.0110309 0.
0.559842 0.011033 0.
0.561841 0.0110342 0.
0.56384 0.0110344 0.
0.565839 0.0110346 0.
0.567837 0.0110381 0.
0.569834 0.0110435 0.
0.571831 0.0110489 0.
0.573826 0.0110518 0.
0.575821 0.0110543 0.
0.577816 0.0110564 0.
0.579812 0.0110569 0.
0.581809 0.0110574 0.
0.583806 0.0110571 0.
0.585807 0.0110543 0.
0.587808 0.0110516 0.
0.589809 0.0110379 0.
0.591811 0.0110134 0.
0.593812 0.0109888 0.
0.595864 0.0110331 0.
0.597934 0.0111017 0.
0.600003 0.0111692 0.
0.602068 0.011104 0.
0.604134 0.0110379 0.
0.606183 0.0109949 0.
0.608185 0.011017 0.
0.610187 0.0110391 0.
0.612188 0.0110512 0.
0.614188 0.0110529 0.
0.616189 0.0110547 0.
0.618187 0.0110544 0.
0.620184 0.0110532 0.
0.622182 0.011052 0.
0.624178 0.0110467 0.
0.626175 0.011041 0.
0.628172 0.0110371 0.
0.630169 0.0110423 0.
0.632166 0.0110475 0.
0.634163 0.0110488 0.
0.63616 0.0110433 0.
0.638156 0.0110379 0.
0.640155 0.0110349 0.
0.642155 0.0110339 0.
0.644154 0.0110328 0.
0.646155 0.0110317 0.
0.648155 0.0110305 0.
0.650155 0.0110293 0.
0.652156 0.0110324 0.
0.654157 0.0110355 0.
0.656158 0.0110402 0.
0.658156 0.0110485 0.
0.660155 0.0110569 0.
0.662154 0.0110561 0.
0.664154 0.0110457 0.
0.666154 0.0110353 0.
0.668155 0.0110299 0.
0.670156 0.0110266 0.
0.672157 0.0110232 0.
0.674157 0.0110226 0.
0.676158 0.0110221 0.
0.678158 0.0110214 0.
0.680159 0.0110198 0.
0.682159 0.0110182 0.
0.68416 0.0110175 0.
0.686161 0.0110181 0.
0.688162 0.0110188 0.
0.690162 0.0110195 0.
0.692162 0.0110201 0.
0.694161 0.0110208 0.
0.696161 0.0110226 0.
0.698161 0.0110246 0.
0.499843 0.0130231 0.
0.501843 0.0130227 0.
0.503843 0.0130222 0.
0.505843 0.013022 0.
0.507842 0.0130225 0.
0.509843 0.0130231 0.
0.511843 0.0130236 0.
0.513844 0.013024 0.
0.515844 0.0130243 0.
0.517845 0.0130238 0.
0.519846 0.0130229 0.
0.521846 0.013022 0.
0.523847 0.0130227 0.
0.525847 0.0130238 0.
0.527848 0.0130247 0.
0.529848 0.0130253 0.
0.531848 0.0130259 0.
0.533848 0.0130278 0.
0.535849 0.013033 0.
0.53785 0.0130382 0.
0.53985 0.0130386 0.
0.541851 0.0130344 0.
0.543851 0.0130303 0.
0.545851 0.0130285 0.
0.547851 0.0130276 0.
0.549852 0.0130267 0.
0.551851 0.0130285 0.
0.55385 0.0130303 0.
0.555849 0.013032 0.
0.557848 0.0130329 0.
0.559848 0.0130337 0.
0.561847 0.0130347 0.
0.563847 0.0130361 0.
0.565847 0.0130375 0.
0.567846 0.0130402 0.
0.569845 0.0130436 0.
0.571844 0.0130471 0.
0.573842 0.0130508 0.
0.57584 0.0130546 0.
0.577837 0.013058 0.
0.579837 0.0130575 0.
0.581837 0.0130571 0.
0.583838 0.0130552 0.
0.585844 0.0130493 0.
0.587849 0.0130434 0.
0.589855 0.0130318 0.
0.591863 0.0130149 0.
0.593871 0.0129981 0.
0.595909 0.013024 0.
0.597958 0.0130639 0.
0.600007 0.013103 0.
0.60205 0.0130661 0.
0.604093 0.0130287 0.
0.606127 0.0130041 0.
0.608135 0.0130192 0.
0.610143 0.0130343 0.
0.61215 0.013044 0.
0.614154 0.013048 0.
0.616158 0.0130522 0.
0.61816 0.0130532 0.
0.620161 0.0130529 0.
0.622161 0.0130527 0.
0.62416 0.0130479 0.
0.626158 0.0130429 0.
0.628157 0.0130392 0.
0.630156 0.0130429 0.
0.632156 0.0130465 0.
0.634155 0.0130475 0.
0.636154 0.0130439 0.
0.638152 0.0130402 0.
0.640151 0.0130377 0.
0.642151 0.013036 0.
0.64415 0.0130343 0.
0.64615 0.0130332 0.
0.64815 0.0130321 0.
0.65015 0.0130311 0.
0.652151 0.0130339 0.
0.654152 0.0130368 0.
0.656152 0.0130404 0.
0.658152 0.013046 0.
0.660152 0.0130516 0.
0.662153 0.0130508 0.
0.664154 0.0130434 0.
0.666155 0.0130359 0.
0.668155 0.0130317 0.
0.670156 0.013029 0.
0.672156 0.0130262 0.
0.674156 0.0130252 0.
0.676157 0.0130243 0.
0.678157 0.0130233 0.
0.680158 0.0130219 0.
0.682158 0.0130205 0.
0.684159 0.01302 0.
0.68616 0.0130208 0.
0.68816 0.0130217 0.
0.69016 0.0130226 0.
0.69216 0.0130236 0.
0.69416 0.0130246 0.
0.69616 0.0130263 0.
0.69816 0.0130282 0.
0.499845 0.0150272 0.
0.501845 0.0150263 0.
0.503844 0.0150254 0.
0.505844 0.0150248 0.
0.507844 0.0150256 0.
0.509843 0.0150265 0.
0.511844 0.0150268 0.
0.513844 0.0150262 0.
0.515845 0.0150256 0.
0.517846 0.015025 0.
0.519847 0.0150245 0.
0.521848 0.015024 0.
0.523849 0.0150245 0.
0.525849 0.0150252 0.
0.527849 0.0150259 0.
0.529848 0.0150269 0.
0.531848 0.0150278 0.
0.533848 0.0150294 0.
0.53585 0.0150326 0.
0.537852 0.0150358 0.
0.539854 0.0150362 0.
0.541855 0.0150339 0.
0.543856 0.0150316 0.
0.545857 0.0150301 0.
0.547856 0.0150288 0.
0.549856 0.0150276 0.
0.551856 0.0150302 0.
0.553855 0.0150329 0.
0.555855 0.0150352 0.
0.557854 0.0150348 0.
0.559854 0.0150345 0.
0.561853 0.0150352 0.
0.563854 0.0150378 0.
0.565854 0.0150403 0.
0.567855 0.0150422 0.
0.569856 0.0150437 0.
0.571857 0.0150452 0.
0.573858 0.0150498 0.
0.575858 0.0150549 0.
0.577859 0.0150594 0.
0.579862 0.015058 0.
0.581865 0.0150567 0.
0.58387 0.0150532 0.
0.58588 0.0150441 0.
0.58789 0.0150351 0.
0.589902 0.0150258 0.
0.591915 0.0150166 0.
0.593929 0.0150075 0.
0.595954 0.0150142 0.
0.597983 0.015026 0.
0.600011 0.0150376 0.
0.602032 0.0150282 0.
0.604053 0.0150188 0.
0.606072 0.0150135 0.
0.608086 0.0150215 0.
0.6101 0.0150296 0.
0.612111 0.0150367 0.
0.614119 0.0150431 0.
0.616128 0.0150495 0.
0.618133 0.0150519 0.
0.620137 0.0150526 0.
0.622141 0.0150532 0.
0.624142 0.0150492 0.
0.626142 0.0150448 0.
0.628142 0.0150413 0.
0.630144 0.0150434 0.
0.632145 0.0150455 0.
0.634147 0.0150462 0.
0.636148 0.0150443 0.
0.638148 0.0150425 0.
0.640148 0.0150403 0.
0.642147 0.015038 0.
0.644146 0.0150357 0.
0.646145 0.0150347 0.
0.648145 0.0150337 0.
0.650145 0.0150329 0.
0.652145 0.0150354 0.
0.654146 0.015038 0.
0.656147 0.0150407 0.
0.658148 0.0150435 0.
0.66015 0.0150464 0.
0.662152 0.0150456 0.
0.664153 0.0150411 0.
0.666155 0.0150365 0.
0.668155 0.0150336 0.
0.670155 0.0150313 0.
0.672155 0.0150291 0.
0.674155 0.0150277 0.
0.676156 0.0150264 0.
0.678156 0.0150251 0.
0.680157 0.015024 0.
0.682158 0.0150229 0.
0.684158 0.0150225 0.
0.686158 0.0150236 0.
0.688159 0.0150246 0.
0.690159 0.0150257 0.
0.692159 0.0150271 0.
0.694159 0.0150284 0.
0.696158 0.01503 0.
0.698158 0.0150318 0.
0.499846 0.0170308 0.
0.501846 0.0170297 0.
0.503846 0.0170286 0.
0.505846 0.0170276 0.
0.507846 0.017028 0.
0.509845 0.0170283 0.
0.511846 0.0170283 0.
0.513847 0.0170276 0.
0.515847 0.0170268 0.
0.517848 0.0170264 0.
0.519849 0.0170262 0.
0.521849 0.0170261 0.
0.523849 0.0170265 0.
0.52585 0.0170269 0.
0.52785 0.0170274 0.
0.52985 0.0170285 0.
0.53185 0.0170297 0.
0.533851 0.017031 0.
0.535852 0.0170328 0.
0.537854 0.0170347 0.
0.539855 0.0170348 0.
0.541857 0.0170332 0.
0.543858 0.0170316 0.
0.545859 0.0170307 0.
0.547859 0.0170299 0.
0.549859 0.0170292 0.
0.551859 0.0170315 0.
0.553859 0.0170338 0.
0.555858 0.0170358 0.
0.557859 0.0170355 0.
0.559859 0.0170353 0.
0.561859 0.0170358 0.
0.563859 0.0170375 0.
0.56586 0.0170391 0.
0.567861 0.0170409 0.
0.569863 0.0170429 0.
0.571864 0.0170449 0.
0.573866 0.0170489 0.
0.575868 0.0170533 0.
0.57787 0.0170571 0.
0.579875 0.0170544 0.
0.58188 0.0170518 0.
0.583886 0.0170473 0.
0.585896 0.0170383 0.
0.587905 0.0170293 0.
0.589916 0.0170207 0.
0.591928 0.0170127 0.
0.59394 0.0170047 0.
0.595961 0.0170091 0.
0.597985 0.0170174 0.
0.600009 0.0170256 0.
0.602027 0.01702 0.
0.604045 0.0170144 0.
0.606062 0.0170117 0.
0.608074 0.0170183 0.
0.610086 0.0170249 0.
0.612096 0.0170315 0.
0.614105 0.0170379 0.
0.616113 0.0170443 0.
0.618119 0.0170475 0.
0.620124 0.0170492 0.
0.622129 0.0170509 0.
0.624131 0.0170478 0.
0.626133 0.0170443 0.
0.628135 0.0170415 0.
0.630136 0.0170429 0.
0.632138 0.0170443 0.
0.63414 0.0170447 0.
0.636141 0.0170435 0.
0.638142 0.0170423 0.
0.640143 0.0170407 0.
0.642143 0.0170388 0.
0.644142 0.0170369 0.
0.646142 0.017036 0.
0.648142 0.0170352 0.
0.650142 0.0170344 0.
0.652143 0.0170365 0.
0.654143 0.0170385 0.
0.656143 0.0170406 0.
0.658145 0.0170425 0.
0.660147 0.0170443 0.
0.662149 0.0170438 0.
0.66415 0.0170408 0.
0.666152 0.0170377 0.
0.668152 0.0170354 0.
0.670153 0.0170333 0.
0.672153 0.0170313 0.
0.674153 0.0170295 0.
0.676154 0.0170277 0.
0.678154 0.0170261 0.
0.680155 0.0170253 0.
0.682155 0.0170246 0.
0.684156 0.0170246 0.
0.686156 0.0170256 0.
0.688157 0.0170267 0.
0.690157 0.0170279 0.
0.692157 0.0170293 0.
0.694157 0.0170307 0.
0.696156 0.0170323 0.
0.698155 0.0170339 0.
0.499847 0.0190345 0.
0.501847 0.0190332 0.
0.503847 0.0190317 0.
0.505848 0.0190305 0.
0.507848 0.0190303 0.
0.509848 0.0190302 0.
0.511848 0.0190298 0.
0.513849 0.0190289 0.
0.51585 0.0190281 0.
0.51785 0.0190278 0.
0.51985 0.019028 0.
0.52185 0.0190282 0.
0.52385 0.0190284 0.
0.525851 0.0190286 0.
0.527851 0.0190289 0.
0.529852 0.0190302 0.
0.531853 0.0190315 0.
0.533854 0.0190326 0.
0.535854 0.019033 0.
0.537855 0.0190335 0.
0.539857 0.0190333 0.
0.541858 0.0190324 0.
0.54386 0.0190316 0.
0.545861 0.0190313 0.
0.547862 0.019031 0.
0.549862 0.0190307 0.
0.551862 0.0190327 0.
0.553862 0.0190347 0.
0.555862 0.0190364 0.
0.557863 0.0190363 0.
0.559864 0.0190362 0.
0.561865 0.0190364 0.
0.563865 0.0190372 0.
0.565866 0.0190379 0.
0.567867 0.0190397 0.
0.569869 0.0190421 0.
0.571871 0.0190445 0.
0.573874 0.019048 0.
0.575878 0.0190517 0.
0.577882 0.0190548 0.
0.579888 0.0190508 0.
0.581894 0.0190469 0.
0.583901 0.0190414 0.
0.585911 0.0190324 0.
0.587921 0.0190234 0.
0.589931 0.0190156 0.
0.591941 0.0190087 0.
0.593951 0.019002 0.
0.595968 0.019004 0.
0.597987 0.0190088 0.
0.600006 0.0190135 0.
0.602022 0.0190118 0.
0.604037 0.01901 0.
0.606052 0.0190099 0.
0.608062 0.0190151 0.
0.610072 0.0190204 0.
0.612082 0.0190262 0.
0.61409 0.0190326 0.
0.616099 0.0190391 0.
0.618106 0.019043 0.
0.620111 0.0190457 0.
0.622117 0.0190485 0.
0.624121 0.0190463 0.
0.626124 0.0190438 0.
0.628127 0.0190417 0.
0.630129 0.0190424 0.
0.632131 0.0190431 0.
0.634133 0.0190433 0.
0.636134 0.0190427 0.
0.638136 0.0190421 0.
0.640137 0.019041 0.
0.642138 0.0190395 0.
0.644139 0.019038 0.
0.646139 0.0190373 0.
0.64814 0.0190366 0.
0.65014 0.0190359 0.
0.65214 0.0190375 0.
0.65414 0.0190391 0.
0.65614 0.0190405 0.
0.658142 0.0190414 0.
0.660144 0.0190423 0.
0.662145 0.019042 0.
0.664147 0.0190405 0.
0.666148 0.0190389 0.
0.66815 0.0190372 0.
0.67015 0.0190353 0.
0.672151 0.0190335 0.
0.674152 0.0190313 0.
0.676152 0.0190291 0.
0.678152 0.0190271 0.
0.680153 0.0190267 0.
0.682153 0.0190263 0.
0.684154 0.0190266 0.
0.686154 0.0190277 0.
0.688155 0.0190288 0.
0.690155 0.0190301 0.
0.692155 0.0190316 0.
0.694154 0.0190331 0.
0.696154 0.0190346 0.
0.698153 0.0190361 0.
0.499849 0.0210382 0.
0.501849 0.0210366 0.
0.503849 0.0210348 0.
0.50585 0.0210332 0.
0.50785 0.0210326 0.
0.50985 0.0210321 0.
0.51185 0.0210314 0.
0.513851 0.0210305 0.
0.515852 0.0210295 0.
0.517852 0.0210292 0.
0.519852 0.0210293 0.
0.521852 0.0210294 0.
0.523852 0.0210297 0.
0.525853 0.0210298 0.
0.527854 0.02103 0.
0.529855 0.0210313 0.
0.531856 0.0210326 0.
0.533857 0.0210334 0.
0.535858 0.021033 0.
0.537859 0.0210326 0.
0.53986 0.0210321 0.
0.541862 0.0210316 0.
0.543863 0.0210311 0.
0.545864 0.0210311 0.
0.547865 0.0210312 0.
0.549866 0.0210313 0.
0.551867 0.0210331 0.
0.553867 0.021035 0.
0.555868 0.0210365 0.
0.557869 0.0210364 0.
0.55987 0.0210363 0.
0.561871 0.0210363 0.
0.563872 0.0210364 0.
0.565873 0.0210365 0.
0.567875 0.021038 0.
0.569877 0.0210404 0.
0.57188 0.0210427 0.
0.573884 0.0210456 0.
0.57589 0.0210486 0.
0.577895 0.0210509 0.
0.579901 0.0210461 0.
0.581908 0.0210413 0.
0.583915 0.0210354 0.
0.585924 0.021027 0.
0.587933 0.0210186 0.
0.589942 0.0210116 0.
0.591951 0.0210058 0.
0.593959 0.0210001 0.
0.595973 0.0210005 0.
0.597988 0.0210026 0.
0.600004 0.0210047 0.
0.602017 0.0210055 0.
0.604031 0.0210063 0.
0.606044 0.0210078 0.
0.608053 0.021012 0.
0.610061 0.0210162 0.
0.61207 0.0210215 0.
0.614078 0.0210279 0.
0.616087 0.0210343 0.
0.618093 0.0210387 0.
0.620099 0.021042 0.
0.622105 0.0210454 0.
0.62411 0.0210438 0.
0.626114 0.0210418 0.
0.628118 0.0210401 0.
0.63012 0.0210408 0.
0.632123 0.0210415 0.
0.634125 0.0210419 0.
0.636127 0.0210417 0.
0.638129 0.0210415 0.
0.640131 0.0210407 0.
0.642132 0.0210396 0.
0.644134 0.0210385 0.
0.646135 0.0210379 0.
0.648135 0.0210373 0.
0.650136 0.0210367 0.
0.652136 0.0210377 0.
0.654136 0.0210387 0.
0.656137 0.0210395 0.
0.658138 0.0210401 0.
0.66014 0.0210407 0.
0.662142 0.0210406 0.
0.664143 0.0210399 0.
0.666145 0.0210392 0.
0.668146 0.0210379 0.
0.670147 0.0210365 0.
0.672148 0.021035 0.
0.674149 0.0210328 0.
0.676149 0.0210305 0.
0.678149 0.0210284 0.
0.68015 0.0210284 0.
0.68215 0.0210283 0.
0.684151 0.0210287 0.
0.686151 0.0210298 0.
0.688152 0.0210309 0.
0.690152 0.0210324 0.
0.692152 0.021034 0.
0.694152 0.0210357 0.
0.696151 0.0210375 0.
0.69815 0.0210393 0.
0.499851 0.0230419 0.
0.501851 0.0230398 0.
0.503852 0.0230377 0.
0.505852 0.0230358 0.
0.507852 0.0230349 0.
0.509852 0.023034 0.
0.511853 0.0230331 0.
0.513853 0.0230322 0.
0.515853 0.0230312 0.
0.517854 0.0230306 0.
0.519854 0.0230302 0.
0.521855 0.0230299 0.
0.523855 0.0230301 0.
0.525856 0.0230304 0.
0.527857 0.0230307 0.
0.529858 0.0230319 0.
0.531859 0.023033 0.
0.533861 0.0230336 0.
0.535862 0.0230328 0.
0.537864 0.023032 0.
0.539865 0.0230313 0.
0.541867 0.0230306 0.
0.543868 0.0230299 0.
0.545869 0.0230301 0.
0.54787 0.0230306 0.
0.549871 0.023031 0.
0.551872 0.0230328 0.
0.553873 0.0230346 0.
0.555874 0.0230361 0.
0.557875 0.0230359 0.
0.559877 0.0230357 0.
0.561878 0.0230355 0.
0.56388 0.0230352 0.
0.565882 0.0230349 0.
0.567884 0.0230359 0.
0.569887 0.0230378 0.
0.57189 0.0230396 0.
0.573896 0.0230418 0.
0.575902 0.023044 0.
0.577908 0.0230456 0.
0.579914 0.0230404 0.
0.58192 0.0230351 0.
0.583927 0.0230292 0.
0.585934 0.0230219 0.
0.587942 0.0230146 0.
0.589949 0.0230087 0.
0.591957 0.0230039 0.
0.593965 0.0229991 0.
0.595976 0.0229983 0.
0.597989 0.0229986 0.
0.600002 0.022999 0.
0.602014 0.023001 0.
0.604026 0.0230031 0.
0.606038 0.0230055 0.
0.608046 0.0230091 0.
0.610054 0.0230126 0.
0.612062 0.0230174 0.
0.614069 0.0230237 0.
0.616076 0.0230299 0.
0.618082 0.0230344 0.
0.620088 0.0230381 0.
0.622093 0.0230418 0.
0.624098 0.0230403 0.
0.626103 0.0230384 0.
0.628108 0.0230369 0.
0.630111 0.0230383 0.
0.632114 0.0230396 0.
0.634116 0.0230405 0.
0.636119 0.0230405 0.
0.638121 0.0230405 0.
0.640123 0.02304 0.
0.642125 0.0230392 0.
0.644127 0.0230384 0.
0.646128 0.0230378 0.
0.648129 0.0230373 0.
0.65013 0.0230367 0.
0.652131 0.023037 0.
0.654132 0.0230372 0.
0.656133 0.0230377 0.
0.658134 0.0230386 0.
0.660136 0.0230394 0.
0.662138 0.0230396 0.
0.66414 0.023039 0.
0.666142 0.0230385 0.
0.668143 0.0230377 0.
0.670144 0.0230367 0.
0.672145 0.0230358 0.
0.674145 0.0230339 0.
0.676145 0.0230319 0.
0.678146 0.0230302 0.
0.680146 0.0230303 0.
0.682147 0.0230305 0.
0.684147 0.023031 0.
0.686148 0.0230321 0.
0.688148 0.0230332 0.
0.690149 0.0230347 0.
0.692149 0.0230367 0.
0.694149 0.0230386 0.
0.696148 0.0230409 0.
0.698147 0.0230433 0.
0.499853 0.0250455 0.
0.501854 0.0250431 0.
0.503854 0.0250407 0.
0.505855 0.0250384 0.
0.507855 0.0250372 0.
0.509855 0.025036 0.
0.511855 0.0250349 0.
0.513855 0.0250339 0.
0.515855 0.0250328 0.
0.517856 0.025032 0.
0.519857 0.0250312 0.
0.521857 0.0250304 0.
0.523858 0.0250306 0.
0.52586 0.025031 0.
0.527861 0.0250315 0.
0.529862 0.0250324 0.
0.531863 0.0250333 0.
0.533864 0.0250337 0.
0.535866 0.0250326 0.
0.537868 0.0250315 0.
0.53987 0.0250305 0.
0.541872 0.0250296 0.
0.543873 0.0250288 0.
0.545874 0.0250292 0.
0.547875 0.0250299 0.
0.549876 0.0250307 0.
0.551877 0.0250324 0.
0.553879 0.0250343 0.
0.555881 0.0250357 0.
0.557882 0.0250354 0.
0.559883 0.0250351 0.
0.561885 0.0250347 0.
0.563888 0.025034 0.
0.56589 0.0250333 0.
0.567894 0.0250338 0.
0.569897 0.0250352 0.
0.5719 0.0250365 0.
0.573907 0.0250379 0.
0.575914 0.0250394 0.
0.577921 0.0250404 0.
0.579927 0.0250347 0.
0.581933 0.025029 0.
0.583938 0.025023 0.
0.585944 0.0250169 0.
0.58795 0.0250107 0.
0.589957 0.0250058 0.
0.591964 0.025002 0.
0.593971 0.0249981 0.
0.59598 0.0249962 0.
0.59799 0.0249947 0.
0.6 0.0249933 0.
0.602011 0.0249966 0.
0.604022 0.025 0.
0.606032 0.0250032 0.
0.608039 0.0250061 0.
0.610046 0.0250089 0.
0.612053 0.0250133 0.
0.614059 0.0250194 0.
0.616066 0.0250256 0.
0.618071 0.0250302 0.
0.620076 0.0250342 0.
0.622082 0.0250382 0.
0.624087 0.0250368 0.
0.626092 0.025035 0.
0.628098 0.0250338 0.
0.630101 0.0250357 0.
0.632105 0.0250377 0.
0.634108 0.025039 0.
0.63611 0.0250392 0.
0.638113 0.0250394 0.
0.640115 0.0250392 0.
0.642118 0.0250387 0.
0.64412 0.0250382 0.
0.646122 0.0250378 0.
0.648123 0.0250372 0.
0.650124 0.0250366 0.
0.652126 0.0250362 0.
0.654127 0.0250358 0.
0.656129 0.0250359 0.
0.65813 0.025037 0.
0.660132 0.0250382 0.
0.662133 0.0250386 0.
0.664136 0.0250382 0.
0.666138 0.0250378 0.
0.668139 0.0250374 0.
0.67014 0.025037 0.
0.672141 0.0250365 0.
0.674141 0.025035 0.
0.676142 0.0250334 0.
0.678142 0.025032 0.
0.680143 0.0250323 0.
0.682143 0.0250327 0.
0.684144 0.0250333 0.
0.686144 0.0250343 0.
0.688144 0.0250354 0.
0.690145 0.0250371 0.
0.692146 0.0250393 0.
0.694147 0.0250414 0.
0.696146 0.0250443 0.
0.698144 0.0250473 0.
0.499857 0.0270486 0.
0.501857 0.0270459 0.
0.503857 0.0270428 0.
0.505857 0.02704 0.
0.507857 0.0270389 0.
0.509857 0.0270378 0.
0.511857 0.0270366 0.
0.513858 0.0270351 0.
0.515858 0.0270337 0.
0.517859 0.0270324 0.
0.51986 0.0270313 0.
0.521861 0.0270302 0.
0.523862 0.0270308 0.
0.525863 0.0270316 0.
0.527865 0.0270323 0.
0.529866 0.0270326 0.
0.531867 0.027033 0.
0.533868 0.0270328 0.
0.53587 0.0270315 0.
0.537872 0.0270302 0.
0.539874 0.0270294 0.
0.541875 0.0270291 0.
0.543876 0.0270289 0.
0.545877 0.0270289 0.
0.547878 0.0270291 0.
0.549879 0.0270293 0.
0.551881 0.0270312 0.
0.553883 0.0270332 0.
0.555885 0.0270347 0.
0.557887 0.0270343 0.
0.559889 0.0270339 0.
0.561891 0.0270333 0.
0.563893 0.0270324 0.
0.565896 0.0270315 0.
0.5679 0.0270316 0.
0.569903 0.0270325 0.
0.571907 0.0270333 0.
0.573913 0.0270342 0.
0.57592 0.0270352 0.
0.577927 0.0270357 0.
0.579933 0.0270305 0.
0.581939 0.0270253 0.
0.583945 0.0270199 0.
0.585951 0.0270142 0.
0.587956 0.0270085 0.
0.589962 0.027004 0.
0.591969 0.0270005 0.
0.593975 0.026997 0.
0.595983 0.0269951 0.
0.597992 0.0269936 0.
0.6 0.0269922 0.
0.60201 0.0269949 0.
0.604019 0.0269977 0.
0.606028 0.0270006 0.
0.608034 0.0270039 0.
0.610041 0.0270073 0.
0.612047 0.0270114 0.
0.614053 0.0270164 0.
0.616059 0.0270214 0.
0.618064 0.0270257 0.
0.62007 0.0270297 0.
0.622076 0.0270336 0.
0.624081 0.0270335 0.
0.626087 0.0270329 0.
0.628092 0.0270326 0.
0.630096 0.0270339 0.
0.632099 0.0270352 0.
0.634103 0.0270363 0.
0.636105 0.0270369 0.
0.638108 0.0270374 0.
0.640111 0.0270375 0.
0.642113 0.0270371 0.
0.644116 0.0270368 0.
0.646117 0.0270362 0.
0.648119 0.0270355 0.
0.650121 0.0270347 0.
0.652122 0.027035 0.
0.654124 0.0270352 0.
0.656126 0.0270357 0.
0.658127 0.0270365 0.
0.660128 0.0270374 0.
0.66213 0.0270377 0.
0.664132 0.0270374 0.
0.666135 0.027037 0.
0.668136 0.0270368 0.
0.670137 0.0270366 0.
0.672138 0.0270365 0.
0.674139 0.0270352 0.
0.676139 0.0270338 0.
0.67814 0.0270328 0.
0.68014 0.0270336 0.
0.682141 0.0270344 0.
0.684141 0.0270352 0.
0.686141 0.0270361 0.
0.688142 0.0270369 0.
0.690142 0.0270388 0.
0.692143 0.0270413 0.
0.694143 0.0270438 0.
0.696143 0.027047 0.
0.698142 0.0270504 0.
0.49986 0.0290518 0.
0.50186 0.0290487 0.
0.50386 0.029045 0.
0.50586 0.0290417 0.
0.507859 0.0290406 0.
0.509859 0.0290396 0.
0.511859 0.0290382 0.
0.51386 0.0290364 0.
0.515861 0.0290345 0.
0.517862 0.0290329 0.
0.519863 0.0290315 0.
0.521864 0.0290301 0.
0.523866 0.0290309 0.
0.525867 0.0290321 0.
0.527869 0.0290332 0.
0.529869 0.0290329 0.
0.53187 0.0290326 0.
0.533871 0.029032 0.
0.535874 0.0290305 0.
0.537876 0.0290289 0.
0.539878 0.0290283 0.
0.541879 0.0290286 0.
0.54388 0.0290289 0.
0.545881 0.0290287 0.
0.547882 0.0290284 0.
0.549883 0.029028 0.
0.551885 0.02903 0.
0.553887 0.0290321 0.
0.55589 0.0290337 0.
0.557892 0.0290331 0.
0.559894 0.0290326 0.
0.561896 0.0290319 0.
0.563899 0.0290308 0.
0.565902 0.0290296 0.
0.567906 0.0290294 0.
0.569909 0.0290298 0.
0.571913 0.0290301 0.
0.573919 0.0290306 0.
0.575926 0.029031 0.
0.577932 0.029031 0.
0.579939 0.0290263 0.
0.581946 0.0290216 0.
0.583952 0.0290167 0.
0.585957 0.0290115 0.
0.587962 0.0290062 0.
0.589968 0.0290021 0.
0.591973 0.028999 0.
0.593979 0.0289958 0.
0.595986 0.028994 0.
0.597993 0.0289925 0.
0.6 0.0289911 0.
0.602008 0.0289933 0.
0.604016 0.0289955 0.
0.606024 0.028998 0.
0.60803 0.0290018 0.
0.610036 0.0290056 0.
0.612041 0.0290095 0.
0.614046 0.0290134 0.
0.616051 0.0290173 0.
0.618057 0.0290212 0.
0.620064 0.0290251 0.
0.62207 0.0290291 0.
0.624076 0.0290301 0.
0.626081 0.0290307 0.
0.628087 0.0290314 0.
0.63009 0.0290321 0.
0.632094 0.0290328 0.
0.634097 0.0290336 0.
0.6361 0.0290345 0.
0.638103 0.0290354 0.
0.640106 0.0290357 0.
0.642108 0.0290356 0.
0.644111 0.0290354 0.
0.646113 0.0290347 0.
0.648115 0.0290337 0.
0.650117 0.0290328 0.
0.652119 0.0290337 0.
0.654121 0.0290346 0.
0.656122 0.0290355 0.
0.658124 0.0290361 0.
0.660125 0.0290367 0.
0.662127 0.0290369 0.
0.664129 0.0290366 0.
0.666132 0.0290363 0.
0.668133 0.0290362 0.
0.670134 0.0290363 0.
0.672136 0.0290363 0.
0.674136 0.0290354 0.
0.676137 0.0290343 0.
0.678138 0.0290336 0.
0.680138 0.0290348 0.
0.682138 0.0290361 0.
0.684138 0.0290371 0.
0.686138 0.0290378 0.
0.688139 0.0290385 0.
0.690139 0.0290405 0.
0.692139 0.0290433 0.
0.69414 0.0290461 0.
0.69614 0.0290497 0.
0.69814 0.0290535 0.
0.499863 0.0310546 0.
0.501863 0.0310511 0.
0.503863 0.0310472 0.
0.505863 0.0310437 0.
0.507863 0.0310423 0.
0.509862 0.0310409 0.
0.511863 0.0310393 0.
0.513864 0.0310373 0.
0.515865 0.0310352 0.
0.517866 0.0310335 0.
0.519867 0.031032 0.
0.521868 0.0310304 0.
0.523869 0.0310312 0.
0.525871 0.0310323 0.
0.527873 0.0310333 0.
0.529873 0.0310325 0.
0.531874 0.0310317 0.
0.533875 0.0310308 0.
0.535878 0.0310297 0.
0.53788 0.0310286 0.
0.539882 0.0310282 0.
0.541883 0.0310286 0.
0.543884 0.0310289 0.
0.545885 0.0310285 0.
0.547886 0.0310278 0.
0.549887 0.0310272 0.
0.551889 0.0310289 0.
0.553892 0.0310308 0.
0.555894 0.0310322 0.
0.557897 0.0310314 0.
0.559899 0.0310307 0.
0.561902 0.0310299 0.
0.563905 0.0310289 0.
0.565908 0.0310278 0.
0.567912 0.0310273 0.
0.569916 0.0310271 0.
0.571919 0.0310268 0.
0.573925 0.0310269 0.
0.575931 0.0310271 0.
0.577937 0.0310268 0.
0.579944 0.0310224 0.
0.581951 0.031018 0.
0.583957 0.0310135 0.
0.585962 0.0310088 0.
0.587967 0.0310041 0.
0.589972 0.0310005 0.
0.591977 0.0309976 0.
0.593982 0.0309948 0.
0.595988 0.0309931 0.
0.597994 0.0309916 0.
0.600001 0.0309901 0.
0.602008 0.0309921 0.
0.604015 0.030994 0.
0.606021 0.0309963 0.
0.608027 0.0309999 0.
0.610032 0.0310035 0.
0.612037 0.0310071 0.
0.614042 0.0310105 0.
0.616047 0.031014 0.
0.618052 0.0310176 0.
0.620059 0.0310213 0.
0.622065 0.0310249 0.
0.62407 0.0310266 0.
0.626076 0.0310279 0.
0.628081 0.0310291 0.
0.630085 0.0310296 0.
0.632088 0.0310302 0.
0.634092 0.031031 0.
0.636095 0.0310323 0.
0.638098 0.0310336 0.
0.640101 0.0310341 0.
0.642103 0.0310341 0.
0.644105 0.031034 0.
0.646108 0.0310332 0.
0.648111 0.0310321 0.
0.650114 0.0310312 0.
0.652115 0.0310324 0.
0.654117 0.0310336 0.
0.656118 0.0310347 0.
0.65812 0.0310352 0.
0.660121 0.0310358 0.
0.662123 0.031036 0.
0.664125 0.0310358 0.
0.666128 0.0310355 0.
0.668129 0.0310357 0.
0.67013 0.031036 0.
0.672131 0.0310363 0.
0.674132 0.0310356 0.
0.676133 0.0310349 0.
0.678134 0.0310344 0.
0.680135 0.031036 0.
0.682135 0.0310377 0.
0.684135 0.0310389 0.
0.686135 0.0310397 0.
0.688135 0.0310405 0.
0.690135 0.0310425 0.
0.692136 0.0310454 0.
0.694136 0.0310483 0.
0.696136 0.0310521 0.
0.698137 0.031056 0.
0.499866 0.033057 0.
0.501867 0.0330534 0.
0.503867 0.0330496 0.
0.505867 0.0330461 0.
0.507867 0.0330439 0.
0.509867 0.0330418 0.
0.511867 0.0330398 0.
0.513868 0.0330379 0.
0.515869 0.033036 0.
0.51787 0.0330343 0.
0.519871 0.0330328 0.
0.521872 0.0330312 0.
0.523874 0.0330316 0.
0.525875 0.0330322 0.
0.527877 0.0330327 0.
0.529878 0.0330314 0.
0.531879 0.0330302 0.
0.53388 0.0330292 0.
0.535882 0.0330292 0.
0.537884 0.0330291 0.
0.539885 0.033029 0.
0.541887 0.033029 0.
0.543888 0.033029 0.
0.545889 0.0330284 0.
0.547891 0.0330276 0.
0.549892 0.0330268 0.
0.551894 0.033028 0.
0.553897 0.0330292 0.
0.555899 0.0330301 0.
0.557902 0.0330292 0.
0.559905 0.0330283 0.
0.561909 0.0330275 0.
0.563912 0.0330268 0.
0.565915 0.0330261 0.
0.567918 0.0330252 0.
0.569922 0.0330244 0.
0.571926 0.0330235 0.
0.573931 0.0330234 0.
0.575937 0.0330234 0.
0.577942 0.0330231 0.
0.579948 0.0330188 0.
0.581954 0.0330144 0.
0.583959 0.0330102 0.
0.585964 0.0330062 0.
0.587969 0.0330023 0.
0.589974 0.032999 0.
0.591979 0.0329965 0.
0.593983 0.0329939 0.
0.595989 0.0329922 0.
0.597995 0.0329908 0.
0.600001 0.0329893 0.
0.602007 0.0329913 0.
0.604014 0.0329934 0.
0.60602 0.0329956 0.
0.608024 0.0329982 0.
0.610029 0.0330009 0.
0.612034 0.0330042 0.
0.614039 0.0330079 0.
0.616044 0.0330117 0.
0.618049 0.033015 0.
0.620054 0.0330181 0.
0.622059 0.0330212 0.
0.624065 0.0330229 0.
0.626071 0.0330245 0.
0.628076 0.033026 0.
0.63008 0.0330267 0.
0.632083 0.0330273 0.
0.634087 0.0330284 0.
0.63609 0.0330301 0.
0.638093 0.0330319 0.
0.640096 0.0330326 0.
0.642098 0.0330326 0.
0.6441 0.0330326 0.
0.646103 0.0330318 0.
0.648107 0.0330307 0.
0.65011 0.0330297 0.
0.652111 0.033031 0.
0.654112 0.0330323 0.
0.656113 0.0330334 0.
0.658115 0.0330341 0.
0.660117 0.0330348 0.
0.662119 0.0330351 0.
0.664121 0.033035 0.
0.666123 0.0330349 0.
0.668124 0.0330353 0.
0.670125 0.0330358 0.
0.672126 0.0330363 0.
0.674127 0.0330359 0.
0.676129 0.0330355 0.
0.67813 0.0330353 0.
0.680131 0.0330372 0.
0.682131 0.0330391 0.
0.684132 0.0330407 0.
0.686132 0.0330418 0.
0.688132 0.0330428 0.
0.690132 0.0330449 0.
0.692132 0.0330477 0.
0.694132 0.0330504 0.
0.696132 0.0330541 0.
0.698132 0.033058 0.
0.499869 0.0350595 0.
0.50187 0.0350556 0.
0.50387 0.0350519 0.
0.505871 0.0350483 0.
0.507871 0.0350456 0.
0.509872 0.0350428 0.
0.511872 0.0350404 0.
0.513872 0.0350385 0.
0.515872 0.0350367 0.
0.517873 0.0350351 0.
0.519875 0.0350336 0.
0.521876 0.035032 0.
0.523878 0.035032 0.
0.525879 0.0350321 0.
0.527881 0.0350322 0.
0.529883 0.0350304 0.
0.531884 0.0350287 0.
0.533885 0.0350277 0.
0.535887 0.0350286 0.
0.537888 0.0350296 0.
0.539889 0.0350298 0.
0.54189 0.0350294 0.
0.543892 0.035029 0.
0.545894 0.0350282 0.
0.547895 0.0350273 0.
0.549897 0.0350263 0.
0.551899 0.035027 0.
0.553902 0.0350277 0.
0.555904 0.0350281 0.
0.557908 0.0350269 0.
0.559911 0.0350258 0.
0.561915 0.035025 0.
0.563918 0.0350247 0.
0.565921 0.0350243 0.
0.567924 0.0350232 0.
0.569928 0.0350217 0.
0.571932 0.0350202 0.
0.573937 0.0350199 0.
0.575942 0.0350198 0.
0.577947 0.0350194 0.
0.579952 0.0350151 0.
0.581957 0.0350109 0.
0.583962 0.0350069 0.
0.585967 0.0350036 0.
0.587972 0.0350004 0.
0.589976 0.0349976 0.
0.59198 0.0349953 0.
0.593984 0.0349931 0.
0.59599 0.0349914 0.
0.597996 0.0349899 0.
0.600001 0.0349884 0.
0.602007 0.0349906 0.
0.604013 0.0349927 0.
0.606018 0.0349948 0.
0.608022 0.0349966 0.
0.610026 0.0349984 0.
0.612031 0.0350012 0.
0.614036 0.0350053 0.
0.616041 0.0350093 0.
0.618046 0.0350123 0.
0.62005 0.0350149 0.
0.622054 0.0350174 0.
0.62406 0.0350193 0.
0.626065 0.0350212 0.
0.628071 0.0350228 0.
0.630075 0.0350237 0.
0.632078 0.0350245 0.
0.634081 0.0350259 0.
0.636085 0.035028 0.
0.638088 0.0350302 0.
0.64009 0.0350311 0.
0.642092 0.0350312 0.
0.644094 0.0350313 0.
0.646098 0.0350304 0.
0.648103 0.0350293 0.
0.650107 0.0350283 0.
0.652107 0.0350296 0.
0.654108 0.0350309 0.
0.656109 0.0350321 0.
0.658111 0.035033 0.
0.660114 0.0350339 0.
0.662115 0.0350343 0.
0.664117 0.0350343 0.
0.666118 0.0350343 0.
0.668119 0.0350348 0.
0.67012 0.0350356 0.
0.672121 0.0350364 0.
0.674122 0.0350362 0.
0.676124 0.0350361 0.
0.678126 0.0350363 0.
0.680127 0.0350384 0.
0.682128 0.0350405 0.
0.684128 0.0350424 0.
0.686128 0.0350438 0.
0.688128 0.0350452 0.
0.690128 0.0350473 0.
0.692128 0.0350499 0.
0.694129 0.0350526 0.
0.696128 0.0350561 0.
0.698128 0.0350599 0.
0.499874 0.0370606 0.
0.501874 0.037057 0.
0.503874 0.0370532 0.
0.505875 0.0370496 0.
0.507876 0.037047 0.
0.509876 0.0370444 0.
0.511876 0.037042 0.
0.513876 0.03704 0.
0.515876 0.0370379 0.
0.517877 0.0370359 0.
0.519879 0.0370339 0.
0.52188 0.0370319 0.
0.523881 0.0370317 0.
0.525883 0.0370319 0.
0.527884 0.0370319 0.
0.529886 0.0370305 0.
0.531887 0.0370291 0.
0.533888 0.0370282 0.
0.535889 0.0370283 0.
0.537891 0.0370284 0.
0.539892 0.0370284 0.
0.541894 0.0370282 0.
0.543895 0.037028 0.
0.545897 0.0370272 0.
0.547899 0.037026 0.
0.549901 0.0370249 0.
0.551903 0.0370255 0.
0.553906 0.0370261 0.
0.555908 0.0370264 0.
0.557912 0.0370251 0.
0.559915 0.0370238 0.
0.561919 0.0370228 0.
0.563922 0.0370221 0.
0.565925 0.0370214 0.
0.567928 0.0370204 0.
0.569931 0.0370191 0.
0.571935 0.0370179 0.
0.57394 0.0370173 0.
0.575945 0.0370167 0.
0.577951 0.0370159 0.
0.579955 0.0370122 0.
0.58196 0.0370086 0.
0.583964 0.0370051 0.
0.585969 0.0370021 0.
0.587973 0.036999 0.
0.589977 0.0369965 0.
0.591981 0.0369945 0.
0.593984 0.0369925 0.
0.59599 0.0369911 0.
0.597996 0.0369899 0.
0.600002 0.0369888 0.
0.602007 0.0369904 0.
0.604012 0.0369921 0.
0.606017 0.0369939 0.
0.608021 0.0369958 0.
0.610025 0.0369978 0.
0.612029 0.0370002 0.
0.614033 0.0370033 0.
0.616038 0.0370064 0.
0.618042 0.0370093 0.
0.620047 0.0370122 0.
0.622052 0.0370151 0.
0.624057 0.0370169 0.
0.626062 0.0370187 0.
0.628067 0.0370203 0.
0.63007 0.0370215 0.
0.632074 0.0370227 0.
0.634077 0.0370241 0.
0.63608 0.0370258 0.
0.638083 0.0370275 0.
0.640086 0.0370287 0.
0.642089 0.0370294 0.
0.644092 0.0370301 0.
0.646096 0.0370295 0.
0.648099 0.0370285 0.
0.650103 0.0370276 0.
0.652104 0.0370291 0.
0.654105 0.0370306 0.
0.656106 0.0370317 0.
0.658108 0.0370323 0.
0.66011 0.0370328 0.
0.662112 0.0370333 0.
0.664113 0.0370339 0.
0.666114 0.0370344 0.
0.668115 0.0370351 0.
0.670116 0.0370359 0.
0.672117 0.0370367 0.
0.674119 0.0370367 0.
0.676121 0.0370365 0.
0.678122 0.0370367 0.
0.680123 0.0370387 0.
0.682124 0.0370408 0.
0.684125 0.0370426 0.
0.686125 0.0370442 0.
0.688125 0.0370457 0.
0.690125 0.0370481 0.
0.692125 0.037051 0.
0.694125 0.0370538 0.
0.696125 0.0370573 0.
0.698125 0.0370609 0.
0.499878 0.0390618 0.
0.501878 0.0390583 0.
0.503879 0.0390545 0.
0.505879 0.0390509 0.
0.50788 0.0390485 0.
0.50988 0.0390461 0.
0.511881 0.0390437 0.
0.513881 0.0390414 0.
0.515881 0.0390391 0.
0.517881 0.0390367 0.
0.519883 0.0390342 0.
0.521884 0.0390317 0.
0.523885 0.0390315 0.
0.525886 0.0390316 0.
0.527888 0.0390317 0.
0.529889 0.0390306 0.
0.53189 0.0390296 0.
0.533891 0.0390287 0.
0.535892 0.039028 0.
0.537893 0.0390273 0.
0.539895 0.039027 0.
0.541897 0.039027 0.
0.543899 0.0390271 0.
0.545901 0.0390261 0.
0.547903 0.0390248 0.
0.549905 0.0390234 0.
0.551907 0.039024 0.
0.55391 0.0390245 0.
0.555912 0.0390246 0.
0.557916 0.0390232 0.
0.559919 0.0390218 0.
0.561922 0.0390205 0.
0.563925 0.0390195 0.
0.565928 0.0390185 0.
0.567931 0.0390175 0.
0.569934 0.0390166 0.
0.571937 0.0390156 0.
0.573943 0.0390146 0.
0.575949 0.0390136 0.
0.577955 0.0390124 0.
0.579959 0.0390093 0.
0.581963 0.0390063 0.
0.583967 0.0390034 0.
0.585971 0.0390005 0.
0.587975 0.0389977 0.
0.589978 0.0389954 0.
0.591981 0.0389936 0.
0.593985 0.0389918 0.
0.59599 0.0389908 0.
0.597996 0.0389899 0.
0.600002 0.0389891 0.
0.602007 0.0389903 0.
0.604011 0.0389915 0.
0.606015 0.038993 0.
0.60802 0.0389951 0.
0.610024 0.0389972 0.
0.612027 0.0389993 0.
0.614031 0.0390014 0.
0.616034 0.0390035 0.
0.618039 0.0390063 0.
0.620044 0.0390095 0.
0.622049 0.0390127 0.
0.624054 0.0390145 0.
0.626059 0.0390162 0.
0.628063 0.0390178 0.
0.630066 0.0390193 0.
0.63207 0.0390209 0.
0.634073 0.0390224 0.
0.636076 0.0390236 0.
0.638079 0.0390249 0.
0.640082 0.0390262 0.
0.642086 0.0390276 0.
0.64409 0.039029 0.
0.646093 0.0390286 0.
0.648096 0.0390277 0.
0.650099 0.039027 0.
0.6521 0.0390286 0.
0.654102 0.0390302 0.
0.656104 0.0390314 0.
0.658105 0.0390316 0.
0.660107 0.0390318 0.
0.662108 0.0390324 0.
0.664109 0.0390334 0.
0.66611 0.0390344 0.
0.668112 0.0390353 0.
0.670113 0.0390362 0.
0.672114 0.0390371 0.
0.674116 0.0390371 0.
0.676117 0.039037 0.
0.678119 0.0390372 0.
0.68012 0.0390391 0.
0.682121 0.039041 0.
0.684121 0.0390428 0.
0.686121 0.0390446 0.
0.688121 0.0390463 0.
0.690121 0.0390488 0.
0.692122 0.039052 0.
0.694122 0.0390551 0.
0.696122 0.0390585 0.
0.698122 0.0390619 0.
0.499882 0.0410628 0.
0.501882 0.0410593 0.
0.503883 0.0410555 0.
0.505883 0.0410519 0.
0.507884 0.0410495 0.
0.509884 0.0410471 0.
0.511885 0.0410447 0.
0.513885 0.0410423 0.
0.515885 0.04104 0.
0.517886 0.0410375 0.
0.519887 0.0410349 0.
0.521888 0.0410323 0.
0.523889 0.0410318 0.
0.52589 0.0410316 0.
0.527891 0.0410314 0.
0.529892 0.0410306 0.
0.531894 0.0410297 0.
0.533895 0.0410288 0.
0.535896 0.0410278 0.
0.537897 0.0410269 0.
0.539899 0.0410262 0.
0.541901 0.041026 0.
0.543903 0.0410257 0.
0.545905 0.0410248 0.
0.547907 0.0410237 0.
0.549909 0.0410225 0.
0.551912 0.0410227 0.
0.553914 0.041023 0.
0.555917 0.0410229 0.
0.55792 0.0410213 0.
0.559923 0.0410198 0.
0.561926 0.0410185 0.
0.563929 0.0410174 0.
0.565932 0.0410163 0.
0.567935 0.0410153 0.
0.569938 0.0410144 0.
0.571941 0.0410136 0.
0.573946 0.0410124 0.
0.575952 0.0410112 0.
0.577958 0.0410098 0.
0.579961 0.0410069 0.
0.581965 0.041004 0.
0.583968 0.0410013 0.
0.585972 0.0409989 0.
0.587976 0.0409965 0.
0.58998 0.0409945 0.
0.591983 0.0409929 0.
0.593986 0.0409912 0.
0.595991 0.0409905 0.
0.597996 0.04099 0.
0.600002 0.0409895 0.
0.602006 0.0409904 0.
0.60401 0.0409913 0.
0.606014 0.0409925 0.
0.608018 0.0409945 0.
0.610022 0.0409965 0.
0.612026 0.0409984 0.
0.614029 0.041 0.
0.616032 0.0410017 0.
0.618036 0.0410043 0.
0.620041 0.0410073 0.
0.622046 0.0410104 0.
0.624051 0.0410121 0.
0.626055 0.0410137 0.
0.62806 0.0410153 0.
0.630063 0.0410172 0.
0.632066 0.0410192 0.
0.634069 0.0410208 0.
0.636072 0.0410215 0.
0.638075 0.0410223 0.
0.640079 0.0410237 0.
0.642083 0.0410257 0.
0.644086 0.0410276 0.
0.646089 0.0410275 0.
0.648092 0.0410268 0.
0.650095 0.0410262 0.
0.652096 0.0410278 0.
0.654098 0.0410293 0.
0.6561 0.0410305 0.
0.658101 0.0410308 0.
0.660102 0.0410312 0.
0.662104 0.0410319 0.
0.664105 0.041033 0.
0.666107 0.0410341 0.
0.668108 0.0410351 0.
0.670109 0.0410362 0.
0.67211 0.0410373 0.
0.674112 0.0410374 0.
0.676113 0.0410373 0.
0.678114 0.0410376 0.
0.680115 0.0410394 0.
0.682116 0.0410413 0.
0.684117 0.0410432 0.
0.686117 0.0410453 0.
0.688117 0.0410475 0.
0.690117 0.0410502 0.
0.692118 0.0410534 0.
0.694118 0.0410566 0.
0.696118 0.0410599 0.
0.698118 0.0410633 0.
0.499886 0.0430635 0.
0.501886 0.0430598 0.
0.503886 0.0430561 0.
0.505887 0.0430526 0.
0.507887 0.0430501 0.
0.509888 0.0430476 0.
0.511889 0.0430451 0.
0.513889 0.0430428 0.
0.51589 0.0430405 0.
0.517891 0.0430382 0.
0.519892 0.0430359 0.
0.521893 0.0430336 0.
0.523894 0.0430326 0.
0.525895 0.0430318 0.
0.527896 0.0430311 0.
0.529897 0.0430303 0.
0.531898 0.0430294 0.
0.533899 0.0430286 0.
0.535901 0.0430278 0.
0.537902 0.043027 0.
0.539903 0.0430261 0.
0.541905 0.043025 0.
0.543907 0.0430239 0.
0.545909 0.0430232 0.
0.547911 0.0430226 0.
0.549913 0.043022 0.
0.551916 0.0430217 0.
0.553919 0.0430215 0.
0.555922 0.043021 0.
0.557924 0.0430195 0.
0.559927 0.043018 0.
0.561929 0.0430168 0.
0.563933 0.0430157 0.
0.565936 0.0430147 0.
0.567939 0.0430137 0.
0.569942 0.0430127 0.
0.571945 0.0430117 0.
0.57395 0.0430106 0.
0.575955 0.0430095 0.
0.57796 0.0430082 0.
0.579963 0.0430049 0.
0.581966 0.0430017 0.
0.58397 0.0429989 0.
0.585973 0.0429971 0.
0.587977 0.0429954 0.
0.589981 0.0429937 0.
0.591984 0.0429922 0.
0.593988 0.0429906 0.
0.595992 0.0429901 0.
0.597997 0.0429901 0.
0.600001 0.04299 0.
0.602005 0.0429908 0.
0.60401 0.0429916 0.
0.606014 0.0429926 0.
0.608017 0.0429942 0.
0.610021 0.0429959 0.
0.612024 0.0429975 0.
0.614028 0.0429992 0.
0.616032 0.0430009 0.
0.618035 0.0430032 0.
0.620039 0.0430057 0.
0.622042 0.0430082 0.
0.624047 0.0430097 0.
0.626051 0.0430112 0.
0.628056 0.0430128 0.
0.630059 0.0430152 0.
0.632063 0.0430176 0.
0.634066 0.0430192 0.
0.636069 0.0430195 0.
0.638072 0.0430198 0.
0.640075 0.0430212 0.
0.642078 0.0430236 0.
0.644081 0.0430259 0.
0.646084 0.0430261 0.
0.648087 0.0430257 0.
0.65009 0.0430255 0.
0.652092 0.0430266 0.
0.654093 0.0430278 0.
0.656094 0.0430289 0.
0.658096 0.0430299 0.
0.660097 0.0430309 0.
0.662099 0.0430318 0.
0.664101 0.0430325 0.
0.666103 0.0430333 0.
0.668104 0.0430345 0.
0.670105 0.0430359 0.
0.672105 0.0430373 0.
0.674107 0.0430375 0.
0.676108 0.0430376 0.
0.678109 0.0430379 0.
0.68011 0.0430397 0.
0.682111 0.0430416 0.
0.684112 0.0430437 0.
0.686112 0.0430464 0.
0.688113 0.0430491 0.
0.690113 0.0430521 0.
0.692113 0.0430551 0.
0.694113 0.0430582 0.
0.696113 0.0430615 0.
0.698114 0.043065 0.
0.499889 0.0450642 0.
0.50189 0.0450604 0.
0.50389 0.0450568 0.
0.505891 0.0450534 0.
0.507891 0.0450507 0.
0.509891 0.045048 0.
0.511892 0.0450455 0.
0.513894 0.0450433 0.
0.515895 0.045041 0.
0.517896 0.0450389 0.
0.519897 0.0450369 0.
0.521897 0.0450348 0.
0.523898 0.0450334 0.
0.525899 0.0450321 0.
0.5279 0.0450308 0.
0.529902 0.04503 0.
0.531903 0.0450292 0.
0.533904 0.0450284 0.
0.535905 0.0450278 0.
0.537907 0.0450272 0.
0.539908 0.045026 0.
0.54191 0.0450241 0.
0.543911 0.0450222 0.
0.545913 0.0450217 0.
0.547915 0.0450216 0.
0.549917 0.0450215 0.
0.55192 0.0450208 0.
0.553924 0.04502 0.
0.555927 0.0450191 0.
0.557929 0.0450177 0.
0.55993 0.0450162 0.
0.561933 0.045015 0.
0.563937 0.0450141 0.
0.56594 0.0450131 0.
0.567943 0.0450121 0.
0.569946 0.0450109 0.
0.571949 0.0450098 0.
0.573953 0.0450088 0.
0.575958 0.0450078 0.
0.577962 0.0450066 0.
0.579965 0.045003 0.
0.581968 0.0449994 0.
0.583971 0.0449965 0.
0.585975 0.0449954 0.
0.587978 0.0449943 0.
0.589982 0.044993 0.
0.591986 0.0449915 0.
0.59399 0.0449899 0.
0.595994 0.0449898 0.
0.597997 0.0449901 0.
0.6 0.0449905 0.
0.602005 0.0449911 0.
0.604009 0.0449918 0.
0.606013 0.0449926 0.
0.608016 0.0449939 0.
0.610019 0.0449952 0.
0.612023 0.0449967 0.
0.614028 0.0449984 0.
0.616032 0.0450002 0.
0.618035 0.0450021 0.
0.620036 0.045004 0.
0.622038 0.045006 0.
0.624043 0.0450074 0.
0.626048 0.0450088 0.
0.628052 0.0450103 0.
0.630056 0.0450131 0.
0.632059 0.045016 0.
0.634063 0.0450177 0.
0.636066 0.0450175 0.
0.638069 0.0450173 0.
0.640072 0.0450188 0.
0.642074 0.0450215 0.
0.644077 0.0450242 0.
0.64608 0.0450247 0.
0.648083 0.0450246 0.
0.650086 0.0450247 0.
0.652087 0.0450255 0.
0.654088 0.0450264 0.
0.656089 0.0450274 0.
0.658091 0.045029 0.
0.660092 0.0450307 0.
0.662094 0.0450317 0.
0.664097 0.0450321 0.
0.6661 0.0450325 0.
0.6681 0.0450339 0.
0.6701 0.0450355 0.
0.6721 0.0450372 0.
0.674102 0.0450376 0.
0.676103 0.0450378 0.
0.678104 0.0450383 0.
0.680105 0.0450401 0.
0.682106 0.0450419 0.
0.684107 0.0450442 0.
0.686108 0.0450475 0.
0.688108 0.0450508 0.
0.690108 0.0450539 0.
0.692108 0.0450569 0.
0.694108 0.0450598 0.
0.696109 0.0450632 0.
0.69811 0.0450666 0.
0.499893 0.0470642 0.
0.501894 0.0470607 0.
0.503895 0.047057 0.
0.505895 0.0470536 0.
0.507896 0.0470507 0.
0.509896 0.0470479 0.
0.511897 0.0470453 0.
0.513898 0.0470434 0.
0.5159 0.0470414 0.
0.5179 0.0470393 0.
0.519901 0.0470371 0.
0.521901 0.0470349 0.
0.523902 0.0470334 0.
0.525903 0.0470321 0.
0.527904 0.0470308 0.
0.529905 0.0470297 0.
0.531907 0.0470287 0.
0.533908 0.0470277 0.
0.535909 0.0470271 0.
0.537911 0.0470265 0.
0.539912 0.0470252 0.
0.541914 0.0470232 0.
0.543915 0.0470212 0.
0.545917 0.0470206 0.
0.547919 0.0470204 0.
0.549921 0.0470202 0.
0.551924 0.0470194 0.
0.553928 0.0470186 0.
0.555931 0.0470176 0.
0.557932 0.0470163 0.
0.559934 0.0470149 0.
0.561937 0.0470136 0.
0.56394 0.0470125 0.
0.565943 0.0470114 0.
0.567946 0.0470102 0.
0.569949 0.0470091 0.
0.571951 0.0470079 0.
0.573955 0.0470067 0.
0.57596 0.0470055 0.
0.577964 0.0470041 0.
0.579967 0.0470011 0.
0.58197 0.0469981 0.
0.583973 0.0469957 0.
0.585976 0.0469946 0.
0.587979 0.0469935 0.
0.589983 0.0469922 0.
0.591986 0.0469909 0.
0.59399 0.0469895 0.
0.595993 0.0469893 0.
0.597996 0.0469894 0.
0.6 0.0469895 0.
0.602004 0.0469904 0.
0.604009 0.0469912 0.
0.606013 0.0469921 0.
0.608016 0.0469929 0.
0.610019 0.0469937 0.
0.612022 0.0469951 0.
0.614026 0.0469973 0.
0.616029 0.0469995 0.
0.618032 0.0470014 0.
0.620035 0.047003 0.
0.622038 0.0470046 0.
0.624042 0.0470057 0.
0.626046 0.0470068 0.
0.62805 0.0470081 0.
0.630053 0.0470109 0.
0.632056 0.0470136 0.
0.634059 0.0470155 0.
0.636062 0.0470158 0.
0.638065 0.0470161 0.
0.640068 0.0470176 0.
0.64207 0.0470199 0.
0.644072 0.0470221 0.
0.646075 0.0470228 0.
0.648079 0.047023 0.
0.650082 0.0470234 0.
0.652083 0.0470245 0.
0.654084 0.0470257 0.
0.656085 0.0470269 0.
0.658087 0.0470284 0.
0.660089 0.0470299 0.
0.662091 0.0470309 0.
0.664093 0.0470314 0.
0.666095 0.047032 0.
0.668096 0.0470335 0.
0.670097 0.0470355 0.
0.672097 0.0470374 0.
0.674098 0.047038 0.
0.676099 0.0470384 0.
0.678101 0.047039 0.
0.680102 0.0470409 0.
0.682102 0.0470428 0.
0.684103 0.0470451 0.
0.686103 0.0470483 0.
0.688104 0.0470514 0.
0.690104 0.0470544 0.
0.692104 0.0470573 0.
0.694105 0.0470603 0.
0.696105 0.0470635 0.
0.698106 0.0470669 0.
0.499897 0.0490643 0.
0.501898 0.0490609 0.
0.503899 0.0490573 0.
0.5059 0.0490538 0.
0.507901 0.0490507 0.
0.509901 0.0490477 0.
0.511902 0.0490452 0.
0.513903 0.0490434 0.
0.515904 0.0490417 0.
0.517904 0.0490396 0.
0.519905 0.0490372 0.
0.521905 0.0490349 0.
0.523906 0.0490334 0.
0.525907 0.0490321 0.
0.527908 0.0490308 0.
0.529909 0.0490295 0.
0.53191 0.0490282 0.
0.533912 0.0490271 0.
0.535913 0.0490265 0.
0.537915 0.0490258 0.
0.539917 0.0490245 0.
0.541918 0.0490223 0.
0.543919 0.0490202 0.
0.545921 0.0490194 0.
0.547923 0.0490192 0.
0.549925 0.049019 0.
0.551928 0.049018 0.
0.553932 0.0490171 0.
0.555934 0.0490161 0.
0.557936 0.0490148 0.
0.559938 0.0490136 0.
0.561941 0.0490123 0.
0.563943 0.049011 0.
0.565946 0.0490097 0.
0.567949 0.0490084 0.
0.569951 0.0490072 0.
0.571953 0.049006 0.
0.573957 0.0490046 0.
0.575961 0.0490032 0.
0.577966 0.0490016 0.
0.579968 0.0489993 0.
0.581971 0.0489969 0.
0.583974 0.0489949 0.
0.585978 0.0489938 0.
0.587981 0.0489926 0.
0.589984 0.0489915 0.
0.591986 0.0489903 0.
0.593989 0.0489891 0.
0.595992 0.0489888 0.
0.597996 0.0489887 0.
0.599999 0.0489886 0.
0.602004 0.0489896 0.
0.604009 0.0489906 0.
0.606013 0.0489915 0.
0.608015 0.0489918 0.
0.610018 0.0489921 0.
0.61202 0.0489935 0.
0.614024 0.0489962 0.
0.616027 0.0489989 0.
0.61803 0.0490006 0.
0.620034 0.0490019 0.
0.622037 0.0490032 0.
0.62404 0.049004 0.
0.626044 0.0490049 0.
0.628047 0.049006 0.
0.63005 0.0490086 0.
0.632053 0.0490113 0.
0.634056 0.0490132 0.
0.636059 0.049014 0.
0.638061 0.0490149 0.
0.640063 0.0490163 0.
0.642066 0.0490182 0.
0.644068 0.0490201 0.
0.646071 0.0490209 0.
0.648075 0.0490214 0.
0.650078 0.0490221 0.
0.652079 0.0490235 0.
0.65408 0.049025 0.
0.656082 0.0490264 0.
0.658084 0.0490277 0.
0.660087 0.0490291 0.
0.662089 0.0490301 0.
0.66409 0.0490308 0.
0.666091 0.0490314 0.
0.668092 0.0490331 0.
0.670093 0.0490354 0.
0.672094 0.0490377 0.
0.674095 0.0490384 0.
0.676096 0.0490389 0.
0.678097 0.0490397 0.
0.680098 0.0490417 0.
0.682098 0.0490437 0.
0.684099 0.0490461 0.
0.686099 0.049049 0.
0.6881 0.0490519 0.
0.6901 0.0490548 0.
0.6921 0.0490578 0.
0.694101 0.0490607 0.
0.696102 0.0490639 0.
0.698103 0.0490671 0.
0.499902 0.0510643 0.
0.501903 0.051061 0.
0.503904 0.0510575 0.
0.505905 0.0510542 0.
0.507905 0.0510511 0.
0.509905 0.0510481 0.
0.511906 0.0510455 0.
0.513907 0.0510437 0.
0.515908 0.051042 0.
0.517908 0.0510399 0.
0.519908 0.0510376 0.
0.521909 0.0510353 0.
0.52391 0.0510338 0.
0.525911 0.0510326 0.
0.527912 0.0510312 0.
0.529913 0.0510296 0.
0.531914 0.0510279 0.
0.533915 0.0510265 0.
0.535917 0.0510258 0.
0.537919 0.0510251 0.
0.539921 0.0510237 0.
0.541922 0.0510217 0.
0.543923 0.0510197 0.
0.545925 0.0510188 0.
0.547927 0.0510184 0.
0.549929 0.0510179 0.
0.551932 0.0510168 0.
0.553935 0.0510158 0.
0.555937 0.0510147 0.
0.55794 0.0510136 0.
0.559942 0.0510125 0.
0.561944 0.0510112 0.
0.563946 0.0510098 0.
0.565949 0.0510084 0.
0.567951 0.0510071 0.
0.569953 0.0510058 0.
0.571956 0.0510045 0.
0.573959 0.051003 0.
0.575963 0.0510014 0.
0.577967 0.0509998 0.
0.57997 0.0509978 0.
0.581973 0.0509958 0.
0.583976 0.0509941 0.
0.585978 0.0509928 0.
0.587981 0.0509916 0.
0.589984 0.0509905 0.
0.591986 0.0509897 0.
0.593989 0.0509888 0.
0.595992 0.0509885 0.
0.597996 0.0509883 0.
0.599999 0.050988 0.
0.602004 0.0509889 0.
0.604009 0.0509899 0.
0.606012 0.0509906 0.
0.608015 0.0509908 0.
0.610017 0.0509911 0.
0.612019 0.0509924 0.
0.614022 0.050995 0.
0.616025 0.0509976 0.
0.618029 0.0509992 0.
0.620032 0.0510004 0.
0.622036 0.0510016 0.
0.624039 0.0510024 0.
0.626042 0.0510033 0.
0.628044 0.0510044 0.
0.630047 0.0510066 0.
0.63205 0.0510088 0.
0.634053 0.0510107 0.
0.636055 0.0510121 0.
0.638058 0.0510135 0.
0.64006 0.0510151 0.
0.642062 0.0510167 0.
0.644064 0.0510183 0.
0.646068 0.0510193 0.
0.648071 0.0510202 0.
0.650075 0.0510211 0.
0.652076 0.0510225 0.
0.654077 0.051024 0.
0.656079 0.0510255 0.
0.658081 0.051027 0.
0.660083 0.0510285 0.
0.662085 0.0510297 0.
0.664086 0.0510305 0.
0.666086 0.0510313 0.
0.668088 0.0510331 0.
0.670089 0.0510354 0.
0.67209 0.0510376 0.
0.674091 0.0510385 0.
0.676092 0.0510392 0.
0.678093 0.0510401 0.
0.680094 0.0510422 0.
0.682094 0.0510444 0.
0.684095 0.0510468 0.
0.686095 0.0510496 0.
0.688095 0.0510524 0.
0.690096 0.0510553 0.
0.692096 0.0510583 0.
0.694097 0.0510613 0.
0.696098 0.0510644 0.
0.698099 0.0510676 0.
0.499908 0.0530641 0.
0.501908 0.0530608 0.
0.503908 0.0530577 0.
0.505909 0.0530547 0.
0.507909 0.0530518 0.
0.509909 0.0530489 0.
0.51191 0.0530463 0.
0.51391 0.0530443 0.
0.515911 0.0530423 0.
0.517912 0.0530403 0.
0.519912 0.0530382 0.
0.521913 0.0530361 0.
0.523914 0.0530347 0.
0.525914 0.0530335 0.
0.527915 0.0530321 0.
0.529917 0.05303 0.
0.531918 0.0530278 0.
0.533919 0.0530261 0.
0.535921 0.0530251 0.
0.537922 0.0530242 0.
0.539924 0.0530229 0.
0.541925 0.0530214 0.
0.543926 0.0530198 0.
0.545928 0.0530187 0.
0.54793 0.0530178 0.
0.549932 0.0530169 0.
0.551935 0.0530158 0.
0.553937 0.0530147 0.
0.55594 0.0530136 0.
0.557942 0.0530126 0.
0.559945 0.0530115 0.
0.561947 0.0530104 0.
0.563949 0.0530091 0.
0.565951 0.0530077 0.
0.567954 0.0530063 0.
0.569956 0.0530048 0.
0.571958 0.0530033 0.
0.573961 0.0530017 0.
0.575965 0.0530002 0.
0.577968 0.0529986 0.
0.579971 0.0529967 0.
0.581974 0.0529948 0.
0.583976 0.0529931 0.
0.585978 0.0529917 0.
0.587981 0.0529902 0.
0.589983 0.0529894 0.
0.591986 0.052989 0.
0.593989 0.0529886 0.
0.595993 0.0529884 0.
0.597996 0.0529881 0.
0.6 0.0529879 0.
0.602004 0.0529884 0.
0.604008 0.0529889 0.
0.606011 0.0529894 0.
0.608013 0.0529899 0.
0.610016 0.0529905 0.
0.612018 0.0529917 0.
0.614021 0.0529937 0.
0.616024 0.0529958 0.
0.618028 0.0529973 0.
0.620031 0.0529985 0.
0.622034 0.0529998 0.
0.624037 0.0530009 0.
0.62604 0.0530021 0.
0.628042 0.0530033 0.
0.630045 0.0530048 0.
0.632047 0.0530062 0.
0.63405 0.0530079 0.
0.636052 0.05301 0.
0.638054 0.053012 0.
0.640057 0.0530137 0.
0.642059 0.0530152 0.
0.644061 0.0530167 0.
0.646065 0.053018 0.
0.648068 0.0530192 0.
0.650071 0.0530204 0.
0.652073 0.0530216 0.
0.654074 0.0530228 0.
0.656076 0.0530242 0.
0.658078 0.0530261 0.
0.660079 0.053028 0.
0.662081 0.0530295 0.
0.664082 0.0530306 0.
0.666082 0.0530318 0.
0.668084 0.0530335 0.
0.670085 0.0530354 0.
0.672086 0.0530374 0.
0.674087 0.0530383 0.
0.676087 0.0530392 0.
0.678088 0.0530403 0.
0.680089 0.0530425 0.
0.68209 0.0530448 0.
0.68409 0.0530473 0.
0.686091 0.0530501 0.
0.688091 0.0530529 0.
0.690092 0.0530558 0.
0.692092 0.0530589 0.
0.694093 0.0530619 0.
0.696093 0.053065 0.
0.698094 0.0530681 0.
0.499913 0.0550639 0.
0.501913 0.0550607 0.
0.503913 0.055058 0.
0.505913 0.0550553 0.
0.507913 0.0550525 0.
0.509913 0.0550498 0.
0.511913 0.0550472 0.
0.513914 0.0550448 0.
0.515915 0.0550425 0.
0.517915 0.0550406 0.
0.519916 0.0550388 0.
0.521916 0.055037 0.
0.523917 0.0550356 0.
0.525918 0.0550343 0.
0.527919 0.055033 0.
0.529921 0.0550304 0.
0.531922 0.0550278 0.
0.533923 0.0550256 0.
0.535925 0.0550244 0.
0.537926 0.0550233 0.
0.539927 0.0550221 0.
0.541928 0.055021 0.
0.543929 0.0550199 0.
0.545931 0.0550186 0.
0.547933 0.0550172 0.
0.549935 0.0550159 0.
0.551937 0.0550147 0.
0.55394 0.0550135 0.
0.555942 0.0550124 0.
0.557945 0.0550115 0.
0.559947 0.0550106 0.
0.56195 0.0550095 0.
0.563952 0.0550083 0.
0.565954 0.055007 0.
0.567956 0.0550055 0.
0.569958 0.0550038 0.
0.571961 0.0550022 0.
0.573964 0.0550005 0.
0.575967 0.0549989 0.
0.57797 0.0549974 0.
0.579972 0.0549956 0.
0.581974 0.0549939 0.
0.583977 0.0549921 0.
0.585979 0.0549905 0.
0.58798 0.0549889 0.
0.589983 0.0549883 0.
0.591986 0.0549884 0.
0.593989 0.0549885 0.
0.595993 0.0549883 0.
0.597997 0.054988 0.
0.600001 0.0549877 0.
0.602004 0.0549878 0.
0.604007 0.054988 0.
0.60601 0.0549883 0.
0.608012 0.054989 0.
0.610015 0.0549898 0.
0.612018 0.054991 0.
0.614021 0.0549924 0.
0.616024 0.0549939 0.
0.618026 0.0549953 0.
0.620029 0.0549967 0.
0.622032 0.054998 0.
0.624035 0.0549995 0.
0.626038 0.0550009 0.
0.62804 0.0550023 0.
0.630042 0.055003 0.
0.632044 0.0550037 0.
0.634046 0.0550051 0.
0.636049 0.0550078 0.
0.638051 0.0550105 0.
0.640054 0.0550124 0.
0.642056 0.0550138 0.
0.644059 0.0550151 0.
0.646061 0.0550167 0.
0.648064 0.0550182 0.
0.650067 0.0550197 0.
0.652069 0.0550207 0.
0.654072 0.0550217 0.
0.656074 0.055023 0.
0.658074 0.0550253 0.
0.660075 0.0550275 0.
0.662076 0.0550293 0.
0.664077 0.0550308 0.
0.666078 0.0550322 0.
0.668079 0.0550338 0.
0.67008 0.0550354 0.
0.672081 0.0550371 0.
0.674082 0.0550382 0.
0.676083 0.0550393 0.
0.678084 0.0550405 0.
0.680084 0.0550429 0.
0.682085 0.0550453 0.
0.684086 0.0550479 0.
0.686086 0.0550506 0.
0.688087 0.0550534 0.
0.690088 0.0550563 0.
0.692088 0.0550595 0.
0.694089 0.0550626 0.
0.696089 0.0550656 0.
0.69809 0.0550687 0.
0.499916 0.0570652 0.
0.501916 0.0570619 0.
0.503916 0.0570587 0.
0.505916 0.0570557 0.
0.507916 0.0570528 0.
0.509916 0.0570499 0.
0.511916 0.0570472 0.
0.513916 0.0570449 0.
0.515917 0.0570425 0.
0.517918 0.0570407 0.
0.519919 0.0570391 0.
0.521919 0.0570375 0.
0.523921 0.0570358 0.
0.525922 0.0570339 0.
0.527923 0.057032 0.
0.529925 0.0570298 0.
0.531926 0.0570275 0.
0.533927 0.0570255 0.
0.535928 0.0570243 0.
0.537929 0.0570231 0.
0.539931 0.0570215 0.
0.541932 0.0570198 0.
0.543933 0.057018 0.
0.545935 0.0570168 0.
0.547937 0.0570158 0.
0.549938 0.0570149 0.
0.551941 0.0570136 0.
0.553943 0.0570123 0.
0.555945 0.0570112 0.
0.557948 0.0570105 0.
0.55995 0.0570099 0.
0.561952 0.0570089 0.
0.563954 0.0570075 0.
0.565956 0.0570061 0.
0.567958 0.0570044 0.
0.56996 0.0570026 0.
0.571962 0.0570008 0.
0.573965 0.0569995 0.
0.575968 0.0569982 0.
0.577971 0.0569969 0.
0.579973 0.0569951 0.
0.581975 0.0569934 0.
0.583977 0.0569917 0.
0.585979 0.0569902 0.
0.587982 0.0569886 0.
0.589984 0.0569879 0.
0.591986 0.056988 0.
0.593989 0.056988 0.
0.595993 0.0569876 0.
0.597997 0.0569871 0.
0.600001 0.0569865 0.
0.602004 0.056987 0.
0.604007 0.0569875 0.
0.60601 0.056988 0.
0.608012 0.0569886 0.
0.610014 0.0569892 0.
0.612017 0.05699 0.
0.61402 0.0569913 0.
0.616023 0.0569925 0.
0.618025 0.0569939 0.
0.620028 0.0569953 0.
0.62203 0.0569967 0.
0.624033 0.0569983 0.
0.626036 0.0569998 0.
0.628039 0.0570014 0.
0.630041 0.0570026 0.
0.632042 0.0570039 0.
0.634044 0.0570054 0.
0.636047 0.0570074 0.
0.638049 0.0570094 0.
0.640051 0.0570109 0.
0.642054 0.0570121 0.
0.644056 0.0570133 0.
0.646059 0.0570149 0.
0.648061 0.0570165 0.
0.650064 0.0570182 0.
0.652066 0.0570195 0.
0.654068 0.0570207 0.
0.65607 0.0570223 0.
0.658071 0.0570247 0.
0.660072 0.057027 0.
0.662073 0.0570289 0.
0.664074 0.0570303 0.
0.666075 0.0570317 0.
0.668076 0.0570332 0.
0.670077 0.0570348 0.
0.672078 0.0570364 0.
0.674079 0.0570381 0.
0.67608 0.0570398 0.
0.678081 0.0570415 0.
0.680081 0.0570438 0.
0.682082 0.0570461 0.
0.684082 0.0570485 0.
0.686083 0.0570511 0.
0.688084 0.0570536 0.
0.690084 0.0570565 0.
0.692085 0.0570598 0.
0.694085 0.0570631 0.
0.696086 0.0570663 0.
0.698086 0.0570694 0.
0.499919 0.0590665 0.
0.501919 0.059063 0.
0.503918 0.0590595 0.
0.505918 0.0590561 0.
0.507918 0.0590531 0.
0.509918 0.05905 0.
0.511919 0.0590473 0.
0.513919 0.0590449 0.
0.515919 0.0590425 0.
0.51792 0.0590408 0.
0.519921 0.0590394 0.
0.521923 0.0590381 0.
0.523924 0.0590359 0.
0.525926 0.0590335 0.
0.527927 0.0590311 0.
0.529928 0.0590292 0.
0.53193 0.0590272 0.
0.533931 0.0590255 0.
0.535932 0.0590242 0.
0.537933 0.0590228 0.
0.539934 0.0590209 0.
0.541936 0.0590185 0.
0.543937 0.059016 0.
0.545939 0.059015 0.
0.54794 0.0590144 0.
0.549941 0.0590138 0.
0.551944 0.0590125 0.
0.553946 0.0590112 0.
0.555948 0.0590099 0.
0.55795 0.0590095 0.
0.559952 0.0590091 0.
0.561954 0.0590082 0.
0.563956 0.0590067 0.
0.565958 0.0590051 0.
0.56796 0.0590033 0.
0.569962 0.0590014 0.
0.571964 0.0589995 0.
0.573967 0.0589984 0.
0.575969 0.0589974 0.
0.577972 0.0589964 0.
0.579974 0.0589947 0.
0.581976 0.058993 0.
0.583978 0.0589913 0.
0.58598 0.0589898 0.
0.587983 0.0589883 0.
0.589985 0.0589877 0.
0.591987 0.0589876 0.
0.593989 0.0589876 0.
0.595992 0.058987 0.
0.597996 0.0589861 0.
0.6 0.0589853 0.
0.602003 0.0589862 0.
0.604007 0.0589871 0.
0.606009 0.0589878 0.
0.608012 0.0589881 0.
0.610014 0.0589884 0.
0.612016 0.0589891 0.
0.614019 0.0589901 0.
0.616022 0.0589912 0.
0.618024 0.0589925 0.
0.620026 0.058994 0.
0.622029 0.0589954 0.
0.624031 0.0589971 0.
0.626034 0.0589988 0.
0.628037 0.0590005 0.
0.630039 0.0590023 0.
0.632041 0.059004 0.
0.634043 0.0590056 0.
0.636045 0.0590069 0.
0.638047 0.0590082 0.
0.640049 0.0590094 0.
0.642051 0.0590104 0.
0.644053 0.0590115 0.
0.646056 0.0590131 0.
0.648058 0.0590149 0.
0.650061 0.0590166 0.
0.652062 0.0590182 0.
0.654064 0.0590198 0.
0.656066 0.0590216 0.
0.658067 0.059024 0.
0.660068 0.0590265 0.
0.662069 0.0590285 0.
0.66407 0.0590298 0.
0.666072 0.0590311 0.
0.668073 0.0590326 0.
0.670074 0.0590342 0.
0.672075 0.0590358 0.
0.674076 0.059038 0.
0.676077 0.0590403 0.
0.678078 0.0590425 0.
0.680078 0.0590447 0.
0.682078 0.059047 0.
0.684079 0.0590492 0.
0.686079 0.0590515 0.
0.68808 0.0590538 0.
0.690081 0.0590567 0.
0.692081 0.0590602 0.
0.694082 0.0590637 0.
0.696082 0.0590669 0.
0.698083 0.0590701 0.
0.499923 0.0610673 0.
0.501922 0.0610638 0.
0.503922 0.0610603 0.
0.505921 0.0610569 0.
0.507922 0.0610538 0.
0.509922 0.0610507 0.
0.511922 0.0610478 0.
0.513922 0.0610453 0.
0.515923 0.0610427 0.
0.517923 0.0610408 0.
0.519925 0.0610394 0.
0.521926 0.0610379 0.
0.523927 0.0610356 0.
0.525929 0.0610332 0.
0.52793 0.0610307 0.
0.529932 0.0610289 0.
0.531933 0.0610271 0.
0.533935 0.0610255 0.
0.535936 0.0610241 0.
0.537936 0.0610227 0.
0.539938 0.0610207 0.
0.541939 0.061018 0.
0.54394 0.0610153 0.
0.545942 0.0610142 0.
0.547943 0.0610136 0.
0.549944 0.061013 0.
0.551946 0.0610118 0.
0.553948 0.0610105 0.
0.555951 0.0610094 0.
0.557953 0.0610089 0.
0.559955 0.0610084 0.
0.561956 0.0610074 0.
0.563958 0.0610055 0.
0.56596 0.0610037 0.
0.567962 0.061002 0.
0.569964 0.0610003 0.
0.571966 0.0609985 0.
0.573968 0.0609976 0.
0.57597 0.0609967 0.
0.577973 0.0609957 0.
0.579974 0.0609941 0.
0.581976 0.0609926 0.
0.583978 0.060991 0.
0.58598 0.0609896 0.
0.587983 0.0609882 0.
0.589985 0.0609876 0.
0.591986 0.0609874 0.
0.593988 0.0609873 0.
0.595992 0.0609865 0.
0.597996 0.0609856 0.
0.6 0.0609847 0.
0.602004 0.0609857 0.
0.604007 0.0609866 0.
0.60601 0.0609874 0.
0.608012 0.0609876 0.
0.610013 0.0609878 0.
0.612016 0.0609883 0.
0.614018 0.0609892 0.
0.616021 0.0609901 0.
0.618023 0.0609915 0.
0.620025 0.0609932 0.
0.622027 0.0609949 0.
0.62403 0.0609965 0.
0.626033 0.0609979 0.
0.628035 0.0609995 0.
0.630037 0.0610015 0.
0.632039 0.0610035 0.
0.634041 0.0610052 0.
0.636043 0.0610064 0.
0.638045 0.0610075 0.
0.640047 0.0610086 0.
0.642049 0.0610094 0.
0.644051 0.0610103 0.
0.646053 0.0610121 0.
0.648055 0.0610141 0.
0.650057 0.0610161 0.
0.652059 0.0610177 0.
0.65406 0.0610193 0.
0.656062 0.0610211 0.
0.658063 0.0610236 0.
0.660064 0.0610262 0.
0.662065 0.0610282 0.
0.664067 0.0610296 0.
0.666068 0.061031 0.
0.668069 0.0610326 0.
0.67007 0.0610342 0.
0.672071 0.0610357 0.
0.674072 0.0610382 0.
0.676073 0.0610408 0.
0.678074 0.0610433 0.
0.680074 0.0610455 0.
0.682075 0.0610478 0.
0.684075 0.06105 0.
0.686076 0.0610522 0.
0.688076 0.0610544 0.
0.690077 0.0610573 0.
0.692077 0.0610608 0.
0.694078 0.0610642 0.
0.696078 0.0610674 0.
0.698079 0.0610706 0.
0.499926 0.0630676 0.
0.501926 0.0630643 0.
0.503926 0.0630613 0.
0.505926 0.0630582 0.
0.507926 0.0630551 0.
0.509926 0.0630519 0.
0.511926 0.0630488 0.
0.513927 0.0630459 0.
0.515927 0.0630431 0.
0.517928 0.0630408 0.
0.519929 0.0630389 0.
0.52193 0.0630371 0.
0.523931 0.063035 0.
0.525932 0.0630329 0.
0.527933 0.0630308 0.
0.529935 0.063029 0.
0.531936 0.0630272 0.
0.533938 0.0630255 0.
0.535939 0.0630242 0.
0.53794 0.0630228 0.
0.539941 0.0630208 0.
0.541942 0.0630183 0.
0.543943 0.0630157 0.
0.545944 0.0630143 0.
0.547945 0.0630133 0.
0.549946 0.0630123 0.
0.551948 0.0630114 0.
0.55395 0.0630105 0.
0.555952 0.0630096 0.
0.557954 0.0630087 0.
0.559956 0.0630078 0.
0.561958 0.0630063 0.
0.56396 0.0630041 0.
0.565961 0.0630019 0.
0.567963 0.0630003 0.
0.569965 0.0629992 0.
0.571966 0.062998 0.
0.573969 0.0629969 0.
0.575971 0.0629959 0.
0.577974 0.0629948 0.
0.579975 0.0629935 0.
0.581977 0.0629922 0.
0.583978 0.0629909 0.
0.58598 0.0629896 0.
0.587982 0.0629884 0.
0.589984 0.0629876 0.
0.591985 0.0629872 0.
0.593987 0.0629869 0.
0.595991 0.0629863 0.
0.597996 0.0629855 0.
0.6 0.0629848 0.
0.602004 0.0629855 0.
0.604007 0.0629861 0.
0.60601 0.0629866 0.
0.608012 0.0629869 0.
0.610013 0.0629871 0.
0.612015 0.0629876 0.
0.614017 0.0629885 0.
0.616019 0.0629893 0.
0.618021 0.062991 0.
0.620023 0.0629931 0.
0.622025 0.0629952 0.
0.624028 0.0629963 0.
0.626031 0.0629973 0.
0.628033 0.0629984 0.
0.630035 0.0630004 0.
0.632037 0.0630024 0.
0.634039 0.0630042 0.
0.636041 0.0630057 0.
0.638043 0.0630073 0.
0.640045 0.0630084 0.
0.642047 0.0630091 0.
0.644049 0.0630098 0.
0.646051 0.0630118 0.
0.648052 0.0630142 0.
0.650054 0.0630165 0.
0.652055 0.0630179 0.
0.654057 0.0630193 0.
0.656058 0.0630209 0.
0.658059 0.0630234 0.
0.66006 0.0630259 0.
0.662062 0.0630281 0.
0.664063 0.0630298 0.
0.666065 0.0630315 0.
0.668066 0.0630331 0.
0.670067 0.0630346 0.
0.672068 0.0630361 0.
0.674069 0.0630386 0.
0.67607 0.0630412 0.
0.67807 0.0630438 0.
0.680071 0.0630461 0.
0.682071 0.0630485 0.
0.684072 0.0630508 0.
0.686072 0.0630532 0.
0.688072 0.0630555 0.
0.690073 0.0630583 0.
0.692073 0.0630615 0.
0.694073 0.0630647 0.
0.696074 0.0630679 0.
0.698074 0.063071 0.
0.49993 0.0650677 0.
0.50193 0.0650648 0.
0.50393 0.0650622 0.
0.50593 0.0650595 0.
0.50793 0.0650562 0.
0.50993 0.065053 0.
0.51193 0.0650498 0.
0.513931 0.0650466 0.
0.515932 0.0650434 0.
0.517932 0.0650408 0.
0.519933 0.0650385 0.
0.521933 0.0650363 0.
0.523934 0.0650344 0.
0.525935 0.0650327 0.
0.527936 0.0650309 0.
0.529938 0.0650291 0.
0.531939 0.0650272 0.
0.533941 0.0650255 0.
0.535942 0.0650242 0.
0.537944 0.0650229 0.
0.539944 0.0650209 0.
0.541945 0.0650185 0.
0.543945 0.0650161 0.
0.545946 0.0650144 0.
0.547947 0.065013 0.
0.549948 0.0650116 0.
0.55195 0.065011 0.
0.553952 0.0650105 0.
0.555954 0.0650098 0.
0.557956 0.0650085 0.
0.559958 0.0650071 0.
0.56196 0.0650053 0.
0.563961 0.0650027 0.
0.565963 0.065 0.
0.567964 0.0649987 0.
0.569966 0.0649981 0.
0.571967 0.0649974 0.
0.57397 0.0649963 0.
0.575972 0.0649951 0.
0.577974 0.0649939 0.
0.579976 0.0649929 0.
0.581977 0.0649918 0.
0.583978 0.0649907 0.
0.58598 0.0649896 0.
0.587981 0.0649885 0.
0.589983 0.0649876 0.
0.591984 0.064987 0.
0.593985 0.0649865 0.
0.59599 0.064986 0.
0.597995 0.0649855 0.
0.6 0.0649849 0.
0.602004 0.0649853 0.
0.604008 0.0649856 0.
0.606011 0.0649858 0.
0.608012 0.0649861 0.
0.610013 0.0649864 0.
0.612015 0.0649869 0.
0.614016 0.0649877 0.
0.616018 0.0649885 0.
0.61802 0.0649904 0.
0.620022 0.064993 0.
0.622024 0.0649955 0.
0.624026 0.0649962 0.
0.626029 0.0649967 0.
0.628031 0.0649974 0.
0.630033 0.0649993 0.
0.632035 0.0650012 0.
0.634036 0.0650031 0.
0.636038 0.0650051 0.
0.63804 0.0650071 0.
0.640042 0.0650082 0.
0.642044 0.0650087 0.
0.644047 0.0650093 0.
0.646048 0.0650115 0.
0.64805 0.0650143 0.
0.650051 0.0650169 0.
0.652052 0.0650181 0.
0.654053 0.0650192 0.
0.656054 0.0650207 0.
0.658056 0.0650232 0.
0.660057 0.0650256 0.
0.662058 0.0650279 0.
0.664059 0.0650299 0.
0.666061 0.065032 0.
0.668062 0.0650336 0.
0.670063 0.0650351 0.
0.672064 0.0650366 0.
0.674065 0.065039 0.
0.676066 0.0650416 0.
0.678067 0.0650442 0.
0.680067 0.0650467 0.
0.682068 0.0650492 0.
0.684068 0.0650517 0.
0.686068 0.0650541 0.
0.688068 0.0650566 0.
0.690069 0.0650593 0.
0.692069 0.0650622 0.
0.694069 0.0650652 0.
0.696069 0.0650683 0.
0.698069 0.0650714 0.
0.499934 0.0670693 0.
0.501933 0.0670659 0.
0.503933 0.0670628 0.
0.505933 0.0670598 0.
0.507933 0.0670565 0.
0.509934 0.0670533 0.
0.511934 0.06705 0.
0.513935 0.0670467 0.
0.515935 0.0670434 0.
0.517936 0.0670409 0.
0.519936 0.0670387 0.
0.521936 0.0670365 0.
0.523937 0.0670345 0.
0.525939 0.0670325 0.
0.52794 0.0670305 0.
0.529941 0.0670287 0.
0.531941 0.0670268 0.
0.533942 0.0670251 0.
0.535944 0.0670235 0.
0.537946 0.0670219 0.
0.539947 0.0670202 0.
0.541947 0.0670183 0.
0.543948 0.0670165 0.
0.545949 0.0670146 0.
0.54795 0.0670129 0.
0.549952 0.0670111 0.
0.551953 0.0670102 0.
0.553955 0.0670094 0.
0.555956 0.0670085 0.
0.557958 0.0670073 0.
0.55996 0.0670062 0.
0.561962 0.0670046 0.
0.563963 0.0670021 0.
0.565964 0.0669997 0.
0.567966 0.0669983 0.
0.569967 0.0669976 0.
0.571969 0.0669968 0.
0.573971 0.0669957 0.
0.575974 0.0669945 0.
0.577976 0.0669933 0.
0.579977 0.0669924 0.
0.581978 0.0669914 0.
0.58398 0.0669904 0.
0.585981 0.0669893 0.
0.587983 0.0669881 0.
0.589984 0.0669872 0.
0.591986 0.0669864 0.
0.593987 0.0669856 0.
0.595991 0.0669852 0.
0.597996 0.0669848 0.
0.6 0.0669845 0.
0.602004 0.0669846 0.
0.604007 0.0669847 0.
0.606009 0.0669849 0.
0.608011 0.0669855 0.
0.610013 0.0669861 0.
0.612014 0.0669868 0.
0.614015 0.0669874 0.
0.616017 0.066988 0.
0.618018 0.0669897 0.
0.62002 0.066992 0.
0.622022 0.0669943 0.
0.624025 0.0669951 0.
0.626027 0.0669956 0.
0.628029 0.0669964 0.
0.630031 0.0669984 0.
0.632032 0.0670005 0.
0.634033 0.0670025 0.
0.636035 0.0670042 0.
0.638037 0.067006 0.
0.640039 0.0670073 0.
0.642041 0.0670083 0.
0.644043 0.0670092 0.
0.646045 0.0670113 0.
0.648046 0.0670136 0.
0.650048 0.0670159 0.
0.652048 0.0670172 0.
0.654049 0.0670184 0.
0.65605 0.06702 0.
0.658052 0.0670226 0.
0.660053 0.0670252 0.
0.662054 0.0670276 0.
0.664056 0.0670298 0.
0.666057 0.067032 0.
0.668058 0.0670338 0.
0.670059 0.0670353 0.
0.67206 0.0670369 0.
0.674061 0.0670391 0.
0.676062 0.0670413 0.
0.678063 0.0670437 0.
0.680063 0.0670467 0.
0.682064 0.0670496 0.
0.684064 0.0670524 0.
0.686064 0.0670546 0.
0.688065 0.0670569 0.
0.690065 0.0670596 0.
0.692066 0.0670626 0.
0.694066 0.0670656 0.
0.696066 0.0670687 0.
0.698066 0.0670718 0.
0.499937 0.0690704 0.
0.501937 0.0690669 0.
0.503936 0.0690635 0.
0.505936 0.0690601 0.
0.507937 0.0690568 0.
0.509937 0.0690536 0.
0.511938 0.0690503 0.
0.513938 0.0690469 0.
0.515939 0.0690435 0.
0.517939 0.0690409 0.
0.519939 0.0690389 0.
0.52194 0.0690368 0.
0.523941 0.0690346 0.
0.525942 0.0690323 0.
0.527943 0.0690301 0.
0.529943 0.0690283 0.
0.531943 0.0690264 0.
0.533944 0.0690246 0.
0.535946 0.0690228 0.
0.537947 0.069021 0.
0.539949 0.0690194 0.
0.54195 0.0690181 0.
0.543952 0.0690168 0.
0.545953 0.0690149 0.
0.547954 0.0690127 0.
0.549955 0.0690106 0.
0.551956 0.0690094 0.
0.553958 0.0690083 0.
0.555959 0.0690072 0.
0.557961 0.0690062 0.
0.559962 0.0690053 0.
0.561964 0.0690038 0.
0.563965 0.0690016 0.
0.565966 0.0689993 0.
0.567967 0.068998 0.
0.569969 0.0689971 0.
0.571971 0.0689962 0.
0.573973 0.068995 0.
0.575975 0.0689938 0.
0.577977 0.0689927 0.
0.579979 0.0689919 0.
0.58198 0.0689911 0.
0.583981 0.0689901 0.
0.585982 0.0689889 0.
0.587984 0.0689877 0.
0.589985 0.0689867 0.
0.591987 0.0689857 0.
0.593989 0.0689847 0.
0.595992 0.0689844 0.
0.597996 0.0689842 0.
0.6 0.0689839 0.
0.602003 0.0689839 0.
0.604005 0.0689839 0.
0.606008 0.068984 0.
0.60801 0.0689849 0.
0.610012 0.0689858 0.
0.612014 0.0689866 0.
0.614015 0.068987 0.
0.616016 0.0689875 0.
0.618017 0.068989 0.
0.620019 0.0689911 0.
0.622021 0.0689932 0.
0.624023 0.0689939 0.
0.626025 0.0689946 0.
0.628027 0.0689954 0.
0.630028 0.0689976 0.
0.632029 0.0689998 0.
0.63403 0.0690018 0.
0.636033 0.0690034 0.
0.638035 0.0690049 0.
0.640037 0.0690064 0.
0.642038 0.0690078 0.
0.64404 0.0690091 0.
0.646041 0.069011 0.
0.648043 0.0690129 0.
0.650044 0.0690149 0.
0.652045 0.0690163 0.
0.654046 0.0690177 0.
0.656047 0.0690194 0.
0.658048 0.0690221 0.
0.660049 0.0690248 0.
0.662051 0.0690274 0.
0.664052 0.0690297 0.
0.666053 0.0690321 0.
0.668054 0.0690339 0.
0.670055 0.0690356 0.
0.672056 0.0690373 0.
0.674057 0.0690391 0.
0.676058 0.069041 0.
0.678059 0.0690431 0.
0.680059 0.0690466 0.
0.682059 0.0690501 0.
0.68406 0.069053 0.
0.68606 0.0690551 0.
0.688061 0.0690573 0.
0.690062 0.0690599 0.
0.692062 0.0690629 0.
0.694063 0.069066 0.
0.696063 0.069069 0.
0.698064 0.0690721 0.
0.499941 0.0710715 0.
0.50194 0.0710678 0.
0.50394 0.0710641 0.
0.50594 0.0710604 0.
0.50794 0.0710571 0.
0.509941 0.0710538 0.
0.511941 0.0710505 0.
0.513942 0.071047 0.
0.515942 0.0710436 0.
0.517942 0.071041 0.
0.519943 0.0710391 0.
0.521943 0.0710371 0.
0.523944 0.0710348 0.
0.525945 0.0710324 0.
0.527946 0.07103 0.
0.529946 0.0710282 0.
0.531946 0.0710264 0.
0.533947 0.0710245 0.
0.535948 0.0710224 0.
0.53795 0.0710204 0.
0.539951 0.0710189 0.
0.541953 0.0710178 0.
0.543954 0.0710167 0.
0.545955 0.0710147 0.
0.547956 0.0710124 0.
0.549957 0.0710102 0.
0.551959 0.0710087 0.
0.55396 0.0710074 0.
0.555961 0.0710061 0.
0.557963 0.0710052 0.
0.559964 0.0710043 0.
0.561965 0.0710029 0.
0.563966 0.0710008 0.
0.565967 0.0709988 0.
0.567969 0.0709975 0.
0.569971 0.0709966 0.
0.571972 0.0709957 0.
0.573974 0.0709945 0.
0.575976 0.0709932 0.
0.577978 0.070992 0.
0.579979 0.0709912 0.
0.581981 0.0709905 0.
0.583982 0.0709896 0.
0.585984 0.0709884 0.
0.587985 0.0709872 0.
0.589987 0.0709862 0.
0.591988 0.0709853 0.
0.59399 0.0709845 0.
0.595993 0.070984 0.
0.597997 0.0709837 0.
0.6 0.0709833 0.
0.602002 0.0709832 0.
0.604005 0.0709832 0.
0.606007 0.0709833 0.
0.608009 0.0709843 0.
0.610011 0.0709853 0.
0.612013 0.0709861 0.
0.614014 0.0709866 0.
0.616015 0.0709872 0.
0.618016 0.0709885 0.
0.620018 0.0709903 0.
0.62202 0.070992 0.
0.624022 0.070993 0.
0.626024 0.0709938 0.
0.628026 0.0709948 0.
0.630026 0.0709969 0.
0.632027 0.070999 0.
0.634028 0.071001 0.
0.63603 0.0710025 0.
0.638033 0.071004 0.
0.640034 0.0710056 0.
0.642036 0.0710072 0.
0.644037 0.0710087 0.
0.646038 0.0710106 0.
0.64804 0.0710125 0.
0.650041 0.0710144 0.
0.652042 0.0710159 0.
0.654043 0.0710173 0.
0.656044 0.0710191 0.
0.658045 0.0710218 0.
0.660046 0.0710246 0.
0.662047 0.0710271 0.
0.664048 0.0710293 0.
0.666049 0.0710316 0.
0.66805 0.0710335 0.
0.670051 0.0710352 0.
0.672052 0.0710369 0.
0.674053 0.0710387 0.
0.676054 0.0710406 0.
0.678055 0.0710427 0.
0.680055 0.0710464 0.
0.682056 0.0710502 0.
0.684056 0.0710533 0.
0.686057 0.0710555 0.
0.688057 0.0710577 0.
0.690058 0.0710604 0.
0.692059 0.0710635 0.
0.694059 0.0710667 0.
0.69606 0.0710698 0.
0.69806 0.0710729 0.
0.499944 0.0730726 0.
0.501944 0.0730685 0.
0.503944 0.0730645 0.
0.505944 0.0730607 0.
0.507944 0.0730574 0.
0.509944 0.0730541 0.
0.511944 0.0730508 0.
0.513945 0.0730472 0.
0.515945 0.0730437 0.
0.517946 0.0730412 0.
0.519946 0.0730393 0.
0.521947 0.0730374 0.
0.523948 0.0730351 0.
0.525948 0.0730328 0.
0.527949 0.0730304 0.
0.52995 0.0730285 0.
0.53195 0.0730266 0.
0.533951 0.0730246 0.
0.535952 0.0730225 0.
0.537953 0.0730203 0.
0.539954 0.0730187 0.
0.541955 0.0730175 0.
0.543956 0.0730163 0.
0.545957 0.0730143 0.
0.547958 0.073012 0.
0.549959 0.0730097 0.
0.55196 0.0730082 0.
0.553961 0.0730067 0.
0.555963 0.0730053 0.
0.557964 0.0730042 0.
0.559966 0.0730032 0.
0.561967 0.0730018 0.
0.563968 0.0729999 0.
0.565969 0.0729981 0.
0.56797 0.0729969 0.
0.569972 0.0729961 0.
0.571973 0.0729954 0.
0.573975 0.072994 0.
0.575977 0.0729925 0.
0.577978 0.0729911 0.
0.57998 0.0729904 0.
0.581981 0.0729897 0.
0.583983 0.0729888 0.
0.585984 0.0729877 0.
0.587986 0.0729865 0.
0.589987 0.0729857 0.
0.591989 0.0729852 0.
0.59399 0.0729847 0.
0.595993 0.072984 0.
0.597996 0.0729833 0.
0.6 0.0729826 0.
0.602002 0.0729826 0.
0.604004 0.0729826 0.
0.606006 0.0729828 0.
0.608008 0.0729836 0.
0.610009 0.0729845 0.
0.612011 0.0729853 0.
0.614012 0.0729862 0.
0.616014 0.072987 0.
0.618016 0.0729883 0.
0.620017 0.0729896 0.
0.622019 0.072991 0.
0.62402 0.0729922 0.
0.626022 0.0729934 0.
0.628024 0.0729947 0.
0.630025 0.0729965 0.
0.632026 0.0729982 0.
0.634027 0.0729999 0.
0.636029 0.0730016 0.
0.63803 0.0730033 0.
0.640032 0.0730049 0.
0.642033 0.0730065 0.
0.644034 0.073008 0.
0.646036 0.0730101 0.
0.648037 0.0730123 0.
0.650038 0.0730145 0.
0.652039 0.0730159 0.
0.65404 0.0730174 0.
0.656041 0.0730191 0.
0.658042 0.0730218 0.
0.660042 0.0730244 0.
0.662043 0.0730268 0.
0.664044 0.0730287 0.
0.666045 0.0730306 0.
0.668046 0.0730324 0.
0.670047 0.0730341 0.
0.672049 0.0730358 0.
0.67405 0.073038 0.
0.676051 0.0730401 0.
0.678052 0.0730425 0.
0.680052 0.0730462 0.
0.682052 0.07305 0.
0.684052 0.0730532 0.
0.686053 0.0730557 0.
0.688054 0.0730582 0.
0.690055 0.0730611 0.
0.692055 0.0730644 0.
0.694056 0.0730676 0.
0.696055 0.073071 0.
0.698055 0.0730743 0.
0.499947 0.0750732 0.
0.501947 0.0750692 0.
0.503948 0.075065 0.
0.505948 0.075061 0.
0.507948 0.0750577 0.
0.509948 0.0750545 0.
0.511948 0.0750511 0.
0.513948 0.0750474 0.
0.515948 0.0750438 0.
0.517949 0.0750414 0.
0.51995 0.0750396 0.
0.521951 0.0750378 0.
0.523951 0.0750355 0.
0.525952 0.0750332 0.
0.527952 0.0750309 0.
0.529953 0.0750289 0.
0.531954 0.0750268 0.
0.533955 0.0750248 0.
0.535956 0.0750225 0.
0.537956 0.0750203 0.
0.539957 0.0750185 0.
0.541958 0.0750171 0.
0.543959 0.0750158 0.
0.545959 0.0750138 0.
0.54796 0.0750115 0.
0.54996 0.0750093 0.
0.551961 0.0750076 0.
0.553963 0.075006 0.
0.555964 0.0750044 0.
0.557966 0.0750033 0.
0.559967 0.0750022 0.
0.561968 0.0750008 0.
0.56397 0.074999 0.
0.565971 0.0749973 0.
0.567972 0.0749963 0.
0.569973 0.0749957 0.
0.571973 0.074995 0.
0.573975 0.0749935 0.
0.575977 0.0749918 0.
0.577979 0.0749902 0.
0.57998 0.0749895 0.
0.581982 0.0749889 0.
0.583984 0.0749881 0.
0.585985 0.074987 0.
0.587987 0.0749859 0.
0.589988 0.0749853 0.
0.591989 0.0749851 0.
0.593991 0.0749849 0.
0.595993 0.074984 0.
0.597996 0.0749829 0.
0.599999 0.0749818 0.
0.602002 0.0749819 0.
0.604004 0.074982 0.
0.606006 0.0749822 0.
0.608007 0.0749829 0.
0.610007 0.0749837 0.
0.612009 0.0749846 0.
0.614011 0.0749858 0.
0.616013 0.0749869 0.
0.618015 0.074988 0.
0.620016 0.074989 0.
0.622018 0.07499 0.
0.624019 0.0749915 0.
0.62602 0.074993 0.
0.628022 0.0749946 0.
0.630023 0.074996 0.
0.632024 0.0749974 0.
0.634026 0.0749989 0.
0.636027 0.0750007 0.
0.638028 0.0750026 0.
0.640029 0.0750043 0.
0.642031 0.0750058 0.
0.644032 0.0750073 0.
0.646033 0.0750096 0.
0.648034 0.0750121 0.
0.650036 0.0750146 0.
0.652037 0.075016 0.
0.654038 0.0750175 0.
0.656039 0.0750192 0.
0.658039 0.0750218 0.
0.660039 0.0750243 0.
0.662039 0.0750265 0.
0.66404 0.0750281 0.
0.666041 0.0750297 0.
0.668042 0.0750313 0.
0.670044 0.075033 0.
0.672045 0.0750348 0.
0.674046 0.0750372 0.
0.676048 0.0750397 0.
0.678049 0.0750423 0.
0.680049 0.075046 0.
0.682048 0.0750498 0.
0.684049 0.0750531 0.
0.68605 0.0750559 0.
0.688051 0.0750586 0.
0.690051 0.0750618 0.
0.692052 0.0750652 0.
0.694052 0.0750686 0.
0.696051 0.0750721 0.
0.698051 0.0750756 0.
0.499949 0.0770717 0.
0.50195 0.0770683 0.
0.503951 0.0770645 0.
0.505951 0.0770609 0.
0.507951 0.0770577 0.
0.509951 0.0770545 0.
0.511951 0.0770513 0.
0.513951 0.0770482 0.
0.515951 0.0770451 0.
0.517952 0.0770424 0.
0.519953 0.0770399 0.
0.521953 0.0770375 0.
0.523954 0.0770353 0.
0.525954 0.0770331 0.
0.527955 0.077031 0.
0.529955 0.0770287 0.
0.531956 0.0770264 0.
0.533957 0.0770241 0.
0.535958 0.077022 0.
0.537959 0.0770198 0.
0.539959 0.0770179 0.
0.54196 0.0770163 0.
0.54396 0.0770147 0.
0.545961 0.0770129 0.
0.547961 0.0770111 0.
0.549962 0.0770093 0.
0.551963 0.0770075 0.
0.553965 0.0770058 0.
0.555966 0.0770041 0.
0.557967 0.077003 0.
0.559969 0.0770018 0.
0.56197 0.0770004 0.
0.563971 0.0769988 0.
0.565972 0.0769972 0.
0.567973 0.076996 0.
0.569974 0.076995 0.
0.571975 0.076994 0.
0.573977 0.0769926 0.
0.575978 0.0769912 0.
0.577979 0.0769897 0.
0.579981 0.0769891 0.
0.581983 0.0769885 0.
0.583984 0.0769877 0.
0.585986 0.0769867 0.
0.587988 0.0769856 0.
0.589989 0.0769849 0.
0.59199 0.0769846 0.
0.593992 0.0769842 0.
0.595994 0.0769833 0.
0.597997 0.0769823 0.
0.599999 0.0769813 0.
0.602001 0.0769815 0.
0.604003 0.0769817 0.
0.606005 0.076982 0.
0.608006 0.0769827 0.
0.610006 0.0769835 0.
0.612008 0.0769843 0.
0.61401 0.0769851 0.
0.616012 0.0769858 0.
0.618013 0.076987 0.
0.620015 0.0769883 0.
0.622016 0.0769895 0.
0.624017 0.076991 0.
0.626019 0.0769926 0.
0.62802 0.0769941 0.
0.630021 0.0769956 0.
0.632022 0.0769971 0.
0.634023 0.0769986 0.
0.636024 0.0770001 0.
0.638025 0.0770017 0.
0.640027 0.0770036 0.
0.642028 0.0770056 0.
0.644029 0.0770077 0.
0.64603 0.0770099 0.
0.648032 0.0770121 0.
0.650033 0.0770143 0.
0.652034 0.077016 0.
0.654035 0.0770177 0.
0.656036 0.0770195 0.
0.658036 0.0770216 0.
0.660036 0.0770237 0.
0.662037 0.0770256 0.
0.664038 0.0770271 0.
0.666039 0.0770287 0.
0.66804 0.0770306 0.
0.670041 0.0770328 0.
0.672042 0.0770349 0.
0.674043 0.0770375 0.
0.676043 0.0770401 0.
0.678044 0.0770428 0.
0.680044 0.0770461 0.
0.682045 0.0770494 0.
0.684046 0.0770526 0.
0.686047 0.0770555 0.
0.688047 0.0770584 0.
0.690048 0.0770616 0.
0.692048 0.0770652 0.
0.694048 0.0770687 0.
0.696048 0.0770722 0.
0.698048 0.0770757 0.
0.499952 0.0790704 0.
0.501953 0.0790673 0.
0.503953 0.0790641 0.
0.505954 0.0790608 0.
0.507954 0.0790577 0.
0.509955 0.0790545 0.
0.511955 0.0790516 0.
0.513955 0.079049 0.
0.515955 0.0790463 0.
0.517955 0.0790434 0.
0.519955 0.0790403 0.
0.521956 0.0790372 0.
0.523956 0.0790351 0.
0.525957 0.0790331 0.
0.527957 0.0790311 0.
0.529958 0.0790285 0.
0.531958 0.0790259 0.
0.533959 0.0790235 0.
0.53596 0.0790214 0.
0.537961 0.0790194 0.
0.539962 0.0790174 0.
0.541962 0.0790155 0.
0.543962 0.0790136 0.
0.545962 0.0790121 0.
0.547963 0.0790107 0.
0.549964 0.0790094 0.
0.551965 0.0790075 0.
0.553967 0.0790056 0.
0.555968 0.0790038 0.
0.557969 0.0790026 0.
0.55997 0.0790015 0.
0.561971 0.0790001 0.
0.563972 0.0789986 0.
0.565973 0.078997 0.
0.567974 0.0789957 0.
0.569976 0.0789944 0.
0.571977 0.0789931 0.
0.573978 0.0789918 0.
0.575979 0.0789905 0.
0.57798 0.0789893 0.
0.579982 0.0789887 0.
0.581983 0.0789881 0.
0.583985 0.0789874 0.
0.585987 0.0789864 0.
0.587989 0.0789854 0.
0.58999 0.0789846 0.
0.591991 0.078984 0.
0.593992 0.0789834 0.
0.595995 0.0789826 0.
0.597997 0.0789817 0.
0.599999 0.0789809 0.
0.602001 0.0789811 0.
0.604003 0.0789814 0.
0.606004 0.0789818 0.
0.608005 0.0789826 0.
0.610006 0.0789833 0.
0.612007 0.0789839 0.
0.614009 0.0789844 0.
0.616011 0.0789848 0.
0.618012 0.078986 0.
0.620013 0.0789875 0.
0.622014 0.0789891 0.
0.624016 0.0789906 0.
0.626017 0.0789921 0.
0.628019 0.0789937 0.
0.630019 0.0789952 0.
0.63202 0.0789968 0.
0.634021 0.0789982 0.
0.636022 0.0789995 0.
0.638023 0.0790008 0.
0.640024 0.0790029 0.
0.642025 0.0790055 0.
0.644026 0.0790081 0.
0.646027 0.0790102 0.
0.648029 0.0790121 0.
0.650031 0.0790141 0.
0.652031 0.079016 0.
0.654032 0.0790179 0.
0.656032 0.0790197 0.
0.658033 0.0790214 0.
0.660033 0.0790231 0.
0.662034 0.0790247 0.
0.664036 0.0790262 0.
0.666037 0.0790277 0.
0.668038 0.0790299 0.
0.670038 0.0790325 0.
0.672039 0.079035 0.
0.674039 0.0790378 0.
0.676039 0.0790405 0.
0.678039 0.0790432 0.
0.68004 0.0790461 0.
0.682041 0.0790491 0.
0.684042 0.079052 0.
0.686043 0.0790551 0.
0.688044 0.0790581 0.
0.690045 0.0790615 0.
0.692045 0.0790652 0.
0.694045 0.0790688 0.
0.696045 0.0790723 0.
0.698045 0.0790758 0.
0.499955 0.0810702 0.
0.501956 0.0810669 0.
0.503957 0.0810635 0.
0.505957 0.0810603 0.
0.507958 0.0810575 0.
0.509958 0.0810547 0.
0.511958 0.081052 0.
0.513958 0.0810495 0.
0.515958 0.0810469 0.
0.517958 0.0810439 0.
0.519958 0.0810406 0.
0.521959 0.0810373 0.
0.523959 0.0810352 0.
0.525959 0.0810332 0.
0.52796 0.0810312 0.
0.52996 0.0810284 0.
0.53196 0.0810256 0.
0.533961 0.0810231 0.
0.535962 0.0810211 0.
0.537963 0.0810191 0.
0.539964 0.0810171 0.
0.541964 0.081015 0.
0.543963 0.0810129 0.
0.545964 0.0810115 0.
0.547965 0.0810103 0.
0.549966 0.0810091 0.
0.551967 0.0810072 0.
0.553969 0.0810052 0.
0.55597 0.0810034 0.
0.557971 0.0810022 0.
0.559972 0.081001 0.
0.561973 0.0809997 0.
0.563974 0.0809983 0.
0.565975 0.0809969 0.
0.567976 0.0809955 0.
0.569977 0.080994 0.
0.571978 0.0809926 0.
0.573979 0.0809914 0.
0.57598 0.0809901 0.
0.577981 0.0809889 0.
0.579983 0.0809883 0.
0.581984 0.0809877 0.
0.583986 0.080987 0.
0.585987 0.0809861 0.
0.587989 0.0809852 0.
0.589991 0.0809844 0.
0.591992 0.0809836 0.
0.593993 0.0809829 0.
0.595995 0.0809821 0.
0.597997 0.0809813 0.
0.599999 0.0809806 0.
0.602001 0.080981 0.
0.604002 0.0809814 0.
0.606003 0.0809818 0.
0.608004 0.0809824 0.
0.610005 0.0809831 0.
0.612006 0.0809835 0.
0.614008 0.0809838 0.
0.616009 0.080984 0.
0.618011 0.0809852 0.
0.620012 0.0809869 0.
0.622013 0.0809885 0.
0.624014 0.0809901 0.
0.626015 0.0809917 0.
0.628017 0.0809933 0.
0.630018 0.080995 0.
0.632018 0.0809966 0.
0.634019 0.0809981 0.
0.63602 0.0809992 0.
0.638021 0.0810003 0.
0.640022 0.0810024 0.
0.642022 0.0810054 0.
0.644023 0.0810083 0.
0.646025 0.0810102 0.
0.648026 0.0810119 0.
0.650028 0.0810135 0.
0.652029 0.0810157 0.
0.654029 0.0810179 0.
0.65603 0.0810198 0.
0.658031 0.0810212 0.
0.660031 0.0810225 0.
0.662032 0.081024 0.
0.664033 0.0810257 0.
0.666034 0.0810274 0.
0.668035 0.0810299 0.
0.670035 0.0810327 0.
0.672036 0.0810355 0.
0.674036 0.0810381 0.
0.676036 0.0810407 0.
0.678036 0.0810433 0.
0.680037 0.0810462 0.
0.682038 0.0810491 0.
0.684039 0.081052 0.
0.68604 0.081055 0.
0.68804 0.0810579 0.
0.69004 0.0810613 0.
0.692041 0.081065 0.
0.694041 0.0810688 0.
0.696041 0.0810723 0.
0.698041 0.0810757 0.
0.499959 0.0830705 0.
0.50196 0.0830667 0.
0.503961 0.0830629 0.
0.505961 0.0830594 0.
0.507961 0.0830572 0.
0.509962 0.083055 0.
0.511962 0.0830526 0.
0.513962 0.0830498 0.
0.515961 0.083047 0.
0.517961 0.083044 0.
0.519962 0.0830409 0.
0.521962 0.0830378 0.
0.523962 0.0830356 0.
0.525962 0.0830335 0.
0.527962 0.0830313 0.
0.529963 0.0830283 0.
0.531963 0.0830254 0.
0.533963 0.0830228 0.
0.535964 0.0830209 0.
0.537965 0.083019 0.
0.539965 0.083017 0.
0.541965 0.0830148 0.
0.543965 0.0830127 0.
0.545966 0.0830112 0.
0.547967 0.0830099 0.
0.549968 0.0830085 0.
0.551969 0.0830067 0.
0.553971 0.0830047 0.
0.555972 0.0830029 0.
0.557973 0.0830016 0.
0.559975 0.0830003 0.
0.561976 0.0829991 0.
0.563976 0.0829979 0.
0.565977 0.0829967 0.
0.567978 0.0829954 0.
0.569978 0.0829941 0.
0.571979 0.0829928 0.
0.57398 0.0829913 0.
0.575981 0.0829898 0.
0.577983 0.0829884 0.
0.579984 0.0829879 0.
0.581985 0.0829873 0.
0.583986 0.0829867 0.
0.585988 0.0829859 0.
0.587989 0.0829851 0.
0.589991 0.0829843 0.
0.591992 0.0829834 0.
0.593994 0.0829825 0.
0.595995 0.0829818 0.
0.597997 0.0829811 0.
0.599999 0.0829804 0.
0.602 0.082981 0.
0.604002 0.0829816 0.
0.606003 0.0829821 0.
0.608004 0.0829824 0.
0.610005 0.0829827 0.
0.612006 0.082983 0.
0.614007 0.0829833 0.
0.616009 0.0829836 0.
0.61801 0.0829847 0.
0.620011 0.0829862 0.
0.622012 0.0829877 0.
0.624013 0.0829894 0.
0.626014 0.0829912 0.
0.628015 0.0829931 0.
0.630016 0.0829948 0.
0.632016 0.0829966 0.
0.634017 0.0829981 0.
0.636018 0.082999 0.
0.638019 0.083 0.
0.64002 0.0830022 0.
0.642021 0.0830053 0.
0.644021 0.0830084 0.
0.646023 0.0830101 0.
0.648024 0.0830114 0.
0.650025 0.0830126 0.
0.652026 0.0830151 0.
0.654027 0.0830176 0.
0.656028 0.0830198 0.
0.658029 0.0830208 0.
0.66003 0.0830219 0.
0.662031 0.0830235 0.
0.664031 0.0830256 0.
0.666031 0.0830277 0.
0.668031 0.0830305 0.
0.670032 0.0830334 0.
0.672032 0.0830364 0.
0.674033 0.0830386 0.
0.676034 0.0830407 0.
0.678034 0.0830429 0.
0.680034 0.0830462 0.
0.682035 0.0830494 0.
0.684035 0.0830525 0.
0.686035 0.0830552 0.
0.688035 0.0830579 0.
0.690036 0.0830611 0.
0.692036 0.0830649 0.
0.694036 0.0830686 0.
0.696037 0.0830721 0.
0.698038 0.0830755 0.
0.499963 0.0850708 0.
0.501964 0.0850666 0.
0.503964 0.0850623 0.
0.505965 0.0850586 0.
0.507965 0.085057 0.
0.509965 0.0850553 0.
0.511965 0.0850531 0.
0.513965 0.0850501 0.
0.515965 0.085047 0.
0.517965 0.085044 0.
0.519965 0.0850412 0.
0.521965 0.0850383 0.
0.523965 0.085036 0.
0.525965 0.0850337 0.
0.527965 0.0850313 0.
0.529965 0.0850283 0.
0.531965 0.0850252 0.
0.533965 0.0850225 0.
0.535966 0.0850207 0.
0.537966 0.0850189 0.
0.539966 0.0850169 0.
0.541966 0.0850147 0.
0.543966 0.0850125 0.
0.545967 0.0850109 0.
0.547969 0.0850094 0.
0.54997 0.085008 0.
0.551971 0.0850061 0.
0.553972 0.0850043 0.
0.555974 0.0850025 0.
0.557975 0.0850011 0.
0.559977 0.0849997 0.
0.561978 0.0849985 0.
0.563979 0.0849975 0.
0.565979 0.0849964 0.
0.56798 0.0849953 0.
0.56998 0.0849941 0.
0.57198 0.084993 0.
0.573981 0.0849913 0.
0.575983 0.0849896 0.
0.577984 0.0849879 0.
0.579985 0.0849874 0.
0.581985 0.084987 0.
0.583986 0.0849864 0.
0.585988 0.0849857 0.
0.587989 0.0849851 0.
0.589991 0.0849842 0.
0.591993 0.0849832 0.
0.593994 0.0849822 0.
0.595996 0.0849815 0.
0.597997 0.0849809 0.
0.599998 0.0849803 0.
0.602 0.0849811 0.
0.604001 0.0849818 0.
0.606002 0.0849823 0.
0.608003 0.0849823 0.
0.610004 0.0849823 0.
0.612005 0.0849824 0.
0.614007 0.0849828 0.
0.616008 0.0849831 0.
0.618009 0.0849841 0.
0.620009 0.0849855 0.
0.62201 0.0849868 0.
0.624011 0.0849888 0.
0.626012 0.0849908 0.
0.628013 0.0849928 0.
0.630014 0.0849947 0.
0.632015 0.0849966 0.
0.634015 0.084998 0.
0.636016 0.0849989 0.
0.638017 0.0849997 0.
0.640018 0.0850019 0.
0.642019 0.0850052 0.
0.64402 0.0850085 0.
0.64602 0.0850099 0.
0.648021 0.0850109 0.
0.650022 0.0850118 0.
0.652023 0.0850146 0.
0.654025 0.0850174 0.
0.656026 0.0850197 0.
0.658027 0.0850205 0.
0.660029 0.0850213 0.
0.662029 0.0850229 0.
0.664028 0.0850255 0.
0.666027 0.085028 0.
0.668027 0.085031 0.
0.670028 0.0850342 0.
0.672029 0.0850373 0.
0.67403 0.0850391 0.
0.676031 0.0850407 0.
0.678032 0.0850426 0.
0.680032 0.0850462 0.
0.682031 0.0850497 0.
0.684031 0.0850529 0.
0.686031 0.0850554 0.
0.688031 0.0850578 0.
0.690031 0.085061 0.
0.692031 0.0850647 0.
0.694031 0.0850684 0.
0.696032 0.0850718 0.
0.698034 0.0850752 0.
0.499968 0.0870705 0.
0.501968 0.0870668 0.
0.503968 0.0870631 0.
0.505968 0.0870597 0.
0.507968 0.0870576 0.
0.509967 0.0870555 0.
0.511967 0.0870529 0.
0.513968 0.0870497 0.
0.515968 0.0870465 0.
0.517968 0.0870438 0.
0.519968 0.0870413 0.
0.521968 0.0870388 0.
0.523968 0.0870363 0.
0.525968 0.0870337 0.
0.527968 0.0870311 0.
0.529968 0.0870283 0.
0.531968 0.0870256 0.
0.533968 0.087023 0.
0.535968 0.0870208 0.
0.537969 0.0870186 0.
0.539969 0.0870163 0.
0.541969 0.0870139 0.
0.543969 0.0870115 0.
0.54597 0.0870099 0.
0.547971 0.0870086 0.
0.549973 0.0870073 0.
0.551974 0.0870058 0.
0.553975 0.0870042 0.
0.555975 0.0870027 0.
0.557977 0.0870011 0.
0.559978 0.0869995 0.
0.561979 0.0869983 0.
0.563979 0.0869974 0.
0.56598 0.0869965 0.
0.567981 0.0869953 0.
0.569981 0.086994 0.
0.571982 0.0869927 0.
0.573983 0.0869911 0.
0.575984 0.0869895 0.
0.577985 0.086988 0.
0.579986 0.0869873 0.
0.581986 0.0869867 0.
0.583987 0.086986 0.
0.585989 0.086985 0.
0.58799 0.0869841 0.
0.589992 0.0869834 0.
0.591993 0.0869827 0.
0.593994 0.0869821 0.
0.595996 0.0869816 0.
0.597997 0.086981 0.
0.599998 0.0869805 0.
0.601999 0.0869808 0.
0.604 0.0869811 0.
0.606001 0.0869813 0.
0.608003 0.0869816 0.
0.610004 0.0869819 0.
0.612005 0.0869823 0.
0.614006 0.0869828 0.
0.616007 0.0869833 0.
0.618007 0.0869844 0.
0.620008 0.0869858 0.
0.622008 0.0869873 0.
0.624009 0.0869888 0.
0.62601 0.0869904 0.
0.628011 0.086992 0.
0.630012 0.0869939 0.
0.632013 0.0869957 0.
0.634014 0.0869973 0.
0.636015 0.0869985 0.
0.638015 0.0869996 0.
0.640016 0.0870019 0.
0.642017 0.0870049 0.
0.644018 0.087008 0.
0.646019 0.0870094 0.
0.648019 0.0870104 0.
0.65002 0.0870114 0.
0.652021 0.0870138 0.
0.654022 0.0870162 0.
0.656023 0.0870183 0.
0.658024 0.0870195 0.
0.660024 0.0870208 0.
0.662025 0.0870226 0.
0.664025 0.0870251 0.
0.666024 0.0870276 0.
0.668025 0.0870305 0.
0.670025 0.0870335 0.
0.672025 0.0870365 0.
0.674026 0.0870386 0.
0.676027 0.0870405 0.
0.678027 0.0870426 0.
0.680028 0.0870461 0.
0.682028 0.0870496 0.
0.684028 0.0870528 0.
0.686028 0.0870554 0.
0.688028 0.0870581 0.
0.690028 0.0870612 0.
0.692028 0.0870648 0.
0.694028 0.0870684 0.
0.696029 0.0870719 0.
0.69803 0.0870753 0.
0.499973 0.0890702 0.
0.501973 0.089067 0.
0.503972 0.0890638 0.
0.505971 0.0890608 0.
0.507971 0.0890582 0.
0.50997 0.0890556 0.
0.51197 0.0890528 0.
0.513971 0.0890494 0.
0.515972 0.089046 0.
0.517972 0.0890434 0.
0.519971 0.0890414 0.
0.521971 0.0890393 0.
0.523971 0.0890366 0.
0.525971 0.0890337 0.
0.527971 0.0890309 0.
0.529971 0.0890284 0.
0.531971 0.0890259 0.
0.533971 0.0890234 0.
0.535971 0.0890209 0.
0.537971 0.0890183 0.
0.539971 0.0890157 0.
0.541971 0.0890131 0.
0.543972 0.0890105 0.
0.545973 0.089009 0.
0.547974 0.0890078 0.
0.549976 0.0890066 0.
0.551976 0.0890054 0.
0.553977 0.0890042 0.
0.555977 0.0890028 0.
0.557978 0.0890011 0.
0.559979 0.0889994 0.
0.561979 0.0889981 0.
0.56398 0.0889973 0.
0.565981 0.0889965 0.
0.567982 0.0889952 0.
0.569982 0.0889938 0.
0.571983 0.0889924 0.
0.573984 0.0889909 0.
0.575985 0.0889894 0.
0.577986 0.088988 0.
0.579987 0.0889872 0.
0.581988 0.0889864 0.
0.583989 0.0889855 0.
0.58599 0.0889843 0.
0.587992 0.0889832 0.
0.589993 0.0889825 0.
0.591994 0.0889823 0.
0.593994 0.0889821 0.
0.595995 0.0889817 0.
0.597996 0.0889812 0.
0.599998 0.0889806 0.
0.601998 0.0889805 0.
0.603999 0.0889803 0.
0.606001 0.0889803 0.
0.608002 0.0889809 0.
0.610003 0.0889815 0.
0.612004 0.0889821 0.
0.614005 0.0889828 0.
0.616006 0.0889835 0.
0.618006 0.0889847 0.
0.620006 0.0889862 0.
0.622006 0.0889877 0.
0.624007 0.0889888 0.
0.626008 0.08899 0.
0.628009 0.0889912 0.
0.630011 0.088993 0.
0.632012 0.0889949 0.
0.634013 0.0889966 0.
0.636013 0.0889981 0.
0.638014 0.0889996 0.
0.640014 0.0890018 0.
0.642016 0.0890046 0.
0.644017 0.0890075 0.
0.646017 0.0890089 0.
0.648017 0.08901 0.
0.650017 0.089011 0.
0.652018 0.089013 0.
0.654019 0.0890151 0.
0.65602 0.089017 0.
0.65802 0.0890186 0.
0.66002 0.0890202 0.
0.662021 0.0890222 0.
0.664021 0.0890247 0.
0.666022 0.0890272 0.
0.668022 0.08903 0.
0.670022 0.0890329 0.
0.672022 0.0890358 0.
0.674022 0.0890381 0.
0.676022 0.0890403 0.
0.678023 0.0890427 0.
0.680023 0.0890461 0.
0.682024 0.0890494 0.
0.684024 0.0890526 0.
0.686024 0.0890554 0.
0.688024 0.0890583 0.
0.690024 0.0890615 0.
0.692024 0.089065 0.
0.694024 0.0890685 0.
0.696025 0.0890719 0.
0.698026 0.0890754 0.
0.499976 0.09107 0.
0.501975 0.0910672 0.
0.503975 0.0910643 0.
0.505974 0.0910615 0.
0.507974 0.0910588 0.
0.509973 0.0910561 0.
0.511973 0.0910531 0.
0.513973 0.0910497 0.
0.515974 0.0910463 0.
0.517974 0.0910436 0.
0.519974 0.0910413 0.
0.521973 0.091039 0.
0.523973 0.0910364 0.
0.525973 0.0910338 0.
0.527973 0.0910311 0.
0.529974 0.0910287 0.
0.531974 0.0910262 0.
0.533974 0.0910237 0.
0.535974 0.091021 0.
0.537974 0.0910183 0.
0.539974 0.0910156 0.
0.541974 0.0910128 0.
0.543975 0.09101 0.
0.545976 0.0910084 0.
0.547977 0.0910072 0.
0.549978 0.091006 0.
0.551978 0.091005 0.
0.553978 0.0910039 0.
0.555979 0.0910027 0.
0.557979 0.091001 0.
0.55998 0.0909992 0.
0.561981 0.0909979 0.
0.563982 0.0909972 0.
0.565983 0.0909965 0.
0.567983 0.0909953 0.
0.569984 0.0909938 0.
0.571984 0.0909923 0.
0.573985 0.0909907 0.
0.575986 0.0909891 0.
0.577987 0.0909876 0.
0.579988 0.0909868 0.
0.581989 0.090986 0.
0.58399 0.0909851 0.
0.585991 0.0909839 0.
0.587992 0.0909828 0.
0.589993 0.0909822 0.
0.591994 0.0909822 0.
0.593995 0.0909821 0.
0.595995 0.0909815 0.
0.597996 0.0909808 0.
0.599997 0.0909801 0.
0.601998 0.09098 0.
0.603999 0.0909799 0.
0.606 0.0909799 0.
0.608001 0.0909805 0.
0.610002 0.0909811 0.
0.612003 0.0909818 0.
0.614004 0.0909827 0.
0.616005 0.0909836 0.
0.618005 0.090985 0.
0.620005 0.0909865 0.
0.622005 0.0909881 0.
0.624006 0.0909888 0.
0.626007 0.0909894 0.
0.628008 0.0909902 0.
0.630009 0.0909923 0.
0.63201 0.0909944 0.
0.634011 0.0909963 0.
0.636012 0.090998 0.
0.638012 0.0909996 0.
0.640013 0.0910019 0.
0.642014 0.0910045 0.
0.644015 0.0910072 0.
0.646015 0.0910086 0.
0.648015 0.0910098 0.
0.650015 0.091011 0.
0.652016 0.0910125 0.
0.654017 0.091014 0.
0.656017 0.0910157 0.
0.658017 0.0910177 0.
0.660017 0.0910197 0.
0.662018 0.091022 0.
0.664018 0.0910246 0.
0.666019 0.0910272 0.
0.668019 0.0910299 0.
0.670019 0.0910328 0.
0.672019 0.0910356 0.
0.674019 0.091038 0.
0.676019 0.0910402 0.
0.678019 0.0910426 0.
0.68002 0.0910458 0.
0.682021 0.091049 0.
0.684021 0.0910522 0.
0.686022 0.0910553 0.
0.688022 0.0910583 0.
0.690022 0.0910617 0.
0.692021 0.0910653 0.
0.694021 0.0910689 0.
0.696021 0.0910722 0.
0.698022 0.0910755 0.
0.499977 0.0930705 0.
0.501977 0.0930675 0.
0.503977 0.0930647 0.
0.505977 0.0930619 0.
0.507976 0.0930593 0.
0.509976 0.0930567 0.
0.511976 0.0930538 0.
0.513976 0.0930505 0.
0.515976 0.0930472 0.
0.517976 0.093044 0.
0.519976 0.093041 0.
0.521976 0.093038 0.
0.523976 0.0930359 0.
0.525976 0.0930339 0.
0.527976 0.0930318 0.
0.529976 0.0930291 0.
0.531977 0.0930263 0.
0.533977 0.0930236 0.
0.535977 0.0930212 0.
0.537977 0.0930187 0.
0.539977 0.0930159 0.
0.541978 0.0930129 0.
0.543978 0.0930099 0.
0.545979 0.0930082 0.
0.547979 0.0930068 0.
0.54998 0.0930055 0.
0.55198 0.0930045 0.
0.55398 0.0930034 0.
0.555981 0.0930022 0.
0.557981 0.0930006 0.
0.559982 0.0929989 0.
0.561983 0.0929977 0.
0.563984 0.0929971 0.
0.565984 0.0929964 0.
0.567985 0.0929953 0.
0.569985 0.0929938 0.
0.571985 0.0929923 0.
0.573986 0.0929904 0.
0.575987 0.0929884 0.
0.577988 0.0929865 0.
0.579989 0.092986 0.
0.58199 0.0929855 0.
0.583992 0.0929848 0.
0.585992 0.0929838 0.
0.587993 0.0929829 0.
0.589994 0.0929824 0.
0.591994 0.0929822 0.
0.593995 0.0929821 0.
0.595996 0.0929811 0.
0.597996 0.0929799 0.
0.599997 0.0929788 0.
0.601998 0.0929793 0.
0.603999 0.0929798 0.
0.606 0.0929802 0.
0.608 0.0929804 0.
0.610001 0.0929806 0.
0.612001 0.0929812 0.
0.614002 0.0929824 0.
0.616003 0.0929836 0.
0.618004 0.0929851 0.
0.620004 0.0929868 0.
0.622005 0.0929884 0.
0.624006 0.0929886 0.
0.626006 0.0929887 0.
0.628007 0.0929891 0.
0.630008 0.0929917 0.
0.632009 0.0929943 0.
0.634009 0.0929965 0.
0.63601 0.0929982 0.
0.638011 0.0929998 0.
0.640011 0.093002 0.
0.642011 0.0930046 0.
0.644012 0.0930071 0.
0.646012 0.0930086 0.
0.648013 0.0930099 0.
0.650013 0.0930112 0.
0.652014 0.0930122 0.
0.654015 0.0930132 0.
0.656016 0.0930145 0.
0.658015 0.0930168 0.
0.660015 0.0930192 0.
0.662016 0.0930218 0.
0.664016 0.0930246 0.
0.666016 0.0930274 0.
0.668016 0.0930303 0.
0.670016 0.0930332 0.
0.672016 0.0930361 0.
0.674016 0.0930382 0.
0.676017 0.0930402 0.
0.678017 0.0930423 0.
0.680018 0.0930453 0.
0.682018 0.0930483 0.
0.684019 0.0930515 0.
0.686019 0.0930549 0.
0.688019 0.0930583 0.
0.690019 0.0930619 0.
0.692019 0.0930658 0.
0.694019 0.0930696 0.
0.696019 0.0930727 0.
0.698018 0.0930755 0.
0.499977 0.0950705 0.
0.501978 0.0950677 0.
0.503979 0.0950651 0.
0.505979 0.0950624 0.
0.507979 0.0950599 0.
0.509979 0.0950574 0.
0.511979 0.0950546 0.
0.513979 0.0950513 0.
0.515978 0.095048 0.
0.517978 0.0950445 0.
0.519978 0.0950408 0.
0.521978 0.095037 0.
0.523978 0.0950353 0.
0.525978 0.095034 0.
0.527978 0.0950325 0.
0.529979 0.0950294 0.
0.53198 0.0950264 0.
0.53398 0.0950236 0.
0.53598 0.0950213 0.
0.53798 0.0950191 0.
0.53998 0.0950163 0.
0.541981 0.0950131 0.
0.543981 0.0950099 0.
0.545982 0.095008 0.
0.547982 0.0950065 0.
0.549982 0.095005 0.
0.551982 0.095004 0.
0.553982 0.0950029 0.
0.555983 0.0950018 0.
0.557983 0.0950003 0.
0.559984 0.0949987 0.
0.561985 0.0949976 0.
0.563985 0.094997 0.
0.565986 0.0949964 0.
0.567986 0.0949953 0.
0.569986 0.0949939 0.
0.571986 0.0949924 0.
0.573986 0.0949901 0.
0.575987 0.0949877 0.
0.577988 0.0949855 0.
0.57999 0.0949852 0.
0.581992 0.0949849 0.
0.583993 0.0949845 0.
0.585993 0.0949837 0.
0.587994 0.094983 0.
0.589994 0.0949825 0.
0.591995 0.0949823 0.
0.593995 0.094982 0.
0.595996 0.0949807 0.
0.597996 0.0949791 0.
0.599997 0.0949775 0.
0.601998 0.0949785 0.
0.603999 0.0949796 0.
0.606 0.0949804 0.
0.608 0.0949803 0.
0.609999 0.0949801 0.
0.612 0.0949807 0.
0.614 0.0949821 0.
0.616001 0.0949836 0.
0.618002 0.0949853 0.
0.620003 0.094987 0.
0.622005 0.0949887 0.
0.624005 0.0949885 0.
0.626006 0.094988 0.
0.628006 0.094988 0.
0.630007 0.0949911 0.
0.632007 0.0949941 0.
0.634008 0.0949967 0.
0.636009 0.0949984 0.
0.638009 0.095 0.
0.640009 0.0950022 0.
0.642009 0.0950046 0.
0.644009 0.0950071 0.
0.64601 0.0950086 0.
0.64801 0.09501 0.
0.650011 0.0950114 0.
0.652012 0.0950118 0.
0.654013 0.0950123 0.
0.656014 0.0950132 0.
0.658014 0.095016 0.
0.660014 0.0950188 0.
0.662014 0.0950217 0.
0.664014 0.0950247 0.
0.666014 0.0950277 0.
0.668014 0.0950306 0.
0.670013 0.0950336 0.
0.672013 0.0950366 0.
0.674014 0.0950385 0.
0.676014 0.0950402 0.
0.678015 0.095042 0.
0.680015 0.0950449 0.
0.682016 0.0950477 0.
0.684016 0.0950508 0.
0.686017 0.0950545 0.
0.688017 0.0950582 0.
0.690017 0.0950621 0.
0.692017 0.0950662 0.
0.694017 0.0950703 0.
0.696016 0.0950731 0.
0.698015 0.0950755 0.
0.499983 0.0970711 0.
0.501983 0.0970681 0.
0.503982 0.0970652 0.
0.505982 0.0970623 0.
0.507982 0.0970597 0.
0.509982 0.0970572 0.
0.511982 0.0970545 0.
0.513982 0.0970514 0.
0.515981 0.0970483 0.
0.517981 0.0970448 0.
0.519982 0.0970412 0.
0.521982 0.0970375 0.
0.523982 0.0970356 0.
0.525982 0.0970339 0.
0.527982 0.0970322 0.
0.529982 0.0970292 0.
0.531982 0.0970262 0.
0.533983 0.0970234 0.
0.535983 0.0970209 0.
0.537983 0.0970183 0.
0.539983 0.0970158 0.
0.541983 0.0970132 0.
0.543983 0.0970106 0.
0.545983 0.0970087 0.
0.547983 0.0970071 0.
0.549983 0.0970055 0.
0.551983 0.0970042 0.
0.553984 0.0970028 0.
0.555984 0.0970015 0.
0.557984 0.0970002 0.
0.559984 0.0969988 0.
0.561985 0.0969977 0.
0.563986 0.0969969 0.
0.565987 0.0969961 0.
0.567987 0.0969948 0.
0.569988 0.0969932 0.
0.571988 0.0969916 0.
0.573989 0.0969895 0.
0.57599 0.0969873 0.
0.57799 0.0969853 0.
0.579991 0.0969851 0.
0.581991 0.0969848 0.
0.583992 0.0969844 0.
0.585993 0.0969834 0.
0.587993 0.0969825 0.
0.589994 0.0969819 0.
0.591994 0.0969815 0.
0.593995 0.0969812 0.
0.595995 0.0969804 0.
0.597996 0.0969794 0.
0.599997 0.0969783 0.
0.601998 0.0969787 0.
0.603999 0.0969791 0.
0.606 0.0969795 0.
0.608 0.0969796 0.
0.609999 0.0969797 0.
0.611999 0.0969805 0.
0.614 0.096982 0.
0.616 0.0969836 0.
0.618001 0.0969849 0.
0.620002 0.0969859 0.
0.622003 0.0969869 0.
0.624004 0.0969876 0.
0.626004 0.0969882 0.
0.628005 0.096989 0.
0.630005 0.0969919 0.
0.632006 0.0969947 0.
0.634006 0.096997 0.
0.636007 0.0969985 0.
0.638007 0.097 0.
0.640007 0.0970019 0.
0.642008 0.0970039 0.
0.644009 0.097006 0.
0.646009 0.0970075 0.
0.648009 0.0970089 0.
0.650009 0.0970102 0.
0.65201 0.0970113 0.
0.654011 0.0970124 0.
0.656011 0.0970137 0.
0.658011 0.097016 0.
0.660011 0.0970183 0.
0.662011 0.0970211 0.
0.664011 0.0970245 0.
0.66601 0.0970279 0.
0.668011 0.097031 0.
0.670011 0.0970339 0.
0.672011 0.0970368 0.
0.674011 0.0970385 0.
0.676012 0.0970401 0.
0.678012 0.097042 0.
0.680012 0.0970451 0.
0.682013 0.0970483 0.
0.684013 0.0970515 0.
0.686013 0.0970549 0.
0.688013 0.0970583 0.
0.690013 0.0970621 0.
0.692013 0.0970662 0.
0.694013 0.0970703 0.
0.696013 0.0970733 0.
0.698013 0.0970759 0.
0.499989 0.0990713 0.
0.501987 0.0990685 0.
0.503986 0.0990653 0.
0.505985 0.0990622 0.
0.507985 0.0990596 0.
0.509984 0.0990571 0.
0.511984 0.0990544 0.
0.513984 0.0990515 0.
0.515985 0.0990486 0.
0.517985 0.0990452 0.
0.519985 0.0990416 0.
0.521985 0.0990379 0.
0.523985 0.0990358 0.
0.525986 0.0990339 0.
0.527986 0.0990319 0.
0.529985 0.099029 0.
0.531985 0.099026 0.
0.533985 0.0990232 0.
0.535986 0.0990204 0.
0.537986 0.0990176 0.
0.539986 0.0990153 0.
0.541986 0.0990133 0.
0.543985 0.0990113 0.
0.545985 0.0990095 0.
0.547984 0.0990077 0.
0.549984 0.0990059 0.
0.551984 0.0990043 0.
0.553985 0.0990027 0.
0.555985 0.0990012 0.
0.557985 0.0990001 0.
0.559985 0.098999 0.
0.561985 0.0989979 0.
0.563986 0.0989969 0.
0.565987 0.0989958 0.
0.567988 0.0989943 0.
0.569989 0.0989926 0.
0.57199 0.0989908 0.
0.573991 0.0989889 0.
0.575992 0.0989869 0.
0.577992 0.0989851 0.
0.579992 0.0989849 0.
0.581991 0.0989847 0.
0.583991 0.0989843 0.
0.585992 0.0989831 0.
0.587993 0.098982 0.
0.589993 0.0989812 0.
0.591994 0.0989808 0.
0.593994 0.0989804 0.
0.595995 0.09898 0.
0.597995 0.0989796 0.
0.599996 0.0989792 0.
0.601998 0.098979 0.
0.603999 0.0989787 0.
0.606 0.0989785 0.
0.607999 0.0989789 0.
0.609999 0.0989793 0.
0.611999 0.0989803 0.
0.613999 0.098982 0.
0.615999 0.0989836 0.
0.618 0.0989845 0.
0.620001 0.0989848 0.
0.622001 0.0989851 0.
0.624002 0.0989867 0.
0.626003 0.0989883 0.
0.628004 0.0989901 0.
0.630004 0.0989927 0.
0.632004 0.0989952 0.
0.634005 0.0989974 0.
0.636005 0.0989987 0.
0.638005 0.099 0.
0.640005 0.0990016 0.
0.642007 0.0990033 0.
0.644008 0.099005 0.
0.646008 0.0990064 0.
0.648008 0.0990077 0.
0.650007 0.0990089 0.
0.652008 0.0990107 0.
0.654008 0.0990124 0.
0.656008 0.0990142 0.
0.658008 0.099016 0.
0.660008 0.0990178 0.
0.662008 0.0990205 0.
0.664008 0.0990243 0.
0.666007 0.0990282 0.
0.668007 0.0990313 0.
0.670008 0.0990341 0.
0.672009 0.0990369 0.
0.674009 0.0990386 0.
0.676009 0.0990401 0.
0.678009 0.0990419 0.
0.680009 0.0990454 0.
0.68201 0.0990488 0.
0.68401 0.0990522 0.
0.68601 0.0990553 0.
0.68801 0.0990585 0.
0.69001 0.0990622 0.
0.69201 0.0990663 0.
0.69401 0.0990703 0.
0.69601 0.0990734 0.
0.698011 0.0990762 0.
CELLS 5000 10000
1 0
1 1
1 2
1 3
1 4
1 5
1 6
1 7
1 8
1 9
1 10
1 11
1 12
1 13
1 14
1 15
1 16
1 17
1 18
1 19
1 20
1 21
1 22
1 23
1 24
1 25
1 26
1 27
1 28
1 29
1 30
1 31
1 32
1 33
1 34
1 35
1 36
1 37
1 38
1 39
1 40
1 41
1 42
1 43
1 44
1 45
1 46
1 47
1 48
1 49
1 50
1 51
1 52
1 53
1 54
1 55
1 56
1 57
1 58
1 59
1 60
1 61
1 62
1 63
1 64
1 65
1 66
1 67
1 68
1 69
1 70
1 71
1 72
1 73
1 74
1 75
1 76
1 77
1 78
1 79
1 80
1 81
1 82
1 83
1 84
1 85
1 86
1 87
1 88
1 89
1 90
1 91
1 92
1 93
1 94
1 95
1 96
1 97
1 98
1 99
1 100
1 101
1 102
1 103
1 104
1 105
1 106
1 107
1 108
1 109
1 110
1 111
1 112
1 113
1 114
1 115
1 116
1 117
1 118
1 119
1 120
1 121
1 122
1 123
1 124
1 125
1 126
1 127
1 128
1 129
1 130
1 131
1 132
1 133
1 134
1 135
1 136
1 137
1 138
1 139
1 140
1 141
1 142
1 143
1 144
1 145
1 146
1 147
1 148
1 149
1 150
1 151
1 152
1 153
1 154
1 155
1 156
1 157
1 158
1 159
1 160
1 161
1 162
1 163
1 164
1 165
1 166
1 167
1 168
1 169
1 170
1 171
1 172
1 173
1 174
1 175
1 176
1 177
1 178
1 179
1 180
1 181
1 182
1 183
1 184
1 185
1 186
1 187
1 188
1 189
1 190
1 191
1 192
1 193
1 194
1 195
1 196
1 197
1 198
1 199
1 200
1 201
1 202
1 203
1 204
1 205
1 206
1 207
1 208
1 209
1 210
1 211
1 212
1 213
1 214
1 215
1 216
1 217
1 218
1 219
1 220
1 221
1 222
1 223
1 224
1 225
1 226
1 227
1 228
1 229
1 230
1 231
1 232
1 233
1 234
1 235
1 236
1 237
1 238
1 239
1 240
1 241
1 242
1 243
1 244
1 245
1 246
1 247
1 248
1 249
1 250
1 251
1 252
1 253
1 254
1 255
1 256
1 257
1 258
1 259
1 260
1 261
1 262
1 263
1 264
1 265
1 266
1 267
1 268
1 269
1 270
1 271
1 272
1 273
1 274
1 275
1 276
1 277
1 278
1 279
1 280
1 281
1 282
1 283
1 284
1 285
1 286
1 287
1 288
1 289
1 290
1 291
1 292
1 293
1 294
1 295
1 296
1 297
1 298
1 299
1 300
1 301
1 302
1 303
1 304
1 305
1 306
1 307
1 308
1 309
1 310
1 311
1 312
1 313
1 314
1 315
1 316
1 317
1 318
1 319
1 320
1 321
1 322
1 323
1 324
1 325
1 326
1 327
1 328
1 329
1 330
1 331
1 332
1 333
1 334
1 335
1 336
1 337
1 338
1 339
1 340
1 341
1 342
1 343
1 344
1 345
1 346
1 347
1 348
1 349
1 350
1 351
1 352
1 353
1 354
1 355
1 356
1 357
1 358
1 359
1 360
1 361
1 362
1 363
1 364
1 365
1 366
1 367
1 368
1 369
1 370
1 371
1 372
1 373
1 374
1 375
1 376
1 377
1 378
1 379
1 380
1 381
1 382
1 383
1 384
1 385
1 386
1 387
1 388
1 389
1 390
1 391
1 392
1 393
1 394
1 395
1 396
1 397
1 398
1 399
1 400
1 401
1 402
1 403
1 404
1 405
1 406
1 407
1 408
1 409
1 410
1 411
1 412
1 413
1 414
1 415
1 416
1 417
1 418
1 419
1 420
1 421
1 422
1 423
1 424
1 425
1 426
1 427
1 428
1 429
1 430
1 431
1 432
1 433
1 434
1 435
1 436
1 437
1 438
1 439
1 440
1 441
1 442
1 443
1 444
1 445
1 446
1 447
1 448
1 449
1 450
1 451
1 452
1 453
1 454
1 455
1 456
1 457
1 458
1 459
1 460
1 461
1 462
1 463
1 464
1 465
1 466
1 467
1 468
1 469
1 470
1 471
1 472
1 473
1 474
1 475
1 476
1 477
1 478
1 479
1 480
1 481
1 482
1 483
1 484
1 485
1 486
1 487
1 488
1 489
1 490
1 491
1 492
1 493
1 494
1 495
1 496
1 497
1 498
1 499
1 500
1 501
1 502
1 503
1 504
1 505
1 506
1 507
1 508
1 509
1 510
1 511
1 512
1 513
1 514
1 515
1 516
1 517
1 518
1 519
1 520
1 521
1 522
1 523
1 524
1 525
1 526
1 527
1 528
1 529
1 530
1 531
1 532
1 533
1 534
1 535
1 536
1 537
1 538
1 539
1 540
1 541
1 542
1 543
1 544
1 545
1 546
1 547
1 548
1 549
1 550
1 551
1 552
1 553
1 554
1 555
1 556
1 557
1 558
1 559
1 560
1 561
1 562
1 563
1 564
1 565
1 566
1 567
1 568
1 569
1 570
1 571
1 572
1 573
1 574
1 575
1 576
1 577
1 578
1 579
1 580
1 581
1 582
1 583
1 584
1 585
1 586
1 587
1 588
1 589
1 590
1 591
1 592
1 593
1 594
1 595
1 596
1 597
1 598
1 599
1 600
1 601
1 602
1 603
1 604
1 605
1 606
1 607
1 608
1 609
1 610
1 611
1 612
1 613
1 614
1 615
1 616
1 617
1 618
1 619
1 620
1 621
1 622
1 623
1 624
1 625
1 626
1 627
1 628
1 629
1 630
1 631
1 632
1 633
1 634
1 635
1 636
1 637
1 638
1 639
1 640
1 641
1 642
1 643
1 644
1 645
1 646
1 647
1 648
1 649
1 650
1 651
1 652
1 653
1 654
1 655
1 656
1 657
1 658
1 659
1 660
1 661
1 662
1 663
1 664
1 665
1 666
1 667
1 668
1 669
1 670
1 671
1 672
1 673
1 674
1 675
1 676
1 677
1 678
1 679
1 680
1 681
1 682
1 683
1 684
1 685
1 686
1 687
1 688
1 689
1 690
1 691
1 692
1 693
1 694
1 695
1 696
1 697
1 698
1 699
1 700
1 701
1 702
1 703
1 704
1 705
1 706
1 707
1 708
1 709
1 710
1 711
1 712
1 713
1 714
1 715
1 716
1 717
1 718
1 719
1 720
1 721
1 722
1 723
1 724
1 725
1 726
1 727
1 728
1 729
1 730
1 731
1 732
1 733
1 734
1 735
1 736
1 737
1 738
1 739
1 740
1 741
1 742
1 743
1 744
1 745
1 746
1 747
1 748
1 749
1 750
1 751
1 752
1 753
1 754
1 755
1 756
1 757
1 758
1 759
1 760
1 761
1 762
1 763
1 764
1 765
1 766
1 767
1 768
1 769
1 770
1 771
1 772
1 773
1 774
1 775
1 776
1 777
1 778
1 779
1 780
1 781
1 782
1 783
1 784
1 785
1 786
1 787
1 788
1 789
1 790
1 791
1 792
1 793
1 794
1 795
1 796
1 797
1 798
1 799
1 800
1 801
1 802
1 803
1 804
1 805
1 806
1 807
1 808
1 809
1 810
1 811
1 812
1 813
1 814
1 815
1 816
1 817
1 818
1 819
1 820
1 821
1 822
1 823
1 824
1 825
1 826
1 827
1 828
1 829
1 830
1 831
1 832
1 833
1 834
1 835
1 836
1 837
1 838
1 839
1 840
1 841
1 842
1 843
1 844
1 845
1 846
1 847
1 848
1 849
1 850
1 851
1 852
1 853
1 854
1 855
1 856
1 857
1 858
1 859
1 860
1 861
1 862
1 863
1 864
1 865
1 866
1 867
1 868
1 869
1 870
1 871
1 872
1 873
1 874
1 875
1 876
1 877
1 878
1 879
1 880
1 881
1 882
1 883
1 884
1 885
1 886
1 887
1 888
1 889
1 890
1 891
1 892
1 893
1 894
1 895
1 896
1 897
1 898
1 899
1 900
1 901
1 902
1 903
1 904
1 905
1 906
1 907
1 908
1 909
1 910
1 911
1 912
1 913
1 914
1 915
1 916
1 917
1 918
1 919
1 920
1 921
1 922
1 923
1 924
1 925
1 926
1 927
1 928
1 929
1 930
1 931
1 932
1 933
1 934
1 935
1 936
1 937
1 938
1 939
1 940
1 941
1 942
1 943
1 944
1 945
1 946
1 947
1 948
1 949
1 950
1 951
1 952
1 953
1 954
1 955
1 956
1 957
1 958
1 959
1 960
1 961
1 962
1 963
1 964
1 965
1 966
1 967
1 968
1 969
1 970
1 971
1 972
1 973
1 974
1 975
1 976
1 977
1 978
1 979
1 980
1 981
1 982
1 983
1 984
1 985
1 986
1 987
1 988
1 989
1 990
1 991
1 992
1 993
1 994
1 995
1 996
1 997
1 998
1 999
1 1000
1 1001
1 1002
1 1003
1 1004
1 1005
1 1006
1 1007
1 1008
1 1009
1 1010
1 1011
1 1012
1 1013
1 1014
1 1015
1 1016
1 1017
1 1018
1 1019
1 1020
1 1021
1 1022
1 1023
1 1024
1 1025
1 1026
1 1027
1 1028
1 1029
1 1030
1 1031
1 1032
1 1033
1 1034
1 1035
1 1036
1 1037
1 1038
1 1039
1 1040
1 1041
1 1042
1 1043
1 1044
1 1045
1 1046
1 1047
1 1048
1 1049
1 1050
1 1051
1 1052
1 1053
1 1054
1 1055
1 1056
1 1057
1 1058
1 1059
1 1060
1 1061
1 1062
1 1063
1 1064
1 1065
1 1066
1 1067
1 1068
1 1069
1 1070
1 1071
1 1072
1 1073
1 1074
1 1075
1 1076
1 1077
1 1078
1 1079
1 1080
1 1081
1 1082
1 1083
1 1084
1 1085
1 1086
1 1087
1 1088
1 1089
1 1090
1 1091
1 1092
1 1093
1 1094
1 1095
1 1096
1 1097
1 1098
1 1099
1 1100
1 1101
1 1102
1 1103
1 1104
1 1105
1 1106
1 1107
1 1108
1 1109
1 1110
1 1111
1 1112
1 1113
1 1114
1 1115
1 1116
1 1117
1 1118
1 1119
1 1120
1 1121
1 1122
1 1123
1 1124
1 1125
1 1126
1 1127
1 1128
1 1129
1 1130
1 1131
1 1132
1 1133
1 1134
1 1135
1 1136
1 1137
1 1138
1 1139
1 1140
1 1141
1 1142
1 1143
1 1144
1 1145
1 1146
1 1147
1 1148
1 1149
1 1150
1 1151
1 1152
1 1153
1 1154
1 1155
1 1156
1 1157
1 1158
1 1159
1 1160
1 1161
1 1162
1 1163
1 1164
1 1165
1 1166
1 1167
1 1168
1 1169
1 1170
1 1171
1 1172
1 1173
1 1174
1 1175
1 1176
1 1177
1 1178
1 1179
1 1180
1 1181
1 1182
1 1183
1 1184
1 1185
1 1186
1 1187
1 1188
1 1189
1 1190
1 1191
1 1192
1 1193
1 1194
1 1195
1 1196
1 1197
1 1198
1 1199
1 1200
1 1201
1 1202
1 1203
1 1204
1 1205
1 1206
1 1207
1 1208
1 1209
1 1210
1 1211
1 1212
1 1213
1 1214
1 1215
1 1216
1 1217
1 1218
1 1219
1 1220
1 1221
1 1222
1 1223
1 1224
1 1225
1 1226
1 1227
1 1228
1 1229
1 1230
1 1231
1 1232
1 1233
1 1234
1 1235
1 1236
1 1237
1 1238
1 1239
1 1240
1 1241
1 1242
1 1243
1 1244
1 1245
1 1246
1 1247
1 1248
1 1249
1 1250
1 1251
1 1252
1 1253
1 1254
1 1255
1 1256
1 1257
1 1258
1 1259
1 1260
1 1261
1 1262
1 1263
1 1264
1 1265
1 1266
1 1267
1 1268
1 1269
1 1270
1 1271
1 1272
1 1273
1 1274
1 1275
1 1276
1 1277
1 1278
1 1279
1 1280
1 1281
1 1282
1 1283
1 1284
1 1285
1 1286
1 1287
1 1288
1 1289
1 1290
1 1291
1 1292
1 1293
1 1294
1 1295
1 1296
1 1297
1 1298
1 1299
1 1300
1 1301
1 1302
1 1303
1 1304
1 1305
1 1306
1 1307
1 1308
1 1309
1 1310
1 1311
1 1312
1 1313
1 1314
1 1315
1 1316
1 1317
1 1318
1 1319
1 1320
1 1321
1 1322
1 1323
1 1324
1 1325
1 1326
1 1327
1 1328
1 1329
1 1330
1 1331
1 1332
1 1333
1 1334
1 1335
1 1336
1 1337
1 1338
1 1339
1 1340
1 1341
1 1342
1 1343
1 1344
1 1345
1 1346
1 1347
1 1348
1 1349
1 1350
1 1351
1 1352
1 1353
1 1354
1 1355
1 1356
1 1357
1 1358
1 1359
1 1360
1 1361
1 1362
1 1363
1 1364
1 1365
1 1366
1 1367
1 1368
1 1369
1 1370
1 1371
1 1372
1 1373
1 1374
1 1375
1 1376
1 1377
1 1378
1 1379
1 1380
1 1381
1 1382
1 1383
1 1384
1 1385
1 1386
1 1387
1 1388
1 1389
1 1390
1 1391
1 1392
1 1393
1 1394
1 1395
1 1396
1 1397
1 1398
1 1399
1 1400
1 1401
1 1402
1 1403
1 1404
1 1405
1 1406
1 1407
1 1408
1 1409
1 1410
1 1411
1 1412
1 1413
1 1414
1 1415
1 1416
1 1417
1 1418
1 1419
1 1420
1 1421
1 1422
1 1423
1 1424
1 1425
1 1426
1 1427
1 1428
1 1429
1 1430
1 1431
1 1432
1 1433
1 1434
1 1435
1 1436
1 1437
1 1438
1 1439
1 1440
1 1441
1 1442
1 1443
1 1444
1 1445
1 1446
1 1447
1 1448
1 1449
1 1450
1 1451
1 1452
1 1453
1 1454
1 1455
1 1456
1 1457
1 1458
1 1459
1 1460
1 1461
1 1462
1 1463
1 1464
1 1465
1 1466
1 1467
1 1468
1 1469
1 1470
1 1471
1 1472
1 1473
1 1474
1 1475
1 1476
1 1477
1 1478
1 1479
1 1480
1 1481
1 1482
1 1483
1 1484
1 1485
1 1486
1 1487
1 1488
1 1489
1 1490
1 1491
1 1492
1 1493
1 1494
1 1495
1 1496
1 1497
1 1498
1 1499
1 1500
1 1501
1 1502
1 1503
1 1504
1 1505
1 1506
1 1507
1 1508
1 1509
1 1510
1 1511
1 1512
1 1513
1 1514
1 1515
1 1516
1 1517
1 1518
1 1519
1 1520
1 1521
1 1522
1 1523
1 1524
1 1525
1 1526
1 1527
1 1528
1 1529
1 1530
1 1531
1 1532
1 1533
1 1534
1 1535
1 1536
1 1537
1 1538
1 1539
1 1540
1 1541
1 1542
1 1543
1 1544
1 1545
1 1546
1 1547
1 1548
1 1549
1 1550
1 1551
1 1552
1 1553
1 1554
1 1555
1 1556
1 1557
1 1558
1 1559
1 1560
1 1561
1 1562
1 1563
1 1564
1 1565
1 1566
1 1567
1 1568
1 1569
1 1570
1 1571
1 1572
1 1573
1 1574
1 1575
1 1576
1 1577
1 1578
1 1579
1 1580
1 1581
1 1582
1 1583
1 1584
1 1585
1 1586
1 1587
1 1588
1 1589
1 1590
1 1591
1 1592
1 1593
1 1594
1 1595
1 1596
1 1597
1 1598
1 1599
1 1600
1 1601
1 1602
1 1603
1 1604
1 1605
1 1606
1 1607
1 1608
1 1609
1 1610
1 1611
1 1612
1 1613
1 1614
1 1615
1 1616
1 1617
1 1618
1 1619
1 1620
1 1621
1 1622
1 1623
1 1624
1 1625
1 1626
1 1627
1 1628
1 1629
1 1630
1 1631
1 1632
1 1633
1 1634
1 1635
1 1636
1 1637
1 1638
1 1639
1 1640
1 1641
1 1642
1 1643
1 1644
1 1645
1 1646
1 1647
1 1648
1 1649
1 1650
1 1651
1 1652
1 1653
1 1654
1 1655
1 1656
1 1657
1 1658
1 1659
1 1660
1 1661
1 1662
1 1663
1 1664
1 1665
1 1666
1 1667
1 1668
1 1669
1 1670
1 1671
1 1672
1 1673
1 1674
1 1675
1 1676
1 1677
1 1678
1 1679
1 1680
1 1681
1 1682
1 1683
1 1684
1 1685
1 1686
1 1687
1 1688
1 1689
1 1690
1 1691
1 1692
1 1693
1 1694
1 1695
1 1696
1 1697
1 1698
1 1699
1 1700
1 1701
1 1702
1 1703
1 1704
1 1705
1 1706
1 1707
1 1708
1 1709
1 1710
1 1711
1 1712
1 1713
1 1714
1 1715
1 1716
1 1717
1 1718
1 1719
1 1720
1 1721
1 1722
1 1723
1 1724
1 1725
1 1726
1 1727
1 1728
1 1729
1 1730
1 1731
1 1732
1 1733
1 1734
1 1735
1 1736
1 1737
1 1738
1 1739
1 1740
1 1741
1 1742
1 1743
1 1744
1 1745
1 1746
1 1747
1 1748
1 1749
1 1750
1 1751
1 1752
1 1753
1 1754
1 1755
1 1756
1 1757
1 1758
1 1759
1 1760
1 1761
1 1762
1 1763
1 1764
1 1765
1 1766
1 1767
1 1768
1 1769
1 1770
1 1771
1 1772
1 1773
1 1774
1 1775
1 1776
1 1777
1 1778
1 1779
1 1780
1 1781
1 1782
1 1783
1 1784
1 1785
1 1786
1 1787
1 1788
1 1789
1 1790
1 1791
1 1792
1 1793
1 1794
1 1795
1 1796
1 1797
1 1798
1 1799
1 1800
1 1801
1 1802
1 1803
1 1804
1 1805
1 1806
1 1807
1 1808
1 1809
1 1810
1 1811
1 1812
1 1813
1 1814
1 1815
1 1816
1 1817
1 1818
1 1819
1 1820
1 1821
1 1822
1 1823
1 1824
1 1825
1 1826
1 1827
1 1828
1 1829
1 1830
1 1831
1 1832
1 1833
1 1834
1 1835
1 1836
1 1837
1 1838
1 1839
1 1840
1 1841
1 1842
1 1843
1 1844
1 1845
1 1846
1 1847
1 1848
1 1849
1 1850
1 1851
1 1852
1 1853
1 1854
1 1855
1 1856
1 1857
1 1858
1 1859
1 1860
1 1861
1 1862
1 1863
1 1864
1 1865
1 1866
1 1867
1 1868
1 1869
1 1870
1 1871
1 1872
1 1873
1 1874
1 1875
1 1876
1 1877
1 1878
1 1879
1 1880
1 1881
1 1882
1 1883
1 1884
1 1885
1 1886
1 1887
1 1888
1 1889
1 1890
1 1891
1 1892
1 1893
1 1894
1 1895
1 1896
1 1897
1 1898
1 1899
1 1900
1 1901
1 1902
1 1903
1 1904
1 1905
1 1906
1 1907
1 1908
1 1909
1 1910
1 1911
1 1912
1 1913
1 1914
1 1915
1 1916
1 1917
1 1918
1 1919
1 1920
1 1921
1 1922
1 1923
1 1924
1 1925
1 1926
1 1927
1 1928
1 1929
1 1930
1 1931
1 1932
1 1933
1 1934
1 1935
1 1936
1 1937
1 1938
1 1939
1 1940
1 1941
1 1942
1 1943
1 1944
1 1945
1 1946
1 1947
1 1948
1 1949
1 1950
1 1951
1 1952
1 1953
1 1954
1 1955
1 1956
1 1957
1 1958
1 1959
1 1960
1 1961
1 1962
1 1963
1 1964
1 1965
1 1966
1 1967
1 1968
1 1969
1 1970
1 1971
1 1972
1 1973
1 1974
1 1975
1 1976
1 1977
1 1978
1 1979
1 1980
1 1981
1 1982
1 1983
1 1984
1 1985
1 1986
1 1987
1 1988
1 1989
1 1990
1 1991
1 1992
1 1993
1 1994
1 1995
1 1996
1 1997
1 1998
1 1999
1 2000
1 2001
1 2002
1 2003
1 2004
1 2005
1 2006
1 2007
1 2008
1 2009
1 2010
1 2011
1 2012
1 2013
1 2014
1 2015
1 2016
1 2017
1 2018
1 2019
1 2020
1 2021
1 2022
1 2023
1 2024
1 2025
1 2026
1 2027
1 2028
1 2029
1 2030
1 2031
1 2032
1 2033
1 2034
1 2035
1 2036
1 2037
1 2038
1 2039
1 2040
1 2041
1 2042
1 2043
1 2044
1 2045
1 2046
1 2047
1 2048
1 2049
1 2050
1 2051
1 2052
1 2053
1 2054
1 2055
1 2056
1 2057
1 2058
1 2059
1 2060
1 2061
1 2062
1 2063
1 2064
1 2065
1 2066
1 2067
1 2068
1 2069
1 2070
1 2071
1 2072
1 2073
1 2074
1 2075
1 2076
1 2077
1 2078
1 2079
1 2080
1 2081
1 2082
1 2083
1 2084
1 2085
1 2086
1 2087
1 2088
1 2089
1 2090
1 2091
1 2092
1 2093
1 2094
1 2095
1 2096
1 2097
1 2098
1 2099
1 2100
1 2101
1 2102
1 2103
1 2104
1 2105
1 2106
1 2107
1 2108
1 2109
1 2110
1 2111
1 2112
1 2113
1 2114
1 2115
1 2116
1 2117
1 2118
1 2119
1 2120
1 2121
1 2122
1 2123
1 2124
1 2125
1 2126
1 2127
1 2128
1 2129
1 2130
1 2131
1 2132
1 2133
1 2134
1 2135
1 2136
1 2137
1 2138
1 2139
1 2140
1 2141
1 2142
1 2143
1 2144
1 2145
1 2146
1 2147
1 2148
1 2149
1 2150
1 2151
1 2152
1 2153
1 2154
1 2155
1 2156
1 2157
1 2158
1 2159
1 2160
1 2161
1 2162
1 2163
1 2164
1 2165
1 2166
1 2167
1 2168
1 2169
1 2170
1 2171
1 2172
1 2173
1 2174
1 2175
1 2176
1 2177
1 2178
1 2179
1 2180
1 2181
1 2182
1 2183
1 2184
1 2185
1 2186
1 2187
1 2188
1 2189
1 2190
1 2191
1 2192
1 2193
1 2194
1 2195
1 2196
1 2197
1 2198
1 2199
1 2200
1 2201
1 2202
1 2203
1 2204
1 2205
1 2206
1 2207
1 2208
1 2209
1 2210
1 2211
1 2212
1 2213
1 2214
1 2215
1 2216
1 2217
1 2218
1 2219
1 2220
1 2221
1 2222
1 2223
1 2224
1 2225
1 2226
1 2227
1 2228
1 2229
1 2230
1 2231
1 2232
1 2233
1 2234
1 2235
1 2236
1 2237
1 2238
1 2239
1 2240
1 2241
1 2242
1 2243
1 2244
1 2245
1 2246
1 2247
1 2248
1 2249
1 2250
1 2251
1 2252
1 2253
1 2254
1 2255
1 2256
1 2257
1 2258
1 2259
1 2260
1 2261
1 2262
1 2263
1 2264
1 2265
1 2266
1 2267
1 2268
1 2269
1 2270
1 2271
1 2272
1 2273
1 2274
1 2275
1 2276
1 2277
1 2278
1 2279
1 2280
1 2281
1 2282
1 2283
1 2284
1 2285
1 2286
1 2287
1 2288
1 2289
1 2290
1 2291
1 2292
1 2293
1 2294
1 2295
1 2296
1 2297
1 2298
1 2299
1 2300
1 2301
1 2302
1 2303
1 2304
1 2305
1 2306
1 2307
1 2308
1 2309
1 2310
1 2311
1 2312
1 2313
1 2314
1 2315
1 2316
1 2317
1 2318
1 2319
1 2320
1 2321
1 2322
1 2323
1 2324
1 2325
1 2326
1 2327
1 2328
1 2329
1 2330
1 2331
1 2332
1 2333
1 2334
1 2335
1 2336
1 2337
1 2338
1 2339
1 2340
1 2341
1 2342
1 2343
1 2344
1 2345
1 2346
1 2347
1 2348
1 2349
1 2350
1 2351
1 2352
1 2353
1 2354
1 2355
1 2356
1 2357
1 2358
1 2359
1 2360
1 2361
1 2362
1 2363
1 2364
1 2365
1 2366
1 2367
1 2368
1 2369
1 2370
1 2371
1 2372
1 2373
1 2374
1 2375
1 2376
1 2377
1 2378
1 2379
1 2380
1 2381
1 2382
1 2383
1 2384
1 2385
1 2386
1 2387
1 2388
1 2389
1 2390
1 2391
1 2392
1 2393
1 2394
1 2395
1 2396
1 2397
1 2398
1 2399
1 2400
1 2401
1 2402
1 2403
1 2404
1 2405
1 2406
1 2407
1 2408
1 2409
1 2410
1 2411
1 2412
1 2413
1 2414
1 2415
1 2416
1 2417
1 2418
1 2419
1 2420
1 2421
1 2422
1 2423
1 2424
1 2425
1 2426
1 2427
1 2428
1 2429
1 2430
1 2431
1 2432
1 2433
1 2434
1 2435
1 2436
1 2437
1 2438
1 2439
1 2440
1 2441
1 2442
1 2443
1 2444
1 2445
1 2446
1 2447
1 2448
1 2449
1 2450
1 2451
1 2452
1 2453
1 2454
1 2455
1 2456
1 2457
1 2458
1 2459
1 2460
1 2461
1 2462
1 2463
1 2464
1 2465
1 2466
1 2467
1 2468
1 2469
1 2470
1 2471
1 2472
1 2473
1 2474
1 2475
1 2476
1 2477
1 2478
1 2479
1 2480
1 2481
1 2482
1 2483
1 2484
1 2485
1 2486
1 2487
1 2488
1 2489
1 2490
1 2491
1 2492
1 2493
1 2494
1 2495
1 2496
1 2497
1 2498
1 2499
1 2500
1 2501
1 2502
1 2503
1 2504
1 2505
1 2506
1 2507
1 2508
1 2509
1 2510
1 2511
1 2512
1 2513
1 2514
1 2515
1 2516
1 2517
1 2518
1 2519
1 2520
1 2521
1 2522
1 2523
1 2524
1 2525
1 2526
1 2527
1 2528
1 2529
1 2530
1 2531
1 2532
1 2533
1 2534
1 2535
1 2536
1 2537
1 2538
1 2539
1 2540
1 2541
1 2542
1 2543
1 2544
1 2545
1 2546
1 2547
1 2548
1 2549
1 2550
1 2551
1 2552
1 2553
1 2554
1 2555
1 2556
1 2557
1 2558
1 2559
1 2560
1 2561
1 2562
1 2563
1 2564
1 2565
1 2566
1 2567
1 2568
1 2569
1 2570
1 2571
1 2572
1 2573
1 2574
1 2575
1 2576
1 2577
1 2578
1 2579
1 2580
1 2581
1 2582
1 2583
1 2584
1 2585
1 2586
1 2587
1 2588
1 2589
1 2590
1 2591
1 2592
1 2593
1 2594
1 2595
1 2596
1 2597
1 2598
1 2599
1 2600
1 2601
1 2602
1 2603
1 2604
1 2605
1 2606
1 2607
1 2608
1 2609
1 2610
1 2611
1 2612
1 2613
1 2614
1 2615
1 2616
1 2617
1 2618
1 2619
1 2620
1 2621
1 2622
1 2623
1 2624
1 2625
1 2626
1 2627
1 2628
1 2629
1 2630
1 2631
1 2632
1 2633
1 2634
1 2635
1 2636
1 2637
1 2638
1 2639
1 2640
1 2641
1 2642
1 2643
1 2644
1 2645
1 2646
1 2647
1 2648
1 2649
1 2650
1 2651
1 2652
1 2653
1 2654
1 2655
1 2656
1 2657
1 2658
1 2659
1 2660
1 2661
1 2662
1 2663
1 2664
1 2665
1 2666
1 2667
1 2668
1 2669
1 2670
1 2671
1 2672
1 2673
1 2674
1 2675
1 2676
1 2677
1 2678
1 2679
1 2680
1 2681
1 2682
1 2683
1 2684
1 2685
1 2686
1 2687
1 2688
1 2689
1 2690
1 2691
1 2692
1 2693
1 2694
1 2695
1 2696
1 2697
1 2698
1 2699
1 2700
1 2701
1 2702
1 2703
1 2704
1 2705
1 2706
1 2707
1 2708
1 2709
1 2710
1 2711
1 2712
1 2713
1 2714
1 2715
1 2716
1 2717
1 2718
1 2719
1 2720
1 2721
1 2722
1 2723
1 2724
1 2725
1 2726
1 2727
1 2728
1 2729
1 2730
1 2731
1 2732
1 2733
1 2734
1 2735
1 2736
1 2737
1 2738
1 2739
1 2740
1 2741
1 2742
1 2743
1 2744
1 2745
1 2746
1 2747
1 2748
1 2749
1 2750
1 2751
1 2752
1 2753
1 2754
1 2755
1 2756
1 2757
1 2758
1 2759
1 2760
1 2761
1 2762
1 2763
1 2764
1 2765
1 2766
1 2767
1 2768
1 2769
1 2770
1 2771
1 2772
1 2773
1 2774
1 2775
1 2776
1 2777
1 2778
1 2779
1 2780
1 2781
1 2782
1 2783
1 2784
1 2785
1 2786
1 2787
1 2788
1 2789
1 2790
1 2791
1 2792
1 2793
1 2794
1 2795
1 2796
1 2797
1 2798
1 2799
1 2800
1 2801
1 2802
1 2803
1 2804
1 2805
1 2806
1 2807
1 2808
1 2809
1 2810
1 2811
1 2812
1 2813
1 2814
1 2815
1 2816
1 2817
1 2818
1 2819
1 2820
1 2821
1 2822
1 2823
1 2824
1 2825
1 2826
1 2827
1 2828
1 2829
1 2830
1 2831
1 2832
1 2833
1 2834
1 2835
1 2836
1 2837
1 2838
1 2839
1 2840
1 2841
1 2842
1 2843
1 2844
1 2845
1 2846
1 2847
1 2848
1 2849
1 2850
1 2851
1 2852
1 2853
1 2854
1 2855
1 2856
1 2857
1 2858
1 2859
1 2860
1 2861
1 2862
1 2863
1 2864
1 2865
1 2866
1 2867
1 2868
1 2869
1 2870
1 2871
1 2872
1 2873
1 2874
1 2875
1 2876
1 2877
1 2878
1 2879
1 2880
1 2881
1 2882
1 2883
1 2884
1 2885
1 2886
1 2887
1 2888
1 2889
1 2890
1 2891
1 2892
1 2893
1 2894
1 2895
1 2896
1 2897
1 2898
1 2899
1 2900
1 2901
1 2902
1 2903
1 2904
1 2905
1 2906
1 2907
1 2908
1 2909
1 2910
1 2911
1 2912
1 2913
1 2914
1 2915
1 2916
1 2917
1 2918
1 2919
1 2920
1 2921
1 2922
1 2923
1 2924
1 2925
1 2926
1 2927
1 2928
1 2929
1 2930
1 2931
1 2932
1 2933
1 2934
1 2935
1 2936
1 2937
1 2938
1 2939
1 2940
1 2941
1 2942
1 2943
1 2944
1 2945
1 2946
1 2947
1 2948
1 2949
1 2950
1 2951
1 2952
1 2953
1 2954
1 2955
1 2956
1 2957
1 2958
1 2959
1 2960
1 2961
1 2962
1 2963
1 2964
1 2965
1 2966
1 2967
1 2968
1 2969
1 2970
1 2971
1 2972
1 2973
1 2974
1 2975
1 2976
1 2977
1 2978
1 2979
1 2980
1 2981
1 2982
1 2983
1 2984
1 2985
1 2986
1 2987
1 2988
1 2989
1 2990
1 2991
1 2992
1 2993
1 2994
1 2995
1 2996
1 2997
1 2998
1 2999
1 3000
1 3001
1 3002
1 3003
1 3004
1 3005
1 3006
1 3007
1 3008
1 3009
1 3010
1 3011
1 3012
1 3013
1 3014
1 3015
1 3016
1 3017
1 3018
1 3019
1 3020
1 3021
1 3022
1 3023
1 3024
1 3025
1 3026
1 3027
1 3028
1 3029
1 3030
1 3031
1 3032
1 3033
1 3034
1 3035
1 3036
1 3037
1 3038
1 3039
1 3040
1 3041
1 3042
1 3043
1 3044
1 3045
1 3046
1 3047
1 3048
1 3049
1 3050
1 3051
1 3052
1 3053
1 3054
1 3055
1 3056
1 3057
1 3058
1 3059
1 3060
1 3061
1 3062
1 3063
1 3064
1 3065
1 3066
1 3067
1 3068
1 3069
1 3070
1 3071
1 3072
1 3073
1 3074
1 3075
1 3076
1 3077
1 3078
1 3079
1 3080
1 3081
1 3082
1 3083
1 3084
1 3085
1 3086
1 3087
1 3088
1 3089
1 3090
1 3091
1 3092
1 3093
1 3094
1 3095
1 3096
1 3097
1 3098
1 3099
1 3100
1 3101
1 3102
1 3103
1 3104
1 3105
1 3106
1 3107
1 3108
1 3109
1 3110
1 3111
1 3112
1 3113
1 3114
1 3115
1 3116
1 3117
1 3118
1 3119
1 3120
1 3121
1 3122
1 3123
1 3124
1 3125
1 3126
1 3127
1 3128
1 3129
1 3130
1 3131
1 3132
1 3133
1 3134
1 3135
1 3136
1 3137
1 3138
1 3139
1 3140
1 3141
1 3142
1 3143
1 3144
1 3145
1 3146
1 3147
1 3148
1 3149
1 3150
1 3151
1 3152
1 3153
1 3154
1 3155
1 3156
1 3157
1 3158
1 3159
1 3160
1 3161
1 3162
1 3163
1 3164
1 3165
1 3166
1 3167
1 3168
1 3169
1 3170
1 3171
1 3172
1 3173
1 3174
1 3175
1 3176
1 3177
1 3178
1 3179
1 3180
1 3181
1 3182
1 3183
1 3184
1 3185
1 3186
1 3187
1 3188
1 3189
1 3190
1 3191
1 3192
1 3193
1 3194
1 3195
1 3196
1 3197
1 3198
1 3199
1 3200
1 3201
1 3202
1 3203
1 3204
1 3205
1 3206
1 3207
1 3208
1 3209
1 3210
1 3211
1 3212
1 3213
1 3214
1 3215
1 3216
1 3217
1 3218
1 3219
1 3220
1 3221
1 3222
1 3223
1 3224
1 3225
1 3226
1 3227
1 3228
1 3229
1 3230
1 3231
1 3232
1 3233
1 3234
1 3235
1 3236
1 3237
1 3238
1 3239
1 3240
1 3241
1 3242
1 3243
1 3244
1 3245
1 3246
1 3247
1 3248
1 3249
1 3250
1 3251
1 3252
1 3253
1 3254
1 3255
1 3256
1 3257
1 3258
1 3259
1 3260
1 3261
1 3262
1 3263
1 3264
1 3265
1 3266
1 3267
1 3268
1 3269
1 3270
1 3271
1 3272
1 3273
1 3274
1 3275
1 3276
1 3277
1 3278
1 3279
1 3280
1 3281
1 3282
1 3283
1 3284
1 3285
1 3286
1 3287
1 3288
1 3289
1 3290
1 3291
1 3292
1 3293
1 3294
1 3295
1 3296
1 3297
1 3298
1 3299
1 3300
1 3301
1 3302
1 3303
1 3304
1 3305
1 3306
1 3307
1 3308
1 3309
1 3310
1 3311
1 3312
1 3313
1 3314
1 3315
1 3316
1 3317
1 3318
1 3319
1 3320
1 3321
1 3322
1 3323
1 3324
1 3325
1 3326
1 3327
1 3328
1 3329
1 3330
1 3331
1 3332
1 3333
1 3334
1 3335
1 3336
1 3337
1 3338
1 3339
1 3340
1 3341
1 3342
1 3343
1 3344
1 3345
1 3346
1 3347
1 3348
1 3349
1 3350
1 3351
1 3352
1 3353
1 3354
1 3355
1 3356
1 3357
1 3358
1 3359
1 3360
1 3361
1 3362
1 3363
1 3364
1 3365
1 3366
1 3367
1 3368
1 3369
1 3370
1 3371
1 3372
1 3373
1 3374
1 3375
1 3376
1 3377
1 3378
1 3379
1 3380
1 3381
1 3382
1 3383
1 3384
1 3385
1 3386
1 3387
1 3388
1 3389
1 3390
1 3391
1 3392
1 3393
1 3394
1 3395
1 3396
1 3397
1 3398
1 3399
1 3400
1 3401
1 3402
1 3403
1 3404
1 3405
1 3406
1 3407
1 3408
1 3409
1 3410
1 3411
1 3412
1 3413
1 3414
1 3415
1 3416
1 3417
1 3418
1 3419
1 3420
1 3421
1 3422
1 3423
1 3424
1 3425
1 3426
1 3427
1 3428
1 3429
1 3430
1 3431
1 3432
1 3433
1 3434
1 3435
1 3436
1 3437
1 3438
1 3439
1 3440
1 3441
1 3442
1 3443
1 3444
1 3445
1 3446
1 3447
1 3448
1 3449
1 3450
1 3451
1 3452
1 3453
1 3454
1 3455
1 3456
1 3457
1 3458
1 3459
1 3460
1 3461
1 3462
1 3463
1 3464
1 3465
1 3466
1 3467
1 3468
1 3469
1 3470
1 3471
1 3472
1 3473
1 3474
1 3475
1 3476
1 3477
1 3478
1 3479
1 3480
1 3481
1 3482
1 3483
1 3484
1 3485
1 3486
1 3487
1 3488
1 3489
1 3490
1 3491
1 3492
1 3493
1 3494
1 3495
1 3496
1 3497
1 3498
1 3499
1 3500
1 3501
1 3502
1 3503
1 3504
1 3505
1 3506
1 3507
1 3508
1 3509
1 3510
1 3511
1 3512
1 3513
1 3514
1 3515
1 3516
1 3517
1 3518
1 3519
1 3520
1 3521
1 3522
1 3523
1 3524
1 3525
1 3526
1 3527
1 3528
1 3529
1 3530
1 3531
1 3532
1 3533
1 3534
1 3535
1 3536
1 3537
1 3538
1 3539
1 3540
1 3541
1 3542
1 3543
1 3544
1 3545
1 3546
1 3547
1 3548
1 3549
1 3550
1 3551
1 3552
1 3553
1 3554
1 3555
1 3556
1 3557
1 3558
1 3559
1 3560
1 3561
1 3562
1 3563
1 3564
1 3565
1 3566
1 3567
1 3568
1 3569
1 3570
1 3571
1 3572
1 3573
1 3574
1 3575
1 3576
1 3577
1 3578
1 3579
1 3580
1 3581
1 3582
1 3583
1 3584
1 3585
1 3586
1 3587
1 3588
1 3589
1 3590
1 3591
1 3592
1 3593
1 3594
1 3595
1 3596
1 3597
1 3598
1 3599
1 3600
1 3601
1 3602
1 3603
1 3604
1 3605
1 3606
1 3607
1 3608
1 3609
1 3610
1 3611
1 3612
1 3613
1 3614
1 3615
1 3616
1 3617
1 3618
1 3619
1 3620
1 3621
1 3622
1 3623
1 3624
1 3625
1 3626
1 3627
1 3628
1 3629
1 3630
1 3631
1 3632
1 3633
1 3634
1 3635
1 3636
1 3637
1 3638
1 3639
1 3640
1 3641
1 3642
1 3643
1 3644
1 3645
1 3646
1 3647
1 3648
1 3649
1 3650
1 3651
1 3652
1 3653
1 3654
1 3655
1 3656
1 3657
1 3658
1 3659
1 3660
1 3661
1 3662
1 3663
1 3664
1 3665
1 3666
1 3667
1 3668
1 3669
1 3670
1 3671
1 3672
1 3673
1 3674
1 3675
1 3676
1 3677
1 3678
1 3679
1 3680
1 3681
1 3682
1 3683
1 3684
1 3685
1 3686
1 3687
1 3688
1 3689
1 3690
1 3691
1 3692
1 3693
1 3694
1 3695
1 3696
1 3697
1 3698
1 3699
1 3700
1 3701
1 3702
1 3703
1 3704
1 3705
1 3706
1 3707
1 3708
1 3709
1 3710
1 3711
1 3712
1 3713
1 3714
1 3715
1 3716
1 3717
1 3718
1 3719
1 3720
1 3721
1 3722
1 3723
1 3724
1 3725
1 3726
1 3727
1 3728
1 3729
1 3730
1 3731
1 3732
1 3733
1 3734
1 3735
1 3736
1 3737
1 3738
1 3739
1 3740
1 3741
1 3742
1 3743
1 3744
1 3745
1 3746
1 3747
1 3748
1 3749
1 3750
1 3751
1 3752
1 3753
1 3754
1 3755
1 3756
1 3757
1 3758
1 3759
1 3760
1 3761
1 3762
1 3763
1 3764
1 3765
1 3766
1 3767
1 3768
1 3769
1 3770
1 3771
1 3772
1 3773
1 3774
1 3775
1 3776
1 3777
1 3778
1 3779
1 3780
1 3781
1 3782
1 3783
1 3784
1 3785
1 3786
1 3787
1 3788
1 3789
1 3790
1 3791
1 3792
1 3793
1 3794
1 3795
1 3796
1 3797
1 3798
1 3799
1 3800
1 3801
1 3802
1 3803
1 3804
1 3805
1 3806
1 3807
1 3808
1 3809
1 3810
1 3811
1 3812
1 3813
1 3814
1 3815
1 3816
1 3817
1 3818
1 3819
1 3820
1 3821
1 3822
1 3823
1 3824
1 3825
1 3826
1 3827
1 3828
1 3829
1 3830
1 3831
1 3832
1 3833
1 3834
1 3835
1 3836
1 3837
1 3838
1 3839
1 3840
1 3841
1 3842
1 3843
1 3844
1 3845
1 3846
1 3847
1 3848
1 3849
1 3850
1 3851
1 3852
1 3853
1 3854
1 3855
1 3856
1 3857
1 3858
1 3859
1 3860
1 3861
1 3862
1 3863
1 3864
1 3865
1 3866
1 3867
1 3868
1 3869
1 3870
1 3871
1 3872
1 3873
1 3874
1 3875
1 3876
1 3877
1 3878
1 3879
1 3880
1 3881
1 3882
1 3883
1 3884
1 3885
1 3886
1 3887
1 3888
1 3889
1 3890
1 3891
1 3892
1 3893
1 3894
1 3895
1 3896
1 3897
1 3898
1 3899
1 3900
1 3901
1 3902
1 3903
1 3904
1 3905
1 3906
1 3907
1 3908
1 3909
1 3910
1 3911
1 3912
1 3913
1 3914
1 3915
1 3916
1 3917
1 3918
1 3919
1 3920
1 3921
1 3922
1 3923
1 3924
1 3925
1 3926
1 3927
1 3928
1 3929
1 3930
1 3931
1 3932
1 3933
1 3934
1 3935
1 3936
1 3937
1 3938
1 3939
1 3940
1 3941
1 3942
1 3943
1 3944
1 3945
1 3946
1 3947
1 3948
1 3949
1 3950
1 3951
1 3952
1 3953
1 3954
1 3955
1 3956
1 3957
1 3958
1 3959
1 3960
1 3961
1 3962
1 3963
1 3964
1 3965
1 3966
1 3967
1 3968
1 3969
1 3970
1 3971
1 3972
1 3973
1 3974
1 3975
1 3976
1 3977
1 3978
1 3979
1 3980
1 3981
1 3982
1 3983
1 3984
1 3985
1 3986
1 3987
1 3988
1 3989
1 3990
1 3991
1 3992
1 3993
1 3994
1 3995
1 3996
1 3997
1 3998
1 3999
1 4000
1 4001
1 4002
1 4003
1 4004
1 4005
1 4006
1 4007
1 4008
1 4009
1 4010
1 4011
1 4012
1 4013
1 4014
1 4015
1 4016
1 4017
1 4018
1 4019
1 4020
1 4021
1 4022
1 4023
1 4024
1 4025
1 4026
1 4027
1 4028
1 4029
1 4030
1 4031
1 4032
1 4033
1 4034
1 4035
1 4036
1 4037
1 4038
1 4039
1 4040
1 4041
1 4042
1 4043
1 4044
1 4045
1 4046
1 4047
1 4048
1 4049
1 4050
1 4051
1 4052
1 4053
1 4054
1 4055
1 4056
1 4057
1 4058
1 4059
1 4060
1 4061
1 4062
1 4063
1 4064
1 4065
1 4066
1 4067
1 4068
1 4069
1 4070
1 4071
1 4072
1 4073
1 4074
1 4075
1 4076
1 4077
1 4078
1 4079
1 4080
1 4081
1 4082
1 4083
1 4084
1 4085
1 4086
1 4087
1 4088
1 4089
1 4090
1 4091
1 4092
1 4093
1 4094
1 4095
1 4096
1 4097
1 4098
1 4099
1 4100
1 4101
1 4102
1 4103
1 4104
1 4105
1 4106
1 4107
1 4108
1 4109
1 4110
1 4111
1 4112
1 4113
1 4114
1 4115
1 4116
1 4117
1 4118
1 4119
1 4120
1 4121
1 4122
1 4123
1 4124
1 4125
1 4126
1 4127
1 4128
1 4129
1 4130
1 4131
1 4132
1 4133
1 4134
1 4135
1 4136
1 4137
1 4138
1 4139
1 4140
1 4141
1 4142
1 4143
1 4144
1 4145
1 4146
1 4147
1 4148
1 4149
1 4150
1 4151
1 4152
1 4153
1 4154
1 4155
1 4156
1 4157
1 4158
1 4159
1 4160
1 4161
1 4162
1 4163
1 4164
1 4165
1 4166
1 4167
1 4168
1 4169
1 4170
1 4171
1 4172
1 4173
1 4174
1 4175
1 4176
1 4177
1 4178
1 4179
1 4180
1 4181
1 4182
1 4183
1 4184
1 4185
1 4186
1 4187
1 4188
1 4189
1 4190
1 4191
1 4192
1 4193
1 4194
1 4195
1 4196
1 4197
1 4198
1 4199
1 4200
1 4201
1 4202
1 4203
1 4204
1 4205
1 4206
1 4207
1 4208
1 4209
1 4210
1 4211
1 4212
1 4213
1 4214
1 4215
1 4216
1 4217
1 4218
1 4219
1 4220
1 4221
1 4222
1 4223
1 4224
1 4225
1 4226
1 4227
1 4228
1 4229
1 4230
1 4231
1 4232
1 4233
1 4234
1 4235
1 4236
1 4237
1 4238
1 4239
1 4240
1 4241
1 4242
1 4243
1 4244
1 4245
1 4246
1 4247
1 4248
1 4249
1 4250
1 4251
1 4252
1 4253
1 4254
1 4255
1 4256
1 4257
1 4258
1 4259
1 4260
1 4261
1 4262
1 4263
1 4264
1 4265
1 4266
1 4267
1 4268
1 4269
1 4270
1 4271
1 4272
1 4273
1 4274
1 4275
1 4276
1 4277
1 4278
1 4279
1 4280
1 4281
1 4282
1 4283
1 4284
1 4285
1 4286
1 4287
1 4288
1 4289
1 4290
1 4291
1 4292
1 4293
1 4294
1 4295
1 4296
1 4297
1 4298
1 4299
1 4300
1 4301
1 4302
1 4303
1 4304
1 4305
1 4306
1 4307
1 4308
1 4309
1 4310
1 4311
1 4312
1 4313
1 4314
1 4315
1 4316
1 4317
1 4318
1 4319
1 4320
1 4321
1 4322
1 4323
1 4324
1 4325
1 4326
1 4327
1 4328
1 4329
1 4330
1 4331
1 4332
1 4333
1 4334
1 4335
1 4336
1 4337
1 4338
1 4339
1 4340
1 4341
1 4342
1 4343
1 4344
1 4345
1 4346
1 4347
1 4348
1 4349
1 4350
1 4351
1 4352
1 4353
1 4354
1 4355
1 4356
1 4357
1 4358
1 4359
1 4360
1 4361
1 4362
1 4363
1 4364
1 4365
1 4366
1 4367
1 4368
1 4369
1 4370
1 4371
1 4372
1 4373
1 4374
1 4375
1 4376
1 4377
1 4378
1 4379
1 4380
1 4381
1 4382
1 4383
1 4384
1 4385
1 4386
1 4387
1 4388
1 4389
1 4390
1 4391
1 4392
1 4393
1 4394
1 4395
1 4396
1 4397
1 4398
1 4399
1 4400
1 4401
1 4402
1 4403
1 4404
1 4405
1 4406
1 4407
1 4408
1 4409
1 4410
1 4411
1 4412
1 4413
1 4414
1 4415
1 4416
1 4417
1 4418
1 4419
1 4420
1 4421
1 4422
1 4423
1 4424
1 4425
1 4426
1 4427
1 4428
1 4429
1 4430
1 4431
1 4432
1 4433
1 4434
1 4435
1 4436
1 4437
1 4438
1 4439
1 4440
1 4441
1 4442
1 4443
1 4444
1 4445
1 4446
1 4447
1 4448
1 4449
1 4450
1 4451
1 4452
1 4453
1 4454
1 4455
1 4456
1 4457
1 4458
1 4459
1 4460
1 4461
1 4462
1 4463
1 4464
1 4465
1 4466
1 4467
1 4468
1 4469
1 4470
1 4471
1 4472
1 4473
1 4474
1 4475
1 4476
1 4477
1 4478
1 4479
1 4480
1 4481
1 4482
1 4483
1 4484
1 4485
1 4486
1 4487
1 4488
1 4489
1 4490
1 4491
1 4492
1 4493
1 4494
1 4495
1 4496
1 4497
1 4498
1 4499
1 4500
1 4501
1 4502
1 4503
1 4504
1 4505
1 4506
1 4507
1 4508
1 4509
1 4510
1 4511
1 4512
1 4513
1 4514
1 4515
1 4516
1 4517
1 4518
1 4519
1 4520
1 4521
1 4522
1 4523
1 4524
1 4525
1 4526
1 4527
1 4528
1 4529
1 4530
1 4531
1 4532
1 4533
1 4534
1 4535
1 4536
1 4537
1 4538
1 4539
1 4540
1 4541
1 4542
1 4543
1 4544
1 4545
1 4546
1 4547
1 4548
1 4549
1 4550
1 4551
1 4552
1 4553
1 4554
1 4555
1 4556
1 4557
1 4558
1 4559
1 4560
1 4561
1 4562
1 4563
1 4564
1 4565
1 4566
1 4567
1 4568
1 4569
1 4570
1 4571
1 4572
1 4573
1 4574
1 4575
1 4576
1 4577
1 4578
1 4579
1 4580
1 4581
1 4582
1 4583
1 4584
1 4585
1 4586
1 4587
1 4588
1 4589
1 4590
1 4591
1 4592
1 4593
1 4594
1 4595
1 4596
1 4597
1 4598
1 4599
1 4600
1 4601
1 4602
1 4603
1 4604
1 4605
1 4606
1 4607
1 4608
1 4609
1 4610
1 4611
1 4612
1 4613
1 4614
1 4615
1 4616
1 4617
1 4618
1 4619
1 4620
1 4621
1 4622
1 4623
1 4624
1 4625
1 4626
1 4627
1 4628
1 4629
1 4630
1 4631
1 4632
1 4633
1 4634
1 4635
1 4636
1 4637
1 4638
1 4639
1 4640
1 4641
1 4642
1 4643
1 4644
1 4645
1 4646
1 4647
1 4648
1 4649
1 4650
1 4651
1 4652
1 4653
1 4654
1 4655
1 4656
1 4657
1 4658
1 4659
1 4660
1 4661
1 4662
1 4663
1 4664
1 4665
1 4666
1 4667
1 4668
1 4669
1 4670
1 4671
1 4672
1 4673
1 4674
1 4675
1 4676
1 4677
1 4678
1 4679
1 4680
1 4681
1 4682
1 4683
1 4684
1 4685
1 4686
1 4687
1 4688
1 4689
1 4690
1 4691
1 4692
1 4693
1 4694
1 4695
1 4696
1 4697
1 4698
1 4699
1 4700
1 4701
1 4702
1 4703
1 4704
1 4705
1 4706
1 4707
1 4708
1 4709
1 4710
1 4711
1 4712
1 4713
1 4714
1 4715
1 4716
1 4717
1 4718
1 4719
1 4720
1 4721
1 4722
1 4723
1 4724
1 4725
1 4726
1 4727
1 4728
1 4729
1 4730
1 4731
1 4732
1 4733
1 4734
1 4735
1 4736
1 4737
1 4738
1 4739
1 4740
1 4741
1 4742
1 4743
1 4744
1 4745
1 4746
1 4747
1 4748
1 4749
1 4750
1 4751
1 4752
1 4753
1 4754
1 4755
1 4756
1 4757
1 4758
1 4759
1 4760
1 4761
1 4762
1 4763
1 4764
1 4765
1 4766
1 4767
1 4768
1 4769
1 4770
1 4771
1 4772
1 4773
1 4774
1 4775
1 4776
1 4777
1 4778
1 4779
1 4780
1 4781
1 4782
1 4783
1 4784
1 4785
1 4786
1 4787
1 4788
1 4789
1 4790
1 4791
1 4792
1 4793
1 4794
1 4795
1 4796
1 4797
1 4798
1 4799
1 4800
1 4801
1 4802
1 4803
1 4804
1 4805
1 4806
1 4807
1 4808
1 4809
1 4810
1 4811
1 4812
1 4813
1 4814
1 4815
1 4816
1 4817
1 4818
1 4819
1 4820
1 4821
1 4822
1 4823
1 4824
1 4825
1 4826
1 4827
1 4828
1 4829
1 4830
1 4831
1 4832
1 4833
1 4834
1 4835
1 4836
1 4837
1 4838
1 4839
1 4840
1 4841
1 4842
1 4843
1 4844
1 4845
1 4846
1 4847
1 4848
1 4849
1 4850
1 4851
1 4852
1 4853
1 4854
1 4855
1 4856
1 4857
1 4858
1 4859
1 4860
1 4861
1 4862
1 4863
1 4864
1 4865
1 4866
1 4867
1 4868
1 4869
1 4870
1 4871
1 4872
1 4873
1 4874
1 4875
1 4876
1 4877
1 4878
1 4879
1 4880
1 4881
1 4882
1 4883
1 4884
1 4885
1 4886
1 4887
1 4888
1 4889
1 4890
1 4891
1 4892
1 4893
1 4894
1 4895
1 4896
1 4897
1 4898
1 4899
1 4900
1 4901
1 4902
1 4903
1 4904
1 4905
1 4906
1 4907
1 4908
1 4909
1 4910
1 4911
1 4912
1 4913
1 4914
1 4915
1 4916
1 4917
1 4918
1 4919
1 4920
1 4921
1 4922
1 4923
1 4924
1 4925
1 4926
1 4927
1 4928
1 4929
1 4930
1 4931
1 4932
1 4933
1 4934
1 4935
1 4936
1 4937
1 4938
1 4939
1 4940
1 4941
1 4942
1 4943
1 4944
1 4945
1 4946
1 4947
1 4948
1 4949
1 4950
1 4951
1 4952
1 4953
1 4954
1 4955
1 4956
1 4957
1 4958
1 4959
1 4960
1 4961
1 4962
1 4963
1 4964
1 4965
1 4966
1 4967
1 4968
1 4969
1 4970
1 4971
1 4972
1 4973
1 4974
1 4975
1 4976
1 4977
1 4978
1 4979
1 4980
1 4981
1 4982
1 4983
1 4984
1 4985
1 4986
1 4987
1 4988
1 4989
1 4990
1 4991
1 4992
1 4993
1 4994
1 4995
1 4996
1 4997
1 4998
1 4999
CELL_TYPES 5000
1 
1 
1 
1 
1 
1 
1 
1 
1 
1 
1 
1 
1 
1 
1 
1 
1 
1 
1 
1 
1 
1 
1 
1 
1 
1 
1 
1 
1 
1 
1 
1 
1 
1 
1 
1 
1 
1 
1 
1 
1 
1 
1 
1 
1 
1 
1 
1 
1 
1 
1 
1 
1 
1 
1 
1 
1 
1 
1 
1 
1 
1 
1 
1 
1 
1 
1 
1 
1 
1 
1 
1 
1 
1 
1 
1 
1 
1 
1 
1 
1 
1 
1 
1 
1 
1 
1 
1 
1 
1 
1 
1 
1 
1 
1 
1 
1 
1 
1 
1 
1 
1 
1 
1 
1 
1 
1 
1 
1 
1 
1 
1 
1 
1 
1 
1 
1 
1 
1 
1 
1 
1 
1 
1 
1 
1 
1 
1 
1 
1 
1 
1 
1 
1 
1 
1 
1 
1 
1 
1 
1 
1 
1 
1 
1 
1 
1 
1 
1 
1 
1 
1 
1 
1 
1 
1 
1 
1 
1 
1 
1 
1 
1 
1 
1 
1 
1 
1 
1 
1 
1 
1 
1 
1 
1 
1 
1 
1 
1 
1 
1 
1 
1 
1 
1 
1 
1 
1 
1 
1 
1 
1 
1 
1 
1 
1 
1 
1 
1 
1 
1 
1 
1 
1 
1 
1 
1 
1 
1 
1 
1 
1 
1 
1 
1 
1 
1 
1 
1 
1 
1 
1 
1 
1 
1 
1 
1 
1 
1 
1 
1 
1 
1 
1 
1 
1 
1 
1 
1 
1 
1 
1 
1 
1 
1 
1 
1 
1 
1 
1 
1 
1 
1 
1 
1 
1 
1 
1 
1 
1 
1 
1 
1 
1 
1 
1 
1 
1 
1 
1 
1 
1 
1 
1 
1 
1 
1 
1 
1 
1 
1 
1 
1 
1 
1 
1 
1 
1 
1 
1 
1 
1 
1 
1 
1 
1 
1 
1 
1 
1 
1 
1 
1 
1 
1 
1 
1 
1 
1 
1 
1 
1 
1 
1 
1 
1 
1 
1 
1 
1 
1 
1 
1 
1 
1 
1 
1 
1 
1 
1 
1 
1 
1 
1 
1 
1 
1 
1 
1 
1 
1 
1 
1 
1 
1 
1 
1 
1 
1 
1 
1 
1 
1 
1 
1 
1 
1 
1 
1 
1 
1 
1 
1 
1 
1 
1 
1 
1 
1 
1 
1 
1 
1 
1 
1 
1 
1 
1 
1 
1 
1 
1 
1 
1 
1 
1 
1 
1 
1 
1 
1 
1 
1 
1 
1 
1 
1 
1 
1 
1 
1 
1 
1 
1 
1 
1 
1 
1 
1 
1 
1 
1 
1 
1 
1 
1 
1 
1 
1 
1 
1 
1 
1 
1 
1 
1 
1 
1 
1 
1 
1 
1 
1 
1 
1 
1 
1 
1 
1 
1 
1 
1 
1 
1 
1 
1 
1 
1 
1 
1 
1 
1 
1 
1 
1 
1 
1 
1 
1 
1 
1 
1 
1 
1 
1 
1 
1 
1 
1 
1 
1 
1 
1 
1 
1 
1 
1 
1 
1 
1 
1 
1 
1 
1 
1 
1 
1 
1 
1 
1 
1 
1 
1 
1 
1 
1 
1 
1 
1 
1 
1 
1 
1 
1 
1 
1 
1 
1 
1 
1 
1 
1 
1 
1 
1 
1 
1 
1 
1 
1 
1 
1 
1 
1 
1 
1 
1 
1 
1 
1 
1 
1 
1 
1 
1 
1 
1 
1 
1 
1 
1 
1 
1 
1 
1 
1 
1 
1 
1 
1 
1 
1 
1 
1 
1 
1 
1 
1 
1 
1 
1 
1 
1 
1 
1 
1 
1 
1 
1 
1 
1 
1 
1 
1 
1 
1 
1 
1 
1 
1 
1 
1 
1 
1 
1 
1 
1 
1 
1 
1 
1 
1 
1 
1 
1 
1 
1 
1 
1 
1 
1 
1 
1 
1 
1 
1 
1 
1 
1 
1 
1 
1 
1 
1 
1 
1 
1 
1 
1 
1 
1 
1 
1 
1 
1 
1 
1 
1 
1 
1 
1 
1 
1 
1 
1 
1 
1 
1 
1 
1 
1 
1 
1 
1 
1 
1 
1 
1 
1 
1 
1 
1 
1 
1 
1 
1 
1 
1 
1 
1 
1 
1 
1 
1 
1 
1 
1 
1 
1 
1 
1 
1 
1 
1 
1 
1 
1 
1 
1 
1 
1 
1 
1 
1 
1 
1 
1 
1 
1 
1 
1 
1 
1 
1 
1 
1 
1 
1 
1 
1 
1 
1 
1 
1 
1 
1 
1 
1 
1 
1 
1 
1 
1 
1 
1 
1 
1 
1 
1 
1 
1 
1 
1 
1 
1 
1 
1 
1 
1 
1 
1 
1 
1 
1 
1 
1 
1 
1 
1 
1 
1 
1 
1 
1 
1 
1 
1 
1 
1 
1 
1 
1 
1 
1 
1 
1 
1 
1 
1 
1 
1 
1 
1 
1 
1 
1 
1 
1 
1 
1 
1 
1 
1 
1 
1 
1 
1 
1 
1 
1 
1 
1 
1 
1 
1 
1 
1 
1 
1 
1 
1 
1 
1 
1 
1 
1 
1 
1 
1 
1 
1 
1 
1 
1 
1 
1 
1 
1 
1 
1 
1 
1 
1 
1 
1 
1 
1 
1 
1 
1 
1 
1 
1 
1 
1 
1 
1 
1 
1 
1 
1 
1 
1 
1 
1 
1 
1 
1 
1 
1 
1 
1 
1 
1 
1 
1 
1 
1 
1 
1 
1 
1 
1 
1 
1 
1 
1 
1 
1 
1 
1 
1 
1 
1 
1 
1 
1 
1 
1 
1 
1 
1 
1 
1 
1 
1 
1 
1 
1 
1 
1 
1 
1 
1 
1 
1 
1 
1 
1 
1 
1 
1 
1 
1 
1 
1 
1 
1 
1 
1 
1 
1 
1 
1 
1 
1 
1 
1 
1 
1 
1 
1 
1 
1 
1 
1 
1 
1 
1 
1 
1 
1 
1 
1 
1 
1 
1 
1 
1 
1 
1 
1 
1 
1 
1 
1 
1 
1 
1 
1 
1 
1 
1 
1 
1 
1 
1 
1 
1 
1 
1 
1 
1 
1 
1 
1 
1 
1 
1 
1 
1 
1 
1 
1 
1 
1 
1 
1 
1 
1 
1 
1 
1 
1 
1 
1 
1 
1 
1 
1 
1 
1 
1 
1 
1 
1 
1 
1 
1 
1 
1 
1 
1 
1 
1 
1 
1 
1 
1 
1 
1 
1 
1 
1 
1 
1 
1 
1 
1 
1 
1 
1 
1 
1 
1 
1 
1 
1 
1 
1 
1 
1 
1 
1 
1 
1 
1 
1 
1 
1 
1 
1 
1 
1 
1 
1 
1 
1 
1 
1 
1 
1 
1 
1 
1 
1 
1 
1 
1 
1 
1 
1 
1 
1 
1 
1 
1 
1 
1 
1 
1 
1 
1 
1 
1 
1 
1 
1 
1 
1 
1 
1 
1 
1 
1 
1 
1 
1 
1 
1 
1 
1 
1 
1 
1 
1 
1 
1 
1 
1 
1 
1 
1 
1 
1 
1 
1 
1 
1 
1 
1 
1 
1 
1 
1 
1 
1 
1 
1 
1 
1 
1 
1 
1 
1 
1 
1 
1 
1 
1 
1 
1 
1 
1 
1 
1 
1 
1 
1 
1 
1 
1 
1 
1 
1 
1 
1 
1 
1 
1 
1 
1 
1 
1 
1 
1 
1 
1 
1 
1 
1 
1 
1 
1 
1 
1 
1 
1 
1 
1 
1 
1 
1 
1 
1 
1 
1 
1 
1 
1 
1 
1 
1 
1 
1 
1 
1 
1 
1 
1 
1 
1 
1 
1 
1 
1 
1 
1 
1 
1 
1 
1 
1 
1 
1 
1 
1 
1 
1 
1 
1 
1 
1 
1 
1 
1 
1 
1 
1 
1 
1 
1 
1 
1 
1 
1 
1 
1 
1 
1 
1 
1 
1 
1 
1 
1 
1 
1 
1 
1 
1 
1 
1 
1 
1 
1 
1 
1 
1 
1 
1 
1 
1 
1 
1 
1 
1 
1 
1 
1 
1 
1 
1 
1 
1 
1 
1 
1 
1 
1 
1 
1 
1 
1 
1 
1 
1 
1 
1 
1 
1 
1 
1 
1 
1 
1 
1 
1 
1 
1 
1 
1 
1 
1 
1 
1 
1 
1 
1 
1 
1 
1 
1 
1 
1 
1 
1 
1 
1 
1 
1 
1 
1 
1 
1 
1 
1 
1 
1 
1 
1 
1 
1 
1 
1 
1 
1 
1 
1 
1 
1 
1 
1 
1 
1 
1 
1 
1 
1 
1 
1 
1 
1 
1 
1 
1 
1 
1 
1 
1 
1 
1 
1 
1 
1 
1 
1 
1 
1 
1 
1 
1 
1 
1 
1 
1 
1 
1 
1 
1 
1 
1 
1 
1 
1 
1 
1 
1 
1 
1 
1 
1 
1 
1 
1 
1 
1 
1 
1 
1 
1 
1 
1 
1 
1 
1 
1 
1 
1 
1 
1 
1 
1 
1 
1 
1 
1 
1 
1 
1 
1 
1 
1 
1 
1 
1 
1 
1 
1 
1 
1 
1 
1 
1 
1 
1 
1 
1 
1 
1 
1 
1 
1 
1 
1 
1 
1 
1 
1 
1 
1 
1 
1 
1 
1 
1 
1 
1 
1 
1 
1 
1 
1 
1 
1 
1 
1 
1 
1 
1 
1 
1 
1 
1 
1 
1 
1 
1 
1 
1 
1 
1 
1 
1 
1 
1 
1 
1 
1 
1 
1 
1 
1 
1 
1 
1 
1 
1 
1 
1 
1 
1 
1 
1 
1 
1 
1 
1 
1 
1 
1 
1 
1 
1 
1 
1 
1 
1 
1 
1 
1 
1 
1 
1 
1 
1 
1 
1 
1 
1 
1 
1 
1 
1 
1 
1 
1 
1 
1 
1 
1 
1 
1 
1 
1 
1 
1 
1 
1 
1 
1 
1 
1 
1 
1 
1 
1 
1 
1 
1 
1 
1 
1 
1 
1 
1 
1 
1 
1 
1 
1 
1 
1 
1 
1 
1 
1 
1 
1 
1 
1 
1 
1 
1 
1 
1 
1 
1 
1 
1 
1 
1 
1 
1 
1 
1 
1 
1 
1 
1 
1 
1 
1 
1 
1 
1 
1 
1 
1 
1 
1 
1 
1 
1 
1 
1 
1 
1 
1 
1 
1 
1 
1 
1 
1 
1 
1 
1 
1 
1 
1 
1 
1 
1 
1 
1 
1 
1 
1 
1 
1 
1 
1 
1 
1 
1 
1 
1 
1 
1 
1 
1 
1 
1 
1 
1 
1 
1 
1 
1 
1 
1 
1 
1 
1 
1 
1 
1 
1 
1 
1 
1 
1 
1 
1 
1 
1 
1 
1 
1 
1 
1 
1 
1 
1 
1 
1 
1 
1 
1 
1 
1 
1 
1 
1 
1 
1 
1 
1 
1 
1 
1 
1 
1 
1 
1 
1 
1 
1 
1 
1 
1 
1 
1 
1 
1 
1 
1 
1 
1 
1 
1 
1 
1 
1 
1 
1 
1 
1 
1 
1 
1 
1 
1 
1 
1 
1 
1 
1 
1 
1 
1 
1 
1 
1 
1 
1 
1 
1 
1 
1 
1 
1 
1 
1 
1 
1 
1 
1 
1 
1 
1 
1 
1 
1 
1 
1 
1 
1 
1 
1 
1 
1 
1 
1 
1 
1 
1 
1 
1 
1 
1 
1 
1 
1 
1 
1 
1 
1 
1 
1 
1 
1 
1 
1 
1 
1 
1 
1 
1 
1 
1 
1 
1 
1 
1 
1 
1 
1 
1 
1 
1 
1 
1 
1 
1 
1 
1 
1 
1 
1 
1 
1 
1 
1 
1 
1 
1 
1 
1 
1 
1 
1 
1 
1 
1 
1 
1 
1 
1 
1 
1 
1 
1 
1 
1 
1 
1 
1 
1 
1 
1 
1 
1 
1 
1 
1 
1 
1 
1 
1 
1 
1 
1 
1 
1 
1 
1 
1 
1 
1 
1 
1 
1 
1 
1 
1 
1 
1 
1 
1 
1 
1 
1 
1 
1 
1 
1 
1 
1 
1 
1 
1 
1 
1 
1 
1 
1 
1 
1 
1 
1 
1 
1 
1 
1 
1 
1 
1 
1 
1 
1 
1 
1 
1 
1 
1 
1 
1 
1 
1 
1 
1 
1 
1 
1 
1 
1 
1 
1 
1 
1 
1 
1 
1 
1 
1 
1 
1 
1 
1 
1 
1 
1 
1 
1 
1 
1 
1 
1 
1 
1 
1 
1 
1 
1 
1 
1 
1 
1 
1 
1 
1 
1 
1 
1 
1 
1 
1 
1 
1 
1 
1 
1 
1 
1 
1 
1 
1 
1 
1 
1 
1 
1 
1 
1 
1 
1 
1 
1 
1 
1 
1 
1 
1 
1 
1 
1 
1 
1 
1 
1 
1 
1 
1 
1 
1 
1 
1 
1 
1 
1 
1 
1 
1 
1 
1 
1 
1 
1 
1 
1 
1 
1 
1 
1 
1 
1 
1 
1 
1 
1 
1 
1 
1 
1 
1 
1 
1 
1 
1 
1 
1 
1 
1 
1 
1 
1 
1 
1 
1 
1 
1 
1 
1 
1 
1 
1 
1 
1 
1 
1 
1 
1 
1 
1 
1 
1 
1 
1 
1 
1 
1 
1 
1 
1 
1 
1 
1 
1 
1 
1 
1 
1 
1 
1 
1 
1 
1 
1 
1 
1 
1 
1 
1 
1 
1 
1 
1 
1 
1 
1 
1 
1 
1 
1 
1 
1 
1 
1 
1 
1 
1 
1 
1 
1 
1 
1 
1 
1 
1 
1 
1 
1 
1 
1 
1 
1 
1 
1 
1 
1 
1 
1 
1 
1 
1 
1 
1 
1 
1 
1 
1 
1 
1 
1 
1 
1 
1 
1 
1 
1 
1 
1 
1 
1 
1 
1 
1 
1 
1 
1 
1 
1 
1 
1 
1 
1 
1 
1 
1 
1 
1 
1 
1 
1 
1 
1 
1 
1 
1 
1 
1 
1 
1 
1 
1 
1 
1 
1 
1 
1 
1 
1 
1 
1 
1 
1 
1 
1 
1 
1 
1 
1 
1 
1 
1 
1 
1 
1 
1 
1 
1 
1 
1 
1 
1 
1 
1 
1 
1 
1 
1 
1 
1 
1 
1 
1 
1 
1 
1 
1 
1 
1 
1 
1 
1 
1 
1 
1 
1 
1 
1 
1 
1 
1 
1 
1 
1 
1 
1 
1 
1 
1 
1 
1 
1 
1 
1 
1 
1 
1 
1 
1 
1 
1 
1 
1 
1 
1 
1 
1 
1 
1 
1 
1 
1 
1 
1 
1 
1 
1 
1 
1 
1 
1 
1 
1 
1 
1 
1 
1 
1 
1 
1 
1 
1 
1 
1 
1 
1 
1 
1 
1 
1 
1 
1 
1 
1 
1 
1 
1 
1 
1 
1 
1 
1 
1 
1 
1 
1 
1 
1 
1 
1 
1 
1 
1 
1 
1 
1 
1 
1 
1 
1 
1 
1 
1 
1 
1 
1 
1 
1 
1 
1 
1 
1 
1 
1 
1 
1 
1 
1 
1 
1 
1 
1 
1 
1 
1 
1 
1 
1 
1 
1 
1 
1 
1 
1 
1 
1 
1 
1 
1 
1 
1 
1 
1 
1 
1 
1 
1 
1 
1 
1 
1 
1 
1 
1 
1 
1 
1 
1 
1 
1 
1 
1 
1 
1 
1 
1 
1 
1 
1 
1 
1 
1 
1 
1 
1 
1 
1 
1 
1 
1 
1 
1 
1 
1 
1 
1 
1 
1 
1 
1 
1 
1 
1 
1 
1 
1 
1 
1 
1 
1 
1 
1 
1 
1 
1 
1 
1 
1 
1 
1 
1 
1 
1 
1 
1 
1 
1 
1 
1 
1 
1 
1 
1 
1 
1 
1 
1 
1 
1 
1 
1 
1 
1 
1 
1 
1 
1 
1 
1 
1 
1 
1 
1 
1 
1 
1 
1 
1 
1 
1 
1 
1 
1 
1 
1 
1 
1 
1 
1 
1 
1 
1 
1 
1 
1 
1 
1 
1 
1 
1 
1 
1 
1 
1 
1 
1 
1 
1 
1 
1 
1 
1 
1 
1 
1 
1 
1 
1 
1 
1 
1 
1 
1 
1 
1 
1 
1 
1 
1 
1 
1 
1 
1 
1 
1 
1 
1 
1 
1 
1 
1 
1 
1 
1 
1 
1 
1 
1 
1 
1 
1 
1 
1 
1 
1 
1 
1 
1 
1 
1 
1 
1 
1 
1 
1 
1 
1 
1 
1 
1 
1 
1 
1 
1 
1 
1 
1 
1 
1 
1 
1 
1 
1 
1 
1 
1 
1 
1 
1 
1 
1 
1 
1 
1 
1 
1 
1 
1 
1 
1 
1 
1 
1 
1 
1 
1 
1 
1 
1 
1 
1 
1 
1 
1 
1 
1 
1 
1 
1 
1 
1 
1 
1 
1 
1 
1 
1 
1 
1 
1 
1 
1 
1 
1 
1 
1 
1 
1 
1 
1 
1 
1 
1 
1 
1 
1 
1 
1 
1 
1 
1 
1 
1 
1 
1 
1 
1 
1 
1 
1 
1 
1 
1 
1 
1 
1 
1 
1 
1 
1 
1 
1 
1 
1 
1 
1 
1 
1 
1 
1 
1 
1 
1 
1 
1 
1 
1 
1 
1 
1 
1 
1 
1 
1 
1 
1 
1 
1 
1 
1 
1 
1 
1 
1 
1 
1 
1 
1 
1 
1 
1 
1 
1 
1 
1 
1 
1 
1 
1 
1 
1 
1 
1 
1 
1 
1 
1 
1 
1 
1 
1 
1 
1 
1 
1 
1 
1 
1 
1 
1 
1 
1 
1 
1 
1 
1 
1 
1 
1 
1 
1 
1 
1 
1 
1 
1 
1 
1 
1 
1 
1 
1 
1 
1 
1 
1 
1 
1 
1 
1 
1 
1 
1 
1 
1 
1 
1 
1 
1 
1 
1 
1 
1 
1 
1 
1 
1 
1 
1 
1 
1 
1 
1 
1 
1 
1 
1 
1 
1 
1 
1 
1 
1 
1 
1 
1 
1 
1 
1 
1 
1 
1 
1 
1 
1 
1 
1 
1 
1 
1 
1 
1 
1 
1 
1 
1 
1 
1 
1 
1 
1 
1 
1 
1 
1 
1 
1 
1 
1 
1 
1 
1 
1 
1 
1 
1 
1 
1 
1 
1 
1 
1 
1 
1 
1 
1 
1 
1 
1 
1 
1 
1 
1 
1 
1 
1 
1 
1 
1 
1 
1 
1 
1 
1 
1 
1 
1 
1 
1 
1 
1 
1 
1 
1 
1 
1 
1 
1 
1 
1 
1 
1 
1 
1 
1 
1 
1 
1 
1 
1 
1 
1 
1 
1 
1 
1 
1 
1 
1 
1 
1 
1 
1 
1 
1 
1 
1 
1 
1 
1 
1 
1 
1 
1 
1 
1 
1 
1 
1 
1 
1 
1 
1 
1 
1 
1 
1 
1 
1 
1 
1 
1 
1 
1 
1 
1 
1 
1 
1 
1 
1 
1 
1 
1 
1 
1 
1 
1 
1 
1 
1 
1 
1 
1 
1 
1 
1 
1 
1 
1 
1 
1 
1 
1 
1 
1 
1 
1 
1 
1 
1 
1 
1 
1 
1 
1 
1 
1 
1 
1 
1 
1 
1 
1 
1 
1 
1 
1 
1 
1 
1 
1 
1 
1 
1 
1 
1 
1 
1 
1 
1 
1 
1 
1 
1 
1 
1 
1 
1 
1 
1 
1 
1 
1 
1 
1 
1 
1 
1 
1 
1 
1 
1 
1 
1 
1 
1 
1 
1 
1 
1 
1 
1 
1 
1 
1 
1 
1 
1 
1 
1 
1 
1 
1 
1 
1 
1 
1 
1 
1 
1 
1 
1 
1 
1 
1 
1 
1 
1 
1 
1 
1 
1 
1 
1 
1 
1 
1 
1 
1 
1 
1 
1 
1 
1 
1 
1 
1 
1 
1 
1 
1 
1 
1 
1 
1 
1 
1 
1 
1 
1 
1 
1 
1 
1 
1 
1 
1 
1 
1 
1 
1 
1 
1 
1 
1 
1 
1 
1 
1 
1 
1 
1 
1 
1 
1 
1 
1 
1 
1 
1 
1 
1 
1 
1 
1 
1 
1 
1 
1 
1 
1 
1 
1 
1 
1 
1 
1 
1 
1 
1 
1 
1 
1 
1 
1 
1 
1 
1 
1 
1 
1 
1 
1 
1 
1 
1 
1 
1 
1 
1 
1 
1 
1 
1 
1 
1 
1 
1 
1 
1 
1 
1 
1 
1 
1 
1 
1 
1 
1 
1 
1 
1 
1 
1 
1 
1 
1 
1 
1 
1 
1 
1 
1 
1 
1 
1 
1 
1 
1 
1 
1 
1 
1 
1 
1 
1 
1 
1 
1 
1 
1 
1 
1 
1 
1 
1 
1 
1 
1 
1 
1 
1 
1 
1 
1 
1 
1 
1 
1 
1 
1 
1 
1 
1 
1 
1 
1 
1 
1 
1 
1 
1 
1 
1 
1 
1 
1 
1 
1 
1 
1 
1 
1 
1 
1 
1 
1 
1 
1 
1 
1 
1 
1 
1 
1 
1 
1 
1 
1 
1 
1 
1 
1 
1 
1 
1 
1 
1 
1 
1 
1 
1 
1 
1 
1 
1 
1 
1 
1 
1 
1 
1 
1 
1 
1 
1 
1 
1 
1 
1 
1 
1 
1 
1 
1 
1 
1 
1 
1 
1 
1 
1 
1 
1 
1 
1 
1 
1 
1 
1 
1 
1 
1 
1 
1 
1 
1 
1 
1 
1 
1 
1 
1 
1 
1 
1 
1 
1 
1 
1 
1 
1 
1 
1 
1 
1 
1 
1 
1 
1 
1 
1 
1 
1 
1 
1 
1 
1 
1 
1 
1 
1 
1 
1 
1 
1 
1 
1 
1 
1 
1 
1 
1 
1 
1 
1 
1 
1 
1 
1 
1 
1 
1 
1 
1 
1 
1 
1 
1 
1 
1 
1 
1 
1 
1 
1 
1 
1 
1 
1 
1 
1 
1 
1 
1 
1 
1 
1 
1 
1 
1 
1 
1 
1 
1 
1 
1 
1 
1 
1 
1 
1 
1 
1 
1 
1 
1 
1 
1 
1 
1 
1 
1 
1 
1 
1 
1 
1 
1 
1 
1 
1 
1 
1 
1 
1 
1 
1 
1 
1 
1 
1 
1 
1 
1 
1 
1 
1 
1 
1 
1 
1 
1 
1 
1 
1 
1 
1 
1 
1 
1 
1 
1 
1 
1 
1 
1 
1 
1 
1 
1 
1 
1 
1 
1 
1 
1 
1 
1 
1 
1 
1 
1 
1 
1 
1 
1 
1 
1 
1 
1 
1 
1 
1 
1 
1 
1 
1 
1 
1 
1 
1 
1 
1 
1 
1 
1 
1 
1 
1 
1 
1 
1 
1 
1 
1 
1 
1 
1 
1 
1 
1 
1 
1 
1 
1 
1 
1 
1 
1 
1 
1 
1 
1 
1 
1 
1 
1 
1 
1 
1 
1 
1 
1 
1 
1 
1 
1 
1 
1 
1 
1 
1 
1 
1 
1 
1 
1 
1 
1 
1 
1 
1 
1 
1 
1 
1 
1 
1 
1 
1 
1 
1 
1 
1 
1 
1 
1 
1 
1 
1 
1 
1 
1 
1 
1 
1 
1 
1 
1 
1 
1 
1 
1 
1 
1 
1 
1 
1 
1 
1 
1 
1 
1 
1 
1 
1 
1 
1 
1 
1 
1 
1 
1 
1 
1 
1 
1 
1 
1 
1 
1 
1 
1 
1 
1 
1 
1 
1 
1 
1 
1 
1 
1 
1 
1 
1 
1 
1 
1 
1 
1 
1 
1 
1 
1 
1 
1 
1 
1 
1 
1 
1 
1 
1 
1 
1 
1 
1 
1 
1 
1 
1 
1 
1 
1 
1 
1 
1 
1 
1 
1 
1 
1 
1 
1 
1 
1 
1 
1 
1 
1 
1 
1 
1 
1 
1 
1 
1 
1 
1 
1 
1 
1 
1 
1 
1 
1 
1 
1 
1 
1 
1 
1 
1 
1 
1 
1 
1 
1 
1 
1 
1 
1 
1 
1 
1 
1 
1 
1 
1 
1 
1 
1 
1 
1 
1 
1 
1 
1 
1 
1 
1 
1 
1 
1 
1 
1 
1 
1 
1 
1 
1 
1 
1 
1 
1 
1 
1 
1 
1 
1 
1 
1 
1 
1 
1 
1 
1 
1 
1 
1 
1 
1 
1 
1 
1 
1 
1 
1 
1 
1 
1 
1 
1 
1 
1 
1 
1 
1 
1 
1 
1 
1 
1 
1 
1 
1 
1 
1 
1 
1 
1 
1 
1 
1 
1 
1 
1 
1 
1 
1 
1 
1 
1 
1 
1 
1 
1 
1 
1 
1 
1 
1 
1 
1 
1 
1 
1 
1 
1 
1 
1 
1 
1 
1 
1 
1 
1 
1 
1 
1 
1 
1 
1 
1 
1 
1 
1 
1 
1 
1 
1 
1 
1 
1 
1 
1 
1 
1 
1 
1 
1 
1 
1 
1 
1 
1 
1 
1 
1 
1 
1 
1 
1 
1 
1 
1 
1 
1 
1 
1 
1 
1 
1 
1 
1 
1 
1 
1 
1 
1 
1 
1 
1 
1 
1 
1 
1 
1 
1 
1 
1 
1 
1 
1 
1 
1 
1 
1 
1 
1 
1 
1 
1 
1 
1 
1 
1 
1 
1 
1 
1 
1 
1 
1 
1 
1 
1 
1 
1 
1 
1 
1 
1 
1 
1 
1 
1 
1 
1 
1 
1 
1 
1 
1 
1 
1 
1 
1 
1 
1 
1 
1 
1 
1 
1 
1 
1 
1 
1 
1 
1 
1 
1 
1 
1 
1 
1 
1 
1 
1 
1 
1 
1 
1 
1 
1 
1 
1 
1 
1 
1 
1 
1 
1 
1 
1 
1 
1 
1 
1 
1 
1 
1 
1 
1 
1 
1 
1 
1 
1 
1 
1 
1 
1 
1 
1 
1 
1 
1 
1 
1 
1 
1 
1 
1 
1 
1 
1 
1 
1 
1 
1 
1 
1 
1 
1 
1 
1 
1 
1 
1 
1 
1 
1 
1 
1 
1 
1 
1 
1 
1 
1 
1 
1 
1 
1 
1 
1 
1 
1 
1 
1 
1 
1 
1 
1 
1 
1 
1 
1 
1 
1 
1 
1 
1 
1 
1 
1 
1 
1 
1 
1 
1 
1 
1 
1 
1 
1 
1 
1 
1 
1 
1 
1 
1 
1 
1 
1 
1 
1 
1 
1 
1 
1 
1 
1 
1 
1 
1 
1 
1 
1 
1 
1 
1 
1 
1 
1 
1 
1 
1 
1 
1 
1 
1 
1 
1 
1 
1 
1 
1 
1 
1 
1 
1 
1 
1 
1 
1 
1 
1 
1 
1 
1 
1 
1 
1 
1 
1 
1 
1 
1 
1 
1 
1 
1 
1 
1 
1 
1 
1 
1 
1 
1 
1 
1 
1 
1 
1 
1 
1 
1 
1 
1 
1 
1 
1 
1 
1 
1 
1 
1 
1 
1 
1 
1 
1 
1 
1 
1 
1 
1 
1 
1 
1 
1 
1 
1 
1 
1 
1 
1 
1 
1 
1 
1 
1 
1 
1 
1 
1 
1 
1 
1 
1 
1 
1 
1 
1 
1 
1 
1 
1 
1 
1 
1 
1 
1 
1 
1 
1 
1 
1 
1 
1 
1 
1 
1 
1 
1 
1 
1 
1 
1 
1 
1 
1 
1 
1 
1 
1 
1 
1 
1 
1 
1 
1 
1 
1 
1 
1 
1 
1 
1 
1 
1 
1 
1 
1 
1 
1 
1 
1 
1 
1 
1 
1 
1 
1 
1 
1 
1 
1 
1 
1 
1 
1 
1 
1 
1 
1 
1 
1 
1 
1 
1 
1 
1 
1 
1 
1 
1 
1 
1 
1 
1 
1 
1 
1 
1 
1 
1 
1 
1 
1 
1 
1 
1 
1 
1 
1 
1 
1 
1 
1 
1 
1 
1 
1 
1 
1 
1 
1 
1 
1 
1 
1 
1 
1 
1 
1 
1 
1 
1 
1 
1 
1 
1 
1 
1 
1 
1 
1 
1 
1 
1 
1 
1 
1 
1 
1 
1 
1 
1 
1 
1 
1 
1 
1 
1 
1 
1 
1 
1 
1 
1 
1 
1 
1 
1 
1 
1 
1 
1 
1 
1 
1 
1 
1 
1 
1 
1 
1 
1 
1 
1 
1 
1 
1 
1 
1 
1 
1 
1 
1 
1 
1 
1 
1 
1 
1 
1 
1 
1 
1 
1 
1 
1 
1 
1 
1 
1 
1 
1 
1 
1 
1 
1 
1 
1 
1 
1 
1 
1 
1 
1 
1 
1 
1 
1 
1 
1 
1 
1 
1 
1 
1 
1 
1 
1 
1 
1 
1 
1 
1 
1 
1 
1 
1 
1 
1 
1 
1 
1 
1 
1 
1 
1 
1 
1 
1 
1 
1 
1 
1 
1 
1 
1 
1 
1 
1 
1 
1 
1 
1 
1 
1 
1 
1 
1 
1 
1 
1 
1 
1 
1 
1 
1 
1 
1 
1 
1 
1 
1 
1 
1 
1 
1 
1 
1 
1 
1 
1 
1 
1 
1 
1 
1 
1 
1 
1 
1 
1 
1 
1 
1 
1 
1 
1 
1 
1 
1 
1 
1 
1 
1 
1 
1 
1 
1 
1 
1 
1 
1 
1 
1 
1 
1 
1 
1 
1 
1 
1 
1 
1 
1 
1 
1 
1 
1 
1 
1 
1 
1 
1 
1 
1 
1 
1 
1 
1 
1 
1 
1 
1 
1 
1 
1 
1 
1 
1 
1 
1 
1 
1 
1 
1 
1 
1 
1 
1 
1 
1 
1 
1 
1 
1 
1 
1 
1 
1 
1 
1 
1 
1 
1 
1 
1 
1 
1 
1 
1 
1 
1 
1 
1 
1 
1 
1 
1 
1 
1 
1 
1 
1 
1 
1 
1 
1 
1 
1 
1 
1 
1 
1 
1 
1 
1 
1 
1 
1 
1 
1 
1 
1 
1 
1 
1 
1 
1 
1 
1 
1 
1 
1 
1 
1 
1 
1 
1 
1 
1 
1 
1 
1 
1 
1 
1 
1 
1 
1 
1 
1 
1 
1 
1 
1 
1 
1 
1 
1 
1 
1 
1 
1 
1 
1 
1 
1 
1 
1 
1 
1 
1 
1 
1 
1 
1 
1 
1 
1 
1 
1 
1 
1 
1 
1 
1 
1 
1 
1 
1 
1 
1 
1 
1 
1 
1 
1 
1 
1 
1 
1 
1 
1 
1 
1 
1 
1 
1 
1 
1 
1 
1 
1 
1 
1 
1 
1 
1 
1 
1 
1 
1 
1 
1 
1 
1 
1 
1 
1 
1 
1 
1 
1 
1 
1 
1 
1 
1 
1 
1 
1 
1 
1 
1 
1 
1 
1 
1 
1 
1 
1 
1 
1 
1 
1 
1 
1 
1 
1 
1 
1 
1 
1 
1 
1 
1 
1 
1 
1 
1 
1 
1 
1 
1 
1 
1 
1 
1 
1 
1 
1 
1 
1 
1 
1 
1 
1 
1 
1 
1 
1 
1 
1 
1 
1 
1 
1 
1 
1 
1 
1 
1 
1 
1 
1 
1 
1 
1 
1 
1 
1 
1 
1 
1 
1 
1 
1 
1 
1 
1 
1 
1 
1 
1 
1 
1 
1 
1 
1 
1 
1 
1 
1 
1 
1 
1 
1 
1 
1 
1 
1 
1 
1 
1 
1 
1 
1 
1 
1 
1 
1 
1 
1 
1 
1 
1 
1 
1 
1 
1 
1 
1 
1 
1 
1 
1 
1 
1 
1 
1 
1 
1 
1 
1 
1 
1 
1 
1 
1 
1 
1 
1 
1 
1 
1 
1 
1 
1 
1 
1 
1 
1 
1 
1 
1 
1 
1 
1 
1 
1 
1 
1 
1 
1 
1 
1 
1 
1 
1 
1 
1 
1 
1 
1 
1 
1 
1 
1 
1 
1 
1 
1 
1 
1 
1 
1 
1 
1 
1 
1 
1 
1 
1 
1 
1 
1 
1 
1 
1 
1 
1 
1 
1 
1 
1 
1 
1 
1 
1 
1 
1 
1 
1 
1 
1 
1 
1 
1 
1 
1 
1 
1 
1 
1 
1 
1 
1 
1 
1 
1 
1 
1 
1 
1 
1 
1 
1 
1 
1 
1 
1 
1 
1 
1 
1 
1 
1 
1 
1 
1 
POINT_DATA 5000
VECTORS Stress float
320.702 394.076 0.
537.266 469.395 0.
525.801 441.916 0.
-511.707 -27.8355 0.
-510.965 -27.13 0.
-510.223 -26.4244 0.
781.492 322.151 0.
508.776 -315.036 0.
236.06 -952.222 0.
203.467 -1032.62 0.
306.648 -791.626 0.
409.83 -550.635 0.
-706.433 -938.222 0.
-666.689 -844.555 0.
-1103.82 -908.647 0.
-804.375 -210.273 0.
-504.928 488.102 0.
504.383 990.707 0.
-67.0732 -343.936 0.
-638.529 -1678.58 0.
-842.433 -1901.54 0.
-439.848 -962.785 0.
-37.2631 -24.0288 0.
109.54 342.329 0.
173.962 493.545 0.
366.852 699.812 0.
-1986.58 -88.7973 0.
-1874.64 173.592 0.
-1653.65 382.533 0.
-1758.97 136.33 0.
-1864.28 -109.873 0.
-2844.82 -427.551 0.
-2578.03 195.653 0.
-2311.23 818.858 0.
-3516.24 -319.931 0.
-4226.22 -1973.96 0.
-4936.2 -3627.98 0.
-3930.52 -1937.32 0.
-2999.94 239.153 0.
-8355.62 -301.071 0.
-9921.25 -124.458 0.
-9474.11 914.763 0.
-9269.66 1586.65 0.
-9326.63 1456.81 0.
-9383.6 1326.98 0.
-12041.2 -1214.89 0.
-13473.2 -4558.93 0.
-14905.3 -7902.96 0.
90192.5 36747.9 0.
90242.1 36873.2 0.
-1.63172e+06 -701010 0.
88477.5 36161.7 0.
88453.5 36096 0.
-14111.3 -7551.88 0.
-12898.7 -4719.14 0.
-11686.1 -1886.4 0.
-8947.71 582.737 0.
-8802.6 922.667 0.
-8657.49 1262.6 0.
-9017.44 1095.8 0.
-9059 998.687 0.
-6768.4 1901.1 0.
-4281.03 2001.43 0.
-4810.63 766.101 0.
-1643.74 1061.5 0.
-2372.23 -639.091 0.
-3100.72 -2339.68 0.
-3284.91 -2914.98 0.
-2780.29 -1738.88 0.
-2275.66 -562.777 0.
-2046.62 -77.7351 0.
-2028.33 -35.2448 0.
-2010.04 7.2455 0.
-2355.58 154.919 0.
-2170.38 587.594 0.
789.544 2165.57 0.
402.797 1194.93 0.
-19.9556 208.86 0.
679.621 -217.775 0.
408.665 -848.915 0.
137.709 -1480.06 0.
108.703 -1337.28 0.
556.004 -292.195 0.
1003.31 752.894 0.
-573.005 458.092 0.
-472.56 692.77 0.
-372.115 927.448 0.
345.589 745.035 0.
63.703 87.397 0.
-396.425 -531.307 0.
-297.867 -300.081 0.
-199.31 -68.8546 0.
278.22 243.092 0.
252.271 181.299 0.
226.321 119.505 0.
-211.715 51.8444 0.
-81.7924 354.578 0.
48.1306 657.311 0.
-564.905 282.209 0.
-661.028 58.9894 0.
425.313 470.244 0.
329.201 410.342 0.
317.95 381.906 0.
-248.605 119.277 0.
-247.317 119.207 0.
-246.028 119.137 0.
432.917 205.886 0.
160.901 -431.368 0.
-111.116 -1068.62 0.
333.475 -945.6 0.
436.6 -704.269 0.
539.725 -462.937 0.
-625.622 -872.485 0.
-586.399 -778.172 0.
-933.905 -806.508 0.
-634.245 -108.304 0.
-334.585 589.899 0.
-867.268 435.089 0.
-1437.44 -899.04 0.
-2007.61 -2233.17 0.
1503.02 -865.975 0.
1906.59 73.8719 0.
2310.17 1013.72 0.
-845.373 -34.4032 0.
-781.881 116.435 0.
-1049.09 125.546 0.
-1796.29 22.6796 0.
-1685.08 285.778 0.
-1607.06 434.001 0.
-1712.07 187.549 0.
-1817.08 -58.9026 0.
-2510.49 -250.564 0.
-2243.71 373.966 0.
-1976.94 998.496 0.
-2122.91 304.201 0.
-2835.1 -1349.77 0.
-3547.28 -3003.73 0.
-5803.13 -2709.79 0.
-4876.99 -533.469 0.
-8174.97 -188.094 0.
-7724.54 850.602 0.
-7274.1 1889.3 0.
-10091.1 1261.1 0.
-10150.4 1132.19 0.
-10209.6 1003.27 0.
-9613.99 -154.006 0.
-11047 -3505.48 0.
-12480.1 -6856.93 0.
86252.1 35074.8 0.
86295.7 35205.1 0.
-1.40121e+06 -602187 0.
85032.6 34708.4 0.
85014.5 34637.6 0.
-12156.5 -6700.66 0.
-10944.4 -3862.31 0.
-9732.44 -1023.96 0.
-9788.72 246.933 0.
-9644.56 587.349 0.
-9500.39 927.768 0.
-7217.26 1899.71 0.
-7258.74 1802.53 0.
-7300.23 1705.35 0.
-4808.78 1810.87 0.
-5338.29 576.614 0.
-2407.12 763.664 0.
-3134.65 -936.246 0.
-3862.19 -2636.16 0.
-1543.53 -2139.59 0.
-1037.52 -962.973 0.
-531.511 213.65 0.
-1709.71 101.797 0.
-1691.5 143.728 0.
-1673.28 185.658 0.
-2475.71 133.284 0.
-2290.94 566.06 0.
-941.395 1459.69 0.
-1253.09 522.263 0.
-1675.67 -462.685 0.
4091.62 1274.22 0.
3819.35 642.18 0.
3547.07 10.1404 0.
-1549.6 -2016.66 0.
-1103.74 -972.171 0.
-657.891 72.3127 0.
-650.056 456.777 0.
-549.958 691.257 0.
-449.861 925.738 0.
231.171 728.646 0.
-50.8 70.9964 0.
-268.636 -447.145 0.
-170.862 -215.231 0.
-73.0881 16.6836 0.
293.959 279.478 0.
268.536 216.422 0.
243.113 153.368 0.
248.225 280.895 0.
378.4 583.377 0.
508.575 885.859 0.
-232.185 457.518 0.
-328.945 234.94 0.
237.75 -129.609 0.
-175.621 -342.326 0.
-36.5167 -17.1981 0.
-491.812 -917.704 0.
-218.724 -279.627 0.
-564.054 -1084.54 0.
-1391.74 -3355.17 0.
-977.131 -2388.75 0.
-3738.94 -8833.95 0.
-5459.26 -14673.3 0.
-1069.03 -4431.1 0.
-1332.59 -5047.74 0.
-2429.34 -5200.11 0.
-2787.16 -6034.53 0.
-4769.07 -10060.2 0.
-1830.87 -3204.51 0.
-2244.01 -4168.64 0.
-4229.78 -4785.19 0.
-3496.46 -3074.11 0.
-5513.5 -7780.51 0.
-42341.8 -107607 0.
346.127 -7997.68 0.
689.275 -7192.56 0.
-4623.99 -7009.95 0.
-3871.54 -5256.27 0.
-4676.82 -7193.53 0.
-3579.16 -4450.24 0.
-3421.86 -4085.17 0.
-3129.94 -3196.18 0.
-3066.89 -3041.72 0.
-4194.91 -5666.43 0.
-8137.23 -13986.4 0.
-5069.66 -6823.54 0.
-5147.91 -7000.91 0.
-3616.77 -5771.82 0.
-3496.41 -5500.25 0.
-20052.5 -44140.4 0.
-16733.9 -24630.2 0.
-13219.7 -16438.6 0.
-12446 -14313.9 0.
-10224.9 -9138.58 0.
-10132.9 -8931.38 0.
-14597.9 -7739.02 0.
-13346.5 -4823.62 0.
-13265.4 -4638.8 0.
-10129.7 -6039.05 0.
-12591.4 -11756.1 0.
-56275 -113658 0.
82377.6 33589.1 0.
91437.1 54838.2 0.
-1.31119e+06 -589268 0.
90539 54247.9 0.
81323.8 32635.2 0.
-52409.3 -104339 0.
-13197.5 -12865.2 0.
-12137.7 -10412.3 0.
-14394.1 -8941.11 0.
-13853.3 -7684.95 0.
-14991.9 -10347.4 0.
-9840.43 -7630.77 0.
-8700.53 -4968.83 0.
-8877.69 -5380.06 0.
-7896.23 -4380.12 0.
-8223.74 -5155.14 0.
-6904.77 -8252.73 0.
-6097.75 -6371.86 0.
-7825.33 -10405.1 0.
-30133.3 -72138.4 0.
-2525.21 -7714.99 0.
-2844.52 -8455.36 0.
-5125.71 -8479.21 0.
-4656.9 -7385.19 0.
-6616.8 -11958.2 0.
-4394.03 -4071.37 0.
-3978.84 -3105.73 0.
-4789.4 -4333.81 0.
-3928.72 -2541.18 0.
-4660.6 -4246.87 0.
-2448.83 -20433.7 0.
-2710.75 -21050.2 0.
-59495.8 -153554 0.
-13126.4 -25841.7 0.
-6925.02 -11374.1 0.
-7572.11 -12886.2 0.
-2834.91 -4459.86 0.
-1931.06 -2354.29 0.
-2768.92 -4312.74 0.
-1700.37 -3525.4 0.
-1711.94 -3551.36 0.
-3249.97 -7627.04 0.
-827.362 -1970.9 0.
-807.52 -1921.6 0.
-796.791 -2275.36 0.
-603.805 -1823.98 0.
-1508.62 -3934.09 0.
-411.04 -2104.64 0.
402.331 -204.639 0.
572.233 193.905 0.
-356.166 -418.91 0.
-1149.37 -2271.94 0.
293.141 663.301 0.
138.848 651.824 0.
172.905 730.912 0.
370.616 874.09 0.
379.35 898.929 0.
388.084 923.77 0.
772.477 1476.51 0.
1253.15 2597.3 0.
1733.82 3718.09 0.
2016.94 3825.2 0.
1728.69 3152.29 0.
1440.44 2479.38 0.
1218.51 2542.69 0.
1359.68 2872.65 0.
985.879 2905.21 0.
684.264 2204.88 0.
382.649 1504.56 0.
-807.455 1466.57 0.
714.102 5014.58 0.
2235.66 8562.6 0.
6343.37 10540.9 0.
5130.9 7712.88 0.
3918.43 4884.83 0.
304.135 2567.45 0.
199.16 2322.49 0.
644.102 2313.15 0.
-570.637 1658.61 0.
-638.005 1500.72 0.
-707.599 1543.17 0.
-272.821 2564.43 0.
161.957 3585.68 0.
66.2712 3753.73 0.
-278.953 2953.47 0.
-624.175 2153.21 0.
37.9531 3949.2 0.
1507.71 7371.65 0.
2977.47 10794.1 0.
-1838.63 7986.03 0.
-2567.21 6279.23 0.
-2959.83 4685.84 0.
-3291.64 3913.34 0.
-3623.46 3140.83 0.
-6539.89 1435.24 0.
-6631.4 1225.87 0.
-6722.88 1016.51 0.
-4724.39 213.045 0.
-6539.94 -4004.89 0.
-8355.51 -8222.71 0.
74590.8 38852.3 0.
84216.4 61492.5 0.
-985433 -378415 0.
83257 61571.2 0.
73896.3 39533.6 0.
-7701.43 -6722.2 0.
-5960.14 -2679.44 0.
-4218.84 1363.4 0.
-5846.2 2177.79 0.
-5920.24 1996.9 0.
-5994.27 1816.02 0.
-3871.47 2462.96 0.
-4032.39 2087.6 0.
-4193.29 1712.26 0.
-3888.3 1564.34 0.
-4026.18 1234.95 0.
-2020 2287.1 0.
-601.573 5589.16 0.
816.857 8891.23 0.
4276.45 11189.6 0.
3042.25 8310.52 0.
1808.03 5431.41 0.
655.817 3860.42 0.
552.099 3615.55 0.
448.381 3370.67 0.
-427.853 2456.67 0.
-764.167 1673.73 0.
-1036.63 959.946 0.
-318.238 2795.64 0.
483.757 4667.17 0.
7256.45 9440.09 0.
8653.41 12699 0.
10050.4 15957.9 0.
4339.51 13165.5 0.
2522.78 8926.43 0.
706.051 4687.4 0.
973.562 3094.66 0.
451.222 1874.64 0.
-71.1169 654.624 0.
491.128 1285.03 0.
742.631 1876.19 0.
1020.76 2308.76 0.
720.81 1611.3 0.
420.86 913.846 0.
632.231 726.202 0.
725.812 947.03 0.
819.393 1167.86 0.
627.968 1076.78 0.
555.76 909.86 0.
483.552 742.942 0.
381.692 1201.66 0.
719.324 1988.95 0.
-38.5243 552.936 0.
18.6751 631.85 0.
52.981 710.591 0.
503.021 962.461 0.
510.594 988.196 0.
518.167 1013.93 0.
903.26 1563.53 0.
1384.01 2684.7 0.
1864.76 3805.88 0.
1478.86 3623.73 0.
1190.4 2951.65 0.
901.931 2279.58 0.
1638.43 2753.65 0.
1779.51 3083.47 0.
1243.78 3044.17 0.
940.99 2344.67 0.
638.202 1645.18 0.
119.536 1895.91 0.
1642.86 5445.75 0.
3166.19 8995.6 0.
3971.22 9555.38 0.
2761.82 6731.09 0.
1552.4 3906.79 0.
1329.73 3038.94 0.
1223.81 2793.79 0.
1813.84 2846.82 0.
-75.51 1902.84 0.
-143.407 1745.01 0.
-212.665 1785.25 0.
222.446 2806.71 0.
657.556 3828.16 0.
817.958 4106.33 0.
472.65 3305.9 0.
127.345 2505.48 0.
-571.588 3720.27 0.
896.67 7141.52 0.
2364.93 10562.8 0.
-697.401 8509.56 0.
-1426.99 6801.72 0.
-1298.79 5426.92 0.
-1633.73 4656.28 0.
-1968.66 3885.63 0.
-1474.09 3627.78 0.
-1568.87 3419.45 0.
-1663.63 3211.14 0.
-1395.03 1620.98 0.
-3212.73 -2610.6 0.
-5030.45 -6842.06 0.
62448.4 33959.6 0.
71966.8 56416.4 0.
-648028 -233781 0.
70576.9 56302.2 0.
61330.3 34447.6 0.
-4197.49 -5247.93 0.
-2451.3 -1193.78 0.
-705.102 2860.47 0.
-1196.4 4201.27 0.
-1270.09 4018.76 0.
-1343.78 3836.26 0.
-1841.28 3366.26 0.
-2001.92 2989.5 0.
-2162.54 2612.75 0.
-2080.51 2375.07 0.
-2219.45 2046.41 0.
-1554.37 2515.61 0.
-133.559 5817.81 0.
1287.26 9120.02 0.
2697.62 10544.4 0.
1466.04 7667.47 0.
234.457 4790.52 0.
1278.55 4162.87 0.
1175.63 3916.86 0.
1072.7 3670.85 0.
1020.94 3110.79 0.
682.797 2328.53 0.
571.285 1678.26 0.
1318.85 3527.86 0.
2122.53 5401.52 0.
3480.82 7858.45 0.
4872.7 11110.2 0.
6264.58 14362 0.
5277.87 13608.5 0.
3459.11 9366.9 0.
1640.36 5125.34 0.
1689.2 3432.57 0.
1165.82 2212.33 0.
642.436 992.088 0.
666.361 1390.84 0.
916.752 1982.77 0.
1051.95 2351.93 0.
752.261 1654.51 0.
452.57 957.097 0.
823.721 840.219 0.
916.861 1061.35 0.
1010 1282.48 0.
246.909 944.79 0.
174.829 777.609 0.
102.749 610.428 0.
452.05 1264.9 0.
789.284 2052.94 0.
-104.973 775.588 0.
-69.0619 512.716 0.
-187.594 241.999 0.
145.854 221.016 0.
231.475 419.342 0.
317.096 617.668 0.
559.871 617.742 0.
278.19 -38.2309 0.
-3.49154 -694.203 0.
-570.345 -986.048 0.
-433.316 -669.595 0.
-296.284 -353.141 0.
408.79 -187.699 0.
295.507 -450.333 0.
-448.139 -946.247 0.
-330.743 -674.013 0.
-213.348 -401.78 0.
-317.205 -628.924 0.
-897.497 -1975.84 0.
-1477.79 -3322.75 0.
-2303.01 -3656.26 0.
-1752.24 -2375.53 0.
-1201.46 -1094.81 0.
103.031 -430.664 0.
-10.6994 -701.432 0.
391.442 -751.014 0.
-1004.83 -862.464 0.
-727.925 -219.24 0.
-659.991 126.177 0.
-1024.59 -724.971 0.
-1389.2 -1576.12 0.
-1217.92 -1657.08 0.
-867.091 -843.994 0.
-516.262 -30.9063 0.
-2325.46 -1242.52 0.
-2888.84 -2561.97 0.
-3452.21 -3881.41 0.
-4791.34 -4002.05 0.
-4413.45 -3126.07 0.
-2782.54 -1779.81 0.
-3034.7 -2367.62 0.
-3286.86 -2955.43 0.
-899.975 -2761.97 0.
-1843.24 -4945.63 0.
-2786.47 -7129.25 0.
-1308.24 -5257.9 0.
874.819 -89.9322 0.
3057.79 5077.91 0.
42309.5 11481.6 0.
33764.4 -8012.36 0.
9282.86 -34310.8 0.
31168.2 -9105.25 0.
39719.1 10387.6 0.
3393.45 5316.99 0.
1354.04 511.058 0.
-685.503 -4294.92 0.
-2815.24 -6584.49 0.
-2129.86 -4986.99 0.
-1444.46 -3389.48 0.
-2956.34 -3299 0.
-2699.05 -2696.56 0.
-2441.76 -2094.11 0.
-2711.99 -1857.57 0.
-2532.83 -1440.04 0.
-2257.3 -1152.77 0.
-2703.41 -2189.03 0.
-3149.51 -3225.28 0.
-3390.94 -3507 0.
-2878.68 -2311.69 0.
-2366.41 -1116.39 0.
-371.598 -64.6006 0.
-546.294 -470.601 0.
-720.991 -876.602 0.
-119.347 -614.25 0.
-72.3498 -516.755 0.
300.02 -271.606 0.
176.533 -481.761 0.
91.311 -675.518 0.
-1770.46 -2001.31 0.
-2564.32 -3851.23 0.
-3358.17 -5701.15 0.
-2236.87 -5228.84 0.
-1403.67 -3285.2 0.
-570.471 -1341.55 0.
208.669 -311.075 0.
381.678 86.5645 0.
554.685 484.206 0.
202.919 140.72 0.
88.8417 -126.347 0.
-49.9988 -354.999 0.
-3.72117 -239.8 0.
42.5567 -124.601 0.
505.19 192.999 0.
561.672 331.99 0.
618.154 470.98 0.
-159.923 289.222 0.
-63.3815 512.251 0.
33.1601 735.28 0.
195.473 745.593 0.
134.756 608.384 0.
-160.064 779.092 0.
-19.6168 564.698 0.
-139.442 295.388 0.
-42.2553 167.41 0.
43.9084 365.732 0.
130.072 564.055 0.
587.853 661.135 0.
306.07 5.07041 0.
24.2864 -650.994 0.
-188.772 -794.436 0.
-51.5667 -477.978 0.
85.6409 -161.519 0.
81.8151 -297.159 0.
-31.6635 -560.098 0.
-605.016 -985.592 0.
-488.953 -712.54 0.
-372.89 -439.488 0.
344.217 -314.522 0.
-235.928 -1662.44 0.
-816.07 -3010.35 0.
-1470.56 -3266.72 0.
-919.601 -1985.06 0.
-368.632 -703.407 0.
-214.871 -537.657 0.
-328.153 -808.331 0.
-966.414 -1304.03 0.
-857.532 -768.97 0.
-581.699 -125.474 0.
-476.698 233.903 0.
-841.093 -617.107 0.
-1205.49 -1468.12 0.
-872.97 -1479.97 0.
-522.576 -666.177 0.
-172.179 147.614 0.
-847.258 -582.718 0.
-1412.88 -1901.57 0.
-1978.49 -3220.41 0.
-2830.77 -3129.7 0.
-2451.91 -2253.1 0.
-492.461 -774.685 0.
-746.683 -1362.47 0.
-1000.9 -1950.26 0.
2157.1 -1440.69 0.
1209.03 -3628.03 0.
261.002 -5815.33 0.
2712.15 -3455.88 0.
4907.18 1721.23 0.
7102.15 6898.27 0.
28838.1 5562.86 0.
20430.1 -13791.9 0.
3198.35 -36872.2 0.
16418.2 -15470.4 0.
24818.9 3867.05 0.
7415.95 7119.95 0.
5364.11 2305.64 0.
3312.17 -2508.69 0.
-78.2123 -5393.46 0.
608.832 -3793.5 0.
1295.89 -2193.54 0.
-707.794 -2310.59 0.
-450.19 -1707.49 0.
-192.574 -1104.4 0.
-1570.76 -1336.8 0.
-1391.97 -918.838 0.
-624.88 -420.088 0.
-1072.39 -1456.99 0.
-1519.89 -2493.89 0.
-2043.55 -2903.4 0.
-1531.73 -1706.69 0.
-1019.91 -509.983 0.
-551.943 -110.444 0.
-726.412 -516.594 0.
-900.882 -922.744 0.
-374.143 -694.055 0.
-328.094 -595.155 0.
144.036 -307.768 0.
9.12743 -523.615 0.
-75.2975 -717.827 0.
-643.169 -1485.32 0.
-1436.96 -3336.74 0.
-2230.74 -5188.15 0.
-1751.55 -4992.43 0.
-917.117 -3048.95 0.
-82.6844 -1105.47 0.
-153.98 -433.105 0.
19.4879 -35.6178 0.
192.954 361.871 0.
206.705 172.762 0.
93.3798 -94.8554 0.
96.7811 -260.526 0.
143.312 -145.513 0.
189.843 -30.5003 0.
243.819 112.706 0.
300.828 251.513 0.
357.837 390.318 0.
-50.477 365.837 0.
45.6801 588.902 0.
141.837 811.967 0.
71.9598 724.378 0.
9.61466 587.999 0.
-266.131 697.192 0.
205.201 1026.71 0.
34.0878 623.767 0.
-396.019 -289.763 0.
-328.291 -129.081 0.
-351.924 -181.556 0.
-348.874 -1545.8 0.
607.528 692.724 0.
574.105 621.252 0.
443.032 -36.3125 0.
153.269 -707.029 0.
677.961 522.637 0.
188.505 604.321 0.
34.7252 240.789 0.
-652.862 -772.967 0.
-314.228 9.51635 0.
-652.71 -787.949 0.
494.561 -1145.98 0.
403.577 -1358.31 0.
540.133 -1039.74 0.
63.9323 -1221.19 0.
281.444 -718.687 0.
512.136 -185.472 0.
-316.882 -163.627 0.
-555.02 -717.259 0.
-406.88 -260.241 0.
-572.783 -351.131 0.
-996.961 -1355.87 0.
-940.714 -1162.22 0.
-428.82 30.2459 0.
-4.12429 1019.27 0.
-767.018 -1865.99 0.
-580.454 -1433.4 0.
-345.494 -887.802 0.
404.857 -396.912 0.
-461.251 -2414.08 0.
-1151.8 -4021.7 0.
-1480.04 -3679.84 0.
-1045.72 -2665.48 0.
819.204 -2024.26 0.
450.627 -2878.63 0.
286.311 -3256.5 0.
4127.72 -2523.4 0.
4021.05 -2780.46 0.
4753.85 -1078.9 0.
7422.11 108.404 0.
7339.1 -94.285 0.
7690.85 726.685 0.
16644.4 2509.27 0.
16414 1986.45 0.
4376.08 -5639.49 0.
10936.9 -456.214 0.
11686.1 1271.92 0.
7996.48 1008.65 0.
7223.1 -820.241 0.
6468.24 -2605.81 0.
3540.46 -2058.81 0.
4269.01 -370.444 0.
4357.74 -174.952 0.
1065.22 -2384.33 0.
798.122 -3009.27 0.
2100.9 28.9166 0.
-651.728 -1370.06 0.
-1212.78 -2672.78 0.
150.436 -1609.38 0.
1114.11 640.34 0.
540.132 -697.831 0.
-368.655 -1472.09 0.
-444.037 -1651.73 0.
-212.382 -1114.92 0.
-1450.12 -1859.35 0.
-480.145 404.09 0.
-496.17 366.914 0.
-846.862 -1287.54 0.
-1064.03 -1795.96 0.
406.314 183.185 0.
-153.718 -561.301 0.
-487.959 -1338.83 0.
1040.18 359.865 0.
309.605 -1340.17 0.
70.0802 -1894.35 0.
-16.956 -1815.91 0.
438.947 -748.474 0.
857.076 230.886 0.
-807.014 -1271.77 0.
-838.281 -1334.71 0.
-1294.42 -2389.06 0.
-89.6907 -479.248 0.
311.178 455.516 0.
739.007 1001.96 0.
739.88 991.914 0.
722.257 938.548 0.
232.589 629.855 0.
212.581 582.62 0.
677.147 1666.06 0.
124.69 590.853 0.
-61.7702 156.475 0.
-140.352 -26.15 0.
-33.777 740.146 0.
-440.306 -217.561 0.
-425.666 570.173 0.
200.533 710.767 0.
116.671 511.441 0.
-91.5706 244.594 0.
-233.263 -84.8561 0.
-374.956 -414.306 0.
165.111 -385.476 0.
132.264 -454.819 0.
99.4176 -524.164 0.
-36.5133 -507.196 0.
36.8095 -332.047 0.
110.13 -156.899 0.
-74.0951 -297.696 0.
-127.987 -425.65 0.
-291.604 -599.18 0.
-235.753 -472.615 0.
-179.902 -346.048 0.
647.415 -120.163 0.
240.686 -1069.88 0.
-166.042 -2019.6 0.
-287.89 -2265.88 0.
-77.0214 -1778.56 0.
133.848 -1291.23 0.
-534.258 -1223.78 0.
-364.631 -828.429 0.
-199.709 -434.926 0.
-620.485 -832.76 0.
-734.291 -1112.39 0.
-629.03 -1263.66 0.
-595.447 -1186.18 0.
-561.863 -1108.71 0.
-337.854 -1144.07 0.
-578.677 -1708.42 0.
-819.501 -2272.77 0.
-143.007 -2026.56 0.
-23.4883 -1742.43 0.
96.0295 -1458.3 0.
322.606 -1640.02 0.
124.842 -2099.02 0.
1709.13 -1787.27 0.
1307.43 -2715.17 0.
905.744 -3643.06 0.
4017.8 -2813.78 0.
4064.9 -2707.62 0.
4112.02 -2601.47 0.
5675.47 -1562.59 0.
5993.38 -839.573 0.
6311.27 -116.548 0.
13718.7 1737.17 0.
12723.2 -580.954 0.
5078.34 -5745.03 0.
8946.33 -2005.38 0.
10042.7 546.064 0.
6745.47 543.971 0.
6375.24 -331.643 0.
6004.98 -1207.24 0.
3383.06 -2697.64 0.
3384.8 -2702.5 0.
3386.54 -2707.35 0.
1158.4 -3251.18 0.
1477.27 -2508 0.
1796.13 -1764.82 0.
-23.5741 -2052.65 0.
224.805 -1470.29 0.
412.507 -1052.27 0.
207.332 -1531.53 0.
2.15574 -2010.8 0.
-468.657 -2319.42 0.
-276.92 -1877.38 0.
-85.1805 -1435.35 0.
-739.725 -1430.27 0.
-624.18 -1157.25 0.
-508.63 -884.217 0.
-513.935 -798.796 0.
-478.946 -716.193 0.
-190.205 -528.17 0.
-363.683 -866.98 0.
-505.344 -1192.16 0.
372.8 -1172.7 0.
85.1938 -1837.88 0.
-202.411 -2503.05 0.
-287.995 -2397.63 0.
156.192 -1357.77 0.
600.378 -317.905 0.
-87.0727 -312.902 0.
-35.4742 -185.472 0.
16.123 -58.0392 0.
-68.8744 -360.131 0.
-230.978 -738.986 0.
-159.013 -929.197 0.
3.15388 -557.897 0.
165.321 -186.597 0.
-0.640291 -89.4869 0.
-16.8558 -124.915 0.
-33.0708 -160.343 0.
-255.77 -239.954 0.
-229.831 -178.621 0.
-203.893 -117.287 0.
-524.868 -282.493 0.
-541.68 -327.758 0.
-539.576 549.627 0.
376.058 815.176 0.
292.252 616.063 0.
18.2502 324.848 0.
-123.006 -5.11106 0.
-264.263 -335.07 0.
201.907 -338.592 0.
169.021 -407.762 0.
136.136 -476.933 0.
-358.521 -611.221 0.
-284.933 -436.739 0.
-211.347 -262.257 0.
93.9892 -195.17 0.
39.2087 -322.487 0.
76.5325 -409.596 0.
131.199 -282.235 0.
185.864 -154.873 0.
311.056 -235.947 0.
-95.0577 -1185.04 0.
-501.171 -2134.14 0.
-154.671 -2178.86 0.
56.1973 -1690.94 0.
267.066 -1203.03 0.
-226.678 -1059.16 0.
-56.0089 -664.27 0.
96.3739 -277.006 0.
-408.889 -710.592 0.
-523.04 -990.178 0.
-177.373 -1037.51 0.
-144.52 -960.217 0.
-111.667 -882.927 0.
-175.39 -1045.65 0.
-416.552 -1610.02 0.
-657.714 -2174.4 0.
57.4835 -1909.74 0.
176.53 -1625.24 0.
295.575 -1340.74 0.
1477.82 -1111.42 0.
1279.47 -1570.64 0.
2687.52 -1343.05 0.
2284.43 -2270.64 0.
1881.34 -3198.22 0.
4050.46 -2772.12 0.
4096.4 -2663.99 0.
4142.34 -2555.88 0.
4430.67 -2062.79 0.
4751.73 -1341.65 0.
5072.76 -620.491 0.
10559.1 417.815 0.
9569.4 -1897.02 0.
1496.59 -7254.68 0.
7334.11 -2669.83 0.
8424.97 -118.642 0.
5472.23 26.8462 0.
5098.35 -844.553 0.
4724.44 -1715.94 0.
3538.48 -2606.72 0.
3539.41 -2610.9 0.
3540.35 -2615.07 0.
1742.76 -2972.06 0.
2061.66 -2227.4 0.
2380.56 -1482.74 0.
1118.85 -1535.81 0.
1368.96 -953.465 0.
459.774 -995.726 0.
255.541 -1475.25 0.
51.3067 -1954.78 0.
-127.553 -2137.81 0.
64.6197 -1696.26 0.
256.794 -1254.7 0.
-78.9722 -1117.82 0.
35.6384 -843.519 0.
150.252 -569.221 0.
-346.169 -695.233 0.
-311.966 -611.962 0.
-187.153 -497.564 0.
-444.914 -871.329 0.
-587.328 -1195.64 0.
374.985 -1143.58 0.
87.1204 -1808.06 0.
-200.743 -2472.54 0.
-298.847 -2371.51 0.
145.629 -1331.67 0.
590.103 -291.839 0.
310.186 -106.969 0.
362.803 19.7234 0.
415.418 146.418 0.
-87.8915 -333.936 0.
-250.073 -712.7 0.
-229.586 -928.669 0.
-68.9145 -556.047 0.
91.7567 -183.425 0.
105.883 -15.6838 0.
88.7074 -50.5156 0.
71.5324 -85.3467 0.
-269.695 -215.662 0.
-243.79 -154.229 0.
-217.885 -92.7952 0.
-573.442 -272.61 0.
-591.337 -317.33 0.
-394.588 572.404 0.
423.384 780.4 0.
329.752 556.322 0.
12.0952 231.631 0.
-89.0844 -10.5707 0.
-190.264 -252.773 0.
181.788 -213.255 0.
177.187 -233.977 0.
172.585 -254.699 0.
-399.924 -645.302 0.
-514.33 -913.462 0.
-628.736 -1181.62 0.
-90.5036 -938.728 0.
-60.0318 -864.377 0.
85.8766 -743.543 0.
25.2512 -888.677 0.
-35.3752 -1033.81 0.
-106.504 -1213.49 0.
-210.791 -1456.34 0.
-315.076 -1699.18 0.
109.138 -1639.13 0.
75.4359 -1717.24 0.
41.7332 -1795.35 0.
-482.349 -1934.59 0.
-408.946 -1763.47 0.
-50.4474 -1470.1 0.
-559.485 -1653.79 0.
-539.166 -1608.91 0.
-123.066 -1421.86 0.
-163.493 -1517.32 0.
-203.92 -1612.78 0.
-238.275 -1760.84 0.
-345.872 -2022.91 0.
-453.47 -2284.98 0.
136.844 -2313.44 0.
-30.5711 -2700.86 0.
-197.988 -3088.27 0.
1541.3 -2717.6 0.
1337.63 -3193.79 0.
2105.95 -3230.12 0.
1977.17 -3527.98 0.
1848.38 -3825.84 0.
3505.27 -3103.9 0.
3820.17 -2366.02 0.
4135.06 -1628.14 0.
4133.78 -1051.17 0.
4416.8 -386.926 0.
4699.83 277.314 0.
9006.15 1492.15 0.
8485.14 278.203 0.
744.603 -4025.91 0.
7150.52 -581.39 0.
7521.1 277.107 0.
4507.46 -560.302 0.
4310.7 -1016.29 0.
4113.94 -1472.28 0.
3614.82 -1927.94 0.
3565.27 -2029.87 0.
3515.71 -2131.81 0.
1988.71 -2709.3 0.
2067.7 -2516.03 0.
2146.68 -2322.76 0.
1204.54 -2635.36 0.
1243.32 -2536.49 0.
-191.021 -3021.49 0.
-10.5215 -2597.87 0.
169.98 -2174.24 0.
185.53 -1905.55 0.
249.778 -1752.77 0.
314.025 -1599.99 0.
114.861 -1554.08 0.
190.964 -1384.91 0.
267.068 -1215.75 0.
-522.964 -1515.82 0.
-507.458 -1486.83 0.
-467.518 -1461.94 0.
-777.317 -1960.98 0.
-962.717 -2406.72 0.
-181.025 -2294.53 0.
-100.143 -2114.51 0.
-19.2601 -1934.49 0.
57.74 -1795.86 0.
105.854 -1682.16 0.
153.971 -1568.47 0.
-185.499 -1462.7 0.
-29.889 -1102.69 0.
125.721 -742.672 0.
-240.56 -674.995 0.
-127.942 -412.225 0.
98.0828 -131.268 0.
123.772 -73.7616 0.
149.46 -16.255 0.
129.299 11.8388 0.
147.945 45.4326 0.
166.591 79.0262 0.
-38.9302 84.6312 0.
24.3412 236.442 0.
87.612 388.252 0.
-340.996 515.989 0.
-162.603 933.378 0.
73.6045 807.402 0.
454.394 824.975 0.
359.577 601.86 0.
26.4942 268.73 0.
-74.743 26.5092 0.
-175.98 -215.713 0.
27.0215 -248.503 0.
22.8054 -269.579 0.
18.5891 -290.654 0.
-119.658 -493.995 0.
-234.006 -762.761 0.
-348.354 -1031.53 0.
90.5909 -829.005 0.
121.571 -755.53 0.
140.471 -692.372 0.
78.9539 -836.849 0.
17.436 -981.326 0.
241.08 -1033.08 0.
136.544 -1275.34 0.
32.009 -1517.6 0.
71.3045 -1626.22 0.
38.0648 -1704.23 0.
4.82498 -1782.24 0.
-465.094 -1897.22 0.
-392.496 -1725.71 0.
292.145 -1291.83 0.
-112.08 -1430.67 0.
-91.8079 -1386.21 0.
-6.65756 -1340.36 0.
-47.7933 -1436.01 0.
-88.9291 -1531.67 0.
226.55 -1535.37 0.
117.422 -1796.3 0.
8.2929 -2057.24 0.
571.299 -2097.63 0.
401.89 -2484.31 0.
232.479 -2870.99 0.
2275.22 -2372.19 0.
2070.3 -2847.66 0.
1782.46 -3343.07 0.
1653.77 -3640.34 0.
1525.08 -3937.6 0.
2540.44 -3482.42 0.
2856.01 -2745.26 0.
3171.56 -2008.1 0.
3566.84 -1260.4 0.
3849.81 -596.392 0.
4132.78 67.6179 0.
7240.9 763.118 0.
6719.91 -448.717 0.
2348.86 -3309.79 0.
6157.12 -976.801 0.
6526.2 -117.976 0.
4062.07 -716.639 0.
3865.83 -1173.91 0.
3669.59 -1631.19 0.
2946.03 -2182.08 0.
2896.9 -2285.24 0.
2847.76 -2388.4 0.
1767.63 -2770.04 0.
1846.34 -2577.07 0.
1925.04 -2384.1 0.
1515.84 -2472.18 0.
1555.36 -2373.42 0.
278.409 -2791.92 0.
459.585 -2366.79 0.
640.763 -1941.66 0.
387.261 -1788.18 0.
452.008 -1635.38 0.
516.754 -1482.58 0.
427.717 -1392.08 0.
503.745 -1223.09 0.
579.774 -1054.11 0.
-223.001 -1350.5 0.
-207.129 -1321.61 0.
-382.596 -1396.96 0.
-350.085 -1747.68 0.
-536.633 -2192.28 0.
-297.727 -2317.25 0.
-217.153 -2136.49 0.
-136.579 -1955.74 0.
354.865 -1638.76 0.
402.486 -1524.91 0.
450.11 -1411.05 0.
-288.497 -1474.19 0.
-132.872 -1114.3 0.
22.7528 -754.405 0.
-186.495 -622.355 0.
-74.9052 -358.271 0.
164.22 -69.2964 0.
190.128 -12.3198 0.
216.036 44.6574 0.
94.2958 27.2584 0.
112.053 62.3541 0.
129.811 97.4497 0.
244.577 234.935 0.
307.771 387.187 0.
370.964 539.438 0.
-533.707 462.618 0.
-354.261 880.382 0.
595.361 1164.66 0.
403.675 695.155 0.
815.034 1660.54 0.
212.44 686.652 0.
18.872 243.117 0.
162.516 586.554 0.
388.83 894.842 0.
280.966 645.977 0.
389.917 901.755 0.
714.696 950.433 0.
606.466 698.666 0.
327.415 48.3755 0.
542.534 -84.9856 0.
424.827 -362.294 0.
494.337 54.8431 0.
882.616 964.206 0.
515.31 110.53 0.
1077.61 284.011 0.
944.34 -26.4093 0.
771.339 -429.799 0.
753.819 64.7771 0.
818.89 218.243 0.
243.117 -1123.45 0.
123.687 -530.584 0.
483.819 302.145 0.
383.073 -331.897 0.
776.813 -196.903 0.
350.778 -1199.79 0.
127.873 -1209.79 0.
527.824 -281.314 0.
668.369 41.8169 0.
1268.37 43.4277 0.
1035.33 -502.858 0.
992.524 -604.855 0.
1729.95 -174.115 0.
1862.24 128.359 0.
1529.26 -654.196 0.
4370.18 1200.04 0.
3604.28 -590.724 0.
2340.05 -1409.07 0.
2331.97 -1434.76 0.
2578.27 -866.625 0.
2954.8 -632.088 0.
3344.6 268.467 0.
3072.46 -374.892 0.
3528.09 -251.403 0.
3631.45 -4.53981 0.
3563.7 -159.693 0.
5458.07 -11.9705 0.
5679.5 508.459 0.
-1127.3 -1260.25 0.
6002.1 610.173 0.
6055.04 727.544 0.
3419.54 -1344.73 0.
3674.92 -750.301 0.
3951.52 -100.74 0.
3673.02 856.539 0.
3234.77 -173.587 0.
3019.5 -684.137 0.
2001.02 -1783.77 0.
2141.24 -1459.99 0.
2423.58 -805.128 0.
2491.51 -754.384 0.
2855.93 99.4515 0.
2034.15 450.927 0.
1823.03 -42.3038 0.
1754 -203.653 0.
933.968 -865.583 0.
1306.57 1.29967 0.
860.331 -1042.55 0.
848.097 -966.785 0.
1227.81 -78.9742 0.
1470.5 488.862 0.
522.643 -154.458 0.
887.217 693.596 0.
-356.509 -875.856 0.
477.469 -591.562 0.
969.893 553.475 0.
488.364 -241.019 0.
373.752 -512.491 0.
401.481 -452.062 0.
1114.49 -411.104 0.
1026.57 -613.54 0.
1289.75 3.35342 0.
67.3919 -437.585 0.
-66.3125 -745.546 0.
547.678 690.658 0.
256.327 352.992 0.
499.633 926.431 0.
241.816 13.239 0.
490.55 596.549 0.
591.297 834.43 0.
-35.709 -178.584 0.
428.067 904.582 0.
373.048 776.662 0.
272.449 -189.28 0.
679.663 759.181 0.
558.321 474.519 0.
-997.283 -252.057 0.
-995.658 -240.264 0.
534.811 880.27 0.
158.937 426.984 0.
-19.8314 12.9565 0.
-336.438 -391.38 0.
-309.194 -322.784 0.
-281.951 -254.188 0.
193.555 -126.733 0.
52.6134 -454.492 0.
-88.3271 -782.25 0.
-66.5204 -965.051 0.
-139.906 -1137.9 0.
-213.293 -1310.75 0.
235.777 -966.273 0.
346.77 -705.142 0.
98.1055 -634.791 0.
-87.4034 -1065.92 0.
-272.913 -1497.05 0.
504.221 -1422.26 0.
472.501 -1494.59 0.
440.781 -1566.92 0.
-129.383 -1703.63 0.
10.3027 -1375.67 0.
149.988 -1047.71 0.
-210.175 -1354.53 0.
-366.225 -1722.64 0.
-161.738 -1936.43 0.
318.553 -1676.69 0.
357.544 -1592.55 0.
111.688 -1665.6 0.
81.5046 -1740.18 0.
51.3217 -1814.76 0.
710.261 -1610.98 0.
651.967 -1749.33 0.
593.673 -1887.68 0.
1098 -1872.62 0.
972.141 -2172.74 0.
846.287 -2472.85 0.
2772.35 -1939.09 0.
2606.42 -2327.84 0.
2113.66 -2811.63 0.
2269.29 -2454.78 0.
2424.92 -2097.92 0.
2168.06 -1933.71 0.
2300.47 -1634.78 0.
2432.87 -1335.85 0.
2882.25 -933.051 0.
2977.01 -715.882 0.
3071.77 -498.706 0.
4774.45 269.589 0.
4782.69 287.875 0.
1198.78 -1231.98 0.
5071.93 108.456 0.
4903.47 -283.164 0.
3053.14 -1264.1 0.
3195.92 -930.473 0.
3338.69 -596.852 0.
2495.51 -1096.97 0.
2171.43 -1862.02 0.
1847.34 -2627.08 0.
1912.37 -2789.66 0.
1910.9 -2796.16 0.
1909.44 -2802.64 0.
1931.02 -2182.47 0.
2273.74 -1382.74 0.
1313.61 -1282.29 0.
1150.31 -1661.8 0.
987.016 -2041.3 0.
354.779 -2448.65 0.
433.319 -2268.29 0.
511.86 -2087.93 0.
386.65 -1979.06 0.
470.817 -1781.47 0.
554.985 -1583.89 0.
17.6902 -1912.5 0.
-54.1226 -2082.01 0.
-242.823 -2276.72 0.
71.6671 -1803.86 0.
250.843 -1388.92 0.
-0.358565 -1294.45 0.
-66.7421 -1453.96 0.
-133.126 -1613.48 0.
744.074 -1276.75 0.
758.338 -1239.26 0.
772.602 -1201.77 0.
-271.913 -1560.61 0.
-213.425 -1422.3 0.
-154.938 -1283.99 0.
-315.221 -1182.54 0.
-227.676 -975.757 0.
-154.62 -755.755 0.
-24.3749 -453.163 0.
105.87 -150.571 0.
-79.9866 -124.834 0.
-123.196 -228.481 0.
-166.405 -332.129 0.
226.35 -92.0606 0.
317.247 116.238 0.
408.146 324.537 0.
-452.394 163.321 0.
-346.115 418.164 0.
624.159 945.604 0.
14.7293 393.157 0.
-163.09 -21.7351 0.
-423.867 -392.861 0.
-395.963 -325.675 0.
-368.06 -258.489 0.
507.778 40.8353 0.
367.273 -287.683 0.
226.769 -616.2 0.
-0.411554 -902.85 0.
-72.7867 -1076.34 0.
-145.163 -1249.82 0.
336.972 -892.682 0.
446.874 -630.573 0.
-10.0643 -650.069 0.
-194.625 -1081.88 0.
-379.187 -1513.7 0.
713.814 -1300.8 0.
681.572 -1372.57 0.
649.33 -1444.35 0.
-265.004 -1731.32 0.
-124.97 -1403.1 0.
15.0634 -1074.87 0.
-170.186 -1308.01 0.
-327.565 -1674.7 0.
-90.5099 -1872.71 0.
549.577 -1549.67 0.
588.762 -1465.79 0.
349.563 -1531.83 0.
319.09 -1606.5 0.
288.618 -1681.16 0.
913.039 -1488.8 0.
854.555 -1628.26 0.
796.07 -1767.72 0.
1233.16 -1782.42 0.
1107.23 -2082.23 0.
981.295 -2382.05 0.
2478.9 -2035.85 0.
2312.62 -2424.18 0.
2590.76 -2573.3 0.
2746.13 -2216.52 0.
2901.5 -1859.74 0.
1903 -2018.67 0.
2035.97 -1719.99 0.
2168.93 -1421.31 0.
2465.98 -1079.17 0.
2563.14 -863.961 0.
2660.29 -648.748 0.
3814.1 -106.181 0.
3823.52 -89.0673 0.
-1477.69 -2347.07 0.
4206.52 -230.48 0.
4038.2 -622.383 0.
2582.41 -1428.96 0.
2725.88 -1096.04 0.
2869.35 -763.13 0.
2097 -1234.76 0.
1773.48 -1999.31 0.
1449.95 -2763.85 0.
2347.17 -2574.09 0.
2345.13 -2579.34 0.
2343.08 -2584.57 0.
2011.66 -2116.26 0.
2355.2 -1316.23 0.
1359.12 -1232.56 0.
1194.93 -1610.58 0.
1030.75 -1988.6 0.
490.152 -2361.13 0.
569.592 -2181.12 0.
649.032 -2001.11 0.
367.586 -1955.47 0.
452.825 -1758.52 0.
538.064 -1561.56 0.
338.178 -1743.21 0.
266.3 -1912.68 0.
638.611 -1869.23 0.
226.652 -1706.53 0.
404.687 -1290.99 0.
-25.0542 -1271.05 0.
-91.7455 -1430.82 0.
-158.437 -1590.59 0.
759.003 -1240.96 0.
772.844 -1203.48 0.
786.685 -1166.01 0.
-81.608 -1448.33 0.
-22.6226 -1311.07 0.
36.3625 -1173.8 0.
-191.755 -1098.1 0.
-103.419 -892.323 0.
-218.713 -750.147 0.
-87.3667 -448.724 0.
43.9795 -147.3 0.
-144.585 -119.102 0.
-186.713 -223.358 0.
-228.841 -327.615 0.
134.693 -101.214 0.
226.453 106.981 0.
318.215 315.176 0.
13.4199 394.09 0.
120.8 650.28 0.
396.63 392.411 0.
-58.4313 152.554 0.
-24.6878 230.904 0.
-143.892 168.334 0.
-351.04 -313.881 0.
-558.187 -796.096 0.
180.879 -684.093 0.
231.268 -569.258 0.
281.657 -454.423 0.
267.878 -452.262 0.
245.542 -503.336 0.
223.206 -554.41 0.
498.846 -655.375 0.
359.522 -981.088 0.
-325.089 -1538.26 0.
-438.942 -1801.31 0.
-552.795 -2064.35 0.
475.113 -1638.57 0.
734.146 -1033.02 0.
993.18 -427.471 0.
223.164 -601.562 0.
129.06 -818.061 0.
34.9563 -1034.56 0.
5.09362 -1139.56 0.
-25.8158 -1213.39 0.
606.417 -1002.88 0.
727.839 -1264.19 0.
557.991 -1661.46 0.
402.946 -2016.79 0.
342.837 -2157.83 0.
282.731 -2298.88 0.
699.258 -2116.66 0.
801.079 -1879.08 0.
902.9 -1641.5 0.
1323.9 -1629.53 0.
1119.23 -2101.54 0.
914.557 -2573.56 0.
2268.81 -2078.08 0.
2250.24 -2121.95 0.
2781.52 -1923.03 0.
2794.77 -1895.95 0.
2808.01 -1868.87 0.
1727.23 -2191.33 0.
1932.31 -1700.09 0.
2137.4 -1208.84 0.
2236.53 -885.724 0.
2340.13 -639.222 0.
2443.74 -392.722 0.
3406.52 22.578 0.
3379.16 -39.455 0.
-7548.43 -4772.26 0.
3821.5 145.406 0.
3848.64 202.258 0.
2645.61 -382.752 0.
2386.11 -977.107 0.
2126.62 -1571.46 0.
1737.06 -1924.98 0.
1817.42 -1732.62 0.
1897.78 -1540.26 0.
2718.59 -1352.69 0.
2554.87 -1723.01 0.
2391.16 -2093.33 0.
2073.7 -2133.89 0.
2140.72 -1963.94 0.
862.846 -2382.21 0.
893.593 -2311.36 0.
924.34 -2240.52 0.
614.391 -2241.29 0.
747.558 -1921.42 0.
880.725 -1601.56 0.
442.16 -1687.01 0.
437.782 -1694.55 0.
433.405 -1702.1 0.
764.198 -1552.2 0.
772.904 -1530.78 0.
1134.44 -1363.12 0.
56.5862 -1805.51 0.
66.1241 -1781.82 0.
-120.058 -1817.59 0.
-81.7212 -1717.15 0.
-43.3841 -1616.71 0.
608.697 -1270.51 0.
636.271 -1207.02 0.
663.846 -1143.54 0.
-10.4989 -1312.02 0.
61.4847 -1140.69 0.
133.468 -969.37 0.
102.695 -843.869 0.
181.637 -659.485 0.
-150.997 -642.077 0.
-74.3894 -461.447 0.
2.218 -280.817 0.
-216.27 -230.457 0.
-130.585 -29.59 0.
-44.8998 171.277 0.
296.447 355.564 0.
266.087 292.399 0.
235.728 229.236 0.
-77.1678 29.7119 0.
-114.144 -58.2279 0.
335.294 396.571 0.
174.961 283.854 0.
207.03 362.626 0.
70.4464 291.094 0.
-137.534 -191.486 0.
-345.514 -674.064 0.
-115.182 -779.501 0.
-64.5109 -665.04 0.
-13.8398 -550.579 0.
422.549 -353.186 0.
400.811 -404.571 0.
379.072 -455.956 0.
560.082 -601.103 0.
420.15 -925.769 0.
-53.785 -1392.06 0.
-167.356 -1655.25 0.
-280.928 -1918.44 0.
77.0811 -1777.17 0.
336.653 -1172.23 0.
596.226 -567.291 0.
386.211 -503.085 0.
291.651 -719.069 0.
197.091 -935.052 0.
234.251 -1009.85 0.
202.864 -1083.23 0.
372.036 -1070.61 0.
681.067 -1257.12 0.
510.364 -1653.68 0.
820.741 -1807.96 0.
760.04 -1948.32 0.
699.343 -2088.68 0.
682.377 -2091.12 0.
783.749 -1854.51 0.
885.122 -1617.89 0.
1281.09 -1617.73 0.
1076.21 -2090.61 0.
871.321 -2563.48 0.
2105.85 -2113.9 0.
2087.26 -2157.04 0.
2157.4 -2161.78 0.
2169.72 -2133.65 0.
2182.05 -2105.51 0.
1752.53 -2149.22 0.
1958.19 -1659.37 0.
2163.85 -1169.52 0.
1899.04 -993.426 0.
2002.45 -747.596 0.
2105.86 -501.767 0.
3251.53 -13.4202 0.
3223.91 -75.1818 0.
7330.33 1635.28 0.
3410.21 2.45931 0.
3435.88 60.5174 0.
2219.88 -532.045 0.
1960.63 -1126.34 0.
1701.38 -1720.63 0.
1976.07 -1792.05 0.
2056.78 -1600.1 0.
2137.5 -1408.17 0.
1960.34 -1646.35 0.
1797.75 -2017.9 0.
1635.16 -2389.44 0.
2190.32 -2048.06 0.
2258.3 -1879.89 0.
855.744 -2354.38 0.
887.015 -2284.56 0.
918.285 -2214.74 0.
683.302 -2177.49 0.
817.794 -1859.2 0.
952.288 -1540.91 0.
379.734 -1683.36 0.
376.158 -1691.25 0.
372.583 -1699.15 0.
1298.81 -1290.14 0.
1307.23 -1268.64 0.
705.923 -1514.81 0.
-348.314 -1947.37 0.
-338.997 -1923.82 0.
257.811 -1623.37 0.
296.561 -1523.62 0.
335.31 -1423.87 0.
304.858 -1368.99 0.
330.803 -1304.98 0.
356.748 -1240.96 0.
-123.099 -1329.89 0.
-51.0719 -1160.3 0.
20.955 -990.706 0.
439.92 -668.397 0.
519.021 -484.042 0.
-34.5727 -561.285 0.
42.8315 -381.15 0.
120.236 -201.014 0.
-198.464 -190.926 0.
-112.701 9.79826 0.
-26.9383 210.523 0.
317.662 395.315 0.
287.095 332.732 0.
256.527 270.151 0.
-327.682 -45.1191 0.
-365.629 -132.965 0.
685.327 1440.76 0.
414.887 444.455 0.
263.328 83.8416 0.
313.977 488.217 0.
272.968 393.398 0.
664.234 1308.51 0.
-188.272 -365.245 0.
-126.193 -222.529 0.
-76.2338 -108.773 0.
451.446 -557.546 0.
641.769 -107.994 0.
643.889 -97.1112 0.
794.405 -118.686 0.
1000.44 366.185 0.
1056.37 718.707 0.
485.711 -611.814 0.
739.456 -18.2731 0.
750.133 563.802 0.
836.978 766.737 0.
624.679 271.566 0.
977.322 598.642 0.
830.066 248.809 0.
943.503 507.723 0.
763.295 -200.057 0.
1115.52 621.952 0.
1070.69 6.84927 0.
881.431 -681.187 0.
1281.01 248.189 0.
2288.84 859.438 0.
2254.45 783.386 0.
1879.15 -88.0813 0.
1660.84 241.361 0.
1166.98 -907.036 0.
1156.86 -926.849 0.
2110.62 443.818 0.
2029.43 253.118 0.
2049.32 297.488 0.
3529.65 1564.12 0.
2836.59 -46.6603 0.
2178.54 -906.954 0.
2853.3 658.234 0.
2533.7 -94.8803 0.
2726.99 132.462 0.
2878.5 472.12 0.
2433.46 -575.98 0.
1830.83 -469.645 0.
1934.75 -231.142 0.
1832.28 -473.067 0.
2553.47 -1310.69 0.
3212.49 227.737 0.
-5687.71 -936.096 0.
3295.17 558.19 0.
2615 -1023.21 0.
1710.03 -879.308 0.
2004.83 -191.021 0.
1769.01 -740.238 0.
2399.02 -1224.93 0.
3345.56 983.855 0.
2955.75 73.5349 0.
1479.9 -1287.87 0.
1953.81 -192.985 0.
1825.3 -502.83 0.
3470.64 772.946 0.
3406.49 618.663 0.
2037.66 453.047 0.
1536.39 -717.622 0.
1730.86 -265.27 0.
1636.04 -62.2268 0.
1313.68 -812.199 0.
1097.49 -1314.79 0.
917.96 -282.453 0.
834.346 -478.359 0.
989.199 -117.679 0.
2363.78 233.005 0.
2310.09 104.33 0.
873.283 108.945 0.
78.271 -171.36 0.
472.769 748.985 0.
1687.19 1048.59 0.
1401.71 381.614 0.
810.238 -1000.21 0.
488.359 -328.907 0.
784.183 356.616 0.
848.674 502.645 0.
455.375 255.374 0.
351.77 18.7559 0.
539.611 462.028 0.
1290.5 720.999 0.
1124.76 334.593 0.
839.557 1297 0.
538.76 598.418 0.
121.21 -373.178 0.
125.805 549.07 0.
367.904 1120.09 0.
144.422 604.754 0.
136.325 -26.5025 0.
283.532 311.41 0.
842.363 1610.69 0.
-128.388 907.058 0.
-53.2527 1083.76 0.
-421.923 -502.86 0.
124.258 -178.283 0.
111.333 -212.536 0.
96.4223 -225.642 0.
141.119 -117.394 0.
185.817 -9.14477 0.
-137.427 -134.931 0.
-201.332 -285.81 0.
-265.237 -436.689 0.
571.001 -280.961 0.
441.388 -577.873 0.
311.775 -874.783 0.
272.265 -960.507 0.
252.441 -1005.78 0.
205.959 -1037.94 0.
296.996 -824.923 0.
388.034 -611.91 0.
256.557 -665.617 0.
48.4458 -1152.59 0.
-159.666 -1639.57 0.
128.147 -1649.74 0.
186.081 -1519.83 0.
244.016 -1389.92 0.
370.85 -1395.7 0.
307.705 -1545.36 0.
513.683 -1579.6 0.
480.492 -1645.88 0.
456.118 -1704.04 0.
1221.1 -1422.22 0.
1186.22 -1500.87 0.
1151.35 -1579.52 0.
753.014 -1864.03 0.
656.522 -2087.4 0.
560.03 -2310.77 0.
848.59 -2153.34 0.
932.253 -1960.45 0.
1015.91 -1767.55 0.
2416.41 -1382.67 0.
2272.64 -1714.88 0.
1334.19 -2339.17 0.
1530.54 -1888.55 0.
1726.89 -1437.93 0.
1940.34 -1063.57 0.
1991.18 -957.436 0.
2042.03 -851.306 0.
1386.87 -1016.83 0.
1459.66 -856.582 0.
1532.44 -696.331 0.
3275.06 227.249 0.
3381.28 471.687 0.
966.694 -369.074 0.
2804.82 182.052 0.
2682.56 -107.167 0.
1837.38 -637.312 0.
1856.29 -597.02 0.
1875.2 -556.729 0.
2054.9 -692.632 0.
1800.13 -1285.5 0.
1545.36 -1878.37 0.
1570.31 -1915.17 0.
1648 -1742.04 0.
1725.69 -1568.92 0.
2249.09 -1393.34 0.
2216.07 -1474.53 0.
859.103 -2070.73 0.
990.931 -1767.96 0.
1122.76 -1465.19 0.
1012.36 -1466.9 0.
862.096 -1817.58 0.
711.835 -2168.26 0.
594.518 -2097.14 0.
808.225 -1602.18 0.
1021.93 -1107.21 0.
1580.17 -752.461 0.
1607.45 -687.738 0.
314.893 -1175.95 0.
-69.3399 -1262.08 0.
-29.5282 -1166.86 0.
620.223 -884.405 0.
528.079 -1100.34 0.
435.935 -1316.28 0.
-51.6342 -1485.94 0.
83.4345 -1171.44 0.
218.504 -856.934 0.
150.974 -791.97 0.
166.498 -750.47 0.
182.022 -708.971 0.
683.099 -464.452 0.
693.182 -441.333 0.
45.6267 -725.652 0.
15.4585 -794.053 0.
-14.7088 -862.454 0.
-585.426 -1087.78 0.
-529.733 -952.649 0.
-474.039 -817.517 0.
-128.645 -571.631 0.
-76.7137 -453.878 0.
-24.7823 -336.124 0.
-584.697 -594.118 0.
-605.397 -641.633 0.
-741.231 -608.082 0.
113.407 -148.514 0.
99.2895 -183.217 0.
220.15 -143.331 0.
263.593 -34.805 0.
307.037 73.7212 0.
-181.019 -124.118 0.
-244.974 -274.958 0.
-308.928 -425.799 0.
586.195 -245.522 0.
456.867 -542.632 0.
327.537 -839.742 0.
91.8917 -1005.67 0.
71.9913 -1051.09 0.
105.394 -1048.47 0.
195.86 -835.394 0.
286.327 -622.315 0.
314.146 -607.843 0.
106.228 -1094.52 0.
-101.691 -1581.2 0.
283.238 -1557.38 0.
339.832 -1426.33 0.
396.427 -1295.29 0.
537.704 -1290.11 0.
474.802 -1440.57 0.
-17.3594 -1775.17 0.
510.994 -1603.27 0.
486.493 -1661.39 0.
1129.83 -1431.6 0.
1094.79 -1510.61 0.
1059.75 -1589.62 0.
765.691 -1825.73 0.
669.978 -2049.86 0.
574.265 -2274 0.
684.376 -2189.03 0.
767.964 -1995.84 0.
851.552 -1802.65 0.
2616.43 -1267.49 0.
2473.07 -1599.87 0.
1069.45 -2420.18 0.
1264.84 -1968.64 0.
1460.23 -1517.09 0.
1622.27 -1171.02 0.
1671.74 -1064.03 0.
1721.22 -957.055 0.
1152.83 -1087.67 0.
1225.12 -926.917 0.
1297.41 -766.163 0.
3369.58 297.482 0.
3475.7 542.733 0.
740.801 -434.971 0.
2419.43 48.4336 0.
2296.91 -239.755 0.
1882.62 -586.782 0.
1902.43 -547.284 0.
1922.23 -507.787 0.
1372.15 -950.718 0.
1118.33 -1544.6 0.
864.517 -2138.48 0.
2024.22 -1689.51 0.
2102.37 -1516.43 0.
2180.52 -1343.34 0.
1904.22 -1509.15 0.
1870.76 -1590.34 0.
762.426 -2079.57 0.
895.276 -1777.85 0.
1028.13 -1476.13 0.
998.595 -1440.4 0.
849.226 -1791.16 0.
699.858 -2141.91 0.
1167.06 -1822.31 0.
1382.3 -1328.22 0.
1597.55 -834.133 0.
1154.39 -900.198 0.
1181.02 -834.484 0.
378.119 -1117.76 0.
337.826 -1056.69 0.
377.637 -961.664 0.
344.782 -971.501 0.
252.22 -1186.92 0.
159.659 -1402.35 0.
-92.1331 -1473.88 0.
42.2644 -1159.1 0.
176.662 -844.317 0.
344.123 -676.425 0.
360.032 -635.72 0.
375.941 -595.014 0.
577.391 -478.514 0.
588.036 -455.967 0.
151.697 -649.102 0.
121.703 -717.818 0.
91.7095 -786.534 0.
-578.224 -1049.87 0.
-522.204 -915.017 0.
-466.182 -780.169 0.
-152.563 -552.545 0.
-100.902 -434.408 0.
-49.242 -316.271 0.
-338.653 -457.017 0.
-358.876 -503.954 0.
-688.472 -786.197 0.
-131.87 -660.871 0.
-118.176 -628.807 0.
59.7966 -534.519 0.
30.7903 -602.072 0.
1.78435 -669.624 0.
-310.475 -826.042 0.
-293.358 -779.224 0.
-276.241 -732.406 0.
454.333 -319.663 0.
526.833 -151.94 0.
599.334 15.7817 0.
308.483 -337.263 0.
153.05 -695.74 0.
107.204 -982.535 0.
109.74 -977.687 0.
112.277 -972.838 0.
210.7 -910.734 0.
250.869 -812.413 0.
291.039 -714.091 0.
651.325 -735.442 0.
427.836 -1261.21 0.
204.346 -1786.99 0.
429.268 -1591.42 0.
580.732 -1235.03 0.
835.007 -834.105 0.
869.001 -1054.37 0.
731.973 -1372.58 0.
896.61 -1507 0.
898.916 -1503.99 0.
901.222 -1500.99 0.
984.375 -1447.38 0.
1004.16 -1403.61 0.
1023.94 -1359.84 0.
937.037 -1426.13 0.
904.553 -1507.02 0.
872.07 -1587.92 0.
2755.45 -731.136 0.
2791.21 -650.237 0.
1370.93 -1217.3 0.
1264.39 -1465.3 0.
1157.85 -1713.29 0.
1246.2 -1685.45 0.
1446.8 -1214.16 0.
1647.4 -742.866 0.
1339.86 -706.039 0.
1342.85 -702.95 0.
1345.83 -699.863 0.
3055.68 198.139 0.
3173.7 468.018 0.
-165.014 -747.003 0.
2346.1 262.586 0.
2312.58 182.369 0.
2067.36 -11.1178 0.
1971.85 -226.348 0.
1876.34 -441.578 0.
1315.9 -779.718 0.
1313.8 -783.584 0.
1311.71 -787.452 0.
2300.79 -557.267 0.
2153.12 -891.513 0.
2005.45 -1225.76 0.
1842.96 -1369.88 0.
1816.4 -1424.03 0.
894.883 -1834.7 0.
989.87 -1606.13 0.
1084.86 -1377.57 0.
1007.75 -1375.18 0.
893.232 -1640.11 0.
778.714 -1905.03 0.
1294.91 -1674.3 0.
1376.54 -1478.72 0.
1458.17 -1283.14 0.
836.305 -1352.87 0.
937.28 -1116.93 0.
692.204 -1054.11 0.
232.385 -1447.11 0.
130.106 -1686.42 0.
-128.455 -1837.81 0.
53.3073 -1413.7 0.
235.069 -989.595 0.
320.557 -863.685 0.
238.188 -1058.28 0.
155.817 -1252.88 0.
25.9745 -1234.56 0.
108.963 -1042.54 0.
191.951 -850.525 0.
410.784 -685.077 0.
451.012 -589.819 0.
220.275 -609.929 0.
221.073 -608.828 0.
221.871 -607.727 0.
-413.732 -766.472 0.
-252.094 -393.004 0.
-90.456 -19.535 0.
108.9 147.787 0.
75.8976 69.4459 0.
42.8942 -8.89463 0.
2.8661 -7.56639 0.
31.3785 43.6637 0.
-103.506 -507.323 0.
-157.603 -640.707 0.
-143.882 -609.632 0.
15.6036 -520.723 0.
-13.9234 -588.655 0.
-43.4501 -656.586 0.
141.884 -600.378 0.
159.527 -554.722 0.
177.171 -509.065 0.
230.218 -386.082 0.
302.309 -218.365 0.
374.399 -50.6487 0.
334.427 -291.933 0.
180.268 -651.707 0.
188.01 -917.674 0.
189.835 -912.52 0.
191.659 -907.367 0.
237.753 -867.106 0.
278.96 -769.893 0.
320.166 -672.68 0.
577.301 -734.659 0.
354.533 -1261.1 0.
131.764 -1787.54 0.
365.7 -1585.81 0.
517.044 -1229.71 0.
692.571 -863.201 0.
1175.61 -891.048 0.
1037.73 -1208.13 0.
543.219 -1629.3 0.
544.285 -1625.04 0.
545.352 -1620.78 0.
1137.78 -1352.2 0.
1156.07 -1307.31 0.
1174.35 -1262.42 0.
946.702 -1391.17 0.
914.344 -1471.81 0.
881.987 -1552.46 0.
2365.56 -869.843 0.
2400.78 -787.882 0.
1138.14 -1284.74 0.
1030.55 -1531.83 0.
922.954 -1778.92 0.
1212.6 -1672.32 0.
1412.51 -1200 0.
1612.41 -727.678 0.
1677.06 -527.885 0.
1680.62 -525.355 0.
1684.18 -522.827 0.
2312.67 -90.2996 0.
2430.18 179.887 0.
-113.272 -691.829 0.
2378.82 309.608 0.
2345.24 229.321 0.
1901.61 -51.6934 0.
1805.66 -266.833 0.
1709.7 -481.971 0.
1697.31 -587.041 0.
1696.15 -591.957 0.
1695 -596.873 0.
1369.21 -923.618 0.
1223.17 -1259.45 0.
1077.13 -1595.29 0.
1915.02 -1306.22 0.
1888.34 -1361.36 0.
1040.15 -1741.1 0.
1136.59 -1513.56 0.
1233.03 -1286.02 0.
992.585 -1348.06 0.
878.229 -1613.46 0.
763.873 -1878.86 0.
911.405 -1806.28 0.
992.701 -1610.24 0.
1074 -1414.2 0.
985.91 -1262.44 0.
1086.11 -1026.77 0.
847.152 -952.351 0.
44.2243 -1493.01 0.
-57.9356 -1732.81 0.
-69.5037 -1783.22 0.
112.391 -1358.75 0.
294.285 -934.27 0.
750.993 -648.933 0.
669.307 -843.885 0.
587.617 -1038.84 0.
-311.803 -1347.24 0.
-227.934 -1155.76 0.
-144.066 -964.289 0.
362.426 -672.685 0.
402.339 -577.782 0.
276.528 -554.894 0.
277.47 -553.435 0.
278.412 -551.977 0.
-267.464 -672.582 0.
-106.378 -298.411 0.
54.7076 75.7611 0.
81.7968 167.147 0.
48.5905 88.695 0.
15.3836 10.2437 0.
138.997 82.0427 0.
167.085 132.504 0.
717.526 392.569 0.
334.495 581.027 0.
113.29 62.5347 0.
607.84 986.42 0.
103.715 -197.686 0.
222.253 71.7358 0.
625.362 -282.152 0.
830.027 197.299 0.
1016.71 634.73 0.
665.534 1077.93 0.
500.778 693.568 0.
636.495 1010.58 0.
898.034 1006.13 0.
761.581 693.081 0.
981.262 812.986 0.
596.11 -88.3713 0.
853.137 509.241 0.
879.438 600.302 0.
863.508 568.772 0.
900.137 659.57 0.
702.809 -272.977 0.
881.201 153.823 0.
1245.86 1015.19 0.
1225.03 546.498 0.
1114.65 291.171 0.
1077.07 -582.32 0.
1517.6 -656.76 0.
2352.63 1293.95 0.
871.372 -164.371 0.
1235.41 686.992 0.
1086.84 343.021 0.
1473.36 -822.562 0.
2045.02 506.712 0.
1695.56 -312.532 0.
1756.38 508.004 0.
1482.49 -130.639 0.
1554.62 38.6824 0.
2653.79 584.099 0.
2564.89 370.364 0.
2107.55 1468.7 0.
1630.77 363.626 0.
1738.31 620.032 0.
2052.65 383.741 0.
1959.13 164.165 0.
2085.8 458.994 0.
2336.91 393.759 0.
2331.49 378.724 0.
2285.39 269.173 0.
1763.92 68.9869 0.
1971.53 557.25 0.
536.564 298.277 0.
2846.3 1356.81 0.
1972.52 -681.2 0.
1717.27 -131.065 0.
2352.73 1358.66 0.
1593.69 -404.37 0.
1920.57 -769.547 0.
1772.59 -1118.43 0.
1385.04 -2023.66 0.
1488.9 1148.14 0.
909.571 -200.874 0.
1059.75 150.167 0.
2867.45 811.835 0.
2689.75 390.064 0.
2480.07 1381.39 0.
2030.67 335.368 0.
1910.34 57.8744 0.
1097.76 -1043.97 0.
1808.08 617.274 0.
1824.74 660.076 0.
1282.61 -169.182 0.
1241.96 -263.678 0.
1466.06 260.143 0.
1507.44 -316.582 0.
1423.11 -511.04 0.
1276.34 1271.59 0.
835.099 732.707 0.
684.336 380.221 0.
944.391 490.422 0.
571.05 -383.716 0.
960.111 520.573 0.
1489.01 312.083 0.
1706.5 820.372 0.
2141.64 1836.34 0.
211.101 515.113 0.
117.967 299.265 0.
-377.096 -852.863 0.
873.842 632.683 0.
452.345 -349.957 0.
577.154 85.4048 0.
1049.29 1186.82 0.
870.502 769.26 0.
-202.678 -776.912 0.
195.263 151.313 0.
160.528 69.9034 0.
-277.936 -585.096 0.
-380.015 -820.002 0.
139.599 394.57 0.
215.034 43.5703 0.
-55.3127 -577.664 0.
-193.066 -859.433 0.
18.1156 -674.967 0.
14.4755 -682.69 0.
-203.609 -799.97 0.
-251.254 -918.443 0.
-298.897 -1036.92 0.
293.033 -791.324 0.
361.591 -630.858 0.
430.148 -470.392 0.
-136.346 -713.732 0.
-181.699 -821.954 0.
-227.052 -930.177 0.
111.07 -785.573 0.
116.219 -769.182 0.
311.16 -687.14 0.
250 -833.527 0.
188.839 -979.915 0.
381.825 -984.652 0.
370.235 -1007.84 0.
358.644 -1031.02 0.
229.868 -1138.03 0.
181.808 -1243.11 0.
133.749 -1348.2 0.
494.639 -1226.08 0.
477.94 -1259.91 0.
283.272 -1370.21 0.
1250.27 -1043.05 0.
1209.66 -1140.18 0.
310.667 -1571.8 0.
341.566 -1500.57 0.
372.465 -1429.35 0.
1197.53 -1076.71 0.
1150.63 -1191.73 0.
1103.73 -1306.76 0.
712.493 -1526.58 0.
705.042 -1547.54 0.
697.591 -1568.5 0.
1802.57 -1193.53 0.
1747.37 -1329.55 0.
699.57 -1854.48 0.
872.865 -1451.92 0.
1046.16 -1049.36 0.
1498.19 -635.873 0.
1492.34 -654.789 0.
1486.48 -673.707 0.
1542.53 -601.312 0.
1601.85 -467.642 0.
1661.18 -333.97 0.
1603.06 -426.559 0.
1543.63 -569.561 0.
193.846 -1267.72 0.
2278.13 -279.076 0.
2327.29 -163.4 0.
1212.42 -626.441 0.
1078.74 -943.978 0.
945.067 -1261.52 0.
1543.71 -1029.1 0.
1677.14 -716.328 0.
1810.58 -403.559 0.
1070.8 -762.583 0.
973.391 -990.146 0.
875.984 -1217.71 0.
1663.51 -1032.34 0.
1591.02 -1209.71 0.
1110.97 -1543.99 0.
1081.67 -1606.19 0.
1052.37 -1668.4 0.
708.334 -1744.93 0.
857.482 -1392.11 0.
1006.63 -1039.3 0.
713.308 -1175.35 0.
599.559 -1443.53 0.
485.808 -1711.71 0.
1207.54 -1327.28 0.
1281.94 -1153.3 0.
971.507 -1145.51 0.
-98.1752 -1428.27 0.
-5.20643 -1213.09 0.
674.092 -802.303 0.
648.085 -868.767 0.
622.081 -935.231 0.
521.382 -994.301 0.
535.892 -960.931 0.
550.398 -927.562 0.
-221.273 -1131.76 0.
-126.108 -907.661 0.
-30.9403 -683.558 0.
341.07 -424.825 0.
388.084 -316.122 0.
335.787 -262.543 0.
356.67 -213.592 0.
377.553 -164.642 0.
-57.2877 -364.871 0.
-109.644 -487.427 0.
-162.001 -609.984 0.
-233.498 -670.68 0.
-222.204 -642.589 0.
-210.911 -614.499 0.
131.52 -530.314 0.
83.2384 -635.566 0.
-638.109 -1025.46 0.
304.861 -524.88 0.
300.224 -531.54 0.
-241.683 -783.691 0.
-289.565 -902.837 0.
-337.446 -1021.98 0.
167.828 -814.801 0.
236.73 -654.731 0.
305.632 -494.66 0.
-158.295 -690.763 0.
-203.657 -799.687 0.
-249.017 -908.611 0.
100.417 -759.091 0.
105.754 -742.899 0.
300.07 -660.243 0.
237.303 -804.796 0.
174.537 -949.351 0.
621.259 -853.596 0.
609.841 -876.538 0.
598.423 -899.479 0.
119.126 -1157.19 0.
71.0674 -1262.31 0.
23.0094 -1367.43 0.
549.472 -1169.97 0.
532.36 -1203.53 0.
1305.88 -898.553 0.
1140.39 -1062.09 0.
1100.77 -1159.91 0.
382.25 -1510.49 0.
413.815 -1439.89 0.
445.381 -1369.29 0.
1007.83 -1125.8 0.
961.43 -1241.58 0.
915.029 -1357.36 0.
519.637 -1576.96 0.
513.294 -1599.06 0.
506.949 -1621.16 0.
1710.25 -1200.78 0.
1654.8 -1336.21 0.
742.919 -1802.3 0.
916.04 -1399.99 0.
1089.16 -997.68 0.
1372.31 -660.944 0.
1366.26 -679.428 0.
1360.22 -697.913 0.
1101.42 -759.287 0.
1161.97 -626.514 0.
1222.52 -493.741 0.
1705.24 -350.174 0.
1646.72 -494.116 0.
-704.889 -1619.44 0.
2445.32 -175.72 0.
2494.59 -60.8057 0.
874.361 -740.632 0.
740.66 -1058.88 0.
606.957 -1377.14 0.
1238.56 -1127.38 0.
1371.44 -814.827 0.
1504.32 -502.278 0.
1573.01 -517.593 0.
1475.38 -745.635 0.
1377.75 -973.678 0.
1176.34 -1209.45 0.
1104.34 -1386.53 0.
984.269 -1567.71 0.
955.594 -1629.82 0.
926.919 -1691.94 0.
615.253 -1752.34 0.
764.061 -1399.69 0.
912.866 -1047.04 0.
563.864 -1206.1 0.
450.389 -1474.41 0.
336.914 -1742.73 0.
1388.27 -1223.08 0.
1463.19 -1049.49 0.
640.487 -1253.05 0.
-90.5337 -1391.64 0.
3.02792 -1177.09 0.
1035.68 -615.603 0.
1009.32 -682.461 0.
982.96 -749.318 0.
36.5301 -1169.33 0.
51.5535 -1136.73 0.
66.5747 -1104.13 0.
127.992 -951.825 0.
224.17 -728.621 0.
320.349 -505.417 0.
260.214 -426.869 0.
307.065 -318.184 0.
235.217 -274.017 0.
256.257 -224.804 0.
277.297 -175.591 0.
-77.9255 -341.442 0.
-130.316 -464.092 0.
-182.706 -586.742 0.
-119.353 -590.999 0.
-107.844 -563.271 0.
-96.3344 -535.543 0.
349.568 -402.265 0.
301.64 -509.176 0.
-851.626 -1236.58 0.
190.752 -724.651 0.
300.08 -470.206 0.
-147.279 -481.423 0.
-103.828 -374.181 0.
-60.3783 -266.938 0.
390.232 -91.6604 0.
286.919 -326.868 0.
183.606 -562.075 0.
-125.311 -651.937 0.
-30.3007 -429.504 0.
64.7101 -207.072 0.
405.792 -51.7812 0.
390.519 -87.9602 0.
559.458 -70.3541 0.
419.444 -399.005 0.
279.429 -727.656 0.
634.766 -782.056 0.
589.754 -888.569 0.
544.743 -995.082 0.
101.991 -1109.85 0.
222.625 -831.383 0.
343.259 -552.92 0.
849.321 -474.278 0.
715.337 -784.542 0.
1570.4 -670.696 0.
1115.38 -853.61 0.
1114.63 -851.582 0.
684.333 -1029.33 0.
708.62 -969.768 0.
732.907 -910.206 0.
1000.3 -769.703 0.
1012.09 -737.935 0.
1023.88 -706.166 0.
765.409 -855.414 0.
724.539 -948.96 0.
683.669 -1042.5 0.
1811.7 -613.996 0.
1787.88 -664.98 0.
1052.74 -997.741 0.
1099.84 -894.81 0.
1146.94 -791.88 0.
1128.98 -779.795 0.
1078.41 -901.991 0.
1027.83 -1024.19 0.
893.949 -1001.62 0.
1023.88 -691.575 0.
1153.82 -381.532 0.
1955.29 31.1889 0.
1963.29 56.2693 0.
1915.41 54.0962 0.
2390.53 10.2446 0.
2260.46 -294.079 0.
626.64 -1141.65 0.
713.179 -939.907 0.
799.721 -738.16 0.
1332.47 -568.716 0.
1172.66 -947.724 0.
1012.85 -1326.73 0.
1358.02 -1258.91 0.
1378.08 -1209.21 0.
1398.14 -1159.5 0.
976.228 -1182.14 0.
1067.03 -969.635 0.
1117.52 -854.377 0.
915.026 -1331.13 0.
712.528 -1807.88 0.
410.013 -2062.97 0.
578.819 -1671.71 0.
747.625 -1280.45 0.
561.04 -1265.9 0.
524.905 -1344.48 0.
488.771 -1423.06 0.
1518.72 -840.697 0.
1613.99 -622.303 0.
1148.53 -655.142 0.
99.9309 -1213.52 0.
39.437 -1348.79 0.
789.003 -1062.22 0.
870.91 -863.937 0.
952.818 -665.658 0.
-21.6525 -902.821 0.
87.7977 -645.122 0.
197.247 -387.424 0.
496.531 -335.083 0.
393.683 -578.551 0.
290.834 -822.018 0.
13.2977 -859.815 0.
71.5666 -723.756 0.
63.0547 -623.736 0.
107.832 -520.286 0.
152.61 -416.837 0.
-114.372 -484.464 0.
-127.499 -519.91 0.
-140.626 -555.355 0.
-35.0411 -505.812 0.
-17.3746 -467.358 0.
0.291269 -428.904 0.
424.797 -257.525 0.
425.453 -264.706 0.
-726.87 -1150.28 0.
-114.491 -828.985 0.
-5.95042 -573.181 0.
-189.125 -463.902 0.
-144.856 -357.236 0.
-100.588 -250.569 0.
319.921 -92.5961 0.
216.491 -328.122 0.
113.062 -563.647 0.
-51.3731 -588.149 0.
43.2866 -365.658 0.
137.947 -143.167 0.
471.452 5.18319 0.
456.461 -31.1155 0.
626.433 -5.62268 0.
487.017 -334.097 0.
347.6 -662.573 0.
398.758 -855.492 0.
352.936 -960.037 0.
307.115 -1064.58 0.
145.555 -1060.46 0.
267.22 -782.037 0.
388.885 -503.609 0.
841.772 -445.343 0.
708.06 -756.407 0.
711.597 -1008.91 0.
970.88 -885.214 0.
970.571 -883.87 0.
870.171 -916.305 0.
895.532 -858.047 0.
920.892 -799.789 0.
822.952 -811.527 0.
835.781 -781.067 0.
848.61 -750.605 0.
824.43 -798.487 0.
784.184 -893.329 0.
743.937 -988.17 0.
1549.43 -692.713 0.
1527.42 -744.71 0.
960.768 -1004.18 0.
1007.96 -901.653 0.
1055.15 -799.122 0.
823.436 -880.989 0.
774.369 -1004.79 0.
725.3 -1128.6 0.
1089.71 -883.289 0.
1221.8 -574.866 0.
1353.88 -266.443 0.
2057.33 109.907 0.
2067.72 132.987 0.
-1292.04 -1288.6 0.
1947.08 -146.779 0.
1815.76 -450.296 0.
797.116 -1039.72 0.
882.454 -837.307 0.
967.794 -634.896 0.
1318.83 -543.677 0.
1159.23 -923.64 0.
999.622 -1303.61 0.
1138.4 -1320.51 0.
1159.26 -1271.57 0.
1180.12 -1222.63 0.
970.754 -1152.52 0.
1062.73 -940.752 0.
850.718 -937.616 0.
647.488 -1413.77 0.
444.259 -1889.92 0.
364.063 -2055.53 0.
531.906 -1663.23 0.
699.749 -1270.93 0.
769.751 -1142.91 0.
732.576 -1220.77 0.
695.401 -1298.64 0.
1315.06 -900.16 0.
1408.91 -681.078 0.
1048.51 -663.556 0.
391.893 -1054.77 0.
331.543 -1190.34 0.
354.638 -1218.58 0.
436.453 -1021.1 0.
518.269 -823.627 0.
29.2003 -849.024 0.
138.799 -591.873 0.
248.396 -334.723 0.
452.239 -321.803 0.
349.541 -565.537 0.
246.842 -809.271 0.
-9.76482 -838.446 0.
49.8282 -703.012 0.
133.388 -560.62 0.
178.462 -456.761 0.
223.537 -352.902 0.
-1.07184 -405.448 0.
-14.3419 -440.926 0.
-27.6123 -476.403 0.
2.01937 -456.794 0.
19.5559 -418.911 0.
37.0918 -381.028 0.
269.726 -293.253 0.
270.087 -301.67 0.
-186.061 -68.1302 0.
618.091 1517.92 0.
300.451 769.534 0.
35.2668 170.729 0.
-444.588 -955.016 0.
222.403 594.981 0.
670.311 893.257 0.
78.1018 -493.062 0.
223.396 -157.563 0.
228.353 -44.3433 0.
29.7313 -509.443 0.
715.032 1088.37 0.
808.308 682.744 0.
287.544 -529.435 0.
832.336 377.829 0.
1028.83 839.797 0.
304.169 -848.01 0.
596.997 86.8867 0.
611.757 126.898 0.
699.658 337.045 0.
726.482 235.161 0.
714.847 206.797 0.
299.237 -763.798 0.
920.858 -214.122 0.
1409.69 923.848 0.
1001.41 463.453 0.
1390.46 387.348 0.
1242.6 44.284 0.
1051.41 -808.334 0.
1215.64 -420.39 0.
1384.76 -21.4445 0.
1413.95 919.706 0.
282.472 -1718.59 0.
933.547 -199.273 0.
1275.27 177.588 0.
1219.76 51.1229 0.
1293.77 225.758 0.
1870.03 594.613 0.
1768.55 360.125 0.
1490.5 424.028 0.
1364.45 134.623 0.
1789.5 1130.38 0.
1160.62 489.265 0.
1015.37 148.733 0.
1120.92 393.163 0.
1495.62 -273.415 0.
1672.64 132.67 0.
1238.73 -887.056 0.
1731.16 -795.841 0.
2385.09 728.156 0.
298.572 623.842 0.
1703.09 143.355 0.
1967.48 769.065 0.
1653.11 666.161 0.
1363.29 -5.67919 0.
1882.02 1209.68 0.
1428.24 -256.454 0.
1425.28 -266.761 0.
1913.62 872.874 0.
1950.88 1033.1 0.
1390.73 -275.122 0.
1571.19 144.74 0.
1426.74 -56.597 0.
1131.41 -737.349 0.
820.875 -489.158 0.
1148.05 280.35 0.
652.786 -869.178 0.
124.372 -2490.09 0.
865.836 -762.382 0.
1142.64 -119.935 0.
1556.5 359.58 0.
1324.5 -176.756 0.
1614.13 503.477 0.
1884.61 825.155 0.
1103.25 -990.885 0.
657.046 -513.959 0.
1252.75 430.663 0.
1031.23 -85.3019 0.
950.792 1032.36 0.
199.641 -720.688 0.
420.425 -205.711 0.
386.402 -81.5124 0.
368.976 -130.542 0.
212.945 -502.65 0.
442.983 -227.873 0.
343.804 -457.939 0.
316.128 -520.933 0.
650.332 761.921 0.
625.501 705.018 0.
444.213 67.1694 0.
877.124 1084.42 0.
590.487 421.909 0.
365.057 275.192 0.
313.39 157.888 0.
245.985 3.27692 0.
153.168 -141.679 0.
-63.8537 -647.807 0.
60.0693 -356.084 0.
38.2015 -498.047 0.
250.534 1.59394 0.
140.253 122.055 0.
-235.767 -102.295 0.
-358.943 -396.008 0.
-221.418 -555.783 0.
-250.202 -626.575 0.
-278.985 -697.368 0.
-86.6598 -643.301 0.
-83.6602 -642.18 0.
-80.662 -641.057 0.
225.887 -476.833 0.
270.071 -375.559 0.
314.253 -274.284 0.
484.299 -411.944 0.
334.733 -753.453 0.
237.359 -1040.21 0.
332.077 -815.454 0.
426.794 -590.701 0.
255.371 -554.181 0.
215.92 -646.785 0.
176.47 -739.39 0.
331.82 -875.669 0.
150.845 -1291.43 0.
-30.1286 -1707.2 0.
204.452 -1530.52 0.
323.774 -1253.25 0.
853.424 -799.065 0.
837.584 -888.697 0.
785.629 -1007.31 0.
783.607 -1061.64 0.
863.317 -874.574 0.
943.027 -687.509 0.
739.907 -717.011 0.
700.556 -808.926 0.
661.204 -900.841 0.
679.828 -964.16 0.
636.832 -1059.78 0.
593.835 -1155.39 0.
1177.45 -747.573 0.
1274.35 -513.303 0.
876.895 -518.231 0.
875.192 -517.971 0.
873.487 -517.711 0.
958.8 -467.979 0.
976.734 -423.714 0.
994.668 -379.448 0.
1202.41 -291.364 0.
1195.04 -314.629 0.
1187.68 -337.895 0.
2053.24 -122.851 0.
1946.66 -362.805 0.
-601.606 -1647.75 0.
1403.05 -541.244 0.
1532.36 -237.598 0.
1118.59 -259.553 0.
1037.58 -446.616 0.
956.573 -633.679 0.
1289.65 -629.142 0.
1227.08 -772.338 0.
1164.51 -915.535 0.
805.333 -1084.7 0.
822.982 -1045.9 0.
840.63 -1007.11 0.
1183.54 -803.47 0.
1220.57 -723.06 0.
586.979 -902.493 0.
739.658 -544.856 0.
892.339 -187.222 0.
1206.57 -0.972007 0.
1003.26 -474.487 0.
799.952 -948.001 0.
686.526 -1204.49 0.
642.145 -1306.15 0.
597.763 -1407.8 0.
865.196 -1245.89 0.
904.103 -1153.29 0.
1174.01 -960.72 0.
529.579 -1119.44 0.
590.347 -975.873 0.
-1.09719 -1117.15 0.
56.0819 -980.35 0.
113.262 -843.545 0.
311.858 -726.535 0.
277.333 -811.139 0.
242.808 -895.743 0.
56.3311 -993.97 0.
66.0147 -975.552 0.
75.6981 -957.135 0.
84.4147 -673.482 0.
244.588 -300.851 0.
270.34 -34.1423 0.
252.099 -72.3252 0.
233.856 -110.509 0.
191.83 -200.496 0.
115.032 -380.044 0.
38.2335 -559.593 0.
2.8201 -564.05 0.
68.4642 -409.378 0.
134.109 -254.708 0.
161.704 -232.343 0.
146.157 -262.819 0.
456.073 285.71 0.
-415.69 -148.056 0.
-538.913 -441.365 0.
-136.328 -488.4 0.
-165.665 -558.065 0.
-195.001 -627.731 0.
-191.719 -658.089 0.
-188.254 -657.788 0.
-184.79 -657.485 0.
466.045 -343.969 0.
510.154 -242.879 0.
554.263 -141.788 0.
674.952 -297.85 0.
525.194 -639.173 0.
263.612 -1001.22 0.
358.079 -775.718 0.
452.545 -550.213 0.
194.838 -546.968 0.
155.593 -639.87 0.
116.349 -732.772 0.
448.569 -795.138 0.
267.387 -1210.47 0.
86.2069 -1625.79 0.
34.0619 -1571.45 0.
152.843 -1294.19 0.
947.184 -726.312 0.
846.729 -851.151 0.
794.985 -969.841 0.
606.09 -1108.46 0.
685.255 -920.371 0.
764.421 -732.282 0.
790.624 -663.413 0.
751.542 -755.1 0.
712.459 -846.785 0.
567.201 -980.928 0.
525.275 -1077.29 0.
483.349 -1173.66 0.
1047.8 -771.765 0.
1143.35 -536.049 0.
636.923 -590.592 0.
635.135 -590.68 0.
633.346 -590.769 0.
1230.77 -321.494 0.
1249.4 -278.371 0.
1268.03 -235.246 0.
862.357 -403.072 0.
855.309 -426.646 0.
848.261 -450.219 0.
2109.87 -67.0845 0.
2003.29 -306.937 0.
-1170.28 -1860.03 0.
1414.34 -504.09 0.
1542.75 -199.989 0.
970.682 -293.429 0.
889.577 -481.359 0.
808.471 -669.289 0.
1332.38 -574.803 0.
1269.8 -719.449 0.
1207.22 -864.095 0.
530.891 -1174.15 0.
547.987 -1134.92 0.
565.083 -1095.69 0.
1297.8 -721.105 0.
1335.19 -641.174 0.
539.765 -886.552 0.
694.044 -530.68 0.
848.324 -174.81 0.
1238.46 44.7442 0.
1035.2 -429.065 0.
831.947 -902.875 0.
460.589 -1270.19 0.
415.35 -1371.59 0.
370.109 -1473 0.
728.533 -1270.52 0.
768.422 -1178.97 0.
1702.81 -704.096 0.
475.469 -1112.64 0.
536.666 -969.116 0.
-25.8723 -1094.66 0.
31.7164 -957.432 0.
89.3059 -820.204 0.
574.616 -585.718 0.
539.875 -670.16 0.
505.135 -754.601 0.
5.76017 -982.108 0.
16.2765 -964.762 0.
26.7928 -947.416 0.
165.288 -604.419 0.
325.734 -231.451 0.
123.319 -67.0406 0.
105.104 -105.49 0.
86.8868 -143.94 0.
250.597 -142.508 0.
173.234 -321.944 0.
95.8698 -501.379 0.
56.3192 -510.783 0.
121.927 -356.7 0.
187.536 -202.619 0.
187.979 -191.055 0.
171.848 -221.445 0.
135.208 -386.486 0.
-581.106 -589.001 0.
-456.276 -292.348 0.
156.005 174.891 0.
122.073 95.5482 0.
88.1382 16.2084 0.
78.761 -99.9175 0.
6.61884 -267.082 0.
-65.5238 -434.243 0.
404.151 -418.62 0.
283.18 -699.071 0.
162.208 -979.522 0.
496.975 -709.424 0.
603.408 -463.476 0.
599.958 -269.693 0.
585.809 -300.741 0.
571.66 -331.79 0.
268.933 -464.359 0.
273.087 -447.693 0.
277.241 -431.029 0.
561.608 -267.316 0.
596.922 -184.103 0.
632.237 -100.889 0.
460.651 -338.442 0.
329.503 -643.261 0.
747.543 -712.634 0.
1002.32 -385.449 0.
1124.57 -99.833 0.
1007.93 -20.8737 0.
870.686 -345.1 0.
733.445 -669.326 0.
605.575 -947.989 0.
509.507 -1169.72 0.
413.439 -1391.44 0.
361.124 -1306.93 0.
504.938 -971.121 0.
648.752 -635.313 0.
1107.01 -469.414 0.
1067.73 -566.619 0.
368.635 -923.135 0.
435.561 -769.492 0.
502.487 -615.848 0.
1263.23 -178.195 0.
1312.14 -67.0284 0.
1361.05 44.1383 0.
706.394 -269.266 0.
637.401 -429.513 0.
568.408 -589.76 0.
2429.14 270.117 0.
2496.86 424.717 0.
-3206.63 -1894.65 0.
1710.51 4.70681 0.
1603.23 -248.963 0.
572.198 -829.577 0.
618.357 -733.284 0.
664.517 -636.989 0.
1254.48 -374.455 0.
1217.34 -462.007 0.
1180.2 -549.56 0.
712.005 -605.242 0.
838.699 -309.633 0.
965.393 -14.0241 0.
1567.05 15.1319 0.
1419.65 -321.083 0.
492.029 -967.148 0.
473.741 -1007.03 0.
455.453 -1046.92 0.
791.695 -846.766 0.
906.513 -581.201 0.
1021.33 -315.634 0.
833.357 -350.291 0.
787.726 -457.041 0.
742.094 -563.792 0.
951.657 -337.026 0.
1054.8 -90.4428 0.
814.88 11.5109 0.
783.121 -126.572 0.
716.441 -280 0.
249.682 -586.308 0.
232.812 -627.756 0.
215.942 -669.203 0.
676.326 -391.64 0.
772.438 -162.852 0.
868.55 65.9353 0.
374.644 -132.805 0.
347.776 -189.172 0.
320.908 -245.537 0.
383.835 -189.36 0.
402.964 -145.386 0.
-6.41436 -283.566 0.
14.716 -236.319 0.
35.8454 -189.072 0.
265.691 -36.2163 0.
306.633 64.9925 0.
347.573 166.202 0.
252.289 70.3686 0.
166.876 -130.182 0.
81.4635 -330.733 0.
59.9547 -339.9 0.
81.8904 -285.938 0.
-148.978 -480.505 0.
-369.837 -467.27 0.
-245.01 -170.445 0.
120.009 191.186 0.
87.2516 110.574 0.
54.4924 29.9642 0.
272.933 20.3978 0.
202.252 -148.704 0.
131.57 -317.802 0.
138.817 -500.847 0.
17.2348 -781.298 0.
-104.346 -1061.75 0.
363.748 -733.787 0.
469.928 -487.481 0.
674.187 -206.853 0.
658.658 -236.228 0.
643.13 -265.605 0.
429.179 -369.127 0.
432.408 -350.9 0.
435.636 -332.675 0.
219.516 -382.412 0.
254.864 -298.867 0.
290.213 -215.321 0.
426.593 -322.958 0.
295.86 -627.964 0.
276.178 -884.75 0.
931.643 -383.756 0.
1054.03 -97.8168 0.
1059.45 32.2051 0.
923.033 -292.04 0.
786.615 -616.286 0.
447.907 -983.759 0.
352.34 -1205.68 0.
256.772 -1427.59 0.
330.407 -1288.6 0.
474.517 -952.955 0.
618.626 -617.31 0.
1091.02 -444.219 0.
1051.39 -540.786 0.
354.048 -899.16 0.
421.056 -744.953 0.
488.065 -590.746 0.
946.604 -284.191 0.
994.501 -172.805 0.
1042.4 -61.4198 0.
562.507 -300.809 0.
495.419 -463.308 0.
428.331 -625.808 0.
2834.22 477.884 0.
2902.43 631.791 0.
171.176 -414.93 0.
1920.43 127.449 0.
1812.33 -125.02 0.
365.651 -891.056 0.
409.893 -792.869 0.
454.134 -694.682 0.
845.904 -521.23 0.
808.658 -608.409 0.
771.414 -695.588 0.
862.273 -512.797 0.
987.997 -216.577 0.
1113.72 79.6403 0.
1383.41 -31.7352 0.
1237.59 -369.762 0.
552.682 -906.636 0.
534.146 -946.682 0.
515.609 -986.729 0.
632.622 -883.754 0.
745.709 -617.109 0.
858.795 -350.464 0.
1039.02 -232.607 0.
993.917 -339.717 0.
948.81 -446.827 0.
686.93 -417.047 0.
789.87 -170.064 0.
716.35 -3.09855 0.
589.999 -181.549 0.
523.125 -334.983 0.
440.293 -474.433 0.
422.789 -514.971 0.
405.285 -555.509 0.
512.251 -433.597 0.
609.001 -204.969 0.
705.751 23.6587 0.
458.316 -61.4828 0.
431.687 -118.522 0.
405.059 -175.56 0.
438.719 -134.135 0.
458.198 -90.1731 0.
98.3777 -209.364 0.
118.836 -161.597 0.
139.293 -113.831 0.
155.876 -47.8789 0.
195.921 54.0299 0.
235.964 155.939 0.
103.598 35.6169 0.
18.4519 -165.152 0.
-66.6952 -365.92 0.
-67.0975 -364.109 0.
-44.9498 -310.215 0.
164.133 529.476 0.
242.899 644.639 0.
-457.527 -989.665 0.
-622.204 -1456.24 0.
394.058 919.686 0.
385.138 903.4 0.
918.985 1195.03 0.
424.707 46.6141 0.
259.178 -334.452 0.
255.007 313.893 0.
59.8212 -143.091 0.
135.898 32.3414 0.
563.794 5.80165 0.
87.7065 -1107.55 0.
773.171 -56.2379 0.
1089.19 678.617 0.
1222.77 988.391 0.
890.916 445.413 0.
795.912 223 0.
914.043 496.739 0.
400.104 713.127 0.
238.126 326.275 0.
-703.452 -1877.91 0.
699.381 388.73 0.
576.039 104.849 0.
1249.44 71.6376 0.
815.007 -467.561 0.
1144.99 296.978 0.
1027.42 -109.48 0.
477.515 -1399.06 0.
1207.21 298.065 0.
994.729 616.861 0.
1380.65 1518.94 0.
723.015 -11.2219 0.
733.522 -257.522 0.
1214.62 863.199 0.
490.999 -826.829 0.
1400.97 345.264 0.
1486.22 530.988 0.
989.333 633.688 0.
238.774 -1121.96 0.
180.389 -1263.27 0.
478.132 -746.868 0.
762.438 -82.1323 0.
937.559 328.233 0.
870.965 708.986 0.
458.238 -250.827 0.
-47.7777 -1428.19 0.
2883.04 -164.486 0.
3713.59 1768.39 0.
-12080.4 -2935.75 0.
2853.69 1958.17 0.
2289.47 641.326 0.
241.024 -753.754 0.
387.13 -416.482 0.
141.728 -992.591 0.
797.547 171.185 0.
373.192 -819.091 0.
708.129 -37.4345 0.
1834.35 1494.59 0.
1136.38 -139.981 0.
1557.39 839.01 0.
1511.72 642.12 0.
1719.67 1132.1 0.
809.524 -391.218 0.
616.258 -840.491 0.
1039.75 153.007 0.
1204.91 800.8 0.
920.693 140.903 0.
810.335 -113.624 0.
1422.89 304.416 0.
1780.21 1135.67 0.
1685.15 910.681 0.
763.641 291.873 0.
582.092 -126.309 0.
-282.202 -985.998 0.
1254.15 1762.71 0.
532.704 81.3354 0.
684.022 -248.673 0.
221.26 -1327.55 0.
493.413 -692.1 0.
259.043 -689.657 0.
634.028 193.654 0.
378.298 -394.214 0.
876.697 795.757 0.
744.475 477.127 0.
71.5964 -1102.48 0.
474.933 -110.021 0.
864.475 802.073 0.
88.1518 -393.742 0.
727.661 1093.2 0.
504.19 566.531 0.
122.349 121.671 0.
143.776 171.962 0.
-72.9217 -334.551 0.
-237.46 -461.935 0.
156.174 461.161 0.
21.4821 150.947 0.
650.357 1541.42 0.
68.9697 174.039 0.
-463.773 17.3416 0.
-92.9183 61.6283 0.
-204.838 -197.841 0.
-18.0097 -311.159 0.
-22.9725 -320.787 0.
-27.9365 -330.412 0.
233.103 -245.975 0.
186.624 -350.499 0.
140.144 -455.024 0.
-145.533 -565.912 0.
-101.863 -465.796 0.
-58.1918 -365.679 0.
466.075 -259.205 0.
385.356 -450.103 0.
161.162 -694.387 0.
168.52 -683.338 0.
175.879 -672.289 0.
520.524 -547.243 0.
458.026 -699.445 0.
395.527 -851.648 0.
20.9231 -907.544 0.
179.601 -542.005 0.
338.282 -176.464 0.
487.643 -185.834 0.
391.05 -409.035 0.
640.379 -484.185 0.
546.981 -713.686 0.
449.596 -944.505 0.
500.341 -1034.16 0.
572.031 -867.497 0.
643.719 -700.839 0.
305.425 -746.865 0.
342.9 -662.31 0.
380.374 -577.757 0.
729.969 -430.487 0.
701.295 -495.769 0.
672.621 -561.051 0.
1022.37 -428.713 0.
1017.59 -442.237 0.
316.344 -746.575 0.
364.986 -634.682 0.
413.628 -522.789 0.
605.106 -386.771 0.
590.677 -420.735 0.
576.247 -454.7 0.
546.885 -532.137 0.
490.289 -652.139 0.
433.694 -772.139 0.
2611.31 194.48 0.
2646.93 280.973 0.
-2634.77 -1913.18 0.
1574 -191.906 0.
1531.79 -291.968 0.
582.961 -724.956 0.
660.448 -549.046 0.
737.934 -373.137 0.
408.109 -467.103 0.
375.457 -544.621 0.
342.805 -622.139 0.
823.352 -524.272 0.
761.961 -673.5 0.
700.57 -822.73 0.
915.313 -730.942 0.
917.197 -722.236 0.
262.52 -985.024 0.
312.702 -865.23 0.
362.885 -745.438 0.
814.355 -521.775 0.
764.079 -644.554 0.
713.803 -767.335 0.
737.899 -675.843 0.
854.601 -405.208 0.
971.303 -134.573 0.
519.239 -456.216 0.
400.9 -727.156 0.
596.835 -850.669 0.
-2.54481 -1013.78 0.
45.9503 -897.682 0.
499.524 -626.484 0.
532.208 -552.627 0.
564.892 -478.77 0.
344.689 -504.709 0.
379.237 -420.121 0.
413.785 -335.532 0.
385.133 -264.812 0.
436.922 -151.28 0.
488.71 -37.7469 0.
381.186 -278.481 0.
264.872 -548.954 0.
-156.154 -880.232 0.
-19.278 -563.489 0.
117.598 -246.746 0.
113.335 -121.671 0.
69.6255 -224.296 0.
25.915 -326.92 0.
1.17501 -339.324 0.
25.0368 -281.757 0.
48.9 -224.19 0.
-76.066 -330.666 0.
-111.249 -417.377 0.
-289.247 118.106 0.
-181.945 52.4927 0.
-294.276 -206.945 0.
139.002 -211.534 0.
135.102 -222.351 0.
131.201 -233.166 0.
166.362 -240.485 0.
120.868 -345.613 0.
75.3725 -450.741 0.
-158.318 -538.894 0.
-114.787 -438.798 0.
-71.2548 -338.701 0.
502.641 -211.083 0.
421.606 -402.082 0.
-236.689 -834.732 0.
-230.265 -823.073 0.
-223.84 -811.414 0.
609.031 -478.43 0.
546.012 -630.721 0.
482.993 -783.013 0.
422.821 -703.94 0.
580.789 -337.778 0.
738.761 28.3856 0.
549.588 -129.12 0.
453.561 -352.17 0.
-149.524 -792.87 0.
357.316 -764.902 0.
260.223 -995.229 0.
355.614 -1065.87 0.
427.793 -898.952 0.
499.972 -732.03 0.
185.996 -767.724 0.
223.302 -682.319 0.
260.606 -596.915 0.
842.383 -350.581 0.
814.433 -417.115 0.
786.483 -483.649 0.
980.711 -415.359 0.
974.884 -428.35 0.
230.74 -750.923 0.
279.588 -639.752 0.
328.435 -528.582 0.
593.481 -361.542 0.
578.529 -396.13 0.
563.577 -430.718 0.
814.477 -385.15 0.
758.349 -506.309 0.
702.221 -627.467 0.
2090.33 1.71365 0.
2126.28 88.5563 0.
-4440.79 -2654.67 0.
1150.75 -341.299 0.
1109.19 -441.892 0.
1004.09 -513.893 0.
1081.76 -338.517 0.
1159.43 -163.141 0.
283.653 -488.92 0.
251.253 -567.557 0.
218.853 -646.195 0.
658.182 -562.803 0.
597.179 -712.718 0.
536.175 -862.636 0.
920.966 -696.498 0.
923.406 -688.662 0.
-86.2065 -1100.68 0.
-35.5408 -982.234 0.
15.1261 -863.793 0.
1056.58 -386.276 0.
1005.77 -509.587 0.
954.961 -632.9 0.
429.82 -775.61 0.
546.71 -506.53 0.
663.602 -237.45 0.
626.633 -376.367 0.
507.594 -647.521 0.
516.534 -858.205 0.
-71.5393 -1014.8 0.
-23.6222 -898.044 0.
484.343 -601.699 0.
517.532 -527.743 0.
550.722 -453.786 0.
373.734 -460.406 0.
407.997 -374.781 0.
442.26 -289.157 0.
354.866 -248.172 0.
405.926 -133.832 0.
456.984 -19.4911 0.
373.287 -250.374 0.
257.834 -521.622 0.
-189.845 -861.71 0.
-52.9285 -545.333 0.
83.9877 -228.955 0.
249.108 -31.6887 0.
204.675 -134.005 0.
160.242 -236.32 0.
247.405 -202.862 0.
271.529 -145.548 0.
295.654 -88.2349 0.
32.5567 -255.073 0.
-3.95498 -340.205 0.
-691.801 -280.362 0.
-227.202 -190.904 0.
-275.626 -304.662 0.
119.497 -210.623 0.
109.311 -230.345 0.
99.1232 -250.066 0.
101.339 -259.905 0.
104.926 -249.563 0.
108.514 -239.22 0.
25.0015 -269.563 0.
18.0231 -281.553 0.
11.0438 -293.543 0.
500.986 -70.7088 0.
515.955 -36.3191 0.
-39.5223 -244.917 0.
-58.3406 -291.104 0.
-77.1588 -337.292 0.
700.677 -54.0142 0.
673.494 -116.642 0.
646.31 -179.27 0.
676.784 -256.154 0.
614.797 -398.071 0.
552.812 -539.987 0.
261.273 -652.929 0.
281.621 -605.475 0.
458.686 -489.239 0.
381.734 -586.974 0.
342.977 -666.96 0.
463.75 -677.745 0.
424.523 -764.336 0.
385.296 -850.926 0.
82.7423 -977.105 0.
138.613 -841.907 0.
194.485 -706.709 0.
730.101 -411.961 0.
752.504 -360.52 0.
774.906 -309.08 0.
971.769 -295.613 0.
926.203 -401.274 0.
288.122 -747.618 0.
292.284 -734.089 0.
296.447 -720.559 0.
451.086 -648.95 0.
454.582 -644.485 0.
458.079 -640.019 0.
840.935 -365.994 0.
946.473 -120.862 0.
1052.01 124.269 0.
1993.87 398.176 0.
1881.92 133.592 0.
-558.134 -1127.18 0.
996.268 -382.953 0.
1034.7 -290.664 0.
1074.96 -236.455 0.
1016.06 -367.094 0.
957.165 -497.735 0.
248.189 -782.781 0.
351.498 -541 0.
454.809 -299.219 0.
682.33 -293.516 0.
558.881 -578.832 0.
435.432 -864.149 0.
900.735 -496.127 0.
1023.05 -213.331 0.
163.746 -396.313 0.
58.2008 -650.176 0.
-47.3444 -904.04 0.
893.805 -621.38 0.
933.225 -530.355 0.
972.643 -439.33 0.
378.938 -656.251 0.
380.886 -651.296 0.
382.835 -646.342 0.
588.493 -438.243 0.
672.437 -247.223 0.
463.049 -187.978 0.
262.361 -279.288 0.
263.326 -283.819 0.
468.216 -205.61 0.
441.295 -269.383 0.
414.374 -333.157 0.
368.622 -457.937 0.
286.346 -656.406 0.
204.067 -854.874 0.
78.1918 -973.906 0.
63.7777 -1008.39 0.
49.3635 -1042.86 0.
160.582 -838.398 0.
253.991 -619.419 0.
-180.692 -651.84 0.
-165.794 -622.625 0.
-150.898 -593.41 0.
184.409 -390.369 0.
269.252 -203.996 0.
354.095 -17.6198 0.
406.65 115.107 0.
444.234 200.608 0.
481.819 286.109 0.
149.762 264.627 0.
216.074 421.626 0.
488.701 256.037 0.
3.69304 -59.9182 0.
-44.6334 -173.645 0.
-57.0065 -254.263 0.
-66.5859 -274.309 0.
-76.1658 -294.354 0.
56.6526 -246.164 0.
60.4469 -236.017 0.
64.242 -225.871 0.
223.117 -154.812 0.
217.159 -167.982 0.
211.2 -181.152 0.
370.117 -90.7335 0.
386.101 -57.4848 0.
236.905 -97.0865 0.
217.676 -142.732 0.
198.447 -188.378 0.
435.444 -134.486 0.
408.787 -197.75 0.
382.128 -261.013 0.
466.92 -314.946 0.
405.262 -456.98 0.
343.604 -599.012 0.
72.1432 -701.689 0.
92.3275 -653.434 0.
866.311 -280.105 0.
464.255 -521.894 0.
427.394 -602.87 0.
465.939 -643.577 0.
427.776 -730.244 0.
389.611 -816.911 0.
207.154 -894.479 0.
263.219 -759.521 0.
319.283 -624.562 0.
424.049 -512.299 0.
446.357 -460.828 0.
468.662 -409.357 0.
902.686 -292.376 0.
857.186 -398.003 0.
532.31 -612.052 0.
536.075 -598.672 0.
539.841 -585.292 0.
438.796 -624.596 0.
441.966 -620.952 0.
445.137 -617.307 0.
656.107 -413.464 0.
760.51 -168.158 0.
864.913 77.1481 0.
1912.02 393.109 0.
1799 129.113 0.
-1118.46 -1335.22 0.
1084.51 -314.758 0.
1123.07 -222.591 0.
556.535 -429.212 0.
498.45 -560.658 0.
440.364 -692.106 0.
610.829 -591.457 0.
715.645 -351.551 0.
820.462 -111.644 0.
648.49 -274.589 0.
526.36 -561.05 0.
404.231 -847.514 0.
688.06 -553.052 0.
810.374 -270.57 0.
429.712 -249.674 0.
324.334 -504.163 0.
218.955 -758.653 0.
520.415 -752.105 0.
559.124 -660.884 0.
597.833 -569.664 0.
461.851 -588.058 0.
463.755 -584.392 0.
465.66 -580.729 0.
499.859 -447.258 0.
583.076 -256.624 0.
1088.68 113.68 0.
415.295 -179.951 0.
416.123 -184.51 0.
72.1773 -344.684 0.
45.2786 -408.283 0.
18.3793 -471.883 0.
369.569 -424.39 0.
286.107 -621.506 0.
202.644 -818.62 0.
224.58 -881.823 0.
210.298 -916.226 0.
196.016 -950.629 0.
296.432 -747.629 0.
389.809 -528.43 0.
-297.633 -670.629 0.
-283.17 -640.924 0.
-268.708 -611.218 0.
318.262 -304.46 0.
402.219 -116.838 0.
486.176 70.7866 0.
264.304 85.0823 0.
302.372 170.583 0.
340.441 256.084 0.
-153.594 164.234 0.
-86.6811 321.185 0.
163.871 -126.807 0.
-327.582 -1227.38 0.
399.259 466.317 0.
-17.3039 192.739 0.
-233.194 -306.251 0.
-32.2579 167.684 0.
-345.926 -1070.63 0.
311.88 469.808 0.
5.13673 -239.584 0.
823.067 917.692 0.
683.308 593.677 0.
675.641 578.07 0.
672.277 888.27 0.
543.818 590.042 0.
273.242 -497.305 0.
462.153 -61.8179 0.
424.422 -154.865 0.
337.631 157.887 0.
441.009 398.634 0.
361.677 211.044 0.
624.382 500.421 0.
641.126 535.088 0.
991.026 1348.26 0.
170.785 -79.2084 0.
32.5904 -398.131 0.
-354.168 -876.683 0.
834.756 213.237 0.
1083.23 794.998 0.
703.822 -60.9886 0.
364.898 -855.747 0.
308.082 -991.365 0.
495.509 -435.321 0.
876.832 455.492 0.
468.706 -494.797 0.
632.996 575.328 0.
531.627 336.807 0.
184.245 -475.444 0.
567.446 -906.189 0.
1018.9 145.925 0.
1190.21 504.028 0.
1158.79 431.375 0.
771.809 -470.566 0.
599.575 -193.268 0.
656.829 -65.5509 0.
740.24 123.22 0.
898.576 520.797 0.
1081.89 948.998 0.
168.014 -1182.86 0.
1590.52 -159.91 0.
1759.67 226.988 0.
-2709.91 -2149.21 0.
1362.96 210.129 0.
1339.53 150.873 0.
113.962 -443.025 0.
135.854 -395.692 0.
49.916 -600.185 0.
1094.29 -111.048 0.
1609.69 1081.08 0.
2101.41 2218.1 0.
1175.86 1058.04 0.
704.196 -41.8858 0.
826.839 245.475 0.
598.236 -334.764 0.
714.571 -65.1656 0.
1138.77 931.031 0.
869.096 298.155 0.
181.495 -1307.22 0.
147.083 -887.46 0.
81.9737 -1032.95 0.
633.745 261.17 0.
722.323 -116.581 0.
541.322 -532.493 0.
197.414 -1330.36 0.
449.674 -379.952 0.
761.392 356.679 0.
305.177 -182.982 0.
569.63 -69.5574 0.
615.869 37.9796 0.
548.917 1558.82 0.
75.7453 445.799 0.
-555.797 -1035.99 0.
497.513 -93.7955 0.
528.052 -25.65 0.
-62.7439 -1408.82 0.
802.273 235.119 0.
1163.23 1072.44 0.
894.903 440.395 0.
833.196 291.104 0.
739.377 75.6352 0.
-220.083 -262.923 0.
-5.29601 238.646 0.
66.2365 405.839 0.
307.601 -558.089 0.
368.864 -413.964 0.
753.026 483.547 0.
561.529 1075.16 0.
246.698 348.152 0.
390.692 690.696 0.
-465.787 -4.02616 0.
-235.307 528.937 0.
-146.983 -1081.24 0.
-137.928 -918.542 0.
-37.2048 -681.87 0.
-190.463 -572.69 0.
-135.676 -443.234 0.
-80.8909 -313.777 0.
-95.7735 -172.831 0.
7.34286 70.9954 0.
110.458 314.821 0.
495.614 353.016 0.
333.814 -20.8809 0.
172.014 -394.777 0.
83.3683 -387.287 0.
129.32 -275.818 0.
341.866 -125.337 0.
258.93 -321.251 0.
175.993 -517.165 0.
177.64 -612.867 0.
195.399 -567.882 0.
213.158 -522.897 0.
-163.28 -717.907 0.
-218.864 -849.952 0.
-274.45 -981.998 0.
13.4321 -726.918 0.
129.753 -455.031 0.
-15.5651 -295.022 0.
718.633 -55.9859 0.
665.198 -178.306 0.
499.048 -337.777 0.
493.997 -350.116 0.
488.944 -362.456 0.
429.097 -376.891 0.
449.138 -327.975 0.
469.179 -279.06 0.
367.917 -402.482 0.
285.727 -592.489 0.
203.537 -782.495 0.
491.234 -591.721 0.
545.806 -464.391 0.
832.128 -240.983 0.
829.921 -242.91 0.
827.714 -244.837 0.
680.8 -282.792 0.
720.235 -191.072 0.
759.67 -99.3509 0.
539.725 -238.201 0.
470.769 -406.907 0.
401.812 -575.614 0.
1424.6 -105.665 0.
1465.91 -14.0183 0.
-1831.45 -1355.84 0.
1049.48 -97.1376 0.
1064.43 -65.2329 0.
148.305 -426.713 0.
163.257 -391.821 0.
178.21 -356.928 0.
1035.37 -73.7853 0.
922.715 -332.379 0.
810.064 -590.971 0.
361.63 -731.232 0.
448.885 -521.156 0.
536.14 -311.081 0.
625.039 -277.956 0.
613.262 -307.89 0.
445.503 -399.991 0.
468.835 -345.08 0.
492.167 -290.172 0.
308.835 -383.395 0.
229.758 -569.976 0.
150.683 -756.559 0.
398.678 -565.595 0.
554.036 -208.081 0.
709.393 149.432 0.
818.638 153.042 0.
745.706 -16.4337 0.
13.9241 -459.987 0.
373.921 -192.757 0.
431.382 -57.3352 0.
-66.1139 -248.755 0.
-182.753 -524.853 0.
-299.392 -800.952 0.
374.449 -647.557 0.
357.996 -684.245 0.
341.543 -720.932 0.
169.575 -654.589 0.
280.769 -398.699 0.
391.961 -142.81 0.
335.747 -71.1843 0.
380.007 36.1371 0.
261.759 39.5852 0.
145.806 -232.657 0.
29.8546 -504.899 0.
299.118 -509.903 0.
336.167 -426.247 0.
373.217 -342.591 0.
-178.029 -519.275 0.
-145.147 -436.038 0.
-112.265 -352.8 0.
-518.884 -529.171 0.
-530.284 -558.299 0.
993.079 -562.67 0.
-54.1912 -850.344 0.
46.1613 -613.148 0.
17.9149 -452.478 0.
72.7245 -323.186 0.
127.533 -193.894 0.
-241.096 -201.861 0.
-137.446 41.524 0.
-33.7978 284.908 0.
407.158 347.096 0.
246.06 -27.7832 0.
84.9614 -402.661 0.
45.5237 -370.102 0.
91.983 -258.97 0.
247.282 -133.538 0.
164.137 -329.339 0.
80.9919 -525.141 0.
402.783 -485.047 0.
420.587 -439.822 0.
438.391 -394.597 0.
-474.298 -822.11 0.
-529.275 -954.597 0.
-584.253 -1087.08 0.
179.765 -624.115 0.
297.81 -352.93 0.
-369.869 -417.709 0.
731.683 -17.8879 0.
679.262 -140.384 0.
407.281 -346.293 0.
403.094 -358.506 0.
398.907 -370.72 0.
329.202 -388.393 0.
349.063 -339.332 0.
368.924 -290.271 0.
575.142 -284.54 0.
493.122 -474.786 0.
411.103 -665.032 0.
247.523 -661.706 0.
302.246 -535.116 0.
796.311 -225.019 0.
793.493 -227.318 0.
790.674 -229.616 0.
842.931 -181.288 0.
881.789 -90.0289 0.
920.647 1.23045 0.
521.398 -215.354 0.
452.123 -384.271 0.
382.847 -553.188 0.
1213.23 -165.945 0.
1253.66 -74.1984 0.
-2284.05 -1518.61 0.
837.745 -156.744 0.
852.998 -125.564 0.
198.315 -369.556 0.
213.642 -335.318 0.
228.97 -301.08 0.
956.613 -77.3966 0.
844.108 -337.019 0.
731.604 -596.641 0.
317.219 -717.151 0.
405.174 -507.77 0.
493.128 -298.391 0.
644.93 -236.653 0.
633.664 -267.557 0.
312.124 -423.476 0.
336.214 -370.158 0.
360.305 -316.841 0.
265.113 -367.298 0.
186.466 -555.158 0.
107.82 -743.018 0.
255.287 -595.519 0.
410.529 -238.446 0.
565.769 118.626 0.
1005.24 263.154 0.
931.735 93.5746 0.
-73.481 -465.637 0.
216.321 -228.359 0.
273.837 -93.5368 0.
144.182 -126.087 0.
27.4951 -402.812 0.
-89.1924 -679.538 0.
528.248 -549.201 0.
511.464 -585.581 0.
494.679 -621.96 0.
-122.124 -747.167 0.
-10.6988 -491.506 0.
100.726 -235.845 0.
-65.9394 -212.363 0.
-21.5081 -104.809 0.
706.489 263.136 0.
591.43 -9.52469 0.
476.372 -282.185 0.
282.76 -483.688 0.
320.282 -399.972 0.
357.806 -316.255 0.
-229.657 -509.181 0.
-196.494 -425.899 0.
-163.331 -342.616 0.
-292.17 -400.586 0.
-303.848 -429.446 0.
-187.941 -280.058 0.
185.586 -303.736 0.
87.8087 -534.88 0.
-77.9159 -702.021 0.
64.0192 -373.84 0.
205.954 -45.6571 0.
-234.135 -130.257 0.
-302.033 -283.83 0.
-369.931 -437.404 0.
80.7578 -215.526 0.
142.696 -75.4962 0.
204.636 64.5316 0.
148.137 -2.53479 0.
103.227 -102.058 0.
120.3 -173.467 0.
79.4992 -270.114 0.
38.6979 -366.76 0.
506.634 -209.166 0.
528.627 -156.072 0.
550.62 -102.978 0.
-422.911 -526.898 0.
-438.566 -561.166 0.
-454.222 -595.434 0.
445.397 -266.798 0.
405.005 -357.376 0.
427.088 -421.166 0.
560.624 -335.422 0.
573.518 -297.743 0.
456.715 -317.842 0.
441.125 -353.993 0.
425.537 -390.145 0.
203.871 -469.692 0.
248.304 -362.858 0.
292.737 -256.025 0.
631.554 -45.493 0.
651.162 4.2022 0.
670.769 53.8965 0.
431.724 -152.947 0.
367.45 -303.741 0.
618.143 -305.029 0.
646.318 -243.749 0.
674.493 -182.468 0.
947.572 -20.8795 0.
959.94 8.25205 0.
972.308 37.3834 0.
604.727 -134.08 0.
581.869 -183.929 0.
559.012 -233.778 0.
1105.9 25.992 0.
1131.44 87.5753 0.
-536.79 -577.903 0.
849.618 106.653 0.
890.741 210.775 0.
407.84 31.2554 0.
317.971 -176.346 0.
228.102 -383.946 0.
769.139 -236.951 0.
773.192 -228.174 0.
777.244 -219.398 0.
398.052 -434.229 0.
362.744 -518.455 0.
327.436 -602.681 0.
491.034 -442.82 0.
544.37 -311.845 0.
311.522 -311.586 0.
334.936 -248.892 0.
358.348 -186.197 0.
308.815 -194.273 0.
287.433 -241.591 0.
266.051 -288.907 0.
367.916 -213.694 0.
406.316 -120.616 0.
444.717 -27.5369 0.
835.613 -14.644 0.
726.258 -271.084 0.
1232.11 -256.525 0.
113.695 -553.41 0.
209.819 -327.272 0.
272.587 -184.819 0.
197.949 -352.35 0.
123.312 -519.881 0.
391.882 -388.321 0.
502.907 -129.046 0.
613.931 130.227 0.
182.602 84.8363 0.
240.395 224.624 0.
298.187 364.412 0.
27.9151 25.9758 0.
-108.875 -296.322 0.
438.997 -266.213 0.
533.569 -45.3546 0.
628.14 175.504 0.
424.397 155.382 0.
352.563 -14.3446 0.
280.732 -184.07 0.
-208.377 -450.029 0.
-204.618 -441.298 0.
-200.86 -432.567 0.
-27.6245 -367.514 0.
-37.9201 -386.801 0.
628.155 103.374 0.
171.764 -277.977 0.
73.9841 -508.955 0.
-208.534 -727.743 0.
-66.6756 -399.663 0.
75.1835 -71.5822 0.
-119.352 -47.1691 0.
-187.401 -200.581 0.
-255.45 -353.994 0.
-7.59038 -225.683 0.
53.4015 -84.2564 0.
114.395 57.1679 0.
87.6882 5.585 0.
43.1465 -93.7279 0.
-9.954 -200.309 0.
-50.3899 -296.982 0.
-90.8266 -393.656 0.
288.655 -269.558 0.
311.279 -216.475 0.
333.902 -163.392 0.
-284.417 -436.329 0.
-299.553 -470.708 0.
-314.69 -505.088 0.
576.174 -180.316 0.
534.664 -269.851 0.
921.462 -175 0.
493.989 -331.369 0.
506.748 -293.357 0.
678.094 -196.085 0.
661.821 -231.266 0.
645.55 -266.447 0.
106.173 -478.13 0.
150.543 -371.527 0.
194.912 -264.925 0.
349.5 -134.719 0.
368.786 -84.7965 0.
388.072 -34.8746 0.
623.584 -37.6878 0.
559.437 -188.771 0.
347.171 -388.451 0.
374.858 -327.377 0.
402.546 -266.303 0.
905.644 -5.73174 0.
917.223 23.5458 0.
928.803 52.823 0.
779.243 -29.2548 0.
755.919 -79.0607 0.
732.596 -128.867 0.
844.398 -55.8551 0.
869.668 5.78563 0.
-55.2492 -339.245 0.
861.166 144.541 0.
903.216 247.987 0.
486.016 100.079 0.
396.557 -108.408 0.
307.099 -316.895 0.
591.109 -281.859 0.
594.549 -273.443 0.
597.99 -265.028 0.
375.066 -412.543 0.
339.141 -496.05 0.
303.217 -579.555 0.
350.553 -474.056 0.
404.863 -343.685 0.
338.63 -266.407 0.
361.626 -203.654 0.
384.621 -140.9 0.
308.237 -163.617 0.
286.128 -210.579 0.
264.018 -257.54 0.
413.703 -164.285 0.
452.934 -71.5571 0.
492.166 21.1715 0.
587.895 -88.0896 0.
479.154 -344.862 0.
1400.92 -153.841 0.
376.064 -409.403 0.
471.481 -182.228 0.
458.648 -75.2628 0.
384.061 -243.17 0.
309.474 -411.078 0.
-222.295 -620.367 0.
-110.551 -361.982 0.
1.19241 -103.598 0.
365.295 196.131 0.
422.953 336.038 0.
480.61 475.946 0.
408.144 221.226 0.
270.77 -101.008 0.
-18.6325 -432.553 0.
75.6724 -211.638 0.
169.977 9.27743 0.
161.045 72.1458 0.
88.8073 -96.9928 0.
16.5712 -266.13 0.
-137.869 -387.886 0.
-134.356 -378.898 0.
-130.844 -369.91 0.
373.428 -167.631 0.
364.157 -188.381 0.
-257.29 430.645 0.
188.283 -167.371 0.
456.462 460.308 0.
37.2499 111.756 0.
77.207 216.564 0.
141.489 375.549 0.
-176.791 -405.353 0.
6.48962 31.401 0.
189.715 467.855 0.
453.467 1064.3 0.
245.273 580.053 0.
-145.165 -328.269 0.
50.0337 72.0222 0.
181.219 375.889 0.
-450.617 -968.249 0.
-76.0499 -89.3374 0.
-107.151 -154.651 0.
231.757 28.9595 0.
858.384 1485.97 0.
1027.03 1875.42 0.
162.308 375.302 0.
-163.179 -387.869 0.
274.834 630.087 0.
873.217 303.155 0.
915.349 404.256 0.
355.931 -895.897 0.
251.939 -745.055 0.
385.53 -435.197 0.
638.937 -676.004 0.
1098.37 397.98 0.
1034.47 253.349 0.
139.893 -179.051 0.
177.656 -89.8218 0.
-12.8654 -533.57 0.
-82.2138 -579.294 0.
-465.073 -1469.08 0.
-443.527 -1415.57 0.
1135.86 834.819 0.
1143.82 850.734 0.
78.8662 -465.881 0.
-341.91 -1444.38 0.
-139.227 -967.739 0.
862.923 9.02436 0.
983.39 289.461 0.
771.449 -205.592 0.
839.444 -182.021 0.
772.518 -337.858 0.
500.706 -971.796 0.
316.625 -757.84 0.
909.646 624.399 0.
-836.621 -428.633 0.
675.674 -258.316 0.
1011.02 526.815 0.
893.768 934.357 0.
215.261 -645.245 0.
209.868 -654.33 0.
705.213 341.105 0.
706.172 345.345 0.
561.74 10.2798 0.
582.487 157.463 0.
296.489 -515.197 0.
362.695 -365.016 0.
455.098 64.1755 0.
212.02 -502.063 0.
21.4577 -1022.91 0.
-420.661 -2055.64 0.
440.078 -49.3447 0.
-14.0511 -876.144 0.
551.152 435.353 0.
147.062 -513.003 0.
513.576 12.22 0.
891.452 887.862 0.
629.877 272.707 0.
674.086 599.416 0.
1014.37 1399.62 0.
866.669 674.807 0.
1136.5 894.131 0.
841.117 202.565 0.
326.948 -683.207 0.
55.3436 -1318.25 0.
1154.31 1243.85 0.
-361.342 241.623 0.
-630.702 -386.926 0.
-493.247 -66.9191 0.
384.96 -63.7163 0.
369.122 -100.616 0.
259.622 -357.021 0.
638.013 81.8836 0.
666.198 152.199 0.
-311.737 -257.959 0.
-593.617 -908.21 0.
-73.0488 311.713 0.
28.5791 261.885 0.
109.779 459.246 0.
-556.374 -1087.4 0.
108.198 90.4432 0.
124.174 127.221 0.
225.591 361.175 0.
761.288 18.7338 0.
686.148 -165.336 0.
260.932 -196.323 0.
-55.0616 -38.9189 0.
77.1736 273.065 0.
-93.7983 353.836 0.
-230.523 39.6043 0.
-367.249 -274.623 0.
159.08 -221.257 0.
127.62 -294.34 0.
96.1532 -367.423 0.
-336.815 -446.958 0.
-236.372 -213.452 0.
-135.928 20.0552 0.
4.60734 -48.6924 0.
-85.2991 -261.414 0.
-211.836 -449.041 0.
-110.666 -211.496 0.
-9.49604 26.0488 0.
205.286 178.09 0.
95.9631 -82.088 0.
-13.3597 -342.268 0.
-222.729 -593.426 0.
-290.808 -747.941 0.
-358.887 -902.458 0.
558.26 -480.122 0.
604.082 -380.771 0.
1128.18 -76.6758 0.
274.338 -285.236 0.
361.74 -89.0737 0.
758.128 194.363 0.
717.617 97.6537 0.
677.107 0.942861 0.
262.18 -196.942 0.
299.021 -112.937 0.
335.862 -28.9311 0.
185.76 -102.51 0.
155.92 -173.25 0.
126.08 -243.991 0.
681.721 34.4175 0.
715.57 110.384 0.
344.917 -2.92984 0.
293.358 -122.452 0.
241.8 -241.974 0.
739.689 -134.597 0.
683.09 -272.034 0.
626.491 -409.47 0.
552.648 -364.335 0.
667.991 -100.834 0.
783.335 162.668 0.
647.475 154.333 0.
647.702 152.053 0.
117.467 -77.8901 0.
624.348 -81.163 0.
507.756 -352.421 0.
349.282 -552.751 0.
429.391 -359.322 0.
509.499 -165.895 0.
526.024 -21.8714 0.
590.544 122.094 0.
655.063 266.061 0.
313.072 157.409 0.
315.711 158.537 0.
318.35 159.666 0.
504.318 42.9561 0.
387.429 -230.141 0.
340.048 -449.965 0.
341.139 -455.307 0.
342.229 -460.649 0.
121.518 -501.348 0.
205.056 -310.336 0.
288.594 -119.325 0.
537.925 -11.2394 0.
478.641 -147.398 0.
419.357 -283.556 0.
14.5494 -446.915 0.
32.6564 -400.234 0.
438.379 -182.832 0.
473.489 -390.945 0.
361.837 -658.754 0.
-29.0456 -944.583 0.
79.6664 -697.316 0.
188.378 -450.047 0.
-384.168 -579.527 0.
-367.364 -544.405 0.
-350.56 -509.284 0.
43.088 -407.59 0.
-12.0932 -536.009 0.
-67.2737 -664.43 0.
206.453 -406.944 0.
292.891 -201.823 0.
-23.8415 -193.729 0.
-41.2024 -234.036 0.
-58.5656 -274.345 0.
-181.299 -316.432 0.
-135.822 -206.647 0.
-90.3445 -96.8619 0.
-45.7953 -78.4184 0.
-80.4715 -164.708 0.
-115.148 -250.999 0.
633.64 81.5969 0.
658.448 129.762 0.
-1929.63 -1099.02 0.
-407.322 -160.593 0.
-274.965 151.534 0.
-368.329 267.538 0.
-503.315 -48.0305 0.
-638.304 -363.597 0.
495.502 -41.1289 0.
466.157 -115.382 0.
436.807 -189.633 0.
-493.546 -483.968 0.
-393.055 -250.741 0.
-292.564 -17.512 0.
31.0679 -4.08458 0.
-59.1425 -217.31 0.
-170.316 -399.498 0.
-68.7671 -162.299 0.
32.7809 74.9007 0.
112.892 168.076 0.
3.07384 -91.1595 0.
-106.743 -350.397 0.
-174.349 -543.069 0.
-242.545 -696.47 0.
-310.741 -849.872 0.
604.28 -430.593 0.
649.99 -330.929 0.
777.909 -196.933 0.
81.0583 -334.753 0.
168.057 -138.257 0.
468.184 100.714 0.
427.116 4.46031 0.
386.048 -91.7956 0.
437.236 -89.9705 0.
473.658 -5.92587 0.
510.08 78.1186 0.
289.423 -26.4632 0.
260.541 -97.8704 0.
231.66 -169.279 0.
565.809 17.1939 0.
600.643 92.4399 0.
448.456 73.7754 0.
397.006 -46.2581 0.
345.557 -166.293 0.
690.537 -121.217 0.
634.451 -259.193 0.
578.364 -397.17 0.
318.481 -432.994 0.
433.703 -169.04 0.
548.926 94.9149 0.
601.767 166.963 0.
602.094 164.506 0.
978.485 321.601 0.
476.843 -111.704 0.
359.568 -382.353 0.
482.233 -463.806 0.
562.032 -270.375 0.
641.83 -76.9449 0.
519.542 6.89923 0.
584.046 150.657 0.
648.55 294.416 0.
2.98568 56.7907 0.
5.51103 58.3204 0.
8.0371 59.8506 0.
594.017 112.058 0.
476.062 -159.416 0.
452.291 -371.548 0.
452.733 -376.492 0.
453.176 -381.436 0.
108.394 -477.438 0.
190.945 -286.486 0.
273.496 -95.5343 0.
589.032 40.977 0.
529.496 -95.187 0.
469.959 -231.351 0.
-233.899 -524.447 0.
-214.783 -478.05 0.
699.018 -40.2719 0.
354.212 -409.851 0.
243.141 -678.352 0.
-309.749 -1033.38 0.
-200.306 -786.997 0.
-90.8634 -540.609 0.
35.0168 -366.043 0.
52.7543 -331.558 0.
70.4924 -297.075 0.
-180.49 -473.328 0.
-234.968 -602.146 0.
-289.446 -730.965 0.
-48.5463 -483.612 0.
38.694 -279.458 0.
312.119 -17.7889 0.
294.79 -57.9267 0.
277.459 -98.0657 0.
-115.855 -257.206 0.
-69.9322 -147.546 0.
-24.0088 -37.8854 0.
-129.497 -82.3017 0.
-164.507 -168.801 0.
-199.518 -255.301 0.
462.864 36.7834 0.
486.805 85.2623 0.
-160.287 -33.1959 0.
-376.787 -154.66 0.
-352.458 -100.046 0.
-491.533 -109.311 0.
-453.706 -14.7568 0.
-415.884 79.7982 0.
691.188 602.852 0.
697.402 620.675 0.
703.612 638.501 0.
-250.222 3.4937 0.
-442.806 -443.486 0.
-635.39 -890.465 0.
-158.44 -420.791 0.
31.3 29.9525 0.
296.414 454.69 0.
188.388 204.04 0.
80.3629 -46.611 0.
-126.325 -240.205 0.
-64.8903 -91.0089 0.
-3.4566 58.1872 0.
164.804 125.051 0.
106.31 -16.3127 0.
47.8177 -157.679 0.
658.662 23.4352 0.
617.846 -68.3806 0.
989.454 15.3583 0.
-21.886 -389.669 0.
-5.11423 -349.771 0.
206.535 -233.497 0.
222.323 -197.829 0.
238.112 -162.162 0.
501.773 -10.76 0.
527.947 45.9675 0.
554.121 102.695 0.
229.228 -9.49312 0.
237.572 10.72 0.
245.916 30.9333 0.
496.812 -59.3126 0.
377.572 -335.208 0.
292.056 -565.36 0.
353.67 -418.145 0.
415.285 -270.93 0.
597.709 -67.1299 0.
657.824 84.4274 0.
717.937 235.984 0.
435.717 140.046 0.
405.119 72.7627 0.
374.522 5.47985 0.
393.309 -184.659 0.
268.834 -472.601 0.
-37.2018 -838.449 0.
313.339 -378.009 0.
479.192 4.85598 0.
680.696 286.232 0.
571.821 30.1552 0.
462.946 -225.922 0.
322.335 -346.792 0.
389.205 -186.35 0.
456.076 -25.9094 0.
-27.3325 -132.8 0.
18.8956 -26.8193 0.
65.1238 79.1617 0.
510.46 3.02205 0.
350.86 -372.484 0.
296.409 -632.32 0.
444.289 -286.847 0.
592.17 58.6264 0.
394.641 159.464 0.
399.174 166.085 0.
403.706 172.704 0.
525.664 190.458 0.
501.585 131.524 0.
477.505 72.5904 0.
-66.315 -150.281 0.
-56.8769 -118.664 0.
131.392 -17.8263 0.
415.99 -160.446 0.
273.728 -486.573 0.
-408.167 -942.26 0.
-308.898 -703.326 0.
-209.629 -464.394 0.
254.084 -107.038 0.
311.869 25.6347 0.
369.655 158.308 0.
-67.8035 44.0079 0.
-33.5252 124.775 0.
0.754074 205.54 0.
155.44 116.589 0.
65.9724 -96.3242 0.
348.003 -142.749 0.
287.804 -283.766 0.
227.608 -424.782 0.
-213.744 -624.354 0.
-114.689 -396.84 0.
-15.6335 -169.324 0.
-157.326 -73.447 0.
-83.2253 102.313 0.
-9.12383 278.071 0.
241.281 219.378 0.
111.576 -80.3078 0.
537.477 296.964 0.
33.9852 52.5488 0.
58.2127 107.43 0.
-133.68 75.0525 0.
-93.8704 169.247 0.
-54.067 263.441 0.
231.281 439.558 0.
239.604 456.521 0.
247.922 473.485 0.
-9.98766 137.523 0.
-201.758 -310.045 0.
-393.528 -757.613 0.
-181.088 -397.597 0.
10.0351 51.8897 0.
513.566 578.155 0.
405.679 326.973 0.
297.792 75.7898 0.
-163.197 -221.351 0.
-101.07 -72.9318 0.
-38.9447 75.488 0.
291.738 208.691 0.
231.508 69.1658 0.
171.28 -70.3604 0.
291.614 -105.304 0.
250.479 -197.245 0.
22.889 -368.519 0.
6.51837 -343.796 0.
22.9068 -304.083 0.
246.695 -185.652 0.
261.767 -149.926 0.
276.841 -114.2 0.
448.391 -0.77293 0.
474.388 55.7529 0.
500.386 112.279 0.
3.1364 -74.423 0.
12.1563 -55.0586 0.
21.1755 -35.6937 0.
548.859 -6.18133 0.
430.833 -282.761 0.
492.651 -446.32 0.
554.165 -299.244 0.
615.68 -152.168 0.
371.611 -131.903 0.
431.666 19.0784 0.
491.719 170.059 0.
379.476 144.401 0.
348.837 77.1029 0.
318.198 9.80563 0.
331.504 -176.433 0.
208.463 -465.194 0.
1038.94 -345.856 0.
376.434 -318.185 0.
542.168 65.3057 0.
298.232 153.874 0.
189.681 -102.501 0.
81.1297 -358.877 0.
241.96 -346.959 0.
310.696 -188.141 0.
379.433 -29.3247 0.
434.426 96.8024 0.
481.506 203.37 0.
528.585 309.938 0.
374.464 -23.7846 0.
215.775 -399.231 0.
94.628 -687.689 0.
242.747 -342.144 0.
390.866 3.4008 0.
481.591 229.621 0.
486.718 234.818 0.
491.844 240.015 0.
198.908 84.0753 0.
174.918 24.1453 0.
150.927 -35.7849 0.
223.911 5.62527 0.
234.559 36.1714 0.
-167.561 -113.081 0.
461.055 -109.244 0.
319.07 -435.085 0.
-462.508 -932.147 0.
-362.675 -693.74 0.
-262.842 -455.336 0.
133.464 -127.742 0.
191.827 4.67795 0.
250.191 137.099 0.
-75.9369 73.796 0.
-40.6631 153.666 0.
-5.38819 233.536 0.
297.382 210.494 0.
208.154 -2.78588 0.
293.076 -132.514 0.
234.047 -273.834 0.
175.02 -415.155 0.
-92.5537 -545.068 0.
6.50389 -316.686 0.
105.562 -88.3026 0.
-127.522 -28.0423 0.
-52.8159 147.195 0.
21.8915 322.432 0.
-271.505 31.8207 0.
-400.796 -267.638 0.
0.71498 5.12922 0.
262.652 -113.999 0.
392.575 193.976 0.
572.308 1064.82 0.
157.214 114.491 0.
449.995 815.823 0.
-168.17 334.483 0.
-548.532 -536.879 0.
-399.011 -172.644 0.
163.811 131.165 0.
44.92 -144.447 0.
89.6325 -38.5277 0.
205.706 556.93 0.
145.621 410.923 0.
195.448 -531.704 0.
832.706 950.154 0.
93.0811 -779.219 0.
-36.7439 156.074 0.
-406.995 -710.067 0.
86.2489 437.542 0.
825.903 1250.15 0.
123.267 -403.232 0.
107.884 -452.899 0.
251.523 547.813 0.
130.096 261.318 0.
1132.52 490.089 0.
106.172 -130.727 0.
302.569 330.941 0.
601.787 603.961 0.
930.413 1372.86 0.
749.712 955.325 0.
445.041 127.794 0.
590.227 469.178 0.
185.61 -471.154 0.
-32.196 277.8 0.
-149.186 7.59915 0.
100.791 593.683 0.
150.944 -991.886 0.
232.458 -803.643 0.
786.129 -112.459 0.
861.543 65.2023 0.
663.594 -394.989 0.
287.319 144.252 0.
472.667 575.86 0.
44.2208 -424.303 0.
110.475 -358.377 0.
55.843 -475.807 0.
-28.5766 -662.585 0.
225.447 -262.753 0.
414.583 173.563 0.
-1542.2 -13.1792 0.
609.759 139.296 0.
873.535 753.29 0.
409.292 1172.37 0.
196.024 670.812 0.
-139.224 -115.739 0.
125.638 -446.216 0.
519.637 476.517 0.
424.401 258.19 0.
500.968 -590.46 0.
800.333 109.453 0.
1274.59 1216.87 0.
134.558 -305.28 0.
283.472 46.7759 0.
483.07 622.804 0.
282.977 155.428 0.
101.219 -268.635 0.
554.577 278.226 0.
336.469 -232.566 0.
671.487 547.687 0.
-288.774 -408.891 0.
-688.44 -1343.3 0.
-81.1907 71.3414 0.
332.326 -251.235 0.
582.194 334.646 0.
1382.14 174.932 0.
705.576 396.207 0.
551.696 45.9713 0.
-469.035 -817.275 0.
319.762 1030.18 0.
-460.931 -783.987 0.
6.10864 -168.283 0.
329.324 589.704 0.
156.092 189.362 0.
-544.601 -987.009 0.
-414.607 -690.361 0.
32.705 348.568 0.
342.273 92.182 0.
263.182 -96.4746 0.
355.145 154.139 0.
419.007 305.055 0.
313.021 59.0498 0.
51.9217 -414.108 0.
602.78 868.335 0.
175.949 -130.533 0.
-294.493 -443.826 0.
-226.409 -290.864 0.
-159.601 -139.278 0.
-671.154 65.2883 0.
-924.397 -528.097 0.
-383.164 40.2505 0.
-121.241 115.071 0.
-191.229 -45.8987 0.
-120.321 -111.867 0.
-132.848 -133.439 0.
-145.378 -155.008 0.
-172.72 -140.109 0.
-131.666 -38.0906 0.
-90.619 63.9306 0.
198.327 228.673 0.
201.153 240.888 0.
203.98 253.1 0.
69.2598 73.2743 0.
-8.66688 -105.639 0.
38.0882 -210.899 0.
59.7793 -164.903 0.
81.4711 -118.908 0.
7.50462 -175.224 0.
-65.856 -349.18 0.
-139.218 -523.136 0.
-107.637 -372.831 0.
85.0234 59.3938 0.
277.688 491.625 0.
6.06757 385.541 0.
-32.0907 291.208 0.
677.748 515.216 0.
294.886 177.187 0.
202.522 -39.7953 0.
4.5884 -231.137 0.
72.7328 -72.8515 0.
140.878 85.436 0.
666.573 334.511 0.
601.678 187.987 0.
536.783 41.4632 0.
65.3596 -278.816 0.
11.4335 -405.877 0.
-42.4929 -532.937 0.
369.607 -235.703 0.
438.18 -72.4684 0.
261.78 -30.7549 0.
288.963 31.8393 0.
316.145 94.433 0.
386.938 117.964 0.
324.708 -36.8314 0.
262.479 -191.628 0.
82.6373 -350.733 0.
56.7211 -412.984 0.
30.8044 -475.235 0.
339.358 -87.7367 0.
514.11 320.821 0.
-154.603 369.046 0.
807.682 395.117 0.
606.045 -80.2117 0.
-517.901 -819.906 0.
-419.345 -591.964 0.
-320.787 -364.022 0.
252.789 12.323 0.
286.401 96.0165 0.
320.015 179.709 0.
571.287 39.336 0.
351.949 -468.723 0.
132.613 -976.781 0.
104.603 -493.197 0.
420.693 244.662 0.
605.805 833.552 0.
527.631 647.337 0.
449.457 461.12 0.
309.378 268.507 0.
258.193 151.636 0.
207.009 34.766 0.
260.902 -99.7964 0.
153.944 -349.596 0.
46.9849 -599.398 0.
-180.337 -711.864 0.
-163.662 -673.99 0.
-78.3515 -602.23 0.
277.872 -166.388 0.
430.721 183.904 0.
55.7618 188.752 0.
-71.725 -110.619 0.
-199.212 -409.989 0.
-323.774 -504.4 0.
-209.938 -231.016 0.
-96.1016 42.3679 0.
217.99 209.114 0.
184.035 130.183 0.
150.079 51.2536 0.
184.181 25.2118 0.
169.004 -13.6615 0.
203.149 -7.15547 0.
298.101 216.612 0.
393.056 440.379 0.
293.535 477.11 0.
231.522 324.964 0.
169.51 172.818 0.
-48.2242 1.41811 0.
-63.4182 -38.1396 0.
-78.6109 -77.6978 0.
-204.588 -59.664 0.
-153.13 60.1409 0.
-387.97 69.869 0.
-692.534 -98.5109 0.
-761.478 -260.533 0.
-333.423 -171.62 0.
-343.757 -193.883 0.
-354.095 -216.143 0.
99.5288 12.9555 0.
144.363 113.878 0.
189.19 214.803 0.
199.089 259.864 0.
201.832 273.364 0.
204.575 286.862 0.
175.901 147.521 0.
96.1311 -29.7081 0.
-311.02 -330.838 0.
-288.63 -284.84 0.
-266.239 -238.842 0.
248.113 -43.3102 0.
175.148 -217.545 0.
102.18 -391.779 0.
-382.782 -455.258 0.
-188.671 -23.5676 0.
5.44485 408.13 0.
-192.731 332.74 0.
-231.303 238.899 0.
602.488 514.493 0.
387.963 246.069 0.
294.733 29.9814 0.
-267.622 -316.542 0.
-200.751 -158.475 0.
-133.879 -0.405973 0.
837.217 437.613 0.
771.345 291.094 0.
705.474 144.576 0.
506.361 -57.7733 0.
452.514 -185.852 0.
398.665 -313.93 0.
252.12 -252.116 0.
322.817 -91.2662 0.
-411.118 -288.711 0.
-384.129 -225.718 0.
-357.14 -162.724 0.
547.256 217.937 0.
484.397 63.6423 0.
421.54 -90.6528 0.
66.4654 -326.322 0.
41.1696 -388.196 0.
15.8734 -450.069 0.
409.718 -22.058 0.
585.923 385.358 0.
496.409 681.408 0.
940.545 485.208 0.
739.409 8.98811 0.
-591.807 -820.455 0.
-492.731 -592.571 0.
-393.654 -364.687 0.
191.974 20.0789 0.
226.832 102.864 0.
261.692 185.648 0.
336.255 -29.0412 0.
116.019 -535.88 0.
-104.215 -1042.72 0.
181.436 -431.929 0.
499.189 305.459 0.
673.664 896.898 0.
596.391 709.595 0.
519.118 522.288 0.
24.4055 180.889 0.
-26.4457 63.1582 0.
-77.2955 -54.5728 0.
794.732 163.469 0.
688.046 -87.1141 0.
581.357 -337.7 0.
-552.305 -841.937 0.
-536.201 -803.69 0.
178.963 -461.165 0.
63.5145 -228.035 0.
215.891 122.022 0.
198.482 281.971 0.
71.1207 -17.4908 0.
-56.2412 -316.953 0.
-538.062 -566.106 0.
-423.993 -292.279 0.
-309.923 -18.4527 0.
538.498 376.585 0.
503.699 298.522 0.
468.898 220.461 0.
43.6912 -4.22558 0.
28.5287 -43.6183 0.
113.42 -13.924 0.
209.028 209.883 0.
304.639 433.689 0.
139.607 442.451 0.
78.4699 289.677 0.
17.332 136.903 0.
32.7367 69.8272 0.
18.1807 30.0545 0.
3.62595 -9.71871 0.
451.558 249.965 0.
502.741 371.18 0.
