# vtk DataFile Version 2.0
test grain
ASCII
DATASET UNSTRUCTURED_GRID
POINTS 5000 float
0.499882 0.0010024 0.
0.501881 0.00100214 0.
0.503879 0.0010019 0.
0.505878 0.00100171 0.
0.507878 0.00100177 0.
0.509879 0.00100183 0.
0.511879 0.00100167 0.
0.513879 0.00100118 0.
0.51588 0.0010007 0.
0.51788 0.0010007 0.
0.51988 0.00100099 0.
0.52188 0.00100127 0.
0.52388 0.0010014 0.
0.525879 0.00100151 0.
0.527878 0.00100165 0.
0.529876 0.00100221 0.
0.531875 0.00100277 0.
0.533873 0.00100278 0.
0.535874 0.00100153 0.
0.537874 0.00100027 0.
0.539874 0.00100002 0.
0.541873 0.00100074 0.
0.543872 0.00100145 0.
0.545871 0.00100181 0.
0.54787 0.00100204 0.
0.549869 0.00100226 0.
0.551865 0.00100269 0.
0.553861 0.00100312 0.
0.555857 0.0010034 0.
0.557853 0.001003 0.
0.559849 0.0010026 0.
0.561845 0.00100256 0.
0.56384 0.00100305 0.
0.565835 0.00100353 0.
0.56783 0.00100299 0.
0.569824 0.0010018 0.
0.571818 0.00100061 0.
0.573808 0.00100175 0.
0.575796 0.00100335 0.
0.577785 0.00100492 0.
0.57977 0.00100588 0.
0.581755 0.00100683 0.
0.583738 0.00100745 0.
0.585717 0.00100703 0.
0.587696 0.00100661 0.
0.589675 0.00100512 0.
0.591653 0.00100257 0.
0.593631 0.00100003 0.
0.595721 0.000999662 0.
0.597858 0.00099977 0.
0.600001 0.000999874 0.
0.602139 0.00099976 0.
0.604277 0.000999644 0.
0.606367 0.00100003 0.
0.608345 0.00100249 0.
0.610323 0.00100496 0.
0.612303 0.0010063 0.
0.614284 0.00100657 0.
0.616266 0.00100685 0.
0.61825 0.00100655 0.
0.620234 0.00100611 0.
0.622219 0.00100567 0.
0.624204 0.00100525 0.
0.626188 0.00100479 0.
0.628175 0.0010041 0.
0.63017 0.0010024 0.
0.632165 0.0010007 0.
0.634161 0.00100005 0.
0.636158 0.00100108 0.
0.638155 0.00100211 0.
0.640152 0.00100259 0.
0.642149 0.00100273 0.
0.644145 0.00100287 0.
0.646141 0.00100308 0.
0.648137 0.00100331 0.
0.650132 0.00100353 0.
0.65213 0.00100301 0.
0.654129 0.00100249 0.
0.656127 0.00100185 0.
0.658128 0.00100091 0.
0.660129 0.000999972 0.
0.662129 0.00100008 0.
0.66413 0.00100125 0.
0.66613 0.00100242 0.
0.668129 0.00100269 0.
0.670128 0.00100262 0.
0.672126 0.00100255 0.
0.674124 0.00100206 0.
0.676122 0.00100154 0.
0.67812 0.00100113 0.
0.68012 0.00100135 0.
0.682119 0.00100156 0.
0.684118 0.00100174 0.
0.686118 0.00100181 0.
0.688117 0.00100189 0.
0.690116 0.00100184 0.
0.692116 0.00100174 0.
0.694116 0.00100163 0.
0.696116 0.00100163 0.
0.698116 0.00100164 0.
0.499881 0.00300721 0.
0.50188 0.00300642 0.
0.50388 0.00300571 0.
0.505879 0.00300514 0.
0.507879 0.00300532 0.
0.509879 0.00300549 0.
0.51188 0.00300502 0.
0.51388 0.00300356 0.
0.51588 0.0030021 0.
0.51788 0.0030021 0.
0.519881 0.00300296 0.
0.521881 0.00300382 0.
0.52388 0.00300421 0.
0.525879 0.00300452 0.
0.527878 0.00300495 0.
0.529877 0.00300662 0.
0.531876 0.00300829 0.
0.533875 0.00300835 0.
0.535872 0.00300458 0.
0.53787 0.0030008 0.
0.539871 0.00300006 0.
0.541874 0.00300221 0.
0.543877 0.00300436 0.
0.545876 0.00300544 0.
0.547874 0.00300612 0.
0.549871 0.00300679 0.
0.551867 0.00300807 0.
0.553863 0.00300937 0.
0.555858 0.00301019 0.
0.557855 0.003009 0.
0.559851 0.00300781 0.
0.561847 0.0030077 0.
0.563842 0.00300916 0.
0.565837 0.00301061 0.
0.567833 0.00300896 0.
0.569828 0.00300539 0.
0.571824 0.00300182 0.
0.573813 0.00300524 0.
0.575801 0.00301004 0.
0.57779 0.00301478 0.
0.579776 0.00301764 0.
0.581762 0.00302051 0.
0.583746 0.00302232 0.
0.585726 0.00302108 0.
0.587705 0.00301983 0.
0.589685 0.00301532 0.
0.591667 0.00300766 0.
0.593648 0.00300002 0.
0.595735 0.00299894 0.
0.597866 0.00299929 0.
0.6 0.00299962 0.
0.602132 0.00299926 0.
0.604263 0.00299889 0.
0.606349 0.00300003 0.
0.608331 0.00300743 0.
0.610312 0.00301484 0.
0.612293 0.00301887 0.
0.614275 0.0030197 0.
0.616257 0.00302054 0.
0.618241 0.00301966 0.
0.620227 0.00301834 0.
0.622213 0.00301701 0.
0.624199 0.00301576 0.
0.626185 0.00301438 0.
0.628173 0.00301231 0.
0.630167 0.0030072 0.
0.632161 0.0030021 0.
0.634157 0.00300016 0.
0.636156 0.00300324 0.
0.638156 0.00300632 0.
0.640153 0.00300778 0.
0.64215 0.00300819 0.
0.644147 0.00300861 0.
0.646141 0.00300923 0.
0.648136 0.00300993 0.
0.65013 0.0030106 0.
0.652126 0.00300905 0.
0.654123 0.00300749 0.
0.656121 0.00300554 0.
0.658127 0.00300272 0.
0.660132 0.00299991 0.
0.662135 0.00300025 0.
0.664133 0.00300376 0.
0.666131 0.00300727 0.
0.668129 0.00300808 0.
0.670127 0.00300786 0.
0.672124 0.00300764 0.
0.674123 0.00300619 0.
0.676121 0.00300462 0.
0.678119 0.00300339 0.
0.680119 0.00300404 0.
0.682118 0.00300469 0.
0.684118 0.0030052 0.
0.686117 0.00300543 0.
0.688117 0.00300565 0.
0.690116 0.00300552 0.
0.692117 0.00300521 0.
0.694117 0.0030049 0.
0.696117 0.0030049 0.
0.698117 0.00300494 0.
0.499879 0.00501198 0.
0.501879 0.00501068 0.
0.50388 0.0050095 0.
0.50588 0.00500859 0.
0.50788 0.00500886 0.
0.50988 0.00500914 0.
0.51188 0.00500836 0.
0.51388 0.00500593 0.
0.51588 0.0050035 0.
0.517881 0.00500349 0.
0.519882 0.00500493 0.
0.521883 0.00500637 0.
0.523881 0.00500702 0.
0.52588 0.00500754 0.
0.527878 0.00500824 0.
0.529878 0.00501101 0.
0.531878 0.00501379 0.
0.533876 0.00501391 0.
0.535871 0.00500764 0.
0.537866 0.00500137 0.
0.539867 0.00500012 0.
0.541874 0.0050037 0.
0.543881 0.00500729 0.
0.54588 0.00500908 0.
0.547877 0.0050102 0.
0.549874 0.00501132 0.
0.551869 0.00501342 0.
0.553864 0.00501559 0.
0.55586 0.00501697 0.
0.557856 0.00501499 0.
0.559852 0.005013 0.
0.561848 0.00501285 0.
0.563844 0.00501527 0.
0.565839 0.00501769 0.
0.567836 0.00501492 0.
0.569833 0.00500898 0.
0.57183 0.00500304 0.
0.573819 0.00500875 0.
0.575807 0.00501674 0.
0.577794 0.00502465 0.
0.579782 0.00502938 0.
0.581769 0.00503413 0.
0.583755 0.00503711 0.
0.585734 0.00503505 0.
0.587714 0.00503303 0.
0.589696 0.00502549 0.
0.59168 0.00501268 0.
0.593665 0.00499993 0.
0.595748 0.00499819 0.
0.597873 0.00499908 0.
0.600002 0.00500034 0.
0.602125 0.00499904 0.
0.604249 0.0049981 0.
0.606331 0.00499996 0.
0.608316 0.00501231 0.
0.6103 0.00502468 0.
0.612284 0.00503138 0.
0.614265 0.00503276 0.
0.616247 0.00503414 0.
0.618233 0.00503273 0.
0.62022 0.00503055 0.
0.622207 0.00502838 0.
0.624195 0.00502625 0.
0.626183 0.00502396 0.
0.628171 0.00502052 0.
0.630164 0.00501202 0.
0.632157 0.00500352 0.
0.634153 0.00500026 0.
0.636154 0.0050054 0.
0.638156 0.00501052 0.
0.640155 0.00501297 0.
0.642151 0.00501366 0.
0.644148 0.00501435 0.
0.646142 0.00501536 0.
0.648135 0.00501654 0.
0.650128 0.00501768 0.
0.652122 0.00501508 0.
0.654117 0.0050125 0.
0.656115 0.00500923 0.
0.658126 0.00500455 0.
0.660136 0.00499985 0.
0.66214 0.00500046 0.
0.664136 0.00500629 0.
0.666132 0.00501211 0.
0.668129 0.00501345 0.
0.670126 0.00501309 0.
0.672123 0.00501274 0.
0.674121 0.00501031 0.
0.67612 0.0050077 0.
0.678118 0.00500564 0.
0.680118 0.00500673 0.
0.682118 0.00500781 0.
0.684117 0.00500865 0.
0.686117 0.00500902 0.
0.688117 0.00500939 0.
0.690116 0.0050092 0.
0.692117 0.00500868 0.
0.694117 0.00500817 0.
0.696117 0.00500817 0.
0.698118 0.00500823 0.
0.499879 0.00701504 0.
0.50188 0.00701398 0.
0.503881 0.00701313 0.
0.505881 0.00701248 0.
0.507881 0.00701272 0.
0.509882 0.00701296 0.
0.511882 0.00701295 0.
0.513881 0.0070125 0.
0.515881 0.00701206 0.
0.517881 0.0070122 0.
0.519882 0.00701273 0.
0.521882 0.00701326 0.
0.523881 0.00701408 0.
0.52588 0.00701493 0.
0.52788 0.00701581 0.
0.52988 0.00701731 0.
0.53188 0.0070188 0.
0.533878 0.00701979 0.
0.535875 0.00701948 0.
0.537872 0.00701918 0.
0.539872 0.00701877 0.
0.541874 0.00701827 0.
0.543877 0.00701778 0.
0.545876 0.00701805 0.
0.547874 0.00701857 0.
0.549872 0.00701909 0.
0.551869 0.00702079 0.
0.553866 0.00702255 0.
0.555863 0.00702391 0.
0.55786 0.00702346 0.
0.559857 0.007023 0.
0.561853 0.00702335 0.
0.563849 0.00702494 0.
0.565845 0.00702653 0.
0.567841 0.00702649 0.
0.569837 0.00702537 0.
0.571833 0.00702426 0.
0.573824 0.00702874 0.
0.575813 0.00703439 0.
0.577803 0.00703989 0.
0.579793 0.00704294 0.
0.581784 0.007046 0.
0.583774 0.00704774 0.
0.585761 0.00704548 0.
0.587748 0.00704326 0.
0.589737 0.00703311 0.
0.591727 0.00701517 0.
0.593717 0.00699732 0.
0.595789 0.00701631 0.
0.597894 0.00705037 0.
0.600001 0.00708532 0.
0.602104 0.00705085 0.
0.604208 0.00701724 0.
0.606279 0.00699865 0.
0.60827 0.00701616 0.
0.61026 0.00703372 0.
0.61225 0.00704291 0.
0.614238 0.00704396 0.
0.616226 0.00704501 0.
0.618216 0.00704373 0.
0.620206 0.00704176 0.
0.622197 0.00703981 0.
0.624187 0.0070367 0.
0.626178 0.00703342 0.
0.628169 0.00703006 0.
0.630163 0.00702714 0.
0.632156 0.00702424 0.
0.634152 0.00702254 0.
0.636151 0.00702256 0.
0.63815 0.00702257 0.
0.640148 0.00702308 0.
0.642145 0.00702393 0.
0.644142 0.00702477 0.
0.646138 0.00702476 0.
0.648134 0.00702464 0.
0.650129 0.00702455 0.
0.652126 0.00702442 0.
0.654123 0.00702429 0.
0.656122 0.00702435 0.
0.658126 0.00702509 0.
0.660131 0.00702583 0.
0.662132 0.00702559 0.
0.664129 0.00702421 0.
0.666127 0.00702285 0.
0.668125 0.00702128 0.
0.670123 0.00701968 0.
0.672121 0.00701808 0.
0.67412 0.0070159 0.
0.676119 0.00701366 0.
0.678118 0.00701184 0.
0.680117 0.0070123 0.
0.682117 0.00701275 0.
0.684116 0.00701314 0.
0.686116 0.0070134 0.
0.688116 0.00701366 0.
0.690116 0.00701333 0.
0.692116 0.00701264 0.
0.694116 0.00701195 0.
0.696117 0.00701209 0.
0.698117 0.0070124 0.
0.49988 0.009018 0.
0.501881 0.00901727 0.
0.503881 0.00901676 0.
0.505882 0.00901637 0.
0.507882 0.00901657 0.
0.509883 0.00901678 0.
0.511883 0.00901754 0.
0.513883 0.00901908 0.
0.515883 0.00902061 0.
0.517882 0.00902091 0.
0.519882 0.00902052 0.
0.521881 0.00902014 0.
0.523881 0.00902114 0.
0.525881 0.00902232 0.
0.527881 0.00902338 0.
0.529881 0.00902359 0.
0.531881 0.0090238 0.
0.533881 0.00902567 0.
0.535879 0.00903133 0.
0.537877 0.00903702 0.
0.539876 0.00903741 0.
0.541875 0.00903284 0.
0.543873 0.00902829 0.
0.545872 0.00902702 0.
0.547872 0.00902694 0.
0.549871 0.00902687 0.
0.551869 0.00902815 0.
0.553867 0.00902951 0.
0.555865 0.00903085 0.
0.557863 0.00903192 0.
0.559861 0.009033 0.
0.561858 0.00903385 0.
0.563855 0.00903461 0.
0.565852 0.00903537 0.
0.567847 0.00903807 0.
0.569842 0.00904176 0.
0.571837 0.00904548 0.
0.573828 0.00904875 0.
0.57582 0.00905205 0.
0.577811 0.00905512 0.
0.579805 0.00905649 0.
0.581799 0.00905788 0.
0.583793 0.00905834 0.
0.585787 0.00905588 0.
0.587782 0.00905346 0.
0.589777 0.00904059 0.
0.591773 0.00901749 0.
0.593769 0.00899448 0.
0.595829 0.00903541 0.
0.597915 0.00910215 0.
0.6 0.00917028 0.
0.602083 0.00910312 0.
0.604167 0.00903733 0.
0.606227 0.00899716 0.
0.608223 0.00901987 0.
0.61022 0.00904264 0.
0.612216 0.00905445 0.
0.614211 0.00905515 0.
0.616205 0.00905586 0.
0.618199 0.00905472 0.
0.620193 0.00905296 0.
0.622187 0.00905122 0.
0.62418 0.00904716 0.
0.626173 0.00904289 0.
0.628167 0.0090396 0.
0.630162 0.00904226 0.
0.632156 0.00904494 0.
0.634152 0.00904482 0.
0.636148 0.00903972 0.
0.638144 0.00903464 0.
0.640141 0.00903321 0.
0.642139 0.0090342 0.
0.644137 0.00903519 0.
0.646135 0.00903418 0.
0.648132 0.00903275 0.
0.65013 0.00903141 0.
0.65213 0.00903375 0.
0.654129 0.00903609 0.
0.656129 0.0090395 0.
0.658127 0.00904563 0.
0.660125 0.00905177 0.
0.662124 0.00905076 0.
0.664122 0.00904217 0.
0.666121 0.00903361 0.
0.668121 0.00902911 0.
0.67012 0.00902626 0.
0.67212 0.00902341 0.
0.674119 0.00902149 0.
0.676118 0.00901963 0.
0.678117 0.00901803 0.
0.680116 0.00901785 0.
0.682116 0.00901768 0.
0.684115 0.00901762 0.
0.686115 0.00901778 0.
0.688115 0.00901794 0.
0.690115 0.00901746 0.
0.692115 0.0090166 0.
0.694116 0.00901573 0.
0.696116 0.00901602 0.
0.698117 0.00901657 0.
0.499881 0.0110209 0.
0.501882 0.0110203 0.
0.503882 0.0110199 0.
0.505883 0.0110197 0.
0.507884 0.0110199 0.
0.509884 0.0110202 0.
0.511884 0.0110213 0.
0.513884 0.0110235 0.
0.515884 0.0110257 0.
0.517883 0.011026 0.
0.519882 0.0110254 0.
0.521882 0.0110248 0.
0.523882 0.0110259 0.
0.525882 0.0110273 0.
0.527883 0.0110286 0.
0.529883 0.0110283 0.
0.531882 0.0110281 0.
0.533882 0.0110302 0.
0.535881 0.0110377 0.
0.537881 0.0110453 0.
0.539879 0.011046 0.
0.541877 0.0110404 0.
0.543874 0.0110349 0.
0.545873 0.011033 0.
0.547873 0.0110326 0.
0.549873 0.0110321 0.
0.551872 0.0110335 0.
0.55387 0.011035 0.
0.555869 0.0110366 0.
0.557867 0.011038 0.
0.559866 0.0110394 0.
0.561864 0.0110404 0.
0.563861 0.0110411 0.
0.565858 0.0110418 0.
0.567854 0.0110454 0.
0.56985 0.0110506 0.
0.571845 0.0110559 0.
0.573839 0.0110588 0.
0.575833 0.0110614 0.
0.577827 0.0110637 0.
0.579823 0.0110637 0.
0.58182 0.0110637 0.
0.583818 0.0110627 0.
0.585819 0.0110591 0.
0.587819 0.0110556 0.
0.58982 0.0110425 0.
0.591821 0.0110202 0.
0.593823 0.0109979 0.
0.595872 0.0110413 0.
0.597937 0.0111077 0.
0.600003 0.011173 0.
0.602065 0.0111091 0.
0.604127 0.0110443 0.
0.606174 0.011002 0.
0.608177 0.0110236 0.
0.610179 0.011045 0.
0.61218 0.0110569 0.
0.61418 0.0110589 0.
0.616179 0.0110609 0.
0.618177 0.0110605 0.
0.620174 0.0110592 0.
0.62217 0.011058 0.
0.624166 0.0110537 0.
0.626162 0.0110492 0.
0.628158 0.011046 0.
0.630154 0.0110505 0.
0.63215 0.0110551 0.
0.634146 0.0110556 0.
0.636142 0.0110489 0.
0.638138 0.0110423 0.
0.640135 0.0110401 0.
0.642134 0.0110409 0.
0.644132 0.0110416 0.
0.646131 0.0110402 0.
0.64813 0.0110382 0.
0.650129 0.0110364 0.
0.652129 0.01104 0.
0.654129 0.0110436 0.
0.656129 0.0110483 0.
0.658125 0.0110554 0.
0.660122 0.0110626 0.
0.66212 0.0110611 0.
0.664119 0.0110506 0.
0.666119 0.0110401 0.
0.668119 0.0110346 0.
0.670119 0.0110312 0.
0.672119 0.0110278 0.
0.674118 0.0110259 0.
0.676117 0.0110242 0.
0.678116 0.0110227 0.
0.680116 0.0110222 0.
0.682115 0.0110217 0.
0.684115 0.0110213 0.
0.686115 0.0110213 0.
0.688115 0.0110213 0.
0.690115 0.0110208 0.
0.692115 0.0110201 0.
0.694115 0.0110194 0.
0.696115 0.0110198 0.
0.698116 0.0110205 0.
0.499884 0.0130238 0.
0.501884 0.0130232 0.
0.503884 0.0130227 0.
0.505884 0.0130223 0.
0.507885 0.0130228 0.
0.509885 0.0130233 0.
0.511885 0.0130242 0.
0.513885 0.0130257 0.
0.515885 0.0130272 0.
0.517885 0.0130276 0.
0.519884 0.0130274 0.
0.521884 0.0130272 0.
0.523884 0.0130285 0.
0.525884 0.01303 0.
0.527884 0.0130313 0.
0.529883 0.0130315 0.
0.531883 0.0130317 0.
0.533882 0.0130334 0.
0.535882 0.0130388 0.
0.537882 0.0130443 0.
0.539881 0.013045 0.
0.54188 0.0130412 0.
0.54388 0.0130375 0.
0.545879 0.013036 0.
0.547878 0.0130354 0.
0.549878 0.0130349 0.
0.551877 0.0130369 0.
0.553875 0.0130391 0.
0.555874 0.013041 0.
0.557872 0.0130417 0.
0.559871 0.0130423 0.
0.561869 0.0130431 0.
0.563867 0.0130445 0.
0.565866 0.0130458 0.
0.567863 0.0130486 0.
0.569861 0.0130522 0.
0.571858 0.0130558 0.
0.573855 0.0130593 0.
0.575852 0.0130628 0.
0.577849 0.0130658 0.
0.579849 0.0130647 0.
0.581849 0.0130636 0.
0.58385 0.0130612 0.
0.585854 0.0130556 0.
0.587858 0.01305 0.
0.589864 0.0130391 0.
0.591872 0.0130235 0.
0.593879 0.0130079 0.
0.595916 0.0130334 0.
0.597962 0.0130723 0.
0.600008 0.0131105 0.
0.602048 0.0130744 0.
0.604089 0.0130377 0.
0.606122 0.0130134 0.
0.608129 0.0130274 0.
0.610136 0.0130412 0.
0.612142 0.0130506 0.
0.614145 0.0130554 0.
0.616149 0.0130601 0.
0.61815 0.0130612 0.
0.620149 0.0130607 0.
0.622149 0.0130603 0.
0.624147 0.0130565 0.
0.626145 0.0130524 0.
0.628143 0.0130493 0.
0.630141 0.0130522 0.
0.632139 0.0130552 0.
0.634137 0.0130553 0.
0.636135 0.0130504 0.
0.638133 0.0130456 0.
0.640131 0.0130438 0.
0.64213 0.0130439 0.
0.644129 0.0130441 0.
0.646127 0.0130428 0.
0.648126 0.0130411 0.
0.650125 0.0130395 0.
0.652124 0.0130432 0.
0.654123 0.013047 0.
0.656122 0.0130508 0.
0.658121 0.0130549 0.
0.660121 0.013059 0.
0.66212 0.0130575 0.
0.66412 0.0130499 0.
0.666119 0.0130423 0.
0.668119 0.0130378 0.
0.670119 0.0130345 0.
0.672118 0.0130312 0.
0.674118 0.0130292 0.
0.676117 0.0130274 0.
0.678116 0.0130257 0.
0.680116 0.0130252 0.
0.682115 0.0130247 0.
0.684115 0.0130242 0.
0.686115 0.013024 0.
0.688115 0.0130237 0.
0.690115 0.0130234 0.
0.692114 0.0130231 0.
0.694114 0.0130229 0.
0.696114 0.0130233 0.
0.698115 0.013024 0.
0.499887 0.0150268 0.
0.501886 0.015026 0.
0.503886 0.0150254 0.
0.505886 0.015025 0.
0.507886 0.0150257 0.
0.509886 0.0150263 0.
0.511886 0.0150271 0.
0.513886 0.015028 0.
0.515886 0.0150288 0.
0.517886 0.0150292 0.
0.519886 0.0150294 0.
0.521886 0.0150296 0.
0.523886 0.015031 0.
0.525886 0.0150326 0.
0.527886 0.0150341 0.
0.529884 0.0150346 0.
0.531883 0.0150352 0.
0.533882 0.0150365 0.
0.535883 0.0150399 0.
0.537883 0.0150433 0.
0.539883 0.015044 0.
0.541884 0.0150421 0.
0.543885 0.0150401 0.
0.545884 0.015039 0.
0.547884 0.0150383 0.
0.549883 0.0150376 0.
0.551881 0.0150403 0.
0.55388 0.0150431 0.
0.555878 0.0150455 0.
0.557877 0.0150453 0.
0.559876 0.0150452 0.
0.561875 0.0150458 0.
0.563874 0.0150478 0.
0.565873 0.0150497 0.
0.567872 0.0150517 0.
0.569872 0.0150537 0.
0.571871 0.0150558 0.
0.573871 0.0150597 0.
0.575871 0.015064 0.
0.577871 0.0150678 0.
0.579874 0.0150655 0.
0.581877 0.0150634 0.
0.583881 0.0150596 0.
0.58589 0.0150519 0.
0.587898 0.0150443 0.
0.589909 0.0150359 0.
0.591922 0.0150269 0.
0.593935 0.015018 0.
0.595959 0.0150249 0.
0.597986 0.0150368 0.
0.600013 0.0150487 0.
0.602032 0.0150396 0.
0.604052 0.0150305 0.
0.60607 0.015025 0.
0.608082 0.0150313 0.
0.610094 0.0150376 0.
0.612104 0.0150444 0.
0.614111 0.0150518 0.
0.616119 0.0150593 0.
0.618123 0.0150618 0.
0.620125 0.0150621 0.
0.622127 0.0150625 0.
0.624128 0.0150592 0.
0.626128 0.0150555 0.
0.628128 0.0150525 0.
0.630127 0.0150539 0.
0.632127 0.0150553 0.
0.634127 0.015055 0.
0.636127 0.0150519 0.
0.638127 0.0150489 0.
0.640127 0.0150474 0.
0.642126 0.015047 0.
0.644125 0.0150466 0.
0.646124 0.0150454 0.
0.648122 0.0150439 0.
0.65012 0.0150427 0.
0.652119 0.0150464 0.
0.654117 0.0150502 0.
0.656116 0.0150533 0.
0.658118 0.0150544 0.
0.66012 0.0150556 0.
0.66212 0.0150539 0.
0.66412 0.0150492 0.
0.66612 0.0150445 0.
0.668119 0.0150409 0.
0.670119 0.0150377 0.
0.672118 0.0150345 0.
0.674117 0.0150325 0.
0.676117 0.0150305 0.
0.678116 0.0150288 0.
0.680116 0.0150283 0.
0.682115 0.0150277 0.
0.684115 0.0150272 0.
0.686115 0.0150266 0.
0.688115 0.0150261 0.
0.690115 0.015026 0.
0.692114 0.0150262 0.
0.694113 0.0150263 0.
0.696113 0.0150269 0.
0.698114 0.0150275 0.
0.499888 0.01703 0.
0.501887 0.0170293 0.
0.503886 0.0170286 0.
0.505886 0.0170281 0.
0.507886 0.0170285 0.
0.509886 0.0170289 0.
0.511886 0.0170295 0.
0.513886 0.0170302 0.
0.515886 0.0170309 0.
0.517886 0.0170311 0.
0.519887 0.0170311 0.
0.521887 0.017031 0.
0.523887 0.0170324 0.
0.525887 0.0170341 0.
0.527887 0.0170357 0.
0.529886 0.0170366 0.
0.531885 0.0170376 0.
0.533885 0.0170389 0.
0.535885 0.0170415 0.
0.537885 0.017044 0.
0.539885 0.0170444 0.
0.541886 0.0170427 0.
0.543887 0.017041 0.
0.545887 0.0170404 0.
0.547886 0.0170403 0.
0.549886 0.0170402 0.
0.551884 0.0170427 0.
0.553883 0.0170453 0.
0.555881 0.0170474 0.
0.557881 0.0170473 0.
0.55988 0.0170473 0.
0.56188 0.017048 0.
0.563879 0.0170498 0.
0.565878 0.0170516 0.
0.567878 0.0170533 0.
0.569879 0.0170548 0.
0.571879 0.0170563 0.
0.573881 0.0170598 0.
0.575882 0.0170636 0.
0.577884 0.0170668 0.
0.579888 0.0170634 0.
0.581892 0.0170601 0.
0.583897 0.0170554 0.
0.585905 0.0170478 0.
0.587914 0.0170402 0.
0.589923 0.0170324 0.
0.591935 0.0170246 0.
0.593946 0.0170167 0.
0.595966 0.0170215 0.
0.597988 0.0170301 0.
0.60001 0.0170387 0.
0.602027 0.0170327 0.
0.604044 0.0170268 0.
0.60606 0.0170236 0.
0.60807 0.0170293 0.
0.61008 0.0170351 0.
0.612089 0.0170415 0.
0.614097 0.0170485 0.
0.616104 0.0170555 0.
0.618109 0.0170587 0.
0.620112 0.0170601 0.
0.622116 0.0170615 0.
0.624117 0.0170587 0.
0.626118 0.0170555 0.
0.628119 0.0170529 0.
0.63012 0.0170541 0.
0.63212 0.0170553 0.
0.634121 0.0170552 0.
0.636121 0.0170531 0.
0.638121 0.017051 0.
0.640121 0.0170498 0.
0.642121 0.0170491 0.
0.64412 0.0170485 0.
0.646119 0.0170475 0.
0.648118 0.0170463 0.
0.650117 0.0170452 0.
0.652115 0.0170479 0.
0.654114 0.0170507 0.
0.656114 0.0170529 0.
0.658115 0.0170538 0.
0.660117 0.0170546 0.
0.662118 0.0170534 0.
0.664118 0.0170499 0.
0.666118 0.0170464 0.
0.668118 0.0170434 0.
0.670117 0.0170405 0.
0.672117 0.0170377 0.
0.674116 0.0170354 0.
0.676116 0.0170332 0.
0.678115 0.0170312 0.
0.680115 0.0170306 0.
0.682115 0.01703 0.
0.684115 0.0170295 0.
0.686114 0.0170291 0.
0.688114 0.0170288 0.
0.690114 0.0170287 0.
0.692113 0.0170289 0.
0.694113 0.017029 0.
0.696113 0.0170294 0.
0.698113 0.01703 0.
0.499889 0.0190334 0.
0.501888 0.0190326 0.
0.503887 0.0190318 0.
0.505886 0.0190311 0.
0.507886 0.0190313 0.
0.509886 0.0190315 0.
0.511887 0.0190318 0.
0.513887 0.0190324 0.
0.515887 0.019033 0.
0.517887 0.019033 0.
0.519887 0.0190328 0.
0.521888 0.0190325 0.
0.523888 0.0190339 0.
0.525888 0.0190356 0.
0.527888 0.0190372 0.
0.529887 0.0190386 0.
0.531887 0.01904 0.
0.533887 0.0190414 0.
0.535887 0.019043 0.
0.537887 0.0190447 0.
0.539888 0.0190447 0.
0.541888 0.0190433 0.
0.543889 0.0190418 0.
0.545889 0.0190418 0.
0.547889 0.0190424 0.
0.549888 0.0190429 0.
0.551887 0.0190451 0.
0.553886 0.0190474 0.
0.555885 0.0190493 0.
0.557885 0.0190494 0.
0.559884 0.0190494 0.
0.561884 0.0190501 0.
0.563884 0.0190518 0.
0.565884 0.0190535 0.
0.567885 0.0190548 0.
0.569886 0.0190558 0.
0.571887 0.0190568 0.
0.57389 0.0190598 0.
0.575893 0.0190632 0.
0.577897 0.0190659 0.
0.579902 0.0190613 0.
0.581907 0.0190568 0.
0.583913 0.0190513 0.
0.585921 0.0190437 0.
0.587929 0.0190362 0.
0.589938 0.019029 0.
0.591948 0.0190222 0.
0.593957 0.0190155 0.
0.595973 0.019018 0.
0.59799 0.0190234 0.
0.600008 0.0190287 0.
0.602022 0.0190259 0.
0.604036 0.019023 0.
0.606049 0.0190221 0.
0.608058 0.0190274 0.
0.610067 0.0190326 0.
0.612075 0.0190385 0.
0.614082 0.0190451 0.
0.616089 0.0190518 0.
0.618095 0.0190555 0.
0.6201 0.019058 0.
0.622104 0.0190605 0.
0.624107 0.0190582 0.
0.626109 0.0190555 0.
0.628111 0.0190534 0.
0.630112 0.0190544 0.
0.632113 0.0190554 0.
0.634114 0.0190555 0.
0.636115 0.0190543 0.
0.638115 0.0190531 0.
0.640116 0.0190521 0.
0.642116 0.0190513 0.
0.644116 0.0190504 0.
0.646115 0.0190495 0.
0.648114 0.0190486 0.
0.650113 0.0190477 0.
0.652112 0.0190494 0.
0.654112 0.0190511 0.
0.656112 0.0190525 0.
0.658113 0.0190531 0.
0.660114 0.0190536 0.
0.662115 0.0190528 0.
0.664115 0.0190506 0.
0.666116 0.0190483 0.
0.668116 0.0190459 0.
0.670116 0.0190434 0.
0.672116 0.0190409 0.
0.674115 0.0190384 0.
0.676115 0.0190359 0.
0.678115 0.0190336 0.
0.680115 0.0190329 0.
0.682115 0.0190322 0.
0.684115 0.0190318 0.
0.686114 0.0190316 0.
0.688113 0.0190315 0.
0.690113 0.0190315 0.
0.692112 0.0190316 0.
0.694112 0.0190316 0.
0.696112 0.019032 0.
0.698112 0.0190325 0.
0.49989 0.0210364 0.
0.501889 0.0210356 0.
0.503888 0.0210348 0.
0.505887 0.0210342 0.
0.507888 0.0210341 0.
0.509888 0.021034 0.
0.511888 0.0210341 0.
0.513888 0.0210344 0.
0.515888 0.0210348 0.
0.517889 0.0210347 0.
0.519889 0.0210344 0.
0.521889 0.021034 0.
0.523889 0.0210353 0.
0.525889 0.0210369 0.
0.527889 0.0210385 0.
0.529889 0.0210401 0.
0.53189 0.0210417 0.
0.53389 0.0210432 0.
0.53589 0.0210443 0.
0.53789 0.0210454 0.
0.53989 0.0210453 0.
0.541891 0.021044 0.
0.543892 0.0210427 0.
0.545892 0.021043 0.
0.547891 0.0210437 0.
0.549891 0.0210445 0.
0.551891 0.0210467 0.
0.55389 0.0210489 0.
0.55589 0.0210507 0.
0.55789 0.0210508 0.
0.55989 0.021051 0.
0.56189 0.0210515 0.
0.56389 0.0210528 0.
0.565891 0.021054 0.
0.567892 0.0210548 0.
0.569894 0.0210555 0.
0.571896 0.0210561 0.
0.5739 0.0210585 0.
0.575904 0.0210612 0.
0.577909 0.0210632 0.
0.579915 0.0210582 0.
0.581921 0.0210532 0.
0.583927 0.0210475 0.
0.585934 0.0210407 0.
0.587942 0.0210338 0.
0.589949 0.0210274 0.
0.591957 0.0210213 0.
0.593965 0.0210152 0.
0.595977 0.021016 0.
0.597992 0.0210187 0.
0.600006 0.0210215 0.
0.602018 0.021021 0.
0.60403 0.0210205 0.
0.606042 0.0210212 0.
0.608049 0.0210259 0.
0.610056 0.0210307 0.
0.612063 0.021036 0.
0.61407 0.0210419 0.
0.616076 0.0210479 0.
0.618082 0.0210521 0.
0.620088 0.0210555 0.
0.622093 0.0210589 0.
0.624096 0.0210571 0.
0.626099 0.0210547 0.
0.628102 0.0210529 0.
0.630104 0.0210541 0.
0.632106 0.0210552 0.
0.634107 0.0210557 0.
0.636108 0.0210551 0.
0.638109 0.0210544 0.
0.640109 0.0210537 0.
0.64211 0.0210528 0.
0.64411 0.021052 0.
0.64611 0.0210512 0.
0.648109 0.0210504 0.
0.650109 0.0210496 0.
0.652109 0.0210507 0.
0.654109 0.0210517 0.
0.656109 0.0210526 0.
0.65811 0.0210529 0.
0.660111 0.0210532 0.
0.662112 0.0210526 0.
0.664113 0.0210511 0.
0.666114 0.0210495 0.
0.668114 0.0210476 0.
0.670114 0.0210456 0.
0.672113 0.0210436 0.
0.674113 0.021041 0.
0.676113 0.0210384 0.
0.678113 0.021036 0.
0.680113 0.0210353 0.
0.682113 0.0210346 0.
0.684113 0.0210342 0.
0.686113 0.0210343 0.
0.688112 0.0210343 0.
0.690112 0.0210344 0.
0.692111 0.0210345 0.
0.694111 0.0210346 0.
0.696111 0.0210351 0.
0.698111 0.0210357 0.
0.499892 0.0230391 0.
0.501891 0.0230384 0.
0.50389 0.0230378 0.
0.505889 0.0230372 0.
0.507889 0.0230368 0.
0.50989 0.0230364 0.
0.51189 0.0230362 0.
0.51389 0.0230362 0.
0.51589 0.0230363 0.
0.517891 0.0230361 0.
0.519891 0.0230359 0.
0.521892 0.0230356 0.
0.523892 0.0230367 0.
0.525892 0.023038 0.
0.527891 0.0230394 0.
0.529892 0.0230411 0.
0.531892 0.0230429 0.
0.533892 0.0230444 0.
0.535893 0.0230452 0.
0.537894 0.0230461 0.
0.539894 0.0230459 0.
0.541894 0.0230448 0.
0.543895 0.0230437 0.
0.545895 0.0230439 0.
0.547894 0.0230445 0.
0.549894 0.0230451 0.
0.551895 0.0230474 0.
0.553895 0.0230497 0.
0.555895 0.0230516 0.
0.557896 0.0230518 0.
0.559896 0.023052 0.
0.561897 0.0230523 0.
0.563897 0.0230528 0.
0.565898 0.0230532 0.
0.5679 0.0230535 0.
0.569903 0.0230538 0.
0.571905 0.0230541 0.
0.57391 0.0230558 0.
0.575916 0.0230577 0.
0.577921 0.023059 0.
0.579927 0.0230542 0.
0.581933 0.0230494 0.
0.583939 0.0230442 0.
0.585945 0.0230386 0.
0.58795 0.023033 0.
0.589957 0.0230273 0.
0.591963 0.0230215 0.
0.593969 0.0230157 0.
0.59598 0.0230152 0.
0.597992 0.0230161 0.
0.600004 0.023017 0.
0.602015 0.023018 0.
0.604026 0.023019 0.
0.606036 0.0230207 0.
0.608042 0.0230249 0.
0.610048 0.0230291 0.
0.612054 0.0230337 0.
0.61406 0.0230389 0.
0.616066 0.023044 0.
0.618071 0.0230484 0.
0.620076 0.0230526 0.
0.622082 0.0230568 0.
0.624085 0.0230552 0.
0.626089 0.0230531 0.
0.628093 0.0230515 0.
0.630095 0.0230532 0.
0.632098 0.0230549 0.
0.6341 0.0230558 0.
0.636101 0.0230554 0.
0.638102 0.0230549 0.
0.640102 0.0230544 0.
0.642103 0.0230538 0.
0.644104 0.0230533 0.
0.646104 0.0230525 0.
0.648104 0.0230517 0.
0.650104 0.0230509 0.
0.652104 0.0230517 0.
0.654104 0.0230524 0.
0.656105 0.023053 0.
0.658106 0.0230531 0.
0.660107 0.0230532 0.
0.662108 0.0230526 0.
0.664109 0.0230513 0.
0.66611 0.02305 0.
0.66811 0.0230486 0.
0.67011 0.0230472 0.
0.67211 0.0230458 0.
0.67411 0.0230434 0.
0.67611 0.0230408 0.
0.67811 0.0230385 0.
0.680111 0.0230378 0.
0.682111 0.0230372 0.
0.684111 0.0230368 0.
0.686111 0.023037 0.
0.688111 0.0230372 0.
0.69011 0.0230374 0.
0.692109 0.0230376 0.
0.694109 0.0230378 0.
0.696109 0.0230387 0.
0.69811 0.0230398 0.
0.499893 0.0250419 0.
0.501892 0.0250412 0.
0.503892 0.0250407 0.
0.505891 0.0250402 0.
0.507891 0.0250394 0.
0.509892 0.0250387 0.
0.511892 0.0250383 0.
0.513892 0.025038 0.
0.515892 0.0250378 0.
0.517893 0.0250376 0.
0.519893 0.0250374 0.
0.521894 0.0250372 0.
0.523894 0.0250381 0.
0.525894 0.0250392 0.
0.527894 0.0250403 0.
0.529894 0.0250422 0.
0.531895 0.0250441 0.
0.533895 0.0250456 0.
0.535896 0.0250462 0.
0.537897 0.0250468 0.
0.539898 0.0250466 0.
0.541898 0.0250456 0.
0.543898 0.0250447 0.
0.545898 0.0250448 0.
0.547897 0.0250453 0.
0.549897 0.0250457 0.
0.551898 0.025048 0.
0.5539 0.0250505 0.
0.555901 0.0250525 0.
0.557902 0.0250528 0.
0.559902 0.025053 0.
0.561903 0.0250531 0.
0.563905 0.0250527 0.
0.565906 0.0250524 0.
0.567908 0.0250522 0.
0.569912 0.0250522 0.
0.571915 0.0250522 0.
0.573921 0.0250531 0.
0.575927 0.0250542 0.
0.577933 0.0250548 0.
0.579939 0.0250502 0.
0.581945 0.0250456 0.
0.583951 0.0250409 0.
0.585955 0.0250366 0.
0.587959 0.0250323 0.
0.589964 0.0250273 0.
0.591969 0.0250218 0.
0.593974 0.0250163 0.
0.595983 0.0250144 0.
0.597993 0.0250135 0.
0.600003 0.0250125 0.
0.602012 0.025015 0.
0.604022 0.0250175 0.
0.60603 0.0250203 0.
0.608035 0.025024 0.
0.61004 0.0250276 0.
0.612045 0.0250315 0.
0.61405 0.0250358 0.
0.616055 0.0250401 0.
0.61806 0.0250448 0.
0.620065 0.0250497 0.
0.62207 0.0250546 0.
0.624075 0.0250533 0.
0.626079 0.0250514 0.
0.628084 0.0250502 0.
0.630087 0.0250524 0.
0.63209 0.0250546 0.
0.634093 0.0250559 0.
0.636094 0.0250557 0.
0.638095 0.0250554 0.
0.640096 0.0250552 0.
0.642096 0.0250548 0.
0.644097 0.0250545 0.
0.646098 0.0250538 0.
0.648098 0.025053 0.
0.650099 0.0250522 0.
0.6521 0.0250526 0.
0.6541 0.0250531 0.
0.656101 0.0250534 0.
0.658102 0.0250533 0.
0.660103 0.0250532 0.
0.662105 0.0250526 0.
0.664106 0.0250516 0.
0.666107 0.0250505 0.
0.668107 0.0250497 0.
0.670107 0.0250488 0.
0.672106 0.025048 0.
0.674107 0.0250457 0.
0.676107 0.0250432 0.
0.678108 0.0250409 0.
0.680108 0.0250403 0.
0.682108 0.0250397 0.
0.684108 0.0250394 0.
0.686109 0.0250398 0.
0.688109 0.0250401 0.
0.690109 0.0250404 0.
0.692108 0.0250407 0.
0.694106 0.025041 0.
0.696107 0.0250423 0.
0.698108 0.0250438 0.
0.499894 0.0270447 0.
0.501893 0.0270437 0.
0.503893 0.0270427 0.
0.505893 0.0270418 0.
0.507893 0.0270408 0.
0.509894 0.0270399 0.
0.511894 0.0270392 0.
0.513894 0.0270391 0.
0.515895 0.027039 0.
0.517895 0.0270387 0.
0.519896 0.0270384 0.
0.521896 0.0270381 0.
0.523896 0.0270392 0.
0.525896 0.0270407 0.
0.527896 0.027042 0.
0.529896 0.0270431 0.
0.531896 0.0270442 0.
0.533897 0.0270452 0.
0.535898 0.0270461 0.
0.537899 0.0270469 0.
0.5399 0.027047 0.
0.541901 0.0270464 0.
0.543901 0.0270459 0.
0.545901 0.0270458 0.
0.547901 0.0270459 0.
0.549901 0.0270459 0.
0.551902 0.0270481 0.
0.553903 0.0270504 0.
0.555905 0.0270522 0.
0.557906 0.0270526 0.
0.559907 0.027053 0.
0.561908 0.0270529 0.
0.56391 0.0270522 0.
0.565912 0.0270515 0.
0.567915 0.0270512 0.
0.569918 0.027051 0.
0.571921 0.0270509 0.
0.573927 0.0270512 0.
0.575933 0.0270515 0.
0.577939 0.0270515 0.
0.579944 0.0270473 0.
0.58195 0.0270431 0.
0.583955 0.027039 0.
0.58596 0.0270353 0.
0.587964 0.0270315 0.
0.589969 0.027027 0.
0.591974 0.0270217 0.
0.593979 0.0270165 0.
0.595986 0.0270145 0.
0.597994 0.0270136 0.
0.600002 0.0270127 0.
0.60201 0.027015 0.
0.604019 0.0270173 0.
0.606026 0.0270198 0.
0.608031 0.0270235 0.
0.610036 0.0270271 0.
0.61204 0.0270308 0.
0.614045 0.0270344 0.
0.61605 0.027038 0.
0.618054 0.0270422 0.
0.620059 0.0270466 0.
0.622064 0.027051 0.
0.624069 0.0270505 0.
0.626074 0.0270496 0.
0.628078 0.0270491 0.
0.630081 0.0270514 0.
0.632084 0.0270537 0.
0.634086 0.0270552 0.
0.636088 0.0270551 0.
0.63809 0.0270551 0.
0.640091 0.027055 0.
0.642092 0.0270548 0.
0.644093 0.0270545 0.
0.646094 0.0270538 0.
0.648095 0.0270528 0.
0.650095 0.0270519 0.
0.652096 0.0270525 0.
0.654097 0.0270531 0.
0.656098 0.0270535 0.
0.658099 0.0270533 0.
0.6601 0.027053 0.
0.662101 0.0270525 0.
0.664102 0.0270517 0.
0.666103 0.0270509 0.
0.668104 0.02705 0.
0.670104 0.0270492 0.
0.672105 0.0270483 0.
0.674105 0.0270462 0.
0.676106 0.0270441 0.
0.678106 0.0270421 0.
0.680106 0.0270418 0.
0.682106 0.0270415 0.
0.684107 0.0270414 0.
0.686107 0.0270417 0.
0.688107 0.0270421 0.
0.690107 0.0270424 0.
0.692106 0.0270429 0.
0.694105 0.0270433 0.
0.696105 0.0270448 0.
0.698106 0.0270465 0.
0.499895 0.0290475 0.
0.501895 0.0290461 0.
0.503895 0.0290448 0.
0.505895 0.0290434 0.
0.507895 0.0290422 0.
0.509895 0.029041 0.
0.511896 0.0290402 0.
0.513897 0.0290402 0.
0.515897 0.0290401 0.
0.517898 0.0290398 0.
0.519898 0.0290394 0.
0.521898 0.0290389 0.
0.523898 0.0290404 0.
0.525898 0.0290422 0.
0.527898 0.0290438 0.
0.529898 0.029044 0.
0.531898 0.0290443 0.
0.533899 0.0290448 0.
0.5359 0.0290459 0.
0.537902 0.029047 0.
0.539903 0.0290474 0.
0.541904 0.0290473 0.
0.543905 0.0290471 0.
0.545905 0.0290468 0.
0.547905 0.0290465 0.
0.549905 0.0290461 0.
0.551906 0.0290482 0.
0.553907 0.0290503 0.
0.555909 0.029052 0.
0.55791 0.0290525 0.
0.559912 0.029053 0.
0.561914 0.0290528 0.
0.563916 0.0290518 0.
0.565918 0.0290507 0.
0.567921 0.0290501 0.
0.569924 0.0290499 0.
0.571927 0.0290496 0.
0.573932 0.0290492 0.
0.575938 0.0290488 0.
0.577944 0.0290481 0.
0.579949 0.0290443 0.
0.581954 0.0290406 0.
0.583959 0.029037 0.
0.585964 0.0290339 0.
0.587969 0.0290308 0.
0.589974 0.0290266 0.
0.591979 0.0290216 0.
0.593983 0.0290166 0.
0.595989 0.0290147 0.
0.597995 0.0290138 0.
0.600001 0.0290128 0.
0.602008 0.0290149 0.
0.604016 0.029017 0.
0.606022 0.0290194 0.
0.608027 0.029023 0.
0.610031 0.0290267 0.
0.612036 0.02903 0.
0.61404 0.029033 0.
0.616044 0.0290359 0.
0.618049 0.0290396 0.
0.620053 0.0290435 0.
0.622057 0.0290474 0.
0.624063 0.0290478 0.
0.626068 0.0290477 0.
0.628073 0.029048 0.
0.630075 0.0290504 0.
0.632078 0.0290528 0.
0.63408 0.0290544 0.
0.636083 0.0290546 0.
0.638085 0.0290548 0.
0.640087 0.0290548 0.
0.642088 0.0290547 0.
0.644089 0.0290546 0.
0.64609 0.0290537 0.
0.648091 0.0290527 0.
0.650091 0.0290516 0.
0.652093 0.0290524 0.
0.654094 0.0290532 0.
0.656096 0.0290536 0.
0.658096 0.0290532 0.
0.660097 0.0290528 0.
0.662098 0.0290524 0.
0.664099 0.0290518 0.
0.666099 0.0290512 0.
0.6681 0.0290504 0.
0.670102 0.0290495 0.
0.672103 0.0290485 0.
0.674103 0.0290468 0.
0.676104 0.029045 0.
0.678104 0.0290434 0.
0.680104 0.0290433 0.
0.682105 0.0290433 0.
0.684105 0.0290434 0.
0.686105 0.0290437 0.
0.688105 0.029044 0.
0.690104 0.0290445 0.
0.692104 0.029045 0.
0.694104 0.0290455 0.
0.696104 0.0290472 0.
0.698104 0.0290492 0.
0.499897 0.0310503 0.
0.501897 0.0310485 0.
0.503897 0.0310467 0.
0.505897 0.0310452 0.
0.507898 0.031044 0.
0.509898 0.0310429 0.
0.511898 0.0310421 0.
0.513899 0.0310418 0.
0.5159 0.0310414 0.
0.5179 0.0310411 0.
0.5199 0.0310407 0.
0.5219 0.0310403 0.
0.5239 0.0310417 0.
0.525901 0.0310434 0.
0.527901 0.0310449 0.
0.529901 0.0310447 0.
0.531901 0.0310445 0.
0.533902 0.0310447 0.
0.535903 0.0310458 0.
0.537905 0.0310469 0.
0.539906 0.0310476 0.
0.541907 0.0310478 0.
0.543908 0.031048 0.
0.545908 0.0310476 0.
0.547908 0.0310472 0.
0.549909 0.0310467 0.
0.55191 0.0310484 0.
0.553912 0.0310503 0.
0.555913 0.0310518 0.
0.557915 0.0310522 0.
0.559917 0.0310526 0.
0.561919 0.0310524 0.
0.563922 0.0310512 0.
0.565924 0.03105 0.
0.567927 0.0310492 0.
0.56993 0.0310487 0.
0.571932 0.0310481 0.
0.573938 0.0310473 0.
0.575943 0.0310464 0.
0.577949 0.0310452 0.
0.579954 0.0310418 0.
0.581958 0.0310384 0.
0.583963 0.0310353 0.
0.585968 0.0310326 0.
0.587973 0.03103 0.
0.589977 0.0310263 0.
0.591981 0.0310217 0.
0.593986 0.0310171 0.
0.595991 0.0310152 0.
0.597996 0.0310141 0.
0.600001 0.0310129 0.
0.602007 0.0310148 0.
0.604013 0.0310167 0.
0.606019 0.031019 0.
0.608024 0.0310226 0.
0.610028 0.0310262 0.
0.612032 0.0310294 0.
0.614036 0.0310321 0.
0.61604 0.0310347 0.
0.618044 0.0310378 0.
0.620048 0.0310411 0.
0.622052 0.0310444 0.
0.624057 0.0310453 0.
0.626063 0.031046 0.
0.628067 0.0310468 0.
0.63007 0.0310491 0.
0.632072 0.0310515 0.
0.634074 0.0310532 0.
0.636077 0.0310536 0.
0.63808 0.0310541 0.
0.640082 0.0310543 0.
0.642083 0.0310544 0.
0.644085 0.0310545 0.
0.646086 0.0310537 0.
0.648087 0.0310527 0.
0.650088 0.0310517 0.
0.652089 0.0310524 0.
0.654091 0.0310532 0.
0.656092 0.0310536 0.
0.658093 0.0310531 0.
0.660094 0.0310527 0.
0.662095 0.0310523 0.
0.664096 0.031052 0.
0.666096 0.0310516 0.
0.668097 0.0310509 0.
0.670098 0.0310499 0.
0.6721 0.031049 0.
0.6741 0.0310475 0.
0.676101 0.0310458 0.
0.678102 0.0310444 0.
0.680102 0.0310446 0.
0.682102 0.0310448 0.
0.684103 0.0310451 0.
0.686102 0.0310456 0.
0.688102 0.0310461 0.
0.690102 0.0310466 0.
0.692102 0.0310472 0.
0.694102 0.0310478 0.
0.696101 0.0310496 0.
0.698101 0.0310517 0.
0.499899 0.033053 0.
0.5019 0.0330507 0.
0.5039 0.0330487 0.
0.505901 0.0330469 0.
0.507901 0.0330462 0.
0.509901 0.0330456 0.
0.511901 0.0330448 0.
0.513902 0.0330438 0.
0.515902 0.0330429 0.
0.517903 0.0330425 0.
0.519902 0.0330424 0.
0.521902 0.0330423 0.
0.523903 0.0330432 0.
0.525904 0.0330444 0.
0.527904 0.0330454 0.
0.529905 0.0330451 0.
0.531905 0.0330449 0.
0.533906 0.0330449 0.
0.535907 0.0330458 0.
0.537908 0.0330467 0.
0.539909 0.0330474 0.
0.54191 0.033048 0.
0.543911 0.0330485 0.
0.545912 0.0330484 0.
0.547912 0.033048 0.
0.549913 0.0330476 0.
0.551915 0.0330489 0.
0.553917 0.0330504 0.
0.555919 0.0330515 0.
0.557921 0.0330517 0.
0.559923 0.0330519 0.
0.561925 0.0330516 0.
0.563927 0.0330505 0.
0.565929 0.0330493 0.
0.567932 0.0330483 0.
0.569935 0.0330475 0.
0.571938 0.0330466 0.
0.573942 0.0330454 0.
0.575947 0.0330442 0.
0.577952 0.0330428 0.
0.579957 0.0330397 0.
0.581962 0.0330366 0.
0.583967 0.0330337 0.
0.585971 0.0330315 0.
0.587975 0.0330292 0.
0.589979 0.033026 0.
0.591982 0.0330221 0.
0.593986 0.0330181 0.
0.595991 0.033016 0.
0.597996 0.0330145 0.
0.600001 0.0330129 0.
0.602007 0.0330147 0.
0.604012 0.0330166 0.
0.606018 0.0330188 0.
0.608022 0.0330223 0.
0.610026 0.0330258 0.
0.612029 0.033029 0.
0.614033 0.0330316 0.
0.616036 0.0330343 0.
0.61804 0.0330369 0.
0.620044 0.0330394 0.
0.622048 0.033042 0.
0.624052 0.0330432 0.
0.626057 0.0330443 0.
0.628061 0.0330455 0.
0.630064 0.0330477 0.
0.632067 0.0330499 0.
0.634069 0.0330515 0.
0.636072 0.0330523 0.
0.638074 0.033053 0.
0.640076 0.0330536 0.
0.642078 0.033054 0.
0.64408 0.0330544 0.
0.646081 0.0330538 0.
0.648083 0.0330529 0.
0.650085 0.033052 0.
0.652086 0.0330525 0.
0.654086 0.033053 0.
0.656087 0.0330533 0.
0.658089 0.0330529 0.
0.66009 0.0330526 0.
0.662092 0.0330523 0.
0.664093 0.0330522 0.
0.666094 0.0330521 0.
0.668094 0.0330515 0.
0.670095 0.0330506 0.
0.672095 0.0330497 0.
0.674096 0.0330482 0.
0.676098 0.0330466 0.
0.678099 0.0330453 0.
0.680099 0.0330456 0.
0.6821 0.033046 0.
0.6841 0.0330465 0.
0.6861 0.0330473 0.
0.6881 0.0330481 0.
0.6901 0.0330488 0.
0.6921 0.0330494 0.
0.694099 0.0330501 0.
0.696099 0.0330519 0.
0.698098 0.0330539 0.
0.499902 0.0350558 0.
0.501902 0.035053 0.
0.503903 0.0350507 0.
0.505904 0.0350487 0.
0.507904 0.0350484 0.
0.509904 0.0350482 0.
0.511904 0.0350475 0.
0.513905 0.0350459 0.
0.515905 0.0350443 0.
0.517905 0.0350439 0.
0.519905 0.035044 0.
0.521905 0.0350442 0.
0.523905 0.0350447 0.
0.525906 0.0350453 0.
0.527907 0.0350459 0.
0.529908 0.0350455 0.
0.531909 0.0350452 0.
0.53391 0.0350452 0.
0.535911 0.0350458 0.
0.537911 0.0350464 0.
0.539912 0.0350472 0.
0.541914 0.0350482 0.
0.543915 0.0350491 0.
0.545916 0.0350491 0.
0.547916 0.0350488 0.
0.549917 0.0350485 0.
0.551919 0.0350494 0.
0.553922 0.0350504 0.
0.555924 0.0350513 0.
0.557926 0.0350513 0.
0.559928 0.0350513 0.
0.56193 0.0350509 0.
0.563932 0.0350498 0.
0.565934 0.0350488 0.
0.567937 0.0350475 0.
0.56994 0.0350463 0.
0.571943 0.035045 0.
0.573947 0.0350436 0.
0.575951 0.0350421 0.
0.577955 0.0350404 0.
0.579961 0.0350376 0.
0.581966 0.0350347 0.
0.58397 0.0350321 0.
0.585974 0.0350303 0.
0.587977 0.0350284 0.
0.58998 0.0350257 0.
0.591983 0.0350224 0.
0.593987 0.0350191 0.
0.595991 0.0350168 0.
0.597996 0.0350149 0.
0.600001 0.0350129 0.
0.602006 0.0350147 0.
0.604011 0.0350164 0.
0.606016 0.0350185 0.
0.60802 0.0350219 0.
0.610023 0.0350253 0.
0.612026 0.0350285 0.
0.614029 0.0350312 0.
0.616032 0.0350339 0.
0.618036 0.035036 0.
0.620039 0.0350378 0.
0.622043 0.0350395 0.
0.624047 0.0350411 0.
0.626051 0.0350426 0.
0.628055 0.0350441 0.
0.630058 0.0350462 0.
0.632062 0.0350482 0.
0.634065 0.0350499 0.
0.636067 0.035051 0.
0.638069 0.035052 0.
0.640071 0.0350529 0.
0.642073 0.0350536 0.
0.644075 0.0350543 0.
0.646077 0.0350538 0.
0.648079 0.035053 0.
0.650082 0.0350522 0.
0.652082 0.0350525 0.
0.654082 0.0350528 0.
0.656083 0.035053 0.
0.658085 0.0350527 0.
0.660086 0.0350525 0.
0.662088 0.0350524 0.
0.66409 0.0350525 0.
0.666091 0.0350526 0.
0.668091 0.035052 0.
0.670091 0.0350512 0.
0.672091 0.0350504 0.
0.674092 0.0350489 0.
0.676094 0.0350474 0.
0.678095 0.0350461 0.
0.680096 0.0350466 0.
0.682097 0.0350471 0.
0.684097 0.0350479 0.
0.686098 0.035049 0.
0.688098 0.0350501 0.
0.690098 0.035051 0.
0.692097 0.0350517 0.
0.694097 0.0350524 0.
0.696096 0.0350541 0.
0.698095 0.0350562 0.
0.499905 0.0370569 0.
0.501905 0.0370545 0.
0.503906 0.0370522 0.
0.505906 0.0370502 0.
0.507906 0.0370498 0.
0.509906 0.0370494 0.
0.511906 0.0370486 0.
0.513906 0.0370474 0.
0.515907 0.0370461 0.
0.517907 0.0370455 0.
0.519907 0.0370453 0.
0.521907 0.0370451 0.
0.523908 0.0370456 0.
0.525909 0.0370461 0.
0.527909 0.0370465 0.
0.52991 0.0370461 0.
0.531911 0.0370456 0.
0.533912 0.0370454 0.
0.535913 0.0370458 0.
0.537913 0.0370461 0.
0.539914 0.0370467 0.
0.541915 0.0370476 0.
0.543916 0.0370485 0.
0.545918 0.0370486 0.
0.547919 0.0370483 0.
0.549921 0.0370481 0.
0.551923 0.0370488 0.
0.553925 0.0370496 0.
0.555927 0.0370502 0.
0.557929 0.03705 0.
0.559931 0.0370499 0.
0.561933 0.0370495 0.
0.563935 0.0370488 0.
0.565937 0.0370481 0.
0.56794 0.0370467 0.
0.569943 0.037045 0.
0.571947 0.0370433 0.
0.573951 0.0370416 0.
0.575955 0.0370398 0.
0.577959 0.0370379 0.
0.579963 0.0370357 0.
0.581968 0.0370335 0.
0.583972 0.0370314 0.
0.585975 0.0370296 0.
0.587978 0.0370278 0.
0.589982 0.0370254 0.
0.591985 0.0370224 0.
0.593988 0.0370194 0.
0.595992 0.0370172 0.
0.597997 0.0370151 0.
0.600001 0.0370131 0.
0.602006 0.037015 0.
0.604011 0.0370168 0.
0.606015 0.037019 0.
0.608018 0.0370221 0.
0.610021 0.0370253 0.
0.612024 0.037028 0.
0.614027 0.0370303 0.
0.61603 0.0370326 0.
0.618034 0.0370346 0.
0.620037 0.0370364 0.
0.622041 0.0370383 0.
0.624044 0.0370398 0.
0.626048 0.0370413 0.
0.628052 0.0370428 0.
0.630055 0.0370451 0.
0.632058 0.0370474 0.
0.634061 0.0370493 0.
0.636063 0.0370506 0.
0.638065 0.0370519 0.
0.640068 0.0370527 0.
0.64207 0.037053 0.
0.644072 0.0370534 0.
0.646074 0.0370529 0.
0.648076 0.0370522 0.
0.650079 0.0370515 0.
0.652079 0.0370519 0.
0.65408 0.0370524 0.
0.65608 0.0370527 0.
0.658082 0.0370528 0.
0.660084 0.0370529 0.
0.662085 0.0370529 0.
0.664087 0.0370526 0.
0.666088 0.0370524 0.
0.668089 0.037052 0.
0.670089 0.0370515 0.
0.67209 0.0370511 0.
0.674091 0.0370497 0.
0.676092 0.0370483 0.
0.678093 0.0370471 0.
0.680094 0.0370476 0.
0.682095 0.0370481 0.
0.684095 0.0370488 0.
0.686095 0.0370499 0.
0.688095 0.0370509 0.
0.690095 0.037052 0.
0.692095 0.037053 0.
0.694095 0.0370541 0.
0.696095 0.0370559 0.
0.698094 0.0370578 0.
0.499907 0.0390581 0.
0.501908 0.0390561 0.
0.503908 0.0390537 0.
0.505908 0.0390516 0.
0.507908 0.0390511 0.
0.509908 0.0390505 0.
0.511908 0.0390498 0.
0.513908 0.0390488 0.
0.515908 0.0390479 0.
0.517909 0.0390472 0.
0.519909 0.0390467 0.
0.52191 0.0390461 0.
0.52391 0.0390464 0.
0.525911 0.0390468 0.
0.527911 0.0390471 0.
0.529912 0.0390466 0.
0.531913 0.0390461 0.
0.533914 0.0390457 0.
0.535914 0.0390457 0.
0.537915 0.0390457 0.
0.539916 0.0390462 0.
0.541917 0.0390471 0.
0.543918 0.039048 0.
0.54592 0.0390481 0.
0.547922 0.0390479 0.
0.549924 0.0390477 0.
0.551926 0.0390482 0.
0.553927 0.0390488 0.
0.555929 0.0390492 0.
0.557931 0.0390488 0.
0.559933 0.0390485 0.
0.561935 0.0390482 0.
0.563938 0.0390478 0.
0.56594 0.0390475 0.
0.567943 0.039046 0.
0.569946 0.0390438 0.
0.57195 0.0390417 0.
0.573954 0.0390396 0.
0.575958 0.0390375 0.
0.577962 0.0390354 0.
0.579966 0.0390338 0.
0.581969 0.0390323 0.
0.583973 0.0390307 0.
0.585976 0.0390289 0.
0.58798 0.0390272 0.
0.589983 0.039025 0.
0.591986 0.0390224 0.
0.593989 0.0390197 0.
0.595993 0.0390175 0.
0.597998 0.0390154 0.
0.600002 0.0390132 0.
0.602006 0.0390153 0.
0.60401 0.0390173 0.
0.606014 0.0390195 0.
0.608016 0.0390223 0.
0.610019 0.0390252 0.
0.612021 0.0390276 0.
0.614025 0.0390294 0.
0.616028 0.0390312 0.
0.618032 0.0390332 0.
0.620035 0.0390351 0.
0.622038 0.0390371 0.
0.624042 0.0390386 0.
0.626045 0.03904 0.
0.628049 0.0390415 0.
0.630051 0.039044 0.
0.632054 0.0390466 0.
0.634057 0.0390487 0.
0.636059 0.0390503 0.
0.638062 0.0390518 0.
0.640065 0.0390524 0.
0.642067 0.0390524 0.
0.64407 0.0390524 0.
0.646072 0.0390519 0.
0.648074 0.0390514 0.
0.650075 0.0390508 0.
0.652076 0.0390514 0.
0.654077 0.0390519 0.
0.656078 0.0390524 0.
0.65808 0.0390529 0.
0.660081 0.0390534 0.
0.662082 0.0390533 0.
0.664084 0.0390528 0.
0.666085 0.0390523 0.
0.668086 0.039052 0.
0.670087 0.0390519 0.
0.672088 0.0390517 0.
0.674089 0.0390505 0.
0.67609 0.0390492 0.
0.678091 0.0390481 0.
0.680092 0.0390486 0.
0.682092 0.039049 0.
0.684093 0.0390497 0.
0.686093 0.0390507 0.
0.688093 0.0390518 0.
0.690093 0.039053 0.
0.692093 0.0390544 0.
0.694093 0.0390557 0.
0.696093 0.0390576 0.
0.698093 0.0390595 0.
0.49991 0.0410594 0.
0.50191 0.0410575 0.
0.50391 0.0410553 0.
0.50591 0.0410533 0.
0.50791 0.0410527 0.
0.509911 0.041052 0.
0.511911 0.0410512 0.
0.513911 0.0410501 0.
0.515911 0.041049 0.
0.517911 0.0410483 0.
0.519912 0.0410478 0.
0.521913 0.0410473 0.
0.523913 0.0410474 0.
0.525914 0.0410475 0.
0.527914 0.0410476 0.
0.529915 0.0410472 0.
0.531915 0.0410468 0.
0.533916 0.0410465 0.
0.535917 0.0410462 0.
0.537918 0.0410459 0.
0.539919 0.0410462 0.
0.54192 0.0410469 0.
0.543921 0.0410476 0.
0.545923 0.0410477 0.
0.547925 0.0410476 0.
0.549927 0.0410475 0.
0.551929 0.0410479 0.
0.55393 0.0410483 0.
0.555932 0.0410485 0.
0.557934 0.0410479 0.
0.559936 0.0410473 0.
0.561938 0.0410468 0.
0.563941 0.0410465 0.
0.565944 0.0410462 0.
0.567947 0.0410447 0.
0.56995 0.0410426 0.
0.571953 0.0410405 0.
0.573957 0.0410383 0.
0.575961 0.0410362 0.
0.577965 0.0410341 0.
0.579968 0.0410328 0.
0.581971 0.0410315 0.
0.583974 0.0410301 0.
0.585977 0.0410284 0.
0.587981 0.0410267 0.
0.589984 0.0410246 0.
0.591987 0.0410221 0.
0.59399 0.0410196 0.
0.595994 0.0410178 0.
0.597998 0.0410161 0.
0.600002 0.0410143 0.
0.602005 0.0410161 0.
0.604009 0.0410178 0.
0.606012 0.0410197 0.
0.608015 0.0410223 0.
0.610017 0.0410249 0.
0.61202 0.0410271 0.
0.614023 0.0410287 0.
0.616027 0.0410303 0.
0.61803 0.0410321 0.
0.620033 0.0410341 0.
0.622036 0.0410361 0.
0.624039 0.0410376 0.
0.626043 0.0410391 0.
0.628046 0.0410407 0.
0.630049 0.0410433 0.
0.632051 0.0410459 0.
0.634054 0.0410481 0.
0.636056 0.0410496 0.
0.638059 0.041051 0.
0.640062 0.0410517 0.
0.642064 0.0410518 0.
0.644067 0.0410518 0.
0.646069 0.0410516 0.
0.648071 0.0410513 0.
0.650073 0.041051 0.
0.652074 0.0410513 0.
0.654074 0.0410516 0.
0.656076 0.041052 0.
0.658077 0.0410526 0.
0.660078 0.0410532 0.
0.66208 0.0410533 0.
0.664081 0.0410529 0.
0.666082 0.0410524 0.
0.668083 0.0410523 0.
0.670085 0.0410523 0.
0.672086 0.0410524 0.
0.674087 0.0410513 0.
0.676088 0.0410501 0.
0.678089 0.0410492 0.
0.680089 0.0410498 0.
0.682089 0.0410504 0.
0.68409 0.0410511 0.
0.68609 0.0410521 0.
0.68809 0.041053 0.
0.69009 0.0410543 0.
0.69209 0.0410558 0.
0.694091 0.0410572 0.
0.696091 0.0410592 0.
0.698091 0.0410614 0.
0.499914 0.0430608 0.
0.501913 0.0430588 0.
0.503913 0.0430568 0.
0.505913 0.043055 0.
0.507913 0.0430544 0.
0.509914 0.0430538 0.
0.511914 0.0430528 0.
0.513914 0.0430512 0.
0.515914 0.0430496 0.
0.517915 0.0430489 0.
0.519915 0.0430488 0.
0.521916 0.0430486 0.
0.523917 0.0430485 0.
0.525917 0.0430483 0.
0.527918 0.0430481 0.
0.529918 0.043048 0.
0.531918 0.0430478 0.
0.533919 0.0430476 0.
0.53592 0.0430471 0.
0.537921 0.0430467 0.
0.539923 0.0430467 0.
0.541924 0.0430471 0.
0.543925 0.0430474 0.
0.545926 0.0430476 0.
0.547928 0.0430475 0.
0.549929 0.0430475 0.
0.551932 0.0430478 0.
0.553934 0.0430481 0.
0.555936 0.0430481 0.
0.557938 0.0430472 0.
0.55994 0.0430463 0.
0.561942 0.0430455 0.
0.563945 0.0430449 0.
0.565948 0.0430443 0.
0.56795 0.043043 0.
0.569953 0.0430413 0.
0.571956 0.0430397 0.
0.573959 0.0430377 0.
0.575963 0.0430357 0.
0.577967 0.0430337 0.
0.57997 0.0430325 0.
0.581972 0.0430313 0.
0.583975 0.0430298 0.
0.585978 0.043028 0.
0.587981 0.0430262 0.
0.589984 0.0430241 0.
0.591987 0.0430216 0.
0.59399 0.0430192 0.
0.595994 0.043018 0.
0.597998 0.0430171 0.
0.600002 0.0430163 0.
0.602005 0.0430173 0.
0.604008 0.0430184 0.
0.60601 0.0430197 0.
0.608013 0.0430221 0.
0.610016 0.0430245 0.
0.612019 0.0430265 0.
0.614022 0.0430281 0.
0.616025 0.0430297 0.
0.618028 0.0430315 0.
0.620031 0.0430335 0.
0.622033 0.0430354 0.
0.624037 0.043037 0.
0.62604 0.0430385 0.
0.628044 0.0430402 0.
0.630046 0.0430428 0.
0.632049 0.0430454 0.
0.634052 0.0430475 0.
0.636054 0.0430486 0.
0.638056 0.0430496 0.
0.640058 0.0430505 0.
0.642061 0.0430511 0.
0.644063 0.0430517 0.
0.646066 0.0430519 0.
0.648068 0.043052 0.
0.65007 0.043052 0.
0.652071 0.0430518 0.
0.654072 0.0430515 0.
0.656073 0.0430515 0.
0.658074 0.043052 0.
0.660076 0.0430526 0.
0.662077 0.0430529 0.
0.664078 0.0430528 0.
0.666079 0.0430528 0.
0.66808 0.0430528 0.
0.670081 0.0430528 0.
0.672082 0.0430529 0.
0.674083 0.0430521 0.
0.676084 0.0430512 0.
0.678085 0.0430505 0.
0.680086 0.0430513 0.
0.682086 0.043052 0.
0.684086 0.0430529 0.
0.686087 0.0430538 0.
0.688087 0.0430547 0.
0.690087 0.0430559 0.
0.692088 0.0430572 0.
0.694088 0.0430585 0.
0.696088 0.0430609 0.
0.698089 0.0430635 0.
0.499917 0.0450623 0.
0.501916 0.0450602 0.
0.503916 0.0450583 0.
0.505915 0.0450568 0.
0.507916 0.0450562 0.
0.509917 0.0450556 0.
0.511917 0.0450543 0.
0.513918 0.0450522 0.
0.515918 0.0450501 0.
0.517918 0.0450495 0.
0.519919 0.0450497 0.
0.521919 0.0450499 0.
0.52392 0.0450496 0.
0.525921 0.045049 0.
0.527922 0.0450486 0.
0.529922 0.0450487 0.
0.531922 0.0450488 0.
0.533922 0.0450487 0.
0.535923 0.0450481 0.
0.537925 0.0450474 0.
0.539926 0.0450472 0.
0.541928 0.0450473 0.
0.543929 0.0450473 0.
0.54593 0.0450474 0.
0.547931 0.0450474 0.
0.549932 0.0450475 0.
0.551934 0.0450477 0.
0.553937 0.0450479 0.
0.55594 0.0450478 0.
0.557942 0.0450465 0.
0.559944 0.0450453 0.
0.561946 0.0450442 0.
0.563949 0.0450433 0.
0.565951 0.0450424 0.
0.567954 0.0450413 0.
0.569956 0.0450401 0.
0.571958 0.0450389 0.
0.573962 0.0450371 0.
0.575966 0.0450352 0.
0.577969 0.0450334 0.
0.579971 0.0450322 0.
0.581973 0.045031 0.
0.583976 0.0450295 0.
0.585979 0.0450276 0.
0.587982 0.0450257 0.
0.589985 0.0450236 0.
0.591988 0.0450212 0.
0.59399 0.0450188 0.
0.595994 0.0450182 0.
0.597998 0.0450182 0.
0.600001 0.0450182 0.
0.602004 0.0450186 0.
0.604006 0.045019 0.
0.606009 0.0450198 0.
0.608012 0.0450219 0.
0.610014 0.045024 0.
0.612017 0.0450259 0.
0.614021 0.0450275 0.
0.616024 0.0450291 0.
0.618026 0.0450309 0.
0.620029 0.0450328 0.
0.622031 0.0450347 0.
0.624034 0.0450363 0.
0.626038 0.045038 0.
0.628042 0.0450397 0.
0.630044 0.0450423 0.
0.632047 0.0450449 0.
0.634049 0.0450469 0.
0.636051 0.0450476 0.
0.638053 0.0450483 0.
0.640055 0.0450493 0.
0.642057 0.0450504 0.
0.64406 0.0450516 0.
0.646062 0.0450521 0.
0.648065 0.0450526 0.
0.650068 0.045053 0.
0.652069 0.0450522 0.
0.654069 0.0450515 0.
0.65607 0.045051 0.
0.658071 0.0450515 0.
0.660073 0.045052 0.
0.662074 0.0450524 0.
0.664075 0.0450528 0.
0.666077 0.0450532 0.
0.668077 0.0450534 0.
0.670078 0.0450534 0.
0.672078 0.0450534 0.
0.674079 0.0450529 0.
0.67608 0.0450522 0.
0.678082 0.0450518 0.
0.680082 0.0450528 0.
0.682083 0.0450537 0.
0.684083 0.0450546 0.
0.686083 0.0450555 0.
0.688083 0.0450564 0.
0.690084 0.0450575 0.
0.692085 0.0450587 0.
0.694086 0.0450598 0.
0.696086 0.0450625 0.
0.698086 0.0450655 0.
0.499918 0.0470626 0.
0.501918 0.0470609 0.
0.503918 0.0470592 0.
0.505918 0.0470577 0.
0.507918 0.0470566 0.
0.509919 0.0470555 0.
0.511919 0.0470542 0.
0.51392 0.0470526 0.
0.515921 0.047051 0.
0.517922 0.0470504 0.
0.519922 0.0470503 0.
0.521922 0.0470503 0.
0.523923 0.0470499 0.
0.525924 0.0470494 0.
0.527925 0.047049 0.
0.529925 0.047049 0.
0.531926 0.0470489 0.
0.533927 0.0470487 0.
0.535928 0.0470481 0.
0.537929 0.0470475 0.
0.53993 0.0470472 0.
0.541931 0.047047 0.
0.543932 0.0470469 0.
0.545933 0.047047 0.
0.547934 0.0470472 0.
0.549935 0.0470473 0.
0.551938 0.0470472 0.
0.55394 0.0470471 0.
0.555942 0.0470467 0.
0.557945 0.0470455 0.
0.559947 0.0470443 0.
0.561949 0.0470433 0.
0.563951 0.0470425 0.
0.565954 0.0470416 0.
0.567956 0.0470405 0.
0.569959 0.0470393 0.
0.571961 0.047038 0.
0.573964 0.0470363 0.
0.575967 0.0470346 0.
0.577971 0.0470328 0.
0.579973 0.0470313 0.
0.581975 0.0470299 0.
0.583978 0.0470283 0.
0.585981 0.0470266 0.
0.587984 0.047025 0.
0.589987 0.0470232 0.
0.591989 0.0470214 0.
0.593991 0.0470195 0.
0.595994 0.0470192 0.
0.597997 0.0470194 0.
0.6 0.0470196 0.
0.602003 0.0470196 0.
0.604006 0.0470195 0.
0.606008 0.04702 0.
0.608011 0.0470222 0.
0.610013 0.0470244 0.
0.612016 0.0470261 0.
0.614018 0.0470274 0.
0.616021 0.0470287 0.
0.618024 0.0470303 0.
0.620026 0.0470319 0.
0.622029 0.0470335 0.
0.624032 0.047035 0.
0.626036 0.0470366 0.
0.62804 0.0470383 0.
0.630042 0.047041 0.
0.632045 0.0470437 0.
0.634047 0.0470458 0.
0.636049 0.0470468 0.
0.638051 0.0470477 0.
0.640053 0.0470488 0.
0.642055 0.0470498 0.
0.644057 0.0470509 0.
0.64606 0.0470513 0.
0.648063 0.0470516 0.
0.650065 0.0470518 0.
0.652066 0.0470512 0.
0.654067 0.0470507 0.
0.656068 0.0470504 0.
0.658069 0.0470511 0.
0.660071 0.0470518 0.
0.662072 0.0470523 0.
0.664073 0.0470525 0.
0.666074 0.0470528 0.
0.668075 0.0470532 0.
0.670075 0.0470536 0.
0.672076 0.047054 0.
0.674077 0.0470537 0.
0.676078 0.0470532 0.
0.678079 0.047053 0.
0.680079 0.0470538 0.
0.682079 0.0470547 0.
0.68408 0.0470556 0.
0.68608 0.0470568 0.
0.688081 0.0470579 0.
0.690081 0.047059 0.
0.692082 0.0470601 0.
0.694082 0.0470611 0.
0.696082 0.0470633 0.
0.698082 0.0470658 0.
0.499919 0.0490631 0.
0.50192 0.0490616 0.
0.50392 0.0490601 0.
0.505921 0.0490587 0.
0.507921 0.0490571 0.
0.509921 0.0490555 0.
0.511921 0.0490541 0.
0.513923 0.049053 0.
0.515924 0.0490519 0.
0.517925 0.0490513 0.
0.519925 0.049051 0.
0.521925 0.0490506 0.
0.523926 0.0490502 0.
0.525927 0.0490498 0.
0.527927 0.0490494 0.
0.529929 0.0490492 0.
0.53193 0.049049 0.
0.533931 0.0490487 0.
0.535932 0.0490482 0.
0.537933 0.0490476 0.
0.539934 0.0490472 0.
0.541935 0.0490468 0.
0.543935 0.0490464 0.
0.545937 0.0490466 0.
0.547938 0.0490469 0.
0.549939 0.0490472 0.
0.551941 0.0490467 0.
0.553943 0.0490463 0.
0.555945 0.0490456 0.
0.557947 0.0490445 0.
0.55995 0.0490433 0.
0.561952 0.0490423 0.
0.563954 0.0490416 0.
0.565957 0.0490409 0.
0.567959 0.0490398 0.
0.569961 0.0490384 0.
0.571963 0.0490371 0.
0.573966 0.0490355 0.
0.575969 0.0490339 0.
0.577972 0.0490322 0.
0.579975 0.0490305 0.
0.581977 0.0490287 0.
0.58398 0.049027 0.
0.585983 0.0490256 0.
0.587986 0.0490242 0.
0.589989 0.0490229 0.
0.59199 0.0490215 0.
0.593992 0.0490202 0.
0.595995 0.0490202 0.
0.597997 0.0490206 0.
0.6 0.049021 0.
0.602002 0.0490206 0.
0.604005 0.0490201 0.
0.606008 0.0490202 0.
0.608009 0.0490224 0.
0.610011 0.0490247 0.
0.612014 0.0490264 0.
0.614016 0.0490274 0.
0.616019 0.0490284 0.
0.618022 0.0490296 0.
0.620024 0.0490309 0.
0.622027 0.0490323 0.
0.624031 0.0490337 0.
0.626034 0.0490352 0.
0.628038 0.0490369 0.
0.63004 0.0490397 0.
0.632043 0.0490425 0.
0.634045 0.0490448 0.
0.636047 0.049046 0.
0.638048 0.0490472 0.
0.640051 0.0490483 0.
0.642053 0.0490492 0.
0.644055 0.0490502 0.
0.646058 0.0490504 0.
0.64806 0.0490505 0.
0.650062 0.0490506 0.
0.652063 0.0490502 0.
0.654064 0.0490499 0.
0.656066 0.0490498 0.
0.658068 0.0490507 0.
0.660069 0.0490516 0.
0.662071 0.0490521 0.
0.664071 0.0490523 0.
0.666071 0.0490524 0.
0.668072 0.049053 0.
0.670073 0.0490538 0.
0.672074 0.0490546 0.
0.674075 0.0490545 0.
0.676075 0.0490543 0.
0.678076 0.0490542 0.
0.680076 0.0490549 0.
0.682076 0.0490557 0.
0.684076 0.0490567 0.
0.686077 0.049058 0.
0.688078 0.0490594 0.
0.690078 0.0490605 0.
0.692079 0.0490615 0.
0.694079 0.0490624 0.
0.696079 0.0490642 0.
0.698079 0.0490662 0.
0.499922 0.0510636 0.
0.501922 0.0510624 0.
0.503923 0.0510613 0.
0.505924 0.0510601 0.
0.507923 0.0510581 0.
0.509923 0.0510561 0.
0.511924 0.0510545 0.
0.513925 0.0510536 0.
0.515927 0.0510528 0.
0.517927 0.0510522 0.
0.519928 0.0510517 0.
0.521928 0.0510512 0.
0.523929 0.0510507 0.
0.525929 0.0510501 0.
0.52793 0.0510495 0.
0.529932 0.0510492 0.
0.531933 0.0510489 0.
0.533934 0.0510485 0.
0.535935 0.0510481 0.
0.537936 0.0510476 0.
0.539937 0.0510472 0.
0.541938 0.0510468 0.
0.543939 0.0510464 0.
0.54594 0.0510465 0.
0.547941 0.0510468 0.
0.549942 0.051047 0.
0.551944 0.0510465 0.
0.553946 0.0510459 0.
0.555947 0.0510452 0.
0.55795 0.0510439 0.
0.559952 0.0510427 0.
0.561954 0.0510417 0.
0.563957 0.0510409 0.
0.565959 0.0510401 0.
0.567961 0.0510391 0.
0.569963 0.0510379 0.
0.571965 0.0510367 0.
0.573968 0.0510351 0.
0.575971 0.0510335 0.
0.577974 0.0510318 0.
0.579976 0.0510301 0.
0.581979 0.0510284 0.
0.583982 0.0510268 0.
0.585984 0.0510254 0.
0.587987 0.0510241 0.
0.589989 0.051023 0.
0.591991 0.051022 0.
0.593992 0.051021 0.
0.595995 0.0510212 0.
0.597997 0.0510217 0.
0.6 0.0510223 0.
0.602002 0.0510216 0.
0.604005 0.0510209 0.
0.606008 0.0510208 0.
0.608009 0.0510227 0.
0.610011 0.0510246 0.
0.612013 0.0510261 0.
0.614016 0.0510271 0.
0.616018 0.0510282 0.
0.61802 0.0510292 0.
0.620023 0.0510302 0.
0.622026 0.0510312 0.
0.624029 0.0510329 0.
0.626033 0.0510347 0.
0.628036 0.0510365 0.
0.630038 0.051039 0.
0.632041 0.0510415 0.
0.634043 0.0510437 0.
0.636045 0.0510453 0.
0.638046 0.0510469 0.
0.640048 0.0510481 0.
0.642051 0.0510491 0.
0.644053 0.0510501 0.
0.646055 0.0510501 0.
0.648057 0.0510499 0.
0.65006 0.0510496 0.
0.652061 0.0510495 0.
0.654062 0.0510494 0.
0.656063 0.0510496 0.
0.658065 0.0510504 0.
0.660067 0.0510512 0.
0.662068 0.0510518 0.
0.664068 0.051052 0.
0.666069 0.0510523 0.
0.66807 0.051053 0.
0.67007 0.0510539 0.
0.672071 0.0510548 0.
0.674072 0.051055 0.
0.676073 0.051055 0.
0.678073 0.0510551 0.
0.680073 0.0510559 0.
0.682074 0.0510568 0.
0.684074 0.0510578 0.
0.686075 0.0510591 0.
0.688075 0.0510604 0.
0.690076 0.0510616 0.
0.692076 0.0510627 0.
0.694076 0.0510638 0.
0.696076 0.0510655 0.
0.698076 0.0510673 0.
0.499925 0.0530641 0.
0.501926 0.0530634 0.
0.503926 0.0530628 0.
0.505926 0.0530619 0.
0.507926 0.0530595 0.
0.509926 0.0530571 0.
0.511927 0.0530554 0.
0.513928 0.0530545 0.
0.515928 0.0530537 0.
0.517929 0.0530531 0.
0.51993 0.0530526 0.
0.52193 0.053052 0.
0.523931 0.0530512 0.
0.525932 0.0530503 0.
0.527933 0.0530495 0.
0.529934 0.0530491 0.
0.531935 0.0530486 0.
0.533937 0.0530482 0.
0.535938 0.0530479 0.
0.537939 0.0530475 0.
0.53994 0.0530472 0.
0.541941 0.053047 0.
0.543942 0.0530467 0.
0.545943 0.0530467 0.
0.547944 0.0530467 0.
0.549945 0.0530467 0.
0.551947 0.0530464 0.
0.553948 0.0530459 0.
0.55595 0.0530453 0.
0.557952 0.0530439 0.
0.559954 0.0530425 0.
0.561956 0.0530413 0.
0.563958 0.0530403 0.
0.565961 0.0530394 0.
0.567963 0.0530385 0.
0.569965 0.0530375 0.
0.571966 0.0530366 0.
0.57397 0.053035 0.
0.575973 0.0530333 0.
0.577976 0.0530316 0.
0.579978 0.0530302 0.
0.58198 0.0530288 0.
0.583983 0.0530274 0.
0.585985 0.0530259 0.
0.587987 0.0530245 0.
0.589989 0.0530234 0.
0.591991 0.0530227 0.
0.593992 0.0530219 0.
0.595995 0.0530222 0.
0.597997 0.0530227 0.
0.6 0.0530232 0.
0.602003 0.0530227 0.
0.604006 0.0530221 0.
0.606008 0.0530219 0.
0.60801 0.0530229 0.
0.610012 0.053024 0.
0.612014 0.0530252 0.
0.614016 0.0530267 0.
0.616018 0.0530282 0.
0.61802 0.0530291 0.
0.620023 0.0530297 0.
0.622026 0.0530304 0.
0.624028 0.0530325 0.
0.626031 0.0530349 0.
0.628034 0.0530371 0.
0.630036 0.0530389 0.
0.632038 0.0530406 0.
0.634041 0.0530425 0.
0.636043 0.0530446 0.
0.638045 0.0530467 0.
0.640047 0.0530483 0.
0.642048 0.0530494 0.
0.64405 0.0530506 0.
0.646052 0.0530503 0.
0.648055 0.0530496 0.
0.650057 0.053049 0.
0.652058 0.0530491 0.
0.654059 0.0530493 0.
0.65606 0.0530495 0.
0.658062 0.0530501 0.
0.660063 0.0530507 0.
0.662064 0.0530512 0.
0.664065 0.0530518 0.
0.666066 0.0530524 0.
0.668067 0.0530531 0.
0.670067 0.053054 0.
0.672068 0.0530548 0.
0.674069 0.0530552 0.
0.676069 0.0530554 0.
0.67807 0.0530558 0.
0.680071 0.0530569 0.
0.682072 0.0530579 0.
0.684073 0.053059 0.
0.686073 0.05306 0.
0.688073 0.053061 0.
0.690073 0.0530623 0.
0.692074 0.0530638 0.
0.694074 0.0530653 0.
0.696074 0.0530671 0.
0.698074 0.0530689 0.
0.499929 0.0550646 0.
0.501929 0.0550643 0.
0.503929 0.0550642 0.
0.505929 0.0550637 0.
0.507929 0.055061 0.
0.509929 0.0550582 0.
0.51193 0.0550562 0.
0.51393 0.0550554 0.
0.51593 0.0550545 0.
0.517931 0.0550539 0.
0.519931 0.0550534 0.
0.521932 0.0550528 0.
0.523933 0.0550518 0.
0.525934 0.0550506 0.
0.527935 0.0550495 0.
0.529936 0.055049 0.
0.531938 0.0550484 0.
0.533939 0.055048 0.
0.535941 0.0550477 0.
0.537942 0.0550474 0.
0.539943 0.0550473 0.
0.541944 0.0550472 0.
0.543945 0.0550471 0.
0.545946 0.0550469 0.
0.547947 0.0550467 0.
0.549948 0.0550465 0.
0.55195 0.0550462 0.
0.553951 0.055046 0.
0.555953 0.0550455 0.
0.557954 0.0550439 0.
0.559956 0.0550423 0.
0.561958 0.0550409 0.
0.56396 0.0550398 0.
0.565962 0.0550386 0.
0.567964 0.0550378 0.
0.569966 0.0550372 0.
0.571968 0.0550366 0.
0.573971 0.0550349 0.
0.575974 0.0550331 0.
0.577978 0.0550313 0.
0.57998 0.0550303 0.
0.581982 0.0550293 0.
0.583984 0.055028 0.
0.585985 0.0550264 0.
0.587987 0.0550248 0.
0.589989 0.0550239 0.
0.59199 0.0550234 0.
0.593992 0.0550229 0.
0.595995 0.0550232 0.
0.597998 0.0550237 0.
0.600001 0.0550242 0.
0.602003 0.0550237 0.
0.604006 0.0550232 0.
0.606009 0.0550229 0.
0.608011 0.0550231 0.
0.610013 0.0550234 0.
0.612015 0.0550244 0.
0.614016 0.0550263 0.
0.616017 0.0550281 0.
0.61802 0.0550289 0.
0.620023 0.0550292 0.
0.622025 0.0550295 0.
0.624027 0.0550322 0.
0.626029 0.0550351 0.
0.628031 0.0550378 0.
0.630034 0.0550388 0.
0.632036 0.0550398 0.
0.634038 0.0550413 0.
0.636041 0.055044 0.
0.638043 0.0550466 0.
0.640045 0.0550485 0.
0.642046 0.0550498 0.
0.644047 0.0550511 0.
0.64605 0.0550504 0.
0.648052 0.0550493 0.
0.650055 0.0550483 0.
0.652056 0.0550487 0.
0.654057 0.0550491 0.
0.656058 0.0550495 0.
0.658058 0.0550498 0.
0.660059 0.0550501 0.
0.66206 0.0550507 0.
0.664062 0.0550516 0.
0.666063 0.0550524 0.
0.668064 0.0550533 0.
0.670064 0.055054 0.
0.672064 0.0550548 0.
0.674065 0.0550554 0.
0.676066 0.0550559 0.
0.678067 0.0550565 0.
0.680069 0.0550578 0.
0.68207 0.0550591 0.
0.684071 0.0550602 0.
0.686071 0.0550609 0.
0.688071 0.0550617 0.
0.690071 0.055063 0.
0.692071 0.0550649 0.
0.694072 0.0550667 0.
0.696072 0.0550686 0.
0.698072 0.0550706 0.
0.499929 0.0570656 0.
0.50193 0.057065 0.
0.50393 0.0570644 0.
0.50593 0.0570635 0.
0.507931 0.057061 0.
0.509931 0.0570586 0.
0.511932 0.0570568 0.
0.513932 0.0570557 0.
0.515932 0.0570547 0.
0.517933 0.057054 0.
0.519934 0.0570534 0.
0.521934 0.0570528 0.
0.523935 0.0570519 0.
0.525936 0.057051 0.
0.527937 0.0570501 0.
0.529938 0.0570495 0.
0.531939 0.057049 0.
0.53394 0.0570484 0.
0.535942 0.057048 0.
0.537943 0.0570476 0.
0.539944 0.0570472 0.
0.541945 0.057047 0.
0.543947 0.0570467 0.
0.545948 0.0570462 0.
0.547949 0.0570457 0.
0.54995 0.0570451 0.
0.551952 0.057045 0.
0.553953 0.0570449 0.
0.555955 0.0570446 0.
0.557957 0.0570432 0.
0.559958 0.0570417 0.
0.56196 0.0570405 0.
0.563962 0.0570396 0.
0.565964 0.0570386 0.
0.567966 0.0570376 0.
0.569967 0.0570365 0.
0.571969 0.0570355 0.
0.573972 0.057034 0.
0.575975 0.0570324 0.
0.577978 0.0570309 0.
0.57998 0.0570298 0.
0.581981 0.0570287 0.
0.583983 0.0570275 0.
0.585985 0.057026 0.
0.587987 0.0570245 0.
0.589988 0.0570237 0.
0.59199 0.0570235 0.
0.593991 0.0570232 0.
0.595994 0.0570235 0.
0.597997 0.0570239 0.
0.600001 0.0570243 0.
0.602003 0.0570237 0.
0.604006 0.057023 0.
0.606009 0.0570227 0.
0.608011 0.0570234 0.
0.610013 0.0570241 0.
0.612015 0.0570251 0.
0.614016 0.0570266 0.
0.616018 0.0570281 0.
0.618019 0.057029 0.
0.620022 0.0570295 0.
0.622024 0.05703 0.
0.624026 0.0570324 0.
0.626028 0.0570351 0.
0.62803 0.0570376 0.
0.630032 0.0570387 0.
0.632034 0.0570398 0.
0.634036 0.0570414 0.
0.636038 0.0570438 0.
0.638041 0.0570462 0.
0.640042 0.0570479 0.
0.642044 0.0570491 0.
0.644046 0.0570504 0.
0.646048 0.0570498 0.
0.64805 0.0570487 0.
0.650053 0.0570477 0.
0.652054 0.0570481 0.
0.654055 0.0570486 0.
0.656056 0.0570491 0.
0.658057 0.0570496 0.
0.660058 0.0570501 0.
0.662059 0.0570508 0.
0.66406 0.0570517 0.
0.666061 0.0570526 0.
0.668062 0.0570535 0.
0.670062 0.0570544 0.
0.672062 0.0570552 0.
0.674063 0.0570556 0.
0.676064 0.057056 0.
0.678065 0.0570565 0.
0.680066 0.0570578 0.
0.682067 0.057059 0.
0.684068 0.0570604 0.
0.686068 0.0570617 0.
0.688068 0.0570631 0.
0.690069 0.0570646 0.
0.692069 0.0570663 0.
0.694069 0.057068 0.
0.69607 0.0570699 0.
0.69807 0.0570717 0.
0.49993 0.0590666 0.
0.501931 0.0590657 0.
0.503931 0.0590646 0.
0.505932 0.0590632 0.
0.507933 0.0590611 0.
0.509933 0.059059 0.
0.511934 0.0590573 0.
0.513934 0.0590561 0.
0.515934 0.0590549 0.
0.517935 0.059054 0.
0.519936 0.0590534 0.
0.521937 0.0590527 0.
0.523938 0.0590521 0.
0.525939 0.0590514 0.
0.52794 0.0590506 0.
0.52994 0.0590501 0.
0.531941 0.0590495 0.
0.533942 0.0590489 0.
0.535943 0.0590483 0.
0.537944 0.0590477 0.
0.539945 0.0590472 0.
0.541947 0.0590467 0.
0.543949 0.0590463 0.
0.54595 0.0590455 0.
0.547951 0.0590446 0.
0.549951 0.0590438 0.
0.551953 0.0590439 0.
0.553955 0.0590439 0.
0.555957 0.0590437 0.
0.557959 0.0590425 0.
0.55996 0.0590412 0.
0.561962 0.0590401 0.
0.563964 0.0590394 0.
0.565965 0.0590386 0.
0.567967 0.0590373 0.
0.569969 0.0590359 0.
0.571971 0.0590344 0.
0.573973 0.0590331 0.
0.575975 0.0590318 0.
0.577978 0.0590305 0.
0.579979 0.0590293 0.
0.581981 0.0590281 0.
0.583983 0.0590269 0.
0.585985 0.0590255 0.
0.587987 0.0590242 0.
0.589988 0.0590236 0.
0.59199 0.0590236 0.
0.593991 0.0590235 0.
0.595994 0.0590238 0.
0.597997 0.0590241 0.
0.6 0.0590244 0.
0.602003 0.0590236 0.
0.604006 0.0590228 0.
0.606009 0.0590225 0.
0.608011 0.0590236 0.
0.610013 0.0590247 0.
0.612014 0.0590259 0.
0.614016 0.059027 0.
0.616018 0.0590281 0.
0.618019 0.059029 0.
0.620021 0.0590297 0.
0.622022 0.0590304 0.
0.624024 0.0590327 0.
0.626026 0.0590351 0.
0.628028 0.0590374 0.
0.63003 0.0590387 0.
0.632032 0.0590399 0.
0.634034 0.0590414 0.
0.636036 0.0590436 0.
0.638038 0.0590458 0.
0.64004 0.0590474 0.
0.642042 0.0590485 0.
0.644044 0.0590497 0.
0.646046 0.0590491 0.
0.648048 0.059048 0.
0.65005 0.059047 0.
0.652052 0.0590475 0.
0.654053 0.0590481 0.
0.656054 0.0590486 0.
0.658056 0.0590494 0.
0.660057 0.0590501 0.
0.662058 0.0590509 0.
0.664058 0.0590519 0.
0.666059 0.0590528 0.
0.668059 0.0590538 0.
0.67006 0.0590547 0.
0.67206 0.0590557 0.
0.674061 0.0590559 0.
0.676062 0.0590561 0.
0.678063 0.0590565 0.
0.680064 0.0590577 0.
0.682064 0.059059 0.
0.684065 0.0590606 0.
0.686065 0.0590625 0.
0.688066 0.0590645 0.
0.690066 0.0590662 0.
0.692067 0.0590678 0.
0.694067 0.0590694 0.
0.696068 0.0590711 0.
0.698068 0.0590728 0.
0.499931 0.0610676 0.
0.501932 0.0610663 0.
0.503933 0.0610647 0.
0.505933 0.0610632 0.
0.507934 0.0610613 0.
0.509935 0.0610595 0.
0.511936 0.0610578 0.
0.513936 0.0610564 0.
0.515936 0.061055 0.
0.517937 0.0610541 0.
0.519938 0.0610534 0.
0.521939 0.0610527 0.
0.52394 0.0610522 0.
0.525941 0.0610517 0.
0.527942 0.0610511 0.
0.529942 0.0610505 0.
0.531943 0.0610499 0.
0.533943 0.0610493 0.
0.535944 0.0610487 0.
0.537945 0.0610482 0.
0.539947 0.0610475 0.
0.541949 0.0610467 0.
0.54395 0.0610459 0.
0.545951 0.0610449 0.
0.547952 0.0610439 0.
0.549953 0.0610429 0.
0.551955 0.0610431 0.
0.553957 0.0610434 0.
0.555959 0.0610433 0.
0.557961 0.0610422 0.
0.559962 0.0610411 0.
0.561963 0.0610401 0.
0.563965 0.0610393 0.
0.565967 0.0610385 0.
0.567968 0.0610371 0.
0.56997 0.0610353 0.
0.571972 0.0610335 0.
0.573974 0.0610325 0.
0.575976 0.0610316 0.
0.577978 0.0610307 0.
0.57998 0.0610293 0.
0.581981 0.0610279 0.
0.583983 0.0610266 0.
0.585984 0.0610254 0.
0.587986 0.0610242 0.
0.589988 0.0610237 0.
0.591989 0.0610238 0.
0.59399 0.0610239 0.
0.595993 0.0610241 0.
0.597997 0.0610243 0.
0.6 0.0610244 0.
0.602003 0.0610238 0.
0.604006 0.0610232 0.
0.606009 0.0610229 0.
0.608011 0.061024 0.
0.610012 0.0610251 0.
0.612014 0.0610262 0.
0.614016 0.0610274 0.
0.616017 0.0610285 0.
0.618018 0.0610294 0.
0.62002 0.0610301 0.
0.622021 0.0610308 0.
0.624023 0.0610329 0.
0.626025 0.061035 0.
0.628027 0.0610371 0.
0.630029 0.0610385 0.
0.63203 0.0610399 0.
0.634032 0.0610415 0.
0.636034 0.0610434 0.
0.638036 0.0610453 0.
0.640038 0.0610467 0.
0.64204 0.0610478 0.
0.644042 0.0610488 0.
0.646044 0.0610483 0.
0.648046 0.0610473 0.
0.650048 0.0610463 0.
0.652049 0.0610469 0.
0.654051 0.0610475 0.
0.656052 0.0610482 0.
0.658053 0.0610492 0.
0.660054 0.0610502 0.
0.662055 0.0610512 0.
0.664056 0.0610522 0.
0.666056 0.0610532 0.
0.668057 0.061054 0.
0.670057 0.0610548 0.
0.672058 0.0610555 0.
0.674059 0.061056 0.
0.67606 0.0610564 0.
0.678061 0.061057 0.
0.680061 0.0610583 0.
0.682061 0.0610596 0.
0.684062 0.0610612 0.
0.686063 0.0610632 0.
0.688063 0.0610651 0.
0.690064 0.061067 0.
0.692064 0.0610689 0.
0.694065 0.0610708 0.
0.696065 0.0610724 0.
0.698065 0.0610741 0.
0.499932 0.0630687 0.
0.501933 0.0630667 0.
0.503934 0.063065 0.
0.505935 0.0630632 0.
0.507936 0.0630616 0.
0.509937 0.0630599 0.
0.511937 0.0630582 0.
0.513938 0.0630567 0.
0.515938 0.0630552 0.
0.517939 0.0630542 0.
0.51994 0.0630535 0.
0.521941 0.0630528 0.
0.523942 0.0630524 0.
0.525943 0.063052 0.
0.527944 0.0630515 0.
0.529944 0.0630508 0.
0.531945 0.0630502 0.
0.533945 0.0630496 0.
0.535946 0.0630493 0.
0.537947 0.0630489 0.
0.539949 0.0630481 0.
0.54195 0.0630469 0.
0.543952 0.0630456 0.
0.545953 0.0630445 0.
0.547954 0.0630434 0.
0.549955 0.0630423 0.
0.551957 0.0630428 0.
0.553959 0.0630433 0.
0.555961 0.0630434 0.
0.557962 0.0630424 0.
0.559963 0.0630413 0.
0.561965 0.0630403 0.
0.563966 0.0630394 0.
0.565968 0.0630385 0.
0.56797 0.0630369 0.
0.569971 0.0630349 0.
0.571972 0.0630329 0.
0.573974 0.0630323 0.
0.575977 0.063032 0.
0.577979 0.0630315 0.
0.57998 0.0630297 0.
0.581982 0.063028 0.
0.583983 0.0630265 0.
0.585984 0.0630254 0.
0.587985 0.0630244 0.
0.589986 0.063024 0.
0.591987 0.0630241 0.
0.593989 0.0630242 0.
0.595992 0.0630243 0.
0.597996 0.0630244 0.
0.6 0.0630245 0.
0.602003 0.0630243 0.
0.604006 0.063024 0.
0.606009 0.063024 0.
0.60801 0.0630247 0.
0.610012 0.0630253 0.
0.612014 0.0630263 0.
0.614014 0.0630278 0.
0.616015 0.0630293 0.
0.618017 0.0630301 0.
0.620018 0.0630307 0.
0.62202 0.0630313 0.
0.624022 0.063033 0.
0.626024 0.0630349 0.
0.628026 0.0630367 0.
0.630027 0.0630383 0.
0.632029 0.06304 0.
0.634031 0.0630416 0.
0.636033 0.0630431 0.
0.638035 0.0630447 0.
0.640037 0.0630459 0.
0.642039 0.0630468 0.
0.644041 0.0630478 0.
0.646042 0.0630473 0.
0.648044 0.0630465 0.
0.650045 0.0630457 0.
0.652047 0.0630463 0.
0.654048 0.063047 0.
0.656049 0.0630478 0.
0.65805 0.0630491 0.
0.660051 0.0630505 0.
0.662051 0.0630517 0.
0.664052 0.0630527 0.
0.666053 0.0630538 0.
0.668054 0.0630543 0.
0.670055 0.0630546 0.
0.672055 0.0630549 0.
0.674056 0.0630559 0.
0.676057 0.0630569 0.
0.678057 0.063058 0.
0.680058 0.0630595 0.
0.682059 0.0630609 0.
0.684059 0.0630623 0.
0.68606 0.0630637 0.
0.688061 0.0630651 0.
0.690061 0.0630672 0.
0.692062 0.0630697 0.
0.694062 0.0630722 0.
0.696062 0.0630739 0.
0.698062 0.0630754 0.
0.499934 0.0650694 0.
0.501935 0.0650672 0.
0.503936 0.0650651 0.
0.505937 0.0650633 0.
0.507938 0.0650618 0.
0.509938 0.0650603 0.
0.511939 0.0650587 0.
0.51394 0.065057 0.
0.515941 0.0650554 0.
0.517941 0.0650544 0.
0.519942 0.0650537 0.
0.521943 0.065053 0.
0.523944 0.0650526 0.
0.525945 0.0650522 0.
0.527945 0.0650519 0.
0.529946 0.0650512 0.
0.531946 0.0650505 0.
0.533947 0.0650499 0.
0.535948 0.0650498 0.
0.53795 0.0650496 0.
0.539951 0.0650486 0.
0.541952 0.065047 0.
0.543953 0.0650454 0.
0.545955 0.0650441 0.
0.547956 0.065043 0.
0.549957 0.0650419 0.
0.551959 0.0650425 0.
0.553961 0.0650432 0.
0.555962 0.0650435 0.
0.557963 0.0650425 0.
0.559964 0.0650415 0.
0.561966 0.0650405 0.
0.563968 0.0650395 0.
0.56597 0.0650385 0.
0.567971 0.0650367 0.
0.569972 0.0650345 0.
0.571973 0.0650323 0.
0.573975 0.0650321 0.
0.575977 0.0650323 0.
0.57798 0.0650322 0.
0.579981 0.0650302 0.
0.581983 0.0650282 0.
0.583984 0.0650265 0.
0.585984 0.0650255 0.
0.587985 0.0650245 0.
0.589985 0.0650242 0.
0.591986 0.0650244 0.
0.593987 0.0650245 0.
0.595991 0.0650246 0.
0.597996 0.0650246 0.
0.6 0.0650245 0.
0.602003 0.0650247 0.
0.604006 0.0650249 0.
0.606008 0.065025 0.
0.60801 0.0650253 0.
0.610012 0.0650255 0.
0.612013 0.0650264 0.
0.614013 0.0650282 0.
0.616014 0.06503 0.
0.618015 0.0650309 0.
0.620017 0.0650313 0.
0.622019 0.0650318 0.
0.624021 0.0650332 0.
0.626023 0.0650348 0.
0.628025 0.0650363 0.
0.630026 0.0650382 0.
0.632027 0.06504 0.
0.634029 0.0650416 0.
0.636031 0.0650429 0.
0.638034 0.0650441 0.
0.640036 0.0650451 0.
0.642037 0.0650459 0.
0.644039 0.0650467 0.
0.64604 0.0650464 0.
0.648041 0.0650457 0.
0.650043 0.0650451 0.
0.652044 0.0650458 0.
0.654045 0.0650464 0.
0.656046 0.0650474 0.
0.658047 0.065049 0.
0.660047 0.0650507 0.
0.662048 0.0650521 0.
0.664049 0.0650532 0.
0.66605 0.0650544 0.
0.668051 0.0650546 0.
0.670052 0.0650544 0.
0.672053 0.0650543 0.
0.674053 0.0650558 0.
0.676053 0.0650574 0.
0.678054 0.065059 0.
0.680055 0.0650606 0.
0.682056 0.0650622 0.
0.684057 0.0650635 0.
0.686058 0.0650643 0.
0.688058 0.0650652 0.
0.690059 0.0650673 0.
0.692059 0.0650704 0.
0.694059 0.0650736 0.
0.696059 0.0650753 0.
0.698059 0.0650767 0.
0.499936 0.0670697 0.
0.501937 0.0670675 0.
0.503938 0.0670656 0.
0.505938 0.0670638 0.
0.507939 0.0670619 0.
0.50994 0.0670601 0.
0.511941 0.0670584 0.
0.513942 0.067057 0.
0.515942 0.0670555 0.
0.517943 0.0670546 0.
0.519944 0.0670539 0.
0.521945 0.0670532 0.
0.523946 0.0670526 0.
0.525947 0.0670521 0.
0.527947 0.0670515 0.
0.529948 0.0670508 0.
0.531948 0.0670501 0.
0.533949 0.0670495 0.
0.53595 0.0670492 0.
0.537952 0.067049 0.
0.539953 0.0670481 0.
0.541954 0.0670467 0.
0.543955 0.0670453 0.
0.545956 0.0670443 0.
0.547958 0.0670434 0.
0.549959 0.0670425 0.
0.55196 0.0670426 0.
0.553962 0.0670427 0.
0.555963 0.0670425 0.
0.557964 0.0670411 0.
0.559965 0.0670398 0.
0.561967 0.0670387 0.
0.563968 0.0670381 0.
0.56597 0.0670375 0.
0.567972 0.0670362 0.
0.569973 0.0670345 0.
0.571974 0.0670328 0.
0.573976 0.0670325 0.
0.575978 0.0670324 0.
0.57798 0.0670321 0.
0.579981 0.0670303 0.
0.581983 0.0670286 0.
0.583984 0.067027 0.
0.585985 0.0670259 0.
0.587986 0.0670247 0.
0.589987 0.0670244 0.
0.591988 0.0670246 0.
0.593988 0.0670249 0.
0.595992 0.0670249 0.
0.597996 0.0670248 0.
0.6 0.0670246 0.
0.602003 0.0670246 0.
0.604005 0.0670247 0.
0.606007 0.0670248 0.
0.608009 0.0670253 0.
0.61001 0.0670259 0.
0.612011 0.0670268 0.
0.614012 0.0670281 0.
0.616013 0.0670294 0.
0.618015 0.0670302 0.
0.620016 0.0670307 0.
0.622018 0.0670313 0.
0.62402 0.0670331 0.
0.626022 0.0670352 0.
0.628024 0.0670371 0.
0.630025 0.0670382 0.
0.632027 0.0670394 0.
0.634029 0.0670406 0.
0.636031 0.0670418 0.
0.638033 0.0670431 0.
0.640034 0.0670442 0.
0.642036 0.0670452 0.
0.644037 0.0670462 0.
0.646038 0.067046 0.
0.64804 0.0670454 0.
0.650041 0.0670448 0.
0.652042 0.0670456 0.
0.654043 0.0670465 0.
0.656044 0.0670475 0.
0.658045 0.0670491 0.
0.660045 0.0670506 0.
0.662046 0.0670521 0.
0.664047 0.0670534 0.
0.666048 0.0670547 0.
0.668049 0.067055 0.
0.67005 0.0670549 0.
0.672051 0.0670548 0.
0.674052 0.0670561 0.
0.676052 0.0670575 0.
0.678053 0.0670589 0.
0.680054 0.0670605 0.
0.682054 0.0670621 0.
0.684055 0.0670635 0.
0.686056 0.0670649 0.
0.688056 0.0670662 0.
0.690057 0.0670681 0.
0.692057 0.0670704 0.
0.694057 0.0670728 0.
0.696058 0.067075 0.
0.698058 0.067077 0.
0.499938 0.0690695 0.
0.501939 0.0690678 0.
0.503939 0.069066 0.
0.50594 0.0690642 0.
0.507941 0.0690621 0.
0.509942 0.0690599 0.
0.511943 0.0690581 0.
0.513943 0.0690569 0.
0.515944 0.0690557 0.
0.517945 0.0690548 0.
0.519946 0.0690541 0.
0.521947 0.0690534 0.
0.523948 0.0690527 0.
0.525948 0.0690519 0.
0.527949 0.0690512 0.
0.52995 0.0690505 0.
0.53195 0.0690497 0.
0.533951 0.0690491 0.
0.535952 0.0690487 0.
0.537953 0.0690484 0.
0.539955 0.0690476 0.
0.541955 0.0690464 0.
0.543956 0.0690453 0.
0.545958 0.0690444 0.
0.547959 0.0690437 0.
0.54996 0.0690431 0.
0.551962 0.0690426 0.
0.553963 0.0690422 0.
0.555964 0.0690415 0.
0.557965 0.0690397 0.
0.559966 0.069038 0.
0.561968 0.0690369 0.
0.563969 0.0690367 0.
0.565971 0.0690365 0.
0.567972 0.0690357 0.
0.569974 0.0690345 0.
0.571975 0.0690333 0.
0.573977 0.0690328 0.
0.575978 0.0690324 0.
0.57798 0.0690319 0.
0.579982 0.0690305 0.
0.581983 0.069029 0.
0.583985 0.0690276 0.
0.585986 0.0690263 0.
0.587988 0.0690249 0.
0.589988 0.0690245 0.
0.591989 0.0690249 0.
0.593989 0.0690253 0.
0.595993 0.0690252 0.
0.597997 0.069025 0.
0.6 0.0690248 0.
0.602002 0.0690246 0.
0.604004 0.0690244 0.
0.606006 0.0690245 0.
0.608007 0.0690254 0.
0.610008 0.0690263 0.
0.61201 0.0690271 0.
0.614011 0.069028 0.
0.616013 0.0690288 0.
0.618015 0.0690295 0.
0.620016 0.0690301 0.
0.622017 0.0690307 0.
0.624019 0.0690331 0.
0.626021 0.0690356 0.
0.628023 0.0690379 0.
0.630025 0.0690383 0.
0.632027 0.0690388 0.
0.634029 0.0690395 0.
0.636031 0.0690408 0.
0.638032 0.069042 0.
0.640033 0.0690433 0.
0.642034 0.0690445 0.
0.644035 0.0690458 0.
0.646036 0.0690456 0.
0.648038 0.069045 0.
0.650039 0.0690445 0.
0.65204 0.0690455 0.
0.654041 0.0690465 0.
0.656042 0.0690476 0.
0.658043 0.0690491 0.
0.660044 0.0690505 0.
0.662045 0.069052 0.
0.664046 0.0690535 0.
0.666047 0.069055 0.
0.668048 0.0690554 0.
0.670049 0.0690554 0.
0.67205 0.0690554 0.
0.67405 0.0690564 0.
0.676051 0.0690575 0.
0.678052 0.0690588 0.
0.680052 0.0690604 0.
0.682053 0.069062 0.
0.684053 0.0690636 0.
0.686054 0.0690654 0.
0.688054 0.0690672 0.
0.690055 0.0690689 0.
0.692055 0.0690705 0.
0.694056 0.0690721 0.
0.696056 0.0690746 0.
0.698057 0.0690774 0.
0.49994 0.0710698 0.
0.501941 0.0710681 0.
0.503941 0.0710663 0.
0.505942 0.0710645 0.
0.507943 0.0710623 0.
0.509944 0.0710602 0.
0.511944 0.0710584 0.
0.513945 0.0710571 0.
0.515945 0.0710558 0.
0.517946 0.0710548 0.
0.519947 0.0710541 0.
0.521948 0.0710534 0.
0.523949 0.0710528 0.
0.52595 0.0710522 0.
0.527951 0.0710515 0.
0.529951 0.0710507 0.
0.531952 0.0710499 0.
0.533953 0.0710491 0.
0.535954 0.0710484 0.
0.537955 0.0710478 0.
0.539956 0.071047 0.
0.541957 0.0710461 0.
0.543958 0.0710452 0.
0.545959 0.0710445 0.
0.54796 0.0710439 0.
0.549962 0.0710433 0.
0.551963 0.0710425 0.
0.553964 0.0710417 0.
0.555965 0.0710408 0.
0.557966 0.0710391 0.
0.559968 0.0710373 0.
0.561969 0.0710363 0.
0.56397 0.0710362 0.
0.565972 0.0710361 0.
0.567973 0.0710354 0.
0.569975 0.0710344 0.
0.571976 0.0710334 0.
0.573977 0.0710329 0.
0.575979 0.0710324 0.
0.57798 0.0710318 0.
0.579982 0.0710304 0.
0.581984 0.071029 0.
0.583985 0.0710276 0.
0.585986 0.0710264 0.
0.587988 0.0710252 0.
0.589989 0.0710247 0.
0.59199 0.0710249 0.
0.593991 0.071025 0.
0.595993 0.0710249 0.
0.597997 0.0710248 0.
0.6 0.0710246 0.
0.602002 0.0710246 0.
0.604004 0.0710245 0.
0.606005 0.0710247 0.
0.608006 0.0710256 0.
0.610007 0.0710265 0.
0.612009 0.0710273 0.
0.614011 0.0710278 0.
0.616013 0.0710284 0.
0.618014 0.0710292 0.
0.620015 0.07103 0.
0.622017 0.0710309 0.
0.624018 0.0710331 0.
0.62602 0.0710354 0.
0.628022 0.0710375 0.
0.630024 0.0710379 0.
0.632027 0.0710384 0.
0.634028 0.0710391 0.
0.63603 0.0710404 0.
0.638031 0.0710417 0.
0.640032 0.071043 0.
0.642033 0.0710443 0.
0.644033 0.0710455 0.
0.646035 0.0710454 0.
0.648036 0.0710449 0.
0.650037 0.0710445 0.
0.652038 0.0710456 0.
0.654039 0.0710467 0.
0.65604 0.0710478 0.
0.658041 0.071049 0.
0.660042 0.0710503 0.
0.662043 0.0710516 0.
0.664044 0.0710531 0.
0.666045 0.0710545 0.
0.668046 0.0710552 0.
0.670047 0.0710556 0.
0.672047 0.0710559 0.
0.674048 0.0710567 0.
0.676049 0.0710575 0.
0.67805 0.0710584 0.
0.68005 0.0710602 0.
0.682051 0.071062 0.
0.684051 0.0710638 0.
0.686052 0.0710658 0.
0.688052 0.0710678 0.
0.690053 0.0710694 0.
0.692053 0.0710707 0.
0.694054 0.0710719 0.
0.696054 0.0710746 0.
0.698055 0.0710775 0.
0.499943 0.0730705 0.
0.501943 0.0730685 0.
0.503944 0.0730665 0.
0.505944 0.0730646 0.
0.507945 0.0730627 0.
0.509945 0.0730609 0.
0.511946 0.0730592 0.
0.513946 0.0730575 0.
0.515946 0.0730558 0.
0.517947 0.0730547 0.
0.519948 0.073054 0.
0.521949 0.0730533 0.
0.52395 0.073053 0.
0.525951 0.0730528 0.
0.527952 0.0730525 0.
0.529953 0.0730515 0.
0.531954 0.0730506 0.
0.533955 0.0730495 0.
0.535955 0.0730484 0.
0.537956 0.0730472 0.
0.539956 0.0730464 0.
0.541958 0.0730458 0.
0.543959 0.0730453 0.
0.54596 0.0730446 0.
0.547962 0.0730438 0.
0.549963 0.073043 0.
0.551964 0.0730422 0.
0.553965 0.0730414 0.
0.555966 0.0730404 0.
0.557968 0.0730391 0.
0.559969 0.0730377 0.
0.561971 0.0730368 0.
0.563972 0.0730365 0.
0.565973 0.0730362 0.
0.567974 0.0730354 0.
0.569976 0.0730343 0.
0.571977 0.0730332 0.
0.573978 0.0730327 0.
0.575979 0.0730323 0.
0.577981 0.0730317 0.
0.579982 0.0730301 0.
0.581984 0.0730284 0.
0.583985 0.0730271 0.
0.585986 0.0730263 0.
0.587987 0.0730255 0.
0.589988 0.0730249 0.
0.59199 0.0730245 0.
0.593992 0.0730241 0.
0.595994 0.073024 0.
0.597997 0.0730241 0.
0.6 0.0730241 0.
0.602001 0.0730246 0.
0.604003 0.073025 0.
0.606005 0.0730254 0.
0.608006 0.073026 0.
0.610007 0.0730266 0.
0.612008 0.0730271 0.
0.61401 0.0730277 0.
0.616012 0.0730282 0.
0.618014 0.0730293 0.
0.620015 0.0730305 0.
0.622015 0.0730317 0.
0.624017 0.0730331 0.
0.62602 0.0730346 0.
0.628022 0.073036 0.
0.630023 0.073037 0.
0.632025 0.0730381 0.
0.634026 0.0730393 0.
0.636028 0.0730407 0.
0.638029 0.0730421 0.
0.64003 0.0730434 0.
0.642031 0.0730444 0.
0.644032 0.0730454 0.
0.646033 0.0730453 0.
0.648034 0.073045 0.
0.650035 0.0730446 0.
0.652037 0.0730458 0.
0.654038 0.073047 0.
0.656039 0.0730481 0.
0.658039 0.073049 0.
0.66004 0.0730499 0.
0.66204 0.0730509 0.
0.664042 0.0730522 0.
0.666043 0.0730534 0.
0.668044 0.0730544 0.
0.670044 0.0730554 0.
0.672045 0.0730564 0.
0.674046 0.0730569 0.
0.676046 0.0730572 0.
0.678047 0.0730578 0.
0.680048 0.0730599 0.
0.682048 0.073062 0.
0.684049 0.073064 0.
0.686049 0.073066 0.
0.68805 0.0730681 0.
0.69005 0.0730697 0.
0.692051 0.073071 0.
0.694051 0.0730724 0.
0.696052 0.0730748 0.
0.698052 0.0730776 0.
0.499945 0.0750707 0.
0.501946 0.0750688 0.
0.503946 0.0750667 0.
0.505947 0.0750646 0.
0.507947 0.0750631 0.
0.509947 0.0750617 0.
0.511947 0.07506 0.
0.513947 0.0750579 0.
0.515947 0.0750558 0.
0.517948 0.0750546 0.
0.519949 0.0750539 0.
0.52195 0.0750531 0.
0.523951 0.0750532 0.
0.525952 0.0750533 0.
0.527953 0.0750534 0.
0.529955 0.0750524 0.
0.531956 0.0750513 0.
0.533957 0.07505 0.
0.535957 0.0750483 0.
0.537957 0.0750467 0.
0.539957 0.0750458 0.
0.541958 0.0750455 0.
0.54396 0.0750453 0.
0.545961 0.0750446 0.
0.547963 0.0750437 0.
0.549965 0.0750428 0.
0.551966 0.0750418 0.
0.553966 0.075041 0.
0.555967 0.07504 0.
0.557969 0.0750391 0.
0.559971 0.0750381 0.
0.561973 0.0750373 0.
0.563974 0.0750368 0.
0.565975 0.0750363 0.
0.567976 0.0750353 0.
0.569977 0.0750342 0.
0.571978 0.075033 0.
0.573979 0.0750325 0.
0.57598 0.0750322 0.
0.577981 0.0750316 0.
0.579983 0.0750298 0.
0.581984 0.0750279 0.
0.583985 0.0750265 0.
0.585986 0.0750262 0.
0.587986 0.0750258 0.
0.589988 0.0750251 0.
0.59199 0.0750241 0.
0.593993 0.0750231 0.
0.595995 0.0750231 0.
0.597997 0.0750234 0.
0.599999 0.0750237 0.
0.602001 0.0750245 0.
0.604003 0.0750254 0.
0.606004 0.0750261 0.
0.608005 0.0750264 0.
0.610006 0.0750267 0.
0.612008 0.0750271 0.
0.61401 0.0750276 0.
0.616012 0.0750281 0.
0.618013 0.0750293 0.
0.620014 0.0750309 0.
0.622014 0.0750325 0.
0.624017 0.0750332 0.
0.626019 0.0750337 0.
0.628021 0.0750345 0.
0.630022 0.0750362 0.
0.632023 0.0750379 0.
0.634024 0.0750395 0.
0.636026 0.075041 0.
0.638027 0.0750425 0.
0.640029 0.0750437 0.
0.64203 0.0750445 0.
0.644031 0.0750454 0.
0.646032 0.0750453 0.
0.648033 0.0750451 0.
0.650034 0.0750448 0.
0.652035 0.075046 0.
0.654036 0.0750473 0.
0.656037 0.0750484 0.
0.658037 0.0750489 0.
0.660037 0.0750495 0.
0.662038 0.0750503 0.
0.664039 0.0750513 0.
0.66604 0.0750523 0.
0.668041 0.0750537 0.
0.670042 0.0750553 0.
0.672043 0.0750569 0.
0.674043 0.0750571 0.
0.676044 0.075057 0.
0.678044 0.0750573 0.
0.680045 0.0750596 0.
0.682046 0.075062 0.
0.684046 0.0750642 0.
0.686047 0.0750662 0.
0.688048 0.0750683 0.
0.690048 0.07507 0.
0.692048 0.0750714 0.
0.694049 0.0750728 0.
0.696049 0.0750751 0.
0.69805 0.0750777 0.
0.499947 0.0770698 0.
0.501948 0.0770683 0.
0.503948 0.0770665 0.
0.505949 0.0770647 0.
0.507949 0.0770632 0.
0.509949 0.0770617 0.
0.511949 0.0770601 0.
0.513949 0.0770581 0.
0.51595 0.0770562 0.
0.51795 0.0770549 0.
0.519951 0.0770539 0.
0.521952 0.0770529 0.
0.523953 0.077053 0.
0.525954 0.0770532 0.
0.527956 0.0770532 0.
0.529957 0.0770521 0.
0.531958 0.077051 0.
0.533958 0.0770498 0.
0.535959 0.0770485 0.
0.537959 0.0770471 0.
0.539959 0.0770461 0.
0.54196 0.0770455 0.
0.543961 0.0770448 0.
0.545963 0.077044 0.
0.547964 0.0770431 0.
0.549965 0.0770423 0.
0.551966 0.0770416 0.
0.553968 0.077041 0.
0.555969 0.0770402 0.
0.55797 0.0770392 0.
0.559972 0.0770381 0.
0.561974 0.0770374 0.
0.563975 0.077037 0.
0.565976 0.0770366 0.
0.567977 0.0770356 0.
0.569978 0.0770344 0.
0.571979 0.0770331 0.
0.57398 0.0770324 0.
0.575981 0.0770318 0.
0.577982 0.077031 0.
0.579984 0.0770297 0.
0.581985 0.0770283 0.
0.583986 0.0770271 0.
0.585987 0.0770263 0.
0.587987 0.0770255 0.
0.589988 0.0770246 0.
0.59199 0.0770236 0.
0.593992 0.0770227 0.
0.595994 0.0770228 0.
0.597996 0.0770231 0.
0.599998 0.0770235 0.
0.602 0.0770244 0.
0.604002 0.0770253 0.
0.606003 0.0770261 0.
0.608005 0.0770262 0.
0.610006 0.0770264 0.
0.612007 0.0770267 0.
0.614008 0.0770272 0.
0.61601 0.0770277 0.
0.618011 0.0770288 0.
0.620013 0.0770303 0.
0.622014 0.0770318 0.
0.624016 0.0770326 0.
0.626018 0.0770333 0.
0.62802 0.0770341 0.
0.630021 0.0770355 0.
0.632022 0.0770369 0.
0.634023 0.0770384 0.
0.636025 0.07704 0.
0.638026 0.0770417 0.
0.640027 0.077043 0.
0.642028 0.0770441 0.
0.644029 0.0770452 0.
0.64603 0.0770455 0.
0.648032 0.0770457 0.
0.650033 0.0770459 0.
0.652033 0.0770467 0.
0.654034 0.0770474 0.
0.656035 0.0770482 0.
0.658035 0.077049 0.
0.660036 0.0770498 0.
0.662036 0.0770505 0.
0.664038 0.0770512 0.
0.666039 0.0770519 0.
0.66804 0.0770531 0.
0.67004 0.0770547 0.
0.672041 0.0770563 0.
0.674041 0.0770569 0.
0.676042 0.0770573 0.
0.678042 0.0770579 0.
0.680043 0.0770598 0.
0.682043 0.0770617 0.
0.684044 0.0770637 0.
0.686045 0.0770659 0.
0.688045 0.077068 0.
0.690045 0.0770698 0.
0.692046 0.0770711 0.
0.694046 0.0770725 0.
0.696046 0.0770747 0.
0.698047 0.0770772 0.
0.499949 0.0790691 0.
0.50195 0.0790678 0.
0.50395 0.0790663 0.
0.505951 0.0790647 0.
0.507951 0.0790633 0.
0.509951 0.0790618 0.
0.511951 0.0790602 0.
0.513951 0.0790584 0.
0.515952 0.0790566 0.
0.517953 0.0790552 0.
0.519954 0.079054 0.
0.521954 0.0790528 0.
0.523956 0.0790528 0.
0.525957 0.079053 0.
0.527958 0.079053 0.
0.529958 0.0790519 0.
0.531959 0.0790507 0.
0.53396 0.0790496 0.
0.53596 0.0790486 0.
0.537961 0.0790476 0.
0.539961 0.0790465 0.
0.541962 0.0790454 0.
0.543963 0.0790442 0.
0.545964 0.0790434 0.
0.547965 0.0790426 0.
0.549966 0.0790418 0.
0.551967 0.0790414 0.
0.553969 0.079041 0.
0.55597 0.0790404 0.
0.557972 0.0790393 0.
0.559973 0.0790382 0.
0.561975 0.0790375 0.
0.563976 0.0790372 0.
0.565978 0.0790369 0.
0.567979 0.0790359 0.
0.569979 0.0790346 0.
0.571979 0.0790333 0.
0.57398 0.0790323 0.
0.575982 0.0790314 0.
0.577983 0.0790305 0.
0.579984 0.0790296 0.
0.581986 0.0790288 0.
0.583987 0.0790278 0.
0.585987 0.0790264 0.
0.587987 0.0790251 0.
0.589988 0.079024 0.
0.59199 0.0790232 0.
0.593992 0.0790223 0.
0.595994 0.0790224 0.
0.597995 0.0790229 0.
0.599997 0.0790233 0.
0.601999 0.0790243 0.
0.604001 0.0790253 0.
0.606003 0.079026 0.
0.608004 0.0790261 0.
0.610005 0.0790261 0.
0.612006 0.0790263 0.
0.614007 0.0790268 0.
0.616008 0.0790272 0.
0.61801 0.0790283 0.
0.620012 0.0790297 0.
0.622013 0.0790311 0.
0.624015 0.079032 0.
0.626017 0.0790328 0.
0.628019 0.0790337 0.
0.63002 0.0790348 0.
0.632021 0.0790359 0.
0.634022 0.0790372 0.
0.636023 0.079039 0.
0.638024 0.0790408 0.
0.640025 0.0790423 0.
0.642027 0.0790437 0.
0.644028 0.079045 0.
0.646029 0.0790458 0.
0.64803 0.0790464 0.
0.650031 0.079047 0.
0.652032 0.0790473 0.
0.654033 0.0790476 0.
0.656033 0.0790481 0.
0.658034 0.0790491 0.
0.660034 0.0790501 0.
0.662035 0.0790508 0.
0.664036 0.0790511 0.
0.666037 0.0790514 0.
0.668038 0.0790526 0.
0.670039 0.0790542 0.
0.67204 0.0790558 0.
0.67404 0.0790567 0.
0.676039 0.0790575 0.
0.678039 0.0790584 0.
0.68004 0.07906 0.
0.682041 0.0790615 0.
0.684042 0.0790633 0.
0.686042 0.0790655 0.
0.688042 0.0790678 0.
0.690043 0.0790695 0.
0.692043 0.0790709 0.
0.694043 0.0790722 0.
0.696044 0.0790744 0.
0.698044 0.0790767 0.
0.499952 0.0810692 0.
0.501952 0.0810677 0.
0.503952 0.0810662 0.
0.505952 0.0810647 0.
0.507953 0.0810633 0.
0.509953 0.0810619 0.
0.511953 0.0810603 0.
0.513954 0.0810586 0.
0.515954 0.0810568 0.
0.517955 0.0810554 0.
0.519956 0.0810541 0.
0.521957 0.0810528 0.
0.523958 0.0810527 0.
0.525959 0.0810527 0.
0.52796 0.0810526 0.
0.52996 0.0810515 0.
0.531961 0.0810505 0.
0.533962 0.0810495 0.
0.535962 0.0810485 0.
0.537963 0.0810474 0.
0.539964 0.0810464 0.
0.541964 0.0810452 0.
0.543965 0.0810441 0.
0.545965 0.0810431 0.
0.547966 0.0810423 0.
0.549966 0.0810415 0.
0.551968 0.0810411 0.
0.55397 0.0810406 0.
0.555972 0.08104 0.
0.557973 0.081039 0.
0.559974 0.081038 0.
0.561975 0.0810373 0.
0.563977 0.081037 0.
0.565979 0.0810367 0.
0.567979 0.0810358 0.
0.56998 0.0810345 0.
0.57198 0.0810333 0.
0.573981 0.0810323 0.
0.575982 0.0810312 0.
0.577983 0.0810302 0.
0.579985 0.0810295 0.
0.581987 0.0810287 0.
0.583988 0.0810278 0.
0.585988 0.0810266 0.
0.587988 0.0810253 0.
0.589989 0.0810242 0.
0.59199 0.0810233 0.
0.593992 0.0810223 0.
0.595993 0.0810224 0.
0.597995 0.0810228 0.
0.599997 0.0810232 0.
0.601998 0.0810241 0.
0.604 0.081025 0.
0.606002 0.0810258 0.
0.608003 0.0810258 0.
0.610004 0.0810259 0.
0.612005 0.0810261 0.
0.614006 0.0810265 0.
0.616007 0.0810268 0.
0.618009 0.0810278 0.
0.620011 0.0810292 0.
0.622012 0.0810305 0.
0.624014 0.0810315 0.
0.626016 0.0810326 0.
0.628018 0.0810336 0.
0.630019 0.0810346 0.
0.63202 0.0810356 0.
0.634021 0.0810369 0.
0.636022 0.0810386 0.
0.638023 0.0810403 0.
0.640024 0.0810419 0.
0.642025 0.0810434 0.
0.644027 0.081045 0.
0.646028 0.0810459 0.
0.648029 0.0810466 0.
0.65003 0.0810473 0.
0.652031 0.0810475 0.
0.654031 0.0810477 0.
0.656031 0.0810481 0.
0.658032 0.0810491 0.
0.660033 0.0810501 0.
0.662033 0.0810508 0.
0.664034 0.081051 0.
0.666035 0.0810512 0.
0.668036 0.0810523 0.
0.670037 0.0810539 0.
0.672038 0.0810555 0.
0.674038 0.0810567 0.
0.676038 0.0810578 0.
0.678037 0.0810589 0.
0.680038 0.0810602 0.
0.682039 0.0810614 0.
0.68404 0.0810631 0.
0.68604 0.0810654 0.
0.688041 0.0810677 0.
0.690041 0.0810694 0.
0.692041 0.0810708 0.
0.694041 0.0810722 0.
0.696042 0.0810742 0.
0.698042 0.0810763 0.
0.499954 0.0830695 0.
0.501954 0.0830679 0.
0.503954 0.0830663 0.
0.505954 0.0830647 0.
0.507954 0.0830633 0.
0.509954 0.083062 0.
0.511955 0.0830605 0.
0.513956 0.0830587 0.
0.515956 0.0830568 0.
0.517957 0.0830554 0.
0.519958 0.0830542 0.
0.521959 0.083053 0.
0.52396 0.0830526 0.
0.52596 0.0830523 0.
0.527961 0.0830519 0.
0.529962 0.0830511 0.
0.531963 0.0830503 0.
0.533963 0.0830494 0.
0.535964 0.083048 0.
0.537965 0.0830467 0.
0.539965 0.0830457 0.
0.541966 0.0830449 0.
0.543966 0.0830442 0.
0.545967 0.0830433 0.
0.547967 0.0830423 0.
0.549968 0.0830413 0.
0.551969 0.0830406 0.
0.553971 0.0830399 0.
0.555973 0.0830391 0.
0.557974 0.0830382 0.
0.559974 0.0830374 0.
0.561975 0.0830367 0.
0.563977 0.0830364 0.
0.565979 0.0830361 0.
0.56798 0.0830353 0.
0.56998 0.0830343 0.
0.571981 0.0830332 0.
0.573982 0.0830322 0.
0.575983 0.0830312 0.
0.577984 0.0830302 0.
0.579985 0.0830292 0.
0.581987 0.0830282 0.
0.583988 0.0830273 0.
0.585989 0.0830266 0.
0.587989 0.083026 0.
0.58999 0.083025 0.
0.591991 0.0830239 0.
0.593992 0.0830228 0.
0.595993 0.0830227 0.
0.597995 0.0830229 0.
0.599997 0.0830231 0.
0.601998 0.0830239 0.
0.604 0.0830246 0.
0.606001 0.0830252 0.
0.608002 0.0830256 0.
0.610003 0.0830259 0.
0.612004 0.0830261 0.
0.614006 0.0830263 0.
0.616007 0.0830264 0.
0.618008 0.0830273 0.
0.620009 0.0830286 0.
0.622011 0.0830299 0.
0.624013 0.0830312 0.
0.626015 0.0830325 0.
0.628017 0.0830338 0.
0.630018 0.0830349 0.
0.632019 0.083036 0.
0.63402 0.0830372 0.
0.636021 0.0830386 0.
0.638022 0.08304 0.
0.640023 0.0830416 0.
0.642024 0.0830434 0.
0.644026 0.0830451 0.
0.646027 0.0830458 0.
0.648028 0.0830463 0.
0.650029 0.0830467 0.
0.652029 0.0830473 0.
0.654029 0.0830478 0.
0.65603 0.0830483 0.
0.658031 0.0830491 0.
0.660032 0.0830499 0.
0.662032 0.0830504 0.
0.664033 0.0830507 0.
0.666033 0.083051 0.
0.668034 0.0830522 0.
0.670035 0.0830539 0.
0.672036 0.0830556 0.
0.674036 0.0830569 0.
0.676036 0.0830581 0.
0.678037 0.0830594 0.
0.680037 0.0830605 0.
0.682038 0.0830615 0.
0.684038 0.0830631 0.
0.686039 0.0830654 0.
0.688039 0.0830677 0.
0.69004 0.0830695 0.
0.69204 0.0830709 0.
0.69404 0.0830723 0.
0.69604 0.0830741 0.
0.698041 0.0830759 0.
0.499956 0.0850699 0.
0.501956 0.0850681 0.
0.503955 0.0850663 0.
0.505955 0.0850646 0.
0.507955 0.0850634 0.
0.509956 0.0850621 0.
0.511957 0.0850606 0.
0.513958 0.0850588 0.
0.515958 0.0850569 0.
0.517959 0.0850555 0.
0.51996 0.0850543 0.
0.521961 0.0850532 0.
0.523962 0.0850525 0.
0.525962 0.0850518 0.
0.527963 0.0850511 0.
0.529963 0.0850507 0.
0.531964 0.0850502 0.
0.533965 0.0850493 0.
0.535966 0.0850476 0.
0.537967 0.085046 0.
0.539967 0.085045 0.
0.541967 0.0850447 0.
0.543967 0.0850443 0.
0.545968 0.0850434 0.
0.547968 0.0850423 0.
0.549969 0.0850411 0.
0.551971 0.0850402 0.
0.553973 0.0850392 0.
0.555974 0.0850382 0.
0.557975 0.0850375 0.
0.559975 0.0850368 0.
0.561976 0.0850363 0.
0.563977 0.0850359 0.
0.565979 0.0850355 0.
0.56798 0.0850348 0.
0.569981 0.085034 0.
0.571982 0.0850332 0.
0.573983 0.0850322 0.
0.575984 0.0850312 0.
0.577985 0.0850301 0.
0.579986 0.0850289 0.
0.581987 0.0850277 0.
0.583988 0.0850268 0.
0.585989 0.0850267 0.
0.58799 0.0850266 0.
0.589991 0.0850258 0.
0.591992 0.0850245 0.
0.593992 0.0850232 0.
0.595994 0.085023 0.
0.597995 0.085023 0.
0.599997 0.0850231 0.
0.601998 0.0850236 0.
0.603999 0.0850242 0.
0.606001 0.0850247 0.
0.608001 0.0850253 0.
0.610002 0.0850259 0.
0.612003 0.0850262 0.
0.614005 0.085026 0.
0.616006 0.0850259 0.
0.618007 0.0850267 0.
0.620008 0.0850279 0.
0.622009 0.0850292 0.
0.624012 0.0850308 0.
0.626014 0.0850324 0.
0.628017 0.085034 0.
0.630018 0.0850352 0.
0.632019 0.0850364 0.
0.63402 0.0850375 0.
0.636021 0.0850386 0.
0.638022 0.0850397 0.
0.640023 0.0850413 0.
0.642024 0.0850433 0.
0.644025 0.0850452 0.
0.646026 0.0850458 0.
0.648027 0.085046 0.
0.650027 0.0850462 0.
0.652028 0.085047 0.
0.654028 0.0850478 0.
0.656028 0.0850485 0.
0.65803 0.0850491 0.
0.660031 0.0850496 0.
0.662031 0.0850501 0.
0.664031 0.0850505 0.
0.666031 0.0850509 0.
0.668032 0.0850522 0.
0.670033 0.0850539 0.
0.672034 0.0850556 0.
0.674035 0.085057 0.
0.676035 0.0850585 0.
0.678036 0.0850598 0.
0.680036 0.0850607 0.
0.682037 0.0850616 0.
0.684037 0.0850631 0.
0.686038 0.0850655 0.
0.688038 0.0850678 0.
0.690038 0.0850696 0.
0.692038 0.0850711 0.
0.694039 0.0850725 0.
0.696039 0.085074 0.
0.698039 0.0850755 0.
0.499957 0.0870701 0.
0.501957 0.0870685 0.
0.503957 0.0870668 0.
0.505958 0.0870651 0.
0.507958 0.0870635 0.
0.509958 0.0870619 0.
0.511959 0.0870601 0.
0.513959 0.0870582 0.
0.51596 0.0870563 0.
0.517961 0.0870552 0.
0.519962 0.0870544 0.
0.521963 0.0870537 0.
0.523963 0.0870529 0.
0.525964 0.0870521 0.
0.527964 0.0870512 0.
0.529965 0.0870504 0.
0.531966 0.0870495 0.
0.533966 0.0870484 0.
0.535967 0.087047 0.
0.537968 0.0870455 0.
0.539968 0.0870447 0.
0.541968 0.0870444 0.
0.543968 0.0870441 0.
0.545969 0.0870431 0.
0.54797 0.0870419 0.
0.549971 0.0870407 0.
0.551972 0.0870399 0.
0.553974 0.087039 0.
0.555975 0.0870382 0.
0.557976 0.0870377 0.
0.559976 0.0870371 0.
0.561977 0.0870366 0.
0.563978 0.0870361 0.
0.565978 0.0870357 0.
0.56798 0.0870349 0.
0.569981 0.087034 0.
0.571983 0.0870331 0.
0.573984 0.087032 0.
0.575985 0.0870309 0.
0.577986 0.0870298 0.
0.579987 0.0870288 0.
0.581988 0.0870278 0.
0.583989 0.087027 0.
0.585989 0.0870266 0.
0.58799 0.0870261 0.
0.589991 0.0870253 0.
0.591992 0.0870242 0.
0.593992 0.087023 0.
0.595994 0.0870226 0.
0.597995 0.0870225 0.
0.599997 0.0870223 0.
0.601998 0.087023 0.
0.604 0.0870237 0.
0.606001 0.0870243 0.
0.608002 0.0870248 0.
0.610003 0.0870253 0.
0.612004 0.0870256 0.
0.614005 0.0870258 0.
0.616006 0.087026 0.
0.618007 0.0870268 0.
0.620008 0.0870279 0.
0.622009 0.0870291 0.
0.624011 0.0870304 0.
0.626013 0.0870318 0.
0.628015 0.0870331 0.
0.630016 0.0870346 0.
0.632018 0.087036 0.
0.634019 0.0870372 0.
0.63602 0.0870381 0.
0.638021 0.0870389 0.
0.640022 0.0870403 0.
0.642023 0.0870421 0.
0.644024 0.087044 0.
0.646025 0.0870449 0.
0.648026 0.0870456 0.
0.650026 0.0870463 0.
0.652027 0.087047 0.
0.654027 0.0870477 0.
0.656028 0.0870483 0.
0.658029 0.0870488 0.
0.66003 0.0870493 0.
0.66203 0.08705 0.
0.66403 0.087051 0.
0.666031 0.087052 0.
0.668031 0.087053 0.
0.670032 0.087054 0.
0.672033 0.0870551 0.
0.674033 0.0870566 0.
0.676033 0.0870582 0.
0.678033 0.0870598 0.
0.680034 0.0870608 0.
0.682034 0.0870618 0.
0.684034 0.0870632 0.
0.686035 0.0870656 0.
0.688035 0.087068 0.
0.690035 0.0870697 0.
0.692035 0.0870709 0.
0.694036 0.0870722 0.
0.696036 0.0870739 0.
0.698036 0.0870756 0.
0.499959 0.0890702 0.
0.501959 0.0890688 0.
0.50396 0.0890672 0.
0.50596 0.0890656 0.
0.507961 0.0890636 0.
0.509961 0.0890616 0.
0.511961 0.0890597 0.
0.513961 0.0890577 0.
0.515962 0.0890558 0.
0.517963 0.0890548 0.
0.519964 0.0890545 0.
0.521965 0.0890541 0.
0.523965 0.0890533 0.
0.525965 0.0890524 0.
0.527966 0.0890514 0.
0.529966 0.0890501 0.
0.531967 0.0890488 0.
0.533967 0.0890476 0.
0.535968 0.0890463 0.
0.537968 0.089045 0.
0.539969 0.0890443 0.
0.541969 0.089044 0.
0.543969 0.0890438 0.
0.54597 0.0890428 0.
0.547972 0.0890415 0.
0.549973 0.0890402 0.
0.551974 0.0890396 0.
0.553975 0.0890389 0.
0.555976 0.0890383 0.
0.557977 0.0890379 0.
0.559978 0.0890375 0.
0.561978 0.089037 0.
0.563978 0.0890364 0.
0.565978 0.0890358 0.
0.567979 0.089035 0.
0.569982 0.089034 0.
0.571984 0.089033 0.
0.573985 0.0890319 0.
0.575986 0.0890307 0.
0.577987 0.0890296 0.
0.579988 0.0890288 0.
0.581988 0.089028 0.
0.583989 0.0890272 0.
0.585989 0.0890264 0.
0.58799 0.0890256 0.
0.589991 0.0890248 0.
0.591992 0.0890238 0.
0.593993 0.0890228 0.
0.595994 0.0890223 0.
0.597995 0.0890219 0.
0.599997 0.0890215 0.
0.601999 0.0890223 0.
0.604 0.0890232 0.
0.606001 0.0890239 0.
0.608003 0.0890243 0.
0.610004 0.0890247 0.
0.612005 0.0890251 0.
0.614006 0.0890256 0.
0.616007 0.089026 0.
0.618007 0.0890269 0.
0.620008 0.0890279 0.
0.622009 0.0890289 0.
0.624011 0.08903 0.
0.626012 0.0890311 0.
0.628014 0.0890323 0.
0.630015 0.089034 0.
0.632016 0.0890357 0.
0.634018 0.089037 0.
0.636019 0.0890376 0.
0.63802 0.0890382 0.
0.640021 0.0890394 0.
0.642022 0.089041 0.
0.644023 0.0890427 0.
0.646024 0.0890439 0.
0.648025 0.0890451 0.
0.650025 0.0890463 0.
0.652026 0.0890469 0.
0.654027 0.0890475 0.
0.656028 0.0890481 0.
0.658028 0.0890485 0.
0.660029 0.089049 0.
0.662029 0.08905 0.
0.66403 0.0890515 0.
0.66603 0.089053 0.
0.668031 0.0890538 0.
0.670031 0.0890541 0.
0.672032 0.0890545 0.
0.674032 0.0890562 0.
0.676031 0.089058 0.
0.678031 0.0890598 0.
0.680031 0.0890609 0.
0.682031 0.0890619 0.
0.684031 0.0890634 0.
0.686032 0.0890657 0.
0.688032 0.0890681 0.
0.690032 0.0890697 0.
0.692033 0.0890708 0.
0.694033 0.0890719 0.
0.696033 0.0890737 0.
0.698034 0.0890757 0.
0.499961 0.0910701 0.
0.501961 0.091069 0.
0.503962 0.0910677 0.
0.505963 0.0910662 0.
0.507963 0.0910639 0.
0.509963 0.0910616 0.
0.511963 0.0910595 0.
0.513963 0.0910577 0.
0.515964 0.0910559 0.
0.517964 0.0910549 0.
0.519965 0.0910544 0.
0.521966 0.0910539 0.
0.523966 0.0910532 0.
0.525967 0.0910523 0.
0.527967 0.0910515 0.
0.529968 0.09105 0.
0.531968 0.0910485 0.
0.533968 0.0910471 0.
0.535969 0.0910457 0.
0.537969 0.0910444 0.
0.53997 0.0910436 0.
0.54197 0.0910434 0.
0.543971 0.0910433 0.
0.545972 0.0910423 0.
0.547973 0.091041 0.
0.549975 0.0910398 0.
0.551975 0.0910394 0.
0.553976 0.091039 0.
0.555977 0.0910386 0.
0.557978 0.0910381 0.
0.559979 0.0910377 0.
0.561979 0.0910371 0.
0.563979 0.0910364 0.
0.565979 0.0910356 0.
0.56798 0.0910348 0.
0.569982 0.0910338 0.
0.571984 0.0910329 0.
0.573985 0.0910316 0.
0.575986 0.0910303 0.
0.577988 0.0910291 0.
0.579988 0.0910285 0.
0.581989 0.0910279 0.
0.583989 0.0910271 0.
0.58599 0.091026 0.
0.58799 0.0910249 0.
0.589991 0.091024 0.
0.591992 0.0910231 0.
0.593993 0.0910223 0.
0.595994 0.0910217 0.
0.597996 0.0910211 0.
0.599997 0.0910206 0.
0.601998 0.0910217 0.
0.604 0.0910228 0.
0.606001 0.0910236 0.
0.608002 0.0910239 0.
0.610003 0.0910241 0.
0.612004 0.0910244 0.
0.614005 0.091025 0.
0.616006 0.0910256 0.
0.618007 0.0910266 0.
0.620008 0.0910278 0.
0.622008 0.0910289 0.
0.62401 0.0910298 0.
0.626011 0.0910307 0.
0.628012 0.0910317 0.
0.630014 0.0910333 0.
0.632015 0.0910349 0.
0.634016 0.0910363 0.
0.636018 0.0910372 0.
0.638019 0.0910381 0.
0.64002 0.0910392 0.
0.64202 0.0910404 0.
0.644021 0.0910417 0.
0.646022 0.0910431 0.
0.648023 0.0910445 0.
0.650023 0.0910459 0.
0.652024 0.0910464 0.
0.654025 0.091047 0.
0.656026 0.0910476 0.
0.658026 0.0910483 0.
0.660027 0.091049 0.
0.662027 0.0910502 0.
0.664028 0.0910518 0.
0.666029 0.0910534 0.
0.66803 0.091054 0.
0.67003 0.0910541 0.
0.67203 0.0910542 0.
0.67403 0.0910561 0.
0.67603 0.0910583 0.
0.678029 0.0910603 0.
0.680029 0.0910611 0.
0.682029 0.0910619 0.
0.684029 0.0910632 0.
0.686029 0.0910655 0.
0.68803 0.0910678 0.
0.69003 0.0910695 0.
0.69203 0.0910706 0.
0.69403 0.0910717 0.
0.696031 0.0910735 0.
0.698031 0.0910755 0.
0.499962 0.0930704 0.
0.501963 0.0930691 0.
0.503964 0.0930681 0.
0.505964 0.0930669 0.
0.507965 0.0930644 0.
0.509965 0.0930619 0.
0.511965 0.0930598 0.
0.513966 0.0930581 0.
0.515966 0.0930565 0.
0.517966 0.0930552 0.
0.519967 0.0930541 0.
0.521967 0.093053 0.
0.523968 0.0930525 0.
0.525968 0.0930521 0.
0.527969 0.0930515 0.
0.529969 0.09305 0.
0.531969 0.0930485 0.
0.533969 0.0930469 0.
0.53597 0.0930452 0.
0.537971 0.0930436 0.
0.539971 0.0930427 0.
0.541972 0.0930426 0.
0.543973 0.0930424 0.
0.545974 0.0930416 0.
0.547975 0.0930405 0.
0.549975 0.0930394 0.
0.551976 0.0930394 0.
0.553977 0.0930393 0.
0.555978 0.0930392 0.
0.557979 0.0930385 0.
0.55998 0.0930378 0.
0.56198 0.093037 0.
0.56398 0.093036 0.
0.56598 0.0930351 0.
0.567981 0.0930343 0.
0.569982 0.0930334 0.
0.571983 0.0930326 0.
0.573985 0.0930312 0.
0.575986 0.0930297 0.
0.577988 0.0930283 0.
0.579989 0.0930279 0.
0.581989 0.0930276 0.
0.58399 0.0930269 0.
0.585991 0.0930254 0.
0.587991 0.093024 0.
0.589992 0.0930229 0.
0.591993 0.0930222 0.
0.593994 0.0930216 0.
0.595995 0.0930209 0.
0.597996 0.0930202 0.
0.599997 0.0930196 0.
0.601998 0.093021 0.
0.603999 0.0930224 0.
0.606 0.0930235 0.
0.608001 0.0930235 0.
0.610002 0.0930235 0.
0.612002 0.0930237 0.
0.614003 0.0930242 0.
0.616004 0.0930247 0.
0.618005 0.0930259 0.
0.620006 0.0930275 0.
0.622007 0.0930291 0.
0.624009 0.0930298 0.
0.62601 0.0930305 0.
0.628012 0.0930312 0.
0.630013 0.0930325 0.
0.632014 0.0930337 0.
0.634015 0.0930351 0.
0.636015 0.0930368 0.
0.638016 0.0930385 0.
0.640017 0.0930397 0.
0.642018 0.0930404 0.
0.644019 0.0930411 0.
0.646019 0.0930423 0.
0.64802 0.0930437 0.
0.650021 0.093045 0.
0.652022 0.0930456 0.
0.654023 0.0930463 0.
0.656023 0.093047 0.
0.658024 0.0930482 0.
0.660024 0.0930494 0.
0.662025 0.0930506 0.
0.664026 0.0930519 0.
0.666027 0.0930531 0.
0.668028 0.0930537 0.
0.670028 0.0930539 0.
0.672028 0.0930541 0.
0.674028 0.0930564 0.
0.676028 0.0930589 0.
0.678028 0.0930612 0.
0.680028 0.0930615 0.
0.682028 0.0930618 0.
0.684028 0.0930628 0.
0.686028 0.093065 0.
0.688028 0.0930672 0.
0.690028 0.093069 0.
0.692028 0.0930703 0.
0.694028 0.0930716 0.
0.696029 0.0930732 0.
0.69803 0.0930749 0.
0.499965 0.0950701 0.
0.501965 0.0950691 0.
0.503966 0.0950685 0.
0.505966 0.0950675 0.
0.507967 0.0950648 0.
0.509967 0.0950621 0.
0.511967 0.09506 0.
0.513968 0.0950585 0.
0.515968 0.0950571 0.
0.517969 0.0950555 0.
0.519968 0.0950538 0.
0.521968 0.0950522 0.
0.523969 0.0950519 0.
0.52597 0.0950518 0.
0.52797 0.0950516 0.
0.52997 0.09505 0.
0.53197 0.0950484 0.
0.533971 0.0950467 0.
0.535971 0.0950448 0.
0.537972 0.0950428 0.
0.539973 0.0950418 0.
0.541974 0.0950417 0.
0.543975 0.0950416 0.
0.545976 0.0950409 0.
0.547976 0.0950399 0.
0.549976 0.095039 0.
0.551977 0.0950394 0.
0.553978 0.0950397 0.
0.555979 0.0950397 0.
0.55798 0.0950388 0.
0.55998 0.0950379 0.
0.561981 0.0950369 0.
0.563982 0.0950357 0.
0.565982 0.0950346 0.
0.567982 0.0950338 0.
0.569983 0.0950331 0.
0.571983 0.0950324 0.
0.573985 0.0950308 0.
0.575986 0.0950291 0.
0.577988 0.0950275 0.
0.579989 0.0950274 0.
0.58199 0.0950273 0.
0.583991 0.0950266 0.
0.585992 0.0950248 0.
0.587992 0.095023 0.
0.589993 0.0950219 0.
0.591994 0.0950213 0.
0.593994 0.0950208 0.
0.595995 0.0950201 0.
0.597996 0.0950194 0.
0.599996 0.0950186 0.
0.601997 0.0950204 0.
0.603998 0.0950221 0.
0.605999 0.0950234 0.
0.607999 0.0950232 0.
0.61 0.0950229 0.
0.612001 0.0950229 0.
0.614002 0.0950233 0.
0.616002 0.0950237 0.
0.618003 0.0950253 0.
0.620005 0.0950273 0.
0.622006 0.0950293 0.
0.624007 0.0950299 0.
0.626009 0.0950303 0.
0.628011 0.0950308 0.
0.630011 0.0950317 0.
0.632012 0.0950326 0.
0.634013 0.095034 0.
0.636013 0.0950365 0.
0.638013 0.095039 0.
0.640014 0.0950402 0.
0.642015 0.0950404 0.
0.644016 0.0950405 0.
0.646017 0.0950415 0.
0.648017 0.0950429 0.
0.650018 0.0950442 0.
0.652019 0.0950449 0.
0.65402 0.0950455 0.
0.656021 0.0950464 0.
0.658021 0.0950481 0.
0.660022 0.0950497 0.
0.662023 0.0950511 0.
0.664024 0.095052 0.
0.666026 0.0950528 0.
0.668026 0.0950533 0.
0.670026 0.0950537 0.
0.672026 0.0950541 0.
0.674027 0.0950567 0.
0.676027 0.0950596 0.
0.678027 0.0950621 0.
0.680027 0.0950619 0.
0.682027 0.0950617 0.
0.684027 0.0950623 0.
0.686026 0.0950645 0.
0.688026 0.0950667 0.
0.690026 0.0950685 0.
0.692026 0.09507 0.
0.694026 0.0950714 0.
0.696027 0.0950729 0.
0.698028 0.0950743 0.
0.499967 0.0970707 0.
0.501967 0.0970693 0.
0.503968 0.0970683 0.
0.505968 0.0970669 0.
0.507969 0.0970642 0.
0.509969 0.0970615 0.
0.511969 0.0970594 0.
0.51397 0.0970582 0.
0.51597 0.097057 0.
0.51797 0.0970555 0.
0.51997 0.0970539 0.
0.52197 0.0970522 0.
0.52397 0.097052 0.
0.525971 0.097052 0.
0.527972 0.0970518 0.
0.529972 0.0970503 0.
0.531973 0.0970488 0.
0.533973 0.0970471 0.
0.535973 0.0970449 0.
0.537973 0.0970427 0.
0.539973 0.0970416 0.
0.541974 0.0970415 0.
0.543975 0.0970414 0.
0.545975 0.0970407 0.
0.547976 0.0970397 0.
0.549976 0.0970388 0.
0.551978 0.0970389 0.
0.553979 0.097039 0.
0.55598 0.0970389 0.
0.55798 0.0970382 0.
0.55998 0.0970376 0.
0.561981 0.0970368 0.
0.563982 0.0970357 0.
0.565983 0.0970346 0.
0.567984 0.0970336 0.
0.569984 0.0970325 0.
0.571985 0.0970315 0.
0.573986 0.0970302 0.
0.575987 0.0970289 0.
0.577989 0.0970276 0.
0.57999 0.0970271 0.
0.581991 0.0970266 0.
0.583992 0.0970258 0.
0.585993 0.0970241 0.
0.587993 0.0970225 0.
0.589994 0.0970214 0.
0.591994 0.0970209 0.
0.593995 0.0970203 0.
0.595995 0.09702 0.
0.597995 0.0970197 0.
0.599996 0.0970193 0.
0.601997 0.0970205 0.
0.603998 0.0970216 0.
0.605999 0.0970225 0.
0.607999 0.0970225 0.
0.61 0.0970225 0.
0.612 0.0970227 0.
0.614001 0.0970229 0.
0.616001 0.0970232 0.
0.618002 0.0970247 0.
0.620003 0.0970267 0.
0.622004 0.0970287 0.
0.624006 0.0970292 0.
0.626007 0.0970294 0.
0.628008 0.0970298 0.
0.630009 0.0970312 0.
0.63201 0.0970326 0.
0.634011 0.0970343 0.
0.636012 0.0970366 0.
0.638013 0.0970389 0.
0.640013 0.0970401 0.
0.642015 0.0970405 0.
0.644016 0.0970409 0.
0.646016 0.0970418 0.
0.648016 0.0970428 0.
0.650017 0.0970439 0.
0.652017 0.0970446 0.
0.654018 0.0970453 0.
0.656019 0.0970462 0.
0.65802 0.0970477 0.
0.660021 0.0970492 0.
0.662022 0.0970506 0.
0.664023 0.0970519 0.
0.666024 0.0970532 0.
0.668025 0.0970537 0.
0.670025 0.0970538 0.
0.672026 0.097054 0.
0.674026 0.0970567 0.
0.676027 0.0970596 0.
0.678027 0.0970621 0.
0.680027 0.0970621 0.
0.682026 0.097062 0.
0.684026 0.0970627 0.
0.686026 0.0970649 0.
0.688026 0.097067 0.
0.690025 0.0970687 0.
0.692025 0.0970701 0.
0.694025 0.0970715 0.
0.696025 0.0970729 0.
0.698025 0.0970744 0.
0.499969 0.0990713 0.
0.50197 0.0990696 0.
0.50397 0.099068 0.
0.50597 0.0990663 0.
0.507971 0.0990636 0.
0.509971 0.0990608 0.
0.511972 0.0990589 0.
0.513971 0.099058 0.
0.515971 0.099057 0.
0.517971 0.0990556 0.
0.519971 0.0990539 0.
0.521972 0.0990522 0.
0.523972 0.099052 0.
0.525973 0.0990521 0.
0.527973 0.0990521 0.
0.529974 0.0990507 0.
0.531975 0.0990492 0.
0.533976 0.0990474 0.
0.535975 0.099045 0.
0.537974 0.0990425 0.
0.539974 0.0990414 0.
0.541974 0.0990413 0.
0.543974 0.0990412 0.
0.545975 0.0990404 0.
0.547976 0.0990395 0.
0.549977 0.0990386 0.
0.551978 0.0990384 0.
0.553979 0.0990382 0.
0.55598 0.099038 0.
0.55798 0.0990377 0.
0.55998 0.0990373 0.
0.561981 0.0990367 0.
0.563983 0.0990357 0.
0.565984 0.0990347 0.
0.567985 0.0990334 0.
0.569985 0.0990319 0.
0.571986 0.0990305 0.
0.573987 0.0990296 0.
0.575988 0.0990287 0.
0.57799 0.0990277 0.
0.579991 0.0990269 0.
0.581992 0.099026 0.
0.583993 0.099025 0.
0.585994 0.0990234 0.
0.587994 0.0990219 0.
0.589994 0.099021 0.
0.591995 0.0990204 0.
0.593996 0.0990198 0.
0.595996 0.0990199 0.
0.597995 0.09902 0.
0.599995 0.0990201 0.
0.601996 0.0990206 0.
0.603998 0.0990211 0.
0.605999 0.0990216 0.
0.607999 0.0990219 0.
0.609999 0.0990222 0.
0.612 0.0990224 0.
0.614 0.0990226 0.
0.616 0.0990227 0.
0.618001 0.0990241 0.
0.620002 0.0990262 0.
0.622003 0.0990282 0.
0.624004 0.0990285 0.
0.626005 0.0990286 0.
0.628006 0.0990288 0.
0.630007 0.0990307 0.
0.632008 0.0990326 0.
0.63401 0.0990346 0.
0.636011 0.0990367 0.
0.638012 0.0990388 0.
0.640013 0.0990401 0.
0.642014 0.0990407 0.
0.644015 0.0990413 0.
0.646016 0.099042 0.
0.648016 0.0990428 0.
0.650016 0.0990436 0.
0.652016 0.0990444 0.
0.654016 0.0990451 0.
0.656017 0.099046 0.
0.658018 0.0990474 0.
0.66002 0.0990487 0.
0.662021 0.0990502 0.
0.664022 0.0990518 0.
0.666023 0.0990535 0.
0.668024 0.099054 0.
0.670025 0.099054 0.
0.672026 0.099054 0.
0.674026 0.0990566 0.
0.676026 0.0990595 0.
0.678026 0.0990621 0.
0.680026 0.0990622 0.
0.682026 0.0990623 0.
0.684025 0.0990631 0.
0.686025 0.0990652 0.
0.688025 0.0990674 0.
0.690024 0.099069 0.
0.692024 0.0990703 0.
0.694024 0.0990715 0.
0.696024 0.099073 0.
0.698023 0.0990745 0.
CELLS 5000 10000
1 0
1 1
1 2
1 3
1 4
1 5
1 6
1 7
1 8
1 9
1 10
1 11
1 12
1 13
1 14
1 15
1 16
1 17
1 18
1 19
1 20
1 21
1 22
1 23
1 24
1 25
1 26
1 27
1 28
1 29
1 30
1 31
1 32
1 33
1 34
1 35
1 36
1 37
1 38
1 39
1 40
1 41
1 42
1 43
1 44
1 45
1 46
1 47
1 48
1 49
1 50
1 51
1 52
1 53
1 54
1 55
1 56
1 57
1 58
1 59
1 60
1 61
1 62
1 63
1 64
1 65
1 66
1 67
1 68
1 69
1 70
1 71
1 72
1 73
1 74
1 75
1 76
1 77
1 78
1 79
1 80
1 81
1 82
1 83
1 84
1 85
1 86
1 87
1 88
1 89
1 90
1 91
1 92
1 93
1 94
1 95
1 96
1 97
1 98
1 99
1 100
1 101
1 102
1 103
1 104
1 105
1 106
1 107
1 108
1 109
1 110
1 111
1 112
1 113
1 114
1 115
1 116
1 117
1 118
1 119
1 120
1 121
1 122
1 123
1 124
1 125
1 126
1 127
1 128
1 129
1 130
1 131
1 132
1 133
1 134
1 135
1 136
1 137
1 138
1 139
1 140
1 141
1 142
1 143
1 144
1 145
1 146
1 147
1 148
1 149
1 150
1 151
1 152
1 153
1 154
1 155
1 156
1 157
1 158
1 159
1 160
1 161
1 162
1 163
1 164
1 165
1 166
1 167
1 168
1 169
1 170
1 171
1 172
1 173
1 174
1 175
1 176
1 177
1 178
1 179
1 180
1 181
1 182
1 183
1 184
1 185
1 186
1 187
1 188
1 189
1 190
1 191
1 192
1 193
1 194
1 195
1 196
1 197
1 198
1 199
1 200
1 201
1 202
1 203
1 204
1 205
1 206
1 207
1 208
1 209
1 210
1 211
1 212
1 213
1 214
1 215
1 216
1 217
1 218
1 219
1 220
1 221
1 222
1 223
1 224
1 225
1 226
1 227
1 228
1 229
1 230
1 231
1 232
1 233
1 234
1 235
1 236
1 237
1 238
1 239
1 240
1 241
1 242
1 243
1 244
1 245
1 246
1 247
1 248
1 249
1 250
1 251
1 252
1 253
1 254
1 255
1 256
1 257
1 258
1 259
1 260
1 261
1 262
1 263
1 264
1 265
1 266
1 267
1 268
1 269
1 270
1 271
1 272
1 273
1 274
1 275
1 276
1 277
1 278
1 279
1 280
1 281
1 282
1 283
1 284
1 285
1 286
1 287
1 288
1 289
1 290
1 291
1 292
1 293
1 294
1 295
1 296
1 297
1 298
1 299
1 300
1 301
1 302
1 303
1 304
1 305
1 306
1 307
1 308
1 309
1 310
1 311
1 312
1 313
1 314
1 315
1 316
1 317
1 318
1 319
1 320
1 321
1 322
1 323
1 324
1 325
1 326
1 327
1 328
1 329
1 330
1 331
1 332
1 333
1 334
1 335
1 336
1 337
1 338
1 339
1 340
1 341
1 342
1 343
1 344
1 345
1 346
1 347
1 348
1 349
1 350
1 351
1 352
1 353
1 354
1 355
1 356
1 357
1 358
1 359
1 360
1 361
1 362
1 363
1 364
1 365
1 366
1 367
1 368
1 369
1 370
1 371
1 372
1 373
1 374
1 375
1 376
1 377
1 378
1 379
1 380
1 381
1 382
1 383
1 384
1 385
1 386
1 387
1 388
1 389
1 390
1 391
1 392
1 393
1 394
1 395
1 396
1 397
1 398
1 399
1 400
1 401
1 402
1 403
1 404
1 405
1 406
1 407
1 408
1 409
1 410
1 411
1 412
1 413
1 414
1 415
1 416
1 417
1 418
1 419
1 420
1 421
1 422
1 423
1 424
1 425
1 426
1 427
1 428
1 429
1 430
1 431
1 432
1 433
1 434
1 435
1 436
1 437
1 438
1 439
1 440
1 441
1 442
1 443
1 444
1 445
1 446
1 447
1 448
1 449
1 450
1 451
1 452
1 453
1 454
1 455
1 456
1 457
1 458
1 459
1 460
1 461
1 462
1 463
1 464
1 465
1 466
1 467
1 468
1 469
1 470
1 471
1 472
1 473
1 474
1 475
1 476
1 477
1 478
1 479
1 480
1 481
1 482
1 483
1 484
1 485
1 486
1 487
1 488
1 489
1 490
1 491
1 492
1 493
1 494
1 495
1 496
1 497
1 498
1 499
1 500
1 501
1 502
1 503
1 504
1 505
1 506
1 507
1 508
1 509
1 510
1 511
1 512
1 513
1 514
1 515
1 516
1 517
1 518
1 519
1 520
1 521
1 522
1 523
1 524
1 525
1 526
1 527
1 528
1 529
1 530
1 531
1 532
1 533
1 534
1 535
1 536
1 537
1 538
1 539
1 540
1 541
1 542
1 543
1 544
1 545
1 546
1 547
1 548
1 549
1 550
1 551
1 552
1 553
1 554
1 555
1 556
1 557
1 558
1 559
1 560
1 561
1 562
1 563
1 564
1 565
1 566
1 567
1 568
1 569
1 570
1 571
1 572
1 573
1 574
1 575
1 576
1 577
1 578
1 579
1 580
1 581
1 582
1 583
1 584
1 585
1 586
1 587
1 588
1 589
1 590
1 591
1 592
1 593
1 594
1 595
1 596
1 597
1 598
1 599
1 600
1 601
1 602
1 603
1 604
1 605
1 606
1 607
1 608
1 609
1 610
1 611
1 612
1 613
1 614
1 615
1 616
1 617
1 618
1 619
1 620
1 621
1 622
1 623
1 624
1 625
1 626
1 627
1 628
1 629
1 630
1 631
1 632
1 633
1 634
1 635
1 636
1 637
1 638
1 639
1 640
1 641
1 642
1 643
1 644
1 645
1 646
1 647
1 648
1 649
1 650
1 651
1 652
1 653
1 654
1 655
1 656
1 657
1 658
1 659
1 660
1 661
1 662
1 663
1 664
1 665
1 666
1 667
1 668
1 669
1 670
1 671
1 672
1 673
1 674
1 675
1 676
1 677
1 678
1 679
1 680
1 681
1 682
1 683
1 684
1 685
1 686
1 687
1 688
1 689
1 690
1 691
1 692
1 693
1 694
1 695
1 696
1 697
1 698
1 699
1 700
1 701
1 702
1 703
1 704
1 705
1 706
1 707
1 708
1 709
1 710
1 711
1 712
1 713
1 714
1 715
1 716
1 717
1 718
1 719
1 720
1 721
1 722
1 723
1 724
1 725
1 726
1 727
1 728
1 729
1 730
1 731
1 732
1 733
1 734
1 735
1 736
1 737
1 738
1 739
1 740
1 741
1 742
1 743
1 744
1 745
1 746
1 747
1 748
1 749
1 750
1 751
1 752
1 753
1 754
1 755
1 756
1 757
1 758
1 759
1 760
1 761
1 762
1 763
1 764
1 765
1 766
1 767
1 768
1 769
1 770
1 771
1 772
1 773
1 774
1 775
1 776
1 777
1 778
1 779
1 780
1 781
1 782
1 783
1 784
1 785
1 786
1 787
1 788
1 789
1 790
1 791
1 792
1 793
1 794
1 795
1 796
1 797
1 798
1 799
1 800
1 801
1 802
1 803
1 804
1 805
1 806
1 807
1 808
1 809
1 810
1 811
1 812
1 813
1 814
1 815
1 816
1 817
1 818
1 819
1 820
1 821
1 822
1 823
1 824
1 825
1 826
1 827
1 828
1 829
1 830
1 831
1 832
1 833
1 834
1 835
1 836
1 837
1 838
1 839
1 840
1 841
1 842
1 843
1 844
1 845
1 846
1 847
1 848
1 849
1 850
1 851
1 852
1 853
1 854
1 855
1 856
1 857
1 858
1 859
1 860
1 861
1 862
1 863
1 864
1 865
1 866
1 867
1 868
1 869
1 870
1 871
1 872
1 873
1 874
1 875
1 876
1 877
1 878
1 879
1 880
1 881
1 882
1 883
1 884
1 885
1 886
1 887
1 888
1 889
1 890
1 891
1 892
1 893
1 894
1 895
1 896
1 897
1 898
1 899
1 900
1 901
1 902
1 903
1 904
1 905
1 906
1 907
1 908
1 909
1 910
1 911
1 912
1 913
1 914
1 915
1 916
1 917
1 918
1 919
1 920
1 921
1 922
1 923
1 924
1 925
1 926
1 927
1 928
1 929
1 930
1 931
1 932
1 933
1 934
1 935
1 936
1 937
1 938
1 939
1 940
1 941
1 942
1 943
1 944
1 945
1 946
1 947
1 948
1 949
1 950
1 951
1 952
1 953
1 954
1 955
1 956
1 957
1 958
1 959
1 960
1 961
1 962
1 963
1 964
1 965
1 966
1 967
1 968
1 969
1 970
1 971
1 972
1 973
1 974
1 975
1 976
1 977
1 978
1 979
1 980
1 981
1 982
1 983
1 984
1 985
1 986
1 987
1 988
1 989
1 990
1 991
1 992
1 993
1 994
1 995
1 996
1 997
1 998
1 999
1 1000
1 1001
1 1002
1 1003
1 1004
1 1005
1 1006
1 1007
1 1008
1 1009
1 1010
1 1011
1 1012
1 1013
1 1014
1 1015
1 1016
1 1017
1 1018
1 1019
1 1020
1 1021
1 1022
1 1023
1 1024
1 1025
1 1026
1 1027
1 1028
1 1029
1 1030
1 1031
1 1032
1 1033
1 1034
1 1035
1 1036
1 1037
1 1038
1 1039
1 1040
1 1041
1 1042
1 1043
1 1044
1 1045
1 1046
1 1047
1 1048
1 1049
1 1050
1 1051
1 1052
1 1053
1 1054
1 1055
1 1056
1 1057
1 1058
1 1059
1 1060
1 1061
1 1062
1 1063
1 1064
1 1065
1 1066
1 1067
1 1068
1 1069
1 1070
1 1071
1 1072
1 1073
1 1074
1 1075
1 1076
1 1077
1 1078
1 1079
1 1080
1 1081
1 1082
1 1083
1 1084
1 1085
1 1086
1 1087
1 1088
1 1089
1 1090
1 1091
1 1092
1 1093
1 1094
1 1095
1 1096
1 1097
1 1098
1 1099
1 1100
1 1101
1 1102
1 1103
1 1104
1 1105
1 1106
1 1107
1 1108
1 1109
1 1110
1 1111
1 1112
1 1113
1 1114
1 1115
1 1116
1 1117
1 1118
1 1119
1 1120
1 1121
1 1122
1 1123
1 1124
1 1125
1 1126
1 1127
1 1128
1 1129
1 1130
1 1131
1 1132
1 1133
1 1134
1 1135
1 1136
1 1137
1 1138
1 1139
1 1140
1 1141
1 1142
1 1143
1 1144
1 1145
1 1146
1 1147
1 1148
1 1149
1 1150
1 1151
1 1152
1 1153
1 1154
1 1155
1 1156
1 1157
1 1158
1 1159
1 1160
1 1161
1 1162
1 1163
1 1164
1 1165
1 1166
1 1167
1 1168
1 1169
1 1170
1 1171
1 1172
1 1173
1 1174
1 1175
1 1176
1 1177
1 1178
1 1179
1 1180
1 1181
1 1182
1 1183
1 1184
1 1185
1 1186
1 1187
1 1188
1 1189
1 1190
1 1191
1 1192
1 1193
1 1194
1 1195
1 1196
1 1197
1 1198
1 1199
1 1200
1 1201
1 1202
1 1203
1 1204
1 1205
1 1206
1 1207
1 1208
1 1209
1 1210
1 1211
1 1212
1 1213
1 1214
1 1215
1 1216
1 1217
1 1218
1 1219
1 1220
1 1221
1 1222
1 1223
1 1224
1 1225
1 1226
1 1227
1 1228
1 1229
1 1230
1 1231
1 1232
1 1233
1 1234
1 1235
1 1236
1 1237
1 1238
1 1239
1 1240
1 1241
1 1242
1 1243
1 1244
1 1245
1 1246
1 1247
1 1248
1 1249
1 1250
1 1251
1 1252
1 1253
1 1254
1 1255
1 1256
1 1257
1 1258
1 1259
1 1260
1 1261
1 1262
1 1263
1 1264
1 1265
1 1266
1 1267
1 1268
1 1269
1 1270
1 1271
1 1272
1 1273
1 1274
1 1275
1 1276
1 1277
1 1278
1 1279
1 1280
1 1281
1 1282
1 1283
1 1284
1 1285
1 1286
1 1287
1 1288
1 1289
1 1290
1 1291
1 1292
1 1293
1 1294
1 1295
1 1296
1 1297
1 1298
1 1299
1 1300
1 1301
1 1302
1 1303
1 1304
1 1305
1 1306
1 1307
1 1308
1 1309
1 1310
1 1311
1 1312
1 1313
1 1314
1 1315
1 1316
1 1317
1 1318
1 1319
1 1320
1 1321
1 1322
1 1323
1 1324
1 1325
1 1326
1 1327
1 1328
1 1329
1 1330
1 1331
1 1332
1 1333
1 1334
1 1335
1 1336
1 1337
1 1338
1 1339
1 1340
1 1341
1 1342
1 1343
1 1344
1 1345
1 1346
1 1347
1 1348
1 1349
1 1350
1 1351
1 1352
1 1353
1 1354
1 1355
1 1356
1 1357
1 1358
1 1359
1 1360
1 1361
1 1362
1 1363
1 1364
1 1365
1 1366
1 1367
1 1368
1 1369
1 1370
1 1371
1 1372
1 1373
1 1374
1 1375
1 1376
1 1377
1 1378
1 1379
1 1380
1 1381
1 1382
1 1383
1 1384
1 1385
1 1386
1 1387
1 1388
1 1389
1 1390
1 1391
1 1392
1 1393
1 1394
1 1395
1 1396
1 1397
1 1398
1 1399
1 1400
1 1401
1 1402
1 1403
1 1404
1 1405
1 1406
1 1407
1 1408
1 1409
1 1410
1 1411
1 1412
1 1413
1 1414
1 1415
1 1416
1 1417
1 1418
1 1419
1 1420
1 1421
1 1422
1 1423
1 1424
1 1425
1 1426
1 1427
1 1428
1 1429
1 1430
1 1431
1 1432
1 1433
1 1434
1 1435
1 1436
1 1437
1 1438
1 1439
1 1440
1 1441
1 1442
1 1443
1 1444
1 1445
1 1446
1 1447
1 1448
1 1449
1 1450
1 1451
1 1452
1 1453
1 1454
1 1455
1 1456
1 1457
1 1458
1 1459
1 1460
1 1461
1 1462
1 1463
1 1464
1 1465
1 1466
1 1467
1 1468
1 1469
1 1470
1 1471
1 1472
1 1473
1 1474
1 1475
1 1476
1 1477
1 1478
1 1479
1 1480
1 1481
1 1482
1 1483
1 1484
1 1485
1 1486
1 1487
1 1488
1 1489
1 1490
1 1491
1 1492
1 1493
1 1494
1 1495
1 1496
1 1497
1 1498
1 1499
1 1500
1 1501
1 1502
1 1503
1 1504
1 1505
1 1506
1 1507
1 1508
1 1509
1 1510
1 1511
1 1512
1 1513
1 1514
1 1515
1 1516
1 1517
1 1518
1 1519
1 1520
1 1521
1 1522
1 1523
1 1524
1 1525
1 1526
1 1527
1 1528
1 1529
1 1530
1 1531
1 1532
1 1533
1 1534
1 1535
1 1536
1 1537
1 1538
1 1539
1 1540
1 1541
1 1542
1 1543
1 1544
1 1545
1 1546
1 1547
1 1548
1 1549
1 1550
1 1551
1 1552
1 1553
1 1554
1 1555
1 1556
1 1557
1 1558
1 1559
1 1560
1 1561
1 1562
1 1563
1 1564
1 1565
1 1566
1 1567
1 1568
1 1569
1 1570
1 1571
1 1572
1 1573
1 1574
1 1575
1 1576
1 1577
1 1578
1 1579
1 1580
1 1581
1 1582
1 1583
1 1584
1 1585
1 1586
1 1587
1 1588
1 1589
1 1590
1 1591
1 1592
1 1593
1 1594
1 1595
1 1596
1 1597
1 1598
1 1599
1 1600
1 1601
1 1602
1 1603
1 1604
1 1605
1 1606
1 1607
1 1608
1 1609
1 1610
1 1611
1 1612
1 1613
1 1614
1 1615
1 1616
1 1617
1 1618
1 1619
1 1620
1 1621
1 1622
1 1623
1 1624
1 1625
1 1626
1 1627
1 1628
1 1629
1 1630
1 1631
1 1632
1 1633
1 1634
1 1635
1 1636
1 1637
1 1638
1 1639
1 1640
1 1641
1 1642
1 1643
1 1644
1 1645
1 1646
1 1647
1 1648
1 1649
1 1650
1 1651
1 1652
1 1653
1 1654
1 1655
1 1656
1 1657
1 1658
1 1659
1 1660
1 1661
1 1662
1 1663
1 1664
1 1665
1 1666
1 1667
1 1668
1 1669
1 1670
1 1671
1 1672
1 1673
1 1674
1 1675
1 1676
1 1677
1 1678
1 1679
1 1680
1 1681
1 1682
1 1683
1 1684
1 1685
1 1686
1 1687
1 1688
1 1689
1 1690
1 1691
1 1692
1 1693
1 1694
1 1695
1 1696
1 1697
1 1698
1 1699
1 1700
1 1701
1 1702
1 1703
1 1704
1 1705
1 1706
1 1707
1 1708
1 1709
1 1710
1 1711
1 1712
1 1713
1 1714
1 1715
1 1716
1 1717
1 1718
1 1719
1 1720
1 1721
1 1722
1 1723
1 1724
1 1725
1 1726
1 1727
1 1728
1 1729
1 1730
1 1731
1 1732
1 1733
1 1734
1 1735
1 1736
1 1737
1 1738
1 1739
1 1740
1 1741
1 1742
1 1743
1 1744
1 1745
1 1746
1 1747
1 1748
1 1749
1 1750
1 1751
1 1752
1 1753
1 1754
1 1755
1 1756
1 1757
1 1758
1 1759
1 1760
1 1761
1 1762
1 1763
1 1764
1 1765
1 1766
1 1767
1 1768
1 1769
1 1770
1 1771
1 1772
1 1773
1 1774
1 1775
1 1776
1 1777
1 1778
1 1779
1 1780
1 1781
1 1782
1 1783
1 1784
1 1785
1 1786
1 1787
1 1788
1 1789
1 1790
1 1791
1 1792
1 1793
1 1794
1 1795
1 1796
1 1797
1 1798
1 1799
1 1800
1 1801
1 1802
1 1803
1 1804
1 1805
1 1806
1 1807
1 1808
1 1809
1 1810
1 1811
1 1812
1 1813
1 1814
1 1815
1 1816
1 1817
1 1818
1 1819
1 1820
1 1821
1 1822
1 1823
1 1824
1 1825
1 1826
1 1827
1 1828
1 1829
1 1830
1 1831
1 1832
1 1833
1 1834
1 1835
1 1836
1 1837
1 1838
1 1839
1 1840
1 1841
1 1842
1 1843
1 1844
1 1845
1 1846
1 1847
1 1848
1 1849
1 1850
1 1851
1 1852
1 1853
1 1854
1 1855
1 1856
1 1857
1 1858
1 1859
1 1860
1 1861
1 1862
1 1863
1 1864
1 1865
1 1866
1 1867
1 1868
1 1869
1 1870
1 1871
1 1872
1 1873
1 1874
1 1875
1 1876
1 1877
1 1878
1 1879
1 1880
1 1881
1 1882
1 1883
1 1884
1 1885
1 1886
1 1887
1 1888
1 1889
1 1890
1 1891
1 1892
1 1893
1 1894
1 1895
1 1896
1 1897
1 1898
1 1899
1 1900
1 1901
1 1902
1 1903
1 1904
1 1905
1 1906
1 1907
1 1908
1 1909
1 1910
1 1911
1 1912
1 1913
1 1914
1 1915
1 1916
1 1917
1 1918
1 1919
1 1920
1 1921
1 1922
1 1923
1 1924
1 1925
1 1926
1 1927
1 1928
1 1929
1 1930
1 1931
1 1932
1 1933
1 1934
1 1935
1 1936
1 1937
1 1938
1 1939
1 1940
1 1941
1 1942
1 1943
1 1944
1 1945
1 1946
1 1947
1 1948
1 1949
1 1950
1 1951
1 1952
1 1953
1 1954
1 1955
1 1956
1 1957
1 1958
1 1959
1 1960
1 1961
1 1962
1 1963
1 1964
1 1965
1 1966
1 1967
1 1968
1 1969
1 1970
1 1971
1 1972
1 1973
1 1974
1 1975
1 1976
1 1977
1 1978
1 1979
1 1980
1 1981
1 1982
1 1983
1 1984
1 1985
1 1986
1 1987
1 1988
1 1989
1 1990
1 1991
1 1992
1 1993
1 1994
1 1995
1 1996
1 1997
1 1998
1 1999
1 2000
1 2001
1 2002
1 2003
1 2004
1 2005
1 2006
1 2007
1 2008
1 2009
1 2010
1 2011
1 2012
1 2013
1 2014
1 2015
1 2016
1 2017
1 2018
1 2019
1 2020
1 2021
1 2022
1 2023
1 2024
1 2025
1 2026
1 2027
1 2028
1 2029
1 2030
1 2031
1 2032
1 2033
1 2034
1 2035
1 2036
1 2037
1 2038
1 2039
1 2040
1 2041
1 2042
1 2043
1 2044
1 2045
1 2046
1 2047
1 2048
1 2049
1 2050
1 2051
1 2052
1 2053
1 2054
1 2055
1 2056
1 2057
1 2058
1 2059
1 2060
1 2061
1 2062
1 2063
1 2064
1 2065
1 2066
1 2067
1 2068
1 2069
1 2070
1 2071
1 2072
1 2073
1 2074
1 2075
1 2076
1 2077
1 2078
1 2079
1 2080
1 2081
1 2082
1 2083
1 2084
1 2085
1 2086
1 2087
1 2088
1 2089
1 2090
1 2091
1 2092
1 2093
1 2094
1 2095
1 2096
1 2097
1 2098
1 2099
1 2100
1 2101
1 2102
1 2103
1 2104
1 2105
1 2106
1 2107
1 2108
1 2109
1 2110
1 2111
1 2112
1 2113
1 2114
1 2115
1 2116
1 2117
1 2118
1 2119
1 2120
1 2121
1 2122
1 2123
1 2124
1 2125
1 2126
1 2127
1 2128
1 2129
1 2130
1 2131
1 2132
1 2133
1 2134
1 2135
1 2136
1 2137
1 2138
1 2139
1 2140
1 2141
1 2142
1 2143
1 2144
1 2145
1 2146
1 2147
1 2148
1 2149
1 2150
1 2151
1 2152
1 2153
1 2154
1 2155
1 2156
1 2157
1 2158
1 2159
1 2160
1 2161
1 2162
1 2163
1 2164
1 2165
1 2166
1 2167
1 2168
1 2169
1 2170
1 2171
1 2172
1 2173
1 2174
1 2175
1 2176
1 2177
1 2178
1 2179
1 2180
1 2181
1 2182
1 2183
1 2184
1 2185
1 2186
1 2187
1 2188
1 2189
1 2190
1 2191
1 2192
1 2193
1 2194
1 2195
1 2196
1 2197
1 2198
1 2199
1 2200
1 2201
1 2202
1 2203
1 2204
1 2205
1 2206
1 2207
1 2208
1 2209
1 2210
1 2211
1 2212
1 2213
1 2214
1 2215
1 2216
1 2217
1 2218
1 2219
1 2220
1 2221
1 2222
1 2223
1 2224
1 2225
1 2226
1 2227
1 2228
1 2229
1 2230
1 2231
1 2232
1 2233
1 2234
1 2235
1 2236
1 2237
1 2238
1 2239
1 2240
1 2241
1 2242
1 2243
1 2244
1 2245
1 2246
1 2247
1 2248
1 2249
1 2250
1 2251
1 2252
1 2253
1 2254
1 2255
1 2256
1 2257
1 2258
1 2259
1 2260
1 2261
1 2262
1 2263
1 2264
1 2265
1 2266
1 2267
1 2268
1 2269
1 2270
1 2271
1 2272
1 2273
1 2274
1 2275
1 2276
1 2277
1 2278
1 2279
1 2280
1 2281
1 2282
1 2283
1 2284
1 2285
1 2286
1 2287
1 2288
1 2289
1 2290
1 2291
1 2292
1 2293
1 2294
1 2295
1 2296
1 2297
1 2298
1 2299
1 2300
1 2301
1 2302
1 2303
1 2304
1 2305
1 2306
1 2307
1 2308
1 2309
1 2310
1 2311
1 2312
1 2313
1 2314
1 2315
1 2316
1 2317
1 2318
1 2319
1 2320
1 2321
1 2322
1 2323
1 2324
1 2325
1 2326
1 2327
1 2328
1 2329
1 2330
1 2331
1 2332
1 2333
1 2334
1 2335
1 2336
1 2337
1 2338
1 2339
1 2340
1 2341
1 2342
1 2343
1 2344
1 2345
1 2346
1 2347
1 2348
1 2349
1 2350
1 2351
1 2352
1 2353
1 2354
1 2355
1 2356
1 2357
1 2358
1 2359
1 2360
1 2361
1 2362
1 2363
1 2364
1 2365
1 2366
1 2367
1 2368
1 2369
1 2370
1 2371
1 2372
1 2373
1 2374
1 2375
1 2376
1 2377
1 2378
1 2379
1 2380
1 2381
1 2382
1 2383
1 2384
1 2385
1 2386
1 2387
1 2388
1 2389
1 2390
1 2391
1 2392
1 2393
1 2394
1 2395
1 2396
1 2397
1 2398
1 2399
1 2400
1 2401
1 2402
1 2403
1 2404
1 2405
1 2406
1 2407
1 2408
1 2409
1 2410
1 2411
1 2412
1 2413
1 2414
1 2415
1 2416
1 2417
1 2418
1 2419
1 2420
1 2421
1 2422
1 2423
1 2424
1 2425
1 2426
1 2427
1 2428
1 2429
1 2430
1 2431
1 2432
1 2433
1 2434
1 2435
1 2436
1 2437
1 2438
1 2439
1 2440
1 2441
1 2442
1 2443
1 2444
1 2445
1 2446
1 2447
1 2448
1 2449
1 2450
1 2451
1 2452
1 2453
1 2454
1 2455
1 2456
1 2457
1 2458
1 2459
1 2460
1 2461
1 2462
1 2463
1 2464
1 2465
1 2466
1 2467
1 2468
1 2469
1 2470
1 2471
1 2472
1 2473
1 2474
1 2475
1 2476
1 2477
1 2478
1 2479
1 2480
1 2481
1 2482
1 2483
1 2484
1 2485
1 2486
1 2487
1 2488
1 2489
1 2490
1 2491
1 2492
1 2493
1 2494
1 2495
1 2496
1 2497
1 2498
1 2499
1 2500
1 2501
1 2502
1 2503
1 2504
1 2505
1 2506
1 2507
1 2508
1 2509
1 2510
1 2511
1 2512
1 2513
1 2514
1 2515
1 2516
1 2517
1 2518
1 2519
1 2520
1 2521
1 2522
1 2523
1 2524
1 2525
1 2526
1 2527
1 2528
1 2529
1 2530
1 2531
1 2532
1 2533
1 2534
1 2535
1 2536
1 2537
1 2538
1 2539
1 2540
1 2541
1 2542
1 2543
1 2544
1 2545
1 2546
1 2547
1 2548
1 2549
1 2550
1 2551
1 2552
1 2553
1 2554
1 2555
1 2556
1 2557
1 2558
1 2559
1 2560
1 2561
1 2562
1 2563
1 2564
1 2565
1 2566
1 2567
1 2568
1 2569
1 2570
1 2571
1 2572
1 2573
1 2574
1 2575
1 2576
1 2577
1 2578
1 2579
1 2580
1 2581
1 2582
1 2583
1 2584
1 2585
1 2586
1 2587
1 2588
1 2589
1 2590
1 2591
1 2592
1 2593
1 2594
1 2595
1 2596
1 2597
1 2598
1 2599
1 2600
1 2601
1 2602
1 2603
1 2604
1 2605
1 2606
1 2607
1 2608
1 2609
1 2610
1 2611
1 2612
1 2613
1 2614
1 2615
1 2616
1 2617
1 2618
1 2619
1 2620
1 2621
1 2622
1 2623
1 2624
1 2625
1 2626
1 2627
1 2628
1 2629
1 2630
1 2631
1 2632
1 2633
1 2634
1 2635
1 2636
1 2637
1 2638
1 2639
1 2640
1 2641
1 2642
1 2643
1 2644
1 2645
1 2646
1 2647
1 2648
1 2649
1 2650
1 2651
1 2652
1 2653
1 2654
1 2655
1 2656
1 2657
1 2658
1 2659
1 2660
1 2661
1 2662
1 2663
1 2664
1 2665
1 2666
1 2667
1 2668
1 2669
1 2670
1 2671
1 2672
1 2673
1 2674
1 2675
1 2676
1 2677
1 2678
1 2679
1 2680
1 2681
1 2682
1 2683
1 2684
1 2685
1 2686
1 2687
1 2688
1 2689
1 2690
1 2691
1 2692
1 2693
1 2694
1 2695
1 2696
1 2697
1 2698
1 2699
1 2700
1 2701
1 2702
1 2703
1 2704
1 2705
1 2706
1 2707
1 2708
1 2709
1 2710
1 2711
1 2712
1 2713
1 2714
1 2715
1 2716
1 2717
1 2718
1 2719
1 2720
1 2721
1 2722
1 2723
1 2724
1 2725
1 2726
1 2727
1 2728
1 2729
1 2730
1 2731
1 2732
1 2733
1 2734
1 2735
1 2736
1 2737
1 2738
1 2739
1 2740
1 2741
1 2742
1 2743
1 2744
1 2745
1 2746
1 2747
1 2748
1 2749
1 2750
1 2751
1 2752
1 2753
1 2754
1 2755
1 2756
1 2757
1 2758
1 2759
1 2760
1 2761
1 2762
1 2763
1 2764
1 2765
1 2766
1 2767
1 2768
1 2769
1 2770
1 2771
1 2772
1 2773
1 2774
1 2775
1 2776
1 2777
1 2778
1 2779
1 2780
1 2781
1 2782
1 2783
1 2784
1 2785
1 2786
1 2787
1 2788
1 2789
1 2790
1 2791
1 2792
1 2793
1 2794
1 2795
1 2796
1 2797
1 2798
1 2799
1 2800
1 2801
1 2802
1 2803
1 2804
1 2805
1 2806
1 2807
1 2808
1 2809
1 2810
1 2811
1 2812
1 2813
1 2814
1 2815
1 2816
1 2817
1 2818
1 2819
1 2820
1 2821
1 2822
1 2823
1 2824
1 2825
1 2826
1 2827
1 2828
1 2829
1 2830
1 2831
1 2832
1 2833
1 2834
1 2835
1 2836
1 2837
1 2838
1 2839
1 2840
1 2841
1 2842
1 2843
1 2844
1 2845
1 2846
1 2847
1 2848
1 2849
1 2850
1 2851
1 2852
1 2853
1 2854
1 2855
1 2856
1 2857
1 2858
1 2859
1 2860
1 2861
1 2862
1 2863
1 2864
1 2865
1 2866
1 2867
1 2868
1 2869
1 2870
1 2871
1 2872
1 2873
1 2874
1 2875
1 2876
1 2877
1 2878
1 2879
1 2880
1 2881
1 2882
1 2883
1 2884
1 2885
1 2886
1 2887
1 2888
1 2889
1 2890
1 2891
1 2892
1 2893
1 2894
1 2895
1 2896
1 2897
1 2898
1 2899
1 2900
1 2901
1 2902
1 2903
1 2904
1 2905
1 2906
1 2907
1 2908
1 2909
1 2910
1 2911
1 2912
1 2913
1 2914
1 2915
1 2916
1 2917
1 2918
1 2919
1 2920
1 2921
1 2922
1 2923
1 2924
1 2925
1 2926
1 2927
1 2928
1 2929
1 2930
1 2931
1 2932
1 2933
1 2934
1 2935
1 2936
1 2937
1 2938
1 2939
1 2940
1 2941
1 2942
1 2943
1 2944
1 2945
1 2946
1 2947
1 2948
1 2949
1 2950
1 2951
1 2952
1 2953
1 2954
1 2955
1 2956
1 2957
1 2958
1 2959
1 2960
1 2961
1 2962
1 2963
1 2964
1 2965
1 2966
1 2967
1 2968
1 2969
1 2970
1 2971
1 2972
1 2973
1 2974
1 2975
1 2976
1 2977
1 2978
1 2979
1 2980
1 2981
1 2982
1 2983
1 2984
1 2985
1 2986
1 2987
1 2988
1 2989
1 2990
1 2991
1 2992
1 2993
1 2994
1 2995
1 2996
1 2997
1 2998
1 2999
1 3000
1 3001
1 3002
1 3003
1 3004
1 3005
1 3006
1 3007
1 3008
1 3009
1 3010
1 3011
1 3012
1 3013
1 3014
1 3015
1 3016
1 3017
1 3018
1 3019
1 3020
1 3021
1 3022
1 3023
1 3024
1 3025
1 3026
1 3027
1 3028
1 3029
1 3030
1 3031
1 3032
1 3033
1 3034
1 3035
1 3036
1 3037
1 3038
1 3039
1 3040
1 3041
1 3042
1 3043
1 3044
1 3045
1 3046
1 3047
1 3048
1 3049
1 3050
1 3051
1 3052
1 3053
1 3054
1 3055
1 3056
1 3057
1 3058
1 3059
1 3060
1 3061
1 3062
1 3063
1 3064
1 3065
1 3066
1 3067
1 3068
1 3069
1 3070
1 3071
1 3072
1 3073
1 3074
1 3075
1 3076
1 3077
1 3078
1 3079
1 3080
1 3081
1 3082
1 3083
1 3084
1 3085
1 3086
1 3087
1 3088
1 3089
1 3090
1 3091
1 3092
1 3093
1 3094
1 3095
1 3096
1 3097
1 3098
1 3099
1 3100
1 3101
1 3102
1 3103
1 3104
1 3105
1 3106
1 3107
1 3108
1 3109
1 3110
1 3111
1 3112
1 3113
1 3114
1 3115
1 3116
1 3117
1 3118
1 3119
1 3120
1 3121
1 3122
1 3123
1 3124
1 3125
1 3126
1 3127
1 3128
1 3129
1 3130
1 3131
1 3132
1 3133
1 3134
1 3135
1 3136
1 3137
1 3138
1 3139
1 3140
1 3141
1 3142
1 3143
1 3144
1 3145
1 3146
1 3147
1 3148
1 3149
1 3150
1 3151
1 3152
1 3153
1 3154
1 3155
1 3156
1 3157
1 3158
1 3159
1 3160
1 3161
1 3162
1 3163
1 3164
1 3165
1 3166
1 3167
1 3168
1 3169
1 3170
1 3171
1 3172
1 3173
1 3174
1 3175
1 3176
1 3177
1 3178
1 3179
1 3180
1 3181
1 3182
1 3183
1 3184
1 3185
1 3186
1 3187
1 3188
1 3189
1 3190
1 3191
1 3192
1 3193
1 3194
1 3195
1 3196
1 3197
1 3198
1 3199
1 3200
1 3201
1 3202
1 3203
1 3204
1 3205
1 3206
1 3207
1 3208
1 3209
1 3210
1 3211
1 3212
1 3213
1 3214
1 3215
1 3216
1 3217
1 3218
1 3219
1 3220
1 3221
1 3222
1 3223
1 3224
1 3225
1 3226
1 3227
1 3228
1 3229
1 3230
1 3231
1 3232
1 3233
1 3234
1 3235
1 3236
1 3237
1 3238
1 3239
1 3240
1 3241
1 3242
1 3243
1 3244
1 3245
1 3246
1 3247
1 3248
1 3249
1 3250
1 3251
1 3252
1 3253
1 3254
1 3255
1 3256
1 3257
1 3258
1 3259
1 3260
1 3261
1 3262
1 3263
1 3264
1 3265
1 3266
1 3267
1 3268
1 3269
1 3270
1 3271
1 3272
1 3273
1 3274
1 3275
1 3276
1 3277
1 3278
1 3279
1 3280
1 3281
1 3282
1 3283
1 3284
1 3285
1 3286
1 3287
1 3288
1 3289
1 3290
1 3291
1 3292
1 3293
1 3294
1 3295
1 3296
1 3297
1 3298
1 3299
1 3300
1 3301
1 3302
1 3303
1 3304
1 3305
1 3306
1 3307
1 3308
1 3309
1 3310
1 3311
1 3312
1 3313
1 3314
1 3315
1 3316
1 3317
1 3318
1 3319
1 3320
1 3321
1 3322
1 3323
1 3324
1 3325
1 3326
1 3327
1 3328
1 3329
1 3330
1 3331
1 3332
1 3333
1 3334
1 3335
1 3336
1 3337
1 3338
1 3339
1 3340
1 3341
1 3342
1 3343
1 3344
1 3345
1 3346
1 3347
1 3348
1 3349
1 3350
1 3351
1 3352
1 3353
1 3354
1 3355
1 3356
1 3357
1 3358
1 3359
1 3360
1 3361
1 3362
1 3363
1 3364
1 3365
1 3366
1 3367
1 3368
1 3369
1 3370
1 3371
1 3372
1 3373
1 3374
1 3375
1 3376
1 3377
1 3378
1 3379
1 3380
1 3381
1 3382
1 3383
1 3384
1 3385
1 3386
1 3387
1 3388
1 3389
1 3390
1 3391
1 3392
1 3393
1 3394
1 3395
1 3396
1 3397
1 3398
1 3399
1 3400
1 3401
1 3402
1 3403
1 3404
1 3405
1 3406
1 3407
1 3408
1 3409
1 3410
1 3411
1 3412
1 3413
1 3414
1 3415
1 3416
1 3417
1 3418
1 3419
1 3420
1 3421
1 3422
1 3423
1 3424
1 3425
1 3426
1 3427
1 3428
1 3429
1 3430
1 3431
1 3432
1 3433
1 3434
1 3435
1 3436
1 3437
1 3438
1 3439
1 3440
1 3441
1 3442
1 3443
1 3444
1 3445
1 3446
1 3447
1 3448
1 3449
1 3450
1 3451
1 3452
1 3453
1 3454
1 3455
1 3456
1 3457
1 3458
1 3459
1 3460
1 3461
1 3462
1 3463
1 3464
1 3465
1 3466
1 3467
1 3468
1 3469
1 3470
1 3471
1 3472
1 3473
1 3474
1 3475
1 3476
1 3477
1 3478
1 3479
1 3480
1 3481
1 3482
1 3483
1 3484
1 3485
1 3486
1 3487
1 3488
1 3489
1 3490
1 3491
1 3492
1 3493
1 3494
1 3495
1 3496
1 3497
1 3498
1 3499
1 3500
1 3501
1 3502
1 3503
1 3504
1 3505
1 3506
1 3507
1 3508
1 3509
1 3510
1 3511
1 3512
1 3513
1 3514
1 3515
1 3516
1 3517
1 3518
1 3519
1 3520
1 3521
1 3522
1 3523
1 3524
1 3525
1 3526
1 3527
1 3528
1 3529
1 3530
1 3531
1 3532
1 3533
1 3534
1 3535
1 3536
1 3537
1 3538
1 3539
1 3540
1 3541
1 3542
1 3543
1 3544
1 3545
1 3546
1 3547
1 3548
1 3549
1 3550
1 3551
1 3552
1 3553
1 3554
1 3555
1 3556
1 3557
1 3558
1 3559
1 3560
1 3561
1 3562
1 3563
1 3564
1 3565
1 3566
1 3567
1 3568
1 3569
1 3570
1 3571
1 3572
1 3573
1 3574
1 3575
1 3576
1 3577
1 3578
1 3579
1 3580
1 3581
1 3582
1 3583
1 3584
1 3585
1 3586
1 3587
1 3588
1 3589
1 3590
1 3591
1 3592
1 3593
1 3594
1 3595
1 3596
1 3597
1 3598
1 3599
1 3600
1 3601
1 3602
1 3603
1 3604
1 3605
1 3606
1 3607
1 3608
1 3609
1 3610
1 3611
1 3612
1 3613
1 3614
1 3615
1 3616
1 3617
1 3618
1 3619
1 3620
1 3621
1 3622
1 3623
1 3624
1 3625
1 3626
1 3627
1 3628
1 3629
1 3630
1 3631
1 3632
1 3633
1 3634
1 3635
1 3636
1 3637
1 3638
1 3639
1 3640
1 3641
1 3642
1 3643
1 3644
1 3645
1 3646
1 3647
1 3648
1 3649
1 3650
1 3651
1 3652
1 3653
1 3654
1 3655
1 3656
1 3657
1 3658
1 3659
1 3660
1 3661
1 3662
1 3663
1 3664
1 3665
1 3666
1 3667
1 3668
1 3669
1 3670
1 3671
1 3672
1 3673
1 3674
1 3675
1 3676
1 3677
1 3678
1 3679
1 3680
1 3681
1 3682
1 3683
1 3684
1 3685
1 3686
1 3687
1 3688
1 3689
1 3690
1 3691
1 3692
1 3693
1 3694
1 3695
1 3696
1 3697
1 3698
1 3699
1 3700
1 3701
1 3702
1 3703
1 3704
1 3705
1 3706
1 3707
1 3708
1 3709
1 3710
1 3711
1 3712
1 3713
1 3714
1 3715
1 3716
1 3717
1 3718
1 3719
1 3720
1 3721
1 3722
1 3723
1 3724
1 3725
1 3726
1 3727
1 3728
1 3729
1 3730
1 3731
1 3732
1 3733
1 3734
1 3735
1 3736
1 3737
1 3738
1 3739
1 3740
1 3741
1 3742
1 3743
1 3744
1 3745
1 3746
1 3747
1 3748
1 3749
1 3750
1 3751
1 3752
1 3753
1 3754
1 3755
1 3756
1 3757
1 3758
1 3759
1 3760
1 3761
1 3762
1 3763
1 3764
1 3765
1 3766
1 3767
1 3768
1 3769
1 3770
1 3771
1 3772
1 3773
1 3774
1 3775
1 3776
1 3777
1 3778
1 3779
1 3780
1 3781
1 3782
1 3783
1 3784
1 3785
1 3786
1 3787
1 3788
1 3789
1 3790
1 3791
1 3792
1 3793
1 3794
1 3795
1 3796
1 3797
1 3798
1 3799
1 3800
1 3801
1 3802
1 3803
1 3804
1 3805
1 3806
1 3807
1 3808
1 3809
1 3810
1 3811
1 3812
1 3813
1 3814
1 3815
1 3816
1 3817
1 3818
1 3819
1 3820
1 3821
1 3822
1 3823
1 3824
1 3825
1 3826
1 3827
1 3828
1 3829
1 3830
1 3831
1 3832
1 3833
1 3834
1 3835
1 3836
1 3837
1 3838
1 3839
1 3840
1 3841
1 3842
1 3843
1 3844
1 3845
1 3846
1 3847
1 3848
1 3849
1 3850
1 3851
1 3852
1 3853
1 3854
1 3855
1 3856
1 3857
1 3858
1 3859
1 3860
1 3861
1 3862
1 3863
1 3864
1 3865
1 3866
1 3867
1 3868
1 3869
1 3870
1 3871
1 3872
1 3873
1 3874
1 3875
1 3876
1 3877
1 3878
1 3879
1 3880
1 3881
1 3882
1 3883
1 3884
1 3885
1 3886
1 3887
1 3888
1 3889
1 3890
1 3891
1 3892
1 3893
1 3894
1 3895
1 3896
1 3897
1 3898
1 3899
1 3900
1 3901
1 3902
1 3903
1 3904
1 3905
1 3906
1 3907
1 3908
1 3909
1 3910
1 3911
1 3912
1 3913
1 3914
1 3915
1 3916
1 3917
1 3918
1 3919
1 3920
1 3921
1 3922
1 3923
1 3924
1 3925
1 3926
1 3927
1 3928
1 3929
1 3930
1 3931
1 3932
1 3933
1 3934
1 3935
1 3936
1 3937
1 3938
1 3939
1 3940
1 3941
1 3942
1 3943
1 3944
1 3945
1 3946
1 3947
1 3948
1 3949
1 3950
1 3951
1 3952
1 3953
1 3954
1 3955
1 3956
1 3957
1 3958
1 3959
1 3960
1 3961
1 3962
1 3963
1 3964
1 3965
1 3966
1 3967
1 3968
1 3969
1 3970
1 3971
1 3972
1 3973
1 3974
1 3975
1 3976
1 3977
1 3978
1 3979
1 3980
1 3981
1 3982
1 3983
1 3984
1 3985
1 3986
1 3987
1 3988
1 3989
1 3990
1 3991
1 3992
1 3993
1 3994
1 3995
1 3996
1 3997
1 3998
1 3999
1 4000
1 4001
1 4002
1 4003
1 4004
1 4005
1 4006
1 4007
1 4008
1 4009
1 4010
1 4011
1 4012
1 4013
1 4014
1 4015
1 4016
1 4017
1 4018
1 4019
1 4020
1 4021
1 4022
1 4023
1 4024
1 4025
1 4026
1 4027
1 4028
1 4029
1 4030
1 4031
1 4032
1 4033
1 4034
1 4035
1 4036
1 4037
1 4038
1 4039
1 4040
1 4041
1 4042
1 4043
1 4044
1 4045
1 4046
1 4047
1 4048
1 4049
1 4050
1 4051
1 4052
1 4053
1 4054
1 4055
1 4056
1 4057
1 4058
1 4059
1 4060
1 4061
1 4062
1 4063
1 4064
1 4065
1 4066
1 4067
1 4068
1 4069
1 4070
1 4071
1 4072
1 4073
1 4074
1 4075
1 4076
1 4077
1 4078
1 4079
1 4080
1 4081
1 4082
1 4083
1 4084
1 4085
1 4086
1 4087
1 4088
1 4089
1 4090
1 4091
1 4092
1 4093
1 4094
1 4095
1 4096
1 4097
1 4098
1 4099
1 4100
1 4101
1 4102
1 4103
1 4104
1 4105
1 4106
1 4107
1 4108
1 4109
1 4110
1 4111
1 4112
1 4113
1 4114
1 4115
1 4116
1 4117
1 4118
1 4119
1 4120
1 4121
1 4122
1 4123
1 4124
1 4125
1 4126
1 4127
1 4128
1 4129
1 4130
1 4131
1 4132
1 4133
1 4134
1 4135
1 4136
1 4137
1 4138
1 4139
1 4140
1 4141
1 4142
1 4143
1 4144
1 4145
1 4146
1 4147
1 4148
1 4149
1 4150
1 4151
1 4152
1 4153
1 4154
1 4155
1 4156
1 4157
1 4158
1 4159
1 4160
1 4161
1 4162
1 4163
1 4164
1 4165
1 4166
1 4167
1 4168
1 4169
1 4170
1 4171
1 4172
1 4173
1 4174
1 4175
1 4176
1 4177
1 4178
1 4179
1 4180
1 4181
1 4182
1 4183
1 4184
1 4185
1 4186
1 4187
1 4188
1 4189
1 4190
1 4191
1 4192
1 4193
1 4194
1 4195
1 4196
1 4197
1 4198
1 4199
1 4200
1 4201
1 4202
1 4203
1 4204
1 4205
1 4206
1 4207
1 4208
1 4209
1 4210
1 4211
1 4212
1 4213
1 4214
1 4215
1 4216
1 4217
1 4218
1 4219
1 4220
1 4221
1 4222
1 4223
1 4224
1 4225
1 4226
1 4227
1 4228
1 4229
1 4230
1 4231
1 4232
1 4233
1 4234
1 4235
1 4236
1 4237
1 4238
1 4239
1 4240
1 4241
1 4242
1 4243
1 4244
1 4245
1 4246
1 4247
1 4248
1 4249
1 4250
1 4251
1 4252
1 4253
1 4254
1 4255
1 4256
1 4257
1 4258
1 4259
1 4260
1 4261
1 4262
1 4263
1 4264
1 4265
1 4266
1 4267
1 4268
1 4269
1 4270
1 4271
1 4272
1 4273
1 4274
1 4275
1 4276
1 4277
1 4278
1 4279
1 4280
1 4281
1 4282
1 4283
1 4284
1 4285
1 4286
1 4287
1 4288
1 4289
1 4290
1 4291
1 4292
1 4293
1 4294
1 4295
1 4296
1 4297
1 4298
1 4299
1 4300
1 4301
1 4302
1 4303
1 4304
1 4305
1 4306
1 4307
1 4308
1 4309
1 4310
1 4311
1 4312
1 4313
1 4314
1 4315
1 4316
1 4317
1 4318
1 4319
1 4320
1 4321
1 4322
1 4323
1 4324
1 4325
1 4326
1 4327
1 4328
1 4329
1 4330
1 4331
1 4332
1 4333
1 4334
1 4335
1 4336
1 4337
1 4338
1 4339
1 4340
1 4341
1 4342
1 4343
1 4344
1 4345
1 4346
1 4347
1 4348
1 4349
1 4350
1 4351
1 4352
1 4353
1 4354
1 4355
1 4356
1 4357
1 4358
1 4359
1 4360
1 4361
1 4362
1 4363
1 4364
1 4365
1 4366
1 4367
1 4368
1 4369
1 4370
1 4371
1 4372
1 4373
1 4374
1 4375
1 4376
1 4377
1 4378
1 4379
1 4380
1 4381
1 4382
1 4383
1 4384
1 4385
1 4386
1 4387
1 4388
1 4389
1 4390
1 4391
1 4392
1 4393
1 4394
1 4395
1 4396
1 4397
1 4398
1 4399
1 4400
1 4401
1 4402
1 4403
1 4404
1 4405
1 4406
1 4407
1 4408
1 4409
1 4410
1 4411
1 4412
1 4413
1 4414
1 4415
1 4416
1 4417
1 4418
1 4419
1 4420
1 4421
1 4422
1 4423
1 4424
1 4425
1 4426
1 4427
1 4428
1 4429
1 4430
1 4431
1 4432
1 4433
1 4434
1 4435
1 4436
1 4437
1 4438
1 4439
1 4440
1 4441
1 4442
1 4443
1 4444
1 4445
1 4446
1 4447
1 4448
1 4449
1 4450
1 4451
1 4452
1 4453
1 4454
1 4455
1 4456
1 4457
1 4458
1 4459
1 4460
1 4461
1 4462
1 4463
1 4464
1 4465
1 4466
1 4467
1 4468
1 4469
1 4470
1 4471
1 4472
1 4473
1 4474
1 4475
1 4476
1 4477
1 4478
1 4479
1 4480
1 4481
1 4482
1 4483
1 4484
1 4485
1 4486
1 4487
1 4488
1 4489
1 4490
1 4491
1 4492
1 4493
1 4494
1 4495
1 4496
1 4497
1 4498
1 4499
1 4500
1 4501
1 4502
1 4503
1 4504
1 4505
1 4506
1 4507
1 4508
1 4509
1 4510
1 4511
1 4512
1 4513
1 4514
1 4515
1 4516
1 4517
1 4518
1 4519
1 4520
1 4521
1 4522
1 4523
1 4524
1 4525
1 4526
1 4527
1 4528
1 4529
1 4530
1 4531
1 4532
1 4533
1 4534
1 4535
1 4536
1 4537
1 4538
1 4539
1 4540
1 4541
1 4542
1 4543
1 4544
1 4545
1 4546
1 4547
1 4548
1 4549
1 4550
1 4551
1 4552
1 4553
1 4554
1 4555
1 4556
1 4557
1 4558
1 4559
1 4560
1 4561
1 4562
1 4563
1 4564
1 4565
1 4566
1 4567
1 4568
1 4569
1 4570
1 4571
1 4572
1 4573
1 4574
1 4575
1 4576
1 4577
1 4578
1 4579
1 4580
1 4581
1 4582
1 4583
1 4584
1 4585
1 4586
1 4587
1 4588
1 4589
1 4590
1 4591
1 4592
1 4593
1 4594
1 4595
1 4596
1 4597
1 4598
1 4599
1 4600
1 4601
1 4602
1 4603
1 4604
1 4605
1 4606
1 4607
1 4608
1 4609
1 4610
1 4611
1 4612
1 4613
1 4614
1 4615
1 4616
1 4617
1 4618
1 4619
1 4620
1 4621
1 4622
1 4623
1 4624
1 4625
1 4626
1 4627
1 4628
1 4629
1 4630
1 4631
1 4632
1 4633
1 4634
1 4635
1 4636
1 4637
1 4638
1 4639
1 4640
1 4641
1 4642
1 4643
1 4644
1 4645
1 4646
1 4647
1 4648
1 4649
1 4650
1 4651
1 4652
1 4653
1 4654
1 4655
1 4656
1 4657
1 4658
1 4659
1 4660
1 4661
1 4662
1 4663
1 4664
1 4665
1 4666
1 4667
1 4668
1 4669
1 4670
1 4671
1 4672
1 4673
1 4674
1 4675
1 4676
1 4677
1 4678
1 4679
1 4680
1 4681
1 4682
1 4683
1 4684
1 4685
1 4686
1 4687
1 4688
1 4689
1 4690
1 4691
1 4692
1 4693
1 4694
1 4695
1 4696
1 4697
1 4698
1 4699
1 4700
1 4701
1 4702
1 4703
1 4704
1 4705
1 4706
1 4707
1 4708
1 4709
1 4710
1 4711
1 4712
1 4713
1 4714
1 4715
1 4716
1 4717
1 4718
1 4719
1 4720
1 4721
1 4722
1 4723
1 4724
1 4725
1 4726
1 4727
1 4728
1 4729
1 4730
1 4731
1 4732
1 4733
1 4734
1 4735
1 4736
1 4737
1 4738
1 4739
1 4740
1 4741
1 4742
1 4743
1 4744
1 4745
1 4746
1 4747
1 4748
1 4749
1 4750
1 4751
1 4752
1 4753
1 4754
1 4755
1 4756
1 4757
1 4758
1 4759
1 4760
1 4761
1 4762
1 4763
1 4764
1 4765
1 4766
1 4767
1 4768
1 4769
1 4770
1 4771
1 4772
1 4773
1 4774
1 4775
1 4776
1 4777
1 4778
1 4779
1 4780
1 4781
1 4782
1 4783
1 4784
1 4785
1 4786
1 4787
1 4788
1 4789
1 4790
1 4791
1 4792
1 4793
1 4794
1 4795
1 4796
1 4797
1 4798
1 4799
1 4800
1 4801
1 4802
1 4803
1 4804
1 4805
1 4806
1 4807
1 4808
1 4809
1 4810
1 4811
1 4812
1 4813
1 4814
1 4815
1 4816
1 4817
1 4818
1 4819
1 4820
1 4821
1 4822
1 4823
1 4824
1 4825
1 4826
1 4827
1 4828
1 4829
1 4830
1 4831
1 4832
1 4833
1 4834
1 4835
1 4836
1 4837
1 4838
1 4839
1 4840
1 4841
1 4842
1 4843
1 4844
1 4845
1 4846
1 4847
1 4848
1 4849
1 4850
1 4851
1 4852
1 4853
1 4854
1 4855
1 4856
1 4857
1 4858
1 4859
1 4860
1 4861
1 4862
1 4863
1 4864
1 4865
1 4866
1 4867
1 4868
1 4869
1 4870
1 4871
1 4872
1 4873
1 4874
1 4875
1 4876
1 4877
1 4878
1 4879
1 4880
1 4881
1 4882
1 4883
1 4884
1 4885
1 4886
1 4887
1 4888
1 4889
1 4890
1 4891
1 4892
1 4893
1 4894
1 4895
1 4896
1 4897
1 4898
1 4899
1 4900
1 4901
1 4902
1 4903
1 4904
1 4905
1 4906
1 4907
1 4908
1 4909
1 4910
1 4911
1 4912
1 4913
1 4914
1 4915
1 4916
1 4917
1 4918
1 4919
1 4920
1 4921
1 4922
1 4923
1 4924
1 4925
1 4926
1 4927
1 4928
1 4929
1 4930
1 4931
1 4932
1 4933
1 4934
1 4935
1 4936
1 4937
1 4938
1 4939
1 4940
1 4941
1 4942
1 4943
1 4944
1 4945
1 4946
1 4947
1 4948
1 4949
1 4950
1 4951
1 4952
1 4953
1 4954
1 4955
1 4956
1 4957
1 4958
1 4959
1 4960
1 4961
1 4962
1 4963
1 4964
1 4965
1 4966
1 4967
1 4968
1 4969
1 4970
1 4971
1 4972
1 4973
1 4974
1 4975
1 4976
1 4977
1 4978
1 4979
1 4980
1 4981
1 4982
1 4983
1 4984
1 4985
1 4986
1 4987
1 4988
1 4989
1 4990
1 4991
1 4992
1 4993
1 4994
1 4995
1 4996
1 4997
1 4998
1 4999
CELL_TYPES 5000
1 
1 
1 
1 
1 
1 
1 
1 
1 
1 
1 
1 
1 
1 
1 
1 
1 
1 
1 
1 
1 
1 
1 
1 
1 
1 
1 
1 
1 
1 
1 
1 
1 
1 
1 
1 
1 
1 
1 
1 
1 
1 
1 
1 
1 
1 
1 
1 
1 
1 
1 
1 
1 
1 
1 
1 
1 
1 
1 
1 
1 
1 
1 
1 
1 
1 
1 
1 
1 
1 
1 
1 
1 
1 
1 
1 
1 
1 
1 
1 
1 
1 
1 
1 
1 
1 
1 
1 
1 
1 
1 
1 
1 
1 
1 
1 
1 
1 
1 
1 
1 
1 
1 
1 
1 
1 
1 
1 
1 
1 
1 
1 
1 
1 
1 
1 
1 
1 
1 
1 
1 
1 
1 
1 
1 
1 
1 
1 
1 
1 
1 
1 
1 
1 
1 
1 
1 
1 
1 
1 
1 
1 
1 
1 
1 
1 
1 
1 
1 
1 
1 
1 
1 
1 
1 
1 
1 
1 
1 
1 
1 
1 
1 
1 
1 
1 
1 
1 
1 
1 
1 
1 
1 
1 
1 
1 
1 
1 
1 
1 
1 
1 
1 
1 
1 
1 
1 
1 
1 
1 
1 
1 
1 
1 
1 
1 
1 
1 
1 
1 
1 
1 
1 
1 
1 
1 
1 
1 
1 
1 
1 
1 
1 
1 
1 
1 
1 
1 
1 
1 
1 
1 
1 
1 
1 
1 
1 
1 
1 
1 
1 
1 
1 
1 
1 
1 
1 
1 
1 
1 
1 
1 
1 
1 
1 
1 
1 
1 
1 
1 
1 
1 
1 
1 
1 
1 
1 
1 
1 
1 
1 
1 
1 
1 
1 
1 
1 
1 
1 
1 
1 
1 
1 
1 
1 
1 
1 
1 
1 
1 
1 
1 
1 
1 
1 
1 
1 
1 
1 
1 
1 
1 
1 
1 
1 
1 
1 
1 
1 
1 
1 
1 
1 
1 
1 
1 
1 
1 
1 
1 
1 
1 
1 
1 
1 
1 
1 
1 
1 
1 
1 
1 
1 
1 
1 
1 
1 
1 
1 
1 
1 
1 
1 
1 
1 
1 
1 
1 
1 
1 
1 
1 
1 
1 
1 
1 
1 
1 
1 
1 
1 
1 
1 
1 
1 
1 
1 
1 
1 
1 
1 
1 
1 
1 
1 
1 
1 
1 
1 
1 
1 
1 
1 
1 
1 
1 
1 
1 
1 
1 
1 
1 
1 
1 
1 
1 
1 
1 
1 
1 
1 
1 
1 
1 
1 
1 
1 
1 
1 
1 
1 
1 
1 
1 
1 
1 
1 
1 
1 
1 
1 
1 
1 
1 
1 
1 
1 
1 
1 
1 
1 
1 
1 
1 
1 
1 
1 
1 
1 
1 
1 
1 
1 
1 
1 
1 
1 
1 
1 
1 
1 
1 
1 
1 
1 
1 
1 
1 
1 
1 
1 
1 
1 
1 
1 
1 
1 
1 
1 
1 
1 
1 
1 
1 
1 
1 
1 
1 
1 
1 
1 
1 
1 
1 
1 
1 
1 
1 
1 
1 
1 
1 
1 
1 
1 
1 
1 
1 
1 
1 
1 
1 
1 
1 
1 
1 
1 
1 
1 
1 
1 
1 
1 
1 
1 
1 
1 
1 
1 
1 
1 
1 
1 
1 
1 
1 
1 
1 
1 
1 
1 
1 
1 
1 
1 
1 
1 
1 
1 
1 
1 
1 
1 
1 
1 
1 
1 
1 
1 
1 
1 
1 
1 
1 
1 
1 
1 
1 
1 
1 
1 
1 
1 
1 
1 
1 
1 
1 
1 
1 
1 
1 
1 
1 
1 
1 
1 
1 
1 
1 
1 
1 
1 
1 
1 
1 
1 
1 
1 
1 
1 
1 
1 
1 
1 
1 
1 
1 
1 
1 
1 
1 
1 
1 
1 
1 
1 
1 
1 
1 
1 
1 
1 
1 
1 
1 
1 
1 
1 
1 
1 
1 
1 
1 
1 
1 
1 
1 
1 
1 
1 
1 
1 
1 
1 
1 
1 
1 
1 
1 
1 
1 
1 
1 
1 
1 
1 
1 
1 
1 
1 
1 
1 
1 
1 
1 
1 
1 
1 
1 
1 
1 
1 
1 
1 
1 
1 
1 
1 
1 
1 
1 
1 
1 
1 
1 
1 
1 
1 
1 
1 
1 
1 
1 
1 
1 
1 
1 
1 
1 
1 
1 
1 
1 
1 
1 
1 
1 
1 
1 
1 
1 
1 
1 
1 
1 
1 
1 
1 
1 
1 
1 
1 
1 
1 
1 
1 
1 
1 
1 
1 
1 
1 
1 
1 
1 
1 
1 
1 
1 
1 
1 
1 
1 
1 
1 
1 
1 
1 
1 
1 
1 
1 
1 
1 
1 
1 
1 
1 
1 
1 
1 
1 
1 
1 
1 
1 
1 
1 
1 
1 
1 
1 
1 
1 
1 
1 
1 
1 
1 
1 
1 
1 
1 
1 
1 
1 
1 
1 
1 
1 
1 
1 
1 
1 
1 
1 
1 
1 
1 
1 
1 
1 
1 
1 
1 
1 
1 
1 
1 
1 
1 
1 
1 
1 
1 
1 
1 
1 
1 
1 
1 
1 
1 
1 
1 
1 
1 
1 
1 
1 
1 
1 
1 
1 
1 
1 
1 
1 
1 
1 
1 
1 
1 
1 
1 
1 
1 
1 
1 
1 
1 
1 
1 
1 
1 
1 
1 
1 
1 
1 
1 
1 
1 
1 
1 
1 
1 
1 
1 
1 
1 
1 
1 
1 
1 
1 
1 
1 
1 
1 
1 
1 
1 
1 
1 
1 
1 
1 
1 
1 
1 
1 
1 
1 
1 
1 
1 
1 
1 
1 
1 
1 
1 
1 
1 
1 
1 
1 
1 
1 
1 
1 
1 
1 
1 
1 
1 
1 
1 
1 
1 
1 
1 
1 
1 
1 
1 
1 
1 
1 
1 
1 
1 
1 
1 
1 
1 
1 
1 
1 
1 
1 
1 
1 
1 
1 
1 
1 
1 
1 
1 
1 
1 
1 
1 
1 
1 
1 
1 
1 
1 
1 
1 
1 
1 
1 
1 
1 
1 
1 
1 
1 
1 
1 
1 
1 
1 
1 
1 
1 
1 
1 
1 
1 
1 
1 
1 
1 
1 
1 
1 
1 
1 
1 
1 
1 
1 
1 
1 
1 
1 
1 
1 
1 
1 
1 
1 
1 
1 
1 
1 
1 
1 
1 
1 
1 
1 
1 
1 
1 
1 
1 
1 
1 
1 
1 
1 
1 
1 
1 
1 
1 
1 
1 
1 
1 
1 
1 
1 
1 
1 
1 
1 
1 
1 
1 
1 
1 
1 
1 
1 
1 
1 
1 
1 
1 
1 
1 
1 
1 
1 
1 
1 
1 
1 
1 
1 
1 
1 
1 
1 
1 
1 
1 
1 
1 
1 
1 
1 
1 
1 
1 
1 
1 
1 
1 
1 
1 
1 
1 
1 
1 
1 
1 
1 
1 
1 
1 
1 
1 
1 
1 
1 
1 
1 
1 
1 
1 
1 
1 
1 
1 
1 
1 
1 
1 
1 
1 
1 
1 
1 
1 
1 
1 
1 
1 
1 
1 
1 
1 
1 
1 
1 
1 
1 
1 
1 
1 
1 
1 
1 
1 
1 
1 
1 
1 
1 
1 
1 
1 
1 
1 
1 
1 
1 
1 
1 
1 
1 
1 
1 
1 
1 
1 
1 
1 
1 
1 
1 
1 
1 
1 
1 
1 
1 
1 
1 
1 
1 
1 
1 
1 
1 
1 
1 
1 
1 
1 
1 
1 
1 
1 
1 
1 
1 
1 
1 
1 
1 
1 
1 
1 
1 
1 
1 
1 
1 
1 
1 
1 
1 
1 
1 
1 
1 
1 
1 
1 
1 
1 
1 
1 
1 
1 
1 
1 
1 
1 
1 
1 
1 
1 
1 
1 
1 
1 
1 
1 
1 
1 
1 
1 
1 
1 
1 
1 
1 
1 
1 
1 
1 
1 
1 
1 
1 
1 
1 
1 
1 
1 
1 
1 
1 
1 
1 
1 
1 
1 
1 
1 
1 
1 
1 
1 
1 
1 
1 
1 
1 
1 
1 
1 
1 
1 
1 
1 
1 
1 
1 
1 
1 
1 
1 
1 
1 
1 
1 
1 
1 
1 
1 
1 
1 
1 
1 
1 
1 
1 
1 
1 
1 
1 
1 
1 
1 
1 
1 
1 
1 
1 
1 
1 
1 
1 
1 
1 
1 
1 
1 
1 
1 
1 
1 
1 
1 
1 
1 
1 
1 
1 
1 
1 
1 
1 
1 
1 
1 
1 
1 
1 
1 
1 
1 
1 
1 
1 
1 
1 
1 
1 
1 
1 
1 
1 
1 
1 
1 
1 
1 
1 
1 
1 
1 
1 
1 
1 
1 
1 
1 
1 
1 
1 
1 
1 
1 
1 
1 
1 
1 
1 
1 
1 
1 
1 
1 
1 
1 
1 
1 
1 
1 
1 
1 
1 
1 
1 
1 
1 
1 
1 
1 
1 
1 
1 
1 
1 
1 
1 
1 
1 
1 
1 
1 
1 
1 
1 
1 
1 
1 
1 
1 
1 
1 
1 
1 
1 
1 
1 
1 
1 
1 
1 
1 
1 
1 
1 
1 
1 
1 
1 
1 
1 
1 
1 
1 
1 
1 
1 
1 
1 
1 
1 
1 
1 
1 
1 
1 
1 
1 
1 
1 
1 
1 
1 
1 
1 
1 
1 
1 
1 
1 
1 
1 
1 
1 
1 
1 
1 
1 
1 
1 
1 
1 
1 
1 
1 
1 
1 
1 
1 
1 
1 
1 
1 
1 
1 
1 
1 
1 
1 
1 
1 
1 
1 
1 
1 
1 
1 
1 
1 
1 
1 
1 
1 
1 
1 
1 
1 
1 
1 
1 
1 
1 
1 
1 
1 
1 
1 
1 
1 
1 
1 
1 
1 
1 
1 
1 
1 
1 
1 
1 
1 
1 
1 
1 
1 
1 
1 
1 
1 
1 
1 
1 
1 
1 
1 
1 
1 
1 
1 
1 
1 
1 
1 
1 
1 
1 
1 
1 
1 
1 
1 
1 
1 
1 
1 
1 
1 
1 
1 
1 
1 
1 
1 
1 
1 
1 
1 
1 
1 
1 
1 
1 
1 
1 
1 
1 
1 
1 
1 
1 
1 
1 
1 
1 
1 
1 
1 
1 
1 
1 
1 
1 
1 
1 
1 
1 
1 
1 
1 
1 
1 
1 
1 
1 
1 
1 
1 
1 
1 
1 
1 
1 
1 
1 
1 
1 
1 
1 
1 
1 
1 
1 
1 
1 
1 
1 
1 
1 
1 
1 
1 
1 
1 
1 
1 
1 
1 
1 
1 
1 
1 
1 
1 
1 
1 
1 
1 
1 
1 
1 
1 
1 
1 
1 
1 
1 
1 
1 
1 
1 
1 
1 
1 
1 
1 
1 
1 
1 
1 
1 
1 
1 
1 
1 
1 
1 
1 
1 
1 
1 
1 
1 
1 
1 
1 
1 
1 
1 
1 
1 
1 
1 
1 
1 
1 
1 
1 
1 
1 
1 
1 
1 
1 
1 
1 
1 
1 
1 
1 
1 
1 
1 
1 
1 
1 
1 
1 
1 
1 
1 
1 
1 
1 
1 
1 
1 
1 
1 
1 
1 
1 
1 
1 
1 
1 
1 
1 
1 
1 
1 
1 
1 
1 
1 
1 
1 
1 
1 
1 
1 
1 
1 
1 
1 
1 
1 
1 
1 
1 
1 
1 
1 
1 
1 
1 
1 
1 
1 
1 
1 
1 
1 
1 
1 
1 
1 
1 
1 
1 
1 
1 
1 
1 
1 
1 
1 
1 
1 
1 
1 
1 
1 
1 
1 
1 
1 
1 
1 
1 
1 
1 
1 
1 
1 
1 
1 
1 
1 
1 
1 
1 
1 
1 
1 
1 
1 
1 
1 
1 
1 
1 
1 
1 
1 
1 
1 
1 
1 
1 
1 
1 
1 
1 
1 
1 
1 
1 
1 
1 
1 
1 
1 
1 
1 
1 
1 
1 
1 
1 
1 
1 
1 
1 
1 
1 
1 
1 
1 
1 
1 
1 
1 
1 
1 
1 
1 
1 
1 
1 
1 
1 
1 
1 
1 
1 
1 
1 
1 
1 
1 
1 
1 
1 
1 
1 
1 
1 
1 
1 
1 
1 
1 
1 
1 
1 
1 
1 
1 
1 
1 
1 
1 
1 
1 
1 
1 
1 
1 
1 
1 
1 
1 
1 
1 
1 
1 
1 
1 
1 
1 
1 
1 
1 
1 
1 
1 
1 
1 
1 
1 
1 
1 
1 
1 
1 
1 
1 
1 
1 
1 
1 
1 
1 
1 
1 
1 
1 
1 
1 
1 
1 
1 
1 
1 
1 
1 
1 
1 
1 
1 
1 
1 
1 
1 
1 
1 
1 
1 
1 
1 
1 
1 
1 
1 
1 
1 
1 
1 
1 
1 
1 
1 
1 
1 
1 
1 
1 
1 
1 
1 
1 
1 
1 
1 
1 
1 
1 
1 
1 
1 
1 
1 
1 
1 
1 
1 
1 
1 
1 
1 
1 
1 
1 
1 
1 
1 
1 
1 
1 
1 
1 
1 
1 
1 
1 
1 
1 
1 
1 
1 
1 
1 
1 
1 
1 
1 
1 
1 
1 
1 
1 
1 
1 
1 
1 
1 
1 
1 
1 
1 
1 
1 
1 
1 
1 
1 
1 
1 
1 
1 
1 
1 
1 
1 
1 
1 
1 
1 
1 
1 
1 
1 
1 
1 
1 
1 
1 
1 
1 
1 
1 
1 
1 
1 
1 
1 
1 
1 
1 
1 
1 
1 
1 
1 
1 
1 
1 
1 
1 
1 
1 
1 
1 
1 
1 
1 
1 
1 
1 
1 
1 
1 
1 
1 
1 
1 
1 
1 
1 
1 
1 
1 
1 
1 
1 
1 
1 
1 
1 
1 
1 
1 
1 
1 
1 
1 
1 
1 
1 
1 
1 
1 
1 
1 
1 
1 
1 
1 
1 
1 
1 
1 
1 
1 
1 
1 
1 
1 
1 
1 
1 
1 
1 
1 
1 
1 
1 
1 
1 
1 
1 
1 
1 
1 
1 
1 
1 
1 
1 
1 
1 
1 
1 
1 
1 
1 
1 
1 
1 
1 
1 
1 
1 
1 
1 
1 
1 
1 
1 
1 
1 
1 
1 
1 
1 
1 
1 
1 
1 
1 
1 
1 
1 
1 
1 
1 
1 
1 
1 
1 
1 
1 
1 
1 
1 
1 
1 
1 
1 
1 
1 
1 
1 
1 
1 
1 
1 
1 
1 
1 
1 
1 
1 
1 
1 
1 
1 
1 
1 
1 
1 
1 
1 
1 
1 
1 
1 
1 
1 
1 
1 
1 
1 
1 
1 
1 
1 
1 
1 
1 
1 
1 
1 
1 
1 
1 
1 
1 
1 
1 
1 
1 
1 
1 
1 
1 
1 
1 
1 
1 
1 
1 
1 
1 
1 
1 
1 
1 
1 
1 
1 
1 
1 
1 
1 
1 
1 
1 
1 
1 
1 
1 
1 
1 
1 
1 
1 
1 
1 
1 
1 
1 
1 
1 
1 
1 
1 
1 
1 
1 
1 
1 
1 
1 
1 
1 
1 
1 
1 
1 
1 
1 
1 
1 
1 
1 
1 
1 
1 
1 
1 
1 
1 
1 
1 
1 
1 
1 
1 
1 
1 
1 
1 
1 
1 
1 
1 
1 
1 
1 
1 
1 
1 
1 
1 
1 
1 
1 
1 
1 
1 
1 
1 
1 
1 
1 
1 
1 
1 
1 
1 
1 
1 
1 
1 
1 
1 
1 
1 
1 
1 
1 
1 
1 
1 
1 
1 
1 
1 
1 
1 
1 
1 
1 
1 
1 
1 
1 
1 
1 
1 
1 
1 
1 
1 
1 
1 
1 
1 
1 
1 
1 
1 
1 
1 
1 
1 
1 
1 
1 
1 
1 
1 
1 
1 
1 
1 
1 
1 
1 
1 
1 
1 
1 
1 
1 
1 
1 
1 
1 
1 
1 
1 
1 
1 
1 
1 
1 
1 
1 
1 
1 
1 
1 
1 
1 
1 
1 
1 
1 
1 
1 
1 
1 
1 
1 
1 
1 
1 
1 
1 
1 
1 
1 
1 
1 
1 
1 
1 
1 
1 
1 
1 
1 
1 
1 
1 
1 
1 
1 
1 
1 
1 
1 
1 
1 
1 
1 
1 
1 
1 
1 
1 
1 
1 
1 
1 
1 
1 
1 
1 
1 
1 
1 
1 
1 
1 
1 
1 
1 
1 
1 
1 
1 
1 
1 
1 
1 
1 
1 
1 
1 
1 
1 
1 
1 
1 
1 
1 
1 
1 
1 
1 
1 
1 
1 
1 
1 
1 
1 
1 
1 
1 
1 
1 
1 
1 
1 
1 
1 
1 
1 
1 
1 
1 
1 
1 
1 
1 
1 
1 
1 
1 
1 
1 
1 
1 
1 
1 
1 
1 
1 
1 
1 
1 
1 
1 
1 
1 
1 
1 
1 
1 
1 
1 
1 
1 
1 
1 
1 
1 
1 
1 
1 
1 
1 
1 
1 
1 
1 
1 
1 
1 
1 
1 
1 
1 
1 
1 
1 
1 
1 
1 
1 
1 
1 
1 
1 
1 
1 
1 
1 
1 
1 
1 
1 
1 
1 
1 
1 
1 
1 
1 
1 
1 
1 
1 
1 
1 
1 
1 
1 
1 
1 
1 
1 
1 
1 
1 
1 
1 
1 
1 
1 
1 
1 
1 
1 
1 
1 
1 
1 
1 
1 
1 
1 
1 
1 
1 
1 
1 
1 
1 
1 
1 
1 
1 
1 
1 
1 
1 
1 
1 
1 
1 
1 
1 
1 
1 
1 
1 
1 
1 
1 
1 
1 
1 
1 
1 
1 
1 
1 
1 
1 
1 
1 
1 
1 
1 
1 
1 
1 
1 
1 
1 
1 
1 
1 
1 
1 
1 
1 
1 
1 
1 
1 
1 
1 
1 
1 
1 
1 
1 
1 
1 
1 
1 
1 
1 
1 
1 
1 
1 
1 
1 
1 
1 
1 
1 
1 
1 
1 
1 
1 
1 
1 
1 
1 
1 
1 
1 
1 
1 
1 
1 
1 
1 
1 
1 
1 
1 
1 
1 
1 
1 
1 
1 
1 
1 
1 
1 
1 
1 
1 
1 
1 
1 
1 
1 
1 
1 
1 
1 
1 
1 
1 
1 
1 
1 
1 
1 
1 
1 
1 
1 
1 
1 
1 
1 
1 
1 
1 
1 
1 
1 
1 
1 
1 
1 
1 
1 
1 
1 
1 
1 
1 
1 
1 
1 
1 
1 
1 
1 
1 
1 
1 
1 
1 
1 
1 
1 
1 
1 
1 
1 
1 
1 
1 
1 
1 
1 
1 
1 
1 
1 
1 
1 
1 
1 
1 
1 
1 
1 
1 
1 
1 
1 
1 
1 
1 
1 
1 
1 
1 
1 
1 
1 
1 
1 
1 
1 
1 
1 
1 
1 
1 
1 
1 
1 
1 
1 
1 
1 
1 
1 
1 
1 
1 
1 
1 
1 
1 
1 
1 
1 
1 
1 
1 
1 
1 
1 
1 
1 
1 
1 
1 
1 
1 
1 
1 
1 
1 
1 
1 
1 
1 
1 
1 
1 
1 
1 
1 
1 
1 
1 
1 
1 
1 
1 
1 
1 
1 
1 
1 
1 
1 
1 
1 
1 
1 
1 
1 
1 
1 
1 
1 
1 
1 
1 
1 
1 
1 
1 
1 
1 
1 
1 
1 
1 
1 
1 
1 
1 
1 
1 
1 
1 
1 
1 
1 
1 
1 
1 
1 
1 
1 
1 
1 
1 
1 
1 
1 
1 
1 
1 
1 
1 
1 
1 
1 
1 
1 
1 
1 
1 
1 
1 
1 
1 
1 
1 
1 
1 
1 
1 
1 
1 
1 
1 
1 
1 
1 
1 
1 
1 
1 
1 
1 
1 
1 
1 
1 
1 
1 
1 
1 
1 
1 
1 
1 
1 
1 
1 
1 
1 
1 
1 
1 
1 
1 
1 
1 
1 
1 
1 
1 
1 
1 
1 
1 
1 
1 
1 
1 
1 
1 
1 
1 
1 
1 
1 
1 
1 
1 
1 
1 
1 
1 
1 
1 
1 
1 
1 
1 
1 
1 
1 
1 
1 
1 
1 
1 
1 
1 
1 
1 
1 
1 
1 
1 
1 
1 
1 
1 
1 
1 
1 
1 
1 
1 
1 
1 
1 
1 
1 
1 
1 
1 
1 
1 
1 
1 
1 
1 
1 
1 
1 
1 
1 
1 
1 
1 
1 
1 
1 
1 
1 
1 
1 
1 
1 
1 
1 
1 
1 
1 
1 
1 
1 
1 
1 
1 
1 
1 
1 
1 
1 
1 
1 
1 
1 
1 
1 
1 
1 
1 
1 
1 
1 
1 
1 
1 
1 
1 
1 
1 
1 
1 
1 
1 
1 
1 
1 
1 
1 
1 
1 
1 
1 
1 
1 
1 
1 
1 
1 
1 
1 
1 
1 
1 
1 
1 
1 
1 
1 
1 
1 
1 
1 
1 
1 
1 
1 
1 
1 
1 
1 
1 
1 
1 
1 
1 
1 
1 
1 
1 
1 
1 
1 
1 
1 
1 
1 
1 
1 
1 
1 
1 
1 
1 
1 
1 
1 
1 
1 
1 
1 
1 
1 
1 
1 
1 
1 
1 
1 
1 
1 
1 
1 
1 
1 
1 
1 
1 
1 
1 
1 
1 
1 
1 
1 
1 
1 
1 
1 
1 
1 
1 
1 
1 
1 
1 
1 
1 
1 
1 
1 
1 
1 
1 
1 
1 
1 
1 
1 
1 
1 
1 
1 
1 
1 
1 
1 
1 
1 
1 
1 
1 
1 
1 
1 
1 
1 
1 
1 
1 
1 
1 
1 
1 
1 
1 
1 
1 
1 
1 
1 
1 
1 
1 
1 
1 
1 
1 
1 
1 
1 
1 
1 
1 
1 
1 
1 
1 
1 
1 
1 
1 
1 
1 
1 
1 
1 
1 
1 
1 
1 
1 
1 
1 
1 
1 
1 
1 
1 
1 
1 
1 
1 
1 
1 
1 
1 
1 
1 
1 
1 
1 
1 
1 
1 
1 
1 
1 
1 
1 
1 
1 
1 
1 
1 
1 
1 
1 
1 
1 
1 
1 
1 
1 
1 
1 
1 
1 
1 
1 
1 
1 
1 
1 
1 
1 
1 
1 
1 
1 
1 
1 
1 
1 
1 
1 
1 
1 
1 
1 
1 
1 
1 
1 
1 
1 
1 
1 
1 
1 
1 
1 
1 
1 
1 
1 
1 
1 
1 
1 
1 
1 
1 
1 
1 
1 
1 
1 
1 
1 
1 
1 
1 
1 
1 
1 
1 
1 
1 
1 
1 
1 
1 
1 
1 
1 
1 
1 
1 
1 
1 
1 
1 
1 
1 
1 
1 
1 
1 
1 
1 
1 
1 
1 
1 
1 
1 
1 
1 
1 
1 
1 
1 
1 
1 
1 
1 
1 
1 
1 
1 
1 
1 
1 
1 
1 
1 
1 
1 
1 
1 
1 
1 
1 
1 
1 
1 
1 
1 
1 
1 
1 
1 
1 
1 
1 
1 
1 
1 
1 
1 
1 
1 
1 
1 
1 
1 
1 
1 
1 
1 
1 
1 
1 
1 
1 
1 
1 
1 
1 
1 
1 
1 
1 
1 
1 
1 
1 
1 
1 
1 
1 
1 
1 
1 
1 
1 
1 
1 
1 
1 
1 
1 
1 
1 
1 
1 
1 
1 
1 
1 
1 
1 
1 
1 
1 
1 
1 
1 
1 
1 
1 
1 
1 
1 
1 
1 
1 
1 
1 
1 
1 
1 
1 
1 
1 
1 
1 
1 
1 
1 
1 
1 
1 
1 
1 
1 
1 
1 
1 
1 
1 
1 
1 
1 
1 
1 
1 
1 
1 
1 
1 
1 
1 
1 
1 
1 
1 
1 
1 
1 
1 
1 
1 
1 
1 
1 
1 
1 
1 
1 
1 
1 
1 
1 
1 
1 
1 
1 
1 
1 
1 
1 
1 
1 
1 
1 
1 
1 
1 
1 
1 
1 
1 
1 
1 
1 
1 
1 
1 
1 
1 
1 
1 
1 
1 
1 
1 
1 
1 
1 
1 
1 
1 
1 
1 
1 
1 
1 
1 
1 
1 
1 
1 
1 
1 
1 
1 
1 
1 
1 
1 
1 
1 
1 
1 
1 
1 
1 
1 
1 
1 
1 
1 
1 
1 
1 
1 
1 
1 
1 
1 
1 
1 
1 
1 
1 
1 
1 
1 
1 
1 
1 
1 
1 
1 
1 
1 
1 
1 
1 
1 
1 
1 
1 
1 
1 
1 
1 
1 
1 
1 
1 
1 
1 
1 
1 
1 
1 
1 
1 
1 
1 
1 
1 
1 
1 
1 
1 
1 
1 
1 
1 
1 
1 
1 
1 
1 
1 
1 
1 
1 
1 
1 
1 
1 
1 
1 
1 
1 
1 
1 
1 
1 
1 
1 
1 
1 
1 
1 
1 
1 
1 
1 
1 
1 
1 
1 
1 
1 
1 
1 
1 
1 
1 
1 
1 
1 
1 
1 
1 
1 
1 
1 
1 
1 
1 
1 
1 
1 
1 
1 
1 
1 
1 
1 
1 
1 
1 
1 
1 
1 
1 
1 
1 
1 
1 
1 
1 
1 
1 
1 
1 
1 
1 
1 
1 
1 
1 
1 
1 
1 
1 
1 
1 
1 
1 
1 
1 
1 
1 
1 
1 
1 
1 
1 
1 
1 
1 
1 
1 
1 
1 
1 
1 
1 
1 
1 
1 
1 
1 
1 
1 
1 
1 
1 
1 
1 
1 
1 
1 
1 
1 
1 
1 
1 
1 
1 
1 
1 
1 
1 
1 
1 
1 
1 
1 
1 
1 
1 
1 
1 
1 
1 
1 
1 
1 
1 
1 
1 
1 
1 
1 
1 
1 
1 
1 
1 
1 
1 
1 
1 
1 
1 
1 
1 
1 
1 
1 
1 
1 
1 
1 
1 
1 
1 
1 
1 
1 
1 
1 
1 
1 
1 
1 
1 
1 
1 
1 
1 
1 
1 
1 
1 
1 
1 
1 
1 
1 
1 
1 
1 
1 
1 
1 
1 
1 
1 
1 
1 
1 
1 
1 
1 
1 
1 
1 
1 
1 
1 
1 
1 
1 
1 
1 
1 
1 
1 
1 
1 
1 
1 
1 
1 
1 
1 
1 
1 
1 
1 
1 
1 
1 
1 
1 
1 
1 
1 
1 
1 
1 
1 
1 
1 
1 
1 
1 
1 
1 
1 
1 
1 
1 
1 
1 
1 
1 
1 
1 
1 
1 
1 
1 
1 
1 
1 
1 
1 
1 
1 
1 
1 
1 
1 
1 
1 
1 
1 
1 
1 
1 
1 
1 
1 
1 
1 
1 
1 
1 
1 
1 
1 
1 
1 
1 
1 
1 
1 
1 
1 
1 
1 
1 
1 
1 
1 
1 
1 
1 
1 
1 
1 
1 
1 
1 
1 
1 
1 
1 
1 
1 
1 
1 
1 
1 
1 
1 
1 
1 
1 
1 
1 
1 
1 
1 
1 
1 
1 
1 
1 
1 
1 
1 
1 
1 
1 
1 
1 
1 
1 
1 
1 
1 
1 
1 
1 
1 
1 
1 
1 
1 
1 
1 
1 
1 
1 
1 
1 
1 
1 
1 
1 
1 
1 
1 
1 
1 
1 
1 
1 
1 
1 
1 
1 
1 
1 
1 
1 
1 
1 
1 
1 
1 
1 
1 
1 
1 
1 
1 
1 
1 
1 
1 
1 
1 
1 
1 
1 
1 
1 
1 
1 
1 
1 
1 
1 
1 
1 
1 
1 
1 
1 
1 
1 
1 
1 
1 
1 
1 
1 
1 
1 
1 
1 
1 
1 
1 
1 
1 
1 
1 
1 
1 
1 
1 
1 
1 
1 
1 
1 
1 
1 
1 
1 
1 
1 
1 
1 
1 
1 
1 
1 
1 
1 
1 
1 
1 
1 
1 
1 
1 
1 
1 
1 
1 
1 
1 
1 
1 
1 
1 
1 
1 
1 
1 
1 
1 
1 
1 
1 
1 
1 
1 
1 
1 
1 
1 
1 
1 
1 
1 
1 
1 
1 
1 
1 
1 
1 
1 
1 
1 
1 
1 
1 
1 
1 
1 
1 
1 
1 
1 
1 
1 
1 
1 
1 
1 
1 
1 
1 
1 
1 
1 
1 
1 
1 
1 
1 
1 
1 
1 
1 
1 
1 
1 
1 
1 
1 
1 
1 
1 
1 
1 
1 
1 
1 
1 
1 
1 
1 
1 
1 
1 
1 
1 
1 
1 
1 
1 
1 
1 
1 
1 
1 
1 
1 
1 
1 
1 
1 
1 
1 
1 
1 
1 
1 
1 
1 
1 
1 
1 
1 
1 
1 
1 
1 
1 
1 
1 
1 
1 
1 
1 
1 
1 
1 
1 
1 
1 
1 
1 
1 
1 
1 
1 
1 
1 
1 
1 
1 
1 
1 
1 
1 
1 
1 
1 
1 
1 
1 
1 
1 
1 
1 
1 
1 
1 
1 
1 
1 
1 
1 
1 
1 
1 
1 
1 
1 
1 
1 
1 
1 
1 
1 
1 
1 
1 
1 
1 
1 
1 
1 
1 
1 
1 
1 
1 
1 
1 
1 
1 
1 
1 
1 
1 
1 
1 
1 
1 
1 
1 
1 
1 
1 
1 
1 
1 
1 
1 
1 
1 
1 
1 
1 
1 
1 
1 
1 
1 
1 
1 
1 
1 
1 
1 
1 
1 
1 
1 
1 
1 
1 
1 
1 
1 
1 
1 
1 
1 
1 
1 
1 
1 
1 
1 
1 
1 
1 
1 
1 
1 
1 
1 
1 
1 
1 
1 
1 
1 
1 
1 
1 
1 
1 
1 
1 
1 
1 
1 
1 
1 
1 
1 
1 
1 
1 
1 
1 
1 
1 
1 
1 
1 
1 
1 
1 
1 
1 
1 
1 
1 
1 
1 
1 
1 
1 
1 
1 
1 
1 
1 
1 
1 
1 
1 
1 
1 
1 
1 
1 
1 
1 
1 
1 
1 
1 
1 
1 
1 
1 
1 
1 
1 
1 
1 
1 
1 
1 
1 
1 
1 
1 
1 
1 
1 
1 
1 
1 
1 
1 
1 
1 
1 
1 
1 
1 
1 
1 
1 
1 
1 
1 
1 
1 
1 
1 
1 
1 
1 
1 
1 
1 
1 
1 
1 
1 
1 
1 
1 
1 
1 
1 
1 
1 
1 
1 
1 
1 
1 
1 
1 
1 
1 
1 
1 
1 
1 
1 
1 
1 
1 
1 
1 
1 
1 
1 
1 
1 
1 
1 
1 
1 
1 
1 
1 
1 
1 
1 
1 
1 
1 
1 
1 
1 
1 
1 
1 
1 
1 
1 
1 
1 
1 
1 
1 
1 
1 
1 
1 
1 
1 
1 
1 
1 
1 
1 
1 
1 
1 
1 
1 
1 
1 
1 
1 
1 
1 
1 
1 
1 
1 
1 
1 
1 
1 
1 
1 
1 
1 
1 
1 
1 
1 
1 
1 
1 
1 
1 
1 
1 
1 
1 
1 
1 
1 
1 
1 
1 
1 
1 
1 
1 
1 
1 
1 
1 
1 
1 
1 
1 
1 
1 
1 
1 
1 
1 
1 
1 
1 
1 
1 
1 
1 
1 
1 
1 
1 
1 
1 
1 
1 
1 
1 
1 
1 
1 
1 
1 
1 
1 
1 
1 
1 
1 
1 
1 
1 
1 
1 
1 
1 
1 
1 
1 
1 
1 
1 
1 
1 
1 
1 
1 
1 
1 
1 
1 
1 
1 
1 
1 
1 
1 
1 
1 
1 
1 
1 
1 
1 
1 
1 
1 
1 
1 
1 
1 
1 
1 
1 
1 
1 
1 
1 
1 
1 
1 
1 
1 
1 
1 
1 
1 
1 
1 
1 
1 
1 
1 
1 
1 
1 
1 
1 
1 
1 
1 
1 
1 
1 
1 
1 
1 
1 
1 
1 
1 
1 
1 
1 
1 
1 
1 
1 
1 
1 
1 
1 
1 
1 
1 
1 
1 
1 
1 
1 
1 
1 
1 
1 
1 
1 
1 
1 
1 
1 
1 
1 
1 
1 
1 
1 
1 
1 
1 
1 
1 
1 
1 
1 
1 
1 
1 
1 
1 
1 
1 
1 
1 
1 
1 
1 
1 
1 
1 
1 
1 
1 
1 
1 
1 
1 
1 
POINT_DATA 5000
VECTORS Stress float
-101.913 1065.58 0.
-613.174 544.619 0.
-750.181 224.189 0.
142.408 392.328 0.
174.067 465.341 0.
205.725 538.354 0.
217.903 371.779 0.
-56.7501 -269.758 0.
-331.403 -911.295 0.
-493.115 -984.252 0.
-333.281 -611.096 0.
-173.447 -237.94 0.
-598.227 -270.744 0.
-534.385 -121.094 0.
-1252.95 -260.927 0.
-932.67 485.891 0.
-612.389 1232.71 0.
876.854 1887.26 0.
149.185 187.655 0.
-578.486 -1511.95 0.
-1587.65 -2214.6 0.
-1172.15 -1246.1 0.
-756.652 -277.591 0.
-650.837 167.154 0.
-518.846 475.889 0.
-258.387 839.677 0.
-2278.79 428.555 0.
-2039.31 989.052 0.
-1578.17 1477.68 0.
-1794.32 972.424 0.
-2010.47 467.168 0.
-2811.38 96.6389 0.
-2532.48 746.895 0.
-2253.58 1397.15 0.
-3183.18 386.869 0.
-3880.48 -1238.04 0.
-4577.79 -2862.95 0.
-7570.69 -2878.41 0.
-6642.08 -709.284 0.
-9182.47 -49.7015 0.
-7646.57 1634.33 0.
-7106.75 2891.47 0.
-10859.5 1942.57 0.
-11094.4 1396.99 0.
-11329.4 851.424 0.
-12793.9 -1410.15 0.
-14255.5 -4823.88 0.
-15717.1 -8237.6 0.
89786.6 36564.1 0.
89835.9 36688.9 0.
-1.54256e+06 -662808 0.
89098.7 36367.9 0.
89048.8 36241.8 0.
-15450.1 -8110.84 0.
-14038.8 -4814.82 0.
-12627.5 -1518.8 0.
-9995.4 1066.88 0.
-9840.95 1428.27 0.
-9686.5 1789.66 0.
-7465.32 2431.63 0.
-7705.49 1871.12 0.
-8079.13 1253.49 0.
-8338.49 663.54 0.
-8613.73 23.5404 0.
-1813.11 2172.7 0.
-2793.13 -114.852 0.
-3773.15 -2402.4 0.
-2967 -2766.62 0.
-2370.87 -1377.24 0.
-1774.75 12.1415 0.
-1668.71 589.608 0.
-1585.67 783.057 0.
-1502.62 976.506 0.
-2305.42 862.916 0.
-2170.99 1177.66 0.
-211.809 2260.19 0.
-473.65 1581.7 0.
-771.494 887.785 0.
581.926 763.751 0.
46.38 -484.921 0.
-489.166 -1733.59 0.
-547.328 -1640.02 0.
118.084 -85.9392 0.
783.496 1468.14 0.
-606.728 1156.1 0.
-654.41 1045.73 0.
-702.092 935.367 0.
-1088.68 259.301 0.
-1377.38 -414.07 0.
-736.099 -566.448 0.
-621.784 -298.44 0.
-507.468 -30.4318 0.
-429.548 179.227 0.
-386.098 278.88 0.
-342.648 378.533 0.
-27.6748 459.801 0.
-88.0915 318.92 0.
-148.508 178.038 0.
19.2428 252.297 0.
27.6116 272.379 0.
536.526 1370.43 0.
-11.8054 832.745 0.
-148.608 511.303 0.
78.3261 398.96 0.
110.433 471.305 0.
142.54 543.65 0.
103.431 355.739 0.
-170.673 -285.874 0.
-444.776 -927.488 0.
-202.597 -828.709 0.
-42.7943 -455.207 0.
117.008 -81.7044 0.
-889.549 -364.076 0.
-826.078 -213.918 0.
-745.02 -13.9421 0.
-424.291 732.913 0.
-103.562 1479.77 0.
-891.12 1161.55 0.
-1616.84 -536.927 0.
-2342.57 -2235.4 0.
1084.92 -1038.78 0.
1501.8 -69.0653 0.
1918.68 900.652 0.
-1453.05 -143.393 0.
-1321.92 164.86 0.
-1521.48 331.385 0.
-2367.02 419.736 0.
-2128.69 980.943 0.
-1557.1 1518.06 0.
-1772.67 1012.37 0.
-1988.23 506.676 0.
-2680.83 186.708 0.
-2401.29 837.42 0.
-2121.75 1488.13 0.
-2161.14 854.395 0.
-2860.1 -770.116 0.
-3559.05 -2394.63 0.
-7928.36 -3001.18 0.
-7001.48 -831.357 0.
-7399.32 750.042 0.
-6857.7 2006.51 0.
-6316.08 3262.98 0.
-10621.3 2068.81 0.
-10858.1 1523.83 0.
-11095 978.859 0.
-10660.1 -474.599 0.
-12122 -3895.69 0.
-13583.9 -7316.75 0.
85493.7 34739.9 0.
85536.9 34869.6 0.
-1.35487e+06 -582342 0.
84766.5 34534.4 0.
84722.7 34403.4 0.
-13381.3 -7213.42 0.
-11969.9 -3911.08 0.
-10558.5 -608.741 0.
-9902.4 1131.49 0.
-9748.61 1493.36 0.
-9594.82 1855.22 0.
-6647.07 2816.08 0.
-6887.25 2255.31 0.
-7127.43 1694.53 0.
-7283.69 1149.55 0.
-7560.39 510.577 0.
-2633.3 1851.05 0.
-3612.13 -435.393 0.
-4590.97 -2721.84 0.
-1384.34 -2058.97 0.
-786.671 -669.127 0.
-188.997 720.721 0.
-1689.49 615.702 0.
-1606.43 808.535 0.
-1523.37 1001.37 0.
-3053.89 572.136 0.
-2920.25 887.2 0.
-1562.43 1715.06 0.
-1749.87 1069.69 0.
-2048.19 376.788 0.
3929.43 2230.1 0.
3392 978.916 0.
2854.57 -272.269 0.
-2016.48 -2237.3 0.
-1352.79 -684.318 0.
-689.093 868.664 0.
-990.269 1023.63 0.
-1038.68 913.334 0.
-1087.09 803.043 0.
-974.441 341.199 0.
-1263.38 -332.234 0.
-554.11 -459.159 0.
-440.549 -190.368 0.
-326.988 78.4233 0.
-344.499 245.701 0.
-300.223 343.818 0.
-255.947 441.936 0.
108.261 550.619 0.
47.7501 409.698 0.
-12.761 268.777 0.
260.413 387.982 0.
268.467 408.438 0.
228.251 -526.115 0.
-120.378 -530.989 0.
69.1207 -87.4893 0.
-585.837 -999.913 0.
-324.312 -388.339 0.
-681.205 -1219.75 0.
-1659.88 -3507.01 0.
-1161.77 -2345.82 0.
-3802.19 -8507.88 0.
-5745.16 -14278.9 0.
-1390.07 -4119.03 0.
-1618.17 -4653.2 0.
-3155.7 -5062.86 0.
-3564 -6014.06 0.
-4482.56 -9680.53 0.
-1622.05 -3006.59 0.
-2112.89 -4152.44 0.
-5058.21 -5186.86 0.
-4128.95 -3018.11 0.
-5950.05 -7266.84 0.
-38883.2 -99357.4 0.
797.852 -6762.26 0.
1195.33 -5828.77 0.
-4597.92 -5928.01 0.
-3924.88 -4360.25 0.
-4809.56 -6483.44 0.
-4397.96 -4108.89 0.
-4278.41 -3833.58 0.
-3371.83 -2748.4 0.
-3324.37 -2631.18 0.
-4467.98 -5293.11 0.
-8487.15 -13588.9 0.
-5308.44 -6166.02 0.
-5275.56 -6083.38 0.
-3816.64 -4888.32 0.
-3785.55 -4824.09 0.
-20063.8 -42815 0.
-17305.4 -24181.7 0.
-13725.6 -15835.8 0.
-12879.1 -13551.9 0.
-10814.3 -8741.78 0.
-10878.8 -8899.73 0.
-14552.3 -7589.48 0.
-13268.9 -4595.45 0.
-13155.7 -4332.02 0.
-11234.8 -5956.8 0.
-13362.4 -10888.6 0.
-53874.1 -105384 0.
81266.7 33103.1 0.
90325.7 54351.5 0.
-1.22091e+06 -526755 0.
89385.4 53693.7 0.
80144.8 32021.1 0.
-49925.9 -96419.5 0.
-13867 -12310 0.
-13044.1 -10417.7 0.
-13981.2 -8572.81 0.
-13443.1 -7322.11 0.
-14584.5 -9990.04 0.
-10331.7 -7354.23 0.
-8988.32 -4217.84 0.
-8961.97 -4154.62 0.
-8487.11 -3629.8 0.
-8952.36 -4725.24 0.
-7490.29 -7898.66 0.
-6484.43 -5552.61 0.
-8013.18 -9120.63 0.
-28427.7 -68146.8 0.
-2021.88 -6526.21 0.
-2573.03 -7805.23 0.
-5444.53 -8077.49 0.
-4838.16 -6663.38 0.
-6660.49 -10916.2 0.
-5410.97 -3474.08 0.
-5035.45 -2601 0.
-4845.36 -3480.49 0.
-4076.73 -1902.87 0.
-4900.64 -3823.55 0.
-2968.64 -20187.5 0.
-3093.37 -20484.6 0.
-54851.9 -141261 0.
-12916.1 -24841.4 0.
-6931.69 -10880.1 0.
-7795.76 -12898.6 0.
-3747.45 -4646.71 0.
-2681.04 -2162.21 0.
-3356.36 -3741.72 0.
-2470.56 -3322.25 0.
-2644.42 -3726.76 0.
-3532.52 -7731.8 0.
-989.345 -1795.13 0.
-848.943 -1465.29 0.
-1211.83 -1923.05 0.
-1127.77 -1724.02 0.
-2141.51 -4086.5 0.
-1017.46 -2307.86 0.
-187.682 -371.369 0.
-1.3686 63.6632 0.
23.1346 -576.447 0.
-1045.08 -3068.89 0.
533.114 374.171 0.
444.207 569.571 0.
528.499 767.208 0.
316.289 809.061 0.
313.625 807.218 0.
310.961 805.377 0.
339.475 1254.46 0.
903.533 2569.83 0.
1467.59 3885.2 0.
1717.52 4079.25 0.
1464.71 3488.74 0.
1211.91 2898.23 0.
656.168 2750.4 0.
747.065 2963.34 0.
1168.66 3241.08 0.
789.451 2358.85 0.
410.244 1476.62 0.
-1481.82 1131.98 0.
236.45 5137.91 0.
1954.73 9143.84 0.
6365.21 11486.9 0.
5207.82 8787.06 0.
4050.42 6087.25 0.
246.014 3614.48 0.
61.7272 3183.47 0.
427.357 2988.08 0.
-945.144 2189.89 0.
-1050.66 1942.42 0.
-954.741 1988.41 0.
-535.834 2972.43 0.
-116.927 3956.45 0.
-575.367 4027.1 0.
-809.199 3487.03 0.
-1043.03 2946.96 0.
-317.527 4765.09 0.
1062.59 7980.47 0.
2442.72 11195.9 0.
-2326.57 8470.55 0.
-2989.71 6918.33 0.
-2898.49 5658.96 0.
-3387.04 4520.43 0.
-3875.58 3381.91 0.
-6491.4 1586.55 0.
-6550.47 1455.92 0.
-6609.5 1325.29 0.
-5298.88 536.691 0.
-6781.27 -2894.36 0.
-8263.64 -6325.32 0.
73742.9 40186.6 0.
83030.9 62060.6 0.
-905423 -343671 0.
81926.1 61844.1 0.
72780.2 40287.8 0.
-7367.83 -5265.93 0.
-5862.04 -1784.71 0.
-4356.22 1696.59 0.
-5719.13 2423.88 0.
-5795.91 2237.48 0.
-5872.69 2051.08 0.
-4177.71 2815.06 0.
-4134.85 2914.95 0.
-4091.99 3014.84 0.
-4341.2 2374.72 0.
-4616.97 1724.2 0.
-2411.96 2722.98 0.
-794.231 6490.73 0.
823.502 10258.5 0.
4746.67 12804.1 0.
3281.73 9387.05 0.
1816.78 5969.97 0.
177.913 4193.62 0.
211.821 4268.8 0.
245.729 4343.99 0.
-1321.3 3107.4 0.
-1696.96 2231.51 0.
-900.861 1895.28 0.
-274.207 3515.82 0.
436.056 5172.18 0.
6362.22 9526.49 0.
7894.92 13103.6 0.
9427.6 16680.6 0.
4533.47 14160.4 0.
2499.52 9414.76 0.
465.581 4669.18 0.
201.085 2967.47 0.
-158.777 2126.54 0.
-518.637 1285.61 0.
-218.788 1514.44 0.
-129.478 1726.91 0.
636.471 2159.91 0.
456.708 1743.4 0.
276.944 1326.89 0.
119.182 1036.17 0.
103.735 1004.75 0.
88.2887 973.331 0.
454.37 1058.88 0.
398.351 928.618 0.
342.333 798.358 0.
634.548 989.734 0.
697.3 1137.51 0.
450.92 371.204 0.
574.149 656.006 0.
658.53 853.474 0.
488.392 914.613 0.
484.731 913.486 0.
481.072 912.361 0.
305.401 1271.27 0.
869.411 2586.84 0.
1433.42 3902.42 0.
1236.53 3902.22 0.
983.488 3312.48 0.
730.446 2722.73 0.
1240.11 3031.82 0.
1331.13 3244.4 0.
1322.82 3336.25 0.
942.548 2454.68 0.
562.273 1573.11 0.
-400.769 1628.41 0.
1320.05 5636.4 0.
3040.88 9644.41 0.
3617.51 10340.2 0.
2463.93 7644.02 0.
1310.34 4947.84 0.
1187.42 4051.05 0.
1002.28 3619.73 0.
1513.08 3486.59 0.
-5.73065 2624.08 0.
-112.162 2376.82 0.
-465.065 2227.96 0.
-46.102 3212.17 0.
372.86 4196.37 0.
-115.401 4255.56 0.
-349.059 3715.5 0.
-582.717 3175.45 0.
-1082.67 4468.56 0.
295.577 7682.98 0.
1673.82 10897.4 0.
-1101.72 9030.15 0.
-1766.13 7477.18 0.
-743.033 6611.21 0.
-1235.05 5473.66 0.
-1727.06 4336.12 0.
-1422.72 3780.86 0.
-1484.62 3651.39 0.
-1546.5 3521.92 0.
-1438.95 2186.06 0.
-2924.46 -1256.99 0.
-4409.96 -4699.92 0.
60960.4 35007.1 0.
70133.4 56700.4 0.
-587416 -207351 0.
68592.8 56291.4 0.
59569.1 34917.9 0.
-3097.74 -3451.2 0.
-1585.64 40.4886 0.
-73.5154 3532.27 0.
-1355.17 4325.16 0.
-1431.61 4137.08 0.
-1508.05 3948.99 0.
-1962.45 3793.91 0.
-1919.06 3893.19 0.
-1875.66 3992.47 0.
-2395.45 3245.52 0.
-2672.4 2595 0.
-1752.76 3033.3 0.
-132.189 6801.71 0.
1488.39 10570.1 0.
2902.88 12046 0.
1441.67 8631.75 0.
-19.5442 5217.53 0.
641.567 4427.55 0.
676.327 4501.56 0.
711.088 4575.57 0.
250.976 3814.97 0.
-126.193 2939.34 0.
898.78 2695.62 0.
1554.92 4329.9 0.
2267.18 5988.24 0.
2212.18 7785.02 0.
3738.34 11353.7 0.
5264.48 14922.4 0.
5455.48 14597.9 0.
3419.27 9849.61 0.
1383.07 5101.32 0.
1056.78 3365.05 0.
695.81 2524.04 0.
334.837 1683.03 0.
16.7286 1646.5 0.
105.015 1859.62 0.
565.917 2158.98 0.
386.039 1742.93 0.
206.16 1326.88 0.
212.665 1107.84 0.
196.675 1076.84 0.
180.685 1045.84 0.
506.136 1112.21 0.
450.024 981.856 0.
393.913 851.503 0.
578.461 998.595 0.
640.944 1147 0.
318.5 363.339 0.
320.258 280.641 0.
297.147 229.735 0.
194.282 169.591 0.
253.1 305.78 0.
311.918 441.971 0.
-181.927 146.792 0.
-382.333 -319.81 0.
-582.74 -786.411 0.
-903.938 -927.929 0.
-785.389 -654.626 0.
-666.838 -381.322 0.
105.59 22.004 0.
130.923 82.7277 0.
-203.414 11.4939 0.
-86.0844 284.722 0.
31.2445 557.951 0.
-440.493 174.459 0.
-1030.66 -1191.83 0.
-1620.82 -2558.11 0.
-2799.97 -3099.74 0.
-2293.64 -1919.01 0.
-1787.31 -738.272 0.
-181.947 151.659 0.
-211.025 81.3324 0.
275.771 232.194 0.
-737.958 165.521 0.
-535.773 633.708 0.
-798.776 748.663 0.
-1026.98 214.389 0.
-1255.18 -319.885 0.
-1843.16 -674.637 0.
-1653.22 -237.964 0.
-1463.29 198.713 0.
-3104.26 -958.989 0.
-3570.42 -2055.15 0.
-4036.57 -3151.3 0.
-4996.87 -3268.66 0.
-4742.98 -2684.41 0.
-2427.51 -1280.29 0.
-2736.72 -2001.66 0.
-3045.93 -2723.03 0.
-1027.26 -2611.33 0.
-1624 -3990.28 0.
-2220.72 -5369.23 0.
-623.981 -3376.9 0.
1237.45 1037.64 0.
3098.8 5452.11 0.
40278.6 11252.3 0.
32119.4 -7381.95 0.
8132.58 -32775 0.
29822.5 -7976.3 0.
38177.7 11109.4 0.
4309.73 6802.7 0.
2147.65 1726.67 0.
-14.5181 -3349.4 0.
-2879.08 -5979.94 0.
-2119.82 -4209.21 0.
-1360.54 -2438.47 0.
-2930.8 -2332.12 0.
-2670.29 -1721.54 0.
-2409.76 -1110.96 0.
-2890.71 -1098.57 0.
-2783.54 -848.125 0.
-2578.38 -704.776 0.
-3034.61 -1764.29 0.
-3490.84 -2823.81 0.
-3689.99 -3097.35 0.
-3177.12 -1897.43 0.
-2664.23 -697.509 0.
-862.436 268.861 0.
-1043.29 -148.011 0.
-1224.14 -564.882 0.
-973.798 -369.36 0.
-875.254 -147.296 0.
375.638 582.079 0.
338.536 576.542 0.
339.695 587.401 0.
-2444.44 -1040.77 0.
-3279.64 -2991.5 0.
-4114.83 -4942.22 0.
-2203.41 -4199.6 0.
-1402.01 -2332.14 0.
-600.616 -464.674 0.
-37.3876 272.078 0.
7.78211 371.686 0.
52.9502 471.295 0.
-439.618 237.805 0.
-458.447 194.783 0.
-325.828 214.336 0.
-334.591 199.301 0.
-343.353 184.265 0.
-83.4118 231.464 0.
-176.47 20.439 0.
-269.528 -190.585 0.
-80.1062 -22.3212 0.
52.0556 283.498 0.
184.217 589.318 0.
420.483 740.498 0.
421.102 746.38 0.
105.483 299.868 0.
-4.47971 172.112 0.
-28.7302 122.614 0.
120.117 165.245 0.
179.594 301.256 0.
239.071 437.268 0.
-153.432 190.417 0.
-354.051 -276.271 0.
-554.67 -742.959 0.
-570.491 -757.014 0.
-451.755 -483.685 0.
-333.017 -210.354 0.
-79.0347 -26.0702 0.
-53.9149 34.246 0.
-545.768 -106.883 0.
-429.622 166.744 0.
-313.478 440.371 0.
-80.8425 360.478 0.
-670.462 -1007.36 0.
-1260.08 -2375.19 0.
-1731.96 -2608.97 0.
-1224.93 -1427.66 0.
-717.9 -246.344 0.
-325.024 120.729 0.
-353.768 50.3777 0.
-907.491 -245.002 0.
-853.228 146.211 0.
-652.274 614.64 0.
-511.64 901.723 0.
-739.962 367.595 0.
-968.285 -166.533 0.
-1343.34 -432.11 0.
-1154 5.27416 0.
-964.663 442.661 0.
-1647.37 -308.024 0.
-2115.9 -1403.16 0.
-2584.42 -2498.28 0.
-2853.18 -2319.74 0.
-2598.71 -1734.91 0.
-359.238 -372.015 0.
-670.562 -1093.26 0.
-981.88 -1814.52 0.
1632.01 -1450.44 0.
1031.63 -2831.08 0.
431.281 -4211.71 0.
3291.09 -1633.71 0.
5163.44 2787.31 0.
7035.75 7208.29 0.
27416.5 5609.86 0.
19382.7 -12897.3 0.
2872.64 -34983.4 0.
15910.4 -13978.6 0.
24128.8 4961.59 0.
7445.53 8231.75 0.
5274.17 3147.91 0.
3102.75 -1935.94 0.
-149.164 -4794.23 0.
611.913 -3020.83 0.
1373 -1247.42 0.
-1041.61 -1497.96 0.
-780.802 -886.883 0.
-519.981 -275.8 0.
-1446.93 -446.923 0.
-1340.12 -196.265 0.
-1344.68 -143.025 0.
-1802.05 -1203.05 0.
-2259.41 -2263.08 0.
-2194.58 -2430.38 0.
-1681.88 -1229.14 0.
-1169.17 -27.8943 0.
-619.396 404.206 0.
-800.115 -12.8922 0.
-980.833 -429.989 0.
-1082.94 -386.68 0.
-985.343 -163.169 0.
-395.635 281.805 0.
-444.053 270.384 0.
-441.99 280.595 0.
-616.23 -223.892 0.
-1452.62 -2176.46 0.
-2289 -4129.02 0.
-2074.43 -4116.1 0.
-1272.52 -2248.79 0.
-470.605 -381.468 0.
-275.686 202.762 0.
-230.192 302.455 0.
-184.7 402.147 0.
-315.16 321.611 0.
-333.176 277.967 0.
-359.469 231.366 0.
-368.147 216.165 0.
-376.825 200.963 0.
47.4076 320.053 0.
-45.0337 108.722 0.
-137.474 -102.609 0.
-326.68 -98.4371 0.
-195.04 207.466 0.
-63.3997 513.368 0.
381.673 755.956 0.
380.522 762.92 0.
70.9015 671.358 0.
9.43813 850.593 0.
-103.357 584.576 0.
-15.2985 5.56141 0.
109.68 299.698 0.
143.298 380.678 0.
-784.091 -1310.01 0.
173.274 930.771 0.
140.816 861.557 0.
52.2551 65.3824 0.
-373.887 -923.837 0.
14.4298 -12.6715 0.
-113.645 279.049 0.
-201.364 69.1054 0.
-1191.73 -944.692 0.
-786.561 -7.08983 0.
-1058.51 -649.436 0.
-432.198 -1078.52 0.
-390.273 -982.003 0.
-120.809 -354.588 0.
153.834 -180.354 0.
260.713 65.6151 0.
380.772 342.294 0.
-355.831 342.145 0.
-593.137 -211.028 0.
-444.167 246.449 0.
-997.064 56.6406 0.
-1383.08 -857.213 0.
-845.395 -386.563 0.
-326.998 819.663 0.
104.201 1822.45 0.
-1271.19 -1187.25 0.
-898.31 -321.247 0.
-477.035 657.76 0.
37.2969 914.454 0.
-1070.18 -1667.98 0.
-2002.08 -3840.85 0.
-1476.01 -3150.35 0.
-1000.71 -2040.29 0.
910.253 -1305.56 0.
594.051 -2037.69 0.
482.107 -2293.33 0.
3592.41 -1807.47 0.
3468.33 -2104.63 0.
4183.71 -443.175 0.
7535.87 1028.35 0.
7463.96 851.979 0.
7203.68 243.727 0.
15977.4 3180.17 0.
15769.5 2710.82 0.
4334.47 -4617.11 0.
10729.8 181.443 0.
11313.5 1524.85 0.
6724.16 748.296 0.
6174.51 -556.323 0.
5643.37 -1817.61 0.
3788.95 -687.968 0.
4417.25 769.162 0.
4405.72 733.409 0.
304.179 -1922.62 0.
2.59264 -2628.29 0.
1270.88 329.169 0.
-424.076 -772.929 0.
-1067.92 -2269.32 0.
-1119.86 -1897.14 0.
-27.6317 652.07 0.
-473.059 -386.618 0.
-165.88 -436.431 0.
-165.143 -440.115 0.
142.63 272.656 0.
-828.885 -510.187 0.
-31.9311 1346.8 0.
-220.982 903.156 0.
-1514.15 -1158.73 0.
-1699.7 -1593.43 0.
-888.363 140.451 0.
-1601.76 -964.247 0.
-2089.36 -2101.99 0.
983.638 147.204 0.
431.804 -1139.43 0.
371.017 -1280.22 0.
-907.29 -1614.42 0.
-517.03 -700.094 0.
-164.543 126.16 0.
-973.456 -964.688 0.
-954.134 -911.505 0.
-1359.69 -1849.73 0.
-324.551 111.573 0.
144.275 1204.31 0.
202.022 1637.57 0.
23.4014 1207.49 0.
-173.715 734.079 0.
282.853 685.696 0.
342.613 823.055 0.
886.944 2091.09 0.
-131.105 841.263 0.
-346.375 339.379 0.
-453.766 89.249 0.
526.028 1197.06 0.
104.53 203.772 0.
164.071 652.785 0.
-338.715 387.65 0.
-364.223 325.306 0.
180.449 493.148 0.
95.9828 297.189 0.
11.5164 101.23 0.
-164.714 -104.249 0.
-196.629 -171.418 0.
-228.544 -238.588 0.
-95.5908 -263.854 0.
-158.747 -407.089 0.
-221.902 -550.324 0.
-439.777 -650.037 0.
-427.628 -624.404 0.
-813.076 -763.404 0.
-690.799 -481.735 0.
-568.523 -200.064 0.
-36.9899 51.8347 0.
-311.494 -589.276 0.
-585.998 -1230.39 0.
-265.019 -1253.76 0.
-164.713 -1023.21 0.
-64.4072 -792.662 0.
-733.195 -787.183 0.
-563.093 -391.403 0.
-397.695 2.5273 0.
-1125.5 -458.746 0.
-1201.14 -647.506 0.
-698.273 -559.091 0.
-658.588 -467.543 0.
-618.904 -375.996 0.
-647.549 -381.734 0.
-702.329 -512.472 0.
-757.108 -643.21 0.
-152.792 -563.098 0.
-274.84 -844.314 0.
-396.882 -1125.53 0.
300.345 -1122.29 0.
143.692 -1485.48 0.
1634.52 -1138.26 0.
1285.31 -1943.69 0.
936.103 -2749.13 0.
3441.39 -2115.92 0.
3471.14 -2049.95 0.
3500.91 -1984 0.
5817.47 -629.294 0.
6146.04 120.125 0.
6474.57 869.551 0.
13071.2 2414.8 0.
12098 150.286 0.
4866.94 -4793.97 0.
8570.09 -1439.26 0.
9501.66 727.249 0.
5726.04 390.595 0.
5579.49 38.3833 0.
5432.91 -313.811 0.
3305.73 -1464.9 0.
3207.32 -1701.15 0.
3108.9 -1937.39 0.
689.466 -2663.6 0.
974.046 -2001.34 0.
1258.63 -1339.08 0.
-239.461 -1644.71 0.
-74.354 -1256.32 0.
-363.287 -1128.94 0.
-440.096 -1308.84 0.
-516.904 -1488.73 0.
-441.444 -1359.89 0.
-173.755 -741.79 0.
93.9345 -123.689 0.
-465.435 -228.942 0.
-522.846 -362.627 0.
-580.255 -496.312 0.
-1119.49 -643.417 0.
-1052.91 -487.091 0.
-873.696 -308.352 0.
-1200.78 -1007.56 0.
-1496.03 -1693.13 0.
19.6352 -1512.81 0.
-89.5292 -1764.09 0.
-198.696 -2015.36 0.
-831.637 -2048.47 0.
-452.905 -1161.36 0.
-74.1733 -274.241 0.
-460.211 -94.9976 0.
-358.271 148.853 0.
-256.333 392.705 0.
-239.59 257.876 0.
-333.962 37.0068 0.
-335.918 -138.878 0.
-353.304 -187.511 0.
-370.69 -236.146 0.
-332.316 -197.447 0.
-268.731 -48.2129 0.
-205.147 101.021 0.
-360.206 75.4486 0.
-363.132 69.2791 0.
-366.058 63.1101 0.
-16.6462 152.204 0.
-48.4295 71.3836 0.
302.876 740.693 0.
-506.673 345.062 0.
-532.09 282.986 0.
181.568 526.631 0.
97.5139 330.2 0.
13.4592 133.768 0.
-22.5258 -11.9257 0.
-54.5124 -79.0061 0.
-86.4986 -146.087 0.
-85.8974 -226.229 0.
-148.889 -370.012 0.
-211.88 -513.795 0.
-335.226 -574.581 0.
-323.984 -548.311 0.
-427.544 -566.318 0.
-306.56 -283.869 0.
-185.577 -1.41925 0.
-130.996 40.5883 0.
-405.57 -600.141 0.
-680.143 -1240.87 0.
-198.83 -1195.46 0.
-98.4552 -964.56 0.
1.91933 -733.659 0.
-585.605 -691.742 0.
-414.816 -296.451 0.
-262.312 91.2109 0.
-994.631 -370.336 0.
-1070.63 -559.066 0.
-411.178 -404.019 0.
-372.627 -312.35 0.
-334.076 -220.681 0.
-290.612 -199.709 0.
-346.002 -330.275 0.
-401.39 -460.841 0.
405.47 -294.173 0.
282.752 -575.107 0.
160.039 -856.036 0.
1429.26 -605.442 0.
1272.15 -968.742 0.
2447.26 -763.706 0.
2096.76 -1568.63 0.
1746.27 -2373.54 0.
3432.94 -2092.35 0.
3461.6 -2024.5 0.
3490.27 -1956.66 0.
4600.92 -1116.14 0.
4932.16 -368.512 0.
5263.39 379.127 0.
9931.25 1102.19 0.
8963.51 -1158.91 0.
1115.4 -6374.94 0.
6788.71 -2175.24 0.
7715.36 -9.20474 0.
4705.69 -19.5429 0.
4555.43 -368.409 0.
4405.15 -717.261 0.
3135.36 -1512.06 0.
3036.23 -1747.78 0.
2937.1 -1983.5 0.
1565.92 -2258.61 0.
1850.74 -1595.06 0.
2135.57 -931.509 0.
459.433 -1317.04 0.
625.792 -928.975 0.
178.487 -861.317 0.
102.432 -1041.59 0.
26.3797 -1221.86 0.
-275.902 -1254.41 0.
-7.94614 -636.687 0.
260.011 -18.9604 0.
-151.627 -64.3174 0.
-209.907 -196.985 0.
-268.187 -329.652 0.
-889.991 -513.276 0.
-824.214 -356.283 0.
-259.463 -15.1952 0.
-671.063 -749.545 0.
-967.313 -1434.43 0.
-274.8 -1611.14 0.
-384.523 -1861.22 0.
-494.247 -2111.3 0.
-495.796 -1874.69 0.
-116.588 -987.234 0.
262.62 -99.7839 0.
-269.65 21.7591 0.
-166.939 265.171 0.
-64.2297 508.584 0.
-194.461 311.258 0.
-289.137 90.4946 0.
-46.4106 16.361 0.
-65.3506 -30.8456 0.
-84.2905 -78.0528 0.
-607.73 -287.443 0.
-545.073 -137.544 0.
-482.416 12.3543 0.
-222.773 164.734 0.
-225.787 158.667 0.
-228.8 152.6 0.
-116.804 139.866 0.
-149.674 59.6214 0.
75.4034 312.346 0.
-659.817 58.6484 0.
-629.612 124.738 0.
177.93 488.748 0.
103.965 310.184 0.
29.9994 131.619 0.
-8.76919 -36.8164 0.
-100.999 -262.345 0.
-193.229 -487.876 0.
-170.029 -534.408 0.
-150.148 -489.74 0.
-130.265 -445.072 0.
-351.9 -639.581 0.
-421.807 -798.436 0.
-396.279 -901.627 0.
-358.084 -816.703 0.
-319.889 -731.777 0.
-386.417 -747.301 0.
-440.661 -875.24 0.
-494.905 -1003.18 0.
-91.1541 -857.496 0.
-72.2122 -814.175 0.
-53.2707 -770.854 0.
-718.267 -1073.93 0.
-741.326 -1128.11 0.
-479.289 -1060.03 0.
-1034.16 -1270.86 0.
-1010.99 -1221.06 0.
-462.857 -954.438 0.
-440.632 -904.21 0.
-418.408 -853.98 0.
-335.115 -952.666 0.
-543.381 -1447.77 0.
-751.649 -1942.87 0.
150.36 -1838.75 0.
45.5662 -2080.78 0.
-59.2303 -2322.81 0.
1491.81 -2052.26 0.
1262.68 -2585.95 0.
1965.73 -2673.11 0.
2023.65 -2535.27 0.
2081.57 -2397.42 0.
3193.94 -1640.26 0.
3539.45 -832.389 0.
3884.94 -24.5316 0.
4467.37 640.653 0.
4563.95 866.563 0.
4660.53 1092.47 0.
8493.21 2022.96 0.
7975.76 815.307 0.
186.452 -3508.17 0.
6635.95 38.8026 0.
7050.12 999.745 0.
4054.72 255.953 0.
3908.13 -86.0201 0.
3761.55 -427.992 0.
3022.01 -1132.88 0.
2757.25 -1738.04 0.
2492.49 -2343.19 0.
1771.87 -2507.42 0.
1989.77 -1989.75 0.
2207.68 -1472.09 0.
623.65 -2024.1 0.
675.612 -1899.62 0.
111.56 -2002.62 0.
279.378 -1606.66 0.
447.198 -1210.69 0.
-163.425 -1228.4 0.
-108.908 -1096.25 0.
-54.3911 -964.093 0.
-363.82 -961.617 0.
-280.342 -773.583 0.
-196.864 -585.549 0.
-764.858 -828.415 0.
-774.417 -859.535 0.
-290.873 -675.798 0.
-473.181 -876.534 0.
-531.089 -1023.98 0.
-30.4558 -939.973 0.
-98.2879 -1108.46 0.
-166.12 -1276.95 0.
-112.278 -1261.21 0.
-40.1833 -1091.85 0.
31.9122 -922.489 0.
-615.577 -930.986 0.
-453.155 -554.988 0.
-290.731 -178.989 0.
-263.583 -93.0756 0.
-235.401 -26.2861 0.
98.8294 166.029 0.
118.199 209.7 0.
137.569 253.371 0.
-411.538 63.0286 0.
-374.496 140.746 0.
-337.452 218.463 0.
-208.175 319.332 0.
-196.497 351.336 0.
-184.818 383.341 0.
314.719 832.985 0.
457.42 1166.89 0.
-115.094 264.637 0.
-527.805 146.397 0.
-498.978 213.661 0.
244.907 548.546 0.
170.98 369.936 0.
97.0526 191.327 0.
-28.0361 -13.985 0.
-119.966 -239.823 0.
-211.897 -465.664 0.
-26.548 -441.981 0.
-6.5919 -397.918 0.
13.3645 -353.856 0.
-400.794 -628.484 0.
-470.118 -788.278 0.
-301.482 -832.809 0.
-264.256 -747.187 0.
-227.03 -661.564 0.
-72.6201 -581.369 0.
-127.145 -708.805 0.
-181.67 -836.241 0.
-230.011 -887.621 0.
-210.754 -844.268 0.
-191.498 -800.914 0.
-761.714 -1063.38 0.
-785.649 -1117.14 0.
-197.542 -908.517 0.
-295.3 -922.789 0.
-272.167 -873.361 0.
-264.174 -837.558 0.
-242.788 -787.332 0.
-221.402 -737.107 0.
28.0011 -771.072 0.
-181.909 -1265.16 0.
-391.821 -1759.24 0.
618.553 -1607.84 0.
511.809 -1849.18 0.
405.062 -2090.53 0.
2086.96 -1766.75 0.
1856.71 -2299.72 0.
2048.24 -2608.97 0.
2106.28 -2470.69 0.
2164.31 -2332.42 0.
2204.09 -2029.52 0.
2549.97 -1222.18 0.
2895.84 -414.85 0.
3502.46 258.688 0.
3599.12 484.441 0.
3695.78 710.194 0.
7147.96 1472.38 0.
6630.23 266.726 0.
1884.35 -2750.34 0.
5736.44 -315.507 0.
6149.37 645.158 0.
3237.65 -60.8133 0.
3091.22 -403.535 0.
2944.8 -746.255 0.
2515.29 -1316.7 0.
2251.13 -1922.93 0.
1986.98 -2529.16 0.
1699.63 -2505.17 0.
1917.47 -1988.12 0.
2135.3 -1471.06 0.
1129.85 -1777.25 0.
1182.46 -1653.18 0.
604.759 -1763.57 0.
773.162 -1366.46 0.
941.567 -969.361 0.
-68.8621 -1156.14 0.
-13.8432 -1024.23 0.
41.175 -892.32 0.
-225.411 -873.628 0.
-141.793 -685.914 0.
-58.175 -498.2 0.
-313.504 -598.294 0.
-322.765 -629.567 0.
-486.137 -730.927 0.
-325.959 -783.413 0.
-384.839 -929.771 0.
166.435 -827.559 0.
98.0806 -995.144 0.
29.7264 -1162.73 0.
-110.934 -1231.11 0.
-39.3135 -1061.51 0.
32.3074 -891.914 0.
-581.924 -883.698 0.
-419.414 -507.836 0.
-256.904 -131.973 0.
-6.26616 46.72 0.
21.0199 114.722 0.
50.3861 179.184 0.
70.0948 222.235 0.
89.8034 265.287 0.
-9.113 266.486 0.
27.2965 345.183 0.
63.7069 423.88 0.
-431.723 252.783 0.
-420.184 285.151 0.
-408.643 317.519 0.
738.014 1043.57 0.
881.694 1378 0.
-129.326 589.675 0.
-420.73 182.334 0.
53.0297 1292.09 0.
401.261 794.251 0.
92.4864 81.8498 0.
120.926 156.421 0.
112.719 362.954 0.
190.109 546.264 0.
484.313 1234.22 0.
912.386 1510.88 0.
845.338 1355.58 0.
607.468 801.764 0.
-66.4905 269.779 0.
-206.805 -60.3937 0.
338.25 508.153 0.
671.206 1288.39 0.
248.578 305.587 0.
572.636 355.415 0.
540.249 278.545 0.
468.134 108.706 0.
295.299 612.313 0.
337.41 710.421 0.
-261.321 -686.634 0.
-371.8 -54.0305 0.
27.1225 868.656 0.
-34.8322 324.572 0.
943.964 595.684 0.
450.791 -563.391 0.
-101.922 -802.473 0.
350.131 247.676 0.
542.779 692.481 0.
909.159 614.534 0.
625.534 -50.573 0.
532.146 -271.391 0.
1874.55 496.066 0.
2101.97 1020.59 0.
1864.13 460.082 0.
4159.68 2005.31 0.
3332.35 69.6131 0.
3007.64 -455.209 0.
2993.13 -498.942 0.
3233 51.1521 0.
2116.48 -331.313 0.
2559.94 698.068 0.
2465.17 472.201 0.
2726.28 282.876 0.
2840.27 557.042 0.
2466.07 -312.053 0.
5687.6 658.777 0.
5871.97 1092.45 0.
-1269.51 -804.676 0.
5689.62 1352.23 0.
5526.74 969.133 0.
2243.85 -818.291 0.
2616.62 50.8096 0.
2416.48 -409.27 0.
3175.04 1254.61 0.
2882.42 565.066 0.
2812.78 395.108 0.
2476.41 -506.594 0.
2479.19 -501.119 0.
2624.08 -164.564 0.
2074.23 -522.235 0.
2368.95 171.14 0.
2013 652.463 0.
1951.87 508.754 0.
2032.83 696.925 0.
453.916 -101.029 0.
841.135 798.618 0.
409.505 -212.466 0.
115.743 -314.138 0.
434.17 432.343 0.
615.57 858.85 0.
572.518 655.155 0.
980.62 1607.3 0.
-606.461 -49.1744 0.
74.6032 -119.318 0.
414.113 671.28 0.
668.24 14.2304 0.
603.129 -140.955 0.
680.359 35.7611 0.
267.533 -333.89 0.
207.312 -472.222 0.
498.192 208.775 0.
-206.37 -72.6556 0.
-394.84 -507.721 0.
164.385 801.378 0.
459.219 699.221 0.
696.282 1257.32 0.
-23.4962 117.388 0.
176.238 587.52 0.
227.987 712.222 0.
147.281 -83.1448 0.
658.852 1111.96 0.
651.63 1095.98 0.
-965.68 -549.58 0.
-611.765 274.598 0.
-786.407 -134.348 0.
763.422 357.342 0.
705.177 229.871 0.
51.6859 408.887 0.
-298.449 71.6583 0.
-414.949 -197.928 0.
2.43219 -219.947 0.
-85.6391 -420.195 0.
-173.711 -620.44 0.
-218.465 -716.304 0.
-174.003 -611.966 0.
-129.541 -507.627 0.
-49.2705 -481.651 0.
-81.3076 -558.121 0.
-113.346 -634.59 0.
-373.636 -611.662 0.
-285.138 -403.491 0.
-49.1588 -177.474 0.
-290.109 -737.568 0.
-531.06 -1297.66 0.
-19.4998 -1358.99 0.
49.4901 -1197.57 0.
118.481 -1036.15 0.
-271.886 -1021.13 0.
-155.437 -748.248 0.
-38.987 -475.368 0.
-599.17 -832.535 0.
-716.59 -1110.67 0.
-473.471 -1234.48 0.
240.419 -989.296 0.
212.284 -1061.41 0.
-10.3359 -1212 0.
11.6075 -1164.88 0.
33.5517 -1117.76 0.
518.111 -968.38 0.
408.985 -1225.3 0.
299.857 -1482.21 0.
996.712 -1307.63 0.
966.135 -1385.98 0.
935.559 -1464.32 0.
2810.4 -1027.7 0.
2582.88 -1561.49 0.
1937.12 -2219.42 0.
2086.06 -1880.74 0.
2234.99 -1542.06 0.
1845.7 -1412.18 0.
2031.67 -984.326 0.
2217.64 -556.466 0.
2410 -250.286 0.
2470.39 -111.078 0.
2530.78 28.1373 0.
4746.22 965.03 0.
4726.41 919.703 0.
1058.66 -688.092 0.
4867.18 873.328 0.
4829.53 786.421 0.
2339.83 -345.328 0.
2327.7 -371.003 0.
2315.57 -396.68 0.
2190.68 -616.999 0.
2011.92 -1041.53 0.
1833.16 -1466.06 0.
1714.18 -1801.54 0.
1574.68 -2125.79 0.
1435.19 -2450.05 0.
1829.37 -1815.7 0.
2102.46 -1176.61 0.
877 -1258.52 0.
863.561 -1288.54 0.
850.118 -1318.57 0.
261.247 -1518.61 0.
354.091 -1305.25 0.
446.934 -1091.9 0.
-139.976 -1238.48 0.
-117.146 -1182.29 0.
-94.3154 -1126.11 0.
-230.167 -1230.58 0.
-258.126 -1296.21 0.
-312.237 -1371.6 0.
-150.484 -1253.41 0.
-124.046 -1193.15 0.
79.5972 -1082.47 0.
62.845 -1125.7 0.
46.0927 -1168.92 0.
-218.606 -1249.04 0.
-176.664 -1147.26 0.
-134.722 -1045.49 0.
-273.485 -1079.03 0.
-269.71 -1067.76 0.
-265.936 -1056.5 0.
-209.129 -878.042 0.
-127.85 -686.493 0.
-252.96 -579.555 0.
-171.421 -390.386 0.
-89.8814 -201.215 0.
-53.9513 -96.0461 0.
-49.48 -87.7743 0.
-45.008 -79.5023 0.
-634.635 -290.579 0.
-597.154 -206.527 0.
-559.673 -122.475 0.
393.683 381.169 0.
439.856 496.581 0.
382.611 577.838 0.
-75.6392 195.327 0.
-191.324 -75.0561 0.
65.0532 -157.595 0.
-22.468 -359.229 0.
-109.99 -560.86 0.
-40.1486 -606.417 0.
4.89866 -502.916 0.
49.946 -399.413 0.
-163.602 -496.495 0.
-194.461 -573.695 0.
-225.321 -650.895 0.
-272.83 -538.226 0.
-185.309 -329.171 0.
-148.506 -188.745 0.
-388.627 -749.363 0.
-628.749 -1309.98 0.
171.35 -1245.67 0.
239.642 -1083.48 0.
307.933 -921.3 0.
-91.4913 -913.853 0.
25.029 -640.433 0.
141.55 -367.013 0.
-452.692 -740.572 0.
-571.597 -1017.27 0.
-296.069 -1125.3 0.
226.159 -967.471 0.
198.232 -1039.9 0.
335.311 -1031.96 0.
356.989 -984.891 0.
378.668 -937.822 0.
887.951 -774.699 0.
778.385 -1032.47 0.
668.817 -1290.25 0.
886 -1322.62 0.
855.483 -1400.94 0.
824.967 -1479.27 0.
2765.48 -1018.33 0.
2537.48 -1551.81 0.
1570.09 -2342.74 0.
1718.5 -2004.27 0.
1866.92 -1665.8 0.
2096.57 -1276.38 0.
2283.03 -848.684 0.
2469.48 -420.983 0.
2320.2 -255.985 0.
2383.19 -118.586 0.
2446.17 18.8193 0.
3456.81 447.345 0.
3438.03 401.143 0.
-1762.4 -1864.91 0.
4123.98 586.546 0.
4086.49 498.902 0.
2227.39 -355.988 0.
2216.1 -382.469 0.
2204.81 -408.951 0.
1985.32 -672.88 0.
1806.81 -1096.98 0.
1628.3 -1521.08 0.
1475.41 -1875.02 0.
1334.75 -2197.48 0.
1194.08 -2519.94 0.
2225.65 -1614.87 0.
2499.61 -975.655 0.
507.061 -1386.56 0.
492.592 -1415.13 0.
478.119 -1443.71 0.
783.14 -1265.61 0.
876.574 -1052.37 0.
970.006 -839.133 0.
46.6904 -1126.96 0.
70.5439 -1071.48 0.
94.3975 -1015.99 0.
-207.412 -1188.98 0.
-235.111 -1254.79 0.
749.735 -885.651 0.
185.216 -1077.87 0.
210.689 -1017.25 0.
-45.0194 -1102.35 0.
-61.9489 -1145.82 0.
-78.8785 -1189.3 0.
-319.4 -1262.75 0.
-277.902 -1160.8 0.
-236.404 -1058.86 0.
189.01 -850.094 0.
193.334 -839.812 0.
197.657 -829.53 0.
-182.463 -835.34 0.
-100.416 -644.686 0.
-150.081 -501.896 0.
-67.1475 -314.138 0.
15.7866 -126.38 0.
-275.505 -156.966 0.
-270.067 -149.323 0.
-264.629 -141.68 0.
-349.149 -137.952 0.
-310.922 -53.9664 0.
-272.695 30.0187 0.
-55.1307 220.387 0.
-8.0923 336.98 0.
410.093 629.681 0.
126.559 256.315 0.
35.2625 43.5436 0.
78.8733 -42.2388 0.
213.878 273.11 0.
348.882 588.46 0.
545.046 691.869 0.
357.493 252.232 0.
169.94 -187.406 0.
-229.141 -426.255 0.
-166.039 -278.354 0.
-102.937 -130.452 0.
-38.2791 -300.656 0.
-179.347 -630.024 0.
-412.037 -984.696 0.
-428.673 -1022.06 0.
-445.309 -1059.42 0.
303.993 -794.941 0.
229.387 -966.929 0.
154.781 -1138.92 0.
-66.3982 -1194.5 0.
49.1419 -922.611 0.
164.682 -650.725 0.
-352.402 -791.036 0.
-335.882 -754.111 0.
343.782 -432.849 0.
492.1 -597.623 0.
368.891 -886.12 0.
496.193 -1044.77 0.
440.836 -1175.21 0.
385.481 -1305.66 0.
742.558 -1194.33 0.
775.614 -1118.43 0.
808.671 -1042.53 0.
1009.23 -1059.74 0.
903.867 -1300.24 0.
798.507 -1540.75 0.
2566.46 -934.008 0.
2489.38 -1113.28 0.
1851.73 -1510 0.
1914.09 -1367.06 0.
1976.46 -1224.13 0.
2093.64 -1030.24 0.
2195.5 -786.04 0.
2297.34 -541.839 0.
2108.02 -343.307 0.
2298.82 109.096 0.
2489.61 561.498 0.
2981.46 675.283 0.
2863.23 398.666 0.
-7039.73 -4070.7 0.
3614.68 451.353 0.
3594.14 398.768 0.
2093.35 -291.074 0.
2047.14 -391.555 0.
2000.93 -492.039 0.
1793.99 -596.856 0.
1820.56 -530.116 0.
1847.13 -463.378 0.
1802.65 -789.807 0.
1553.8 -1364.25 0.
1304.96 -1938.7 0.
2295.95 -1316.79 0.
2429.97 -992.542 0.
416.061 -1635.24 0.
389.901 -1697.34 0.
363.742 -1759.44 0.
743.437 -1590.22 0.
795.923 -1458.03 0.
848.41 -1325.83 0.
35.8804 -1510.49 0.
139.074 -1267.63 0.
242.265 -1024.76 0.
71.3568 -1016.55 0.
103.227 -942.786 0.
1336.76 -366.672 0.
197.485 -954.409 0.
145.603 -1076.06 0.
-37.4853 -1213.45 0.
-28.6912 -1182.53 0.
-19.8967 -1151.61 0.
-178.319 -1128.78 0.
-95.6902 -936.308 0.
-13.0616 -743.837 0.
290.433 -564.889 0.
287.531 -568.964 0.
284.629 -573.037 0.
11.0268 -666.767 0.
29.9754 -621.251 0.
-126.278 -634.451 0.
-82.4836 -528.115 0.
-38.6889 -421.779 0.
-430.511 -477.794 0.
-339.364 -263.313 0.
-248.217 -48.8314 0.
-153.862 84.2275 0.
-141.403 118.479 0.
-128.945 152.73 0.
-358.314 78.5263 0.
-346.819 102.356 0.
115.351 534.342 0.
367.484 390.326 0.
274.48 177.898 0.
-18.0526 -51.4762 0.
116.175 263.51 0.
250.403 578.497 0.
482.217 696.158 0.
294.862 256.064 0.
107.505 -184.031 0.
-311.568 -428.425 0.
-247.941 -280.857 0.
-184.313 -133.289 0.
193.602 -173.009 0.
52.0567 -501.362 0.
-120.936 -829.843 0.
-137.247 -867.282 0.
-153.558 -904.722 0.
9.08196 -890.578 0.
-64.7332 -1063.08 0.
-138.548 -1235.58 0.
136.651 -1078 0.
251.912 -805.688 0.
367.173 -533.382 0.
-177.035 -684.628 0.
-161.072 -647.236 0.
55.4507 -523.837 0.
795.613 -438.997 0.
671.776 -727.173 0.
590.617 -974.611 0.
534.636 -1104.17 0.
478.656 -1233.73 0.
533.994 -1251.38 0.
566.469 -1176.18 0.
598.946 -1100.98 0.
1151.73 -968.433 0.
1046.25 -1209.9 0.
940.768 -1451.37 0.
2074.63 -1110.57 0.
1997.86 -1289.36 0.
2042.2 -1399.31 0.
2103.69 -1255.55 0.
2165.17 -1111.8 0.
1619.89 -1202.37 0.
1722.07 -959.58 0.
1824.25 -716.791 0.
1784.29 -445.623 0.
1975.23 5.70178 0.
2166.18 457.025 0.
2869.55 658.208 0.
2751.22 381.706 0.
8527.72 2632.22 0.
3300.21 349.622 0.
3278.52 297.915 0.
1863.77 -355.672 0.
1817.64 -456.536 0.
1771.52 -557.402 0.
1464.86 -707.68 0.
1491.03 -640.782 0.
1517.19 -573.885 0.
1719.83 -794.524 0.
1471.37 -1369.5 0.
1222.91 -1944.48 0.
1826.62 -1482.87 0.
1961.27 -1160.33 0.
827.188 -1427.91 0.
801.564 -1491.07 0.
775.943 -1554.23 0.
522.242 -1651.2 0.
575.769 -1520.37 0.
629.298 -1389.54 0.
238.978 -1393.52 0.
342.992 -1150.92 0.
447.004 -908.327 0.
544.445 -780.86 0.
575.982 -706.717 0.
963.106 -495.44 0.
-152.58 -1072.95 0.
-204.712 -1194.35 0.
222.244 -1070.12 0.
231.704 -1039.88 0.
241.163 -1009.64 0.
144.053 -959.04 0.
225.293 -766.077 0.
306.532 -573.114 0.
-143.414 -720.405 0.
-146.38 -726.007 0.
-149.347 -731.609 0.
286.179 -517.407 0.
305.222 -471.821 0.
-23.591 -559.653 0.
21.0772 -453.894 0.
65.7456 -348.134 0.
-254.02 -369.962 0.
-162.64 -155.781 0.
-71.2592 58.4009 0.
-156.068 114.374 0.
-143.687 148.956 0.
-131.307 183.538 0.
-500.758 49.9663 0.
-490.258 73.767 0.
127.861 1195.74 0.
615.605 566.528 0.
490.601 268.138 0.
131.556 506.625 0.
-7.94767 181.846 0.
284.824 866.999 0.
-154.413 -635.476 0.
54.6352 -149.58 0.
251.563 307.356 0.
-408.734 -495.576 0.
-178.092 46.7607 0.
-135.653 150.427 0.
584.64 358.815 0.
772.487 800.555 0.
952.547 1160.96 0.
273.325 -423.016 0.
418.501 -82.9287 0.
299.409 350.841 0.
494.68 807.215 0.
390.807 565.482 0.
1233.36 1144.01 0.
1021.57 644.54 0.
1070.46 753.813 0.
188.249 -167.844 0.
626.622 854.386 0.
667.939 439.505 0.
1219.52 14.4703 0.
1583.6 862.959 0.
1470.08 931.815 0.
1416.73 810.648 0.
1022.46 -105.933 0.
1108.1 476.962 0.
801.695 -234.145 0.
979.023 183.33 0.
2357.01 1625.5 0.
2072.74 961.433 0.
1889.55 532.436 0.
2830.39 1616.08 0.
2201.2 155.063 0.
2741.55 -79.3612 0.
3417.86 1490.9 0.
3189.69 951.212 0.
1836.78 239.458 0.
1473.84 -615.673 0.
1656.19 -194.554 0.
1644.06 -112.926 0.
1514.54 -421.05 0.
1977.44 654.589 0.
2434.11 -104.704 0.
2974.35 1157.71 0.
-4075.96 106.41 0.
3448.99 1342.68 0.
2868.17 -8.40726 0.
1805.83 -18.2353 0.
1877.02 148.7 0.
1840.6 65.2927 0.
752.586 -1720.1 0.
1642.36 350.246 0.
1398.81 -222.705 0.
2489.51 1220.27 0.
2283.38 730.944 0.
2122.39 345.293 0.
2538.77 1108.28 0.
2485.05 974.982 0.
2312.04 1314.4 0.
1741.37 -17.4387 0.
1866.44 273.745 0.
1184.05 312.869 0.
1100.9 119.391 0.
1123.93 173.291 0.
1524.82 1272.07 0.
1118.72 321.593 0.
951.088 -72.2957 0.
1084.33 -369.767 0.
1025.76 -507.603 0.
675.671 -44.6286 0.
-126.33 -338.77 0.
261.178 567.738 0.
1244.77 865.483 0.
1161.22 670.868 0.
771.668 -238.589 0.
1085.06 679.63 0.
1145.69 816.493 0.
974.984 413.86 0.
-282.485 -227.365 0.
-310.601 -288.114 0.
-47.2694 331.027 0.
1056.63 803.732 0.
921.987 488.767 0.
992.692 1664.36 0.
716.004 1021.39 0.
322.564 105.403 0.
495.509 1069.98 0.
660.763 1461.92 0.
360.437 767.504 0.
-267.659 -115.44 0.
-58.7818 368.777 0.
561.72 1814.36 0.
-129.919 1206.13 0.
-87.075 1308.39 0.
-550.198 -563.786 0.
122.554 -142.833 0.
136.286 -114.895 0.
-115.655 -219.741 0.
-169.427 -341.575 0.
-223.199 -463.408 0.
-207.731 -449.059 0.
-124.813 -256.842 0.
-41.8955 -64.6264 0.
-12.0338 -100.118 0.
-101.54 -304.102 0.
-191.047 -508.084 0.
105.95 -464.96 0.
67.8413 -553.254 0.
140.921 -579.303 0.
123.517 -619.86 0.
106.113 -660.418 0.
-79.9338 -829.205 0.
-179.589 -1062.83 0.
-279.244 -1296.45 0.
13.504 -1263.3 0.
6.84531 -1283.09 0.
0.186213 -1302.88 0.
166.991 -1204.3 0.
189.999 -1153.69 0.
482.129 -987.651 0.
562.46 -1060.05 0.
502.781 -1199.18 0.
431.689 -1337.43 0.
377.652 -1461.11 0.
323.615 -1584.78 0.
506.769 -1496.66 0.
597.465 -1282.42 0.
688.162 -1068.19 0.
1286.53 -890.426 0.
1167.05 -1170.77 0.
1047.56 -1451.12 0.
1583.32 -1387.65 0.
1503.48 -1570.03 0.
1633.44 -1624.99 0.
1813.5 -1211.31 0.
1993.57 -797.64 0.
1384.91 -813.464 0.
1407.67 -767.265 0.
1430.42 -721.069 0.
1426.91 -592.027 0.
1536.21 -347.434 0.
1645.51 -102.84 0.
2495.59 277.7 0.
2481.09 241.573 0.
-49.1383 -877.354 0.
2649.41 322.612 0.
2673.44 376.011 0.
1466.1 -129.894 0.
1397.99 -288.916 0.
1329.88 -447.939 0.
1390.23 -618.189 0.
1258.73 -929.358 0.
1127.25 -1240.53 0.
1323.85 -1176.04 0.
1368.6 -1078.54 0.
1413.36 -981.046 0.
1541.4 -963.12 0.
1518.54 -1023.1 0.
1062.98 -1239.75 0.
1125.51 -1098.18 0.
1188.04 -956.615 0.
774.809 -1000.79 0.
863.512 -794.71 0.
952.216 -588.626 0.
842.08 -695.843 0.
732.762 -955.197 0.
623.444 -1214.55 0.
558.241 -1245.4 0.
580.95 -1189.72 0.
-89.0541 -1418.05 0.
-480.008 -1517.95 0.
-446.916 -1436.49 0.
436.613 -956.84 0.
546.439 -700.476 0.
656.264 -444.112 0.
464.923 -511.426 0.
364.827 -745.488 0.
264.731 -979.549 0.
-346.592 -1171.99 0.
-255.546 -954.556 0.
-164.498 -737.12 0.
444.061 -383.715 0.
485.142 -289.048 0.
3.11486 -442.976 0.
-3.11905 -455.65 0.
-9.35336 -468.325 0.
-226.433 -571.728 0.
-247.625 -615.754 0.
-268.816 -659.78 0.
-375.345 -592.922 0.
-261.662 -329.008 0.
-147.979 -65.0932 0.
-534.438 -273.345 0.
-587.571 -395.335 0.
-440.311 -484.92 0.
-90.7187 -199.688 0.
-78.0786 -172.232 0.
-21.5828 -149.937 0.
-76.5837 -271.616 0.
-131.583 -393.293 0.
-355.486 -482.145 0.
-272.764 -289.974 0.
-190.042 -97.804 0.
280.304 54.1948 0.
190.869 -149.845 0.
101.434 -353.884 0.
-30.974 -492.075 0.
-69.2563 -580.42 0.
79.1378 -573.456 0.
61.2888 -614.065 0.
43.4404 -654.674 0.
91.8897 -722.056 0.
-7.54145 -955.47 0.
-106.973 -1188.88 0.
-202.079 -1329.87 0.
-210.136 -1348.58 0.
-218.193 -1367.3 0.
705.034 -939.535 0.
728.29 -889.668 0.
322.285 -1023.94 0.
336.845 -1127.27 0.
277.23 -1266.45 0.
369.768 -1334.39 0.
315.368 -1458.34 0.
260.968 -1582.28 0.
825.938 -1326.6 0.
917.15 -1112.8 0.
1008.36 -899 0.
1313.87 -844.873 0.
1194.24 -1124.8 0.
1074.61 -1404.72 0.
1649.5 -1329.41 0.
1570.13 -1511.9 0.
1104.96 -1819.41 0.
1284.27 -1405.11 0.
1463.59 -990.808 0.
1400.04 -777.129 0.
1421.6 -730.405 0.
1443.15 -683.684 0.
1434.43 -559.454 0.
1543.13 -314.237 0.
1651.83 -69.019 0.
2387.33 261.058 0.
2372.57 225.581 0.
-857.859 -1192.97 0.
2223.52 171.848 0.
2247.17 226.274 0.
1122.8 -246.544 0.
1055.37 -406.133 0.
987.951 -565.723 0.
1611.27 -488.981 0.
1480.52 -801.544 0.
1349.77 -1114.11 0.
1169.24 -1211 0.
1214 -1113.36 0.
1258.77 -1015.72 0.
1420.71 -984.042 0.
1397.13 -1043.78 0.
895.802 -1278.94 0.
959.451 -1138.46 0.
1023.1 -997.984 0.
975.49 -883.28 0.
1064.83 -677.01 0.
1154.18 -470.739 0.
1055.33 -574.229 0.
947.006 -834.217 0.
838.684 -1094.21 0.
389.986 -1283.3 0.
412.36 -1226.5 0.
-232.165 -1448.39 0.
-278.91 -1401.01 0.
-245.549 -1319.68 0.
419.989 -933.26 0.
529.438 -676.446 0.
638.887 -419.631 0.
344.282 -533.391 0.
243.545 -767.074 0.
142.809 -1000.76 0.
86.851 -953.731 0.
178.315 -737.022 0.
269.779 -520.313 0.
333.182 -399.773 0.
374.729 -305.571 0.
-86.46 -451.115 0.
-92.6961 -463.986 0.
-98.9325 -476.857 0.
-229.942 -538.665 0.
-250.847 -583.055 0.
-271.751 -627.444 0.
-241.981 -506.19 0.
-128.487 -242.036 0.
-14.9924 22.1197 0.
-236.604 -114.545 0.
-289.402 -235.985 0.
-370.123 -280.266 0.
-245.29 -267.744 0.
-184.664 -126.482 0.
146.841 118.548 0.
155.007 137.549 0.
163.174 156.551 0.
-162.871 -91.5446 0.
-315.991 -442.082 0.
-469.111 -792.616 0.
84.1505 -545.621 0.
184.14 -313.168 0.
284.129 -80.7158 0.
57.5426 -301.475 0.
-37.9995 -518.703 0.
-95.0606 -692.279 0.
-32.25 -545.891 0.
30.5608 -399.504 0.
446.633 -158.726 0.
415.014 -227.881 0.
383.394 -297.035 0.
147.936 -524.583 0.
46.3124 -766.099 0.
-55.313 -1007.62 0.
844.503 -626.438 0.
874.056 -554.278 0.
1006.42 -437.594 0.
583.476 -686.533 0.
545.946 -774.194 0.
546.519 -856.345 0.
459.28 -1062.55 0.
372.041 -1268.75 0.
991.422 -1163.84 0.
915.247 -1345.55 0.
839.074 -1527.25 0.
1002.09 -1366.8 0.
1122.39 -1091.47 0.
1242.7 -816.137 0.
2007.33 -389.047 0.
2048.26 -296.293 0.
1304.84 -545.184 0.
1318.76 -511.346 0.
1332.67 -477.508 0.
1580.65 -365.411 0.
1550.11 -434.598 0.
1519.57 -503.786 0.
1360.81 -594.213 0.
1370.95 -573.89 0.
1381.09 -553.568 0.
2241.38 182.392 0.
2495.65 770.059 0.
-1157.94 -320.909 0.
2149.25 745.676 0.
1966.23 316.819 0.
977.156 -408.854 0.
893.128 -601.657 0.
809.099 -794.458 0.
1643.4 -533.053 0.
1632.41 -553.905 0.
1621.43 -574.76 0.
1193.72 -769.757 0.
1193.22 -764.913 0.
1192.72 -760.07 0.
1604.55 -555.27 0.
1621.14 -506.296 0.
1073.07 -706.409 0.
1078.93 -685.152 0.
1084.79 -663.894 0.
1017.06 -765.349 0.
893.876 -1050.12 0.
770.688 -1334.88 0.
796.378 -1253.05 0.
943.052 -905.904 0.
1089.73 -558.762 0.
816.128 -408.241 0.
943.633 -108.514 0.
648.833 -18.9012 0.
122.968 -566.615 0.
-45.3578 -960.635 0.
329.427 -1041.46 0.
304.6 -1098.94 0.
279.772 -1156.42 0.
39.314 -1163.08 0.
176.549 -844.114 0.
313.784 -525.152 0.
380.474 -407.953 0.
386.963 -394.209 0.
393.45 -380.466 0.
337.943 -314.804 0.
392.3 -186.855 0.
15.7532 -227.682 0.
79.9967 -78.339 0.
144.242 71.0042 0.
10.6286 76.8773 0.
7.05 64.6751 0.
3.47081 52.4737 0.
113.285 41.5591 0.
63.1564 -77.0914 0.
13.0264 -195.742 0.
-46.6122 -4.39684 0.
113.671 354.451 0.
-499.016 -307.495 0.
-320.881 -268.898 0.
-260.347 -128.473 0.
235.551 189.402 0.
243.1 208.099 0.
250.649 226.797 0.
45.8611 29.2071 0.
-106.921 -322.338 0.
-259.702 -673.882 0.
-11.2394 -556.9 0.
88.1983 -324.29 0.
187.636 -91.6805 0.
219.591 -197.718 0.
125.07 -416.114 0.
-283.102 -741.632 0.
-220.945 -595.146 0.
-158.788 -448.661 0.
574.398 -72.6791 0.
543.715 -142.845 0.
513.032 -213.01 0.
390.605 -387.311 0.
289.389 -629.361 0.
188.172 -871.411 0.
401.287 -784.711 0.
431.024 -713.1 0.
484.945 -631.089 0.
964.1 -491.997 0.
925.721 -578.484 0.
575.145 -814.7 0.
487.127 -1020.08 0.
399.11 -1225.46 0.
951.681 -1152.03 0.
873.872 -1332.56 0.
796.066 -1513.08 0.
797.828 -1423.07 0.
918.227 -1147.66 0.
1038.63 -872.246 0.
1865.26 -421.228 0.
1905.92 -327.543 0.
999.82 -643.737 0.
1012.85 -609.222 0.
1025.87 -574.706 0.
1610.46 -325.823 0.
1579.03 -393.818 0.
1547.61 -461.813 0.
1248.34 -609.038 0.
1259.17 -589.417 0.
1270 -569.796 0.
2096.38 150.38 0.
2350.3 738.233 0.
-461.738 10.4407 0.
1843.11 647.894 0.
1660.21 219.101 0.
1161.67 -299.839 0.
1077.42 -492.397 0.
993.168 -684.953 0.
1563.52 -538.128 0.
1553.71 -560.431 0.
1543.9 -582.735 0.
959.641 -838.504 0.
960.689 -835.266 0.
961.739 -832.029 0.
1743.28 -462.993 0.
1760.23 -415.006 0.
1042.03 -688.263 0.
1048.8 -667.478 0.
1055.57 -646.694 0.
832.762 -813.085 0.
709.626 -1098.1 0.
586.492 -1383.12 0.
676.512 -1270.75 0.
822.887 -923.015 0.
969.263 -575.277 0.
1133.32 -246.712 0.
1259.7 53.7563 0.
951.599 145.649 0.
82.7048 -549.472 0.
-85.4225 -943.731 0.
285.669 -1030.4 0.
261.093 -1087.59 0.
236.517 -1144.77 0.
101.18 -1106.3 0.
239.601 -787.865 0.
378.022 -469.434 0.
152.925 -473.07 0.
160.465 -459.868 0.
168.003 -446.665 0.
403.21 -253.768 0.
457.286 -126.257 0.
144.476 -142.506 0.
208.775 7.33326 0.
273.075 157.173 0.
7.68415 107.668 0.
3.65142 96.0535 0.
-0.381841 84.4398 0.
316.15 159.439 0.
265.708 40.618 0.
215.265 -78.203 0.
25.4066 56.3538 0.
184.986 414.883 0.
-434.8 80.8498 0.
38.2365 735.983 0.
-131.986 334.977 0.
849.753 1509.01 0.
244.622 88.6694 0.
262.155 121.86 0.
-53.9823 -578.657 0.
249.334 130.112 0.
534.668 796.863 0.
786.013 1515.1 0.
575.878 1026.58 0.
666.217 1239.43 0.
947.551 1234.22 0.
814.101 927.813 0.
174.777 688.189 0.
-184.628 -151.874 0.
98.1486 507.033 0.
1149.89 1069.85 0.
1129.29 1027.35 0.
1161.26 1107.18 0.
774.821 92.5391 0.
957.409 529.13 0.
1326.26 1400.29 0.
699.128 734.035 0.
630.94 578.882 0.
635.548 -194.436 0.
1368.77 -235.861 0.
2151.31 1592.75 0.
1026.08 195.883 0.
1362.57 985.419 0.
1186.45 579.621 0.
1563.45 390.694 0.
1739.7 796.056 0.
1441.73 95.6372 0.
1201.68 -69.0899 0.
1328.32 228.427 0.
1766.18 1252.32 0.
1974.78 137.95 0.
2088.74 397.388 0.
1697.23 1605.66 0.
1213.38 482.024 0.
1552.21 1276.86 0.
2295.5 1248.92 0.
1947.15 434.147 0.
2055.64 686.32 0.
1616.55 492.728 0.
1495.43 206.614 0.
1481.15 170.613 0.
2107.16 479.758 0.
2286.54 900.788 0.
-312.902 111.481 0.
1837.41 1233.58 0.
1036.1 -635.544 0.
1469.81 110.959 0.
1978.04 1300.17 0.
1282.61 -317.927 0.
1537.37 -423.666 0.
1469.51 -585.974 0.
1214.13 -1183.36 0.
1668.11 1273.38 0.
1027.48 -216.744 0.
1285.28 388.516 0.
2553.85 1187.22 0.
2085.83 87.927 0.
1536.06 565.389 0.
1422.31 305.345 0.
1446.23 363.342 0.
802.874 -510.889 0.
1430.13 956.343 0.
1363.71 805.132 0.
1176.7 162.201 0.
1227.37 280.544 0.
1542.79 1017.2 0.
1591.23 255.276 0.
1365.03 -272.784 0.
977.621 1143.91 0.
525.564 579.829 0.
363.991 202.149 0.
874.381 446.164 0.
581.913 -238.259 0.
1051.85 855.745 0.
741.886 311.894 0.
898.781 681.108 0.
1273.32 1558 0.
473.683 706.544 0.
393.314 521.76 0.
-88.9847 -599.304 0.
911.059 835.185 0.
520.844 -74.7234 0.
414.89 299.358 0.
841.902 1293.93 0.
617.992 769.512 0.
-348.074 -710.735 0.
150.665 451.869 0.
216.728 604.838 0.
514.998 296.068 0.
375.491 -27.7262 0.
857.676 1097.96 0.
144.137 253.244 0.
-220.048 -587.018 0.
-339.555 -739.595 0.
-244.557 -505.096 0.
-196.991 -395.62 0.
-86.2251 -331.189 0.
-235.035 -685.642 0.
-383.845 -1040.1 0.
57.8105 -897.54 0.
224.839 -507.498 0.
391.868 -117.455 0.
-21.3935 -278.996 0.
-112.099 -491.482 0.
-202.804 -703.968 0.
124.317 -572.987 0.
132.427 -549.94 0.
-22.7136 -609.102 0.
-57.9245 -694.589 0.
-93.1347 -780.075 0.
270.131 -678.676 0.
253.915 -712.984 0.
237.697 -747.293 0.
229.752 -803.103 0.
185.925 -898.441 0.
142.098 -993.779 0.
77.9738 -991.595 0.
103.52 -925.337 0.
-48.902 -935.545 0.
902.89 -707.285 0.
809.762 -926.41 0.
616.692 -1146.67 0.
620.043 -1137.3 0.
623.393 -1127.92 0.
852.86 -1003.23 0.
876.481 -953.796 0.
900.102 -904.36 0.
777.495 -951.157 0.
777.73 -953.021 0.
777.964 -954.885 0.
1508.57 -600.925 0.
1536.04 -542.17 0.
792.256 -836.57 0.
718.079 -1012.53 0.
643.901 -1188.5 0.
1284.71 -958.352 0.
1372.28 -759.891 0.
1459.84 -561.429 0.
890.334 -594.768 0.
1026.17 -280.733 0.
1162 33.3023 0.
1829.71 478.516 0.
1900.94 641.015 0.
196.261 40.252 0.
1510.12 362.724 0.
1383.02 67.3488 0.
1108.22 -233.603 0.
1114.09 -223.209 0.
1119.96 -212.814 0.
1513.09 -96.8274 0.
1448.37 -249.667 0.
1383.64 -402.507 0.
911.742 -767.445 0.
811.758 -998.118 0.
711.774 -1228.79 0.
1647.53 -866.945 0.
1641.59 -890.089 0.
746.12 -1279.26 0.
775.696 -1205.71 0.
805.272 -1132.15 0.
425.479 -1207.25 0.
491.664 -1048.4 0.
557.848 -889.55 0.
849.467 -740.137 0.
827.043 -795.499 0.
804.619 -850.861 0.
930.755 -909.708 0.
863.233 -1069.15 0.
850.546 -1196.81 0.
-229.921 -1504.77 0.
-147.737 -1314.8 0.
413.969 -928.604 0.
468.934 -805.258 0.
523.899 -681.91 0.
-1.26138 -898.394 0.
-47.1651 -1004.02 0.
-93.0702 -1109.65 0.
-98.3526 -1000.16 0.
9.57536 -745.024 0.
117.504 -489.891 0.
287.233 -261.222 0.
365.532 -79.8335 0.
92.2344 -83.6524 0.
67.845 -141.303 0.
43.4548 -198.954 0.
47.3068 -192.329 0.
95.6133 -80.357 0.
143.92 31.6151 0.
298.085 98.5475 0.
271.973 37.6979 0.
245.863 -23.152 0.
-242.571 -451.992 0.
-384.782 -776.08 0.
221.302 -474.037 0.
75.7747 -340.096 0.
122.567 -229.843 0.
-248.828 -368.715 0.
-398.036 -723.591 0.
-547.243 -1078.47 0.
376.725 -730.726 0.
543.917 -340.823 0.
711.109 49.0811 0.
-48.8706 -258.463 0.
-139.557 -471.756 0.
-230.243 -685.048 0.
77.393 -562.015 0.
85.6496 -539.147 0.
438.809 -379.371 0.
402.195 -463.417 0.
365.583 -547.463 0.
127.42 -711.196 0.
111.416 -745.412 0.
95.4109 -779.627 0.
46.883 -852.85 0.
3.0933 -948.274 0.
-40.6959 -1043.7 0.
242.042 -888.544 0.
267.233 -822.09 0.
1083.06 -417.104 0.
594.456 -811.451 0.
502.308 -1031.18 0.
839.588 -1020.49 0.
843.61 -1011.77 0.
847.63 -1003.04 0.
728.821 -1024.13 0.
752.732 -975.295 0.
776.643 -926.461 0.
737.931 -936.208 0.
739.227 -939.125 0.
740.523 -942.043 0.
1343.29 -639.406 0.
1370.42 -579.995 0.
988.703 -719.071 0.
914.288 -895.235 0.
839.871 -1071.4 0.
1224.76 -954.567 0.
1312.16 -755.766 0.
1399.55 -556.965 0.
585.502 -694.297 0.
722.38 -380.944 0.
859.258 -67.5885 0.
1523.57 379.876 0.
1595.65 541.472 0.
-882.644 -388.928 0.
1571.16 420.245 0.
1444.16 124.273 0.
865.276 -306.949 0.
871.017 -297.108 0.
876.758 -287.266 0.
1334.74 -141.08 0.
1269.46 -293.599 0.
1204.18 -446.118 0.
1070.72 -669.895 0.
970.882 -900.971 0.
871.041 -1132.05 0.
1634.25 -840.678 0.
1628.79 -863.423 0.
763.737 -1241.65 0.
793.964 -1167.87 0.
824.191 -1094.08 0.
344.425 -1210.07 0.
410.38 -1051.33 0.
476.334 -892.598 0.
942.095 -667.063 0.
919.949 -722.58 0.
897.803 -778.097 0.
750.907 -959.792 0.
683.867 -1119.46 0.
697.29 -1227.98 0.
-44.4902 -1391.78 0.
38.3121 -1202.44 0.
585.445 -823.948 0.
640.153 -700.898 0.
694.861 -577.848 0.
-261.637 -977.331 0.
-306.84 -1083.65 0.
-352.044 -1189.98 0.
111.252 -880.042 0.
220.189 -625.842 0.
329.128 -371.641 0.
115.322 -302.165 0.
193.463 -120.84 0.
-89.6223 -130.19 0.
-114.005 -187.328 0.
-138.388 -244.467 0.
276.661 -62.5358 0.
324.799 49.493 0.
372.937 161.521 0.
150.877 66.2916 0.
125.006 5.0278 0.
99.1354 -56.2364 0.
-327.717 -455.297 0.
-469.665 -780.852 0.
341.189 -262.611 0.
180.533 -173.244 0.
334.092 186.407 0.
20.7001 254.452 0.
-75.1763 34.3397 0.
-171.055 -185.771 0.
680.467 61.0653 0.
657.224 10.0993 0.
633.979 -40.8669 0.
-34.6895 -337.47 0.
-30.4018 -328.708 0.
-26.1139 -319.947 0.
176.305 -347.808 0.
102.09 -522.737 0.
541.706 -481.875 0.
498.26 -584.942 0.
454.813 -688.01 0.
74.9838 -876.633 0.
119.611 -773.892 0.
164.24 -671.152 0.
60.8554 -652.956 0.
85.8924 -597.825 0.
110.929 -542.693 0.
458.83 -480.773 0.
394.332 -629.345 0.
1318.88 -353.808 0.
570.983 -567.262 0.
619.203 -451.183 0.
1171.97 -161.375 0.
1119.15 -282.279 0.
1066.33 -403.183 0.
869.148 -592.851 0.
821.353 -699.169 0.
773.559 -805.485 0.
750.779 -756.865 0.
821.416 -591.115 0.
892.052 -425.365 0.
1532.73 -165.185 0.
1515.97 -199.771 0.
1158.36 -348.992 0.
1250.15 -139.669 0.
1341.95 69.6548 0.
1554.91 243.454 0.
1511.05 137.993 0.
1467.19 32.5316 0.
681.068 -255.677 0.
775.356 -30.0811 0.
869.642 195.514 0.
1502.85 482.506 0.
1484.76 446.755 0.
1442.09 397.464 0.
1630.23 516.959 0.
1650.13 562.721 0.
1062.84 254.213 0.
849.801 -243.273 0.
636.764 -740.758 0.
829.755 -796.867 0.
934.753 -554.984 0.
1039.75 -313.1 0.
1338.82 -250.045 0.
1244.64 -467.395 0.
1150.46 -684.745 0.
1693.88 -195.674 0.
1852.31 176.47 0.
1358.55 169.963 0.
1138.2 -346.987 0.
917.846 -863.939 0.
358.249 -1266.06 0.
509.973 -913.86 0.
661.696 -561.658 0.
1022.34 -236.94 0.
1063.68 -133.909 0.
1105.02 -30.8787 0.
1087.02 -183.852 0.
977.84 -443.106 0.
1135.51 -578.567 0.
204.434 -863.227 0.
261.464 -724.771 0.
648.274 -505.577 0.
574.202 -672.639 0.
500.132 -839.7 0.
-298.914 -1177.52 0.
-212.949 -976.38 0.
-126.984 -775.245 0.
197.718 -601.924 0.
186.06 -632.328 0.
174.401 -662.732 0.
-57.1391 -650.312 0.
10.7302 -491.376 0.
-73.0334 -406.269 0.
-17.8134 -278.887 0.
37.4072 -151.505 0.
221.906 -51.2013 0.
154.634 -213.124 0.
87.3613 -375.046 0.
-86.2925 -386.989 0.
18.366 -143.855 0.
123.024 99.28 0.
-77.7272 73.0928 0.
-51.1516 125.031 0.
-69.6801 -405.711 0.
-15.3566 -230.542 0.
137.514 130.509 0.
182.563 358.809 0.
87.5501 138.12 0.
-7.46533 -82.567 0.
335.418 -56.5982 0.
312.302 -107.997 0.
289.185 -159.396 0.
116.86 -240.279 0.
121.09 -231.766 0.
125.32 -223.252 0.
287.743 -271.597 0.
213.72 -446.616 0.
499.2 -463.782 0.
456.323 -566.653 0.
413.445 -669.523 0.
276.399 -762.494 0.
320.04 -657.794 0.
363.683 -553.095 0.
85.7303 -611.873 0.
111.709 -556.663 0.
137.688 -501.452 0.
448.671 -452.853 0.
384.38 -602.053 0.
457.337 -692.694 0.
580.52 -532.863 0.
629.259 -417.573 0.
908.692 -240.864 0.
856.915 -363.03 0.
805.138 -485.195 0.
899.722 -545.699 0.
852.902 -653.083 0.
806.081 -760.466 0.
660.184 -764.302 0.
731.44 -599.734 0.
802.694 -435.165 0.
1678.07 -69.8003 0.
1663.18 -105.228 0.
1024.22 -372.81 0.
1116.36 -164.194 0.
1208.5 44.4223 0.
1210.8 125.814 0.
1168.5 18.6097 0.
1126.21 -88.5954 0.
757.693 -188.948 0.
853.99 35.1434 0.
950.285 259.235 0.
1643.11 577.756 0.
1627.34 540.125 0.
-1568.56 -860.557 0.
1668.96 566.658 0.
1687.54 613.258 0.
1203.53 343.611 0.
989.247 -152.989 0.
774.963 -649.586 0.
497.123 -909.177 0.
602.436 -668.171 0.
707.751 -427.165 0.
1419.98 -182.542 0.
1326.67 -400.517 0.
1233.36 -618.492 0.
1225.74 -364.913 0.
1385.11 6.61438 0.
1333.76 190.36 0.
1112.81 -326.202 0.
891.859 -842.764 0.
558.158 -1152.54 0.
709.123 -799.383 0.
860.087 -446.224 0.
698.704 -342.362 0.
738.978 -238.595 0.
779.251 -134.829 0.
1309.56 -60.2751 0.
1198.82 -318.632 0.
654.461 -750.557 0.
115.403 -868.103 0.
172.617 -730.007 0.
355.251 -600.705 0.
281.153 -768.204 0.
207.056 -935.703 0.
57.252 -992.911 0.
143.408 -792.226 0.
229.563 -591.541 0.
-33.1453 -669.062 0.
-44.6413 -699.704 0.
-56.1378 -730.345 0.
91.3495 -555.65 0.
160.493 -397.272 0.
437.027 -155.014 0.
492.569 -27.1561 0.
548.112 100.701 0.
-86.0292 -151.966 0.
-153.521 -313.849 0.
-221.014 -475.731 0.
-33.6575 -331.725 0.
71.0138 -89.2464 0.
175.685 153.233 0.
59.6043 162.141 0.
85.7793 212.996 0.
-432.247 -419.736 0.
390.44 1129.12 0.
48.603 327.361 0.
90.0854 -131.977 0.
-268.271 -970.594 0.
520.22 866.533 0.
534.085 1075.41 0.
-109.703 -428.762 0.
-15.9876 -211.116 0.
297.188 -65.0979 0.
41.3797 -662.139 0.
669.494 803.737 0.
784.942 699.702 0.
455.287 -66.3662 0.
1181.51 1244.01 0.
1293.84 1509.68 0.
485.016 -374.431 0.
969.418 524.698 0.
976.32 545.183 0.
1056.36 735.804 0.
588.16 527.293 0.
692.436 768.876 0.
392.737 68.2283 0.
739.69 279.647 0.
770.574 348.623 0.
644.778 547.158 0.
766.841 -104.88 0.
678.622 -308.098 0.
555.624 -537.731 0.
782.654 -2.41619 0.
678.342 -240.612 0.
1111.79 -83.0337 0.
788.56 -837.929 0.
1575.55 997.244 0.
1302.87 937.127 0.
1154.02 591.698 0.
1210.19 723.529 0.
2479.69 1570.67 0.
2020.15 499.029 0.
1113.53 115.552 0.
1134.96 167.473 0.
1734.66 1567.94 0.
1377.93 1166.88 0.
1365.53 1134.72 0.
1667.3 1835.36 0.
1267.81 900.587 0.
1306.78 982.382 0.
746.321 -334.795 0.
1357.63 -313.277 0.
1929.17 1018.55 0.
-541.504 384.038 0.
1435.25 -35.2012 0.
1591.52 338.304 0.
1245.52 218.648 0.
1317.31 392.006 0.
2067.26 2148.38 0.
730.078 256.655 0.
532.872 -206.426 0.
860.392 558.468 0.
2193.92 1526.45 0.
1904.54 850.649 0.
2239.93 1632.65 0.
1468.14 1097.48 0.
1154.66 373.493 0.
1408.15 428.109 0.
1518.79 694.174 0.
1152.32 -152.861 0.
513.108 -1601.23 0.
1001.83 -461.697 0.
1533.16 776.289 0.
650.381 196.774 0.
702.088 321.727 0.
942.268 885.22 0.
2173.49 1567.12 0.
1350.33 -347.202 0.
90.3552 -300.969 0.
639.793 535.781 0.
372.007 -88.0562 0.
883.033 1216.27 0.
131.967 -537.742 0.
352.836 -23.7331 0.
922.997 413.646 0.
964.762 504.651 0.
867.922 272.578 0.
126.37 158.873 0.
22.1831 -83.0645 0.
-10.4999 -157.93 0.
877.304 1016.61 0.
657.113 504.085 0.
748.338 -325.094 0.
1203.53 743.45 0.
939.18 132.23 0.
-399.329 -293.718 0.
-203.111 166.638 0.
-22.6289 589.685 0.
462.963 763.889 0.
138.775 7.4428 0.
155.533 48.8474 0.
-26.8261 -239.951 0.
159.607 199.346 0.
-422.649 -365.718 0.
-18.7332 -300.648 0.
-166.207 -647.873 0.
-123.942 -839.422 0.
-30.8274 -623.415 0.
62.2876 -407.407 0.
-71.992 -395.122 0.
-120.447 -511.662 0.
-168.903 -628.201 0.
102.158 -580.599 0.
89.1853 -611.269 0.
76.2119 -641.939 0.
285.558 -469.739 0.
327.11 -365.129 0.
383.433 -261.473 0.
394.026 -233.063 0.
404.618 -204.653 0.
534.242 -156.627 0.
486.931 -268.733 0.
439.62 -380.839 0.
437.824 -478.089 0.
372.826 -623.968 0.
307.829 -769.847 0.
62.8044 -1030.83 0.
-21.3444 -1228.37 0.
304.834 -1249 0.
473.515 -1102.61 0.
512.521 -1008.56 0.
356.826 -1000.82 0.
401.744 -894.472 0.
446.661 -788.119 0.
709.542 -586.668 0.
758.832 -473.672 0.
808.122 -360.676 0.
750.665 -493.19 0.
629.811 -769.826 0.
508.956 -1046.46 0.
1261.66 -626.752 0.
1332.39 -452.776 0.
674.394 -618.16 0.
654.854 -659.524 0.
635.314 -700.887 0.
702.111 -665.684 0.
746.74 -560.606 0.
791.368 -455.526 0.
507.898 -486.641 0.
566.493 -356.619 0.
625.089 -226.596 0.
1775.3 243.079 0.
1740.08 169.008 0.
-1402.72 -1235.86 0.
1449.55 -96.009 0.
1405.76 -196.492 0.
856.897 -438.134 0.
990.499 -124.494 0.
1124.1 189.145 0.
788.507 91.438 0.
679.465 -161.214 0.
570.425 -413.865 0.
1030.43 -219.116 0.
1080.2 -104.438 0.
1129.97 10.2394 0.
997.562 -137.116 0.
945.272 -265.813 0.
935.029 -354.859 0.
972.785 -265.725 0.
1010.54 -176.592 0.
1111.48 -133.693 0.
1037.73 -304.503 0.
963.974 -475.312 0.
454.969 -761.819 0.
444.956 -784.684 0.
434.945 -807.549 0.
1084.53 -533.713 0.
1081.64 -539.39 0.
804.302 -663.057 0.
113.846 -929.87 0.
128.585 -894.397 0.
138.72 -843.946 0.
196.074 -708.093 0.
253.429 -572.24 0.
316.404 -459.523 0.
341.133 -404.188 0.
365.862 -348.852 0.
-145.808 -557.447 0.
-141.131 -550.982 0.
-136.453 -544.518 0.
321.253 -414.667 0.
285.814 -497.584 0.
296.844 -546.074 0.
300.925 -533 0.
305.003 -519.928 0.
-260.139 -635.366 0.
-88.9229 -237.161 0.
82.2938 161.045 0.
293.611 333.316 0.
252.096 237.68 0.
210.581 142.043 0.
61.7966 10.6558 0.
20.3366 -80.2486 0.
-423.541 -338.218 0.
246.028 -155.962 0.
98.4069 -502.923 0.
3.80641 -752.973 0.
96.7673 -536.168 0.
189.728 -319.364 0.
-26.1575 -343.883 0.
-74.022 -461.051 0.
-121.888 -578.219 0.
149.753 -530.745 0.
136.736 -561.604 0.
123.719 -592.462 0.
300.836 -430.396 0.
342.204 -325.592 0.
206.589 -309.93 0.
216.968 -280.812 0.
227.347 -251.694 0.
380.159 -189.671 0.
333.052 -302.05 0.
285.946 -414.429 0.
798.9 -292.111 0.
733.76 -437.616 0.
668.622 -583.119 0.
-62.164 -1052.28 0.
-146.786 -1249.68 0.
444.152 -1156.48 0.
654.143 -991.947 0.
693.558 -897.968 0.
374.368 -962.966 0.
419.139 -855.916 0.
463.911 -748.867 0.
498.076 -645.148 0.
547.667 -531.94 0.
597.258 -418.731 0.
841.381 -422.68 0.
721.671 -700.112 0.
601.959 -977.543 0.
936.608 -734.908 0.
1006.34 -559.61 0.
538.257 -645.321 0.
519.046 -687.372 0.
499.834 -729.422 0.
850.368 -572.002 0.
895.59 -468.009 0.
940.812 -364.014 0.
316.8 -534.339 0.
375.671 -404.673 0.
434.542 -275.006 0.
2009.97 374.858 0.
1974.7 300.967 0.
-742.261 -921.286 0.
1516.98 -34.7458 0.
1472.38 -134.752 0.
749.417 -454.987 0.
882.761 -141.938 0.
1016.1 171.11 0.
963.36 201.343 0.
854.113 -52.3376 0.
744.868 -306.018 0.
539.999 -401.129 0.
589.198 -285.723 0.
638.397 -170.317 0.
1088.27 -64.7804 0.
1036.33 -193.96 0.
792.311 -380.058 0.
831.359 -292.309 0.
870.409 -204.561 0.
1086.52 -113.639 0.
1012.66 -284.446 0.
938.794 -455.252 0.
737.986 -609.21 0.
727.158 -631.724 0.
716.331 -654.237 0.
878.322 -588.139 0.
876.419 -594.849 0.
1530.09 -321.761 0.
256.959 -838.615 0.
272.365 -803.411 0.
321.522 -732.158 0.
379.376 -595.864 0.
437.232 -459.571 0.
47.1127 -546.852 0.
71.6914 -491.449 0.
96.2698 -436.046 0.
-81.9051 -495.809 0.
-76.3943 -490.496 0.
-70.8827 -485.184 0.
411.994 -341.474 0.
376.574 -423.982 0.
-127.796 -698.64 0.
-123.653 -685.869 0.
-119.512 -673.1 0.
111.045 -443.342 0.
281.825 -44.9273 0.
452.605 353.489 0.
328.106 378.382 0.
286.561 282.166 0.
245.018 185.949 0.
53.1926 36.8464 0.
11.1335 -54.0566 0.
-359.469 -150.719 0.
391.108 -132.228 0.
296.803 -349.792 0.
116.045 -534.758 0.
168.672 -412.16 0.
221.298 -289.559 0.
43.7458 -343.207 0.
19.5062 -399.777 0.
-4.73373 -456.346 0.
252.938 -368.877 0.
239.584 -398.959 0.
226.231 -429.041 0.
297.025 -361.158 0.
329.276 -287.77 0.
120.198 -313.401 0.
98.699 -361.838 0.
77.2009 -410.276 0.
315.933 -288.864 0.
374.306 -146.483 0.
432.68 -4.10461 0.
1064.63 196.275 0.
940.373 -91.9799 0.
816.119 -380.234 0.
51.8087 -801.28 0.
23.2679 -866.412 0.
543.915 -696.1 0.
922.984 -410.572 0.
990.061 -253.88 0.
569.481 -329.211 0.
596.342 -270.2 0.
623.202 -211.188 0.
681.781 -177.699 0.
651.618 -244.152 0.
621.455 -310.605 0.
802.979 -325.394 0.
749.567 -450.063 0.
696.156 -574.733 0.
1034.76 -218.063 0.
1167.54 87.0276 0.
840.312 158.082 0.
765.788 -16.3811 0.
691.264 -190.844 0.
855.371 -207.475 0.
874.578 -164.72 0.
893.784 -121.965 0.
324.136 -335.731 0.
339.652 -297.942 0.
355.167 -260.154 0.
2275.79 523.716 0.
2250.19 459.302 0.
-2067.96 -1445.31 0.
1685.29 388.946 0.
1805.81 666.542 0.
1133.26 496.145 0.
997.776 168.032 0.
862.294 -160.084 0.
606.559 -329.082 0.
711.97 -83.6515 0.
817.382 161.779 0.
675.585 125.086 0.
639.535 40.3236 0.
603.483 -44.4394 0.
1121.08 12.3872 0.
1027.77 -197.347 0.
626.872 -515.333 0.
666.847 -420.065 0.
706.822 -324.799 0.
1073.2 -157.881 0.
1012.12 -304.459 0.
951.046 -451.036 0.
764.847 -645.55 0.
702.956 -789.703 0.
641.067 -933.855 0.
577.622 -912.401 0.
627.194 -791.802 0.
268.612 -838.394 0.
316.7 -789.485 0.
329.867 -755.923 0.
291.431 -709.997 0.
387.864 -485.067 0.
484.297 -260.136 0.
106.918 -299.806 0.
123.505 -257.365 0.
140.092 -214.925 0.
56.5253 -404.6 0.
-63.6191 -678.123 0.
-183.762 -951.645 0.
274.03 -492.522 0.
434.829 -119.865 0.
125.833 15.6425 0.
152.963 76.9688 0.
180.093 138.295 0.
501.398 201.375 0.
349.241 -147.536 0.
197.082 -496.445 0.
-74.5878 -511.707 0.
113.54 -74.4565 0.
301.668 362.794 0.
115.51 290.444 0.
79.9779 209.062 0.
-330.012 -109.817 0.
465.173 -69.5088 0.
371.016 -287.007 0.
70.3698 -522.499 0.
124.014 -401.124 0.
177.656 -279.746 0.
193.714 -242.27 0.
170.67 -300.572 0.
147.625 -358.872 0.
312.538 -311.718 0.
298.513 -341.845 0.
284.49 -371.971 0.
252.933 -347.771 0.
285.055 -274.006 0.
123.23 -281.049 0.
100.306 -327.787 0.
77.383 -374.526 0.
416.336 -219.296 0.
473.688 -75.2669 0.
531.039 68.7581 0.
903.891 158.7 0.
779.738 -129.156 0.
655.585 -417.011 0.
225.766 -695.867 0.
197.779 -761.362 0.
280.842 -778.636 0.
849.319 -410.586 0.
916.769 -253.828 0.
404.065 -368.129 0.
431.951 -309.468 0.
459.837 -250.806 0.
882.309 -59.7587 0.
852.736 -126.633 0.
823.165 -193.506 0.
551.2 -401.602 0.
497.828 -526.209 0.
444.456 -650.816 0.
1080.71 -166.731 0.
1212.84 139.284 0.
907.994 217.244 0.
833.896 42.9842 0.
759.797 -131.275 0.
376.067 -383.417 0.
394.29 -340.351 0.
412.512 -297.285 0.
346.655 -295.766 0.
363.788 -260.212 0.
380.92 -224.658 0.
2575.59 686.259 0.
2550.39 621.163 0.
184.195 -448.038 0.
1620.25 393.946 0.
1739.97 672.846 0.
1227.32 563.6 0.
1090.06 237.338 0.
952.797 -88.9253 0.
171.898 -486.795 0.
277.115 -241.013 0.
382.333 4.76914 0.
951.492 271.74 0.
914.408 187.765 0.
877.323 103.79 0.
1079.22 26.2974 0.
987.524 -185.263 0.
545.79 -515.625 0.
585.664 -420.598 0.
625.538 -325.572 0.
1155.18 -91.0248 0.
1092.5 -236.436 0.
1029.82 -381.846 0.
636.962 -670.976 0.
575.677 -815.407 0.
514.393 -959.839 0.
411.335 -950.188 0.
460.756 -829.163 0.
354.542 -774.186 0.
308.156 -765.812 0.
321.246 -732.421 0.
51.2905 -782.511 0.
147.256 -556.783 0.
243.221 -331.055 0.
281.37 -196.109 0.
298.69 -153.781 0.
316.011 -111.454 0.
253.597 -285.284 0.
133.453 -559.173 0.
13.3093 -833.061 0.
56.2921 -554.73 0.
217.276 -181.856 0.
438.717 179.217 0.
465.489 240.726 0.
492.259 302.235 0.
448.026 214.566 0.
295.105 -133.803 0.
142.184 -482.17 0.
-134.863 -509.154 0.
53.5699 -72.2794 0.
242.003 364.596 0.
55.6738 294.886 0.
20.1677 213.237 0.
-328.259 -438.561 0.
688.943 392.059 0.
160.103 -840.343 0.
-257.18 -1187.5 0.
650.9 935.437 0.
533.8 666.168 0.
735.933 771.91 0.
339.419 -148.891 0.
271.655 -302.349 0.
718.739 571.265 0.
492.83 44.044 0.
538.183 149.239 0.
300.463 -134.079 0.
-153.444 -1194.68 0.
104.582 -286.518 0.
414.326 435.537 0.
541.639 732.511 0.
756.795 429.895 0.
686.254 266.876 0.
828.848 600.009 0.
914.014 524.128 0.
651.296 -97.5887 0.
96.4973 -1399.26 0.
603.859 -122.077 0.
920.19 619.314 0.
1709.67 856.237 0.
896.192 -106.267 0.
1015.38 168.136 0.
218.286 -475.354 0.
-21.9614 -1040.24 0.
578.93 358.55 0.
1339.45 666.282 0.
1614.21 1309.6 0.
1297.65 575.728 0.
660.096 344.825 0.
1122.61 1424.88 0.
359.469 -354.361 0.
1505.57 779.699 0.
1487.24 725.584 0.
1199.28 788.094 0.
689.622 -404.992 0.
861.169 -9.25577 0.
243.892 235.959 0.
345.048 473.664 0.
377.821 552.181 0.
954.395 1108.97 0.
560.129 192.941 0.
82.6248 -917.182 0.
2576.76 134.297 0.
3302.32 1822.03 0.
-11470.7 -2914.48 0.
2071.3 1616.99 0.
1544.11 386.782 0.
855.813 -436.105 0.
1110.38 153.433 0.
1029.17 -40.2922 0.
379.707 831.947 0.
-25.6852 -114.26 0.
232.057 487.146 0.
1823.37 1823.74 0.
870.271 -404.655 0.
1065.57 49.1877 0.
1187.89 388.131 0.
1739.45 1679.95 0.
960.056 624.254 0.
598.941 -219.238 0.
843.286 354.165 0.
1655.57 973.85 0.
1311.27 171.843 0.
1232.62 -10.1468 0.
711.405 -220.953 0.
1018.84 494.48 0.
991.921 428.97 0.
942.775 626.262 0.
622.197 -115.395 0.
40.0444 -508.759 0.
1521.27 2111.05 0.
877.325 609.929 0.
157.59 -78.4857 0.
-370.394 -1310.42 0.
-163.46 -828.026 0.
230.066 -618.487 0.
609.723 276.054 0.
358.667 -300.583 0.
898.113 897.457 0.
757.113 558.508 0.
75.4573 -1041.42 0.
37.9375 -163.21 0.
470.076 849.65 0.
630.394 90.7087 0.
1144.06 1285.31 0.
794.749 466.287 0.
262.268 -72.6423 0.
454.272 375.762 0.
408.151 267.364 0.
-32.9136 -132.9 0.
103.536 190.819 0.
-288.338 -718.77 0.
291.341 938.367 0.
-43.0527 147.653 0.
-502.665 -756.383 0.
272.43 -224.324 0.
332.382 -82.2413 0.
389.957 -24.0903 0.
276.72 -286.67 0.
163.482 -549.247 0.
86.6476 -653.377 0.
137.931 -530.356 0.
189.213 -407.334 0.
341.43 -298.69 0.
354.373 -268.726 0.
367.316 -238.761 0.
198.284 -401.217 0.
139.642 -539.364 0.
-58.6908 -732.223 0.
-57.3893 -734.225 0.
-56.0876 -736.226 0.
334.528 -584.654 0.
296.815 -677.593 0.
259.1 -770.533 0.
297.369 -703.14 0.
379.12 -517.695 0.
460.873 -332.249 0.
600.864 -129.542 0.
680.274 58.3451 0.
1105.6 394.282 0.
798.605 -49.1438 0.
630.664 -441.936 0.
62.3073 -971.824 0.
-45.3599 -1222.21 0.
-153.027 -1472.61 0.
362.744 -1298.19 0.
459.633 -1074.8 0.
556.522 -851.404 0.
345.733 -690.732 0.
489.161 -354.61 0.
632.59 -18.489 0.
1023.41 81.6748 0.
966.567 -56.208 0.
791.154 -222.808 0.
856.969 -70.254 0.
922.783 82.3011 0.
392.089 -83.5894 0.
355.925 -167.977 0.
319.76 -252.364 0.
213.251 -304.568 0.
230.604 -254.078 0.
247.957 -203.588 0.
2679.79 803.728 0.
2647.82 732.346 0.
-2230 -1417.62 0.
1136.11 -51.8861 0.
1096.5 -145.257 0.
694.943 -333.298 0.
786.187 -124.171 0.
877.432 84.9569 0.
421.291 -133.554 0.
288.029 -446.193 0.
154.767 -758.833 0.
615.059 -621.935 0.
639.774 -569.667 0.
664.488 -517.4 0.
870.394 -192.971 0.
1000.89 115.788 0.
1108.15 343.724 0.
936.777 -54.7202 0.
765.405 -453.166 0.
689.706 -717.062 0.
662.451 -784.958 0.
635.196 -852.855 0.
162.566 -998.802 0.
238.494 -822.707 0.
314.422 -646.613 0.
515.633 -506.442 0.
527.124 -474.286 0.
952.66 -257.054 0.
350.598 -426.954 0.
396.411 -317.65 0.
189.652 -363.525 0.
157.159 -442.722 0.
124.667 -521.919 0.
371.248 -410.598 0.
410.553 -314.821 0.
449.857 -219.045 0.
336.38 -192.635 0.
379.625 -99.6364 0.
422.869 -6.63791 0.
152.543 -241.739 0.
78.9223 -411.621 0.
178.091 -484.805 0.
189.047 -460.181 0.
200.003 -435.557 0.
125.414 -371.986 0.
252.204 -76.3767 0.
378.993 219.233 0.
92.0517 -58.352 0.
-141.253 -600.363 0.
-374.556 -1142.37 0.
-212.602 -838.868 0.
-0.750865 -348.982 0.
125.281 -461.321 0.
102.708 -266.834 0.
162.533 -125.069 0.
589.911 93.8688 0.
477.644 -169.868 0.
365.376 -433.604 0.
56.5038 -632.175 0.
108.769 -509.82 0.
161.032 -387.466 0.
351.876 -261.822 0.
364.676 -231.792 0.
377.476 -201.761 0.
230.389 -355.225 0.
171.33 -493.472 0.
-7.80764 -680.127 0.
-7.22232 -681.768 0.
-6.63674 -683.409 0.
371.161 -537.734 0.
333.249 -630.893 0.
295.337 -724.052 0.
201.807 -712.63 0.
282.966 -526.862 0.
364.126 -341.093 0.
621.485 -89.5656 0.
701.453 98.3891 0.
274.363 68.6953 0.
656.671 -79.8551 0.
488.992 -472.356 0.
148.301 -904.625 0.
40.9549 -1154.78 0.
-66.3911 -1404.94 0.
206.927 -1335.14 0.
303.466 -1110.77 0.
400.005 -886.392 0.
531.902 -579.115 0.
675.939 -243.924 0.
819.975 91.2685 0.
813.727 22.8573 0.
755.811 -114.405 0.
838.206 -170.347 0.
904.347 -18.5399 0.
970.488 133.268 0.
762.285 106.06 0.
725.667 21.0034 0.
689.049 -64.0529 0.
60.5845 -337.6 0.
78.194 -288.137 0.
95.8031 -238.675 0.
2460.36 740.791 0.
2428.89 669.542 0.
-4194.8 -2227.15 0.
884.747 -127.466 0.
845.633 -221.284 0.
458.099 -404.013 0.
549.48 -195.523 0.
640.863 12.9681 0.
995.691 144.429 0.
862.655 -169.486 0.
729.62 -483.402 0.
435.104 -666.995 0.
460.198 -615.442 0.
485.292 -563.89 0.
802.116 -189.844 0.
933.157 118.092 0.
1450.19 524.227 0.
1279.23 124.547 0.
1108.28 -275.136 0.
416.619 -803.304 0.
388.876 -871.54 0.
361.133 -939.776 0.
-84.8743 -1072.45 0.
-8.77903 -897.659 0.
67.3166 -722.865 0.
601.337 -436.123 0.
612.105 -404.024 0.
852.511 -273.12 0.
261.788 -436.405 0.
307.056 -326.346 0.
391.03 -245.968 0.
359.087 -325.061 0.
327.144 -404.156 0.
455.829 -343.352 0.
494.933 -246.582 0.
534.035 -149.812 0.
235.945 -205.517 0.
278.693 -111.926 0.
321.44 -18.3356 0.
352.995 -123.701 0.
280.333 -294.532 0.
-63.5968 -555.311 0.
-52.6791 -530.823 0.
-41.7612 -506.334 0.
133.348 -338.004 0.
259.338 -41.9662 0.
385.326 254.073 0.
224.612 30.0465 0.
-8.41314 -512.419 0.
-241.437 -1054.89 0.
118.499 -668.425 0.
329.063 -177.032 0.
-128.646 -138.094 0.
101.721 -200.376 0.
28.8781 -372.219 0.
410.572 -273.681 0.
533.197 16.4494 0.
655.822 306.579 0.
301.622 182.248 0.
169.16 -124.417 0.
36.6997 -431.083 0.
335.424 -376.734 0.
340.344 -362.236 0.
345.264 -347.737 0.
331.653 -181.314 0.
442.929 75.177 0.
498.16 289.738 0.
466.329 212.955 0.
434.498 136.171 0.
475.984 14.9961 0.
325.192 -335.479 0.
174.399 -685.954 0.
176.866 -722.664 0.
271.178 -499.072 0.
365.489 -275.481 0.
681.894 -141.604 0.
641.925 -233.585 0.
758.675 -256.784 0.
364.31 -482.198 0.
330.819 -550.65 0.
440.342 -499.825 0.
547.855 -244.947 0.
655.367 9.93129 0.
719.129 112.643 0.
668.076 -2.49153 0.
617.022 -117.626 0.
738.437 -126.968 0.
716.106 -179.758 0.
693.774 -232.549 0.
574.512 -289.075 0.
573.188 -290.077 0.
804.631 -196.772 0.
757.797 -303.175 0.
710.962 -409.579 0.
520.646 -480.094 0.
642.059 -200.524 0.
763.471 79.0459 0.
285.367 -208.147 0.
111.05 -616.54 0.
-63.2641 -1024.93 0.
1773.85 -201.962 0.
1856.88 -10.509 0.
121.553 -596.716 0.
819.224 -92.6885 0.
924.878 155.406 0.
582.736 140.31 0.
512.723 -15.8685 0.
442.711 -172.047 0.
1166.97 39.4442 0.
1142.16 -17.4118 0.
1117.36 -74.2683 0.
495.159 -215.176 0.
604.082 40.8791 0.
713.005 296.933 0.
940.42 -0.552894 0.
705.118 -551.995 0.
815.443 -853.937 0.
985.45 -463.04 0.
1155.46 -72.1423 0.
652.345 -64.12 0.
691.284 24.3098 0.
730.224 112.741 0.
268.231 -104.737 0.
217.133 -224.254 0.
166.035 -343.772 0.
702.004 -108.827 0.
724.47 -60.3372 0.
588.986 -80.2245 0.
409.401 -120.95 0.
431.468 -74.8945 0.
417.409 -90.6334 0.
322.734 -311.213 0.
228.059 -531.792 0.
343.99 -631.88 0.
287.504 -768.417 0.
231.017 -904.954 0.
-53.5767 -837.386 0.
114.447 -444.286 0.
282.47 -51.1875 0.
338.323 -213.339 0.
216.689 -494.774 0.
-238.798 -868.618 0.
-154.866 -679.466 0.
-70.9327 -490.313 0.
132.509 -305.718 0.
150.203 -275.689 0.
167.895 -245.658 0.
159.096 -196.002 0.
193.734 -117.316 0.
228.374 -38.6307 0.
419.631 -70.6461 0.
333.954 -268.194 0.
297.369 74.653 0.
203.513 -124.716 0.
130.72 -296.492 0.
192.928 -334.876 0.
316.286 -45.1896 0.
439.644 244.497 0.
113.485 134.527 0.
-18.7757 -172.376 0.
-151.035 -479.279 0.
429.334 -306.449 0.
435.399 -293.193 0.
441.464 -279.938 0.
414.511 -110.357 0.
526.606 145.038 0.
696.229 404.233 0.
664.051 327.892 0.
631.873 251.549 0.
159.533 -88.117 0.
8.96952 -438.895 0.
-141.595 -789.673 0.
244.39 -662.538 0.
338.821 -438.886 0.
433.252 -215.234 0.
883.598 -22.6747 0.
843.611 -113.947 0.
1557.42 119.855 0.
237.373 -506.76 0.
205.607 -576.077 0.
649.057 -377.223 0.
757.407 -122.295 0.
865.757 132.633 0.
640.475 108.092 0.
589.543 -7.22379 0.
538.611 -122.539 0.
613.208 -149.866 0.
590.649 -202.464 0.
568.089 -255.064 0.
563.988 -260.984 0.
562.698 -261.91 0.
730.421 -197.16 0.
683.455 -303.927 0.
636.488 -410.695 0.
212.051 -582.21 0.
333.137 -303.531 0.
454.224 -24.8512 0.
878.406 78.0815 0.
703.111 -330.377 0.
527.819 -738.835 0.
1356.09 -350.317 0.
1438.31 -158.512 0.
-902.984 -1003.69 0.
867.9 -41.0117 0.
973.405 207.163 0.
586.959 172.109 0.
517.414 15.057 0.
447.87 -141.996 0.
1145.3 65.6121 0.
1121.51 6.95238 0.
1097.72 -51.7083 0.
365.884 -237.202 0.
475.665 17.849 0.
585.446 272.9 0.
1193.59 142.04 0.
958.448 -409.87 0.
423.832 -989.311 0.
594.013 -598.985 0.
764.193 -208.659 0.
743.156 4.04183 0.
781.278 93.0377 0.
819.4 182.034 0.
378.992 -25.5255 0.
327.798 -146.079 0.
276.603 -266.635 0.
574.067 -134.531 0.
595.868 -86.3343 0.
1214.23 220.955 0.
562.05 -22.2288 0.
584.086 23.6602 0.
172.978 -164.148 0.
78.6678 -384.869 0.
-15.6421 -605.591 0.
334.791 -603.063 0.
277.444 -738.587 0.
220.097 -874.11 0.
22.9662 -775.599 0.
191.214 -382.455 0.
359.461 10.6894 0.
249.776 -217.455 0.
128.187 -498.844 0.
-73.0649 -766.43 0.
10.4526 -576.749 0.
93.9699 -387.066 0.
139.198 -274.266 0.
155.952 -242.992 0.
172.705 -211.717 0.
136.941 -174.495 0.
172.135 -95.9361 0.
207.331 -17.377 0.
267.395 -105.628 0.
182.147 -303.13 0.
-657.892 -363.391 0.
-87.5023 -956.225 0.
656.106 776.302 0.
384.389 561.523 0.
93.2729 -114.133 0.
218.984 183.135 0.
-710.127 -1423.34 0.
-78.3197 54.2811 0.
-411.06 -717.927 0.
924.228 714.332 0.
842.995 526.847 0.
893.853 647.771 0.
919.987 941.13 0.
763.835 579.78 0.
419.891 -575.427 0.
671.355 7.74603 0.
696.177 62.3867 0.
51.7352 270.888 0.
455.113 1211.43 0.
-141.822 -183.233 0.
473.023 -206.895 0.
983.434 981.87 0.
1181.21 1442.04 0.
1188.54 364.413 0.
1337.96 715.109 0.
493.816 -832.743 0.
137.304 -485.796 0.
461.142 271.28 0.
971.774 19.5602 0.
710.845 -592.57 0.
723.226 -566.179 0.
406.758 -275.068 0.
739.557 503.623 0.
256.959 -619.389 0.
904.904 794.175 0.
936.879 867.302 0.
701.082 315.938 0.
289.132 -851.657 0.
500.955 -356.519 0.
651.502 -205.113 0.
926.368 436.785 0.
845.442 248.859 0.
464.618 624.136 0.
168.677 -71.254 0.
-131.62 -776.793 0.
1253.64 -135.444 0.
1514.52 471.619 0.
688.29 -1457.87 0.
951.336 -466.909 0.
1378 521.267 0.
-2517.24 -1236.93 0.
1255.59 813.174 0.
1179.51 631.716 0.
612.357 249.015 0.
555.288 114.158 0.
431.227 -177.222 0.
1127.78 125.787 0.
1572.45 1156.01 0.
1952.55 2035.69 0.
653.748 708.969 0.
281.615 -158.541 0.
573.211 522.861 0.
1415.86 206.369 0.
1384.15 131.236 0.
693.935 405.439 0.
526.423 11.1485 0.
264.747 -599.726 0.
897.918 222.887 0.
541.358 -602.789 0.
815.299 42.9212 0.
17.504 -1066.73 0.
-41.111 -1196.03 0.
255.41 -498.755 0.
646.437 286.755 0.
819.464 700.319 0.
597.386 322.068 0.
1044.94 864.183 0.
647.901 -62.1391 0.
324.307 684.476 0.
23.4588 -23.6771 0.
-128.469 -384.17 0.
846.952 642.111 0.
802.632 535.926 0.
136.977 -1021.58 0.
489.773 206.594 0.
734.984 773.233 0.
350.919 -129.493 0.
160.52 -219.849 0.
143.848 -256.724 0.
399.893 55.6658 0.
628.254 589.88 0.
713.36 789.718 0.
1.67163 -587.256 0.
32.2785 -515.081 0.
385.784 310.479 0.
611.971 1010.01 0.
254.341 183.177 0.
355.537 425.895 0.
187.275 -6.74763 0.
406.615 500.67 0.
-1406.02 -1503.35 0.
43.3865 -672.268 0.
161.087 -397.091 0.
-99.6838 -337.015 0.
-120.294 -384.054 0.
-140.904 -431.092 0.
-115.293 -378.709 0.
-38.4711 -197.347 0.
38.3513 -15.9862 0.
628.141 162.965 0.
524.73 -74.2957 0.
421.318 -311.556 0.
413.112 -299.573 0.
431.461 -251.406 0.
418.325 -232.867 0.
398.054 -281.328 0.
377.783 -329.79 0.
-122.28 -505.534 0.
-17.2133 -257.424 0.
87.854 -9.315 0.
546.407 140.626 0.
403.84 -193.671 0.
261.272 -527.969 0.
537.693 -472.221 0.
545.024 -455.246 0.
290.718 -550.149 0.
433.36 -316.056 0.
515.613 -122.213 0.
934.501 168.944 0.
917.211 128.034 0.
899.921 87.1252 0.
701.906 3.43891 0.
726.537 62.9788 0.
751.169 122.519 0.
320.093 -71.8467 0.
292.444 -136.197 0.
264.794 -200.548 0.
595.461 -160.832 0.
541.405 -288.299 0.
652.097 -304.982 0.
771.586 -22.4028 0.
891.074 260.176 0.
119.149 2.44833 0.
-17.54 -317.325 0.
-154.229 -637.099 0.
1013.41 -222.025 0.
1048.83 -145.884 0.
1084.26 -69.7425 0.
1010.29 -61.0671 0.
1028.35 -23.6372 0.
-1286.78 -988.615 0.
1006.32 36.6423 0.
1030.75 90.7282 0.
518.655 -114.113 0.
464.785 -238.841 0.
410.916 -363.569 0.
631.498 -326.704 0.
632.706 -320.243 0.
633.913 -313.782 0.
533.316 -376.58 0.
511.487 -422.652 0.
489.655 -468.726 0.
1060.11 -204.157 0.
1074.17 -172.946 0.
338.26 -487.808 0.
263.801 -661.789 0.
189.342 -835.771 0.
279.554 -861.702 0.
312.366 -786.174 0.
345.18 -710.647 0.
333.328 -621.024 0.
410.759 -445.185 0.
488.19 -269.345 0.
547.878 -23.1966 0.
670.433 263.884 0.
394.303 375.913 0.
568.112 209.314 0.
439.385 -89.0929 0.
-65.3907 -469.336 0.
-1.96573 -323.771 0.
61.4593 -178.206 0.
585.423 29.6795 0.
494.084 -181.507 0.
402.746 -392.693 0.
221.834 -527.574 0.
216.979 -541.945 0.
212.125 -556.315 0.
-211.688 -528.753 0.
-90.156 -242.999 0.
480.406 185.61 0.
378.132 -53.8982 0.
275.858 -293.406 0.
18.5334 -527.587 0.
24.9022 -515.878 0.
31.2718 -504.168 0.
-156.227 -596.605 0.
-166.122 -613.161 0.
-176.017 -629.716 0.
50.1062 -567.804 0.
27.5799 -622.503 0.
-703.242 -1170.29 0.
68.3586 -628.956 0.
185.898 -353.575 0.
-202.22 -349.911 0.
-222.978 -396.943 0.
-243.736 -443.975 0.
84.0675 -260.905 0.
161.126 -79.6331 0.
238.186 101.638 0.
571.05 170.353 0.
468.204 -67.7832 0.
365.358 -305.919 0.
457.302 -247.533 0.
476.247 -199.886 0.
253.55 -270.476 0.
233.183 -319.058 0.
212.815 -367.641 0.
88.8391 -383.38 0.
193.873 -134.949 0.
298.908 113.481 0.
468.462 135.988 0.
326.461 -198.775 0.
184.458 -533.539 0.
198.904 -585.827 0.
207.811 -569.5 0.
-569.005 -889.138 0.
719.147 -161.429 0.
802.102 32.4516 0.
824.974 152.696 0.
808.439 111.98 0.
791.904 71.2643 0.
930.465 132.754 0.
955.178 192.221 0.
979.891 251.687 0.
76.4305 -146.77 0.
49.0036 -211.354 0.
21.5757 -275.939 0.
623.293 -114.687 0.
569.325 -242.827 0.
719.608 -244.249 0.
838.6 37.7549 0.
957.59 319.759 0.
37.4505 -1.13966 0.
-99.7811 -321.229 0.
-237.012 -641.318 0.
783.628 -289.967 0.
818.623 -213.835 0.
853.619 -137.702 0.
891.073 -81.1631 0.
908.342 -43.8802 0.
-776.344 -738.617 0.
1123.06 117.868 0.
1147.65 171.328 0.
606.686 -40.3873 0.
553.112 -165.693 0.
499.539 -290.997 0.
278.914 -447.988 0.
280.164 -442.45 0.
281.414 -436.913 0.
970.429 -156.587 0.
949.112 -203.208 0.
927.792 -249.83 0.
855.5 -259.567 0.
870.131 -229.37 0.
390.55 -432.108 0.
316.763 -607.53 0.
242.976 -782.954 0.
111.773 -898.799 0.
145.112 -824.611 0.
178.452 -750.423 0.
504.634 -515.983 0.
582.04 -340.588 0.
659.447 -165.193 0.
603.266 30.1703 0.
725.322 317.113 0.
241.75 341.995 0.
345.078 145.863 0.
216.121 -152.724 0.
78.232 -376.187 0.
141.707 -231.027 0.
205.183 -85.8674 0.
600.755 69.3651 0.
509.059 -141.681 0.
417.364 -352.726 0.
294.895 -464.613 0.
289.966 -478.791 0.
285.038 -492.968 0.
-488.133 -616.547 0.
-366.307 -330.723 0.
523.808 236.598 0.
422.532 -3.24072 0.
321.256 -243.078 0.
27.5208 -489.887 0.
34.3383 -478.114 0.
41.1566 -466.341 0.
-236.496 -598.693 0.
-246.088 -615.171 0.
-255.679 -631.649 0.
192.749 -475.13 0.
169.958 -529.586 0.
-1361.16 -531.743 0.
185.822 10.5191 0.
117.699 -150.495 0.
-139.972 -353.446 0.
-110.352 -287.289 0.
-80.7322 -221.133 0.
258.614 -75.4202 0.
214.572 -172.526 0.
170.531 -269.632 0.
412.951 -142.321 0.
458.144 -41.1447 0.
503.338 60.03 0.
455.517 -108.287 0.
348.29 -352.122 0.
48.7555 -643.592 0.
129.116 -455.284 0.
209.478 -266.978 0.
279.502 -195.813 0.
173.109 -442.466 0.
66.7165 -689.119 0.
17.6254 -668.337 0.
158.64 -337.109 0.
299.654 -5.88197 0.
279.442 -28.5798 0.
218.274 -164.695 0.
219.579 -274.022 0.
873.141 -141.616 0.
791.551 -324.492 0.
318.838 -617.004 0.
359.36 -521.803 0.
399.883 -426.605 0.
837.561 -204.911 0.
830.798 -216.197 0.
824.035 -227.483 0.
-53.1571 -526.269 0.
2.65701 -390.176 0.
58.4719 -254.083 0.
602.582 -27.4028 0.
591.005 -54.5887 0.
799.99 -0.0158842 0.
744.537 -134.48 0.
689.083 -268.945 0.
-125.628 -587.117 0.
41.3555 -197.219 0.
208.338 192.678 0.
947.124 592.452 0.
889.514 460.086 0.
831.904 327.718 0.
999.317 290.043 0.
944.716 164.479 0.
338.412 -198.85 0.
1028.18 4.0264 0.
974.555 -115.439 0.
428.866 -390.884 0.
509.926 -201.341 0.
590.985 -11.7976 0.
408.794 -63.6117 0.
333.756 -240.45 0.
258.717 -417.288 0.
957.821 -193.609 0.
942.884 -229.627 0.
927.946 -265.644 0.
946.019 -100.666 0.
1036.59 117.258 0.
646.319 112.515 0.
668.997 173.927 0.
691.673 235.339 0.
482.156 120.316 0.
401.503 -65.6868 0.
320.85 -251.689 0.
702.852 -97.3299 0.
748.746 13.4305 0.
794.639 124.191 0.
548.659 -52.1742 0.
493.096 -183.497 0.
1171.95 9.31554 0.
26.5933 -350.392 0.
95.7727 -187.075 0.
345.051 -5.32694 0.
274.38 -164.265 0.
203.71 -323.202 0.
315.748 -323.609 0.
347.615 -251.167 0.
379.482 -178.726 0.
480.98 -109.404 0.
490.127 -86.2301 0.
499.274 -63.056 0.
-350.12 -352.271 0.
-309.977 -260.067 0.
434.506 112.871 0.
385.026 -2.34622 0.
335.545 -117.563 0.
136.691 -244.887 0.
167.303 -175.363 0.
197.915 -105.838 0.
-98.6419 -211.14 0.
-98.9822 -211.864 0.
-99.3229 -212.588 0.
324.911 -148.432 0.
243.564 -332.071 0.
684.939 378.917 0.
-152.743 -102.296 0.
-221.115 -262.889 0.
128.825 -209.052 0.
158.206 -142.668 0.
187.588 -76.285 0.
339.889 -6.43629 0.
295.738 -103.507 0.
251.588 -200.578 0.
437.4 -104.061 0.
481.553 -1.53312 0.
525.707 100.993 0.
306.357 -138.337 0.
199.454 -381.957 0.
130.059 -580.189 0.
210.18 -391.529 0.
290.301 -202.87 0.
374.549 -123.022 0.
268.65 -369.663 0.
162.751 -616.304 0.
-138.701 -703.968 0.
2.91846 -372.823 0.
144.538 -41.6784 0.
232.061 -18.4989 0.
170.271 -153.677 0.
536.788 -104.468 0.
990.664 -58.4203 0.
909.002 -241.059 0.
45.2393 -706.999 0.
85.0161 -610.892 0.
124.794 -514.786 0.
769.453 -201.385 0.
762.575 -212.805 0.
755.696 -224.227 0.
283.717 -349.808 0.
339.459 -213.607 0.
395.201 -77.4062 0.
466.785 -52.4523 0.
455.251 -79.9641 0.
728.061 1.86757 0.
672.124 -132.831 0.
616.186 -267.531 0.
190.354 -417.983 0.
356.756 -28.0215 0.
523.158 361.939 0.
689.632 511.734 0.
631.655 379.441 0.
573.678 247.149 0.
986.943 315.515 0.
932.176 189.708 0.
-72.7806 -342.772 0.
855.122 -36.9258 0.
802.257 -156.781 0.
322.569 -401.107 0.
404.046 -212.324 0.
485.523 -23.5415 0.
686.904 86.5982 0.
611.152 -90.6601 0.
535.399 -267.918 0.
576.293 -325.51 0.
560.855 -360.942 0.
545.415 -396.374 0.
1237.34 53.5136 0.
1328.82 270.875 0.
661.552 152.712 0.
683.664 214.15 0.
705.775 275.588 0.
512.244 164.202 0.
430.92 -21.5053 0.
349.597 -207.211 0.
618.912 -103.525 0.
665.58 6.88957 0.
712.247 117.305 0.
511.708 -35.011 0.
456.506 -166.53 0.
1056.17 -10.4602 0.
4.02197 -328.632 0.
72.1443 -164.067 0.
483.269 83.4942 0.
412.737 -75.8129 0.
342.205 -235.12 0.
49.9749 -406.475 0.
82.5854 -334.567 0.
115.196 -262.659 0.
524.644 -57.8266 0.
533.517 -34.4722 0.
542.389 -11.117 0.
-21.924 -179.888 0.
17.9122 -87.6883 0.
352.368 107.783 0.
302.729 -7.29714 0.
253.089 -122.377 0.
165.302 -203.009 0.
195.619 -133.069 0.
225.937 -63.1285 0.
-57.6422 -161.748 0.
-58.2699 -162.165 0.
-58.898 -162.581 0.
206.607 -170.957 0.
126.342 -356.044 0.
969.158 1148.93 0.
-605.72 -537.805 0.
-442.575 -156.639 0.
367.006 -120.543 0.
453.079 89.1084 0.
563.478 352.935 0.
244.647 -366.373 0.
445.907 110.057 0.
647.115 586.189 0.
1022.62 1257.8 0.
826.966 802.794 0.
449.068 -76.2875 0.
351.615 282.244 0.
530.486 698.401 0.
235.826 -454.893 0.
397.317 -74.6792 0.
111.862 -734.981 0.
562.513 164.429 0.
560.226 153.255 0.
926.302 1003.32 0.
-12.977 -93.3938 0.
-284.987 -730.541 0.
100.364 166.38 0.
45.7712 -339.309 0.
102.384 -202.623 0.
-218.933 -945.24 0.
933.479 -383.699 0.
1033.57 -152.175 0.
-296.113 -968.993 0.
360.408 565.633 0.
443.398 764.297 0.
778.4 0.557254 0.
726.784 -117.848 0.
510.914 -619.826 0.
518.785 -413.922 0.
295.566 -930.564 0.
373.402 -745.054 0.
458.634 222.848 0.
336.921 -62.7671 0.
284.254 -866.832 0.
106.088 -1279.6 0.
571.944 -189.244 0.
863.142 600.046 0.
571.315 -81.9755 0.
-17.6372 -1457.35 0.
-449.468 -1629.42 0.
-212.893 -1076.96 0.
-155.406 -942.406 0.
576.483 -587.33 0.
901.391 168.118 0.
-417.334 -1193.45 0.
392.332 -740.543 0.
1018.48 722.63 0.
1078.54 1589.64 0.
371.066 -58.9376 0.
368.883 -61.9072 0.
1295.81 1010.25 0.
1107.48 572.514 0.
743.007 -276.274 0.
300.533 -208.682 0.
170.712 -518.021 0.
312.644 -192.199 0.
1812.1 881.456 0.
1627.49 451.664 0.
358.625 -546.135 0.
-188.551 -1823.54 0.
568.269 -59.2551 0.
-44.68 -1158.89 0.
439.745 -36.61 0.
205.456 -589.068 0.
391.308 -438.618 0.
787.614 480.029 0.
659.202 175.76 0.
632.101 328.192 0.
887.903 932.329 0.
178.587 544.003 0.
630.264 1186.96 0.
36.5643 -201.192 0.
-151.109 -1608.79 0.
161.151 -880.304 0.
890.068 819.972 0.
303.869 712.615 0.
183.236 431.617 0.
469.417 1099.17 0.
922.596 829.723 0.
768.868 474.273 0.
521.48 -100.682 0.
309.984 27.1568 0.
318.916 50.6206 0.
223.658 -5.10943 0.
-30.7026 -591.393 0.
517.388 692.499 0.
524.16 593.459 0.
544.981 649.544 0.
-181.549 -1038.38 0.
-15.5999 -114.015 0.
9.45347 -56.418 0.
119.947 198.355 0.
32.996 -355.764 0.
-7.80335 -460.274 0.
1818.16 663.109 0.
-84.1332 -81.1298 0.
-56.6636 -15.5685 0.
294.736 146.537 0.
203.875 -62.6371 0.
113.012 -271.808 0.
161.453 -361.879 0.
147.819 -395.246 0.
134.183 -428.61 0.
423.297 -171.801 0.
536.181 90.9574 0.
649.064 353.717 0.
279.642 150.195 0.
237.43 49.9138 0.
339.917 5.72682 0.
227.718 -255.086 0.
115.521 -515.9 0.
113.453 -628.388 0.
175.713 -487.966 0.
237.975 -347.545 0.
-95.1353 -433.983 0.
-96.7249 -432.457 0.
-98.3143 -430.933 0.
341.585 -247.707 0.
341.718 -253.168 0.
820.124 -53.8843 0.
824.354 10.792 0.
861.136 89.6518 0.
213.043 -114.561 0.
262.408 -2.31821 0.
311.774 109.924 0.
481.731 202.718 0.
450.599 125.783 0.
419.467 48.8462 0.
1015.86 264.944 0.
999.335 223.484 0.
982.807 182.024 0.
466.135 -82.1066 0.
448.152 -126.708 0.
401.055 -165.576 0.
468.513 -7.61588 0.
535.972 150.343 0.
502.927 150.873 0.
394.116 -106.757 0.
285.304 -364.388 0.
200.915 -433.182 0.
254.648 -312.7 0.
308.381 -192.218 0.
775.185 -58.6765 0.
715.05 -201.361 0.
124.455 -571.699 0.
669.439 -245.603 0.
717.179 -132.516 0.
389.636 -212.001 0.
350.456 -296.914 0.
311.276 -381.827 0.
600.132 -223.186 0.
692.806 -13.2583 0.
785.481 196.67 0.
428.955 56.4856 0.
398.108 -21.2942 0.
367.261 -99.0742 0.
1187.45 133.666 0.
1121.44 -21.0595 0.
524.191 -376.376 0.
588.689 -232.364 0.
653.188 -88.35 0.
510.851 -112.235 0.
443.239 -273.732 0.
375.626 -435.229 0.
236.923 -600.285 0.
194.665 -696.761 0.
152.406 -793.236 0.
224.854 -584.52 0.
349.51 -289.053 0.
75.2194 -165.179 0.
207.337 -148.697 0.
192.694 -191.908 0.
317.266 -166.403 0.
306.131 -197.697 0.
294.995 -228.992 0.
82.8931 -195.328 0.
248.155 187.725 0.
413.418 570.777 0.
594.87 493.466 0.
402.075 46.1869 0.
209.281 -401.093 0.
-105.988 -454.571 0.
-38.9489 -296.214 0.
-8.80676 -164.342 0.
1.43528 -140.787 0.
11.6797 -117.232 0.
305.13 11.5811 0.
290.382 -20.0345 0.
275.635 -51.6501 0.
-52.8981 -232.781 0.
-78.5834 -298.187 0.
-104.269 -363.594 0.
130.851 -196.264 0.
189.935 -68.4075 0.
-41.7078 -98.588 0.
328.536 125.418 0.
356.397 191.213 0.
78.9829 85.2404 0.
-10.3936 -125.057 0.
-99.7721 -335.352 0.
78.8049 -361.354 0.
67.1372 -395.849 0.
55.4667 -430.342 0.
457.524 -127.154 0.
570.355 135.337 0.
683.186 397.829 0.
279.555 183.469 0.
237.05 82.8342 0.
246.746 -3.31789 0.
134.634 -264.138 0.
22.5229 -524.958 0.
-1.49718 -648.081 0.
60.2627 -506.707 0.
122.023 -365.334 0.
-6.17233 -366.347 0.
-7.66758 -363.766 0.
-9.16271 -361.186 0.
675.658 -74.5225 0.
675.773 -79.6532 0.
758.097 -50.4513 0.
503.565 -93.7496 0.
539.997 -14.6005 0.
409.375 0.505124 0.
458.141 113.205 0.
506.909 225.903 0.
31.4044 41.0785 0.
-0.47175 -35.7261 0.
-32.3484 -112.532 0.
1293.88 416.437 0.
1278.43 374.123 0.
1262.99 331.808 0.
658.515 32.2383 0.
641.23 -12.8387 0.
194.142 -221.882 0.
261.763 -64.4749 0.
329.386 92.9319 0.
321.823 107.408 0.
213.404 -150.608 0.
104.984 -408.625 0.
393.972 -318.667 0.
447.667 -197.659 0.
501.361 -76.6524 0.
768.888 -29.3513 0.
708.877 -172.011 0.
299.615 -465.947 0.
756.314 -176.221 0.
803.739 -62.8549 0.
509.775 -127.667 0.
470.304 -212.732 0.
430.834 -297.797 0.
416.686 -270.472 0.
509.338 -60.8987 0.
601.99 148.675 0.
466.489 105.048 0.
435.469 27.5777 0.
404.449 -49.893 0.
833.413 12.6364 0.
766.298 -140.391 0.
660.35 -288.188 0.
723.949 -143.615 0.
787.547 0.959957 0.
659.043 -18.9568 0.
590.482 -180.551 0.
521.921 -342.147 0.
142.655 -610.296 0.
100.249 -706.814 0.
57.8418 -803.333 0.
214.786 -560.546 0.
340.338 -265.161 0.
657.522 115.335 0.
409.431 -29.348 0.
395.076 -72.9494 0.
151.601 -206.495 0.
141.351 -238.666 0.
131.101 -270.839 0.
303.927 -68.6398 0.
469.856 314.157 0.
635.785 696.954 0.
385.439 435.345 0.
193.622 -12.6404 0.
1.80495 -460.628 0.
-345.399 -524.14 0.
-277.704 -366.661 0.
-193.208 -211.866 0.
-182.849 -188.246 0.
-172.488 -164.626 0.
361.422 67.2458 0.
347.273 35.3819 0.
333.125 3.51753 0.
-19.9053 -186.568 0.
-46.0101 -252.12 0.
-72.1154 -317.671 0.
185.577 -144.442 0.
243.729 -16.1389 0.
957.421 248.659 0.
473.591 153.103 0.
573.392 384.519 0.
139.996 318.097 0.
68.4625 156.577 0.
-3.07411 -4.94222 0.
239.8 79.1064 0.
308.533 243.666 0.
377.263 408.227 0.
531.857 298.085 0.
345.355 -135.786 0.
158.852 -569.656 0.
14.0518 -495.598 0.
126.224 -226.363 0.
180.476 -6.93294 0.
161.918 -51.2053 0.
143.36 -95.4783 0.
180.982 -157.947 0.
95.8425 -350.997 0.
10.7025 -544.047 0.
15.5071 -601.178 0.
26.8244 -579.337 0.
38.1429 -557.497 0.
574.544 -265.441 0.
610.733 -177.832 0.
1059.35 85.3316 0.
474.672 47.6231 0.
588.222 313.552 0.
632.325 470.601 0.
563.046 308.425 0.
493.767 146.249 0.
-182.017 -261.589 0.
-233.412 -386.074 0.
-284.808 -510.561 0.
1012.37 48.1096 0.
1041.95 119.71 0.
1071.53 191.31 0.
742.137 -28.5173 0.
691.159 -145.604 0.
83.8201 -486.533 0.
127.938 -379.073 0.
172.057 -271.613 0.
119.403 -282.576 0.
33.1008 -474.325 0.
-53.2007 -666.072 0.
330.867 -532.153 0.
366.884 -444.534 0.
402.901 -356.917 0.
555.7 -324.21 0.
524.312 -395.963 0.
-413.891 -856.336 0.
672.168 -215.613 0.
766.596 0.563482 0.
549.267 10.4784 0.
475.854 -162.752 0.
402.44 -335.981 0.
231.586 -494.055 0.
224.209 -506.189 0.
216.833 -518.323 0.
369.14 -310.147 0.
485.536 -40.3375 0.
601.933 229.473 0.
799.355 214.438 0.
729.72 48.9634 0.
706.396 -98.794 0.
610.401 -324.041 0.
514.407 -549.288 0.
331.77 -606.263 0.
556.357 -84.771 0.
780.945 436.722 0.
561.126 358.541 0.
411.687 6.45394 0.
262.248 -345.634 0.
234.16 -440.224 0.
219.795 -467.67 0.
-120.962 -636.898 0.
314.961 -428.587 0.
324.023 -403.785 0.
17.3115 -460.673 0.
157.549 -126.587 0.
297.788 207.496 0.
653.254 417.109 0.
546.586 165.861 0.
439.918 -85.3876 0.
-33.2787 -310.55 0.
5.7563 -219.74 0.
44.7914 -128.931 0.
-139.614 -33.2562 0.
-38.5004 199.61 0.
-38.8364 331.039 0.
-173.886 15.9819 0.
-308.934 -299.075 0.
137.788 -287.612 0.
118.398 -335.151 0.
99.0071 -382.688 0.
-152.908 -466.839 0.
-112.242 -369.526 0.
-71.5747 -272.213 0.
219.55 -204.718 0.
172.332 -313.865 0.
319.517 7.09233 0.
457.346 178.568 0.
557.419 409.973 0.
269.679 405.053 0.
200.022 243.26 0.
130.362 81.4688 0.
275.403 127.997 0.
346.16 291.936 0.
416.915 455.878 0.
268.629 215.63 0.
82.9221 -218.601 0.
-102.787 -652.833 0.
100.73 -425.192 0.
213.996 -156.926 0.
136.897 4.16372 0.
118.23 -40.3588 0.
99.5633 -84.8824 0.
249.494 -94.3957 0.
164.96 -288.014 0.
80.4247 -481.631 0.
267.576 -463.953 0.
277.423 -440.361 0.
287.271 -416.771 0.
236.643 -381.74 0.
272.525 -294.342 0.
121.951 -286.278 0.
599.249 134.67 0.
712.518 400.364 0.
535.303 459.35 0.
465.316 297.264 0.
395.329 135.179 0.
77.307 -117.682 0.
25.7111 -242.421 0.
-25.8858 -367.161 0.
501.275 -138.431 0.
531.721 -67.9392 0.
562.166 2.55368 0.
840.057 44.6995 0.
790.076 -72.8909 0.
306.875 -357.776 0.
351.044 -250.623 0.
395.213 -143.47 0.
218.355 -207.92 0.
131.985 -400.088 0.
45.6156 -592.255 0.
238.554 -543.265 0.
274.532 -455.65 0.
310.509 -368.037 0.
382.162 -363.829 0.
352.147 -436.302 0.
1275.66 -100.65 0.
464.272 -272.085 0.
558.356 -55.2359 0.
447.615 -1.41204 0.
374.307 -174.976 0.
300.998 -348.54 0.
219.899 -464.633 0.
214.253 -478.242 0.
208.608 -491.852 0.
539.995 -204.951 0.
657.305 65.3004 0.
774.616 335.553 0.
892.998 286.041 0.
824.289 120.442 0.
516.579 -149.108 0.
420.726 -374.148 0.
324.873 -599.187 0.
58.7658 -690.339 0.
284.09 -170.274 0.
509.416 349.794 0.
682.462 443.647 0.
533.084 90.6792 0.
383.705 -262.291 0.
196.176 -424.488 0.
182.87 -452.869 0.
-501.981 -767.454 0.
354.222 -380.053 0.
363.488 -354.923 0.
120.997 -383.007 0.
261.799 -49.3747 0.
402.602 284.256 0.
796.589 509.65 0.
690.555 258.085 0.
584.521 6.51868 0.
-35.2678 -278.737 0.
4.41251 -188.539 0.
44.0931 -98.3414 0.
95.8549 99.9596 0.
197.363 332.421 0.
-20.6511 372.713 0.
-154.61 57.3083 0.
-288.567 -258.096 0.
-38.1615 -335.041 0.
-57.747 -381.794 0.
-77.3322 -428.545 0.
-180.634 -446.188 0.
-139.393 -349.37 0.
-98.1504 -252.553 0.
335.117 -122.969 0.
287.937 -231.851 0.
-1093.9 -461.252 0.
254.84 -225.675 0.
315.566 -79.2009 0.
500.993 696.159 0.
102.357 -217.086 0.
411.598 521.326 0.
385.954 325.728 0.
24.9478 -503.579 0.
193.826 -97.2891 0.
-107.617 -145.264 0.
-220.485 -408.747 0.
-169.75 -290.7 0.
659.875 737.33 0.
676.212 768.862 0.
-67.0427 -375.237 0.
595.231 1166.48 0.
-229.086 -759.054 0.
60.8538 -631.121 0.
557.54 525.553 0.
346.694 30.8309 0.
598.211 -121.218 0.
674.923 45.6066 0.
589.638 -165.167 0.
127.154 33.1168 0.
-154.72 -628.125 0.
985.03 -79.653 0.
507.812 -277.751 0.
607.808 -39.9072 0.
250.437 15.6636 0.
767.079 1224.37 0.
573.869 778.5 0.
335.345 25.3282 0.
507.604 429.768 0.
118.921 -473.497 0.
281.59 310.873 0.
121.638 -59.3391 0.
376.539 538.456 0.
642.997 -553.443 0.
785.229 -225.107 0.
518.127 -253.58 0.
512.368 -264.565 0.
258.217 -855.14 0.
310.994 -131.816 0.
588.73 514.879 0.
274.139 -220.107 0.
305.455 -195.351 0.
147.061 -555.498 0.
-41.1223 -984.992 0.
184.009 -449.822 0.
486.806 250.954 0.
-1298.7 349.098 0.
360.689 -99.6389 0.
427.981 54.0259 0.
565.018 502.127 0.
486.081 314.729 0.
290.528 -145.166 0.
174.235 -525.686 0.
558.006 374.07 0.
496.2 234.624 0.
486.81 -610.086 0.
745.5 -4.40158 0.
1144.85 928.885 0.
686.812 -349.352 0.
832.383 -5.16675 0.
625.887 483.795 0.
567.386 347.605 0.
502.136 196.075 0.
325.435 467.321 0.
-112.571 -556.423 0.
7.56349 -277.373 0.
771.418 449.122 0.
285.385 -686.645 0.
351.324 -533.948 0.
-100.859 -1001.83 0.
358.686 71.4991 0.
1983.88 306.632 0.
667.583 311.399 0.
578.676 112.678 0.
161.845 -472.335 0.
730.064 859.944 0.
26.3211 -774.922 0.
815.859 319.463 0.
1115.29 1020.32 0.
918.281 562.851 0.
-300.419 -878.684 0.
-190.703 -631.486 0.
236.331 357.993 0.
237.023 30.1124 0.
195.647 -69.7001 0.
-166.045 34.1786 0.
-172.936 20.2223 0.
-349.676 -390.656 0.
-388.152 -809.202 0.
236.13 643.787 0.
-117.277 -184.535 0.
-138.639 -263.465 0.
-85.8107 -145.923 0.
-34.2587 -29.758 0.
681.759 573.163 0.
347.68 -209.438 0.
395.552 382.759 0.
275.824 176.162 0.
136.721 -146.277 0.
105.767 -352.395 0.
109.824 -336.832 0.
113.877 -321.267 0.
-67.3576 -341.038 0.
-6.95939 -196.931 0.
53.4335 -52.8206 0.
31.255 -2.98316 0.
40.111 21.439 0.
48.9669 45.8578 0.
387.327 195.471 0.
385.746 194.305 0.
412.966 218.452 0.
459.432 324.427 0.
505.896 430.401 0.
128.523 272.378 0.
49.7281 86.5389 0.
-29.0671 -99.2992 0.
302.067 -23.411 0.
303.038 -36.524 0.
304.009 -49.6362 0.
329.417 -29.9008 0.
345.837 4.30315 0.
1733.4 624.096 0.
549.632 -25.3686 0.
473.49 -203.482 0.
25.1927 -471.358 0.
107.601 -279.667 0.
190.009 -87.974 0.
646.521 207.977 0.
652.681 228.614 0.
658.84 249.251 0.
191.035 -85.4819 0.
88.1856 -327.367 0.
-14.6641 -569.251 0.
753.084 -72.4604 0.
856.773 172.018 0.
792.255 301.383 0.
720.816 133.529 0.
649.376 -34.3246 0.
136.317 -330.798 0.
163.718 -276.651 0.
191.119 -222.504 0.
311.337 -147.007 0.
312.299 -146.991 0.
313.261 -146.975 0.
10.8241 -80.6044 0.
138.128 216.554 0.
-578.013 153.426 0.
851.82 417.236 0.
669.844 -12.8331 0.
-64.4348 -557.819 0.
33.0438 -333.288 0.
130.523 -108.756 0.
310.303 22.8296 0.
255.782 -99.8709 0.
201.263 -222.571 0.
610.032 -68.4428 0.
614.156 -55.1448 0.
618.281 -41.8472 0.
573.979 -156.02 0.
514.205 -295.262 0.
437.788 -407.553 0.
573.582 -93.472 0.
709.376 220.608 0.
453.18 261.293 0.
419.778 184.312 0.
386.376 107.33 0.
719.135 267.617 0.
763.796 372.018 0.
808.458 476.418 0.
302.299 194.412 0.
241.003 54.3892 0.
311.159 -25.2082 0.
277.69 -43.8205 0.
278.444 -46.4063 0.
670.05 108.491 0.
646.444 51.43 0.
622.837 -5.63007 0.
588.274 27.3432 0.
678.233 243.756 0.
768.192 460.169 0.
421.802 300.212 0.
367.469 171.943 0.
313.135 43.6743 0.
187.023 9.10037 0.
209.532 59.124 0.
-201.912 -76.9562 0.
-177.74 -18.1794 0.
-153.566 40.5967 0.
-84.0996 108.557 0.
-72.6513 126.738 0.
-61.2026 144.918 0.
7.29272 139.14 0.
-23.2508 64.1807 0.
-53.793 -10.7794 0.
-5.08861 -45.7014 0.
-34.7115 -114.996 0.
2204.53 1194.44 0.
109.409 135.348 0.
-28.5696 -188.113 0.
190.069 -284.02 0.
196.441 -269.092 0.
202.81 -254.163 0.
-243.874 -380.148 0.
-179.705 -237.103 0.
-115.54 -94.0536 0.
136.374 72.98 0.
145.153 98.767 0.
153.932 124.55 0.
357.866 211.516 0.
354.367 212.244 0.
701.224 371.396 0.
748.146 477.49 0.
795.066 583.583 0.
-251.302 138.13 0.
-330.05 -47.8039 0.
-408.797 -233.736 0.
-95.4318 -158.692 0.
-92.8282 -172.433 0.
-90.2231 -186.174 0.
625.66 129.096 0.
641.709 163.902 0.
586.731 164.093 0.
490.684 -21.792 0.
413.749 -198.906 0.
26.9543 -439.046 0.
108.281 -247.64 0.
189.608 -56.2324 0.
940.913 364.055 0.
946.072 384.773 0.
951.231 405.491 0.
314.53 -0.807135 0.
211.75 -243.747 0.
108.969 -486.687 0.
649.048 -82.8347 0.
754.742 159.387 0.
855.18 359.049 0.
783.697 191.632 0.
712.214 24.2155 0.
49.2903 -336.641 0.
76.2167 -282.09 0.
103.144 -227.539 0.
314.157 -114.349 0.
315.832 -114.158 0.
317.506 -113.966 0.
-370.236 -208.193 0.
-241.26 87.5277 0.
-449.967 241.192 0.
1201.22 600.081 0.
1019.89 169.073 0.
-264.054 -611.849 0.
-165.898 -387.525 0.
-67.7402 -163.201 0.
214.674 15.2038 0.
161.216 -108.156 0.
107.759 -231.517 0.
493.053 -85.8678 0.
496.434 -71.6073 0.
499.815 -57.3471 0.
350.061 -222.917 0.
291.691 -362.442 0.
701.837 -261.466 0.
838.589 51.9535 0.
975.343 365.373 0.
727.007 413.683 0.
694.764 335.706 0.
662.521 257.728 0.
775.441 327.061 0.
820.263 431.177 0.
865.087 535.293 0.
182.191 171.725 0.
119.526 32.5726 0.
-225.632 -223.931 0.
-0.237196 -132.646 0.
-0.332469 -135.278 0.
1014.96 287.731 0.
991.508 230.67 0.
968.061 173.608 0.
476.283 9.6343 0.
566.379 226.648 0.
656.477 443.662 0.
701.94 450.455 0.
646.663 323.165 0.
591.384 195.876 0.
154.624 25.6207 0.
177.119 75.1773 0.
-175.512 -33.566 0.
-150.71 25.1325 0.
-125.908 83.8304 0.
-175.588 100.44 0.
-163.228 117.772 0.
-150.867 135.104 0.
-12.0841 164.91 0.
-42.0833 89.7542 0.
-72.0811 14.5978 0.
-502.347 -229.98 0.
-532.487 -297.748 0.
