# vtk DataFile Version 2.0
test grain
ASCII
DATASET UNSTRUCTURED_GRID
POINTS 5000 float
0.499958 0.00100069 0.
0.501959 0.00100068 0.
0.503959 0.00100073 0.
0.50596 0.00100075 0.
0.507961 0.00100066 0.
0.509962 0.00100057 0.
0.511963 0.00100046 0.
0.513964 0.00100032 0.
0.515965 0.00100017 0.
0.517965 0.00100022 0.
0.519966 0.00100037 0.
0.521967 0.00100052 0.
0.523967 0.00100044 0.
0.525968 0.00100033 0.
0.527968 0.00100024 0.
0.529969 0.00100034 0.
0.53197 0.00100044 0.
0.53397 0.00100044 0.
0.535972 0.00100022 0.
0.537973 0.000999998 0.
0.539974 0.000999999 0.
0.541975 0.00100018 0.
0.543977 0.00100037 0.
0.545977 0.00100045 0.
0.547978 0.0010005 0.
0.549978 0.00100055 0.
0.551978 0.00100064 0.
0.553978 0.00100073 0.
0.555978 0.00100075 0.
0.557979 0.00100052 0.
0.55998 0.00100028 0.
0.561981 0.00100018 0.
0.563982 0.00100027 0.
0.565983 0.00100036 0.
0.567984 0.00100031 0.
0.569985 0.00100017 0.
0.571986 0.00100004 0.
0.573986 0.00100003 0.
0.575987 0.00100004 0.
0.577987 0.00100005 0.
0.579987 0.00100005 0.
0.581988 0.00100004 0.
0.583988 0.00100007 0.
0.585989 0.00100019 0.
0.58799 0.00100031 0.
0.589991 0.00100029 0.
0.591991 0.00100014 0.
0.593991 0.001 0.
0.595994 0.00100001 0.
0.597997 0.00100007 0.
0.6 0.00100012 0.
0.602004 0.00100008 0.
0.604007 0.00100003 0.
0.606009 0.001 0.
0.60801 0.00100003 0.
0.61001 0.00100005 0.
0.612011 0.00100006 0.
0.614011 0.00100005 0.
0.616011 0.00100004 0.
0.618012 0.00100014 0.
0.620013 0.00100028 0.
0.622014 0.00100043 0.
0.624015 0.00100037 0.
0.626015 0.0010003 0.
0.628016 0.00100022 0.
0.630016 0.00100013 0.
0.632017 0.00100004 0.
0.634018 0.001 0.
0.636019 0.00100007 0.
0.63802 0.00100014 0.
0.640021 0.00100014 0.
0.642022 0.0010001 0.
0.644023 0.00100006 0.
0.646023 0.00100029 0.
0.648023 0.00100059 0.
0.650023 0.00100088 0.
0.652024 0.00100058 0.
0.654024 0.00100027 0.
0.656025 0.00100004 0.
0.658026 0.00100006 0.
0.660027 0.00100008 0.
0.662028 0.00100008 0.
0.664028 0.00100007 0.
0.666029 0.00100005 0.
0.66803 0.00100017 0.
0.670031 0.00100034 0.
0.672033 0.00100051 0.
0.674033 0.00100041 0.
0.676033 0.00100028 0.
0.678034 0.00100018 0.
0.680035 0.00100032 0.
0.682036 0.00100047 0.
0.684036 0.00100051 0.
0.686036 0.00100038 0.
0.688037 0.00100026 0.
0.690038 0.00100023 0.
0.69204 0.00100028 0.
0.694042 0.00100033 0.
0.696042 0.00100042 0.
0.698043 0.00100053 0.
0.499958 0.00300205 0.
0.501959 0.00300205 0.
0.503959 0.00300219 0.
0.50596 0.00300225 0.
0.507961 0.00300199 0.
0.509962 0.00300172 0.
0.511963 0.00300139 0.
0.513964 0.00300095 0.
0.515965 0.00300052 0.
0.517966 0.00300065 0.
0.519967 0.0030011 0.
0.521968 0.00300155 0.
0.523968 0.00300132 0.
0.525968 0.003001 0.
0.527969 0.00300073 0.
0.52997 0.00300103 0.
0.531971 0.00300132 0.
0.533972 0.00300131 0.
0.535973 0.00300065 0.
0.537974 0.003 0.
0.539975 0.003 0.
0.541976 0.00300055 0.
0.543977 0.00300111 0.
0.545978 0.00300135 0.
0.547978 0.0030015 0.
0.549978 0.00300164 0.
0.551978 0.00300191 0.
0.553979 0.00300219 0.
0.555979 0.00300226 0.
0.557979 0.00300155 0.
0.559979 0.00300083 0.
0.56198 0.00300055 0.
0.563981 0.00300082 0.
0.565982 0.00300109 0.
0.567983 0.00300092 0.
0.569985 0.00300052 0.
0.571986 0.00300011 0.
0.573986 0.0030001 0.
0.575987 0.00300013 0.
0.577988 0.00300016 0.
0.579988 0.00300013 0.
0.581989 0.00300011 0.
0.58399 0.00300022 0.
0.58599 0.00300057 0.
0.587991 0.00300093 0.
0.589991 0.00300085 0.
0.591992 0.00300043 0.
0.593992 0.003 0.
0.595995 0.00300004 0.
0.597997 0.0030002 0.
0.6 0.00300036 0.
0.602003 0.00300023 0.
0.604005 0.0030001 0.
0.606007 0.00300001 0.
0.608008 0.00300008 0.
0.610009 0.00300015 0.
0.61201 0.00300018 0.
0.614011 0.00300015 0.
0.616011 0.00300013 0.
0.618012 0.00300041 0.
0.620013 0.00300085 0.
0.622014 0.00300129 0.
0.624015 0.00300112 0.
0.626015 0.00300089 0.
0.628016 0.00300065 0.
0.630017 0.00300039 0.
0.632018 0.00300012 0.
0.634019 0.00300001 0.
0.63602 0.00300021 0.
0.638021 0.00300041 0.
0.640022 0.00300043 0.
0.642023 0.00300031 0.
0.644024 0.00300018 0.
0.646024 0.00300087 0.
0.648024 0.00300177 0.
0.650023 0.00300265 0.
0.652024 0.00300173 0.
0.654024 0.00300081 0.
0.656024 0.00300012 0.
0.658025 0.00300017 0.
0.660027 0.00300023 0.
0.662028 0.00300024 0.
0.664028 0.0030002 0.
0.666029 0.00300017 0.
0.66803 0.0030005 0.
0.670031 0.00300101 0.
0.672031 0.00300152 0.
0.674032 0.00300121 0.
0.676032 0.00300083 0.
0.678033 0.00300055 0.
0.680034 0.00300097 0.
0.682035 0.0030014 0.
0.684036 0.00300154 0.
0.686036 0.00300115 0.
0.688037 0.00300077 0.
0.690038 0.00300069 0.
0.692039 0.00300084 0.
0.69404 0.00300099 0.
0.696041 0.00300127 0.
0.698042 0.00300158 0.
0.499958 0.00500341 0.
0.501959 0.00500342 0.
0.503959 0.00500364 0.
0.50596 0.00500374 0.
0.507961 0.00500331 0.
0.509962 0.00500287 0.
0.511963 0.00500231 0.
0.513964 0.00500158 0.
0.515965 0.00500086 0.
0.517966 0.00500109 0.
0.519967 0.00500184 0.
0.521969 0.00500258 0.
0.523969 0.0050022 0.
0.525969 0.00500166 0.
0.527969 0.00500121 0.
0.52997 0.00500171 0.
0.531972 0.00500221 0.
0.533973 0.00500219 0.
0.535974 0.00500109 0.
0.537975 0.00499999 0.
0.539976 0.00499999 0.
0.541977 0.00500092 0.
0.543978 0.00500185 0.
0.545978 0.00500225 0.
0.547978 0.00500249 0.
0.549979 0.00500273 0.
0.551979 0.00500319 0.
0.553979 0.00500364 0.
0.555979 0.00500376 0.
0.557979 0.00500257 0.
0.559979 0.00500139 0.
0.56198 0.00500092 0.
0.563981 0.00500136 0.
0.565981 0.00500181 0.
0.567983 0.00500152 0.
0.569984 0.00500086 0.
0.571985 0.00500019 0.
0.573986 0.00500016 0.
0.575987 0.00500021 0.
0.577988 0.00500026 0.
0.579989 0.00500022 0.
0.58199 0.00500019 0.
0.583991 0.00500036 0.
0.585991 0.00500096 0.
0.587991 0.00500155 0.
0.589991 0.00500142 0.
0.591992 0.00500071 0.
0.593993 0.005 0.
0.595995 0.00500006 0.
0.597998 0.00500033 0.
0.6 0.0050006 0.
0.602002 0.00500038 0.
0.604003 0.00500016 0.
0.606005 0.00500002 0.
0.608006 0.00500014 0.
0.610008 0.00500025 0.
0.612009 0.00500029 0.
0.61401 0.00500026 0.
0.616011 0.00500022 0.
0.618012 0.00500069 0.
0.620014 0.00500142 0.
0.622015 0.00500215 0.
0.624015 0.00500187 0.
0.626015 0.00500148 0.
0.628015 0.00500108 0.
0.630017 0.00500064 0.
0.632019 0.0050002 0.
0.63402 0.00500002 0.
0.636021 0.00500035 0.
0.638022 0.00500068 0.
0.640023 0.00500071 0.
0.642023 0.00500051 0.
0.644024 0.0050003 0.
0.646024 0.00500145 0.
0.648024 0.00500295 0.
0.650024 0.00500442 0.
0.652024 0.00500288 0.
0.654024 0.00500134 0.
0.656024 0.00500019 0.
0.658025 0.00500029 0.
0.660026 0.00500038 0.
0.662027 0.0050004 0.
0.664028 0.00500034 0.
0.66603 0.00500028 0.
0.66803 0.00500084 0.
0.67003 0.00500169 0.
0.67203 0.00500253 0.
0.674031 0.00500202 0.
0.676031 0.00500138 0.
0.678032 0.00500092 0.
0.680033 0.00500162 0.
0.682034 0.00500233 0.
0.684035 0.00500257 0.
0.686036 0.00500192 0.
0.688037 0.00500128 0.
0.690038 0.00500115 0.
0.692038 0.0050014 0.
0.694039 0.00500165 0.
0.69604 0.00500212 0.
0.698041 0.00500264 0.
0.499958 0.00700533 0.
0.501959 0.0070053 0.
0.503959 0.00700544 0.
0.50596 0.00700555 0.
0.507961 0.00700554 0.
0.509962 0.00700554 0.
0.511964 0.00700539 0.
0.513964 0.00700504 0.
0.515965 0.0070047 0.
0.517966 0.00700485 0.
0.519967 0.00700525 0.
0.521968 0.00700565 0.
0.523969 0.00700568 0.
0.525969 0.00700566 0.
0.52797 0.00700565 0.
0.529971 0.00700582 0.
0.531972 0.00700599 0.
0.533973 0.00700598 0.
0.535974 0.00700558 0.
0.537975 0.00700519 0.
0.539975 0.00700528 0.
0.541976 0.00700577 0.
0.543977 0.00700626 0.
0.545978 0.00700649 0.
0.547978 0.00700664 0.
0.549979 0.00700679 0.
0.551979 0.0070071 0.
0.55398 0.00700742 0.
0.55598 0.00700757 0.
0.55798 0.00700709 0.
0.55998 0.0070066 0.
0.56198 0.00700629 0.
0.563981 0.00700619 0.
0.565982 0.0070061 0.
0.567983 0.00700607 0.
0.569984 0.00700608 0.
0.571985 0.00700609 0.
0.573986 0.0070059 0.
0.575987 0.00700569 0.
0.577988 0.00700547 0.
0.579989 0.00700514 0.
0.58199 0.00700481 0.
0.583991 0.00700466 0.
0.585991 0.00700485 0.
0.587991 0.00700503 0.
0.589992 0.007005 0.
0.591993 0.00700481 0.
0.593994 0.00700461 0.
0.595996 0.00700485 0.
0.597998 0.00700521 0.
0.6 0.00700556 0.
0.602002 0.00700514 0.
0.604003 0.00700472 0.
0.606005 0.00700439 0.
0.608006 0.00700438 0.
0.610007 0.00700436 0.
0.612009 0.00700444 0.
0.61401 0.00700463 0.
0.616011 0.00700482 0.
0.618012 0.00700505 0.
0.620013 0.00700531 0.
0.622014 0.00700557 0.
0.624014 0.00700559 0.
0.626015 0.00700559 0.
0.628016 0.00700557 0.
0.630018 0.00700543 0.
0.632019 0.0070053 0.
0.63402 0.00700525 0.
0.636021 0.00700538 0.
0.638022 0.00700551 0.
0.640022 0.00700561 0.
0.642023 0.00700569 0.
0.644023 0.00700576 0.
0.646023 0.00700641 0.
0.648024 0.00700721 0.
0.650024 0.00700799 0.
0.652024 0.00700718 0.
0.654024 0.00700637 0.
0.656024 0.00700572 0.
0.658025 0.00700561 0.
0.660026 0.00700551 0.
0.662027 0.00700541 0.
0.664028 0.00700534 0.
0.666029 0.00700527 0.
0.668029 0.00700551 0.
0.67003 0.00700588 0.
0.67203 0.00700625 0.
0.674031 0.00700567 0.
0.676031 0.00700499 0.
0.678032 0.00700441 0.
0.680033 0.00700451 0.
0.682034 0.00700462 0.
0.684035 0.00700453 0.
0.686036 0.00700407 0.
0.688036 0.00700361 0.
0.690037 0.00700344 0.
0.692038 0.0070035 0.
0.694039 0.00700356 0.
0.69604 0.00700429 0.
0.698041 0.0070052 0.
0.499957 0.00900727 0.
0.501958 0.00900718 0.
0.503959 0.00900723 0.
0.50596 0.00900735 0.
0.507962 0.00900778 0.
0.509963 0.0090082 0.
0.511964 0.00900846 0.
0.513965 0.00900851 0.
0.515966 0.00900855 0.
0.517966 0.0090086 0.
0.519967 0.00900866 0.
0.521967 0.00900871 0.
0.523969 0.00900916 0.
0.52597 0.00900966 0.
0.527971 0.00901009 0.
0.529972 0.00900993 0.
0.531973 0.00900977 0.
0.533973 0.00900976 0.
0.535974 0.00901008 0.
0.537974 0.00901039 0.
0.539975 0.00901057 0.
0.541976 0.00901062 0.
0.543977 0.00901067 0.
0.545977 0.00901073 0.
0.547978 0.00901079 0.
0.549978 0.00901085 0.
0.551979 0.00901102 0.
0.55398 0.0090112 0.
0.555981 0.00901139 0.
0.55798 0.0090116 0.
0.55998 0.00901182 0.
0.56198 0.00901166 0.
0.563981 0.00901102 0.
0.565982 0.00901039 0.
0.567983 0.00901061 0.
0.569983 0.0090113 0.
0.571984 0.00901198 0.
0.573986 0.00901165 0.
0.575987 0.00901117 0.
0.577988 0.00901068 0.
0.579989 0.00901006 0.
0.58199 0.00900944 0.
0.583991 0.00900895 0.
0.585991 0.00900873 0.
0.587992 0.00900851 0.
0.589993 0.00900858 0.
0.591994 0.0090089 0.
0.593995 0.00900921 0.
0.595997 0.00900964 0.
0.597999 0.00901008 0.
0.6 0.00901052 0.
0.602002 0.0090099 0.
0.604003 0.00900928 0.
0.606005 0.00900876 0.
0.608006 0.00900862 0.
0.610007 0.00900848 0.
0.612008 0.00900859 0.
0.61401 0.009009 0.
0.616011 0.00900942 0.
0.618011 0.0090094 0.
0.620012 0.0090092 0.
0.622013 0.00900899 0.
0.624014 0.00900932 0.
0.626016 0.0090097 0.
0.628017 0.00901005 0.
0.630018 0.00901022 0.
0.632019 0.0090104 0.
0.63402 0.00901048 0.
0.636021 0.00901041 0.
0.638021 0.00901034 0.
0.640022 0.00901052 0.
0.642022 0.00901087 0.
0.644023 0.00901122 0.
0.646023 0.00901137 0.
0.648023 0.00901147 0.
0.650023 0.00901157 0.
0.652024 0.00901148 0.
0.654024 0.0090114 0.
0.656025 0.00901125 0.
0.658025 0.00901094 0.
0.660025 0.00901063 0.
0.662026 0.00901042 0.
0.664027 0.00901035 0.
0.666028 0.00901027 0.
0.668029 0.00901018 0.
0.670029 0.00901008 0.
0.67203 0.00900997 0.
0.674031 0.00900932 0.
0.676031 0.00900861 0.
0.678032 0.00900791 0.
0.680033 0.0090074 0.
0.682034 0.0090069 0.
0.684035 0.00900649 0.
0.686035 0.00900622 0.
0.688036 0.00900595 0.
0.690036 0.00900574 0.
0.692037 0.0090056 0.
0.694038 0.00900547 0.
0.69604 0.00900646 0.
0.698041 0.00900776 0.
0.499957 0.0110088 0.
0.501958 0.0110086 0.
0.50396 0.0110085 0.
0.505961 0.0110086 0.
0.507962 0.0110093 0.
0.509964 0.0110099 0.
0.511965 0.0110103 0.
0.513965 0.0110105 0.
0.515966 0.0110107 0.
0.517966 0.0110108 0.
0.519967 0.0110108 0.
0.521967 0.0110107 0.
0.523968 0.0110113 0.
0.52597 0.0110119 0.
0.527972 0.0110124 0.
0.529972 0.0110122 0.
0.531972 0.011012 0.
0.533973 0.0110121 0.
0.535973 0.0110127 0.
0.537974 0.0110133 0.
0.539975 0.0110135 0.
0.541976 0.0110132 0.
0.543976 0.0110129 0.
0.545977 0.011013 0.
0.547978 0.0110131 0.
0.549978 0.0110133 0.
0.551979 0.0110134 0.
0.55398 0.0110136 0.
0.555981 0.0110137 0.
0.55798 0.0110141 0.
0.55998 0.0110145 0.
0.561981 0.0110144 0.
0.563981 0.0110138 0.
0.565982 0.0110131 0.
0.567983 0.0110133 0.
0.569984 0.0110139 0.
0.571984 0.0110146 0.
0.573986 0.0110142 0.
0.575987 0.0110137 0.
0.577988 0.0110131 0.
0.579989 0.0110124 0.
0.58199 0.0110118 0.
0.583991 0.0110112 0.
0.585992 0.0110108 0.
0.587992 0.0110104 0.
0.589993 0.0110104 0.
0.591995 0.0110107 0.
0.593996 0.011011 0.
0.595998 0.0110115 0.
0.597999 0.0110121 0.
0.600001 0.0110127 0.
0.602002 0.0110121 0.
0.604004 0.0110114 0.
0.606005 0.0110108 0.
0.608006 0.0110105 0.
0.610007 0.0110102 0.
0.612008 0.0110103 0.
0.614009 0.011011 0.
0.61601 0.0110117 0.
0.618011 0.0110117 0.
0.620012 0.0110114 0.
0.622012 0.011011 0.
0.624014 0.0110114 0.
0.626016 0.0110118 0.
0.628017 0.0110122 0.
0.630018 0.0110127 0.
0.632019 0.0110131 0.
0.63402 0.0110134 0.
0.63602 0.0110133 0.
0.638021 0.0110131 0.
0.640022 0.0110133 0.
0.642022 0.0110138 0.
0.644022 0.0110142 0.
0.646023 0.0110141 0.
0.648023 0.0110138 0.
0.650023 0.0110135 0.
0.652024 0.0110138 0.
0.654025 0.0110141 0.
0.656025 0.0110143 0.
0.658025 0.0110139 0.
0.660026 0.0110136 0.
0.662026 0.0110133 0.
0.664027 0.011013 0.
0.666027 0.0110128 0.
0.668028 0.0110125 0.
0.670029 0.0110121 0.
0.67203 0.0110118 0.
0.674031 0.0110113 0.
0.676032 0.0110107 0.
0.678032 0.01101 0.
0.680033 0.0110093 0.
0.682034 0.0110085 0.
0.684034 0.0110079 0.
0.686035 0.0110076 0.
0.688035 0.0110073 0.
0.690036 0.0110071 0.
0.692037 0.0110069 0.
0.694038 0.0110066 0.
0.696039 0.0110076 0.
0.698041 0.0110089 0.
0.499958 0.0130098 0.
0.501959 0.0130096 0.
0.50396 0.0130094 0.
0.505961 0.0130093 0.
0.507962 0.01301 0.
0.509963 0.0130106 0.
0.511965 0.013011 0.
0.513965 0.0130111 0.
0.515966 0.0130113 0.
0.517967 0.0130114 0.
0.519967 0.0130115 0.
0.521967 0.0130117 0.
0.523968 0.013012 0.
0.525969 0.0130123 0.
0.52797 0.0130126 0.
0.529971 0.0130127 0.
0.531971 0.0130128 0.
0.533972 0.013013 0.
0.535973 0.0130135 0.
0.537974 0.013014 0.
0.539974 0.013014 0.
0.541975 0.0130135 0.
0.543976 0.0130129 0.
0.545976 0.0130132 0.
0.547977 0.0130137 0.
0.549978 0.0130141 0.
0.551979 0.0130143 0.
0.553979 0.0130145 0.
0.55598 0.0130146 0.
0.55798 0.0130147 0.
0.55998 0.0130147 0.
0.561981 0.0130146 0.
0.563982 0.0130144 0.
0.565982 0.0130141 0.
0.567983 0.013014 0.
0.569984 0.013014 0.
0.571985 0.0130139 0.
0.573986 0.0130136 0.
0.575987 0.0130133 0.
0.577988 0.0130129 0.
0.579989 0.0130123 0.
0.58199 0.0130118 0.
0.583991 0.0130113 0.
0.585992 0.013011 0.
0.587993 0.0130107 0.
0.589994 0.0130105 0.
0.591995 0.0130102 0.
0.593996 0.0130099 0.
0.595998 0.0130105 0.
0.598 0.0130114 0.
0.600002 0.0130122 0.
0.602003 0.0130116 0.
0.604004 0.0130111 0.
0.606005 0.0130105 0.
0.608006 0.01301 0.
0.610007 0.0130095 0.
0.612008 0.0130097 0.
0.614009 0.0130107 0.
0.61601 0.0130117 0.
0.618011 0.0130119 0.
0.620012 0.0130118 0.
0.622013 0.0130116 0.
0.624014 0.0130117 0.
0.626016 0.0130118 0.
0.628017 0.0130119 0.
0.630018 0.0130127 0.
0.632019 0.0130135 0.
0.634019 0.013014 0.
0.63602 0.0130139 0.
0.638021 0.0130138 0.
0.640021 0.013014 0.
0.642022 0.0130144 0.
0.644022 0.0130147 0.
0.646022 0.0130145 0.
0.648023 0.0130141 0.
0.650023 0.0130138 0.
0.652024 0.0130142 0.
0.654025 0.0130146 0.
0.656026 0.0130148 0.
0.658026 0.0130146 0.
0.660026 0.0130145 0.
0.662027 0.0130141 0.
0.664027 0.0130135 0.
0.666027 0.0130128 0.
0.668028 0.0130124 0.
0.670029 0.0130121 0.
0.672031 0.0130118 0.
0.674031 0.0130115 0.
0.676032 0.0130112 0.
0.678033 0.0130108 0.
0.680033 0.0130101 0.
0.682033 0.0130094 0.
0.684034 0.0130088 0.
0.686035 0.0130083 0.
0.688035 0.0130078 0.
0.690036 0.0130075 0.
0.692037 0.0130073 0.
0.694038 0.0130071 0.
0.696038 0.0130078 0.
0.698039 0.0130086 0.
0.499959 0.0150108 0.
0.50196 0.0150105 0.
0.503961 0.0150102 0.
0.505961 0.01501 0.
0.507962 0.0150107 0.
0.509963 0.0150113 0.
0.511964 0.0150117 0.
0.513966 0.0150117 0.
0.515967 0.0150118 0.
0.517967 0.015012 0.
0.519967 0.0150123 0.
0.521967 0.0150126 0.
0.523968 0.0150127 0.
0.525969 0.0150128 0.
0.527969 0.0150128 0.
0.52997 0.0150132 0.
0.53197 0.0150135 0.
0.533971 0.0150138 0.
0.535972 0.0150143 0.
0.537973 0.0150147 0.
0.539974 0.0150145 0.
0.541974 0.0150138 0.
0.543975 0.015013 0.
0.545976 0.0150134 0.
0.547977 0.0150142 0.
0.549978 0.015015 0.
0.551978 0.0150152 0.
0.553978 0.0150154 0.
0.555979 0.0150155 0.
0.55798 0.0150152 0.
0.55998 0.0150149 0.
0.561981 0.0150149 0.
0.563982 0.015015 0.
0.565983 0.0150152 0.
0.567983 0.0150148 0.
0.569984 0.015014 0.
0.571985 0.0150133 0.
0.573986 0.015013 0.
0.575987 0.0150128 0.
0.577988 0.0150126 0.
0.579989 0.0150122 0.
0.58199 0.0150118 0.
0.583992 0.0150114 0.
0.585993 0.0150112 0.
0.587994 0.0150111 0.
0.589995 0.0150105 0.
0.591996 0.0150097 0.
0.593997 0.0150089 0.
0.595999 0.0150096 0.
0.598001 0.0150106 0.
0.600003 0.0150117 0.
0.602003 0.0150112 0.
0.604004 0.0150107 0.
0.606004 0.0150102 0.
0.608006 0.0150095 0.
0.610007 0.0150088 0.
0.612008 0.0150091 0.
0.614009 0.0150104 0.
0.61601 0.0150117 0.
0.618012 0.0150121 0.
0.620013 0.0150122 0.
0.622014 0.0150123 0.
0.624015 0.015012 0.
0.626015 0.0150118 0.
0.628016 0.0150117 0.
0.630017 0.0150128 0.
0.632018 0.0150139 0.
0.634019 0.0150146 0.
0.63602 0.0150146 0.
0.63802 0.0150145 0.
0.640021 0.0150147 0.
0.642021 0.015015 0.
0.644021 0.0150153 0.
0.646022 0.015015 0.
0.648022 0.0150145 0.
0.650023 0.0150141 0.
0.652024 0.0150146 0.
0.654025 0.0150151 0.
0.656026 0.0150154 0.
0.658027 0.0150153 0.
0.660027 0.0150153 0.
0.662028 0.0150148 0.
0.664027 0.0150139 0.
0.666027 0.0150129 0.
0.668028 0.0150123 0.
0.67003 0.0150121 0.
0.672031 0.0150118 0.
0.674032 0.0150117 0.
0.676032 0.0150116 0.
0.678033 0.0150115 0.
0.680033 0.0150109 0.
0.682033 0.0150103 0.
0.684033 0.0150096 0.
0.686034 0.015009 0.
0.688035 0.0150083 0.
0.690036 0.0150079 0.
0.692037 0.0150077 0.
0.694037 0.0150075 0.
0.696038 0.0150079 0.
0.698038 0.0150084 0.
0.49996 0.0170122 0.
0.50196 0.017012 0.
0.503961 0.0170117 0.
0.505962 0.0170116 0.
0.507963 0.0170122 0.
0.509963 0.0170128 0.
0.511964 0.0170132 0.
0.513965 0.0170131 0.
0.515966 0.0170131 0.
0.517967 0.0170132 0.
0.519967 0.0170134 0.
0.521968 0.0170136 0.
0.523968 0.0170138 0.
0.525969 0.0170139 0.
0.527969 0.0170141 0.
0.52997 0.0170144 0.
0.53197 0.0170148 0.
0.533971 0.0170151 0.
0.535972 0.0170152 0.
0.537973 0.0170154 0.
0.539974 0.0170152 0.
0.541974 0.0170146 0.
0.543975 0.017014 0.
0.545976 0.0170142 0.
0.547977 0.0170146 0.
0.549978 0.0170151 0.
0.551978 0.0170154 0.
0.553979 0.0170157 0.
0.555979 0.0170159 0.
0.55798 0.0170156 0.
0.55998 0.0170154 0.
0.561981 0.0170154 0.
0.563982 0.0170155 0.
0.565983 0.0170157 0.
0.567984 0.0170155 0.
0.569985 0.0170151 0.
0.571986 0.0170147 0.
0.573987 0.017014 0.
0.575988 0.0170133 0.
0.577989 0.0170126 0.
0.57999 0.0170123 0.
0.581991 0.017012 0.
0.583992 0.0170116 0.
0.585993 0.0170112 0.
0.587994 0.0170108 0.
0.589995 0.0170104 0.
0.591996 0.0170102 0.
0.593997 0.0170099 0.
0.595999 0.0170103 0.
0.598 0.017011 0.
0.600002 0.0170116 0.
0.602003 0.0170112 0.
0.604004 0.0170107 0.
0.606005 0.0170103 0.
0.608006 0.0170099 0.
0.610007 0.0170095 0.
0.612008 0.0170097 0.
0.614009 0.0170105 0.
0.61601 0.0170114 0.
0.618011 0.0170118 0.
0.620012 0.017012 0.
0.622014 0.0170122 0.
0.624014 0.0170123 0.
0.626015 0.0170123 0.
0.628016 0.0170124 0.
0.630017 0.0170132 0.
0.632017 0.017014 0.
0.634018 0.0170146 0.
0.636019 0.017015 0.
0.638019 0.0170153 0.
0.64002 0.0170155 0.
0.642021 0.0170155 0.
0.644022 0.0170155 0.
0.646022 0.0170154 0.
0.648022 0.0170152 0.
0.650023 0.017015 0.
0.652024 0.0170152 0.
0.654025 0.0170154 0.
0.656026 0.0170155 0.
0.658026 0.0170155 0.
0.660027 0.0170156 0.
0.662027 0.0170153 0.
0.664028 0.0170148 0.
0.666028 0.0170143 0.
0.668028 0.0170139 0.
0.670029 0.0170136 0.
0.672031 0.0170134 0.
0.674031 0.0170131 0.
0.676032 0.0170129 0.
0.678033 0.0170126 0.
0.680033 0.0170118 0.
0.682033 0.0170111 0.
0.684034 0.0170103 0.
0.686035 0.0170097 0.
0.688035 0.0170091 0.
0.690036 0.0170088 0.
0.692037 0.0170086 0.
0.694038 0.0170085 0.
0.696038 0.0170088 0.
0.698039 0.0170092 0.
0.49996 0.0190136 0.
0.501961 0.0190135 0.
0.503962 0.0190133 0.
0.505962 0.0190132 0.
0.507963 0.0190138 0.
0.509963 0.0190144 0.
0.511964 0.0190146 0.
0.513965 0.0190145 0.
0.515965 0.0190143 0.
0.517966 0.0190143 0.
0.519967 0.0190145 0.
0.521968 0.0190147 0.
0.523968 0.0190149 0.
0.525968 0.0190151 0.
0.527969 0.0190153 0.
0.52997 0.0190157 0.
0.531971 0.0190161 0.
0.533971 0.0190163 0.
0.535972 0.0190162 0.
0.537972 0.019016 0.
0.539973 0.0190158 0.
0.541974 0.0190154 0.
0.543976 0.019015 0.
0.545976 0.019015 0.
0.547977 0.0190151 0.
0.549978 0.0190152 0.
0.551978 0.0190156 0.
0.553979 0.019016 0.
0.555979 0.0190163 0.
0.55798 0.0190161 0.
0.559981 0.0190159 0.
0.561982 0.0190159 0.
0.563983 0.0190161 0.
0.565984 0.0190163 0.
0.567985 0.0190163 0.
0.569986 0.0190162 0.
0.571986 0.0190161 0.
0.573987 0.0190151 0.
0.575989 0.0190138 0.
0.57799 0.0190127 0.
0.57999 0.0190124 0.
0.581991 0.0190122 0.
0.583992 0.0190118 0.
0.585993 0.0190111 0.
0.587995 0.0190105 0.
0.589996 0.0190103 0.
0.591996 0.0190106 0.
0.593997 0.0190109 0.
0.595998 0.0190111 0.
0.598 0.0190113 0.
0.600001 0.0190115 0.
0.602003 0.0190111 0.
0.604004 0.0190108 0.
0.606005 0.0190105 0.
0.608006 0.0190103 0.
0.610007 0.0190102 0.
0.612007 0.0190103 0.
0.614009 0.0190107 0.
0.61601 0.0190111 0.
0.618011 0.0190115 0.
0.620012 0.0190118 0.
0.622013 0.0190122 0.
0.624014 0.0190125 0.
0.626014 0.0190128 0.
0.628015 0.0190131 0.
0.630016 0.0190136 0.
0.632017 0.0190141 0.
0.634017 0.0190146 0.
0.636018 0.0190153 0.
0.638019 0.019016 0.
0.640019 0.0190162 0.
0.642021 0.019016 0.
0.644022 0.0190158 0.
0.646022 0.0190158 0.
0.648022 0.0190158 0.
0.650023 0.0190159 0.
0.652023 0.0190158 0.
0.654024 0.0190157 0.
0.656025 0.0190156 0.
0.658026 0.0190157 0.
0.660027 0.0190158 0.
0.662027 0.0190158 0.
0.664028 0.0190158 0.
0.666028 0.0190157 0.
0.668029 0.0190155 0.
0.670029 0.0190152 0.
0.67203 0.0190149 0.
0.674031 0.0190146 0.
0.676032 0.0190142 0.
0.678032 0.0190137 0.
0.680033 0.0190128 0.
0.682034 0.0190118 0.
0.684035 0.019011 0.
0.686035 0.0190105 0.
0.688036 0.01901 0.
0.690036 0.0190097 0.
0.692037 0.0190096 0.
0.694038 0.0190094 0.
0.696039 0.0190097 0.
0.698039 0.01901 0.
0.499961 0.0210148 0.
0.501961 0.0210148 0.
0.503962 0.0210147 0.
0.505962 0.0210147 0.
0.507963 0.0210151 0.
0.509963 0.0210155 0.
0.511964 0.0210156 0.
0.513964 0.0210154 0.
0.515965 0.0210152 0.
0.517966 0.0210152 0.
0.519967 0.0210153 0.
0.521968 0.0210153 0.
0.523968 0.0210155 0.
0.525968 0.0210158 0.
0.527969 0.021016 0.
0.52997 0.0210164 0.
0.531971 0.0210168 0.
0.533972 0.0210171 0.
0.535972 0.0210168 0.
0.537973 0.0210166 0.
0.539973 0.0210163 0.
0.541975 0.0210161 0.
0.543976 0.0210158 0.
0.545977 0.0210158 0.
0.547977 0.0210158 0.
0.549978 0.0210158 0.
0.551978 0.0210161 0.
0.553979 0.0210163 0.
0.555979 0.0210164 0.
0.55798 0.0210162 0.
0.559981 0.021016 0.
0.561982 0.0210161 0.
0.563983 0.0210163 0.
0.565984 0.0210166 0.
0.567985 0.0210167 0.
0.569986 0.0210167 0.
0.571987 0.0210167 0.
0.573988 0.0210155 0.
0.575989 0.021014 0.
0.57799 0.0210127 0.
0.579991 0.0210125 0.
0.581991 0.0210123 0.
0.583992 0.0210119 0.
0.585993 0.0210112 0.
0.587995 0.0210104 0.
0.589996 0.0210104 0.
0.591996 0.0210109 0.
0.593997 0.0210115 0.
0.595998 0.0210115 0.
0.597999 0.0210113 0.
0.600001 0.0210112 0.
0.602002 0.0210112 0.
0.604004 0.0210111 0.
0.606006 0.021011 0.
0.608006 0.0210108 0.
0.610007 0.0210106 0.
0.612007 0.0210105 0.
0.614008 0.0210108 0.
0.616009 0.021011 0.
0.61801 0.0210113 0.
0.620011 0.0210117 0.
0.622012 0.021012 0.
0.624013 0.0210126 0.
0.626014 0.0210132 0.
0.628015 0.0210137 0.
0.630016 0.0210141 0.
0.632017 0.0210145 0.
0.634017 0.021015 0.
0.636018 0.0210157 0.
0.638018 0.0210165 0.
0.640019 0.0210167 0.
0.64202 0.0210164 0.
0.644022 0.0210162 0.
0.646022 0.0210163 0.
0.648023 0.0210165 0.
0.650023 0.0210167 0.
0.652024 0.0210165 0.
0.654024 0.0210162 0.
0.656025 0.0210161 0.
0.658026 0.0210163 0.
0.660027 0.0210165 0.
0.662027 0.0210166 0.
0.664028 0.0210167 0.
0.666028 0.0210167 0.
0.668029 0.0210165 0.
0.67003 0.0210162 0.
0.67203 0.0210159 0.
0.674031 0.0210154 0.
0.676032 0.0210149 0.
0.678033 0.0210143 0.
0.680034 0.0210135 0.
0.682035 0.0210127 0.
0.684035 0.0210119 0.
0.686035 0.0210113 0.
0.688035 0.0210108 0.
0.690036 0.0210104 0.
0.692037 0.0210103 0.
0.694038 0.0210101 0.
0.696039 0.0210103 0.
0.69804 0.0210105 0.
0.499961 0.0230157 0.
0.501962 0.0230159 0.
0.503962 0.023016 0.
0.505963 0.0230161 0.
0.507963 0.023016 0.
0.509963 0.023016 0.
0.511964 0.023016 0.
0.513964 0.0230159 0.
0.515965 0.0230158 0.
0.517965 0.0230158 0.
0.519966 0.0230157 0.
0.521967 0.0230156 0.
0.523968 0.0230158 0.
0.525969 0.0230159 0.
0.527969 0.0230161 0.
0.52997 0.0230166 0.
0.531971 0.0230171 0.
0.533972 0.0230174 0.
0.535973 0.0230172 0.
0.537973 0.0230169 0.
0.539974 0.0230168 0.
0.541975 0.0230167 0.
0.543976 0.0230166 0.
0.545976 0.0230167 0.
0.547977 0.0230168 0.
0.549977 0.023017 0.
0.551978 0.0230168 0.
0.553979 0.0230166 0.
0.55598 0.0230163 0.
0.55798 0.0230161 0.
0.559981 0.0230159 0.
0.561982 0.023016 0.
0.563983 0.0230163 0.
0.565985 0.0230167 0.
0.567985 0.0230167 0.
0.569986 0.0230165 0.
0.571987 0.0230164 0.
0.573988 0.0230152 0.
0.575989 0.023014 0.
0.57799 0.0230128 0.
0.579991 0.0230125 0.
0.581992 0.0230122 0.
0.583993 0.0230118 0.
0.585994 0.0230112 0.
0.587994 0.0230106 0.
0.589995 0.0230106 0.
0.591996 0.0230111 0.
0.593997 0.0230115 0.
0.595998 0.0230114 0.
0.597999 0.0230111 0.
0.600001 0.0230108 0.
0.602002 0.0230113 0.
0.604004 0.0230117 0.
0.606006 0.0230118 0.
0.608006 0.0230112 0.
0.610007 0.0230106 0.
0.612007 0.0230104 0.
0.614008 0.0230107 0.
0.616009 0.0230111 0.
0.61801 0.0230113 0.
0.620011 0.0230115 0.
0.622012 0.0230118 0.
0.624013 0.0230126 0.
0.626014 0.0230135 0.
0.628015 0.0230143 0.
0.630016 0.0230147 0.
0.632017 0.0230151 0.
0.634017 0.0230156 0.
0.636018 0.0230161 0.
0.638019 0.0230166 0.
0.64002 0.0230168 0.
0.642021 0.0230167 0.
0.644021 0.0230166 0.
0.646022 0.0230169 0.
0.648023 0.0230172 0.
0.650023 0.0230176 0.
0.652024 0.0230172 0.
0.654024 0.0230169 0.
0.656025 0.0230167 0.
0.658026 0.0230171 0.
0.660027 0.0230175 0.
0.662027 0.0230177 0.
0.664028 0.0230175 0.
0.666029 0.0230174 0.
0.668029 0.0230171 0.
0.67003 0.0230167 0.
0.672031 0.0230163 0.
0.674032 0.0230157 0.
0.676033 0.0230151 0.
0.678034 0.0230145 0.
0.680035 0.023014 0.
0.682035 0.0230135 0.
0.684036 0.023013 0.
0.686035 0.0230122 0.
0.688035 0.0230114 0.
0.690036 0.023011 0.
0.692037 0.0230108 0.
0.694038 0.0230106 0.
0.696039 0.0230106 0.
0.698039 0.0230107 0.
0.499961 0.0250167 0.
0.501962 0.025017 0.
0.503962 0.0250173 0.
0.505963 0.0250174 0.
0.507963 0.025017 0.
0.509964 0.0250166 0.
0.511964 0.0250164 0.
0.513964 0.0250164 0.
0.515965 0.0250165 0.
0.517965 0.0250163 0.
0.519966 0.0250162 0.
0.521966 0.025016 0.
0.523967 0.025016 0.
0.525969 0.0250161 0.
0.52797 0.0250162 0.
0.529971 0.0250168 0.
0.531972 0.0250174 0.
0.533973 0.0250178 0.
0.535973 0.0250175 0.
0.537973 0.0250173 0.
0.539974 0.0250172 0.
0.541975 0.0250173 0.
0.543976 0.0250173 0.
0.545976 0.0250175 0.
0.547977 0.0250178 0.
0.549977 0.0250181 0.
0.551978 0.0250175 0.
0.553979 0.0250168 0.
0.55598 0.0250163 0.
0.557981 0.025016 0.
0.559981 0.0250158 0.
0.561982 0.0250159 0.
0.563983 0.0250164 0.
0.565985 0.0250168 0.
0.567985 0.0250168 0.
0.569986 0.0250164 0.
0.571987 0.0250161 0.
0.573988 0.025015 0.
0.575989 0.0250139 0.
0.577991 0.0250129 0.
0.579992 0.0250125 0.
0.581993 0.0250121 0.
0.583994 0.0250117 0.
0.585994 0.0250113 0.
0.587994 0.0250108 0.
0.589995 0.0250108 0.
0.591996 0.0250112 0.
0.593997 0.0250115 0.
0.595998 0.0250113 0.
0.597999 0.0250109 0.
0.6 0.0250105 0.
0.602002 0.0250114 0.
0.604004 0.0250122 0.
0.606006 0.0250127 0.
0.608006 0.0250116 0.
0.610007 0.0250106 0.
0.612007 0.0250103 0.
0.614008 0.0250107 0.
0.616009 0.0250112 0.
0.618009 0.0250114 0.
0.62001 0.0250114 0.
0.622011 0.0250115 0.
0.624013 0.0250125 0.
0.626014 0.0250137 0.
0.628015 0.0250148 0.
0.630016 0.0250153 0.
0.632017 0.0250158 0.
0.634018 0.0250162 0.
0.636019 0.0250165 0.
0.638019 0.0250167 0.
0.64002 0.0250169 0.
0.642021 0.0250169 0.
0.644021 0.025017 0.
0.646022 0.0250174 0.
0.648023 0.0250179 0.
0.650024 0.0250184 0.
0.652024 0.025018 0.
0.654025 0.0250176 0.
0.656025 0.0250174 0.
0.658026 0.025018 0.
0.660027 0.0250185 0.
0.662027 0.0250187 0.
0.664028 0.0250184 0.
0.666029 0.0250181 0.
0.66803 0.0250176 0.
0.670031 0.0250172 0.
0.672032 0.0250167 0.
0.674033 0.025016 0.
0.676034 0.0250153 0.
0.678036 0.0250146 0.
0.680036 0.0250145 0.
0.682036 0.0250144 0.
0.684036 0.025014 0.
0.686035 0.025013 0.
0.688035 0.0250121 0.
0.690035 0.0250115 0.
0.692037 0.0250113 0.
0.694038 0.025011 0.
0.696039 0.0250109 0.
0.698039 0.0250109 0.
0.49996 0.0270176 0.
0.501961 0.0270178 0.
0.503962 0.027018 0.
0.505963 0.0270181 0.
0.507963 0.0270175 0.
0.509964 0.0270169 0.
0.511964 0.0270166 0.
0.513965 0.0270167 0.
0.515965 0.0270167 0.
0.517966 0.0270165 0.
0.519966 0.0270162 0.
0.521967 0.0270158 0.
0.523968 0.027016 0.
0.525969 0.0270163 0.
0.52797 0.0270166 0.
0.529971 0.0270169 0.
0.531972 0.0270173 0.
0.533972 0.0270175 0.
0.535973 0.0270174 0.
0.537974 0.0270172 0.
0.539974 0.0270172 0.
0.541975 0.0270174 0.
0.543976 0.0270176 0.
0.545977 0.0270177 0.
0.547977 0.0270178 0.
0.549978 0.0270179 0.
0.551978 0.0270174 0.
0.553979 0.0270169 0.
0.55598 0.0270164 0.
0.557981 0.027016 0.
0.559982 0.0270157 0.
0.561983 0.0270156 0.
0.563984 0.027016 0.
0.565985 0.0270164 0.
0.567986 0.0270163 0.
0.569987 0.0270159 0.
0.571988 0.0270155 0.
0.573989 0.0270146 0.
0.57599 0.0270136 0.
0.577991 0.0270127 0.
0.579992 0.0270124 0.
0.581993 0.0270122 0.
0.583994 0.0270119 0.
0.585994 0.0270115 0.
0.587994 0.0270111 0.
0.589995 0.027011 0.
0.591996 0.0270109 0.
0.593997 0.0270109 0.
0.595998 0.0270107 0.
0.597999 0.0270104 0.
0.6 0.0270102 0.
0.602002 0.0270108 0.
0.604004 0.0270113 0.
0.606006 0.0270116 0.
0.608006 0.027011 0.
0.610007 0.0270103 0.
0.612008 0.0270102 0.
0.614008 0.0270107 0.
0.616008 0.0270112 0.
0.618009 0.0270114 0.
0.62001 0.0270114 0.
0.622011 0.0270114 0.
0.624012 0.0270122 0.
0.626013 0.0270132 0.
0.628014 0.0270142 0.
0.630015 0.0270147 0.
0.632016 0.0270152 0.
0.634017 0.0270157 0.
0.636018 0.0270159 0.
0.638019 0.0270162 0.
0.64002 0.0270164 0.
0.642021 0.0270166 0.
0.644021 0.0270168 0.
0.646022 0.0270171 0.
0.648023 0.0270175 0.
0.650024 0.0270178 0.
0.652024 0.0270177 0.
0.654025 0.0270176 0.
0.656025 0.0270176 0.
0.658026 0.027018 0.
0.660027 0.0270184 0.
0.662027 0.0270186 0.
0.664028 0.0270184 0.
0.666029 0.0270183 0.
0.66803 0.0270179 0.
0.670031 0.0270174 0.
0.672032 0.0270169 0.
0.674033 0.0270162 0.
0.676033 0.0270154 0.
0.678034 0.0270148 0.
0.680035 0.0270147 0.
0.682035 0.0270146 0.
0.684036 0.0270143 0.
0.686036 0.0270137 0.
0.688035 0.0270131 0.
0.690036 0.0270125 0.
0.692037 0.0270119 0.
0.694038 0.0270113 0.
0.696039 0.0270117 0.
0.69804 0.0270123 0.
0.499959 0.0290186 0.
0.501961 0.0290187 0.
0.503962 0.0290188 0.
0.505963 0.0290188 0.
0.507963 0.029018 0.
0.509964 0.0290173 0.
0.511965 0.0290169 0.
0.513965 0.0290169 0.
0.515966 0.0290169 0.
0.517966 0.0290166 0.
0.519967 0.0290162 0.
0.521967 0.0290157 0.
0.523968 0.029016 0.
0.525969 0.0290165 0.
0.52797 0.0290169 0.
0.529971 0.0290171 0.
0.531972 0.0290172 0.
0.533972 0.0290173 0.
0.535973 0.0290172 0.
0.537974 0.0290171 0.
0.539974 0.0290172 0.
0.541975 0.0290175 0.
0.543976 0.0290178 0.
0.545977 0.0290179 0.
0.547977 0.0290178 0.
0.549978 0.0290178 0.
0.551979 0.0290173 0.
0.553979 0.0290169 0.
0.55598 0.0290165 0.
0.557981 0.029016 0.
0.559982 0.0290155 0.
0.561983 0.0290154 0.
0.563984 0.0290157 0.
0.565986 0.0290161 0.
0.567987 0.0290158 0.
0.569988 0.0290154 0.
0.571989 0.0290149 0.
0.57399 0.0290141 0.
0.575991 0.0290132 0.
0.577992 0.0290125 0.
0.579992 0.0290124 0.
0.581993 0.0290123 0.
0.583993 0.0290121 0.
0.585994 0.0290118 0.
0.587994 0.0290115 0.
0.589995 0.0290111 0.
0.591996 0.0290107 0.
0.593997 0.0290102 0.
0.595998 0.0290101 0.
0.597999 0.02901 0.
0.6 0.0290099 0.
0.602002 0.0290102 0.
0.604004 0.0290104 0.
0.606006 0.0290105 0.
0.608007 0.0290103 0.
0.610007 0.02901 0.
0.612008 0.0290102 0.
0.614008 0.0290107 0.
0.616008 0.0290113 0.
0.618009 0.0290114 0.
0.62001 0.0290113 0.
0.622011 0.0290112 0.
0.624012 0.0290119 0.
0.626013 0.0290127 0.
0.628014 0.0290135 0.
0.630015 0.0290141 0.
0.632016 0.0290146 0.
0.634017 0.0290151 0.
0.636018 0.0290154 0.
0.638019 0.0290156 0.
0.640019 0.0290159 0.
0.642021 0.0290163 0.
0.644022 0.0290166 0.
0.646022 0.0290168 0.
0.648023 0.029017 0.
0.650024 0.0290172 0.
0.652024 0.0290173 0.
0.654025 0.0290175 0.
0.656025 0.0290177 0.
0.658026 0.029018 0.
0.660027 0.0290183 0.
0.662027 0.0290185 0.
0.664028 0.0290185 0.
0.66603 0.0290185 0.
0.66803 0.0290181 0.
0.670031 0.0290176 0.
0.672032 0.029017 0.
0.674032 0.0290163 0.
0.676033 0.0290156 0.
0.678033 0.0290149 0.
0.680034 0.0290148 0.
0.682035 0.0290147 0.
0.684035 0.0290146 0.
0.686036 0.0290143 0.
0.688036 0.0290141 0.
0.690037 0.0290135 0.
0.692038 0.0290126 0.
0.694039 0.0290117 0.
0.696039 0.0290125 0.
0.69804 0.0290137 0.
0.499959 0.0310191 0.
0.501961 0.0310192 0.
0.503962 0.0310193 0.
0.505963 0.0310193 0.
0.507963 0.0310186 0.
0.509964 0.031018 0.
0.511965 0.0310175 0.
0.513966 0.0310173 0.
0.515966 0.0310171 0.
0.517967 0.0310168 0.
0.519967 0.0310164 0.
0.521968 0.0310161 0.
0.523968 0.0310164 0.
0.525969 0.0310168 0.
0.52797 0.0310171 0.
0.529971 0.0310172 0.
0.531971 0.0310174 0.
0.533972 0.0310174 0.
0.535973 0.0310174 0.
0.537974 0.0310173 0.
0.539974 0.0310174 0.
0.541975 0.0310176 0.
0.543976 0.0310179 0.
0.545977 0.0310179 0.
0.547978 0.0310179 0.
0.549979 0.0310179 0.
0.551979 0.0310175 0.
0.55398 0.031017 0.
0.55598 0.0310165 0.
0.557981 0.0310159 0.
0.559982 0.0310153 0.
0.561983 0.031015 0.
0.563985 0.0310152 0.
0.565986 0.0310154 0.
0.567987 0.0310152 0.
0.569988 0.0310147 0.
0.571989 0.0310143 0.
0.573989 0.0310136 0.
0.57599 0.0310129 0.
0.577991 0.0310122 0.
0.579992 0.0310122 0.
0.581992 0.0310121 0.
0.583993 0.031012 0.
0.585994 0.0310118 0.
0.587994 0.0310116 0.
0.589995 0.0310111 0.
0.591996 0.0310105 0.
0.593997 0.0310098 0.
0.595998 0.0310097 0.
0.597999 0.0310099 0.
0.6 0.03101 0.
0.602002 0.03101 0.
0.604004 0.03101 0.
0.606006 0.03101 0.
0.608007 0.0310099 0.
0.610008 0.0310099 0.
0.612008 0.0310101 0.
0.614008 0.0310106 0.
0.616008 0.0310111 0.
0.618009 0.0310113 0.
0.62001 0.0310114 0.
0.622012 0.0310115 0.
0.624012 0.0310119 0.
0.626013 0.0310124 0.
0.628014 0.0310129 0.
0.630015 0.0310136 0.
0.632016 0.0310143 0.
0.634017 0.0310148 0.
0.636018 0.0310151 0.
0.638018 0.0310154 0.
0.640019 0.0310157 0.
0.64202 0.0310161 0.
0.644021 0.0310166 0.
0.646022 0.0310168 0.
0.648023 0.0310171 0.
0.650023 0.0310173 0.
0.652024 0.0310175 0.
0.654024 0.0310177 0.
0.656025 0.0310179 0.
0.658026 0.0310181 0.
0.660027 0.0310184 0.
0.662027 0.0310185 0.
0.664028 0.0310186 0.
0.666029 0.0310187 0.
0.66803 0.0310184 0.
0.670031 0.0310177 0.
0.672031 0.0310171 0.
0.674032 0.0310165 0.
0.676032 0.0310158 0.
0.678033 0.0310152 0.
0.680034 0.0310151 0.
0.682034 0.031015 0.
0.684035 0.0310149 0.
0.686036 0.0310149 0.
0.688036 0.0310148 0.
0.690037 0.0310144 0.
0.692038 0.0310137 0.
0.694038 0.031013 0.
0.696039 0.0310136 0.
0.69804 0.0310146 0.
0.49996 0.0330191 0.
0.501961 0.0330194 0.
0.503962 0.0330196 0.
0.505963 0.0330197 0.
0.507964 0.0330194 0.
0.509964 0.0330191 0.
0.511965 0.0330186 0.
0.513966 0.0330178 0.
0.515966 0.0330171 0.
0.517967 0.0330169 0.
0.519968 0.033017 0.
0.521968 0.033017 0.
0.523969 0.0330171 0.
0.52597 0.0330171 0.
0.52797 0.0330172 0.
0.529971 0.0330175 0.
0.531972 0.0330178 0.
0.533972 0.0330179 0.
0.535973 0.0330179 0.
0.537974 0.0330178 0.
0.539975 0.0330178 0.
0.541975 0.0330177 0.
0.543976 0.0330177 0.
0.545977 0.0330179 0.
0.547978 0.0330181 0.
0.549979 0.0330184 0.
0.55198 0.0330177 0.
0.553981 0.0330171 0.
0.555981 0.0330164 0.
0.557982 0.0330158 0.
0.559983 0.0330151 0.
0.561983 0.0330147 0.
0.563984 0.0330146 0.
0.565985 0.0330145 0.
0.567986 0.0330143 0.
0.569987 0.033014 0.
0.571987 0.0330137 0.
0.573988 0.0330131 0.
0.575989 0.0330125 0.
0.57799 0.033012 0.
0.579991 0.0330118 0.
0.581992 0.0330117 0.
0.583993 0.0330116 0.
0.585994 0.0330115 0.
0.587995 0.0330114 0.
0.589996 0.033011 0.
0.591997 0.0330103 0.
0.593998 0.0330096 0.
0.595999 0.0330097 0.
0.598 0.03301 0.
0.6 0.0330103 0.
0.602002 0.0330102 0.
0.604004 0.0330102 0.
0.606006 0.0330101 0.
0.608007 0.0330099 0.
0.610007 0.0330098 0.
0.612008 0.0330099 0.
0.614009 0.0330103 0.
0.61601 0.0330106 0.
0.61801 0.0330111 0.
0.620011 0.0330116 0.
0.622012 0.0330121 0.
0.624013 0.0330122 0.
0.626013 0.0330123 0.
0.628014 0.0330125 0.
0.630015 0.0330133 0.
0.632016 0.033014 0.
0.634017 0.0330147 0.
0.636018 0.033015 0.
0.638019 0.0330154 0.
0.640019 0.0330158 0.
0.64202 0.0330162 0.
0.644021 0.0330166 0.
0.646022 0.0330171 0.
0.648022 0.0330177 0.
0.650023 0.0330183 0.
0.652024 0.0330182 0.
0.654024 0.0330181 0.
0.656025 0.0330181 0.
0.658026 0.0330183 0.
0.660027 0.0330186 0.
0.662027 0.0330187 0.
0.664028 0.0330188 0.
0.666029 0.0330189 0.
0.668029 0.0330185 0.
0.67003 0.0330179 0.
0.672031 0.0330172 0.
0.674032 0.0330166 0.
0.676032 0.033016 0.
0.678033 0.0330155 0.
0.680034 0.0330155 0.
0.682034 0.0330155 0.
0.684035 0.0330154 0.
0.686035 0.0330153 0.
0.688036 0.0330152 0.
0.690036 0.0330152 0.
0.692037 0.0330152 0.
0.694038 0.0330151 0.
0.696038 0.033015 0.
0.698039 0.0330147 0.
0.499961 0.0350193 0.
0.501961 0.0350196 0.
0.503962 0.0350199 0.
0.505963 0.0350201 0.
0.507964 0.0350201 0.
0.509964 0.0350201 0.
0.511965 0.0350196 0.
0.513966 0.0350184 0.
0.515967 0.0350171 0.
0.517967 0.035017 0.
0.519968 0.0350175 0.
0.521969 0.035018 0.
0.523969 0.0350178 0.
0.52597 0.0350175 0.
0.527971 0.0350173 0.
0.529971 0.0350177 0.
0.531972 0.0350181 0.
0.533972 0.0350184 0.
0.535973 0.0350184 0.
0.537974 0.0350183 0.
0.539975 0.0350181 0.
0.541975 0.0350178 0.
0.543976 0.0350175 0.
0.545977 0.0350178 0.
0.547978 0.0350183 0.
0.549979 0.0350188 0.
0.55198 0.035018 0.
0.553981 0.0350172 0.
0.555982 0.0350163 0.
0.557983 0.0350156 0.
0.559983 0.0350149 0.
0.561984 0.0350143 0.
0.563984 0.0350139 0.
0.565985 0.0350136 0.
0.567986 0.0350134 0.
0.569986 0.0350133 0.
0.571986 0.0350131 0.
0.573987 0.0350127 0.
0.575989 0.0350122 0.
0.57799 0.0350117 0.
0.579991 0.0350115 0.
0.581992 0.0350113 0.
0.583993 0.0350111 0.
0.585994 0.0350112 0.
0.587996 0.0350112 0.
0.589997 0.0350109 0.
0.591997 0.0350101 0.
0.593998 0.0350094 0.
0.595999 0.0350097 0.
0.598 0.0350102 0.
0.6 0.0350107 0.
0.602002 0.0350105 0.
0.604004 0.0350103 0.
0.606006 0.0350101 0.
0.608006 0.0350099 0.
0.610007 0.0350098 0.
0.612008 0.0350098 0.
0.614009 0.03501 0.
0.616011 0.0350102 0.
0.618011 0.0350109 0.
0.620012 0.0350118 0.
0.622012 0.0350127 0.
0.624013 0.0350125 0.
0.626014 0.0350122 0.
0.628015 0.0350121 0.
0.630015 0.0350129 0.
0.632016 0.0350138 0.
0.634017 0.0350145 0.
0.636018 0.035015 0.
0.638019 0.0350155 0.
0.640019 0.0350159 0.
0.64202 0.0350163 0.
0.64402 0.0350166 0.
0.646021 0.0350174 0.
0.648022 0.0350183 0.
0.650023 0.0350192 0.
0.652024 0.0350188 0.
0.654024 0.0350185 0.
0.656025 0.0350183 0.
0.658026 0.0350185 0.
0.660027 0.0350188 0.
0.662027 0.0350189 0.
0.664028 0.035019 0.
0.666028 0.0350191 0.
0.668029 0.0350187 0.
0.67003 0.035018 0.
0.672031 0.0350173 0.
0.674032 0.0350168 0.
0.676033 0.0350163 0.
0.678033 0.0350158 0.
0.680034 0.0350159 0.
0.682034 0.0350159 0.
0.684035 0.0350158 0.
0.686035 0.0350157 0.
0.688035 0.0350156 0.
0.690036 0.035016 0.
0.692036 0.0350166 0.
0.694037 0.0350173 0.
0.696037 0.0350163 0.
0.698038 0.0350149 0.
0.499961 0.03702 0.
0.501962 0.0370203 0.
0.503963 0.0370205 0.
0.505963 0.0370206 0.
0.507964 0.0370203 0.
0.509965 0.0370201 0.
0.511965 0.0370196 0.
0.513966 0.0370188 0.
0.515967 0.0370179 0.
0.517968 0.0370177 0.
0.519968 0.0370178 0.
0.521969 0.037018 0.
0.523969 0.0370179 0.
0.52597 0.0370178 0.
0.52797 0.0370177 0.
0.529971 0.0370182 0.
0.531972 0.0370187 0.
0.533972 0.0370189 0.
0.535973 0.0370187 0.
0.537974 0.0370185 0.
0.539975 0.037018 0.
0.541975 0.0370173 0.
0.543976 0.0370167 0.
0.545977 0.0370172 0.
0.547978 0.037018 0.
0.549979 0.0370188 0.
0.55198 0.037018 0.
0.553981 0.0370171 0.
0.555982 0.0370163 0.
0.557983 0.0370157 0.
0.559983 0.037015 0.
0.561984 0.0370145 0.
0.563985 0.0370139 0.
0.565986 0.0370134 0.
0.567986 0.0370131 0.
0.569987 0.037013 0.
0.571987 0.0370129 0.
0.573988 0.0370123 0.
0.575989 0.0370117 0.
0.57799 0.037011 0.
0.579991 0.0370109 0.
0.581992 0.0370108 0.
0.583993 0.0370107 0.
0.585994 0.0370107 0.
0.587995 0.0370107 0.
0.589996 0.0370104 0.
0.591997 0.0370097 0.
0.593998 0.0370091 0.
0.595999 0.0370093 0.
0.598 0.0370097 0.
0.600001 0.0370101 0.
0.602002 0.0370098 0.
0.604004 0.0370094 0.
0.606006 0.0370092 0.
0.608007 0.0370094 0.
0.610008 0.0370095 0.
0.612009 0.0370097 0.
0.61401 0.0370101 0.
0.616011 0.0370104 0.
0.618011 0.037011 0.
0.620011 0.0370116 0.
0.622012 0.0370123 0.
0.624013 0.0370123 0.
0.626014 0.0370122 0.
0.628015 0.0370122 0.
0.630015 0.0370129 0.
0.632016 0.0370136 0.
0.634017 0.0370142 0.
0.636018 0.0370148 0.
0.638019 0.0370153 0.
0.64002 0.0370157 0.
0.64202 0.0370159 0.
0.644021 0.0370161 0.
0.646022 0.0370169 0.
0.648022 0.0370179 0.
0.650023 0.0370188 0.
0.652024 0.0370188 0.
0.654025 0.0370188 0.
0.656025 0.0370189 0.
0.658026 0.0370188 0.
0.660026 0.0370188 0.
0.662027 0.0370189 0.
0.664027 0.037019 0.
0.666028 0.0370191 0.
0.668029 0.0370186 0.
0.67003 0.0370179 0.
0.672031 0.0370171 0.
0.674032 0.0370167 0.
0.676033 0.0370163 0.
0.678033 0.037016 0.
0.680034 0.037016 0.
0.682034 0.0370161 0.
0.684035 0.0370161 0.
0.686035 0.0370161 0.
0.688036 0.0370161 0.
0.690036 0.0370163 0.
0.692037 0.0370167 0.
0.694037 0.0370171 0.
0.696038 0.0370164 0.
0.698038 0.0370155 0.
0.499961 0.0390207 0.
0.501962 0.0390209 0.
0.503963 0.0390211 0.
0.505963 0.0390211 0.
0.507964 0.0390206 0.
0.509965 0.03902 0.
0.511966 0.0390196 0.
0.513966 0.0390191 0.
0.515967 0.0390187 0.
0.517968 0.0390184 0.
0.519969 0.0390182 0.
0.521969 0.039018 0.
0.523969 0.039018 0.
0.52597 0.039018 0.
0.52797 0.0390181 0.
0.529971 0.0390187 0.
0.531972 0.0390192 0.
0.533973 0.0390194 0.
0.535973 0.039019 0.
0.537974 0.0390186 0.
0.539975 0.0390179 0.
0.541976 0.0390169 0.
0.543977 0.0390159 0.
0.545977 0.0390165 0.
0.547978 0.0390177 0.
0.549979 0.0390188 0.
0.55198 0.0390179 0.
0.553981 0.039017 0.
0.555982 0.0390162 0.
0.557983 0.0390157 0.
0.559984 0.0390152 0.
0.561985 0.0390146 0.
0.563985 0.0390139 0.
0.565986 0.0390132 0.
0.567987 0.0390129 0.
0.569987 0.0390128 0.
0.571988 0.0390127 0.
0.573989 0.0390119 0.
0.57599 0.0390111 0.
0.577991 0.0390104 0.
0.579991 0.0390103 0.
0.581992 0.0390103 0.
0.583992 0.0390102 0.
0.585993 0.0390102 0.
0.587994 0.0390102 0.
0.589995 0.0390099 0.
0.591996 0.0390094 0.
0.593998 0.0390088 0.
0.595999 0.039009 0.
0.598 0.0390092 0.
0.600001 0.0390095 0.
0.602002 0.039009 0.
0.604004 0.0390086 0.
0.606005 0.0390083 0.
0.608007 0.0390088 0.
0.610008 0.0390092 0.
0.612009 0.0390097 0.
0.61401 0.0390101 0.
0.616011 0.0390106 0.
0.618011 0.039011 0.
0.620011 0.0390115 0.
0.622012 0.0390119 0.
0.624012 0.0390121 0.
0.626013 0.0390122 0.
0.628014 0.0390123 0.
0.630015 0.0390128 0.
0.632016 0.0390133 0.
0.634017 0.0390139 0.
0.636018 0.0390145 0.
0.638019 0.0390152 0.
0.64002 0.0390155 0.
0.64202 0.0390156 0.
0.644021 0.0390156 0.
0.646022 0.0390164 0.
0.648023 0.0390174 0.
0.650024 0.0390183 0.
0.652024 0.0390188 0.
0.654025 0.0390192 0.
0.656025 0.0390194 0.
0.658026 0.0390192 0.
0.660026 0.0390189 0.
0.662026 0.0390188 0.
0.664027 0.0390189 0.
0.666028 0.039019 0.
0.668029 0.0390185 0.
0.67003 0.0390177 0.
0.672032 0.0390169 0.
0.674032 0.0390166 0.
0.676033 0.0390164 0.
0.678033 0.0390162 0.
0.680034 0.0390162 0.
0.682035 0.0390162 0.
0.684035 0.0390163 0.
0.686035 0.0390164 0.
0.688036 0.0390165 0.
0.690036 0.0390166 0.
0.692037 0.0390168 0.
0.694037 0.039017 0.
0.696038 0.0390166 0.
0.698038 0.039016 0.
0.499962 0.0410217 0.
0.501963 0.0410216 0.
0.503963 0.0410216 0.
0.505964 0.0410214 0.
0.507965 0.0410209 0.
0.509965 0.0410204 0.
0.511966 0.0410199 0.
0.513967 0.0410195 0.
0.515968 0.0410192 0.
0.517968 0.041019 0.
0.519969 0.0410188 0.
0.52197 0.0410186 0.
0.52397 0.0410186 0.
0.52597 0.0410185 0.
0.52797 0.0410185 0.
0.529971 0.041019 0.
0.531972 0.0410195 0.
0.533973 0.0410197 0.
0.535973 0.0410191 0.
0.537974 0.0410186 0.
0.539975 0.0410178 0.
0.541976 0.041017 0.
0.543977 0.0410161 0.
0.545977 0.0410166 0.
0.547978 0.0410175 0.
0.549979 0.0410184 0.
0.55198 0.0410176 0.
0.553981 0.0410168 0.
0.555981 0.0410161 0.
0.557982 0.0410157 0.
0.559984 0.0410152 0.
0.561984 0.0410146 0.
0.563985 0.041014 0.
0.565986 0.0410133 0.
0.567987 0.0410129 0.
0.569987 0.0410128 0.
0.571987 0.0410126 0.
0.573988 0.0410118 0.
0.57599 0.0410109 0.
0.577991 0.0410101 0.
0.579991 0.04101 0.
0.581992 0.04101 0.
0.583992 0.0410099 0.
0.585993 0.0410098 0.
0.587994 0.0410096 0.
0.589995 0.0410093 0.
0.591996 0.0410089 0.
0.593998 0.0410084 0.
0.595999 0.0410085 0.
0.598 0.0410087 0.
0.600001 0.0410089 0.
0.602002 0.0410085 0.
0.604004 0.0410081 0.
0.606005 0.0410078 0.
0.608007 0.0410084 0.
0.610008 0.0410089 0.
0.612009 0.0410094 0.
0.61401 0.0410099 0.
0.61601 0.0410103 0.
0.618011 0.0410107 0.
0.620012 0.0410111 0.
0.622012 0.0410114 0.
0.624013 0.0410117 0.
0.626014 0.041012 0.
0.628014 0.0410124 0.
0.630015 0.0410129 0.
0.632016 0.0410134 0.
0.634017 0.0410139 0.
0.636018 0.0410146 0.
0.638019 0.0410153 0.
0.64002 0.0410156 0.
0.64202 0.0410156 0.
0.644021 0.0410157 0.
0.646022 0.0410163 0.
0.648023 0.0410172 0.
0.650024 0.041018 0.
0.652024 0.0410187 0.
0.654025 0.0410193 0.
0.656025 0.0410197 0.
0.658025 0.0410193 0.
0.660026 0.041019 0.
0.662026 0.0410188 0.
0.664027 0.0410188 0.
0.666028 0.0410188 0.
0.668029 0.0410184 0.
0.670031 0.0410177 0.
0.672032 0.041017 0.
0.674033 0.0410169 0.
0.676033 0.0410167 0.
0.678033 0.0410166 0.
0.680034 0.0410168 0.
0.682035 0.0410169 0.
0.684035 0.041017 0.
0.686036 0.0410171 0.
0.688036 0.0410171 0.
0.690036 0.0410172 0.
0.692037 0.0410172 0.
0.694038 0.0410172 0.
0.696038 0.041017 0.
0.698038 0.0410167 0.
0.499964 0.0430231 0.
0.501964 0.0430224 0.
0.503964 0.043022 0.
0.505965 0.0430216 0.
0.507965 0.0430213 0.
0.509966 0.0430211 0.
0.511967 0.0430206 0.
0.513967 0.04302 0.
0.515968 0.0430193 0.
0.517969 0.0430193 0.
0.51997 0.0430196 0.
0.52197 0.0430199 0.
0.52397 0.0430196 0.
0.52597 0.0430192 0.
0.527971 0.0430188 0.
0.529971 0.0430193 0.
0.531972 0.0430197 0.
0.533973 0.0430197 0.
0.535974 0.043019 0.
0.537975 0.0430184 0.
0.539976 0.0430179 0.
0.541976 0.0430176 0.
0.543977 0.0430173 0.
0.545977 0.0430174 0.
0.547978 0.0430176 0.
0.549978 0.0430177 0.
0.551979 0.0430172 0.
0.55398 0.0430166 0.
0.555981 0.043016 0.
0.557982 0.0430155 0.
0.559983 0.0430151 0.
0.561984 0.0430146 0.
0.563984 0.043014 0.
0.565985 0.0430134 0.
0.567986 0.0430131 0.
0.569986 0.0430129 0.
0.571987 0.0430128 0.
0.573988 0.043012 0.
0.575989 0.043011 0.
0.57799 0.0430102 0.
0.579991 0.04301 0.
0.581991 0.0430098 0.
0.583992 0.0430096 0.
0.585994 0.0430094 0.
0.587995 0.0430091 0.
0.589996 0.0430088 0.
0.591997 0.0430084 0.
0.593997 0.0430079 0.
0.595999 0.043008 0.
0.598 0.0430082 0.
0.600001 0.0430085 0.
0.602003 0.0430082 0.
0.604004 0.0430079 0.
0.606006 0.0430077 0.
0.608007 0.0430081 0.
0.610008 0.0430085 0.
0.612009 0.0430089 0.
0.61401 0.0430093 0.
0.61601 0.0430096 0.
0.618011 0.04301 0.
0.620012 0.0430104 0.
0.622013 0.0430108 0.
0.624014 0.0430113 0.
0.626014 0.0430118 0.
0.628015 0.0430123 0.
0.630015 0.043013 0.
0.632016 0.0430136 0.
0.634017 0.0430143 0.
0.636018 0.0430149 0.
0.638019 0.0430155 0.
0.640019 0.0430159 0.
0.64202 0.0430161 0.
0.644021 0.0430163 0.
0.646021 0.0430168 0.
0.648022 0.0430173 0.
0.650023 0.0430178 0.
0.652024 0.0430185 0.
0.654024 0.0430191 0.
0.656025 0.0430196 0.
0.658025 0.0430193 0.
0.660026 0.0430191 0.
0.662027 0.0430188 0.
0.664028 0.0430187 0.
0.666029 0.0430185 0.
0.66803 0.0430181 0.
0.670031 0.0430178 0.
0.672032 0.0430174 0.
0.674033 0.0430174 0.
0.676033 0.0430174 0.
0.678033 0.0430174 0.
0.680034 0.0430177 0.
0.682035 0.043018 0.
0.684035 0.0430181 0.
0.686035 0.043018 0.
0.688036 0.0430179 0.
0.690036 0.0430179 0.
0.692037 0.0430179 0.
0.694038 0.0430179 0.
0.696038 0.0430177 0.
0.698039 0.0430175 0.
0.499965 0.0450244 0.
0.501965 0.0450232 0.
0.503965 0.0450224 0.
0.505966 0.0450217 0.
0.507966 0.0450217 0.
0.509967 0.0450218 0.
0.511968 0.0450214 0.
0.513968 0.0450204 0.
0.515968 0.0450195 0.
0.517969 0.0450197 0.
0.51997 0.0450204 0.
0.521971 0.0450212 0.
0.523971 0.0450207 0.
0.525971 0.0450199 0.
0.527971 0.0450192 0.
0.529972 0.0450195 0.
0.531973 0.0450198 0.
0.533974 0.0450198 0.
0.535975 0.045019 0.
0.537976 0.0450182 0.
0.539976 0.0450179 0.
0.541977 0.0450182 0.
0.543977 0.0450185 0.
0.545977 0.0450181 0.
0.547977 0.0450176 0.
0.549977 0.0450171 0.
0.551978 0.0450167 0.
0.55398 0.0450163 0.
0.555981 0.0450159 0.
0.557981 0.0450154 0.
0.559982 0.045015 0.
0.561983 0.0450145 0.
0.563983 0.045014 0.
0.565984 0.0450136 0.
0.567985 0.0450133 0.
0.569985 0.0450131 0.
0.571986 0.0450129 0.
0.573987 0.0450121 0.
0.575988 0.0450112 0.
0.577989 0.0450103 0.
0.57999 0.04501 0.
0.581991 0.0450097 0.
0.583993 0.0450094 0.
0.585994 0.045009 0.
0.587995 0.0450086 0.
0.589996 0.0450082 0.
0.591997 0.0450078 0.
0.593997 0.0450074 0.
0.595998 0.0450075 0.
0.598 0.0450078 0.
0.600001 0.045008 0.
0.602003 0.0450078 0.
0.604004 0.0450077 0.
0.606006 0.0450076 0.
0.608007 0.0450078 0.
0.610008 0.0450081 0.
0.612008 0.0450083 0.
0.614009 0.0450087 0.
0.61601 0.045009 0.
0.618012 0.0450094 0.
0.620013 0.0450098 0.
0.622014 0.0450102 0.
0.624014 0.0450109 0.
0.626015 0.0450116 0.
0.628015 0.0450123 0.
0.630016 0.0450131 0.
0.632016 0.0450139 0.
0.634017 0.0450146 0.
0.636018 0.0450152 0.
0.638018 0.0450158 0.
0.640019 0.0450163 0.
0.64202 0.0450166 0.
0.64402 0.0450169 0.
0.646021 0.0450172 0.
0.648022 0.0450174 0.
0.650023 0.0450176 0.
0.652024 0.0450183 0.
0.654024 0.045019 0.
0.656024 0.0450195 0.
0.658025 0.0450193 0.
0.660026 0.0450192 0.
0.662027 0.0450189 0.
0.664028 0.0450185 0.
0.666029 0.0450181 0.
0.66803 0.0450179 0.
0.670031 0.0450178 0.
0.672032 0.0450177 0.
0.674032 0.0450178 0.
0.676032 0.045018 0.
0.678033 0.0450182 0.
0.680034 0.0450186 0.
0.682034 0.045019 0.
0.684035 0.0450192 0.
0.686035 0.045019 0.
0.688036 0.0450188 0.
0.690036 0.0450186 0.
0.692037 0.0450186 0.
0.694038 0.0450185 0.
0.696039 0.0450184 0.
0.698039 0.0450183 0.
0.499965 0.0470237 0.
0.501966 0.0470232 0.
0.503966 0.0470228 0.
0.505966 0.0470224 0.
0.507967 0.0470223 0.
0.509967 0.0470222 0.
0.511968 0.0470219 0.
0.513968 0.0470214 0.
0.515968 0.0470209 0.
0.517969 0.0470207 0.
0.51997 0.0470207 0.
0.521971 0.0470207 0.
0.523971 0.0470203 0.
0.525971 0.0470199 0.
0.527972 0.0470195 0.
0.529972 0.0470197 0.
0.531973 0.0470199 0.
0.533974 0.0470198 0.
0.535974 0.0470193 0.
0.537975 0.0470188 0.
0.539976 0.0470184 0.
0.541976 0.0470183 0.
0.543977 0.0470181 0.
0.545977 0.0470178 0.
0.547978 0.0470174 0.
0.549978 0.047017 0.
0.551979 0.0470165 0.
0.55398 0.0470161 0.
0.555981 0.0470156 0.
0.557982 0.0470155 0.
0.559983 0.0470153 0.
0.561983 0.0470149 0.
0.563984 0.0470141 0.
0.565984 0.0470134 0.
0.567985 0.0470129 0.
0.569986 0.0470126 0.
0.571986 0.0470123 0.
0.573987 0.0470116 0.
0.575988 0.0470108 0.
0.577989 0.04701 0.
0.57999 0.0470096 0.
0.581991 0.0470091 0.
0.583993 0.0470088 0.
0.585994 0.0470086 0.
0.587995 0.0470085 0.
0.589996 0.0470082 0.
0.591997 0.0470077 0.
0.593998 0.0470073 0.
0.595999 0.0470072 0.
0.598 0.0470073 0.
0.600001 0.0470074 0.
0.602003 0.0470074 0.
0.604004 0.0470074 0.
0.606006 0.0470075 0.
0.608007 0.0470077 0.
0.610007 0.0470079 0.
0.612008 0.0470082 0.
0.614009 0.0470085 0.
0.61601 0.0470089 0.
0.618011 0.0470093 0.
0.620012 0.0470097 0.
0.622013 0.0470101 0.
0.624013 0.0470106 0.
0.626014 0.0470111 0.
0.628014 0.0470117 0.
0.630015 0.0470125 0.
0.632016 0.0470134 0.
0.634017 0.0470141 0.
0.636017 0.0470147 0.
0.638018 0.0470153 0.
0.640018 0.0470159 0.
0.642019 0.0470164 0.
0.64402 0.047017 0.
0.646021 0.0470172 0.
0.648022 0.0470172 0.
0.650023 0.0470173 0.
0.652023 0.047018 0.
0.654024 0.0470188 0.
0.656024 0.0470193 0.
0.658025 0.0470191 0.
0.660026 0.0470188 0.
0.662027 0.0470186 0.
0.664028 0.0470185 0.
0.666029 0.0470184 0.
0.66803 0.0470183 0.
0.670031 0.0470181 0.
0.672031 0.047018 0.
0.674032 0.0470181 0.
0.676032 0.0470183 0.
0.678033 0.0470184 0.
0.680033 0.047019 0.
0.682034 0.0470195 0.
0.684035 0.0470198 0.
0.686035 0.0470195 0.
0.688036 0.0470192 0.
0.690036 0.0470191 0.
0.692037 0.0470191 0.
0.694037 0.0470191 0.
0.696038 0.0470191 0.
0.698038 0.0470191 0.
0.499966 0.0490231 0.
0.501967 0.0490231 0.
0.503967 0.0490232 0.
0.505967 0.0490232 0.
0.507967 0.0490229 0.
0.509967 0.0490226 0.
0.511968 0.0490224 0.
0.513968 0.0490224 0.
0.515969 0.0490224 0.
0.517969 0.0490218 0.
0.51997 0.0490209 0.
0.52197 0.0490201 0.
0.523971 0.0490199 0.
0.525971 0.0490198 0.
0.527972 0.0490198 0.
0.529973 0.0490199 0.
0.531973 0.0490199 0.
0.533974 0.0490199 0.
0.535974 0.0490196 0.
0.537975 0.0490194 0.
0.539975 0.0490189 0.
0.541976 0.0490183 0.
0.543977 0.0490177 0.
0.545978 0.0490174 0.
0.547978 0.0490172 0.
0.549978 0.0490169 0.
0.551979 0.0490164 0.
0.553981 0.0490158 0.
0.555982 0.0490154 0.
0.557982 0.0490155 0.
0.559983 0.0490156 0.
0.561984 0.0490152 0.
0.563984 0.0490142 0.
0.565985 0.0490132 0.
0.567985 0.0490126 0.
0.569986 0.0490121 0.
0.571987 0.0490117 0.
0.573988 0.0490111 0.
0.575988 0.0490104 0.
0.577989 0.0490097 0.
0.57999 0.0490091 0.
0.581992 0.0490085 0.
0.583993 0.0490081 0.
0.585994 0.0490082 0.
0.587995 0.0490084 0.
0.589996 0.0490081 0.
0.591997 0.0490076 0.
0.593998 0.0490071 0.
0.595999 0.0490069 0.
0.598 0.0490069 0.
0.600002 0.0490069 0.
0.602003 0.049007 0.
0.604005 0.0490072 0.
0.606006 0.0490074 0.
0.608006 0.0490075 0.
0.610007 0.0490077 0.
0.612008 0.049008 0.
0.614009 0.0490084 0.
0.61601 0.0490088 0.
0.618011 0.0490092 0.
0.620011 0.0490095 0.
0.622012 0.0490099 0.
0.624012 0.0490103 0.
0.626013 0.0490106 0.
0.628014 0.0490111 0.
0.630015 0.049012 0.
0.632016 0.0490129 0.
0.634016 0.0490137 0.
0.636017 0.0490142 0.
0.638017 0.0490147 0.
0.640018 0.0490154 0.
0.642018 0.0490162 0.
0.644019 0.049017 0.
0.64602 0.0490171 0.
0.648021 0.049017 0.
0.650023 0.0490169 0.
0.652023 0.0490177 0.
0.654023 0.0490186 0.
0.656024 0.0490191 0.
0.658025 0.0490188 0.
0.660026 0.0490185 0.
0.662027 0.0490184 0.
0.664028 0.0490185 0.
0.666029 0.0490187 0.
0.66803 0.0490186 0.
0.67003 0.0490185 0.
0.672031 0.0490183 0.
0.674031 0.0490184 0.
0.676032 0.0490185 0.
0.678033 0.0490187 0.
0.680033 0.0490194 0.
0.682034 0.04902 0.
0.684034 0.0490203 0.
0.686035 0.04902 0.
0.688035 0.0490197 0.
0.690036 0.0490196 0.
0.692036 0.0490197 0.
0.694037 0.0490198 0.
0.696037 0.0490198 0.
0.698038 0.0490198 0.
0.499966 0.0510233 0.
0.501967 0.0510234 0.
0.503967 0.0510236 0.
0.505968 0.0510236 0.
0.507968 0.0510234 0.
0.509968 0.0510232 0.
0.511968 0.051023 0.
0.513968 0.051023 0.
0.515969 0.051023 0.
0.517969 0.0510222 0.
0.51997 0.0510211 0.
0.521971 0.05102 0.
0.523971 0.05102 0.
0.525972 0.0510202 0.
0.527972 0.0510203 0.
0.529973 0.0510203 0.
0.531973 0.0510203 0.
0.533974 0.0510202 0.
0.535974 0.0510199 0.
0.537975 0.0510197 0.
0.539975 0.0510192 0.
0.541976 0.0510185 0.
0.543977 0.0510178 0.
0.545978 0.0510174 0.
0.547978 0.051017 0.
0.549978 0.0510167 0.
0.55198 0.0510162 0.
0.553981 0.0510157 0.
0.555982 0.0510153 0.
0.557982 0.0510154 0.
0.559983 0.0510155 0.
0.561984 0.0510151 0.
0.563984 0.0510141 0.
0.565985 0.051013 0.
0.567986 0.0510123 0.
0.569986 0.0510118 0.
0.571987 0.0510113 0.
0.573988 0.0510107 0.
0.575989 0.0510101 0.
0.57799 0.0510095 0.
0.579991 0.0510088 0.
0.581992 0.0510081 0.
0.583993 0.0510076 0.
0.585994 0.0510078 0.
0.587995 0.0510079 0.
0.589996 0.0510077 0.
0.591997 0.0510072 0.
0.593998 0.0510067 0.
0.595999 0.0510065 0.
0.598001 0.0510064 0.
0.600002 0.0510063 0.
0.602003 0.0510066 0.
0.604005 0.051007 0.
0.606006 0.0510074 0.
0.608006 0.0510075 0.
0.610007 0.0510077 0.
0.612008 0.051008 0.
0.614009 0.0510083 0.
0.61601 0.0510087 0.
0.61801 0.0510091 0.
0.620011 0.0510095 0.
0.622011 0.0510099 0.
0.624012 0.0510101 0.
0.626012 0.0510104 0.
0.628013 0.0510107 0.
0.630014 0.0510116 0.
0.632016 0.0510126 0.
0.634016 0.0510134 0.
0.636017 0.0510138 0.
0.638017 0.0510143 0.
0.640018 0.051015 0.
0.642019 0.0510159 0.
0.64402 0.0510169 0.
0.646021 0.051017 0.
0.648022 0.0510169 0.
0.650023 0.0510169 0.
0.652023 0.0510175 0.
0.654024 0.0510181 0.
0.656024 0.0510185 0.
0.658025 0.0510185 0.
0.660026 0.0510184 0.
0.662027 0.0510184 0.
0.664028 0.0510186 0.
0.666029 0.0510187 0.
0.66803 0.0510187 0.
0.67003 0.0510185 0.
0.67203 0.0510184 0.
0.674031 0.0510185 0.
0.676032 0.0510187 0.
0.678033 0.0510189 0.
0.680033 0.0510196 0.
0.682034 0.0510204 0.
0.684034 0.0510208 0.
0.686035 0.0510206 0.
0.688035 0.0510204 0.
0.690036 0.0510203 0.
0.692036 0.0510204 0.
0.694036 0.0510204 0.
0.696037 0.0510206 0.
0.698037 0.0510208 0.
0.499967 0.0530244 0.
0.501967 0.053024 0.
0.503967 0.0530239 0.
0.505967 0.0530238 0.
0.507968 0.0530239 0.
0.509968 0.053024 0.
0.511968 0.0530238 0.
0.513969 0.0530233 0.
0.515969 0.0530228 0.
0.51797 0.0530221 0.
0.51997 0.0530213 0.
0.521971 0.0530204 0.
0.523972 0.0530206 0.
0.525972 0.0530208 0.
0.527973 0.0530211 0.
0.529973 0.053021 0.
0.531974 0.0530209 0.
0.533974 0.0530207 0.
0.535975 0.0530202 0.
0.537975 0.0530198 0.
0.539976 0.0530193 0.
0.541976 0.0530189 0.
0.543977 0.0530184 0.
0.545977 0.0530177 0.
0.547978 0.053017 0.
0.549978 0.0530164 0.
0.551979 0.053016 0.
0.55398 0.0530156 0.
0.555981 0.0530153 0.
0.557982 0.0530151 0.
0.559983 0.053015 0.
0.561984 0.0530145 0.
0.563985 0.0530138 0.
0.565985 0.053013 0.
0.567986 0.0530123 0.
0.569987 0.0530117 0.
0.571987 0.053011 0.
0.573988 0.0530105 0.
0.57599 0.05301 0.
0.577991 0.0530094 0.
0.579992 0.0530086 0.
0.581993 0.0530078 0.
0.583994 0.0530073 0.
0.585994 0.0530072 0.
0.587995 0.0530072 0.
0.589996 0.0530069 0.
0.591997 0.0530065 0.
0.593998 0.0530061 0.
0.595999 0.0530059 0.
0.598001 0.0530057 0.
0.600002 0.0530056 0.
0.602003 0.0530063 0.
0.604004 0.0530069 0.
0.606006 0.0530075 0.
0.608006 0.0530077 0.
0.610007 0.0530079 0.
0.612008 0.0530081 0.
0.614009 0.0530083 0.
0.616009 0.0530085 0.
0.61801 0.0530089 0.
0.62001 0.0530094 0.
0.622011 0.05301 0.
0.624012 0.0530101 0.
0.626012 0.0530103 0.
0.628013 0.0530105 0.
0.630014 0.0530115 0.
0.632016 0.0530126 0.
0.634017 0.0530133 0.
0.636017 0.0530136 0.
0.638018 0.0530138 0.
0.640019 0.0530145 0.
0.642019 0.0530155 0.
0.64402 0.0530165 0.
0.646021 0.0530168 0.
0.648022 0.053017 0.
0.650023 0.0530171 0.
0.652024 0.0530173 0.
0.654024 0.0530174 0.
0.656024 0.0530176 0.
0.658025 0.0530181 0.
0.660026 0.0530186 0.
0.662027 0.0530188 0.
0.664028 0.0530187 0.
0.666029 0.0530186 0.
0.66803 0.0530184 0.
0.67003 0.0530183 0.
0.672031 0.0530182 0.
0.674032 0.0530185 0.
0.676033 0.0530187 0.
0.678033 0.053019 0.
0.680034 0.0530198 0.
0.682034 0.0530206 0.
0.684035 0.0530212 0.
0.686035 0.0530212 0.
0.688035 0.0530212 0.
0.690036 0.0530212 0.
0.692036 0.0530211 0.
0.694036 0.053021 0.
0.696036 0.0530214 0.
0.698037 0.0530218 0.
0.499967 0.0550253 0.
0.501967 0.0550247 0.
0.503967 0.0550243 0.
0.505967 0.055024 0.
0.507968 0.0550244 0.
0.509968 0.0550248 0.
0.511969 0.0550246 0.
0.513969 0.0550236 0.
0.51597 0.0550226 0.
0.51797 0.0550219 0.
0.519971 0.0550214 0.
0.521972 0.0550209 0.
0.523972 0.0550211 0.
0.525973 0.0550215 0.
0.527973 0.0550218 0.
0.529974 0.0550216 0.
0.531974 0.0550215 0.
0.533974 0.0550211 0.
0.535975 0.0550205 0.
0.537976 0.0550199 0.
0.539976 0.0550195 0.
0.541977 0.0550192 0.
0.543977 0.0550189 0.
0.545977 0.0550181 0.
0.547977 0.055017 0.
0.549977 0.055016 0.
0.551979 0.0550158 0.
0.55398 0.0550156 0.
0.555981 0.0550153 0.
0.557982 0.0550148 0.
0.559983 0.0550144 0.
0.561984 0.0550139 0.
0.563985 0.0550134 0.
0.565986 0.0550129 0.
0.567986 0.0550122 0.
0.569987 0.0550115 0.
0.571987 0.0550108 0.
0.573989 0.0550103 0.
0.575991 0.0550098 0.
0.577992 0.0550093 0.
0.579993 0.0550084 0.
0.581993 0.0550076 0.
0.583994 0.0550069 0.
0.585995 0.0550067 0.
0.587995 0.0550064 0.
0.589996 0.0550061 0.
0.591998 0.0550058 0.
0.593999 0.0550055 0.
0.596 0.0550053 0.
0.598001 0.0550051 0.
0.600002 0.0550049 0.
0.602003 0.0550059 0.
0.604004 0.0550068 0.
0.606005 0.0550076 0.
0.608006 0.0550079 0.
0.610007 0.0550082 0.
0.612008 0.0550083 0.
0.614008 0.0550083 0.
0.616009 0.0550083 0.
0.618009 0.0550088 0.
0.62001 0.0550094 0.
0.622011 0.0550101 0.
0.624012 0.0550101 0.
0.626012 0.0550102 0.
0.628013 0.0550103 0.
0.630015 0.0550114 0.
0.632016 0.0550125 0.
0.634017 0.0550133 0.
0.636018 0.0550133 0.
0.638019 0.0550134 0.
0.640019 0.055014 0.
0.64202 0.055015 0.
0.644021 0.0550161 0.
0.646022 0.0550166 0.
0.648023 0.055017 0.
0.650024 0.0550174 0.
0.652024 0.0550171 0.
0.654024 0.0550167 0.
0.656024 0.0550167 0.
0.658025 0.0550177 0.
0.660026 0.0550187 0.
0.662027 0.0550191 0.
0.664028 0.0550187 0.
0.666029 0.0550184 0.
0.66803 0.0550182 0.
0.67003 0.0550181 0.
0.672031 0.0550181 0.
0.674032 0.0550184 0.
0.676033 0.0550188 0.
0.678034 0.0550192 0.
0.680034 0.0550201 0.
0.682035 0.0550209 0.
0.684035 0.0550216 0.
0.686035 0.0550218 0.
0.688035 0.0550221 0.
0.690035 0.0550221 0.
0.692035 0.0550219 0.
0.694035 0.0550217 0.
0.696036 0.0550222 0.
0.698036 0.0550229 0.
0.499968 0.0570259 0.
0.501968 0.0570253 0.
0.503968 0.0570248 0.
0.505968 0.0570243 0.
0.507968 0.0570243 0.
0.509969 0.0570244 0.
0.51197 0.0570241 0.
0.51397 0.0570235 0.
0.515971 0.0570228 0.
0.517971 0.0570224 0.
0.519972 0.057022 0.
0.521972 0.0570216 0.
0.523973 0.0570219 0.
0.525973 0.0570222 0.
0.527974 0.0570225 0.
0.529974 0.057022 0.
0.531974 0.0570215 0.
0.533975 0.057021 0.
0.535975 0.0570205 0.
0.537976 0.05702 0.
0.539977 0.0570196 0.
0.541977 0.0570192 0.
0.543978 0.0570188 0.
0.545978 0.0570181 0.
0.547978 0.0570172 0.
0.549979 0.0570163 0.
0.551979 0.0570159 0.
0.55398 0.0570156 0.
0.555981 0.0570151 0.
0.557982 0.0570147 0.
0.559983 0.0570142 0.
0.561984 0.0570136 0.
0.563985 0.057013 0.
0.565986 0.0570124 0.
0.567987 0.0570117 0.
0.569988 0.057011 0.
0.571988 0.0570102 0.
0.57399 0.0570097 0.
0.575991 0.0570092 0.
0.577993 0.0570087 0.
0.579993 0.057008 0.
0.581994 0.0570074 0.
0.583995 0.0570068 0.
0.585995 0.0570063 0.
0.587996 0.0570057 0.
0.589997 0.0570053 0.
0.591998 0.0570051 0.
0.593999 0.0570049 0.
0.596 0.0570046 0.
0.598001 0.0570044 0.
0.600002 0.0570041 0.
0.602003 0.057005 0.
0.604004 0.057006 0.
0.606005 0.0570068 0.
0.608006 0.0570071 0.
0.610007 0.0570075 0.
0.612008 0.0570077 0.
0.614008 0.0570078 0.
0.616009 0.0570079 0.
0.61801 0.0570084 0.
0.62001 0.057009 0.
0.622011 0.0570097 0.
0.624012 0.0570101 0.
0.626013 0.0570104 0.
0.628014 0.0570108 0.
0.630014 0.0570114 0.
0.632015 0.057012 0.
0.634016 0.0570126 0.
0.636017 0.057013 0.
0.638018 0.0570135 0.
0.640019 0.0570141 0.
0.64202 0.0570149 0.
0.644021 0.0570156 0.
0.646022 0.0570162 0.
0.648023 0.0570166 0.
0.650024 0.0570171 0.
0.652024 0.0570171 0.
0.654025 0.057017 0.
0.656025 0.0570171 0.
0.658026 0.0570176 0.
0.660027 0.0570181 0.
0.662028 0.0570184 0.
0.664028 0.0570187 0.
0.666029 0.0570189 0.
0.66803 0.0570189 0.
0.67003 0.0570187 0.
0.672031 0.0570185 0.
0.674031 0.0570187 0.
0.676032 0.0570189 0.
0.678033 0.0570192 0.
0.680033 0.0570201 0.
0.682034 0.0570209 0.
0.684034 0.0570216 0.
0.686035 0.0570219 0.
0.688035 0.0570222 0.
0.690036 0.0570224 0.
0.692036 0.0570226 0.
0.694036 0.0570227 0.
0.696036 0.0570233 0.
0.698037 0.0570239 0.
0.499968 0.0590267 0.
0.501968 0.059026 0.
0.503969 0.0590253 0.
0.505969 0.0590246 0.
0.507969 0.0590243 0.
0.50997 0.059024 0.
0.51197 0.0590237 0.
0.513971 0.0590234 0.
0.515972 0.0590231 0.
0.517972 0.0590229 0.
0.519972 0.0590226 0.
0.521973 0.0590224 0.
0.523973 0.0590226 0.
0.525973 0.0590229 0.
0.527974 0.0590231 0.
0.529974 0.0590224 0.
0.531975 0.0590216 0.
0.533975 0.0590209 0.
0.535976 0.0590205 0.
0.537976 0.0590201 0.
0.539977 0.0590197 0.
0.541978 0.0590192 0.
0.543979 0.0590188 0.
0.545979 0.0590181 0.
0.54798 0.0590174 0.
0.54998 0.0590166 0.
0.55198 0.0590161 0.
0.553981 0.0590156 0.
0.555981 0.059015 0.
0.557983 0.0590145 0.
0.559984 0.0590139 0.
0.561985 0.0590133 0.
0.563986 0.0590126 0.
0.565987 0.059012 0.
0.567988 0.0590112 0.
0.569988 0.0590104 0.
0.571989 0.0590096 0.
0.57399 0.059009 0.
0.575992 0.0590085 0.
0.577993 0.059008 0.
0.579994 0.0590076 0.
0.581995 0.0590072 0.
0.583995 0.0590067 0.
0.585996 0.0590058 0.
0.587997 0.059005 0.
0.589997 0.0590046 0.
0.591998 0.0590044 0.
0.593999 0.0590043 0.
0.596 0.059004 0.
0.598 0.0590036 0.
0.600001 0.0590032 0.
0.602003 0.0590041 0.
0.604004 0.0590051 0.
0.606006 0.0590059 0.
0.608006 0.0590064 0.
0.610007 0.0590068 0.
0.612008 0.0590071 0.
0.614009 0.0590073 0.
0.616009 0.0590075 0.
0.61801 0.059008 0.
0.62001 0.0590086 0.
0.622011 0.0590093 0.
0.624012 0.05901 0.
0.626013 0.0590107 0.
0.628014 0.0590113 0.
0.630014 0.0590114 0.
0.632015 0.0590115 0.
0.634015 0.0590119 0.
0.636017 0.0590128 0.
0.638018 0.0590137 0.
0.640019 0.0590143 0.
0.64202 0.0590147 0.
0.644021 0.0590151 0.
0.646022 0.0590157 0.
0.648023 0.0590163 0.
0.650024 0.0590168 0.
0.652025 0.059017 0.
0.654026 0.0590172 0.
0.656027 0.0590174 0.
0.658027 0.0590174 0.
0.660028 0.0590174 0.
0.662028 0.0590178 0.
0.664029 0.0590186 0.
0.666029 0.0590194 0.
0.668029 0.0590195 0.
0.67003 0.0590192 0.
0.67203 0.0590189 0.
0.674031 0.059019 0.
0.676031 0.059019 0.
0.678032 0.0590192 0.
0.680032 0.0590201 0.
0.682032 0.059021 0.
0.684033 0.0590217 0.
0.686034 0.059022 0.
0.688035 0.0590223 0.
0.690036 0.0590227 0.
0.692036 0.0590232 0.
0.694036 0.0590237 0.
0.696037 0.0590243 0.
0.698037 0.059025 0.
0.499969 0.0610269 0.
0.501969 0.0610262 0.
0.50397 0.0610254 0.
0.50597 0.0610247 0.
0.50797 0.0610243 0.
0.50997 0.0610239 0.
0.511971 0.0610236 0.
0.513972 0.0610235 0.
0.515972 0.0610234 0.
0.517973 0.0610232 0.
0.519973 0.0610231 0.
0.521973 0.0610229 0.
0.523973 0.0610231 0.
0.525974 0.0610233 0.
0.527974 0.0610234 0.
0.529975 0.0610226 0.
0.531975 0.0610217 0.
0.533975 0.061021 0.
0.535976 0.0610206 0.
0.537976 0.0610202 0.
0.539977 0.0610198 0.
0.541978 0.0610194 0.
0.543979 0.061019 0.
0.545979 0.0610183 0.
0.54798 0.0610174 0.
0.54998 0.0610166 0.
0.551981 0.0610161 0.
0.553981 0.0610156 0.
0.555982 0.061015 0.
0.557983 0.0610142 0.
0.559984 0.0610135 0.
0.561985 0.0610128 0.
0.563986 0.0610122 0.
0.565987 0.0610115 0.
0.567988 0.0610107 0.
0.569988 0.0610099 0.
0.571989 0.061009 0.
0.57399 0.0610085 0.
0.575992 0.061008 0.
0.577993 0.0610076 0.
0.579994 0.0610072 0.
0.581995 0.0610069 0.
0.583995 0.0610064 0.
0.585996 0.0610054 0.
0.587997 0.0610045 0.
0.589998 0.0610041 0.
0.591998 0.061004 0.
0.593999 0.0610039 0.
0.595999 0.0610035 0.
0.598 0.061003 0.
0.600001 0.0610024 0.
0.602003 0.0610034 0.
0.604004 0.0610043 0.
0.606006 0.0610051 0.
0.608006 0.0610057 0.
0.610007 0.0610062 0.
0.612008 0.0610067 0.
0.614009 0.061007 0.
0.616009 0.0610073 0.
0.61801 0.0610078 0.
0.62001 0.0610084 0.
0.622011 0.061009 0.
0.624012 0.0610097 0.
0.626013 0.0610105 0.
0.628014 0.0610111 0.
0.630015 0.0610112 0.
0.632015 0.0610112 0.
0.634016 0.0610116 0.
0.636017 0.0610126 0.
0.638017 0.0610137 0.
0.640018 0.0610143 0.
0.642019 0.0610145 0.
0.644021 0.0610148 0.
0.646022 0.0610153 0.
0.648023 0.0610159 0.
0.650024 0.0610165 0.
0.652025 0.0610168 0.
0.654026 0.061017 0.
0.656027 0.0610172 0.
0.658027 0.0610172 0.
0.660028 0.0610171 0.
0.662028 0.0610175 0.
0.664028 0.0610186 0.
0.666028 0.0610196 0.
0.668029 0.0610198 0.
0.670029 0.0610195 0.
0.67203 0.0610192 0.
0.67403 0.0610193 0.
0.676031 0.0610194 0.
0.678031 0.0610196 0.
0.680031 0.0610205 0.
0.682032 0.0610213 0.
0.684033 0.0610219 0.
0.686034 0.0610223 0.
0.688035 0.0610226 0.
0.690035 0.0610232 0.
0.692036 0.0610239 0.
0.694036 0.0610247 0.
0.696036 0.0610255 0.
0.698036 0.0610263 0.
0.499971 0.0630266 0.
0.501971 0.0630258 0.
0.503971 0.0630252 0.
0.505971 0.0630247 0.
0.507971 0.0630244 0.
0.509971 0.0630241 0.
0.511972 0.0630239 0.
0.513972 0.0630238 0.
0.515973 0.0630237 0.
0.517973 0.0630235 0.
0.519973 0.0630233 0.
0.521973 0.0630231 0.
0.523973 0.0630232 0.
0.525974 0.0630232 0.
0.527974 0.0630232 0.
0.529975 0.0630226 0.
0.531975 0.0630219 0.
0.533976 0.0630213 0.
0.535976 0.0630208 0.
0.537977 0.0630203 0.
0.539977 0.06302 0.
0.541978 0.0630197 0.
0.543978 0.0630195 0.
0.545979 0.0630185 0.
0.547979 0.0630174 0.
0.54998 0.0630162 0.
0.551981 0.0630159 0.
0.553981 0.0630156 0.
0.555982 0.0630151 0.
0.557983 0.063014 0.
0.559984 0.063013 0.
0.561985 0.0630121 0.
0.563986 0.0630116 0.
0.565987 0.0630111 0.
0.567987 0.0630103 0.
0.569988 0.0630094 0.
0.571989 0.0630085 0.
0.57399 0.0630081 0.
0.575991 0.0630077 0.
0.577992 0.0630074 0.
0.579993 0.0630069 0.
0.581994 0.0630065 0.
0.583995 0.0630059 0.
0.585996 0.0630051 0.
0.587996 0.0630042 0.
0.589997 0.0630038 0.
0.591998 0.0630038 0.
0.593999 0.0630037 0.
0.596 0.0630032 0.
0.598 0.0630025 0.
0.600001 0.0630018 0.
0.602003 0.0630027 0.
0.604004 0.0630036 0.
0.606006 0.0630044 0.
0.608006 0.0630051 0.
0.610007 0.0630058 0.
0.612008 0.0630064 0.
0.614008 0.0630069 0.
0.616009 0.0630074 0.
0.61801 0.0630079 0.
0.62001 0.0630084 0.
0.622011 0.0630089 0.
0.624012 0.0630094 0.
0.626013 0.0630099 0.
0.628015 0.0630104 0.
0.630015 0.0630108 0.
0.632016 0.0630113 0.
0.634017 0.0630118 0.
0.636017 0.0630127 0.
0.638018 0.0630136 0.
0.640019 0.0630141 0.
0.642019 0.0630143 0.
0.64402 0.0630146 0.
0.646021 0.063015 0.
0.648022 0.0630155 0.
0.650023 0.0630161 0.
0.652024 0.0630162 0.
0.654025 0.0630164 0.
0.656026 0.0630166 0.
0.658027 0.0630169 0.
0.660027 0.0630171 0.
0.662028 0.0630177 0.
0.664028 0.0630186 0.
0.666028 0.0630195 0.
0.668028 0.0630197 0.
0.670029 0.0630196 0.
0.672029 0.0630194 0.
0.67403 0.0630197 0.
0.67603 0.06302 0.
0.67803 0.0630204 0.
0.680031 0.0630212 0.
0.682032 0.0630219 0.
0.684033 0.0630225 0.
0.686033 0.0630227 0.
0.688034 0.063023 0.
0.690034 0.0630237 0.
0.692035 0.0630247 0.
0.694035 0.0630257 0.
0.696035 0.0630267 0.
0.698035 0.0630277 0.
0.499973 0.0650259 0.
0.501973 0.0650255 0.
0.503973 0.065025 0.
0.505972 0.0650247 0.
0.507972 0.0650245 0.
0.509972 0.0650243 0.
0.511972 0.0650242 0.
0.513973 0.0650241 0.
0.515973 0.065024 0.
0.517973 0.0650238 0.
0.519973 0.0650236 0.
0.521973 0.0650234 0.
0.523973 0.0650233 0.
0.525974 0.0650232 0.
0.527975 0.065023 0.
0.529975 0.0650226 0.
0.531976 0.0650221 0.
0.533976 0.0650216 0.
0.535976 0.065021 0.
0.537977 0.0650204 0.
0.539977 0.0650201 0.
0.541977 0.0650201 0.
0.543977 0.06502 0.
0.545978 0.0650188 0.
0.547979 0.0650173 0.
0.549979 0.0650158 0.
0.551981 0.0650157 0.
0.553982 0.0650156 0.
0.555983 0.0650151 0.
0.557983 0.0650138 0.
0.559984 0.0650124 0.
0.561985 0.0650115 0.
0.563986 0.0650111 0.
0.565986 0.0650107 0.
0.567987 0.0650099 0.
0.569988 0.0650089 0.
0.571989 0.0650079 0.
0.57399 0.0650076 0.
0.57599 0.0650074 0.
0.577991 0.0650072 0.
0.579992 0.0650066 0.
0.581993 0.065006 0.
0.583994 0.0650054 0.
0.585995 0.0650047 0.
0.587996 0.065004 0.
0.589997 0.0650036 0.
0.591998 0.0650036 0.
0.593999 0.0650035 0.
0.596 0.0650029 0.
0.598 0.0650021 0.
0.600001 0.0650012 0.
0.602003 0.0650021 0.
0.604004 0.0650029 0.
0.606006 0.0650037 0.
0.608006 0.0650045 0.
0.610007 0.0650053 0.
0.612008 0.0650061 0.
0.614008 0.0650068 0.
0.616009 0.0650076 0.
0.61801 0.0650081 0.
0.62001 0.0650084 0.
0.622011 0.0650088 0.
0.624013 0.065009 0.
0.626014 0.0650093 0.
0.628015 0.0650096 0.
0.630016 0.0650105 0.
0.632017 0.0650113 0.
0.634018 0.0650121 0.
0.636018 0.0650128 0.
0.638018 0.0650135 0.
0.640019 0.0650139 0.
0.642019 0.0650141 0.
0.64402 0.0650143 0.
0.646021 0.0650147 0.
0.648022 0.0650152 0.
0.650023 0.0650156 0.
0.652024 0.0650157 0.
0.654025 0.0650158 0.
0.656025 0.065016 0.
0.658026 0.0650166 0.
0.660027 0.0650172 0.
0.662027 0.0650179 0.
0.664027 0.0650186 0.
0.666027 0.0650194 0.
0.668028 0.0650196 0.
0.670028 0.0650196 0.
0.672028 0.0650196 0.
0.674029 0.0650201 0.
0.676029 0.0650206 0.
0.67803 0.0650212 0.
0.680031 0.0650219 0.
0.682032 0.0650226 0.
0.684033 0.0650231 0.
0.686033 0.0650232 0.
0.688033 0.0650234 0.
0.690033 0.0650242 0.
0.692034 0.0650255 0.
0.694035 0.0650268 0.
0.696034 0.065028 0.
0.698033 0.0650292 0.
0.499972 0.0670265 0.
0.501972 0.067026 0.
0.503972 0.0670255 0.
0.505972 0.0670251 0.
0.507973 0.0670249 0.
0.509973 0.0670248 0.
0.511973 0.0670246 0.
0.513973 0.0670244 0.
0.515973 0.0670242 0.
0.517973 0.0670239 0.
0.519973 0.0670237 0.
0.521974 0.0670234 0.
0.523974 0.0670232 0.
0.525975 0.067023 0.
0.527976 0.0670227 0.
0.529976 0.0670225 0.
0.531976 0.0670223 0.
0.533976 0.0670219 0.
0.535977 0.0670212 0.
0.537977 0.0670204 0.
0.539978 0.06702 0.
0.541978 0.0670197 0.
0.543978 0.0670194 0.
0.545979 0.0670185 0.
0.547979 0.0670175 0.
0.54998 0.0670164 0.
0.551981 0.0670159 0.
0.553982 0.0670154 0.
0.555983 0.0670146 0.
0.557983 0.0670132 0.
0.559984 0.0670117 0.
0.561985 0.0670108 0.
0.563985 0.0670107 0.
0.565986 0.0670105 0.
0.567987 0.0670097 0.
0.569988 0.0670086 0.
0.571989 0.0670075 0.
0.57399 0.0670073 0.
0.57599 0.0670072 0.
0.577991 0.067007 0.
0.579992 0.0670065 0.
0.581993 0.0670059 0.
0.583994 0.0670053 0.
0.585995 0.0670045 0.
0.587996 0.0670038 0.
0.589997 0.0670034 0.
0.591998 0.0670033 0.
0.593999 0.0670033 0.
0.596 0.0670026 0.
0.598001 0.0670017 0.
0.600002 0.0670008 0.
0.602003 0.0670018 0.
0.604004 0.0670029 0.
0.606005 0.0670039 0.
0.608006 0.0670045 0.
0.610006 0.0670051 0.
0.612007 0.0670057 0.
0.614007 0.0670062 0.
0.616008 0.0670067 0.
0.618009 0.067007 0.
0.62001 0.0670073 0.
0.622011 0.0670075 0.
0.624012 0.0670081 0.
0.626014 0.0670088 0.
0.628015 0.0670095 0.
0.630016 0.0670103 0.
0.632017 0.067011 0.
0.634018 0.0670117 0.
0.636018 0.0670124 0.
0.638019 0.0670131 0.
0.640019 0.0670136 0.
0.64202 0.0670137 0.
0.64402 0.0670139 0.
0.646021 0.0670144 0.
0.648021 0.0670151 0.
0.650022 0.0670157 0.
0.652023 0.0670157 0.
0.654023 0.0670158 0.
0.656024 0.0670159 0.
0.658025 0.0670166 0.
0.660025 0.0670173 0.
0.662026 0.067018 0.
0.664026 0.0670186 0.
0.666027 0.0670193 0.
0.668027 0.0670197 0.
0.670027 0.06702 0.
0.672028 0.0670202 0.
0.674029 0.0670206 0.
0.676029 0.067021 0.
0.67803 0.0670214 0.
0.68003 0.0670221 0.
0.682031 0.0670228 0.
0.684031 0.0670233 0.
0.686032 0.0670237 0.
0.688032 0.0670241 0.
0.690032 0.0670249 0.
0.692032 0.0670262 0.
0.694033 0.0670274 0.
0.696033 0.0670284 0.
0.698032 0.0670293 0.
0.499972 0.0690271 0.
0.501972 0.0690265 0.
0.503972 0.0690259 0.
0.505973 0.0690254 0.
0.507973 0.0690253 0.
0.509973 0.0690252 0.
0.511973 0.069025 0.
0.513974 0.0690247 0.
0.515974 0.0690244 0.
0.517974 0.0690241 0.
0.519974 0.0690238 0.
0.521974 0.0690234 0.
0.523975 0.0690231 0.
0.525976 0.0690227 0.
0.527977 0.0690224 0.
0.529977 0.0690224 0.
0.531977 0.0690224 0.
0.533977 0.0690222 0.
0.535977 0.0690213 0.
0.537977 0.0690205 0.
0.539978 0.0690198 0.
0.541979 0.0690193 0.
0.543979 0.0690189 0.
0.54598 0.0690182 0.
0.54798 0.0690176 0.
0.54998 0.069017 0.
0.551981 0.0690161 0.
0.553982 0.0690152 0.
0.555982 0.0690141 0.
0.557983 0.0690126 0.
0.559984 0.069011 0.
0.561985 0.0690101 0.
0.563985 0.0690102 0.
0.565986 0.0690103 0.
0.567987 0.0690095 0.
0.569988 0.0690083 0.
0.571989 0.069007 0.
0.57399 0.0690069 0.
0.575991 0.0690069 0.
0.577991 0.0690069 0.
0.579992 0.0690064 0.
0.581993 0.0690058 0.
0.583994 0.0690052 0.
0.585995 0.0690044 0.
0.587997 0.0690035 0.
0.589998 0.0690032 0.
0.591999 0.0690031 0.
0.593999 0.0690031 0.
0.596 0.0690023 0.
0.598001 0.0690013 0.
0.600002 0.0690003 0.
0.602003 0.0690016 0.
0.604004 0.0690029 0.
0.606005 0.069004 0.
0.608005 0.0690044 0.
0.610005 0.0690049 0.
0.612006 0.0690052 0.
0.614006 0.0690055 0.
0.616007 0.0690058 0.
0.618008 0.069006 0.
0.620009 0.0690061 0.
0.622011 0.0690062 0.
0.624012 0.0690073 0.
0.626014 0.0690084 0.
0.628015 0.0690094 0.
0.630016 0.0690101 0.
0.632017 0.0690107 0.
0.634018 0.0690113 0.
0.636019 0.069012 0.
0.638019 0.0690128 0.
0.64002 0.0690132 0.
0.64202 0.0690133 0.
0.64402 0.0690135 0.
0.64602 0.0690141 0.
0.648021 0.069015 0.
0.650021 0.0690158 0.
0.652021 0.0690158 0.
0.654022 0.0690157 0.
0.656022 0.0690158 0.
0.658023 0.0690166 0.
0.660024 0.0690174 0.
0.662025 0.0690181 0.
0.664026 0.0690187 0.
0.666026 0.0690193 0.
0.668027 0.0690198 0.
0.670027 0.0690203 0.
0.672027 0.0690209 0.
0.674028 0.0690211 0.
0.676029 0.0690214 0.
0.67803 0.0690216 0.
0.68003 0.0690223 0.
0.68203 0.069023 0.
0.68403 0.0690236 0.
0.68603 0.0690242 0.
0.688031 0.0690248 0.
0.690031 0.0690257 0.
0.692031 0.0690268 0.
0.694031 0.069028 0.
0.696032 0.0690287 0.
0.698032 0.0690294 0.
0.499973 0.0710277 0.
0.501972 0.0710271 0.
0.503973 0.0710265 0.
0.505973 0.071026 0.
0.507973 0.0710258 0.
0.509974 0.0710255 0.
0.511974 0.0710253 0.
0.513974 0.071025 0.
0.515974 0.0710247 0.
0.517975 0.0710244 0.
0.519975 0.0710242 0.
0.521975 0.0710239 0.
0.523976 0.0710235 0.
0.525977 0.0710229 0.
0.527977 0.0710225 0.
0.529977 0.0710225 0.
0.531977 0.0710225 0.
0.533977 0.0710222 0.
0.535978 0.0710212 0.
0.537978 0.0710203 0.
0.539979 0.0710196 0.
0.541979 0.0710191 0.
0.54398 0.0710185 0.
0.54598 0.0710181 0.
0.547981 0.0710178 0.
0.549981 0.0710174 0.
0.551982 0.0710162 0.
0.553982 0.071015 0.
0.555983 0.0710137 0.
0.557983 0.0710122 0.
0.559984 0.0710108 0.
0.561985 0.07101 0.
0.563985 0.0710099 0.
0.565986 0.0710099 0.
0.567987 0.0710091 0.
0.569988 0.0710079 0.
0.571988 0.0710067 0.
0.57399 0.0710067 0.
0.575991 0.0710067 0.
0.577992 0.0710067 0.
0.579992 0.071006 0.
0.581993 0.0710053 0.
0.583994 0.0710046 0.
0.585995 0.071004 0.
0.587997 0.0710033 0.
0.589998 0.071003 0.
0.591999 0.0710028 0.
0.594 0.0710027 0.
0.596 0.071002 0.
0.598001 0.0710011 0.
0.600002 0.0710002 0.
0.602003 0.0710015 0.
0.604004 0.0710027 0.
0.606004 0.0710037 0.
0.608005 0.071004 0.
0.610005 0.0710043 0.
0.612006 0.0710046 0.
0.614006 0.0710048 0.
0.616007 0.0710051 0.
0.618008 0.0710052 0.
0.620009 0.0710053 0.
0.622011 0.0710054 0.
0.624012 0.0710065 0.
0.626014 0.0710077 0.
0.628015 0.0710089 0.
0.630016 0.0710095 0.
0.632017 0.0710102 0.
0.634018 0.0710108 0.
0.636018 0.0710115 0.
0.638019 0.0710121 0.
0.64002 0.0710126 0.
0.64202 0.0710129 0.
0.64402 0.0710133 0.
0.64602 0.071014 0.
0.648021 0.0710149 0.
0.650021 0.0710157 0.
0.652021 0.0710157 0.
0.654021 0.0710157 0.
0.656021 0.0710159 0.
0.658022 0.0710166 0.
0.660024 0.0710173 0.
0.662024 0.071018 0.
0.664025 0.0710186 0.
0.666026 0.0710192 0.
0.668026 0.0710198 0.
0.670027 0.0710205 0.
0.672027 0.0710211 0.
0.674028 0.0710215 0.
0.676028 0.0710219 0.
0.678029 0.0710223 0.
0.680029 0.0710228 0.
0.682029 0.0710232 0.
0.684029 0.0710237 0.
0.686029 0.0710244 0.
0.688029 0.0710251 0.
0.69003 0.0710261 0.
0.69203 0.0710273 0.
0.69403 0.0710285 0.
0.696031 0.0710292 0.
0.698031 0.0710298 0.
0.499973 0.0730284 0.
0.501973 0.0730279 0.
0.503973 0.0730273 0.
0.505974 0.0730267 0.
0.507974 0.0730263 0.
0.509974 0.0730258 0.
0.511974 0.0730254 0.
0.513975 0.0730252 0.
0.515975 0.0730249 0.
0.517975 0.0730248 0.
0.519975 0.0730248 0.
0.521975 0.0730248 0.
0.523976 0.0730242 0.
0.525977 0.0730235 0.
0.527977 0.0730229 0.
0.529977 0.0730226 0.
0.531978 0.0730224 0.
0.533978 0.0730219 0.
0.535979 0.0730209 0.
0.537979 0.07302 0.
0.53998 0.0730193 0.
0.54198 0.0730188 0.
0.543981 0.0730184 0.
0.545981 0.0730181 0.
0.547981 0.0730179 0.
0.549982 0.0730177 0.
0.551982 0.0730162 0.
0.553983 0.0730147 0.
0.555983 0.0730133 0.
0.557984 0.0730122 0.
0.559984 0.0730112 0.
0.561985 0.0730103 0.
0.563985 0.0730097 0.
0.565986 0.0730091 0.
0.567987 0.0730083 0.
0.569988 0.0730075 0.
0.571988 0.0730066 0.
0.57399 0.0730065 0.
0.575991 0.0730065 0.
0.577992 0.0730065 0.
0.579993 0.0730054 0.
0.581994 0.0730044 0.
0.583995 0.0730036 0.
0.585996 0.0730034 0.
0.587997 0.0730031 0.
0.589998 0.0730028 0.
0.591999 0.0730026 0.
0.594 0.0730023 0.
0.596001 0.0730018 0.
0.598001 0.0730012 0.
0.600002 0.0730006 0.
0.602003 0.0730015 0.
0.604004 0.0730024 0.
0.606004 0.0730032 0.
0.608005 0.0730034 0.
0.610005 0.0730035 0.
0.612006 0.0730037 0.
0.614006 0.0730042 0.
0.616007 0.0730046 0.
0.618008 0.0730048 0.
0.620009 0.0730049 0.
0.622011 0.073005 0.
0.624012 0.0730059 0.
0.626013 0.0730069 0.
0.628015 0.0730079 0.
0.630016 0.0730087 0.
0.632016 0.0730095 0.
0.634017 0.0730102 0.
0.636018 0.0730107 0.
0.638018 0.0730111 0.
0.640019 0.0730118 0.
0.642019 0.0730126 0.
0.64402 0.0730134 0.
0.64602 0.0730141 0.
0.648021 0.0730148 0.
0.650021 0.0730155 0.
0.652021 0.0730156 0.
0.654021 0.0730158 0.
0.656022 0.0730161 0.
0.658023 0.0730167 0.
0.660024 0.0730173 0.
0.662024 0.0730179 0.
0.664025 0.0730185 0.
0.666025 0.0730191 0.
0.668026 0.0730198 0.
0.670026 0.0730204 0.
0.672027 0.0730211 0.
0.674027 0.0730219 0.
0.676028 0.0730227 0.
0.678028 0.0730234 0.
0.680028 0.0730234 0.
0.682028 0.0730235 0.
0.684028 0.0730237 0.
0.686028 0.0730244 0.
0.688028 0.0730251 0.
0.690028 0.0730262 0.
0.692029 0.0730276 0.
0.694029 0.073029 0.
0.69603 0.0730299 0.
0.69803 0.0730306 0.
0.499974 0.0750294 0.
0.501974 0.0750286 0.
0.503974 0.0750281 0.
0.505974 0.0750275 0.
0.507974 0.0750268 0.
0.509974 0.0750261 0.
0.511975 0.0750256 0.
0.513975 0.0750254 0.
0.515975 0.0750252 0.
0.517976 0.0750253 0.
0.519976 0.0750255 0.
0.521976 0.0750257 0.
0.523976 0.075025 0.
0.525976 0.0750241 0.
0.527977 0.0750233 0.
0.529977 0.0750228 0.
0.531978 0.0750223 0.
0.533979 0.0750217 0.
0.535979 0.0750206 0.
0.53798 0.0750196 0.
0.539981 0.075019 0.
0.541981 0.0750186 0.
0.543981 0.0750183 0.
0.545982 0.0750181 0.
0.547982 0.075018 0.
0.549983 0.0750179 0.
0.551983 0.0750162 0.
0.553984 0.0750145 0.
0.555984 0.075013 0.
0.557984 0.0750122 0.
0.559984 0.0750115 0.
0.561985 0.0750106 0.
0.563986 0.0750095 0.
0.565986 0.0750084 0.
0.567987 0.0750076 0.
0.569988 0.075007 0.
0.571988 0.0750064 0.
0.57399 0.0750064 0.
0.575991 0.0750064 0.
0.577993 0.0750062 0.
0.579994 0.0750049 0.
0.581995 0.0750035 0.
0.583996 0.0750026 0.
0.585996 0.0750027 0.
0.587997 0.0750029 0.
0.589998 0.0750027 0.
0.591999 0.0750023 0.
0.594 0.0750019 0.
0.596001 0.0750016 0.
0.598001 0.0750012 0.
0.600002 0.0750009 0.
0.602003 0.0750015 0.
0.604003 0.0750022 0.
0.606004 0.0750027 0.
0.608005 0.0750027 0.
0.610005 0.0750026 0.
0.612006 0.0750029 0.
0.614007 0.0750035 0.
0.616008 0.075004 0.
0.618009 0.0750043 0.
0.62001 0.0750045 0.
0.622011 0.0750046 0.
0.624012 0.0750053 0.
0.626013 0.0750061 0.
0.628015 0.0750069 0.
0.630015 0.0750079 0.
0.632016 0.0750088 0.
0.634017 0.0750096 0.
0.636017 0.0750099 0.
0.638018 0.0750102 0.
0.640018 0.075011 0.
0.642019 0.0750122 0.
0.64402 0.0750135 0.
0.64602 0.0750142 0.
0.648021 0.0750147 0.
0.650021 0.0750152 0.
0.652021 0.0750156 0.
0.654022 0.0750159 0.
0.656022 0.0750163 0.
0.658023 0.0750168 0.
0.660024 0.0750172 0.
0.662024 0.0750178 0.
0.664025 0.0750184 0.
0.666025 0.0750191 0.
0.668025 0.0750197 0.
0.670026 0.0750204 0.
0.672026 0.075021 0.
0.674027 0.0750222 0.
0.676027 0.0750234 0.
0.678027 0.0750244 0.
0.680027 0.0750241 0.
0.682027 0.0750238 0.
0.684027 0.0750238 0.
0.686027 0.0750244 0.
0.688027 0.0750251 0.
0.690027 0.0750263 0.
0.692028 0.0750279 0.
0.694029 0.0750295 0.
0.696028 0.0750305 0.
0.698028 0.0750314 0.
0.499975 0.077029 0.
0.501975 0.0770286 0.
0.503975 0.0770283 0.
0.505975 0.0770279 0.
0.507975 0.0770273 0.
0.509975 0.0770267 0.
0.511975 0.0770262 0.
0.513976 0.0770258 0.
0.515976 0.0770254 0.
0.517976 0.0770254 0.
0.519976 0.0770255 0.
0.521976 0.0770256 0.
0.523977 0.0770248 0.
0.525977 0.077024 0.
0.527978 0.0770231 0.
0.529978 0.0770226 0.
0.531979 0.0770221 0.
0.533979 0.0770214 0.
0.53598 0.0770206 0.
0.53798 0.0770198 0.
0.539981 0.0770192 0.
0.541981 0.0770188 0.
0.543981 0.0770183 0.
0.545982 0.0770181 0.
0.547982 0.077018 0.
0.549983 0.0770178 0.
0.551984 0.0770165 0.
0.553984 0.0770152 0.
0.555985 0.0770139 0.
0.557985 0.0770127 0.
0.559985 0.0770115 0.
0.561986 0.0770103 0.
0.563986 0.0770092 0.
0.565987 0.0770081 0.
0.567988 0.0770074 0.
0.569988 0.0770067 0.
0.571989 0.0770061 0.
0.57399 0.077006 0.
0.575991 0.077006 0.
0.577992 0.0770058 0.
0.579994 0.0770045 0.
0.581995 0.0770032 0.
0.583996 0.0770023 0.
0.585996 0.0770023 0.
0.587997 0.0770023 0.
0.589998 0.0770022 0.
0.591999 0.0770019 0.
0.594 0.0770016 0.
0.596001 0.0770013 0.
0.598001 0.0770011 0.
0.600001 0.0770009 0.
0.602002 0.0770013 0.
0.604004 0.0770017 0.
0.606005 0.0770021 0.
0.608005 0.0770023 0.
0.610005 0.0770025 0.
0.612006 0.0770028 0.
0.614007 0.0770032 0.
0.616007 0.0770036 0.
0.618008 0.0770039 0.
0.620009 0.0770041 0.
0.62201 0.0770044 0.
0.624011 0.077005 0.
0.626013 0.0770057 0.
0.628014 0.0770065 0.
0.630014 0.0770076 0.
0.632015 0.0770088 0.
0.634016 0.0770096 0.
0.636016 0.0770098 0.
0.638017 0.0770099 0.
0.640017 0.0770107 0.
0.642018 0.0770119 0.
0.644019 0.0770131 0.
0.646019 0.0770138 0.
0.64802 0.0770145 0.
0.650021 0.0770151 0.
0.652021 0.0770154 0.
0.654021 0.0770157 0.
0.656022 0.0770161 0.
0.658022 0.0770169 0.
0.660023 0.0770177 0.
0.662023 0.0770183 0.
0.664024 0.0770187 0.
0.666024 0.0770192 0.
0.668025 0.0770199 0.
0.670025 0.0770209 0.
0.672026 0.0770218 0.
0.674026 0.0770227 0.
0.676026 0.0770236 0.
0.678026 0.0770244 0.
0.680026 0.0770243 0.
0.682026 0.0770242 0.
0.684026 0.0770244 0.
0.686026 0.0770252 0.
0.688026 0.0770259 0.
0.690026 0.077027 0.
0.692027 0.0770282 0.
0.694027 0.0770295 0.
0.696027 0.0770303 0.
0.698027 0.077031 0.
0.499976 0.0790288 0.
0.501976 0.0790287 0.
0.503976 0.0790285 0.
0.505976 0.0790283 0.
0.507976 0.0790278 0.
0.509976 0.0790273 0.
0.511976 0.0790267 0.
0.513976 0.0790262 0.
0.515976 0.0790257 0.
0.517976 0.0790254 0.
0.519977 0.0790254 0.
0.521977 0.0790254 0.
0.523977 0.0790246 0.
0.525978 0.0790238 0.
0.527978 0.079023 0.
0.529979 0.0790224 0.
0.531979 0.0790218 0.
0.53398 0.0790212 0.
0.53598 0.0790206 0.
0.53798 0.07902 0.
0.53998 0.0790194 0.
0.541981 0.0790189 0.
0.543981 0.0790184 0.
0.545982 0.0790182 0.
0.547983 0.0790179 0.
0.549984 0.0790177 0.
0.551984 0.0790168 0.
0.553985 0.0790159 0.
0.555985 0.0790148 0.
0.557986 0.0790132 0.
0.559986 0.0790115 0.
0.561987 0.0790101 0.
0.563987 0.079009 0.
0.565988 0.0790079 0.
0.567988 0.0790071 0.
0.569989 0.0790064 0.
0.57199 0.0790058 0.
0.573991 0.0790057 0.
0.575991 0.0790056 0.
0.577992 0.0790054 0.
0.579994 0.0790041 0.
0.581995 0.0790029 0.
0.583996 0.079002 0.
0.585996 0.0790019 0.
0.587997 0.0790018 0.
0.589998 0.0790017 0.
0.591999 0.0790014 0.
0.594 0.0790012 0.
0.596001 0.0790011 0.
0.598001 0.079001 0.
0.600001 0.0790009 0.
0.602002 0.0790011 0.
0.604004 0.0790013 0.
0.606005 0.0790015 0.
0.608005 0.0790019 0.
0.610005 0.0790023 0.
0.612006 0.0790026 0.
0.614006 0.0790029 0.
0.616007 0.0790032 0.
0.618008 0.0790035 0.
0.620009 0.0790038 0.
0.62201 0.0790041 0.
0.624011 0.0790047 0.
0.626012 0.0790054 0.
0.628013 0.0790061 0.
0.630014 0.0790074 0.
0.632014 0.0790087 0.
0.634015 0.0790096 0.
0.636015 0.0790096 0.
0.638016 0.0790097 0.
0.640016 0.0790104 0.
0.642017 0.0790115 0.
0.644018 0.0790127 0.
0.646018 0.0790135 0.
0.648019 0.0790143 0.
0.65002 0.079015 0.
0.652021 0.0790153 0.
0.654021 0.0790155 0.
0.656021 0.0790159 0.
0.658021 0.079017 0.
0.660022 0.0790181 0.
0.662022 0.0790188 0.
0.664022 0.079019 0.
0.666023 0.0790192 0.
0.668024 0.0790201 0.
0.670024 0.0790213 0.
0.672025 0.0790226 0.
0.674025 0.0790232 0.
0.676025 0.0790238 0.
0.678025 0.0790243 0.
0.680025 0.0790245 0.
0.682025 0.0790247 0.
0.684025 0.0790251 0.
0.686025 0.0790259 0.
0.688025 0.0790268 0.
0.690025 0.0790276 0.
0.692025 0.0790286 0.
0.694025 0.0790296 0.
0.696026 0.0790302 0.
0.698026 0.0790307 0.
0.499977 0.0810291 0.
0.501976 0.0810288 0.
0.503976 0.0810286 0.
0.505976 0.0810284 0.
0.507977 0.081028 0.
0.509977 0.0810276 0.
0.511977 0.0810271 0.
0.513977 0.0810265 0.
0.515977 0.0810259 0.
0.517977 0.0810257 0.
0.519977 0.0810255 0.
0.521978 0.0810254 0.
0.523978 0.0810246 0.
0.525978 0.0810237 0.
0.527979 0.0810229 0.
0.529979 0.0810222 0.
0.53198 0.0810216 0.
0.53398 0.0810211 0.
0.53598 0.0810206 0.
0.537981 0.0810202 0.
0.539981 0.0810197 0.
0.541981 0.0810191 0.
0.543981 0.0810185 0.
0.545982 0.0810181 0.
0.547983 0.0810178 0.
0.549984 0.0810174 0.
0.551984 0.0810168 0.
0.553985 0.0810161 0.
0.555985 0.0810152 0.
0.557986 0.0810133 0.
0.559987 0.0810115 0.
0.561987 0.08101 0.
0.563988 0.0810088 0.
0.565988 0.0810077 0.
0.567989 0.0810069 0.
0.56999 0.0810061 0.
0.57199 0.0810054 0.
0.573991 0.0810052 0.
0.575992 0.081005 0.
0.577993 0.0810047 0.
0.579994 0.0810036 0.
0.581995 0.0810025 0.
0.583996 0.0810017 0.
0.585996 0.0810014 0.
0.587997 0.081001 0.
0.589998 0.0810008 0.
0.591999 0.0810007 0.
0.594 0.0810006 0.
0.596001 0.0810006 0.
0.598001 0.0810007 0.
0.600001 0.0810007 0.
0.602002 0.0810008 0.
0.604004 0.0810009 0.
0.606005 0.081001 0.
0.608005 0.0810015 0.
0.610005 0.081002 0.
0.612006 0.0810024 0.
0.614006 0.0810026 0.
0.616007 0.0810028 0.
0.618008 0.0810032 0.
0.620009 0.0810035 0.
0.62201 0.0810039 0.
0.624011 0.0810046 0.
0.626012 0.0810053 0.
0.628012 0.0810061 0.
0.630013 0.0810073 0.
0.632013 0.0810085 0.
0.634014 0.0810093 0.
0.636014 0.0810094 0.
0.638015 0.0810094 0.
0.640016 0.0810101 0.
0.642016 0.0810113 0.
0.644017 0.0810125 0.
0.646018 0.0810134 0.
0.648018 0.0810143 0.
0.650019 0.0810152 0.
0.65202 0.0810154 0.
0.65402 0.0810156 0.
0.65602 0.081016 0.
0.65802 0.0810171 0.
0.66002 0.0810182 0.
0.662021 0.0810189 0.
0.664021 0.0810191 0.
0.666022 0.0810193 0.
0.668023 0.0810203 0.
0.670023 0.0810217 0.
0.672024 0.0810231 0.
0.674024 0.0810236 0.
0.676024 0.081024 0.
0.678024 0.0810243 0.
0.680024 0.0810246 0.
0.682024 0.0810249 0.
0.684024 0.0810254 0.
0.686024 0.0810262 0.
0.688024 0.081027 0.
0.690024 0.0810279 0.
0.692024 0.0810288 0.
0.694024 0.0810298 0.
0.696025 0.0810302 0.
0.698026 0.0810306 0.
0.499976 0.0830294 0.
0.501977 0.083029 0.
0.503977 0.0830286 0.
0.505977 0.0830283 0.
0.507977 0.083028 0.
0.509977 0.0830277 0.
0.511978 0.0830273 0.
0.513978 0.0830268 0.
0.515978 0.0830263 0.
0.517978 0.083026 0.
0.519978 0.0830258 0.
0.521978 0.0830257 0.
0.523979 0.0830247 0.
0.525979 0.0830237 0.
0.52798 0.0830227 0.
0.52998 0.0830221 0.
0.531981 0.0830215 0.
0.533981 0.083021 0.
0.535981 0.0830207 0.
0.537982 0.0830204 0.
0.539982 0.0830199 0.
0.541982 0.0830193 0.
0.543982 0.0830186 0.
0.545983 0.083018 0.
0.547984 0.0830174 0.
0.549984 0.0830169 0.
0.551984 0.0830163 0.
0.553985 0.0830158 0.
0.555985 0.083015 0.
0.557986 0.0830132 0.
0.559987 0.0830115 0.
0.561987 0.08301 0.
0.563988 0.0830088 0.
0.565989 0.0830076 0.
0.567989 0.0830067 0.
0.56999 0.0830059 0.
0.57199 0.083005 0.
0.573991 0.0830046 0.
0.575992 0.0830042 0.
0.577993 0.0830037 0.
0.579994 0.0830028 0.
0.581995 0.083002 0.
0.583996 0.0830012 0.
0.585996 0.0830006 0.
0.587997 0.083 0.
0.589998 0.0829998 0.
0.591999 0.0829998 0.
0.594 0.0829998 0.
0.596001 0.0829999 0.
0.598001 0.0830002 0.
0.600001 0.0830004 0.
0.602002 0.0830004 0.
0.604003 0.0830005 0.
0.606004 0.0830006 0.
0.608005 0.0830011 0.
0.610005 0.0830015 0.
0.612006 0.0830019 0.
0.614006 0.0830022 0.
0.616007 0.0830025 0.
0.618008 0.0830028 0.
0.620009 0.0830032 0.
0.622009 0.0830037 0.
0.62401 0.0830045 0.
0.626011 0.0830055 0.
0.628012 0.0830064 0.
0.630012 0.0830073 0.
0.632013 0.0830082 0.
0.634013 0.0830088 0.
0.636014 0.0830089 0.
0.638015 0.083009 0.
0.640015 0.0830098 0.
0.642015 0.0830111 0.
0.644016 0.0830125 0.
0.646016 0.0830136 0.
0.648017 0.0830146 0.
0.650018 0.0830156 0.
0.652018 0.0830158 0.
0.654019 0.083016 0.
0.656019 0.0830163 0.
0.658019 0.0830171 0.
0.660019 0.0830179 0.
0.66202 0.0830186 0.
0.664021 0.083019 0.
0.666021 0.0830195 0.
0.668022 0.0830206 0.
0.670022 0.0830221 0.
0.672023 0.0830235 0.
0.674023 0.0830239 0.
0.676023 0.0830243 0.
0.678023 0.0830246 0.
0.680023 0.0830248 0.
0.682023 0.083025 0.
0.684023 0.0830253 0.
0.686023 0.083026 0.
0.688024 0.0830266 0.
0.690024 0.0830276 0.
0.692024 0.0830289 0.
0.694024 0.0830302 0.
0.696025 0.0830306 0.
0.698025 0.0830307 0.
0.499977 0.0850298 0.
0.501977 0.0850291 0.
0.503977 0.0850286 0.
0.505977 0.0850281 0.
0.507978 0.0850279 0.
0.509978 0.0850277 0.
0.511978 0.0850274 0.
0.513979 0.085027 0.
0.515979 0.0850266 0.
0.517979 0.0850263 0.
0.519979 0.0850261 0.
0.521979 0.0850259 0.
0.523979 0.0850249 0.
0.52598 0.0850237 0.
0.527981 0.0850226 0.
0.529981 0.085022 0.
0.531981 0.0850215 0.
0.533982 0.085021 0.
0.535982 0.0850208 0.
0.537982 0.0850206 0.
0.539983 0.0850202 0.
0.541983 0.0850194 0.
0.543984 0.0850187 0.
0.545984 0.0850179 0.
0.547984 0.0850171 0.
0.549984 0.0850163 0.
0.551984 0.0850159 0.
0.553984 0.0850154 0.
0.555985 0.0850147 0.
0.557986 0.0850131 0.
0.559986 0.0850114 0.
0.561987 0.08501 0.
0.563988 0.0850087 0.
0.565989 0.0850075 0.
0.56799 0.0850065 0.
0.56999 0.0850056 0.
0.57199 0.0850047 0.
0.573992 0.085004 0.
0.575993 0.0850034 0.
0.577994 0.0850027 0.
0.579995 0.0850021 0.
0.581995 0.0850015 0.
0.583995 0.0850007 0.
0.585997 0.0849999 0.
0.587998 0.084999 0.
0.589999 0.0849987 0.
0.591999 0.0849988 0.
0.594 0.0849989 0.
0.596001 0.0849993 0.
0.598001 0.0849997 0.
0.600002 0.0850001 0.
0.602002 0.0850001 0.
0.604003 0.085 0.
0.606004 0.0850002 0.
0.608004 0.0850006 0.
0.610005 0.0850011 0.
0.612006 0.0850015 0.
0.614006 0.0850018 0.
0.616007 0.0850021 0.
0.618008 0.0850025 0.
0.620008 0.085003 0.
0.622009 0.0850035 0.
0.62401 0.0850045 0.
0.626011 0.0850056 0.
0.628011 0.0850067 0.
0.630012 0.0850073 0.
0.632012 0.0850079 0.
0.634013 0.0850083 0.
0.636014 0.0850084 0.
0.638014 0.0850085 0.
0.640015 0.0850094 0.
0.642015 0.085011 0.
0.644015 0.0850125 0.
0.646015 0.0850137 0.
0.648016 0.0850149 0.
0.650016 0.0850161 0.
0.652017 0.0850162 0.
0.654017 0.0850164 0.
0.656018 0.0850167 0.
0.658018 0.0850172 0.
0.660018 0.0850177 0.
0.662019 0.0850183 0.
0.66402 0.085019 0.
0.66602 0.0850196 0.
0.668021 0.0850209 0.
0.670021 0.0850224 0.
0.672022 0.0850239 0.
0.674022 0.0850243 0.
0.676022 0.0850245 0.
0.678022 0.0850248 0.
0.680022 0.0850249 0.
0.682022 0.085025 0.
0.684022 0.0850252 0.
0.686023 0.0850257 0.
0.688023 0.0850263 0.
0.690024 0.0850274 0.
0.692024 0.085029 0.
0.694024 0.0850307 0.
0.696024 0.0850309 0.
0.698025 0.0850309 0.
0.499978 0.0870299 0.
0.501978 0.0870292 0.
0.503978 0.0870284 0.
0.505978 0.0870277 0.
0.507978 0.0870276 0.
0.509979 0.0870274 0.
0.511979 0.0870272 0.
0.51398 0.0870272 0.
0.51598 0.0870271 0.
0.51798 0.0870269 0.
0.51998 0.0870266 0.
0.52198 0.0870263 0.
0.52398 0.0870253 0.
0.525981 0.0870241 0.
0.527981 0.087023 0.
0.529981 0.0870223 0.
0.531981 0.0870215 0.
0.533981 0.0870209 0.
0.535982 0.0870208 0.
0.537983 0.0870206 0.
0.539983 0.08702 0.
0.541984 0.0870191 0.
0.543985 0.0870182 0.
0.545985 0.0870176 0.
0.547985 0.0870171 0.
0.549985 0.0870167 0.
0.551985 0.0870158 0.
0.553985 0.0870148 0.
0.555986 0.0870138 0.
0.557986 0.0870123 0.
0.559987 0.0870109 0.
0.561988 0.0870095 0.
0.563988 0.0870079 0.
0.565989 0.0870064 0.
0.56799 0.0870055 0.
0.56999 0.0870048 0.
0.571991 0.0870042 0.
0.573992 0.0870033 0.
0.575993 0.0870024 0.
0.577994 0.0870015 0.
0.579995 0.0870011 0.
0.581995 0.0870007 0.
0.583996 0.0870002 0.
0.585997 0.0869994 0.
0.587998 0.0869986 0.
0.589999 0.0869984 0.
0.591999 0.0869986 0.
0.594 0.0869989 0.
0.596 0.0869991 0.
0.598001 0.0869993 0.
0.600001 0.0869995 0.
0.602002 0.0869998 0.
0.604003 0.0870001 0.
0.606004 0.0870004 0.
0.608004 0.0870005 0.
0.610004 0.0870006 0.
0.612005 0.0870009 0.
0.614006 0.0870013 0.
0.616006 0.0870017 0.
0.618007 0.0870022 0.
0.620007 0.0870028 0.
0.622008 0.0870034 0.
0.624009 0.0870043 0.
0.62601 0.0870053 0.
0.62801 0.0870062 0.
0.630011 0.0870069 0.
0.632011 0.0870075 0.
0.634012 0.087008 0.
0.636012 0.0870084 0.
0.638013 0.0870088 0.
0.640013 0.0870096 0.
0.642014 0.0870109 0.
0.644014 0.0870121 0.
0.646015 0.0870131 0.
0.648015 0.0870141 0.
0.650016 0.0870151 0.
0.652017 0.0870158 0.
0.654017 0.0870165 0.
0.656017 0.0870171 0.
0.658018 0.0870175 0.
0.660018 0.0870179 0.
0.662019 0.0870185 0.
0.664019 0.0870193 0.
0.66602 0.0870201 0.
0.66802 0.0870212 0.
0.670021 0.0870224 0.
0.672021 0.0870235 0.
0.674021 0.087024 0.
0.676021 0.0870245 0.
0.678021 0.0870248 0.
0.680021 0.0870248 0.
0.682022 0.0870247 0.
0.684022 0.0870249 0.
0.686022 0.0870256 0.
0.688023 0.0870263 0.
0.690023 0.0870273 0.
0.692023 0.0870285 0.
0.694023 0.0870296 0.
0.696023 0.0870302 0.
0.698024 0.0870306 0.
0.499979 0.0890303 0.
0.501979 0.0890293 0.
0.503979 0.0890282 0.
0.505979 0.0890273 0.
0.507979 0.0890272 0.
0.509979 0.089027 0.
0.51198 0.089027 0.
0.51398 0.0890273 0.
0.51598 0.0890277 0.
0.517981 0.0890275 0.
0.519981 0.0890271 0.
0.521981 0.0890268 0.
0.523981 0.0890257 0.
0.525982 0.0890246 0.
0.527982 0.0890235 0.
0.529981 0.0890225 0.
0.531981 0.0890215 0.
0.533981 0.0890208 0.
0.535982 0.0890207 0.
0.537983 0.0890205 0.
0.539984 0.0890199 0.
0.541985 0.0890187 0.
0.543985 0.0890176 0.
0.545986 0.0890173 0.
0.547986 0.0890172 0.
0.549986 0.0890171 0.
0.551986 0.0890157 0.
0.553987 0.0890142 0.
0.555987 0.0890128 0.
0.557987 0.0890116 0.
0.559988 0.0890104 0.
0.561988 0.0890089 0.
0.563989 0.0890072 0.
0.565989 0.0890054 0.
0.56799 0.0890045 0.
0.569991 0.0890041 0.
0.571992 0.0890037 0.
0.573992 0.0890026 0.
0.575993 0.0890014 0.
0.577994 0.0890003 0.
0.579995 0.0890002 0.
0.581995 0.089 0.
0.583996 0.0889996 0.
0.585997 0.0889989 0.
0.587998 0.0889981 0.
0.589999 0.088998 0.
0.591999 0.0889984 0.
0.594 0.0889988 0.
0.596 0.0889989 0.
0.598 0.0889989 0.
0.600001 0.0889989 0.
0.602002 0.0889995 0.
0.604003 0.0890001 0.
0.606004 0.0890006 0.
0.608004 0.0890004 0.
0.610004 0.0890002 0.
0.612004 0.0890003 0.
0.614005 0.0890008 0.
0.616005 0.0890013 0.
0.618006 0.0890019 0.
0.620006 0.0890026 0.
0.622007 0.0890033 0.
0.624008 0.0890041 0.
0.626008 0.0890049 0.
0.628009 0.0890057 0.
0.63001 0.0890064 0.
0.632011 0.0890071 0.
0.634011 0.0890078 0.
0.636011 0.0890084 0.
0.638012 0.089009 0.
0.640012 0.0890098 0.
0.642012 0.0890108 0.
0.644013 0.0890117 0.
0.646014 0.0890125 0.
0.648015 0.0890134 0.
0.650016 0.0890142 0.
0.652016 0.0890154 0.
0.654017 0.0890165 0.
0.656017 0.0890175 0.
0.658018 0.0890178 0.
0.660018 0.0890181 0.
0.662018 0.0890187 0.
0.664019 0.0890197 0.
0.666019 0.0890206 0.
0.66802 0.0890215 0.
0.67002 0.0890223 0.
0.67202 0.0890232 0.
0.67402 0.0890238 0.
0.67602 0.0890244 0.
0.67802 0.0890249 0.
0.680021 0.0890247 0.
0.682021 0.0890244 0.
0.684021 0.0890246 0.
0.686022 0.0890255 0.
0.688022 0.0890264 0.
0.690022 0.0890272 0.
0.692022 0.0890279 0.
0.694022 0.0890286 0.
0.696022 0.0890295 0.
0.698023 0.0890303 0.
0.49998 0.0910305 0.
0.50198 0.0910294 0.
0.50398 0.0910282 0.
0.50598 0.0910273 0.
0.50798 0.0910271 0.
0.50998 0.0910268 0.
0.511981 0.0910269 0.
0.513981 0.0910273 0.
0.515981 0.0910277 0.
0.517981 0.0910277 0.
0.519982 0.0910274 0.
0.521982 0.0910272 0.
0.523982 0.0910262 0.
0.525982 0.091025 0.
0.527982 0.0910238 0.
0.529982 0.0910227 0.
0.531982 0.0910215 0.
0.533982 0.0910207 0.
0.535983 0.0910203 0.
0.537983 0.09102 0.
0.539984 0.0910193 0.
0.541985 0.0910182 0.
0.543986 0.0910172 0.
0.545986 0.091017 0.
0.547986 0.0910171 0.
0.549986 0.0910172 0.
0.551987 0.0910155 0.
0.553988 0.0910139 0.
0.555988 0.0910123 0.
0.557989 0.0910111 0.
0.559989 0.09101 0.
0.561989 0.0910086 0.
0.56399 0.0910068 0.
0.56599 0.091005 0.
0.567991 0.0910041 0.
0.569992 0.0910036 0.
0.571993 0.0910031 0.
0.573993 0.0910019 0.
0.575994 0.0910005 0.
0.577994 0.0909992 0.
0.579995 0.0909993 0.
0.581996 0.0909993 0.
0.583997 0.0909991 0.
0.585997 0.0909984 0.
0.587998 0.0909978 0.
0.589998 0.0909978 0.
0.591999 0.0909983 0.
0.593999 0.0909989 0.
0.596 0.0909988 0.
0.598 0.0909986 0.
0.6 0.0909984 0.
0.602002 0.0909992 0.
0.604003 0.091 0.
0.606004 0.0910005 0.
0.608004 0.0910001 0.
0.610004 0.0909997 0.
0.612004 0.0909997 0.
0.614004 0.0910003 0.
0.616005 0.0910008 0.
0.618005 0.0910015 0.
0.620006 0.0910023 0.
0.622006 0.0910031 0.
0.624007 0.0910038 0.
0.626008 0.0910045 0.
0.628009 0.0910052 0.
0.630009 0.091006 0.
0.63201 0.0910067 0.
0.63401 0.0910075 0.
0.636011 0.0910084 0.
0.638011 0.0910093 0.
0.640011 0.09101 0.
0.642012 0.0910107 0.
0.644012 0.0910113 0.
0.646013 0.0910121 0.
0.648014 0.0910129 0.
0.650015 0.0910137 0.
0.652016 0.0910151 0.
0.654016 0.0910165 0.
0.656016 0.0910177 0.
0.658017 0.091018 0.
0.660017 0.0910183 0.
0.662018 0.0910189 0.
0.664018 0.0910198 0.
0.666018 0.0910208 0.
0.668019 0.0910216 0.
0.670019 0.0910224 0.
0.67202 0.0910231 0.
0.67402 0.0910237 0.
0.67602 0.0910243 0.
0.67802 0.0910247 0.
0.68002 0.0910245 0.
0.682021 0.0910242 0.
0.684021 0.0910244 0.
0.686021 0.0910253 0.
0.688021 0.0910263 0.
0.690021 0.091027 0.
0.692021 0.0910275 0.
0.694021 0.0910279 0.
0.696021 0.0910288 0.
0.698022 0.0910297 0.
0.49998 0.0930302 0.
0.50198 0.0930294 0.
0.50398 0.0930284 0.
0.505981 0.0930275 0.
0.507981 0.0930272 0.
0.509981 0.0930269 0.
0.511982 0.0930268 0.
0.513982 0.093027 0.
0.515982 0.0930272 0.
0.517982 0.0930274 0.
0.519982 0.0930275 0.
0.521982 0.0930276 0.
0.523983 0.0930266 0.
0.525983 0.0930253 0.
0.527983 0.0930241 0.
0.529983 0.0930228 0.
0.531983 0.0930215 0.
0.533983 0.0930204 0.
0.535983 0.0930198 0.
0.537984 0.0930191 0.
0.539985 0.0930184 0.
0.541986 0.0930176 0.
0.543987 0.0930168 0.
0.545987 0.0930168 0.
0.547987 0.0930169 0.
0.549988 0.0930171 0.
0.551989 0.0930154 0.
0.553989 0.0930138 0.
0.55599 0.0930122 0.
0.55799 0.0930109 0.
0.559991 0.0930097 0.
0.561991 0.0930083 0.
0.563992 0.0930068 0.
0.565992 0.0930054 0.
0.567993 0.0930043 0.
0.569993 0.0930034 0.
0.571994 0.0930026 0.
0.573994 0.0930011 0.
0.575995 0.0929996 0.
0.577995 0.0929983 0.
0.579996 0.0929984 0.
0.581996 0.0929986 0.
0.583997 0.0929985 0.
0.585997 0.092998 0.
0.587998 0.0929974 0.
0.589998 0.0929975 0.
0.591999 0.0929983 0.
0.593999 0.092999 0.
0.595999 0.0929988 0.
0.598 0.0929984 0.
0.6 0.092998 0.
0.602002 0.0929988 0.
0.604003 0.0929996 0.
0.606004 0.0930002 0.
0.608004 0.0929998 0.
0.610003 0.0929994 0.
0.612004 0.0929993 0.
0.614004 0.0929997 0.
0.616004 0.0930001 0.
0.618005 0.0930009 0.
0.620005 0.0930018 0.
0.622006 0.0930027 0.
0.624007 0.0930034 0.
0.626008 0.093004 0.
0.628008 0.0930047 0.
0.630009 0.0930055 0.
0.63201 0.0930063 0.
0.63401 0.0930073 0.
0.63601 0.0930083 0.
0.63801 0.0930094 0.
0.640011 0.0930101 0.
0.642012 0.0930106 0.
0.644012 0.0930111 0.
0.646013 0.0930118 0.
0.648014 0.0930127 0.
0.650014 0.0930135 0.
0.652015 0.093015 0.
0.654015 0.0930165 0.
0.656015 0.0930178 0.
0.658016 0.0930181 0.
0.660016 0.0930184 0.
0.662017 0.093019 0.
0.664017 0.0930199 0.
0.666017 0.0930208 0.
0.668018 0.0930216 0.
0.670018 0.0930224 0.
0.672019 0.0930232 0.
0.674019 0.0930236 0.
0.676019 0.093024 0.
0.67802 0.0930244 0.
0.68002 0.0930242 0.
0.68202 0.0930241 0.
0.68402 0.0930243 0.
0.68602 0.0930251 0.
0.68802 0.0930259 0.
0.690021 0.0930265 0.
0.692021 0.0930271 0.
0.694021 0.0930276 0.
0.696021 0.0930282 0.
0.698021 0.0930288 0.
0.499981 0.0950302 0.
0.501981 0.0950294 0.
0.503981 0.0950286 0.
0.505982 0.0950278 0.
0.507982 0.0950274 0.
0.509982 0.095027 0.
0.511983 0.0950267 0.
0.513983 0.0950267 0.
0.515983 0.0950267 0.
0.517983 0.095027 0.
0.519983 0.0950276 0.
0.521983 0.0950281 0.
0.523983 0.0950269 0.
0.525984 0.0950256 0.
0.527984 0.0950243 0.
0.529984 0.0950229 0.
0.531984 0.0950215 0.
0.533984 0.0950202 0.
0.535984 0.0950192 0.
0.537985 0.0950182 0.
0.539985 0.0950175 0.
0.541986 0.095017 0.
0.543987 0.0950165 0.
0.545988 0.0950165 0.
0.547988 0.0950167 0.
0.549989 0.0950169 0.
0.55199 0.0950153 0.
0.553991 0.0950137 0.
0.555992 0.0950121 0.
0.557992 0.0950107 0.
0.559992 0.0950094 0.
0.561993 0.0950081 0.
0.563993 0.0950069 0.
0.565994 0.0950057 0.
0.567995 0.0950045 0.
0.569995 0.0950033 0.
0.571995 0.095002 0.
0.573996 0.0950004 0.
0.575996 0.0949987 0.
0.577996 0.0949973 0.
0.579997 0.0949976 0.
0.581997 0.0949979 0.
0.583997 0.094998 0.
0.585998 0.0949975 0.
0.587998 0.0949971 0.
0.589998 0.0949973 0.
0.591998 0.0949982 0.
0.593999 0.094999 0.
0.595999 0.0949988 0.
0.598 0.0949982 0.
0.600001 0.0949976 0.
0.602002 0.0949984 0.
0.604003 0.0949993 0.
0.606003 0.0949998 0.
0.608003 0.0949994 0.
0.610003 0.094999 0.
0.612003 0.0949989 0.
0.614003 0.0949992 0.
0.616004 0.0949995 0.
0.618004 0.0950003 0.
0.620005 0.0950013 0.
0.622005 0.0950023 0.
0.624006 0.0950029 0.
0.626007 0.0950035 0.
0.628008 0.0950041 0.
0.630009 0.0950051 0.
0.632009 0.095006 0.
0.634009 0.095007 0.
0.63601 0.0950083 0.
0.63801 0.0950096 0.
0.64001 0.0950103 0.
0.642011 0.0950105 0.
0.644012 0.0950108 0.
0.646013 0.0950115 0.
0.648013 0.0950125 0.
0.650013 0.0950134 0.
0.652013 0.0950149 0.
0.654014 0.0950165 0.
0.656014 0.0950178 0.
0.658015 0.0950181 0.
0.660015 0.0950185 0.
0.662016 0.095019 0.
0.664016 0.0950199 0.
0.666017 0.0950208 0.
0.668017 0.0950216 0.
0.670018 0.0950225 0.
0.672018 0.0950233 0.
0.674018 0.0950236 0.
0.676019 0.0950238 0.
0.678019 0.095024 0.
0.680019 0.095024 0.
0.682019 0.0950239 0.
0.684019 0.0950241 0.
0.68602 0.0950248 0.
0.68802 0.0950255 0.
0.69002 0.0950261 0.
0.69202 0.0950267 0.
0.69402 0.0950273 0.
0.69602 0.0950276 0.
0.69802 0.0950279 0.
0.499983 0.0970309 0.
0.501983 0.0970298 0.
0.503982 0.0970286 0.
0.505982 0.0970276 0.
0.507982 0.0970273 0.
0.509983 0.097027 0.
0.511983 0.0970269 0.
0.513983 0.0970269 0.
0.515983 0.0970269 0.
0.517983 0.0970271 0.
0.519983 0.0970275 0.
0.521983 0.0970278 0.
0.523984 0.0970266 0.
0.525984 0.0970251 0.
0.527984 0.0970237 0.
0.529985 0.0970226 0.
0.531985 0.0970215 0.
0.533985 0.0970204 0.
0.535985 0.0970195 0.
0.537986 0.0970186 0.
0.539986 0.0970178 0.
0.541987 0.097017 0.
0.543988 0.0970162 0.
0.545988 0.097016 0.
0.547989 0.097016 0.
0.54999 0.097016 0.
0.551991 0.0970147 0.
0.553992 0.0970134 0.
0.555993 0.0970121 0.
0.557993 0.0970106 0.
0.559994 0.0970091 0.
0.561994 0.0970077 0.
0.563994 0.0970064 0.
0.565995 0.0970051 0.
0.567995 0.0970038 0.
0.569995 0.0970026 0.
0.571995 0.0970014 0.
0.573996 0.097 0.
0.575996 0.0969986 0.
0.577997 0.0969973 0.
0.579997 0.0969973 0.
0.581997 0.0969973 0.
0.583997 0.0969973 0.
0.585998 0.0969973 0.
0.587998 0.0969972 0.
0.589999 0.0969974 0.
0.591999 0.0969979 0.
0.593999 0.0969984 0.
0.595999 0.0969983 0.
0.598 0.0969981 0.
0.6 0.0969979 0.
0.602001 0.0969984 0.
0.604002 0.096999 0.
0.606003 0.0969995 0.
0.608003 0.0969992 0.
0.610003 0.096999 0.
0.612003 0.096999 0.
0.614003 0.0969991 0.
0.616003 0.0969993 0.
0.618003 0.0970001 0.
0.620004 0.0970012 0.
0.622004 0.0970023 0.
0.624005 0.0970029 0.
0.626006 0.0970034 0.
0.628007 0.097004 0.
0.630008 0.0970048 0.
0.632008 0.0970057 0.
0.634008 0.0970066 0.
0.636009 0.0970078 0.
0.638009 0.0970091 0.
0.64001 0.0970098 0.
0.642011 0.0970102 0.
0.644011 0.0970106 0.
0.646012 0.0970113 0.
0.648012 0.0970122 0.
0.650012 0.097013 0.
0.652013 0.0970148 0.
0.654013 0.0970165 0.
0.656014 0.097018 0.
0.658014 0.0970183 0.
0.660015 0.0970186 0.
0.662016 0.0970191 0.
0.664016 0.09702 0.
0.666017 0.0970209 0.
0.668017 0.0970216 0.
0.670017 0.0970221 0.
0.672018 0.0970227 0.
0.674018 0.0970231 0.
0.676018 0.0970236 0.
0.678018 0.097024 0.
0.680018 0.0970242 0.
0.682018 0.0970243 0.
0.684019 0.0970246 0.
0.686019 0.0970252 0.
0.688019 0.0970258 0.
0.690019 0.0970265 0.
0.692019 0.0970272 0.
0.694019 0.0970279 0.
0.69602 0.0970279 0.
0.69802 0.0970277 0.
0.499985 0.0990314 0.
0.501984 0.0990301 0.
0.503983 0.0990286 0.
0.505983 0.0990274 0.
0.507983 0.0990273 0.
0.509983 0.0990271 0.
0.511983 0.099027 0.
0.513983 0.0990271 0.
0.515983 0.0990271 0.
0.517984 0.0990272 0.
0.519984 0.0990274 0.
0.521984 0.0990276 0.
0.523984 0.0990262 0.
0.525984 0.0990246 0.
0.527985 0.0990232 0.
0.529985 0.0990223 0.
0.531986 0.0990214 0.
0.533986 0.0990206 0.
0.535987 0.0990198 0.
0.537987 0.0990191 0.
0.539987 0.0990181 0.
0.541987 0.099017 0.
0.543988 0.0990159 0.
0.545989 0.0990155 0.
0.54799 0.0990153 0.
0.54999 0.0990151 0.
0.551992 0.0990141 0.
0.553993 0.0990131 0.
0.555994 0.099012 0.
0.557995 0.0990104 0.
0.559995 0.0990089 0.
0.561996 0.0990074 0.
0.563996 0.0990059 0.
0.565996 0.0990045 0.
0.567996 0.0990032 0.
0.569995 0.0990019 0.
0.571995 0.0990007 0.
0.573996 0.0989995 0.
0.575997 0.0989984 0.
0.577997 0.0989973 0.
0.579997 0.0989971 0.
0.581997 0.0989968 0.
0.583997 0.0989967 0.
0.585998 0.098997 0.
0.587999 0.0989973 0.
0.589999 0.0989975 0.
0.591999 0.0989976 0.
0.593998 0.0989978 0.
0.595999 0.0989979 0.
0.597999 0.098998 0.
0.6 0.0989981 0.
0.602001 0.0989985 0.
0.604002 0.0989988 0.
0.606002 0.0989991 0.
0.608003 0.0989991 0.
0.610003 0.098999 0.
0.612003 0.098999 0.
0.614002 0.0989991 0.
0.616002 0.0989991 0.
0.618002 0.0989999 0.
0.620003 0.0990012 0.
0.622004 0.0990024 0.
0.624005 0.0990029 0.
0.626006 0.0990033 0.
0.628006 0.0990038 0.
0.630006 0.0990046 0.
0.632006 0.0990054 0.
0.634007 0.0990063 0.
0.636008 0.0990074 0.
0.638009 0.0990086 0.
0.640009 0.0990094 0.
0.64201 0.0990099 0.
0.64401 0.0990105 0.
0.646011 0.0990112 0.
0.648011 0.0990119 0.
0.650012 0.0990126 0.
0.652012 0.0990146 0.
0.654013 0.0990165 0.
0.656013 0.0990181 0.
0.658014 0.0990184 0.
0.660016 0.0990187 0.
0.662016 0.0990192 0.
0.664017 0.0990202 0.
0.666017 0.0990211 0.
0.668017 0.0990215 0.
0.670017 0.0990218 0.
0.672017 0.099022 0.
0.674018 0.0990227 0.
0.676018 0.0990233 0.
0.678018 0.099024 0.
0.680018 0.0990243 0.
0.682018 0.0990247 0.
0.684018 0.099025 0.
0.686018 0.0990255 0.
0.688017 0.0990261 0.
0.690018 0.0990268 0.
0.692018 0.0990277 0.
0.694018 0.0990285 0.
0.696019 0.0990282 0.
0.69802 0.0990276 0.
CELLS 5000 10000
1 0
1 1
1 2
1 3
1 4
1 5
1 6
1 7
1 8
1 9
1 10
1 11
1 12
1 13
1 14
1 15
1 16
1 17
1 18
1 19
1 20
1 21
1 22
1 23
1 24
1 25
1 26
1 27
1 28
1 29
1 30
1 31
1 32
1 33
1 34
1 35
1 36
1 37
1 38
1 39
1 40
1 41
1 42
1 43
1 44
1 45
1 46
1 47
1 48
1 49
1 50
1 51
1 52
1 53
1 54
1 55
1 56
1 57
1 58
1 59
1 60
1 61
1 62
1 63
1 64
1 65
1 66
1 67
1 68
1 69
1 70
1 71
1 72
1 73
1 74
1 75
1 76
1 77
1 78
1 79
1 80
1 81
1 82
1 83
1 84
1 85
1 86
1 87
1 88
1 89
1 90
1 91
1 92
1 93
1 94
1 95
1 96
1 97
1 98
1 99
1 100
1 101
1 102
1 103
1 104
1 105
1 106
1 107
1 108
1 109
1 110
1 111
1 112
1 113
1 114
1 115
1 116
1 117
1 118
1 119
1 120
1 121
1 122
1 123
1 124
1 125
1 126
1 127
1 128
1 129
1 130
1 131
1 132
1 133
1 134
1 135
1 136
1 137
1 138
1 139
1 140
1 141
1 142
1 143
1 144
1 145
1 146
1 147
1 148
1 149
1 150
1 151
1 152
1 153
1 154
1 155
1 156
1 157
1 158
1 159
1 160
1 161
1 162
1 163
1 164
1 165
1 166
1 167
1 168
1 169
1 170
1 171
1 172
1 173
1 174
1 175
1 176
1 177
1 178
1 179
1 180
1 181
1 182
1 183
1 184
1 185
1 186
1 187
1 188
1 189
1 190
1 191
1 192
1 193
1 194
1 195
1 196
1 197
1 198
1 199
1 200
1 201
1 202
1 203
1 204
1 205
1 206
1 207
1 208
1 209
1 210
1 211
1 212
1 213
1 214
1 215
1 216
1 217
1 218
1 219
1 220
1 221
1 222
1 223
1 224
1 225
1 226
1 227
1 228
1 229
1 230
1 231
1 232
1 233
1 234
1 235
1 236
1 237
1 238
1 239
1 240
1 241
1 242
1 243
1 244
1 245
1 246
1 247
1 248
1 249
1 250
1 251
1 252
1 253
1 254
1 255
1 256
1 257
1 258
1 259
1 260
1 261
1 262
1 263
1 264
1 265
1 266
1 267
1 268
1 269
1 270
1 271
1 272
1 273
1 274
1 275
1 276
1 277
1 278
1 279
1 280
1 281
1 282
1 283
1 284
1 285
1 286
1 287
1 288
1 289
1 290
1 291
1 292
1 293
1 294
1 295
1 296
1 297
1 298
1 299
1 300
1 301
1 302
1 303
1 304
1 305
1 306
1 307
1 308
1 309
1 310
1 311
1 312
1 313
1 314
1 315
1 316
1 317
1 318
1 319
1 320
1 321
1 322
1 323
1 324
1 325
1 326
1 327
1 328
1 329
1 330
1 331
1 332
1 333
1 334
1 335
1 336
1 337
1 338
1 339
1 340
1 341
1 342
1 343
1 344
1 345
1 346
1 347
1 348
1 349
1 350
1 351
1 352
1 353
1 354
1 355
1 356
1 357
1 358
1 359
1 360
1 361
1 362
1 363
1 364
1 365
1 366
1 367
1 368
1 369
1 370
1 371
1 372
1 373
1 374
1 375
1 376
1 377
1 378
1 379
1 380
1 381
1 382
1 383
1 384
1 385
1 386
1 387
1 388
1 389
1 390
1 391
1 392
1 393
1 394
1 395
1 396
1 397
1 398
1 399
1 400
1 401
1 402
1 403
1 404
1 405
1 406
1 407
1 408
1 409
1 410
1 411
1 412
1 413
1 414
1 415
1 416
1 417
1 418
1 419
1 420
1 421
1 422
1 423
1 424
1 425
1 426
1 427
1 428
1 429
1 430
1 431
1 432
1 433
1 434
1 435
1 436
1 437
1 438
1 439
1 440
1 441
1 442
1 443
1 444
1 445
1 446
1 447
1 448
1 449
1 450
1 451
1 452
1 453
1 454
1 455
1 456
1 457
1 458
1 459
1 460
1 461
1 462
1 463
1 464
1 465
1 466
1 467
1 468
1 469
1 470
1 471
1 472
1 473
1 474
1 475
1 476
1 477
1 478
1 479
1 480
1 481
1 482
1 483
1 484
1 485
1 486
1 487
1 488
1 489
1 490
1 491
1 492
1 493
1 494
1 495
1 496
1 497
1 498
1 499
1 500
1 501
1 502
1 503
1 504
1 505
1 506
1 507
1 508
1 509
1 510
1 511
1 512
1 513
1 514
1 515
1 516
1 517
1 518
1 519
1 520
1 521
1 522
1 523
1 524
1 525
1 526
1 527
1 528
1 529
1 530
1 531
1 532
1 533
1 534
1 535
1 536
1 537
1 538
1 539
1 540
1 541
1 542
1 543
1 544
1 545
1 546
1 547
1 548
1 549
1 550
1 551
1 552
1 553
1 554
1 555
1 556
1 557
1 558
1 559
1 560
1 561
1 562
1 563
1 564
1 565
1 566
1 567
1 568
1 569
1 570
1 571
1 572
1 573
1 574
1 575
1 576
1 577
1 578
1 579
1 580
1 581
1 582
1 583
1 584
1 585
1 586
1 587
1 588
1 589
1 590
1 591
1 592
1 593
1 594
1 595
1 596
1 597
1 598
1 599
1 600
1 601
1 602
1 603
1 604
1 605
1 606
1 607
1 608
1 609
1 610
1 611
1 612
1 613
1 614
1 615
1 616
1 617
1 618
1 619
1 620
1 621
1 622
1 623
1 624
1 625
1 626
1 627
1 628
1 629
1 630
1 631
1 632
1 633
1 634
1 635
1 636
1 637
1 638
1 639
1 640
1 641
1 642
1 643
1 644
1 645
1 646
1 647
1 648
1 649
1 650
1 651
1 652
1 653
1 654
1 655
1 656
1 657
1 658
1 659
1 660
1 661
1 662
1 663
1 664
1 665
1 666
1 667
1 668
1 669
1 670
1 671
1 672
1 673
1 674
1 675
1 676
1 677
1 678
1 679
1 680
1 681
1 682
1 683
1 684
1 685
1 686
1 687
1 688
1 689
1 690
1 691
1 692
1 693
1 694
1 695
1 696
1 697
1 698
1 699
1 700
1 701
1 702
1 703
1 704
1 705
1 706
1 707
1 708
1 709
1 710
1 711
1 712
1 713
1 714
1 715
1 716
1 717
1 718
1 719
1 720
1 721
1 722
1 723
1 724
1 725
1 726
1 727
1 728
1 729
1 730
1 731
1 732
1 733
1 734
1 735
1 736
1 737
1 738
1 739
1 740
1 741
1 742
1 743
1 744
1 745
1 746
1 747
1 748
1 749
1 750
1 751
1 752
1 753
1 754
1 755
1 756
1 757
1 758
1 759
1 760
1 761
1 762
1 763
1 764
1 765
1 766
1 767
1 768
1 769
1 770
1 771
1 772
1 773
1 774
1 775
1 776
1 777
1 778
1 779
1 780
1 781
1 782
1 783
1 784
1 785
1 786
1 787
1 788
1 789
1 790
1 791
1 792
1 793
1 794
1 795
1 796
1 797
1 798
1 799
1 800
1 801
1 802
1 803
1 804
1 805
1 806
1 807
1 808
1 809
1 810
1 811
1 812
1 813
1 814
1 815
1 816
1 817
1 818
1 819
1 820
1 821
1 822
1 823
1 824
1 825
1 826
1 827
1 828
1 829
1 830
1 831
1 832
1 833
1 834
1 835
1 836
1 837
1 838
1 839
1 840
1 841
1 842
1 843
1 844
1 845
1 846
1 847
1 848
1 849
1 850
1 851
1 852
1 853
1 854
1 855
1 856
1 857
1 858
1 859
1 860
1 861
1 862
1 863
1 864
1 865
1 866
1 867
1 868
1 869
1 870
1 871
1 872
1 873
1 874
1 875
1 876
1 877
1 878
1 879
1 880
1 881
1 882
1 883
1 884
1 885
1 886
1 887
1 888
1 889
1 890
1 891
1 892
1 893
1 894
1 895
1 896
1 897
1 898
1 899
1 900
1 901
1 902
1 903
1 904
1 905
1 906
1 907
1 908
1 909
1 910
1 911
1 912
1 913
1 914
1 915
1 916
1 917
1 918
1 919
1 920
1 921
1 922
1 923
1 924
1 925
1 926
1 927
1 928
1 929
1 930
1 931
1 932
1 933
1 934
1 935
1 936
1 937
1 938
1 939
1 940
1 941
1 942
1 943
1 944
1 945
1 946
1 947
1 948
1 949
1 950
1 951
1 952
1 953
1 954
1 955
1 956
1 957
1 958
1 959
1 960
1 961
1 962
1 963
1 964
1 965
1 966
1 967
1 968
1 969
1 970
1 971
1 972
1 973
1 974
1 975
1 976
1 977
1 978
1 979
1 980
1 981
1 982
1 983
1 984
1 985
1 986
1 987
1 988
1 989
1 990
1 991
1 992
1 993
1 994
1 995
1 996
1 997
1 998
1 999
1 1000
1 1001
1 1002
1 1003
1 1004
1 1005
1 1006
1 1007
1 1008
1 1009
1 1010
1 1011
1 1012
1 1013
1 1014
1 1015
1 1016
1 1017
1 1018
1 1019
1 1020
1 1021
1 1022
1 1023
1 1024
1 1025
1 1026
1 1027
1 1028
1 1029
1 1030
1 1031
1 1032
1 1033
1 1034
1 1035
1 1036
1 1037
1 1038
1 1039
1 1040
1 1041
1 1042
1 1043
1 1044
1 1045
1 1046
1 1047
1 1048
1 1049
1 1050
1 1051
1 1052
1 1053
1 1054
1 1055
1 1056
1 1057
1 1058
1 1059
1 1060
1 1061
1 1062
1 1063
1 1064
1 1065
1 1066
1 1067
1 1068
1 1069
1 1070
1 1071
1 1072
1 1073
1 1074
1 1075
1 1076
1 1077
1 1078
1 1079
1 1080
1 1081
1 1082
1 1083
1 1084
1 1085
1 1086
1 1087
1 1088
1 1089
1 1090
1 1091
1 1092
1 1093
1 1094
1 1095
1 1096
1 1097
1 1098
1 1099
1 1100
1 1101
1 1102
1 1103
1 1104
1 1105
1 1106
1 1107
1 1108
1 1109
1 1110
1 1111
1 1112
1 1113
1 1114
1 1115
1 1116
1 1117
1 1118
1 1119
1 1120
1 1121
1 1122
1 1123
1 1124
1 1125
1 1126
1 1127
1 1128
1 1129
1 1130
1 1131
1 1132
1 1133
1 1134
1 1135
1 1136
1 1137
1 1138
1 1139
1 1140
1 1141
1 1142
1 1143
1 1144
1 1145
1 1146
1 1147
1 1148
1 1149
1 1150
1 1151
1 1152
1 1153
1 1154
1 1155
1 1156
1 1157
1 1158
1 1159
1 1160
1 1161
1 1162
1 1163
1 1164
1 1165
1 1166
1 1167
1 1168
1 1169
1 1170
1 1171
1 1172
1 1173
1 1174
1 1175
1 1176
1 1177
1 1178
1 1179
1 1180
1 1181
1 1182
1 1183
1 1184
1 1185
1 1186
1 1187
1 1188
1 1189
1 1190
1 1191
1 1192
1 1193
1 1194
1 1195
1 1196
1 1197
1 1198
1 1199
1 1200
1 1201
1 1202
1 1203
1 1204
1 1205
1 1206
1 1207
1 1208
1 1209
1 1210
1 1211
1 1212
1 1213
1 1214
1 1215
1 1216
1 1217
1 1218
1 1219
1 1220
1 1221
1 1222
1 1223
1 1224
1 1225
1 1226
1 1227
1 1228
1 1229
1 1230
1 1231
1 1232
1 1233
1 1234
1 1235
1 1236
1 1237
1 1238
1 1239
1 1240
1 1241
1 1242
1 1243
1 1244
1 1245
1 1246
1 1247
1 1248
1 1249
1 1250
1 1251
1 1252
1 1253
1 1254
1 1255
1 1256
1 1257
1 1258
1 1259
1 1260
1 1261
1 1262
1 1263
1 1264
1 1265
1 1266
1 1267
1 1268
1 1269
1 1270
1 1271
1 1272
1 1273
1 1274
1 1275
1 1276
1 1277
1 1278
1 1279
1 1280
1 1281
1 1282
1 1283
1 1284
1 1285
1 1286
1 1287
1 1288
1 1289
1 1290
1 1291
1 1292
1 1293
1 1294
1 1295
1 1296
1 1297
1 1298
1 1299
1 1300
1 1301
1 1302
1 1303
1 1304
1 1305
1 1306
1 1307
1 1308
1 1309
1 1310
1 1311
1 1312
1 1313
1 1314
1 1315
1 1316
1 1317
1 1318
1 1319
1 1320
1 1321
1 1322
1 1323
1 1324
1 1325
1 1326
1 1327
1 1328
1 1329
1 1330
1 1331
1 1332
1 1333
1 1334
1 1335
1 1336
1 1337
1 1338
1 1339
1 1340
1 1341
1 1342
1 1343
1 1344
1 1345
1 1346
1 1347
1 1348
1 1349
1 1350
1 1351
1 1352
1 1353
1 1354
1 1355
1 1356
1 1357
1 1358
1 1359
1 1360
1 1361
1 1362
1 1363
1 1364
1 1365
1 1366
1 1367
1 1368
1 1369
1 1370
1 1371
1 1372
1 1373
1 1374
1 1375
1 1376
1 1377
1 1378
1 1379
1 1380
1 1381
1 1382
1 1383
1 1384
1 1385
1 1386
1 1387
1 1388
1 1389
1 1390
1 1391
1 1392
1 1393
1 1394
1 1395
1 1396
1 1397
1 1398
1 1399
1 1400
1 1401
1 1402
1 1403
1 1404
1 1405
1 1406
1 1407
1 1408
1 1409
1 1410
1 1411
1 1412
1 1413
1 1414
1 1415
1 1416
1 1417
1 1418
1 1419
1 1420
1 1421
1 1422
1 1423
1 1424
1 1425
1 1426
1 1427
1 1428
1 1429
1 1430
1 1431
1 1432
1 1433
1 1434
1 1435
1 1436
1 1437
1 1438
1 1439
1 1440
1 1441
1 1442
1 1443
1 1444
1 1445
1 1446
1 1447
1 1448
1 1449
1 1450
1 1451
1 1452
1 1453
1 1454
1 1455
1 1456
1 1457
1 1458
1 1459
1 1460
1 1461
1 1462
1 1463
1 1464
1 1465
1 1466
1 1467
1 1468
1 1469
1 1470
1 1471
1 1472
1 1473
1 1474
1 1475
1 1476
1 1477
1 1478
1 1479
1 1480
1 1481
1 1482
1 1483
1 1484
1 1485
1 1486
1 1487
1 1488
1 1489
1 1490
1 1491
1 1492
1 1493
1 1494
1 1495
1 1496
1 1497
1 1498
1 1499
1 1500
1 1501
1 1502
1 1503
1 1504
1 1505
1 1506
1 1507
1 1508
1 1509
1 1510
1 1511
1 1512
1 1513
1 1514
1 1515
1 1516
1 1517
1 1518
1 1519
1 1520
1 1521
1 1522
1 1523
1 1524
1 1525
1 1526
1 1527
1 1528
1 1529
1 1530
1 1531
1 1532
1 1533
1 1534
1 1535
1 1536
1 1537
1 1538
1 1539
1 1540
1 1541
1 1542
1 1543
1 1544
1 1545
1 1546
1 1547
1 1548
1 1549
1 1550
1 1551
1 1552
1 1553
1 1554
1 1555
1 1556
1 1557
1 1558
1 1559
1 1560
1 1561
1 1562
1 1563
1 1564
1 1565
1 1566
1 1567
1 1568
1 1569
1 1570
1 1571
1 1572
1 1573
1 1574
1 1575
1 1576
1 1577
1 1578
1 1579
1 1580
1 1581
1 1582
1 1583
1 1584
1 1585
1 1586
1 1587
1 1588
1 1589
1 1590
1 1591
1 1592
1 1593
1 1594
1 1595
1 1596
1 1597
1 1598
1 1599
1 1600
1 1601
1 1602
1 1603
1 1604
1 1605
1 1606
1 1607
1 1608
1 1609
1 1610
1 1611
1 1612
1 1613
1 1614
1 1615
1 1616
1 1617
1 1618
1 1619
1 1620
1 1621
1 1622
1 1623
1 1624
1 1625
1 1626
1 1627
1 1628
1 1629
1 1630
1 1631
1 1632
1 1633
1 1634
1 1635
1 1636
1 1637
1 1638
1 1639
1 1640
1 1641
1 1642
1 1643
1 1644
1 1645
1 1646
1 1647
1 1648
1 1649
1 1650
1 1651
1 1652
1 1653
1 1654
1 1655
1 1656
1 1657
1 1658
1 1659
1 1660
1 1661
1 1662
1 1663
1 1664
1 1665
1 1666
1 1667
1 1668
1 1669
1 1670
1 1671
1 1672
1 1673
1 1674
1 1675
1 1676
1 1677
1 1678
1 1679
1 1680
1 1681
1 1682
1 1683
1 1684
1 1685
1 1686
1 1687
1 1688
1 1689
1 1690
1 1691
1 1692
1 1693
1 1694
1 1695
1 1696
1 1697
1 1698
1 1699
1 1700
1 1701
1 1702
1 1703
1 1704
1 1705
1 1706
1 1707
1 1708
1 1709
1 1710
1 1711
1 1712
1 1713
1 1714
1 1715
1 1716
1 1717
1 1718
1 1719
1 1720
1 1721
1 1722
1 1723
1 1724
1 1725
1 1726
1 1727
1 1728
1 1729
1 1730
1 1731
1 1732
1 1733
1 1734
1 1735
1 1736
1 1737
1 1738
1 1739
1 1740
1 1741
1 1742
1 1743
1 1744
1 1745
1 1746
1 1747
1 1748
1 1749
1 1750
1 1751
1 1752
1 1753
1 1754
1 1755
1 1756
1 1757
1 1758
1 1759
1 1760
1 1761
1 1762
1 1763
1 1764
1 1765
1 1766
1 1767
1 1768
1 1769
1 1770
1 1771
1 1772
1 1773
1 1774
1 1775
1 1776
1 1777
1 1778
1 1779
1 1780
1 1781
1 1782
1 1783
1 1784
1 1785
1 1786
1 1787
1 1788
1 1789
1 1790
1 1791
1 1792
1 1793
1 1794
1 1795
1 1796
1 1797
1 1798
1 1799
1 1800
1 1801
1 1802
1 1803
1 1804
1 1805
1 1806
1 1807
1 1808
1 1809
1 1810
1 1811
1 1812
1 1813
1 1814
1 1815
1 1816
1 1817
1 1818
1 1819
1 1820
1 1821
1 1822
1 1823
1 1824
1 1825
1 1826
1 1827
1 1828
1 1829
1 1830
1 1831
1 1832
1 1833
1 1834
1 1835
1 1836
1 1837
1 1838
1 1839
1 1840
1 1841
1 1842
1 1843
1 1844
1 1845
1 1846
1 1847
1 1848
1 1849
1 1850
1 1851
1 1852
1 1853
1 1854
1 1855
1 1856
1 1857
1 1858
1 1859
1 1860
1 1861
1 1862
1 1863
1 1864
1 1865
1 1866
1 1867
1 1868
1 1869
1 1870
1 1871
1 1872
1 1873
1 1874
1 1875
1 1876
1 1877
1 1878
1 1879
1 1880
1 1881
1 1882
1 1883
1 1884
1 1885
1 1886
1 1887
1 1888
1 1889
1 1890
1 1891
1 1892
1 1893
1 1894
1 1895
1 1896
1 1897
1 1898
1 1899
1 1900
1 1901
1 1902
1 1903
1 1904
1 1905
1 1906
1 1907
1 1908
1 1909
1 1910
1 1911
1 1912
1 1913
1 1914
1 1915
1 1916
1 1917
1 1918
1 1919
1 1920
1 1921
1 1922
1 1923
1 1924
1 1925
1 1926
1 1927
1 1928
1 1929
1 1930
1 1931
1 1932
1 1933
1 1934
1 1935
1 1936
1 1937
1 1938
1 1939
1 1940
1 1941
1 1942
1 1943
1 1944
1 1945
1 1946
1 1947
1 1948
1 1949
1 1950
1 1951
1 1952
1 1953
1 1954
1 1955
1 1956
1 1957
1 1958
1 1959
1 1960
1 1961
1 1962
1 1963
1 1964
1 1965
1 1966
1 1967
1 1968
1 1969
1 1970
1 1971
1 1972
1 1973
1 1974
1 1975
1 1976
1 1977
1 1978
1 1979
1 1980
1 1981
1 1982
1 1983
1 1984
1 1985
1 1986
1 1987
1 1988
1 1989
1 1990
1 1991
1 1992
1 1993
1 1994
1 1995
1 1996
1 1997
1 1998
1 1999
1 2000
1 2001
1 2002
1 2003
1 2004
1 2005
1 2006
1 2007
1 2008
1 2009
1 2010
1 2011
1 2012
1 2013
1 2014
1 2015
1 2016
1 2017
1 2018
1 2019
1 2020
1 2021
1 2022
1 2023
1 2024
1 2025
1 2026
1 2027
1 2028
1 2029
1 2030
1 2031
1 2032
1 2033
1 2034
1 2035
1 2036
1 2037
1 2038
1 2039
1 2040
1 2041
1 2042
1 2043
1 2044
1 2045
1 2046
1 2047
1 2048
1 2049
1 2050
1 2051
1 2052
1 2053
1 2054
1 2055
1 2056
1 2057
1 2058
1 2059
1 2060
1 2061
1 2062
1 2063
1 2064
1 2065
1 2066
1 2067
1 2068
1 2069
1 2070
1 2071
1 2072
1 2073
1 2074
1 2075
1 2076
1 2077
1 2078
1 2079
1 2080
1 2081
1 2082
1 2083
1 2084
1 2085
1 2086
1 2087
1 2088
1 2089
1 2090
1 2091
1 2092
1 2093
1 2094
1 2095
1 2096
1 2097
1 2098
1 2099
1 2100
1 2101
1 2102
1 2103
1 2104
1 2105
1 2106
1 2107
1 2108
1 2109
1 2110
1 2111
1 2112
1 2113
1 2114
1 2115
1 2116
1 2117
1 2118
1 2119
1 2120
1 2121
1 2122
1 2123
1 2124
1 2125
1 2126
1 2127
1 2128
1 2129
1 2130
1 2131
1 2132
1 2133
1 2134
1 2135
1 2136
1 2137
1 2138
1 2139
1 2140
1 2141
1 2142
1 2143
1 2144
1 2145
1 2146
1 2147
1 2148
1 2149
1 2150
1 2151
1 2152
1 2153
1 2154
1 2155
1 2156
1 2157
1 2158
1 2159
1 2160
1 2161
1 2162
1 2163
1 2164
1 2165
1 2166
1 2167
1 2168
1 2169
1 2170
1 2171
1 2172
1 2173
1 2174
1 2175
1 2176
1 2177
1 2178
1 2179
1 2180
1 2181
1 2182
1 2183
1 2184
1 2185
1 2186
1 2187
1 2188
1 2189
1 2190
1 2191
1 2192
1 2193
1 2194
1 2195
1 2196
1 2197
1 2198
1 2199
1 2200
1 2201
1 2202
1 2203
1 2204
1 2205
1 2206
1 2207
1 2208
1 2209
1 2210
1 2211
1 2212
1 2213
1 2214
1 2215
1 2216
1 2217
1 2218
1 2219
1 2220
1 2221
1 2222
1 2223
1 2224
1 2225
1 2226
1 2227
1 2228
1 2229
1 2230
1 2231
1 2232
1 2233
1 2234
1 2235
1 2236
1 2237
1 2238
1 2239
1 2240
1 2241
1 2242
1 2243
1 2244
1 2245
1 2246
1 2247
1 2248
1 2249
1 2250
1 2251
1 2252
1 2253
1 2254
1 2255
1 2256
1 2257
1 2258
1 2259
1 2260
1 2261
1 2262
1 2263
1 2264
1 2265
1 2266
1 2267
1 2268
1 2269
1 2270
1 2271
1 2272
1 2273
1 2274
1 2275
1 2276
1 2277
1 2278
1 2279
1 2280
1 2281
1 2282
1 2283
1 2284
1 2285
1 2286
1 2287
1 2288
1 2289
1 2290
1 2291
1 2292
1 2293
1 2294
1 2295
1 2296
1 2297
1 2298
1 2299
1 2300
1 2301
1 2302
1 2303
1 2304
1 2305
1 2306
1 2307
1 2308
1 2309
1 2310
1 2311
1 2312
1 2313
1 2314
1 2315
1 2316
1 2317
1 2318
1 2319
1 2320
1 2321
1 2322
1 2323
1 2324
1 2325
1 2326
1 2327
1 2328
1 2329
1 2330
1 2331
1 2332
1 2333
1 2334
1 2335
1 2336
1 2337
1 2338
1 2339
1 2340
1 2341
1 2342
1 2343
1 2344
1 2345
1 2346
1 2347
1 2348
1 2349
1 2350
1 2351
1 2352
1 2353
1 2354
1 2355
1 2356
1 2357
1 2358
1 2359
1 2360
1 2361
1 2362
1 2363
1 2364
1 2365
1 2366
1 2367
1 2368
1 2369
1 2370
1 2371
1 2372
1 2373
1 2374
1 2375
1 2376
1 2377
1 2378
1 2379
1 2380
1 2381
1 2382
1 2383
1 2384
1 2385
1 2386
1 2387
1 2388
1 2389
1 2390
1 2391
1 2392
1 2393
1 2394
1 2395
1 2396
1 2397
1 2398
1 2399
1 2400
1 2401
1 2402
1 2403
1 2404
1 2405
1 2406
1 2407
1 2408
1 2409
1 2410
1 2411
1 2412
1 2413
1 2414
1 2415
1 2416
1 2417
1 2418
1 2419
1 2420
1 2421
1 2422
1 2423
1 2424
1 2425
1 2426
1 2427
1 2428
1 2429
1 2430
1 2431
1 2432
1 2433
1 2434
1 2435
1 2436
1 2437
1 2438
1 2439
1 2440
1 2441
1 2442
1 2443
1 2444
1 2445
1 2446
1 2447
1 2448
1 2449
1 2450
1 2451
1 2452
1 2453
1 2454
1 2455
1 2456
1 2457
1 2458
1 2459
1 2460
1 2461
1 2462
1 2463
1 2464
1 2465
1 2466
1 2467
1 2468
1 2469
1 2470
1 2471
1 2472
1 2473
1 2474
1 2475
1 2476
1 2477
1 2478
1 2479
1 2480
1 2481
1 2482
1 2483
1 2484
1 2485
1 2486
1 2487
1 2488
1 2489
1 2490
1 2491
1 2492
1 2493
1 2494
1 2495
1 2496
1 2497
1 2498
1 2499
1 2500
1 2501
1 2502
1 2503
1 2504
1 2505
1 2506
1 2507
1 2508
1 2509
1 2510
1 2511
1 2512
1 2513
1 2514
1 2515
1 2516
1 2517
1 2518
1 2519
1 2520
1 2521
1 2522
1 2523
1 2524
1 2525
1 2526
1 2527
1 2528
1 2529
1 2530
1 2531
1 2532
1 2533
1 2534
1 2535
1 2536
1 2537
1 2538
1 2539
1 2540
1 2541
1 2542
1 2543
1 2544
1 2545
1 2546
1 2547
1 2548
1 2549
1 2550
1 2551
1 2552
1 2553
1 2554
1 2555
1 2556
1 2557
1 2558
1 2559
1 2560
1 2561
1 2562
1 2563
1 2564
1 2565
1 2566
1 2567
1 2568
1 2569
1 2570
1 2571
1 2572
1 2573
1 2574
1 2575
1 2576
1 2577
1 2578
1 2579
1 2580
1 2581
1 2582
1 2583
1 2584
1 2585
1 2586
1 2587
1 2588
1 2589
1 2590
1 2591
1 2592
1 2593
1 2594
1 2595
1 2596
1 2597
1 2598
1 2599
1 2600
1 2601
1 2602
1 2603
1 2604
1 2605
1 2606
1 2607
1 2608
1 2609
1 2610
1 2611
1 2612
1 2613
1 2614
1 2615
1 2616
1 2617
1 2618
1 2619
1 2620
1 2621
1 2622
1 2623
1 2624
1 2625
1 2626
1 2627
1 2628
1 2629
1 2630
1 2631
1 2632
1 2633
1 2634
1 2635
1 2636
1 2637
1 2638
1 2639
1 2640
1 2641
1 2642
1 2643
1 2644
1 2645
1 2646
1 2647
1 2648
1 2649
1 2650
1 2651
1 2652
1 2653
1 2654
1 2655
1 2656
1 2657
1 2658
1 2659
1 2660
1 2661
1 2662
1 2663
1 2664
1 2665
1 2666
1 2667
1 2668
1 2669
1 2670
1 2671
1 2672
1 2673
1 2674
1 2675
1 2676
1 2677
1 2678
1 2679
1 2680
1 2681
1 2682
1 2683
1 2684
1 2685
1 2686
1 2687
1 2688
1 2689
1 2690
1 2691
1 2692
1 2693
1 2694
1 2695
1 2696
1 2697
1 2698
1 2699
1 2700
1 2701
1 2702
1 2703
1 2704
1 2705
1 2706
1 2707
1 2708
1 2709
1 2710
1 2711
1 2712
1 2713
1 2714
1 2715
1 2716
1 2717
1 2718
1 2719
1 2720
1 2721
1 2722
1 2723
1 2724
1 2725
1 2726
1 2727
1 2728
1 2729
1 2730
1 2731
1 2732
1 2733
1 2734
1 2735
1 2736
1 2737
1 2738
1 2739
1 2740
1 2741
1 2742
1 2743
1 2744
1 2745
1 2746
1 2747
1 2748
1 2749
1 2750
1 2751
1 2752
1 2753
1 2754
1 2755
1 2756
1 2757
1 2758
1 2759
1 2760
1 2761
1 2762
1 2763
1 2764
1 2765
1 2766
1 2767
1 2768
1 2769
1 2770
1 2771
1 2772
1 2773
1 2774
1 2775
1 2776
1 2777
1 2778
1 2779
1 2780
1 2781
1 2782
1 2783
1 2784
1 2785
1 2786
1 2787
1 2788
1 2789
1 2790
1 2791
1 2792
1 2793
1 2794
1 2795
1 2796
1 2797
1 2798
1 2799
1 2800
1 2801
1 2802
1 2803
1 2804
1 2805
1 2806
1 2807
1 2808
1 2809
1 2810
1 2811
1 2812
1 2813
1 2814
1 2815
1 2816
1 2817
1 2818
1 2819
1 2820
1 2821
1 2822
1 2823
1 2824
1 2825
1 2826
1 2827
1 2828
1 2829
1 2830
1 2831
1 2832
1 2833
1 2834
1 2835
1 2836
1 2837
1 2838
1 2839
1 2840
1 2841
1 2842
1 2843
1 2844
1 2845
1 2846
1 2847
1 2848
1 2849
1 2850
1 2851
1 2852
1 2853
1 2854
1 2855
1 2856
1 2857
1 2858
1 2859
1 2860
1 2861
1 2862
1 2863
1 2864
1 2865
1 2866
1 2867
1 2868
1 2869
1 2870
1 2871
1 2872
1 2873
1 2874
1 2875
1 2876
1 2877
1 2878
1 2879
1 2880
1 2881
1 2882
1 2883
1 2884
1 2885
1 2886
1 2887
1 2888
1 2889
1 2890
1 2891
1 2892
1 2893
1 2894
1 2895
1 2896
1 2897
1 2898
1 2899
1 2900
1 2901
1 2902
1 2903
1 2904
1 2905
1 2906
1 2907
1 2908
1 2909
1 2910
1 2911
1 2912
1 2913
1 2914
1 2915
1 2916
1 2917
1 2918
1 2919
1 2920
1 2921
1 2922
1 2923
1 2924
1 2925
1 2926
1 2927
1 2928
1 2929
1 2930
1 2931
1 2932
1 2933
1 2934
1 2935
1 2936
1 2937
1 2938
1 2939
1 2940
1 2941
1 2942
1 2943
1 2944
1 2945
1 2946
1 2947
1 2948
1 2949
1 2950
1 2951
1 2952
1 2953
1 2954
1 2955
1 2956
1 2957
1 2958
1 2959
1 2960
1 2961
1 2962
1 2963
1 2964
1 2965
1 2966
1 2967
1 2968
1 2969
1 2970
1 2971
1 2972
1 2973
1 2974
1 2975
1 2976
1 2977
1 2978
1 2979
1 2980
1 2981
1 2982
1 2983
1 2984
1 2985
1 2986
1 2987
1 2988
1 2989
1 2990
1 2991
1 2992
1 2993
1 2994
1 2995
1 2996
1 2997
1 2998
1 2999
1 3000
1 3001
1 3002
1 3003
1 3004
1 3005
1 3006
1 3007
1 3008
1 3009
1 3010
1 3011
1 3012
1 3013
1 3014
1 3015
1 3016
1 3017
1 3018
1 3019
1 3020
1 3021
1 3022
1 3023
1 3024
1 3025
1 3026
1 3027
1 3028
1 3029
1 3030
1 3031
1 3032
1 3033
1 3034
1 3035
1 3036
1 3037
1 3038
1 3039
1 3040
1 3041
1 3042
1 3043
1 3044
1 3045
1 3046
1 3047
1 3048
1 3049
1 3050
1 3051
1 3052
1 3053
1 3054
1 3055
1 3056
1 3057
1 3058
1 3059
1 3060
1 3061
1 3062
1 3063
1 3064
1 3065
1 3066
1 3067
1 3068
1 3069
1 3070
1 3071
1 3072
1 3073
1 3074
1 3075
1 3076
1 3077
1 3078
1 3079
1 3080
1 3081
1 3082
1 3083
1 3084
1 3085
1 3086
1 3087
1 3088
1 3089
1 3090
1 3091
1 3092
1 3093
1 3094
1 3095
1 3096
1 3097
1 3098
1 3099
1 3100
1 3101
1 3102
1 3103
1 3104
1 3105
1 3106
1 3107
1 3108
1 3109
1 3110
1 3111
1 3112
1 3113
1 3114
1 3115
1 3116
1 3117
1 3118
1 3119
1 3120
1 3121
1 3122
1 3123
1 3124
1 3125
1 3126
1 3127
1 3128
1 3129
1 3130
1 3131
1 3132
1 3133
1 3134
1 3135
1 3136
1 3137
1 3138
1 3139
1 3140
1 3141
1 3142
1 3143
1 3144
1 3145
1 3146
1 3147
1 3148
1 3149
1 3150
1 3151
1 3152
1 3153
1 3154
1 3155
1 3156
1 3157
1 3158
1 3159
1 3160
1 3161
1 3162
1 3163
1 3164
1 3165
1 3166
1 3167
1 3168
1 3169
1 3170
1 3171
1 3172
1 3173
1 3174
1 3175
1 3176
1 3177
1 3178
1 3179
1 3180
1 3181
1 3182
1 3183
1 3184
1 3185
1 3186
1 3187
1 3188
1 3189
1 3190
1 3191
1 3192
1 3193
1 3194
1 3195
1 3196
1 3197
1 3198
1 3199
1 3200
1 3201
1 3202
1 3203
1 3204
1 3205
1 3206
1 3207
1 3208
1 3209
1 3210
1 3211
1 3212
1 3213
1 3214
1 3215
1 3216
1 3217
1 3218
1 3219
1 3220
1 3221
1 3222
1 3223
1 3224
1 3225
1 3226
1 3227
1 3228
1 3229
1 3230
1 3231
1 3232
1 3233
1 3234
1 3235
1 3236
1 3237
1 3238
1 3239
1 3240
1 3241
1 3242
1 3243
1 3244
1 3245
1 3246
1 3247
1 3248
1 3249
1 3250
1 3251
1 3252
1 3253
1 3254
1 3255
1 3256
1 3257
1 3258
1 3259
1 3260
1 3261
1 3262
1 3263
1 3264
1 3265
1 3266
1 3267
1 3268
1 3269
1 3270
1 3271
1 3272
1 3273
1 3274
1 3275
1 3276
1 3277
1 3278
1 3279
1 3280
1 3281
1 3282
1 3283
1 3284
1 3285
1 3286
1 3287
1 3288
1 3289
1 3290
1 3291
1 3292
1 3293
1 3294
1 3295
1 3296
1 3297
1 3298
1 3299
1 3300
1 3301
1 3302
1 3303
1 3304
1 3305
1 3306
1 3307
1 3308
1 3309
1 3310
1 3311
1 3312
1 3313
1 3314
1 3315
1 3316
1 3317
1 3318
1 3319
1 3320
1 3321
1 3322
1 3323
1 3324
1 3325
1 3326
1 3327
1 3328
1 3329
1 3330
1 3331
1 3332
1 3333
1 3334
1 3335
1 3336
1 3337
1 3338
1 3339
1 3340
1 3341
1 3342
1 3343
1 3344
1 3345
1 3346
1 3347
1 3348
1 3349
1 3350
1 3351
1 3352
1 3353
1 3354
1 3355
1 3356
1 3357
1 3358
1 3359
1 3360
1 3361
1 3362
1 3363
1 3364
1 3365
1 3366
1 3367
1 3368
1 3369
1 3370
1 3371
1 3372
1 3373
1 3374
1 3375
1 3376
1 3377
1 3378
1 3379
1 3380
1 3381
1 3382
1 3383
1 3384
1 3385
1 3386
1 3387
1 3388
1 3389
1 3390
1 3391
1 3392
1 3393
1 3394
1 3395
1 3396
1 3397
1 3398
1 3399
1 3400
1 3401
1 3402
1 3403
1 3404
1 3405
1 3406
1 3407
1 3408
1 3409
1 3410
1 3411
1 3412
1 3413
1 3414
1 3415
1 3416
1 3417
1 3418
1 3419
1 3420
1 3421
1 3422
1 3423
1 3424
1 3425
1 3426
1 3427
1 3428
1 3429
1 3430
1 3431
1 3432
1 3433
1 3434
1 3435
1 3436
1 3437
1 3438
1 3439
1 3440
1 3441
1 3442
1 3443
1 3444
1 3445
1 3446
1 3447
1 3448
1 3449
1 3450
1 3451
1 3452
1 3453
1 3454
1 3455
1 3456
1 3457
1 3458
1 3459
1 3460
1 3461
1 3462
1 3463
1 3464
1 3465
1 3466
1 3467
1 3468
1 3469
1 3470
1 3471
1 3472
1 3473
1 3474
1 3475
1 3476
1 3477
1 3478
1 3479
1 3480
1 3481
1 3482
1 3483
1 3484
1 3485
1 3486
1 3487
1 3488
1 3489
1 3490
1 3491
1 3492
1 3493
1 3494
1 3495
1 3496
1 3497
1 3498
1 3499
1 3500
1 3501
1 3502
1 3503
1 3504
1 3505
1 3506
1 3507
1 3508
1 3509
1 3510
1 3511
1 3512
1 3513
1 3514
1 3515
1 3516
1 3517
1 3518
1 3519
1 3520
1 3521
1 3522
1 3523
1 3524
1 3525
1 3526
1 3527
1 3528
1 3529
1 3530
1 3531
1 3532
1 3533
1 3534
1 3535
1 3536
1 3537
1 3538
1 3539
1 3540
1 3541
1 3542
1 3543
1 3544
1 3545
1 3546
1 3547
1 3548
1 3549
1 3550
1 3551
1 3552
1 3553
1 3554
1 3555
1 3556
1 3557
1 3558
1 3559
1 3560
1 3561
1 3562
1 3563
1 3564
1 3565
1 3566
1 3567
1 3568
1 3569
1 3570
1 3571
1 3572
1 3573
1 3574
1 3575
1 3576
1 3577
1 3578
1 3579
1 3580
1 3581
1 3582
1 3583
1 3584
1 3585
1 3586
1 3587
1 3588
1 3589
1 3590
1 3591
1 3592
1 3593
1 3594
1 3595
1 3596
1 3597
1 3598
1 3599
1 3600
1 3601
1 3602
1 3603
1 3604
1 3605
1 3606
1 3607
1 3608
1 3609
1 3610
1 3611
1 3612
1 3613
1 3614
1 3615
1 3616
1 3617
1 3618
1 3619
1 3620
1 3621
1 3622
1 3623
1 3624
1 3625
1 3626
1 3627
1 3628
1 3629
1 3630
1 3631
1 3632
1 3633
1 3634
1 3635
1 3636
1 3637
1 3638
1 3639
1 3640
1 3641
1 3642
1 3643
1 3644
1 3645
1 3646
1 3647
1 3648
1 3649
1 3650
1 3651
1 3652
1 3653
1 3654
1 3655
1 3656
1 3657
1 3658
1 3659
1 3660
1 3661
1 3662
1 3663
1 3664
1 3665
1 3666
1 3667
1 3668
1 3669
1 3670
1 3671
1 3672
1 3673
1 3674
1 3675
1 3676
1 3677
1 3678
1 3679
1 3680
1 3681
1 3682
1 3683
1 3684
1 3685
1 3686
1 3687
1 3688
1 3689
1 3690
1 3691
1 3692
1 3693
1 3694
1 3695
1 3696
1 3697
1 3698
1 3699
1 3700
1 3701
1 3702
1 3703
1 3704
1 3705
1 3706
1 3707
1 3708
1 3709
1 3710
1 3711
1 3712
1 3713
1 3714
1 3715
1 3716
1 3717
1 3718
1 3719
1 3720
1 3721
1 3722
1 3723
1 3724
1 3725
1 3726
1 3727
1 3728
1 3729
1 3730
1 3731
1 3732
1 3733
1 3734
1 3735
1 3736
1 3737
1 3738
1 3739
1 3740
1 3741
1 3742
1 3743
1 3744
1 3745
1 3746
1 3747
1 3748
1 3749
1 3750
1 3751
1 3752
1 3753
1 3754
1 3755
1 3756
1 3757
1 3758
1 3759
1 3760
1 3761
1 3762
1 3763
1 3764
1 3765
1 3766
1 3767
1 3768
1 3769
1 3770
1 3771
1 3772
1 3773
1 3774
1 3775
1 3776
1 3777
1 3778
1 3779
1 3780
1 3781
1 3782
1 3783
1 3784
1 3785
1 3786
1 3787
1 3788
1 3789
1 3790
1 3791
1 3792
1 3793
1 3794
1 3795
1 3796
1 3797
1 3798
1 3799
1 3800
1 3801
1 3802
1 3803
1 3804
1 3805
1 3806
1 3807
1 3808
1 3809
1 3810
1 3811
1 3812
1 3813
1 3814
1 3815
1 3816
1 3817
1 3818
1 3819
1 3820
1 3821
1 3822
1 3823
1 3824
1 3825
1 3826
1 3827
1 3828
1 3829
1 3830
1 3831
1 3832
1 3833
1 3834
1 3835
1 3836
1 3837
1 3838
1 3839
1 3840
1 3841
1 3842
1 3843
1 3844
1 3845
1 3846
1 3847
1 3848
1 3849
1 3850
1 3851
1 3852
1 3853
1 3854
1 3855
1 3856
1 3857
1 3858
1 3859
1 3860
1 3861
1 3862
1 3863
1 3864
1 3865
1 3866
1 3867
1 3868
1 3869
1 3870
1 3871
1 3872
1 3873
1 3874
1 3875
1 3876
1 3877
1 3878
1 3879
1 3880
1 3881
1 3882
1 3883
1 3884
1 3885
1 3886
1 3887
1 3888
1 3889
1 3890
1 3891
1 3892
1 3893
1 3894
1 3895
1 3896
1 3897
1 3898
1 3899
1 3900
1 3901
1 3902
1 3903
1 3904
1 3905
1 3906
1 3907
1 3908
1 3909
1 3910
1 3911
1 3912
1 3913
1 3914
1 3915
1 3916
1 3917
1 3918
1 3919
1 3920
1 3921
1 3922
1 3923
1 3924
1 3925
1 3926
1 3927
1 3928
1 3929
1 3930
1 3931
1 3932
1 3933
1 3934
1 3935
1 3936
1 3937
1 3938
1 3939
1 3940
1 3941
1 3942
1 3943
1 3944
1 3945
1 3946
1 3947
1 3948
1 3949
1 3950
1 3951
1 3952
1 3953
1 3954
1 3955
1 3956
1 3957
1 3958
1 3959
1 3960
1 3961
1 3962
1 3963
1 3964
1 3965
1 3966
1 3967
1 3968
1 3969
1 3970
1 3971
1 3972
1 3973
1 3974
1 3975
1 3976
1 3977
1 3978
1 3979
1 3980
1 3981
1 3982
1 3983
1 3984
1 3985
1 3986
1 3987
1 3988
1 3989
1 3990
1 3991
1 3992
1 3993
1 3994
1 3995
1 3996
1 3997
1 3998
1 3999
1 4000
1 4001
1 4002
1 4003
1 4004
1 4005
1 4006
1 4007
1 4008
1 4009
1 4010
1 4011
1 4012
1 4013
1 4014
1 4015
1 4016
1 4017
1 4018
1 4019
1 4020
1 4021
1 4022
1 4023
1 4024
1 4025
1 4026
1 4027
1 4028
1 4029
1 4030
1 4031
1 4032
1 4033
1 4034
1 4035
1 4036
1 4037
1 4038
1 4039
1 4040
1 4041
1 4042
1 4043
1 4044
1 4045
1 4046
1 4047
1 4048
1 4049
1 4050
1 4051
1 4052
1 4053
1 4054
1 4055
1 4056
1 4057
1 4058
1 4059
1 4060
1 4061
1 4062
1 4063
1 4064
1 4065
1 4066
1 4067
1 4068
1 4069
1 4070
1 4071
1 4072
1 4073
1 4074
1 4075
1 4076
1 4077
1 4078
1 4079
1 4080
1 4081
1 4082
1 4083
1 4084
1 4085
1 4086
1 4087
1 4088
1 4089
1 4090
1 4091
1 4092
1 4093
1 4094
1 4095
1 4096
1 4097
1 4098
1 4099
1 4100
1 4101
1 4102
1 4103
1 4104
1 4105
1 4106
1 4107
1 4108
1 4109
1 4110
1 4111
1 4112
1 4113
1 4114
1 4115
1 4116
1 4117
1 4118
1 4119
1 4120
1 4121
1 4122
1 4123
1 4124
1 4125
1 4126
1 4127
1 4128
1 4129
1 4130
1 4131
1 4132
1 4133
1 4134
1 4135
1 4136
1 4137
1 4138
1 4139
1 4140
1 4141
1 4142
1 4143
1 4144
1 4145
1 4146
1 4147
1 4148
1 4149
1 4150
1 4151
1 4152
1 4153
1 4154
1 4155
1 4156
1 4157
1 4158
1 4159
1 4160
1 4161
1 4162
1 4163
1 4164
1 4165
1 4166
1 4167
1 4168
1 4169
1 4170
1 4171
1 4172
1 4173
1 4174
1 4175
1 4176
1 4177
1 4178
1 4179
1 4180
1 4181
1 4182
1 4183
1 4184
1 4185
1 4186
1 4187
1 4188
1 4189
1 4190
1 4191
1 4192
1 4193
1 4194
1 4195
1 4196
1 4197
1 4198
1 4199
1 4200
1 4201
1 4202
1 4203
1 4204
1 4205
1 4206
1 4207
1 4208
1 4209
1 4210
1 4211
1 4212
1 4213
1 4214
1 4215
1 4216
1 4217
1 4218
1 4219
1 4220
1 4221
1 4222
1 4223
1 4224
1 4225
1 4226
1 4227
1 4228
1 4229
1 4230
1 4231
1 4232
1 4233
1 4234
1 4235
1 4236
1 4237
1 4238
1 4239
1 4240
1 4241
1 4242
1 4243
1 4244
1 4245
1 4246
1 4247
1 4248
1 4249
1 4250
1 4251
1 4252
1 4253
1 4254
1 4255
1 4256
1 4257
1 4258
1 4259
1 4260
1 4261
1 4262
1 4263
1 4264
1 4265
1 4266
1 4267
1 4268
1 4269
1 4270
1 4271
1 4272
1 4273
1 4274
1 4275
1 4276
1 4277
1 4278
1 4279
1 4280
1 4281
1 4282
1 4283
1 4284
1 4285
1 4286
1 4287
1 4288
1 4289
1 4290
1 4291
1 4292
1 4293
1 4294
1 4295
1 4296
1 4297
1 4298
1 4299
1 4300
1 4301
1 4302
1 4303
1 4304
1 4305
1 4306
1 4307
1 4308
1 4309
1 4310
1 4311
1 4312
1 4313
1 4314
1 4315
1 4316
1 4317
1 4318
1 4319
1 4320
1 4321
1 4322
1 4323
1 4324
1 4325
1 4326
1 4327
1 4328
1 4329
1 4330
1 4331
1 4332
1 4333
1 4334
1 4335
1 4336
1 4337
1 4338
1 4339
1 4340
1 4341
1 4342
1 4343
1 4344
1 4345
1 4346
1 4347
1 4348
1 4349
1 4350
1 4351
1 4352
1 4353
1 4354
1 4355
1 4356
1 4357
1 4358
1 4359
1 4360
1 4361
1 4362
1 4363
1 4364
1 4365
1 4366
1 4367
1 4368
1 4369
1 4370
1 4371
1 4372
1 4373
1 4374
1 4375
1 4376
1 4377
1 4378
1 4379
1 4380
1 4381
1 4382
1 4383
1 4384
1 4385
1 4386
1 4387
1 4388
1 4389
1 4390
1 4391
1 4392
1 4393
1 4394
1 4395
1 4396
1 4397
1 4398
1 4399
1 4400
1 4401
1 4402
1 4403
1 4404
1 4405
1 4406
1 4407
1 4408
1 4409
1 4410
1 4411
1 4412
1 4413
1 4414
1 4415
1 4416
1 4417
1 4418
1 4419
1 4420
1 4421
1 4422
1 4423
1 4424
1 4425
1 4426
1 4427
1 4428
1 4429
1 4430
1 4431
1 4432
1 4433
1 4434
1 4435
1 4436
1 4437
1 4438
1 4439
1 4440
1 4441
1 4442
1 4443
1 4444
1 4445
1 4446
1 4447
1 4448
1 4449
1 4450
1 4451
1 4452
1 4453
1 4454
1 4455
1 4456
1 4457
1 4458
1 4459
1 4460
1 4461
1 4462
1 4463
1 4464
1 4465
1 4466
1 4467
1 4468
1 4469
1 4470
1 4471
1 4472
1 4473
1 4474
1 4475
1 4476
1 4477
1 4478
1 4479
1 4480
1 4481
1 4482
1 4483
1 4484
1 4485
1 4486
1 4487
1 4488
1 4489
1 4490
1 4491
1 4492
1 4493
1 4494
1 4495
1 4496
1 4497
1 4498
1 4499
1 4500
1 4501
1 4502
1 4503
1 4504
1 4505
1 4506
1 4507
1 4508
1 4509
1 4510
1 4511
1 4512
1 4513
1 4514
1 4515
1 4516
1 4517
1 4518
1 4519
1 4520
1 4521
1 4522
1 4523
1 4524
1 4525
1 4526
1 4527
1 4528
1 4529
1 4530
1 4531
1 4532
1 4533
1 4534
1 4535
1 4536
1 4537
1 4538
1 4539
1 4540
1 4541
1 4542
1 4543
1 4544
1 4545
1 4546
1 4547
1 4548
1 4549
1 4550
1 4551
1 4552
1 4553
1 4554
1 4555
1 4556
1 4557
1 4558
1 4559
1 4560
1 4561
1 4562
1 4563
1 4564
1 4565
1 4566
1 4567
1 4568
1 4569
1 4570
1 4571
1 4572
1 4573
1 4574
1 4575
1 4576
1 4577
1 4578
1 4579
1 4580
1 4581
1 4582
1 4583
1 4584
1 4585
1 4586
1 4587
1 4588
1 4589
1 4590
1 4591
1 4592
1 4593
1 4594
1 4595
1 4596
1 4597
1 4598
1 4599
1 4600
1 4601
1 4602
1 4603
1 4604
1 4605
1 4606
1 4607
1 4608
1 4609
1 4610
1 4611
1 4612
1 4613
1 4614
1 4615
1 4616
1 4617
1 4618
1 4619
1 4620
1 4621
1 4622
1 4623
1 4624
1 4625
1 4626
1 4627
1 4628
1 4629
1 4630
1 4631
1 4632
1 4633
1 4634
1 4635
1 4636
1 4637
1 4638
1 4639
1 4640
1 4641
1 4642
1 4643
1 4644
1 4645
1 4646
1 4647
1 4648
1 4649
1 4650
1 4651
1 4652
1 4653
1 4654
1 4655
1 4656
1 4657
1 4658
1 4659
1 4660
1 4661
1 4662
1 4663
1 4664
1 4665
1 4666
1 4667
1 4668
1 4669
1 4670
1 4671
1 4672
1 4673
1 4674
1 4675
1 4676
1 4677
1 4678
1 4679
1 4680
1 4681
1 4682
1 4683
1 4684
1 4685
1 4686
1 4687
1 4688
1 4689
1 4690
1 4691
1 4692
1 4693
1 4694
1 4695
1 4696
1 4697
1 4698
1 4699
1 4700
1 4701
1 4702
1 4703
1 4704
1 4705
1 4706
1 4707
1 4708
1 4709
1 4710
1 4711
1 4712
1 4713
1 4714
1 4715
1 4716
1 4717
1 4718
1 4719
1 4720
1 4721
1 4722
1 4723
1 4724
1 4725
1 4726
1 4727
1 4728
1 4729
1 4730
1 4731
1 4732
1 4733
1 4734
1 4735
1 4736
1 4737
1 4738
1 4739
1 4740
1 4741
1 4742
1 4743
1 4744
1 4745
1 4746
1 4747
1 4748
1 4749
1 4750
1 4751
1 4752
1 4753
1 4754
1 4755
1 4756
1 4757
1 4758
1 4759
1 4760
1 4761
1 4762
1 4763
1 4764
1 4765
1 4766
1 4767
1 4768
1 4769
1 4770
1 4771
1 4772
1 4773
1 4774
1 4775
1 4776
1 4777
1 4778
1 4779
1 4780
1 4781
1 4782
1 4783
1 4784
1 4785
1 4786
1 4787
1 4788
1 4789
1 4790
1 4791
1 4792
1 4793
1 4794
1 4795
1 4796
1 4797
1 4798
1 4799
1 4800
1 4801
1 4802
1 4803
1 4804
1 4805
1 4806
1 4807
1 4808
1 4809
1 4810
1 4811
1 4812
1 4813
1 4814
1 4815
1 4816
1 4817
1 4818
1 4819
1 4820
1 4821
1 4822
1 4823
1 4824
1 4825
1 4826
1 4827
1 4828
1 4829
1 4830
1 4831
1 4832
1 4833
1 4834
1 4835
1 4836
1 4837
1 4838
1 4839
1 4840
1 4841
1 4842
1 4843
1 4844
1 4845
1 4846
1 4847
1 4848
1 4849
1 4850
1 4851
1 4852
1 4853
1 4854
1 4855
1 4856
1 4857
1 4858
1 4859
1 4860
1 4861
1 4862
1 4863
1 4864
1 4865
1 4866
1 4867
1 4868
1 4869
1 4870
1 4871
1 4872
1 4873
1 4874
1 4875
1 4876
1 4877
1 4878
1 4879
1 4880
1 4881
1 4882
1 4883
1 4884
1 4885
1 4886
1 4887
1 4888
1 4889
1 4890
1 4891
1 4892
1 4893
1 4894
1 4895
1 4896
1 4897
1 4898
1 4899
1 4900
1 4901
1 4902
1 4903
1 4904
1 4905
1 4906
1 4907
1 4908
1 4909
1 4910
1 4911
1 4912
1 4913
1 4914
1 4915
1 4916
1 4917
1 4918
1 4919
1 4920
1 4921
1 4922
1 4923
1 4924
1 4925
1 4926
1 4927
1 4928
1 4929
1 4930
1 4931
1 4932
1 4933
1 4934
1 4935
1 4936
1 4937
1 4938
1 4939
1 4940
1 4941
1 4942
1 4943
1 4944
1 4945
1 4946
1 4947
1 4948
1 4949
1 4950
1 4951
1 4952
1 4953
1 4954
1 4955
1 4956
1 4957
1 4958
1 4959
1 4960
1 4961
1 4962
1 4963
1 4964
1 4965
1 4966
1 4967
1 4968
1 4969
1 4970
1 4971
1 4972
1 4973
1 4974
1 4975
1 4976
1 4977
1 4978
1 4979
1 4980
1 4981
1 4982
1 4983
1 4984
1 4985
1 4986
1 4987
1 4988
1 4989
1 4990
1 4991
1 4992
1 4993
1 4994
1 4995
1 4996
1 4997
1 4998
1 4999
CELL_TYPES 5000
1 
1 
1 
1 
1 
1 
1 
1 
1 
1 
1 
1 
1 
1 
1 
1 
1 
1 
1 
1 
1 
1 
1 
1 
1 
1 
1 
1 
1 
1 
1 
1 
1 
1 
1 
1 
1 
1 
1 
1 
1 
1 
1 
1 
1 
1 
1 
1 
1 
1 
1 
1 
1 
1 
1 
1 
1 
1 
1 
1 
1 
1 
1 
1 
1 
1 
1 
1 
1 
1 
1 
1 
1 
1 
1 
1 
1 
1 
1 
1 
1 
1 
1 
1 
1 
1 
1 
1 
1 
1 
1 
1 
1 
1 
1 
1 
1 
1 
1 
1 
1 
1 
1 
1 
1 
1 
1 
1 
1 
1 
1 
1 
1 
1 
1 
1 
1 
1 
1 
1 
1 
1 
1 
1 
1 
1 
1 
1 
1 
1 
1 
1 
1 
1 
1 
1 
1 
1 
1 
1 
1 
1 
1 
1 
1 
1 
1 
1 
1 
1 
1 
1 
1 
1 
1 
1 
1 
1 
1 
1 
1 
1 
1 
1 
1 
1 
1 
1 
1 
1 
1 
1 
1 
1 
1 
1 
1 
1 
1 
1 
1 
1 
1 
1 
1 
1 
1 
1 
1 
1 
1 
1 
1 
1 
1 
1 
1 
1 
1 
1 
1 
1 
1 
1 
1 
1 
1 
1 
1 
1 
1 
1 
1 
1 
1 
1 
1 
1 
1 
1 
1 
1 
1 
1 
1 
1 
1 
1 
1 
1 
1 
1 
1 
1 
1 
1 
1 
1 
1 
1 
1 
1 
1 
1 
1 
1 
1 
1 
1 
1 
1 
1 
1 
1 
1 
1 
1 
1 
1 
1 
1 
1 
1 
1 
1 
1 
1 
1 
1 
1 
1 
1 
1 
1 
1 
1 
1 
1 
1 
1 
1 
1 
1 
1 
1 
1 
1 
1 
1 
1 
1 
1 
1 
1 
1 
1 
1 
1 
1 
1 
1 
1 
1 
1 
1 
1 
1 
1 
1 
1 
1 
1 
1 
1 
1 
1 
1 
1 
1 
1 
1 
1 
1 
1 
1 
1 
1 
1 
1 
1 
1 
1 
1 
1 
1 
1 
1 
1 
1 
1 
1 
1 
1 
1 
1 
1 
1 
1 
1 
1 
1 
1 
1 
1 
1 
1 
1 
1 
1 
1 
1 
1 
1 
1 
1 
1 
1 
1 
1 
1 
1 
1 
1 
1 
1 
1 
1 
1 
1 
1 
1 
1 
1 
1 
1 
1 
1 
1 
1 
1 
1 
1 
1 
1 
1 
1 
1 
1 
1 
1 
1 
1 
1 
1 
1 
1 
1 
1 
1 
1 
1 
1 
1 
1 
1 
1 
1 
1 
1 
1 
1 
1 
1 
1 
1 
1 
1 
1 
1 
1 
1 
1 
1 
1 
1 
1 
1 
1 
1 
1 
1 
1 
1 
1 
1 
1 
1 
1 
1 
1 
1 
1 
1 
1 
1 
1 
1 
1 
1 
1 
1 
1 
1 
1 
1 
1 
1 
1 
1 
1 
1 
1 
1 
1 
1 
1 
1 
1 
1 
1 
1 
1 
1 
1 
1 
1 
1 
1 
1 
1 
1 
1 
1 
1 
1 
1 
1 
1 
1 
1 
1 
1 
1 
1 
1 
1 
1 
1 
1 
1 
1 
1 
1 
1 
1 
1 
1 
1 
1 
1 
1 
1 
1 
1 
1 
1 
1 
1 
1 
1 
1 
1 
1 
1 
1 
1 
1 
1 
1 
1 
1 
1 
1 
1 
1 
1 
1 
1 
1 
1 
1 
1 
1 
1 
1 
1 
1 
1 
1 
1 
1 
1 
1 
1 
1 
1 
1 
1 
1 
1 
1 
1 
1 
1 
1 
1 
1 
1 
1 
1 
1 
1 
1 
1 
1 
1 
1 
1 
1 
1 
1 
1 
1 
1 
1 
1 
1 
1 
1 
1 
1 
1 
1 
1 
1 
1 
1 
1 
1 
1 
1 
1 
1 
1 
1 
1 
1 
1 
1 
1 
1 
1 
1 
1 
1 
1 
1 
1 
1 
1 
1 
1 
1 
1 
1 
1 
1 
1 
1 
1 
1 
1 
1 
1 
1 
1 
1 
1 
1 
1 
1 
1 
1 
1 
1 
1 
1 
1 
1 
1 
1 
1 
1 
1 
1 
1 
1 
1 
1 
1 
1 
1 
1 
1 
1 
1 
1 
1 
1 
1 
1 
1 
1 
1 
1 
1 
1 
1 
1 
1 
1 
1 
1 
1 
1 
1 
1 
1 
1 
1 
1 
1 
1 
1 
1 
1 
1 
1 
1 
1 
1 
1 
1 
1 
1 
1 
1 
1 
1 
1 
1 
1 
1 
1 
1 
1 
1 
1 
1 
1 
1 
1 
1 
1 
1 
1 
1 
1 
1 
1 
1 
1 
1 
1 
1 
1 
1 
1 
1 
1 
1 
1 
1 
1 
1 
1 
1 
1 
1 
1 
1 
1 
1 
1 
1 
1 
1 
1 
1 
1 
1 
1 
1 
1 
1 
1 
1 
1 
1 
1 
1 
1 
1 
1 
1 
1 
1 
1 
1 
1 
1 
1 
1 
1 
1 
1 
1 
1 
1 
1 
1 
1 
1 
1 
1 
1 
1 
1 
1 
1 
1 
1 
1 
1 
1 
1 
1 
1 
1 
1 
1 
1 
1 
1 
1 
1 
1 
1 
1 
1 
1 
1 
1 
1 
1 
1 
1 
1 
1 
1 
1 
1 
1 
1 
1 
1 
1 
1 
1 
1 
1 
1 
1 
1 
1 
1 
1 
1 
1 
1 
1 
1 
1 
1 
1 
1 
1 
1 
1 
1 
1 
1 
1 
1 
1 
1 
1 
1 
1 
1 
1 
1 
1 
1 
1 
1 
1 
1 
1 
1 
1 
1 
1 
1 
1 
1 
1 
1 
1 
1 
1 
1 
1 
1 
1 
1 
1 
1 
1 
1 
1 
1 
1 
1 
1 
1 
1 
1 
1 
1 
1 
1 
1 
1 
1 
1 
1 
1 
1 
1 
1 
1 
1 
1 
1 
1 
1 
1 
1 
1 
1 
1 
1 
1 
1 
1 
1 
1 
1 
1 
1 
1 
1 
1 
1 
1 
1 
1 
1 
1 
1 
1 
1 
1 
1 
1 
1 
1 
1 
1 
1 
1 
1 
1 
1 
1 
1 
1 
1 
1 
1 
1 
1 
1 
1 
1 
1 
1 
1 
1 
1 
1 
1 
1 
1 
1 
1 
1 
1 
1 
1 
1 
1 
1 
1 
1 
1 
1 
1 
1 
1 
1 
1 
1 
1 
1 
1 
1 
1 
1 
1 
1 
1 
1 
1 
1 
1 
1 
1 
1 
1 
1 
1 
1 
1 
1 
1 
1 
1 
1 
1 
1 
1 
1 
1 
1 
1 
1 
1 
1 
1 
1 
1 
1 
1 
1 
1 
1 
1 
1 
1 
1 
1 
1 
1 
1 
1 
1 
1 
1 
1 
1 
1 
1 
1 
1 
1 
1 
1 
1 
1 
1 
1 
1 
1 
1 
1 
1 
1 
1 
1 
1 
1 
1 
1 
1 
1 
1 
1 
1 
1 
1 
1 
1 
1 
1 
1 
1 
1 
1 
1 
1 
1 
1 
1 
1 
1 
1 
1 
1 
1 
1 
1 
1 
1 
1 
1 
1 
1 
1 
1 
1 
1 
1 
1 
1 
1 
1 
1 
1 
1 
1 
1 
1 
1 
1 
1 
1 
1 
1 
1 
1 
1 
1 
1 
1 
1 
1 
1 
1 
1 
1 
1 
1 
1 
1 
1 
1 
1 
1 
1 
1 
1 
1 
1 
1 
1 
1 
1 
1 
1 
1 
1 
1 
1 
1 
1 
1 
1 
1 
1 
1 
1 
1 
1 
1 
1 
1 
1 
1 
1 
1 
1 
1 
1 
1 
1 
1 
1 
1 
1 
1 
1 
1 
1 
1 
1 
1 
1 
1 
1 
1 
1 
1 
1 
1 
1 
1 
1 
1 
1 
1 
1 
1 
1 
1 
1 
1 
1 
1 
1 
1 
1 
1 
1 
1 
1 
1 
1 
1 
1 
1 
1 
1 
1 
1 
1 
1 
1 
1 
1 
1 
1 
1 
1 
1 
1 
1 
1 
1 
1 
1 
1 
1 
1 
1 
1 
1 
1 
1 
1 
1 
1 
1 
1 
1 
1 
1 
1 
1 
1 
1 
1 
1 
1 
1 
1 
1 
1 
1 
1 
1 
1 
1 
1 
1 
1 
1 
1 
1 
1 
1 
1 
1 
1 
1 
1 
1 
1 
1 
1 
1 
1 
1 
1 
1 
1 
1 
1 
1 
1 
1 
1 
1 
1 
1 
1 
1 
1 
1 
1 
1 
1 
1 
1 
1 
1 
1 
1 
1 
1 
1 
1 
1 
1 
1 
1 
1 
1 
1 
1 
1 
1 
1 
1 
1 
1 
1 
1 
1 
1 
1 
1 
1 
1 
1 
1 
1 
1 
1 
1 
1 
1 
1 
1 
1 
1 
1 
1 
1 
1 
1 
1 
1 
1 
1 
1 
1 
1 
1 
1 
1 
1 
1 
1 
1 
1 
1 
1 
1 
1 
1 
1 
1 
1 
1 
1 
1 
1 
1 
1 
1 
1 
1 
1 
1 
1 
1 
1 
1 
1 
1 
1 
1 
1 
1 
1 
1 
1 
1 
1 
1 
1 
1 
1 
1 
1 
1 
1 
1 
1 
1 
1 
1 
1 
1 
1 
1 
1 
1 
1 
1 
1 
1 
1 
1 
1 
1 
1 
1 
1 
1 
1 
1 
1 
1 
1 
1 
1 
1 
1 
1 
1 
1 
1 
1 
1 
1 
1 
1 
1 
1 
1 
1 
1 
1 
1 
1 
1 
1 
1 
1 
1 
1 
1 
1 
1 
1 
1 
1 
1 
1 
1 
1 
1 
1 
1 
1 
1 
1 
1 
1 
1 
1 
1 
1 
1 
1 
1 
1 
1 
1 
1 
1 
1 
1 
1 
1 
1 
1 
1 
1 
1 
1 
1 
1 
1 
1 
1 
1 
1 
1 
1 
1 
1 
1 
1 
1 
1 
1 
1 
1 
1 
1 
1 
1 
1 
1 
1 
1 
1 
1 
1 
1 
1 
1 
1 
1 
1 
1 
1 
1 
1 
1 
1 
1 
1 
1 
1 
1 
1 
1 
1 
1 
1 
1 
1 
1 
1 
1 
1 
1 
1 
1 
1 
1 
1 
1 
1 
1 
1 
1 
1 
1 
1 
1 
1 
1 
1 
1 
1 
1 
1 
1 
1 
1 
1 
1 
1 
1 
1 
1 
1 
1 
1 
1 
1 
1 
1 
1 
1 
1 
1 
1 
1 
1 
1 
1 
1 
1 
1 
1 
1 
1 
1 
1 
1 
1 
1 
1 
1 
1 
1 
1 
1 
1 
1 
1 
1 
1 
1 
1 
1 
1 
1 
1 
1 
1 
1 
1 
1 
1 
1 
1 
1 
1 
1 
1 
1 
1 
1 
1 
1 
1 
1 
1 
1 
1 
1 
1 
1 
1 
1 
1 
1 
1 
1 
1 
1 
1 
1 
1 
1 
1 
1 
1 
1 
1 
1 
1 
1 
1 
1 
1 
1 
1 
1 
1 
1 
1 
1 
1 
1 
1 
1 
1 
1 
1 
1 
1 
1 
1 
1 
1 
1 
1 
1 
1 
1 
1 
1 
1 
1 
1 
1 
1 
1 
1 
1 
1 
1 
1 
1 
1 
1 
1 
1 
1 
1 
1 
1 
1 
1 
1 
1 
1 
1 
1 
1 
1 
1 
1 
1 
1 
1 
1 
1 
1 
1 
1 
1 
1 
1 
1 
1 
1 
1 
1 
1 
1 
1 
1 
1 
1 
1 
1 
1 
1 
1 
1 
1 
1 
1 
1 
1 
1 
1 
1 
1 
1 
1 
1 
1 
1 
1 
1 
1 
1 
1 
1 
1 
1 
1 
1 
1 
1 
1 
1 
1 
1 
1 
1 
1 
1 
1 
1 
1 
1 
1 
1 
1 
1 
1 
1 
1 
1 
1 
1 
1 
1 
1 
1 
1 
1 
1 
1 
1 
1 
1 
1 
1 
1 
1 
1 
1 
1 
1 
1 
1 
1 
1 
1 
1 
1 
1 
1 
1 
1 
1 
1 
1 
1 
1 
1 
1 
1 
1 
1 
1 
1 
1 
1 
1 
1 
1 
1 
1 
1 
1 
1 
1 
1 
1 
1 
1 
1 
1 
1 
1 
1 
1 
1 
1 
1 
1 
1 
1 
1 
1 
1 
1 
1 
1 
1 
1 
1 
1 
1 
1 
1 
1 
1 
1 
1 
1 
1 
1 
1 
1 
1 
1 
1 
1 
1 
1 
1 
1 
1 
1 
1 
1 
1 
1 
1 
1 
1 
1 
1 
1 
1 
1 
1 
1 
1 
1 
1 
1 
1 
1 
1 
1 
1 
1 
1 
1 
1 
1 
1 
1 
1 
1 
1 
1 
1 
1 
1 
1 
1 
1 
1 
1 
1 
1 
1 
1 
1 
1 
1 
1 
1 
1 
1 
1 
1 
1 
1 
1 
1 
1 
1 
1 
1 
1 
1 
1 
1 
1 
1 
1 
1 
1 
1 
1 
1 
1 
1 
1 
1 
1 
1 
1 
1 
1 
1 
1 
1 
1 
1 
1 
1 
1 
1 
1 
1 
1 
1 
1 
1 
1 
1 
1 
1 
1 
1 
1 
1 
1 
1 
1 
1 
1 
1 
1 
1 
1 
1 
1 
1 
1 
1 
1 
1 
1 
1 
1 
1 
1 
1 
1 
1 
1 
1 
1 
1 
1 
1 
1 
1 
1 
1 
1 
1 
1 
1 
1 
1 
1 
1 
1 
1 
1 
1 
1 
1 
1 
1 
1 
1 
1 
1 
1 
1 
1 
1 
1 
1 
1 
1 
1 
1 
1 
1 
1 
1 
1 
1 
1 
1 
1 
1 
1 
1 
1 
1 
1 
1 
1 
1 
1 
1 
1 
1 
1 
1 
1 
1 
1 
1 
1 
1 
1 
1 
1 
1 
1 
1 
1 
1 
1 
1 
1 
1 
1 
1 
1 
1 
1 
1 
1 
1 
1 
1 
1 
1 
1 
1 
1 
1 
1 
1 
1 
1 
1 
1 
1 
1 
1 
1 
1 
1 
1 
1 
1 
1 
1 
1 
1 
1 
1 
1 
1 
1 
1 
1 
1 
1 
1 
1 
1 
1 
1 
1 
1 
1 
1 
1 
1 
1 
1 
1 
1 
1 
1 
1 
1 
1 
1 
1 
1 
1 
1 
1 
1 
1 
1 
1 
1 
1 
1 
1 
1 
1 
1 
1 
1 
1 
1 
1 
1 
1 
1 
1 
1 
1 
1 
1 
1 
1 
1 
1 
1 
1 
1 
1 
1 
1 
1 
1 
1 
1 
1 
1 
1 
1 
1 
1 
1 
1 
1 
1 
1 
1 
1 
1 
1 
1 
1 
1 
1 
1 
1 
1 
1 
1 
1 
1 
1 
1 
1 
1 
1 
1 
1 
1 
1 
1 
1 
1 
1 
1 
1 
1 
1 
1 
1 
1 
1 
1 
1 
1 
1 
1 
1 
1 
1 
1 
1 
1 
1 
1 
1 
1 
1 
1 
1 
1 
1 
1 
1 
1 
1 
1 
1 
1 
1 
1 
1 
1 
1 
1 
1 
1 
1 
1 
1 
1 
1 
1 
1 
1 
1 
1 
1 
1 
1 
1 
1 
1 
1 
1 
1 
1 
1 
1 
1 
1 
1 
1 
1 
1 
1 
1 
1 
1 
1 
1 
1 
1 
1 
1 
1 
1 
1 
1 
1 
1 
1 
1 
1 
1 
1 
1 
1 
1 
1 
1 
1 
1 
1 
1 
1 
1 
1 
1 
1 
1 
1 
1 
1 
1 
1 
1 
1 
1 
1 
1 
1 
1 
1 
1 
1 
1 
1 
1 
1 
1 
1 
1 
1 
1 
1 
1 
1 
1 
1 
1 
1 
1 
1 
1 
1 
1 
1 
1 
1 
1 
1 
1 
1 
1 
1 
1 
1 
1 
1 
1 
1 
1 
1 
1 
1 
1 
1 
1 
1 
1 
1 
1 
1 
1 
1 
1 
1 
1 
1 
1 
1 
1 
1 
1 
1 
1 
1 
1 
1 
1 
1 
1 
1 
1 
1 
1 
1 
1 
1 
1 
1 
1 
1 
1 
1 
1 
1 
1 
1 
1 
1 
1 
1 
1 
1 
1 
1 
1 
1 
1 
1 
1 
1 
1 
1 
1 
1 
1 
1 
1 
1 
1 
1 
1 
1 
1 
1 
1 
1 
1 
1 
1 
1 
1 
1 
1 
1 
1 
1 
1 
1 
1 
1 
1 
1 
1 
1 
1 
1 
1 
1 
1 
1 
1 
1 
1 
1 
1 
1 
1 
1 
1 
1 
1 
1 
1 
1 
1 
1 
1 
1 
1 
1 
1 
1 
1 
1 
1 
1 
1 
1 
1 
1 
1 
1 
1 
1 
1 
1 
1 
1 
1 
1 
1 
1 
1 
1 
1 
1 
1 
1 
1 
1 
1 
1 
1 
1 
1 
1 
1 
1 
1 
1 
1 
1 
1 
1 
1 
1 
1 
1 
1 
1 
1 
1 
1 
1 
1 
1 
1 
1 
1 
1 
1 
1 
1 
1 
1 
1 
1 
1 
1 
1 
1 
1 
1 
1 
1 
1 
1 
1 
1 
1 
1 
1 
1 
1 
1 
1 
1 
1 
1 
1 
1 
1 
1 
1 
1 
1 
1 
1 
1 
1 
1 
1 
1 
1 
1 
1 
1 
1 
1 
1 
1 
1 
1 
1 
1 
1 
1 
1 
1 
1 
1 
1 
1 
1 
1 
1 
1 
1 
1 
1 
1 
1 
1 
1 
1 
1 
1 
1 
1 
1 
1 
1 
1 
1 
1 
1 
1 
1 
1 
1 
1 
1 
1 
1 
1 
1 
1 
1 
1 
1 
1 
1 
1 
1 
1 
1 
1 
1 
1 
1 
1 
1 
1 
1 
1 
1 
1 
1 
1 
1 
1 
1 
1 
1 
1 
1 
1 
1 
1 
1 
1 
1 
1 
1 
1 
1 
1 
1 
1 
1 
1 
1 
1 
1 
1 
1 
1 
1 
1 
1 
1 
1 
1 
1 
1 
1 
1 
1 
1 
1 
1 
1 
1 
1 
1 
1 
1 
1 
1 
1 
1 
1 
1 
1 
1 
1 
1 
1 
1 
1 
1 
1 
1 
1 
1 
1 
1 
1 
1 
1 
1 
1 
1 
1 
1 
1 
1 
1 
1 
1 
1 
1 
1 
1 
1 
1 
1 
1 
1 
1 
1 
1 
1 
1 
1 
1 
1 
1 
1 
1 
1 
1 
1 
1 
1 
1 
1 
1 
1 
1 
1 
1 
1 
1 
1 
1 
1 
1 
1 
1 
1 
1 
1 
1 
1 
1 
1 
1 
1 
1 
1 
1 
1 
1 
1 
1 
1 
1 
1 
1 
1 
1 
1 
1 
1 
1 
1 
1 
1 
1 
1 
1 
1 
1 
1 
1 
1 
1 
1 
1 
1 
1 
1 
1 
1 
1 
1 
1 
1 
1 
1 
1 
1 
1 
1 
1 
1 
1 
1 
1 
1 
1 
1 
1 
1 
1 
1 
1 
1 
1 
1 
1 
1 
1 
1 
1 
1 
1 
1 
1 
1 
1 
1 
1 
1 
1 
1 
1 
1 
1 
1 
1 
1 
1 
1 
1 
1 
1 
1 
1 
1 
1 
1 
1 
1 
1 
1 
1 
1 
1 
1 
1 
1 
1 
1 
1 
1 
1 
1 
1 
1 
1 
1 
1 
1 
1 
1 
1 
1 
1 
1 
1 
1 
1 
1 
1 
1 
1 
1 
1 
1 
1 
1 
1 
1 
1 
1 
1 
1 
1 
1 
1 
1 
1 
1 
1 
1 
1 
1 
1 
1 
1 
1 
1 
1 
1 
1 
1 
1 
1 
1 
1 
1 
1 
1 
1 
1 
1 
1 
1 
1 
1 
1 
1 
1 
1 
1 
1 
1 
1 
1 
1 
1 
1 
1 
1 
1 
1 
1 
1 
1 
1 
1 
1 
1 
1 
1 
1 
1 
1 
1 
1 
1 
1 
1 
1 
1 
1 
1 
1 
1 
1 
1 
1 
1 
1 
1 
1 
1 
1 
1 
1 
1 
1 
1 
1 
1 
1 
1 
1 
1 
1 
1 
1 
1 
1 
1 
1 
1 
1 
1 
1 
1 
1 
1 
1 
1 
1 
1 
1 
1 
1 
1 
1 
1 
1 
1 
1 
1 
1 
1 
1 
1 
1 
1 
1 
1 
1 
1 
1 
1 
1 
1 
1 
1 
1 
1 
1 
1 
1 
1 
1 
1 
1 
1 
1 
1 
1 
1 
1 
1 
1 
1 
1 
1 
1 
1 
1 
1 
1 
1 
1 
1 
1 
1 
1 
1 
1 
1 
1 
1 
1 
1 
1 
1 
1 
1 
1 
1 
1 
1 
1 
1 
1 
1 
1 
1 
1 
1 
1 
1 
1 
1 
1 
1 
1 
1 
1 
1 
1 
1 
1 
1 
1 
1 
1 
1 
1 
1 
1 
1 
1 
1 
1 
1 
1 
1 
1 
1 
1 
1 
1 
1 
1 
1 
1 
1 
1 
1 
1 
1 
1 
1 
1 
1 
1 
1 
1 
1 
1 
1 
1 
1 
1 
1 
1 
1 
1 
1 
1 
1 
1 
1 
1 
1 
1 
1 
1 
1 
1 
1 
1 
1 
1 
1 
1 
1 
1 
1 
1 
1 
1 
1 
1 
1 
1 
1 
1 
1 
1 
1 
1 
1 
1 
1 
1 
1 
1 
1 
1 
1 
1 
1 
1 
1 
1 
1 
1 
1 
1 
1 
1 
1 
1 
1 
1 
1 
1 
1 
1 
1 
1 
1 
1 
1 
1 
1 
1 
1 
1 
1 
1 
1 
1 
1 
1 
1 
1 
1 
1 
1 
1 
1 
1 
1 
1 
1 
1 
1 
1 
1 
1 
1 
1 
1 
1 
1 
1 
1 
1 
1 
1 
1 
1 
1 
1 
1 
1 
1 
1 
1 
1 
1 
1 
1 
1 
1 
1 
1 
1 
1 
1 
1 
1 
1 
1 
1 
1 
1 
1 
1 
1 
1 
1 
1 
1 
1 
1 
1 
1 
1 
1 
1 
1 
1 
1 
1 
1 
1 
1 
1 
1 
1 
1 
1 
1 
1 
1 
1 
1 
1 
1 
1 
1 
1 
1 
1 
1 
1 
1 
1 
1 
1 
1 
1 
1 
1 
1 
1 
1 
1 
1 
1 
1 
1 
1 
1 
1 
1 
1 
1 
1 
1 
1 
1 
1 
1 
1 
1 
1 
1 
1 
1 
1 
1 
1 
1 
1 
1 
1 
1 
1 
1 
1 
1 
1 
1 
1 
1 
1 
1 
1 
1 
1 
1 
1 
1 
1 
1 
1 
1 
1 
1 
1 
1 
1 
1 
1 
1 
1 
1 
1 
1 
1 
1 
1 
1 
1 
1 
1 
1 
1 
1 
1 
1 
1 
1 
1 
1 
1 
1 
1 
1 
1 
1 
1 
1 
1 
1 
1 
1 
1 
1 
1 
1 
1 
1 
1 
1 
1 
1 
1 
1 
1 
1 
1 
1 
1 
1 
1 
1 
1 
1 
1 
1 
1 
1 
1 
1 
1 
1 
1 
1 
1 
1 
1 
1 
1 
1 
1 
1 
1 
1 
1 
1 
1 
1 
1 
1 
1 
1 
1 
1 
1 
1 
1 
1 
1 
1 
1 
1 
1 
1 
1 
1 
1 
1 
1 
1 
1 
1 
1 
1 
1 
1 
1 
1 
1 
1 
1 
1 
1 
1 
1 
1 
1 
1 
1 
1 
1 
1 
1 
1 
1 
1 
1 
1 
1 
1 
1 
1 
1 
1 
1 
1 
1 
1 
1 
1 
1 
1 
1 
1 
1 
1 
1 
1 
1 
1 
1 
1 
1 
1 
1 
1 
1 
1 
1 
1 
1 
1 
1 
1 
1 
1 
1 
1 
1 
1 
1 
1 
1 
1 
1 
1 
1 
1 
1 
1 
1 
1 
1 
1 
1 
1 
1 
1 
1 
1 
1 
1 
1 
1 
1 
1 
1 
1 
1 
1 
1 
1 
1 
1 
1 
1 
1 
1 
1 
1 
1 
1 
1 
1 
1 
1 
1 
1 
1 
1 
1 
1 
1 
1 
1 
1 
1 
1 
1 
1 
1 
1 
1 
1 
1 
1 
1 
1 
1 
1 
1 
1 
1 
1 
1 
1 
1 
1 
1 
1 
1 
1 
1 
1 
1 
1 
1 
1 
1 
1 
1 
1 
1 
1 
1 
1 
1 
1 
1 
1 
1 
1 
1 
1 
1 
1 
1 
1 
1 
1 
1 
1 
1 
1 
1 
1 
1 
1 
1 
1 
1 
1 
1 
1 
1 
1 
1 
1 
1 
1 
1 
1 
1 
1 
1 
1 
1 
1 
1 
1 
1 
1 
1 
1 
1 
1 
1 
1 
1 
1 
1 
1 
1 
1 
1 
1 
1 
1 
1 
1 
1 
1 
1 
1 
1 
1 
1 
1 
1 
1 
1 
1 
1 
1 
1 
1 
1 
1 
1 
1 
1 
1 
1 
1 
1 
1 
1 
1 
1 
1 
1 
1 
1 
1 
1 
1 
1 
1 
1 
1 
1 
1 
1 
1 
1 
1 
1 
1 
1 
1 
1 
1 
1 
1 
1 
1 
1 
1 
1 
1 
1 
1 
1 
1 
1 
1 
1 
1 
1 
1 
1 
1 
1 
1 
1 
1 
1 
1 
1 
1 
1 
1 
1 
1 
1 
1 
1 
1 
1 
1 
1 
1 
1 
1 
1 
1 
1 
1 
1 
1 
1 
1 
1 
1 
1 
1 
1 
1 
1 
1 
1 
1 
1 
1 
1 
1 
1 
1 
1 
1 
1 
1 
1 
1 
1 
1 
1 
1 
1 
1 
1 
1 
1 
1 
1 
1 
1 
1 
1 
1 
1 
1 
1 
1 
1 
1 
1 
1 
1 
1 
1 
1 
1 
1 
1 
1 
1 
1 
1 
1 
1 
1 
1 
1 
1 
1 
1 
1 
1 
1 
1 
1 
1 
1 
1 
1 
1 
1 
1 
1 
1 
1 
1 
1 
1 
1 
1 
1 
1 
1 
1 
1 
1 
1 
1 
1 
1 
1 
1 
1 
1 
1 
1 
1 
1 
1 
1 
1 
1 
1 
1 
1 
1 
1 
1 
1 
1 
1 
1 
1 
1 
1 
1 
1 
1 
1 
1 
1 
1 
1 
1 
1 
1 
1 
1 
1 
1 
1 
1 
1 
1 
1 
1 
1 
1 
1 
1 
1 
1 
1 
1 
1 
1 
1 
1 
1 
1 
1 
1 
1 
1 
1 
1 
1 
1 
1 
1 
1 
1 
1 
1 
1 
1 
1 
1 
1 
1 
1 
1 
1 
1 
1 
1 
1 
1 
1 
1 
1 
1 
1 
1 
1 
1 
1 
1 
1 
1 
1 
1 
1 
1 
1 
1 
1 
1 
1 
1 
1 
1 
1 
1 
1 
1 
1 
1 
1 
1 
1 
1 
1 
1 
1 
1 
1 
1 
1 
1 
1 
1 
1 
1 
1 
1 
1 
1 
1 
1 
1 
1 
1 
1 
1 
1 
1 
1 
1 
1 
1 
1 
1 
1 
1 
1 
1 
1 
1 
1 
1 
1 
1 
1 
1 
1 
1 
1 
1 
1 
1 
1 
1 
1 
1 
1 
1 
1 
1 
1 
1 
1 
1 
1 
1 
1 
1 
1 
1 
1 
1 
1 
1 
1 
1 
1 
1 
1 
1 
1 
1 
1 
1 
1 
1 
1 
1 
1 
1 
1 
1 
1 
1 
1 
1 
1 
1 
1 
1 
1 
1 
1 
1 
1 
1 
1 
1 
1 
1 
1 
1 
1 
1 
1 
1 
1 
1 
1 
1 
1 
1 
1 
1 
1 
1 
1 
1 
1 
1 
1 
1 
1 
1 
1 
1 
1 
1 
1 
1 
1 
1 
1 
1 
1 
1 
1 
1 
1 
1 
1 
1 
1 
1 
1 
1 
1 
1 
1 
1 
1 
1 
1 
1 
1 
1 
1 
1 
1 
1 
1 
1 
1 
1 
1 
1 
1 
1 
1 
1 
1 
1 
1 
1 
1 
1 
1 
1 
1 
1 
1 
1 
1 
1 
1 
1 
1 
1 
1 
1 
1 
1 
1 
1 
1 
1 
1 
1 
1 
1 
1 
1 
1 
1 
1 
1 
1 
1 
1 
1 
1 
1 
1 
1 
1 
1 
1 
1 
1 
1 
1 
1 
1 
1 
1 
1 
1 
1 
1 
1 
1 
1 
1 
1 
1 
1 
1 
1 
1 
1 
1 
1 
1 
1 
1 
1 
1 
1 
1 
1 
1 
1 
1 
1 
1 
1 
1 
1 
1 
1 
1 
1 
1 
1 
1 
1 
1 
1 
1 
1 
1 
1 
1 
1 
1 
1 
1 
1 
1 
1 
1 
1 
1 
1 
1 
1 
1 
1 
1 
1 
1 
1 
1 
1 
1 
1 
1 
1 
1 
1 
1 
1 
1 
1 
1 
1 
1 
1 
1 
1 
1 
1 
1 
1 
1 
1 
1 
1 
1 
1 
1 
1 
1 
1 
1 
1 
1 
1 
1 
1 
1 
1 
1 
1 
1 
1 
1 
1 
1 
1 
1 
1 
1 
1 
1 
1 
1 
1 
1 
1 
1 
1 
1 
1 
1 
1 
1 
1 
1 
1 
1 
1 
1 
1 
1 
1 
1 
1 
1 
1 
1 
1 
1 
1 
1 
1 
1 
1 
1 
1 
1 
1 
1 
1 
1 
1 
1 
1 
1 
1 
1 
1 
1 
1 
1 
1 
1 
1 
1 
1 
1 
1 
1 
1 
1 
1 
1 
1 
1 
1 
1 
1 
1 
1 
1 
1 
1 
1 
1 
1 
1 
1 
1 
1 
1 
1 
1 
1 
1 
1 
1 
1 
1 
1 
1 
1 
1 
1 
1 
1 
1 
1 
1 
1 
1 
1 
1 
1 
1 
1 
1 
1 
1 
1 
1 
1 
1 
1 
1 
1 
1 
1 
1 
1 
1 
1 
1 
1 
1 
1 
1 
1 
1 
1 
1 
1 
1 
1 
1 
1 
1 
1 
1 
1 
1 
1 
1 
1 
1 
1 
1 
1 
1 
1 
1 
1 
1 
1 
1 
1 
1 
1 
1 
1 
1 
1 
1 
1 
1 
1 
1 
1 
1 
1 
1 
1 
1 
1 
1 
1 
1 
1 
1 
1 
1 
1 
1 
1 
1 
1 
1 
1 
1 
1 
1 
1 
1 
1 
1 
1 
1 
1 
1 
1 
1 
1 
1 
1 
1 
1 
1 
1 
1 
1 
1 
1 
1 
1 
1 
1 
1 
1 
1 
1 
1 
1 
1 
1 
1 
1 
1 
1 
1 
1 
1 
1 
1 
1 
1 
1 
1 
1 
1 
1 
1 
1 
1 
1 
1 
1 
1 
1 
1 
1 
1 
1 
1 
1 
1 
1 
1 
1 
1 
1 
1 
1 
1 
1 
1 
1 
1 
1 
1 
1 
1 
1 
1 
1 
1 
1 
1 
1 
1 
1 
1 
1 
1 
1 
1 
1 
1 
1 
1 
1 
1 
1 
1 
1 
1 
1 
1 
1 
1 
1 
1 
1 
1 
1 
1 
1 
1 
1 
1 
1 
1 
1 
1 
1 
1 
1 
1 
1 
1 
1 
1 
1 
1 
1 
1 
1 
1 
1 
1 
1 
1 
1 
1 
1 
1 
1 
1 
1 
1 
1 
1 
1 
1 
1 
1 
1 
1 
1 
1 
1 
1 
1 
1 
1 
1 
1 
1 
1 
1 
1 
1 
1 
1 
1 
1 
1 
1 
1 
1 
1 
1 
1 
1 
1 
1 
1 
1 
1 
1 
1 
1 
1 
1 
1 
1 
1 
1 
1 
1 
1 
1 
1 
1 
1 
1 
1 
1 
1 
1 
1 
1 
1 
1 
1 
1 
1 
1 
1 
1 
1 
1 
1 
1 
1 
1 
1 
1 
1 
1 
1 
1 
1 
1 
1 
1 
1 
1 
1 
1 
1 
1 
1 
1 
1 
1 
1 
1 
1 
1 
1 
1 
1 
1 
1 
1 
1 
1 
1 
1 
1 
1 
1 
1 
1 
1 
1 
1 
1 
1 
1 
1 
1 
POINT_DATA 5000
VECTORS Stress float
-284.132 -930.006 0.
-157.627 -855.832 0.
-138.587 -811.401 0.
93.9942 -697.295 0.
50.5771 -798.596 0.
7.15996 -899.896 0.
-157.916 -1086.01 0.
-241.541 -1281.13 0.
-325.166 -1476.24 0.
-285.848 -1411.46 0.
-201.111 -1213.69 0.
-116.374 -1015.92 0.
-428.765 -1236.36 0.
-493.165 -1386.55 0.
-483.606 -1482.28 0.
-420.945 -1336.06 0.
-358.285 -1189.84 0.
246.855 -928.396 0.
117.107 -1231.28 0.
-12.6398 -1534.16 0.
-273.599 -1653.42 0.
-171.602 -1415.37 0.
-69.6039 -1177.33 0.
-432.615 -1239.3 0.
-399.323 -1161.57 0.
-237.561 -1028.79 0.
-569.884 -1070.6 0.
-515.896 -944.695 0.
-14.0206 -702.843 0.
-152.455 -1026.23 0.
-290.888 -1349.63 0.
-49.0853 -1357.73 0.
-2.52994 -1249.05 0.
44.0254 -1140.36 0.
-154.501 -1283.71 0.
-225.934 -1450.03 0.
-297.367 -1616.35 0.
-737.235 -1812.92 0.
-732.954 -1802.84 0.
-821.014 -1833.11 0.
-826.024 -1844.54 0.
-831.034 -1855.97 0.
-213.126 -1553.46 0.
-144.375 -1392.96 0.
-75.625 -1232.47 0.
-678.434 -1518.09 0.
-759.342 -1707.11 0.
-840.249 -1896.12 0.
1236.58 -993.683 0.
1268.53 -919.222 0.
-7923.21 -4798.03 0.
1116.14 -970.331 0.
1091.96 -1026.89 0.
-553.699 -1764.76 0.
-544.834 -1744.05 0.
-535.969 -1723.35 0.
-829.264 -1840.86 0.
-831.608 -1846.3 0.
-833.953 -1851.74 0.
-208.524 -1477.46 0.
-124.708 -1281.7 0.
-40.8916 -1085.95 0.
-354.23 -1289.25 0.
-403.812 -1404.49 0.
-416.207 -1499.7 0.
-461.909 -1606.1 0.
-507.611 -1712.51 0.
-323.441 -1670.31 0.
-289.86 -1592.08 0.
-256.279 -1513.85 0.
-73.1548 -1429.34 0.
-93.5684 -1477.2 0.
-113.982 -1525.06 0.
-893.774 -1606.16 0.
-719.075 -1198.73 0.
-323.48 -705.597 0.
-359.666 -1060.58 0.
-537.805 -1476.4 0.
-223.803 -1595.79 0.
-212.74 -1569.99 0.
-201.677 -1544.18 0.
-567.727 -1698.98 0.
-577.871 -1722.4 0.
-588.014 -1745.82 0.
87.876 -1321.28 0.
194.208 -1072.79 0.
300.54 -824.291 0.
-595.846 -1326.43 0.
-674.706 -1510.54 0.
-231.906 -1433.32 0.
-153.663 -1250.79 0.
-75.4205 -1068.25 0.
-566.812 -1229.75 0.
-639.646 -1399.5 0.
-712.481 -1569.24 0.
461.359 -1087.13 0.
495.183 -1007.97 0.
529.006 -928.816 0.
-439.127 -1246.93 0.
-384.478 -1119.31 0.
220.941 -681.999 0.
-242.378 -860.781 0.
-223.383 -816.44 0.
140.709 -645.817 0.
97.2517 -747.199 0.
53.794 -848.582 0.
-72.0928 -1018.15 0.
-155.713 -1213.23 0.
-239.334 -1408.32 0.
-107.081 -1303.28 0.
-22.3653 -1105.45 0.
62.3506 -907.627 0.
-536.424 -1251.58 0.
-600.832 -1401.64 0.
-168.942 -1316.13 0.
-106.261 -1169.83 0.
-43.5803 -1023.54 0.
70.1272 -972.604 0.
-59.5294 -1275.56 0.
-189.186 -1578.51 0.
-278.079 -1623.86 0.
-176.113 -1385.79 0.
-74.1483 -1147.72 0.
-468.141 -1223.37 0.
-434.915 -1145.7 0.
-732.388 -1209.75 0.
-492.792 -1005.81 0.
-438.78 -879.971 0.
-239.431 -767.987 0.
-377.592 -1091.5 0.
-515.752 -1415.01 0.
-141.065 -1365.65 0.
-94.5248 -1256.89 0.
-47.9846 -1148.12 0.
-48.3103 -1206.99 0.
-119.974 -1373.13 0.
-191.637 -1539.27 0.
-469.8 -1667.02 0.
-465.576 -1656.89 0.
-514.417 -1670.93 0.
-519.582 -1682.2 0.
-524.747 -1693.47 0.
-580.914 -1680.09 0.
-512.161 -1519.45 0.
-443.408 -1358.81 0.
-440.026 -1385.11 0.
-520.776 -1574.22 0.
-601.526 -1763.32 0.
1029 -1051.1 0.
1061 -976.707 0.
-5665.45 -3798.96 0.
607.216 -1157.02 0.
583.134 -1213.63 0.
-245.904 -1601.18 0.
-237.087 -1580.55 0.
-228.27 -1559.91 0.
-499.49 -1667.97 0.
-501.86 -1673.42 0.
-504.231 -1678.87 0.
-171.859 -1431.14 0.
-88.1342 -1235.22 0.
-4.40953 -1039.3 0.
-493.149 -1316.79 0.
-543.028 -1431.81 0.
-69.7266 -1320.6 0.
-115.601 -1426.94 0.
-161.476 -1533.29 0.
-248.02 -1606.38 0.
-214.352 -1528.21 0.
-180.684 -1450.03 0.
-369.741 -1525.27 0.
-390.002 -1573.24 0.
-410.263 -1621.2 0.
-830.051 -1547.33 0.
-655.221 -1139.97 0.
-395.597 -704.581 0.
-462.773 -1073.01 0.
-640.826 -1488.96 0.
-212.856 -1559.76 0.
-201.793 -1533.96 0.
-190.73 -1508.17 0.
-361.938 -1579.29 0.
-372.232 -1602.56 0.
-382.526 -1625.82 0.
-364.294 -1483.87 0.
-258.249 -1235.26 0.
-152.204 -986.661 0.
-366.688 -1197.38 0.
-445.514 -1381.6 0.
-206.499 -1390.58 0.
-128.252 -1208.1 0.
-50.0054 -1025.62 0.
-289.947 -1079.78 0.
-362.945 -1249.5 0.
-435.942 -1419.21 0.
40.0683 -1236.62 0.
73.7851 -1157.25 0.
107.502 -1077.87 0.
-102.317 -1071.39 0.
-47.6088 -943.392 0.
516.12 -923.956 0.
-570.398 -1439.2 0.
-498.419 -1270.6 0.
-357.904 -1863.25 0.
-11.5802 -1055.71 0.
-228.375 -1562.13 0.
-994.851 -3305.07 0.
-949.726 -3200.82 0.
-1764.92 -5103.97 0.
-1636.49 -5178.94 0.
-1418.28 -4670.71 0.
-1585.65 -5062.18 0.
-2215.73 -4933.9 0.
-1790.52 -3940.77 0.
-1586.68 -5193.22 0.
-824.974 -3415.78 0.
-1080.13 -4011.01 0.
-1489.41 -4246.59 0.
-1780.45 -4925.36 0.
-3107.24 -8020.89 0.
-3817.58 -9842.64 0.
-2348.06 -6413.63 0.
-2231.9 -6142.43 0.
-1952.5 -4586.34 0.
-1633.71 -3843.37 0.
-2277.01 -5401.52 0.
-1925.53 -4465.22 0.
-1766.55 -4092.73 0.
-1495.41 -3243.53 0.
-1599.2 -3484.93 0.
-2451.01 -5471.7 0.
-2646.68 -7006.07 0.
-2106.39 -5745.85 0.
-2097.58 -5725.76 0.
-1639.82 -5088.35 0.
-2066.25 -6084.8 0.
-3567.39 -9588.93 0.
-3176.28 -8460.39 0.
-2365.74 -6569.66 0.
-3433.8 -9038.4 0.
-2486.22 -6827.67 0.
-2520.36 -6907.59 0.
-2456.57 -5325.89 0.
-1509.14 -3114.45 0.
-1451.49 -2979.17 0.
-1377.04 -3995.42 0.
-1842.71 -5081.74 0.
-2789.84 -7291.46 0.
-890.12 -5103.94 0.
-708.348 -4679.68 0.
-8049.15 -10436.1 0.
-1618.25 -5349.05 0.
-1849.52 -5887.91 0.
-2350.15 -7067.87 0.
-1520.54 -5131.05 0.
-2182.78 -6675.26 0.
-2178.64 -6181.93 0.
-1571.88 -4765.92 0.
-2030.92 -5836.75 0.
-2134.63 -6053.86 0.
-1319.46 -4152.06 0.
-1400.32 -4340.99 0.
-1767.18 -3991.47 0.
-1808.84 -4089.43 0.
-2014.1 -6484.01 0.
-1900.04 -6217.82 0.
-2867.84 -8475.95 0.
-3401.93 -9079.11 0.
-2126.83 -6103.72 0.
-2348.6 -6621.04 0.
-2698.79 -6364.76 0.
-2362.87 -5581.43 0.
-3191.99 -7516.54 0.
-1876.57 -4079.05 0.
-1423.99 -3022.57 0.
-1817.58 -3792.57 0.
-1514.79 -3303.61 0.
-2439.16 -5460.38 0.
-3045.61 -8158.13 0.
-2071.36 -5884.61 0.
-2566.58 -7039.85 0.
-2593.75 -7146.7 0.
-2103.1 -6002.36 0.
-2440.59 -6790.38 0.
-2081.81 -4596.45 0.
-1189.3 -2514.5 0.
-1557.99 -3375.4 0.
-1254.91 -3673.4 0.
-1361.48 -3922.83 0.
-1284.35 -3922.68 0.
-689.708 -2534.43 0.
-781.728 -2748.44 0.
-683.285 -2490.77 0.
-379.036 -1780.9 0.
-993.7 -3215.1 0.
-663.623 -2045.63 0.
-200.478 -965.148 0.
-379.316 -1382.71 0.
-74.8403 -1620.22 0.
-565.14 -2764.2 0.
649.641 -105.564 0.
138.031 -323.777 0.
111.334 -385.478 0.
437.068 -245.495 0.
553.906 26.4963 0.
670.745 298.488 0.
511.22 447.157 0.
620.893 702.431 0.
730.567 957.704 0.
772.752 925.99 0.
674.859 696.495 0.
576.967 466.999 0.
583.592 696.348 0.
731.541 1042.65 0.
1033.67 1411.14 0.
937.078 1185.56 0.
840.485 959.99 0.
630.754 867.729 0.
832.616 1338.67 0.
1034.48 1809.61 0.
1189.2 1933.17 0.
1074.3 1664.33 0.
959.405 1395.49 0.
574.499 1134.28 0.
543.901 1061.83 0.
1063.22 1224.99 0.
533.521 915.223 0.
490.26 815.361 0.
136.383 681.579 0.
342.163 1162.43 0.
547.943 1643.28 0.
1176.84 2010.57 0.
1028.65 1664.55 0.
880.456 1318.53 0.
1070.65 1530.35 0.
1252.98 1954.28 0.
1435.31 2378.21 0.
1550.94 2342.61 0.
1475.87 2166.54 0.
1249.46 1924.15 0.
1168.45 1735.06 0.
1087.45 1545.98 0.
394.314 1073.41 0.
275.436 796.484 0.
156.558 519.562 0.
833.371 868.324 0.
984.571 1220.83 0.
1135.77 1573.34 0.
1925.42 2007.95 0.
1948.56 2060.65 0.
455.551 1464.04 0.
1480.84 1781.5 0.
1416.45 1631.68 0.
1199.57 1435.3 0.
1175.32 1379.41 0.
1151.08 1323.52 0.
1032.1 1296.92 0.
1088.26 1428.69 0.
1144.42 1560.46 0.
899.592 1322.93 0.
769.913 1020.37 0.
640.234 717.821 0.
752.823 935.76 0.
867.265 1202.04 0.
1243.63 1575.22 0.
1327.24 1770.41 0.
1410.84 1965.59 0.
1224.86 1955.9 0.
1172.67 1833.51 0.
1120.47 1711.12 0.
709.645 1569.77 0.
782.914 1739.25 0.
856.183 1908.72 0.
608.421 1526.51 0.
405.744 1054.96 0.
356.994 661.11 0.
482.167 1113.18 0.
690.946 1601.09 0.
1152.18 2075.47 0.
1092.76 1937.03 0.
1033.33 1798.59 0.
1176.14 1799.47 0.
1177.35 1801.76 0.
1178.55 1804.06 0.
688.551 1399.2 0.
539.452 1050.48 0.
390.352 701.758 0.
626.056 775.837 0.
623.668 770.662 0.
710.698 760.496 0.
544.079 372.869 0.
377.46 -14.7579 0.
123.047 -293.654 0.
170.703 -181.675 0.
218.359 -69.6968 0.
246.564 -83.3356 0.
187.839 -220.287 0.
129.114 -357.237 0.
697.347 21.4115 0.
800.763 261.895 0.
400.397 -180.283 0.
436.66 -164.509 0.
409.926 -226.373 0.
578.433 -152.884 0.
695.242 118.988 0.
812.051 390.86 0.
403.075 432.887 0.
512.61 688.253 0.
622.145 943.618 0.
535.712 856.276 0.
437.912 626.846 0.
340.112 397.416 0.
1073.06 936.911 0.
1221.06 1283.47 0.
792.614 1338.89 0.
696.166 1113.32 0.
599.718 887.757 0.
559.699 869.225 0.
761.689 1340.07 0.
963.679 1810.91 0.
1157.18 1951.83 0.
1042.6 1682.8 0.
928.013 1413.77 0.
683.729 1213.45 0.
653.148 1140.85 0.
1318.51 1366.42 0.
737.671 1034.22 0.
694.542 934.219 0.
91.3349 694.068 0.
297.094 1174.78 0.
502.853 1655.5 0.
1143.29 2027.39 0.
995.033 1681.43 0.
846.771 1335.47 0.
932.36 1501.92 0.
1114.69 1925.79 0.
1297.01 2349.67 0.
1687.31 2433.62 0.
1612.37 2257.5 0.
1248.14 1955.99 0.
1167.14 1767.13 0.
1086.13 1578.28 0.
543.402 1168.5 0.
424.591 891.431 0.
305.779 614.363 0.
1003.31 970.953 0.
1154.68 1323.32 0.
1306.05 1675.69 0.
1657.65 1925.47 0.
1681.14 1977.55 0.
222.792 1395.65 0.
1550.03 1842.28 0.
1485.83 1692.55 0.
1100.52 1424.68 0.
1076.37 1368.65 0.
1052.22 1312.63 0.
1055.28 1338.1 0.
1111.27 1470 0.
1167.26 1601.89 0.
760.076 1294.32 0.
630.394 992.04 0.
500.712 689.764 0.
1270.2 1190.2 0.
1384.68 1456.57 0.
1019.42 1509.9 0.
1103 1705.08 0.
1186.58 1900.26 0.
1116.01 1941.1 0.
1063.99 1818.34 0.
1011.97 1695.59 0.
736.18 1613.19 0.
809.754 1782.39 0.
883.329 1951.58 0.
726.604 1609.51 0.
523.597 1138.12 0.
473.737 742.413 0.
626.188 1206.45 0.
834.758 1694.53 0.
938.361 2015.29 0.
879.008 1876.98 0.
819.655 1738.68 0.
1113.92 1804.05 0.
1115.12 1806.35 0.
1116.31 1808.65 0.
951.449 1544.1 0.
802.37 1195.2 0.
653.292 846.3 0.
610.827 800.602 0.
608.036 795.662 0.
712.094 791.767 0.
545.25 404.086 0.
378.407 16.4047 0.
-25.6983 -325.037 0.
21.7334 -212.791 0.
69.165 -100.545 0.
347.728 -8.74104 0.
288.893 -145.652 0.
230.058 -282.563 0.
798.095 96.5354 0.
901.822 336.792 0.
6.09246 -782.613 0.
226.043 -788.928 0.
196.043 -860.148 0.
260.985 -881.709 0.
257.642 -888.456 0.
254.299 -895.203 0.
-249.767 -1124.87 0.
-263.807 -1159.1 0.
-277.848 -1193.34 0.
-488.323 -1234.82 0.
-437.664 -1116.6 0.
-387.004 -998.376 0.
422.298 -776.385 0.
336.836 -975.011 0.
-541.425 -1486.42 0.
-471.315 -1321.8 0.
-401.206 -1157.19 0.
-192.773 -990.326 0.
-212.184 -1034.31 0.
-231.595 -1078.29 0.
-226.334 -1169.74 0.
-299.288 -1341.4 0.
-372.243 -1513.06 0.
-361.076 -1414.21 0.
-272.5 -1209.6 0.
331.952 -783.803 0.
-107.72 -950.127 0.
-95.9192 -924.693 0.
-625.192 -1174.72 0.
-722.858 -1401.74 0.
-820.524 -1628.77 0.
-348.801 -1431.74 0.
-228.121 -1151.94 0.
-107.44 -872.149 0.
-210.343 -1075.71 0.
-397.476 -1513.22 0.
-584.609 -1950.74 0.
-107.197 -1713.18 0.
-63.874 -1609.65 0.
-251.132 -1607.73 0.
-215.211 -1524.64 0.
-179.29 -1441.55 0.
-440.875 -1486.88 0.
-409.073 -1412.72 0.
-377.271 -1338.57 0.
39.922 -1301.11 0.
-121.705 -1679.27 0.
-283.332 -2057.42 0.
-57.161 -1943.3 0.
6.04588 -1795.31 0.
-2296.31 -2662.16 0.
-47.0717 -1630.29 0.
-11.1576 -1547.02 0.
-209.204 -1606.21 0.
-272.687 -1752.31 0.
-336.17 -1898.41 0.
-330.46 -1888.68 0.
-241.672 -1683.66 0.
-152.884 -1478.64 0.
-388.64 -1440.75 0.
-325.01 -1291.51 0.
-261.379 -1142.27 0.
363.505 -1036.1 0.
260.496 -1275.56 0.
-417.894 -1715.68 0.
-319.96 -1487.6 0.
-222.025 -1259.51 0.
-253.974 -1151.6 0.
-254.169 -1151.59 0.
-254.364 -1151.58 0.
-502.837 -1266.69 0.
-510.233 -1281.3 0.
-517.63 -1295.91 0.
-465.059 -1312.71 0.
-489.152 -1370.74 0.
-302.901 -1338.81 0.
-320.711 -1306.32 0.
-300.258 -1257.42 0.
-550.978 -1312.12 0.
-506.297 -1207.74 0.
-461.616 -1103.36 0.
-240.608 -1051.01 0.
-345.031 -1295.62 0.
-449.453 -1540.23 0.
-192.109 -1478.45 0.
-179.557 -1448.85 0.
-167.005 -1419.24 0.
-330.78 -1362.55 0.
-258.993 -1194.8 0.
-179.289 -1037.64 0.
-169.429 -1014.83 0.
-159.568 -992.03 0.
-339.67 -1090.87 0.
-388.491 -1203.82 0.
-437.312 -1316.77 0.
-174.541 -1235.42 0.
-169.531 -1224.11 0.
-164.522 -1212.81 0.
125.419 -1242.3 0.
21.7927 -1480.73 0.
-54.6835 -779.118 0.
114.388 -804.531 0.
84.3169 -875.844 0.
134.378 -905.169 0.
131.05 -912.052 0.
127.722 -918.935 0.
-73.2772 -1017.33 0.
-87.2752 -1051.72 0.
-101.273 -1086.11 0.
-532.075 -1221.74 0.
-481.437 -1103.58 0.
-430.799 -985.412 0.
175.188 -851.747 0.
89.649 -1050.17 0.
-570.417 -1466.34 0.
-500.217 -1301.77 0.
-430.018 -1137.2 0.
15.6768 -869.871 0.
-3.7988 -913.885 0.
-23.2744 -957.899 0.
-271.175 -1157.44 0.
-344.258 -1328.81 0.
-417.342 -1500.19 0.
-232.758 -1327.84 0.
-144.15 -1123.06 0.
-580.518 -1143.3 0.
-261.713 -984.78 0.
-250.348 -959.059 0.
-344.084 -1022.83 0.
-441.825 -1250.16 0.
-539.567 -1477.48 0.
-310.143 -1383.96 0.
-189.553 -1104.39 0.
-68.9635 -824.825 0.
-137 -1013.36 0.
-324.066 -1450.91 0.
-511.132 -1888.46 0.
-246.409 -1741.44 0.
-202.999 -1637.85 0.
-147.561 -1532.16 0.
-111.772 -1449.08 0.
-75.9839 -1366.01 0.
-189.496 -1346.9 0.
-157.713 -1272.92 0.
-125.931 -1198.94 0.
-75.113 -1322.25 0.
-236.569 -1700.51 0.
-398.025 -2078.78 0.
74.7553 -1854.42 0.
138.48 -1706.78 0.
-153.535 -1712.79 0.
-343.918 -1726.97 0.
-307.308 -1643.98 0.
-113.427 -1532.63 0.
-176.396 -1679.1 0.
-239.366 -1825.56 0.
-328.116 -1856.64 0.
-239.479 -1651.5 0.
-150.843 -1446.36 0.
-158.707 -1311.24 0.
-95.1561 -1161.76 0.
-31.6049 -1012.28 0.
4.36357 -1158.45 0.
-98.5715 -1397.87 0.
-295.536 -1632.28 0.
-197.695 -1404.14 0.
-99.853 -1176 0.
-224.718 -1107.16 0.
-224.58 -1107.61 0.
-224.442 -1108.06 0.
-510.811 -1238.08 0.
-518.099 -1252.78 0.
-525.386 -1267.47 0.
-401.547 -1254.37 0.
-425.684 -1312.35 0.
-81.9285 -1212.26 0.
-112.052 -1184.97 0.
-91.6947 -1136.05 0.
-465.943 -1245.1 0.
-421.565 -1140.22 0.
-377.188 -1035.34 0.
-460.899 -1115.2 0.
-565.554 -1359.49 0.
-670.21 -1603.77 0.
-51.9121 -1387.59 0.
-39.7829 -1357.69 0.
-27.6536 -1327.79 0.
-326.697 -1330.84 0.
-255.055 -1162.87 0.
-403.98 -1101.76 0.
-393.895 -1079.13 0.
-383.81 -1056.49 0.
-125.407 -967.854 0.
-174.244 -1080.55 0.
-223.082 -1193.25 0.
-224.517 -1226.41 0.
-219.74 -1214.91 0.
-214.962 -1203.41 0.
-177.061 -1340.57 0.
-280.603 -1579.02 0.
24.0888 -430.241 0.
343.46 -31.2132 0.
278.752 -179.892 0.
70.5863 -778.702 0.
273.081 -305.849 0.
384.214 -46.1541 0.
-140.477 -1474.94 0.
815.999 757.856 0.
782.65 680.659 0.
-263.569 -494.638 0.
-655.889 -1410.11 0.
-233.752 -425.197 0.
426.345 243.705 0.
355.047 74.258 0.
-313.746 -777.673 0.
-15.5763 -84.4537 0.
-394.523 -971.185 0.
-155.993 -1620.61 0.
77.1769 -1078.83 0.
537.887 -6.14447 0.
191.577 39.5637 0.
245.555 165.341 0.
312.713 321.828 0.
572.87 339.603 0.
70.6056 -831.215 0.
-14.5406 -978.186 0.
-348.132 -861.043 0.
-622.982 -1504.77 0.
-51.1993 -835.833 0.
435.012 296.62 0.
834.024 1225.63 0.
-449.864 -1752.9 0.
-22.0364 -755.176 0.
454.189 355.554 0.
685.062 794.157 0.
-201.121 -1273.3 0.
-911.741 -2931.2 0.
-595.159 -2262.99 0.
-113.809 -1143.73 0.
105.104 -1099.9 0.
163.519 -964.625 0.
426.185 -352.853 0.
204.921 -869.895 0.
-23.7865 -1403.18 0.
586.969 22.1506 0.
237.603 -347.467 0.
-2.35375 -904.911 0.
316.481 -158.561 0.
463.917 -1159.88 0.
1115.74 362.191 0.
-87.4726 -966.738 0.
-141.691 -668.045 0.
-480.488 -1454.65 0.
60.9157 -1274.04 0.
-262.11 -2026.96 0.
-571.419 -2747.86 0.
365.662 -210.365 0.
967.337 1192.78 0.
929.197 1103.05 0.
423.13 -359.937 0.
-133.054 -1658.43 0.
880.635 706.196 0.
120.399 -176.105 0.
-600.212 -1856.99 0.
-103.396 -1376.31 0.
960.739 1106.28 0.
487.218 0.979445 0.
42.1049 -510.753 0.
-88.7398 -814.234 0.
87.4508 -401.262 0.
-488.072 -1139.51 0.
272.534 634.039 0.
47.136 106.968 0.
-538.775 -1662.84 0.
-719.847 -2085.24 0.
529.101 -133.364 0.
278.436 -634.047 0.
4.08289 -1274.68 0.
157.63 82.9374 0.
-264.136 -900.609 0.
-194.854 -738.305 0.
-498.283 -760.112 0.
-354.753 -426.015 0.
-248.997 -179.995 0.
219.999 -986.695 0.
137.454 -1181.17 0.
-369.964 -2367.06 0.
-41.3061 -643.505 0.
477.073 564.034 0.
294.879 977.039 0.
89.592 498.684 0.
-134.192 -22.9913 0.
408.221 -98.0481 0.
427.332 -54.4258 0.
931.017 1119.87 0.
242.378 -12.8169 0.
26.7116 -516.562 0.
-81.076 -768.553 0.
167.274 64.7174 0.
-235.606 -874.433 0.
233.154 -398.422 0.
76.7414 -457.549 0.
99.4178 -402.904 0.
150.573 -342.143 0.
143.363 -359.162 0.
136.152 -376.181 0.
241.335 -370.129 0.
208.453 -445.195 0.
175.571 -520.261 0.
-109.279 -695.898 0.
-138.686 -765.143 0.
-168.094 -834.388 0.
-236.374 -828.309 0.
-207.042 -762.583 0.
-42.1739 -642.079 0.
-25.6957 -605.401 0.
-9.21815 -568.723 0.
118.247 -540.168 0.
34.9481 -736.122 0.
-48.3506 -932.076 0.
-83.093 -970.477 0.
-35.8846 -860.314 0.
11.3238 -750.151 0.
27.9887 -862.161 0.
-67.2509 -1083.79 0.
-144.821 -1297.71 0.
-570.903 -1418.06 0.
-535.252 -1336.45 0.
-175.735 -1125.56 0.
-167.204 -1107.99 0.
-158.672 -1090.41 0.
-21.3316 -1027.97 0.
-20.4876 -1027.4 0.
-19.6432 -1026.82 0.
-98.0838 -935.593 0.
1.81695 -702.163 0.
101.717 -468.733 0.
150.886 -678.296 0.
0.401464 -1032.02 0.
-161.21 -1351.03 0.
-134.556 -1289.83 0.
-107.902 -1228.62 0.
131.141 -1141.76 0.
57.4851 -1313.78 0.
-16.1705 -1485.81 0.
-305.742 -1503.46 0.
-147.294 -1133.56 0.
11.1548 -763.661 0.
525.46 -655.275 0.
406.51 -931.52 0.
110.425 -1282.64 0.
-177.51 -1375.03 0.
-163.352 -1338.09 0.
-127.871 -1270.76 0.
-49.0859 -1085.7 0.
29.6994 -900.643 0.
86.0003 -894.555 0.
-38.4728 -1185.17 0.
-162.946 -1475.78 0.
-113.986 -1494.84 0.
-84.8236 -1426 0.
-55.6615 -1357.17 0.
-319.246 -1313.42 0.
-232.166 -1109.07 0.
41.4306 -872.896 0.
-63.9294 -1119.12 0.
-169.289 -1365.34 0.
-435.531 -1523.21 0.
-299.775 -1204.44 0.
-164.019 -885.668 0.
-107.761 -850.109 0.
-200.939 -1068.12 0.
-294.117 -1286.12 0.
-444.11 -1277.43 0.
-372.663 -1109.17 0.
153.586 -748.915 0.
40.6958 -951.476 0.
-40.3747 -1140.4 0.
-379.156 -1390.21 0.
-357.514 -1339.52 0.
-335.872 -1288.83 0.
-583.515 -1261.87 0.
-451.88 -955.232 0.
-320.245 -648.593 0.
349.076 -284.608 0.
348.463 -287.892 0.
347.85 -291.176 0.
62.3988 -491.865 0.
17.5549 -597.801 0.
-250.508 -802.419 0.
-293.132 -900.588 0.
-335.756 -998.757 0.
-104.29 -934.785 0.
-80.6984 -879.658 0.
-57.1075 -824.532 0.
-32.903 -797.677 0.
-36.248 -805.698 0.
-39.5931 -813.719 0.
-160.235 -887.436 0.
-172.105 -915.028 0.
487.843 -260.143 0.
-9.78296 -463.532 0.
13.0818 -408.969 0.
35.9318 -359.688 0.
28.873 -376.955 0.
21.8141 -394.222 0.
145.958 -378.755 0.
112.928 -453.645 0.
79.8978 -528.535 0.
202.551 -530.298 0.
173.235 -599.848 0.
143.919 -669.398 0.
-468.409 -895.781 0.
-439.223 -829.823 0.
236.278 -490.688 0.
252.662 -453.838 0.
269.045 -416.989 0.
-96.7277 -601.325 0.
-180.136 -797.008 0.
-263.545 -992.692 0.
127.278 -848.804 0.
174.359 -738.488 0.
221.439 -628.171 0.
8.06224 -839.155 0.
-86.8743 -1061.03 0.
-159.311 -1273.13 0.
-534.375 -1371.28 0.
-498.938 -1289.4 0.
-160.297 -1087.69 0.
-151.867 -1070.19 0.
-143.436 -1052.69 0.
140.5 -926.528 0.
141.409 -926.195 0.
142.318 -925.862 0.
-132.875 -918.865 0.
-32.9899 -685.486 0.
66.8954 -452.106 0.
249.487 -604.819 0.
98.6727 -958.387 0.
-339.045 -1394.92 0.
-312.426 -1333.96 0.
-285.807 -1273 0.
199.959 -1081.61 0.
126.415 -1253.62 0.
52.8708 -1425.63 0.
-347.272 -1488.64 0.
-188.205 -1118.98 0.
-29.1384 -749.32 0.
353.177 -697.917 0.
234.27 -973.894 0.
-554.283 -1536.27 0.
165.021 -1197.31 0.
179.318 -1160.38 0.
-343.753 -1331.16 0.
-265.132 -1145.9 0.
-186.512 -960.647 0.
119.164 -848.977 0.
-5.46016 -1139.45 0.
-130.084 -1429.92 0.
-159.921 -1483.76 0.
-131.341 -1414.24 0.
-102.762 -1344.71 0.
-244.603 -1251.29 0.
-157.535 -1046.82 0.
-28.5414 -870.059 0.
-133.603 -1116.37 0.
-238.665 -1362.68 0.
-472.061 -1506.73 0.
-336.389 -1187.86 0.
-200.717 -869.001 0.
222.906 -677.325 0.
129.438 -895.202 0.
35.9709 -1113.08 0.
-514.609 -1277.2 0.
-443.582 -1108.63 0.
128.158 -729.413 0.
-68.3116 -967.573 0.
-149.432 -1156.28 0.
-246.378 -1301.67 0.
-224.555 -1250.91 0.
-202.732 -1200.16 0.
-408.56 -1155.8 0.
-276.815 -849.068 0.
-145.071 -542.337 0.
155.468 -335.456 0.
154.941 -338.653 0.
154.413 -341.851 0.
126.27 -433.147 0.
81.0975 -538.85 0.
31.549 -650.19 0.
-11.2004 -748.198 0.
-53.9498 -846.205 0.
-277.048 -978.375 0.
-253.729 -922.955 0.
-230.411 -867.534 0.
58.35 -727.436 0.
54.8949 -735.346 0.
51.4397 -743.255 0.
-45.228 -807.068 0.
-56.8894 -834.996 0.
313.824 -586.71 0.
-103.362 -623.245 0.
-64.0575 -533.238 0.
-85.1899 -527.72 0.
-196.598 -787.952 0.
-308.007 -1048.18 0.
-263.222 -1126.93 0.
-236.9 -1066.84 0.
-210.579 -1006.75 0.
84.31 -896.57 0.
58.212 -957.658 0.
32.1138 -1018.75 0.
-584.651 -1327.18 0.
-608.087 -1381.4 0.
28.7282 -1149.09 0.
45.5306 -1109.87 0.
62.333 -1070.66 0.
-467.833 -1275.26 0.
-464.459 -1267.71 0.
-461.086 -1260.17 0.
123.14 -952.459 0.
175.783 -830.471 0.
228.426 -708.483 0.
-20.7776 -739.805 0.
13.8313 -658.87 0.
204.431 -511.002 0.
-259.759 -955.352 0.
-391.516 -1262.55 0.
-328.009 -1437.77 0.
-334.02 -1448.72 0.
-340.032 -1459.68 0.
53.1643 -1259.47 0.
98.2735 -1157.23 0.
143.383 -1054.99 0.
-310.993 -1312.49 0.
-382.063 -1477.54 0.
-453.132 -1642.58 0.
-34.16 -1394.98 0.
15.0215 -1278.87 0.
-326.806 -1344.45 0.
-346.293 -1386.82 0.
-365.78 -1429.2 0.
-13.9563 -1278.64 0.
17.846 -1201.69 0.
49.6472 -1124.75 0.
-220.573 -1218.45 0.
-226.105 -1230.88 0.
-231.636 -1243.31 0.
66.6998 -1201.8 0.
10.175 -1336.53 0.
-1820.35 -2231.86 0.
408.949 -1028.02 0.
540.333 -723.262 0.
-268.829 -919.622 0.
-382.199 -1184.5 0.
-495.568 -1449.38 0.
-161.678 -1395.03 0.
-124.177 -1308.43 0.
-86.6763 -1221.84 0.
-87.9093 -1261.82 0.
-135.465 -1374.66 0.
-183.02 -1487.5 0.
-215.027 -1350.26 0.
-121.708 -1133.16 0.
-85.3183 -951.873 0.
-59.4828 -890.885 0.
-33.6474 -829.897 0.
-197.877 -930.401 0.
-295.793 -1161.31 0.
-393.71 -1392.21 0.
38.1762 -1210.69 0.
106.068 -1053.54 0.
173.961 -896.386 0.
-386.536 -1061.65 0.
-350.588 -980.313 0.
171.189 -693.633 0.
-108.045 -855.113 0.
-130.196 -906.435 0.
-23.8625 -871.542 0.
23.4027 -761.12 0.
70.6678 -650.698 0.
-136.268 -739.185 0.
-192.216 -871.287 0.
-248.164 -1003.39 0.
-192.098 -1037.56 0.
-210.464 -1080.33 0.
-228.83 -1123.11 0.
-74.0591 -1100.66 0.
-98.7927 -1160.51 0.
-189.858 -1222.78 0.
-84.3077 -977.662 0.
21.2422 -732.545 0.
-378.005 -809.845 0.
-439.684 -955.039 0.
-501.364 -1100.23 0.
48.5785 -921.261 0.
45.7042 -928.343 0.
42.83 -935.426 0.
-151.854 -1097.4 0.
-203.348 -1218.95 0.
0.953408 -686.777 0.
-43.8912 -565.993 0.
-4.61412 -476.017 0.
-61.1631 -486.055 0.
-172.871 -745.795 0.
-284.579 -1005.54 0.
-345.497 -1130.21 0.
-319.235 -1069.95 0.
-292.974 -1009.69 0.
-84.1694 -938.303 0.
-110.404 -999.208 0.
-136.638 -1060.11 0.
-158.859 -1113.56 0.
-182.433 -1167.59 0.
-30.7259 -1143.26 0.
-13.9451 -1103.89 0.
2.83554 -1064.52 0.
-423.476 -1224.9 0.
-420.126 -1217.38 0.
-416.776 -1209.86 0.
44.8922 -953.992 0.
97.3963 -831.853 0.
149.9 -709.713 0.
-146.995 -764.526 0.
-112.756 -683.515 0.
58.8989 -543.534 0.
-32.6742 -827.283 0.
-164.068 -1134.96 0.
-361.588 -1419.29 0.
-367.557 -1430.54 0.
-373.526 -1441.79 0.
54.8565 -1228.27 0.
99.6511 -1125.95 0.
144.446 -1023.63 0.
-264.569 -1261 0.
-336.089 -1425.99 0.
-407.609 -1590.97 0.
34.2886 -1334.01 0.
83.2001 -1217.73 0.
-148.309 -1237.67 0.
-168.176 -1280.21 0.
-188.042 -1322.75 0.
-372.047 -1401.33 0.
-340.022 -1324.87 0.
-307.997 -1248.41 0.
-129.519 -1147.59 0.
-134.85 -1160.14 0.
-140.18 -1172.69 0.
101.255 -1155.66 0.
44.8342 -1290.47 0.
-464.658 -1619.5 0.
515.763 -950.495 0.
646.866 -645.359 0.
-266.87 -888.567 0.
-380.573 -1152.89 0.
-494.276 -1417.21 0.
-272.652 -1410.75 0.
-235.414 -1324.25 0.
-198.176 -1237.74 0.
-65.3846 -1220.86 0.
-113.473 -1333.37 0.
-161.562 -1445.88 0.
-73.1534 -1258.5 0.
19.9066 -1041.3 0.
-49.61 -905.9 0.
-24.0539 -844.523 0.
1.50213 -783.147 0.
-64.7849 -843.94 0.
-163.102 -1074.17 0.
-261.419 -1304.4 0.
-147.841 -1260.25 0.
-79.9099 -1103.01 0.
-11.9784 -945.757 0.
-193.719 -947.625 0.
-157.568 -866.462 0.
-442.055 -925.042 0.
-184.642 -856.926 0.
-206.449 -908.477 0.
-34.8434 -843.871 0.
12.605 -733.496 0.
60.0533 -623.122 0.
-40.6603 -667.898 0.
-96.6565 -800.112 0.
-152.653 -932.326 0.
-82.2597 -957.136 0.
-100.661 -999.838 0.
-119.062 -1042.54 0.
111.493 -990.996 0.
86.4343 -1050.42 0.
-371.627 -1268.95 0.
-266.252 -1023.65 0.
-160.878 -778.354 0.
-591.596 -870.45 0.
-653.702 -1015.36 0.
-715.808 -1160.28 0.
169.85 -837.755 0.
166.805 -844.688 0.
163.759 -851.622 0.
-193.761 -1084.45 0.
-245.256 -1205.38 0.
-152.669 -422.689 0.
7.88639 -531.578 0.
572.484 786.186 0.
214.743 145.568 0.
-37.7517 -444.941 0.
46.968 -248.478 0.
61.4914 -0.217794 0.
82.9703 49.2801 0.
121.558 137.626 0.
214.622 114.51 0.
460.65 687.204 0.
343.237 411.971 0.
619.782 -68.9627 0.
433.165 -506.156 0.
855.232 1073.84 0.
779.104 892.709 0.
558.307 374.001 0.
374.061 584.218 0.
269.193 339.123 0.
198.049 172.667 0.
626.156 578.773 0.
544.923 388.782 0.
-291.532 -1563.23 0.
-329.326 -923.853 0.
140.406 170.182 0.
-256.817 45.7474 0.
616.716 286.7 0.
161.696 -777.347 0.
242.882 89.217 0.
577.508 868.813 0.
711.193 1179.59 0.
941.283 871.497 0.
654.451 202.675 0.
728.156 375.243 0.
570.667 628.488 0.
795.748 1155.38 0.
484.894 432.382 0.
1294.43 1512.78 0.
578.711 -157.604 0.
280.237 -539.292 0.
600.562 204.658 0.
535.261 49.1463 0.
-369.05 -685.537 0.
251.393 761.196 0.
-147.712 -171.088 0.
55.9688 -854.471 0.
337.147 -197.906 0.
428.378 15.3712 0.
855.131 561.11 0.
1030.95 972.035 0.
-1377.31 -386.437 0.
1189.86 464.584 0.
1028.23 86.1208 0.
378.662 645.919 0.
338.726 550.596 0.
162.433 137.761 0.
543.294 741.177 0.
291.28 151.888 0.
627.199 934.732 0.
24.5102 -1019.05 0.
611.247 348.238 0.
1096.14 1477.66 0.
892.626 753.869 0.
737.243 395.288 0.
430.889 187.119 0.
464.143 263.753 0.
599.025 577.702 0.
290.01 -241.008 0.
853.335 1073.86 0.
794.541 936.998 0.
493.36 614.239 0.
436.011 480.198 0.
265.934 82.8824 0.
381.625 54.6025 0.
934.063 1343.78 0.
-342.314 404.199 0.
100.194 -16.8665 0.
472.491 852.525 0.
402.583 229.268 0.
347.059 99.49 0.
291.926 -29.418 0.
288.691 -58.4628 0.
280.567 -75.032 0.
496.567 431.446 0.
506.502 241.262 0.
294.3 -253.045 0.
822.555 979.912 0.
928.953 606.214 0.
1054.37 900.711 0.
130.713 278.61 0.
215.078 474.704 0.
362.846 818.349 0.
-462.9 -137.421 0.
-370.189 79.8898 0.
-393.911 24.7168 0.
312.212 -704.856 0.
702.34 204.527 0.
370.525 -570.458 0.
-192.777 -967.169 0.
-104.807 -760.893 0.
-221.811 -709.385 0.
89.1791 -657.016 0.
62.7018 -718.023 0.
-137.269 -853.353 0.
-170.161 -929.776 0.
-203.054 -1006.2 0.
-312.689 -1099.66 0.
-324.658 -1128.13 0.
-336.627 -1156.59 0.
-410.925 -1248.11 0.
-450.331 -1340.42 0.
-489.736 -1432.73 0.
27.6487 -1125.36 0.
82.4412 -997.209 0.
6.9912 -943.886 0.
-48.0042 -1074.02 0.
-103 -1204.16 0.
-437.849 -1414.73 0.
-424.635 -1384.34 0.
-411.421 -1353.96 0.
-135.044 -1193 0.
-103.146 -1119.07 0.
-71.2485 -1045.14 0.
-351.812 -1213.1 0.
-392.983 -1311.46 0.
-161.959 -1293.33 0.
-166.77 -1229.82 0.
-129.029 -1142.23 0.
-152.949 -1112.83 0.
-196.671 -1217.25 0.
-240.393 -1321.66 0.
30.5772 -1274.24 0.
5.37686 -1332.2 0.
-19.8234 -1390.15 0.
-268.956 -1524.9 0.
-279.079 -1548.58 0.
-289.202 -1572.26 0.
-83.3138 -1426.49 0.
-47.7921 -1342.84 0.
-215.909 -1342.88 0.
-164.047 -1223.62 0.
-112.185 -1104.35 0.
-450.614 -1171.89 0.
-430.97 -1125.94 0.
-411.325 -1079.98 0.
17.5882 -1018.59 0.
-115.352 -1330.01 0.
-248.291 -1641.43 0.
-95.1421 -1554.8 0.
-41.0627 -1427.96 0.
335.107 -1163.34 0.
370.638 -1285.12 0.
298.571 -1453.34 0.
-529.895 -1874.63 0.
-433.371 -1648.99 0.
-336.847 -1423.35 0.
-554.884 -1398.58 0.
-532.888 -1348.08 0.
-510.891 -1297.58 0.
89.1293 -1060.23 0.
62.9387 -1124.46 0.
36.748 -1188.69 0.
-127.79 -1365.01 0.
-188.809 -1505.99 0.
-311.497 -1657.77 0.
-295.014 -1619.76 0.
-278.532 -1581.75 0.
-285.403 -1557.36 0.
-280.693 -1544.3 0.
-275.984 -1531.24 0.
-281.799 -1500.21 0.
-255.888 -1438.43 0.
-229.978 -1376.65 0.
-326.467 -1471.65 0.
-367.175 -1566.71 0.
-532.084 -1711.8 0.
-543.18 -1560.21 0.
-460.094 -1368.22 0.
-198.479 -1152.82 0.
-227.609 -1220.51 0.
-256.738 -1288.21 0.
-103.786 -1202.84 0.
-51.8786 -1078.84 0.
0.0285274 -954.845 0.
-99.0482 -993.686 0.
-120.051 -1042.1 0.
-141.054 -1090.52 0.
-38.2501 -1049.08 0.
-39.2348 -1050.15 0.
-340.89 -1177.15 0.
-342.059 -1181.24 0.
-343.228 -1185.33 0.
-673.782 -1264.1 0.
-565.46 -1013.58 0.
-457.137 -763.048 0.
291.458 -464.915 0.
191.469 -699.974 0.
91.4794 -935.033 0.
-59.9261 -738.934 0.
137.107 -277.153 0.
-141.084 -646.402 0.
271.001 -548.108 0.
244.523 -609.341 0.
-27.8334 -775.72 0.
-61.2765 -851.598 0.
-94.7194 -927.477 0.
-177.373 -1009.95 0.
-189.275 -1038.25 0.
-201.178 -1066.55 0.
-445.892 -1232.36 0.
-485.409 -1324.38 0.
-524.927 -1416.39 0.
-128.44 -1161.29 0.
-73.9551 -1033.24 0.
42.8429 -896.496 0.
-12.318 -1026.59 0.
-67.4789 -1156.69 0.
-366.98 -1353.17 0.
-353.965 -1322.76 0.
-340.951 -1292.34 0.
-118.245 -1153.03 0.
-85.9576 -1079.31 0.
-53.6698 -1005.59 0.
-210.356 -1121.63 0.
-251.867 -1219.57 0.
109.924 -1144.87 0.
-313.157 -1261.52 0.
-275.204 -1174.09 0.
11.9276 -1009.63 0.
-31.4379 -1114.49 0.
-74.8036 -1219.35 0.
58.1592 -1229.54 0.
33.0139 -1287.81 0.
7.86864 -1346.07 0.
-149.686 -1441.95 0.
-159.422 -1465.84 0.
-169.158 -1489.72 0.
-210.453 -1448.85 0.
-175.018 -1365.18 0.
-384.818 -1383.51 0.
-333.5 -1263.74 0.
-282.182 -1143.97 0.
-279.155 -1068.45 0.
-259.676 -1022.3 0.
-240.197 -976.156 0.
72.4232 -963.973 0.
-60.0934 -1275.71 0.
-192.61 -1587.45 0.
-130.278 -1537.67 0.
-76.0596 -1411.14 0.
-1288.22 -1826.67 0.
302.429 -1282.43 0.
230.384 -1450.99 0.
-304.166 -1746.46 0.
-207.753 -1520.8 0.
-111.34 -1295.14 0.
-758.904 -1453.84 0.
-736.861 -1403.29 0.
-714.817 -1352.75 0.
204.667 -980.621 0.
178.464 -1044.81 0.
152.26 -1108.99 0.
-247.716 -1384.25 0.
-308.482 -1525.35 0.
-233.511 -1592.31 0.
-217.664 -1554.07 0.
-201.816 -1515.84 0.
-283.963 -1525.79 0.
-279.379 -1512.8 0.
-274.796 -1499.82 0.
-107.017 -1394.05 0.
-80.8225 -1332.39 0.
-54.6284 -1270.72 0.
-376.243 -1460.75 0.
-416.708 -1555.94 0.
-210.156 -1542.61 0.
-505.252 -1512.94 0.
-421.943 -1321.18 0.
-190.39 -1118.08 0.
-219.779 -1185.52 0.
-249.168 -1252.96 0.
31.2135 -1114.13 0.
83.1471 -990.115 0.
135.08 -866.096 0.
-175.548 -994.642 0.
-196.485 -1043.17 0.
-217.423 -1091.69 0.
-336.709 -1145.33 0.
-337.686 -1146.09 0.
-137.364 -1059.05 0.
-138.655 -1063.06 0.
-139.947 -1067.07 0.
-323.458 -1082.33 0.
-214.455 -832.34 0.
-105.452 -582.345 0.
156.957 -490.439 0.
57.2202 -725.745 0.
-42.5164 -961.051 0.
-0.348128 -681.774 0.
196.395 -219.723 0.
-304.595 -1191.62 0.
137.387 -927.135 0.
189.048 -806.923 0.
-24.6761 -797.781 0.
44.9758 -638.233 0.
114.628 -478.684 0.
85.3812 -515.903 0.
-39.5992 -806.189 0.
-164.58 -1096.47 0.
-386.675 -1140.7 0.
-279.377 -889.94 0.
-172.08 -639.184 0.
31.3769 -674.537 0.
-58.4841 -884.933 0.
-92.718 -1050.87 0.
-59.5213 -972.41 0.
-26.3245 -893.954 0.
-87.4787 -866.953 0.
-74.3182 -835.184 0.
-61.1577 -803.416 0.
-33.196 -865.294 0.
-117.155 -1061.69 0.
-201.115 -1258.09 0.
-125.329 -1157.14 0.
-51.0162 -983.118 0.
341.279 -672.832 0.
-218.155 -1014.73 0.
-275.062 -1149.38 0.
-59.8489 -1156.25 0.
-72.1122 -1181.77 0.
-84.376 -1207.28 0.
-9.58349 -1250.57 0.
-85.101 -1428.66 0.
-160.619 -1606.75 0.
-264.761 -1648.56 0.
-221.891 -1548.62 0.
-179.021 -1448.68 0.
-221.96 -1405.14 0.
-193.308 -1337 0.
-389.327 -1380.23 0.
-421.857 -1457.81 0.
-454.387 -1535.38 0.
-307.252 -1482.98 0.
-263.147 -1379.66 0.
-219.042 -1276.33 0.
-55.3719 -1177.12 0.
-62.8696 -1193.05 0.
-70.3674 -1208.99 0.
30.2471 -1078.02 0.
94.1306 -928.562 0.
-3719.5 -2441.59 0.
544.437 -705.478 0.
497.48 -816.394 0.
-9.20701 -1101.57 0.
-7.49125 -1099.85 0.
-5.77574 -1098.14 0.
-646.454 -1418.55 0.
-704.157 -1549.71 0.
-761.86 -1680.87 0.
21.063 -1205.42 0.
155.721 -888.065 0.
290.379 -570.716 0.
-49.0861 -906.82 0.
-176.829 -1203.96 0.
-187.626 -1414.2 0.
-151.759 -1329.89 0.
-115.893 -1245.59 0.
-128.668 -1188.85 0.
-105.027 -1134.36 0.
-81.3855 -1079.88 0.
53.5478 -992.774 0.
59.062 -980.077 0.
64.5765 -967.38 0.
-155.494 -936.117 0.
-71.1636 -741.845 0.
294.621 -434.615 0.
-129.594 -746.268 0.
-198.018 -905.465 0.
-115.778 -969.901 0.
-126.501 -992.286 0.
-137.223 -1014.67 0.
53.3868 -948.222 0.
48.3175 -962.264 0.
43.2485 -976.307 0.
-213.394 -1103.48 0.
-225.757 -1133.54 0.
-238.12 -1163.61 0.
-408.968 -1198.24 0.
-382.447 -1138 0.
-56.7832 -942.702 0.
-30.7613 -883.875 0.
-4.73953 -825.049 0.
-149.696 -868.969 0.
-162.589 -899.978 0.
-175.482 -930.987 0.
28.2877 -629.288 0.
234.975 -144.452 0.
441.661 340.383 0.
188.007 -226.056 0.
-168.333 -1060.07 0.
-174.867 -1106.43 0.
63.8557 -926.901 0.
115.327 -806.757 0.
-58.0782 -781.156 0.
11.1854 -621.254 0.
80.4494 -461.353 0.
109.587 -473.586 0.
-15.3339 -763.948 0.
-140.255 -1054.31 0.
-273.314 -1061.75 0.
-166.081 -810.948 0.
-58.848 -560.14 0.
95.9048 -615.861 0.
5.94059 -826.155 0.
-265.909 -1093.76 0.
-232.878 -1015.15 0.
-199.847 -936.533 0.
48.3711 -777.538 0.
61.2831 -745.559 0.
74.1951 -713.579 0.
-112.691 -868.385 0.
-197.002 -1064.41 0.
-281.312 -1260.44 0.
14.5602 -1066.39 0.
88.6472 -892.258 0.
-144.364 -849.88 0.
-64.6236 -917.918 0.
-121.491 -1052.67 0.
-217.146 -1191.95 0.
-229.438 -1217.69 0.
-241.73 -1243.44 0.
-145.186 -1275.77 0.
-220.815 -1453.97 0.
-296.445 -1632.16 0.
-407.903 -1678.77 0.
-365.459 -1578.76 0.
-323.015 -1478.75 0.
-139.353 -1338.51 0.
-110.254 -1270.4 0.
-197.813 -1266.61 0.
-230.756 -1343.72 0.
-263.698 -1420.83 0.
-74.379 -1352.29 0.
-30.4249 -1248.93 0.
13.5293 -1145.56 0.
-169.52 -1194.91 0.
-176.921 -1211.19 0.
-184.322 -1227.47 0.
4.39592 -1056.49 0.
68.8036 -907.616 0.
202.47 -729.003 0.
631.313 -636.243 0.
584.53 -747.319 0.
-149.411 -1130.85 0.
-148.097 -1128.87 0.
-146.782 -1126.89 0.
-188.424 -1191.15 0.
-246.345 -1322.4 0.
-304.266 -1453.65 0.
-278.568 -1303.45 0.
-144.076 -985.993 0.
-9.58415 -668.537 0.
88.0527 -815.911 0.
-39.8151 -1113.08 0.
-305.6 -1433.23 0.
-269.423 -1349.18 0.
-233.247 -1265.13 0.
-65.7637 -1130.33 0.
-42.1719 -1075.9 0.
-18.5803 -1021.48 0.
-111.172 -1033.14 0.
-105.455 -1020.54 0.
-99.7378 -1007.94 0.
-81.9791 -872.63 0.
2.39335 -678.349 0.
427.129 -346.94 0.
-19.7386 -668.748 0.
-88.067 -828.275 0.
-74.3686 -920.667 0.
-84.7787 -943.13 0.
-95.1888 -965.594 0.
-154.541 -1005.41 0.
-159.752 -1019.34 0.
-164.961 -1033.27 0.
-83.1529 -1017.11 0.
-95.7657 -1047.01 0.
-108.379 -1076.91 0.
-206.643 -1080.24 0.
-180.495 -1019.56 0.
-149.198 -952.229 0.
-122.946 -893.486 0.
-96.6938 -834.743 0.
-265.413 -886.684 0.
-277.636 -918.372 0.
-289.858 -950.061 0.
16.2722 -602.731 0.
222.972 -117.944 0.
429.672 366.841 0.
141.971 -214.671 0.
-214.81 -1048.83 0.
964.604 1347.04 0.
427.514 99.3732 0.
253.112 -311.156 0.
270.453 75.3613 0.
106.458 -308.549 0.
738.646 1166.15 0.
625.89 720.985 0.
538.384 514.846 0.
962.296 1501.86 0.
-4.91022 -618.327 0.
114.512 -339.93 0.
343.088 193.516 0.
301.599 -222.283 0.
665.775 628.85 0.
503.804 1060.06 0.
111.416 144.059 0.
144.785 221.757 0.
413.645 -144.742 0.
570.117 218.63 0.
297.801 -418.395 0.
-68.6975 -587.673 0.
130.751 -123.136 0.
511.314 764.252 0.
588.091 33.6429 0.
674.781 233.942 0.
165.802 -361.535 0.
397.826 -106.636 0.
577.334 310.204 0.
-43.8068 -456.489 0.
-44.949 -458.651 0.
51.6379 -232.593 0.
343.222 157.382 0.
403.872 297.155 0.
523.883 575.501 0.
580.529 931.703 0.
-23.549 -476.599 0.
127.569 -122.962 0.
365.468 -279.779 0.
378.877 -248.527 0.
488.104 -0.867585 0.
445.29 -101.158 0.
275.498 -497.842 0.
1073.13 921.39 0.
808.335 302.573 0.
941.932 613.301 0.
427.139 449.234 0.
161.208 -171.616 0.
436.038 469.406 0.
594.288 406.89 0.
869.406 1050.23 0.
-3387.93 -1137.65 0.
1005.08 99.8989 0.
1285.07 752.762 0.
464.929 598.821 0.
498.774 675.677 0.
254.274 103.304 0.
760.83 192.384 0.
1135.71 1064.96 0.
855.56 409.531 0.
-11.6292 -71.2773 0.
249.925 536.832 0.
214.021 450.613 0.
552.9 40.4616 0.
519.545 -40.6807 0.
311.66 261.08 0.
344.353 335.906 0.
82.9329 -275.381 0.
426.742 -69.8179 0.
475.68 44.7856 0.
611.58 362.301 0.
206.564 47.5347 0.
231.941 108.468 0.
457.155 636.01 0.
421.312 179.806 0.
177.511 -387.298 0.
803.354 429.554 0.
245.942 -226.362 0.
618.449 645.419 0.
165.186 -405.529 0.
192.454 -341.602 0.
534.136 455.936 0.
814.952 1666.98 0.
487.244 904 0.
29.4503 -162.028 0.
593.646 348.238 0.
602.549 370.293 0.
893.82 1050.98 0.
243.495 -380.826 0.
91.0155 -735.342 0.
419.117 574.975 0.
299.126 298.423 0.
-36.5834 -481.603 0.
318.766 706.318 0.
97.3116 193.381 0.
205.307 449.609 0.
376.152 295.546 0.
320.424 164.315 0.
575.29 758.523 0.
430.813 572.58 0.
169.755 -37.0611 0.
-128.651 -589.687 0.
83.7081 -549.151 0.
48.8993 -632.94 0.
-48.7153 -752.381 0.
-110.94 -898.093 0.
-173.164 -1043.81 0.
-69.0556 -982.427 0.
36.7496 -736.701 0.
142.555 -490.975 0.
-10.3865 -606.424 0.
-108.203 -834.33 0.
-206.019 -1062.24 0.
-227.3 -1016.62 0.
-179.069 -904.205 0.
-90.7367 -779.155 0.
-75.9079 -745.558 0.
-61.0791 -711.962 0.
72.74 -669.713 0.
16.2675 -803.577 0.
-40.2052 -937.442 0.
-161.084 -1129.06 0.
-248.156 -1334.19 0.
-335.229 -1539.32 0.
-126.843 -1371.4 0.
-46.8494 -1186.67 0.
207.746 -927.08 0.
-17.6374 -1033.35 0.
-19.9983 -1038.66 0.
-163.558 -1087.06 0.
-132.326 -1015.06 0.
-101.094 -943.054 0.
-75.6266 -936.067 0.
-121.278 -1043.44 0.
-166.929 -1150.82 0.
-412.993 -1291.38 0.
-417.143 -1301.48 0.
-421.293 -1311.58 0.
-25.864 -1196.72 0.
-55.5253 -1266.06 0.
-251.072 -1398.96 0.
-235.699 -1364.09 0.
-220.325 -1329.22 0.
60.3637 -1197.3 0.
47.6673 -1226.59 0.
34.9712 -1255.89 0.
-175.402 -1320.7 0.
-141.13 -1242.88 0.
-106.857 -1165.06 0.
-44.6412 -1182.12 0.
-84.4693 -1275.24 0.
-2077.5 -2206.61 0.
316.798 -1246.99 0.
281.282 -1328.89 0.
-210.009 -1553.58 0.
-121.097 -1345.99 0.
-32.1854 -1138.39 0.
34.2062 -988.659 0.
69.4648 -905.794 0.
104.723 -822.929 0.
-418.791 -1117.29 0.
-491.565 -1289.24 0.
-564.338 -1461.19 0.
-10.062 -1120 0.
60.88 -955.873 0.
-96.6781 -915.424 0.
-151.577 -1044.28 0.
-206.477 -1173.13 0.
-35.3099 -1156.88 0.
-15.2424 -1109.54 0.
4.82519 -1062.19 0.
-282.244 -1227.31 0.
-333.952 -1346.39 0.
-385.66 -1465.47 0.
-227.362 -1387.81 0.
-208.387 -1341.2 0.
35.612 -1192.32 0.
-184.782 -1083.1 0.
-79.2197 -834.19 0.
-124.329 -732.63 0.
-195.522 -899.322 0.
-266.716 -1066.01 0.
-255.458 -1129.54 0.
-248.19 -1109.63 0.
-240.923 -1089.71 0.
178.594 -921.192 0.
164.971 -951.63 0.
151.348 -982.067 0.
-161.538 -1053.64 0.
-127.652 -972.823 0.
-221.896 -960.561 0.
-226.951 -969.177 0.
-232.007 -977.792 0.
-341.369 -1002.1 0.
-305.225 -914.268 0.
-269.081 -826.435 0.
-124.471 -828.305 0.
-208.018 -1023.68 0.
-291.565 -1219.05 0.
-328.464 -1057.91 0.
-187.635 -730.253 0.
-433.866 -687.886 0.
19.6816 -545.166 0.
-15.36 -629.025 0.
11.5843 -694.815 0.
-50.973 -840.282 0.
-113.53 -985.748 0.
-10.2272 -926.205 0.
95.3443 -680.245 0.
200.916 -434.285 0.
-7.14123 -574.325 0.
-105.091 -802.233 0.
-203.04 -1030.14 0.
-442.023 -1077.26 0.
-393.654 -965.126 0.
164.013 -637.408 0.
178.815 -603.776 0.
193.617 -570.144 0.
-52.6791 -691.959 0.
-109.304 -825.378 0.
-165.929 -958.798 0.
26.738 -1018.04 0.
-60.5493 -1223.22 0.
-147.837 -1428.4 0.
-247.117 -1391.56 0.
-167.482 -1206.85 0.
436.954 -797.658 0.
-23.2387 -1003.9 0.
-25.8487 -1009.4 0.
40.1269 -970.145 0.
71.0709 -898.031 0.
102.015 -825.918 0.
2.47392 -869.676 0.
-42.6001 -977.63 0.
-87.6741 -1085.58 0.
-444.681 -1271.23 0.
-448.911 -1281.49 0.
-453.142 -1291.74 0.
-7.06715 -1158.22 0.
-36.8754 -1227.31 0.
-406.244 -1434.3 0.
-390.644 -1399.39 0.
-375.043 -1364.49 0.
-54.372 -1215.07 0.
-67.1817 -1244.21 0.
-79.9912 -1273.34 0.
33.0951 -1200.07 0.
67.2658 -1122.02 0.
101.437 -1043.97 0.
25.0678 -1120.79 0.
-14.6972 -1213.85 0.
-1482.97 -1919.96 0.
197.563 -1266.37 0.
162.334 -1348.32 0.
109.488 -1385.42 0.
198.296 -1178.12 0.
287.105 -970.813 0.
-220.425 -1065.9 0.
-185.323 -983.182 0.
-150.221 -900.462 0.
-352.035 -1057.41 0.
-424.975 -1229.29 0.
-497.916 -1401.17 0.
-75.8042 -1116.84 0.
-5.17378 -952.68 0.
38.4897 -825.785 0.
-15.9596 -955.058 0.
-70.4094 -1084.33 0.
-17.675 -1117.26 0.
2.72807 -1070.16 0.
23.1311 -1023.06 0.
-195.07 -1159.44 0.
-246.32 -1278.68 0.
-297.57 -1397.92 0.
-184.45 -1337.77 0.
-165.097 -1291.52 0.
8.4626 -1172.35 0.
-246.985 -1078.65 0.
-141.189 -830.135 0.
-290.544 -772.384 0.
-361.78 -938.957 0.
-433.014 -1105.53 0.
-83.6475 -1024.92 0.
-76.067 -1005.24 0.
-68.4865 -985.554 0.
353.352 -814.528 0.
339.781 -844.95 0.
326.211 -875.372 0.
-288.782 -1076.88 0.
-254.825 -996.065 0.
-184.928 -913.748 0.
-189.7 -922.371 0.
-194.472 -930.994 0.
-235.654 -924.273 0.
-199.313 -836.686 0.
-162.971 -749.099 0.
-132.034 -800.357 0.
-215.62 -995.871 0.
-299.206 -1191.38 0.
-385.387 -1050.12 0.
-244.519 -722.782 0.
-287.214 -341.573 0.
-43.8015 -506.943 0.
-163.861 -785.366 0.
-42.9459 -880.045 0.
42.3771 -680.188 0.
127.7 -480.33 0.
141.561 -452.201 0.
56.525 -650.73 0.
-28.5112 -849.259 0.
-30.1548 -734.788 0.
110.597 -407.488 0.
251.348 -80.1877 0.
-268.841 -448.139 0.
-377.082 -700.377 0.
233.943 -626.355 0.
209.395 -681.539 0.
184.846 -736.723 0.
-160.063 -938.564 0.
-197.928 -1024.66 0.
-235.793 -1110.75 0.
87.7761 -838.031 0.
248.5 -461.878 0.
409.224 -85.7251 0.
8.15027 -489.007 0.
-197.034 -967.019 0.
438.924 -1084.27 0.
-74.164 -1184.82 0.
-13.5758 -1043.65 0.
97.2044 -916.369 0.
85.0491 -945.681 0.
72.8938 -974.993 0.
-53.2889 -1006.33 0.
-12.0365 -908.383 0.
29.2161 -810.434 0.
-271.409 -921.669 0.
-274.893 -931.301 0.
-278.378 -940.934 0.
160.835 -773.097 0.
145.881 -807.822 0.
-205.221 -986.703 0.
-226.078 -1035.04 0.
-246.934 -1083.37 0.
21.4415 -1016.44 0.
-13.4593 -1098.37 0.
-48.3598 -1180.3 0.
49.9508 -1178.4 0.
41.3808 -1197.31 0.
32.8106 -1216.22 0.
20.0133 -1211.14 0.
32.2239 -1182.27 0.
-1542.32 -1832.06 0.
320.101 -947.482 0.
365.093 -841.872 0.
400.208 -780.364 0.
348.798 -901.767 0.
297.388 -1023.17 0.
-398.047 -1392.89 0.
-419.745 -1443.64 0.
-441.443 -1494.39 0.
-418.346 -1467.93 0.
-396.162 -1416.09 0.
-373.978 -1364.25 0.
-183.87 -1195.87 0.
-135.538 -1080.35 0.
-11.0726 -936.91 0.
21.5232 -859.056 0.
54.1192 -781.201 0.
143.649 -697.259 0.
155.086 -669.949 0.
166.522 -642.638 0.
17.2737 -662.042 0.
43.0521 -601.416 0.
68.8304 -540.789 0.
152.826 -624.805 0.
64.4826 -830.595 0.
47.4775 -1014 0.
-308.853 -1137.93 0.
-292.587 -1102.26 0.
-447.253 -1128.84 0.
-420.605 -1066.73 0.
-393.957 -1004.62 0.
86.2255 -841.657 0.
12.2537 -1015.04 0.
-61.7182 -1188.42 0.
298.282 -947.091 0.
396.507 -719.118 0.
494.732 -491.145 0.
-228.903 -738.307 0.
-198.179 -667.713 0.
39.1799 -497.52 0.
89.4313 -382.604 0.
139.683 -267.687 0.
44.7375 -285.207 0.
-1.21531 -394.473 0.
-47.1681 -503.74 0.
15.7112 -516.855 0.
12.4631 -525.218 0.
9.21473 -533.581 0.
-168.085 -584.015 0.
-148.371 -539.232 0.
18.429 -183.231 0.
-142.014 -518.189 0.
-262.165 -796.509 0.
-2.90797 -831.358 0.
82.5416 -631.545 0.
167.991 -431.732 0.
-5.22686 -482.496 0.
-89.7682 -681.384 0.
-174.31 -880.272 0.
107.752 -645.028 0.
248.543 -317.729 0.
389.334 9.57095 0.
-259.174 -411.15 0.
-367.422 -663.657 0.
178.921 -618.826 0.
153.792 -673.743 0.
128.664 -728.659 0.
-8.61883 -842.435 0.
-46.2538 -928.746 0.
-83.889 -1015.06 0.
-97.6155 -885.422 0.
63.1676 -509.364 0.
223.951 -133.305 0.
-153.708 -525.945 0.
-358.617 -1004.19 0.
209.851 -1150.87 0.
35.3297 -1106.65 0.
95.9209 -965.292 0.
15.7356 -919.639 0.
3.69481 -948.875 0.
-8.34603 -978.11 0.
-101.295 -996.486 0.
-60.165 -898.454 0.
-19.0349 -800.421 0.
-146.243 -835.522 0.
-149.83 -845.127 0.
-153.416 -854.731 0.
176.47 -735.678 0.
161.297 -769.988 0.
1.79333 -867.724 0.
-19.2853 -915.558 0.
-40.3636 -963.391 0.
144.102 -933.455 0.
109.108 -1015.01 0.
74.1148 -1096.56 0.
-104.538 -1212.83 0.
-112.714 -1231.91 0.
-120.891 -1250.99 0.
53.4398 -1165.12 0.
65.7886 -1136.22 0.
-1049.63 -1589.08 0.
441.332 -863.416 0.
486.066 -757.671 0.
193.57 -838.38 0.
141.933 -959.469 0.
90.2965 -1080.56 0.
-203.599 -1278.98 0.
-225.493 -1329.51 0.
-247.387 -1380.05 0.
-187.811 -1338.78 0.
-165.338 -1287.32 0.
-142.866 -1235.86 0.
-263.513 -1197.7 0.
-215.188 -1082.48 0.
-123.81 -952.327 0.
-90.7011 -874.863 0.
-57.5923 -797.399 0.
109.221 -680.386 0.
120.842 -653.323 0.
132.463 -626.26 0.
-38.3462 -654.633 0.
-12.6183 -593.738 0.
13.1094 -532.842 0.
222.363 -564.389 0.
134.067 -770.186 0.
12.191 -996.151 0.
-302.679 -1102.51 0.
-286.446 -1067.04 0.
-260.302 -1016.92 0.
-233.652 -954.992 0.
-207.002 -893.064 0.
177.095 -771.682 0.
102.874 -945.003 0.
28.652 -1118.32 0.
166.581 -971.222 0.
265.051 -743.668 0.
363.52 -516.114 0.
-276.762 -728.112 0.
-245.856 -657.562 0.
152.218 -417.872 0.
202.734 -302.803 0.
253.251 -187.734 0.
-0.806135 -272.826 0.
-46.7556 -382.069 0.
-92.705 -491.312 0.
117.787 -442.31 0.
114.427 -450.638 0.
111.067 -458.966 0.
-30.6375 -494.445 0.
-11.2905 -450.408 0.
248.761 -170.298 0.
142.13 357.905 0.
-193.203 -425.062 0.
722.136 817.868 0.
268.864 -239.684 0.
499.819 299.725 0.
283.424 497.285 0.
652.602 1359.99 0.
257.087 438.207 0.
501.022 40.6399 0.
768.883 665.953 0.
841.249 835.37 0.
76.182 382.891 0.
410.141 1162.68 0.
1077.69 1623.42 0.
431.128 112.872 0.
321.184 -145.096 0.
578.693 273.919 0.
837.105 876.538 0.
712.68 585.877 0.
-19.6362 -314.462 0.
139.19 56.0371 0.
266.329 352.544 0.
-117.784 -115.493 0.
421.445 1141.32 0.
734.68 426.185 0.
417.919 -391.62 0.
496.953 -207.041 0.
-55.9592 -917.03 0.
423.156 202.993 0.
135.748 -465.185 0.
-255.589 -1228.15 0.
453.056 426.13 0.
682.801 963.167 0.
288.539 -28.9233 0.
129.152 -399.521 0.
155.01 -338.066 0.
567.032 185.12 0.
708.029 514.348 0.
953.094 987.658 0.
719.2 445.882 0.
413.213 -264.005 0.
304.293 -764.211 0.
672.441 96.0983 0.
885.95 595.546 0.
544.59 621.083 0.
287.387 22.2086 0.
392.535 268.588 0.
773.977 488.241 0.
974.545 955.926 0.
-1418.74 -461.073 0.
1276.2 884.694 0.
713.419 -429.18 0.
-160.455 -1241.87 0.
343.634 -65.1244 0.
627.936 598.642 0.
895.03 944.5 0.
1012.9 1221.01 0.
440.228 -113.65 0.
491.233 -161.865 0.
369.484 -446.017 0.
922.333 843.71 0.
141.736 -70.8295 0.
233.819 142.595 0.
415.552 544.261 0.
104.378 -179.382 0.
240.155 139.962 0.
342.667 -40.6088 0.
759.075 932.123 0.
468.134 254.572 0.
129.915 -128.951 0.
429.138 570.489 0.
590.601 948.422 0.
203.401 -721.371 0.
-92.418 -1413.69 0.
561.752 584.778 0.
69.8868 -213.7 0.
207.598 105.135 0.
697.9 903.768 0.
231.155 -187.685 0.
546.719 545.844 0.
437.365 -305.948 0.
541.649 -63.7968 0.
636.28 156.134 0.
320.687 -330.186 0.
499.528 87.0488 0.
330.025 -308.108 0.
0.380492 31.1264 0.
-288.925 -645.406 0.
556.576 337.398 0.
564.74 357.218 0.
204.692 -482.518 0.
24.8582 -103.461 0.
362.267 682.802 0.
4.40912 -153.575 0.
558.656 431.981 0.
301.852 -166.809 0.
412.44 90.7165 0.
163.982 -282.628 0.
563.243 648.057 0.
-386.049 -1302.18 0.
-291.755 -945.32 0.
-147.025 -608.584 0.
-1.01226 -352.484 0.
-66.1393 -506.05 0.
-131.267 -659.616 0.
-163.806 -631.444 0.
-24.9125 -305.866 0.
113.98 19.7114 0.
349.714 -81.4728 0.
110.808 -638.824 0.
-128.099 -1196.18 0.
-465.271 -1231.62 0.
-362.405 -991.612 0.
70.6991 -635.184 0.
33.8466 -725.198 0.
-3.00587 -815.212 0.
-83.1322 -844.6 0.
1.75315 -647.179 0.
86.6388 -449.759 0.
71.4699 -513.209 0.
-54.6177 -807.445 0.
-180.705 -1101.68 0.
-501.75 -1227.81 0.
-458.588 -1126.85 0.
356.063 -695.59 0.
198.794 -835.778 0.
164.534 -916.169 0.
-108.584 -1038.07 0.
-7.86226 -802.384 0.
92.8591 -566.697 0.
3.25829 -575.07 0.
-91.1163 -794.974 0.
-185.491 -1014.88 0.
-152.872 -1088.25 0.
-174.614 -1138.42 0.
-196.356 -1188.59 0.
-80.526 -1093.49 0.
-49.4979 -1021.47 0.
223.068 -862.304 0.
170.752 -986.632 0.
118.437 -1110.96 0.
103.83 -1143.59 0.
173.858 -981.206 0.
243.886 -818.818 0.
-60.6218 -888.873 0.
-59.2009 -886.948 0.
-57.7797 -885.024 0.
278.811 -817.757 0.
227.891 -937.76 0.
277.919 -1016.19 0.
430.023 -854.919 0.
480.015 -737.791 0.
-45.5147 -892.328 0.
-55.2335 -916.061 0.
-64.9523 -939.794 0.
123.47 -854.91 0.
140.099 -815.518 0.
156.729 -776.127 0.
15.1832 -853.19 0.
-7.09574 -902.808 0.
-29.375 -952.426 0.
-250.924 -1112.47 0.
-286.581 -1197.5 0.
-179.78 -1210.49 0.
-165.598 -1175.65 0.
-151.417 -1140.8 0.
-274.115 -1183.7 0.
-294.194 -1230.07 0.
-314.274 -1276.43 0.
-227.485 -1179.2 0.
-153.689 -1008.5 0.
-79.8928 -837.806 0.
199.821 -743.872 0.
164.856 -827.599 0.
-85.0569 -996.464 0.
-290.156 -1072.9 0.
-284.065 -1058.79 0.
-56.3589 -966.794 0.
-75.6335 -1016.21 0.
-94.9082 -1065.63 0.
170.072 -891.784 0.
261.998 -678.978 0.
353.924 -466.172 0.
82.5372 -558.355 0.
61.9351 -606.195 0.
41.3331 -654.034 0.
-158.758 -743.797 0.
-160.541 -748.671 0.
54.8023 -654.012 0.
90.8504 -568.677 0.
126.898 -483.341 0.
-90.5426 -540.242 0.
-108.696 -583.049 0.
-126.849 -625.856 0.
27.264 -552.568 0.
51.2652 -496.725 0.
75.2662 -440.882 0.
51.7441 -431.25 0.
56.2868 -422.143 0.
-555.328 -1348.16 0.
-122.51 -842.467 0.
22.4448 -505.69 0.
-254.895 -429.048 0.
-319.388 -583.071 0.
-383.883 -737.094 0.
-103.105 -573.509 0.
36.0941 -248.135 0.
175.292 77.2397 0.
244.245 -95.2417 0.
5.64347 -652.875 0.
-232.959 -1210.51 0.
-265.053 -1113.6 0.
-162.186 -873.906 0.
45.4437 -614.469 0.
7.99908 -703.863 0.
-29.4455 -793.258 0.
-289.243 -901.844 0.
-204.484 -704.28 0.
-119.724 -506.715 0.
303.851 -383.164 0.
177.576 -677.27 0.
51.3011 -971.375 0.
-371.3 -1140.68 0.
-328.782 -1039.14 0.
1008.91 -382.992 0.
179.357 -814.626 0.
145.245 -895.241 0.
-92.0314 -998.587 0.
9.33604 -763.371 0.
110.703 -528.155 0.
-7.49304 -547.889 0.
-101.462 -768.031 0.
-195.432 -988.174 0.
-119.186 -1040.57 0.
-140.883 -1090.75 0.
-162.581 -1140.92 0.
-188.079 -1109.08 0.
-157.491 -1036.5 0.
320.984 -789.351 0.
268.465 -913.17 0.
215.946 -1036.99 0.
73.0407 -1126.36 0.
143.329 -964.074 0.
213.618 -801.785 0.
8.95906 -828 0.
10.3023 -825.961 0.
11.6459 -823.921 0.
377.948 -744.527 0.
326.874 -864.409 0.
-392.206 -1271.55 0.
321.674 -869.742 0.
371.669 -752.712 0.
-71.4908 -872.216 0.
-80.9306 -896.37 0.
-90.3705 -920.525 0.
139.194 -817.495 0.
155.442 -777.643 0.
171.691 -737.79 0.
-190.76 -910.682 0.
-213.01 -960.601 0.
-235.26 -1010.52 0.
-167.681 -1045.23 0.
-203.05 -1130.25 0.
30.4049 -1088.21 0.
44.9368 -1053.59 0.
59.4683 -1018.97 0.
-412.63 -1211.95 0.
-432.628 -1258.41 0.
-452.627 -1304.86 0.
-97.5974 -1092.25 0.
-23.5175 -921.89 0.
50.5627 -751.529 0.
226.192 -701.085 0.
191.271 -785.169 0.
-414.274 -1105.95 0.
-263.86 -1030.05 0.
-257.868 -1016.04 0.
16.7221 -904.543 0.
-2.6234 -953.925 0.
-21.9689 -1003.31 0.
166.075 -862.505 0.
258.328 -650.083 0.
350.582 -437.66 0.
-73.9729 -592.985 0.
-94.1212 -641.471 0.
-114.269 -689.958 0.
68.9047 -615.326 0.
66.756 -619.874 0.
-26.1385 -657.275 0.
9.95864 -571.689 0.
46.0557 -486.103 0.
14.2368 -464.58 0.
-4.24225 -506.874 0.
-22.7215 -549.167 0.
-91.7676 -573.547 0.
-67.7917 -517.794 0.
-43.816 -462.041 0.
9.84066 -417.042 0.
14.628 -408.309 0.
-87.7305 -267.108 0.
32.504 -414.983 0.
-47.4743 -599.469 0.
-438.301 -850.209 0.
-347.573 -635.708 0.
-256.845 -421.208 0.
23.9058 -315.43 0.
-118.715 -647.578 0.
-261.336 -979.725 0.
-145.046 -914.636 0.
-55.2796 -704.556 0.
34.4868 -494.476 0.
115.29 -392.076 0.
142.282 -327.686 0.
107.94 -299.205 0.
91.8078 -334.835 0.
75.6756 -370.465 0.
-139.122 -521.977 0.
-207.466 -679.137 0.
-275.81 -836.297 0.
219.955 -617.69 0.
281.689 -474.566 0.
343.423 -331.443 0.
-173.211 -668.724 0.
-263.876 -881.948 0.
1029.21 -501.77 0.
216.146 -752.84 0.
261.17 -645.013 0.
68.9561 -695.311 0.
-13.9219 -886.27 0.
-96.8 -1077.23 0.
-243.462 -1168.34 0.
-173.259 -1002.36 0.
-103.055 -836.375 0.
-32.8038 -811.603 0.
-70.0579 -900.01 0.
-107.312 -988.418 0.
-44.1169 -909.939 0.
-11.5387 -834.615 0.
354.301 -628.448 0.
332.533 -679.253 0.
310.764 -730.058 0.
116.445 -876.905 0.
53.6118 -1021.63 0.
-9.22182 -1166.36 0.
-113.237 -1248.81 0.
-94.7676 -1205.31 0.
-76.2979 -1161.82 0.
261.14 -1000.89 0.
265.218 -991.725 0.
114.73 -1050 0.
276.563 -832.888 0.
354.674 -651.615 0.
10.972 -677.461 0.
21.9213 -651.449 0.
32.8708 -625.437 0.
205.999 -581.075 0.
162.725 -685.942 0.
119.452 -790.809 0.
-264.601 -940.069 0.
-229.017 -857.028 0.
-193.432 -773.988 0.
4.76429 -742.492 0.
-30.3455 -824.578 0.
264.417 -752.794 0.
291.862 -687.905 0.
319.306 -623.016 0.
-254.352 -869.829 0.
-311.727 -1004.24 0.
-369.102 -1138.65 0.
-32.0584 -1017.27 0.
-9.50277 -961.359 0.
13.0527 -905.448 0.
205.139 -742.482 0.
253.066 -631.501 0.
-108.213 -700.533 0.
-301.347 -1032.08 0.
-432.335 -1337.74 0.
-141.907 -1328.95 0.
16.9152 -953.101 0.
175.736 -577.258 0.
352.937 -404.914 0.
273.378 -587.256 0.
193.819 -769.596 0.
-305.947 -1022.88 0.
-296.851 -1002.47 0.
-287.756 -982.055 0.
122.723 -741.783 0.
159.792 -655.471 0.
-87.4179 -699.446 0.
-73.7766 -668.548 0.
-60.1353 -637.65 0.
-58.1041 -568.848 0.
13.5467 -401.598 0.
85.1972 -234.348 0.
-36.1056 -256.175 0.
-65.5966 -326.178 0.
-95.0877 -396.181 0.
82.4296 -221.314 0.
161.391 -37.758 0.
93.8492 -157.07 0.
-170.119 -472.314 0.
-250.14 -656.483 0.
-181.2 -706.971 0.
-89.9625 -492.771 0.
1.27353 -278.57 0.
35.9446 -279.324 0.
-106.629 -611.657 0.
-249.203 -943.991 0.
-107.129 -866.131 0.
-16.9926 -656.369 0.
73.144 -446.605 0.
131.527 -354.032 0.
158.749 -289.916 0.
-16.9295 -320.212 0.
-32.9723 -355.874 0.
-49.0148 -391.535 0.
59.4952 -405.828 0.
-8.97856 -562.867 0.
-77.4522 -719.906 0.
52.9663 -657.7 0.
114.939 -514.86 0.
176.913 -372.02 0.
-267.992 -676.43 0.
-358.517 -889.789 0.
399.139 -739.368 0.
290.263 -691.108 0.
335.273 -583.348 0.
160.824 -623.648 0.
78.1337 -814.863 0.
-4.55682 -1006.08 0.
-129.469 -1087.63 0.
-58.8722 -921.732 0.
11.7247 -755.837 0.
-58.6439 -790.173 0.
-95.7995 -878.602 0.
-132.955 -967.032 0.
240.299 -757.429 0.
272.805 -681.831 0.
196.267 -663.577 0.
174.87 -714.821 0.
153.472 -766.066 0.
18.1787 -888.95 0.
-44.4071 -1033.96 0.
-106.993 -1178.97 0.
-15.3437 -1174.15 0.
3.182 -1131.12 0.
21.7076 -1088.09 0.
170.645 -1008.47 0.
174.711 -999.408 0.
49.0925 -1046.73 0.
277.809 -800.267 0.
355.212 -618.577 0.
60.8429 -624.794 0.
71.7463 -598.781 0.
82.6496 -572.768 0.
140.821 -577.987 0.
97.5393 -682.785 0.
54.2579 -787.583 0.
-175.003 -870.212 0.
-139.262 -787.396 0.
-103.522 -704.581 0.
61.6299 -686.244 0.
26.5516 -768.196 0.
303.422 -704.971 0.
330.857 -639.942 0.
358.293 -574.913 0.
-62.0769 -757.684 0.
-119.277 -892.161 0.
-176.476 -1026.64 0.
-47.8777 -991.058 0.
-25.1666 -935.483 0.
-2.45558 -879.908 0.
212.703 -707.503 0.
260.296 -596.474 0.
257.661 -512.181 0.
-380.535 -1034.68 0.
-511.429 -1340.22 0.
-136.656 -1296 0.
22.862 -921.019 0.
182.38 -546.036 0.
357.167 -371.321 0.
277.793 -553.794 0.
198.419 -736.267 0.
-241.615 -963.064 0.
-232.171 -943.011 0.
-222.727 -922.958 0.
198.84 -677.257 0.
235.947 -590.806 0.
-73.6917 -662.421 0.
-60.0582 -631.061 0.
-46.4246 -599.701 0.
-193.199 -595.778 0.
-121.547 -428.37 0.
-49.895 -260.961 0.
-82.7566 -244.931 0.
-112.421 -314.934 0.
-142.086 -384.936 0.
135.536 -167.803 0.
214.318 15.5506 0.
206.487 -190.958 0.
14.5761 374.469 0.
-169.107 -55.6032 0.
318.079 6.13436 0.
517.532 473.998 0.
746.922 1011.44 0.
-153.035 -714.057 0.
156.788 5.7598 0.
246.768 212.909 0.
602.485 757.941 0.
419.778 332.581 0.
258.618 -42.5588 0.
453.033 392.709 0.
331.064 107.063 0.
159.016 359.499 0.
47.9324 101.071 0.
-76.9923 -189.73 0.
442.832 151.624 0.
437.106 137.967 0.
425.931 111.484 0.
82.1946 -235.406 0.
77.2652 -248.23 0.
303.003 277.144 0.
-222.407 -362.916 0.
-428.191 -845.343 0.
227.228 -340.759 0.
391.126 -562.492 0.
696.587 150.028 0.
629.79 332.002 0.
393.003 -220.652 0.
492.968 12.6268 0.
425.22 25.2372 0.
401.634 -29.9118 0.
456.78 98.57 0.
52.2798 -454.83 0.
-329.065 -1343.99 0.
315.756 160.69 0.
918.542 316.596 0.
709.817 -170.268 0.
504.722 387.593 0.
364.011 58.7183 0.
262.049 -179.698 0.
176.319 -309.443 0.
304.181 -11.3674 0.
326.702 41.197 0.
539.097 -31.2349 0.
365.994 -435.847 0.
246.801 -714.288 0.
582.532 163.376 0.
946.252 1011.26 0.
-861.974 -192.388 0.
745.223 314.768 0.
661.031 117.172 0.
474.812 280.446 0.
241.852 -262.01 0.
382.187 66.7603 0.
-84.3929 -956.017 0.
-45.7448 -865.072 0.
61.9711 -612.83 0.
-242.849 -1165.25 0.
23.7614 -540.948 0.
487.368 542.826 0.
562.261 398.868 0.
377.112 -31.5995 0.
976.64 827.217 0.
739.308 276.325 0.
831.917 495.026 0.
499.483 214.986 0.
570.298 379.143 0.
310.356 -228.706 0.
415.767 155.491 0.
363.411 34.7282 0.
251.555 -225.558 0.
655.476 339.752 0.
509.5 0.102303 0.
1.74068 -580.548 0.
-87.8633 -185.575 0.
-428.634 -975.97 0.
644.522 547.569 0.
236.638 -403.006 0.
427.549 43.604 0.
381.398 -283.066 0.
622.683 277.665 0.
481.745 -53.3641 0.
73.39 -318.945 0.
60.4982 -348.775 0.
385.576 409.929 0.
520.487 -36.3916 0.
219.017 -739.131 0.
144.169 -146.805 0.
253.616 109.424 0.
660.153 1058.23 0.
189.101 572.91 0.
490.488 1278.48 0.
562.206 1448.08 0.
383.976 962.696 0.
19.6725 111.66 0.
450.855 1118.36 0.
-40.0191 -641.764 0.
271.247 83.0513 0.
192.773 -155.097 0.
-214.349 -386.492 0.
-270.945 -519.609 0.
0.471202 -527.992 0.
-92.35 -742.379 0.
-185.171 -956.766 0.
-113.578 -945.595 0.
-17.1391 -722.745 0.
79.3 -499.895 0.
-22.4585 -435.331 0.
16.5542 -342.41 0.
55.5671 -249.49 0.
137.678 -195.366 0.
138.422 -191.627 0.
-40.4324 -285.867 0.
-132.642 -502.076 0.
-224.851 -718.287 0.
9.64064 -711.774 0.
47.549 -624.185 0.
85.4577 -536.596 0.
84.0583 -526.035 0.
62.2983 -576.747 0.
40.5383 -627.458 0.
-281.938 -725.554 0.
-247.396 -646.811 0.
697.06 -177.733 0.
196.526 -504.903 0.
139.201 -638.232 0.
264.774 -674.627 0.
251.772 -707.052 0.
238.769 -739.478 0.
70.1058 -841.37 0.
55.5137 -876.21 0.
40.9215 -911.05 0.
-164.223 -1015.52 0.
-175.214 -1038.4 0.
-186.205 -1061.27 0.
462.792 -820.272 0.
441.785 -869.004 0.
-214.655 -1172.55 0.
-137.603 -993.011 0.
-60.5515 -813.47 0.
28.042 -727.465 0.
-50.7068 -911.595 0.
-129.456 -1095.73 0.
-53.8763 -1094.61 0.
-19.8403 -1017.74 0.
14.1955 -940.872 0.
51.2291 -973.897 0.
9.34442 -1071 0.
-250.199 -1261.86 0.
234.83 -1053.47 0.
235.001 -1053.3 0.
-137.457 -1201.6 0.
-112.767 -1143.03 0.
-88.0775 -1084.45 0.
-182.106 -1077.52 0.
-157.949 -1021.01 0.
-133.791 -964.505 0.
-151.355 -948.707 0.
-145.53 -933.527 0.
-139.706 -918.348 0.
195.544 -629.729 0.
279.429 -432.92 0.
284.82 -319.908 0.
142.255 -651.993 0.
-0.309527 -984.079 0.
-26.1975 -1095.19 0.
97.077 -806.764 0.
220.351 -518.336 0.
206.626 -520.91 0.
113.453 -736.569 0.
20.2801 -952.228 0.
176.441 -871.667 0.
210.318 -791.867 0.
599.479 -559.883 0.
-111.41 -706.126 0.
-29.7174 -513.097 0.
210.926 -358.716 0.
55.5227 -720.905 0.
-99.8804 -1083.09 0.
-218.582 -1144.39 0.
-44.3254 -738.517 0.
129.931 -332.641 0.
124.516 -270.534 0.
91.8032 -347.077 0.
59.0906 -423.619 0.
154.791 -456.894 0.
117.579 -544.132 0.
-114.48 -700.181 0.
-113.184 -696.647 0.
-111.888 -693.113 0.
-24.7814 -650.709 0.
-18.2935 -635.014 0.
-11.8055 -619.318 0.
-227.326 -608.552 0.
-133.273 -388.442 0.
-39.2206 -168.332 0.
133.268 -46.6154 0.
135.088 -41.3899 0.
172.841 -135.815 0.
-79.2902 -296.818 0.
-135.888 -430.217 0.
-90.3206 -535.323 0.
-183.103 -749.723 0.
-275.885 -964.124 0.
71.3756 -834.036 0.
167.829 -611.533 0.
264.283 -389.029 0.
-146.101 -457.724 0.
-107.507 -364.232 0.
-68.9129 -270.741 0.
73.3926 -192.298 0.
73.9043 -188.325 0.
71.27 -207.409 0.
-21.4717 -423.279 0.
-114.213 -639.149 0.
-49.4775 -706.402 0.
-11.6728 -618.863 0.
26.1322 -531.323 0.
255.408 -420.871 0.
233.708 -471.756 0.
212.008 -522.641 0.
-147.697 -636.108 0.
-112.608 -557.802 0.
570.699 -201.137 0.
-57.0349 -581.429 0.
-113.703 -715.128 0.
363.334 -600.665 0.
350.281 -633.012 0.
337.228 -665.36 0.
106.344 -793.403 0.
92.206 -828.639 0.
78.0677 -863.874 0.
-118.515 -963.452 0.
-128.884 -986.975 0.
-139.253 -1010.5 0.
518.047 -765.187 0.
496.752 -813.328 0.
-261.6 -1162.44 0.
-184.696 -982.766 0.
-107.792 -803.097 0.
83.4223 -673.415 0.
4.88348 -857.751 0.
-73.6554 -1042.09 0.
-208.684 -1129.68 0.
-174.496 -1053.31 0.
-140.309 -976.953 0.
15.7935 -956.478 0.
-25.9729 -1053.84 0.
159.886 -1054.38 0.
345.048 -974.855 0.
345.049 -974.508 0.
-92.8485 -1151.57 0.
-68.2105 -1093.06 0.
-43.5726 -1034.55 0.
-220.268 -1062.37 0.
-196.014 -1005.98 0.
-171.761 -949.58 0.
-137.27 -911.839 0.
-131.622 -896.38 0.
-125.975 -880.921 0.
302.685 -552.168 0.
386.365 -355.024 0.
58.3795 -386.319 0.
-83.9926 -718.316 0.
-226.365 -1050.31 0.
33.2933 -1038.77 0.
156.705 -750.412 0.
280.117 -462.052 0.
321.639 -439.679 0.
228.361 -655.293 0.
135.083 -870.907 0.
242.735 -812.193 0.
276.72 -732.349 0.
1187.95 -276.011 0.
149.632 -563.194 0.
231.893 -370.664 0.
171.664 -342.594 0.
16.4751 -705.013 0.
-138.714 -1067.43 0.
-484.411 -1228.26 0.
-310.624 -822.013 0.
-136.838 -415.762 0.
180.073 -214.617 0.
147.576 -291.373 0.
115.078 -368.128 0.
-53.2665 -514.03 0.
-90.1407 -601.298 0.
-128.124 -673.968 0.
-126.629 -670.547 0.
-125.133 -667.125 0.
374.936 -448.391 0.
381.189 -432.533 0.
387.442 -416.675 0.
-134.783 -537.738 0.
-41.0613 -317.484 0.
52.6606 -97.2311 0.
48.7436 -51.1218 0.
49.698 -45.1606 0.
-314.562 -1006.15 0.
-346.331 -956.781 0.
-295.035 -834.545 0.
-254.421 -719.405 0.
-213.963 -627.258 0.
-173.505 -535.11 0.
275.231 -300.054 0.
280.273 -286.674 0.
285.314 -273.293 0.
-218.387 -497.339 0.
-229.236 -525.14 0.
-240.086 -552.942 0.
-108.376 -586.347 0.
-156.465 -699.377 0.
-116.258 -753.205 0.
-65.4132 -634.171 0.
-14.5676 -515.138 0.
29.6228 -449.06 0.
0.154061 -520.074 0.
-29.3145 -591.089 0.
196.997 -464.466 0.
252.37 -336.452 0.
307.742 -208.439 0.
18.8747 -449.9 0.
-78.8361 -674.868 0.
357.894 -670.288 0.
-152.927 -750.837 0.
-79.5697 -581.636 0.
463.51 -291.117 0.
357.389 -536.958 0.
251.269 -782.799 0.
43.6495 -938.452 0.
90.058 -827.693 0.
136.466 -716.934 0.
-17.8006 -800.196 0.
-50.2023 -875.814 0.
-82.6039 -951.432 0.
489.54 -620.709 0.
543.919 -496.768 0.
14.3964 -644.918 0.
-32.2179 -753.989 0.
-78.8321 -863.061 0.
21.7062 -863.191 0.
52.6223 -791.365 0.
83.5385 -719.538 0.
-70.2943 -763.127 0.
-71.8271 -764.579 0.
-73.3599 -766.03 0.
80.8887 -744.822 0.
51.2289 -812.223 0.
1047.23 -439.495 0.
484.684 -726.67 0.
460.848 -783.445 0.
-35.1856 -1013.82 0.
14.1791 -900.161 0.
63.5441 -786.506 0.
-99.6167 -759.894 0.
-47.2902 -638.393 0.
5.03606 -516.893 0.
87.9313 -498.649 0.
49.3317 -592.663 0.
10.7318 -686.677 0.
282.451 -675.622 0.
227.641 -806.239 0.
-227.368 -1069.1 0.
-121.028 -820.298 0.
-14.6876 -571.5 0.
234.026 -354.584 0.
194.539 -445.882 0.
155.052 -537.18 0.
284.289 -534.895 0.
267.597 -575.322 0.
250.906 -615.749 0.
308.728 -617.834 0.
295.258 -648.634 0.
-408.151 -972.051 0.
121.058 -829.936 0.
76.2382 -933.412 0.
-149.081 -1051.4 0.
-44.2528 -806.439 0.
60.5755 -561.476 0.
-335.768 -651.487 0.
-375.526 -747.23 0.
-415.285 -842.973 0.
-13.9512 -634.675 0.
37.2492 -513.651 0.
88.4494 -392.627 0.
-37.4862 -345.279 0.
9.71196 -234.421 0.
195.312 -89.5104 0.
167.028 -155.909 0.
138.744 -222.307 0.
501.454 -103.513 0.
496.327 -115.218 0.
491.198 -126.924 0.
77.4096 -236.981 0.
138.011 -97.1818 0.
198.612 42.6179 0.
-59.4211 59.2561 0.
14.3399 229.094 0.
-699.777 -1142.31 0.
-414.074 -954.585 0.
-362.347 -832.897 0.
-337.094 -723.114 0.
-296.639 -631.126 0.
-256.184 -539.137 0.
72.4268 -353.602 0.
77.9578 -341.061 0.
83.4882 -328.521 0.
-209.823 -462.803 0.
-220.739 -490.705 0.
-231.654 -518.606 0.
-31.7067 -522.003 0.
-79.2068 -635.401 0.
-80.2748 -706.168 0.
-29.8327 -586.987 0.
20.6096 -467.806 0.
42.3108 -412.807 0.
12.3843 -483.378 0.
-17.5419 -553.949 0.
-33.761 -533.29 0.
21.4855 -405.375 0.
76.732 -277.461 0.
129.209 -370.912 0.
31.4418 -595.959 0.
143.584 -730.23 0.
79.5313 -619.345 0.
152.812 -449.889 0.
312.399 -324.036 0.
206.878 -570.217 0.
101.356 -816.398 0.
41.6451 -908.048 0.
88.2926 -797.641 0.
134.94 -687.233 0.
43.0546 -741.636 0.
10.6829 -817.279 0.
-21.6889 -892.923 0.
247.516 -694.764 0.
301.584 -570.092 0.
223.33 -523.828 0.
177.498 -633.368 0.
131.666 -742.909 0.
45.3397 -821.518 0.
76.5284 -750.161 0.
107.717 -678.804 0.
67.1363 -672.009 0.
66.1476 -674.212 0.
65.1589 -676.416 0.
78.2972 -714.303 0.
48.6044 -781.642 0.
74.2651 -825.164 0.
490.905 -693.028 0.
467.064 -749.601 0.
-50.3644 -989.034 0.
-1.48555 -874.91 0.
47.3934 -760.786 0.
-52.5175 -708.796 0.
-0.324777 -587.312 0.
51.8677 -465.827 0.
220.023 -411.87 0.
180.981 -505.483 0.
141.94 -599.095 0.
296.424 -638.009 0.
241.374 -768.463 0.
40.4679 -924.542 0.
146.549 -675.382 0.
252.631 -426.221 0.
-22.4389 -433.183 0.
-61.756 -524.41 0.
-101.073 -615.637 0.
212.483 -534.874 0.
195.789 -575.159 0.
179.096 -615.445 0.
236.242 -617.344 0.
222.635 -648.225 0.
-562.416 -1007.26 0.
113.788 -802.194 0.
69.0983 -905.803 0.
-122.095 -1007.94 0.
-17.5804 -762.46 0.
86.9342 -516.979 0.
-279.278 -596.056 0.
-319.206 -691.527 0.
-359.135 -786.998 0.
-64.8889 -625.424 0.
-14.078 -504.189 0.
36.7326 -382.955 0.
56.2628 -274.861 0.
103.316 -164.057 0.
424.415 40.6285 0.
396.371 -26.1021 0.
368.327 -92.8328 0.
92.1805 -247.485 0.
86.5929 -258.632 0.
81.0046 -269.779 0.
218.623 -146.347 0.
279.379 -6.48423 0.
340.135 133.379 0.
-316.041 -19.0165 0.
-242.199 151.168 0.
349.105 654.715 0.
89.5625 382.688 0.
-370.54 -690.375 0.
-211.263 -254.031 0.
-82.1473 48.0147 0.
-263.176 -373.517 0.
-188.016 -551.294 0.
-144.654 -450.665 0.
477.101 999.519 0.
384.739 944.976 0.
20.5266 95.6767 0.
-205.106 -430.523 0.
229.588 -41.9926 0.
146.115 -238.152 0.
346.816 260.656 0.
485.665 586.056 0.
154.673 -184.577 0.
4.6384 -496.841 0.
436.568 511.847 0.
154.588 -144.939 0.
-349.692 -810.216 0.
-61.0272 -137.943 0.
80.4632 190.767 0.
-7.05952 -868.093 0.
193.183 -399.152 0.
1128.04 -327.691 0.
683.973 386.661 0.
377.504 -327.259 0.
248.975 -160.077 0.
371.629 125.743 0.
237.471 -187.4 0.
255.196 -373.149 0.
239.275 -410.495 0.
432.792 40.9808 0.
426.193 62.5163 0.
295.813 -241.092 0.
310.718 -205.537 0.
469.689 308.269 0.
435.267 226.658 0.
756.314 348.164 0.
510.574 -226.116 0.
455.449 -355.711 0.
329.861 -177.054 0.
451.842 107.244 0.
292.294 -265.277 0.
526.561 174.23 0.
555.883 243.412 0.
718.625 623.863 0.
665.933 684.637 0.
593.903 518.37 0.
-1467.75 -1181.09 0.
748.898 -60.9934 0.
895.12 279.018 0.
412.939 161.034 0.
477.753 312.134 0.
539.99 456.937 0.
107.057 -398.122 0.
-39.1528 -738.662 0.
232.179 -104.832 0.
732.438 562.537 0.
586.981 223.189 0.
340.377 -352.058 0.
350.856 -515.104 0.
602.951 72.5189 0.
418.332 -515.926 0.
533.589 -246.386 0.
711.91 170.094 0.
-157.978 -234.931 0.
-76.9906 -46.0907 0.
-119.759 -145.82 0.
142.027 -527.946 0.
507.925 325.302 0.
608.126 557.954 0.
559.467 302.143 0.
567.729 320.427 0.
-233.961 -934.598 0.
554.969 272.191 0.
446.861 20.8414 0.
180.593 -321.632 0.
528.209 488.645 0.
503.759 430.739 0.
70.7786 144.363 0.
-18.9461 -63.1032 0.
302.343 689.173 0.
424.834 637.573 0.
234.539 194.834 0.
190.462 93.3228 0.
588.146 818.55 0.
732.568 1159.21 0.
152.586 -993.729 0.
975.507 926.883 0.
799.655 516.324 0.
-62.1123 195.004 0.
-199.656 -126.435 0.
-103.158 97.6522 0.
497.224 270.22 0.
829.984 1048.98 0.
626.445 575.532 0.
-195.171 763.585 0.
-952.69 -1006.11 0.
-54.1531 -182.764 0.
-130.557 -235.397 0.
-161.45 -306.954 0.
-122.189 -345.562 0.
-121.601 -345.206 0.
-121.015 -344.849 0.
-92.6283 -351.485 0.
-117.97 -408.417 0.
-143.312 -465.349 0.
-238.177 -539.303 0.
-249.153 -564.73 0.
-260.129 -590.157 0.
189.342 -468.087 0.
148.861 -563.807 0.
-294.668 -812.895 0.
-219.613 -639.836 0.
-144.558 -466.776 0.
20.5285 -319.213 0.
-11.063 -391.828 0.
-42.6543 -464.443 0.
-78.4301 -581.509 0.
-153.681 -757.511 0.
-228.933 -933.512 0.
-49.4552 -694.984 0.
86.3119 -378.936 0.
1006.42 272.835 0.
332.25 -252.739 0.
207.476 -542.742 0.
10.0046 -812.438 0.
-6.73772 -850.223 0.
-23.48 -888.007 0.
-35.238 -868.146 0.
22.4683 -734.819 0.
80.1742 -601.493 0.
198.223 -540.608 0.
173.149 -600.224 0.
148.076 -659.84 0.
139.864 -638.352 0.
161.292 -589.989 0.
288.685 -499.713 0.
296.225 -479.728 0.
303.766 -459.743 0.
355.068 -430.696 0.
350.141 -441.555 0.
345.213 -452.413 0.
218.253 -507.733 0.
220.639 -502.148 0.
223.026 -496.564 0.
188.984 -573.235 0.
148.512 -670.616 0.
1055.46 -363.029 0.
383.408 -503.844 0.
460.77 -323.281 0.
78.6942 -396.009 0.
22.1516 -528.098 0.
-34.3909 -660.187 0.
-72.5722 -788.703 0.
-132.581 -928.331 0.
-192.589 -1067.96 0.
186.873 -981.932 0.
159.237 -1047.61 0.
131.6 -1113.29 0.
287.747 -852.584 0.
404.109 -581.368 0.
406.785 -386.752 0.
380.661 -449.446 0.
354.538 -512.14 0.
-192.843 -787.811 0.
-200.435 -805.395 0.
-208.027 -822.978 0.
-114.127 -783.894 0.
-113.451 -778.43 0.
-112.775 -772.966 0.
11.0473 -649.723 0.
55.7116 -545.24 0.
221.377 -389.808 0.
31.9115 -495.867 0.
18.8847 -525.136 0.
248.316 -434.019 0.
276.75 -369.896 0.
305.184 -305.772 0.
-68.7447 -463.44 0.
-96.1867 -527.125 0.
-123.628 -590.81 0.
-35.5592 -481.854 0.
31.5808 -328.511 0.
98.7208 -175.167 0.
248.267 -150.517 0.
219.746 -215.325 0.
165.309 -281.757 0.
156.402 -300.055 0.
147.495 -318.354 0.
-183.992 -437.759 0.
-129.177 -311.443 0.
-74.3622 -185.126 0.
237.008 -10.9788 0.
234.638 -16.7079 0.
232.268 -22.4374 0.
-409.103 -447.068 0.
-506.839 -678.079 0.
-40.2163 -148.403 0.
-59.4872 -174.98 0.
-90.4652 -246.51 0.
53.502 -238.053 0.
54.6156 -238.206 0.
55.7287 -238.357 0.
-66.0601 -307.946 0.
-91.1744 -365.025 0.
-116.289 -422.105 0.
-205.225 -493.728 0.
-216.169 -519.082 0.
-227.113 -544.437 0.
382.838 -353.922 0.
342.716 -450.041 0.
-498.807 -868.058 0.
-423.735 -695.187 0.
-348.663 -522.315 0.
-34.4938 -310.927 0.
-66.1876 -383.589 0.
-97.8812 -456.251 0.
147.366 -453.538 0.
72.2892 -629.715 0.
-2.78752 -805.892 0.
-174.558 -717.509 0.
-38.8987 -401.096 0.
-135.744 -185.369 0.
250.462 -256.448 0.
125.925 -546.565 0.
77.1755 -752.582 0.
60.4456 -790.395 0.
43.7157 -828.208 0.
-118.24 -872.272 0.
-60.425 -738.829 0.
-2.60995 -605.387 0.
254.065 -485.374 0.
228.961 -545.101 0.
203.856 -604.829 0.
250.588 -560.24 0.
272.129 -511.953 0.
174.622 -515.912 0.
182.69 -496.455 0.
190.759 -476.998 0.
534.674 -322.203 0.
530.175 -333.485 0.
525.677 -344.768 0.
212.014 -478.519 0.
214.92 -473.592 0.
217.826 -468.665 0.
283.044 -501.628 0.
242.805 -599.13 0.
-1430.95 -1395.98 0.
184.256 -556.8 0.
261.891 -376.608 0.
-22.1199 -408.283 0.
-78.5954 -540.626 0.
-135.071 -672.969 0.
-69.4661 -755.858 0.
-129.137 -895.653 0.
-188.807 -1035.45 0.
345.603 -882.358 0.
318.117 -948.053 0.
290.631 -1013.75 0.
403.229 -771.08 0.
519.834 -500.005 0.
341.307 -383.791 0.
314.898 -446.372 0.
288.489 -508.953 0.
73.0669 -642.739 0.
65.3248 -660.14 0.
57.5827 -677.541 0.
-279.6 -824.07 0.
-279.438 -818.438 0.
-279.276 -812.805 0.
-146.857 -687.438 0.
-102.605 -582.582 0.
358.915 -299.614 0.
-189.695 -558.344 0.
-202.888 -587.245 0.
405.72 -337.335 0.
434.109 -272.807 0.
462.497 -208.278 0.
95.9317 -361.515 0.
69.0703 -425.499 0.
42.2095 -489.482 0.
4.59705 -433.951 0.
71.9195 -280.783 0.
139.242 -127.614 0.
361.079 -69.9516 0.
332.964 -135.156 0.
-182.259 -397.67 0.
-190.843 -416.254 0.
-199.427 -434.839 0.
15.9453 -321.856 0.
70.581 -195.268 0.
125.217 -68.6792 0.
83.9785 -44.4187 0.
81.8646 -50.5127 0.
79.7509 -56.6071 0.
-20.559 -250.977 0.
-117.68 -482.302 0.
126.188 -16.1864 0.
-8.76722 -78.3533 0.
6.82355 -43.7677 0.
190.681 30.9576 0.
128.08 -114.179 0.
65.4801 -259.315 0.
-66.3533 -362.932 0.
-42.4927 -309.543 0.
-18.6318 -256.155 0.
-72.8911 -198.734 0.
-19.7738 -75.0388 0.
33.3435 48.6571 0.
614.877 233.895 0.
569.383 127.911 0.
-244.808 -312.834 0.
-318.096 -485.032 0.
-391.384 -657.23 0.
-147.191 -656.362 0.
-156.354 -678.921 0.
-165.518 -701.481 0.
132.788 -558.386 0.
160.127 -495.848 0.
187.467 -433.309 0.
-128.401 -510.808 0.
-97.4752 -441.014 0.
-242.725 -445.207 0.
139.78 -399.05 0.
77.8485 -540.929 0.
85.2741 -584.389 0.
189.961 -341.488 0.
294.649 -98.5877 0.
178.463 -171.379 0.
19.781 -541.617 0.
-138.901 -911.855 0.
110.596 -801.796 0.
196.779 -600.585 0.
282.962 -399.375 0.
424.383 -339.898 0.
412.025 -369.839 0.
167.289 -512.685 0.
83.261 -709.964 0.
-0.766726 -907.242 0.
285.2 -831.953 0.
382.597 -604.651 0.
479.994 -377.349 0.
282.066 -421.31 0.
242.414 -512.663 0.
202.762 -604.017 0.
257.967 -467.835 0.
348.59 -256.759 0.
-1230.56 -761.201 0.
241.066 -308.544 0.
147.25 -526.777 0.
-227.466 -838.55 0.
-262.93 -923.356 0.
-298.395 -1008.16 0.
-118.265 -936.025 0.
-79.6231 -846.818 0.
-40.9808 -757.612 0.
523.097 -486.552 0.
526.891 -476.711 0.
530.685 -466.871 0.
515.901 -562.134 0.
463.761 -681.754 0.
59.1086 -938.039 0.
90.8924 -861.725 0.
122.676 -785.411 0.
65.9959 -790.628 0.
31.3438 -871.636 0.
-3.30819 -952.645 0.
-371.118 -1003.73 0.
-248.486 -722.795 0.
-125.854 -441.863 0.
-87.2114 -441.786 0.
-129.374 -541.562 0.
398.445 -397.173 0.
-232.69 -554.618 0.
-171.572 -414.374 0.
535.645 -47.4373 0.
475.06 -187.987 0.
414.475 -328.538 0.
71.3023 -518.486 0.
91.892 -469.976 0.
112.482 -421.466 0.
-13.8917 -458.13 0.
-10.724 -447.007 0.
-7.55572 -435.885 0.
350.958 -85.3707 0.
463.32 177.345 0.
-108.761 95.4388 0.
-212.771 -148.495 0.
-316.781 -392.429 0.
-18.6343 -399.037 0.
-29.5437 -424.433 0.
-40.4531 -449.83 0.
-62.4645 -415.55 0.
-13.8549 -301.313 0.
34.755 -187.076 0.
117.916 -53.8211 0.
169.19 68.9099 0.
64.2032 -11.9416 0.
-27.4897 -54.9127 0.
-11.7822 -20.4976 0.
102.294 25.0699 0.
39.9907 -120.3 0.
-22.3128 -265.67 0.
-1.43373 -303.421 0.
22.3098 -249.888 0.
46.0536 -196.354 0.
-58.2498 -161.243 0.
-4.90837 -37.7519 0.
48.4331 85.7393 0.
410.752 177.85 0.
365.264 71.8329 0.
15.8604 -169.932 0.
-57.5916 -342.051 0.
-131.044 -514.17 0.
35.2756 -546.727 0.
26.0483 -569.357 0.
16.8213 -591.987 0.
24.6356 -571.882 0.
52.0112 -509.396 0.
79.3869 -446.91 0.
-72.2019 -455.851 0.
-41.2375 -386.095 0.
-336.612 -454.515 0.
135.941 -369.483 0.
74.3837 -511.532 0.
-101.736 -631.331 0.
3.26832 -388.773 0.
108.273 -146.215 0.
287.001 -94.094 0.
128.106 -464.372 0.
-30.7893 -834.651 0.
64.64 -790.161 0.
150.922 -589.248 0.
237.204 -388.334 0.
539.388 -258.743 0.
526.959 -288.561 0.
294.357 -427.353 0.
210.124 -624.428 0.
125.891 -821.502 0.
59.5254 -897.924 0.
157.097 -670.798 0.
254.668 -443.673 0.
423.023 -328.907 0.
383.563 -420.555 0.
344.102 -512.203 0.
111.834 -499.513 0.
202.266 -288.233 0.
-428.279 -385.855 0.
326.519 -240.094 0.
232.404 -458.38 0.
-140.343 -771.342 0.
-176.397 -855.863 0.
-212.451 -940.384 0.
-24.1923 -864.012 0.
14.5483 -774.772 0.
53.289 -685.531 0.
415.366 -500.522 0.
419.74 -490.976 0.
424.115 -481.431 0.
499.287 -538.18 0.
447.8 -658.288 0.
40.5581 -912.712 0.
72.5428 -836.59 0.
104.527 -760.468 0.
-25.3721 -798.397 0.
-60.5145 -878.972 0.
-95.6567 -959.547 0.
-201.895 -900.159 0.
-79.8042 -618.833 0.
42.2866 -337.505 0.
-3.13719 -375.446 0.
-45.4531 -475.09 0.
286.331 -414.095 0.
-92.8986 -463.065 0.
-31.9348 -322.778 0.
428.265 -62.5417 0.
367.862 -203.156 0.
307.459 -343.77 0.
37.8491 -500.597 0.
59.0306 -452.38 0.
80.2124 -404.162 0.
-48.3257 -442.291 0.
-44.8148 -431.124 0.
-41.3033 -419.957 0.
263.79 -90.4548 0.
375.907 172.645 0.
-62.0371 146.982 0.
-166.041 -96.79 0.
-270.045 -340.562 0.
-177.814 -437.238 0.
-188.774 -462.667 0.
-199.734 -488.096 0.
133.413 -300.132 0.
182.407 -186.265 0.
231.402 -72.3986 0.
-85.2655 -110.162 0.
-32.4556 11.185 0.
618.013 712.47 0.
-57.9745 -56.4049 0.
141.824 408.586 0.
-45.6404 -125.036 0.
-205.507 -495.659 0.
-303.851 -723.044 0.
93.7792 -173.127 0.
338.074 398.602 0.
114.086 -122.364 0.
26.7969 37.2043 0.
-44.9014 -132.384 0.
47.3503 80.8408 0.
171.918 39.6011 0.
112.155 -98.8022 0.
683.137 925.58 0.
722.876 1017.55 0.
216.862 -163.495 0.
433.088 70.3722 0.
351.844 -120.375 0.
558.329 359.589 0.
203.69 83.9941 0.
167.419 -2.39927 0.
671.932 1173.01 0.
389.131 542.76 0.
223.097 153.975 0.
648.904 917.452 0.
503.957 526.033 0.
336.218 135.003 0.
-215.414 -516.745 0.
-247.169 -591.044 0.
-237.372 -568.034 0.
295.418 -248.627 0.
596.648 454.796 0.
484.244 193.644 0.
403.151 112.205 0.
310.556 -102.966 0.
-173.077 -1230.04 0.
621.436 -257.161 0.
485.298 -572.632 0.
194.828 -866.036 0.
522.227 -102.804 0.
885.516 744.276 0.
493.769 576.216 0.
160.531 -201.807 0.
-1.3465 -579.804 0.
551.115 -263.805 0.
787.85 288.378 0.
380.955 -661.189 0.
-87.7095 -660.716 0.
-64.869 -606.437 0.
-298.531 -782.884 0.
551.853 163.545 0.
661.03 419.164 0.
256.416 15.2502 0.
197.24 -121.837 0.
35.0547 -498.703 0.
105.077 -708.942 0.
251.386 -369.095 0.
398.199 -28.0389 0.
374.543 -358.8 0.
296.808 -542.203 0.
537.675 17.5539 0.
368.105 -782.919 0.
551.563 -355.175 0.
322.75 -182.655 0.
303.397 -228.211 0.
416.069 34.4162 0.
265.32 86.3025 0.
124.191 -242.567 0.
-46.3836 -640.044 0.
59.9295 -577.35 0.
185.403 -287.296 0.
505.466 457.337 0.
398.884 428.219 0.
267.465 124.149 0.
557.933 -622.917 0.
214.406 20.2174 0.
-35.9168 -565.311 0.
94.3657 -601.846 0.
136.857 -503.096 0.
482.496 303.048 0.
516.347 709.708 0.
707.98 1156.42 0.
254.709 98.267 0.
-31.5591 -308.733 0.
209.096 253.444 0.
29.5484 -164.888 0.
467.588 586.382 0.
331.509 269.956 0.
-102.08 -0.459414 0.
30.5646 308.306 0.
-58.7115 99.1196 0.
-424.761 -693.022 0.
-4.44153 288.533 0.
214.237 799.536 0.
694.395 678.859 0.
300.648 -240.116 0.
812.03 952.712 0.
-271.464 -140.627 0.
-147.033 152.784 0.
-556.048 -625.267 0.
-197.194 -352.56 0.
-152.681 -246.782 0.
-22.5695 -112.944 0.
-3.28544 -66.9928 0.
15.9985 -21.0414 0.
56.6304 -27.8592 0.
1.72564 -155.408 0.
-53.1792 -282.957 0.
-43.0865 -344.013 0.
-68.5028 -402.855 0.
-93.919 -461.696 0.
-56.9056 -450.415 0.
-56.2132 -447.791 0.
116.913 -375.869 0.
105.874 -403.093 0.
94.8347 -430.317 0.
85.8013 -422.022 0.
128.95 -321.258 0.
172.098 -220.494 0.
1.20539 -262.46 0.
-4.91254 -276.586 0.
-11.0305 -290.713 0.
287.597 -192.764 0.
273.195 -227.279 0.
1042.43 75.5088 0.
215.347 -57.644 0.
328.322 205.791 0.
249.974 276.205 0.
106.198 -57.4886 0.
-37.5777 -391.182 0.
146.657 -456.142 0.
154.002 -439.622 0.
161.348 -423.102 0.
174.028 -416.835 0.
169.992 -424.879 0.
165.955 -432.923 0.
426.25 -337.666 0.
417.508 -356.046 0.
448.94 -355.837 0.
454.684 -339.794 0.
460.427 -323.751 0.
35.7124 -509.848 0.
13.4283 -562.215 0.
-8.85577 -614.583 0.
496.133 -403.089 0.
511.142 -368.886 0.
526.151 -334.683 0.
-123.557 -550.527 0.
-86.3614 -464.194 0.
-939.688 -759.627 0.
512.56 -238.305 0.
460.474 -361.592 0.
-114.024 -670.685 0.
-73.723 -576.794 0.
-33.4216 -482.904 0.
232.502 -354.723 0.
200.682 -428.696 0.
168.863 -502.669 0.
336.046 -416.476 0.
362.75 -352.156 0.
389.454 -287.836 0.
516.797 -286.779 0.
483.006 -366.351 0.
47.226 -595.227 0.
116.499 -436.93 0.
185.772 -278.632 0.
171.38 -229.78 0.
124.557 -338.884 0.
77.7335 -447.988 0.
93.3319 -495.54 0.
84.7562 -517.884 0.
76.1806 -540.228 0.
155.313 -461.741 0.
186.849 -388.4 0.
314.787 -274.828 0.
-39.5689 -457.846 0.
-55.6558 -496.789 0.
24.9966 -444.297 0.
122.32 -216.442 0.
219.643 11.4119 0.
287.312 80.1528 0.
221.11 -71.1465 0.
154.909 -222.445 0.
148.691 -151.548 0.
232.032 43.1129 0.
315.374 237.774 0.
127.461 -4.43496 0.
24.4673 -245.434 0.
-346.16 -558.014 0.
-266.516 -372.166 0.
-186.871 -186.319 0.
-72.7857 -18.2738 0.
-48.8203 38.5359 0.
-24.8551 95.3456 0.
295.536 157.107 0.
207.227 -48.2634 0.
118.917 -253.633 0.
-251.054 -541.674 0.
-315.654 -687.035 0.
-140.95 -417.628 0.
-198.005 -320.707 0.
-153.486 -215.009 0.
15.7507 -65.2293 0.
35.0496 -19.3998 0.
54.3485 26.4298 0.
-46.2984 -40.6635 0.
-101.116 -168.42 0.
-155.933 -296.177 0.
88.0245 -255.87 0.
62.6002 -314.994 0.
37.176 -374.118 0.
-65.9034 -422.562 0.
-65.349 -419.884 0.
125.411 -340.608 0.
114.612 -368.327 0.
103.814 -396.046 0.
-64.2022 -454.03 0.
-21.2084 -353.196 0.
21.7855 -252.361 0.
-49.8204 -252.733 0.
-55.5082 -267.223 0.
-61.1961 -281.713 0.
565.612 -42.1978 0.
551.704 -76.8111 0.
650.492 -61.7712 0.
181.947 -40.9302 0.
295.127 222.541 0.
421.74 382.388 0.
278.011 48.5432 0.
134.281 -285.301 0.
88.1187 -449.692 0.
95.6986 -433.381 0.
103.279 -417.07 0.
187.79 -380.588 0.
183.558 -388.514 0.
179.326 -396.44 0.
248.312 -381.373 0.
239.519 -399.718 0.
505.496 -300.942 0.
510.965 -284.73 0.
516.434 -268.518 0.
60.6318 -467.495 0.
38.3184 -519.748 0.
16.005 -572.002 0.
520.786 -360.878 0.
535.573 -326.384 0.
550.361 -291.891 0.
-209.004 -556.397 0.
-172.043 -469.915 0.
-491.053 -535.851 0.
695.371 -128.665 0.
643.245 -252.298 0.
-192.755 -672.549 0.
-152.099 -579.221 0.
-111.442 -485.894 0.
222.613 -327.455 0.
191.027 -401.766 0.
159.441 -476.077 0.
331.844 -386.044 0.
359.017 -321.906 0.
386.189 -257.767 0.
453.476 -282.79 0.
420.173 -362.783 0.
-52.9074 -604.86 0.
16.3989 -446.778 0.
85.7055 -288.696 0.
242.084 -167.816 0.
195.151 -276.92 0.
148.217 -386.024 0.
106.239 -458.411 0.
97.6062 -480.712 0.
88.9737 -503.013 0.
339.485 -352.215 0.
371.054 -278.61 0.
-777.908 -712.527 0.
-82.9364 -445.226 0.
-98.7923 -484.294 0.
-128.212 -477.637 0.
-30.4057 -250.117 0.
67.4003 -22.5976 0.
352.826 141.471 0.
286.638 -9.8103 0.
220.45 -161.091 0.
303.751 -54.513 0.
386.906 140.699 0.
470.06 335.912 0.
39.9244 -10.4274 0.
-62.7738 -251.494 0.
-340.763 -524.762 0.
-261.021 -339.051 0.
-181.278 -153.341 0.
20.816 53.7949 0.
44.4825 110.717 0.
68.1488 167.638 0.
98.5862 104.013 0.
10.104 -101.106 0.
-78.3782 -306.224 0.
-0.395082 -403.993 0.
-65.4455 -549.166 0.
785.34 231.969 0.
-165.496 -307.701 0.
-205.343 -402.765 0.
-101.4 -408.152 0.
-67.281 -326.716 0.
-33.1623 -245.279 0.
-96.3825 -216.903 0.
-76.736 -168.856 0.
-57.0895 -120.809 0.
122.453 -41.6747 0.
113.063 -63.4634 0.
103.672 -85.2522 0.
94.1317 -161.063 0.
51.8308 -259.628 0.
116.18 -302.296 0.
119.176 -294.027 0.
122.171 -285.758 0.
-55.1427 -332.874 0.
-11.9985 -233.386 0.
31.1457 -133.897 0.
17.4821 -125.572 0.
-2.81188 -174.9 0.
-23.1061 -224.227 0.
510.937 -109.322 0.
438.016 -276.591 0.
719.232 -292.479 0.
-89.7744 -584.159 0.
-60.7049 -512.62 0.
195.959 -334.64 0.
232.105 -250.207 0.
268.252 -165.775 0.
230.877 -159.175 0.
216.401 -191.585 0.
201.926 -223.994 0.
185.049 -291.37 0.
145.287 -385.586 0.
105.525 -479.802 0.
168.277 -561.368 0.
111.479 -698.987 0.
237.228 -732.67 0.
313.54 -559.128 0.
389.854 -385.585 0.
132.591 -456.451 0.
42.831 -665.371 0.
-46.9293 -874.29 0.
289.563 -761.467 0.
331.145 -663.661 0.
372.727 -565.856 0.
-266.874 -757.313 0.
-223.375 -655.193 0.
365.704 -320.555 0.
609.736 -249.71 0.
591.956 -291.057 0.
-153.806 -630.241 0.
-133.277 -583.032 0.
-112.749 -535.822 0.
198.83 -385.983 0.
195.51 -395.112 0.
192.19 -404.239 0.
303.931 -339.13 0.
318.288 -306.965 0.
332.644 -274.8 0.
474.006 -89.6407 0.
544.152 76.9035 0.
192.708 22.3349 0.
86.1195 -223.503 0.
-20.4683 -469.34 0.
96.6431 -548.677 0.
108.194 -523.145 0.
119.746 -497.613 0.
62.4088 -448.852 0.
118.947 -315.574 0.
175.485 -182.296 0.
509.837 34.0492 0.
546.005 121.915 0.
184.357 46.3367 0.
111.665 -10.8303 0.
98.0445 -41.7037 0.
-14.1859 -144.568 0.
-89.9262 -319.839 0.
-165.666 -495.109 0.
156.608 -381.222 0.
215.611 -242.308 0.
274.613 -103.394 0.
335.844 -22.0992 0.
346.611 4.31812 0.
357.378 30.7355 0.
-60.4458 -158.267 0.
-67.1513 -172.359 0.
-210.426 -253.028 0.
-245.489 -331.661 0.
-280.552 -410.293 0.
-83.6079 -388.236 0.
-111.95 -455 0.
-140.292 -521.763 0.
-224.741 -492.739 0.
-143.001 -302.461 0.
-61.2613 -112.183 0.
286.032 -6.57431 0.
235.646 -128.519 0.
-439.736 -262.586 0.
-69.3067 -235.817 0.
-109.238 -330.406 0.
-34.9184 -347.358 0.
-0.668687 -266.195 0.
33.5807 -185.032 0.
92.3885 -104.166 0.
112.086 -56.339 0.
131.783 -8.51133 0.
-108.45 -109.628 0.
-117.897 -131.299 0.
-127.345 -152.969 0.
251.436 -62.2855 0.
209.087 -160.868 0.
75.1524 -289.777 0.
77.976 -281.366 0.
80.7996 -272.956 0.
14.6285 -271.369 0.
57.7362 -171.719 0.
100.844 -72.0696 0.
129.419 -46.8271 0.
109.125 -96.0941 0.
88.83 -145.361 0.
204.989 -210.098 0.
132.302 -377.19 0.
279.764 -449.754 0.
-114.318 -561.914 0.
-84.7865 -490.71 0.
260.641 -276.745 0.
296.39 -191.958 0.
332.139 -107.172 0.
363.586 -71.2685 0.
349.155 -103.71 0.
334.724 -136.151 0.
106.72 -293.748 0.
66.8737 -387.878 0.
27.0273 -482.008 0.
374.267 -441.576 0.
317.356 -579.426 0.
30.8054 -789.149 0.
106.785 -615.351 0.
182.765 -441.553 0.
305.724 -350.806 0.
215.682 -559.502 0.
125.64 -768.198 0.
146.021 -792.368 0.
187.814 -694.756 0.
229.607 -597.144 0.
-86.2735 -648.167 0.
-42.6685 -546.299 0.
-1641.36 -1148.87 0.
376.523 -318.038 0.
359.066 -359.521 0.
6.15413 -528.837 0.
27.0007 -481.901 0.
47.8473 -434.966 0.
244.027 -335.081 0.
240.459 -343.998 0.
236.891 -352.914 0.
233.603 -337.445 0.
247.744 -305.073 0.
261.885 -272.702 0.
420.32 -82.0527 0.
490.301 84.4352 0.
260.852 83.7099 0.
154.41 -162.74 0.
47.967 -409.189 0.
111.73 -510.16 0.
123.408 -484.866 0.
135.087 -459.571 0.
-35.1209 -459.85 0.
21.8999 -326.94 0.
78.9208 -194.03 0.
375.399 9.14183 0.
411.906 96.889 0.
534.865 227.211 0.
202.04 58.6143 0.
188.308 28.1025 0.
98.2962 -65.2344 0.
22.408 -240.249 0.
-53.4799 -415.264 0.
190.938 -335.834 0.
250.059 -196.971 0.
309.18 -58.1068 0.
259.496 -24.1016 0.
270.086 2.28662 0.
280.677 28.6748 0.
-38.585 -117.429 0.
-45.0456 -131.804 0.
-155.243 -197.116 0.
-190.176 -275.914 0.
-225.108 -354.712 0.
67.903 -292.041 0.
39.5041 -358.67 0.
11.1048 -425.298 0.
-169.13 -437.227 0.
-87.7264 -246.544 0.
-6.32345 -55.8616 0.
349.549 51.0754 0.
298.022 -69.5983 0.
813.509 789.59 0.
0.85668 -211.843 0.
8.67365 -192.817 0.
-98.8618 -581.504 0.
49.4944 -233.572 0.
433.474 662.757 0.
281.289 4.47463 0.
327.294 111.295 0.
221.666 -135.14 0.
-256.145 2.59602 0.
-189.721 155.957 0.
-364.059 -252.331 0.
312.255 -186.135 0.
126.159 -617.815 0.
117.23 -83.5951 0.
354.053 471.594 0.
80.9335 -162.954 0.
-218.042 -912.982 0.
556.412 890.677 0.
414.015 555.643 0.
276.112 109.217 0.
-82.796 -729.357 0.
131.687 -230.92 0.
14.7369 -44.2933 0.
-27.5614 -142.335 0.
-591.365 -1084.26 0.
37.7983 -137.217 0.
11.8797 -198.859 0.
367.427 -118.108 0.
606.071 439.557 0.
606.589 441.821 0.
703.08 505.852 0.
611.845 290.781 0.
381.323 -249.299 0.
-121.151 -651.098 0.
97.2774 -139.507 0.
276.225 279.959 0.
848.674 305.978 0.
774.092 130.848 0.
-92.5269 -656.478 0.
-66.6366 -596.06 0.
1.05815 -438.063 0.
477.341 -244.297 0.
486.792 -219.651 0.
707.472 297.894 0.
615.547 608.127 0.
404.302 114.667 0.
273.832 -190.313 0.
291.307 -87.3145 0.
255.574 -170.522 0.
-530.116 -755.472 0.
200.105 -240.254 0.
328.328 58.527 0.
359.734 25.3246 0.
289.873 -139.108 0.
433.62 194.755 0.
589.02 412.549 0.
414.375 6.16303 0.
163.623 -577.743 0.
46.0532 -611.591 0.
172.381 -316.78 0.
249.384 -137.07 0.
586.432 444.272 0.
438.611 97.8906 0.
65.4095 -468.554 0.
90.4722 -410.151 0.
148.006 -275.858 0.
352.886 54.0349 0.
153.692 -412.265 0.
97.5163 -544.667 0.
-176.514 -579.725 0.
-82.8179 -361.523 0.
-108.658 -422.4 0.
308.727 142.638 0.
231.322 -38.3153 0.
542.039 73.2694 0.
114.627 -294.316 0.
-13.153 -590.079 0.
208.852 21.5771 0.
444.403 569.655 0.
221.449 48.01 0.
320.64 -71.9998 0.
172.915 -414.281 0.
232.188 -273.908 0.
309.957 275.21 0.
408.725 504.083 0.
301.307 251.438 0.
39.4013 52.1987 0.
-48.1779 -152.305 0.
-291.324 -586.443 0.
-118.424 -184.09 0.
239.195 649.566 0.
352.705 124.364 0.
315.329 35.7483 0.
565.722 618.451 0.
431.368 895.706 0.
131.004 195.883 0.
285.167 555.038 0.
456.593 216.206 0.
551.109 432.192 0.
84.9413 35.4286 0.
15.1429 -110.935 0.
-65.8487 -298.463 0.
-49.3984 -413.241 0.
-52.0382 -419.235 0.
-54.6777 -425.23 0.
120.718 -262.889 0.
226.28 -18.5185 0.
331.843 225.853 0.
-2.60801 123.766 0.
-23.1162 75.1897 0.
-43.625 26.6131 0.
302.006 169.449 0.
302.812 172.152 0.
4.1888 40.4379 0.
-45.3766 -75.5366 0.
-94.942 -191.511 0.
284.906 -94.2551 0.
288.621 -87.7483 0.
292.335 -81.2418 0.
265.06 -154.598 0.
201.053 -301.479 0.
137.047 -448.359 0.
-200.365 -460.865 0.
-90.4139 -205.697 0.
323.208 179.142 0.
75.9543 -198.066 0.
-66.4539 -532.509 0.
50.7309 -675.913 0.
107.254 -546.698 0.
163.778 -417.482 0.
180.994 -413.414 0.
106.497 -591.711 0.
32 -770.009 0.
-26.2706 -757.62 0.
44.5053 -593.764 0.
115.281 -429.908 0.
327.025 -453.593 0.
250.223 -631.365 0.
-44.1431 -873.502 0.
23.047 -715.678 0.
90.2373 -557.856 0.
359.744 -344.575 0.
378.891 -299.883 0.
398.039 -255.191 0.
198.717 -275.043 0.
245.393 -166.4 0.
292.069 -57.7568 0.
144.868 -197.594 0.
81.5693 -345.847 0.
1159.49 -4.54636 0.
441.037 -138.906 0.
531.765 73.779 0.
168.814 6.99778 0.
58.1234 -249.626 0.
-52.567 -506.25 0.
132.071 -507.475 0.
172.906 -410.745 0.
213.741 -314.015 0.
191.856 -255.986 0.
223.712 -180.593 0.
255.567 -105.2 0.
306.063 -159.972 0.
258.582 -274.352 0.
169.13 -393.878 0.
184.121 -359.485 0.
199.112 -325.091 0.
62.3757 -314.228 0.
138.248 -137.825 0.
214.119 38.5782 0.
131.985 -30.8295 0.
42.3031 -238.796 0.
-47.3785 -446.763 0.
283.263 -402.471 0.
239.789 -505.986 0.
-195.394 -776.941 0.
20.1325 -409.589 0.
166.699 -70.6382 0.
303.199 189.546 0.
270.943 111.347 0.
238.686 33.1492 0.
280.517 55.9519 0.
325.993 162.852 0.
371.468 269.753 0.
249.842 115.093 0.
149.16 -119.476 0.
48.4775 -354.046 0.
-152.249 -362.821 0.
-97.3576 -234.574 0.
40.0412 -95.3189 0.
-10.5068 -215.988 0.
-61.0558 -336.657 0.
41.7743 -328.817 0.
84.4234 -229.096 0.
127.072 -129.375 0.
-126.247 -331.389 0.
-244.162 -608.091 0.
-362.077 -884.794 0.
58.0974 -551.084 0.
192.62 -242.146 0.
-484.266 -176.97 0.
-5.89501 -87.9691 0.
-86.5915 -275.602 0.
-61.6932 -387.847 0.
-64.687 -393.598 0.
-67.6805 -399.349 0.
83.8519 -247.51 0.
189.406 -3.19942 0.
294.959 241.112 0.
260.509 266.973 0.
239.849 218.387 0.
219.188 169.801 0.
118.073 122.993 0.
119.192 125.181 0.
-179.17 -6.26369 0.
-228.626 -122.346 0.
-278.083 -238.427 0.
488.678 23.8168 0.
492.03 30.6864 0.
495.382 37.5559 0.
402.598 -64.2948 0.
338.753 -211.294 0.
274.907 -358.292 0.
-227.821 -442.167 0.
-117.898 -186.868 0.
517.345 293.342 0.
172.103 -125.212 0.
29.4775 -459.312 0.
-26.9277 -678.632 0.
29.4632 -549.223 0.
85.8542 -419.813 0.
38.9164 -442.709 0.
-35.1968 -621.305 0.
-109.311 -799.903 0.
165.831 -644.126 0.
237.161 -480.756 0.
308.49 -317.385 0.
102.602 -518.021 0.
26.2564 -696.24 0.
143.439 -760.607 0.
210.874 -602.776 0.
278.309 -444.944 0.
286.876 -344.87 0.
305.848 -300.105 0.
324.82 -255.339 0.
169.07 -255.897 0.
215.703 -147.356 0.
262.336 -38.8149 0.
45.7195 -208.383 0.
-17.4496 -356.778 0.
-363.125 -624.832 0.
694.867 2.22917 0.
785.507 215.041 0.
-41.235 -51.9049 0.
-151.823 -308.624 0.
-262.411 -565.344 0.
73.3734 -501.409 0.
114.203 -404.474 0.
155.032 -307.539 0.
198.87 -221.327 0.
230.421 -145.666 0.
261.973 -70.0065 0.
296.127 -132.727 0.
248.235 -246.566 0.
273.309 -317.825 0.
288.137 -283.364 0.
302.965 -248.903 0.
-86.6577 -347.59 0.
-10.9167 -171.114 0.
64.8241 5.36121 0.
235.486 44.3405 0.
145.728 -163.433 0.
55.9705 -371.207 0.
552.097 -256.558 0.
508.513 -359.888 0.
-403.41 -835.485 0.
-14.8489 -392.48 0.
131.775 -53.4269 0.
346.442 238.126 0.
313.971 160.33 0.
281.5 82.5347 0.
183.341 45.4188 0.
228.96 152.321 0.
274.58 259.223 0.
273.222 155.31 0.
172.373 -79.1903 0.
71.5247 -313.691 0.
-153.26 -330.594 0.
-98.4866 -202.533 0.
207.182 7.34298 0.
155.972 -112.834 0.
104.761 -233.011 0.
-85.4376 -353.563 0.
-43.1608 -253.453 0.
-0.88431 -153.343 0.
-148.307 -308.844 0.
-266.332 -585.477 0.
-384.357 -862.109 0.
-6.40133 -547.556 0.
127.55 -238.025 0.
36.045 -164.149 0.
-17.7025 -130.827 0.
18.7887 -45.2473 0.
148.099 56.7584 0.
131.246 17.8454 0.
114.393 -21.0677 0.
102.732 -91.737 0.
48.4072 -216.974 0.
-5.91741 -342.211 0.
92.6747 -213.514 0.
186.959 7.224 0.
281.243 227.962 0.
93.7567 140.118 0.
78.5529 105.586 0.
-232.375 -64.7635 0.
-280.629 -176.526 0.
-328.883 -288.289 0.
453.197 -71.2485 0.
358.517 -290.562 0.
263.836 -509.875 0.
270.297 -501.623 0.
355.302 -304.485 0.
440.308 -107.347 0.
-120.544 -300.716 0.
-115.546 -287.446 0.
699.021 71.7374 0.
284.501 -86.8897 0.
294.709 -62.8691 0.
138.762 -124.151 0.
109.908 -191.048 0.
81.055 -257.945 0.
138.704 -200.347 0.
219.265 -10.6965 0.
299.825 178.954 0.
523.716 205.552 0.
427.747 -20.2258 0.
331.779 -246.004 0.
21.5674 -489.601 0.
-29.151 -608.428 0.
209.275 -583.988 0.
253.1 -480.845 0.
296.925 -377.702 0.
225.069 -330.362 0.
257.313 -255.3 0.
289.556 -180.237 0.
129.22 -191.958 0.
160.549 -119.22 0.
191.878 -46.4818 0.
97.3365 -133.484 0.
57.438 -226.194 0.
-1160.3 -822.267 0.
741.485 3.94315 0.
747.701 17.4632 0.
-281.733 -417.375 0.
-285.731 -425.618 0.
-289.729 -433.861 0.
105.667 -301.976 0.
65.5916 -396.081 0.
25.5158 -490.186 0.
93.6709 -437.213 0.
132.697 -347.266 0.
171.723 -257.318 0.
298.469 -232.589 0.
276.615 -284.235 0.
254.476 -323.304 0.
285.808 -250.372 0.
317.139 -177.44 0.
-103.226 -282.189 0.
-43.1412 -142.993 0.
16.9441 -3.79608 0.
365.764 120.812 0.
295.722 -41.7424 0.
225.68 -204.297 0.
598.325 -43.9381 0.
615.789 0.39776 0.
-406.496 -399.024 0.
85.7493 -148.621 0.
105.659 -98.9359 0.
258.233 2.34582 0.
271.079 35.359 0.
283.925 68.3716 0.
149.343 -0.435571 0.
117.412 -74.8102 0.
85.4806 -149.185 0.
187.211 -76.9029 0.
223.732 8.08834 0.
260.255 93.0795 0.
-37.3948 -147.602 0.
-106.292 -308.191 0.
64.771 -341.284 0.
104.601 -249.382 0.
144.432 -157.48 0.
-60.4587 -214.157 0.
-86.7459 -276.67 0.
-113.033 -339.183 0.
-186.829 -392.389 0.
-185.361 -389.551 0.
-183.893 -386.713 0.
-40.1025 -470.062 0.
-131.261 -683.855 0.
-681.182 -443.375 0.
46.425 -72.3567 0.
83.0488 13.2524 0.
234.676 124.856 0.
217.717 86.1668 0.
200.759 47.4776 0.
55.8755 -80.5478 0.
1.49497 -205.906 0.
-52.8855 -331.264 0.
-35.0425 -236.704 0.
59.488 -16.2534 0.
154.018 204.197 0.
230.965 231.014 0.
216.298 196.075 0.
-95.1609 25.0156 0.
-143.33 -86.8541 0.
-191.499 -198.724 0.
299.289 -104.677 0.
204.695 -324.063 0.
110.101 -543.449 0.
305.51 -455.462 0.
390.173 -258.134 0.
474.836 -60.8071 0.
38.0721 -202.415 0.
43.1667 -189.305 0.
192.338 -114.547 0.
457.575 19.3061 0.
467.65 43.4967 0.
70.3274 -123.199 0.
41.4766 -189.922 0.
12.6257 -256.645 0.
294.655 -100.677 0.
375.566 88.6261 0.
456.477 277.929 0.
349.936 161.926 0.
254.175 -64.028 0.
158.414 -289.982 0.
49.4186 -446.449 0.
-0.893183 -565.656 0.
29.3322 -628.721 0.
73.3145 -525.579 0.
117.297 -422.438 0.
164.109 -325.729 0.
196.461 -250.631 0.
228.813 -175.534 0.
26.8005 -204.212 0.
58.4 -131.687 0.
89.9993 -59.1616 0.
284.495 -21.1622 0.
244.745 -113.917 0.
-745.065 -612.813 0.
628.488 -13.0651 0.
634.599 0.672161 0.
-243.094 -369.796 0.
-247.063 -377.952 0.
-251.033 -386.108 0.
66.5212 -286.803 0.
26.7571 -381.047 0.
-13.0071 -475.291 0.
93.6061 -405.727 0.
132.492 -315.518 0.
171.377 -225.31 0.
452.278 -134.898 0.
430.255 -186.402 0.
144.821 -339.282 0.
176.321 -266.648 0.
207.821 -194.013 0.
-30.133 -218.136 0.
30.307 -79.3823 0.
90.7473 59.3719 0.
534.134 225.07 0.
464.048 62.2134 0.
393.962 -100.644 0.
253.24 -159.677 0.
270.839 -115.736 0.
547.084 40.0511 0.
147.684 -91.4616 0.
167.406 -41.7598 0.
266.755 38.1683 0.
279.822 70.9411 0.
292.889 103.714 0.
234.46 67.2055 0.
202.685 -7.25693 0.
170.911 -81.7195 0.
232.563 -26.6225 0.
269.153 58.3181 0.
305.743 143.259 0.
86.2175 -62.8423 0.
17.2921 -223.587 0.
-41.7934 -355.084 0.
-1.57178 -263.517 0.
38.6503 -171.95 0.
10.5781 -152.34 0.
-15.3403 -215.055 0.
-41.2583 -277.77 0.
-139.023 -339.915 0.
-137.469 -337.153 0.
-135.914 -334.392 0.
-116.898 -470.532 0.
-208.304 -684.072 0.
-235.96 261.435 0.
-50.8429 -379.356 0.
-215.009 -763.636 0.
296.727 145.131 0.
421.573 436.06 0.
658.382 988.12 0.
140.117 228.252 0.
-19.2316 -142.089 0.
-41.2528 -192.757 0.
-316.852 -628.205 0.
-389.152 -796.168 0.
-138.296 -209.859 0.
177.947 -127.185 0.
99.3143 -308.43 0.
-213.052 -485.656 0.
128.44 311.125 0.
117.843 286.691 0.
-48.4244 -594.176 0.
-26.7835 -544.892 0.
135.887 -166.936 0.
580.511 155.87 0.
569.371 129.291 0.
390.969 -287.514 0.
306.135 152.973 0.
330.946 209.396 0.
122.228 -107.159 0.
713.992 318.257 0.
492.345 -198.039 0.
104.202 113.598 0.
244.742 440.398 0.
67.6956 26.4299 0.
551.561 233.76 0.
533.423 192.757 0.
266.816 -427.887 0.
214.108 201.601 0.
302.017 405.03 0.
192.749 148.252 0.
64.6739 -430.081 0.
37.2577 -498.74 0.
-71.2545 -481.101 0.
17.3851 -277.15 0.
43.2585 -219.646 0.
205.775 -76.8448 0.
296.783 132.531 0.
169.881 -166.335 0.
-242.834 -611.358 0.
-178.863 -460.789 0.
-84.8495 -239.931 0.
448.768 34.206 0.
315.872 -278.212 0.
54.3515 417.46 0.
601.801 179.132 0.
313.022 -497.088 0.
-327.877 -603.899 0.
-259.943 -445.055 0.
-216.535 -343.518 0.
103.217 -100.383 0.
432.84 667.617 0.
444.98 694.94 0.
101.883 -347.186 0.
-341.36 -1381.4 0.
177.977 -169.8 0.
504.205 -273.598 0.
447.161 -403.96 0.
20.273 -390.675 0.
131.07 -130.377 0.
367.698 423.844 0.
395.136 661.967 0.
285.283 403.579 0.
56.2129 -132.606 0.
426.737 -316.505 0.
329.736 -544.994 0.
697.355 311.09 0.
205.273 420.4 0.
134.651 257.164 0.
-54.9233 -55.5341 0.
479.059 591.358 0.
59.229 -382.607 0.
28.1911 -516.269 0.
391.556 334.94 0.
-186.865 -1011.67 0.
213.509 -113.551 0.
499.833 553.764 0.
80.1349 -426.196 0.
-80.4846 -806.913 0.
289.168 53.9273 0.
781.801 1201.71 0.
323.632 287.614 0.
286.378 198.326 0.
-160.917 -401.504 0.
-200.18 -492.25 0.
5.79984 -11.1099 0.
385.008 619.277 0.
266.699 343.42 0.
-1.85384 -282.71 0.
-167.984 -471.718 0.
7.09728 -62.6548 0.
-3.09762 -85.5007 0.
156.478 342.911 0.
82.8244 172.783 0.
785.231 656.961 0.
-137.666 102.758 0.
-223.75 -97.2752 0.
86.1273 -81.8598 0.
107.927 -31.2109 0.
129.727 19.4374 0.
103.069 42.704 0.
113.691 67.573 0.
124.313 92.4421 0.
25.8409 -7.55751 0.
-22.9528 -118.618 0.
-71.7461 -229.678 0.
90.8539 -225.851 0.
53.5665 -310.256 0.
10.7443 -374.414 0.
92.3202 -184.331 0.
173.896 5.75257 0.
219.183 149.362 0.
253.078 228.443 0.
286.972 307.523 0.
487.013 332.572 0.
401.048 130.146 0.
315.083 -72.2799 0.
292.276 -189.129 0.
245.621 -297.662 0.
741.83 -174.087 0.
591.481 -87.4102 0.
668.523 93.643 0.
183.013 -10.7732 0.
157.214 -70.5727 0.
131.414 -130.372 0.
163.384 -160.286 0.
140.536 -212.564 0.
117.688 -264.843 0.
-148.147 -406.973 0.
-159.977 -433.2 0.
-171.807 -459.428 0.
269.38 -136.62 0.
349.266 50.9105 0.
51.1378 39.9673 0.
-44.2863 -184.02 0.
-139.711 -408.008 0.
170.408 -336.76 0.
271.166 -103.854 0.
371.924 129.053 0.
-65.4514 -59.1036 0.
-145.489 -245.317 0.
-225.527 -431.531 0.
326.057 -109.622 0.
408.945 82.0116 0.
-1510.3 -583.605 0.
581.65 184.103 0.
513.598 25.5776 0.
-124.826 -322.266 0.
-68.2138 -192.285 0.
-11.602 -62.3046 0.
-35.8992 -33.9202 0.
-57.5094 -84.3031 0.
-79.1189 -134.686 0.
353.878 58.7866 0.
370.953 97.7672 0.
388.029 136.748 0.
629.667 208.378 0.
608.408 160.563 0.
74.5286 -105.638 0.
48.297 -162.923 0.
22.0656 -220.208 0.
219.949 -172.034 0.
213.735 -182.978 0.
207.522 -193.923 0.
346.155 -107.452 0.
374.61 -42.2081 0.
403.066 23.0361 0.
136.129 -113.242 0.
115.331 -160.454 0.
343.217 -96.4129 0.
163.355 -68.1075 0.
220.191 63.4323 0.
593.937 300.566 0.
579.025 264.945 0.
564.112 229.324 0.
300.759 123.18 0.
327.757 187.265 0.
354.754 251.35 0.
166.226 52.3563 0.
58.8798 -197.02 0.
-48.4668 -446.397 0.
-11.3345 -314.06 0.
69.0548 -127.186 0.
2.49209 -11.6362 0.
49.3247 99.0314 0.
96.1574 209.699 0.
137.47 262.684 0.
104.95 188.332 0.
72.4308 113.981 0.
238.227 214.12 0.
289.39 333.884 0.
340.552 453.647 0.
257.844 256.853 0.
132.427 -32.6636 0.
454.521 546.178 0.
-477.36 -10.7645 0.
-563.591 -210.502 0.
-38.8018 -105.243 0.
-17.3973 -53.7897 0.
4.00783 -2.3373 0.
176.681 104.943 0.
186.657 130.288 0.
196.634 155.632 0.
137.377 70.9101 0.
88.0919 -39.8411 0.
38.807 -150.592 0.
51.2729 -211.98 0.
13.873 -296.232 0.
244.1 -242.692 0.
325.577 -52.6492 0.
407.055 137.393 0.
171.841 159.898 0.
205.691 239.128 0.
239.541 318.358 0.
295.997 282.076 0.
209.919 80.016 0.
123.841 -122.044 0.
471.446 -81.1912 0.
424.454 -189.344 0.
1290.62 93.2203 0.
672.834 -20.6847 0.
749.2 160.954 0.
361.545 95.3411 0.
335.01 36.0649 0.
308.474 -23.2112 0.
-89.9329 -239.286 0.
-112.533 -291.976 0.
-135.132 -344.665 0.
-257.057 -420.584 0.
-268.06 -448.145 0.
-279.063 -475.707 0.
379.416 -56.0441 0.
459.965 131.092 0.
-58.7302 24.344 0.
-154.087 -199.285 0.
-249.443 -422.913 0.
281.057 -257.875 0.
381.731 -24.6351 0.
482.405 208.605 0.
-121.02 -52.0734 0.
-201.321 -237.463 0.
-281.623 -422.851 0.
269.251 -102.834 0.
352.056 89.1978 0.
-846.727 -267.259 0.
571.625 212.003 0.
503.519 53.7157 0.
-8.6744 -241.541 0.
48.2381 -111.675 0.
105.151 18.1909 0.
-222.858 -82.569 0.
-244.176 -132.855 0.
-265.494 -183.14 0.
466.098 138.346 0.
483.045 177.498 0.
499.991 216.649 0.
547.964 205.469 0.
526.478 157.712 0.
8.83043 -102.015 0.
-17.5541 -159.229 0.
-43.9383 -216.443 0.
458.052 -38.4666 0.
451.692 -49.5366 0.
445.333 -60.6071 0.
159.013 -155.923 0.
186.668 -90.4242 0.
214.323 -24.9252 0.
347.714 9.74819 0.
326.088 -37.0045 0.
-594.814 -466.186 0.
142.617 -47.3751 0.
199.047 83.9361 0.
878.736 454.986 0.
864.253 419.052 0.
849.77 383.118 0.
298.949 153.545 0.
325.434 218.189 0.
351.919 282.834 0.
29.8156 24.1546 0.
-77.8497 -224.957 0.
-185.515 -474.069 0.
-86.7036 -313.924 0.
-6.68161 -126.857 0.
11.3093 23.2063 0.
58.2759 134.081 0.
105.243 244.956 0.
35.0446 249.24 0.
2.75116 174.795 0.
-29.542 100.35 0.
390.122 311.707 0.
441.307 431.742 0.
492.492 551.778 0.
450.71 368.751 0.
324.497 80.0468 0.
