# vtk DataFile Version 2.0
test grain
ASCII
DATASET UNSTRUCTURED_GRID
POINTS 5000 float
0.499922 0.00100075 0.
0.501923 0.00100064 0.
0.503924 0.0010005 0.
0.505925 0.00100038 0.
0.507927 0.00100035 0.
0.509928 0.00100032 0.
0.511929 0.00100029 0.
0.51393 0.00100025 0.
0.515931 0.00100022 0.
0.517933 0.0010002 0.
0.519934 0.00100018 0.
0.521936 0.00100017 0.
0.523938 0.00100017 0.
0.52594 0.00100017 0.
0.527941 0.00100016 0.
0.529943 0.00100014 0.
0.531945 0.00100011 0.
0.533947 0.00100009 0.
0.535948 0.00100008 0.
0.537949 0.00100007 0.
0.539951 0.00100008 0.
0.541952 0.0010001 0.
0.543954 0.00100012 0.
0.545956 0.00100017 0.
0.547958 0.00100022 0.
0.54996 0.00100027 0.
0.551962 0.00100027 0.
0.553963 0.00100026 0.
0.555965 0.00100024 0.
0.557966 0.00100018 0.
0.559968 0.00100012 0.
0.561969 0.00100011 0.
0.563971 0.00100014 0.
0.565973 0.00100018 0.
0.567975 0.00100018 0.
0.569976 0.00100018 0.
0.571978 0.00100017 0.
0.573979 0.00100016 0.
0.575981 0.00100014 0.
0.577982 0.00100013 0.
0.579984 0.00100016 0.
0.581986 0.00100018 0.
0.583988 0.0010002 0.
0.585989 0.00100019 0.
0.587991 0.00100018 0.
0.589993 0.00100018 0.
0.591994 0.00100018 0.
0.593996 0.00100019 0.
0.595997 0.00100014 0.
0.597998 0.00100007 0.
0.599998 0.001 0.
0.602001 0.00100002 0.
0.604003 0.00100004 0.
0.606005 0.00100005 0.
0.608007 0.00100003 0.
0.610008 0.00100002 0.
0.61201 0.00100001 0.
0.614012 0.00100002 0.
0.616014 0.00100003 0.
0.618016 0.00100006 0.
0.620018 0.00100011 0.
0.622019 0.00100015 0.
0.624021 0.00100011 0.
0.626023 0.00100005 0.
0.628025 0.001 0.
0.630027 0.001 0.
0.632029 0.001 0.
0.634031 0.001 0.
0.636033 0.001 0.
0.638035 0.001 0.
0.640036 0.00100001 0.
0.642038 0.00100002 0.
0.64404 0.00100003 0.
0.646042 0.00100004 0.
0.648043 0.00100004 0.
0.650045 0.00100005 0.
0.652047 0.00100003 0.
0.654049 0.00100002 0.
0.656051 0.00100001 0.
0.658052 0.00100003 0.
0.660054 0.00100005 0.
0.662055 0.00100008 0.
0.664057 0.00100011 0.
0.666058 0.00100015 0.
0.66806 0.00100017 0.
0.670062 0.00100018 0.
0.672064 0.0010002 0.
0.674065 0.00100017 0.
0.676066 0.00100015 0.
0.678067 0.00100013 0.
0.680069 0.0010002 0.
0.68207 0.00100026 0.
0.684071 0.00100032 0.
0.686072 0.00100037 0.
0.688073 0.00100042 0.
0.690075 0.00100044 0.
0.692076 0.00100044 0.
0.694077 0.00100044 0.
0.696078 0.0010006 0.
0.698079 0.0010008 0.
0.499923 0.00300226 0.
0.501923 0.00300191 0.
0.503924 0.0030015 0.
0.505925 0.00300115 0.
0.507927 0.00300105 0.
0.509928 0.00300096 0.
0.51193 0.00300087 0.
0.513931 0.00300076 0.
0.515932 0.00300065 0.
0.517933 0.00300059 0.
0.519935 0.00300055 0.
0.521936 0.00300052 0.
0.523938 0.00300051 0.
0.52594 0.0030005 0.
0.527941 0.00300049 0.
0.529943 0.00300042 0.
0.531945 0.00300034 0.
0.533947 0.00300028 0.
0.535948 0.00300025 0.
0.53795 0.00300022 0.
0.539951 0.00300024 0.
0.541953 0.00300031 0.
0.543954 0.00300037 0.
0.545956 0.00300051 0.
0.547958 0.00300067 0.
0.54996 0.00300082 0.
0.551961 0.0030008 0.
0.553963 0.00300077 0.
0.555965 0.00300072 0.
0.557966 0.00300054 0.
0.559968 0.00300037 0.
0.561969 0.00300032 0.
0.563971 0.00300042 0.
0.565973 0.00300053 0.
0.567975 0.00300055 0.
0.569976 0.00300054 0.
0.571978 0.00300052 0.
0.573979 0.00300048 0.
0.575981 0.00300043 0.
0.577982 0.00300039 0.
0.579984 0.00300047 0.
0.581986 0.00300055 0.
0.583988 0.0030006 0.
0.585989 0.00300057 0.
0.587991 0.00300055 0.
0.589993 0.00300054 0.
0.591994 0.00300055 0.
0.593996 0.00300056 0.
0.595997 0.00300041 0.
0.597998 0.00300021 0.
0.599999 0.003 0.
0.602001 0.00300007 0.
0.604003 0.00300013 0.
0.606005 0.00300016 0.
0.608007 0.0030001 0.
0.610008 0.00300005 0.
0.61201 0.00300003 0.
0.614012 0.00300006 0.
0.616014 0.00300008 0.
0.618016 0.00300018 0.
0.620018 0.00300032 0.
0.622019 0.00300046 0.
0.624021 0.00300032 0.
0.626023 0.00300016 0.
0.628025 0.00300001 0.
0.630027 0.00300001 0.
0.632029 0.003 0.
0.634031 0.003 0.
0.636033 0.003 0.
0.638035 0.003 0.
0.640037 0.00300002 0.
0.642038 0.00300006 0.
0.64404 0.00300009 0.
0.646042 0.00300011 0.
0.648043 0.00300012 0.
0.650045 0.00300014 0.
0.652047 0.0030001 0.
0.654049 0.00300006 0.
0.65605 0.00300004 0.
0.658052 0.0030001 0.
0.660054 0.00300016 0.
0.662055 0.00300023 0.
0.664057 0.00300034 0.
0.666058 0.00300044 0.
0.66806 0.00300051 0.
0.670061 0.00300055 0.
0.672063 0.00300059 0.
0.674064 0.00300052 0.
0.676066 0.00300044 0.
0.678067 0.0030004 0.
0.680068 0.00300059 0.
0.68207 0.00300078 0.
0.684071 0.00300096 0.
0.686072 0.00300111 0.
0.688073 0.00300126 0.
0.690074 0.00300132 0.
0.692075 0.00300132 0.
0.694077 0.00300132 0.
0.696077 0.0030018 0.
0.698078 0.00300241 0.
0.499923 0.00500376 0.
0.501924 0.00500318 0.
0.503924 0.00500249 0.
0.505925 0.00500191 0.
0.507927 0.00500176 0.
0.509928 0.0050016 0.
0.51193 0.00500144 0.
0.513931 0.00500126 0.
0.515932 0.00500108 0.
0.517933 0.00500098 0.
0.519935 0.00500092 0.
0.521936 0.00500086 0.
0.523938 0.00500085 0.
0.525939 0.00500084 0.
0.527941 0.00500082 0.
0.529943 0.00500069 0.
0.531945 0.00500057 0.
0.533946 0.00500046 0.
0.535948 0.00500042 0.
0.53795 0.00500037 0.
0.539952 0.00500041 0.
0.541953 0.00500051 0.
0.543954 0.00500062 0.
0.545956 0.00500085 0.
0.547958 0.00500111 0.
0.549959 0.00500137 0.
0.551961 0.00500133 0.
0.553963 0.00500128 0.
0.555965 0.00500119 0.
0.557966 0.0050009 0.
0.559967 0.00500061 0.
0.561969 0.00500052 0.
0.563971 0.0050007 0.
0.565973 0.00500088 0.
0.567975 0.00500092 0.
0.569976 0.0050009 0.
0.571978 0.00500087 0.
0.573979 0.0050008 0.
0.575981 0.00500071 0.
0.577982 0.00500065 0.
0.579984 0.00500078 0.
0.581986 0.00500092 0.
0.583988 0.005001 0.
0.585989 0.00500095 0.
0.587991 0.00500091 0.
0.589993 0.0050009 0.
0.591994 0.00500092 0.
0.593996 0.00500093 0.
0.595997 0.00500068 0.
0.597998 0.00500034 0.
0.599999 0.00500001 0.
0.602001 0.00500011 0.
0.604003 0.00500021 0.
0.606005 0.00500027 0.
0.608007 0.00500017 0.
0.610009 0.00500008 0.
0.61201 0.00500005 0.
0.614012 0.00500009 0.
0.616014 0.00500014 0.
0.618016 0.0050003 0.
0.620018 0.00500053 0.
0.622019 0.00500076 0.
0.624021 0.00500054 0.
0.626023 0.00500026 0.
0.628025 0.00500001 0.
0.630027 0.00500001 0.
0.632029 0.00500001 0.
0.63403 0.005 0.
0.636033 0.005 0.
0.638035 0.005 0.
0.640037 0.00500004 0.
0.642038 0.00500009 0.
0.64404 0.00500015 0.
0.646042 0.00500018 0.
0.648043 0.00500021 0.
0.650045 0.00500023 0.
0.652047 0.00500016 0.
0.654049 0.0050001 0.
0.65605 0.00500007 0.
0.658052 0.00500017 0.
0.660053 0.00500026 0.
0.662055 0.00500039 0.
0.664057 0.00500056 0.
0.666059 0.00500074 0.
0.66806 0.00500084 0.
0.670061 0.00500092 0.
0.672062 0.00500099 0.
0.674064 0.00500087 0.
0.676065 0.00500074 0.
0.678067 0.00500066 0.
0.680068 0.00500098 0.
0.68207 0.0050013 0.
0.684071 0.0050016 0.
0.686072 0.00500185 0.
0.688073 0.0050021 0.
0.690074 0.00500219 0.
0.692075 0.00500219 0.
0.694076 0.00500219 0.
0.696077 0.005003 0.
0.698078 0.00500401 0.
0.499924 0.00700565 0.
0.501924 0.00700501 0.
0.503925 0.00700422 0.
0.505926 0.00700354 0.
0.507927 0.00700333 0.
0.509929 0.00700313 0.
0.51193 0.00700295 0.
0.513931 0.00700279 0.
0.515932 0.00700263 0.
0.517934 0.00700249 0.
0.519935 0.00700236 0.
0.521936 0.00700222 0.
0.523938 0.00700216 0.
0.52594 0.00700211 0.
0.527941 0.00700206 0.
0.529943 0.00700198 0.
0.531945 0.00700191 0.
0.533947 0.00700187 0.
0.535948 0.00700191 0.
0.53795 0.00700195 0.
0.539952 0.00700195 0.
0.541953 0.00700192 0.
0.543955 0.00700188 0.
0.545956 0.00700208 0.
0.547958 0.00700236 0.
0.549959 0.00700263 0.
0.551961 0.00700266 0.
0.553964 0.00700269 0.
0.555965 0.00700267 0.
0.557967 0.00700246 0.
0.559968 0.00700224 0.
0.561969 0.00700215 0.
0.563971 0.0070022 0.
0.565973 0.00700225 0.
0.567975 0.00700222 0.
0.569976 0.00700214 0.
0.571978 0.00700206 0.
0.573979 0.00700216 0.
0.575981 0.00700228 0.
0.577983 0.0070024 0.
0.579984 0.0070024 0.
0.581986 0.0070024 0.
0.583988 0.00700243 0.
0.585989 0.00700252 0.
0.587991 0.0070026 0.
0.589992 0.0070026 0.
0.591994 0.00700253 0.
0.593995 0.00700246 0.
0.595997 0.00700211 0.
0.597998 0.00700169 0.
0.599999 0.00700126 0.
0.602001 0.00700139 0.
0.604003 0.00700151 0.
0.606005 0.00700159 0.
0.608007 0.00700154 0.
0.610009 0.00700149 0.
0.61201 0.00700145 0.
0.614012 0.00700144 0.
0.616014 0.00700142 0.
0.618016 0.00700155 0.
0.620017 0.00700174 0.
0.622019 0.00700193 0.
0.624021 0.00700155 0.
0.626023 0.0070011 0.
0.628025 0.00700072 0.
0.630027 0.00700085 0.
0.632029 0.00700099 0.
0.634031 0.00700114 0.
0.636032 0.00700134 0.
0.638034 0.00700154 0.
0.640036 0.00700165 0.
0.642038 0.00700171 0.
0.644039 0.00700177 0.
0.646041 0.00700176 0.
0.648043 0.00700172 0.
0.650045 0.00700169 0.
0.652047 0.00700158 0.
0.654048 0.00700148 0.
0.65605 0.00700144 0.
0.658051 0.00700164 0.
0.660053 0.00700183 0.
0.662054 0.00700201 0.
0.664056 0.00700218 0.
0.666058 0.00700235 0.
0.668059 0.0070024 0.
0.67006 0.00700241 0.
0.672062 0.00700241 0.
0.674063 0.00700238 0.
0.676065 0.00700234 0.
0.678066 0.00700233 0.
0.680068 0.00700252 0.
0.682069 0.00700271 0.
0.68407 0.00700292 0.
0.686071 0.00700314 0.
0.688073 0.00700337 0.
0.690074 0.00700365 0.
0.692074 0.00700398 0.
0.694075 0.0070043 0.
0.696076 0.00700483 0.
0.698077 0.00700541 0.
0.499924 0.00900755 0.
0.501925 0.00900684 0.
0.503926 0.00900594 0.
0.505927 0.00900516 0.
0.507928 0.00900491 0.
0.509929 0.00900466 0.
0.51193 0.00900446 0.
0.513931 0.00900431 0.
0.515932 0.00900417 0.
0.517934 0.00900399 0.
0.519935 0.00900379 0.
0.521936 0.00900359 0.
0.523938 0.00900348 0.
0.52594 0.00900338 0.
0.527942 0.00900329 0.
0.529943 0.00900327 0.
0.531945 0.00900325 0.
0.533947 0.00900328 0.
0.535949 0.0090034 0.
0.53795 0.00900352 0.
0.539952 0.00900349 0.
0.541953 0.00900332 0.
0.543955 0.00900315 0.
0.545956 0.00900332 0.
0.547958 0.00900361 0.
0.549959 0.00900389 0.
0.551961 0.00900399 0.
0.553964 0.00900409 0.
0.555966 0.00900414 0.
0.557967 0.00900401 0.
0.559968 0.00900387 0.
0.561969 0.00900377 0.
0.563971 0.0090037 0.
0.565973 0.00900363 0.
0.567975 0.00900352 0.
0.569976 0.00900338 0.
0.571978 0.00900325 0.
0.57398 0.00900353 0.
0.575981 0.00900386 0.
0.577983 0.00900414 0.
0.579984 0.00900402 0.
0.581986 0.00900389 0.
0.583987 0.00900387 0.
0.585989 0.00900408 0.
0.58799 0.00900428 0.
0.589992 0.00900429 0.
0.591994 0.00900414 0.
0.593995 0.00900398 0.
0.595997 0.00900355 0.
0.597998 0.00900304 0.
0.599999 0.00900252 0.
0.602001 0.00900266 0.
0.604003 0.0090028 0.
0.606005 0.00900291 0.
0.608007 0.0090029 0.
0.610009 0.0090029 0.
0.612011 0.00900286 0.
0.614012 0.00900278 0.
0.616014 0.00900271 0.
0.618015 0.00900279 0.
0.620017 0.00900295 0.
0.622019 0.00900311 0.
0.624021 0.00900256 0.
0.626023 0.00900194 0.
0.628025 0.00900143 0.
0.630027 0.0090017 0.
0.632029 0.00900196 0.
0.634031 0.00900228 0.
0.636032 0.00900267 0.
0.638034 0.00900307 0.
0.640035 0.00900327 0.
0.642037 0.00900333 0.
0.644039 0.00900339 0.
0.646041 0.00900333 0.
0.648043 0.00900324 0.
0.650045 0.00900315 0.
0.652046 0.009003 0.
0.654048 0.00900285 0.
0.65605 0.00900281 0.
0.658051 0.00900311 0.
0.660052 0.00900341 0.
0.662054 0.00900364 0.
0.664056 0.0090038 0.
0.666057 0.00900396 0.
0.668059 0.00900396 0.
0.67006 0.0090039 0.
0.672061 0.00900383 0.
0.674063 0.00900389 0.
0.676064 0.00900394 0.
0.678066 0.009004 0.
0.680067 0.00900406 0.
0.682069 0.00900412 0.
0.68407 0.00900424 0.
0.686071 0.00900444 0.
0.688072 0.00900464 0.
0.690073 0.00900511 0.
0.692074 0.00900576 0.
0.694075 0.00900641 0.
0.696075 0.00900665 0.
0.698076 0.00900681 0.
0.499925 0.011009 0.
0.501926 0.0110083 0.
0.503927 0.0110073 0.
0.505928 0.0110064 0.
0.507929 0.0110061 0.
0.50993 0.0110057 0.
0.511931 0.0110054 0.
0.513932 0.0110053 0.
0.515933 0.0110052 0.
0.517934 0.011005 0.
0.519935 0.0110046 0.
0.521937 0.0110043 0.
0.523938 0.0110042 0.
0.52594 0.011004 0.
0.527942 0.0110039 0.
0.529944 0.0110039 0.
0.531945 0.011004 0.
0.533947 0.011004 0.
0.535949 0.0110042 0.
0.53795 0.0110044 0.
0.539952 0.0110044 0.
0.541953 0.0110042 0.
0.543955 0.0110041 0.
0.545957 0.0110042 0.
0.547958 0.0110045 0.
0.549959 0.0110047 0.
0.551962 0.0110049 0.
0.553964 0.011005 0.
0.555966 0.0110051 0.
0.557967 0.0110049 0.
0.559968 0.0110047 0.
0.56197 0.0110046 0.
0.563971 0.0110044 0.
0.565973 0.0110043 0.
0.567975 0.0110042 0.
0.569977 0.0110041 0.
0.571978 0.011004 0.
0.57398 0.0110044 0.
0.575981 0.0110048 0.
0.577983 0.0110052 0.
0.579985 0.011005 0.
0.581986 0.0110049 0.
0.583988 0.0110048 0.
0.585989 0.011005 0.
0.58799 0.0110051 0.
0.589992 0.0110051 0.
0.591994 0.011005 0.
0.593996 0.0110048 0.
0.595997 0.0110044 0.
0.597998 0.0110039 0.
0.599999 0.0110034 0.
0.602001 0.0110035 0.
0.604003 0.0110037 0.
0.606005 0.0110037 0.
0.608007 0.0110038 0.
0.610009 0.0110038 0.
0.612011 0.0110038 0.
0.614012 0.0110038 0.
0.616014 0.0110038 0.
0.618015 0.0110039 0.
0.620017 0.011004 0.
0.622019 0.0110042 0.
0.624021 0.0110034 0.
0.626023 0.0110026 0.
0.628024 0.0110019 0.
0.630027 0.0110022 0.
0.632029 0.0110025 0.
0.634031 0.0110029 0.
0.636032 0.0110034 0.
0.638034 0.0110038 0.
0.640035 0.0110041 0.
0.642037 0.0110042 0.
0.644039 0.0110043 0.
0.646041 0.0110042 0.
0.648043 0.0110041 0.
0.650044 0.0110039 0.
0.652046 0.0110038 0.
0.654048 0.0110038 0.
0.656049 0.0110038 0.
0.65805 0.011004 0.
0.660052 0.0110042 0.
0.662053 0.0110044 0.
0.664055 0.0110046 0.
0.666057 0.0110048 0.
0.668058 0.0110048 0.
0.670059 0.0110048 0.
0.672061 0.0110047 0.
0.674062 0.0110048 0.
0.676064 0.011005 0.
0.678066 0.0110051 0.
0.680067 0.0110052 0.
0.682068 0.0110052 0.
0.684069 0.0110053 0.
0.68607 0.0110055 0.
0.688071 0.0110057 0.
0.690072 0.0110062 0.
0.692073 0.011007 0.
0.694074 0.0110077 0.
0.696074 0.011008 0.
0.698075 0.0110081 0.
0.499926 0.0130101 0.
0.501927 0.0130093 0.
0.503928 0.0130083 0.
0.505928 0.0130074 0.
0.507929 0.0130068 0.
0.50993 0.0130062 0.
0.511931 0.0130058 0.
0.513932 0.0130058 0.
0.515933 0.0130057 0.
0.517935 0.0130054 0.
0.519936 0.0130049 0.
0.521937 0.0130044 0.
0.523939 0.0130042 0.
0.525941 0.0130041 0.
0.527943 0.0130039 0.
0.529944 0.013004 0.
0.531946 0.013004 0.
0.533947 0.0130041 0.
0.535949 0.0130044 0.
0.53795 0.0130046 0.
0.539952 0.0130047 0.
0.541953 0.0130046 0.
0.543955 0.0130046 0.
0.545957 0.0130047 0.
0.547958 0.0130049 0.
0.54996 0.0130051 0.
0.551962 0.0130054 0.
0.553964 0.0130056 0.
0.555966 0.0130056 0.
0.557967 0.0130052 0.
0.559969 0.0130048 0.
0.56197 0.0130045 0.
0.563972 0.0130044 0.
0.565973 0.0130043 0.
0.567975 0.0130043 0.
0.569977 0.0130043 0.
0.571979 0.0130044 0.
0.57398 0.0130048 0.
0.575982 0.0130052 0.
0.577984 0.0130056 0.
0.579985 0.0130054 0.
0.581987 0.0130053 0.
0.583988 0.0130052 0.
0.58599 0.0130052 0.
0.587991 0.0130052 0.
0.589992 0.0130051 0.
0.591994 0.0130051 0.
0.593996 0.013005 0.
0.595997 0.0130047 0.
0.597998 0.0130043 0.
0.6 0.013004 0.
0.602001 0.013004 0.
0.604003 0.013004 0.
0.606005 0.0130041 0.
0.608007 0.0130041 0.
0.610009 0.0130042 0.
0.61201 0.0130043 0.
0.614012 0.0130045 0.
0.616013 0.0130047 0.
0.618015 0.0130048 0.
0.620017 0.013005 0.
0.622019 0.0130051 0.
0.624021 0.0130041 0.
0.626022 0.013003 0.
0.628024 0.0130021 0.
0.630026 0.0130024 0.
0.632028 0.0130027 0.
0.63403 0.013003 0.
0.636032 0.0130034 0.
0.638033 0.0130038 0.
0.640035 0.0130041 0.
0.642037 0.0130043 0.
0.644038 0.0130045 0.
0.64604 0.0130044 0.
0.648042 0.0130042 0.
0.650044 0.0130039 0.
0.652045 0.0130041 0.
0.654047 0.0130042 0.
0.656048 0.0130043 0.
0.65805 0.0130042 0.
0.660051 0.0130042 0.
0.662053 0.0130043 0.
0.664055 0.0130045 0.
0.666056 0.0130048 0.
0.668058 0.0130049 0.
0.670059 0.013005 0.
0.67206 0.013005 0.
0.674062 0.0130052 0.
0.676063 0.0130054 0.
0.678065 0.0130056 0.
0.680066 0.0130058 0.
0.682067 0.013006 0.
0.684069 0.0130062 0.
0.68607 0.0130064 0.
0.688071 0.0130065 0.
0.690072 0.013007 0.
0.692073 0.0130077 0.
0.694073 0.0130083 0.
0.696074 0.0130088 0.
0.698074 0.0130092 0.
0.499927 0.0150112 0.
0.501928 0.0150103 0.
0.503928 0.0150093 0.
0.505929 0.0150083 0.
0.50793 0.0150075 0.
0.509931 0.0150067 0.
0.511932 0.0150063 0.
0.513933 0.0150062 0.
0.515934 0.0150062 0.
0.517935 0.0150058 0.
0.519937 0.0150051 0.
0.521938 0.0150045 0.
0.52394 0.0150042 0.
0.525942 0.0150041 0.
0.527943 0.0150039 0.
0.529945 0.015004 0.
0.531946 0.0150041 0.
0.533948 0.0150042 0.
0.535949 0.0150045 0.
0.53795 0.0150047 0.
0.539952 0.0150049 0.
0.541953 0.015005 0.
0.543955 0.0150051 0.
0.545957 0.0150053 0.
0.547958 0.0150054 0.
0.54996 0.0150056 0.
0.551962 0.0150058 0.
0.553964 0.0150061 0.
0.555966 0.0150061 0.
0.557967 0.0150055 0.
0.559969 0.0150048 0.
0.56197 0.0150044 0.
0.563972 0.0150043 0.
0.565973 0.0150042 0.
0.567975 0.0150043 0.
0.569977 0.0150045 0.
0.571979 0.0150047 0.
0.573981 0.0150051 0.
0.575983 0.0150056 0.
0.577984 0.015006 0.
0.579986 0.0150059 0.
0.581987 0.0150057 0.
0.583989 0.0150056 0.
0.58599 0.0150054 0.
0.587991 0.0150052 0.
0.589993 0.0150051 0.
0.591994 0.0150052 0.
0.593996 0.0150052 0.
0.595997 0.015005 0.
0.597999 0.0150048 0.
0.6 0.0150045 0.
0.602001 0.0150045 0.
0.604003 0.0150044 0.
0.606005 0.0150044 0.
0.608007 0.0150045 0.
0.610008 0.0150045 0.
0.61201 0.0150047 0.
0.614012 0.0150051 0.
0.616013 0.0150055 0.
0.618015 0.0150058 0.
0.620017 0.0150059 0.
0.622019 0.015006 0.
0.62402 0.0150048 0.
0.626022 0.0150034 0.
0.628023 0.0150023 0.
0.630026 0.0150026 0.
0.632028 0.0150029 0.
0.63403 0.0150032 0.
0.636032 0.0150035 0.
0.638033 0.0150038 0.
0.640035 0.0150042 0.
0.642036 0.0150044 0.
0.644038 0.0150047 0.
0.64604 0.0150046 0.
0.648041 0.0150043 0.
0.650043 0.015004 0.
0.652045 0.0150043 0.
0.654046 0.0150047 0.
0.656048 0.0150049 0.
0.658049 0.0150045 0.
0.660051 0.0150042 0.
0.662052 0.0150041 0.
0.664054 0.0150045 0.
0.666056 0.0150049 0.
0.668057 0.0150051 0.
0.670058 0.0150052 0.
0.67206 0.0150054 0.
0.674061 0.0150056 0.
0.676063 0.0150059 0.
0.678065 0.0150061 0.
0.680066 0.0150065 0.
0.682067 0.0150068 0.
0.684068 0.0150071 0.
0.686069 0.0150072 0.
0.68807 0.0150074 0.
0.690071 0.0150078 0.
0.692072 0.0150083 0.
0.694073 0.0150089 0.
0.696073 0.0150096 0.
0.698074 0.0150104 0.
0.499928 0.0170126 0.
0.501929 0.0170118 0.
0.503929 0.0170107 0.
0.50593 0.0170096 0.
0.507931 0.0170089 0.
0.509932 0.0170081 0.
0.511933 0.0170076 0.
0.513934 0.0170072 0.
0.515935 0.0170069 0.
0.517936 0.0170064 0.
0.519938 0.0170057 0.
0.521939 0.0170051 0.
0.52394 0.0170049 0.
0.525942 0.0170048 0.
0.527944 0.0170048 0.
0.529945 0.0170048 0.
0.531947 0.0170049 0.
0.533948 0.0170049 0.
0.535949 0.0170051 0.
0.537951 0.0170052 0.
0.539952 0.0170053 0.
0.541954 0.0170054 0.
0.543956 0.0170055 0.
0.545957 0.0170057 0.
0.547959 0.017006 0.
0.54996 0.0170063 0.
0.551962 0.0170063 0.
0.553964 0.0170063 0.
0.555966 0.0170062 0.
0.557968 0.0170059 0.
0.55997 0.0170056 0.
0.561971 0.0170053 0.
0.563973 0.0170052 0.
0.565974 0.0170051 0.
0.567976 0.0170052 0.
0.569978 0.0170055 0.
0.571979 0.0170058 0.
0.573981 0.0170061 0.
0.575983 0.0170065 0.
0.577985 0.0170067 0.
0.579987 0.0170066 0.
0.581988 0.0170064 0.
0.583989 0.0170063 0.
0.585991 0.0170064 0.
0.587992 0.0170065 0.
0.589993 0.0170064 0.
0.591995 0.0170064 0.
0.593996 0.0170063 0.
0.595998 0.017006 0.
0.597999 0.0170057 0.
0.6 0.0170054 0.
0.602001 0.0170053 0.
0.604003 0.0170052 0.
0.606005 0.0170051 0.
0.608006 0.0170052 0.
0.610008 0.0170052 0.
0.61201 0.0170053 0.
0.614011 0.0170057 0.
0.616013 0.017006 0.
0.618014 0.0170062 0.
0.620016 0.0170063 0.
0.622018 0.0170064 0.
0.62402 0.0170054 0.
0.626021 0.0170043 0.
0.628023 0.0170034 0.
0.630025 0.0170035 0.
0.632027 0.0170036 0.
0.634029 0.0170037 0.
0.636031 0.0170039 0.
0.638033 0.0170041 0.
0.640034 0.0170043 0.
0.642036 0.0170047 0.
0.644038 0.017005 0.
0.646039 0.0170051 0.
0.648041 0.0170052 0.
0.650043 0.0170052 0.
0.652044 0.0170051 0.
0.654046 0.017005 0.
0.656047 0.0170049 0.
0.658049 0.0170048 0.
0.66005 0.0170047 0.
0.662052 0.0170049 0.
0.664053 0.0170053 0.
0.666055 0.0170058 0.
0.668056 0.017006 0.
0.670058 0.0170062 0.
0.672059 0.0170064 0.
0.67406 0.0170065 0.
0.676062 0.0170065 0.
0.678064 0.0170066 0.
0.680065 0.0170069 0.
0.682066 0.0170072 0.
0.684067 0.0170076 0.
0.686068 0.0170081 0.
0.688069 0.0170085 0.
0.69007 0.0170091 0.
0.692071 0.0170098 0.
0.694072 0.0170105 0.
0.696072 0.0170112 0.
0.698073 0.0170119 0.
0.499929 0.0190141 0.
0.50193 0.0190132 0.
0.503931 0.0190121 0.
0.505931 0.019011 0.
0.507932 0.0190103 0.
0.509933 0.0190095 0.
0.511934 0.0190089 0.
0.513935 0.0190082 0.
0.515936 0.0190076 0.
0.517937 0.019007 0.
0.519938 0.0190063 0.
0.52194 0.0190056 0.
0.523941 0.0190056 0.
0.525942 0.0190056 0.
0.527944 0.0190056 0.
0.529945 0.0190057 0.
0.531947 0.0190057 0.
0.533948 0.0190057 0.
0.53595 0.0190056 0.
0.537951 0.0190056 0.
0.539953 0.0190056 0.
0.541954 0.0190057 0.
0.543956 0.0190058 0.
0.545958 0.0190061 0.
0.547959 0.0190065 0.
0.549961 0.019007 0.
0.551963 0.0190068 0.
0.553965 0.0190065 0.
0.555967 0.0190063 0.
0.557968 0.0190063 0.
0.55997 0.0190063 0.
0.561972 0.0190062 0.
0.563973 0.0190061 0.
0.565975 0.0190059 0.
0.567976 0.0190061 0.
0.569978 0.0190065 0.
0.571979 0.0190069 0.
0.573982 0.0190071 0.
0.575984 0.0190073 0.
0.577986 0.0190075 0.
0.579987 0.0190073 0.
0.581989 0.0190071 0.
0.58399 0.0190071 0.
0.585991 0.0190074 0.
0.587992 0.0190077 0.
0.589994 0.0190077 0.
0.591995 0.0190075 0.
0.593997 0.0190074 0.
0.595998 0.019007 0.
0.597999 0.0190066 0.
0.6 0.0190062 0.
0.602001 0.0190061 0.
0.604003 0.0190059 0.
0.606004 0.0190058 0.
0.608006 0.0190058 0.
0.610008 0.0190058 0.
0.612009 0.019006 0.
0.614011 0.0190062 0.
0.616012 0.0190064 0.
0.618014 0.0190066 0.
0.620016 0.0190067 0.
0.622017 0.0190068 0.
0.624019 0.0190061 0.
0.626021 0.0190053 0.
0.628023 0.0190045 0.
0.630025 0.0190044 0.
0.632027 0.0190043 0.
0.634029 0.0190042 0.
0.63603 0.0190043 0.
0.638032 0.0190043 0.
0.640034 0.0190045 0.
0.642036 0.0190049 0.
0.644038 0.0190053 0.
0.646039 0.0190057 0.
0.648041 0.0190061 0.
0.650042 0.0190064 0.
0.652044 0.0190059 0.
0.654045 0.0190053 0.
0.656047 0.0190049 0.
0.658048 0.0190051 0.
0.66005 0.0190053 0.
0.662051 0.0190056 0.
0.664053 0.0190061 0.
0.666054 0.0190066 0.
0.668056 0.019007 0.
0.670057 0.0190072 0.
0.672058 0.0190075 0.
0.674059 0.0190073 0.
0.676061 0.0190071 0.
0.678063 0.019007 0.
0.680063 0.0190073 0.
0.682064 0.0190077 0.
0.684065 0.0190082 0.
0.686066 0.0190089 0.
0.688068 0.0190097 0.
0.690069 0.0190105 0.
0.69207 0.0190113 0.
0.694071 0.0190121 0.
0.696071 0.0190128 0.
0.698072 0.0190134 0.
0.49993 0.0210153 0.
0.501931 0.0210142 0.
0.503932 0.021013 0.
0.505932 0.0210119 0.
0.507933 0.0210111 0.
0.509934 0.0210103 0.
0.511935 0.0210095 0.
0.513936 0.0210088 0.
0.515937 0.0210081 0.
0.517938 0.0210074 0.
0.519939 0.0210069 0.
0.52194 0.0210063 0.
0.523941 0.0210062 0.
0.525943 0.0210061 0.
0.527944 0.0210061 0.
0.529946 0.0210061 0.
0.531947 0.0210061 0.
0.533949 0.0210061 0.
0.53595 0.021006 0.
0.537952 0.0210059 0.
0.539953 0.0210059 0.
0.541955 0.0210059 0.
0.543957 0.0210058 0.
0.545958 0.0210062 0.
0.54796 0.0210066 0.
0.549961 0.021007 0.
0.551963 0.0210068 0.
0.553965 0.0210066 0.
0.555967 0.0210064 0.
0.557969 0.0210065 0.
0.559971 0.0210067 0.
0.561973 0.0210067 0.
0.563974 0.0210066 0.
0.565975 0.0210064 0.
0.567977 0.0210066 0.
0.569978 0.021007 0.
0.57198 0.0210075 0.
0.573982 0.0210077 0.
0.575984 0.0210079 0.
0.577986 0.0210081 0.
0.579988 0.0210079 0.
0.581989 0.0210077 0.
0.583991 0.0210076 0.
0.585992 0.0210079 0.
0.587993 0.0210081 0.
0.589994 0.0210082 0.
0.591996 0.021008 0.
0.593997 0.0210079 0.
0.595998 0.0210076 0.
0.597999 0.0210072 0.
0.6 0.0210069 0.
0.602002 0.0210066 0.
0.604003 0.0210064 0.
0.606004 0.0210062 0.
0.608006 0.0210063 0.
0.610007 0.0210063 0.
0.612009 0.0210064 0.
0.61401 0.0210065 0.
0.616012 0.0210067 0.
0.618013 0.0210068 0.
0.620015 0.0210069 0.
0.622017 0.021007 0.
0.624019 0.0210064 0.
0.626021 0.0210057 0.
0.628023 0.0210051 0.
0.630024 0.0210049 0.
0.632026 0.0210048 0.
0.634028 0.0210046 0.
0.63603 0.0210046 0.
0.638031 0.0210045 0.
0.640033 0.0210047 0.
0.642035 0.021005 0.
0.644037 0.0210053 0.
0.646038 0.0210058 0.
0.64804 0.0210063 0.
0.650041 0.0210067 0.
0.652043 0.0210061 0.
0.654045 0.0210056 0.
0.656046 0.0210052 0.
0.658048 0.0210054 0.
0.660049 0.0210057 0.
0.662051 0.021006 0.
0.664052 0.0210065 0.
0.666053 0.0210069 0.
0.668055 0.0210073 0.
0.670056 0.0210077 0.
0.672057 0.0210081 0.
0.674059 0.0210079 0.
0.67606 0.0210077 0.
0.678062 0.0210075 0.
0.680062 0.0210079 0.
0.682063 0.0210082 0.
0.684064 0.0210088 0.
0.686065 0.0210096 0.
0.688066 0.0210104 0.
0.690067 0.0210113 0.
0.692068 0.0210121 0.
0.694069 0.021013 0.
0.69607 0.0210137 0.
0.698071 0.0210145 0.
0.499931 0.023016 0.
0.501932 0.0230148 0.
0.503933 0.0230135 0.
0.505933 0.0230122 0.
0.507934 0.0230113 0.
0.509935 0.0230104 0.
0.511935 0.0230096 0.
0.513937 0.0230089 0.
0.515938 0.0230082 0.
0.517939 0.0230078 0.
0.51994 0.0230074 0.
0.521941 0.0230071 0.
0.523942 0.0230068 0.
0.525944 0.0230064 0.
0.527945 0.0230061 0.
0.529947 0.0230061 0.
0.531948 0.0230062 0.
0.533949 0.0230062 0.
0.535951 0.0230062 0.
0.537952 0.0230062 0.
0.539954 0.0230061 0.
0.541955 0.0230059 0.
0.543957 0.0230057 0.
0.545959 0.0230059 0.
0.54796 0.0230061 0.
0.549962 0.0230064 0.
0.551964 0.0230064 0.
0.553966 0.0230064 0.
0.555968 0.0230064 0.
0.55797 0.0230065 0.
0.559971 0.0230066 0.
0.561973 0.0230067 0.
0.563975 0.0230066 0.
0.565976 0.0230066 0.
0.567978 0.0230068 0.
0.569979 0.0230071 0.
0.571981 0.0230074 0.
0.573983 0.0230078 0.
0.575985 0.0230083 0.
0.577986 0.0230087 0.
0.579988 0.0230084 0.
0.58199 0.0230081 0.
0.583991 0.0230079 0.
0.585992 0.0230079 0.
0.587993 0.0230078 0.
0.589995 0.0230078 0.
0.591996 0.0230078 0.
0.593997 0.0230079 0.
0.595998 0.0230078 0.
0.597999 0.0230076 0.
0.6 0.0230074 0.
0.602002 0.023007 0.
0.604003 0.0230065 0.
0.606004 0.0230062 0.
0.608006 0.0230064 0.
0.610007 0.0230066 0.
0.612009 0.0230067 0.
0.61401 0.0230067 0.
0.616012 0.0230067 0.
0.618013 0.0230068 0.
0.620015 0.0230069 0.
0.622016 0.023007 0.
0.624018 0.0230064 0.
0.62602 0.0230057 0.
0.628022 0.0230051 0.
0.630024 0.023005 0.
0.632026 0.023005 0.
0.634027 0.0230049 0.
0.636029 0.0230048 0.
0.638031 0.0230047 0.
0.640032 0.0230048 0.
0.642034 0.023005 0.
0.644035 0.0230052 0.
0.646037 0.0230055 0.
0.648039 0.0230058 0.
0.650041 0.0230061 0.
0.652042 0.0230059 0.
0.654044 0.0230057 0.
0.656045 0.0230056 0.
0.658047 0.0230058 0.
0.660048 0.023006 0.
0.66205 0.0230062 0.
0.664051 0.0230064 0.
0.666052 0.0230066 0.
0.668053 0.0230071 0.
0.670055 0.0230077 0.
0.672056 0.0230082 0.
0.674058 0.0230083 0.
0.676059 0.0230082 0.
0.678061 0.0230082 0.
0.680062 0.0230085 0.
0.682062 0.0230089 0.
0.684063 0.0230093 0.
0.686064 0.02301 0.
0.688065 0.0230108 0.
0.690066 0.0230115 0.
0.692067 0.0230123 0.
0.694068 0.0230132 0.
0.696069 0.0230141 0.
0.69807 0.0230151 0.
0.499932 0.0250168 0.
0.501933 0.0250155 0.
0.503934 0.025014 0.
0.505934 0.0250126 0.
0.507935 0.0250116 0.
0.509935 0.0250106 0.
0.511936 0.0250097 0.
0.513938 0.0250091 0.
0.515939 0.0250084 0.
0.51794 0.0250081 0.
0.519941 0.025008 0.
0.521941 0.0250079 0.
0.523943 0.0250073 0.
0.525944 0.0250067 0.
0.527946 0.0250061 0.
0.529947 0.0250062 0.
0.531949 0.0250063 0.
0.53395 0.0250064 0.
0.535951 0.0250064 0.
0.537953 0.0250064 0.
0.539954 0.0250062 0.
0.541956 0.0250059 0.
0.543958 0.0250055 0.
0.545959 0.0250055 0.
0.547961 0.0250057 0.
0.549962 0.0250059 0.
0.551965 0.0250061 0.
0.553967 0.0250062 0.
0.555969 0.0250064 0.
0.55797 0.0250065 0.
0.559972 0.0250066 0.
0.561973 0.0250067 0.
0.563975 0.0250067 0.
0.565977 0.0250067 0.
0.567978 0.0250069 0.
0.56998 0.0250071 0.
0.571981 0.0250074 0.
0.573983 0.025008 0.
0.575985 0.0250086 0.
0.577987 0.0250092 0.
0.579988 0.0250089 0.
0.58199 0.0250086 0.
0.583991 0.0250082 0.
0.585992 0.0250078 0.
0.587994 0.0250074 0.
0.589995 0.0250074 0.
0.591996 0.0250077 0.
0.593998 0.0250079 0.
0.595999 0.025008 0.
0.598 0.0250079 0.
0.600001 0.0250079 0.
0.602002 0.0250073 0.
0.604003 0.0250067 0.
0.606005 0.0250063 0.
0.608006 0.0250066 0.
0.610007 0.0250069 0.
0.612008 0.0250071 0.
0.61401 0.025007 0.
0.616011 0.0250068 0.
0.618013 0.0250069 0.
0.620014 0.0250069 0.
0.622016 0.025007 0.
0.624017 0.0250064 0.
0.626019 0.0250057 0.
0.628021 0.0250051 0.
0.630023 0.0250051 0.
0.632025 0.0250052 0.
0.634027 0.0250051 0.
0.636028 0.0250051 0.
0.63803 0.025005 0.
0.640031 0.025005 0.
0.642033 0.025005 0.
0.644034 0.0250051 0.
0.646036 0.0250052 0.
0.648038 0.0250053 0.
0.65004 0.0250054 0.
0.652041 0.0250056 0.
0.654043 0.0250058 0.
0.656045 0.025006 0.
0.658046 0.0250062 0.
0.660048 0.0250063 0.
0.662049 0.0250064 0.
0.66405 0.0250064 0.
0.666051 0.0250064 0.
0.668052 0.0250069 0.
0.670054 0.0250076 0.
0.672055 0.0250083 0.
0.674057 0.0250086 0.
0.676059 0.0250087 0.
0.67806 0.0250089 0.
0.680061 0.0250092 0.
0.682061 0.0250095 0.
0.684062 0.0250099 0.
0.686063 0.0250105 0.
0.688064 0.0250111 0.
0.690065 0.0250118 0.
0.692066 0.0250126 0.
0.694067 0.0250134 0.
0.696068 0.0250145 0.
0.698068 0.0250157 0.
0.499934 0.0270179 0.
0.501934 0.0270167 0.
0.503935 0.0270153 0.
0.505935 0.0270139 0.
0.507936 0.0270128 0.
0.509937 0.0270116 0.
0.511938 0.0270106 0.
0.513939 0.0270099 0.
0.51594 0.0270091 0.
0.517941 0.0270086 0.
0.519942 0.0270082 0.
0.521943 0.0270078 0.
0.523944 0.0270075 0.
0.525945 0.0270072 0.
0.527947 0.0270069 0.
0.529948 0.0270067 0.
0.53195 0.0270065 0.
0.533951 0.0270064 0.
0.535952 0.0270065 0.
0.537954 0.0270065 0.
0.539955 0.0270064 0.
0.541957 0.0270059 0.
0.543959 0.0270055 0.
0.54596 0.0270056 0.
0.547962 0.0270059 0.
0.549963 0.0270062 0.
0.551965 0.0270061 0.
0.553968 0.027006 0.
0.55597 0.0270059 0.
0.557971 0.0270063 0.
0.559972 0.0270066 0.
0.561974 0.0270068 0.
0.563975 0.0270068 0.
0.565977 0.0270068 0.
0.567978 0.0270068 0.
0.56998 0.0270068 0.
0.571981 0.0270069 0.
0.573983 0.0270076 0.
0.575985 0.0270084 0.
0.577987 0.0270091 0.
0.579989 0.0270088 0.
0.58199 0.0270086 0.
0.583991 0.0270084 0.
0.585992 0.0270083 0.
0.587994 0.0270082 0.
0.589995 0.0270082 0.
0.591996 0.0270082 0.
0.593998 0.0270083 0.
0.595999 0.0270082 0.
0.598 0.0270081 0.
0.600001 0.0270079 0.
0.602002 0.0270074 0.
0.604003 0.0270069 0.
0.606005 0.0270066 0.
0.608006 0.0270069 0.
0.610007 0.0270073 0.
0.612008 0.0270074 0.
0.61401 0.0270072 0.
0.616011 0.0270071 0.
0.618013 0.0270071 0.
0.620014 0.0270071 0.
0.622016 0.0270072 0.
0.624017 0.0270065 0.
0.626019 0.0270057 0.
0.628021 0.0270051 0.
0.630022 0.0270052 0.
0.632024 0.0270054 0.
0.634026 0.0270054 0.
0.636027 0.0270052 0.
0.638029 0.027005 0.
0.640031 0.0270049 0.
0.642032 0.0270049 0.
0.644033 0.0270049 0.
0.646035 0.0270051 0.
0.648037 0.0270053 0.
0.650039 0.0270054 0.
0.65204 0.0270055 0.
0.654042 0.0270055 0.
0.656043 0.0270056 0.
0.658045 0.0270059 0.
0.660046 0.0270062 0.
0.662048 0.0270063 0.
0.664049 0.0270064 0.
0.66605 0.0270064 0.
0.668051 0.027007 0.
0.670053 0.0270079 0.
0.672054 0.0270087 0.
0.674056 0.0270089 0.
0.676057 0.027009 0.
0.678059 0.0270092 0.
0.68006 0.0270095 0.
0.68206 0.0270099 0.
0.684061 0.0270104 0.
0.686062 0.0270112 0.
0.688063 0.027012 0.
0.690064 0.0270129 0.
0.692065 0.0270137 0.
0.694066 0.0270146 0.
0.696067 0.0270158 0.
0.698068 0.0270172 0.
0.499935 0.0290191 0.
0.501936 0.0290179 0.
0.503936 0.0290166 0.
0.505937 0.0290153 0.
0.507937 0.029014 0.
0.509938 0.0290127 0.
0.511939 0.0290116 0.
0.51394 0.0290107 0.
0.515941 0.0290098 0.
0.517942 0.0290091 0.
0.519943 0.0290084 0.
0.521945 0.0290078 0.
0.523946 0.0290077 0.
0.525947 0.0290078 0.
0.527948 0.0290078 0.
0.529949 0.0290073 0.
0.531951 0.0290067 0.
0.533952 0.0290064 0.
0.535953 0.0290065 0.
0.537955 0.0290067 0.
0.539956 0.0290065 0.
0.541958 0.029006 0.
0.54396 0.0290055 0.
0.545961 0.0290057 0.
0.547963 0.0290062 0.
0.549964 0.0290066 0.
0.551966 0.0290061 0.
0.553968 0.0290057 0.
0.55597 0.0290054 0.
0.557972 0.029006 0.
0.559973 0.0290066 0.
0.561974 0.0290069 0.
0.563975 0.0290069 0.
0.565977 0.0290068 0.
0.567978 0.0290067 0.
0.56998 0.0290066 0.
0.571981 0.0290064 0.
0.573983 0.0290072 0.
0.575985 0.0290082 0.
0.577988 0.0290091 0.
0.579989 0.0290088 0.
0.58199 0.0290086 0.
0.583991 0.0290085 0.
0.585992 0.0290087 0.
0.587993 0.0290089 0.
0.589995 0.0290089 0.
0.591996 0.0290088 0.
0.593997 0.0290087 0.
0.595999 0.0290084 0.
0.598 0.0290082 0.
0.600001 0.029008 0.
0.602002 0.0290075 0.
0.604003 0.0290071 0.
0.606005 0.0290069 0.
0.608006 0.0290072 0.
0.610007 0.0290076 0.
0.612008 0.0290077 0.
0.61401 0.0290075 0.
0.616011 0.0290073 0.
0.618013 0.0290073 0.
0.620014 0.0290073 0.
0.622016 0.0290074 0.
0.624018 0.0290066 0.
0.626019 0.0290057 0.
0.628021 0.029005 0.
0.630022 0.0290053 0.
0.632023 0.0290055 0.
0.634025 0.0290056 0.
0.636026 0.0290053 0.
0.638028 0.029005 0.
0.64003 0.0290048 0.
0.642031 0.0290048 0.
0.644033 0.0290048 0.
0.646035 0.0290049 0.
0.648036 0.0290052 0.
0.650038 0.0290054 0.
0.652039 0.0290053 0.
0.65404 0.0290051 0.
0.656042 0.0290051 0.
0.658043 0.0290056 0.
0.660045 0.029006 0.
0.662046 0.0290063 0.
0.664047 0.0290064 0.
0.666049 0.0290065 0.
0.66805 0.0290072 0.
0.670051 0.0290081 0.
0.672053 0.0290091 0.
0.674054 0.0290093 0.
0.676056 0.0290093 0.
0.678058 0.0290095 0.
0.680059 0.0290099 0.
0.682059 0.0290103 0.
0.68406 0.0290109 0.
0.686061 0.029012 0.
0.688062 0.029013 0.
0.690063 0.0290139 0.
0.692064 0.0290148 0.
0.694065 0.0290157 0.
0.696066 0.0290171 0.
0.698067 0.0290186 0.
0.499937 0.0310201 0.
0.501937 0.0310187 0.
0.503937 0.0310173 0.
0.505938 0.0310159 0.
0.507939 0.0310146 0.
0.50994 0.0310132 0.
0.51194 0.0310121 0.
0.513942 0.0310112 0.
0.515943 0.0310103 0.
0.517944 0.0310095 0.
0.519945 0.0310087 0.
0.521946 0.031008 0.
0.523947 0.031008 0.
0.525948 0.0310081 0.
0.527949 0.0310081 0.
0.52995 0.0310076 0.
0.531952 0.0310071 0.
0.533953 0.0310068 0.
0.535955 0.0310068 0.
0.537956 0.0310068 0.
0.539957 0.0310066 0.
0.541959 0.0310062 0.
0.543961 0.0310058 0.
0.545962 0.0310059 0.
0.547964 0.0310062 0.
0.549965 0.0310064 0.
0.551967 0.031006 0.
0.553969 0.0310056 0.
0.555971 0.0310054 0.
0.557972 0.0310059 0.
0.559973 0.0310064 0.
0.561974 0.0310067 0.
0.563976 0.0310067 0.
0.565977 0.0310067 0.
0.567978 0.0310065 0.
0.56998 0.0310063 0.
0.571981 0.031006 0.
0.573983 0.031007 0.
0.575986 0.0310082 0.
0.577988 0.0310092 0.
0.579989 0.031009 0.
0.58199 0.0310088 0.
0.583991 0.0310088 0.
0.585992 0.0310091 0.
0.587993 0.0310094 0.
0.589994 0.0310094 0.
0.591996 0.0310093 0.
0.593997 0.0310091 0.
0.595998 0.0310088 0.
0.597999 0.0310084 0.
0.600001 0.031008 0.
0.602002 0.0310077 0.
0.604003 0.0310074 0.
0.606005 0.0310073 0.
0.608006 0.0310076 0.
0.610007 0.0310079 0.
0.612009 0.0310081 0.
0.61401 0.0310079 0.
0.616011 0.0310077 0.
0.618013 0.0310076 0.
0.620014 0.0310076 0.
0.622016 0.0310075 0.
0.624017 0.0310067 0.
0.626019 0.0310057 0.
0.628021 0.031005 0.
0.630022 0.0310053 0.
0.632023 0.0310056 0.
0.634024 0.0310057 0.
0.636026 0.0310053 0.
0.638028 0.031005 0.
0.640029 0.0310048 0.
0.642031 0.0310047 0.
0.644032 0.0310046 0.
0.646034 0.0310048 0.
0.648036 0.0310051 0.
0.650038 0.0310053 0.
0.652039 0.0310052 0.
0.654039 0.0310052 0.
0.65604 0.0310052 0.
0.658042 0.0310057 0.
0.660043 0.0310062 0.
0.662044 0.0310065 0.
0.664046 0.0310066 0.
0.666048 0.0310067 0.
0.668049 0.0310074 0.
0.67005 0.0310082 0.
0.672051 0.0310091 0.
0.674053 0.0310093 0.
0.676055 0.0310095 0.
0.678057 0.0310096 0.
0.680057 0.0310101 0.
0.682058 0.0310106 0.
0.684059 0.0310113 0.
0.68606 0.0310124 0.
0.688061 0.0310135 0.
0.690062 0.0310145 0.
0.692063 0.0310156 0.
0.694063 0.0310166 0.
0.696064 0.031018 0.
0.698065 0.0310194 0.
0.499937 0.033021 0.
0.501938 0.0330192 0.
0.503939 0.0330174 0.
0.50594 0.0330158 0.
0.507941 0.0330145 0.
0.509941 0.0330133 0.
0.511942 0.0330122 0.
0.513943 0.0330114 0.
0.515944 0.0330105 0.
0.517945 0.0330097 0.
0.519946 0.0330091 0.
0.521947 0.0330084 0.
0.523948 0.0330082 0.
0.525949 0.0330081 0.
0.52795 0.033008 0.
0.529952 0.0330078 0.
0.531953 0.0330076 0.
0.533955 0.0330074 0.
0.535956 0.0330071 0.
0.537957 0.0330068 0.
0.539958 0.0330066 0.
0.54196 0.0330064 0.
0.543962 0.0330062 0.
0.545963 0.0330061 0.
0.547964 0.0330059 0.
0.549966 0.0330058 0.
0.551968 0.0330057 0.
0.55397 0.0330057 0.
0.555971 0.0330056 0.
0.557972 0.0330059 0.
0.559973 0.0330061 0.
0.561974 0.0330062 0.
0.563976 0.0330063 0.
0.565977 0.0330063 0.
0.567979 0.0330062 0.
0.56998 0.033006 0.
0.571982 0.0330058 0.
0.573984 0.033007 0.
0.575986 0.0330083 0.
0.577987 0.0330095 0.
0.579989 0.0330094 0.
0.58199 0.0330093 0.
0.583991 0.0330093 0.
0.585992 0.0330095 0.
0.587993 0.0330096 0.
0.589994 0.0330097 0.
0.591995 0.0330097 0.
0.593996 0.0330097 0.
0.595998 0.0330093 0.
0.597999 0.0330087 0.
0.600001 0.0330081 0.
0.602002 0.033008 0.
0.604004 0.0330078 0.
0.606005 0.0330078 0.
0.608006 0.0330081 0.
0.610008 0.0330083 0.
0.612009 0.0330084 0.
0.61401 0.0330084 0.
0.616011 0.0330083 0.
0.618012 0.0330081 0.
0.620014 0.0330078 0.
0.622015 0.0330075 0.
0.624017 0.0330067 0.
0.626018 0.0330057 0.
0.62802 0.033005 0.
0.630021 0.0330052 0.
0.632023 0.0330054 0.
0.634024 0.0330055 0.
0.636026 0.0330053 0.
0.638028 0.0330052 0.
0.640029 0.0330049 0.
0.64203 0.0330046 0.
0.644032 0.0330044 0.
0.646034 0.0330046 0.
0.648035 0.0330049 0.
0.650037 0.0330052 0.
0.652038 0.0330054 0.
0.654038 0.0330055 0.
0.656039 0.0330058 0.
0.658041 0.0330062 0.
0.660042 0.0330066 0.
0.662043 0.0330069 0.
0.664044 0.033007 0.
0.666046 0.0330071 0.
0.668047 0.0330075 0.
0.670049 0.0330082 0.
0.67205 0.0330088 0.
0.674052 0.0330091 0.
0.676054 0.0330094 0.
0.678055 0.0330097 0.
0.680056 0.0330103 0.
0.682057 0.0330109 0.
0.684058 0.0330116 0.
0.686058 0.0330126 0.
0.688059 0.0330136 0.
0.69006 0.0330147 0.
0.692061 0.0330159 0.
0.694063 0.0330171 0.
0.696063 0.0330183 0.
0.698064 0.0330196 0.
0.499938 0.0350218 0.
0.501939 0.0350196 0.
0.50394 0.0350176 0.
0.505941 0.0350157 0.
0.507942 0.0350145 0.
0.509943 0.0350134 0.
0.511944 0.0350124 0.
0.513945 0.0350115 0.
0.515946 0.0350107 0.
0.517947 0.03501 0.
0.519947 0.0350094 0.
0.521948 0.0350088 0.
0.523949 0.0350085 0.
0.525951 0.0350082 0.
0.527952 0.0350079 0.
0.529953 0.035008 0.
0.531955 0.0350081 0.
0.533956 0.0350081 0.
0.535957 0.0350075 0.
0.537958 0.0350069 0.
0.539959 0.0350067 0.
0.541961 0.0350066 0.
0.543962 0.0350066 0.
0.545964 0.0350062 0.
0.547965 0.0350057 0.
0.549967 0.0350052 0.
0.551968 0.0350055 0.
0.55397 0.0350057 0.
0.555972 0.0350059 0.
0.557973 0.0350058 0.
0.559973 0.0350057 0.
0.561974 0.0350057 0.
0.563976 0.0350058 0.
0.565977 0.0350059 0.
0.567979 0.0350059 0.
0.569981 0.0350057 0.
0.571983 0.0350056 0.
0.573984 0.0350069 0.
0.575986 0.0350084 0.
0.577987 0.0350097 0.
0.579988 0.0350098 0.
0.58199 0.0350098 0.
0.583991 0.0350098 0.
0.585992 0.0350099 0.
0.587993 0.0350099 0.
0.589994 0.03501 0.
0.591995 0.0350101 0.
0.593996 0.0350103 0.
0.595997 0.0350097 0.
0.597999 0.035009 0.
0.600001 0.0350082 0.
0.602002 0.0350082 0.
0.604004 0.0350083 0.
0.606006 0.0350083 0.
0.608007 0.0350085 0.
0.610008 0.0350087 0.
0.612009 0.0350088 0.
0.61401 0.0350089 0.
0.616011 0.0350089 0.
0.618012 0.0350086 0.
0.620013 0.0350081 0.
0.622014 0.0350075 0.
0.624016 0.0350067 0.
0.626018 0.0350058 0.
0.62802 0.035005 0.
0.630021 0.0350051 0.
0.632023 0.0350053 0.
0.634024 0.0350053 0.
0.636026 0.0350053 0.
0.638027 0.0350053 0.
0.640029 0.035005 0.
0.64203 0.0350046 0.
0.644031 0.0350042 0.
0.646033 0.0350044 0.
0.648035 0.0350047 0.
0.650036 0.0350051 0.
0.652037 0.0350055 0.
0.654038 0.0350059 0.
0.656038 0.0350063 0.
0.658039 0.0350067 0.
0.66004 0.035007 0.
0.662042 0.0350072 0.
0.664043 0.0350073 0.
0.666044 0.0350074 0.
0.668046 0.0350077 0.
0.670047 0.0350081 0.
0.672049 0.0350086 0.
0.67405 0.035009 0.
0.676052 0.0350093 0.
0.678054 0.0350098 0.
0.680055 0.0350104 0.
0.682055 0.0350111 0.
0.684056 0.0350118 0.
0.686057 0.0350127 0.
0.688058 0.0350136 0.
0.690059 0.0350148 0.
0.69206 0.0350162 0.
0.694062 0.0350176 0.
0.696062 0.0350187 0.
0.698063 0.0350197 0.
0.49994 0.0370225 0.
0.501941 0.0370204 0.
0.503942 0.0370184 0.
0.505942 0.0370166 0.
0.507943 0.0370154 0.
0.509944 0.0370142 0.
0.511945 0.0370132 0.
0.513946 0.0370123 0.
0.515947 0.0370113 0.
0.517948 0.0370105 0.
0.519949 0.0370097 0.
0.52195 0.037009 0.
0.523951 0.0370086 0.
0.525952 0.0370084 0.
0.527953 0.0370081 0.
0.529954 0.0370081 0.
0.531955 0.0370081 0.
0.533957 0.0370079 0.
0.535958 0.0370076 0.
0.537959 0.0370073 0.
0.53996 0.0370071 0.
0.541962 0.037007 0.
0.543963 0.0370069 0.
0.545965 0.0370066 0.
0.547966 0.0370063 0.
0.549967 0.037006 0.
0.551969 0.0370057 0.
0.553971 0.0370055 0.
0.555972 0.0370054 0.
0.557973 0.0370055 0.
0.559974 0.0370057 0.
0.561975 0.0370058 0.
0.563976 0.0370058 0.
0.565978 0.0370058 0.
0.567979 0.0370059 0.
0.569981 0.0370061 0.
0.571982 0.0370063 0.
0.573984 0.0370073 0.
0.575985 0.0370084 0.
0.577987 0.0370094 0.
0.579989 0.0370095 0.
0.58199 0.0370097 0.
0.583992 0.0370098 0.
0.585993 0.0370097 0.
0.587994 0.0370096 0.
0.589994 0.0370097 0.
0.591995 0.0370098 0.
0.593996 0.03701 0.
0.595998 0.0370095 0.
0.597999 0.0370089 0.
0.600001 0.0370082 0.
0.602002 0.0370083 0.
0.604004 0.0370083 0.
0.606005 0.0370084 0.
0.608006 0.0370088 0.
0.610007 0.0370091 0.
0.612008 0.0370092 0.
0.61401 0.0370089 0.
0.616011 0.0370087 0.
0.618012 0.0370083 0.
0.620014 0.0370078 0.
0.622015 0.0370074 0.
0.624017 0.0370067 0.
0.626018 0.037006 0.
0.62802 0.0370053 0.
0.630021 0.0370051 0.
0.632023 0.0370049 0.
0.634024 0.0370048 0.
0.636026 0.0370048 0.
0.638027 0.0370049 0.
0.640028 0.0370048 0.
0.642029 0.0370046 0.
0.644031 0.0370044 0.
0.646032 0.0370047 0.
0.648034 0.0370052 0.
0.650035 0.0370057 0.
0.652036 0.0370061 0.
0.654037 0.0370065 0.
0.656037 0.0370068 0.
0.658038 0.0370071 0.
0.660039 0.0370074 0.
0.662041 0.0370074 0.
0.664042 0.0370073 0.
0.666043 0.0370072 0.
0.668045 0.0370075 0.
0.670046 0.037008 0.
0.672047 0.0370086 0.
0.674049 0.0370091 0.
0.676051 0.0370096 0.
0.678052 0.0370101 0.
0.680053 0.0370109 0.
0.682054 0.0370117 0.
0.684055 0.0370125 0.
0.686056 0.0370134 0.
0.688057 0.0370143 0.
0.690058 0.0370155 0.
0.692059 0.0370169 0.
0.69406 0.0370183 0.
0.696061 0.0370194 0.
0.698062 0.0370204 0.
0.499943 0.0390231 0.
0.501943 0.0390211 0.
0.503943 0.0390192 0.
0.505943 0.0390175 0.
0.507944 0.0390163 0.
0.509945 0.0390151 0.
0.511946 0.039014 0.
0.513947 0.039013 0.
0.515948 0.039012 0.
0.517949 0.039011 0.
0.51995 0.0390101 0.
0.521951 0.0390091 0.
0.523952 0.0390088 0.
0.525953 0.0390086 0.
0.527954 0.0390084 0.
0.529955 0.0390082 0.
0.531956 0.039008 0.
0.533958 0.0390078 0.
0.535959 0.0390078 0.
0.53796 0.0390077 0.
0.539961 0.0390076 0.
0.541963 0.0390074 0.
0.543964 0.0390072 0.
0.545965 0.039007 0.
0.547966 0.0390069 0.
0.549967 0.0390067 0.
0.551969 0.039006 0.
0.553971 0.0390053 0.
0.555973 0.0390048 0.
0.557974 0.0390053 0.
0.559975 0.0390057 0.
0.561976 0.0390059 0.
0.563977 0.0390057 0.
0.565979 0.0390056 0.
0.56798 0.0390059 0.
0.569981 0.0390064 0.
0.571982 0.039007 0.
0.573983 0.0390076 0.
0.575985 0.0390083 0.
0.577987 0.039009 0.
0.579989 0.0390093 0.
0.581991 0.0390096 0.
0.583992 0.0390098 0.
0.585993 0.0390096 0.
0.587994 0.0390094 0.
0.589995 0.0390094 0.
0.591996 0.0390095 0.
0.593997 0.0390097 0.
0.595998 0.0390093 0.
0.597999 0.0390088 0.
0.6 0.0390083 0.
0.602002 0.0390083 0.
0.604003 0.0390084 0.
0.606005 0.0390086 0.
0.608006 0.039009 0.
0.610007 0.0390095 0.
0.612008 0.0390095 0.
0.614009 0.0390089 0.
0.616011 0.0390084 0.
0.618012 0.039008 0.
0.620014 0.0390076 0.
0.622016 0.0390072 0.
0.624017 0.0390067 0.
0.626018 0.0390062 0.
0.62802 0.0390056 0.
0.630021 0.0390051 0.
0.632022 0.0390045 0.
0.634024 0.0390042 0.
0.636025 0.0390044 0.
0.638026 0.0390045 0.
0.640028 0.0390046 0.
0.642029 0.0390046 0.
0.64403 0.0390046 0.
0.646031 0.0390051 0.
0.648033 0.0390058 0.
0.650034 0.0390064 0.
0.652035 0.0390067 0.
0.654036 0.039007 0.
0.656036 0.0390072 0.
0.658038 0.0390075 0.
0.660039 0.0390077 0.
0.66204 0.0390076 0.
0.664041 0.0390073 0.
0.666042 0.039007 0.
0.668043 0.0390073 0.
0.670045 0.039008 0.
0.672046 0.0390086 0.
0.674048 0.0390092 0.
0.676049 0.0390097 0.
0.678051 0.0390104 0.
0.680052 0.0390113 0.
0.682053 0.0390122 0.
0.684054 0.0390131 0.
0.686055 0.0390141 0.
0.688056 0.039015 0.
0.690057 0.0390162 0.
0.692058 0.0390176 0.
0.694059 0.0390191 0.
0.69606 0.0390201 0.
0.698061 0.039021 0.
0.499945 0.0410239 0.
0.501945 0.0410217 0.
0.503945 0.0410198 0.
0.505945 0.0410179 0.
0.507946 0.0410168 0.
0.509946 0.0410156 0.
0.511947 0.0410144 0.
0.513948 0.0410134 0.
0.515949 0.0410123 0.
0.51795 0.0410113 0.
0.519951 0.0410103 0.
0.521953 0.0410094 0.
0.523953 0.041009 0.
0.525954 0.0410088 0.
0.527955 0.0410085 0.
0.529956 0.0410082 0.
0.531957 0.0410079 0.
0.533959 0.0410077 0.
0.53596 0.0410078 0.
0.537961 0.0410079 0.
0.539962 0.0410078 0.
0.541964 0.0410076 0.
0.543965 0.0410075 0.
0.545966 0.0410073 0.
0.547967 0.0410071 0.
0.549968 0.0410069 0.
0.55197 0.0410061 0.
0.553972 0.0410053 0.
0.555973 0.0410047 0.
0.557974 0.0410051 0.
0.559975 0.0410055 0.
0.561976 0.0410057 0.
0.563977 0.0410057 0.
0.565979 0.0410056 0.
0.56798 0.041006 0.
0.569981 0.0410066 0.
0.571982 0.0410072 0.
0.573983 0.0410077 0.
0.575985 0.0410083 0.
0.577987 0.0410088 0.
0.579989 0.0410092 0.
0.581991 0.0410097 0.
0.583992 0.0410099 0.
0.585993 0.0410096 0.
0.587994 0.0410094 0.
0.589995 0.0410093 0.
0.591996 0.0410095 0.
0.593997 0.0410096 0.
0.595998 0.0410093 0.
0.597999 0.0410088 0.
0.6 0.0410084 0.
0.602002 0.0410085 0.
0.604003 0.0410086 0.
0.606004 0.0410088 0.
0.608006 0.0410092 0.
0.610007 0.0410096 0.
0.612008 0.0410096 0.
0.614009 0.041009 0.
0.616011 0.0410084 0.
0.618012 0.0410079 0.
0.620014 0.0410076 0.
0.622016 0.0410072 0.
0.624017 0.0410067 0.
0.626018 0.0410062 0.
0.62802 0.0410056 0.
0.630021 0.041005 0.
0.632022 0.0410044 0.
0.634023 0.0410041 0.
0.636025 0.0410044 0.
0.638026 0.0410047 0.
0.640027 0.0410048 0.
0.642028 0.0410048 0.
0.644029 0.0410047 0.
0.64603 0.0410053 0.
0.648032 0.0410061 0.
0.650033 0.0410068 0.
0.652034 0.0410071 0.
0.654035 0.0410074 0.
0.656036 0.0410076 0.
0.658037 0.0410077 0.
0.660038 0.0410078 0.
0.662039 0.0410077 0.
0.66404 0.0410073 0.
0.666041 0.041007 0.
0.668042 0.0410073 0.
0.670043 0.0410079 0.
0.672045 0.0410085 0.
0.674046 0.0410091 0.
0.676048 0.0410097 0.
0.67805 0.0410103 0.
0.680051 0.0410113 0.
0.682051 0.0410122 0.
0.684052 0.0410132 0.
0.686054 0.0410143 0.
0.688055 0.0410154 0.
0.690056 0.0410167 0.
0.692057 0.0410182 0.
0.694058 0.0410196 0.
0.696059 0.0410207 0.
0.69806 0.0410218 0.
0.499946 0.0430247 0.
0.501946 0.0430222 0.
0.503947 0.04302 0.
0.505947 0.043018 0.
0.507948 0.0430169 0.
0.509948 0.0430158 0.
0.511949 0.0430147 0.
0.51395 0.0430134 0.
0.515951 0.0430122 0.
0.517952 0.0430112 0.
0.519953 0.0430104 0.
0.521954 0.0430096 0.
0.523955 0.0430092 0.
0.525955 0.0430089 0.
0.527956 0.0430085 0.
0.529958 0.0430082 0.
0.531959 0.0430078 0.
0.53396 0.0430076 0.
0.535961 0.0430077 0.
0.537962 0.0430078 0.
0.539963 0.0430078 0.
0.541965 0.0430078 0.
0.543966 0.0430078 0.
0.545967 0.0430074 0.
0.547968 0.0430069 0.
0.54997 0.0430063 0.
0.551971 0.0430059 0.
0.553973 0.0430055 0.
0.555974 0.0430051 0.
0.557974 0.0430052 0.
0.559975 0.0430052 0.
0.561976 0.0430053 0.
0.563977 0.0430056 0.
0.565979 0.0430058 0.
0.56798 0.0430062 0.
0.569981 0.0430066 0.
0.571982 0.043007 0.
0.573984 0.0430076 0.
0.575985 0.0430082 0.
0.577987 0.0430088 0.
0.579989 0.0430093 0.
0.581991 0.0430098 0.
0.583992 0.04301 0.
0.585993 0.0430098 0.
0.587994 0.0430096 0.
0.589995 0.0430095 0.
0.591996 0.0430096 0.
0.593997 0.0430097 0.
0.595998 0.0430094 0.
0.597999 0.0430091 0.
0.6 0.0430087 0.
0.602002 0.0430088 0.
0.604003 0.0430089 0.
0.606004 0.043009 0.
0.608005 0.0430093 0.
0.610007 0.0430095 0.
0.612008 0.0430094 0.
0.614009 0.043009 0.
0.616011 0.0430085 0.
0.618012 0.0430082 0.
0.620014 0.0430078 0.
0.622016 0.0430075 0.
0.624017 0.0430068 0.
0.626018 0.043006 0.
0.628019 0.0430052 0.
0.630021 0.0430048 0.
0.632022 0.0430043 0.
0.634023 0.0430042 0.
0.636024 0.0430048 0.
0.638025 0.0430054 0.
0.640026 0.0430055 0.
0.642027 0.0430052 0.
0.644028 0.0430048 0.
0.646029 0.0430054 0.
0.648031 0.0430061 0.
0.650032 0.0430069 0.
0.652033 0.0430072 0.
0.654034 0.0430076 0.
0.656035 0.0430078 0.
0.658036 0.0430078 0.
0.660036 0.0430077 0.
0.662037 0.0430076 0.
0.664038 0.0430074 0.
0.66604 0.0430072 0.
0.668041 0.0430074 0.
0.670042 0.0430078 0.
0.672043 0.0430082 0.
0.674045 0.0430088 0.
0.676047 0.0430094 0.
0.678048 0.04301 0.
0.680049 0.0430108 0.
0.68205 0.0430116 0.
0.684051 0.0430126 0.
0.686052 0.0430141 0.
0.688053 0.0430155 0.
0.690054 0.043017 0.
0.692055 0.0430185 0.
0.694056 0.04302 0.
0.696057 0.0430213 0.
0.698058 0.0430225 0.
0.499947 0.0450255 0.
0.501948 0.0450227 0.
0.503949 0.0450202 0.
0.505949 0.045018 0.
0.50795 0.045017 0.
0.50995 0.045016 0.
0.511951 0.0450149 0.
0.513952 0.0450135 0.
0.515953 0.0450121 0.
0.517953 0.0450112 0.
0.519954 0.0450105 0.
0.521955 0.0450099 0.
0.523956 0.0450094 0.
0.525957 0.0450089 0.
0.527958 0.0450085 0.
0.529959 0.0450081 0.
0.531961 0.0450078 0.
0.533962 0.0450076 0.
0.535963 0.0450076 0.
0.537964 0.0450077 0.
0.539965 0.0450078 0.
0.541966 0.045008 0.
0.543967 0.0450081 0.
0.545968 0.0450075 0.
0.54797 0.0450066 0.
0.549971 0.0450058 0.
0.551972 0.0450057 0.
0.553974 0.0450056 0.
0.555975 0.0450055 0.
0.557975 0.0450052 0.
0.559975 0.0450049 0.
0.561975 0.0450049 0.
0.563977 0.0450055 0.
0.565978 0.045006 0.
0.56798 0.0450063 0.
0.569981 0.0450066 0.
0.571982 0.0450068 0.
0.573984 0.0450074 0.
0.575986 0.0450082 0.
0.577987 0.0450089 0.
0.579989 0.0450094 0.
0.581991 0.0450099 0.
0.583992 0.0450101 0.
0.585993 0.04501 0.
0.587994 0.0450098 0.
0.589995 0.0450097 0.
0.591996 0.0450098 0.
0.593997 0.0450098 0.
0.595998 0.0450096 0.
0.597999 0.0450093 0.
0.6 0.0450089 0.
0.602001 0.0450091 0.
0.604003 0.0450092 0.
0.606004 0.0450093 0.
0.608005 0.0450094 0.
0.610007 0.0450094 0.
0.612008 0.0450093 0.
0.614009 0.045009 0.
0.616011 0.0450087 0.
0.618012 0.0450084 0.
0.620014 0.0450081 0.
0.622015 0.0450078 0.
0.624017 0.0450068 0.
0.626018 0.0450058 0.
0.628019 0.0450048 0.
0.63002 0.0450046 0.
0.632021 0.0450043 0.
0.634022 0.0450044 0.
0.636024 0.0450053 0.
0.638025 0.0450062 0.
0.640026 0.0450062 0.
0.642026 0.0450056 0.
0.644027 0.0450049 0.
0.646028 0.0450054 0.
0.64803 0.0450062 0.
0.650032 0.0450069 0.
0.652032 0.0450073 0.
0.654033 0.0450078 0.
0.656034 0.0450081 0.
0.658035 0.0450078 0.
0.660035 0.0450076 0.
0.662036 0.0450075 0.
0.664037 0.0450074 0.
0.666038 0.0450074 0.
0.668039 0.0450075 0.
0.67004 0.0450077 0.
0.672042 0.0450079 0.
0.674043 0.0450085 0.
0.676045 0.0450091 0.
0.678047 0.0450096 0.
0.680048 0.0450103 0.
0.682049 0.045011 0.
0.68405 0.0450121 0.
0.686051 0.0450139 0.
0.688052 0.0450157 0.
0.690053 0.0450173 0.
0.692054 0.0450188 0.
0.694055 0.0450204 0.
0.696055 0.0450218 0.
0.698056 0.0450233 0.
0.499949 0.047026 0.
0.501949 0.0470232 0.
0.50395 0.0470208 0.
0.50595 0.0470186 0.
0.507951 0.0470173 0.
0.509951 0.047016 0.
0.511952 0.0470148 0.
0.513953 0.0470136 0.
0.515954 0.0470124 0.
0.517955 0.0470115 0.
0.519956 0.0470107 0.
0.521957 0.0470099 0.
0.523957 0.0470094 0.
0.525958 0.0470089 0.
0.527959 0.0470084 0.
0.52996 0.047008 0.
0.531961 0.0470076 0.
0.533963 0.0470074 0.
0.535964 0.0470076 0.
0.537965 0.0470078 0.
0.539966 0.0470078 0.
0.541967 0.0470078 0.
0.543968 0.0470078 0.
0.545969 0.0470074 0.
0.54797 0.0470069 0.
0.549972 0.0470064 0.
0.551973 0.047006 0.
0.553974 0.0470056 0.
0.555975 0.0470052 0.
0.557975 0.047005 0.
0.559976 0.0470048 0.
0.561976 0.0470049 0.
0.563977 0.0470052 0.
0.565979 0.0470056 0.
0.56798 0.0470059 0.
0.569981 0.0470062 0.
0.571982 0.0470065 0.
0.573984 0.0470071 0.
0.575986 0.0470077 0.
0.577988 0.0470083 0.
0.579989 0.0470087 0.
0.58199 0.0470091 0.
0.583992 0.0470094 0.
0.585993 0.0470094 0.
0.587994 0.0470094 0.
0.589995 0.0470095 0.
0.591997 0.0470095 0.
0.593998 0.0470096 0.
0.595999 0.0470094 0.
0.597999 0.0470092 0.
0.6 0.047009 0.
0.602001 0.0470092 0.
0.604002 0.0470093 0.
0.606004 0.0470094 0.
0.608005 0.0470094 0.
0.610007 0.0470094 0.
0.612008 0.0470092 0.
0.614009 0.0470088 0.
0.616011 0.0470084 0.
0.618012 0.0470081 0.
0.620014 0.0470079 0.
0.622015 0.0470077 0.
0.624016 0.0470069 0.
0.626018 0.0470061 0.
0.628019 0.0470053 0.
0.63002 0.047005 0.
0.632021 0.0470047 0.
0.634022 0.0470047 0.
0.636023 0.0470053 0.
0.638024 0.0470058 0.
0.640025 0.047006 0.
0.642026 0.0470057 0.
0.644027 0.0470055 0.
0.646028 0.0470061 0.
0.648029 0.0470068 0.
0.65003 0.0470076 0.
0.652031 0.0470076 0.
0.654032 0.0470076 0.
0.656033 0.0470077 0.
0.658034 0.0470077 0.
0.660034 0.0470077 0.
0.662035 0.0470076 0.
0.664037 0.0470075 0.
0.666038 0.0470073 0.
0.668039 0.0470074 0.
0.67004 0.0470076 0.
0.672041 0.0470078 0.
0.674042 0.0470083 0.
0.676044 0.0470087 0.
0.678045 0.0470092 0.
0.680046 0.0470102 0.
0.682047 0.0470112 0.
0.684048 0.0470124 0.
0.686049 0.0470141 0.
0.68805 0.0470158 0.
0.690051 0.0470174 0.
0.692052 0.0470191 0.
0.694053 0.0470208 0.
0.696053 0.0470223 0.
0.698054 0.0470237 0.
0.499951 0.0490265 0.
0.501951 0.0490238 0.
0.503951 0.0490214 0.
0.505951 0.0490192 0.
0.507952 0.0490176 0.
0.509952 0.049016 0.
0.511953 0.0490147 0.
0.513954 0.0490137 0.
0.515955 0.0490128 0.
0.517956 0.0490119 0.
0.519957 0.0490109 0.
0.521958 0.04901 0.
0.523958 0.0490094 0.
0.525959 0.0490089 0.
0.527959 0.0490084 0.
0.529961 0.0490079 0.
0.531962 0.0490075 0.
0.533964 0.0490072 0.
0.535965 0.0490075 0.
0.537965 0.0490078 0.
0.539967 0.0490079 0.
0.541968 0.0490077 0.
0.543969 0.0490075 0.
0.54597 0.0490073 0.
0.547971 0.0490072 0.
0.549972 0.049007 0.
0.551973 0.0490063 0.
0.553974 0.0490056 0.
0.555975 0.049005 0.
0.557976 0.0490049 0.
0.559976 0.0490048 0.
0.561977 0.0490048 0.
0.563978 0.049005 0.
0.565979 0.0490051 0.
0.56798 0.0490054 0.
0.569981 0.0490058 0.
0.571982 0.0490061 0.
0.573984 0.0490066 0.
0.575986 0.0490072 0.
0.577988 0.0490077 0.
0.579989 0.049008 0.
0.58199 0.0490083 0.
0.583991 0.0490086 0.
0.585993 0.0490089 0.
0.587994 0.0490091 0.
0.589995 0.0490092 0.
0.591997 0.0490092 0.
0.593999 0.0490093 0.
0.595999 0.0490092 0.
0.598 0.0490092 0.
0.6 0.0490091 0.
0.602001 0.0490093 0.
0.604002 0.0490094 0.
0.606003 0.0490096 0.
0.608005 0.0490095 0.
0.610006 0.0490094 0.
0.612008 0.0490091 0.
0.61401 0.0490086 0.
0.616011 0.0490081 0.
0.618013 0.0490078 0.
0.620014 0.0490078 0.
0.622015 0.0490077 0.
0.624016 0.049007 0.
0.626017 0.0490064 0.
0.628019 0.0490057 0.
0.630019 0.0490054 0.
0.63202 0.0490051 0.
0.634021 0.049005 0.
0.636022 0.0490053 0.
0.638024 0.0490055 0.
0.640025 0.0490057 0.
0.642026 0.0490059 0.
0.644027 0.0490061 0.
0.646028 0.0490068 0.
0.648029 0.0490075 0.
0.650029 0.0490082 0.
0.65203 0.0490079 0.
0.654031 0.0490075 0.
0.656031 0.0490073 0.
0.658033 0.0490075 0.
0.660034 0.0490077 0.
0.662035 0.0490078 0.
0.664036 0.0490075 0.
0.666037 0.0490073 0.
0.668038 0.0490074 0.
0.670039 0.0490075 0.
0.67204 0.0490077 0.
0.674041 0.049008 0.
0.676043 0.0490084 0.
0.678044 0.0490088 0.
0.680045 0.0490101 0.
0.682045 0.0490113 0.
0.684046 0.0490127 0.
0.686047 0.0490143 0.
0.688048 0.0490159 0.
0.690049 0.0490176 0.
0.69205 0.0490194 0.
0.694051 0.0490213 0.
0.696052 0.0490228 0.
0.698052 0.0490242 0.
0.499952 0.0510268 0.
0.501952 0.0510241 0.
0.503952 0.0510217 0.
0.505952 0.0510195 0.
0.507953 0.0510178 0.
0.509954 0.0510161 0.
0.511954 0.0510147 0.
0.513955 0.0510139 0.
0.515956 0.051013 0.
0.517957 0.0510121 0.
0.519958 0.0510112 0.
0.521959 0.0510103 0.
0.52396 0.0510096 0.
0.52596 0.0510089 0.
0.527961 0.0510082 0.
0.529962 0.0510078 0.
0.531963 0.0510074 0.
0.533965 0.0510073 0.
0.535966 0.0510076 0.
0.537967 0.051008 0.
0.539968 0.0510079 0.
0.541969 0.0510075 0.
0.54397 0.0510071 0.
0.545971 0.051007 0.
0.547972 0.0510071 0.
0.549973 0.0510071 0.
0.551974 0.0510064 0.
0.553975 0.0510057 0.
0.555976 0.051005 0.
0.557977 0.0510049 0.
0.559977 0.0510048 0.
0.561978 0.0510047 0.
0.563979 0.0510048 0.
0.565979 0.0510049 0.
0.56798 0.0510051 0.
0.569981 0.0510055 0.
0.571983 0.0510058 0.
0.573984 0.0510063 0.
0.575986 0.0510068 0.
0.577988 0.0510073 0.
0.579989 0.0510076 0.
0.58199 0.0510079 0.
0.583991 0.0510082 0.
0.585993 0.0510085 0.
0.587994 0.0510087 0.
0.589996 0.0510089 0.
0.591997 0.051009 0.
0.593999 0.0510091 0.
0.596 0.0510091 0.
0.598 0.051009 0.
0.6 0.0510089 0.
0.602001 0.051009 0.
0.604002 0.0510092 0.
0.606003 0.0510093 0.
0.608005 0.0510093 0.
0.610006 0.0510092 0.
0.612008 0.0510089 0.
0.614009 0.0510084 0.
0.616011 0.0510079 0.
0.618012 0.0510077 0.
0.620014 0.0510076 0.
0.622015 0.0510075 0.
0.624016 0.0510069 0.
0.626017 0.0510063 0.
0.628018 0.0510058 0.
0.630019 0.0510055 0.
0.632019 0.0510053 0.
0.63402 0.0510052 0.
0.636022 0.0510054 0.
0.638023 0.0510055 0.
0.640024 0.0510058 0.
0.642025 0.0510062 0.
0.644026 0.0510066 0.
0.646027 0.0510071 0.
0.648028 0.0510078 0.
0.650028 0.0510084 0.
0.652029 0.0510079 0.
0.65403 0.0510075 0.
0.65603 0.0510072 0.
0.658032 0.0510075 0.
0.660033 0.0510078 0.
0.662034 0.0510079 0.
0.664036 0.0510076 0.
0.666037 0.0510074 0.
0.668038 0.0510074 0.
0.670038 0.0510075 0.
0.672039 0.0510077 0.
0.67404 0.051008 0.
0.676041 0.0510083 0.
0.678042 0.0510088 0.
0.680043 0.0510101 0.
0.682044 0.0510114 0.
0.684045 0.0510127 0.
0.686046 0.0510143 0.
0.688046 0.0510158 0.
0.690047 0.0510176 0.
0.692048 0.0510194 0.
0.694049 0.0510213 0.
0.69605 0.0510228 0.
0.698051 0.0510243 0.
0.499954 0.0530268 0.
0.501954 0.0530241 0.
0.503954 0.0530217 0.
0.505954 0.0530195 0.
0.507955 0.0530179 0.
0.509955 0.0530163 0.
0.511956 0.0530149 0.
0.513957 0.053014 0.
0.515958 0.053013 0.
0.517958 0.0530123 0.
0.519959 0.0530116 0.
0.52196 0.053011 0.
0.523961 0.0530101 0.
0.525961 0.053009 0.
0.527962 0.0530081 0.
0.529963 0.0530078 0.
0.531964 0.0530075 0.
0.533966 0.0530075 0.
0.535967 0.0530078 0.
0.537968 0.0530082 0.
0.539969 0.053008 0.
0.54197 0.0530073 0.
0.543971 0.0530066 0.
0.545972 0.0530065 0.
0.547973 0.0530065 0.
0.549974 0.0530066 0.
0.551975 0.0530062 0.
0.553977 0.0530058 0.
0.555977 0.0530054 0.
0.557978 0.0530051 0.
0.559978 0.0530048 0.
0.561978 0.0530047 0.
0.563979 0.0530048 0.
0.56598 0.0530049 0.
0.567981 0.053005 0.
0.569982 0.0530052 0.
0.571983 0.0530054 0.
0.573985 0.0530059 0.
0.575986 0.0530064 0.
0.577988 0.053007 0.
0.579989 0.0530075 0.
0.581991 0.0530079 0.
0.583992 0.0530083 0.
0.585993 0.0530082 0.
0.587995 0.0530082 0.
0.589996 0.0530084 0.
0.591997 0.0530087 0.
0.593999 0.0530091 0.
0.595999 0.0530089 0.
0.598 0.0530087 0.
0.600001 0.0530084 0.
0.602002 0.0530085 0.
0.604003 0.0530087 0.
0.606004 0.0530088 0.
0.608005 0.0530088 0.
0.610006 0.0530088 0.
0.612007 0.0530086 0.
0.614009 0.0530082 0.
0.61601 0.0530078 0.
0.618012 0.0530076 0.
0.620013 0.0530074 0.
0.622015 0.0530072 0.
0.624016 0.0530066 0.
0.626017 0.053006 0.
0.628018 0.0530054 0.
0.630018 0.0530054 0.
0.632019 0.0530053 0.
0.63402 0.0530054 0.
0.636021 0.0530056 0.
0.638023 0.0530059 0.
0.640024 0.0530062 0.
0.642024 0.0530065 0.
0.644025 0.0530068 0.
0.646026 0.0530072 0.
0.648027 0.0530077 0.
0.650027 0.0530081 0.
0.652028 0.0530078 0.
0.654029 0.0530075 0.
0.65603 0.0530073 0.
0.658031 0.0530076 0.
0.660032 0.0530079 0.
0.662033 0.0530079 0.
0.664034 0.0530077 0.
0.666036 0.0530075 0.
0.668036 0.0530075 0.
0.670037 0.0530076 0.
0.672038 0.0530077 0.
0.674039 0.0530081 0.
0.67604 0.0530086 0.
0.678041 0.0530091 0.
0.680042 0.0530102 0.
0.682043 0.0530112 0.
0.684044 0.0530125 0.
0.686044 0.0530141 0.
0.688045 0.0530157 0.
0.690045 0.0530174 0.
0.692046 0.0530191 0.
0.694047 0.0530209 0.
0.696048 0.0530225 0.
0.698049 0.0530242 0.
0.499956 0.0550268 0.
0.501956 0.0550241 0.
0.503956 0.0550217 0.
0.505956 0.0550195 0.
0.507957 0.055018 0.
0.509957 0.0550164 0.
0.511958 0.0550151 0.
0.513958 0.0550141 0.
0.515959 0.055013 0.
0.51796 0.0550124 0.
0.519961 0.0550121 0.
0.521961 0.0550117 0.
0.523962 0.0550105 0.
0.525963 0.0550091 0.
0.527963 0.0550079 0.
0.529964 0.0550078 0.
0.531966 0.0550077 0.
0.533967 0.0550077 0.
0.535968 0.0550081 0.
0.537969 0.0550084 0.
0.53997 0.0550081 0.
0.541971 0.0550071 0.
0.543972 0.0550062 0.
0.545973 0.055006 0.
0.547975 0.055006 0.
0.549976 0.0550061 0.
0.551977 0.055006 0.
0.553978 0.0550059 0.
0.555979 0.0550058 0.
0.557979 0.0550053 0.
0.559978 0.0550049 0.
0.561979 0.0550047 0.
0.56398 0.0550047 0.
0.565981 0.0550048 0.
0.567982 0.0550049 0.
0.569983 0.055005 0.
0.571984 0.055005 0.
0.573985 0.0550056 0.
0.575987 0.0550061 0.
0.577988 0.0550067 0.
0.579989 0.0550073 0.
0.581991 0.055008 0.
0.583993 0.0550083 0.
0.585994 0.055008 0.
0.587995 0.0550078 0.
0.589997 0.055008 0.
0.591998 0.0550085 0.
0.593998 0.055009 0.
0.595999 0.0550088 0.
0.598001 0.0550083 0.
0.600002 0.0550079 0.
0.602002 0.055008 0.
0.604003 0.0550082 0.
0.606004 0.0550083 0.
0.608005 0.0550083 0.
0.610006 0.0550084 0.
0.612007 0.0550083 0.
0.614008 0.0550081 0.
0.616009 0.0550078 0.
0.618011 0.0550075 0.
0.620013 0.0550072 0.
0.622014 0.0550069 0.
0.624015 0.0550063 0.
0.626016 0.0550056 0.
0.628017 0.0550051 0.
0.630018 0.0550052 0.
0.632019 0.0550053 0.
0.63402 0.0550055 0.
0.636021 0.0550059 0.
0.638022 0.0550064 0.
0.640023 0.0550067 0.
0.642023 0.0550069 0.
0.644023 0.0550071 0.
0.646024 0.0550073 0.
0.648025 0.0550075 0.
0.650026 0.0550078 0.
0.652027 0.0550076 0.
0.654029 0.0550075 0.
0.65603 0.0550075 0.
0.65803 0.0550077 0.
0.660031 0.0550079 0.
0.662032 0.055008 0.
0.664033 0.0550078 0.
0.666034 0.0550077 0.
0.668035 0.0550077 0.
0.670036 0.0550077 0.
0.672037 0.0550077 0.
0.674038 0.0550083 0.
0.676039 0.0550089 0.
0.67804 0.0550095 0.
0.680041 0.0550103 0.
0.682042 0.0550111 0.
0.684042 0.0550122 0.
0.686043 0.0550139 0.
0.688043 0.0550156 0.
0.690044 0.0550172 0.
0.692045 0.0550188 0.
0.694046 0.0550205 0.
0.696047 0.0550222 0.
0.698048 0.055024 0.
0.499958 0.0570268 0.
0.501958 0.0570244 0.
0.503958 0.0570222 0.
0.505958 0.05702 0.
0.507959 0.0570184 0.
0.509959 0.0570169 0.
0.51196 0.0570155 0.
0.51396 0.0570143 0.
0.515961 0.0570131 0.
0.517962 0.0570124 0.
0.519962 0.0570118 0.
0.521963 0.0570112 0.
0.523963 0.0570102 0.
0.525964 0.057009 0.
0.527964 0.057008 0.
0.529965 0.0570079 0.
0.531966 0.0570077 0.
0.533967 0.0570077 0.
0.535969 0.057008 0.
0.53797 0.0570083 0.
0.539971 0.0570081 0.
0.541972 0.0570074 0.
0.543973 0.0570067 0.
0.545974 0.0570065 0.
0.547975 0.0570065 0.
0.549976 0.0570066 0.
0.551977 0.0570063 0.
0.553977 0.057006 0.
0.555978 0.0570057 0.
0.557979 0.0570054 0.
0.559979 0.0570052 0.
0.56198 0.057005 0.
0.563981 0.0570049 0.
0.565981 0.0570048 0.
0.567982 0.0570048 0.
0.569984 0.0570049 0.
0.571985 0.0570049 0.
0.573986 0.0570055 0.
0.575987 0.0570062 0.
0.577988 0.0570068 0.
0.57999 0.0570072 0.
0.581991 0.0570075 0.
0.583992 0.0570077 0.
0.585994 0.0570076 0.
0.587995 0.0570074 0.
0.589996 0.0570076 0.
0.591997 0.0570079 0.
0.593998 0.0570083 0.
0.595999 0.0570083 0.
0.598 0.0570081 0.
0.600001 0.057008 0.
0.602002 0.057008 0.
0.604003 0.0570081 0.
0.606004 0.0570081 0.
0.608005 0.057008 0.
0.610006 0.0570078 0.
0.612007 0.0570077 0.
0.614008 0.0570075 0.
0.61601 0.0570073 0.
0.618011 0.0570072 0.
0.620012 0.057007 0.
0.622014 0.0570069 0.
0.624015 0.0570064 0.
0.626016 0.0570058 0.
0.628017 0.0570054 0.
0.630017 0.0570055 0.
0.632018 0.0570056 0.
0.634019 0.0570058 0.
0.63602 0.057006 0.
0.638021 0.0570063 0.
0.640022 0.0570065 0.
0.642022 0.0570067 0.
0.644023 0.0570069 0.
0.646024 0.0570073 0.
0.648025 0.0570076 0.
0.650026 0.057008 0.
0.652027 0.0570079 0.
0.654028 0.0570078 0.
0.656029 0.0570077 0.
0.65803 0.0570078 0.
0.66003 0.0570079 0.
0.662031 0.0570079 0.
0.664033 0.0570078 0.
0.666034 0.0570076 0.
0.668035 0.0570077 0.
0.670035 0.0570078 0.
0.672036 0.057008 0.
0.674037 0.0570085 0.
0.676038 0.0570091 0.
0.678039 0.0570097 0.
0.68004 0.0570105 0.
0.68204 0.0570113 0.
0.684041 0.0570124 0.
0.686041 0.0570141 0.
0.688042 0.0570158 0.
0.690042 0.0570174 0.
0.692043 0.0570189 0.
0.694044 0.0570205 0.
0.696045 0.0570223 0.
0.698046 0.0570243 0.
0.499959 0.059027 0.
0.501959 0.0590247 0.
0.50396 0.0590226 0.
0.50596 0.0590205 0.
0.50796 0.0590189 0.
0.509961 0.0590173 0.
0.511961 0.0590158 0.
0.513962 0.0590145 0.
0.515963 0.0590133 0.
0.517963 0.0590123 0.
0.519964 0.0590115 0.
0.521964 0.0590107 0.
0.523965 0.0590098 0.
0.525965 0.0590089 0.
0.527965 0.0590081 0.
0.529966 0.059008 0.
0.531967 0.0590078 0.
0.533968 0.0590078 0.
0.53597 0.059008 0.
0.537971 0.0590082 0.
0.539972 0.059008 0.
0.541973 0.0590076 0.
0.543974 0.0590072 0.
0.545975 0.0590071 0.
0.547975 0.059007 0.
0.549976 0.059007 0.
0.551976 0.0590065 0.
0.553977 0.059006 0.
0.555978 0.0590056 0.
0.557979 0.0590055 0.
0.559979 0.0590055 0.
0.56198 0.0590053 0.
0.563981 0.0590051 0.
0.565982 0.0590048 0.
0.567983 0.0590047 0.
0.569984 0.0590048 0.
0.571985 0.0590049 0.
0.573986 0.0590055 0.
0.575988 0.0590063 0.
0.577989 0.059007 0.
0.57999 0.059007 0.
0.581991 0.0590071 0.
0.583992 0.0590071 0.
0.585994 0.0590071 0.
0.587995 0.0590071 0.
0.589996 0.0590072 0.
0.591997 0.0590074 0.
0.593998 0.0590076 0.
0.595999 0.0590078 0.
0.598 0.0590079 0.
0.6 0.0590081 0.
0.602002 0.059008 0.
0.604003 0.059008 0.
0.606004 0.0590078 0.
0.608006 0.0590076 0.
0.610007 0.0590073 0.
0.612008 0.0590071 0.
0.614009 0.059007 0.
0.61601 0.0590069 0.
0.618011 0.0590069 0.
0.620012 0.0590069 0.
0.622014 0.0590069 0.
0.624015 0.0590065 0.
0.626016 0.0590061 0.
0.628017 0.0590057 0.
0.630017 0.0590058 0.
0.632017 0.059006 0.
0.634018 0.0590061 0.
0.636019 0.0590061 0.
0.63802 0.0590062 0.
0.640021 0.0590063 0.
0.642022 0.0590065 0.
0.644023 0.0590068 0.
0.646024 0.0590072 0.
0.648024 0.0590077 0.
0.650025 0.0590082 0.
0.652026 0.0590082 0.
0.654027 0.0590081 0.
0.656028 0.059008 0.
0.658029 0.059008 0.
0.66003 0.0590079 0.
0.662031 0.0590078 0.
0.664032 0.0590077 0.
0.666033 0.0590075 0.
0.668034 0.0590077 0.
0.670035 0.0590079 0.
0.672035 0.0590082 0.
0.674036 0.0590087 0.
0.676037 0.0590093 0.
0.678038 0.0590099 0.
0.680038 0.0590107 0.
0.682039 0.0590115 0.
0.684039 0.0590126 0.
0.68604 0.0590144 0.
0.68804 0.0590161 0.
0.690041 0.0590176 0.
0.692041 0.059019 0.
0.694042 0.0590204 0.
0.696043 0.0590224 0.
0.698044 0.0590246 0.
0.499961 0.061027 0.
0.501961 0.0610247 0.
0.503961 0.0610225 0.
0.505961 0.0610204 0.
0.507962 0.0610189 0.
0.509963 0.0610173 0.
0.511963 0.0610159 0.
0.513964 0.0610148 0.
0.515965 0.0610136 0.
0.517965 0.0610126 0.
0.519965 0.0610116 0.
0.521966 0.0610106 0.
0.523966 0.0610098 0.
0.525966 0.0610091 0.
0.527967 0.0610085 0.
0.529968 0.0610082 0.
0.531968 0.0610079 0.
0.533969 0.0610078 0.
0.535971 0.061008 0.
0.537972 0.0610082 0.
0.539973 0.0610081 0.
0.541974 0.0610077 0.
0.543975 0.0610074 0.
0.545975 0.0610073 0.
0.547976 0.0610073 0.
0.549976 0.0610074 0.
0.551977 0.0610067 0.
0.553977 0.061006 0.
0.555978 0.0610055 0.
0.557979 0.0610055 0.
0.55998 0.0610055 0.
0.561981 0.0610054 0.
0.563982 0.0610052 0.
0.565983 0.061005 0.
0.567984 0.0610049 0.
0.569985 0.0610049 0.
0.571986 0.0610049 0.
0.573987 0.0610055 0.
0.575989 0.0610062 0.
0.57799 0.0610068 0.
0.579991 0.0610068 0.
0.581992 0.0610068 0.
0.583993 0.0610069 0.
0.585994 0.061007 0.
0.587995 0.0610071 0.
0.589996 0.0610071 0.
0.591997 0.0610072 0.
0.593998 0.0610073 0.
0.595999 0.0610075 0.
0.598 0.0610077 0.
0.6 0.061008 0.
0.602002 0.0610079 0.
0.604003 0.0610079 0.
0.606004 0.0610078 0.
0.608005 0.0610075 0.
0.610006 0.0610072 0.
0.612007 0.061007 0.
0.614008 0.0610068 0.
0.616009 0.0610067 0.
0.618011 0.0610067 0.
0.620012 0.0610069 0.
0.622013 0.061007 0.
0.624014 0.0610067 0.
0.626015 0.0610063 0.
0.628016 0.0610059 0.
0.630016 0.0610061 0.
0.632017 0.0610062 0.
0.634017 0.0610063 0.
0.636018 0.0610063 0.
0.638019 0.0610062 0.
0.64002 0.0610063 0.
0.642021 0.0610064 0.
0.644023 0.0610065 0.
0.646023 0.0610071 0.
0.648024 0.0610077 0.
0.650024 0.0610084 0.
0.652025 0.0610083 0.
0.654026 0.0610083 0.
0.656027 0.0610083 0.
0.658028 0.0610082 0.
0.660029 0.0610081 0.
0.66203 0.061008 0.
0.664031 0.0610078 0.
0.666032 0.0610076 0.
0.668033 0.0610078 0.
0.670033 0.0610081 0.
0.672034 0.0610084 0.
0.674035 0.061009 0.
0.676036 0.0610096 0.
0.678036 0.0610102 0.
0.680037 0.061011 0.
0.682037 0.0610118 0.
0.684038 0.0610129 0.
0.686038 0.0610145 0.
0.688039 0.0610161 0.
0.690039 0.0610176 0.
0.692039 0.061019 0.
0.69404 0.0610204 0.
0.696041 0.0610224 0.
0.698042 0.0610245 0.
0.499962 0.0630268 0.
0.501962 0.0630242 0.
0.503963 0.0630218 0.
0.505963 0.0630197 0.
0.507964 0.0630183 0.
0.509964 0.063017 0.
0.511965 0.0630158 0.
0.513965 0.063015 0.
0.515966 0.0630141 0.
0.517966 0.0630131 0.
0.519967 0.063012 0.
0.521967 0.0630109 0.
0.523968 0.0630102 0.
0.525968 0.0630096 0.
0.527968 0.063009 0.
0.529969 0.0630085 0.
0.53197 0.063008 0.
0.533971 0.0630078 0.
0.535972 0.0630081 0.
0.537973 0.0630083 0.
0.539974 0.0630082 0.
0.541974 0.0630078 0.
0.543975 0.0630073 0.
0.545975 0.0630073 0.
0.547976 0.0630074 0.
0.549977 0.0630076 0.
0.551977 0.0630068 0.
0.553978 0.063006 0.
0.555979 0.0630053 0.
0.55798 0.0630053 0.
0.559981 0.0630053 0.
0.561982 0.0630053 0.
0.563983 0.0630054 0.
0.565984 0.0630054 0.
0.567985 0.0630054 0.
0.569986 0.0630053 0.
0.571987 0.0630052 0.
0.573988 0.0630055 0.
0.575989 0.0630059 0.
0.577991 0.0630063 0.
0.579991 0.0630066 0.
0.581992 0.0630068 0.
0.583993 0.063007 0.
0.585995 0.0630072 0.
0.587996 0.0630074 0.
0.589997 0.0630075 0.
0.591998 0.0630074 0.
0.593998 0.0630074 0.
0.595999 0.0630074 0.
0.598 0.0630075 0.
0.600001 0.0630076 0.
0.602002 0.0630077 0.
0.604003 0.0630078 0.
0.606004 0.0630078 0.
0.608005 0.0630077 0.
0.610006 0.0630076 0.
0.612007 0.0630074 0.
0.614008 0.0630071 0.
0.616009 0.0630068 0.
0.61801 0.0630068 0.
0.620011 0.0630069 0.
0.622012 0.0630071 0.
0.624013 0.0630068 0.
0.626014 0.0630064 0.
0.628015 0.0630061 0.
0.630016 0.0630062 0.
0.632016 0.0630063 0.
0.634017 0.0630064 0.
0.636018 0.0630065 0.
0.638019 0.0630065 0.
0.64002 0.0630065 0.
0.642021 0.0630064 0.
0.644022 0.0630063 0.
0.646023 0.0630068 0.
0.648024 0.0630076 0.
0.650024 0.0630083 0.
0.652025 0.0630084 0.
0.654025 0.0630084 0.
0.656026 0.0630085 0.
0.658027 0.0630085 0.
0.660028 0.0630086 0.
0.662029 0.0630085 0.
0.66403 0.0630082 0.
0.66603 0.0630079 0.
0.668031 0.063008 0.
0.670032 0.0630083 0.
0.672032 0.0630086 0.
0.674033 0.0630093 0.
0.676034 0.0630099 0.
0.678035 0.0630106 0.
0.680035 0.0630114 0.
0.682036 0.0630121 0.
0.684036 0.0630131 0.
0.686037 0.0630145 0.
0.688037 0.063016 0.
0.690037 0.0630174 0.
0.692038 0.0630189 0.
0.694038 0.0630203 0.
0.696039 0.0630221 0.
0.69804 0.063024 0.
0.499964 0.0650263 0.
0.501964 0.0650237 0.
0.503964 0.0650212 0.
0.505965 0.065019 0.
0.507965 0.0650178 0.
0.509966 0.0650167 0.
0.511966 0.0650158 0.
0.513967 0.0650151 0.
0.515967 0.0650145 0.
0.517968 0.0650136 0.
0.519968 0.0650124 0.
0.521969 0.0650112 0.
0.523969 0.0650106 0.
0.52597 0.06501 0.
0.52797 0.0650095 0.
0.529971 0.0650088 0.
0.531972 0.0650081 0.
0.533972 0.0650078 0.
0.535973 0.0650081 0.
0.537974 0.0650085 0.
0.539974 0.0650084 0.
0.541975 0.0650078 0.
0.543975 0.0650073 0.
0.545976 0.0650073 0.
0.547976 0.0650076 0.
0.549977 0.0650078 0.
0.551978 0.0650069 0.
0.553979 0.065006 0.
0.55598 0.0650052 0.
0.557981 0.0650051 0.
0.559982 0.065005 0.
0.561982 0.0650051 0.
0.563983 0.0650055 0.
0.565984 0.0650058 0.
0.567986 0.0650058 0.
0.569987 0.0650056 0.
0.571988 0.0650054 0.
0.573989 0.0650055 0.
0.57599 0.0650056 0.
0.577991 0.0650058 0.
0.579992 0.0650063 0.
0.581993 0.0650068 0.
0.583994 0.0650072 0.
0.585995 0.0650075 0.
0.587997 0.0650077 0.
0.589997 0.0650078 0.
0.591998 0.0650076 0.
0.593999 0.0650074 0.
0.596 0.0650073 0.
0.598 0.0650073 0.
0.600001 0.0650072 0.
0.602002 0.0650074 0.
0.604003 0.0650077 0.
0.606003 0.0650079 0.
0.608004 0.0650079 0.
0.610005 0.0650079 0.
0.612006 0.0650077 0.
0.614007 0.0650073 0.
0.616008 0.0650068 0.
0.618009 0.0650068 0.
0.62001 0.065007 0.
0.622011 0.0650072 0.
0.624012 0.0650069 0.
0.626013 0.0650066 0.
0.628014 0.0650063 0.
0.630015 0.0650064 0.
0.632015 0.0650065 0.
0.634016 0.0650065 0.
0.636018 0.0650067 0.
0.638019 0.0650068 0.
0.640021 0.0650067 0.
0.642021 0.0650063 0.
0.644022 0.065006 0.
0.646023 0.0650066 0.
0.648024 0.0650075 0.
0.650024 0.0650083 0.
0.652024 0.0650084 0.
0.654025 0.0650086 0.
0.656025 0.0650087 0.
0.658026 0.0650089 0.
0.660027 0.065009 0.
0.662027 0.0650089 0.
0.664028 0.0650086 0.
0.666029 0.0650082 0.
0.66803 0.0650083 0.
0.67003 0.0650086 0.
0.672031 0.0650089 0.
0.674032 0.0650096 0.
0.676033 0.0650103 0.
0.678033 0.065011 0.
0.680034 0.0650117 0.
0.682034 0.0650125 0.
0.684035 0.0650134 0.
0.686035 0.0650146 0.
0.688035 0.0650158 0.
0.690036 0.0650172 0.
0.692036 0.0650187 0.
0.694037 0.0650203 0.
0.696037 0.0650219 0.
0.698038 0.0650234 0.
0.499965 0.0670254 0.
0.501965 0.0670234 0.
0.503966 0.0670213 0.
0.505967 0.0670195 0.
0.507967 0.0670183 0.
0.509967 0.0670171 0.
0.511968 0.0670161 0.
0.513968 0.0670152 0.
0.515968 0.0670143 0.
0.517969 0.0670133 0.
0.519969 0.0670123 0.
0.52197 0.0670113 0.
0.52397 0.0670108 0.
0.52597 0.0670104 0.
0.527971 0.0670099 0.
0.529972 0.0670092 0.
0.531973 0.0670085 0.
0.533973 0.0670081 0.
0.535974 0.0670084 0.
0.537975 0.0670086 0.
0.539975 0.0670085 0.
0.541976 0.0670081 0.
0.543976 0.0670077 0.
0.545977 0.0670077 0.
0.547978 0.0670078 0.
0.549978 0.0670079 0.
0.551979 0.067007 0.
0.55398 0.0670061 0.
0.555981 0.0670053 0.
0.557982 0.0670053 0.
0.559982 0.0670053 0.
0.561983 0.0670052 0.
0.563984 0.0670052 0.
0.565985 0.0670052 0.
0.567986 0.0670051 0.
0.569987 0.0670049 0.
0.571988 0.0670048 0.
0.573989 0.0670052 0.
0.57599 0.0670056 0.
0.577991 0.067006 0.
0.579992 0.0670063 0.
0.581993 0.0670066 0.
0.583994 0.0670069 0.
0.585995 0.0670072 0.
0.587996 0.0670075 0.
0.589997 0.0670076 0.
0.591998 0.0670076 0.
0.593999 0.0670075 0.
0.596 0.0670075 0.
0.598 0.0670074 0.
0.600001 0.0670074 0.
0.602002 0.0670076 0.
0.604002 0.0670078 0.
0.606003 0.0670079 0.
0.608004 0.0670077 0.
0.610005 0.0670076 0.
0.612006 0.0670074 0.
0.614007 0.0670071 0.
0.616008 0.0670067 0.
0.618009 0.0670068 0.
0.62001 0.067007 0.
0.622011 0.0670072 0.
0.624012 0.0670068 0.
0.626013 0.0670063 0.
0.628015 0.0670059 0.
0.630015 0.067006 0.
0.632016 0.0670061 0.
0.634017 0.0670062 0.
0.636018 0.0670065 0.
0.638019 0.0670067 0.
0.640019 0.0670067 0.
0.64202 0.0670065 0.
0.644021 0.0670063 0.
0.646022 0.0670069 0.
0.648023 0.0670078 0.
0.650023 0.0670086 0.
0.652024 0.0670086 0.
0.654024 0.0670085 0.
0.656024 0.0670085 0.
0.658025 0.0670086 0.
0.660026 0.0670087 0.
0.662027 0.0670088 0.
0.664027 0.0670086 0.
0.666028 0.0670085 0.
0.668029 0.0670087 0.
0.670029 0.0670091 0.
0.67203 0.0670094 0.
0.674031 0.0670098 0.
0.676032 0.0670103 0.
0.678033 0.0670108 0.
0.680033 0.0670117 0.
0.682033 0.0670125 0.
0.684033 0.0670135 0.
0.686033 0.0670148 0.
0.688034 0.0670161 0.
0.690034 0.0670175 0.
0.692034 0.067019 0.
0.694035 0.0670205 0.
0.696036 0.0670221 0.
0.698036 0.0670237 0.
0.499966 0.0690246 0.
0.501967 0.069023 0.
0.503968 0.0690215 0.
0.505968 0.06902 0.
0.507969 0.0690188 0.
0.509969 0.0690176 0.
0.511969 0.0690164 0.
0.513969 0.0690152 0.
0.51597 0.069014 0.
0.51797 0.069013 0.
0.51997 0.0690122 0.
0.521971 0.0690114 0.
0.523971 0.069011 0.
0.525971 0.0690107 0.
0.527972 0.0690103 0.
0.529973 0.0690096 0.
0.531973 0.0690089 0.
0.533974 0.0690084 0.
0.535975 0.0690086 0.
0.537975 0.0690088 0.
0.539976 0.0690087 0.
0.541977 0.0690085 0.
0.543978 0.0690082 0.
0.545978 0.0690081 0.
0.547979 0.0690081 0.
0.549979 0.0690081 0.
0.55198 0.0690071 0.
0.553981 0.0690062 0.
0.555982 0.0690054 0.
0.557982 0.0690054 0.
0.559983 0.0690055 0.
0.561984 0.0690053 0.
0.563984 0.0690049 0.
0.565985 0.0690045 0.
0.567986 0.0690044 0.
0.569987 0.0690043 0.
0.571988 0.0690042 0.
0.573989 0.0690049 0.
0.57599 0.0690055 0.
0.577991 0.0690062 0.
0.579992 0.0690063 0.
0.581993 0.0690064 0.
0.583994 0.0690066 0.
0.585995 0.069007 0.
0.587996 0.0690073 0.
0.589997 0.0690075 0.
0.591998 0.0690075 0.
0.593999 0.0690075 0.
0.596 0.0690076 0.
0.598 0.0690076 0.
0.600001 0.0690076 0.
0.602001 0.0690077 0.
0.604002 0.0690078 0.
0.606003 0.0690079 0.
0.608004 0.0690076 0.
0.610005 0.0690073 0.
0.612006 0.0690071 0.
0.614007 0.0690068 0.
0.616008 0.0690066 0.
0.618009 0.0690067 0.
0.62001 0.0690069 0.
0.622011 0.0690072 0.
0.624012 0.0690067 0.
0.626014 0.069006 0.
0.628015 0.0690055 0.
0.630016 0.0690056 0.
0.632016 0.0690057 0.
0.634017 0.0690059 0.
0.636017 0.0690063 0.
0.638018 0.0690066 0.
0.640018 0.0690067 0.
0.642019 0.0690066 0.
0.64402 0.0690066 0.
0.646021 0.0690072 0.
0.648022 0.0690081 0.
0.650023 0.0690089 0.
0.652023 0.0690087 0.
0.654023 0.0690085 0.
0.656024 0.0690083 0.
0.658024 0.0690084 0.
0.660025 0.0690085 0.
0.662026 0.0690086 0.
0.664026 0.0690087 0.
0.666027 0.0690088 0.
0.668028 0.0690091 0.
0.670028 0.0690095 0.
0.672029 0.0690099 0.
0.67403 0.0690101 0.
0.676031 0.0690103 0.
0.678032 0.0690106 0.
0.680032 0.0690116 0.
0.682032 0.0690125 0.
0.684032 0.0690137 0.
0.686032 0.069015 0.
0.688032 0.0690164 0.
0.690032 0.0690178 0.
0.692033 0.0690192 0.
0.694033 0.0690207 0.
0.696034 0.0690223 0.
0.698035 0.069024 0.
0.499967 0.0710237 0.
0.501968 0.0710224 0.
0.503969 0.0710211 0.
0.50597 0.0710199 0.
0.50797 0.0710187 0.
0.50997 0.0710175 0.
0.511971 0.0710164 0.
0.513971 0.0710153 0.
0.515971 0.0710141 0.
0.517971 0.0710132 0.
0.519971 0.0710124 0.
0.521972 0.0710116 0.
0.523972 0.0710112 0.
0.525973 0.0710109 0.
0.527973 0.0710105 0.
0.529974 0.0710098 0.
0.531974 0.0710091 0.
0.533975 0.0710087 0.
0.535976 0.0710088 0.
0.537976 0.0710089 0.
0.539977 0.0710088 0.
0.541978 0.0710086 0.
0.543979 0.0710083 0.
0.545979 0.0710082 0.
0.54798 0.0710081 0.
0.54998 0.071008 0.
0.551981 0.0710071 0.
0.553981 0.0710061 0.
0.555982 0.0710054 0.
0.557983 0.0710054 0.
0.559983 0.0710054 0.
0.561984 0.0710052 0.
0.563985 0.0710047 0.
0.565986 0.0710043 0.
0.567986 0.0710041 0.
0.569987 0.071004 0.
0.571988 0.071004 0.
0.573989 0.0710046 0.
0.57599 0.0710053 0.
0.577992 0.071006 0.
0.579993 0.0710061 0.
0.581994 0.0710062 0.
0.583995 0.0710064 0.
0.585996 0.0710068 0.
0.587996 0.0710072 0.
0.589997 0.0710074 0.
0.591998 0.0710076 0.
0.593999 0.0710077 0.
0.596 0.0710078 0.
0.598 0.0710078 0.
0.6 0.0710079 0.
0.602001 0.0710079 0.
0.604002 0.071008 0.
0.606003 0.071008 0.
0.608004 0.0710077 0.
0.610005 0.0710073 0.
0.612006 0.071007 0.
0.614006 0.0710067 0.
0.616007 0.0710065 0.
0.618008 0.0710065 0.
0.620009 0.0710068 0.
0.622011 0.071007 0.
0.624012 0.0710064 0.
0.626013 0.0710057 0.
0.628014 0.0710051 0.
0.630015 0.0710053 0.
0.632016 0.0710055 0.
0.634017 0.0710058 0.
0.636017 0.0710061 0.
0.638017 0.0710064 0.
0.640018 0.0710066 0.
0.642019 0.0710066 0.
0.64402 0.0710066 0.
0.64602 0.0710073 0.
0.648021 0.0710081 0.
0.650022 0.0710089 0.
0.652022 0.0710086 0.
0.654023 0.0710084 0.
0.656023 0.0710082 0.
0.658024 0.0710084 0.
0.660025 0.0710086 0.
0.662025 0.0710087 0.
0.664026 0.0710089 0.
0.666026 0.071009 0.
0.668027 0.0710094 0.
0.670027 0.0710098 0.
0.672028 0.0710102 0.
0.674029 0.0710104 0.
0.67603 0.0710105 0.
0.678031 0.0710107 0.
0.680031 0.0710117 0.
0.68203 0.0710127 0.
0.68403 0.0710138 0.
0.686031 0.0710151 0.
0.688031 0.0710164 0.
0.690031 0.0710177 0.
0.692031 0.0710192 0.
0.694032 0.0710207 0.
0.696033 0.0710223 0.
0.698033 0.0710241 0.
0.499969 0.0730231 0.
0.501969 0.0730217 0.
0.50397 0.0730203 0.
0.50597 0.073019 0.
0.507971 0.073018 0.
0.509971 0.073017 0.
0.511971 0.0730161 0.
0.513972 0.0730154 0.
0.515972 0.0730147 0.
0.517973 0.0730138 0.
0.519973 0.0730129 0.
0.521973 0.073012 0.
0.523974 0.0730115 0.
0.525974 0.073011 0.
0.527975 0.0730105 0.
0.529975 0.0730099 0.
0.531975 0.0730092 0.
0.533976 0.0730088 0.
0.535976 0.073009 0.
0.537977 0.0730091 0.
0.539978 0.0730089 0.
0.541978 0.0730086 0.
0.543979 0.0730082 0.
0.54598 0.073008 0.
0.54798 0.0730079 0.
0.54998 0.0730077 0.
0.551981 0.0730068 0.
0.553982 0.0730059 0.
0.555982 0.0730052 0.
0.557983 0.0730052 0.
0.559983 0.0730052 0.
0.561984 0.073005 0.
0.563985 0.0730047 0.
0.565986 0.0730044 0.
0.567987 0.0730042 0.
0.569988 0.0730041 0.
0.571989 0.0730039 0.
0.57399 0.0730044 0.
0.575991 0.0730049 0.
0.577992 0.0730053 0.
0.579993 0.0730056 0.
0.581994 0.073006 0.
0.583995 0.0730063 0.
0.585996 0.0730067 0.
0.587996 0.0730071 0.
0.589997 0.0730074 0.
0.591998 0.0730077 0.
0.593999 0.073008 0.
0.595999 0.0730081 0.
0.598 0.0730081 0.
0.6 0.0730081 0.
0.602001 0.0730082 0.
0.604002 0.0730083 0.
0.606003 0.0730083 0.
0.608004 0.073008 0.
0.610005 0.0730076 0.
0.612006 0.0730072 0.
0.614006 0.0730068 0.
0.616007 0.0730064 0.
0.618008 0.0730063 0.
0.620009 0.0730064 0.
0.62201 0.0730066 0.
0.624011 0.073006 0.
0.626013 0.0730053 0.
0.628014 0.0730048 0.
0.630015 0.0730051 0.
0.632016 0.0730054 0.
0.634017 0.0730057 0.
0.636017 0.0730059 0.
0.638018 0.0730062 0.
0.640018 0.0730063 0.
0.642019 0.0730064 0.
0.64402 0.0730064 0.
0.64602 0.073007 0.
0.648021 0.0730078 0.
0.650022 0.0730085 0.
0.652022 0.0730083 0.
0.654022 0.0730081 0.
0.656023 0.073008 0.
0.658023 0.0730085 0.
0.660024 0.073009 0.
0.662025 0.0730092 0.
0.664025 0.0730092 0.
0.666025 0.0730091 0.
0.668026 0.0730094 0.
0.670026 0.0730098 0.
0.672027 0.0730102 0.
0.674027 0.0730105 0.
0.676028 0.0730107 0.
0.678029 0.0730111 0.
0.680029 0.0730121 0.
0.682029 0.0730131 0.
0.684029 0.0730141 0.
0.68603 0.073015 0.
0.68803 0.073016 0.
0.69003 0.0730173 0.
0.692031 0.0730189 0.
0.694031 0.0730204 0.
0.696031 0.0730222 0.
0.698032 0.0730239 0.
0.49997 0.0750226 0.
0.501971 0.075021 0.
0.503971 0.0750195 0.
0.505971 0.0750182 0.
0.507971 0.0750174 0.
0.509972 0.0750165 0.
0.511972 0.0750159 0.
0.513973 0.0750156 0.
0.515973 0.0750153 0.
0.517974 0.0750145 0.
0.519975 0.0750135 0.
0.521975 0.0750124 0.
0.523975 0.0750118 0.
0.525976 0.0750111 0.
0.527976 0.0750105 0.
0.529976 0.0750099 0.
0.531976 0.0750094 0.
0.533977 0.075009 0.
0.535977 0.0750091 0.
0.537978 0.0750093 0.
0.539978 0.075009 0.
0.541979 0.0750085 0.
0.543979 0.075008 0.
0.54598 0.0750078 0.
0.54798 0.0750076 0.
0.549981 0.0750075 0.
0.551981 0.0750066 0.
0.553982 0.0750057 0.
0.555982 0.075005 0.
0.557983 0.075005 0.
0.559983 0.0750049 0.
0.561984 0.0750048 0.
0.563985 0.0750047 0.
0.565987 0.0750046 0.
0.567988 0.0750044 0.
0.569988 0.0750042 0.
0.571989 0.0750039 0.
0.57399 0.0750042 0.
0.575991 0.0750044 0.
0.577992 0.0750047 0.
0.579993 0.0750052 0.
0.581994 0.0750057 0.
0.583995 0.0750062 0.
0.585996 0.0750066 0.
0.587996 0.075007 0.
0.589997 0.0750074 0.
0.591997 0.0750079 0.
0.593998 0.0750084 0.
0.595999 0.0750084 0.
0.597999 0.0750084 0.
0.6 0.0750084 0.
0.602001 0.0750085 0.
0.604002 0.0750086 0.
0.606003 0.0750086 0.
0.608004 0.0750082 0.
0.610005 0.0750079 0.
0.612006 0.0750074 0.
0.614006 0.0750069 0.
0.616006 0.0750063 0.
0.618007 0.0750061 0.
0.620009 0.0750061 0.
0.62201 0.0750061 0.
0.624011 0.0750056 0.
0.626012 0.075005 0.
0.628013 0.0750045 0.
0.630014 0.0750049 0.
0.632015 0.0750053 0.
0.634016 0.0750057 0.
0.636017 0.0750058 0.
0.638018 0.0750059 0.
0.640018 0.0750061 0.
0.642019 0.0750062 0.
0.64402 0.0750063 0.
0.646021 0.0750068 0.
0.648021 0.0750075 0.
0.650022 0.0750081 0.
0.652022 0.075008 0.
0.654022 0.0750079 0.
0.656022 0.0750079 0.
0.658023 0.0750087 0.
0.660024 0.0750094 0.
0.662024 0.0750097 0.
0.664024 0.0750094 0.
0.666024 0.0750092 0.
0.668024 0.0750094 0.
0.670025 0.0750098 0.
0.672025 0.0750103 0.
0.674026 0.0750107 0.
0.676026 0.075011 0.
0.678027 0.0750115 0.
0.680027 0.0750124 0.
0.682028 0.0750134 0.
0.684028 0.0750143 0.
0.686029 0.0750149 0.
0.688029 0.0750156 0.
0.690029 0.0750168 0.
0.69203 0.0750185 0.
0.69403 0.0750202 0.
0.69603 0.075022 0.
0.69803 0.0750238 0.
0.499972 0.0770222 0.
0.501972 0.0770208 0.
0.503972 0.0770197 0.
0.505973 0.0770185 0.
0.507973 0.0770175 0.
0.509973 0.0770164 0.
0.511974 0.0770157 0.
0.513974 0.0770152 0.
0.515974 0.0770147 0.
0.517975 0.0770141 0.
0.519975 0.0770132 0.
0.521976 0.0770124 0.
0.523976 0.0770119 0.
0.525976 0.0770113 0.
0.527977 0.0770107 0.
0.529977 0.0770101 0.
0.531978 0.0770095 0.
0.533978 0.0770091 0.
0.535979 0.0770091 0.
0.537979 0.0770092 0.
0.53998 0.077009 0.
0.54198 0.0770086 0.
0.54398 0.0770083 0.
0.545981 0.0770079 0.
0.547981 0.0770075 0.
0.549982 0.0770072 0.
0.551982 0.0770066 0.
0.553983 0.077006 0.
0.555983 0.0770055 0.
0.557984 0.0770053 0.
0.559984 0.0770051 0.
0.561985 0.0770048 0.
0.563986 0.0770045 0.
0.565987 0.0770042 0.
0.567988 0.0770042 0.
0.569989 0.0770043 0.
0.571989 0.0770044 0.
0.57399 0.0770046 0.
0.575991 0.0770048 0.
0.577992 0.0770051 0.
0.579993 0.0770054 0.
0.581994 0.0770058 0.
0.583995 0.0770061 0.
0.585995 0.0770064 0.
0.587995 0.0770067 0.
0.589996 0.0770071 0.
0.591997 0.0770075 0.
0.593998 0.077008 0.
0.595999 0.077008 0.
0.597999 0.0770079 0.
0.6 0.0770078 0.
0.602001 0.077008 0.
0.604002 0.0770081 0.
0.606003 0.0770081 0.
0.608004 0.0770079 0.
0.610005 0.0770077 0.
0.612006 0.0770074 0.
0.614006 0.077007 0.
0.616007 0.0770066 0.
0.618008 0.0770065 0.
0.620009 0.0770064 0.
0.62201 0.0770064 0.
0.624011 0.0770059 0.
0.626012 0.0770054 0.
0.628013 0.077005 0.
0.630014 0.0770051 0.
0.632015 0.0770053 0.
0.634016 0.0770055 0.
0.636016 0.0770056 0.
0.638017 0.0770058 0.
0.640018 0.077006 0.
0.642018 0.0770062 0.
0.644019 0.0770063 0.
0.64602 0.0770068 0.
0.64802 0.0770074 0.
0.65002 0.0770079 0.
0.652021 0.077008 0.
0.654021 0.0770081 0.
0.656021 0.0770083 0.
0.658021 0.0770088 0.
0.660022 0.0770094 0.
0.662022 0.0770096 0.
0.664023 0.0770095 0.
0.666023 0.0770094 0.
0.668023 0.0770097 0.
0.670024 0.0770102 0.
0.672024 0.0770106 0.
0.674025 0.077011 0.
0.676025 0.0770112 0.
0.678026 0.0770116 0.
0.680026 0.0770125 0.
0.682026 0.0770134 0.
0.684027 0.0770143 0.
0.686027 0.0770151 0.
0.688027 0.0770159 0.
0.690027 0.0770172 0.
0.692028 0.0770188 0.
0.694028 0.0770205 0.
0.696028 0.0770221 0.
0.698028 0.0770236 0.
0.499973 0.0790217 0.
0.501974 0.0790207 0.
0.503974 0.0790198 0.
0.505974 0.0790189 0.
0.507974 0.0790176 0.
0.509975 0.0790164 0.
0.511975 0.0790154 0.
0.513975 0.0790148 0.
0.515976 0.0790142 0.
0.517976 0.0790136 0.
0.519976 0.079013 0.
0.521976 0.0790124 0.
0.523977 0.079012 0.
0.525977 0.0790115 0.
0.527977 0.079011 0.
0.529978 0.0790104 0.
0.531979 0.0790097 0.
0.533979 0.0790093 0.
0.53598 0.0790092 0.
0.53798 0.0790091 0.
0.539981 0.0790089 0.
0.541981 0.0790087 0.
0.543981 0.0790085 0.
0.545982 0.079008 0.
0.547982 0.0790075 0.
0.549983 0.0790069 0.
0.551983 0.0790066 0.
0.553984 0.0790062 0.
0.555984 0.0790059 0.
0.557985 0.0790056 0.
0.559985 0.0790053 0.
0.561986 0.0790049 0.
0.563986 0.0790043 0.
0.565987 0.0790038 0.
0.567988 0.079004 0.
0.569989 0.0790044 0.
0.571989 0.0790048 0.
0.57399 0.0790051 0.
0.575991 0.0790053 0.
0.577992 0.0790055 0.
0.579993 0.0790056 0.
0.581993 0.0790058 0.
0.583994 0.079006 0.
0.585995 0.0790062 0.
0.587995 0.0790064 0.
0.589996 0.0790067 0.
0.591997 0.0790072 0.
0.593998 0.0790076 0.
0.595998 0.0790076 0.
0.597999 0.0790074 0.
0.6 0.0790073 0.
0.602001 0.0790075 0.
0.604002 0.0790076 0.
0.606004 0.0790077 0.
0.608004 0.0790076 0.
0.610005 0.0790075 0.
0.612006 0.0790074 0.
0.614007 0.0790071 0.
0.616007 0.0790069 0.
0.618008 0.0790068 0.
0.620009 0.0790067 0.
0.62201 0.0790067 0.
0.624011 0.0790063 0.
0.626012 0.0790058 0.
0.628013 0.0790054 0.
0.630014 0.0790054 0.
0.632014 0.0790053 0.
0.634015 0.0790053 0.
0.636016 0.0790055 0.
0.638016 0.0790057 0.
0.640017 0.0790059 0.
0.642018 0.0790062 0.
0.644018 0.0790064 0.
0.646019 0.0790068 0.
0.648019 0.0790073 0.
0.650019 0.0790077 0.
0.652019 0.079008 0.
0.654019 0.0790083 0.
0.65602 0.0790087 0.
0.65802 0.079009 0.
0.66002 0.0790094 0.
0.662021 0.0790096 0.
0.664021 0.0790096 0.
0.666022 0.0790096 0.
0.668022 0.07901 0.
0.670023 0.0790105 0.
0.672024 0.079011 0.
0.674024 0.0790112 0.
0.676024 0.0790115 0.
0.678024 0.0790117 0.
0.680025 0.0790126 0.
0.682025 0.0790135 0.
0.684025 0.0790143 0.
0.686025 0.0790152 0.
0.688025 0.0790161 0.
0.690025 0.0790175 0.
0.692026 0.0790191 0.
0.694026 0.0790208 0.
0.696026 0.0790221 0.
0.698025 0.0790234 0.
0.499974 0.0810214 0.
0.501975 0.0810204 0.
0.503975 0.0810197 0.
0.505976 0.0810188 0.
0.507976 0.0810175 0.
0.509976 0.0810162 0.
0.511976 0.0810152 0.
0.513976 0.0810145 0.
0.515977 0.0810138 0.
0.517977 0.0810132 0.
0.519977 0.0810127 0.
0.521978 0.0810122 0.
0.523978 0.0810119 0.
0.525978 0.0810115 0.
0.527979 0.0810112 0.
0.529979 0.0810106 0.
0.53198 0.0810099 0.
0.533981 0.0810095 0.
0.535981 0.0810093 0.
0.537981 0.0810092 0.
0.539982 0.081009 0.
0.541982 0.0810088 0.
0.543983 0.0810086 0.
0.545983 0.0810081 0.
0.547983 0.0810075 0.
0.549983 0.0810069 0.
0.551984 0.0810067 0.
0.553984 0.0810065 0.
0.555985 0.0810062 0.
0.557985 0.0810057 0.
0.559986 0.0810053 0.
0.561986 0.0810049 0.
0.563987 0.0810044 0.
0.565988 0.0810039 0.
0.567988 0.0810041 0.
0.569989 0.0810046 0.
0.571989 0.0810051 0.
0.57399 0.0810053 0.
0.575991 0.0810054 0.
0.577992 0.0810055 0.
0.579993 0.0810057 0.
0.581993 0.0810058 0.
0.583994 0.081006 0.
0.585994 0.0810061 0.
0.587995 0.0810061 0.
0.589996 0.0810064 0.
0.591996 0.0810068 0.
0.593997 0.0810071 0.
0.595998 0.0810071 0.
0.597999 0.081007 0.
0.6 0.0810068 0.
0.602001 0.081007 0.
0.604002 0.0810073 0.
0.606004 0.0810074 0.
0.608004 0.0810074 0.
0.610005 0.0810073 0.
0.612006 0.0810072 0.
0.614007 0.0810071 0.
0.616008 0.081007 0.
0.618008 0.0810068 0.
0.620009 0.0810067 0.
0.62201 0.0810065 0.
0.624011 0.0810062 0.
0.626012 0.0810059 0.
0.628013 0.0810057 0.
0.630013 0.0810055 0.
0.632014 0.0810053 0.
0.634014 0.0810052 0.
0.636015 0.0810054 0.
0.638016 0.0810056 0.
0.640016 0.0810059 0.
0.642017 0.0810062 0.
0.644018 0.0810065 0.
0.646018 0.0810069 0.
0.648018 0.0810073 0.
0.650018 0.0810077 0.
0.652018 0.0810081 0.
0.654018 0.0810085 0.
0.656018 0.0810088 0.
0.658019 0.0810091 0.
0.660019 0.0810094 0.
0.662019 0.0810096 0.
0.66402 0.0810097 0.
0.666021 0.0810098 0.
0.668021 0.0810102 0.
0.670022 0.0810107 0.
0.672022 0.0810112 0.
0.674023 0.0810113 0.
0.676023 0.0810114 0.
0.678023 0.0810116 0.
0.680023 0.0810125 0.
0.682024 0.0810135 0.
0.684024 0.0810144 0.
0.686024 0.0810154 0.
0.688024 0.0810163 0.
0.690024 0.0810176 0.
0.692024 0.0810191 0.
0.694024 0.0810207 0.
0.696024 0.0810221 0.
0.698024 0.0810235 0.
0.499975 0.0830213 0.
0.501976 0.0830202 0.
0.503976 0.0830192 0.
0.505977 0.0830182 0.
0.507977 0.0830171 0.
0.509977 0.0830161 0.
0.511977 0.0830151 0.
0.513978 0.0830143 0.
0.515978 0.0830135 0.
0.517978 0.0830129 0.
0.519979 0.0830124 0.
0.521979 0.0830118 0.
0.52398 0.0830116 0.
0.52598 0.0830114 0.
0.52798 0.0830112 0.
0.529981 0.0830107 0.
0.531981 0.0830102 0.
0.533982 0.0830098 0.
0.535982 0.0830096 0.
0.537982 0.0830095 0.
0.539983 0.0830092 0.
0.541983 0.0830089 0.
0.543984 0.0830086 0.
0.545984 0.0830082 0.
0.547984 0.0830078 0.
0.549984 0.0830073 0.
0.551984 0.083007 0.
0.553985 0.0830066 0.
0.555985 0.0830062 0.
0.557985 0.0830057 0.
0.559986 0.0830052 0.
0.561987 0.0830048 0.
0.563987 0.0830047 0.
0.565988 0.0830045 0.
0.567988 0.0830046 0.
0.569989 0.0830049 0.
0.571989 0.0830052 0.
0.57399 0.0830052 0.
0.575991 0.0830052 0.
0.577992 0.0830053 0.
0.579993 0.0830056 0.
0.581993 0.0830058 0.
0.583994 0.083006 0.
0.585994 0.0830059 0.
0.587995 0.0830059 0.
0.589996 0.083006 0.
0.591996 0.0830063 0.
0.593997 0.0830066 0.
0.595998 0.0830066 0.
0.597999 0.0830065 0.
0.6 0.0830064 0.
0.602001 0.0830068 0.
0.604002 0.0830072 0.
0.606003 0.0830074 0.
0.608004 0.0830072 0.
0.610005 0.0830071 0.
0.612006 0.0830069 0.
0.614007 0.0830068 0.
0.616007 0.0830067 0.
0.618008 0.0830065 0.
0.620009 0.0830062 0.
0.622009 0.0830059 0.
0.62401 0.0830058 0.
0.626011 0.0830057 0.
0.628012 0.0830056 0.
0.630012 0.0830055 0.
0.632013 0.0830054 0.
0.634013 0.0830053 0.
0.636014 0.0830054 0.
0.638015 0.0830055 0.
0.640016 0.0830058 0.
0.642016 0.0830062 0.
0.644017 0.0830067 0.
0.646017 0.0830071 0.
0.648017 0.0830075 0.
0.650017 0.0830079 0.
0.652017 0.0830082 0.
0.654017 0.0830084 0.
0.656017 0.0830087 0.
0.658018 0.0830091 0.
0.660018 0.0830094 0.
0.662019 0.0830096 0.
0.664019 0.0830098 0.
0.66602 0.0830099 0.
0.66802 0.0830103 0.
0.67002 0.0830108 0.
0.672021 0.0830112 0.
0.674021 0.0830112 0.
0.676022 0.0830111 0.
0.678022 0.0830112 0.
0.680022 0.0830123 0.
0.682023 0.0830135 0.
0.684023 0.0830145 0.
0.686023 0.0830155 0.
0.688023 0.0830164 0.
0.690023 0.0830175 0.
0.692023 0.0830188 0.
0.694023 0.0830201 0.
0.696023 0.083022 0.
0.698023 0.083024 0.
0.499976 0.0850212 0.
0.501976 0.0850199 0.
0.503977 0.0850187 0.
0.505978 0.0850175 0.
0.507978 0.0850167 0.
0.509978 0.0850159 0.
0.511979 0.0850151 0.
0.513979 0.0850142 0.
0.515979 0.0850133 0.
0.51798 0.0850126 0.
0.51998 0.085012 0.
0.521981 0.0850114 0.
0.523981 0.0850113 0.
0.525981 0.0850113 0.
0.527982 0.0850112 0.
0.529982 0.0850109 0.
0.531983 0.0850105 0.
0.533983 0.0850102 0.
0.535983 0.08501 0.
0.537983 0.0850097 0.
0.539984 0.0850094 0.
0.541984 0.085009 0.
0.543985 0.0850086 0.
0.545985 0.0850083 0.
0.547985 0.085008 0.
0.549985 0.0850077 0.
0.551985 0.0850073 0.
0.553985 0.0850068 0.
0.555985 0.0850063 0.
0.557986 0.0850057 0.
0.559986 0.0850051 0.
0.561987 0.0850048 0.
0.563988 0.0850049 0.
0.565988 0.0850051 0.
0.567988 0.0850052 0.
0.569989 0.0850052 0.
0.57199 0.0850053 0.
0.57399 0.0850052 0.
0.575991 0.0850051 0.
0.577992 0.0850051 0.
0.579992 0.0850054 0.
0.581993 0.0850058 0.
0.583993 0.085006 0.
0.585994 0.0850058 0.
0.587995 0.0850056 0.
0.589996 0.0850057 0.
0.591996 0.0850059 0.
0.593997 0.0850061 0.
0.595998 0.0850061 0.
0.597999 0.085006 0.
0.6 0.0850059 0.
0.602001 0.0850065 0.
0.604002 0.085007 0.
0.606003 0.0850074 0.
0.608004 0.0850071 0.
0.610005 0.0850069 0.
0.612006 0.0850067 0.
0.614007 0.0850066 0.
0.616007 0.0850065 0.
0.618008 0.0850062 0.
0.620008 0.0850058 0.
0.622009 0.0850054 0.
0.62401 0.0850054 0.
0.626011 0.0850055 0.
0.628011 0.0850056 0.
0.630012 0.0850055 0.
0.632012 0.0850054 0.
0.634013 0.0850054 0.
0.636013 0.0850054 0.
0.638014 0.0850054 0.
0.640015 0.0850057 0.
0.642015 0.0850062 0.
0.644016 0.0850068 0.
0.646016 0.0850073 0.
0.648016 0.0850077 0.
0.650016 0.0850081 0.
0.652016 0.0850083 0.
0.654016 0.0850084 0.
0.656016 0.0850087 0.
0.658017 0.085009 0.
0.660017 0.0850094 0.
0.662018 0.0850097 0.
0.664018 0.0850099 0.
0.666018 0.08501 0.
0.668019 0.0850104 0.
0.670019 0.0850108 0.
0.672019 0.0850113 0.
0.674019 0.0850111 0.
0.67602 0.0850109 0.
0.678021 0.0850108 0.
0.680021 0.0850121 0.
0.682022 0.0850135 0.
0.684022 0.0850146 0.
0.686022 0.0850156 0.
0.688022 0.0850165 0.
0.690022 0.0850175 0.
0.692022 0.0850185 0.
0.694022 0.0850196 0.
0.696022 0.0850219 0.
0.698023 0.0850245 0.
0.499978 0.087021 0.
0.501978 0.0870197 0.
0.503978 0.0870186 0.
0.505979 0.0870175 0.
0.507979 0.0870167 0.
0.509979 0.0870158 0.
0.51198 0.087015 0.
0.51398 0.0870142 0.
0.51598 0.0870134 0.
0.517981 0.0870127 0.
0.519981 0.0870121 0.
0.521982 0.0870115 0.
0.523982 0.0870113 0.
0.525982 0.0870113 0.
0.527982 0.0870112 0.
0.529983 0.0870107 0.
0.531984 0.0870101 0.
0.533984 0.0870098 0.
0.535984 0.0870096 0.
0.537985 0.0870095 0.
0.539985 0.0870093 0.
0.541985 0.087009 0.
0.543985 0.0870088 0.
0.545985 0.0870085 0.
0.547985 0.0870081 0.
0.549985 0.0870078 0.
0.551985 0.0870072 0.
0.553986 0.0870066 0.
0.555986 0.0870061 0.
0.557986 0.0870056 0.
0.559987 0.0870051 0.
0.561987 0.0870048 0.
0.563988 0.0870047 0.
0.565988 0.0870047 0.
0.567989 0.0870048 0.
0.569989 0.087005 0.
0.57199 0.0870052 0.
0.573991 0.0870052 0.
0.575991 0.0870053 0.
0.577992 0.0870053 0.
0.579993 0.0870055 0.
0.581993 0.0870058 0.
0.583994 0.0870059 0.
0.585994 0.0870058 0.
0.587995 0.0870058 0.
0.589995 0.0870058 0.
0.591996 0.087006 0.
0.593997 0.0870061 0.
0.595998 0.087006 0.
0.597999 0.0870059 0.
0.6 0.0870057 0.
0.602001 0.0870061 0.
0.604002 0.0870066 0.
0.606003 0.0870069 0.
0.608004 0.0870068 0.
0.610005 0.0870066 0.
0.612006 0.0870065 0.
0.614007 0.0870065 0.
0.616007 0.0870065 0.
0.618008 0.0870063 0.
0.620008 0.0870059 0.
0.622009 0.0870056 0.
0.62401 0.0870055 0.
0.62601 0.0870055 0.
0.628011 0.0870054 0.
0.630011 0.0870053 0.
0.632012 0.0870051 0.
0.634013 0.0870051 0.
0.636013 0.0870052 0.
0.638014 0.0870054 0.
0.640014 0.0870058 0.
0.642014 0.0870063 0.
0.644015 0.0870068 0.
0.646015 0.0870072 0.
0.648015 0.0870076 0.
0.650015 0.087008 0.
0.652015 0.0870083 0.
0.654015 0.0870086 0.
0.656015 0.0870089 0.
0.658015 0.0870091 0.
0.660016 0.0870092 0.
0.662016 0.0870094 0.
0.664017 0.0870097 0.
0.666017 0.0870099 0.
0.668017 0.0870104 0.
0.670018 0.0870109 0.
0.672018 0.0870114 0.
0.674018 0.0870113 0.
0.676019 0.087011 0.
0.678019 0.0870109 0.
0.68002 0.0870121 0.
0.68202 0.0870133 0.
0.684021 0.0870144 0.
0.686021 0.0870155 0.
0.688021 0.0870165 0.
0.690021 0.0870177 0.
0.692021 0.0870188 0.
0.694021 0.08702 0.
0.696021 0.0870218 0.
0.698021 0.0870239 0.
0.499979 0.0890205 0.
0.501979 0.0890195 0.
0.50398 0.0890185 0.
0.50598 0.0890174 0.
0.50798 0.0890166 0.
0.50998 0.0890157 0.
0.511981 0.0890149 0.
0.513981 0.0890143 0.
0.515982 0.0890136 0.
0.517982 0.0890129 0.
0.519982 0.0890122 0.
0.521983 0.0890115 0.
0.523983 0.0890113 0.
0.525983 0.0890113 0.
0.527983 0.0890111 0.
0.529984 0.0890105 0.
0.531985 0.0890098 0.
0.533985 0.0890093 0.
0.535986 0.0890093 0.
0.537986 0.0890092 0.
0.539986 0.0890091 0.
0.541986 0.089009 0.
0.543986 0.0890089 0.
0.545986 0.0890086 0.
0.547986 0.0890082 0.
0.549986 0.0890079 0.
0.551986 0.0890072 0.
0.553986 0.0890065 0.
0.555987 0.0890059 0.
0.557987 0.0890055 0.
0.559987 0.0890052 0.
0.561988 0.0890049 0.
0.563988 0.0890045 0.
0.565989 0.0890042 0.
0.567989 0.0890044 0.
0.56999 0.0890048 0.
0.57199 0.0890051 0.
0.573991 0.0890053 0.
0.575992 0.0890054 0.
0.577992 0.0890056 0.
0.579993 0.0890056 0.
0.581993 0.0890057 0.
0.583994 0.0890058 0.
0.585994 0.0890059 0.
0.587995 0.0890059 0.
0.589995 0.089006 0.
0.591996 0.089006 0.
0.593997 0.0890061 0.
0.595997 0.0890059 0.
0.597999 0.0890057 0.
0.6 0.0890055 0.
0.602001 0.0890058 0.
0.604002 0.0890062 0.
0.606003 0.0890064 0.
0.608004 0.0890064 0.
0.610005 0.0890064 0.
0.612006 0.0890064 0.
0.614007 0.0890065 0.
0.616008 0.0890066 0.
0.618008 0.0890064 0.
0.620009 0.0890061 0.
0.622009 0.0890057 0.
0.624009 0.0890056 0.
0.62601 0.0890054 0.
0.62801 0.0890052 0.
0.630011 0.089005 0.
0.632012 0.0890048 0.
0.634013 0.0890047 0.
0.636013 0.0890051 0.
0.638013 0.0890055 0.
0.640013 0.0890059 0.
0.642013 0.0890064 0.
0.644013 0.0890068 0.
0.646013 0.0890072 0.
0.648014 0.0890076 0.
0.650014 0.0890079 0.
0.652014 0.0890084 0.
0.654014 0.0890088 0.
0.656014 0.0890092 0.
0.658014 0.0890091 0.
0.660015 0.0890091 0.
0.662015 0.0890092 0.
0.664015 0.0890095 0.
0.666016 0.0890098 0.
0.668016 0.0890103 0.
0.670017 0.089011 0.
0.672017 0.0890116 0.
0.674017 0.0890114 0.
0.676018 0.0890112 0.
0.678018 0.0890111 0.
0.680018 0.0890121 0.
0.682019 0.0890132 0.
0.684019 0.0890143 0.
0.686019 0.0890154 0.
0.688019 0.0890166 0.
0.690019 0.0890178 0.
0.692019 0.0890191 0.
0.694019 0.0890204 0.
0.696019 0.0890218 0.
0.698019 0.0890233 0.
0.499981 0.0910203 0.
0.501981 0.0910193 0.
0.503981 0.0910184 0.
0.505981 0.0910175 0.
0.507981 0.0910165 0.
0.509982 0.0910156 0.
0.511982 0.0910147 0.
0.513983 0.091014 0.
0.515983 0.0910134 0.
0.517983 0.0910127 0.
0.519984 0.0910121 0.
0.521984 0.0910114 0.
0.523984 0.0910113 0.
0.525984 0.0910112 0.
0.527984 0.0910111 0.
0.529985 0.0910105 0.
0.531986 0.0910098 0.
0.533986 0.0910093 0.
0.535986 0.0910092 0.
0.537986 0.0910091 0.
0.539987 0.091009 0.
0.541987 0.091009 0.
0.543987 0.091009 0.
0.545987 0.0910087 0.
0.547986 0.0910084 0.
0.549986 0.091008 0.
0.551987 0.0910073 0.
0.553987 0.0910065 0.
0.555987 0.0910058 0.
0.557988 0.0910055 0.
0.559988 0.0910052 0.
0.561988 0.0910049 0.
0.563988 0.0910045 0.
0.565989 0.0910042 0.
0.567989 0.0910043 0.
0.56999 0.0910046 0.
0.57199 0.091005 0.
0.573991 0.0910052 0.
0.575992 0.0910054 0.
0.577992 0.0910056 0.
0.579993 0.0910057 0.
0.581993 0.0910057 0.
0.583994 0.0910058 0.
0.585994 0.0910058 0.
0.587995 0.0910059 0.
0.589995 0.0910059 0.
0.591996 0.0910059 0.
0.593996 0.0910059 0.
0.595997 0.0910057 0.
0.597998 0.0910055 0.
0.599999 0.0910053 0.
0.602001 0.0910055 0.
0.604002 0.0910057 0.
0.606003 0.0910059 0.
0.608004 0.0910059 0.
0.610005 0.091006 0.
0.612006 0.0910061 0.
0.614007 0.0910062 0.
0.616008 0.0910064 0.
0.618008 0.0910062 0.
0.620009 0.0910059 0.
0.622009 0.0910056 0.
0.624009 0.0910054 0.
0.62601 0.0910052 0.
0.62801 0.091005 0.
0.630011 0.0910048 0.
0.632012 0.0910045 0.
0.634012 0.0910045 0.
0.636012 0.091005 0.
0.638013 0.0910054 0.
0.640013 0.0910059 0.
0.642012 0.0910064 0.
0.644012 0.0910069 0.
0.646013 0.0910073 0.
0.648013 0.0910077 0.
0.650013 0.0910081 0.
0.652013 0.0910085 0.
0.654013 0.0910089 0.
0.656013 0.0910092 0.
0.658013 0.0910091 0.
0.660014 0.0910091 0.
0.662014 0.0910092 0.
0.664014 0.0910096 0.
0.666015 0.09101 0.
0.668015 0.0910104 0.
0.670016 0.091011 0.
0.672016 0.0910115 0.
0.674016 0.0910114 0.
0.676016 0.0910112 0.
0.678017 0.0910111 0.
0.680017 0.0910121 0.
0.682017 0.0910131 0.
0.684017 0.0910141 0.
0.686017 0.0910154 0.
0.688018 0.0910167 0.
0.690018 0.0910179 0.
0.692018 0.0910192 0.
0.694018 0.0910204 0.
0.696018 0.0910217 0.
0.698018 0.0910229 0.
0.499982 0.0930201 0.
0.501982 0.0930192 0.
0.503982 0.0930185 0.
0.505982 0.0930176 0.
0.507983 0.0930165 0.
0.509983 0.0930154 0.
0.511983 0.0930144 0.
0.513984 0.0930136 0.
0.515984 0.0930128 0.
0.517984 0.0930122 0.
0.519985 0.0930117 0.
0.521985 0.0930112 0.
0.523985 0.0930112 0.
0.525985 0.0930112 0.
0.527985 0.0930112 0.
0.529986 0.0930107 0.
0.531986 0.0930102 0.
0.533986 0.0930098 0.
0.535987 0.0930095 0.
0.537987 0.0930092 0.
0.539987 0.093009 0.
0.541987 0.0930089 0.
0.543987 0.0930089 0.
0.545987 0.0930087 0.
0.547987 0.0930085 0.
0.549987 0.0930083 0.
0.551987 0.0930074 0.
0.553987 0.0930066 0.
0.555987 0.0930058 0.
0.557988 0.0930055 0.
0.559988 0.0930052 0.
0.561988 0.093005 0.
0.563988 0.0930047 0.
0.565989 0.0930044 0.
0.567989 0.0930044 0.
0.56999 0.0930046 0.
0.57199 0.0930047 0.
0.573991 0.093005 0.
0.575991 0.0930052 0.
0.577991 0.0930055 0.
0.579992 0.0930056 0.
0.581993 0.0930058 0.
0.583993 0.0930058 0.
0.585994 0.0930057 0.
0.587994 0.0930056 0.
0.589995 0.0930055 0.
0.591996 0.0930055 0.
0.593996 0.0930055 0.
0.595997 0.0930054 0.
0.597998 0.0930052 0.
0.599999 0.0930051 0.
0.602001 0.0930052 0.
0.604002 0.0930052 0.
0.606003 0.0930053 0.
0.608004 0.0930053 0.
0.610005 0.0930054 0.
0.612006 0.0930055 0.
0.614007 0.0930057 0.
0.616008 0.0930059 0.
0.618008 0.0930057 0.
0.620009 0.0930055 0.
0.622009 0.0930052 0.
0.62401 0.0930051 0.
0.62601 0.093005 0.
0.62801 0.0930048 0.
0.630011 0.0930046 0.
0.632012 0.0930044 0.
0.634012 0.0930044 0.
0.636012 0.0930048 0.
0.638012 0.0930052 0.
0.640012 0.0930058 0.
0.642012 0.0930064 0.
0.644012 0.0930071 0.
0.646012 0.0930076 0.
0.648012 0.093008 0.
0.650012 0.0930085 0.
0.652012 0.0930086 0.
0.654012 0.0930087 0.
0.656012 0.0930089 0.
0.658013 0.0930091 0.
0.660013 0.0930093 0.
0.662014 0.0930096 0.
0.664014 0.09301 0.
0.666014 0.0930104 0.
0.668014 0.0930107 0.
0.670014 0.0930109 0.
0.672015 0.0930111 0.
0.674015 0.0930111 0.
0.676015 0.0930111 0.
0.678016 0.0930112 0.
0.680016 0.0930121 0.
0.682016 0.093013 0.
0.684016 0.0930141 0.
0.686016 0.0930154 0.
0.688016 0.0930168 0.
0.690016 0.093018 0.
0.692016 0.093019 0.
0.694016 0.0930201 0.
0.696017 0.0930213 0.
0.698017 0.0930226 0.
0.499983 0.0950198 0.
0.501983 0.0950191 0.
0.503984 0.0950185 0.
0.505984 0.0950178 0.
0.507984 0.0950165 0.
0.509984 0.0950152 0.
0.511985 0.0950141 0.
0.513985 0.0950131 0.
0.515985 0.0950122 0.
0.517985 0.0950116 0.
0.519986 0.0950113 0.
0.521986 0.095011 0.
0.523986 0.0950111 0.
0.525986 0.0950112 0.
0.527987 0.0950113 0.
0.529987 0.0950109 0.
0.531987 0.0950106 0.
0.533987 0.0950102 0.
0.535987 0.0950098 0.
0.537987 0.0950093 0.
0.539987 0.095009 0.
0.541987 0.0950089 0.
0.543988 0.0950087 0.
0.545988 0.0950087 0.
0.547988 0.0950086 0.
0.549988 0.0950086 0.
0.551988 0.0950076 0.
0.553987 0.0950067 0.
0.555987 0.0950059 0.
0.557988 0.0950056 0.
0.559988 0.0950052 0.
0.561988 0.095005 0.
0.563988 0.0950049 0.
0.565989 0.0950047 0.
0.567989 0.0950046 0.
0.569989 0.0950045 0.
0.57199 0.0950044 0.
0.57399 0.0950047 0.
0.57599 0.0950051 0.
0.577991 0.0950054 0.
0.579992 0.0950056 0.
0.581992 0.0950058 0.
0.583993 0.0950059 0.
0.585994 0.0950056 0.
0.587994 0.0950053 0.
0.589995 0.0950051 0.
0.591996 0.0950051 0.
0.593996 0.0950051 0.
0.595997 0.095005 0.
0.597998 0.095005 0.
0.599999 0.0950049 0.
0.602 0.0950048 0.
0.604002 0.0950048 0.
0.606003 0.0950047 0.
0.608004 0.0950047 0.
0.610005 0.0950048 0.
0.612006 0.0950049 0.
0.614007 0.0950051 0.
0.616008 0.0950053 0.
0.618009 0.0950053 0.
0.620009 0.095005 0.
0.62201 0.0950048 0.
0.62401 0.0950047 0.
0.62601 0.0950047 0.
0.62801 0.0950047 0.
0.630011 0.0950045 0.
0.632011 0.0950043 0.
0.634012 0.0950043 0.
0.636012 0.0950046 0.
0.638012 0.095005 0.
0.640012 0.0950056 0.
0.642012 0.0950064 0.
0.644012 0.0950072 0.
0.646012 0.0950078 0.
0.648012 0.0950083 0.
0.650012 0.0950088 0.
0.652012 0.0950087 0.
0.654012 0.0950086 0.
0.656012 0.0950086 0.
0.658012 0.095009 0.
0.660013 0.0950095 0.
0.662013 0.0950099 0.
0.664013 0.0950104 0.
0.666013 0.0950108 0.
0.668013 0.0950109 0.
0.670013 0.0950108 0.
0.672014 0.0950108 0.
0.674014 0.0950109 0.
0.676014 0.095011 0.
0.678015 0.0950112 0.
0.680014 0.0950121 0.
0.682014 0.095013 0.
0.684014 0.095014 0.
0.686015 0.0950154 0.
0.688015 0.0950169 0.
0.690015 0.095018 0.
0.692015 0.0950189 0.
0.694015 0.0950198 0.
0.696016 0.095021 0.
0.698016 0.0950224 0.
0.499984 0.0970199 0.
0.501984 0.0970191 0.
0.503984 0.0970184 0.
0.505985 0.0970176 0.
0.507985 0.0970164 0.
0.509985 0.0970152 0.
0.511985 0.0970141 0.
0.513985 0.0970133 0.
0.515986 0.0970124 0.
0.517986 0.0970118 0.
0.519986 0.0970112 0.
0.521986 0.0970106 0.
0.523987 0.0970107 0.
0.525987 0.0970108 0.
0.527988 0.0970109 0.
0.529988 0.0970108 0.
0.531988 0.0970107 0.
0.533988 0.0970105 0.
0.535988 0.09701 0.
0.537987 0.0970096 0.
0.539988 0.0970092 0.
0.541988 0.0970089 0.
0.543988 0.0970085 0.
0.545988 0.0970084 0.
0.547989 0.0970082 0.
0.549989 0.0970081 0.
0.551989 0.0970075 0.
0.553988 0.097007 0.
0.555988 0.0970064 0.
0.557988 0.0970059 0.
0.559989 0.0970055 0.
0.561989 0.0970051 0.
0.563989 0.0970049 0.
0.565989 0.0970047 0.
0.56799 0.0970045 0.
0.56999 0.0970044 0.
0.57199 0.0970044 0.
0.57399 0.0970046 0.
0.575991 0.0970049 0.
0.577991 0.0970052 0.
0.579992 0.0970054 0.
0.581992 0.0970055 0.
0.583993 0.0970057 0.
0.585994 0.0970056 0.
0.587995 0.0970056 0.
0.589995 0.0970055 0.
0.591996 0.0970053 0.
0.593996 0.097005 0.
0.595997 0.0970049 0.
0.597998 0.0970049 0.
0.599999 0.0970048 0.
0.602001 0.0970047 0.
0.604002 0.0970047 0.
0.606003 0.0970046 0.
0.608004 0.0970045 0.
0.610004 0.0970043 0.
0.612005 0.0970043 0.
0.614006 0.0970045 0.
0.616007 0.0970047 0.
0.618008 0.0970047 0.
0.620008 0.0970045 0.
0.622009 0.0970044 0.
0.624009 0.0970044 0.
0.62601 0.0970045 0.
0.62801 0.0970045 0.
0.630011 0.0970044 0.
0.632011 0.0970042 0.
0.634011 0.0970043 0.
0.636011 0.0970047 0.
0.638011 0.0970051 0.
0.640011 0.0970059 0.
0.642011 0.0970068 0.
0.644011 0.0970077 0.
0.646011 0.097008 0.
0.648011 0.0970082 0.
0.650011 0.0970084 0.
0.652011 0.0970085 0.
0.654011 0.0970086 0.
0.656011 0.0970088 0.
0.658012 0.0970091 0.
0.660012 0.0970095 0.
0.662013 0.0970099 0.
0.664013 0.0970102 0.
0.666013 0.0970106 0.
0.668013 0.0970106 0.
0.670013 0.0970106 0.
0.672013 0.0970105 0.
0.674013 0.0970107 0.
0.676013 0.0970109 0.
0.678014 0.0970112 0.
0.680013 0.0970121 0.
0.682013 0.0970129 0.
0.684013 0.097014 0.
0.686014 0.0970153 0.
0.688014 0.0970167 0.
0.690014 0.0970178 0.
0.692014 0.0970187 0.
0.694014 0.0970196 0.
0.696015 0.097021 0.
0.698015 0.0970225 0.
0.499985 0.0990199 0.
0.501985 0.099019 0.
0.503985 0.0990182 0.
0.505985 0.0990174 0.
0.507986 0.0990162 0.
0.509986 0.0990151 0.
0.511986 0.0990142 0.
0.513986 0.0990135 0.
0.515986 0.0990127 0.
0.517986 0.0990119 0.
0.519987 0.0990111 0.
0.521987 0.0990102 0.
0.523987 0.0990102 0.
0.525988 0.0990104 0.
0.527988 0.0990105 0.
0.529988 0.0990107 0.
0.531988 0.0990108 0.
0.533988 0.0990108 0.
0.535988 0.0990103 0.
0.537988 0.0990099 0.
0.539988 0.0990094 0.
0.541988 0.0990089 0.
0.543989 0.0990083 0.
0.545989 0.099008 0.
0.54799 0.0990079 0.
0.54999 0.0990077 0.
0.55199 0.0990075 0.
0.553989 0.0990073 0.
0.555989 0.0990069 0.
0.557989 0.0990063 0.
0.559989 0.0990057 0.
0.561989 0.0990052 0.
0.56399 0.0990049 0.
0.56599 0.0990046 0.
0.56799 0.0990044 0.
0.56999 0.0990044 0.
0.57199 0.0990043 0.
0.57399 0.0990045 0.
0.575991 0.0990048 0.
0.577992 0.099005 0.
0.579992 0.0990051 0.
0.581993 0.0990052 0.
0.583993 0.0990054 0.
0.585994 0.0990057 0.
0.587995 0.099006 0.
0.589995 0.0990058 0.
0.591996 0.0990054 0.
0.593996 0.099005 0.
0.595997 0.0990048 0.
0.597998 0.0990047 0.
0.6 0.0990046 0.
0.602001 0.0990046 0.
0.604002 0.0990046 0.
0.606003 0.0990046 0.
0.608003 0.0990042 0.
0.610004 0.0990039 0.
0.612005 0.0990038 0.
0.614005 0.0990039 0.
0.616006 0.0990041 0.
0.618007 0.0990041 0.
0.620008 0.099004 0.
0.622009 0.0990039 0.
0.624009 0.099004 0.
0.62601 0.0990042 0.
0.62801 0.0990044 0.
0.630011 0.0990043 0.
0.632011 0.0990042 0.
0.634011 0.0990043 0.
0.636011 0.0990048 0.
0.638011 0.0990053 0.
0.640011 0.0990061 0.
0.64201 0.0990071 0.
0.64401 0.0990081 0.
0.64601 0.0990083 0.
0.64801 0.0990082 0.
0.65001 0.0990081 0.
0.65201 0.0990084 0.
0.654011 0.0990087 0.
0.656011 0.099009 0.
0.658011 0.0990093 0.
0.660012 0.0990095 0.
0.662012 0.0990098 0.
0.664012 0.0990101 0.
0.666013 0.0990103 0.
0.668013 0.0990104 0.
0.670013 0.0990103 0.
0.672013 0.0990102 0.
0.674013 0.0990105 0.
0.676013 0.0990109 0.
0.678013 0.0990113 0.
0.680012 0.0990121 0.
0.682012 0.0990129 0.
0.684012 0.0990139 0.
0.686013 0.0990152 0.
0.688013 0.0990165 0.
0.690013 0.0990176 0.
0.692013 0.0990186 0.
0.694013 0.0990195 0.
0.696014 0.099021 0.
0.698014 0.0990227 0.
CELLS 5000 10000
1 0
1 1
1 2
1 3
1 4
1 5
1 6
1 7
1 8
1 9
1 10
1 11
1 12
1 13
1 14
1 15
1 16
1 17
1 18
1 19
1 20
1 21
1 22
1 23
1 24
1 25
1 26
1 27
1 28
1 29
1 30
1 31
1 32
1 33
1 34
1 35
1 36
1 37
1 38
1 39
1 40
1 41
1 42
1 43
1 44
1 45
1 46
1 47
1 48
1 49
1 50
1 51
1 52
1 53
1 54
1 55
1 56
1 57
1 58
1 59
1 60
1 61
1 62
1 63
1 64
1 65
1 66
1 67
1 68
1 69
1 70
1 71
1 72
1 73
1 74
1 75
1 76
1 77
1 78
1 79
1 80
1 81
1 82
1 83
1 84
1 85
1 86
1 87
1 88
1 89
1 90
1 91
1 92
1 93
1 94
1 95
1 96
1 97
1 98
1 99
1 100
1 101
1 102
1 103
1 104
1 105
1 106
1 107
1 108
1 109
1 110
1 111
1 112
1 113
1 114
1 115
1 116
1 117
1 118
1 119
1 120
1 121
1 122
1 123
1 124
1 125
1 126
1 127
1 128
1 129
1 130
1 131
1 132
1 133
1 134
1 135
1 136
1 137
1 138
1 139
1 140
1 141
1 142
1 143
1 144
1 145
1 146
1 147
1 148
1 149
1 150
1 151
1 152
1 153
1 154
1 155
1 156
1 157
1 158
1 159
1 160
1 161
1 162
1 163
1 164
1 165
1 166
1 167
1 168
1 169
1 170
1 171
1 172
1 173
1 174
1 175
1 176
1 177
1 178
1 179
1 180
1 181
1 182
1 183
1 184
1 185
1 186
1 187
1 188
1 189
1 190
1 191
1 192
1 193
1 194
1 195
1 196
1 197
1 198
1 199
1 200
1 201
1 202
1 203
1 204
1 205
1 206
1 207
1 208
1 209
1 210
1 211
1 212
1 213
1 214
1 215
1 216
1 217
1 218
1 219
1 220
1 221
1 222
1 223
1 224
1 225
1 226
1 227
1 228
1 229
1 230
1 231
1 232
1 233
1 234
1 235
1 236
1 237
1 238
1 239
1 240
1 241
1 242
1 243
1 244
1 245
1 246
1 247
1 248
1 249
1 250
1 251
1 252
1 253
1 254
1 255
1 256
1 257
1 258
1 259
1 260
1 261
1 262
1 263
1 264
1 265
1 266
1 267
1 268
1 269
1 270
1 271
1 272
1 273
1 274
1 275
1 276
1 277
1 278
1 279
1 280
1 281
1 282
1 283
1 284
1 285
1 286
1 287
1 288
1 289
1 290
1 291
1 292
1 293
1 294
1 295
1 296
1 297
1 298
1 299
1 300
1 301
1 302
1 303
1 304
1 305
1 306
1 307
1 308
1 309
1 310
1 311
1 312
1 313
1 314
1 315
1 316
1 317
1 318
1 319
1 320
1 321
1 322
1 323
1 324
1 325
1 326
1 327
1 328
1 329
1 330
1 331
1 332
1 333
1 334
1 335
1 336
1 337
1 338
1 339
1 340
1 341
1 342
1 343
1 344
1 345
1 346
1 347
1 348
1 349
1 350
1 351
1 352
1 353
1 354
1 355
1 356
1 357
1 358
1 359
1 360
1 361
1 362
1 363
1 364
1 365
1 366
1 367
1 368
1 369
1 370
1 371
1 372
1 373
1 374
1 375
1 376
1 377
1 378
1 379
1 380
1 381
1 382
1 383
1 384
1 385
1 386
1 387
1 388
1 389
1 390
1 391
1 392
1 393
1 394
1 395
1 396
1 397
1 398
1 399
1 400
1 401
1 402
1 403
1 404
1 405
1 406
1 407
1 408
1 409
1 410
1 411
1 412
1 413
1 414
1 415
1 416
1 417
1 418
1 419
1 420
1 421
1 422
1 423
1 424
1 425
1 426
1 427
1 428
1 429
1 430
1 431
1 432
1 433
1 434
1 435
1 436
1 437
1 438
1 439
1 440
1 441
1 442
1 443
1 444
1 445
1 446
1 447
1 448
1 449
1 450
1 451
1 452
1 453
1 454
1 455
1 456
1 457
1 458
1 459
1 460
1 461
1 462
1 463
1 464
1 465
1 466
1 467
1 468
1 469
1 470
1 471
1 472
1 473
1 474
1 475
1 476
1 477
1 478
1 479
1 480
1 481
1 482
1 483
1 484
1 485
1 486
1 487
1 488
1 489
1 490
1 491
1 492
1 493
1 494
1 495
1 496
1 497
1 498
1 499
1 500
1 501
1 502
1 503
1 504
1 505
1 506
1 507
1 508
1 509
1 510
1 511
1 512
1 513
1 514
1 515
1 516
1 517
1 518
1 519
1 520
1 521
1 522
1 523
1 524
1 525
1 526
1 527
1 528
1 529
1 530
1 531
1 532
1 533
1 534
1 535
1 536
1 537
1 538
1 539
1 540
1 541
1 542
1 543
1 544
1 545
1 546
1 547
1 548
1 549
1 550
1 551
1 552
1 553
1 554
1 555
1 556
1 557
1 558
1 559
1 560
1 561
1 562
1 563
1 564
1 565
1 566
1 567
1 568
1 569
1 570
1 571
1 572
1 573
1 574
1 575
1 576
1 577
1 578
1 579
1 580
1 581
1 582
1 583
1 584
1 585
1 586
1 587
1 588
1 589
1 590
1 591
1 592
1 593
1 594
1 595
1 596
1 597
1 598
1 599
1 600
1 601
1 602
1 603
1 604
1 605
1 606
1 607
1 608
1 609
1 610
1 611
1 612
1 613
1 614
1 615
1 616
1 617
1 618
1 619
1 620
1 621
1 622
1 623
1 624
1 625
1 626
1 627
1 628
1 629
1 630
1 631
1 632
1 633
1 634
1 635
1 636
1 637
1 638
1 639
1 640
1 641
1 642
1 643
1 644
1 645
1 646
1 647
1 648
1 649
1 650
1 651
1 652
1 653
1 654
1 655
1 656
1 657
1 658
1 659
1 660
1 661
1 662
1 663
1 664
1 665
1 666
1 667
1 668
1 669
1 670
1 671
1 672
1 673
1 674
1 675
1 676
1 677
1 678
1 679
1 680
1 681
1 682
1 683
1 684
1 685
1 686
1 687
1 688
1 689
1 690
1 691
1 692
1 693
1 694
1 695
1 696
1 697
1 698
1 699
1 700
1 701
1 702
1 703
1 704
1 705
1 706
1 707
1 708
1 709
1 710
1 711
1 712
1 713
1 714
1 715
1 716
1 717
1 718
1 719
1 720
1 721
1 722
1 723
1 724
1 725
1 726
1 727
1 728
1 729
1 730
1 731
1 732
1 733
1 734
1 735
1 736
1 737
1 738
1 739
1 740
1 741
1 742
1 743
1 744
1 745
1 746
1 747
1 748
1 749
1 750
1 751
1 752
1 753
1 754
1 755
1 756
1 757
1 758
1 759
1 760
1 761
1 762
1 763
1 764
1 765
1 766
1 767
1 768
1 769
1 770
1 771
1 772
1 773
1 774
1 775
1 776
1 777
1 778
1 779
1 780
1 781
1 782
1 783
1 784
1 785
1 786
1 787
1 788
1 789
1 790
1 791
1 792
1 793
1 794
1 795
1 796
1 797
1 798
1 799
1 800
1 801
1 802
1 803
1 804
1 805
1 806
1 807
1 808
1 809
1 810
1 811
1 812
1 813
1 814
1 815
1 816
1 817
1 818
1 819
1 820
1 821
1 822
1 823
1 824
1 825
1 826
1 827
1 828
1 829
1 830
1 831
1 832
1 833
1 834
1 835
1 836
1 837
1 838
1 839
1 840
1 841
1 842
1 843
1 844
1 845
1 846
1 847
1 848
1 849
1 850
1 851
1 852
1 853
1 854
1 855
1 856
1 857
1 858
1 859
1 860
1 861
1 862
1 863
1 864
1 865
1 866
1 867
1 868
1 869
1 870
1 871
1 872
1 873
1 874
1 875
1 876
1 877
1 878
1 879
1 880
1 881
1 882
1 883
1 884
1 885
1 886
1 887
1 888
1 889
1 890
1 891
1 892
1 893
1 894
1 895
1 896
1 897
1 898
1 899
1 900
1 901
1 902
1 903
1 904
1 905
1 906
1 907
1 908
1 909
1 910
1 911
1 912
1 913
1 914
1 915
1 916
1 917
1 918
1 919
1 920
1 921
1 922
1 923
1 924
1 925
1 926
1 927
1 928
1 929
1 930
1 931
1 932
1 933
1 934
1 935
1 936
1 937
1 938
1 939
1 940
1 941
1 942
1 943
1 944
1 945
1 946
1 947
1 948
1 949
1 950
1 951
1 952
1 953
1 954
1 955
1 956
1 957
1 958
1 959
1 960
1 961
1 962
1 963
1 964
1 965
1 966
1 967
1 968
1 969
1 970
1 971
1 972
1 973
1 974
1 975
1 976
1 977
1 978
1 979
1 980
1 981
1 982
1 983
1 984
1 985
1 986
1 987
1 988
1 989
1 990
1 991
1 992
1 993
1 994
1 995
1 996
1 997
1 998
1 999
1 1000
1 1001
1 1002
1 1003
1 1004
1 1005
1 1006
1 1007
1 1008
1 1009
1 1010
1 1011
1 1012
1 1013
1 1014
1 1015
1 1016
1 1017
1 1018
1 1019
1 1020
1 1021
1 1022
1 1023
1 1024
1 1025
1 1026
1 1027
1 1028
1 1029
1 1030
1 1031
1 1032
1 1033
1 1034
1 1035
1 1036
1 1037
1 1038
1 1039
1 1040
1 1041
1 1042
1 1043
1 1044
1 1045
1 1046
1 1047
1 1048
1 1049
1 1050
1 1051
1 1052
1 1053
1 1054
1 1055
1 1056
1 1057
1 1058
1 1059
1 1060
1 1061
1 1062
1 1063
1 1064
1 1065
1 1066
1 1067
1 1068
1 1069
1 1070
1 1071
1 1072
1 1073
1 1074
1 1075
1 1076
1 1077
1 1078
1 1079
1 1080
1 1081
1 1082
1 1083
1 1084
1 1085
1 1086
1 1087
1 1088
1 1089
1 1090
1 1091
1 1092
1 1093
1 1094
1 1095
1 1096
1 1097
1 1098
1 1099
1 1100
1 1101
1 1102
1 1103
1 1104
1 1105
1 1106
1 1107
1 1108
1 1109
1 1110
1 1111
1 1112
1 1113
1 1114
1 1115
1 1116
1 1117
1 1118
1 1119
1 1120
1 1121
1 1122
1 1123
1 1124
1 1125
1 1126
1 1127
1 1128
1 1129
1 1130
1 1131
1 1132
1 1133
1 1134
1 1135
1 1136
1 1137
1 1138
1 1139
1 1140
1 1141
1 1142
1 1143
1 1144
1 1145
1 1146
1 1147
1 1148
1 1149
1 1150
1 1151
1 1152
1 1153
1 1154
1 1155
1 1156
1 1157
1 1158
1 1159
1 1160
1 1161
1 1162
1 1163
1 1164
1 1165
1 1166
1 1167
1 1168
1 1169
1 1170
1 1171
1 1172
1 1173
1 1174
1 1175
1 1176
1 1177
1 1178
1 1179
1 1180
1 1181
1 1182
1 1183
1 1184
1 1185
1 1186
1 1187
1 1188
1 1189
1 1190
1 1191
1 1192
1 1193
1 1194
1 1195
1 1196
1 1197
1 1198
1 1199
1 1200
1 1201
1 1202
1 1203
1 1204
1 1205
1 1206
1 1207
1 1208
1 1209
1 1210
1 1211
1 1212
1 1213
1 1214
1 1215
1 1216
1 1217
1 1218
1 1219
1 1220
1 1221
1 1222
1 1223
1 1224
1 1225
1 1226
1 1227
1 1228
1 1229
1 1230
1 1231
1 1232
1 1233
1 1234
1 1235
1 1236
1 1237
1 1238
1 1239
1 1240
1 1241
1 1242
1 1243
1 1244
1 1245
1 1246
1 1247
1 1248
1 1249
1 1250
1 1251
1 1252
1 1253
1 1254
1 1255
1 1256
1 1257
1 1258
1 1259
1 1260
1 1261
1 1262
1 1263
1 1264
1 1265
1 1266
1 1267
1 1268
1 1269
1 1270
1 1271
1 1272
1 1273
1 1274
1 1275
1 1276
1 1277
1 1278
1 1279
1 1280
1 1281
1 1282
1 1283
1 1284
1 1285
1 1286
1 1287
1 1288
1 1289
1 1290
1 1291
1 1292
1 1293
1 1294
1 1295
1 1296
1 1297
1 1298
1 1299
1 1300
1 1301
1 1302
1 1303
1 1304
1 1305
1 1306
1 1307
1 1308
1 1309
1 1310
1 1311
1 1312
1 1313
1 1314
1 1315
1 1316
1 1317
1 1318
1 1319
1 1320
1 1321
1 1322
1 1323
1 1324
1 1325
1 1326
1 1327
1 1328
1 1329
1 1330
1 1331
1 1332
1 1333
1 1334
1 1335
1 1336
1 1337
1 1338
1 1339
1 1340
1 1341
1 1342
1 1343
1 1344
1 1345
1 1346
1 1347
1 1348
1 1349
1 1350
1 1351
1 1352
1 1353
1 1354
1 1355
1 1356
1 1357
1 1358
1 1359
1 1360
1 1361
1 1362
1 1363
1 1364
1 1365
1 1366
1 1367
1 1368
1 1369
1 1370
1 1371
1 1372
1 1373
1 1374
1 1375
1 1376
1 1377
1 1378
1 1379
1 1380
1 1381
1 1382
1 1383
1 1384
1 1385
1 1386
1 1387
1 1388
1 1389
1 1390
1 1391
1 1392
1 1393
1 1394
1 1395
1 1396
1 1397
1 1398
1 1399
1 1400
1 1401
1 1402
1 1403
1 1404
1 1405
1 1406
1 1407
1 1408
1 1409
1 1410
1 1411
1 1412
1 1413
1 1414
1 1415
1 1416
1 1417
1 1418
1 1419
1 1420
1 1421
1 1422
1 1423
1 1424
1 1425
1 1426
1 1427
1 1428
1 1429
1 1430
1 1431
1 1432
1 1433
1 1434
1 1435
1 1436
1 1437
1 1438
1 1439
1 1440
1 1441
1 1442
1 1443
1 1444
1 1445
1 1446
1 1447
1 1448
1 1449
1 1450
1 1451
1 1452
1 1453
1 1454
1 1455
1 1456
1 1457
1 1458
1 1459
1 1460
1 1461
1 1462
1 1463
1 1464
1 1465
1 1466
1 1467
1 1468
1 1469
1 1470
1 1471
1 1472
1 1473
1 1474
1 1475
1 1476
1 1477
1 1478
1 1479
1 1480
1 1481
1 1482
1 1483
1 1484
1 1485
1 1486
1 1487
1 1488
1 1489
1 1490
1 1491
1 1492
1 1493
1 1494
1 1495
1 1496
1 1497
1 1498
1 1499
1 1500
1 1501
1 1502
1 1503
1 1504
1 1505
1 1506
1 1507
1 1508
1 1509
1 1510
1 1511
1 1512
1 1513
1 1514
1 1515
1 1516
1 1517
1 1518
1 1519
1 1520
1 1521
1 1522
1 1523
1 1524
1 1525
1 1526
1 1527
1 1528
1 1529
1 1530
1 1531
1 1532
1 1533
1 1534
1 1535
1 1536
1 1537
1 1538
1 1539
1 1540
1 1541
1 1542
1 1543
1 1544
1 1545
1 1546
1 1547
1 1548
1 1549
1 1550
1 1551
1 1552
1 1553
1 1554
1 1555
1 1556
1 1557
1 1558
1 1559
1 1560
1 1561
1 1562
1 1563
1 1564
1 1565
1 1566
1 1567
1 1568
1 1569
1 1570
1 1571
1 1572
1 1573
1 1574
1 1575
1 1576
1 1577
1 1578
1 1579
1 1580
1 1581
1 1582
1 1583
1 1584
1 1585
1 1586
1 1587
1 1588
1 1589
1 1590
1 1591
1 1592
1 1593
1 1594
1 1595
1 1596
1 1597
1 1598
1 1599
1 1600
1 1601
1 1602
1 1603
1 1604
1 1605
1 1606
1 1607
1 1608
1 1609
1 1610
1 1611
1 1612
1 1613
1 1614
1 1615
1 1616
1 1617
1 1618
1 1619
1 1620
1 1621
1 1622
1 1623
1 1624
1 1625
1 1626
1 1627
1 1628
1 1629
1 1630
1 1631
1 1632
1 1633
1 1634
1 1635
1 1636
1 1637
1 1638
1 1639
1 1640
1 1641
1 1642
1 1643
1 1644
1 1645
1 1646
1 1647
1 1648
1 1649
1 1650
1 1651
1 1652
1 1653
1 1654
1 1655
1 1656
1 1657
1 1658
1 1659
1 1660
1 1661
1 1662
1 1663
1 1664
1 1665
1 1666
1 1667
1 1668
1 1669
1 1670
1 1671
1 1672
1 1673
1 1674
1 1675
1 1676
1 1677
1 1678
1 1679
1 1680
1 1681
1 1682
1 1683
1 1684
1 1685
1 1686
1 1687
1 1688
1 1689
1 1690
1 1691
1 1692
1 1693
1 1694
1 1695
1 1696
1 1697
1 1698
1 1699
1 1700
1 1701
1 1702
1 1703
1 1704
1 1705
1 1706
1 1707
1 1708
1 1709
1 1710
1 1711
1 1712
1 1713
1 1714
1 1715
1 1716
1 1717
1 1718
1 1719
1 1720
1 1721
1 1722
1 1723
1 1724
1 1725
1 1726
1 1727
1 1728
1 1729
1 1730
1 1731
1 1732
1 1733
1 1734
1 1735
1 1736
1 1737
1 1738
1 1739
1 1740
1 1741
1 1742
1 1743
1 1744
1 1745
1 1746
1 1747
1 1748
1 1749
1 1750
1 1751
1 1752
1 1753
1 1754
1 1755
1 1756
1 1757
1 1758
1 1759
1 1760
1 1761
1 1762
1 1763
1 1764
1 1765
1 1766
1 1767
1 1768
1 1769
1 1770
1 1771
1 1772
1 1773
1 1774
1 1775
1 1776
1 1777
1 1778
1 1779
1 1780
1 1781
1 1782
1 1783
1 1784
1 1785
1 1786
1 1787
1 1788
1 1789
1 1790
1 1791
1 1792
1 1793
1 1794
1 1795
1 1796
1 1797
1 1798
1 1799
1 1800
1 1801
1 1802
1 1803
1 1804
1 1805
1 1806
1 1807
1 1808
1 1809
1 1810
1 1811
1 1812
1 1813
1 1814
1 1815
1 1816
1 1817
1 1818
1 1819
1 1820
1 1821
1 1822
1 1823
1 1824
1 1825
1 1826
1 1827
1 1828
1 1829
1 1830
1 1831
1 1832
1 1833
1 1834
1 1835
1 1836
1 1837
1 1838
1 1839
1 1840
1 1841
1 1842
1 1843
1 1844
1 1845
1 1846
1 1847
1 1848
1 1849
1 1850
1 1851
1 1852
1 1853
1 1854
1 1855
1 1856
1 1857
1 1858
1 1859
1 1860
1 1861
1 1862
1 1863
1 1864
1 1865
1 1866
1 1867
1 1868
1 1869
1 1870
1 1871
1 1872
1 1873
1 1874
1 1875
1 1876
1 1877
1 1878
1 1879
1 1880
1 1881
1 1882
1 1883
1 1884
1 1885
1 1886
1 1887
1 1888
1 1889
1 1890
1 1891
1 1892
1 1893
1 1894
1 1895
1 1896
1 1897
1 1898
1 1899
1 1900
1 1901
1 1902
1 1903
1 1904
1 1905
1 1906
1 1907
1 1908
1 1909
1 1910
1 1911
1 1912
1 1913
1 1914
1 1915
1 1916
1 1917
1 1918
1 1919
1 1920
1 1921
1 1922
1 1923
1 1924
1 1925
1 1926
1 1927
1 1928
1 1929
1 1930
1 1931
1 1932
1 1933
1 1934
1 1935
1 1936
1 1937
1 1938
1 1939
1 1940
1 1941
1 1942
1 1943
1 1944
1 1945
1 1946
1 1947
1 1948
1 1949
1 1950
1 1951
1 1952
1 1953
1 1954
1 1955
1 1956
1 1957
1 1958
1 1959
1 1960
1 1961
1 1962
1 1963
1 1964
1 1965
1 1966
1 1967
1 1968
1 1969
1 1970
1 1971
1 1972
1 1973
1 1974
1 1975
1 1976
1 1977
1 1978
1 1979
1 1980
1 1981
1 1982
1 1983
1 1984
1 1985
1 1986
1 1987
1 1988
1 1989
1 1990
1 1991
1 1992
1 1993
1 1994
1 1995
1 1996
1 1997
1 1998
1 1999
1 2000
1 2001
1 2002
1 2003
1 2004
1 2005
1 2006
1 2007
1 2008
1 2009
1 2010
1 2011
1 2012
1 2013
1 2014
1 2015
1 2016
1 2017
1 2018
1 2019
1 2020
1 2021
1 2022
1 2023
1 2024
1 2025
1 2026
1 2027
1 2028
1 2029
1 2030
1 2031
1 2032
1 2033
1 2034
1 2035
1 2036
1 2037
1 2038
1 2039
1 2040
1 2041
1 2042
1 2043
1 2044
1 2045
1 2046
1 2047
1 2048
1 2049
1 2050
1 2051
1 2052
1 2053
1 2054
1 2055
1 2056
1 2057
1 2058
1 2059
1 2060
1 2061
1 2062
1 2063
1 2064
1 2065
1 2066
1 2067
1 2068
1 2069
1 2070
1 2071
1 2072
1 2073
1 2074
1 2075
1 2076
1 2077
1 2078
1 2079
1 2080
1 2081
1 2082
1 2083
1 2084
1 2085
1 2086
1 2087
1 2088
1 2089
1 2090
1 2091
1 2092
1 2093
1 2094
1 2095
1 2096
1 2097
1 2098
1 2099
1 2100
1 2101
1 2102
1 2103
1 2104
1 2105
1 2106
1 2107
1 2108
1 2109
1 2110
1 2111
1 2112
1 2113
1 2114
1 2115
1 2116
1 2117
1 2118
1 2119
1 2120
1 2121
1 2122
1 2123
1 2124
1 2125
1 2126
1 2127
1 2128
1 2129
1 2130
1 2131
1 2132
1 2133
1 2134
1 2135
1 2136
1 2137
1 2138
1 2139
1 2140
1 2141
1 2142
1 2143
1 2144
1 2145
1 2146
1 2147
1 2148
1 2149
1 2150
1 2151
1 2152
1 2153
1 2154
1 2155
1 2156
1 2157
1 2158
1 2159
1 2160
1 2161
1 2162
1 2163
1 2164
1 2165
1 2166
1 2167
1 2168
1 2169
1 2170
1 2171
1 2172
1 2173
1 2174
1 2175
1 2176
1 2177
1 2178
1 2179
1 2180
1 2181
1 2182
1 2183
1 2184
1 2185
1 2186
1 2187
1 2188
1 2189
1 2190
1 2191
1 2192
1 2193
1 2194
1 2195
1 2196
1 2197
1 2198
1 2199
1 2200
1 2201
1 2202
1 2203
1 2204
1 2205
1 2206
1 2207
1 2208
1 2209
1 2210
1 2211
1 2212
1 2213
1 2214
1 2215
1 2216
1 2217
1 2218
1 2219
1 2220
1 2221
1 2222
1 2223
1 2224
1 2225
1 2226
1 2227
1 2228
1 2229
1 2230
1 2231
1 2232
1 2233
1 2234
1 2235
1 2236
1 2237
1 2238
1 2239
1 2240
1 2241
1 2242
1 2243
1 2244
1 2245
1 2246
1 2247
1 2248
1 2249
1 2250
1 2251
1 2252
1 2253
1 2254
1 2255
1 2256
1 2257
1 2258
1 2259
1 2260
1 2261
1 2262
1 2263
1 2264
1 2265
1 2266
1 2267
1 2268
1 2269
1 2270
1 2271
1 2272
1 2273
1 2274
1 2275
1 2276
1 2277
1 2278
1 2279
1 2280
1 2281
1 2282
1 2283
1 2284
1 2285
1 2286
1 2287
1 2288
1 2289
1 2290
1 2291
1 2292
1 2293
1 2294
1 2295
1 2296
1 2297
1 2298
1 2299
1 2300
1 2301
1 2302
1 2303
1 2304
1 2305
1 2306
1 2307
1 2308
1 2309
1 2310
1 2311
1 2312
1 2313
1 2314
1 2315
1 2316
1 2317
1 2318
1 2319
1 2320
1 2321
1 2322
1 2323
1 2324
1 2325
1 2326
1 2327
1 2328
1 2329
1 2330
1 2331
1 2332
1 2333
1 2334
1 2335
1 2336
1 2337
1 2338
1 2339
1 2340
1 2341
1 2342
1 2343
1 2344
1 2345
1 2346
1 2347
1 2348
1 2349
1 2350
1 2351
1 2352
1 2353
1 2354
1 2355
1 2356
1 2357
1 2358
1 2359
1 2360
1 2361
1 2362
1 2363
1 2364
1 2365
1 2366
1 2367
1 2368
1 2369
1 2370
1 2371
1 2372
1 2373
1 2374
1 2375
1 2376
1 2377
1 2378
1 2379
1 2380
1 2381
1 2382
1 2383
1 2384
1 2385
1 2386
1 2387
1 2388
1 2389
1 2390
1 2391
1 2392
1 2393
1 2394
1 2395
1 2396
1 2397
1 2398
1 2399
1 2400
1 2401
1 2402
1 2403
1 2404
1 2405
1 2406
1 2407
1 2408
1 2409
1 2410
1 2411
1 2412
1 2413
1 2414
1 2415
1 2416
1 2417
1 2418
1 2419
1 2420
1 2421
1 2422
1 2423
1 2424
1 2425
1 2426
1 2427
1 2428
1 2429
1 2430
1 2431
1 2432
1 2433
1 2434
1 2435
1 2436
1 2437
1 2438
1 2439
1 2440
1 2441
1 2442
1 2443
1 2444
1 2445
1 2446
1 2447
1 2448
1 2449
1 2450
1 2451
1 2452
1 2453
1 2454
1 2455
1 2456
1 2457
1 2458
1 2459
1 2460
1 2461
1 2462
1 2463
1 2464
1 2465
1 2466
1 2467
1 2468
1 2469
1 2470
1 2471
1 2472
1 2473
1 2474
1 2475
1 2476
1 2477
1 2478
1 2479
1 2480
1 2481
1 2482
1 2483
1 2484
1 2485
1 2486
1 2487
1 2488
1 2489
1 2490
1 2491
1 2492
1 2493
1 2494
1 2495
1 2496
1 2497
1 2498
1 2499
1 2500
1 2501
1 2502
1 2503
1 2504
1 2505
1 2506
1 2507
1 2508
1 2509
1 2510
1 2511
1 2512
1 2513
1 2514
1 2515
1 2516
1 2517
1 2518
1 2519
1 2520
1 2521
1 2522
1 2523
1 2524
1 2525
1 2526
1 2527
1 2528
1 2529
1 2530
1 2531
1 2532
1 2533
1 2534
1 2535
1 2536
1 2537
1 2538
1 2539
1 2540
1 2541
1 2542
1 2543
1 2544
1 2545
1 2546
1 2547
1 2548
1 2549
1 2550
1 2551
1 2552
1 2553
1 2554
1 2555
1 2556
1 2557
1 2558
1 2559
1 2560
1 2561
1 2562
1 2563
1 2564
1 2565
1 2566
1 2567
1 2568
1 2569
1 2570
1 2571
1 2572
1 2573
1 2574
1 2575
1 2576
1 2577
1 2578
1 2579
1 2580
1 2581
1 2582
1 2583
1 2584
1 2585
1 2586
1 2587
1 2588
1 2589
1 2590
1 2591
1 2592
1 2593
1 2594
1 2595
1 2596
1 2597
1 2598
1 2599
1 2600
1 2601
1 2602
1 2603
1 2604
1 2605
1 2606
1 2607
1 2608
1 2609
1 2610
1 2611
1 2612
1 2613
1 2614
1 2615
1 2616
1 2617
1 2618
1 2619
1 2620
1 2621
1 2622
1 2623
1 2624
1 2625
1 2626
1 2627
1 2628
1 2629
1 2630
1 2631
1 2632
1 2633
1 2634
1 2635
1 2636
1 2637
1 2638
1 2639
1 2640
1 2641
1 2642
1 2643
1 2644
1 2645
1 2646
1 2647
1 2648
1 2649
1 2650
1 2651
1 2652
1 2653
1 2654
1 2655
1 2656
1 2657
1 2658
1 2659
1 2660
1 2661
1 2662
1 2663
1 2664
1 2665
1 2666
1 2667
1 2668
1 2669
1 2670
1 2671
1 2672
1 2673
1 2674
1 2675
1 2676
1 2677
1 2678
1 2679
1 2680
1 2681
1 2682
1 2683
1 2684
1 2685
1 2686
1 2687
1 2688
1 2689
1 2690
1 2691
1 2692
1 2693
1 2694
1 2695
1 2696
1 2697
1 2698
1 2699
1 2700
1 2701
1 2702
1 2703
1 2704
1 2705
1 2706
1 2707
1 2708
1 2709
1 2710
1 2711
1 2712
1 2713
1 2714
1 2715
1 2716
1 2717
1 2718
1 2719
1 2720
1 2721
1 2722
1 2723
1 2724
1 2725
1 2726
1 2727
1 2728
1 2729
1 2730
1 2731
1 2732
1 2733
1 2734
1 2735
1 2736
1 2737
1 2738
1 2739
1 2740
1 2741
1 2742
1 2743
1 2744
1 2745
1 2746
1 2747
1 2748
1 2749
1 2750
1 2751
1 2752
1 2753
1 2754
1 2755
1 2756
1 2757
1 2758
1 2759
1 2760
1 2761
1 2762
1 2763
1 2764
1 2765
1 2766
1 2767
1 2768
1 2769
1 2770
1 2771
1 2772
1 2773
1 2774
1 2775
1 2776
1 2777
1 2778
1 2779
1 2780
1 2781
1 2782
1 2783
1 2784
1 2785
1 2786
1 2787
1 2788
1 2789
1 2790
1 2791
1 2792
1 2793
1 2794
1 2795
1 2796
1 2797
1 2798
1 2799
1 2800
1 2801
1 2802
1 2803
1 2804
1 2805
1 2806
1 2807
1 2808
1 2809
1 2810
1 2811
1 2812
1 2813
1 2814
1 2815
1 2816
1 2817
1 2818
1 2819
1 2820
1 2821
1 2822
1 2823
1 2824
1 2825
1 2826
1 2827
1 2828
1 2829
1 2830
1 2831
1 2832
1 2833
1 2834
1 2835
1 2836
1 2837
1 2838
1 2839
1 2840
1 2841
1 2842
1 2843
1 2844
1 2845
1 2846
1 2847
1 2848
1 2849
1 2850
1 2851
1 2852
1 2853
1 2854
1 2855
1 2856
1 2857
1 2858
1 2859
1 2860
1 2861
1 2862
1 2863
1 2864
1 2865
1 2866
1 2867
1 2868
1 2869
1 2870
1 2871
1 2872
1 2873
1 2874
1 2875
1 2876
1 2877
1 2878
1 2879
1 2880
1 2881
1 2882
1 2883
1 2884
1 2885
1 2886
1 2887
1 2888
1 2889
1 2890
1 2891
1 2892
1 2893
1 2894
1 2895
1 2896
1 2897
1 2898
1 2899
1 2900
1 2901
1 2902
1 2903
1 2904
1 2905
1 2906
1 2907
1 2908
1 2909
1 2910
1 2911
1 2912
1 2913
1 2914
1 2915
1 2916
1 2917
1 2918
1 2919
1 2920
1 2921
1 2922
1 2923
1 2924
1 2925
1 2926
1 2927
1 2928
1 2929
1 2930
1 2931
1 2932
1 2933
1 2934
1 2935
1 2936
1 2937
1 2938
1 2939
1 2940
1 2941
1 2942
1 2943
1 2944
1 2945
1 2946
1 2947
1 2948
1 2949
1 2950
1 2951
1 2952
1 2953
1 2954
1 2955
1 2956
1 2957
1 2958
1 2959
1 2960
1 2961
1 2962
1 2963
1 2964
1 2965
1 2966
1 2967
1 2968
1 2969
1 2970
1 2971
1 2972
1 2973
1 2974
1 2975
1 2976
1 2977
1 2978
1 2979
1 2980
1 2981
1 2982
1 2983
1 2984
1 2985
1 2986
1 2987
1 2988
1 2989
1 2990
1 2991
1 2992
1 2993
1 2994
1 2995
1 2996
1 2997
1 2998
1 2999
1 3000
1 3001
1 3002
1 3003
1 3004
1 3005
1 3006
1 3007
1 3008
1 3009
1 3010
1 3011
1 3012
1 3013
1 3014
1 3015
1 3016
1 3017
1 3018
1 3019
1 3020
1 3021
1 3022
1 3023
1 3024
1 3025
1 3026
1 3027
1 3028
1 3029
1 3030
1 3031
1 3032
1 3033
1 3034
1 3035
1 3036
1 3037
1 3038
1 3039
1 3040
1 3041
1 3042
1 3043
1 3044
1 3045
1 3046
1 3047
1 3048
1 3049
1 3050
1 3051
1 3052
1 3053
1 3054
1 3055
1 3056
1 3057
1 3058
1 3059
1 3060
1 3061
1 3062
1 3063
1 3064
1 3065
1 3066
1 3067
1 3068
1 3069
1 3070
1 3071
1 3072
1 3073
1 3074
1 3075
1 3076
1 3077
1 3078
1 3079
1 3080
1 3081
1 3082
1 3083
1 3084
1 3085
1 3086
1 3087
1 3088
1 3089
1 3090
1 3091
1 3092
1 3093
1 3094
1 3095
1 3096
1 3097
1 3098
1 3099
1 3100
1 3101
1 3102
1 3103
1 3104
1 3105
1 3106
1 3107
1 3108
1 3109
1 3110
1 3111
1 3112
1 3113
1 3114
1 3115
1 3116
1 3117
1 3118
1 3119
1 3120
1 3121
1 3122
1 3123
1 3124
1 3125
1 3126
1 3127
1 3128
1 3129
1 3130
1 3131
1 3132
1 3133
1 3134
1 3135
1 3136
1 3137
1 3138
1 3139
1 3140
1 3141
1 3142
1 3143
1 3144
1 3145
1 3146
1 3147
1 3148
1 3149
1 3150
1 3151
1 3152
1 3153
1 3154
1 3155
1 3156
1 3157
1 3158
1 3159
1 3160
1 3161
1 3162
1 3163
1 3164
1 3165
1 3166
1 3167
1 3168
1 3169
1 3170
1 3171
1 3172
1 3173
1 3174
1 3175
1 3176
1 3177
1 3178
1 3179
1 3180
1 3181
1 3182
1 3183
1 3184
1 3185
1 3186
1 3187
1 3188
1 3189
1 3190
1 3191
1 3192
1 3193
1 3194
1 3195
1 3196
1 3197
1 3198
1 3199
1 3200
1 3201
1 3202
1 3203
1 3204
1 3205
1 3206
1 3207
1 3208
1 3209
1 3210
1 3211
1 3212
1 3213
1 3214
1 3215
1 3216
1 3217
1 3218
1 3219
1 3220
1 3221
1 3222
1 3223
1 3224
1 3225
1 3226
1 3227
1 3228
1 3229
1 3230
1 3231
1 3232
1 3233
1 3234
1 3235
1 3236
1 3237
1 3238
1 3239
1 3240
1 3241
1 3242
1 3243
1 3244
1 3245
1 3246
1 3247
1 3248
1 3249
1 3250
1 3251
1 3252
1 3253
1 3254
1 3255
1 3256
1 3257
1 3258
1 3259
1 3260
1 3261
1 3262
1 3263
1 3264
1 3265
1 3266
1 3267
1 3268
1 3269
1 3270
1 3271
1 3272
1 3273
1 3274
1 3275
1 3276
1 3277
1 3278
1 3279
1 3280
1 3281
1 3282
1 3283
1 3284
1 3285
1 3286
1 3287
1 3288
1 3289
1 3290
1 3291
1 3292
1 3293
1 3294
1 3295
1 3296
1 3297
1 3298
1 3299
1 3300
1 3301
1 3302
1 3303
1 3304
1 3305
1 3306
1 3307
1 3308
1 3309
1 3310
1 3311
1 3312
1 3313
1 3314
1 3315
1 3316
1 3317
1 3318
1 3319
1 3320
1 3321
1 3322
1 3323
1 3324
1 3325
1 3326
1 3327
1 3328
1 3329
1 3330
1 3331
1 3332
1 3333
1 3334
1 3335
1 3336
1 3337
1 3338
1 3339
1 3340
1 3341
1 3342
1 3343
1 3344
1 3345
1 3346
1 3347
1 3348
1 3349
1 3350
1 3351
1 3352
1 3353
1 3354
1 3355
1 3356
1 3357
1 3358
1 3359
1 3360
1 3361
1 3362
1 3363
1 3364
1 3365
1 3366
1 3367
1 3368
1 3369
1 3370
1 3371
1 3372
1 3373
1 3374
1 3375
1 3376
1 3377
1 3378
1 3379
1 3380
1 3381
1 3382
1 3383
1 3384
1 3385
1 3386
1 3387
1 3388
1 3389
1 3390
1 3391
1 3392
1 3393
1 3394
1 3395
1 3396
1 3397
1 3398
1 3399
1 3400
1 3401
1 3402
1 3403
1 3404
1 3405
1 3406
1 3407
1 3408
1 3409
1 3410
1 3411
1 3412
1 3413
1 3414
1 3415
1 3416
1 3417
1 3418
1 3419
1 3420
1 3421
1 3422
1 3423
1 3424
1 3425
1 3426
1 3427
1 3428
1 3429
1 3430
1 3431
1 3432
1 3433
1 3434
1 3435
1 3436
1 3437
1 3438
1 3439
1 3440
1 3441
1 3442
1 3443
1 3444
1 3445
1 3446
1 3447
1 3448
1 3449
1 3450
1 3451
1 3452
1 3453
1 3454
1 3455
1 3456
1 3457
1 3458
1 3459
1 3460
1 3461
1 3462
1 3463
1 3464
1 3465
1 3466
1 3467
1 3468
1 3469
1 3470
1 3471
1 3472
1 3473
1 3474
1 3475
1 3476
1 3477
1 3478
1 3479
1 3480
1 3481
1 3482
1 3483
1 3484
1 3485
1 3486
1 3487
1 3488
1 3489
1 3490
1 3491
1 3492
1 3493
1 3494
1 3495
1 3496
1 3497
1 3498
1 3499
1 3500
1 3501
1 3502
1 3503
1 3504
1 3505
1 3506
1 3507
1 3508
1 3509
1 3510
1 3511
1 3512
1 3513
1 3514
1 3515
1 3516
1 3517
1 3518
1 3519
1 3520
1 3521
1 3522
1 3523
1 3524
1 3525
1 3526
1 3527
1 3528
1 3529
1 3530
1 3531
1 3532
1 3533
1 3534
1 3535
1 3536
1 3537
1 3538
1 3539
1 3540
1 3541
1 3542
1 3543
1 3544
1 3545
1 3546
1 3547
1 3548
1 3549
1 3550
1 3551
1 3552
1 3553
1 3554
1 3555
1 3556
1 3557
1 3558
1 3559
1 3560
1 3561
1 3562
1 3563
1 3564
1 3565
1 3566
1 3567
1 3568
1 3569
1 3570
1 3571
1 3572
1 3573
1 3574
1 3575
1 3576
1 3577
1 3578
1 3579
1 3580
1 3581
1 3582
1 3583
1 3584
1 3585
1 3586
1 3587
1 3588
1 3589
1 3590
1 3591
1 3592
1 3593
1 3594
1 3595
1 3596
1 3597
1 3598
1 3599
1 3600
1 3601
1 3602
1 3603
1 3604
1 3605
1 3606
1 3607
1 3608
1 3609
1 3610
1 3611
1 3612
1 3613
1 3614
1 3615
1 3616
1 3617
1 3618
1 3619
1 3620
1 3621
1 3622
1 3623
1 3624
1 3625
1 3626
1 3627
1 3628
1 3629
1 3630
1 3631
1 3632
1 3633
1 3634
1 3635
1 3636
1 3637
1 3638
1 3639
1 3640
1 3641
1 3642
1 3643
1 3644
1 3645
1 3646
1 3647
1 3648
1 3649
1 3650
1 3651
1 3652
1 3653
1 3654
1 3655
1 3656
1 3657
1 3658
1 3659
1 3660
1 3661
1 3662
1 3663
1 3664
1 3665
1 3666
1 3667
1 3668
1 3669
1 3670
1 3671
1 3672
1 3673
1 3674
1 3675
1 3676
1 3677
1 3678
1 3679
1 3680
1 3681
1 3682
1 3683
1 3684
1 3685
1 3686
1 3687
1 3688
1 3689
1 3690
1 3691
1 3692
1 3693
1 3694
1 3695
1 3696
1 3697
1 3698
1 3699
1 3700
1 3701
1 3702
1 3703
1 3704
1 3705
1 3706
1 3707
1 3708
1 3709
1 3710
1 3711
1 3712
1 3713
1 3714
1 3715
1 3716
1 3717
1 3718
1 3719
1 3720
1 3721
1 3722
1 3723
1 3724
1 3725
1 3726
1 3727
1 3728
1 3729
1 3730
1 3731
1 3732
1 3733
1 3734
1 3735
1 3736
1 3737
1 3738
1 3739
1 3740
1 3741
1 3742
1 3743
1 3744
1 3745
1 3746
1 3747
1 3748
1 3749
1 3750
1 3751
1 3752
1 3753
1 3754
1 3755
1 3756
1 3757
1 3758
1 3759
1 3760
1 3761
1 3762
1 3763
1 3764
1 3765
1 3766
1 3767
1 3768
1 3769
1 3770
1 3771
1 3772
1 3773
1 3774
1 3775
1 3776
1 3777
1 3778
1 3779
1 3780
1 3781
1 3782
1 3783
1 3784
1 3785
1 3786
1 3787
1 3788
1 3789
1 3790
1 3791
1 3792
1 3793
1 3794
1 3795
1 3796
1 3797
1 3798
1 3799
1 3800
1 3801
1 3802
1 3803
1 3804
1 3805
1 3806
1 3807
1 3808
1 3809
1 3810
1 3811
1 3812
1 3813
1 3814
1 3815
1 3816
1 3817
1 3818
1 3819
1 3820
1 3821
1 3822
1 3823
1 3824
1 3825
1 3826
1 3827
1 3828
1 3829
1 3830
1 3831
1 3832
1 3833
1 3834
1 3835
1 3836
1 3837
1 3838
1 3839
1 3840
1 3841
1 3842
1 3843
1 3844
1 3845
1 3846
1 3847
1 3848
1 3849
1 3850
1 3851
1 3852
1 3853
1 3854
1 3855
1 3856
1 3857
1 3858
1 3859
1 3860
1 3861
1 3862
1 3863
1 3864
1 3865
1 3866
1 3867
1 3868
1 3869
1 3870
1 3871
1 3872
1 3873
1 3874
1 3875
1 3876
1 3877
1 3878
1 3879
1 3880
1 3881
1 3882
1 3883
1 3884
1 3885
1 3886
1 3887
1 3888
1 3889
1 3890
1 3891
1 3892
1 3893
1 3894
1 3895
1 3896
1 3897
1 3898
1 3899
1 3900
1 3901
1 3902
1 3903
1 3904
1 3905
1 3906
1 3907
1 3908
1 3909
1 3910
1 3911
1 3912
1 3913
1 3914
1 3915
1 3916
1 3917
1 3918
1 3919
1 3920
1 3921
1 3922
1 3923
1 3924
1 3925
1 3926
1 3927
1 3928
1 3929
1 3930
1 3931
1 3932
1 3933
1 3934
1 3935
1 3936
1 3937
1 3938
1 3939
1 3940
1 3941
1 3942
1 3943
1 3944
1 3945
1 3946
1 3947
1 3948
1 3949
1 3950
1 3951
1 3952
1 3953
1 3954
1 3955
1 3956
1 3957
1 3958
1 3959
1 3960
1 3961
1 3962
1 3963
1 3964
1 3965
1 3966
1 3967
1 3968
1 3969
1 3970
1 3971
1 3972
1 3973
1 3974
1 3975
1 3976
1 3977
1 3978
1 3979
1 3980
1 3981
1 3982
1 3983
1 3984
1 3985
1 3986
1 3987
1 3988
1 3989
1 3990
1 3991
1 3992
1 3993
1 3994
1 3995
1 3996
1 3997
1 3998
1 3999
1 4000
1 4001
1 4002
1 4003
1 4004
1 4005
1 4006
1 4007
1 4008
1 4009
1 4010
1 4011
1 4012
1 4013
1 4014
1 4015
1 4016
1 4017
1 4018
1 4019
1 4020
1 4021
1 4022
1 4023
1 4024
1 4025
1 4026
1 4027
1 4028
1 4029
1 4030
1 4031
1 4032
1 4033
1 4034
1 4035
1 4036
1 4037
1 4038
1 4039
1 4040
1 4041
1 4042
1 4043
1 4044
1 4045
1 4046
1 4047
1 4048
1 4049
1 4050
1 4051
1 4052
1 4053
1 4054
1 4055
1 4056
1 4057
1 4058
1 4059
1 4060
1 4061
1 4062
1 4063
1 4064
1 4065
1 4066
1 4067
1 4068
1 4069
1 4070
1 4071
1 4072
1 4073
1 4074
1 4075
1 4076
1 4077
1 4078
1 4079
1 4080
1 4081
1 4082
1 4083
1 4084
1 4085
1 4086
1 4087
1 4088
1 4089
1 4090
1 4091
1 4092
1 4093
1 4094
1 4095
1 4096
1 4097
1 4098
1 4099
1 4100
1 4101
1 4102
1 4103
1 4104
1 4105
1 4106
1 4107
1 4108
1 4109
1 4110
1 4111
1 4112
1 4113
1 4114
1 4115
1 4116
1 4117
1 4118
1 4119
1 4120
1 4121
1 4122
1 4123
1 4124
1 4125
1 4126
1 4127
1 4128
1 4129
1 4130
1 4131
1 4132
1 4133
1 4134
1 4135
1 4136
1 4137
1 4138
1 4139
1 4140
1 4141
1 4142
1 4143
1 4144
1 4145
1 4146
1 4147
1 4148
1 4149
1 4150
1 4151
1 4152
1 4153
1 4154
1 4155
1 4156
1 4157
1 4158
1 4159
1 4160
1 4161
1 4162
1 4163
1 4164
1 4165
1 4166
1 4167
1 4168
1 4169
1 4170
1 4171
1 4172
1 4173
1 4174
1 4175
1 4176
1 4177
1 4178
1 4179
1 4180
1 4181
1 4182
1 4183
1 4184
1 4185
1 4186
1 4187
1 4188
1 4189
1 4190
1 4191
1 4192
1 4193
1 4194
1 4195
1 4196
1 4197
1 4198
1 4199
1 4200
1 4201
1 4202
1 4203
1 4204
1 4205
1 4206
1 4207
1 4208
1 4209
1 4210
1 4211
1 4212
1 4213
1 4214
1 4215
1 4216
1 4217
1 4218
1 4219
1 4220
1 4221
1 4222
1 4223
1 4224
1 4225
1 4226
1 4227
1 4228
1 4229
1 4230
1 4231
1 4232
1 4233
1 4234
1 4235
1 4236
1 4237
1 4238
1 4239
1 4240
1 4241
1 4242
1 4243
1 4244
1 4245
1 4246
1 4247
1 4248
1 4249
1 4250
1 4251
1 4252
1 4253
1 4254
1 4255
1 4256
1 4257
1 4258
1 4259
1 4260
1 4261
1 4262
1 4263
1 4264
1 4265
1 4266
1 4267
1 4268
1 4269
1 4270
1 4271
1 4272
1 4273
1 4274
1 4275
1 4276
1 4277
1 4278
1 4279
1 4280
1 4281
1 4282
1 4283
1 4284
1 4285
1 4286
1 4287
1 4288
1 4289
1 4290
1 4291
1 4292
1 4293
1 4294
1 4295
1 4296
1 4297
1 4298
1 4299
1 4300
1 4301
1 4302
1 4303
1 4304
1 4305
1 4306
1 4307
1 4308
1 4309
1 4310
1 4311
1 4312
1 4313
1 4314
1 4315
1 4316
1 4317
1 4318
1 4319
1 4320
1 4321
1 4322
1 4323
1 4324
1 4325
1 4326
1 4327
1 4328
1 4329
1 4330
1 4331
1 4332
1 4333
1 4334
1 4335
1 4336
1 4337
1 4338
1 4339
1 4340
1 4341
1 4342
1 4343
1 4344
1 4345
1 4346
1 4347
1 4348
1 4349
1 4350
1 4351
1 4352
1 4353
1 4354
1 4355
1 4356
1 4357
1 4358
1 4359
1 4360
1 4361
1 4362
1 4363
1 4364
1 4365
1 4366
1 4367
1 4368
1 4369
1 4370
1 4371
1 4372
1 4373
1 4374
1 4375
1 4376
1 4377
1 4378
1 4379
1 4380
1 4381
1 4382
1 4383
1 4384
1 4385
1 4386
1 4387
1 4388
1 4389
1 4390
1 4391
1 4392
1 4393
1 4394
1 4395
1 4396
1 4397
1 4398
1 4399
1 4400
1 4401
1 4402
1 4403
1 4404
1 4405
1 4406
1 4407
1 4408
1 4409
1 4410
1 4411
1 4412
1 4413
1 4414
1 4415
1 4416
1 4417
1 4418
1 4419
1 4420
1 4421
1 4422
1 4423
1 4424
1 4425
1 4426
1 4427
1 4428
1 4429
1 4430
1 4431
1 4432
1 4433
1 4434
1 4435
1 4436
1 4437
1 4438
1 4439
1 4440
1 4441
1 4442
1 4443
1 4444
1 4445
1 4446
1 4447
1 4448
1 4449
1 4450
1 4451
1 4452
1 4453
1 4454
1 4455
1 4456
1 4457
1 4458
1 4459
1 4460
1 4461
1 4462
1 4463
1 4464
1 4465
1 4466
1 4467
1 4468
1 4469
1 4470
1 4471
1 4472
1 4473
1 4474
1 4475
1 4476
1 4477
1 4478
1 4479
1 4480
1 4481
1 4482
1 4483
1 4484
1 4485
1 4486
1 4487
1 4488
1 4489
1 4490
1 4491
1 4492
1 4493
1 4494
1 4495
1 4496
1 4497
1 4498
1 4499
1 4500
1 4501
1 4502
1 4503
1 4504
1 4505
1 4506
1 4507
1 4508
1 4509
1 4510
1 4511
1 4512
1 4513
1 4514
1 4515
1 4516
1 4517
1 4518
1 4519
1 4520
1 4521
1 4522
1 4523
1 4524
1 4525
1 4526
1 4527
1 4528
1 4529
1 4530
1 4531
1 4532
1 4533
1 4534
1 4535
1 4536
1 4537
1 4538
1 4539
1 4540
1 4541
1 4542
1 4543
1 4544
1 4545
1 4546
1 4547
1 4548
1 4549
1 4550
1 4551
1 4552
1 4553
1 4554
1 4555
1 4556
1 4557
1 4558
1 4559
1 4560
1 4561
1 4562
1 4563
1 4564
1 4565
1 4566
1 4567
1 4568
1 4569
1 4570
1 4571
1 4572
1 4573
1 4574
1 4575
1 4576
1 4577
1 4578
1 4579
1 4580
1 4581
1 4582
1 4583
1 4584
1 4585
1 4586
1 4587
1 4588
1 4589
1 4590
1 4591
1 4592
1 4593
1 4594
1 4595
1 4596
1 4597
1 4598
1 4599
1 4600
1 4601
1 4602
1 4603
1 4604
1 4605
1 4606
1 4607
1 4608
1 4609
1 4610
1 4611
1 4612
1 4613
1 4614
1 4615
1 4616
1 4617
1 4618
1 4619
1 4620
1 4621
1 4622
1 4623
1 4624
1 4625
1 4626
1 4627
1 4628
1 4629
1 4630
1 4631
1 4632
1 4633
1 4634
1 4635
1 4636
1 4637
1 4638
1 4639
1 4640
1 4641
1 4642
1 4643
1 4644
1 4645
1 4646
1 4647
1 4648
1 4649
1 4650
1 4651
1 4652
1 4653
1 4654
1 4655
1 4656
1 4657
1 4658
1 4659
1 4660
1 4661
1 4662
1 4663
1 4664
1 4665
1 4666
1 4667
1 4668
1 4669
1 4670
1 4671
1 4672
1 4673
1 4674
1 4675
1 4676
1 4677
1 4678
1 4679
1 4680
1 4681
1 4682
1 4683
1 4684
1 4685
1 4686
1 4687
1 4688
1 4689
1 4690
1 4691
1 4692
1 4693
1 4694
1 4695
1 4696
1 4697
1 4698
1 4699
1 4700
1 4701
1 4702
1 4703
1 4704
1 4705
1 4706
1 4707
1 4708
1 4709
1 4710
1 4711
1 4712
1 4713
1 4714
1 4715
1 4716
1 4717
1 4718
1 4719
1 4720
1 4721
1 4722
1 4723
1 4724
1 4725
1 4726
1 4727
1 4728
1 4729
1 4730
1 4731
1 4732
1 4733
1 4734
1 4735
1 4736
1 4737
1 4738
1 4739
1 4740
1 4741
1 4742
1 4743
1 4744
1 4745
1 4746
1 4747
1 4748
1 4749
1 4750
1 4751
1 4752
1 4753
1 4754
1 4755
1 4756
1 4757
1 4758
1 4759
1 4760
1 4761
1 4762
1 4763
1 4764
1 4765
1 4766
1 4767
1 4768
1 4769
1 4770
1 4771
1 4772
1 4773
1 4774
1 4775
1 4776
1 4777
1 4778
1 4779
1 4780
1 4781
1 4782
1 4783
1 4784
1 4785
1 4786
1 4787
1 4788
1 4789
1 4790
1 4791
1 4792
1 4793
1 4794
1 4795
1 4796
1 4797
1 4798
1 4799
1 4800
1 4801
1 4802
1 4803
1 4804
1 4805
1 4806
1 4807
1 4808
1 4809
1 4810
1 4811
1 4812
1 4813
1 4814
1 4815
1 4816
1 4817
1 4818
1 4819
1 4820
1 4821
1 4822
1 4823
1 4824
1 4825
1 4826
1 4827
1 4828
1 4829
1 4830
1 4831
1 4832
1 4833
1 4834
1 4835
1 4836
1 4837
1 4838
1 4839
1 4840
1 4841
1 4842
1 4843
1 4844
1 4845
1 4846
1 4847
1 4848
1 4849
1 4850
1 4851
1 4852
1 4853
1 4854
1 4855
1 4856
1 4857
1 4858
1 4859
1 4860
1 4861
1 4862
1 4863
1 4864
1 4865
1 4866
1 4867
1 4868
1 4869
1 4870
1 4871
1 4872
1 4873
1 4874
1 4875
1 4876
1 4877
1 4878
1 4879
1 4880
1 4881
1 4882
1 4883
1 4884
1 4885
1 4886
1 4887
1 4888
1 4889
1 4890
1 4891
1 4892
1 4893
1 4894
1 4895
1 4896
1 4897
1 4898
1 4899
1 4900
1 4901
1 4902
1 4903
1 4904
1 4905
1 4906
1 4907
1 4908
1 4909
1 4910
1 4911
1 4912
1 4913
1 4914
1 4915
1 4916
1 4917
1 4918
1 4919
1 4920
1 4921
1 4922
1 4923
1 4924
1 4925
1 4926
1 4927
1 4928
1 4929
1 4930
1 4931
1 4932
1 4933
1 4934
1 4935
1 4936
1 4937
1 4938
1 4939
1 4940
1 4941
1 4942
1 4943
1 4944
1 4945
1 4946
1 4947
1 4948
1 4949
1 4950
1 4951
1 4952
1 4953
1 4954
1 4955
1 4956
1 4957
1 4958
1 4959
1 4960
1 4961
1 4962
1 4963
1 4964
1 4965
1 4966
1 4967
1 4968
1 4969
1 4970
1 4971
1 4972
1 4973
1 4974
1 4975
1 4976
1 4977
1 4978
1 4979
1 4980
1 4981
1 4982
1 4983
1 4984
1 4985
1 4986
1 4987
1 4988
1 4989
1 4990
1 4991
1 4992
1 4993
1 4994
1 4995
1 4996
1 4997
1 4998
1 4999
CELL_TYPES 5000
1 
1 
1 
1 
1 
1 
1 
1 
1 
1 
1 
1 
1 
1 
1 
1 
1 
1 
1 
1 
1 
1 
1 
1 
1 
1 
1 
1 
1 
1 
1 
1 
1 
1 
1 
1 
1 
1 
1 
1 
1 
1 
1 
1 
1 
1 
1 
1 
1 
1 
1 
1 
1 
1 
1 
1 
1 
1 
1 
1 
1 
1 
1 
1 
1 
1 
1 
1 
1 
1 
1 
1 
1 
1 
1 
1 
1 
1 
1 
1 
1 
1 
1 
1 
1 
1 
1 
1 
1 
1 
1 
1 
1 
1 
1 
1 
1 
1 
1 
1 
1 
1 
1 
1 
1 
1 
1 
1 
1 
1 
1 
1 
1 
1 
1 
1 
1 
1 
1 
1 
1 
1 
1 
1 
1 
1 
1 
1 
1 
1 
1 
1 
1 
1 
1 
1 
1 
1 
1 
1 
1 
1 
1 
1 
1 
1 
1 
1 
1 
1 
1 
1 
1 
1 
1 
1 
1 
1 
1 
1 
1 
1 
1 
1 
1 
1 
1 
1 
1 
1 
1 
1 
1 
1 
1 
1 
1 
1 
1 
1 
1 
1 
1 
1 
1 
1 
1 
1 
1 
1 
1 
1 
1 
1 
1 
1 
1 
1 
1 
1 
1 
1 
1 
1 
1 
1 
1 
1 
1 
1 
1 
1 
1 
1 
1 
1 
1 
1 
1 
1 
1 
1 
1 
1 
1 
1 
1 
1 
1 
1 
1 
1 
1 
1 
1 
1 
1 
1 
1 
1 
1 
1 
1 
1 
1 
1 
1 
1 
1 
1 
1 
1 
1 
1 
1 
1 
1 
1 
1 
1 
1 
1 
1 
1 
1 
1 
1 
1 
1 
1 
1 
1 
1 
1 
1 
1 
1 
1 
1 
1 
1 
1 
1 
1 
1 
1 
1 
1 
1 
1 
1 
1 
1 
1 
1 
1 
1 
1 
1 
1 
1 
1 
1 
1 
1 
1 
1 
1 
1 
1 
1 
1 
1 
1 
1 
1 
1 
1 
1 
1 
1 
1 
1 
1 
1 
1 
1 
1 
1 
1 
1 
1 
1 
1 
1 
1 
1 
1 
1 
1 
1 
1 
1 
1 
1 
1 
1 
1 
1 
1 
1 
1 
1 
1 
1 
1 
1 
1 
1 
1 
1 
1 
1 
1 
1 
1 
1 
1 
1 
1 
1 
1 
1 
1 
1 
1 
1 
1 
1 
1 
1 
1 
1 
1 
1 
1 
1 
1 
1 
1 
1 
1 
1 
1 
1 
1 
1 
1 
1 
1 
1 
1 
1 
1 
1 
1 
1 
1 
1 
1 
1 
1 
1 
1 
1 
1 
1 
1 
1 
1 
1 
1 
1 
1 
1 
1 
1 
1 
1 
1 
1 
1 
1 
1 
1 
1 
1 
1 
1 
1 
1 
1 
1 
1 
1 
1 
1 
1 
1 
1 
1 
1 
1 
1 
1 
1 
1 
1 
1 
1 
1 
1 
1 
1 
1 
1 
1 
1 
1 
1 
1 
1 
1 
1 
1 
1 
1 
1 
1 
1 
1 
1 
1 
1 
1 
1 
1 
1 
1 
1 
1 
1 
1 
1 
1 
1 
1 
1 
1 
1 
1 
1 
1 
1 
1 
1 
1 
1 
1 
1 
1 
1 
1 
1 
1 
1 
1 
1 
1 
1 
1 
1 
1 
1 
1 
1 
1 
1 
1 
1 
1 
1 
1 
1 
1 
1 
1 
1 
1 
1 
1 
1 
1 
1 
1 
1 
1 
1 
1 
1 
1 
1 
1 
1 
1 
1 
1 
1 
1 
1 
1 
1 
1 
1 
1 
1 
1 
1 
1 
1 
1 
1 
1 
1 
1 
1 
1 
1 
1 
1 
1 
1 
1 
1 
1 
1 
1 
1 
1 
1 
1 
1 
1 
1 
1 
1 
1 
1 
1 
1 
1 
1 
1 
1 
1 
1 
1 
1 
1 
1 
1 
1 
1 
1 
1 
1 
1 
1 
1 
1 
1 
1 
1 
1 
1 
1 
1 
1 
1 
1 
1 
1 
1 
1 
1 
1 
1 
1 
1 
1 
1 
1 
1 
1 
1 
1 
1 
1 
1 
1 
1 
1 
1 
1 
1 
1 
1 
1 
1 
1 
1 
1 
1 
1 
1 
1 
1 
1 
1 
1 
1 
1 
1 
1 
1 
1 
1 
1 
1 
1 
1 
1 
1 
1 
1 
1 
1 
1 
1 
1 
1 
1 
1 
1 
1 
1 
1 
1 
1 
1 
1 
1 
1 
1 
1 
1 
1 
1 
1 
1 
1 
1 
1 
1 
1 
1 
1 
1 
1 
1 
1 
1 
1 
1 
1 
1 
1 
1 
1 
1 
1 
1 
1 
1 
1 
1 
1 
1 
1 
1 
1 
1 
1 
1 
1 
1 
1 
1 
1 
1 
1 
1 
1 
1 
1 
1 
1 
1 
1 
1 
1 
1 
1 
1 
1 
1 
1 
1 
1 
1 
1 
1 
1 
1 
1 
1 
1 
1 
1 
1 
1 
1 
1 
1 
1 
1 
1 
1 
1 
1 
1 
1 
1 
1 
1 
1 
1 
1 
1 
1 
1 
1 
1 
1 
1 
1 
1 
1 
1 
1 
1 
1 
1 
1 
1 
1 
1 
1 
1 
1 
1 
1 
1 
1 
1 
1 
1 
1 
1 
1 
1 
1 
1 
1 
1 
1 
1 
1 
1 
1 
1 
1 
1 
1 
1 
1 
1 
1 
1 
1 
1 
1 
1 
1 
1 
1 
1 
1 
1 
1 
1 
1 
1 
1 
1 
1 
1 
1 
1 
1 
1 
1 
1 
1 
1 
1 
1 
1 
1 
1 
1 
1 
1 
1 
1 
1 
1 
1 
1 
1 
1 
1 
1 
1 
1 
1 
1 
1 
1 
1 
1 
1 
1 
1 
1 
1 
1 
1 
1 
1 
1 
1 
1 
1 
1 
1 
1 
1 
1 
1 
1 
1 
1 
1 
1 
1 
1 
1 
1 
1 
1 
1 
1 
1 
1 
1 
1 
1 
1 
1 
1 
1 
1 
1 
1 
1 
1 
1 
1 
1 
1 
1 
1 
1 
1 
1 
1 
1 
1 
1 
1 
1 
1 
1 
1 
1 
1 
1 
1 
1 
1 
1 
1 
1 
1 
1 
1 
1 
1 
1 
1 
1 
1 
1 
1 
1 
1 
1 
1 
1 
1 
1 
1 
1 
1 
1 
1 
1 
1 
1 
1 
1 
1 
1 
1 
1 
1 
1 
1 
1 
1 
1 
1 
1 
1 
1 
1 
1 
1 
1 
1 
1 
1 
1 
1 
1 
1 
1 
1 
1 
1 
1 
1 
1 
1 
1 
1 
1 
1 
1 
1 
1 
1 
1 
1 
1 
1 
1 
1 
1 
1 
1 
1 
1 
1 
1 
1 
1 
1 
1 
1 
1 
1 
1 
1 
1 
1 
1 
1 
1 
1 
1 
1 
1 
1 
1 
1 
1 
1 
1 
1 
1 
1 
1 
1 
1 
1 
1 
1 
1 
1 
1 
1 
1 
1 
1 
1 
1 
1 
1 
1 
1 
1 
1 
1 
1 
1 
1 
1 
1 
1 
1 
1 
1 
1 
1 
1 
1 
1 
1 
1 
1 
1 
1 
1 
1 
1 
1 
1 
1 
1 
1 
1 
1 
1 
1 
1 
1 
1 
1 
1 
1 
1 
1 
1 
1 
1 
1 
1 
1 
1 
1 
1 
1 
1 
1 
1 
1 
1 
1 
1 
1 
1 
1 
1 
1 
1 
1 
1 
1 
1 
1 
1 
1 
1 
1 
1 
1 
1 
1 
1 
1 
1 
1 
1 
1 
1 
1 
1 
1 
1 
1 
1 
1 
1 
1 
1 
1 
1 
1 
1 
1 
1 
1 
1 
1 
1 
1 
1 
1 
1 
1 
1 
1 
1 
1 
1 
1 
1 
1 
1 
1 
1 
1 
1 
1 
1 
1 
1 
1 
1 
1 
1 
1 
1 
1 
1 
1 
1 
1 
1 
1 
1 
1 
1 
1 
1 
1 
1 
1 
1 
1 
1 
1 
1 
1 
1 
1 
1 
1 
1 
1 
1 
1 
1 
1 
1 
1 
1 
1 
1 
1 
1 
1 
1 
1 
1 
1 
1 
1 
1 
1 
1 
1 
1 
1 
1 
1 
1 
1 
1 
1 
1 
1 
1 
1 
1 
1 
1 
1 
1 
1 
1 
1 
1 
1 
1 
1 
1 
1 
1 
1 
1 
1 
1 
1 
1 
1 
1 
1 
1 
1 
1 
1 
1 
1 
1 
1 
1 
1 
1 
1 
1 
1 
1 
1 
1 
1 
1 
1 
1 
1 
1 
1 
1 
1 
1 
1 
1 
1 
1 
1 
1 
1 
1 
1 
1 
1 
1 
1 
1 
1 
1 
1 
1 
1 
1 
1 
1 
1 
1 
1 
1 
1 
1 
1 
1 
1 
1 
1 
1 
1 
1 
1 
1 
1 
1 
1 
1 
1 
1 
1 
1 
1 
1 
1 
1 
1 
1 
1 
1 
1 
1 
1 
1 
1 
1 
1 
1 
1 
1 
1 
1 
1 
1 
1 
1 
1 
1 
1 
1 
1 
1 
1 
1 
1 
1 
1 
1 
1 
1 
1 
1 
1 
1 
1 
1 
1 
1 
1 
1 
1 
1 
1 
1 
1 
1 
1 
1 
1 
1 
1 
1 
1 
1 
1 
1 
1 
1 
1 
1 
1 
1 
1 
1 
1 
1 
1 
1 
1 
1 
1 
1 
1 
1 
1 
1 
1 
1 
1 
1 
1 
1 
1 
1 
1 
1 
1 
1 
1 
1 
1 
1 
1 
1 
1 
1 
1 
1 
1 
1 
1 
1 
1 
1 
1 
1 
1 
1 
1 
1 
1 
1 
1 
1 
1 
1 
1 
1 
1 
1 
1 
1 
1 
1 
1 
1 
1 
1 
1 
1 
1 
1 
1 
1 
1 
1 
1 
1 
1 
1 
1 
1 
1 
1 
1 
1 
1 
1 
1 
1 
1 
1 
1 
1 
1 
1 
1 
1 
1 
1 
1 
1 
1 
1 
1 
1 
1 
1 
1 
1 
1 
1 
1 
1 
1 
1 
1 
1 
1 
1 
1 
1 
1 
1 
1 
1 
1 
1 
1 
1 
1 
1 
1 
1 
1 
1 
1 
1 
1 
1 
1 
1 
1 
1 
1 
1 
1 
1 
1 
1 
1 
1 
1 
1 
1 
1 
1 
1 
1 
1 
1 
1 
1 
1 
1 
1 
1 
1 
1 
1 
1 
1 
1 
1 
1 
1 
1 
1 
1 
1 
1 
1 
1 
1 
1 
1 
1 
1 
1 
1 
1 
1 
1 
1 
1 
1 
1 
1 
1 
1 
1 
1 
1 
1 
1 
1 
1 
1 
1 
1 
1 
1 
1 
1 
1 
1 
1 
1 
1 
1 
1 
1 
1 
1 
1 
1 
1 
1 
1 
1 
1 
1 
1 
1 
1 
1 
1 
1 
1 
1 
1 
1 
1 
1 
1 
1 
1 
1 
1 
1 
1 
1 
1 
1 
1 
1 
1 
1 
1 
1 
1 
1 
1 
1 
1 
1 
1 
1 
1 
1 
1 
1 
1 
1 
1 
1 
1 
1 
1 
1 
1 
1 
1 
1 
1 
1 
1 
1 
1 
1 
1 
1 
1 
1 
1 
1 
1 
1 
1 
1 
1 
1 
1 
1 
1 
1 
1 
1 
1 
1 
1 
1 
1 
1 
1 
1 
1 
1 
1 
1 
1 
1 
1 
1 
1 
1 
1 
1 
1 
1 
1 
1 
1 
1 
1 
1 
1 
1 
1 
1 
1 
1 
1 
1 
1 
1 
1 
1 
1 
1 
1 
1 
1 
1 
1 
1 
1 
1 
1 
1 
1 
1 
1 
1 
1 
1 
1 
1 
1 
1 
1 
1 
1 
1 
1 
1 
1 
1 
1 
1 
1 
1 
1 
1 
1 
1 
1 
1 
1 
1 
1 
1 
1 
1 
1 
1 
1 
1 
1 
1 
1 
1 
1 
1 
1 
1 
1 
1 
1 
1 
1 
1 
1 
1 
1 
1 
1 
1 
1 
1 
1 
1 
1 
1 
1 
1 
1 
1 
1 
1 
1 
1 
1 
1 
1 
1 
1 
1 
1 
1 
1 
1 
1 
1 
1 
1 
1 
1 
1 
1 
1 
1 
1 
1 
1 
1 
1 
1 
1 
1 
1 
1 
1 
1 
1 
1 
1 
1 
1 
1 
1 
1 
1 
1 
1 
1 
1 
1 
1 
1 
1 
1 
1 
1 
1 
1 
1 
1 
1 
1 
1 
1 
1 
1 
1 
1 
1 
1 
1 
1 
1 
1 
1 
1 
1 
1 
1 
1 
1 
1 
1 
1 
1 
1 
1 
1 
1 
1 
1 
1 
1 
1 
1 
1 
1 
1 
1 
1 
1 
1 
1 
1 
1 
1 
1 
1 
1 
1 
1 
1 
1 
1 
1 
1 
1 
1 
1 
1 
1 
1 
1 
1 
1 
1 
1 
1 
1 
1 
1 
1 
1 
1 
1 
1 
1 
1 
1 
1 
1 
1 
1 
1 
1 
1 
1 
1 
1 
1 
1 
1 
1 
1 
1 
1 
1 
1 
1 
1 
1 
1 
1 
1 
1 
1 
1 
1 
1 
1 
1 
1 
1 
1 
1 
1 
1 
1 
1 
1 
1 
1 
1 
1 
1 
1 
1 
1 
1 
1 
1 
1 
1 
1 
1 
1 
1 
1 
1 
1 
1 
1 
1 
1 
1 
1 
1 
1 
1 
1 
1 
1 
1 
1 
1 
1 
1 
1 
1 
1 
1 
1 
1 
1 
1 
1 
1 
1 
1 
1 
1 
1 
1 
1 
1 
1 
1 
1 
1 
1 
1 
1 
1 
1 
1 
1 
1 
1 
1 
1 
1 
1 
1 
1 
1 
1 
1 
1 
1 
1 
1 
1 
1 
1 
1 
1 
1 
1 
1 
1 
1 
1 
1 
1 
1 
1 
1 
1 
1 
1 
1 
1 
1 
1 
1 
1 
1 
1 
1 
1 
1 
1 
1 
1 
1 
1 
1 
1 
1 
1 
1 
1 
1 
1 
1 
1 
1 
1 
1 
1 
1 
1 
1 
1 
1 
1 
1 
1 
1 
1 
1 
1 
1 
1 
1 
1 
1 
1 
1 
1 
1 
1 
1 
1 
1 
1 
1 
1 
1 
1 
1 
1 
1 
1 
1 
1 
1 
1 
1 
1 
1 
1 
1 
1 
1 
1 
1 
1 
1 
1 
1 
1 
1 
1 
1 
1 
1 
1 
1 
1 
1 
1 
1 
1 
1 
1 
1 
1 
1 
1 
1 
1 
1 
1 
1 
1 
1 
1 
1 
1 
1 
1 
1 
1 
1 
1 
1 
1 
1 
1 
1 
1 
1 
1 
1 
1 
1 
1 
1 
1 
1 
1 
1 
1 
1 
1 
1 
1 
1 
1 
1 
1 
1 
1 
1 
1 
1 
1 
1 
1 
1 
1 
1 
1 
1 
1 
1 
1 
1 
1 
1 
1 
1 
1 
1 
1 
1 
1 
1 
1 
1 
1 
1 
1 
1 
1 
1 
1 
1 
1 
1 
1 
1 
1 
1 
1 
1 
1 
1 
1 
1 
1 
1 
1 
1 
1 
1 
1 
1 
1 
1 
1 
1 
1 
1 
1 
1 
1 
1 
1 
1 
1 
1 
1 
1 
1 
1 
1 
1 
1 
1 
1 
1 
1 
1 
1 
1 
1 
1 
1 
1 
1 
1 
1 
1 
1 
1 
1 
1 
1 
1 
1 
1 
1 
1 
1 
1 
1 
1 
1 
1 
1 
1 
1 
1 
1 
1 
1 
1 
1 
1 
1 
1 
1 
1 
1 
1 
1 
1 
1 
1 
1 
1 
1 
1 
1 
1 
1 
1 
1 
1 
1 
1 
1 
1 
1 
1 
1 
1 
1 
1 
1 
1 
1 
1 
1 
1 
1 
1 
1 
1 
1 
1 
1 
1 
1 
1 
1 
1 
1 
1 
1 
1 
1 
1 
1 
1 
1 
1 
1 
1 
1 
1 
1 
1 
1 
1 
1 
1 
1 
1 
1 
1 
1 
1 
1 
1 
1 
1 
1 
1 
1 
1 
1 
1 
1 
1 
1 
1 
1 
1 
1 
1 
1 
1 
1 
1 
1 
1 
1 
1 
1 
1 
1 
1 
1 
1 
1 
1 
1 
1 
1 
1 
1 
1 
1 
1 
1 
1 
1 
1 
1 
1 
1 
1 
1 
1 
1 
1 
1 
1 
1 
1 
1 
1 
1 
1 
1 
1 
1 
1 
1 
1 
1 
1 
1 
1 
1 
1 
1 
1 
1 
1 
1 
1 
1 
1 
1 
1 
1 
1 
1 
1 
1 
1 
1 
1 
1 
1 
1 
1 
1 
1 
1 
1 
1 
1 
1 
1 
1 
1 
1 
1 
1 
1 
1 
1 
1 
1 
1 
1 
1 
1 
1 
1 
1 
1 
1 
1 
1 
1 
1 
1 
1 
1 
1 
1 
1 
1 
1 
1 
1 
1 
1 
1 
1 
1 
1 
1 
1 
1 
1 
1 
1 
1 
1 
1 
1 
1 
1 
1 
1 
1 
1 
1 
1 
1 
1 
1 
1 
1 
1 
1 
1 
1 
1 
1 
1 
1 
1 
1 
1 
1 
1 
1 
1 
1 
1 
1 
1 
1 
1 
1 
1 
1 
1 
1 
1 
1 
1 
1 
1 
1 
1 
1 
1 
1 
1 
1 
1 
1 
1 
1 
1 
1 
1 
1 
1 
1 
1 
1 
1 
1 
1 
1 
1 
1 
1 
1 
1 
1 
1 
1 
1 
1 
1 
1 
1 
1 
1 
1 
1 
1 
1 
1 
1 
1 
1 
1 
1 
1 
1 
1 
1 
1 
1 
1 
1 
1 
1 
1 
1 
1 
1 
1 
1 
1 
1 
1 
1 
1 
1 
1 
1 
1 
1 
1 
1 
1 
1 
1 
1 
1 
1 
1 
1 
1 
1 
1 
1 
1 
1 
1 
1 
1 
1 
1 
1 
1 
1 
1 
1 
1 
1 
1 
1 
1 
1 
1 
1 
1 
1 
1 
1 
1 
1 
1 
1 
1 
1 
1 
1 
1 
1 
1 
1 
1 
1 
1 
1 
1 
1 
1 
1 
1 
1 
1 
1 
1 
1 
1 
1 
1 
1 
1 
1 
1 
1 
1 
1 
1 
1 
1 
1 
1 
1 
1 
1 
1 
1 
1 
1 
1 
1 
1 
1 
1 
1 
1 
1 
1 
1 
1 
1 
1 
1 
1 
1 
1 
1 
1 
1 
1 
1 
1 
1 
1 
1 
1 
1 
1 
1 
1 
1 
1 
1 
1 
1 
1 
1 
1 
1 
1 
1 
1 
1 
1 
1 
1 
1 
1 
1 
1 
1 
1 
1 
1 
1 
1 
1 
1 
1 
1 
1 
1 
1 
1 
1 
1 
1 
1 
1 
1 
1 
1 
1 
1 
1 
1 
1 
1 
1 
1 
1 
1 
1 
1 
1 
1 
1 
1 
1 
1 
1 
1 
1 
1 
1 
1 
1 
1 
1 
1 
1 
1 
1 
1 
1 
1 
1 
1 
1 
1 
1 
1 
1 
1 
1 
1 
1 
1 
1 
1 
1 
1 
1 
1 
1 
1 
1 
1 
1 
1 
1 
1 
1 
1 
1 
1 
1 
1 
1 
1 
1 
1 
1 
1 
1 
1 
1 
1 
1 
1 
1 
1 
1 
1 
1 
1 
1 
1 
1 
1 
1 
1 
1 
1 
1 
1 
1 
1 
1 
1 
1 
1 
1 
1 
1 
1 
1 
1 
1 
1 
1 
1 
1 
1 
1 
1 
1 
1 
1 
1 
1 
1 
1 
1 
1 
1 
1 
1 
1 
1 
1 
1 
1 
1 
1 
1 
1 
1 
1 
1 
1 
1 
1 
1 
1 
1 
1 
1 
1 
1 
1 
1 
1 
1 
1 
1 
1 
1 
1 
1 
1 
1 
1 
1 
1 
1 
1 
1 
1 
1 
1 
1 
1 
1 
1 
1 
1 
1 
1 
1 
1 
1 
1 
1 
1 
1 
1 
1 
1 
1 
1 
1 
1 
1 
1 
1 
1 
1 
1 
1 
1 
1 
1 
1 
1 
1 
1 
1 
1 
1 
1 
1 
1 
1 
1 
1 
1 
1 
1 
1 
1 
1 
1 
1 
1 
1 
1 
1 
1 
1 
1 
1 
1 
1 
1 
1 
1 
1 
1 
1 
1 
1 
1 
1 
1 
1 
1 
1 
1 
1 
1 
1 
1 
1 
1 
1 
1 
1 
1 
1 
1 
1 
1 
1 
1 
1 
1 
1 
1 
1 
1 
1 
1 
1 
1 
1 
1 
1 
1 
1 
1 
1 
1 
1 
1 
1 
1 
1 
1 
1 
1 
1 
1 
1 
1 
1 
1 
1 
1 
1 
1 
1 
1 
1 
1 
1 
1 
1 
1 
1 
1 
1 
1 
1 
1 
1 
1 
1 
1 
1 
1 
1 
1 
1 
1 
1 
1 
1 
1 
1 
1 
1 
1 
1 
1 
1 
1 
1 
1 
1 
1 
1 
1 
1 
1 
1 
1 
1 
1 
1 
1 
1 
1 
1 
1 
1 
1 
1 
1 
1 
1 
1 
1 
1 
1 
1 
1 
1 
1 
1 
1 
1 
1 
1 
1 
1 
1 
1 
1 
1 
1 
1 
1 
1 
1 
1 
1 
1 
1 
1 
1 
1 
1 
1 
1 
1 
1 
1 
1 
1 
1 
1 
1 
1 
1 
1 
1 
1 
1 
1 
1 
1 
1 
1 
1 
1 
1 
1 
1 
1 
1 
1 
1 
1 
1 
1 
1 
1 
1 
1 
1 
1 
1 
1 
1 
1 
1 
1 
1 
1 
1 
1 
1 
1 
1 
1 
1 
1 
1 
1 
1 
1 
1 
1 
1 
1 
1 
1 
1 
1 
1 
1 
1 
1 
1 
1 
1 
1 
1 
1 
1 
1 
1 
1 
1 
1 
1 
1 
1 
1 
1 
1 
1 
1 
1 
1 
1 
1 
1 
1 
1 
1 
1 
1 
1 
1 
1 
1 
1 
1 
1 
1 
1 
1 
1 
1 
1 
1 
1 
1 
1 
1 
1 
1 
1 
1 
1 
1 
1 
1 
1 
1 
1 
1 
1 
1 
1 
1 
1 
1 
1 
1 
1 
1 
1 
1 
1 
1 
1 
1 
1 
1 
1 
1 
1 
1 
1 
1 
1 
1 
1 
1 
1 
1 
1 
1 
1 
1 
1 
1 
1 
1 
1 
1 
1 
1 
1 
1 
1 
1 
1 
1 
1 
1 
1 
1 
1 
1 
1 
1 
1 
1 
1 
1 
1 
1 
1 
1 
1 
1 
1 
1 
1 
1 
1 
1 
1 
1 
1 
1 
1 
1 
1 
1 
1 
1 
1 
1 
1 
1 
1 
1 
1 
1 
1 
1 
1 
1 
1 
1 
1 
1 
1 
1 
1 
1 
1 
1 
1 
1 
1 
1 
1 
1 
1 
1 
1 
1 
1 
1 
1 
1 
1 
1 
1 
1 
1 
1 
1 
1 
1 
1 
1 
1 
1 
1 
1 
1 
1 
1 
1 
1 
1 
1 
1 
1 
1 
1 
1 
1 
1 
1 
1 
1 
1 
1 
1 
1 
1 
1 
1 
1 
1 
1 
1 
1 
1 
1 
1 
1 
1 
1 
1 
1 
1 
1 
1 
1 
1 
1 
1 
1 
1 
1 
1 
1 
1 
1 
1 
1 
1 
1 
1 
1 
1 
1 
1 
1 
1 
1 
1 
1 
1 
1 
1 
1 
1 
1 
1 
1 
1 
1 
1 
1 
1 
1 
1 
1 
1 
1 
1 
1 
1 
1 
1 
1 
1 
1 
1 
1 
1 
1 
1 
1 
1 
1 
1 
1 
1 
1 
1 
1 
1 
1 
1 
1 
1 
1 
1 
1 
1 
1 
1 
1 
1 
1 
1 
1 
1 
1 
1 
1 
1 
1 
1 
1 
1 
1 
1 
1 
1 
1 
1 
1 
1 
1 
1 
1 
1 
1 
1 
1 
1 
1 
1 
1 
1 
1 
1 
1 
1 
1 
1 
1 
1 
1 
1 
1 
1 
1 
1 
1 
1 
1 
1 
1 
1 
1 
1 
1 
1 
1 
1 
1 
1 
1 
1 
1 
1 
1 
1 
1 
1 
1 
1 
1 
1 
1 
1 
1 
1 
1 
1 
1 
1 
1 
1 
1 
1 
1 
1 
1 
1 
1 
1 
1 
1 
1 
1 
1 
1 
1 
1 
1 
1 
1 
1 
1 
1 
1 
1 
1 
1 
1 
1 
1 
1 
1 
1 
1 
1 
1 
1 
1 
1 
1 
1 
1 
1 
1 
1 
1 
1 
1 
1 
1 
1 
1 
1 
1 
1 
1 
1 
1 
1 
1 
1 
1 
1 
1 
1 
1 
1 
1 
1 
1 
1 
1 
1 
1 
1 
1 
1 
1 
1 
1 
1 
1 
1 
1 
1 
1 
1 
1 
1 
1 
1 
1 
1 
1 
1 
1 
1 
1 
1 
1 
1 
1 
1 
1 
1 
1 
1 
1 
1 
1 
1 
1 
1 
1 
1 
1 
1 
1 
1 
1 
1 
1 
1 
1 
1 
1 
1 
1 
1 
1 
1 
1 
1 
1 
1 
1 
1 
1 
1 
1 
1 
1 
1 
1 
1 
1 
1 
1 
1 
1 
1 
1 
1 
1 
1 
1 
1 
1 
1 
1 
1 
1 
1 
1 
1 
1 
1 
1 
1 
1 
1 
1 
1 
1 
1 
1 
1 
1 
1 
1 
1 
1 
1 
1 
1 
1 
1 
1 
1 
1 
1 
1 
1 
1 
1 
1 
1 
1 
1 
1 
1 
1 
1 
1 
1 
1 
1 
1 
1 
1 
1 
1 
1 
1 
1 
1 
1 
1 
1 
1 
1 
1 
1 
1 
1 
1 
1 
1 
1 
1 
1 
1 
1 
1 
1 
1 
1 
1 
1 
1 
1 
1 
1 
1 
1 
1 
1 
1 
1 
1 
1 
1 
1 
1 
1 
1 
1 
1 
1 
1 
1 
1 
1 
1 
1 
1 
1 
1 
1 
1 
1 
1 
1 
1 
1 
1 
1 
1 
1 
1 
1 
1 
1 
1 
1 
1 
1 
1 
1 
1 
1 
1 
1 
1 
1 
1 
1 
1 
1 
1 
1 
1 
1 
1 
1 
1 
1 
1 
1 
1 
1 
1 
1 
1 
1 
1 
1 
1 
1 
1 
1 
1 
1 
1 
1 
1 
1 
1 
1 
1 
1 
1 
1 
1 
1 
1 
1 
1 
1 
1 
1 
1 
1 
1 
1 
1 
1 
1 
1 
1 
1 
1 
1 
1 
1 
1 
1 
1 
1 
1 
1 
1 
1 
1 
1 
1 
1 
1 
1 
1 
1 
1 
1 
1 
1 
1 
1 
1 
1 
1 
1 
1 
1 
1 
1 
1 
1 
1 
1 
1 
1 
1 
1 
1 
1 
1 
1 
1 
1 
1 
1 
1 
1 
1 
1 
1 
1 
1 
1 
1 
1 
1 
1 
1 
1 
1 
1 
1 
1 
1 
1 
1 
1 
1 
1 
1 
1 
1 
1 
1 
1 
1 
1 
1 
1 
1 
1 
1 
1 
1 
1 
1 
1 
1 
1 
1 
1 
1 
1 
1 
1 
1 
1 
1 
1 
1 
1 
1 
1 
1 
1 
1 
1 
1 
1 
1 
1 
1 
1 
1 
1 
1 
1 
1 
1 
1 
1 
1 
1 
1 
1 
1 
1 
1 
1 
1 
1 
1 
1 
1 
1 
1 
1 
1 
1 
1 
1 
1 
1 
1 
1 
1 
1 
1 
1 
1 
1 
1 
1 
1 
1 
1 
1 
1 
1 
1 
1 
1 
1 
1 
1 
1 
1 
1 
1 
1 
1 
1 
1 
1 
1 
1 
1 
1 
1 
1 
1 
1 
1 
1 
1 
1 
1 
1 
1 
1 
1 
1 
1 
1 
1 
1 
1 
1 
1 
1 
1 
1 
1 
1 
1 
1 
1 
1 
1 
1 
1 
1 
1 
1 
1 
1 
1 
1 
1 
1 
1 
1 
1 
1 
1 
1 
1 
1 
1 
1 
1 
1 
1 
1 
1 
1 
1 
1 
1 
1 
1 
1 
1 
1 
1 
1 
1 
1 
1 
1 
1 
1 
1 
1 
1 
1 
1 
1 
1 
1 
1 
1 
1 
1 
1 
1 
1 
1 
1 
1 
1 
1 
1 
1 
1 
1 
1 
1 
1 
1 
1 
1 
1 
1 
1 
1 
1 
1 
1 
1 
1 
1 
1 
1 
1 
1 
1 
1 
1 
1 
1 
1 
1 
1 
1 
1 
1 
1 
1 
1 
1 
1 
1 
1 
1 
1 
1 
1 
1 
1 
1 
1 
1 
1 
1 
1 
1 
1 
1 
1 
1 
1 
1 
1 
1 
1 
1 
1 
1 
1 
1 
1 
1 
1 
1 
1 
1 
1 
1 
1 
1 
1 
1 
1 
1 
1 
1 
1 
1 
1 
1 
1 
1 
1 
1 
1 
1 
1 
1 
1 
1 
1 
1 
1 
1 
1 
1 
1 
1 
1 
1 
1 
1 
1 
1 
1 
1 
1 
1 
1 
1 
1 
1 
1 
1 
1 
1 
1 
1 
1 
1 
1 
1 
1 
1 
1 
1 
1 
1 
1 
1 
1 
1 
1 
1 
1 
1 
1 
1 
1 
1 
1 
1 
1 
1 
1 
1 
1 
1 
1 
1 
1 
1 
1 
1 
1 
1 
1 
1 
1 
1 
1 
1 
1 
1 
1 
1 
1 
1 
1 
1 
1 
1 
1 
1 
1 
1 
1 
1 
1 
1 
1 
1 
1 
1 
1 
1 
1 
1 
1 
1 
1 
1 
1 
1 
1 
1 
1 
1 
1 
1 
1 
1 
1 
1 
1 
1 
1 
1 
1 
1 
1 
1 
1 
1 
1 
1 
1 
1 
1 
1 
1 
1 
1 
1 
1 
1 
1 
1 
1 
1 
1 
1 
1 
1 
1 
1 
1 
1 
1 
1 
1 
1 
1 
1 
1 
1 
1 
1 
1 
1 
1 
1 
1 
1 
1 
1 
1 
1 
1 
1 
1 
1 
1 
1 
1 
1 
1 
1 
1 
1 
1 
1 
1 
1 
1 
1 
1 
1 
1 
1 
1 
1 
1 
1 
1 
1 
1 
1 
1 
1 
1 
1 
1 
1 
1 
1 
1 
1 
1 
1 
1 
1 
1 
1 
1 
1 
1 
1 
1 
1 
1 
1 
1 
1 
1 
1 
1 
1 
1 
1 
1 
1 
1 
1 
1 
1 
1 
1 
1 
1 
1 
1 
1 
1 
1 
1 
1 
1 
1 
1 
1 
1 
1 
1 
1 
1 
1 
1 
1 
1 
1 
1 
1 
1 
1 
1 
1 
1 
1 
1 
1 
1 
1 
1 
1 
1 
1 
1 
1 
1 
1 
1 
1 
1 
1 
1 
1 
1 
1 
1 
1 
1 
1 
1 
1 
1 
1 
1 
1 
1 
1 
1 
1 
1 
1 
1 
1 
1 
1 
1 
1 
1 
1 
1 
1 
1 
1 
1 
1 
1 
1 
1 
1 
1 
1 
1 
1 
1 
1 
1 
1 
1 
1 
1 
1 
1 
1 
1 
1 
1 
1 
1 
1 
1 
1 
1 
1 
1 
1 
1 
1 
1 
1 
1 
1 
1 
1 
1 
1 
1 
1 
1 
1 
1 
1 
1 
1 
1 
1 
1 
1 
1 
1 
1 
1 
1 
1 
1 
1 
1 
1 
1 
1 
1 
1 
1 
1 
1 
1 
1 
1 
1 
1 
1 
1 
1 
1 
1 
1 
1 
1 
1 
1 
1 
1 
1 
1 
1 
1 
1 
1 
1 
1 
1 
1 
1 
1 
1 
1 
1 
1 
1 
1 
1 
1 
1 
1 
1 
1 
1 
1 
1 
1 
1 
1 
1 
1 
1 
1 
1 
1 
1 
1 
1 
1 
1 
1 
1 
1 
1 
1 
1 
1 
1 
1 
1 
1 
1 
1 
1 
1 
1 
1 
1 
1 
1 
1 
1 
1 
1 
1 
1 
1 
1 
1 
1 
1 
1 
1 
1 
1 
1 
1 
1 
1 
POINT_DATA 5000
VECTORS Stress float
-298.263 -845.706 0.
-37.7441 -874.392 0.
-112.216 -1048.16 0.
285.649 -999.395 0.
268.132 -1040.29 0.
250.616 -1081.18 0.
-176.772 -1300.14 0.
-198.264 -1350.26 0.
-219.757 -1400.38 0.
188.413 -1247.66 0.
181.834 -1263 0.
175.254 -1278.33 0.
342.484 -1212.35 0.
340.312 -1217.41 0.
331.097 -1227.55 0.
316.69 -1261.18 0.
302.284 -1294.82 0.
-75.4206 -1478.69 0.
-80.4281 -1490.43 0.
-85.4355 -1502.17 0.
124.181 -1403.56 0.
137.408 -1372.66 0.
150.635 -1341.76 0.
476.08 -1152.87 0.
506.096 -1082.86 0.
664.58 -957.795 0.
418.882 -1075.35 0.
412.123 -1091.13 0.
11.9291 -1284.43 0.
-18.1919 -1354.74 0.
-48.3129 -1425.06 0.
318.652 -1284.26 0.
338.652 -1237.59 0.
358.651 -1190.91 0.
214.874 -1242.64 0.
211.981 -1249.37 0.
209.088 -1256.1 0.
89.4628 -1325.76 0.
78.8914 -1350.34 0.
245.979 -1294.07 0.
259.513 -1262.47 0.
273.046 -1230.86 0.
284.823 -1211.49 0.
279.915 -1222.97 0.
275.006 -1234.46 0.
225.324 -1259.33 0.
226.571 -1256.42 0.
227.818 -1253.51 0.
-395.644 -1569.29 0.
-429.075 -1647.32 0.
364.889 -1370.84 0.
609.28 -1251.28 0.
617.127 -1233 0.
68.5838 -1460.48 0.
59.3969 -1481.94 0.
50.2099 -1503.39 0.
438.803 -1341 0.
444.516 -1327.68 0.
450.228 -1314.35 0.
199.404 -1385.46 0.
225.413 -1324.75 0.
251.421 -1264.04 0.
188.283 -1341.13 0.
156.127 -1416.18 0.
442.95 -1347 0.
442.518 -1347.91 0.
442.086 -1348.82 0.
310.914 -1403.84 0.
312.664 -1399.75 0.
314.415 -1395.66 0.
183.517 -1446.18 0.
187.144 -1437.72 0.
190.771 -1429.26 0.
146.892 -1441.48 0.
150.322 -1433.47 0.
186.133 -1412.45 0.
320.541 -1369.22 0.
312.996 -1386.83 0.
81.8399 -1491.37 0.
91.9669 -1467.73 0.
102.094 -1444.1 0.
35.5365 -1445.27 0.
54.7956 -1400.3 0.
74.0548 -1355.32 0.
431.163 -1180.67 0.
438.806 -1162.84 0.
446.448 -1145.01 0.
-175.424 -1434.39 0.
-189.163 -1466.45 0.
85.7555 -1361.85 0.
124.777 -1270.8 0.
163.799 -1179.74 0.
-111.357 -1229.89 0.
-83.23 -1164.25 0.
-55.1035 -1098.61 0.
89.7869 -1012.61 0.
92.1869 -1006.99 0.
94.587 -1001.37 0.
-45.7332 -894.112 0.
62.6077 -641.129 0.
-458.778 -883.111 0.
-108.587 -873.373 0.
-183.057 -1047.15 0.
311.489 -956.907 0.
293.985 -997.806 0.
276.48 -1038.71 0.
-58.9744 -1218.23 0.
-80.4862 -1268.34 0.
-101.998 -1318.45 0.
170.969 -1223.76 0.
164.383 -1239.08 0.
157.797 -1254.41 0.
264.249 -1214.42 0.
262.074 -1219.49 0.
356.29 -1185.34 0.
341.897 -1218.99 0.
327.503 -1252.64 0.
115.178 -1365.53 0.
110.205 -1377.31 0.
105.233 -1389.08 0.
51.5919 -1403.21 0.
64.7972 -1372.28 0.
78.0024 -1341.35 0.
405.344 -1151.68 0.
435.369 -1081.7 0.
134.697 -1153.44 0.
504.626 -1007.23 0.
497.869 -1023.02 0.
-28.1593 -1270.12 0.
-58.2605 -1340.46 0.
-88.3617 -1410.8 0.
437.239 -1202.01 0.
457.238 -1155.32 0.
477.237 -1108.62 0.
166.633 -1231.9 0.
163.727 -1238.62 0.
160.821 -1245.34 0.
156.504 -1265.64 0.
145.882 -1290.16 0.
285.708 -1245.76 0.
299.224 -1214.14 0.
312.741 -1182.52 0.
261.924 -1189.89 0.
257.035 -1201.39 0.
252.145 -1212.89 0.
181.257 -1246.75 0.
182.506 -1243.83 0.
183.754 -1240.91 0.
-208.18 -1457.53 0.
-241.603 -1535.6 0.
220.282 -1401.41 0.
539.566 -1249.7 0.
547.43 -1231.41 0.
104.282 -1413.71 0.
95.1093 -1435.18 0.
85.9362 -1456.64 0.
337.94 -1352.86 0.
343.657 -1339.53 0.
349.373 -1326.21 0.
300.988 -1310.54 0.
326.982 -1249.82 0.
352.975 -1189.09 0.
224.636 -1294.06 0.
192.498 -1369.12 0.
410.613 -1329.57 0.
410.114 -1330.43 0.
409.616 -1331.3 0.
373.264 -1345.73 0.
375.01 -1341.63 0.
376.756 -1337.53 0.
189.93 -1412.03 0.
193.558 -1403.58 0.
197.187 -1395.12 0.
197.025 -1388.55 0.
200.453 -1380.54 0.
188.898 -1379.76 0.
292.238 -1349.84 0.
284.7 -1367.44 0.
110.928 -1447.42 0.
121.05 -1423.8 0.
131.171 -1400.17 0.
138.764 -1369.63 0.
158.002 -1324.64 0.
177.24 -1279.64 0.
163.151 -1264.15 0.
170.791 -1246.34 0.
178.431 -1228.53 0.
49.4701 -1306.57 0.
35.7302 -1338.63 0.
57.9069 -1342.36 0.
96.9219 -1251.3 0.
135.937 -1160.25 0.
-37.1674 -1166.67 0.
-9.04806 -1101.02 0.
19.0713 -1035.37 0.
23.8932 -1009.41 0.
26.2918 -1003.76 0.
28.6903 -998.104 0.
-16.9478 -850.47 0.
91.2485 -597.45 0.
-502.316 -648.327 0.
-143.591 -790.278 0.
-164.985 -839.93 0.
368.47 -841.584 0.
408.899 -747.324 0.
197.248 -1241.25 0.
-123.804 -1562.5 0.
-100.424 -1508.02 0.
-209.415 -1762.39 0.
-112.016 -1819.29 0.
-112.342 -1820.01 0.
-26.6356 -1619.99 0.
24.8607 -1592.54 0.
105.52 -1404.38 0.
127.697 -1735.15 0.
235.509 -1483.63 0.
193.638 -1581.36 0.
98.2862 -1737.09 0.
142.053 -1634.82 0.
38.7781 -1875.65 0.
-291.464 -2033.45 0.
-253.837 -1945.93 0.
-248.643 -1934.08 0.
184.498 -1500.36 0.
167.857 -1539.11 0.
29.7842 -1917.47 0.
336.535 -1531.55 0.
399.18 -1385.44 0.
-233.873 -1643.14 0.
-314.564 -1831.29 0.
-391.863 -2011.52 0.
286.972 -1747.1 0.
318.816 -1672.82 0.
297.045 -1723.65 0.
-173.557 -1902.69 0.
-228.62 -2031.17 0.
-319.99 -2244.39 0.
-54.759 -1854.93 0.
42.1458 -1628.9 0.
21.6722 -1905.82 0.
148.519 -1609.96 0.
175.521 -1547.07 0.
97.9996 -1497.73 0.
273.457 -1088.34 0.
270.752 -1094.67 0.
65.3018 -1401.56 0.
-56.9643 -1686.9 0.
-52.1012 -1675.62 0.
-203.928 -1773.34 0.
-109.968 -1553.92 0.
-870.087 -2623.68 0.
263.721 -1729.69 0.
371.366 -1478.36 0.
-0.152573 -1694.07 0.
81.6323 -1503.11 0.
-84.2347 -1889.99 0.
227.505 -1387.84 0.
187.203 -1481.82 0.
76.693 -1739.62 0.
166.942 -1785.67 0.
213.459 -1677.17 0.
76.9293 -1995.77 0.
25.1016 -1797.65 0.
-66.3479 -2010.75 0.
-38.2063 -2283.87 0.
-27.7911 -2259.65 0.
-11.2143 -2221.06 0.
44.3802 -2200.62 0.
259.227 -1699.21 0.
196.473 -1845.51 0.
-39.567 -1928.49 0.
42.3175 -1737.5 0.
-139.761 -2162.42 0.
197.697 -1451.03 0.
300.989 -1209.79 0.
-13.6773 -1760.26 0.
290.538 -1268.3 0.
25.5591 -1886.84 0.
-113.241 -1994.79 0.
75.093 -1555.21 0.
-82.8384 -1923.57 0.
14.0545 -1825.12 0.
103.867 -1615.79 0.
50.2046 -1741.24 0.
-250.243 -1687.15 0.
-108.099 -1355.36 0.
-217.432 -1610.37 0.
103.254 -1578.36 0.
64.429 -1668.89 0.
-274.948 -2034.88 0.
-78.3961 -1576.13 0.
51.1238 -1273.78 0.
-130.344 -1493.61 0.
-78.5124 -1372.59 0.
-211.991 -1683.95 0.
-181.755 -1332.22 0.
111.449 -648.134 0.
95.888 -684.494 0.
-21.5007 -884.693 0.
-12.0874 -862.741 0.
-205.944 -476.812 0.
85.127 -403.902 0.
56.6631 -470.091 0.
454.689 -350.259 0.
435.381 -395.354 0.
416.072 -440.448 0.
293.447 -506.909 0.
303.836 -482.83 0.
314.226 -458.752 0.
429.419 -429.466 0.
407.25 -481.226 0.
385.081 -532.985 0.
614.698 -452.706 0.
606.857 -470.961 0.
629.621 -472.722 0.
643.969 -439.21 0.
658.316 -405.698 0.
658.073 -374.716 0.
679.658 -324.253 0.
701.244 -273.79 0.
494.737 -383.987 0.
454.351 -478.44 0.
413.965 -572.893 0.
517.663 -543.947 0.
519.306 -540.128 0.
1070.87 -300.687 0.
879.364 -334.102 0.
904.957 -274.381 0.
265.123 -504.756 0.
280.703 -468.245 0.
296.282 -431.735 0.
882.176 -190.265 0.
848.986 -267.78 0.
815.797 -345.295 0.
471.547 -532.621 0.
457.466 -565.512 0.
443.384 -598.403 0.
537.14 -466.252 0.
593.757 -334.357 0.
701.441 -197.392 0.
668.36 -274.663 0.
635.278 -351.935 0.
544.378 -410.438 0.
580.961 -325.005 0.
617.545 -239.573 0.
626.824 -230.906 0.
600.083 -293.274 0.
573.342 -355.643 0.
329.933 -521.669 0.
296.046 -600.717 0.
-167.838 -864.269 0.
846.418 -400.575 0.
861.596 -365.103 0.
597.268 -452.645 0.
605.156 -433.999 0.
613.043 -415.354 0.
582.809 -432.261 0.
569.06 -464.248 0.
555.31 -496.235 0.
679.205 -471.456 0.
663.099 -508.799 0.
646.994 -546.142 0.
577.787 -657.169 0.
532.225 -763.379 0.
649.294 -779.951 0.
686.628 -692.767 0.
723.962 -605.582 0.
575.14 -589.849 0.
624.973 -473.541 0.
674.807 -357.232 0.
709.661 -291.704 0.
719.554 -268.657 0.
729.448 -245.61 0.
751.088 -261.519 0.
731.047 -308.074 0.
724.374 -348.078 0.
634.438 -398.732 0.
628.107 -413.555 0.
456.765 -484.977 0.
483.097 -423.4 0.
509.429 -361.823 0.
722.726 -242.337 0.
723.913 -239.842 0.
725.099 -237.347 0.
327.212 -434.111 0.
307.819 -479.446 0.
288.426 -524.782 0.
612.997 -345.02 0.
637.372 -288.125 0.
446.235 -340.073 0.
406.122 -433.577 0.
366.009 -527.081 0.
208.803 -646.015 0.
205.744 -653 0.
202.686 -659.986 0.
105.841 -606.373 0.
191.879 -405.552 0.
277.916 -204.731 0.
77.5164 -425.304 0.
-28.5179 -672.788 0.
83.5705 -321.291 0.
178.897 -332.407 0.
150.426 -398.651 0.
318.908 -376.934 0.
299.597 -422.001 0.
280.286 -467.068 0.
266.888 -486.865 0.
277.313 -462.794 0.
287.738 -438.722 0.
379.595 -419.245 0.
357.456 -471.01 0.
335.317 -522.774 0.
755.323 -361.039 0.
747.455 -379.285 0.
598.169 -454.832 0.
612.493 -421.309 0.
626.816 -387.787 0.
645.099 -348.769 0.
666.698 -298.33 0.
688.296 -247.892 0.
608.345 -303.905 0.
567.942 -398.344 0.
527.538 -492.783 0.
440.293 -545.442 0.
441.965 -541.648 0.
1139.59 -239.678 0.
932.15 -280.091 0.
957.723 -220.346 0.
295.228 -460.453 0.
310.796 -423.94 0.
326.363 -387.428 0.
810.507 -189.476 0.
777.328 -267.003 0.
744.149 -344.53 0.
559.024 -463.699 0.
544.944 -496.601 0.
530.865 -529.504 0.
549.678 -429.426 0.
606.332 -297.568 0.
653.759 -186.345 0.
620.675 -263.59 0.
587.591 -340.834 0.
536.843 -382.283 0.
573.404 -296.82 0.
609.965 -211.356 0.
716.531 -161.155 0.
689.758 -223.512 0.
662.984 -285.869 0.
343.284 -484.524 0.
309.453 -563.601 0.
-333.376 -903.622 0.
878.964 -355.148 0.
894.181 -319.683 0.
693.826 -379.894 0.
701.68 -361.218 0.
709.534 -342.543 0.
532.798 -422.41 0.
519.039 -454.388 0.
505.279 -486.367 0.
633.273 -459.694 0.
617.089 -496.963 0.
600.906 -534.232 0.
672.55 -585.171 0.
627.046 -691.424 0.
718.333 -719.116 0.
755.626 -631.865 0.
792.92 -544.614 0.
396.216 -634.992 0.
446.069 -518.726 0.
495.921 -402.461 0.
784.636 -228.168 0.
794.518 -205.117 0.
804.401 -182.066 0.
821.031 -200.062 0.
800.993 -246.619 0.
678.248 -336.422 0.
615.75 -375.209 0.
609.371 -389.944 0.
378.845 -486.995 0.
405.17 -425.434 0.
431.495 -363.873 0.
776.352 -187.958 0.
777.55 -185.48 0.
778.748 -183.002 0.
393.332 -374.185 0.
374.002 -419.568 0.
354.672 -464.952 0.
606.451 -316.373 0.
630.833 -259.493 0.
456.468 -304.114 0.
416.376 -397.629 0.
376.283 -491.144 0.
195.813 -620.051 0.
192.746 -627.005 0.
189.678 -633.959 0.
93.5262 -580.314 0.
179.52 -379.458 0.
265.514 -178.602 0.
-25.8156 -438.064 0.
-131.827 -685.565 0.
-104.802 -850.526 0.
-23.8963 -831.112 0.
-33.2252 -853.213 0.
42.4845 -855.25 0.
-10.5346 -979.084 0.
-63.5536 -1102.92 0.
-23.1705 -1139.68 0.
-17.814 -1127.3 0.
-12.4574 -1114.93 0.
75.9954 -1126.87 0.
32.3299 -1229.04 0.
-11.3357 -1331.22 0.
430.863 -1176.65 0.
416.511 -1210.15 0.
179.232 -1334.61 0.
189.721 -1310.33 0.
200.21 -1286.05 0.
186.048 -1268.93 0.
201.981 -1231.53 0.
217.913 -1194.13 0.
325.553 -1099.28 0.
360.288 -1018.41 0.
395.023 -937.531 0.
232.908 -1006.81 0.
222.603 -1030.93 0.
728.173 -833.86 0.
684.769 -832.604 0.
695.268 -807.887 0.
82.8075 -1079.14 0.
17.1032 -1232.09 0.
-48.6012 -1385.03 0.
264.112 -1315.68 0.
271.494 -1298.39 0.
278.877 -1281.11 0.
286.605 -1229.02 0.
322.093 -1146.07 0.
357.581 -1063.13 0.
308.409 -1057.58 0.
319.244 -1032.19 0.
252.964 -1042.5 0.
257.295 -1032.5 0.
261.625 -1022.5 0.
211.649 -1071.51 0.
156.656 -1199.97 0.
101.664 -1328.42 0.
245.344 -1289.62 0.
270.45 -1231.38 0.
295.556 -1173.14 0.
44.0801 -1196.43 0.
94.0452 -1079.83 0.
-593.954 -1279.85 0.
630.905 -828.535 0.
592.162 -918.77 0.
451.046 -1029.85 0.
462.247 -1003.74 0.
473.448 -977.639 0.
261.044 -1011.23 0.
314.37 -886.763 0.
367.696 -762.298 0.
555.504 -641.33 0.
561.13 -628.081 0.
566.756 -614.832 0.
570.749 -750.347 0.
489.657 -939.441 0.
639.255 -1011.16 0.
637.882 -1014.54 0.
636.51 -1017.92 0.
87.8851 -1264.59 0.
73.1317 -1298.52 0.
58.3784 -1332.44 0.
340.3 -1201 0.
360.237 -1154.24 0.
380.173 -1107.48 0.
445.309 -1098.91 0.
428.317 -1138.48 0.
255.103 -1242.43 0.
267.831 -1139.69 0.
318.822 -1020.55 0.
137.329 -1057.37 0.
66.2508 -1223.02 0.
-4.827 -1388.67 0.
272.611 -1323.23 0.
291.341 -1279.44 0.
310.071 -1235.65 0.
26.684 -1311.4 0.
52.9961 -1249.79 0.
79.3083 -1188.17 0.
289.066 -1061.54 0.
309.722 -1013.24 0.
101.037 -1056.5 0.
141.278 -962.416 0.
181.52 -868.329 0.
108.422 -853.133 0.
105.295 -860.616 0.
102.169 -868.099 0.
-102.193 -991.43 0.
-130.931 -1058.42 0.
-159.669 -1125.42 0.
-330.792 -1069.01 0.
-241.64 -860.814 0.
-265.32 -887.93 0.
-54.8062 -812.898 0.
-64.1242 -835.024 0.
35.3031 -826.747 0.
-17.7175 -950.571 0.
-70.7382 -1074.4 0.
12.3727 -1092.96 0.
17.8081 -1080.62 0.
23.2436 -1068.28 0.
157.642 -1060.46 0.
113.941 -1162.62 0.
70.2406 -1264.78 0.
385.65 -1164.48 0.
371.256 -1198 0.
141.349 -1319.47 0.
151.801 -1295.16 0.
162.252 -1270.85 0.
73.7763 -1285.63 0.
89.7295 -1248.29 0.
105.683 -1210.96 0.
388.663 -1040.78 0.
423.36 -959.893 0.
458.057 -879.004 0.
318.191 -938.659 0.
307.972 -962.826 0.
-227.222 -1212.02 0.
639.709 -820.394 0.
650.22 -795.705 0.
214.273 -991.315 0.
148.536 -1144.25 0.
82.7994 -1297.18 0.
213.108 -1306.11 0.
220.451 -1288.81 0.
227.794 -1271.5 0.
368.802 -1162.29 0.
404.271 -1079.31 0.
439.74 -996.334 0.
396.871 -988.07 0.
407.659 -962.615 0.
250.791 -1012.26 0.
255.118 -1002.24 0.
259.445 -992.217 0.
178.524 -1054.17 0.
123.53 -1182.66 0.
68.5365 -1311.15 0.
220.025 -1269.02 0.
245.171 -1210.83 0.
270.317 -1152.63 0.
78.1512 -1150.35 0.
128.128 -1033.8 0.
-150.57 -1058.33 0.
520.728 -844.393 0.
482.073 -934.696 0.
474.773 -988.302 0.
485.93 -962.127 0.
497.087 -935.952 0.
295.179 -965.315 0.
348.569 -840.881 0.
401.958 -716.447 0.
635.334 -575.58 0.
640.98 -562.357 0.
646.627 -549.135 0.
432.811 -777.86 0.
351.756 -966.956 0.
717.701 -946.216 0.
716.259 -949.507 0.
714.817 -952.798 0.
203.584 -1183.52 0.
188.882 -1217.5 0.
174.179 -1251.49 0.
232.043 -1215.89 0.
252.02 -1169.22 0.
271.997 -1122.55 0.
431.719 -1073.26 0.
414.742 -1112.82 0.
269.295 -1204.71 0.
269.805 -1107.23 0.
320.797 -988.112 0.
254.677 -975.541 0.
183.64 -1141.26 0.
112.603 -1306.97 0.
210.526 -1318.24 0.
229.278 -1274.49 0.
248.031 -1230.74 0.
78.681 -1257.77 0.
105.048 -1196.2 0.
131.415 -1134.62 0.
333.651 -1010.91 0.
354.315 -962.597 0.
44.1928 -1049.39 0.
84.4847 -955.295 0.
124.777 -861.2 0.
185.311 -788.562 0.
182.16 -796.021 0.
179.01 -803.479 0.
-103.9 -960.751 0.
-132.706 -1027.69 0.
-161.512 -1094.63 0.
-280.303 -1015.95 0.
-191.171 -807.764 0.
-433.63 -945.521 0.
-74.4144 -769.496 0.
-66.2993 -750.122 0.
21.93 -812.426 0.
56.2816 -732.148 0.
224.756 -338.939 0.
-76.2341 -1336.92 0.
462.906 -78.5372 0.
504.075 17.9189 0.
575.152 -209.566 0.
387.393 -647.817 0.
395.233 -629.672 0.
631.271 -473.51 0.
466.291 -858.502 0.
162.082 -1167.17 0.
315.064 -810.127 0.
282.838 -885.23 0.
-41.6118 -1310.79 0.
94.7334 -992.762 0.
206.877 -731.198 0.
691.087 -423.729 0.
452.893 -979.576 0.
431.18 -1030.28 0.
316.063 -1074.46 0.
369.584 -949.412 0.
265.057 -680.891 0.
521.922 -977.847 0.
690.981 -583.29 0.
565.383 -390.136 0.
795.498 146.843 0.
663.679 -160.686 0.
13.4081 -1643.84 0.
276.237 -1030.07 0.
400.496 -739.624 0.
776.481 -334.98 0.
407.269 -1196.4 0.
80.5382 -1958.71 0.
363.724 -1202.14 0.
582.988 -690.722 0.
315.905 -825.19 0.
259.13 -957.335 0.
269.641 -932.477 0.
321.175 -626.817 0.
162.397 -997.459 0.
199.294 -911.526 0.
442.677 -670.164 0.
435.073 -687.568 0.
320.494 -954.567 0.
135.14 -1051.46 0.
309.581 -644.191 0.
-369.524 -1441.75 0.
360.888 -976.234 0.
491.107 -672.766 0.
745.494 -369.82 0.
434.976 -1094.04 0.
123.875 -1819.62 0.
130.777 -1382.51 0.
623.392 -232.775 0.
656.995 -154.046 0.
618.884 -734.801 0.
405.366 -1233.05 0.
692.686 -562.611 0.
443.421 -459.443 0.
284.777 -829.364 0.
347.196 -1927.74 0.
774.553 -930.681 0.
833.26 -793.807 0.
427.136 -850.51 0.
114.857 -1579.5 0.
150.747 -1496.1 0.
265.52 -900.949 0.
676.39 57.6812 0.
471.857 -419.625 0.
330.919 -1251.19 0.
292.416 -1340.44 0.
287.356 -1124.12 0.
284.311 -1046.21 0.
193.934 -1256.66 0.
203.445 -1286.46 0.
638.019 -272.212 0.
590.321 -383.264 0.
589.907 -283.218 0.
462.312 -581.123 0.
212.475 -1164.25 0.
285.552 -842.57 0.
307.28 -791.956 0.
-625.11 -2967.63 0.
349.781 -1026.27 0.
751.345 -89.4716 0.
578.851 337.453 0.
327.418 -249.165 0.
371.862 -145.415 0.
522.776 -115.367 0.
254.279 -742.122 0.
550.949 -50.1453 0.
1.71217 -679.016 0.
13.072 -652.921 0.
128.378 -384.289 0.
-70.9478 -593.85 0.
-71.1796 -595.344 0.
-103.931 -507.23 0.
6.02981 -492.239 0.
-8.66708 -526.373 0.
144.697 -481.416 0.
145.896 -478.665 0.
147.096 -475.913 0.
341.408 -455.277 0.
261.882 -640.511 0.
182.356 -825.744 0.
182.157 -886.655 0.
175.067 -903.429 0.
167.978 -920.203 0.
470.822 -724.355 0.
512.567 -627.063 0.
404.815 -605.604 0.
382.255 -658.066 0.
359.694 -710.527 0.
257.364 -807.36 0.
215.914 -903.961 0.
174.463 -1000.56 0.
456.384 -907.811 0.
464.259 -889.442 0.
472.135 -871.074 0.
409.973 -850.109 0.
440.463 -778.85 0.
405.748 -735.473 0.
577.537 -787.535 0.
510.131 -944.872 0.
367.23 -1071.23 0.
462.598 -848.684 0.
557.965 -626.139 0.
430.959 -586.428 0.
420.535 -610.456 0.
410.111 -634.485 0.
617.542 -512.448 0.
648.158 -440.986 0.
678.773 -369.525 0.
828.487 -374.378 0.
783.321 -479.773 0.
368.929 -732.985 0.
361.809 -749.257 0.
354.688 -765.529 0.
205.012 -792.764 0.
281.188 -615.025 0.
357.364 -437.285 0.
567.086 -313.333 0.
536.226 -385.044 0.
505.366 -456.756 0.
252.216 -634.783 0.
214.761 -722.119 0.
-163.796 -955.689 0.
453.205 -672.642 0.
463.018 -649.88 0.
571.022 -597.89 0.
554.287 -636.981 0.
537.551 -676.073 0.
404.686 -771.568 0.
378.727 -831.94 0.
352.768 -892.312 0.
506.499 -846.717 0.
503.84 -853.13 0.
501.181 -859.543 0.
495.148 -724.295 0.
575.689 -535.779 0.
931.696 -262.569 0.
872.056 -401.648 0.
812.417 -540.728 0.
463.174 -792.599 0.
420.347 -892.728 0.
377.521 -992.857 0.
331.839 -1038.44 0.
339.929 -1019.32 0.
348.018 -1000.2 0.
427.22 -802.218 0.
532.516 -556.241 0.
619.667 -325.249 0.
459.318 -638.583 0.
330.79 -938.282 0.
252.117 -1130.83 0.
309.915 -996.109 0.
367.713 -861.384 0.
385.518 -768.935 0.
417.617 -693.937 0.
449.717 -618.938 0.
329.742 -626.565 0.
349.719 -579.981 0.
369.696 -533.396 0.
508.682 -588.06 0.
438.13 -752.726 0.
-52.9216 -1081.64 0.
-50.5345 -1076.08 0.
-48.1473 -1070.53 0.
136.186 -932.544 0.
218.753 -740.045 0.
301.32 -547.547 0.
139.106 -505.696 0.
180.497 -409.275 0.
221.888 -312.853 0.
133.214 -359.91 0.
118.919 -393.872 0.
86.4484 -394.024 0.
-24.3712 -473.622 0.
-38.9866 -507.847 0.
137.851 -452.85 0.
139.103 -450.135 0.
140.355 -447.42 0.
406.775 -395.612 0.
327.248 -580.853 0.
247.722 -766.095 0.
72.7613 -902.248 0.
65.6464 -918.99 0.
58.5316 -935.732 0.
422.665 -713.454 0.
464.403 -616.172 0.
424.126 -565.794 0.
401.53 -618.199 0.
378.935 -670.604 0.
375.63 -725.419 0.
334.135 -822.053 0.
292.639 -918.686 0.
439.805 -883.46 0.
447.649 -865.065 0.
455.493 -846.669 0.
423.46 -813.099 0.
453.957 -741.872 0.
594.824 -623.267 0.
562.454 -762.325 0.
495.08 -919.675 0.
498.535 -983.586 0.
593.909 -761.006 0.
689.283 -538.427 0.
403.964 -566.591 0.
393.546 -590.618 0.
383.128 -614.644 0.
532.594 -517.446 0.
563.193 -445.963 0.
593.791 -374.48 0.
979.745 -278.255 0.
934.549 -383.625 0.
401.77 -687.351 0.
394.72 -703.65 0.
387.67 -719.948 0.
166.458 -777.936 0.
242.57 -600.152 0.
318.682 -422.368 0.
548.79 -289.557 0.
517.958 -361.337 0.
487.125 -433.117 0.
193.858 -628.237 0.
156.471 -715.625 0.
-791.707 -1193.18 0.
423.221 -653.915 0.
433.029 -631.118 0.
493.74 -599.479 0.
477.038 -638.567 0.
460.336 -677.655 0.
436.036 -726.778 0.
410.107 -787.179 0.
384.178 -847.579 0.
444.473 -841.515 0.
441.81 -847.922 0.
439.147 -854.329 0.
714.239 -599.082 0.
794.669 -410.501 0.
789.95 -292.056 0.
730.255 -431.025 0.
670.56 -569.994 0.
493.303 -748.273 0.
450.47 -848.374 0.
407.636 -948.474 0.
501.728 -934.285 0.
509.734 -915.123 0.
517.741 -895.96 0.
325.774 -814.441 0.
431.14 -568.509 0.
719.886 -250.699 0.
476.07 -599.917 0.
347.604 -899.678 0.
247.062 -1101.45 0.
304.984 -966.83 0.
362.907 -832.206 0.
406.365 -728.351 0.
438.506 -653.379 0.
470.647 -578.407 0.
287.041 -613.29 0.
307.005 -566.673 0.
326.97 -520.057 0.
489.737 -564.933 0.
419.13 -729.534 0.
-65.3182 -1055.55 0.
-62.9143 -1050.04 0.
-60.5105 -1044.52 0.
108.252 -912.754 0.
190.805 -720.236 0.
273.359 -527.718 0.
232.809 -434.323 0.
274.129 -337.814 0.
315.448 -241.306 0.
277.061 -266.702 0.
262.637 -300.619 0.
-31.2031 -844.479 0.
-240.604 -993.383 0.
-271.868 -1066.39 0.
-154.729 -1077.21 0.
-187.396 -1153.32 0.
-220.063 -1229.44 0.
117.572 -1112.65 0.
126.908 -1091.02 0.
136.245 -1069.39 0.
-71.5056 -1071.41 0.
-4.44472 -914.386 0.
62.6162 -757.362 0.
380.363 -751.613 0.
290.006 -962.289 0.
179.685 -1163.47 0.
203.264 -1108.61 0.
226.844 -1053.76 0.
265.346 -997.375 0.
279.483 -964.486 0.
293.619 -931.597 0.
428.096 -928.191 0.
362.98 -1080.13 0.
297.864 -1232.06 0.
185.477 -1353.16 0.
155.563 -1422.51 0.
349.553 -1395.82 0.
389.582 -1263.92 0.
450.387 -1121.6 0.
457.61 -1027.93 0.
453.441 -1037.43 0.
449.271 -1046.94 0.
188.95 -1148.99 0.
206.313 -1108.96 0.
223.675 -1068.93 0.
248.966 -1076.41 0.
226.182 -1129.56 0.
203.399 -1182.71 0.
731.291 -850.863 0.
796.371 -698.649 0.
380.828 -768.99 0.
364.366 -807.151 0.
347.903 -845.312 0.
45.0273 -1054.96 0.
-50.5248 -1277.82 0.
-146.077 -1500.67 0.
38.2951 -1442.92 0.
95.9091 -1308.59 0.
153.523 -1174.26 0.
-64.3311 -1153.74 0.
-4.27105 -1013.52 0.
-799.313 -1240.01 0.
278.398 -915.079 0.
206.243 -1083.02 0.
183.266 -1177.13 0.
231.67 -1063.9 0.
280.074 -950.664 0.
352.186 -900.219 0.
316.179 -984.379 0.
280.171 -1068.54 0.
282.539 -1088.1 0.
283.963 -1084.41 0.
285.387 -1080.71 0.
593.918 -959.108 0.
587.541 -974.297 0.
438.98 -1042.12 0.
467.735 -975.402 0.
496.491 -908.68 0.
435.625 -901.095 0.
431.089 -911.589 0.
426.553 -922.082 0.
472.255 -942.547 0.
437.662 -1023.58 0.
403.07 -1104.62 0.
133.576 -1332.89 0.
68.41 -1485.06 0.
312.168 -1500.66 0.
174.67 -1331.73 0.
294.255 -1052.65 0.
350.129 -855.985 0.
348.181 -860.053 0.
346.233 -864.12 0.
260.79 -967.15 0.
187.032 -1139.13 0.
113.274 -1311.1 0.
-43.1886 -1354.02 0.
7.50063 -1235.71 0.
58.1899 -1117.41 0.
388.07 -871.561 0.
443.203 -742.671 0.
-41.4358 -862.39 0.
-46.7855 -874.662 0.
-52.1352 -886.933 0.
106.687 -847.073 0.
72.8562 -925.789 0.
39.0259 -1004.5 0.
-3.9123 -1073.05 0.
-24.8116 -1122.24 0.
-45.7109 -1171.43 0.
-44.4612 -1065.32 0.
28.2893 -895.547 0.
-2.3607 -800.493 0.
-162.155 -928.159 0.
-193.418 -1001.16 0.
-176.376 -1055.26 0.
-209.003 -1131.38 0.
-241.63 -1207.5 0.
130.405 -1075.87 0.
139.707 -1054.2 0.
149.008 -1032.53 0.
-107.218 -1055.2 0.
-40.0681 -898.268 0.
27.082 -741.335 0.
397.811 -712.541 0.
307.46 -923.246 0.
222.915 -1113.48 0.
246.462 -1058.55 0.
270.009 -1003.62 0.
197.515 -994.794 0.
211.676 -961.936 0.
225.838 -929.078 0.
494.575 -868.376 0.
429.399 -1020.27 0.
364.222 -1172.17 0.
189.531 -1320.34 0.
159.604 -1389.7 0.
267.094 -1400.1 0.
539.153 -1168.23 0.
600.015 -1025.88 0.
306.868 -1061.12 0.
302.746 -1070.61 0.
298.625 -1080.11 0.
333.399 -1055.62 0.
350.748 -1015.57 0.
368.097 -975.516 0.
258.639 -1040.79 0.
235.872 -1094 0.
213.105 -1147.22 0.
606.891 -872.787 0.
671.918 -720.568 0.
414.394 -723.253 0.
397.914 -761.39 0.
381.434 -799.528 0.
108.68 -996.354 0.
13.0596 -1219.22 0.
-82.5603 -1442.09 0.
49.0012 -1406.93 0.
106.594 -1272.59 0.
164.187 -1138.25 0.
-50.1941 -1116.18 0.
9.82752 -975.984 0.
-1321.95 -1432.47 0.
257.976 -892.425 0.
185.859 -1060.4 0.
139.627 -1164.44 0.
188.121 -1051.22 0.
236.615 -938.005 0.
331.717 -877.274 0.
295.685 -961.445 0.
259.652 -1045.62 0.
239.699 -1075.13 0.
241.122 -1071.46 0.
242.545 -1067.78 0.
491.804 -971.575 0.
485.494 -986.915 0.
541.785 -966.764 0.
570.521 -900.013 0.
599.256 -833.261 0.
457.236 -860.382 0.
452.658 -870.888 0.
448.08 -881.393 0.
273.515 -996.285 0.
238.858 -1077.25 0.
204.202 -1158.21 0.
340.231 -1212.76 0.
275.075 -1364.96 0.
-178.534 -1679.58 0.
220.301 -1280.84 0.
339.917 -1001.77 0.
380.954 -811.392 0.
379.08 -815.449 0.
377.206 -819.506 0.
168.035 -975.109 0.
94.3113 -1147.08 0.
20.5872 -1319.05 0.
1.07523 -1303.83 0.
51.7368 -1185.44 0.
102.398 -1067.06 0.
512.227 -787.057 0.
567.342 -658.18 0.
-142.202 -874.371 0.
-147.636 -886.621 0.
-153.07 -898.871 0.
94.9922 -820.504 0.
61.1765 -899.221 0.
27.3607 -977.937 0.
27.5318 -1028.17 0.
6.56596 -1077.32 0.
-14.3999 -1126.47 0.
-99.1446 -1057.35 0.
-26.5176 -887.551 0.
132.192 -504.71 0.
36.0119 -581.147 0.
33.7479 -586.912 0.
-7.99112 -591.138 0.
-61.0651 -715.206 0.
102.256 -334.262 0.
645.451 131.904 0.
303.024 -667.163 0.
612.268 54.3 0.
493.113 446.509 0.
430.331 299.404 0.
459.437 366.719 0.
958.457 594.97 0.
594.472 -254.583 0.
461.417 -606.663 0.
787.916 154.986 0.
577.118 -337.074 0.
373.054 -424.848 0.
496.654 -136.803 0.
555.229 -0.463846 0.
1048.03 328.493 0.
1055.97 347.082 0.
1013.9 248.989 0.
949.196 475.093 0.
855.168 255.038 0.
521.772 280.932 0.
1348.37 467.396 0.
1168.53 47.2561 0.
688.887 147.692 0.
685.899 140.635 0.
650.273 57.4174 0.
901.654 26.8294 0.
678.129 -494.66 0.
741.5 -346.732 0.
549.92 -349.157 0.
525.979 -404.638 0.
417.397 -657.585 0.
1100.56 545.322 0.
794.132 -170.478 0.
581.376 -364.953 0.
694.227 -101.945 0.
1014.4 644.886 0.
877.656 711.314 0.
559.814 -30.3486 0.
656.877 196.039 0.
632.454 -34.3911 0.
793.846 342.634 0.
804.092 366.972 0.
601.789 406.894 0.
625.48 461.654 0.
-409.747 -15.8174 0.
558.539 -118.582 0.
419.462 -442.951 0.
836.829 575.275 0.
989.173 930.923 0.
893.996 709.207 0.
1121.68 1036.72 0.
1003.34 760.586 0.
1407.96 1704.65 0.
608.128 -103.547 0.
493.069 -371.966 0.
572.078 -187.553 0.
627.546 -431.568 0.
507.884 -710.044 0.
856.913 -395.284 0.
861.725 -383.899 0.
1029.25 7.16831 0.
692.495 -322.606 0.
952.155 284.001 0.
938.054 251.834 0.
554.634 68.1197 0.
541.163 37.0696 0.
455.411 -162.651 0.
1092.1 179.566 0.
1555.55 1261.45 0.
658.588 1140.86 0.
1107.91 735.036 0.
931.629 324.163 0.
506.376 -545.526 0.
603.884 -318.111 0.
909.172 394.112 0.
692.039 454.415 0.
534.91 87.9758 0.
347.453 -349.229 0.
406.758 -409.684 0.
230.137 -821.49 0.
1052.67 1097.98 0.
1137.49 466.593 0.
1022.1 196.87 0.
28.9123 -250.966 0.
271.341 314.352 0.
350.215 498.069 0.
491.706 158.434 0.
264.213 -372.089 0.
309.494 -266.151 0.
96.9174 -894.436 0.
248.624 -540.003 0.
265.868 -499.238 0.
98.4889 -467.662 0.
141.658 -367.089 0.
88.8042 -419.989 0.
-14.7132 -456.26 0.
-5.74844 -435.989 0.
91.3139 -394.073 0.
50.443 -489.513 0.
9.57213 -584.952 0.
365.737 -497.236 0.
341.832 -553.116 0.
317.928 -608.995 0.
45.7322 -841.572 0.
-34.9654 -1030.26 0.
-115.663 -1218.94 0.
161.337 -951.646 0.
263.717 -712.997 0.
546.241 -429.378 0.
449.714 -654.656 0.
353.186 -879.934 0.
115.111 -1100.24 0.
133.328 -1057.71 0.
151.546 -1015.18 0.
539.511 -836.046 0.
534.513 -847.764 0.
529.515 -859.482 0.
309.06 -919.966 0.
334.212 -861.785 0.
631.56 -687.101 0.
752.915 -800.481 0.
664.36 -1007.31 0.
-3.31128 -1400.57 0.
64.267 -1242.72 0.
131.845 -1084.87 0.
396.51 -903.483 0.
390.177 -917.972 0.
383.844 -932.462 0.
198.457 -1087.27 0.
140.693 -1221.8 0.
82.93 -1356.33 0.
555.892 -1084.23 0.
606.268 -967.354 0.
213.133 -1049.78 0.
221.276 -1031.05 0.
229.419 -1012.31 0.
75.8289 -1012.91 0.
164.19 -806.643 0.
252.551 -600.38 0.
449.603 -496.839 0.
395.369 -623.231 0.
341.135 -749.624 0.
47.7534 -957.692 0.
7.99506 -1050.7 0.
-489.842 -1339.26 0.
186.135 -992.15 0.
216.269 -921.857 0.
231.536 -870.273 0.
234.976 -862.24 0.
238.415 -854.207 0.
299.567 -835.471 0.
288.11 -862.346 0.
276.654 -889.221 0.
344.541 -872.943 0.
339.337 -885.216 0.
334.133 -897.489 0.
416.012 -907.291 0.
390.009 -967.592 0.
388.293 -1001.83 0.
426.616 -912.244 0.
464.939 -822.662 0.
481.268 -790.648 0.
448.867 -866.07 0.
416.465 -941.492 0.
156.329 -1101.1 0.
136.307 -1147.37 0.
116.284 -1193.64 0.
566.187 -957.266 0.
599.699 -878.718 0.
308.761 -941.163 0.
157.513 -1114.29 0.
100.447 -1247.02 0.
167.234 -1284.41 0.
203.998 -1198.43 0.
240.762 -1112.45 0.
117.586 -1120.65 0.
127.715 -1096.7 0.
137.843 -1072.74 0.
148.301 -1014.53 0.
182.575 -934.567 0.
216.849 -854.603 0.
621.649 -692.61 0.
612.851 -713.386 0.
-251.297 -1091.83 0.
-233.364 -1050.25 0.
-215.431 -1008.68 0.
27.6162 -847.537 0.
82.8502 -718.535 0.
138.084 -589.534 0.
235.931 -466.024 0.
268.999 -388.411 0.
302.067 -310.799 0.
279.394 -257.265 0.
313.181 -178.6 0.
7.57974 -423.553 0.
-125.837 -472.305 0.
-116.804 -452.038 0.
125.862 -348.108 0.
84.9581 -443.47 0.
44.0542 -538.831 0.
369.835 -464.067 0.
345.914 -519.946 0.
321.992 -575.826 0.
190.477 -748.268 0.
109.734 -936.933 0.
28.991 -1125.6 0.
13.4975 -983.213 0.
115.838 -744.552 0.
573.642 -386.471 0.
477.057 -611.652 0.
380.473 -836.832 0.
170.238 -1045.04 0.
188.421 -1002.41 0.
206.605 -959.793 0.
544.642 -802.257 0.
539.651 -813.957 0.
534.66 -825.657 0.
273.674 -903.804 0.
298.811 -845.614 0.
948.881 -519.839 0.
705.817 -789.261 0.
617.283 -996.008 0.
-22.164 -1377.49 0.
45.3592 -1219.58 0.
112.882 -1061.66 0.
282.453 -921.069 0.
276.089 -935.57 0.
269.725 -950.07 0.
171.908 -1067.17 0.
114.087 -1201.75 0.
56.2655 -1336.33 0.
760.363 -965.311 0.
810.722 -848.408 0.
138.259 -1050.29 0.
146.369 -1031.53 0.
154.479 -1012.78 0.
15.8123 -1007.46 0.
104.084 -801.21 0.
192.356 -594.958 0.
484.849 -450.147 0.
430.652 -576.632 0.
376.455 -703.116 0.
101.927 -903.034 0.
62.1595 -996.114 0.
-575.679 -1344.54 0.
204.963 -952.472 0.
235.148 -882.198 0.
265.908 -823.976 0.
269.428 -815.958 0.
272.948 -807.941 0.
291.932 -807.314 0.
280.448 -834.144 0.
268.964 -860.973 0.
442.228 -799.769 0.
437.016 -812.036 0.
431.804 -824.303 0.
423.221 -872.781 0.
397.256 -933.192 0.
148.94 -1072.66 0.
187.341 -983.219 0.
225.741 -893.777 0.
484.812 -757.675 0.
452.515 -833.248 0.
420.219 -908.822 0.
298.493 -1008.69 0.
278.476 -1054.9 0.
258.458 -1101.1 0.
535.312 -939.278 0.
568.801 -860.717 0.
479.923 -836.424 0.
-19.3811 -1158.61 0.
-76.4555 -1291.35 0.
156.137 -1257.87 0.
192.905 -1171.84 0.
229.673 -1085.81 0.
257.366 -1029.23 0.
267.472 -1005.19 0.
277.577 -981.158 0.
165.936 -975.558 0.
200.134 -895.505 0.
234.332 -815.451 0.
614.658 -664.448 0.
605.827 -685.156 0.
-136.687 -1011.54 0.
-118.788 -969.909 0.
-100.889 -928.278 0.
3.80046 -826.234 0.
59.0791 -697.282 0.
114.358 -568.33 0.
197.794 -450.888 0.
230.881 -373.305 0.
263.967 -295.721 0.
407.046 -171.122 0.
440.823 -92.4996 0.
-156.353 -689.568 0.
-266.796 -915.179 0.
-360.779 -1132.98 0.
-181.494 -1187.91 0.
-150.119 -1114.63 0.
-118.744 -1041.35 0.
122.299 -903.231 0.
121.176 -905.639 0.
120.053 -908.046 0.
137.907 -874.589 0.
160.043 -822.519 0.
182.179 -770.448 0.
16.4297 -937.117 0.
-45.7443 -1081.96 0.
284.697 -1031.83 0.
386.574 -794.263 0.
488.452 -556.696 0.
383.033 -516.755 0.
300.418 -710.007 0.
217.802 -903.26 0.
513.902 -807.804 0.
556.558 -708.278 0.
599.214 -608.752 0.
268.555 -881.632 0.
164.325 -1124.62 0.
690.097 -1097.54 0.
577.857 -967.452 0.
674.119 -742.723 0.
131.493 -864.818 0.
43.3337 -1070.88 0.
-44.8257 -1276.94 0.
90.8863 -1302.31 0.
104.923 -1269.64 0.
118.96 -1236.96 0.
182.649 -1181.51 0.
198.793 -1144.11 0.
214.936 -1106.7 0.
779.727 -786.067 0.
823.77 -682.665 0.
215.762 -859.263 0.
253.73 -770.41 0.
291.698 -681.558 0.
109.673 -738.105 0.
64.5644 -843.195 0.
19.4555 -948.285 0.
253.042 -837.815 0.
300.337 -727.7 0.
347.632 -617.584 0.
267.531 -712.013 0.
213.137 -838.744 0.
-1060.33 -1489.03 0.
335.7 -798.698 0.
383.856 -685.777 0.
306.077 -653.111 0.
290.202 -689.883 0.
274.328 -726.655 0.
300.911 -707.907 0.
328.136 -644.466 0.
355.362 -581.026 0.
505.654 -587.204 0.
437.901 -745.202 0.
370.148 -903.201 0.
439.603 -880.263 0.
443.652 -870.685 0.
131.28 -1004.26 0.
102.779 -1070.45 0.
74.2769 -1136.63 0.
351.657 -1025.02 0.
392.496 -929.657 0.
433.335 -834.293 0.
386.291 -858.136 0.
351.123 -940.305 0.
315.955 -1022.47 0.
465.448 -973.449 0.
464.4 -976.139 0.
284.439 -1054.91 0.
-78.1569 -1065.1 0.
-1.79359 -887.185 0.
373.434 -619.211 0.
359.741 -651.617 0.
346.047 -684.023 0.
453.926 -652.408 0.
454.038 -652.714 0.
454.15 -653.02 0.
268.12 -822.418 0.
199.381 -983.057 0.
130.642 -1143.7 0.
466.139 -945.043 0.
504.382 -855.96 0.
-103.618 -1048.15 0.
-84.8369 -1004.38 0.
-66.056 -960.615 0.
-64.6966 -952.156 0.
-86.6249 -1003.26 0.
-108.553 -1054.37 0.
9.46406 -973.521 0.
52.5431 -873.266 0.
95.6222 -773.011 0.
84.6423 -855.725 0.
22.7308 -1000.08 0.
-169.163 -663.374 0.
-9.48088 -773.462 0.
-103.461 -991.26 0.
-55.8311 -1102.89 0.
-24.534 -1029.53 0.
6.7632 -956.175 0.
6.79438 -921.246 0.
5.61341 -923.647 0.
4.4324 -926.048 0.
29.6722 -889.927 0.
51.7712 -837.862 0.
73.8702 -785.797 0.
155.218 -846.033 0.
93.0191 -990.787 0.
261.561 -1010.21 0.
363.434 -772.596 0.
465.307 -534.982 0.
329.071 -508.769 0.
246.414 -701.937 0.
163.756 -895.106 0.
472.866 -793.495 0.
515.505 -693.976 0.
558.144 -594.457 0.
302.394 -836.031 0.
198.186 -1079 0.
48.5465 -1341.49 0.
530.961 -955.875 0.
627.227 -731.101 0.
21.4841 -881.025 0.
-66.7403 -1086.94 0.
-154.965 -1292.85 0.
168.112 -1238.04 0.
182.12 -1205.33 0.
196.128 -1172.63 0.
387.887 -1062.06 0.
403.975 -1024.68 0.
420.063 -987.302 0.
471.702 -886.592 0.
515.795 -783.293 0.
310.192 -787.369 0.
348.149 -698.518 0.
386.106 -609.667 0.
146.517 -691.101 0.
101.362 -796.272 0.
56.2058 -901.442 0.
91.1422 -875.664 0.
138.397 -765.665 0.
185.652 -655.665 0.
452.518 -601.393 0.
398.213 -728.275 0.
-246.089 -1108.39 0.
505.706 -694.1 0.
554.059 -581.277 0.
223.65 -657.066 0.
207.822 -693.824 0.
191.994 -730.583 0.
258.102 -695 0.
285.287 -631.493 0.
312.473 -567.985 0.
374.544 -612.043 0.
306.834 -770.027 0.
239.125 -928.01 0.
513.874 -816.749 0.
517.926 -807.174 0.
286.211 -906.299 0.
257.768 -972.538 0.
229.325 -1038.78 0.
334.541 -1000.86 0.
375.397 -905.519 0.
416.253 -810.174 0.
335.35 -848.584 0.
300.112 -930.666 0.
264.874 -1012.75 0.
395.114 -972.293 0.
394.073 -974.982 0.
108.508 -1099.21 0.
-110.223 -1047.55 0.
-33.9884 -869.589 0.
280.825 -627.347 0.
267.206 -659.778 0.
253.587 -692.208 0.
434.731 -629.432 0.
434.787 -629.639 0.
434.843 -629.845 0.
373.305 -745.483 0.
304.504 -906.063 0.
235.703 -1066.64 0.
438.528 -925.769 0.
476.724 -836.654 0.
-66.6481 -1001.3 0.
-47.8974 -957.474 0.
-29.1468 -913.647 0.
-44.061 -911.77 0.
-65.9061 -962.908 0.
-87.7511 -1014.05 0.
165.58 -875.221 0.
208.689 -774.976 0.
251.799 -674.73 0.
-71.3798 -891.463 0.
-133.177 -1035.8 0.
-260.01 -815.32 0.
246.184 -626.132 0.
287.68 -530.779 0.
286.402 -510.067 0.
339.694 -386.047 0.
318.068 -436.974 0.
101.129 -452.337 0.
127.583 -391.53 0.
306.822 25.8748 0.
293.06 -38.0201 0.
436.461 296.436 0.
372.595 147.408 0.
378.293 -557.095 0.
371.954 -571.996 0.
591.187 -166.331 0.
511.402 -352.397 0.
624.987 -87.2369 0.
603.075 265.946 0.
368.239 -282.056 0.
531.69 99.1953 0.
926.501 375.199 0.
782.257 38.6414 0.
1004.91 558.117 0.
746.714 167.261 0.
819.95 337.717 0.
-349.842 -288.103 0.
965.011 176.348 0.
995.076 245.506 0.
363.094 156.262 0.
658.615 845.926 0.
766.372 1097.44 0.
988.673 560.994 0.
615.496 -309.835 0.
688.538 -139.501 0.
1084.69 205.832 0.
701.946 -686.959 0.
314.756 -1590.23 0.
282.927 -712.143 0.
742.116 359.665 0.
611.383 -234.758 0.
403.63 -719.114 0.
540.996 -398.222 0.
405.088 -124.3 0.
567.781 255.234 0.
738.329 653.117 0.
569.474 576.717 0.
298.866 -54.8407 0.
229.258 -217.291 0.
868.241 52.3454 0.
911.77 154.252 0.
-263.648 -384.152 0.
1028.52 232.285 0.
1049.42 281.401 0.
502.421 180.865 0.
477.679 123.1 0.
409.549 -35.8889 0.
506.432 -2.93287 0.
791.196 661.434 0.
566.757 137.78 0.
433.355 -194.98 0.
563.949 109.416 0.
921.784 944.035 0.
581.036 -770.227 0.
387.834 -1221.08 0.
752.071 -82.546 0.
716.636 -165.111 0.
701.684 -199.872 0.
694.638 -95.869 0.
742.877 17.0897 0.
902.905 390.892 0.
948.87 712.924 0.
896.8 590.756 0.
857.242 497.788 0.
843.643 237.587 0.
716.303 -59.3647 0.
688.543 654.845 0.
482.193 426.453 0.
570.094 631.852 0.
678.818 506.781 0.
519.831 136.69 0.
329.991 -305.654 0.
565.163 -257.782 0.
657.35 -42.3437 0.
715.14 92.8848 0.
604.577 -372.729 0.
669.883 -220.057 0.
831.051 156.297 0.
738.478 -143.694 0.
876.123 177.517 0.
945.573 1322.16 0.
292.72 -201.183 0.
234.916 -336.105 0.
358.086 14.5232 0.
81.529 -629.906 0.
252.409 -230.581 0.
386.197 -625.334 0.
427.385 -528.756 0.
425.617 -532.395 0.
-142.888 -741.853 0.
-138.279 -731.042 0.
-356.526 -765.629 0.
-3.35594 -570.827 0.
18.2183 -521.891 0.
288.473 -377.989 0.
273.636 -412.721 0.
258.8 -447.452 0.
152.917 -517.531 0.
144.968 -536.719 0.
137.019 -555.907 0.
126.138 -627.245 0.
74.4727 -748.069 0.
22.8074 -868.893 0.
144.321 -809.178 0.
158.984 -775.016 0.
358.519 -670.941 0.
307.191 -790.472 0.
255.863 -910.002 0.
54.8128 -1025.25 0.
118.225 -877.245 0.
181.636 -729.243 0.
578.113 -510.646 0.
570.671 -528.32 0.
563.229 -545.995 0.
318.645 -585.269 0.
365.619 -476.154 0.
-188.021 -624.432 0.
678.787 -522.172 0.
535.679 -856.195 0.
-214.154 -1364.11 0.
-142.27 -1196.08 0.
-70.3864 -1028.05 0.
359.943 -792.968 0.
325.94 -872.095 0.
291.938 -951.222 0.
396.382 -798.56 0.
499.659 -557.428 0.
602.936 -316.295 0.
506.048 -530.679 0.
389.841 -801.91 0.
371.188 -1001.72 0.
407.49 -917.205 0.
443.791 -832.691 0.
25.2484 -983.829 0.
-2.99515 -1049.78 0.
-31.2387 -1115.74 0.
-117.067 -1181.45 0.
-122.218 -1193.12 0.
-127.37 -1204.79 0.
306.935 -960.124 0.
348.069 -864.144 0.
-588.379 -1186.91 0.
548.505 -678.944 0.
559.18 -653.639 0.
66.6498 -839.792 0.
90.7099 -783.624 0.
114.77 -727.455 0.
310.693 -682.962 0.
235.182 -858.986 0.
159.671 -1035.01 0.
257.04 -1019.69 0.
273.606 -981.234 0.
290.173 -942.774 0.
404.934 -794.908 0.
460.12 -666.201 0.
482.977 -586.212 0.
386.701 -810.656 0.
290.426 -1035.1 0.
176.039 -1187.97 0.
201.832 -1127.65 0.
227.624 -1067.32 0.
153.66 -1017.14 0.
211 -883.94 0.
268.339 -750.735 0.
427.692 -589.465 0.
474.409 -480.266 0.
350.219 -443.754 0.
93.651 -597.302 0.
70.5445 -650.841 0.
218.3 -634.228 0.
195.019 -687.761 0.
171.737 -741.294 0.
289.257 -760.067 0.
235.803 -884.308 0.
182.348 -1008.55 0.
288.279 -968.712 0.
308.95 -920.4 0.
329.621 -872.089 0.
509.61 -736.496 0.
540.792 -664.067 0.
13.2088 -830.024 0.
51.3603 -741.02 0.
89.5118 -652.016 0.
218.902 -548.445 0.
220.515 -543.987 0.
222.129 -539.53 0.
357.694 -463.339 0.
371.89 -429.952 0.
386.087 -396.565 0.
102.473 -524.516 0.
96.1316 -539.688 0.
-484.339 -788.966 0.
-321.674 -676.003 0.
-300.101 -627.003 0.
238.13 -368.21 0.
223.195 -402.878 0.
208.261 -437.546 0.
267.078 -437.035 0.
259.082 -456.211 0.
251.085 -475.386 0.
247.279 -544.444 0.
195.515 -665.19 0.
143.752 -785.936 0.
6.60524 -836.459 0.
21.2139 -802.175 0.
354.828 -641.252 0.
303.553 -760.799 0.
252.278 -880.346 0.
77.0064 -984.577 0.
140.412 -836.55 0.
203.818 -688.523 0.
633.354 -454.801 0.
625.951 -472.582 0.
618.549 -490.363 0.
205.312 -602.806 0.
252.248 -493.657 0.
675.482 -223.283 0.
711.348 -476.76 0.
568.002 -810.571 0.
-106.143 -1286.79 0.
-34.3425 -1118.67 0.
37.458 -950.546 0.
316.412 -780.359 0.
282.411 -859.506 0.
248.409 -938.653 0.
97.4829 -894.868 0.
200.672 -653.821 0.
303.862 -412.773 0.
700.611 -415.9 0.
584.397 -687.191 0.
496.77 -916.624 0.
533.081 -832.097 0.
569.393 -747.57 0.
27.8556 -951.425 0.
-0.456074 -1017.31 0.
-28.7677 -1083.2 0.
-18.9943 -1108.19 0.
-24.1386 -1119.89 0.
-29.283 -1131.59 0.
168.023 -988.145 0.
209.179 -892.264 0.
267.529 -788.637 0.
455.517 -687.085 0.
466.119 -661.695 0.
85.5285 -800.536 0.
109.607 -744.365 0.
133.685 -688.194 0.
444.244 -594.147 0.
368.735 -770.16 0.
293.226 -946.173 0.
490.399 -888.634 0.
506.985 -850.201 0.
523.572 -811.768 0.
218.879 -842.94 0.
274.103 -714.278 0.
434.237 -575.773 0.
338.083 -800.277 0.
241.929 -1024.78 0.
130.612 -1175.88 0.
156.446 -1115.59 0.
182.28 -1055.31 0.
104.239 -1006.95 0.
161.517 -873.658 0.
218.796 -740.362 0.
368.776 -583.373 0.
415.582 -474.24 0.
531.823 -334.447 0.
171.53 -532.441 0.
148.377 -585.977 0.
269.377 -580.848 0.
246.207 -634.466 0.
223.036 -688.085 0.
231.253 -753.787 0.
177.707 -877.929 0.
124.16 -1002.07 0.
230.072 -961.931 0.
250.779 -913.636 0.
271.486 -865.34 0.
556.789 -685.042 0.
587.963 -612.599 0.
17.1227 -797.102 0.
55.3229 -708.13 0.
93.5232 -619.158 0.
360.297 -456.429 0.
361.954 -451.956 0.
363.612 -447.484 0.
254.168 -476.388 0.
268.426 -443.078 0.
282.684 -409.768 0.
305.226 -406.596 0.
299.004 -421.921 0.
-451.155 -695.69 0.
-417.548 -819.102 0.
-490.519 -988.142 0.
-68.0519 -906.164 0.
-33.9352 -827.095 0.
0.181582 -748.027 0.
185.305 -676.614 0.
127.294 -811.477 0.
69.2841 -946.34 0.
125.317 -895.421 0.
180.562 -766.838 0.
235.806 -638.256 0.
-39.9606 -800.411 0.
-76.1379 -884.791 0.
309.138 -784.197 0.
300.378 -804.829 0.
291.617 -825.462 0.
90.3285 -915.441 0.
103.345 -885.126 0.
116.361 -854.812 0.
511.841 -648.843 0.
537.123 -589.732 0.
562.405 -530.622 0.
88.3073 -848.107 0.
2.41496 -1047.86 0.
166.262 -1140.41 0.
533.667 -792.114 0.
635.676 -554.631 0.
72.0954 -683.05 0.
-24.7235 -909.542 0.
-121.542 -1136.04 0.
216.872 -1018.86 0.
308.647 -804.751 0.
400.422 -590.644 0.
91.5608 -744.888 0.
28.2274 -892.945 0.
-35.106 -1041 0.
623.97 -733.889 0.
646.37 -681.272 0.
634.204 -642.89 0.
654.763 -594.56 0.
675.322 -546.23 0.
133.907 -748.207 0.
138.121 -738.354 0.
142.336 -728.5 0.
157.464 -723.964 0.
152.64 -735.499 0.
147.816 -747.035 0.
219.55 -718.243 0.
219.663 -718.378 0.
395.015 -642.966 0.
407.343 -618.757 0.
417.294 -595.446 0.
181.358 -697.822 0.
138.486 -798.138 0.
95.6144 -898.454 0.
390.944 -787.918 0.
425.118 -708.185 0.
459.292 -628.452 0.
711.448 -493.346 0.
716.15 -482.545 0.
720.853 -471.744 0.
176.532 -818.562 0.
110.918 -971.457 0.
171.775 -1043.69 0.
217.889 -935.925 0.
264.004 -828.157 0.
313.491 -697.81 0.
392 -514.443 0.
470.508 -331.077 0.
253.286 -442.891 0.
175.132 -624.816 0.
96.9791 -806.74 0.
326.21 -741.55 0.
324.567 -745.523 0.
367.983 -732.714 0.
86.0114 -797.68 0.
115.641 -729.183 0.
161.501 -686.207 0.
112.459 -800.953 0.
63.4173 -915.7 0.
146.781 -894.641 0.
188.728 -797.125 0.
230.675 -699.609 0.
300.869 -699.575 0.
257.482 -800.478 0.
214.096 -901.381 0.
523.764 -807.85 0.
507.041 -846.873 0.
-117.621 -1149.25 0.
-147.428 -1218.61 0.
-177.235 -1287.98 0.
97.7715 -1139.5 0.
194.429 -914.332 0.
291.086 -689.163 0.
113.164 -679.754 0.
121.851 -659.394 0.
130.538 -639.035 0.
278.785 -492.167 0.
329.172 -373.967 0.
-314.468 -605.689 0.
-162.843 -678.869 0.
-235.786 -847.85 0.
-166.885 -917.048 0.
-132.866 -837.941 0.
-98.8459 -758.834 0.
157.751 -656.931 0.
99.7623 -791.823 0.
41.7737 -926.715 0.
107.196 -872.177 0.
162.447 -743.596 0.
217.698 -615.016 0.
-20.6855 -760.427 0.
-56.8614 -844.876 0.
384.053 -720.652 0.
375.255 -741.262 0.
366.458 -761.872 0.
60.6406 -897.262 0.
73.6358 -866.878 0.
86.6309 -836.495 0.
395.681 -666.718 0.
421.036 -607.709 0.
446.392 -548.7 0.
204.871 -766.648 0.
119.029 -966.435 0.
-199.479 -1265.82 0.
432.601 -804.01 0.
534.455 -566.435 0.
-198.697 -767.942 0.
-295.532 -994.29 0.
-392.368 -1220.64 0.
301.917 -950.786 0.
393.741 -736.715 0.
485.565 -522.643 0.
251.236 -644.958 0.
187.781 -792.947 0.
124.325 -940.936 0.
609.091 -708.983 0.
631.616 -656.46 0.
591.839 -629.755 0.
612.341 -581.404 0.
632.842 -533.053 0.
207.288 -685.347 0.
211.566 -675.444 0.
215.845 -665.542 0.
125.026 -706.596 0.
120.068 -717.929 0.
115.111 -729.262 0.
225.543 -684.149 0.
225.638 -684.332 0.
-914.919 -1172.88 0.
351.841 -610.751 0.
361.543 -587.33 0.
321.137 -606.708 0.
278.077 -706.938 0.
235.018 -807.168 0.
362.666 -768.977 0.
396.783 -689.186 0.
430.9 -609.396 0.
636.562 -494.493 0.
641.387 -483.818 0.
646.212 -473.144 0.
265.71 -748.504 0.
200.086 -901.45 0.
102.394 -1041.76 0.
148.58 -934.068 0.
194.766 -826.373 0.
336.886 -656.254 0.
415.386 -472.921 0.
493.886 -289.589 0.
108.024 -473.74 0.
29.8917 -655.589 0.
-48.2406 -837.439 0.
480.582 -644.051 0.
478.926 -647.996 0.
279.441 -739.234 0.
110.008 -755.951 0.
139.591 -687.436 0.
-9.19509 -727.79 0.
-58.1442 -842.635 0.
-107.093 -957.479 0.
179.256 -849.759 0.
221.148 -752.256 0.
263.041 -654.753 0.
290.599 -671.939 0.
247.343 -773.024 0.
204.087 -874.109 0.
558.334 -761.826 0.
541.643 -800.788 0.
-51.5417 -1089.83 0.
-81.3169 -1159.15 0.
-111.092 -1228.46 0.
68.1274 -1120.75 0.
164.763 -895.541 0.
261.399 -670.337 0.
116.448 -647.218 0.
125.175 -626.95 0.
133.902 -606.683 0.
144.086 -518.652 0.
194.604 -400.62 0.
-262.384 -711.646 0.
58.2448 -606.973 0.
70.7114 -578.554 0.
-147.529 -656.433 0.
-55.0367 -440.302 0.
46.5295 -203.082 0.
-17.3274 -982.962 0.
22.0876 -891.525 0.
287.845 -271.905 0.
266.526 -436.888 0.
440.522 -30.421 0.
352.416 -235.46 0.
202.413 -244.883 0.
265.554 -98.4679 0.
809.004 161.005 0.
745.245 12.3573 0.
934.51 454.071 0.
511.472 243.66 0.
268.354 -324.057 0.
54.0407 -824.523 0.
347.448 -525.323 0.
685.302 263.044 0.
749.95 414.036 0.
702.882 205.334 0.
808.888 451.56 0.
55.0326 -458.099 0.
617.502 -149.896 0.
991.903 723.059 0.
30.1754 310.481 0.
161.345 616.537 0.
204.929 718.249 0.
1024.33 605.516 0.
989.046 523.013 0.
827.277 145.403 0.
509.965 -313.744 0.
464.166 -420.464 0.
627.451 -39.2409 0.
778.027 -257.343 0.
1200.76 728.963 0.
1045.52 541.135 0.
1063.89 584.835 0.
984.1 399.483 0.
502.804 -103.474 0.
561.181 33.066 0.
582.967 84.1936 0.
358.922 -72.6362 0.
226.459 -381.19 0.
222.371 -390.158 0.
468.698 -89.7704 0.
542.093 81.2523 0.
-1303.59 -1491.7 0.
680.043 286.091 0.
605.37 112.478 0.
639.366 -97.3544 0.
580.798 -233.814 0.
551.326 -302.372 0.
625.957 -68.8131 0.
615.654 -93.362 0.
604.774 -119.287 0.
778.642 9.79422 0.
843.444 160.232 0.
1059.86 664.443 0.
365.183 -655.053 0.
503.68 -331.79 0.
580.001 236.403 0.
445.949 -76.6292 0.
261.311 -507.694 0.
395.959 -531.265 0.
886.502 613.635 0.
887.491 616.113 0.
266.741 202.91 0.
428.657 580.549 0.
336.929 366.524 0.
757.587 -260.202 0.
772.132 -226.21 0.
720.605 665.389 0.
421.598 -41.3188 0.
733.614 687.381 0.
558.366 950.196 0.
101.934 -114.759 0.
4.74984 -341.513 0.
239.372 -742.138 0.
348.806 -486.283 0.
599.884 100.043 0.
583.837 64.1032 0.
539.865 -38.6905 0.
363.808 -449.667 0.
804.952 -220.56 0.
865.812 -78.2615 0.
755.218 697.955 0.
281.353 -407.902 0.
158.253 -695.395 0.
168.103 -802.127 0.
250.712 -609.132 0.
279.75 -541.16 0.
401.7 41.1589 0.
69.5709 -733.547 0.
97.1974 -668.972 0.
-42.3335 -670.321 0.
-33.4863 -649.299 0.
-231.758 -619.6 0.
-83.8539 -542.849 0.
-78.8501 -531.969 0.
-33.4696 -537.179 0.
-121.504 -742.248 0.
-209.538 -947.317 0.
35.2129 -878.329 0.
112.112 -699.31 0.
189.01 -520.29 0.
265.839 -499.974 0.
212.163 -625.017 0.
158.487 -750.06 0.
-142.946 -901.521 0.
-147.251 -911.886 0.
443.68 -668.958 0.
428.869 -703.477 0.
414.059 -737.996 0.
35.3488 -903.32 0.
59.5709 -847.079 0.
83.793 -790.837 0.
331.601 -699.206 0.
298.22 -777.085 0.
264.84 -854.965 0.
188.186 -758.494 0.
286.381 -530.141 0.
229.017 -368.421 0.
395.477 -462.524 0.
307.667 -667.356 0.
-394.514 -1090.8 0.
-375.294 -1045.55 0.
-356.075 -1000.29 0.
244.573 -767.517 0.
190.302 -893.909 0.
136.032 -1020.3 0.
192.358 -999.517 0.
216.168 -944.031 0.
239.979 -888.545 0.
580.028 -779.696 0.
555.574 -836.935 0.
257.596 -1014.02 0.
223.927 -1093.06 0.
190.258 -1172.09 0.
78.2698 -1227.23 0.
138.058 -1087.74 0.
197.846 -948.254 0.
206 -898.374 0.
200.41 -911.64 0.
194.82 -924.906 0.
-104.791 -981.474 0.
-54.6982 -863.958 0.
-401.739 -917.379 0.
286.052 -627.778 0.
283.693 -634.099 0.
462.061 -573.737 0.
437.235 -631.625 0.
412.408 -689.512 0.
456.86 -714.651 0.
435.953 -764.215 0.
415.047 -813.779 0.
312.646 -827.964 0.
345.539 -750.696 0.
378.433 -673.427 0.
398.376 -572.652 0.
448.174 -456.734 0.
139.181 -506.719 0.
138.122 -509.254 0.
137.063 -511.789 0.
470.74 -430.153 0.
378.963 -644.624 0.
287.186 -859.096 0.
-25.8174 -947.497 0.
87.8532 -682.493 0.
201.524 -417.489 0.
474.632 -248.87 0.
478.036 -240.774 0.
311.486 -306.811 0.
94.4592 -628.844 0.
-26.1906 -909.443 0.
-91.1636 -1086.39 0.
-27.7421 -938.278 0.
35.6795 -790.166 0.
310.481 -628.46 0.
284.324 -689.02 0.
258.168 -749.58 0.
121.919 -840.452 0.
110.788 -866.433 0.
99.6569 -892.413 0.
371.591 -825.402 0.
342.816 -892.725 0.
-19.9676 -1077.09 0.
57.3645 -896.784 0.
134.697 -716.482 0.
201.659 -606.166 0.
183.083 -649.106 0.
164.507 -692.046 0.
131.802 -676.927 0.
170.887 -585.811 0.
209.972 -494.696 0.
38.51 -543.641 0.
46.0921 -526.121 0.
-226.115 -585.856 0.
-275.174 -593.577 0.
-270.122 -582.708 0.
60.0995 -465.698 0.
-27.9313 -670.804 0.
-115.962 -875.91 0.
61.1734 -835.485 0.
138.062 -656.457 0.
214.95 -477.429 0.
314.357 -448.202 0.
260.791 -573.343 0.
207.225 -698.483 0.
-205.246 -896.489 0.
-209.539 -906.912 0.
448.077 -635.618 0.
433.26 -670.175 0.
418.443 -704.731 0.
70.1915 -857.298 0.
94.4293 -801.005 0.
118.667 -744.713 0.
420.094 -629.604 0.
386.772 -707.569 0.
353.45 -785.534 0.
79.8784 -773.29 0.
178.004 -544.851 0.
984.464 -12.9983 0.
304.252 -470.354 0.
216.408 -675.118 0.
-161.404 -959.402 0.
-142.137 -914.183 0.
-122.87 -868.964 0.
26.0553 -830.054 0.
-28.2232 -956.387 0.
-82.5018 -1082.72 0.
180.116 -973.202 0.
203.807 -917.646 0.
227.498 -862.091 0.
627.671 -728.232 0.
603.339 -785.567 0.
126.51 -1038.84 0.
92.8552 -1117.82 0.
59.2006 -1196.8 0.
164.713 -1158.62 0.
224.525 -1019.1 0.
284.337 -879.579 0.
469.121 -754.267 0.
463.491 -767.467 0.
457.86 -780.666 0.
-321.437 -1043 0.
-271.451 -925.417 0.
185.475 -634.197 0.
298.77 -590.831 0.
296.451 -597.238 0.
512.838 -520.722 0.
487.893 -578.581 0.
462.948 -636.44 0.
605.242 -619.536 0.
584.286 -669.073 0.
563.33 -718.609 0.
197.8 -846.268 0.
230.659 -769.066 0.
263.518 -691.864 0.
412.747 -534.817 0.
462.576 -418.902 0.
5.71803 -532.262 0.
4.74288 -534.896 0.
3.76771 -537.529 0.
525.562 -375.449 0.
433.732 -589.881 0.
341.901 -804.313 0.
236.512 -803.803 0.
350.29 -538.747 0.
464.069 -273.692 0.
138.723 -361.414 0.
142.117 -353.359 0.
326.657 -268.666 0.
18.6654 -629.721 0.
-101.902 -910.33 0.
198.588 -930.678 0.
262.049 -782.604 0.
325.51 -634.529 0.
354.085 -578.512 0.
327.885 -639.056 0.
301.685 -699.6 0.
47.4727 -840.548 0.
36.3464 -866.627 0.
25.2202 -892.706 0.
174.295 -878.945 0.
145.513 -946.181 0.
-21.3185 -1046.46 0.
56.0822 -866.137 0.
133.483 -685.815 0.
155.523 -594.317 0.
137.028 -637.237 0.
118.533 -680.157 0.
194.584 -618.908 0.
233.725 -527.858 0.
272.867 -436.808 0.
87.3954 -491.53 0.
95.1562 -474.142 0.
-370.387 -908.103 0.
-503.554 -952.279 0.
-496.921 -936.655 0.
-45.9538 -725.633 0.
-27.5619 -683.051 0.
-9.16999 -640.468 0.
159.693 -572.935 0.
129.487 -643.113 0.
99.2799 -713.292 0.
238.365 -576.746 0.
317.486 -392.141 0.
396.606 -207.537 0.
-68.7627 -544.975 0.
-163.735 -766.259 0.
392.924 -682.592 0.
440.02 -572.894 0.
487.115 -463.196 0.
257.431 -502.932 0.
254.16 -509.961 0.
250.889 -516.99 0.
444.973 -523.353 0.
360.39 -720.624 0.
275.807 -917.895 0.
-47.5125 -1080.85 0.
-37.6566 -1056.91 0.
700.485 -720.747 0.
126.181 -805.504 0.
211.274 -607.519 0.
-0.537492 -584.249 0.
-35.5209 -665.843 0.
-70.5043 -747.436 0.
-0.73938 -757.242 0.
-3.26001 -763.12 0.
-5.78054 -768.998 0.
260.694 -711.408 0.
219.138 -808.725 0.
177.582 -906.043 0.
595.949 -710.048 0.
609.891 -676.986 0.
226.816 -808.719 0.
265.777 -717.77 0.
304.738 -626.821 0.
454.006 -550.505 0.
392.68 -693.382 0.
331.354 -836.259 0.
473.211 -768.958 0.
528.719 -639.577 0.
584.227 -510.196 0.
-262.36 -929.714 0.
-316.198 -1056.4 0.
216.171 -931.718 0.
70.6666 -992.913 0.
71.2144 -991.298 0.
333.899 -868.665 0.
352.939 -825.203 0.
371.98 -781.74 0.
574.641 -650.508 0.
604.117 -581.871 0.
633.592 -513.234 0.
288.045 -680.581 0.
258.735 -749.462 0.
229.426 -818.344 0.
255.363 -828.342 0.
247.06 -847.54 0.
-245.635 -1061.94 0.
-199.194 -953.135 0.
-152.753 -844.327 0.
480.177 -489.216 0.
517.812 -401.331 0.
555.447 -313.446 0.
393.886 -370.294 0.
376.968 -409.027 0.
360.049 -447.761 0.
-88.2686 -738.957 0.
-150.09 -882.929 0.
-33.6201 -947.788 0.
-70.7838 -865.181 0.
-18.6939 -744.383 0.
436.054 -478.506 0.
427.078 -499.106 0.
418.103 -519.706 0.
375.568 -534.394 0.
388.627 -504.66 0.
401.686 -474.926 0.
103.95 -609.436 0.
92.3845 -636.002 0.
80.8185 -662.568 0.
249.932 -540.051 0.
280.532 -468.574 0.
215.885 -461.426 0.
156.018 -600.778 0.
96.1514 -740.13 0.
-29.7046 -861.761 0.
-22.2195 -844.108 0.
-14.7343 -826.455 0.
120.202 -796.449 0.
89.0532 -869.312 0.
57.9045 -942.174 0.
-41.8188 -941.562 0.
-5.77462 -857.407 0.
-359.51 -871.714 0.
-468.665 -905.971 0.
-461.999 -890.349 0.
-90.4577 -713.146 0.
-72.0294 -670.626 0.
-53.6011 -628.105 0.
133.805 -552.617 0.
103.644 -622.818 0.
73.4844 -693.019 0.
173.401 -572.971 0.
252.54 -388.412 0.
331.678 -203.853 0.
-7.19054 -486.908 0.
-102.215 -708.167 0.
336.03 -675.809 0.
383.075 -566.111 0.
430.12 -456.413 0.
339.266 -436.684 0.
336.009 -443.713 0.
332.752 -450.742 0.
337.447 -537.9 0.
252.85 -735.168 0.
168.253 -932.436 0.
104.306 -984.255 0.
114.128 -960.294 0.
444.9 -798.96 0.
166.627 -756.92 0.
251.669 -558.882 0.
-201.64 -638.719 0.
-236.49 -720.35 0.
-271.34 -801.982 0.
107.065 -680.059 0.
104.548 -685.901 0.
102.03 -691.743 0.
228.922 -693.368 0.
187.347 -790.689 0.
145.773 -888.01 0.
486.466 -725.593 0.
500.429 -692.44 0.
390.922 -706.94 0.
429.845 -615.91 0.
468.768 -524.88 0.
470.704 -512.026 0.
409.377 -654.875 0.
348.049 -797.724 0.
276.169 -821.965 0.
331.615 -692.609 0.
387.061 -563.252 0.
4.80055 -784.026 0.
-49.0926 -910.728 0.
43.0587 -974.458 0.
-39.0228 -1008.36 0.
-38.4896 -1006.71 0.
246.562 -874.857 0.
265.454 -831.282 0.
284.345 -787.706 0.
416.647 -686.571 0.
446.039 -617.904 0.
475.431 -549.237 0.
482.61 -566.125 0.
453.228 -635.008 0.
423.846 -703.89 0.
196.269 -822.111 0.
187.992 -841.293 0.
-140.569 -985.525 0.
-94.0374 -876.795 0.
-47.5055 -768.064 0.
466.831 -463.71 0.
504.387 -375.805 0.
541.943 -287.899 0.
95.9177 -466.338 0.
79.0598 -505.123 0.
62.2019 -543.908 0.
118.596 -618.9 0.
56.7294 -762.869 0.
-105.941 -947.218 0.
64.1904 -775.835 0.
116.385 -655.062 0.
287.921 -510.622 0.
278.922 -531.229 0.
269.924 -551.835 0.
374.307 -503.937 0.
387.279 -474.136 0.
400.251 -444.335 0.
105.837 -577.013 0.
94.2687 -603.677 0.
82.7 -630.341 0.
309.245 -483.123 0.
339.892 -411.656 0.
215.851 -429.993 0.
156.012 -569.308 0.
96.1724 -708.622 0.
-121.359 -869.574 0.
-113.842 -851.906 0.
-106.326 -834.239 0.
96.0189 -775.541 0.
64.8579 -848.383 0.
33.6969 -921.226 0.
93.0284 -852.667 0.
129.278 -768.671 0.
-322.45 -778.968 0.
-397.234 -775.989 0.
-246.355 -423.393 0.
-10.8274 -413.539 0.
45.6725 -281.218 0.
430.176 616.431 0.
79.5682 -600.563 0.
-175.301 -1195.31 0.
96.2953 -561.738 0.
526.991 407.781 0.
548.959 458.961 0.
287.076 -152.14 0.
90.5544 -343.582 0.
141.472 -225.088 0.
572.351 16.4081 0.
509.602 -130.147 0.
428.627 -319.195 0.
498.811 -187.854 0.
370.207 -488.103 0.
447.105 -308.846 0.
482.046 35.8583 0.
604.418 320.921 0.
596.921 303.078 0.
668.477 76.2522 0.
533.311 -239.8 0.
387.886 -90.7063 0.
192.066 -742.873 0.
503.995 -15.6857 0.
177.253 656.565 0.
141.914 574.63 0.
24.7838 301.828 0.
473.433 0.183124 0.
312.747 -374.498 0.
224.862 -579.267 0.
157.541 -768.803 0.
182.24 -711.168 0.
414.863 -168.41 0.
865.979 397.508 0.
503.905 -446.947 0.
674.489 -323.696 0.
810.84 -5.4631 0.
876.36 147.492 0.
742.467 122.926 0.
883.84 452.542 0.
1058.49 859.842 0.
701.928 573.734 0.
320.121 -316.559 0.
257.857 -461.164 0.
518.498 -58.8149 0.
437.209 -247.865 0.
-219.962 -797.182 0.
88.7657 -474.989 0.
68.8568 -521.579 0.
435.614 -238.165 0.
496.576 -95.7839 0.
672.599 315.108 0.
780.475 495.775 0.
757.3 441.723 0.
776.915 487.523 0.
573.724 -692.585 0.
692.083 -416.348 0.
870.813 0.756063 0.
493.708 14.1666 0.
235.204 -589.557 0.
365.215 26.7115 0.
240.01 -265.723 0.
146.579 -484.004 0.
458.975 -424.928 0.
505.554 -316.46 0.
608.833 -75.6368 0.
-39.9614 -185.57 0.
63.953 56.0364 0.
197.741 367.261 0.
634.417 224.434 0.
653.405 268.654 0.
624.982 1018.6 0.
752.46 605.731 0.
406.289 -201.619 0.
480.708 250.885 0.
410.892 87.834 0.
140.803 -542.428 0.
252.607 -756.299 0.
395.615 -422.401 0.
450.433 -294.21 0.
246.216 -220.118 0.
320.235 -48.1665 0.
404.152 146.902 0.
609.834 137.308 0.
514.182 -86.0493 0.
317.212 -160.624 0.
320.078 -154.255 0.
163.351 -520.259 0.
-369.162 -1243.45 0.
-111.316 -641.912 0.
265.654 237.444 0.
155.696 -559.226 0.
178.432 -506.195 0.
253.585 -330.755 0.
313.152 -558.872 0.
371.408 -422.132 0.
-57.1105 -593.301 0.
-258.884 -624.765 0.
-231.311 -560.055 0.
22.9952 -411.233 0.
17.6523 -423.309 0.
12.3095 -435.386 0.
177.716 -390.104 0.
152.075 -449.76 0.
126.435 -509.416 0.
-51.3621 -687.077 0.
-119.059 -845.065 0.
-186.756 -1003.05 0.
-185.019 -907.449 0.
-118.295 -751.883 0.
291.756 -462.254 0.
282.197 -484.519 0.
272.639 -506.784 0.
426.296 -463.471 0.
410.049 -502.075 0.
393.802 -540.679 0.
246.554 -541.761 0.
320.114 -370.551 0.
393.675 -199.34 0.
349.012 -209.536 0.
332.132 -249.748 0.
827.569 -70.2607 0.
209.51 -436.011 0.
157.065 -558.667 0.
-175.685 -763.169 0.
-129.332 -654.491 0.
-82.9795 -545.814 0.
294.746 -376.826 0.
244.12 -494.905 0.
193.494 -612.984 0.
236.574 -611.921 0.
246.111 -589.392 0.
255.648 -566.862 0.
485.179 -442.638 0.
500.782 -406.439 0.
495.52 -397.653 0.
422.034 -569.589 0.
348.549 -741.524 0.
307.491 -834.614 0.
336.477 -767.104 0.
365.462 -699.594 0.
140.227 -822.886 0.
92.7522 -933.751 0.
45.2777 -1044.62 0.
46.9632 -928.244 0.
138.162 -714.563 0.
447.814 -407.655 0.
269.249 -549.349 0.
235.271 -629.069 0.
225.508 -703.829 0.
178.837 -812.361 0.
132.166 -920.893 0.
149.914 -937.305 0.
178.561 -870.526 0.
207.207 -803.747 0.
502.962 -600.295 0.
549.351 -492.073 0.
595.74 -383.85 0.
310.677 -451.655 0.
337.158 -390.534 0.
11.6692 -484.882 0.
18.1686 -469.584 0.
24.668 -454.286 0.
406.858 -319.06 0.
352.096 -447.261 0.
297.335 -575.463 0.
-21.8987 -757.181 0.
-22.6156 -759.376 0.
-23.3325 -761.572 0.
106.229 -648.12 0.
145.269 -557.304 0.
296.283 -417.929 0.
326.387 -390.615 0.
333.635 -372.803 0.
270.86 -406.559 0.
231.669 -498.087 0.
192.479 -589.615 0.
309.732 -584.223 0.
305.826 -592.921 0.
301.92 -601.619 0.
77.3907 -658.442 0.
110.248 -582.145 0.
143.106 -505.849 0.
257.29 -441.827 0.
263.229 -428.149 0.
85.0459 -493.498 0.
82.1402 -500.438 0.
79.2345 -507.378 0.
-62.2652 -572.462 0.
-62.7213 -573.817 0.
-63.1773 -575.172 0.
116.664 -527.365 0.
91.5991 -585.902 0.
66.5346 -644.439 0.
272.566 -486.524 0.
323.017 -368.205 0.
186.881 -457.464 0.
-152.213 -547.46 0.
-124.592 -482.81 0.
79.6765 -355.629 0.
74.3544 -367.712 0.
69.0323 -379.795 0.
203.75 -347.604 0.
178.073 -407.208 0.
152.396 -466.812 0.
-168.695 -706.226 0.
-236.384 -864.221 0.
-304.073 -1022.22 0.
-210.595 -886.74 0.
-143.915 -731.127 0.
215.681 -463.39 0.
206.094 -485.64 0.
196.508 -507.89 0.
498.787 -401.227 0.
482.553 -439.813 0.
466.319 -478.399 0.
278.038 -496.81 0.
351.608 -325.621 0.
425.179 -154.431 0.
124.593 -273.89 0.
107.648 -314.059 0.
479.37 -187.776 0.
86.0231 -457.788 0.
33.5511 -580.373 0.
154.944 -589.995 0.
201.357 -481.298 0.
247.77 -372.602 0.
290.496 -347.397 0.
239.901 -465.441 0.
189.305 -583.484 0.
267.867 -566.861 0.
277.393 -544.359 0.
286.919 -521.857 0.
477.064 -414.652 0.
492.66 -378.397 0.
331.932 -436.345 0.
258.517 -608.296 0.
185.103 -780.248 0.
293.054 -810.031 0.
322.009 -742.481 0.
350.963 -674.931 0.
201.756 -764.936 0.
154.39 -875.893 0.
107.024 -986.85 0.
-57.8077 -941.505 0.
33.4973 -727.973 0.
510.197 -349.183 0.
545.965 -398.939 0.
511.928 -478.58 0.
229.817 -670.748 0.
183.104 -779.294 0.
136.391 -887.84 0.
145.55 -908.373 0.
174.159 -841.609 0.
202.767 -774.844 0.
384.674 -619.561 0.
431.136 -511.469 0.
477.597 -403.376 0.
348.042 -403.944 0.
374.584 -342.899 0.
-136.339 -516.825 0.
-129.901 -501.447 0.
-123.464 -486.068 0.
304.52 -331.724 0.
249.596 -459.793 0.
194.672 -587.862 0.
316.478 -580.927 0.
315.776 -583.121 0.
315.074 -585.315 0.
-65.6608 -690.119 0.
-26.6686 -599.302 0.
559.685 -273.439 0.
343.633 -351.534 0.
350.969 -333.769 0.
375.43 -330.495 0.
336.195 -422.031 0.
296.959 -513.567 0.
305.867 -554.533 0.
301.905 -563.209 0.
297.943 -571.884 0.
117.091 -609.914 0.
149.799 -533.525 0.
182.507 -457.136 0.
145.732 -458.378 0.
151.612 -444.673 0.
-8.27117 -502.061 0.
-11.2023 -508.985 0.
-14.1335 -515.909 0.
-22.4906 -524.158 0.
-22.8834 -525.549 0.
-23.2761 -526.939 0.
68.5547 -516.487 0.
43.5377 -575.089 0.
18.5206 -633.692 0.
201.452 -485.406 0.
251.983 -367.113 0.
114.371 -710.884 0.
-297.249 -966.521 0.
-339.298 -1064.69 0.
-186.497 -1042.33 0.
-133.82 -919.541 0.
-81.1432 -796.756 0.
54.5065 -620.206 0.
130.293 -443.679 0.
206.079 -267.153 0.
-41.7312 -352.697 0.
-66.0753 -409.343 0.
-90.4194 -465.989 0.
-7.02019 -391.955 0.
19.6149 -329.339 0.
292.757 -178.288 0.
232.937 -318.021 0.
173.118 -457.754 0.
458.641 -401.946 0.
477.212 -357.894 0.
495.784 -313.842 0.
234.449 -433.614 0.
209.86 -490.962 0.
185.27 -548.31 0.
-76.1802 -620.818 0.
-40.9821 -538.4 0.
-144.471 -515.091 0.
74.5689 -507.483 0.
28.2533 -615.149 0.
230.053 -594.819 0.
232.683 -589.303 0.
235.313 -583.788 0.
226.403 -520.21 0.
304.053 -339.387 0.
381.703 -158.565 0.
505.674 -109.635 0.
464.627 -205.894 0.
423.581 -302.154 0.
432.216 -417.626 0.
365.931 -572.824 0.
119.149 -781.048 0.
170.54 -660.708 0.
221.931 -540.369 0.
460.601 -354.258 0.
489.937 -286.107 0.
519.273 -217.955 0.
380.831 -286.801 0.
347.628 -363.913 0.
314.425 -441.024 0.
49.3826 -635.448 0.
4.24384 -740.786 0.
-283.632 -950.589 0.
491.088 -537.716 0.
533.532 -438.61 0.
301.101 -457.047 0.
343.289 -358.83 0.
385.476 -260.613 0.
418.343 -237.505 0.
377.075 -333.807 0.
335.808 -430.109 0.
403.614 -413.095 0.
414.274 -387.693 0.
424.934 -362.291 0.
380.886 -362.944 0.
390.289 -340.323 0.
-187.962 -574.304 0.
-196.44 -593.81 0.
-204.92 -613.316 0.
316.573 -385.889 0.
336.763 -338.98 0.
356.952 -292.07 0.
523.367 -269.75 0.
461.495 -413.343 0.
399.623 -556.935 0.
-143.766 -763.181 0.
-107.271 -677.898 0.
74.2886 -529.137 0.
218.252 -444.138 0.
230.626 -415.578 0.
386.928 -314.077 0.
421.903 -232.276 0.
456.878 -150.475 0.
447.644 -137.826 0.
425.778 -189.534 0.
403.912 -241.241 0.
211.654 -339.937 0.
209.371 -345.573 0.
207.088 -351.209 0.
176.439 -342.941 0.
188.505 -315.633 0.
5.1792 -378.422 0.
-5.19016 -403.333 0.
-15.5595 -428.244 0.
-1.76918 -467.848 0.
-50.4325 -581.079 0.
-99.0957 -694.31 0.
-49.6555 -699.224 0.
-38.2343 -672.25 0.
-26.813 -645.276 0.
47.2866 -725.338 0.
-28.3061 -901.141 0.
-2.2459 -729.554 0.
-283.889 -929.399 0.
-325.966 -1027.48 0.
-141.419 -991.48 0.
-88.7609 -868.674 0.
-36.1026 -745.867 0.
-15.5942 -618.78 0.
60.1377 -442.223 0.
135.87 -265.667 0.
45.1372 -284.195 0.
20.7879 -340.847 0.
-3.5615 -397.5 0.
31.2333 -344.133 0.
57.9623 -281.58 0.
292.03 -146.899 0.
232.193 -286.639 0.
172.357 -426.379 0.
323.406 -428.401 0.
341.937 -384.305 0.
360.468 -340.209 0.
63.3885 -475.965 0.
38.7825 -533.309 0.
14.1766 -590.654 0.
52.2369 -534.15 0.
87.4236 -451.704 0.
-223.398 -517.168 0.
255.051 -398.638 0.
208.69 -506.232 0.
122.749 -609.358 0.
125.393 -603.856 0.
128.037 -598.353 0.
288.803 -462.441 0.
366.386 -281.529 0.
443.97 -100.618 0.
609.854 -33.4231 0.
568.772 -129.72 0.
527.691 -226.016 0.
367.203 -414.566 0.
300.856 -569.649 0.
152.641 -734.914 0.
204.161 -614.692 0.
255.681 -494.47 0.
439.307 -332.042 0.
468.6 -263.834 0.
497.894 -195.625 0.
289.861 -294.47 0.
256.651 -371.575 0.
223.441 -448.68 0.
125.67 -571.436 0.
80.5345 -676.746 0.
138.237 -738.135 0.
264.148 -603.518 0.
306.685 -504.496 0.
280.159 -434.468 0.
322.33 -336.272 0.
364.501 -238.075 0.
419.491 -205.702 0.
378.237 -302.058 0.
336.982 -398.414 0.
382.118 -390.776 0.
392.828 -365.445 0.
403.538 -340.113 0.
413.915 -317.164 0.
423.38 -294.618 0.
-73.1673 -493.669 0.
-81.6898 -513.106 0.
-90.2123 -532.543 0.
537.156 -260.228 0.
557.3 -213.28 0.
577.444 -166.332 0.
398.909 -291.796 0.
337.084 -435.373 0.
275.259 -578.95 0.
-54.0708 -692.988 0.
-17.5694 -607.729 0.
170.834 -456.411 0.
27.1606 -494.764 0.
39.5546 -466.193 0.
328.379 -307.733 0.
363.349 -225.907 0.
398.319 -144.082 0.
397.711 -127.741 0.
375.822 -179.428 0.
353.933 -231.115 0.
154.939 -332.701 0.
152.548 -338.287 0.
150.157 -343.874 0.
274.362 -269.947 0.
286.289 -242.535 0.
34.3529 -334.526 0.
23.9402 -359.403 0.
13.5274 -384.279 0.
-17.0005 -442.959 0.
-65.6269 -556.173 0.
-114.253 -669.388 0.
-68.7335 -675.887 0.
-57.2525 -648.956 0.
-45.7714 -622.025 0.
26.0278 -702.76 0.
-49.4233 -878.616 0.
-180.231 -895.913 0.
-172.002 -668.115 0.
-205.571 -745.962 0.
388.499 192.838 0.
316.372 24.857 0.
4.3244 -703.077 0.
-142.443 -749.997 0.
-33.3852 -495.616 0.
122.429 -132.182 0.
260.262 85.8799 0.
170.009 -125.112 0.
94.0134 -302.825 0.
34.9006 -376.569 0.
85.0463 -259.401 0.
322.379 -42.5406 0.
196.957 -335.205 0.
83.1779 -600.665 0.
131.378 -585.931 0.
466.953 196.689 0.
300.219 -192.747 0.
245.703 303.925 0.
246.258 305.089 0.
140.921 59.3381 0.
288.185 -197.319 0.
354.376 -43.2713 0.
442.771 135.534 0.
788.915 536.801 0.
1020.13 1076.3 0.
860.322 1345.96 0.
485.273 470.704 0.
204.31 -184.974 0.
401.135 -287.725 0.
352.523 -401.211 0.
287.073 -553.961 0.
454.458 -562.951 0.
499.121 -459.496 0.
711.857 36.1773 0.
565.564 200.817 0.
366.707 -262.693 0.
262.928 -508.767 0.
311.334 -396.2 0.
363.015 -276.023 0.
534.799 -37.1231 0.
636.534 200.6 0.
680.404 303.307 0.
409.155 187.638 0.
366.416 88.2285 0.
314.426 -32.7309 0.
469.691 119.188 0.
498.765 187.395 0.
532.482 196.866 0.
475.616 351.678 0.
553.619 533.544 0.
709.013 637.317 0.
548.623 262.807 0.
360.119 -177.287 0.
359.567 -317.868 0.
427.211 -159.973 0.
404.807 -212.169 0.
420.859 -227.45 0.
444.981 -171.275 0.
423.295 -222.05 0.
560.486 -8.20625 0.
520.776 -100.889 0.
-90.2185 -721.522 0.
-142.234 -842.736 0.
-86.5773 -712.689 0.
736.794 -181.113 0.
737.088 -180.236 0.
698.045 -271.131 0.
165.934 -566.791 0.
435.072 61.0464 0.
651.146 565.062 0.
543.006 559.619 0.
695.633 915.057 0.
857.656 659.175 0.
217.259 341.928 0.
216.506 340.33 0.
856.972 1068.01 0.
652.268 590.151 0.
433.264 78.9594 0.
297.229 -236.026 0.
50.989 -810.46 0.
195.356 -473.451 0.
89.8703 -345.89 0.
161.242 -179.64 0.
108.387 -303.256 0.
360.603 -222.729 0.
503.939 111.918 0.
67.1636 -282.546 0.
240.069 121.478 0.
47.6762 -326.813 0.
-243.259 -911.157 0.
-266.156 -964.714 0.
80.459 -156.092 0.
261.653 163.601 0.
98.0298 -218.337 0.
-37.6829 -535.243 0.
207.175 -212.805 0.
83.8191 -500.088 0.
-83.1314 -1020.57 0.
-52.772 -741.091 0.
90.0549 -407.42 0.
175.964 -158.737 0.
165.492 -183.108 0.
155.02 -207.479 0.
-89.729 -383.848 0.
-163.768 -556.571 0.
-237.807 -729.294 0.
-104.524 -667.287 0.
-60.0973 -563.946 0.
-15.6703 -460.606 0.
34.1442 -378.787 0.
63.9086 -309.154 0.
314.53 -150.234 0.
307.772 -165.628 0.
301.013 -181.021 0.
243.56 -227.487 0.
221.787 -278.909 0.
200.014 -330.332 0.
119.015 -338.781 0.
162.789 -236.588 0.
206.564 -134.395 0.
193.119 -192.938 0.
143.484 -308.846 0.
662.078 -180.774 0.
362.805 -290.512 0.
373.56 -265.896 0.
150.431 -348.115 0.
149.613 -349.401 0.
148.796 -350.687 0.
252.728 -390.53 0.
151.418 -627.111 0.
50.1073 -863.691 0.
255.87 -807.095 0.
281.533 -747.146 0.
307.195 -687.198 0.
300.025 -554.363 0.
377.567 -372.623 0.
405.63 -237.65 0.
362.886 -336.799 0.
320.141 -435.948 0.
327.947 -479.956 0.
338.233 -455.727 0.
348.519 -431.497 0.
173.885 -467.078 0.
202.767 -399.745 0.
231.648 -332.412 0.
164.458 -328.725 0.
177.895 -297.204 0.
642.163 -72.3533 0.
240.042 -278.629 0.
221.993 -320.508 0.
305.753 -330.288 0.
261.829 -432.43 0.
217.906 -534.572 0.
246.885 -542.768 0.
276.285 -473.92 0.
305.685 -405.072 0.
413.744 -333.855 0.
419.037 -322.116 0.
424.33 -310.376 0.
463.366 -357.408 0.
425.503 -446.342 0.
21.5449 -681.591 0.
25.0256 -673.722 0.
28.5064 -665.852 0.
243.129 -551.004 0.
273.155 -480.661 0.
303.18 -410.317 0.
231.505 -386.03 0.
261.093 -317.155 0.
290.681 -248.281 0.
269.06 -246.608 0.
265.59 -255.047 0.
491.353 -168.182 0.
-111.569 -495.11 0.
-147.297 -578.369 0.
153.991 -510.36 0.
136.385 -551.473 0.
118.778 -592.585 0.
133.367 -546.473 0.
198.61 -393.65 0.
263.853 -240.827 0.
188.553 -208.259 0.
208.083 -162.919 0.
227.612 -117.58 0.
399.669 -174.301 0.
321.878 -355.438 0.
-270.196 -729.614 0.
-234.362 -645.613 0.
-198.529 -561.612 0.
-122.235 -473.508 0.
-106.75 -437.703 0.
-91.265 -401.898 0.
101.785 -312.186 0.
97.6461 -322.09 0.
93.5076 -331.994 0.
191.618 -280.78 0.
197.669 -266.272 0.
384.981 -788.538 0.
148.203 -623.502 0.
291.078 -289.775 0.
116.582 -152.838 0.
106.124 -177.222 0.
95.6665 -201.605 0.
-201.052 -400.272 0.
-275.125 -572.977 0.
-349.198 -745.681 0.
-139.508 -650.893 0.
-95.0763 -547.518 0.
-50.6448 -444.143 0.
50.536 -340.21 0.
80.3386 -270.57 0.
377.558 -91.8374 0.
370.737 -107.195 0.
363.917 -122.553 0.
209.294 -210.53 0.
187.498 -261.905 0.
165.702 -313.281 0.
317.741 -222.447 0.
361.51 -120.242 0.
405.278 -18.0383 0.
91.2322 -204.916 0.
41.5608 -320.764 0.
290.228 -308.581 0.
290.304 -290.515 0.
301.05 -265.913 0.
186.999 -301.006 0.
186.207 -302.328 0.
185.415 -303.65 0.
141.351 -406.881 0.
40.0516 -643.422 0.
-61.2482 -879.963 0.
157.251 -817.91 0.
182.936 -758.033 0.
208.62 -698.156 0.
388.123 -485.25 0.
465.667 -303.489 0.
453.457 -185.704 0.
410.69 -284.858 0.
367.924 -384.011 0.
323.296 -450.533 0.
333.603 -426.307 0.
343.909 -402.081 0.
246.628 -404.3 0.
275.507 -336.962 0.
304.385 -269.624 0.
43.0587 -349.438 0.
56.544 -317.921 0.
650.356 -37.3721 0.
297.299 -222.618 0.
279.177 -264.443 0.
336.706 -285.665 0.
292.767 -387.798 0.
248.829 -489.931 0.
243.315 -512.93 0.
272.701 -444.067 0.
302.086 -375.204 0.
477.064 -275.261 0.
482.43 -263.542 0.
487.795 -251.823 0.
544.965 -291.056 0.
507.097 -379.975 0.
154.53 -593.308 0.
157.961 -585.353 0.
161.392 -577.399 0.
-150.069 -688.169 0.
-120.05 -617.885 0.
-90.0307 -547.601 0.
233.275 -353.907 0.
262.831 -284.974 0.
292.387 -216.041 0.
372.75 -171.179 0.
369.237 -179.558 0.
421.46 -166.609 0.
-58.9138 -440.841 0.
-94.6256 -524.09 0.
138.065 -485.794 0.
120.412 -526.824 0.
102.759 -567.853 0.
111.866 -524.307 0.
177.09 -371.473 0.
242.315 -218.639 0.
253.362 -149.307 0.
272.89 -103.958 0.
292.418 -58.608 0.
438.366 -126.149 0.
360.563 -307.274 0.
-432.118 -767.502 0.
-396.239 -683.553 0.
-360.361 -599.605 0.
-187.15 -469.936 0.
-171.642 -434.143 0.
-156.134 -398.35 0.
172.347 -250.369 0.
168.234 -260.284 0.
164.121 -270.2 0.
224.8 -235 0.
230.933 -220.488 0.
225.805 -697.999 0.
54.072 -807.805 0.
38.9167 -843.588 0.
-262.215 -977.838 0.
-216.089 -870.157 0.
-169.964 -762.475 0.
-299.327 -686.308 0.
-199.487 -453.834 0.
-99.6483 -221.361 0.
106.929 -95.9147 0.
83.1625 -150.835 0.
59.3957 -205.755 0.
66.0716 -273.529 0.
26.7881 -365.079 0.
204.66 -352.637 0.
226.564 -302.019 0.
248.469 -251.402 0.
173.009 -262.782 0.
162.672 -286.611 0.
152.334 -310.44 0.
312.835 -290.165 0.
273.943 -381.02 0.
235.051 -471.875 0.
-124.317 -631.222 0.
-115.548 -610.75 0.
509.087 -325.964 0.
131.484 -495.721 0.
127.14 -505.772 0.
76.2743 -531.952 0.
78.4178 -527.388 0.
80.5612 -522.824 0.
160.261 -449.346 0.
205.786 -343.11 0.
251.312 -236.874 0.
358.213 -197.462 0.
330.696 -261.949 0.
303.179 -326.436 0.
443.857 -373.877 0.
382.89 -516.119 0.
277.863 -654.226 0.
329.062 -535.24 0.
380.262 -416.255 0.
263.271 -402.753 0.
261.342 -407.374 0.
259.413 -411.996 0.
275.424 -358.304 0.
321.183 -251.509 0.
366.942 -144.714 0.
57.8219 -272.495 0.
47.8847 -295.835 0.
508.445 -117.66 0.
358.771 -180.192 0.
359.67 -178.188 0.
396.811 -157.608 0.
402.358 -144.904 0.
407.904 -132.201 0.
302.418 -213.35 0.
253.929 -326.258 0.
205.439 -439.165 0.
454.098 -393.419 0.
429.621 -449.846 0.
405.144 -506.274 0.
452.424 -485.1 0.
456.016 -476.745 0.
240.047 -556.348 0.
275.181 -474.035 0.
310.314 -391.722 0.
-182.666 -573.067 0.
-205.575 -626.623 0.
-228.484 -680.18 0.
163.506 -509.521 0.
182.737 -464.873 0.
201.968 -420.225 0.
260.405 -421.07 0.
238.852 -470.884 0.
415.058 -434.889 0.
-178.312 -679.17 0.
-172.794 -666.507 0.
146.34 -484.739 0.
227.807 -294.778 0.
309.275 -104.818 0.
198.765 -111.651 0.
149.512 -226.946 0.
100.259 -342.24 0.
158.212 -352.485 0.
153.247 -363.798 0.
148.282 -375.11 0.
354.073 -220.908 0.
393.669 -128.694 0.
-226.705 -330.932 0.
-235.381 -351.468 0.
-244.056 -372.005 0.
-143.323 -391.417 0.
-221.951 -574.456 0.
-300.579 -757.495 0.
-50.4168 -689.267 0.
-28.188 -637.029 0.
-5.95914 -584.791 0.
51.6587 -523.593 0.
71.2338 -478.476 0.
-296.956 -890.94 0.
-141.192 -860.269 0.
-156.475 -895.911 0.
-234.073 -934.392 0.
-187.928 -826.712 0.
-141.784 -719.032 0.
-98.662 -568.909 0.
1.13477 -336.387 0.
100.932 -103.866 0.
193.307 -27.6288 0.
169.555 -82.5621 0.
145.803 -137.495 0.
51.9929 -248.087 0.
12.7691 -339.642 0.
27.5479 -397.161 0.
49.3822 -346.483 0.
71.2164 -295.805 0.
205.185 -217.435 0.
194.857 -241.261 0.
184.53 -265.087 0.
208.431 -303.695 0.
169.512 -394.534 0.
130.592 -485.374 0.
-69.0749 -576.048 0.
-60.2488 -555.597 0.
512.264 -293.197 0.
65.3047 -492.762 0.
60.9312 -502.814 0.
43.5925 -514.39 0.
45.6953 -509.796 0.
47.7981 -505.203 0.
394.417 -317.89 0.
439.908 -211.557 0.
485.399 -105.224 0.
331.679 -177.446 0.
304.183 -241.956 0.
276.688 -306.467 0.
409.628 -357.077 0.
348.663 -499.319 0.
326.233 -601.76 0.
377.422 -482.802 0.
428.612 -363.845 0.
104.653 -439.496 0.
102.718 -444.084 0.
100.783 -448.671 0.
257.283 -334.687 0.
303.086 -227.917 0.
348.889 -121.146 0.
165.216 -195.119 0.
155.292 -218.437 0.
228.716 -206.117 0.
441.655 -113.415 0.
442.57 -111.434 0.
410.819 -120.313 0.
416.371 -107.624 0.
421.924 -94.9345 0.
170.755 -238.187 0.
122.282 -351.085 0.
73.8093 -463.983 0.
490.699 -346.201 0.
466.241 -402.605 0.
441.783 -459.008 0.
382.626 -483.711 0.
386.233 -475.346 0.
310.686 -494.649 0.
345.893 -412.368 0.
381.099 -330.086 0.
37.3898 -447.151 0.
14.5172 -500.81 0.
-8.35546 -554.469 0.
187.426 -467.672 0.
206.632 -422.972 0.
225.838 -378.272 0.
180.173 -424.064 0.
158.679 -473.866 0.
258.788 -470.528 0.
-238.707 -673.843 0.
-233.232 -661.089 0.
214.715 -424.004 0.
296.108 -233.962 0.
377.5 -43.9189 0.
34.0683 -150.808 0.
-15.1566 -266.083 0.
-64.3815 -381.357 0.
106.581 -343.338 0.
101.589 -354.611 0.
96.5979 -365.884 0.
242.431 -237.517 0.
282.065 -145.322 0.
10.9555 -197.463 0.
2.34986 -218.017 0.
-6.25564 -238.572 0.
-22.61 -308.255 0.
-101.204 -491.344 0.
-179.797 -674.433 0.
-173.528 -710.478 0.
-151.203 -658.316 0.
-128.878 -606.154 0.
-62.5028 -541.168 0.
-42.7263 -496.176 0.
318.466 -227.826 0.
-22.1554 -184.483 0.
-164.534 -516.881 0.
-52.7558 -533.97 0.
52.2172 -288.794 0.
166.329 -22.1791 0.
318.589 56.8792 0.
283.486 -24.467 0.
285.066 -20.2308 0.
259.72 -4.04912 0.
243.662 -42.2513 0.
249.318 -29.5242 0.
47.7072 -200.25 0.
46.4047 -203.426 0.
71.7026 73.3789 0.
35.7741 -10.5706 0.
66.3971 60.7625 0.
520.331 490.205 0.
550.551 560.33 0.
537.461 529.361 0.
422.987 426.065 0.
418.109 414.708 0.
230.31 -23.4647 0.
-25.6372 -549.118 0.
80.6734 -301.629 0.
490.093 -117.714 0.
204.906 -10.4942 0.
116.467 -216.518 0.
347.863 288.644 0.
247.132 53.6299 0.
260.997 86.0093 0.
828.589 282.591 0.
717.054 22.1821 0.
647.591 -140.049 0.
260.117 -262.805 0.
323.085 -115.859 0.
352.393 -47.438 0.
573.32 121.072 0.
544.512 53.901 0.
538.497 -165.704 0.
480.391 -301.567 0.
607.585 -5.0985 0.
126.536 -55.7398 0.
88.5742 -144.255 0.
36.187 -266.427 0.
323.143 -115.317 0.
417.379 104.364 0.
514.776 331.418 0.
406.346 193.511 0.
325.143 4.22639 0.
165.416 -170.173 0.
556.556 29.1053 0.
534.03 -23.6999 0.
385.8 -173.799 0.
386.01 -173.28 0.
336.156 -289.579 0.
-15.8857 -395.521 0.
93.6242 -140.255 0.
237.661 195.588 0.
834.987 422.532 0.
742.864 207.206 0.
758.815 244.05 0.
603.098 193.443 0.
578.197 135.595 0.
512.055 -126.412 0.
486.87 -185.216 0.
552.243 -32.7119 0.
412.695 41.9901 0.
410.362 36.348 0.
429.925 81.8242 0.
440.945 110.439 0.
436.736 100.269 0.
348.284 -106.464 0.
188.455 -220.965 0.
117.021 -387.777 0.
139.487 -310.492 0.
-44.5692 -75.4037 0.
72.9935 198.783 0.
673.151 548.417 0.
622.129 429.437 0.
597.934 373.077 0.
-53.1086 -11.915 0.
149.469 460.606 0.
101.037 347.37 0.
329.884 307.906 0.
189.127 -20.5758 0.
121.241 -179.107 0.
136.137 -241.095 0.
115.287 -289.846 0.
71.9591 -474.153 0.
327.103 121.448 0.
373.168 229.296 0.
135.862 -135.194 0.
83.7581 -256.72 0.
73.3962 -280.867 0.
-148.807 -389.263 0.
-239.154 -599.855 0.
112.591 221.283 0.
-22.8484 -200.606 0.
-61.9513 -290.106 0.
-38.9462 -604.64 0.
-103.098 -479.867 0.
-24.508 -296.401 0.
59.0584 -163.11 0.
7.50806 -283.35 0.
-44.0423 -403.589 0.
26.5159 -452.041 0.
-1.33464 -516.855 0.
-29.1852 -581.67 0.
-22.1389 -532.774 0.
29.5364 -412.572 0.
81.2118 -292.371 0.
12.7551 -280.562 0.
30.5117 -239.119 0.
96.9177 -180.738 0.
89.8274 -197.255 0.
82.7371 -213.773 0.
204.275 -186.733 0.
178.148 -247.906 0.
152.022 -309.078 0.
70.3929 -322.129 0.
113.403 -221.935 0.
156.413 -121.741 0.
91.0211 -232.446 0.
21.8127 -393.938 0.
110.687 -487.617 0.
88.0515 -334.911 0.
174.741 -132.505 0.
197.096 -12.6714 0.
150.854 -120.27 0.
104.611 -227.869 0.
551.974 -125.19 0.
503.404 -238.613 0.
454.834 -352.036 0.
176.938 -378.466 0.
274.427 -150.269 0.
371.916 77.9284 0.
585.446 163.189 0.
569.908 126.777 0.
481.315 53.2481 0.
438.221 -47.058 0.
395.126 -147.364 0.
25.1019 -372.937 0.
5.21415 -419.343 0.
-14.6736 -465.749 0.
263.434 -372.441 0.
254.97 -392.183 0.
246.506 -411.925 0.
172.591 -475.316 0.
153.431 -519.799 0.
-9.4406 -625.759 0.
406.559 -423.29 0.
419.215 -393.829 0.
276.594 -422.723 0.
309.298 -346.184 0.
342.002 -269.645 0.
103.233 -293.02 0.
155.653 -170.86 0.
208.073 -48.7001 0.
597.523 126.477 0.
578.386 81.5516 0.
559.249 36.6265 0.
571.94 95.3843 0.
605.137 173.168 0.
540.25 185.681 0.
465.294 10.6252 0.
390.338 -164.43 0.
232.835 -320.743 0.
242.269 -298.487 0.
251.703 -276.231 0.
246.665 -262.106 0.
255.479 -241.684 0.
264.293 -221.261 0.
44.9655 -361.001 0.
11.2917 -439.745 0.
205.809 -418.987 0.
-166.793 -425.586 0.
-86.3601 -238.056 0.
303.318 19.9369 0.
242.315 -122.404 0.
181.312 -264.745 0.
-59.9601 -394.898 0.
-17.1762 -295.057 0.
25.6078 -195.215 0.
233.227 -67.1791 0.
244.032 -42.0843 0.
254.838 -16.9895 0.
113.964 -111.879 0.
91.6435 -163.773 0.
92.0246 -204.119 0.
77.7843 -237.102 0.
63.5441 -270.084 0.
-9.97453 -302.193 0.
16.7849 -239.587 0.
43.5444 -176.981 0.
-16.1934 -181.001 0.
-17.2308 -183.222 0.
-18.2681 -185.442 0.
-238.836 -402.102 0.
-320.501 -590.948 0.
177.852 -480.511 0.
-30.6681 -417.501 0.
47.9219 -234.007 0.
18.1411 -149.294 0.
-33.3708 -269.56 0.
-84.8827 -389.825 0.
-47.4455 -452.355 0.
-75.2627 -517.21 0.
-103.08 -582.065 0.
-73.1336 -523.108 0.
-21.4774 -402.916 0.
30.1789 -282.724 0.
28.1724 -242.435 0.
45.9198 -200.986 0.
277.367 -72.0236 0.
270.241 -88.5186 0.
263.115 -105.014 0.
188.717 -161.658 0.
162.575 -222.792 0.
136.433 -283.926 0.
47.2713 -301.238 0.
90.2767 -201.07 0.
133.282 -100.901 0.
83.872 -204.224 0.
14.6529 -365.721 0.
-123.528 -556.593 0.
131.072 -284.834 0.
217.783 -82.4528 0.
187.63 14.8206 0.
141.361 -92.7377 0.
95.0923 -200.296 0.
443.215 -140.525 0.
394.647 -253.928 0.
346.079 -367.332 0.
151.978 -357.853 0.
249.405 -129.633 0.
346.833 98.5866 0.
595.233 198.761 0.
579.706 162.361 0.
312.583 12.4394 0.
269.477 -87.8359 0.
226.371 -188.111 0.
83.6306 -316.48 0.
63.7691 -362.919 0.
43.9075 -409.358 0.
341.564 -307.58 0.
333.095 -327.321 0.
324.626 -347.062 0.
253.979 -409.083 0.
234.788 -453.545 0.
91.3182 -551.122 0.
475.925 -362.22 0.
488.636 -332.791 0.
289.586 -385.756 0.
322.298 -309.244 0.
355.01 -232.732 0.
212.837 -214.549 0.
265.218 -92.3611 0.
317.599 29.8271 0.
478.155 106.71 0.
459.027 61.8115 0.
439.899 16.9132 0.
601.731 139.487 0.
634.944 217.268 0.
427.562 168.765 0.
352.638 -6.28572 0.
277.714 -181.336 0.
220.412 -294.538 0.
229.825 -272.284 0.
239.237 -250.03 0.
221.069 -241.414 0.
229.865 -220.948 0.
238.662 -200.481 0.
-41.8113 -366.623 0.
-75.5447 -445.26 0.
397.508 -305.894 0.
-116.647 -373.271 0.
-36.1811 -185.665 0.
144.455 -16.8314 0.
83.4374 -159.08 0.
22.4195 -301.329 0.
148.812 -273.705 0.
191.67 -173.909 0.
234.528 -74.1124 0.
327.911 4.82272 0.
338.669 29.9988 0.
349.426 55.1749 0.
34.8518 -114.467 0.
12.5931 -166.397 0.
-8.69202 -215.714 0.
-22.9001 -248.715 0.
-37.1081 -281.715 0.
-84.4901 -302.589 0.
-57.7521 -239.951 0.
-31.0141 -177.314 0.
53.8959 -119.518 0.
52.8961 -121.759 0.
51.8963 -124.001 0.
-381.215 -431.672 0.
-462.806 -620.512 0.
87.6105 -296.859 0.
28.9091 -420.908 0.
-18.0151 -530.327 0.
-204.727 -659.716 0.
-150.117 -532.161 0.
-95.5081 -404.605 0.
-36.081 -351.708 0.
-74.0494 -440.402 0.
-112.018 -529.096 0.
-69.9187 -534.107 0.
-68.5139 -530.75 0.
-67.1092 -527.394 0.
-70.7681 -452.123 0.
-24.6354 -344.351 0.
319.921 -111.083 0.
352.221 -35.9593 0.
384.521 39.1644 0.
192.946 -11.8868 0.
176.634 -50.0658 0.
160.322 -88.2448 0.
115.345 -145.387 0.
91.5391 -200.978 0.
67.733 -256.569 0.
18.9783 -226.464 0.
62.0759 -126.274 0.
50.916 -49.526 0.
205.833 -34.4577 0.
178.233 -98.942 0.
136.679 -168.147 0.
110.592 -229.2 0.
84.5052 -290.253 0.
349.011 -137.931 0.
428.87 48.3302 0.
508.729 234.591 0.
342.262 136.766 0.
281.569 -5.73498 0.
220.875 -148.236 0.
446.77 -104.417 0.
423.018 -159.659 0.
91.8242 -335.918 0.
118.521 -273.66 0.
145.218 -211.402 0.
180.47 -188.914 0.
138.157 -287.652 0.
95.8442 -386.39 0.
344.577 -338.948 0.
322.911 -389.45 0.
301.244 -439.952 0.
277.69 -446.78 0.
286.153 -427.316 0.
-203.472 -621.453 0.
499.871 -250.738 0.
535.928 -166.034 0.
416.866 -171.722 0.
398.368 -215.028 0.
379.87 -258.335 0.
162.735 -369.703 0.
164.122 -366.516 0.
165.508 -363.328 0.
209.091 -386.083 0.
175.18 -465.027 0.
141.269 -543.971 0.
357.849 -370.569 0.
409.685 -249.613 0.
173.558 -259.052 0.
194.882 -209.133 0.
216.205 -159.215 0.
294.79 -118.659 0.
262.859 -193.252 0.
230.928 -267.846 0.
197.74 -260.836 0.
241.732 -158.206 0.
285.723 -55.5767 0.
-8.667 -159.833 0.
-4.90494 -150.999 0.
539.698 90.8971 0.
-80.3685 -249.505 0.
-119.517 -340.675 0.
-33.6558 -354.689 0.
-18.8703 -320.142 0.
-4.08478 -285.595 0.
248.231 -156.278 0.
255.196 -140.133 0.
262.16 -123.988 0.
235.334 -145.167 0.
223.803 -171.683 0.
212.272 -198.199 0.
-67.0293 -401.215 0.
-114.143 -510.827 0.
-180.507 -604.63 0.
-125.49 -476.226 0.
-70.4731 -347.821 0.
-119.946 -296.225 0.
-113.941 -282.548 0.
-107.936 -268.87 0.
-33.2324 -307.01 0.
-102.797 -469.296 0.
-172.361 -631.583 0.
-406.083 -519.141 0.
-247.189 -149.27 0.
-4.60109 -304.517 0.
136.168 -343.544 0.
89.2696 -452.987 0.
-143.238 -601.823 0.
-88.5892 -474.285 0.
-33.9408 -346.746 0.
-9.36613 -308.859 0.
-47.307 -397.562 0.
-85.2478 -486.266 0.
31.8579 -459.083 0.
33.2525 -455.729 0.
34.6471 -452.374 0.
-74.7761 -422.361 0.
-28.6548 -314.596 0.
320.465 -79.4209 0.
352.745 -4.25793 0.
385.025 70.905 0.
94.5776 -22.5989 0.
78.2474 -60.7384 0.
61.9173 -98.878 0.
174.079 -89.1553 0.
150.265 -144.753 0.
126.45 -200.35 0.
-75.9866 -235.694 0.
-32.9615 -135.481 0.
128.408 15.0817 0.
117.721 -40.7905 0.
90.1101 -105.262 0.
246.371 -89.766 0.
220.213 -150.711 0.
194.055 -211.656 0.
257.62 -145.722 0.
337.486 40.5193 0.
417.352 226.76 0.
347.388 170.253 0.
286.601 27.8153 0.
225.815 -114.623 0.
424.737 -82.4947 0.
400.986 -137.734 0.
117.925 -293.338 0.
144.586 -231.04 0.
171.247 -168.741 0.
257.373 -124.515 0.
215.085 -223.288 0.
172.797 -322.061 0.
339.826 -309.452 0.
318.179 -359.966 0.
296.532 -410.48 0.
323.673 -395.665 0.
332.109 -376.196 0.
-49.689 -524.205 0.
406.909 -259.156 0.
442.922 -174.397 0.
524.315 -94.3278 0.
505.81 -137.675 0.
487.304 -181.022 0.
128.782 -352.6 0.
130.136 -349.415 0.
131.49 -346.23 0.
217.659 -351.215 0.
183.707 -430.171 0.
149.754 -509.128 0.
298.621 -364.532 0.
350.513 -243.661 0.
144.93 -239.911 0.
166.25 -189.984 0.
187.57 -140.056 0.
337.025 -69.14 0.
305.048 -143.677 0.
273.07 -218.213 0.
218.984 -220.387 0.
263.03 -117.779 0.
307.076 -15.1717 0.
-24.2473 -135.061 0.
-20.4815 -126.209 0.
373.47 50.9222 0.
-136.739 -242.252 0.
-175.878 -333.347 0.
74.9995 -276.64 0.
89.8198 -242.076 0.
104.64 -207.511 0.
195.583 -147.48 0.
202.539 -131.327 0.
209.495 -115.173 0.
105.658 -169.583 0.
94.1149 -196.066 0.
82.5721 -222.549 0.
94.3414 -300.527 0.
47.2366 -410.165 0.
-62.0159 -522.216 0.
-6.92098 -393.857 0.
48.174 -265.498 0.
-105.714 -258.64 0.
-99.7538 -244.865 0.
-93.7941 -231.089 0.
-85.2141 -297.736 0.
-154.792 -459.971 0.
-224.37 -622.206 0.
-208.066 -402.822 0.
-49.2694 -32.6676 0.
374.072 -33.0431 0.
286.208 -161.155 0.
431.678 178.59 0.
141.503 -23.3171 0.
46.5027 -244.941 0.
66.3117 -198.56 0.
125.816 -13.3634 0.
240.467 254.531 0.
115.372 -37.2642 0.
285.01 -29.8181 0.
349.276 120.011 0.
492.967 455.249 0.
68.6124 -48.3252 0.
-119.503 -487.443 0.
218.877 -286.34 0.
58.2799 -661.111 0.
367.76 60.9721 0.
43.8297 77.4328 0.
62.4784 120.97 0.
33.3832 53.1447 0.
309.387 146.314 0.
214.357 -75.5811 0.
141.926 -244.694 0.
-307.245 -563.416 0.
-276.592 -492.247 0.
-34.798 -474.165 0.
-143.151 -452.613 0.
-29.4241 -187.082 0.
472.648 262.125 0.
453.477 217.507 0.
501.19 328.925 0.
353.943 283.889 0.
251.203 43.9774 0.
173.317 -137.913 0.
261.408 -9.51909 0.
368.965 241.037 0.
458.012 448.433 0.
672.475 569.29 0.
664.488 550.753 0.
446.154 454.936 0.
457.184 480.51 0.
477.845 528.558 0.
577.962 509.509 0.
364.996 12.3911 0.
225.14 -314.105 0.
334.65 -280.365 0.
408.343 -108.328 0.
446.895 -18.2825 0.
469.765 -110.408 0.
472.115 -105.135 0.
247.024 -158.408 0.
249.102 -420.257 0.
140.731 -672.465 0.
374.723 -614.832 0.
526.54 -260.537 0.
673.452 82.315 0.
296.329 131.875 0.
394.069 360.043 0.
402.177 379.068 0.
602.383 562.912 0.
633.493 635.459 0.
555.838 454.219 0.
554.166 377.376 0.
479.851 203.757 0.
204.093 -17.2291 0.
233.613 51.7734 0.
251.3 93.166 0.
460.423 170.218 0.
447.88 140.98 0.
484.78 227.121 0.
441.752 290.919 0.
422.129 245.128 0.
389.07 167.984 0.
-75.0711 -193.284 0.
-133.771 -330.849 0.
133.665 -10.3033 0.
-169.362 -180.856 0.
-143.676 -120.742 0.
414.183 341.237 0.
494.768 529.018 0.
383.505 269.182 0.
207.753 12.52 0.
223.27 48.8769 0.
256.927 127.553 0.
77.0289 39.6939 0.
-0.41088 -141.152 0.
-67.2892 -297.346 0.
220.379 -279.078 0.
353.196 30.8613 0.
397.938 359.356 0.
328.055 196.408 0.
363.995 280.348 0.
11.6242 19.9857 0.
-64.7513 -158.067 0.
-45.7306 -113.579 0.
-10.2515 6.64485 0.
24.6177 87.572 0.
66.2899 184.341 0.
92.1674 -39.6501 0.
139.183 69.6507 0.
-66.986 -405.763 0.
69.2472 -293.077 0.
93.1109 -237.146 0.
84.3968 -205.886 0.
80.7539 -214.349 0.
77.1111 -222.812 0.
119.599 -175.97 0.
158.342 -85.2875 0.
197.085 5.39522 0.
213.525 2.55333 0.
186.001 -61.7968 0.
158.476 -126.147 0.
1.05585 -208.033 0.
-3.90402 -219.734 0.
322.541 -97.0396 0.
278.936 -198.789 0.
235.331 -300.539 0.
-151.858 -500.479 0.
-117.991 -421.364 0.
-84.1237 -342.248 0.
52.9672 -216.916 0.
89.6013 -131.469 0.
126.235 -46.0221 0.
-181.272 -173.498 0.
-189.453 -192.599 0.
-36.5996 -142.391 0.
63.4134 -170.502 0.
26.2527 -257.28 0.
161.207 -240.016 0.
196.811 -156.997 0.
232.416 -73.9767 0.
161.219 -112.129 0.
106.844 -239.055 0.
52.4701 -365.981 0.
167.76 -301.051 0.
207.789 -207.878 0.
247.819 -114.706 0.
366.135 -17.5556 0.
388.677 35.0376 0.
257.345 10.1272 0.
224.819 -65.8103 0.
192.292 -141.748 0.
258.291 -131.62 0.
294.344 -47.5925 0.
330.396 36.4348 0.
421.207 78.4108 0.
395.437 18.2729 0.
369.667 -41.8651 0.
539.303 -9.33736 0.
519.678 -55.1218 0.
97.8114 -273.293 0.
466.885 -154.107 0.
446.344 -202.067 0.
454.919 -217.724 0.
478.855 -161.774 0.
502.792 -105.823 0.
311.36 -138.402 0.
339.989 -71.4806 0.
368.619 -4.55963 0.
294.622 0.849057 0.
309.761 35.7923 0.
324.899 70.7356 0.
318.977 7.13309 0.
281.783 -79.8536 0.
218.269 -174.705 0.
193.018 -233.59 0.
167.768 -292.474 0.
114.954 -311.767 0.
169.478 -184.57 0.
224.003 -57.374 0.
138.827 -67.8281 0.
121.032 -109.007 0.
103.237 -150.186 0.
-30.1696 -228.635 0.
-40.2743 -252.229 0.
-84.3043 -290.284 0.
-160.296 -244.239 0.
-118.836 -147.607 0.
241.801 44.3486 0.
187.112 -83.1379 0.
132.423 -210.624 0.
65.6795 -282.529 0.
81.2174 -246.107 0.
96.7552 -209.686 0.
87.8597 -171.909 0.
113.051 -113.356 0.
138.242 -54.8042 0.
218.185 -11.815 0.
220.787 -5.48795 0.
212.424 -12.1648 0.
175.201 -98.9252 0.
137.978 -185.686 0.
-127.14 -327.116 0.
-98.6326 -260.59 0.
-70.1252 -194.064 0.
-76.8949 -145.194 0.
-51.1444 -85.3176 0.
-25.3938 -25.4409 0.
-2.67791 -216.513 0.
-142.885 -543.656 0.
-57.6516 -371.277 0.
-110.883 -338.939 0.
-87.0519 -282.968 0.
126.795 -156.33 0.
123.171 -164.796 0.
119.546 -173.262 0.
213.605 -104.156 0.
252.402 -13.4862 0.
291.198 77.1839 0.
125.836 -3.54917 0.
98.307 -67.8866 0.
70.7785 -132.224 0.
18.0451 -169.453 0.
13.035 -181.128 0.
366.523 -46.8956 0.
322.936 -148.652 0.
279.35 -250.409 0.
-71.8207 -434.595 0.
-37.9585 -355.472 0.
-4.09635 -276.349 0.
-54.4671 -231.474 0.
-17.8419 -146.031 0.
18.7833 -60.5877 0.
-215.345 -156.82 0.
-223.585 -175.889 0.
-210.413 -185.313 0.
185.094 -86.8866 0.
147.93 -173.665 0.
60.0255 -251.88 0.
95.6084 -168.824 0.
131.191 -85.7672 0.
149.296 -85.9354 0.
94.9101 -212.846 0.
40.5241 -339.757 0.
222.464 -246.279 0.
262.531 -153.161 0.
302.598 -60.0436 0.
315.632 -7.63935 0.
338.192 44.9457 0.
276.289 49.8167 0.
243.724 -26.0923 0.
211.158 -102.001 0.
219.617 -116.931 0.
255.652 -32.9023 0.
291.688 51.1267 0.
355.552 81.8227 0.
329.801 21.6426 0.
304.049 -38.5375 0.
588.862 43.4977 0.
569.252 -2.31813 0.
192.089 -201.447 0.
610.704 -60.9857 0.
590.08 -108.831 0.
360.428 -226.936 0.
384.353 -171.008 0.
408.277 -115.079 0.
488.457 -31.2731 0.
517.085 35.6915 0.
545.714 102.656 0.
229.388 4.48071 0.
244.573 39.348 0.
259.758 74.2153 0.
241.593 5.4649 0.
204.435 -81.5537 0.
335.148 -93.2426 0.
309.869 -152.092 0.
284.589 -210.941 0.
-38.3257 -346.144 0.
16.1484 -218.927 0.
70.6226 -91.7101 0.
-27.3813 -107.552 0.
-45.1441 -148.743 0.
-62.9067 -189.933 0.
59.3301 -158.85 0.
49.1997 -182.421 0.
58.1205 -197.882 0.
-99.772 -186.939 0.
-58.3026 -90.2912 0.
202.544 59.0354 0.
147.815 -68.4163 0.
93.0849 -195.868 0.
62.6692 -252.409 0.
78.1905 -215.955 0.
93.7117 -179.5 0.
228.656 -80.4692 0.
253.831 -21.9044 0.
279.006 36.6604 0.
91.4896 -34.3756 0.
94.1016 -28.053 0.
196.538 12.5843 0.
159.331 -74.1946 0.
122.124 -160.974 0.
-98.7519 -283.647 0.
-70.2399 -217.101 0.
-41.728 -150.555 0.
-62.4912 -107.651 0.
-36.7121 -47.7733 0.
-10.933 12.1047 0.
-9.82809 -188.217 0.
-150.08 -515.292 0.
-193.423 -318.694 0.
-80.9555 -195.7 0.
-40.1544 -100.777 0.
208.378 47.8544 0.
161.09 -62.5367 0.
113.802 -172.928 0.
165.392 -234.133 0.
126.671 -324.657 0.
87.9503 -415.182 0.
-116.553 -454.369 0.
-58.2521 -318.407 0.
0.0489057 -182.446 0.
59.1611 -116.41 0.
75.8954 -77.5862 0.
366.48 84.2309 0.
413.049 192.759 0.
459.617 301.287 0.
184.388 206.695 0.
126.644 71.7 0.
68.8993 -63.295 0.
-33.531 -167.139 0.
-43.6556 -190.735 0.
-53.7803 -214.331 0.
-239.409 -242.369 0.
-200.993 -152.844 0.
-172.954 -67.9387 0.
215.564 55.8852 0.
192.889 3.03147 0.
101.952 -67.9869 0.
104.909 -61.1045 0.
107.865 -54.2221 0.
155.468 -11.1304 0.
179.693 45.2353 0.
203.918 101.601 0.
366.846 113.809 0.
308.397 -22.2346 0.
249.947 -158.278 0.
202.631 -153.201 0.
225.789 -99.0532 0.
262.746 -40.2506 0.
276.247 -8.92254 0.
289.748 22.4055 0.
272.244 2.36647 0.
225.547 -106.58 0.
178.849 -215.527 0.
178.556 -261.516 0.
173.333 -273.886 0.
168.11 -286.256 0.
540.514 -83.9972 0.
570.959 -13.0798 0.
258.39 -89.1288 0.
700.995 2.04603 0.
649.208 -118.852 0.
276.462 -354.069 0.
279.554 -346.928 0.
282.646 -339.786 0.
461.547 -249.142 0.
473.937 -220.284 0.
486.327 -191.425 0.
47.714 -362.097 0.
55.0866 -344.48 0.
62.4593 -326.863 0.
45.676 -294.869 0.
68.2274 -242.46 0.
389.27 -64.5555 0.
402.29 -34.1902 0.
415.31 -3.82488 0.
-45.6541 -194.96 0.
-61.4322 -231.616 0.
-77.2102 -268.271 0.
-165.138 -274.113 0.
-124.129 -178.574 0.
-83.1207 -83.0359 0.
137.357 63.3331 0.
161.687 120.118 0.
357.403 249.508 0.
-28.0757 -51.6858 0.
-99.8104 -219.086 0.
96.8427 -211.27 0.
164.27 -53.9937 0.
231.697 103.283 0.
183.402 162.074 0.
193.915 186.651 0.
204.428 211.229 0.
346.338 169.914 0.
260.952 -29.3376 0.
175.567 -228.59 0.
-30.5055 -260.703 0.
12.5226 -160.068 0.
101.012 -53.5376 0.
83.0273 -95.1265 0.
65.0428 -136.715 0.
-23.1878 -179.768 0.
2.91497 -118.824 0.
29.0178 -57.8796 0.
-66.4719 -123.631 0.
-109.603 -223.91 0.
-152.735 -324.189 0.
-14.8335 -284.823 0.
-16.385 -288.647 0.
-101.112 -247.97 0.
49.2782 -108.288 0.
90.0529 -13.3372 0.
185.626 69.4103 0.
138.326 -40.9476 0.
91.026 -151.305 0.
124.798 -220.125 0.
86.0889 -310.657 0.
47.3801 -401.19 0.
-117.646 -423.303 0.
-59.3327 -287.36 0.
-1.01979 -151.417 0.
120.074 -58.9191 0.
136.793 -20.0729 0.
219.656 52.7636 0.
266.233 161.298 0.
312.81 269.832 0.
93.3033 199.145 0.
35.5283 64.189 0.
-22.2468 -70.7671 0.
90.3704 -82.7693 0.
80.2529 -106.377 0.
70.1354 -129.985 0.
-143.648 -169.915 0.
-105.224 -80.3907 0.
-93.3638 -2.32026 0.
55.2764 18.7488 0.
32.6303 -34.1297 0.
145.071 -18.148 0.
148.021 -11.2193 0.
150.971 -4.2906 0.
136.948 12.3827 0.
161.186 68.7493 0.
185.424 125.116 0.
321.376 125.723 0.
263.038 -10.3917 0.
204.7 -146.506 0.
162.827 -138.53 0.
186.003 -84.4262 0.
337.776 23.4155 0.
351.263 54.7566 0.
364.75 86.0976 0.
346.958 65.5429 0.
300.222 -43.395 0.
253.485 -152.333 0.
202.821 -219.644 0.
197.555 -231.991 0.
192.29 -244.337 0.
539.475 -52.9789 0.
569.924 17.9406 0.
605.355 90.9954 0.
745.198 52.3609 0.
693.398 -68.493 0.
330.594 -299.596 0.
333.716 -292.506 0.
336.838 -285.417 0.
481.465 -209.389 0.
493.874 -180.536 0.
506.282 -151.683 0.
84.4422 -314.673 0.
91.8339 -297.087 0.
99.2257 -279.502 0.
-8.64768 -286.604 0.
13.9032 -234.198 0.
408.593 -25.0143 0.
421.543 5.41041 0.
434.493 35.8351 0.
-36.5328 -159.58 0.
-52.2901 -196.257 0.
-68.0474 -232.933 0.
-129.162 -227.291 0.
-88.1698 -131.717 0.
-47.1772 -36.142 0.
41.2 53.5356 0.
65.5258 110.334 0.
272.134 244.317 0.
-21.4374 -17.4787 0.
-93.1432 -184.898 0.
193.933 -138.246 0.
261.351 19.0603 0.
328.77 176.367 0.
81.6607 149.973 0.
92.178 174.55 0.
102.695 199.127 0.
266.32 167 0.
180.951 -32.2336 0.
95.5816 -231.467 0.
65.871 -187.923 0.
108.946 -87.2948 0.
-14.1436 -71.414 0.
-32.0777 -113.037 0.
-50.0118 -154.66 0.
57.1922 -113.872 0.
83.3201 -52.9808 0.
109.448 7.91082 0.
-41.5567 -81.3256 0.
-84.6757 -181.633 0.
-127.795 -281.94 0.
108.152 -200.702 0.
106.615 -204.585 0.
381.751 345.795 0.
272.36 201.254 0.
185.073 -2.50802 0.
107.249 -37.9899 0.
82.4528 -96.1028 0.
63.0614 -141.604 0.
121.637 -118.852 0.
151.216 -50.2383 0.
99.9301 -170.38 0.
-32.2182 -192.133 0.
59.4229 21.5066 0.
74.3934 56.2828 0.
265.591 196.732 0.
231.547 117.127 0.
46.8339 -40.7849 0.
108.876 103.778 0.
47.8416 -38.957 0.
-113.007 -78.1149 0.
-90.6941 -26.1877 0.
-95.267 -36.981 0.
231.138 41.5036 0.
140.078 -170.964 0.
61.6645 -353.927 0.
-315.603 -723.616 0.
-307.897 -705.887 0.
-298.099 -513.638 0.
23.6836 282.73 0.
-137.881 -94.5851 0.
203.788 68.4107 0.
183.204 20.4224 0.
224.156 115.949 0.
182.819 186.236 0.
145.679 99.3096 0.
24.0775 -184.685 0.
208.858 -17.1029 0.
329.962 265.488 0.
435.756 512.358 0.
314.485 321.693 0.
203.871 63.3204 0.
334.948 -91.3942 0.
394.778 47.9009 0.
456.181 190.884 0.
537.777 398.965 0.
623.704 599.329 0.
559.071 448.416 0.
386.487 195.293 0.
346.771 102.684 0.
269.741 -76.9938 0.
483.818 -154.686 0.
406.969 -334.138 0.
93.5454 -568.781 0.
696.611 -110.685 0.
843.484 231.78 0.
661.812 402.566 0.
608.96 279.005 0.
598.027 253.246 0.
751.089 413.584 0.
777.439 475.343 0.
760.093 435.152 0.
354.489 276.932 0.
404.051 392.539 0.
475.53 559.287 0.
235.862 418.153 0.
192.981 318.208 0.
595.287 406.335 0.
584.94 382.282 0.
550.598 302.31 0.
17.9409 -17.9048 0.
-34.8061 -140.827 0.
-12.3688 -88.3448 0.
12.3323 65.8384 0.
71.777 204.551 0.
76.526 215.665 0.
-125.351 -121.418 0.
-353.568 -654.096 0.
-161.439 -552.307 0.
-215.335 -453.782 0.
-409.62 -906.828 0.
8.36159 -723.784 0.
419.083 235.174 0.
531.33 497.598 0.
121.649 466.204 0.
125.183 474.437 0.
-21.9091 131.162 0.
32.1574 -197.426 0.
-70.9526 -437.542 0.
-86.5635 -473.485 0.
121.942 -206.446 0.
280.625 164.034 0.
-37.2378 124.088 0.
30.7027 282.939 0.
-11.5851 184.642 0.
239.041 189.085 0.
139.56 -42.7891 0.
69.2193 -206.69 0.
-90.4062 -213.018 0.
-11.0581 -28.3896 0.
-82.4467 -195.508 0.
338.637 141.642 0.
537.61 606.02 0.
-79.9416 -58.8367 0.
141.124 -18.4712 0.
113.904 -82.5469 0.
-8.18118 -162.352 0.
24.6716 -85.8736 0.
57.5244 -9.39547 0.
200.191 106.008 0.
223.062 159.285 0.
245.932 212.563 0.
135.028 79.642 0.
56.5899 -103.511 0.
-21.8481 -286.664 0.
144.336 -212.422 0.
155.989 -185.423 0.
-57.0105 -244.239 0.
3.55268 -102.659 0.
64.116 38.921 0.
-49.6645 77.4981 0.
-32.612 117.138 0.
-15.5595 156.779 0.
266.689 221.468 0.
198.869 63.2235 0.
131.05 -95.0212 0.
74.9415 -162.202 0.
65.1844 -185.193 0.
48.5897 -212.3 0.
-271.627 -156.158 0.
-169.442 82.0691 0.
322.347 424.224 0.
271.229 304.756 0.
220.11 185.289 0.
183.141 98.915 0.
162.411 50.5929 0.
141.682 2.27087 0.
63.0299 -55.7746 0.
55.6745 -73.2972 0.
48.3191 -90.8198 0.
221.035 -38.1746 0.
208.987 -66.5463 0.
321.587 -40.1702 0.
319.507 -45.0639 0.
317.427 -49.9577 0.
422.797 40.0256 0.
498.105 215.643 0.
573.414 391.261 0.
336.459 302.714 0.
287.862 189.265 0.
239.265 75.817 0.
796.691 266.712 0.
778.402 223.813 0.
-209.235 -234.412 0.
744.598 211.537 0.
764.095 257.007 0.
440.256 127.072 0.
392.3 15.4527 0.
344.343 -96.1665 0.
477.333 -107.595 0.
455.999 -157.143 0.
434.666 -206.692 0.
184.15 -304.117 0.
202.26 -262.04 0.
220.37 -219.963 0.
126.599 -198.24 0.
160.805 -117.837 0.
265.782 -12.263 0.
276.059 11.6642 0.
286.336 35.5913 0.
-63.5626 -84.3815 0.
-37.0842 -22.5941 0.
-10.6057 39.1934 0.
-18.5546 95.4414 0.
17.4163 179.345 0.
53.3872 263.249 0.
-6.05348 113.023 0.
-100.568 -107.438 0.
349.87 -93.8046 0.
32.5372 -116.34 0.
92.2151 22.8648 0.
310.671 192.073 0.
279.592 119.68 0.
248.513 47.2873 0.
24.6704 -96.4474 0.
8.10693 -135.086 0.
-8.45652 -173.724 0.
16.8347 -166.578 0.
21.6767 -155.039 0.
26.5187 -143.501 0.
15.528 -102.146 0.
40.7438 -43.1657 0.
-74.1541 -52.3003 0.
-77.8265 -60.3858 0.
-81.4989 -68.4714 0.
94.2183 -11.4528 0.
72.7419 -61.1882 0.
51.2655 -110.924 0.
22.3089 -137.267 0.
26.1909 -128.436 0.
30.0729 -119.604 0.
204.344 44.4661 0.
262.637 180.676 0.
-247.592 -99.0398 0.
112.586 0.850378 0.
85.4603 -63.2914 0.
-67.7623 -156.406 0.
-34.8856 -79.9401 0.
-2.00889 -3.47391 0.
194.487 134.931 0.
217.354 188.206 0.
240.221 241.481 0.
214.276 145.008 0.
135.84 -38.1874 0.
57.4034 -221.383 0.
227.054 -145.408 0.
238.72 -118.439 0.
-61.7615 -214.873 0.
-1.30907 -73.2183 0.
59.1434 68.4362 0.
-37.1261 114.179 0.
-20.0831 153.829 0.
-3.04015 193.478 0.
232.17 237.753 0.
164.341 79.5092 0.
96.5114 -78.7345 0.
275.739 -44.5004 0.
266.018 -67.5405 0.
317.617 -65.5975 0.
-387.55 -174.254 0.
-285.477 63.9838 0.
297.6 444.975 0.
246.44 325.544 0.
195.279 206.112 0.
245.622 156.877 0.
224.886 108.627 0.
204.15 60.3777 0.
-79.0016 -85.1632 0.
-86.2302 -102.751 0.
-93.4587 -120.338 0.
312.364 32.5701 0.
300.243 4.25418 0.
294.313 -20.2647 0.
292.247 -25.1731 0.
290.181 -30.0815 0.
487.372 98.7148 0.
562.631 274.341 0.
637.89 449.966 0.
235.425 290.829 0.
186.803 177.416 0.
138.181 64.0025 0.
974.821 374.678 0.
956.638 331.697 0.
-274.515 -231.064 0.
651.149 203.092 0.
670.574 248.65 0.
329.184 110.727 0.
281.223 -0.900432 0.
233.261 -112.528 0.
431.341 -95.9617 0.
409.983 -145.501 0.
388.625 -195.04 0.
297.594 -223.97 0.
315.747 -181.919 0.
333.9 -139.868 0.
332.282 -78.4722 0.
366.547 1.9252 0.
99.1247 -52.3009 0.
109.38 -28.3562 0.
119.635 -4.41136 0.
-112.448 -74.0076 0.
-85.9663 -12.2265 0.
-59.4844 49.5547 0.
-55.2206 111.194 0.
-19.2449 195.097 0.
16.7309 279 0.
32.4008 161.093 0.
-62.0548 -59.3877 0.
107.755 -166.126 0.
176.151 -23.3586 0.
235.894 115.825 0.
216.61 183.215 0.
185.597 110.795 0.
154.584 38.3755 0.
217.597 17.7137 0.
201.059 -20.9802 0.
184.522 -59.6741 0.
-1.38114 -143.023 0.
3.52847 -131.54 0.
8.43812 -120.058 0.
-152.587 -142.327 0.
-127.359 -83.3486 0.
-10.7836 6.19168 0.
-14.4801 -1.8783 0.
-18.1766 -9.94828 0.
38.383 -4.11663 0.
16.873 -53.814 0.
-4.6369 -103.511 0.
137.147 -56.6321 0.
141.022 -47.7678 0.
144.897 -38.9036 0.
107.6 34.4668 0.
165.899 170.699 0.
