# vtk DataFile Version 2.0
test grain
ASCII
DATASET UNSTRUCTURED_GRID
POINTS 5000 float
0.499911 0.00100014 0.
0.501913 0.00100022 0.
0.503913 0.0010003 0.
0.505914 0.00100036 0.
0.507915 0.00100036 0.
0.509916 0.00100035 0.
0.511917 0.00100029 0.
0.513917 0.00100016 0.
0.515918 0.00100003 0.
0.51792 0.000999998 0.
0.519921 0.001 0.
0.521923 0.00100001 0.
0.523924 0.001 0.
0.525925 0.001 0.
0.527926 0.00100001 0.
0.529928 0.00100006 0.
0.531931 0.00100011 0.
0.533933 0.00100012 0.
0.535934 0.00100007 0.
0.537935 0.00100002 0.
0.539937 0.00100001 0.
0.541938 0.00100001 0.
0.543939 0.00100001 0.
0.545941 0.001 0.
0.547943 0.001 0.
0.549945 0.001 0.
0.551945 0.0010002 0.
0.553945 0.0010004 0.
0.555945 0.00100051 0.
0.557945 0.0010003 0.
0.559945 0.00100008 0.
0.561945 0.001 0.
0.563945 0.00100011 0.
0.565945 0.00100021 0.
0.567946 0.00100018 0.
0.569946 0.00100009 0.
0.571946 0.000999995 0.
0.573946 0.000999998 0.
0.575945 0.00100001 0.
0.577944 0.00100006 0.
0.579941 0.0010005 0.
0.581939 0.00100094 0.
0.583936 0.00100128 0.
0.585932 0.00100142 0.
0.587927 0.00100156 0.
0.589921 0.00100127 0.
0.591913 0.00100063 0.
0.593905 0.001 0.
0.59593 0.00100093 0.
0.597965 0.00100235 0.
0.600001 0.00100377 0.
0.602035 0.00100237 0.
0.60407 0.00100098 0.
0.606095 0.00100001 0.
0.608088 0.00100039 0.
0.610082 0.00100078 0.
0.612077 0.00100094 0.
0.614073 0.00100085 0.
0.61607 0.00100075 0.
0.618067 0.00100083 0.
0.620064 0.001001 0.
0.622062 0.00100117 0.
0.624059 0.00100086 0.
0.626056 0.00100051 0.
0.628053 0.00100019 0.
0.630054 0.00100012 0.
0.632054 0.00100006 0.
0.634055 0.001 0.
0.636056 0.00100001 0.
0.638057 0.00100001 0.
0.640058 0.00100001 0.
0.642058 0.00100001 0.
0.644059 0.00100001 0.
0.646059 0.00100025 0.
0.648059 0.00100054 0.
0.650058 0.00100082 0.
0.652059 0.00100053 0.
0.65406 0.00100023 0.
0.656061 0.00100001 0.
0.658064 0.00100001 0.
0.660066 0.00100001 0.
0.662068 0.001 0.
0.664069 0.001 0.
0.666071 0.001 0.
0.668072 0.00100016 0.
0.670073 0.00100039 0.
0.672074 0.00100061 0.
0.674075 0.00100041 0.
0.676076 0.00100018 0.
0.678077 0.001 0.
0.680078 0.00100013 0.
0.682079 0.00100026 0.
0.684081 0.00100032 0.
0.686082 0.00100027 0.
0.688083 0.00100022 0.
0.690084 0.00100022 0.
0.692085 0.00100026 0.
0.694086 0.0010003 0.
0.696086 0.00100033 0.
0.698087 0.00100034 0.
0.499912 0.00300043 0.
0.501913 0.00300065 0.
0.503914 0.00300089 0.
0.505915 0.00300109 0.
0.507915 0.00300107 0.
0.509916 0.00300104 0.
0.511917 0.00300087 0.
0.513918 0.00300049 0.
0.515919 0.0030001 0.
0.51792 0.00299999 0.
0.519922 0.00300001 0.
0.521924 0.00300003 0.
0.523925 0.00300001 0.
0.525925 0.003 0.
0.527926 0.00300002 0.
0.529928 0.00300017 0.
0.531929 0.00300032 0.
0.533931 0.00300035 0.
0.535932 0.0030002 0.
0.537933 0.00300005 0.
0.539935 0.00300002 0.
0.541938 0.00300002 0.
0.543941 0.00300002 0.
0.545943 0.00300001 0.
0.547944 0.00300001 0.
0.549945 0.00300001 0.
0.551945 0.0030006 0.
0.553945 0.00300121 0.
0.555945 0.00300154 0.
0.557945 0.00300089 0.
0.559944 0.00300023 0.
0.561944 0.00300001 0.
0.563945 0.00300032 0.
0.565945 0.00300063 0.
0.567945 0.00300054 0.
0.569946 0.00300026 0.
0.571947 0.00299998 0.
0.573947 0.00299999 0.
0.575947 0.00300002 0.
0.577946 0.00300017 0.
0.579945 0.00300149 0.
0.581943 0.00300281 0.
0.58394 0.00300384 0.
0.585936 0.00300425 0.
0.587931 0.00300467 0.
0.589927 0.0030038 0.
0.591922 0.0030019 0.
0.593918 0.003 0.
0.59594 0.00300281 0.
0.59797 0.00300706 0.
0.600001 0.00301132 0.
0.602031 0.00300713 0.
0.604061 0.00300294 0.
0.606083 0.00300003 0.
0.608079 0.00300118 0.
0.610076 0.00300233 0.
0.612072 0.00300283 0.
0.614069 0.00300254 0.
0.616066 0.00300224 0.
0.618063 0.00300249 0.
0.620062 0.003003 0.
0.62206 0.00300351 0.
0.624057 0.00300258 0.
0.626054 0.00300152 0.
0.628052 0.00300058 0.
0.630052 0.00300037 0.
0.632052 0.00300016 0.
0.634053 0.00300002 0.
0.636055 0.00300002 0.
0.638057 0.00300003 0.
0.640058 0.00300004 0.
0.642059 0.00300004 0.
0.64406 0.00300003 0.
0.646059 0.00300074 0.
0.648058 0.00300162 0.
0.650058 0.00300248 0.
0.652058 0.00300159 0.
0.654058 0.0030007 0.
0.656058 0.00300003 0.
0.658062 0.00300003 0.
0.660066 0.00300002 0.
0.662069 0.00300001 0.
0.664071 0.00300001 0.
0.666073 0.00300001 0.
0.668074 0.00300049 0.
0.670074 0.00300116 0.
0.672075 0.00300182 0.
0.674075 0.00300124 0.
0.676075 0.00300055 0.
0.678076 0.00300001 0.
0.680077 0.00300038 0.
0.682078 0.00300076 0.
0.68408 0.00300095 0.
0.686081 0.0030008 0.
0.688083 0.00300065 0.
0.690084 0.00300066 0.
0.692085 0.00300079 0.
0.694085 0.00300091 0.
0.696087 0.00300099 0.
0.698088 0.00300104 0.
0.499913 0.00500071 0.
0.501914 0.00500106 0.
0.503915 0.00500148 0.
0.505915 0.00500183 0.
0.507916 0.00500178 0.
0.509916 0.00500174 0.
0.511917 0.00500145 0.
0.513918 0.00500081 0.
0.515919 0.00500017 0.
0.51792 0.00499998 0.
0.519922 0.00500001 0.
0.521924 0.00500004 0.
0.523925 0.00500002 0.
0.525925 0.005 0.
0.527926 0.00500003 0.
0.529927 0.00500028 0.
0.531928 0.00500053 0.
0.533929 0.00500057 0.
0.53593 0.00500033 0.
0.537932 0.00500008 0.
0.539934 0.00500002 0.
0.541939 0.00500002 0.
0.543943 0.00500003 0.
0.545945 0.00500003 0.
0.547945 0.00500002 0.
0.549945 0.00500002 0.
0.551945 0.005001 0.
0.553945 0.00500201 0.
0.555945 0.00500257 0.
0.557944 0.00500148 0.
0.559944 0.00500038 0.
0.561943 0.00500002 0.
0.563944 0.00500054 0.
0.565944 0.00500106 0.
0.567945 0.00500089 0.
0.569947 0.00500043 0.
0.571948 0.00499997 0.
0.573949 0.00499998 0.
0.575949 0.00500003 0.
0.577949 0.00500029 0.
0.579948 0.00500249 0.
0.581946 0.00500469 0.
0.583944 0.00500639 0.
0.58594 0.00500709 0.
0.587936 0.00500779 0.
0.589933 0.00500632 0.
0.591932 0.00500314 0.
0.59393 0.00499998 0.
0.595949 0.00500469 0.
0.597975 0.00501176 0.
0.6 0.00501885 0.
0.602026 0.00501187 0.
0.604052 0.0050049 0.
0.606072 0.00500004 0.
0.60807 0.00500196 0.
0.610069 0.00500387 0.
0.612067 0.00500471 0.
0.614064 0.00500422 0.
0.616062 0.00500373 0.
0.61806 0.00500415 0.
0.620059 0.00500499 0.
0.622057 0.00500584 0.
0.624055 0.0050043 0.
0.626053 0.00500252 0.
0.628051 0.00500096 0.
0.63005 0.00500061 0.
0.63205 0.00500027 0.
0.634051 0.00500003 0.
0.636054 0.00500004 0.
0.638057 0.00500005 0.
0.640059 0.00500006 0.
0.642059 0.00500006 0.
0.64406 0.00500006 0.
0.646059 0.00500122 0.
0.648058 0.00500269 0.
0.650057 0.00500413 0.
0.652056 0.00500265 0.
0.654055 0.00500117 0.
0.656055 0.00500005 0.
0.658061 0.00500004 0.
0.660067 0.00500004 0.
0.662071 0.00500001 0.
0.664073 0.00500002 0.
0.666076 0.00500003 0.
0.668076 0.00500081 0.
0.670075 0.00500192 0.
0.672075 0.00500303 0.
0.674075 0.00500205 0.
0.676075 0.0050009 0.
0.678075 0.00500001 0.
0.680076 0.00500064 0.
0.682077 0.00500127 0.
0.684079 0.0050016 0.
0.68608 0.00500133 0.
0.688082 0.00500107 0.
0.690083 0.0050011 0.
0.692084 0.00500131 0.
0.694085 0.00500153 0.
0.696087 0.00500165 0.
0.698089 0.00500173 0.
0.499914 0.00700294 0.
0.501914 0.00700317 0.
0.503915 0.00700351 0.
0.505916 0.00700379 0.
0.507917 0.00700377 0.
0.509917 0.00700376 0.
0.511918 0.00700368 0.
0.513919 0.00700346 0.
0.515921 0.00700325 0.
0.517922 0.00700324 0.
0.519923 0.00700336 0.
0.521925 0.00700348 0.
0.523926 0.00700374 0.
0.525927 0.00700401 0.
0.527928 0.00700426 0.
0.529929 0.00700422 0.
0.53193 0.00700417 0.
0.533931 0.00700445 0.
0.535932 0.00700552 0.
0.537934 0.00700659 0.
0.539936 0.00700672 0.
0.541939 0.00700597 0.
0.543942 0.00700523 0.
0.545943 0.0070048 0.
0.547944 0.00700446 0.
0.549945 0.00700413 0.
0.551945 0.00700486 0.
0.553945 0.00700563 0.
0.555945 0.00700622 0.
0.557946 0.00700621 0.
0.559946 0.0070062 0.
0.561946 0.00700626 0.
0.563946 0.00700639 0.
0.565947 0.00700652 0.
0.567947 0.0070071 0.
0.569948 0.00700797 0.
0.571949 0.00700884 0.
0.573949 0.00700913 0.
0.575949 0.00700931 0.
0.577949 0.00700954 0.
0.579949 0.00701007 0.
0.581948 0.00701061 0.
0.583947 0.00701104 0.
0.585946 0.00701128 0.
0.587944 0.00701152 0.
0.589943 0.00700949 0.
0.591944 0.00700561 0.
0.593944 0.00700173 0.
0.59596 0.0070077 0.
0.59798 0.00701667 0.
0.6 0.00702565 0.
0.602021 0.0070167 0.
0.604043 0.00700777 0.
0.606059 0.00700171 0.
0.608059 0.0070048 0.
0.610059 0.00700789 0.
0.612059 0.00700956 0.
0.614057 0.00700952 0.
0.616056 0.00700947 0.
0.618055 0.00700962 0.
0.620055 0.00700988 0.
0.622054 0.00701015 0.
0.624053 0.00700887 0.
0.626051 0.00700745 0.
0.62805 0.00700639 0.
0.63005 0.00700766 0.
0.632051 0.00700895 0.
0.634051 0.00700932 0.
0.636053 0.00700805 0.
0.638055 0.00700677 0.
0.640056 0.00700618 0.
0.642057 0.00700611 0.
0.644057 0.00700604 0.
0.646058 0.00700622 0.
0.648058 0.00700647 0.
0.650058 0.00700674 0.
0.652058 0.00700723 0.
0.654058 0.00700773 0.
0.656059 0.00700835 0.
0.658063 0.00700939 0.
0.660066 0.00701043 0.
0.662069 0.00701033 0.
0.664071 0.00700898 0.
0.666072 0.00700762 0.
0.668073 0.00700679 0.
0.670073 0.0070062 0.
0.672073 0.00700561 0.
0.674074 0.007005 0.
0.676075 0.00700437 0.
0.678075 0.00700383 0.
0.680077 0.00700381 0.
0.682078 0.0070038 0.
0.684079 0.00700379 0.
0.68608 0.00700371 0.
0.688081 0.00700363 0.
0.690083 0.00700357 0.
0.692083 0.00700351 0.
0.694084 0.00700346 0.
0.696086 0.00700377 0.
0.698087 0.00700417 0.
0.499914 0.00900506 0.
0.501915 0.00900528 0.
0.503916 0.00900554 0.
0.505917 0.00900575 0.
0.507918 0.00900577 0.
0.509919 0.00900579 0.
0.51192 0.0090059 0.
0.513921 0.00900611 0.
0.515922 0.00900632 0.
0.517924 0.0090065 0.
0.519925 0.00900671 0.
0.521926 0.00900692 0.
0.523927 0.00900746 0.
0.525928 0.00900803 0.
0.527929 0.0090085 0.
0.52993 0.00900815 0.
0.531932 0.0090078 0.
0.533933 0.00900833 0.
0.535934 0.00901071 0.
0.537936 0.0090131 0.
0.539937 0.00901341 0.
0.541939 0.00901192 0.
0.543941 0.00901043 0.
0.545942 0.00900957 0.
0.547943 0.0090089 0.
0.549944 0.00900823 0.
0.551945 0.00900872 0.
0.553945 0.00900924 0.
0.555946 0.00900988 0.
0.557947 0.00901095 0.
0.559948 0.00901202 0.
0.561949 0.0090125 0.
0.563949 0.00901224 0.
0.565949 0.00901199 0.
0.567949 0.00901331 0.
0.569949 0.0090155 0.
0.57195 0.0090177 0.
0.57395 0.00901828 0.
0.57595 0.0090186 0.
0.57795 0.00901878 0.
0.57995 0.00901766 0.
0.58195 0.00901654 0.
0.58395 0.00901569 0.
0.585951 0.00901547 0.
0.587952 0.00901525 0.
0.589954 0.00901264 0.
0.591956 0.00900804 0.
0.593959 0.00900345 0.
0.595971 0.00901073 0.
0.597986 0.00902158 0.
0.6 0.00903244 0.
0.602017 0.00902154 0.
0.604033 0.00901066 0.
0.606046 0.00900336 0.
0.608048 0.00900763 0.
0.61005 0.0090119 0.
0.612051 0.00901441 0.
0.614051 0.00901481 0.
0.61605 0.0090152 0.
0.61805 0.00901509 0.
0.620051 0.00901477 0.
0.622051 0.00901446 0.
0.624051 0.00901346 0.
0.62605 0.00901238 0.
0.62805 0.00901181 0.
0.63005 0.00901471 0.
0.632051 0.00901761 0.
0.634052 0.00901861 0.
0.636052 0.00901605 0.
0.638052 0.00901349 0.
0.640053 0.00901231 0.
0.642054 0.00901217 0.
0.644055 0.00901203 0.
0.646056 0.00901123 0.
0.648057 0.00901026 0.
0.650059 0.00900935 0.
0.65206 0.00901181 0.
0.654061 0.00901427 0.
0.656063 0.00901666 0.
0.658064 0.00901874 0.
0.660066 0.00902081 0.
0.662067 0.00902066 0.
0.664068 0.00901794 0.
0.666069 0.00901522 0.
0.66807 0.00901276 0.
0.670071 0.00901047 0.
0.672072 0.00900819 0.
0.674073 0.00900794 0.
0.676074 0.00900784 0.
0.678076 0.00900764 0.
0.680077 0.00900698 0.
0.682078 0.00900633 0.
0.684079 0.00900599 0.
0.68608 0.00900609 0.
0.688081 0.00900619 0.
0.690082 0.00900604 0.
0.692083 0.00900571 0.
0.694084 0.00900539 0.
0.696085 0.00900589 0.
0.698086 0.00900661 0.
0.499915 0.0110061 0.
0.501916 0.0110063 0.
0.503917 0.0110066 0.
0.505918 0.0110067 0.
0.507919 0.0110068 0.
0.50992 0.0110068 0.
0.511921 0.011007 0.
0.513922 0.0110074 0.
0.515924 0.0110078 0.
0.517925 0.011008 0.
0.519925 0.0110082 0.
0.521926 0.0110083 0.
0.523928 0.0110089 0.
0.525929 0.0110096 0.
0.52793 0.0110101 0.
0.529932 0.0110097 0.
0.531933 0.0110093 0.
0.533934 0.0110099 0.
0.535936 0.0110125 0.
0.537937 0.0110151 0.
0.539939 0.0110155 0.
0.54194 0.0110139 0.
0.543941 0.0110124 0.
0.545942 0.0110115 0.
0.547943 0.0110107 0.
0.549945 0.0110099 0.
0.551946 0.0110104 0.
0.553946 0.0110109 0.
0.555947 0.0110116 0.
0.557949 0.0110129 0.
0.55995 0.0110142 0.
0.56195 0.0110148 0.
0.563951 0.0110146 0.
0.565951 0.0110144 0.
0.567951 0.0110159 0.
0.569951 0.0110183 0.
0.571952 0.0110206 0.
0.573952 0.0110214 0.
0.575952 0.0110219 0.
0.577953 0.0110222 0.
0.579953 0.0110204 0.
0.581954 0.0110187 0.
0.583956 0.0110172 0.
0.585958 0.0110165 0.
0.58796 0.0110158 0.
0.589963 0.0110132 0.
0.591966 0.0110089 0.
0.593969 0.0110046 0.
0.595979 0.0110111 0.
0.59799 0.0110207 0.
0.600001 0.0110303 0.
0.602013 0.0110206 0.
0.604025 0.0110108 0.
0.606035 0.0110042 0.
0.608038 0.0110084 0.
0.610041 0.0110125 0.
0.612043 0.0110152 0.
0.614044 0.0110161 0.
0.616045 0.0110171 0.
0.618046 0.011017 0.
0.620046 0.0110166 0.
0.622047 0.0110162 0.
0.624048 0.0110154 0.
0.626048 0.0110145 0.
0.628048 0.0110142 0.
0.630049 0.0110174 0.
0.63205 0.0110206 0.
0.634051 0.0110218 0.
0.636051 0.0110191 0.
0.638051 0.0110163 0.
0.640051 0.0110151 0.
0.642052 0.0110148 0.
0.644053 0.0110146 0.
0.646054 0.0110134 0.
0.648056 0.0110119 0.
0.650058 0.0110105 0.
0.65206 0.0110136 0.
0.654062 0.0110168 0.
0.656063 0.0110197 0.
0.658064 0.0110221 0.
0.660065 0.0110244 0.
0.662065 0.0110243 0.
0.664066 0.0110212 0.
0.666067 0.0110182 0.
0.668068 0.0110152 0.
0.67007 0.0110123 0.
0.672071 0.0110094 0.
0.674073 0.0110093 0.
0.676074 0.0110094 0.
0.678076 0.0110094 0.
0.680077 0.0110086 0.
0.682078 0.0110079 0.
0.684079 0.0110074 0.
0.68608 0.0110075 0.
0.688081 0.0110076 0.
0.690081 0.0110075 0.
0.692082 0.0110073 0.
0.694083 0.0110071 0.
0.696084 0.0110076 0.
0.698084 0.0110084 0.
0.499915 0.0130061 0.
0.501916 0.0130064 0.
0.503917 0.0130066 0.
0.505918 0.0130067 0.
0.50792 0.0130067 0.
0.509921 0.0130067 0.
0.511922 0.0130069 0.
0.513923 0.0130073 0.
0.515924 0.0130077 0.
0.517925 0.0130078 0.
0.519926 0.0130078 0.
0.521927 0.0130077 0.
0.523928 0.0130081 0.
0.52593 0.0130086 0.
0.527931 0.013009 0.
0.529933 0.0130089 0.
0.531934 0.0130088 0.
0.533935 0.0130092 0.
0.535937 0.0130109 0.
0.537939 0.0130126 0.
0.53994 0.0130129 0.
0.541941 0.013012 0.
0.543942 0.0130112 0.
0.545944 0.0130105 0.
0.547945 0.0130098 0.
0.549946 0.0130092 0.
0.551948 0.0130099 0.
0.553949 0.0130106 0.
0.55595 0.0130113 0.
0.55795 0.013012 0.
0.559951 0.0130127 0.
0.561951 0.0130132 0.
0.563952 0.0130135 0.
0.565952 0.0130139 0.
0.567953 0.0130149 0.
0.569954 0.0130163 0.
0.571955 0.0130178 0.
0.573956 0.0130186 0.
0.575957 0.0130193 0.
0.577958 0.0130198 0.
0.57996 0.0130184 0.
0.581961 0.0130171 0.
0.583963 0.0130157 0.
0.585965 0.0130145 0.
0.587967 0.0130133 0.
0.58997 0.0130111 0.
0.591973 0.0130081 0.
0.593977 0.0130052 0.
0.595984 0.0130087 0.
0.597993 0.0130142 0.
0.600001 0.0130197 0.
0.60201 0.0130139 0.
0.604019 0.0130081 0.
0.606027 0.0130043 0.
0.60803 0.0130071 0.
0.610033 0.0130098 0.
0.612035 0.013012 0.
0.614037 0.0130135 0.
0.616039 0.0130151 0.
0.618041 0.0130155 0.
0.620042 0.0130154 0.
0.622043 0.0130153 0.
0.624044 0.0130146 0.
0.626044 0.0130139 0.
0.628045 0.0130136 0.
0.630046 0.0130158 0.
0.632048 0.0130181 0.
0.634049 0.013019 0.
0.63605 0.0130172 0.
0.63805 0.0130154 0.
0.640051 0.0130144 0.
0.642051 0.0130141 0.
0.644052 0.0130138 0.
0.646053 0.0130128 0.
0.648055 0.0130115 0.
0.650056 0.0130103 0.
0.652058 0.0130128 0.
0.65406 0.0130153 0.
0.656061 0.0130176 0.
0.658062 0.0130195 0.
0.660064 0.0130214 0.
0.662065 0.0130213 0.
0.664066 0.0130189 0.
0.666067 0.0130165 0.
0.668069 0.0130141 0.
0.67007 0.0130117 0.
0.672072 0.0130093 0.
0.674073 0.0130091 0.
0.676074 0.0130091 0.
0.678075 0.0130091 0.
0.680076 0.0130087 0.
0.682078 0.0130084 0.
0.684079 0.0130081 0.
0.686079 0.013008 0.
0.68808 0.0130079 0.
0.690081 0.013008 0.
0.692081 0.0130082 0.
0.694082 0.0130085 0.
0.696082 0.013009 0.
0.698083 0.0130096 0.
0.499916 0.0150062 0.
0.501917 0.0150064 0.
0.503918 0.0150066 0.
0.505919 0.0150067 0.
0.50792 0.0150067 0.
0.509922 0.0150067 0.
0.511923 0.0150069 0.
0.513923 0.0150073 0.
0.515924 0.0150077 0.
0.517925 0.0150076 0.
0.519926 0.0150073 0.
0.521927 0.0150071 0.
0.523929 0.0150073 0.
0.52593 0.0150076 0.
0.527932 0.0150079 0.
0.529933 0.0150081 0.
0.531935 0.0150082 0.
0.533936 0.0150085 0.
0.535938 0.0150093 0.
0.53794 0.0150101 0.
0.539941 0.0150103 0.
0.541942 0.0150102 0.
0.543943 0.01501 0.
0.545945 0.0150095 0.
0.547946 0.015009 0.
0.549948 0.0150084 0.
0.551949 0.0150094 0.
0.553951 0.0150103 0.
0.555952 0.0150111 0.
0.557952 0.0150111 0.
0.559952 0.0150112 0.
0.561952 0.0150115 0.
0.563953 0.0150124 0.
0.565954 0.0150133 0.
0.567955 0.0150139 0.
0.569956 0.0150144 0.
0.571958 0.0150149 0.
0.57396 0.0150158 0.
0.575962 0.0150167 0.
0.577963 0.0150174 0.
0.579966 0.0150164 0.
0.581968 0.0150154 0.
0.58397 0.0150142 0.
0.585972 0.0150125 0.
0.587975 0.0150108 0.
0.589977 0.0150091 0.
0.591981 0.0150074 0.
0.593984 0.0150057 0.
0.595989 0.0150064 0.
0.597995 0.0150077 0.
0.600001 0.0150091 0.
0.602007 0.0150073 0.
0.604013 0.0150055 0.
0.606018 0.0150044 0.
0.608022 0.0150058 0.
0.610025 0.0150071 0.
0.612028 0.0150088 0.
0.614031 0.0150109 0.
0.616034 0.0150131 0.
0.618036 0.0150139 0.
0.620038 0.0150142 0.
0.622039 0.0150144 0.
0.62404 0.0150139 0.
0.626041 0.0150133 0.
0.628042 0.0150129 0.
0.630044 0.0150143 0.
0.632045 0.0150156 0.
0.634047 0.0150161 0.
0.636048 0.0150153 0.
0.63805 0.0150144 0.
0.64005 0.0150138 0.
0.64205 0.0150134 0.
0.64405 0.015013 0.
0.646052 0.0150121 0.
0.648053 0.015011 0.
0.650055 0.01501 0.
0.652056 0.0150119 0.
0.654057 0.0150138 0.
0.656059 0.0150156 0.
0.65806 0.015017 0.
0.660062 0.0150184 0.
0.662064 0.0150184 0.
0.664066 0.0150166 0.
0.666067 0.0150149 0.
0.668069 0.015013 0.
0.670071 0.0150111 0.
0.672072 0.0150091 0.
0.674073 0.0150089 0.
0.676074 0.0150088 0.
0.678075 0.0150088 0.
0.680076 0.0150088 0.
0.682077 0.0150089 0.
0.684078 0.0150088 0.
0.686079 0.0150085 0.
0.68808 0.0150081 0.
0.69008 0.0150085 0.
0.69208 0.0150092 0.
0.694081 0.0150099 0.
0.696081 0.0150104 0.
0.698081 0.0150108 0.
0.499917 0.0170075 0.
0.501918 0.0170074 0.
0.503919 0.0170073 0.
0.50592 0.0170073 0.
0.507921 0.0170072 0.
0.509922 0.0170072 0.
0.511923 0.0170073 0.
0.513924 0.0170073 0.
0.515925 0.0170074 0.
0.517926 0.0170073 0.
0.519927 0.0170071 0.
0.521929 0.0170069 0.
0.52393 0.0170072 0.
0.525932 0.0170075 0.
0.527933 0.0170078 0.
0.529935 0.0170079 0.
0.531936 0.0170081 0.
0.533937 0.0170083 0.
0.535939 0.0170088 0.
0.53794 0.0170093 0.
0.539941 0.0170095 0.
0.541943 0.0170092 0.
0.543945 0.017009 0.
0.545946 0.0170088 0.
0.547948 0.0170086 0.
0.549949 0.0170084 0.
0.55195 0.0170092 0.
0.553951 0.0170102 0.
0.555952 0.0170109 0.
0.557953 0.0170109 0.
0.559953 0.017011 0.
0.561954 0.0170113 0.
0.563955 0.017012 0.
0.565956 0.0170127 0.
0.567957 0.0170133 0.
0.569959 0.017014 0.
0.57196 0.0170146 0.
0.573962 0.0170151 0.
0.575964 0.0170156 0.
0.577965 0.0170159 0.
0.579968 0.0170149 0.
0.58197 0.0170138 0.
0.583972 0.0170125 0.
0.585975 0.0170107 0.
0.587977 0.017009 0.
0.58998 0.0170075 0.
0.591983 0.0170062 0.
0.593986 0.017005 0.
0.59599 0.0170053 0.
0.597996 0.0170062 0.
0.600001 0.0170071 0.
0.602006 0.0170058 0.
0.604011 0.0170045 0.
0.606016 0.0170037 0.
0.608019 0.0170048 0.
0.610022 0.017006 0.
0.612025 0.0170074 0.
0.614028 0.0170091 0.
0.616031 0.0170107 0.
0.618033 0.0170117 0.
0.620034 0.0170124 0.
0.622036 0.017013 0.
0.624038 0.0170128 0.
0.626039 0.0170126 0.
0.62804 0.0170125 0.
0.630042 0.0170132 0.
0.632043 0.0170139 0.
0.634045 0.0170144 0.
0.636046 0.0170143 0.
0.638048 0.0170142 0.
0.640049 0.0170138 0.
0.642049 0.017013 0.
0.64405 0.0170123 0.
0.646051 0.0170115 0.
0.648052 0.0170108 0.
0.650053 0.0170101 0.
0.652054 0.0170114 0.
0.654055 0.0170127 0.
0.656057 0.0170141 0.
0.658058 0.0170154 0.
0.66006 0.0170168 0.
0.662062 0.0170169 0.
0.664064 0.0170157 0.
0.666066 0.0170144 0.
0.668068 0.017013 0.
0.670069 0.0170116 0.
0.672071 0.0170102 0.
0.674071 0.0170094 0.
0.676072 0.0170086 0.
0.678073 0.017008 0.
0.680074 0.0170082 0.
0.682075 0.0170083 0.
0.684077 0.0170085 0.
0.686077 0.0170088 0.
0.688078 0.017009 0.
0.690079 0.0170094 0.
0.69208 0.0170099 0.
0.69408 0.0170104 0.
0.696081 0.0170109 0.
0.698081 0.0170115 0.
0.499919 0.0190088 0.
0.50192 0.0190084 0.
0.503921 0.0190081 0.
0.505921 0.0190078 0.
0.507922 0.0190078 0.
0.509922 0.0190077 0.
0.511923 0.0190076 0.
0.513924 0.0190074 0.
0.515926 0.0190072 0.
0.517927 0.019007 0.
0.519928 0.0190068 0.
0.52193 0.0190067 0.
0.523931 0.019007 0.
0.525933 0.0190074 0.
0.527935 0.0190077 0.
0.529936 0.0190078 0.
0.531937 0.0190079 0.
0.533939 0.019008 0.
0.535939 0.0190083 0.
0.53794 0.0190086 0.
0.539942 0.0190086 0.
0.541944 0.0190083 0.
0.543946 0.019008 0.
0.545948 0.019008 0.
0.547949 0.0190082 0.
0.549951 0.0190083 0.
0.551952 0.0190091 0.
0.553952 0.01901 0.
0.555953 0.0190107 0.
0.557954 0.0190107 0.
0.559954 0.0190107 0.
0.561955 0.019011 0.
0.563957 0.0190115 0.
0.565958 0.019012 0.
0.56796 0.0190127 0.
0.569961 0.0190135 0.
0.571962 0.0190144 0.
0.573964 0.0190145 0.
0.575966 0.0190145 0.
0.577967 0.0190144 0.
0.57997 0.0190133 0.
0.581972 0.0190122 0.
0.583974 0.0190108 0.
0.585977 0.019009 0.
0.58798 0.0190072 0.
0.589982 0.0190059 0.
0.591985 0.0190051 0.
0.593987 0.0190043 0.
0.595991 0.0190043 0.
0.597996 0.0190046 0.
0.600001 0.019005 0.
0.602005 0.0190042 0.
0.604009 0.0190034 0.
0.606013 0.019003 0.
0.608016 0.0190039 0.
0.610019 0.0190049 0.
0.612022 0.0190059 0.
0.614025 0.0190072 0.
0.616027 0.0190084 0.
0.618029 0.0190096 0.
0.620031 0.0190106 0.
0.622033 0.0190116 0.
0.624035 0.0190118 0.
0.626037 0.0190119 0.
0.628038 0.019012 0.
0.63004 0.0190122 0.
0.632041 0.0190123 0.
0.634043 0.0190127 0.
0.636044 0.0190134 0.
0.638045 0.0190141 0.
0.640047 0.0190138 0.
0.642048 0.0190126 0.
0.644049 0.0190115 0.
0.64605 0.019011 0.
0.648051 0.0190105 0.
0.650052 0.0190101 0.
0.652053 0.0190109 0.
0.654053 0.0190117 0.
0.656054 0.0190126 0.
0.658056 0.0190138 0.
0.660059 0.0190151 0.
0.662061 0.0190155 0.
0.664063 0.0190147 0.
0.666065 0.0190139 0.
0.668067 0.0190131 0.
0.670068 0.0190122 0.
0.672069 0.0190113 0.
0.67407 0.0190099 0.
0.67607 0.0190084 0.
0.678071 0.0190072 0.
0.680072 0.0190075 0.
0.682074 0.0190078 0.
0.684075 0.0190083 0.
0.686076 0.0190091 0.
0.688077 0.0190099 0.
0.690078 0.0190104 0.
0.692079 0.0190107 0.
0.69408 0.019011 0.
0.696081 0.0190115 0.
0.698081 0.0190121 0.
0.49992 0.0210101 0.
0.501921 0.0210094 0.
0.503922 0.0210089 0.
0.505922 0.0210084 0.
0.507923 0.0210082 0.
0.509923 0.021008 0.
0.511924 0.0210077 0.
0.513925 0.0210074 0.
0.515927 0.021007 0.
0.517928 0.0210067 0.
0.51993 0.0210065 0.
0.521931 0.0210063 0.
0.523933 0.0210065 0.
0.525934 0.0210067 0.
0.527936 0.0210069 0.
0.529937 0.0210071 0.
0.531939 0.0210073 0.
0.53394 0.0210074 0.
0.53594 0.0210075 0.
0.537941 0.0210075 0.
0.539943 0.0210073 0.
0.541945 0.0210069 0.
0.543947 0.0210065 0.
0.545949 0.0210068 0.
0.54795 0.0210073 0.
0.549952 0.0210077 0.
0.551953 0.0210085 0.
0.553953 0.0210093 0.
0.555954 0.02101 0.
0.557955 0.0210101 0.
0.559956 0.0210102 0.
0.561958 0.0210104 0.
0.563959 0.0210107 0.
0.56596 0.021011 0.
0.567962 0.0210116 0.
0.569963 0.0210124 0.
0.571964 0.0210132 0.
0.573966 0.0210131 0.
0.575968 0.021013 0.
0.57797 0.0210127 0.
0.579972 0.0210115 0.
0.581974 0.0210103 0.
0.583976 0.0210089 0.
0.585979 0.0210072 0.
0.587981 0.0210055 0.
0.589984 0.0210044 0.
0.591986 0.0210037 0.
0.593989 0.021003 0.
0.595992 0.0210029 0.
0.597996 0.021003 0.
0.6 0.0210031 0.
0.602004 0.0210026 0.
0.604008 0.0210021 0.
0.606012 0.0210018 0.
0.608015 0.0210026 0.
0.610017 0.0210033 0.
0.61202 0.0210042 0.
0.614022 0.0210051 0.
0.616024 0.0210061 0.
0.618026 0.0210074 0.
0.620029 0.0210087 0.
0.622031 0.0210101 0.
0.624033 0.0210104 0.
0.626034 0.0210105 0.
0.628036 0.0210107 0.
0.630038 0.0210107 0.
0.632039 0.0210107 0.
0.634041 0.021011 0.
0.636042 0.021012 0.
0.638043 0.021013 0.
0.640045 0.0210127 0.
0.642046 0.0210116 0.
0.644047 0.0210105 0.
0.646048 0.0210101 0.
0.648049 0.0210098 0.
0.65005 0.0210095 0.
0.652051 0.0210099 0.
0.654052 0.0210103 0.
0.656053 0.0210109 0.
0.658055 0.0210121 0.
0.660057 0.0210133 0.
0.662059 0.0210137 0.
0.664061 0.0210132 0.
0.666064 0.0210127 0.
0.668065 0.0210122 0.
0.670066 0.0210118 0.
0.672067 0.0210113 0.
0.674068 0.0210099 0.
0.676068 0.0210084 0.
0.678069 0.0210071 0.
0.680071 0.0210074 0.
0.682072 0.0210077 0.
0.684073 0.0210082 0.
0.686074 0.0210091 0.
0.688075 0.0210101 0.
0.690076 0.0210106 0.
0.692078 0.021011 0.
0.694079 0.0210113 0.
0.69608 0.0210121 0.
0.69808 0.021013 0.
0.499922 0.0230113 0.
0.501922 0.0230104 0.
0.503923 0.0230097 0.
0.505924 0.023009 0.
0.507924 0.0230085 0.
0.509925 0.0230079 0.
0.511926 0.0230075 0.
0.513927 0.0230072 0.
0.515928 0.0230069 0.
0.51793 0.0230066 0.
0.519931 0.0230061 0.
0.521932 0.0230057 0.
0.523934 0.0230055 0.
0.525936 0.0230054 0.
0.527938 0.0230053 0.
0.529939 0.0230057 0.
0.531939 0.0230062 0.
0.53394 0.0230065 0.
0.535942 0.0230063 0.
0.537943 0.0230061 0.
0.539945 0.0230058 0.
0.541946 0.0230052 0.
0.543948 0.0230047 0.
0.54595 0.0230051 0.
0.547951 0.0230059 0.
0.549953 0.0230067 0.
0.551954 0.0230074 0.
0.553955 0.0230082 0.
0.555957 0.0230089 0.
0.557958 0.0230091 0.
0.559959 0.0230093 0.
0.56196 0.0230094 0.
0.563961 0.0230095 0.
0.565962 0.0230097 0.
0.567964 0.02301 0.
0.569965 0.0230105 0.
0.571967 0.023011 0.
0.573969 0.023011 0.
0.575971 0.023011 0.
0.577972 0.0230108 0.
0.579974 0.0230094 0.
0.581976 0.0230081 0.
0.583978 0.0230067 0.
0.585981 0.0230053 0.
0.587983 0.023004 0.
0.589985 0.0230029 0.
0.591988 0.0230021 0.
0.59399 0.0230013 0.
0.595994 0.0230012 0.
0.597997 0.0230013 0.
0.6 0.0230015 0.
0.602004 0.0230009 0.
0.604008 0.0230004 0.
0.606011 0.0230001 0.
0.608013 0.0230008 0.
0.610016 0.0230014 0.
0.612018 0.0230021 0.
0.61402 0.0230029 0.
0.616022 0.0230038 0.
0.618024 0.0230052 0.
0.620027 0.0230068 0.
0.622029 0.0230085 0.
0.62403 0.0230086 0.
0.626032 0.0230085 0.
0.628034 0.0230084 0.
0.630036 0.0230087 0.
0.632038 0.023009 0.
0.634039 0.0230095 0.
0.63604 0.0230102 0.
0.638041 0.0230109 0.
0.640043 0.0230107 0.
0.642044 0.02301 0.
0.644045 0.0230093 0.
0.646046 0.0230089 0.
0.648047 0.0230085 0.
0.650048 0.0230082 0.
0.65205 0.0230084 0.
0.654051 0.0230087 0.
0.656052 0.0230091 0.
0.658054 0.0230101 0.
0.660056 0.0230111 0.
0.662058 0.0230115 0.
0.66406 0.0230111 0.
0.666061 0.0230107 0.
0.668063 0.0230105 0.
0.670064 0.0230103 0.
0.672066 0.0230102 0.
0.674066 0.0230094 0.
0.676067 0.0230085 0.
0.678068 0.0230078 0.
0.680069 0.0230078 0.
0.68207 0.0230079 0.
0.684071 0.0230082 0.
0.686072 0.0230088 0.
0.688074 0.0230094 0.
0.690075 0.0230101 0.
0.692076 0.0230108 0.
0.694077 0.0230115 0.
0.696078 0.0230128 0.
0.698079 0.0230142 0.
0.499923 0.0250125 0.
0.501924 0.0250115 0.
0.503924 0.0250105 0.
0.505925 0.0250096 0.
0.507926 0.0250087 0.
0.509927 0.0250079 0.
0.511928 0.0250073 0.
0.513929 0.0250071 0.
0.51593 0.0250069 0.
0.517931 0.0250064 0.
0.519932 0.0250057 0.
0.521934 0.0250051 0.
0.523935 0.0250046 0.
0.525937 0.0250041 0.
0.527939 0.0250037 0.
0.52994 0.0250044 0.
0.53194 0.0250052 0.
0.533941 0.0250056 0.
0.535943 0.0250052 0.
0.537945 0.0250048 0.
0.539946 0.0250042 0.
0.541948 0.0250035 0.
0.54395 0.0250028 0.
0.545951 0.0250034 0.
0.547952 0.0250045 0.
0.549953 0.0250056 0.
0.551955 0.0250063 0.
0.553957 0.0250071 0.
0.555959 0.0250078 0.
0.55796 0.0250081 0.
0.559962 0.0250083 0.
0.561963 0.0250085 0.
0.563963 0.0250084 0.
0.565964 0.0250083 0.
0.567966 0.0250084 0.
0.569967 0.0250086 0.
0.571969 0.0250088 0.
0.573971 0.0250089 0.
0.575973 0.025009 0.
0.577975 0.0250089 0.
0.579977 0.0250074 0.
0.581979 0.0250059 0.
0.583981 0.0250045 0.
0.585982 0.0250035 0.
0.587984 0.0250024 0.
0.589987 0.0250015 0.
0.591989 0.0250005 0.
0.593992 0.0249996 0.
0.595995 0.0249995 0.
0.597998 0.0249996 0.
0.6 0.0249998 0.
0.602004 0.0249993 0.
0.604007 0.0249988 0.
0.60601 0.0249985 0.
0.608012 0.024999 0.
0.610015 0.0249994 0.
0.612017 0.025 0.
0.614019 0.0250007 0.
0.61602 0.0250014 0.
0.618022 0.025003 0.
0.620025 0.0250049 0.
0.622027 0.0250069 0.
0.624028 0.0250068 0.
0.62603 0.0250064 0.
0.628031 0.0250062 0.
0.630034 0.0250068 0.
0.632036 0.0250074 0.
0.634038 0.025008 0.
0.636038 0.0250084 0.
0.638039 0.0250088 0.
0.64004 0.0250087 0.
0.642042 0.0250084 0.
0.644043 0.025008 0.
0.646044 0.0250077 0.
0.648045 0.0250073 0.
0.650046 0.0250069 0.
0.652048 0.0250069 0.
0.65405 0.025007 0.
0.656051 0.0250073 0.
0.658053 0.0250081 0.
0.660054 0.025009 0.
0.662056 0.0250093 0.
0.664058 0.025009 0.
0.666059 0.0250086 0.
0.668061 0.0250087 0.
0.670062 0.025009 0.
0.672064 0.0250092 0.
0.674065 0.0250089 0.
0.676066 0.0250087 0.
0.678066 0.0250084 0.
0.680067 0.0250083 0.
0.682068 0.0250082 0.
0.684069 0.0250082 0.
0.686071 0.0250085 0.
0.688072 0.0250088 0.
0.690073 0.0250096 0.
0.692074 0.0250107 0.
0.694075 0.0250118 0.
0.696076 0.0250135 0.
0.698078 0.0250153 0.
0.499924 0.0270131 0.
0.501925 0.0270119 0.
0.503926 0.0270107 0.
0.505927 0.0270096 0.
0.507928 0.0270086 0.
0.509929 0.0270077 0.
0.51193 0.0270069 0.
0.513931 0.0270064 0.
0.515932 0.0270058 0.
0.517933 0.0270053 0.
0.519934 0.0270047 0.
0.521936 0.0270042 0.
0.523938 0.0270038 0.
0.525939 0.0270035 0.
0.527941 0.0270032 0.
0.529942 0.0270035 0.
0.531943 0.0270038 0.
0.533944 0.0270039 0.
0.535946 0.0270037 0.
0.537947 0.0270035 0.
0.539948 0.0270033 0.
0.54195 0.0270029 0.
0.543951 0.0270025 0.
0.545952 0.0270029 0.
0.547953 0.0270035 0.
0.549954 0.0270042 0.
0.551956 0.0270051 0.
0.553957 0.027006 0.
0.555959 0.0270068 0.
0.55796 0.0270071 0.
0.559962 0.0270073 0.
0.561963 0.0270073 0.
0.563964 0.0270072 0.
0.565966 0.027007 0.
0.567967 0.0270069 0.
0.569969 0.0270069 0.
0.571971 0.0270069 0.
0.573972 0.0270071 0.
0.575974 0.0270073 0.
0.577976 0.0270074 0.
0.579978 0.0270059 0.
0.58198 0.0270044 0.
0.583982 0.027003 0.
0.585984 0.027002 0.
0.587985 0.027001 0.
0.589988 0.027 0.
0.59199 0.026999 0.
0.593992 0.0269981 0.
0.595995 0.0269982 0.
0.597998 0.0269987 0.
0.6 0.0269992 0.
0.602004 0.0269984 0.
0.604007 0.0269975 0.
0.60601 0.026997 0.
0.608012 0.0269978 0.
0.610013 0.0269986 0.
0.612015 0.0269993 0.
0.614017 0.0269999 0.
0.616019 0.0270005 0.
0.618021 0.0270017 0.
0.620023 0.0270031 0.
0.622025 0.0270045 0.
0.624027 0.0270047 0.
0.626028 0.0270047 0.
0.62803 0.0270047 0.
0.630032 0.0270055 0.
0.632034 0.0270063 0.
0.634036 0.0270069 0.
0.636037 0.0270074 0.
0.638038 0.0270078 0.
0.640039 0.0270077 0.
0.64204 0.0270073 0.
0.644042 0.0270069 0.
0.646043 0.0270064 0.
0.648044 0.027006 0.
0.650045 0.0270055 0.
0.652047 0.0270056 0.
0.654048 0.0270058 0.
0.65605 0.0270061 0.
0.658051 0.0270069 0.
0.660053 0.0270077 0.
0.662055 0.0270081 0.
0.664056 0.0270079 0.
0.666058 0.0270078 0.
0.668059 0.0270079 0.
0.67006 0.027008 0.
0.672062 0.0270082 0.
0.674063 0.0270078 0.
0.676063 0.0270074 0.
0.678064 0.027007 0.
0.680066 0.0270075 0.
0.682067 0.0270079 0.
0.684068 0.0270083 0.
0.686069 0.0270088 0.
0.688071 0.0270092 0.
0.690072 0.02701 0.
0.692073 0.0270112 0.
0.694074 0.0270124 0.
0.696075 0.0270142 0.
0.698076 0.0270161 0.
0.499925 0.0290138 0.
0.501927 0.0290123 0.
0.503928 0.0290109 0.
0.505929 0.0290096 0.
0.50793 0.0290085 0.
0.509931 0.0290074 0.
0.511932 0.0290065 0.
0.513933 0.0290056 0.
0.515934 0.0290048 0.
0.517935 0.0290042 0.
0.519937 0.0290037 0.
0.521938 0.0290032 0.
0.52394 0.0290031 0.
0.525941 0.029003 0.
0.527942 0.0290028 0.
0.529944 0.0290026 0.
0.531945 0.0290023 0.
0.533947 0.0290022 0.
0.535948 0.0290023 0.
0.53795 0.0290023 0.
0.539951 0.0290023 0.
0.541951 0.0290023 0.
0.543952 0.0290023 0.
0.545953 0.0290024 0.
0.547954 0.0290026 0.
0.549955 0.0290028 0.
0.551956 0.0290039 0.
0.553958 0.029005 0.
0.555959 0.0290059 0.
0.55796 0.0290061 0.
0.559962 0.0290062 0.
0.561964 0.0290062 0.
0.563965 0.029006 0.
0.565967 0.0290057 0.
0.567969 0.0290055 0.
0.56997 0.0290052 0.
0.571972 0.029005 0.
0.573974 0.0290053 0.
0.575975 0.0290056 0.
0.577977 0.0290058 0.
0.579979 0.0290043 0.
0.581981 0.0290029 0.
0.583984 0.0290015 0.
0.585985 0.0290005 0.
0.587987 0.0289995 0.
0.589988 0.0289985 0.
0.591991 0.0289975 0.
0.593993 0.0289965 0.
0.595995 0.028997 0.
0.597998 0.0289978 0.
0.6 0.0289987 0.
0.602004 0.0289975 0.
0.604007 0.0289963 0.
0.606009 0.0289956 0.
0.608011 0.0289966 0.
0.610012 0.0289977 0.
0.612014 0.0289986 0.
0.614016 0.0289991 0.
0.616018 0.0289995 0.
0.61802 0.0290003 0.
0.620021 0.0290013 0.
0.622023 0.0290022 0.
0.624025 0.0290026 0.
0.626027 0.0290029 0.
0.628029 0.0290033 0.
0.63003 0.0290042 0.
0.632032 0.0290051 0.
0.634034 0.0290059 0.
0.636035 0.0290064 0.
0.638036 0.0290068 0.
0.640037 0.0290068 0.
0.642039 0.0290063 0.
0.64404 0.0290058 0.
0.646042 0.0290052 0.
0.648043 0.0290047 0.
0.650044 0.0290041 0.
0.652045 0.0290043 0.
0.654047 0.0290045 0.
0.656048 0.0290048 0.
0.65805 0.0290056 0.
0.660052 0.0290064 0.
0.662053 0.0290068 0.
0.664055 0.0290069 0.
0.666056 0.0290069 0.
0.668057 0.029007 0.
0.670058 0.0290071 0.
0.67206 0.0290072 0.
0.674061 0.0290067 0.
0.676061 0.029006 0.
0.678062 0.0290056 0.
0.680064 0.0290067 0.
0.682066 0.0290077 0.
0.684067 0.0290085 0.
0.686068 0.029009 0.
0.68807 0.0290095 0.
0.690071 0.0290105 0.
0.692072 0.0290117 0.
0.694073 0.029013 0.
0.696074 0.0290149 0.
0.698075 0.0290169 0.
0.499927 0.0310146 0.
0.501929 0.0310128 0.
0.50393 0.0310111 0.
0.505931 0.0310095 0.
0.507932 0.0310083 0.
0.509933 0.0310071 0.
0.511934 0.031006 0.
0.513935 0.031005 0.
0.515936 0.031004 0.
0.517937 0.0310033 0.
0.519939 0.0310028 0.
0.52194 0.0310023 0.
0.523942 0.0310021 0.
0.525943 0.0310021 0.
0.527944 0.031002 0.
0.529946 0.0310016 0.
0.531947 0.0310012 0.
0.533949 0.0310009 0.
0.53595 0.031001 0.
0.537951 0.0310011 0.
0.539952 0.0310012 0.
0.541953 0.0310013 0.
0.543953 0.0310015 0.
0.545954 0.0310015 0.
0.547955 0.0310016 0.
0.549956 0.0310016 0.
0.551958 0.0310026 0.
0.553959 0.0310036 0.
0.55596 0.0310045 0.
0.557962 0.0310047 0.
0.559963 0.0310049 0.
0.561965 0.0310049 0.
0.563967 0.0310046 0.
0.565969 0.0310043 0.
0.56797 0.031004 0.
0.569972 0.0310036 0.
0.571974 0.0310032 0.
0.573975 0.0310034 0.
0.575976 0.0310036 0.
0.577978 0.0310038 0.
0.57998 0.0310025 0.
0.581983 0.0310013 0.
0.583985 0.0310001 0.
0.585986 0.030999 0.
0.587988 0.0309979 0.
0.58999 0.0309969 0.
0.591991 0.0309961 0.
0.593993 0.0309953 0.
0.595996 0.0309958 0.
0.597998 0.0309967 0.
0.6 0.0309976 0.
0.602003 0.0309965 0.
0.604006 0.0309953 0.
0.606009 0.0309947 0.
0.60801 0.0309957 0.
0.610011 0.0309968 0.
0.612013 0.0309976 0.
0.614015 0.030998 0.
0.616017 0.0309984 0.
0.618019 0.030999 0.
0.62002 0.0309997 0.
0.622021 0.0310004 0.
0.624023 0.0310009 0.
0.626025 0.0310014 0.
0.628027 0.0310019 0.
0.630029 0.0310028 0.
0.63203 0.0310038 0.
0.634032 0.0310045 0.
0.636033 0.0310049 0.
0.638035 0.0310054 0.
0.640036 0.0310053 0.
0.642038 0.0310048 0.
0.644039 0.0310043 0.
0.64604 0.0310039 0.
0.648042 0.0310035 0.
0.650043 0.0310031 0.
0.652044 0.0310032 0.
0.654045 0.0310033 0.
0.656046 0.0310036 0.
0.658048 0.0310043 0.
0.66005 0.031005 0.
0.662052 0.0310055 0.
0.664053 0.0310057 0.
0.666054 0.0310059 0.
0.668055 0.0310061 0.
0.670056 0.0310061 0.
0.672058 0.0310062 0.
0.674059 0.0310057 0.
0.67606 0.0310051 0.
0.678061 0.0310047 0.
0.680062 0.0310061 0.
0.682064 0.0310075 0.
0.684065 0.0310085 0.
0.686067 0.0310091 0.
0.688068 0.0310097 0.
0.690069 0.0310107 0.
0.69207 0.0310119 0.
0.694071 0.0310132 0.
0.696072 0.0310151 0.
0.698073 0.0310172 0.
0.49993 0.0330153 0.
0.501931 0.0330132 0.
0.503932 0.0330111 0.
0.505933 0.0330092 0.
0.507934 0.0330079 0.
0.509935 0.0330067 0.
0.511936 0.0330055 0.
0.513938 0.0330045 0.
0.515939 0.0330035 0.
0.51794 0.0330027 0.
0.519941 0.0330019 0.
0.521942 0.0330012 0.
0.523943 0.033001 0.
0.525944 0.0330009 0.
0.527945 0.0330007 0.
0.529947 0.0330005 0.
0.531948 0.0330002 0.
0.53395 0.033 0.
0.535951 0.033 0.
0.537953 0.033 0.
0.539954 0.033 0.
0.541955 0.033 0.
0.543956 0.0330001 0.
0.545956 0.0330003 0.
0.547957 0.0330005 0.
0.549958 0.0330007 0.
0.55196 0.0330013 0.
0.553961 0.033002 0.
0.555963 0.0330026 0.
0.557964 0.0330029 0.
0.559966 0.0330031 0.
0.561967 0.0330032 0.
0.563969 0.033003 0.
0.56597 0.0330028 0.
0.567972 0.0330024 0.
0.569973 0.033002 0.
0.571975 0.0330016 0.
0.573976 0.0330015 0.
0.575978 0.0330014 0.
0.57798 0.0330012 0.
0.579982 0.0330005 0.
0.581984 0.0329997 0.
0.583986 0.0329988 0.
0.585988 0.0329975 0.
0.58799 0.0329961 0.
0.589991 0.0329953 0.
0.591993 0.0329949 0.
0.593994 0.0329944 0.
0.595996 0.0329948 0.
0.597998 0.0329953 0.
0.6 0.0329959 0.
0.602003 0.0329953 0.
0.604005 0.0329947 0.
0.606008 0.0329944 0.
0.608009 0.032995 0.
0.610011 0.0329957 0.
0.612012 0.0329963 0.
0.614014 0.0329967 0.
0.616016 0.0329972 0.
0.618017 0.0329978 0.
0.620019 0.0329984 0.
0.62202 0.0329991 0.
0.624022 0.0329996 0.
0.626024 0.0330001 0.
0.628026 0.0330006 0.
0.630027 0.0330014 0.
0.632028 0.0330022 0.
0.63403 0.0330028 0.
0.636032 0.0330031 0.
0.638034 0.0330034 0.
0.640035 0.0330033 0.
0.642036 0.0330029 0.
0.644037 0.0330025 0.
0.646039 0.0330023 0.
0.64804 0.0330023 0.
0.650042 0.0330022 0.
0.652042 0.0330022 0.
0.654043 0.0330021 0.
0.656044 0.0330023 0.
0.658046 0.0330029 0.
0.660048 0.0330035 0.
0.662049 0.033004 0.
0.664051 0.0330044 0.
0.666052 0.0330048 0.
0.668053 0.033005 0.
0.670054 0.033005 0.
0.672056 0.0330051 0.
0.674057 0.0330048 0.
0.676058 0.0330044 0.
0.67806 0.0330043 0.
0.680061 0.0330058 0.
0.682062 0.0330072 0.
0.684063 0.0330084 0.
0.686064 0.033009 0.
0.688065 0.0330096 0.
0.690066 0.0330106 0.
0.692067 0.0330118 0.
0.694068 0.0330131 0.
0.696069 0.033015 0.
0.69807 0.033017 0.
0.499933 0.0350161 0.
0.501934 0.0350136 0.
0.503935 0.0350112 0.
0.505936 0.0350089 0.
0.507936 0.0350076 0.
0.509937 0.0350063 0.
0.511938 0.035005 0.
0.51394 0.035004 0.
0.515942 0.035003 0.
0.517943 0.035002 0.
0.519944 0.0350011 0.
0.521944 0.0350002 0.
0.523945 0.0349999 0.
0.525946 0.0349997 0.
0.527947 0.0349995 0.
0.529948 0.0349994 0.
0.531949 0.0349993 0.
0.533951 0.0349991 0.
0.535952 0.034999 0.
0.537954 0.0349988 0.
0.539955 0.0349987 0.
0.541957 0.0349987 0.
0.543958 0.0349987 0.
0.545958 0.034999 0.
0.547959 0.0349994 0.
0.54996 0.0349998 0.
0.551962 0.0350001 0.
0.553964 0.0350004 0.
0.555965 0.0350007 0.
0.557967 0.035001 0.
0.559968 0.0350014 0.
0.56197 0.0350016 0.
0.563971 0.0350014 0.
0.565972 0.0350013 0.
0.567973 0.0350009 0.
0.569974 0.0350004 0.
0.571976 0.0349999 0.
0.573978 0.0349995 0.
0.57598 0.0349991 0.
0.577981 0.0349988 0.
0.579983 0.0349984 0.
0.581985 0.0349981 0.
0.583987 0.0349974 0.
0.585989 0.0349959 0.
0.587991 0.0349944 0.
0.589993 0.0349937 0.
0.591994 0.0349936 0.
0.593995 0.0349936 0.
0.595997 0.0349937 0.
0.597999 0.034994 0.
0.6 0.0349942 0.
0.602003 0.0349942 0.
0.604005 0.0349941 0.
0.606007 0.0349942 0.
0.608008 0.0349944 0.
0.61001 0.0349946 0.
0.612011 0.0349949 0.
0.614013 0.0349955 0.
0.616014 0.034996 0.
0.618016 0.0349966 0.
0.620017 0.0349972 0.
0.622019 0.0349978 0.
0.62402 0.0349983 0.
0.626022 0.0349988 0.
0.628024 0.0349993 0.
0.630025 0.035 0.
0.632027 0.0350006 0.
0.634028 0.0350011 0.
0.636031 0.0350013 0.
0.638033 0.0350015 0.
0.640034 0.0350014 0.
0.642035 0.035001 0.
0.644036 0.0350007 0.
0.646037 0.0350008 0.
0.648039 0.0350011 0.
0.650041 0.0350014 0.
0.652041 0.0350012 0.
0.654041 0.035001 0.
0.656042 0.0350009 0.
0.658044 0.0350014 0.
0.660045 0.0350019 0.
0.662047 0.0350025 0.
0.664048 0.0350031 0.
0.66605 0.0350037 0.
0.668051 0.0350039 0.
0.670052 0.0350039 0.
0.672054 0.035004 0.
0.674055 0.0350039 0.
0.676057 0.0350038 0.
0.678058 0.0350039 0.
0.680059 0.0350055 0.
0.68206 0.035007 0.
0.684061 0.0350082 0.
0.686062 0.0350089 0.
0.688063 0.0350095 0.
0.690064 0.0350105 0.
0.692065 0.0350117 0.
0.694066 0.035013 0.
0.696067 0.0350148 0.
0.698067 0.0350167 0.
0.499936 0.0370155 0.
0.501937 0.0370134 0.
0.503938 0.0370113 0.
0.505939 0.0370092 0.
0.50794 0.0370078 0.
0.50994 0.0370063 0.
0.511941 0.037005 0.
0.513943 0.0370039 0.
0.515944 0.0370027 0.
0.517945 0.0370018 0.
0.519946 0.037001 0.
0.521946 0.0370001 0.
0.523947 0.0369998 0.
0.525948 0.0369995 0.
0.527948 0.0369993 0.
0.52995 0.036999 0.
0.531951 0.0369987 0.
0.533952 0.0369984 0.
0.535954 0.0369982 0.
0.537955 0.0369979 0.
0.539957 0.0369979 0.
0.541958 0.0369981 0.
0.543959 0.0369982 0.
0.54596 0.0369983 0.
0.547961 0.0369984 0.
0.549962 0.0369984 0.
0.551963 0.0369989 0.
0.553965 0.0369993 0.
0.555966 0.0369997 0.
0.557968 0.0369999 0.
0.559969 0.0370002 0.
0.56197 0.0370002 0.
0.563972 0.0369999 0.
0.565973 0.0369995 0.
0.567974 0.0369992 0.
0.569976 0.0369989 0.
0.571977 0.0369987 0.
0.573979 0.0369981 0.
0.57598 0.0369974 0.
0.577982 0.0369968 0.
0.579984 0.0369962 0.
0.581985 0.0369957 0.
0.583987 0.0369951 0.
0.585989 0.0369942 0.
0.587991 0.0369933 0.
0.589993 0.0369928 0.
0.591994 0.0369927 0.
0.593995 0.0369925 0.
0.595997 0.0369928 0.
0.597999 0.0369931 0.
0.600001 0.0369935 0.
0.602003 0.0369932 0.
0.604005 0.036993 0.
0.606007 0.0369929 0.
0.608008 0.0369931 0.
0.61001 0.0369934 0.
0.612011 0.0369938 0.
0.614012 0.0369942 0.
0.616014 0.0369946 0.
0.618015 0.0369952 0.
0.620017 0.0369959 0.
0.622018 0.0369965 0.
0.62402 0.0369969 0.
0.626022 0.0369974 0.
0.628023 0.0369978 0.
0.630024 0.0369984 0.
0.632026 0.0369991 0.
0.634027 0.0369995 0.
0.636029 0.0369996 0.
0.638031 0.0369997 0.
0.640033 0.0369998 0.
0.642034 0.0369999 0.
0.644035 0.037 0.
0.646036 0.037 0.
0.648038 0.037 0.
0.650039 0.037 0.
0.652039 0.0369999 0.
0.65404 0.0369997 0.
0.65604 0.0369997 0.
0.658042 0.0370001 0.
0.660044 0.0370005 0.
0.662045 0.0370011 0.
0.664047 0.0370019 0.
0.666048 0.0370027 0.
0.668049 0.037003 0.
0.670051 0.037003 0.
0.672052 0.0370031 0.
0.674053 0.037003 0.
0.676055 0.0370029 0.
0.678056 0.037003 0.
0.680057 0.0370047 0.
0.682058 0.0370063 0.
0.684059 0.0370076 0.
0.686059 0.0370084 0.
0.68806 0.0370092 0.
0.690061 0.0370102 0.
0.692062 0.0370115 0.
0.694063 0.0370127 0.
0.696064 0.0370145 0.
0.698065 0.0370164 0.
0.499939 0.039015 0.
0.50194 0.0390132 0.
0.503941 0.0390114 0.
0.505942 0.0390095 0.
0.507943 0.039008 0.
0.509944 0.0390064 0.
0.511945 0.0390049 0.
0.513946 0.0390037 0.
0.515946 0.0390025 0.
0.517947 0.0390016 0.
0.519948 0.0390008 0.
0.521948 0.039 0.
0.523949 0.0389996 0.
0.525949 0.0389993 0.
0.52795 0.038999 0.
0.529951 0.0389985 0.
0.531953 0.0389981 0.
0.533954 0.0389977 0.
0.535955 0.0389974 0.
0.537957 0.0389971 0.
0.539958 0.0389971 0.
0.541959 0.0389974 0.
0.54396 0.0389977 0.
0.545961 0.0389976 0.
0.547963 0.0389973 0.
0.549964 0.0389971 0.
0.551965 0.0389976 0.
0.553966 0.0389982 0.
0.555968 0.0389986 0.
0.557969 0.0389988 0.
0.55997 0.038999 0.
0.561971 0.0389989 0.
0.563972 0.0389983 0.
0.565974 0.0389978 0.
0.567975 0.0389975 0.
0.569977 0.0389975 0.
0.571978 0.0389974 0.
0.57398 0.0389966 0.
0.575981 0.0389957 0.
0.577982 0.0389948 0.
0.579984 0.038994 0.
0.581986 0.0389933 0.
0.583987 0.0389928 0.
0.585989 0.0389925 0.
0.587991 0.0389923 0.
0.589993 0.038992 0.
0.591994 0.0389917 0.
0.593996 0.0389915 0.
0.595998 0.0389918 0.
0.597999 0.0389923 0.
0.600001 0.0389928 0.
0.602003 0.0389923 0.
0.604005 0.0389918 0.
0.606006 0.0389916 0.
0.608008 0.0389919 0.
0.610009 0.0389923 0.
0.612011 0.0389926 0.
0.614012 0.0389929 0.
0.616014 0.0389932 0.
0.618015 0.0389938 0.
0.620017 0.0389945 0.
0.622018 0.0389952 0.
0.62402 0.0389956 0.
0.626021 0.0389959 0.
0.628022 0.0389963 0.
0.630023 0.0389969 0.
0.632024 0.0389975 0.
0.634026 0.0389979 0.
0.636027 0.0389978 0.
0.638029 0.0389978 0.
0.640031 0.0389982 0.
0.642033 0.0389988 0.
0.644035 0.0389993 0.
0.646036 0.0389992 0.
0.648036 0.0389989 0.
0.650037 0.0389986 0.
0.652038 0.0389986 0.
0.654038 0.0389985 0.
0.656039 0.0389985 0.
0.65804 0.0389989 0.
0.660042 0.0389991 0.
0.662043 0.0389998 0.
0.664045 0.0390007 0.
0.666046 0.0390017 0.
0.668048 0.0390021 0.
0.670049 0.0390021 0.
0.67205 0.0390021 0.
0.674051 0.0390021 0.
0.676052 0.039002 0.
0.678053 0.0390021 0.
0.680054 0.0390038 0.
0.682055 0.0390056 0.
0.684056 0.039007 0.
0.686057 0.0390079 0.
0.688058 0.0390089 0.
0.690059 0.03901 0.
0.69206 0.0390112 0.
0.694061 0.0390124 0.
0.696062 0.0390141 0.
0.698063 0.039016 0.
0.499942 0.0410152 0.
0.501943 0.0410133 0.
0.503944 0.0410114 0.
0.505945 0.0410096 0.
0.507945 0.041008 0.
0.509946 0.0410064 0.
0.511947 0.0410049 0.
0.513948 0.0410035 0.
0.515949 0.0410021 0.
0.517949 0.0410012 0.
0.51995 0.0410005 0.
0.521951 0.0409999 0.
0.523951 0.0409993 0.
0.525952 0.0409988 0.
0.527952 0.0409983 0.
0.529953 0.0409977 0.
0.531955 0.040997 0.
0.533956 0.0409965 0.
0.535957 0.0409963 0.
0.537959 0.0409961 0.
0.53996 0.0409962 0.
0.541961 0.0409965 0.
0.543962 0.0409969 0.
0.545963 0.0409966 0.
0.547964 0.0409962 0.
0.549965 0.0409957 0.
0.551967 0.0409964 0.
0.553968 0.0409971 0.
0.555969 0.0409977 0.
0.55797 0.0409976 0.
0.559971 0.0409976 0.
0.561972 0.0409973 0.
0.563974 0.0409968 0.
0.565975 0.0409962 0.
0.567977 0.040996 0.
0.569978 0.040996 0.
0.57198 0.0409961 0.
0.573981 0.0409952 0.
0.575982 0.0409943 0.
0.577983 0.0409933 0.
0.579985 0.0409924 0.
0.581986 0.0409916 0.
0.583988 0.040991 0.
0.58599 0.0409911 0.
0.587991 0.0409912 0.
0.589993 0.0409911 0.
0.591994 0.0409908 0.
0.593996 0.0409905 0.
0.595998 0.0409909 0.
0.598 0.0409914 0.
0.600001 0.0409919 0.
0.602003 0.0409914 0.
0.604005 0.0409909 0.
0.606006 0.0409906 0.
0.608007 0.0409909 0.
0.610009 0.0409912 0.
0.61201 0.0409915 0.
0.614012 0.0409917 0.
0.616013 0.0409919 0.
0.618015 0.0409925 0.
0.620016 0.0409933 0.
0.622017 0.040994 0.
0.624019 0.0409944 0.
0.62602 0.0409947 0.
0.628021 0.0409951 0.
0.630022 0.0409956 0.
0.632023 0.040996 0.
0.634025 0.0409963 0.
0.636026 0.0409963 0.
0.638027 0.0409964 0.
0.640029 0.0409969 0.
0.642031 0.0409976 0.
0.644034 0.0409984 0.
0.646034 0.0409983 0.
0.648035 0.0409979 0.
0.650036 0.0409975 0.
0.652036 0.0409975 0.
0.654037 0.0409976 0.
0.656037 0.0409977 0.
0.658039 0.0409979 0.
0.66004 0.0409982 0.
0.662041 0.0409987 0.
0.664043 0.0409995 0.
0.666044 0.0410004 0.
0.668046 0.0410009 0.
0.670047 0.0410012 0.
0.672048 0.0410016 0.
0.674049 0.0410015 0.
0.67605 0.0410013 0.
0.67805 0.0410014 0.
0.680052 0.0410032 0.
0.682053 0.0410049 0.
0.684054 0.0410064 0.
0.686055 0.0410074 0.
0.688056 0.0410084 0.
0.690056 0.0410096 0.
0.692057 0.041011 0.
0.694058 0.0410124 0.
0.696059 0.0410143 0.
0.698061 0.0410163 0.
0.499944 0.0430159 0.
0.501945 0.0430135 0.
0.503946 0.0430114 0.
0.505947 0.0430095 0.
0.507948 0.0430079 0.
0.509948 0.0430063 0.
0.511949 0.0430047 0.
0.51395 0.0430031 0.
0.515951 0.0430015 0.
0.517952 0.0430006 0.
0.519952 0.0430001 0.
0.521953 0.0429997 0.
0.523954 0.0429989 0.
0.525954 0.042998 0.
0.527955 0.0429972 0.
0.529956 0.0429964 0.
0.531957 0.0429955 0.
0.533958 0.0429949 0.
0.53596 0.042995 0.
0.537962 0.042995 0.
0.539963 0.0429951 0.
0.541964 0.0429955 0.
0.543965 0.0429958 0.
0.545966 0.0429955 0.
0.547967 0.0429949 0.
0.549967 0.0429944 0.
0.551968 0.0429952 0.
0.553969 0.0429961 0.
0.55597 0.0429967 0.
0.557972 0.0429964 0.
0.559973 0.042996 0.
0.561974 0.0429956 0.
0.563975 0.0429952 0.
0.565977 0.0429947 0.
0.567978 0.0429946 0.
0.569979 0.0429946 0.
0.571981 0.0429947 0.
0.573982 0.042994 0.
0.575983 0.0429932 0.
0.577984 0.0429924 0.
0.579986 0.0429914 0.
0.581987 0.0429905 0.
0.583989 0.0429898 0.
0.58599 0.04299 0.
0.587991 0.0429901 0.
0.589993 0.0429901 0.
0.591994 0.0429899 0.
0.593996 0.0429898 0.
0.595998 0.0429901 0.
0.597999 0.0429904 0.
0.600001 0.0429908 0.
0.602003 0.0429905 0.
0.604004 0.0429901 0.
0.606006 0.0429899 0.
0.608007 0.0429901 0.
0.610008 0.0429903 0.
0.612009 0.0429904 0.
0.614011 0.0429906 0.
0.616012 0.0429907 0.
0.618014 0.0429913 0.
0.620015 0.0429921 0.
0.622016 0.0429928 0.
0.624018 0.0429933 0.
0.626019 0.0429937 0.
0.628021 0.0429941 0.
0.630022 0.0429943 0.
0.632023 0.0429945 0.
0.634024 0.0429947 0.
0.636025 0.042995 0.
0.638026 0.0429953 0.
0.640028 0.0429958 0.
0.64203 0.0429965 0.
0.644032 0.0429972 0.
0.646033 0.0429972 0.
0.648034 0.0429969 0.
0.650035 0.0429967 0.
0.652035 0.0429968 0.
0.654035 0.0429969 0.
0.656036 0.0429971 0.
0.658037 0.0429973 0.
0.660038 0.0429976 0.
0.662039 0.0429979 0.
0.66404 0.0429982 0.
0.666042 0.0429986 0.
0.668043 0.0429994 0.
0.670044 0.0430003 0.
0.672046 0.0430013 0.
0.674047 0.0430012 0.
0.676048 0.0430009 0.
0.678048 0.0430009 0.
0.680049 0.0430026 0.
0.68205 0.0430043 0.
0.684051 0.0430058 0.
0.686052 0.0430067 0.
0.688053 0.0430077 0.
0.690054 0.0430092 0.
0.692054 0.043011 0.
0.694055 0.0430127 0.
0.696056 0.0430149 0.
0.698057 0.0430172 0.
0.499946 0.0450166 0.
0.501947 0.0450137 0.
0.503948 0.0450115 0.
0.505949 0.0450093 0.
0.50795 0.0450078 0.
0.50995 0.0450063 0.
0.511951 0.0450046 0.
0.513952 0.0450027 0.
0.515953 0.0450009 0.
0.517954 0.045 0.
0.519955 0.0449998 0.
0.521955 0.0449995 0.
0.523956 0.0449985 0.
0.525957 0.0449973 0.
0.527958 0.0449961 0.
0.529959 0.0449951 0.
0.53196 0.0449941 0.
0.533961 0.0449934 0.
0.535963 0.0449936 0.
0.537964 0.0449938 0.
0.539966 0.0449941 0.
0.541967 0.0449944 0.
0.543968 0.0449948 0.
0.545969 0.0449944 0.
0.547969 0.0449937 0.
0.549969 0.044993 0.
0.55197 0.044994 0.
0.553971 0.0449951 0.
0.555972 0.0449958 0.
0.557973 0.0449951 0.
0.559974 0.0449945 0.
0.561976 0.0449939 0.
0.563977 0.0449936 0.
0.565978 0.0449932 0.
0.567979 0.0449931 0.
0.569981 0.0449932 0.
0.571982 0.0449933 0.
0.573983 0.0449928 0.
0.575984 0.0449921 0.
0.577985 0.0449915 0.
0.579987 0.0449904 0.
0.581988 0.0449894 0.
0.58399 0.0449887 0.
0.585991 0.0449888 0.
0.587992 0.044989 0.
0.589993 0.0449891 0.
0.591994 0.0449891 0.
0.593996 0.044989 0.
0.595997 0.0449892 0.
0.597999 0.0449895 0.
0.600001 0.0449897 0.
0.602002 0.0449896 0.
0.604004 0.0449894 0.
0.606005 0.0449893 0.
0.608007 0.0449893 0.
0.610008 0.0449893 0.
0.612009 0.0449894 0.
0.61401 0.0449894 0.
0.616012 0.0449895 0.
0.618013 0.0449901 0.
0.620014 0.0449909 0.
0.622015 0.0449916 0.
0.624017 0.0449922 0.
0.626018 0.0449927 0.
0.62802 0.0449931 0.
0.630021 0.0449931 0.
0.632022 0.044993 0.
0.634023 0.0449931 0.
0.636024 0.0449937 0.
0.638025 0.0449942 0.
0.640027 0.0449948 0.
0.642028 0.0449954 0.
0.64403 0.044996 0.
0.646031 0.044996 0.
0.648032 0.0449959 0.
0.650034 0.0449958 0.
0.652034 0.044996 0.
0.654033 0.0449963 0.
0.656034 0.0449965 0.
0.658035 0.0449967 0.
0.660036 0.044997 0.
0.662037 0.0449971 0.
0.664038 0.0449969 0.
0.666039 0.0449968 0.
0.668041 0.0449979 0.
0.670042 0.0449995 0.
0.672043 0.045001 0.
0.674045 0.0450009 0.
0.676046 0.0450005 0.
0.678047 0.0450004 0.
0.680047 0.0450021 0.
0.682048 0.0450037 0.
0.684048 0.0450051 0.
0.686049 0.0450061 0.
0.68805 0.045007 0.
0.690051 0.0450087 0.
0.692052 0.0450109 0.
0.694052 0.045013 0.
0.696052 0.0450156 0.
0.698053 0.0450182 0.
0.499949 0.0470163 0.
0.50195 0.0470139 0.
0.503951 0.0470117 0.
0.505952 0.0470096 0.
0.507953 0.0470076 0.
0.509953 0.0470057 0.
0.511954 0.0470039 0.
0.513954 0.0470023 0.
0.515955 0.0470007 0.
0.517956 0.0469997 0.
0.519957 0.0469991 0.
0.521958 0.0469984 0.
0.523959 0.0469975 0.
0.52596 0.0469965 0.
0.527961 0.0469954 0.
0.529961 0.0469944 0.
0.531962 0.0469934 0.
0.533963 0.0469927 0.
0.535965 0.0469925 0.
0.537966 0.0469924 0.
0.539967 0.0469926 0.
0.541968 0.0469931 0.
0.543969 0.0469936 0.
0.54597 0.0469934 0.
0.54797 0.0469928 0.
0.549971 0.0469922 0.
0.551972 0.0469931 0.
0.553973 0.046994 0.
0.555974 0.0469946 0.
0.557975 0.0469941 0.
0.559976 0.0469935 0.
0.561977 0.0469929 0.
0.563978 0.0469924 0.
0.565979 0.0469918 0.
0.567981 0.0469917 0.
0.569982 0.0469919 0.
0.571983 0.0469921 0.
0.573984 0.0469916 0.
0.575985 0.046991 0.
0.577986 0.0469903 0.
0.579988 0.0469894 0.
0.581989 0.0469884 0.
0.58399 0.0469878 0.
0.585991 0.046988 0.
0.587993 0.0469881 0.
0.589993 0.0469881 0.
0.591994 0.046988 0.
0.593995 0.0469879 0.
0.595997 0.0469882 0.
0.597999 0.0469886 0.
0.6 0.046989 0.
0.602002 0.0469888 0.
0.604003 0.0469886 0.
0.606004 0.0469884 0.
0.608006 0.0469885 0.
0.610007 0.0469885 0.
0.612008 0.0469885 0.
0.614009 0.0469884 0.
0.61601 0.0469883 0.
0.618012 0.0469889 0.
0.620013 0.0469899 0.
0.622014 0.0469909 0.
0.624016 0.0469912 0.
0.626017 0.0469914 0.
0.628019 0.0469916 0.
0.63002 0.0469914 0.
0.632021 0.0469912 0.
0.634022 0.0469914 0.
0.636023 0.046992 0.
0.638025 0.0469927 0.
0.640026 0.0469933 0.
0.642027 0.0469937 0.
0.644029 0.0469941 0.
0.64603 0.0469945 0.
0.648031 0.0469948 0.
0.650032 0.0469952 0.
0.652032 0.0469952 0.
0.654032 0.0469953 0.
0.656032 0.0469954 0.
0.658033 0.0469954 0.
0.660034 0.0469955 0.
0.662035 0.0469957 0.
0.664036 0.0469959 0.
0.666037 0.0469962 0.
0.668038 0.0469971 0.
0.670039 0.0469984 0.
0.67204 0.0469997 0.
0.674041 0.047 0.
0.676042 0.0470001 0.
0.678043 0.0470004 0.
0.680044 0.0470021 0.
0.682044 0.0470039 0.
0.684045 0.0470053 0.
0.686046 0.0470064 0.
0.688047 0.0470075 0.
0.690048 0.0470091 0.
0.692049 0.0470111 0.
0.694049 0.0470132 0.
0.69605 0.0470157 0.
0.698051 0.0470183 0.
0.499952 0.0490161 0.
0.501954 0.049014 0.
0.503954 0.049012 0.
0.505955 0.0490099 0.
0.507955 0.0490075 0.
0.509956 0.0490051 0.
0.511956 0.0490031 0.
0.513957 0.0490019 0.
0.515957 0.0490006 0.
0.517958 0.0489994 0.
0.519959 0.0489984 0.
0.52196 0.0489973 0.
0.523961 0.0489964 0.
0.525962 0.0489956 0.
0.527963 0.0489948 0.
0.529964 0.0489938 0.
0.531965 0.0489928 0.
0.533966 0.0489919 0.
0.535967 0.0489915 0.
0.537968 0.048991 0.
0.539968 0.0489912 0.
0.541969 0.0489918 0.
0.54397 0.0489925 0.
0.545971 0.0489923 0.
0.547971 0.0489919 0.
0.549972 0.0489914 0.
0.551973 0.0489922 0.
0.553974 0.048993 0.
0.555975 0.0489935 0.
0.557976 0.048993 0.
0.559977 0.0489925 0.
0.561978 0.0489919 0.
0.56398 0.0489912 0.
0.565981 0.0489904 0.
0.567982 0.0489903 0.
0.569983 0.0489906 0.
0.571984 0.0489909 0.
0.573985 0.0489904 0.
0.575986 0.0489898 0.
0.577987 0.0489891 0.
0.579988 0.0489883 0.
0.58199 0.0489875 0.
0.583991 0.048987 0.
0.585992 0.0489871 0.
0.587993 0.0489872 0.
0.589994 0.0489871 0.
0.591994 0.0489869 0.
0.593995 0.0489868 0.
0.595997 0.0489872 0.
0.597998 0.0489878 0.
0.6 0.0489884 0.
0.602001 0.0489881 0.
0.604002 0.0489878 0.
0.606003 0.0489876 0.
0.608005 0.0489877 0.
0.610007 0.0489877 0.
0.612008 0.0489876 0.
0.614009 0.0489873 0.
0.616009 0.048987 0.
0.61801 0.0489877 0.
0.620012 0.0489889 0.
0.622013 0.0489901 0.
0.624015 0.0489902 0.
0.626016 0.0489902 0.
0.628017 0.0489901 0.
0.630018 0.0489898 0.
0.632019 0.0489895 0.
0.63402 0.0489896 0.
0.636022 0.0489904 0.
0.638024 0.0489912 0.
0.640025 0.0489917 0.
0.642026 0.0489919 0.
0.644027 0.0489921 0.
0.646028 0.0489929 0.
0.648029 0.0489937 0.
0.65003 0.0489945 0.
0.65203 0.0489944 0.
0.65403 0.0489943 0.
0.65603 0.0489942 0.
0.658031 0.0489941 0.
0.660032 0.048994 0.
0.662033 0.0489942 0.
0.664034 0.0489949 0.
0.666035 0.0489955 0.
0.668036 0.0489964 0.
0.670037 0.0489974 0.
0.672037 0.0489984 0.
0.674038 0.0489991 0.
0.676039 0.0489996 0.
0.678039 0.0490004 0.
0.68004 0.0490022 0.
0.682041 0.049004 0.
0.684042 0.0490055 0.
0.686043 0.0490067 0.
0.688044 0.0490079 0.
0.690045 0.0490095 0.
0.692046 0.0490114 0.
0.694047 0.0490133 0.
0.696048 0.0490159 0.
0.698049 0.0490185 0.
0.499956 0.0510155 0.
0.501956 0.0510136 0.
0.503957 0.0510118 0.
0.505958 0.0510099 0.
0.507958 0.0510073 0.
0.509958 0.0510047 0.
0.511959 0.0510027 0.
0.513959 0.0510015 0.
0.51596 0.0510003 0.
0.517961 0.0509991 0.
0.519962 0.0509979 0.
0.521963 0.0509966 0.
0.523963 0.0509958 0.
0.525964 0.050995 0.
0.527965 0.0509943 0.
0.529966 0.0509933 0.
0.531967 0.0509924 0.
0.533968 0.0509915 0.
0.535968 0.0509909 0.
0.537969 0.0509902 0.
0.53997 0.0509902 0.
0.54197 0.0509907 0.
0.543971 0.0509912 0.
0.545972 0.0509911 0.
0.547973 0.0509908 0.
0.549974 0.0509905 0.
0.551975 0.0509912 0.
0.553976 0.0509919 0.
0.555977 0.0509923 0.
0.557978 0.050992 0.
0.559979 0.0509917 0.
0.56198 0.0509912 0.
0.563981 0.0509903 0.
0.565982 0.0509894 0.
0.567983 0.0509893 0.
0.569984 0.0509896 0.
0.571985 0.0509898 0.
0.573986 0.0509894 0.
0.575987 0.0509888 0.
0.577988 0.0509882 0.
0.579989 0.0509875 0.
0.58199 0.0509869 0.
0.583991 0.0509864 0.
0.585992 0.0509862 0.
0.587993 0.0509861 0.
0.589994 0.050986 0.
0.591995 0.050986 0.
0.593995 0.050986 0.
0.595997 0.0509865 0.
0.597999 0.0509871 0.
0.6 0.0509877 0.
0.602001 0.0509873 0.
0.604002 0.0509869 0.
0.606003 0.0509867 0.
0.608005 0.0509869 0.
0.610006 0.0509872 0.
0.612007 0.0509871 0.
0.614008 0.0509867 0.
0.616008 0.0509863 0.
0.618009 0.0509869 0.
0.620011 0.0509881 0.
0.622012 0.0509892 0.
0.624013 0.0509892 0.
0.626015 0.0509891 0.
0.628016 0.0509889 0.
0.630017 0.0509887 0.
0.632018 0.0509884 0.
0.634019 0.0509885 0.
0.636021 0.0509892 0.
0.638022 0.05099 0.
0.640023 0.0509905 0.
0.642024 0.0509907 0.
0.644025 0.0509909 0.
0.646026 0.0509918 0.
0.648027 0.0509927 0.
0.650028 0.0509937 0.
0.652028 0.0509936 0.
0.654029 0.0509934 0.
0.656029 0.0509933 0.
0.65803 0.0509931 0.
0.66003 0.0509928 0.
0.662031 0.0509931 0.
0.664032 0.0509941 0.
0.666033 0.0509951 0.
0.668034 0.0509959 0.
0.670034 0.0509968 0.
0.672035 0.0509976 0.
0.674036 0.0509984 0.
0.676036 0.0509992 0.
0.678037 0.0510002 0.
0.680038 0.051002 0.
0.682039 0.0510038 0.
0.68404 0.0510054 0.
0.686041 0.0510065 0.
0.688042 0.0510077 0.
0.690042 0.0510093 0.
0.692043 0.0510112 0.
0.694044 0.0510131 0.
0.696045 0.0510157 0.
0.698047 0.0510185 0.
0.499958 0.0530145 0.
0.501959 0.0530128 0.
0.503959 0.0530113 0.
0.50596 0.0530097 0.
0.50796 0.0530071 0.
0.509961 0.0530046 0.
0.511961 0.0530026 0.
0.513962 0.0530012 0.
0.515962 0.0529999 0.
0.517963 0.0529987 0.
0.519964 0.0529975 0.
0.521965 0.0529964 0.
0.523966 0.0529955 0.
0.525966 0.0529947 0.
0.527967 0.0529938 0.
0.529967 0.052993 0.
0.531968 0.0529922 0.
0.533969 0.0529914 0.
0.535969 0.0529907 0.
0.53797 0.0529899 0.
0.539971 0.0529896 0.
0.541972 0.0529896 0.
0.543973 0.0529896 0.
0.545974 0.0529896 0.
0.547975 0.0529895 0.
0.549976 0.0529893 0.
0.551977 0.05299 0.
0.553978 0.0529906 0.
0.555979 0.0529912 0.
0.55798 0.0529912 0.
0.55998 0.0529912 0.
0.561981 0.0529908 0.
0.563982 0.0529898 0.
0.565983 0.0529889 0.
0.567984 0.0529886 0.
0.569985 0.0529888 0.
0.571985 0.0529889 0.
0.573986 0.0529885 0.
0.575988 0.052988 0.
0.577989 0.0529875 0.
0.57999 0.052987 0.
0.581991 0.0529865 0.
0.583992 0.0529859 0.
0.585992 0.0529854 0.
0.587993 0.0529848 0.
0.589994 0.0529848 0.
0.591995 0.0529852 0.
0.593996 0.0529857 0.
0.595997 0.0529861 0.
0.597999 0.0529865 0.
0.600001 0.0529869 0.
0.602002 0.0529865 0.
0.604003 0.052986 0.
0.606004 0.0529857 0.
0.608005 0.0529863 0.
0.610006 0.0529869 0.
0.612007 0.052987 0.
0.614007 0.0529865 0.
0.616008 0.052986 0.
0.618008 0.0529864 0.
0.620009 0.0529872 0.
0.62201 0.0529881 0.
0.624011 0.0529882 0.
0.626013 0.0529881 0.
0.628015 0.0529881 0.
0.630016 0.052988 0.
0.632017 0.0529879 0.
0.634018 0.0529881 0.
0.636019 0.0529886 0.
0.63802 0.0529892 0.
0.640021 0.0529897 0.
0.642022 0.05299 0.
0.644023 0.0529904 0.
0.646024 0.0529911 0.
0.648025 0.0529919 0.
0.650026 0.0529927 0.
0.652026 0.0529927 0.
0.654027 0.0529927 0.
0.656028 0.0529926 0.
0.658028 0.0529923 0.
0.660029 0.052992 0.
0.662029 0.0529924 0.
0.66403 0.0529937 0.
0.666031 0.052995 0.
0.668032 0.0529958 0.
0.670033 0.0529965 0.
0.672034 0.0529972 0.
0.674034 0.052998 0.
0.676034 0.0529989 0.
0.678035 0.0529998 0.
0.680036 0.0530016 0.
0.682037 0.0530033 0.
0.684038 0.0530048 0.
0.686039 0.0530058 0.
0.68804 0.0530068 0.
0.69004 0.0530084 0.
0.692041 0.0530104 0.
0.694041 0.0530125 0.
0.696042 0.0530152 0.
0.698044 0.0530181 0.
0.499961 0.0550134 0.
0.501961 0.055012 0.
0.503962 0.0550108 0.
0.505962 0.0550094 0.
0.507963 0.0550069 0.
0.509963 0.0550045 0.
0.511964 0.0550024 0.
0.513964 0.055001 0.
0.515965 0.0549995 0.
0.517966 0.0549983 0.
0.519966 0.0549972 0.
0.521967 0.0549961 0.
0.523968 0.0549952 0.
0.525968 0.0549943 0.
0.527968 0.0549934 0.
0.529969 0.0549927 0.
0.531969 0.054992 0.
0.53397 0.0549913 0.
0.535971 0.0549904 0.
0.537971 0.0549896 0.
0.539972 0.054989 0.
0.541973 0.0549886 0.
0.543974 0.0549881 0.
0.545976 0.0549881 0.
0.547977 0.0549881 0.
0.549978 0.0549882 0.
0.551979 0.0549888 0.
0.55398 0.0549894 0.
0.555981 0.05499 0.
0.557981 0.0549903 0.
0.559982 0.0549906 0.
0.561983 0.0549903 0.
0.563984 0.0549893 0.
0.565985 0.0549883 0.
0.567985 0.054988 0.
0.569985 0.054988 0.
0.571986 0.054988 0.
0.573987 0.0549877 0.
0.575988 0.0549873 0.
0.57799 0.0549869 0.
0.57999 0.0549865 0.
0.581991 0.0549861 0.
0.583992 0.0549855 0.
0.585992 0.0549845 0.
0.587993 0.0549836 0.
0.589994 0.0549836 0.
0.591996 0.0549845 0.
0.593997 0.0549853 0.
0.595998 0.0549857 0.
0.597999 0.054986 0.
0.600001 0.0549862 0.
0.602002 0.0549856 0.
0.604003 0.054985 0.
0.606005 0.0549848 0.
0.608005 0.0549857 0.
0.610006 0.0549866 0.
0.612006 0.0549868 0.
0.614007 0.0549863 0.
0.616007 0.0549858 0.
0.618007 0.054986 0.
0.620008 0.0549864 0.
0.622008 0.0549869 0.
0.62401 0.0549871 0.
0.626011 0.0549872 0.
0.628013 0.0549873 0.
0.630014 0.0549874 0.
0.632016 0.0549875 0.
0.634017 0.0549876 0.
0.636018 0.054988 0.
0.638019 0.0549884 0.
0.64002 0.0549888 0.
0.64202 0.0549894 0.
0.644021 0.0549899 0.
0.646022 0.0549905 0.
0.648023 0.0549911 0.
0.650023 0.0549917 0.
0.652024 0.0549918 0.
0.654025 0.0549919 0.
0.656026 0.0549919 0.
0.658027 0.0549915 0.
0.660027 0.0549911 0.
0.662028 0.0549916 0.
0.664028 0.0549932 0.
0.666029 0.0549948 0.
0.66803 0.0549957 0.
0.670031 0.0549963 0.
0.672032 0.0549968 0.
0.674032 0.0549976 0.
0.676033 0.0549985 0.
0.678033 0.0549994 0.
0.680034 0.0550011 0.
0.682035 0.0550029 0.
0.684036 0.0550043 0.
0.686037 0.0550051 0.
0.688037 0.055006 0.
0.690038 0.0550076 0.
0.692038 0.0550097 0.
0.694038 0.0550118 0.
0.696039 0.0550147 0.
0.698041 0.0550177 0.
0.499962 0.0570138 0.
0.501963 0.0570122 0.
0.503963 0.0570108 0.
0.505964 0.0570091 0.
0.507964 0.0570067 0.
0.509965 0.0570042 0.
0.511966 0.0570022 0.
0.513966 0.0570007 0.
0.515967 0.0569991 0.
0.517968 0.0569977 0.
0.519968 0.0569963 0.
0.521969 0.0569949 0.
0.523969 0.0569943 0.
0.525969 0.0569938 0.
0.52797 0.0569933 0.
0.52997 0.0569923 0.
0.531971 0.0569914 0.
0.533972 0.0569904 0.
0.535973 0.0569894 0.
0.537973 0.0569884 0.
0.539974 0.0569879 0.
0.541975 0.0569877 0.
0.543976 0.0569875 0.
0.545977 0.0569872 0.
0.547978 0.0569869 0.
0.54998 0.0569866 0.
0.55198 0.0569877 0.
0.553981 0.0569887 0.
0.555981 0.0569896 0.
0.557982 0.0569894 0.
0.559983 0.0569893 0.
0.561983 0.056989 0.
0.563984 0.0569885 0.
0.565986 0.056988 0.
0.567986 0.0569875 0.
0.569987 0.0569871 0.
0.571987 0.0569866 0.
0.573988 0.0569865 0.
0.575989 0.0569865 0.
0.57799 0.0569865 0.
0.579991 0.056986 0.
0.581991 0.0569855 0.
0.583992 0.0569848 0.
0.585993 0.0569838 0.
0.587993 0.0569827 0.
0.589994 0.0569828 0.
0.591995 0.0569837 0.
0.593997 0.0569846 0.
0.595998 0.0569849 0.
0.597999 0.0569851 0.
0.6 0.0569852 0.
0.602002 0.0569846 0.
0.604003 0.0569841 0.
0.606004 0.0569838 0.
0.608005 0.0569846 0.
0.610006 0.0569854 0.
0.612006 0.0569858 0.
0.614007 0.0569858 0.
0.616007 0.0569857 0.
0.618008 0.0569857 0.
0.620008 0.0569856 0.
0.622009 0.0569856 0.
0.62401 0.0569861 0.
0.626011 0.0569867 0.
0.628012 0.0569872 0.
0.630013 0.056987 0.
0.632015 0.0569869 0.
0.634016 0.0569869 0.
0.636016 0.0569871 0.
0.638017 0.0569873 0.
0.640018 0.0569878 0.
0.642019 0.0569885 0.
0.64402 0.0569893 0.
0.64602 0.0569895 0.
0.648021 0.0569896 0.
0.650022 0.0569898 0.
0.652023 0.05699 0.
0.654023 0.0569901 0.
0.656024 0.0569902 0.
0.658025 0.0569901 0.
0.660025 0.05699 0.
0.662026 0.0569907 0.
0.664027 0.0569923 0.
0.666028 0.0569939 0.
0.668028 0.0569951 0.
0.670029 0.0569959 0.
0.672029 0.0569968 0.
0.67403 0.0569974 0.
0.67603 0.056998 0.
0.678031 0.0569986 0.
0.680032 0.0570003 0.
0.682032 0.0570019 0.
0.684033 0.0570034 0.
0.686034 0.0570047 0.
0.688035 0.0570059 0.
0.690036 0.0570078 0.
0.692036 0.05701 0.
0.694037 0.0570123 0.
0.696038 0.0570149 0.
0.698039 0.0570176 0.
0.499964 0.0590142 0.
0.501964 0.0590124 0.
0.503965 0.0590107 0.
0.505965 0.0590089 0.
0.507966 0.0590064 0.
0.509967 0.059004 0.
0.511968 0.0590019 0.
0.513968 0.0590003 0.
0.515969 0.0589988 0.
0.51797 0.0589971 0.
0.51997 0.0589953 0.
0.521971 0.0589936 0.
0.523971 0.0589934 0.
0.525971 0.0589934 0.
0.527971 0.0589932 0.
0.529972 0.058992 0.
0.531973 0.0589907 0.
0.533974 0.0589895 0.
0.535975 0.0589884 0.
0.537976 0.0589872 0.
0.539976 0.0589868 0.
0.541977 0.0589868 0.
0.543977 0.0589869 0.
0.545978 0.0589864 0.
0.547979 0.0589857 0.
0.549981 0.058985 0.
0.551981 0.0589865 0.
0.553982 0.0589881 0.
0.555982 0.0589892 0.
0.557983 0.0589886 0.
0.559983 0.0589879 0.
0.561984 0.0589876 0.
0.563985 0.0589876 0.
0.565986 0.0589877 0.
0.567987 0.0589871 0.
0.569988 0.0589861 0.
0.571989 0.0589852 0.
0.57399 0.0589854 0.
0.57599 0.0589858 0.
0.577991 0.058986 0.
0.579991 0.0589854 0.
0.581992 0.0589849 0.
0.583992 0.0589841 0.
0.585993 0.058983 0.
0.587993 0.0589819 0.
0.589994 0.0589819 0.
0.591995 0.0589829 0.
0.593996 0.0589839 0.
0.595997 0.0589841 0.
0.597999 0.0589841 0.
0.6 0.0589841 0.
0.602001 0.0589836 0.
0.604002 0.0589831 0.
0.606003 0.0589828 0.
0.608004 0.0589835 0.
0.610005 0.0589843 0.
0.612006 0.0589848 0.
0.614007 0.0589852 0.
0.616008 0.0589856 0.
0.618008 0.0589854 0.
0.620009 0.0589848 0.
0.622009 0.0589843 0.
0.62401 0.0589851 0.
0.626011 0.0589862 0.
0.628011 0.0589871 0.
0.630012 0.0589867 0.
0.632013 0.0589863 0.
0.634014 0.0589861 0.
0.636015 0.0589862 0.
0.638016 0.0589862 0.
0.640017 0.0589868 0.
0.642017 0.0589877 0.
0.644018 0.0589886 0.
0.646019 0.0589885 0.
0.64802 0.0589882 0.
0.650021 0.0589879 0.
0.652021 0.0589881 0.
0.654021 0.0589884 0.
0.656022 0.0589885 0.
0.658023 0.0589888 0.
0.660024 0.058989 0.
0.662025 0.0589898 0.
0.664025 0.0589915 0.
0.666026 0.0589931 0.
0.668026 0.0589944 0.
0.670026 0.0589956 0.
0.672026 0.0589968 0.
0.674027 0.0589972 0.
0.676028 0.0589974 0.
0.678028 0.0589979 0.
0.680029 0.0589994 0.
0.68203 0.0590009 0.
0.684031 0.0590025 0.
0.686032 0.0590042 0.
0.688033 0.0590059 0.
0.690034 0.0590079 0.
0.692034 0.0590103 0.
0.694035 0.0590127 0.
0.696036 0.0590151 0.
0.698037 0.0590175 0.
0.499966 0.0610146 0.
0.501967 0.0610126 0.
0.503967 0.0610106 0.
0.505968 0.0610086 0.
0.507968 0.0610063 0.
0.509969 0.061004 0.
0.51197 0.061002 0.
0.513971 0.0610003 0.
0.515972 0.0609986 0.
0.517972 0.0609968 0.
0.519972 0.0609948 0.
0.521973 0.0609929 0.
0.523973 0.0609927 0.
0.525973 0.0609927 0.
0.527973 0.0609926 0.
0.529974 0.0609914 0.
0.531975 0.0609902 0.
0.533976 0.0609889 0.
0.535977 0.0609877 0.
0.537978 0.0609864 0.
0.539978 0.0609858 0.
0.541979 0.0609859 0.
0.543979 0.0609859 0.
0.54598 0.0609855 0.
0.547981 0.0609849 0.
0.549982 0.0609844 0.
0.551982 0.060986 0.
0.553983 0.0609876 0.
0.555983 0.0609886 0.
0.557984 0.0609878 0.
0.559984 0.060987 0.
0.561985 0.0609866 0.
0.563986 0.0609867 0.
0.565987 0.0609868 0.
0.567988 0.0609862 0.
0.569989 0.0609853 0.
0.57199 0.0609843 0.
0.57399 0.0609847 0.
0.575991 0.0609853 0.
0.577991 0.0609857 0.
0.579992 0.060985 0.
0.581992 0.0609844 0.
0.583992 0.0609837 0.
0.585993 0.0609827 0.
0.587993 0.0609818 0.
0.589994 0.0609818 0.
0.591995 0.0609824 0.
0.593995 0.0609831 0.
0.595997 0.0609832 0.
0.597999 0.0609832 0.
0.6 0.0609831 0.
0.602001 0.0609827 0.
0.604002 0.0609824 0.
0.606003 0.0609822 0.
0.608004 0.0609829 0.
0.610005 0.0609836 0.
0.612006 0.0609842 0.
0.614007 0.0609846 0.
0.616008 0.0609851 0.
0.618009 0.0609848 0.
0.620009 0.0609842 0.
0.62201 0.0609836 0.
0.62401 0.0609845 0.
0.62601 0.0609856 0.
0.628011 0.0609865 0.
0.630011 0.0609861 0.
0.632012 0.0609858 0.
0.634013 0.0609855 0.
0.636014 0.0609855 0.
0.638015 0.0609856 0.
0.640015 0.060986 0.
0.642016 0.0609868 0.
0.644017 0.0609876 0.
0.646017 0.0609874 0.
0.648018 0.060987 0.
0.650019 0.0609867 0.
0.652019 0.0609869 0.
0.654019 0.0609871 0.
0.65602 0.0609874 0.
0.658021 0.0609878 0.
0.660022 0.0609882 0.
0.662023 0.0609892 0.
0.664024 0.0609909 0.
0.666024 0.0609926 0.
0.668025 0.060994 0.
0.670025 0.0609953 0.
0.672025 0.0609966 0.
0.674025 0.0609969 0.
0.676026 0.060997 0.
0.678026 0.0609973 0.
0.680027 0.0609987 0.
0.682028 0.0610001 0.
0.684028 0.0610016 0.
0.686029 0.0610034 0.
0.68803 0.0610053 0.
0.690031 0.0610075 0.
0.692032 0.0610101 0.
0.694033 0.0610126 0.
0.696034 0.061015 0.
0.698034 0.0610172 0.
0.499969 0.0630151 0.
0.501969 0.0630126 0.
0.50397 0.0630104 0.
0.505971 0.0630082 0.
0.507972 0.0630063 0.
0.509972 0.0630043 0.
0.511973 0.0630024 0.
0.513973 0.0630006 0.
0.515974 0.0629988 0.
0.517974 0.0629968 0.
0.519975 0.0629948 0.
0.521975 0.0629927 0.
0.523975 0.0629922 0.
0.525976 0.0629919 0.
0.527976 0.0629915 0.
0.529977 0.0629906 0.
0.531978 0.0629896 0.
0.533978 0.0629886 0.
0.535979 0.0629872 0.
0.537979 0.0629859 0.
0.53998 0.0629852 0.
0.54198 0.0629849 0.
0.543981 0.0629847 0.
0.545981 0.0629847 0.
0.547982 0.0629847 0.
0.549983 0.0629847 0.
0.551984 0.0629859 0.
0.553984 0.0629872 0.
0.555985 0.062988 0.
0.557985 0.0629872 0.
0.559985 0.0629864 0.
0.561986 0.0629858 0.
0.563987 0.0629855 0.
0.565988 0.0629852 0.
0.567989 0.0629848 0.
0.569989 0.0629844 0.
0.57199 0.062984 0.
0.573991 0.0629845 0.
0.575991 0.062985 0.
0.577992 0.0629854 0.
0.579993 0.0629847 0.
0.581993 0.0629841 0.
0.583993 0.0629834 0.
0.585994 0.062983 0.
0.587994 0.0629825 0.
0.589994 0.0629823 0.
0.591994 0.0629822 0.
0.593994 0.0629821 0.
0.595996 0.0629821 0.
0.597998 0.0629821 0.
0.6 0.0629821 0.
0.602001 0.062982 0.
0.604002 0.0629819 0.
0.606003 0.062982 0.
0.608004 0.0629827 0.
0.610005 0.0629834 0.
0.612006 0.0629839 0.
0.614007 0.062984 0.
0.616008 0.0629842 0.
0.618008 0.0629841 0.
0.620009 0.0629839 0.
0.62201 0.0629838 0.
0.62401 0.0629843 0.
0.62601 0.062985 0.
0.62801 0.0629855 0.
0.630011 0.0629853 0.
0.632012 0.0629852 0.
0.634012 0.0629851 0.
0.636013 0.0629852 0.
0.638014 0.0629852 0.
0.640014 0.0629855 0.
0.642015 0.0629859 0.
0.644015 0.0629863 0.
0.646016 0.0629863 0.
0.648017 0.0629861 0.
0.650017 0.062986 0.
0.652018 0.0629862 0.
0.654018 0.0629865 0.
0.656018 0.0629868 0.
0.658019 0.0629872 0.
0.66002 0.0629876 0.
0.66202 0.0629887 0.
0.664021 0.0629906 0.
0.666022 0.0629925 0.
0.668023 0.0629939 0.
0.670023 0.0629951 0.
0.672023 0.0629963 0.
0.674024 0.0629965 0.
0.676024 0.0629966 0.
0.678025 0.0629968 0.
0.680025 0.0629981 0.
0.682026 0.0629994 0.
0.684026 0.0630008 0.
0.686027 0.0630025 0.
0.688027 0.0630041 0.
0.690028 0.0630065 0.
0.692029 0.0630093 0.
0.69403 0.0630121 0.
0.69603 0.0630144 0.
0.69803 0.0630166 0.
0.499972 0.0650153 0.
0.501972 0.0650127 0.
0.503973 0.0650101 0.
0.505974 0.0650079 0.
0.507975 0.0650062 0.
0.509975 0.0650046 0.
0.511976 0.0650028 0.
0.513976 0.0650009 0.
0.515976 0.0649989 0.
0.517977 0.0649969 0.
0.519977 0.0649947 0.
0.521977 0.0649926 0.
0.523978 0.0649918 0.
0.525978 0.0649911 0.
0.527979 0.0649904 0.
0.52998 0.0649898 0.
0.53198 0.0649891 0.
0.533981 0.0649882 0.
0.535981 0.0649868 0.
0.537981 0.0649854 0.
0.539981 0.0649845 0.
0.541982 0.064984 0.
0.543982 0.0649835 0.
0.545983 0.0649838 0.
0.547984 0.0649844 0.
0.549985 0.0649849 0.
0.551985 0.0649859 0.
0.553986 0.0649868 0.
0.555986 0.0649873 0.
0.557986 0.0649866 0.
0.559986 0.0649858 0.
0.561987 0.0649851 0.
0.563988 0.0649844 0.
0.565989 0.0649837 0.
0.567989 0.0649835 0.
0.56999 0.0649836 0.
0.57199 0.0649837 0.
0.573991 0.0649842 0.
0.575992 0.0649848 0.
0.577993 0.0649852 0.
0.579993 0.0649845 0.
0.581994 0.0649837 0.
0.583994 0.0649832 0.
0.585994 0.0649832 0.
0.587994 0.0649831 0.
0.589994 0.0649827 0.
0.591994 0.064982 0.
0.593993 0.0649812 0.
0.595995 0.0649811 0.
0.597998 0.0649811 0.
0.6 0.0649811 0.
0.602001 0.0649813 0.
0.604002 0.0649815 0.
0.606003 0.0649818 0.
0.608004 0.0649825 0.
0.610005 0.0649832 0.
0.612005 0.0649835 0.
0.614006 0.0649834 0.
0.616007 0.0649832 0.
0.618008 0.0649834 0.
0.620009 0.0649836 0.
0.62201 0.0649839 0.
0.62401 0.0649841 0.
0.62601 0.0649843 0.
0.62801 0.0649845 0.
0.63001 0.0649845 0.
0.632011 0.0649846 0.
0.634012 0.0649846 0.
0.636012 0.0649848 0.
0.638013 0.0649849 0.
0.640014 0.064985 0.
0.642014 0.064985 0.
0.644014 0.064985 0.
0.646015 0.0649851 0.
0.648015 0.0649852 0.
0.650016 0.0649853 0.
0.652016 0.0649856 0.
0.654016 0.0649858 0.
0.656017 0.0649861 0.
0.658017 0.0649866 0.
0.660017 0.064987 0.
0.662018 0.0649883 0.
0.664019 0.0649903 0.
0.666021 0.0649924 0.
0.668021 0.0649938 0.
0.670022 0.0649948 0.
0.672022 0.0649959 0.
0.674023 0.0649961 0.
0.676023 0.0649962 0.
0.678023 0.0649964 0.
0.680024 0.0649976 0.
0.682024 0.0649988 0.
0.684024 0.0650001 0.
0.686024 0.0650016 0.
0.688024 0.065003 0.
0.690025 0.0650054 0.
0.692026 0.0650085 0.
0.694026 0.0650116 0.
0.696026 0.0650139 0.
0.698026 0.065016 0.
0.499975 0.0670151 0.
0.501975 0.0670124 0.
0.503975 0.06701 0.
0.505976 0.0670076 0.
0.507977 0.0670056 0.
0.509977 0.0670035 0.
0.511978 0.0670016 0.
0.513978 0.0669999 0.
0.515979 0.0669983 0.
0.517979 0.0669963 0.
0.51998 0.0669942 0.
0.52198 0.0669922 0.
0.523981 0.0669913 0.
0.525981 0.0669907 0.
0.527981 0.0669901 0.
0.529982 0.0669894 0.
0.531982 0.0669887 0.
0.533982 0.0669879 0.
0.535982 0.0669867 0.
0.537982 0.0669855 0.
0.539983 0.0669846 0.
0.541983 0.0669841 0.
0.543984 0.0669836 0.
0.545984 0.0669836 0.
0.547985 0.0669838 0.
0.549985 0.066984 0.
0.551986 0.0669849 0.
0.553987 0.0669857 0.
0.555987 0.0669863 0.
0.557988 0.066986 0.
0.559988 0.0669856 0.
0.561989 0.0669851 0.
0.563989 0.0669843 0.
0.56599 0.0669836 0.
0.56799 0.0669833 0.
0.569991 0.0669831 0.
0.571991 0.066983 0.
0.573992 0.0669835 0.
0.575993 0.0669841 0.
0.577993 0.0669845 0.
0.579993 0.0669841 0.
0.581993 0.0669836 0.
0.583993 0.0669833 0.
0.585994 0.0669832 0.
0.587994 0.066983 0.
0.589994 0.0669826 0.
0.591994 0.0669818 0.
0.593994 0.0669811 0.
0.595996 0.0669808 0.
0.597998 0.0669806 0.
0.6 0.0669804 0.
0.602001 0.0669806 0.
0.604002 0.0669807 0.
0.606003 0.0669809 0.
0.608004 0.0669816 0.
0.610005 0.0669822 0.
0.612006 0.0669826 0.
0.614006 0.0669828 0.
0.616007 0.066983 0.
0.618007 0.0669832 0.
0.620008 0.0669835 0.
0.622009 0.0669838 0.
0.624009 0.0669836 0.
0.626009 0.0669834 0.
0.628009 0.0669832 0.
0.630009 0.0669834 0.
0.63201 0.0669836 0.
0.634011 0.0669838 0.
0.636011 0.0669842 0.
0.638012 0.0669845 0.
0.640012 0.0669846 0.
0.642012 0.0669846 0.
0.644013 0.0669846 0.
0.646013 0.0669845 0.
0.648014 0.0669844 0.
0.650014 0.0669843 0.
0.652015 0.0669851 0.
0.654015 0.0669858 0.
0.656015 0.0669864 0.
0.658016 0.0669866 0.
0.660016 0.0669868 0.
0.662017 0.0669877 0.
0.664017 0.0669896 0.
0.666018 0.0669915 0.
0.668019 0.0669929 0.
0.670019 0.066994 0.
0.67202 0.0669951 0.
0.67402 0.0669955 0.
0.67602 0.0669957 0.
0.678021 0.0669961 0.
0.680021 0.0669974 0.
0.682021 0.0669986 0.
0.684021 0.0669999 0.
0.686021 0.0670014 0.
0.688022 0.0670029 0.
0.690023 0.0670051 0.
0.692023 0.0670078 0.
0.694024 0.0670105 0.
0.696025 0.0670131 0.
0.698025 0.0670156 0.
0.499977 0.0690144 0.
0.501977 0.0690122 0.
0.503977 0.0690098 0.
0.505978 0.0690074 0.
0.507979 0.069005 0.
0.50998 0.0690025 0.
0.51198 0.0690005 0.
0.513981 0.068999 0.
0.515982 0.0689976 0.
0.517982 0.0689958 0.
0.519983 0.0689937 0.
0.521984 0.0689917 0.
0.523984 0.0689909 0.
0.525984 0.0689903 0.
0.527984 0.0689897 0.
0.529983 0.068989 0.
0.531983 0.0689884 0.
0.533983 0.0689876 0.
0.535984 0.0689866 0.
0.537984 0.0689855 0.
0.539984 0.0689848 0.
0.541985 0.0689842 0.
0.543985 0.0689837 0.
0.545985 0.0689834 0.
0.547986 0.0689832 0.
0.549986 0.0689831 0.
0.551987 0.0689839 0.
0.553987 0.0689847 0.
0.555988 0.0689853 0.
0.557989 0.0689853 0.
0.55999 0.0689854 0.
0.56199 0.0689851 0.
0.563991 0.0689843 0.
0.565991 0.0689835 0.
0.567991 0.068983 0.
0.569991 0.0689827 0.
0.571992 0.0689823 0.
0.573992 0.0689828 0.
0.575993 0.0689834 0.
0.577993 0.0689839 0.
0.579993 0.0689837 0.
0.581993 0.0689835 0.
0.583993 0.0689833 0.
0.585993 0.0689831 0.
0.587994 0.0689829 0.
0.589994 0.0689824 0.
0.591995 0.0689817 0.
0.593995 0.068981 0.
0.595996 0.0689806 0.
0.597998 0.0689802 0.
0.599999 0.0689798 0.
0.602 0.0689798 0.
0.604001 0.0689799 0.
0.606002 0.06898 0.
0.608003 0.0689806 0.
0.610005 0.0689811 0.
0.612006 0.0689817 0.
0.614006 0.0689822 0.
0.616006 0.0689827 0.
0.618006 0.0689831 0.
0.620007 0.0689834 0.
0.622008 0.0689837 0.
0.624008 0.0689831 0.
0.626008 0.0689824 0.
0.628008 0.0689819 0.
0.630008 0.0689822 0.
0.632009 0.0689826 0.
0.634009 0.068983 0.
0.63601 0.0689835 0.
0.63801 0.0689841 0.
0.640011 0.0689843 0.
0.642011 0.0689843 0.
0.644011 0.0689842 0.
0.646012 0.068984 0.
0.648012 0.0689837 0.
0.650013 0.0689834 0.
0.652013 0.0689845 0.
0.654013 0.0689857 0.
0.656014 0.0689866 0.
0.658014 0.0689865 0.
0.660015 0.0689865 0.
0.662015 0.0689873 0.
0.664015 0.068989 0.
0.666015 0.0689907 0.
0.668016 0.068992 0.
0.670016 0.0689932 0.
0.672017 0.0689944 0.
0.674017 0.0689949 0.
0.676018 0.0689953 0.
0.678018 0.0689958 0.
0.680018 0.0689971 0.
0.682018 0.0689984 0.
0.684018 0.0689998 0.
0.686019 0.0690013 0.
0.68802 0.0690028 0.
0.69002 0.0690048 0.
0.692021 0.0690072 0.
0.694022 0.0690095 0.
0.696024 0.0690123 0.
0.698025 0.0690152 0.
0.49998 0.0710142 0.
0.50198 0.0710121 0.
0.50398 0.0710098 0.
0.50598 0.0710074 0.
0.507981 0.0710047 0.
0.509982 0.0710019 0.
0.511983 0.0709998 0.
0.513983 0.0709985 0.
0.515984 0.0709971 0.
0.517984 0.0709954 0.
0.519985 0.0709935 0.
0.521986 0.0709917 0.
0.523986 0.0709908 0.
0.525986 0.07099 0.
0.527986 0.0709892 0.
0.529985 0.0709885 0.
0.531985 0.0709878 0.
0.533984 0.0709871 0.
0.535985 0.0709862 0.
0.537985 0.0709852 0.
0.539986 0.0709846 0.
0.541986 0.070984 0.
0.543986 0.0709835 0.
0.545987 0.0709831 0.
0.547987 0.0709827 0.
0.549987 0.0709823 0.
0.551988 0.070983 0.
0.553988 0.0709838 0.
0.555989 0.0709845 0.
0.55799 0.0709847 0.
0.559991 0.070985 0.
0.561992 0.0709848 0.
0.563992 0.0709841 0.
0.565992 0.0709834 0.
0.567992 0.0709829 0.
0.569992 0.0709825 0.
0.571993 0.0709821 0.
0.573993 0.0709826 0.
0.575993 0.0709832 0.
0.577994 0.0709837 0.
0.579993 0.0709835 0.
0.581993 0.0709833 0.
0.583993 0.0709831 0.
0.585994 0.0709829 0.
0.587994 0.0709826 0.
0.589994 0.0709822 0.
0.591995 0.0709816 0.
0.593996 0.070981 0.
0.595997 0.0709805 0.
0.597998 0.07098 0.
0.599999 0.0709795 0.
0.602 0.0709794 0.
0.604001 0.0709794 0.
0.606001 0.0709794 0.
0.608003 0.0709799 0.
0.610004 0.0709805 0.
0.612005 0.0709811 0.
0.614005 0.0709817 0.
0.616005 0.0709824 0.
0.618005 0.0709828 0.
0.620006 0.070983 0.
0.622006 0.0709833 0.
0.624007 0.0709826 0.
0.626007 0.0709818 0.
0.628007 0.0709812 0.
0.630007 0.0709816 0.
0.632008 0.0709821 0.
0.634008 0.0709826 0.
0.636009 0.0709832 0.
0.638009 0.0709838 0.
0.640009 0.070984 0.
0.64201 0.0709839 0.
0.64401 0.0709839 0.
0.64601 0.0709836 0.
0.648011 0.0709833 0.
0.650011 0.070983 0.
0.652012 0.0709842 0.
0.654012 0.0709853 0.
0.656012 0.0709862 0.
0.658013 0.0709862 0.
0.660013 0.0709862 0.
0.662013 0.0709869 0.
0.664013 0.0709884 0.
0.666013 0.0709899 0.
0.668014 0.0709912 0.
0.670014 0.0709926 0.
0.672015 0.0709939 0.
0.674015 0.0709943 0.
0.676015 0.0709946 0.
0.678016 0.0709951 0.
0.680015 0.0709966 0.
0.682015 0.070998 0.
0.684015 0.0709995 0.
0.686016 0.0710011 0.
0.688017 0.0710027 0.
0.690018 0.0710045 0.
0.692019 0.0710064 0.
0.69402 0.0710084 0.
0.696021 0.0710111 0.
0.698023 0.071014 0.
0.499982 0.0730145 0.
0.501982 0.0730121 0.
0.503983 0.07301 0.
0.505983 0.0730076 0.
0.507984 0.0730048 0.
0.509984 0.0730019 0.
0.511985 0.0729996 0.
0.513985 0.0729982 0.
0.515985 0.0729968 0.
0.517986 0.0729952 0.
0.519986 0.0729936 0.
0.521986 0.072992 0.
0.523987 0.0729909 0.
0.525987 0.0729899 0.
0.527987 0.0729888 0.
0.529987 0.072988 0.
0.531986 0.0729872 0.
0.533986 0.0729863 0.
0.535986 0.0729854 0.
0.537986 0.0729845 0.
0.539987 0.0729839 0.
0.541988 0.0729835 0.
0.543988 0.0729831 0.
0.545989 0.0729826 0.
0.547989 0.0729821 0.
0.549989 0.0729817 0.
0.551989 0.0729824 0.
0.55399 0.0729831 0.
0.55599 0.0729838 0.
0.557991 0.0729841 0.
0.559992 0.0729845 0.
0.561992 0.0729844 0.
0.563993 0.0729837 0.
0.565993 0.0729831 0.
0.567993 0.0729828 0.
0.569994 0.0729825 0.
0.571994 0.0729823 0.
0.573994 0.0729828 0.
0.575993 0.0729835 0.
0.577993 0.0729839 0.
0.579994 0.0729835 0.
0.581994 0.072983 0.
0.583994 0.0729827 0.
0.585994 0.0729824 0.
0.587995 0.0729821 0.
0.589995 0.0729818 0.
0.591996 0.0729813 0.
0.593996 0.0729809 0.
0.595997 0.0729805 0.
0.597998 0.0729801 0.
0.6 0.0729796 0.
0.602 0.0729794 0.
0.604001 0.0729791 0.
0.606001 0.072979 0.
0.608002 0.0729796 0.
0.610003 0.0729802 0.
0.612003 0.0729808 0.
0.614004 0.0729814 0.
0.616004 0.072982 0.
0.618005 0.0729823 0.
0.620005 0.0729825 0.
0.622005 0.0729827 0.
0.624006 0.0729822 0.
0.626006 0.0729816 0.
0.628006 0.0729811 0.
0.630006 0.0729816 0.
0.632007 0.0729821 0.
0.634007 0.0729826 0.
0.636007 0.072983 0.
0.638008 0.0729835 0.
0.640008 0.0729837 0.
0.642008 0.0729836 0.
0.644008 0.0729835 0.
0.646009 0.0729834 0.
0.648009 0.0729833 0.
0.650009 0.0729832 0.
0.65201 0.0729839 0.
0.65401 0.0729846 0.
0.65601 0.0729852 0.
0.658011 0.0729856 0.
0.660011 0.072986 0.
0.662012 0.0729868 0.
0.664012 0.072988 0.
0.666012 0.0729891 0.
0.668012 0.0729906 0.
0.670013 0.0729922 0.
0.672013 0.0729937 0.
0.674013 0.0729939 0.
0.676013 0.0729939 0.
0.678013 0.0729941 0.
0.680013 0.0729957 0.
0.682013 0.0729974 0.
0.684013 0.072999 0.
0.686014 0.0730008 0.
0.688015 0.0730025 0.
0.690015 0.0730041 0.
0.692016 0.0730056 0.
0.694017 0.0730072 0.
0.696017 0.0730096 0.
0.698019 0.0730123 0.
0.499984 0.0750143 0.
0.501984 0.0750121 0.
0.503985 0.0750101 0.
0.505986 0.0750078 0.
0.507986 0.0750048 0.
0.509987 0.0750018 0.
0.511987 0.0749995 0.
0.513987 0.074998 0.
0.515987 0.0749965 0.
0.517987 0.074995 0.
0.519987 0.0749937 0.
0.521987 0.0749923 0.
0.523988 0.074991 0.
0.525988 0.0749897 0.
0.527989 0.0749885 0.
0.529988 0.0749875 0.
0.531987 0.0749865 0.
0.533987 0.0749855 0.
0.535987 0.0749847 0.
0.537988 0.0749838 0.
0.539988 0.0749832 0.
0.541989 0.0749829 0.
0.54399 0.0749826 0.
0.54599 0.0749822 0.
0.547991 0.0749816 0.
0.549991 0.074981 0.
0.551991 0.0749817 0.
0.553991 0.0749825 0.
0.555991 0.0749832 0.
0.557992 0.0749836 0.
0.559992 0.0749839 0.
0.561993 0.0749839 0.
0.563994 0.0749834 0.
0.565994 0.0749828 0.
0.567995 0.0749826 0.
0.569995 0.0749826 0.
0.571995 0.0749826 0.
0.573994 0.0749831 0.
0.575994 0.0749837 0.
0.577993 0.0749842 0.
0.579994 0.0749835 0.
0.581994 0.0749828 0.
0.583995 0.0749822 0.
0.585995 0.0749819 0.
0.587996 0.0749817 0.
0.589996 0.0749814 0.
0.591996 0.0749811 0.
0.593996 0.0749808 0.
0.595997 0.0749805 0.
0.597999 0.0749801 0.
0.6 0.0749798 0.
0.602001 0.0749793 0.
0.604001 0.0749789 0.
0.606001 0.0749787 0.
0.608001 0.0749793 0.
0.610001 0.0749799 0.
0.612001 0.0749805 0.
0.614002 0.0749811 0.
0.616003 0.0749816 0.
0.618004 0.0749819 0.
0.620004 0.074982 0.
0.622004 0.0749821 0.
0.624005 0.0749817 0.
0.626005 0.0749813 0.
0.628006 0.074981 0.
0.630006 0.0749815 0.
0.632006 0.0749821 0.
0.634006 0.0749825 0.
0.636006 0.0749829 0.
0.638007 0.0749833 0.
0.640007 0.0749834 0.
0.642007 0.0749833 0.
0.644007 0.0749832 0.
0.646007 0.0749832 0.
0.648007 0.0749833 0.
0.650008 0.0749834 0.
0.652008 0.0749836 0.
0.654008 0.0749839 0.
0.656009 0.0749843 0.
0.658009 0.074985 0.
0.660009 0.0749858 0.
0.66201 0.0749866 0.
0.66401 0.0749875 0.
0.666011 0.0749884 0.
0.668011 0.0749899 0.
0.670011 0.0749917 0.
0.672011 0.0749935 0.
0.674011 0.0749934 0.
0.676011 0.0749931 0.
0.678011 0.074993 0.
0.680011 0.0749948 0.
0.682011 0.0749967 0.
0.684011 0.0749986 0.
0.686012 0.0750004 0.
0.688012 0.0750023 0.
0.690013 0.0750037 0.
0.692013 0.0750049 0.
0.694013 0.075006 0.
0.696014 0.0750081 0.
0.698015 0.0750105 0.
0.499986 0.0770134 0.
0.501986 0.0770114 0.
0.503987 0.0770095 0.
0.505988 0.0770074 0.
0.507988 0.0770045 0.
0.509988 0.0770016 0.
0.511988 0.0769993 0.
0.513988 0.0769977 0.
0.515988 0.0769961 0.
0.517989 0.0769945 0.
0.519989 0.076993 0.
0.521989 0.0769915 0.
0.52399 0.0769906 0.
0.52599 0.0769898 0.
0.527991 0.0769889 0.
0.52999 0.0769878 0.
0.53199 0.0769867 0.
0.533989 0.0769856 0.
0.53599 0.0769847 0.
0.53799 0.0769837 0.
0.53999 0.0769831 0.
0.54199 0.0769826 0.
0.543991 0.0769821 0.
0.545991 0.0769818 0.
0.547992 0.0769816 0.
0.549992 0.0769813 0.
0.551992 0.0769819 0.
0.553992 0.0769825 0.
0.555992 0.0769831 0.
0.557992 0.0769832 0.
0.559993 0.0769833 0.
0.561993 0.0769832 0.
0.563994 0.0769829 0.
0.565995 0.0769826 0.
0.567995 0.0769825 0.
0.569995 0.0769826 0.
0.571995 0.0769827 0.
0.573995 0.076983 0.
0.575995 0.0769832 0.
0.577995 0.0769834 0.
0.579995 0.0769829 0.
0.581996 0.0769824 0.
0.583996 0.076982 0.
0.585996 0.0769816 0.
0.587996 0.0769813 0.
0.589997 0.076981 0.
0.591997 0.0769808 0.
0.593998 0.0769806 0.
0.595999 0.0769803 0.
0.597999 0.0769801 0.
0.6 0.0769798 0.
0.602001 0.0769796 0.
0.604001 0.0769793 0.
0.606001 0.0769792 0.
0.608001 0.0769796 0.
0.610002 0.0769799 0.
0.612002 0.0769802 0.
0.614003 0.0769806 0.
0.616003 0.0769809 0.
0.618004 0.0769811 0.
0.620004 0.0769813 0.
0.622004 0.0769815 0.
0.624004 0.0769813 0.
0.626005 0.0769809 0.
0.628005 0.0769807 0.
0.630005 0.0769814 0.
0.632005 0.076982 0.
0.634006 0.0769825 0.
0.636006 0.0769824 0.
0.638006 0.0769824 0.
0.640006 0.0769825 0.
0.642006 0.0769827 0.
0.644006 0.076983 0.
0.646006 0.0769831 0.
0.648006 0.0769832 0.
0.650006 0.0769833 0.
0.652007 0.0769836 0.
0.654007 0.0769838 0.
0.656007 0.0769842 0.
0.658008 0.0769851 0.
0.660008 0.076986 0.
0.662009 0.0769869 0.
0.664009 0.0769877 0.
0.666009 0.0769886 0.
0.668009 0.0769898 0.
0.670009 0.0769913 0.
0.67201 0.0769928 0.
0.67401 0.0769929 0.
0.676009 0.0769928 0.
0.678009 0.0769928 0.
0.680009 0.0769946 0.
0.682009 0.0769964 0.
0.684009 0.0769982 0.
0.68601 0.077 0.
0.68801 0.0770018 0.
0.690011 0.0770033 0.
0.692011 0.0770045 0.
0.694011 0.0770057 0.
0.696012 0.0770077 0.
0.698012 0.0770098 0.
0.499988 0.0790125 0.
0.501989 0.0790106 0.
0.503989 0.0790089 0.
0.505989 0.079007 0.
0.50799 0.0790042 0.
0.50999 0.0790014 0.
0.51199 0.0789991 0.
0.51399 0.0789974 0.
0.51599 0.0789958 0.
0.517991 0.078994 0.
0.519991 0.0789923 0.
0.521992 0.0789906 0.
0.523992 0.0789901 0.
0.525992 0.0789898 0.
0.527992 0.0789894 0.
0.529992 0.0789882 0.
0.531992 0.0789869 0.
0.533992 0.0789857 0.
0.535992 0.0789847 0.
0.537992 0.0789837 0.
0.539992 0.0789829 0.
0.541992 0.0789822 0.
0.543992 0.0789816 0.
0.545992 0.0789815 0.
0.547993 0.0789815 0.
0.549993 0.0789816 0.
0.551993 0.0789821 0.
0.553993 0.0789826 0.
0.555993 0.078983 0.
0.557993 0.0789828 0.
0.559994 0.0789827 0.
0.561994 0.0789825 0.
0.563994 0.0789824 0.
0.565995 0.0789823 0.
0.567995 0.0789824 0.
0.569995 0.0789826 0.
0.571995 0.0789828 0.
0.573996 0.0789828 0.
0.575996 0.0789827 0.
0.577997 0.0789826 0.
0.579997 0.0789823 0.
0.581997 0.0789821 0.
0.583997 0.0789817 0.
0.585997 0.0789813 0.
0.587997 0.078981 0.
0.589998 0.0789807 0.
0.591998 0.0789805 0.
0.593999 0.0789804 0.
0.596 0.0789802 0.
0.598 0.07898 0.
0.600001 0.0789799 0.
0.602001 0.0789798 0.
0.604001 0.0789798 0.
0.606001 0.0789798 0.
0.608002 0.0789798 0.
0.610002 0.0789798 0.
0.612003 0.0789799 0.
0.614003 0.07898 0.
0.616003 0.0789802 0.
0.618004 0.0789804 0.
0.620003 0.0789807 0.
0.622003 0.078981 0.
0.624004 0.0789808 0.
0.626004 0.0789805 0.
0.628005 0.0789804 0.
0.630005 0.0789812 0.
0.632005 0.078982 0.
0.634005 0.0789824 0.
0.636005 0.0789819 0.
0.638005 0.0789815 0.
0.640005 0.0789816 0.
0.642005 0.0789821 0.
0.644005 0.0789827 0.
0.646005 0.078983 0.
0.648005 0.0789831 0.
0.650005 0.0789832 0.
0.652005 0.0789835 0.
0.654006 0.0789838 0.
0.656006 0.0789842 0.
0.658006 0.0789852 0.
0.660007 0.0789862 0.
0.662007 0.0789871 0.
0.664007 0.0789879 0.
0.666007 0.0789887 0.
0.668007 0.0789898 0.
0.670008 0.078991 0.
0.672008 0.0789922 0.
0.674008 0.0789924 0.
0.676008 0.0789925 0.
0.678008 0.0789927 0.
0.680008 0.0789944 0.
0.682007 0.0789961 0.
0.684008 0.0789978 0.
0.686008 0.0789996 0.
0.688008 0.0790013 0.
0.690009 0.0790029 0.
0.692009 0.0790042 0.
0.69401 0.0790055 0.
0.69601 0.0790072 0.
0.69801 0.0790092 0.
0.49999 0.0810118 0.
0.501991 0.0810101 0.
0.503991 0.0810087 0.
0.505991 0.0810069 0.
0.507991 0.0810041 0.
0.509991 0.0810013 0.
0.511991 0.0809989 0.
0.513992 0.0809971 0.
0.515992 0.0809952 0.
0.517992 0.0809935 0.
0.519993 0.0809918 0.
0.521994 0.0809901 0.
0.523994 0.0809898 0.
0.525994 0.0809897 0.
0.527994 0.0809894 0.
0.529994 0.0809882 0.
0.531994 0.080987 0.
0.533994 0.0809858 0.
0.535994 0.0809847 0.
0.537994 0.0809836 0.
0.539993 0.0809827 0.
0.541993 0.080982 0.
0.543993 0.0809814 0.
0.545993 0.0809814 0.
0.547993 0.0809816 0.
0.549994 0.0809818 0.
0.551994 0.0809822 0.
0.553993 0.0809825 0.
0.555993 0.0809828 0.
0.557994 0.0809826 0.
0.559995 0.0809825 0.
0.561995 0.0809824 0.
0.563995 0.0809823 0.
0.565995 0.0809823 0.
0.567995 0.0809824 0.
0.569996 0.0809827 0.
0.571996 0.080983 0.
0.573996 0.0809828 0.
0.575997 0.0809826 0.
0.577998 0.0809823 0.
0.579998 0.0809821 0.
0.581998 0.0809819 0.
0.583998 0.0809817 0.
0.585998 0.0809813 0.
0.587998 0.0809808 0.
0.589998 0.0809806 0.
0.591999 0.0809804 0.
0.593999 0.0809802 0.
0.596 0.08098 0.
0.598 0.0809799 0.
0.600001 0.0809797 0.
0.602001 0.0809798 0.
0.604001 0.08098 0.
0.606001 0.0809801 0.
0.608002 0.0809798 0.
0.610003 0.0809795 0.
0.612003 0.0809794 0.
0.614003 0.0809796 0.
0.616004 0.0809798 0.
0.618003 0.0809801 0.
0.620003 0.0809803 0.
0.622003 0.0809805 0.
0.624003 0.0809804 0.
0.626003 0.0809802 0.
0.628004 0.0809801 0.
0.630004 0.080981 0.
0.632004 0.0809818 0.
0.634005 0.0809822 0.
0.636005 0.0809816 0.
0.638005 0.080981 0.
0.640004 0.0809811 0.
0.642004 0.0809818 0.
0.644004 0.0809824 0.
0.646004 0.0809828 0.
0.648004 0.0809831 0.
0.650004 0.0809834 0.
0.652004 0.0809837 0.
0.654004 0.0809839 0.
0.656005 0.0809843 0.
0.658005 0.0809853 0.
0.660006 0.0809863 0.
0.662006 0.0809872 0.
0.664006 0.0809881 0.
0.666006 0.0809889 0.
0.668006 0.0809898 0.
0.670006 0.0809908 0.
0.672006 0.0809917 0.
0.674006 0.080992 0.
0.676006 0.0809922 0.
0.678006 0.0809926 0.
0.680006 0.0809942 0.
0.682006 0.0809958 0.
0.684006 0.0809975 0.
0.686006 0.0809992 0.
0.688007 0.0810009 0.
0.690007 0.0810023 0.
0.692007 0.0810037 0.
0.694008 0.0810051 0.
0.696008 0.0810067 0.
0.698008 0.0810083 0.
0.499992 0.0830111 0.
0.501993 0.0830098 0.
0.503992 0.0830087 0.
0.505993 0.0830071 0.
0.507993 0.0830042 0.
0.509993 0.0830013 0.
0.511993 0.0829987 0.
0.513993 0.0829966 0.
0.515994 0.0829945 0.
0.517994 0.0829929 0.
0.519994 0.0829914 0.
0.521995 0.0829899 0.
0.523995 0.0829896 0.
0.525995 0.0829893 0.
0.527995 0.0829889 0.
0.529995 0.0829879 0.
0.531995 0.0829869 0.
0.533995 0.0829858 0.
0.535995 0.0829846 0.
0.537994 0.0829834 0.
0.539994 0.0829826 0.
0.541994 0.082982 0.
0.543995 0.0829815 0.
0.545995 0.0829815 0.
0.547994 0.0829817 0.
0.549994 0.0829819 0.
0.551994 0.0829821 0.
0.553994 0.0829823 0.
0.555995 0.0829824 0.
0.557995 0.0829826 0.
0.559996 0.0829828 0.
0.561996 0.0829828 0.
0.563996 0.0829827 0.
0.565996 0.0829825 0.
0.567996 0.0829826 0.
0.569996 0.0829829 0.
0.571996 0.0829832 0.
0.573997 0.082983 0.
0.575997 0.0829827 0.
0.577998 0.0829825 0.
0.579998 0.0829823 0.
0.581998 0.082982 0.
0.583998 0.0829817 0.
0.585998 0.0829813 0.
0.587998 0.0829809 0.
0.589998 0.0829806 0.
0.591998 0.0829804 0.
0.593998 0.0829801 0.
0.595999 0.0829799 0.
0.598 0.0829795 0.
0.600001 0.0829792 0.
0.602001 0.0829795 0.
0.604001 0.0829797 0.
0.606001 0.0829798 0.
0.608002 0.0829794 0.
0.610003 0.0829789 0.
0.612004 0.0829788 0.
0.614004 0.0829794 0.
0.616003 0.0829799 0.
0.618003 0.0829801 0.
0.620003 0.0829802 0.
0.622003 0.0829803 0.
0.624003 0.0829801 0.
0.626003 0.0829799 0.
0.628003 0.0829798 0.
0.630003 0.0829806 0.
0.632003 0.0829813 0.
0.634003 0.0829817 0.
0.636004 0.0829814 0.
0.638004 0.082981 0.
0.640004 0.0829811 0.
0.642004 0.0829815 0.
0.644004 0.082982 0.
0.646004 0.0829826 0.
0.648004 0.0829832 0.
0.650004 0.0829839 0.
0.652004 0.082984 0.
0.654003 0.0829842 0.
0.656004 0.0829845 0.
0.658004 0.0829854 0.
0.660005 0.0829862 0.
0.662005 0.0829872 0.
0.664005 0.0829882 0.
0.666005 0.0829892 0.
0.668004 0.0829901 0.
0.670004 0.0829908 0.
0.672004 0.0829915 0.
0.674004 0.0829918 0.
0.676004 0.0829921 0.
0.678004 0.0829926 0.
0.680004 0.0829941 0.
0.682004 0.0829957 0.
0.684005 0.0829973 0.
0.686005 0.0829988 0.
0.688005 0.0830003 0.
0.690006 0.0830018 0.
0.692006 0.0830032 0.
0.694006 0.0830046 0.
0.696006 0.083006 0.
0.698006 0.0830074 0.
0.499994 0.0850106 0.
0.501994 0.0850095 0.
0.503994 0.0850087 0.
0.505994 0.0850073 0.
0.507994 0.0850043 0.
0.509995 0.0850012 0.
0.511995 0.0849985 0.
0.513995 0.0849962 0.
0.515996 0.0849939 0.
0.517996 0.0849922 0.
0.519996 0.084991 0.
0.521996 0.0849898 0.
0.523996 0.0849893 0.
0.525996 0.0849889 0.
0.527996 0.0849884 0.
0.529996 0.0849876 0.
0.531996 0.0849868 0.
0.533996 0.0849858 0.
0.535995 0.0849845 0.
0.537995 0.0849832 0.
0.539995 0.0849824 0.
0.541996 0.084982 0.
0.543997 0.0849816 0.
0.545996 0.0849816 0.
0.547995 0.0849818 0.
0.549994 0.084982 0.
0.551995 0.084982 0.
0.553995 0.084982 0.
0.555996 0.0849821 0.
0.557996 0.0849826 0.
0.559997 0.0849831 0.
0.561997 0.0849833 0.
0.563997 0.084983 0.
0.565997 0.0849827 0.
0.567997 0.0849828 0.
0.569997 0.0849831 0.
0.571997 0.0849834 0.
0.573997 0.0849832 0.
0.575998 0.0849829 0.
0.577998 0.0849827 0.
0.579998 0.0849824 0.
0.581997 0.0849821 0.
0.583997 0.0849818 0.
0.585998 0.0849814 0.
0.587998 0.084981 0.
0.589998 0.0849807 0.
0.591998 0.0849804 0.
0.593997 0.0849801 0.
0.595998 0.0849797 0.
0.597999 0.0849793 0.
0.600001 0.0849788 0.
0.602001 0.0849792 0.
0.604001 0.0849795 0.
0.606002 0.0849796 0.
0.608003 0.0849789 0.
0.610004 0.0849782 0.
0.612004 0.0849782 0.
0.614004 0.0849791 0.
0.616003 0.0849799 0.
0.618003 0.0849802 0.
0.620003 0.0849801 0.
0.622002 0.08498 0.
0.624002 0.0849798 0.
0.626002 0.0849796 0.
0.628002 0.0849795 0.
0.630002 0.0849802 0.
0.632002 0.0849809 0.
0.634002 0.0849813 0.
0.636003 0.0849811 0.
0.638003 0.084981 0.
0.640003 0.0849811 0.
0.642003 0.0849813 0.
0.644003 0.0849816 0.
0.646003 0.0849824 0.
0.648003 0.0849834 0.
0.650003 0.0849843 0.
0.652003 0.0849844 0.
0.654002 0.0849845 0.
0.656002 0.0849847 0.
0.658003 0.0849854 0.
0.660003 0.0849862 0.
0.662003 0.0849871 0.
0.664003 0.0849883 0.
0.666003 0.0849895 0.
0.668003 0.0849903 0.
0.670002 0.0849908 0.
0.672002 0.0849913 0.
0.674002 0.0849917 0.
0.676002 0.084992 0.
0.678002 0.0849926 0.
0.680003 0.0849941 0.
0.682003 0.0849956 0.
0.684003 0.084997 0.
0.686004 0.0849984 0.
0.688004 0.0849998 0.
0.690004 0.0850012 0.
0.692004 0.0850027 0.
0.694004 0.0850041 0.
0.696004 0.0850053 0.
0.698005 0.0850064 0.
0.499996 0.0870094 0.
0.501997 0.0870086 0.
0.503997 0.0870078 0.
0.505997 0.0870066 0.
0.507997 0.0870036 0.
0.509997 0.0870006 0.
0.511997 0.086998 0.
0.513997 0.0869961 0.
0.515998 0.0869942 0.
0.517998 0.0869925 0.
0.519998 0.0869909 0.
0.521998 0.0869894 0.
0.523998 0.086989 0.
0.525998 0.0869887 0.
0.527998 0.0869883 0.
0.529998 0.0869876 0.
0.531997 0.0869868 0.
0.533997 0.0869859 0.
0.535997 0.0869847 0.
0.537997 0.0869835 0.
0.539997 0.0869827 0.
0.541997 0.0869823 0.
0.543998 0.0869818 0.
0.545997 0.0869818 0.
0.547997 0.0869819 0.
0.549996 0.086982 0.
0.551996 0.0869823 0.
0.553996 0.0869825 0.
0.555997 0.0869827 0.
0.557997 0.0869827 0.
0.559997 0.0869826 0.
0.561997 0.0869826 0.
0.563997 0.0869826 0.
0.565997 0.0869825 0.
0.567997 0.0869827 0.
0.569997 0.086983 0.
0.571997 0.0869832 0.
0.573997 0.0869831 0.
0.575997 0.0869829 0.
0.577997 0.0869826 0.
0.579997 0.0869823 0.
0.581997 0.086982 0.
0.583997 0.0869817 0.
0.585997 0.0869814 0.
0.587998 0.0869812 0.
0.589998 0.0869809 0.
0.591998 0.0869806 0.
0.593998 0.0869803 0.
0.595999 0.0869798 0.
0.597999 0.0869792 0.
0.6 0.0869785 0.
0.602001 0.0869787 0.
0.604001 0.0869789 0.
0.606002 0.086979 0.
0.608002 0.0869786 0.
0.610003 0.0869782 0.
0.612003 0.0869782 0.
0.614003 0.0869788 0.
0.616003 0.0869793 0.
0.618002 0.0869796 0.
0.620002 0.0869798 0.
0.622002 0.08698 0.
0.624002 0.0869797 0.
0.626002 0.0869793 0.
0.628002 0.0869791 0.
0.630002 0.08698 0.
0.632002 0.0869808 0.
0.634002 0.0869814 0.
0.636002 0.0869813 0.
0.638002 0.0869811 0.
0.640002 0.0869813 0.
0.642002 0.0869818 0.
0.644002 0.0869823 0.
0.646002 0.0869828 0.
0.648002 0.0869833 0.
0.650003 0.0869838 0.
0.652002 0.0869841 0.
0.654002 0.0869844 0.
0.656002 0.0869848 0.
0.658002 0.0869856 0.
0.660002 0.0869863 0.
0.662002 0.0869872 0.
0.664002 0.0869885 0.
0.666002 0.0869897 0.
0.668002 0.0869903 0.
0.670001 0.0869907 0.
0.672001 0.086991 0.
0.674001 0.0869916 0.
0.676001 0.0869922 0.
0.678001 0.0869929 0.
0.680001 0.0869941 0.
0.682001 0.0869953 0.
0.684001 0.0869966 0.
0.686002 0.0869982 0.
0.688002 0.0869998 0.
0.690002 0.0870012 0.
0.692003 0.0870024 0.
0.694003 0.0870036 0.
0.696003 0.0870049 0.
0.698003 0.0870063 0.
0.499998 0.0890085 0.
0.501999 0.0890078 0.
0.503999 0.089007 0.
0.505999 0.0890058 0.
0.507999 0.0890029 0.
0.509999 0.0889999 0.
0.511999 0.0889976 0.
0.514 0.0889961 0.
0.516 0.0889946 0.
0.518 0.0889928 0.
0.52 0.0889909 0.
0.522 0.0889889 0.
0.524 0.0889887 0.
0.526 0.0889885 0.
0.527999 0.0889883 0.
0.529999 0.0889876 0.
0.531999 0.0889868 0.
0.533999 0.0889859 0.
0.535999 0.0889848 0.
0.537999 0.0889837 0.
0.539999 0.0889829 0.
0.541999 0.0889825 0.
0.543998 0.0889821 0.
0.545998 0.088982 0.
0.547998 0.088982 0.
0.549998 0.088982 0.
0.551998 0.0889825 0.
0.553997 0.0889831 0.
0.555997 0.0889833 0.
0.557997 0.0889827 0.
0.559997 0.0889821 0.
0.561998 0.0889819 0.
0.563998 0.0889821 0.
0.565998 0.0889823 0.
0.567998 0.0889826 0.
0.569998 0.0889828 0.
0.571998 0.0889831 0.
0.573997 0.0889829 0.
0.575996 0.0889828 0.
0.577996 0.0889826 0.
0.579996 0.0889822 0.
0.581996 0.0889818 0.
0.583997 0.0889816 0.
0.585997 0.0889814 0.
0.587998 0.0889813 0.
0.589998 0.0889811 0.
0.591998 0.0889808 0.
0.593998 0.0889805 0.
0.595999 0.0889799 0.
0.598 0.0889791 0.
0.6 0.0889782 0.
0.602001 0.0889783 0.
0.604001 0.0889783 0.
0.606002 0.0889783 0.
0.608002 0.0889782 0.
0.610002 0.0889782 0.
0.612002 0.0889782 0.
0.614002 0.0889784 0.
0.616002 0.0889786 0.
0.618002 0.088979 0.
0.620002 0.0889795 0.
0.622002 0.08898 0.
0.624002 0.0889796 0.
0.626002 0.088979 0.
0.628002 0.0889787 0.
0.630002 0.0889797 0.
0.632002 0.0889808 0.
0.634001 0.0889815 0.
0.636001 0.0889814 0.
0.638001 0.0889813 0.
0.640001 0.0889816 0.
0.642001 0.0889823 0.
0.644001 0.0889831 0.
0.646001 0.0889832 0.
0.648002 0.0889832 0.
0.650002 0.0889832 0.
0.652002 0.0889838 0.
0.654002 0.0889843 0.
0.656002 0.0889849 0.
0.658002 0.0889857 0.
0.660001 0.0889864 0.
0.662001 0.0889873 0.
0.664001 0.0889886 0.
0.666001 0.0889898 0.
0.668001 0.0889904 0.
0.67 0.0889906 0.
0.672 0.0889908 0.
0.674 0.0889915 0.
0.676 0.0889923 0.
0.677999 0.0889932 0.
0.679999 0.0889941 0.
0.681999 0.088995 0.
0.684 0.0889962 0.
0.686 0.088998 0.
0.688 0.0889998 0.
0.69 0.0890011 0.
0.692001 0.0890022 0.
0.694001 0.0890032 0.
0.696001 0.0890046 0.
0.698001 0.0890061 0.
0.5 0.0910076 0.
0.502001 0.0910071 0.
0.504001 0.0910063 0.
0.506001 0.0910051 0.
0.508001 0.0910024 0.
0.510001 0.0909997 0.
0.512001 0.0909976 0.
0.514001 0.0909962 0.
0.516001 0.0909947 0.
0.518002 0.0909929 0.
0.520002 0.0909909 0.
0.522002 0.0909888 0.
0.524001 0.0909885 0.
0.526001 0.0909884 0.
0.528001 0.0909882 0.
0.53 0.0909873 0.
0.532 0.0909865 0.
0.534 0.0909856 0.
0.536 0.0909846 0.
0.538 0.0909836 0.
0.54 0.090983 0.
0.542 0.0909827 0.
0.543999 0.0909824 0.
0.545999 0.0909822 0.
0.547999 0.0909821 0.
0.549999 0.090982 0.
0.551999 0.0909825 0.
0.553999 0.090983 0.
0.555998 0.0909832 0.
0.557998 0.0909826 0.
0.559998 0.090982 0.
0.561998 0.0909818 0.
0.563998 0.090982 0.
0.565998 0.0909823 0.
0.567998 0.0909825 0.
0.569998 0.0909827 0.
0.571998 0.090983 0.
0.573997 0.0909829 0.
0.575997 0.0909828 0.
0.577996 0.0909827 0.
0.579996 0.0909822 0.
0.581997 0.0909818 0.
0.583997 0.0909815 0.
0.585997 0.0909814 0.
0.587998 0.0909814 0.
0.589998 0.0909812 0.
0.591998 0.0909809 0.
0.593998 0.0909805 0.
0.595999 0.0909799 0.
0.597999 0.0909792 0.
0.6 0.0909785 0.
0.602 0.0909784 0.
0.604001 0.0909783 0.
0.606001 0.0909783 0.
0.608001 0.0909782 0.
0.610001 0.0909781 0.
0.612001 0.0909782 0.
0.614001 0.0909783 0.
0.616002 0.0909785 0.
0.618002 0.0909787 0.
0.620001 0.0909791 0.
0.622001 0.0909794 0.
0.624002 0.0909792 0.
0.626002 0.090979 0.
0.628002 0.0909788 0.
0.630002 0.0909799 0.
0.632001 0.0909809 0.
0.634001 0.0909815 0.
0.636001 0.0909815 0.
0.638001 0.0909814 0.
0.640001 0.0909818 0.
0.642 0.0909826 0.
0.644 0.0909834 0.
0.646 0.0909833 0.
0.648001 0.090983 0.
0.650001 0.0909827 0.
0.652001 0.0909834 0.
0.654001 0.090984 0.
0.656001 0.0909848 0.
0.658001 0.0909856 0.
0.660001 0.0909864 0.
0.662001 0.0909873 0.
0.664 0.0909884 0.
0.666 0.0909895 0.
0.668 0.0909901 0.
0.67 0.0909905 0.
0.672 0.090991 0.
0.673999 0.0909918 0.
0.675999 0.0909925 0.
0.677998 0.0909933 0.
0.679998 0.0909941 0.
0.681998 0.0909949 0.
0.683998 0.0909959 0.
0.685998 0.0909977 0.
0.687998 0.0909995 0.
0.689999 0.0910009 0.
0.691999 0.0910019 0.
0.694 0.091003 0.
0.696 0.0910044 0.
0.698 0.0910059 0.
0.500002 0.093008 0.
0.502002 0.0930066 0.
0.504002 0.0930056 0.
0.506002 0.0930043 0.
0.508003 0.0930021 0.
0.510003 0.0929999 0.
0.512003 0.092998 0.
0.514003 0.0929964 0.
0.516003 0.0929947 0.
0.518003 0.0929929 0.
0.520003 0.0929909 0.
0.522004 0.092989 0.
0.524003 0.0929885 0.
0.526003 0.0929882 0.
0.528002 0.0929878 0.
0.530002 0.0929868 0.
0.532002 0.0929858 0.
0.534001 0.0929849 0.
0.536001 0.0929841 0.
0.538001 0.0929834 0.
0.540001 0.0929829 0.
0.542 0.0929828 0.
0.544 0.0929827 0.
0.546 0.0929824 0.
0.548 0.0929822 0.
0.55 0.0929819 0.
0.552 0.0929821 0.
0.554 0.0929822 0.
0.556 0.0929824 0.
0.557999 0.0929823 0.
0.559999 0.0929823 0.
0.561999 0.0929823 0.
0.563999 0.0929823 0.
0.565999 0.0929823 0.
0.567999 0.0929825 0.
0.569998 0.0929827 0.
0.571998 0.0929829 0.
0.573998 0.092983 0.
0.575998 0.092983 0.
0.577998 0.092983 0.
0.579998 0.0929824 0.
0.581998 0.0929818 0.
0.583997 0.0929813 0.
0.585998 0.0929814 0.
0.587998 0.0929815 0.
0.589998 0.0929812 0.
0.591998 0.0929807 0.
0.593998 0.0929802 0.
0.595998 0.0929799 0.
0.597999 0.0929796 0.
0.599999 0.0929793 0.
0.601999 0.0929792 0.
0.604 0.092979 0.
0.606 0.0929787 0.
0.608 0.0929784 0.
0.610001 0.0929781 0.
0.612001 0.0929781 0.
0.614001 0.0929785 0.
0.616001 0.0929789 0.
0.618001 0.0929788 0.
0.620001 0.0929785 0.
0.622001 0.0929782 0.
0.624001 0.0929786 0.
0.626001 0.0929791 0.
0.628001 0.0929796 0.
0.630001 0.0929803 0.
0.632 0.092981 0.
0.634 0.0929815 0.
0.636 0.0929816 0.
0.638 0.0929817 0.
0.64 0.0929821 0.
0.642 0.0929827 0.
0.644 0.0929833 0.
0.646 0.0929831 0.
0.648 0.0929827 0.
0.649999 0.0929823 0.
0.652 0.0929829 0.
0.654 0.0929835 0.
0.656 0.0929842 0.
0.658 0.0929853 0.
0.660001 0.0929863 0.
0.662001 0.0929873 0.
0.664 0.0929879 0.
0.666 0.0929886 0.
0.668 0.0929895 0.
0.67 0.0929906 0.
0.671999 0.0929916 0.
0.673999 0.0929922 0.
0.675998 0.0929928 0.
0.677997 0.0929934 0.
0.679997 0.0929941 0.
0.681997 0.0929949 0.
0.683997 0.0929959 0.
0.685997 0.0929974 0.
0.687997 0.0929989 0.
0.689997 0.0930004 0.
0.691998 0.0930017 0.
0.693998 0.0930031 0.
0.695998 0.0930043 0.
0.697998 0.0930056 0.
0.500004 0.0950077 0.
0.502003 0.0950062 0.
0.504003 0.0950049 0.
0.506004 0.0950035 0.
0.508004 0.0950018 0.
0.510004 0.0950002 0.
0.512004 0.0949985 0.
0.514004 0.0949966 0.
0.516004 0.0949947 0.
0.518004 0.0949928 0.
0.520005 0.094991 0.
0.522005 0.0949891 0.
0.524005 0.0949885 0.
0.526004 0.094988 0.
0.528003 0.0949875 0.
0.530003 0.0949863 0.
0.532003 0.0949851 0.
0.534003 0.0949841 0.
0.536003 0.0949836 0.
0.538002 0.0949831 0.
0.540002 0.0949829 0.
0.542001 0.0949829 0.
0.544 0.094983 0.
0.546001 0.0949827 0.
0.548001 0.0949822 0.
0.550001 0.0949818 0.
0.552001 0.0949817 0.
0.554001 0.0949815 0.
0.556001 0.0949815 0.
0.558001 0.094982 0.
0.56 0.0949826 0.
0.562 0.0949828 0.
0.563999 0.0949826 0.
0.565999 0.0949824 0.
0.567999 0.0949825 0.
0.569999 0.0949826 0.
0.571998 0.0949828 0.
0.573999 0.094983 0.
0.575999 0.0949832 0.
0.577999 0.0949834 0.
0.579999 0.0949826 0.
0.581998 0.0949818 0.
0.583998 0.0949812 0.
0.585998 0.0949814 0.
0.587998 0.0949815 0.
0.589998 0.0949812 0.
0.591998 0.0949805 0.
0.593998 0.0949799 0.
0.595998 0.0949799 0.
0.597998 0.09498 0.
0.599998 0.0949802 0.
0.601998 0.0949799 0.
0.603999 0.0949796 0.
0.605999 0.0949792 0.
0.608 0.0949786 0.
0.61 0.094978 0.
0.612 0.094978 0.
0.614 0.0949786 0.
0.616001 0.0949792 0.
0.618001 0.0949788 0.
0.620001 0.0949779 0.
0.622001 0.094977 0.
0.624 0.094978 0.
0.626 0.0949792 0.
0.628 0.0949804 0.
0.63 0.0949808 0.
0.632 0.0949811 0.
0.634 0.0949814 0.
0.635999 0.0949817 0.
0.637999 0.0949819 0.
0.639999 0.0949823 0.
0.642 0.0949828 0.
0.644 0.0949833 0.
0.645999 0.0949829 0.
0.647998 0.0949824 0.
0.649998 0.0949819 0.
0.651998 0.0949824 0.
0.653999 0.094983 0.
0.655999 0.0949837 0.
0.658 0.094985 0.
0.660001 0.0949863 0.
0.662001 0.0949872 0.
0.664 0.0949875 0.
0.666 0.0949878 0.
0.667999 0.094989 0.
0.669999 0.0949906 0.
0.671999 0.0949923 0.
0.673998 0.0949927 0.
0.675997 0.0949931 0.
0.677997 0.0949935 0.
0.679996 0.0949942 0.
0.681996 0.0949949 0.
0.683996 0.0949958 0.
0.685996 0.0949971 0.
0.687996 0.0949984 0.
0.689996 0.0949999 0.
0.691996 0.0950015 0.
0.693996 0.0950031 0.
0.695996 0.0950042 0.
0.697997 0.0950052 0.
0.500006 0.0970076 0.
0.502005 0.0970062 0.
0.504005 0.0970049 0.
0.506006 0.0970035 0.
0.508006 0.0970017 0.
0.510006 0.0969998 0.
0.512006 0.096998 0.
0.514006 0.0969961 0.
0.516006 0.0969943 0.
0.518006 0.0969926 0.
0.520006 0.096991 0.
0.522007 0.0969895 0.
0.524006 0.0969887 0.
0.526005 0.096988 0.
0.528004 0.0969873 0.
0.530004 0.0969863 0.
0.532003 0.0969853 0.
0.534003 0.0969844 0.
0.536003 0.0969838 0.
0.538002 0.0969831 0.
0.540002 0.0969829 0.
0.542002 0.0969831 0.
0.544002 0.0969833 0.
0.546002 0.0969828 0.
0.548001 0.096982 0.
0.550001 0.0969813 0.
0.552001 0.0969812 0.
0.554001 0.0969812 0.
0.556001 0.0969813 0.
0.558 0.0969821 0.
0.559999 0.0969828 0.
0.561999 0.0969831 0.
0.563999 0.0969827 0.
0.565999 0.0969824 0.
0.567999 0.0969825 0.
0.569999 0.0969829 0.
0.571999 0.0969832 0.
0.573999 0.0969834 0.
0.575999 0.0969837 0.
0.577999 0.0969837 0.
0.579999 0.0969826 0.
0.581999 0.0969814 0.
0.583999 0.0969807 0.
0.585999 0.0969808 0.
0.587998 0.096981 0.
0.589998 0.0969808 0.
0.591998 0.0969804 0.
0.593998 0.09698 0.
0.595998 0.0969801 0.
0.597999 0.0969803 0.
0.599999 0.0969805 0.
0.602 0.0969803 0.
0.604 0.0969801 0.
0.606 0.0969798 0.
0.608 0.0969789 0.
0.61 0.096978 0.
0.612 0.0969778 0.
0.614 0.0969783 0.
0.616 0.0969787 0.
0.618 0.0969787 0.
0.62 0.0969785 0.
0.622 0.0969783 0.
0.624 0.096979 0.
0.625999 0.0969799 0.
0.627999 0.0969808 0.
0.629999 0.096981 0.
0.631999 0.0969813 0.
0.633999 0.0969815 0.
0.635999 0.0969819 0.
0.637999 0.0969822 0.
0.639999 0.0969823 0.
0.642 0.0969822 0.
0.644 0.0969822 0.
0.646 0.0969822 0.
0.648 0.0969822 0.
0.65 0.0969822 0.
0.651999 0.0969825 0.
0.653999 0.0969829 0.
0.655999 0.0969834 0.
0.657999 0.0969847 0.
0.659999 0.096986 0.
0.661999 0.096987 0.
0.663999 0.0969875 0.
0.665999 0.0969881 0.
0.667998 0.0969893 0.
0.669998 0.0969909 0.
0.671998 0.0969924 0.
0.673997 0.096993 0.
0.675996 0.0969935 0.
0.677996 0.0969941 0.
0.679995 0.0969948 0.
0.681995 0.0969954 0.
0.683995 0.0969963 0.
0.685995 0.0969976 0.
0.687995 0.0969989 0.
0.689995 0.0970003 0.
0.691995 0.0970018 0.
0.693994 0.0970033 0.
0.695994 0.0970045 0.
0.697994 0.0970056 0.
0.500007 0.0990073 0.
0.502008 0.0990061 0.
0.504008 0.0990049 0.
0.506008 0.0990035 0.
0.508008 0.0990015 0.
0.510008 0.0989994 0.
0.512008 0.0989975 0.
0.514008 0.0989957 0.
0.516008 0.0989938 0.
0.518008 0.0989924 0.
0.520008 0.0989911 0.
0.522008 0.0989898 0.
0.524007 0.0989889 0.
0.526006 0.098988 0.
0.528005 0.0989872 0.
0.530004 0.0989864 0.
0.532004 0.0989856 0.
0.534003 0.0989847 0.
0.536002 0.0989839 0.
0.538002 0.0989832 0.
0.540002 0.098983 0.
0.542002 0.0989833 0.
0.544003 0.0989837 0.
0.546003 0.0989829 0.
0.548002 0.0989818 0.
0.550002 0.0989807 0.
0.552001 0.0989808 0.
0.554 0.0989809 0.
0.556 0.0989811 0.
0.557999 0.0989821 0.
0.559999 0.098983 0.
0.561999 0.0989833 0.
0.563999 0.0989829 0.
0.565999 0.0989824 0.
0.567999 0.0989826 0.
0.569999 0.0989831 0.
0.571999 0.0989836 0.
0.573999 0.0989839 0.
0.575998 0.0989841 0.
0.577998 0.0989841 0.
0.579999 0.0989826 0.
0.581999 0.0989811 0.
0.583999 0.0989801 0.
0.585999 0.0989803 0.
0.587999 0.0989804 0.
0.589999 0.0989804 0.
0.591998 0.0989803 0.
0.593998 0.0989801 0.
0.595998 0.0989803 0.
0.598 0.0989805 0.
0.600001 0.0989808 0.
0.602001 0.0989807 0.
0.604001 0.0989806 0.
0.606001 0.0989803 0.
0.608001 0.0989792 0.
0.610001 0.098978 0.
0.612 0.0989776 0.
0.614 0.0989779 0.
0.616 0.0989782 0.
0.617999 0.0989787 0.
0.619999 0.0989791 0.
0.621999 0.0989796 0.
0.623999 0.0989801 0.
0.625999 0.0989806 0.
0.627999 0.0989811 0.
0.629998 0.0989813 0.
0.631998 0.0989814 0.
0.633998 0.0989817 0.
0.635999 0.098982 0.
0.637999 0.0989824 0.
0.64 0.0989823 0.
0.642 0.0989817 0.
0.644 0.098981 0.
0.646 0.0989814 0.
0.648001 0.098982 0.
0.650001 0.0989825 0.
0.652 0.0989826 0.
0.653999 0.0989828 0.
0.655998 0.0989831 0.
0.657998 0.0989844 0.
0.659998 0.0989857 0.
0.661998 0.0989868 0.
0.663998 0.0989876 0.
0.665998 0.0989885 0.
0.667997 0.0989897 0.
0.669997 0.0989912 0.
0.671997 0.0989926 0.
0.673996 0.0989934 0.
0.675995 0.098994 0.
0.677995 0.0989947 0.
0.679995 0.0989953 0.
0.681995 0.098996 0.
0.683994 0.0989968 0.
0.685994 0.098998 0.
0.687994 0.0989993 0.
0.689994 0.0990007 0.
0.691993 0.0990021 0.
0.693993 0.0990035 0.
0.695992 0.0990047 0.
0.697991 0.0990059 0.
CELLS 5000 10000
1 0
1 1
1 2
1 3
1 4
1 5
1 6
1 7
1 8
1 9
1 10
1 11
1 12
1 13
1 14
1 15
1 16
1 17
1 18
1 19
1 20
1 21
1 22
1 23
1 24
1 25
1 26
1 27
1 28
1 29
1 30
1 31
1 32
1 33
1 34
1 35
1 36
1 37
1 38
1 39
1 40
1 41
1 42
1 43
1 44
1 45
1 46
1 47
1 48
1 49
1 50
1 51
1 52
1 53
1 54
1 55
1 56
1 57
1 58
1 59
1 60
1 61
1 62
1 63
1 64
1 65
1 66
1 67
1 68
1 69
1 70
1 71
1 72
1 73
1 74
1 75
1 76
1 77
1 78
1 79
1 80
1 81
1 82
1 83
1 84
1 85
1 86
1 87
1 88
1 89
1 90
1 91
1 92
1 93
1 94
1 95
1 96
1 97
1 98
1 99
1 100
1 101
1 102
1 103
1 104
1 105
1 106
1 107
1 108
1 109
1 110
1 111
1 112
1 113
1 114
1 115
1 116
1 117
1 118
1 119
1 120
1 121
1 122
1 123
1 124
1 125
1 126
1 127
1 128
1 129
1 130
1 131
1 132
1 133
1 134
1 135
1 136
1 137
1 138
1 139
1 140
1 141
1 142
1 143
1 144
1 145
1 146
1 147
1 148
1 149
1 150
1 151
1 152
1 153
1 154
1 155
1 156
1 157
1 158
1 159
1 160
1 161
1 162
1 163
1 164
1 165
1 166
1 167
1 168
1 169
1 170
1 171
1 172
1 173
1 174
1 175
1 176
1 177
1 178
1 179
1 180
1 181
1 182
1 183
1 184
1 185
1 186
1 187
1 188
1 189
1 190
1 191
1 192
1 193
1 194
1 195
1 196
1 197
1 198
1 199
1 200
1 201
1 202
1 203
1 204
1 205
1 206
1 207
1 208
1 209
1 210
1 211
1 212
1 213
1 214
1 215
1 216
1 217
1 218
1 219
1 220
1 221
1 222
1 223
1 224
1 225
1 226
1 227
1 228
1 229
1 230
1 231
1 232
1 233
1 234
1 235
1 236
1 237
1 238
1 239
1 240
1 241
1 242
1 243
1 244
1 245
1 246
1 247
1 248
1 249
1 250
1 251
1 252
1 253
1 254
1 255
1 256
1 257
1 258
1 259
1 260
1 261
1 262
1 263
1 264
1 265
1 266
1 267
1 268
1 269
1 270
1 271
1 272
1 273
1 274
1 275
1 276
1 277
1 278
1 279
1 280
1 281
1 282
1 283
1 284
1 285
1 286
1 287
1 288
1 289
1 290
1 291
1 292
1 293
1 294
1 295
1 296
1 297
1 298
1 299
1 300
1 301
1 302
1 303
1 304
1 305
1 306
1 307
1 308
1 309
1 310
1 311
1 312
1 313
1 314
1 315
1 316
1 317
1 318
1 319
1 320
1 321
1 322
1 323
1 324
1 325
1 326
1 327
1 328
1 329
1 330
1 331
1 332
1 333
1 334
1 335
1 336
1 337
1 338
1 339
1 340
1 341
1 342
1 343
1 344
1 345
1 346
1 347
1 348
1 349
1 350
1 351
1 352
1 353
1 354
1 355
1 356
1 357
1 358
1 359
1 360
1 361
1 362
1 363
1 364
1 365
1 366
1 367
1 368
1 369
1 370
1 371
1 372
1 373
1 374
1 375
1 376
1 377
1 378
1 379
1 380
1 381
1 382
1 383
1 384
1 385
1 386
1 387
1 388
1 389
1 390
1 391
1 392
1 393
1 394
1 395
1 396
1 397
1 398
1 399
1 400
1 401
1 402
1 403
1 404
1 405
1 406
1 407
1 408
1 409
1 410
1 411
1 412
1 413
1 414
1 415
1 416
1 417
1 418
1 419
1 420
1 421
1 422
1 423
1 424
1 425
1 426
1 427
1 428
1 429
1 430
1 431
1 432
1 433
1 434
1 435
1 436
1 437
1 438
1 439
1 440
1 441
1 442
1 443
1 444
1 445
1 446
1 447
1 448
1 449
1 450
1 451
1 452
1 453
1 454
1 455
1 456
1 457
1 458
1 459
1 460
1 461
1 462
1 463
1 464
1 465
1 466
1 467
1 468
1 469
1 470
1 471
1 472
1 473
1 474
1 475
1 476
1 477
1 478
1 479
1 480
1 481
1 482
1 483
1 484
1 485
1 486
1 487
1 488
1 489
1 490
1 491
1 492
1 493
1 494
1 495
1 496
1 497
1 498
1 499
1 500
1 501
1 502
1 503
1 504
1 505
1 506
1 507
1 508
1 509
1 510
1 511
1 512
1 513
1 514
1 515
1 516
1 517
1 518
1 519
1 520
1 521
1 522
1 523
1 524
1 525
1 526
1 527
1 528
1 529
1 530
1 531
1 532
1 533
1 534
1 535
1 536
1 537
1 538
1 539
1 540
1 541
1 542
1 543
1 544
1 545
1 546
1 547
1 548
1 549
1 550
1 551
1 552
1 553
1 554
1 555
1 556
1 557
1 558
1 559
1 560
1 561
1 562
1 563
1 564
1 565
1 566
1 567
1 568
1 569
1 570
1 571
1 572
1 573
1 574
1 575
1 576
1 577
1 578
1 579
1 580
1 581
1 582
1 583
1 584
1 585
1 586
1 587
1 588
1 589
1 590
1 591
1 592
1 593
1 594
1 595
1 596
1 597
1 598
1 599
1 600
1 601
1 602
1 603
1 604
1 605
1 606
1 607
1 608
1 609
1 610
1 611
1 612
1 613
1 614
1 615
1 616
1 617
1 618
1 619
1 620
1 621
1 622
1 623
1 624
1 625
1 626
1 627
1 628
1 629
1 630
1 631
1 632
1 633
1 634
1 635
1 636
1 637
1 638
1 639
1 640
1 641
1 642
1 643
1 644
1 645
1 646
1 647
1 648
1 649
1 650
1 651
1 652
1 653
1 654
1 655
1 656
1 657
1 658
1 659
1 660
1 661
1 662
1 663
1 664
1 665
1 666
1 667
1 668
1 669
1 670
1 671
1 672
1 673
1 674
1 675
1 676
1 677
1 678
1 679
1 680
1 681
1 682
1 683
1 684
1 685
1 686
1 687
1 688
1 689
1 690
1 691
1 692
1 693
1 694
1 695
1 696
1 697
1 698
1 699
1 700
1 701
1 702
1 703
1 704
1 705
1 706
1 707
1 708
1 709
1 710
1 711
1 712
1 713
1 714
1 715
1 716
1 717
1 718
1 719
1 720
1 721
1 722
1 723
1 724
1 725
1 726
1 727
1 728
1 729
1 730
1 731
1 732
1 733
1 734
1 735
1 736
1 737
1 738
1 739
1 740
1 741
1 742
1 743
1 744
1 745
1 746
1 747
1 748
1 749
1 750
1 751
1 752
1 753
1 754
1 755
1 756
1 757
1 758
1 759
1 760
1 761
1 762
1 763
1 764
1 765
1 766
1 767
1 768
1 769
1 770
1 771
1 772
1 773
1 774
1 775
1 776
1 777
1 778
1 779
1 780
1 781
1 782
1 783
1 784
1 785
1 786
1 787
1 788
1 789
1 790
1 791
1 792
1 793
1 794
1 795
1 796
1 797
1 798
1 799
1 800
1 801
1 802
1 803
1 804
1 805
1 806
1 807
1 808
1 809
1 810
1 811
1 812
1 813
1 814
1 815
1 816
1 817
1 818
1 819
1 820
1 821
1 822
1 823
1 824
1 825
1 826
1 827
1 828
1 829
1 830
1 831
1 832
1 833
1 834
1 835
1 836
1 837
1 838
1 839
1 840
1 841
1 842
1 843
1 844
1 845
1 846
1 847
1 848
1 849
1 850
1 851
1 852
1 853
1 854
1 855
1 856
1 857
1 858
1 859
1 860
1 861
1 862
1 863
1 864
1 865
1 866
1 867
1 868
1 869
1 870
1 871
1 872
1 873
1 874
1 875
1 876
1 877
1 878
1 879
1 880
1 881
1 882
1 883
1 884
1 885
1 886
1 887
1 888
1 889
1 890
1 891
1 892
1 893
1 894
1 895
1 896
1 897
1 898
1 899
1 900
1 901
1 902
1 903
1 904
1 905
1 906
1 907
1 908
1 909
1 910
1 911
1 912
1 913
1 914
1 915
1 916
1 917
1 918
1 919
1 920
1 921
1 922
1 923
1 924
1 925
1 926
1 927
1 928
1 929
1 930
1 931
1 932
1 933
1 934
1 935
1 936
1 937
1 938
1 939
1 940
1 941
1 942
1 943
1 944
1 945
1 946
1 947
1 948
1 949
1 950
1 951
1 952
1 953
1 954
1 955
1 956
1 957
1 958
1 959
1 960
1 961
1 962
1 963
1 964
1 965
1 966
1 967
1 968
1 969
1 970
1 971
1 972
1 973
1 974
1 975
1 976
1 977
1 978
1 979
1 980
1 981
1 982
1 983
1 984
1 985
1 986
1 987
1 988
1 989
1 990
1 991
1 992
1 993
1 994
1 995
1 996
1 997
1 998
1 999
1 1000
1 1001
1 1002
1 1003
1 1004
1 1005
1 1006
1 1007
1 1008
1 1009
1 1010
1 1011
1 1012
1 1013
1 1014
1 1015
1 1016
1 1017
1 1018
1 1019
1 1020
1 1021
1 1022
1 1023
1 1024
1 1025
1 1026
1 1027
1 1028
1 1029
1 1030
1 1031
1 1032
1 1033
1 1034
1 1035
1 1036
1 1037
1 1038
1 1039
1 1040
1 1041
1 1042
1 1043
1 1044
1 1045
1 1046
1 1047
1 1048
1 1049
1 1050
1 1051
1 1052
1 1053
1 1054
1 1055
1 1056
1 1057
1 1058
1 1059
1 1060
1 1061
1 1062
1 1063
1 1064
1 1065
1 1066
1 1067
1 1068
1 1069
1 1070
1 1071
1 1072
1 1073
1 1074
1 1075
1 1076
1 1077
1 1078
1 1079
1 1080
1 1081
1 1082
1 1083
1 1084
1 1085
1 1086
1 1087
1 1088
1 1089
1 1090
1 1091
1 1092
1 1093
1 1094
1 1095
1 1096
1 1097
1 1098
1 1099
1 1100
1 1101
1 1102
1 1103
1 1104
1 1105
1 1106
1 1107
1 1108
1 1109
1 1110
1 1111
1 1112
1 1113
1 1114
1 1115
1 1116
1 1117
1 1118
1 1119
1 1120
1 1121
1 1122
1 1123
1 1124
1 1125
1 1126
1 1127
1 1128
1 1129
1 1130
1 1131
1 1132
1 1133
1 1134
1 1135
1 1136
1 1137
1 1138
1 1139
1 1140
1 1141
1 1142
1 1143
1 1144
1 1145
1 1146
1 1147
1 1148
1 1149
1 1150
1 1151
1 1152
1 1153
1 1154
1 1155
1 1156
1 1157
1 1158
1 1159
1 1160
1 1161
1 1162
1 1163
1 1164
1 1165
1 1166
1 1167
1 1168
1 1169
1 1170
1 1171
1 1172
1 1173
1 1174
1 1175
1 1176
1 1177
1 1178
1 1179
1 1180
1 1181
1 1182
1 1183
1 1184
1 1185
1 1186
1 1187
1 1188
1 1189
1 1190
1 1191
1 1192
1 1193
1 1194
1 1195
1 1196
1 1197
1 1198
1 1199
1 1200
1 1201
1 1202
1 1203
1 1204
1 1205
1 1206
1 1207
1 1208
1 1209
1 1210
1 1211
1 1212
1 1213
1 1214
1 1215
1 1216
1 1217
1 1218
1 1219
1 1220
1 1221
1 1222
1 1223
1 1224
1 1225
1 1226
1 1227
1 1228
1 1229
1 1230
1 1231
1 1232
1 1233
1 1234
1 1235
1 1236
1 1237
1 1238
1 1239
1 1240
1 1241
1 1242
1 1243
1 1244
1 1245
1 1246
1 1247
1 1248
1 1249
1 1250
1 1251
1 1252
1 1253
1 1254
1 1255
1 1256
1 1257
1 1258
1 1259
1 1260
1 1261
1 1262
1 1263
1 1264
1 1265
1 1266
1 1267
1 1268
1 1269
1 1270
1 1271
1 1272
1 1273
1 1274
1 1275
1 1276
1 1277
1 1278
1 1279
1 1280
1 1281
1 1282
1 1283
1 1284
1 1285
1 1286
1 1287
1 1288
1 1289
1 1290
1 1291
1 1292
1 1293
1 1294
1 1295
1 1296
1 1297
1 1298
1 1299
1 1300
1 1301
1 1302
1 1303
1 1304
1 1305
1 1306
1 1307
1 1308
1 1309
1 1310
1 1311
1 1312
1 1313
1 1314
1 1315
1 1316
1 1317
1 1318
1 1319
1 1320
1 1321
1 1322
1 1323
1 1324
1 1325
1 1326
1 1327
1 1328
1 1329
1 1330
1 1331
1 1332
1 1333
1 1334
1 1335
1 1336
1 1337
1 1338
1 1339
1 1340
1 1341
1 1342
1 1343
1 1344
1 1345
1 1346
1 1347
1 1348
1 1349
1 1350
1 1351
1 1352
1 1353
1 1354
1 1355
1 1356
1 1357
1 1358
1 1359
1 1360
1 1361
1 1362
1 1363
1 1364
1 1365
1 1366
1 1367
1 1368
1 1369
1 1370
1 1371
1 1372
1 1373
1 1374
1 1375
1 1376
1 1377
1 1378
1 1379
1 1380
1 1381
1 1382
1 1383
1 1384
1 1385
1 1386
1 1387
1 1388
1 1389
1 1390
1 1391
1 1392
1 1393
1 1394
1 1395
1 1396
1 1397
1 1398
1 1399
1 1400
1 1401
1 1402
1 1403
1 1404
1 1405
1 1406
1 1407
1 1408
1 1409
1 1410
1 1411
1 1412
1 1413
1 1414
1 1415
1 1416
1 1417
1 1418
1 1419
1 1420
1 1421
1 1422
1 1423
1 1424
1 1425
1 1426
1 1427
1 1428
1 1429
1 1430
1 1431
1 1432
1 1433
1 1434
1 1435
1 1436
1 1437
1 1438
1 1439
1 1440
1 1441
1 1442
1 1443
1 1444
1 1445
1 1446
1 1447
1 1448
1 1449
1 1450
1 1451
1 1452
1 1453
1 1454
1 1455
1 1456
1 1457
1 1458
1 1459
1 1460
1 1461
1 1462
1 1463
1 1464
1 1465
1 1466
1 1467
1 1468
1 1469
1 1470
1 1471
1 1472
1 1473
1 1474
1 1475
1 1476
1 1477
1 1478
1 1479
1 1480
1 1481
1 1482
1 1483
1 1484
1 1485
1 1486
1 1487
1 1488
1 1489
1 1490
1 1491
1 1492
1 1493
1 1494
1 1495
1 1496
1 1497
1 1498
1 1499
1 1500
1 1501
1 1502
1 1503
1 1504
1 1505
1 1506
1 1507
1 1508
1 1509
1 1510
1 1511
1 1512
1 1513
1 1514
1 1515
1 1516
1 1517
1 1518
1 1519
1 1520
1 1521
1 1522
1 1523
1 1524
1 1525
1 1526
1 1527
1 1528
1 1529
1 1530
1 1531
1 1532
1 1533
1 1534
1 1535
1 1536
1 1537
1 1538
1 1539
1 1540
1 1541
1 1542
1 1543
1 1544
1 1545
1 1546
1 1547
1 1548
1 1549
1 1550
1 1551
1 1552
1 1553
1 1554
1 1555
1 1556
1 1557
1 1558
1 1559
1 1560
1 1561
1 1562
1 1563
1 1564
1 1565
1 1566
1 1567
1 1568
1 1569
1 1570
1 1571
1 1572
1 1573
1 1574
1 1575
1 1576
1 1577
1 1578
1 1579
1 1580
1 1581
1 1582
1 1583
1 1584
1 1585
1 1586
1 1587
1 1588
1 1589
1 1590
1 1591
1 1592
1 1593
1 1594
1 1595
1 1596
1 1597
1 1598
1 1599
1 1600
1 1601
1 1602
1 1603
1 1604
1 1605
1 1606
1 1607
1 1608
1 1609
1 1610
1 1611
1 1612
1 1613
1 1614
1 1615
1 1616
1 1617
1 1618
1 1619
1 1620
1 1621
1 1622
1 1623
1 1624
1 1625
1 1626
1 1627
1 1628
1 1629
1 1630
1 1631
1 1632
1 1633
1 1634
1 1635
1 1636
1 1637
1 1638
1 1639
1 1640
1 1641
1 1642
1 1643
1 1644
1 1645
1 1646
1 1647
1 1648
1 1649
1 1650
1 1651
1 1652
1 1653
1 1654
1 1655
1 1656
1 1657
1 1658
1 1659
1 1660
1 1661
1 1662
1 1663
1 1664
1 1665
1 1666
1 1667
1 1668
1 1669
1 1670
1 1671
1 1672
1 1673
1 1674
1 1675
1 1676
1 1677
1 1678
1 1679
1 1680
1 1681
1 1682
1 1683
1 1684
1 1685
1 1686
1 1687
1 1688
1 1689
1 1690
1 1691
1 1692
1 1693
1 1694
1 1695
1 1696
1 1697
1 1698
1 1699
1 1700
1 1701
1 1702
1 1703
1 1704
1 1705
1 1706
1 1707
1 1708
1 1709
1 1710
1 1711
1 1712
1 1713
1 1714
1 1715
1 1716
1 1717
1 1718
1 1719
1 1720
1 1721
1 1722
1 1723
1 1724
1 1725
1 1726
1 1727
1 1728
1 1729
1 1730
1 1731
1 1732
1 1733
1 1734
1 1735
1 1736
1 1737
1 1738
1 1739
1 1740
1 1741
1 1742
1 1743
1 1744
1 1745
1 1746
1 1747
1 1748
1 1749
1 1750
1 1751
1 1752
1 1753
1 1754
1 1755
1 1756
1 1757
1 1758
1 1759
1 1760
1 1761
1 1762
1 1763
1 1764
1 1765
1 1766
1 1767
1 1768
1 1769
1 1770
1 1771
1 1772
1 1773
1 1774
1 1775
1 1776
1 1777
1 1778
1 1779
1 1780
1 1781
1 1782
1 1783
1 1784
1 1785
1 1786
1 1787
1 1788
1 1789
1 1790
1 1791
1 1792
1 1793
1 1794
1 1795
1 1796
1 1797
1 1798
1 1799
1 1800
1 1801
1 1802
1 1803
1 1804
1 1805
1 1806
1 1807
1 1808
1 1809
1 1810
1 1811
1 1812
1 1813
1 1814
1 1815
1 1816
1 1817
1 1818
1 1819
1 1820
1 1821
1 1822
1 1823
1 1824
1 1825
1 1826
1 1827
1 1828
1 1829
1 1830
1 1831
1 1832
1 1833
1 1834
1 1835
1 1836
1 1837
1 1838
1 1839
1 1840
1 1841
1 1842
1 1843
1 1844
1 1845
1 1846
1 1847
1 1848
1 1849
1 1850
1 1851
1 1852
1 1853
1 1854
1 1855
1 1856
1 1857
1 1858
1 1859
1 1860
1 1861
1 1862
1 1863
1 1864
1 1865
1 1866
1 1867
1 1868
1 1869
1 1870
1 1871
1 1872
1 1873
1 1874
1 1875
1 1876
1 1877
1 1878
1 1879
1 1880
1 1881
1 1882
1 1883
1 1884
1 1885
1 1886
1 1887
1 1888
1 1889
1 1890
1 1891
1 1892
1 1893
1 1894
1 1895
1 1896
1 1897
1 1898
1 1899
1 1900
1 1901
1 1902
1 1903
1 1904
1 1905
1 1906
1 1907
1 1908
1 1909
1 1910
1 1911
1 1912
1 1913
1 1914
1 1915
1 1916
1 1917
1 1918
1 1919
1 1920
1 1921
1 1922
1 1923
1 1924
1 1925
1 1926
1 1927
1 1928
1 1929
1 1930
1 1931
1 1932
1 1933
1 1934
1 1935
1 1936
1 1937
1 1938
1 1939
1 1940
1 1941
1 1942
1 1943
1 1944
1 1945
1 1946
1 1947
1 1948
1 1949
1 1950
1 1951
1 1952
1 1953
1 1954
1 1955
1 1956
1 1957
1 1958
1 1959
1 1960
1 1961
1 1962
1 1963
1 1964
1 1965
1 1966
1 1967
1 1968
1 1969
1 1970
1 1971
1 1972
1 1973
1 1974
1 1975
1 1976
1 1977
1 1978
1 1979
1 1980
1 1981
1 1982
1 1983
1 1984
1 1985
1 1986
1 1987
1 1988
1 1989
1 1990
1 1991
1 1992
1 1993
1 1994
1 1995
1 1996
1 1997
1 1998
1 1999
1 2000
1 2001
1 2002
1 2003
1 2004
1 2005
1 2006
1 2007
1 2008
1 2009
1 2010
1 2011
1 2012
1 2013
1 2014
1 2015
1 2016
1 2017
1 2018
1 2019
1 2020
1 2021
1 2022
1 2023
1 2024
1 2025
1 2026
1 2027
1 2028
1 2029
1 2030
1 2031
1 2032
1 2033
1 2034
1 2035
1 2036
1 2037
1 2038
1 2039
1 2040
1 2041
1 2042
1 2043
1 2044
1 2045
1 2046
1 2047
1 2048
1 2049
1 2050
1 2051
1 2052
1 2053
1 2054
1 2055
1 2056
1 2057
1 2058
1 2059
1 2060
1 2061
1 2062
1 2063
1 2064
1 2065
1 2066
1 2067
1 2068
1 2069
1 2070
1 2071
1 2072
1 2073
1 2074
1 2075
1 2076
1 2077
1 2078
1 2079
1 2080
1 2081
1 2082
1 2083
1 2084
1 2085
1 2086
1 2087
1 2088
1 2089
1 2090
1 2091
1 2092
1 2093
1 2094
1 2095
1 2096
1 2097
1 2098
1 2099
1 2100
1 2101
1 2102
1 2103
1 2104
1 2105
1 2106
1 2107
1 2108
1 2109
1 2110
1 2111
1 2112
1 2113
1 2114
1 2115
1 2116
1 2117
1 2118
1 2119
1 2120
1 2121
1 2122
1 2123
1 2124
1 2125
1 2126
1 2127
1 2128
1 2129
1 2130
1 2131
1 2132
1 2133
1 2134
1 2135
1 2136
1 2137
1 2138
1 2139
1 2140
1 2141
1 2142
1 2143
1 2144
1 2145
1 2146
1 2147
1 2148
1 2149
1 2150
1 2151
1 2152
1 2153
1 2154
1 2155
1 2156
1 2157
1 2158
1 2159
1 2160
1 2161
1 2162
1 2163
1 2164
1 2165
1 2166
1 2167
1 2168
1 2169
1 2170
1 2171
1 2172
1 2173
1 2174
1 2175
1 2176
1 2177
1 2178
1 2179
1 2180
1 2181
1 2182
1 2183
1 2184
1 2185
1 2186
1 2187
1 2188
1 2189
1 2190
1 2191
1 2192
1 2193
1 2194
1 2195
1 2196
1 2197
1 2198
1 2199
1 2200
1 2201
1 2202
1 2203
1 2204
1 2205
1 2206
1 2207
1 2208
1 2209
1 2210
1 2211
1 2212
1 2213
1 2214
1 2215
1 2216
1 2217
1 2218
1 2219
1 2220
1 2221
1 2222
1 2223
1 2224
1 2225
1 2226
1 2227
1 2228
1 2229
1 2230
1 2231
1 2232
1 2233
1 2234
1 2235
1 2236
1 2237
1 2238
1 2239
1 2240
1 2241
1 2242
1 2243
1 2244
1 2245
1 2246
1 2247
1 2248
1 2249
1 2250
1 2251
1 2252
1 2253
1 2254
1 2255
1 2256
1 2257
1 2258
1 2259
1 2260
1 2261
1 2262
1 2263
1 2264
1 2265
1 2266
1 2267
1 2268
1 2269
1 2270
1 2271
1 2272
1 2273
1 2274
1 2275
1 2276
1 2277
1 2278
1 2279
1 2280
1 2281
1 2282
1 2283
1 2284
1 2285
1 2286
1 2287
1 2288
1 2289
1 2290
1 2291
1 2292
1 2293
1 2294
1 2295
1 2296
1 2297
1 2298
1 2299
1 2300
1 2301
1 2302
1 2303
1 2304
1 2305
1 2306
1 2307
1 2308
1 2309
1 2310
1 2311
1 2312
1 2313
1 2314
1 2315
1 2316
1 2317
1 2318
1 2319
1 2320
1 2321
1 2322
1 2323
1 2324
1 2325
1 2326
1 2327
1 2328
1 2329
1 2330
1 2331
1 2332
1 2333
1 2334
1 2335
1 2336
1 2337
1 2338
1 2339
1 2340
1 2341
1 2342
1 2343
1 2344
1 2345
1 2346
1 2347
1 2348
1 2349
1 2350
1 2351
1 2352
1 2353
1 2354
1 2355
1 2356
1 2357
1 2358
1 2359
1 2360
1 2361
1 2362
1 2363
1 2364
1 2365
1 2366
1 2367
1 2368
1 2369
1 2370
1 2371
1 2372
1 2373
1 2374
1 2375
1 2376
1 2377
1 2378
1 2379
1 2380
1 2381
1 2382
1 2383
1 2384
1 2385
1 2386
1 2387
1 2388
1 2389
1 2390
1 2391
1 2392
1 2393
1 2394
1 2395
1 2396
1 2397
1 2398
1 2399
1 2400
1 2401
1 2402
1 2403
1 2404
1 2405
1 2406
1 2407
1 2408
1 2409
1 2410
1 2411
1 2412
1 2413
1 2414
1 2415
1 2416
1 2417
1 2418
1 2419
1 2420
1 2421
1 2422
1 2423
1 2424
1 2425
1 2426
1 2427
1 2428
1 2429
1 2430
1 2431
1 2432
1 2433
1 2434
1 2435
1 2436
1 2437
1 2438
1 2439
1 2440
1 2441
1 2442
1 2443
1 2444
1 2445
1 2446
1 2447
1 2448
1 2449
1 2450
1 2451
1 2452
1 2453
1 2454
1 2455
1 2456
1 2457
1 2458
1 2459
1 2460
1 2461
1 2462
1 2463
1 2464
1 2465
1 2466
1 2467
1 2468
1 2469
1 2470
1 2471
1 2472
1 2473
1 2474
1 2475
1 2476
1 2477
1 2478
1 2479
1 2480
1 2481
1 2482
1 2483
1 2484
1 2485
1 2486
1 2487
1 2488
1 2489
1 2490
1 2491
1 2492
1 2493
1 2494
1 2495
1 2496
1 2497
1 2498
1 2499
1 2500
1 2501
1 2502
1 2503
1 2504
1 2505
1 2506
1 2507
1 2508
1 2509
1 2510
1 2511
1 2512
1 2513
1 2514
1 2515
1 2516
1 2517
1 2518
1 2519
1 2520
1 2521
1 2522
1 2523
1 2524
1 2525
1 2526
1 2527
1 2528
1 2529
1 2530
1 2531
1 2532
1 2533
1 2534
1 2535
1 2536
1 2537
1 2538
1 2539
1 2540
1 2541
1 2542
1 2543
1 2544
1 2545
1 2546
1 2547
1 2548
1 2549
1 2550
1 2551
1 2552
1 2553
1 2554
1 2555
1 2556
1 2557
1 2558
1 2559
1 2560
1 2561
1 2562
1 2563
1 2564
1 2565
1 2566
1 2567
1 2568
1 2569
1 2570
1 2571
1 2572
1 2573
1 2574
1 2575
1 2576
1 2577
1 2578
1 2579
1 2580
1 2581
1 2582
1 2583
1 2584
1 2585
1 2586
1 2587
1 2588
1 2589
1 2590
1 2591
1 2592
1 2593
1 2594
1 2595
1 2596
1 2597
1 2598
1 2599
1 2600
1 2601
1 2602
1 2603
1 2604
1 2605
1 2606
1 2607
1 2608
1 2609
1 2610
1 2611
1 2612
1 2613
1 2614
1 2615
1 2616
1 2617
1 2618
1 2619
1 2620
1 2621
1 2622
1 2623
1 2624
1 2625
1 2626
1 2627
1 2628
1 2629
1 2630
1 2631
1 2632
1 2633
1 2634
1 2635
1 2636
1 2637
1 2638
1 2639
1 2640
1 2641
1 2642
1 2643
1 2644
1 2645
1 2646
1 2647
1 2648
1 2649
1 2650
1 2651
1 2652
1 2653
1 2654
1 2655
1 2656
1 2657
1 2658
1 2659
1 2660
1 2661
1 2662
1 2663
1 2664
1 2665
1 2666
1 2667
1 2668
1 2669
1 2670
1 2671
1 2672
1 2673
1 2674
1 2675
1 2676
1 2677
1 2678
1 2679
1 2680
1 2681
1 2682
1 2683
1 2684
1 2685
1 2686
1 2687
1 2688
1 2689
1 2690
1 2691
1 2692
1 2693
1 2694
1 2695
1 2696
1 2697
1 2698
1 2699
1 2700
1 2701
1 2702
1 2703
1 2704
1 2705
1 2706
1 2707
1 2708
1 2709
1 2710
1 2711
1 2712
1 2713
1 2714
1 2715
1 2716
1 2717
1 2718
1 2719
1 2720
1 2721
1 2722
1 2723
1 2724
1 2725
1 2726
1 2727
1 2728
1 2729
1 2730
1 2731
1 2732
1 2733
1 2734
1 2735
1 2736
1 2737
1 2738
1 2739
1 2740
1 2741
1 2742
1 2743
1 2744
1 2745
1 2746
1 2747
1 2748
1 2749
1 2750
1 2751
1 2752
1 2753
1 2754
1 2755
1 2756
1 2757
1 2758
1 2759
1 2760
1 2761
1 2762
1 2763
1 2764
1 2765
1 2766
1 2767
1 2768
1 2769
1 2770
1 2771
1 2772
1 2773
1 2774
1 2775
1 2776
1 2777
1 2778
1 2779
1 2780
1 2781
1 2782
1 2783
1 2784
1 2785
1 2786
1 2787
1 2788
1 2789
1 2790
1 2791
1 2792
1 2793
1 2794
1 2795
1 2796
1 2797
1 2798
1 2799
1 2800
1 2801
1 2802
1 2803
1 2804
1 2805
1 2806
1 2807
1 2808
1 2809
1 2810
1 2811
1 2812
1 2813
1 2814
1 2815
1 2816
1 2817
1 2818
1 2819
1 2820
1 2821
1 2822
1 2823
1 2824
1 2825
1 2826
1 2827
1 2828
1 2829
1 2830
1 2831
1 2832
1 2833
1 2834
1 2835
1 2836
1 2837
1 2838
1 2839
1 2840
1 2841
1 2842
1 2843
1 2844
1 2845
1 2846
1 2847
1 2848
1 2849
1 2850
1 2851
1 2852
1 2853
1 2854
1 2855
1 2856
1 2857
1 2858
1 2859
1 2860
1 2861
1 2862
1 2863
1 2864
1 2865
1 2866
1 2867
1 2868
1 2869
1 2870
1 2871
1 2872
1 2873
1 2874
1 2875
1 2876
1 2877
1 2878
1 2879
1 2880
1 2881
1 2882
1 2883
1 2884
1 2885
1 2886
1 2887
1 2888
1 2889
1 2890
1 2891
1 2892
1 2893
1 2894
1 2895
1 2896
1 2897
1 2898
1 2899
1 2900
1 2901
1 2902
1 2903
1 2904
1 2905
1 2906
1 2907
1 2908
1 2909
1 2910
1 2911
1 2912
1 2913
1 2914
1 2915
1 2916
1 2917
1 2918
1 2919
1 2920
1 2921
1 2922
1 2923
1 2924
1 2925
1 2926
1 2927
1 2928
1 2929
1 2930
1 2931
1 2932
1 2933
1 2934
1 2935
1 2936
1 2937
1 2938
1 2939
1 2940
1 2941
1 2942
1 2943
1 2944
1 2945
1 2946
1 2947
1 2948
1 2949
1 2950
1 2951
1 2952
1 2953
1 2954
1 2955
1 2956
1 2957
1 2958
1 2959
1 2960
1 2961
1 2962
1 2963
1 2964
1 2965
1 2966
1 2967
1 2968
1 2969
1 2970
1 2971
1 2972
1 2973
1 2974
1 2975
1 2976
1 2977
1 2978
1 2979
1 2980
1 2981
1 2982
1 2983
1 2984
1 2985
1 2986
1 2987
1 2988
1 2989
1 2990
1 2991
1 2992
1 2993
1 2994
1 2995
1 2996
1 2997
1 2998
1 2999
1 3000
1 3001
1 3002
1 3003
1 3004
1 3005
1 3006
1 3007
1 3008
1 3009
1 3010
1 3011
1 3012
1 3013
1 3014
1 3015
1 3016
1 3017
1 3018
1 3019
1 3020
1 3021
1 3022
1 3023
1 3024
1 3025
1 3026
1 3027
1 3028
1 3029
1 3030
1 3031
1 3032
1 3033
1 3034
1 3035
1 3036
1 3037
1 3038
1 3039
1 3040
1 3041
1 3042
1 3043
1 3044
1 3045
1 3046
1 3047
1 3048
1 3049
1 3050
1 3051
1 3052
1 3053
1 3054
1 3055
1 3056
1 3057
1 3058
1 3059
1 3060
1 3061
1 3062
1 3063
1 3064
1 3065
1 3066
1 3067
1 3068
1 3069
1 3070
1 3071
1 3072
1 3073
1 3074
1 3075
1 3076
1 3077
1 3078
1 3079
1 3080
1 3081
1 3082
1 3083
1 3084
1 3085
1 3086
1 3087
1 3088
1 3089
1 3090
1 3091
1 3092
1 3093
1 3094
1 3095
1 3096
1 3097
1 3098
1 3099
1 3100
1 3101
1 3102
1 3103
1 3104
1 3105
1 3106
1 3107
1 3108
1 3109
1 3110
1 3111
1 3112
1 3113
1 3114
1 3115
1 3116
1 3117
1 3118
1 3119
1 3120
1 3121
1 3122
1 3123
1 3124
1 3125
1 3126
1 3127
1 3128
1 3129
1 3130
1 3131
1 3132
1 3133
1 3134
1 3135
1 3136
1 3137
1 3138
1 3139
1 3140
1 3141
1 3142
1 3143
1 3144
1 3145
1 3146
1 3147
1 3148
1 3149
1 3150
1 3151
1 3152
1 3153
1 3154
1 3155
1 3156
1 3157
1 3158
1 3159
1 3160
1 3161
1 3162
1 3163
1 3164
1 3165
1 3166
1 3167
1 3168
1 3169
1 3170
1 3171
1 3172
1 3173
1 3174
1 3175
1 3176
1 3177
1 3178
1 3179
1 3180
1 3181
1 3182
1 3183
1 3184
1 3185
1 3186
1 3187
1 3188
1 3189
1 3190
1 3191
1 3192
1 3193
1 3194
1 3195
1 3196
1 3197
1 3198
1 3199
1 3200
1 3201
1 3202
1 3203
1 3204
1 3205
1 3206
1 3207
1 3208
1 3209
1 3210
1 3211
1 3212
1 3213
1 3214
1 3215
1 3216
1 3217
1 3218
1 3219
1 3220
1 3221
1 3222
1 3223
1 3224
1 3225
1 3226
1 3227
1 3228
1 3229
1 3230
1 3231
1 3232
1 3233
1 3234
1 3235
1 3236
1 3237
1 3238
1 3239
1 3240
1 3241
1 3242
1 3243
1 3244
1 3245
1 3246
1 3247
1 3248
1 3249
1 3250
1 3251
1 3252
1 3253
1 3254
1 3255
1 3256
1 3257
1 3258
1 3259
1 3260
1 3261
1 3262
1 3263
1 3264
1 3265
1 3266
1 3267
1 3268
1 3269
1 3270
1 3271
1 3272
1 3273
1 3274
1 3275
1 3276
1 3277
1 3278
1 3279
1 3280
1 3281
1 3282
1 3283
1 3284
1 3285
1 3286
1 3287
1 3288
1 3289
1 3290
1 3291
1 3292
1 3293
1 3294
1 3295
1 3296
1 3297
1 3298
1 3299
1 3300
1 3301
1 3302
1 3303
1 3304
1 3305
1 3306
1 3307
1 3308
1 3309
1 3310
1 3311
1 3312
1 3313
1 3314
1 3315
1 3316
1 3317
1 3318
1 3319
1 3320
1 3321
1 3322
1 3323
1 3324
1 3325
1 3326
1 3327
1 3328
1 3329
1 3330
1 3331
1 3332
1 3333
1 3334
1 3335
1 3336
1 3337
1 3338
1 3339
1 3340
1 3341
1 3342
1 3343
1 3344
1 3345
1 3346
1 3347
1 3348
1 3349
1 3350
1 3351
1 3352
1 3353
1 3354
1 3355
1 3356
1 3357
1 3358
1 3359
1 3360
1 3361
1 3362
1 3363
1 3364
1 3365
1 3366
1 3367
1 3368
1 3369
1 3370
1 3371
1 3372
1 3373
1 3374
1 3375
1 3376
1 3377
1 3378
1 3379
1 3380
1 3381
1 3382
1 3383
1 3384
1 3385
1 3386
1 3387
1 3388
1 3389
1 3390
1 3391
1 3392
1 3393
1 3394
1 3395
1 3396
1 3397
1 3398
1 3399
1 3400
1 3401
1 3402
1 3403
1 3404
1 3405
1 3406
1 3407
1 3408
1 3409
1 3410
1 3411
1 3412
1 3413
1 3414
1 3415
1 3416
1 3417
1 3418
1 3419
1 3420
1 3421
1 3422
1 3423
1 3424
1 3425
1 3426
1 3427
1 3428
1 3429
1 3430
1 3431
1 3432
1 3433
1 3434
1 3435
1 3436
1 3437
1 3438
1 3439
1 3440
1 3441
1 3442
1 3443
1 3444
1 3445
1 3446
1 3447
1 3448
1 3449
1 3450
1 3451
1 3452
1 3453
1 3454
1 3455
1 3456
1 3457
1 3458
1 3459
1 3460
1 3461
1 3462
1 3463
1 3464
1 3465
1 3466
1 3467
1 3468
1 3469
1 3470
1 3471
1 3472
1 3473
1 3474
1 3475
1 3476
1 3477
1 3478
1 3479
1 3480
1 3481
1 3482
1 3483
1 3484
1 3485
1 3486
1 3487
1 3488
1 3489
1 3490
1 3491
1 3492
1 3493
1 3494
1 3495
1 3496
1 3497
1 3498
1 3499
1 3500
1 3501
1 3502
1 3503
1 3504
1 3505
1 3506
1 3507
1 3508
1 3509
1 3510
1 3511
1 3512
1 3513
1 3514
1 3515
1 3516
1 3517
1 3518
1 3519
1 3520
1 3521
1 3522
1 3523
1 3524
1 3525
1 3526
1 3527
1 3528
1 3529
1 3530
1 3531
1 3532
1 3533
1 3534
1 3535
1 3536
1 3537
1 3538
1 3539
1 3540
1 3541
1 3542
1 3543
1 3544
1 3545
1 3546
1 3547
1 3548
1 3549
1 3550
1 3551
1 3552
1 3553
1 3554
1 3555
1 3556
1 3557
1 3558
1 3559
1 3560
1 3561
1 3562
1 3563
1 3564
1 3565
1 3566
1 3567
1 3568
1 3569
1 3570
1 3571
1 3572
1 3573
1 3574
1 3575
1 3576
1 3577
1 3578
1 3579
1 3580
1 3581
1 3582
1 3583
1 3584
1 3585
1 3586
1 3587
1 3588
1 3589
1 3590
1 3591
1 3592
1 3593
1 3594
1 3595
1 3596
1 3597
1 3598
1 3599
1 3600
1 3601
1 3602
1 3603
1 3604
1 3605
1 3606
1 3607
1 3608
1 3609
1 3610
1 3611
1 3612
1 3613
1 3614
1 3615
1 3616
1 3617
1 3618
1 3619
1 3620
1 3621
1 3622
1 3623
1 3624
1 3625
1 3626
1 3627
1 3628
1 3629
1 3630
1 3631
1 3632
1 3633
1 3634
1 3635
1 3636
1 3637
1 3638
1 3639
1 3640
1 3641
1 3642
1 3643
1 3644
1 3645
1 3646
1 3647
1 3648
1 3649
1 3650
1 3651
1 3652
1 3653
1 3654
1 3655
1 3656
1 3657
1 3658
1 3659
1 3660
1 3661
1 3662
1 3663
1 3664
1 3665
1 3666
1 3667
1 3668
1 3669
1 3670
1 3671
1 3672
1 3673
1 3674
1 3675
1 3676
1 3677
1 3678
1 3679
1 3680
1 3681
1 3682
1 3683
1 3684
1 3685
1 3686
1 3687
1 3688
1 3689
1 3690
1 3691
1 3692
1 3693
1 3694
1 3695
1 3696
1 3697
1 3698
1 3699
1 3700
1 3701
1 3702
1 3703
1 3704
1 3705
1 3706
1 3707
1 3708
1 3709
1 3710
1 3711
1 3712
1 3713
1 3714
1 3715
1 3716
1 3717
1 3718
1 3719
1 3720
1 3721
1 3722
1 3723
1 3724
1 3725
1 3726
1 3727
1 3728
1 3729
1 3730
1 3731
1 3732
1 3733
1 3734
1 3735
1 3736
1 3737
1 3738
1 3739
1 3740
1 3741
1 3742
1 3743
1 3744
1 3745
1 3746
1 3747
1 3748
1 3749
1 3750
1 3751
1 3752
1 3753
1 3754
1 3755
1 3756
1 3757
1 3758
1 3759
1 3760
1 3761
1 3762
1 3763
1 3764
1 3765
1 3766
1 3767
1 3768
1 3769
1 3770
1 3771
1 3772
1 3773
1 3774
1 3775
1 3776
1 3777
1 3778
1 3779
1 3780
1 3781
1 3782
1 3783
1 3784
1 3785
1 3786
1 3787
1 3788
1 3789
1 3790
1 3791
1 3792
1 3793
1 3794
1 3795
1 3796
1 3797
1 3798
1 3799
1 3800
1 3801
1 3802
1 3803
1 3804
1 3805
1 3806
1 3807
1 3808
1 3809
1 3810
1 3811
1 3812
1 3813
1 3814
1 3815
1 3816
1 3817
1 3818
1 3819
1 3820
1 3821
1 3822
1 3823
1 3824
1 3825
1 3826
1 3827
1 3828
1 3829
1 3830
1 3831
1 3832
1 3833
1 3834
1 3835
1 3836
1 3837
1 3838
1 3839
1 3840
1 3841
1 3842
1 3843
1 3844
1 3845
1 3846
1 3847
1 3848
1 3849
1 3850
1 3851
1 3852
1 3853
1 3854
1 3855
1 3856
1 3857
1 3858
1 3859
1 3860
1 3861
1 3862
1 3863
1 3864
1 3865
1 3866
1 3867
1 3868
1 3869
1 3870
1 3871
1 3872
1 3873
1 3874
1 3875
1 3876
1 3877
1 3878
1 3879
1 3880
1 3881
1 3882
1 3883
1 3884
1 3885
1 3886
1 3887
1 3888
1 3889
1 3890
1 3891
1 3892
1 3893
1 3894
1 3895
1 3896
1 3897
1 3898
1 3899
1 3900
1 3901
1 3902
1 3903
1 3904
1 3905
1 3906
1 3907
1 3908
1 3909
1 3910
1 3911
1 3912
1 3913
1 3914
1 3915
1 3916
1 3917
1 3918
1 3919
1 3920
1 3921
1 3922
1 3923
1 3924
1 3925
1 3926
1 3927
1 3928
1 3929
1 3930
1 3931
1 3932
1 3933
1 3934
1 3935
1 3936
1 3937
1 3938
1 3939
1 3940
1 3941
1 3942
1 3943
1 3944
1 3945
1 3946
1 3947
1 3948
1 3949
1 3950
1 3951
1 3952
1 3953
1 3954
1 3955
1 3956
1 3957
1 3958
1 3959
1 3960
1 3961
1 3962
1 3963
1 3964
1 3965
1 3966
1 3967
1 3968
1 3969
1 3970
1 3971
1 3972
1 3973
1 3974
1 3975
1 3976
1 3977
1 3978
1 3979
1 3980
1 3981
1 3982
1 3983
1 3984
1 3985
1 3986
1 3987
1 3988
1 3989
1 3990
1 3991
1 3992
1 3993
1 3994
1 3995
1 3996
1 3997
1 3998
1 3999
1 4000
1 4001
1 4002
1 4003
1 4004
1 4005
1 4006
1 4007
1 4008
1 4009
1 4010
1 4011
1 4012
1 4013
1 4014
1 4015
1 4016
1 4017
1 4018
1 4019
1 4020
1 4021
1 4022
1 4023
1 4024
1 4025
1 4026
1 4027
1 4028
1 4029
1 4030
1 4031
1 4032
1 4033
1 4034
1 4035
1 4036
1 4037
1 4038
1 4039
1 4040
1 4041
1 4042
1 4043
1 4044
1 4045
1 4046
1 4047
1 4048
1 4049
1 4050
1 4051
1 4052
1 4053
1 4054
1 4055
1 4056
1 4057
1 4058
1 4059
1 4060
1 4061
1 4062
1 4063
1 4064
1 4065
1 4066
1 4067
1 4068
1 4069
1 4070
1 4071
1 4072
1 4073
1 4074
1 4075
1 4076
1 4077
1 4078
1 4079
1 4080
1 4081
1 4082
1 4083
1 4084
1 4085
1 4086
1 4087
1 4088
1 4089
1 4090
1 4091
1 4092
1 4093
1 4094
1 4095
1 4096
1 4097
1 4098
1 4099
1 4100
1 4101
1 4102
1 4103
1 4104
1 4105
1 4106
1 4107
1 4108
1 4109
1 4110
1 4111
1 4112
1 4113
1 4114
1 4115
1 4116
1 4117
1 4118
1 4119
1 4120
1 4121
1 4122
1 4123
1 4124
1 4125
1 4126
1 4127
1 4128
1 4129
1 4130
1 4131
1 4132
1 4133
1 4134
1 4135
1 4136
1 4137
1 4138
1 4139
1 4140
1 4141
1 4142
1 4143
1 4144
1 4145
1 4146
1 4147
1 4148
1 4149
1 4150
1 4151
1 4152
1 4153
1 4154
1 4155
1 4156
1 4157
1 4158
1 4159
1 4160
1 4161
1 4162
1 4163
1 4164
1 4165
1 4166
1 4167
1 4168
1 4169
1 4170
1 4171
1 4172
1 4173
1 4174
1 4175
1 4176
1 4177
1 4178
1 4179
1 4180
1 4181
1 4182
1 4183
1 4184
1 4185
1 4186
1 4187
1 4188
1 4189
1 4190
1 4191
1 4192
1 4193
1 4194
1 4195
1 4196
1 4197
1 4198
1 4199
1 4200
1 4201
1 4202
1 4203
1 4204
1 4205
1 4206
1 4207
1 4208
1 4209
1 4210
1 4211
1 4212
1 4213
1 4214
1 4215
1 4216
1 4217
1 4218
1 4219
1 4220
1 4221
1 4222
1 4223
1 4224
1 4225
1 4226
1 4227
1 4228
1 4229
1 4230
1 4231
1 4232
1 4233
1 4234
1 4235
1 4236
1 4237
1 4238
1 4239
1 4240
1 4241
1 4242
1 4243
1 4244
1 4245
1 4246
1 4247
1 4248
1 4249
1 4250
1 4251
1 4252
1 4253
1 4254
1 4255
1 4256
1 4257
1 4258
1 4259
1 4260
1 4261
1 4262
1 4263
1 4264
1 4265
1 4266
1 4267
1 4268
1 4269
1 4270
1 4271
1 4272
1 4273
1 4274
1 4275
1 4276
1 4277
1 4278
1 4279
1 4280
1 4281
1 4282
1 4283
1 4284
1 4285
1 4286
1 4287
1 4288
1 4289
1 4290
1 4291
1 4292
1 4293
1 4294
1 4295
1 4296
1 4297
1 4298
1 4299
1 4300
1 4301
1 4302
1 4303
1 4304
1 4305
1 4306
1 4307
1 4308
1 4309
1 4310
1 4311
1 4312
1 4313
1 4314
1 4315
1 4316
1 4317
1 4318
1 4319
1 4320
1 4321
1 4322
1 4323
1 4324
1 4325
1 4326
1 4327
1 4328
1 4329
1 4330
1 4331
1 4332
1 4333
1 4334
1 4335
1 4336
1 4337
1 4338
1 4339
1 4340
1 4341
1 4342
1 4343
1 4344
1 4345
1 4346
1 4347
1 4348
1 4349
1 4350
1 4351
1 4352
1 4353
1 4354
1 4355
1 4356
1 4357
1 4358
1 4359
1 4360
1 4361
1 4362
1 4363
1 4364
1 4365
1 4366
1 4367
1 4368
1 4369
1 4370
1 4371
1 4372
1 4373
1 4374
1 4375
1 4376
1 4377
1 4378
1 4379
1 4380
1 4381
1 4382
1 4383
1 4384
1 4385
1 4386
1 4387
1 4388
1 4389
1 4390
1 4391
1 4392
1 4393
1 4394
1 4395
1 4396
1 4397
1 4398
1 4399
1 4400
1 4401
1 4402
1 4403
1 4404
1 4405
1 4406
1 4407
1 4408
1 4409
1 4410
1 4411
1 4412
1 4413
1 4414
1 4415
1 4416
1 4417
1 4418
1 4419
1 4420
1 4421
1 4422
1 4423
1 4424
1 4425
1 4426
1 4427
1 4428
1 4429
1 4430
1 4431
1 4432
1 4433
1 4434
1 4435
1 4436
1 4437
1 4438
1 4439
1 4440
1 4441
1 4442
1 4443
1 4444
1 4445
1 4446
1 4447
1 4448
1 4449
1 4450
1 4451
1 4452
1 4453
1 4454
1 4455
1 4456
1 4457
1 4458
1 4459
1 4460
1 4461
1 4462
1 4463
1 4464
1 4465
1 4466
1 4467
1 4468
1 4469
1 4470
1 4471
1 4472
1 4473
1 4474
1 4475
1 4476
1 4477
1 4478
1 4479
1 4480
1 4481
1 4482
1 4483
1 4484
1 4485
1 4486
1 4487
1 4488
1 4489
1 4490
1 4491
1 4492
1 4493
1 4494
1 4495
1 4496
1 4497
1 4498
1 4499
1 4500
1 4501
1 4502
1 4503
1 4504
1 4505
1 4506
1 4507
1 4508
1 4509
1 4510
1 4511
1 4512
1 4513
1 4514
1 4515
1 4516
1 4517
1 4518
1 4519
1 4520
1 4521
1 4522
1 4523
1 4524
1 4525
1 4526
1 4527
1 4528
1 4529
1 4530
1 4531
1 4532
1 4533
1 4534
1 4535
1 4536
1 4537
1 4538
1 4539
1 4540
1 4541
1 4542
1 4543
1 4544
1 4545
1 4546
1 4547
1 4548
1 4549
1 4550
1 4551
1 4552
1 4553
1 4554
1 4555
1 4556
1 4557
1 4558
1 4559
1 4560
1 4561
1 4562
1 4563
1 4564
1 4565
1 4566
1 4567
1 4568
1 4569
1 4570
1 4571
1 4572
1 4573
1 4574
1 4575
1 4576
1 4577
1 4578
1 4579
1 4580
1 4581
1 4582
1 4583
1 4584
1 4585
1 4586
1 4587
1 4588
1 4589
1 4590
1 4591
1 4592
1 4593
1 4594
1 4595
1 4596
1 4597
1 4598
1 4599
1 4600
1 4601
1 4602
1 4603
1 4604
1 4605
1 4606
1 4607
1 4608
1 4609
1 4610
1 4611
1 4612
1 4613
1 4614
1 4615
1 4616
1 4617
1 4618
1 4619
1 4620
1 4621
1 4622
1 4623
1 4624
1 4625
1 4626
1 4627
1 4628
1 4629
1 4630
1 4631
1 4632
1 4633
1 4634
1 4635
1 4636
1 4637
1 4638
1 4639
1 4640
1 4641
1 4642
1 4643
1 4644
1 4645
1 4646
1 4647
1 4648
1 4649
1 4650
1 4651
1 4652
1 4653
1 4654
1 4655
1 4656
1 4657
1 4658
1 4659
1 4660
1 4661
1 4662
1 4663
1 4664
1 4665
1 4666
1 4667
1 4668
1 4669
1 4670
1 4671
1 4672
1 4673
1 4674
1 4675
1 4676
1 4677
1 4678
1 4679
1 4680
1 4681
1 4682
1 4683
1 4684
1 4685
1 4686
1 4687
1 4688
1 4689
1 4690
1 4691
1 4692
1 4693
1 4694
1 4695
1 4696
1 4697
1 4698
1 4699
1 4700
1 4701
1 4702
1 4703
1 4704
1 4705
1 4706
1 4707
1 4708
1 4709
1 4710
1 4711
1 4712
1 4713
1 4714
1 4715
1 4716
1 4717
1 4718
1 4719
1 4720
1 4721
1 4722
1 4723
1 4724
1 4725
1 4726
1 4727
1 4728
1 4729
1 4730
1 4731
1 4732
1 4733
1 4734
1 4735
1 4736
1 4737
1 4738
1 4739
1 4740
1 4741
1 4742
1 4743
1 4744
1 4745
1 4746
1 4747
1 4748
1 4749
1 4750
1 4751
1 4752
1 4753
1 4754
1 4755
1 4756
1 4757
1 4758
1 4759
1 4760
1 4761
1 4762
1 4763
1 4764
1 4765
1 4766
1 4767
1 4768
1 4769
1 4770
1 4771
1 4772
1 4773
1 4774
1 4775
1 4776
1 4777
1 4778
1 4779
1 4780
1 4781
1 4782
1 4783
1 4784
1 4785
1 4786
1 4787
1 4788
1 4789
1 4790
1 4791
1 4792
1 4793
1 4794
1 4795
1 4796
1 4797
1 4798
1 4799
1 4800
1 4801
1 4802
1 4803
1 4804
1 4805
1 4806
1 4807
1 4808
1 4809
1 4810
1 4811
1 4812
1 4813
1 4814
1 4815
1 4816
1 4817
1 4818
1 4819
1 4820
1 4821
1 4822
1 4823
1 4824
1 4825
1 4826
1 4827
1 4828
1 4829
1 4830
1 4831
1 4832
1 4833
1 4834
1 4835
1 4836
1 4837
1 4838
1 4839
1 4840
1 4841
1 4842
1 4843
1 4844
1 4845
1 4846
1 4847
1 4848
1 4849
1 4850
1 4851
1 4852
1 4853
1 4854
1 4855
1 4856
1 4857
1 4858
1 4859
1 4860
1 4861
1 4862
1 4863
1 4864
1 4865
1 4866
1 4867
1 4868
1 4869
1 4870
1 4871
1 4872
1 4873
1 4874
1 4875
1 4876
1 4877
1 4878
1 4879
1 4880
1 4881
1 4882
1 4883
1 4884
1 4885
1 4886
1 4887
1 4888
1 4889
1 4890
1 4891
1 4892
1 4893
1 4894
1 4895
1 4896
1 4897
1 4898
1 4899
1 4900
1 4901
1 4902
1 4903
1 4904
1 4905
1 4906
1 4907
1 4908
1 4909
1 4910
1 4911
1 4912
1 4913
1 4914
1 4915
1 4916
1 4917
1 4918
1 4919
1 4920
1 4921
1 4922
1 4923
1 4924
1 4925
1 4926
1 4927
1 4928
1 4929
1 4930
1 4931
1 4932
1 4933
1 4934
1 4935
1 4936
1 4937
1 4938
1 4939
1 4940
1 4941
1 4942
1 4943
1 4944
1 4945
1 4946
1 4947
1 4948
1 4949
1 4950
1 4951
1 4952
1 4953
1 4954
1 4955
1 4956
1 4957
1 4958
1 4959
1 4960
1 4961
1 4962
1 4963
1 4964
1 4965
1 4966
1 4967
1 4968
1 4969
1 4970
1 4971
1 4972
1 4973
1 4974
1 4975
1 4976
1 4977
1 4978
1 4979
1 4980
1 4981
1 4982
1 4983
1 4984
1 4985
1 4986
1 4987
1 4988
1 4989
1 4990
1 4991
1 4992
1 4993
1 4994
1 4995
1 4996
1 4997
1 4998
1 4999
CELL_TYPES 5000
1 
1 
1 
1 
1 
1 
1 
1 
1 
1 
1 
1 
1 
1 
1 
1 
1 
1 
1 
1 
1 
1 
1 
1 
1 
1 
1 
1 
1 
1 
1 
1 
1 
1 
1 
1 
1 
1 
1 
1 
1 
1 
1 
1 
1 
1 
1 
1 
1 
1 
1 
1 
1 
1 
1 
1 
1 
1 
1 
1 
1 
1 
1 
1 
1 
1 
1 
1 
1 
1 
1 
1 
1 
1 
1 
1 
1 
1 
1 
1 
1 
1 
1 
1 
1 
1 
1 
1 
1 
1 
1 
1 
1 
1 
1 
1 
1 
1 
1 
1 
1 
1 
1 
1 
1 
1 
1 
1 
1 
1 
1 
1 
1 
1 
1 
1 
1 
1 
1 
1 
1 
1 
1 
1 
1 
1 
1 
1 
1 
1 
1 
1 
1 
1 
1 
1 
1 
1 
1 
1 
1 
1 
1 
1 
1 
1 
1 
1 
1 
1 
1 
1 
1 
1 
1 
1 
1 
1 
1 
1 
1 
1 
1 
1 
1 
1 
1 
1 
1 
1 
1 
1 
1 
1 
1 
1 
1 
1 
1 
1 
1 
1 
1 
1 
1 
1 
1 
1 
1 
1 
1 
1 
1 
1 
1 
1 
1 
1 
1 
1 
1 
1 
1 
1 
1 
1 
1 
1 
1 
1 
1 
1 
1 
1 
1 
1 
1 
1 
1 
1 
1 
1 
1 
1 
1 
1 
1 
1 
1 
1 
1 
1 
1 
1 
1 
1 
1 
1 
1 
1 
1 
1 
1 
1 
1 
1 
1 
1 
1 
1 
1 
1 
1 
1 
1 
1 
1 
1 
1 
1 
1 
1 
1 
1 
1 
1 
1 
1 
1 
1 
1 
1 
1 
1 
1 
1 
1 
1 
1 
1 
1 
1 
1 
1 
1 
1 
1 
1 
1 
1 
1 
1 
1 
1 
1 
1 
1 
1 
1 
1 
1 
1 
1 
1 
1 
1 
1 
1 
1 
1 
1 
1 
1 
1 
1 
1 
1 
1 
1 
1 
1 
1 
1 
1 
1 
1 
1 
1 
1 
1 
1 
1 
1 
1 
1 
1 
1 
1 
1 
1 
1 
1 
1 
1 
1 
1 
1 
1 
1 
1 
1 
1 
1 
1 
1 
1 
1 
1 
1 
1 
1 
1 
1 
1 
1 
1 
1 
1 
1 
1 
1 
1 
1 
1 
1 
1 
1 
1 
1 
1 
1 
1 
1 
1 
1 
1 
1 
1 
1 
1 
1 
1 
1 
1 
1 
1 
1 
1 
1 
1 
1 
1 
1 
1 
1 
1 
1 
1 
1 
1 
1 
1 
1 
1 
1 
1 
1 
1 
1 
1 
1 
1 
1 
1 
1 
1 
1 
1 
1 
1 
1 
1 
1 
1 
1 
1 
1 
1 
1 
1 
1 
1 
1 
1 
1 
1 
1 
1 
1 
1 
1 
1 
1 
1 
1 
1 
1 
1 
1 
1 
1 
1 
1 
1 
1 
1 
1 
1 
1 
1 
1 
1 
1 
1 
1 
1 
1 
1 
1 
1 
1 
1 
1 
1 
1 
1 
1 
1 
1 
1 
1 
1 
1 
1 
1 
1 
1 
1 
1 
1 
1 
1 
1 
1 
1 
1 
1 
1 
1 
1 
1 
1 
1 
1 
1 
1 
1 
1 
1 
1 
1 
1 
1 
1 
1 
1 
1 
1 
1 
1 
1 
1 
1 
1 
1 
1 
1 
1 
1 
1 
1 
1 
1 
1 
1 
1 
1 
1 
1 
1 
1 
1 
1 
1 
1 
1 
1 
1 
1 
1 
1 
1 
1 
1 
1 
1 
1 
1 
1 
1 
1 
1 
1 
1 
1 
1 
1 
1 
1 
1 
1 
1 
1 
1 
1 
1 
1 
1 
1 
1 
1 
1 
1 
1 
1 
1 
1 
1 
1 
1 
1 
1 
1 
1 
1 
1 
1 
1 
1 
1 
1 
1 
1 
1 
1 
1 
1 
1 
1 
1 
1 
1 
1 
1 
1 
1 
1 
1 
1 
1 
1 
1 
1 
1 
1 
1 
1 
1 
1 
1 
1 
1 
1 
1 
1 
1 
1 
1 
1 
1 
1 
1 
1 
1 
1 
1 
1 
1 
1 
1 
1 
1 
1 
1 
1 
1 
1 
1 
1 
1 
1 
1 
1 
1 
1 
1 
1 
1 
1 
1 
1 
1 
1 
1 
1 
1 
1 
1 
1 
1 
1 
1 
1 
1 
1 
1 
1 
1 
1 
1 
1 
1 
1 
1 
1 
1 
1 
1 
1 
1 
1 
1 
1 
1 
1 
1 
1 
1 
1 
1 
1 
1 
1 
1 
1 
1 
1 
1 
1 
1 
1 
1 
1 
1 
1 
1 
1 
1 
1 
1 
1 
1 
1 
1 
1 
1 
1 
1 
1 
1 
1 
1 
1 
1 
1 
1 
1 
1 
1 
1 
1 
1 
1 
1 
1 
1 
1 
1 
1 
1 
1 
1 
1 
1 
1 
1 
1 
1 
1 
1 
1 
1 
1 
1 
1 
1 
1 
1 
1 
1 
1 
1 
1 
1 
1 
1 
1 
1 
1 
1 
1 
1 
1 
1 
1 
1 
1 
1 
1 
1 
1 
1 
1 
1 
1 
1 
1 
1 
1 
1 
1 
1 
1 
1 
1 
1 
1 
1 
1 
1 
1 
1 
1 
1 
1 
1 
1 
1 
1 
1 
1 
1 
1 
1 
1 
1 
1 
1 
1 
1 
1 
1 
1 
1 
1 
1 
1 
1 
1 
1 
1 
1 
1 
1 
1 
1 
1 
1 
1 
1 
1 
1 
1 
1 
1 
1 
1 
1 
1 
1 
1 
1 
1 
1 
1 
1 
1 
1 
1 
1 
1 
1 
1 
1 
1 
1 
1 
1 
1 
1 
1 
1 
1 
1 
1 
1 
1 
1 
1 
1 
1 
1 
1 
1 
1 
1 
1 
1 
1 
1 
1 
1 
1 
1 
1 
1 
1 
1 
1 
1 
1 
1 
1 
1 
1 
1 
1 
1 
1 
1 
1 
1 
1 
1 
1 
1 
1 
1 
1 
1 
1 
1 
1 
1 
1 
1 
1 
1 
1 
1 
1 
1 
1 
1 
1 
1 
1 
1 
1 
1 
1 
1 
1 
1 
1 
1 
1 
1 
1 
1 
1 
1 
1 
1 
1 
1 
1 
1 
1 
1 
1 
1 
1 
1 
1 
1 
1 
1 
1 
1 
1 
1 
1 
1 
1 
1 
1 
1 
1 
1 
1 
1 
1 
1 
1 
1 
1 
1 
1 
1 
1 
1 
1 
1 
1 
1 
1 
1 
1 
1 
1 
1 
1 
1 
1 
1 
1 
1 
1 
1 
1 
1 
1 
1 
1 
1 
1 
1 
1 
1 
1 
1 
1 
1 
1 
1 
1 
1 
1 
1 
1 
1 
1 
1 
1 
1 
1 
1 
1 
1 
1 
1 
1 
1 
1 
1 
1 
1 
1 
1 
1 
1 
1 
1 
1 
1 
1 
1 
1 
1 
1 
1 
1 
1 
1 
1 
1 
1 
1 
1 
1 
1 
1 
1 
1 
1 
1 
1 
1 
1 
1 
1 
1 
1 
1 
1 
1 
1 
1 
1 
1 
1 
1 
1 
1 
1 
1 
1 
1 
1 
1 
1 
1 
1 
1 
1 
1 
1 
1 
1 
1 
1 
1 
1 
1 
1 
1 
1 
1 
1 
1 
1 
1 
1 
1 
1 
1 
1 
1 
1 
1 
1 
1 
1 
1 
1 
1 
1 
1 
1 
1 
1 
1 
1 
1 
1 
1 
1 
1 
1 
1 
1 
1 
1 
1 
1 
1 
1 
1 
1 
1 
1 
1 
1 
1 
1 
1 
1 
1 
1 
1 
1 
1 
1 
1 
1 
1 
1 
1 
1 
1 
1 
1 
1 
1 
1 
1 
1 
1 
1 
1 
1 
1 
1 
1 
1 
1 
1 
1 
1 
1 
1 
1 
1 
1 
1 
1 
1 
1 
1 
1 
1 
1 
1 
1 
1 
1 
1 
1 
1 
1 
1 
1 
1 
1 
1 
1 
1 
1 
1 
1 
1 
1 
1 
1 
1 
1 
1 
1 
1 
1 
1 
1 
1 
1 
1 
1 
1 
1 
1 
1 
1 
1 
1 
1 
1 
1 
1 
1 
1 
1 
1 
1 
1 
1 
1 
1 
1 
1 
1 
1 
1 
1 
1 
1 
1 
1 
1 
1 
1 
1 
1 
1 
1 
1 
1 
1 
1 
1 
1 
1 
1 
1 
1 
1 
1 
1 
1 
1 
1 
1 
1 
1 
1 
1 
1 
1 
1 
1 
1 
1 
1 
1 
1 
1 
1 
1 
1 
1 
1 
1 
1 
1 
1 
1 
1 
1 
1 
1 
1 
1 
1 
1 
1 
1 
1 
1 
1 
1 
1 
1 
1 
1 
1 
1 
1 
1 
1 
1 
1 
1 
1 
1 
1 
1 
1 
1 
1 
1 
1 
1 
1 
1 
1 
1 
1 
1 
1 
1 
1 
1 
1 
1 
1 
1 
1 
1 
1 
1 
1 
1 
1 
1 
1 
1 
1 
1 
1 
1 
1 
1 
1 
1 
1 
1 
1 
1 
1 
1 
1 
1 
1 
1 
1 
1 
1 
1 
1 
1 
1 
1 
1 
1 
1 
1 
1 
1 
1 
1 
1 
1 
1 
1 
1 
1 
1 
1 
1 
1 
1 
1 
1 
1 
1 
1 
1 
1 
1 
1 
1 
1 
1 
1 
1 
1 
1 
1 
1 
1 
1 
1 
1 
1 
1 
1 
1 
1 
1 
1 
1 
1 
1 
1 
1 
1 
1 
1 
1 
1 
1 
1 
1 
1 
1 
1 
1 
1 
1 
1 
1 
1 
1 
1 
1 
1 
1 
1 
1 
1 
1 
1 
1 
1 
1 
1 
1 
1 
1 
1 
1 
1 
1 
1 
1 
1 
1 
1 
1 
1 
1 
1 
1 
1 
1 
1 
1 
1 
1 
1 
1 
1 
1 
1 
1 
1 
1 
1 
1 
1 
1 
1 
1 
1 
1 
1 
1 
1 
1 
1 
1 
1 
1 
1 
1 
1 
1 
1 
1 
1 
1 
1 
1 
1 
1 
1 
1 
1 
1 
1 
1 
1 
1 
1 
1 
1 
1 
1 
1 
1 
1 
1 
1 
1 
1 
1 
1 
1 
1 
1 
1 
1 
1 
1 
1 
1 
1 
1 
1 
1 
1 
1 
1 
1 
1 
1 
1 
1 
1 
1 
1 
1 
1 
1 
1 
1 
1 
1 
1 
1 
1 
1 
1 
1 
1 
1 
1 
1 
1 
1 
1 
1 
1 
1 
1 
1 
1 
1 
1 
1 
1 
1 
1 
1 
1 
1 
1 
1 
1 
1 
1 
1 
1 
1 
1 
1 
1 
1 
1 
1 
1 
1 
1 
1 
1 
1 
1 
1 
1 
1 
1 
1 
1 
1 
1 
1 
1 
1 
1 
1 
1 
1 
1 
1 
1 
1 
1 
1 
1 
1 
1 
1 
1 
1 
1 
1 
1 
1 
1 
1 
1 
1 
1 
1 
1 
1 
1 
1 
1 
1 
1 
1 
1 
1 
1 
1 
1 
1 
1 
1 
1 
1 
1 
1 
1 
1 
1 
1 
1 
1 
1 
1 
1 
1 
1 
1 
1 
1 
1 
1 
1 
1 
1 
1 
1 
1 
1 
1 
1 
1 
1 
1 
1 
1 
1 
1 
1 
1 
1 
1 
1 
1 
1 
1 
1 
1 
1 
1 
1 
1 
1 
1 
1 
1 
1 
1 
1 
1 
1 
1 
1 
1 
1 
1 
1 
1 
1 
1 
1 
1 
1 
1 
1 
1 
1 
1 
1 
1 
1 
1 
1 
1 
1 
1 
1 
1 
1 
1 
1 
1 
1 
1 
1 
1 
1 
1 
1 
1 
1 
1 
1 
1 
1 
1 
1 
1 
1 
1 
1 
1 
1 
1 
1 
1 
1 
1 
1 
1 
1 
1 
1 
1 
1 
1 
1 
1 
1 
1 
1 
1 
1 
1 
1 
1 
1 
1 
1 
1 
1 
1 
1 
1 
1 
1 
1 
1 
1 
1 
1 
1 
1 
1 
1 
1 
1 
1 
1 
1 
1 
1 
1 
1 
1 
1 
1 
1 
1 
1 
1 
1 
1 
1 
1 
1 
1 
1 
1 
1 
1 
1 
1 
1 
1 
1 
1 
1 
1 
1 
1 
1 
1 
1 
1 
1 
1 
1 
1 
1 
1 
1 
1 
1 
1 
1 
1 
1 
1 
1 
1 
1 
1 
1 
1 
1 
1 
1 
1 
1 
1 
1 
1 
1 
1 
1 
1 
1 
1 
1 
1 
1 
1 
1 
1 
1 
1 
1 
1 
1 
1 
1 
1 
1 
1 
1 
1 
1 
1 
1 
1 
1 
1 
1 
1 
1 
1 
1 
1 
1 
1 
1 
1 
1 
1 
1 
1 
1 
1 
1 
1 
1 
1 
1 
1 
1 
1 
1 
1 
1 
1 
1 
1 
1 
1 
1 
1 
1 
1 
1 
1 
1 
1 
1 
1 
1 
1 
1 
1 
1 
1 
1 
1 
1 
1 
1 
1 
1 
1 
1 
1 
1 
1 
1 
1 
1 
1 
1 
1 
1 
1 
1 
1 
1 
1 
1 
1 
1 
1 
1 
1 
1 
1 
1 
1 
1 
1 
1 
1 
1 
1 
1 
1 
1 
1 
1 
1 
1 
1 
1 
1 
1 
1 
1 
1 
1 
1 
1 
1 
1 
1 
1 
1 
1 
1 
1 
1 
1 
1 
1 
1 
1 
1 
1 
1 
1 
1 
1 
1 
1 
1 
1 
1 
1 
1 
1 
1 
1 
1 
1 
1 
1 
1 
1 
1 
1 
1 
1 
1 
1 
1 
1 
1 
1 
1 
1 
1 
1 
1 
1 
1 
1 
1 
1 
1 
1 
1 
1 
1 
1 
1 
1 
1 
1 
1 
1 
1 
1 
1 
1 
1 
1 
1 
1 
1 
1 
1 
1 
1 
1 
1 
1 
1 
1 
1 
1 
1 
1 
1 
1 
1 
1 
1 
1 
1 
1 
1 
1 
1 
1 
1 
1 
1 
1 
1 
1 
1 
1 
1 
1 
1 
1 
1 
1 
1 
1 
1 
1 
1 
1 
1 
1 
1 
1 
1 
1 
1 
1 
1 
1 
1 
1 
1 
1 
1 
1 
1 
1 
1 
1 
1 
1 
1 
1 
1 
1 
1 
1 
1 
1 
1 
1 
1 
1 
1 
1 
1 
1 
1 
1 
1 
1 
1 
1 
1 
1 
1 
1 
1 
1 
1 
1 
1 
1 
1 
1 
1 
1 
1 
1 
1 
1 
1 
1 
1 
1 
1 
1 
1 
1 
1 
1 
1 
1 
1 
1 
1 
1 
1 
1 
1 
1 
1 
1 
1 
1 
1 
1 
1 
1 
1 
1 
1 
1 
1 
1 
1 
1 
1 
1 
1 
1 
1 
1 
1 
1 
1 
1 
1 
1 
1 
1 
1 
1 
1 
1 
1 
1 
1 
1 
1 
1 
1 
1 
1 
1 
1 
1 
1 
1 
1 
1 
1 
1 
1 
1 
1 
1 
1 
1 
1 
1 
1 
1 
1 
1 
1 
1 
1 
1 
1 
1 
1 
1 
1 
1 
1 
1 
1 
1 
1 
1 
1 
1 
1 
1 
1 
1 
1 
1 
1 
1 
1 
1 
1 
1 
1 
1 
1 
1 
1 
1 
1 
1 
1 
1 
1 
1 
1 
1 
1 
1 
1 
1 
1 
1 
1 
1 
1 
1 
1 
1 
1 
1 
1 
1 
1 
1 
1 
1 
1 
1 
1 
1 
1 
1 
1 
1 
1 
1 
1 
1 
1 
1 
1 
1 
1 
1 
1 
1 
1 
1 
1 
1 
1 
1 
1 
1 
1 
1 
1 
1 
1 
1 
1 
1 
1 
1 
1 
1 
1 
1 
1 
1 
1 
1 
1 
1 
1 
1 
1 
1 
1 
1 
1 
1 
1 
1 
1 
1 
1 
1 
1 
1 
1 
1 
1 
1 
1 
1 
1 
1 
1 
1 
1 
1 
1 
1 
1 
1 
1 
1 
1 
1 
1 
1 
1 
1 
1 
1 
1 
1 
1 
1 
1 
1 
1 
1 
1 
1 
1 
1 
1 
1 
1 
1 
1 
1 
1 
1 
1 
1 
1 
1 
1 
1 
1 
1 
1 
1 
1 
1 
1 
1 
1 
1 
1 
1 
1 
1 
1 
1 
1 
1 
1 
1 
1 
1 
1 
1 
1 
1 
1 
1 
1 
1 
1 
1 
1 
1 
1 
1 
1 
1 
1 
1 
1 
1 
1 
1 
1 
1 
1 
1 
1 
1 
1 
1 
1 
1 
1 
1 
1 
1 
1 
1 
1 
1 
1 
1 
1 
1 
1 
1 
1 
1 
1 
1 
1 
1 
1 
1 
1 
1 
1 
1 
1 
1 
1 
1 
1 
1 
1 
1 
1 
1 
1 
1 
1 
1 
1 
1 
1 
1 
1 
1 
1 
1 
1 
1 
1 
1 
1 
1 
1 
1 
1 
1 
1 
1 
1 
1 
1 
1 
1 
1 
1 
1 
1 
1 
1 
1 
1 
1 
1 
1 
1 
1 
1 
1 
1 
1 
1 
1 
1 
1 
1 
1 
1 
1 
1 
1 
1 
1 
1 
1 
1 
1 
1 
1 
1 
1 
1 
1 
1 
1 
1 
1 
1 
1 
1 
1 
1 
1 
1 
1 
1 
1 
1 
1 
1 
1 
1 
1 
1 
1 
1 
1 
1 
1 
1 
1 
1 
1 
1 
1 
1 
1 
1 
1 
1 
1 
1 
1 
1 
1 
1 
1 
1 
1 
1 
1 
1 
1 
1 
1 
1 
1 
1 
1 
1 
1 
1 
1 
1 
1 
1 
1 
1 
1 
1 
1 
1 
1 
1 
1 
1 
1 
1 
1 
1 
1 
1 
1 
1 
1 
1 
1 
1 
1 
1 
1 
1 
1 
1 
1 
1 
1 
1 
1 
1 
1 
1 
1 
1 
1 
1 
1 
1 
1 
1 
1 
1 
1 
1 
1 
1 
1 
1 
1 
1 
1 
1 
1 
1 
1 
1 
1 
1 
1 
1 
1 
1 
1 
1 
1 
1 
1 
1 
1 
1 
1 
1 
1 
1 
1 
1 
1 
1 
1 
1 
1 
1 
1 
1 
1 
1 
1 
1 
1 
1 
1 
1 
1 
1 
1 
1 
1 
1 
1 
1 
1 
1 
1 
1 
1 
1 
1 
1 
1 
1 
1 
1 
1 
1 
1 
1 
1 
1 
1 
1 
1 
1 
1 
1 
1 
1 
1 
1 
1 
1 
1 
1 
1 
1 
1 
1 
1 
1 
1 
1 
1 
1 
1 
1 
1 
1 
1 
1 
1 
1 
1 
1 
1 
1 
1 
1 
1 
1 
1 
1 
1 
1 
1 
1 
1 
1 
1 
1 
1 
1 
1 
1 
1 
1 
1 
1 
1 
1 
1 
1 
1 
1 
1 
1 
1 
1 
1 
1 
1 
1 
1 
1 
1 
1 
1 
1 
1 
1 
1 
1 
1 
1 
1 
1 
1 
1 
1 
1 
1 
1 
1 
1 
1 
1 
1 
1 
1 
1 
1 
1 
1 
1 
1 
1 
1 
1 
1 
1 
1 
1 
1 
1 
1 
1 
1 
1 
1 
1 
1 
1 
1 
1 
1 
1 
1 
1 
1 
1 
1 
1 
1 
1 
1 
1 
1 
1 
1 
1 
1 
1 
1 
1 
1 
1 
1 
1 
1 
1 
1 
1 
1 
1 
1 
1 
1 
1 
1 
1 
1 
1 
1 
1 
1 
1 
1 
1 
1 
1 
1 
1 
1 
1 
1 
1 
1 
1 
1 
1 
1 
1 
1 
1 
1 
1 
1 
1 
1 
1 
1 
1 
1 
1 
1 
1 
1 
1 
1 
1 
1 
1 
1 
1 
1 
1 
1 
1 
1 
1 
1 
1 
1 
1 
1 
1 
1 
1 
1 
1 
1 
1 
1 
1 
1 
1 
1 
1 
1 
1 
1 
1 
1 
1 
1 
1 
1 
1 
1 
1 
1 
1 
1 
1 
1 
1 
1 
1 
1 
1 
1 
1 
1 
1 
1 
1 
1 
1 
1 
1 
1 
1 
1 
1 
1 
1 
1 
1 
1 
1 
1 
1 
1 
1 
1 
1 
1 
1 
1 
1 
1 
1 
1 
1 
1 
1 
1 
1 
1 
1 
1 
1 
1 
1 
1 
1 
1 
1 
1 
1 
1 
1 
1 
1 
1 
1 
1 
1 
1 
1 
1 
1 
1 
1 
1 
1 
1 
1 
1 
1 
1 
1 
1 
1 
1 
1 
1 
1 
1 
1 
1 
1 
1 
1 
1 
1 
1 
1 
1 
1 
1 
1 
1 
1 
1 
1 
1 
1 
1 
1 
1 
1 
1 
1 
1 
1 
1 
1 
1 
1 
1 
1 
1 
1 
1 
1 
1 
1 
1 
1 
1 
1 
1 
1 
1 
1 
1 
1 
1 
1 
1 
1 
1 
1 
1 
1 
1 
1 
1 
1 
1 
1 
1 
1 
1 
1 
1 
1 
1 
1 
1 
1 
1 
1 
1 
1 
1 
1 
1 
1 
1 
1 
1 
1 
1 
1 
1 
1 
1 
1 
1 
1 
1 
1 
1 
1 
1 
1 
1 
1 
1 
1 
1 
1 
1 
1 
1 
1 
1 
1 
1 
1 
1 
1 
1 
1 
1 
1 
1 
1 
1 
1 
1 
1 
1 
1 
1 
1 
1 
1 
1 
1 
1 
1 
1 
1 
1 
1 
1 
1 
1 
1 
1 
1 
1 
1 
1 
1 
1 
1 
1 
1 
1 
1 
1 
1 
1 
1 
1 
1 
1 
1 
1 
1 
1 
1 
1 
1 
1 
1 
1 
1 
1 
1 
1 
1 
1 
1 
1 
1 
1 
1 
1 
1 
1 
1 
1 
1 
1 
1 
1 
1 
1 
1 
1 
1 
1 
1 
1 
1 
1 
1 
1 
1 
1 
1 
1 
1 
1 
1 
1 
1 
1 
1 
1 
1 
1 
1 
1 
1 
1 
1 
1 
1 
1 
1 
1 
1 
1 
1 
1 
1 
1 
1 
1 
1 
1 
1 
1 
1 
1 
1 
1 
1 
1 
1 
1 
1 
1 
1 
1 
1 
1 
1 
1 
1 
1 
1 
1 
1 
1 
1 
1 
1 
1 
1 
1 
1 
1 
1 
1 
1 
1 
1 
1 
1 
1 
1 
1 
1 
1 
1 
1 
1 
1 
1 
1 
1 
1 
1 
1 
1 
1 
1 
1 
1 
1 
1 
1 
1 
1 
1 
1 
1 
1 
1 
1 
1 
1 
1 
1 
1 
1 
1 
1 
1 
1 
1 
1 
1 
1 
1 
1 
1 
1 
1 
1 
1 
1 
1 
1 
1 
1 
1 
1 
1 
1 
1 
1 
1 
1 
1 
1 
1 
1 
1 
1 
1 
1 
1 
1 
1 
1 
1 
1 
1 
1 
1 
1 
1 
1 
1 
1 
1 
1 
1 
1 
1 
1 
1 
1 
1 
1 
1 
1 
1 
1 
1 
1 
1 
1 
1 
1 
1 
1 
1 
1 
1 
1 
1 
1 
1 
1 
1 
1 
1 
1 
1 
1 
1 
1 
1 
1 
1 
1 
1 
1 
1 
1 
1 
1 
1 
1 
1 
1 
1 
1 
1 
1 
1 
1 
1 
1 
1 
1 
1 
1 
1 
1 
1 
1 
1 
1 
1 
1 
1 
1 
1 
1 
1 
1 
1 
1 
1 
1 
1 
1 
1 
1 
1 
1 
1 
1 
1 
1 
1 
1 
1 
1 
1 
1 
1 
1 
1 
1 
1 
1 
1 
1 
1 
1 
1 
1 
1 
1 
1 
1 
1 
1 
1 
1 
1 
1 
1 
1 
1 
1 
1 
1 
1 
1 
1 
1 
1 
1 
1 
1 
1 
1 
1 
1 
1 
1 
1 
1 
1 
1 
1 
1 
1 
1 
1 
1 
1 
1 
1 
1 
1 
1 
1 
1 
1 
1 
1 
1 
1 
1 
1 
1 
1 
1 
1 
1 
1 
1 
1 
1 
1 
1 
1 
1 
1 
1 
1 
1 
1 
1 
1 
1 
1 
1 
1 
1 
1 
1 
1 
1 
1 
1 
1 
1 
1 
1 
1 
1 
1 
1 
1 
1 
1 
1 
1 
1 
1 
1 
1 
1 
1 
1 
1 
1 
1 
1 
1 
1 
1 
1 
1 
1 
1 
1 
1 
1 
1 
1 
1 
1 
1 
1 
1 
1 
1 
1 
1 
1 
1 
1 
1 
1 
1 
1 
1 
1 
1 
1 
1 
1 
1 
1 
1 
1 
1 
1 
1 
1 
1 
1 
1 
1 
1 
1 
1 
1 
1 
1 
1 
1 
1 
1 
1 
1 
1 
1 
1 
1 
1 
1 
1 
1 
1 
1 
1 
1 
1 
1 
1 
1 
1 
1 
1 
1 
1 
1 
1 
1 
1 
1 
1 
1 
1 
1 
1 
1 
1 
1 
1 
1 
1 
1 
1 
1 
1 
1 
1 
1 
1 
1 
1 
1 
1 
1 
1 
1 
1 
1 
1 
1 
1 
1 
1 
1 
1 
1 
1 
1 
1 
1 
1 
1 
1 
1 
1 
1 
1 
1 
1 
1 
1 
1 
1 
1 
1 
1 
1 
1 
1 
1 
1 
1 
1 
1 
1 
1 
1 
1 
1 
1 
1 
1 
1 
1 
1 
1 
1 
1 
1 
1 
1 
1 
1 
1 
1 
1 
1 
1 
1 
1 
1 
1 
1 
1 
1 
1 
1 
1 
1 
1 
1 
1 
1 
1 
1 
1 
1 
1 
1 
1 
1 
1 
1 
1 
1 
1 
1 
1 
1 
1 
1 
1 
1 
1 
1 
1 
1 
1 
1 
1 
1 
1 
1 
1 
1 
1 
1 
1 
1 
1 
1 
1 
1 
1 
1 
1 
1 
1 
1 
1 
1 
1 
1 
1 
1 
1 
1 
1 
1 
1 
1 
1 
1 
1 
1 
1 
1 
1 
1 
1 
1 
1 
1 
1 
1 
1 
1 
1 
1 
1 
1 
1 
1 
1 
1 
1 
1 
1 
1 
1 
1 
1 
1 
1 
1 
1 
1 
1 
1 
1 
1 
1 
1 
1 
1 
1 
1 
1 
1 
1 
1 
1 
1 
1 
1 
1 
1 
1 
1 
1 
1 
1 
1 
1 
1 
1 
1 
1 
1 
1 
1 
1 
1 
1 
1 
1 
1 
1 
1 
1 
1 
1 
1 
1 
1 
1 
1 
1 
1 
1 
1 
1 
1 
1 
1 
1 
1 
1 
1 
1 
1 
1 
1 
1 
1 
1 
1 
1 
1 
1 
1 
1 
1 
1 
1 
1 
1 
1 
1 
1 
1 
1 
1 
1 
1 
1 
1 
1 
1 
1 
1 
1 
1 
1 
1 
1 
1 
1 
1 
1 
1 
1 
1 
1 
1 
1 
1 
1 
1 
1 
1 
1 
1 
1 
1 
1 
1 
1 
1 
1 
1 
1 
1 
1 
1 
1 
1 
1 
1 
1 
1 
1 
1 
1 
1 
1 
1 
1 
1 
1 
1 
1 
1 
1 
1 
1 
1 
1 
1 
1 
1 
1 
1 
1 
1 
1 
1 
1 
1 
1 
1 
1 
1 
1 
1 
1 
1 
1 
1 
1 
1 
1 
1 
1 
1 
1 
1 
1 
1 
1 
1 
1 
1 
1 
1 
1 
1 
1 
1 
1 
1 
1 
1 
1 
1 
1 
1 
1 
1 
1 
1 
1 
1 
1 
1 
1 
1 
1 
1 
1 
1 
1 
1 
1 
1 
1 
1 
1 
1 
1 
1 
1 
1 
1 
1 
1 
1 
1 
1 
1 
1 
1 
1 
1 
1 
1 
1 
1 
1 
1 
1 
1 
1 
1 
1 
1 
1 
1 
1 
1 
1 
1 
1 
1 
1 
1 
1 
1 
1 
1 
1 
1 
1 
1 
1 
1 
1 
1 
1 
1 
1 
1 
1 
1 
1 
1 
1 
1 
1 
1 
1 
1 
1 
1 
1 
1 
1 
1 
1 
1 
1 
1 
1 
1 
1 
1 
1 
1 
1 
1 
1 
1 
1 
1 
1 
1 
1 
1 
1 
1 
1 
1 
1 
1 
1 
1 
1 
1 
1 
1 
1 
1 
1 
1 
1 
1 
1 
1 
1 
1 
1 
1 
1 
1 
1 
1 
1 
1 
1 
1 
1 
1 
1 
1 
1 
1 
1 
1 
1 
1 
1 
1 
1 
1 
1 
1 
1 
1 
1 
1 
1 
1 
1 
1 
1 
1 
1 
1 
1 
1 
1 
1 
1 
1 
1 
1 
1 
1 
1 
1 
1 
1 
1 
1 
1 
1 
1 
1 
1 
1 
1 
1 
1 
1 
1 
1 
1 
1 
1 
1 
1 
1 
1 
1 
1 
1 
1 
1 
1 
1 
1 
1 
1 
1 
1 
1 
1 
1 
1 
1 
1 
1 
1 
1 
1 
1 
1 
1 
1 
1 
1 
1 
1 
1 
1 
1 
1 
1 
1 
1 
1 
1 
1 
1 
1 
1 
1 
1 
1 
1 
1 
1 
1 
1 
1 
1 
1 
1 
1 
1 
1 
1 
1 
1 
1 
1 
1 
1 
1 
1 
1 
1 
1 
1 
1 
1 
1 
1 
1 
1 
1 
1 
1 
1 
1 
1 
1 
1 
1 
1 
1 
1 
1 
1 
1 
1 
1 
1 
1 
1 
1 
1 
1 
1 
1 
1 
1 
1 
1 
1 
1 
1 
1 
1 
1 
1 
1 
1 
1 
1 
1 
1 
1 
1 
1 
1 
1 
1 
1 
1 
1 
1 
1 
1 
1 
1 
1 
1 
1 
1 
1 
1 
1 
1 
1 
1 
1 
1 
1 
1 
1 
1 
1 
1 
1 
1 
1 
1 
1 
1 
1 
1 
1 
1 
1 
1 
1 
1 
1 
1 
1 
1 
1 
1 
1 
1 
1 
1 
1 
1 
1 
1 
1 
1 
1 
1 
1 
1 
1 
1 
1 
1 
1 
1 
1 
1 
1 
1 
1 
1 
1 
1 
1 
1 
1 
1 
1 
1 
1 
1 
1 
1 
1 
1 
1 
1 
1 
1 
1 
1 
1 
1 
1 
1 
1 
1 
1 
1 
1 
1 
1 
1 
1 
1 
1 
1 
1 
1 
1 
1 
1 
1 
1 
1 
1 
1 
1 
1 
1 
1 
1 
1 
1 
1 
1 
1 
1 
1 
1 
1 
1 
1 
1 
1 
1 
1 
1 
1 
1 
1 
1 
1 
1 
1 
1 
1 
1 
1 
1 
1 
1 
1 
1 
1 
1 
1 
1 
1 
1 
1 
1 
1 
1 
1 
1 
1 
1 
1 
1 
1 
1 
1 
1 
1 
1 
1 
1 
1 
1 
1 
1 
1 
1 
1 
1 
1 
1 
1 
1 
1 
1 
1 
1 
1 
1 
1 
1 
1 
1 
1 
1 
1 
1 
1 
1 
1 
1 
1 
1 
1 
1 
1 
1 
1 
1 
1 
1 
1 
1 
1 
1 
1 
1 
1 
1 
1 
1 
1 
1 
1 
1 
1 
1 
1 
1 
1 
1 
1 
1 
1 
1 
1 
1 
1 
1 
1 
1 
1 
1 
1 
1 
1 
1 
1 
1 
1 
1 
1 
1 
1 
1 
1 
1 
1 
1 
1 
1 
1 
1 
1 
1 
1 
1 
1 
1 
1 
1 
1 
1 
1 
1 
1 
1 
1 
1 
1 
1 
1 
1 
1 
1 
1 
1 
1 
1 
1 
1 
1 
1 
1 
1 
1 
1 
1 
1 
1 
1 
1 
1 
1 
1 
1 
1 
1 
1 
1 
1 
1 
1 
1 
1 
1 
1 
1 
1 
1 
1 
1 
1 
1 
1 
1 
1 
1 
1 
1 
1 
1 
1 
1 
1 
1 
1 
1 
1 
1 
1 
1 
1 
1 
1 
1 
1 
1 
1 
1 
1 
1 
1 
1 
1 
1 
1 
1 
1 
1 
1 
1 
1 
1 
1 
1 
1 
1 
1 
1 
1 
1 
1 
1 
1 
1 
1 
1 
1 
1 
1 
POINT_DATA 5000
VECTORS Stress float
-16.308 -1363.76 0.
-172.769 -1343.46 0.
-128.303 -1239.44 0.
-186.188 -1201.11 0.
-191.158 -1213.49 0.
-196.127 -1225.86 0.
-309.664 -1342.16 0.
-387.927 -1524.75 0.
-466.191 -1707.34 0.
219.811 -1454.49 0.
224.445 -1443.64 0.
229.079 -1432.79 0.
-370.543 -1694.99 0.
-370.621 -1695.54 0.
496.824 -1313.79 0.
518.305 -1263.4 0.
539.786 -1213 0.
-39.3188 -1455.35 0.
-60.4783 -1504.93 0.
-81.6378 -1554.52 0.
50.9807 -1506.09 0.
50.2514 -1507.55 0.
49.5221 -1509.02 0.
108.403 -1487.34 0.
107.664 -1489.36 0.
235.393 -1436.33 0.
-730.248 -1628.34 0.
-610.48 -1348.51 0.
-704.709 -1261.4 0.
-834.982 -1565.68 0.
-965.256 -1869.96 0.
-797.348 -1883.28 0.
-736.229 -1740.05 0.
-675.111 -1596.81 0.
-687.371 -1632.75 0.
-740.831 -1756.97 0.
-794.291 -1881.19 0.
-1586.87 -2217.97 0.
-1582.44 -2207.63 0.
-2412.83 -2510.83 0.
-2163.58 -1929.55 0.
-1914.33 -1348.26 0.
-3463.8 -1633.5 0.
-3374.97 -1425.01 0.
-3286.13 -1216.52 0.
-5356.07 -2417.12 0.
-5729.73 -3287.79 0.
-6103.39 -4158.46 0.
23060.9 9363.14 0.
23877.7 11271.7 0.
-166714 -68852.8 0.
23659.4 11204.3 0.
22856.8 9329.06 0.
-5278.38 -3796.49 0.
-5058.39 -3283.82 0.
-4838.39 -2771.15 0.
-2788.24 -1707.78 0.
-2841.52 -1832.22 0.
-2894.8 -1956.65 0.
-2290.26 -1599.74 0.
-2187.95 -1361.29 0.
-2085.64 -1122.84 0.
-2538.16 -1671.63 0.
-2752.57 -2171.55 0.
-506.877 -1566.85 0.
-542.467 -1650.13 0.
-578.057 -1733.42 0.
-338.016 -1682.45 0.
-337.78 -1682.24 0.
-337.544 -1682.03 0.
-437.241 -1722.18 0.
-436.181 -1719.53 0.
-435.121 -1716.88 0.
-1147.02 -1758.4 0.
-973.496 -1353.65 0.
169.309 -548.107 0.
33.0312 -935.009 0.
-139.251 -1337.33 0.
501.562 -1310.61 0.
499.207 -1316.07 0.
496.852 -1321.54 0.
65.4921 -1512.88 0.
66.2759 -1510.39 0.
67.0596 -1507.91 0.
-154.347 -1427.02 0.
-28.5336 -1132.81 0.
97.2801 -838.6 0.
-230.758 -1188.89 0.
-359.07 -1489.27 0.
-134.13 -1585.71 0.
-65.1621 -1424.97 0.
3.80618 -1264.23 0.
113.992 -1156.17 0.
83.5758 -1227.72 0.
53.1593 -1299.27 0.
-346.416 -1457.27 0.
-311.079 -1374.92 0.
-275.741 -1292.57 0.
-331.128 -1321.93 0.
-346.859 -1357.22 0.
-353.132 -1478.24 0.
-198.735 -1326.01 0.
-154.562 -1222.13 0.
-341.948 -1234.62 0.
-346.502 -1247.57 0.
-351.055 -1260.53 0.
-170.377 -1251.04 0.
-248.574 -1433.41 0.
-326.77 -1615.78 0.
259.569 -1406.94 0.
264.172 -1396.09 0.
268.775 -1385.24 0.
-466.059 -1704.17 0.
-465.932 -1704.99 0.
135.427 -1437.83 0.
156.79 -1387.17 0.
178.153 -1336.52 0.
-67.697 -1436.93 0.
-88.7107 -1486.61 0.
-109.725 -1536.29 0.
1042.02 -1051.09 0.
1041.15 -1052.4 0.
1040.29 -1053.71 0.
-342.262 -1648.41 0.
-342.936 -1650.86 0.
-674.308 -1795.04 0.
-759.734 -1609.74 0.
-640.339 -1330.03 0.
-888.747 -1309.13 0.
-1018.78 -1613.45 0.
-1148.81 -1917.77 0.
-746.873 -1830.26 0.
-686.08 -1686.54 0.
-625.287 -1542.82 0.
-284.725 -1430.04 0.
-338.494 -1553.94 0.
-392.263 -1677.85 0.
-1137.75 -1994.88 0.
-1133.28 -1984.42 0.
-2143.28 -2362.94 0.
-1893.77 -1781.65 0.
-1644.26 -1200.35 0.
-3192.5 -1487.15 0.
-3104.26 -1277.65 0.
-3016.03 -1068.15 0.
-3308.95 -1511.49 0.
-3683.93 -2382.85 0.
-4058.92 -3254.21 0.
19921.1 8051.76 0.
20734.4 9957.34 0.
-141433 -57986.5 0.
20695.6 9966.74 0.
19896.5 8094.1 0.
-3523.6 -3013.08 0.
-3302.98 -2500.25 0.
-3082.36 -1987.43 0.
-2573.13 -1584.19 0.
-2626.4 -1708.81 0.
-2679.68 -1833.43 0.
-1751.34 -1337.27 0.
-1648.78 -1098.8 0.
-1546.23 -860.317 0.
-2315.21 -1544.4 0.
-2529.93 -2044.31 0.
-700.694 -1618.81 0.
-736.12 -1702.19 0.
-771.546 -1785.57 0.
354.289 -1353.76 0.
354.732 -1353.74 0.
355.175 -1353.72 0.
-497.028 -1716.62 0.
-496.118 -1713.97 0.
-495.208 -1711.32 0.
-1312.75 -1798.84 0.
-1139.2 -1394.31 0.
-632.102 -858.952 0.
-693.248 -1213.82 0.
-865.271 -1616.2 0.
1708.87 -762.112 0.
1706.49 -767.569 0.
1704.11 -773.026 0.
324.618 -1370.8 0.
325.012 -1367.93 0.
325.406 -1365.05 0.
-661.192 -1614.15 0.
-535.921 -1319.92 0.
-410.65 -1025.69 0.
-436.727 -1245.9 0.
-564.475 -1546.95 0.
-197.445 -1582.41 0.
-128.426 -1421.92 0.
-59.4072 -1261.44 0.
262.39 -1060.66 0.
232.175 -1132.9 0.
201.961 -1205.13 0.
-302.191 -1406.05 0.
-266.802 -1323.8 0.
-231.413 -1241.54 0.
109.38 -1101.7 0.
92.9267 -1135.87 0.
-698.835 -1615.39 0.
-184.952 -1216.89 0.
-110.103 -1041.13 0.
-886.882 -2185.2 0.
-621.207 -1564.24 0.
-973.95 -2386.27 0.
-1591.01 -4802.44 0.
-1534.61 -4671.45 0.
-3350.68 -8909.57 0.
-4722.19 -13074.6 0.
-1984.75 -6688.44 0.
-1996.26 -6716.5 0.
-2635.48 -6554.91 0.
-2938.22 -7258.17 0.
-4031.19 -10449.6 0.
-1344.52 -4178.55 0.
-1536.28 -4623.88 0.
-1503.73 -4707.64 0.
-1920.27 -5680.05 0.
-5041.52 -12963.5 0.
-13224 -36195.6 0.
-2951.59 -12225.1 0.
-1903.15 -9777.27 0.
-3300.49 -7662.75 0.
-2559.3 -5932.43 0.
-3339.88 -7809.15 0.
-2315.65 -5148.93 0.
-2176.83 -4824.43 0.
-2274.34 -4172.45 0.
-2321.79 -4279.9 0.
-3622.38 -7311.34 0.
-6172.29 -14557.9 0.
-3035.46 -7239.35 0.
-2869.01 -6851.66 0.
-2436.87 -7178.86 0.
-3420.1 -9477.28 0.
-10732.4 -26543.5 0.
-11371.9 -26700.4 0.
-7441.15 -17529.5 0.
-7067.52 -14339.4 0.
-4989.23 -9491.52 0.
-5040.12 -9611.75 0.
-5290.26 -6868.52 0.
-4094.47 -4082.05 0.
-4068.94 -4026.18 0.
-3180.17 -5073.26 0.
-4023.97 -7040.28 0.
-12112.2 -25911 0.
13856.6 -84.9325 0.
14609.5 1684.76 0.
-112075 -54450.9 0.
14478.5 1142.14 0.
13383.1 -1425.99 0.
-11664.1 -25323.7 0.
-4671.96 -9009.86 0.
-5000.1 -9776.7 0.
-5379.68 -8514.65 0.
-4641.01 -6790.28 0.
-5581.76 -8984.53 0.
-4052.14 -7709.27 0.
-2927.42 -5085.47 0.
-3119.77 -5534.86 0.
-3476.93 -4641.7 0.
-3543.81 -4798.09 0.
-3803.4 -8461.11 0.
-3965.39 -8839.04 0.
-6661.97 -15131 0.
-14342.6 -36935 0.
-3650.28 -11985.8 0.
-3163.82 -10850.5 0.
-3914.48 -9546.63 0.
-3392 -8328.89 0.
-5214.23 -12582.1 0.
-2698.65 -4686.22 0.
-2296.9 -3747.85 0.
-2993.71 -4960.68 0.
-2375.89 -3733.91 0.
-3350.62 -6005.44 0.
-7118.59 -23628.1 0.
-6857.3 -23017.9 0.
-14298.5 -40380.1 0.
-11030.9 -28329.2 0.
-5194.15 -14710.1 0.
-4524.48 -13147.5 0.
-2629.26 -5212.09 0.
-1681.98 -3003.89 0.
-2476.41 -4859.7 0.
-2042.84 -4564.19 0.
-2167.17 -4854.54 0.
-2954.93 -7877.93 0.
-881.051 -3036.17 0.
-738.754 -2701.78 0.
-359.792 -2764.64 0.
-201.265 -2394.78 0.
-1108.05 -4510.62 0.
-1025.57 -3153.78 0.
-281.037 -1414.34 0.
-128.177 -1055.51 0.
296.696 -1464.67 0.
-740.889 -3887.02 0.
-205.838 -356.352 0.
283.589 -156.984 0.
253.135 -227.112 0.
112.892 -334.022 0.
114.614 -327.038 0.
116.336 -320.053 0.
482.237 -44.8881 0.
619.4 274.817 0.
756.564 594.521 0.
976.106 791.941 0.
996.068 836.801 0.
1016.03 881.662 0.
774.985 928.457 0.
857.017 1121.87 0.
1063.49 1335.25 0.
984.263 1153 0.
905.032 970.752 0.
1103.62 1193.55 0.
1473.7 2056.36 0.
1843.77 2919.18 0.
3059.78 3530.52 0.
2842.9 3023.2 0.
2626.02 2515.87 0.
872.457 1539.97 0.
783.295 1332.38 0.
1244.05 1360.41 0.
394.095 831.483 0.
308.772 632.889 0.
232.576 604.402 0.
556.596 1363.82 0.
880.616 2123.24 0.
1064.97 2454.62 0.
953.818 2195.6 0.
842.666 1936.59 0.
1420.77 2585.13 0.
1796.4 3458.91 0.
2172.03 4332.69 0.
1834.45 4341.91 0.
1879.47 4446.71 0.
1306.93 4186 0.
834.89 3084.56 0.
362.854 1983.12 0.
-646.329 851.837 0.
-790.805 512.986 0.
-935.277 174.137 0.
268.521 383.549 0.
73.3155 -71.6843 0.
-121.885 -526.915 0.
13565.3 6022 0.
14108 7299.9 0.
-55925.8 -21669.2 0.
14504.8 7422.78 0.
13937.7 6087.13 0.
-137.58 -600.533 0.
211.492 211.856 0.
560.561 1024.24 0.
-576.328 999.502 0.
-452.908 1288.61 0.
-329.487 1577.71 0.
365.964 1717.86 0.
189.41 1305.75 0.
12.8567 893.646 0.
-545.206 838.391 0.
-421.006 1126.94 0.
831.369 1973.67 0.
1278.97 3016.64 0.
1726.56 4059.6 0.
2904.03 4883.46 0.
2543.3 4040.6 0.
2182.57 3197.73 0.
1319.64 2503.43 0.
1294.3 2442.17 0.
1268.97 2380.92 0.
616.121 1563.12 0.
267.315 752.336 0.
25.6051 18.9981 0.
500.228 1287.45 0.
1058.46 2591.73 0.
3837.52 4732.35 0.
4141.08 5440.4 0.
4444.65 6148.45 0.
3148.83 5559.75 0.
2755.18 4640.33 0.
2361.52 3720.92 0.
970.709 2252.1 0.
492.368 1134.69 0.
14.0268 17.2841 0.
421.045 364.193 0.
560.441 690.426 0.
912.077 1018.68 0.
732.654 602.532 0.
553.233 186.381 0.
605.28 38.9404 0.
664.421 178.208 0.
723.561 317.476 0.
394.878 111.263 0.
295.079 -118.525 0.
195.28 -348.313 0.
725.032 22.5166 0.
843.289 297.586 0.
-246.016 -341.506 0.
317.488 -111.198 0.
287.026 -181.523 0.
382.643 -186.268 0.
383.605 -179.126 0.
384.568 -171.983 0.
540.493 11.0242 0.
677.553 330.763 0.
814.614 650.502 0.
693.155 702.218 0.
713.334 747.081 0.
733.513 791.944 0.
1040.63 1073.88 0.
1122.99 1266.97 0.
1134.04 1397.07 0.
1054.64 1214.94 0.
975.247 1032.81 0.
1215.64 1272.32 0.
1585.86 2135.25 0.
1956.07 2998.19 0.
2168.54 3181.61 0.
1952.61 2673.71 0.
1736.67 2165.82 0.
1169.75 1699.5 0.
1080.64 1491.6 0.
1687.47 1581.87 0.
590.445 947.289 0.
505.116 748.612 0.
812.085 883.987 0.
1136.18 1643.67 0.
1460.28 2403.36 0.
1015.38 2464.51 0.
903.995 2205.98 0.
792.607 1947.45 0.
1035.76 2449.61 0.
1410.79 3323.52 0.
1785.83 4197.43 0.
1732.36 4331.29 0.
1777.21 4436.18 0.
1856.24 4452.74 0.
1383.72 3351.65 0.
911.2 2250.55 0.
1005.43 1590.45 0.
860.322 1252.1 0.
715.22 913.744 0.
1641.25 996.459 0.
1446.32 540.276 0.
1251.39 84.0951 0.
10022.3 4541.64 0.
10563.8 5815.42 0.
-19558.4 -6051.7 0.
11257.4 6064.92 0.
10692 4732.96 0.
1016.65 -79.3817 0.
1366.41 733.665 0.
1716.17 1546.71 0.
328.976 1418.21 0.
452.326 1707.46 0.
575.677 1996.72 0.
845.311 1954.54 0.
668.583 1542.43 0.
491.856 1130.31 0.
186.356 1184.77 0.
310.957 1473.34 0.
1047.01 2097.14 0.
1495.16 3139.94 0.
1943.31 4182.74 0.
2093.34 4568.08 0.
1733.24 3725.19 0.
1373.13 2882.3 0.
1422.07 2579.54 0.
1396.91 2517.95 0.
1371.76 2456.36 0.
1413.5 1938.54 0.
1063.81 1127.85 0.
900.065 423.239 0.
1402.95 1704.21 0.
1961.96 3009.23 0.
2386.79 4143.51 0.
2690.49 4851.06 0.
2994.19 5558.61 0.
2744.59 5419.46 0.
2351.33 4500.04 0.
1958.07 3580.63 0.
1477.85 2499.67 0.
999.033 1382.02 0.
520.218 264.367 0.
868.672 587.95 0.
1007.61 914.422 0.
994.264 1083.7 0.
814.712 667.406 0.
635.161 251.115 0.
332.82 -45.0301 0.
391.538 94.5112 0.
450.255 234.052 0.
436.979 160.233 0.
336.836 -69.4607 0.
236.694 -299.154 0.
485.867 -47.6192 0.
604.03 227.655 0.
-661.867 -1635.77 0.
-257.418 -1517.35 0.
-250.995 -1504.37 0.
-30.6578 -1401.92 0.
-28.537 -1398.18 0.
-26.416 -1394.44 0.
-134.235 -1454.3 0.
-150.1 -1490.8 0.
-165.965 -1527.29 0.
-404.503 -1706.32 0.
-460.147 -1834.77 0.
-515.791 -1963.23 0.
-121.72 -1880.54 0.
-166.236 -1983.94 0.
-316.089 -2113.45 0.
-244.118 -1944.34 0.
-172.146 -1775.24 0.
-34.229 -1773.09 0.
-290.028 -2363 0.
-545.825 -2952.92 0.
-881.807 -3133.81 0.
-696.457 -2703.2 0.
-511.107 -2272.58 0.
-284.554 -2042.36 0.
-246.5 -1957.26 0.
307.431 -1650.97 0.
-439.782 -1834.42 0.
-366.857 -1666.41 0.
-187.458 -1558.65 0.
-380.8 -2011.37 0.
-574.143 -2464.08 0.
-1195.15 -2814 0.
-1036.81 -2452.03 0.
-878.463 -2090.06 0.
-995.376 -2369.17 0.
-1259.94 -2988.58 0.
-1524.5 -3607.99 0.
-1476.84 -3545.37 0.
-1415.96 -3405.93 0.
-984.447 -3100.67 0.
-871.608 -2841.56 0.
-758.769 -2582.44 0.
99.9402 -2156.34 0.
-44.8401 -2496.75 0.
-189.62 -2837.15 0.
815.95 -2147.37 0.
1189.83 -1276.32 0.
1563.71 -405.264 0.
5890.05 -148.26 0.
4692.03 -2936.06 0.
-998.208 -7648.98 0.
5315.22 -2754.11 0.
6469.82 -70.0602 0.
1174.45 -837.686 0.
762.685 -1787.44 0.
350.921 -2737.19 0.
-1177.64 -3666.67 0.
-1008.37 -3275.81 0.
-839.099 -2884.95 0.
-837.384 -2634 0.
-728.513 -2375.39 0.
-619.643 -2116.78 0.
-875.389 -2167.23 0.
-853.871 -2115.97 0.
-516.32 -1998.5 0.
-781.365 -2614.39 0.
-1046.41 -3230.28 0.
-1548.65 -3595.7 0.
-1280.84 -2968.5 0.
-1013.03 -2341.31 0.
-593.463 -1973.05 0.
-619.086 -2031.77 0.
-644.709 -2090.5 0.
139.501 -1683.81 0.
195.904 -1558.65 0.
372.775 -1384.68 0.
163.981 -1794.37 0.
-6.54932 -2187.67 0.
-1049.33 -2939.13 0.
-1186.16 -3255.48 0.
-1322.99 -3571.84 0.
-1109.39 -3452.5 0.
-918.427 -3006.88 0.
-727.464 -2561.25 0.
-257.172 -2079.9 0.
-131.029 -1789.07 0.
-4.88627 -1498.25 0.
72.7773 -1482.17 0.
51.1066 -1529.19 0.
-144.298 -1607.94 0.
-25.6195 -1328.6 0.
93.0591 -1049.26 0.
-216.605 -1088.07 0.
-286.989 -1247.17 0.
-357.372 -1406.27 0.
-220.364 -1229.84 0.
-71.3922 -885.09 0.
77.5802 -540.34 0.
83.754 -571.518 0.
25.643 -702.402 0.
-265.175 -1437.08 0.
-178.946 -1452.52 0.
-173.125 -1439.15 0.
-0.191894 -1359.36 0.
2.149 -1356.01 0.
4.49017 -1352.66 0.
-281.542 -1485.38 0.
-297.836 -1522.23 0.
-314.131 -1559.08 0.
-255.165 -1612.04 0.
-310.676 -1740.97 0.
-366.187 -1869.9 0.
-109.675 -1845.24 0.
-154.328 -1948.92 0.
-216.896 -2040.22 0.
-145.218 -1871.01 0.
-73.5403 -1701.8 0.
8.59262 -1723.16 0.
-246.484 -2314.11 0.
-501.559 -2905.07 0.
-817.271 -3073.74 0.
-631.732 -2643.32 0.
-446.193 -2212.89 0.
-181.007 -1968.08 0.
-143.089 -1882.71 0.
-630.147 -2022.37 0.
-221.157 -1710.54 0.
-148.905 -1542.28 0.
-603.377 -1706.85 0.
-797.094 -2158.94 0.
-990.812 -2611.04 0.
-981.489 -2692.71 0.
-824.052 -2329.96 0.
-666.615 -1967.2 0.
-523.583 -2138.39 0.
-788.538 -2757.48 0.
-1053.49 -3376.58 0.
-953.143 -3291.68 0.
-892.334 -3152.27 0.
-518.984 -2870.28 0.
-406.096 -2611.29 0.
-293.207 -2352.29 0.
203.708 -2082.13 0.
58.9849 -2422.85 0.
-85.7383 -2763.56 0.
754.203 -2143.73 0.
1128.56 -1273.35 0.
1502.93 -402.969 0.
4211.65 -838.613 0.
3016.77 -3624.11 0.
-1902.22 -8006.33 0.
3280.68 -3597.62 0.
4432.57 -916.706 0.
1217.98 -785.071 0.
806.635 -1735.08 0.
395.292 -2685.08 0.
-403.605 -3306.49 0.
-234.77 -2914.82 0.
-65.9336 -2523.14 0.
-583.682 -2495.95 0.
-475.021 -2237.08 0.
-366.36 -1978.2 0.
-665.081 -2046.41 0.
-643.446 -1995.55 0.
-233.25 -1846.46 0.
-498.658 -2462.47 0.
-764.066 -3078.48 0.
-1089.02 -3366.91 0.
-820.703 -2739.91 0.
-552.388 -2112.9 0.
-816.937 -2038.53 0.
-842.257 -2097.44 0.
-867.577 -2156.35 0.
65.9756 -1683.5 0.
122.037 -1557.6 0.
177.175 -1437.58 0.
-43.3279 -1852.59 0.
-213.348 -2245.96 0.
-600.233 -2716.97 0.
-736.732 -3033.16 0.
-873.229 -3349.35 0.
-821.827 -3299.08 0.
-630.423 -2853.53 0.
-439.021 -2407.98 0.
-173.829 -2013.5 0.
-47.628 -1722.68 0.
78.5728 -1431.86 0.
-144.846 -1544.89 0.
-165.951 -1592.57 0.
-151.235 -1580.14 0.
-32.4635 -1301.17 0.
86.3081 -1022.21 0.
-178.317 -1040.26 0.
-248.245 -1199.83 0.
-318.173 -1359.39 0.
-367.497 -1263.79 0.
-219.209 -918.643 0.
-70.9217 -573.494 0.
-84.8454 -612.193 0.
-143.637 -743.078 0.
502.932 -326.434 0.
389.198 -257.197 0.
225.891 -634.808 0.
-2.02694 -1393.19 0.
211.177 -895.235 0.
333.02 -610.439 0.
-770.84 -2314.39 0.
131.305 -208.861 0.
43.6261 -413.329 0.
70.9038 -1119.55 0.
-284.35 -1946.14 0.
174.854 -872.339 0.
516.91 -369.712 0.
420.864 -597.51 0.
152.992 -1326.21 0.
429.116 -687.631 0.
28.1244 -1629 0.
-332.176 -2556.53 0.
-91.296 -1994.93 0.
377.124 -902.419 0.
187.234 -830.344 0.
197.505 -807.276 0.
220.957 -753.497 0.
532.36 -473.216 0.
208.605 -1227.64 0.
271.128 -971.406 0.
349.42 -758.686 0.
34.2689 -1502.02 0.
-887.087 -1544.43 0.
-406.033 -428.371 0.
-12.178 484.245 0.
-630.144 -2256.04 0.
-261.519 -1397.68 0.
155.502 -426.31 0.
805.592 99.4428 0.
-125.963 -2071.16 0.
-881.956 -3832.2 0.
-464.793 -3110.85 0.
24.5814 -1965.25 0.
269.86 -1896.34 0.
285.898 -1855.8 0.
506.187 -1338.77 0.
385.348 -1829.06 0.
209.625 -2237.96 0.
873.365 -688.231 0.
1310.57 -702.402 0.
1043.66 -1321.69 0.
1335.55 -637.185 0.
2685.12 -1197.09 0.
3295.24 231.257 0.
-2183.57 -3002.93 0.
3105.31 -130.38 0.
2917.42 -569.299 0.
1022.9 -1273.56 0.
554.229 -2370.43 0.
99.2716 -3435.27 0.
1212.26 -975.754 0.
1813.34 425.694 0.
1774.62 334.258 0.
7.49562 -1570.73 0.
-469.478 -2687.61 0.
623.42 -141.378 0.
-29.9661 -938.314 0.
-739.37 -2588.38 0.
-108.306 -2046.54 0.
903.716 311.67 0.
378.081 -918.017 0.
131.15 -1352.69 0.
77.8889 -1476.66 0.
331.663 -884.172 0.
-931.589 -1856.23 0.
-171.669 -81.8831 0.
-397.754 -608.157 0.
-141.932 -1998.1 0.
-310.551 -2388.72 0.
569.267 -571.754 0.
-14.4823 -1374.53 0.
-372.437 -2210.34 0.
642.187 -624.884 0.
176.439 -1710.76 0.
201.739 -1650.79 0.
123.888 -1607.7 0.
279.067 -1242.32 0.
396.473 -965.008 0.
-96.6893 -1969.77 0.
-22.2251 -1793.77 0.
-372.633 -2609.19 0.
-184.249 -1179.78 0.
187.394 -315.455 0.
556.978 110.213 0.
415.89 -225.554 0.
256.306 -604.641 0.
-95.9895 -880.29 0.
73.001 -486 0.
726.564 1038.96 0.
14.8867 -66.9772 0.
-266.064 -724.221 0.
-439.136 -1129.71 0.
-63.4072 -216.061 0.
-434.953 -1086.08 0.
182.623 -520.407 0.
120.538 -684.226 0.
44.8074 -858.875 0.
-90.262 -1027.86 0.
-86.9015 -1019.94 0.
-83.5412 -1012.02 0.
-26.5645 -1056.35 0.
-114.184 -1258.34 0.
-201.803 -1460.33 0.
-19.6601 -1424.88 0.
-11.9055 -1405.49 0.
-4.15045 -1386.09 0.
210.683 -1290.39 0.
215.176 -1282.91 0.
96.5793 -1330.94 0.
90.42 -1348.9 0.
84.2602 -1366.86 0.
-90.3073 -1490.3 0.
-165.815 -1666.77 0.
-241.322 -1843.24 0.
20.7194 -1794.26 0.
24.381 -1786.96 0.
28.0431 -1779.65 0.
35.4628 -1654.89 0.
118.906 -1460.16 0.
197.645 -1267.28 0.
-144.688 -1430.72 0.
-149.457 -1448.47 0.
-708.556 -1705.31 0.
-705.886 -1703.78 0.
-703.216 -1702.25 0.
-128.74 -1501.69 0.
-187.468 -1640.21 0.
-246.196 -1778.74 0.
-61.7385 -1666.91 0.
-7.69589 -1536.48 0.
46.3455 -1406.05 0.
209.526 -1555.95 0.
67.3976 -1883.78 0.
243.854 -2044.06 0.
228.037 -2077.75 0.
212.22 -2111.44 0.
321.499 -2097.02 0.
300.885 -2144.21 0.
280.271 -2191.41 0.
661.354 -1905.43 0.
793.007 -1597.37 0.
924.659 -1289.3 0.
2435.31 -824.73 0.
2275.14 -1194.97 0.
-1300.92 -3026.4 0.
2221.87 -1201.75 0.
2385.97 -816.743 0.
1010.92 -1196 0.
943.925 -1354.76 0.
876.93 -1513.53 0.
710.588 -1755.14 0.
585.647 -2047.63 0.
460.706 -2340.13 0.
-307.174 -2610.82 0.
-198.906 -2360.03 0.
-90.6382 -2109.24 0.
-227.802 -1972.01 0.
-129.053 -1737.2 0.
79.693 -1524.61 0.
-77.8024 -1895.17 0.
-235.298 -2265.73 0.
-344.201 -2363.86 0.
-130.776 -1865.68 0.
82.6487 -1367.5 0.
-457.841 -1527.78 0.
-551.643 -1745.02 0.
-645.444 -1962.26 0.
-158.308 -1659.24 0.
-74.4624 -1459.42 0.
-111.992 -1318.49 0.
-308.493 -1716.08 0.
-473.174 -2100.03 0.
85.0637 -2108.01 0.
62.7099 -2159.26 0.
40.3565 -2210.51 0.
58.0584 -2101.28 0.
201.44 -1763.27 0.
344.821 -1425.26 0.
115.024 -1231.04 0.
271.258 -863.925 0.
427.492 -496.812 0.
-231.323 -1091.87 0.
-423.262 -1540.78 0.
-142.61 -1736.08 0.
-121.305 -1691.17 0.
-100.001 -1646.27 0.
-393.862 -1625.85 0.
-220.438 -1220.26 0.
-47.0132 -814.682 0.
-6.63918 -742.791 0.
-75.1897 -904.381 0.
-143.74 -1065.97 0.
-474.429 -1204.78 0.
-455.928 -1162.3 0.
-92.0727 -607.921 0.
32.0717 -690.9 0.
-43.2781 -865.994 0.
-373.126 -1116.64 0.
-369.752 -1109.13 0.
-366.378 -1101.62 0.
240.521 -911.745 0.
152.347 -1113.21 0.
64.1739 -1314.68 0.
47.315 -1363.35 0.
55.257 -1344.51 0.
63.1992 -1325.66 0.
335.141 -1206.52 0.
339.397 -1198.7 0.
47.0464 -1319.88 0.
40.2002 -1337.66 0.
33.3534 -1355.44 0.
-337.653 -1565.66 0.
-413.188 -1742.21 0.
-488.724 -1918.75 0.
339.246 -1626.47 0.
342.94 -1619.16 0.
346.635 -1611.85 0.
63.5201 -1611.8 0.
147.44 -1417.36 0.
213.074 -1230.55 0.
-379.497 -1498.95 0.
-384.6 -1516.19 0.
-390.053 -1538.6 0.
-388.187 -1536.79 0.
-386.321 -1534.99 0.
105.962 -1370.82 0.
46.9298 -1509.33 0.
-12.1021 -1647.84 0.
-180.715 -1686.79 0.
-127.174 -1556.26 0.
-73.6343 -1425.74 0.
236.402 -1512.27 0.
94.2751 -1840.39 0.
306.326 -1984.54 0.
290.38 -2018.63 0.
274.434 -2052.73 0.
400.248 -2032.96 0.
379.803 -2079.7 0.
359.359 -2126.45 0.
513.953 -1937.65 0.
646.378 -1629.81 0.
778.803 -1321.98 0.
1951.68 -999.619 0.
1792.03 -1369.86 0.
-902.748 -2826.21 0.
1716.79 -1388.4 0.
1880.05 -1003.03 0.
971.842 -1182.13 0.
904.551 -1340.57 0.
837.259 -1499 0.
521.744 -1804.76 0.
396.772 -2097.29 0.
271.8 -2389.82 0.
-130.663 -2504.94 0.
-23.0809 -2253.11 0.
84.5006 -2001.29 0.
88.6481 -1806.27 0.
187.849 -1571.7 0.
52.8937 -1503.26 0.
-104.326 -1873.86 0.
-261.546 -2244.45 0.
-378.446 -2346.09 0.
-165.02 -1847.92 0.
48.4062 -1349.75 0.
-33.737 -1315.95 0.
-127.766 -1533.09 0.
-221.794 -1750.24 0.
-339.848 -1705.57 0.
-256.477 -1505.66 0.
-193.681 -1323.26 0.
-473.77 -1756.29 0.
-638.511 -2139.87 0.
197.504 -2029.45 0.
175.318 -2080.24 0.
153.132 -2131.03 0.
252.416 -1987.03 0.
396.003 -1648.84 0.
539.59 -1310.65 0.
4.0538 -1245.25 0.
160.211 -878.119 0.
316.367 -510.994 0.
-318.23 -1096.87 0.
-510.857 -1545.32 0.
-14.7532 -1650.7 0.
6.15524 -1605.13 0.
27.0637 -1559.57 0.
-351.982 -1578.25 0.
-178.876 -1172.59 0.
-5.76981 -766.926 0.
338.369 -563.504 0.
269.788 -725.052 0.
201.207 -886.601 0.
-442.935 -1160.98 0.
-425.189 -1117.88 0.
-75.8852 -591.451 0.
-16.3119 -662.428 0.
-79.4504 -812.56 0.
-384.345 -1076.21 0.
-476.235 -1291.71 0.
-568.125 -1507.21 0.
116.747 -1302.8 0.
130.92 -1272.89 0.
145.094 -1242.98 0.
64.7235 -1328.44 0.
16.3477 -1441.86 0.
-32.0279 -1555.29 0.
200.311 -1627.97 0.
98.8017 -1860.04 0.
-458.361 -2263.16 0.
-380.553 -2079.57 0.
-302.746 -1895.98 0.
-463.586 -1905.05 0.
-534.826 -2070.16 0.
-606.065 -2235.28 0.
234.415 -1993.13 0.
179.938 -2121.34 0.
125.461 -2249.55 0.
-274.925 -2297.02 0.
-171.57 -2054.03 0.
216.881 -1688.79 0.
-545.899 -2023.2 0.
-548.021 -2031.38 0.
-390.018 -1967.42 0.
-366.595 -1911.39 0.
-343.172 -1855.35 0.
-75.1392 -1757.55 0.
-123.164 -1874.3 0.
-171.189 -1991.06 0.
-396.68 -2239.46 0.
-491.119 -2459.57 0.
-585.558 -2679.68 0.
-130.716 -2439.05 0.
-93.9242 -2351.39 0.
169.047 -2180.71 0.
125.804 -2278.08 0.
82.5605 -2375.45 0.
248.866 -2303.81 0.
332.197 -2101.23 0.
415.527 -1898.65 0.
519.372 -1806.68 0.
489.189 -1877.02 0.
459.005 -1947.35 0.
1365.28 -1565.88 0.
1370.85 -1557.04 0.
-1166.83 -2637.94 0.
1343.36 -1564.4 0.
1342.84 -1566.57 0.
585.929 -1899.86 0.
548.762 -1983.4 0.
511.595 -2066.94 0.
175.432 -2277.33 0.
142.301 -2352.34 0.
109.169 -2427.34 0.
-13.8665 -2406.55 0.
58.2213 -2239.28 0.
130.309 -2072.01 0.
-35.2708 -2242.48 0.
-103.139 -2402.31 0.
-340.165 -2593.46 0.
-256.382 -2394.48 0.
-172.601 -2195.5 0.
-387.508 -2234.46 0.
-471.56 -2428.14 0.
-555.611 -2621.82 0.
-409.423 -2501.49 0.
-299.816 -2248 0.
-190.209 -1994.52 0.
-541.265 -2121.14 0.
-548.057 -2141.18 0.
-512.843 -2141.3 0.
-688.132 -2314.52 0.
-739.018 -2434.45 0.
126.674 -2153.78 0.
93.5156 -2231.84 0.
60.3572 -2309.91 0.
94.5847 -2323.19 0.
99.3266 -2312.16 0.
104.068 -2301.14 0.
-496.747 -2409.22 0.
-391.427 -2164.96 0.
-286.107 -1920.71 0.
-600.054 -1746.73 0.
-434.925 -1362.43 0.
335.991 -776.145 0.
298.972 -861.081 0.
261.952 -946.017 0.
-122.899 -1227.32 0.
-224.996 -1469.76 0.
-327.094 -1712.19 0.
-0.694853 -1522.85 0.
111.408 -1258.03 0.
223.512 -993.205 0.
-202.978 -923.231 0.
-62.8561 -600.61 0.
231.171 -426.696 0.
-32.6988 -637.965 0.
-96.0067 -788.157 0.
-146.471 -942.722 0.
-238.501 -1158.13 0.
-330.531 -1373.54 0.
0.944372 -1320.49 0.
14.9491 -1290.43 0.
28.954 -1260.37 0.
42.6183 -1308.81 0.
-5.86712 -1422.09 0.
-54.3524 -1535.36 0.
219.028 -1589.01 0.
117.733 -1821.32 0.
-629.722 -2305.49 0.
-551.95 -2122.07 0.
-474.178 -1938.65 0.
-135.505 -1732.87 0.
-206.833 -1898.38 0.
-278.161 -2063.88 0.
74.8852 -2029.19 0.
20.7786 -2157.58 0.
-33.328 -2285.96 0.
-388.802 -2316.5 0.
-285.233 -2073.99 0.
430.38 -1569.12 0.
-138.017 -1815.25 0.
-139.598 -1824.28 0.
-229.381 -1865.7 0.
-206.23 -1809.88 0.
-183.079 -1754.06 0.
-303.213 -1825.92 0.
-352.052 -1942.38 0.
-400.892 -2058.84 0.
-190.227 -2120.26 0.
-285.969 -2339.69 0.
-381.713 -2559.12 0.
-54.5217 -2375.5 0.
-18.3863 -2287.29 0.
25.7539 -2211.96 0.
-17.8129 -2309.39 0.
-61.38 -2406.82 0.
99.423 -2337.33 0.
183.274 -2135.18 0.
267.123 -1933.03 0.
564.04 -1755.07 0.
533.784 -1825.31 0.
503.528 -1895.56 0.
1042.65 -1674.7 0.
1047.34 -1665.2 0.
-546.413 -2341.5 0.
1141.45 -1619.11 0.
1140.17 -1620.78 0.
462.025 -1921.7 0.
424.658 -2005.43 0.
387.291 -2089.17 0.
42.6341 -2302.88 0.
9.18524 -2378.21 0.
-24.264 -2453.55 0.
20.6123 -2359.6 0.
92.0745 -2192.05 0.
163.536 -2024.51 0.
-140.005 -2255.98 0.
-208.252 -2415.32 0.
-117.355 -2468.45 0.
-33.2243 -2268.98 0.
50.9063 -2069.51 0.
-469.66 -2239.06 0.
-553.795 -2432.25 0.
-637.93 -2625.44 0.
-475.358 -2500.44 0.
-365.621 -2247.1 0.
-255.883 -1993.76 0.
-380.295 -2018.32 0.
-387.036 -2038.55 0.
-594.918 -2146.27 0.
-426.874 -2171.95 0.
-477.888 -2291.5 0.
-6.94578 -2180.67 0.
-40.2268 -2257.81 0.
-73.5081 -2334.94 0.
-94.9022 -2374.69 0.
-90.4394 -2363.42 0.
-85.977 -2352.14 0.
-339.219 -2308.92 0.
-234.125 -2064.31 0.
-129.031 -1819.7 0.
-485.002 -1668 0.
-320.312 -1282.78 0.
177.756 -811.913 0.
141.112 -897.115 0.
104.469 -982.317 0.
59.9996 -1118.12 0.
-43.1046 -1359.42 0.
-146.209 -1600.72 0.
-136.377 -1551.27 0.
-24.2644 -1286.33 0.
87.8484 -1021.4 0.
132.59 -749.832 0.
273.42 -426.733 0.
522.706 -299.286 0.
-121.025 -785.103 0.
411.937 461.488 0.
402.834 -86.4825 0.
132.627 -714.519 0.
199.634 -555.585 0.
317.923 -333.736 0.
273.508 -436.67 0.
445.906 -34.9605 0.
624.867 120.154 0.
616.016 100.159 0.
436.346 -318.36 0.
688.036 -503.414 0.
503.424 -936.026 0.
-215.083 -972.63 0.
223.54 48.0067 0.
-93.4195 -694.394 0.
736.508 -289.252 0.
703.485 -365.509 0.
630.733 -534.736 0.
854.27 114.563 0.
880.398 174.579 0.
265.684 -1260.57 0.
225.229 -634.504 0.
607.305 253.313 0.
528.504 -325.641 0.
884.956 -180.021 0.
469.366 -1155.65 0.
186.504 -1159.06 0.
603.849 -190.006 0.
761.788 173.7 0.
155.717 -296.929 0.
-40.6761 -755.153 0.
-46.831 -769.088 0.
791.93 -182.644 0.
986.899 272.807 0.
716.607 -356.769 0.
1404.24 923.028 0.
848.483 -376.751 0.
684.441 -370.841 0.
517.312 -766.494 0.
604.563 -568.325 0.
640.514 -745.809 0.
922.04 -96.3462 0.
804.277 -378.226 0.
673.39 -1550.91 0.
859.119 -1119.57 0.
1322.44 -40.0856 0.
1657.59 401.059 0.
1785.1 696.548 0.
-602.908 1423.67 0.
2415.54 1794.1 0.
1745.98 230.164 0.
1526.33 824.796 0.
1146.96 -58.8208 0.
808.445 -846.469 0.
971.39 150.789 0.
902.017 -9.8066 0.
988.196 192.014 0.
808.708 -550.616 0.
811.045 -542.865 0.
955.498 -204.039 0.
333.512 -925.531 0.
446.669 -655.097 0.
1098.29 -21.3691 0.
1081.21 -60.5092 0.
1206.23 232.231 0.
286.966 -284.18 0.
606.971 458.2 0.
108.127 -710.151 0.
208.367 -750.852 0.
480.637 -116.554 0.
615.881 197.77 0.
610.359 9.80182 0.
1023.41 976.643 0.
-229.677 -523.135 0.
436.512 -626.87 0.
761.148 130.137 0.
464.839 -784.731 0.
394.556 -951.104 0.
466.613 -785.576 0.
321.824 -1020.88 0.
293.192 -1081.87 0.
615.659 -323.537 0.
634.06 -310.66 0.
414.306 -819.16 0.
942.247 416.504 0.
132.973 -403.995 0.
238.232 -156.392 0.
-201.744 -1370.34 0.
77.0477 -719.57 0.
207.853 -414.232 0.
225.341 -1047.89 0.
769.41 219.341 0.
794.685 275.492 0.
-38.5759 -1027.89 0.
303.165 -233.574 0.
116.348 -672.379 0.
389.886 -762.818 0.
314.571 -935.583 0.
37.0908 -763.548 0.
-3.70333 -896.435 0.
-61.4892 -1028.71 0.
45.0825 -1085.64 0.
-5.28078 -1200.26 0.
-55.6435 -1314.88 0.
-269.946 -1524.99 0.
-347.865 -1706.39 0.
-425.784 -1887.79 0.
-100.714 -1772.71 0.
-75.3776 -1713.3 0.
-50.0413 -1653.89 0.
150.499 -1482.54 0.
195.074 -1377.28 0.
-182.072 -1479.79 0.
-318.253 -1798.97 0.
-454.432 -2118.16 0.
-154.037 -2131.07 0.
-85.1712 -1970.07 0.
-16.3052 -1809.08 0.
-192.468 -1721.55 0.
-91.4759 -1487.38 0.
9.51565 -1253.22 0.
-158.324 -1478.14 0.
-291.666 -1792.03 0.
-64.47 -1951.6 0.
25.7752 -1830.51 0.
75.2551 -1719.05 0.
-30.935 -1700.94 0.
-43.236 -1735.18 0.
-55.5369 -1769.42 0.
-221.001 -1873.72 0.
-241.919 -1923.63 0.
-262.837 -1973.54 0.
-6.16607 -1953.69 0.
-69.2688 -2100.76 0.
-132.371 -2247.83 0.
-71.1772 -2160.82 0.
-27.4732 -2058.31 0.
223.329 -1877.12 0.
219.305 -1889.39 0.
215.282 -1901.67 0.
22.7131 -1974.77 0.
45.7121 -1926.19 0.
68.711 -1877.61 0.
435.969 -1729.93 0.
411.851 -1790.47 0.
387.732 -1851.02 0.
776.256 -1525.41 0.
894.533 -1252 0.
-1467.34 -2041.98 0.
1132.58 -1117.33 0.
1033.46 -1349.38 0.
121.495 -1857.18 0.
190.653 -1693.77 0.
259.811 -1530.35 0.
405.921 -1414.36 0.
383.232 -1467.59 0.
360.543 -1520.83 0.
93.1531 -1824.05 0.
-45.5894 -2147.72 0.
-184.332 -2471.39 0.
-163.085 -2324.92 0.
-71.9846 -2109.02 0.
190.156 -1833.46 0.
221.688 -1760.33 0.
253.219 -1687.19 0.
-303.57 -1870.81 0.
-278.66 -1814.46 0.
-253.751 -1758.11 0.
-97.2463 -1696.89 0.
-121.044 -1752.48 0.
-144.842 -1808.07 0.
-221.596 -1887.73 0.
-244.526 -1938.48 0.
-322.874 -2011.71 0.
-175.368 -1927.44 0.
-163.176 -1901.11 0.
90.8521 -1789.94 0.
68.9034 -1844.02 0.
46.9543 -1898.11 0.
-125.387 -1919.33 0.
-51.7699 -1740.07 0.
21.8466 -1560.82 0.
-19.8653 -1568.21 0.
-47.4905 -1630.13 0.
-75.1154 -1692.06 0.
-461.143 -1948.57 0.
-511.73 -2066.97 0.
-308.402 -2017.23 0.
-149.036 -1646 0.
10.3295 -1274.78 0.
224.035 -977.016 0.
260.782 -896.371 0.
297.528 -815.726 0.
27.2227 -881.896 0.
52.1803 -827.828 0.
77.138 -773.761 0.
397.458 -577.001 0.
425.885 -507.026 0.
-298.659 -878.117 0.
214.147 -773.422 0.
156.687 -906.014 0.
148.779 -1008.24 0.
98.1067 -1122.98 0.
47.4347 -1237.72 0.
-348.319 -1527.09 0.
-426.226 -1708.83 0.
-504.134 -1890.56 0.
21.0298 -1687.89 0.
46.7191 -1628.63 0.
72.4086 -1569.37 0.
20.9126 -1506.8 0.
64.8851 -1401.12 0.
138.997 -1312.59 0.
2.74772 -1631.79 0.
-133.5 -1950.99 0.
-261.596 -2145.16 0.
-192.916 -1984.44 0.
-124.237 -1823.72 0.
-491.625 -1816.94 0.
-390.036 -1582.86 0.
-288.448 -1348.78 0.
-168.026 -1451.32 0.
-301.931 -1764.66 0.
-41.4016 -1909.32 0.
-144.118 -1874.2 0.
-94.3998 -1762.93 0.
5.68711 -1653.25 0.
-6.41431 -1687.81 0.
-18.5157 -1722.37 0.
163.171 -1673.93 0.
142.79 -1724.56 0.
122.408 -1775.2 0.
-37.1408 -1936.02 0.
-100.254 -2082.73 0.
-163.368 -2229.43 0.
-242.232 -2202.29 0.
-199.371 -2099.09 0.
465.69 -1742.51 0.
460.815 -1754.02 0.
455.939 -1765.52 0.
-73.424 -1987.05 0.
-50.9875 -1937.99 0.
-28.551 -1888.93 0.
255.201 -1776.1 0.
231.708 -1837 0.
208.215 -1897.89 0.
726.538 -1514.04 0.
844.98 -1241.17 0.
-3853.85 -3032.37 0.
1105.94 -1096.61 0.
1006.64 -1329.19 0.
-173.539 -1950.09 0.
-104.145 -1786.91 0.
-34.7515 -1623.72 0.
552.026 -1320.94 0.
529.838 -1374.23 0.
507.651 -1427.51 0.
-98.9368 -1876.01 0.
-237.661 -2199.58 0.
-376.385 -2523.14 0.
-18.5386 -2230 0.
73.005 -2014.23 0.
48.077 -1862.6 0.
79.4993 -1789.44 0.
110.921 -1716.27 0.
-179.539 -1786.87 0.
-154.759 -1730.37 0.
-129.98 -1673.87 0.
39.5269 -1607.06 0.
16.2815 -1662.95 0.
-6.96407 -1718.84 0.
-228.114 -1857.92 0.
-250.705 -1908.69 0.
351.677 -1691.91 0.
-226.462 -1918.39 0.
-214.607 -1892.03 0.
180.891 -1718.31 0.
158.741 -1772.33 0.
136.591 -1826.35 0.
-187.253 -1916.34 0.
-113.994 -1736.77 0.
-40.7353 -1557.2 0.
-144.18 -1590.46 0.
-171.37 -1653.12 0.
-198.56 -1715.77 0.
-360.246 -1873.19 0.
-410.124 -1991.92 0.
-82.7146 -1889.52 0.
76.815 -1518.28 0.
236.345 -1147.05 0.
202.409 -954.155 0.
239.899 -873.898 0.
277.389 -793.641 0.
47.4642 -842.271 0.
72.8183 -788.396 0.
98.1725 -734.521 0.
325.955 -575.793 0.
354.572 -504.78 0.
-395.918 -775.966 0.
294.816 -716.466 0.
194.23 -953.954 0.
20.7428 -1191.98 0.
3.1964 -1234.11 0.
-14.3495 -1276.23 0.
-174.454 -1377.51 0.
-188.164 -1410.57 0.
-201.873 -1443.64 0.
74.2886 -1405.41 0.
16.788 -1538.89 0.
-40.7132 -1672.38 0.
-193.141 -1755.43 0.
-198.796 -1766.11 0.
80.2794 -1654.52 0.
99.8909 -1607.43 0.
119.503 -1560.35 0.
-59.6588 -1628.73 0.
-93.5091 -1708.22 0.
-127.36 -1787.72 0.
-628.753 -2041.11 0.
-636.632 -2056.09 0.
-644.511 -2071.08 0.
-431.488 -1918.59 0.
-381.503 -1804.53 0.
331.624 -1406.13 0.
-82.9537 -1771.07 0.
-184.232 -2006.56 0.
-205.998 -2166.16 0.
-180.717 -2103.74 0.
-155.436 -2041.33 0.
93.6844 -1902.26 0.
102.056 -1884.51 0.
110.428 -1866.75 0.
-71.6104 -1954.44 0.
-80.7881 -1975.27 0.
-89.9658 -1996.1 0.
-272.62 -2235.32 0.
-371.119 -2464.73 0.
216.619 -2358.37 0.
354.47 -2037.83 0.
492.323 -1717.29 0.
34.4715 -1769.7 0.
-28.3126 -1911.05 0.
-91.0966 -2052.4 0.
35.8131 -1934.55 0.
150.099 -1664.01 0.
264.385 -1393.46 0.
710.955 -1303.98 0.
610.552 -1536.44 0.
-4582.72 -3952.25 0.
892.224 -1317.65 0.
1045 -963.531 0.
72.5704 -1200.49 0.
-33.8813 -1449.38 0.
-140.333 -1698.27 0.
421.417 -1556.97 0.
426.658 -1541.83 0.
431.898 -1526.7 0.
-132.079 -1788.94 0.
-152.993 -1834.09 0.
-173.906 -1879.24 0.
250.563 -1693.57 0.
254.583 -1683.53 0.
-22.6373 -1797.89 0.
-50.3979 -1860.12 0.
-78.1584 -1922.36 0.
-123.404 -2004.66 0.
-172.188 -2113.75 0.
-220.972 -2222.83 0.
-283.552 -2262.11 0.
-262.647 -2212.41 0.
-241.741 -2162.72 0.
-243.273 -2019.14 0.
-150.303 -1808.28 0.
801.291 -1239.5 0.
-312.905 -1769.7 0.
-339.706 -1833.82 0.
256.506 -1629.09 0.
217.142 -1715.32 0.
177.778 -1801.56 0.
-253.111 -1976.86 0.
-199.026 -1853.89 0.
-144.941 -1730.92 0.
-205.791 -1739.91 0.
-216.945 -1768.2 0.
-228.1 -1796.5 0.
-179.963 -1641.58 0.
-97.261 -1451.59 0.
219.118 -1169.75 0.
240.982 -1119.65 0.
262.847 -1069.56 0.
90.1861 -1110.11 0.
106.669 -1072.13 0.
123.152 -1034.15 0.
-50.3982 -1106.1 0.
-62.0932 -1130 0.
-73.7881 -1153.9 0.
10.3803 -1135.3 0.
3.17941 -1155.79 0.
-386.978 -742.713 0.
253.61 -703.091 0.
152.318 -940.28 0.
-156.201 -1236.93 0.
-174.579 -1278.7 0.
-192.956 -1320.47 0.
209.101 -1180.59 0.
195.72 -1214.26 0.
182.339 -1247.92 0.
-174.87 -1480.8 0.
-232.579 -1614.23 0.
-290.288 -1747.67 0.
-300.776 -1770.76 0.
-306.359 -1780.92 0.
-5.84275 -1660.58 0.
14.0488 -1613.55 0.
33.9406 -1566.52 0.
35.6199 -1556.58 0.
1.93421 -1636.3 0.
-31.7517 -1716.03 0.
-407.988 -1916.41 0.
-415.93 -1931.54 0.
-423.871 -1946.67 0.
-546.426 -1935.55 0.
-496.486 -1821.42 0.
-245.988 -1621.28 0.
167.941 -1633.28 0.
67.1996 -1869.4 0.
-205.625 -2134.63 0.
-180.271 -2072.15 0.
-154.917 -2009.67 0.
-186.271 -1988.16 0.
-177.344 -1971.13 0.
-168.415 -1954.11 0.
-72.4259 -1922.45 0.
-81.7219 -1943.38 0.
-91.0179 -1964.31 0.
-102.877 -2131 0.
-201.173 -2359.92 0.
51.36 -2398.48 0.
188.85 -2077.68 0.
326.34 -1756.88 0.
193.676 -1671.26 0.
130.794 -1813.16 0.
67.9118 -1955.06 0.
-133.926 -1974.21 0.
-19.5538 -1704.6 0.
94.8187 -1434.98 0.
529.873 -1348.21 0.
430.118 -1581.53 0.
4128.61 -187.283 0.
657.154 -1386.39 0.
809.933 -1032.36 0.
226.266 -1101.93 0.
119.463 -1350.58 0.
12.6604 -1599.24 0.
224.667 -1612.6 0.
229.197 -1597.09 0.
233.727 -1581.58 0.
-88.6066 -1739.53 0.
-109.846 -1784.59 0.
-131.086 -1829.66 0.
235.347 -1667.56 0.
238.71 -1657.38 0.
-95.7983 -1799.36 0.
-123.093 -1861.95 0.
-150.388 -1924.53 0.
148.479 -1855.16 0.
100.097 -1964.48 0.
51.715 -2073.8 0.
-487.85 -2319.17 0.
-466.541 -2269.61 0.
-445.232 -2220.05 0.
-67.4205 -1910.92 0.
25.0235 -1699.39 0.
507.502 -1334.16 0.
-582.846 -1854.75 0.
-609.639 -1919.24 0.
273.991 -1590.22 0.
235.242 -1677.25 0.
196.494 -1764.27 0.
-250.675 -1944.37 0.
-197.211 -1821.31 0.
-143.748 -1698.25 0.
-36.3779 -1635.98 0.
-47.8585 -1664.72 0.
-59.3387 -1693.47 0.
-57.4209 -1558.28 0.
25.1283 -1368.15 0.
9.04736 -1228.74 0.
31.1802 -1178.64 0.
53.3129 -1128.55 0.
27.2153 -1106.02 0.
43.8454 -1068.26 0.
60.4755 -1030.5 0.
-14.6896 -1059.51 0.
-26.1511 -1083.58 0.
-37.6125 -1107.64 0.
-64.8442 -1135.11 0.
-72.8126 -1156.14 0.
-14.9941 164.702 0.
317.291 -448.823 0.
261.294 -583.688 0.
161.96 -118.85 0.
46.3512 -392.971 0.
363.018 342.84 0.
617.937 -921.445 0.
718.524 -688.31 0.
806.99 -484.136 0.
-391.826 -1479.95 0.
-63.3905 -715.538 0.
388.331 337.091 0.
115.259 -559.456 0.
183.36 -398.789 0.
727.244 249.227 0.
55.5653 -1320.23 0.
146.434 -1110.03 0.
518.818 -578.619 0.
784.692 41.12 0.
737.508 -69.7145 0.
770.452 446.747 0.
694.278 265.994 0.
841.903 607.887 0.
17.256 -382.938 0.
353.442 399.528 0.
146.437 -596.091 0.
802.529 -603.145 0.
1052.45 -22.5486 0.
686.306 -19.8092 0.
768.976 175.302 0.
488.286 -477.199 0.
416.964 -19.2994 0.
1.92422 -984.909 0.
87.5188 -782.474 0.
932.577 468.903 0.
843.776 260.666 0.
693.186 -92.208 0.
1085.29 357.775 0.
547.475 -896.938 0.
259.122 -1577.06 0.
990.119 126.73 0.
726.141 -491.529 0.
1179.8 365.806 0.
740.385 -661.974 0.
827.852 -460.459 0.
838.474 664.689 0.
420.999 -314.218 0.
505.845 -120.934 0.
665.675 -648.135 0.
1337.2 920.904 0.
-6020.55 -1132.15 0.
1270.98 525.786 0.
800.683 -571.046 0.
399.18 -962.021 0.
1118.97 717.446 0.
850.508 91.0437 0.
522.977 -505.478 0.
876.901 317.609 0.
583.949 -368.005 0.
540.406 -311.316 0.
1032.84 832.223 0.
341.081 -787.625 0.
961.651 95.6969 0.
1282.6 842.739 0.
948.229 810.417 0.
556.238 -103.026 0.
280.327 -745.986 0.
732.953 -980.099 0.
721.309 -1007.5 0.
1027.97 -292.155 0.
496.734 401.02 0.
136.467 -442.211 0.
134.227 -449.831 0.
658.93 -521.686 0.
653.118 -533.684 0.
776.93 276.709 0.
-360.899 -799.431 0.
-5.60484 33.5717 0.
1066.47 263.557 0.
861.589 -215.254 0.
350.714 -1408.91 0.
296.278 -648.538 0.
492.213 -192.987 0.
456.814 -276.93 0.
649.432 -320.831 0.
545.794 -560.607 0.
733.603 -120.492 0.
572.644 -295.171 0.
382.883 -732.035 0.
529 408.273 0.
291.067 -141.253 0.
-63.6194 -963.794 0.
567.38 282.904 0.
789.163 803.275 0.
545.365 237.288 0.
186.442 -623.078 0.
278.716 -408.903 0.
782.615 766.633 0.
498.164 335.395 0.
570.754 506.524 0.
-346.308 -1446.83 0.
-31.4145 -1098.58 0.
51.4826 -906.363 0.
-37.3059 -824.799 0.
-67.2295 -895.058 0.
-97.152 -965.316 0.
354.941 -824.526 0.
329.614 -884.864 0.
304.286 -945.202 0.
-250.296 -1193.11 0.
-242.43 -1174.6 0.
-234.565 -1156.1 0.
-266.423 -1194.25 0.
-281.659 -1231.17 0.
222.683 -1036.18 0.
191.809 -1112.36 0.
160.935 -1188.55 0.
134.843 -1262.71 0.
116.332 -1306.69 0.
97.8211 -1350.68 0.
-0.32804 -1380.41 0.
24.2011 -1326.88 0.
48.7301 -1273.35 0.
-325.263 -1551.36 0.
-412.122 -1757.55 0.
-229.859 -1848.31 0.
151.305 -1626 0.
186.63 -1544.53 0.
-66.8271 -1608 0.
-91.0408 -1663.39 0.
-115.255 -1718.77 0.
-229.153 -1829.4 0.
-277.057 -1939.53 0.
-324.96 -2049.65 0.
-96.5156 -1915.97 0.
-43.7512 -1794.09 0.
9.01328 -1672.2 0.
19.8128 -1788.92 0.
-56.7062 -1968.35 0.
-16.9254 -2093.77 0.
-63.3719 -2205.23 0.
-109.818 -2316.7 0.
22.6222 -2213.57 0.
194.006 -1815.85 0.
365.39 -1418.13 0.
79.0253 -1422.88 0.
51.0215 -1495.16 0.
23.0177 -1567.44 0.
298.509 -1407.12 0.
339.012 -1312.14 0.
-1809.67 -2156.81 0.
410.184 -1321.01 0.
348.525 -1463.34 0.
4.78623 -1686.38 0.
23.2861 -1642.73 0.
41.7858 -1599.08 0.
39.7041 -1621.75 0.
3.54942 -1708.03 0.
-32.6049 -1794.32 0.
-63.24 -1782.38 0.
-26.3066 -1699.4 0.
10.627 -1616.41 0.
107.812 -1629.27 0.
74.8946 -1708.58 0.
-268.273 -1914.26 0.
-279.98 -1943.13 0.
-291.687 -1972 0.
245.947 -1778.36 0.
216.528 -1847.76 0.
187.109 -1917.17 0.
-212.212 -1966.98 0.
-75.4898 -1650.97 0.
61.2323 -1334.96 0.
-18.7623 -1426.63 0.
-91.2903 -1592.99 0.
-322.215 -1817.46 0.
-745.098 -1991.29 0.
-743.933 -1983.77 0.
148.215 -1605.59 0.
136.795 -1633.6 0.
125.376 -1661.61 0.
-57.4434 -1723.42 0.
-21.7108 -1639.39 0.
14.0221 -1555.36 0.
34.7602 -1502.39 0.
50.1654 -1463.86 0.
65.57 -1425.33 0.
-119.108 -1516.94 0.
-132.99 -1544.56 0.
-226.32 -1598.18 0.
-193.713 -1517.25 0.
-161.104 -1436.33 0.
-144.581 -1355.82 0.
-109.41 -1271.23 0.
-74.2386 -1186.64 0.
-87.0034 -1171.36 0.
-89.8029 -1177.94 0.
-92.6025 -1184.52 0.
12.6643 -1178.5 0.
-11.0902 -1232.83 0.
110.412 -1219.86 0.
-100.341 -1095.84 0.
-18.3763 -903.34 0.
104.711 -734.576 0.
73.513 -803.762 0.
42.3155 -872.949 0.
-2.49206 -947.11 0.
-27.798 -1007.29 0.
-53.1053 -1067.46 0.
-213.128 -1147.41 0.
-205.612 -1128.55 0.
-198.096 -1109.69 0.
-384.308 -1214.31 0.
-399.613 -1251.31 0.
298.492 -971.224 0.
267.549 -1047.55 0.
236.606 -1123.88 0.
40.5665 -1269.44 0.
21.7328 -1312.8 0.
2.89931 -1356.16 0.
30.5681 -1339.46 0.
54.1678 -1285.35 0.
77.7673 -1231.24 0.
-112.268 -1427.58 0.
-199.194 -1634.34 0.
-715.38 -2025.23 0.
-93.5626 -1699.73 0.
-58.5384 -1618.47 0.
-136.468 -1608.37 0.
-160.876 -1663.51 0.
-185.283 -1718.64 0.
-50.9231 -1719.62 0.
-98.2152 -1830.05 0.
-145.507 -1940.48 0.
-87.2785 -1878.45 0.
-34.7957 -1756.11 0.
17.687 -1633.76 0.
-140.76 -1826.93 0.
-217.378 -2005.94 0.
-66.696 -2083.67 0.
-112.665 -2195.26 0.
-158.633 -2306.85 0.
-27.1517 -2202.37 0.
144.043 -1804.75 0.
315.239 -1407.14 0.
263.045 -1313.25 0.
234.627 -1385.14 0.
206.209 -1457.04 0.
266.345 -1389.67 0.
306.53 -1294.63 0.
-1015.89 -1784.86 0.
341.832 -1318.28 0.
280.13 -1460.3 0.
-83.4622 -1694.16 0.
-65.0385 -1650.95 0.
-46.6148 -1607.74 0.
52.8951 -1582.85 0.
16.8373 -1669.76 0.
-19.2202 -1756.68 0.
-14.9817 -1730.66 0.
21.7137 -1647.39 0.
58.4093 -1564.12 0.
-19.1793 -1652.79 0.
-52.1774 -1732.53 0.
-304.869 -1896.02 0.
-316.004 -1925.59 0.
-327.139 -1955.15 0.
80.3823 -1818.05 0.
51.442 -1887.4 0.
22.5016 -1956.75 0.
179.267 -1768.54 0.
316.74 -1452.75 0.
454.214 -1136.95 0.
-358.524 -1540.29 0.
-430.696 -1706.48 0.
-496.136 -1860.04 0.
-574.521 -1887.04 0.
-572.801 -1880.08 0.
21.4912 -1628.84 0.
9.77778 -1656.57 0.
-1.93506 -1684.31 0.
88.3286 -1629.21 0.
123.944 -1545.4 0.
159.559 -1461.58 0.
-82.3618 -1521.07 0.
-66.6575 -1483.14 0.
-50.9536 -1445.21 0.
-309.171 -1567.33 0.
-322.432 -1595.8 0.
-81.6394 -1505.44 0.
-48.9458 -1424.55 0.
-16.2518 -1343.66 0.
-138.107 -1319.78 0.
-102.816 -1235.37 0.
-67.5239 -1150.96 0.
-119.396 -1155.43 0.
-122.266 -1162.22 0.
-125.135 -1169 0.
229.52 -1054.11 0.
205.734 -1109.11 0.
397.553 -324.117 0.
91.1531 -688.73 0.
6.179 -884.087 0.
-37.4109 -1027.86 0.
-28.7093 -1007.62 0.
-20.0078 -987.385 0.
-162.064 -1086.47 0.
-225.264 -1230.93 0.
-288.464 -1375.4 0.
-265.618 -1332.31 0.
-201.038 -1182.72 0.
-136.459 -1033.12 0.
-404.202 -1303.14 0.
-512.212 -1549.32 0.
12.1939 -1513.88 0.
-44.554 -1640.79 0.
-101.301 -1767.7 0.
-181.278 -1848.9 0.
-134.473 -1737.98 0.
-87.6683 -1627.05 0.
-66.7668 -1556.02 0.
-46.1107 -1508.89 0.
-25.4545 -1461.76 0.
-210.015 -1585.37 0.
-250.272 -1677.06 0.
-187.718 -1724.23 0.
-190.959 -1631.21 0.
-140.549 -1513.39 0.
-88.2357 -1447.97 0.
-169.61 -1638.67 0.
-250.984 -1829.36 0.
-48.9699 -1819.59 0.
-35.6125 -1786.78 0.
-22.2545 -1753.97 0.
-55.4831 -1743.78 0.
-40.7785 -1710.66 0.
-26.074 -1677.54 0.
-138.933 -1627.43 0.
-84.48 -1499.27 0.
258.839 -1266.47 0.
211.462 -1373.61 0.
164.084 -1480.75 0.
153.854 -1527.43 0.
175.526 -1471.9 0.
197.197 -1416.37 0.
286.918 -1326.75 0.
318.843 -1252.31 0.
350.768 -1177.87 0.
296.806 -1241.05 0.
264.747 -1318.22 0.
-1391.09 -2090.43 0.
323.467 -1271.26 0.
367.464 -1168.04 0.
44.5837 -1256.2 0.
9.3544 -1338.43 0.
-25.8749 -1420.67 0.
113.402 -1420.09 0.
87.3696 -1480.89 0.
61.3369 -1541.69 0.
31.7398 -1571.07 0.
33.2523 -1567.97 0.
34.7649 -1564.88 0.
8.65048 -1526.01 0.
36.2172 -1458.23 0.
-163.204 -1515.75 0.
-240.962 -1696.66 0.
-318.719 -1877.56 0.
-14.2142 -1795.14 0.
61.0918 -1616.58 0.
136.398 -1438.02 0.
511.025 -1236.96 0.
482.712 -1298.79 0.
454.399 -1360.62 0.
-518.148 -1736.25 0.
-489.843 -1668.11 0.
-115.802 -1465.06 0.
-438.409 -1537.68 0.
-403.475 -1456.61 0.
116.441 -1183.05 0.
104.321 -1207.93 0.
92.2011 -1232.81 0.
229.809 -1294.69 0.
108.139 -1578.05 0.
-13.5308 -1861.42 0.
-218.962 -1797.36 0.
-48.1771 -1400.25 0.
122.608 -1003.14 0.
-161.04 -1139.26 0.
-182.182 -1187.29 0.
51.8233 -1115.08 0.
38.1881 -1151.68 0.
24.5528 -1188.28 0.
-126.653 -1292.81 0.
-141.387 -1331.77 0.
-156.122 -1370.72 0.
-214.668 -1273.56 0.
-94.3858 -993.519 0.
25.8964 -713.478 0.
465.052 -356.428 0.
551.282 -162.059 0.
-283.525 -588.064 0.
240.189 -594.911 0.
155.438 -790.462 0.
-172.851 -1053.67 0.
-164.299 -1033.33 0.
-155.747 -1012.98 0.
-23.431 -994.524 0.
-85.9036 -1139.64 0.
-148.376 -1284.75 0.
-213.328 -1279.93 0.
-148.998 -1130.2 0.
-84.6674 -980.467 0.
-211.094 -1187.89 0.
-318.755 -1434.78 0.
-165.936 -1558.48 0.
-223.218 -1685.41 0.
-280.499 -1812.34 0.
8.68271 -1735.48 0.
56.2893 -1625.29 0.
103.895 -1515.1 0.
-67.5651 -1524.15 0.
-47.1535 -1476.86 0.
-26.7418 -1429.57 0.
-454.113 -1658.09 0.
-494.435 -1749.97 0.
-510.573 -1831.44 0.
-221.016 -1613.01 0.
-170.705 -1494.58 0.
-36.5031 -1394.36 0.
-118.084 -1584.62 0.
-199.665 -1774.89 0.
-92.7554 -1809.49 0.
-79.9028 -1776.03 0.
-67.0496 -1742.57 0.
-86.9439 -1723.63 0.
-71.8053 -1690.78 0.
-56.6668 -1657.92 0.
-146.858 -1600.64 0.
-92.4704 -1471.95 0.
275.4 -1227.91 0.
227.546 -1334.31 0.
179.692 -1440.7 0.
-32.7569 -1578.1 0.
-11.259 -1522.05 0.
10.2389 -1466.01 0.
206.61 -1327.38 0.
239.495 -1253.84 0.
272.379 -1180.3 0.
272.921 -1220.35 0.
240.588 -1297.36 0.
180.864 -1385.16 0.
346.739 -1229.22 0.
390.141 -1125.82 0.
20.724 -1234.42 0.
-14.3002 -1316.92 0.
-49.3245 -1399.43 0.
100.457 -1395.86 0.
74.3194 -1456.68 0.
48.1814 -1517.5 0.
-37.6366 -1569.62 0.
-35.4733 -1567.24 0.
-33.3098 -1564.86 0.
103.251 -1454.26 0.
130.599 -1386.71 0.
-158.036 -1479.98 0.
-235.114 -1661.52 0.
-312.192 -1843.06 0.
-80.8226 -1792.63 0.
-5.0942 -1614.57 0.
70.6345 -1436.51 0.
390.339 -1256.09 0.
362.194 -1317.61 0.
334.05 -1379.13 0.
-333.461 -1629.28 0.
-305.343 -1561.02 0.
61.7506 -1354.48 0.
-603.942 -1574.9 0.
-568.867 -1494.46 0.
40.5499 -1184.04 0.
28.4996 -1209.28 0.
16.449 -1234.52 0.
117.299 -1311.52 0.
-3.96488 -1595.56 0.
-125.229 -1879.6 0.
-116.286 -1721.57 0.
55.2207 -1325.05 0.
226.728 -928.519 0.
-27.1927 -1049.98 0.
-48.3733 -1098.44 0.
-128.636 -1162.17 0.
-142.129 -1198.39 0.
-155.621 -1234.62 0.
-79.1461 -1240.69 0.
-93.9912 -1279.58 0.
-108.836 -1318.48 0.
-258.587 -1260.21 0.
-138.415 -980.445 0.
-18.2429 -700.68 0.
139.598 -465.76 0.
225.146 -272.253 0.
-781.966 -422.166 0.
905.064 700.092 0.
734.973 300.368 0.
579.919 997.392 0.
12.6813 -330.1 0.
68.1056 -204.065 0.
189.967 -734.704 0.
403.405 -233.574 0.
707.835 479.871 0.
519.942 353.226 0.
521.208 358.684 0.
519.785 358.536 0.
610.807 396.9 0.
562.088 284.438 0.
444.272 248.114 0.
173.345 -385.252 0.
416.29 180.717 0.
1108.81 493.717 0.
1268.95 866.983 0.
1072.21 407.338 0.
262.287 -720.918 0.
430.511 -324.026 0.
491.059 -178.443 0.
-281.251 -771.903 0.
202.834 355.52 0.
128.576 -607.398 0.
220.55 -497.453 0.
981.503 1283.54 0.
812.65 507.604 0.
973.652 886.831 0.
527.276 -150.449 0.
73.5883 -1295.51 0.
1003.03 870.893 0.
831.637 468.541 0.
465.067 -345.951 0.
599.835 -31.3603 0.
1018.83 945.838 0.
481.647 -81.01 0.
107.174 -956.678 0.
508.569 -671.582 0.
1151.64 833.105 0.
1007.3 500.157 0.
191.923 -665.385 0.
70.2959 -951.663 0.
599.652 280.8 0.
947.646 579.944 0.
516.775 -425.802 0.
596.629 -240.109 0.
425.951 -784.282 0.
497.977 -615.693 0.
-2118.7 -1605.13 0.
965.552 192.328 0.
652.538 -537.86 0.
370.748 -333.956 0.
441.261 -170.422 0.
430.902 -195.755 0.
731.678 125.111 0.
812.627 315.694 0.
531.039 -339.317 0.
404.526 -388.205 0.
-15.165 -1367.82 0.
449.519 -284.243 0.
556.679 -543.388 0.
785.12 -14.3998 0.
317.538 -360.08 0.
266.31 -472.875 0.
484.01 42.6375 0.
631.978 25.3794 0.
816.644 460.331 0.
400.313 -506.89 0.
493.543 -757.316 0.
728.729 -204.732 0.
970.735 364.112 0.
107.81 -928.17 0.
-199.449 -1646.47 0.
-20.4443 -362.361 0.
-252.419 -414.029 0.
-169.085 -221.328 0.
642.517 405.639 0.
-27.365 -1162.18 0.
566.308 218.124 0.
388.73 -439.021 0.
519.004 -135.597 0.
799.09 517.268 0.
633.294 -146.843 0.
731.619 83.083 0.
276.821 -976.407 0.
486.556 -79.7291 0.
291.038 -533.689 0.
98.2514 -271.675 0.
63.3149 -351.06 0.
170.638 -98.8846 0.
0.0861961 -1126.16 0.
527.279 104.056 0.
603.029 280.938 0.
45.8215 -425.209 0.
-134.426 -844.033 0.
307.019 186.621 0.
-30.4327 -231.124 0.
-209.876 -648.042 0.
-212.059 -1037.91 0.
196.844 -721.45 0.
245.369 -611.238 0.
-209.726 -779.856 0.
-320.005 -1041.51 0.
-430.284 -1303.17 0.
-151.985 -1246.91 0.
-74.6146 -1064.56 0.
2.75594 -882.215 0.
-4.24507 -970.645 0.
-118.303 -1238.17 0.
-232.36 -1505.69 0.
-177.61 -1436.19 0.
-129.604 -1324.66 0.
-155.923 -1254.9 0.
-148.984 -1243.41 0.
-142.044 -1231.92 0.
193.769 -1133.05 0.
101.826 -1347.91 0.
9.88341 -1562.78 0.
-307.581 -1735.99 0.
-267.184 -1641.68 0.
-226.786 -1547.36 0.
-464.224 -1580.45 0.
-429.752 -1499.65 0.
-573.249 -1495.33 0.
-126.456 -1385.47 0.
-167.587 -1481.37 0.
-131.296 -1518.46 0.
-111.415 -1472.12 0.
-91.5349 -1425.79 0.
24.6683 -1383.57 0.
-18.9083 -1486.77 0.
-62.4854 -1589.98 0.
-148.124 -1630.53 0.
-124.893 -1577.1 0.
-101.662 -1523.68 0.
-146.037 -1532.79 0.
-145.011 -1532.84 0.
144.564 -1405.41 0.
182.96 -1319.22 0.
221.355 -1233.03 0.
-100.579 -1327.63 0.
-110.987 -1354.89 0.
-121.396 -1382.15 0.
-142.759 -1421.26 0.
-159.724 -1461.52 0.
-176.689 -1501.79 0.
334.589 -1228.37 0.
377.404 -1130.97 0.
-760.245 -1540.43 0.
185.449 -1154.41 0.
175.171 -1178.19 0.
150.383 -1200.36 0.
151.239 -1200.27 0.
152.096 -1200.17 0.
-75.7482 -1335.53 0.
-114.913 -1428.43 0.
-154.078 -1521.34 0.
1.11483 -1423.35 0.
43.6424 -1321.48 0.
86.1699 -1219.61 0.
197.402 -1304.29 0.
117.748 -1495.98 0.
-322.935 -1828.02 0.
-341.378 -1862.86 0.
-359.821 -1897.7 0.
-43.258 -1758.3 0.
-24.0456 -1710.13 0.
-4.83287 -1661.96 0.
-85.5429 -1734.47 0.
-133.821 -1849.1 0.
-182.099 -1963.74 0.
-242.517 -1802.84 0.
-101.157 -1476.06 0.
444.504 -979.058 0.
-759.858 -1574.73 0.
-801.57 -1672.47 0.
-209.851 -1500.29 0.
-251.762 -1604.55 0.
-293.673 -1708.81 0.
-156.588 -1621.44 0.
-69.6888 -1418.85 0.
17.2103 -1216.26 0.
-57.0351 -1296.16 0.
-128.634 -1462.17 0.
-200.233 -1628.19 0.
-175.144 -1393.05 0.
-40.9593 -1080.47 0.
-10.4282 -845.251 0.
1.04628 -817.298 0.
12.5216 -789.344 0.
180.006 -664.947 0.
237.893 -528.813 0.
295.778 -392.678 0.
73.7029 -518.132 0.
6.47749 -673.978 0.
-60.748 -829.824 0.
4.95227 -755.597 0.
47.0663 -656.13 0.
823.434 -567.719 0.
91.7536 -736.914 0.
140.332 -626.473 0.
-225.995 -754.437 0.
-336.032 -1016.56 0.
-446.07 -1278.69 0.
-286.816 -1273.41 0.
-209.06 -1091.26 0.
-131.305 -909.113 0.
68.0545 -907.976 0.
-45.3806 -1176.21 0.
-158.816 -1444.43 0.
-168.15 -1400.75 0.
-119.819 -1289.66 0.
-78.7781 -1189.2 0.
-72.8014 -1176.84 0.
-66.8247 -1164.49 0.
-57.5773 -1210.7 0.
-149.68 -1425.15 0.
-241.783 -1639.6 0.
-458.028 -1771.06 0.
-417.854 -1676.96 0.
-377.68 -1582.87 0.
-245.074 -1455.3 0.
-210.995 -1374.11 0.
613.718 -954.377 0.
-69.7528 -1331.76 0.
-110.34 -1428.02 0.
-203.074 -1516.96 0.
-182.496 -1471.21 0.
-161.918 -1425.45 0.
25.2352 -1351.13 0.
-17.8205 -1454.61 0.
-60.8768 -1558.09 0.
-207.052 -1622.35 0.
-183.302 -1569.19 0.
-159.553 -1516.03 0.
-138.384 -1497.84 0.
-137.455 -1497.6 0.
106.707 -1389.27 0.
144.694 -1302.84 0.
182.681 -1216.4 0.
-92.5885 -1294.15 0.
-102.871 -1321.4 0.
-113.153 -1348.64 0.
-413.268 -1507.36 0.
-429.745 -1547.83 0.
-446.222 -1588.3 0.
477.109 -1135.88 0.
520.153 -1038.44 0.
-1199.17 -1696.32 0.
-51.0647 -1224.67 0.
-60.8941 -1249.05 0.
351.783 -1082.41 0.
352.585 -1082.99 0.
353.386 -1083.57 0.
-277.677 -1389.98 0.
-317.047 -1483.11 0.
-356.417 -1576.24 0.
66.1219 -1365.37 0.
108.694 -1263.74 0.
151.267 -1162.11 0.
174.104 -1282.66 0.
95.1035 -1474.4 0.
-319.457 -1792.92 0.
-337.095 -1827.99 0.
-354.733 -1863.07 0.
81.36 -1674.83 0.
100.806 -1626.46 0.
120.253 -1578.09 0.
-262.565 -1777.82 0.
-310.209 -1892.82 0.
-357.851 -2007.81 0.
-193.869 -1752.98 0.
-52.2254 -1426.7 0.
111.09 -1088.67 0.
-755.487 -1539.52 0.
-797.481 -1637.23 0.
-239.485 -1482.38 0.
-281.785 -1586.53 0.
-324.085 -1690.67 0.
-190.592 -1605.24 0.
-103.61 -1403.09 0.
-16.6282 -1200.93 0.
-285.136 -1363.24 0.
-356.01 -1530.14 0.
-426.884 -1697.05 0.
-280.321 -1407.3 0.
-146.08 -1094.85 0.
170.744 -735.172 0.
182.684 -707.283 0.
194.626 -679.395 0.
175.133 -636.047 0.
232.743 -499.606 0.
290.353 -363.166 0.
171.291 -445.792 0.
103.931 -602.018 0.
36.5717 -758.245 0.
341.901 -578.138 0.
383.862 -479.926 0.
819.772 -948.54 0.
-229.285 -1298.23 0.
-126.688 -1057.05 0.
-277.308 -962.561 0.
-274.576 -953.266 0.
-271.845 -943.972 0.
-219.821 -950.395 0.
-265.297 -1054.39 0.
-310.774 -1158.37 0.
51.1983 -989.651 0.
85.9555 -907.967 0.
120.712 -826.283 0.
-36.0568 -910.856 0.
-51.735 -947.543 0.
14.8327 -949.022 0.
34.0312 -903.28 0.
53.2298 -857.538 0.
-46.1774 -878.456 0.
-57.2718 -903.215 0.
-68.3662 -927.975 0.
-185.216 -1130.02 0.
-322.224 -1451.95 0.
-459.233 -1773.88 0.
-219.897 -1673.81 0.
-173.372 -1564.64 0.
862.196 -1031.37 0.
-140.673 -1464.1 0.
-151.081 -1485.89 0.
-239.878 -1502.7 0.
-149.985 -1289.41 0.
-60.0913 -1076.11 0.
187.076 -895.217 0.
158.887 -956.038 0.
130.698 -1016.86 0.
-137.109 -1195.79 0.
-169.82 -1271.44 0.
-202.531 -1347.09 0.
20.3815 -1217.5 0.
42.5795 -1163.21 0.
160.278 -1057.96 0.
209.052 -944.465 0.
257.825 -830.969 0.
23.9584 -946.161 0.
-103.653 -1243.61 0.
-231.265 -1541.06 0.
-459.382 -1623.13 0.
-335.581 -1330.62 0.
-211.78 -1038.11 0.
645.166 -680.719 0.
603.437 -774.908 0.
1193.55 -600.689 0.
-93.4392 -1243.48 0.
-140.651 -1354.19 0.
252.677 -1203.78 0.
364.371 -943.591 0.
476.065 -683.398 0.
-176.059 -874.523 0.
-205.729 -948.195 0.
-235.399 -1021.87 0.
142.517 -990.941 0.
56.8112 -1189.38 0.
-28.894 -1387.81 0.
239.29 -1202.51 0.
288.502 -1085.22 0.
14.3299 -1113.72 0.
33.2137 -1070.84 0.
52.0968 -1027.96 0.
360.798 -889.576 0.
325.534 -972.26 0.
290.27 -1054.94 0.
-74.7031 -1206.35 0.
-42.9429 -1127.32 0.
-11.1825 -1048.28 0.
40.8687 -1081.96 0.
-3.72392 -1192.51 0.
327.482 -1138.69 0.
-636.307 -1505.53 0.
-611.985 -1449.26 0.
-188.522 -1241.77 0.
-222.057 -1315.01 0.
-255.592 -1388.26 0.
-77.2681 -1244.32 0.
38.7993 -972.701 0.
154.866 -701.083 0.
-95.0398 -809.528 0.
-148.84 -935.553 0.
-202.64 -1061.58 0.
-212.847 -1060.94 0.
-202.94 -1035.48 0.
162.195 -868.296 0.
141.385 -916.399 0.
120.576 -964.502 0.
-56.4948 -1095.04 0.
-109.181 -1218.81 0.
-161.867 -1342.58 0.
-258.64 -1361.88 0.
-200.789 -1228.32 0.
-142.938 -1094.77 0.
348.957 -833.94 0.
375.937 -772.985 0.
207.942 -1177.03 0.
-296.842 -1299.1 0.
-194.738 -1057.03 0.
-154.433 -876.265 0.
-151.197 -867.161 0.
-147.962 -858.057 0.
-227.972 -924.074 0.
-273.478 -1028.13 0.
-318.984 -1132.19 0.
48.3933 -957.735 0.
83.5667 -876.46 0.
118.74 -795.185 0.
-195.127 -950.066 0.
-210.49 -987.218 0.
-51.4483 -941.711 0.
-31.789 -896.042 0.
-12.1296 -850.371 0.
-80.3774 -862.309 0.
-91.351 -886.714 0.
-102.325 -911.119 0.
-12.8114 -1025.72 0.
-149.176 -1348.17 0.
-285.541 -1670.63 0.
-108.808 -1591.51 0.
-62.2091 -1482.57 0.
121.637 -1315.07 0.
-202.994 -1460.94 0.
-213.53 -1482.64 0.
-244.61 -1471.61 0.
-154.081 -1259.07 0.
-63.5522 -1046.53 0.
130.775 -887.204 0.
103.183 -948.443 0.
75.592 -1009.68 0.
-322.296 -1243.54 0.
-355.019 -1319.28 0.
-387.743 -1395.02 0.
139.081 -1135.95 0.
161.882 -1081.65 0.
11.4025 -1087.75 0.
60.7468 -975.049 0.
110.091 -862.352 0.
-40.8514 -945.214 0.
-167.786 -1243.4 0.
-294.72 -1541.58 0.
-159.59 -1461.14 0.
-34.5642 -1169.77 0.
90.4612 -878.405 0.
438.516 -736.927 0.
397.718 -832.391 0.
-764.596 -1407.73 0.
118.873 -1119.28 0.
71.3645 -1230.1 0.
-43.9652 -1300.18 0.
66.8447 -1039.69 0.
177.654 -779.209 0.
-237.855 -870.706 0.
-267.845 -944.528 0.
-297.835 -1018.35 0.
-94.7795 -1060.6 0.
-179.846 -1259.24 0.
-264.912 -1457.87 0.
371.214 -1114.16 0.
420.946 -996.933 0.
148.499 -1025.89 0.
166.932 -982.496 0.
185.365 -939.107 0.
127.577 -960.506 0.
91.8167 -1042.62 0.
56.0562 -1124.73 0.
-22.1262 -1150.98 0.
9.18932 -1071.85 0.
40.5049 -992.711 0.
-87.6753 -1106.57 0.
-133.148 -1216.42 0.
225.89 -1148.59 0.
-345.953 -1347.83 0.
-321.526 -1291.43 0.
-254.939 -1239.54 0.
-287.784 -1313.65 0.
-320.628 -1387.77 0.
-121.562 -1231.6 0.
-5.52848 -960.266 0.
110.505 -688.928 0.
43.89 -717.901 0.
-9.41419 -844.552 0.
-62.7192 -971.204 0.
-271.394 -1053.69 0.
-261.019 -1028.24 0.
142.881 -844.771 0.
121.935 -892.025 0.
100.989 -939.28 0.
-102.287 -1084.06 0.
-155.303 -1207.66 0.
-208.319 -1331.27 0.
-413.393 -1396.25 0.
-355.518 -1263.31 0.
-297.644 -1130.36 0.
336.924 -806.914 0.
363.093 -746.77 0.
-2.52678 -459.27 0.
627.803 1036.67 0.
331.266 342.454 0.
261.016 -114.335 0.
-179.853 -1142.03 0.
526.124 506.019 0.
400.136 597.379 0.
-95.7047 -565.503 0.
-104.195 -589.641 0.
633.361 446.836 0.
704.094 610.967 0.
579.729 319.523 0.
194.034 287.733 0.
-70.1648 -328.921 0.
767.806 1137.52 0.
916.856 1483.89 0.
143.424 -322.494 0.
-148.313 -925.097 0.
162.743 -196.488 0.
154.815 -212.164 0.
358.811 -459.467 0.
454.089 -236.523 0.
398.556 -365.513 0.
483.882 -394.73 0.
551.861 -238.654 0.
167.563 -640.841 0.
-89.6278 -1044.59 0.
501.945 337.003 0.
348.947 -39.7346 0.
-92.8288 -1066.82 0.
-0.656405 -847.535 0.
291.944 -380.603 0.
331.618 -288.208 0.
610.931 363.4 0.
-30.5441 -178.712 0.
-398.757 -1037.14 0.
-62.102 -250.858 0.
678.681 -71.582 0.
401.03 -716.053 0.
82.4285 -617.386 0.
159.161 -436.23 0.
275.46 -162.491 0.
341.546 81.3143 0.
320.74 34.1107 0.
-74.5334 -886.57 0.
175.295 -1217.99 0.
248.455 -1051.04 0.
401.603 -697.155 0.
628.911 140.82 0.
1003.54 1015.1 0.
-1807.15 -930.646 0.
846.055 195.06 0.
833.697 170.515 0.
409.526 345.329 0.
79.1513 -418.528 0.
507.063 587.488 0.
140.828 151.434 0.
225.467 351.146 0.
474.242 933.71 0.
-87.0868 -554.403 0.
-35.9789 -431.608 0.
107.652 -93.2869 0.
963.845 41.5118 0.
946.706 9.24317 0.
597.446 -210.812 0.
328.262 -831.829 0.
381.075 -701.207 0.
303.328 -80.0853 0.
210.839 -294.018 0.
79.121 -599.688 0.
377.32 -269.581 0.
507.408 37.1165 0.
163.468 -763.335 0.
512.2 557.275 0.
170.468 -232.892 0.
366.518 229.829 0.
553.152 224.189 0.
-146.795 -1405.08 0.
299.424 206.511 0.
-136.774 -808.958 0.
-75.5137 -663.546 0.
27.9923 -759.767 0.
379.899 55.6369 0.
32.6186 -759.905 0.
362.148 -204.343 0.
513.158 150.168 0.
547.67 233.125 0.
418.577 695.862 0.
-193.871 -734.572 0.
91.0771 -889.949 0.
460.167 -25.4422 0.
246.804 -520.859 0.
218.727 -214.961 0.
145.642 -382.988 0.
271.885 -86.484 0.
-51.6231 -230.515 0.
-311.747 -838.312 0.
-230.926 -648.259 0.
389.337 -629.236 0.
537.682 -282.348 0.
229.828 -308.156 0.
12.1649 -481.845 0.
-89.9331 -721.515 0.
-64.7706 -868.831 0.
-54.1554 -842.325 0.
-43.54 -815.818 0.
-54.8397 -808.127 0.
-54.0449 -811.543 0.
-53.2497 -814.957 0.
-133.902 -1017.63 0.
-258.523 -1309.98 0.
-383.145 -1602.32 0.
-575.756 -1465.24 0.
-433.949 -1131.28 0.
20.9819 -709.23 0.
-53.5233 -884.174 0.
-128.028 -1059.12 0.
-127.257 -1178.47 0.
-169.182 -1275.55 0.
-211.107 -1372.62 0.
-201.838 -1340.08 0.
-146.135 -1206.06 0.
-90.4314 -1072.03 0.
174.155 -1070.58 0.
82.9033 -1284.7 0.
401.978 -1321.91 0.
-295.706 -1382.71 0.
-168.976 -1085.97 0.
-111.659 -922.875 0.
-247.663 -1238.9 0.
-383.667 -1554.92 0.
-128.951 -1473.33 0.
19.1844 -1130.17 0.
167.32 -787.009 0.
-213.166 -1008.93 0.
-345.55 -1314.49 0.
-477.933 -1620.06 0.
-49.4326 -1290.34 0.
52.7678 -1046.87 0.
-144.275 -961.407 0.
-169.87 -1018.97 0.
-195.467 -1076.54 0.
-211.465 -1128.16 0.
-234.523 -1181.82 0.
-257.58 -1235.48 0.
132.689 -1061.7 0.
163.325 -995.299 0.
193.961 -928.9 0.
261.165 -957.228 0.
211.869 -1068.39 0.
-1160.89 -1746.33 0.
133.222 -1160 0.
146.888 -1123.28 0.
-137.902 -1236.3 0.
-172.283 -1312.36 0.
-206.665 -1388.43 0.
-397.647 -1392.8 0.
-266.476 -1082.64 0.
-135.304 -772.479 0.
-230.844 -913.016 0.
-377.501 -1251.18 0.
-524.157 -1589.35 0.
151.267 -1148.41 0.
259.394 -897.612 0.
260.12 -722.375 0.
221.391 -810.494 0.
182.663 -898.613 0.
-78.5549 -1091.42 0.
-128.516 -1206.15 0.
-178.477 -1320.87 0.
-162.27 -1299.49 0.
-113.689 -1184.17 0.
-65.1092 -1068.86 0.
-182.218 -1283.4 0.
-305.689 -1568.64 0.
166.028 -1597.7 0.
-533.641 -1883.77 0.
-528.115 -1867.54 0.
-385.134 -1751.46 0.
-285.89 -1517.85 0.
-186.647 -1284.24 0.
-166.452 -1181.83 0.
-175.4 -1205.21 0.
-184.347 -1228.6 0.
-309.564 -1162.38 0.
-211.296 -934.592 0.
-113.028 -706.805 0.
-156.602 -867.308 0.
-245.744 -1077.55 0.
-67.0302 -1151.61 0.
-83.3603 -1188.53 0.
-99.6906 -1225.44 0.
-102.675 -1164.93 0.
14.4077 -893.553 0.
131.49 -622.175 0.
-13.7592 -572.003 0.
8.65838 -518.89 0.
31.0761 -465.777 0.
389.897 -414.536 0.
310.616 -598.104 0.
451.721 -183.499 0.
70.4623 -425.902 0.
-31.7071 -665.299 0.
-48.7818 -829.434 0.
-38.3068 -802.553 0.
-27.8316 -775.672 0.
142.094 -691.863 0.
142.751 -695.529 0.
143.408 -699.194 0.
-289.081 -1054.34 0.
-413.855 -1346.44 0.
-538.628 -1638.53 0.
-585.605 -1437.48 0.
-443.613 -1103.54 0.
88.909 -650.513 0.
13.706 -824.666 0.
-61.4964 -998.818 0.
53.9512 -1069.46 0.
11.9617 -1166.73 0.
-30.0277 -1264 0.
-411.762 -1398.62 0.
-356.008 -1264.75 0.
-300.254 -1130.89 0.
165.915 -1041.52 0.
74.4588 -1255.71 0.
658.561 -1179.28 0.
-355.904 -1376.86 0.
-228.51 -1080.29 0.
-194.155 -927.721 0.
-330.617 -1242.82 0.
-467.078 -1557.93 0.
-53.8105 -1409.94 0.
94.2913 -1066.69 0.
242.394 -723.445 0.
20.8594 -876.946 0.
-111.16 -1183.02 0.
-243.18 -1489.09 0.
-287.853 -1360.48 0.
-186.089 -1116.35 0.
-225.508 -966.081 0.
-250.99 -1023.72 0.
-276.473 -1081.35 0.
-233.726 -1108.1 0.
-256.189 -1162.03 0.
-278.652 -1215.97 0.
9.14234 -1082.07 0.
39.933 -1016.22 0.
70.7236 -950.375 0.
407.334 -862.517 0.
358.2 -973.874 0.
-2210.22 -2163.73 0.
-13.9358 -1190.82 0.
-0.930116 -1153.71 0.
43.3051 -1128.61 0.
8.59772 -1204.96 0.
-26.1096 -1281.31 0.
-228.739 -1288.69 0.
-97.7227 -978.57 0.
33.2924 -668.454 0.
-202.186 -870.132 0.
-348.8 -1207.93 0.
-495.415 -1545.73 0.
-205.706 -1270.55 0.
-97.1978 -1020.13 0.
136.481 -742.215 0.
98.5242 -830.878 0.
60.5676 -919.539 0.
1.88059 -1024.88 0.
-47.6348 -1139.91 0.
-97.1504 -1254.93 0.
-265.044 -1313.38 0.
-217.259 -1197.4 0.
-169.475 -1081.41 0.
-41.861 -1190.86 0.
-164.573 -1476.6 0.
539.502 -1406.02 0.
-742.843 -1942.69 0.
-736.649 -1927.3 0.
-178.24 -1629.21 0.
-78.7344 -1396.06 0.
20.7713 -1162.9 0.
-166.136 -1151.86 0.
-175.268 -1175.04 0.
-184.4 -1198.21 0.
-609.554 -1257.75 0.
-510.935 -1030.42 0.
-412.317 -803.087 0.
-20.589 -775.883 0.
-109.672 -985.774 0.
-110.635 -1140 0.
-127.003 -1176.8 0.
-143.37 -1213.59 0.
22.9793 -1079.39 0.
139.731 -808.086 0.
256.482 -536.784 0.
227.952 -437.854 0.
250.209 -385.219 0.
272.467 -332.585 0.
293.23 -424.253 0.
213.619 -608.074 0.
172.227 -370.257 0.
41.688 -595.763 0.
-15.1426 -725.425 0.
-27.9229 -772.081 0.
57.456 -575.979 0.
142.835 -379.876 0.
326.595 -251.331 0.
286.989 -342.999 0.
247.381 -434.667 0.
-181.211 -655.092 0.
-195.565 -688.781 0.
-209.919 -722.47 0.
-349.93 -983.106 0.
-463.709 -1247.97 0.
-183.805 -1299.79 0.
-95.7906 -1093.68 0.
-7.77545 -887.56 0.
140.131 -723.02 0.
106.155 -799.905 0.
72.1791 -876.79 0.
-361.301 -1155.44 0.
-422.414 -1298.91 0.
-483.527 -1442.38 0.
142.567 -980.984 0.
292.603 -629.527 0.
991.827 -42.6243 0.
-78.606 -658.166 0.
-166.18 -862.175 0.
-321.805 -1071.31 0.
-322.597 -1076.73 0.
-323.389 -1082.15 0.
140.191 -955.113 0.
43.2188 -1178.61 0.
-53.7533 -1402.1 0.
-172.125 -1357.19 0.
-36.6775 -1041.84 0.
98.7698 -726.483 0.
-49.4156 -749.027 0.
-46.0012 -744.694 0.
-218.996 -820.48 0.
-229.995 -845.591 0.
-240.993 -870.702 0.
-116.712 -749.501 0.
18.2453 -434.106 0.
153.203 -118.712 0.
158.535 -241.506 0.
-68.3683 -767.389 0.
-295.271 -1293.27 0.
512.028 -1013.5 0.
531.926 -966.404 0.
-1261.28 -1696.94 0.
24.4453 -995.868 0.
106.024 -811.111 0.
252.216 -629.046 0.
265.147 -605.943 0.
278.079 -582.84 0.
100.989 -722.124 0.
11.8551 -934.347 0.
-77.2792 -1146.57 0.
-278.332 -1123.4 0.
-148.743 -823.783 0.
-19.1553 -524.17 0.
-179.495 -753.787 0.
-294.057 -1016.94 0.
-96.6215 -1113.18 0.
-52.1711 -1007.92 0.
-7.72075 -902.655 0.
98.1077 -791.15 0.
107.058 -770.902 0.
116.007 -750.654 0.
-199.129 -979.008 0.
-291.027 -1198.11 0.
-382.926 -1417.21 0.
-60.713 -1233.86 0.
-3.27711 -1101.73 0.
-528.586 -1213.99 0.
-482.324 -1170.65 0.
-470.982 -1142.64 0.
136.202 -868.482 0.
136.9 -866.324 0.
137.597 -864.165 0.
20.5791 -864.481 0.
69.2576 -751.303 0.
117.937 -638.125 0.
-506.94 -906.759 0.
-524.899 -945.52 0.
-542.857 -984.281 0.
-19.339 -791.719 0.
-37.7747 -836.393 0.
-78.8966 -888.577 0.
-110.353 -963.246 0.
-141.809 -1037.91 0.
-46.285 -1072.61 0.
-94.2205 -1183.57 0.
-142.157 -1294.53 0.
-23.1982 -1183.83 0.
65.1688 -979.397 0.
153.536 -774.962 0.
-93.9765 -922.871 0.
-139.615 -1027.65 0.
-425.982 -600.064 0.
102.1 -539.762 0.
45.9474 -669.981 0.
-11.4468 -731.926 0.
74.1386 -535.926 0.
159.724 -339.925 0.
154.122 -291.079 0.
115.286 -383.66 0.
76.4478 -476.241 0.
-153.715 -613.182 0.
-168.517 -646.548 0.
-183.317 -679.914 0.
-196.471 -884.948 0.
-309.941 -1149.92 0.
-201.262 -1276.84 0.
-114.299 -1069.86 0.
-27.3358 -862.883 0.
-171.707 -827.788 0.
-206.343 -903.816 0.
-240.978 -979.845 0.
-239.638 -1072.28 0.
-300.824 -1215.98 0.
-362.01 -1359.68 0.
68.1149 -980.998 0.
218.086 -629.846 0.
479.108 -230.472 0.
-55.3872 -616.557 0.
-142.805 -820.401 0.
-367.472 -1059.67 0.
-367.811 -1065.11 0.
-368.15 -1070.55 0.
100.656 -941.762 0.
3.94385 -1165.8 0.
-92.7679 -1389.85 0.
-357.175 -1403.46 0.
-221.435 -1088.57 0.
-85.6942 -773.68 0.
172.978 -622.6 0.
176.075 -617.892 0.
-238.843 -797.296 0.
-249.19 -822.718 0.
-259.537 -848.14 0.
-159.534 -737.376 0.
-24.8071 -422.067 0.
109.92 -106.757 0.
-206.004 -366.111 0.
-431.689 -893.23 0.
-657.374 -1420.35 0.
815.402 -850.995 0.
835.468 -803.771 0.
-1512.04 -1772.05 0.
91.2408 -935.499 0.
172.61 -750.364 0.
108.011 -660.01 0.
119.714 -635.925 0.
131.416 -611.839 0.
189.582 -656.045 0.
99.7688 -867.585 0.
9.95522 -1079.12 0.
-192.892 -1057.2 0.
-64.2089 -756.766 0.
64.4735 -456.334 0.
-261.195 -758.716 0.
-375.615 -1022.3 0.
-126.769 -1094.53 0.
-82.74 -988.735 0.
-38.7112 -882.94 0.
29.821 -791.395 0.
37.9131 -770.286 0.
46.0045 -749.176 0.
-250.299 -969.676 0.
-342.295 -1188.69 0.
-434.291 -1407.7 0.
-164.396 -1247.52 0.
-107.602 -1114.76 0.
-366.446 -1115.38 0.
-414.735 -1112.2 0.
-403.549 -1084.02 0.
-82.1049 -931.668 0.
-81.6492 -929.031 0.
-81.1936 -926.394 0.
214.732 -751.546 0.
263.767 -638.395 0.
312.802 -525.245 0.
-294.846 -781.503 0.
-312.734 -820.806 0.
-330.621 -860.108 0.
-98.823 -795.222 0.
-118.079 -839.423 0.
-178.851 -901.752 0.
-210.375 -976.19 0.
-241.898 -1050.63 0.
-323.827 -1159.2 0.
-372.111 -1269.88 0.
-420.397 -1380.56 0.
-64.4889 -1171.47 0.
24.293 -967.532 0.
113.075 -763.592 0.
-377.344 -1013.31 0.
-422.784 -1118.59 0.
-895.446 -839.01 0.
343 -35.1716 0.
-220.385 -1350.02 0.
-399.305 -1651.92 0.
503.564 458.189 0.
381.252 176.089 0.
382.07 596.649 0.
-201.035 -762.761 0.
86.9339 -88.7284 0.
350.745 554.331 0.
256.298 334.41 0.
204.441 213.924 0.
285.233 -28.072 0.
-13.4871 -723.011 0.
509.87 455.747 0.
332.428 41.9953 0.
51.3521 -612.487 0.
-315.309 -539.819 0.
42.7976 297.45 0.
-84.9494 0.312754 0.
27.1601 -652.311 0.
126.87 -423.83 0.
35.7849 -640.784 0.
158.6 -607.708 0.
119.859 -692.728 0.
1015.31 -205.641 0.
-264.207 -1109.88 0.
84.4373 -296.64 0.
10.6573 -67.9267 0.
-167.007 -487.856 0.
-350.418 -920.687 0.
316.097 -328.019 0.
459.778 7.39522 0.
469.513 30.6413 0.
-132.471 -505.752 0.
-89.6088 -403.763 0.
-105.565 -439.325 0.
734.542 297.839 0.
681.303 167.174 0.
404.378 764.86 0.
-157.262 -548.364 0.
-113.974 -450.185 0.
79.7351 -71.7497 0.
175.387 152.585 0.
32.3509 -179.895 0.
-349.509 17.4595 0.
-466.402 -251.477 0.
-429.498 -161.501 0.
1862.68 1034.41 0.
1870.2 1050.63 0.
-2899.09 -1782.35 0.
333.492 -449.261 0.
447.321 -187.222 0.
97.8447 -377.097 0.
313.953 124.177 0.
535.276 637.47 0.
584.918 130.775 0.
312.458 -507.042 0.
197.727 -776.812 0.
295.431 -57.7922 0.
271.031 -114.234 0.
-83.4301 -940.802 0.
-279.603 -623.407 0.
186.233 470.446 0.
260.713 -98.1322 0.
-89.5905 -913.832 0.
546.609 572.822 0.
-81.7769 -886.466 0.
-193.634 -1148.3 0.
172.823 -293.717 0.
106.265 -20.6418 0.
352.055 554.043 0.
47.9332 -155.603 0.
164.377 -259.87 0.
507.206 544.998 0.
-205.127 -111.25 0.
228.564 288.824 0.
-92.9182 -462.039 0.
249.56 290.571 0.
265.854 326.394 0.
-195.105 -751.132 0.
39.8734 -1507.04 0.
254.113 -999.81 0.
754.361 175.834 0.
393.074 453.986 0.
-50.108 -582.341 0.
-632.398 -1942.71 0.
-23.5954 -432.871 0.
490.604 771.353 0.
-6.56563 -281.47 0.
385.092 633.775 0.
90.3753 -53.6917 0.
-231.713 -375.803 0.
-185.958 -270.79 0.
-347.865 -650.848 0.
129.339 -622.977 0.
383.814 -24.7924 0.
109.964 -659.918 0.
106.706 665.933 0.
-308.638 -309.2 0.
-894.81 -1081.18 0.
-143.568 -683.36 0.
-118.268 -623.061 0.
172.116 -520.834 0.
53.9145 -796.047 0.
-64.2884 -1071.26 0.
-339.267 -1260.9 0.
-284.707 -1132.48 0.
-230.148 -1004.05 0.
-140.804 -897.909 0.
-108.88 -824.242 0.
-76.9553 -750.576 0.
-231.109 -806.529 0.
-229.596 -803.528 0.
-297.305 -831.479 0.
-289.579 -818.376 0.
-281.852 -805.274 0.
-240.73 -747.986 0.
-189.976 -631.105 0.
-139.223 -514.224 0.
3.67262 -419.782 0.
-11.5334 -456.775 0.
-26.7397 -493.768 0.
47.0134 -616.355 0.
-48.2273 -837.688 0.
202.452 -910.971 0.
-259.924 -1175.29 0.
-290.584 -1247.88 0.
-258.602 -1216.83 0.
-124.375 -903.232 0.
9.85257 -589.64 0.
48.3872 -461.49 0.
24.8432 -517.636 0.
1.298 -573.783 0.
-180.485 -738.417 0.
-246.957 -889.604 0.
-313.428 -1040.79 0.
63.408 -878.144 0.
76.7537 -849.928 0.
-487.894 -1056.98 0.
-416.133 -889.921 0.
-344.371 -722.867 0.
-120.373 -551.904 0.
-146.755 -615.665 0.
-173.138 -679.427 0.
-423.252 -786.339 0.
-402.601 -734.316 0.
-381.949 -682.294 0.
1076.32 -143.237 0.
1012.72 -292.504 0.
-3420.74 -2316.17 0.
39.2139 -860.304 0.
25.6554 -892.451 0.
213.164 -845.41 0.
178.457 -927.155 0.
143.748 -1008.9 0.
-225.438 -1115.91 0.
-118.038 -866.641 0.
-10.6382 -617.371 0.
57.7083 -540.536 0.
45.017 -572.785 0.
32.3261 -605.033 0.
-464.331 -1007.32 0.
-577.463 -1269.19 0.
-263.679 -1316.47 0.
-230.632 -1239.32 0.
-197.584 -1162.17 0.
-246.891 -1090.69 0.
-176.32 -927.446 0.
-105.748 -764.197 0.
-170.57 -754.002 0.
-191.692 -798.199 0.
-212.814 -842.396 0.
-107.621 -879.074 0.
-161.875 -1001.71 0.
-56.3985 -1051.81 0.
-267.914 -889.759 0.
-133.939 -578.273 0.
8.1167 -359.535 0.
-65.2971 -535.655 0.
-138.711 -711.776 0.
73.4221 -740.531 0.
27.575 -844.482 0.
-18.2725 -948.433 0.
-253.592 -1074.12 0.
-252.852 -1076.08 0.
-252.111 -1078.05 0.
-237.002 -967.189 0.
-175.599 -822.482 0.
-355.829 -793.76 0.
-344.579 -766.322 0.
-333.328 -738.885 0.
-89.4601 -614.044 0.
-77.9244 -590.52 0.
-66.3888 -566.997 0.
201.233 -570.17 0.
85.8563 -837.791 0.
-29.5195 -1105.41 0.
-217.035 -1034.51 0.
-85.5362 -729.794 0.
-91.8793 -710.52 0.
-383.345 -757.674 0.
-358.278 -697.025 0.
296.355 -435.199 0.
179.37 -711.373 0.
62.3843 -987.548 0.
-230.876 -1181.03 0.
-175.258 -1053.18 0.
-119.64 -925.324 0.
36.1434 -789.332 0.
68.1522 -715.568 0.
100.161 -641.804 0.
-436.797 -861.667 0.
-435.111 -858.977 0.
-593.927 -927.643 0.
-586.715 -914.132 0.
-579.503 -900.622 0.
-15.7671 -620.573 0.
34.5628 -503.622 0.
84.8929 -386.67 0.
-135.118 -448.534 0.
-150.055 -485.782 0.
-164.993 -523.029 0.
-65.3183 -633.878 0.
-160.102 -855.201 0.
-761.944 -1294.17 0.
-208.606 -1121.95 0.
-238.588 -1194.96 0.
32.1297 -1060.68 0.
166.594 -747.216 0.
301.058 -433.755 0.
-200.057 -537.619 0.
-223.971 -593.082 0.
-247.887 -648.546 0.
-93.5733 -670.758 0.
-159.726 -822.845 0.
-225.878 -974.931 0.
-129.145 -928.448 0.
-115.874 -900.403 0.
-611.083 -1078.39 0.
-538.955 -911.869 0.
-466.828 -745.351 0.
-92.915 -509.287 0.
-119.378 -573.498 0.
-145.84 -637.708 0.
-73.5742 -604.342 0.
-52.3656 -553.222 0.
-31.1571 -502.102 0.
739.307 -256.375 0.
675.877 -405.67 0.
-2200.14 -1760.46 0.
-85.4943 -881.074 0.
-98.6758 -913.361 0.
616.546 -642.157 0.
581.873 -723.796 0.
547.197 -805.435 0.
-550.233 -1224.36 0.
-442.811 -975.27 0.
-335.39 -726.176 0.
34.7211 -518.291 0.
22.4064 -550.732 0.
10.092 -583.172 0.
-472.268 -979.501 0.
-585.144 -1241.75 0.
-253.593 -1280.19 0.
-220.522 -1203.29 0.
-187.45 -1126.4 0.
-322.135 -1092.66 0.
-251.977 -929.558 0.
-181.819 -766.452 0.
-109.708 -696.958 0.
-130.985 -741.667 0.
-152.261 -786.376 0.
-102.581 -846.813 0.
-156.921 -969.622 0.
-99.9896 -1039.4 0.
-241.941 -846.024 0.
-107.96 -534.09 0.
70.0925 -304.405 0.
-3.17478 -479.841 0.
-76.4421 -655.277 0.
-271.552 -856.688 0.
-316.696 -960.626 0.
-361.839 -1064.56 0.
-227.833 -1032.37 0.
-227.071 -1034.23 0.
-226.31 -1036.09 0.
-198.496 -918.816 0.
-136.215 -774.818 0.
-503.733 -823.376 0.
-491.837 -796.781 0.
-479.941 -770.186 0.
228.039 -447.226 0.
239.307 -423.701 0.
250.575 -400.177 0.
280.722 -503.512 0.
165.528 -771.663 0.
50.3349 -1039.81 0.
294.264 -787.277 0.
425.074 -481.799 0.
-355.223 -592.055 0.
-256.54 -505.402 0.
-251.467 -492.902 0.
344.423 -245.488 0.
309.861 -320.032 0.
275.3 -394.575 0.
16.4702 -545.3 0.
8.63583 -560.599 0.
0.801116 -575.899 0.
173.82 -433.907 0.
229 -302.633 0.
284.179 -171.358 0.
-300.781 -541.972 0.
-375.118 -718.631 0.
-790.264 -1028.42 0.
-829.831 -1122.21 0.
-869.398 -1216 0.
-92.3457 -930.787 0.
-71.7481 -884.074 0.
-51.1507 -837.362 0.
-304.111 -899.823 0.
-274.517 -830.703 0.
-244.925 -761.582 0.
-184.079 -755.496 0.
-213.181 -822.745 0.
-16.1564 -791.485 0.
-128.156 -832.38 0.
-126.56 -824.96 0.
243.335 -656.684 0.
245.333 -651.532 0.
247.331 -646.38 0.
-346.544 -867.16 0.
-306.409 -772.212 0.
-266.272 -677.264 0.
-42.4362 -493.622 0.
7.77782 -377.794 0.
57.9915 -261.966 0.
-39.5951 -296.521 0.
-42.9799 -302.881 0.
-299.538 -434.747 0.
-375.085 -608.384 0.
-450.631 -782.02 0.
-188.37 -763.66 0.
-184.83 -756.028 0.
-181.29 -748.395 0.
10.0084 -617.985 0.
57.1773 -506.024 0.
104.346 -394.063 0.
654.723 -120.384 0.
671.677 -83.3458 0.
-163.673 -410.272 0.
57.3065 -438.237 0.
-8.1634 -589.188 0.
628.725 -405.151 0.
645.288 -366.296 0.
661.849 -327.442 0.
-359.533 -757.372 0.
-375.284 -794.208 0.
-391.034 -831.044 0.
-81.9223 -730.074 0.
-98.4333 -767.841 0.
-114.944 -805.608 0.
-366.138 -832.99 0.
-314.931 -712.639 0.
35.1461 -470.561 0.
55.992 -420.664 0.
76.8378 -370.768 0.
-55.831 -434.129 0.
-97.6352 -530.55 0.
-139.439 -626.97 0.
-112.776 -639.433 0.
-109.862 -637.823 0.
-106.949 -636.212 0.
-21.2032 -533.606 0.
25.8701 -426.158 0.
-64.6395 -382.602 0.
-151.405 -666.497 0.
-279.516 -967.64 0.
-253.692 -1094.1 0.
-140.832 -829.055 0.
-27.9723 -564.013 0.
-281.164 -640.182 0.
-375.271 -860.255 0.
-469.378 -1080.33 0.
-222.199 -932.761 0.
-148.883 -758.209 0.
-75.5669 -583.658 0.
-171.77 -772.452 0.
-266.031 -991.657 0.
-740.062 -1334.25 0.
-677.148 -1191.23 0.
-614.235 -1048.2 0.
218.474 -598.412 0.
248.203 -527.893 0.
277.932 -457.375 0.
202.06 -575.029 0.
97.8169 -819.716 0.
-6.42654 -1064.4 0.
230.28 -1131.22 0.
148.15 -1326.68 0.
37.2277 -395.276 0.
45.0905 -346.928 0.
49.9813 -334.097 0.
152.622 -296.071 0.
118.637 -370.907 0.
84.6517 -445.742 0.
-124.868 -572.534 0.
-132.15 -588.28 0.
-139.432 -604.027 0.
-11.5305 -482.279 0.
44.6317 -352.157 0.
100.793 -222.034 0.
-50.7556 -401.981 0.
-124.771 -579.214 0.
-836.522 -1017.92 0.
-876.129 -1111.59 0.
-915.736 -1205.27 0.
-145.741 -920.25 0.
-125.092 -874.136 0.
-104.444 -828.021 0.
-64.3533 -766.09 0.
-34.8346 -696.825 0.
-5.31693 -627.56 0.
-204.157 -731.271 0.
-233.413 -798.121 0.
757.543 -425.741 0.
-251.525 -853.851 0.
-249.717 -846.526 0.
61.3567 -703.52 0.
63.3892 -698.462 0.
65.4215 -693.404 0.
-67.5469 -716.319 0.
-27.4938 -621.423 0.
12.5609 -526.528 0.
-161.801 -514.9 0.
-112.029 -398.878 0.
-62.2566 -282.856 0.
-258.864 -358.875 0.
-261.805 -365.676 0.
-59.8098 -298.918 0.
-135.068 -473.065 0.
-210.325 -647.213 0.
-157.361 -719.125 0.
-153.958 -712.272 0.
-150.556 -705.419 0.
-91.7509 -629.036 0.
-44.8434 -517.21 0.
2.06402 -405.385 0.
694.957 -72.3007 0.
711.568 -34.9564 0.
-2366.21 -1322.83 0.
66.4867 -402.716 0.
0.792793 -553.798 0.
35.6315 -629.192 0.
51.9271 -590.367 0.
68.2224 -551.543 0.
-27.5397 -582.993 0.
-43.1557 -620.015 0.
-58.7716 -657.037 0.
-93.0471 -702.521 0.
-108.687 -740.635 0.
-124.326 -778.749 0.
-204.707 -731.934 0.
-153.076 -612.307 0.
-97.5607 -495.056 0.
-76.2785 -445.723 0.
-54.9963 -396.392 0.
9.47862 -373.715 0.
-32.7172 -470.104 0.
-74.913 -566.492 0.
-208.953 -650.35 0.
-206.71 -648.735 0.
-204.466 -647.12 0.
-111.104 -542.878 0.
-64.6091 -435.362 0.
569.032 -78.4126 0.
-115.095 -618.092 0.
-243.164 -919.407 0.
-254.661 -1064.22 0.
-141.395 -799.53 0.
-28.1285 -534.838 0.
-147.083 -548.031 0.
-240.789 -768.09 0.
-334.494 -988.15 0.
-309.688 -939.513 0.
-235.603 -765.18 0.
-161.517 -590.847 0.
-274.329 -782.356 0.
-368.784 -1001.12 0.
-592.553 -1241.26 0.
-530.04 -1097.94 0.
-467.527 -954.618 0.
59.4393 -637.187 0.
89.0011 -566.459 0.
118.562 -495.73 0.
29.6294 -617.621 0.
-74.251 -862.535 0.
-178.131 -1107.45 0.
-31.0486 -1212.64 0.
-112.913 -1408.89 0.
-1079.49 -487.323 0.
-7.95764 -1010.71 0.
691.265 617.412 0.
224.144 272.702 0.
-21.2693 -297.053 0.
121.246 38.6214 0.
-347.038 -794.61 0.
180.209 439.56 0.
-234.319 -523.792 0.
-0.0263778 -69.9041 0.
74.699 104.54 0.
-104.128 -312.705 0.
295.985 -45.1643 0.
377.456 147.87 0.
-685.605 -544.431 0.
-317.545 312.918 0.
-667.549 -504.883 0.
72.9858 -283.499 0.
-53.2209 -577.193 0.
128.622 -152.781 0.
497.983 129.731 0.
512.718 161.022 0.
590.804 340.442 0.
-236.311 -721.78 0.
20.4256 -121.05 0.
306.671 916.202 0.
16.3352 32.468 0.
-189.054 -446.112 0.
33.9941 -386.669 0.
49.1799 -353.126 0.
32.6098 -392.972 0.
28.8926 -991.721 0.
138.055 -736.257 0.
392.732 -141.012 0.
240.255 669.477 0.
266.992 730.654 0.
-159.859 -265.743 0.
-91.2954 480.538 0.
-271.872 59.5362 0.
102.228 -335.503 0.
243.257 -9.43702 0.
283.254 80.9723 0.
29.9706 -309.382 0.
-29.8204 -451.246 0.
-251.441 -970.455 0.
-145.221 -523.544 0.
245.925 386.583 0.
-107.062 -439.556 0.
923.939 418.183 0.
848.023 236.071 0.
-1308.96 -1411.5 0.
91.8742 -310.167 0.
-62.9369 -672 0.
-750.951 -1312.29 0.
-468.939 -654.49 0.
-300.66 -261.463 0.
606.723 304.817 0.
732.972 597.464 0.
619.502 330.837 0.
103.123 -189.437 0.
405.768 514.349 0.
767.099 1354.97 0.
361.177 303.883 0.
257.821 61.4314 0.
-46.2679 -85.9552 0.
-386.544 -882.78 0.
-363.45 -830.511 0.
385.288 410.022 0.
475.37 623.251 0.
198.127 -20.2449 0.
-289.109 -631.234 0.
141.217 373.86 0.
420.312 1027 0.
-301.19 -792.081 0.
-103.997 -324.51 0.
200.777 63.8273 0.
551.114 892.195 0.
175.165 13.9508 0.
566.015 897.066 0.
451.408 625.262 0.
91.213 -219.077 0.
62.0242 -276.044 0.
414.926 547.645 0.
143.882 -84.6462 0.
135.171 294.977 0.
69.1723 140.339 0.
-213.977 -521.172 0.
-190.198 -357.095 0.
-153.364 -269.767 0.
-112.549 -369.719 0.
317.834 634.991 0.
47.0295 3.60301 0.
-56.7703 -585.374 0.
200.265 17.4135 0.
285.069 218.341 0.
544.953 945.262 0.
205.863 157.461 0.
325.599 439.211 0.
270.186 5.7453 0.
450.227 426.883 0.
-936.295 -1244.7 0.
55.7026 -756.221 0.
128.866 -585.233 0.
-240.268 -618.961 0.
-215.662 -559.685 0.
-191.055 -500.409 0.
-160.267 -492.575 0.
-200.721 -584.525 0.
-241.174 -676.474 0.
-122.915 -693.425 0.
-159.696 -776.228 0.
-196.477 -859.03 0.
-63.9127 -579.649 0.
70.4956 -262.093 0.
-362.461 -230.643 0.
-397.939 -313.386 0.
-433.417 -396.128 0.
-49.7766 -293.435 0.
-85.4542 -371.928 0.
-121.131 -450.42 0.
-66.6213 -497.871 0.
-108.309 -593.84 0.
-149.997 -689.809 0.
-32.3026 -544.748 0.
49.0666 -353.763 0.
-4.20803 -220.555 0.
-254.194 -367.391 0.
-281.557 -431.537 0.
93.4783 -351.383 0.
16.1426 -533.653 0.
-61.1934 -715.923 0.
-5.47457 -729.512 0.
49.1223 -604.373 0.
103.72 -479.234 0.
-259.775 -557.083 0.
-226.779 -480.168 0.
-193.783 -403.253 0.
-223.156 -560.853 0.
-314.34 -771.695 0.
-224.411 -872.248 0.
-160.74 -720.681 0.
-97.0682 -569.115 0.
-143.575 -520.263 0.
-166.458 -572.621 0.
-189.34 -624.98 0.
-60.7861 -579.61 0.
-48.1979 -556.106 0.
-35.6097 -532.601 0.
370.356 -302.453 0.
404.111 -226.171 0.
-1644.82 -1044.05 0.
63.9625 -181.834 0.
134.58 -21.0523 0.
27.6282 -1.93396 0.
-59.6487 -205.93 0.
-146.926 -409.926 0.
160.598 -425.282 0.
101.336 -562.707 0.
42.0748 -700.131 0.
-345.208 -873.508 0.
-326.472 -825.213 0.
-307.735 -776.918 0.
-12.0003 -613.786 0.
8.55495 -565.96 0.
-213.402 -615.845 0.
-167.928 -513.658 0.
-122.455 -411.47 0.
-94.9687 -421.935 0.
-213.964 -700.366 0.
-332.96 -978.798 0.
-514.402 -1062.71 0.
-418.471 -842.686 0.
-322.54 -622.667 0.
-179.141 -515.318 0.
-175.242 -505.614 0.
248.309 -313.148 0.
-72.8168 -430.052 0.
-63.3773 -407.438 0.
118.743 -306.463 0.
149.665 -235.202 0.
180.587 -163.941 0.
-53.0579 -235.241 0.
-59.0251 -243.896 0.
-64.9923 -252.55 0.
-73.3657 -381.23 0.
-172.328 -611.865 0.
-271.289 -842.501 0.
-444.337 -835.745 0.
-385.672 -698.135 0.
-234.464 -540.665 0.
-252.408 -582.069 0.
-270.351 -623.474 0.
-68.1621 -561.926 0.
-77.6325 -583.191 0.
-87.1029 -604.457 0.
-71.5955 -597.272 0.
-63.2646 -574.81 0.
-54.9336 -552.348 0.
-154.281 -680.019 0.
-216.588 -821.142 0.
441.479 -621.845 0.
13.4458 -742.379 0.
86.2966 -570.967 0.
-323.144 -624.979 0.
-299.173 -565.283 0.
-275.202 -505.587 0.
-71.2146 -423.09 0.
-111.358 -515.454 0.
-151.502 -607.819 0.
70.3048 -579.199 0.
33.8756 -662.808 0.
-2.5535 -746.415 0.
-212.411 -611.011 0.
-77.4913 -294.364 0.
-112.233 -89.8646 0.
-147.352 -173.091 0.
-182.471 -256.317 0.
-175.809 -313.97 0.
-211.384 -392.563 0.
-246.959 -471.156 0.
-420.334 -619.612 0.
-461.701 -716.137 0.
-503.069 -812.664 0.
141.911 -437.674 0.
224.244 -246.983 0.
-767.742 -516.641 0.
-361.461 -381.062 0.
-388.351 -445.468 0.
169.349 -286.913 0.
92.3398 -469.224 0.
15.3302 -651.536 0.
-174.281 -770.82 0.
-119.786 -645.811 0.
-65.2901 -520.802 0.
-211.719 -506.273 0.
-178.833 -429.423 0.
-145.947 -352.574 0.
186.612 -352.14 0.
95.4106 -563.488 0.
-335.034 -888.405 0.
-271.783 -737.066 0.
-208.532 -585.728 0.
-230.387 -526.247 0.
-253.485 -579.058 0.
-276.583 -631.868 0.
90.6751 -483.729 0.
102.702 -459.998 0.
114.728 -436.266 0.
84.7534 -393.139 0.
118.243 -317.146 0.
-117.343 -357.819 0.
-20.5278 -187.174 0.
50.1952 -26.9446 0.
317.18 156.526 0.
230.725 -48.4517 0.
144.27 -253.431 0.
13.8068 -457.467 0.
-45.1874 -594.999 0.
-104.181 -732.531 0.
-526.276 -918.826 0.
-507.193 -870.709 0.
-488.11 -822.593 0.
28.9808 -564.072 0.
49.6282 -516.668 0.
-117.005 -541.363 0.
-71.3496 -440.051 0.
-25.6947 -338.739 0.
-230.878 -448.159 0.
-349.896 -727.162 0.
-468.914 -1006.17 0.
-543.129 -1043.23 0.
-446.849 -823.522 0.
-350.569 -603.818 0.
-160.017 -476.582 0.
-156.07 -467.09 0.
-539.88 -619.044 0.
-123.748 -419.485 0.
-114.506 -396.871 0.
218.376 -231.414 0.
250.092 -160.756 0.
281.808 -90.0994 0.
-203.533 -266.713 0.
-209.376 -275.327 0.
-215.218 -283.939 0.
44.3376 -298.944 0.
-54.5201 -529.415 0.
-153.377 -759.886 0.
-486.698 -822.935 0.
-427.51 -685.586 0.
-282.304 -528.678 0.
-299.663 -570.709 0.
-317.023 -612.74 0.
-76.0462 -532.722 0.
-85.4619 -553.751 0.
-94.8775 -574.779 0.
-0.214163 -535.276 0.
8.10517 -512.752 0.
16.4245 -490.228 0.
-298.935 -712.052 0.
-361.988 -853.076 0.
-558.878 -866.95 0.
31.8817 -402.653 0.
111.512 -220.865 0.
-139.985 -229.795 0.
-175.478 -316.58 0.
-210.97 -403.365 0.
-23.984 -410.11 0.
-88.4514 -557.694 0.
-152.919 -705.278 0.
65.3258 -579.799 0.
126.526 -439.622 0.
187.726 -299.444 0.
-236.365 -531.618 0.
-279.724 -631.576 0.
-290.775 -697.88 0.
-227.571 -550.184 0.
-164.368 -402.488 0.
-320.349 -408.015 0.
-344.661 -467.199 0.
-368.973 -526.384 0.
-391.038 -528.224 0.
-361.879 -461.82 0.
-332.719 -395.417 0.
149.404 -161.307 0.
156.771 -141.275 0.
416.68 -12.627 0.
-339.615 -452.81 0.
-403.087 -594.052 0.
125.093 -409.197 0.
216.664 -194.464 0.
308.235 20.2677 0.
44.5616 -24.1355 0.
17.9632 -83.7781 0.
-8.63565 -143.421 0.
-44.4926 -162.628 0.
-36.786 -141.783 0.
-29.0798 -120.938 0.
427.476 38.7029 0.
406.017 -14.251 0.
-149.901 -290.522 0.
-152.453 -303.231 0.
-155.005 -315.94 0.
-145.89 -308.166 0.
-132.384 -277.813 0.
-118.878 -247.461 0.
205.685 -119.222 0.
183.113 -170.608 0.
160.54 -221.994 0.
66.2976 -340.946 0.
20.7104 -445.459 0.
742.701 -223.603 0.
-174.487 -545.692 0.
-137.773 -459.325 0.
274.742 -262.087 0.
201.364 -431.929 0.
127.986 -601.772 0.
-243.239 -754.329 0.
-147.114 -530.389 0.
-50.9887 -306.449 0.
-406.381 -447.616 0.
-442.254 -533.334 0.
-478.126 -619.052 0.
17.7001 -415.919 0.
12.8409 -424.702 0.
-75.6568 -469.926 0.
-97.8833 -516.872 0.
-120.11 -563.818 0.
-301.025 -636.84 0.
-246.607 -507.971 0.
-192.189 -379.102 0.
-279.588 -423.208 0.
-333.613 -545.357 0.
-387.637 -667.506 0.
-188.428 -468.498 0.
-94.0395 -246.963 0.
67.5551 6.0478 0.
-30.4334 -79.4362 0.
-53.0867 -131.441 0.
320.817 -16.2329 0.
276.787 -114.756 0.
232.758 -213.28 0.
-338.437 -468.6 0.
-292.346 -361.866 0.
-246.255 -255.133 0.
9.2351 -180.175 0.
-43.215 -301.104 0.
-95.6654 -422.033 0.
-300.48 -489.445 0.
-280.488 -444.561 0.
-218.839 -390.236 0.
-241.722 -443.731 0.
-264.604 -497.225 0.
-14.8164 -442.288 0.
-48.9058 -523.732 0.
-82.9956 -605.176 0.
-75.5668 -615.624 0.
-62.499 -585.013 0.
-49.4313 -554.401 0.
-365.539 -794.601 0.
-440.083 -971.537 0.
499.689 -381.412 0.
-193.097 -467.76 0.
-113.58 -285.673 0.
7.77499 -136.914 0.
-27.9338 -223.559 0.
-63.6426 -310.204 0.
24.0584 -357.031 0.
-40.679 -504.635 0.
-105.416 -652.238 0.
-113.434 -627.476 0.
-52.9486 -486.487 0.
7.53696 -345.499 0.
-189.259 -479.375 0.
-232.589 -579.097 0.
-312.125 -677.819 0.
-249.093 -530.073 0.
-186.062 -382.326 0.
-417.838 -416.88 0.
-441.818 -476.252 0.
-465.799 -535.625 0.
-16.8562 -337.132 0.
12.5061 -270.882 0.
41.8688 -204.633 0.
-270.085 -311.02 0.
-263.406 -290.026 0.
291.209 -32.9399 0.
-62.6436 -302.668 0.
-125.801 -444.169 0.
94.3559 -392.595 0.
186.018 -177.892 0.
277.68 36.81 0.
-9.72529 -14.6434 0.
-36.0894 -74.9489 0.
-62.454 -135.255 0.
-6.99697 -114.679 0.
0.881376 -94.0542 0.
8.75931 -73.4292 0.
216.794 -18.7829 0.
195.085 -71.7503 0.
-157.245 -261.656 0.
-160.306 -274.32 0.
-163.367 -286.985 0.
-37.6895 -230.408 0.
-25.0431 -199.489 0.
-12.3969 -168.571 0.
-24.2394 -188.41 0.
-46.7405 -239.869 0.
-69.2425 -291.328 0.
272.581 -220.109 0.
227.398 -325.337 0.
-573.517 -755.34 0.
-46.7588 -459.301 0.
-9.49736 -373.355 0.
343.769 -197.27 0.
271.227 -367.844 0.
198.684 -538.417 0.
-384.823 -784.121 0.
-288.699 -560.372 0.
-192.575 -336.622 0.
-380.486 -403.474 0.
-416.703 -488.699 0.
-452.921 -573.925 0.
-160.451 -462.082 0.
-165.446 -470.553 0.
-139.993 -466.674 0.
-162.13 -514.091 0.
-184.266 -561.508 0.
-91.2219 -513.901 0.
-36.7209 -385.529 0.
17.7806 -257.158 0.
-235.225 -373.036 0.
-288.307 -495.799 0.
-341.389 -618.562 0.
-248.391 -462.47 0.
-154.063 -240.887 0.
566.597 249.965 0.
-79.0302 -69.0141 0.
-102.152 -119.927 0.
264.345 -10.2046 0.
220.882 -108.904 0.
177.419 -207.603 0.
-268.605 -407.949 0.
-221.894 -301.619 0.
-175.182 -195.289 0.
-288.458 -274.841 0.
-340.769 -395.975 0.
-393.081 -517.109 0.
-118.716 -379.086 0.
-98.6903 -334.381 0.
-126.909 -320.858 0.
-150.05 -373.779 0.
-173.191 -426.698 0.
83.5626 -369.105 0.
49.1617 -450.021 0.
14.7605 -530.938 0.
-217.098 -644.26 0.
-204.242 -613.361 0.
-191.385 -582.462 0.
-263.771 -721.648 0.
-338.261 -898.996 0.
-206.657 1.25724 0.
-733.461 -1283.9 0.
-565.455 -889.893 0.
-74.2413 -587.575 0.
-144.965 -747.243 0.
33.2061 -328.718 0.
34.3926 -404.588 0.
302.166 221.305 0.
334.497 297.085 0.
191.065 455.956 0.
69.6426 169.422 0.
-139.775 -321.963 0.
-29.2933 -169.94 0.
16.6307 -61.7859 0.
-183.679 -316.986 0.
141.421 445.502 0.
149.318 468.443 0.
-738.195 -952.193 0.
-656.131 -764.124 0.
-821.241 -1151.78 0.
115.588 -718.692 0.
403.849 -46.4875 0.
464.575 93.7276 0.
-473.98 39.4797 0.
-240.505 587.491 0.
-377.793 -743.814 0.
363.36 192.328 0.
352.046 163.647 0.
-44.5636 -643.019 0.
311.836 195.11 0.
364.14 323.892 0.
-205.141 -328.045 0.
309.701 872.313 0.
-81.9363 -42.6729 0.
-97.0724 -374.891 0.
-296.223 -838.537 0.
-332.674 -922.393 0.
-46.402 -188.694 0.
259.161 521.878 0.
-8.66693 124.651 0.
-79.3457 -37.9878 0.
-54.9765 21.1832 0.
250.495 270.465 0.
136.89 6.169 0.
-29.0432 -380.293 0.
-174.881 -68.2112 0.
-145.517 -0.276184 0.
-194.186 -114.291 0.
411.257 -266.76 0.
626.672 234.914 0.
143.841 -161.026 0.
37.7238 -453.062 0.
37.5917 -454.386 0.
343.238 -303.423 0.
-78.0532 -1283.09 0.
522.7 121.903 0.
238.222 964.471 0.
-28.0303 344.211 0.
-413.19 -553.59 0.
-422.966 -518.992 0.
-284.142 -194.386 0.
-308.317 -250.17 0.
-109.404 24.9837 0.
-215.38 -221.458 0.
-160.258 -358.876 0.
120.7 297.7 0.
224.32 541.005 0.
470.513 422.639 0.
71.9683 -512.775 0.
246.104 -111.735 0.
44.5669 223.623 0.
-84.0525 -77.0582 0.
-181.981 -305.839 0.
-384.259 -635.015 0.
106.965 515.73 0.
-71.4463 -53.944 0.
-198.114 -225.215 0.
-297.149 -457.371 0.
-76.1844 -668.072 0.
-96.2815 -714.27 0.
-55.9532 -619.002 0.
244.969 686.168 0.
-141.296 -211.063 0.
219.923 635.26 0.
-147.61 654.054 0.
-351.765 178.031 0.
-636.121 -485.034 0.
172.033 -19.5067 0.
151.71 -64.8514 0.
-59.9997 -301.663 0.
-90.609 -371.089 0.
40.9924 -64.1733 0.
435.122 292.817 0.
321.52 31.0463 0.
-325.79 -1476.2 0.
-287.783 -504.745 0.
-157.141 -199.275 0.
-61.2564 22.7865 0.
-120.25 -549.02 0.
-181.585 -694.031 0.
121.712 -705.402 0.
-382.245 -898.311 0.
-349.984 -819.902 0.
-248.552 -713.715 0.
-240.139 -692.116 0.
-231.727 -670.516 0.
-27.062 -469.804 0.
101.38 -173.829 0.
229.822 122.147 0.
-35.7504 -47.4782 0.
-144.928 -304.665 0.
-254.106 -561.852 0.
-247.299 -494.355 0.
-192.592 -366.48 0.
-255.254 -293.361 0.
-255.149 -292.503 0.
-255.044 -291.645 0.
-242.4 -272.42 0.
-215.829 -210.99 0.
-189.258 -149.559 0.
145.335 19.3932 0.
146.797 24.2053 0.
148.26 29.0176 0.
-367.1 -237.844 0.
-395.65 -309.26 0.
-323.646 -337.463 0.
36.458 -26.2993 0.
120.89 165.512 0.
242.376 269.732 0.
76.9248 -116.919 0.
-88.5266 -503.572 0.
-271.884 -699.543 0.
-193.812 -520.012 0.
-115.741 -340.481 0.
-143.993 -320.611 0.
-158.651 -356.795 0.
-173.309 -392.979 0.
-368.499 -432.309 0.
-336.363 -357.274 0.
-34.4072 -178.17 0.
-59.2521 -232.771 0.
-84.0966 -287.374 0.
78.4118 -227.682 0.
113.234 -147.213 0.
148.057 -66.7442 0.
-145.082 -153.393 0.
-141.122 -144.479 0.
-137.162 -135.566 0.
546.241 77.1871 0.
490.798 -51.08 0.
542.098 -134.055 0.
44.0941 -429.863 0.
-1.06718 -532.398 0.
32.4928 -541.829 0.
116.457 -339.71 0.
200.42 -137.592 0.
-218.544 -300.058 0.
-307.144 -508.786 0.
-395.745 -717.514 0.
-446.373 -708.036 0.
-375.983 -542.739 0.
-305.592 -377.443 0.
-144.739 -364.354 0.
-188.259 -466.721 0.
-382.413 -612.98 0.
-326.386 -481.514 0.
-270.359 -350.047 0.
108.771 -103.446 0.
121.421 -76.577 0.
134.072 -49.708 0.
-151.179 -96.1639 0.
-88.587 53.0959 0.
-25.9951 202.355 0.
126.629 97.0199 0.
-9.24249 -220.846 0.
-648.807 -753.364 0.
-254.792 -461.857 0.
-187.049 -308.851 0.
-83.3474 -159.403 0.
-79.4743 -150.902 0.
-75.6017 -142.403 0.
-136.388 -171.036 0.
-140.726 -181.327 0.
-145.063 -191.619 0.
-447.239 -374.996 0.
-481.892 -454.551 0.
-516.543 -534.107 0.
-114.922 -270.265 0.
-59.4626 -138.4 0.
47.2934 -13.4645 0.
-30.6291 -198.48 0.
-108.552 -383.495 0.
40.3489 -392.206 0.
82.5817 -293.214 0.
124.815 -194.222 0.
-8.65961 -258.669 0.
-48.8827 -356.667 0.
-89.1065 -454.664 0.
-227.65 -476.113 0.
-188.637 -389.057 0.
-164.216 -791.057 0.
-139.945 -762.848 0.
-107.363 -684.201 0.
-382.795 -740.032 0.
-373.513 -718.791 0.
-364.232 -697.55 0.
-48.2989 -445.888 0.
81.0528 -150.375 0.
210.404 145.141 0.
-31.8866 -15.4502 0.
-141.539 -272.742 0.
-251.191 -530.033 0.
-327.618 -496.777 0.
-273.053 -369.678 0.
-335.099 -295.019 0.
-334.52 -294.816 0.
-333.941 -294.611 0.
30.4438 -124.383 0.
56.7343 -62.6432 0.
83.0243 -0.903307 0.
-199.143 -97.6874 0.
-197.749 -92.3974 0.
-196.354 -87.1073 0.
-66.9321 -78.864 0.
-95.8601 -149.838 0.
-10.2271 -172.376 0.
-232.94 -110.993 0.
-148.608 81.0359 0.
133.211 254.507 0.
-32.0689 -132.51 0.
-197.349 -519.529 0.
-142.546 -611.865 0.
-64.1954 -433.073 0.
14.1558 -254.28 0.
-208.561 -316.688 0.
-222.269 -353.826 0.
-235.977 -390.964 0.
-618.957 -506.96 0.
-585.618 -432.935 0.
108.474 -84.2383 0.
84.3323 -139.363 0.
60.1916 -194.487 0.
148.737 -164.072 0.
183.885 -83.9119 0.
219.034 -3.75168 0.
-46.1764 -79.8662 0.
-41.8677 -71.1014 0.
-37.5587 -62.3367 0.
553.207 112.83 0.
497.863 -15.5732 0.
-1166.78 -834.952 0.
43.9744 -398.356 0.
-1.23165 -500.645 0.
-210.646 -613.702 0.
-126.539 -411.785 0.
-42.4336 -209.868 0.
-90.5043 -214.012 0.
-179.357 -422.474 0.
-268.21 -630.936 0.
-357.045 -637.063 0.
-287.114 -471.463 0.
-217.183 -305.864 0.
37.5848 -254.907 0.
-6.73099 -356.068 0.
-503.263 -635.247 0.
-448.096 -502.939 0.
-392.929 -370.631 0.
-45.4796 -139.7 0.
-33.5405 -112.417 0.
-21.6012 -85.1347 0.
-209.601 -91.6184 0.
-147.261 58.0739 0.
-84.9207 207.765 0.
383.782 238.948 0.
248.064 -78.714 0.
-268.692 -561.028 0.
-178.457 -398.005 0.
-110.482 -244.903 0.
-343.964 -240.676 0.
-339.293 -232.614 0.
-334.622 -224.553 0.
-137.88 -139.367 0.
-141.389 -150.153 0.
-144.898 -160.941 0.
-255.831 -261.217 0.
-290.161 -341.198 0.
-324.489 -421.179 0.
-319.263 -325.234 0.
-263.52 -193.911 0.
44.1203 16.3255 0.
-34.5297 -168.118 0.
-113.18 -352.56 0.
-65.1392 -407.028 0.
-22.8694 -307.755 0.
19.4006 -208.481 0.
220.557 -128.2 0.
179.986 -226.222 0.
139.414 -324.244 0.
-378.18 -510.883 0.
-339.633 -423.682 0.
202.653 -53.719 0.
89.9717 -266.059 0.
-0.660198 -477.897 0.
-355.204 -706.229 0.
-207.98 -357.44 0.
-60.7581 -8.65218 0.
145.177 178.809 0.
73.6505 16.3527 0.
2.12393 -146.103 0.
-27.7077 -151.96 0.
9.57644 -62.9954 0.
46.8607 25.9688 0.
-286.599 -201.036 0.
-339.318 -321.544 0.
-393.532 -442.359 0.
-451.626 -574.558 0.
-509.72 -706.758 0.
-129.375 -578.57 0.
-71.5427 -442.296 0.
-13.7113 -306.022 0.
-496.85 -404.919 0.
-437.281 -266.136 0.
-377.712 -127.354 0.
121.234 52.548 0.
77.861 -47.3101 0.
822.488 189.637 0.
-468.448 -554.373 0.
-568.102 -784.988 0.
-431.335 -799.582 0.
-255.092 -387.713 0.
-78.85 24.1544 0.
236.152 284.365 0.
160.901 105.726 0.
85.6495 -72.9145 0.
-233.152 -248.144 0.
-225.866 -230.805 0.
-218.58 -213.465 0.
-480.982 -267.396 0.
-446.53 -185.426 0.
155.211 119.921 0.
100.088 -5.45262 0.
44.9649 -130.827 0.
130.193 -142.013 0.
154.121 -79.9511 0.
178.048 -17.8899 0.
-24.3576 -127.722 0.
-70.3243 -231.77 0.
-116.291 -335.817 0.
417.178 62.505 0.
546.531 363.846 0.
-1675.89 -341.45 0.
430.544 500.293 0.
399.425 426.752 0.
76.1251 208.139 0.
-0.198931 30.1024 0.
-76.5232 -147.934 0.
0.352616 -140.462 0.
63.6968 10.9382 0.
127.041 162.338 0.
-93.6145 -111.534 0.
-267.541 -516.662 0.
-441.468 -921.79 0.
-52.6492 -433.986 0.
157.858 56.5868 0.
-127.74 269.611 0.
-220.205 53.6201 0.
-312.671 -162.371 0.
-143.331 -191.062 0.
-114.729 -123.6 0.
-86.1263 -56.1379 0.
-185.915 -109.745 0.
-217.728 -183.777 0.
-249.541 -257.81 0.
154.272 -146.672 0.
118.762 -223.479 0.
342.931 -188.86 0.
-126.7 -434.092 0.
-151.1 -487.624 0.
-447.894 -618.582 0.
-378.829 -453.159 0.
-309.762 -287.735 0.
-265.789 -276.245 0.
-364.219 -504.041 0.
-462.649 -731.837 0.
-277.414 -509.385 0.
-120.155 -140.78 0.
37.1035 227.824 0.
-317.672 5.23655 0.
-377.432 -133.926 0.
-56.6728 -98.1883 0.
-64.809 -115.925 0.
-72.9444 -133.662 0.
9.32065 -143.914 0.
-47.9963 -276.229 0.
-105.313 -408.544 0.
134.896 -292.125 0.
193.351 -153.951 0.
251.807 -15.7782 0.
-229.871 -278.884 0.
-280.953 -397.546 0.
1179.69 395.146 0.
-51.0429 -295.455 0.
-140.915 -507.394 0.
-162.252 -591.869 0.
-14.1561 -242.748 0.
133.938 106.372 0.
7.00302 151.149 0.
-63.8288 -11.4029 0.
-134.66 -173.954 0.
150.18 -45.6076 0.
187.657 42.933 0.
225.133 131.474 0.
-382.491 -207.747 0.
-434.355 -329.349 0.
-277.68 -361.918 0.
-335.675 -494.361 0.
-393.67 -626.805 0.
-292.657 -615.131 0.
-234.144 -479.636 0.
-175.631 -344.141 0.
-513.688 -380.838 0.
-454.269 -241.822 0.
-394.851 -102.805 0.
160.077 97.1734 0.
116.677 -2.90256 0.
-290.345 -257.681 0.
-274.897 -437.163 0.
-374.551 -668.084 0.
-566.261 -826.334 0.
-390.358 -414.499 0.
-214.456 -2.66435 0.
125.763 269.071 0.
50.5886 90.2508 0.
-24.5857 -88.5696 0.
-259.419 -228.516 0.
-252.012 -211.481 0.
-244.605 -194.445 0.
-113.748 -79.1071 0.
-78.9527 2.83259 0.
-61.5172 58.7566 0.
-116.905 -66.2996 0.
-172.293 -191.355 0.
7.56194 -163.623 0.
31.1403 -101.25 0.
54.7179 -38.8776 0.
15.3163 -82.2334 0.
-30.5283 -186.326 0.
-76.3727 -290.419 0.
158.766 -14.0723 0.
288.641 286.954 0.
-1601.78 -278.026 0.
469.421 548.502 0.
438.379 475.235 0.
213.877 299.028 0.
137.948 120.613 0.
62.0191 -57.8019 0.
47.7572 -86.4946 0.
112.245 64.1829 0.
176.734 214.86 0.
-52.4946 -62.9122 0.
-225.906 -467.824 0.
-399.317 -872.736 0.
-243.156 -483.207 0.
-32.2377 7.02136 0.
9.95028 360.62 0.
-82.1766 144.316 0.
-174.304 -71.9883 0.
-134.013 -153.474 0.
-104.75 -86.6231 0.
-75.4867 -19.7718 0.
-12.9584 -4.07321 0.
-44.8282 -78.4036 0.
-76.6981 -152.734 0.
-228.434 -278.635 0.
-263.416 -355.91 0.
820.476 47.4454 0.
-10.6773 -352.165 0.
-35.2718 -405.288 0.
-22.0466 -405.41 0.
47.0727 -240.012 0.
116.194 -74.6143 0.
-414.027 -309.068 0.
-512.239 -536.921 0.
-610.451 -764.775 0.
-230.113 -457.552 0.
-72.5923 -89.0331 0.
84.9285 279.485 0.
-426.074 -9.94518 0.
-485.847 -149.072 0.
-148.216 -104.657 0.
-155.874 -122.94 0.
-163.531 -141.224 0.
57.4144 -93.1366 0.
0.221312 -225.23 0.
-56.9715 -357.322 0.
-101.014 -360.604 0.
-42.1533 -222.707 0.
16.7077 -84.8107 0.
58.7914 -122.898 0.
7.96456 -241.742 0.
214.905 -204.95 0.
-297.145 -583.897 0.
-87.3241 -93.3147 0.
733.405 1153.5 0.
414.091 415.138 0.
552.034 743.49 0.
-123.735 121.521 0.
-460.08 -660.111 0.
70.2977 579.312 0.
225.524 -169.154 0.
87.3559 -490.35 0.
202.152 -221.075 0.
-269.633 252.598 0.
-394.464 -31.8729 0.
-589.312 -1270.31 0.
-257.322 -495.514 0.
-362.147 -739.6 0.
-283.135 -263.17 0.
-421.269 -581.964 0.
-35.8097 319.754 0.
-146.745 525.524 0.
-454.317 -192.774 0.
-761.923 -911.61 0.
108.836 -62.9693 0.
246.518 256.274 0.
-670.667 141.494 0.
-223.903 -653.812 0.
-57.4541 -259.497 0.
-331.078 8.8828 0.
-329.488 17.9993 0.
-697.961 -836.135 0.
-354.22 -609.571 0.
158.602 590.88 0.
146.214 565.523 0.
-222.705 -80.4031 0.
-615.327 -996.537 0.
-372.361 -429.632 0.
-91.7499 -685.89 0.
-145.412 -814.606 0.
-414.636 -318.613 0.
-197.682 187.02 0.
-394.669 -273.172 0.
-224.59 -423.932 0.
5.10451 110.948 0.
-101.737 -139.661 0.
156.164 187.859 0.
278.163 478.07 0.
-76.6057 -344.005 0.
-259.728 -456.172 0.
13.8069 176.692 0.
-2431.66 466.854 0.
346.385 216.929 0.
-69.2148 -755.298 0.
72.7362 -257.559 0.
222.545 92.8751 0.
211.897 68.4808 0.
-9.32829 -289.916 0.
234.846 283.833 0.
145.527 79.7435 0.
-363.235 -833.798 0.
-584.682 -1346.54 0.
162.26 399.859 0.
-283.701 -187.494 0.
-424.999 -514.587 0.
3.33923 116.414 0.
-25.1 48.1386 0.
-201.45 -364.889 0.
-261.592 -431.945 0.
-100.083 -58.8148 0.
-271.309 -462.447 0.
255.212 317.682 0.
96.2077 -59.3334 0.
134.68 24.7404 0.
-443.458 -4.11742 0.
-382.208 140.484 0.
67.3813 209.292 0.
324.587 225.361 0.
-182.964 -948.579 0.
488.855 1.53767 0.
869.967 896.355 0.
-127.6 -1425.1 0.
-767.526 -823.41 0.
77.6954 1148.25 0.
105.729 1213.87 0.
169.759 419.579 0.
-108.858 -233.285 0.
43.8692 120.527 0.
-569.829 -104.126 0.
-451.973 169.265 0.
-322.315 -303.429 0.
-367.139 -406.055 0.
-476.206 -659.366 0.
-301.417 -996.084 0.
206.015 188.181 0.
-52.4639 -414.934 0.
-378.969 -524.83 0.
-63.2107 210.379 0.
-154.027 -1.77298 0.
630.286 703.398 0.
336.912 21.3943 0.
709.946 195.509 0.
-62.4639 -89.355 0.
-53.3215 -66.818 0.
150.894 23.2782 0.
102.903 -88.5238 0.
54.9115 -200.326 0.
-199.683 -355.909 0.
-192.609 -339.654 0.
-185.537 -323.399 0.
42.3073 -129.734 0.
108.855 29.2497 0.
175.403 188.232 0.
-492.412 -168.29 0.
-550.252 -293.695 0.
-364.517 -292.93 0.
-313.132 -171.963 0.
-261.746 -50.9975 0.
-223.344 13.9799 0.
-253.127 -50.9355 0.
-282.911 -115.851 0.
-73.3811 -11.1598 0.
-37.8306 67.4054 0.
-2.28033 145.97 0.
-69.1147 -17.8158 0.
-167.902 -250.272 0.
-144.155 -430.276 0.
-342.013 -436.969 0.
-302.385 -342.06 0.
-398.337 -293.84 0.
-344.603 -164.037 0.
-290.87 -34.2344 0.
44.3694 133.848 0.
1.58721 42.3112 0.
-41.1945 -49.2259 0.
-74.5842 -38.3158 0.
-33.8285 55.5775 0.
6.92754 149.471 0.
33.7565 182.655 0.
39.4893 194.677 0.
129.417 223.64 0.
36.1453 1.83572 0.
-57.1277 -219.97 0.
-290.88 -446.017 0.
-285.554 -441.903 0.
-280.228 -437.788 0.
-274.151 -356.91 0.
-205.859 -197.537 0.
-137.569 -38.1646 0.
420.327 252.342 0.
437.344 291.475 0.
-2677.04 -1010.57 0.
305.323 311.831 0.
328.182 365.986 0.
158.245 302.87 0.
90.2016 142.869 0.
22.1589 -17.1316 0.
-150.362 -210.418 0.
-197.988 -319.333 0.
-245.613 -428.248 0.
-119.616 -141.476 0.
84.1011 336.136 0.
287.817 813.746 0.
139.168 599.284 0.
24.3573 333.588 0.
-43.1225 106.402 0.
-72.0638 38.8867 0.
-101.005 -28.6285 0.
125.782 56.4981 0.
167.898 153.512 0.
210.014 250.525 0.
120.588 55.7505 0.
-59.1396 -366.955 0.
-238.867 -789.662 0.
-354.526 -672.086 0.
-190.028 -287.598 0.
-520.875 -110.704 0.
-246.29 -105.363 0.
-302.535 -239.195 0.
184.612 -116.354 0.
178.186 -131.876 0.
171.762 -147.397 0.
-419.413 -346.738 0.
-342.879 -166.42 0.
-266.346 13.8971 0.
-5.34144 133.731 0.
-36.4493 61.2448 0.
-67.5577 -11.2415 0.
-498.792 -98.3446 0.
-437.69 43.614 0.
-1.6128 324.917 0.
-22.2002 279.145 0.
-42.7873 233.372 0.
101.095 261.414 0.
89.7124 231.534 0.
78.3302 201.653 0.
-122.735 90.0323 0.
-136.771 58.5335 0.
-150.807 27.0347 0.
-161.468 39.7584 0.
-149.577 70.7335 0.
-55.4615 -104.65 0.
-15.1862 -37.4625 0.
-5.7678 -15.078 0.
47.9076 9.9931 0.
0.75769 -101.647 0.
-46.3928 -213.286 0.
-14.6355 -243.46 0.
-6.04767 -227.636 0.
2.53904 -211.811 0.
-192.463 -198.486 0.
-125.993 -39.2881 0.
-59.5233 119.908 0.
-525.228 -152.74 0.
-583.01 -278.041 0.
-592.382 -358.589 0.
-540.622 -237.752 0.
-488.862 -116.916 0.
-279.242 19.8192 0.
-308.965 -45.0211 0.
-338.687 -109.861 0.
315.841 190.279 0.
352.685 268.467 0.
389.529 346.654 0.
-294.208 -83.7085 0.
-392.757 -315.959 0.
-1678.11 -1057.88 0.
-587.28 -510.62 0.
-548.308 -415.687 0.
-299.816 -222.85 0.
-247.37 -92.3561 0.
-194.924 38.1376 0.
148.697 208.661 0.
105.646 117.259 0.
62.5966 25.8565 0.
102.712 69.5183 0.
143.932 162.664 0.
185.152 255.811 0.
-260.72 90.479 0.
-253.897 101.738 0.
533.962 427.687 0.
440.725 206.017 0.
347.486 -15.6528 0.
-340.999 -436.104 0.
-335.933 -431.719 0.
-330.866 -427.334 0.
-498.537 -421.864 0.
-430.854 -261.426 0.
-363.171 -100.989 0.
912.299 495.117 0.
929.808 534.117 0.
-1313.4 -394.36 0.
218.044 306.667 0.
241.02 361.158 0.
-18.7151 258.072 0.
-86.4031 97.9656 0.
-154.091 -62.1407 0.
-344.028 -260.94 0.
-390.867 -370.017 0.
-437.705 -479.094 0.
-167.875 -130.233 0.
35.1361 347.912 0.
238.146 826.057 0.
265.615 683.405 0.
150.28 418.343 0.
-75.718 124.981 0.
-105.013 57.7577 0.
-134.307 -9.46619 0.
359.099 188.303 0.
401.375 285.183 0.
443.651 382.062 0.
117.193 86.3169 0.
-63.0027 -336.21 0.
-243.198 -758.738 0.
121.518 -436.437 0.
285.341 -51.6651 0.
-819.009 -206.675 0.
-754.281 -292.119 0.
-810.985 -425.761 0.
-107.642 -210.835 0.
-113.981 -226.55 0.
-120.319 -242.265 0.
-227.549 -233.423 0.
-150.877 -52.8417 0.
-74.2069 127.739 0.
-53.7359 144.355 0.
-85.1826 72.5391 0.
-116.63 0.724352 0.
-396.291 -24.1508 0.
-335.267 117.632 0.
73.681 389.168 0.
53.6357 343.393 0.
33.5906 297.618 0.
-49.1781 227.606 0.
-59.846 197.608 0.
-70.5135 167.609 0.
-118.83 124.63 0.
-132.585 93.4353 0.
-146.34 62.2403 0.
-763.635 -189.299 0.
-751.449 -157.123 0.
