# vtk DataFile Version 2.0
test grain
ASCII
DATASET UNSTRUCTURED_GRID
POINTS 5000 float
0.499935 0.00100096 0.
0.501935 0.00100097 0.
0.503935 0.001001 0.
0.505935 0.00100101 0.
0.507935 0.00100094 0.
0.509936 0.00100088 0.
0.511936 0.00100072 0.
0.513938 0.00100042 0.
0.51594 0.00100012 0.
0.517941 0.00100008 0.
0.519942 0.00100019 0.
0.521943 0.0010003 0.
0.523944 0.00100029 0.
0.525946 0.00100025 0.
0.527947 0.00100024 0.
0.529947 0.00100041 0.
0.531948 0.00100059 0.
0.533949 0.00100062 0.
0.53595 0.00100035 0.
0.537952 0.00100007 0.
0.539953 0.001 0.
0.541955 0.00100011 0.
0.543958 0.00100021 0.
0.545959 0.00100033 0.
0.54796 0.00100044 0.
0.549962 0.00100056 0.
0.551963 0.00100059 0.
0.553963 0.00100061 0.
0.555964 0.00100059 0.
0.557965 0.0010004 0.
0.559966 0.0010002 0.
0.561967 0.00100011 0.
0.563968 0.00100016 0.
0.56597 0.00100021 0.
0.567971 0.00100017 0.
0.569973 0.00100009 0.
0.571974 0.00100001 0.
0.573976 0.001 0.
0.575977 0.001 0.
0.577978 0.00100002 0.
0.579979 0.00100023 0.
0.58198 0.00100043 0.
0.583981 0.00100058 0.
0.585981 0.00100058 0.
0.587981 0.00100059 0.
0.589981 0.00100047 0.
0.591981 0.00100024 0.
0.593981 0.00100001 0.
0.595986 0.00100012 0.
0.597993 0.00100034 0.
0.6 0.00100055 0.
0.602008 0.00100035 0.
0.604015 0.00100015 0.
0.60602 0.001 0.
0.60802 0.00100007 0.
0.61002 0.00100014 0.
0.61202 0.00100015 0.
0.614021 0.00100009 0.
0.616022 0.00100003 0.
0.618023 0.00100013 0.
0.620023 0.00100032 0.
0.622023 0.0010005 0.
0.624024 0.00100044 0.
0.626025 0.00100035 0.
0.628026 0.00100026 0.
0.630028 0.00100015 0.
0.632029 0.00100005 0.
0.634031 0.000999997 0.
0.636032 0.00100004 0.
0.638033 0.00100009 0.
0.640034 0.00100017 0.
0.642035 0.00100026 0.
0.644037 0.00100035 0.
0.646038 0.00100045 0.
0.648039 0.00100055 0.
0.650039 0.00100064 0.
0.652041 0.00100043 0.
0.654043 0.00100021 0.
0.656045 0.00100005 0.
0.658045 0.00100003 0.
0.660046 0.001 0.
0.662047 0.00100001 0.
0.664049 0.00100006 0.
0.66605 0.0010001 0.
0.668051 0.00100021 0.
0.670053 0.00100035 0.
0.672054 0.00100048 0.
0.674055 0.00100039 0.
0.676055 0.00100028 0.
0.678056 0.00100021 0.
0.680057 0.00100041 0.
0.682057 0.0010006 0.
0.684058 0.00100071 0.
0.686059 0.00100066 0.
0.688059 0.00100061 0.
0.69006 0.00100063 0.
0.692062 0.00100069 0.
0.694063 0.00100075 0.
0.696065 0.00100085 0.
0.698066 0.00100096 0.
0.499935 0.00300289 0.
0.501935 0.00300291 0.
0.503935 0.003003 0.
0.505935 0.00300303 0.
0.507935 0.00300284 0.
0.509936 0.00300264 0.
0.511937 0.00300215 0.
0.513938 0.00300126 0.
0.51594 0.00300037 0.
0.517941 0.00300025 0.
0.519943 0.00300058 0.
0.521944 0.00300091 0.
0.523945 0.00300086 0.
0.525946 0.00300076 0.
0.527947 0.00300071 0.
0.529948 0.00300123 0.
0.531949 0.00300175 0.
0.533949 0.00300186 0.
0.535951 0.00300104 0.
0.537952 0.00300021 0.
0.539953 0.003 0.
0.541956 0.00300032 0.
0.543958 0.00300064 0.
0.54596 0.00300098 0.
0.547961 0.00300133 0.
0.549962 0.00300168 0.
0.551963 0.00300176 0.
0.553963 0.00300183 0.
0.555964 0.00300178 0.
0.557965 0.00300119 0.
0.559966 0.00300061 0.
0.561967 0.00300034 0.
0.563968 0.00300048 0.
0.56597 0.00300062 0.
0.567971 0.00300051 0.
0.569973 0.00300027 0.
0.571974 0.00300002 0.
0.573976 0.003 0.
0.575977 0.003 0.
0.577979 0.00300007 0.
0.57998 0.00300068 0.
0.581981 0.0030013 0.
0.583982 0.00300172 0.
0.585982 0.00300175 0.
0.587982 0.00300178 0.
0.589983 0.0030014 0.
0.591983 0.00300071 0.
0.593984 0.00300002 0.
0.595989 0.00300037 0.
0.597995 0.00300101 0.
0.6 0.00300166 0.
0.602007 0.00300105 0.
0.604013 0.00300044 0.
0.606018 0.00300001 0.
0.608018 0.00300022 0.
0.610019 0.00300042 0.
0.61202 0.00300045 0.
0.614021 0.00300027 0.
0.616022 0.00300009 0.
0.618022 0.0030004 0.
0.620023 0.00300095 0.
0.622024 0.0030015 0.
0.624024 0.00300131 0.
0.626025 0.00300104 0.
0.628025 0.00300077 0.
0.630027 0.00300046 0.
0.632028 0.00300015 0.
0.63403 0.00299999 0.
0.636032 0.00300014 0.
0.638033 0.00300028 0.
0.640035 0.0030005 0.
0.642036 0.00300078 0.
0.644038 0.00300105 0.
0.646039 0.00300135 0.
0.648039 0.00300165 0.
0.650039 0.00300192 0.
0.65204 0.00300128 0.
0.654041 0.00300064 0.
0.656042 0.00300015 0.
0.658044 0.00300008 0.
0.660046 0.003 0.
0.662048 0.00300003 0.
0.66405 0.00300017 0.
0.666052 0.00300031 0.
0.668053 0.00300064 0.
0.670053 0.00300104 0.
0.672054 0.00300143 0.
0.674054 0.00300115 0.
0.676055 0.00300083 0.
0.678056 0.00300063 0.
0.680056 0.00300122 0.
0.682057 0.00300181 0.
0.684058 0.00300213 0.
0.686059 0.00300199 0.
0.688059 0.00300184 0.
0.69006 0.00300189 0.
0.692061 0.00300206 0.
0.694063 0.00300224 0.
0.696064 0.00300254 0.
0.698064 0.00300287 0.
0.499934 0.00500482 0.
0.501934 0.00500485 0.
0.503934 0.00500499 0.
0.505935 0.00500506 0.
0.507936 0.00500473 0.
0.509937 0.0050044 0.
0.511938 0.00500359 0.
0.513939 0.0050021 0.
0.51594 0.00500061 0.
0.517941 0.00500042 0.
0.519943 0.00500097 0.
0.521945 0.00500151 0.
0.523946 0.00500144 0.
0.525947 0.00500126 0.
0.527948 0.00500118 0.
0.529948 0.00500205 0.
0.531949 0.00500292 0.
0.53395 0.0050031 0.
0.535951 0.00500172 0.
0.537952 0.00500035 0.
0.539954 0.005 0.
0.541956 0.00500053 0.
0.543959 0.00500106 0.
0.54596 0.00500163 0.
0.547961 0.00500222 0.
0.549962 0.0050028 0.
0.551963 0.00500294 0.
0.553963 0.00500306 0.
0.555964 0.00500296 0.
0.557965 0.00500198 0.
0.559965 0.00500101 0.
0.561966 0.00500056 0.
0.563968 0.0050008 0.
0.565969 0.00500104 0.
0.567971 0.00500085 0.
0.569972 0.00500045 0.
0.571974 0.00500004 0.
0.573976 0.00499999 0.
0.575977 0.005 0.
0.577979 0.00500011 0.
0.57998 0.00500114 0.
0.581982 0.00500216 0.
0.583983 0.00500287 0.
0.585983 0.00500292 0.
0.587984 0.00500297 0.
0.589985 0.00500234 0.
0.591986 0.00500118 0.
0.593987 0.00500002 0.
0.595991 0.00500061 0.
0.597996 0.00500169 0.
0.600001 0.00500276 0.
0.602006 0.00500174 0.
0.604011 0.00500072 0.
0.606016 0.00500002 0.
0.608017 0.00500036 0.
0.610018 0.0050007 0.
0.612019 0.00500075 0.
0.61402 0.00500045 0.
0.616021 0.00500015 0.
0.618022 0.00500066 0.
0.620023 0.00500158 0.
0.622024 0.0050025 0.
0.624024 0.00500218 0.
0.626024 0.00500173 0.
0.628024 0.00500128 0.
0.630026 0.00500076 0.
0.632028 0.00500024 0.
0.63403 0.00499999 0.
0.636032 0.00500023 0.
0.638034 0.00500047 0.
0.640036 0.00500083 0.
0.642038 0.00500129 0.
0.644039 0.00500175 0.
0.646039 0.00500224 0.
0.648039 0.00500274 0.
0.650039 0.0050032 0.
0.652039 0.00500213 0.
0.65404 0.00500107 0.
0.65604 0.00500025 0.
0.658043 0.00500013 0.
0.660047 0.00500001 0.
0.662049 0.00500005 0.
0.664051 0.00500028 0.
0.666053 0.00500052 0.
0.668054 0.00500106 0.
0.670054 0.00500172 0.
0.672054 0.00500239 0.
0.674054 0.00500192 0.
0.676055 0.00500137 0.
0.678055 0.00500105 0.
0.680056 0.00500203 0.
0.682057 0.00500302 0.
0.684058 0.00500355 0.
0.686059 0.00500331 0.
0.688059 0.00500307 0.
0.69006 0.00500314 0.
0.692061 0.00500344 0.
0.694062 0.00500374 0.
0.696063 0.00500424 0.
0.698063 0.00500479 0.
0.499934 0.00700692 0.
0.501935 0.00700711 0.
0.503935 0.00700733 0.
0.505936 0.00700749 0.
0.507937 0.00700738 0.
0.509938 0.00700727 0.
0.511939 0.00700696 0.
0.51394 0.00700637 0.
0.515941 0.00700578 0.
0.517942 0.00700558 0.
0.519943 0.00700562 0.
0.521945 0.00700566 0.
0.523946 0.00700581 0.
0.525947 0.00700599 0.
0.527948 0.00700618 0.
0.529949 0.00700663 0.
0.53195 0.00700708 0.
0.533951 0.00700731 0.
0.535952 0.00700699 0.
0.537953 0.00700667 0.
0.539954 0.00700664 0.
0.541956 0.00700688 0.
0.543958 0.00700712 0.
0.545959 0.00700718 0.
0.54796 0.0070072 0.
0.549961 0.00700722 0.
0.551962 0.00700706 0.
0.553964 0.00700689 0.
0.555965 0.00700668 0.
0.557966 0.00700633 0.
0.559966 0.00700598 0.
0.561967 0.00700586 0.
0.563969 0.00700607 0.
0.565971 0.00700628 0.
0.567972 0.0070065 0.
0.569973 0.00700675 0.
0.571974 0.007007 0.
0.573976 0.00700708 0.
0.575977 0.00700712 0.
0.577979 0.00700717 0.
0.57998 0.00700724 0.
0.581982 0.0070073 0.
0.583983 0.00700721 0.
0.585984 0.00700678 0.
0.587985 0.00700635 0.
0.589986 0.00700574 0.
0.591988 0.00700501 0.
0.59399 0.00700429 0.
0.595993 0.0070052 0.
0.597997 0.00700656 0.
0.600001 0.00700792 0.
0.602006 0.00700688 0.
0.60401 0.00700584 0.
0.606014 0.00700508 0.
0.608015 0.00700518 0.
0.610016 0.00700528 0.
0.612018 0.00700536 0.
0.614019 0.00700541 0.
0.616021 0.00700546 0.
0.618022 0.00700566 0.
0.620023 0.00700596 0.
0.622024 0.00700626 0.
0.624025 0.00700647 0.
0.626025 0.00700668 0.
0.628025 0.00700687 0.
0.630027 0.00700696 0.
0.632028 0.00700704 0.
0.63403 0.00700711 0.
0.636032 0.00700713 0.
0.638034 0.00700714 0.
0.640035 0.00700711 0.
0.642036 0.00700704 0.
0.644037 0.00700697 0.
0.646038 0.00700695 0.
0.648039 0.00700694 0.
0.650039 0.00700694 0.
0.65204 0.00700707 0.
0.654041 0.0070072 0.
0.656042 0.00700729 0.
0.658044 0.00700723 0.
0.660046 0.00700716 0.
0.662048 0.00700701 0.
0.66405 0.00700675 0.
0.666051 0.00700649 0.
0.668052 0.00700629 0.
0.670053 0.00700612 0.
0.672053 0.00700596 0.
0.674054 0.00700561 0.
0.676054 0.00700526 0.
0.678055 0.00700504 0.
0.680056 0.00700556 0.
0.682057 0.00700608 0.
0.684058 0.00700637 0.
0.686059 0.00700622 0.
0.688059 0.00700608 0.
0.69006 0.00700606 0.
0.692061 0.00700611 0.
0.694062 0.00700617 0.
0.696063 0.00700669 0.
0.698063 0.00700734 0.
0.499934 0.00900898 0.
0.501935 0.00900937 0.
0.503936 0.00900967 0.
0.505937 0.00900992 0.
0.507938 0.00901003 0.
0.509939 0.00901013 0.
0.511939 0.00901034 0.
0.513941 0.00901064 0.
0.515942 0.00901095 0.
0.517943 0.00901075 0.
0.519943 0.00901027 0.
0.521944 0.0090098 0.
0.523946 0.00901019 0.
0.525947 0.00901071 0.
0.527949 0.00901118 0.
0.529949 0.00901121 0.
0.53195 0.00901125 0.
0.533951 0.00901151 0.
0.535953 0.00901225 0.
0.537954 0.00901299 0.
0.539955 0.00901329 0.
0.541956 0.00901323 0.
0.543957 0.00901317 0.
0.545958 0.00901274 0.
0.547959 0.00901219 0.
0.54996 0.00901165 0.
0.551962 0.00901118 0.
0.553964 0.00901072 0.
0.555966 0.00901041 0.
0.557966 0.00901068 0.
0.559967 0.00901095 0.
0.561968 0.00901117 0.
0.56397 0.00901134 0.
0.565972 0.00901151 0.
0.567973 0.00901215 0.
0.569974 0.00901305 0.
0.571975 0.00901396 0.
0.573976 0.00901416 0.
0.575977 0.00901425 0.
0.577979 0.00901422 0.
0.57998 0.00901334 0.
0.581981 0.00901245 0.
0.583983 0.00901156 0.
0.585985 0.00901064 0.
0.587986 0.00900973 0.
0.589988 0.00900913 0.
0.591991 0.00900884 0.
0.593993 0.00900855 0.
0.595995 0.00900979 0.
0.597998 0.00901144 0.
0.600001 0.00901309 0.
0.602005 0.00901203 0.
0.60401 0.00901097 0.
0.606013 0.00901013 0.
0.608014 0.00900999 0.
0.610015 0.00900985 0.
0.612016 0.00900996 0.
0.614018 0.00901036 0.
0.616021 0.00901076 0.
0.618022 0.00901066 0.
0.620023 0.00901034 0.
0.622024 0.00901003 0.
0.624025 0.00901077 0.
0.626026 0.00901163 0.
0.628027 0.00901246 0.
0.630028 0.00901315 0.
0.632029 0.00901384 0.
0.634031 0.00901423 0.
0.636032 0.00901403 0.
0.638033 0.00901382 0.
0.640034 0.0090134 0.
0.642035 0.0090128 0.
0.644035 0.0090122 0.
0.646037 0.00901167 0.
0.648038 0.00901116 0.
0.65004 0.00901067 0.
0.652041 0.009012 0.
0.654042 0.00901333 0.
0.656043 0.00901434 0.
0.658044 0.00901433 0.
0.660046 0.00901432 0.
0.662047 0.00901396 0.
0.664048 0.00901321 0.
0.666049 0.00901245 0.
0.66805 0.00901152 0.
0.670051 0.00901052 0.
0.672053 0.00900953 0.
0.674053 0.00900931 0.
0.676054 0.00900916 0.
0.678054 0.00900902 0.
0.680055 0.00900908 0.
0.682056 0.00900914 0.
0.684057 0.00900919 0.
0.686058 0.00900914 0.
0.688059 0.0090091 0.
0.69006 0.00900897 0.
0.692061 0.00900878 0.
0.694062 0.0090086 0.
0.696062 0.00900915 0.
0.698063 0.00900989 0.
0.499935 0.0110109 0.
0.501936 0.0110113 0.
0.503937 0.0110116 0.
0.505938 0.0110119 0.
0.507939 0.0110119 0.
0.509939 0.011012 0.
0.51194 0.0110123 0.
0.513941 0.0110131 0.
0.515942 0.0110139 0.
0.517943 0.0110137 0.
0.519944 0.0110131 0.
0.521945 0.0110124 0.
0.523946 0.0110129 0.
0.525948 0.0110136 0.
0.527949 0.0110142 0.
0.52995 0.0110139 0.
0.531951 0.0110137 0.
0.533952 0.0110139 0.
0.535953 0.011015 0.
0.537955 0.0110162 0.
0.539956 0.0110166 0.
0.541956 0.0110165 0.
0.543957 0.0110164 0.
0.545958 0.0110157 0.
0.547959 0.0110149 0.
0.54996 0.011014 0.
0.551963 0.0110134 0.
0.553965 0.0110128 0.
0.555966 0.0110125 0.
0.557967 0.0110132 0.
0.559968 0.0110139 0.
0.561969 0.0110143 0.
0.563971 0.0110143 0.
0.565972 0.0110143 0.
0.567974 0.0110149 0.
0.569975 0.0110159 0.
0.571976 0.0110169 0.
0.573977 0.0110172 0.
0.575978 0.0110174 0.
0.577979 0.0110175 0.
0.579981 0.0110163 0.
0.581982 0.0110151 0.
0.583984 0.0110139 0.
0.585986 0.0110128 0.
0.587987 0.0110117 0.
0.589989 0.011011 0.
0.591992 0.0110108 0.
0.593994 0.0110107 0.
0.595996 0.011012 0.
0.597999 0.0110136 0.
0.600001 0.0110152 0.
0.602005 0.0110143 0.
0.604008 0.0110134 0.
0.606011 0.0110127 0.
0.608012 0.0110124 0.
0.610013 0.0110121 0.
0.612015 0.0110122 0.
0.614017 0.0110127 0.
0.61602 0.0110133 0.
0.618021 0.0110132 0.
0.620022 0.0110127 0.
0.622023 0.0110123 0.
0.624025 0.0110132 0.
0.626026 0.0110141 0.
0.628027 0.0110151 0.
0.630028 0.0110161 0.
0.632029 0.0110172 0.
0.63403 0.0110177 0.
0.636031 0.0110175 0.
0.638032 0.0110172 0.
0.640033 0.0110166 0.
0.642034 0.0110159 0.
0.644035 0.0110151 0.
0.646036 0.0110143 0.
0.648038 0.0110136 0.
0.650039 0.0110129 0.
0.65204 0.0110147 0.
0.654042 0.0110166 0.
0.656043 0.0110179 0.
0.658044 0.0110179 0.
0.660045 0.0110179 0.
0.662046 0.0110173 0.
0.664047 0.0110161 0.
0.666048 0.0110149 0.
0.668049 0.0110138 0.
0.670051 0.0110127 0.
0.672052 0.0110116 0.
0.674053 0.0110115 0.
0.676054 0.0110115 0.
0.678055 0.0110114 0.
0.680055 0.0110112 0.
0.682056 0.011011 0.
0.684057 0.0110109 0.
0.686058 0.011011 0.
0.688059 0.011011 0.
0.69006 0.0110109 0.
0.692061 0.0110106 0.
0.694062 0.0110104 0.
0.696062 0.0110109 0.
0.698063 0.0110117 0.
0.499936 0.0130127 0.
0.501937 0.013013 0.
0.503938 0.0130132 0.
0.505938 0.0130133 0.
0.507939 0.0130131 0.
0.50994 0.0130128 0.
0.511941 0.013013 0.
0.513942 0.0130138 0.
0.515943 0.0130145 0.
0.517944 0.0130145 0.
0.519945 0.013014 0.
0.521946 0.0130135 0.
0.523947 0.013014 0.
0.525948 0.0130147 0.
0.527949 0.0130153 0.
0.52995 0.0130148 0.
0.531951 0.0130144 0.
0.533952 0.0130143 0.
0.535953 0.0130153 0.
0.537955 0.0130162 0.
0.539956 0.0130167 0.
0.541957 0.0130168 0.
0.543958 0.0130169 0.
0.545959 0.0130162 0.
0.54796 0.0130152 0.
0.549962 0.0130142 0.
0.551964 0.0130137 0.
0.553965 0.0130132 0.
0.555967 0.0130129 0.
0.557968 0.0130138 0.
0.559968 0.0130148 0.
0.561969 0.0130151 0.
0.563971 0.0130148 0.
0.565972 0.0130145 0.
0.567973 0.0130148 0.
0.569975 0.0130153 0.
0.571976 0.0130159 0.
0.573978 0.0130163 0.
0.57598 0.0130167 0.
0.577981 0.013017 0.
0.579983 0.0130161 0.
0.581984 0.0130152 0.
0.583986 0.0130143 0.
0.585987 0.0130132 0.
0.587988 0.0130121 0.
0.58999 0.0130114 0.
0.591992 0.013011 0.
0.593994 0.0130107 0.
0.595996 0.0130117 0.
0.597999 0.013013 0.
0.600001 0.0130144 0.
0.602004 0.0130138 0.
0.604006 0.0130132 0.
0.606009 0.0130127 0.
0.60801 0.0130123 0.
0.610012 0.0130119 0.
0.612014 0.0130119 0.
0.614016 0.0130125 0.
0.616018 0.013013 0.
0.61802 0.0130131 0.
0.620021 0.0130131 0.
0.622022 0.0130131 0.
0.624024 0.0130136 0.
0.626025 0.0130142 0.
0.628026 0.0130148 0.
0.630027 0.0130159 0.
0.632029 0.013017 0.
0.63403 0.0130177 0.
0.636031 0.0130175 0.
0.638032 0.0130173 0.
0.640033 0.0130169 0.
0.642034 0.0130163 0.
0.644035 0.0130157 0.
0.646036 0.013015 0.
0.648037 0.0130142 0.
0.650038 0.0130135 0.
0.65204 0.0130152 0.
0.654041 0.0130169 0.
0.656042 0.0130181 0.
0.658043 0.013018 0.
0.660044 0.0130179 0.
0.662046 0.0130171 0.
0.664046 0.0130155 0.
0.666047 0.0130139 0.
0.668049 0.013013 0.
0.670051 0.0130126 0.
0.672052 0.0130121 0.
0.674053 0.0130121 0.
0.676054 0.0130122 0.
0.678055 0.0130122 0.
0.680056 0.013012 0.
0.682056 0.0130117 0.
0.684057 0.0130116 0.
0.686058 0.0130117 0.
0.688058 0.0130118 0.
0.690059 0.0130118 0.
0.69206 0.0130117 0.
0.694062 0.0130116 0.
0.696062 0.0130121 0.
0.698063 0.0130126 0.
0.499937 0.0150145 0.
0.501938 0.0150147 0.
0.503938 0.0150148 0.
0.505939 0.0150148 0.
0.50794 0.0150142 0.
0.509941 0.0150136 0.
0.511941 0.0150136 0.
0.513942 0.0150144 0.
0.515943 0.0150152 0.
0.517944 0.0150153 0.
0.519946 0.0150149 0.
0.521947 0.0150145 0.
0.523948 0.0150151 0.
0.525949 0.0150158 0.
0.527949 0.0150164 0.
0.52995 0.0150157 0.
0.531952 0.015015 0.
0.533953 0.0150148 0.
0.535954 0.0150155 0.
0.537955 0.0150163 0.
0.539956 0.0150168 0.
0.541958 0.0150171 0.
0.543959 0.0150174 0.
0.54596 0.0150166 0.
0.547962 0.0150155 0.
0.549963 0.0150145 0.
0.551965 0.015014 0.
0.553966 0.0150135 0.
0.555968 0.0150134 0.
0.557968 0.0150145 0.
0.559969 0.0150156 0.
0.56197 0.015016 0.
0.563971 0.0150154 0.
0.565972 0.0150148 0.
0.567973 0.0150147 0.
0.569975 0.0150148 0.
0.571977 0.0150149 0.
0.573979 0.0150154 0.
0.575981 0.015016 0.
0.577983 0.0150165 0.
0.579985 0.0150159 0.
0.581986 0.0150153 0.
0.583988 0.0150146 0.
0.585988 0.0150136 0.
0.587989 0.0150125 0.
0.589991 0.0150117 0.
0.591992 0.0150112 0.
0.593994 0.0150107 0.
0.595996 0.0150114 0.
0.597999 0.0150125 0.
0.600001 0.0150136 0.
0.602003 0.0150133 0.
0.604004 0.015013 0.
0.606006 0.0150127 0.
0.608008 0.0150122 0.
0.610011 0.0150118 0.
0.612013 0.0150117 0.
0.614015 0.0150122 0.
0.616017 0.0150127 0.
0.618018 0.0150131 0.
0.62002 0.0150135 0.
0.622022 0.015014 0.
0.624023 0.0150141 0.
0.626024 0.0150143 0.
0.628026 0.0150146 0.
0.630027 0.0150158 0.
0.632028 0.0150169 0.
0.634029 0.0150176 0.
0.63603 0.0150175 0.
0.638031 0.0150174 0.
0.640032 0.0150171 0.
0.642034 0.0150167 0.
0.644035 0.0150163 0.
0.646036 0.0150156 0.
0.648037 0.0150148 0.
0.650037 0.0150141 0.
0.652039 0.0150157 0.
0.65404 0.0150172 0.
0.656042 0.0150183 0.
0.658043 0.0150181 0.
0.660044 0.0150179 0.
0.662045 0.0150168 0.
0.664046 0.0150148 0.
0.666047 0.0150128 0.
0.668049 0.0150123 0.
0.670051 0.0150125 0.
0.672053 0.0150126 0.
0.674054 0.0150128 0.
0.676055 0.0150129 0.
0.678056 0.0150131 0.
0.680056 0.0150127 0.
0.682057 0.0150124 0.
0.684057 0.0150122 0.
0.686057 0.0150124 0.
0.688058 0.0150125 0.
0.690059 0.0150127 0.
0.69206 0.0150128 0.
0.694061 0.0150128 0.
0.696062 0.0150132 0.
0.698062 0.0150136 0.
0.499937 0.017016 0.
0.501938 0.0170162 0.
0.503939 0.0170163 0.
0.50594 0.0170162 0.
0.507941 0.0170156 0.
0.509941 0.017015 0.
0.511942 0.0170149 0.
0.513943 0.0170153 0.
0.515944 0.0170157 0.
0.517945 0.0170157 0.
0.519946 0.0170156 0.
0.521947 0.0170154 0.
0.523948 0.0170159 0.
0.525949 0.0170164 0.
0.52795 0.0170168 0.
0.529951 0.0170165 0.
0.531952 0.0170161 0.
0.533953 0.017016 0.
0.535954 0.0170162 0.
0.537956 0.0170165 0.
0.539957 0.0170167 0.
0.541959 0.0170169 0.
0.54396 0.0170171 0.
0.545961 0.0170166 0.
0.547962 0.0170159 0.
0.549963 0.0170153 0.
0.551965 0.017015 0.
0.553966 0.0170147 0.
0.555967 0.0170147 0.
0.557968 0.0170153 0.
0.559969 0.017016 0.
0.56197 0.0170161 0.
0.563971 0.0170156 0.
0.565972 0.017015 0.
0.567974 0.0170151 0.
0.569975 0.0170156 0.
0.571977 0.0170161 0.
0.573979 0.0170162 0.
0.575981 0.0170162 0.
0.577983 0.0170162 0.
0.579985 0.0170158 0.
0.581986 0.0170154 0.
0.583988 0.0170148 0.
0.585989 0.017014 0.
0.58799 0.0170131 0.
0.589991 0.0170125 0.
0.591993 0.017012 0.
0.593994 0.0170116 0.
0.595996 0.0170121 0.
0.597999 0.0170129 0.
0.600001 0.0170137 0.
0.602003 0.0170136 0.
0.604005 0.0170135 0.
0.606006 0.0170133 0.
0.608008 0.0170128 0.
0.610011 0.0170124 0.
0.612012 0.0170122 0.
0.614014 0.0170123 0.
0.616016 0.0170124 0.
0.618017 0.017013 0.
0.620019 0.0170138 0.
0.62202 0.0170145 0.
0.624022 0.0170149 0.
0.626023 0.0170152 0.
0.628024 0.0170155 0.
0.630025 0.0170162 0.
0.632027 0.017017 0.
0.634028 0.0170175 0.
0.636029 0.0170175 0.
0.638031 0.0170175 0.
0.640032 0.0170173 0.
0.642033 0.017017 0.
0.644035 0.0170166 0.
0.646036 0.0170162 0.
0.648037 0.0170157 0.
0.650038 0.0170153 0.
0.652039 0.0170165 0.
0.65404 0.0170177 0.
0.656041 0.0170185 0.
0.658043 0.0170184 0.
0.660044 0.0170184 0.
0.662045 0.0170175 0.
0.664046 0.0170155 0.
0.666047 0.0170136 0.
0.668049 0.0170132 0.
0.67005 0.0170136 0.
0.672052 0.017014 0.
0.674053 0.017014 0.
0.676054 0.017014 0.
0.678055 0.017014 0.
0.680055 0.0170138 0.
0.682056 0.0170136 0.
0.684057 0.0170134 0.
0.686057 0.0170132 0.
0.688058 0.0170131 0.
0.690059 0.0170133 0.
0.69206 0.0170136 0.
0.694061 0.017014 0.
0.696062 0.0170145 0.
0.698062 0.0170151 0.
0.499937 0.0190176 0.
0.501938 0.0190177 0.
0.503939 0.0190177 0.
0.505941 0.0190176 0.
0.507941 0.0190171 0.
0.509942 0.0190165 0.
0.511943 0.0190161 0.
0.513943 0.0190161 0.
0.515944 0.0190161 0.
0.517945 0.0190162 0.
0.519947 0.0190162 0.
0.521948 0.0190163 0.
0.523949 0.0190166 0.
0.525949 0.0190169 0.
0.52795 0.0190172 0.
0.529951 0.0190172 0.
0.531952 0.0190172 0.
0.533954 0.0190171 0.
0.535955 0.0190169 0.
0.537956 0.0190166 0.
0.539958 0.0190166 0.
0.541959 0.0190167 0.
0.543961 0.0190168 0.
0.545962 0.0190166 0.
0.547963 0.0190163 0.
0.549964 0.0190161 0.
0.551965 0.019016 0.
0.553966 0.019016 0.
0.555967 0.019016 0.
0.557968 0.0190161 0.
0.559968 0.0190163 0.
0.56197 0.0190162 0.
0.563971 0.0190157 0.
0.565973 0.0190152 0.
0.567974 0.0190156 0.
0.569976 0.0190165 0.
0.571978 0.0190174 0.
0.573979 0.019017 0.
0.575981 0.0190164 0.
0.577983 0.0190158 0.
0.579985 0.0190156 0.
0.581986 0.0190154 0.
0.583988 0.019015 0.
0.58599 0.0190144 0.
0.587991 0.0190137 0.
0.589992 0.0190132 0.
0.591993 0.0190128 0.
0.593994 0.0190124 0.
0.595996 0.0190127 0.
0.597998 0.0190133 0.
0.600001 0.0190138 0.
0.602003 0.0190139 0.
0.604005 0.019014 0.
0.606007 0.0190139 0.
0.608009 0.0190134 0.
0.61001 0.0190129 0.
0.612012 0.0190126 0.
0.614013 0.0190123 0.
0.616015 0.0190121 0.
0.618016 0.0190128 0.
0.620018 0.019014 0.
0.622019 0.0190151 0.
0.62402 0.0190156 0.
0.626021 0.0190161 0.
0.628022 0.0190165 0.
0.630024 0.0190168 0.
0.632026 0.0190171 0.
0.634027 0.0190173 0.
0.636029 0.0190175 0.
0.63803 0.0190177 0.
0.640032 0.0190176 0.
0.642033 0.0190173 0.
0.644034 0.019017 0.
0.646035 0.0190168 0.
0.648037 0.0190166 0.
0.650038 0.0190165 0.
0.652039 0.0190173 0.
0.65404 0.0190181 0.
0.656041 0.0190187 0.
0.658042 0.0190188 0.
0.660044 0.0190189 0.
0.662045 0.0190181 0.
0.664047 0.0190162 0.
0.666048 0.0190143 0.
0.668049 0.0190141 0.
0.67005 0.0190148 0.
0.672051 0.0190154 0.
0.674052 0.0190153 0.
0.676053 0.0190151 0.
0.678054 0.0190149 0.
0.680055 0.0190149 0.
0.682056 0.0190148 0.
0.684057 0.0190146 0.
0.686057 0.0190141 0.
0.688058 0.0190137 0.
0.690059 0.0190138 0.
0.69206 0.0190145 0.
0.694061 0.0190151 0.
0.696062 0.0190159 0.
0.698062 0.0190167 0.
0.499937 0.0210189 0.
0.501939 0.0210189 0.
0.50394 0.021019 0.
0.505942 0.0210188 0.
0.507942 0.0210182 0.
0.509943 0.0210176 0.
0.511943 0.0210171 0.
0.513944 0.0210169 0.
0.515945 0.0210166 0.
0.517946 0.0210167 0.
0.519947 0.0210169 0.
0.521948 0.0210172 0.
0.523949 0.0210173 0.
0.52595 0.0210175 0.
0.527951 0.0210176 0.
0.529952 0.0210179 0.
0.531953 0.0210181 0.
0.533954 0.0210181 0.
0.535955 0.0210176 0.
0.537957 0.0210171 0.
0.539958 0.0210168 0.
0.54196 0.0210168 0.
0.543961 0.0210168 0.
0.545962 0.0210169 0.
0.547963 0.0210169 0.
0.549964 0.021017 0.
0.551965 0.0210169 0.
0.553966 0.0210169 0.
0.555967 0.0210168 0.
0.557968 0.0210166 0.
0.559969 0.0210164 0.
0.56197 0.0210161 0.
0.563972 0.0210158 0.
0.565973 0.0210154 0.
0.567975 0.0210159 0.
0.569976 0.0210168 0.
0.571978 0.0210177 0.
0.57398 0.0210171 0.
0.575981 0.0210162 0.
0.577983 0.0210154 0.
0.579985 0.0210155 0.
0.581986 0.0210155 0.
0.583988 0.0210153 0.
0.58599 0.0210146 0.
0.587991 0.021014 0.
0.589993 0.0210136 0.
0.591993 0.0210133 0.
0.593994 0.021013 0.
0.595996 0.0210132 0.
0.597998 0.0210137 0.
0.6 0.0210141 0.
0.602003 0.0210141 0.
0.604005 0.0210142 0.
0.606007 0.0210141 0.
0.608008 0.0210136 0.
0.61001 0.0210132 0.
0.612011 0.0210128 0.
0.614013 0.0210126 0.
0.616014 0.0210124 0.
0.618015 0.0210132 0.
0.620017 0.0210144 0.
0.622018 0.0210156 0.
0.624019 0.021016 0.
0.62602 0.0210162 0.
0.628022 0.0210165 0.
0.630023 0.0210167 0.
0.632025 0.0210169 0.
0.634026 0.0210172 0.
0.636028 0.0210174 0.
0.638029 0.0210177 0.
0.640031 0.0210177 0.
0.642032 0.0210176 0.
0.644033 0.0210174 0.
0.646035 0.0210174 0.
0.648036 0.0210174 0.
0.650037 0.0210174 0.
0.652038 0.0210177 0.
0.654039 0.021018 0.
0.65604 0.0210183 0.
0.658042 0.0210186 0.
0.660044 0.0210188 0.
0.662045 0.0210182 0.
0.664046 0.0210167 0.
0.666048 0.0210151 0.
0.668049 0.0210151 0.
0.67005 0.0210157 0.
0.672051 0.0210163 0.
0.674052 0.0210161 0.
0.676052 0.0210157 0.
0.678053 0.0210154 0.
0.680054 0.0210155 0.
0.682055 0.0210156 0.
0.684056 0.0210154 0.
0.686057 0.0210149 0.
0.688058 0.0210144 0.
0.690059 0.0210146 0.
0.69206 0.0210153 0.
0.69406 0.0210159 0.
0.696061 0.0210168 0.
0.698062 0.0210177 0.
0.499938 0.0230198 0.
0.50194 0.0230199 0.
0.503941 0.02302 0.
0.505943 0.0230199 0.
0.507943 0.0230191 0.
0.509943 0.0230184 0.
0.511944 0.0230178 0.
0.513944 0.0230175 0.
0.515945 0.0230171 0.
0.517946 0.0230172 0.
0.519947 0.0230176 0.
0.521948 0.0230179 0.
0.523949 0.023018 0.
0.525951 0.0230179 0.
0.527952 0.0230179 0.
0.529953 0.0230184 0.
0.531954 0.0230188 0.
0.533955 0.0230189 0.
0.535956 0.0230184 0.
0.537957 0.0230179 0.
0.539958 0.0230175 0.
0.54196 0.0230173 0.
0.543961 0.0230171 0.
0.545962 0.0230173 0.
0.547963 0.0230177 0.
0.549964 0.023018 0.
0.551965 0.0230178 0.
0.553967 0.0230175 0.
0.555968 0.0230172 0.
0.55797 0.0230168 0.
0.559971 0.0230163 0.
0.561972 0.023016 0.
0.563973 0.0230159 0.
0.565974 0.0230158 0.
0.567975 0.0230161 0.
0.569977 0.0230166 0.
0.571978 0.0230171 0.
0.57398 0.0230165 0.
0.575981 0.0230157 0.
0.577983 0.023015 0.
0.579984 0.0230153 0.
0.581986 0.0230157 0.
0.583987 0.0230156 0.
0.585989 0.0230148 0.
0.587991 0.023014 0.
0.589992 0.0230136 0.
0.591993 0.0230134 0.
0.593994 0.0230133 0.
0.595996 0.0230136 0.
0.597998 0.023014 0.
0.6 0.0230144 0.
0.602003 0.0230142 0.
0.604005 0.023014 0.
0.606007 0.0230138 0.
0.608008 0.0230134 0.
0.61001 0.0230131 0.
0.612011 0.0230129 0.
0.614012 0.0230131 0.
0.616013 0.0230132 0.
0.618014 0.0230139 0.
0.620015 0.0230149 0.
0.622017 0.023016 0.
0.624018 0.0230159 0.
0.62602 0.0230157 0.
0.628021 0.0230156 0.
0.630023 0.0230161 0.
0.632024 0.0230167 0.
0.634025 0.0230171 0.
0.636027 0.0230173 0.
0.638028 0.0230175 0.
0.64003 0.0230176 0.
0.642031 0.0230178 0.
0.644032 0.0230179 0.
0.646034 0.0230179 0.
0.648035 0.023018 0.
0.650036 0.023018 0.
0.652037 0.0230177 0.
0.654039 0.0230175 0.
0.65604 0.0230173 0.
0.658042 0.0230178 0.
0.660043 0.0230182 0.
0.662045 0.023018 0.
0.664046 0.023017 0.
0.666047 0.023016 0.
0.668048 0.023016 0.
0.670049 0.0230164 0.
0.672051 0.0230168 0.
0.674051 0.0230164 0.
0.676052 0.0230159 0.
0.678053 0.0230155 0.
0.680054 0.0230157 0.
0.682055 0.0230159 0.
0.684056 0.023016 0.
0.686056 0.0230157 0.
0.688057 0.0230155 0.
0.690058 0.0230156 0.
0.692059 0.023016 0.
0.694059 0.0230164 0.
0.69606 0.0230173 0.
0.698061 0.0230183 0.
0.499939 0.0250208 0.
0.501941 0.0250209 0.
0.503942 0.025021 0.
0.505943 0.0250209 0.
0.507944 0.0250201 0.
0.509944 0.0250192 0.
0.511944 0.0250185 0.
0.513945 0.0250181 0.
0.515945 0.0250176 0.
0.517946 0.0250178 0.
0.519947 0.0250182 0.
0.521948 0.0250187 0.
0.52395 0.0250186 0.
0.525951 0.0250184 0.
0.527953 0.0250183 0.
0.529954 0.0250188 0.
0.531954 0.0250194 0.
0.533955 0.0250197 0.
0.535956 0.0250192 0.
0.537957 0.0250187 0.
0.539958 0.0250182 0.
0.541959 0.0250178 0.
0.543961 0.0250174 0.
0.545961 0.0250178 0.
0.547962 0.0250184 0.
0.549963 0.025019 0.
0.551965 0.0250186 0.
0.553967 0.0250182 0.
0.555969 0.0250176 0.
0.557971 0.0250169 0.
0.559973 0.0250162 0.
0.561974 0.0250158 0.
0.563974 0.025016 0.
0.565975 0.0250162 0.
0.567976 0.0250163 0.
0.569977 0.0250164 0.
0.571978 0.0250165 0.
0.57398 0.0250159 0.
0.575981 0.0250152 0.
0.577983 0.0250146 0.
0.579984 0.0250152 0.
0.581986 0.0250158 0.
0.583987 0.0250159 0.
0.585989 0.025015 0.
0.58799 0.025014 0.
0.589992 0.0250136 0.
0.591993 0.0250136 0.
0.593994 0.0250136 0.
0.595996 0.0250139 0.
0.597998 0.0250143 0.
0.6 0.0250147 0.
0.602003 0.0250143 0.
0.604005 0.0250139 0.
0.606007 0.0250135 0.
0.608008 0.0250132 0.
0.610009 0.025013 0.
0.61201 0.025013 0.
0.614011 0.0250135 0.
0.616012 0.025014 0.
0.618013 0.0250147 0.
0.620014 0.0250155 0.
0.622016 0.0250163 0.
0.624017 0.0250158 0.
0.626019 0.0250151 0.
0.628021 0.0250147 0.
0.630022 0.0250155 0.
0.632023 0.0250164 0.
0.634024 0.025017 0.
0.636026 0.0250172 0.
0.638027 0.0250173 0.
0.640029 0.0250176 0.
0.64203 0.025018 0.
0.644031 0.0250183 0.
0.646032 0.0250185 0.
0.648034 0.0250185 0.
0.650035 0.0250186 0.
0.652036 0.0250177 0.
0.654038 0.0250169 0.
0.656039 0.0250164 0.
0.658041 0.025017 0.
0.660042 0.0250176 0.
0.662044 0.0250176 0.
0.664045 0.0250172 0.
0.666047 0.0250168 0.
0.668048 0.0250169 0.
0.670049 0.0250171 0.
0.67205 0.0250174 0.
0.674051 0.0250168 0.
0.676052 0.0250161 0.
0.678053 0.0250156 0.
0.680054 0.025016 0.
0.682055 0.0250163 0.
0.684056 0.0250165 0.
0.686056 0.0250165 0.
0.688056 0.0250165 0.
0.690057 0.0250166 0.
0.692058 0.0250167 0.
0.694058 0.0250169 0.
0.696059 0.0250178 0.
0.69806 0.0250189 0.
0.49994 0.0270222 0.
0.501941 0.0270221 0.
0.503942 0.0270219 0.
0.505943 0.0270216 0.
0.507944 0.0270208 0.
0.509944 0.02702 0.
0.511945 0.0270193 0.
0.513946 0.0270188 0.
0.515946 0.0270183 0.
0.517947 0.0270182 0.
0.519948 0.0270184 0.
0.521949 0.0270186 0.
0.523951 0.0270185 0.
0.525952 0.0270185 0.
0.527953 0.0270184 0.
0.529954 0.0270188 0.
0.531955 0.0270191 0.
0.533956 0.0270192 0.
0.535957 0.0270188 0.
0.537958 0.0270183 0.
0.539959 0.027018 0.
0.541961 0.0270178 0.
0.543962 0.0270177 0.
0.545963 0.027018 0.
0.547964 0.0270184 0.
0.549965 0.0270189 0.
0.551967 0.0270185 0.
0.553969 0.027018 0.
0.55597 0.0270175 0.
0.557972 0.027017 0.
0.559973 0.0270164 0.
0.561974 0.027016 0.
0.563974 0.0270159 0.
0.565975 0.0270157 0.
0.567976 0.0270157 0.
0.569977 0.0270157 0.
0.571978 0.0270157 0.
0.57398 0.0270153 0.
0.575981 0.0270148 0.
0.577983 0.0270145 0.
0.579984 0.027015 0.
0.581986 0.0270155 0.
0.583987 0.0270155 0.
0.585989 0.0270146 0.
0.58799 0.0270137 0.
0.589992 0.0270135 0.
0.591993 0.0270137 0.
0.593994 0.0270139 0.
0.595996 0.027014 0.
0.597998 0.0270142 0.
0.6 0.0270143 0.
0.602003 0.027014 0.
0.604005 0.0270136 0.
0.606007 0.0270133 0.
0.608008 0.0270133 0.
0.610008 0.0270133 0.
0.612009 0.0270134 0.
0.61401 0.0270136 0.
0.616011 0.0270137 0.
0.618013 0.0270145 0.
0.620014 0.0270154 0.
0.622015 0.0270164 0.
0.624017 0.0270158 0.
0.626018 0.0270149 0.
0.628019 0.0270143 0.
0.63002 0.0270151 0.
0.632022 0.0270158 0.
0.634023 0.0270165 0.
0.636024 0.0270168 0.
0.638026 0.0270171 0.
0.640027 0.0270173 0.
0.642029 0.0270174 0.
0.64403 0.0270174 0.
0.646032 0.0270174 0.
0.648033 0.0270174 0.
0.650035 0.0270173 0.
0.652036 0.0270168 0.
0.654038 0.0270163 0.
0.656039 0.0270161 0.
0.658041 0.0270169 0.
0.660042 0.0270178 0.
0.662043 0.0270179 0.
0.664045 0.0270172 0.
0.666046 0.0270165 0.
0.668047 0.0270167 0.
0.670048 0.0270172 0.
0.67205 0.0270177 0.
0.674051 0.0270172 0.
0.676052 0.0270165 0.
0.678053 0.0270159 0.
0.680053 0.0270165 0.
0.682054 0.0270171 0.
0.684055 0.0270175 0.
0.686055 0.0270175 0.
0.688055 0.0270175 0.
0.690056 0.0270176 0.
0.692057 0.0270178 0.
0.694057 0.0270181 0.
0.696058 0.027019 0.
0.698059 0.0270201 0.
0.499941 0.0290238 0.
0.501941 0.0290234 0.
0.503942 0.0290229 0.
0.505943 0.0290223 0.
0.507944 0.0290216 0.
0.509945 0.0290208 0.
0.511946 0.0290201 0.
0.513947 0.0290196 0.
0.515947 0.029019 0.
0.517948 0.0290187 0.
0.519949 0.0290186 0.
0.52195 0.0290184 0.
0.523951 0.0290185 0.
0.525952 0.0290186 0.
0.527953 0.0290186 0.
0.529954 0.0290187 0.
0.531956 0.0290188 0.
0.533957 0.0290188 0.
0.535958 0.0290184 0.
0.537959 0.029018 0.
0.539961 0.0290179 0.
0.541962 0.0290179 0.
0.543963 0.029018 0.
0.545965 0.0290182 0.
0.547966 0.0290185 0.
0.549967 0.0290188 0.
0.551968 0.0290183 0.
0.55397 0.0290178 0.
0.555971 0.0290174 0.
0.557972 0.029017 0.
0.559973 0.0290166 0.
0.561974 0.0290162 0.
0.563975 0.0290157 0.
0.565975 0.0290153 0.
0.567976 0.0290151 0.
0.569977 0.029015 0.
0.571979 0.029015 0.
0.57398 0.0290148 0.
0.575982 0.0290145 0.
0.577983 0.0290144 0.
0.579984 0.0290147 0.
0.581986 0.0290151 0.
0.583987 0.0290151 0.
0.585988 0.0290143 0.
0.58799 0.0290135 0.
0.589991 0.0290133 0.
0.591993 0.0290137 0.
0.593994 0.0290141 0.
0.595996 0.0290141 0.
0.597998 0.029014 0.
0.6 0.029014 0.
0.602003 0.0290136 0.
0.604005 0.0290133 0.
0.606006 0.0290131 0.
0.608007 0.0290134 0.
0.610008 0.0290136 0.
0.612009 0.0290137 0.
0.61401 0.0290136 0.
0.616011 0.0290135 0.
0.618012 0.0290142 0.
0.620014 0.0290154 0.
0.622015 0.0290165 0.
0.624016 0.0290157 0.
0.626017 0.0290147 0.
0.628018 0.0290139 0.
0.630019 0.0290146 0.
0.63202 0.0290153 0.
0.634021 0.029016 0.
0.636023 0.0290165 0.
0.638024 0.0290169 0.
0.640026 0.029017 0.
0.642027 0.0290168 0.
0.644029 0.0290165 0.
0.646031 0.0290164 0.
0.648033 0.0290162 0.
0.650035 0.0290161 0.
0.652036 0.0290159 0.
0.654037 0.0290156 0.
0.656039 0.0290157 0.
0.65804 0.0290168 0.
0.660042 0.0290179 0.
0.662043 0.0290181 0.
0.664044 0.0290171 0.
0.666045 0.0290162 0.
0.668046 0.0290164 0.
0.670048 0.0290173 0.
0.672049 0.0290181 0.
0.67405 0.0290175 0.
0.676051 0.0290168 0.
0.678052 0.0290162 0.
0.680053 0.029017 0.
0.682053 0.0290179 0.
0.684054 0.0290184 0.
0.686054 0.0290185 0.
0.688055 0.0290185 0.
0.690055 0.0290187 0.
0.692056 0.0290189 0.
0.694056 0.0290192 0.
0.696057 0.0290201 0.
0.698058 0.0290212 0.
0.499942 0.0310249 0.
0.501942 0.0310244 0.
0.503943 0.0310239 0.
0.505944 0.0310232 0.
0.507945 0.0310224 0.
0.509946 0.0310216 0.
0.511947 0.0310208 0.
0.513948 0.0310201 0.
0.515948 0.0310194 0.
0.517949 0.0310191 0.
0.51995 0.031019 0.
0.521951 0.0310189 0.
0.523952 0.031019 0.
0.525952 0.031019 0.
0.527953 0.031019 0.
0.529955 0.0310188 0.
0.531956 0.0310186 0.
0.533958 0.0310185 0.
0.535959 0.0310183 0.
0.53796 0.0310181 0.
0.539962 0.0310181 0.
0.541963 0.0310181 0.
0.543964 0.0310182 0.
0.545966 0.0310184 0.
0.547967 0.0310186 0.
0.549968 0.0310188 0.
0.551969 0.0310184 0.
0.553971 0.0310179 0.
0.555972 0.0310174 0.
0.557973 0.0310171 0.
0.559974 0.0310168 0.
0.561974 0.0310164 0.
0.563975 0.0310159 0.
0.565976 0.0310153 0.
0.567977 0.031015 0.
0.569978 0.0310148 0.
0.571979 0.0310146 0.
0.573981 0.0310145 0.
0.575982 0.0310144 0.
0.577983 0.0310144 0.
0.579984 0.0310146 0.
0.581986 0.0310148 0.
0.583987 0.0310148 0.
0.585988 0.0310142 0.
0.58799 0.0310136 0.
0.589991 0.0310135 0.
0.591993 0.0310137 0.
0.593994 0.0310139 0.
0.595996 0.031014 0.
0.597998 0.0310139 0.
0.6 0.0310139 0.
0.602002 0.0310138 0.
0.604004 0.0310137 0.
0.606006 0.0310136 0.
0.608007 0.0310138 0.
0.610008 0.031014 0.
0.612009 0.031014 0.
0.61401 0.0310137 0.
0.616011 0.0310133 0.
0.618012 0.031014 0.
0.620013 0.0310152 0.
0.622014 0.0310164 0.
0.624015 0.0310156 0.
0.626016 0.0310146 0.
0.628017 0.0310138 0.
0.630018 0.0310145 0.
0.632019 0.0310151 0.
0.63402 0.0310157 0.
0.636022 0.0310163 0.
0.638023 0.0310169 0.
0.640025 0.0310168 0.
0.642027 0.0310163 0.
0.644028 0.0310159 0.
0.64603 0.0310158 0.
0.648032 0.0310159 0.
0.650034 0.0310159 0.
0.652036 0.0310157 0.
0.654037 0.0310155 0.
0.656038 0.0310157 0.
0.65804 0.0310168 0.
0.660041 0.0310179 0.
0.662042 0.031018 0.
0.664043 0.0310172 0.
0.666044 0.0310163 0.
0.668045 0.0310166 0.
0.670047 0.0310175 0.
0.672048 0.0310184 0.
0.674049 0.0310178 0.
0.67605 0.031017 0.
0.678051 0.0310165 0.
0.680052 0.0310174 0.
0.682052 0.0310183 0.
0.684053 0.0310189 0.
0.686054 0.031019 0.
0.688054 0.0310192 0.
0.690055 0.0310195 0.
0.692055 0.0310198 0.
0.694056 0.0310202 0.
0.696057 0.0310212 0.
0.698058 0.0310224 0.
0.499943 0.0330256 0.
0.501944 0.0330251 0.
0.503945 0.0330248 0.
0.505946 0.0330243 0.
0.507946 0.0330233 0.
0.509947 0.0330223 0.
0.511948 0.0330213 0.
0.513948 0.0330204 0.
0.515949 0.0330195 0.
0.51795 0.0330194 0.
0.519951 0.0330197 0.
0.521952 0.0330201 0.
0.523952 0.03302 0.
0.525953 0.0330198 0.
0.527954 0.0330196 0.
0.529955 0.0330191 0.
0.531957 0.0330186 0.
0.533958 0.0330183 0.
0.53596 0.0330185 0.
0.537961 0.0330187 0.
0.539963 0.0330186 0.
0.541964 0.0330185 0.
0.543965 0.0330183 0.
0.545966 0.0330185 0.
0.547967 0.0330187 0.
0.549969 0.033019 0.
0.55197 0.0330186 0.
0.553971 0.0330181 0.
0.555972 0.0330176 0.
0.557973 0.0330173 0.
0.559974 0.033017 0.
0.561975 0.0330167 0.
0.563976 0.0330163 0.
0.565977 0.0330158 0.
0.567978 0.0330154 0.
0.569979 0.033015 0.
0.57198 0.0330146 0.
0.573981 0.0330145 0.
0.575982 0.0330145 0.
0.577984 0.0330144 0.
0.579985 0.0330145 0.
0.581986 0.0330146 0.
0.583987 0.0330145 0.
0.585988 0.0330144 0.
0.587989 0.0330142 0.
0.589991 0.0330139 0.
0.591992 0.0330136 0.
0.593994 0.0330134 0.
0.595996 0.0330135 0.
0.597998 0.0330138 0.
0.6 0.0330141 0.
0.602002 0.0330144 0.
0.604004 0.0330147 0.
0.606006 0.0330148 0.
0.608007 0.0330146 0.
0.610008 0.0330144 0.
0.612008 0.0330141 0.
0.614009 0.0330137 0.
0.61601 0.0330133 0.
0.618011 0.0330139 0.
0.620012 0.033015 0.
0.622013 0.0330161 0.
0.624014 0.0330155 0.
0.626015 0.0330146 0.
0.628017 0.033014 0.
0.630018 0.0330146 0.
0.632019 0.0330152 0.
0.63402 0.0330158 0.
0.636021 0.0330164 0.
0.638023 0.0330169 0.
0.640024 0.0330168 0.
0.642026 0.0330161 0.
0.644028 0.0330154 0.
0.64603 0.0330157 0.
0.648032 0.0330162 0.
0.650034 0.0330168 0.
0.652035 0.0330164 0.
0.654037 0.033016 0.
0.656038 0.0330159 0.
0.658039 0.0330167 0.
0.660041 0.0330175 0.
0.662042 0.0330178 0.
0.664043 0.0330173 0.
0.666043 0.0330169 0.
0.668045 0.0330172 0.
0.670046 0.0330179 0.
0.672047 0.0330187 0.
0.674048 0.033018 0.
0.676049 0.0330172 0.
0.67805 0.0330167 0.
0.680051 0.0330175 0.
0.682051 0.0330183 0.
0.684052 0.033019 0.
0.686053 0.0330193 0.
0.688054 0.0330196 0.
0.690054 0.03302 0.
0.692055 0.0330205 0.
0.694056 0.0330211 0.
0.696056 0.0330222 0.
0.698057 0.0330234 0.
0.499945 0.0350264 0.
0.501946 0.0350258 0.
0.503947 0.0350257 0.
0.505948 0.0350253 0.
0.507948 0.0350242 0.
0.509948 0.035023 0.
0.511948 0.0350219 0.
0.513949 0.0350207 0.
0.51595 0.0350195 0.
0.517951 0.0350196 0.
0.519951 0.0350204 0.
0.521952 0.0350212 0.
0.523953 0.035021 0.
0.525954 0.0350207 0.
0.527954 0.0350202 0.
0.529956 0.0350194 0.
0.531957 0.0350186 0.
0.533959 0.0350182 0.
0.53596 0.0350187 0.
0.537962 0.0350192 0.
0.539964 0.0350192 0.
0.541965 0.0350189 0.
0.543966 0.0350185 0.
0.545967 0.0350186 0.
0.547968 0.0350189 0.
0.549969 0.0350192 0.
0.55197 0.0350188 0.
0.553971 0.0350183 0.
0.555972 0.0350179 0.
0.557973 0.0350175 0.
0.559975 0.0350172 0.
0.561976 0.0350169 0.
0.563977 0.0350167 0.
0.565978 0.0350164 0.
0.567979 0.0350159 0.
0.56998 0.0350152 0.
0.571981 0.0350146 0.
0.573982 0.0350145 0.
0.575983 0.0350145 0.
0.577984 0.0350145 0.
0.579985 0.0350144 0.
0.581987 0.0350143 0.
0.583988 0.0350143 0.
0.585988 0.0350145 0.
0.587989 0.0350148 0.
0.58999 0.0350144 0.
0.591992 0.0350136 0.
0.593994 0.0350128 0.
0.595996 0.0350131 0.
0.597998 0.0350137 0.
0.6 0.0350143 0.
0.602002 0.035015 0.
0.604004 0.0350157 0.
0.606005 0.0350161 0.
0.608006 0.0350154 0.
0.610007 0.0350147 0.
0.612008 0.0350142 0.
0.614009 0.0350138 0.
0.616009 0.0350133 0.
0.61801 0.0350138 0.
0.620011 0.0350148 0.
0.622012 0.0350158 0.
0.624013 0.0350153 0.
0.626015 0.0350146 0.
0.628016 0.0350142 0.
0.630017 0.0350147 0.
0.632018 0.0350153 0.
0.634019 0.0350158 0.
0.636021 0.0350164 0.
0.638022 0.035017 0.
0.640024 0.0350168 0.
0.642025 0.0350158 0.
0.644027 0.0350149 0.
0.646029 0.0350155 0.
0.648031 0.0350166 0.
0.650033 0.0350176 0.
0.652034 0.035017 0.
0.654036 0.0350164 0.
0.656037 0.0350161 0.
0.658039 0.0350166 0.
0.66004 0.0350172 0.
0.662041 0.0350175 0.
0.664042 0.0350175 0.
0.666043 0.0350174 0.
0.668044 0.0350178 0.
0.670045 0.0350184 0.
0.672045 0.0350189 0.
0.674047 0.0350182 0.
0.676048 0.0350174 0.
0.678049 0.0350169 0.
0.68005 0.0350176 0.
0.68205 0.0350184 0.
0.684051 0.035019 0.
0.686052 0.0350195 0.
0.688053 0.03502 0.
0.690054 0.0350206 0.
0.692055 0.0350213 0.
0.694056 0.0350219 0.
0.696056 0.0350231 0.
0.698056 0.0350244 0.
0.499946 0.0370272 0.
0.501947 0.0370266 0.
0.503948 0.0370262 0.
0.505949 0.0370257 0.
0.507949 0.0370246 0.
0.509949 0.0370236 0.
0.51195 0.0370225 0.
0.513951 0.0370213 0.
0.515952 0.0370202 0.
0.517952 0.0370201 0.
0.519953 0.0370206 0.
0.521954 0.037021 0.
0.523955 0.0370207 0.
0.525955 0.0370203 0.
0.527956 0.0370199 0.
0.529958 0.0370192 0.
0.531959 0.0370186 0.
0.53396 0.0370183 0.
0.535962 0.0370187 0.
0.537963 0.0370191 0.
0.539965 0.0370191 0.
0.541966 0.0370187 0.
0.543967 0.0370183 0.
0.545968 0.0370185 0.
0.547969 0.0370189 0.
0.54997 0.0370193 0.
0.551971 0.0370189 0.
0.553972 0.0370185 0.
0.555973 0.0370181 0.
0.557974 0.0370177 0.
0.559975 0.0370173 0.
0.561976 0.0370169 0.
0.563977 0.0370165 0.
0.565978 0.0370161 0.
0.567979 0.0370155 0.
0.56998 0.0370149 0.
0.571981 0.0370142 0.
0.573982 0.0370143 0.
0.575983 0.0370145 0.
0.577984 0.0370146 0.
0.579986 0.0370144 0.
0.581987 0.0370141 0.
0.583988 0.037014 0.
0.585989 0.0370142 0.
0.58799 0.0370144 0.
0.589991 0.037014 0.
0.591992 0.0370132 0.
0.593994 0.0370124 0.
0.595996 0.0370127 0.
0.597998 0.0370133 0.
0.6 0.0370139 0.
0.602002 0.0370145 0.
0.604003 0.0370151 0.
0.606005 0.0370155 0.
0.608006 0.0370151 0.
0.610007 0.0370147 0.
0.612008 0.0370144 0.
0.614009 0.0370142 0.
0.616009 0.037014 0.
0.61801 0.0370141 0.
0.620011 0.0370145 0.
0.622012 0.0370148 0.
0.624013 0.0370146 0.
0.626015 0.0370143 0.
0.628016 0.0370141 0.
0.630017 0.0370146 0.
0.632018 0.0370151 0.
0.634019 0.0370156 0.
0.63602 0.0370163 0.
0.638022 0.0370171 0.
0.640023 0.0370168 0.
0.642025 0.0370158 0.
0.644026 0.0370147 0.
0.646028 0.0370151 0.
0.64803 0.0370158 0.
0.650032 0.0370165 0.
0.652034 0.0370164 0.
0.654035 0.0370164 0.
0.656036 0.0370164 0.
0.658037 0.0370169 0.
0.660038 0.0370174 0.
0.662039 0.0370177 0.
0.66404 0.0370178 0.
0.666041 0.0370179 0.
0.668042 0.0370181 0.
0.670043 0.0370184 0.
0.672044 0.0370186 0.
0.674046 0.0370181 0.
0.676047 0.0370174 0.
0.678048 0.037017 0.
0.680049 0.0370177 0.
0.68205 0.0370184 0.
0.68405 0.037019 0.
0.686051 0.0370196 0.
0.688052 0.0370201 0.
0.690053 0.0370207 0.
0.692054 0.0370213 0.
0.694055 0.0370219 0.
0.696055 0.0370232 0.
0.698055 0.0370248 0.
0.499948 0.039028 0.
0.501948 0.0390274 0.
0.503949 0.0390268 0.
0.50595 0.0390261 0.
0.50795 0.0390251 0.
0.50995 0.0390241 0.
0.511951 0.0390231 0.
0.513952 0.039022 0.
0.515953 0.0390208 0.
0.517954 0.0390206 0.
0.519955 0.0390207 0.
0.521955 0.0390209 0.
0.523956 0.0390205 0.
0.525957 0.03902 0.
0.527958 0.0390195 0.
0.529959 0.039019 0.
0.531961 0.0390186 0.
0.533962 0.0390183 0.
0.535963 0.0390187 0.
0.537964 0.039019 0.
0.539965 0.039019 0.
0.541967 0.0390185 0.
0.543968 0.039018 0.
0.545969 0.0390183 0.
0.54797 0.0390189 0.
0.549971 0.0390194 0.
0.551972 0.039019 0.
0.553973 0.0390186 0.
0.555974 0.0390182 0.
0.557975 0.0390178 0.
0.559975 0.0390174 0.
0.561976 0.039017 0.
0.563977 0.0390163 0.
0.565978 0.0390157 0.
0.567979 0.0390151 0.
0.56998 0.0390145 0.
0.571981 0.0390139 0.
0.573982 0.0390142 0.
0.575983 0.0390145 0.
0.577984 0.0390148 0.
0.579986 0.0390143 0.
0.581988 0.0390139 0.
0.583989 0.0390137 0.
0.58599 0.0390139 0.
0.587991 0.0390141 0.
0.589992 0.0390137 0.
0.591992 0.0390128 0.
0.593993 0.0390119 0.
0.595995 0.0390122 0.
0.597998 0.0390129 0.
0.6 0.0390135 0.
0.602002 0.039014 0.
0.604003 0.0390145 0.
0.606004 0.0390149 0.
0.608006 0.0390147 0.
0.610007 0.0390146 0.
0.612008 0.0390145 0.
0.614009 0.0390146 0.
0.61601 0.0390146 0.
0.618011 0.0390144 0.
0.620011 0.0390141 0.
0.622012 0.0390138 0.
0.624013 0.0390138 0.
0.626014 0.0390139 0.
0.628015 0.039014 0.
0.630017 0.0390144 0.
0.632018 0.0390149 0.
0.634019 0.0390154 0.
0.63602 0.0390163 0.
0.638022 0.0390171 0.
0.640023 0.0390169 0.
0.642024 0.0390157 0.
0.644025 0.0390146 0.
0.646027 0.0390146 0.
0.64803 0.039015 0.
0.650032 0.0390154 0.
0.652033 0.0390159 0.
0.654034 0.0390164 0.
0.656035 0.0390168 0.
0.658036 0.0390172 0.
0.660037 0.0390176 0.
0.662038 0.0390179 0.
0.664039 0.0390182 0.
0.66604 0.0390184 0.
0.668041 0.0390184 0.
0.670042 0.0390184 0.
0.672043 0.0390183 0.
0.674045 0.0390179 0.
0.676046 0.0390174 0.
0.678047 0.039017 0.
0.680048 0.0390177 0.
0.682049 0.0390183 0.
0.684049 0.0390189 0.
0.68605 0.0390196 0.
0.688051 0.0390203 0.
0.690052 0.0390208 0.
0.692053 0.0390213 0.
0.694054 0.0390218 0.
0.696054 0.0390233 0.
0.698054 0.0390252 0.
0.499949 0.0410287 0.
0.50195 0.0410279 0.
0.50395 0.0410271 0.
0.505951 0.0410263 0.
0.507951 0.0410254 0.
0.509951 0.0410246 0.
0.511952 0.0410236 0.
0.513953 0.0410224 0.
0.515955 0.0410213 0.
0.517955 0.0410209 0.
0.519956 0.0410209 0.
0.521957 0.041021 0.
0.523957 0.0410204 0.
0.525958 0.0410198 0.
0.527959 0.0410192 0.
0.529961 0.0410189 0.
0.531962 0.0410187 0.
0.533963 0.0410185 0.
0.535964 0.0410187 0.
0.537965 0.0410189 0.
0.539966 0.0410188 0.
0.541967 0.0410184 0.
0.543969 0.0410181 0.
0.54597 0.0410184 0.
0.54797 0.0410189 0.
0.549971 0.0410195 0.
0.551972 0.0410192 0.
0.553973 0.0410188 0.
0.555974 0.0410185 0.
0.557975 0.041018 0.
0.559976 0.0410176 0.
0.561977 0.041017 0.
0.563978 0.0410163 0.
0.565979 0.0410155 0.
0.56798 0.0410149 0.
0.569981 0.0410142 0.
0.571981 0.0410136 0.
0.573982 0.041014 0.
0.575984 0.0410144 0.
0.577985 0.0410148 0.
0.579986 0.0410142 0.
0.581988 0.0410137 0.
0.58399 0.0410135 0.
0.585991 0.0410137 0.
0.587992 0.041014 0.
0.589993 0.0410136 0.
0.591993 0.0410127 0.
0.593994 0.0410117 0.
0.595996 0.0410121 0.
0.597998 0.0410128 0.
0.6 0.0410135 0.
0.602002 0.041014 0.
0.604003 0.0410145 0.
0.606004 0.041015 0.
0.608005 0.0410148 0.
0.610006 0.0410147 0.
0.612007 0.0410147 0.
0.614008 0.0410148 0.
0.616009 0.0410149 0.
0.61801 0.0410146 0.
0.620011 0.0410141 0.
0.622012 0.0410136 0.
0.624013 0.0410137 0.
0.626014 0.041014 0.
0.628015 0.0410142 0.
0.630016 0.0410145 0.
0.632017 0.0410148 0.
0.634019 0.0410152 0.
0.63602 0.041016 0.
0.638021 0.0410167 0.
0.640023 0.0410165 0.
0.642024 0.0410154 0.
0.644025 0.0410143 0.
0.646027 0.0410143 0.
0.648029 0.0410146 0.
0.650031 0.0410148 0.
0.652032 0.0410156 0.
0.654033 0.0410163 0.
0.656034 0.0410169 0.
0.658035 0.0410174 0.
0.660036 0.0410179 0.
0.662037 0.0410182 0.
0.664038 0.0410184 0.
0.666039 0.0410185 0.
0.66804 0.0410185 0.
0.670041 0.0410184 0.
0.672042 0.0410183 0.
0.674044 0.041018 0.
0.676045 0.0410176 0.
0.678046 0.0410173 0.
0.680047 0.0410179 0.
0.682048 0.0410185 0.
0.684048 0.0410192 0.
0.686049 0.0410199 0.
0.68805 0.0410206 0.
0.690051 0.0410212 0.
0.692051 0.0410217 0.
0.694052 0.0410222 0.
0.696053 0.0410238 0.
0.698053 0.0410256 0.
0.499951 0.0430294 0.
0.501951 0.0430283 0.
0.503952 0.0430274 0.
0.505952 0.0430265 0.
0.507953 0.0430257 0.
0.509953 0.0430249 0.
0.511954 0.0430239 0.
0.513955 0.0430227 0.
0.515956 0.0430215 0.
0.517956 0.0430211 0.
0.519957 0.0430212 0.
0.521957 0.0430213 0.
0.523958 0.0430206 0.
0.525959 0.0430198 0.
0.52796 0.043019 0.
0.529962 0.0430189 0.
0.531963 0.0430189 0.
0.533964 0.0430188 0.
0.535965 0.0430187 0.
0.537966 0.0430186 0.
0.539968 0.0430185 0.
0.541968 0.0430184 0.
0.543969 0.0430183 0.
0.54597 0.0430186 0.
0.547971 0.043019 0.
0.549972 0.0430195 0.
0.551973 0.0430192 0.
0.553974 0.043019 0.
0.555975 0.0430187 0.
0.557976 0.0430182 0.
0.559977 0.0430178 0.
0.561978 0.0430172 0.
0.563979 0.0430163 0.
0.56598 0.0430155 0.
0.567981 0.0430148 0.
0.569982 0.0430141 0.
0.571982 0.0430133 0.
0.573983 0.0430137 0.
0.575985 0.0430143 0.
0.577986 0.0430147 0.
0.579987 0.0430141 0.
0.581989 0.0430135 0.
0.58399 0.0430133 0.
0.585991 0.0430138 0.
0.587993 0.0430143 0.
0.589994 0.0430139 0.
0.591994 0.0430128 0.
0.593995 0.0430118 0.
0.595997 0.0430122 0.
0.597999 0.043013 0.
0.6 0.0430139 0.
0.602002 0.0430145 0.
0.604003 0.0430152 0.
0.606004 0.0430157 0.
0.608005 0.0430153 0.
0.610006 0.043015 0.
0.612007 0.0430148 0.
0.614008 0.0430148 0.
0.616009 0.0430148 0.
0.61801 0.0430147 0.
0.620011 0.0430144 0.
0.622012 0.0430141 0.
0.624013 0.0430143 0.
0.626014 0.0430144 0.
0.628016 0.0430146 0.
0.630016 0.0430147 0.
0.632017 0.0430148 0.
0.634018 0.043015 0.
0.63602 0.0430155 0.
0.638021 0.0430159 0.
0.640022 0.0430156 0.
0.642023 0.0430147 0.
0.644025 0.0430139 0.
0.646026 0.043014 0.
0.648028 0.0430144 0.
0.65003 0.0430148 0.
0.652031 0.0430154 0.
0.654031 0.0430161 0.
0.656032 0.0430168 0.
0.658033 0.0430176 0.
0.660035 0.0430183 0.
0.662036 0.0430186 0.
0.664037 0.0430184 0.
0.666038 0.0430183 0.
0.668039 0.0430183 0.
0.67004 0.0430184 0.
0.672041 0.0430185 0.
0.674043 0.0430183 0.
0.676044 0.043018 0.
0.678045 0.0430178 0.
0.680046 0.0430184 0.
0.682046 0.043019 0.
0.684047 0.0430197 0.
0.686048 0.0430204 0.
0.688049 0.0430212 0.
0.69005 0.0430219 0.
0.69205 0.0430226 0.
0.694051 0.0430233 0.
0.696051 0.0430246 0.
0.698051 0.0430262 0.
0.499952 0.0450301 0.
0.501952 0.0450288 0.
0.503953 0.0450276 0.
0.505954 0.0450266 0.
0.507954 0.0450259 0.
0.509955 0.0450252 0.
0.511956 0.0450243 0.
0.513956 0.045023 0.
0.515957 0.0450217 0.
0.517957 0.0450213 0.
0.519957 0.0450215 0.
0.521958 0.0450216 0.
0.523959 0.0450208 0.
0.52596 0.0450198 0.
0.527961 0.0450189 0.
0.529963 0.045019 0.
0.531964 0.0450191 0.
0.533965 0.045019 0.
0.535967 0.0450187 0.
0.537968 0.0450183 0.
0.539969 0.0450183 0.
0.54197 0.0450185 0.
0.54397 0.0450186 0.
0.545971 0.0450189 0.
0.547972 0.0450192 0.
0.549972 0.0450194 0.
0.551973 0.0450193 0.
0.553974 0.0450192 0.
0.555975 0.0450189 0.
0.557976 0.0450185 0.
0.559977 0.045018 0.
0.561978 0.0450173 0.
0.56398 0.0450164 0.
0.565981 0.0450155 0.
0.567982 0.0450147 0.
0.569983 0.0450139 0.
0.571983 0.0450131 0.
0.573984 0.0450135 0.
0.575986 0.0450141 0.
0.577987 0.0450146 0.
0.579988 0.0450139 0.
0.581989 0.0450133 0.
0.583991 0.0450131 0.
0.585992 0.0450138 0.
0.587994 0.0450145 0.
0.589995 0.0450142 0.
0.591996 0.045013 0.
0.593997 0.0450118 0.
0.595998 0.0450123 0.
0.597999 0.0450133 0.
0.6 0.0450142 0.
0.602001 0.045015 0.
0.604002 0.0450159 0.
0.606004 0.0450164 0.
0.608005 0.0450158 0.
0.610006 0.0450153 0.
0.612007 0.0450149 0.
0.614008 0.0450148 0.
0.616009 0.0450148 0.
0.61801 0.0450147 0.
0.620011 0.0450147 0.
0.622012 0.0450147 0.
0.624013 0.0450148 0.
0.626014 0.0450149 0.
0.628016 0.045015 0.
0.630016 0.045015 0.
0.632017 0.0450149 0.
0.634018 0.0450149 0.
0.636019 0.0450149 0.
0.63802 0.045015 0.
0.640022 0.0450147 0.
0.642023 0.0450141 0.
0.644024 0.0450135 0.
0.646026 0.0450137 0.
0.648027 0.0450142 0.
0.650029 0.0450147 0.
0.652029 0.0450153 0.
0.65403 0.045016 0.
0.656031 0.0450167 0.
0.658032 0.0450177 0.
0.660034 0.0450188 0.
0.662035 0.045019 0.
0.664036 0.0450185 0.
0.666037 0.045018 0.
0.668038 0.0450181 0.
0.670039 0.0450184 0.
0.672041 0.0450187 0.
0.674042 0.0450186 0.
0.676043 0.0450184 0.
0.678044 0.0450183 0.
0.680044 0.0450189 0.
0.682045 0.0450195 0.
0.684046 0.0450202 0.
0.686047 0.045021 0.
0.688048 0.0450218 0.
0.690048 0.0450226 0.
0.692049 0.0450234 0.
0.69405 0.0450243 0.
0.69605 0.0450254 0.
0.69805 0.0450266 0.
0.499953 0.0470298 0.
0.501953 0.0470288 0.
0.503954 0.0470278 0.
0.505954 0.0470269 0.
0.507955 0.0470262 0.
0.509956 0.0470255 0.
0.511956 0.0470246 0.
0.513957 0.0470234 0.
0.515957 0.0470222 0.
0.517958 0.0470216 0.
0.519959 0.0470214 0.
0.521959 0.0470212 0.
0.52396 0.0470206 0.
0.525961 0.04702 0.
0.527962 0.0470195 0.
0.529964 0.0470191 0.
0.531965 0.0470186 0.
0.533966 0.0470183 0.
0.535967 0.0470182 0.
0.537969 0.0470182 0.
0.53997 0.0470181 0.
0.54197 0.0470181 0.
0.543971 0.0470181 0.
0.545972 0.0470185 0.
0.547973 0.047019 0.
0.549974 0.0470195 0.
0.551974 0.0470192 0.
0.553975 0.0470189 0.
0.555976 0.0470185 0.
0.557977 0.0470182 0.
0.559978 0.0470179 0.
0.561979 0.0470172 0.
0.563981 0.0470162 0.
0.565982 0.0470151 0.
0.567983 0.0470144 0.
0.569984 0.0470137 0.
0.571984 0.0470131 0.
0.573986 0.0470136 0.
0.575987 0.0470142 0.
0.577988 0.0470148 0.
0.579989 0.0470142 0.
0.58199 0.0470136 0.
0.583991 0.0470134 0.
0.585993 0.0470139 0.
0.587994 0.0470144 0.
0.589995 0.0470142 0.
0.591996 0.0470133 0.
0.593997 0.0470124 0.
0.595998 0.0470128 0.
0.597999 0.0470135 0.
0.600001 0.0470142 0.
0.602001 0.0470148 0.
0.604002 0.0470155 0.
0.606003 0.0470159 0.
0.608004 0.0470155 0.
0.610006 0.0470151 0.
0.612007 0.0470149 0.
0.614008 0.0470149 0.
0.616009 0.0470148 0.
0.61801 0.0470147 0.
0.62001 0.0470144 0.
0.622011 0.0470141 0.
0.624013 0.0470145 0.
0.626014 0.047015 0.
0.628015 0.0470153 0.
0.630016 0.0470151 0.
0.632017 0.0470148 0.
0.634017 0.0470146 0.
0.636019 0.0470145 0.
0.63802 0.0470144 0.
0.640021 0.0470142 0.
0.642022 0.0470138 0.
0.644024 0.0470134 0.
0.646025 0.0470139 0.
0.648027 0.0470146 0.
0.650028 0.0470153 0.
0.652029 0.0470156 0.
0.654029 0.0470159 0.
0.65603 0.0470164 0.
0.658032 0.0470171 0.
0.660033 0.0470179 0.
0.662034 0.0470182 0.
0.664035 0.047018 0.
0.666036 0.0470179 0.
0.668037 0.047018 0.
0.670038 0.0470183 0.
0.67204 0.0470186 0.
0.674041 0.0470185 0.
0.676041 0.0470184 0.
0.678042 0.0470183 0.
0.680043 0.0470191 0.
0.682044 0.0470198 0.
0.684045 0.0470206 0.
0.686045 0.0470215 0.
0.688046 0.0470224 0.
0.690047 0.0470233 0.
0.692047 0.0470242 0.
0.694048 0.0470251 0.
0.696048 0.0470261 0.
0.698049 0.0470272 0.
0.499953 0.0490296 0.
0.501954 0.0490289 0.
0.503955 0.0490281 0.
0.505955 0.0490273 0.
0.507956 0.0490266 0.
0.509956 0.0490258 0.
0.511956 0.049025 0.
0.513957 0.0490239 0.
0.515958 0.0490228 0.
0.517959 0.049022 0.
0.51996 0.0490213 0.
0.521961 0.0490207 0.
0.523962 0.0490205 0.
0.525963 0.0490203 0.
0.527963 0.0490201 0.
0.529965 0.0490191 0.
0.531966 0.0490182 0.
0.533967 0.0490176 0.
0.535968 0.0490178 0.
0.537969 0.049018 0.
0.53997 0.0490179 0.
0.541971 0.0490177 0.
0.543972 0.0490175 0.
0.545973 0.0490181 0.
0.547974 0.0490188 0.
0.549975 0.0490195 0.
0.551976 0.049019 0.
0.553976 0.0490185 0.
0.555977 0.0490181 0.
0.557978 0.0490179 0.
0.559979 0.0490177 0.
0.561981 0.0490171 0.
0.563981 0.0490159 0.
0.565982 0.0490148 0.
0.567983 0.0490141 0.
0.569985 0.0490136 0.
0.571986 0.0490131 0.
0.573987 0.0490137 0.
0.575988 0.0490144 0.
0.57799 0.0490149 0.
0.57999 0.0490144 0.
0.581991 0.049014 0.
0.583992 0.0490138 0.
0.585993 0.049014 0.
0.587994 0.0490143 0.
0.589995 0.0490141 0.
0.591996 0.0490136 0.
0.593997 0.0490131 0.
0.595998 0.0490133 0.
0.598 0.0490138 0.
0.600001 0.0490142 0.
0.602002 0.0490146 0.
0.604002 0.0490151 0.
0.606003 0.0490154 0.
0.608004 0.0490152 0.
0.610005 0.049015 0.
0.612007 0.0490149 0.
0.614008 0.0490149 0.
0.616009 0.0490149 0.
0.618009 0.0490146 0.
0.62001 0.0490141 0.
0.622011 0.0490136 0.
0.624012 0.0490142 0.
0.626013 0.049015 0.
0.628014 0.0490156 0.
0.630015 0.0490152 0.
0.632016 0.0490148 0.
0.634017 0.0490144 0.
0.636018 0.0490141 0.
0.638019 0.0490138 0.
0.64002 0.0490136 0.
0.642022 0.0490135 0.
0.644023 0.0490133 0.
0.646024 0.0490141 0.
0.648026 0.049015 0.
0.650027 0.049016 0.
0.652028 0.0490159 0.
0.654029 0.0490159 0.
0.65603 0.049016 0.
0.658031 0.0490165 0.
0.660032 0.049017 0.
0.662033 0.0490174 0.
0.664035 0.0490176 0.
0.666036 0.0490177 0.
0.668037 0.049018 0.
0.670038 0.0490182 0.
0.672039 0.0490185 0.
0.674039 0.0490184 0.
0.67604 0.0490183 0.
0.678041 0.0490183 0.
0.680042 0.0490192 0.
0.682043 0.0490201 0.
0.684044 0.0490211 0.
0.686044 0.0490221 0.
0.688044 0.0490231 0.
0.690045 0.049024 0.
0.692045 0.049025 0.
0.694046 0.0490259 0.
0.696047 0.0490268 0.
0.698049 0.0490278 0.
0.499954 0.0510296 0.
0.501955 0.0510289 0.
0.503956 0.0510282 0.
0.505956 0.0510276 0.
0.507956 0.0510269 0.
0.509957 0.0510262 0.
0.511957 0.0510254 0.
0.513958 0.0510244 0.
0.515958 0.0510233 0.
0.517959 0.0510224 0.
0.519961 0.0510214 0.
0.521962 0.0510204 0.
0.523963 0.0510204 0.
0.525964 0.0510205 0.
0.527964 0.0510206 0.
0.529965 0.0510194 0.
0.531967 0.0510182 0.
0.533968 0.0510175 0.
0.535969 0.0510177 0.
0.53797 0.0510179 0.
0.539971 0.0510178 0.
0.541972 0.0510175 0.
0.543973 0.0510172 0.
0.545974 0.0510178 0.
0.547975 0.0510186 0.
0.549976 0.0510194 0.
0.551976 0.0510189 0.
0.553977 0.0510183 0.
0.555978 0.0510178 0.
0.557979 0.0510176 0.
0.55998 0.0510174 0.
0.561981 0.0510167 0.
0.563982 0.0510157 0.
0.565982 0.0510146 0.
0.567984 0.051014 0.
0.569985 0.0510136 0.
0.571986 0.0510132 0.
0.573988 0.0510138 0.
0.575989 0.0510144 0.
0.57799 0.0510149 0.
0.579991 0.0510146 0.
0.581992 0.0510144 0.
0.583993 0.0510142 0.
0.585994 0.0510143 0.
0.587995 0.0510143 0.
0.589996 0.0510141 0.
0.591996 0.0510136 0.
0.593997 0.0510132 0.
0.595998 0.0510134 0.
0.597999 0.0510139 0.
0.600001 0.0510144 0.
0.602001 0.0510146 0.
0.604002 0.0510148 0.
0.606003 0.051015 0.
0.608004 0.0510149 0.
0.610005 0.0510148 0.
0.612006 0.0510148 0.
0.614007 0.0510148 0.
0.616008 0.0510148 0.
0.618009 0.0510145 0.
0.62001 0.0510141 0.
0.622011 0.0510136 0.
0.624012 0.0510143 0.
0.626013 0.0510151 0.
0.628014 0.0510158 0.
0.630015 0.0510154 0.
0.632016 0.0510149 0.
0.634017 0.0510145 0.
0.636018 0.051014 0.
0.638019 0.0510136 0.
0.64002 0.0510134 0.
0.642021 0.0510133 0.
0.644023 0.0510133 0.
0.646024 0.051014 0.
0.648025 0.051015 0.
0.650026 0.051016 0.
0.652027 0.0510159 0.
0.654028 0.0510158 0.
0.656029 0.0510158 0.
0.65803 0.0510162 0.
0.660031 0.0510167 0.
0.662033 0.0510171 0.
0.664034 0.0510174 0.
0.666035 0.0510177 0.
0.668036 0.051018 0.
0.670037 0.0510182 0.
0.672037 0.0510184 0.
0.674038 0.0510185 0.
0.676039 0.0510184 0.
0.67804 0.0510186 0.
0.680041 0.0510196 0.
0.682041 0.0510207 0.
0.684042 0.0510217 0.
0.686043 0.0510226 0.
0.688043 0.0510235 0.
0.690043 0.0510244 0.
0.692044 0.0510253 0.
0.694044 0.0510262 0.
0.696046 0.051027 0.
0.698047 0.0510277 0.
0.499956 0.0530296 0.
0.501956 0.0530289 0.
0.503956 0.0530284 0.
0.505957 0.0530279 0.
0.507957 0.0530273 0.
0.509958 0.0530266 0.
0.511958 0.0530258 0.
0.513959 0.0530249 0.
0.51596 0.0530239 0.
0.517961 0.0530228 0.
0.519962 0.0530215 0.
0.521962 0.0530202 0.
0.523963 0.0530204 0.
0.525964 0.0530207 0.
0.527965 0.053021 0.
0.529966 0.0530198 0.
0.531967 0.0530187 0.
0.533969 0.0530179 0.
0.53597 0.0530179 0.
0.537971 0.0530178 0.
0.539972 0.0530177 0.
0.541973 0.0530174 0.
0.543973 0.0530171 0.
0.545974 0.0530177 0.
0.547975 0.0530185 0.
0.549976 0.0530193 0.
0.551977 0.0530188 0.
0.553978 0.0530183 0.
0.555979 0.0530178 0.
0.55798 0.0530172 0.
0.559981 0.0530167 0.
0.561981 0.0530161 0.
0.563982 0.0530153 0.
0.565983 0.0530145 0.
0.567984 0.0530141 0.
0.569985 0.0530137 0.
0.571986 0.0530134 0.
0.573988 0.0530138 0.
0.575989 0.0530143 0.
0.577991 0.0530147 0.
0.579991 0.0530147 0.
0.581992 0.0530148 0.
0.583993 0.0530147 0.
0.585994 0.0530146 0.
0.587995 0.0530145 0.
0.589996 0.0530141 0.
0.591996 0.0530134 0.
0.593997 0.0530128 0.
0.595998 0.0530132 0.
0.597999 0.0530139 0.
0.6 0.0530147 0.
0.602001 0.0530147 0.
0.604002 0.0530147 0.
0.606003 0.0530148 0.
0.608004 0.0530147 0.
0.610005 0.0530147 0.
0.612006 0.0530147 0.
0.614007 0.0530147 0.
0.616008 0.0530147 0.
0.618008 0.0530145 0.
0.620009 0.0530144 0.
0.62201 0.0530142 0.
0.624012 0.0530147 0.
0.626013 0.0530153 0.
0.628014 0.0530158 0.
0.630016 0.0530155 0.
0.632017 0.0530153 0.
0.634018 0.0530149 0.
0.636019 0.0530143 0.
0.63802 0.0530138 0.
0.640021 0.0530135 0.
0.642021 0.0530133 0.
0.644022 0.0530132 0.
0.646023 0.0530138 0.
0.648024 0.0530146 0.
0.650026 0.0530154 0.
0.652027 0.0530155 0.
0.654028 0.0530156 0.
0.656029 0.0530158 0.
0.65803 0.0530163 0.
0.660031 0.0530168 0.
0.662032 0.0530172 0.
0.664033 0.0530175 0.
0.666034 0.0530178 0.
0.668035 0.053018 0.
0.670035 0.0530183 0.
0.672036 0.0530185 0.
0.674037 0.0530187 0.
0.676038 0.0530189 0.
0.678039 0.0530191 0.
0.680039 0.0530203 0.
0.68204 0.0530214 0.
0.684041 0.0530224 0.
0.686041 0.053023 0.
0.688042 0.0530236 0.
0.690042 0.0530244 0.
0.692043 0.0530252 0.
0.694043 0.053026 0.
0.696044 0.0530266 0.
0.698046 0.0530271 0.
0.499957 0.0550296 0.
0.501957 0.0550289 0.
0.503957 0.0550286 0.
0.505958 0.0550282 0.
0.507958 0.0550276 0.
0.509958 0.055027 0.
0.511959 0.0550263 0.
0.51396 0.0550254 0.
0.515961 0.0550245 0.
0.517962 0.0550232 0.
0.519962 0.0550216 0.
0.521963 0.0550201 0.
0.523964 0.0550204 0.
0.525965 0.0550209 0.
0.527966 0.0550214 0.
0.529967 0.0550203 0.
0.531968 0.0550192 0.
0.533969 0.0550183 0.
0.535971 0.055018 0.
0.537972 0.0550178 0.
0.539973 0.0550175 0.
0.541973 0.0550173 0.
0.543974 0.0550171 0.
0.545975 0.0550176 0.
0.547975 0.0550183 0.
0.549976 0.0550191 0.
0.551977 0.0550187 0.
0.553978 0.0550183 0.
0.555979 0.0550177 0.
0.55798 0.0550169 0.
0.559981 0.0550161 0.
0.561982 0.0550154 0.
0.563982 0.0550149 0.
0.565983 0.0550145 0.
0.567984 0.0550141 0.
0.569985 0.0550139 0.
0.571986 0.0550136 0.
0.573988 0.0550139 0.
0.575989 0.0550142 0.
0.577991 0.0550146 0.
0.579992 0.0550148 0.
0.581992 0.0550151 0.
0.583993 0.0550152 0.
0.585994 0.0550149 0.
0.587995 0.0550146 0.
0.589996 0.0550141 0.
0.591996 0.0550132 0.
0.593997 0.0550124 0.
0.595998 0.055013 0.
0.597998 0.055014 0.
0.599999 0.055015 0.
0.602 0.0550148 0.
0.604002 0.0550147 0.
0.606004 0.0550145 0.
0.608004 0.0550145 0.
0.610004 0.0550145 0.
0.612005 0.0550145 0.
0.614006 0.0550145 0.
0.616007 0.0550145 0.
0.618008 0.0550146 0.
0.620009 0.0550147 0.
0.62201 0.0550148 0.
0.624011 0.0550151 0.
0.626013 0.0550155 0.
0.628014 0.0550158 0.
0.630016 0.0550157 0.
0.632017 0.0550156 0.
0.634019 0.0550153 0.
0.63602 0.0550147 0.
0.638021 0.055014 0.
0.640021 0.0550135 0.
0.642021 0.0550134 0.
0.644021 0.0550132 0.
0.646022 0.0550136 0.
0.648024 0.0550142 0.
0.650025 0.0550148 0.
0.652026 0.0550151 0.
0.654027 0.0550154 0.
0.656028 0.0550158 0.
0.658029 0.0550164 0.
0.66003 0.0550169 0.
0.662031 0.0550173 0.
0.664031 0.0550176 0.
0.666032 0.0550178 0.
0.668033 0.0550181 0.
0.670034 0.0550183 0.
0.672035 0.0550185 0.
0.674036 0.0550189 0.
0.676037 0.0550193 0.
0.678038 0.0550197 0.
0.680038 0.0550209 0.
0.682038 0.0550222 0.
0.684039 0.0550231 0.
0.68604 0.0550234 0.
0.688041 0.0550238 0.
0.690041 0.0550244 0.
0.692042 0.0550251 0.
0.694042 0.0550258 0.
0.696043 0.0550262 0.
0.698044 0.0550266 0.
0.499957 0.0570303 0.
0.501957 0.0570295 0.
0.503958 0.057029 0.
0.505958 0.0570285 0.
0.507959 0.0570278 0.
0.50996 0.057027 0.
0.511961 0.0570262 0.
0.513961 0.0570254 0.
0.515962 0.0570247 0.
0.517963 0.0570234 0.
0.519964 0.057022 0.
0.521964 0.0570205 0.
0.523965 0.0570206 0.
0.525966 0.0570208 0.
0.527967 0.057021 0.
0.529968 0.0570201 0.
0.53197 0.0570192 0.
0.533971 0.0570185 0.
0.535972 0.0570183 0.
0.537972 0.057018 0.
0.539973 0.0570178 0.
0.541974 0.0570176 0.
0.543974 0.0570173 0.
0.545975 0.0570176 0.
0.547976 0.0570179 0.
0.549977 0.0570182 0.
0.551978 0.0570181 0.
0.553979 0.057018 0.
0.55598 0.0570177 0.
0.557981 0.0570168 0.
0.559982 0.0570159 0.
0.561983 0.0570151 0.
0.563984 0.0570146 0.
0.565985 0.057014 0.
0.567985 0.0570138 0.
0.569986 0.0570137 0.
0.571987 0.0570137 0.
0.573988 0.0570138 0.
0.575989 0.0570139 0.
0.577991 0.057014 0.
0.579991 0.0570146 0.
0.581992 0.0570152 0.
0.583992 0.0570154 0.
0.585994 0.0570149 0.
0.587995 0.0570143 0.
0.589996 0.0570138 0.
0.591996 0.0570132 0.
0.593997 0.0570126 0.
0.595998 0.0570131 0.
0.597999 0.0570137 0.
0.6 0.0570144 0.
0.602001 0.0570145 0.
0.604002 0.0570146 0.
0.606004 0.0570147 0.
0.608004 0.0570145 0.
0.610005 0.0570143 0.
0.612006 0.0570143 0.
0.614006 0.0570144 0.
0.616007 0.0570146 0.
0.618008 0.0570146 0.
0.620009 0.0570146 0.
0.62201 0.0570146 0.
0.624011 0.0570149 0.
0.626012 0.0570151 0.
0.628013 0.0570154 0.
0.630015 0.0570153 0.
0.632016 0.0570152 0.
0.634017 0.0570149 0.
0.636018 0.0570144 0.
0.63802 0.0570139 0.
0.64002 0.0570137 0.
0.642021 0.0570139 0.
0.644022 0.057014 0.
0.646023 0.0570144 0.
0.648024 0.0570147 0.
0.650025 0.057015 0.
0.652026 0.0570148 0.
0.654027 0.0570146 0.
0.656028 0.0570147 0.
0.658029 0.0570156 0.
0.660029 0.0570165 0.
0.66203 0.057017 0.
0.664031 0.0570172 0.
0.666032 0.0570175 0.
0.668033 0.0570178 0.
0.670033 0.0570182 0.
0.672034 0.0570186 0.
0.674035 0.0570191 0.
0.676036 0.0570197 0.
0.678037 0.0570203 0.
0.680037 0.0570211 0.
0.682038 0.0570219 0.
0.684038 0.0570227 0.
0.686039 0.0570235 0.
0.68804 0.0570243 0.
0.69004 0.0570249 0.
0.692041 0.0570254 0.
0.694042 0.0570258 0.
0.696042 0.0570265 0.
0.698042 0.0570272 0.
0.499957 0.0590311 0.
0.501958 0.0590301 0.
0.503959 0.0590295 0.
0.505959 0.0590288 0.
0.50796 0.0590279 0.
0.509961 0.059027 0.
0.511962 0.0590262 0.
0.513963 0.0590255 0.
0.515964 0.0590248 0.
0.517964 0.0590237 0.
0.519965 0.0590223 0.
0.521965 0.059021 0.
0.523966 0.0590208 0.
0.525967 0.0590207 0.
0.527968 0.0590206 0.
0.529969 0.0590199 0.
0.531971 0.0590192 0.
0.533972 0.0590187 0.
0.535972 0.0590185 0.
0.537973 0.0590183 0.
0.539974 0.0590181 0.
0.541974 0.0590178 0.
0.543975 0.0590176 0.
0.545976 0.0590175 0.
0.547977 0.0590174 0.
0.549978 0.0590174 0.
0.551979 0.0590176 0.
0.553979 0.0590177 0.
0.55598 0.0590177 0.
0.557981 0.0590167 0.
0.559982 0.0590157 0.
0.561984 0.0590149 0.
0.563985 0.0590142 0.
0.565986 0.0590135 0.
0.567987 0.0590134 0.
0.569987 0.0590136 0.
0.571988 0.0590138 0.
0.573989 0.0590137 0.
0.57599 0.0590135 0.
0.57799 0.0590134 0.
0.579991 0.0590144 0.
0.581992 0.0590153 0.
0.583992 0.0590157 0.
0.585994 0.0590148 0.
0.587995 0.059014 0.
0.589996 0.0590135 0.
0.591996 0.0590132 0.
0.593997 0.0590129 0.
0.595998 0.0590131 0.
0.597999 0.0590135 0.
0.6 0.0590139 0.
0.602002 0.0590143 0.
0.604003 0.0590146 0.
0.606004 0.0590148 0.
0.608005 0.0590144 0.
0.610005 0.0590141 0.
0.612006 0.059014 0.
0.614007 0.0590143 0.
0.616008 0.0590147 0.
0.618008 0.0590147 0.
0.620009 0.0590146 0.
0.62201 0.0590145 0.
0.624011 0.0590146 0.
0.626011 0.0590148 0.
0.628012 0.0590149 0.
0.630014 0.0590148 0.
0.632015 0.0590147 0.
0.634016 0.0590145 0.
0.636017 0.0590142 0.
0.638019 0.0590138 0.
0.64002 0.0590139 0.
0.642021 0.0590144 0.
0.644022 0.0590149 0.
0.646023 0.0590151 0.
0.648024 0.0590152 0.
0.650025 0.0590152 0.
0.652026 0.0590145 0.
0.654026 0.0590138 0.
0.656027 0.0590135 0.
0.658028 0.0590148 0.
0.660029 0.059016 0.
0.66203 0.0590168 0.
0.664031 0.0590169 0.
0.666031 0.0590171 0.
0.668032 0.0590175 0.
0.670033 0.059018 0.
0.672033 0.0590186 0.
0.674034 0.0590194 0.
0.676035 0.0590201 0.
0.678036 0.0590209 0.
0.680036 0.0590213 0.
0.682037 0.0590217 0.
0.684038 0.0590223 0.
0.686038 0.0590236 0.
0.688039 0.0590248 0.
0.69004 0.0590255 0.
0.69204 0.0590256 0.
0.694041 0.0590258 0.
0.696041 0.0590268 0.
0.69804 0.0590278 0.
0.499958 0.0610314 0.
0.501959 0.0610305 0.
0.50396 0.0610297 0.
0.505961 0.0610289 0.
0.507962 0.0610279 0.
0.509962 0.0610269 0.
0.511963 0.0610261 0.
0.513964 0.0610255 0.
0.515965 0.0610249 0.
0.517966 0.0610239 0.
0.519966 0.0610226 0.
0.521966 0.0610214 0.
0.523967 0.061021 0.
0.525968 0.0610207 0.
0.527969 0.0610203 0.
0.52997 0.0610197 0.
0.531971 0.0610192 0.
0.533972 0.0610187 0.
0.535973 0.0610185 0.
0.537974 0.0610183 0.
0.539974 0.0610182 0.
0.541975 0.0610179 0.
0.543976 0.0610177 0.
0.545977 0.0610174 0.
0.547978 0.0610171 0.
0.549978 0.0610167 0.
0.551979 0.0610171 0.
0.55398 0.0610174 0.
0.555981 0.0610174 0.
0.557982 0.0610165 0.
0.559983 0.0610155 0.
0.561984 0.0610146 0.
0.563985 0.061014 0.
0.565987 0.0610134 0.
0.567987 0.0610133 0.
0.569988 0.0610136 0.
0.571988 0.0610139 0.
0.573989 0.0610137 0.
0.57599 0.0610134 0.
0.577991 0.0610133 0.
0.579991 0.0610143 0.
0.581992 0.0610153 0.
0.583993 0.0610157 0.
0.585994 0.0610148 0.
0.587995 0.0610139 0.
0.589996 0.0610135 0.
0.591997 0.0610135 0.
0.593997 0.0610134 0.
0.595998 0.0610136 0.
0.597999 0.0610138 0.
0.600001 0.0610139 0.
0.602002 0.0610143 0.
0.604003 0.0610146 0.
0.606004 0.0610148 0.
0.608005 0.0610143 0.
0.610006 0.0610139 0.
0.612006 0.0610138 0.
0.614007 0.0610142 0.
0.616008 0.0610146 0.
0.618009 0.0610147 0.
0.620009 0.0610146 0.
0.62201 0.0610146 0.
0.62401 0.0610145 0.
0.626011 0.0610144 0.
0.628012 0.0610143 0.
0.630013 0.0610143 0.
0.632014 0.0610143 0.
0.634015 0.0610142 0.
0.636016 0.0610139 0.
0.638018 0.0610136 0.
0.640019 0.0610138 0.
0.64202 0.0610146 0.
0.644022 0.0610153 0.
0.646023 0.0610154 0.
0.648024 0.0610154 0.
0.650025 0.0610154 0.
0.652026 0.0610145 0.
0.654026 0.0610135 0.
0.656027 0.0610131 0.
0.658028 0.0610145 0.
0.660029 0.061016 0.
0.66203 0.0610168 0.
0.66403 0.0610169 0.
0.666031 0.061017 0.
0.668031 0.0610175 0.
0.670032 0.0610182 0.
0.672032 0.061019 0.
0.674033 0.0610197 0.
0.676034 0.0610204 0.
0.678035 0.0610211 0.
0.680036 0.0610215 0.
0.682036 0.0610219 0.
0.684037 0.0610225 0.
0.686037 0.0610237 0.
0.688038 0.0610249 0.
0.690039 0.0610256 0.
0.692039 0.0610259 0.
0.69404 0.0610262 0.
0.69604 0.0610273 0.
0.698039 0.0610285 0.
0.499961 0.0630315 0.
0.501961 0.0630305 0.
0.503962 0.0630296 0.
0.505963 0.0630287 0.
0.507963 0.0630278 0.
0.509963 0.0630269 0.
0.511964 0.0630261 0.
0.513965 0.0630255 0.
0.515966 0.0630249 0.
0.517967 0.0630239 0.
0.519967 0.0630228 0.
0.521967 0.0630217 0.
0.523968 0.0630211 0.
0.525969 0.0630206 0.
0.52797 0.0630201 0.
0.52997 0.0630196 0.
0.531971 0.0630191 0.
0.533972 0.0630187 0.
0.535973 0.0630184 0.
0.537974 0.0630182 0.
0.539975 0.063018 0.
0.541976 0.0630178 0.
0.543977 0.0630176 0.
0.545978 0.0630172 0.
0.547978 0.0630168 0.
0.549979 0.0630163 0.
0.55198 0.0630166 0.
0.553981 0.0630169 0.
0.555982 0.063017 0.
0.557982 0.0630161 0.
0.559983 0.0630152 0.
0.561984 0.0630144 0.
0.563985 0.063014 0.
0.565986 0.0630135 0.
0.567987 0.0630135 0.
0.569988 0.0630137 0.
0.571988 0.0630138 0.
0.573989 0.0630138 0.
0.57599 0.0630136 0.
0.577991 0.0630136 0.
0.579992 0.0630144 0.
0.581993 0.0630152 0.
0.583994 0.0630154 0.
0.585994 0.0630148 0.
0.587995 0.0630141 0.
0.589996 0.0630139 0.
0.591997 0.0630141 0.
0.593998 0.0630142 0.
0.595999 0.0630143 0.
0.597999 0.0630144 0.
0.6 0.0630145 0.
0.602001 0.0630146 0.
0.604003 0.0630146 0.
0.606004 0.0630145 0.
0.608005 0.0630141 0.
0.610006 0.0630137 0.
0.612007 0.0630137 0.
0.614007 0.0630141 0.
0.616008 0.0630145 0.
0.618009 0.0630147 0.
0.620009 0.0630148 0.
0.62201 0.0630149 0.
0.624011 0.0630145 0.
0.626011 0.063014 0.
0.628012 0.0630136 0.
0.630013 0.0630138 0.
0.632014 0.063014 0.
0.634015 0.063014 0.
0.636016 0.0630136 0.
0.638017 0.0630132 0.
0.640018 0.0630135 0.
0.642019 0.0630144 0.
0.64402 0.0630152 0.
0.646022 0.0630154 0.
0.648023 0.0630155 0.
0.650024 0.0630155 0.
0.652025 0.0630146 0.
0.654026 0.0630136 0.
0.656026 0.0630133 0.
0.658027 0.0630147 0.
0.660028 0.0630162 0.
0.662029 0.063017 0.
0.66403 0.063017 0.
0.666031 0.0630171 0.
0.668031 0.0630178 0.
0.670031 0.0630187 0.
0.672032 0.0630197 0.
0.674033 0.0630202 0.
0.676034 0.0630206 0.
0.678035 0.0630211 0.
0.680035 0.0630218 0.
0.682036 0.0630225 0.
0.684036 0.0630233 0.
0.686036 0.0630239 0.
0.688037 0.0630246 0.
0.690037 0.0630253 0.
0.692038 0.0630261 0.
0.694039 0.0630269 0.
0.696039 0.063028 0.
0.698039 0.0630292 0.
0.499963 0.0650316 0.
0.501964 0.0650306 0.
0.503964 0.0650295 0.
0.505964 0.0650285 0.
0.507965 0.0650276 0.
0.509965 0.0650268 0.
0.511965 0.065026 0.
0.513966 0.0650254 0.
0.515967 0.0650248 0.
0.517968 0.065024 0.
0.519968 0.065023 0.
0.521968 0.065022 0.
0.523969 0.0650213 0.
0.52597 0.0650206 0.
0.527971 0.0650199 0.
0.529971 0.0650194 0.
0.531971 0.065019 0.
0.533972 0.0650186 0.
0.535974 0.0650183 0.
0.537975 0.0650181 0.
0.539976 0.0650179 0.
0.541978 0.0650178 0.
0.543979 0.0650176 0.
0.545979 0.0650171 0.
0.547979 0.0650165 0.
0.549979 0.0650159 0.
0.55198 0.0650162 0.
0.553982 0.0650165 0.
0.555982 0.0650165 0.
0.557983 0.0650157 0.
0.559983 0.0650148 0.
0.561984 0.0650143 0.
0.563985 0.0650139 0.
0.565985 0.0650136 0.
0.567986 0.0650136 0.
0.569987 0.0650137 0.
0.571988 0.0650138 0.
0.573989 0.0650138 0.
0.57599 0.0650138 0.
0.577991 0.0650139 0.
0.579993 0.0650145 0.
0.581994 0.065015 0.
0.583995 0.0650153 0.
0.585995 0.0650147 0.
0.587995 0.0650142 0.
0.589996 0.0650142 0.
0.591997 0.0650146 0.
0.593998 0.065015 0.
0.595999 0.0650151 0.
0.597999 0.0650151 0.
0.6 0.0650151 0.
0.602001 0.0650148 0.
0.604003 0.0650146 0.
0.606004 0.0650143 0.
0.608005 0.0650139 0.
0.610006 0.0650136 0.
0.612007 0.0650135 0.
0.614007 0.065014 0.
0.616008 0.0650144 0.
0.618009 0.0650147 0.
0.62001 0.0650149 0.
0.62201 0.0650152 0.
0.624011 0.0650145 0.
0.626011 0.0650136 0.
0.628012 0.0650129 0.
0.630013 0.0650133 0.
0.632013 0.0650137 0.
0.634014 0.0650137 0.
0.636015 0.0650133 0.
0.638016 0.0650129 0.
0.640017 0.0650133 0.
0.642018 0.0650142 0.
0.644019 0.0650152 0.
0.646021 0.0650154 0.
0.648022 0.0650156 0.
0.650024 0.0650157 0.
0.652024 0.0650147 0.
0.654025 0.0650138 0.
0.656026 0.0650134 0.
0.658027 0.0650149 0.
0.660028 0.0650164 0.
0.662029 0.0650172 0.
0.664029 0.0650172 0.
0.66603 0.0650173 0.
0.668031 0.0650181 0.
0.670031 0.0650192 0.
0.672031 0.0650204 0.
0.674032 0.0650206 0.
0.676033 0.0650208 0.
0.678034 0.065021 0.
0.680035 0.0650221 0.
0.682035 0.0650232 0.
0.684035 0.065024 0.
0.686035 0.0650241 0.
0.688036 0.0650243 0.
0.690036 0.065025 0.
0.692036 0.0650263 0.
0.694037 0.0650275 0.
0.696037 0.0650287 0.
0.698038 0.0650298 0.
0.499965 0.0670323 0.
0.501965 0.067031 0.
0.503965 0.0670298 0.
0.505965 0.0670287 0.
0.507965 0.0670277 0.
0.509965 0.0670268 0.
0.511966 0.0670259 0.
0.513967 0.0670251 0.
0.515968 0.0670243 0.
0.517968 0.0670236 0.
0.519969 0.067023 0.
0.521969 0.0670224 0.
0.52397 0.0670218 0.
0.525971 0.0670212 0.
0.527972 0.0670206 0.
0.529972 0.0670196 0.
0.531972 0.0670187 0.
0.533973 0.0670179 0.
0.535974 0.0670177 0.
0.537975 0.0670175 0.
0.539977 0.0670174 0.
0.541978 0.0670173 0.
0.543979 0.0670173 0.
0.545979 0.067017 0.
0.54798 0.0670167 0.
0.54998 0.0670164 0.
0.551981 0.0670161 0.
0.553982 0.0670158 0.
0.555983 0.0670155 0.
0.557983 0.0670151 0.
0.559984 0.0670147 0.
0.561985 0.0670142 0.
0.563985 0.0670136 0.
0.565986 0.067013 0.
0.567987 0.0670129 0.
0.569988 0.0670131 0.
0.571989 0.0670133 0.
0.57399 0.0670135 0.
0.575991 0.0670136 0.
0.577992 0.0670138 0.
0.579993 0.0670145 0.
0.581994 0.0670151 0.
0.583995 0.0670154 0.
0.585995 0.0670149 0.
0.587996 0.0670143 0.
0.589997 0.0670142 0.
0.591997 0.0670146 0.
0.593998 0.0670149 0.
0.595999 0.0670149 0.
0.597999 0.0670149 0.
0.6 0.0670148 0.
0.602001 0.0670146 0.
0.604003 0.0670144 0.
0.606004 0.0670142 0.
0.608005 0.0670142 0.
0.610006 0.0670141 0.
0.612006 0.0670142 0.
0.614007 0.0670144 0.
0.616008 0.0670147 0.
0.618009 0.0670148 0.
0.620009 0.0670148 0.
0.62201 0.0670148 0.
0.624011 0.0670144 0.
0.626011 0.0670139 0.
0.628012 0.0670135 0.
0.630013 0.0670135 0.
0.632014 0.0670135 0.
0.634014 0.0670134 0.
0.636015 0.0670132 0.
0.638016 0.0670129 0.
0.640017 0.0670133 0.
0.642018 0.0670141 0.
0.644019 0.0670149 0.
0.64602 0.067015 0.
0.648022 0.067015 0.
0.650023 0.067015 0.
0.652024 0.0670144 0.
0.654024 0.0670138 0.
0.656025 0.0670136 0.
0.658026 0.0670148 0.
0.660027 0.067016 0.
0.662027 0.0670167 0.
0.664028 0.0670168 0.
0.666029 0.0670168 0.
0.66803 0.0670176 0.
0.67003 0.0670187 0.
0.67203 0.0670198 0.
0.674031 0.0670203 0.
0.676032 0.0670207 0.
0.678033 0.0670212 0.
0.680033 0.067022 0.
0.682034 0.0670228 0.
0.684034 0.0670235 0.
0.686035 0.0670239 0.
0.688035 0.0670243 0.
0.690035 0.0670251 0.
0.692036 0.0670262 0.
0.694036 0.0670274 0.
0.696036 0.0670285 0.
0.698037 0.0670295 0.
0.499966 0.0690325 0.
0.501966 0.0690314 0.
0.503966 0.0690301 0.
0.505966 0.0690289 0.
0.507966 0.0690278 0.
0.509966 0.0690268 0.
0.511966 0.0690257 0.
0.513967 0.0690247 0.
0.515968 0.0690238 0.
0.517969 0.0690233 0.
0.519969 0.069023 0.
0.52197 0.0690228 0.
0.523971 0.0690224 0.
0.525972 0.0690219 0.
0.527972 0.0690213 0.
0.529973 0.0690198 0.
0.531974 0.0690183 0.
0.533974 0.0690173 0.
0.535975 0.0690171 0.
0.537976 0.0690169 0.
0.539977 0.0690168 0.
0.541978 0.0690169 0.
0.543979 0.069017 0.
0.54598 0.069017 0.
0.54798 0.0690169 0.
0.54998 0.0690169 0.
0.551981 0.069016 0.
0.553982 0.0690152 0.
0.555983 0.0690145 0.
0.557984 0.0690145 0.
0.559985 0.0690145 0.
0.561985 0.0690141 0.
0.563986 0.0690132 0.
0.565986 0.0690124 0.
0.567987 0.0690123 0.
0.569988 0.0690125 0.
0.57199 0.0690128 0.
0.573991 0.0690131 0.
0.575992 0.0690134 0.
0.577993 0.0690137 0.
0.579993 0.0690144 0.
0.581994 0.0690152 0.
0.583995 0.0690155 0.
0.585996 0.069015 0.
0.587996 0.0690144 0.
0.589997 0.0690143 0.
0.591998 0.0690145 0.
0.593998 0.0690147 0.
0.595999 0.0690147 0.
0.598 0.0690146 0.
0.6 0.0690145 0.
0.602001 0.0690143 0.
0.604003 0.0690142 0.
0.606004 0.0690141 0.
0.608005 0.0690144 0.
0.610005 0.0690147 0.
0.612006 0.0690149 0.
0.614007 0.0690149 0.
0.616008 0.069015 0.
0.618008 0.0690149 0.
0.620009 0.0690147 0.
0.622009 0.0690145 0.
0.62401 0.0690143 0.
0.626011 0.0690142 0.
0.628012 0.069014 0.
0.630013 0.0690137 0.
0.632014 0.0690133 0.
0.634015 0.0690131 0.
0.636016 0.069013 0.
0.638017 0.069013 0.
0.640018 0.0690133 0.
0.642018 0.069014 0.
0.644019 0.0690146 0.
0.64602 0.0690146 0.
0.648021 0.0690144 0.
0.650022 0.0690143 0.
0.652023 0.069014 0.
0.654023 0.0690137 0.
0.656024 0.0690138 0.
0.658025 0.0690147 0.
0.660025 0.0690157 0.
0.662026 0.0690163 0.
0.664027 0.0690163 0.
0.666028 0.0690164 0.
0.668028 0.0690171 0.
0.670029 0.0690182 0.
0.67203 0.0690192 0.
0.67403 0.06902 0.
0.676031 0.0690207 0.
0.678032 0.0690213 0.
0.680032 0.0690219 0.
0.682033 0.0690224 0.
0.684033 0.069023 0.
0.686034 0.0690236 0.
0.688034 0.0690242 0.
0.690034 0.0690251 0.
0.692035 0.0690262 0.
0.694035 0.0690273 0.
0.696035 0.0690282 0.
0.698036 0.0690291 0.
0.499967 0.0710327 0.
0.501967 0.0710317 0.
0.503967 0.0710304 0.
0.505967 0.0710292 0.
0.507967 0.071028 0.
0.509967 0.0710269 0.
0.511967 0.0710258 0.
0.513968 0.0710246 0.
0.515969 0.0710234 0.
0.51797 0.0710229 0.
0.51997 0.0710228 0.
0.521971 0.0710228 0.
0.523972 0.0710223 0.
0.525973 0.0710217 0.
0.527973 0.0710211 0.
0.529974 0.0710197 0.
0.531975 0.0710183 0.
0.533975 0.0710172 0.
0.535976 0.071017 0.
0.537976 0.0710167 0.
0.539977 0.0710166 0.
0.541978 0.0710166 0.
0.543979 0.0710166 0.
0.54598 0.0710167 0.
0.547981 0.0710167 0.
0.549981 0.0710168 0.
0.551982 0.0710158 0.
0.553983 0.0710148 0.
0.555984 0.071014 0.
0.557985 0.0710142 0.
0.559985 0.0710143 0.
0.561986 0.0710139 0.
0.563987 0.071013 0.
0.565987 0.0710121 0.
0.567988 0.0710119 0.
0.569989 0.0710121 0.
0.57199 0.0710124 0.
0.573991 0.0710127 0.
0.575992 0.0710132 0.
0.577993 0.0710136 0.
0.579994 0.0710144 0.
0.581994 0.0710151 0.
0.583995 0.0710155 0.
0.585996 0.0710151 0.
0.587997 0.0710148 0.
0.589998 0.0710146 0.
0.591998 0.0710147 0.
0.593999 0.0710148 0.
0.595999 0.0710147 0.
0.598 0.0710146 0.
0.600001 0.0710145 0.
0.602002 0.0710143 0.
0.604003 0.0710142 0.
0.606004 0.0710142 0.
0.608004 0.0710146 0.
0.610005 0.071015 0.
0.612006 0.0710152 0.
0.614007 0.0710151 0.
0.616008 0.0710151 0.
0.618008 0.0710149 0.
0.620009 0.0710147 0.
0.622009 0.0710145 0.
0.62401 0.0710142 0.
0.626011 0.071014 0.
0.628012 0.0710137 0.
0.630013 0.0710133 0.
0.632014 0.071013 0.
0.634015 0.0710127 0.
0.636016 0.0710128 0.
0.638017 0.0710129 0.
0.640017 0.0710132 0.
0.642018 0.0710138 0.
0.644018 0.0710144 0.
0.646019 0.0710142 0.
0.648021 0.0710138 0.
0.650022 0.0710134 0.
0.652022 0.0710135 0.
0.654023 0.0710136 0.
0.656023 0.0710139 0.
0.658024 0.0710146 0.
0.660025 0.0710154 0.
0.662026 0.0710159 0.
0.664026 0.0710161 0.
0.666027 0.0710163 0.
0.668028 0.0710171 0.
0.670028 0.0710181 0.
0.672029 0.0710192 0.
0.67403 0.0710199 0.
0.67603 0.0710207 0.
0.678031 0.0710214 0.
0.680032 0.0710219 0.
0.682032 0.0710223 0.
0.684033 0.0710228 0.
0.686033 0.0710236 0.
0.688033 0.0710243 0.
0.690034 0.0710252 0.
0.692034 0.0710263 0.
0.694034 0.0710274 0.
0.696034 0.0710282 0.
0.698034 0.071029 0.
0.499968 0.0730334 0.
0.501968 0.073032 0.
0.503968 0.0730307 0.
0.505969 0.0730295 0.
0.507969 0.0730284 0.
0.509969 0.0730273 0.
0.511969 0.0730261 0.
0.513969 0.0730247 0.
0.51597 0.0730233 0.
0.51797 0.0730226 0.
0.519971 0.0730225 0.
0.521972 0.0730223 0.
0.523973 0.0730216 0.
0.525974 0.0730208 0.
0.527975 0.07302 0.
0.529975 0.0730192 0.
0.531975 0.0730185 0.
0.533976 0.0730178 0.
0.535977 0.0730173 0.
0.537977 0.0730169 0.
0.539978 0.0730166 0.
0.541979 0.0730164 0.
0.543979 0.0730162 0.
0.54598 0.0730161 0.
0.547982 0.0730161 0.
0.549983 0.0730161 0.
0.551984 0.0730154 0.
0.553984 0.0730147 0.
0.555985 0.0730142 0.
0.557985 0.0730141 0.
0.559986 0.0730141 0.
0.561986 0.0730137 0.
0.563987 0.0730129 0.
0.565988 0.0730121 0.
0.567988 0.0730118 0.
0.569989 0.0730119 0.
0.57199 0.073012 0.
0.573991 0.0730125 0.
0.575991 0.073013 0.
0.577992 0.0730136 0.
0.579993 0.0730142 0.
0.581994 0.0730149 0.
0.583995 0.0730154 0.
0.585996 0.0730154 0.
0.587997 0.0730154 0.
0.589998 0.0730154 0.
0.591998 0.0730153 0.
0.593999 0.0730152 0.
0.596 0.0730151 0.
0.598001 0.0730149 0.
0.600002 0.0730147 0.
0.602002 0.0730146 0.
0.604003 0.0730146 0.
0.606004 0.0730146 0.
0.608004 0.0730148 0.
0.610005 0.0730151 0.
0.612005 0.0730152 0.
0.614007 0.0730151 0.
0.616008 0.0730149 0.
0.618008 0.0730149 0.
0.620009 0.0730149 0.
0.622009 0.0730149 0.
0.62401 0.0730142 0.
0.626011 0.0730133 0.
0.628012 0.0730125 0.
0.630013 0.0730124 0.
0.632014 0.0730124 0.
0.634014 0.0730123 0.
0.636015 0.0730125 0.
0.638016 0.0730126 0.
0.640017 0.073013 0.
0.642017 0.0730136 0.
0.644017 0.0730141 0.
0.646019 0.0730137 0.
0.64802 0.073013 0.
0.650021 0.0730124 0.
0.652022 0.0730129 0.
0.654022 0.0730134 0.
0.656023 0.0730139 0.
0.658024 0.0730145 0.
0.660025 0.0730151 0.
0.662026 0.0730156 0.
0.664026 0.0730161 0.
0.666027 0.0730166 0.
0.668027 0.0730175 0.
0.670028 0.0730186 0.
0.672029 0.0730197 0.
0.674029 0.0730203 0.
0.67603 0.0730208 0.
0.678031 0.0730213 0.
0.680031 0.0730219 0.
0.682032 0.0730224 0.
0.684032 0.073023 0.
0.686033 0.0730237 0.
0.688033 0.0730244 0.
0.690033 0.0730254 0.
0.692033 0.0730266 0.
0.694033 0.0730278 0.
0.696033 0.0730285 0.
0.698033 0.0730291 0.
0.499969 0.0750337 0.
0.501969 0.0750322 0.
0.50397 0.075031 0.
0.50597 0.0750298 0.
0.50797 0.0750287 0.
0.50997 0.0750277 0.
0.511971 0.0750264 0.
0.513971 0.0750247 0.
0.515971 0.0750231 0.
0.517971 0.0750224 0.
0.519972 0.0750221 0.
0.521973 0.0750218 0.
0.523974 0.0750209 0.
0.525975 0.0750198 0.
0.527976 0.0750189 0.
0.529976 0.0750188 0.
0.531976 0.0750186 0.
0.533977 0.0750183 0.
0.535978 0.0750177 0.
0.537978 0.0750171 0.
0.539979 0.0750166 0.
0.541979 0.0750162 0.
0.543979 0.0750158 0.
0.545981 0.0750156 0.
0.547982 0.0750155 0.
0.549984 0.0750154 0.
0.551985 0.075015 0.
0.553986 0.0750146 0.
0.555986 0.0750143 0.
0.557986 0.0750141 0.
0.559986 0.0750138 0.
0.561987 0.0750134 0.
0.563987 0.0750127 0.
0.565988 0.0750121 0.
0.567989 0.0750118 0.
0.569989 0.0750117 0.
0.57199 0.0750116 0.
0.573991 0.0750122 0.
0.575991 0.0750129 0.
0.577991 0.0750135 0.
0.579993 0.0750141 0.
0.581994 0.0750147 0.
0.583996 0.0750153 0.
0.585996 0.0750156 0.
0.587997 0.0750161 0.
0.589998 0.0750161 0.
0.591999 0.0750159 0.
0.594 0.0750156 0.
0.596001 0.0750154 0.
0.598002 0.0750152 0.
0.600003 0.075015 0.
0.602003 0.0750149 0.
0.604003 0.0750149 0.
0.606004 0.0750149 0.
0.608004 0.0750151 0.
0.610004 0.0750152 0.
0.612005 0.0750152 0.
0.614006 0.075015 0.
0.616008 0.0750148 0.
0.618009 0.0750149 0.
0.620009 0.0750151 0.
0.62201 0.0750154 0.
0.624011 0.0750141 0.
0.626012 0.0750126 0.
0.628012 0.0750113 0.
0.630013 0.0750115 0.
0.632013 0.0750118 0.
0.634014 0.075012 0.
0.636015 0.0750122 0.
0.638015 0.0750124 0.
0.640016 0.0750128 0.
0.642016 0.0750133 0.
0.644017 0.0750139 0.
0.646018 0.0750133 0.
0.648019 0.0750123 0.
0.65002 0.0750114 0.
0.652021 0.0750123 0.
0.654022 0.0750132 0.
0.656023 0.075014 0.
0.658024 0.0750144 0.
0.660025 0.0750148 0.
0.662026 0.0750154 0.
0.664026 0.0750161 0.
0.666027 0.0750169 0.
0.668027 0.0750179 0.
0.670028 0.075019 0.
0.672028 0.0750202 0.
0.674029 0.0750206 0.
0.67603 0.0750209 0.
0.67803 0.0750213 0.
0.680031 0.0750219 0.
0.682032 0.0750225 0.
0.684032 0.0750232 0.
0.686032 0.0750239 0.
0.688033 0.0750246 0.
0.690033 0.0750256 0.
0.692032 0.0750269 0.
0.694032 0.0750282 0.
0.696032 0.0750288 0.
0.698031 0.0750292 0.
0.49997 0.0770333 0.
0.501971 0.0770322 0.
0.503971 0.0770311 0.
0.505971 0.07703 0.
0.507971 0.0770288 0.
0.509971 0.0770276 0.
0.511971 0.0770263 0.
0.513972 0.0770249 0.
0.515972 0.0770235 0.
0.517972 0.0770226 0.
0.519973 0.077022 0.
0.521974 0.0770213 0.
0.523974 0.0770205 0.
0.525975 0.0770197 0.
0.527976 0.077019 0.
0.529976 0.0770186 0.
0.531977 0.0770183 0.
0.533977 0.0770179 0.
0.535978 0.0770174 0.
0.537979 0.0770169 0.
0.539979 0.0770163 0.
0.54198 0.0770156 0.
0.54398 0.0770148 0.
0.545981 0.0770147 0.
0.547983 0.0770148 0.
0.549984 0.0770149 0.
0.551985 0.0770145 0.
0.553986 0.0770141 0.
0.555987 0.0770138 0.
0.557987 0.077014 0.
0.559987 0.0770143 0.
0.561988 0.077014 0.
0.563988 0.077013 0.
0.565989 0.0770119 0.
0.567989 0.0770117 0.
0.569989 0.077012 0.
0.57199 0.0770122 0.
0.573991 0.0770126 0.
0.575991 0.0770131 0.
0.577992 0.0770135 0.
0.579993 0.0770138 0.
0.581994 0.0770142 0.
0.583995 0.0770145 0.
0.585996 0.0770149 0.
0.587997 0.0770152 0.
0.589998 0.0770154 0.
0.591999 0.0770155 0.
0.594 0.0770156 0.
0.596001 0.0770154 0.
0.598001 0.0770151 0.
0.600002 0.0770148 0.
0.602003 0.0770152 0.
0.604004 0.0770156 0.
0.606004 0.0770159 0.
0.608004 0.0770157 0.
0.610005 0.0770155 0.
0.612005 0.0770153 0.
0.614006 0.077015 0.
0.616007 0.0770147 0.
0.618008 0.0770148 0.
0.620009 0.077015 0.
0.62201 0.0770153 0.
0.624011 0.077014 0.
0.626011 0.0770125 0.
0.628012 0.0770113 0.
0.630013 0.0770114 0.
0.632014 0.0770116 0.
0.634014 0.0770118 0.
0.636015 0.0770123 0.
0.638015 0.0770128 0.
0.640015 0.077013 0.
0.642016 0.0770131 0.
0.644017 0.0770132 0.
0.646018 0.077013 0.
0.648019 0.0770127 0.
0.65002 0.0770124 0.
0.65202 0.0770128 0.
0.654021 0.0770132 0.
0.656022 0.0770136 0.
0.658023 0.0770139 0.
0.660024 0.0770142 0.
0.662024 0.0770148 0.
0.664025 0.0770157 0.
0.666026 0.0770167 0.
0.668027 0.0770176 0.
0.670027 0.0770185 0.
0.672027 0.0770195 0.
0.674028 0.0770201 0.
0.676029 0.0770207 0.
0.67803 0.0770213 0.
0.680031 0.077022 0.
0.682031 0.0770228 0.
0.684031 0.0770235 0.
0.686031 0.0770242 0.
0.688031 0.0770249 0.
0.690031 0.0770258 0.
0.692031 0.0770268 0.
0.694031 0.0770279 0.
0.696031 0.0770285 0.
0.698031 0.077029 0.
0.499972 0.0790331 0.
0.501972 0.0790321 0.
0.503972 0.0790313 0.
0.505972 0.0790303 0.
0.507972 0.0790289 0.
0.509972 0.0790275 0.
0.511972 0.0790262 0.
0.513973 0.079025 0.
0.515973 0.0790239 0.
0.517974 0.0790229 0.
0.519974 0.0790219 0.
0.521975 0.0790209 0.
0.523975 0.0790202 0.
0.525976 0.0790196 0.
0.527976 0.079019 0.
0.529977 0.0790185 0.
0.531977 0.079018 0.
0.533978 0.0790175 0.
0.535978 0.0790171 0.
0.537979 0.0790168 0.
0.53998 0.079016 0.
0.54198 0.079015 0.
0.543981 0.0790139 0.
0.545982 0.0790139 0.
0.547983 0.0790142 0.
0.549983 0.0790145 0.
0.551985 0.079014 0.
0.553986 0.0790135 0.
0.555987 0.0790133 0.
0.557988 0.079014 0.
0.559988 0.0790148 0.
0.561989 0.0790146 0.
0.563989 0.0790132 0.
0.56599 0.0790118 0.
0.56799 0.0790117 0.
0.56999 0.0790123 0.
0.571989 0.0790128 0.
0.57399 0.0790131 0.
0.575992 0.0790133 0.
0.577993 0.0790135 0.
0.579994 0.0790136 0.
0.581994 0.0790136 0.
0.583995 0.0790138 0.
0.585996 0.0790141 0.
0.587997 0.0790143 0.
0.589998 0.0790147 0.
0.591999 0.0790151 0.
0.594 0.0790155 0.
0.596 0.0790153 0.
0.598001 0.079015 0.
0.600002 0.0790146 0.
0.602003 0.0790154 0.
0.604004 0.0790163 0.
0.606005 0.0790168 0.
0.608005 0.0790163 0.
0.610005 0.0790158 0.
0.612006 0.0790153 0.
0.614007 0.079015 0.
0.616007 0.0790146 0.
0.618008 0.0790146 0.
0.62001 0.0790149 0.
0.622011 0.0790152 0.
0.624011 0.0790139 0.
0.626011 0.0790125 0.
0.628012 0.0790112 0.
0.630013 0.0790113 0.
0.632014 0.0790114 0.
0.634015 0.0790117 0.
0.636015 0.0790124 0.
0.638014 0.0790132 0.
0.640015 0.0790133 0.
0.642016 0.0790129 0.
0.644017 0.0790125 0.
0.646017 0.0790127 0.
0.648018 0.0790131 0.
0.650019 0.0790134 0.
0.65202 0.0790133 0.
0.65402 0.0790132 0.
0.656021 0.0790132 0.
0.658022 0.0790134 0.
0.660022 0.0790137 0.
0.662023 0.0790143 0.
0.664024 0.0790154 0.
0.666025 0.0790164 0.
0.668026 0.0790173 0.
0.670026 0.079018 0.
0.672027 0.0790188 0.
0.674028 0.0790196 0.
0.676029 0.0790204 0.
0.67803 0.0790213 0.
0.68003 0.0790222 0.
0.68203 0.0790231 0.
0.68403 0.0790239 0.
0.68603 0.0790246 0.
0.688029 0.0790252 0.
0.69003 0.079026 0.
0.69203 0.0790268 0.
0.694031 0.0790275 0.
0.696031 0.0790282 0.
0.698031 0.0790289 0.
0.499973 0.0810331 0.
0.501973 0.0810321 0.
0.503973 0.0810313 0.
0.505973 0.0810302 0.
0.507973 0.0810289 0.
0.509973 0.0810275 0.
0.511974 0.0810263 0.
0.513974 0.0810252 0.
0.515975 0.0810242 0.
0.517975 0.081023 0.
0.519975 0.0810218 0.
0.521976 0.0810206 0.
0.523976 0.0810201 0.
0.525977 0.0810196 0.
0.527977 0.0810191 0.
0.529977 0.0810184 0.
0.531978 0.0810177 0.
0.533978 0.0810171 0.
0.535979 0.0810167 0.
0.53798 0.0810164 0.
0.53998 0.0810156 0.
0.541981 0.0810146 0.
0.543982 0.0810136 0.
0.545983 0.0810135 0.
0.547983 0.0810137 0.
0.549984 0.0810139 0.
0.551985 0.0810135 0.
0.553986 0.0810132 0.
0.555987 0.0810131 0.
0.557988 0.0810139 0.
0.559989 0.0810147 0.
0.56199 0.0810146 0.
0.56399 0.0810133 0.
0.56599 0.081012 0.
0.56799 0.081012 0.
0.56999 0.0810126 0.
0.57199 0.0810132 0.
0.573991 0.0810134 0.
0.575992 0.0810136 0.
0.577993 0.0810137 0.
0.579994 0.0810135 0.
0.581994 0.0810133 0.
0.583995 0.0810132 0.
0.585996 0.0810136 0.
0.587998 0.081014 0.
0.589998 0.0810145 0.
0.591999 0.0810151 0.
0.594 0.0810157 0.
0.596 0.0810155 0.
0.598001 0.0810151 0.
0.600002 0.0810147 0.
0.602003 0.0810157 0.
0.604004 0.0810166 0.
0.606005 0.0810173 0.
0.608005 0.0810167 0.
0.610006 0.0810161 0.
0.612006 0.0810155 0.
0.614007 0.0810151 0.
0.616007 0.0810146 0.
0.618008 0.0810146 0.
0.62001 0.0810147 0.
0.622011 0.0810149 0.
0.624011 0.0810138 0.
0.626012 0.0810125 0.
0.628012 0.0810114 0.
0.630013 0.0810114 0.
0.632014 0.0810113 0.
0.634015 0.0810115 0.
0.636015 0.0810122 0.
0.638015 0.081013 0.
0.640015 0.0810131 0.
0.642016 0.0810127 0.
0.644017 0.0810123 0.
0.646018 0.0810126 0.
0.648018 0.081013 0.
0.650019 0.0810135 0.
0.652019 0.0810133 0.
0.65402 0.0810131 0.
0.656021 0.081013 0.
0.658021 0.0810132 0.
0.660022 0.0810134 0.
0.662022 0.081014 0.
0.664023 0.081015 0.
0.666024 0.081016 0.
0.668025 0.0810169 0.
0.670026 0.0810177 0.
0.672027 0.0810186 0.
0.674028 0.0810194 0.
0.676029 0.0810202 0.
0.678029 0.0810211 0.
0.680029 0.0810222 0.
0.682029 0.0810233 0.
0.684029 0.0810243 0.
0.686029 0.0810249 0.
0.688028 0.0810254 0.
0.690029 0.081026 0.
0.692029 0.0810267 0.
0.69403 0.0810274 0.
0.69603 0.0810281 0.
0.69803 0.0810289 0.
0.499973 0.0830332 0.
0.501974 0.0830322 0.
0.503974 0.0830311 0.
0.505974 0.08303 0.
0.507974 0.0830288 0.
0.509975 0.0830277 0.
0.511975 0.0830266 0.
0.513975 0.0830255 0.
0.515976 0.0830244 0.
0.517976 0.0830232 0.
0.519977 0.0830219 0.
0.521977 0.0830206 0.
0.523978 0.0830201 0.
0.525978 0.0830196 0.
0.527978 0.0830191 0.
0.529978 0.0830183 0.
0.531979 0.0830175 0.
0.53398 0.0830168 0.
0.53598 0.0830163 0.
0.537981 0.0830157 0.
0.539982 0.0830151 0.
0.541982 0.0830145 0.
0.543983 0.0830139 0.
0.545983 0.0830136 0.
0.547984 0.0830133 0.
0.549984 0.0830131 0.
0.551985 0.0830131 0.
0.553986 0.0830131 0.
0.555987 0.0830131 0.
0.557988 0.0830136 0.
0.559989 0.0830141 0.
0.56199 0.083014 0.
0.56399 0.0830132 0.
0.565991 0.0830124 0.
0.567991 0.0830125 0.
0.569991 0.083013 0.
0.571991 0.0830135 0.
0.573992 0.0830137 0.
0.575992 0.0830139 0.
0.577993 0.083014 0.
0.579994 0.0830135 0.
0.581994 0.083013 0.
0.583995 0.0830129 0.
0.585996 0.0830135 0.
0.587998 0.0830141 0.
0.589999 0.0830147 0.
0.591999 0.0830154 0.
0.593999 0.0830161 0.
0.596 0.0830159 0.
0.598001 0.0830155 0.
0.600002 0.083015 0.
0.602003 0.0830159 0.
0.604004 0.0830167 0.
0.606005 0.0830172 0.
0.608005 0.0830167 0.
0.610006 0.0830163 0.
0.612006 0.0830158 0.
0.614007 0.0830152 0.
0.616008 0.0830147 0.
0.618009 0.0830145 0.
0.62001 0.0830144 0.
0.622011 0.0830144 0.
0.624012 0.0830136 0.
0.626012 0.0830127 0.
0.628013 0.0830119 0.
0.630013 0.0830116 0.
0.632014 0.0830113 0.
0.634014 0.0830112 0.
0.636015 0.0830117 0.
0.638016 0.0830122 0.
0.640016 0.0830124 0.
0.642017 0.0830125 0.
0.644017 0.0830125 0.
0.646018 0.0830126 0.
0.648019 0.0830126 0.
0.650019 0.0830127 0.
0.65202 0.0830128 0.
0.65402 0.0830129 0.
0.656021 0.083013 0.
0.658021 0.0830133 0.
0.660022 0.0830135 0.
0.662022 0.083014 0.
0.664023 0.0830147 0.
0.666024 0.0830153 0.
0.668025 0.0830164 0.
0.670026 0.0830176 0.
0.672026 0.0830189 0.
0.674027 0.0830195 0.
0.676028 0.0830201 0.
0.678028 0.0830208 0.
0.680028 0.0830222 0.
0.682028 0.0830236 0.
0.684028 0.0830246 0.
0.686028 0.0830251 0.
0.688028 0.0830255 0.
0.690028 0.0830261 0.
0.692029 0.0830267 0.
0.694029 0.0830273 0.
0.696029 0.0830282 0.
0.698029 0.0830292 0.
0.499974 0.0850337 0.
0.501975 0.0850323 0.
0.503975 0.0850309 0.
0.505976 0.0850297 0.
0.507976 0.0850288 0.
0.509976 0.0850279 0.
0.511976 0.0850268 0.
0.513977 0.0850257 0.
0.515977 0.0850246 0.
0.517978 0.0850233 0.
0.519978 0.0850219 0.
0.521979 0.0850205 0.
0.523979 0.08502 0.
0.525979 0.0850196 0.
0.527979 0.0850191 0.
0.52998 0.0850182 0.
0.53198 0.0850173 0.
0.533981 0.0850165 0.
0.535982 0.0850158 0.
0.537982 0.0850151 0.
0.539983 0.0850146 0.
0.541983 0.0850144 0.
0.543984 0.0850142 0.
0.545984 0.0850136 0.
0.547984 0.085013 0.
0.549984 0.0850124 0.
0.551985 0.0850127 0.
0.553986 0.0850129 0.
0.555987 0.0850132 0.
0.557988 0.0850133 0.
0.559989 0.0850135 0.
0.56199 0.0850134 0.
0.563991 0.0850131 0.
0.565992 0.0850128 0.
0.567992 0.085013 0.
0.569993 0.0850134 0.
0.571993 0.0850138 0.
0.573993 0.085014 0.
0.575993 0.0850142 0.
0.577993 0.0850143 0.
0.579993 0.0850136 0.
0.581994 0.0850128 0.
0.583995 0.0850126 0.
0.585996 0.0850134 0.
0.587998 0.0850142 0.
0.589999 0.0850149 0.
0.591999 0.0850157 0.
0.593999 0.0850165 0.
0.596 0.0850163 0.
0.598001 0.0850158 0.
0.600002 0.0850154 0.
0.602003 0.0850161 0.
0.604004 0.0850168 0.
0.606005 0.0850172 0.
0.608006 0.0850168 0.
0.610006 0.0850165 0.
0.612007 0.085016 0.
0.614007 0.0850154 0.
0.616008 0.0850149 0.
0.618009 0.0850145 0.
0.62001 0.0850142 0.
0.622011 0.0850138 0.
0.624012 0.0850134 0.
0.626013 0.0850129 0.
0.628014 0.0850124 0.
0.630014 0.0850118 0.
0.632014 0.0850112 0.
0.634014 0.085011 0.
0.636015 0.0850112 0.
0.638017 0.0850114 0.
0.640017 0.0850118 0.
0.642018 0.0850122 0.
0.644018 0.0850127 0.
0.646019 0.0850125 0.
0.648019 0.0850122 0.
0.65002 0.0850119 0.
0.65202 0.0850122 0.
0.654021 0.0850126 0.
0.656021 0.085013 0.
0.658021 0.0850133 0.
0.660022 0.0850136 0.
0.662022 0.085014 0.
0.664023 0.0850143 0.
0.666024 0.0850147 0.
0.668024 0.0850159 0.
0.670025 0.0850175 0.
0.672026 0.0850191 0.
0.674027 0.0850196 0.
0.676027 0.08502 0.
0.678027 0.0850205 0.
0.680027 0.0850222 0.
0.682027 0.0850238 0.
0.684027 0.085025 0.
0.686028 0.0850253 0.
0.688028 0.0850256 0.
0.690028 0.0850261 0.
0.692028 0.0850267 0.
0.694028 0.0850273 0.
0.696028 0.0850283 0.
0.698028 0.0850294 0.
0.499976 0.0870335 0.
0.501976 0.0870322 0.
0.503976 0.0870306 0.
0.505977 0.0870292 0.
0.507977 0.0870286 0.
0.509978 0.087028 0.
0.511978 0.0870272 0.
0.513978 0.087026 0.
0.515978 0.0870249 0.
0.517979 0.0870235 0.
0.519979 0.0870221 0.
0.521979 0.0870206 0.
0.52398 0.0870199 0.
0.52598 0.0870193 0.
0.52798 0.0870186 0.
0.529981 0.0870177 0.
0.531981 0.0870167 0.
0.533982 0.0870159 0.
0.535982 0.0870152 0.
0.537983 0.0870146 0.
0.539983 0.0870142 0.
0.541984 0.0870139 0.
0.543984 0.0870137 0.
0.545985 0.0870133 0.
0.547985 0.0870129 0.
0.549985 0.0870125 0.
0.551986 0.0870126 0.
0.553987 0.0870127 0.
0.555988 0.0870128 0.
0.557989 0.0870129 0.
0.55999 0.087013 0.
0.56199 0.087013 0.
0.563991 0.0870129 0.
0.565991 0.0870129 0.
0.567991 0.0870132 0.
0.569992 0.0870138 0.
0.571992 0.0870144 0.
0.573992 0.0870145 0.
0.575993 0.0870146 0.
0.577993 0.0870145 0.
0.579994 0.0870137 0.
0.581994 0.0870128 0.
0.583995 0.0870125 0.
0.585996 0.0870132 0.
0.587997 0.087014 0.
0.589998 0.0870145 0.
0.591998 0.0870149 0.
0.593999 0.0870152 0.
0.596 0.0870152 0.
0.598001 0.087015 0.
0.600002 0.0870149 0.
0.602003 0.0870158 0.
0.604004 0.0870167 0.
0.606005 0.0870173 0.
0.608006 0.0870168 0.
0.610006 0.0870163 0.
0.612007 0.0870158 0.
0.614008 0.0870155 0.
0.616009 0.0870152 0.
0.61801 0.0870148 0.
0.620011 0.0870143 0.
0.622011 0.0870138 0.
0.624012 0.0870132 0.
0.626013 0.0870125 0.
0.628013 0.087012 0.
0.630014 0.0870117 0.
0.632014 0.0870115 0.
0.634014 0.0870113 0.
0.636015 0.0870114 0.
0.638016 0.0870115 0.
0.640017 0.0870116 0.
0.642017 0.0870118 0.
0.644018 0.087012 0.
0.646018 0.087012 0.
0.648019 0.0870119 0.
0.65002 0.0870119 0.
0.65202 0.0870123 0.
0.654021 0.0870127 0.
0.656021 0.0870131 0.
0.658021 0.0870135 0.
0.660021 0.0870138 0.
0.662022 0.0870141 0.
0.664022 0.0870144 0.
0.666022 0.0870146 0.
0.668023 0.0870157 0.
0.670024 0.0870172 0.
0.672025 0.0870186 0.
0.674025 0.0870193 0.
0.676026 0.0870199 0.
0.678026 0.0870206 0.
0.680026 0.0870222 0.
0.682026 0.0870239 0.
0.684027 0.087025 0.
0.686027 0.0870253 0.
0.688028 0.0870255 0.
0.690028 0.0870259 0.
0.692027 0.0870263 0.
0.694027 0.0870268 0.
0.696027 0.0870277 0.
0.698027 0.0870287 0.
0.499978 0.089034 0.
0.501978 0.0890322 0.
0.503978 0.0890303 0.
0.505978 0.0890288 0.
0.507979 0.0890285 0.
0.509979 0.0890282 0.
0.51198 0.0890275 0.
0.513979 0.0890263 0.
0.515979 0.0890252 0.
0.517979 0.0890237 0.
0.51998 0.0890222 0.
0.52198 0.0890207 0.
0.52398 0.0890198 0.
0.525981 0.0890189 0.
0.527981 0.0890181 0.
0.529982 0.0890171 0.
0.531982 0.0890161 0.
0.533983 0.0890152 0.
0.535983 0.0890147 0.
0.537983 0.0890141 0.
0.539984 0.0890137 0.
0.541984 0.0890135 0.
0.543985 0.0890132 0.
0.545986 0.089013 0.
0.547986 0.0890128 0.
0.549986 0.0890125 0.
0.551987 0.0890125 0.
0.553987 0.0890125 0.
0.555988 0.0890125 0.
0.557989 0.0890125 0.
0.55999 0.0890125 0.
0.56199 0.0890125 0.
0.563991 0.0890127 0.
0.565991 0.0890129 0.
0.567991 0.0890135 0.
0.569991 0.0890142 0.
0.571991 0.0890149 0.
0.573992 0.089015 0.
0.575993 0.089015 0.
0.577994 0.0890148 0.
0.579994 0.0890138 0.
0.581995 0.0890128 0.
0.583995 0.0890123 0.
0.585996 0.0890131 0.
0.587996 0.0890138 0.
0.589997 0.0890141 0.
0.591998 0.089014 0.
0.593999 0.0890139 0.
0.595999 0.0890141 0.
0.598001 0.0890142 0.
0.600002 0.0890144 0.
0.602003 0.0890155 0.
0.604004 0.0890167 0.
0.606005 0.0890174 0.
0.608006 0.0890167 0.
0.610007 0.0890161 0.
0.612008 0.0890157 0.
0.614009 0.0890156 0.
0.61601 0.0890155 0.
0.61801 0.0890151 0.
0.620011 0.0890144 0.
0.622012 0.0890137 0.
0.624012 0.089013 0.
0.626013 0.0890122 0.
0.628013 0.0890116 0.
0.630013 0.0890116 0.
0.632014 0.0890117 0.
0.634014 0.0890117 0.
0.636015 0.0890117 0.
0.638015 0.0890116 0.
0.640016 0.0890115 0.
0.642017 0.0890114 0.
0.644017 0.0890113 0.
0.646018 0.0890115 0.
0.648019 0.0890117 0.
0.65002 0.0890119 0.
0.65202 0.0890124 0.
0.654021 0.0890129 0.
0.656021 0.0890133 0.
0.658021 0.0890137 0.
0.660021 0.0890141 0.
0.662021 0.0890143 0.
0.664021 0.0890144 0.
0.666021 0.0890145 0.
0.668022 0.0890155 0.
0.670022 0.0890168 0.
0.672023 0.0890181 0.
0.674023 0.089019 0.
0.676024 0.0890198 0.
0.678025 0.0890207 0.
0.680025 0.0890223 0.
0.682026 0.0890239 0.
0.684026 0.0890251 0.
0.686027 0.0890253 0.
0.688027 0.0890254 0.
0.690027 0.0890257 0.
0.692027 0.089026 0.
0.694026 0.0890262 0.
0.696026 0.0890271 0.
0.698026 0.0890281 0.
0.499979 0.091033 0.
0.501979 0.0910317 0.
0.503979 0.0910302 0.
0.505979 0.091029 0.
0.507979 0.0910286 0.
0.50998 0.0910282 0.
0.51198 0.0910275 0.
0.51398 0.0910264 0.
0.51598 0.0910254 0.
0.51798 0.091024 0.
0.51998 0.0910224 0.
0.52198 0.0910208 0.
0.523981 0.0910198 0.
0.525982 0.0910188 0.
0.527982 0.0910179 0.
0.529983 0.0910168 0.
0.531983 0.0910158 0.
0.533983 0.0910148 0.
0.535984 0.0910142 0.
0.537984 0.0910136 0.
0.539984 0.0910132 0.
0.541985 0.091013 0.
0.543985 0.0910129 0.
0.545986 0.0910128 0.
0.547986 0.0910127 0.
0.549987 0.0910126 0.
0.551987 0.0910126 0.
0.553988 0.0910125 0.
0.555988 0.0910124 0.
0.557989 0.0910124 0.
0.55999 0.0910123 0.
0.56199 0.0910124 0.
0.56399 0.0910127 0.
0.56599 0.0910129 0.
0.56799 0.0910135 0.
0.56999 0.0910142 0.
0.57199 0.0910149 0.
0.573991 0.0910149 0.
0.575993 0.0910148 0.
0.577994 0.0910147 0.
0.579994 0.0910138 0.
0.581995 0.091013 0.
0.583995 0.0910126 0.
0.585995 0.091013 0.
0.587996 0.0910134 0.
0.589997 0.0910136 0.
0.591998 0.0910135 0.
0.593999 0.0910134 0.
0.596 0.0910137 0.
0.598 0.091014 0.
0.600001 0.0910143 0.
0.602002 0.0910154 0.
0.604003 0.0910165 0.
0.606004 0.0910173 0.
0.608006 0.0910165 0.
0.610007 0.0910158 0.
0.612008 0.0910154 0.
0.614009 0.0910154 0.
0.61601 0.0910155 0.
0.61801 0.091015 0.
0.620011 0.0910144 0.
0.622012 0.0910137 0.
0.624012 0.0910129 0.
0.626012 0.0910121 0.
0.628013 0.0910113 0.
0.630013 0.0910115 0.
0.632014 0.0910116 0.
0.634014 0.0910117 0.
0.636015 0.0910117 0.
0.638015 0.0910116 0.
0.640015 0.0910115 0.
0.642016 0.0910113 0.
0.644017 0.0910111 0.
0.646017 0.0910113 0.
0.648018 0.0910117 0.
0.650019 0.091012 0.
0.65202 0.0910125 0.
0.65402 0.091013 0.
0.65602 0.0910135 0.
0.65802 0.0910139 0.
0.66002 0.0910143 0.
0.66202 0.0910145 0.
0.664021 0.0910145 0.
0.666021 0.0910145 0.
0.668021 0.0910154 0.
0.670022 0.0910167 0.
0.672022 0.091018 0.
0.674023 0.0910189 0.
0.676023 0.0910198 0.
0.678024 0.0910207 0.
0.680024 0.0910223 0.
0.682025 0.0910239 0.
0.684025 0.091025 0.
0.686026 0.0910252 0.
0.688027 0.0910254 0.
0.690027 0.0910256 0.
0.692026 0.0910259 0.
0.694026 0.0910261 0.
0.696025 0.0910268 0.
0.698025 0.0910276 0.
0.49998 0.0930311 0.
0.50198 0.0930308 0.
0.50398 0.0930304 0.
0.50598 0.0930299 0.
0.50798 0.0930289 0.
0.50998 0.093028 0.
0.51198 0.0930271 0.
0.51398 0.0930263 0.
0.51598 0.0930255 0.
0.51798 0.0930242 0.
0.519981 0.0930225 0.
0.521981 0.0930209 0.
0.523981 0.0930199 0.
0.525982 0.093019 0.
0.527983 0.0930181 0.
0.529983 0.0930169 0.
0.531984 0.0930157 0.
0.533984 0.0930146 0.
0.535984 0.0930138 0.
0.537984 0.093013 0.
0.539985 0.0930127 0.
0.541985 0.0930127 0.
0.543985 0.0930126 0.
0.545986 0.0930127 0.
0.547986 0.0930127 0.
0.549987 0.0930127 0.
0.551988 0.0930127 0.
0.553988 0.0930127 0.
0.555989 0.0930127 0.
0.557989 0.0930126 0.
0.559989 0.0930125 0.
0.561989 0.0930126 0.
0.563989 0.0930127 0.
0.565989 0.0930129 0.
0.56799 0.0930133 0.
0.56999 0.0930138 0.
0.571991 0.0930142 0.
0.573992 0.0930142 0.
0.575993 0.0930142 0.
0.577994 0.0930141 0.
0.579994 0.0930137 0.
0.581994 0.0930134 0.
0.583995 0.0930131 0.
0.585995 0.093013 0.
0.587996 0.0930129 0.
0.589997 0.093013 0.
0.591998 0.0930133 0.
0.593999 0.0930136 0.
0.596 0.0930139 0.
0.598 0.0930142 0.
0.600001 0.0930146 0.
0.602002 0.0930155 0.
0.604003 0.0930164 0.
0.606004 0.0930169 0.
0.608005 0.0930162 0.
0.610006 0.0930154 0.
0.612007 0.093015 0.
0.614008 0.093015 0.
0.616009 0.0930149 0.
0.61801 0.0930147 0.
0.620011 0.0930143 0.
0.622012 0.0930139 0.
0.624012 0.093013 0.
0.626012 0.0930121 0.
0.628013 0.0930113 0.
0.630013 0.0930113 0.
0.632014 0.0930113 0.
0.634014 0.0930113 0.
0.636014 0.0930114 0.
0.638015 0.0930115 0.
0.640015 0.0930115 0.
0.642016 0.0930114 0.
0.644016 0.0930114 0.
0.646017 0.0930116 0.
0.648017 0.093012 0.
0.650018 0.0930123 0.
0.652018 0.0930128 0.
0.654019 0.0930132 0.
0.656019 0.0930137 0.
0.658019 0.0930141 0.
0.66002 0.0930146 0.
0.66202 0.0930147 0.
0.664021 0.0930146 0.
0.666021 0.0930145 0.
0.668022 0.0930154 0.
0.670022 0.0930168 0.
0.672022 0.0930181 0.
0.674022 0.093019 0.
0.676023 0.0930198 0.
0.678023 0.0930207 0.
0.680024 0.0930222 0.
0.682024 0.0930236 0.
0.684024 0.0930247 0.
0.686025 0.093025 0.
0.688026 0.0930253 0.
0.690026 0.0930257 0.
0.692025 0.093026 0.
0.694025 0.0930264 0.
0.696024 0.0930269 0.
0.698024 0.0930274 0.
0.499981 0.0950292 0.
0.501981 0.0950299 0.
0.503981 0.0950305 0.
0.505981 0.0950307 0.
0.50798 0.0950293 0.
0.50998 0.0950279 0.
0.51198 0.0950268 0.
0.51398 0.0950262 0.
0.51598 0.0950257 0.
0.517981 0.0950244 0.
0.519981 0.0950227 0.
0.521981 0.095021 0.
0.523982 0.09502 0.
0.525982 0.0950191 0.
0.527983 0.0950182 0.
0.529984 0.0950169 0.
0.531984 0.0950156 0.
0.533985 0.0950144 0.
0.535985 0.0950135 0.
0.537985 0.0950125 0.
0.539985 0.0950122 0.
0.541985 0.0950123 0.
0.543986 0.0950124 0.
0.545986 0.0950125 0.
0.547986 0.0950127 0.
0.549987 0.0950128 0.
0.551988 0.0950129 0.
0.553988 0.0950129 0.
0.555989 0.0950129 0.
0.557989 0.0950128 0.
0.559988 0.0950127 0.
0.561988 0.0950127 0.
0.563988 0.0950128 0.
0.565989 0.0950129 0.
0.567989 0.0950131 0.
0.56999 0.0950134 0.
0.571991 0.0950136 0.
0.573992 0.0950136 0.
0.575992 0.0950135 0.
0.577993 0.0950135 0.
0.579994 0.0950136 0.
0.581994 0.0950137 0.
0.583995 0.0950136 0.
0.585995 0.095013 0.
0.587996 0.0950124 0.
0.589997 0.0950124 0.
0.591998 0.0950131 0.
0.594 0.0950138 0.
0.596 0.0950142 0.
0.598 0.0950145 0.
0.600001 0.0950148 0.
0.602002 0.0950155 0.
0.604003 0.0950162 0.
0.606004 0.0950166 0.
0.608005 0.0950158 0.
0.610005 0.0950151 0.
0.612006 0.0950146 0.
0.614007 0.0950145 0.
0.616008 0.0950144 0.
0.618009 0.0950143 0.
0.62001 0.0950142 0.
0.622011 0.0950141 0.
0.624012 0.0950131 0.
0.626012 0.0950121 0.
0.628013 0.0950113 0.
0.630013 0.0950111 0.
0.632014 0.095011 0.
0.634014 0.095011 0.
0.636014 0.0950112 0.
0.638014 0.0950114 0.
0.640015 0.0950116 0.
0.642015 0.0950116 0.
0.644015 0.0950116 0.
0.646016 0.0950119 0.
0.648016 0.0950122 0.
0.650016 0.0950125 0.
0.652017 0.095013 0.
0.654017 0.0950135 0.
0.656018 0.0950139 0.
0.658019 0.0950144 0.
0.660019 0.0950148 0.
0.66202 0.095015 0.
0.664021 0.0950148 0.
0.666022 0.0950146 0.
0.668022 0.0950154 0.
0.670022 0.0950168 0.
0.672022 0.0950183 0.
0.674022 0.0950191 0.
0.676023 0.0950198 0.
0.678023 0.0950207 0.
0.680023 0.095022 0.
0.682023 0.0950234 0.
0.684023 0.0950244 0.
0.686024 0.0950248 0.
0.688025 0.0950253 0.
0.690025 0.0950258 0.
0.692024 0.0950262 0.
0.694024 0.0950267 0.
0.696024 0.0950269 0.
0.698024 0.0950272 0.
0.499981 0.0970301 0.
0.501981 0.0970301 0.
0.503982 0.0970304 0.
0.505982 0.0970303 0.
0.507982 0.097029 0.
0.509982 0.0970276 0.
0.511981 0.0970266 0.
0.513981 0.097026 0.
0.515981 0.0970253 0.
0.517982 0.0970241 0.
0.519982 0.0970225 0.
0.521982 0.0970209 0.
0.523983 0.0970198 0.
0.525984 0.0970188 0.
0.527984 0.0970178 0.
0.529985 0.0970166 0.
0.531985 0.0970155 0.
0.533985 0.0970144 0.
0.535986 0.0970136 0.
0.537986 0.0970128 0.
0.539986 0.0970124 0.
0.541986 0.0970125 0.
0.543985 0.0970126 0.
0.545986 0.0970126 0.
0.547986 0.0970126 0.
0.549987 0.0970125 0.
0.551987 0.0970126 0.
0.553987 0.0970126 0.
0.555987 0.0970126 0.
0.557987 0.0970127 0.
0.559987 0.0970128 0.
0.561987 0.097013 0.
0.563988 0.0970131 0.
0.565988 0.0970132 0.
0.567989 0.0970132 0.
0.56999 0.0970133 0.
0.571991 0.0970134 0.
0.573992 0.0970133 0.
0.575992 0.0970132 0.
0.577993 0.0970131 0.
0.579994 0.0970134 0.
0.581995 0.0970137 0.
0.583995 0.0970136 0.
0.585996 0.0970129 0.
0.587996 0.0970121 0.
0.589997 0.0970122 0.
0.591998 0.097013 0.
0.593999 0.0970139 0.
0.595999 0.0970143 0.
0.598 0.0970146 0.
0.6 0.0970149 0.
0.602002 0.097015 0.
0.604003 0.0970152 0.
0.606004 0.0970152 0.
0.608004 0.0970149 0.
0.610005 0.0970147 0.
0.612006 0.0970145 0.
0.614007 0.0970142 0.
0.616008 0.097014 0.
0.618009 0.0970138 0.
0.62001 0.0970135 0.
0.622011 0.0970132 0.
0.624012 0.0970125 0.
0.626012 0.0970119 0.
0.628013 0.0970112 0.
0.630013 0.0970109 0.
0.632014 0.0970105 0.
0.634014 0.0970105 0.
0.636014 0.097011 0.
0.638014 0.0970115 0.
0.640014 0.0970117 0.
0.642015 0.0970117 0.
0.644015 0.0970117 0.
0.646016 0.097012 0.
0.648016 0.0970125 0.
0.650016 0.0970129 0.
0.652017 0.0970131 0.
0.654017 0.0970133 0.
0.656018 0.0970135 0.
0.658018 0.0970137 0.
0.660019 0.0970139 0.
0.662019 0.0970142 0.
0.66402 0.0970145 0.
0.66602 0.0970149 0.
0.668021 0.0970158 0.
0.670021 0.0970171 0.
0.672021 0.0970183 0.
0.674021 0.0970192 0.
0.676022 0.0970202 0.
0.678022 0.0970211 0.
0.680022 0.0970221 0.
0.682023 0.0970231 0.
0.684023 0.0970239 0.
0.686023 0.0970244 0.
0.688024 0.0970249 0.
0.690024 0.0970254 0.
0.692024 0.0970261 0.
0.694023 0.0970267 0.
0.696024 0.097027 0.
0.698024 0.0970271 0.
0.499981 0.0990306 0.
0.501982 0.0990303 0.
0.503983 0.0990302 0.
0.505983 0.0990299 0.
0.507983 0.0990287 0.
0.509983 0.0990274 0.
0.511983 0.0990265 0.
0.513983 0.0990257 0.
0.515982 0.099025 0.
0.517983 0.0990238 0.
0.519983 0.0990222 0.
0.521983 0.0990207 0.
0.523984 0.0990196 0.
0.525985 0.0990185 0.
0.527985 0.0990174 0.
0.529986 0.0990163 0.
0.531986 0.0990153 0.
0.533986 0.0990144 0.
0.535986 0.0990137 0.
0.537987 0.099013 0.
0.539986 0.0990127 0.
0.541986 0.0990127 0.
0.543985 0.0990128 0.
0.545985 0.0990126 0.
0.547986 0.0990124 0.
0.549986 0.0990122 0.
0.551986 0.0990123 0.
0.553986 0.0990123 0.
0.555986 0.0990123 0.
0.557986 0.0990127 0.
0.559986 0.099013 0.
0.561987 0.0990132 0.
0.563988 0.0990133 0.
0.565988 0.0990134 0.
0.567989 0.0990134 0.
0.56999 0.0990133 0.
0.571991 0.0990132 0.
0.573991 0.0990131 0.
0.575992 0.0990129 0.
0.577993 0.0990127 0.
0.579994 0.0990132 0.
0.581995 0.0990136 0.
0.583996 0.0990136 0.
0.585996 0.0990128 0.
0.587996 0.0990119 0.
0.589997 0.0990121 0.
0.591997 0.099013 0.
0.593998 0.0990139 0.
0.595998 0.0990144 0.
0.597999 0.0990147 0.
0.6 0.099015 0.
0.602001 0.0990146 0.
0.604003 0.0990141 0.
0.606004 0.0990138 0.
0.608004 0.0990141 0.
0.610005 0.0990143 0.
0.612006 0.0990143 0.
0.614007 0.099014 0.
0.616008 0.0990136 0.
0.618009 0.0990132 0.
0.62001 0.0990128 0.
0.622011 0.0990123 0.
0.624012 0.099012 0.
0.626013 0.0990116 0.
0.628013 0.0990112 0.
0.630013 0.0990107 0.
0.632014 0.0990101 0.
0.634014 0.09901 0.
0.636014 0.0990108 0.
0.638014 0.0990115 0.
0.640014 0.0990119 0.
0.642015 0.0990118 0.
0.644015 0.0990118 0.
0.646016 0.0990122 0.
0.648016 0.0990127 0.
0.650017 0.0990132 0.
0.652017 0.0990131 0.
0.654018 0.0990131 0.
0.656018 0.0990131 0.
0.658018 0.099013 0.
0.660018 0.099013 0.
0.662018 0.0990134 0.
0.664019 0.0990143 0.
0.666019 0.0990152 0.
0.668019 0.0990162 0.
0.67002 0.0990173 0.
0.67202 0.0990183 0.
0.674021 0.0990194 0.
0.676021 0.0990205 0.
0.678022 0.0990216 0.
0.680022 0.0990222 0.
0.682022 0.0990228 0.
0.684022 0.0990233 0.
0.686023 0.0990239 0.
0.688023 0.0990244 0.
0.690023 0.0990251 0.
0.692023 0.099026 0.
0.694023 0.0990268 0.
0.696024 0.099027 0.
0.698025 0.099027 0.
CELLS 5000 10000
1 0
1 1
1 2
1 3
1 4
1 5
1 6
1 7
1 8
1 9
1 10
1 11
1 12
1 13
1 14
1 15
1 16
1 17
1 18
1 19
1 20
1 21
1 22
1 23
1 24
1 25
1 26
1 27
1 28
1 29
1 30
1 31
1 32
1 33
1 34
1 35
1 36
1 37
1 38
1 39
1 40
1 41
1 42
1 43
1 44
1 45
1 46
1 47
1 48
1 49
1 50
1 51
1 52
1 53
1 54
1 55
1 56
1 57
1 58
1 59
1 60
1 61
1 62
1 63
1 64
1 65
1 66
1 67
1 68
1 69
1 70
1 71
1 72
1 73
1 74
1 75
1 76
1 77
1 78
1 79
1 80
1 81
1 82
1 83
1 84
1 85
1 86
1 87
1 88
1 89
1 90
1 91
1 92
1 93
1 94
1 95
1 96
1 97
1 98
1 99
1 100
1 101
1 102
1 103
1 104
1 105
1 106
1 107
1 108
1 109
1 110
1 111
1 112
1 113
1 114
1 115
1 116
1 117
1 118
1 119
1 120
1 121
1 122
1 123
1 124
1 125
1 126
1 127
1 128
1 129
1 130
1 131
1 132
1 133
1 134
1 135
1 136
1 137
1 138
1 139
1 140
1 141
1 142
1 143
1 144
1 145
1 146
1 147
1 148
1 149
1 150
1 151
1 152
1 153
1 154
1 155
1 156
1 157
1 158
1 159
1 160
1 161
1 162
1 163
1 164
1 165
1 166
1 167
1 168
1 169
1 170
1 171
1 172
1 173
1 174
1 175
1 176
1 177
1 178
1 179
1 180
1 181
1 182
1 183
1 184
1 185
1 186
1 187
1 188
1 189
1 190
1 191
1 192
1 193
1 194
1 195
1 196
1 197
1 198
1 199
1 200
1 201
1 202
1 203
1 204
1 205
1 206
1 207
1 208
1 209
1 210
1 211
1 212
1 213
1 214
1 215
1 216
1 217
1 218
1 219
1 220
1 221
1 222
1 223
1 224
1 225
1 226
1 227
1 228
1 229
1 230
1 231
1 232
1 233
1 234
1 235
1 236
1 237
1 238
1 239
1 240
1 241
1 242
1 243
1 244
1 245
1 246
1 247
1 248
1 249
1 250
1 251
1 252
1 253
1 254
1 255
1 256
1 257
1 258
1 259
1 260
1 261
1 262
1 263
1 264
1 265
1 266
1 267
1 268
1 269
1 270
1 271
1 272
1 273
1 274
1 275
1 276
1 277
1 278
1 279
1 280
1 281
1 282
1 283
1 284
1 285
1 286
1 287
1 288
1 289
1 290
1 291
1 292
1 293
1 294
1 295
1 296
1 297
1 298
1 299
1 300
1 301
1 302
1 303
1 304
1 305
1 306
1 307
1 308
1 309
1 310
1 311
1 312
1 313
1 314
1 315
1 316
1 317
1 318
1 319
1 320
1 321
1 322
1 323
1 324
1 325
1 326
1 327
1 328
1 329
1 330
1 331
1 332
1 333
1 334
1 335
1 336
1 337
1 338
1 339
1 340
1 341
1 342
1 343
1 344
1 345
1 346
1 347
1 348
1 349
1 350
1 351
1 352
1 353
1 354
1 355
1 356
1 357
1 358
1 359
1 360
1 361
1 362
1 363
1 364
1 365
1 366
1 367
1 368
1 369
1 370
1 371
1 372
1 373
1 374
1 375
1 376
1 377
1 378
1 379
1 380
1 381
1 382
1 383
1 384
1 385
1 386
1 387
1 388
1 389
1 390
1 391
1 392
1 393
1 394
1 395
1 396
1 397
1 398
1 399
1 400
1 401
1 402
1 403
1 404
1 405
1 406
1 407
1 408
1 409
1 410
1 411
1 412
1 413
1 414
1 415
1 416
1 417
1 418
1 419
1 420
1 421
1 422
1 423
1 424
1 425
1 426
1 427
1 428
1 429
1 430
1 431
1 432
1 433
1 434
1 435
1 436
1 437
1 438
1 439
1 440
1 441
1 442
1 443
1 444
1 445
1 446
1 447
1 448
1 449
1 450
1 451
1 452
1 453
1 454
1 455
1 456
1 457
1 458
1 459
1 460
1 461
1 462
1 463
1 464
1 465
1 466
1 467
1 468
1 469
1 470
1 471
1 472
1 473
1 474
1 475
1 476
1 477
1 478
1 479
1 480
1 481
1 482
1 483
1 484
1 485
1 486
1 487
1 488
1 489
1 490
1 491
1 492
1 493
1 494
1 495
1 496
1 497
1 498
1 499
1 500
1 501
1 502
1 503
1 504
1 505
1 506
1 507
1 508
1 509
1 510
1 511
1 512
1 513
1 514
1 515
1 516
1 517
1 518
1 519
1 520
1 521
1 522
1 523
1 524
1 525
1 526
1 527
1 528
1 529
1 530
1 531
1 532
1 533
1 534
1 535
1 536
1 537
1 538
1 539
1 540
1 541
1 542
1 543
1 544
1 545
1 546
1 547
1 548
1 549
1 550
1 551
1 552
1 553
1 554
1 555
1 556
1 557
1 558
1 559
1 560
1 561
1 562
1 563
1 564
1 565
1 566
1 567
1 568
1 569
1 570
1 571
1 572
1 573
1 574
1 575
1 576
1 577
1 578
1 579
1 580
1 581
1 582
1 583
1 584
1 585
1 586
1 587
1 588
1 589
1 590
1 591
1 592
1 593
1 594
1 595
1 596
1 597
1 598
1 599
1 600
1 601
1 602
1 603
1 604
1 605
1 606
1 607
1 608
1 609
1 610
1 611
1 612
1 613
1 614
1 615
1 616
1 617
1 618
1 619
1 620
1 621
1 622
1 623
1 624
1 625
1 626
1 627
1 628
1 629
1 630
1 631
1 632
1 633
1 634
1 635
1 636
1 637
1 638
1 639
1 640
1 641
1 642
1 643
1 644
1 645
1 646
1 647
1 648
1 649
1 650
1 651
1 652
1 653
1 654
1 655
1 656
1 657
1 658
1 659
1 660
1 661
1 662
1 663
1 664
1 665
1 666
1 667
1 668
1 669
1 670
1 671
1 672
1 673
1 674
1 675
1 676
1 677
1 678
1 679
1 680
1 681
1 682
1 683
1 684
1 685
1 686
1 687
1 688
1 689
1 690
1 691
1 692
1 693
1 694
1 695
1 696
1 697
1 698
1 699
1 700
1 701
1 702
1 703
1 704
1 705
1 706
1 707
1 708
1 709
1 710
1 711
1 712
1 713
1 714
1 715
1 716
1 717
1 718
1 719
1 720
1 721
1 722
1 723
1 724
1 725
1 726
1 727
1 728
1 729
1 730
1 731
1 732
1 733
1 734
1 735
1 736
1 737
1 738
1 739
1 740
1 741
1 742
1 743
1 744
1 745
1 746
1 747
1 748
1 749
1 750
1 751
1 752
1 753
1 754
1 755
1 756
1 757
1 758
1 759
1 760
1 761
1 762
1 763
1 764
1 765
1 766
1 767
1 768
1 769
1 770
1 771
1 772
1 773
1 774
1 775
1 776
1 777
1 778
1 779
1 780
1 781
1 782
1 783
1 784
1 785
1 786
1 787
1 788
1 789
1 790
1 791
1 792
1 793
1 794
1 795
1 796
1 797
1 798
1 799
1 800
1 801
1 802
1 803
1 804
1 805
1 806
1 807
1 808
1 809
1 810
1 811
1 812
1 813
1 814
1 815
1 816
1 817
1 818
1 819
1 820
1 821
1 822
1 823
1 824
1 825
1 826
1 827
1 828
1 829
1 830
1 831
1 832
1 833
1 834
1 835
1 836
1 837
1 838
1 839
1 840
1 841
1 842
1 843
1 844
1 845
1 846
1 847
1 848
1 849
1 850
1 851
1 852
1 853
1 854
1 855
1 856
1 857
1 858
1 859
1 860
1 861
1 862
1 863
1 864
1 865
1 866
1 867
1 868
1 869
1 870
1 871
1 872
1 873
1 874
1 875
1 876
1 877
1 878
1 879
1 880
1 881
1 882
1 883
1 884
1 885
1 886
1 887
1 888
1 889
1 890
1 891
1 892
1 893
1 894
1 895
1 896
1 897
1 898
1 899
1 900
1 901
1 902
1 903
1 904
1 905
1 906
1 907
1 908
1 909
1 910
1 911
1 912
1 913
1 914
1 915
1 916
1 917
1 918
1 919
1 920
1 921
1 922
1 923
1 924
1 925
1 926
1 927
1 928
1 929
1 930
1 931
1 932
1 933
1 934
1 935
1 936
1 937
1 938
1 939
1 940
1 941
1 942
1 943
1 944
1 945
1 946
1 947
1 948
1 949
1 950
1 951
1 952
1 953
1 954
1 955
1 956
1 957
1 958
1 959
1 960
1 961
1 962
1 963
1 964
1 965
1 966
1 967
1 968
1 969
1 970
1 971
1 972
1 973
1 974
1 975
1 976
1 977
1 978
1 979
1 980
1 981
1 982
1 983
1 984
1 985
1 986
1 987
1 988
1 989
1 990
1 991
1 992
1 993
1 994
1 995
1 996
1 997
1 998
1 999
1 1000
1 1001
1 1002
1 1003
1 1004
1 1005
1 1006
1 1007
1 1008
1 1009
1 1010
1 1011
1 1012
1 1013
1 1014
1 1015
1 1016
1 1017
1 1018
1 1019
1 1020
1 1021
1 1022
1 1023
1 1024
1 1025
1 1026
1 1027
1 1028
1 1029
1 1030
1 1031
1 1032
1 1033
1 1034
1 1035
1 1036
1 1037
1 1038
1 1039
1 1040
1 1041
1 1042
1 1043
1 1044
1 1045
1 1046
1 1047
1 1048
1 1049
1 1050
1 1051
1 1052
1 1053
1 1054
1 1055
1 1056
1 1057
1 1058
1 1059
1 1060
1 1061
1 1062
1 1063
1 1064
1 1065
1 1066
1 1067
1 1068
1 1069
1 1070
1 1071
1 1072
1 1073
1 1074
1 1075
1 1076
1 1077
1 1078
1 1079
1 1080
1 1081
1 1082
1 1083
1 1084
1 1085
1 1086
1 1087
1 1088
1 1089
1 1090
1 1091
1 1092
1 1093
1 1094
1 1095
1 1096
1 1097
1 1098
1 1099
1 1100
1 1101
1 1102
1 1103
1 1104
1 1105
1 1106
1 1107
1 1108
1 1109
1 1110
1 1111
1 1112
1 1113
1 1114
1 1115
1 1116
1 1117
1 1118
1 1119
1 1120
1 1121
1 1122
1 1123
1 1124
1 1125
1 1126
1 1127
1 1128
1 1129
1 1130
1 1131
1 1132
1 1133
1 1134
1 1135
1 1136
1 1137
1 1138
1 1139
1 1140
1 1141
1 1142
1 1143
1 1144
1 1145
1 1146
1 1147
1 1148
1 1149
1 1150
1 1151
1 1152
1 1153
1 1154
1 1155
1 1156
1 1157
1 1158
1 1159
1 1160
1 1161
1 1162
1 1163
1 1164
1 1165
1 1166
1 1167
1 1168
1 1169
1 1170
1 1171
1 1172
1 1173
1 1174
1 1175
1 1176
1 1177
1 1178
1 1179
1 1180
1 1181
1 1182
1 1183
1 1184
1 1185
1 1186
1 1187
1 1188
1 1189
1 1190
1 1191
1 1192
1 1193
1 1194
1 1195
1 1196
1 1197
1 1198
1 1199
1 1200
1 1201
1 1202
1 1203
1 1204
1 1205
1 1206
1 1207
1 1208
1 1209
1 1210
1 1211
1 1212
1 1213
1 1214
1 1215
1 1216
1 1217
1 1218
1 1219
1 1220
1 1221
1 1222
1 1223
1 1224
1 1225
1 1226
1 1227
1 1228
1 1229
1 1230
1 1231
1 1232
1 1233
1 1234
1 1235
1 1236
1 1237
1 1238
1 1239
1 1240
1 1241
1 1242
1 1243
1 1244
1 1245
1 1246
1 1247
1 1248
1 1249
1 1250
1 1251
1 1252
1 1253
1 1254
1 1255
1 1256
1 1257
1 1258
1 1259
1 1260
1 1261
1 1262
1 1263
1 1264
1 1265
1 1266
1 1267
1 1268
1 1269
1 1270
1 1271
1 1272
1 1273
1 1274
1 1275
1 1276
1 1277
1 1278
1 1279
1 1280
1 1281
1 1282
1 1283
1 1284
1 1285
1 1286
1 1287
1 1288
1 1289
1 1290
1 1291
1 1292
1 1293
1 1294
1 1295
1 1296
1 1297
1 1298
1 1299
1 1300
1 1301
1 1302
1 1303
1 1304
1 1305
1 1306
1 1307
1 1308
1 1309
1 1310
1 1311
1 1312
1 1313
1 1314
1 1315
1 1316
1 1317
1 1318
1 1319
1 1320
1 1321
1 1322
1 1323
1 1324
1 1325
1 1326
1 1327
1 1328
1 1329
1 1330
1 1331
1 1332
1 1333
1 1334
1 1335
1 1336
1 1337
1 1338
1 1339
1 1340
1 1341
1 1342
1 1343
1 1344
1 1345
1 1346
1 1347
1 1348
1 1349
1 1350
1 1351
1 1352
1 1353
1 1354
1 1355
1 1356
1 1357
1 1358
1 1359
1 1360
1 1361
1 1362
1 1363
1 1364
1 1365
1 1366
1 1367
1 1368
1 1369
1 1370
1 1371
1 1372
1 1373
1 1374
1 1375
1 1376
1 1377
1 1378
1 1379
1 1380
1 1381
1 1382
1 1383
1 1384
1 1385
1 1386
1 1387
1 1388
1 1389
1 1390
1 1391
1 1392
1 1393
1 1394
1 1395
1 1396
1 1397
1 1398
1 1399
1 1400
1 1401
1 1402
1 1403
1 1404
1 1405
1 1406
1 1407
1 1408
1 1409
1 1410
1 1411
1 1412
1 1413
1 1414
1 1415
1 1416
1 1417
1 1418
1 1419
1 1420
1 1421
1 1422
1 1423
1 1424
1 1425
1 1426
1 1427
1 1428
1 1429
1 1430
1 1431
1 1432
1 1433
1 1434
1 1435
1 1436
1 1437
1 1438
1 1439
1 1440
1 1441
1 1442
1 1443
1 1444
1 1445
1 1446
1 1447
1 1448
1 1449
1 1450
1 1451
1 1452
1 1453
1 1454
1 1455
1 1456
1 1457
1 1458
1 1459
1 1460
1 1461
1 1462
1 1463
1 1464
1 1465
1 1466
1 1467
1 1468
1 1469
1 1470
1 1471
1 1472
1 1473
1 1474
1 1475
1 1476
1 1477
1 1478
1 1479
1 1480
1 1481
1 1482
1 1483
1 1484
1 1485
1 1486
1 1487
1 1488
1 1489
1 1490
1 1491
1 1492
1 1493
1 1494
1 1495
1 1496
1 1497
1 1498
1 1499
1 1500
1 1501
1 1502
1 1503
1 1504
1 1505
1 1506
1 1507
1 1508
1 1509
1 1510
1 1511
1 1512
1 1513
1 1514
1 1515
1 1516
1 1517
1 1518
1 1519
1 1520
1 1521
1 1522
1 1523
1 1524
1 1525
1 1526
1 1527
1 1528
1 1529
1 1530
1 1531
1 1532
1 1533
1 1534
1 1535
1 1536
1 1537
1 1538
1 1539
1 1540
1 1541
1 1542
1 1543
1 1544
1 1545
1 1546
1 1547
1 1548
1 1549
1 1550
1 1551
1 1552
1 1553
1 1554
1 1555
1 1556
1 1557
1 1558
1 1559
1 1560
1 1561
1 1562
1 1563
1 1564
1 1565
1 1566
1 1567
1 1568
1 1569
1 1570
1 1571
1 1572
1 1573
1 1574
1 1575
1 1576
1 1577
1 1578
1 1579
1 1580
1 1581
1 1582
1 1583
1 1584
1 1585
1 1586
1 1587
1 1588
1 1589
1 1590
1 1591
1 1592
1 1593
1 1594
1 1595
1 1596
1 1597
1 1598
1 1599
1 1600
1 1601
1 1602
1 1603
1 1604
1 1605
1 1606
1 1607
1 1608
1 1609
1 1610
1 1611
1 1612
1 1613
1 1614
1 1615
1 1616
1 1617
1 1618
1 1619
1 1620
1 1621
1 1622
1 1623
1 1624
1 1625
1 1626
1 1627
1 1628
1 1629
1 1630
1 1631
1 1632
1 1633
1 1634
1 1635
1 1636
1 1637
1 1638
1 1639
1 1640
1 1641
1 1642
1 1643
1 1644
1 1645
1 1646
1 1647
1 1648
1 1649
1 1650
1 1651
1 1652
1 1653
1 1654
1 1655
1 1656
1 1657
1 1658
1 1659
1 1660
1 1661
1 1662
1 1663
1 1664
1 1665
1 1666
1 1667
1 1668
1 1669
1 1670
1 1671
1 1672
1 1673
1 1674
1 1675
1 1676
1 1677
1 1678
1 1679
1 1680
1 1681
1 1682
1 1683
1 1684
1 1685
1 1686
1 1687
1 1688
1 1689
1 1690
1 1691
1 1692
1 1693
1 1694
1 1695
1 1696
1 1697
1 1698
1 1699
1 1700
1 1701
1 1702
1 1703
1 1704
1 1705
1 1706
1 1707
1 1708
1 1709
1 1710
1 1711
1 1712
1 1713
1 1714
1 1715
1 1716
1 1717
1 1718
1 1719
1 1720
1 1721
1 1722
1 1723
1 1724
1 1725
1 1726
1 1727
1 1728
1 1729
1 1730
1 1731
1 1732
1 1733
1 1734
1 1735
1 1736
1 1737
1 1738
1 1739
1 1740
1 1741
1 1742
1 1743
1 1744
1 1745
1 1746
1 1747
1 1748
1 1749
1 1750
1 1751
1 1752
1 1753
1 1754
1 1755
1 1756
1 1757
1 1758
1 1759
1 1760
1 1761
1 1762
1 1763
1 1764
1 1765
1 1766
1 1767
1 1768
1 1769
1 1770
1 1771
1 1772
1 1773
1 1774
1 1775
1 1776
1 1777
1 1778
1 1779
1 1780
1 1781
1 1782
1 1783
1 1784
1 1785
1 1786
1 1787
1 1788
1 1789
1 1790
1 1791
1 1792
1 1793
1 1794
1 1795
1 1796
1 1797
1 1798
1 1799
1 1800
1 1801
1 1802
1 1803
1 1804
1 1805
1 1806
1 1807
1 1808
1 1809
1 1810
1 1811
1 1812
1 1813
1 1814
1 1815
1 1816
1 1817
1 1818
1 1819
1 1820
1 1821
1 1822
1 1823
1 1824
1 1825
1 1826
1 1827
1 1828
1 1829
1 1830
1 1831
1 1832
1 1833
1 1834
1 1835
1 1836
1 1837
1 1838
1 1839
1 1840
1 1841
1 1842
1 1843
1 1844
1 1845
1 1846
1 1847
1 1848
1 1849
1 1850
1 1851
1 1852
1 1853
1 1854
1 1855
1 1856
1 1857
1 1858
1 1859
1 1860
1 1861
1 1862
1 1863
1 1864
1 1865
1 1866
1 1867
1 1868
1 1869
1 1870
1 1871
1 1872
1 1873
1 1874
1 1875
1 1876
1 1877
1 1878
1 1879
1 1880
1 1881
1 1882
1 1883
1 1884
1 1885
1 1886
1 1887
1 1888
1 1889
1 1890
1 1891
1 1892
1 1893
1 1894
1 1895
1 1896
1 1897
1 1898
1 1899
1 1900
1 1901
1 1902
1 1903
1 1904
1 1905
1 1906
1 1907
1 1908
1 1909
1 1910
1 1911
1 1912
1 1913
1 1914
1 1915
1 1916
1 1917
1 1918
1 1919
1 1920
1 1921
1 1922
1 1923
1 1924
1 1925
1 1926
1 1927
1 1928
1 1929
1 1930
1 1931
1 1932
1 1933
1 1934
1 1935
1 1936
1 1937
1 1938
1 1939
1 1940
1 1941
1 1942
1 1943
1 1944
1 1945
1 1946
1 1947
1 1948
1 1949
1 1950
1 1951
1 1952
1 1953
1 1954
1 1955
1 1956
1 1957
1 1958
1 1959
1 1960
1 1961
1 1962
1 1963
1 1964
1 1965
1 1966
1 1967
1 1968
1 1969
1 1970
1 1971
1 1972
1 1973
1 1974
1 1975
1 1976
1 1977
1 1978
1 1979
1 1980
1 1981
1 1982
1 1983
1 1984
1 1985
1 1986
1 1987
1 1988
1 1989
1 1990
1 1991
1 1992
1 1993
1 1994
1 1995
1 1996
1 1997
1 1998
1 1999
1 2000
1 2001
1 2002
1 2003
1 2004
1 2005
1 2006
1 2007
1 2008
1 2009
1 2010
1 2011
1 2012
1 2013
1 2014
1 2015
1 2016
1 2017
1 2018
1 2019
1 2020
1 2021
1 2022
1 2023
1 2024
1 2025
1 2026
1 2027
1 2028
1 2029
1 2030
1 2031
1 2032
1 2033
1 2034
1 2035
1 2036
1 2037
1 2038
1 2039
1 2040
1 2041
1 2042
1 2043
1 2044
1 2045
1 2046
1 2047
1 2048
1 2049
1 2050
1 2051
1 2052
1 2053
1 2054
1 2055
1 2056
1 2057
1 2058
1 2059
1 2060
1 2061
1 2062
1 2063
1 2064
1 2065
1 2066
1 2067
1 2068
1 2069
1 2070
1 2071
1 2072
1 2073
1 2074
1 2075
1 2076
1 2077
1 2078
1 2079
1 2080
1 2081
1 2082
1 2083
1 2084
1 2085
1 2086
1 2087
1 2088
1 2089
1 2090
1 2091
1 2092
1 2093
1 2094
1 2095
1 2096
1 2097
1 2098
1 2099
1 2100
1 2101
1 2102
1 2103
1 2104
1 2105
1 2106
1 2107
1 2108
1 2109
1 2110
1 2111
1 2112
1 2113
1 2114
1 2115
1 2116
1 2117
1 2118
1 2119
1 2120
1 2121
1 2122
1 2123
1 2124
1 2125
1 2126
1 2127
1 2128
1 2129
1 2130
1 2131
1 2132
1 2133
1 2134
1 2135
1 2136
1 2137
1 2138
1 2139
1 2140
1 2141
1 2142
1 2143
1 2144
1 2145
1 2146
1 2147
1 2148
1 2149
1 2150
1 2151
1 2152
1 2153
1 2154
1 2155
1 2156
1 2157
1 2158
1 2159
1 2160
1 2161
1 2162
1 2163
1 2164
1 2165
1 2166
1 2167
1 2168
1 2169
1 2170
1 2171
1 2172
1 2173
1 2174
1 2175
1 2176
1 2177
1 2178
1 2179
1 2180
1 2181
1 2182
1 2183
1 2184
1 2185
1 2186
1 2187
1 2188
1 2189
1 2190
1 2191
1 2192
1 2193
1 2194
1 2195
1 2196
1 2197
1 2198
1 2199
1 2200
1 2201
1 2202
1 2203
1 2204
1 2205
1 2206
1 2207
1 2208
1 2209
1 2210
1 2211
1 2212
1 2213
1 2214
1 2215
1 2216
1 2217
1 2218
1 2219
1 2220
1 2221
1 2222
1 2223
1 2224
1 2225
1 2226
1 2227
1 2228
1 2229
1 2230
1 2231
1 2232
1 2233
1 2234
1 2235
1 2236
1 2237
1 2238
1 2239
1 2240
1 2241
1 2242
1 2243
1 2244
1 2245
1 2246
1 2247
1 2248
1 2249
1 2250
1 2251
1 2252
1 2253
1 2254
1 2255
1 2256
1 2257
1 2258
1 2259
1 2260
1 2261
1 2262
1 2263
1 2264
1 2265
1 2266
1 2267
1 2268
1 2269
1 2270
1 2271
1 2272
1 2273
1 2274
1 2275
1 2276
1 2277
1 2278
1 2279
1 2280
1 2281
1 2282
1 2283
1 2284
1 2285
1 2286
1 2287
1 2288
1 2289
1 2290
1 2291
1 2292
1 2293
1 2294
1 2295
1 2296
1 2297
1 2298
1 2299
1 2300
1 2301
1 2302
1 2303
1 2304
1 2305
1 2306
1 2307
1 2308
1 2309
1 2310
1 2311
1 2312
1 2313
1 2314
1 2315
1 2316
1 2317
1 2318
1 2319
1 2320
1 2321
1 2322
1 2323
1 2324
1 2325
1 2326
1 2327
1 2328
1 2329
1 2330
1 2331
1 2332
1 2333
1 2334
1 2335
1 2336
1 2337
1 2338
1 2339
1 2340
1 2341
1 2342
1 2343
1 2344
1 2345
1 2346
1 2347
1 2348
1 2349
1 2350
1 2351
1 2352
1 2353
1 2354
1 2355
1 2356
1 2357
1 2358
1 2359
1 2360
1 2361
1 2362
1 2363
1 2364
1 2365
1 2366
1 2367
1 2368
1 2369
1 2370
1 2371
1 2372
1 2373
1 2374
1 2375
1 2376
1 2377
1 2378
1 2379
1 2380
1 2381
1 2382
1 2383
1 2384
1 2385
1 2386
1 2387
1 2388
1 2389
1 2390
1 2391
1 2392
1 2393
1 2394
1 2395
1 2396
1 2397
1 2398
1 2399
1 2400
1 2401
1 2402
1 2403
1 2404
1 2405
1 2406
1 2407
1 2408
1 2409
1 2410
1 2411
1 2412
1 2413
1 2414
1 2415
1 2416
1 2417
1 2418
1 2419
1 2420
1 2421
1 2422
1 2423
1 2424
1 2425
1 2426
1 2427
1 2428
1 2429
1 2430
1 2431
1 2432
1 2433
1 2434
1 2435
1 2436
1 2437
1 2438
1 2439
1 2440
1 2441
1 2442
1 2443
1 2444
1 2445
1 2446
1 2447
1 2448
1 2449
1 2450
1 2451
1 2452
1 2453
1 2454
1 2455
1 2456
1 2457
1 2458
1 2459
1 2460
1 2461
1 2462
1 2463
1 2464
1 2465
1 2466
1 2467
1 2468
1 2469
1 2470
1 2471
1 2472
1 2473
1 2474
1 2475
1 2476
1 2477
1 2478
1 2479
1 2480
1 2481
1 2482
1 2483
1 2484
1 2485
1 2486
1 2487
1 2488
1 2489
1 2490
1 2491
1 2492
1 2493
1 2494
1 2495
1 2496
1 2497
1 2498
1 2499
1 2500
1 2501
1 2502
1 2503
1 2504
1 2505
1 2506
1 2507
1 2508
1 2509
1 2510
1 2511
1 2512
1 2513
1 2514
1 2515
1 2516
1 2517
1 2518
1 2519
1 2520
1 2521
1 2522
1 2523
1 2524
1 2525
1 2526
1 2527
1 2528
1 2529
1 2530
1 2531
1 2532
1 2533
1 2534
1 2535
1 2536
1 2537
1 2538
1 2539
1 2540
1 2541
1 2542
1 2543
1 2544
1 2545
1 2546
1 2547
1 2548
1 2549
1 2550
1 2551
1 2552
1 2553
1 2554
1 2555
1 2556
1 2557
1 2558
1 2559
1 2560
1 2561
1 2562
1 2563
1 2564
1 2565
1 2566
1 2567
1 2568
1 2569
1 2570
1 2571
1 2572
1 2573
1 2574
1 2575
1 2576
1 2577
1 2578
1 2579
1 2580
1 2581
1 2582
1 2583
1 2584
1 2585
1 2586
1 2587
1 2588
1 2589
1 2590
1 2591
1 2592
1 2593
1 2594
1 2595
1 2596
1 2597
1 2598
1 2599
1 2600
1 2601
1 2602
1 2603
1 2604
1 2605
1 2606
1 2607
1 2608
1 2609
1 2610
1 2611
1 2612
1 2613
1 2614
1 2615
1 2616
1 2617
1 2618
1 2619
1 2620
1 2621
1 2622
1 2623
1 2624
1 2625
1 2626
1 2627
1 2628
1 2629
1 2630
1 2631
1 2632
1 2633
1 2634
1 2635
1 2636
1 2637
1 2638
1 2639
1 2640
1 2641
1 2642
1 2643
1 2644
1 2645
1 2646
1 2647
1 2648
1 2649
1 2650
1 2651
1 2652
1 2653
1 2654
1 2655
1 2656
1 2657
1 2658
1 2659
1 2660
1 2661
1 2662
1 2663
1 2664
1 2665
1 2666
1 2667
1 2668
1 2669
1 2670
1 2671
1 2672
1 2673
1 2674
1 2675
1 2676
1 2677
1 2678
1 2679
1 2680
1 2681
1 2682
1 2683
1 2684
1 2685
1 2686
1 2687
1 2688
1 2689
1 2690
1 2691
1 2692
1 2693
1 2694
1 2695
1 2696
1 2697
1 2698
1 2699
1 2700
1 2701
1 2702
1 2703
1 2704
1 2705
1 2706
1 2707
1 2708
1 2709
1 2710
1 2711
1 2712
1 2713
1 2714
1 2715
1 2716
1 2717
1 2718
1 2719
1 2720
1 2721
1 2722
1 2723
1 2724
1 2725
1 2726
1 2727
1 2728
1 2729
1 2730
1 2731
1 2732
1 2733
1 2734
1 2735
1 2736
1 2737
1 2738
1 2739
1 2740
1 2741
1 2742
1 2743
1 2744
1 2745
1 2746
1 2747
1 2748
1 2749
1 2750
1 2751
1 2752
1 2753
1 2754
1 2755
1 2756
1 2757
1 2758
1 2759
1 2760
1 2761
1 2762
1 2763
1 2764
1 2765
1 2766
1 2767
1 2768
1 2769
1 2770
1 2771
1 2772
1 2773
1 2774
1 2775
1 2776
1 2777
1 2778
1 2779
1 2780
1 2781
1 2782
1 2783
1 2784
1 2785
1 2786
1 2787
1 2788
1 2789
1 2790
1 2791
1 2792
1 2793
1 2794
1 2795
1 2796
1 2797
1 2798
1 2799
1 2800
1 2801
1 2802
1 2803
1 2804
1 2805
1 2806
1 2807
1 2808
1 2809
1 2810
1 2811
1 2812
1 2813
1 2814
1 2815
1 2816
1 2817
1 2818
1 2819
1 2820
1 2821
1 2822
1 2823
1 2824
1 2825
1 2826
1 2827
1 2828
1 2829
1 2830
1 2831
1 2832
1 2833
1 2834
1 2835
1 2836
1 2837
1 2838
1 2839
1 2840
1 2841
1 2842
1 2843
1 2844
1 2845
1 2846
1 2847
1 2848
1 2849
1 2850
1 2851
1 2852
1 2853
1 2854
1 2855
1 2856
1 2857
1 2858
1 2859
1 2860
1 2861
1 2862
1 2863
1 2864
1 2865
1 2866
1 2867
1 2868
1 2869
1 2870
1 2871
1 2872
1 2873
1 2874
1 2875
1 2876
1 2877
1 2878
1 2879
1 2880
1 2881
1 2882
1 2883
1 2884
1 2885
1 2886
1 2887
1 2888
1 2889
1 2890
1 2891
1 2892
1 2893
1 2894
1 2895
1 2896
1 2897
1 2898
1 2899
1 2900
1 2901
1 2902
1 2903
1 2904
1 2905
1 2906
1 2907
1 2908
1 2909
1 2910
1 2911
1 2912
1 2913
1 2914
1 2915
1 2916
1 2917
1 2918
1 2919
1 2920
1 2921
1 2922
1 2923
1 2924
1 2925
1 2926
1 2927
1 2928
1 2929
1 2930
1 2931
1 2932
1 2933
1 2934
1 2935
1 2936
1 2937
1 2938
1 2939
1 2940
1 2941
1 2942
1 2943
1 2944
1 2945
1 2946
1 2947
1 2948
1 2949
1 2950
1 2951
1 2952
1 2953
1 2954
1 2955
1 2956
1 2957
1 2958
1 2959
1 2960
1 2961
1 2962
1 2963
1 2964
1 2965
1 2966
1 2967
1 2968
1 2969
1 2970
1 2971
1 2972
1 2973
1 2974
1 2975
1 2976
1 2977
1 2978
1 2979
1 2980
1 2981
1 2982
1 2983
1 2984
1 2985
1 2986
1 2987
1 2988
1 2989
1 2990
1 2991
1 2992
1 2993
1 2994
1 2995
1 2996
1 2997
1 2998
1 2999
1 3000
1 3001
1 3002
1 3003
1 3004
1 3005
1 3006
1 3007
1 3008
1 3009
1 3010
1 3011
1 3012
1 3013
1 3014
1 3015
1 3016
1 3017
1 3018
1 3019
1 3020
1 3021
1 3022
1 3023
1 3024
1 3025
1 3026
1 3027
1 3028
1 3029
1 3030
1 3031
1 3032
1 3033
1 3034
1 3035
1 3036
1 3037
1 3038
1 3039
1 3040
1 3041
1 3042
1 3043
1 3044
1 3045
1 3046
1 3047
1 3048
1 3049
1 3050
1 3051
1 3052
1 3053
1 3054
1 3055
1 3056
1 3057
1 3058
1 3059
1 3060
1 3061
1 3062
1 3063
1 3064
1 3065
1 3066
1 3067
1 3068
1 3069
1 3070
1 3071
1 3072
1 3073
1 3074
1 3075
1 3076
1 3077
1 3078
1 3079
1 3080
1 3081
1 3082
1 3083
1 3084
1 3085
1 3086
1 3087
1 3088
1 3089
1 3090
1 3091
1 3092
1 3093
1 3094
1 3095
1 3096
1 3097
1 3098
1 3099
1 3100
1 3101
1 3102
1 3103
1 3104
1 3105
1 3106
1 3107
1 3108
1 3109
1 3110
1 3111
1 3112
1 3113
1 3114
1 3115
1 3116
1 3117
1 3118
1 3119
1 3120
1 3121
1 3122
1 3123
1 3124
1 3125
1 3126
1 3127
1 3128
1 3129
1 3130
1 3131
1 3132
1 3133
1 3134
1 3135
1 3136
1 3137
1 3138
1 3139
1 3140
1 3141
1 3142
1 3143
1 3144
1 3145
1 3146
1 3147
1 3148
1 3149
1 3150
1 3151
1 3152
1 3153
1 3154
1 3155
1 3156
1 3157
1 3158
1 3159
1 3160
1 3161
1 3162
1 3163
1 3164
1 3165
1 3166
1 3167
1 3168
1 3169
1 3170
1 3171
1 3172
1 3173
1 3174
1 3175
1 3176
1 3177
1 3178
1 3179
1 3180
1 3181
1 3182
1 3183
1 3184
1 3185
1 3186
1 3187
1 3188
1 3189
1 3190
1 3191
1 3192
1 3193
1 3194
1 3195
1 3196
1 3197
1 3198
1 3199
1 3200
1 3201
1 3202
1 3203
1 3204
1 3205
1 3206
1 3207
1 3208
1 3209
1 3210
1 3211
1 3212
1 3213
1 3214
1 3215
1 3216
1 3217
1 3218
1 3219
1 3220
1 3221
1 3222
1 3223
1 3224
1 3225
1 3226
1 3227
1 3228
1 3229
1 3230
1 3231
1 3232
1 3233
1 3234
1 3235
1 3236
1 3237
1 3238
1 3239
1 3240
1 3241
1 3242
1 3243
1 3244
1 3245
1 3246
1 3247
1 3248
1 3249
1 3250
1 3251
1 3252
1 3253
1 3254
1 3255
1 3256
1 3257
1 3258
1 3259
1 3260
1 3261
1 3262
1 3263
1 3264
1 3265
1 3266
1 3267
1 3268
1 3269
1 3270
1 3271
1 3272
1 3273
1 3274
1 3275
1 3276
1 3277
1 3278
1 3279
1 3280
1 3281
1 3282
1 3283
1 3284
1 3285
1 3286
1 3287
1 3288
1 3289
1 3290
1 3291
1 3292
1 3293
1 3294
1 3295
1 3296
1 3297
1 3298
1 3299
1 3300
1 3301
1 3302
1 3303
1 3304
1 3305
1 3306
1 3307
1 3308
1 3309
1 3310
1 3311
1 3312
1 3313
1 3314
1 3315
1 3316
1 3317
1 3318
1 3319
1 3320
1 3321
1 3322
1 3323
1 3324
1 3325
1 3326
1 3327
1 3328
1 3329
1 3330
1 3331
1 3332
1 3333
1 3334
1 3335
1 3336
1 3337
1 3338
1 3339
1 3340
1 3341
1 3342
1 3343
1 3344
1 3345
1 3346
1 3347
1 3348
1 3349
1 3350
1 3351
1 3352
1 3353
1 3354
1 3355
1 3356
1 3357
1 3358
1 3359
1 3360
1 3361
1 3362
1 3363
1 3364
1 3365
1 3366
1 3367
1 3368
1 3369
1 3370
1 3371
1 3372
1 3373
1 3374
1 3375
1 3376
1 3377
1 3378
1 3379
1 3380
1 3381
1 3382
1 3383
1 3384
1 3385
1 3386
1 3387
1 3388
1 3389
1 3390
1 3391
1 3392
1 3393
1 3394
1 3395
1 3396
1 3397
1 3398
1 3399
1 3400
1 3401
1 3402
1 3403
1 3404
1 3405
1 3406
1 3407
1 3408
1 3409
1 3410
1 3411
1 3412
1 3413
1 3414
1 3415
1 3416
1 3417
1 3418
1 3419
1 3420
1 3421
1 3422
1 3423
1 3424
1 3425
1 3426
1 3427
1 3428
1 3429
1 3430
1 3431
1 3432
1 3433
1 3434
1 3435
1 3436
1 3437
1 3438
1 3439
1 3440
1 3441
1 3442
1 3443
1 3444
1 3445
1 3446
1 3447
1 3448
1 3449
1 3450
1 3451
1 3452
1 3453
1 3454
1 3455
1 3456
1 3457
1 3458
1 3459
1 3460
1 3461
1 3462
1 3463
1 3464
1 3465
1 3466
1 3467
1 3468
1 3469
1 3470
1 3471
1 3472
1 3473
1 3474
1 3475
1 3476
1 3477
1 3478
1 3479
1 3480
1 3481
1 3482
1 3483
1 3484
1 3485
1 3486
1 3487
1 3488
1 3489
1 3490
1 3491
1 3492
1 3493
1 3494
1 3495
1 3496
1 3497
1 3498
1 3499
1 3500
1 3501
1 3502
1 3503
1 3504
1 3505
1 3506
1 3507
1 3508
1 3509
1 3510
1 3511
1 3512
1 3513
1 3514
1 3515
1 3516
1 3517
1 3518
1 3519
1 3520
1 3521
1 3522
1 3523
1 3524
1 3525
1 3526
1 3527
1 3528
1 3529
1 3530
1 3531
1 3532
1 3533
1 3534
1 3535
1 3536
1 3537
1 3538
1 3539
1 3540
1 3541
1 3542
1 3543
1 3544
1 3545
1 3546
1 3547
1 3548
1 3549
1 3550
1 3551
1 3552
1 3553
1 3554
1 3555
1 3556
1 3557
1 3558
1 3559
1 3560
1 3561
1 3562
1 3563
1 3564
1 3565
1 3566
1 3567
1 3568
1 3569
1 3570
1 3571
1 3572
1 3573
1 3574
1 3575
1 3576
1 3577
1 3578
1 3579
1 3580
1 3581
1 3582
1 3583
1 3584
1 3585
1 3586
1 3587
1 3588
1 3589
1 3590
1 3591
1 3592
1 3593
1 3594
1 3595
1 3596
1 3597
1 3598
1 3599
1 3600
1 3601
1 3602
1 3603
1 3604
1 3605
1 3606
1 3607
1 3608
1 3609
1 3610
1 3611
1 3612
1 3613
1 3614
1 3615
1 3616
1 3617
1 3618
1 3619
1 3620
1 3621
1 3622
1 3623
1 3624
1 3625
1 3626
1 3627
1 3628
1 3629
1 3630
1 3631
1 3632
1 3633
1 3634
1 3635
1 3636
1 3637
1 3638
1 3639
1 3640
1 3641
1 3642
1 3643
1 3644
1 3645
1 3646
1 3647
1 3648
1 3649
1 3650
1 3651
1 3652
1 3653
1 3654
1 3655
1 3656
1 3657
1 3658
1 3659
1 3660
1 3661
1 3662
1 3663
1 3664
1 3665
1 3666
1 3667
1 3668
1 3669
1 3670
1 3671
1 3672
1 3673
1 3674
1 3675
1 3676
1 3677
1 3678
1 3679
1 3680
1 3681
1 3682
1 3683
1 3684
1 3685
1 3686
1 3687
1 3688
1 3689
1 3690
1 3691
1 3692
1 3693
1 3694
1 3695
1 3696
1 3697
1 3698
1 3699
1 3700
1 3701
1 3702
1 3703
1 3704
1 3705
1 3706
1 3707
1 3708
1 3709
1 3710
1 3711
1 3712
1 3713
1 3714
1 3715
1 3716
1 3717
1 3718
1 3719
1 3720
1 3721
1 3722
1 3723
1 3724
1 3725
1 3726
1 3727
1 3728
1 3729
1 3730
1 3731
1 3732
1 3733
1 3734
1 3735
1 3736
1 3737
1 3738
1 3739
1 3740
1 3741
1 3742
1 3743
1 3744
1 3745
1 3746
1 3747
1 3748
1 3749
1 3750
1 3751
1 3752
1 3753
1 3754
1 3755
1 3756
1 3757
1 3758
1 3759
1 3760
1 3761
1 3762
1 3763
1 3764
1 3765
1 3766
1 3767
1 3768
1 3769
1 3770
1 3771
1 3772
1 3773
1 3774
1 3775
1 3776
1 3777
1 3778
1 3779
1 3780
1 3781
1 3782
1 3783
1 3784
1 3785
1 3786
1 3787
1 3788
1 3789
1 3790
1 3791
1 3792
1 3793
1 3794
1 3795
1 3796
1 3797
1 3798
1 3799
1 3800
1 3801
1 3802
1 3803
1 3804
1 3805
1 3806
1 3807
1 3808
1 3809
1 3810
1 3811
1 3812
1 3813
1 3814
1 3815
1 3816
1 3817
1 3818
1 3819
1 3820
1 3821
1 3822
1 3823
1 3824
1 3825
1 3826
1 3827
1 3828
1 3829
1 3830
1 3831
1 3832
1 3833
1 3834
1 3835
1 3836
1 3837
1 3838
1 3839
1 3840
1 3841
1 3842
1 3843
1 3844
1 3845
1 3846
1 3847
1 3848
1 3849
1 3850
1 3851
1 3852
1 3853
1 3854
1 3855
1 3856
1 3857
1 3858
1 3859
1 3860
1 3861
1 3862
1 3863
1 3864
1 3865
1 3866
1 3867
1 3868
1 3869
1 3870
1 3871
1 3872
1 3873
1 3874
1 3875
1 3876
1 3877
1 3878
1 3879
1 3880
1 3881
1 3882
1 3883
1 3884
1 3885
1 3886
1 3887
1 3888
1 3889
1 3890
1 3891
1 3892
1 3893
1 3894
1 3895
1 3896
1 3897
1 3898
1 3899
1 3900
1 3901
1 3902
1 3903
1 3904
1 3905
1 3906
1 3907
1 3908
1 3909
1 3910
1 3911
1 3912
1 3913
1 3914
1 3915
1 3916
1 3917
1 3918
1 3919
1 3920
1 3921
1 3922
1 3923
1 3924
1 3925
1 3926
1 3927
1 3928
1 3929
1 3930
1 3931
1 3932
1 3933
1 3934
1 3935
1 3936
1 3937
1 3938
1 3939
1 3940
1 3941
1 3942
1 3943
1 3944
1 3945
1 3946
1 3947
1 3948
1 3949
1 3950
1 3951
1 3952
1 3953
1 3954
1 3955
1 3956
1 3957
1 3958
1 3959
1 3960
1 3961
1 3962
1 3963
1 3964
1 3965
1 3966
1 3967
1 3968
1 3969
1 3970
1 3971
1 3972
1 3973
1 3974
1 3975
1 3976
1 3977
1 3978
1 3979
1 3980
1 3981
1 3982
1 3983
1 3984
1 3985
1 3986
1 3987
1 3988
1 3989
1 3990
1 3991
1 3992
1 3993
1 3994
1 3995
1 3996
1 3997
1 3998
1 3999
1 4000
1 4001
1 4002
1 4003
1 4004
1 4005
1 4006
1 4007
1 4008
1 4009
1 4010
1 4011
1 4012
1 4013
1 4014
1 4015
1 4016
1 4017
1 4018
1 4019
1 4020
1 4021
1 4022
1 4023
1 4024
1 4025
1 4026
1 4027
1 4028
1 4029
1 4030
1 4031
1 4032
1 4033
1 4034
1 4035
1 4036
1 4037
1 4038
1 4039
1 4040
1 4041
1 4042
1 4043
1 4044
1 4045
1 4046
1 4047
1 4048
1 4049
1 4050
1 4051
1 4052
1 4053
1 4054
1 4055
1 4056
1 4057
1 4058
1 4059
1 4060
1 4061
1 4062
1 4063
1 4064
1 4065
1 4066
1 4067
1 4068
1 4069
1 4070
1 4071
1 4072
1 4073
1 4074
1 4075
1 4076
1 4077
1 4078
1 4079
1 4080
1 4081
1 4082
1 4083
1 4084
1 4085
1 4086
1 4087
1 4088
1 4089
1 4090
1 4091
1 4092
1 4093
1 4094
1 4095
1 4096
1 4097
1 4098
1 4099
1 4100
1 4101
1 4102
1 4103
1 4104
1 4105
1 4106
1 4107
1 4108
1 4109
1 4110
1 4111
1 4112
1 4113
1 4114
1 4115
1 4116
1 4117
1 4118
1 4119
1 4120
1 4121
1 4122
1 4123
1 4124
1 4125
1 4126
1 4127
1 4128
1 4129
1 4130
1 4131
1 4132
1 4133
1 4134
1 4135
1 4136
1 4137
1 4138
1 4139
1 4140
1 4141
1 4142
1 4143
1 4144
1 4145
1 4146
1 4147
1 4148
1 4149
1 4150
1 4151
1 4152
1 4153
1 4154
1 4155
1 4156
1 4157
1 4158
1 4159
1 4160
1 4161
1 4162
1 4163
1 4164
1 4165
1 4166
1 4167
1 4168
1 4169
1 4170
1 4171
1 4172
1 4173
1 4174
1 4175
1 4176
1 4177
1 4178
1 4179
1 4180
1 4181
1 4182
1 4183
1 4184
1 4185
1 4186
1 4187
1 4188
1 4189
1 4190
1 4191
1 4192
1 4193
1 4194
1 4195
1 4196
1 4197
1 4198
1 4199
1 4200
1 4201
1 4202
1 4203
1 4204
1 4205
1 4206
1 4207
1 4208
1 4209
1 4210
1 4211
1 4212
1 4213
1 4214
1 4215
1 4216
1 4217
1 4218
1 4219
1 4220
1 4221
1 4222
1 4223
1 4224
1 4225
1 4226
1 4227
1 4228
1 4229
1 4230
1 4231
1 4232
1 4233
1 4234
1 4235
1 4236
1 4237
1 4238
1 4239
1 4240
1 4241
1 4242
1 4243
1 4244
1 4245
1 4246
1 4247
1 4248
1 4249
1 4250
1 4251
1 4252
1 4253
1 4254
1 4255
1 4256
1 4257
1 4258
1 4259
1 4260
1 4261
1 4262
1 4263
1 4264
1 4265
1 4266
1 4267
1 4268
1 4269
1 4270
1 4271
1 4272
1 4273
1 4274
1 4275
1 4276
1 4277
1 4278
1 4279
1 4280
1 4281
1 4282
1 4283
1 4284
1 4285
1 4286
1 4287
1 4288
1 4289
1 4290
1 4291
1 4292
1 4293
1 4294
1 4295
1 4296
1 4297
1 4298
1 4299
1 4300
1 4301
1 4302
1 4303
1 4304
1 4305
1 4306
1 4307
1 4308
1 4309
1 4310
1 4311
1 4312
1 4313
1 4314
1 4315
1 4316
1 4317
1 4318
1 4319
1 4320
1 4321
1 4322
1 4323
1 4324
1 4325
1 4326
1 4327
1 4328
1 4329
1 4330
1 4331
1 4332
1 4333
1 4334
1 4335
1 4336
1 4337
1 4338
1 4339
1 4340
1 4341
1 4342
1 4343
1 4344
1 4345
1 4346
1 4347
1 4348
1 4349
1 4350
1 4351
1 4352
1 4353
1 4354
1 4355
1 4356
1 4357
1 4358
1 4359
1 4360
1 4361
1 4362
1 4363
1 4364
1 4365
1 4366
1 4367
1 4368
1 4369
1 4370
1 4371
1 4372
1 4373
1 4374
1 4375
1 4376
1 4377
1 4378
1 4379
1 4380
1 4381
1 4382
1 4383
1 4384
1 4385
1 4386
1 4387
1 4388
1 4389
1 4390
1 4391
1 4392
1 4393
1 4394
1 4395
1 4396
1 4397
1 4398
1 4399
1 4400
1 4401
1 4402
1 4403
1 4404
1 4405
1 4406
1 4407
1 4408
1 4409
1 4410
1 4411
1 4412
1 4413
1 4414
1 4415
1 4416
1 4417
1 4418
1 4419
1 4420
1 4421
1 4422
1 4423
1 4424
1 4425
1 4426
1 4427
1 4428
1 4429
1 4430
1 4431
1 4432
1 4433
1 4434
1 4435
1 4436
1 4437
1 4438
1 4439
1 4440
1 4441
1 4442
1 4443
1 4444
1 4445
1 4446
1 4447
1 4448
1 4449
1 4450
1 4451
1 4452
1 4453
1 4454
1 4455
1 4456
1 4457
1 4458
1 4459
1 4460
1 4461
1 4462
1 4463
1 4464
1 4465
1 4466
1 4467
1 4468
1 4469
1 4470
1 4471
1 4472
1 4473
1 4474
1 4475
1 4476
1 4477
1 4478
1 4479
1 4480
1 4481
1 4482
1 4483
1 4484
1 4485
1 4486
1 4487
1 4488
1 4489
1 4490
1 4491
1 4492
1 4493
1 4494
1 4495
1 4496
1 4497
1 4498
1 4499
1 4500
1 4501
1 4502
1 4503
1 4504
1 4505
1 4506
1 4507
1 4508
1 4509
1 4510
1 4511
1 4512
1 4513
1 4514
1 4515
1 4516
1 4517
1 4518
1 4519
1 4520
1 4521
1 4522
1 4523
1 4524
1 4525
1 4526
1 4527
1 4528
1 4529
1 4530
1 4531
1 4532
1 4533
1 4534
1 4535
1 4536
1 4537
1 4538
1 4539
1 4540
1 4541
1 4542
1 4543
1 4544
1 4545
1 4546
1 4547
1 4548
1 4549
1 4550
1 4551
1 4552
1 4553
1 4554
1 4555
1 4556
1 4557
1 4558
1 4559
1 4560
1 4561
1 4562
1 4563
1 4564
1 4565
1 4566
1 4567
1 4568
1 4569
1 4570
1 4571
1 4572
1 4573
1 4574
1 4575
1 4576
1 4577
1 4578
1 4579
1 4580
1 4581
1 4582
1 4583
1 4584
1 4585
1 4586
1 4587
1 4588
1 4589
1 4590
1 4591
1 4592
1 4593
1 4594
1 4595
1 4596
1 4597
1 4598
1 4599
1 4600
1 4601
1 4602
1 4603
1 4604
1 4605
1 4606
1 4607
1 4608
1 4609
1 4610
1 4611
1 4612
1 4613
1 4614
1 4615
1 4616
1 4617
1 4618
1 4619
1 4620
1 4621
1 4622
1 4623
1 4624
1 4625
1 4626
1 4627
1 4628
1 4629
1 4630
1 4631
1 4632
1 4633
1 4634
1 4635
1 4636
1 4637
1 4638
1 4639
1 4640
1 4641
1 4642
1 4643
1 4644
1 4645
1 4646
1 4647
1 4648
1 4649
1 4650
1 4651
1 4652
1 4653
1 4654
1 4655
1 4656
1 4657
1 4658
1 4659
1 4660
1 4661
1 4662
1 4663
1 4664
1 4665
1 4666
1 4667
1 4668
1 4669
1 4670
1 4671
1 4672
1 4673
1 4674
1 4675
1 4676
1 4677
1 4678
1 4679
1 4680
1 4681
1 4682
1 4683
1 4684
1 4685
1 4686
1 4687
1 4688
1 4689
1 4690
1 4691
1 4692
1 4693
1 4694
1 4695
1 4696
1 4697
1 4698
1 4699
1 4700
1 4701
1 4702
1 4703
1 4704
1 4705
1 4706
1 4707
1 4708
1 4709
1 4710
1 4711
1 4712
1 4713
1 4714
1 4715
1 4716
1 4717
1 4718
1 4719
1 4720
1 4721
1 4722
1 4723
1 4724
1 4725
1 4726
1 4727
1 4728
1 4729
1 4730
1 4731
1 4732
1 4733
1 4734
1 4735
1 4736
1 4737
1 4738
1 4739
1 4740
1 4741
1 4742
1 4743
1 4744
1 4745
1 4746
1 4747
1 4748
1 4749
1 4750
1 4751
1 4752
1 4753
1 4754
1 4755
1 4756
1 4757
1 4758
1 4759
1 4760
1 4761
1 4762
1 4763
1 4764
1 4765
1 4766
1 4767
1 4768
1 4769
1 4770
1 4771
1 4772
1 4773
1 4774
1 4775
1 4776
1 4777
1 4778
1 4779
1 4780
1 4781
1 4782
1 4783
1 4784
1 4785
1 4786
1 4787
1 4788
1 4789
1 4790
1 4791
1 4792
1 4793
1 4794
1 4795
1 4796
1 4797
1 4798
1 4799
1 4800
1 4801
1 4802
1 4803
1 4804
1 4805
1 4806
1 4807
1 4808
1 4809
1 4810
1 4811
1 4812
1 4813
1 4814
1 4815
1 4816
1 4817
1 4818
1 4819
1 4820
1 4821
1 4822
1 4823
1 4824
1 4825
1 4826
1 4827
1 4828
1 4829
1 4830
1 4831
1 4832
1 4833
1 4834
1 4835
1 4836
1 4837
1 4838
1 4839
1 4840
1 4841
1 4842
1 4843
1 4844
1 4845
1 4846
1 4847
1 4848
1 4849
1 4850
1 4851
1 4852
1 4853
1 4854
1 4855
1 4856
1 4857
1 4858
1 4859
1 4860
1 4861
1 4862
1 4863
1 4864
1 4865
1 4866
1 4867
1 4868
1 4869
1 4870
1 4871
1 4872
1 4873
1 4874
1 4875
1 4876
1 4877
1 4878
1 4879
1 4880
1 4881
1 4882
1 4883
1 4884
1 4885
1 4886
1 4887
1 4888
1 4889
1 4890
1 4891
1 4892
1 4893
1 4894
1 4895
1 4896
1 4897
1 4898
1 4899
1 4900
1 4901
1 4902
1 4903
1 4904
1 4905
1 4906
1 4907
1 4908
1 4909
1 4910
1 4911
1 4912
1 4913
1 4914
1 4915
1 4916
1 4917
1 4918
1 4919
1 4920
1 4921
1 4922
1 4923
1 4924
1 4925
1 4926
1 4927
1 4928
1 4929
1 4930
1 4931
1 4932
1 4933
1 4934
1 4935
1 4936
1 4937
1 4938
1 4939
1 4940
1 4941
1 4942
1 4943
1 4944
1 4945
1 4946
1 4947
1 4948
1 4949
1 4950
1 4951
1 4952
1 4953
1 4954
1 4955
1 4956
1 4957
1 4958
1 4959
1 4960
1 4961
1 4962
1 4963
1 4964
1 4965
1 4966
1 4967
1 4968
1 4969
1 4970
1 4971
1 4972
1 4973
1 4974
1 4975
1 4976
1 4977
1 4978
1 4979
1 4980
1 4981
1 4982
1 4983
1 4984
1 4985
1 4986
1 4987
1 4988
1 4989
1 4990
1 4991
1 4992
1 4993
1 4994
1 4995
1 4996
1 4997
1 4998
1 4999
CELL_TYPES 5000
1 
1 
1 
1 
1 
1 
1 
1 
1 
1 
1 
1 
1 
1 
1 
1 
1 
1 
1 
1 
1 
1 
1 
1 
1 
1 
1 
1 
1 
1 
1 
1 
1 
1 
1 
1 
1 
1 
1 
1 
1 
1 
1 
1 
1 
1 
1 
1 
1 
1 
1 
1 
1 
1 
1 
1 
1 
1 
1 
1 
1 
1 
1 
1 
1 
1 
1 
1 
1 
1 
1 
1 
1 
1 
1 
1 
1 
1 
1 
1 
1 
1 
1 
1 
1 
1 
1 
1 
1 
1 
1 
1 
1 
1 
1 
1 
1 
1 
1 
1 
1 
1 
1 
1 
1 
1 
1 
1 
1 
1 
1 
1 
1 
1 
1 
1 
1 
1 
1 
1 
1 
1 
1 
1 
1 
1 
1 
1 
1 
1 
1 
1 
1 
1 
1 
1 
1 
1 
1 
1 
1 
1 
1 
1 
1 
1 
1 
1 
1 
1 
1 
1 
1 
1 
1 
1 
1 
1 
1 
1 
1 
1 
1 
1 
1 
1 
1 
1 
1 
1 
1 
1 
1 
1 
1 
1 
1 
1 
1 
1 
1 
1 
1 
1 
1 
1 
1 
1 
1 
1 
1 
1 
1 
1 
1 
1 
1 
1 
1 
1 
1 
1 
1 
1 
1 
1 
1 
1 
1 
1 
1 
1 
1 
1 
1 
1 
1 
1 
1 
1 
1 
1 
1 
1 
1 
1 
1 
1 
1 
1 
1 
1 
1 
1 
1 
1 
1 
1 
1 
1 
1 
1 
1 
1 
1 
1 
1 
1 
1 
1 
1 
1 
1 
1 
1 
1 
1 
1 
1 
1 
1 
1 
1 
1 
1 
1 
1 
1 
1 
1 
1 
1 
1 
1 
1 
1 
1 
1 
1 
1 
1 
1 
1 
1 
1 
1 
1 
1 
1 
1 
1 
1 
1 
1 
1 
1 
1 
1 
1 
1 
1 
1 
1 
1 
1 
1 
1 
1 
1 
1 
1 
1 
1 
1 
1 
1 
1 
1 
1 
1 
1 
1 
1 
1 
1 
1 
1 
1 
1 
1 
1 
1 
1 
1 
1 
1 
1 
1 
1 
1 
1 
1 
1 
1 
1 
1 
1 
1 
1 
1 
1 
1 
1 
1 
1 
1 
1 
1 
1 
1 
1 
1 
1 
1 
1 
1 
1 
1 
1 
1 
1 
1 
1 
1 
1 
1 
1 
1 
1 
1 
1 
1 
1 
1 
1 
1 
1 
1 
1 
1 
1 
1 
1 
1 
1 
1 
1 
1 
1 
1 
1 
1 
1 
1 
1 
1 
1 
1 
1 
1 
1 
1 
1 
1 
1 
1 
1 
1 
1 
1 
1 
1 
1 
1 
1 
1 
1 
1 
1 
1 
1 
1 
1 
1 
1 
1 
1 
1 
1 
1 
1 
1 
1 
1 
1 
1 
1 
1 
1 
1 
1 
1 
1 
1 
1 
1 
1 
1 
1 
1 
1 
1 
1 
1 
1 
1 
1 
1 
1 
1 
1 
1 
1 
1 
1 
1 
1 
1 
1 
1 
1 
1 
1 
1 
1 
1 
1 
1 
1 
1 
1 
1 
1 
1 
1 
1 
1 
1 
1 
1 
1 
1 
1 
1 
1 
1 
1 
1 
1 
1 
1 
1 
1 
1 
1 
1 
1 
1 
1 
1 
1 
1 
1 
1 
1 
1 
1 
1 
1 
1 
1 
1 
1 
1 
1 
1 
1 
1 
1 
1 
1 
1 
1 
1 
1 
1 
1 
1 
1 
1 
1 
1 
1 
1 
1 
1 
1 
1 
1 
1 
1 
1 
1 
1 
1 
1 
1 
1 
1 
1 
1 
1 
1 
1 
1 
1 
1 
1 
1 
1 
1 
1 
1 
1 
1 
1 
1 
1 
1 
1 
1 
1 
1 
1 
1 
1 
1 
1 
1 
1 
1 
1 
1 
1 
1 
1 
1 
1 
1 
1 
1 
1 
1 
1 
1 
1 
1 
1 
1 
1 
1 
1 
1 
1 
1 
1 
1 
1 
1 
1 
1 
1 
1 
1 
1 
1 
1 
1 
1 
1 
1 
1 
1 
1 
1 
1 
1 
1 
1 
1 
1 
1 
1 
1 
1 
1 
1 
1 
1 
1 
1 
1 
1 
1 
1 
1 
1 
1 
1 
1 
1 
1 
1 
1 
1 
1 
1 
1 
1 
1 
1 
1 
1 
1 
1 
1 
1 
1 
1 
1 
1 
1 
1 
1 
1 
1 
1 
1 
1 
1 
1 
1 
1 
1 
1 
1 
1 
1 
1 
1 
1 
1 
1 
1 
1 
1 
1 
1 
1 
1 
1 
1 
1 
1 
1 
1 
1 
1 
1 
1 
1 
1 
1 
1 
1 
1 
1 
1 
1 
1 
1 
1 
1 
1 
1 
1 
1 
1 
1 
1 
1 
1 
1 
1 
1 
1 
1 
1 
1 
1 
1 
1 
1 
1 
1 
1 
1 
1 
1 
1 
1 
1 
1 
1 
1 
1 
1 
1 
1 
1 
1 
1 
1 
1 
1 
1 
1 
1 
1 
1 
1 
1 
1 
1 
1 
1 
1 
1 
1 
1 
1 
1 
1 
1 
1 
1 
1 
1 
1 
1 
1 
1 
1 
1 
1 
1 
1 
1 
1 
1 
1 
1 
1 
1 
1 
1 
1 
1 
1 
1 
1 
1 
1 
1 
1 
1 
1 
1 
1 
1 
1 
1 
1 
1 
1 
1 
1 
1 
1 
1 
1 
1 
1 
1 
1 
1 
1 
1 
1 
1 
1 
1 
1 
1 
1 
1 
1 
1 
1 
1 
1 
1 
1 
1 
1 
1 
1 
1 
1 
1 
1 
1 
1 
1 
1 
1 
1 
1 
1 
1 
1 
1 
1 
1 
1 
1 
1 
1 
1 
1 
1 
1 
1 
1 
1 
1 
1 
1 
1 
1 
1 
1 
1 
1 
1 
1 
1 
1 
1 
1 
1 
1 
1 
1 
1 
1 
1 
1 
1 
1 
1 
1 
1 
1 
1 
1 
1 
1 
1 
1 
1 
1 
1 
1 
1 
1 
1 
1 
1 
1 
1 
1 
1 
1 
1 
1 
1 
1 
1 
1 
1 
1 
1 
1 
1 
1 
1 
1 
1 
1 
1 
1 
1 
1 
1 
1 
1 
1 
1 
1 
1 
1 
1 
1 
1 
1 
1 
1 
1 
1 
1 
1 
1 
1 
1 
1 
1 
1 
1 
1 
1 
1 
1 
1 
1 
1 
1 
1 
1 
1 
1 
1 
1 
1 
1 
1 
1 
1 
1 
1 
1 
1 
1 
1 
1 
1 
1 
1 
1 
1 
1 
1 
1 
1 
1 
1 
1 
1 
1 
1 
1 
1 
1 
1 
1 
1 
1 
1 
1 
1 
1 
1 
1 
1 
1 
1 
1 
1 
1 
1 
1 
1 
1 
1 
1 
1 
1 
1 
1 
1 
1 
1 
1 
1 
1 
1 
1 
1 
1 
1 
1 
1 
1 
1 
1 
1 
1 
1 
1 
1 
1 
1 
1 
1 
1 
1 
1 
1 
1 
1 
1 
1 
1 
1 
1 
1 
1 
1 
1 
1 
1 
1 
1 
1 
1 
1 
1 
1 
1 
1 
1 
1 
1 
1 
1 
1 
1 
1 
1 
1 
1 
1 
1 
1 
1 
1 
1 
1 
1 
1 
1 
1 
1 
1 
1 
1 
1 
1 
1 
1 
1 
1 
1 
1 
1 
1 
1 
1 
1 
1 
1 
1 
1 
1 
1 
1 
1 
1 
1 
1 
1 
1 
1 
1 
1 
1 
1 
1 
1 
1 
1 
1 
1 
1 
1 
1 
1 
1 
1 
1 
1 
1 
1 
1 
1 
1 
1 
1 
1 
1 
1 
1 
1 
1 
1 
1 
1 
1 
1 
1 
1 
1 
1 
1 
1 
1 
1 
1 
1 
1 
1 
1 
1 
1 
1 
1 
1 
1 
1 
1 
1 
1 
1 
1 
1 
1 
1 
1 
1 
1 
1 
1 
1 
1 
1 
1 
1 
1 
1 
1 
1 
1 
1 
1 
1 
1 
1 
1 
1 
1 
1 
1 
1 
1 
1 
1 
1 
1 
1 
1 
1 
1 
1 
1 
1 
1 
1 
1 
1 
1 
1 
1 
1 
1 
1 
1 
1 
1 
1 
1 
1 
1 
1 
1 
1 
1 
1 
1 
1 
1 
1 
1 
1 
1 
1 
1 
1 
1 
1 
1 
1 
1 
1 
1 
1 
1 
1 
1 
1 
1 
1 
1 
1 
1 
1 
1 
1 
1 
1 
1 
1 
1 
1 
1 
1 
1 
1 
1 
1 
1 
1 
1 
1 
1 
1 
1 
1 
1 
1 
1 
1 
1 
1 
1 
1 
1 
1 
1 
1 
1 
1 
1 
1 
1 
1 
1 
1 
1 
1 
1 
1 
1 
1 
1 
1 
1 
1 
1 
1 
1 
1 
1 
1 
1 
1 
1 
1 
1 
1 
1 
1 
1 
1 
1 
1 
1 
1 
1 
1 
1 
1 
1 
1 
1 
1 
1 
1 
1 
1 
1 
1 
1 
1 
1 
1 
1 
1 
1 
1 
1 
1 
1 
1 
1 
1 
1 
1 
1 
1 
1 
1 
1 
1 
1 
1 
1 
1 
1 
1 
1 
1 
1 
1 
1 
1 
1 
1 
1 
1 
1 
1 
1 
1 
1 
1 
1 
1 
1 
1 
1 
1 
1 
1 
1 
1 
1 
1 
1 
1 
1 
1 
1 
1 
1 
1 
1 
1 
1 
1 
1 
1 
1 
1 
1 
1 
1 
1 
1 
1 
1 
1 
1 
1 
1 
1 
1 
1 
1 
1 
1 
1 
1 
1 
1 
1 
1 
1 
1 
1 
1 
1 
1 
1 
1 
1 
1 
1 
1 
1 
1 
1 
1 
1 
1 
1 
1 
1 
1 
1 
1 
1 
1 
1 
1 
1 
1 
1 
1 
1 
1 
1 
1 
1 
1 
1 
1 
1 
1 
1 
1 
1 
1 
1 
1 
1 
1 
1 
1 
1 
1 
1 
1 
1 
1 
1 
1 
1 
1 
1 
1 
1 
1 
1 
1 
1 
1 
1 
1 
1 
1 
1 
1 
1 
1 
1 
1 
1 
1 
1 
1 
1 
1 
1 
1 
1 
1 
1 
1 
1 
1 
1 
1 
1 
1 
1 
1 
1 
1 
1 
1 
1 
1 
1 
1 
1 
1 
1 
1 
1 
1 
1 
1 
1 
1 
1 
1 
1 
1 
1 
1 
1 
1 
1 
1 
1 
1 
1 
1 
1 
1 
1 
1 
1 
1 
1 
1 
1 
1 
1 
1 
1 
1 
1 
1 
1 
1 
1 
1 
1 
1 
1 
1 
1 
1 
1 
1 
1 
1 
1 
1 
1 
1 
1 
1 
1 
1 
1 
1 
1 
1 
1 
1 
1 
1 
1 
1 
1 
1 
1 
1 
1 
1 
1 
1 
1 
1 
1 
1 
1 
1 
1 
1 
1 
1 
1 
1 
1 
1 
1 
1 
1 
1 
1 
1 
1 
1 
1 
1 
1 
1 
1 
1 
1 
1 
1 
1 
1 
1 
1 
1 
1 
1 
1 
1 
1 
1 
1 
1 
1 
1 
1 
1 
1 
1 
1 
1 
1 
1 
1 
1 
1 
1 
1 
1 
1 
1 
1 
1 
1 
1 
1 
1 
1 
1 
1 
1 
1 
1 
1 
1 
1 
1 
1 
1 
1 
1 
1 
1 
1 
1 
1 
1 
1 
1 
1 
1 
1 
1 
1 
1 
1 
1 
1 
1 
1 
1 
1 
1 
1 
1 
1 
1 
1 
1 
1 
1 
1 
1 
1 
1 
1 
1 
1 
1 
1 
1 
1 
1 
1 
1 
1 
1 
1 
1 
1 
1 
1 
1 
1 
1 
1 
1 
1 
1 
1 
1 
1 
1 
1 
1 
1 
1 
1 
1 
1 
1 
1 
1 
1 
1 
1 
1 
1 
1 
1 
1 
1 
1 
1 
1 
1 
1 
1 
1 
1 
1 
1 
1 
1 
1 
1 
1 
1 
1 
1 
1 
1 
1 
1 
1 
1 
1 
1 
1 
1 
1 
1 
1 
1 
1 
1 
1 
1 
1 
1 
1 
1 
1 
1 
1 
1 
1 
1 
1 
1 
1 
1 
1 
1 
1 
1 
1 
1 
1 
1 
1 
1 
1 
1 
1 
1 
1 
1 
1 
1 
1 
1 
1 
1 
1 
1 
1 
1 
1 
1 
1 
1 
1 
1 
1 
1 
1 
1 
1 
1 
1 
1 
1 
1 
1 
1 
1 
1 
1 
1 
1 
1 
1 
1 
1 
1 
1 
1 
1 
1 
1 
1 
1 
1 
1 
1 
1 
1 
1 
1 
1 
1 
1 
1 
1 
1 
1 
1 
1 
1 
1 
1 
1 
1 
1 
1 
1 
1 
1 
1 
1 
1 
1 
1 
1 
1 
1 
1 
1 
1 
1 
1 
1 
1 
1 
1 
1 
1 
1 
1 
1 
1 
1 
1 
1 
1 
1 
1 
1 
1 
1 
1 
1 
1 
1 
1 
1 
1 
1 
1 
1 
1 
1 
1 
1 
1 
1 
1 
1 
1 
1 
1 
1 
1 
1 
1 
1 
1 
1 
1 
1 
1 
1 
1 
1 
1 
1 
1 
1 
1 
1 
1 
1 
1 
1 
1 
1 
1 
1 
1 
1 
1 
1 
1 
1 
1 
1 
1 
1 
1 
1 
1 
1 
1 
1 
1 
1 
1 
1 
1 
1 
1 
1 
1 
1 
1 
1 
1 
1 
1 
1 
1 
1 
1 
1 
1 
1 
1 
1 
1 
1 
1 
1 
1 
1 
1 
1 
1 
1 
1 
1 
1 
1 
1 
1 
1 
1 
1 
1 
1 
1 
1 
1 
1 
1 
1 
1 
1 
1 
1 
1 
1 
1 
1 
1 
1 
1 
1 
1 
1 
1 
1 
1 
1 
1 
1 
1 
1 
1 
1 
1 
1 
1 
1 
1 
1 
1 
1 
1 
1 
1 
1 
1 
1 
1 
1 
1 
1 
1 
1 
1 
1 
1 
1 
1 
1 
1 
1 
1 
1 
1 
1 
1 
1 
1 
1 
1 
1 
1 
1 
1 
1 
1 
1 
1 
1 
1 
1 
1 
1 
1 
1 
1 
1 
1 
1 
1 
1 
1 
1 
1 
1 
1 
1 
1 
1 
1 
1 
1 
1 
1 
1 
1 
1 
1 
1 
1 
1 
1 
1 
1 
1 
1 
1 
1 
1 
1 
1 
1 
1 
1 
1 
1 
1 
1 
1 
1 
1 
1 
1 
1 
1 
1 
1 
1 
1 
1 
1 
1 
1 
1 
1 
1 
1 
1 
1 
1 
1 
1 
1 
1 
1 
1 
1 
1 
1 
1 
1 
1 
1 
1 
1 
1 
1 
1 
1 
1 
1 
1 
1 
1 
1 
1 
1 
1 
1 
1 
1 
1 
1 
1 
1 
1 
1 
1 
1 
1 
1 
1 
1 
1 
1 
1 
1 
1 
1 
1 
1 
1 
1 
1 
1 
1 
1 
1 
1 
1 
1 
1 
1 
1 
1 
1 
1 
1 
1 
1 
1 
1 
1 
1 
1 
1 
1 
1 
1 
1 
1 
1 
1 
1 
1 
1 
1 
1 
1 
1 
1 
1 
1 
1 
1 
1 
1 
1 
1 
1 
1 
1 
1 
1 
1 
1 
1 
1 
1 
1 
1 
1 
1 
1 
1 
1 
1 
1 
1 
1 
1 
1 
1 
1 
1 
1 
1 
1 
1 
1 
1 
1 
1 
1 
1 
1 
1 
1 
1 
1 
1 
1 
1 
1 
1 
1 
1 
1 
1 
1 
1 
1 
1 
1 
1 
1 
1 
1 
1 
1 
1 
1 
1 
1 
1 
1 
1 
1 
1 
1 
1 
1 
1 
1 
1 
1 
1 
1 
1 
1 
1 
1 
1 
1 
1 
1 
1 
1 
1 
1 
1 
1 
1 
1 
1 
1 
1 
1 
1 
1 
1 
1 
1 
1 
1 
1 
1 
1 
1 
1 
1 
1 
1 
1 
1 
1 
1 
1 
1 
1 
1 
1 
1 
1 
1 
1 
1 
1 
1 
1 
1 
1 
1 
1 
1 
1 
1 
1 
1 
1 
1 
1 
1 
1 
1 
1 
1 
1 
1 
1 
1 
1 
1 
1 
1 
1 
1 
1 
1 
1 
1 
1 
1 
1 
1 
1 
1 
1 
1 
1 
1 
1 
1 
1 
1 
1 
1 
1 
1 
1 
1 
1 
1 
1 
1 
1 
1 
1 
1 
1 
1 
1 
1 
1 
1 
1 
1 
1 
1 
1 
1 
1 
1 
1 
1 
1 
1 
1 
1 
1 
1 
1 
1 
1 
1 
1 
1 
1 
1 
1 
1 
1 
1 
1 
1 
1 
1 
1 
1 
1 
1 
1 
1 
1 
1 
1 
1 
1 
1 
1 
1 
1 
1 
1 
1 
1 
1 
1 
1 
1 
1 
1 
1 
1 
1 
1 
1 
1 
1 
1 
1 
1 
1 
1 
1 
1 
1 
1 
1 
1 
1 
1 
1 
1 
1 
1 
1 
1 
1 
1 
1 
1 
1 
1 
1 
1 
1 
1 
1 
1 
1 
1 
1 
1 
1 
1 
1 
1 
1 
1 
1 
1 
1 
1 
1 
1 
1 
1 
1 
1 
1 
1 
1 
1 
1 
1 
1 
1 
1 
1 
1 
1 
1 
1 
1 
1 
1 
1 
1 
1 
1 
1 
1 
1 
1 
1 
1 
1 
1 
1 
1 
1 
1 
1 
1 
1 
1 
1 
1 
1 
1 
1 
1 
1 
1 
1 
1 
1 
1 
1 
1 
1 
1 
1 
1 
1 
1 
1 
1 
1 
1 
1 
1 
1 
1 
1 
1 
1 
1 
1 
1 
1 
1 
1 
1 
1 
1 
1 
1 
1 
1 
1 
1 
1 
1 
1 
1 
1 
1 
1 
1 
1 
1 
1 
1 
1 
1 
1 
1 
1 
1 
1 
1 
1 
1 
1 
1 
1 
1 
1 
1 
1 
1 
1 
1 
1 
1 
1 
1 
1 
1 
1 
1 
1 
1 
1 
1 
1 
1 
1 
1 
1 
1 
1 
1 
1 
1 
1 
1 
1 
1 
1 
1 
1 
1 
1 
1 
1 
1 
1 
1 
1 
1 
1 
1 
1 
1 
1 
1 
1 
1 
1 
1 
1 
1 
1 
1 
1 
1 
1 
1 
1 
1 
1 
1 
1 
1 
1 
1 
1 
1 
1 
1 
1 
1 
1 
1 
1 
1 
1 
1 
1 
1 
1 
1 
1 
1 
1 
1 
1 
1 
1 
1 
1 
1 
1 
1 
1 
1 
1 
1 
1 
1 
1 
1 
1 
1 
1 
1 
1 
1 
1 
1 
1 
1 
1 
1 
1 
1 
1 
1 
1 
1 
1 
1 
1 
1 
1 
1 
1 
1 
1 
1 
1 
1 
1 
1 
1 
1 
1 
1 
1 
1 
1 
1 
1 
1 
1 
1 
1 
1 
1 
1 
1 
1 
1 
1 
1 
1 
1 
1 
1 
1 
1 
1 
1 
1 
1 
1 
1 
1 
1 
1 
1 
1 
1 
1 
1 
1 
1 
1 
1 
1 
1 
1 
1 
1 
1 
1 
1 
1 
1 
1 
1 
1 
1 
1 
1 
1 
1 
1 
1 
1 
1 
1 
1 
1 
1 
1 
1 
1 
1 
1 
1 
1 
1 
1 
1 
1 
1 
1 
1 
1 
1 
1 
1 
1 
1 
1 
1 
1 
1 
1 
1 
1 
1 
1 
1 
1 
1 
1 
1 
1 
1 
1 
1 
1 
1 
1 
1 
1 
1 
1 
1 
1 
1 
1 
1 
1 
1 
1 
1 
1 
1 
1 
1 
1 
1 
1 
1 
1 
1 
1 
1 
1 
1 
1 
1 
1 
1 
1 
1 
1 
1 
1 
1 
1 
1 
1 
1 
1 
1 
1 
1 
1 
1 
1 
1 
1 
1 
1 
1 
1 
1 
1 
1 
1 
1 
1 
1 
1 
1 
1 
1 
1 
1 
1 
1 
1 
1 
1 
1 
1 
1 
1 
1 
1 
1 
1 
1 
1 
1 
1 
1 
1 
1 
1 
1 
1 
1 
1 
1 
1 
1 
1 
1 
1 
1 
1 
1 
1 
1 
1 
1 
1 
1 
1 
1 
1 
1 
1 
1 
1 
1 
1 
1 
1 
1 
1 
1 
1 
1 
1 
1 
1 
1 
1 
1 
1 
1 
1 
1 
1 
1 
1 
1 
1 
1 
1 
1 
1 
1 
1 
1 
1 
1 
1 
1 
1 
1 
1 
1 
1 
1 
1 
1 
1 
1 
1 
1 
1 
1 
1 
1 
1 
1 
1 
1 
1 
1 
1 
1 
1 
1 
1 
1 
1 
1 
1 
1 
1 
1 
1 
1 
1 
1 
1 
1 
1 
1 
1 
1 
1 
1 
1 
1 
1 
1 
1 
1 
1 
1 
1 
1 
1 
1 
1 
1 
1 
1 
1 
1 
1 
1 
1 
1 
1 
1 
1 
1 
1 
1 
1 
1 
1 
1 
1 
1 
1 
1 
1 
1 
1 
1 
1 
1 
1 
1 
1 
1 
1 
1 
1 
1 
1 
1 
1 
1 
1 
1 
1 
1 
1 
1 
1 
1 
1 
1 
1 
1 
1 
1 
1 
1 
1 
1 
1 
1 
1 
1 
1 
1 
1 
1 
1 
1 
1 
1 
1 
1 
1 
1 
1 
1 
1 
1 
1 
1 
1 
1 
1 
1 
1 
1 
1 
1 
1 
1 
1 
1 
1 
1 
1 
1 
1 
1 
1 
1 
1 
1 
1 
1 
1 
1 
1 
1 
1 
1 
1 
1 
1 
1 
1 
1 
1 
1 
1 
1 
1 
1 
1 
1 
1 
1 
1 
1 
1 
1 
1 
1 
1 
1 
1 
1 
1 
1 
1 
1 
1 
1 
1 
1 
1 
1 
1 
1 
1 
1 
1 
1 
1 
1 
1 
1 
1 
1 
1 
1 
1 
1 
1 
1 
1 
1 
1 
1 
1 
1 
1 
1 
1 
1 
1 
1 
1 
1 
1 
1 
1 
1 
1 
1 
1 
1 
1 
1 
1 
1 
1 
1 
1 
1 
1 
1 
1 
1 
1 
1 
1 
1 
1 
1 
1 
1 
1 
1 
1 
1 
1 
1 
1 
1 
1 
1 
1 
1 
1 
1 
1 
1 
1 
1 
1 
1 
1 
1 
1 
1 
1 
1 
1 
1 
1 
1 
1 
1 
1 
1 
1 
1 
1 
1 
1 
1 
1 
1 
1 
1 
1 
1 
1 
1 
1 
1 
1 
1 
1 
1 
1 
1 
1 
1 
1 
1 
1 
1 
1 
1 
1 
1 
1 
1 
1 
1 
1 
1 
1 
1 
1 
1 
1 
1 
1 
1 
1 
1 
1 
1 
1 
1 
1 
1 
1 
1 
1 
1 
1 
1 
1 
1 
1 
1 
1 
1 
1 
1 
1 
1 
1 
1 
1 
1 
1 
1 
1 
1 
1 
1 
1 
1 
1 
1 
1 
1 
1 
1 
1 
1 
1 
1 
1 
1 
1 
1 
1 
1 
1 
1 
1 
1 
1 
1 
1 
1 
1 
1 
1 
1 
1 
1 
1 
1 
1 
1 
1 
1 
1 
1 
1 
1 
1 
1 
1 
1 
1 
1 
1 
1 
1 
1 
1 
1 
1 
1 
1 
1 
1 
1 
1 
1 
1 
1 
1 
1 
1 
1 
1 
1 
1 
1 
1 
1 
1 
1 
1 
1 
1 
1 
1 
1 
1 
1 
1 
1 
1 
1 
1 
1 
1 
1 
1 
1 
1 
1 
1 
1 
1 
1 
1 
1 
1 
1 
1 
1 
1 
1 
1 
1 
1 
1 
1 
1 
1 
1 
1 
1 
1 
1 
1 
1 
1 
1 
1 
1 
1 
1 
1 
1 
1 
1 
1 
1 
1 
1 
1 
1 
1 
1 
1 
1 
1 
1 
1 
1 
1 
1 
1 
1 
1 
1 
1 
1 
1 
1 
1 
1 
1 
1 
1 
1 
1 
1 
1 
1 
1 
1 
1 
1 
1 
1 
1 
1 
1 
1 
1 
1 
1 
1 
1 
1 
1 
1 
1 
1 
1 
1 
1 
1 
1 
1 
1 
1 
1 
1 
1 
1 
1 
1 
1 
1 
1 
1 
1 
1 
1 
1 
1 
1 
1 
1 
1 
1 
1 
1 
1 
1 
1 
1 
1 
1 
1 
1 
1 
1 
1 
1 
1 
1 
1 
1 
1 
1 
1 
1 
1 
1 
1 
1 
1 
1 
1 
1 
1 
1 
1 
1 
1 
1 
1 
1 
1 
1 
1 
1 
1 
1 
1 
1 
1 
1 
1 
1 
1 
1 
1 
1 
1 
1 
1 
1 
1 
1 
1 
1 
1 
1 
1 
1 
1 
1 
1 
1 
1 
1 
1 
1 
1 
1 
1 
1 
1 
1 
1 
1 
1 
1 
1 
1 
1 
1 
1 
1 
1 
1 
1 
1 
1 
1 
1 
1 
1 
1 
1 
1 
1 
1 
1 
1 
1 
1 
1 
1 
1 
1 
1 
1 
1 
1 
1 
1 
1 
1 
1 
1 
1 
1 
1 
1 
1 
1 
1 
1 
1 
1 
1 
1 
1 
1 
1 
1 
1 
1 
1 
1 
1 
1 
1 
1 
1 
1 
1 
1 
1 
1 
1 
1 
1 
1 
1 
1 
1 
1 
1 
1 
1 
1 
1 
1 
1 
1 
1 
1 
1 
1 
1 
1 
1 
1 
1 
1 
1 
1 
1 
1 
1 
1 
1 
1 
1 
1 
1 
1 
1 
1 
1 
1 
1 
1 
1 
1 
1 
1 
1 
1 
1 
1 
1 
1 
1 
1 
1 
1 
1 
1 
1 
1 
1 
1 
1 
1 
1 
1 
1 
1 
1 
1 
1 
1 
1 
1 
1 
1 
1 
1 
1 
1 
1 
1 
1 
1 
1 
1 
1 
1 
1 
1 
1 
1 
1 
1 
1 
1 
1 
1 
1 
1 
1 
1 
1 
1 
1 
1 
1 
1 
1 
1 
1 
1 
1 
1 
1 
1 
1 
1 
1 
1 
1 
1 
1 
1 
1 
1 
1 
1 
1 
1 
1 
1 
1 
1 
1 
1 
1 
1 
1 
1 
1 
1 
1 
1 
1 
1 
1 
1 
1 
1 
1 
1 
1 
1 
1 
1 
1 
1 
1 
1 
1 
1 
1 
1 
1 
1 
1 
1 
1 
1 
1 
1 
1 
1 
1 
1 
1 
1 
1 
1 
1 
1 
1 
1 
1 
1 
1 
1 
1 
1 
1 
1 
1 
1 
1 
1 
1 
1 
1 
1 
1 
1 
1 
1 
1 
1 
1 
1 
1 
1 
1 
1 
1 
1 
1 
1 
1 
1 
1 
1 
1 
1 
1 
1 
1 
1 
1 
1 
1 
1 
1 
1 
1 
1 
1 
1 
1 
1 
1 
1 
1 
1 
1 
1 
1 
1 
1 
1 
1 
1 
1 
1 
1 
1 
1 
1 
1 
1 
1 
1 
1 
1 
1 
1 
1 
1 
1 
1 
1 
1 
1 
1 
1 
1 
1 
1 
1 
1 
1 
1 
1 
1 
1 
1 
1 
1 
1 
1 
1 
1 
1 
1 
1 
1 
1 
1 
1 
1 
1 
1 
1 
1 
1 
1 
1 
1 
1 
1 
1 
1 
1 
1 
1 
1 
1 
1 
1 
1 
1 
1 
1 
1 
1 
1 
1 
1 
1 
1 
1 
1 
1 
1 
1 
1 
1 
1 
1 
1 
1 
1 
1 
1 
1 
1 
1 
1 
1 
1 
1 
1 
1 
1 
1 
1 
1 
1 
1 
1 
1 
1 
1 
1 
1 
1 
1 
1 
1 
1 
1 
1 
1 
1 
1 
1 
1 
1 
1 
1 
1 
1 
1 
1 
1 
1 
1 
1 
1 
1 
1 
1 
1 
1 
1 
1 
1 
1 
1 
1 
1 
1 
1 
1 
1 
1 
1 
1 
1 
1 
1 
1 
1 
1 
1 
1 
1 
1 
1 
1 
1 
1 
1 
1 
1 
1 
1 
1 
1 
1 
1 
1 
1 
1 
1 
1 
1 
1 
1 
1 
1 
1 
1 
1 
1 
1 
1 
1 
1 
1 
1 
1 
1 
1 
1 
1 
1 
1 
1 
1 
1 
1 
1 
1 
1 
1 
1 
1 
1 
1 
1 
1 
1 
1 
1 
1 
1 
1 
1 
1 
1 
1 
1 
1 
1 
1 
1 
1 
1 
1 
1 
1 
1 
1 
1 
1 
1 
1 
1 
1 
1 
1 
1 
1 
1 
1 
1 
1 
1 
1 
1 
1 
1 
1 
1 
1 
1 
1 
1 
1 
1 
1 
1 
1 
1 
1 
1 
1 
1 
1 
1 
1 
1 
1 
1 
1 
1 
1 
1 
1 
1 
1 
1 
1 
1 
1 
1 
1 
1 
1 
1 
1 
1 
1 
1 
1 
1 
1 
1 
1 
1 
1 
1 
1 
1 
1 
1 
1 
1 
1 
1 
1 
1 
1 
1 
1 
1 
1 
1 
1 
1 
1 
1 
1 
1 
1 
1 
1 
1 
1 
1 
1 
1 
1 
1 
1 
1 
1 
1 
1 
1 
1 
1 
1 
1 
1 
1 
1 
1 
1 
1 
1 
1 
1 
1 
1 
1 
1 
1 
1 
1 
1 
1 
1 
1 
1 
1 
1 
1 
1 
1 
1 
1 
1 
1 
1 
1 
1 
1 
1 
1 
1 
1 
1 
1 
1 
1 
1 
1 
1 
1 
1 
1 
1 
1 
1 
1 
1 
1 
1 
1 
1 
1 
1 
1 
1 
1 
1 
1 
1 
1 
1 
1 
1 
1 
1 
1 
1 
1 
1 
1 
1 
1 
1 
1 
1 
1 
1 
1 
1 
1 
1 
1 
1 
1 
1 
1 
1 
1 
1 
1 
1 
1 
1 
1 
1 
1 
1 
1 
1 
1 
1 
1 
1 
1 
1 
1 
1 
1 
1 
1 
1 
1 
1 
1 
1 
1 
1 
1 
1 
1 
1 
1 
1 
1 
1 
1 
1 
1 
1 
1 
1 
1 
1 
1 
1 
1 
1 
1 
1 
1 
1 
1 
1 
1 
1 
1 
1 
1 
1 
1 
1 
1 
1 
1 
1 
1 
1 
1 
1 
1 
1 
1 
1 
1 
1 
1 
1 
1 
1 
1 
1 
1 
1 
1 
1 
1 
1 
1 
1 
1 
1 
1 
1 
1 
1 
1 
1 
1 
1 
1 
1 
1 
1 
1 
1 
1 
1 
1 
1 
1 
1 
1 
1 
1 
1 
1 
1 
1 
1 
1 
1 
1 
1 
1 
1 
1 
1 
1 
1 
1 
1 
1 
1 
1 
1 
1 
1 
1 
1 
1 
1 
1 
1 
1 
1 
1 
1 
1 
1 
1 
1 
1 
1 
1 
1 
1 
1 
1 
1 
1 
1 
1 
1 
1 
1 
1 
1 
1 
1 
1 
1 
1 
1 
1 
1 
1 
1 
1 
1 
1 
1 
1 
1 
1 
1 
1 
1 
1 
1 
1 
1 
1 
1 
1 
1 
1 
1 
1 
1 
1 
1 
1 
1 
1 
1 
1 
1 
1 
1 
1 
1 
1 
1 
1 
1 
1 
1 
1 
1 
1 
1 
1 
1 
1 
1 
1 
1 
1 
1 
1 
1 
1 
1 
1 
1 
1 
1 
1 
1 
1 
1 
1 
1 
1 
1 
1 
1 
1 
1 
1 
1 
1 
1 
1 
1 
1 
1 
1 
1 
1 
1 
1 
1 
1 
1 
1 
1 
1 
1 
1 
1 
1 
1 
1 
1 
1 
1 
1 
1 
1 
1 
1 
1 
1 
1 
1 
1 
1 
1 
1 
1 
1 
1 
1 
1 
1 
1 
1 
1 
1 
1 
1 
1 
1 
1 
1 
1 
1 
1 
1 
1 
1 
1 
1 
1 
1 
1 
1 
1 
1 
1 
1 
1 
1 
1 
1 
1 
1 
1 
1 
1 
1 
1 
1 
1 
1 
1 
1 
1 
1 
1 
1 
1 
1 
1 
1 
1 
1 
1 
1 
1 
1 
1 
POINT_DATA 5000
VECTORS Stress float
198.379 -385.039 0.
-420.03 -636.193 0.
-415.273 -625.592 0.
-228.175 -552.207 0.
-262.743 -632.943 0.
-297.311 -713.68 0.
433.558 -572.085 0.
262.805 -970.533 0.
92.0523 -1368.98 0.
-82.7526 -1487.77 0.
-20.8961 -1343.46 0.
40.9605 -1199.16 0.
-60.7826 -1255.76 0.
-78.2691 -1296.61 0.
-391.593 -1445.95 0.
-291.281 -1212.22 0.
-190.968 -978.494 0.
301.226 -729.813 0.
143.485 -1098.35 0.
-14.2554 -1466.9 0.
425.402 -1355.06 0.
488.57 -1207.85 0.
551.738 -1060.63 0.
123.362 -1130.6 0.
183.024 -991.286 0.
371.155 -796.923 0.
-186.028 -998.722 0.
-166.767 -953.813 0.
-75.2718 -928.805 0.
-190.208 -1197.22 0.
-305.143 -1465.64 0.
133.519 -1376.22 0.
166.434 -1299.11 0.
199.349 -1222 0.
56.7572 -1319.04 0.
9.03294 -1429.99 0.
-38.6913 -1540.93 0.
-71.2214 -1570.95 0.
-74.7692 -1579.13 0.
-329.861 -1671.16 0.
-206.425 -1383.13 0.
-82.9902 -1095.1 0.
-563.646 -1138.58 0.
-561.732 -1133.55 0.
-559.818 -1128.51 0.
-740.423 -1344.47 0.
-874.33 -1657.05 0.
-1008.24 -1969.64 0.
3820.48 236.71 0.
3952.67 545.313 0.
-26571.3 -12284.8 0.
3963.77 560.079 0.
3837.39 264.43 0.
-1146.39 -2040.78 0.
-1100.42 -1933.75 0.
-1054.46 -1826.71 0.
-194.642 -1441.46 0.
-233.224 -1531.4 0.
-271.807 -1621.34 0.
-705.665 -1694.06 0.
-598.409 -1443.61 0.
-491.153 -1193.16 0.
-47.3801 -1079.22 0.
-102.925 -1208.6 0.
198.863 -1183.12 0.
142.621 -1314.38 0.
86.3794 -1445.64 0.
-301.677 -1664.35 0.
-273.477 -1598.75 0.
-245.278 -1533.14 0.
86.7351 -1312.11 0.
136.825 -1195.03 0.
186.914 -1077.95 0.
-99.1246 -1097.52 0.
-44.2866 -969.886 0.
476.115 -655.212 0.
394.093 -915.502 0.
276.065 -1191.21 0.
-299.255 -1611.04 0.
-313.723 -1644.69 0.
-328.192 -1678.35 0.
-78.1961 -1562.93 0.
-52.2357 -1501.97 0.
-26.2754 -1441.02 0.
-86.1183 -1346.22 0.
-11.2876 -1170.89 0.
63.5429 -995.546 0.
-190.08 -1200.62 0.
-248.907 -1338.71 0.
-411.588 -1475.9 0.
-302.979 -1222.24 0.
-194.37 -968.577 0.
-295.69 -897.407 0.
-317.731 -948.812 0.
-339.771 -1000.22 0.
483.172 -625.946 0.
517.922 -544.56 0.
552.673 -463.175 0.
459.267 -409.111 0.
509.632 -290.572 0.
146.566 -376.044 0.
-355.539 -577.733 0.
-350.564 -567.624 0.
37.9563 -405.857 0.
3.37536 -486.781 0.
-31.2056 -567.706 0.
335.159 -583.2 0.
164.411 -981.684 0.
-6.33683 -1380.17 0.
79.8712 -1386.68 0.
141.765 -1242.35 0.
203.659 -1098.01 0.
-119.806 -1250.09 0.
-137.236 -1290.89 0.
-317.023 -1382.63 0.
-216.484 -1149.04 0.
-115.944 -915.457 0.
113.553 -778.435 0.
-43.8806 -1147.22 0.
-201.314 -1516.01 0.
695.175 -1207.92 0.
758.48 -1060.74 0.
821.785 -913.559 0.
-72.6049 -1183.33 0.
-13.0739 -1044.12 0.
-284.241 -1046.64 0.
-120.127 -938.55 0.
-100.882 -893.747 0.
-121.553 -917.315 0.
-236.333 -1185.83 0.
-351.113 -1454.35 0.
101.359 -1358.82 0.
134.131 -1281.43 0.
166.903 -1204.04 0.
96.3564 -1271.3 0.
48.3775 -1382.02 0.
0.398697 -1492.73 0.
97.2855 -1467.78 0.
93.7048 -1475.82 0.
-146.91 -1561.28 0.
-23.463 -1273.19 0.
99.9843 -985.091 0.
-456.755 -1062.13 0.
-455.07 -1056.5 0.
-453.385 -1050.86 0.
-337.574 -1142.54 0.
-471.387 -1455.18 0.
-605.2 -1767.81 0.
3113.66 -34.8696 0.
3245.67 273.669 0.
-21135.3 -9923.62 0.
3429.52 362.084 0.
3303.66 66.1047 0.
-640.289 -1791.63 0.
-594.206 -1684.78 0.
-548.123 -1577.93 0.
-168.34 -1398.85 0.
-207.004 -1488.81 0.
-245.668 -1578.76 0.
-456.652 -1556.29 0.
-349.49 -1305.69 0.
-242.327 -1055.1 0.
-442.844 -1217.25 0.
-498.528 -1346.5 0.
303.121 -1107.52 0.
246.897 -1238.8 0.
190.672 -1370.07 0.
167.152 -1431.26 0.
195.492 -1365.71 0.
223.831 -1300.17 0.
137.279 -1259.35 0.
187.259 -1142.12 0.
237.239 -1024.9 0.
-418.936 -1203.72 0.
-363.882 -1076.22 0.
-101.271 -870.147 0.
-108.19 -1098.43 0.
-225.987 -1374.23 0.
406.002 -1277.49 0.
391.448 -1311.13 0.
376.893 -1344.77 0.
152.303 -1432.8 0.
178.035 -1371.61 0.
203.767 -1310.43 0.
-379.549 -1441.16 0.
-305.237 -1265.56 0.
-230.925 -1089.96 0.
-357.635 -1241.87 0.
-415.987 -1380.49 0.
-254.883 -1377.98 0.
-146.421 -1124.17 0.
-37.9587 -870.369 0.
-178.41 -816.161 0.
-200.55 -867.755 0.
-222.689 -919.348 0.
264.767 -688.547 0.
299.398 -606.84 0.
334.028 -525.133 0.
94.3934 -534.132 0.
144.324 -414.57 0.
-330.111 -1357.42 0.
-634.899 -1326.63 0.
-472.014 -945.017 0.
-241.501 -1528.67 0.
41.1405 -869.841 0.
-241.084 -1529.09 0.
-971.596 -3415.46 0.
-828.293 -3081.95 0.
-2108.46 -6069.86 0.
-2326.23 -7278.62 0.
-1341.79 -4982.83 0.
-1539.98 -5446.51 0.
-1843.7 -5131.27 0.
-1664.73 -4711.89 0.
-3044 -7859.66 0.
-1299.06 -3786.56 0.
-1472.14 -4188.85 0.
-1551.31 -4284.65 0.
-1990.94 -5309.13 0.
-4171.58 -10396 0.
-5692.23 -16593.9 0.
-2014.68 -8012 0.
-1604.97 -7055.06 0.
-2057 -5409.69 0.
-1615.54 -4380.18 0.
-2424.96 -6325.66 0.
-1682.35 -4675.77 0.
-1536.62 -4335 0.
-1284.35 -3516.11 0.
-1487.45 -3988.74 0.
-2787.97 -7022.03 0.
-3745.65 -10244.3 0.
-2274.62 -6813.44 0.
-2118.5 -6450.69 0.
-2119.99 -6481.66 0.
-2880.88 -8259.71 0.
-5630.58 -14678.3 0.
-5106.09 -13900.2 0.
-3543.23 -10254 0.
-4569.63 -12201.7 0.
-3099.4 -8770.73 0.
-3126.19 -8832.79 0.
-2431.65 -5841.54 0.
-1228.84 -3035.82 0.
-1196.28 -2960.7 0.
-1295.71 -4115.86 0.
-1819.68 -5339.01 0.
-4418.08 -11402.5 0.
381.366 -5034.12 0.
684.076 -4328.03 0.
-19911.3 -15897.6 0.
886.747 -4524.79 0.
363.428 -5744.39 0.
-4296.51 -11260 0.
-2212.63 -6395.85 0.
-3043.57 -8333.02 0.
-2710.17 -7346.53 0.
-2027.38 -5753.28 0.
-2729.92 -7392.43 0.
-2678.49 -7188.01 0.
-1580.63 -4627.58 0.
-1736.78 -4993.19 0.
-2002.35 -4069.38 0.
-2029.78 -4135.04 0.
-2368.09 -7507.03 0.
-2527.87 -7880.12 0.
-4396.6 -12240.8 0.
-5617.61 -15791.6 0.
-2371.72 -8216.89 0.
-2312.04 -8076.65 0.
-2495.27 -7464.79 0.
-2246.17 -6884.16 0.
-3719.05 -10321.5 0.
-2142.34 -4584.54 0.
-1532.09 -3160.62 0.
-1782.76 -3802.92 0.
-1394.74 -3114.75 0.
-2545.54 -5799.55 0.
-4428.49 -13869.2 0.
-2924.34 -10359 0.
-3911.98 -12663 0.
-4431.14 -12534.2 0.
-3076.32 -9373.12 0.
-3501.4 -10365.2 0.
-2258.96 -5234.32 0.
-1125.26 -2590.69 0.
-1599.52 -3698.98 0.
-1601.67 -3795.72 0.
-1919.76 -4537.64 0.
-1747.77 -5135.57 0.
-547.73 -2335.57 0.
-563.227 -2372.16 0.
-866.391 -2611.15 0.
-670.563 -2155.04 0.
-1455.1 -3986.45 0.
-563.229 -2176.3 0.
-7.91808 -881.106 0.
81.42 -673.288 0.
-724.879 -1725.74 0.
-1474.84 -3476.06 0.
24.2327 -302.891 0.
66.6037 -184.414 0.
103.724 -96.6694 0.
391.894 98.5444 0.
442.562 216.791 0.
493.23 335.037 0.
813.461 738.58 0.
1075.37 1349.27 0.
1337.28 1959.97 0.
1421.27 1998.26 0.
1278.12 1663.06 0.
1134.97 1327.86 0.
1144.38 1455.44 0.
1240.03 1680.18 0.
1054.23 1746.95 0.
928.857 1454.9 0.
803.485 1162.84 0.
1045.77 1287.5 0.
1353.76 2006.71 0.
1661.74 2725.92 0.
2214.05 3142.8 0.
2128.12 2941.48 0.
2042.19 2740.15 0.
1304.73 2164.98 0.
1150.18 1803.69 0.
1545.55 1678.03 0.
1214.52 1358.01 0.
1124.24 1146.91 0.
609.222 862.575 0.
794.403 1296.25 0.
979.583 1729.93 0.
1681.15 2207.41 0.
1655.47 2146.79 0.
1629.79 2086.16 0.
1505.19 2257.04 0.
1700.72 2711.32 0.
1896.25 3165.59 0.
2128.64 3359.78 0.
2157.92 3428.28 0.
2106.56 3396.66 0.
1814.98 2717.4 0.
1523.4 2038.15 0.
1004.71 1361.52 0.
867.672 1041.65 0.
730.634 721.776 0.
1209.69 940.27 0.
1334.3 1229.91 0.
1458.91 1519.54 0.
2939.92 2318.74 0.
3018.05 2499.5 0.
498.936 1567.65 0.
3805.58 2993 0.
3808.96 3002.54 0.
1256.53 1882.65 0.
1174.38 1692.78 0.
1092.24 1502.91 0.
1456.1 1673.63 0.
1569.66 1938.83 0.
1683.22 2204.02 0.
1219.39 1835.42 0.
1035.78 1406.35 0.
852.172 977.294 0.
496.71 1116.06 0.
686.536 1557.7 0.
1757.24 2372.91 0.
1931.81 2779.01 0.
2106.38 3185.11 0.
2268.47 3422.98 0.
2195.95 3252.91 0.
2123.43 3082.85 0.
1693.26 2685.24 0.
1551.62 2353.21 0.
1409.99 2021.17 0.
874.419 1522.29 0.
733.523 1194.97 0.
633.728 906.124 0.
887.847 1659.56 0.
1225.57 2448.83 0.
2594.43 3530.09 0.
2612.62 3573.42 0.
2630.82 3616.76 0.
2158.1 3304.85 0.
2010.39 2959.56 0.
1862.67 2614.27 0.
1023.61 1857.33 0.
793.307 1318.46 0.
563.009 779.591 0.
451.228 795.808 0.
503.366 919.118 0.
897.512 1132.76 0.
763.708 820.575 0.
629.903 508.394 0.
488.609 306.107 0.
508.497 352.315 0.
528.384 398.524 0.
471.333 314.875 0.
406.043 162.727 0.
340.754 10.5784 0.
105.58 -52.6773 0.
146.371 42.4519 0.
-78.6599 -315.267 0.
342.681 -34.8113 0.
379.867 52.6705 0.
330.382 104.212 0.
380.747 222.511 0.
431.113 340.809 0.
836.013 780.109 0.
1097.8 1390.96 0.
1359.59 2001.81 0.
1158.12 1916.97 0.
1015.02 1581.95 0.
871.93 1246.93 0.
1362.94 1579.94 0.
1458.68 1804.7 0.
1047.58 1775.53 0.
922.574 1483.23 0.
797.566 1190.92 0.
1318.53 1436.26 0.
1626.81 2155.4 0.
1935.08 2874.54 0.
1554.89 2893.51 0.
1469.55 2691.76 0.
1384.21 2490 0.
1462.88 2264.6 0.
1308.29 1903.15 0.
1849.65 1839.86 0.
1612.48 1561.02 0.
1522.52 1349.45 0.
646.701 910.398 0.
831.734 1344.04 0.
1016.77 1777.69 0.
1808.16 2292.97 0.
1782.25 2232.62 0.
1756.33 2172.26 0.
1374.32 2231.59 0.
1569.58 2685.94 0.
1764.85 3140.28 0.
1946.39 3313.44 0.
1975.43 3382.08 0.
2112.74 3431.71 0.
1821.01 2752.75 0.
1529.29 2073.79 0.
1448.9 1582.85 0.
1311.64 1263.19 0.
1174.38 943.539 0.
1639.13 1152.51 0.
1764 1442.2 0.
1888.88 1731.89 0.
2230.93 2047.35 0.
2309.33 2227.42 0.
207.949 1474.4 0.
3450.77 2872.3 0.
3454.22 2882.19 0.
1175.44 1878.98 0.
1093.32 1689.23 0.
1011.2 1499.49 0.
1840.48 1869.39 0.
1953.97 2134.57 0.
2067.46 2399.75 0.
1273.67 1890.45 0.
1089.93 1461.67 0.
906.185 1032.89 0.
852.593 1300.75 0.
1042.42 1742.78 0.
1640.03 2353.57 0.
1814.93 2759.5 0.
1989.83 3165.42 0.
1857.94 3278.78 0.
1785.95 3108.15 0.
1713.97 2937.52 0.
1513.06 2641.59 0.
1371.71 2309.26 0.
1230.36 1976.93 0.
1380.84 1771.65 0.
1239.4 1444.52 0.
912.347 1056.01 0.
1193.8 1821.71 0.
1531.36 2611.47 0.
2079.42 3340.9 0.
2097.69 3384.79 0.
2115.96 3428.68 0.
1930.93 3238.96 0.
1783.38 2893.6 0.
1635.82 2548.24 0.
1338.15 2023.61 0.
1107.71 1484.57 0.
877.259 945.522 0.
571.792 878.528 0.
623.388 1002.04 0.
863.312 1148.62 0.
729.325 836.497 0.
595.339 524.374 0.
633.837 400.578 0.
653.59 447.055 0.
673.344 493.531 0.
446.968 335.276 0.
381.439 183.313 0.
315.91 31.3498 0.
261.19 45.9218 0.
302.028 141.452 0.
-135.37 -458.65 0.
244.659 -390.47 0.
223.046 -441.812 0.
17.2259 -597.528 0.
-65.5076 -791.009 0.
-148.241 -984.49 0.
55.8506 -994.196 0.
51.2346 -1005.56 0.
46.6186 -1016.93 0.
-186.242 -1060.72 0.
-135.146 -941.641 0.
-84.0495 -822.564 0.
449.853 -583.484 0.
445.345 -594.244 0.
-37.1999 -817.989 0.
-83.4433 -924.339 0.
-129.687 -1030.69 0.
351.257 -929.001 0.
279.081 -1095.65 0.
206.905 -1262.3 0.
-497.007 -1567.36 0.
-437.285 -1429.82 0.
-377.562 -1292.29 0.
58.07 -1122.71 0.
30.8255 -1189.85 0.
519.456 -1035.8 0.
637.007 -951.1 0.
656.595 -905.512 0.
-291.504 -1262.88 0.
-231.232 -1123.17 0.
-170.96 -983.454 0.
497.152 -686.896 0.
430.795 -847.73 0.
364.436 -1008.57 0.
-187.306 -1475.15 0.
-331.598 -1814.08 0.
-475.889 -2153.01 0.
-286.184 -2026.38 0.
-238.135 -1916.34 0.
-105.368 -1758.81 0.
-2.43293 -1520.74 0.
100.502 -1282.66 0.
400.091 -1011.38 0.
420.319 -965.87 0.
440.547 -920.365 0.
858.976 -785.219 0.
799.154 -926.683 0.
739.33 -1068.15 0.
569.091 -1287.14 0.
494.999 -1461.64 0.
-1299 -2375.07 0.
1335.23 -1094.18 0.
1416.5 -907.393 0.
-135.452 -1458.09 0.
-148.914 -1483.39 0.
-162.376 -1508.69 0.
628.186 -1201.66 0.
606.835 -1254.68 0.
585.483 -1307.71 0.
-94.9584 -1456.68 0.
24.6199 -1175.97 0.
144.198 -895.271 0.
-17.9077 -1134 0.
-131.437 -1397.85 0.
-115.144 -1575.45 0.
-98.2833 -1534.49 0.
-81.423 -1493.54 0.
-339.556 -1563.44 0.
-306.226 -1483.63 0.
-272.897 -1403.81 0.
-206.139 -1308.52 0.
-170.294 -1221.1 0.
-134.449 -1133.68 0.
334.263 -908.724 0.
342.343 -894.146 0.
176.884 -956.036 0.
90.4864 -1084.1 0.
42.3516 -1195.76 0.
-119.585 -1345.62 0.
-146.903 -1408.25 0.
-174.221 -1470.89 0.
-271.92 -1637.8 0.
-381.663 -1894.32 0.
-491.406 -2150.85 0.
-97.9509 -1818.13 0.
76.1683 -1412.19 0.
250.287 -1006.25 0.
-208.447 -1132.62 0.
-184.702 -1076.66 0.
-129.79 -1015.23 0.
-143.468 -1045.57 0.
-157.146 -1075.91 0.
-8.26658 -1014.68 0.
15.3852 -956.465 0.
39.0371 -898.25 0.
-3.95278 -851.244 0.
36.6302 -757.693 0.
77.2131 -664.141 0.
-115.055 -818.336 0.
-172.155 -950.245 0.
-7.71003 -374.964 0.
147.427 -400.749 0.
125.352 -451.813 0.
74.5028 -542.707 0.
-8.18516 -736.363 0.
-90.8729 -930.018 0.
16.9607 -978.637 0.
12.3115 -990.231 0.
7.66235 -1001.82 0.
-61.9981 -976.119 0.
-11.0445 -856.896 0.
39.909 -737.673 0.
296.531 -619.515 0.
291.613 -629.929 0.
62.4821 -743.138 0.
16.1446 -849.502 0.
-30.1928 -955.865 0.
232.808 -948.782 0.
160.614 -1115.64 0.
88.4191 -1282.49 0.
-164.63 -1393.1 0.
-104.934 -1255.36 0.
-45.2385 -1117.62 0.
57.8442 -1092.19 0.
30.4986 -1159.07 0.
-521.823 -1450.99 0.
521.898 -969.13 0.
541.198 -923.833 0.
-308.251 -1238.63 0.
-248.364 -1098.9 0.
-188.477 -959.171 0.
326.506 -729.512 0.
259.746 -890.17 0.
192.986 -1050.83 0.
28.3804 -1352.11 0.
-115.342 -1691.48 0.
-259.063 -2030.84 0.
58.104 -1848.17 0.
106.183 -1738.03 0.
-54.3293 -1705.49 0.
48.723 -1467.7 0.
151.775 -1229.91 0.
138.197 -1091.41 0.
158.522 -1046.36 0.
178.848 -1001.31 0.
579.949 -877.762 0.
520.336 -1019.5 0.
460.722 -1161.24 0.
697.896 -1199.67 0.
624.189 -1374.51 0.
-909.323 -2178.06 0.
716.278 -1329.73 0.
797.79 -1143.33 0.
246.55 -1262.5 0.
233.314 -1287.75 0.
220.076 -1312.99 0.
537.175 -1211.03 0.
515.428 -1263.74 0.
493.681 -1316.45 0.
46.4869 -1365.74 0.
165.91 -1084.79 0.
285.333 -803.845 0.
83.3227 -1059.41 0.
-29.818 -1323.66 0.
-142.411 -1555.81 0.
-125.57 -1514.88 0.
-108.729 -1473.96 0.
-212.401 -1476.65 0.
-178.55 -1397.4 0.
-144.698 -1318.14 0.
-67.2247 -1217.69 0.
-31.3729 -1130.15 0.
4.47905 -1042.61 0.
120.429 -968.698 0.
128.655 -953.907 0.
269.259 -885.441 0.
170.518 -1018.66 0.
122.258 -1130.24 0.
-48.7255 -1284.97 0.
-75.9055 -1347.22 0.
-103.086 -1409.47 0.
-295.884 -1617.73 0.
-405.594 -1874.38 0.
-515.305 -2131.02 0.
129.319 -1690.04 0.
303.392 -1283.92 0.
477.465 -877.79 0.
-117.537 -1064.08 0.
-93.4459 -1008.43 0.
-219.289 -1021.8 0.
-232.461 -1052.64 0.
-245.633 -1083.49 0.
-212.443 -1071.41 0.
-188.371 -1013.38 0.
-164.299 -955.349 0.
198.532 -733.528 0.
238.839 -639.764 0.
279.145 -546 0.
-251.242 -845.562 0.
-308.646 -977.429 0.
78.0404 -355.429 0.
205.736 -58.4025 0.
107.106 -286.783 0.
-52.1374 -915.476 0.
158.612 -423.796 0.
278 -145.273 0.
-322.021 -1659.03 0.
555.791 388.387 0.
443.779 125.804 0.
156.517 -680.375 0.
-153.857 -1406.31 0.
350.228 -231.862 0.
466.199 106.821 0.
322.406 -233.08 0.
-6.58171 -1057.41 0.
359.524 -207.445 0.
48.5146 -937.431 0.
-221.547 -1744.35 0.
-35.4502 -1312.56 0.
378.186 -349.867 0.
610.372 -175.021 0.
590.615 -221.553 0.
584.038 -237.375 0.
467.815 -107.484 0.
175.281 -789.154 0.
269.026 -460.174 0.
871.645 103.081 0.
619.908 -488.94 0.
51.9174 -329.373 0.
400.055 477.631 0.
660.994 1081.19 0.
-331.202 -1911.21 0.
108.926 -884.338 0.
597.452 255.537 0.
1133.81 842.694 0.
256.854 -1201.39 0.
-444.539 -2835.91 0.
245.479 -2031.22 0.
710.503 -947.061 0.
170.401 -1248.85 0.
256.271 -1048.18 0.
546.392 -371.014 0.
-13.5651 -923.724 0.
-123.838 -1180.37 0.
605.352 521.61 0.
886.856 387.714 0.
516.228 -472.952 0.
704.391 -29.8234 0.
862.773 -1031.27 0.
1549.02 573.808 0.
195.058 -749.373 0.
732.643 -103.234 0.
442.833 -775.818 0.
801.892 -645.477 0.
383.074 -1626.41 0.
-22.0249 -2575.32 0.
922.973 -110.785 0.
1551.58 1354.39 0.
1540.37 1326.68 0.
657.805 -180.186 0.
183.81 -1288.73 0.
1279.69 1265.86 0.
791.441 429.457 0.
18.4839 -1371.26 0.
-37.1668 -1222.9 0.
1003.87 1204.31 0.
507.254 43.6337 0.
321.594 -439.886 0.
103.56 -948.336 0.
192.561 -740.334 0.
13.7196 -1250.1 0.
892.537 797.784 0.
785.35 545.05 0.
-239.265 -1377 0.
-428.206 -1815.73 0.
978.721 188.685 0.
461.495 -459.35 0.
170.063 -1140.43 0.
702.567 367.827 0.
308.949 -550.159 0.
406.38 -322.295 0.
204.047 -375.931 0.
227.055 -323.281 0.
212.29 -358.708 0.
497.98 -1230.01 0.
482.177 -1265.83 0.
41.5026 -2293.07 0.
110.591 -669.779 0.
627.65 535.71 0.
577.949 1024.26 0.
454.83 735.443 0.
313.216 403.303 0.
77.403 13.825 0.
-23.3398 -219.22 0.
360.491 678.409 0.
643.164 -45.1367 0.
509.799 -356.79 0.
484.313 -416.691 0.
122.012 307.071 0.
-201.954 -448.261 0.
-9.15255 -450.075 0.
278.409 -339.059 0.
267.176 -364.141 0.
108.085 -444.574 0.
109.079 -442.743 0.
110.072 -440.913 0.
92.6835 -540.789 0.
-19.0055 -800.963 0.
-130.695 -1061.14 0.
132.704 -957.923 0.
185.34 -837.472 0.
237.977 -717.02 0.
-65.7189 -910.118 0.
-108.824 -1014.79 0.
67.5315 -1005.98 0.
151.909 -812.767 0.
236.287 -619.555 0.
317.806 -550.254 0.
187.444 -856.366 0.
57.083 -1162.48 0.
225.811 -1232.25 0.
199.243 -1294.43 0.
172.676 -1356.6 0.
-159.966 -1344.82 0.
-45.2215 -1077.32 0.
64.8196 -811.667 0.
425.467 -549.574 0.
484.081 -416.071 0.
-9.94731 -592.949 0.
-139.766 -900.633 0.
-269.584 -1208.32 0.
115.18 -1179.23 0.
128.504 -1149.84 0.
141.83 -1120.44 0.
422.406 -855.383 0.
531.631 -598.665 0.
640.856 -341.948 0.
735.403 -555.648 0.
568.768 -944.534 0.
174.052 -1384.04 0.
228.274 -1257.71 0.
282.497 -1131.38 0.
83.4528 -1121.85 0.
128.318 -1017.12 0.
173.185 -912.389 0.
201.575 -830.058 0.
229.42 -763.351 0.
257.265 -696.643 0.
1000.14 -493.846 0.
915.506 -687.091 0.
223.721 -1138.3 0.
498.587 -896.563 0.
561.466 -745.795 0.
735.694 -589.986 0.
718.623 -632.898 0.
701.552 -675.811 0.
447.142 -879.16 0.
350.126 -1108.05 0.
253.109 -1336.94 0.
141.286 -1306.56 0.
253.013 -1047.62 0.
364.74 -788.684 0.
202.197 -771.807 0.
237.27 -687.596 0.
380.274 -602.156 0.
251.721 -903.641 0.
123.169 -1205.13 0.
-2.57852 -1386.74 0.
45.8587 -1272.76 0.
94.296 -1158.78 0.
107.447 -1085.22 0.
132.223 -1028.51 0.
156.998 -971.807 0.
73.4634 -897.196 0.
137.253 -745.545 0.
328.709 -544.908 0.
198.538 -787.682 0.
100.187 -1016.82 0.
197.114 -1092.19 0.
246.625 -975.603 0.
296.135 -859.017 0.
2.94174 -928.067 0.
13.7331 -902.622 0.
24.5245 -877.177 0.
580.54 -547.329 0.
646.722 -391.994 0.
712.903 -236.658 0.
105.434 -564.677 0.
59.2249 -672.63 0.
-51.2376 -791.849 0.
-11.8238 -700.256 0.
27.5899 -608.662 0.
-61.9281 -664.068 0.
-158.105 -886.001 0.
-254.281 -1107.93 0.
124.54 -933.729 0.
203.664 -749.868 0.
282.789 -566.006 0.
-208.041 -645.916 0.
-141.015 -489.806 0.
-50.7207 -438.249 0.
531.277 -199.363 0.
520.244 -224.551 0.
73.6793 -427.774 0.
74.7743 -426.17 0.
75.8692 -424.565 0.
30.1988 -535.992 0.
-81.7824 -795.713 0.
-193.764 -1055.43 0.
266.43 -868.61 0.
319.255 -748.305 0.
372.08 -627.999 0.
-166.952 -922.516 0.
-210.146 -1026.9 0.
148.524 -938.753 0.
232.771 -745.58 0.
317.017 -552.406 0.
367.943 -497.761 0.
237.484 -803.767 0.
107.024 -1109.77 0.
326.291 -1157.76 0.
299.555 -1219.82 0.
272.82 -1281.88 0.
-262.793 -1357.39 0.
-147.491 -1090.16 0.
-50.4747 -830.553 0.
238.589 -598.432 0.
296.837 -464.469 0.
68.1619 -528.924 0.
-62.0341 -836.497 0.
-192.231 -1144.07 0.
294.861 -1070.75 0.
308.43 -1041.91 0.
322 -1013.08 0.
459.356 -806.982 0.
568.663 -550.399 0.
677.97 -293.817 0.
577.885 -591.294 0.
411.094 -980.088 0.
266.183 -1311.99 0.
320.483 -1186.18 0.
374.783 -1060.36 0.
323.069 -987.963 0.
368.133 -883.105 0.
413.199 -778.245 0.
18.1083 -877.023 0.
46.6406 -810.521 0.
75.1725 -744.02 0.
903.675 -503.661 0.
818.986 -696.653 0.
-1562.45 -1873.8 0.
642.882 -805.18 0.
705.632 -654.62 0.
642.403 -598.182 0.
625.101 -640.852 0.
607.799 -683.522 0.
284.136 -917.766 0.
187.496 -1146.82 0.
90.856 -1375.86 0.
115.947 -1286.95 0.
227.468 -1027.18 0.
338.988 -767.407 0.
127.24 -773.626 0.
162.641 -689.605 0.
582.917 -481.99 0.
454.566 -783.445 0.
326.215 -1084.9 0.
114.354 -1304.66 0.
162.579 -1190.41 0.
210.803 -1076.16 0.
151.533 -1036.95 0.
175.76 -979.744 0.
199.987 -922.533 0.
221.029 -802.564 0.
284.61 -650.896 0.
278.266 -536.538 0.
64.3144 -814.682 0.
-34.2881 -1043.37 0.
361.225 -990.515 0.
410.637 -873.531 0.
460.049 -756.548 0.
62.0239 -872.373 0.
72.6024 -846.582 0.
83.1811 -820.791 0.
340.415 -617.583 0.
406.734 -462.194 0.
473.053 -306.805 0.
60.4424 -552.499 0.
13.86 -660.185 0.
147.021 -676.275 0.
186.178 -584.292 0.
225.335 -492.309 0.
138.492 -548.816 0.
42.1296 -770.847 0.
-54.2319 -992.876 0.
-27.551 -967.221 0.
51.6323 -783.456 0.
130.815 -599.692 0.
-95.5792 -566.382 0.
-28.3611 -410.725 0.
-38.9396 -703.537 0.
520.1 -445.161 0.
522.127 -443.082 0.
-114.237 -727.108 0.
-147.603 -806.246 0.
-180.969 -885.385 0.
-200.046 -948.634 0.
-225.664 -1009.59 0.
-251.283 -1070.54 0.
312.947 -796.794 0.
355.439 -697.287 0.
397.931 -597.78 0.
-111.878 -903.76 0.
-173.164 -1043.54 0.
103.532 -1021.6 0.
167.152 -871.61 0.
230.771 -721.622 0.
292.128 -623.843 0.
275.083 -663.998 0.
258.038 -704.152 0.
499.022 -670.569 0.
444.489 -796.593 0.
389.955 -922.616 0.
-155.478 -1061.48 0.
-72.9641 -867.607 0.
294.645 -551.48 0.
249.509 -658.595 0.
201.299 -771.151 0.
0.0888312 -969.869 0.
-91.7883 -1179.95 0.
-183.665 -1390.04 0.
126.392 -1296.4 0.
202.944 -1120.05 0.
279.497 -943.707 0.
351.657 -986.717 0.
256.711 -1207.26 0.
161.764 -1427.8 0.
156.691 -1447.62 0.
159.221 -1442.2 0.
206.891 -1401.39 0.
295.356 -1191.22 0.
383.82 -981.046 0.
458.051 -855.335 0.
420.739 -939.192 0.
383.427 -1023.05 0.
-165.917 -1252.2 0.
-130.715 -1172.18 0.
-95.5124 -1092.16 0.
763.38 -707.646 0.
764.921 -710.178 0.
-2317.95 -2033.45 0.
699.274 -874.309 0.
629.358 -1038.15 0.
215.464 -1298.37 0.
249.171 -1217.24 0.
282.878 -1136.11 0.
63.2568 -1118.55 0.
155.493 -900.436 0.
247.728 -682.323 0.
399.756 -631.208 0.
344.51 -759.097 0.
289.264 -886.987 0.
-53.9224 -1286.8 0.
-198.338 -1623.25 0.
58.736 -1726.32 0.
161.453 -1484.47 0.
264.17 -1242.63 0.
237.527 -1147.12 0.
199.862 -1233.85 0.
162.196 -1320.58 0.
26.3678 -1317.94 0.
106.263 -1133.95 0.
186.158 -949.962 0.
251.691 -842.563 0.
289.225 -757.412 0.
206.872 -729.756 0.
-99.055 -1207.66 0.
-280.581 -1632.26 0.
90.2379 -1718.59 0.
128.659 -1628.48 0.
167.08 -1538.36 0.
-142.397 -1479.46 0.
27.7094 -1083.22 0.
197.816 -686.976 0.
228.45 -638.36 0.
177.831 -758.637 0.
127.212 -878.913 0.
-152.031 -1088.36 0.
-199.616 -1201.65 0.
-46.7574 -1209.35 0.
-5.0381 -1113.23 0.
36.6812 -1017.1 0.
-45.0306 -949.326 0.
27.4838 -784.901 0.
99.9984 -620.475 0.
55.9782 -656.094 0.
-8.65245 -805.774 0.
-73.2827 -955.453 0.
-263.164 -1033.62 0.
-243.426 -990.652 0.
312.055 -518.992 0.
538.902 -404.793 0.
540.779 -402.882 0.
-191.251 -729.243 0.
-224.688 -807.983 0.
-258.125 -886.723 0.
-231.671 -930.195 0.
-257.193 -990.915 0.
-282.715 -1051.64 0.
258.074 -789.976 0.
300.654 -690.442 0.
343.234 -590.909 0.
132.464 -767.911 0.
71.1886 -907.693 0.
31.1889 -1020.34 0.
95.036 -870.552 0.
158.883 -720.762 0.
226.739 -620.462 0.
209.698 -660.75 0.
192.658 -701.039 0.
339.565 -706.474 0.
285.278 -832.708 0.
230.992 -958.943 0.
-81.8024 -999.803 0.
0.800053 -806.228 0.
695.445 -350.281 0.
552.384 -497.379 0.
504.638 -610.504 0.
238.845 -834.482 0.
147.149 -1045.36 0.
55.452 -1256.23 0.
-198.166 -1405.33 0.
-121.664 -1229.43 0.
-45.1611 -1053.53 0.
277.567 -985.925 0.
182.212 -1206.58 0.
86.8573 -1427.23 0.
209.052 -1393.69 0.
211.372 -1388.39 0.
96.3194 -1417.95 0.
184.682 -1208.29 0.
273.045 -998.628 0.
433.791 -834.117 0.
396.876 -918.53 0.
359.96 -1002.94 0.
-14.6309 -1154.63 0.
20.4214 -1074.42 0.
55.4737 -994.211 0.
774.381 -673.311 0.
775.03 -675.16 0.
670.473 -722.092 0.
793.246 -802.871 0.
722.895 -966.307 0.
27.6087 -1347.51 0.
61.5502 -1266.68 0.
95.4915 -1185.86 0.
-77.1215 -1145.98 0.
15.5848 -928.638 0.
108.291 -711.292 0.
454.51 -575.119 0.
399.005 -702.786 0.
343.502 -830.454 0.
155.61 -1165.49 0.
10.7942 -1501.63 0.
-93.4326 -1761.94 0.
9.13383 -1519.57 0.
111.7 -1277.19 0.
285.79 -1095.88 0.
248.126 -1182.07 0.
210.463 -1268.25 0.
-4.23567 -1301.87 0.
75.7394 -1117.77 0.
155.715 -933.665 0.
264.587 -804.165 0.
302.564 -719.475 0.
40.3785 -770.18 0.
77.9015 -1100.83 0.
-103.634 -1525.35 0.
53.4804 -1702.95 0.
92.0455 -1612.51 0.
130.611 -1522.07 0.
-28.7243 -1400.77 0.
141.272 -1004.3 0.
311.27 -607.831 0.
252.663 -595.164 0.
201.782 -715.011 0.
150.901 -834.859 0.
-23.806 -1003.74 0.
-71.6601 -1116.52 0.
-123.256 -1209.2 0.
-81.3362 -1113.19 0.
-39.4168 -1017.18 0.
-229.335 -997.746 0.
-157.754 -832.66 0.
-86.1734 -667.574 0.
113.762 -599.948 0.
49.0817 -749.459 0.
-15.5979 -898.97 0.
-260.378 -1002.06 0.
-240.226 -958.545 0.
964.986 381.831 0.
717.867 14.4482 0.
1216.72 1178.93 0.
105.918 131.358 0.
-98.0135 -343.942 0.
35.2687 -32.2701 0.
290.626 371.57 0.
309.723 416.019 0.
251.666 279.366 0.
828.181 679.321 0.
949.416 962.614 0.
849.862 730.838 0.
623.721 -51.5388 0.
382.845 -615.773 0.
657.496 615.45 0.
717.347 751.839 0.
452.698 131.037 0.
542.225 269.218 0.
473.608 109.131 0.
365.264 -143.925 0.
585.441 197.21 0.
621.385 281.224 0.
33.2485 -1090.8 0.
286.573 -246.719 0.
787.508 918.643 0.
832.927 629.723 0.
1258.11 602.831 0.
783.708 -509.092 0.
536.652 -551.468 0.
1030.11 597.82 0.
1363.1 1372.63 0.
374.781 576.499 0.
105.041 -52.0415 0.
25.5404 -236.293 0.
754.087 293.442 0.
981.191 825.443 0.
743.032 272.417 0.
1547.26 1666.3 0.
1026.04 449.894 0.
808.228 484.27 0.
600.757 -3.13835 0.
647.665 103.277 0.
731.113 -54.2881 0.
1049.83 686.426 0.
922.586 386.287 0.
528.407 -142.886 0.
211.385 -883.672 0.
547.686 -99.7828 0.
1453.58 915.178 0.
1600.62 1257.45 0.
-1116.97 -691.234 0.
1408.57 505.818 0.
1297.37 243.499 0.
1124.18 1602.41 0.
859.526 982.986 0.
422.819 -37.2738 0.
479.996 451.015 0.
406.817 280.468 0.
578.151 680.518 0.
746.309 44.0506 0.
925.374 462.661 0.
1246.55 1212.35 0.
1012.16 464.967 0.
992.922 427.432 0.
703.129 419.669 0.
621.973 229.54 0.
682.912 371.292 0.
906.327 296.829 0.
1271.72 1146.99 0.
818.264 86.4135 0.
428.887 -207.261 0.
626.29 252.963 0.
686.666 393.212 0.
669.359 134.479 0.
1057.1 1041.5 0.
-257.956 -531.194 0.
507.768 -402.376 0.
931.938 587.185 0.
686.735 -118.391 0.
703.345 -81.4463 0.
862.296 287.4 0.
639.585 -28.3646 0.
462.112 -438.834 0.
635.739 -29.9726 0.
500.605 -34.9985 0.
387.684 -297.417 0.
1022.46 1184.33 0.
793.678 702.521 0.
939.656 1047.77 0.
429.178 253.366 0.
391.947 168.661 0.
421.297 239.207 0.
-328.452 -851.855 0.
198.838 377.97 0.
207.334 396.709 0.
141.544 -609.673 0.
463.576 140.845 0.
257.05 -341.76 0.
-164.569 -758.933 0.
-253.322 -962.879 0.
703.432 12.8888 0.
363.908 -298.413 0.
271.772 -512.622 0.
-107.236 -807.591 0.
-91.3511 -769.03 0.
-75.466 -730.47 0.
-70.7299 -722.296 0.
-85.1846 -755.88 0.
-99.6395 -789.465 0.
151.479 -814.986 0.
52.3198 -1045.57 0.
-46.8398 -1276.15 0.
-48.7423 -1209.06 0.
3.968 -1085.17 0.
167.32 -936.055 0.
83.2598 -1133.52 0.
-0.799828 -1330.99 0.
-191.011 -1505.63 0.
-157.522 -1428.3 0.
-124.032 -1350.98 0.
93.6921 -1157.84 0.
162.128 -998.898 0.
230.563 -839.952 0.
48.7703 -968.741 0.
-3.32401 -1092.79 0.
305.12 -1062.52 0.
424.956 -1034.92 0.
415.49 -1059.84 0.
99.7783 -1186.87 0.
163.6 -1041 0.
227.423 -895.14 0.
-349.511 -1150.94 0.
-444.052 -1371.06 0.
-538.593 -1591.18 0.
-0.748479 -1458.55 0.
-31.5736 -1529.41 0.
-62.3988 -1600.27 0.
142.328 -1387.89 0.
221.217 -1202.59 0.
173.923 -1095.29 0.
130.057 -1199.66 0.
86.1903 -1304.03 0.
143.1 -1328.97 0.
158.375 -1294.92 0.
173.649 -1260.86 0.
143.099 -1186.34 0.
217.858 -1014.97 0.
292.617 -843.595 0.
743.066 -734.344 0.
668.247 -910.546 0.
600.328 -1083.95 0.
676.895 -1029.11 0.
688.692 -1002.31 0.
-188.839 -1329.99 0.
-114.913 -1157.41 0.
-40.9879 -984.829 0.
-9.36555 -961.647 0.
-84.5364 -1137.73 0.
-159.708 -1313.81 0.
125.226 -1189.12 0.
163.221 -1101.87 0.
201.216 -1014.62 0.
156.956 -1089 0.
115.802 -1181.23 0.
-12.8728 -1308.9 0.
-45.5933 -1386.65 0.
-78.3139 -1464.4 0.
152.964 -1360.17 0.
223.336 -1196.01 0.
293.708 -1031.86 0.
175.389 -1130.39 0.
76.5899 -1359.97 0.
-22.209 -1589.56 0.
58.3949 -1668.81 0.
10.0471 -1779.54 0.
-67.1714 -1898.23 0.
-58.5095 -1683.62 0.
53.246 -1424.77 0.
208.355 -1170.5 0.
272.89 -1020.81 0.
337.425 -871.119 0.
139.637 -948.508 0.
64.6736 -1118.89 0.
-10.29 -1289.28 0.
140.852 -1166.36 0.
219.875 -981.875 0.
298.898 -797.392 0.
51.5251 -905.733 0.
41.6386 -926.532 0.
-172.054 -1012.94 0.
-114.136 -876.741 0.
-56.219 -740.541 0.
-196.725 -724.488 0.
-177.029 -681.355 0.
-157.333 -638.222 0.
52.22 -529.546 0.
57.5018 -519.3 0.
62.7836 -509.055 0.
126.317 -451.924 0.
141.55 -413.916 0.
591.75 -6.35418 0.
110.478 -376.927 0.
18.4278 -591.286 0.
141.057 -669.986 0.
156.606 -631.105 0.
172.156 -592.224 0.
77.411 -627.017 0.
62.9187 -660.499 0.
48.4262 -693.982 0.
123.1 -796.294 0.
24.1032 -1026.69 0.
-74.894 -1257.09 0.
-250.046 -1263.99 0.
-197.964 -1139.97 0.
396.285 -807.357 0.
311.966 -1004.72 0.
227.647 -1202.09 0.
-141.259 -1452.74 0.
-107.741 -1375.54 0.
-74.2222 -1298.34 0.
222.147 -1069.41 0.
291.264 -910.697 0.
360.382 -751.984 0.
153.871 -892.549 0.
101.223 -1016.01 0.
443.012 -970.79 0.
281.088 -1065.86 0.
271.727 -1091.06 0.
-83.0345 -1232.69 0.
-18.9981 -1087.28 0.
45.039 -941.871 0.
-312.916 -1101.78 0.
-407.196 -1322.53 0.
-501.476 -1543.29 0.
11.5373 -1421.82 0.
-19.1554 -1492.66 0.
-49.8481 -1563.5 0.
41.7583 -1399.71 0.
120.452 -1214.31 0.
243.093 -1033.96 0.
198.873 -1137.9 0.
154.654 -1241.85 0.
108.374 -1313.16 0.
123.357 -1278.9 0.
138.341 -1244.64 0.
234.706 -1116.13 0.
309.955 -945.196 0.
385.205 -774.257 0.
757.217 -695.684 0.
682.63 -872.299 0.
-2135.14 -2223.95 0.
603.308 -1028.35 0.
614.697 -1001.73 0.
-241.858 -1321.11 0.
-167.882 -1148.66 0.
-93.9067 -976.207 0.
150.208 -861.205 0.
75.5149 -1037.4 0.
0.820946 -1213.59 0.
27.6069 -1200.83 0.
65.6295 -1113.41 0.
103.652 -1025.99 0.
-57.1016 -1148.66 0.
-97.6746 -1241.17 0.
37.1805 -1254.51 0.
4.175 -1332.13 0.
-28.8306 -1409.75 0.
114.17 -1346.58 0.
184.486 -1182.25 0.
254.802 -1017.93 0.
364.277 -1017.66 0.
265.897 -1247.45 0.
167.516 -1477.25 0.
272.87 -1544.77 0.
224.751 -1655.65 0.
366.434 -1681.89 0.
-64.0011 -1655.24 0.
47.4463 -1396.41 0.
194.001 -1145.78 0.
257.925 -995.56 0.
321.85 -845.339 0.
25.0351 -967.205 0.
-50.0268 -1137.45 0.
-125.089 -1307.7 0.
310.71 -1062.42 0.
389.983 -878.345 0.
469.255 -694.273 0.
4.38552 -894.022 0.
-4.81156 -915.216 0.
-226.373 -1003.97 0.
-168.285 -867.993 0.
-110.196 -732.018 0.
-85.3179 -645.139 0.
-65.1505 -602.494 0.
-44.983 -559.85 0.
-82.6617 -555.792 0.
-76.9497 -545.76 0.
-71.2375 -535.728 0.
338.129 -329.524 0.
353.796 -291.264 0.
254.617 -546.712 0.
-35.8374 -638.829 0.
12.4186 -526.994 0.
252.325 -367.763 0.
213.002 -463.545 0.
173.68 -559.328 0.
95.0914 -700.273 0.
20.4219 -875.589 0.
-54.2477 -1050.9 0.
14.5295 -922.877 0.
135.94 -639.041 0.
257.35 -355.205 0.
11.5172 -510.475 0.
-39.38 -630.232 0.
590.113 -467.036 0.
496.674 -683.84 0.
403.235 -900.643 0.
125.732 -1081.35 0.
222.979 -852.662 0.
320.226 -623.977 0.
436.396 -557.429 0.
369.404 -712.511 0.
302.412 -867.593 0.
150.296 -951.461 0.
159.35 -930.703 0.
468.869 -781.028 0.
266.085 -830.681 0.
285.508 -785.449 0.
28.9341 -883.469 0.
2.16385 -942.452 0.
-24.6061 -1001.44 0.
-222.96 -1074.37 0.
-175.733 -963.584 0.
-128.507 -852.802 0.
275.248 -721.902 0.
217.587 -856.935 0.
159.925 -991.969 0.
156.301 -984.563 0.
167.607 -958.283 0.
301.279 -895.274 0.
255.797 -1002.02 0.
210.314 -1108.78 0.
92.4189 -1142.59 0.
207.883 -872.874 0.
323.347 -603.159 0.
525.987 -583.865 0.
369.971 -945.597 0.
213.955 -1307.33 0.
601.489 -1073.54 0.
694.692 -854.848 0.
-4295.99 -2815.85 0.
797.852 -405.692 0.
918.429 -126.363 0.
198.239 -307.112 0.
78.7416 -587.837 0.
-40.7555 -868.563 0.
88.0096 -955.309 0.
64.3584 -1006.36 0.
40.7076 -1057.41 0.
6.47252 -1121.38 0.
-26.5203 -1194.03 0.
-59.5129 -1266.67 0.
-85.9081 -1200.72 0.
-35.9394 -1084.49 0.
141.7 -927.182 0.
125.431 -962.59 0.
109.162 -997.998 0.
276.651 -942.072 0.
279.141 -934.688 0.
281.632 -927.303 0.
473.564 -908.582 0.
411.68 -1053.46 0.
349.796 -1198.35 0.
644.831 -861.978 0.
801.317 -501.515 0.
1097.75 -94.9395 0.
426.439 -537.689 0.
345.235 -727.471 0.
270.893 -901.309 0.
205.322 -1050.77 0.
139.751 -1200.22 0.
-165.025 -1284.94 0.
-38.2259 -990.747 0.
88.5735 -696.553 0.
524.212 -509.584 0.
464.853 -649.115 0.
405.494 -788.647 0.
-13.1156 -982.535 0.
-9.17239 -975.982 0.
-253.915 -1071.05 0.
-267.602 -1104.9 0.
-281.288 -1138.75 0.
-212.452 -1103.33 0.
-171.562 -1008.22 0.
-130.673 -913.104 0.
-204.831 -862.324 0.
-161.447 -757.405 0.
-118.063 -652.487 0.
231.633 -456.598 0.
249.262 -414.329 0.
139.341 -566.042 0.
149.54 -528.817 0.
197.261 -416.694 0.
12.5297 -439.565 0.
-27.4043 -534.838 0.
-67.338 -630.113 0.
104.021 -664.626 0.
29.428 -840.25 0.
-45.1648 -1015.87 0.
-53.7845 -921.211 0.
67.4507 -637.255 0.
188.686 -353.298 0.
90.223 -445.803 0.
39.1915 -565.225 0.
510.613 -470.248 0.
416.896 -686.779 0.
323.179 -903.311 0.
367.46 -946.743 0.
464.926 -718.28 0.
562.392 -489.818 0.
324.9 -574.664 0.
257.734 -729.518 0.
190.568 -884.373 0.
133.033 -927.653 0.
141.91 -906.912 0.
-102.117 -994.479 0.
168.824 -841.024 0.
188.604 -796.31 0.
138.788 -804.902 0.
111.733 -863.864 0.
84.6783 -922.826 0.
-41.7621 -962.956 0.
5.38681 -852.339 0.
52.5352 -741.723 0.
212.109 -717.906 0.
154.141 -853.038 0.
96.1732 -988.171 0.
135.831 -962.548 0.
147.607 -936.179 0.
263.82 -880.285 0.
218.161 -986.725 0.
172.501 -1093.16 0.
-54.2423 -1174.36 0.
61.09 -904.836 0.
176.423 -635.314 0.
620.978 -510.821 0.
465.291 -873.211 0.
309.603 -1235.6 0.
628.785 -1028.76 0.
722.569 -810.813 0.
1062.57 -487.786 0.
725.659 -404.594 0.
846.191 -125.354 0.
301.568 -231.495 0.
181.809 -511.843 0.
62.0493 -792.191 0.
-100.747 -1006.08 0.
-124.622 -1056.84 0.
-148.496 -1107.6 0.
-13.9442 -1100.3 0.
-47.1349 -1172.69 0.
-80.3254 -1245.09 0.
145.655 -1069 0.
195.333 -952.553 0.
33.1065 -942.901 0.
17.3269 -978.583 0.
1.54748 -1014.26 0.
322.898 -889.689 0.
325.733 -882.616 0.
328.568 -875.543 0.
475.527 -876.786 0.
413.949 -1021.99 0.
352.37 -1167.19 0.
661.906 -822.511 0.
818.214 -461.832 0.
818.777 -182.09 0.
492.551 -477.869 0.
411.445 -668.306 0.
241.22 -883.015 0.
176.102 -1032.89 0.
110.985 -1182.77 0.
-150.162 -1246.95 0.
-23.5856 -952.947 0.
102.991 -658.943 0.
336.015 -559.397 0.
276.448 -699.16 0.
216.881 -838.922 0.
106.666 -899.924 0.
110.484 -893.122 0.
-163.96 -1002.02 0.
-177.407 -1035.87 0.
-190.853 -1069.73 0.
-125.989 -1034.9 0.
-84.7259 -940.117 0.
-43.463 -845.337 0.
-29.4246 -756.29 0.
14.0776 -651.522 0.
57.5801 -546.755 0.
-62.8783 -551.191 0.
-45.6635 -509.291 0.
784.607 1202.15 0.
564.672 133.804 0.
392.84 -270.522 0.
-60.4545 -130.432 0.
-142.366 -322.829 0.
513.53 1207.22 0.
663.62 656.778 0.
334.578 -112.295 0.
630.452 576.348 0.
143.429 -300.521 0.
272.707 -1.24472 0.
389.132 268.5 0.
113.849 -509.823 0.
356.959 58.6697 0.
950.955 746.855 0.
493.802 -321.626 0.
917.845 666.227 0.
1365.55 960.456 0.
1381.26 996.363 0.
975.758 49.5872 0.
548.591 185.275 0.
640.315 399.237 0.
837.993 860.66 0.
509.756 6.1639 0.
736.243 533.321 0.
407.956 281.23 0.
518.635 179.375 0.
723.441 653.613 0.
794.687 557.341 0.
668.864 264.356 0.
305.051 -583.77 0.
766.482 622.21 0.
879.632 883.607 0.
872.368 864.053 0.
824.892 870.593 0.
671.495 512.649 0.
660.738 487.255 0.
824.064 715.5 0.
643.713 295.08 0.
732.242 301.448 0.
939.715 785.247 0.
519.309 -196.205 0.
535.751 514.578 0.
524.138 485.241 0.
1006.16 1607.65 0.
1615.07 1675.22 0.
859.726 -90.2392 0.
969.003 161.515 0.
1141.26 150.675 0.
1604.48 1234.02 0.
-4635.58 -1337.24 0.
984.256 364.264 0.
1048.64 515.091 0.
454.62 -38.4875 0.
803.098 772.558 0.
508.636 83.721 0.
4.31468 -372.554 0.
371.24 481.167 0.
197.511 73.8253 0.
529.543 251.231 0.
547.951 290.647 0.
177.218 -578.214 0.
648.158 -298.095 0.
759.255 -42.0798 0.
453.842 279.507 0.
706.79 868.717 0.
522.001 436.719 0.
788.704 138.994 0.
740.953 27.8118 0.
950.087 516.042 0.
1157.14 738.991 0.
762.285 -181.286 0.
824.852 -33.872 0.
934.937 -195.498 0.
849.459 -393.199 0.
821.64 561.701 0.
735.486 -7.10885 0.
1239.43 1172.67 0.
735.974 361.165 0.
471.872 -255.204 0.
239.807 -797.5 0.
552.475 377.527 0.
653.301 612.802 0.
444.148 125.229 0.
458.087 118.59 0.
440.98 79.703 0.
494.973 206.323 0.
376.709 -467.839 0.
280.635 -688.927 0.
698.428 865.096 0.
426.586 235.474 0.
83.8488 -560.231 0.
513.246 305.402 0.
857.981 1111.94 0.
607.277 529.092 0.
269.269 -357.611 0.
335.452 -205.126 0.
813.26 908.72 0.
114.176 437.322 0.
284.118 833.369 0.
20.9397 -595.481 0.
130.77 -553.847 0.
98.2103 -631.179 0.
-356.631 -875.696 0.
-351.837 -865.009 0.
-347.043 -854.323 0.
260.648 -568.884 0.
282.075 -519.907 0.
303.503 -470.929 0.
-23.7269 -704.021 0.
-110.046 -905.877 0.
-196.365 -1107.73 0.
-151.746 -1173.47 0.
-187.734 -1257.16 0.
112.593 -1172.43 0.
178.197 -1021.92 0.
243.802 -871.411 0.
445.488 -721.562 0.
413.643 -797.918 0.
381.799 -874.273 0.
71.5799 -1043.14 0.
63.5224 -1064.02 0.
55.4649 -1084.9 0.
44.3301 -1029.71 0.
88.8011 -927.713 0.
255.817 -773.26 0.
71.0658 -882.473 0.
57.9477 -914.701 0.
82.3407 -915.075 0.
101.156 -872.422 0.
119.972 -829.77 0.
113.955 -861.123 0.
54.0959 -1003.35 0.
-5.76295 -1145.58 0.
-126.576 -1231.27 0.
-121.273 -1220.69 0.
-115.97 -1210.12 0.
84.1077 -1047.34 0.
131.534 -937.078 0.
389.529 -756.506 0.
351.583 -846.362 0.
313.638 -936.218 0.
-160.182 -1194.04 0.
-166.663 -1210.65 0.
-173.143 -1227.26 0.
131.461 -1113.96 0.
122.802 -1138.85 0.
114.142 -1163.74 0.
850.765 -840.059 0.
858.964 -820.426 0.
-357.253 -1326.61 0.
261.84 -1109.11 0.
236.541 -1168.18 0.
-60.6328 -1302.06 0.
7.28917 -1143.07 0.
75.2112 -984.077 0.
-99.0255 -931.886 0.
-28.0219 -765.349 0.
42.9818 -598.811 0.
89.8853 -766.136 0.
-93.5394 -1196.37 0.
-276.964 -1626.61 0.
52.8364 -1340.62 0.
160.847 -1090.98 0.
-4.01451 -987.574 0.
-25.4399 -1039.31 0.
-46.8657 -1091.04 0.
314.965 -941.839 0.
345.869 -868.933 0.
376.773 -796.027 0.
351.783 -810.89 0.
326.945 -868.31 0.
302.107 -925.73 0.
704.252 -919.697 0.
600.038 -1160 0.
273.263 -1480.83 0.
49.53 -1271.36 0.
207.035 -898.938 0.
251.901 -657.997 0.
234.216 -700.194 0.
216.532 -742.391 0.
116.087 -781.464 0.
142.09 -719.123 0.
168.094 -656.782 0.
78.7233 -788.357 0.
-5.00357 -982.729 0.
-88.7304 -1177.1 0.
224.504 -971.736 0.
267.916 -867.029 0.
-102.576 -962.021 0.
-125.881 -1012.35 0.
-149.185 -1062.67 0.
-99.8303 -1044.49 0.
-71.6309 -976.648 0.
-43.4313 -908.801 0.
62.8635 -876.156 0.
33.979 -944.41 0.
5.0946 -1012.66 0.
-522.599 -1141.78 0.
-448.707 -971.297 0.
45.3046 -554.615 0.
-23.3529 -588.989 0.
-56.4662 -666.136 0.
-311.524 -824.788 0.
-306.984 -813.808 0.
-302.444 -802.828 0.
426.5 -466.533 0.
447.887 -417.65 0.
469.275 -368.768 0.
-1.14957 -663.577 0.
-87.7056 -865.376 0.
-174.262 -1067.17 0.
-112.586 -1125.86 0.
-148.568 -1209.61 0.
111.213 -1140.4 0.
176.844 -989.864 0.
242.476 -839.328 0.
217.539 -787.343 0.
185.764 -863.368 0.
153.989 -939.393 0.
149.386 -979.48 0.
141.164 -1000.5 0.
132.941 -1021.51 0.
36.5342 -1001.25 0.
80.7855 -899.639 0.
-353.984 -1003.59 0.
96.5876 -839.34 0.
83.2097 -871.946 0.
2.31472 -919.293 0.
20.9574 -876.663 0.
39.6 -834.033 0.
112.119 -828.955 0.
52.6979 -971.422 0.
-6.72345 -1113.89 0.
-170.814 -1216.94 0.
-165.637 -1206.19 0.
-160.46 -1195.44 0.
120.062 -1001.84 0.
167.544 -891.561 0.
541.702 -659.631 0.
504.141 -749.766 0.
466.58 -839.901 0.
-101.486 -1136.41 0.
-108.001 -1153.09 0.
-114.515 -1169.78 0.
-205.408 -1227.66 0.
-214.248 -1252.5 0.
-223.089 -1277.34 0.
1033.54 -729.682 0.
1041.87 -710.242 0.
430.122 -957.406 0.
167.674 -1117.79 0.
142.592 -1176.81 0.
-11.6532 -1249.92 0.
56.0185 -1091.13 0.
123.69 -932.354 0.
85.0112 -820.674 0.
155.809 -654.109 0.
226.607 -487.545 0.
101.376 -730.238 0.
-82.1301 -1160.18 0.
-265.636 -1590.12 0.
-115.527 -1381.64 0.
-7.54181 -1132.19 0.
119.778 -902.05 0.
99.1977 -954.541 0.
78.6169 -1007.03 0.
313.604 -910.247 0.
344.922 -837.727 0.
376.241 -765.207 0.
195.824 -846.398 0.
171.658 -904.302 0.
147.492 -962.206 0.
817.579 -839.671 0.
713.605 -1080.21 0.
881.875 -1187.74 0.
-111.092 -1308.77 0.
46.8519 -936.937 0.
210.878 -644.478 0.
193.129 -686.45 0.
175.379 -728.422 0.
204.539 -712.347 0.
230.721 -650.065 0.
256.903 -587.782 0.
106.215 -745.637 0.
22.7587 -940.176 0.
-60.6973 -1134.71 0.
318.708 -899.883 0.
362.446 -795.504 0.
-108.487 -933.323 0.
-131.521 -983.731 0.
-154.555 -1034.14 0.
-124.332 -1022.65 0.
-96.0764 -954.863 0.
-67.8209 -887.075 0.
97.5103 -830.487 0.
68.5625 -898.936 0.
39.6147 -967.384 0.
-457.019 -1082.6 0.
-382.864 -912.889 0.
55.7431 -451.512 0.
-129.288 -714.146 0.
-201.545 -879.491 0.
-324.86 -1020.86 0.
-280.078 -913.902 0.
-235.295 -806.94 0.
353.614 -532.715 0.
319.607 -609.775 0.
285.599 -686.836 0.
-127.709 -861.827 0.
-105.877 -811.054 0.
-84.0458 -760.28 0.
97.2011 -769.848 0.
39.9406 -903.175 0.
220.439 -914.169 0.
266.949 -801.3 0.
313.459 -688.431 0.
169.355 -727.665 0.
101.613 -882.923 0.
33.8723 -1038.18 0.
133.216 -972.812 0.
212.598 -786.745 0.
291.98 -600.678 0.
95.9059 -719.138 0.
48.2776 -830.82 0.
6.39773 -939.78 0.
131.767 -802.074 0.
171.64 -707.626 0.
67.1659 -706.264 0.
46.2244 -755.782 0.
25.2829 -805.3 0.
179.304 -783.196 0.
156.743 -833.379 0.
134.182 -883.562 0.
-143.46 -1044.83 0.
-164.744 -1095.07 0.
-186.027 -1145.31 0.
178.979 -949.129 0.
203.506 -892.048 0.
485.619 -735.591 0.
460.058 -796.037 0.
434.497 -856.483 0.
53.9438 -1011.31 0.
120.682 -855.461 0.
187.421 -699.609 0.
-124.142 -816.358 0.
-159.208 -897.33 0.
-194.274 -978.302 0.
1077.8 -390.751 0.
1119.9 -292.533 0.
-2096.64 -1590.37 0.
378.582 -473.587 0.
407.097 -405.394 0.
377.586 -394.625 0.
329.816 -507.233 0.
282.046 -619.842 0.
152.595 -758.904 0.
115.83 -845.432 0.
79.064 -931.96 0.
54.0702 -866.127 0.
129.397 -689.461 0.
204.723 -512.795 0.
237.314 -522.288 0.
213.91 -573.357 0.
223.671 -618.101 0.
176.999 -724.484 0.
130.327 -830.866 0.
306.889 -877.697 0.
207.971 -1107.13 0.
109.053 -1336.55 0.
-65.9084 -1409.97 0.
3.81738 -1244.52 0.
73.5423 -1079.07 0.
810.062 -687.818 0.
836.728 -623.823 0.
1206.13 -426.204 0.
-57.7232 -989.282 0.
-68.5113 -1014.86 0.
112.55 -913.016 0.
176.594 -761.812 0.
240.639 -610.608 0.
257.55 -619.324 0.
173.934 -812.445 0.
90.3183 -1005.57 0.
60.7108 -973.339 0.
129.473 -812.743 0.
198.235 -652.147 0.
466.955 -508.559 0.
481.631 -474.787 0.
-8.67501 -657.522 0.
-9.30391 -661.423 0.
-9.9325 -665.325 0.
55.8155 -634.268 0.
69.9839 -603.988 0.
84.1524 -573.707 0.
218.818 -448.216 0.
269.106 -331.46 0.
319.393 -214.705 0.
-226.061 -557.107 0.
-306.328 -747.707 0.
-45.1805 -466.719 0.
-80.1405 -662.75 0.
-152.325 -828.086 0.
-162.816 -919.52 0.
-117.796 -812.644 0.
-72.7774 -705.768 0.
117.343 -600.973 0.
83.927 -678.543 0.
50.5108 -756.114 0.
-221.954 -871.828 0.
-200.063 -821.068 0.
-178.173 -770.307 0.
234.397 -678.502 0.
177.127 -812.067 0.
278.798 -857.413 0.
324.903 -744.496 0.
371.007 -631.58 0.
245.254 -663.769 0.
177.997 -819.401 0.
110.739 -975.033 0.
43.4079 -979.269 0.
122.685 -793.132 0.
201.961 -606.995 0.
-4.88682 -730.039 0.
-52.3574 -842.075 0.
-75.6485 -943.721 0.
196.771 -742.537 0.
236.83 -648.131 0.
113.273 -655.431 0.
92.5738 -705.022 0.
71.8742 -754.613 0.
315.743 -693.096 0.
293.389 -743.408 0.
271.035 -793.72 0.
-184.506 -1030.18 0.
-205.471 -1080.52 0.
-226.436 -1130.86 0.
257.969 -884.969 0.
282.518 -827.479 0.
320.622 -775.747 0.
294.884 -835.729 0.
269.146 -895.709 0.
277.044 -884.935 0.
343.634 -728.771 0.
410.224 -572.607 0.
6.00408 -728.186 0.
-28.3144 -809.81 0.
-62.633 -891.434 0.
677.534 -530.255 0.
719.838 -432.276 0.
-1386.14 -1254.15 0.
354.262 -451.835 0.
382.358 -383.464 0.
414.993 -347.102 0.
367.368 -459.679 0.
319.743 -572.257 0.
112.826 -745.32 0.
76.0961 -831.836 0.
39.3658 -918.353 0.
100.762 -815.098 0.
176.513 -638.937 0.
252.263 -462.775 0.
398.098 -421.224 0.
374.479 -472.384 0.
74.7204 -649.247 0.
28.4825 -755.982 0.
-17.7552 -862.717 0.
285.302 -855.162 0.
186.588 -1084.88 0.
87.8739 -1314.6 0.
66.432 -1321.76 0.
136.299 -1156.17 0.
206.165 -990.585 0.
558.859 -765.315 0.
585.121 -701.074 0.
646.667 -632.906 0.
-65.1478 -959.49 0.
-76.1941 -985.212 0.
222.334 -835.918 0.
286.519 -684.98 0.
350.704 -534.043 0.
242.314 -594.11 0.
159.045 -787.738 0.
75.7764 -981.365 0.
184.419 -887.801 0.
253.994 -728.028 0.
323.569 -568.255 0.
360.474 -523.085 0.
375.485 -489.898 0.
-10.3141 -626.467 0.
-10.4714 -630.435 0.
-10.6284 -634.404 0.
157.775 -558.849 0.
171.933 -528.549 0.
186.091 -498.249 0.
114.884 -461.584 0.
165.022 -344.816 0.
215.16 -228.048 0.
-230.387 -529.245 0.
-310.913 -720.782 0.
3.82261 -100.938 0.
432.733 477.43 0.
268.558 94.0932 0.
860.289 1196 0.
299.961 -112.188 0.
369.905 50.8243 0.
146.396 -56.9204 0.
584.117 967.145 0.
371.089 472.386 0.
116.158 108.855 0.
367.794 697.88 0.
275.225 484.508 0.
785.663 381.644 0.
674.211 121.903 0.
592.533 -191.57 0.
473.976 -470.639 0.
684.423 18.4299 0.
616.869 84.8189 0.
837.091 600.444 0.
667.043 205.354 0.
180.781 -449.934 0.
478.31 246.256 0.
676.892 711.498 0.
326.053 251.317 0.
837.911 1444.22 0.
845.101 671.874 0.
707.365 350.773 0.
847.99 681.967 0.
179.148 -574.261 0.
836.128 963.204 0.
739.042 741.336 0.
596.544 -254.994 0.
986.992 656.888 0.
1071.83 855.943 0.
166.089 -108.749 0.
355.798 335.591 0.
823.164 1427.65 0.
1131.11 1037.21 0.
809.734 286.345 0.
582.21 176.823 0.
696.61 447.518 0.
574.195 165.532 0.
817.365 -18.6889 0.
918.866 218.719 0.
771.53 -124.539 0.
357.376 -129.547 0.
402.914 -21.1439 0.
797.729 901.953 0.
951.902 899.039 0.
1006.18 1025.19 0.
-2330.43 -759.607 0.
1068.26 1288.9 0.
669.207 357.282 0.
501.203 -182.508 0.
670.575 211.868 0.
630.78 118.089 0.
485.074 223.212 0.
746.4 833.256 0.
324.344 -150.991 0.
448.7 -68.7814 0.
267.858 -492.969 0.
733.525 591.277 0.
814.217 282.818 0.
1021.48 762.254 0.
656.399 1013.9 0.
304.002 197.83 0.
335.666 277.713 0.
636.943 35.372 0.
1220.78 1402.3 0.
1025.1 950.514 0.
701.769 -66.4984 0.
862.396 314.175 0.
1087.71 845.954 0.
377.167 -695.481 0.
353.569 -752.623 0.
470.32 1126.99 0.
632.515 710.375 0.
411.719 194.426 0.
647.431 -16.1061 0.
107.129 -1280.31 0.
724.923 157.441 0.
194.821 -648.988 0.
634.311 375.703 0.
761.363 671.5 0.
536.565 -268.496 0.
510.824 -328.994 0.
695.173 101.656 0.
833.187 807.735 0.
664.031 412.733 0.
616.292 858.087 0.
277.564 70.8977 0.
120.891 -291.914 0.
412.671 -135.457 0.
904.688 1013.93 0.
571.946 238.72 0.
98.5708 -265.397 0.
1.10443 -490.985 0.
525.33 732.906 0.
54.0657 145.789 0.
-218.867 -489.768 0.
-366.437 -1117.95 0.
-138.766 -884.86 0.
-83.9866 -758.469 0.
-39.0383 -657.666 0.
-47.3166 -678.194 0.
-55.5955 -698.721 0.
-78.8359 -692.053 0.
-46.4967 -614.407 0.
-14.1578 -536.762 0.
66.8149 -611.824 0.
-42.5786 -867.481 0.
-151.971 -1123.14 0.
135.111 -834.939 0.
254.947 -555.594 0.
477.536 -280.759 0.
332.452 -624.207 0.
187.367 -967.656 0.
137.936 -1129.79 0.
218.879 -940 0.
299.823 -750.21 0.
-32.2028 -892.993 0.
-102.695 -1057.27 0.
-173.188 -1221.55 0.
-122.684 -1125.01 0.
-52.0258 -957.735 0.
203.089 -711.583 0.
29.2618 -891.852 0.
-23.8033 -1015.04 0.
62.6251 -1031.64 0.
109.867 -921.388 0.
157.109 -811.134 0.
211.194 -769.392 0.
170.495 -864.14 0.
129.797 -958.888 0.
-14.8446 -993.635 0.
27.9948 -893.037 0.
70.8342 -792.44 0.
410.188 -612.336 0.
425.412 -578.475 0.
176.757 -656.417 0.
209.221 -582.215 0.
241.685 -508.013 0.
502.615 -398.888 0.
434.169 -559.042 0.
365.724 -719.197 0.
20.7822 -816.657 0.
123.683 -577.626 0.
226.585 -338.595 0.
509.013 -296.977 0.
426.726 -489.186 0.
-541.988 -1061.88 0.
-34.1082 -937.277 0.
-82.9657 -1051.56 0.
201.642 -983.633 0.
243.138 -888.589 0.
284.634 -793.545 0.
68.836 -819.145 0.
97.0135 -754.853 0.
125.191 -690.561 0.
95.6045 -782.732 0.
21.0047 -955.064 0.
-53.5953 -1127.4 0.
249.155 -860.393 0.
338.42 -656.18 0.
6.80438 -662.354 0.
-40.338 -768.293 0.
-87.4805 -874.231 0.
236.69 -818.86 0.
185.139 -936.227 0.
133.587 -1053.59 0.
276.883 -980.321 0.
326.034 -865.24 0.
375.184 -750.16 0.
419.441 -594.112 0.
500.434 -406.38 0.
755.92 -142.834 0.
77.3068 -626.006 0.
-23.4081 -861.955 0.
263.46 -915.412 0.
208.696 -1048.85 0.
153.931 -1182.28 0.
-43.2232 -1248.02 0.
44.5675 -1044.65 0.
132.359 -841.281 0.
221.867 -771.584 0.
209.629 -799.42 0.
197.391 -827.256 0.
59.8589 -867.229 0.
71.6686 -840.289 0.
-27.473 -853.155 0.
19.0567 -741.74 0.
65.5868 -630.326 0.
84.6446 -542.57 0.
116.276 -467.054 0.
147.908 -391.537 0.
59.3739 -387.087 0.
74.9015 -349.517 0.
90.4291 -311.947 0.
211.074 -326.961 0.
160.074 -445.544 0.
-271.177 -1049.08 0.
-107.137 -841.072 0.
-51.9644 -714.659 0.
-149.621 -672.897 0.
-157.523 -693.595 0.
-165.426 -714.293 0.
-5.86086 -629.552 0.
26.7252 -551.903 0.
59.311 -474.253 0.
403.661 -436.066 0.
294.593 -692.227 0.
185.526 -948.388 0.
-7.90231 -864.101 0.
111.704 -584.791 0.
406.604 -280.19 0.
260.678 -622.807 0.
114.752 -965.425 0.
205.926 -1069.97 0.
286.82 -880.073 0.
367.713 -690.18 0.
-44.2779 -868.337 0.
-114.777 -1032.64 0.
-185.276 -1196.95 0.
67.4594 -1012.15 0.
137.773 -844.549 0.
1435.4 -151.049 0.
-134.264 -932.649 0.
-186.999 -1056.31 0.
179.533 -948.619 0.
227.341 -838.981 0.
275.149 -729.341 0.
23.9309 -817.762 0.
-16.4189 -912.698 0.
-56.7689 -1007.63 0.
245.602 -848.928 0.
288.636 -748.511 0.
331.669 -648.094 0.
406.86 -582.96 0.
421.78 -548.637 0.
138.128 -642.022 0.
170.34 -567.321 0.
202.551 -492.62 0.
332.027 -440.901 0.
263.883 -601.29 0.
195.739 -761.679 0.
-12.1661 -800.526 0.
90.5701 -561.441 0.
193.307 -322.356 0.
614.361 -221.453 0.
531.879 -413.529 0.
-972.906 -1214.38 0.
-201.054 -976.735 0.
-249.721 -1091.06 0.
271.456 -922.464 0.
313.286 -827.88 0.
355.116 -733.295 0.
123.772 -764.254 0.
151.728 -699.657 0.
179.685 -635.061 0.
53.5743 -770.219 0.
-21.0218 -942.645 0.
-95.618 -1115.07 0.
173.184 -861.178 0.
262.591 -656.713 0.
110.422 -586.233 0.
63.702 -692.3 0.
16.9819 -798.367 0.
212.505 -798.194 0.
161.417 -915.73 0.
110.33 -1033.27 0.
254.84 -956.543 0.
304.647 -842.06 0.
354.454 -727.576 0.
437.252 -556.713 0.
517.939 -368.965 0.
586.639 -183.877 0.
114.3 -578.571 0.
13.3989 -814.581 0.
280.707 -877.363 0.
225.908 -1010.8 0.
171.107 -1144.24 0.
-6.50819 -1201.6 0.
81.7644 -998.667 0.
170.038 -795.733 0.
114.88 -785.887 0.
103.204 -814.392 0.
91.5276 -842.897 0.
8.29981 -858.339 0.
19.9739 -831.262 0.
95.3496 -768.41 0.
142.128 -656.92 0.
188.906 -545.431 0.
-86.5102 -585.079 0.
-55.0065 -509.272 0.
-23.5028 -433.466 0.
89.8841 -343.513 0.
105.25 -306.144 0.
120.615 -268.775 0.
669.647 -97.7803 0.
618.866 -217.029 0.
-395.52 -876.452 0.
-103.178 -751.772 0.
-60.4965 -649.545 0.
-141.104 -610.314 0.
-127.364 -576.326 0.
-113.626 -542.338 0.
145.204 -402.817 0.
157.007 -375.286 0.
168.811 -347.754 0.
490.703 -315.031 0.
398.832 -528.629 0.
306.961 -742.225 0.
17.4734 -774.656 0.
86.7294 -613.718 0.
333.482 -389.061 0.
343.816 -363.865 0.
354.152 -338.668 0.
555.726 -285.686 0.
474.347 -474.996 0.
392.967 -664.305 0.
-92.7046 -917.562 0.
-67.8995 -860.747 0.
-43.0944 -803.932 0.
213.926 -697.598 0.
208.351 -710.68 0.
1581.42 -131.792 0.
-75.9604 -816.159 0.
-69.4675 -796.113 0.
294.827 -663.48 0.
208.345 -861.202 0.
121.863 -1058.92 0.
-235.399 -1223.47 0.
-141.831 -1002.8 0.
-48.2624 -782.121 0.
465.83 -481.92 0.
484.627 -438.171 0.
503.425 -394.422 0.
491.517 -478.458 0.
440.067 -597.577 0.
-13.0331 -859.903 0.
71.9811 -660.845 0.
156.995 -461.787 0.
331.483 -308.215 0.
278.454 -430.882 0.
225.424 -553.55 0.
-13.3743 -767.564 0.
-71.5408 -901.906 0.
-129.707 -1036.25 0.
316.884 -752.729 0.
394.724 -570.647 0.
-518.251 -815.315 0.
-12.7741 -708.008 0.
-70.176 -841.861 0.
249.262 -779.097 0.
269.303 -731.777 0.
289.345 -684.458 0.
146.669 -745.069 0.
128.371 -789.454 0.
110.072 -833.839 0.
51.3102 -765.109 0.
134.089 -572.095 0.
216.867 -379.081 0.
413.489 -351.033 0.
371.473 -448.137 0.
231.064 -572.262 0.
258.356 -508.238 0.
285.648 -444.215 0.
333.196 -413.72 0.
292.002 -509.506 0.
250.808 -605.292 0.
261.435 -630.836 0.
264.41 -620.204 0.
267.384 -609.571 0.
370.518 -675.626 0.
298.018 -850.13 0.
470.73 -911.51 0.
-26.0401 -987.61 0.
45.5154 -820.499 0.
360.985 -576.165 0.
365.864 -559.171 0.
370.744 -542.176 0.
257.486 -587.058 0.
253.364 -593.558 0.
249.241 -600.057 0.
145.345 -648.905 0.
145.446 -649.409 0.
145.546 -649.913 0.
98.2244 -580.228 0.
150.056 -458.167 0.
263.961 -316.582 0.
298.524 -237.783 0.
333.087 -158.983 0.
6.83809 -313.574 0.
-84.2425 -526.727 0.
-175.323 -739.881 0.
-117.621 -829.661 0.
-156.804 -923.512 0.
-195.987 -1017.36 0.
427.796 -821.279 0.
398.033 -890.188 0.
-958.179 -1085.68 0.
-197.725 -764.084 0.
-155.354 -661.21 0.
-58.1443 -541.757 0.
-44.2035 -507.733 0.
-30.2632 -473.709 0.
234.105 -334.955 0.
245.64 -307.302 0.
257.175 -279.65 0.
281.793 -372.411 0.
190.272 -586.153 0.
98.7508 -799.894 0.
163.924 -681.477 0.
233.447 -520.936 0.
364.313 -342.048 0.
374.75 -316.891 0.
385.186 -291.734 0.
555.337 -256.266 0.
473.74 -445.296 0.
392.144 -634.324 0.
-129.306 -902.131 0.
-104.228 -845.67 0.
-79.1496 -789.209 0.
93.7385 -715.619 0.
88.2741 -728.937 0.
338.577 -631.761 0.
136.271 -695.743 0.
142.912 -675.807 0.
190.922 -674.474 0.
104.795 -872.713 0.
18.6688 -1070.95 0.
-226.904 -1188.27 0.
-133.231 -967.763 0.
-39.5598 -747.252 0.
397.685 -478.9 0.
416.632 -435.592 0.
435.578 -392.283 0.
625.547 -390.051 0.
574.472 -509.355 0.
-88.3246 -859.467 0.
-2.99353 -660.909 0.
82.3374 -462.35 0.
387.714 -254.159 0.
335.048 -377.361 0.
282.383 -500.562 0.
5.63641 -726.211 0.
-52.0795 -861.448 0.
-109.796 -996.685 0.
64.6718 -829.075 0.
142.75 -647.434 0.
-1222.18 -1084.92 0.
377.853 -507.797 0.
319.779 -641.275 0.
5.32677 -852.392 0.
25.1452 -804.957 0.
44.9636 -757.522 0.
155.827 -710.107 0.
137.573 -754.648 0.
119.319 -799.188 0.
120.086 -703.502 0.
203.109 -510.615 0.
286.133 -317.727 0.
575.265 -249.916 0.
533.405 -346.889 0.
431.555 -456.151 0.
458.831 -392.024 0.
486.108 -327.897 0.
277.55 -407.841 0.
236.316 -503.436 0.
195.082 -599.031 0.
-17.2743 -717.737 0.
-14.3528 -707.212 0.
-11.4315 -696.688 0.
359.861 -648.632 0.
286.787 -822.569 0.
332.737 -938.506 0.
62.6153 -918.099 0.
134.542 -750.963 0.
244.566 -595.284 0.
250.453 -579.224 0.
256.341 -563.164 0.
241.361 -562.517 0.
237.335 -569.135 0.
233.308 -575.752 0.
204.906 -591.145 0.
205.274 -591.915 0.
205.641 -592.685 0.
112.565 -542.395 0.
164.449 -420.215 0.
124.677 -345.709 0.
158.765 -265.871 0.
192.853 -186.032 0.
151.656 -221.181 0.
60.141 -434.065 0.
-31.3738 -646.95 0.
-111.924 -795.778 0.
-151.31 -889.699 0.
-190.696 -983.62 0.
200.392 -887.234 0.
170.264 -956.489 0.
-1356.32 -936.33 0.
311.415 643.792 0.
161.575 292.625 0.
-1.36328 -544.953 0.
-181.03 -962.451 0.
201.981 -67.357 0.
257.301 -410.798 0.
362.061 -171.84 0.
193.076 -571.48 0.
314.104 136.098 0.
145.075 -260.669 0.
6.06909 -587.924 0.
570.492 19.3859 0.
552.19 -25.1423 0.
648.427 297.589 0.
651.025 304.645 0.
494.025 -60.8064 0.
711.755 147.982 0.
670.712 52.306 0.
716.3 158.522 0.
269.373 131.758 0.
408.426 455.663 0.
318.698 245.721 0.
330.56 93.3542 0.
349.107 134.688 0.
-29.0696 -20.0741 0.
274.625 -746.775 0.
544.885 -116.139 0.
433.386 123.86 0.
249.538 -302.565 0.
344.051 -79.1169 0.
201.861 -175.626 0.
240.687 -83.9003 0.
554.734 649.984 0.
608.216 173.623 0.
149.358 -897.501 0.
754.328 513.364 0.
985.951 226.77 0.
887.723 -0.219277 0.
444.999 554.511 0.
251.254 100.691 0.
201.789 -16.3107 0.
658.315 290.622 0.
910.876 879.646 0.
969.649 1016.79 0.
651.623 778.126 0.
460.443 330.622 0.
245.436 -172.194 0.
353.185 354.001 0.
478.564 645.25 0.
-630.068 -1026.08 0.
798.218 -234.998 0.
922.04 53.7321 0.
304.73 337.08 0.
153.51 -13.294 0.
385.751 531.297 0.
435.315 -47.6817 0.
660.791 480.942 0.
910.119 1065.27 0.
520.276 136.899 0.
491.249 71.7076 0.
673.185 498.541 0.
978.114 409.37 0.
812.35 24.088 0.
1150.31 874.71 0.
790.589 38.3932 0.
602.657 -397.28 0.
310.805 -198.983 0.
640.488 571.39 0.
481.009 200.135 0.
149.484 237.062 0.
51.9185 10.5123 0.
-28.4802 -176.707 0.
927.868 724.394 0.
618.354 6.38856 0.
426.365 -12.8983 0.
686.395 387.644 0.
228.814 -673.737 0.
625.366 538.129 0.
440.923 109.03 0.
504.885 259.633 0.
293.061 -373.219 0.
685.153 539.241 0.
446.321 -20.5526 0.
394.017 -229.425 0.
324.772 -389.91 0.
414.895 -178.343 0.
477.256 310.301 0.
205.249 -323.616 0.
287.792 334.171 0.
338.4 453.011 0.
189.606 105.816 0.
202.914 -341.959 0.
502.751 360.12 0.
803.479 1063.98 0.
692.334 1097.71 0.
-191.346 -967.044 0.
173.572 -115.903 0.
97.3321 -660.418 0.
374.47 -17.3236 0.
-471.041 -505.735 0.
61.3949 -302.121 0.
2.41316 -440.443 0.
109.104 -503.586 0.
73.1542 -585.877 0.
37.2054 -668.168 0.
175.86 -620.266 0.
209.114 -547.49 0.
242.369 -474.713 0.
-12.3761 -527.498 0.
25.1744 -440.987 0.
62.7252 -354.477 0.
334.785 -365.452 0.
243.81 -574.647 0.
340.354 -687.397 0.
394.074 -562.5 0.
447.794 -437.604 0.
248.881 -436.501 0.
262.969 -403.486 0.
277.058 -370.471 0.
68.1069 -459.158 0.
53.4083 -492.07 0.
38.7098 -524.981 0.
88.4363 -677.775 0.
-26.1673 -946.444 0.
224.193 -1058.07 0.
102.109 -931.046 0.
199.999 -701.7 0.
233.879 -548.948 0.
207.341 -610.452 0.
180.803 -671.957 0.
141.448 -747.719 0.
106.552 -830.055 0.
71.6565 -912.392 0.
-50.5745 -895.545 0.
16.6672 -735.165 0.
83.9078 -574.785 0.
455.789 -522.427 0.
383.51 -691.009 0.
-250.327 -1071.25 0.
-159.515 -860.624 0.
-68.7026 -650.003 0.
445.453 -358.646 0.
374.436 -525.351 0.
303.42 -692.057 0.
-47.2362 -833.199 0.
20.6422 -677.797 0.
88.5207 -522.395 0.
133.416 -590.93 0.
55.6803 -771.212 0.
1349.89 -363.388 0.
466.632 -602.963 0.
539.085 -433.264 0.
32.694 -568.822 0.
-29.2347 -712.263 0.
-91.1634 -855.705 0.
63.0114 -803.596 0.
121.404 -667.407 0.
179.797 -531.218 0.
131.9 -549.459 0.
105.736 -607.59 0.
79.5726 -665.72 0.
354.459 -641.038 0.
302.113 -764.66 0.
331.796 -837.078 0.
351.205 -791.544 0.
370.613 -746.011 0.
187.944 -772.732 0.
230.521 -671.152 0.
273.098 -569.572 0.
85.9797 -515.173 0.
176.389 -303.693 0.
266.798 -92.2117 0.
579.199 -24.4186 0.
509.69 -183.873 0.
684.729 -242.063 0.
18.6168 -819.324 0.
-136.826 -1178.17 0.
-116.375 -1347.15 0.
-12.7564 -1104.3 0.
90.8619 -861.46 0.
12.0212 -809.708 0.
-11.6897 -865.671 0.
-35.4007 -921.634 0.
27.3381 -836.56 0.
82.915 -707.309 0.
138.491 -578.058 0.
239.685 -419.203 0.
301.985 -274.969 0.
65.063 -301.88 0.
-62.4074 -600.056 0.
-189.878 -898.231 0.
-65.469 -913.481 0.
66.1877 -607.21 0.
197.844 -300.939 0.
166.21 -275.256 0.
111.652 -402.774 0.
57.0943 -530.292 0.
-233.103 -588.109 0.
-184.616 -474.562 0.
403.786 -101.626 0.
267.158 -182.624 0.
208.083 -320.956 0.
240.659 -415.914 0.
204.742 -498.119 0.
168.826 -580.325 0.
202.161 -576.411 0.
235.378 -503.89 0.
268.595 -431.367 0.
-48.2013 -512.322 0.
-11.3215 -425.152 0.
25.5585 -337.982 0.
260.212 -367.207 0.
169.013 -576.29 0.
496.881 -589.238 0.
550.154 -464.093 0.
603.427 -338.949 0.
7.23865 -508.387 0.
21.2069 -475.497 0.
35.1755 -442.606 0.
147.038 -394.351 0.
132.334 -427.396 0.
117.631 -460.44 0.
213.174 -592.666 0.
98.7667 -861.695 0.
932.634 -723.367 0.
4.44783 -941.001 0.
102.63 -711.861 0.
361.473 -462.771 0.
334.483 -523.881 0.
307.493 -584.991 0.
382.892 -613.556 0.
348.145 -696.215 0.
313.397 -778.873 0.
-279.171 -961.635 0.
-211.56 -801.98 0.
-143.951 -642.326 0.
216.135 -592.931 0.
143.879 -761.229 0.
-232.01 -1033.93 0.
-141.463 -823.009 0.
-50.9158 -612.088 0.
543.511 -286.973 0.
472.878 -453.939 0.
402.245 -620.905 0.
-44.1699 -799.841 0.
23.9834 -644.964 0.
92.1367 -490.087 0.
379.398 -452.593 0.
301.864 -633.201 0.
598.851 -652.857 0.
271.449 -654.147 0.
343.406 -484.043 0.
192.686 -470.688 0.
130.49 -614.151 0.
68.2951 -757.614 0.
22.6004 -789.08 0.
80.9248 -652.992 0.
139.249 -516.904 0.
31.7391 -560.76 0.
5.49013 -618.692 0.
-20.7588 -676.624 0.
157.481 -695.252 0.
104.962 -818.597 0.
247.74 -841.082 0.
267.634 -795.792 0.
287.528 -750.502 0.
354.761 -669.446 0.
397.702 -568.089 0.
440.644 -466.731 0.
422.638 -338.821 0.
512.938 -127.286 0.
603.237 84.249 0.
564.139 0.321696 0.
495.129 -159.423 0.
874.07 -128.9 0.
-149.597 -859.903 0.
-304.227 -1219.28 0.
-17.8244 -1271.61 0.
86.0437 -1028.95 0.
189.912 -786.281 0.
-86.8745 -821.895 0.
-111.107 -877.2 0.
-135.339 -932.504 0.
-83.8367 -852.546 0.
-28.1996 -723.225 0.
27.4369 -593.904 0.
351.138 -339.382 0.
413.724 -195.103 0.
139.553 -237.738 0.
11.9778 -535.924 0.
-115.597 -834.11 0.
-73.9465 -886.422 0.
57.2134 -579.865 0.
188.373 -273.307 0.
258.548 -204.707 0.
203.738 -332.255 0.
148.928 -459.803 0.
-660.764 -740.215 0.
-613.635 -626.014 0.
355.838 -341.832 0.
190.435 -490.989 0.
164.288 -550.298 0.
96.8731 -612.79 0.
95.2042 -618.479 0.
93.5354 -624.168 0.
224.334 -566.057 0.
239.781 -529.156 0.
255.229 -492.254 0.
-109.97 -595.603 0.
-82.2312 -531.845 0.
-54.4925 -468.087 0.
160.028 -485.337 0.
97.7408 -630.443 0.
421.846 -586.537 0.
447.912 -524.563 0.
473.977 -462.589 0.
-6.02092 -641.662 0.
-19.4287 -673.581 0.
-32.8357 -705.501 0.
119.79 -622.436 0.
149.811 -553.382 0.
179.831 -484.328 0.
172.41 -563.582 0.
110.799 -704.281 0.
866.274 -494.403 0.
28.4269 -852.757 0.
28.0135 -856.898 0.
182.028 -791.519 0.
214.392 -719.001 0.
246.756 -646.483 0.
443.251 -484.498 0.
482.062 -391.125 0.
520.871 -297.753 0.
-95.9072 -570.251 0.
-117.383 -621.592 0.
-138.859 -672.932 0.
188.028 -467.587 0.
228 -375.634 0.
132.164 -363.244 0.
63.9986 -521.016 0.
-4.16628 -678.789 0.
328.796 -588.572 0.
386.285 -452.5 0.
443.773 -316.429 0.
211.169 -297.327 0.
278.435 -137.528 0.
345.701 22.2705 0.
626 112.824 0.
586.792 23.4294 0.
473.021 -96.4121 0.
398.093 -290.943 0.
313.696 -490.222 0.
176.382 -669.331 0.
197.686 -622.26 0.
218.99 -575.19 0.
60.2184 -627.284 0.
54.8949 -640.806 0.
49.5714 -654.328 0.
-11.711 -623.7 0.
33.7053 -520.331 0.
79.1215 -416.962 0.
101.165 -558.122 0.
6.74621 -776.773 0.
148.815 -860.911 0.
192.854 -755.236 0.
236.893 -649.56 0.
429.171 -516.826 0.
411.744 -557.726 0.
394.316 -598.626 0.
435.575 -562.148 0.
468.274 -487.442 0.
500.973 -412.735 0.
428.62 -398.399 0.
452.171 -343.782 0.
-455.716 -682.475 0.
-16.7164 -489.299 0.
-14.5984 -482.994 0.
400.51 -306.205 0.
399.129 -309.778 0.
397.749 -313.35 0.
61.4664 -451.647 0.
62.2954 -452.515 0.
63.1244 -453.382 0.
40.4277 -396.588 0.
95.2751 -266.169 0.
150.122 -135.749 0.
450.219 -147.926 0.
357.803 -363.134 0.
-32.095 -656.252 0.
84.3478 -384.278 0.
200.791 -112.305 0.
206.313 -76.0182 0.
41.3137 -461.685 0.
-123.687 -847.352 0.
21.7683 -769.043 0.
156.839 -454.636 0.
291.91 -140.23 0.
-548.601 -432.333 0.
-531.302 -394.718 0.
-233.374 -565.432 0.
143.59 -480.405 0.
118.002 -540.205 0.
-131.324 -678.698 0.
-132.852 -684.512 0.
-134.379 -690.326 0.
273.032 -511.34 0.
288.925 -475.19 0.
304.818 -439.04 0.
-115.299 -567.893 0.
-87.8083 -504.125 0.
-60.3176 -440.358 0.
154.578 -454.995 0.
92.4614 -600.054 0.
122.432 -684.573 0.
148.005 -622.353 0.
173.579 -560.133 0.
362.433 -453.253 0.
348.391 -484.682 0.
334.35 -516.111 0.
245.871 -537.799 0.
275.871 -469.039 0.
305.87 -400.278 0.
-49.4151 -626.683 0.
-111.116 -767.52 0.
-5.69744 -835.951 0.
131.905 -776.774 0.
131.469 -780.886 0.
-5.84102 -840.121 0.
26.5455 -767.644 0.
58.9319 -695.166 0.
254.576 -535.917 0.
293.326 -442.859 0.
332.076 -349.802 0.
193.627 -413.677 0.
171.982 -465.085 0.
150.338 -516.493 0.
257.845 -407.474 0.
297.622 -315.124 0.
328.835 -248.15 0.
261.377 -406.328 0.
193.919 -564.506 0.
48.1711 -677.598 0.
105.701 -541.761 0.
163.23 -405.924 0.
338.12 -210.942 0.
406.119 -51.8175 0.
474.119 107.307 0.
423.91 58.4183 0.
384.742 -30.7348 0.
415.276 -89.2115 0.
557.484 -191.311 0.
473.227 -390.568 0.
220.387 -619.565 0.
241.287 -572.037 0.
262.187 -524.51 0.
55.1374 -598.8 0.
49.6161 -612.275 0.
44.0946 -625.75 0.
81.0485 -553.788 0.
125.937 -449.902 0.
170.826 -346.016 0.
54.2056 -546.562 0.
-40.4564 -765.325 0.
31.8866 -880.713 0.
75.6373 -774.683 0.
119.388 -668.653 0.
313.461 -535.739 0.
295.769 -576.117 0.
278.078 -616.494 0.
397.704 -547.276 0.
430.317 -472.4 0.
462.931 -397.523 0.
563.315 -309.454 0.
586.419 -254.547 0.
-151.285 -521.579 0.
126.96 -397.112 0.
129.12 -390.816 0.
347.322 -298.026 0.
345.386 -300.836 0.
343.45 -303.646 0.
170.829 -374.221 0.
171.442 -374.697 0.
172.056 -375.174 0.
11.1425 -377.083 0.
65.6829 -246.429 0.
120.223 -115.775 0.
417.373 -131.883 0.
324.406 -346.657 0.
-43.5947 -629.418 0.
73.0981 -357.739 0.
189.791 -86.0611 0.
83.2142 -97.6698 0.
-82.5368 -482.609 0.
-248.288 -867.546 0.
-25.8449 -759.193 0.
109.436 -445.032 0.
244.718 -130.872 0.
-151.658 -231.011 0.
-134.349 -193.299 0.
-393.318 -107.567 0.
236.414 -132.176 0.
-322.61 -1435.49 0.
-321.882 -668.812 0.
26.8422 145.594 0.
-76.8954 -95.5165 0.
826.363 721.968 0.
551.601 81.5278 0.
473.537 -99.7327 0.
240.459 309.143 0.
113.072 13.015 0.
158.591 120.151 0.
475.383 321.851 0.
273.988 -149.978 0.
381.407 518.92 0.
153.576 -11.7542 0.
-141.529 -698.679 0.
831.072 -22.5617 0.
1272.4 1006.7 0.
868.932 64.9451 0.
241.096 -754.555 0.
683.107 272.907 0.
968.024 933.686 0.
-152.359 -421.114 0.
-121.756 -347.288 0.
834.026 530.609 0.
829.457 692.171 0.
315.64 -504.223 0.
-84.83 -647.652 0.
206.026 29.9575 0.
143.219 -117.31 0.
332.995 37.3128 0.
334.593 39.9384 0.
372.661 127.773 0.
804.321 490.059 0.
785.099 446.17 0.
576.735 -39.0391 0.
676.419 462.421 0.
730.457 586.332 0.
922.279 785.551 0.
544.667 -95.1924 0.
441.838 -334.814 0.
0.669043 -232.634 0.
293.702 451.382 0.
177.732 181.156 0.
750.408 547.612 0.
664.864 348.445 0.
856.039 794.984 0.
431.985 483.85 0.
367.053 334.011 0.
-1321.68 -904.636 0.
828.92 178.27 0.
896.247 333.862 0.
565.034 143.218 0.
753.609 582.512 0.
924.508 980.265 0.
314.707 37.2302 0.
13.5012 -663.708 0.
83.3404 -498.655 0.
438.777 136.803 0.
448.279 160.611 0.
274.546 -243.03 0.
87.1988 -360.628 0.
440.516 465.964 0.
271.787 -61.7758 0.
207.805 -208.991 0.
125.504 -399.052 0.
95.2559 -792.43 0.
397.797 -83.5095 0.
706.299 639.609 0.
880.625 680.176 0.
902.602 733.155 0.
565.195 -53.0961 0.
866.134 168.514 0.
918.818 293.114 0.
338.351 -411.211 0.
572.046 398.228 0.
105.404 -691.105 0.
311.404 -244.91 0.
516.713 233.037 0.
484.893 157.651 0.
255.149 -352.56 0.
-28.154 -1009.74 0.
179.386 -520.773 0.
103.634 -79.2639 0.
-164.944 -706.712 0.
-138.679 -646.175 0.
536.982 242.1 0.
865.758 1013.12 0.
-28.761 -546.872 0.
495.837 677.375 0.
77.3812 -300.056 0.
3.51348 -13.1787 0.
139.989 303.289 0.
-65.4377 -178.587 0.
353.4 245.577 0.
424.424 412.436 0.
192.047 -128.289 0.
800.47 1269.97 0.
232.627 -59.3276 0.
-817.525 -647.314 0.
-0.81589 -318.188 0.
-19.7607 -361.726 0.
-286.619 -525.111 0.
-309.414 -578.299 0.
-332.21 -631.487 0.
306.697 -428.388 0.
242.549 -575.688 0.
178.401 -722.988 0.
-141.184 -765.914 0.
-25.2275 -495.58 0.
90.7295 -225.245 0.
387.28 -7.68794 0.
425.069 77.4325 0.
228.167 24.3693 0.
69.2383 -349.989 0.
-89.6909 -724.348 0.
274.613 -764.368 0.
293.113 -721.153 0.
311.612 -677.938 0.
288.096 -656.151 0.
299.925 -629.188 0.
311.753 -602.225 0.
-174.856 -662.189 0.
-72.7703 -424.893 0.
367.824 -42.7622 0.
306.863 -383.598 0.
140.885 -769.129 0.
-157.181 -1093.57 0.
-53.0533 -848.311 0.
51.0745 -603.053 0.
48.0472 -554.15 0.
-17.2623 -709.514 0.
-82.5724 -864.879 0.
246.862 -739.564 0.
265.049 -697.855 0.
283.235 -656.145 0.
266.578 -590.096 0.
311.425 -487.837 0.
281.968 -424.094 0.
304.415 -370.879 0.
326.862 -317.663 0.
74.1876 -401.384 0.
65.5982 -422.952 0.
57.0089 -444.52 0.
238.66 -403.529 0.
211.487 -467.701 0.
184.314 -531.873 0.
-34.6597 -634.425 0.
-30.9043 -628.686 0.
738.814 -296.795 0.
547.6 -369.129 0.
552.988 -356.374 0.
224.8 -448.002 0.
314.229 -237.341 0.
403.659 -26.6799 0.
398.644 27.4464 0.
354.86 -73.6275 0.
311.076 -174.701 0.
109.195 -379.889 0.
39.8917 -542.212 0.
-29.4112 -704.535 0.
185.797 -458.898 0.
282.283 -234.182 0.
343.83 -66.5145 0.
238.27 -312.718 0.
132.71 -558.923 0.
196.012 -627.763 0.
252.545 -494.054 0.
309.078 -360.345 0.
262.946 -380.371 0.
211.715 -494.912 0.
160.484 -609.452 0.
492.366 -553.002 0.
445.542 -661.66 0.
351.858 -788.17 0.
-22.4924 -756.705 0.
79.0159 -520.022 0.
238.623 -334.448 0.
175.412 -483.819 0.
112.201 -633.19 0.
91.8363 -707.51 0.
95.4087 -697.876 0.
98.9813 -688.241 0.
-111.705 -808.542 0.
-138.382 -875.318 0.
-165.06 -942.095 0.
117.851 -665.769 0.
212.763 -443.142 0.
47.5127 -373.326 0.
-39.6753 -575.539 0.
-126.863 -777.752 0.
-301.471 -911.33 0.
-221.805 -728.322 0.
-142.138 -545.314 0.
12.4993 -452.718 0.
-22.098 -533.447 0.
-56.6952 -614.176 0.
-118.3 -684.254 0.
-138.958 -733.915 0.
-377.935 -430.949 0.
-177.129 -364.284 0.
-196.147 -407.838 0.
-300.469 -498.874 0.
-322.643 -552.583 0.
-344.817 -606.29 0.
289.275 -403.099 0.
225.659 -550.691 0.
162.043 -698.283 0.
-27.4008 -685.144 0.
88.446 -414.564 0.
204.293 -143.984 0.
472.022 59.9349 0.
509.88 144.96 0.
318.478 95.2609 0.
159.591 -279.356 0.
0.702825 -653.973 0.
2.84429 -849.022 0.
21.0616 -805.809 0.
39.279 -762.597 0.
306.925 -616.646 0.
318.835 -589.974 0.
330.744 -563.301 0.
-57.8586 -581.563 0.
44.4143 -344.079 0.
33.985 -155.463 0.
244.636 -378.754 0.
79.4644 -764.833 0.
3.84828 -993.454 0.
108.093 -748.386 0.
212.338 -503.318 0.
22.211 -534.045 0.
-42.9816 -689.312 0.
-108.175 -844.58 0.
228.83 -716.512 0.
247.224 -675.251 0.
265.618 -633.991 0.
334.239 -529.303 0.
379.054 -427.181 0.
148.511 -448.888 0.
171.588 -396.427 0.
194.666 -343.966 0.
269.968 -285.918 0.
261.6 -307.799 0.
253.232 -329.68 0.
124.239 -420.928 0.
97.4498 -485.542 0.
70.6603 -550.155 0.
-2.09856 -589.389 0.
1.93423 -583.767 0.
-874.945 -955.249 0.
506.117 -353.901 0.
512.25 -341.611 0.
131.137 -457.586 0.
220.691 -246.891 0.
310.245 -36.1953 0.
526.36 113.825 0.
483.06 12.4819 0.
439.76 -88.8614 0.
-6.78503 -397.873 0.
-75.8158 -560.292 0.
-144.846 -722.711 0.
374.935 -345.821 0.
471.573 -121.145 0.
451.009 10.2698 0.
344.914 -235.581 0.
238.818 -481.432 0.
251.653 -573.753 0.
307.997 -439.943 0.
364.342 -306.134 0.
79.6718 -427.298 0.
28.232 -542.203 0.
-23.2072 -657.107 0.
428.711 -550.017 0.
381.476 -658.533 0.
636.098 -635.53 0.
-129.087 -769.744 0.
-27.9978 -532.575 0.
210.87 -317.024 0.
147.425 -465.805 0.
83.9796 -614.586 0.
95.2734 -674.727 0.
99.456 -665.228 0.
103.639 -655.728 0.
24.5634 -719.915 0.
-2.1382 -786.622 0.
-28.8403 -853.329 0.
100.368 -641.191 0.
195.929 -419.095 0.
60.2435 -334.81 0.
-26.5304 -537.409 0.
-113.304 -740.009 0.
-186.527 -831.534 0.
-106.965 -648.434 0.
-27.4021 -465.334 0.
-20.0913 -434.511 0.
-54.668 -515.452 0.
-89.2445 -596.394 0.
-202.027 -690.798 0.
-223.031 -739.912 0.
-676.3 -513.679 0.
-170.186 -328.883 0.
-181.064 -355.03 0.
-234.412 -391.511 0.
-220.713 -358.573 0.
-207.014 -325.636 0.
304.483 -144.586 0.
240.125 -295.745 0.
175.767 -446.904 0.
59.6284 -576.208 0.
29.479 -646.693 0.
-0.670565 -717.177 0.
154.165 -778.633 0.
81.9236 -945.852 0.
-218.279 -1159.06 0.
-29.4637 -718.918 0.
159.352 -278.772 0.
266.058 -29.1708 0.
209.53 -162.111 0.
153.002 -295.052 0.
340.722 -313.415 0.
297.876 -414.021 0.
255.031 -514.627 0.
86.2124 -647.226 0.
55.4897 -720.945 0.
588.709 -551.525 0.
129.69 -604.841 0.
204.094 -427.441 0.
253.651 -306.031 0.
218.98 -388.091 0.
184.309 -470.151 0.
13.4166 -555.772 0.
44.1331 -481.468 0.
74.8502 -407.163 0.
352.114 -330.674 0.
303.807 -442.192 0.
255.5 -553.71 0.
285.271 -482.318 0.
326.816 -384.717 0.
232.749 -356.426 0.
211.06 -406.637 0.
189.373 -456.847 0.
277.003 -382.178 0.
384.498 -129.838 0.
491.994 122.502 0.
344.674 111.574 0.
307.361 26.3398 0.
270.049 -58.8942 0.
251.457 -135.025 0.
219.811 -210.437 0.
-840.919 -726.399 0.
507.795 -94.3668 0.
534.751 -28.9078 0.
180.156 -155.715 0.
139.831 -252.375 0.
99.5058 -349.036 0.
441.488 -265.875 0.
417.473 -322.892 0.
393.458 -379.909 0.
-74.3611 -500.387 0.
-0.266628 -328.288 0.
73.8277 -156.19 0.
444.889 -292.779 0.
264.369 -713.288 0.
-52.1354 -1134.3 0.
39.3243 -920.16 0.
130.784 -706.024 0.
241.539 -535.092 0.
255.94 -501.066 0.
270.342 -467.039 0.
-62.5525 -584.37 0.
-58.9185 -580.738 0.
-55.2847 -577.106 0.
436.923 -483.917 0.
361.558 -661.475 0.
150.322 -894.838 0.
-140.511 -802.335 0.
-24.5706 -534.621 0.
249.046 -275.011 0.
187.806 -418.83 0.
126.567 -562.648 0.
110.453 -562.482 0.
193.015 -371.39 0.
275.577 -180.298 0.
301 -98.4212 0.
316.93 -57.3017 0.
332.861 -16.1827 0.
317.079 -130.125 0.
252.026 -281.714 0.
13.9616 -487.821 0.
33.1549 -445.248 0.
52.3483 -402.675 0.
28.4713 -386.887 0.
33.1348 -375.863 0.
37.7987 -364.839 0.
-92.951 -383.412 0.
-61.2773 -310.378 0.
-29.6034 -237.345 0.
-158.198 -380.181 0.
-220.617 -528.578 0.
200.495 -108.372 0.
3.35224 -223.929 0.
-7.46342 -250.25 0.
-154.511 -324.837 0.
-140.407 -292.293 0.
-126.303 -259.749 0.
122.898 -190.254 0.
58.6991 -341.457 0.
-5.50008 -492.66 0.
82.194 -535.263 0.
52.2116 -606.125 0.
22.229 -676.986 0.
208.769 -723.606 0.
136.36 -890.829 0.
-276.898 -1152.17 0.
-88.216 -712.046 0.
100.466 -271.926 0.
356.916 40.9211 0.
300.455 -92.3032 0.
243.994 -225.527 0.
126.833 -371.88 0.
84.1525 -472.596 0.
41.4717 -573.313 0.
418.149 -473.41 0.
387.333 -546.876 0.
1241.54 -238.827 0.
175.777 -554.382 0.
250.624 -377.373 0.
23.2792 -372.215 0.
-11.2374 -454.622 0.
-45.7549 -537.029 0.
67.6995 -501.646 0.
98.5337 -427.658 0.
129.368 -353.671 0.
292.897 -325.277 0.
244.728 -437.356 0.
196.559 -549.436 0.
82.2351 -536.417 0.
123.822 -439.154 0.
499.907 -210.372 0.
478.428 -260.891 0.
456.951 -311.41 0.
229.257 -370.964 0.
337.031 -119.109 0.
444.805 132.746 0.
464.775 195.582 0.
427.414 110.377 0.
390.052 25.1725 0.
408.684 -37.278 0.
376.838 -112.277 0.
-988.643 -757.769 0.
289.721 -155.956 0.
316.594 -90.6288 0.
118.693 -151.672 0.
78.3875 -248.57 0.
38.0824 -345.469 0.
532.802 -194.201 0.
509.02 -251.321 0.
485.238 -308.44 0.
11.3743 -431.994 0.
85.8862 -259.883 0.
160.398 -87.7724 0.
416.802 -273.396 0.
236.853 -694.316 0.
-161.49 -1149.3 0.
-69.9436 -935.321 0.
21.6027 -721.344 0.
158.267 -538.769 0.
171.936 -504.546 0.
185.605 -470.323 0.
-25.3337 -537.807 0.
-22.4676 -534.01 0.
-19.6017 -530.214 0.
489.917 -431.032 0.
414.449 -608.575 0.
303.616 -798.013 0.
3.89517 -708.934 0.
120.07 -441.553 0.
356.17 -198.021 0.
295.079 -341.909 0.
233.988 -485.797 0.
57.76 -552.45 0.
140.859 -361.457 0.
223.958 -170.464 0.
219.408 -101.948 0.
235.962 -61.1701 0.
252.517 -20.3927 0.
355.608 -81.2392 0.
290.275 -232.517 0.
89.7955 -424.276 0.
109.302 -381.563 0.
128.809 -338.849 0.
2.78069 -368.073 0.
7.65962 -356.986 0.
12.5389 -345.899 0.
-272.308 -429.024 0.
-240.189 -356.503 0.
-208.07 -283.982 0.
-256.095 -391.448 0.
-317.577 -541.144 0.
-88.7542 -675.512 0.
383.327 373.881 0.
503.519 653.651 0.
102.267 154.78 0.
54.0426 47.0124 0.
12.2656 -46.2891 0.
-17.6217 -157.406 0.
222.089 405.062 0.
-96.6904 -335.669 0.
566.559 587.269 0.
445.637 303.313 0.
252.193 -149.413 0.
512.337 -80.1638 0.
455.568 -211.645 0.
-281.218 -1021.11 0.
29.9724 -295.555 0.
-70.1365 -529.363 0.
505.318 248.458 0.
409.446 24.8818 0.
649.094 583.251 0.
288.609 442.918 0.
230.351 303.937 0.
304.633 474.458 0.
847.304 -58.7201 0.
792.039 -186.38 0.
365.275 710.918 0.
559.976 280.964 0.
287.42 -354.2 0.
-587.851 -1336.41 0.
-103.354 -206.438 0.
331.038 807.109 0.
511.181 459.826 0.
501.483 438.624 0.
213.974 -230.15 0.
368.175 -13.3175 0.
392.268 44.0571 0.
-5.37588 -882.193 0.
309.245 403.059 0.
215.116 184.498 0.
728.804 -144.104 0.
849.109 136.604 0.
1003 495.811 0.
294.895 -97.8948 0.
141.735 -457.117 0.
207.441 -305.473 0.
664.985 472.732 0.
964.355 1171.92 0.
665.5 475.222 0.
865.755 756.718 0.
613.757 168.963 0.
1286.01 -484.704 0.
83.3785 -182.396 0.
159.535 -4.37341 0.
68.3073 -131.105 0.
58.1333 -154.773 0.
16.4728 -251.296 0.
643.628 -78.7901 0.
718.84 96.1757 0.
631.102 -109.008 0.
37.3899 -504.579 0.
341.908 204.693 0.
848.08 1384.1 0.
516.657 42.4769 0.
566.175 157.122 0.
354.357 295.447 0.
254.246 59.5954 0.
327.561 228.553 0.
470.674 379.96 0.
502.251 455.962 0.
558.689 590.11 0.
526.901 709.036 0.
537.385 732.534 0.
421.8 462.566 0.
814.648 257.467 0.
689.896 -28.5141 0.
219.316 -635.15 0.
735.643 750.001 0.
331.808 -193.241 0.
428.431 -190.368 0.
577.299 153.605 0.
446.791 -154.164 0.
310.649 166.733 0.
718.351 1115.85 0.
294.295 124.102 0.
173.699 -23.5802 0.
265.98 189.241 0.
-109.063 -688.399 0.
452.96 105.787 0.
509.947 240.897 0.
407.666 206.317 0.
402.463 193.251 0.
98.1054 -518.137 0.
-175.618 -712.476 0.
481.589 823.681 0.
512.342 897.28 0.
91.71 786.438 0.
-129.808 269.37 0.
-105.663 324.521 0.
-307.427 -297.504 0.
69.5982 586.901 0.
-386.071 -709.315 0.
-113.371 -448.036 0.
-43.2702 -283.187 0.
-22.4033 -192.331 0.
-87.9691 -342.879 0.
-153.535 -493.427 0.
-72.352 -462.567 0.
6.20277 -278.026 0.
84.7577 -93.4846 0.
216.744 -108.891 0.
114.913 -345.392 0.
13.0812 -581.892 0.
235.068 -413.74 0.
290.126 -284.741 0.
50.7717 -306.609 0.
6.8183 -410.269 0.
-37.1354 -513.928 0.
171.804 -463.51 0.
198.209 -400.577 0.
224.615 -337.643 0.
12.6446 -496.298 0.
-76.3943 -704.344 0.
-165.433 -912.39 0.
375.82 -647.602 0.
431.819 -517.139 0.
-109.502 -642.294 0.
334.811 -465.985 0.
321.299 -497.242 0.
-109.917 -654.284 0.
21.2824 -347.621 0.
152.482 -40.9596 0.
236.947 59.4316 0.
144.281 -157.526 0.
51.6158 -374.484 0.
18.2098 -337.674 0.
105.795 -131.82 0.
193.38 74.0342 0.
390.528 60.0461 0.
320.097 -103.151 0.
553.535 -135.623 0.
479.237 -304.681 0.
404.941 -473.738 0.
156.492 -682.441 0.
140.663 -719.48 0.
124.835 -756.52 0.
104.389 -687.163 0.
192.15 -484.59 0.
279.911 -282.017 0.
365.152 -217.48 0.
357.746 -234.876 0.
-572.173 -647.682 0.
310.265 -39.0702 0.
432.868 243.823 0.
300.897 326.546 0.
208.567 112.492 0.
116.237 -101.563 0.
464.254 -77.78 0.
432.914 -149.319 0.
401.573 -220.858 0.
358.88 -263.422 0.
352.675 -273.686 0.
346.471 -283.951 0.
120.634 -359.173 0.
135.792 -324.666 0.
352.862 -209.508 0.
330.325 -265.819 0.
307.789 -322.13 0.
-102.466 -471.918 0.
-16.3793 -269.931 0.
69.7075 -67.9445 0.
297.114 -53.3153 0.
159.763 -375.022 0.
22.4113 -696.729 0.
392.38 -328.468 0.
566.718 80.1984 0.
73.9032 195.979 0.
462.209 102.298 0.
324.648 -218.68 0.
177.132 -493.114 0.
162.342 -530.016 0.
147.551 -566.919 0.
161.417 -546.594 0.
196.765 -460.831 0.
232.113 -375.068 0.
12.356 -505.227 0.
-35.8527 -618.035 0.
-84.0615 -730.842 0.
281.911 -483.026 0.
338.653 -349.992 0.
20.9266 -378.867 0.
84.3885 -230.466 0.
147.85 -82.0655 0.
-137.41 -134.392 0.
-158.58 -182.878 0.
-179.749 -231.365 0.
-57.1311 -271.195 0.
-124.476 -428.428 0.
-191.821 -585.66 0.
-420.681 -654.356 0.
-388.101 -572.23 0.
135.419 -454.022 0.
-276.835 -485.698 0.
-206.685 -320.925 0.
25.1864 -141.196 0.
-40.5233 -291.805 0.
-106.233 -442.413 0.
39.5241 -382.478 0.
118.24 -198.352 0.
196.956 -14.225 0.
169.894 -97.5395 0.
68.1287 -334.405 0.
-33.6369 -571.27 0.
84.4234 -447.655 0.
139.587 -319.01 0.
101.452 -251.657 0.
57.9387 -355.995 0.
14.4255 -460.333 0.
155.411 -437.811 0.
181.941 -375.068 0.
208.47 -312.325 0.
181.049 -394.012 0.
92.4053 -602.586 0.
3.76158 -811.16 0.
124.578 -722.541 0.
181.603 -592.615 0.
171.62 -491.02 0.
467.49 -377.965 0.
454.311 -409.194 0.
133.126 -517.582 0.
264.4 -210.921 0.
395.674 95.74 0.
127.002 43.261 0.
34.3419 -173.749 0.
-58.3184 -390.759 0.
-223.924 -410.802 0.
-136.685 -204.819 0.
-49.4468 1.16457 0.
690.315 220.817 0.
619.589 57.5013 0.
347.008 -192.622 0.
272.597 -361.78 0.
198.186 -530.937 0.
308.689 -586.118 0.
292.703 -622.995 0.
276.716 -659.872 0.
45.6324 -681.098 0.
133.218 -478.171 0.
220.805 -275.243 0.
279.403 -223.206 0.
271.963 -240.468 0.
374.978 -210.265 0.
532.725 87.379 0.
655.337 370.086 0.
358.636 383.82 0.
267.036 168.98 0.
175.437 -45.8605 0.
265.196 -131.405 0.
234.298 -203.195 0.
203.401 -274.984 0.
638.688 -111.296 0.
633.154 -121.805 0.
627.62 -132.314 0.
-138.367 -438.234 0.
-122.531 -404.462 0.
637.058 -53.9066 0.
614.494 -110.696 0.
591.93 -167.486 0.
-337.797 -540.982 0.
-251.997 -339.337 0.
-166.197 -137.693 0.
432.5 36.9936 0.
295.105 -284.821 0.
157.71 -606.637 0.
196.83 -381.667 0.
371.027 27.2059 0.
-930.505 -203.616 0.
485.165 143.044 0.
347.653 -177.917 0.
43.1726 -518.03 0.
28.9658 -555.204 0.
14.7589 -592.378 0.
368.892 -424.105 0.
404.127 -338.119 0.
439.361 -252.133 0.
84.3288 -444.3 0.
35.5979 -556.426 0.
-13.1329 -668.551 0.
399.307 -401.565 0.
456.461 -268.733 0.
-135.841 -414.884 0.
-71.9784 -267.028 0.
-8.11586 -119.171 0.
-375.959 -203.477 0.
-396.996 -252.083 0.
-418.034 -300.69 0.
331.787 -72.9645 0.
264.525 -230.266 0.
197.263 -387.568 0.
-354.948 -595.448 0.
-322.812 -513.148 0.
349.615 59.8047 0.
-185.857 -328.349 0.
-250.356 -480.722 0.
-109.668 -490.248 0.
-34.2035 -314.647 0.
41.2605 -139.046 0.
231.694 6.89809 0.
208.135 -43.6778 0.
184.576 -94.2533 0.
145.865 -153.545 0.
123.783 -206.382 0.
101.701 -259.218 0.
45.3211 -270.712 0.
55.03 -247.42 0.
154.555 -197.472 0.
114.445 -290.345 0.
74.3351 -383.217 0.
173.761 -412.555 0.
141.678 -488.319 0.
109.595 -564.082 0.
181.017 -455.206 0.
286.537 -210.066 0.
392.058 35.0739 0.
194.94 -176.237 0.
72.4333 -459.29 0.
788.506 -383.064 0.
522.31 -318.85 0.
618.43 -90.6895 0.
428.927 -56.0641 0.
336.038 -274.466 0.
243.15 -492.869 0.
-149.551 -650.544 0.
-10.4476 -325.249 0.
128.655 0.0446544 0.
-110.276 -44.872 0.
-136.922 -105.938 0.
-163.568 -167.004 0.
612.626 152.883 0.
610.054 143.2 0.
335.379 2.73509 0.
271.768 -150.348 0.
208.157 -303.433 0.
554.135 -199.482 0.
612.686 -62.8662 0.
671.237 73.7497 0.
259.414 -24.8829 0.
285.857 37.5394 0.
312.3 99.9615 0.
435.152 142.251 0.
420.113 107.961 0.
1692.47 622.891 0.
603.434 69.561 0.
557.271 -37.3027 0.
108.354 -283.564 0.
142.791 -202.928 0.
177.228 -122.292 0.
214.206 -77.6722 0.
208.193 -93.305 0.
202.181 -108.938 0.
770.909 49.4433 0.
707.671 -101.193 0.
644.433 -251.829 0.
-122.462 -430.521 0.
-30.6798 -211.357 0.
690.688 242.77 0.
630.207 106.123 0.
569.726 -30.5245 0.
-252.77 -515.672 0.
-339.376 -720.217 0.
-425.98 -924.762 0.
144.413 -608.406 0.
276.929 -299.258 0.
409.446 9.89062 0.
218.568 -173.129 0.
118.096 -405.839 0.
186.173 -555.442 0.
181.475 -438.75 0.
242.471 -293.412 0.
110.537 -255.376 0.
121.878 -223.327 0.
133.219 -191.279 0.
532.601 -87.4434 0.
437.88 -306.936 0.
343.159 -526.428 0.
91.0808 -546.566 0.
201.338 -287.954 0.
311.595 -29.3413 0.
524.379 -8.52274 0.
472.989 -128.061 0.
-259.901 -512.847 0.
-205.633 -383.276 0.
-151.365 -253.705 0.
-401.994 -312.03 0.
-426.076 -368.533 0.
-450.159 -425.035 0.
318.532 -129.145 0.
304.061 -160.817 0.
289.59 -192.49 0.
-185.722 -329.208 0.
-139.82 -225.369 0.
155.616 8.58291 0.
60.2596 -191.701 0.
-4.05858 -343.96 0.
-83.0775 -446.986 0.
-7.39535 -271.756 0.
68.2865 -96.5264 0.
215.334 32.1469 0.
191.872 -18.7078 0.
168.409 -69.5621 0.
214.803 -93.8341 0.
192.409 -146.406 0.
170.015 -198.978 0.
-57.2464 -283.447 0.
-47.4594 -260.255 0.
203.145 -146.966 0.
162.935 -239.664 0.
122.725 -332.362 0.
227.207 -357.404 0.
195.2 -433.149 0.
163.192 -508.893 0.
111.845 -453.836 0.
217.453 -208.867 0.
323.061 36.1025 0.
69.3754 -200.552 0.
-53.1505 -483.3 0.
492.694 -478.257 0.
492.595 -298.907 0.
589.05 -71.0853 0.
466.456 -9.80735 0.
373.273 -227.843 0.
280.091 -445.879 0.
44.3248 -535.624 0.
183.596 -210.439 0.
322.867 114.746 0.
57.7866 58.5144 0.
31.0865 -2.6736 0.
4.38623 -63.8613 0.
237.734 24.2887 0.
235.079 14.1364 0.
357.783 44.7298 0.
293.988 -108.413 0.
230.193 -261.557 0.
637.926 -132.563 0.
696.151 4.43299 0.
754.375 141.429 0.
178.171 -29.0298 0.
204.95 33.3751 0.
231.729 95.7798 0.
537.923 217.815 0.
523.211 183.046 0.
-1289.38 -622.927 0.
612.441 105.313 0.
566.711 -1.8023 0.
166.8 -225.032 0.
201.746 -144.687 0.
236.693 -64.3429 0.
260.715 -26.6275 0.
254.462 -41.9244 0.
248.21 -57.2213 0.
698.347 50.1465 0.
634.811 -100.091 0.
571.275 -250.328 0.
196.929 -262.635 0.
288.469 -43.4688 0.
253.428 87.053 0.
193.223 -50.2638 0.
133.018 -187.581 0.
208.581 -285.893 0.
121.826 -490.602 0.
35.0713 -695.312 0.
16.6867 -631.712 0.
149.597 -322.881 0.
282.507 -14.0502 0.
283.485 -113.499 0.
183.173 -346.264 0.
947.083 -199.214 0.
53.9931 -462.988 0.
115.085 -317.225 0.
148.216 -207.281 0.
160.247 -175.57 0.
172.278 -143.859 0.
411.027 -108.066 0.
316.571 -327.655 0.
222.115 -547.244 0.
176.816 -478.516 0.
286.984 -220.146 0.
397.152 38.2241 0.
331.619 -59.2213 0.
280.287 -178.826 0.
-275.426 -488.217 0.
-220.993 -358.725 0.
-166.561 -229.234 0.
-89.8522 -147 0.
-114.092 -203.247 0.
-138.333 -259.495 0.
2.10584 -232.77 0.
-12.419 -264.285 0.
-26.9439 -295.8 0.
-99.3764 -262.277 0.
-53.9078 -157.975 0.
199.981 387.908 0.
224.021 -227.573 0.
554.755 545.75 0.
158.522 91.6163 0.
-236.302 -826.49 0.
73.2845 -102.62 0.
-197.272 -879.329 0.
-31.1627 -492.578 0.
173.049 -16.2079 0.
652.912 834.763 0.
418.229 285.172 0.
224.238 -169.19 0.
-241.336 -496.771 0.
-246.514 -506.942 0.
-39.669 -778.075 0.
334.228 96.3497 0.
531.32 558.455 0.
293.712 -264.855 0.
437.368 65.8689 0.
598.685 438.878 0.
507.994 631.926 0.
23.1751 -500.52 0.
424.427 433.153 0.
508.252 1091.04 0.
399.631 839.18 0.
-312.031 -896.568 0.
505.845 -180.776 0.
616.414 76.4086 0.
568.268 182.34 0.
664.08 408.232 0.
501.246 30.9766 0.
361.359 -126.309 0.
419.341 8.6002 0.
387.21 -67.0288 0.
140.541 -42.8302 0.
128.593 -69.0587 0.
207.538 116.939 0.
105.725 453.332 0.
304.341 916.183 0.
358.35 27.6998 0.
346.046 -0.00348552 0.
490.552 338.125 0.
1092.78 806.738 0.
771.672 58.0702 0.
654.616 -214.469 0.
73.941 -84.9742 0.
67.349 -102.091 0.
80.7424 -72.4709 0.
507.155 -31.7381 0.
868.425 810.563 0.
268.426 751.442 0.
835.2 658.303 0.
830.826 648.419 0.
502.16 475.383 0.
-57.165 -828.546 0.
224.708 -169.813 0.
529.934 543.133 0.
385.525 206.443 0.
240.423 -131.862 0.
515.587 -210.268 0.
486.931 -276.886 0.
453.39 -354.824 0.
817.765 618.882 0.
791.795 558.399 0.
-130.738 46.699 0.
-340.543 -441.703 0.
-562.026 -956.938 0.
489.55 -479.138 0.
533.382 -381.016 0.
948.564 583.846 0.
472.532 696.596 0.
460.151 667.795 0.
195.317 49.8611 0.
469.477 233.905 0.
193.394 -409.367 0.
324.486 -699.927 0.
226.461 205.047 0.
360.69 517.865 0.
274.161 56.3654 0.
174 -178.63 0.
-55.3405 -714.632 0.
489.263 335.55 0.
363.456 43.4609 0.
641.502 693.144 0.
874.716 1024.56 0.
636.873 467.066 0.
157.044 -655.273 0.
195.502 14.8612 0.
427.844 558.41 0.
48.7234 332.39 0.
-98.684 -12.4652 0.
243.069 784.073 0.
384.132 397.759 0.
235.524 51.968 0.
132.458 -187.509 0.
85.5344 590.906 0.
-171.694 -8.04914 0.
-41.3048 295.014 0.
77.1505 19.5512 0.
50.5707 -45.7445 0.
-108.462 -124.096 0.
100.726 -158.097 0.
17.4769 -350.264 0.
38.071 -428.735 0.
118.972 -238.298 0.
199.873 -47.8606 0.
42.7715 -22.2164 0.
52.1464 -3.83568 0.
61.5212 14.5455 0.
218.074 37.4287 0.
178.219 -56.6319 0.
138.364 -150.692 0.
15.6467 -286.622 0.
-26.7211 -384.413 0.
74.9226 -411.466 0.
52.4394 -462.619 0.
29.9562 -513.771 0.
38.7392 -523.58 0.
66.5727 -460.596 0.
94.4063 -397.613 0.
147.482 -366.414 0.
132.11 -400.535 0.
116.738 -434.655 0.
-46.8314 -416.51 0.
20.4695 -261.001 0.
-549.346 -378.875 0.
389.241 -62.8476 0.
343.15 -173.142 0.
395.975 -235.212 0.
374.176 -288.374 0.
352.378 -341.536 0.
26.6842 -439.975 0.
108.028 -254.307 0.
189.372 -68.6387 0.
66.3733 -22.4453 0.
105.57 65.2075 0.
144.766 152.86 0.
375.886 235.851 0.
364.015 208.722 0.
295.533 145.785 0.
238.222 13.2838 0.
180.911 -119.218 0.
546.533 -39.6866 0.
539.654 -56.3508 0.
532.775 -73.0151 0.
58.7347 -410.82 0.
-65.0631 -699.166 0.
-188.861 -987.512 0.
238.21 -725.834 0.
327.612 -516.299 0.
53.5698 -463.509 0.
494.973 -127.545 0.
570.924 51.641 0.
494.306 114.552 0.
446 5.72965 0.
397.695 -103.093 0.
309.752 -136.749 0.
369.622 2.93126 0.
429.491 142.611 0.
610.186 196.704 0.
563.018 88.2788 0.
515.851 -20.146 0.
279.66 -170.183 0.
256.611 -225.685 0.
-171.371 -430.806 0.
-97.9479 -258.62 0.
-24.524 -86.4328 0.
622.044 264.678 0.
589.235 187.332 0.
556.426 109.986 0.
166.391 -171.493 0.
86.4388 -355.656 0.
6.48645 -539.819 0.
318.155 -335.799 0.
382.418 -186.334 0.
427.097 -48.8078 0.
56.0693 -168.243 0.
79.2282 -117.844 0.
79.487 -74.7331 0.
91.0181 -49.7724 0.
102.549 -24.8118 0.
224.085 9.63792 0.
194.899 -61.0579 0.
165.713 -131.754 0.
303.857 -145.136 0.
263.905 -238.794 0.
223.953 -332.452 0.
158.74 -282.383 0.
206.635 -170.978 0.
-40.0415 -194.639 0.
-21.5303 -155.392 0.
-3.01977 -116.144 0.
245.481 -12.9267 0.
206.396 -105.033 0.
167.312 -197.139 0.
-409.778 -510.62 0.
-439.652 -582.714 0.
-469.526 -654.809 0.
-376.24 -664.973 0.
-400.794 -726.297 0.
-74.5861 -75.9197 0.
-72.5411 -200.783 0.
-155.325 -393.129 0.
178.458 -337.036 0.
259.238 -146.24 0.
340.018 44.555 0.
-92.6627 -49.0218 0.
-83.0471 -30.8448 0.
-73.4315 -12.6673 0.
120.477 25.6144 0.
80.1859 -68.4054 0.
39.8958 -162.425 0.
237.053 -159.501 0.
194.924 -257.949 0.
42.4793 -392.181 0.
20.1985 -443.517 0.
-2.08237 -494.852 0.
-120.821 -562.63 0.
-93.4875 -499.085 0.
-66.1533 -435.54 0.
241.703 -294.877 0.
226.285 -328.896 0.
210.867 -362.915 0.
81.6365 -330.695 0.
149.05 -175.178 0.
190.135 -31.4836 0.
205.075 -110.072 0.
158.765 -219.954 0.
421.999 -193.618 0.
400.263 -246.972 0.
378.527 -300.327 0.
-204.666 -506.679 0.
-122.72 -321.777 0.
-40.7761 -136.874 0.
-12.6537 -25.2632 0.
27.1154 61.7844 0.
66.8849 148.832 0.
836.754 465.246 0.
825.699 437.467 0.
171.831 125.826 0.
114.967 -6.82669 0.
58.1038 -139.48 0.
339.527 -97.0399 0.
332.354 -113.527 0.
325.181 -130.015 0.
225.588 -307.923 0.
101.634 -596.341 0.
-22.3204 -884.758 0.
298.814 -668.593 0.
388.342 -459.158 0.
-464.778 -653.27 0.
498.252 -93.5392 0.
574.504 85.4736 0.
689.17 229.835 0.
641.174 120.935 0.
593.179 12.035 0.
414.411 -60.3389 0.
474.389 79.5645 0.
534.367 219.468 0.
530.739 194.915 0.
483.161 86.7038 0.
435.583 -21.5073 0.
49.9306 -237.12 0.
26.23 -291.806 0.
47.3245 -306.998 0.
120.307 -134.377 0.
193.29 38.2437 0.
407.272 202.232 0.
374.071 125.255 0.
340.871 48.2771 0.
260.922 -100.45 0.
181.243 -284.643 0.
101.564 -468.836 0.
442.323 -251.054 0.
506.651 -101.476 0.
293.21 -75.9287 0.
65.3387 -132.083 0.
88.4854 -81.4095 0.
-74.9483 -111.047 0.
-63.2589 -85.9134 0.
-51.5695 -60.7798 0.
88.9894 -16.6276 0.
60.1154 -87.4824 0.
31.2415 -158.338 0.
232.974 -144.714 0.
193.337 -238.745 0.
153.702 -332.776 0.
286.095 -195 0.
334.08 -83.9949 0.
147.058 -82.9594 0.
165.015 -43.3045 0.
182.972 -3.64916 0.
309.666 45.497 0.
270.403 -46.3195 0.
231.14 -138.136 0.
-422.34 -484.305 0.
-452.679 -556.177 0.
-483.019 -628.05 0.
-550.795 -708.591 0.
-575.886 -769.459 0.
-897.631 -1569.48 0.
-374.261 -791.394 0.
-70.6069 -82.2546 0.
492.582 551.52 0.
348.665 216.157 0.
204.748 -119.205 0.
-279.837 -430.797 0.
-217.272 -282.049 0.
-154.706 -133.301 0.
98.393 27.3218 0.
107.132 47.5449 0.
115.87 67.768 0.
456.348 192.28 0.
445.289 166.992 0.
236.381 55.4885 0.
201.736 -24.6082 0.
167.092 -104.705 0.
-37.4201 -265.576 0.
-82.3788 -370.225 0.
-127.338 -474.875 0.
183.325 -332.979 0.
232.017 -219.86 0.
280.709 -106.742 0.
234.778 -58.5316 0.
262.742 9.15642 0.
727.223 263.055 0.
265.703 85.9422 0.
276.326 112.687 0.
454.688 213.19 0.
458.287 222.143 0.
461.884 231.094 0.
-28.7409 -10.2835 0.
-67.0657 -99.0528 0.
-105.391 -187.822 0.
-78.157 -278.601 0.
-139.31 -421.889 0.
-200.464 -565.177 0.
647.199 -226.007 0.
642.337 -238.318 0.
-134.968 -549.947 0.
15.1738 -197.937 0.
165.316 154.073 0.
465.677 378.524 0.
305.784 7.23022 0.
145.89 -364.063 0.
352.874 -296.403 0.
464.624 -35.8121 0.
576.375 224.779 0.
632.948 296.405 0.
633.104 296.628 0.
-950.768 -380.894 0.
596.879 137.176 0.
520.583 -40.4559 0.
560.537 -132.631 0.
567.074 -118.216 0.
573.611 -103.801 0.
421.934 -164.481 0.
418.267 -172.056 0.
414.6 -179.631 0.
370.097 -124.48 0.
428.631 10.5016 0.
487.166 145.483 0.
65.4153 -54.2495 0.
49.3003 -95.133 0.
242.723 -50.2503 0.
200.174 -149.844 0.
157.626 -249.437 0.
57.6443 -318.005 0.
104.465 -208.234 0.
151.285 -98.4622 0.
329.018 33.5465 0.
342.986 68.83 0.
356.955 104.113 0.
586.404 225.625 0.
594.95 249.777 0.
224.272 111.777 0.
194.604 97.3041 0.
191.992 95.0042 0.
27.6864 26.1006 0.
31.2008 38.3937 0.
34.7161 50.6863 0.
164.798 80.9283 0.
125.923 -5.34916 0.
87.0495 -91.6263 0.
175.864 -57.2365 0.
187.792 -25.8411 0.
199.719 5.55401 0.
397.349 90.2845 0.
397.013 91.4337 0.
209.621 2.61688 0.
159.034 -114.87 0.
108.447 -232.358 0.
226.196 -211.884 0.
278.133 -89.7043 0.
330.07 32.4752 0.
-317.924 -186.609 0.
-303.894 -153.863 0.
-289.865 -121.117 0.
-354.982 -242.783 0.
-414.476 -382.259 0.
-732.826 -1469.22 0.
-303.892 -730.001 0.
0.345269 -21.1143 0.
237.441 473.576 0.
93.9801 138.338 0.
-49.481 -196.9 0.
-175.417 -354.257 0.
-112.632 -205.56 0.
-49.8473 -56.8625 0.
165.531 87.2004 0.
174.403 107.014 0.
183.274 126.827 0.
443.516 220.494 0.
433.115 194.562 0.
299.305 112.753 0.
264.725 32.4823 0.
230.145 -47.7892 0.
43.1761 -197.822 0.
-1.31198 -302.787 0.
-45.8002 -407.752 0.
24.2333 -370.555 0.
72.6538 -257.081 0.
121.074 -143.609 0.
215.254 -37.9704 0.
243.368 29.7508 0.
-257.979 -128.824 0.
418.409 183.977 0.
429.006 210.678 0.
112.326 97.373 0.
115.754 106.429 0.
119.181 115.485 0.
133.176 91.089 0.
95.1866 1.9429 0.
57.1973 -87.2033 0.
135.664 -155.778 0.
74.6176 -299.303 0.
13.5706 -442.829 0.
484.357 -264.622 0.
479.82 -277.236 0.
-22.1676 -469.06 0.
128.248 -117.191 0.
278.664 234.678 0.
510.277 428.52 0.
350.121 57.4267 0.
189.965 -313.666 0.
518.319 -194.968 0.
629.949 65.6721 0.
741.58 326.312 0.
420.971 237.81 0.
421.319 237.983 0.
353.411 209.528 0.
617.937 177.925 0.
541.673 0.478901 0.
480.634 -135.54 0.
487.338 -121.047 0.
494.042 -106.553 0.
478.138 -108.621 0.
474.781 -116.285 0.
471.424 -123.948 0.
430.997 -66.923 0.
489.454 68.3956 0.
547.911 203.714 0.
173.929 24.2034 0.
157.381 -16.2848 0.
271.825 -6.96674 0.
229.558 -106.926 0.
187.291 -206.885 0.
-2.97193 -311.307 0.
44.2541 -202.043 0.
91.4803 -92.7781 0.
291.898 49.817 0.
305.904 84.6826 0.
319.909 119.548 0.
352.57 157.972 0.
361.326 181.758 0.
406.614 221.12 0.
296.96 172.651 0.
293.899 170.766 0.
305.008 176.393 0.
308.651 188.413 0.
312.295 200.432 0.
402.052 213.742 0.
363.626 127.043 0.
325.201 40.3434 0.
46.6115 -80.0243 0.
58.997 -48.8624 0.
71.3826 -17.7005 0.
276.693 69.7244 0.
276.151 70.9394 0.
123.785 -1.69297 0.
73.5838 -119.484 0.
23.3836 -237.276 0.
268.35 -162.867 0.
320.542 -40.7262 0.
372.733 81.4143 0.
-324.338 -156.693 0.
-310.045 -124.012 0.
-295.752 -91.3318 0.
-173.066 -132.026 0.
-232.895 -270.952 0.
431.183 205.853 0.
-304.104 -826.785 0.
-413.691 -1082.84 0.
-187.411 -12.7673 0.
-154.783 63.7207 0.
-99.3274 193.332 0.
-177.743 -537.739 0.
14.5139 -90.604 0.
307.469 591.263 0.
304.783 323.561 0.
-25.9759 -448.082 0.
-173.685 -792.756 0.
568.273 560.493 0.
546.626 514.638 0.
72.0046 -509.333 0.
453.156 381.286 0.
204.523 -196.901 0.
-32.2803 -499.725 0.
-99.5431 -656.631 0.
93.9353 -206.299 0.
63.4548 55.2578 0.
-105.158 -339.329 0.
-239.82 -655.188 0.
278.267 177.717 0.
361.228 370.503 0.
-373.646 -183.494 0.
498.769 115.083 0.
481.459 80.6309 0.
254.932 1100.29 0.
223.542 1029.34 0.
-304.398 -199.86 0.
-32.2841 -572.082 0.
285.096 170.59 0.
330.939 279.428 0.
718.248 820.746 0.
626.804 605.083 0.
424.613 131.102 0.
307.694 -333.125 0.
342.524 -254.792 0.
387.083 303.072 0.
510.732 591.276 0.
30.1388 -530.441 0.
-154.777 -1167.47 0.
309.409 -89.1616 0.
250.707 -230.702 0.
868.303 343.488 0.
1067.13 806.129 0.
829.167 249.79 0.
-32.0375 -390.476 0.
-20.4292 -368.13 0.
257.371 626.334 0.
530.242 -33.1216 0.
321.134 -522.768 0.
462.049 7.73415 0.
374.151 -197.487 0.
302.536 -364.924 0.
385.107 -414.664 0.
632.36 163.784 0.
503.359 -135.381 0.
-53.2863 -1277.92 0.
-348.04 -1965.58 0.
440.011 -127.083 0.
360.607 292.999 0.
435.583 469.953 0.
515.413 535.76 0.
339.65 125.212 0.
102.698 -427.877 0.
-162.494 -539.428 0.
54.6974 -33.5316 0.
64.2514 -11.7599 0.
166.608 -141.424 0.
-54.5654 -659.523 0.
51.4476 -413.815 0.
113.415 83.8282 0.
250.895 407.694 0.
395.702 -73.8803 0.
385.863 207.247 0.
43.6763 -583.217 0.
375.938 -156.709 0.
894.774 1060.24 0.
121.943 -735.89 0.
568.953 186.361 0.
963.888 1107.11 0.
613.598 289.516 0.
-367.292 -766.972 0.
-181.744 -335.634 0.
171.084 485.725 0.
261.904 296.94 0.
328.951 452.383 0.
-47.8738 -213.319 0.
-128.562 -400.073 0.
-108.774 -352.655 0.
206.567 -357.084 0.
451.376 214.454 0.
459.575 233.859 0.
-359.85 -198.128 0.
-554.854 -654.155 0.
-630.32 -830.312 0.
37.3895 47.5711 0.
-320.767 -787.463 0.
843.479 663.735 0.
338.739 250.979 0.
227.146 -10.1219 0.
-332.429 -397.738 0.
-290.726 -303.893 0.
-249.022 -210.048 0.
-55.8754 -112.229 0.
-85.8817 -186.134 0.
-115.888 -260.038 0.
113.295 -159.799 0.
129.129 -120.855 0.
144.964 -81.9113 0.
354.104 -28.7493 0.
325.799 -88.7819 0.
128.179 -206.972 0.
178.672 -89.3913 0.
229.166 28.1889 0.
187.551 92.8437 0.
212.938 155.263 0.
238.326 217.682 0.
-144.229 65.6094 0.
-157.514 31.3231 0.
-170.8 -2.96329 0.
304.201 121.489 0.
256.555 9.39774 0.
1052.19 259.598 0.
54.8965 -173.052 0.
49.3557 -183.947 0.
-97.1439 -234.54 0.
-43.5193 -107.059 0.
10.1046 20.4218 0.
413.181 254.457 0.
409.295 251.46 0.
405.41 248.464 0.
535.439 261.968 0.
500.849 183.819 0.
466.259 105.67 0.
469.693 66.6912 0.
447.77 17.7253 0.
402.222 -26.7909 0.
445.501 74.38 0.
488.779 175.551 0.
296.671 118.264 0.
257.1 21.0878 0.
217.53 -76.0886 0.
455.996 33.9624 0.
497.418 129.249 0.
538.84 224.536 0.
430.201 209.725 0.
441.213 234.418 0.
-1145.54 -424.203 0.
594.661 10.9519 0.
430.834 -370 0.
149.299 -669.073 0.
291.177 -337.35 0.
433.057 -5.62594 0.
657.342 191.856 0.
604.086 67.0821 0.
550.831 -57.6924 0.
470.669 -173.515 0.
433.349 -259.381 0.
396.027 -345.247 0.
110.353 -326.759 0.
196.823 -122.909 0.
255.024 37.944 0.
199.021 -90.8305 0.
143.019 -219.605 0.
-111.336 -350.155 0.
-35.1668 -171.018 0.
41.0028 8.11847 0.
329.044 193.392 0.
328.001 189.38 0.
326.959 185.367 0.
313.667 208.064 0.
333.885 256.243 0.
324.346 295.082 0.
265.386 134.068 0.
196.229 -29.9571 0.
203.525 -164.089 0.
127.521 -343.631 0.
51.5163 -523.173 0.
102.988 -438.626 0.
271.37 -45.076 0.
439.752 348.475 0.
232.026 297.094 0.
178.216 171.222 0.
124.405 45.3499 0.
298.113 169.581 0.
334.364 252.344 0.
145.932 207.497 0.
53.7429 -7.16586 0.
-38.4459 -221.828 0.
209.565 -228.882 0.
216.766 -214.354 0.
223.967 -199.826 0.
-341.052 -370.571 0.
-278.973 -224.722 0.
-216.894 -78.8735 0.
368.307 151.723 0.
335.958 76.7027 0.
20.0257 340.195 0.
580.881 386.435 0.
469.611 124.989 0.
-292.03 -348.77 0.
-250.213 -254.494 0.
-208.396 -160.217 0.
-103.145 -101.468 0.
-133.112 -175.089 0.
-163.079 -248.711 0.
145.888 -115.012 0.
161.545 -76.2314 0.
177.203 -37.4506 0.
417.646 29.2042 0.
389.359 -30.9477 0.
56.6725 -204.681 0.
107.655 -87.5395 0.
158.637 29.6021 0.
158.806 111.064 0.
184.13 173.877 0.
209.455 236.689 0.
-390.72 -8.53439 0.
-403.545 -42.5402 0.
-416.37 -76.5461 0.
381.715 186.646 0.
334.132 74.8687 0.
103.217 -116.273 0.
-317.867 -301.745 0.
-324.238 -311.983 0.
192.073 -81.0111 0.
244.944 47.09 0.
297.813 175.19 0.
536.482 336.605 0.
532.579 333.556 0.
528.677 330.507 0.
619.786 330.344 0.
585.882 251.082 0.
551.979 171.82 0.
471.49 100.945 0.
450.597 51.1346 0.
607.337 92.6943 0.
650.864 193.778 0.
694.389 294.861 0.
191.71 105.816 0.
151.885 8.54824 0.
112.061 -88.7191 0.
132.476 -73.9141 0.
173.208 22.486 0.
213.941 118.886 0.
698.726 355.505 0.
709.473 380.804 0.
-1697.81 -628.905 0.
671.306 76.4893 0.
507.283 -303.957 0.
131.698 -645.949 0.
274.024 -314.347 0.
416.35 17.2544 0.
694.796 239.87 0.
642.176 115.105 0.
589.556 -9.66076 0.
548.406 -109.023 0.
510.593 -194.309 0.
472.778 -279.594 0.
143.524 -281.913 0.
229.6 -77.6662 0.
217.003 53.4254 0.
160.675 -74.9612 0.
104.347 -203.347 0.
-131.801 -327.536 0.
-55.6974 -148.247 0.
20.4057 31.0421 0.
375.317 244.576 0.
373.812 240.626 0.
372.307 236.675 0.
510.399 324.709 0.
529.857 373.157 0.
384.604 352.509 0.
175.619 125.445 0.
105.773 -38.5237 0.
19.7677 -211.523 0.
-55.5832 -391.71 0.
-130.934 -571.899 0.
-126.074 -504.407 0.
42.2909 -110.839 0.
210.656 282.729 0.
423.363 410.446 0.
369.079 285.011 0.
314.796 159.577 0.
427.94 255.83 0.
463.978 338.802 0.
176.968 252.572 0.
85.5762 37.9195 0.
-5.81548 -176.733 0.
161.854 -218.105 0.
169.803 -203.758 0.
177.753 -189.412 0.
-214.808 -284.296 0.
-152.636 -137.905 0.
-90.4649 8.4866 0.
740.065 339.807 0.
707.656 266.058 0.
