# vtk DataFile Version 2.0
test grain
ASCII
DATASET UNSTRUCTURED_GRID
POINTS 5000 float
0.49987 0.00100115 0.
0.50187 0.00100119 0.
0.50387 0.00100127 0.
0.50587 0.00100133 0.
0.50787 0.00100129 0.
0.509871 0.00100125 0.
0.511872 0.00100102 0.
0.513872 0.00100053 0.
0.515872 0.00100003 0.
0.517873 0.00100001 0.
0.519874 0.00100026 0.
0.521875 0.00100051 0.
0.523875 0.00100056 0.
0.525874 0.00100057 0.
0.527874 0.00100063 0.
0.529872 0.00100121 0.
0.531871 0.00100178 0.
0.53387 0.00100192 0.
0.535871 0.00100104 0.
0.537872 0.00100016 0.
0.539872 0.00100002 0.
0.541871 0.00100055 0.
0.543871 0.00100109 0.
0.54587 0.00100133 0.
0.547868 0.00100145 0.
0.549867 0.00100158 0.
0.551863 0.00100178 0.
0.553858 0.00100198 0.
0.555854 0.00100208 0.
0.557851 0.00100191 0.
0.559848 0.00100173 0.
0.561844 0.00100176 0.
0.563839 0.00100205 0.
0.565834 0.00100233 0.
0.567829 0.00100187 0.
0.569823 0.00100096 0.
0.571818 0.00100005 0.
0.573806 0.00100125 0.
0.575792 0.00100286 0.
0.577779 0.00100446 0.
0.579765 0.00100492 0.
0.58175 0.00100537 0.
0.583735 0.00100569 0.
0.585716 0.00100577 0.
0.587697 0.00100584 0.
0.589677 0.00100473 0.
0.591655 0.00100238 0.
0.593634 0.00100004 0.
0.595723 0.000999688 0.
0.597859 0.000999688 0.
0.6 0.000999682 0.
0.602136 0.000999721 0.
0.604271 0.000999755 0.
0.60636 0.00100004 0.
0.60834 0.00100205 0.
0.61032 0.00100405 0.
0.612301 0.00100514 0.
0.614283 0.0010053 0.
0.616265 0.00100546 0.
0.618249 0.0010055 0.
0.620234 0.00100552 0.
0.622219 0.00100554 0.
0.624205 0.00100469 0.
0.62619 0.00100379 0.
0.628177 0.00100286 0.
0.630171 0.00100164 0.
0.632165 0.00100043 0.
0.63416 0.00100003 0.
0.636157 0.00100092 0.
0.638154 0.00100182 0.
0.640151 0.00100211 0.
0.642149 0.00100203 0.
0.644146 0.00100196 0.
0.646141 0.00100212 0.
0.648136 0.00100232 0.
0.65013 0.00100253 0.
0.65213 0.00100218 0.
0.654129 0.00100183 0.
0.656129 0.00100139 0.
0.658128 0.00100072 0.
0.660128 0.00100005 0.
0.662129 0.0010002 0.
0.66413 0.00100117 0.
0.666132 0.00100214 0.
0.668131 0.00100231 0.
0.670129 0.00100217 0.
0.672127 0.00100204 0.
0.674126 0.00100172 0.
0.676126 0.00100137 0.
0.678125 0.00100105 0.
0.680125 0.00100101 0.
0.682124 0.00100096 0.
0.684124 0.0010009 0.
0.686125 0.00100079 0.
0.688125 0.00100068 0.
0.690126 0.00100079 0.
0.692126 0.00100107 0.
0.694127 0.00100134 0.
0.696128 0.00100126 0.
0.698129 0.0010011 0.
0.499871 0.00300343 0.
0.501871 0.00300357 0.
0.503871 0.0030038 0.
0.505871 0.00300399 0.
0.507872 0.00300386 0.
0.509872 0.00300374 0.
0.511872 0.00300307 0.
0.513873 0.00300159 0.
0.515873 0.0030001 0.
0.517873 0.00300002 0.
0.519874 0.00300077 0.
0.521875 0.00300153 0.
0.523875 0.00300168 0.
0.525874 0.00300172 0.
0.527874 0.00300189 0.
0.529873 0.00300361 0.
0.531872 0.00300533 0.
0.53387 0.00300575 0.
0.535868 0.00300312 0.
0.537866 0.0030005 0.
0.539867 0.00300006 0.
0.541871 0.00300166 0.
0.543875 0.00300326 0.
0.545874 0.00300398 0.
0.547871 0.00300437 0.
0.549869 0.00300475 0.
0.551864 0.00300535 0.
0.55386 0.00300593 0.
0.555856 0.00300625 0.
0.557852 0.00300572 0.
0.559848 0.0030052 0.
0.561844 0.0030053 0.
0.56384 0.00300616 0.
0.565835 0.00300702 0.
0.567831 0.00300561 0.
0.569826 0.00300287 0.
0.571821 0.00300013 0.
0.57381 0.00300375 0.
0.575798 0.00300859 0.
0.577786 0.00301338 0.
0.579772 0.00301475 0.
0.581759 0.00301612 0.
0.583743 0.00301705 0.
0.585723 0.00301729 0.
0.587703 0.00301753 0.
0.589685 0.00301415 0.
0.591668 0.00300709 0.
0.593652 0.00300005 0.
0.595738 0.00299902 0.
0.597867 0.00299904 0.
0.599999 0.00299904 0.
0.602129 0.00299914 0.
0.604259 0.00299922 0.
0.606345 0.00300008 0.
0.608328 0.0030061 0.
0.610312 0.00301213 0.
0.612294 0.00301539 0.
0.614275 0.00301588 0.
0.616256 0.00301638 0.
0.618241 0.00301652 0.
0.620227 0.00301658 0.
0.622213 0.00301663 0.
0.624199 0.00301407 0.
0.626186 0.00301139 0.
0.628173 0.00300856 0.
0.630167 0.00300493 0.
0.63216 0.0030013 0.
0.634156 0.00300007 0.
0.636155 0.00300276 0.
0.638154 0.00300545 0.
0.640151 0.00300635 0.
0.642148 0.00300612 0.
0.644145 0.00300589 0.
0.64614 0.00300634 0.
0.648134 0.00300696 0.
0.650128 0.00300759 0.
0.652124 0.00300655 0.
0.654121 0.00300552 0.
0.65612 0.00300415 0.
0.658126 0.00300215 0.
0.660132 0.00300014 0.
0.662135 0.0030006 0.
0.664134 0.00300351 0.
0.666132 0.00300642 0.
0.66813 0.00300692 0.
0.670128 0.00300652 0.
0.672126 0.00300612 0.
0.674125 0.00300516 0.
0.676124 0.0030041 0.
0.678124 0.00300316 0.
0.680124 0.00300302 0.
0.682124 0.00300288 0.
0.684124 0.00300269 0.
0.686125 0.00300236 0.
0.688125 0.00300203 0.
0.690126 0.00300239 0.
0.692126 0.0030032 0.
0.694126 0.00300402 0.
0.696127 0.00300378 0.
0.698128 0.0030033 0.
0.499871 0.0050057 0.
0.501872 0.00500595 0.
0.503873 0.00500634 0.
0.505873 0.00500666 0.
0.507873 0.00500644 0.
0.509873 0.00500623 0.
0.511873 0.00500512 0.
0.513873 0.00500265 0.
0.515873 0.00500017 0.
0.517874 0.00500003 0.
0.519875 0.00500129 0.
0.521876 0.00500255 0.
0.523875 0.00500279 0.
0.525874 0.00500287 0.
0.527873 0.00500315 0.
0.529873 0.00500601 0.
0.531872 0.00500887 0.
0.533871 0.00500958 0.
0.535866 0.00500522 0.
0.537861 0.00500086 0.
0.539863 0.00500011 0.
0.541871 0.00500278 0.
0.543879 0.00500545 0.
0.545878 0.00500665 0.
0.547874 0.00500728 0.
0.54987 0.00500792 0.
0.551866 0.0050089 0.
0.553862 0.00500988 0.
0.555857 0.00501041 0.
0.557853 0.00500954 0.
0.559849 0.00500866 0.
0.561845 0.00500885 0.
0.563841 0.00501029 0.
0.565837 0.00501173 0.
0.567833 0.00500934 0.
0.569829 0.00500477 0.
0.571825 0.00500021 0.
0.573815 0.00500626 0.
0.575804 0.00501434 0.
0.577793 0.0050223 0.
0.57978 0.00502457 0.
0.581767 0.00502686 0.
0.583752 0.0050284 0.
0.585731 0.00502879 0.
0.58771 0.00502922 0.
0.589693 0.00502356 0.
0.591681 0.00501174 0.
0.593669 0.00499999 0.
0.595753 0.00499832 0.
0.597874 0.00499867 0.
0.6 0.00499943 0.
0.602123 0.00499884 0.
0.604246 0.00499865 0.
0.60633 0.00500007 0.
0.608317 0.00501012 0.
0.610303 0.0050202 0.
0.612287 0.00502562 0.
0.614267 0.00502644 0.
0.616248 0.00502727 0.
0.618233 0.00502752 0.
0.62022 0.00502761 0.
0.622207 0.00502771 0.
0.624194 0.00502344 0.
0.626181 0.00501899 0.
0.628169 0.00501428 0.
0.630163 0.00500822 0.
0.632156 0.00500218 0.
0.634152 0.00500012 0.
0.636153 0.0050046 0.
0.638153 0.00500906 0.
0.640151 0.00501059 0.
0.642148 0.00501021 0.
0.644144 0.00500984 0.
0.646138 0.00501055 0.
0.648132 0.00501159 0.
0.650125 0.00501267 0.
0.652119 0.00501094 0.
0.654112 0.00500921 0.
0.656111 0.00500692 0.
0.658124 0.00500359 0.
0.660137 0.00500024 0.
0.662141 0.00500105 0.
0.664137 0.00500587 0.
0.666132 0.0050107 0.
0.668129 0.00501152 0.
0.670127 0.00501086 0.
0.672125 0.00501021 0.
0.674124 0.00500859 0.
0.676123 0.00500683 0.
0.678123 0.00500527 0.
0.680123 0.00500503 0.
0.682124 0.00500479 0.
0.684124 0.00500447 0.
0.686125 0.00500392 0.
0.688126 0.00500337 0.
0.690126 0.00500398 0.
0.692126 0.00500533 0.
0.694126 0.0050067 0.
0.696127 0.00500631 0.
0.698128 0.00500552 0.
0.499872 0.00700855 0.
0.501873 0.00700892 0.
0.503874 0.00700935 0.
0.505875 0.0070097 0.
0.507875 0.00700948 0.
0.509875 0.00700927 0.
0.511875 0.00700885 0.
0.513875 0.00700805 0.
0.515875 0.00700726 0.
0.517876 0.00700706 0.
0.519876 0.00700724 0.
0.521876 0.00700743 0.
0.523876 0.00700819 0.
0.525875 0.00700904 0.
0.527875 0.00700995 0.
0.529875 0.007012 0.
0.531874 0.00701405 0.
0.533873 0.00701574 0.
0.53587 0.00701646 0.
0.537867 0.00701719 0.
0.539868 0.00701684 0.
0.541872 0.00701541 0.
0.543876 0.00701401 0.
0.545876 0.00701399 0.
0.547873 0.00701449 0.
0.54987 0.00701499 0.
0.551867 0.0070153 0.
0.553864 0.00701557 0.
0.55586 0.00701586 0.
0.557857 0.00701668 0.
0.559853 0.00701749 0.
0.561849 0.00701821 0.
0.563846 0.00701864 0.
0.565842 0.00701908 0.
0.567838 0.00701936 0.
0.569834 0.0070196 0.
0.571831 0.00701985 0.
0.573822 0.00702477 0.
0.575812 0.00703061 0.
0.577802 0.00703628 0.
0.579792 0.00703748 0.
0.581782 0.0070387 0.
0.58377 0.00703945 0.
0.585756 0.00703922 0.
0.587742 0.00703903 0.
0.589731 0.00703056 0.
0.591722 0.00701377 0.
0.593713 0.00699708 0.
0.595786 0.00701745 0.
0.597892 0.00705306 0.
0.6 0.00708965 0.
0.602106 0.00705397 0.
0.604212 0.00701924 0.
0.606284 0.00699915 0.
0.608275 0.00701444 0.
0.610265 0.00702979 0.
0.612253 0.00703773 0.
0.614241 0.00703824 0.
0.616228 0.00703876 0.
0.618217 0.0070384 0.
0.620207 0.00703776 0.
0.622197 0.00703714 0.
0.624187 0.00703219 0.
0.626176 0.00702703 0.
0.628167 0.00702256 0.
0.630161 0.0070216 0.
0.632155 0.00702067 0.
0.63415 0.00702008 0.
0.636149 0.00701992 0.
0.638147 0.00701976 0.
0.640145 0.0070195 0.
0.642142 0.00701921 0.
0.644139 0.00701891 0.
0.646135 0.007019 0.
0.64813 0.00701921 0.
0.650126 0.00701945 0.
0.652122 0.0070196 0.
0.654119 0.00701977 0.
0.656118 0.00702047 0.
0.658124 0.00702276 0.
0.66013 0.00702507 0.
0.662132 0.00702518 0.
0.664129 0.00702295 0.
0.666126 0.00702074 0.
0.668125 0.00701883 0.
0.670124 0.00701709 0.
0.672123 0.00701536 0.
0.674123 0.00701356 0.
0.676122 0.00701172 0.
0.678122 0.00701002 0.
0.680122 0.0070093 0.
0.682123 0.00700856 0.
0.684123 0.00700807 0.
0.686124 0.00700788 0.
0.688124 0.00700769 0.
0.690124 0.00700812 0.
0.692124 0.00700894 0.
0.694125 0.00700977 0.
0.696125 0.00700994 0.
0.698126 0.00700999 0.
0.499873 0.00901131 0.
0.501874 0.00901189 0.
0.503875 0.00901237 0.
0.505876 0.00901273 0.
0.507876 0.00901252 0.
0.509876 0.00901231 0.
0.511876 0.00901258 0.
0.513877 0.00901346 0.
0.515878 0.00901435 0.
0.517878 0.00901408 0.
0.519877 0.00901319 0.
0.521877 0.00901231 0.
0.523877 0.00901358 0.
0.525877 0.00901521 0.
0.527877 0.00901674 0.
0.529876 0.00901799 0.
0.531876 0.00901924 0.
0.533875 0.00902189 0.
0.535874 0.0090277 0.
0.537874 0.00903352 0.
0.539873 0.00903355 0.
0.541874 0.00902806 0.
0.543874 0.00902259 0.
0.545873 0.00902134 0.
0.547872 0.0090217 0.
0.54987 0.00902206 0.
0.551868 0.00902171 0.
0.553866 0.00902127 0.
0.555863 0.00902131 0.
0.55786 0.00902382 0.
0.559857 0.00902632 0.
0.561854 0.00902757 0.
0.563851 0.009027 0.
0.565848 0.00902644 0.
0.567844 0.00902937 0.
0.56984 0.00903442 0.
0.571836 0.00903948 0.
0.573828 0.00904329 0.
0.575819 0.0090469 0.
0.577811 0.00905025 0.
0.579803 0.0090504 0.
0.581796 0.00905056 0.
0.583789 0.00905046 0.
0.585782 0.00904961 0.
0.587775 0.00904882 0.
0.589768 0.00903743 0.
0.591762 0.00901562 0.
0.593756 0.00899393 0.
0.595819 0.00903763 0.
0.597909 0.00910796 0.
0.6 0.00917979 0.
0.602088 0.00910958 0.
0.604177 0.00904084 0.
0.606239 0.00899805 0.
0.608233 0.00901862 0.
0.610226 0.00903925 0.
0.61222 0.00904983 0.
0.614214 0.00905003 0.
0.616207 0.00905023 0.
0.618201 0.00904929 0.
0.620194 0.00904792 0.
0.622187 0.00904656 0.
0.624179 0.00904095 0.
0.626172 0.00903509 0.
0.628164 0.00903082 0.
0.630159 0.00903496 0.
0.632153 0.00903914 0.
0.634148 0.00904003 0.
0.636144 0.00903525 0.
0.638141 0.00903048 0.
0.640138 0.00902842 0.
0.642136 0.00902821 0.
0.644134 0.009028 0.
0.646131 0.00902745 0.
0.648129 0.00902683 0.
0.650126 0.00902622 0.
0.652125 0.00902826 0.
0.654125 0.00903032 0.
0.656125 0.00903404 0.
0.658124 0.00904193 0.
0.660124 0.00904985 0.
0.662123 0.00904935 0.
0.664122 0.00904006 0.
0.66612 0.0090308 0.
0.66812 0.00902614 0.
0.670121 0.00902333 0.
0.672121 0.00902051 0.
0.674121 0.00901853 0.
0.676121 0.00901661 0.
0.678121 0.00901478 0.
0.680121 0.00901356 0.
0.682121 0.00901233 0.
0.684122 0.00901167 0.
0.686122 0.00901184 0.
0.688123 0.00901201 0.
0.690123 0.00901225 0.
0.692123 0.00901254 0.
0.694123 0.00901283 0.
0.696124 0.00901359 0.
0.698124 0.00901446 0.
0.499875 0.0110144 0.
0.501876 0.0110148 0.
0.503877 0.0110149 0.
0.505877 0.011015 0.
0.507877 0.0110148 0.
0.509877 0.0110147 0.
0.511877 0.0110152 0.
0.513878 0.0110167 0.
0.515879 0.0110181 0.
0.517879 0.0110179 0.
0.519878 0.0110166 0.
0.521878 0.0110154 0.
0.523878 0.0110168 0.
0.525878 0.0110188 0.
0.527878 0.0110206 0.
0.529878 0.0110216 0.
0.531878 0.0110226 0.
0.533877 0.0110254 0.
0.535878 0.0110325 0.
0.537878 0.0110396 0.
0.539877 0.0110399 0.
0.541876 0.0110337 0.
0.543875 0.0110275 0.
0.545874 0.0110258 0.
0.547873 0.0110257 0.
0.549873 0.0110257 0.
0.551871 0.0110256 0.
0.553869 0.0110254 0.
0.555868 0.0110257 0.
0.557865 0.0110286 0.
0.559863 0.0110314 0.
0.56186 0.0110328 0.
0.563858 0.0110322 0.
0.565855 0.0110317 0.
0.567852 0.0110354 0.
0.569848 0.0110416 0.
0.571844 0.0110479 0.
0.573839 0.0110514 0.
0.575832 0.0110545 0.
0.577826 0.0110573 0.
0.579822 0.0110567 0.
0.581818 0.0110562 0.
0.583814 0.0110551 0.
0.585813 0.0110529 0.
0.587811 0.0110507 0.
0.58981 0.0110388 0.
0.591809 0.0110177 0.
0.593808 0.0109965 0.
0.59586 0.0110426 0.
0.597932 0.0111123 0.
0.600003 0.0111809 0.
0.60207 0.0111146 0.
0.604138 0.0110472 0.
0.606187 0.0110024 0.
0.608186 0.0110219 0.
0.610185 0.0110414 0.
0.612184 0.0110521 0.
0.614183 0.0110535 0.
0.616181 0.0110549 0.
0.618179 0.0110544 0.
0.620175 0.0110529 0.
0.622171 0.0110515 0.
0.624166 0.0110461 0.
0.626161 0.0110404 0.
0.628155 0.0110365 0.
0.630151 0.011042 0.
0.632147 0.0110476 0.
0.634143 0.011049 0.
0.636139 0.0110431 0.
0.638135 0.0110372 0.
0.640132 0.0110344 0.
0.64213 0.0110337 0.
0.644129 0.0110331 0.
0.646127 0.0110321 0.
0.648125 0.0110311 0.
0.650124 0.0110301 0.
0.652124 0.0110332 0.
0.654125 0.0110363 0.
0.656125 0.0110411 0.
0.658122 0.01105 0.
0.660119 0.0110588 0.
0.662118 0.011058 0.
0.664118 0.0110471 0.
0.666118 0.0110362 0.
0.668119 0.0110307 0.
0.670119 0.0110273 0.
0.67212 0.0110239 0.
0.67412 0.0110218 0.
0.67612 0.0110198 0.
0.67812 0.0110179 0.
0.68012 0.0110165 0.
0.68212 0.0110152 0.
0.68412 0.0110144 0.
0.686121 0.0110147 0.
0.688121 0.0110149 0.
0.690121 0.0110151 0.
0.692121 0.0110153 0.
0.694122 0.0110155 0.
0.696122 0.0110168 0.
0.698122 0.0110183 0.
0.499878 0.0130179 0.
0.501878 0.0130175 0.
0.503878 0.0130169 0.
0.505878 0.0130165 0.
0.507878 0.0130164 0.
0.509878 0.0130163 0.
0.511878 0.0130166 0.
0.513878 0.0130176 0.
0.515879 0.0130186 0.
0.51788 0.0130184 0.
0.51988 0.0130175 0.
0.52188 0.0130165 0.
0.52388 0.0130179 0.
0.52588 0.0130198 0.
0.52788 0.0130215 0.
0.52988 0.0130228 0.
0.531879 0.013024 0.
0.53388 0.0130263 0.
0.53588 0.0130311 0.
0.53788 0.0130359 0.
0.53988 0.0130363 0.
0.54188 0.0130325 0.
0.543879 0.0130288 0.
0.545879 0.0130273 0.
0.547878 0.0130267 0.
0.549877 0.013026 0.
0.551876 0.013027 0.
0.553875 0.0130279 0.
0.555873 0.013029 0.
0.557871 0.0130309 0.
0.559869 0.0130328 0.
0.561867 0.013034 0.
0.563865 0.0130343 0.
0.565863 0.0130347 0.
0.56786 0.0130374 0.
0.569858 0.0130414 0.
0.571856 0.0130454 0.
0.573854 0.0130496 0.
0.575851 0.0130538 0.
0.577849 0.0130576 0.
0.579847 0.0130566 0.
0.581846 0.0130557 0.
0.583846 0.0130538 0.
0.585849 0.0130493 0.
0.587852 0.013045 0.
0.589857 0.013035 0.
0.591863 0.01302 0.
0.593869 0.0130049 0.
0.595908 0.0130319 0.
0.597958 0.0130725 0.
0.600007 0.0131124 0.
0.602051 0.0130755 0.
0.604095 0.0130379 0.
0.606129 0.0130124 0.
0.608135 0.0130245 0.
0.610141 0.0130366 0.
0.612145 0.0130448 0.
0.614148 0.0130489 0.
0.61615 0.0130531 0.
0.618151 0.0130538 0.
0.62015 0.013053 0.
0.62215 0.0130522 0.
0.624147 0.0130478 0.
0.626144 0.013043 0.
0.628141 0.0130395 0.
0.630138 0.013043 0.
0.632136 0.0130465 0.
0.634134 0.0130473 0.
0.636131 0.0130436 0.
0.638129 0.0130398 0.
0.640127 0.0130373 0.
0.642125 0.0130358 0.
0.644123 0.0130342 0.
0.646122 0.0130331 0.
0.64812 0.0130321 0.
0.650119 0.0130311 0.
0.652119 0.0130345 0.
0.654119 0.0130379 0.
0.656118 0.0130419 0.
0.658117 0.0130473 0.
0.660117 0.0130528 0.
0.662117 0.013052 0.
0.664118 0.0130445 0.
0.666119 0.013037 0.
0.668119 0.0130324 0.
0.67012 0.0130289 0.
0.67212 0.0130255 0.
0.67412 0.0130233 0.
0.676119 0.0130212 0.
0.678119 0.0130193 0.
0.680119 0.0130182 0.
0.682119 0.0130171 0.
0.684119 0.0130164 0.
0.686119 0.0130164 0.
0.688119 0.0130164 0.
0.690119 0.0130167 0.
0.692119 0.0130172 0.
0.69412 0.0130176 0.
0.696119 0.0130194 0.
0.698118 0.0130214 0.
0.499881 0.0150215 0.
0.50188 0.0150202 0.
0.50388 0.015019 0.
0.505879 0.015018 0.
0.507879 0.0150179 0.
0.509878 0.0150178 0.
0.511878 0.0150181 0.
0.513879 0.0150186 0.
0.515879 0.0150192 0.
0.51788 0.015019 0.
0.519881 0.0150183 0.
0.521882 0.0150177 0.
0.523882 0.015019 0.
0.525881 0.0150208 0.
0.527881 0.0150225 0.
0.529881 0.015024 0.
0.531881 0.0150254 0.
0.533882 0.0150272 0.
0.535882 0.0150296 0.
0.537883 0.0150321 0.
0.539883 0.0150327 0.
0.541883 0.0150313 0.
0.543883 0.01503 0.
0.545883 0.0150288 0.
0.547883 0.0150276 0.
0.549882 0.0150263 0.
0.551881 0.0150283 0.
0.55388 0.0150305 0.
0.555878 0.0150323 0.
0.557877 0.0150332 0.
0.559875 0.0150341 0.
0.561874 0.0150351 0.
0.563872 0.0150364 0.
0.565871 0.0150377 0.
0.567869 0.0150393 0.
0.569868 0.0150411 0.
0.571868 0.015043 0.
0.573868 0.0150478 0.
0.57587 0.0150531 0.
0.577871 0.0150578 0.
0.579873 0.0150565 0.
0.581875 0.0150552 0.
0.583878 0.0150523 0.
0.585886 0.0150457 0.
0.587893 0.0150392 0.
0.589904 0.0150313 0.
0.591917 0.0150223 0.
0.59393 0.0150134 0.
0.595955 0.0150205 0.
0.597983 0.0150326 0.
0.600012 0.0150446 0.
0.602032 0.0150363 0.
0.604052 0.015028 0.
0.606071 0.0150227 0.
0.608084 0.0150273 0.
0.610097 0.015032 0.
0.612106 0.0150376 0.
0.614113 0.0150443 0.
0.616119 0.0150511 0.
0.618123 0.0150531 0.
0.620126 0.015053 0.
0.622128 0.0150529 0.
0.624128 0.0150494 0.
0.626127 0.0150455 0.
0.628126 0.0150424 0.
0.630125 0.0150439 0.
0.632125 0.0150454 0.
0.634125 0.0150457 0.
0.636124 0.015044 0.
0.638123 0.0150424 0.
0.640121 0.0150402 0.
0.642119 0.0150378 0.
0.644117 0.0150354 0.
0.646116 0.0150341 0.
0.648116 0.0150331 0.
0.650115 0.0150321 0.
0.652114 0.0150358 0.
0.654113 0.0150394 0.
0.656112 0.0150426 0.
0.658113 0.0150447 0.
0.660114 0.0150468 0.
0.662116 0.015046 0.
0.664118 0.0150419 0.
0.66612 0.0150378 0.
0.66812 0.0150341 0.
0.67012 0.0150306 0.
0.67212 0.0150271 0.
0.674119 0.0150248 0.
0.676118 0.0150227 0.
0.678118 0.0150207 0.
0.680118 0.0150198 0.
0.682117 0.0150189 0.
0.684117 0.0150183 0.
0.686118 0.0150181 0.
0.688118 0.0150179 0.
0.690118 0.0150183 0.
0.692118 0.015019 0.
0.694117 0.0150198 0.
0.696116 0.0150221 0.
0.698115 0.0150246 0.
0.499881 0.0170242 0.
0.501881 0.0170229 0.
0.503881 0.0170216 0.
0.50588 0.0170204 0.
0.50788 0.0170198 0.
0.50988 0.0170193 0.
0.51188 0.0170191 0.
0.513881 0.0170195 0.
0.515881 0.0170198 0.
0.517882 0.0170197 0.
0.519883 0.0170193 0.
0.521884 0.0170189 0.
0.523883 0.01702 0.
0.525883 0.0170213 0.
0.527882 0.0170226 0.
0.529882 0.0170243 0.
0.531883 0.017026 0.
0.533884 0.0170276 0.
0.535884 0.0170293 0.
0.537885 0.0170309 0.
0.539886 0.0170314 0.
0.541886 0.017031 0.
0.543886 0.0170305 0.
0.545886 0.0170296 0.
0.547886 0.0170285 0.
0.549885 0.0170274 0.
0.551884 0.0170293 0.
0.553883 0.0170314 0.
0.555882 0.0170333 0.
0.55788 0.0170343 0.
0.559879 0.0170354 0.
0.561878 0.0170364 0.
0.563878 0.0170372 0.
0.565877 0.017038 0.
0.567877 0.0170394 0.
0.569877 0.0170411 0.
0.571877 0.0170428 0.
0.573878 0.0170467 0.
0.57588 0.0170511 0.
0.577882 0.0170549 0.
0.579886 0.0170528 0.
0.581889 0.0170507 0.
0.583894 0.0170472 0.
0.585902 0.0170401 0.
0.587909 0.0170331 0.
0.589919 0.0170258 0.
0.59193 0.0170182 0.
0.593942 0.0170106 0.
0.595962 0.0170151 0.
0.597986 0.0170232 0.
0.600009 0.0170314 0.
0.602027 0.0170268 0.
0.604045 0.0170223 0.
0.606062 0.0170198 0.
0.608072 0.0170241 0.
0.610083 0.0170285 0.
0.612092 0.0170337 0.
0.614098 0.0170398 0.
0.616105 0.017046 0.
0.61811 0.0170486 0.
0.620113 0.0170498 0.
0.622117 0.0170509 0.
0.624118 0.0170479 0.
0.626118 0.0170445 0.
0.628118 0.0170418 0.
0.630118 0.0170431 0.
0.632118 0.0170445 0.
0.634118 0.017045 0.
0.636118 0.0170438 0.
0.638117 0.0170427 0.
0.640117 0.0170409 0.
0.642116 0.0170387 0.
0.644115 0.0170365 0.
0.646114 0.0170353 0.
0.648113 0.0170343 0.
0.650112 0.0170334 0.
0.652111 0.0170367 0.
0.65411 0.01704 0.
0.656109 0.0170426 0.
0.658111 0.0170433 0.
0.660112 0.017044 0.
0.662114 0.0170432 0.
0.664116 0.0170407 0.
0.666117 0.0170382 0.
0.668118 0.0170353 0.
0.670118 0.0170322 0.
0.672118 0.0170292 0.
0.674117 0.0170266 0.
0.676117 0.017024 0.
0.678116 0.0170217 0.
0.680116 0.017021 0.
0.682116 0.0170203 0.
0.684116 0.0170198 0.
0.686116 0.0170197 0.
0.688116 0.0170196 0.
0.690116 0.0170203 0.
0.692116 0.0170215 0.
0.694116 0.0170227 0.
0.696115 0.0170247 0.
0.698115 0.0170268 0.
0.499882 0.0190269 0.
0.501882 0.0190256 0.
0.503881 0.0190242 0.
0.505881 0.0190228 0.
0.507881 0.0190218 0.
0.509881 0.0190207 0.
0.511882 0.0190201 0.
0.513883 0.0190203 0.
0.515884 0.0190205 0.
0.517884 0.0190205 0.
0.519885 0.0190203 0.
0.521886 0.0190201 0.
0.523885 0.0190209 0.
0.525884 0.0190218 0.
0.527883 0.0190228 0.
0.529884 0.0190247 0.
0.531885 0.0190266 0.
0.533886 0.0190281 0.
0.535886 0.0190289 0.
0.537887 0.0190297 0.
0.539888 0.0190302 0.
0.541889 0.0190305 0.
0.543889 0.0190309 0.
0.545889 0.0190303 0.
0.547889 0.0190294 0.
0.549888 0.0190284 0.
0.551887 0.0190304 0.
0.553886 0.0190324 0.
0.555885 0.0190342 0.
0.557884 0.0190355 0.
0.559883 0.0190367 0.
0.561883 0.0190376 0.
0.563883 0.019038 0.
0.565883 0.0190384 0.
0.567884 0.0190395 0.
0.569885 0.019041 0.
0.571886 0.0190426 0.
0.573888 0.0190457 0.
0.575891 0.0190491 0.
0.577894 0.0190519 0.
0.579899 0.0190491 0.
0.581904 0.0190463 0.
0.58391 0.019042 0.
0.585918 0.0190345 0.
0.587926 0.0190271 0.
0.589934 0.0190203 0.
0.591944 0.019014 0.
0.593954 0.0190078 0.
0.59597 0.0190097 0.
0.597988 0.0190139 0.
0.600006 0.0190181 0.
0.602022 0.0190173 0.
0.604038 0.0190165 0.
0.606052 0.0190169 0.
0.608061 0.019021 0.
0.610069 0.0190251 0.
0.612077 0.0190298 0.
0.614084 0.0190353 0.
0.616091 0.0190408 0.
0.618096 0.0190441 0.
0.620101 0.0190465 0.
0.622106 0.0190489 0.
0.624108 0.0190464 0.
0.626109 0.0190435 0.
0.62811 0.0190411 0.
0.630111 0.0190424 0.
0.632111 0.0190437 0.
0.634111 0.0190443 0.
0.636112 0.0190436 0.
0.638112 0.019043 0.
0.640112 0.0190415 0.
0.642112 0.0190396 0.
0.644112 0.0190376 0.
0.646111 0.0190365 0.
0.64811 0.0190355 0.
0.650108 0.0190346 0.
0.652108 0.0190376 0.
0.654107 0.0190406 0.
0.656107 0.0190426 0.
0.658109 0.0190419 0.
0.66011 0.0190412 0.
0.662112 0.0190405 0.
0.664114 0.0190395 0.
0.666115 0.0190386 0.
0.668116 0.0190364 0.
0.670116 0.0190339 0.
0.672116 0.0190314 0.
0.674116 0.0190284 0.
0.676115 0.0190253 0.
0.678115 0.0190227 0.
0.680114 0.0190221 0.
0.682114 0.0190216 0.
0.684114 0.0190212 0.
0.686114 0.0190213 0.
0.688114 0.0190214 0.
0.690114 0.0190224 0.
0.692114 0.019024 0.
0.694114 0.0190256 0.
0.696114 0.0190273 0.
0.698114 0.0190291 0.
0.499883 0.0210289 0.
0.501883 0.0210276 0.
0.503883 0.0210262 0.
0.505883 0.0210248 0.
0.507883 0.0210235 0.
0.509884 0.0210222 0.
0.511884 0.0210213 0.
0.513885 0.0210212 0.
0.515886 0.0210212 0.
0.517887 0.021021 0.
0.519887 0.0210209 0.
0.521888 0.0210208 0.
0.523887 0.0210214 0.
0.525886 0.0210222 0.
0.527886 0.0210229 0.
0.529887 0.0210248 0.
0.531888 0.0210267 0.
0.533889 0.0210281 0.
0.535889 0.0210285 0.
0.53789 0.0210289 0.
0.539891 0.0210294 0.
0.541892 0.0210299 0.
0.543893 0.0210305 0.
0.545893 0.0210301 0.
0.547893 0.0210293 0.
0.549892 0.0210285 0.
0.551892 0.0210305 0.
0.553891 0.0210327 0.
0.55589 0.0210347 0.
0.55789 0.0210358 0.
0.559889 0.021037 0.
0.561889 0.0210377 0.
0.56389 0.0210377 0.
0.565891 0.0210376 0.
0.567892 0.0210385 0.
0.569894 0.0210398 0.
0.571896 0.0210412 0.
0.573899 0.0210434 0.
0.575902 0.0210458 0.
0.577906 0.0210477 0.
0.579912 0.0210443 0.
0.581917 0.021041 0.
0.583924 0.0210364 0.
0.585931 0.0210292 0.
0.587938 0.0210221 0.
0.589946 0.021016 0.
0.591954 0.0210107 0.
0.593963 0.0210055 0.
0.595976 0.0210056 0.
0.59799 0.0210072 0.
0.600004 0.0210088 0.
0.602018 0.0210103 0.
0.604032 0.0210117 0.
0.606044 0.0210137 0.
0.608051 0.0210175 0.
0.610058 0.0210213 0.
0.612065 0.0210257 0.
0.614071 0.0210307 0.
0.616078 0.0210357 0.
0.618084 0.0210395 0.
0.620089 0.0210426 0.
0.622094 0.0210457 0.
0.624096 0.0210439 0.
0.626099 0.0210417 0.
0.6281 0.02104 0.
0.630101 0.0210411 0.
0.632102 0.0210423 0.
0.634103 0.021043 0.
0.636104 0.0210427 0.
0.638105 0.0210425 0.
0.640106 0.0210415 0.
0.642107 0.02104 0.
0.644108 0.0210385 0.
0.646107 0.0210373 0.
0.648105 0.0210361 0.
0.650104 0.021035 0.
0.652104 0.0210374 0.
0.654104 0.0210398 0.
0.656104 0.0210413 0.
0.658106 0.0210403 0.
0.660108 0.0210393 0.
0.662109 0.0210387 0.
0.664111 0.0210385 0.
0.666112 0.0210383 0.
0.668113 0.0210368 0.
0.670113 0.0210347 0.
0.672114 0.0210326 0.
0.674113 0.0210297 0.
0.676113 0.0210266 0.
0.678112 0.0210239 0.
0.680112 0.0210234 0.
0.682112 0.0210229 0.
0.684112 0.0210226 0.
0.686112 0.0210228 0.
0.688112 0.0210231 0.
0.690112 0.0210243 0.
0.692112 0.0210261 0.
0.694112 0.021028 0.
0.696112 0.0210297 0.
0.698113 0.0210313 0.
0.499886 0.0230301 0.
0.501886 0.0230289 0.
0.503885 0.0230276 0.
0.505885 0.0230264 0.
0.507886 0.023025 0.
0.509887 0.0230237 0.
0.511888 0.0230227 0.
0.513888 0.0230222 0.
0.515889 0.0230217 0.
0.517889 0.0230214 0.
0.51989 0.0230212 0.
0.52189 0.0230211 0.
0.52389 0.0230217 0.
0.52589 0.0230224 0.
0.52789 0.0230231 0.
0.529891 0.0230247 0.
0.531892 0.0230263 0.
0.533892 0.0230275 0.
0.535893 0.0230281 0.
0.537893 0.0230286 0.
0.539894 0.0230289 0.
0.541896 0.0230291 0.
0.543897 0.0230293 0.
0.545898 0.0230289 0.
0.547898 0.0230282 0.
0.549898 0.0230275 0.
0.551898 0.0230299 0.
0.553897 0.0230324 0.
0.555897 0.0230346 0.
0.557897 0.0230355 0.
0.559898 0.0230363 0.
0.561898 0.0230367 0.
0.563899 0.0230363 0.
0.565899 0.0230359 0.
0.567901 0.0230364 0.
0.569904 0.0230375 0.
0.571907 0.0230386 0.
0.57391 0.0230399 0.
0.575914 0.0230413 0.
0.577919 0.0230422 0.
0.579924 0.0230385 0.
0.581929 0.0230348 0.
0.583935 0.0230303 0.
0.585941 0.0230241 0.
0.587948 0.0230181 0.
0.589955 0.0230128 0.
0.591962 0.0230081 0.
0.593969 0.0230035 0.
0.59598 0.0230028 0.
0.597992 0.0230032 0.
0.600003 0.0230035 0.
0.602014 0.0230056 0.
0.604026 0.0230077 0.
0.606036 0.0230101 0.
0.608042 0.0230137 0.
0.610049 0.0230172 0.
0.612055 0.0230213 0.
0.614061 0.0230261 0.
0.616066 0.0230309 0.
0.618071 0.0230347 0.
0.620076 0.0230381 0.
0.622081 0.0230414 0.
0.624084 0.0230405 0.
0.626087 0.0230392 0.
0.62809 0.0230383 0.
0.630091 0.0230393 0.
0.632092 0.0230403 0.
0.634093 0.023041 0.
0.636095 0.0230412 0.
0.638098 0.0230413 0.
0.640099 0.0230408 0.
0.6421 0.0230399 0.
0.644101 0.023039 0.
0.646101 0.0230376 0.
0.6481 0.023036 0.
0.650099 0.0230344 0.
0.6521 0.0230361 0.
0.6541 0.0230378 0.
0.656101 0.0230389 0.
0.658103 0.0230385 0.
0.660105 0.0230381 0.
0.662106 0.0230378 0.
0.664107 0.0230377 0.
0.666108 0.0230375 0.
0.668109 0.0230363 0.
0.67011 0.0230347 0.
0.67211 0.023033 0.
0.67411 0.0230304 0.
0.676109 0.0230277 0.
0.678109 0.0230253 0.
0.680109 0.0230247 0.
0.68211 0.0230241 0.
0.68411 0.0230239 0.
0.68611 0.0230243 0.
0.688109 0.0230248 0.
0.690109 0.0230261 0.
0.69211 0.023028 0.
0.69411 0.0230299 0.
0.69611 0.0230317 0.
0.698111 0.0230335 0.
0.499888 0.0250313 0.
0.501888 0.0250302 0.
0.503888 0.0250291 0.
0.505888 0.025028 0.
0.507889 0.0250266 0.
0.50989 0.0250252 0.
0.511891 0.025024 0.
0.513891 0.0250231 0.
0.515892 0.0250223 0.
0.517892 0.0250218 0.
0.519892 0.0250215 0.
0.521892 0.0250213 0.
0.523893 0.0250219 0.
0.525893 0.0250226 0.
0.527894 0.0250233 0.
0.529895 0.0250246 0.
0.531896 0.0250259 0.
0.533896 0.025027 0.
0.535896 0.0250276 0.
0.537897 0.0250283 0.
0.539898 0.0250285 0.
0.5419 0.0250283 0.
0.543902 0.0250281 0.
0.545903 0.0250277 0.
0.547903 0.0250272 0.
0.549904 0.0250266 0.
0.551904 0.0250293 0.
0.553904 0.0250321 0.
0.555904 0.0250345 0.
0.557905 0.0250351 0.
0.559906 0.0250356 0.
0.561907 0.0250357 0.
0.563907 0.025035 0.
0.565908 0.0250342 0.
0.567911 0.0250344 0.
0.569914 0.0250352 0.
0.571917 0.0250361 0.
0.573922 0.0250364 0.
0.575926 0.0250368 0.
0.577931 0.0250367 0.
0.579936 0.0250327 0.
0.581941 0.0250287 0.
0.583947 0.0250242 0.
0.585952 0.0250191 0.
0.587957 0.0250141 0.
0.589963 0.0250096 0.
0.591969 0.0250056 0.
0.593976 0.0250016 0.
0.595984 0.0250001 0.
0.597993 0.0249992 0.
0.600002 0.0249982 0.
0.602011 0.025001 0.
0.60402 0.0250038 0.
0.606028 0.0250066 0.
0.608034 0.0250099 0.
0.610041 0.0250131 0.
0.612046 0.025017 0.
0.614051 0.0250215 0.
0.616055 0.0250261 0.
0.618059 0.0250299 0.
0.620064 0.0250336 0.
0.622068 0.0250372 0.
0.624072 0.0250372 0.
0.626075 0.0250368 0.
0.628079 0.0250366 0.
0.63008 0.0250375 0.
0.632081 0.0250384 0.
0.634083 0.0250391 0.
0.636087 0.0250396 0.
0.63809 0.02504 0.
0.640092 0.0250401 0.
0.642093 0.0250398 0.
0.644094 0.0250396 0.
0.646094 0.0250379 0.
0.648094 0.0250359 0.
0.650094 0.0250339 0.
0.652095 0.0250348 0.
0.654096 0.0250357 0.
0.656097 0.0250364 0.
0.658099 0.0250367 0.
0.660101 0.0250369 0.
0.662103 0.025037 0.
0.664103 0.0250368 0.
0.666104 0.0250367 0.
0.668105 0.0250358 0.
0.670106 0.0250346 0.
0.672107 0.0250335 0.
0.674107 0.0250312 0.
0.676106 0.0250289 0.
0.678106 0.0250267 0.
0.680107 0.0250261 0.
0.682107 0.0250254 0.
0.684108 0.0250252 0.
0.686107 0.0250258 0.
0.688107 0.0250265 0.
0.690107 0.0250279 0.
0.692107 0.0250299 0.
0.694107 0.0250318 0.
0.696108 0.0250338 0.
0.69811 0.0250357 0.
0.49989 0.0270328 0.
0.50189 0.0270315 0.
0.50389 0.0270302 0.
0.50589 0.0270288 0.
0.507891 0.0270272 0.
0.509892 0.0270256 0.
0.511893 0.0270244 0.
0.513893 0.0270236 0.
0.515894 0.0270228 0.
0.517894 0.0270222 0.
0.519895 0.0270218 0.
0.521895 0.0270214 0.
0.523895 0.0270221 0.
0.525896 0.0270228 0.
0.527896 0.0270236 0.
0.529897 0.0270245 0.
0.531898 0.0270254 0.
0.533899 0.0270261 0.
0.5359 0.0270266 0.
0.537901 0.027027 0.
0.539902 0.0270273 0.
0.541903 0.0270274 0.
0.543905 0.0270275 0.
0.545906 0.0270272 0.
0.547907 0.0270268 0.
0.549908 0.0270264 0.
0.551908 0.0270288 0.
0.553908 0.0270313 0.
0.555908 0.0270334 0.
0.557909 0.0270339 0.
0.55991 0.0270344 0.
0.561912 0.0270344 0.
0.563913 0.0270337 0.
0.565914 0.0270329 0.
0.567917 0.0270326 0.
0.56992 0.0270325 0.
0.571923 0.0270325 0.
0.573927 0.0270326 0.
0.575932 0.0270327 0.
0.577937 0.0270325 0.
0.579942 0.0270287 0.
0.581947 0.0270249 0.
0.583953 0.0270209 0.
0.585958 0.0270163 0.
0.587963 0.0270117 0.
0.589968 0.0270076 0.
0.591973 0.0270038 0.
0.593979 0.0270001 0.
0.595986 0.0269985 0.
0.597994 0.0269975 0.
0.600001 0.0269965 0.
0.602009 0.0269992 0.
0.604017 0.027002 0.
0.606024 0.0270048 0.
0.608029 0.0270079 0.
0.610034 0.027011 0.
0.612039 0.0270146 0.
0.614044 0.0270188 0.
0.616049 0.0270229 0.
0.618053 0.0270266 0.
0.620058 0.0270302 0.
0.622063 0.0270337 0.
0.624067 0.0270342 0.
0.62607 0.0270343 0.
0.628074 0.0270346 0.
0.630076 0.0270353 0.
0.632077 0.027036 0.
0.634079 0.0270367 0.
0.636082 0.0270374 0.
0.638085 0.027038 0.
0.640087 0.0270384 0.
0.642088 0.0270385 0.
0.644089 0.0270386 0.
0.64609 0.027037 0.
0.648091 0.0270351 0.
0.650092 0.0270332 0.
0.652093 0.0270341 0.
0.654094 0.0270349 0.
0.656095 0.0270357 0.
0.658096 0.0270361 0.
0.660097 0.0270365 0.
0.662098 0.0270365 0.
0.6641 0.0270359 0.
0.666101 0.0270353 0.
0.668102 0.0270346 0.
0.670103 0.0270338 0.
0.672104 0.027033 0.
0.674104 0.0270311 0.
0.676104 0.027029 0.
0.678104 0.027027 0.
0.680104 0.0270265 0.
0.682104 0.0270259 0.
0.684104 0.0270259 0.
0.686105 0.0270267 0.
0.688105 0.0270275 0.
0.690105 0.027029 0.
0.692105 0.0270309 0.
0.694105 0.0270329 0.
0.696106 0.0270352 0.
0.698107 0.0270377 0.
0.499891 0.0290344 0.
0.501892 0.0290329 0.
0.503892 0.0290313 0.
0.505893 0.0290297 0.
0.507893 0.0290279 0.
0.509894 0.0290261 0.
0.511895 0.0290247 0.
0.513895 0.029024 0.
0.515896 0.0290233 0.
0.517897 0.0290227 0.
0.519897 0.0290221 0.
0.521898 0.0290215 0.
0.523898 0.0290222 0.
0.525898 0.0290231 0.
0.527898 0.029024 0.
0.529899 0.0290244 0.
0.5319 0.0290248 0.
0.533902 0.0290252 0.
0.535903 0.0290255 0.
0.537904 0.0290258 0.
0.539906 0.0290261 0.
0.541907 0.0290265 0.
0.543908 0.0290269 0.
0.54591 0.0290267 0.
0.547911 0.0290264 0.
0.549912 0.0290261 0.
0.551912 0.0290282 0.
0.553911 0.0290304 0.
0.555911 0.0290323 0.
0.557913 0.0290327 0.
0.559915 0.0290332 0.
0.561916 0.0290331 0.
0.563918 0.0290324 0.
0.56592 0.0290316 0.
0.567923 0.0290308 0.
0.569925 0.0290298 0.
0.571928 0.0290289 0.
0.573933 0.0290287 0.
0.575938 0.0290286 0.
0.577943 0.0290282 0.
0.579948 0.0290247 0.
0.581953 0.0290212 0.
0.583959 0.0290175 0.
0.585964 0.0290134 0.
0.587969 0.0290093 0.
0.589973 0.0290055 0.
0.591978 0.029002 0.
0.593982 0.0289984 0.
0.595988 0.0289969 0.
0.597994 0.0289959 0.
0.600001 0.0289948 0.
0.602007 0.0289975 0.
0.604014 0.0290002 0.
0.60602 0.0290029 0.
0.608024 0.0290059 0.
0.610028 0.0290088 0.
0.612033 0.0290122 0.
0.614038 0.029016 0.
0.616042 0.0290198 0.
0.618047 0.0290233 0.
0.620052 0.0290268 0.
0.622057 0.0290302 0.
0.624061 0.0290312 0.
0.626065 0.0290319 0.
0.628069 0.0290325 0.
0.630071 0.0290331 0.
0.632073 0.0290336 0.
0.634076 0.0290343 0.
0.636078 0.0290352 0.
0.638079 0.029036 0.
0.640081 0.0290367 0.
0.642083 0.0290371 0.
0.644085 0.0290376 0.
0.646086 0.0290361 0.
0.648087 0.0290343 0.
0.650089 0.0290324 0.
0.65209 0.0290333 0.
0.654091 0.0290342 0.
0.656092 0.029035 0.
0.658092 0.0290356 0.
0.660093 0.0290362 0.
0.662094 0.029036 0.
0.664096 0.0290349 0.
0.666097 0.0290339 0.
0.668098 0.0290333 0.
0.670099 0.029033 0.
0.6721 0.0290326 0.
0.674101 0.0290309 0.
0.676101 0.029029 0.
0.678102 0.0290273 0.
0.680101 0.0290269 0.
0.682101 0.0290264 0.
0.684101 0.0290266 0.
0.686102 0.0290275 0.
0.688102 0.0290285 0.
0.690103 0.02903 0.
0.692103 0.029032 0.
0.694104 0.0290339 0.
0.696104 0.0290367 0.
0.698104 0.0290397 0.
0.499895 0.031036 0.
0.501895 0.0310342 0.
0.503895 0.0310324 0.
0.505896 0.0310306 0.
0.507896 0.0310287 0.
0.509897 0.0310268 0.
0.511897 0.0310252 0.
0.513898 0.0310244 0.
0.515899 0.0310236 0.
0.5179 0.0310228 0.
0.519901 0.0310221 0.
0.521902 0.0310215 0.
0.523902 0.0310221 0.
0.525902 0.0310229 0.
0.527902 0.0310237 0.
0.529903 0.031024 0.
0.531904 0.0310242 0.
0.533906 0.0310245 0.
0.535907 0.0310247 0.
0.537908 0.031025 0.
0.53991 0.0310252 0.
0.541911 0.0310256 0.
0.543913 0.0310259 0.
0.545914 0.0310259 0.
0.547915 0.0310258 0.
0.549916 0.0310258 0.
0.551916 0.0310277 0.
0.553916 0.0310296 0.
0.555917 0.0310312 0.
0.557918 0.0310313 0.
0.55992 0.0310314 0.
0.561922 0.0310312 0.
0.563924 0.0310304 0.
0.565926 0.0310296 0.
0.567929 0.0310285 0.
0.569931 0.0310271 0.
0.571934 0.0310257 0.
0.573939 0.0310254 0.
0.575944 0.0310252 0.
0.577949 0.0310246 0.
0.579954 0.0310211 0.
0.581959 0.0310175 0.
0.583964 0.0310139 0.
0.585968 0.0310104 0.
0.587973 0.0310069 0.
0.589977 0.0310036 0.
0.591981 0.0310004 0.
0.593985 0.0309972 0.
0.59599 0.0309957 0.
0.597995 0.0309946 0.
0.6 0.0309935 0.
0.602006 0.0309962 0.
0.604012 0.0309989 0.
0.606017 0.0310016 0.
0.608021 0.0310044 0.
0.610025 0.0310072 0.
0.612029 0.0310102 0.
0.614033 0.0310134 0.
0.616037 0.0310166 0.
0.618042 0.0310199 0.
0.620047 0.0310234 0.
0.622051 0.0310268 0.
0.624055 0.0310281 0.
0.626059 0.0310291 0.
0.628063 0.03103 0.
0.630066 0.0310306 0.
0.632068 0.0310312 0.
0.63407 0.031032 0.
0.636072 0.0310329 0.
0.638074 0.0310338 0.
0.640076 0.0310346 0.
0.642078 0.0310352 0.
0.644079 0.0310358 0.
0.646081 0.0310347 0.
0.648083 0.0310333 0.
0.650084 0.0310318 0.
0.652085 0.0310325 0.
0.654086 0.0310331 0.
0.656087 0.0310338 0.
0.658088 0.0310345 0.
0.660089 0.0310352 0.
0.66209 0.031035 0.
0.664092 0.0310339 0.
0.666093 0.0310327 0.
0.668095 0.0310323 0.
0.670095 0.031032 0.
0.672096 0.0310318 0.
0.674097 0.0310306 0.
0.676098 0.0310293 0.
0.678099 0.0310281 0.
0.680098 0.0310275 0.
0.682098 0.031027 0.
0.684098 0.0310272 0.
0.686099 0.0310284 0.
0.6881 0.0310297 0.
0.6901 0.0310312 0.
0.692101 0.0310331 0.
0.694101 0.0310349 0.
0.696101 0.031038 0.
0.698101 0.0310413 0.
0.499899 0.0330376 0.
0.501899 0.0330356 0.
0.5039 0.0330335 0.
0.5059 0.0330315 0.
0.5079 0.0330295 0.
0.5099 0.0330276 0.
0.511901 0.0330259 0.
0.513902 0.0330247 0.
0.515903 0.0330236 0.
0.517904 0.0330227 0.
0.519905 0.033022 0.
0.521906 0.0330213 0.
0.523906 0.0330217 0.
0.525906 0.0330223 0.
0.527907 0.0330229 0.
0.529908 0.0330233 0.
0.531909 0.0330237 0.
0.53391 0.0330241 0.
0.535911 0.0330243 0.
0.537913 0.0330246 0.
0.539914 0.0330247 0.
0.541916 0.0330246 0.
0.543918 0.0330245 0.
0.545919 0.0330247 0.
0.54792 0.033025 0.
0.549921 0.0330253 0.
0.551922 0.0330271 0.
0.553923 0.0330288 0.
0.555924 0.0330302 0.
0.557925 0.0330297 0.
0.559926 0.0330292 0.
0.561928 0.0330286 0.
0.56393 0.0330277 0.
0.565932 0.0330269 0.
0.567934 0.0330257 0.
0.569938 0.0330243 0.
0.571941 0.033023 0.
0.573945 0.0330226 0.
0.57595 0.0330223 0.
0.577955 0.0330216 0.
0.579959 0.0330178 0.
0.581963 0.0330139 0.
0.583968 0.0330103 0.
0.585972 0.0330073 0.
0.587976 0.0330044 0.
0.589979 0.0330016 0.
0.591983 0.032999 0.
0.593986 0.0329965 0.
0.595991 0.032995 0.
0.597996 0.0329937 0.
0.600001 0.0329925 0.
0.602005 0.0329953 0.
0.60401 0.0329981 0.
0.606015 0.0330008 0.
0.608019 0.0330033 0.
0.610023 0.0330059 0.
0.612027 0.0330084 0.
0.614031 0.0330109 0.
0.616034 0.0330133 0.
0.618038 0.0330165 0.
0.620042 0.03302 0.
0.622046 0.0330236 0.
0.624049 0.0330249 0.
0.626053 0.0330259 0.
0.628056 0.033027 0.
0.630058 0.0330279 0.
0.632061 0.0330288 0.
0.634063 0.0330297 0.
0.636066 0.0330306 0.
0.638068 0.0330315 0.
0.64007 0.0330323 0.
0.642072 0.0330329 0.
0.644073 0.0330334 0.
0.646075 0.0330329 0.
0.648076 0.0330321 0.
0.650078 0.0330313 0.
0.652079 0.0330315 0.
0.65408 0.0330318 0.
0.656082 0.0330321 0.
0.658083 0.0330329 0.
0.660084 0.0330336 0.
0.662086 0.0330335 0.
0.664087 0.0330327 0.
0.666089 0.0330318 0.
0.66809 0.0330313 0.
0.670091 0.033031 0.
0.672092 0.0330306 0.
0.674093 0.0330302 0.
0.676094 0.0330298 0.
0.678095 0.0330293 0.
0.680095 0.0330284 0.
0.682096 0.0330276 0.
0.684096 0.0330277 0.
0.686096 0.0330293 0.
0.688096 0.0330309 0.
0.690097 0.0330325 0.
0.692097 0.0330341 0.
0.694098 0.0330358 0.
0.696098 0.033039 0.
0.698098 0.0330426 0.
0.499903 0.0350392 0.
0.501903 0.0350369 0.
0.503904 0.0350346 0.
0.505904 0.0350324 0.
0.507904 0.0350304 0.
0.509904 0.0350284 0.
0.511904 0.0350266 0.
0.513905 0.0350251 0.
0.515906 0.0350236 0.
0.517908 0.0350226 0.
0.519909 0.0350219 0.
0.52191 0.0350211 0.
0.52391 0.0350213 0.
0.525911 0.0350217 0.
0.527912 0.0350221 0.
0.529913 0.0350226 0.
0.531914 0.0350231 0.
0.533915 0.0350236 0.
0.535916 0.0350239 0.
0.537917 0.0350243 0.
0.539919 0.0350241 0.
0.541921 0.0350237 0.
0.543923 0.0350232 0.
0.545924 0.0350236 0.
0.547925 0.0350242 0.
0.549925 0.0350249 0.
0.551927 0.0350264 0.
0.553929 0.035028 0.
0.555931 0.0350291 0.
0.557932 0.035028 0.
0.559933 0.035027 0.
0.561934 0.035026 0.
0.563936 0.0350251 0.
0.565937 0.0350242 0.
0.56794 0.035023 0.
0.569944 0.0350216 0.
0.571948 0.0350202 0.
0.573952 0.0350198 0.
0.575956 0.0350194 0.
0.577961 0.0350187 0.
0.579964 0.0350145 0.
0.581968 0.0350102 0.
0.583972 0.0350066 0.
0.585975 0.0350042 0.
0.587978 0.0350019 0.
0.589982 0.0349997 0.
0.591985 0.0349977 0.
0.593988 0.0349957 0.
0.595992 0.0349942 0.
0.597996 0.0349928 0.
0.600001 0.0349915 0.
0.602004 0.0349944 0.
0.604008 0.0349973 0.
0.606013 0.035 0.
0.608017 0.0350023 0.
0.610021 0.0350047 0.
0.612025 0.0350067 0.
0.614028 0.0350084 0.
0.616031 0.0350101 0.
0.618034 0.0350131 0.
0.620037 0.0350167 0.
0.62204 0.0350204 0.
0.624043 0.0350217 0.
0.626046 0.0350229 0.
0.628049 0.035024 0.
0.630051 0.0350252 0.
0.632053 0.0350264 0.
0.634056 0.0350275 0.
0.636059 0.0350284 0.
0.638062 0.0350293 0.
0.640064 0.03503 0.
0.642066 0.0350305 0.
0.644067 0.035031 0.
0.646069 0.0350311 0.
0.64807 0.035031 0.
0.650072 0.0350308 0.
0.652073 0.0350306 0.
0.654075 0.0350305 0.
0.656076 0.0350305 0.
0.658078 0.0350312 0.
0.66008 0.035032 0.
0.662081 0.0350321 0.
0.664083 0.0350315 0.
0.666084 0.0350309 0.
0.668086 0.0350304 0.
0.670087 0.0350299 0.
0.672088 0.0350295 0.
0.674089 0.0350298 0.
0.67609 0.0350303 0.
0.678091 0.0350305 0.
0.680092 0.0350293 0.
0.682093 0.0350282 0.
0.684094 0.0350282 0.
0.686093 0.0350302 0.
0.688093 0.0350321 0.
0.690093 0.0350338 0.
0.692094 0.0350352 0.
0.694094 0.0350367 0.
0.696094 0.0350401 0.
0.698094 0.0350438 0.
0.499906 0.0370405 0.
0.501906 0.0370382 0.
0.503906 0.0370356 0.
0.505907 0.037033 0.
0.507907 0.0370308 0.
0.509907 0.0370287 0.
0.511907 0.0370269 0.
0.513909 0.0370256 0.
0.51591 0.0370243 0.
0.51791 0.0370233 0.
0.519911 0.0370223 0.
0.521912 0.0370213 0.
0.523913 0.0370214 0.
0.525914 0.0370216 0.
0.527915 0.0370218 0.
0.529915 0.0370222 0.
0.531916 0.0370227 0.
0.533917 0.037023 0.
0.535919 0.0370228 0.
0.53792 0.0370226 0.
0.539922 0.0370225 0.
0.541923 0.0370224 0.
0.543925 0.0370223 0.
0.545926 0.0370226 0.
0.547927 0.0370231 0.
0.549928 0.0370236 0.
0.55193 0.0370248 0.
0.553932 0.0370259 0.
0.555934 0.0370267 0.
0.557936 0.0370259 0.
0.559937 0.0370251 0.
0.561939 0.0370242 0.
0.563941 0.0370231 0.
0.565942 0.0370219 0.
0.567945 0.0370205 0.
0.569948 0.037019 0.
0.571952 0.0370176 0.
0.573956 0.0370169 0.
0.57596 0.0370163 0.
0.577963 0.0370154 0.
0.579967 0.0370121 0.
0.58197 0.0370087 0.
0.583973 0.0370058 0.
0.585976 0.0370036 0.
0.58798 0.0370015 0.
0.589983 0.0369994 0.
0.591986 0.0369974 0.
0.593988 0.0369953 0.
0.595992 0.0369937 0.
0.597996 0.0369923 0.
0.6 0.0369908 0.
0.602004 0.0369933 0.
0.604008 0.0369958 0.
0.606011 0.0369983 0.
0.608015 0.0370007 0.
0.610019 0.037003 0.
0.612022 0.0370051 0.
0.614025 0.0370068 0.
0.616028 0.0370085 0.
0.61803 0.0370112 0.
0.620033 0.0370144 0.
0.622036 0.0370177 0.
0.624039 0.0370192 0.
0.626043 0.0370205 0.
0.628046 0.0370218 0.
0.630048 0.0370231 0.
0.632051 0.0370244 0.
0.634053 0.0370255 0.
0.636056 0.0370263 0.
0.638058 0.0370272 0.
0.64006 0.0370281 0.
0.642062 0.037029 0.
0.644064 0.0370299 0.
0.646065 0.0370298 0.
0.648067 0.0370295 0.
0.650069 0.0370291 0.
0.652071 0.0370294 0.
0.654072 0.0370296 0.
0.656074 0.0370299 0.
0.658075 0.0370303 0.
0.660077 0.0370307 0.
0.662079 0.0370307 0.
0.66408 0.0370304 0.
0.666082 0.0370301 0.
0.668083 0.0370299 0.
0.670084 0.0370297 0.
0.672085 0.0370296 0.
0.674086 0.0370295 0.
0.676087 0.0370295 0.
0.678088 0.0370293 0.
0.680089 0.0370287 0.
0.68209 0.0370281 0.
0.68409 0.0370285 0.
0.68609 0.0370308 0.
0.68809 0.037033 0.
0.69009 0.0370347 0.
0.69209 0.037036 0.
0.694091 0.0370373 0.
0.696091 0.0370403 0.
0.698091 0.0370437 0.
0.499909 0.0390418 0.
0.501909 0.0390395 0.
0.503909 0.0390365 0.
0.505909 0.0390336 0.
0.50791 0.0390313 0.
0.50991 0.0390289 0.
0.511911 0.0390271 0.
0.513912 0.039026 0.
0.515913 0.0390249 0.
0.517913 0.0390239 0.
0.519914 0.0390227 0.
0.521915 0.0390216 0.
0.523916 0.0390214 0.
0.525916 0.0390214 0.
0.527917 0.0390215 0.
0.529918 0.0390219 0.
0.531919 0.0390223 0.
0.53392 0.0390223 0.
0.535921 0.0390217 0.
0.537923 0.039021 0.
0.539925 0.0390208 0.
0.541926 0.0390211 0.
0.543927 0.0390213 0.
0.545929 0.0390216 0.
0.54793 0.0390219 0.
0.549931 0.0390223 0.
0.551933 0.0390231 0.
0.553935 0.0390238 0.
0.555937 0.0390243 0.
0.557939 0.0390238 0.
0.559942 0.0390233 0.
0.561944 0.0390224 0.
0.563946 0.039021 0.
0.565947 0.0390196 0.
0.56795 0.0390181 0.
0.569953 0.0390165 0.
0.571955 0.0390149 0.
0.573959 0.039014 0.
0.575963 0.0390131 0.
0.577966 0.0390121 0.
0.579969 0.0390097 0.
0.581972 0.0390072 0.
0.583975 0.0390049 0.
0.585978 0.039003 0.
0.587981 0.0390011 0.
0.589984 0.0389991 0.
0.591986 0.038997 0.
0.593989 0.0389949 0.
0.595993 0.0389932 0.
0.597996 0.0389917 0.
0.6 0.0389901 0.
0.602004 0.0389922 0.
0.604007 0.0389944 0.
0.60601 0.0389966 0.
0.608013 0.038999 0.
0.610016 0.0390014 0.
0.612019 0.0390034 0.
0.614022 0.0390051 0.
0.616025 0.0390069 0.
0.618027 0.0390094 0.
0.620029 0.0390122 0.
0.622032 0.039015 0.
0.624035 0.0390166 0.
0.626039 0.0390181 0.
0.628043 0.0390196 0.
0.630046 0.039021 0.
0.632049 0.0390224 0.
0.634051 0.0390236 0.
0.636052 0.0390243 0.
0.638053 0.0390251 0.
0.640055 0.0390262 0.
0.642058 0.0390275 0.
0.64406 0.0390288 0.
0.646062 0.0390286 0.
0.648064 0.039028 0.
0.650066 0.0390274 0.
0.652068 0.0390281 0.
0.65407 0.0390288 0.
0.656071 0.0390293 0.
0.658073 0.0390293 0.
0.660075 0.0390294 0.
0.662076 0.0390294 0.
0.664078 0.0390293 0.
0.66608 0.0390293 0.
0.668081 0.0390294 0.
0.670081 0.0390296 0.
0.672082 0.0390297 0.
0.674083 0.0390292 0.
0.676084 0.0390287 0.
0.678085 0.0390281 0.
0.680086 0.039028 0.
0.682087 0.0390279 0.
0.684087 0.0390288 0.
0.686087 0.0390314 0.
0.688086 0.0390339 0.
0.690086 0.0390356 0.
0.692087 0.0390367 0.
0.694087 0.0390379 0.
0.696088 0.0390406 0.
0.698089 0.0390437 0.
0.499912 0.0410431 0.
0.501913 0.0410404 0.
0.503913 0.0410372 0.
0.505913 0.041034 0.
0.507914 0.0410317 0.
0.509914 0.0410293 0.
0.511915 0.0410274 0.
0.513916 0.0410263 0.
0.515916 0.0410252 0.
0.517917 0.041024 0.
0.519917 0.0410227 0.
0.521918 0.0410213 0.
0.523919 0.0410212 0.
0.52592 0.0410212 0.
0.527921 0.0410212 0.
0.529922 0.0410214 0.
0.531922 0.0410217 0.
0.533924 0.0410216 0.
0.535925 0.0410207 0.
0.537927 0.0410198 0.
0.539928 0.0410196 0.
0.54193 0.0410199 0.
0.543931 0.0410202 0.
0.545932 0.0410205 0.
0.547933 0.0410207 0.
0.549935 0.0410209 0.
0.551937 0.0410214 0.
0.553939 0.0410218 0.
0.555941 0.0410221 0.
0.557943 0.0410215 0.
0.559946 0.041021 0.
0.561948 0.0410201 0.
0.56395 0.0410189 0.
0.565952 0.0410176 0.
0.567954 0.041016 0.
0.569957 0.0410144 0.
0.571959 0.0410129 0.
0.573963 0.0410117 0.
0.575966 0.0410107 0.
0.577969 0.0410096 0.
0.579972 0.0410077 0.
0.581974 0.0410059 0.
0.583977 0.041004 0.
0.585979 0.0410022 0.
0.587982 0.0410004 0.
0.589985 0.0409985 0.
0.591987 0.0409964 0.
0.59399 0.0409942 0.
0.595993 0.0409928 0.
0.597997 0.0409915 0.
0.6 0.0409902 0.
0.602003 0.0409918 0.
0.604006 0.0409934 0.
0.606009 0.0409952 0.
0.608012 0.0409976 0.
0.610014 0.041 0.
0.612016 0.041002 0.
0.614019 0.0410035 0.
0.616022 0.041005 0.
0.618025 0.0410074 0.
0.620027 0.0410101 0.
0.622029 0.0410128 0.
0.624032 0.0410145 0.
0.626036 0.0410161 0.
0.62804 0.0410176 0.
0.630043 0.0410191 0.
0.632045 0.0410207 0.
0.634048 0.041022 0.
0.636049 0.0410226 0.
0.638049 0.0410232 0.
0.640051 0.0410243 0.
0.642054 0.0410257 0.
0.644057 0.041027 0.
0.646059 0.041027 0.
0.648061 0.0410266 0.
0.650063 0.0410261 0.
0.652065 0.041027 0.
0.654066 0.0410278 0.
0.656068 0.0410284 0.
0.65807 0.0410282 0.
0.660071 0.041028 0.
0.662073 0.041028 0.
0.664075 0.0410283 0.
0.666076 0.0410286 0.
0.668077 0.0410289 0.
0.670078 0.0410291 0.
0.672079 0.0410293 0.
0.674079 0.0410286 0.
0.67608 0.0410278 0.
0.678081 0.0410272 0.
0.680082 0.0410276 0.
0.682083 0.0410279 0.
0.684083 0.0410292 0.
0.686083 0.0410319 0.
0.688083 0.0410346 0.
0.690083 0.0410363 0.
0.692083 0.0410373 0.
0.694083 0.0410384 0.
0.696084 0.0410411 0.
0.698085 0.0410441 0.
0.499917 0.0430441 0.
0.501917 0.0430409 0.
0.503918 0.0430375 0.
0.505919 0.0430343 0.
0.507919 0.043032 0.
0.509919 0.0430297 0.
0.511919 0.0430278 0.
0.51392 0.0430265 0.
0.515921 0.0430251 0.
0.517921 0.0430237 0.
0.519922 0.0430221 0.
0.521922 0.0430206 0.
0.523923 0.0430205 0.
0.525924 0.0430207 0.
0.527925 0.0430209 0.
0.529926 0.043021 0.
0.531927 0.043021 0.
0.533929 0.0430208 0.
0.53593 0.04302 0.
0.537932 0.0430191 0.
0.539933 0.0430188 0.
0.541934 0.0430189 0.
0.543935 0.0430189 0.
0.545936 0.0430191 0.
0.547937 0.0430193 0.
0.549938 0.0430194 0.
0.55194 0.0430197 0.
0.553943 0.04302 0.
0.555945 0.04302 0.
0.557947 0.0430191 0.
0.559949 0.0430183 0.
0.561951 0.0430175 0.
0.563954 0.0430166 0.
0.565956 0.0430158 0.
0.567958 0.0430145 0.
0.569961 0.0430129 0.
0.571963 0.0430114 0.
0.573966 0.0430101 0.
0.575969 0.0430089 0.
0.577972 0.0430077 0.
0.579974 0.0430062 0.
0.581977 0.0430047 0.
0.583979 0.0430031 0.
0.585981 0.0430012 0.
0.587984 0.0429994 0.
0.589986 0.0429974 0.
0.591989 0.0429953 0.
0.593991 0.0429932 0.
0.595994 0.0429924 0.
0.597997 0.0429918 0.
0.6 0.0429913 0.
0.602003 0.042992 0.
0.604006 0.0429928 0.
0.606009 0.0429939 0.
0.60801 0.0429964 0.
0.610012 0.0429988 0.
0.612015 0.0430007 0.
0.614018 0.0430018 0.
0.61602 0.0430029 0.
0.618023 0.0430053 0.
0.620025 0.0430083 0.
0.622027 0.0430112 0.
0.62403 0.0430128 0.
0.626034 0.0430143 0.
0.628037 0.0430158 0.
0.630039 0.0430175 0.
0.632042 0.0430193 0.
0.634044 0.0430207 0.
0.636045 0.0430212 0.
0.638047 0.0430216 0.
0.640048 0.0430225 0.
0.642051 0.0430237 0.
0.644053 0.0430248 0.
0.646055 0.0430251 0.
0.648057 0.0430251 0.
0.65006 0.0430252 0.
0.652061 0.043026 0.
0.654062 0.0430267 0.
0.656064 0.0430272 0.
0.658066 0.0430268 0.
0.660068 0.0430263 0.
0.662069 0.0430265 0.
0.66407 0.0430273 0.
0.666072 0.0430281 0.
0.668073 0.0430283 0.
0.670074 0.0430283 0.
0.672075 0.0430283 0.
0.674076 0.0430276 0.
0.676076 0.0430269 0.
0.678077 0.0430265 0.
0.680077 0.0430273 0.
0.682078 0.0430282 0.
0.684079 0.0430297 0.
0.686079 0.0430324 0.
0.688079 0.043035 0.
0.690079 0.0430367 0.
0.692079 0.0430378 0.
0.69408 0.0430389 0.
0.69608 0.0430417 0.
0.698081 0.0430449 0.
0.499921 0.0450452 0.
0.501922 0.0450414 0.
0.503923 0.0450378 0.
0.505924 0.0450346 0.
0.507924 0.0450324 0.
0.509924 0.0450301 0.
0.511924 0.0450282 0.
0.513924 0.0450266 0.
0.515925 0.045025 0.
0.517925 0.0450233 0.
0.519926 0.0450216 0.
0.521926 0.0450198 0.
0.523927 0.0450199 0.
0.525928 0.0450203 0.
0.527929 0.0450207 0.
0.529931 0.0450205 0.
0.531932 0.0450203 0.
0.533934 0.04502 0.
0.535935 0.0450192 0.
0.537936 0.0450184 0.
0.539937 0.045018 0.
0.541938 0.0450179 0.
0.543939 0.0450177 0.
0.54594 0.0450178 0.
0.547941 0.0450179 0.
0.549942 0.045018 0.
0.551944 0.045018 0.
0.553947 0.0450181 0.
0.555949 0.0450179 0.
0.557951 0.0450168 0.
0.559953 0.0450156 0.
0.561955 0.0450148 0.
0.563958 0.0450144 0.
0.56596 0.045014 0.
0.567963 0.0450129 0.
0.569965 0.0450114 0.
0.571967 0.0450099 0.
0.573969 0.0450086 0.
0.575972 0.0450072 0.
0.577975 0.0450059 0.
0.579977 0.0450047 0.
0.581979 0.0450036 0.
0.583981 0.0450022 0.
0.585984 0.0450002 0.
0.587986 0.0449983 0.
0.589988 0.0449964 0.
0.59199 0.0449943 0.
0.593993 0.0449923 0.
0.595995 0.0449919 0.
0.597997 0.0449921 0.
0.599999 0.0449923 0.
0.602002 0.0449923 0.
0.604005 0.0449922 0.
0.606008 0.0449927 0.
0.608009 0.0449952 0.
0.610011 0.0449977 0.
0.612013 0.0449994 0.
0.614016 0.0450001 0.
0.616019 0.0450008 0.
0.618021 0.0450033 0.
0.620023 0.0450065 0.
0.622026 0.0450096 0.
0.624028 0.0450112 0.
0.626031 0.0450125 0.
0.628034 0.0450139 0.
0.630036 0.0450159 0.
0.632038 0.0450179 0.
0.63404 0.0450194 0.
0.636042 0.0450197 0.
0.638044 0.0450201 0.
0.640046 0.0450208 0.
0.642047 0.0450217 0.
0.644049 0.0450226 0.
0.646051 0.0450232 0.
0.648054 0.0450237 0.
0.650056 0.0450243 0.
0.652057 0.045025 0.
0.654058 0.0450257 0.
0.656059 0.045026 0.
0.658061 0.0450254 0.
0.660064 0.0450247 0.
0.662065 0.045025 0.
0.664066 0.0450263 0.
0.666067 0.0450276 0.
0.668069 0.0450278 0.
0.67007 0.0450275 0.
0.672072 0.0450272 0.
0.674072 0.0450267 0.
0.676072 0.0450261 0.
0.678072 0.0450258 0.
0.680073 0.0450271 0.
0.682073 0.0450285 0.
0.684074 0.0450303 0.
0.686075 0.0450329 0.
0.688075 0.0450354 0.
0.690075 0.0450372 0.
0.692076 0.0450383 0.
0.694076 0.0450394 0.
0.696076 0.0450423 0.
0.698076 0.0450457 0.
0.499924 0.047045 0.
0.501925 0.0470414 0.
0.503926 0.0470377 0.
0.505927 0.0470344 0.
0.507927 0.0470325 0.
0.509927 0.0470305 0.
0.511928 0.0470286 0.
0.513928 0.0470267 0.
0.515929 0.0470248 0.
0.517929 0.0470228 0.
0.51993 0.0470208 0.
0.52193 0.0470188 0.
0.523931 0.047019 0.
0.525932 0.0470196 0.
0.527933 0.0470202 0.
0.529935 0.0470198 0.
0.531936 0.0470194 0.
0.533937 0.0470189 0.
0.535938 0.0470182 0.
0.53794 0.0470175 0.
0.539941 0.0470171 0.
0.541942 0.0470168 0.
0.543943 0.0470166 0.
0.545944 0.0470165 0.
0.547946 0.0470164 0.
0.549947 0.0470163 0.
0.551949 0.0470165 0.
0.553951 0.0470167 0.
0.555953 0.0470166 0.
0.557955 0.0470154 0.
0.559956 0.0470142 0.
0.561958 0.0470133 0.
0.563961 0.0470129 0.
0.565963 0.0470125 0.
0.567965 0.0470114 0.
0.569967 0.04701 0.
0.57197 0.0470086 0.
0.573972 0.0470072 0.
0.575975 0.0470059 0.
0.577977 0.0470046 0.
0.57998 0.0470034 0.
0.581983 0.0470022 0.
0.583985 0.0470008 0.
0.585986 0.0469991 0.
0.587988 0.0469974 0.
0.58999 0.0469957 0.
0.591991 0.0469941 0.
0.593993 0.0469924 0.
0.595996 0.0469919 0.
0.597998 0.0469918 0.
0.6 0.0469918 0.
0.602003 0.0469923 0.
0.604005 0.0469928 0.
0.606007 0.0469936 0.
0.608009 0.0469952 0.
0.61001 0.0469969 0.
0.612012 0.0469984 0.
0.614014 0.0469997 0.
0.616017 0.047001 0.
0.618019 0.0470031 0.
0.62002 0.0470054 0.
0.622022 0.0470078 0.
0.624025 0.0470091 0.
0.626028 0.0470103 0.
0.628031 0.0470117 0.
0.630034 0.0470139 0.
0.632036 0.0470162 0.
0.634038 0.0470178 0.
0.63604 0.0470183 0.
0.638041 0.0470189 0.
0.640043 0.0470198 0.
0.642044 0.0470209 0.
0.644046 0.047022 0.
0.646048 0.0470222 0.
0.648051 0.0470221 0.
0.650053 0.047022 0.
0.652054 0.047023 0.
0.654055 0.0470239 0.
0.656057 0.0470245 0.
0.658058 0.0470242 0.
0.66006 0.047024 0.
0.662062 0.0470243 0.
0.664063 0.0470252 0.
0.666064 0.0470261 0.
0.668065 0.0470267 0.
0.670066 0.0470271 0.
0.672067 0.0470276 0.
0.674068 0.0470269 0.
0.676068 0.0470262 0.
0.678069 0.0470258 0.
0.680069 0.0470273 0.
0.68207 0.0470289 0.
0.68407 0.0470308 0.
0.686071 0.0470334 0.
0.688071 0.047036 0.
0.690072 0.0470378 0.
0.692072 0.0470389 0.
0.694072 0.04704 0.
0.696073 0.0470427 0.
0.698073 0.0470457 0.
0.499927 0.0490449 0.
0.501929 0.0490413 0.
0.503929 0.0490376 0.
0.50593 0.0490342 0.
0.507931 0.0490325 0.
0.509931 0.0490309 0.
0.511932 0.0490289 0.
0.513932 0.0490267 0.
0.515933 0.0490245 0.
0.517933 0.0490223 0.
0.519934 0.04902 0.
0.521934 0.0490178 0.
0.523935 0.0490181 0.
0.525936 0.049019 0.
0.527937 0.0490197 0.
0.529938 0.0490191 0.
0.531939 0.0490185 0.
0.533941 0.0490179 0.
0.535942 0.0490172 0.
0.537943 0.0490166 0.
0.539944 0.0490161 0.
0.541946 0.0490158 0.
0.543947 0.0490154 0.
0.545949 0.0490152 0.
0.54795 0.0490149 0.
0.549952 0.0490147 0.
0.551954 0.049015 0.
0.553955 0.0490153 0.
0.555956 0.0490153 0.
0.557958 0.049014 0.
0.55996 0.0490127 0.
0.561962 0.0490118 0.
0.563964 0.0490114 0.
0.565965 0.049011 0.
0.567967 0.0490099 0.
0.56997 0.0490086 0.
0.571972 0.0490072 0.
0.573975 0.0490059 0.
0.575977 0.0490046 0.
0.57798 0.0490033 0.
0.579983 0.049002 0.
0.581986 0.0490008 0.
0.583988 0.0489994 0.
0.585989 0.0489979 0.
0.58799 0.0489964 0.
0.589991 0.048995 0.
0.591993 0.0489938 0.
0.593994 0.0489925 0.
0.595996 0.0489919 0.
0.597998 0.0489916 0.
0.600001 0.0489912 0.
0.602003 0.0489923 0.
0.604004 0.0489934 0.
0.606006 0.0489944 0.
0.608008 0.0489952 0.
0.61001 0.048996 0.
0.612012 0.0489974 0.
0.614013 0.0489992 0.
0.616015 0.0490011 0.
0.618016 0.0490028 0.
0.620017 0.0490044 0.
0.622019 0.0490059 0.
0.624022 0.0490071 0.
0.626025 0.0490082 0.
0.628029 0.0490095 0.
0.630031 0.0490119 0.
0.632034 0.0490144 0.
0.634036 0.0490162 0.
0.636037 0.049017 0.
0.638039 0.0490177 0.
0.64004 0.0490188 0.
0.642041 0.0490201 0.
0.644042 0.0490215 0.
0.646045 0.0490212 0.
0.648048 0.0490205 0.
0.65005 0.0490198 0.
0.652052 0.049021 0.
0.654053 0.0490222 0.
0.656054 0.0490231 0.
0.658055 0.0490231 0.
0.660057 0.0490232 0.
0.662058 0.0490235 0.
0.66406 0.0490241 0.
0.666061 0.0490247 0.
0.668062 0.0490256 0.
0.670063 0.0490267 0.
0.672063 0.0490279 0.
0.674064 0.0490272 0.
0.676065 0.0490263 0.
0.678066 0.0490258 0.
0.680066 0.0490275 0.
0.682066 0.0490293 0.
0.684066 0.0490314 0.
0.686067 0.049034 0.
0.688067 0.0490366 0.
0.690068 0.0490384 0.
0.692068 0.0490395 0.
0.694069 0.0490406 0.
0.696069 0.049043 0.
0.69807 0.0490457 0.
0.499931 0.0510442 0.
0.501932 0.051041 0.
0.503933 0.0510376 0.
0.505934 0.0510345 0.
0.507934 0.0510327 0.
0.509935 0.0510309 0.
0.511936 0.0510288 0.
0.513936 0.0510265 0.
0.515937 0.0510243 0.
0.517937 0.051022 0.
0.519938 0.0510196 0.
0.521938 0.0510173 0.
0.523939 0.0510176 0.
0.52594 0.0510185 0.
0.527941 0.0510191 0.
0.529942 0.0510184 0.
0.531943 0.0510176 0.
0.533944 0.0510169 0.
0.535945 0.0510163 0.
0.537946 0.0510156 0.
0.539948 0.0510151 0.
0.541949 0.0510148 0.
0.54395 0.0510144 0.
0.545952 0.0510141 0.
0.547954 0.0510137 0.
0.549956 0.0510134 0.
0.551957 0.0510136 0.
0.553958 0.0510139 0.
0.555959 0.0510138 0.
0.557961 0.0510125 0.
0.559963 0.0510113 0.
0.561965 0.0510103 0.
0.563967 0.0510097 0.
0.565968 0.0510092 0.
0.56797 0.0510082 0.
0.569972 0.0510071 0.
0.571975 0.0510059 0.
0.573977 0.0510048 0.
0.575979 0.0510035 0.
0.577982 0.0510023 0.
0.579985 0.0510009 0.
0.581988 0.0509994 0.
0.58399 0.0509981 0.
0.585991 0.0509969 0.
0.587991 0.0509957 0.
0.589992 0.0509946 0.
0.591993 0.0509936 0.
0.593995 0.0509926 0.
0.595997 0.0509921 0.
0.597999 0.0509916 0.
0.600001 0.0509911 0.
0.602003 0.0509921 0.
0.604004 0.0509932 0.
0.606006 0.0509942 0.
0.608008 0.0509948 0.
0.61001 0.0509955 0.
0.612011 0.0509968 0.
0.614012 0.0509988 0.
0.616013 0.0510009 0.
0.618014 0.0510022 0.
0.620015 0.0510032 0.
0.622017 0.0510042 0.
0.624019 0.0510054 0.
0.626023 0.0510067 0.
0.628026 0.051008 0.
0.630028 0.0510102 0.
0.632031 0.0510124 0.
0.634033 0.0510142 0.
0.636034 0.0510154 0.
0.638036 0.0510166 0.
0.640037 0.0510178 0.
0.642038 0.0510191 0.
0.644039 0.0510204 0.
0.646042 0.0510199 0.
0.648044 0.051019 0.
0.650047 0.0510182 0.
0.652048 0.0510193 0.
0.654049 0.0510204 0.
0.656051 0.0510213 0.
0.658052 0.0510218 0.
0.660053 0.0510222 0.
0.662054 0.0510227 0.
0.664056 0.051023 0.
0.666058 0.0510234 0.
0.668059 0.0510246 0.
0.670059 0.0510261 0.
0.67206 0.0510276 0.
0.67406 0.0510271 0.
0.676061 0.0510265 0.
0.678062 0.0510261 0.
0.680062 0.0510278 0.
0.682062 0.0510295 0.
0.684063 0.0510315 0.
0.686063 0.0510341 0.
0.688064 0.0510367 0.
0.690064 0.0510385 0.
0.692064 0.0510397 0.
0.694065 0.051041 0.
0.696066 0.0510433 0.
0.698067 0.0510458 0.
0.499936 0.053043 0.
0.501936 0.0530405 0.
0.503937 0.0530379 0.
0.505937 0.0530353 0.
0.507938 0.0530329 0.
0.509939 0.0530305 0.
0.511939 0.0530282 0.
0.51394 0.0530261 0.
0.515941 0.053024 0.
0.517941 0.0530218 0.
0.519942 0.0530196 0.
0.521942 0.0530173 0.
0.523943 0.0530175 0.
0.525944 0.0530181 0.
0.527944 0.0530186 0.
0.529945 0.0530177 0.
0.531946 0.0530168 0.
0.533947 0.053016 0.
0.535948 0.0530153 0.
0.537949 0.0530147 0.
0.53995 0.0530142 0.
0.541952 0.0530138 0.
0.543953 0.0530134 0.
0.545955 0.0530131 0.
0.547957 0.0530128 0.
0.549958 0.0530125 0.
0.55196 0.0530125 0.
0.553961 0.0530125 0.
0.555962 0.0530122 0.
0.557964 0.053011 0.
0.559966 0.0530098 0.
0.561967 0.0530087 0.
0.563969 0.0530079 0.
0.565972 0.053007 0.
0.567973 0.0530062 0.
0.569975 0.0530054 0.
0.571977 0.0530047 0.
0.573979 0.0530037 0.
0.575981 0.0530026 0.
0.577983 0.0530015 0.
0.579985 0.0529998 0.
0.581988 0.0529981 0.
0.58399 0.0529967 0.
0.585991 0.0529959 0.
0.587992 0.0529952 0.
0.589993 0.0529944 0.
0.591994 0.0529937 0.
0.593995 0.0529929 0.
0.595997 0.0529923 0.
0.597999 0.0529918 0.
0.600001 0.0529913 0.
0.602002 0.0529918 0.
0.604004 0.0529922 0.
0.606006 0.0529929 0.
0.608007 0.052994 0.
0.610009 0.0529952 0.
0.61201 0.0529967 0.
0.614011 0.0529985 0.
0.616012 0.0530003 0.
0.618013 0.0530013 0.
0.620014 0.053002 0.
0.622016 0.0530026 0.
0.624018 0.0530042 0.
0.62602 0.0530058 0.
0.628023 0.0530074 0.
0.630025 0.0530089 0.
0.632027 0.0530103 0.
0.634029 0.0530119 0.
0.636031 0.0530138 0.
0.638032 0.0530156 0.
0.640034 0.0530169 0.
0.642035 0.0530178 0.
0.644037 0.0530187 0.
0.646039 0.0530184 0.
0.64804 0.0530177 0.
0.650042 0.0530171 0.
0.652044 0.0530178 0.
0.654045 0.0530185 0.
0.656047 0.0530193 0.
0.658048 0.0530202 0.
0.660049 0.0530211 0.
0.66205 0.0530218 0.
0.664052 0.0530221 0.
0.666054 0.0530224 0.
0.668055 0.0530236 0.
0.670056 0.0530252 0.
0.672057 0.0530267 0.
0.674057 0.0530268 0.
0.676057 0.0530267 0.
0.678057 0.0530268 0.
0.680058 0.053028 0.
0.682058 0.0530293 0.
0.684059 0.053031 0.
0.68606 0.0530337 0.
0.68806 0.0530363 0.
0.69006 0.0530382 0.
0.692061 0.0530396 0.
0.694061 0.053041 0.
0.696062 0.0530433 0.
0.698063 0.0530458 0.
0.499941 0.0550418 0.
0.501941 0.0550399 0.
0.503941 0.0550381 0.
0.505941 0.0550361 0.
0.507942 0.0550332 0.
0.509942 0.0550302 0.
0.511943 0.0550276 0.
0.513944 0.0550256 0.
0.515945 0.0550236 0.
0.517945 0.0550216 0.
0.519945 0.0550195 0.
0.521946 0.0550174 0.
0.523946 0.0550174 0.
0.525947 0.0550178 0.
0.527948 0.0550181 0.
0.529948 0.055017 0.
0.531949 0.055016 0.
0.53395 0.0550151 0.
0.535951 0.0550144 0.
0.537952 0.0550137 0.
0.539953 0.0550132 0.
0.541955 0.0550128 0.
0.543956 0.0550124 0.
0.545958 0.0550122 0.
0.547959 0.0550119 0.
0.549961 0.0550116 0.
0.551962 0.0550113 0.
0.553964 0.055011 0.
0.555965 0.0550106 0.
0.557967 0.0550094 0.
0.559968 0.0550083 0.
0.56197 0.0550072 0.
0.563972 0.055006 0.
0.565975 0.0550049 0.
0.567977 0.0550042 0.
0.569978 0.0550038 0.
0.571979 0.0550034 0.
0.573981 0.0550026 0.
0.575983 0.0550017 0.
0.577985 0.0550008 0.
0.579986 0.0549988 0.
0.581987 0.0549968 0.
0.583989 0.0549953 0.
0.585991 0.054995 0.
0.587993 0.0549947 0.
0.589994 0.0549943 0.
0.591995 0.0549937 0.
0.593996 0.0549931 0.
0.595997 0.0549926 0.
0.597999 0.054992 0.
0.6 0.0549915 0.
0.602002 0.0549914 0.
0.604004 0.0549913 0.
0.606006 0.0549915 0.
0.608007 0.0549932 0.
0.610008 0.0549949 0.
0.612009 0.0549965 0.
0.61401 0.0549981 0.
0.616011 0.0549996 0.
0.618012 0.0550004 0.
0.620013 0.0550007 0.
0.622015 0.0550011 0.
0.624017 0.0550029 0.
0.626018 0.055005 0.
0.62802 0.0550069 0.
0.630022 0.0550076 0.
0.632024 0.0550083 0.
0.634026 0.0550096 0.
0.636027 0.0550121 0.
0.638029 0.0550146 0.
0.640031 0.0550159 0.
0.642032 0.0550165 0.
0.644034 0.0550171 0.
0.646035 0.0550169 0.
0.648037 0.0550165 0.
0.650038 0.0550161 0.
0.65204 0.0550164 0.
0.654041 0.0550167 0.
0.656042 0.0550173 0.
0.658044 0.0550187 0.
0.660045 0.05502 0.
0.662046 0.0550209 0.
0.664048 0.0550211 0.
0.66605 0.0550214 0.
0.668051 0.0550226 0.
0.670053 0.0550242 0.
0.672054 0.0550258 0.
0.674054 0.0550265 0.
0.676053 0.055027 0.
0.678053 0.0550275 0.
0.680054 0.0550283 0.
0.682055 0.0550291 0.
0.684055 0.0550307 0.
0.686056 0.0550333 0.
0.688057 0.0550359 0.
0.690057 0.0550379 0.
0.692057 0.0550395 0.
0.694057 0.0550411 0.
0.696058 0.0550434 0.
0.698059 0.0550459 0.
0.499943 0.0570424 0.
0.501943 0.0570401 0.
0.503944 0.0570376 0.
0.505944 0.0570352 0.
0.507945 0.0570324 0.
0.509945 0.0570296 0.
0.511946 0.0570272 0.
0.513947 0.0570253 0.
0.515948 0.0570235 0.
0.517949 0.0570216 0.
0.519949 0.0570196 0.
0.521949 0.0570176 0.
0.52395 0.0570174 0.
0.525951 0.0570175 0.
0.527951 0.0570175 0.
0.529952 0.0570164 0.
0.531953 0.0570153 0.
0.533954 0.0570143 0.
0.535955 0.0570134 0.
0.537955 0.0570125 0.
0.539956 0.0570119 0.
0.541958 0.0570115 0.
0.543959 0.057011 0.
0.54596 0.0570107 0.
0.547961 0.0570104 0.
0.549963 0.0570101 0.
0.551965 0.0570099 0.
0.553967 0.0570097 0.
0.555968 0.0570093 0.
0.557969 0.0570082 0.
0.559971 0.057007 0.
0.561972 0.057006 0.
0.563974 0.0570052 0.
0.565976 0.0570043 0.
0.567978 0.0570035 0.
0.569979 0.0570027 0.
0.57198 0.0570019 0.
0.573982 0.0570013 0.
0.575984 0.0570007 0.
0.577986 0.057 0.
0.579987 0.0569981 0.
0.581988 0.0569963 0.
0.583989 0.0569949 0.
0.585991 0.0569944 0.
0.587992 0.0569938 0.
0.589994 0.0569936 0.
0.591995 0.0569936 0.
0.593996 0.0569935 0.
0.595997 0.0569928 0.
0.597999 0.0569918 0.
0.6 0.0569909 0.
0.602002 0.0569909 0.
0.604004 0.056991 0.
0.606006 0.0569913 0.
0.608007 0.0569927 0.
0.610008 0.0569941 0.
0.612009 0.0569955 0.
0.61401 0.056997 0.
0.616011 0.0569986 0.
0.618012 0.0569995 0.
0.620013 0.057 0.
0.622015 0.0570006 0.
0.624016 0.0570023 0.
0.626017 0.0570042 0.
0.628018 0.0570061 0.
0.63002 0.0570074 0.
0.632022 0.0570086 0.
0.634023 0.05701 0.
0.636025 0.0570117 0.
0.638026 0.0570134 0.
0.640028 0.0570145 0.
0.64203 0.0570151 0.
0.644032 0.0570156 0.
0.646034 0.0570157 0.
0.648035 0.0570156 0.
0.650037 0.0570156 0.
0.652037 0.0570157 0.
0.654038 0.0570158 0.
0.656039 0.0570162 0.
0.658041 0.0570174 0.
0.660042 0.0570186 0.
0.662043 0.0570196 0.
0.664045 0.0570204 0.
0.666046 0.0570212 0.
0.668048 0.0570224 0.
0.670049 0.0570238 0.
0.67205 0.0570251 0.
0.67405 0.0570257 0.
0.67605 0.0570263 0.
0.67805 0.0570269 0.
0.680051 0.0570281 0.
0.682052 0.0570293 0.
0.684053 0.0570309 0.
0.686053 0.0570334 0.
0.688053 0.0570359 0.
0.690054 0.0570379 0.
0.692054 0.0570397 0.
0.694055 0.0570414 0.
0.696056 0.0570435 0.
0.698057 0.0570457 0.
0.499945 0.0590431 0.
0.501946 0.0590403 0.
0.503946 0.0590372 0.
0.505947 0.0590342 0.
0.507948 0.0590316 0.
0.509949 0.0590289 0.
0.51195 0.0590267 0.
0.513951 0.0590251 0.
0.515952 0.0590234 0.
0.517952 0.0590216 0.
0.519953 0.0590197 0.
0.521953 0.0590177 0.
0.523954 0.0590174 0.
0.525955 0.0590172 0.
0.527955 0.059017 0.
0.529956 0.0590158 0.
0.531957 0.0590146 0.
0.533958 0.0590134 0.
0.535959 0.0590124 0.
0.537959 0.0590114 0.
0.53996 0.0590107 0.
0.541961 0.0590101 0.
0.543961 0.0590096 0.
0.545962 0.0590092 0.
0.547964 0.0590089 0.
0.549965 0.0590085 0.
0.551967 0.0590085 0.
0.553969 0.0590084 0.
0.555971 0.0590081 0.
0.557972 0.059007 0.
0.559973 0.0590058 0.
0.561974 0.0590049 0.
0.563976 0.0590043 0.
0.565977 0.0590037 0.
0.567979 0.0590028 0.
0.56998 0.0590016 0.
0.571981 0.0590004 0.
0.573983 0.0589999 0.
0.575985 0.0589996 0.
0.577987 0.0589991 0.
0.579988 0.0589975 0.
0.581988 0.0589959 0.
0.583989 0.0589945 0.
0.58599 0.0589938 0.
0.587991 0.058993 0.
0.589993 0.058993 0.
0.591995 0.0589935 0.
0.593996 0.058994 0.
0.595998 0.0589931 0.
0.597999 0.0589917 0.
0.6 0.0589902 0.
0.602003 0.0589905 0.
0.604005 0.0589907 0.
0.606007 0.0589911 0.
0.608007 0.0589921 0.
0.610007 0.0589932 0.
0.612008 0.0589944 0.
0.614009 0.058996 0.
0.616011 0.0589976 0.
0.618012 0.0589986 0.
0.620013 0.0589993 0.
0.622014 0.0590001 0.
0.624015 0.0590017 0.
0.626016 0.0590035 0.
0.628017 0.0590054 0.
0.630018 0.0590072 0.
0.63202 0.0590089 0.
0.634021 0.0590104 0.
0.636022 0.0590114 0.
0.638024 0.0590123 0.
0.640026 0.0590131 0.
0.642028 0.0590136 0.
0.644031 0.0590142 0.
0.646032 0.0590146 0.
0.648034 0.0590148 0.
0.650035 0.0590151 0.
0.652035 0.059015 0.
0.654036 0.0590149 0.
0.656036 0.0590151 0.
0.658037 0.0590161 0.
0.660039 0.0590172 0.
0.66204 0.0590184 0.
0.664041 0.0590197 0.
0.666043 0.0590211 0.
0.668044 0.0590222 0.
0.670045 0.0590233 0.
0.672046 0.0590243 0.
0.674047 0.059025 0.
0.676047 0.0590256 0.
0.678048 0.0590263 0.
0.680048 0.0590279 0.
0.682049 0.0590294 0.
0.68405 0.0590313 0.
0.68605 0.0590336 0.
0.68805 0.059036 0.
0.690051 0.059038 0.
0.692052 0.0590399 0.
0.694053 0.0590417 0.
0.696054 0.0590436 0.
0.698055 0.0590454 0.
0.499948 0.0610431 0.
0.501949 0.06104 0.
0.50395 0.0610366 0.
0.50595 0.0610335 0.
0.507951 0.0610311 0.
0.509952 0.0610288 0.
0.511953 0.0610266 0.
0.513954 0.0610249 0.
0.515955 0.0610231 0.
0.517956 0.0610213 0.
0.519956 0.0610194 0.
0.521957 0.0610176 0.
0.523957 0.0610171 0.
0.525958 0.0610167 0.
0.527959 0.0610162 0.
0.52996 0.061015 0.
0.531961 0.0610138 0.
0.533961 0.0610127 0.
0.535962 0.0610117 0.
0.537962 0.0610106 0.
0.539963 0.0610098 0.
0.541964 0.061009 0.
0.543964 0.0610082 0.
0.545965 0.0610078 0.
0.547966 0.0610076 0.
0.549967 0.0610073 0.
0.551969 0.0610072 0.
0.553972 0.0610071 0.
0.555974 0.0610068 0.
0.557975 0.0610057 0.
0.559976 0.0610047 0.
0.561977 0.0610039 0.
0.563978 0.0610035 0.
0.565979 0.061003 0.
0.56798 0.0610019 0.
0.569982 0.0610006 0.
0.571983 0.0609992 0.
0.573985 0.0609989 0.
0.575986 0.0609988 0.
0.577988 0.0609985 0.
0.579988 0.0609972 0.
0.581989 0.0609958 0.
0.583989 0.0609946 0.
0.58599 0.0609936 0.
0.587991 0.0609926 0.
0.589992 0.0609926 0.
0.591994 0.0609932 0.
0.593995 0.0609937 0.
0.595997 0.0609929 0.
0.597999 0.0609916 0.
0.600001 0.0609902 0.
0.602003 0.0609905 0.
0.604005 0.0609908 0.
0.606007 0.0609911 0.
0.608007 0.060992 0.
0.610007 0.0609928 0.
0.612008 0.0609939 0.
0.614009 0.0609954 0.
0.61601 0.0609968 0.
0.618011 0.0609979 0.
0.620012 0.0609988 0.
0.622013 0.0609997 0.
0.624014 0.0610013 0.
0.626014 0.061003 0.
0.628015 0.0610047 0.
0.630017 0.0610066 0.
0.632018 0.0610085 0.
0.634019 0.06101 0.
0.636021 0.0610105 0.
0.638022 0.061011 0.
0.640024 0.0610116 0.
0.642026 0.0610122 0.
0.644029 0.0610128 0.
0.64603 0.0610134 0.
0.648031 0.061014 0.
0.650032 0.0610146 0.
0.652033 0.0610145 0.
0.654033 0.0610145 0.
0.656034 0.0610146 0.
0.658035 0.0610154 0.
0.660036 0.0610163 0.
0.662037 0.0610175 0.
0.664038 0.061019 0.
0.666039 0.0610205 0.
0.66804 0.0610216 0.
0.670042 0.0610226 0.
0.672043 0.0610236 0.
0.674043 0.0610243 0.
0.676044 0.0610249 0.
0.678045 0.0610257 0.
0.680045 0.0610275 0.
0.682046 0.0610294 0.
0.684046 0.0610313 0.
0.686047 0.0610336 0.
0.688047 0.0610358 0.
0.690048 0.0610379 0.
0.692049 0.06104 0.
0.694051 0.061042 0.
0.696051 0.0610439 0.
0.698052 0.0610456 0.
0.499952 0.0630426 0.
0.501953 0.0630392 0.
0.503954 0.0630359 0.
0.505955 0.0630329 0.
0.507955 0.063031 0.
0.509956 0.0630291 0.
0.511956 0.063027 0.
0.513957 0.0630247 0.
0.515958 0.0630225 0.
0.517958 0.0630206 0.
0.519959 0.0630189 0.
0.521959 0.0630173 0.
0.52396 0.0630165 0.
0.525961 0.063016 0.
0.527962 0.0630153 0.
0.529963 0.0630141 0.
0.531963 0.063013 0.
0.533964 0.0630119 0.
0.535964 0.0630111 0.
0.537965 0.0630103 0.
0.539966 0.0630093 0.
0.541967 0.0630082 0.
0.543968 0.063007 0.
0.545969 0.0630067 0.
0.547969 0.0630066 0.
0.54997 0.0630065 0.
0.551972 0.0630061 0.
0.553974 0.0630058 0.
0.555975 0.0630053 0.
0.557977 0.0630045 0.
0.559978 0.0630038 0.
0.561979 0.0630031 0.
0.56398 0.0630026 0.
0.565981 0.0630022 0.
0.567982 0.0630011 0.
0.569983 0.0629996 0.
0.571985 0.0629982 0.
0.573986 0.0629981 0.
0.575987 0.0629982 0.
0.577988 0.0629982 0.
0.579988 0.0629972 0.
0.581989 0.0629962 0.
0.58399 0.0629951 0.
0.58599 0.0629939 0.
0.587991 0.0629928 0.
0.589992 0.0629924 0.
0.591992 0.0629925 0.
0.593993 0.0629927 0.
0.595995 0.0629922 0.
0.597998 0.0629915 0.
0.6 0.0629908 0.
0.602003 0.0629909 0.
0.604005 0.062991 0.
0.606007 0.0629913 0.
0.608007 0.0629921 0.
0.610008 0.0629929 0.
0.612008 0.0629939 0.
0.614009 0.0629951 0.
0.616009 0.0629963 0.
0.61801 0.0629974 0.
0.62001 0.0629985 0.
0.622011 0.0629996 0.
0.624012 0.0630011 0.
0.626013 0.0630025 0.
0.628014 0.063004 0.
0.630015 0.0630057 0.
0.632016 0.0630074 0.
0.634018 0.0630086 0.
0.636019 0.0630091 0.
0.638021 0.0630095 0.
0.640022 0.0630101 0.
0.642024 0.0630108 0.
0.644025 0.0630116 0.
0.646027 0.0630124 0.
0.648028 0.0630132 0.
0.650029 0.0630141 0.
0.65203 0.0630142 0.
0.654031 0.0630144 0.
0.656032 0.0630146 0.
0.658032 0.0630153 0.
0.660033 0.0630159 0.
0.662034 0.0630168 0.
0.664035 0.0630182 0.
0.666036 0.0630195 0.
0.668037 0.0630206 0.
0.670038 0.0630218 0.
0.672039 0.0630229 0.
0.67404 0.0630236 0.
0.676041 0.0630242 0.
0.678041 0.063025 0.
0.680042 0.0630271 0.
0.682043 0.0630292 0.
0.684043 0.0630313 0.
0.686043 0.0630333 0.
0.688044 0.0630354 0.
0.690045 0.0630376 0.
0.692046 0.06304 0.
0.694047 0.0630423 0.
0.696047 0.0630443 0.
0.698047 0.0630462 0.
0.499956 0.0650419 0.
0.501957 0.0650385 0.
0.503958 0.0650352 0.
0.505959 0.0650324 0.
0.507959 0.0650309 0.
0.509959 0.0650294 0.
0.51196 0.0650273 0.
0.51396 0.0650246 0.
0.515961 0.0650219 0.
0.517961 0.06502 0.
0.519962 0.0650185 0.
0.521962 0.0650169 0.
0.523963 0.065016 0.
0.525964 0.0650152 0.
0.527965 0.0650144 0.
0.529965 0.0650133 0.
0.531966 0.0650122 0.
0.533966 0.0650112 0.
0.535967 0.0650106 0.
0.537968 0.0650099 0.
0.539969 0.0650088 0.
0.54197 0.0650073 0.
0.543972 0.0650058 0.
0.545972 0.0650055 0.
0.547972 0.0650056 0.
0.549973 0.0650057 0.
0.551974 0.065005 0.
0.553976 0.0650044 0.
0.555977 0.0650038 0.
0.557979 0.0650033 0.
0.55998 0.0650028 0.
0.561982 0.0650024 0.
0.563982 0.0650018 0.
0.565983 0.0650013 0.
0.567984 0.0650002 0.
0.569985 0.0649987 0.
0.571986 0.0649973 0.
0.573987 0.0649974 0.
0.575988 0.0649977 0.
0.577988 0.0649979 0.
0.579989 0.0649972 0.
0.581989 0.0649966 0.
0.58399 0.0649957 0.
0.58599 0.0649943 0.
0.587991 0.0649929 0.
0.589991 0.0649921 0.
0.591991 0.0649918 0.
0.593991 0.0649916 0.
0.595993 0.0649915 0.
0.597997 0.0649915 0.
0.6 0.0649914 0.
0.602003 0.0649914 0.
0.604005 0.0649913 0.
0.606006 0.0649914 0.
0.608007 0.0649922 0.
0.610008 0.064993 0.
0.612009 0.0649939 0.
0.614008 0.0649949 0.
0.616008 0.0649958 0.
0.618008 0.064997 0.
0.620009 0.0649983 0.
0.622009 0.0649996 0.
0.62401 0.0650008 0.
0.626011 0.0650021 0.
0.628012 0.0650034 0.
0.630013 0.0650048 0.
0.632015 0.0650063 0.
0.634016 0.0650073 0.
0.636018 0.0650077 0.
0.638019 0.065008 0.
0.640021 0.0650086 0.
0.642021 0.0650095 0.
0.644022 0.0650103 0.
0.646023 0.0650113 0.
0.648024 0.0650125 0.
0.650026 0.0650135 0.
0.652027 0.0650139 0.
0.654028 0.0650143 0.
0.656029 0.0650146 0.
0.65803 0.0650151 0.
0.66003 0.0650155 0.
0.662031 0.0650162 0.
0.664032 0.0650174 0.
0.666032 0.0650185 0.
0.668033 0.0650197 0.
0.670034 0.0650209 0.
0.672036 0.0650222 0.
0.674036 0.0650228 0.
0.676037 0.0650234 0.
0.678038 0.0650243 0.
0.680038 0.0650267 0.
0.682039 0.065029 0.
0.68404 0.0650312 0.
0.68604 0.0650331 0.
0.688041 0.0650351 0.
0.690041 0.0650374 0.
0.692042 0.06504 0.
0.694043 0.0650426 0.
0.696043 0.0650448 0.
0.698043 0.0650468 0.
0.49996 0.0670414 0.
0.50196 0.0670383 0.
0.503961 0.0670354 0.
0.505961 0.0670328 0.
0.507962 0.0670311 0.
0.509963 0.0670293 0.
0.511963 0.0670271 0.
0.513964 0.0670243 0.
0.515964 0.0670215 0.
0.517965 0.0670197 0.
0.519965 0.0670183 0.
0.521966 0.067017 0.
0.523966 0.0670161 0.
0.525967 0.0670153 0.
0.527967 0.0670144 0.
0.529968 0.0670132 0.
0.531968 0.067012 0.
0.533969 0.0670108 0.
0.535969 0.0670099 0.
0.53797 0.0670089 0.
0.53997 0.0670079 0.
0.541972 0.0670069 0.
0.543973 0.0670058 0.
0.545973 0.0670053 0.
0.547974 0.067005 0.
0.549975 0.0670047 0.
0.551976 0.0670042 0.
0.553978 0.0670037 0.
0.555979 0.0670032 0.
0.557981 0.0670026 0.
0.559982 0.067002 0.
0.561983 0.0670014 0.
0.563984 0.067001 0.
0.565984 0.0670005 0.
0.567985 0.0669996 0.
0.569986 0.0669985 0.
0.571987 0.0669973 0.
0.573988 0.0669972 0.
0.575988 0.0669972 0.
0.577988 0.0669971 0.
0.579989 0.0669965 0.
0.58199 0.0669959 0.
0.58399 0.0669951 0.
0.585991 0.0669943 0.
0.587991 0.0669934 0.
0.589992 0.0669925 0.
0.591992 0.0669918 0.
0.593992 0.066991 0.
0.595994 0.0669911 0.
0.597997 0.0669914 0.
0.6 0.0669916 0.
0.602002 0.0669913 0.
0.604003 0.0669909 0.
0.606005 0.0669908 0.
0.608005 0.0669917 0.
0.610006 0.0669927 0.
0.612007 0.0669936 0.
0.614007 0.0669946 0.
0.616007 0.0669956 0.
0.618007 0.0669967 0.
0.620008 0.066998 0.
0.622008 0.0669994 0.
0.624009 0.0670005 0.
0.62601 0.0670016 0.
0.628011 0.0670027 0.
0.630012 0.0670041 0.
0.632014 0.0670055 0.
0.634015 0.0670065 0.
0.636016 0.0670067 0.
0.638018 0.0670069 0.
0.640019 0.0670077 0.
0.642019 0.0670089 0.
0.64402 0.0670101 0.
0.646021 0.0670109 0.
0.648023 0.0670115 0.
0.650024 0.0670121 0.
0.652025 0.0670128 0.
0.654026 0.0670134 0.
0.656027 0.0670141 0.
0.658027 0.0670148 0.
0.660028 0.0670155 0.
0.662029 0.0670162 0.
0.664029 0.067017 0.
0.66603 0.0670178 0.
0.668031 0.067019 0.
0.670032 0.0670204 0.
0.672033 0.0670218 0.
0.674034 0.0670224 0.
0.676035 0.0670229 0.
0.678035 0.0670237 0.
0.680036 0.0670263 0.
0.682036 0.0670289 0.
0.684036 0.0670312 0.
0.686037 0.0670331 0.
0.688037 0.0670349 0.
0.690038 0.0670373 0.
0.692038 0.0670402 0.
0.694039 0.0670431 0.
0.696039 0.0670451 0.
0.698039 0.0670469 0.
0.499963 0.0690405 0.
0.501964 0.0690381 0.
0.503964 0.0690356 0.
0.505964 0.0690333 0.
0.507965 0.0690312 0.
0.509966 0.0690292 0.
0.511967 0.0690268 0.
0.513967 0.0690239 0.
0.515968 0.069021 0.
0.517969 0.0690193 0.
0.519969 0.0690182 0.
0.52197 0.0690171 0.
0.523969 0.0690162 0.
0.525969 0.0690154 0.
0.527969 0.0690145 0.
0.52997 0.0690131 0.
0.531971 0.0690118 0.
0.533971 0.0690105 0.
0.535971 0.0690092 0.
0.537971 0.0690079 0.
0.539972 0.069007 0.
0.541973 0.0690064 0.
0.543974 0.0690057 0.
0.545975 0.0690051 0.
0.547976 0.0690044 0.
0.549977 0.0690038 0.
0.551978 0.0690034 0.
0.55398 0.069003 0.
0.555981 0.0690026 0.
0.557982 0.0690018 0.
0.559983 0.0690011 0.
0.561984 0.0690005 0.
0.563985 0.0690001 0.
0.565986 0.0689997 0.
0.567987 0.0689991 0.
0.569987 0.0689982 0.
0.571988 0.0689974 0.
0.573988 0.068997 0.
0.575989 0.0689967 0.
0.577989 0.0689964 0.
0.57999 0.0689958 0.
0.58199 0.0689952 0.
0.583991 0.0689946 0.
0.585992 0.0689942 0.
0.587992 0.0689938 0.
0.589992 0.068993 0.
0.591993 0.0689917 0.
0.593993 0.0689904 0.
0.595995 0.0689906 0.
0.597998 0.0689912 0.
0.6 0.0689918 0.
0.602001 0.0689911 0.
0.604002 0.0689905 0.
0.606003 0.0689902 0.
0.608004 0.0689912 0.
0.610004 0.0689923 0.
0.612005 0.0689933 0.
0.614005 0.0689943 0.
0.616006 0.0689953 0.
0.618006 0.0689965 0.
0.620007 0.0689978 0.
0.622008 0.0689991 0.
0.624009 0.0690001 0.
0.626009 0.069001 0.
0.62801 0.0690019 0.
0.630011 0.0690033 0.
0.632013 0.0690048 0.
0.634014 0.0690057 0.
0.636015 0.0690057 0.
0.638016 0.0690057 0.
0.640017 0.0690067 0.
0.642017 0.0690083 0.
0.644018 0.06901 0.
0.646019 0.0690104 0.
0.648021 0.0690105 0.
0.650023 0.0690106 0.
0.652023 0.0690116 0.
0.654023 0.0690126 0.
0.656024 0.0690136 0.
0.658025 0.0690145 0.
0.660025 0.0690155 0.
0.662026 0.0690162 0.
0.664027 0.0690167 0.
0.666028 0.0690171 0.
0.668029 0.0690183 0.
0.67003 0.0690199 0.
0.672031 0.0690215 0.
0.674031 0.069022 0.
0.676032 0.0690223 0.
0.678033 0.0690231 0.
0.680033 0.0690259 0.
0.682033 0.0690288 0.
0.684033 0.0690312 0.
0.686033 0.069033 0.
0.688033 0.0690348 0.
0.690034 0.0690373 0.
0.692035 0.0690404 0.
0.694035 0.0690436 0.
0.696036 0.0690454 0.
0.698036 0.069047 0.
0.499967 0.0710402 0.
0.501967 0.0710378 0.
0.503967 0.0710354 0.
0.505967 0.071033 0.
0.507968 0.0710309 0.
0.509969 0.0710288 0.
0.51197 0.0710264 0.
0.513971 0.0710235 0.
0.515971 0.0710206 0.
0.517972 0.071019 0.
0.519972 0.0710181 0.
0.521973 0.0710173 0.
0.523972 0.0710161 0.
0.525972 0.071015 0.
0.527972 0.0710138 0.
0.529973 0.0710126 0.
0.531973 0.0710114 0.
0.533974 0.0710101 0.
0.535974 0.0710086 0.
0.537973 0.0710072 0.
0.539974 0.0710063 0.
0.541975 0.071006 0.
0.543976 0.0710057 0.
0.545977 0.0710049 0.
0.547978 0.071004 0.
0.549979 0.0710032 0.
0.55198 0.0710029 0.
0.553982 0.0710026 0.
0.555983 0.0710022 0.
0.557984 0.0710013 0.
0.559984 0.0710003 0.
0.561985 0.0709996 0.
0.563986 0.0709992 0.
0.565987 0.0709988 0.
0.567988 0.0709984 0.
0.569988 0.0709978 0.
0.571989 0.0709973 0.
0.573989 0.0709968 0.
0.575989 0.0709963 0.
0.577989 0.0709958 0.
0.57999 0.0709952 0.
0.581991 0.0709945 0.
0.583992 0.070994 0.
0.585992 0.0709938 0.
0.587993 0.0709935 0.
0.589993 0.0709927 0.
0.591994 0.0709915 0.
0.593994 0.0709903 0.
0.595996 0.0709904 0.
0.597998 0.0709909 0.
0.6 0.0709914 0.
0.602001 0.0709908 0.
0.604002 0.0709903 0.
0.606002 0.0709901 0.
0.608003 0.0709911 0.
0.610003 0.070992 0.
0.612003 0.0709929 0.
0.614004 0.0709936 0.
0.616005 0.0709944 0.
0.618006 0.0709957 0.
0.620007 0.0709973 0.
0.622008 0.0709988 0.
0.624008 0.0709997 0.
0.626009 0.0710004 0.
0.62801 0.0710012 0.
0.630011 0.0710025 0.
0.632012 0.0710039 0.
0.634013 0.0710048 0.
0.636014 0.0710047 0.
0.638014 0.0710047 0.
0.640015 0.0710057 0.
0.642015 0.0710076 0.
0.644016 0.0710094 0.
0.646017 0.0710097 0.
0.648019 0.0710096 0.
0.65002 0.0710094 0.
0.652021 0.0710106 0.
0.654021 0.0710118 0.
0.656021 0.071013 0.
0.658022 0.0710141 0.
0.660023 0.0710151 0.
0.662024 0.0710158 0.
0.664025 0.071016 0.
0.666026 0.0710162 0.
0.668027 0.0710174 0.
0.670027 0.0710191 0.
0.672028 0.0710208 0.
0.674029 0.0710215 0.
0.676029 0.0710221 0.
0.67803 0.071023 0.
0.68003 0.0710257 0.
0.68203 0.0710285 0.
0.68403 0.0710309 0.
0.68603 0.0710327 0.
0.68803 0.0710345 0.
0.690031 0.0710372 0.
0.692032 0.0710405 0.
0.694032 0.0710438 0.
0.696033 0.0710455 0.
0.698033 0.0710467 0.
0.499969 0.0730403 0.
0.501969 0.0730374 0.
0.50397 0.0730347 0.
0.505971 0.0730322 0.
0.507971 0.0730302 0.
0.509972 0.0730282 0.
0.511972 0.0730259 0.
0.513973 0.073023 0.
0.515974 0.0730202 0.
0.517975 0.0730188 0.
0.519975 0.0730181 0.
0.521976 0.0730174 0.
0.523975 0.0730158 0.
0.525975 0.0730141 0.
0.527975 0.0730125 0.
0.529975 0.0730117 0.
0.531976 0.0730109 0.
0.533976 0.0730099 0.
0.535976 0.0730082 0.
0.537976 0.0730066 0.
0.539977 0.0730058 0.
0.541978 0.0730057 0.
0.543979 0.0730056 0.
0.545979 0.0730048 0.
0.54798 0.0730038 0.
0.549981 0.0730028 0.
0.551982 0.0730026 0.
0.553983 0.0730024 0.
0.555984 0.0730021 0.
0.557984 0.0730009 0.
0.559985 0.0729998 0.
0.561985 0.0729989 0.
0.563987 0.0729983 0.
0.565988 0.0729978 0.
0.567989 0.0729975 0.
0.569989 0.0729973 0.
0.57199 0.0729971 0.
0.57399 0.0729965 0.
0.57599 0.072996 0.
0.57799 0.0729954 0.
0.579991 0.0729946 0.
0.581991 0.0729939 0.
0.583992 0.0729933 0.
0.585993 0.0729929 0.
0.587994 0.0729924 0.
0.589994 0.0729919 0.
0.591994 0.0729912 0.
0.593994 0.0729906 0.
0.595996 0.0729904 0.
0.597998 0.0729904 0.
0.6 0.0729904 0.
0.602001 0.0729904 0.
0.604001 0.0729903 0.
0.606002 0.0729905 0.
0.608002 0.0729912 0.
0.610002 0.072992 0.
0.612003 0.0729925 0.
0.614003 0.0729927 0.
0.616004 0.0729928 0.
0.618005 0.0729943 0.
0.620006 0.0729964 0.
0.622007 0.0729985 0.
0.624008 0.0729992 0.
0.626008 0.0729998 0.
0.628009 0.0730004 0.
0.63001 0.0730017 0.
0.63201 0.073003 0.
0.634011 0.0730038 0.
0.636012 0.0730037 0.
0.638013 0.0730036 0.
0.640013 0.0730047 0.
0.642014 0.0730066 0.
0.644014 0.0730085 0.
0.646015 0.0730088 0.
0.648016 0.0730087 0.
0.650018 0.0730085 0.
0.652018 0.0730098 0.
0.654018 0.0730111 0.
0.656018 0.0730124 0.
0.658019 0.0730134 0.
0.66002 0.0730144 0.
0.662021 0.073015 0.
0.664022 0.073015 0.
0.666022 0.073015 0.
0.668023 0.0730162 0.
0.670024 0.073018 0.
0.672025 0.0730199 0.
0.674026 0.073021 0.
0.676026 0.0730221 0.
0.678026 0.0730234 0.
0.680026 0.0730257 0.
0.682026 0.0730281 0.
0.684027 0.0730302 0.
0.686027 0.0730322 0.
0.688028 0.0730341 0.
0.690029 0.073037 0.
0.692029 0.0730404 0.
0.69403 0.0730438 0.
0.69603 0.0730452 0.
0.698031 0.073046 0.
0.499971 0.07504 0.
0.501972 0.075037 0.
0.503974 0.0750341 0.
0.505975 0.0750313 0.
0.507974 0.0750294 0.
0.509974 0.0750276 0.
0.511975 0.0750254 0.
0.513976 0.0750226 0.
0.515977 0.0750198 0.
0.517978 0.0750185 0.
0.519978 0.075018 0.
0.521979 0.0750175 0.
0.523978 0.0750155 0.
0.525978 0.0750132 0.
0.527978 0.0750111 0.
0.529978 0.0750108 0.
0.531979 0.0750104 0.
0.533979 0.0750096 0.
0.535979 0.0750078 0.
0.537979 0.0750061 0.
0.53998 0.0750054 0.
0.54198 0.0750054 0.
0.543981 0.0750055 0.
0.545982 0.0750047 0.
0.547982 0.0750036 0.
0.549983 0.0750024 0.
0.551983 0.0750023 0.
0.553984 0.0750023 0.
0.555985 0.075002 0.
0.557985 0.0750006 0.
0.559985 0.0749992 0.
0.561986 0.0749981 0.
0.563987 0.0749975 0.
0.565989 0.0749968 0.
0.56799 0.0749967 0.
0.56999 0.0749968 0.
0.571991 0.0749969 0.
0.57399 0.0749963 0.
0.57599 0.0749956 0.
0.57799 0.0749949 0.
0.579991 0.0749941 0.
0.581992 0.0749933 0.
0.583993 0.0749926 0.
0.585994 0.074992 0.
0.587994 0.0749913 0.
0.589995 0.074991 0.
0.591994 0.074991 0.
0.593994 0.0749909 0.
0.595996 0.0749905 0.
0.597998 0.07499 0.
0.6 0.0749894 0.
0.602001 0.0749899 0.
0.604001 0.0749904 0.
0.606001 0.0749909 0.
0.608002 0.0749914 0.
0.610002 0.0749919 0.
0.612002 0.074992 0.
0.614003 0.0749917 0.
0.616003 0.0749913 0.
0.618004 0.074993 0.
0.620005 0.0749955 0.
0.622006 0.0749981 0.
0.624007 0.0749987 0.
0.626008 0.0749992 0.
0.628008 0.0749997 0.
0.630009 0.0750009 0.
0.632009 0.0750021 0.
0.63401 0.0750028 0.
0.63601 0.0750027 0.
0.638011 0.0750026 0.
0.640012 0.0750037 0.
0.642012 0.0750057 0.
0.644013 0.0750076 0.
0.646013 0.0750079 0.
0.648014 0.0750078 0.
0.650015 0.0750076 0.
0.652015 0.075009 0.
0.654015 0.0750104 0.
0.656016 0.0750118 0.
0.658017 0.0750127 0.
0.660017 0.0750137 0.
0.662018 0.0750142 0.
0.664019 0.075014 0.
0.666019 0.0750139 0.
0.66802 0.0750151 0.
0.670021 0.075017 0.
0.672022 0.0750189 0.
0.674023 0.0750206 0.
0.676023 0.0750222 0.
0.678023 0.0750239 0.
0.680023 0.0750257 0.
0.682023 0.0750276 0.
0.684023 0.0750296 0.
0.686024 0.0750317 0.
0.688026 0.0750337 0.
0.690026 0.0750367 0.
0.692027 0.0750403 0.
0.694028 0.0750438 0.
0.696028 0.075045 0.
0.698029 0.0750454 0.
0.499973 0.0770395 0.
0.501974 0.0770366 0.
0.503976 0.0770336 0.
0.505977 0.0770308 0.
0.507977 0.0770288 0.
0.509977 0.0770267 0.
0.511978 0.0770246 0.
0.513978 0.0770225 0.
0.515979 0.0770203 0.
0.517979 0.0770187 0.
0.51998 0.0770176 0.
0.52198 0.0770164 0.
0.52398 0.0770146 0.
0.52598 0.0770127 0.
0.527979 0.077011 0.
0.52998 0.0770106 0.
0.53198 0.0770102 0.
0.53398 0.0770094 0.
0.53598 0.0770074 0.
0.53798 0.0770054 0.
0.539981 0.0770046 0.
0.541981 0.0770048 0.
0.543982 0.077005 0.
0.545983 0.0770044 0.
0.547984 0.0770036 0.
0.549984 0.0770027 0.
0.551985 0.0770022 0.
0.553986 0.0770018 0.
0.555986 0.0770012 0.
0.557987 0.0769997 0.
0.559988 0.0769983 0.
0.561988 0.0769974 0.
0.563989 0.0769972 0.
0.56599 0.076997 0.
0.567991 0.0769968 0.
0.569991 0.0769966 0.
0.571991 0.0769963 0.
0.573991 0.0769957 0.
0.575991 0.0769951 0.
0.577991 0.0769944 0.
0.579992 0.0769936 0.
0.581993 0.0769929 0.
0.583994 0.0769922 0.
0.585994 0.0769918 0.
0.587995 0.0769914 0.
0.589995 0.076991 0.
0.591995 0.0769907 0.
0.593994 0.0769904 0.
0.595996 0.07699 0.
0.597998 0.0769896 0.
0.6 0.0769892 0.
0.602 0.0769897 0.
0.604001 0.0769902 0.
0.606001 0.0769908 0.
0.608001 0.0769915 0.
0.610001 0.0769922 0.
0.612001 0.0769925 0.
0.614002 0.0769922 0.
0.616002 0.0769919 0.
0.618003 0.0769932 0.
0.620004 0.0769953 0.
0.622004 0.0769973 0.
0.624005 0.0769982 0.
0.626006 0.0769989 0.
0.628007 0.0769997 0.
0.630007 0.0770008 0.
0.632008 0.0770018 0.
0.634008 0.0770025 0.
0.636009 0.0770026 0.
0.638009 0.0770028 0.
0.64001 0.0770038 0.
0.64201 0.0770056 0.
0.64401 0.0770074 0.
0.646011 0.0770079 0.
0.648012 0.077008 0.
0.650012 0.0770081 0.
0.652013 0.0770091 0.
0.654013 0.07701 0.
0.656014 0.077011 0.
0.658014 0.0770121 0.
0.660015 0.0770133 0.
0.662016 0.0770137 0.
0.664016 0.0770132 0.
0.666017 0.0770128 0.
0.668018 0.0770141 0.
0.670019 0.0770163 0.
0.672019 0.0770185 0.
0.67402 0.0770205 0.
0.67602 0.0770223 0.
0.678021 0.0770242 0.
0.68002 0.0770258 0.
0.68202 0.0770275 0.
0.68402 0.0770293 0.
0.686021 0.0770315 0.
0.688022 0.0770337 0.
0.690023 0.0770363 0.
0.692024 0.0770393 0.
0.694025 0.0770423 0.
0.696026 0.0770439 0.
0.698026 0.0770452 0.
0.499975 0.0790392 0.
0.501977 0.0790362 0.
0.503978 0.0790332 0.
0.505979 0.0790303 0.
0.50798 0.0790281 0.
0.50998 0.0790259 0.
0.511981 0.0790239 0.
0.513981 0.0790223 0.
0.515981 0.0790207 0.
0.517981 0.0790189 0.
0.519982 0.0790171 0.
0.521982 0.0790153 0.
0.523982 0.0790138 0.
0.525981 0.0790123 0.
0.527981 0.0790108 0.
0.529981 0.0790105 0.
0.531981 0.0790101 0.
0.533982 0.0790091 0.
0.535981 0.0790069 0.
0.537981 0.0790047 0.
0.539982 0.0790039 0.
0.541982 0.0790042 0.
0.543983 0.0790045 0.
0.545984 0.0790041 0.
0.547985 0.0790035 0.
0.549986 0.0790029 0.
0.551987 0.0790021 0.
0.553987 0.0790013 0.
0.555988 0.0790003 0.
0.557989 0.0789989 0.
0.55999 0.0789974 0.
0.561991 0.0789967 0.
0.563991 0.0789969 0.
0.565992 0.0789971 0.
0.567992 0.0789968 0.
0.569992 0.0789963 0.
0.571991 0.0789958 0.
0.573992 0.0789952 0.
0.575992 0.0789945 0.
0.577992 0.0789938 0.
0.579993 0.0789931 0.
0.581994 0.0789924 0.
0.583995 0.0789919 0.
0.585995 0.0789917 0.
0.587995 0.0789914 0.
0.589995 0.078991 0.
0.591995 0.0789904 0.
0.593995 0.0789898 0.
0.595997 0.0789894 0.
0.597998 0.0789892 0.
0.6 0.0789889 0.
0.602 0.0789895 0.
0.604 0.0789901 0.
0.606 0.0789908 0.
0.608 0.0789916 0.
0.610001 0.0789925 0.
0.612001 0.0789929 0.
0.614001 0.0789927 0.
0.616001 0.0789925 0.
0.618001 0.0789935 0.
0.620002 0.078995 0.
0.622003 0.0789966 0.
0.624004 0.0789977 0.
0.626004 0.0789987 0.
0.628005 0.0789997 0.
0.630006 0.0790006 0.
0.632007 0.0790015 0.
0.634007 0.0790022 0.
0.636007 0.0790026 0.
0.638008 0.0790029 0.
0.640008 0.079004 0.
0.642008 0.0790056 0.
0.644008 0.0790072 0.
0.646009 0.0790078 0.
0.648009 0.0790082 0.
0.65001 0.0790086 0.
0.65201 0.0790091 0.
0.654011 0.0790097 0.
0.656011 0.0790103 0.
0.658012 0.0790116 0.
0.660013 0.0790128 0.
0.662013 0.0790132 0.
0.664014 0.0790124 0.
0.666014 0.0790117 0.
0.668015 0.0790131 0.
0.670016 0.0790157 0.
0.672017 0.0790182 0.
0.674017 0.0790204 0.
0.676018 0.0790225 0.
0.678019 0.0790245 0.
0.680018 0.0790259 0.
0.682017 0.0790273 0.
0.684017 0.0790291 0.
0.686018 0.0790313 0.
0.688019 0.0790336 0.
0.69002 0.079036 0.
0.692021 0.0790383 0.
0.694022 0.0790407 0.
0.696023 0.0790429 0.
0.698024 0.079045 0.
0.499978 0.0810392 0.
0.501979 0.081036 0.
0.50398 0.081033 0.
0.505981 0.0810301 0.
0.507982 0.0810277 0.
0.509983 0.0810252 0.
0.511984 0.0810233 0.
0.513983 0.0810221 0.
0.515983 0.0810209 0.
0.517983 0.0810191 0.
0.519983 0.0810169 0.
0.521984 0.0810148 0.
0.523984 0.0810134 0.
0.525983 0.0810121 0.
0.527983 0.0810108 0.
0.529983 0.0810101 0.
0.531983 0.0810095 0.
0.533983 0.0810084 0.
0.535983 0.0810064 0.
0.537983 0.0810045 0.
0.539983 0.0810036 0.
0.541984 0.0810035 0.
0.543985 0.0810034 0.
0.545986 0.0810032 0.
0.547987 0.0810029 0.
0.549988 0.0810027 0.
0.551988 0.0810019 0.
0.553988 0.081001 0.
0.555989 0.0810001 0.
0.55799 0.0809985 0.
0.559991 0.080997 0.
0.561992 0.0809963 0.
0.563992 0.0809966 0.
0.565992 0.0809969 0.
0.567992 0.0809967 0.
0.569992 0.0809962 0.
0.571992 0.0809957 0.
0.573993 0.080995 0.
0.575993 0.0809942 0.
0.577994 0.0809934 0.
0.579994 0.0809928 0.
0.581995 0.0809923 0.
0.583995 0.0809918 0.
0.585995 0.0809915 0.
0.587996 0.0809912 0.
0.589996 0.0809908 0.
0.591996 0.0809903 0.
0.593995 0.0809899 0.
0.595997 0.0809895 0.
0.597998 0.0809892 0.
0.6 0.0809889 0.
0.602 0.0809895 0.
0.604 0.08099 0.
0.606 0.0809907 0.
0.608 0.0809916 0.
0.61 0.0809925 0.
0.612 0.0809929 0.
0.614 0.0809929 0.
0.616 0.0809928 0.
0.618001 0.0809937 0.
0.620001 0.0809949 0.
0.622001 0.0809962 0.
0.624002 0.0809974 0.
0.626003 0.0809986 0.
0.628004 0.0809998 0.
0.630005 0.0810007 0.
0.632005 0.0810016 0.
0.634006 0.0810023 0.
0.636006 0.0810026 0.
0.638006 0.0810029 0.
0.640006 0.0810039 0.
0.642006 0.0810054 0.
0.644006 0.081007 0.
0.646007 0.0810076 0.
0.648007 0.0810081 0.
0.650008 0.0810085 0.
0.652008 0.0810088 0.
0.654009 0.081009 0.
0.656009 0.0810094 0.
0.65801 0.0810106 0.
0.660011 0.0810117 0.
0.662012 0.0810121 0.
0.664012 0.0810117 0.
0.666012 0.0810113 0.
0.668013 0.0810127 0.
0.670013 0.0810151 0.
0.672014 0.0810174 0.
0.674015 0.0810197 0.
0.676015 0.081022 0.
0.678016 0.0810241 0.
0.680016 0.0810255 0.
0.682015 0.081027 0.
0.684015 0.0810287 0.
0.686016 0.0810308 0.
0.688017 0.0810329 0.
0.690018 0.0810352 0.
0.692019 0.0810376 0.
0.69402 0.0810399 0.
0.696021 0.0810422 0.
0.698021 0.0810445 0.
0.499981 0.0830388 0.
0.501982 0.083036 0.
0.503982 0.0830331 0.
0.505983 0.0830303 0.
0.507984 0.0830275 0.
0.509985 0.0830248 0.
0.511986 0.0830228 0.
0.513986 0.0830218 0.
0.515986 0.0830208 0.
0.517986 0.0830191 0.
0.519986 0.0830169 0.
0.521986 0.0830148 0.
0.523985 0.0830135 0.
0.525985 0.0830122 0.
0.527985 0.0830109 0.
0.529985 0.0830096 0.
0.531986 0.0830084 0.
0.533986 0.0830071 0.
0.535986 0.083006 0.
0.537986 0.0830048 0.
0.539986 0.0830037 0.
0.541986 0.0830027 0.
0.543986 0.0830017 0.
0.545987 0.0830016 0.
0.547988 0.0830017 0.
0.549989 0.0830019 0.
0.551989 0.0830014 0.
0.553989 0.0830009 0.
0.555989 0.0830002 0.
0.55799 0.0829986 0.
0.55999 0.0829971 0.
0.561991 0.0829962 0.
0.563992 0.0829963 0.
0.565992 0.0829964 0.
0.567993 0.0829962 0.
0.569993 0.0829961 0.
0.571994 0.0829959 0.
0.573994 0.082995 0.
0.575994 0.082994 0.
0.577995 0.0829931 0.
0.579995 0.0829927 0.
0.581994 0.0829924 0.
0.583994 0.082992 0.
0.585995 0.0829913 0.
0.587996 0.0829906 0.
0.589996 0.0829904 0.
0.591996 0.0829905 0.
0.593996 0.0829905 0.
0.595997 0.0829902 0.
0.597998 0.0829898 0.
0.6 0.0829893 0.
0.602 0.0829897 0.
0.604 0.08299 0.
0.606 0.0829904 0.
0.608 0.0829913 0.
0.61 0.0829921 0.
0.612 0.0829926 0.
0.614 0.0829928 0.
0.616 0.0829929 0.
0.618 0.0829938 0.
0.620001 0.0829949 0.
0.622001 0.0829961 0.
0.624001 0.0829973 0.
0.626002 0.0829986 0.
0.628003 0.0829998 0.
0.630004 0.0830009 0.
0.632004 0.0830019 0.
0.634005 0.0830025 0.
0.636005 0.0830026 0.
0.638005 0.0830027 0.
0.640005 0.0830036 0.
0.642005 0.0830052 0.
0.644005 0.0830068 0.
0.646005 0.0830073 0.
0.648006 0.0830076 0.
0.650007 0.0830078 0.
0.652007 0.083008 0.
0.654007 0.0830082 0.
0.656008 0.0830085 0.
0.658009 0.0830092 0.
0.66001 0.0830099 0.
0.662011 0.0830105 0.
0.664011 0.0830111 0.
0.666011 0.0830116 0.
0.668011 0.0830129 0.
0.670011 0.0830146 0.
0.672011 0.0830162 0.
0.674012 0.0830185 0.
0.676012 0.0830209 0.
0.678013 0.0830232 0.
0.680013 0.0830248 0.
0.682013 0.0830264 0.
0.684014 0.0830281 0.
0.686015 0.0830299 0.
0.688016 0.0830317 0.
0.690016 0.0830341 0.
0.692017 0.083037 0.
0.694017 0.0830399 0.
0.696018 0.0830419 0.
0.698018 0.0830437 0.
0.499984 0.0850385 0.
0.501984 0.085036 0.
0.503984 0.0850332 0.
0.505985 0.0850304 0.
0.507986 0.0850274 0.
0.509987 0.0850243 0.
0.511988 0.0850223 0.
0.513988 0.0850216 0.
0.515989 0.0850208 0.
0.517989 0.0850191 0.
0.519988 0.0850169 0.
0.521988 0.0850148 0.
0.523987 0.0850135 0.
0.525987 0.0850123 0.
0.527987 0.085011 0.
0.529988 0.0850091 0.
0.531988 0.0850073 0.
0.533989 0.0850059 0.
0.535988 0.0850055 0.
0.537988 0.0850051 0.
0.539988 0.0850038 0.
0.541988 0.0850019 0.
0.543988 0.085 0.
0.545989 0.085 0.
0.547989 0.0850005 0.
0.54999 0.0850011 0.
0.55199 0.085001 0.
0.55399 0.0850009 0.
0.55599 0.0850003 0.
0.55799 0.0849987 0.
0.55999 0.0849971 0.
0.56199 0.0849961 0.
0.563991 0.084996 0.
0.565992 0.0849958 0.
0.567993 0.0849958 0.
0.569994 0.084996 0.
0.571995 0.0849961 0.
0.573995 0.0849951 0.
0.575996 0.0849938 0.
0.577996 0.0849927 0.
0.579995 0.0849926 0.
0.581994 0.0849926 0.
0.583994 0.0849922 0.
0.585995 0.0849911 0.
0.587996 0.0849901 0.
0.589996 0.0849899 0.
0.591996 0.0849906 0.
0.593996 0.0849912 0.
0.595997 0.0849909 0.
0.597998 0.0849903 0.
0.599999 0.0849898 0.
0.601999 0.0849899 0.
0.603999 0.08499 0.
0.605999 0.0849902 0.
0.607999 0.084991 0.
0.609999 0.0849917 0.
0.611999 0.0849924 0.
0.614 0.0849927 0.
0.616 0.0849931 0.
0.618 0.0849939 0.
0.62 0.0849949 0.
0.622 0.084996 0.
0.624001 0.0849973 0.
0.626001 0.0849986 0.
0.628002 0.0849999 0.
0.630003 0.0850011 0.
0.632003 0.0850022 0.
0.634003 0.0850028 0.
0.636003 0.0850026 0.
0.638003 0.0850024 0.
0.640003 0.0850033 0.
0.642003 0.085005 0.
0.644003 0.0850066 0.
0.646004 0.085007 0.
0.648005 0.085007 0.
0.650005 0.0850071 0.
0.652005 0.0850072 0.
0.654006 0.0850073 0.
0.656006 0.0850075 0.
0.658008 0.0850078 0.
0.660009 0.0850081 0.
0.66201 0.0850089 0.
0.66401 0.0850104 0.
0.666009 0.0850119 0.
0.668009 0.085013 0.
0.670009 0.0850141 0.
0.672008 0.0850151 0.
0.674009 0.0850174 0.
0.676009 0.0850198 0.
0.67801 0.0850222 0.
0.680011 0.085024 0.
0.682011 0.0850258 0.
0.684012 0.0850275 0.
0.686013 0.085029 0.
0.688014 0.0850305 0.
0.690015 0.0850331 0.
0.692015 0.0850365 0.
0.694015 0.08504 0.
0.696015 0.0850416 0.
0.698016 0.0850429 0.
0.499987 0.0870384 0.
0.501987 0.0870355 0.
0.503988 0.0870325 0.
0.505988 0.0870297 0.
0.507989 0.0870271 0.
0.509989 0.0870245 0.
0.51199 0.0870226 0.
0.51399 0.0870215 0.
0.51599 0.0870204 0.
0.51799 0.0870188 0.
0.51999 0.0870168 0.
0.521989 0.0870148 0.
0.523989 0.0870134 0.
0.525989 0.0870119 0.
0.52799 0.0870104 0.
0.52999 0.0870085 0.
0.53199 0.0870067 0.
0.53399 0.0870054 0.
0.53599 0.087005 0.
0.53799 0.0870047 0.
0.53999 0.0870037 0.
0.54199 0.0870022 0.
0.54399 0.0870007 0.
0.54599 0.0870004 0.
0.54799 0.0870006 0.
0.54999 0.0870007 0.
0.551991 0.0870005 0.
0.553991 0.0870003 0.
0.555991 0.0869999 0.
0.557991 0.0869985 0.
0.559991 0.0869972 0.
0.561991 0.0869962 0.
0.563992 0.0869956 0.
0.565993 0.0869949 0.
0.567993 0.0869949 0.
0.569994 0.0869951 0.
0.571995 0.0869954 0.
0.573995 0.0869948 0.
0.575996 0.086994 0.
0.577996 0.0869933 0.
0.579996 0.0869931 0.
0.581995 0.0869929 0.
0.583995 0.0869924 0.
0.585995 0.0869913 0.
0.587996 0.0869901 0.
0.589996 0.08699 0.
0.591996 0.0869906 0.
0.593996 0.0869912 0.
0.595997 0.0869909 0.
0.597997 0.0869904 0.
0.599998 0.0869898 0.
0.601999 0.0869899 0.
0.603999 0.08699 0.
0.605999 0.0869902 0.
0.607999 0.0869909 0.
0.609999 0.0869916 0.
0.611999 0.0869923 0.
0.614 0.0869929 0.
0.616 0.0869935 0.
0.618 0.0869944 0.
0.62 0.0869953 0.
0.622 0.0869962 0.
0.624 0.0869974 0.
0.626001 0.0869986 0.
0.628001 0.0869998 0.
0.630002 0.0870011 0.
0.632002 0.0870023 0.
0.634003 0.087003 0.
0.636003 0.0870028 0.
0.638003 0.0870026 0.
0.640003 0.0870032 0.
0.642003 0.0870043 0.
0.644003 0.0870055 0.
0.646003 0.0870058 0.
0.648004 0.0870059 0.
0.650004 0.087006 0.
0.652004 0.0870064 0.
0.654005 0.0870069 0.
0.656005 0.0870072 0.
0.658006 0.0870075 0.
0.660007 0.0870077 0.
0.662007 0.0870087 0.
0.664008 0.0870105 0.
0.666008 0.0870123 0.
0.668008 0.0870136 0.
0.670007 0.0870147 0.
0.672007 0.0870158 0.
0.674007 0.0870176 0.
0.676007 0.0870195 0.
0.678007 0.0870214 0.
0.680008 0.0870234 0.
0.682008 0.0870254 0.
0.684009 0.0870273 0.
0.686009 0.087029 0.
0.68801 0.0870307 0.
0.69001 0.0870332 0.
0.692011 0.0870363 0.
0.694012 0.0870395 0.
0.696012 0.0870415 0.
0.698012 0.0870433 0.
0.49999 0.0890381 0.
0.50199 0.089035 0.
0.503991 0.0890318 0.
0.505992 0.0890289 0.
0.507992 0.0890268 0.
0.509992 0.0890247 0.
0.511992 0.0890229 0.
0.513992 0.0890215 0.
0.515992 0.0890201 0.
0.517992 0.0890184 0.
0.519992 0.0890167 0.
0.521991 0.0890149 0.
0.523991 0.0890132 0.
0.525992 0.0890115 0.
0.527992 0.0890098 0.
0.529992 0.089008 0.
0.531993 0.0890061 0.
0.533992 0.0890048 0.
0.535992 0.0890045 0.
0.537991 0.0890043 0.
0.539991 0.0890036 0.
0.541991 0.0890025 0.
0.543992 0.0890014 0.
0.545992 0.0890009 0.
0.547991 0.0890006 0.
0.54999 0.0890003 0.
0.551991 0.0890001 0.
0.553992 0.0889998 0.
0.555992 0.0889994 0.
0.557992 0.0889983 0.
0.559992 0.0889973 0.
0.561993 0.0889962 0.
0.563993 0.0889952 0.
0.565993 0.0889941 0.
0.567994 0.088994 0.
0.569994 0.0889943 0.
0.571995 0.0889947 0.
0.573996 0.0889945 0.
0.575996 0.0889943 0.
0.577996 0.088994 0.
0.579996 0.0889936 0.
0.581996 0.0889932 0.
0.583996 0.0889926 0.
0.585996 0.0889914 0.
0.587996 0.0889902 0.
0.589996 0.08899 0.
0.591996 0.0889907 0.
0.593996 0.0889913 0.
0.595996 0.088991 0.
0.597997 0.0889904 0.
0.599997 0.0889898 0.
0.601998 0.0889899 0.
0.603999 0.08899 0.
0.605999 0.0889902 0.
0.607999 0.0889908 0.
0.609999 0.0889914 0.
0.611999 0.0889922 0.
0.614 0.0889931 0.
0.616 0.088994 0.
0.618 0.0889949 0.
0.62 0.0889957 0.
0.622 0.0889965 0.
0.624 0.0889975 0.
0.626 0.0889986 0.
0.628001 0.0889997 0.
0.630001 0.0890011 0.
0.632002 0.0890024 0.
0.634003 0.0890033 0.
0.636003 0.089003 0.
0.638003 0.0890028 0.
0.640003 0.089003 0.
0.642003 0.0890037 0.
0.644003 0.0890043 0.
0.646003 0.0890046 0.
0.648003 0.0890048 0.
0.650002 0.089005 0.
0.652003 0.0890057 0.
0.654004 0.0890064 0.
0.656004 0.089007 0.
0.658005 0.0890072 0.
0.660005 0.0890074 0.
0.662005 0.0890084 0.
0.664005 0.0890105 0.
0.666006 0.0890126 0.
0.668006 0.0890141 0.
0.670006 0.0890153 0.
0.672006 0.0890165 0.
0.674005 0.0890179 0.
0.676005 0.0890192 0.
0.678004 0.0890207 0.
0.680005 0.0890228 0.
0.682005 0.089025 0.
0.684005 0.089027 0.
0.686005 0.0890289 0.
0.688006 0.0890308 0.
0.690006 0.0890332 0.
0.692007 0.0890361 0.
0.694008 0.089039 0.
0.696008 0.0890414 0.
0.698008 0.0890436 0.
0.499993 0.0910374 0.
0.501993 0.0910345 0.
0.503994 0.0910315 0.
0.505995 0.0910287 0.
0.507995 0.0910267 0.
0.509994 0.0910247 0.
0.511994 0.091023 0.
0.513994 0.0910214 0.
0.515994 0.0910199 0.
0.517994 0.0910181 0.
0.519994 0.0910163 0.
0.521994 0.0910145 0.
0.523994 0.0910129 0.
0.525994 0.0910112 0.
0.527994 0.0910096 0.
0.529994 0.0910078 0.
0.531994 0.091006 0.
0.533994 0.0910047 0.
0.535993 0.0910045 0.
0.537993 0.0910042 0.
0.539993 0.0910036 0.
0.541993 0.0910027 0.
0.543993 0.0910018 0.
0.545993 0.0910012 0.
0.547992 0.0910008 0.
0.549991 0.0910004 0.
0.551992 0.0909998 0.
0.553992 0.0909993 0.
0.555993 0.0909987 0.
0.557993 0.0909978 0.
0.559993 0.090997 0.
0.561994 0.090996 0.
0.563994 0.090995 0.
0.565994 0.0909939 0.
0.567994 0.0909937 0.
0.569994 0.0909941 0.
0.571995 0.0909944 0.
0.573995 0.0909944 0.
0.575996 0.0909943 0.
0.577996 0.0909942 0.
0.579996 0.0909938 0.
0.581997 0.0909935 0.
0.583997 0.0909928 0.
0.585996 0.0909917 0.
0.587996 0.0909906 0.
0.589996 0.0909904 0.
0.591996 0.0909908 0.
0.593996 0.0909913 0.
0.595996 0.0909908 0.
0.597996 0.09099 0.
0.599996 0.0909892 0.
0.601997 0.0909894 0.
0.603998 0.0909897 0.
0.605999 0.09099 0.
0.607999 0.0909908 0.
0.609999 0.0909915 0.
0.611999 0.0909924 0.
0.613999 0.0909933 0.
0.615999 0.0909943 0.
0.617999 0.0909951 0.
0.619999 0.0909958 0.
0.621999 0.0909965 0.
0.624 0.0909973 0.
0.626 0.0909981 0.
0.628 0.090999 0.
0.630001 0.0910005 0.
0.632001 0.091002 0.
0.634002 0.091003 0.
0.636002 0.091003 0.
0.638003 0.091003 0.
0.640003 0.0910032 0.
0.642003 0.0910035 0.
0.644003 0.0910038 0.
0.646002 0.0910041 0.
0.648002 0.0910043 0.
0.650001 0.0910046 0.
0.652001 0.0910052 0.
0.654002 0.0910058 0.
0.656003 0.0910064 0.
0.658003 0.0910069 0.
0.660003 0.0910074 0.
0.662003 0.0910087 0.
0.664003 0.0910108 0.
0.666003 0.091013 0.
0.668003 0.0910145 0.
0.670004 0.0910157 0.
0.672004 0.0910169 0.
0.674003 0.0910181 0.
0.676002 0.0910193 0.
0.678002 0.0910206 0.
0.680002 0.0910227 0.
0.682002 0.0910248 0.
0.684002 0.0910268 0.
0.686002 0.0910288 0.
0.688002 0.0910307 0.
0.690003 0.0910331 0.
0.692004 0.0910359 0.
0.694005 0.0910386 0.
0.696005 0.0910413 0.
0.698004 0.091044 0.
0.499995 0.0930367 0.
0.501996 0.093034 0.
0.503996 0.0930315 0.
0.505997 0.093029 0.
0.507996 0.0930269 0.
0.509996 0.0930248 0.
0.511996 0.0930229 0.
0.513996 0.0930214 0.
0.515996 0.0930199 0.
0.517996 0.0930179 0.
0.519996 0.0930158 0.
0.521997 0.0930136 0.
0.523996 0.0930123 0.
0.525996 0.093011 0.
0.527995 0.0930097 0.
0.529995 0.093008 0.
0.531995 0.0930063 0.
0.533995 0.093005 0.
0.535995 0.0930047 0.
0.537994 0.0930045 0.
0.539994 0.0930038 0.
0.541994 0.0930028 0.
0.543994 0.0930018 0.
0.545994 0.0930014 0.
0.547993 0.0930012 0.
0.549993 0.0930009 0.
0.551993 0.0929998 0.
0.553993 0.0929987 0.
0.555993 0.0929977 0.
0.557994 0.092997 0.
0.559994 0.0929963 0.
0.561995 0.0929956 0.
0.563994 0.092995 0.
0.565994 0.0929943 0.
0.567994 0.0929942 0.
0.569994 0.0929944 0.
0.571995 0.0929946 0.
0.573995 0.0929944 0.
0.575995 0.0929942 0.
0.577996 0.092994 0.
0.579996 0.0929938 0.
0.581997 0.0929936 0.
0.583997 0.0929931 0.
0.585996 0.0929923 0.
0.587996 0.0929915 0.
0.589996 0.0929911 0.
0.591996 0.0929911 0.
0.593995 0.0929911 0.
0.595996 0.0929902 0.
0.597996 0.092989 0.
0.599996 0.0929878 0.
0.601997 0.0929884 0.
0.603998 0.092989 0.
0.605999 0.0929897 0.
0.607998 0.0929908 0.
0.609998 0.0929918 0.
0.611998 0.0929927 0.
0.613997 0.0929935 0.
0.615997 0.0929943 0.
0.617997 0.092995 0.
0.619998 0.0929957 0.
0.621998 0.0929964 0.
0.623999 0.0929968 0.
0.626 0.0929972 0.
0.628 0.0929977 0.
0.630001 0.0929993 0.
0.632001 0.0930009 0.
0.634001 0.0930021 0.
0.636001 0.0930027 0.
0.638002 0.0930033 0.
0.640002 0.0930037 0.
0.642002 0.0930039 0.
0.644001 0.093004 0.
0.646001 0.0930043 0.
0.648001 0.0930046 0.
0.65 0.0930048 0.
0.652 0.093005 0.
0.654 0.0930051 0.
0.656001 0.0930055 0.
0.658001 0.0930067 0.
0.660001 0.093008 0.
0.662 0.0930095 0.
0.664 0.0930114 0.
0.666 0.0930132 0.
0.668 0.0930146 0.
0.67 0.0930158 0.
0.672 0.093017 0.
0.674 0.0930183 0.
0.676 0.0930197 0.
0.678 0.0930212 0.
0.68 0.093023 0.
0.682 0.0930249 0.
0.684 0.0930267 0.
0.686 0.0930285 0.
0.688 0.0930303 0.
0.69 0.0930327 0.
0.692001 0.0930355 0.
0.694001 0.0930383 0.
0.696001 0.0930413 0.
0.698001 0.0930444 0.
0.499998 0.0950355 0.
0.501998 0.0950335 0.
0.503999 0.0950315 0.
0.505999 0.0950294 0.
0.507998 0.0950271 0.
0.509998 0.0950248 0.
0.511998 0.0950229 0.
0.513998 0.0950214 0.
0.515999 0.0950198 0.
0.517999 0.0950177 0.
0.519999 0.0950152 0.
0.521999 0.0950128 0.
0.523999 0.0950117 0.
0.525998 0.0950108 0.
0.527997 0.0950098 0.
0.529997 0.0950082 0.
0.531996 0.0950066 0.
0.533996 0.0950053 0.
0.535996 0.095005 0.
0.537996 0.0950047 0.
0.539996 0.095004 0.
0.541995 0.095003 0.
0.543995 0.0950019 0.
0.545995 0.0950016 0.
0.547994 0.0950015 0.
0.549994 0.0950014 0.
0.551994 0.0949998 0.
0.553993 0.0949982 0.
0.555993 0.0949968 0.
0.557994 0.0949962 0.
0.559995 0.0949956 0.
0.561995 0.0949952 0.
0.563995 0.094995 0.
0.565995 0.0949948 0.
0.567995 0.0949948 0.
0.569994 0.0949948 0.
0.571994 0.0949948 0.
0.573995 0.0949945 0.
0.575995 0.0949941 0.
0.577996 0.0949938 0.
0.579996 0.0949937 0.
0.581997 0.0949936 0.
0.583997 0.0949934 0.
0.585996 0.0949929 0.
0.587996 0.0949923 0.
0.589995 0.0949918 0.
0.591995 0.0949914 0.
0.593995 0.094991 0.
0.595995 0.0949897 0.
0.597995 0.0949881 0.
0.599996 0.0949865 0.
0.601997 0.0949874 0.
0.603998 0.0949883 0.
0.605999 0.0949893 0.
0.607998 0.0949907 0.
0.609997 0.0949921 0.
0.611996 0.0949932 0.
0.613996 0.0949937 0.
0.615996 0.0949943 0.
0.617996 0.0949949 0.
0.619996 0.0949956 0.
0.621996 0.0949962 0.
0.623998 0.0949962 0.
0.625999 0.0949962 0.
0.628 0.0949964 0.
0.63 0.0949981 0.
0.632 0.0949998 0.
0.634 0.0950013 0.
0.636 0.0950025 0.
0.638001 0.0950036 0.
0.640001 0.0950041 0.
0.642 0.0950042 0.
0.644 0.0950043 0.
0.646 0.0950045 0.
0.647999 0.0950048 0.
0.649999 0.095005 0.
0.651999 0.0950047 0.
0.653999 0.0950045 0.
0.655998 0.0950046 0.
0.657998 0.0950066 0.
0.659998 0.0950085 0.
0.661998 0.0950103 0.
0.663997 0.0950119 0.
0.665997 0.0950135 0.
0.667997 0.0950147 0.
0.669997 0.0950159 0.
0.671997 0.0950171 0.
0.673997 0.0950186 0.
0.675998 0.0950201 0.
0.677998 0.0950217 0.
0.679998 0.0950233 0.
0.681998 0.0950249 0.
0.683998 0.0950266 0.
0.685998 0.0950283 0.
0.687998 0.09503 0.
0.689998 0.0950323 0.
0.691997 0.0950351 0.
0.693997 0.0950379 0.
0.695997 0.0950413 0.
0.697997 0.0950448 0.
0.500002 0.0970355 0.
0.502001 0.0970338 0.
0.504001 0.0970319 0.
0.506001 0.0970299 0.
0.508001 0.0970274 0.
0.510001 0.097025 0.
0.512001 0.097023 0.
0.514001 0.0970214 0.
0.516001 0.0970198 0.
0.518001 0.0970177 0.
0.520001 0.0970154 0.
0.522001 0.0970132 0.
0.524 0.0970119 0.
0.525999 0.0970108 0.
0.527998 0.0970096 0.
0.529998 0.0970082 0.
0.531997 0.0970067 0.
0.533997 0.0970055 0.
0.535997 0.0970049 0.
0.537997 0.0970043 0.
0.539997 0.0970036 0.
0.541997 0.0970028 0.
0.543997 0.097002 0.
0.545996 0.0970015 0.
0.547995 0.0970011 0.
0.549995 0.0970007 0.
0.551994 0.0969993 0.
0.553994 0.0969979 0.
0.555994 0.0969966 0.
0.557995 0.0969958 0.
0.559995 0.096995 0.
0.561996 0.0969946 0.
0.563996 0.096995 0.
0.565996 0.0969952 0.
0.567995 0.0969951 0.
0.569995 0.0969948 0.
0.571994 0.0969944 0.
0.573994 0.0969941 0.
0.575995 0.0969937 0.
0.577996 0.0969934 0.
0.579996 0.0969933 0.
0.581996 0.0969932 0.
0.583996 0.096993 0.
0.585996 0.0969926 0.
0.587996 0.0969922 0.
0.589996 0.0969917 0.
0.591996 0.0969912 0.
0.593996 0.0969907 0.
0.595996 0.0969893 0.
0.597996 0.0969877 0.
0.599996 0.0969861 0.
0.601996 0.0969872 0.
0.603996 0.0969882 0.
0.605996 0.0969893 0.
0.607996 0.0969906 0.
0.609996 0.0969919 0.
0.611997 0.096993 0.
0.613997 0.0969939 0.
0.615997 0.0969948 0.
0.617997 0.0969955 0.
0.619997 0.0969959 0.
0.621997 0.0969964 0.
0.623997 0.0969962 0.
0.625998 0.096996 0.
0.627999 0.096996 0.
0.629999 0.096998 0.
0.631998 0.0970001 0.
0.633998 0.0970017 0.
0.635999 0.0970024 0.
0.638 0.0970032 0.
0.64 0.0970037 0.
0.642 0.0970041 0.
0.644 0.0970044 0.
0.646 0.0970046 0.
0.647999 0.0970048 0.
0.649999 0.097005 0.
0.651998 0.097005 0.
0.653998 0.0970051 0.
0.655997 0.0970055 0.
0.657997 0.097007 0.
0.659997 0.0970085 0.
0.661996 0.0970101 0.
0.663996 0.0970119 0.
0.665995 0.0970137 0.
0.667995 0.0970149 0.
0.669995 0.097016 0.
0.671995 0.097017 0.
0.673996 0.0970185 0.
0.675996 0.09702 0.
0.677996 0.0970216 0.
0.679996 0.0970236 0.
0.681996 0.0970257 0.
0.683996 0.0970275 0.
0.685996 0.097029 0.
0.687995 0.0970306 0.
0.689995 0.0970327 0.
0.691995 0.0970353 0.
0.693994 0.0970378 0.
0.695994 0.0970414 0.
0.697994 0.0970451 0.
0.500005 0.0990357 0.
0.502005 0.0990341 0.
0.504004 0.0990323 0.
0.506003 0.0990303 0.
0.508003 0.0990278 0.
0.510003 0.0990252 0.
0.512003 0.0990231 0.
0.514003 0.0990214 0.
0.516003 0.0990197 0.
0.518003 0.0990177 0.
0.520003 0.0990157 0.
0.522003 0.0990136 0.
0.524002 0.0990121 0.
0.526001 0.0990108 0.
0.528 0.0990094 0.
0.529999 0.0990081 0.
0.531998 0.0990068 0.
0.533997 0.0990056 0.
0.535998 0.0990048 0.
0.537998 0.0990039 0.
0.539998 0.0990033 0.
0.541998 0.0990027 0.
0.543998 0.0990021 0.
0.545998 0.0990014 0.
0.547996 0.0990007 0.
0.549995 0.099 0.
0.551995 0.0989988 0.
0.553995 0.0989975 0.
0.555995 0.0989963 0.
0.557996 0.0989953 0.
0.559996 0.0989943 0.
0.561996 0.0989941 0.
0.563996 0.0989949 0.
0.565996 0.0989957 0.
0.567996 0.0989955 0.
0.569995 0.0989948 0.
0.571994 0.098994 0.
0.573994 0.0989937 0.
0.575995 0.0989933 0.
0.577996 0.0989929 0.
0.579996 0.0989928 0.
0.581996 0.0989927 0.
0.583996 0.0989926 0.
0.585996 0.0989923 0.
0.587997 0.0989921 0.
0.589997 0.0989916 0.
0.591997 0.098991 0.
0.593997 0.0989903 0.
0.595997 0.098989 0.
0.597997 0.0989874 0.
0.599997 0.0989858 0.
0.601996 0.098987 0.
0.603995 0.0989881 0.
0.605994 0.0989893 0.
0.607995 0.0989905 0.
0.609996 0.0989917 0.
0.611997 0.0989929 0.
0.613997 0.0989941 0.
0.615998 0.0989954 0.
0.617998 0.098996 0.
0.619997 0.0989963 0.
0.621997 0.0989966 0.
0.623997 0.0989962 0.
0.625998 0.0989958 0.
0.627998 0.0989956 0.
0.629997 0.0989979 0.
0.631997 0.0990003 0.
0.633997 0.099002 0.
0.635998 0.0990024 0.
0.637998 0.0990028 0.
0.639999 0.0990033 0.
0.641999 0.0990039 0.
0.644 0.0990045 0.
0.646 0.0990047 0.
0.647999 0.0990048 0.
0.649998 0.0990049 0.
0.651998 0.0990053 0.
0.653997 0.0990058 0.
0.655997 0.0990064 0.
0.657996 0.0990074 0.
0.659995 0.0990085 0.
0.661994 0.09901 0.
0.663994 0.0990119 0.
0.665994 0.0990139 0.
0.667994 0.0990151 0.
0.669994 0.099016 0.
0.671994 0.099017 0.
0.673994 0.0990184 0.
0.675994 0.0990198 0.
0.677994 0.0990214 0.
0.679994 0.0990239 0.
0.681994 0.0990264 0.
0.683994 0.0990285 0.
0.685993 0.0990298 0.
0.687993 0.0990312 0.
0.689992 0.0990331 0.
0.691992 0.0990354 0.
0.693991 0.0990378 0.
0.695991 0.0990414 0.
0.69799 0.0990455 0.
CELLS 5000 10000
1 0
1 1
1 2
1 3
1 4
1 5
1 6
1 7
1 8
1 9
1 10
1 11
1 12
1 13
1 14
1 15
1 16
1 17
1 18
1 19
1 20
1 21
1 22
1 23
1 24
1 25
1 26
1 27
1 28
1 29
1 30
1 31
1 32
1 33
1 34
1 35
1 36
1 37
1 38
1 39
1 40
1 41
1 42
1 43
1 44
1 45
1 46
1 47
1 48
1 49
1 50
1 51
1 52
1 53
1 54
1 55
1 56
1 57
1 58
1 59
1 60
1 61
1 62
1 63
1 64
1 65
1 66
1 67
1 68
1 69
1 70
1 71
1 72
1 73
1 74
1 75
1 76
1 77
1 78
1 79
1 80
1 81
1 82
1 83
1 84
1 85
1 86
1 87
1 88
1 89
1 90
1 91
1 92
1 93
1 94
1 95
1 96
1 97
1 98
1 99
1 100
1 101
1 102
1 103
1 104
1 105
1 106
1 107
1 108
1 109
1 110
1 111
1 112
1 113
1 114
1 115
1 116
1 117
1 118
1 119
1 120
1 121
1 122
1 123
1 124
1 125
1 126
1 127
1 128
1 129
1 130
1 131
1 132
1 133
1 134
1 135
1 136
1 137
1 138
1 139
1 140
1 141
1 142
1 143
1 144
1 145
1 146
1 147
1 148
1 149
1 150
1 151
1 152
1 153
1 154
1 155
1 156
1 157
1 158
1 159
1 160
1 161
1 162
1 163
1 164
1 165
1 166
1 167
1 168
1 169
1 170
1 171
1 172
1 173
1 174
1 175
1 176
1 177
1 178
1 179
1 180
1 181
1 182
1 183
1 184
1 185
1 186
1 187
1 188
1 189
1 190
1 191
1 192
1 193
1 194
1 195
1 196
1 197
1 198
1 199
1 200
1 201
1 202
1 203
1 204
1 205
1 206
1 207
1 208
1 209
1 210
1 211
1 212
1 213
1 214
1 215
1 216
1 217
1 218
1 219
1 220
1 221
1 222
1 223
1 224
1 225
1 226
1 227
1 228
1 229
1 230
1 231
1 232
1 233
1 234
1 235
1 236
1 237
1 238
1 239
1 240
1 241
1 242
1 243
1 244
1 245
1 246
1 247
1 248
1 249
1 250
1 251
1 252
1 253
1 254
1 255
1 256
1 257
1 258
1 259
1 260
1 261
1 262
1 263
1 264
1 265
1 266
1 267
1 268
1 269
1 270
1 271
1 272
1 273
1 274
1 275
1 276
1 277
1 278
1 279
1 280
1 281
1 282
1 283
1 284
1 285
1 286
1 287
1 288
1 289
1 290
1 291
1 292
1 293
1 294
1 295
1 296
1 297
1 298
1 299
1 300
1 301
1 302
1 303
1 304
1 305
1 306
1 307
1 308
1 309
1 310
1 311
1 312
1 313
1 314
1 315
1 316
1 317
1 318
1 319
1 320
1 321
1 322
1 323
1 324
1 325
1 326
1 327
1 328
1 329
1 330
1 331
1 332
1 333
1 334
1 335
1 336
1 337
1 338
1 339
1 340
1 341
1 342
1 343
1 344
1 345
1 346
1 347
1 348
1 349
1 350
1 351
1 352
1 353
1 354
1 355
1 356
1 357
1 358
1 359
1 360
1 361
1 362
1 363
1 364
1 365
1 366
1 367
1 368
1 369
1 370
1 371
1 372
1 373
1 374
1 375
1 376
1 377
1 378
1 379
1 380
1 381
1 382
1 383
1 384
1 385
1 386
1 387
1 388
1 389
1 390
1 391
1 392
1 393
1 394
1 395
1 396
1 397
1 398
1 399
1 400
1 401
1 402
1 403
1 404
1 405
1 406
1 407
1 408
1 409
1 410
1 411
1 412
1 413
1 414
1 415
1 416
1 417
1 418
1 419
1 420
1 421
1 422
1 423
1 424
1 425
1 426
1 427
1 428
1 429
1 430
1 431
1 432
1 433
1 434
1 435
1 436
1 437
1 438
1 439
1 440
1 441
1 442
1 443
1 444
1 445
1 446
1 447
1 448
1 449
1 450
1 451
1 452
1 453
1 454
1 455
1 456
1 457
1 458
1 459
1 460
1 461
1 462
1 463
1 464
1 465
1 466
1 467
1 468
1 469
1 470
1 471
1 472
1 473
1 474
1 475
1 476
1 477
1 478
1 479
1 480
1 481
1 482
1 483
1 484
1 485
1 486
1 487
1 488
1 489
1 490
1 491
1 492
1 493
1 494
1 495
1 496
1 497
1 498
1 499
1 500
1 501
1 502
1 503
1 504
1 505
1 506
1 507
1 508
1 509
1 510
1 511
1 512
1 513
1 514
1 515
1 516
1 517
1 518
1 519
1 520
1 521
1 522
1 523
1 524
1 525
1 526
1 527
1 528
1 529
1 530
1 531
1 532
1 533
1 534
1 535
1 536
1 537
1 538
1 539
1 540
1 541
1 542
1 543
1 544
1 545
1 546
1 547
1 548
1 549
1 550
1 551
1 552
1 553
1 554
1 555
1 556
1 557
1 558
1 559
1 560
1 561
1 562
1 563
1 564
1 565
1 566
1 567
1 568
1 569
1 570
1 571
1 572
1 573
1 574
1 575
1 576
1 577
1 578
1 579
1 580
1 581
1 582
1 583
1 584
1 585
1 586
1 587
1 588
1 589
1 590
1 591
1 592
1 593
1 594
1 595
1 596
1 597
1 598
1 599
1 600
1 601
1 602
1 603
1 604
1 605
1 606
1 607
1 608
1 609
1 610
1 611
1 612
1 613
1 614
1 615
1 616
1 617
1 618
1 619
1 620
1 621
1 622
1 623
1 624
1 625
1 626
1 627
1 628
1 629
1 630
1 631
1 632
1 633
1 634
1 635
1 636
1 637
1 638
1 639
1 640
1 641
1 642
1 643
1 644
1 645
1 646
1 647
1 648
1 649
1 650
1 651
1 652
1 653
1 654
1 655
1 656
1 657
1 658
1 659
1 660
1 661
1 662
1 663
1 664
1 665
1 666
1 667
1 668
1 669
1 670
1 671
1 672
1 673
1 674
1 675
1 676
1 677
1 678
1 679
1 680
1 681
1 682
1 683
1 684
1 685
1 686
1 687
1 688
1 689
1 690
1 691
1 692
1 693
1 694
1 695
1 696
1 697
1 698
1 699
1 700
1 701
1 702
1 703
1 704
1 705
1 706
1 707
1 708
1 709
1 710
1 711
1 712
1 713
1 714
1 715
1 716
1 717
1 718
1 719
1 720
1 721
1 722
1 723
1 724
1 725
1 726
1 727
1 728
1 729
1 730
1 731
1 732
1 733
1 734
1 735
1 736
1 737
1 738
1 739
1 740
1 741
1 742
1 743
1 744
1 745
1 746
1 747
1 748
1 749
1 750
1 751
1 752
1 753
1 754
1 755
1 756
1 757
1 758
1 759
1 760
1 761
1 762
1 763
1 764
1 765
1 766
1 767
1 768
1 769
1 770
1 771
1 772
1 773
1 774
1 775
1 776
1 777
1 778
1 779
1 780
1 781
1 782
1 783
1 784
1 785
1 786
1 787
1 788
1 789
1 790
1 791
1 792
1 793
1 794
1 795
1 796
1 797
1 798
1 799
1 800
1 801
1 802
1 803
1 804
1 805
1 806
1 807
1 808
1 809
1 810
1 811
1 812
1 813
1 814
1 815
1 816
1 817
1 818
1 819
1 820
1 821
1 822
1 823
1 824
1 825
1 826
1 827
1 828
1 829
1 830
1 831
1 832
1 833
1 834
1 835
1 836
1 837
1 838
1 839
1 840
1 841
1 842
1 843
1 844
1 845
1 846
1 847
1 848
1 849
1 850
1 851
1 852
1 853
1 854
1 855
1 856
1 857
1 858
1 859
1 860
1 861
1 862
1 863
1 864
1 865
1 866
1 867
1 868
1 869
1 870
1 871
1 872
1 873
1 874
1 875
1 876
1 877
1 878
1 879
1 880
1 881
1 882
1 883
1 884
1 885
1 886
1 887
1 888
1 889
1 890
1 891
1 892
1 893
1 894
1 895
1 896
1 897
1 898
1 899
1 900
1 901
1 902
1 903
1 904
1 905
1 906
1 907
1 908
1 909
1 910
1 911
1 912
1 913
1 914
1 915
1 916
1 917
1 918
1 919
1 920
1 921
1 922
1 923
1 924
1 925
1 926
1 927
1 928
1 929
1 930
1 931
1 932
1 933
1 934
1 935
1 936
1 937
1 938
1 939
1 940
1 941
1 942
1 943
1 944
1 945
1 946
1 947
1 948
1 949
1 950
1 951
1 952
1 953
1 954
1 955
1 956
1 957
1 958
1 959
1 960
1 961
1 962
1 963
1 964
1 965
1 966
1 967
1 968
1 969
1 970
1 971
1 972
1 973
1 974
1 975
1 976
1 977
1 978
1 979
1 980
1 981
1 982
1 983
1 984
1 985
1 986
1 987
1 988
1 989
1 990
1 991
1 992
1 993
1 994
1 995
1 996
1 997
1 998
1 999
1 1000
1 1001
1 1002
1 1003
1 1004
1 1005
1 1006
1 1007
1 1008
1 1009
1 1010
1 1011
1 1012
1 1013
1 1014
1 1015
1 1016
1 1017
1 1018
1 1019
1 1020
1 1021
1 1022
1 1023
1 1024
1 1025
1 1026
1 1027
1 1028
1 1029
1 1030
1 1031
1 1032
1 1033
1 1034
1 1035
1 1036
1 1037
1 1038
1 1039
1 1040
1 1041
1 1042
1 1043
1 1044
1 1045
1 1046
1 1047
1 1048
1 1049
1 1050
1 1051
1 1052
1 1053
1 1054
1 1055
1 1056
1 1057
1 1058
1 1059
1 1060
1 1061
1 1062
1 1063
1 1064
1 1065
1 1066
1 1067
1 1068
1 1069
1 1070
1 1071
1 1072
1 1073
1 1074
1 1075
1 1076
1 1077
1 1078
1 1079
1 1080
1 1081
1 1082
1 1083
1 1084
1 1085
1 1086
1 1087
1 1088
1 1089
1 1090
1 1091
1 1092
1 1093
1 1094
1 1095
1 1096
1 1097
1 1098
1 1099
1 1100
1 1101
1 1102
1 1103
1 1104
1 1105
1 1106
1 1107
1 1108
1 1109
1 1110
1 1111
1 1112
1 1113
1 1114
1 1115
1 1116
1 1117
1 1118
1 1119
1 1120
1 1121
1 1122
1 1123
1 1124
1 1125
1 1126
1 1127
1 1128
1 1129
1 1130
1 1131
1 1132
1 1133
1 1134
1 1135
1 1136
1 1137
1 1138
1 1139
1 1140
1 1141
1 1142
1 1143
1 1144
1 1145
1 1146
1 1147
1 1148
1 1149
1 1150
1 1151
1 1152
1 1153
1 1154
1 1155
1 1156
1 1157
1 1158
1 1159
1 1160
1 1161
1 1162
1 1163
1 1164
1 1165
1 1166
1 1167
1 1168
1 1169
1 1170
1 1171
1 1172
1 1173
1 1174
1 1175
1 1176
1 1177
1 1178
1 1179
1 1180
1 1181
1 1182
1 1183
1 1184
1 1185
1 1186
1 1187
1 1188
1 1189
1 1190
1 1191
1 1192
1 1193
1 1194
1 1195
1 1196
1 1197
1 1198
1 1199
1 1200
1 1201
1 1202
1 1203
1 1204
1 1205
1 1206
1 1207
1 1208
1 1209
1 1210
1 1211
1 1212
1 1213
1 1214
1 1215
1 1216
1 1217
1 1218
1 1219
1 1220
1 1221
1 1222
1 1223
1 1224
1 1225
1 1226
1 1227
1 1228
1 1229
1 1230
1 1231
1 1232
1 1233
1 1234
1 1235
1 1236
1 1237
1 1238
1 1239
1 1240
1 1241
1 1242
1 1243
1 1244
1 1245
1 1246
1 1247
1 1248
1 1249
1 1250
1 1251
1 1252
1 1253
1 1254
1 1255
1 1256
1 1257
1 1258
1 1259
1 1260
1 1261
1 1262
1 1263
1 1264
1 1265
1 1266
1 1267
1 1268
1 1269
1 1270
1 1271
1 1272
1 1273
1 1274
1 1275
1 1276
1 1277
1 1278
1 1279
1 1280
1 1281
1 1282
1 1283
1 1284
1 1285
1 1286
1 1287
1 1288
1 1289
1 1290
1 1291
1 1292
1 1293
1 1294
1 1295
1 1296
1 1297
1 1298
1 1299
1 1300
1 1301
1 1302
1 1303
1 1304
1 1305
1 1306
1 1307
1 1308
1 1309
1 1310
1 1311
1 1312
1 1313
1 1314
1 1315
1 1316
1 1317
1 1318
1 1319
1 1320
1 1321
1 1322
1 1323
1 1324
1 1325
1 1326
1 1327
1 1328
1 1329
1 1330
1 1331
1 1332
1 1333
1 1334
1 1335
1 1336
1 1337
1 1338
1 1339
1 1340
1 1341
1 1342
1 1343
1 1344
1 1345
1 1346
1 1347
1 1348
1 1349
1 1350
1 1351
1 1352
1 1353
1 1354
1 1355
1 1356
1 1357
1 1358
1 1359
1 1360
1 1361
1 1362
1 1363
1 1364
1 1365
1 1366
1 1367
1 1368
1 1369
1 1370
1 1371
1 1372
1 1373
1 1374
1 1375
1 1376
1 1377
1 1378
1 1379
1 1380
1 1381
1 1382
1 1383
1 1384
1 1385
1 1386
1 1387
1 1388
1 1389
1 1390
1 1391
1 1392
1 1393
1 1394
1 1395
1 1396
1 1397
1 1398
1 1399
1 1400
1 1401
1 1402
1 1403
1 1404
1 1405
1 1406
1 1407
1 1408
1 1409
1 1410
1 1411
1 1412
1 1413
1 1414
1 1415
1 1416
1 1417
1 1418
1 1419
1 1420
1 1421
1 1422
1 1423
1 1424
1 1425
1 1426
1 1427
1 1428
1 1429
1 1430
1 1431
1 1432
1 1433
1 1434
1 1435
1 1436
1 1437
1 1438
1 1439
1 1440
1 1441
1 1442
1 1443
1 1444
1 1445
1 1446
1 1447
1 1448
1 1449
1 1450
1 1451
1 1452
1 1453
1 1454
1 1455
1 1456
1 1457
1 1458
1 1459
1 1460
1 1461
1 1462
1 1463
1 1464
1 1465
1 1466
1 1467
1 1468
1 1469
1 1470
1 1471
1 1472
1 1473
1 1474
1 1475
1 1476
1 1477
1 1478
1 1479
1 1480
1 1481
1 1482
1 1483
1 1484
1 1485
1 1486
1 1487
1 1488
1 1489
1 1490
1 1491
1 1492
1 1493
1 1494
1 1495
1 1496
1 1497
1 1498
1 1499
1 1500
1 1501
1 1502
1 1503
1 1504
1 1505
1 1506
1 1507
1 1508
1 1509
1 1510
1 1511
1 1512
1 1513
1 1514
1 1515
1 1516
1 1517
1 1518
1 1519
1 1520
1 1521
1 1522
1 1523
1 1524
1 1525
1 1526
1 1527
1 1528
1 1529
1 1530
1 1531
1 1532
1 1533
1 1534
1 1535
1 1536
1 1537
1 1538
1 1539
1 1540
1 1541
1 1542
1 1543
1 1544
1 1545
1 1546
1 1547
1 1548
1 1549
1 1550
1 1551
1 1552
1 1553
1 1554
1 1555
1 1556
1 1557
1 1558
1 1559
1 1560
1 1561
1 1562
1 1563
1 1564
1 1565
1 1566
1 1567
1 1568
1 1569
1 1570
1 1571
1 1572
1 1573
1 1574
1 1575
1 1576
1 1577
1 1578
1 1579
1 1580
1 1581
1 1582
1 1583
1 1584
1 1585
1 1586
1 1587
1 1588
1 1589
1 1590
1 1591
1 1592
1 1593
1 1594
1 1595
1 1596
1 1597
1 1598
1 1599
1 1600
1 1601
1 1602
1 1603
1 1604
1 1605
1 1606
1 1607
1 1608
1 1609
1 1610
1 1611
1 1612
1 1613
1 1614
1 1615
1 1616
1 1617
1 1618
1 1619
1 1620
1 1621
1 1622
1 1623
1 1624
1 1625
1 1626
1 1627
1 1628
1 1629
1 1630
1 1631
1 1632
1 1633
1 1634
1 1635
1 1636
1 1637
1 1638
1 1639
1 1640
1 1641
1 1642
1 1643
1 1644
1 1645
1 1646
1 1647
1 1648
1 1649
1 1650
1 1651
1 1652
1 1653
1 1654
1 1655
1 1656
1 1657
1 1658
1 1659
1 1660
1 1661
1 1662
1 1663
1 1664
1 1665
1 1666
1 1667
1 1668
1 1669
1 1670
1 1671
1 1672
1 1673
1 1674
1 1675
1 1676
1 1677
1 1678
1 1679
1 1680
1 1681
1 1682
1 1683
1 1684
1 1685
1 1686
1 1687
1 1688
1 1689
1 1690
1 1691
1 1692
1 1693
1 1694
1 1695
1 1696
1 1697
1 1698
1 1699
1 1700
1 1701
1 1702
1 1703
1 1704
1 1705
1 1706
1 1707
1 1708
1 1709
1 1710
1 1711
1 1712
1 1713
1 1714
1 1715
1 1716
1 1717
1 1718
1 1719
1 1720
1 1721
1 1722
1 1723
1 1724
1 1725
1 1726
1 1727
1 1728
1 1729
1 1730
1 1731
1 1732
1 1733
1 1734
1 1735
1 1736
1 1737
1 1738
1 1739
1 1740
1 1741
1 1742
1 1743
1 1744
1 1745
1 1746
1 1747
1 1748
1 1749
1 1750
1 1751
1 1752
1 1753
1 1754
1 1755
1 1756
1 1757
1 1758
1 1759
1 1760
1 1761
1 1762
1 1763
1 1764
1 1765
1 1766
1 1767
1 1768
1 1769
1 1770
1 1771
1 1772
1 1773
1 1774
1 1775
1 1776
1 1777
1 1778
1 1779
1 1780
1 1781
1 1782
1 1783
1 1784
1 1785
1 1786
1 1787
1 1788
1 1789
1 1790
1 1791
1 1792
1 1793
1 1794
1 1795
1 1796
1 1797
1 1798
1 1799
1 1800
1 1801
1 1802
1 1803
1 1804
1 1805
1 1806
1 1807
1 1808
1 1809
1 1810
1 1811
1 1812
1 1813
1 1814
1 1815
1 1816
1 1817
1 1818
1 1819
1 1820
1 1821
1 1822
1 1823
1 1824
1 1825
1 1826
1 1827
1 1828
1 1829
1 1830
1 1831
1 1832
1 1833
1 1834
1 1835
1 1836
1 1837
1 1838
1 1839
1 1840
1 1841
1 1842
1 1843
1 1844
1 1845
1 1846
1 1847
1 1848
1 1849
1 1850
1 1851
1 1852
1 1853
1 1854
1 1855
1 1856
1 1857
1 1858
1 1859
1 1860
1 1861
1 1862
1 1863
1 1864
1 1865
1 1866
1 1867
1 1868
1 1869
1 1870
1 1871
1 1872
1 1873
1 1874
1 1875
1 1876
1 1877
1 1878
1 1879
1 1880
1 1881
1 1882
1 1883
1 1884
1 1885
1 1886
1 1887
1 1888
1 1889
1 1890
1 1891
1 1892
1 1893
1 1894
1 1895
1 1896
1 1897
1 1898
1 1899
1 1900
1 1901
1 1902
1 1903
1 1904
1 1905
1 1906
1 1907
1 1908
1 1909
1 1910
1 1911
1 1912
1 1913
1 1914
1 1915
1 1916
1 1917
1 1918
1 1919
1 1920
1 1921
1 1922
1 1923
1 1924
1 1925
1 1926
1 1927
1 1928
1 1929
1 1930
1 1931
1 1932
1 1933
1 1934
1 1935
1 1936
1 1937
1 1938
1 1939
1 1940
1 1941
1 1942
1 1943
1 1944
1 1945
1 1946
1 1947
1 1948
1 1949
1 1950
1 1951
1 1952
1 1953
1 1954
1 1955
1 1956
1 1957
1 1958
1 1959
1 1960
1 1961
1 1962
1 1963
1 1964
1 1965
1 1966
1 1967
1 1968
1 1969
1 1970
1 1971
1 1972
1 1973
1 1974
1 1975
1 1976
1 1977
1 1978
1 1979
1 1980
1 1981
1 1982
1 1983
1 1984
1 1985
1 1986
1 1987
1 1988
1 1989
1 1990
1 1991
1 1992
1 1993
1 1994
1 1995
1 1996
1 1997
1 1998
1 1999
1 2000
1 2001
1 2002
1 2003
1 2004
1 2005
1 2006
1 2007
1 2008
1 2009
1 2010
1 2011
1 2012
1 2013
1 2014
1 2015
1 2016
1 2017
1 2018
1 2019
1 2020
1 2021
1 2022
1 2023
1 2024
1 2025
1 2026
1 2027
1 2028
1 2029
1 2030
1 2031
1 2032
1 2033
1 2034
1 2035
1 2036
1 2037
1 2038
1 2039
1 2040
1 2041
1 2042
1 2043
1 2044
1 2045
1 2046
1 2047
1 2048
1 2049
1 2050
1 2051
1 2052
1 2053
1 2054
1 2055
1 2056
1 2057
1 2058
1 2059
1 2060
1 2061
1 2062
1 2063
1 2064
1 2065
1 2066
1 2067
1 2068
1 2069
1 2070
1 2071
1 2072
1 2073
1 2074
1 2075
1 2076
1 2077
1 2078
1 2079
1 2080
1 2081
1 2082
1 2083
1 2084
1 2085
1 2086
1 2087
1 2088
1 2089
1 2090
1 2091
1 2092
1 2093
1 2094
1 2095
1 2096
1 2097
1 2098
1 2099
1 2100
1 2101
1 2102
1 2103
1 2104
1 2105
1 2106
1 2107
1 2108
1 2109
1 2110
1 2111
1 2112
1 2113
1 2114
1 2115
1 2116
1 2117
1 2118
1 2119
1 2120
1 2121
1 2122
1 2123
1 2124
1 2125
1 2126
1 2127
1 2128
1 2129
1 2130
1 2131
1 2132
1 2133
1 2134
1 2135
1 2136
1 2137
1 2138
1 2139
1 2140
1 2141
1 2142
1 2143
1 2144
1 2145
1 2146
1 2147
1 2148
1 2149
1 2150
1 2151
1 2152
1 2153
1 2154
1 2155
1 2156
1 2157
1 2158
1 2159
1 2160
1 2161
1 2162
1 2163
1 2164
1 2165
1 2166
1 2167
1 2168
1 2169
1 2170
1 2171
1 2172
1 2173
1 2174
1 2175
1 2176
1 2177
1 2178
1 2179
1 2180
1 2181
1 2182
1 2183
1 2184
1 2185
1 2186
1 2187
1 2188
1 2189
1 2190
1 2191
1 2192
1 2193
1 2194
1 2195
1 2196
1 2197
1 2198
1 2199
1 2200
1 2201
1 2202
1 2203
1 2204
1 2205
1 2206
1 2207
1 2208
1 2209
1 2210
1 2211
1 2212
1 2213
1 2214
1 2215
1 2216
1 2217
1 2218
1 2219
1 2220
1 2221
1 2222
1 2223
1 2224
1 2225
1 2226
1 2227
1 2228
1 2229
1 2230
1 2231
1 2232
1 2233
1 2234
1 2235
1 2236
1 2237
1 2238
1 2239
1 2240
1 2241
1 2242
1 2243
1 2244
1 2245
1 2246
1 2247
1 2248
1 2249
1 2250
1 2251
1 2252
1 2253
1 2254
1 2255
1 2256
1 2257
1 2258
1 2259
1 2260
1 2261
1 2262
1 2263
1 2264
1 2265
1 2266
1 2267
1 2268
1 2269
1 2270
1 2271
1 2272
1 2273
1 2274
1 2275
1 2276
1 2277
1 2278
1 2279
1 2280
1 2281
1 2282
1 2283
1 2284
1 2285
1 2286
1 2287
1 2288
1 2289
1 2290
1 2291
1 2292
1 2293
1 2294
1 2295
1 2296
1 2297
1 2298
1 2299
1 2300
1 2301
1 2302
1 2303
1 2304
1 2305
1 2306
1 2307
1 2308
1 2309
1 2310
1 2311
1 2312
1 2313
1 2314
1 2315
1 2316
1 2317
1 2318
1 2319
1 2320
1 2321
1 2322
1 2323
1 2324
1 2325
1 2326
1 2327
1 2328
1 2329
1 2330
1 2331
1 2332
1 2333
1 2334
1 2335
1 2336
1 2337
1 2338
1 2339
1 2340
1 2341
1 2342
1 2343
1 2344
1 2345
1 2346
1 2347
1 2348
1 2349
1 2350
1 2351
1 2352
1 2353
1 2354
1 2355
1 2356
1 2357
1 2358
1 2359
1 2360
1 2361
1 2362
1 2363
1 2364
1 2365
1 2366
1 2367
1 2368
1 2369
1 2370
1 2371
1 2372
1 2373
1 2374
1 2375
1 2376
1 2377
1 2378
1 2379
1 2380
1 2381
1 2382
1 2383
1 2384
1 2385
1 2386
1 2387
1 2388
1 2389
1 2390
1 2391
1 2392
1 2393
1 2394
1 2395
1 2396
1 2397
1 2398
1 2399
1 2400
1 2401
1 2402
1 2403
1 2404
1 2405
1 2406
1 2407
1 2408
1 2409
1 2410
1 2411
1 2412
1 2413
1 2414
1 2415
1 2416
1 2417
1 2418
1 2419
1 2420
1 2421
1 2422
1 2423
1 2424
1 2425
1 2426
1 2427
1 2428
1 2429
1 2430
1 2431
1 2432
1 2433
1 2434
1 2435
1 2436
1 2437
1 2438
1 2439
1 2440
1 2441
1 2442
1 2443
1 2444
1 2445
1 2446
1 2447
1 2448
1 2449
1 2450
1 2451
1 2452
1 2453
1 2454
1 2455
1 2456
1 2457
1 2458
1 2459
1 2460
1 2461
1 2462
1 2463
1 2464
1 2465
1 2466
1 2467
1 2468
1 2469
1 2470
1 2471
1 2472
1 2473
1 2474
1 2475
1 2476
1 2477
1 2478
1 2479
1 2480
1 2481
1 2482
1 2483
1 2484
1 2485
1 2486
1 2487
1 2488
1 2489
1 2490
1 2491
1 2492
1 2493
1 2494
1 2495
1 2496
1 2497
1 2498
1 2499
1 2500
1 2501
1 2502
1 2503
1 2504
1 2505
1 2506
1 2507
1 2508
1 2509
1 2510
1 2511
1 2512
1 2513
1 2514
1 2515
1 2516
1 2517
1 2518
1 2519
1 2520
1 2521
1 2522
1 2523
1 2524
1 2525
1 2526
1 2527
1 2528
1 2529
1 2530
1 2531
1 2532
1 2533
1 2534
1 2535
1 2536
1 2537
1 2538
1 2539
1 2540
1 2541
1 2542
1 2543
1 2544
1 2545
1 2546
1 2547
1 2548
1 2549
1 2550
1 2551
1 2552
1 2553
1 2554
1 2555
1 2556
1 2557
1 2558
1 2559
1 2560
1 2561
1 2562
1 2563
1 2564
1 2565
1 2566
1 2567
1 2568
1 2569
1 2570
1 2571
1 2572
1 2573
1 2574
1 2575
1 2576
1 2577
1 2578
1 2579
1 2580
1 2581
1 2582
1 2583
1 2584
1 2585
1 2586
1 2587
1 2588
1 2589
1 2590
1 2591
1 2592
1 2593
1 2594
1 2595
1 2596
1 2597
1 2598
1 2599
1 2600
1 2601
1 2602
1 2603
1 2604
1 2605
1 2606
1 2607
1 2608
1 2609
1 2610
1 2611
1 2612
1 2613
1 2614
1 2615
1 2616
1 2617
1 2618
1 2619
1 2620
1 2621
1 2622
1 2623
1 2624
1 2625
1 2626
1 2627
1 2628
1 2629
1 2630
1 2631
1 2632
1 2633
1 2634
1 2635
1 2636
1 2637
1 2638
1 2639
1 2640
1 2641
1 2642
1 2643
1 2644
1 2645
1 2646
1 2647
1 2648
1 2649
1 2650
1 2651
1 2652
1 2653
1 2654
1 2655
1 2656
1 2657
1 2658
1 2659
1 2660
1 2661
1 2662
1 2663
1 2664
1 2665
1 2666
1 2667
1 2668
1 2669
1 2670
1 2671
1 2672
1 2673
1 2674
1 2675
1 2676
1 2677
1 2678
1 2679
1 2680
1 2681
1 2682
1 2683
1 2684
1 2685
1 2686
1 2687
1 2688
1 2689
1 2690
1 2691
1 2692
1 2693
1 2694
1 2695
1 2696
1 2697
1 2698
1 2699
1 2700
1 2701
1 2702
1 2703
1 2704
1 2705
1 2706
1 2707
1 2708
1 2709
1 2710
1 2711
1 2712
1 2713
1 2714
1 2715
1 2716
1 2717
1 2718
1 2719
1 2720
1 2721
1 2722
1 2723
1 2724
1 2725
1 2726
1 2727
1 2728
1 2729
1 2730
1 2731
1 2732
1 2733
1 2734
1 2735
1 2736
1 2737
1 2738
1 2739
1 2740
1 2741
1 2742
1 2743
1 2744
1 2745
1 2746
1 2747
1 2748
1 2749
1 2750
1 2751
1 2752
1 2753
1 2754
1 2755
1 2756
1 2757
1 2758
1 2759
1 2760
1 2761
1 2762
1 2763
1 2764
1 2765
1 2766
1 2767
1 2768
1 2769
1 2770
1 2771
1 2772
1 2773
1 2774
1 2775
1 2776
1 2777
1 2778
1 2779
1 2780
1 2781
1 2782
1 2783
1 2784
1 2785
1 2786
1 2787
1 2788
1 2789
1 2790
1 2791
1 2792
1 2793
1 2794
1 2795
1 2796
1 2797
1 2798
1 2799
1 2800
1 2801
1 2802
1 2803
1 2804
1 2805
1 2806
1 2807
1 2808
1 2809
1 2810
1 2811
1 2812
1 2813
1 2814
1 2815
1 2816
1 2817
1 2818
1 2819
1 2820
1 2821
1 2822
1 2823
1 2824
1 2825
1 2826
1 2827
1 2828
1 2829
1 2830
1 2831
1 2832
1 2833
1 2834
1 2835
1 2836
1 2837
1 2838
1 2839
1 2840
1 2841
1 2842
1 2843
1 2844
1 2845
1 2846
1 2847
1 2848
1 2849
1 2850
1 2851
1 2852
1 2853
1 2854
1 2855
1 2856
1 2857
1 2858
1 2859
1 2860
1 2861
1 2862
1 2863
1 2864
1 2865
1 2866
1 2867
1 2868
1 2869
1 2870
1 2871
1 2872
1 2873
1 2874
1 2875
1 2876
1 2877
1 2878
1 2879
1 2880
1 2881
1 2882
1 2883
1 2884
1 2885
1 2886
1 2887
1 2888
1 2889
1 2890
1 2891
1 2892
1 2893
1 2894
1 2895
1 2896
1 2897
1 2898
1 2899
1 2900
1 2901
1 2902
1 2903
1 2904
1 2905
1 2906
1 2907
1 2908
1 2909
1 2910
1 2911
1 2912
1 2913
1 2914
1 2915
1 2916
1 2917
1 2918
1 2919
1 2920
1 2921
1 2922
1 2923
1 2924
1 2925
1 2926
1 2927
1 2928
1 2929
1 2930
1 2931
1 2932
1 2933
1 2934
1 2935
1 2936
1 2937
1 2938
1 2939
1 2940
1 2941
1 2942
1 2943
1 2944
1 2945
1 2946
1 2947
1 2948
1 2949
1 2950
1 2951
1 2952
1 2953
1 2954
1 2955
1 2956
1 2957
1 2958
1 2959
1 2960
1 2961
1 2962
1 2963
1 2964
1 2965
1 2966
1 2967
1 2968
1 2969
1 2970
1 2971
1 2972
1 2973
1 2974
1 2975
1 2976
1 2977
1 2978
1 2979
1 2980
1 2981
1 2982
1 2983
1 2984
1 2985
1 2986
1 2987
1 2988
1 2989
1 2990
1 2991
1 2992
1 2993
1 2994
1 2995
1 2996
1 2997
1 2998
1 2999
1 3000
1 3001
1 3002
1 3003
1 3004
1 3005
1 3006
1 3007
1 3008
1 3009
1 3010
1 3011
1 3012
1 3013
1 3014
1 3015
1 3016
1 3017
1 3018
1 3019
1 3020
1 3021
1 3022
1 3023
1 3024
1 3025
1 3026
1 3027
1 3028
1 3029
1 3030
1 3031
1 3032
1 3033
1 3034
1 3035
1 3036
1 3037
1 3038
1 3039
1 3040
1 3041
1 3042
1 3043
1 3044
1 3045
1 3046
1 3047
1 3048
1 3049
1 3050
1 3051
1 3052
1 3053
1 3054
1 3055
1 3056
1 3057
1 3058
1 3059
1 3060
1 3061
1 3062
1 3063
1 3064
1 3065
1 3066
1 3067
1 3068
1 3069
1 3070
1 3071
1 3072
1 3073
1 3074
1 3075
1 3076
1 3077
1 3078
1 3079
1 3080
1 3081
1 3082
1 3083
1 3084
1 3085
1 3086
1 3087
1 3088
1 3089
1 3090
1 3091
1 3092
1 3093
1 3094
1 3095
1 3096
1 3097
1 3098
1 3099
1 3100
1 3101
1 3102
1 3103
1 3104
1 3105
1 3106
1 3107
1 3108
1 3109
1 3110
1 3111
1 3112
1 3113
1 3114
1 3115
1 3116
1 3117
1 3118
1 3119
1 3120
1 3121
1 3122
1 3123
1 3124
1 3125
1 3126
1 3127
1 3128
1 3129
1 3130
1 3131
1 3132
1 3133
1 3134
1 3135
1 3136
1 3137
1 3138
1 3139
1 3140
1 3141
1 3142
1 3143
1 3144
1 3145
1 3146
1 3147
1 3148
1 3149
1 3150
1 3151
1 3152
1 3153
1 3154
1 3155
1 3156
1 3157
1 3158
1 3159
1 3160
1 3161
1 3162
1 3163
1 3164
1 3165
1 3166
1 3167
1 3168
1 3169
1 3170
1 3171
1 3172
1 3173
1 3174
1 3175
1 3176
1 3177
1 3178
1 3179
1 3180
1 3181
1 3182
1 3183
1 3184
1 3185
1 3186
1 3187
1 3188
1 3189
1 3190
1 3191
1 3192
1 3193
1 3194
1 3195
1 3196
1 3197
1 3198
1 3199
1 3200
1 3201
1 3202
1 3203
1 3204
1 3205
1 3206
1 3207
1 3208
1 3209
1 3210
1 3211
1 3212
1 3213
1 3214
1 3215
1 3216
1 3217
1 3218
1 3219
1 3220
1 3221
1 3222
1 3223
1 3224
1 3225
1 3226
1 3227
1 3228
1 3229
1 3230
1 3231
1 3232
1 3233
1 3234
1 3235
1 3236
1 3237
1 3238
1 3239
1 3240
1 3241
1 3242
1 3243
1 3244
1 3245
1 3246
1 3247
1 3248
1 3249
1 3250
1 3251
1 3252
1 3253
1 3254
1 3255
1 3256
1 3257
1 3258
1 3259
1 3260
1 3261
1 3262
1 3263
1 3264
1 3265
1 3266
1 3267
1 3268
1 3269
1 3270
1 3271
1 3272
1 3273
1 3274
1 3275
1 3276
1 3277
1 3278
1 3279
1 3280
1 3281
1 3282
1 3283
1 3284
1 3285
1 3286
1 3287
1 3288
1 3289
1 3290
1 3291
1 3292
1 3293
1 3294
1 3295
1 3296
1 3297
1 3298
1 3299
1 3300
1 3301
1 3302
1 3303
1 3304
1 3305
1 3306
1 3307
1 3308
1 3309
1 3310
1 3311
1 3312
1 3313
1 3314
1 3315
1 3316
1 3317
1 3318
1 3319
1 3320
1 3321
1 3322
1 3323
1 3324
1 3325
1 3326
1 3327
1 3328
1 3329
1 3330
1 3331
1 3332
1 3333
1 3334
1 3335
1 3336
1 3337
1 3338
1 3339
1 3340
1 3341
1 3342
1 3343
1 3344
1 3345
1 3346
1 3347
1 3348
1 3349
1 3350
1 3351
1 3352
1 3353
1 3354
1 3355
1 3356
1 3357
1 3358
1 3359
1 3360
1 3361
1 3362
1 3363
1 3364
1 3365
1 3366
1 3367
1 3368
1 3369
1 3370
1 3371
1 3372
1 3373
1 3374
1 3375
1 3376
1 3377
1 3378
1 3379
1 3380
1 3381
1 3382
1 3383
1 3384
1 3385
1 3386
1 3387
1 3388
1 3389
1 3390
1 3391
1 3392
1 3393
1 3394
1 3395
1 3396
1 3397
1 3398
1 3399
1 3400
1 3401
1 3402
1 3403
1 3404
1 3405
1 3406
1 3407
1 3408
1 3409
1 3410
1 3411
1 3412
1 3413
1 3414
1 3415
1 3416
1 3417
1 3418
1 3419
1 3420
1 3421
1 3422
1 3423
1 3424
1 3425
1 3426
1 3427
1 3428
1 3429
1 3430
1 3431
1 3432
1 3433
1 3434
1 3435
1 3436
1 3437
1 3438
1 3439
1 3440
1 3441
1 3442
1 3443
1 3444
1 3445
1 3446
1 3447
1 3448
1 3449
1 3450
1 3451
1 3452
1 3453
1 3454
1 3455
1 3456
1 3457
1 3458
1 3459
1 3460
1 3461
1 3462
1 3463
1 3464
1 3465
1 3466
1 3467
1 3468
1 3469
1 3470
1 3471
1 3472
1 3473
1 3474
1 3475
1 3476
1 3477
1 3478
1 3479
1 3480
1 3481
1 3482
1 3483
1 3484
1 3485
1 3486
1 3487
1 3488
1 3489
1 3490
1 3491
1 3492
1 3493
1 3494
1 3495
1 3496
1 3497
1 3498
1 3499
1 3500
1 3501
1 3502
1 3503
1 3504
1 3505
1 3506
1 3507
1 3508
1 3509
1 3510
1 3511
1 3512
1 3513
1 3514
1 3515
1 3516
1 3517
1 3518
1 3519
1 3520
1 3521
1 3522
1 3523
1 3524
1 3525
1 3526
1 3527
1 3528
1 3529
1 3530
1 3531
1 3532
1 3533
1 3534
1 3535
1 3536
1 3537
1 3538
1 3539
1 3540
1 3541
1 3542
1 3543
1 3544
1 3545
1 3546
1 3547
1 3548
1 3549
1 3550
1 3551
1 3552
1 3553
1 3554
1 3555
1 3556
1 3557
1 3558
1 3559
1 3560
1 3561
1 3562
1 3563
1 3564
1 3565
1 3566
1 3567
1 3568
1 3569
1 3570
1 3571
1 3572
1 3573
1 3574
1 3575
1 3576
1 3577
1 3578
1 3579
1 3580
1 3581
1 3582
1 3583
1 3584
1 3585
1 3586
1 3587
1 3588
1 3589
1 3590
1 3591
1 3592
1 3593
1 3594
1 3595
1 3596
1 3597
1 3598
1 3599
1 3600
1 3601
1 3602
1 3603
1 3604
1 3605
1 3606
1 3607
1 3608
1 3609
1 3610
1 3611
1 3612
1 3613
1 3614
1 3615
1 3616
1 3617
1 3618
1 3619
1 3620
1 3621
1 3622
1 3623
1 3624
1 3625
1 3626
1 3627
1 3628
1 3629
1 3630
1 3631
1 3632
1 3633
1 3634
1 3635
1 3636
1 3637
1 3638
1 3639
1 3640
1 3641
1 3642
1 3643
1 3644
1 3645
1 3646
1 3647
1 3648
1 3649
1 3650
1 3651
1 3652
1 3653
1 3654
1 3655
1 3656
1 3657
1 3658
1 3659
1 3660
1 3661
1 3662
1 3663
1 3664
1 3665
1 3666
1 3667
1 3668
1 3669
1 3670
1 3671
1 3672
1 3673
1 3674
1 3675
1 3676
1 3677
1 3678
1 3679
1 3680
1 3681
1 3682
1 3683
1 3684
1 3685
1 3686
1 3687
1 3688
1 3689
1 3690
1 3691
1 3692
1 3693
1 3694
1 3695
1 3696
1 3697
1 3698
1 3699
1 3700
1 3701
1 3702
1 3703
1 3704
1 3705
1 3706
1 3707
1 3708
1 3709
1 3710
1 3711
1 3712
1 3713
1 3714
1 3715
1 3716
1 3717
1 3718
1 3719
1 3720
1 3721
1 3722
1 3723
1 3724
1 3725
1 3726
1 3727
1 3728
1 3729
1 3730
1 3731
1 3732
1 3733
1 3734
1 3735
1 3736
1 3737
1 3738
1 3739
1 3740
1 3741
1 3742
1 3743
1 3744
1 3745
1 3746
1 3747
1 3748
1 3749
1 3750
1 3751
1 3752
1 3753
1 3754
1 3755
1 3756
1 3757
1 3758
1 3759
1 3760
1 3761
1 3762
1 3763
1 3764
1 3765
1 3766
1 3767
1 3768
1 3769
1 3770
1 3771
1 3772
1 3773
1 3774
1 3775
1 3776
1 3777
1 3778
1 3779
1 3780
1 3781
1 3782
1 3783
1 3784
1 3785
1 3786
1 3787
1 3788
1 3789
1 3790
1 3791
1 3792
1 3793
1 3794
1 3795
1 3796
1 3797
1 3798
1 3799
1 3800
1 3801
1 3802
1 3803
1 3804
1 3805
1 3806
1 3807
1 3808
1 3809
1 3810
1 3811
1 3812
1 3813
1 3814
1 3815
1 3816
1 3817
1 3818
1 3819
1 3820
1 3821
1 3822
1 3823
1 3824
1 3825
1 3826
1 3827
1 3828
1 3829
1 3830
1 3831
1 3832
1 3833
1 3834
1 3835
1 3836
1 3837
1 3838
1 3839
1 3840
1 3841
1 3842
1 3843
1 3844
1 3845
1 3846
1 3847
1 3848
1 3849
1 3850
1 3851
1 3852
1 3853
1 3854
1 3855
1 3856
1 3857
1 3858
1 3859
1 3860
1 3861
1 3862
1 3863
1 3864
1 3865
1 3866
1 3867
1 3868
1 3869
1 3870
1 3871
1 3872
1 3873
1 3874
1 3875
1 3876
1 3877
1 3878
1 3879
1 3880
1 3881
1 3882
1 3883
1 3884
1 3885
1 3886
1 3887
1 3888
1 3889
1 3890
1 3891
1 3892
1 3893
1 3894
1 3895
1 3896
1 3897
1 3898
1 3899
1 3900
1 3901
1 3902
1 3903
1 3904
1 3905
1 3906
1 3907
1 3908
1 3909
1 3910
1 3911
1 3912
1 3913
1 3914
1 3915
1 3916
1 3917
1 3918
1 3919
1 3920
1 3921
1 3922
1 3923
1 3924
1 3925
1 3926
1 3927
1 3928
1 3929
1 3930
1 3931
1 3932
1 3933
1 3934
1 3935
1 3936
1 3937
1 3938
1 3939
1 3940
1 3941
1 3942
1 3943
1 3944
1 3945
1 3946
1 3947
1 3948
1 3949
1 3950
1 3951
1 3952
1 3953
1 3954
1 3955
1 3956
1 3957
1 3958
1 3959
1 3960
1 3961
1 3962
1 3963
1 3964
1 3965
1 3966
1 3967
1 3968
1 3969
1 3970
1 3971
1 3972
1 3973
1 3974
1 3975
1 3976
1 3977
1 3978
1 3979
1 3980
1 3981
1 3982
1 3983
1 3984
1 3985
1 3986
1 3987
1 3988
1 3989
1 3990
1 3991
1 3992
1 3993
1 3994
1 3995
1 3996
1 3997
1 3998
1 3999
1 4000
1 4001
1 4002
1 4003
1 4004
1 4005
1 4006
1 4007
1 4008
1 4009
1 4010
1 4011
1 4012
1 4013
1 4014
1 4015
1 4016
1 4017
1 4018
1 4019
1 4020
1 4021
1 4022
1 4023
1 4024
1 4025
1 4026
1 4027
1 4028
1 4029
1 4030
1 4031
1 4032
1 4033
1 4034
1 4035
1 4036
1 4037
1 4038
1 4039
1 4040
1 4041
1 4042
1 4043
1 4044
1 4045
1 4046
1 4047
1 4048
1 4049
1 4050
1 4051
1 4052
1 4053
1 4054
1 4055
1 4056
1 4057
1 4058
1 4059
1 4060
1 4061
1 4062
1 4063
1 4064
1 4065
1 4066
1 4067
1 4068
1 4069
1 4070
1 4071
1 4072
1 4073
1 4074
1 4075
1 4076
1 4077
1 4078
1 4079
1 4080
1 4081
1 4082
1 4083
1 4084
1 4085
1 4086
1 4087
1 4088
1 4089
1 4090
1 4091
1 4092
1 4093
1 4094
1 4095
1 4096
1 4097
1 4098
1 4099
1 4100
1 4101
1 4102
1 4103
1 4104
1 4105
1 4106
1 4107
1 4108
1 4109
1 4110
1 4111
1 4112
1 4113
1 4114
1 4115
1 4116
1 4117
1 4118
1 4119
1 4120
1 4121
1 4122
1 4123
1 4124
1 4125
1 4126
1 4127
1 4128
1 4129
1 4130
1 4131
1 4132
1 4133
1 4134
1 4135
1 4136
1 4137
1 4138
1 4139
1 4140
1 4141
1 4142
1 4143
1 4144
1 4145
1 4146
1 4147
1 4148
1 4149
1 4150
1 4151
1 4152
1 4153
1 4154
1 4155
1 4156
1 4157
1 4158
1 4159
1 4160
1 4161
1 4162
1 4163
1 4164
1 4165
1 4166
1 4167
1 4168
1 4169
1 4170
1 4171
1 4172
1 4173
1 4174
1 4175
1 4176
1 4177
1 4178
1 4179
1 4180
1 4181
1 4182
1 4183
1 4184
1 4185
1 4186
1 4187
1 4188
1 4189
1 4190
1 4191
1 4192
1 4193
1 4194
1 4195
1 4196
1 4197
1 4198
1 4199
1 4200
1 4201
1 4202
1 4203
1 4204
1 4205
1 4206
1 4207
1 4208
1 4209
1 4210
1 4211
1 4212
1 4213
1 4214
1 4215
1 4216
1 4217
1 4218
1 4219
1 4220
1 4221
1 4222
1 4223
1 4224
1 4225
1 4226
1 4227
1 4228
1 4229
1 4230
1 4231
1 4232
1 4233
1 4234
1 4235
1 4236
1 4237
1 4238
1 4239
1 4240
1 4241
1 4242
1 4243
1 4244
1 4245
1 4246
1 4247
1 4248
1 4249
1 4250
1 4251
1 4252
1 4253
1 4254
1 4255
1 4256
1 4257
1 4258
1 4259
1 4260
1 4261
1 4262
1 4263
1 4264
1 4265
1 4266
1 4267
1 4268
1 4269
1 4270
1 4271
1 4272
1 4273
1 4274
1 4275
1 4276
1 4277
1 4278
1 4279
1 4280
1 4281
1 4282
1 4283
1 4284
1 4285
1 4286
1 4287
1 4288
1 4289
1 4290
1 4291
1 4292
1 4293
1 4294
1 4295
1 4296
1 4297
1 4298
1 4299
1 4300
1 4301
1 4302
1 4303
1 4304
1 4305
1 4306
1 4307
1 4308
1 4309
1 4310
1 4311
1 4312
1 4313
1 4314
1 4315
1 4316
1 4317
1 4318
1 4319
1 4320
1 4321
1 4322
1 4323
1 4324
1 4325
1 4326
1 4327
1 4328
1 4329
1 4330
1 4331
1 4332
1 4333
1 4334
1 4335
1 4336
1 4337
1 4338
1 4339
1 4340
1 4341
1 4342
1 4343
1 4344
1 4345
1 4346
1 4347
1 4348
1 4349
1 4350
1 4351
1 4352
1 4353
1 4354
1 4355
1 4356
1 4357
1 4358
1 4359
1 4360
1 4361
1 4362
1 4363
1 4364
1 4365
1 4366
1 4367
1 4368
1 4369
1 4370
1 4371
1 4372
1 4373
1 4374
1 4375
1 4376
1 4377
1 4378
1 4379
1 4380
1 4381
1 4382
1 4383
1 4384
1 4385
1 4386
1 4387
1 4388
1 4389
1 4390
1 4391
1 4392
1 4393
1 4394
1 4395
1 4396
1 4397
1 4398
1 4399
1 4400
1 4401
1 4402
1 4403
1 4404
1 4405
1 4406
1 4407
1 4408
1 4409
1 4410
1 4411
1 4412
1 4413
1 4414
1 4415
1 4416
1 4417
1 4418
1 4419
1 4420
1 4421
1 4422
1 4423
1 4424
1 4425
1 4426
1 4427
1 4428
1 4429
1 4430
1 4431
1 4432
1 4433
1 4434
1 4435
1 4436
1 4437
1 4438
1 4439
1 4440
1 4441
1 4442
1 4443
1 4444
1 4445
1 4446
1 4447
1 4448
1 4449
1 4450
1 4451
1 4452
1 4453
1 4454
1 4455
1 4456
1 4457
1 4458
1 4459
1 4460
1 4461
1 4462
1 4463
1 4464
1 4465
1 4466
1 4467
1 4468
1 4469
1 4470
1 4471
1 4472
1 4473
1 4474
1 4475
1 4476
1 4477
1 4478
1 4479
1 4480
1 4481
1 4482
1 4483
1 4484
1 4485
1 4486
1 4487
1 4488
1 4489
1 4490
1 4491
1 4492
1 4493
1 4494
1 4495
1 4496
1 4497
1 4498
1 4499
1 4500
1 4501
1 4502
1 4503
1 4504
1 4505
1 4506
1 4507
1 4508
1 4509
1 4510
1 4511
1 4512
1 4513
1 4514
1 4515
1 4516
1 4517
1 4518
1 4519
1 4520
1 4521
1 4522
1 4523
1 4524
1 4525
1 4526
1 4527
1 4528
1 4529
1 4530
1 4531
1 4532
1 4533
1 4534
1 4535
1 4536
1 4537
1 4538
1 4539
1 4540
1 4541
1 4542
1 4543
1 4544
1 4545
1 4546
1 4547
1 4548
1 4549
1 4550
1 4551
1 4552
1 4553
1 4554
1 4555
1 4556
1 4557
1 4558
1 4559
1 4560
1 4561
1 4562
1 4563
1 4564
1 4565
1 4566
1 4567
1 4568
1 4569
1 4570
1 4571
1 4572
1 4573
1 4574
1 4575
1 4576
1 4577
1 4578
1 4579
1 4580
1 4581
1 4582
1 4583
1 4584
1 4585
1 4586
1 4587
1 4588
1 4589
1 4590
1 4591
1 4592
1 4593
1 4594
1 4595
1 4596
1 4597
1 4598
1 4599
1 4600
1 4601
1 4602
1 4603
1 4604
1 4605
1 4606
1 4607
1 4608
1 4609
1 4610
1 4611
1 4612
1 4613
1 4614
1 4615
1 4616
1 4617
1 4618
1 4619
1 4620
1 4621
1 4622
1 4623
1 4624
1 4625
1 4626
1 4627
1 4628
1 4629
1 4630
1 4631
1 4632
1 4633
1 4634
1 4635
1 4636
1 4637
1 4638
1 4639
1 4640
1 4641
1 4642
1 4643
1 4644
1 4645
1 4646
1 4647
1 4648
1 4649
1 4650
1 4651
1 4652
1 4653
1 4654
1 4655
1 4656
1 4657
1 4658
1 4659
1 4660
1 4661
1 4662
1 4663
1 4664
1 4665
1 4666
1 4667
1 4668
1 4669
1 4670
1 4671
1 4672
1 4673
1 4674
1 4675
1 4676
1 4677
1 4678
1 4679
1 4680
1 4681
1 4682
1 4683
1 4684
1 4685
1 4686
1 4687
1 4688
1 4689
1 4690
1 4691
1 4692
1 4693
1 4694
1 4695
1 4696
1 4697
1 4698
1 4699
1 4700
1 4701
1 4702
1 4703
1 4704
1 4705
1 4706
1 4707
1 4708
1 4709
1 4710
1 4711
1 4712
1 4713
1 4714
1 4715
1 4716
1 4717
1 4718
1 4719
1 4720
1 4721
1 4722
1 4723
1 4724
1 4725
1 4726
1 4727
1 4728
1 4729
1 4730
1 4731
1 4732
1 4733
1 4734
1 4735
1 4736
1 4737
1 4738
1 4739
1 4740
1 4741
1 4742
1 4743
1 4744
1 4745
1 4746
1 4747
1 4748
1 4749
1 4750
1 4751
1 4752
1 4753
1 4754
1 4755
1 4756
1 4757
1 4758
1 4759
1 4760
1 4761
1 4762
1 4763
1 4764
1 4765
1 4766
1 4767
1 4768
1 4769
1 4770
1 4771
1 4772
1 4773
1 4774
1 4775
1 4776
1 4777
1 4778
1 4779
1 4780
1 4781
1 4782
1 4783
1 4784
1 4785
1 4786
1 4787
1 4788
1 4789
1 4790
1 4791
1 4792
1 4793
1 4794
1 4795
1 4796
1 4797
1 4798
1 4799
1 4800
1 4801
1 4802
1 4803
1 4804
1 4805
1 4806
1 4807
1 4808
1 4809
1 4810
1 4811
1 4812
1 4813
1 4814
1 4815
1 4816
1 4817
1 4818
1 4819
1 4820
1 4821
1 4822
1 4823
1 4824
1 4825
1 4826
1 4827
1 4828
1 4829
1 4830
1 4831
1 4832
1 4833
1 4834
1 4835
1 4836
1 4837
1 4838
1 4839
1 4840
1 4841
1 4842
1 4843
1 4844
1 4845
1 4846
1 4847
1 4848
1 4849
1 4850
1 4851
1 4852
1 4853
1 4854
1 4855
1 4856
1 4857
1 4858
1 4859
1 4860
1 4861
1 4862
1 4863
1 4864
1 4865
1 4866
1 4867
1 4868
1 4869
1 4870
1 4871
1 4872
1 4873
1 4874
1 4875
1 4876
1 4877
1 4878
1 4879
1 4880
1 4881
1 4882
1 4883
1 4884
1 4885
1 4886
1 4887
1 4888
1 4889
1 4890
1 4891
1 4892
1 4893
1 4894
1 4895
1 4896
1 4897
1 4898
1 4899
1 4900
1 4901
1 4902
1 4903
1 4904
1 4905
1 4906
1 4907
1 4908
1 4909
1 4910
1 4911
1 4912
1 4913
1 4914
1 4915
1 4916
1 4917
1 4918
1 4919
1 4920
1 4921
1 4922
1 4923
1 4924
1 4925
1 4926
1 4927
1 4928
1 4929
1 4930
1 4931
1 4932
1 4933
1 4934
1 4935
1 4936
1 4937
1 4938
1 4939
1 4940
1 4941
1 4942
1 4943
1 4944
1 4945
1 4946
1 4947
1 4948
1 4949
1 4950
1 4951
1 4952
1 4953
1 4954
1 4955
1 4956
1 4957
1 4958
1 4959
1 4960
1 4961
1 4962
1 4963
1 4964
1 4965
1 4966
1 4967
1 4968
1 4969
1 4970
1 4971
1 4972
1 4973
1 4974
1 4975
1 4976
1 4977
1 4978
1 4979
1 4980
1 4981
1 4982
1 4983
1 4984
1 4985
1 4986
1 4987
1 4988
1 4989
1 4990
1 4991
1 4992
1 4993
1 4994
1 4995
1 4996
1 4997
1 4998
1 4999
CELL_TYPES 5000
1 
1 
1 
1 
1 
1 
1 
1 
1 
1 
1 
1 
1 
1 
1 
1 
1 
1 
1 
1 
1 
1 
1 
1 
1 
1 
1 
1 
1 
1 
1 
1 
1 
1 
1 
1 
1 
1 
1 
1 
1 
1 
1 
1 
1 
1 
1 
1 
1 
1 
1 
1 
1 
1 
1 
1 
1 
1 
1 
1 
1 
1 
1 
1 
1 
1 
1 
1 
1 
1 
1 
1 
1 
1 
1 
1 
1 
1 
1 
1 
1 
1 
1 
1 
1 
1 
1 
1 
1 
1 
1 
1 
1 
1 
1 
1 
1 
1 
1 
1 
1 
1 
1 
1 
1 
1 
1 
1 
1 
1 
1 
1 
1 
1 
1 
1 
1 
1 
1 
1 
1 
1 
1 
1 
1 
1 
1 
1 
1 
1 
1 
1 
1 
1 
1 
1 
1 
1 
1 
1 
1 
1 
1 
1 
1 
1 
1 
1 
1 
1 
1 
1 
1 
1 
1 
1 
1 
1 
1 
1 
1 
1 
1 
1 
1 
1 
1 
1 
1 
1 
1 
1 
1 
1 
1 
1 
1 
1 
1 
1 
1 
1 
1 
1 
1 
1 
1 
1 
1 
1 
1 
1 
1 
1 
1 
1 
1 
1 
1 
1 
1 
1 
1 
1 
1 
1 
1 
1 
1 
1 
1 
1 
1 
1 
1 
1 
1 
1 
1 
1 
1 
1 
1 
1 
1 
1 
1 
1 
1 
1 
1 
1 
1 
1 
1 
1 
1 
1 
1 
1 
1 
1 
1 
1 
1 
1 
1 
1 
1 
1 
1 
1 
1 
1 
1 
1 
1 
1 
1 
1 
1 
1 
1 
1 
1 
1 
1 
1 
1 
1 
1 
1 
1 
1 
1 
1 
1 
1 
1 
1 
1 
1 
1 
1 
1 
1 
1 
1 
1 
1 
1 
1 
1 
1 
1 
1 
1 
1 
1 
1 
1 
1 
1 
1 
1 
1 
1 
1 
1 
1 
1 
1 
1 
1 
1 
1 
1 
1 
1 
1 
1 
1 
1 
1 
1 
1 
1 
1 
1 
1 
1 
1 
1 
1 
1 
1 
1 
1 
1 
1 
1 
1 
1 
1 
1 
1 
1 
1 
1 
1 
1 
1 
1 
1 
1 
1 
1 
1 
1 
1 
1 
1 
1 
1 
1 
1 
1 
1 
1 
1 
1 
1 
1 
1 
1 
1 
1 
1 
1 
1 
1 
1 
1 
1 
1 
1 
1 
1 
1 
1 
1 
1 
1 
1 
1 
1 
1 
1 
1 
1 
1 
1 
1 
1 
1 
1 
1 
1 
1 
1 
1 
1 
1 
1 
1 
1 
1 
1 
1 
1 
1 
1 
1 
1 
1 
1 
1 
1 
1 
1 
1 
1 
1 
1 
1 
1 
1 
1 
1 
1 
1 
1 
1 
1 
1 
1 
1 
1 
1 
1 
1 
1 
1 
1 
1 
1 
1 
1 
1 
1 
1 
1 
1 
1 
1 
1 
1 
1 
1 
1 
1 
1 
1 
1 
1 
1 
1 
1 
1 
1 
1 
1 
1 
1 
1 
1 
1 
1 
1 
1 
1 
1 
1 
1 
1 
1 
1 
1 
1 
1 
1 
1 
1 
1 
1 
1 
1 
1 
1 
1 
1 
1 
1 
1 
1 
1 
1 
1 
1 
1 
1 
1 
1 
1 
1 
1 
1 
1 
1 
1 
1 
1 
1 
1 
1 
1 
1 
1 
1 
1 
1 
1 
1 
1 
1 
1 
1 
1 
1 
1 
1 
1 
1 
1 
1 
1 
1 
1 
1 
1 
1 
1 
1 
1 
1 
1 
1 
1 
1 
1 
1 
1 
1 
1 
1 
1 
1 
1 
1 
1 
1 
1 
1 
1 
1 
1 
1 
1 
1 
1 
1 
1 
1 
1 
1 
1 
1 
1 
1 
1 
1 
1 
1 
1 
1 
1 
1 
1 
1 
1 
1 
1 
1 
1 
1 
1 
1 
1 
1 
1 
1 
1 
1 
1 
1 
1 
1 
1 
1 
1 
1 
1 
1 
1 
1 
1 
1 
1 
1 
1 
1 
1 
1 
1 
1 
1 
1 
1 
1 
1 
1 
1 
1 
1 
1 
1 
1 
1 
1 
1 
1 
1 
1 
1 
1 
1 
1 
1 
1 
1 
1 
1 
1 
1 
1 
1 
1 
1 
1 
1 
1 
1 
1 
1 
1 
1 
1 
1 
1 
1 
1 
1 
1 
1 
1 
1 
1 
1 
1 
1 
1 
1 
1 
1 
1 
1 
1 
1 
1 
1 
1 
1 
1 
1 
1 
1 
1 
1 
1 
1 
1 
1 
1 
1 
1 
1 
1 
1 
1 
1 
1 
1 
1 
1 
1 
1 
1 
1 
1 
1 
1 
1 
1 
1 
1 
1 
1 
1 
1 
1 
1 
1 
1 
1 
1 
1 
1 
1 
1 
1 
1 
1 
1 
1 
1 
1 
1 
1 
1 
1 
1 
1 
1 
1 
1 
1 
1 
1 
1 
1 
1 
1 
1 
1 
1 
1 
1 
1 
1 
1 
1 
1 
1 
1 
1 
1 
1 
1 
1 
1 
1 
1 
1 
1 
1 
1 
1 
1 
1 
1 
1 
1 
1 
1 
1 
1 
1 
1 
1 
1 
1 
1 
1 
1 
1 
1 
1 
1 
1 
1 
1 
1 
1 
1 
1 
1 
1 
1 
1 
1 
1 
1 
1 
1 
1 
1 
1 
1 
1 
1 
1 
1 
1 
1 
1 
1 
1 
1 
1 
1 
1 
1 
1 
1 
1 
1 
1 
1 
1 
1 
1 
1 
1 
1 
1 
1 
1 
1 
1 
1 
1 
1 
1 
1 
1 
1 
1 
1 
1 
1 
1 
1 
1 
1 
1 
1 
1 
1 
1 
1 
1 
1 
1 
1 
1 
1 
1 
1 
1 
1 
1 
1 
1 
1 
1 
1 
1 
1 
1 
1 
1 
1 
1 
1 
1 
1 
1 
1 
1 
1 
1 
1 
1 
1 
1 
1 
1 
1 
1 
1 
1 
1 
1 
1 
1 
1 
1 
1 
1 
1 
1 
1 
1 
1 
1 
1 
1 
1 
1 
1 
1 
1 
1 
1 
1 
1 
1 
1 
1 
1 
1 
1 
1 
1 
1 
1 
1 
1 
1 
1 
1 
1 
1 
1 
1 
1 
1 
1 
1 
1 
1 
1 
1 
1 
1 
1 
1 
1 
1 
1 
1 
1 
1 
1 
1 
1 
1 
1 
1 
1 
1 
1 
1 
1 
1 
1 
1 
1 
1 
1 
1 
1 
1 
1 
1 
1 
1 
1 
1 
1 
1 
1 
1 
1 
1 
1 
1 
1 
1 
1 
1 
1 
1 
1 
1 
1 
1 
1 
1 
1 
1 
1 
1 
1 
1 
1 
1 
1 
1 
1 
1 
1 
1 
1 
1 
1 
1 
1 
1 
1 
1 
1 
1 
1 
1 
1 
1 
1 
1 
1 
1 
1 
1 
1 
1 
1 
1 
1 
1 
1 
1 
1 
1 
1 
1 
1 
1 
1 
1 
1 
1 
1 
1 
1 
1 
1 
1 
1 
1 
1 
1 
1 
1 
1 
1 
1 
1 
1 
1 
1 
1 
1 
1 
1 
1 
1 
1 
1 
1 
1 
1 
1 
1 
1 
1 
1 
1 
1 
1 
1 
1 
1 
1 
1 
1 
1 
1 
1 
1 
1 
1 
1 
1 
1 
1 
1 
1 
1 
1 
1 
1 
1 
1 
1 
1 
1 
1 
1 
1 
1 
1 
1 
1 
1 
1 
1 
1 
1 
1 
1 
1 
1 
1 
1 
1 
1 
1 
1 
1 
1 
1 
1 
1 
1 
1 
1 
1 
1 
1 
1 
1 
1 
1 
1 
1 
1 
1 
1 
1 
1 
1 
1 
1 
1 
1 
1 
1 
1 
1 
1 
1 
1 
1 
1 
1 
1 
1 
1 
1 
1 
1 
1 
1 
1 
1 
1 
1 
1 
1 
1 
1 
1 
1 
1 
1 
1 
1 
1 
1 
1 
1 
1 
1 
1 
1 
1 
1 
1 
1 
1 
1 
1 
1 
1 
1 
1 
1 
1 
1 
1 
1 
1 
1 
1 
1 
1 
1 
1 
1 
1 
1 
1 
1 
1 
1 
1 
1 
1 
1 
1 
1 
1 
1 
1 
1 
1 
1 
1 
1 
1 
1 
1 
1 
1 
1 
1 
1 
1 
1 
1 
1 
1 
1 
1 
1 
1 
1 
1 
1 
1 
1 
1 
1 
1 
1 
1 
1 
1 
1 
1 
1 
1 
1 
1 
1 
1 
1 
1 
1 
1 
1 
1 
1 
1 
1 
1 
1 
1 
1 
1 
1 
1 
1 
1 
1 
1 
1 
1 
1 
1 
1 
1 
1 
1 
1 
1 
1 
1 
1 
1 
1 
1 
1 
1 
1 
1 
1 
1 
1 
1 
1 
1 
1 
1 
1 
1 
1 
1 
1 
1 
1 
1 
1 
1 
1 
1 
1 
1 
1 
1 
1 
1 
1 
1 
1 
1 
1 
1 
1 
1 
1 
1 
1 
1 
1 
1 
1 
1 
1 
1 
1 
1 
1 
1 
1 
1 
1 
1 
1 
1 
1 
1 
1 
1 
1 
1 
1 
1 
1 
1 
1 
1 
1 
1 
1 
1 
1 
1 
1 
1 
1 
1 
1 
1 
1 
1 
1 
1 
1 
1 
1 
1 
1 
1 
1 
1 
1 
1 
1 
1 
1 
1 
1 
1 
1 
1 
1 
1 
1 
1 
1 
1 
1 
1 
1 
1 
1 
1 
1 
1 
1 
1 
1 
1 
1 
1 
1 
1 
1 
1 
1 
1 
1 
1 
1 
1 
1 
1 
1 
1 
1 
1 
1 
1 
1 
1 
1 
1 
1 
1 
1 
1 
1 
1 
1 
1 
1 
1 
1 
1 
1 
1 
1 
1 
1 
1 
1 
1 
1 
1 
1 
1 
1 
1 
1 
1 
1 
1 
1 
1 
1 
1 
1 
1 
1 
1 
1 
1 
1 
1 
1 
1 
1 
1 
1 
1 
1 
1 
1 
1 
1 
1 
1 
1 
1 
1 
1 
1 
1 
1 
1 
1 
1 
1 
1 
1 
1 
1 
1 
1 
1 
1 
1 
1 
1 
1 
1 
1 
1 
1 
1 
1 
1 
1 
1 
1 
1 
1 
1 
1 
1 
1 
1 
1 
1 
1 
1 
1 
1 
1 
1 
1 
1 
1 
1 
1 
1 
1 
1 
1 
1 
1 
1 
1 
1 
1 
1 
1 
1 
1 
1 
1 
1 
1 
1 
1 
1 
1 
1 
1 
1 
1 
1 
1 
1 
1 
1 
1 
1 
1 
1 
1 
1 
1 
1 
1 
1 
1 
1 
1 
1 
1 
1 
1 
1 
1 
1 
1 
1 
1 
1 
1 
1 
1 
1 
1 
1 
1 
1 
1 
1 
1 
1 
1 
1 
1 
1 
1 
1 
1 
1 
1 
1 
1 
1 
1 
1 
1 
1 
1 
1 
1 
1 
1 
1 
1 
1 
1 
1 
1 
1 
1 
1 
1 
1 
1 
1 
1 
1 
1 
1 
1 
1 
1 
1 
1 
1 
1 
1 
1 
1 
1 
1 
1 
1 
1 
1 
1 
1 
1 
1 
1 
1 
1 
1 
1 
1 
1 
1 
1 
1 
1 
1 
1 
1 
1 
1 
1 
1 
1 
1 
1 
1 
1 
1 
1 
1 
1 
1 
1 
1 
1 
1 
1 
1 
1 
1 
1 
1 
1 
1 
1 
1 
1 
1 
1 
1 
1 
1 
1 
1 
1 
1 
1 
1 
1 
1 
1 
1 
1 
1 
1 
1 
1 
1 
1 
1 
1 
1 
1 
1 
1 
1 
1 
1 
1 
1 
1 
1 
1 
1 
1 
1 
1 
1 
1 
1 
1 
1 
1 
1 
1 
1 
1 
1 
1 
1 
1 
1 
1 
1 
1 
1 
1 
1 
1 
1 
1 
1 
1 
1 
1 
1 
1 
1 
1 
1 
1 
1 
1 
1 
1 
1 
1 
1 
1 
1 
1 
1 
1 
1 
1 
1 
1 
1 
1 
1 
1 
1 
1 
1 
1 
1 
1 
1 
1 
1 
1 
1 
1 
1 
1 
1 
1 
1 
1 
1 
1 
1 
1 
1 
1 
1 
1 
1 
1 
1 
1 
1 
1 
1 
1 
1 
1 
1 
1 
1 
1 
1 
1 
1 
1 
1 
1 
1 
1 
1 
1 
1 
1 
1 
1 
1 
1 
1 
1 
1 
1 
1 
1 
1 
1 
1 
1 
1 
1 
1 
1 
1 
1 
1 
1 
1 
1 
1 
1 
1 
1 
1 
1 
1 
1 
1 
1 
1 
1 
1 
1 
1 
1 
1 
1 
1 
1 
1 
1 
1 
1 
1 
1 
1 
1 
1 
1 
1 
1 
1 
1 
1 
1 
1 
1 
1 
1 
1 
1 
1 
1 
1 
1 
1 
1 
1 
1 
1 
1 
1 
1 
1 
1 
1 
1 
1 
1 
1 
1 
1 
1 
1 
1 
1 
1 
1 
1 
1 
1 
1 
1 
1 
1 
1 
1 
1 
1 
1 
1 
1 
1 
1 
1 
1 
1 
1 
1 
1 
1 
1 
1 
1 
1 
1 
1 
1 
1 
1 
1 
1 
1 
1 
1 
1 
1 
1 
1 
1 
1 
1 
1 
1 
1 
1 
1 
1 
1 
1 
1 
1 
1 
1 
1 
1 
1 
1 
1 
1 
1 
1 
1 
1 
1 
1 
1 
1 
1 
1 
1 
1 
1 
1 
1 
1 
1 
1 
1 
1 
1 
1 
1 
1 
1 
1 
1 
1 
1 
1 
1 
1 
1 
1 
1 
1 
1 
1 
1 
1 
1 
1 
1 
1 
1 
1 
1 
1 
1 
1 
1 
1 
1 
1 
1 
1 
1 
1 
1 
1 
1 
1 
1 
1 
1 
1 
1 
1 
1 
1 
1 
1 
1 
1 
1 
1 
1 
1 
1 
1 
1 
1 
1 
1 
1 
1 
1 
1 
1 
1 
1 
1 
1 
1 
1 
1 
1 
1 
1 
1 
1 
1 
1 
1 
1 
1 
1 
1 
1 
1 
1 
1 
1 
1 
1 
1 
1 
1 
1 
1 
1 
1 
1 
1 
1 
1 
1 
1 
1 
1 
1 
1 
1 
1 
1 
1 
1 
1 
1 
1 
1 
1 
1 
1 
1 
1 
1 
1 
1 
1 
1 
1 
1 
1 
1 
1 
1 
1 
1 
1 
1 
1 
1 
1 
1 
1 
1 
1 
1 
1 
1 
1 
1 
1 
1 
1 
1 
1 
1 
1 
1 
1 
1 
1 
1 
1 
1 
1 
1 
1 
1 
1 
1 
1 
1 
1 
1 
1 
1 
1 
1 
1 
1 
1 
1 
1 
1 
1 
1 
1 
1 
1 
1 
1 
1 
1 
1 
1 
1 
1 
1 
1 
1 
1 
1 
1 
1 
1 
1 
1 
1 
1 
1 
1 
1 
1 
1 
1 
1 
1 
1 
1 
1 
1 
1 
1 
1 
1 
1 
1 
1 
1 
1 
1 
1 
1 
1 
1 
1 
1 
1 
1 
1 
1 
1 
1 
1 
1 
1 
1 
1 
1 
1 
1 
1 
1 
1 
1 
1 
1 
1 
1 
1 
1 
1 
1 
1 
1 
1 
1 
1 
1 
1 
1 
1 
1 
1 
1 
1 
1 
1 
1 
1 
1 
1 
1 
1 
1 
1 
1 
1 
1 
1 
1 
1 
1 
1 
1 
1 
1 
1 
1 
1 
1 
1 
1 
1 
1 
1 
1 
1 
1 
1 
1 
1 
1 
1 
1 
1 
1 
1 
1 
1 
1 
1 
1 
1 
1 
1 
1 
1 
1 
1 
1 
1 
1 
1 
1 
1 
1 
1 
1 
1 
1 
1 
1 
1 
1 
1 
1 
1 
1 
1 
1 
1 
1 
1 
1 
1 
1 
1 
1 
1 
1 
1 
1 
1 
1 
1 
1 
1 
1 
1 
1 
1 
1 
1 
1 
1 
1 
1 
1 
1 
1 
1 
1 
1 
1 
1 
1 
1 
1 
1 
1 
1 
1 
1 
1 
1 
1 
1 
1 
1 
1 
1 
1 
1 
1 
1 
1 
1 
1 
1 
1 
1 
1 
1 
1 
1 
1 
1 
1 
1 
1 
1 
1 
1 
1 
1 
1 
1 
1 
1 
1 
1 
1 
1 
1 
1 
1 
1 
1 
1 
1 
1 
1 
1 
1 
1 
1 
1 
1 
1 
1 
1 
1 
1 
1 
1 
1 
1 
1 
1 
1 
1 
1 
1 
1 
1 
1 
1 
1 
1 
1 
1 
1 
1 
1 
1 
1 
1 
1 
1 
1 
1 
1 
1 
1 
1 
1 
1 
1 
1 
1 
1 
1 
1 
1 
1 
1 
1 
1 
1 
1 
1 
1 
1 
1 
1 
1 
1 
1 
1 
1 
1 
1 
1 
1 
1 
1 
1 
1 
1 
1 
1 
1 
1 
1 
1 
1 
1 
1 
1 
1 
1 
1 
1 
1 
1 
1 
1 
1 
1 
1 
1 
1 
1 
1 
1 
1 
1 
1 
1 
1 
1 
1 
1 
1 
1 
1 
1 
1 
1 
1 
1 
1 
1 
1 
1 
1 
1 
1 
1 
1 
1 
1 
1 
1 
1 
1 
1 
1 
1 
1 
1 
1 
1 
1 
1 
1 
1 
1 
1 
1 
1 
1 
1 
1 
1 
1 
1 
1 
1 
1 
1 
1 
1 
1 
1 
1 
1 
1 
1 
1 
1 
1 
1 
1 
1 
1 
1 
1 
1 
1 
1 
1 
1 
1 
1 
1 
1 
1 
1 
1 
1 
1 
1 
1 
1 
1 
1 
1 
1 
1 
1 
1 
1 
1 
1 
1 
1 
1 
1 
1 
1 
1 
1 
1 
1 
1 
1 
1 
1 
1 
1 
1 
1 
1 
1 
1 
1 
1 
1 
1 
1 
1 
1 
1 
1 
1 
1 
1 
1 
1 
1 
1 
1 
1 
1 
1 
1 
1 
1 
1 
1 
1 
1 
1 
1 
1 
1 
1 
1 
1 
1 
1 
1 
1 
1 
1 
1 
1 
1 
1 
1 
1 
1 
1 
1 
1 
1 
1 
1 
1 
1 
1 
1 
1 
1 
1 
1 
1 
1 
1 
1 
1 
1 
1 
1 
1 
1 
1 
1 
1 
1 
1 
1 
1 
1 
1 
1 
1 
1 
1 
1 
1 
1 
1 
1 
1 
1 
1 
1 
1 
1 
1 
1 
1 
1 
1 
1 
1 
1 
1 
1 
1 
1 
1 
1 
1 
1 
1 
1 
1 
1 
1 
1 
1 
1 
1 
1 
1 
1 
1 
1 
1 
1 
1 
1 
1 
1 
1 
1 
1 
1 
1 
1 
1 
1 
1 
1 
1 
1 
1 
1 
1 
1 
1 
1 
1 
1 
1 
1 
1 
1 
1 
1 
1 
1 
1 
1 
1 
1 
1 
1 
1 
1 
1 
1 
1 
1 
1 
1 
1 
1 
1 
1 
1 
1 
1 
1 
1 
1 
1 
1 
1 
1 
1 
1 
1 
1 
1 
1 
1 
1 
1 
1 
1 
1 
1 
1 
1 
1 
1 
1 
1 
1 
1 
1 
1 
1 
1 
1 
1 
1 
1 
1 
1 
1 
1 
1 
1 
1 
1 
1 
1 
1 
1 
1 
1 
1 
1 
1 
1 
1 
1 
1 
1 
1 
1 
1 
1 
1 
1 
1 
1 
1 
1 
1 
1 
1 
1 
1 
1 
1 
1 
1 
1 
1 
1 
1 
1 
1 
1 
1 
1 
1 
1 
1 
1 
1 
1 
1 
1 
1 
1 
1 
1 
1 
1 
1 
1 
1 
1 
1 
1 
1 
1 
1 
1 
1 
1 
1 
1 
1 
1 
1 
1 
1 
1 
1 
1 
1 
1 
1 
1 
1 
1 
1 
1 
1 
1 
1 
1 
1 
1 
1 
1 
1 
1 
1 
1 
1 
1 
1 
1 
1 
1 
1 
1 
1 
1 
1 
1 
1 
1 
1 
1 
1 
1 
1 
1 
1 
1 
1 
1 
1 
1 
1 
1 
1 
1 
1 
1 
1 
1 
1 
1 
1 
1 
1 
1 
1 
1 
1 
1 
1 
1 
1 
1 
1 
1 
1 
1 
1 
1 
1 
1 
1 
1 
1 
1 
1 
1 
1 
1 
1 
1 
1 
1 
1 
1 
1 
1 
1 
1 
1 
1 
1 
1 
1 
1 
1 
1 
1 
1 
1 
1 
1 
1 
1 
1 
1 
1 
1 
1 
1 
1 
1 
1 
1 
1 
1 
1 
1 
1 
1 
1 
1 
1 
1 
1 
1 
1 
1 
1 
1 
1 
1 
1 
1 
1 
1 
1 
1 
1 
1 
1 
1 
1 
1 
1 
1 
1 
1 
1 
1 
1 
1 
1 
1 
1 
1 
1 
1 
1 
1 
1 
1 
1 
1 
1 
1 
1 
1 
1 
1 
1 
1 
1 
1 
1 
1 
1 
1 
1 
1 
1 
1 
1 
1 
1 
1 
1 
1 
1 
1 
1 
1 
1 
1 
1 
1 
1 
1 
1 
1 
1 
1 
1 
1 
1 
1 
1 
1 
1 
1 
1 
1 
1 
1 
1 
1 
1 
1 
1 
1 
1 
1 
1 
1 
1 
1 
1 
1 
1 
1 
1 
1 
1 
1 
1 
1 
1 
1 
1 
1 
1 
1 
1 
1 
1 
1 
1 
1 
1 
1 
1 
1 
1 
1 
1 
1 
1 
1 
1 
1 
1 
1 
1 
1 
1 
1 
1 
1 
1 
1 
1 
1 
1 
1 
1 
1 
1 
1 
1 
1 
1 
1 
1 
1 
1 
1 
1 
1 
1 
1 
1 
1 
1 
1 
1 
1 
1 
1 
1 
1 
1 
1 
1 
1 
1 
1 
1 
1 
1 
1 
1 
1 
1 
1 
1 
1 
1 
1 
1 
1 
1 
1 
1 
1 
1 
1 
1 
1 
1 
1 
1 
1 
1 
1 
1 
1 
1 
1 
1 
1 
1 
1 
1 
1 
1 
1 
1 
1 
1 
1 
1 
1 
1 
1 
1 
1 
1 
1 
1 
1 
1 
1 
1 
1 
1 
1 
1 
1 
1 
1 
1 
1 
1 
1 
1 
1 
1 
1 
1 
1 
1 
1 
1 
1 
1 
1 
1 
1 
1 
1 
1 
1 
1 
1 
1 
1 
1 
1 
1 
1 
1 
1 
1 
1 
1 
1 
1 
1 
1 
1 
1 
1 
1 
1 
1 
1 
1 
1 
1 
1 
1 
1 
1 
1 
1 
1 
1 
1 
1 
1 
1 
1 
1 
1 
1 
1 
1 
1 
1 
1 
1 
1 
1 
1 
1 
1 
1 
1 
1 
1 
1 
1 
1 
1 
1 
1 
1 
1 
1 
1 
1 
1 
1 
1 
1 
1 
1 
1 
1 
1 
1 
1 
1 
1 
1 
1 
1 
1 
1 
1 
1 
1 
1 
1 
1 
1 
1 
1 
1 
1 
1 
1 
1 
1 
1 
1 
1 
1 
1 
1 
1 
1 
1 
1 
1 
1 
1 
1 
1 
1 
1 
1 
1 
1 
1 
1 
1 
1 
1 
1 
1 
1 
1 
1 
1 
1 
1 
1 
1 
1 
1 
1 
1 
1 
1 
1 
1 
1 
1 
1 
1 
1 
1 
1 
1 
1 
1 
1 
1 
1 
1 
1 
1 
1 
1 
1 
1 
1 
1 
1 
1 
1 
1 
1 
1 
1 
1 
1 
1 
1 
1 
1 
1 
1 
1 
1 
1 
1 
1 
1 
1 
1 
1 
1 
1 
1 
1 
1 
1 
1 
1 
1 
1 
1 
1 
1 
1 
1 
1 
1 
1 
1 
1 
1 
1 
1 
1 
1 
1 
1 
1 
1 
1 
1 
1 
1 
1 
1 
1 
1 
1 
1 
1 
1 
1 
1 
1 
1 
1 
1 
1 
1 
1 
1 
1 
1 
1 
1 
1 
1 
1 
1 
1 
1 
1 
1 
1 
1 
1 
1 
1 
1 
1 
1 
1 
1 
1 
1 
1 
1 
1 
1 
1 
1 
1 
1 
1 
1 
1 
1 
1 
1 
1 
1 
1 
1 
1 
1 
1 
1 
1 
1 
1 
1 
1 
1 
1 
1 
1 
1 
1 
1 
1 
1 
1 
1 
1 
1 
1 
1 
1 
1 
1 
1 
1 
1 
1 
1 
1 
1 
1 
1 
1 
1 
1 
1 
1 
1 
1 
1 
1 
1 
1 
1 
1 
1 
1 
1 
1 
1 
1 
1 
1 
1 
1 
1 
1 
1 
1 
1 
1 
1 
1 
1 
1 
1 
1 
1 
1 
1 
1 
1 
1 
1 
1 
1 
1 
1 
1 
1 
1 
1 
1 
1 
1 
1 
1 
1 
1 
1 
1 
1 
1 
1 
1 
1 
1 
1 
1 
1 
1 
1 
1 
1 
1 
1 
1 
1 
1 
1 
1 
1 
1 
1 
1 
1 
1 
1 
1 
1 
1 
1 
1 
1 
1 
1 
1 
1 
1 
1 
1 
1 
1 
1 
1 
1 
1 
1 
1 
1 
1 
1 
1 
1 
1 
1 
1 
1 
1 
1 
1 
1 
1 
1 
1 
1 
1 
1 
1 
1 
1 
1 
1 
1 
1 
1 
1 
1 
1 
1 
1 
1 
1 
1 
1 
1 
1 
1 
1 
1 
1 
1 
1 
1 
1 
1 
1 
1 
1 
1 
1 
1 
1 
1 
1 
1 
1 
1 
1 
1 
1 
1 
1 
1 
1 
1 
1 
1 
1 
1 
1 
1 
1 
1 
1 
1 
1 
1 
1 
1 
1 
1 
1 
1 
1 
1 
1 
1 
1 
1 
1 
1 
1 
1 
1 
1 
1 
1 
1 
1 
1 
1 
1 
1 
1 
1 
1 
1 
1 
1 
1 
1 
1 
1 
1 
1 
1 
1 
1 
1 
1 
1 
1 
1 
1 
1 
1 
1 
1 
1 
1 
1 
1 
1 
1 
1 
1 
1 
1 
1 
1 
1 
1 
1 
1 
1 
1 
1 
1 
1 
1 
1 
1 
1 
1 
1 
1 
1 
1 
1 
1 
1 
1 
1 
1 
1 
1 
1 
1 
1 
1 
1 
1 
1 
1 
1 
1 
1 
1 
1 
1 
1 
1 
1 
1 
1 
1 
1 
1 
1 
1 
1 
1 
1 
1 
1 
1 
1 
1 
1 
1 
1 
1 
1 
1 
1 
1 
1 
1 
1 
1 
1 
1 
1 
1 
1 
1 
1 
1 
1 
1 
1 
1 
1 
1 
1 
1 
1 
1 
1 
1 
1 
1 
1 
1 
1 
1 
1 
1 
1 
1 
1 
1 
1 
1 
1 
1 
1 
1 
1 
1 
1 
1 
1 
1 
1 
1 
1 
1 
1 
1 
1 
1 
1 
1 
1 
1 
1 
1 
1 
1 
1 
1 
1 
1 
1 
1 
1 
1 
1 
1 
1 
1 
1 
1 
1 
1 
1 
1 
1 
1 
1 
1 
1 
1 
1 
1 
1 
1 
1 
1 
1 
1 
1 
1 
1 
1 
1 
1 
1 
1 
1 
1 
1 
1 
1 
1 
1 
1 
1 
1 
1 
1 
1 
1 
1 
1 
1 
1 
1 
1 
1 
1 
1 
1 
1 
1 
1 
1 
1 
1 
1 
1 
1 
1 
1 
1 
1 
1 
1 
1 
1 
1 
1 
1 
1 
1 
1 
1 
1 
1 
1 
1 
1 
1 
1 
1 
1 
1 
1 
1 
1 
1 
1 
1 
1 
1 
1 
1 
1 
1 
1 
1 
1 
1 
1 
1 
1 
1 
1 
1 
1 
1 
1 
1 
1 
1 
1 
1 
1 
1 
1 
1 
1 
1 
1 
1 
1 
1 
1 
1 
1 
1 
1 
1 
1 
1 
1 
1 
1 
1 
1 
1 
1 
1 
1 
1 
1 
1 
1 
1 
1 
1 
1 
1 
1 
1 
1 
1 
1 
1 
1 
1 
1 
1 
1 
1 
1 
1 
1 
1 
1 
1 
1 
1 
1 
1 
1 
1 
1 
1 
1 
1 
1 
1 
1 
1 
1 
1 
1 
1 
1 
1 
1 
1 
1 
1 
1 
1 
1 
1 
1 
1 
1 
1 
1 
1 
1 
1 
1 
1 
1 
1 
1 
1 
1 
1 
1 
1 
1 
1 
1 
1 
1 
1 
1 
1 
1 
1 
1 
1 
1 
1 
1 
1 
1 
1 
1 
1 
1 
1 
1 
1 
1 
1 
1 
1 
1 
1 
1 
1 
1 
1 
1 
1 
1 
1 
1 
1 
1 
1 
1 
1 
1 
1 
1 
1 
1 
1 
1 
1 
1 
1 
1 
1 
1 
1 
1 
1 
1 
1 
1 
1 
1 
1 
1 
1 
1 
1 
1 
1 
1 
1 
1 
1 
1 
1 
1 
1 
1 
1 
1 
1 
1 
1 
1 
1 
1 
1 
1 
1 
1 
1 
1 
1 
1 
1 
1 
1 
1 
1 
1 
1 
1 
1 
1 
1 
1 
1 
1 
1 
1 
1 
1 
1 
1 
1 
1 
1 
1 
1 
1 
1 
1 
1 
1 
1 
1 
1 
1 
1 
1 
1 
1 
1 
1 
1 
1 
1 
1 
1 
1 
1 
1 
1 
1 
1 
1 
1 
1 
1 
1 
1 
1 
1 
1 
1 
1 
1 
1 
1 
1 
1 
1 
1 
1 
1 
1 
1 
1 
1 
1 
1 
1 
1 
1 
1 
1 
1 
1 
1 
1 
1 
1 
1 
1 
1 
1 
1 
1 
1 
1 
1 
1 
1 
1 
1 
1 
1 
1 
1 
1 
1 
1 
1 
1 
1 
1 
1 
1 
1 
1 
1 
1 
1 
1 
1 
1 
1 
1 
1 
1 
1 
1 
1 
1 
1 
1 
1 
1 
1 
1 
1 
1 
1 
1 
1 
1 
1 
1 
1 
1 
1 
1 
1 
1 
1 
1 
1 
1 
1 
1 
1 
1 
1 
1 
1 
1 
1 
1 
1 
1 
1 
1 
1 
1 
1 
1 
1 
1 
1 
1 
1 
1 
1 
1 
1 
1 
1 
1 
1 
1 
1 
1 
1 
1 
1 
1 
1 
1 
1 
1 
1 
1 
1 
1 
1 
1 
1 
1 
1 
1 
1 
1 
1 
1 
1 
1 
1 
1 
1 
1 
1 
1 
1 
1 
1 
1 
1 
1 
1 
1 
1 
1 
1 
1 
1 
1 
1 
1 
1 
1 
1 
1 
1 
1 
1 
1 
1 
1 
1 
1 
1 
1 
1 
1 
1 
1 
1 
1 
1 
1 
1 
1 
1 
1 
1 
1 
1 
1 
1 
1 
1 
1 
1 
1 
1 
1 
1 
1 
1 
1 
1 
1 
1 
1 
1 
1 
1 
1 
1 
1 
1 
1 
1 
1 
1 
1 
1 
1 
1 
1 
1 
1 
1 
1 
1 
1 
1 
1 
1 
1 
1 
1 
1 
1 
1 
1 
1 
1 
1 
1 
1 
1 
1 
1 
1 
1 
1 
1 
1 
1 
1 
1 
1 
1 
1 
1 
1 
1 
1 
1 
1 
1 
1 
1 
1 
1 
1 
1 
1 
1 
1 
1 
1 
1 
1 
1 
1 
1 
1 
1 
1 
1 
1 
1 
1 
1 
1 
1 
1 
1 
1 
1 
1 
1 
1 
1 
1 
1 
1 
1 
1 
1 
1 
1 
1 
1 
1 
1 
1 
1 
1 
1 
1 
1 
1 
1 
1 
1 
1 
1 
1 
1 
1 
1 
1 
1 
1 
1 
1 
1 
1 
1 
1 
1 
1 
1 
1 
1 
1 
1 
1 
1 
1 
1 
1 
1 
1 
1 
1 
1 
1 
1 
1 
1 
1 
1 
1 
1 
1 
1 
1 
1 
1 
1 
1 
1 
1 
1 
1 
1 
1 
1 
1 
1 
1 
1 
1 
1 
1 
1 
1 
1 
1 
1 
1 
1 
1 
1 
1 
1 
1 
1 
1 
1 
1 
1 
1 
1 
1 
1 
1 
1 
1 
1 
1 
1 
1 
1 
1 
1 
1 
1 
1 
1 
1 
1 
POINT_DATA 5000
VECTORS Stress float
192.808 -156.018 0.
-404.802 -374.878 0.
-375.558 -307.47 0.
200.924 -23.7987 0.
181.338 -70.429 0.
161.751 -117.059 0.
-85.736 -460.73 0.
-366.569 -1116.7 0.
-647.403 -1772.67 0.
-431.601 -1708.71 0.
-289.688 -1377.3 0.
-147.775 -1045.89 0.
-875.393 -1307.57 0.
-870.295 -1294.83 0.
-1614.27 -1550.49 0.
-1281.95 -775.342 0.
-949.618 -0.196918 0.
672.994 847.316 0.
167.493 -333.846 0.
-338.008 -1515.01 0.
-1246.94 -2057.86 0.
-929.955 -1319.05 0.
-612.973 -580.25 0.
-1220.43 -585.344 0.
-1156.57 -435.648 0.
-964.248 -230.9 0.
-2877.59 -830.902 0.
-2767.25 -571.046 0.
-1871.08 -69.0526 0.
-1972.47 -305.208 0.
-2073.86 -541.363 0.
-3390.28 -1065.48 0.
-3218.35 -663.794 0.
-3046.43 -262.106 0.
-3623.6 -1010.18 0.
-4154.73 -2248.05 0.
-4685.87 -3485.92 0.
-9109.55 -4067.95 0.
-8185 -1909.66 0.
-9877.76 -894.11 0.
-7823.07 505.122 0.
-7549.86 1140.6 0.
-10498.5 231.268 0.
-10477.6 282.998 0.
-10456.8 334.728 0.
-12774.2 -1896.21 0.
-14102.9 -4997.64 0.
-15431.5 -8099.07 0.
89098.6 36349 0.
89112.9 36392 0.
-1.76543e+06 -758379 0.
87376.1 35674.5 0.
87378 35669.4 0.
-14252.4 -7601.31 0.
-13107.7 -4927.67 0.
-11963 -2254.02 0.
-10223.7 -311.638 0.
-10120.7 -69.9309 0.
-10017.6 171.777 0.
-7917.67 1111.3 0.
-7910.65 1126.7 0.
-8726.51 789.001 0.
-7892.51 224.401 0.
-8399.52 -957.43 0.
-3519.95 115.697 0.
-4223.08 -1524.88 0.
-4926.21 -3165.45 0.
-2880.16 -2752.6 0.
-2373.49 -1571.32 0.
-1866.81 -390.05 0.
-1558.72 73.071 0.
-1587.57 6.17338 0.
-1616.42 -60.7241 0.
-3460.76 -671.202 0.
-3341.02 -391.275 0.
70.6114 1292.02 0.
-99.1929 827.786 0.
-305.002 348.132 0.
-412.286 -199.012 0.
-801.112 -1104.61 0.
-1189.94 -2010.2 0.
324.211 -1198.27 0.
881.997 105.482 0.
1439.78 1409.23 0.
-1117.77 509.183 0.
-1183.8 355.399 0.
-1249.83 201.615 0.
-346.74 213.549 0.
-560.032 -284.666 0.
-641.134 -675.092 0.
-663.677 -726.727 0.
-686.221 -778.361 0.
-48.0868 -572.014 0.
-115.288 -730.134 0.
-182.49 -888.254 0.
-255.049 -782.631 0.
-86.0324 -388.235 0.
82.984 6.16209 0.
510.226 90.6728 0.
412.072 -137.682 0.
5.64591 -204.539 0.
-47.7173 -190.608 0.
-18.1832 -124.178 0.
-4.76639 -78.3178 0.
-23.8645 -125.666 0.
-42.9626 -173.015 0.
-232.029 -490.229 0.
-512.281 -1146.23 0.
-792.532 -1802.22 0.
-303.66 -1622.91 0.
-161.865 -1291.22 0.
-20.07 -959.523 0.
-1094.14 -1369.89 0.
-1089.54 -1356.62 0.
-1265.72 -1371.76 0.
-933.171 -596.661 0.
-600.618 178.435 0.
-1201.35 76.2931 0.
-1705.18 -1104.3 0.
-2209.02 -2284.9 0.
1641.61 -789.291 0.
1959.7 -49.5519 0.
2277.79 690.187 0.
-2023.75 -896.8 0.
-1960.69 -747.569 0.
-2228.33 -740.065 0.
-2895.35 -808.738 0.
-2786.41 -547.39 0.
-2223.35 -189.73 0.
-2325.04 -425.736 0.
-2426.73 -661.742 0.
-3028.94 -875.24 0.
-2856.92 -472.279 0.
-2684.9 -69.3166 0.
-2977.69 -707.246 0.
-3509.91 -1944.75 0.
-4042.13 -3182.25 0.
-8449.76 -3753.93 0.
-7525.42 -1594.12 0.
-7736.66 56.961 0.
-7275.67 771.498 0.
-7001.09 1406.13 0.
-11215.4 -50.8368 0.
-11197.1 1.28502 0.
-11178.9 53.4084 0.
-9554.07 -493.741 0.
-10885.2 -3603.53 0.
-12216.4 -6713.29 0.
84488.3 34388.5 0.
84496.6 34436.6 0.
-1.43009e+06 -614632 0.
83512.9 34041.8 0.
83520.7 34031.4 0.
-11934 -6593.58 0.
-10789.3 -3914.4 0.
-9644.6 -1235.21 0.
-10679.7 -483.645 0.
-10577.6 -241.532 0.
-10475.4 0.584584 0.
-7257.28 1427.55 0.
-7249.58 1442.56 0.
-6599.53 1732.52 0.
-7471.67 440.167 0.
-7979.45 -741.063 0.
-3625.53 99.9106 0.
-4328.61 -1540.43 0.
-5031.7 -3180.76 0.
-1719.18 -2225.85 0.
-1211.58 -1044.35 0.
-703.984 137.142 0.
-1803.28 4.50982 0.
-1832.48 -62.371 0.
-1861.68 -129.251 0.
-3804.71 -791.406 0.
-3685.45 -511.524 0.
-2034.57 424.811 0.
-2129.65 -6.54469 0.
-2335.61 -485.422 0.
4178.48 1798.6 0.
3787.37 891.017 0.
3396.26 -16.5649 0.
-1843.56 -2096.08 0.
-1288.11 -793.276 0.
-732.662 509.521 0.
-1081.25 556.262 0.
-1147.63 402.228 0.
-1214.02 248.194 0.
-422.061 213.889 0.
-635.046 -284.673 0.
-263.177 -482.851 0.
-286.384 -534.1 0.
-309.591 -585.348 0.
-66.5133 -549.176 0.
-133.165 -708.647 0.
-199.817 -868.117 0.
-335.175 -785.39 0.
-166.254 -391.167 0.
2.66644 3.05669 0.
490.503 115.236 0.
391.993 -112.608 0.
-445.003 -863.344 0.
11.8288 -699.623 0.
143.456 -391.017 0.
-802.212 -1519.16 0.
-536.964 -899.431 0.
-890.135 -1722.69 0.
-1907.95 -4087.31 0.
-1500.76 -3137.84 0.
-4380.31 -9857.41 0.
-6223.16 -15642.6 0.
-1814.9 -5358.65 0.
-2099.49 -6024.65 0.
-3310.54 -6094 0.
-3580.9 -6723.2 0.
-4795.78 -10249.1 0.
-1788.03 -3230.41 0.
-2131.63 -4031.51 0.
-4871.15 -4913.34 0.
-4206.05 -3359.34 0.
-6291.3 -8222.82 0.
-48520.2 -123304 0.
975.108 -7810.84 0.
1349.46 -6932.82 0.
-5405.03 -7232.87 0.
-4564.45 -5272.51 0.
-5281.59 -7003.09 0.
-4599.02 -4702.79 0.
-4594.35 -4695.21 0.
-4138.05 -3961.26 0.
-4012.37 -3663.17 0.
-5077.76 -6144.24 0.
-8419.66 -14108.3 0.
-5315.12 -6858.21 0.
-5356.42 -6948.35 0.
-4828.57 -6200.31 0.
-4789.55 -6117.72 0.
-21693.7 -45569.2 0.
-16964 -24845.9 0.
-13365.2 -16456 0.
-13371.5 -14503.4 0.
-11116.7 -9252.05 0.
-10991.1 -8968.81 0.
-14997.1 -7554.2 0.
-13820.8 -4812.8 0.
-13814.8 -4802 0.
-8968.8 -5280.33 0.
-11064.4 -10155.8 0.
-64527.1 -134888 0.
79943.7 32615.3 0.
88968.1 53782.4 0.
-1.46276e+06 -702094 0.
88600.8 53401.8 0.
79411.5 31849.4 0.
-60373.7 -124027 0.
-12040 -11256.6 0.
-11206.5 -9320.02 0.
-14454.3 -8460.65 0.
-13927.6 -7236.08 0.
-15080.3 -9930.14 0.
-10560.1 -7556.51 0.
-9462.58 -4994.65 0.
-9682.1 -5505.86 0.
-9449.38 -4947.95 0.
-9839.85 -5869.58 0.
-7447.47 -8580.32 0.
-6580.68 -6560.45 0.
-8248.5 -10454.6 0.
-32692.9 -76681.7 0.
-3277.21 -8041.47 0.
-3669.26 -8952.61 0.
-5809.28 -8844.87 0.
-5240.18 -7518.95 0.
-7099.79 -11860 0.
-5501.05 -4054.77 0.
-4988.97 -2864.15 0.
-5520.85 -3834.68 0.
-4903.41 -2607.89 0.
-5878.5 -4879.41 0.
-1617.43 -20407 0.
-1672.01 -20541.7 0.
-69309.4 -178369 0.
-13720.4 -25653.8 0.
-7714.97 -11645.5 0.
-8558.03 -13616.9 0.
-3359.77 -4796.65 0.
-2253.75 -2218.9 0.
-2889.45 -3705.15 0.
-2094.61 -3512.6 0.
-2375.34 -4162.17 0.
-3336.47 -8353.24 0.
-753.084 -2321.22 0.
-572.462 -1896.04 0.
-780.772 -2154.52 0.
-581.146 -1690.05 0.
-1479.32 -3787.09 0.
-1093.67 -2374.78 0.
-377.076 -702.809 0.
-303.953 -532.301 0.
85.1101 -749.17 0.
-789.921 -2794.28 0.
-571.209 -148.218 0.
564.142 396.971 0.
590.844 459.43 0.
-47.7417 226.457 0.
-46.7854 232.777 0.
-45.8289 239.098 0.
373.027 794.742 0.
846.314 1898.74 0.
1319.6 3002.74 0.
1313.9 2955.93 0.
1004.5 2233.89 0.
695.093 1511.84 0.
278.516 1623.88 0.
507.235 2159.08 0.
788.335 2642.05 0.
555.992 2104.99 0.
323.648 1567.94 0.
-1050.9 1508.42 0.
403.456 4899.74 0.
1857.82 8291.07 0.
6706.44 10554 0.
5525.78 7798.87 0.
4345.11 5043.71 0.
-638.593 2274.98 0.
-655.044 2236.46 0.
-121.579 2433.55 0.
-1316.33 1524.92 0.
-1536.14 1009.09 0.
-1766.15 756.506 0.
-1268.97 1921.84 0.
-771.792 3087.17 0.
-634.014 3453.42 0.
-942.307 2740.75 0.
-1250.6 2028.08 0.
-736.752 3705.8 0.
651.851 6940.45 0.
2040.46 10175.1 0.
-2341.99 7652.86 0.
-2985.43 6144.89 0.
-3701.28 4575.47 0.
-3999.67 3879.33 0.
-4298.06 3183.2 0.
-7255.15 1482.05 0.
-7422.66 1098.34 0.
-7590.16 714.64 0.
-4874.17 423.535 0.
-6319.08 -2949.88 0.
-7764.08 -6323.21 0.
74962.3 41180.4 0.
84839.7 64350.7 0.
-1.13376e+06 -438970 0.
84084.8 64439.4 0.
74436.2 41778.5 0.
-7504.58 -5097.8 0.
-5993.47 -1573.75 0.
-4482.39 1950.35 0.
-6138.69 2560.1 0.
-6226.29 2347.21 0.
-6313.88 2134.31 0.
-4508.31 2573.83 0.
-4711.51 2097.91 0.
-4914.69 1621.99 0.
-5416.8 1007.45 0.
-5617.38 531.053 0.
-2644.81 1923.98 0.
-1166.68 5364.71 0.
311.457 8805.43 0.
3671.47 11066.8 0.
2364.55 8016.76 0.
1057.61 4966.7 0.
-93.6451 3466.56 0.
-97.5213 3454.1 0.
-101.397 3441.63 0.
-1675.63 2410.49 0.
-1915.26 1853.11 0.
-1330.64 1646.32 0.
-855.024 2915.56 0.
-295.801 4220.63 0.
7292.03 9126.39 0.
8893.42 12864.9 0.
10494.8 16603.5 0.
4039.85 13481.2 0.
2025.91 8782.19 0.
11.9703 4083.15 0.
607.299 2825.08 0.
287.033 2077.54 0.
-33.231 1330.01 0.
131.904 1312.23 0.
114.4 1279.5 0.
833.623 1540.51 0.
694.436 1219.02 0.
555.249 897.522 0.
418.099 747.748 0.
518.136 981.732 0.
618.173 1215.71 0.
365.285 986.433 0.
196.11 591.52 0.
26.9344 196.606 0.
631.239 790.459 0.
887.131 1385.66 0.
-1084.46 -336.361 0.
681.813 479.44 0.
708.885 541.446 0.
-23.2958 268.655 0.
-23.437 275.695 0.
-23.5781 282.737 0.
620.573 932.135 0.
1093.97 2036.68 0.
1567.36 3141.22 0.
797.623 2763.37 0.
487.88 2042.39 0.
178.136 1321.41 0.
639.646 1809.91 0.
868.368 2345.01 0.
875.4 2706.76 0.
641.61 2170.79 0.
407.819 1634.82 0.
274.009 2107.76 0.
1731.16 5501.29 0.
3188.31 8894.84 0.
4099.59 9467.63 0.
2922.59 6716.23 0.
1745.57 3964.81 0.
225.311 2676.92 0.
208.303 2637.96 0.
887.243 2897.17 0.
-547.039 1888.02 0.
-767.184 1371.79 0.
-1321.66 977.013 0.
-824.373 2142.98 0.
-327.089 3308.94 0.
-300.188 3627.6 0.
-608.594 2915.14 0.
-916.999 2202.68 0.
-909.202 3661.98 0.
478.084 6896.58 0.
1865.37 10131.2 0.
-1473.96 8058.97 0.
-2117.97 6550.42 0.
-1856.2 5395.68 0.
-2157.96 4701.74 0.
-2459.71 4007.8 0.
-2505.4 3536.58 0.
-2677.12 3153.58 0.
-2848.82 2770.6 0.
-2855.35 1283.3 0.
-4297.83 -2100.82 0.
-5740.42 -5484.84 0.
64529.3 37028.2 0.
74327 60023 0.
-775603 -285443 0.
72846.8 59794.1 0.
63290.5 37312.3 0.
-5187.51 -4123.93 0.
-3675.39 -590.955 0.
-2163.31 2942.1 0.
-1721.17 4485.46 0.
-1807.86 4270.51 0.
-1894.56 4055.56 0.
-2395.32 3513.76 0.
-2598.11 3035.93 0.
-2800.89 2558.11 0.
-3584.37 1829.14 0.
-3785.76 1353.05 0.
-2261.28 2116.98 0.
-780.828 5557.49 0.
699.627 8998.01 0.
2166.91 10454.5 0.
862.637 7406.43 0.
-441.645 4358.37 0.
463.201 3740.82 0.
459.669 3727.72 0.
456.137 3714.63 0.
-367.585 3001.83 0.
-609.264 2445.71 0.
714.722 2551.88 0.
1219.96 3834.4 0.
1781.33 5140.98 0.
2720.58 7204.39 0.
4313.98 10933.6 0.
5907.36 14662.8 0.
5272.55 14052.1 0.
3255.33 9349.84 0.
1238.13 4647.55 0.
1481.53 3230.2 0.
1160.13 2482.73 0.
838.738 1735.26 0.
342.158 1432.43 0.
323.69 1400.2 0.
764.181 1541.63 0.
625.235 1220.26 0.
486.289 898.891 0.
379.438 762.464 0.
478.85 996.83 0.
578.262 1231.19 0.
404.172 1034.23 0.
234.936 639.099 0.
65.6995 243.963 0.
509.867 772.768 0.
765.443 1368.68 0.
-799.368 157.386 0.
470.641 311.034 0.
274.382 -140.672 0.
-538.713 -793.269 0.
-523.281 -757.787 0.
-507.85 -722.305 0.
80.1503 -552.67 0.
-50.4976 -854.822 0.
-181.145 -1156.97 0.
-1090.59 -1531.67 0.
-1002.8 -1328.86 0.
-915.007 -1126.05 0.
-440.423 -958.272 0.
-478.068 -1044.59 0.
-758.212 -1211.21 0.
-690.443 -1056.07 0.
-622.674 -900.937 0.
-492.771 -1130.97 0.
-1156.23 -2671.2 0.
-1819.68 -4211.41 0.
-2754.31 -4525.1 0.
-2035.91 -2856.14 0.
-1317.51 -1187.17 0.
-941.039 -926.168 0.
-1126.93 -1367.18 0.
-796.952 -1587 0.
-1554.9 -1296.29 0.
-1202.61 -474.646 0.
-1497.96 -149.778 0.
-1802.52 -856.804 0.
-2107.09 -1563.83 0.
-2361.71 -1795.36 0.
-2074.47 -1129.16 0.
-1787.23 -462.955 0.
-2758.83 -1444.25 0.
-3396.2 -2934.52 0.
-4033.58 -4424.78 0.
-5561.41 -4727.75 0.
-5233.97 -3966.11 0.
-3728.13 -2763.39 0.
-3850.15 -3043.63 0.
-3972.16 -3323.88 0.
-2160.41 -3047.36 0.
-2801.83 -4529.15 0.
-3443.21 -6010.94 0.
-2465.48 -4438.84 0.
-744.845 -333.141 0.
975.728 3772.49 0.
43208 10985 0.
34489.9 -8862.28 0.
9668.56 -35585.2 0.
31934 -9541.51 0.
40865.7 10789.9 0.
1469.99 4821.58 0.
-637.617 -153.276 0.
-2745.39 -5128.2 0.
-3729.89 -6908.43 0.
-2962.03 -5117.12 0.
-2194.16 -3325.81 0.
-3551.65 -3230.2 0.
-3365.27 -2791.84 0.
-3178.88 -2353.48 0.
-3962.55 -2175.59 0.
-3695.36 -1549.65 0.
-2875.84 -946.429 0.
-3479.86 -2347.62 0.
-4083.88 -3748.81 0.
-4152.67 -4065.48 0.
-3551.75 -2663.62 0.
-2950.82 -1261.77 0.
-1123.61 -289.533 0.
-1357.42 -834.027 0.
-1591.23 -1378.52 0.
-1642.88 -1496.39 0.
-1645.61 -1517.74 0.
-183.475 -877.686 0.
-153.426 -728.468 0.
-85.1143 -562.854 0.
-2489.54 -2015.6 0.
-3464.14 -4288.84 0.
-4438.72 -6562.08 0.
-2467.56 -5738.07 0.
-1477.28 -3426.23 0.
-487.01 -1114.39 0.
143.979 -349.403 0.
120.339 -411.941 0.
96.6973 -474.48 0.
-580.63 -793.319 0.
-599.496 -838.592 0.
-300.555 -732.348 0.
-258.351 -626.756 0.
-216.145 -521.165 0.
-177.993 -472.023 0.
-225.063 -573.48 0.
-272.132 -674.936 0.
-334.188 -620.46 0.
-235.905 -392.595 0.
-137.622 -164.729 0.
-26.7494 93.0974 0.
82.7198 352.954 0.
-112.371 481.003 0.
41.0564 159.055 0.
-155.914 -291.722 0.
-672.203 -823.205 0.
-656.307 -787.837 0.
-640.411 -752.47 0.
80.7452 -520.476 0.
-49.9454 -822.791 0.
-180.636 -1125.11 0.
-668.056 -1322.34 0.
-580.144 -1119.34 0.
-492.231 -916.347 0.
-532.34 -967.158 0.
-570.184 -1053.78 0.
-688.351 -1153.93 0.
-622.125 -997.621 0.
-555.9 -841.312 0.
-268.81 -1005.44 0.
-931.839 -2546.19 0.
-1594.86 -4086.93 0.
-2287.23 -4292.12 0.
-1568.76 -2622.44 0.
-850.283 -952.751 0.
-823.88 -846.961 0.
-1009.42 -1288.06 0.
-1719.93 -1954.2 0.
-1429.05 -1210.71 0.
-1077.65 -388.958 0.
-1163.38 24.3822 0.
-1467.61 -682.679 0.
-1771.83 -1389.74 0.
-2027.73 -1621.97 0.
-1740.77 -955.498 0.
-1453.81 -289.025 0.
-1770.4 -995.277 0.
-2410.09 -2484.59 0.
-3049.78 -3973.89 0.
-3078.68 -3633.38 0.
-2748.94 -2872.1 0.
-1556.48 -1802.3 0.
-1679.06 -2083.16 0.
-1801.64 -2364.01 0.
856.627 -1733.2 0.
210.757 -3217.04 0.
-435.074 -4700.86 0.
2305.87 -2335.29 0.
4039.01 1777.66 0.
5772.12 5890.58 0.
28989.5 4739.22 0.
20420.4 -14960.1 0.
2888.68 -38444 0.
16473.6 -16217.2 0.
25239.7 3945.45 0.
6105.38 6892.08 0.
3982.87 1907.11 0.
1860.25 -3077.91 0.
-1087.97 -5762 0.
-318.775 -3967.4 0.
450.434 -2172.8 0.
-1399.62 -2282.22 0.
-1213.55 -1842.86 0.
-1027.46 -1403.49 0.
-2477.61 -1509.74 0.
-2210.51 -883.141 0.
-1577.55 -354.597 0.
-2182.88 -1756.51 0.
-2788.2 -3158.42 0.
-2944.33 -3522.95 0.
-2343.7 -2119.64 0.
-1743.07 -716.344 0.
-1296.97 -332.077 0.
-1530.73 -876.595 0.
-1764.49 -1421.11 0.
-1298.33 -1319.19 0.
-1302.05 -1339.04 0.
-733.595 -1083.87 0.
-714.992 -940.585 0.
-645.906 -775.667 0.
-1174.04 -1416.63 0.
-2148.82 -3691.93 0.
-3123.6 -5967.23 0.
-1818.18 -5431.4 0.
-826.437 -3119.56 0.
165.303 -807.712 0.
-194.778 -461.364 0.
-218.07 -523.755 0.
-241.364 -586.147 0.
-704.895 -816.611 0.
-722.976 -862.548 0.
-414.523 -749.467 0.
-372.224 -643.951 0.
-329.924 -538.435 0.
-187.982 -444.925 0.
-234.267 -546.91 0.
-280.552 -648.895 0.
-401.657 -619.744 0.
-303.552 -392.01 0.
-205.446 -164.277 0.
-476.102 -67.5898 0.
-368.053 192.797 0.
441.013 516.534 0.
-210.537 413.004 0.
-331.79 129.623 0.
-726.027 -685.474 0.
-664.95 -540.976 0.
-695.234 -609.634 0.
-536.26 -1929.38 0.
394.852 248.757 0.
336.141 116.893 0.
-37.9878 -651.017 0.
-317.651 -1299.43 0.
217.144 -47.4546 0.
-234.345 -49.0103 0.
-451.703 -559.667 0.
-812.591 -1542.12 0.
-474.67 -762.113 0.
-813.866 -1562.06 0.
-646.908 -2266.53 0.
-577.317 -2102.81 0.
-280.185 -1408.18 0.
-663.043 -1359.29 0.
-420.061 -793.733 0.
-163.9 -197.461 0.
-409.361 -84.9221 0.
-772.125 -924.69 0.
-748.612 -753.805 0.
-1158.89 -776.584 0.
-1476.26 -1531.41 0.
-1421.32 -1154.75 0.
-883.558 93.3049 0.
-432.998 1137.92 0.
-1899.89 -1946.55 0.
-1607.37 -1273.74 0.
-1266.45 -487.929 0.
-621.61 -151.423 0.
-1656.76 -2565.41 0.
-2516.35 -4569.84 0.
-1093.43 -3637.85 0.
-727.043 -2780.04 0.
-246.161 -2839.49 0.
-449.599 -3310.47 0.
-448.773 -3304.95 0.
2864.57 -2650.75 0.
2588.74 -3302.96 0.
3152.38 -1996.56 0.
6917.01 -425.619 0.
6918.14 -434.04 0.
7354.05 581.197 0.
16451.6 2293.45 0.
16098.1 1479.63 0.
3824.22 -6480.3 0.
10374.9 -1325.13 0.
11114 374.88 0.
6830.59 -12.406 0.
6359.02 -1143.23 0.
5905.98 -2230.73 0.
2783.01 -1658.08 0.
3329.43 -402.025 0.
3236.03 -638.852 0.
98.8266 -2815.21 0.
-124.66 -3337.72 0.
1221.73 -197.103 0.
-1376.39 -1738.78 0.
-2053.35 -3314.45 0.
-1589.8 -2762.19 0.
-453.258 -110.136 0.
-854.373 -1045.98 0.
-1057.4 -1342.77 0.
-1165.82 -1599.98 0.
-967.202 -1140.73 0.
-2137.37 -1960 0.
-1229.35 155.436 0.
-1307.34 -29.7468 0.
-1129.7 -1521.39 0.
-1374.04 -2095.58 0.
-760.642 -534.612 0.
-1264.25 -1150.57 0.
-1542.07 -1799.58 0.
548.896 162.202 0.
-293.298 -1801.42 0.
-644.44 -2619.19 0.
1.25277 -2351.84 0.
447.808 -1308.37 0.
856.588 -352.971 0.
-1051.85 -1813.96 0.
-978.597 -1633.92 0.
-1330.22 -2445.29 0.
-802.217 -766.118 0.
-370.942 238.815 0.
156.897 839.775 0.
66.4502 615.732 0.
-42.4926 348.368 0.
69.4382 226.328 0.
83.0593 257.148 0.
581.253 1418.64 0.
-5.85503 451.158 0.
-109.915 209.189 0.
-106.096 218.973 0.
-514.725 712.731 0.
-971.456 -362.362 0.
708.064 573.145 0.
-364.427 34.811 0.
-397.838 -45.5478 0.
-251.772 -79.0233 0.
-400.22 -424.631 0.
-548.667 -770.239 0.
-11.5785 -764.684 0.
-69.8119 -894.343 0.
-128.045 -1024 0.
-166.685 -972.295 0.
-83.5639 -774.522 0.
-0.4429 -576.75 0.
-940.987 -1141.31 0.
-1058.35 -1416.33 0.
-438.779 -1363.32 0.
-383.649 -1239.16 0.
-328.521 -1115.01 0.
-158.026 -1095.71 0.
-404.238 -1669.59 0.
-650.449 -2243.47 0.
-946.446 -2375.22 0.
-709.738 -1825.15 0.
-473.03 -1275.09 0.
-901.313 -1262.04 0.
-855.376 -1153.68 0.
-814.143 -1047.16 0.
-1356.18 -1320.87 0.
-1362.78 -1350.91 0.
-1337.08 -1353.02 0.
-1277.92 -1219.76 0.
-1218.75 -1086.5 0.
-953.962 -1003.94 0.
-1089.5 -1327.67 0.
-1225.04 -1651.39 0.
-707.832 -1584.64 0.
-757.645 -1697.3 0.
-807.451 -1809.96 0.
74.4549 -1870.88 0.
-191.419 -2486.09 0.
732.497 -2562.53 0.
495.275 -3106.18 0.
258.067 -3649.83 0.
2841.33 -2908.91 0.
2719.45 -3198.09 0.
2597.59 -3487.28 0.
5299.33 -2038.92 0.
5701.18 -1121.23 0.
6103.01 -203.538 0.
13227.3 1391.06 0.
12108.8 -1215.91 0.
4748.27 -6492.27 0.
8606.15 -2779.87 0.
9692.45 -255.683 0.
5393.45 -559.95 0.
5324.9 -738.099 0.
5256.32 -916.227 0.
2645.22 -2286.52 0.
2464.48 -2723.3 0.
2283.74 -3160.08 0.
373.342 -3605.05 0.
736.135 -2759.3 0.
1098.93 -1913.54 0.
-1103.33 -2571.93 0.
-970.895 -2262.55 0.
-1021.75 -2074.66 0.
-1054.04 -2151.35 0.
-1086.33 -2228.05 0.
-1191.93 -2205.16 0.
-1032.81 -1840.85 0.
-873.685 -1476.55 0.
-1313.55 -1481.99 0.
-1259.72 -1357.02 0.
-1205.89 -1232.05 0.
-1180.33 -1196.64 0.
-1172.66 -1179.81 0.
-1101.75 -1136.13 0.
-1219.18 -1346.52 0.
-1304.8 -1543.28 0.
150.843 -1255.12 0.
-248.702 -2184.11 0.
-648.244 -3113.09 0.
-455.242 -3013.43 0.
-20.6193 -1997.74 0.
414.002 -982.052 0.
-489.529 -922.688 0.
-333.43 -552.323 0.
-177.334 -181.957 0.
-709.093 -615.321 0.
-840.998 -923.843 0.
-734.875 -1089.16 0.
-664.309 -931.507 0.
-593.743 -773.853 0.
-278.667 -542.6 0.
-261.214 -499.924 0.
-243.762 -457.248 0.
-288.802 -338.162 0.
-180.47 -84.3979 0.
-72.1372 169.366 0.
-483.11 -86.3464 0.
-550.379 -248.515 0.
1020.76 736.238 0.
-338.123 76.9719 0.
-370.888 -3.77015 0.
27.8556 73.3246 0.
-120.26 -272.766 0.
-268.376 -618.858 0.
35.9141 -713.433 0.
-22.456 -842.841 0.
-80.8258 -972.25 0.
-137.843 -926.714 0.
-54.7596 -729.29 0.
28.324 -531.866 0.
-1216.94 -1229.07 0.
-1335.1 -1503.39 0.
-58.0873 -1168.72 0.
-4.15068 -1043.7 0.
49.7842 -918.68 0.
-158.357 -1066.49 0.
-404.013 -1639.97 0.
-649.669 -2213.45 0.
-744.808 -2259.42 0.
-507.731 -1709.09 0.
-270.653 -1158.75 0.
-868.307 -1214.4 0.
-820.389 -1107.34 0.
-790.758 -1007.92 0.
-1294.17 -1261.37 0.
-1300.72 -1291.68 0.
-1112.88 -1223.7 0.
-1054.72 -1090.43 0.
-996.562 -957.158 0.
-274.738 -684.826 0.
-411.293 -1008.17 0.
-547.846 -1331.51 0.
-45.7027 -1271.39 0.
-96.2724 -1383.65 0.
-146.835 -1495.91 0.
594.892 -1615.12 0.
328.259 -2230.22 0.
1799.61 -2078.31 0.
1560.33 -2620.81 0.
1321.07 -3163.31 0.
2960.66 -2835.04 0.
2837.81 -3122.44 0.
2714.97 -3409.84 0.
4183.49 -2481.42 0.
4588.28 -1565.21 0.
4993.04 -648.978 0.
9769.26 -58.5608 0.
8656.54 -2660.1 0.
1388.32 -7908.36 0.
7215.74 -3349.9 0.
8296.5 -825.106 0.
3934.09 -1159.93 0.
3861.74 -1334.47 0.
3789.38 -1508.99 0.
2820.26 -2185.21 0.
2638.37 -2620.92 0.
2456.47 -3056.63 0.
1139.02 -3248.91 0.
1502.17 -2401.54 0.
1865.32 -1554.16 0.
-315.995 -2205.65 0.
-181.871 -1896.32 0.
-668.506 -1887.7 0.
-699.835 -1964.42 0.
-731.164 -2041.15 0.
-885.362 -2038.6 0.
-725.381 -1674.95 0.
-565.399 -1311.3 0.
-539.385 -1120.59 0.
-486.242 -994.412 0.
-433.094 -868.231 0.
-1396.12 -1257.05 0.
-1389.37 -1239.59 0.
-843.286 -995.692 0.
-1045.38 -1241.15 0.
-1132.12 -1437.14 0.
422.354 -1110.75 0.
22.2309 -2039.27 0.
-377.889 -2967.79 0.
-651.548 -3067.18 0.
-216.854 -2051.73 0.
217.839 -1036.27 0.
-249.894 -784.35 0.
-92.7944 -414.768 0.
64.3037 -45.1851 0.
-655.802 -557.445 0.
-787.994 -865.713 0.
-799.199 -1086.41 0.
-730.411 -927.083 0.
-661.622 -767.757 0.
-287.019 -518.382 0.
-270.487 -475.06 0.
-253.955 -431.738 0.
-205.216 -272.381 0.
-96.9221 -18.4956 0.
11.3717 235.39 0.
-8.97972 147.096 0.
-77.5849 -14.0411 0.
342.767 -496.723 0.
-647.178 -799.267 0.
-598.435 -691.381 0.
14.6794 -356.877 0.
24.6889 -339.722 0.
34.6988 -322.565 0.
144.391 -342.374 0.
33.3608 -610.243 0.
-77.6701 -878.115 0.
-270.614 -1093.23 0.
-302.699 -1169.71 0.
-334.785 -1246.19 0.
-1292.58 -1686.08 0.
-1307.25 -1717.01 0.
7.88051 -1179.58 0.
-57.332 -1335.88 0.
-122.546 -1492.17 0.
-487.073 -1726.48 0.
-448.911 -1636.98 0.
-410.75 -1547.47 0.
-208.393 -1523.06 0.
-323.075 -1789.82 0.
-437.756 -2056.57 0.
-1293.98 -2442.29 0.
-1268.46 -2379.8 0.
-957.84 -2195.06 0.
-1555.4 -2244.03 0.
-1439.78 -1973.46 0.
-1034.42 -1662.53 0.
-1142.72 -1915.17 0.
-1251.03 -2167.81 0.
-613.858 -2086.35 0.
-697.925 -2284.71 0.
-781.994 -2483.07 0.
-40.4357 -2332.95 0.
-128.796 -2532.7 0.
-217.158 -2732.45 0.
417.782 -2972.51 0.
109.654 -3689 0.
1458.13 -3654.43 0.
1369.29 -3857.77 0.
1280.45 -4061.11 0.
2429.83 -3508.84 0.
2721.88 -2813.69 0.
3013.93 -2118.55 0.
3971.68 -1247.44 0.
4151.31 -824.689 0.
4330.95 -401.94 0.
7988.63 685.209 0.
7605.2 -209.146 0.
785.01 -3859.59 0.
7020.81 -807.764 0.
7221.27 -341.968 0.
2963.94 -1903.94 0.
2879.59 -2092.91 0.
2795.25 -2281.88 0.
2426.49 -2588.03 0.
2357.22 -2734.18 0.
2287.95 -2880.34 0.
1344.68 -3247.35 0.
1403.78 -3101.51 0.
1462.88 -2955.66 0.
-280.528 -3218.06 0.
-20.562 -2602.89 0.
-703.291 -2483.49 0.
-739.898 -2565.85 0.
-776.504 -2648.22 0.
-653.637 -2564.6 0.
-556.389 -2333.02 0.
-459.14 -2101.44 0.
-494.66 -1829.59 0.
-306.151 -1396.84 0.
-117.643 -964.076 0.
-1475.11 -1654.78 0.
-1575.12 -1893.98 0.
-969.62 -1840.63 0.
-1331 -2459.53 0.
-1567.99 -3025.14 0.
-159.7 -2662.33 0.
33.3463 -2216.71 0.
226.394 -1771.09 0.
-233.551 -1774.17 0.
-213.019 -1722.85 0.
-192.489 -1671.54 0.
-464.208 -1616.57 0.
-356.425 -1364.95 0.
-248.642 -1113.34 0.
-910.526 -1168.3 0.
-790.771 -892.435 0.
-482.767 -587.772 0.
-528.811 -698.306 0.
-574.854 -808.84 0.
-429.913 -744.498 0.
-350.924 -564.61 0.
-271.935 -384.722 0.
-172.685 -265.981 0.
-161.64 -235.664 0.
-150.596 -205.346 0.
231.808 11.7089 0.
260.231 77.5259 0.
-268.788 -724.612 0.
-462.918 -688.529 0.
-415.49 -579.893 0.
194.709 -247.728 0.
204.945 -230.851 0.
215.183 -213.974 0.
28.91 -361.284 0.
-81.7529 -629.492 0.
-192.417 -897.702 0.
-401.851 -1117.44 0.
-433.569 -1194.92 0.
-465.287 -1272.39 0.
-723.805 -1410.21 0.
-737.971 -1442 0.
-144.7 -1217.13 0.
-210.74 -1372.64 0.
-276.781 -1528.14 0.
-562.548 -1727.17 0.
-524.825 -1636.72 0.
-487.102 -1546.26 0.
138.927 -1345.65 0.
24.468 -1612.09 0.
-89.9905 -1878.52 0.
-1060.69 -2312.03 0.
-1035.83 -2248.98 0.
-398.92 -1923.56 0.
-1190.72 -2056.56 0.
-1075.1 -1786.17 0.
-601.095 -1444.89 0.
-709.872 -1698 0.
-818.65 -1951.12 0.
-595.107 -2051.38 0.
-680.318 -2248.6 0.
-765.53 -2445.82 0.
450.722 -2092.69 0.
360.45 -2291.72 0.
270.176 -2490.76 0.
921.165 -2725.94 0.
611.922 -3442.07 0.
1309.49 -3693.46 0.
1220.37 -3895.88 0.
1131.25 -4098.29 0.
1750.58 -3763.16 0.
2043.91 -3069.55 0.
2337.22 -2375.94 0.
3251.9 -1524.23 0.
3431.03 -1101.02 0.
3610.16 -677.813 0.
6306.03 -7.7234 0.
5922.58 -900.229 0.
1674.54 -3449.94 0.
5313.61 -1509.92 0.
5513.52 -1044.05 0.
2820.86 -1928.29 0.
2738.17 -2119.82 0.
2655.48 -2311.36 0.
1714.15 -2860.97 0.
1645.95 -3008.89 0.
1577.76 -3156.81 0.
1121.69 -3308.09 0.
1180.62 -3162.75 0.
1239.55 -3017.41 0.
146.671 -3008.24 0.
408.035 -2393.39 0.
-505.834 -2368.07 0.
-541.497 -2449.06 0.
-577.16 -2530.06 0.
149.541 -2188.31 0.
248.594 -1957.31 0.
347.648 -1726.3 0.
-377.127 -1751.77 0.
-187.93 -1319.52 0.
1.26678 -887.271 0.
-1022.48 -1424.81 0.
-1121.95 -1664.79 0.
-879.654 -1772.23 0.
-898.764 -2243.23 0.
-1136.93 -2808.11 0.
-189.246 -2648.2 0.
3.56626 -2202.27 0.
196.38 -1756.33 0.
-350.133 -1793.81 0.
-330.164 -1742.5 0.
-310.196 -1691.19 0.
-290.69 -1509.79 0.
-183.12 -1258.17 0.
-75.5499 -1006.54 0.
-892.866 -1130.7 0.
-774.617 -853.417 0.
-138.067 -407.958 0.
-184.291 -518.714 0.
-230.515 -629.469 0.
-503.535 -745.618 0.
-425.329 -564.093 0.
-347.122 -382.567 0.
-158.458 -231.21 0.
-147.671 -200.269 0.
-136.885 -169.327 0.
508.393 159.127 0.
537.909 225.881 0.
-549.658 -218.473 0.
-143.524 -251.113 0.
388.836 997.291 0.
686.778 569.247 0.
369.221 -160.977 0.
388.877 -104.227 0.
63.4565 -50.1121 0.
130.681 111.079 0.
414.72 776.913 0.
304.558 796.978 0.
217.058 594.236 0.
-41.2615 -7.02804 0.
229.03 -220.466 0.
38.8093 -666.905 0.
80.017 -390.748 0.
522.568 648.26 0.
209.539 -75.7697 0.
46.144 -152.534 0.
-117.008 -533.306 0.
-319.886 -1007.05 0.
970.5 -28.7588 0.
979.611 -5.59606 0.
347.879 -1477.6 0.
-256.574 -850.118 0.
303.557 447.445 0.
402.812 278.241 0.
-100.538 -182.07 0.
-655.049 -1485.17 0.
-258.669 -1421.07 0.
163.439 -440.809 0.
326.14 -65.8915 0.
145.516 -339.754 0.
-39.5886 -778.077 0.
-34.4548 -772.111 0.
1719.12 0.78487 0.
1741.56 45.6108 0.
1298.74 -994.594 0.
2625.36 347.424 0.
1964.43 -1199.28 0.
2243.99 -1180.65 0.
2149.47 -1414.18 0.
2309.32 -1053.87 0.
2334.46 -1063.27 0.
2764.87 -70.2334 0.
2533.35 -621.108 0.
3102.57 -467.882 0.
3224.23 -179.755 0.
2239.21 -2476.61 0.
4355.41 -1339.36 0.
4641.29 -667.033 0.
-2664.25 -1750.21 0.
4453.36 -214.036 0.
4294.07 -590.775 0.
3015.39 -1179.05 0.
3104.84 -969.79 0.
3215.51 -705.395 0.
2341.43 19.1899 0.
2118.01 -510.111 0.
2117.58 -519.831 0.
1822.68 -1217.14 0.
1938.32 -948.805 0.
2196.07 -349.391 0.
1333.12 -1032.08 0.
1510.55 -613.155 0.
380.473 -654.055 0.
283.918 -878.813 0.
329.458 -771.689 0.
1520.1 -457.495 0.
1869.1 356.395 0.
1399.26 -740.445 0.
-89.3505 -1282.41 0.
319.533 -324.965 0.
591.391 312.501 0.
-87.4714 -82.3957 0.
356.087 949.525 0.
-447.339 -309.984 0.
203.717 -454.683 0.
513.219 261.36 0.
726.829 -414.069 0.
744.695 -378.422 0.
904.901 -10.8736 0.
29.896 -685.696 0.
-227.89 -1286.43 0.
-134.576 -1067.83 0.
124.239 -836.701 0.
84.583 -927.28 0.
792.622 726.305 0.
-450.964 -100.372 0.
-258.297 355.891 0.
134.755 -385.479 0.
307.26 19.9191 0.
331.775 79.8873 0.
-743.231 -1132.67 0.
-179.426 179.433 0.
-134.416 280.455 0.
-410.273 -807.679 0.
-107.436 -102.293 0.
-333.155 -630.031 0.
524.512 -283.01 0.
571.066 -167.291 0.
-433.618 -426.408 0.
-129.083 -407.664 0.
-187.037 -538.842 0.
117.954 -517.822 0.
21.4749 -735.746 0.
-75.0055 -953.669 0.
-253.933 -1122.86 0.
-219.69 -1040.44 0.
-185.447 -958.024 0.
-389.836 -1081.52 0.
-442.495 -1205.34 0.
-495.154 -1329.15 0.
-437.27 -1256.34 0.
-398.905 -1164.23 0.
5.97201 -941.846 0.
-125.059 -1243.45 0.
-256.089 -1545.05 0.
-428.503 -1815.99 0.
-490.081 -1958.54 0.
-551.657 -2101.09 0.
58.5656 -1809.72 0.
142.482 -1612.05 0.
226.398 -1414.39 0.
-318.423 -1556.98 0.
-274.758 -1459.82 0.
129.447 -1208.35 0.
-985.514 -1845.09 0.
-1075.14 -2060.99 0.
-202.733 -1846.49 0.
-210.91 -1869.09 0.
-219.087 -1891.68 0.
-171.617 -1890.77 0.
-181.909 -1920.71 0.
-192.202 -1950.66 0.
758.042 -1838.43 0.
522.287 -2395.83 0.
286.531 -2953.24 0.
1419.63 -2622.67 0.
1358.43 -2767.23 0.
1617.39 -2755.19 0.
1686.08 -2605.74 0.
1754.77 -2456.3 0.
1719.97 -2293.11 0.
1892.64 -1901.29 0.
2065.32 -1509.45 0.
2283.8 -1224.79 0.
2323.73 -1138.71 0.
2363.64 -1052.62 0.
4031.72 -321.071 0.
4043.02 -295.699 0.
-262.98 -2118.03 0.
3827.75 -440.545 0.
3786.75 -533.66 0.
2352.15 -1224.62 0.
2329.48 -1276.48 0.
2306.81 -1328.35 0.
1690.23 -1708.98 0.
1581.38 -1973.37 0.
1472.53 -2237.75 0.
1438.2 -2350.41 0.
1412.34 -2412.47 0.
1386.47 -2474.52 0.
982.16 -2369.09 0.
1137.78 -2004.13 0.
-108.402 -2289.18 0.
-156.913 -2400.42 0.
-205.424 -2511.65 0.
381.16 -2279.81 0.
436.482 -2152.92 0.
491.805 -2026.03 0.
-319.718 -2195.8 0.
-206.11 -1928.7 0.
-92.502 -1661.61 0.
-469.022 -1786.9 0.
-461.913 -1772.31 0.
-424.244 -1750.7 0.
-293.095 -1706.43 0.
-297.262 -1720.08 0.
-92.8019 -1609.93 0.
-26.8675 -1462.18 0.
39.066 -1314.42 0.
-66.4515 -1434.3 0.
-222.497 -1794.77 0.
-378.541 -2155.25 0.
-450.32 -2061.18 0.
-297.925 -1705.43 0.
-145.529 -1349.69 0.
-782.949 -1532.89 0.
-745.89 -1443.71 0.
-495.574 -1253.39 0.
-441.475 -1129.08 0.
-387.378 -1004.78 0.
-454.463 -935.913 0.
-397.661 -809.688 0.
-340.859 -683.462 0.
-205.968 -602.476 0.
-219.082 -637.395 0.
-232.195 -672.315 0.
297.97 -197.834 0.
448.479 161.727 0.
-167.674 -284.626 0.
-14.1123 -329.87 0.
-71.3064 -462.085 0.
10.5791 -528.341 0.
-84.9749 -747.506 0.
-180.53 -966.669 0.
-61.8232 -1006.46 0.
-27.0473 -924.679 0.
7.72875 -842.902 0.
-236.905 -982.34 0.
-288.557 -1106.78 0.
-340.209 -1231.21 0.
-695.619 -1337.35 0.
-658.458 -1244.14 0.
219.989 -818.591 0.
90.1099 -1121 0.
-39.7684 -1423.41 0.
-120.164 -1651.7 0.
-182.243 -1793.57 0.
-244.321 -1935.43 0.
-105.786 -1849.97 0.
-21.3315 -1652.03 0.
63.1224 -1454.09 0.
-6.42528 -1393.38 0.
35.631 -1294.37 0.
472.122 -1026.69 0.
-1181.2 -1901.3 0.
-1270.78 -2117.3 0.
107.263 -1682.34 0.
98.6458 -1704.81 0.
90.0288 -1727.29 0.
272.138 -1665.18 0.
261.72 -1695.8 0.
251.3 -1726.42 0.
564.079 -1888.92 0.
328.191 -2445.68 0.
92.3019 -3002.43 0.
1518.27 -2550.39 0.
1456.48 -2694.41 0.
1694.26 -2688.83 0.
1762.21 -2539.04 0.
1830.15 -2389.25 0.
1627.15 -2306.29 0.
1800.04 -1914.3 0.
1972.94 -1522.31 0.
1694.6 -1446.17 0.
1737.58 -1362.25 0.
1780.54 -1278.33 0.
3126.93 -672.411 0.
3139.91 -648.245 0.
-2901.81 -3217.46 0.
3190.64 -682.161 0.
3149.5 -775.74 0.
1584.57 -1515.68 0.
1563.08 -1568.57 0.
1541.6 -1621.46 0.
1818.04 -1621.43 0.
1710.14 -1885.47 0.
1602.25 -2149.51 0.
1577.18 -2262.22 0.
1550.91 -2323.15 0.
1524.65 -2384.07 0.
1272.34 -2211.8 0.
1428.66 -1846.38 0.
168.779 -2141.36 0.
119.592 -2251.31 0.
70.4056 -2361.26 0.
-43.2195 -2431.53 0.
13.3879 -2305.47 0.
69.9979 -2179.41 0.
-107.703 -2073.33 0.
7.24907 -1806.99 0.
122.202 -1540.65 0.
-25.1305 -1564.08 0.
-18.1496 -1549.21 0.
366.603 -1383.05 0.
-229.118 -1648.54 0.
-234.846 -1661.19 0.
-448.408 -1728.97 0.
-382.941 -1581.32 0.
-317.474 -1433.66 0.
222.546 -1281.45 0.
65.6361 -1641.61 0.
-91.2735 -2001.77 0.
-495.27 -2050.35 0.
-342.517 -1695.6 0.
-189.763 -1340.85 0.
-419.921 -1345.44 0.
-381.916 -1257.68 0.
-793.56 -1346.7 0.
-738.276 -1223.93 0.
-682.994 -1101.16 0.
-186.015 -787.174 0.
-128.15 -660.627 0.
-70.2847 -534.078 0.
-47.2217 -503.645 0.
-59.108 -538.811 0.
-70.9927 -573.977 0.
-7.6463 -297.268 0.
143.265 64.4308 0.
-213.41 -335.819 0.
-27.4619 -415.7 0.
-85.0368 -553.216 0.
-202.204 -701.646 0.
-204.317 -707.914 0.
-206.429 -714.182 0.
208.035 -609.604 0.
110.602 -840.028 0.
13.1689 -1070.45 0.
-253.168 -1255.45 0.
-246.858 -1240.44 0.
-240.548 -1225.42 0.
-767.984 -1558.14 0.
-841.268 -1730.25 0.
-46.0154 -1517.08 0.
-13.7328 -1438.12 0.
18.55 -1359.15 0.
120.982 -1252.73 0.
137.224 -1212.66 0.
153.467 -1172.59 0.
173.502 -1276.23 0.
44.654 -1573.39 0.
-84.193 -1870.56 0.
-158.4 -1793.06 0.
-33.2799 -1503.09 0.
754.981 -928.782 0.
-915.63 -1779.6 0.
-993.306 -1963.96 0.
135.366 -1655.98 0.
-7.99233 -1992.29 0.
-151.352 -2328.61 0.
26.1705 -2429.93 0.
6.75867 -2471.96 0.
-12.6527 -2513.99 0.
439.652 -2353.81 0.
421.938 -2386.88 0.
404.225 -2419.95 0.
1751.71 -1891.49 0.
1722.82 -1961.77 0.
1847.93 -1975 0.
1780.61 -2134.12 0.
1713.29 -2293.23 0.
1356.16 -2444.74 0.
1494.24 -2111.64 0.
1632.32 -1778.54 0.
1318.97 -1604.84 0.
1503.62 -1162.77 0.
1688.27 -720.699 0.
2768.4 -265.864 0.
2708.74 -400.723 0.
-8243.48 -5202.91 0.
2843.09 -348.346 0.
2900.29 -220.249 0.
1692.79 -688.572 0.
1599.59 -895.291 0.
1506.39 -1102.01 0.
1819 -1248.16 0.
1596.1 -1760.14 0.
1373.22 -2272.12 0.
1390.43 -2358.26 0.
1417.29 -2284.17 0.
1444.16 -2210.08 0.
1196.04 -2296.36 0.
1200.42 -2271.72 0.
3.39448 -2742.47 0.
88.5183 -2543.56 0.
173.642 -2344.65 0.
-24.0325 -2329.88 0.
-28.7833 -2330.11 0.
-33.5329 -2330.35 0.
-200.679 -2424.43 0.
-224.083 -2475.3 0.
-247.486 -2526.17 0.
-109.297 -2165.36 0.
92.4072 -1695.77 0.
996.451 -953.599 0.
-189.421 -1650.35 0.
-287.897 -1881.02 0.
-633.587 -2172.02 0.
-657.965 -2218 0.
-682.341 -2263.99 0.
44.9672 -1882.21 0.
140.906 -1658.31 0.
236.845 -1434.41 0.
-337.177 -1705.9 0.
-401.326 -1850.81 0.
-465.474 -1995.72 0.
-278.291 -1436.48 0.
-0.263604 -785.927 0.
-374.793 -522.939 0.
-474.624 -751.025 0.
-574.454 -979.11 0.
-217.13 -885.157 0.
-133.327 -680.808 0.
-49.5243 -476.46 0.
48.6473 -390.889 0.
17.4544 -454.738 0.
-13.7383 -518.586 0.
-307.381 -603.518 0.
-275.873 -532.208 0.
-515.609 -436.033 0.
-43.8111 -392.786 0.
-103.584 -529.303 0.
-381.013 -747.124 0.
-383.941 -753.658 0.
-386.868 -760.191 0.
302.204 -537.731 0.
205.389 -768.63 0.
108.574 -999.53 0.
-116.821 -1164.02 0.
-110.148 -1148.99 0.
-103.474 -1133.95 0.
-454.396 -1395.78 0.
-528.471 -1566.72 0.
-154.942 -1532.33 0.
-122.19 -1453.57 0.
-89.4373 -1374.81 0.
29.6865 -1260.11 0.
46.7067 -1220.42 0.
63.7272 -1180.73 0.
433.417 -1136.44 0.
304.09 -1432.96 0.
174.765 -1729.48 0.
-391.306 -1860.83 0.
-266.668 -1570.36 0.
58.5274 -1193.88 0.
-186.483 -1439.79 0.
-265.149 -1623.37 0.
-89.8633 -1722.93 0.
-233.519 -2058.62 0.
-377.177 -2394.3 0.
-151.109 -2473.53 0.
-170.837 -2516.81 0.
-190.565 -2560.09 0.
817.805 -2159.89 0.
799.954 -2194.11 0.
782.104 -2228.32 0.
1572 -1933.8 0.
1543.83 -2003.93 0.
1442.97 -2118.72 0.
1374.69 -2276.71 0.
1306.42 -2434.7 0.
948.424 -2589.23 0.
1086.58 -2257.31 0.
1224.74 -1925.38 0.
1141.84 -1644.75 0.
1326.35 -1203.64 0.
1510.85 -762.532 0.
2379.33 -401.825 0.
2319.63 -536.427 0.
8208.81 1879.13 0.
2341.47 -529.903 0.
2397.11 -400.624 0.
1902.26 -565.283 0.
1809.42 -772.13 0.
1716.58 -978.978 0.
1302.66 -1438.28 0.
1080.83 -1950.3 0.
859.016 -2462.33 0.
921.077 -2529.01 0.
949.002 -2456.14 0.
976.934 -2383.26 0.
852.585 -2407.85 0.
857.757 -2385.07 0.
3.70016 -2713.02 0.
89.0525 -2515.1 0.
174.405 -2317.17 0.
337.697 -2139.12 0.
334.289 -2141.14 0.
330.883 -2143.17 0.
-243.485 -2412.49 0.
-266.06 -2463.75 0.
-288.636 -2515.01 0.
-93.2253 -2126.3 0.
107.485 -1655.91 0.
1056.85 -896.201 0.
-105.573 -1582.95 0.
-204.447 -1813.59 0.
-270.814 -1984.95 0.
-294.847 -2031.45 0.
-318.879 -2077.94 0.
0.255032 -1869.08 0.
94.5448 -1644.49 0.
188.834 -1419.91 0.
-238.195 -1632.96 0.
-302.174 -1779.8 0.
-366.153 -1926.63 0.
-177.864 -1363.24 0.
100.467 -713.098 0.
65.8919 -301.937 0.
-33.3445 -530.531 0.
-132.58 -759.123 0.
-434.167 -945.897 0.
-350.22 -741.748 0.
-266.272 -537.599 0.
28.5407 -368.946 0.
-2.78876 -432.195 0.
-34.1181 -495.443 0.
-395.463 -609.272 0.
-364.588 -538.057 0.
-31.3899 1324.92 0.
245.612 346.37 0.
3.79942 -222.795 0.
-264.393 -121.038 0.
-395.819 -425.842 0.
-94.9692 279.287 0.
199.893 -921.889 0.
377.974 -508.68 0.
543.936 -124.431 0.
132.499 -815.547 0.
388.938 -213.032 0.
457.175 -49.1865 0.
274.864 -230.881 0.
455.273 193.668 0.
633.299 539.129 0.
-53.7445 -1061.66 0.
83.6105 -738.388 0.
430.985 -134.074 0.
590.187 237.668 0.
450.245 -88.6958 0.
1371.43 606.435 0.
1279.15 382.926 0.
1447.55 768.165 0.
24.2894 -444.018 0.
376.912 381.207 0.
332.478 -230.679 0.
655.578 -831.854 0.
981.335 -74.8063 0.
356.123 -248.963 0.
409.716 -118.477 0.
122.393 -783.405 0.
779.318 41.639 0.
314.718 -1038.7 0.
333.855 -990.465 0.
2326.85 711.645 0.
2132.09 254.707 0.
2038.42 32.8373 0.
2680.14 1051.91 0.
2074.72 -351.135 0.
1592.31 -971.258 0.
2308.89 690.504 0.
2031.13 33.9647 0.
1755.93 130.727 0.
1940.24 544.419 0.
1256.19 -1065.53 0.
1459.46 -517.398 0.
1516.89 -385.791 0.
1506.8 -408.671 0.
2203.58 -36.4708 0.
2153.6 -149.189 0.
-5582.92 -1464.36 0.
2302.08 377.278 0.
1655.47 -1125.04 0.
2138.15 -381.184 0.
2602.67 706.264 0.
1854.86 -1032.3 0.
563.981 -2145.48 0.
1689.4 481.656 0.
1565.58 192.857 0.
1270.61 -772.655 0.
1533.63 -168.352 0.
1194.23 -968.779 0.
1547.27 -95.5799 0.
1592.07 3.81694 0.
1352.44 467.489 0.
742.842 -959.616 0.
828.983 -763.7 0.
1394.04 -320.926 0.
1191.85 -790.441 0.
1095.84 -1012.58 0.
700.979 -91.7425 0.
523.472 -508.348 0.
584.433 -368.367 0.
462.134 -832.487 0.
320.075 -1171.23 0.
1149.55 -357.95 0.
426.351 -469.211 0.
892.664 620.176 0.
1115.33 605.503 0.
835.184 -49.9446 0.
249.043 -1420.23 0.
505.489 -563.7 0.
739.966 -25.9585 0.
743.109 -27.7109 0.
464.309 -137.654 0.
446.021 -174.81 0.
719.178 467.924 0.
478.516 13.051 0.
143.567 -764.916 0.
671.693 332.578 0.
553.117 59.8602 0.
317.788 -485.874 0.
12.8368 535.139 0.
277.532 1157.18 0.
76.6469 692.872 0.
152.087 -5.91037 0.
191.6 81.3857 0.
642.736 1130.04 0.
-16.208 455.258 0.
14.2761 526.417 0.
-512.393 -349.594 0.
-88.6564 -293.977 0.
-191.721 -536.936 0.
-308.709 -761.744 0.
-354.495 -863.525 0.
-400.279 -965.305 0.
160.523 -730.17 0.
212.625 -610.471 0.
264.726 -490.772 0.
128.816 -591.809 0.
65.203 -735.616 0.
1.59018 -879.423 0.
-52.5083 -989.354 0.
-98.1414 -1094.86 0.
-126.259 -1178.45 0.
-151.705 -1235.52 0.
-177.151 -1292.59 0.
101.619 -1293.77 0.
-34.3506 -1611.86 0.
-170.321 -1929.95 0.
124.579 -1811.59 0.
237.43 -1555.44 0.
350.282 -1299.29 0.
-299.576 -1610.82 0.
-362.293 -1757.21 0.
-155.887 -1788.17 0.
212.896 -1814.69 0.
114.605 -2045 0.
-147.948 -2288.92 0.
-94.7787 -2161.01 0.
-41.608 -2033.1 0.
-54.5788 -2031.89 0.
-122.083 -2187.03 0.
-189.587 -2342.16 0.
932.418 -1942.58 0.
902.499 -2015.87 0.
872.578 -2089.16 0.
1194.47 -2054.37 0.
1138.45 -2179.04 0.
714.783 -2417.28 0.
952.919 -1870.19 0.
1191.06 -1323.1 0.
1172.8 -977.867 0.
1256.15 -797.314 0.
1339.5 -616.766 0.
1318.49 -563.091 0.
1311.84 -588.923 0.
1305.19 -614.756 0.
1947.95 -396.724 0.
1920.1 -465.875 0.
-1296.12 -1905.22 0.
1518.44 -925.309 0.
1401.87 -1201.84 0.
1353.08 -1379.77 0.
1371.44 -1338.76 0.
1389.79 -1297.76 0.
812.175 -1525.81 0.
823.373 -1496.79 0.
834.573 -1467.77 0.
675.789 -1693.58 0.
543.128 -2010.93 0.
410.47 -2328.28 0.
887.372 -2021.87 0.
963.765 -1849.94 0.
551.647 -1893.82 0.
574.91 -1847.26 0.
598.173 -1800.71 0.
211.541 -1965.99 0.
181.448 -2036.01 0.
151.354 -2106.04 0.
120.544 -2017.01 0.
240.737 -1743.23 0.
360.932 -1469.46 0.
269.777 -1563.38 0.
209.199 -1708.96 0.
307.381 -1764.19 0.
-4.75645 -1681.37 0.
107.153 -1417.2 0.
334.538 -1204.65 0.
247.468 -1408.87 0.
160.398 -1613.09 0.
76.5594 -1673.77 0.
149.795 -1506.35 0.
223.032 -1338.92 0.
-201.342 -1340.57 0.
-100.382 -1099.68 0.
0.576497 -858.792 0.
27.3098 -1104.15 0.
-131.563 -1473.02 0.
-265.529 -1751.46 0.
-113.486 -1393.95 0.
38.5577 -1036.44 0.
-804.492 -1147.28 0.
-726.122 -960.894 0.
-647.751 -774.513 0.
-37.3586 -518.482 0.
-93.2375 -651.274 0.
-149.116 -784.066 0.
-359.514 -997.444 0.
-424.889 -1150.43 0.
-205.42 -185.678 0.
-143.147 -281.817 0.
-247.288 -525.378 0.
-11.7432 -606.28 0.
-58.8487 -707.829 0.
-105.952 -809.376 0.
26.7161 -757.953 0.
78.7728 -638.131 0.
130.829 -518.309 0.
20.7723 -609.215 0.
-42.6725 -753.081 0.
-106.117 -896.947 0.
-38.1134 -951.167 0.
-84.0083 -1056.74 0.
-135.975 -1149.92 0.
-162.086 -1206.75 0.
-188.196 -1263.57 0.
323.419 -1166.27 0.
187.427 -1483.99 0.
51.4337 -1801.71 0.
-118.006 -1888.87 0.
-6.54603 -1631.67 0.
104.914 -1374.47 0.
-64.1429 -1476.38 0.
-126.586 -1623.52 0.
-618.288 -1954.8 0.
201.655 -1790.22 0.
103.14 -2020.33 0.
324.452 -2056.59 0.
377.52 -1929.02 0.
430.588 -1801.44 0.
32.0276 -1961.74 0.
-34.9704 -2117.45 0.
-101.968 -2273.16 0.
635.804 -2035.33 0.
605.794 -2108.27 0.
575.783 -2181.22 0.
1022.06 -2098.68 0.
966.55 -2223.7 0.
416.883 -2512.1 0.
654.012 -1964.19 0.
891.145 -1416.29 0.
1058.25 -997.872 0.
1139.93 -816.089 0.
1221.61 -634.31 0.
1193.55 -588.232 0.
1186.21 -613.209 0.
1178.86 -638.188 0.
1841.89 -412.608 0.
1814.09 -481.019 0.
-302.176 -1448.58 0.
1260.36 -1004.37 0.
1143.48 -1279.86 0.
934.082 -1528.02 0.
953.294 -1487.33 0.
972.506 -1446.65 0.
808.828 -1493.36 0.
820.965 -1464.98 0.
833.105 -1436.61 0.
444.462 -1761.55 0.
312.803 -2078.82 0.
181.147 -2396.1 0.
1104.16 -1897.69 0.
1180.56 -1726.3 0.
832.733 -1740.18 0.
856.784 -1694.45 0.
880.834 -1648.73 0.
-361.03 -2179.88 0.
-390.247 -2249.78 0.
-419.465 -2319.69 0.
436.094 -1852.76 0.
558.202 -1580.35 0.
680.312 -1307.93 0.
435.258 -1456.54 0.
374.544 -1601.36 0.
86.8288 -1827.35 0.
118.913 -1597.41 0.
231.102 -1333.53 0.
345.279 -1168.9 0.
257.53 -1372.42 0.
169.78 -1575.94 0.
147.125 -1614.76 0.
219.205 -1446.35 0.
291.286 -1277.93 0.
-369.444 -1380.59 0.
-267.98 -1140.57 0.
-166.517 -900.551 0.
77.7906 -1049.96 0.
-80.2641 -1419.84 0.
-302.751 -1736.29 0.
-150.543 -1379.05 0.
1.66471 -1021.8 0.
-903.39 -1154.92 0.
-824.612 -968.6 0.
-745.833 -782.278 0.
14.2475 -466.841 0.
-42.018 -599.177 0.
-98.2834 -731.513 0.
-0.467792 -811.868 0.
-65.3892 -964.206 0.
-208.071 -478.109 0.
-235.837 -695.921 0.
-302.12 -849.316 0.
-133.131 -865.01 0.
-106.503 -803.355 0.
-79.8757 -741.7 0.
-27.5835 -734.911 0.
-85.6467 -864.501 0.
-143.711 -994.091 0.
-290.803 -1181.7 0.
-360.195 -1344.7 0.
-429.588 -1507.7 0.
-165.842 -1339.02 0.
-117.272 -1223.45 0.
-51.2303 -1108.65 0.
-101.514 -1229.63 0.
-151.797 -1350.61 0.
309.065 -1222.53 0.
315.544 -1205.72 0.
322.023 -1188.91 0.
-16.8449 -1380.33 0.
-68.6467 -1504.58 0.
-120.449 -1628.83 0.
-117.374 -1683.72 0.
-140.499 -1737.35 0.
-60.8122 -1746.46 0.
284.825 -1713.15 0.
222.863 -1856.25 0.
480.218 -1865.38 0.
391.662 -2074.74 0.
303.106 -2284.09 0.
-20.9493 -2410.44 0.
120.567 -2083.93 0.
262.085 -1757.42 0.
689.761 -1458.9 0.
708.965 -1419.75 0.
728.171 -1380.59 0.
1237.94 -1239.38 0.
1185.08 -1364.09 0.
572.743 -1701.55 0.
677.654 -1453.69 0.
782.568 -1205.84 0.
970.979 -993.722 0.
949.524 -1040.92 0.
928.069 -1088.12 0.
841.977 -1141.75 0.
852.883 -1123.53 0.
863.791 -1105.32 0.
1612.78 -472.979 0.
1829.58 26.5541 0.
-372.918 -513.514 0.
1528.82 -120.347 0.
1308.51 -636.27 0.
721.164 -1215.8 0.
712.05 -1229.38 0.
702.935 -1242.96 0.
948.494 -1239.64 0.
836.195 -1501.88 0.
723.898 -1764.13 0.
274.515 -1936.2 0.
345.214 -1759.94 0.
415.915 -1583.68 0.
1382.14 -1231.19 0.
1338.75 -1323 0.
882.328 -1570.8 0.
948.985 -1406.44 0.
1015.64 -1242.07 0.
-273.165 -1736.64 0.
-309.988 -1821.55 0.
-346.811 -1906.47 0.
595.729 -1599.81 0.
528.558 -1750.12 0.
461.388 -1900.43 0.
391.125 -1749.87 0.
518.673 -1448.9 0.
527.046 -1218.04 0.
160.892 -1392.57 0.
152.278 -1413.4 0.
298.423 -1388.08 0.
228.227 -1554.93 0.
158.03 -1721.77 0.
35.9859 -1714.15 0.
188.053 -1360.74 0.
340.121 -1007.33 0.
-274.239 -1284.82 0.
-350.379 -1464.04 0.
-426.518 -1643.26 0.
-234.876 -1545.28 0.
-214.132 -1497.89 0.
-223.689 -1414.04 0.
-77.5707 -1075.52 0.
68.5482 -737.008 0.
-706.923 -906.173 0.
-710.234 -918.912 0.
-713.544 -931.65 0.
-105.296 -665.091 0.
-100.292 -655.952 0.
-95.2894 -646.812 0.
219.861 -445.071 0.
271.058 -339.563 0.
-190.837 -441.205 0.
41.9299 -546.547 0.
-24.5248 -700.663 0.
-381.843 -938.91 0.
-355.694 -877.557 0.
-329.546 -816.203 0.
-50.0909 -713.152 0.
-107.535 -843.927 0.
-164.98 -974.7 0.
-323.864 -1166.88 0.
-393.44 -1330.09 0.
-463.017 -1493.3 0.
-63.8837 -1260.23 0.
-14.1527 -1145.85 0.
173.066 -983.234 0.
122.006 -1103.79 0.
70.9456 -1224.34 0.
142.867 -1262.18 0.
150.066 -1246.42 0.
157.264 -1230.66 0.
-32.3687 -1353.77 0.
-83.5805 -1478.64 0.
-134.793 -1603.51 0.
-211.145 -1691.72 0.
-234.423 -1745.43 0.
-233.518 -1788.75 0.
465.286 -1603.52 0.
402.901 -1745.76 0.
246.549 -1936.56 0.
156.866 -2144.89 0.
67.1833 -2353.22 0.
268.498 -2255.74 0.
408.511 -1928.09 0.
548.525 -1600.44 0.
532.544 -1495.2 0.
551.687 -1455.56 0.
570.831 -1415.92 0.
1056.74 -1289.7 0.
1003.42 -1413.25 0.
425.799 -1731.34 0.
529.509 -1482.71 0.
633.22 -1234.08 0.
888.4 -1001.46 0.
866.262 -1047.72 0.
844.124 -1093.99 0.
734.38 -1155.08 0.
745.494 -1137.23 0.
756.609 -1119.37 0.
1245.52 -599.826 0.
1461.84 -100.221 0.
516.353 -99.5761 0.
1564.6 -72.3438 0.
1344.38 -588.605 0.
323.289 -1354.59 0.
313.843 -1368.18 0.
304.395 -1381.77 0.
1045.61 -1169.98 0.
934.072 -1432.94 0.
822.535 -1695.89 0.
287.99 -1898.23 0.
360.508 -1723.7 0.
433.028 -1549.17 0.
1176.26 -1287.57 0.
1132.99 -1380.53 0.
537.176 -1686.95 0.
605.077 -1523.61 0.
672.98 -1360.27 0.
43.8287 -1568.49 0.
7.15292 -1653.84 0.
-29.5239 -1739.18 0.
417.648 -1642.81 0.
350.503 -1793.18 0.
283.359 -1943.54 0.
467.029 -1689.86 0.
594.031 -1389.51 0.
686.776 -1115.02 0.
-22.5023 -1437.22 0.
-31.0128 -1458.55 0.
449.173 -1294.41 0.
378.918 -1460.69 0.
308.661 -1626.97 0.
-159.796 -1767.54 0.
-6.67128 -1414.7 0.
146.454 -1061.85 0.
41.791 -1116.49 0.
-33.626 -1296.15 0.
-109.042 -1475.82 0.
-479.45 -1617.65 0.
-459.439 -1570.27 0.
-292.75 -1412.83 0.
-146.55 -1073.84 0.
-0.348773 -734.857 0.
-345.89 -719.656 0.
-349.703 -731.57 0.
-353.515 -743.482 0.
-189.499 -669.982 0.
-184.931 -660.686 0.
-180.365 -651.389 0.
48.6591 -486.697 0.
99.4511 -381.968 0.
17.131 16.4239 0.
749.123 620.936 0.
500.491 38.227 0.
45.4532 557.247 0.
-326.99 -317.755 0.
-76.7701 260.771 0.
164.137 -143.895 0.
194.173 -70.9056 0.
206.227 -39.9343 0.
339.839 468.447 0.
158.569 46.8289 0.
277.774 326.587 0.
750.332 475.415 0.
656.359 263.178 0.
981.606 505.018 0.
604.408 -376.48 0.
869.387 240.992 0.
651.445 256.957 0.
667.531 302.398 0.
736.176 470.165 0.
294.901 -530.437 0.
481.227 -86.487 0.
853.818 792.034 0.
492.593 131.705 0.
348.465 -201.685 0.
277.134 -1153.24 0.
841.863 -1044.59 0.
1747.24 1070.27 0.
856 -43.9623 0.
1184.44 726.009 0.
1000.27 300.648 0.
1011.61 -1036.57 0.
1616.88 371.664 0.
1301.04 -368.62 0.
1230.82 459.223 0.
988.682 -104.914 0.
1092.57 138.912 0.
1700.41 603.188 0.
1686.12 562.752 0.
1735.91 1656.65 0.
878.134 -338.751 0.
1217.07 455.953 0.
1411.13 408.908 0.
1091.19 -338.022 0.
1311.05 174.63 0.
1002.72 -296.518 0.
956.062 -410.413 0.
815.541 -743.214 0.
972.857 -512.094 0.
1292.16 238.526 0.
-659.97 59.5046 0.
2056.21 1023.92 0.
787.327 -1934.47 0.
244.8 -742.374 0.
902.208 796.4 0.
-101.14 -1537.79 0.
1107.23 -1189.92 0.
697.113 -2151.71 0.
1042.85 -1347.24 0.
1514.55 960.602 0.
1037.05 -150.628 0.
1045.12 -131.046 0.
1565.87 38.9716 0.
1439.44 -263.403 0.
1343.09 881.284 0.
987.9 52.9728 0.
961.768 -6.81264 0.
583.112 -872.955 0.
1197.35 564.046 0.
1117.92 382.605 0.
852.809 -241.694 0.
960.416 11.7563 0.
1332.78 883.523 0.
1244.27 -8.05238 0.
955.151 -681.755 0.
983.962 791.992 0.
485.058 118.723 0.
276.637 -368.149 0.
1100.11 -24.8435 0.
875.742 -551.502 0.
1413.78 700.266 0.
355.859 -172.986 0.
431.64 2.30154 0.
725.067 685.268 0.
914.179 357.426 0.
941.352 421.81 0.
566.591 -450.087 0.
82.4643 164.74 0.
-419.127 -1004.47 0.
-1.5555 -563.025 0.
513.141 639.035 0.
376.917 322.114 0.
-141.25 -905.258 0.
294.676 115.151 0.
297.924 125.925 0.
-212.276 -522.561 0.
-309.832 -747.856 0.
214.304 476.326 0.
80.7344 -52.0488 0.
-247.102 -808.788 0.
-60.2919 -878.284 0.
94.2718 -780.146 0.
63.3695 -852.358 0.
-431.565 -1085.51 0.
-347.36 -894.641 0.
-263.155 -703.77 0.
-43.1233 -600.194 0.
-149.451 -845.792 0.
-255.778 -1091.39 0.
-397.162 -1295.85 0.
-459.077 -1441.37 0.
-520.992 -1586.89 0.
2.52652 -1298.84 0.
50.2176 -1181.8 0.
155.538 -1062.5 0.
102.567 -1189.24 0.
49.5949 -1315.98 0.
-12.9028 -1398.5 0.
7.87532 -1345.11 0.
28.6526 -1291.73 0.
47.8109 -1297.88 0.
7.78231 -1385.93 0.
-32.2469 -1473.98 0.
-25.2864 -1549.78 0.
-75.8855 -1661.81 0.
-304.454 -1850.31 0.
356.623 -1524.15 0.
386.214 -1457.57 0.
227.743 -1479.66 0.
223.163 -1490.2 0.
218.582 -1500.73 0.
640.264 -1331.64 0.
626.981 -1367.68 0.
613.698 -1403.72 0.
505.986 -1438.83 0.
530.445 -1385.33 0.
554.904 -1331.84 0.
834.873 -1180.47 0.
854.711 -1143.69 0.
890.342 -1112.9 0.
871.819 -1159.88 0.
853.296 -1206.87 0.
152.068 -1493.49 0.
216.756 -1346.81 0.
281.443 -1200.12 0.
503.843 -945.79 0.
610.314 -701.659 0.
716.783 -457.526 0.
1038.95 -388.334 0.
965.176 -563.544 0.
964.485 -708.999 0.
1119.3 -327.05 0.
1282.3 56.6611 0.
788.283 -10.5415 0.
565.915 -535.991 0.
343.548 -1061.44 0.
698.79 -1014.93 0.
848.679 -665.137 0.
998.566 -315.347 0.
607.417 -694.819 0.
367.943 -1253.53 0.
128.468 -1812.24 0.
1030.39 -1518.33 0.
1009.24 -1576.42 0.
336.215 -1889.09 0.
401.261 -1733.78 0.
466.307 -1578.47 0.
163.551 -1586.22 0.
216.849 -1457.75 0.
270.146 -1329.29 0.
223.73 -1272.15 0.
258.509 -1192.78 0.
293.288 -1113.42 0.
882.764 -1045.43 0.
751.983 -1350.5 0.
801.654 -1572.14 0.
-325.632 -1989.52 0.
-290.267 -1908.98 0.
199.21 -1587.78 0.
322.046 -1306.87 0.
444.88 -1025.96 0.
143.033 -1155.7 0.
15.3446 -1455.01 0.
-112.343 -1754.32 0.
-202.056 -1582.93 0.
13.4926 -1078.88 0.
229.039 -574.826 0.
-119.529 -750.339 0.
-152.213 -828.653 0.
-266.296 -920.262 0.
-202.797 -770.737 0.
-139.297 -621.211 0.
15.3194 -488.571 0.
0.535067 -518.483 0.
-14.2497 -548.394 0.
-151.313 -601.891 0.
-135.757 -563.797 0.
-120.201 -525.701 0.
-14.4093 -630.77 0.
-120.023 -871.777 0.
327.883 -687.007 0.
42.5484 -775.146 0.
10.8133 -846.568 0.
-135.206 -925.597 0.
-51.0716 -735.161 0.
33.0635 -544.723 0.
-43.2636 -570.799 0.
-149.502 -816.396 0.
-255.741 -1061.99 0.
-354.233 -1245.52 0.
-416.205 -1391.78 0.
-478.175 -1538.04 0.
31.0318 -1254.92 0.
78.9735 -1138.23 0.
-11.517 -1102.99 0.
-65.8596 -1228.11 0.
-120.202 -1353.22 0.
59.7974 -1337.95 0.
81.1005 -1284.72 0.
102.403 -1231.49 0.
162.919 -1219.42 0.
122.989 -1307.63 0.
83.0585 -1395.83 0.
242.057 -1402.58 0.
190.895 -1514.47 0.
930.369 -1287.83 0.
28.8268 -1636.44 0.
59.2796 -1571.02 0.
231.774 -1446.63 0.
227.981 -1458.15 0.
224.188 -1469.68 0.
355.062 -1421.65 0.
342.279 -1458.42 0.
329.497 -1495.2 0.
632.182 -1352.68 0.
657.903 -1300.38 0.
683.623 -1248.07 0.
728.248 -1193.75 0.
748.249 -1156.87 0.
1332.7 -889.631 0.
1314.14 -937.011 0.
1295.57 -984.39 0.
-373.994 -1689.83 0.
-309.393 -1542.96 0.
-244.792 -1396.1 0.
243.107 -1026.52 0.
351.019 -783.546 0.
458.931 -540.567 0.
1090.26 -333.428 0.
1017.49 -509.649 0.
-1054.39 -1540.86 0.
683.681 -482.038 0.
847.05 -99.4963 0.
1092.94 151.27 0.
870.365 -374.846 0.
647.794 -900.963 0.
127.117 -1227.5 0.
276.275 -877.753 0.
425.431 -528.003 0.
376.665 -763.773 0.
137.012 -1322.65 0.
-102.642 -1881.53 0.
1211.67 -1408.56 0.
1191.09 -1466.5 0.
571.724 -1757.8 0.
637.546 -1602.6 0.
703.368 -1447.4 0.
40.3294 -1605.93 0.
93.524 -1477.74 0.
146.718 -1349.55 0.
14.5073 -1327.19 0.
49.8287 -1248.36 0.
85.1502 -1169.54 0.
1001.88 -967.914 0.
871.244 -1273.18 0.
593.166 -1626.71 0.
-195.405 -1900.17 0.
-159.394 -1820.5 0.
-69.7961 -1671.3 0.
52.5501 -1390.88 0.
174.894 -1110.46 0.
412.981 -1007.07 0.
285.322 -1306.82 0.
157.664 -1606.58 0.
-536.65 -1696.46 0.
-320.012 -1193.59 0.
-103.374 -690.724 0.
130.393 -609.952 0.
97.944 -688.73 0.
-390.24 -941.027 0.
-326.529 -791.305 0.
-262.818 -641.583 0.
5.86166 -460.497 0.
-9.36794 -490.041 0.
-24.598 -519.585 0.
-20.6431 -515.959 0.
-5.13136 -477.833 0.
10.3799 -439.706 0.
192.007 -507.559 0.
86.9043 -750.475 0.
202.127 -1331.6 0.
-233.516 -1204.21 0.
12.6916 -628.183 0.
263.473 -204.248 0.
88.5921 -605.468 0.
-86.2892 -1006.69 0.
-274.621 -1229.41 0.
-220.37 -1099.04 0.
-166.117 -968.667 0.
-237.557 -940.04 0.
-222.747 -906.241 0.
-207.937 -872.442 0.
192.356 -757.387 0.
152.238 -853.047 0.
-81.8299 -1039.49 0.
-126.169 -1143.74 0.
-170.508 -1247.98 0.
112.391 -1189.9 0.
93.8865 -1234.21 0.
75.383 -1278.52 0.
214.914 -1222.16 0.
228.662 -1191.72 0.
242.41 -1161.27 0.
447.983 -1085.57 0.
441.242 -1100.55 0.
1423.54 -691.424 0.
49.2613 -1368.32 0.
-8.91595 -1500.31 0.
170.061 -1514.7 0.
173.651 -1502.57 0.
177.24 -1490.45 0.
263.394 -1527.89 0.
177.848 -1721.59 0.
92.3014 -1915.29 0.
446.293 -1672.35 0.
559.843 -1404.18 0.
673.392 -1136.02 0.
687.669 -1034.82 0.
730.338 -927.355 0.
1429.58 -554.548 0.
1342.48 -764.485 0.
1255.38 -974.425 0.
-455.306 -1745.36 0.
-314.973 -1423.18 0.
-174.638 -1101.01 0.
227.879 -752.594 0.
290.932 -598.901 0.
353.983 -445.207 0.
1108.72 -120.106 0.
1093.45 -151.55 0.
615.03 -384.456 0.
417.453 -791.169 0.
247.612 -1188.47 0.
489.463 -1270.72 0.
622.238 -958.324 0.
755.01 -645.928 0.
22.2593 -885.656 0.
-41.8099 -1040.05 0.
-105.878 -1194.45 0.
114.635 -1227.9 0.
51.8953 -1372.15 0.
-10.8439 -1516.39 0.
1314.3 -820.489 0.
1398.33 -624.551 0.
1044.44 -692.821 0.
839.851 -1175.52 0.
635.266 -1658.22 0.
-223.781 -2148.99 0.
-33.7324 -1707.46 0.
156.316 -1265.93 0.
45.3787 -1253.09 0.
-43.6939 -1455.23 0.
-132.765 -1657.36 0.
774.432 -1224.16 0.
820.377 -1119.6 0.
1086.86 -929.955 0.
-6.48024 -1591.36 0.
-111.714 -1829.65 0.
-323.453 -2000.72 0.
-200.559 -1705.74 0.
-77.6672 -1410.75 0.
511.389 -1032.91 0.
513.384 -1024.69 0.
515.378 -1016.47 0.
-433.061 -1421.74 0.
-436.659 -1432.3 0.
-440.258 -1442.85 0.
-119.027 -1007.59 0.
56.6691 -596.037 0.
-126.162 -428.124 0.
-249.729 -719.188 0.
-373.295 -1010.25 0.
-272.012 -1102.35 0.
-261.782 -1084.54 0.
-251.553 -1066.73 0.
-239.565 -1002.42 0.
-191.755 -891.143 0.
-143.946 -779.87 0.
254.186 -617.737 0.
246.483 -641.15 0.
228.455 -1288.78 0.
-380.676 -1240.54 0.
-135.547 -662.851 0.
195.16 -199.756 0.
21.0372 -601.044 0.
-153.085 -1002.33 0.
-125.113 -1136.03 0.
-70.962 -1005.63 0.
-16.8094 -875.225 0.
-291.11 -931.283 0.
-277.047 -896.905 0.
-262.983 -862.527 0.
93.9958 -771.778 0.
53.9219 -867.535 0.
-112.254 -1015.82 0.
-155.864 -1120.06 0.
-199.475 -1224.29 0.
50.4941 -1188.55 0.
31.4065 -1231.06 0.
12.3196 -1273.57 0.
254.059 -1174.36 0.
269.262 -1144.33 0.
284.465 -1114.3 0.
405.099 -1070.85 0.
398.641 -1086.85 0.
529.432 -1044.28 0.
162.193 -1288.97 0.
104.44 -1421.88 0.
111.148 -1506.21 0.
115.683 -1495.53 0.
120.218 -1484.86 0.
455.508 -1411.84 0.
370.761 -1606.68 0.
286.015 -1801.51 0.
224.207 -1736.4 0.
338.446 -1469.5 0.
452.685 -1202.59 0.
531.564 -1067.66 0.
576.318 -961.524 0.
902.069 -747.039 0.
815.367 -957.522 0.
728.662 -1168.01 0.
-23.3519 -1530.51 0.
118.779 -1209.87 0.
260.912 -889.233 0.
164.121 -745.5 0.
229.467 -593.553 0.
294.812 -441.606 0.
873.703 -185.348 0.
860.863 -218.952 0.
-2845.77 -1835.25 0.
591.45 -683.984 0.
420.269 -1080.67 0.
205.67 -1362.92 0.
337.322 -1050.09 0.
468.97 -737.262 0.
17.5396 -856.21 0.
-46.196 -1011.48 0.
-109.931 -1166.75 0.
221.075 -1150.7 0.
159.074 -1295.61 0.
97.0733 -1440.51 0.
794.362 -1010.5 0.
879.716 -815.45 0.
882.681 -731.922 0.
677.466 -1214.14 0.
472.252 -1696.36 0.
-143.393 -2086.02 0.
45.9433 -1643.56 0.
235.279 -1201.11 0.
252.82 -1130.75 0.
162.884 -1332.3 0.
72.9498 -1533.84 0.
431.374 -1343.3 0.
475.799 -1238.05 0.
726.86 -1049.27 0.
25.7021 -1543.75 0.
-79.1847 -1782.6 0.
-293.294 -1957.97 0.
-170.763 -1663.65 0.
-48.2334 -1369.34 0.
522.738 -995.571 0.
524.533 -987.78 0.
526.327 -979.99 0.
-118.572 -1255.86 0.
-122.121 -1266.76 0.
-125.67 -1277.67 0.
-495.004 -1136.85 0.
-317.884 -726.399 0.
125.405 -286.335 0.
1.85609 -576.772 0.
-121.692 -867.21 0.
-222.571 -1050.87 0.
-212.653 -1033.06 0.
-202.735 -1015.25 0.
-353.133 -1018.79 0.
-305.608 -907.891 0.
-258.083 -796.988 0.
326.318 -556.193 0.
318.067 -580.739 0.
726.581 -89.5068 0.
387.226 879.145 0.
5.37802 -21.1698 0.
-47.3571 -596.239 0.
-443.566 -1526.76 0.
307.072 218.462 0.
741.411 633.932 0.
186.943 -663.843 0.
369.979 -239.8 0.
-71.6866 -285.776 0.
-267.619 -745.686 0.
420.371 857.32 0.
582.358 572.086 0.
122.37 -498.13 0.
463.007 412.336 0.
531.225 574.23 0.
-321.706 -1413.65 0.
271.069 -522.469 0.
281.728 -489.378 0.
365.528 -286.151 0.
736.42 -99.6467 0.
871.817 216.759 0.
603.238 -409.066 0.
750.479 -153.278 0.
1123.11 714.008 0.
598.634 -17.0728 0.
772.737 -53.9644 0.
701.646 -220.621 0.
215.584 -1108.82 0.
306.779 -893.521 0.
402.857 -667.218 0.
1530.63 751.887 0.
475.205 -1711.68 0.
1246.3 85.7363 0.
1119.48 809.832 0.
638.648 -310.741 0.
834.173 146.303 0.
711.627 -306.116 0.
841.719 -0.222013 0.
957.513 407.629 0.
659.884 -286.647 0.
706.743 -177.548 0.
954.614 -71.8793 0.
926.619 -138.543 0.
1367.65 888.588 0.
487.133 169.124 0.
487.97 162.761 0.
176.694 -572.473 0.
296.595 -1033.26 0.
931.362 446.839 0.
-438.869 865.013 0.
1099.51 185.333 0.
1221.55 479.416 0.
609.962 153.938 0.
400.23 -330.604 0.
1039.13 1165.99 0.
158.944 -510.691 0.
-97.3586 -1116.08 0.
354.574 -64.5268 0.
952.352 393.118 0.
791.718 16.8002 0.
810.276 59.393 0.
577.606 -506.922 0.
128.03 -1547.77 0.
662.402 -931.34 0.
1250.11 448.376 0.
756.573 -694.603 0.
-294.4 -2556.48 0.
418.948 -894.226 0.
667.637 -317.23 0.
934.016 125.23 0.
748.837 -300.169 0.
1085.29 491 0.
1056.22 776.385 0.
325.319 -926.33 0.
462.108 -109.196 0.
958.571 603.879 0.
637.809 -143.635 0.
954.77 943.148 0.
83.1513 -1093.75 0.
183.466 -862.614 0.
753.852 -430.679 0.
924.317 -44.0088 0.
956.178 19.5858 0.
693.321 79.2872 0.
508.485 -352.178 0.
395.151 -616.571 0.
-338.38 -45.0226 0.
-495.047 -412.804 0.
38.1798 -925.134 0.
575.796 337.438 0.
393.863 -79.7535 0.
237.169 -34.0942 0.
236.572 -30.7151 0.
220.235 -64.6449 0.
-154.811 -327.265 0.
-401.184 -905.273 0.
-306.612 -685.429 0.
298.94 -705.413 0.
421.836 -415.375 0.
390.946 -183.49 0.
-162.9 -611.362 0.
-350.267 -1056.97 0.
-174.162 -1266.95 0.
-119.033 -1142.7 0.
-63.9032 -1018.45 0.
66.9207 -866.455 0.
107.776 -776.674 0.
148.629 -686.891 0.
-188.195 -767.651 0.
-141.098 -661.277 0.
-94.002 -554.903 0.
59.7373 -607.085 0.
-29.0555 -806.628 0.
4.34034 -947.603 0.
-29.2869 -1022.93 0.
-62.9132 -1098.26 0.
-192.686 -1216.25 0.
-236.09 -1315.98 0.
-279.494 -1415.71 0.
29.5347 -1343.28 0.
-4.46707 -1414.32 0.
-38.469 -1485.36 0.
59.68 -1459.15 0.
62.4295 -1452.39 0.
475.507 -1268.72 0.
480.695 -1217.47 0.
505.346 -1159.4 0.
-18.7702 -1348.29 0.
-12.299 -1333.66 0.
-5.82666 -1319.03 0.
592.71 -998.011 0.
663.762 -835.118 0.
734.814 -672.225 0.
309.218 -943.754 0.
195.428 -1205.53 0.
81.6371 -1467.31 0.
406.06 -1227.52 0.
478.326 -1050.39 0.
27.9491 -1108.79 0.
79.0792 -986.999 0.
130.207 -865.209 0.
552.156 -655.455 0.
490.629 -794.05 0.
429.102 -932.645 0.
210.045 -922.113 0.
365.011 -565.29 0.
519.977 -208.465 0.
627.009 -272.418 0.
504.024 -549.141 0.
-2674.58 -2134.09 0.
822.235 -559.381 0.
860.53 -466.083 0.
-13.6432 -815.077 0.
-93.0638 -997.598 0.
-172.486 -1180.12 0.
19.4412 -1177.57 0.
23.068 -1168.1 0.
26.6964 -1158.62 0.
253.272 -1010.26 0.
289.974 -928.132 0.
326.675 -846.007 0.
229.715 -915.108 0.
216.191 -951.974 0.
522.86 -811.59 0.
677.668 -447.643 0.
832.478 -83.6991 0.
745.291 -84.3386 0.
514.145 -623.465 0.
283 -1162.59 0.
539.742 -1234.02 0.
542.722 -1225.36 0.
545.703 -1216.69 0.
172.945 -1236.02 0.
261.96 -1029.67 0.
680.831 -684.19 0.
-63.18 -1074.46 0.
-101.996 -1162.43 0.
103.657 -1162.16 0.
39.9148 -1309.09 0.
-23.8271 -1456.02 0.
319.212 -1231.76 0.
472.032 -880.636 0.
624.852 -529.513 0.
265.854 -704.394 0.
189.671 -887.22 0.
113.488 -1070.05 0.
-629.674 -1361.71 0.
-601.462 -1299.86 0.
-73.9984 -1000.95 0.
12.4929 -793.737 0.
98.983 -586.524 0.
-65.1846 -564.427 0.
-90.6977 -623.372 0.
-116.212 -682.317 0.
53.8258 -595.992 0.
89.8104 -512.815 0.
125.795 -429.637 0.
227.858 -523.022 0.
122.84 -762.966 0.
44.8348 -303.974 0.
-39.0907 -527.415 0.
-226.487 -972.585 0.
40.8076 -1143.77 0.
95.6506 -1018.58 0.
150.495 -893.386 0.
44.3421 -845.072 0.
85.7761 -755.995 0.
127.209 -666.916 0.
-62.0787 -684.172 0.
-14.8321 -578.073 0.
32.4141 -471.973 0.
51.7773 -577.473 0.
-37.2107 -776.827 0.
166.903 -850.52 0.
132.954 -925.104 0.
99.0053 -999.689 0.
-375.348 -1261.75 0.
-418.398 -1361.98 0.
-461.447 -1462.22 0.
-165.94 -1395.54 0.
-200.207 -1466.2 0.
-234.474 -1536.85 0.
-85.1051 -1489.55 0.
-83.2715 -1482.63 0.
594.122 -1185.1 0.
750.676 -1067.39 0.
775.371 -1009.13 0.
-162.835 -1381.27 0.
-157.11 -1365.41 0.
-151.385 -1349.54 0.
379.546 -1057.6 0.
450.86 -894.573 0.
522.173 -731.548 0.
254.739 -935.967 0.
141.945 -1198.39 0.
29.1503 -1460.81 0.
529.392 -1143.53 0.
600.177 -964.643 0.
-297.533 -1218.3 0.
-246.563 -1096.6 0.
-195.595 -974.907 0.
374.809 -701.326 0.
314.193 -841.298 0.
253.576 -981.268 0.
455.432 -782.252 0.
610.899 -425.735 0.
766.367 -69.2162 0.
647.302 -230.932 0.
524.64 -508.144 0.
-2150.25 -1878.09 0.
886.705 -499.677 0.
924.022 -406.046 0.
-244.859 -885.242 0.
-324.558 -1068.3 0.
-404.258 -1251.36 0.
214.924 -1058.35 0.
218.367 -1049.94 0.
221.811 -1041.54 0.
151.953 -1025.43 0.
188.426 -943.102 0.
224.899 -860.772 0.
36.3685 -965.27 0.
23.1672 -1002.44 0.
311.204 -866.222 0.
468.007 -504.28 0.
624.814 -142.339 0.
734.672 -55.5941 0.
503.86 -595.178 0.
273.049 -1134.76 0.
789.505 -1094.9 0.
792.162 -1086.61 0.
794.819 -1078.31 0.
172.419 -1202.01 0.
262.065 -996.274 0.
911.401 -555.8 0.
-415.866 -1195.88 0.
-454.595 -1283.91 0.
179.658 -1095.47 0.
115.873 -1241.86 0.
52.0888 -1388.25 0.
221.877 -1247 0.
373.936 -895.685 0.
525.994 -544.374 0.
174.468 -710.118 0.
98.9101 -893.86 0.
23.3511 -1077.6 0.
-274.177 -1173.94 0.
-245.817 -1111.64 0.
-159.325 -1008.36 0.
-72.7808 -801.334 0.
13.7626 -594.312 0.
-135.547 -561.085 0.
-161.409 -619.996 0.
-187.273 -678.906 0.
466.31 -389.082 0.
501.951 -306.108 0.
537.591 -223.134 0.
59.5491 -565.049 0.
-46.088 -804.77 0.
-425.876 -1052.78 0.
-114.462 -1018.9 0.
-109.176 -998.971 0.
145.317 -816.299 0.
259.796 -549.066 0.
374.273 -281.831 0.
234.04 -327.321 0.
115.494 -604.035 0.
-3.05539 -880.746 0.
-153.593 -985.893 0.
-127.855 -924.335 0.
-102.117 -862.778 0.
-96.0642 -959.037 0.
-153.964 -1095.5 0.
9.82847 -1113.69 0.
25.347 -1075.64 0.
40.8654 -1037.58 0.
-302.063 -1124.19 0.
-256.349 -1012.33 0.
-210.635 -900.479 0.
17.5736 -865.699 0.
-87.3562 -1110.68 0.
-192.286 -1355.66 0.
-165.981 -1315.2 0.
-115.897 -1197.47 0.
483.375 -844.29 0.
852.521 -842.547 0.
769.241 -1036.11 0.
-202.552 -1549.09 0.
-116.728 -1351.82 0.
-30.9029 -1154.55 0.
220.491 -953.26 0.
215.414 -960.736 0.
210.337 -968.214 0.
234.644 -973.826 0.
229.18 -985.383 0.
223.715 -996.94 0.
580.298 -751.636 0.
636.681 -626.355 0.
-260.17 -893.672 0.
-141.065 -617.992 0.
-21.96 -342.312 0.
495.658 -22.1005 0.
415.828 -212.39 0.
335.997 -402.681 0.
453.17 -536.616 0.
345.925 -786.371 0.
238.68 -1036.13 0.
708.49 -622.934 0.
887.496 -207.897 0.
-1771.65 -1009.32 0.
1186.38 176.909 0.
1146.19 78.2542 0.
-114.523 -529.623 0.
-121.358 -558.06 0.
-128.193 -586.497 0.
379.375 -445.68 0.
303.893 -619.396 0.
228.412 -793.112 0.
86.6274 -830.056 0.
137.723 -708.301 0.
188.818 -586.546 0.
92.1541 -699.841 0.
42.8302 -808.726 0.
260.561 -817.342 0.
180.402 -1001.66 0.
100.243 -1185.98 0.
245.79 -1236.76 0.
223.279 -1288.56 0.
200.768 -1340.36 0.
697.76 -1097.82 0.
737.335 -1003.74 0.
776.914 -909.661 0.
204.355 -1035.92 0.
275.101 -862.522 0.
-337.882 -974.096 0.
-261.877 -863.68 0.
-220.793 -768.609 0.
376.622 -475.784 0.
332.636 -580.583 0.
288.649 -685.381 0.
284.196 -765.877 0.
232.523 -881.029 0.
180.849 -996.181 0.
13.9462 -1066.31 0.
44.7753 -987.124 0.
75.6048 -907.935 0.
-44.099 -972.197 0.
-56.1907 -1000.2 0.
-218.631 -1068.26 0.
-138.912 -884.98 0.
-59.1933 -701.703 0.
-186.822 -698.399 0.
-241.315 -820.72 0.
-295.808 -943.039 0.
468.418 -559.516 0.
547.635 -375.233 0.
626.851 -190.95 0.
-47.7685 -342.912 0.
26.075 -168.308 0.
-397.779 -1011.33 0.
96.1843 -897.445 0.
101.584 -877.672 0.
-125.618 -898.948 0.
-10.0405 -632.993 0.
105.536 -367.035 0.
209.919 -300.967 0.
93.0992 -579.692 0.
-23.7234 -858.415 0.
-155.486 -954.789 0.
-130.372 -893.131 0.
-105.257 -831.473 0.
-2.00886 -886.6 0.
-60.1491 -1022.75 0.
-208.64 -1176.31 0.
-194.381 -1136.68 0.
-180.122 -1097.06 0.
-80.3162 -1002.42 0.
-35.386 -889.093 0.
9.5435 -775.771 0.
150.538 -777.775 0.
45.3631 -1022.31 0.
-59.8115 -1266.84 0.
-349.2 -1364.68 0.
-298.707 -1246.89 0.
-137.162 -1080.87 0.
646.979 -898.41 0.
564.385 -1091.9 0.
45.62 -1412 0.
132.416 -1214.44 0.
219.213 -1016.88 0.
-23.597 -1027.05 0.
-28.2076 -1034.65 0.
-32.819 -1042.25 0.
294.078 -916.614 0.
289.45 -928.811 0.
284.821 -941.009 0.
196.651 -883.466 0.
252.863 -757.812 0.
-130.623 -807.214 0.
-11.1753 -531.146 0.
108.272 -255.078 0.
293.705 -79.8065 0.
212.528 -269.499 0.
131.352 -459.192 0.
-12.2877 -705.865 0.
-117.898 -957.578 0.
-223.51 -1209.29 0.
1282.3 -342.881 0.
1461.95 71.6152 0.
30.9274 -204.686 0.
1178.82 206.222 0.
1137.7 108.709 0.
122.177 -401.027 0.
113.62 -427.609 0.
105.062 -454.191 0.
-20.942 -588.655 0.
-96.2183 -762.089 0.
-171.493 -935.523 0.
-159.157 -907.722 0.
-109.098 -785.46 0.
-59.0376 -663.199 0.
187.607 -627.958 0.
139.999 -738.743 0.
343.182 -746.323 0.
263.169 -931.072 0.
183.157 -1115.82 0.
326.453 -1169.89 0.
302.686 -1220.86 0.
278.919 -1271.84 0.
269.708 -1251.49 0.
310.389 -1158.27 0.
351.074 -1065.05 0.
133.091 -1032.2 0.
203.871 -858.521 0.
157.211 -733.151 0.
138.237 -662.905 0.
178.737 -567.642 0.
175.131 -533.451 0.
129.804 -637.141 0.
84.4771 -740.83 0.
69.1743 -830.198 0.
17.6612 -945.144 0.
-33.8519 -1060.09 0.
111.318 -989.539 0.
142.324 -911.01 0.
173.33 -832.48 0.
-4.58191 -922.922 0.
-16.4537 -950.626 0.
-162.173 -1015.23 0.
-83.2115 -831.218 0.
-4.2513 -647.205 0.
-87.0991 -620.551 0.
-142.709 -741.945 0.
-198.319 -863.337 0.
288.643 -607.24 0.
368.217 -423.376 0.
447.792 -239.512 0.
-318.424 -428.818 0.
-244.273 -254.539 0.
-153.128 -748.708 0.
657.202 98.8489 0.
180.143 -1013.72 0.
-570.108 -1413.77 0.
374.95 797.627 0.
294.828 616.822 0.
634.329 757.781 0.
158.285 -346.171 0.
10.9899 -682.779 0.
293.986 140.857 0.
128.799 -245.862 0.
234.872 -0.163377 0.
439.526 1.74011 0.
35.9979 -944.258 0.
80.085 -44.8232 0.
354.708 592.946 0.
446.902 805.634 0.
698.834 437.636 0.
574.259 146.962 0.
662.819 352.439 0.
949.002 859.196 0.
757.842 402.988 0.
-212.919 -1870.56 0.
28.6287 -127.65 0.
-174.62 -601.64 0.
367.849 -944.136 0.
540.219 -709.932 0.
1155.24 719.498 0.
948.56 249.347 0.
369.742 -1108.03 0.
962.445 269.037 0.
420.863 496.657 0.
669.289 1079.24 0.
-231.796 -1018.36 0.
450.634 -637.122 0.
917.669 451.262 0.
226.035 -1163.16 0.
403.467 365.305 0.
104.416 -345.683 0.
434.607 279.896 0.
77.4622 -554.848 0.
43.7873 -635.247 0.
-377.745 -1236.36 0.
124.001 -63.24 0.
502.951 823.813 0.
300.949 925.418 0.
-374.31 -646.253 0.
-1043.01 -2202.48 0.
1500.07 -909.556 0.
2604.01 1662.49 0.
-15964.6 -3531.7 0.
1992.52 2172.94 0.
1103.73 97.5369 0.
-45.8157 -1207.73 0.
167.467 -716.005 0.
161.443 -735.855 0.
404.713 1194.76 0.
-427.791 -748.249 0.
-477.098 -863.615 0.
88.4654 167.265 0.
-112.913 -305.351 0.
329.295 726.557 0.
566.109 90.494 0.
876.176 821.131 0.
624.424 -221.275 0.
258.146 -1071.41 0.
663.679 -117.586 0.
1332.07 1076.11 0.
706.734 -378.367 0.
627.11 -560.738 0.
367.43 -177.2 0.
703.237 606.327 0.
586.656 333.611 0.
523.769 46.365 0.
320.706 -425.005 0.
-114.243 -1143.8 0.
1468.59 1713.03 0.
793.63 139.79 0.
19.2621 -503.187 0.
-396.615 -1475.18 0.
-77.5762 -732.86 0.
-63.3497 -700.161 0.
176.175 -134.879 0.
-215.013 -1040.77 0.
711.132 264.343 0.
586.017 -37.4374 0.
-79.7543 -1600.2 0.
172.539 -542.31 0.
636.878 542.752 0.
110.616 -444.432 0.
691.676 906.879 0.
409.758 244.573 0.
157.208 -183.344 0.
216.567 -43.1936 0.
37.8021 -459.846 0.
227.085 -374.135 0.
654.816 628.808 0.
554.221 398.443 0.
215.691 1318.27 0.
-416.604 -165.323 0.
-761.581 -1251.4 0.
28.625 -607.527 0.
140.425 -345.938 0.
212.875 -192.376 0.
136.828 -366.881 0.
60.7809 -541.384 0.
2.14278 -659.624 0.
-25.9814 -719.919 0.
-54.1066 -780.213 0.
-95.7367 -733.557 0.
-21.8559 -563.357 0.
52.0252 -393.156 0.
-5.807 -412.188 0.
-14.357 -435.379 0.
30.8769 -442.607 0.
-3.50096 -528.381 0.
-37.8779 -614.157 0.
-61.2056 -722.346 0.
-153.302 -942.77 0.
-245.398 -1163.2 0.
171.309 -931.866 0.
300.54 -635.525 0.
429.774 -339.183 0.
-42.9724 -643.053 0.
-145.155 -882.776 0.
98.5853 -974.45 0.
554.206 -707.648 0.
598.288 -608.504 0.
380.036 -644.32 0.
334.765 -751.266 0.
289.492 -858.213 0.
-143.751 -1087.74 0.
-125.034 -1046.18 0.
-106.317 -1004.62 0.
212.531 -740.375 0.
296.916 -539.757 0.
381.299 -339.139 0.
-133.407 -677.348 0.
-213.977 -867.228 0.
-42.5466 -940.4 0.
-49.9288 -957.09 0.
-57.3123 -973.779 0.
-214.793 -943.553 0.
-48.6101 -556.447 0.
117.573 -169.34 0.
-72.0377 -283.09 0.
-242.937 -671.158 0.
-413.834 -1059.22 0.
1564.5 -132.568 0.
1665.01 104.911 0.
-4673.77 -2419.17 0.
645.373 -297.876 0.
563.89 -490.607 0.
-27.577 -847.919 0.
3.63443 -780.233 0.
34.8456 -712.548 0.
-269.6 -808.327 0.
-255.731 -781.429 0.
-241.862 -754.531 0.
-82.9156 -670.599 0.
-69.5679 -648.597 0.
-56.2196 -626.596 0.
179.384 -626.449 0.
113.282 -773.534 0.
332.094 -787.699 0.
327.871 -794.236 0.
323.649 -800.775 0.
376.664 -799.522 0.
344.204 -880.063 0.
311.743 -960.604 0.
-147.078 -1084.32 0.
-51.678 -861.49 0.
43.7225 -638.661 0.
411.199 -645.576 0.
270.534 -969.327 0.
495.74 -1125.54 0.
-56.7732 -1181.37 0.
38.5888 -957.995 0.
-38.9952 -826.683 0.
40.5332 -646.127 0.
120.062 -465.571 0.
196.164 -438.175 0.
95.1874 -671.792 0.
-5.78919 -905.409 0.
126.899 -836.637 0.
185.508 -706.236 0.
244.115 -575.834 0.
145.922 -682.038 0.
104.444 -779.529 0.
-311.362 -1007.02 0.
-232.675 -826.132 0.
-153.988 -645.245 0.
-105.517 -534.813 0.
-111.398 -547.769 0.
-117.282 -560.724 0.
237.637 -348.864 0.
295.553 -211.184 0.
353.468 -73.5033 0.
-361.451 -489.405 0.
-447.744 -691.746 0.
-567.671 -1141.32 0.
-353.161 -740.032 0.
-241.421 -479.086 0.
548.676 -16.4301 0.
473.811 -192.483 0.
398.945 -368.534 0.
-10.9015 -630.54 0.
-37.9208 -691.667 0.
-64.9411 -752.794 0.
-97.7039 -701.149 0.
-23.7494 -531.15 0.
50.2053 -361.15 0.
-316.858 -512.987 0.
-326.112 -535.928 0.
195.822 -342.589 0.
160.17 -427.489 0.
124.519 -512.39 0.
-362.346 -820.858 0.
-454.989 -1041.33 0.
-547.632 -1261.81 0.
174.697 -898.651 0.
302.953 -601.53 0.
431.211 -304.408 0.
159.108 -527.178 0.
57.4789 -766.622 0.
-551.206 -1223.72 0.
579.251 -666.934 0.
623.831 -567.454 0.
168.762 -704.063 0.
124.521 -811.176 0.
80.279 -918.289 0.
5.55194 -992.749 0.
24.4309 -950.353 0.
43.3101 -907.956 0.
0.847012 -799.306 0.
86.1656 -600.401 0.
171.483 -401.494 0.
-228.572 -687.395 0.
-310.231 -877.11 0.
28.1163 -876.834 0.
21.1871 -894.604 0.
14.2567 -912.374 0.
-145.962 -883.597 0.
19.5904 -497.008 0.
185.143 -110.418 0.
117.685 -169.951 0.
-52.9044 -559.041 0.
-223.493 -948.129 0.
1240.04 -241.176 0.
1340.95 -3.29135 0.
-6676.68 -3245.08 0.
308.779 -409.971 0.
227.777 -603.093 0.
-181.934 -883.76 0.
-150.84 -816.282 0.
-119.747 -748.805 0.
-23.0391 -670.588 0.
-9.16378 -644.428 0.
4.71222 -618.268 0.
165.303 -533.493 0.
179.006 -511.929 0.
192.709 -490.366 0.
97.5054 -629.393 0.
32.1747 -777.476 0.
281.765 -774.435 0.
278.539 -782.598 0.
275.314 -790.764 0.
218.766 -834.472 0.
185.648 -915.207 0.
152.529 -995.943 0.
-284.677 -1110.95 0.
-188.869 -889.752 0.
-93.0612 -668.557 0.
650.428 -509.581 0.
508.252 -833.167 0.
146.386 -1250.14 0.
-394.436 -1300.3 0.
-299.268 -1077.12 0.
72.0639 -747.583 0.
152.057 -567.106 0.
232.051 -386.63 0.
399.08 -316.829 0.
297.752 -549.588 0.
196.424 -782.346 0.
3.9672 -860.409 0.
61.5579 -729.181 0.
119.146 -597.952 0.
205.153 -625.2 0.
164.575 -723.451 0.
-522.726 -1064.6 0.
-443.741 -884.295 0.
-364.754 -703.994 0.
-223.454 -552.958 0.
-230.164 -565.795 0.
-236.875 -578.632 0.
255.786 -309.741 0.
313.92 -172.05 0.
372.053 -34.3584 0.
-103.548 -349.398 0.
-191.37 -549.583 0.
-672.059 -751.445 0.
-338.585 -796.697 0.
-420.358 -987.455 0.
145.75 -845.03 0.
189.454 -739.411 0.
233.161 -633.791 0.
60.396 -658.088 0.
66.6346 -639.421 0.
72.8737 -620.756 0.
-64.6037 -606.166 0.
-17.2685 -490.262 0.
30.0653 -374.358 0.
-632.379 -922.56 0.
-792.395 -1296.31 0.
-167.146 -1275.13 0.
-41.3139 -982.448 0.
84.5188 -689.766 0.
-450.987 -783.679 0.
-479.147 -847.559 0.
-507.306 -911.439 0.
276.401 -550.175 0.
325.836 -434.453 0.
375.27 -318.731 0.
242.305 -393.747 0.
209.73 -470.446 0.
333.873 -478.363 0.
662.538 -298.091 0.
682.06 -242.924 0.
99.8227 -478.302 0.
33.3461 -627.636 0.
-33.1319 -776.97 0.
247.625 -746.035 0.
223.06 -800.917 0.
198.496 -855.8 0.
-170.558 -921.524 0.
-84.3819 -721.77 0.
1.7934 -522.015 0.
-277.798 -665.12 0.
-301.104 -721.615 0.
179.773 -557.252 0.
154.361 -614.486 0.
128.949 -671.721 0.
-68.5257 -831.969 0.
-132.619 -987.462 0.
-196.711 -1142.96 0.
-283.88 -1040.33 0.
-95.5705 -600.098 0.
92.739 -159.867 0.
1292.19 185.857 0.
1130.9 -193.254 0.
-1358.19 -1568.26 0.
10.3291 -701.036 0.
154.784 -360.824 0.
39.8043 -218.151 0.
-21.6346 -356.226 0.
-83.0725 -494.302 0.
61.7911 -642.048 0.
-97.4092 -1011.17 0.
-256.608 -1380.29 0.
-3.37689 -1188.22 0.
138.663 -853.179 0.
280.702 -518.143 0.
28.5444 -691.347 0.
-15.5207 -797.997 0.
171.1 -787.229 0.
158.182 -823.768 0.
145.263 -860.307 0.
66.2299 -941.854 0.
48.284 -985.962 0.
30.3381 -1030.07 0.
-350.528 -1170.39 0.
-321.926 -1103.44 0.
-293.323 -1036.5 0.
553.926 -663.23 0.
560.932 -652.404 0.
-212.31 -974.095 0.
-385.657 -996.028 0.
-357.352 -931.182 0.
128.722 -691.262 0.
109.296 -737.827 0.
89.8717 -784.391 0.
202.181 -795.804 0.
160.065 -901.684 0.
117.948 -1007.56 0.
-113.683 -1108.29 0.
-94.7032 -1067.58 0.
-75.7236 -1026.86 0.
99.6407 -674.554 0.
261.161 -293.474 0.
-232.997 -266.81 0.
-358.735 -567.36 0.
-484.473 -867.911 0.
-325.672 -946.93 0.
-283.427 -863.121 0.
-241.179 -779.31 0.
109.514 -552.451 0.
153.633 -452.791 0.
197.754 -353.132 0.
-54.6151 -612.226 0.
-166.978 -876.293 0.
424.45 -251.358 0.
121.157 -566.496 0.
39.1424 -757.265 0.
-270.765 -992.948 0.
-226.847 -887.613 0.
-182.927 -782.278 0.
292.199 -525.683 0.
298.667 -507.183 0.
305.135 -488.684 0.
-53.5335 -571.265 0.
-4.74053 -456.737 0.
44.0514 -342.209 0.
-622.981 -882.851 0.
-782.315 -1257.38 0.
-199.146 -1259.3 0.
-73.448 -966.517 0.
52.2502 -673.732 0.
-376.163 -718.71 0.
-404.031 -782.818 0.
-431.899 -846.927 0.
193.059 -554.662 0.
243.017 -439.174 0.
292.975 -323.686 0.
132.065 -409.171 0.
99.4814 -485.095 0.
820.697 -235.945 0.
480.489 -345.463 0.
501.772 -290.922 0.
-94.8295 -528.017 0.
-160.242 -677.237 0.
-225.655 -826.458 0.
474.87 -620.091 0.
450.219 -674.988 0.
425.57 -729.885 0.
-234.524 -918.225 0.
-148.299 -718.45 0.
-62.0742 -518.675 0.
-286.951 -636.138 0.
-310.138 -692.553 0.
168.693 -531.529 0.
142.21 -588.222 0.
115.728 -644.915 0.
25.0287 -763.422 0.
-39.6833 -919.512 0.
-104.395 -1075.6 0.
-499.114 -1101.04 0.
-312.108 -660.76 0.
-125.103 -220.481 0.
1338.1 236.073 0.
1175.83 -142.784 0.
-2145.47 -1873.67 0.
-87.2578 -712.508 0.
57.3204 -372.534 0.
78.5205 -172.424 0.
17.9699 -311.416 0.
-42.5798 -450.409 0.
-0.657349 -632.062 0.
-158.033 -1003.22 0.
-315.408 -1374.38 0.
36.5096 -1137.35 0.
180.016 -803.602 0.
323.522 -469.85 0.
68.4072 -639.955 0.
24.4492 -746.92 0.
11.3463 -823.369 0.
-1.46985 -860.264 0.
-14.2869 -897.16 0.
-18.942 -948.592 0.
-37.5479 -992.424 0.
-56.1536 -1036.26 0.
-285.426 -1110.12 0.
-256.718 -1044.62 0.
-228.008 -979.114 0.
286.467 -748.086 0.
292.78 -738.053 0.
327.883 -709.822 0.
-317.618 -934.512 0.
-288.907 -870.131 0.
136.31 -655.569 0.
117.143 -701.821 0.
97.9761 -748.073 0.
67.3406 -820.072 0.
23.9667 -924.488 0.
-19.4087 -1028.9 0.
19.5963 -1022.91 0.
38.5879 -982.136 0.
57.5791 -941.359 0.
-124.152 -737.745 0.
37.5288 -356.822 0.
-117.165 -185.699 0.
-243.338 -485.943 0.
-369.513 -786.189 0.
1.75174 -778.403 0.
43.1639 -693.511 0.
84.5777 -608.617 0.
17.7183 -558.749 0.
62.728 -459.313 0.
107.74 -359.877 0.
136.586 -499.83 0.
25.0264 -763.732 0.
526.811 504.788 0.
453.437 -606.262 0.
1064.9 815.576 0.
-213.287 -48.0057 0.
-533.599 -793.285 0.
-437.084 -565.638 0.
33.2709 -1522.7 0.
758.558 172.059 0.
519.294 -383.007 0.
329.385 340.401 0.
157.312 -58.8633 0.
117.33 -149.719 0.
-199.284 114.711 0.
-272.395 -55.3855 0.
-50.1408 -820.55 0.
229.865 -173.076 0.
283.229 -54.133 0.
105.405 289.448 0.
127.888 339.167 0.
-32.3389 -39.4519 0.
513.307 392.942 0.
619.077 634.873 0.
998.884 1517.11 0.
78.5125 -294.799 0.
-26.23 -534.775 0.
-279.781 -700.621 0.
581.387 268.771 0.
779.907 733.82 0.
-170.525 -295.17 0.
-523.086 -1122 0.
-664.447 -1455.45 0.
815.915 -235.144 0.
907.554 -19.6356 0.
422.156 -1150.78 0.
376.983 648.139 0.
220.221 283.94 0.
207.201 255.114 0.
-309.303 -639.281 0.
-101.858 -154.357 0.
462.272 223.773 0.
574.854 487.478 0.
336.435 -67.564 0.
571.843 363.126 0.
332.638 -200.614 0.
207.106 -498.623 0.
-417.816 -485.608 0.
7.22508 509.415 0.
-763.846 -1286.38 0.
1151.56 -243.315 0.
1370.18 259.467 0.
-3833.02 -2089.12 0.
97.0605 -53.2411 0.
-118.835 -561.532 0.
-120.635 -680.166 0.
55.8123 -272.961 0.
307.89 310.789 0.
317.973 274.75 0.
549.284 804.371 0.
747.276 1256.43 0.
669.441 306.154 0.
499.953 -86.9191 0.
1086.47 1283.95 0.
329.088 -92.7496 0.
-6.19477 -875.325 0.
-36.2778 -599.034 0.
274.75 122.869 0.
-543.461 -1786.84 0.
-196.142 -1173.64 0.
-129.508 -1012.26 0.
663.993 845.889 0.
163.594 -164.917 0.
-170.487 -937.054 0.
-617.582 -1973.17 0.
78.0088 -710.774 0.
525.267 344.151 0.
-99.7057 -16.0946 0.
-14.9006 -320.328 0.
-148.309 -630.447 0.
914.087 1187.55 0.
596.49 440.261 0.
120.523 -675.8 0.
285.427 -16.3599 0.
242.61 -119.57 0.
-421.542 -1674.1 0.
526.988 -57.4338 0.
882.253 764.525 0.
608.242 117.119 0.
-127.386 -296.45 0.
-208.038 -482.995 0.
-95.1151 -325.539 0.
176.408 311.458 0.
304.674 614.079 0.
443.073 -342.047 0.
478.485 -257.144 0.
836.796 581.144 0.
571.843 919.22 0.
68.9286 -243.903 0.
24.8415 -337.472 0.
409.229 -204.945 0.
885.488 900.078 0.
127.595 -486.618 0.
508.916 -355.641 0.
493.649 -390.446 0.
-168.069 -720.733 0.
-217.874 -837.536 0.
-267.681 -954.339 0.
-73.1765 -777.588 0.
97.2444 -379.341 0.
267.663 18.905 0.
177.646 -148.504 0.
-16.1045 -597.602 0.
-209.856 -1046.7 0.
-736.777 -1138.25 0.
-635.282 -898.863 0.
-1.53819 -457.244 0.
6.47506 -441.177 0.
14.489 -425.111 0.
-331.685 -599.899 0.
-395.014 -745.699 0.
-458.342 -891.499 0.
105.317 -665.534 0.
138.588 -590.127 0.
171.858 -514.719 0.
154.742 -432.754 0.
214.208 -293.127 0.
12.0356 -265.379 0.
231.714 -342.343 0.
129.887 -577.972 0.
-81.1394 -823.656 0.
-77.5874 -815.556 0.
-74.037 -807.457 0.
327.299 -551.623 0.
424.486 -322.581 0.
521.674 -93.5395 0.
-193.481 -437.527 0.
-281.668 -638.513 0.
-369.856 -839.499 0.
-300.32 -835.334 0.
-303.841 -839.79 0.
107.04 -654.904 0.
123.029 -614.757 0.
139.017 -574.61 0.
66.0811 -537.35 0.
137.089 -371.116 0.
208.098 -204.882 0.
-381.431 -493.136 0.
-468.366 -704.887 0.
-555.301 -916.639 0.
1044.86 -199.665 0.
1090.47 -96.9374 0.
-2829.75 -1696.44 0.
-171.042 -521.788 0.
-150.207 -476.007 0.
-83.3193 -395.219 0.
-40.3002 -294.853 0.
2.71867 -194.487 0.
92.769 -94.4272 0.
116.312 -36.0391 0.
139.856 22.3483 0.
401.401 -49.7796 0.
236.661 -426.562 0.
71.9223 -803.341 0.
190.607 -593.446 0.
305.035 -327.706 0.
179.307 -207.449 0.
117.103 -352.914 0.
54.8999 -498.382 0.
-49.7474 -562.7 0.
25.8341 -387.584 0.
101.416 -212.468 0.
60.8892 -234.498 0.
13.3908 -348.219 0.
-34.1086 -461.941 0.
234.838 -269.542 0.
297.42 -120.972 0.
-160.155 -192.719 0.
20.0394 -343.104 0.
-102.3 -625.296 0.
20.7142 -740.073 0.
59.6543 -650.416 0.
98.5933 -560.758 0.
38.0668 -624.491 0.
-51.6903 -832.481 0.
-141.448 -1040.47 0.
103.123 -856.667 0.
208.795 -616.236 0.
314.468 -375.805 0.
26.1192 -379.501 0.
83.6205 -243.088 0.
-298.354 -316.347 0.
-357.41 -453.09 0.
-416.467 -589.833 0.
414.813 -302.451 0.
426.252 -277.955 0.
437.693 -253.459 0.
152.221 -537.395 0.
-3.06166 -890.339 0.
-158.344 -1243.28 0.
96.9777 -841.433 0.
331.222 -298.252 0.
1179.35 -4.92919 0.
458.475 -345.662 0.
442.223 -379.555 0.
258.685 -507.818 0.
208.732 -624.757 0.
158.779 -741.695 0.
-575.101 -959.3 0.
-404.322 -561.4 0.
-233.546 -163.501 0.
264.906 -78.6552 0.
72.2199 -528.686 0.
-120.468 -978.715 0.
-723.204 -1098.46 0.
-621.007 -859.633 0.
-116.144 -474.105 0.
-108.485 -457.933 0.
-100.824 -441.763 0.
-383.639 -590.671 0.
-447.117 -735.988 0.
-510.593 -881.305 0.
173.97 -609.884 0.
207.677 -534.729 0.
241.384 -459.575 0.
339.896 -320.906 0.
401.506 -182.401 0.
-322.61 -379.861 0.
137.86 -349.654 0.
37.2652 -585.672 0.
319.382 -619.978 0.
323.87 -612.026 0.
328.356 -604.074 0.
-94.6267 -701.692 0.
2.04345 -472.331 0.
98.7145 -242.972 0.
-303.132 -455.838 0.
-390.55 -657.589 0.
-477.969 -859.34 0.
-176.009 -747.032 0.
-179.324 -752.22 0.
148.58 -607.151 0.
163.441 -567.028 0.
178.303 -526.904 0.
-68.0725 -562.614 0.
2.15733 -396.985 0.
72.3875 -231.357 0.
-307.132 -431.224 0.
-394.987 -642.731 0.
-482.842 -854.24 0.
913.626 -225.923 0.
958.326 -122.901 0.
-2153.89 -1375.56 0.
-240.496 -520.464 0.
-219.333 -475.34 0.
-175.824 -399.606 0.
-132.539 -299.801 0.
-89.2553 -199.996 0.
27.1231 -91.097 0.
51.2315 -33.9165 0.
75.34 23.2635 0.
272.744 -71.4902 0.
108.537 -448.633 0.
-55.6672 -825.774 0.
300.742 -513.449 0.
415.821 -248.84 0.
256.022 -140.898 0.
194.54 -287.951 0.
133.058 -435.006 0.
-167.519 -579.154 0.
-91.4975 -405.281 0.
-15.4752 -231.408 0.
-11.2859 -232.579 0.
-58.7601 -346.935 0.
-106.235 -461.293 0.
209.299 -251.197 0.
271.285 -102.979 0.
-16.7535 -97.9817 0.
93.0916 -278.279 0.
-29.348 -561.032 0.
-47.3298 -737.452 0.
-8.43471 -648.397 0.
30.4594 -559.343 0.
67.5695 -580.505 0.
-22.4673 -788.133 0.
-112.504 -995.759 0.
20.2565 -858.77 0.
126.327 -618.665 0.
232.4 -378.559 0.
275.387 -241.442 0.
333.13 -104.629 0.
-538.704 -386.111 0.
-596.705 -523.203 0.
-654.707 -660.295 0.
378.678 -284.825 0.
390.832 -260.206 0.
402.986 -235.587 0.
420.529 -389.482 0.
265.445 -742.448 0.
110.362 -1095.41 0.
64.5381 -824.192 0.
298.369 -280.494 0.
-269.64 -468.818 0.
418.347 -106.781 0.
460.632 -16.1488 0.
663.545 97.4946 0.
578.995 -101.58 0.
494.443 -300.654 0.
-577.329 -800.607 0.
-517.863 -654.867 0.
-458.397 -509.129 0.
116.366 -215.871 0.
121.858 -205.639 0.
127.351 -195.408 0.
-397.219 -386.449 0.
-387.027 -357.846 0.
-18.8041 -212.042 0.
-197.256 -629.548 0.
-375.708 -1047.05 0.
-676.47 -1274.78 0.
-463.47 -776.141 0.
-250.47 -277.505 0.
300.091 -137.63 0.
39.5389 -744.785 0.
-221.013 -1351.94 0.
9.77895 -1161.94 0.
144.465 -842.591 0.
341.624 -496.454 0.
-8.15404 -481.211 0.
74.6077 -280.274 0.
606.864 75.807 0.
578.279 9.37178 0.
549.693 -57.0654 0.
-47.0425 -397.651 0.
-107.662 -535.972 0.
-168.282 -674.293 0.
-303.298 -640.5 0.
-208.907 -417.298 0.
-114.515 -194.096 0.
119.283 -185.307 0.
52.8241 -342.248 0.
19.4959 -459.413 0.
96.4692 -284.652 0.
173.443 -109.892 0.
132.508 -101.158 0.
19.1155 -367.357 0.
-94.2781 -633.556 0.
-364.562 -690.519 0.
-215.235 -338.482 0.
-65.9082 13.5533 0.
1126.72 536.907 0.
1092.66 458.135 0.
-729.857 -388.3 0.
-157.98 -250.913 0.
-220.959 -389.792 0.
-271.158 -509.831 0.
-295.745 -564.936 0.
-320.332 -620.04 0.
-150.208 -513.683 0.
-87.5275 -366.854 0.
-24.8478 -220.025 0.
107.734 -149.397 0.
94.1135 -184.716 0.
80.4924 -220.035 0.
515.491 -33.4851 0.
512.051 -34.7779 0.
258.656 -133.979 0.
296.34 -36.9656 0.
334.022 60.0472 0.
-29.3022 -100.038 0.
-112.13 -289.755 0.
-194.958 -479.471 0.
-177.239 -515.718 0.
-156.826 -467.314 0.
-136.413 -418.907 0.
128.905 -401.19 0.
63.8955 -557.712 0.
1083.51 -243.259 0.
-130.346 -765.875 0.
-129.669 -765.466 0.
53.1244 -734.621 0.
-67.6603 -1014.76 0.
-188.445 -1294.9 0.
-321.417 -1263.51 0.
-62.4047 -660.606 0.
196.608 -57.7013 0.
181.897 -146.505 0.
-7.06149 -580.14 0.
-196.019 -1013.77 0.
51.6028 -888.007 0.
83.3733 -815.665 0.
-787.209 -1123.69 0.
-747.235 -1032.52 0.
-707.263 -941.337 0.
263.169 -524.569 0.
193.842 -688.312 0.
124.515 -852.055 0.
251.21 -714.296 0.
382.603 -407.241 0.
513.997 -100.184 0.
149.97 -414.127 0.
7.28307 -740.403 0.
748.932 -0.191721 0.
169.9 -181.288 0.
211.578 -89.9221 0.
633.993 114.142 0.
549.709 -85.1845 0.
465.425 -284.51 0.
-233.943 -619.211 0.
-174.438 -473.388 0.
-114.934 -327.567 0.
-157.842 -305.342 0.
-152.958 -293.993 0.
-148.074 -282.645 0.
-319.769 -319.403 0.
-309.659 -290.162 0.
99.2689 -132.709 0.
-78.8953 -550.157 0.
-257.06 -967.604 0.
-590.76 -1205.57 0.
-377.164 -706.721 0.
-163.568 -207.873 0.
63.9063 -208.255 0.
-196.165 -815.256 0.
-456.235 -1422.26 0.
-78.2209 -1168.4 0.
55.5115 -848.008 0.
617.549 -343.23 0.
-100.139 -488.349 0.
-17.568 -287.056 0.
218.52 -62.8129 0.
189.348 -128.467 0.
160.176 -194.122 0.
201.279 -257.726 0.
140.294 -395.975 0.
79.3096 -534.224 0.
32.6853 -465.177 0.
126.682 -241.346 0.
220.679 -17.5156 0.
160.019 -135.087 0.
93.7862 -292.331 0.
-448.723 -627.549 0.
-372.774 -452.804 0.
-296.824 -278.06 0.
316.928 10.5583 0.
202.323 -255.393 0.
87.7182 -521.345 0.
-273.386 -621.823 0.
-124.85 -269.345 0.
23.6853 83.1318 0.
966.537 498.253 0.
932.141 419.665 0.
-52.4433 -65.5942 0.
-120.14 -201.941 0.
-182.287 -341.306 0.
-257.579 -468.995 0.
-281.976 -524.846 0.
-306.374 -580.697 0.
-41.1506 -435.125 0.
21.0653 -288.558 0.
83.2806 -141.992 0.
-44.2801 -182.759 0.
-58.526 -217.238 0.
-72.7725 -251.716 0.
470.656 -23.6055 0.
467.841 -25.4862 0.
193.599 -128.895 0.
230.684 -31.7916 0.
267.767 65.3119 0.
-50.4346 -78.3287 0.
-133.843 -267.847 0.
-217.252 -457.364 0.
-180.297 -486.768 0.
-159.359 -438.421 0.
-138.421 -390.071 0.
174.918 -348.326 0.
110.286 -505.094 0.
910.713 -287.945 0.
-210.2 -768.891 0.
-210.837 -767.1 0.
394.553 -558.546 0.
273.671 -839.365 0.
152.789 -1120.19 0.
-559.419 -1333.23 0.
-299.311 -731.76 0.
-39.2006 -130.288 0.
-60.0106 -217.172 0.
-248.887 -650.7 0.
-437.762 -1084.22 0.
-35.5556 -893.447 0.
-4.23791 -821.31 0.
-343.694 -903.245 0.
-303.766 -811.943 0.
-263.839 -720.641 0.
293.5 -482.429 0.
223.796 -645.573 0.
154.092 -808.717 0.
-25.0204 -800.442 0.
105.813 -492.953 0.
236.647 -185.463 0.
-6.60748 -452.453 0.
-148.17 -779.96 0.
157.466 598.041 0.
-289.27 -762.262 0.
-217.714 -591.147 0.
221.88 -771.855 0.
507.194 -93.396 0.
816.831 639.235 0.
299.148 -3.25176 0.
434.309 317.633 0.
569.419 638.219 0.
88.19 827.204 0.
-166.687 234.221 0.
-603.81 -782.834 0.
-256.545 -283.085 0.
-95.45 92.2387 0.
-174.553 -978.051 0.
93.0798 -348.307 0.
-44.9546 -662.789 0.
-359.266 -812.272 0.
404.415 966.415 0.
765.544 1806.39 0.
132.658 430.024 0.
6.60293 134.79 0.
-305.481 -595.813 0.
358.726 55.8746 0.
292.345 -95.3712 0.
-212.319 -1266.75 0.
-196.694 -518.872 0.
-519.193 -1273.34 0.
-565.389 -1120.89 0.
-63.9465 52.0961 0.
-148.999 -140.097 0.
530.358 71.5248 0.
372.183 -295.326 0.
627.11 303.022 0.
646.773 357.968 0.
299.379 -448.313 0.
-231.105 -1681.93 0.
419.382 433.481 0.
615.14 888.787 0.
-906.889 -768.839 0.
-1201.23 -1451.89 0.
-701.88 -282.515 0.
833.067 898.557 0.
775.78 763.763 0.
428.312 -48.0178 0.
-63.6736 -265.713 0.
-62.7208 -263.909 0.
-578.062 -1466.71 0.
34.2026 -1341.12 0.
725.185 269.215 0.
-1030.29 -91.9624 0.
-280.793 -597.33 0.
-53.3208 -63.1288 0.
105.941 383.475 0.
-509.965 -1049.03 0.
-480.302 -975.236 0.
481.629 594.431 0.
602.463 879.528 0.
467.841 568.611 0.
50.8459 372.736 0.
-251.019 -335.985 0.
-46.2926 138.629 0.
640.127 480.05 0.
252.068 -422.064 0.
-203.119 -896.683 0.
-555.488 -1717.27 0.
655.203 1107.82 0.
59.1483 254.872 0.
204.233 583.416 0.
-521.528 -1118.73 0.
123.623 256.485 0.
332.879 739.794 0.
-65.7969 -193.006 0.
390.14 84.5935 0.
739.713 908.062 0.
398.011 124.723 0.
252.002 482.136 0.
122.909 178.093 0.
915.694 53.5873 0.
547.13 -806.347 0.
1549.13 1530.86 0.
20.7616 497.65 0.
-165.729 67.2763 0.
54.5945 585.456 0.
-44.7019 310.757 0.
9.74211 437.699 0.
-29.4752 345.137 0.
452.573 442.111 0.
244.327 -37.4691 0.
210.695 -420.18 0.
5.84482 -889.782 0.
603.445 510.791 0.
760.591 568.63 0.
811.936 697.273 0.
115.928 -918.091 0.
44.0433 -100.643 0.
42.6205 -106.127 0.
126.638 85.5634 0.
-109.188 -384.555 0.
-44.6686 -244.45 0.
1215.72 202.041 0.
57.5978 -379.962 0.
-6.24929 -525.352 0.
75.3911 -534.681 0.
183.983 -275.66 0.
292.571 -16.6361 0.
98.934 -48.6302 0.
19.3706 -237.284 0.
-60.1953 -425.937 0.
-472.645 -586.411 0.
-418.731 -461.827 0.
-364.818 -337.242 0.
-116.188 -322.567 0.
-175.808 -464.06 0.
-76.2897 -520.677 0.
-82.3403 -531.944 0.
-88.3896 -543.212 0.
-490.258 -707.86 0.
-462.406 -646.403 0.
-434.554 -584.948 0.
-14.6642 -268.048 0.
91.1007 -15.9347 0.
196.866 236.176 0.
24.4908 35.7703 0.
-89.7019 -237.319 0.
274.375 -305.667 0.
-57.6641 -475.092 0.
-67.4739 -506.058 0.
-226.132 -555.607 0.
-138.396 -351.698 0.
-50.6601 -147.79 0.
269.559 -28.949 0.
142.632 -327.374 0.
15.7051 -625.801 0.
200.746 -588.436 0.
227.68 -525.883 0.
254.615 -463.331 0.
110.562 -274.945 0.
258.63 71.1208 0.
-316.629 65.3527 0.
-372.518 -65.1803 0.
-428.406 -195.715 0.
175.729 -25.5172 0.
154.658 -82.5102 0.
133.585 -139.503 0.
-8.53498 -190.428 0.
14.658 -142.714 0.
37.8511 -95.0013 0.
343.219 34.8561 0.
334.527 13.0308 0.
-178.052 -225.004 0.
239.069 -66.1222 0.
227.144 -92.6849 0.
-172.742 -282.247 0.
-192.792 -320.969 0.
-212.842 -359.691 0.
83.0844 -191.212 0.
158.884 -18.7982 0.
234.685 153.616 0.
-45.5884 33.9909 0.
-80.7876 -49.4194 0.
-115.988 -132.829 0.
236.72 -41.2398 0.
203.102 -117.795 0.
205.877 -166.171 0.
237.961 -99.1347 0.
270.045 -32.0974 0.
5.19281 -107.625 0.
6.75165 -110.766 0.
8.31018 -113.909 0.
-143.412 -338.431 0.
-291.827 -680.652 0.
-440.243 -1022.87 0.
-385.884 -1011.78 0.
-358.622 -941.65 0.
355.989 -567.438 0.
-65.5016 -654.861 0.
-10.8105 -535.006 0.
410.871 -272.842 0.
422.435 -250.182 0.
433.998 -227.524 0.
-186.191 -402.732 0.
-86.0273 -169.718 0.
14.1382 63.2926 0.
-69.4451 104.143 0.
-54.1685 139.366 0.
-38.89 174.587 0.
-25.6403 -66.3022 0.
-175.861 -410.78 0.
-7.235 -571.814 0.
52.2789 -431.444 0.
111.794 -291.075 0.
261.532 -135.306 0.
276.634 -94.0588 0.
291.736 -52.8109 0.
276.485 -103.447 0.
224.642 -232.334 0.
172.799 -361.223 0.
-187.168 -301.638 0.
-22.6696 70.3916 0.
-434.935 -469.805 0.
295.549 -247.794 0.
232.364 -393.852 0.
-214.581 -625.885 0.
-104.293 -368.601 0.
5.99149 -111.313 0.
-100.733 -97.9766 0.
-178.162 -287.501 0.
-255.593 -477.024 0.
-399.931 -525.777 0.
-345.815 -401.66 0.
-291.701 -277.542 0.
96.0578 -196.726 0.
36.5099 -338.952 0.
-175.289 -532.967 0.
-181.247 -544.224 0.
-187.203 -555.481 0.
-687.172 -762.591 0.
-659.694 -700.235 0.
-632.215 -637.881 0.
182.052 -153.52 0.
287.88 99.5339 0.
393.708 352.585 0.
-353.565 -96.3621 0.
-467.823 -368.958 0.
-499.877 -607.225 0.
110.098 -370.321 0.
100.088 -401.024 0.
-85.858 -464.212 0.
1.49137 -259.992 0.
88.8414 -55.774 0.
18.9477 -104.548 0.
-108.466 -402.913 0.
-235.88 -701.279 0.
177.653 -566.564 0.
205.569 -504.726 0.
233.485 -442.888 0.
125.248 -236.275 0.
274.376 109.064 0.
-8.35627 229.522 0.
-64.5179 98.8195 0.
-120.679 -31.8848 0.
-119.612 -117.4 0.
-139.833 -175.192 0.
-160.054 -232.984 0.
44.9862 -136.106 0.
67.7845 -87.502 0.
90.5828 -38.8984 0.
24.7816 -70.1023 0.
16.5563 -91.9913 0.
466.452 80.9164 0.
607.199 124.909 0.
594.396 99.1748 0.
-144.768 -239.447 0.
-165.234 -278.102 0.
-185.7 -316.757 0.
28.449 -181.884 0.
104.748 -9.83876 0.
181.048 162.207 0.
32.5113 99.3481 0.
-3.08433 16.6012 0.
-38.6813 -66.1453 0.
33.43 -98.0102 0.
-1.39698 -173.005 0.
348.518 -75.0058 0.
379.924 -7.72368 0.
411.329 59.5593 0.
147.13 -15.9884 0.
147.865 -19.7418 0.
148.6 -23.4968 0.
-149.193 -310.383 0.
-297.968 -652.725 0.
-446.744 -995.066 0.
-750.818 -1139.34 0.
-722.679 -1069.32 0.
-401.876 -861.492 0.
160.728 -525.692 0.
216.051 -406.386 0.
-18.6597 -426.693 0.
-6.55161 -404.629 0.
5.55459 -382.565 0.
48.8636 -268.479 0.
150.454 -36.3867 0.
252.046 195.704 0.
24.1057 175.663 0.
40.2596 210.287 0.
56.4154 244.909 0.
-327.293 -162.558 0.
-476.94 -507.703 0.
-177.101 -611.739 0.
-117.709 -471.172 0.
-58.3153 -330.604 0.
37.7985 -201.7 0.
52.8259 -160.398 0.
67.8532 -119.094 0.
579.217 58.7278 0.
527.274 -70.7037 0.
475.329 -200.137 0.
-308.277 -326.397 0.
-144.614 45.6372 0.
931.963 -227.183 0.
279.142 -317.464 0.
425.066 19.487 0.
-63.6391 17.1877 0.
-85.6081 -29.246 0.
-107.581 -75.6776 0.
-141.017 -130.106 0.
-163.326 -176.458 0.
-185.639 -222.807 0.
-245.701 -358.739 0.
-328.514 -549.092 0.
-411.328 -739.444 0.
-105.825 -471.968 0.
-10.1543 -241.904 0.
-52.0344 -84.9604 0.
-20.7414 -12.2412 0.
10.5525 60.4771 0.
-403.783 -94.1662 0.
-427.89 -142.793 0.
-451.998 -191.418 0.
242.95 92.2221 0.
244.901 90.8724 0.
246.854 89.5208 0.
-494.731 -183.201 0.
-466.97 -115.698 0.
-26.7817 127.361 0.
225.469 -31.7796 0.
83.262 -362.137 0.
-55.4269 -629.395 0.
-28.4197 -569.959 0.
-1.41169 -510.523 0.
-277.132 -488.579 0.
-139.577 -172.285 0.
-2.02222 144.011 0.
446.05 358.914 0.
394.466 238.375 0.
342.882 117.835 0.
221.835 -31.466 0.
170.199 -150.91 0.
-68.1591 -332.517 0.
-11.862 -198.908 0.
44.4357 -65.2998 0.
-227.091 -58.2496 0.
-157.424 118.533 0.
-87.7593 295.315 0.
224.782 357.775 0.
95.8724 60.372 0.
-33.0374 -237.031 0.
-279.449 -573.473 0.
-399.823 -849.717 0.
-701.763 -1203.88 0.
446.523 -520.536 0.
550.855 -281.7 0.
-321.976 -463.354 0.
-221.927 -234.024 0.
-121.879 -4.6926 0.
76.738 136.642 0.
19.9278 9.75194 0.
-36.8823 -117.138 0.
-31.3176 -171.337 0.
-47.8684 -214.184 0.
-64.4193 -257.029 0.
-33.7852 -445.013 0.
-147.161 -713.964 0.
-53.3622 -857.714 0.
-19.9641 -780.485 0.
13.4341 -703.255 0.
-40.0734 -578.913 0.
130.336 -178.935 0.
300.743 221.042 0.
33.9395 188.73 0.
-16.8249 65.9548 0.
-67.5899 -56.8208 0.
-488.955 -244.087 0.
-483.058 -219.154 0.
-816.334 -345.641 0.
312.903 -86.3728 0.
190.45 -364.182 0.
-289.64 -666.653 0.
-98.7135 -214.586 0.
92.213 237.478 0.
341.467 478.822 0.
255.865 278.203 0.
170.262 77.5831 0.
-35.2372 -72.2705 0.
-36.924 -73.4 0.
-38.6097 -74.5302 0.
-333.354 -142.402 0.
-294.379 -56.1837 0.
86.0232 154.397 0.
13.6974 -12.7777 0.
-58.6258 -179.953 0.
-116.211 -293.691 0.
-118.608 -302.443 0.
-121.005 -311.193 0.
456.422 -74.0035 0.
453.292 -76.4086 0.
450.162 -78.8143 0.
-264.186 -257.033 0.
-174.195 -48.2755 0.
1055.14 -143.223 0.
119.719 -354.125 0.
265.685 -17.1775 0.
-63.509 48.5658 0.
-83.2196 1.7238 0.
-102.934 -45.1161 0.
12.0113 -31.1009 0.
-8.05712 -78.5427 0.
-28.1294 -125.982 0.
-96.7989 -263.711 0.
-178.834 -454.723 0.
-260.869 -645.734 0.
-489.967 -603.587 0.
-392.994 -374.863 0.
-95.5892 -73.374 0.
-64.2541 -0.880804 0.
-32.9181 71.6113 0.
-186.891 33.0172 0.
-210.219 -16.4639 0.
-233.548 -65.9446 0.
-14.2632 11.3382 0.
-14.1145 11.9807 0.
-13.9643 12.6219 0.
-349.823 -91.1381 0.
-322.32 -23.6241 0.
-481.271 -35.444 0.
25.0409 -84.3208 0.
-117.304 -414.92 0.
95.7432 -534.122 0.
121.845 -474.431 0.
147.947 -414.74 0.
-297.479 -464.402 0.
-159.977 -148.381 0.
-22.4743 167.642 0.
192.79 282.396 0.
141.705 161.126 0.
90.6202 39.8555 0.
249.263 10.1028 0.
198.756 -109.962 0.
83.636 -234.541 0.
139.969 -101.189 0.
196.303 32.1634 0.
-250.604 -36.127 0.
-180.427 139.852 0.
-110.25 315.83 0.
111.555 338.576 0.
-17.4234 41.2372 0.
-146.402 -256.101 0.
-134.96 -476.739 0.
-253.714 -753.773 0.
581.046 -622.708 0.
388.454 -512.414 0.
492.672 -273.02 0.
-480.027 -500.928 0.
-380.26 -271.326 0.
-280.492 -41.7224 0.
-59.9448 112.928 0.
-114.719 -15.66 0.
-169.494 -144.249 0.
39.4819 -110.018 0.
23.5212 -151.691 0.
7.56047 -193.362 0.
419.326 -219.362 0.
306.715 -488.302 0.
-332.539 -946.362 0.
-298.931 -869.194 0.
-265.321 -792.026 0.
-18.9543 -537.263 0.
151.421 -138.561 0.
321.795 260.14 0.
5.15737 210.121 0.
-45.8685 86.5675 0.
-96.8951 -36.9857 0.
-396.858 -173.638 0.
-389.618 -149.719 0.
-5.45093 35.1928 0.
35.0126 -173.502 0.
-86.4548 -451.282 0.
-270.766 -624.909 0.
-79.0358 -173.477 0.
112.695 277.952 0.
67.3461 392.893 0.
-17.6109 191.956 0.
-102.567 -8.98194 0.
25.3176 -12.5829 0.
24.6063 -14.6446 0.
23.8962 -16.7069 0.
-41.5121 15.0918 0.
-2.61962 101.338 0.
126.71 205.328 0.
55.6825 37.5382 0.
-15.3427 -130.253 0.
-132.578 -273.416 0.
-134.96 -281.679 0.
-137.341 -289.94 0.
37.6871 -220.189 0.
35.0461 -222.821 0.
32.4051 -225.454 0.
-103.44 -157.169 0.
-13.4524 51.9677 0.
182.86 -177.501 0.
22.9826 -249.092 0.
257.883 307.233 0.
494.49 1338.88 0.
31.0287 276.325 0.
275.443 865.426 0.
418.847 626.769 0.
1.50352 -332.97 0.
114.044 -57.1113 0.
122.345 2.64673 0.
16.1541 -244.307 0.
73.568 -109.729 0.
-435.991 264.781 0.
-467.278 187.407 0.
-412.097 -696.646 0.
246.53 835.162 0.
-471.727 -844.261 0.
157.619 441.489 0.
-216.43 -434.845 0.
235.775 616.371 0.
18.9162 611.709 0.
-332.569 -219.839 0.
-514.668 -656.579 0.
-174.723 90.1616 0.
-254.484 -96.0664 0.
558.789 -305.67 0.
-196.535 -188.481 0.
216.019 779.135 0.
445.125 28.0813 0.
931.421 1165.76 0.
872.286 1034.73 0.
-324.766 -455.803 0.
90.5952 515.311 0.
-633.846 -1170.59 0.
-188.328 -123.664 0.
-128.642 19.3099 0.
185.195 755.318 0.
36.9786 -494.415 0.
-89.6008 -793.248 0.
477.837 425.6 0.
505.861 492.672 0.
258.8 -82.3379 0.
-114.452 366.617 0.
38.3548 723.313 0.
-269.79 4.85672 0.
57.7518 447.232 0.
-123.374 34.6404 0.
-444.445 -704.21 0.
58.1638 -259.559 0.
224.619 125.066 0.
-1781.76 -176.137 0.
462.748 -193.948 0.
423.979 -286.485 0.
-355.108 120.725 0.
-183.277 519.557 0.
-504.254 -232.125 0.
-460.123 -544.19 0.
56.4026 663.364 0.
45.4203 640.578 0.
38.8211 -201.77 0.
44.7034 -187.187 0.
386.877 611.472 0.
898.082 53.9413 0.
1003.07 303.771 0.
-47.0275 267.85 0.
-194.092 -77.7148 0.
-168.905 -20.5702 0.
191.549 -26.3444 0.
25.0034 -419.472 0.
277.888 162.947 0.
-454.072 -777.375 0.
-590.859 -1100.09 0.
81.1389 463.621 0.
-151.847 262.166 0.
27.3339 679.449 0.
1730.68 840.226 0.
106.808 551.679 0.
-102.378 73.8406 0.
-197.633 -471.865 0.
595.68 1390.53 0.
-180.5 -408.697 0.
-387.189 -124.666 0.
-119.566 501.899 0.
-348.39 -29.8653 0.
-333.309 -930.818 0.
-202.19 -632.081 0.
246.245 408.94 0.
168.495 -10.3826 0.
89.6455 -198.314 0.
54.7259 8.50715 0.
165.549 269.375 0.
106.522 133.322 0.
-148.351 -275.349 0.
397.994 999.623 0.
-33.3513 -6.71621 0.
-355.052 -317.789 0.
-339.759 -286.461 0.
-325.741 -256.51 0.
232.99 407.414 0.
-4.08924 -143.461 0.
817.706 295.962 0.
-57.9754 109.57 0.
-23.1524 197.038 0.
15.3096 253.003 0.
-45.1809 119.233 0.
-105.675 -14.5337 0.
120.921 26.767 0.
125.075 40.6743 0.
129.222 54.5842 0.
24.5908 43.6209 0.
40.0604 84.3189 0.
55.5309 125.014 0.
-704.461 -275.308 0.
-753.657 -385.917 0.
-400.806 -302.958 0.
-357.45 -207.235 0.
-314.094 -111.513 0.
13.0107 28.6477 0.
-64.2677 -155.249 0.
-141.548 -339.146 0.
-195.863 -351.411 0.
-122.595 -195.751 0.
-49.327 -40.089 0.
-556.582 -356.646 0.
-632.562 -537.426 0.
39.454 -399.865 0.
-234.28 -404.035 0.
-177.006 -270.747 0.
264.869 -18.6612 0.
203.179 -163.771 0.
141.489 -308.879 0.
-177.83 -404.458 0.
-55.9954 -113.855 0.
65.8392 176.746 0.
-400.256 -69.7647 0.
-492.967 -285.698 0.
-585.677 -501.631 0.
272.559 -119.914 0.
281.245 -95.8557 0.
72.9506 -179.998 0.
55.1183 -220.725 0.
37.2859 -261.452 0.
-127.533 -319.834 0.
-67.4761 -188.465 0.
-7.41792 -57.0956 0.
-113.272 -96.0748 0.
-155.198 -194.721 0.
-197.123 -293.366 0.
-44.293 -222.553 0.
-33.7673 -197.447 0.
-866.708 -532.674 0.
-40.5489 -131.493 0.
-12.0843 -72.3919 0.
-31.5705 -48.1847 0.
-46.8332 -89.8672 0.
-62.0962 -131.55 0.
33.9693 -42.3904 0.
113.98 148.25 0.
193.991 338.889 0.
113.204 310.256 0.
71.3961 215.291 0.
29.5892 120.328 0.
627.868 245.951 0.
552.069 69.5489 0.
-387.813 -450.925 0.
-296.548 -239.681 0.
-205.284 -28.4395 0.
457.22 311.647 0.
359.663 82.7167 0.
262.102 -146.213 0.
-106.936 -314.205 0.
-33.205 -145.525 0.
40.5271 23.1522 0.
-364.683 -141.503 0.
-380.651 -183.459 0.
-1250.87 -588.837 0.
-201.18 39.5525 0.
-103.25 261.843 0.
-50.0709 373.617 0.
-172.373 89.1638 0.
-294.674 -195.289 0.
-366.723 -310.538 0.
-308.595 -168.215 0.
-250.467 -25.8926 0.
76.5075 113.572 0.
43.3945 37.3683 0.
10.2794 -38.8329 0.
101.367 -38.5389 0.
86.2505 -76.4274 0.
-10.5454 -116.483 0.
130.917 217.322 0.
272.38 551.126 0.
62.6311 602.276 0.
-3.87082 441.943 0.
-70.3731 281.608 0.
-182.242 96.9445 0.
-249.86 -64.6467 0.
-317.477 -226.239 0.
-169.428 -89.3423 0.
-100.918 72.443 0.
-360.369 -178.093 0.
-326.334 25.5787 0.
-290.633 112.084 0.
15.6568 284.051 0.
-42.2381 149.626 0.
-100.137 15.2039 0.
99.7933 54.4223 0.
107.808 67.4988 0.
115.818 80.5776 0.
-106.917 18.2771 0.
-91.5882 60.0859 0.
-76.2587 101.892 0.
-729.843 -257.494 0.
-780.949 -366.747 0.
-581.263 -350.015 0.
-536.912 -254.513 0.
-492.561 -159.011 0.
64.7636 79.0177 0.
-12.239 -104.905 0.
-89.2431 -288.827 0.
62.9945 -205.306 0.
137.895 -50.2228 0.
212.796 104.863 0.
-773.021 -416.96 0.
-848.906 -597.259 0.
-52.4285 -408.124 0.
-143.752 -336.834 0.
-87.2126 -202.174 0.
89.2606 -62.8857 0.
26.4431 -208.019 0.
-36.3742 -353.15 0.
-16.8243 -305.955 0.
103.734 -14.8831 0.
224.293 276.187 0.
-660.158 -149.208 0.
-753.063 -365.783 0.
-845.967 -582.357 0.
378.272 -42.19 0.
388.861 -20.3469 0.
-91.171 -219.514 0.
-109.108 -259.936 0.
-127.045 -300.358 0.
242.511 -130.65 0.
301.916 1.39479 0.
361.323 133.44 0.
-15.486 -23.0228 0.
-56.9658 -120.835 0.
-98.4452 -218.647 0.
-170.871 -241.462 0.
-158.994 -217.318 0.
-412.839 -304.545 0.
-672.607 -370.702 0.
-643.685 -312.583 0.
473.225 198.785 0.
458.224 157.113 0.
443.223 115.44 0.
400.565 149.96 0.
481.943 339.462 0.
563.321 528.962 0.
-50.3238 272.101 0.
-93.0209 178.627 0.
-135.717 85.1547 0.
208.225 93.3364 0.
134.37 -83.531 0.
-407.894 -425.75 0.
-316 -215.377 0.
-224.107 -5.00538 0.
616.725 413.824 0.
518.64 184.547 0.
420.55 -44.7297 0.
97.9 -193.024 0.
172.139 -25.1564 0.
246.379 142.71 0.
-398.956 -126.194 0.
-415.32 -167.431 0.
-427.029 -204.417 0.
-295.822 28.3744 0.
-197.977 250.03 0.
-284.587 306.289 0.
-406.093 21.7238 0.
-527.598 -262.842 0.
-230.663 -221.998 0.
-172.416 -78.8718 0.
-114.17 64.2544 0.
44.2406 129.308 0.
10.0012 54.6103 0.
-24.24 -20.0854 0.
51.841 -29.163 0.
36.5589 -67.3111 0.
-13.5487 -86.9479 0.
128.119 246.982 0.
269.787 580.911 0.
-121.927 554.026 0.
-187.53 392.347 0.
-253.133 230.666 0.
-174.741 134.844 0.
-241.355 -27.3617 0.
-307.967 -189.569 0.
-382.263 -151.514 0.
-313.136 11.1514 0.
