# vtk DataFile Version 2.0
test grain
ASCII
DATASET UNSTRUCTURED_GRID
POINTS 5000 float
0.499951 0.00100054 0.
0.501952 0.00100052 0.
0.503954 0.00100046 0.
0.505955 0.00100044 0.
0.507956 0.00100056 0.
0.509956 0.00100069 0.
0.511957 0.00100063 0.
0.513958 0.00100032 0.
0.515959 0.001 0.
0.51796 0.00100004 0.
0.519961 0.00100026 0.
0.521961 0.00100047 0.
0.523962 0.0010004 0.
0.525963 0.00100028 0.
0.527964 0.0010002 0.
0.529964 0.00100048 0.
0.531965 0.00100076 0.
0.533965 0.00100083 0.
0.535966 0.00100042 0.
0.537967 0.00100002 0.
0.539968 0.000999998 0.
0.54197 0.00100029 0.
0.543971 0.00100058 0.
0.545972 0.00100066 0.
0.547973 0.00100066 0.
0.549973 0.00100066 0.
0.551973 0.0010008 0.
0.553973 0.00100094 0.
0.555972 0.00100099 0.
0.557973 0.00100066 0.
0.559974 0.00100033 0.
0.561974 0.00100027 0.
0.563973 0.00100057 0.
0.565973 0.00100087 0.
0.567973 0.00100074 0.
0.569974 0.00100037 0.
0.571974 0.00100001 0.
0.573974 0.00100006 0.
0.575973 0.00100016 0.
0.577973 0.0010003 0.
0.579972 0.00100076 0.
0.581972 0.00100122 0.
0.583971 0.00100161 0.
0.585968 0.00100184 0.
0.587966 0.00100208 0.
0.589962 0.00100172 0.
0.591958 0.00100087 0.
0.593954 0.00100002 0.
0.595966 0.00100073 0.
0.597983 0.00100193 0.
0.600001 0.00100313 0.
0.602015 0.00100198 0.
0.60403 0.00100084 0.
0.606041 0.0010001 0.
0.608038 0.00100065 0.
0.610036 0.0010012 0.
0.612034 0.00100145 0.
0.614032 0.00100135 0.
0.616031 0.00100125 0.
0.618029 0.00100132 0.
0.620028 0.00100146 0.
0.622026 0.00100161 0.
0.624025 0.00100129 0.
0.626024 0.00100093 0.
0.628023 0.00100059 0.
0.630023 0.00100034 0.
0.632023 0.0010001 0.
0.634024 0.00100001 0.
0.636025 0.00100021 0.
0.638027 0.00100042 0.
0.640027 0.00100055 0.
0.642028 0.00100062 0.
0.644028 0.00100069 0.
0.646028 0.00100097 0.
0.648028 0.00100129 0.
0.650028 0.00100159 0.
0.652028 0.00100107 0.
0.654029 0.00100054 0.
0.656029 0.00100013 0.
0.65803 0.00100006 0.
0.660031 0.000999997 0.
0.662033 0.000999995 0.
0.664035 0.00100007 0.
0.666036 0.00100014 0.
0.668038 0.00100033 0.
0.670038 0.00100055 0.
0.672039 0.00100078 0.
0.674039 0.00100054 0.
0.67604 0.00100026 0.
0.67804 0.00100005 0.
0.680041 0.00100032 0.
0.682043 0.00100058 0.
0.684044 0.00100073 0.
0.686044 0.00100068 0.
0.688045 0.00100063 0.
0.690046 0.00100068 0.
0.692047 0.00100081 0.
0.694048 0.00100093 0.
0.696047 0.00100087 0.
0.698047 0.00100077 0.
0.499951 0.00300162 0.
0.501953 0.00300157 0.
0.503954 0.00300138 0.
0.505956 0.00300131 0.
0.507956 0.00300169 0.
0.509957 0.00300206 0.
0.511957 0.00300188 0.
0.513958 0.00300095 0.
0.515959 0.00300001 0.
0.51796 0.00300011 0.
0.519961 0.00300076 0.
0.521962 0.00300142 0.
0.523963 0.00300119 0.
0.525963 0.00300084 0.
0.527964 0.0030006 0.
0.529964 0.00300144 0.
0.531965 0.00300229 0.
0.533965 0.00300248 0.
0.535966 0.00300127 0.
0.537967 0.00300006 0.
0.539968 0.00299999 0.
0.54197 0.00300087 0.
0.543972 0.00300175 0.
0.545973 0.00300197 0.
0.547973 0.00300198 0.
0.549973 0.00300198 0.
0.551973 0.0030024 0.
0.553973 0.00300283 0.
0.555973 0.00300295 0.
0.557973 0.00300197 0.
0.559973 0.00300098 0.
0.561973 0.00300082 0.
0.563973 0.00300172 0.
0.565973 0.00300262 0.
0.567973 0.00300221 0.
0.569973 0.00300112 0.
0.571973 0.00300003 0.
0.573974 0.00300017 0.
0.575974 0.00300048 0.
0.577975 0.00300089 0.
0.579974 0.00300228 0.
0.581974 0.00300367 0.
0.583973 0.00300483 0.
0.58597 0.00300553 0.
0.587968 0.00300623 0.
0.589965 0.00300515 0.
0.591963 0.0030026 0.
0.593961 0.00300005 0.
0.595972 0.0030022 0.
0.597986 0.00300579 0.
0.600001 0.00300938 0.
0.602013 0.00300595 0.
0.604026 0.00300252 0.
0.606035 0.00300029 0.
0.608034 0.00300194 0.
0.610033 0.00300359 0.
0.612032 0.00300436 0.
0.614031 0.00300406 0.
0.616029 0.00300375 0.
0.618028 0.00300395 0.
0.620027 0.00300438 0.
0.622026 0.00300482 0.
0.624024 0.00300388 0.
0.626023 0.00300279 0.
0.628021 0.00300176 0.
0.630022 0.00300103 0.
0.632023 0.00300029 0.
0.634024 0.00300003 0.
0.636025 0.00300064 0.
0.638027 0.00300126 0.
0.640028 0.00300165 0.
0.642028 0.00300186 0.
0.644029 0.00300208 0.
0.646029 0.0030029 0.
0.648028 0.00300387 0.
0.650028 0.00300478 0.
0.652027 0.00300321 0.
0.654027 0.00300163 0.
0.656027 0.00300039 0.
0.658029 0.00300019 0.
0.660031 0.00299999 0.
0.662033 0.00299998 0.
0.664035 0.0030002 0.
0.666037 0.00300043 0.
0.668038 0.00300098 0.
0.670038 0.00300166 0.
0.672039 0.00300234 0.
0.674039 0.00300162 0.
0.67604 0.00300078 0.
0.67804 0.00300016 0.
0.680041 0.00300095 0.
0.682042 0.00300173 0.
0.684042 0.00300218 0.
0.686043 0.00300203 0.
0.688044 0.00300188 0.
0.690045 0.00300205 0.
0.692046 0.00300242 0.
0.694047 0.0030028 0.
0.696047 0.00300262 0.
0.698048 0.00300231 0.
0.499952 0.00500268 0.
0.501954 0.0050026 0.
0.503955 0.0050023 0.
0.505957 0.0050022 0.
0.507957 0.00500281 0.
0.509957 0.00500343 0.
0.511958 0.00500314 0.
0.513959 0.00500158 0.
0.515959 0.00500002 0.
0.51796 0.00500018 0.
0.519962 0.00500127 0.
0.521963 0.00500236 0.
0.523963 0.00500199 0.
0.525964 0.00500139 0.
0.527964 0.00500099 0.
0.529965 0.0050024 0.
0.531965 0.00500381 0.
0.533966 0.00500413 0.
0.535966 0.00500212 0.
0.537967 0.00500011 0.
0.539969 0.00499999 0.
0.541971 0.00500145 0.
0.543973 0.00500292 0.
0.545973 0.00500328 0.
0.547973 0.00500329 0.
0.549973 0.0050033 0.
0.551973 0.005004 0.
0.553973 0.00500471 0.
0.555973 0.00500492 0.
0.557973 0.00500327 0.
0.559972 0.00500163 0.
0.561972 0.00500136 0.
0.563973 0.00500286 0.
0.565973 0.00500437 0.
0.567973 0.00500368 0.
0.569973 0.00500187 0.
0.571973 0.00500006 0.
0.573974 0.00500029 0.
0.575975 0.00500079 0.
0.577976 0.00500149 0.
0.579976 0.0050038 0.
0.581976 0.00500612 0.
0.583974 0.00500804 0.
0.585972 0.00500921 0.
0.58797 0.00501039 0.
0.589968 0.00500857 0.
0.591968 0.00500432 0.
0.593968 0.00500006 0.
0.595977 0.00500369 0.
0.597989 0.00500965 0.
0.600001 0.00501561 0.
0.602011 0.00500991 0.
0.604021 0.0050042 0.
0.606029 0.00500047 0.
0.608029 0.00500323 0.
0.61003 0.00500598 0.
0.61203 0.00500725 0.
0.614029 0.00500675 0.
0.616028 0.00500625 0.
0.618027 0.00500657 0.
0.620026 0.0050073 0.
0.622025 0.00500803 0.
0.624024 0.00500646 0.
0.626021 0.00500465 0.
0.62802 0.00500293 0.
0.630021 0.00500171 0.
0.632022 0.00500049 0.
0.634023 0.00500005 0.
0.636025 0.00500107 0.
0.638027 0.00500209 0.
0.640029 0.00500274 0.
0.642029 0.00500311 0.
0.64403 0.00500347 0.
0.646029 0.00500482 0.
0.648029 0.00500643 0.
0.650028 0.00500798 0.
0.652026 0.00500535 0.
0.654025 0.00500272 0.
0.656025 0.00500065 0.
0.658028 0.00500032 0.
0.660032 0.00499999 0.
0.662034 0.00499997 0.
0.664036 0.00500034 0.
0.666038 0.00500071 0.
0.668038 0.00500162 0.
0.670038 0.00500276 0.
0.672038 0.0050039 0.
0.674039 0.00500269 0.
0.67604 0.00500129 0.
0.67804 0.00500027 0.
0.68004 0.00500158 0.
0.68204 0.00500289 0.
0.684041 0.00500364 0.
0.686042 0.00500338 0.
0.688044 0.00500313 0.
0.690045 0.00500341 0.
0.692045 0.00500404 0.
0.694046 0.00500466 0.
0.696047 0.00500437 0.
0.698049 0.00500385 0.
0.499954 0.00700496 0.
0.501955 0.0070048 0.
0.503956 0.00700457 0.
0.505957 0.00700454 0.
0.507958 0.00700532 0.
0.509958 0.0070061 0.
0.511959 0.00700639 0.
0.513959 0.00700596 0.
0.51596 0.00700554 0.
0.517961 0.00700575 0.
0.519962 0.00700633 0.
0.521963 0.00700691 0.
0.523963 0.00700698 0.
0.525964 0.00700697 0.
0.527965 0.007007 0.
0.529965 0.00700749 0.
0.531966 0.00700798 0.
0.533966 0.00700842 0.
0.535967 0.00700873 0.
0.537968 0.00700904 0.
0.539969 0.0070093 0.
0.54197 0.00700949 0.
0.543972 0.00700968 0.
0.545972 0.00700943 0.
0.547972 0.00700904 0.
0.549972 0.00700865 0.
0.551973 0.00700892 0.
0.553973 0.00700919 0.
0.555973 0.00700933 0.
0.557973 0.00700897 0.
0.559973 0.00700861 0.
0.561973 0.0070088 0.
0.563973 0.00700971 0.
0.565974 0.00701063 0.
0.567974 0.007011 0.
0.569974 0.0070111 0.
0.571974 0.00701121 0.
0.573975 0.00701138 0.
0.575975 0.00701156 0.
0.577976 0.0070118 0.
0.579976 0.00701263 0.
0.581976 0.00701346 0.
0.583975 0.00701405 0.
0.585975 0.00701413 0.
0.587974 0.00701422 0.
0.589974 0.00701256 0.
0.591974 0.00700949 0.
0.593975 0.00700642 0.
0.595982 0.00701003 0.
0.597991 0.0070156 0.
0.600001 0.00702117 0.
0.602009 0.00701598 0.
0.604017 0.00701079 0.
0.606024 0.00700737 0.
0.608024 0.00700978 0.
0.610025 0.00701219 0.
0.612025 0.00701334 0.
0.614025 0.00701296 0.
0.616025 0.00701259 0.
0.618025 0.0070125 0.
0.620025 0.00701257 0.
0.622024 0.00701265 0.
0.624023 0.00701179 0.
0.626022 0.00701084 0.
0.628021 0.00701002 0.
0.630022 0.00701006 0.
0.632022 0.00701011 0.
0.634023 0.00701015 0.
0.636025 0.00701016 0.
0.638026 0.00701017 0.
0.640027 0.00701025 0.
0.642027 0.00701039 0.
0.644028 0.00701053 0.
0.646028 0.00701088 0.
0.648028 0.00701129 0.
0.650028 0.00701169 0.
0.652028 0.00701117 0.
0.654028 0.00701066 0.
0.656028 0.00701032 0.
0.65803 0.00701051 0.
0.660032 0.00701071 0.
0.662033 0.00701047 0.
0.664034 0.00700974 0.
0.666035 0.007009 0.
0.668036 0.00700853 0.
0.670037 0.00700818 0.
0.672037 0.00700784 0.
0.674038 0.00700694 0.
0.676039 0.007006 0.
0.678039 0.00700523 0.
0.68004 0.00700559 0.
0.68204 0.00700595 0.
0.684041 0.00700621 0.
0.686042 0.00700626 0.
0.688043 0.00700631 0.
0.690044 0.00700648 0.
0.692045 0.00700672 0.
0.694046 0.00700695 0.
0.696047 0.00700683 0.
0.698048 0.0070066 0.
0.499955 0.00900716 0.
0.501956 0.009007 0.
0.503957 0.00900683 0.
0.505957 0.00900688 0.
0.507958 0.00900783 0.
0.509959 0.00900878 0.
0.51196 0.00900963 0.
0.51396 0.00901034 0.
0.515961 0.00901105 0.
0.517961 0.00901133 0.
0.519962 0.00901139 0.
0.521963 0.00901145 0.
0.523963 0.00901197 0.
0.525964 0.00901255 0.
0.527965 0.00901302 0.
0.529966 0.00901258 0.
0.531966 0.00901215 0.
0.533967 0.0090127 0.
0.535968 0.00901534 0.
0.537969 0.00901798 0.
0.539969 0.00901861 0.
0.54197 0.00901752 0.
0.543971 0.00901644 0.
0.545971 0.00901558 0.
0.547971 0.00901479 0.
0.549972 0.009014 0.
0.551972 0.00901383 0.
0.553973 0.00901368 0.
0.555973 0.00901375 0.
0.557973 0.00901467 0.
0.559974 0.00901559 0.
0.561974 0.00901623 0.
0.563974 0.00901656 0.
0.565975 0.00901689 0.
0.567975 0.00901831 0.
0.569975 0.00902033 0.
0.571975 0.00902236 0.
0.573975 0.00902248 0.
0.575976 0.00902233 0.
0.577976 0.00902211 0.
0.579976 0.00902146 0.
0.581976 0.00902081 0.
0.583976 0.00902004 0.
0.585977 0.00901905 0.
0.587978 0.00901806 0.
0.589979 0.00901654 0.
0.59198 0.00901465 0.
0.593981 0.00901277 0.
0.595987 0.00901638 0.
0.597994 0.00902155 0.
0.600001 0.00902672 0.
0.602007 0.00902205 0.
0.604013 0.00901738 0.
0.606018 0.00901427 0.
0.608019 0.00901634 0.
0.61002 0.0090184 0.
0.612021 0.00901942 0.
0.614022 0.00901917 0.
0.616023 0.00901892 0.
0.618023 0.00901843 0.
0.620023 0.00901785 0.
0.622023 0.00901728 0.
0.624023 0.00901714 0.
0.626023 0.00901704 0.
0.628023 0.00901711 0.
0.630023 0.00901842 0.
0.632023 0.00901973 0.
0.634024 0.00902025 0.
0.636024 0.00901925 0.
0.638025 0.00901825 0.
0.640025 0.00901777 0.
0.642025 0.00901768 0.
0.644026 0.0090176 0.
0.646027 0.00901694 0.
0.648028 0.00901616 0.
0.650029 0.0090154 0.
0.65203 0.009017 0.
0.654031 0.0090186 0.
0.656031 0.00901999 0.
0.658032 0.00902071 0.
0.660032 0.00902143 0.
0.662032 0.00902097 0.
0.664032 0.00901913 0.
0.666033 0.0090173 0.
0.668034 0.00901545 0.
0.670035 0.00901361 0.
0.672036 0.00901178 0.
0.674037 0.00901119 0.
0.676037 0.00901071 0.
0.678038 0.00901018 0.
0.680039 0.00900959 0.
0.682039 0.009009 0.
0.68404 0.00900879 0.
0.686042 0.00900914 0.
0.688043 0.00900949 0.
0.690044 0.00900955 0.
0.692044 0.00900939 0.
0.694045 0.00900924 0.
0.696046 0.00900929 0.
0.698047 0.00900936 0.
0.499956 0.011009 0.
0.501957 0.0110089 0.
0.503957 0.0110087 0.
0.505958 0.0110087 0.
0.507959 0.0110098 0.
0.509959 0.0110108 0.
0.51196 0.0110119 0.
0.513961 0.0110128 0.
0.515961 0.0110138 0.
0.517962 0.0110142 0.
0.519962 0.0110141 0.
0.521963 0.0110141 0.
0.523963 0.0110149 0.
0.525964 0.0110157 0.
0.527965 0.0110163 0.
0.529966 0.0110155 0.
0.531967 0.0110148 0.
0.533967 0.0110153 0.
0.535968 0.0110186 0.
0.537969 0.011022 0.
0.539969 0.0110227 0.
0.54197 0.0110213 0.
0.54397 0.0110199 0.
0.545971 0.0110189 0.
0.547971 0.011018 0.
0.549972 0.0110172 0.
0.551972 0.0110169 0.
0.553973 0.0110166 0.
0.555973 0.0110167 0.
0.557974 0.011018 0.
0.559974 0.0110193 0.
0.561975 0.0110202 0.
0.563975 0.0110206 0.
0.565975 0.0110209 0.
0.567975 0.0110226 0.
0.569976 0.0110251 0.
0.571976 0.0110276 0.
0.573976 0.0110278 0.
0.575977 0.0110276 0.
0.577977 0.0110273 0.
0.579977 0.011026 0.
0.581978 0.0110247 0.
0.583979 0.0110233 0.
0.58598 0.0110219 0.
0.587981 0.0110204 0.
0.589983 0.0110191 0.
0.591985 0.011018 0.
0.593986 0.0110168 0.
0.59599 0.0110199 0.
0.597995 0.011024 0.
0.6 0.0110282 0.
0.602005 0.0110245 0.
0.60401 0.0110209 0.
0.606014 0.0110185 0.
0.608015 0.0110202 0.
0.610017 0.0110218 0.
0.612018 0.0110226 0.
0.614019 0.0110225 0.
0.61602 0.0110223 0.
0.618021 0.0110218 0.
0.620021 0.0110211 0.
0.622021 0.0110204 0.
0.624022 0.0110206 0.
0.626022 0.0110208 0.
0.628023 0.0110213 0.
0.630023 0.0110229 0.
0.632023 0.0110246 0.
0.634024 0.0110252 0.
0.636024 0.0110237 0.
0.638024 0.0110223 0.
0.640024 0.0110216 0.
0.642025 0.0110213 0.
0.644025 0.011021 0.
0.646026 0.0110201 0.
0.648028 0.0110189 0.
0.650029 0.0110178 0.
0.65203 0.0110202 0.
0.654032 0.0110227 0.
0.656032 0.0110247 0.
0.658032 0.0110257 0.
0.660032 0.0110266 0.
0.662032 0.0110261 0.
0.664032 0.0110238 0.
0.666032 0.0110215 0.
0.668033 0.011019 0.
0.670034 0.0110165 0.
0.672035 0.0110139 0.
0.674036 0.0110136 0.
0.676037 0.0110134 0.
0.678038 0.0110131 0.
0.680039 0.0110121 0.
0.682039 0.0110112 0.
0.68404 0.0110107 0.
0.686041 0.011011 0.
0.688042 0.0110114 0.
0.690043 0.0110114 0.
0.692044 0.0110111 0.
0.694045 0.0110109 0.
0.696045 0.0110111 0.
0.698046 0.0110115 0.
0.499956 0.0130105 0.
0.501957 0.0130104 0.
0.503957 0.01301 0.
0.505958 0.01301 0.
0.507959 0.0130111 0.
0.50996 0.0130122 0.
0.51196 0.013013 0.
0.513961 0.0130135 0.
0.515961 0.0130139 0.
0.517962 0.0130142 0.
0.519962 0.0130146 0.
0.521963 0.0130149 0.
0.523964 0.0130156 0.
0.525964 0.0130164 0.
0.527965 0.013017 0.
0.529966 0.0130164 0.
0.531966 0.0130158 0.
0.533967 0.0130162 0.
0.535968 0.0130186 0.
0.537969 0.013021 0.
0.539969 0.0130217 0.
0.54197 0.0130209 0.
0.543971 0.0130201 0.
0.545971 0.0130194 0.
0.547972 0.0130188 0.
0.549972 0.0130181 0.
0.551973 0.0130181 0.
0.553973 0.0130181 0.
0.555974 0.0130182 0.
0.557974 0.0130191 0.
0.559974 0.0130199 0.
0.561975 0.0130208 0.
0.563975 0.0130217 0.
0.565976 0.0130227 0.
0.567976 0.013024 0.
0.569976 0.0130255 0.
0.571977 0.013027 0.
0.573978 0.0130273 0.
0.575978 0.0130274 0.
0.577979 0.0130274 0.
0.57998 0.0130262 0.
0.581981 0.013025 0.
0.583982 0.0130238 0.
0.585983 0.0130226 0.
0.587985 0.0130213 0.
0.589986 0.0130203 0.
0.591988 0.0130195 0.
0.593989 0.0130186 0.
0.595993 0.0130205 0.
0.597997 0.013023 0.
0.6 0.0130256 0.
0.602004 0.0130235 0.
0.604008 0.0130214 0.
0.606011 0.0130201 0.
0.608012 0.0130212 0.
0.610014 0.0130224 0.
0.612015 0.013023 0.
0.614016 0.0130229 0.
0.616018 0.0130228 0.
0.618018 0.0130226 0.
0.620019 0.0130224 0.
0.62202 0.0130221 0.
0.62402 0.0130222 0.
0.626021 0.0130223 0.
0.628022 0.0130225 0.
0.630022 0.0130236 0.
0.632023 0.0130247 0.
0.634023 0.013025 0.
0.636024 0.0130237 0.
0.638024 0.0130224 0.
0.640025 0.0130217 0.
0.642025 0.0130213 0.
0.644026 0.0130209 0.
0.646027 0.0130203 0.
0.648028 0.0130195 0.
0.650029 0.0130188 0.
0.65203 0.0130209 0.
0.65403 0.0130229 0.
0.656031 0.0130246 0.
0.658031 0.0130255 0.
0.660032 0.0130264 0.
0.662032 0.0130259 0.
0.664033 0.0130238 0.
0.666034 0.0130218 0.
0.668035 0.0130194 0.
0.670035 0.0130168 0.
0.672036 0.0130143 0.
0.674037 0.0130142 0.
0.676038 0.0130142 0.
0.678039 0.0130141 0.
0.680039 0.0130133 0.
0.68204 0.0130124 0.
0.684041 0.0130119 0.
0.686041 0.013012 0.
0.688042 0.013012 0.
0.690043 0.013012 0.
0.692044 0.0130119 0.
0.694044 0.0130118 0.
0.696045 0.0130123 0.
0.698045 0.013013 0.
0.499956 0.0150121 0.
0.501957 0.0150119 0.
0.503958 0.0150114 0.
0.505958 0.0150112 0.
0.507959 0.0150124 0.
0.50996 0.0150136 0.
0.511961 0.0150142 0.
0.513961 0.0150141 0.
0.515961 0.0150139 0.
0.517962 0.0150143 0.
0.519963 0.015015 0.
0.521963 0.0150157 0.
0.523964 0.0150164 0.
0.525964 0.015017 0.
0.527965 0.0150176 0.
0.529965 0.0150172 0.
0.531966 0.0150169 0.
0.533966 0.0150171 0.
0.535968 0.0150186 0.
0.537969 0.0150201 0.
0.539969 0.0150207 0.
0.54197 0.0150205 0.
0.543971 0.0150203 0.
0.545972 0.0150199 0.
0.547972 0.0150195 0.
0.549973 0.015019 0.
0.551974 0.0150193 0.
0.553974 0.0150195 0.
0.555975 0.0150198 0.
0.557974 0.0150201 0.
0.559974 0.0150205 0.
0.561975 0.0150213 0.
0.563975 0.0150228 0.
0.565976 0.0150244 0.
0.567977 0.0150253 0.
0.569977 0.0150259 0.
0.571978 0.0150265 0.
0.573979 0.0150269 0.
0.57598 0.0150273 0.
0.577981 0.0150276 0.
0.579983 0.0150265 0.
0.581984 0.0150254 0.
0.583985 0.0150243 0.
0.585987 0.0150232 0.
0.587988 0.0150222 0.
0.58999 0.0150214 0.
0.591991 0.0150209 0.
0.593992 0.0150204 0.
0.595995 0.0150211 0.
0.597998 0.015022 0.
0.6 0.015023 0.
0.602003 0.0150224 0.
0.604005 0.0150219 0.
0.606008 0.0150216 0.
0.608009 0.0150223 0.
0.610011 0.015023 0.
0.612013 0.0150234 0.
0.614014 0.0150234 0.
0.616015 0.0150233 0.
0.618016 0.0150235 0.
0.620017 0.0150236 0.
0.622018 0.0150238 0.
0.624019 0.0150237 0.
0.62602 0.0150237 0.
0.628021 0.0150237 0.
0.630022 0.0150243 0.
0.632022 0.0150248 0.
0.634023 0.0150248 0.
0.636024 0.0150236 0.
0.638024 0.0150225 0.
0.640025 0.0150217 0.
0.642026 0.0150213 0.
0.644026 0.0150208 0.
0.646027 0.0150205 0.
0.648028 0.0150202 0.
0.650028 0.0150199 0.
0.652029 0.0150215 0.
0.654029 0.0150231 0.
0.65603 0.0150245 0.
0.658031 0.0150254 0.
0.660031 0.0150262 0.
0.662032 0.0150258 0.
0.664034 0.0150239 0.
0.666035 0.015022 0.
0.668036 0.0150197 0.
0.670036 0.0150172 0.
0.672037 0.0150147 0.
0.674038 0.0150147 0.
0.676038 0.0150149 0.
0.678039 0.0150151 0.
0.68004 0.0150144 0.
0.68204 0.0150137 0.
0.684041 0.0150131 0.
0.686042 0.0150129 0.
0.688042 0.0150126 0.
0.690043 0.0150126 0.
0.692043 0.0150127 0.
0.694044 0.0150127 0.
0.696044 0.0150135 0.
0.698045 0.0150145 0.
0.499956 0.0170135 0.
0.501957 0.0170133 0.
0.503957 0.0170128 0.
0.505958 0.0170126 0.
0.507959 0.0170136 0.
0.50996 0.0170146 0.
0.51196 0.0170152 0.
0.513961 0.0170153 0.
0.515961 0.0170154 0.
0.517962 0.0170158 0.
0.519963 0.0170163 0.
0.521963 0.0170168 0.
0.523964 0.0170174 0.
0.525965 0.017018 0.
0.527966 0.0170185 0.
0.529966 0.0170187 0.
0.531966 0.0170189 0.
0.533967 0.0170192 0.
0.535968 0.01702 0.
0.537968 0.0170208 0.
0.539969 0.0170211 0.
0.54197 0.017021 0.
0.543971 0.0170208 0.
0.545972 0.0170207 0.
0.547973 0.0170205 0.
0.549974 0.0170204 0.
0.551974 0.0170206 0.
0.553974 0.0170208 0.
0.555974 0.017021 0.
0.557974 0.0170214 0.
0.559974 0.0170217 0.
0.561975 0.0170223 0.
0.563976 0.0170233 0.
0.565976 0.0170244 0.
0.567977 0.0170255 0.
0.569978 0.0170266 0.
0.571979 0.0170277 0.
0.57398 0.017028 0.
0.575981 0.0170282 0.
0.577982 0.0170283 0.
0.579984 0.017027 0.
0.581985 0.0170256 0.
0.583986 0.0170245 0.
0.585988 0.0170237 0.
0.58799 0.0170229 0.
0.589991 0.0170223 0.
0.591992 0.0170218 0.
0.593994 0.0170214 0.
0.595996 0.0170218 0.
0.597998 0.0170225 0.
0.6 0.0170232 0.
0.602003 0.0170231 0.
0.604005 0.0170229 0.
0.606007 0.0170229 0.
0.608009 0.0170234 0.
0.610011 0.0170239 0.
0.612012 0.0170241 0.
0.614013 0.0170237 0.
0.616014 0.0170235 0.
0.618015 0.0170237 0.
0.620017 0.0170242 0.
0.622018 0.0170246 0.
0.624019 0.0170246 0.
0.62602 0.0170245 0.
0.628021 0.0170244 0.
0.630021 0.0170247 0.
0.632022 0.017025 0.
0.634023 0.0170249 0.
0.636023 0.0170241 0.
0.638024 0.0170233 0.
0.640025 0.0170227 0.
0.642026 0.0170222 0.
0.644026 0.0170217 0.
0.646027 0.0170217 0.
0.648028 0.0170218 0.
0.650029 0.0170219 0.
0.652029 0.0170231 0.
0.654029 0.0170242 0.
0.656029 0.0170252 0.
0.65803 0.0170256 0.
0.660031 0.017026 0.
0.662032 0.0170256 0.
0.664034 0.0170241 0.
0.666035 0.0170227 0.
0.668036 0.0170209 0.
0.670036 0.0170189 0.
0.672036 0.017017 0.
0.674037 0.0170164 0.
0.676038 0.0170159 0.
0.678039 0.0170155 0.
0.680039 0.017015 0.
0.68204 0.0170144 0.
0.684041 0.0170141 0.
0.686041 0.0170141 0.
0.688041 0.0170141 0.
0.690042 0.0170141 0.
0.692042 0.017014 0.
0.694043 0.0170139 0.
0.696043 0.0170147 0.
0.698044 0.0170156 0.
0.499956 0.019015 0.
0.501956 0.0190147 0.
0.503957 0.0190142 0.
0.505958 0.0190139 0.
0.507958 0.0190148 0.
0.509959 0.0190156 0.
0.51196 0.0190162 0.
0.513961 0.0190166 0.
0.515962 0.019017 0.
0.517962 0.0190173 0.
0.519963 0.0190176 0.
0.521964 0.0190179 0.
0.523964 0.0190184 0.
0.525965 0.0190189 0.
0.527966 0.0190195 0.
0.529966 0.0190202 0.
0.531967 0.0190209 0.
0.533967 0.0190214 0.
0.535968 0.0190214 0.
0.537968 0.0190215 0.
0.539969 0.0190215 0.
0.54197 0.0190214 0.
0.543972 0.0190213 0.
0.545973 0.0190214 0.
0.547973 0.0190216 0.
0.549974 0.0190217 0.
0.551974 0.0190219 0.
0.553974 0.0190221 0.
0.555973 0.0190223 0.
0.557974 0.0190226 0.
0.559974 0.0190229 0.
0.561975 0.0190233 0.
0.563976 0.0190238 0.
0.565977 0.0190244 0.
0.567978 0.0190257 0.
0.569979 0.0190273 0.
0.57198 0.019029 0.
0.573981 0.0190292 0.
0.575982 0.0190291 0.
0.577983 0.019029 0.
0.579985 0.0190275 0.
0.581986 0.0190259 0.
0.583988 0.0190247 0.
0.585989 0.0190241 0.
0.587991 0.0190236 0.
0.589993 0.0190231 0.
0.591994 0.0190228 0.
0.593995 0.0190224 0.
0.595997 0.0190226 0.
0.597999 0.019023 0.
0.6 0.0190234 0.
0.602002 0.0190237 0.
0.604004 0.0190239 0.
0.606006 0.0190242 0.
0.608008 0.0190245 0.
0.61001 0.0190248 0.
0.612011 0.0190247 0.
0.614012 0.0190241 0.
0.616014 0.0190236 0.
0.618015 0.0190239 0.
0.620016 0.0190247 0.
0.622017 0.0190255 0.
0.624018 0.0190254 0.
0.626019 0.0190253 0.
0.62802 0.0190251 0.
0.630021 0.0190251 0.
0.632021 0.0190252 0.
0.634022 0.019025 0.
0.636023 0.0190246 0.
0.638024 0.0190242 0.
0.640025 0.0190237 0.
0.642026 0.0190231 0.
0.644027 0.0190226 0.
0.646027 0.0190229 0.
0.648028 0.0190234 0.
0.650029 0.0190239 0.
0.652029 0.0190246 0.
0.654029 0.0190253 0.
0.656029 0.0190258 0.
0.65803 0.0190258 0.
0.660031 0.0190258 0.
0.662032 0.0190254 0.
0.664034 0.0190244 0.
0.666035 0.0190235 0.
0.668036 0.0190221 0.
0.670036 0.0190207 0.
0.672036 0.0190192 0.
0.674036 0.0190181 0.
0.676037 0.0190169 0.
0.678038 0.0190159 0.
0.680039 0.0190156 0.
0.68204 0.0190152 0.
0.68404 0.019015 0.
0.68604 0.0190153 0.
0.688041 0.0190156 0.
0.690041 0.0190156 0.
0.692042 0.0190154 0.
0.694042 0.0190151 0.
0.696043 0.0190158 0.
0.698043 0.0190168 0.
0.499955 0.0210165 0.
0.501956 0.0210161 0.
0.503957 0.0210155 0.
0.505958 0.0210152 0.
0.507958 0.0210158 0.
0.509959 0.0210163 0.
0.51196 0.0210169 0.
0.513961 0.0210174 0.
0.515962 0.0210179 0.
0.517962 0.0210182 0.
0.519963 0.0210184 0.
0.521963 0.0210186 0.
0.523964 0.0210191 0.
0.525965 0.0210196 0.
0.527966 0.0210202 0.
0.529966 0.0210212 0.
0.531967 0.0210222 0.
0.533967 0.0210227 0.
0.535968 0.0210224 0.
0.537968 0.021022 0.
0.539969 0.0210218 0.
0.54197 0.0210218 0.
0.543972 0.0210218 0.
0.545973 0.0210221 0.
0.547973 0.0210224 0.
0.549974 0.0210228 0.
0.551974 0.0210229 0.
0.553974 0.021023 0.
0.555974 0.0210231 0.
0.557974 0.0210234 0.
0.559975 0.0210237 0.
0.561975 0.0210241 0.
0.563976 0.0210244 0.
0.565977 0.0210247 0.
0.567978 0.021026 0.
0.56998 0.0210278 0.
0.571981 0.0210295 0.
0.573982 0.0210296 0.
0.575983 0.0210295 0.
0.577985 0.0210293 0.
0.579986 0.0210278 0.
0.581987 0.0210264 0.
0.583989 0.0210252 0.
0.58599 0.0210246 0.
0.587992 0.021024 0.
0.589993 0.0210237 0.
0.591995 0.0210237 0.
0.593996 0.0210238 0.
0.595997 0.0210238 0.
0.597999 0.0210238 0.
0.6 0.0210238 0.
0.602002 0.0210241 0.
0.604004 0.0210244 0.
0.606006 0.0210247 0.
0.608008 0.021025 0.
0.61001 0.0210252 0.
0.612011 0.0210252 0.
0.614012 0.0210247 0.
0.616013 0.0210242 0.
0.618015 0.0210246 0.
0.620016 0.0210253 0.
0.622017 0.0210261 0.
0.624018 0.0210259 0.
0.626019 0.0210257 0.
0.62802 0.0210255 0.
0.630021 0.0210254 0.
0.632021 0.0210254 0.
0.634022 0.0210253 0.
0.636023 0.0210251 0.
0.638024 0.0210248 0.
0.640025 0.0210244 0.
0.642026 0.0210238 0.
0.644027 0.0210232 0.
0.646028 0.0210237 0.
0.648028 0.0210244 0.
0.650029 0.0210251 0.
0.652029 0.0210255 0.
0.654029 0.021026 0.
0.656029 0.0210262 0.
0.65803 0.021026 0.
0.660031 0.0210257 0.
0.662032 0.0210253 0.
0.664034 0.0210247 0.
0.666035 0.021024 0.
0.668035 0.0210231 0.
0.670035 0.0210221 0.
0.672036 0.0210211 0.
0.674036 0.0210196 0.
0.676037 0.0210181 0.
0.678037 0.0210168 0.
0.680038 0.0210164 0.
0.682039 0.0210161 0.
0.68404 0.021016 0.
0.68604 0.0210164 0.
0.68804 0.0210168 0.
0.690041 0.0210168 0.
0.692041 0.0210164 0.
0.694042 0.021016 0.
0.696042 0.0210167 0.
0.698043 0.0210176 0.
0.499955 0.0230182 0.
0.501955 0.0230175 0.
0.503957 0.0230169 0.
0.505958 0.0230164 0.
0.507959 0.0230166 0.
0.50996 0.0230168 0.
0.51196 0.0230171 0.
0.513961 0.0230177 0.
0.515961 0.0230182 0.
0.517962 0.0230186 0.
0.519963 0.0230188 0.
0.521963 0.0230191 0.
0.523964 0.0230196 0.
0.525965 0.0230201 0.
0.527965 0.0230206 0.
0.529966 0.0230217 0.
0.531966 0.0230228 0.
0.533967 0.0230233 0.
0.535967 0.0230228 0.
0.537968 0.0230222 0.
0.539969 0.023022 0.
0.541971 0.0230221 0.
0.543972 0.0230222 0.
0.545973 0.0230226 0.
0.547973 0.0230231 0.
0.549973 0.0230236 0.
0.551974 0.0230235 0.
0.553974 0.0230235 0.
0.555975 0.0230235 0.
0.557975 0.0230239 0.
0.559975 0.0230243 0.
0.561976 0.0230247 0.
0.563977 0.023025 0.
0.565978 0.0230254 0.
0.567979 0.0230264 0.
0.56998 0.0230279 0.
0.571982 0.0230294 0.
0.573983 0.0230295 0.
0.575985 0.0230294 0.
0.577986 0.0230291 0.
0.579987 0.023028 0.
0.581988 0.023027 0.
0.583989 0.0230259 0.
0.585991 0.023025 0.
0.587992 0.023024 0.
0.589993 0.023024 0.
0.591995 0.0230247 0.
0.593996 0.0230254 0.
0.595998 0.0230252 0.
0.597999 0.0230248 0.
0.6 0.0230244 0.
0.602003 0.0230244 0.
0.604005 0.0230244 0.
0.606007 0.0230245 0.
0.608008 0.0230248 0.
0.61001 0.0230252 0.
0.612011 0.0230254 0.
0.614013 0.0230254 0.
0.616014 0.0230253 0.
0.618015 0.0230256 0.
0.620016 0.0230261 0.
0.622017 0.0230265 0.
0.624018 0.0230262 0.
0.626019 0.0230257 0.
0.62802 0.0230254 0.
0.630021 0.0230256 0.
0.632022 0.0230257 0.
0.634023 0.0230258 0.
0.636023 0.0230255 0.
0.638024 0.0230253 0.
0.640024 0.0230248 0.
0.642026 0.0230242 0.
0.644027 0.0230235 0.
0.646028 0.023024 0.
0.648029 0.0230248 0.
0.65003 0.0230256 0.
0.65203 0.0230259 0.
0.65403 0.0230262 0.
0.65603 0.0230263 0.
0.658031 0.023026 0.
0.660032 0.0230257 0.
0.662032 0.0230253 0.
0.664033 0.0230249 0.
0.666034 0.0230244 0.
0.668035 0.0230238 0.
0.670035 0.0230232 0.
0.672036 0.0230225 0.
0.674036 0.023021 0.
0.676037 0.0230195 0.
0.678037 0.023018 0.
0.680038 0.0230176 0.
0.682039 0.0230171 0.
0.684039 0.023017 0.
0.68604 0.0230174 0.
0.68804 0.0230178 0.
0.690041 0.0230177 0.
0.692041 0.0230171 0.
0.694042 0.0230165 0.
0.696042 0.0230171 0.
0.698043 0.0230181 0.
0.499954 0.0250199 0.
0.501955 0.025019 0.
0.503956 0.0250182 0.
0.505958 0.0250175 0.
0.507959 0.0250174 0.
0.50996 0.0250172 0.
0.511961 0.0250174 0.
0.513961 0.025018 0.
0.515961 0.0250186 0.
0.517962 0.025019 0.
0.519962 0.0250193 0.
0.521963 0.0250196 0.
0.523964 0.02502 0.
0.525964 0.0250206 0.
0.527965 0.0250211 0.
0.529965 0.0250222 0.
0.531966 0.0250234 0.
0.533966 0.025024 0.
0.535967 0.0250232 0.
0.537968 0.0250225 0.
0.539969 0.0250222 0.
0.541971 0.0250224 0.
0.543972 0.0250225 0.
0.545973 0.0250231 0.
0.547973 0.0250238 0.
0.549973 0.0250244 0.
0.551974 0.0250242 0.
0.553975 0.0250239 0.
0.555976 0.0250239 0.
0.557976 0.0250244 0.
0.559976 0.0250249 0.
0.561977 0.0250253 0.
0.563978 0.0250256 0.
0.565979 0.025026 0.
0.56798 0.0250269 0.
0.569981 0.0250281 0.
0.571982 0.0250293 0.
0.573984 0.0250293 0.
0.575986 0.0250292 0.
0.577988 0.025029 0.
0.579988 0.0250283 0.
0.581989 0.0250275 0.
0.58399 0.0250266 0.
0.585991 0.0250254 0.
0.587992 0.0250241 0.
0.589993 0.0250243 0.
0.591995 0.0250257 0.
0.593996 0.025027 0.
0.595998 0.0250267 0.
0.597999 0.0250258 0.
0.6 0.0250249 0.
0.602003 0.0250246 0.
0.604005 0.0250243 0.
0.606007 0.0250242 0.
0.608009 0.0250247 0.
0.61001 0.0250253 0.
0.612011 0.0250257 0.
0.614013 0.0250261 0.
0.616014 0.0250265 0.
0.618015 0.0250267 0.
0.620016 0.0250268 0.
0.622017 0.0250269 0.
0.624018 0.0250264 0.
0.626019 0.0250258 0.
0.62802 0.0250253 0.
0.630021 0.0250257 0.
0.632022 0.025026 0.
0.634023 0.0250262 0.
0.636023 0.025026 0.
0.638024 0.0250258 0.
0.640024 0.0250253 0.
0.642026 0.0250245 0.
0.644027 0.0250238 0.
0.646028 0.0250243 0.
0.648029 0.0250252 0.
0.65003 0.025026 0.
0.65203 0.0250262 0.
0.654031 0.0250264 0.
0.656031 0.0250264 0.
0.658032 0.025026 0.
0.660032 0.0250256 0.
0.662032 0.0250253 0.
0.664033 0.025025 0.
0.666033 0.0250248 0.
0.668034 0.0250245 0.
0.670035 0.0250243 0.
0.672036 0.025024 0.
0.674036 0.0250225 0.
0.676037 0.0250208 0.
0.678037 0.0250193 0.
0.680037 0.0250187 0.
0.682038 0.0250181 0.
0.684039 0.0250179 0.
0.686039 0.0250184 0.
0.68804 0.0250188 0.
0.690041 0.0250186 0.
0.692041 0.0250178 0.
0.694042 0.0250171 0.
0.696042 0.0250176 0.
0.698043 0.0250186 0.
0.499956 0.0270202 0.
0.501957 0.0270193 0.
0.503958 0.0270185 0.
0.505959 0.0270178 0.
0.50796 0.0270178 0.
0.509961 0.0270178 0.
0.511961 0.0270181 0.
0.513962 0.0270187 0.
0.515962 0.0270193 0.
0.517962 0.0270196 0.
0.519963 0.0270196 0.
0.521963 0.0270197 0.
0.523964 0.0270202 0.
0.525964 0.0270208 0.
0.527965 0.0270214 0.
0.529966 0.0270222 0.
0.531966 0.027023 0.
0.533967 0.0270235 0.
0.535968 0.0270232 0.
0.537969 0.027023 0.
0.53997 0.0270229 0.
0.541971 0.0270231 0.
0.543972 0.0270233 0.
0.545973 0.0270236 0.
0.547973 0.027024 0.
0.549973 0.0270244 0.
0.551974 0.0270245 0.
0.553975 0.0270246 0.
0.555976 0.0270247 0.
0.557976 0.0270248 0.
0.559977 0.0270249 0.
0.561977 0.0270251 0.
0.563979 0.0270257 0.
0.56598 0.0270262 0.
0.567981 0.0270268 0.
0.569982 0.0270275 0.
0.571982 0.0270281 0.
0.573984 0.0270284 0.
0.575986 0.0270287 0.
0.577987 0.0270288 0.
0.579989 0.0270281 0.
0.58199 0.0270273 0.
0.583991 0.0270265 0.
0.585992 0.0270258 0.
0.587993 0.027025 0.
0.589994 0.0270249 0.
0.591995 0.0270254 0.
0.593996 0.027026 0.
0.595998 0.0270259 0.
0.597999 0.0270256 0.
0.6 0.0270254 0.
0.602003 0.0270248 0.
0.604006 0.0270243 0.
0.606008 0.027024 0.
0.608009 0.0270247 0.
0.61001 0.0270253 0.
0.612011 0.0270258 0.
0.614012 0.0270262 0.
0.616013 0.0270267 0.
0.618014 0.0270268 0.
0.620016 0.0270268 0.
0.622017 0.0270268 0.
0.624018 0.0270263 0.
0.626019 0.0270257 0.
0.62802 0.0270253 0.
0.630021 0.0270257 0.
0.632022 0.027026 0.
0.634022 0.0270262 0.
0.636023 0.027026 0.
0.638023 0.0270257 0.
0.640024 0.0270252 0.
0.642025 0.0270247 0.
0.644026 0.0270242 0.
0.646027 0.0270247 0.
0.648028 0.0270254 0.
0.650029 0.027026 0.
0.652029 0.0270261 0.
0.65403 0.0270262 0.
0.65603 0.0270263 0.
0.658031 0.0270261 0.
0.660031 0.027026 0.
0.662031 0.0270259 0.
0.664032 0.0270257 0.
0.666032 0.0270256 0.
0.668033 0.0270253 0.
0.670034 0.0270247 0.
0.672035 0.0270242 0.
0.674035 0.0270229 0.
0.676036 0.0270215 0.
0.678036 0.0270202 0.
0.680037 0.0270195 0.
0.682038 0.0270188 0.
0.684038 0.0270185 0.
0.686039 0.0270189 0.
0.688041 0.0270193 0.
0.690041 0.0270193 0.
0.692042 0.0270189 0.
0.694042 0.0270186 0.
0.696042 0.0270192 0.
0.698043 0.0270201 0.
0.499958 0.0290207 0.
0.501959 0.0290196 0.
0.503959 0.0290187 0.
0.50596 0.029018 0.
0.50796 0.0290182 0.
0.509961 0.0290184 0.
0.511962 0.0290188 0.
0.513962 0.0290194 0.
0.515962 0.02902 0.
0.517963 0.0290201 0.
0.519963 0.0290199 0.
0.521964 0.0290198 0.
0.523964 0.0290204 0.
0.525964 0.0290211 0.
0.527965 0.0290217 0.
0.529966 0.0290222 0.
0.531967 0.0290227 0.
0.533968 0.029023 0.
0.535969 0.0290233 0.
0.53797 0.0290235 0.
0.539971 0.0290237 0.
0.541972 0.0290238 0.
0.543973 0.029024 0.
0.545973 0.0290241 0.
0.547973 0.0290242 0.
0.549973 0.0290243 0.
0.551974 0.0290247 0.
0.553975 0.0290252 0.
0.555976 0.0290255 0.
0.557977 0.0290252 0.
0.559977 0.0290249 0.
0.561978 0.029025 0.
0.563979 0.0290257 0.
0.56598 0.0290265 0.
0.567981 0.0290268 0.
0.569982 0.0290268 0.
0.571983 0.0290269 0.
0.573984 0.0290275 0.
0.575986 0.0290281 0.
0.577987 0.0290286 0.
0.579989 0.0290279 0.
0.58199 0.0290271 0.
0.583992 0.0290265 0.
0.585993 0.0290261 0.
0.587994 0.0290258 0.
0.589995 0.0290255 0.
0.591995 0.0290252 0.
0.593996 0.0290249 0.
0.595997 0.0290251 0.
0.597999 0.0290254 0.
0.6 0.0290258 0.
0.602003 0.029025 0.
0.604006 0.0290243 0.
0.606008 0.0290239 0.
0.608009 0.0290246 0.
0.61001 0.0290253 0.
0.612011 0.0290259 0.
0.614012 0.0290264 0.
0.616012 0.0290269 0.
0.618014 0.029027 0.
0.620015 0.0290268 0.
0.622016 0.0290267 0.
0.624018 0.0290262 0.
0.626019 0.0290256 0.
0.62802 0.0290252 0.
0.63002 0.0290256 0.
0.632021 0.0290261 0.
0.634022 0.0290262 0.
0.636023 0.0290259 0.
0.638023 0.0290256 0.
0.640024 0.0290252 0.
0.642025 0.0290249 0.
0.644025 0.0290246 0.
0.646026 0.029025 0.
0.648027 0.0290255 0.
0.650028 0.0290261 0.
0.652028 0.0290261 0.
0.654029 0.0290261 0.
0.656029 0.0290262 0.
0.65803 0.0290263 0.
0.66003 0.0290264 0.
0.66203 0.0290264 0.
0.664031 0.0290264 0.
0.666031 0.0290265 0.
0.668032 0.029026 0.
0.670033 0.0290252 0.
0.672034 0.0290245 0.
0.674035 0.0290234 0.
0.676035 0.0290222 0.
0.678036 0.0290211 0.
0.680037 0.0290203 0.
0.682037 0.0290195 0.
0.684038 0.0290191 0.
0.68604 0.0290195 0.
0.688041 0.0290199 0.
0.690042 0.02902 0.
0.692042 0.0290201 0.
0.694042 0.0290201 0.
0.696042 0.0290208 0.
0.698043 0.0290216 0.
0.49996 0.0310211 0.
0.50196 0.0310202 0.
0.50396 0.0310195 0.
0.50596 0.0310189 0.
0.507961 0.031019 0.
0.509961 0.0310191 0.
0.511962 0.0310195 0.
0.513962 0.0310201 0.
0.515963 0.0310207 0.
0.517963 0.0310208 0.
0.519964 0.0310206 0.
0.521964 0.0310204 0.
0.523964 0.0310209 0.
0.525965 0.0310216 0.
0.527965 0.0310222 0.
0.529966 0.0310223 0.
0.531968 0.0310225 0.
0.533969 0.0310229 0.
0.53597 0.0310235 0.
0.53797 0.0310241 0.
0.539971 0.0310245 0.
0.541972 0.0310245 0.
0.543972 0.0310246 0.
0.545972 0.0310246 0.
0.547973 0.0310244 0.
0.549973 0.0310243 0.
0.551974 0.0310249 0.
0.553975 0.0310255 0.
0.555976 0.0310259 0.
0.557977 0.0310255 0.
0.559978 0.0310252 0.
0.561979 0.0310253 0.
0.56398 0.0310261 0.
0.565981 0.0310268 0.
0.567982 0.0310269 0.
0.569982 0.0310267 0.
0.571983 0.0310264 0.
0.573984 0.031027 0.
0.575986 0.0310277 0.
0.577987 0.0310283 0.
0.579989 0.0310277 0.
0.58199 0.0310271 0.
0.583992 0.0310267 0.
0.585993 0.0310266 0.
0.587994 0.0310264 0.
0.589995 0.031026 0.
0.591995 0.0310254 0.
0.593996 0.0310247 0.
0.595997 0.031025 0.
0.597999 0.0310256 0.
0.6 0.0310261 0.
0.602003 0.0310254 0.
0.604006 0.0310247 0.
0.606009 0.0310243 0.
0.60801 0.031025 0.
0.61001 0.0310257 0.
0.612011 0.0310263 0.
0.614012 0.0310268 0.
0.616012 0.0310272 0.
0.618013 0.0310272 0.
0.620015 0.0310269 0.
0.622016 0.0310266 0.
0.624017 0.0310262 0.
0.626018 0.0310258 0.
0.628019 0.0310255 0.
0.63002 0.0310259 0.
0.632021 0.0310263 0.
0.634021 0.0310264 0.
0.636022 0.031026 0.
0.638023 0.0310255 0.
0.640024 0.0310253 0.
0.642024 0.0310253 0.
0.644025 0.0310252 0.
0.646026 0.0310255 0.
0.648027 0.0310259 0.
0.650028 0.0310262 0.
0.652028 0.0310262 0.
0.654029 0.0310263 0.
0.656029 0.0310264 0.
0.658029 0.0310267 0.
0.660029 0.031027 0.
0.66203 0.031027 0.
0.664031 0.0310269 0.
0.666031 0.0310267 0.
0.668032 0.0310261 0.
0.670033 0.0310254 0.
0.672034 0.0310246 0.
0.674034 0.0310237 0.
0.676035 0.0310227 0.
0.678036 0.0310218 0.
0.680037 0.0310209 0.
0.682037 0.03102 0.
0.684038 0.0310196 0.
0.686039 0.03102 0.
0.688041 0.0310203 0.
0.690042 0.0310207 0.
0.692042 0.0310211 0.
0.694042 0.0310214 0.
0.696042 0.0310219 0.
0.698043 0.0310224 0.
0.499961 0.0330215 0.
0.501961 0.0330211 0.
0.50396 0.0330207 0.
0.50596 0.0330204 0.
0.507961 0.0330201 0.
0.509961 0.0330199 0.
0.511962 0.03302 0.
0.513963 0.0330207 0.
0.515963 0.0330214 0.
0.517964 0.0330216 0.
0.519964 0.0330215 0.
0.521965 0.0330214 0.
0.523965 0.0330218 0.
0.525966 0.0330223 0.
0.527966 0.0330227 0.
0.529967 0.0330227 0.
0.531968 0.0330226 0.
0.533969 0.0330229 0.
0.535969 0.0330239 0.
0.53797 0.0330249 0.
0.53997 0.0330253 0.
0.541971 0.0330253 0.
0.543971 0.0330253 0.
0.545972 0.033025 0.
0.547972 0.0330247 0.
0.549973 0.0330244 0.
0.551974 0.0330249 0.
0.553975 0.0330255 0.
0.555976 0.033026 0.
0.557977 0.0330259 0.
0.559978 0.0330259 0.
0.561979 0.0330261 0.
0.56398 0.0330267 0.
0.565981 0.0330272 0.
0.567982 0.0330272 0.
0.569982 0.0330269 0.
0.571983 0.0330266 0.
0.573985 0.033027 0.
0.575986 0.0330274 0.
0.577988 0.0330278 0.
0.579989 0.0330276 0.
0.58199 0.0330274 0.
0.583991 0.0330272 0.
0.585992 0.033027 0.
0.587993 0.0330267 0.
0.589994 0.0330264 0.
0.591995 0.033026 0.
0.593996 0.0330256 0.
0.595998 0.0330257 0.
0.597999 0.033026 0.
0.6 0.0330263 0.
0.602003 0.0330259 0.
0.604006 0.0330255 0.
0.606008 0.0330253 0.
0.608009 0.0330259 0.
0.61001 0.0330266 0.
0.612011 0.0330271 0.
0.614012 0.0330274 0.
0.616013 0.0330277 0.
0.618014 0.0330274 0.
0.620015 0.033027 0.
0.622016 0.0330265 0.
0.624017 0.0330264 0.
0.626018 0.0330263 0.
0.628019 0.0330262 0.
0.63002 0.0330265 0.
0.63202 0.0330267 0.
0.634021 0.0330267 0.
0.636022 0.0330262 0.
0.638023 0.0330256 0.
0.640024 0.0330255 0.
0.642024 0.0330257 0.
0.644025 0.0330259 0.
0.646026 0.0330261 0.
0.648027 0.0330263 0.
0.650029 0.0330265 0.
0.652029 0.0330266 0.
0.654029 0.0330267 0.
0.656029 0.0330269 0.
0.658029 0.0330273 0.
0.66003 0.0330277 0.
0.662031 0.0330277 0.
0.664031 0.0330271 0.
0.666032 0.0330264 0.
0.668033 0.0330258 0.
0.670033 0.0330252 0.
0.672034 0.0330247 0.
0.674035 0.0330239 0.
0.676036 0.0330231 0.
0.678036 0.0330223 0.
0.680037 0.0330214 0.
0.682037 0.0330205 0.
0.684038 0.03302 0.
0.686039 0.0330204 0.
0.68804 0.0330207 0.
0.690041 0.0330212 0.
0.692041 0.0330219 0.
0.694042 0.0330226 0.
0.696043 0.0330227 0.
0.698043 0.0330226 0.
0.499962 0.0350219 0.
0.501961 0.035022 0.
0.503961 0.035022 0.
0.50596 0.0350219 0.
0.507961 0.0350213 0.
0.509961 0.0350207 0.
0.511962 0.0350206 0.
0.513963 0.0350213 0.
0.515964 0.0350221 0.
0.517965 0.0350224 0.
0.519965 0.0350224 0.
0.521965 0.0350224 0.
0.523966 0.0350227 0.
0.525967 0.035023 0.
0.527967 0.0350232 0.
0.529968 0.035023 0.
0.531969 0.0350228 0.
0.533969 0.035023 0.
0.535969 0.0350243 0.
0.53797 0.0350257 0.
0.53997 0.0350262 0.
0.54197 0.035026 0.
0.54397 0.0350259 0.
0.545971 0.0350255 0.
0.547971 0.035025 0.
0.549972 0.0350245 0.
0.551974 0.035025 0.
0.553975 0.0350255 0.
0.555976 0.035026 0.
0.557977 0.0350263 0.
0.559978 0.0350266 0.
0.561979 0.0350269 0.
0.56398 0.0350273 0.
0.565981 0.0350277 0.
0.567982 0.0350276 0.
0.569983 0.0350272 0.
0.571984 0.0350269 0.
0.573985 0.035027 0.
0.575986 0.0350271 0.
0.577988 0.0350273 0.
0.579989 0.0350275 0.
0.58199 0.0350277 0.
0.583991 0.0350278 0.
0.585992 0.0350274 0.
0.587993 0.035027 0.
0.589994 0.0350268 0.
0.591995 0.0350266 0.
0.593997 0.0350264 0.
0.595998 0.0350264 0.
0.597999 0.0350264 0.
0.6 0.0350265 0.
0.602003 0.0350264 0.
0.604006 0.0350263 0.
0.606008 0.0350263 0.
0.608009 0.0350269 0.
0.61001 0.0350274 0.
0.612011 0.0350278 0.
0.614012 0.0350279 0.
0.616014 0.0350281 0.
0.618015 0.0350277 0.
0.620016 0.0350271 0.
0.622017 0.0350264 0.
0.624017 0.0350265 0.
0.626018 0.0350267 0.
0.628019 0.0350269 0.
0.63002 0.0350271 0.
0.63202 0.0350272 0.
0.634021 0.035027 0.
0.636022 0.0350264 0.
0.638023 0.0350257 0.
0.640023 0.0350257 0.
0.642024 0.0350262 0.
0.644026 0.0350266 0.
0.646027 0.0350268 0.
0.648028 0.0350268 0.
0.650029 0.0350268 0.
0.652029 0.0350269 0.
0.654029 0.0350271 0.
0.656029 0.0350273 0.
0.65803 0.0350279 0.
0.66003 0.0350285 0.
0.662031 0.0350283 0.
0.664032 0.0350272 0.
0.666033 0.0350261 0.
0.668034 0.0350255 0.
0.670034 0.0350251 0.
0.672035 0.0350247 0.
0.674035 0.0350241 0.
0.676036 0.0350235 0.
0.678037 0.0350228 0.
0.680037 0.0350219 0.
0.682038 0.0350209 0.
0.684038 0.0350204 0.
0.686039 0.0350207 0.
0.68804 0.0350211 0.
0.69004 0.0350218 0.
0.692041 0.0350227 0.
0.694042 0.0350237 0.
0.696043 0.0350234 0.
0.698044 0.0350228 0.
0.499962 0.0370223 0.
0.501962 0.0370224 0.
0.503962 0.0370224 0.
0.505961 0.0370222 0.
0.507962 0.0370219 0.
0.509962 0.0370215 0.
0.511963 0.0370216 0.
0.513963 0.0370221 0.
0.515964 0.0370227 0.
0.517965 0.0370229 0.
0.519965 0.037023 0.
0.521965 0.037023 0.
0.523966 0.0370231 0.
0.525967 0.0370233 0.
0.527967 0.0370234 0.
0.529968 0.0370234 0.
0.531968 0.0370235 0.
0.533968 0.0370238 0.
0.535969 0.0370248 0.
0.537969 0.0370258 0.
0.539969 0.0370261 0.
0.54197 0.0370257 0.
0.54397 0.0370253 0.
0.545971 0.0370251 0.
0.547972 0.0370251 0.
0.549973 0.037025 0.
0.551974 0.0370255 0.
0.553975 0.037026 0.
0.555976 0.0370264 0.
0.557977 0.0370265 0.
0.559978 0.0370267 0.
0.561979 0.0370269 0.
0.56398 0.0370272 0.
0.565981 0.0370275 0.
0.567982 0.0370272 0.
0.569983 0.0370266 0.
0.571984 0.0370261 0.
0.573986 0.0370263 0.
0.575987 0.0370267 0.
0.577989 0.037027 0.
0.57999 0.0370275 0.
0.581991 0.037028 0.
0.583992 0.0370282 0.
0.585992 0.0370277 0.
0.587993 0.0370272 0.
0.589994 0.0370268 0.
0.591995 0.0370264 0.
0.593997 0.037026 0.
0.595998 0.037026 0.
0.598 0.0370261 0.
0.600001 0.0370262 0.
0.602003 0.0370266 0.
0.604006 0.037027 0.
0.606008 0.0370273 0.
0.608009 0.0370274 0.
0.61001 0.0370275 0.
0.612011 0.0370276 0.
0.614012 0.0370276 0.
0.616013 0.0370277 0.
0.618014 0.0370273 0.
0.620015 0.0370267 0.
0.622016 0.0370262 0.
0.624017 0.0370264 0.
0.626018 0.0370266 0.
0.628018 0.0370269 0.
0.630019 0.0370268 0.
0.63202 0.0370268 0.
0.634021 0.0370267 0.
0.636022 0.0370266 0.
0.638023 0.0370265 0.
0.640024 0.0370265 0.
0.642025 0.0370265 0.
0.644026 0.0370264 0.
0.646027 0.0370267 0.
0.648028 0.0370271 0.
0.650029 0.0370275 0.
0.652029 0.0370273 0.
0.654029 0.0370271 0.
0.656029 0.0370272 0.
0.65803 0.0370278 0.
0.660031 0.0370284 0.
0.662032 0.0370283 0.
0.664033 0.0370275 0.
0.666033 0.0370266 0.
0.668034 0.037026 0.
0.670034 0.0370255 0.
0.672035 0.0370251 0.
0.674035 0.0370245 0.
0.676036 0.0370238 0.
0.678036 0.0370231 0.
0.680037 0.0370222 0.
0.682037 0.0370214 0.
0.684038 0.037021 0.
0.686039 0.0370213 0.
0.688039 0.0370216 0.
0.69004 0.037022 0.
0.692041 0.0370226 0.
0.694042 0.0370232 0.
0.696042 0.0370233 0.
0.698043 0.0370233 0.
0.499962 0.0390228 0.
0.501962 0.0390228 0.
0.503962 0.0390227 0.
0.505963 0.0390226 0.
0.507963 0.0390225 0.
0.509963 0.0390224 0.
0.511963 0.0390225 0.
0.513964 0.0390229 0.
0.515964 0.0390233 0.
0.517965 0.0390235 0.
0.519965 0.0390235 0.
0.521965 0.0390235 0.
0.523966 0.0390236 0.
0.525967 0.0390236 0.
0.527967 0.0390237 0.
0.529967 0.0390239 0.
0.531968 0.0390242 0.
0.533968 0.0390245 0.
0.535968 0.0390253 0.
0.537969 0.039026 0.
0.539969 0.039026 0.
0.54197 0.0390254 0.
0.543971 0.0390247 0.
0.545972 0.0390248 0.
0.547973 0.0390252 0.
0.549974 0.0390255 0.
0.551974 0.039026 0.
0.553975 0.0390264 0.
0.555976 0.0390268 0.
0.557977 0.0390268 0.
0.559978 0.0390268 0.
0.561979 0.0390269 0.
0.56398 0.0390271 0.
0.565981 0.0390273 0.
0.567982 0.0390268 0.
0.569984 0.0390261 0.
0.571985 0.0390253 0.
0.573986 0.0390257 0.
0.575988 0.0390262 0.
0.577989 0.0390268 0.
0.57999 0.0390275 0.
0.581991 0.0390283 0.
0.583992 0.0390286 0.
0.585993 0.039028 0.
0.587993 0.0390274 0.
0.589994 0.0390269 0.
0.591995 0.0390262 0.
0.593997 0.0390256 0.
0.595998 0.0390256 0.
0.598 0.0390257 0.
0.600002 0.0390259 0.
0.602003 0.0390267 0.
0.604005 0.0390276 0.
0.606007 0.0390283 0.
0.608008 0.0390279 0.
0.610009 0.0390276 0.
0.612011 0.0390273 0.
0.614012 0.0390273 0.
0.616013 0.0390273 0.
0.618014 0.0390269 0.
0.620014 0.0390264 0.
0.622015 0.0390259 0.
0.624016 0.0390262 0.
0.626017 0.0390266 0.
0.628018 0.0390269 0.
0.630019 0.0390266 0.
0.63202 0.0390263 0.
0.634021 0.0390263 0.
0.636022 0.0390268 0.
0.638023 0.0390274 0.
0.640024 0.0390273 0.
0.642025 0.0390268 0.
0.644026 0.0390262 0.
0.646027 0.0390267 0.
0.648028 0.0390274 0.
0.65003 0.0390281 0.
0.65203 0.0390277 0.
0.65403 0.0390272 0.
0.65603 0.039027 0.
0.658031 0.0390277 0.
0.660032 0.0390283 0.
0.662033 0.0390284 0.
0.664033 0.0390277 0.
0.666034 0.039027 0.
0.668034 0.0390265 0.
0.670035 0.039026 0.
0.672035 0.0390256 0.
0.674036 0.0390248 0.
0.676036 0.0390241 0.
0.678036 0.0390233 0.
0.680036 0.0390226 0.
0.682037 0.039022 0.
0.684038 0.0390216 0.
0.686039 0.0390218 0.
0.688039 0.039022 0.
0.69004 0.0390223 0.
0.692041 0.0390225 0.
0.694041 0.0390227 0.
0.696042 0.0390232 0.
0.698042 0.0390237 0.
0.499962 0.0410236 0.
0.501962 0.0410235 0.
0.503963 0.0410233 0.
0.505963 0.0410232 0.
0.507964 0.0410233 0.
0.509964 0.0410233 0.
0.511964 0.0410235 0.
0.513964 0.0410237 0.
0.515964 0.041024 0.
0.517965 0.0410241 0.
0.519965 0.0410242 0.
0.521965 0.0410243 0.
0.523966 0.0410242 0.
0.525967 0.0410241 0.
0.527967 0.041024 0.
0.529967 0.0410245 0.
0.531967 0.041025 0.
0.533968 0.0410254 0.
0.535968 0.0410259 0.
0.537969 0.0410263 0.
0.539969 0.0410262 0.
0.54197 0.0410255 0.
0.543971 0.0410249 0.
0.545972 0.0410252 0.
0.547973 0.0410257 0.
0.549974 0.0410262 0.
0.551975 0.0410265 0.
0.553975 0.0410268 0.
0.555976 0.041027 0.
0.557977 0.0410269 0.
0.559978 0.0410269 0.
0.561979 0.0410269 0.
0.56398 0.041027 0.
0.565981 0.0410271 0.
0.567983 0.0410267 0.
0.569984 0.041026 0.
0.571985 0.0410254 0.
0.573986 0.0410257 0.
0.575988 0.0410262 0.
0.577989 0.0410266 0.
0.57999 0.0410275 0.
0.581991 0.0410284 0.
0.583992 0.0410288 0.
0.585993 0.0410283 0.
0.587993 0.0410278 0.
0.589994 0.0410271 0.
0.591996 0.0410263 0.
0.593997 0.0410254 0.
0.595998 0.0410255 0.
0.598 0.0410259 0.
0.600002 0.0410262 0.
0.602003 0.0410272 0.
0.604005 0.0410281 0.
0.606007 0.0410288 0.
0.608008 0.0410283 0.
0.610009 0.0410279 0.
0.61201 0.0410275 0.
0.614011 0.0410273 0.
0.616013 0.041027 0.
0.618013 0.0410268 0.
0.620014 0.0410265 0.
0.622015 0.0410263 0.
0.624016 0.0410265 0.
0.626017 0.0410267 0.
0.628018 0.041027 0.
0.630019 0.0410267 0.
0.63202 0.0410264 0.
0.634021 0.0410265 0.
0.636022 0.041027 0.
0.638023 0.0410276 0.
0.640024 0.0410275 0.
0.642025 0.0410269 0.
0.644026 0.0410262 0.
0.646027 0.0410268 0.
0.648029 0.0410278 0.
0.65003 0.0410287 0.
0.65203 0.0410281 0.
0.654031 0.0410275 0.
0.656031 0.0410272 0.
0.658032 0.0410278 0.
0.660032 0.0410285 0.
0.662033 0.0410286 0.
0.664033 0.0410283 0.
0.666034 0.0410279 0.
0.668034 0.0410273 0.
0.670035 0.0410267 0.
0.672035 0.0410262 0.
0.674035 0.0410253 0.
0.676035 0.0410245 0.
0.678036 0.0410237 0.
0.680036 0.0410231 0.
0.682037 0.0410224 0.
0.684038 0.0410221 0.
0.686038 0.0410223 0.
0.688039 0.0410225 0.
0.69004 0.0410226 0.
0.69204 0.0410227 0.
0.694041 0.0410228 0.
0.696041 0.0410234 0.
0.698042 0.0410241 0.
0.499962 0.0430249 0.
0.501963 0.0430244 0.
0.503963 0.0430242 0.
0.505964 0.0430241 0.
0.507964 0.0430243 0.
0.509964 0.0430244 0.
0.511964 0.0430245 0.
0.513964 0.0430245 0.
0.515964 0.0430246 0.
0.517965 0.0430248 0.
0.519965 0.0430251 0.
0.521965 0.0430254 0.
0.523966 0.0430251 0.
0.525967 0.0430247 0.
0.527967 0.0430245 0.
0.529968 0.0430251 0.
0.531968 0.0430258 0.
0.533968 0.0430263 0.
0.535969 0.0430266 0.
0.537969 0.0430268 0.
0.53997 0.0430266 0.
0.541971 0.0430262 0.
0.543971 0.0430258 0.
0.545972 0.0430261 0.
0.547973 0.0430266 0.
0.549973 0.0430272 0.
0.551974 0.0430271 0.
0.553975 0.043027 0.
0.555976 0.043027 0.
0.557977 0.0430269 0.
0.559978 0.0430269 0.
0.561979 0.0430269 0.
0.56398 0.043027 0.
0.565981 0.0430271 0.
0.567982 0.0430269 0.
0.569983 0.0430265 0.
0.571984 0.0430262 0.
0.573986 0.0430263 0.
0.575987 0.0430264 0.
0.577989 0.0430266 0.
0.579989 0.0430275 0.
0.58199 0.0430283 0.
0.583991 0.0430288 0.
0.585992 0.0430286 0.
0.587994 0.0430283 0.
0.589995 0.0430276 0.
0.591996 0.0430265 0.
0.593997 0.0430254 0.
0.595998 0.0430257 0.
0.598 0.0430265 0.
0.600001 0.0430272 0.
0.602003 0.0430278 0.
0.604006 0.0430284 0.
0.606007 0.0430288 0.
0.608008 0.0430286 0.
0.610009 0.0430283 0.
0.61201 0.043028 0.
0.614011 0.0430274 0.
0.616012 0.0430269 0.
0.618013 0.0430269 0.
0.620014 0.0430271 0.
0.622015 0.0430274 0.
0.624016 0.0430273 0.
0.626018 0.0430271 0.
0.628019 0.043027 0.
0.63002 0.043027 0.
0.63202 0.043027 0.
0.634021 0.043027 0.
0.636022 0.0430271 0.
0.638024 0.0430273 0.
0.640024 0.0430271 0.
0.642025 0.0430268 0.
0.644026 0.0430264 0.
0.646028 0.0430272 0.
0.648029 0.0430282 0.
0.65003 0.0430292 0.
0.652031 0.0430286 0.
0.654031 0.043028 0.
0.656031 0.0430276 0.
0.658032 0.0430283 0.
0.660033 0.0430289 0.
0.662033 0.0430292 0.
0.664033 0.0430292 0.
0.666033 0.0430291 0.
0.668034 0.0430285 0.
0.670034 0.0430277 0.
0.672034 0.0430269 0.
0.674035 0.043026 0.
0.676035 0.0430251 0.
0.678036 0.0430243 0.
0.680036 0.0430236 0.
0.682037 0.0430228 0.
0.684037 0.0430225 0.
0.686038 0.0430227 0.
0.688039 0.0430229 0.
0.690039 0.0430231 0.
0.692039 0.0430232 0.
0.69404 0.0430234 0.
0.69604 0.0430239 0.
0.698041 0.0430245 0.
0.499963 0.0450261 0.
0.501963 0.0450253 0.
0.503964 0.0450251 0.
0.505964 0.045025 0.
0.507964 0.0450252 0.
0.509964 0.0450255 0.
0.511964 0.0450255 0.
0.513964 0.0450253 0.
0.515964 0.0450252 0.
0.517965 0.0450254 0.
0.519965 0.0450259 0.
0.521965 0.0450265 0.
0.523966 0.045026 0.
0.525966 0.0450254 0.
0.527967 0.0450249 0.
0.529968 0.0450258 0.
0.531968 0.0450267 0.
0.533969 0.0450273 0.
0.535969 0.0450273 0.
0.53797 0.0450272 0.
0.53997 0.0450271 0.
0.541971 0.0450269 0.
0.543972 0.0450266 0.
0.545972 0.045027 0.
0.547973 0.0450276 0.
0.549973 0.0450281 0.
0.551974 0.0450277 0.
0.553975 0.0450273 0.
0.555976 0.045027 0.
0.557977 0.0450269 0.
0.559978 0.0450269 0.
0.56198 0.0450269 0.
0.563981 0.045027 0.
0.565982 0.045027 0.
0.567982 0.0450271 0.
0.569983 0.045027 0.
0.571984 0.045027 0.
0.573985 0.0450269 0.
0.575986 0.0450267 0.
0.577988 0.0450267 0.
0.579988 0.0450275 0.
0.581989 0.0450283 0.
0.58399 0.0450288 0.
0.585992 0.0450288 0.
0.587994 0.0450289 0.
0.589996 0.0450281 0.
0.591996 0.0450268 0.
0.593997 0.0450254 0.
0.595999 0.0450259 0.
0.598 0.0450271 0.
0.600001 0.0450282 0.
0.602003 0.0450284 0.
0.604006 0.0450286 0.
0.606008 0.0450288 0.
0.608008 0.0450288 0.
0.610009 0.0450288 0.
0.61201 0.0450284 0.
0.614011 0.0450276 0.
0.616012 0.0450268 0.
0.618013 0.045027 0.
0.620014 0.0450277 0.
0.622015 0.0450284 0.
0.624017 0.045028 0.
0.626018 0.0450275 0.
0.62802 0.0450271 0.
0.63002 0.0450274 0.
0.632021 0.0450276 0.
0.634021 0.0450276 0.
0.636022 0.0450273 0.
0.638024 0.045027 0.
0.640025 0.0450268 0.
0.642025 0.0450267 0.
0.644026 0.0450267 0.
0.646028 0.0450275 0.
0.648029 0.0450287 0.
0.650031 0.0450298 0.
0.652031 0.0450291 0.
0.654031 0.0450285 0.
0.656031 0.0450281 0.
0.658032 0.0450287 0.
0.660033 0.0450293 0.
0.662033 0.0450298 0.
0.664033 0.0450301 0.
0.666033 0.0450304 0.
0.668033 0.0450297 0.
0.670034 0.0450287 0.
0.672034 0.0450276 0.
0.674034 0.0450267 0.
0.676035 0.0450258 0.
0.678036 0.0450249 0.
0.680036 0.0450241 0.
0.682036 0.0450232 0.
0.684037 0.0450228 0.
0.686037 0.045023 0.
0.688038 0.0450233 0.
0.690039 0.0450235 0.
0.692039 0.0450237 0.
0.694039 0.045024 0.
0.69604 0.0450244 0.
0.69804 0.0450248 0.
0.499963 0.0470263 0.
0.501963 0.0470258 0.
0.503964 0.0470257 0.
0.505964 0.0470256 0.
0.507964 0.0470257 0.
0.509964 0.0470259 0.
0.511965 0.0470258 0.
0.513965 0.0470256 0.
0.515965 0.0470254 0.
0.517965 0.0470255 0.
0.519965 0.0470258 0.
0.521966 0.0470262 0.
0.523966 0.0470261 0.
0.525967 0.0470258 0.
0.527968 0.0470257 0.
0.529968 0.0470263 0.
0.531968 0.0470268 0.
0.533969 0.0470272 0.
0.535969 0.0470272 0.
0.53797 0.0470272 0.
0.539971 0.0470271 0.
0.541971 0.0470268 0.
0.543972 0.0470266 0.
0.545972 0.047027 0.
0.547973 0.0470277 0.
0.549973 0.0470284 0.
0.551974 0.0470277 0.
0.553975 0.0470269 0.
0.555976 0.0470264 0.
0.557978 0.0470268 0.
0.559979 0.0470271 0.
0.56198 0.0470273 0.
0.563981 0.0470274 0.
0.565982 0.0470274 0.
0.567983 0.0470272 0.
0.569983 0.0470269 0.
0.571984 0.0470266 0.
0.573985 0.0470268 0.
0.575987 0.047027 0.
0.577988 0.0470273 0.
0.579988 0.0470277 0.
0.581989 0.0470281 0.
0.58399 0.0470284 0.
0.585992 0.0470285 0.
0.587993 0.0470286 0.
0.589995 0.047028 0.
0.591996 0.047027 0.
0.593998 0.0470259 0.
0.595999 0.0470263 0.
0.597999 0.0470271 0.
0.6 0.0470279 0.
0.602002 0.0470283 0.
0.604005 0.0470287 0.
0.606006 0.0470289 0.
0.608007 0.0470288 0.
0.610008 0.0470286 0.
0.612009 0.0470283 0.
0.614011 0.0470277 0.
0.616012 0.0470271 0.
0.618013 0.0470272 0.
0.620014 0.0470275 0.
0.622015 0.0470278 0.
0.624016 0.0470278 0.
0.626018 0.0470278 0.
0.628019 0.0470278 0.
0.63002 0.0470278 0.
0.63202 0.0470277 0.
0.634021 0.0470277 0.
0.636022 0.0470275 0.
0.638023 0.0470274 0.
0.640024 0.0470272 0.
0.642025 0.0470269 0.
0.644026 0.0470267 0.
0.646027 0.0470276 0.
0.648028 0.0470288 0.
0.650029 0.04703 0.
0.65203 0.0470295 0.
0.65403 0.0470291 0.
0.656031 0.0470288 0.
0.658031 0.0470291 0.
0.660032 0.0470293 0.
0.662032 0.0470295 0.
0.664033 0.0470298 0.
0.666033 0.04703 0.
0.668033 0.0470295 0.
0.670033 0.0470286 0.
0.672033 0.0470277 0.
0.674034 0.0470269 0.
0.676035 0.0470262 0.
0.678036 0.0470255 0.
0.680036 0.0470249 0.
0.682036 0.0470243 0.
0.684036 0.047024 0.
0.686037 0.047024 0.
0.688037 0.047024 0.
0.690038 0.0470242 0.
0.692038 0.0470245 0.
0.694039 0.0470248 0.
0.696039 0.0470252 0.
0.69804 0.0470258 0.
0.499963 0.0490266 0.
0.501963 0.0490263 0.
0.503964 0.0490262 0.
0.505964 0.0490262 0.
0.507964 0.0490262 0.
0.509965 0.0490262 0.
0.511965 0.0490261 0.
0.513965 0.0490258 0.
0.515965 0.0490256 0.
0.517965 0.0490256 0.
0.519966 0.0490258 0.
0.521966 0.0490259 0.
0.523967 0.0490261 0.
0.525968 0.0490263 0.
0.527968 0.0490265 0.
0.529968 0.0490267 0.
0.531968 0.049027 0.
0.533969 0.0490272 0.
0.53597 0.0490272 0.
0.537971 0.0490272 0.
0.539971 0.0490271 0.
0.541972 0.0490268 0.
0.543972 0.0490265 0.
0.545972 0.0490271 0.
0.547973 0.0490279 0.
0.549974 0.0490288 0.
0.551975 0.0490277 0.
0.553976 0.0490266 0.
0.555977 0.0490258 0.
0.557978 0.0490266 0.
0.55998 0.0490274 0.
0.561981 0.0490278 0.
0.563982 0.0490277 0.
0.565983 0.0490277 0.
0.567983 0.0490273 0.
0.569984 0.0490268 0.
0.571984 0.0490263 0.
0.573985 0.0490268 0.
0.575987 0.0490273 0.
0.577988 0.0490279 0.
0.579989 0.0490279 0.
0.581989 0.049028 0.
0.58399 0.0490281 0.
0.585991 0.0490282 0.
0.587993 0.0490283 0.
0.589994 0.0490279 0.
0.591996 0.0490272 0.
0.593998 0.0490264 0.
0.595999 0.0490267 0.
0.597999 0.0490272 0.
0.6 0.0490277 0.
0.602002 0.0490282 0.
0.604003 0.0490287 0.
0.606005 0.049029 0.
0.608007 0.0490287 0.
0.610008 0.0490285 0.
0.612009 0.0490282 0.
0.61401 0.0490278 0.
0.616011 0.0490275 0.
0.618012 0.0490273 0.
0.620013 0.0490273 0.
0.622015 0.0490272 0.
0.624016 0.0490277 0.
0.626018 0.0490281 0.
0.628019 0.0490285 0.
0.63002 0.0490282 0.
0.63202 0.0490279 0.
0.634021 0.0490277 0.
0.636021 0.0490277 0.
0.638022 0.0490278 0.
0.640023 0.0490276 0.
0.642024 0.0490271 0.
0.644025 0.0490267 0.
0.646026 0.0490276 0.
0.648027 0.0490289 0.
0.650028 0.0490302 0.
0.652028 0.04903 0.
0.654029 0.0490298 0.
0.65603 0.0490295 0.
0.65803 0.0490294 0.
0.660031 0.0490292 0.
0.662032 0.0490293 0.
0.664032 0.0490295 0.
0.666033 0.0490297 0.
0.668033 0.0490292 0.
0.670033 0.0490285 0.
0.672033 0.0490278 0.
0.674034 0.0490272 0.
0.676035 0.0490267 0.
0.678035 0.0490261 0.
0.680036 0.0490258 0.
0.682036 0.0490254 0.
0.684036 0.0490251 0.
0.686036 0.0490249 0.
0.688036 0.0490248 0.
0.690037 0.0490249 0.
0.692038 0.0490252 0.
0.694039 0.0490256 0.
0.696039 0.0490261 0.
0.69804 0.0490267 0.
0.499963 0.0510268 0.
0.501964 0.0510267 0.
0.503964 0.0510267 0.
0.505964 0.0510268 0.
0.507965 0.0510267 0.
0.509965 0.0510267 0.
0.511966 0.0510266 0.
0.513966 0.0510263 0.
0.515966 0.0510261 0.
0.517966 0.0510261 0.
0.519966 0.0510262 0.
0.521967 0.0510262 0.
0.523968 0.0510265 0.
0.525968 0.0510269 0.
0.527968 0.0510272 0.
0.529968 0.0510273 0.
0.531968 0.0510275 0.
0.533969 0.0510275 0.
0.53597 0.0510274 0.
0.537971 0.0510272 0.
0.539971 0.0510271 0.
0.541972 0.0510269 0.
0.543972 0.0510267 0.
0.545973 0.0510273 0.
0.547973 0.0510281 0.
0.549974 0.0510289 0.
0.551975 0.0510278 0.
0.553976 0.0510266 0.
0.555977 0.0510259 0.
0.557979 0.0510268 0.
0.55998 0.0510278 0.
0.561981 0.0510283 0.
0.563982 0.0510281 0.
0.565983 0.051028 0.
0.567983 0.0510276 0.
0.569984 0.051027 0.
0.571985 0.0510265 0.
0.573986 0.0510269 0.
0.575987 0.0510275 0.
0.577988 0.0510279 0.
0.579989 0.0510281 0.
0.58199 0.0510283 0.
0.583991 0.0510284 0.
0.585992 0.0510284 0.
0.587993 0.0510284 0.
0.589994 0.051028 0.
0.591996 0.0510274 0.
0.593998 0.0510267 0.
0.595999 0.0510269 0.
0.597999 0.0510274 0.
0.6 0.0510278 0.
0.602002 0.0510282 0.
0.604003 0.0510287 0.
0.606005 0.0510289 0.
0.608006 0.0510286 0.
0.610008 0.0510283 0.
0.612009 0.0510281 0.
0.61401 0.051028 0.
0.616011 0.0510279 0.
0.618012 0.0510277 0.
0.620013 0.0510276 0.
0.622014 0.0510274 0.
0.624016 0.0510279 0.
0.626017 0.0510285 0.
0.628019 0.0510289 0.
0.630019 0.0510287 0.
0.63202 0.0510285 0.
0.634021 0.0510283 0.
0.636021 0.0510282 0.
0.638022 0.0510281 0.
0.640023 0.0510278 0.
0.642024 0.0510273 0.
0.644025 0.0510268 0.
0.646026 0.0510277 0.
0.648027 0.051029 0.
0.650027 0.0510303 0.
0.652028 0.0510302 0.
0.654029 0.0510302 0.
0.656029 0.05103 0.
0.65803 0.0510297 0.
0.660031 0.0510293 0.
0.662031 0.0510292 0.
0.664032 0.0510294 0.
0.666033 0.0510296 0.
0.668033 0.0510293 0.
0.670033 0.0510288 0.
0.672033 0.0510283 0.
0.674034 0.0510278 0.
0.676035 0.0510272 0.
0.678035 0.0510267 0.
0.680035 0.0510266 0.
0.682036 0.0510265 0.
0.684036 0.0510262 0.
0.686036 0.0510258 0.
0.688036 0.0510253 0.
0.690037 0.0510254 0.
0.692038 0.0510259 0.
0.694039 0.0510264 0.
0.696039 0.0510269 0.
0.69804 0.0510275 0.
0.499964 0.0530268 0.
0.501964 0.0530268 0.
0.503964 0.0530271 0.
0.505965 0.0530274 0.
0.507965 0.0530273 0.
0.509966 0.0530273 0.
0.511966 0.0530272 0.
0.513966 0.0530271 0.
0.515966 0.053027 0.
0.517967 0.053027 0.
0.519967 0.053027 0.
0.521968 0.0530271 0.
0.523968 0.0530273 0.
0.525968 0.0530276 0.
0.527968 0.0530279 0.
0.529968 0.0530281 0.
0.531969 0.0530283 0.
0.533969 0.0530282 0.
0.53597 0.0530277 0.
0.53797 0.0530272 0.
0.539971 0.053027 0.
0.541971 0.0530271 0.
0.543972 0.0530272 0.
0.545973 0.0530277 0.
0.547973 0.0530283 0.
0.549974 0.0530289 0.
0.551975 0.053028 0.
0.553976 0.0530271 0.
0.555977 0.0530265 0.
0.557978 0.0530274 0.
0.559979 0.0530283 0.
0.56198 0.0530287 0.
0.563981 0.0530284 0.
0.565982 0.0530282 0.
0.567983 0.0530279 0.
0.569984 0.0530276 0.
0.571985 0.0530273 0.
0.573986 0.0530273 0.
0.575987 0.0530274 0.
0.577989 0.0530275 0.
0.57999 0.0530283 0.
0.58199 0.053029 0.
0.583991 0.0530294 0.
0.585992 0.0530292 0.
0.587994 0.053029 0.
0.589995 0.0530284 0.
0.591996 0.0530276 0.
0.593998 0.0530268 0.
0.595999 0.0530271 0.
0.598 0.0530276 0.
0.600001 0.0530282 0.
0.602002 0.0530284 0.
0.604004 0.0530286 0.
0.606005 0.0530287 0.
0.608007 0.0530285 0.
0.610008 0.0530282 0.
0.612009 0.0530282 0.
0.61401 0.0530283 0.
0.616011 0.0530284 0.
0.618012 0.0530284 0.
0.620013 0.0530284 0.
0.622014 0.0530284 0.
0.624015 0.0530286 0.
0.626017 0.0530289 0.
0.628018 0.0530292 0.
0.630019 0.0530293 0.
0.63202 0.0530295 0.
0.634021 0.0530294 0.
0.636022 0.0530289 0.
0.638022 0.0530284 0.
0.640023 0.0530279 0.
0.642024 0.0530274 0.
0.644025 0.053027 0.
0.646026 0.0530279 0.
0.648027 0.0530291 0.
0.650028 0.0530303 0.
0.652028 0.0530304 0.
0.654029 0.0530304 0.
0.656029 0.0530303 0.
0.65803 0.0530299 0.
0.660031 0.0530294 0.
0.662031 0.0530293 0.
0.664032 0.0530296 0.
0.666033 0.0530299 0.
0.668033 0.0530298 0.
0.670034 0.0530295 0.
0.672034 0.0530292 0.
0.674035 0.0530286 0.
0.676035 0.0530279 0.
0.678035 0.0530273 0.
0.680036 0.0530274 0.
0.682036 0.0530275 0.
0.684036 0.0530273 0.
0.686036 0.0530265 0.
0.688037 0.0530257 0.
0.690037 0.0530257 0.
0.692038 0.0530264 0.
0.694039 0.0530271 0.
0.696039 0.0530277 0.
0.698039 0.0530282 0.
0.499964 0.0550267 0.
0.501965 0.0550269 0.
0.503965 0.0550275 0.
0.505965 0.0550279 0.
0.507966 0.0550279 0.
0.509966 0.0550278 0.
0.511966 0.0550278 0.
0.513966 0.0550278 0.
0.515967 0.0550278 0.
0.517967 0.0550279 0.
0.519968 0.0550279 0.
0.521968 0.055028 0.
0.523968 0.0550281 0.
0.525968 0.0550284 0.
0.527968 0.0550286 0.
0.529968 0.0550288 0.
0.531969 0.0550291 0.
0.533969 0.0550289 0.
0.53597 0.0550281 0.
0.53797 0.0550272 0.
0.539971 0.055027 0.
0.541971 0.0550273 0.
0.543972 0.0550277 0.
0.545973 0.0550281 0.
0.547974 0.0550285 0.
0.549975 0.0550289 0.
0.551976 0.0550282 0.
0.553977 0.0550276 0.
0.555978 0.0550272 0.
0.557978 0.055028 0.
0.559979 0.0550288 0.
0.56198 0.055029 0.
0.56398 0.0550287 0.
0.565981 0.0550284 0.
0.567982 0.0550282 0.
0.569983 0.0550282 0.
0.571985 0.0550281 0.
0.573986 0.0550277 0.
0.575988 0.0550273 0.
0.577989 0.0550271 0.
0.57999 0.0550284 0.
0.581991 0.0550297 0.
0.583992 0.0550304 0.
0.585993 0.05503 0.
0.587994 0.0550295 0.
0.589996 0.0550288 0.
0.591997 0.0550279 0.
0.593998 0.055027 0.
0.595999 0.0550273 0.
0.598 0.0550279 0.
0.600001 0.0550286 0.
0.602003 0.0550286 0.
0.604004 0.0550286 0.
0.606006 0.0550286 0.
0.608007 0.0550284 0.
0.610008 0.0550282 0.
0.612009 0.0550282 0.
0.61401 0.0550285 0.
0.61601 0.0550289 0.
0.618011 0.0550291 0.
0.620012 0.0550292 0.
0.622013 0.0550293 0.
0.624015 0.0550293 0.
0.626016 0.0550293 0.
0.628018 0.0550294 0.
0.630019 0.0550299 0.
0.63202 0.0550304 0.
0.634021 0.0550305 0.
0.636022 0.0550295 0.
0.638023 0.0550286 0.
0.640023 0.055028 0.
0.642024 0.0550275 0.
0.644025 0.0550271 0.
0.646026 0.055028 0.
0.648027 0.0550292 0.
0.650028 0.0550304 0.
0.652029 0.0550305 0.
0.654029 0.0550306 0.
0.656029 0.0550306 0.
0.65803 0.0550301 0.
0.660031 0.0550296 0.
0.662032 0.0550294 0.
0.664032 0.0550298 0.
0.666032 0.0550301 0.
0.668033 0.0550302 0.
0.670034 0.0550302 0.
0.672035 0.0550301 0.
0.674035 0.0550294 0.
0.676035 0.0550286 0.
0.678036 0.0550279 0.
0.680036 0.0550282 0.
0.682036 0.0550286 0.
0.684036 0.0550284 0.
0.686037 0.0550272 0.
0.688037 0.0550261 0.
0.690038 0.0550261 0.
0.692038 0.055027 0.
0.694039 0.0550279 0.
0.696039 0.0550284 0.
0.698038 0.0550289 0.
0.499964 0.0570278 0.
0.501965 0.0570277 0.
0.503965 0.0570278 0.
0.505965 0.0570279 0.
0.507965 0.0570279 0.
0.509966 0.0570279 0.
0.511966 0.057028 0.
0.513967 0.0570284 0.
0.515967 0.0570288 0.
0.517967 0.0570289 0.
0.519968 0.0570288 0.
0.521968 0.0570287 0.
0.523968 0.0570288 0.
0.525969 0.0570289 0.
0.527969 0.0570291 0.
0.529969 0.057029 0.
0.531969 0.057029 0.
0.53397 0.0570288 0.
0.53597 0.0570282 0.
0.53797 0.0570276 0.
0.539971 0.0570275 0.
0.541971 0.0570277 0.
0.543972 0.0570279 0.
0.545973 0.0570281 0.
0.547973 0.0570283 0.
0.549974 0.0570285 0.
0.551975 0.0570281 0.
0.553976 0.0570277 0.
0.555977 0.0570275 0.
0.557978 0.0570281 0.
0.559979 0.0570287 0.
0.56198 0.057029 0.
0.563981 0.0570289 0.
0.565981 0.0570287 0.
0.567982 0.0570284 0.
0.569983 0.0570279 0.
0.571984 0.0570275 0.
0.573986 0.0570274 0.
0.575987 0.0570272 0.
0.577989 0.0570273 0.
0.57999 0.0570284 0.
0.581991 0.0570295 0.
0.583992 0.0570301 0.
0.585993 0.0570297 0.
0.587994 0.0570293 0.
0.589995 0.0570287 0.
0.591996 0.0570279 0.
0.593997 0.0570271 0.
0.595999 0.0570275 0.
0.598 0.0570282 0.
0.600001 0.0570289 0.
0.602003 0.0570285 0.
0.604004 0.0570282 0.
0.606006 0.0570279 0.
0.608007 0.0570279 0.
0.610008 0.0570279 0.
0.612009 0.0570281 0.
0.61401 0.0570285 0.
0.616011 0.0570289 0.
0.618012 0.0570291 0.
0.620012 0.0570293 0.
0.622013 0.0570294 0.
0.624015 0.0570295 0.
0.626016 0.0570296 0.
0.628018 0.0570297 0.
0.630019 0.0570298 0.
0.63202 0.0570299 0.
0.634021 0.0570298 0.
0.636022 0.0570293 0.
0.638023 0.0570289 0.
0.640023 0.0570284 0.
0.642024 0.057028 0.
0.644025 0.0570275 0.
0.646026 0.0570283 0.
0.648026 0.0570294 0.
0.650027 0.0570305 0.
0.652028 0.0570306 0.
0.654028 0.0570307 0.
0.656028 0.0570306 0.
0.65803 0.0570302 0.
0.660031 0.0570298 0.
0.662032 0.0570298 0.
0.664032 0.0570302 0.
0.666033 0.0570307 0.
0.668033 0.0570307 0.
0.670034 0.0570306 0.
0.672035 0.0570306 0.
0.674035 0.0570298 0.
0.676035 0.057029 0.
0.678035 0.0570282 0.
0.680035 0.0570284 0.
0.682036 0.0570285 0.
0.684036 0.0570283 0.
0.686037 0.0570275 0.
0.688037 0.0570268 0.
0.690037 0.0570269 0.
0.692038 0.0570276 0.
0.694039 0.0570283 0.
0.696039 0.0570289 0.
0.698039 0.0570295 0.
0.499964 0.0590289 0.
0.501964 0.0590285 0.
0.503964 0.0590282 0.
0.505965 0.0590279 0.
0.507965 0.0590279 0.
0.509966 0.0590279 0.
0.511966 0.0590282 0.
0.513967 0.059029 0.
0.515967 0.0590298 0.
0.517967 0.05903 0.
0.519968 0.0590297 0.
0.521968 0.0590294 0.
0.523969 0.0590295 0.
0.525969 0.0590295 0.
0.52797 0.0590295 0.
0.52997 0.0590292 0.
0.53197 0.0590289 0.
0.53397 0.0590287 0.
0.53597 0.0590283 0.
0.537971 0.059028 0.
0.539971 0.0590279 0.
0.541972 0.059028 0.
0.543972 0.0590281 0.
0.545972 0.0590281 0.
0.547973 0.0590281 0.
0.549974 0.059028 0.
0.551975 0.0590279 0.
0.553976 0.0590278 0.
0.555977 0.0590278 0.
0.557978 0.0590283 0.
0.559979 0.0590287 0.
0.56198 0.0590289 0.
0.563981 0.059029 0.
0.565981 0.059029 0.
0.567982 0.0590285 0.
0.569983 0.0590277 0.
0.571984 0.0590269 0.
0.573985 0.059027 0.
0.575987 0.0590272 0.
0.577988 0.0590274 0.
0.579989 0.0590283 0.
0.581991 0.0590292 0.
0.583992 0.0590297 0.
0.585992 0.0590294 0.
0.587993 0.0590291 0.
0.589994 0.0590286 0.
0.591996 0.0590279 0.
0.593997 0.0590273 0.
0.595998 0.0590277 0.
0.598 0.0590285 0.
0.600001 0.0590292 0.
0.602002 0.0590285 0.
0.604004 0.0590277 0.
0.606005 0.0590272 0.
0.608006 0.0590274 0.
0.610007 0.0590276 0.
0.612009 0.0590279 0.
0.61401 0.0590284 0.
0.616011 0.0590288 0.
0.618012 0.0590291 0.
0.620012 0.0590293 0.
0.622013 0.0590295 0.
0.624014 0.0590297 0.
0.626016 0.0590299 0.
0.628017 0.05903 0.
0.630018 0.0590296 0.
0.632019 0.0590293 0.
0.63402 0.0590291 0.
0.636021 0.0590291 0.
0.638022 0.0590292 0.
0.640023 0.0590289 0.
0.642024 0.0590284 0.
0.644025 0.0590278 0.
0.646026 0.0590285 0.
0.648026 0.0590295 0.
0.650026 0.0590306 0.
0.652027 0.0590306 0.
0.654027 0.0590307 0.
0.656028 0.0590306 0.
0.658029 0.0590304 0.
0.66003 0.0590301 0.
0.662032 0.0590302 0.
0.664032 0.0590307 0.
0.666033 0.0590312 0.
0.668033 0.0590313 0.
0.670034 0.0590311 0.
0.672034 0.059031 0.
0.674034 0.0590302 0.
0.676034 0.0590293 0.
0.678034 0.0590285 0.
0.680035 0.0590285 0.
0.682035 0.0590284 0.
0.684036 0.0590282 0.
0.686036 0.0590279 0.
0.688036 0.0590275 0.
0.690037 0.0590276 0.
0.692038 0.0590281 0.
0.694039 0.0590287 0.
0.696039 0.0590294 0.
0.698039 0.0590301 0.
0.499965 0.0610295 0.
0.501965 0.0610291 0.
0.503965 0.0610287 0.
0.505965 0.0610284 0.
0.507966 0.0610283 0.
0.509966 0.0610281 0.
0.511967 0.0610285 0.
0.513967 0.0610295 0.
0.515967 0.0610306 0.
0.517967 0.0610307 0.
0.519968 0.0610304 0.
0.521968 0.06103 0.
0.523969 0.06103 0.
0.525969 0.06103 0.
0.52797 0.0610299 0.
0.52997 0.0610295 0.
0.53197 0.0610291 0.
0.53397 0.0610288 0.
0.535971 0.0610285 0.
0.537971 0.0610283 0.
0.539971 0.0610282 0.
0.541972 0.0610283 0.
0.543972 0.0610283 0.
0.545972 0.0610282 0.
0.547973 0.0610281 0.
0.549973 0.0610279 0.
0.551975 0.061028 0.
0.553976 0.0610282 0.
0.555977 0.0610283 0.
0.557978 0.0610286 0.
0.559979 0.0610288 0.
0.56198 0.061029 0.
0.563981 0.0610293 0.
0.565981 0.0610296 0.
0.567982 0.061029 0.
0.569983 0.0610279 0.
0.571984 0.0610268 0.
0.573985 0.061027 0.
0.575986 0.0610273 0.
0.577987 0.0610277 0.
0.579989 0.0610285 0.
0.58199 0.0610294 0.
0.583991 0.0610298 0.
0.585992 0.0610294 0.
0.587993 0.061029 0.
0.589994 0.0610285 0.
0.591995 0.0610279 0.
0.593996 0.0610272 0.
0.595998 0.0610277 0.
0.598 0.0610285 0.
0.600001 0.0610293 0.
0.602002 0.0610284 0.
0.604004 0.0610276 0.
0.606005 0.0610269 0.
0.608006 0.0610272 0.
0.610007 0.0610275 0.
0.612008 0.0610278 0.
0.61401 0.0610282 0.
0.616011 0.0610286 0.
0.618012 0.0610289 0.
0.620012 0.0610293 0.
0.622013 0.0610296 0.
0.624014 0.0610298 0.
0.626016 0.0610299 0.
0.628017 0.06103 0.
0.630018 0.0610296 0.
0.63202 0.0610291 0.
0.634021 0.0610289 0.
0.636022 0.0610292 0.
0.638023 0.0610294 0.
0.640024 0.0610293 0.
0.642024 0.0610288 0.
0.644025 0.0610283 0.
0.646026 0.0610291 0.
0.648026 0.0610301 0.
0.650026 0.0610311 0.
0.652026 0.061031 0.
0.654027 0.0610308 0.
0.656028 0.0610306 0.
0.658029 0.0610305 0.
0.66003 0.0610303 0.
0.662031 0.0610305 0.
0.664032 0.0610311 0.
0.666033 0.0610318 0.
0.668033 0.0610318 0.
0.670034 0.0610316 0.
0.672034 0.0610314 0.
0.674034 0.0610307 0.
0.676034 0.0610299 0.
0.678034 0.0610291 0.
0.680034 0.0610289 0.
0.682035 0.0610287 0.
0.684036 0.0610285 0.
0.686036 0.0610283 0.
0.688036 0.0610282 0.
0.690037 0.0610283 0.
0.692037 0.0610287 0.
0.694038 0.0610291 0.
0.696039 0.0610298 0.
0.698039 0.0610306 0.
0.499965 0.0630297 0.
0.501965 0.0630294 0.
0.503966 0.0630293 0.
0.505966 0.0630292 0.
0.507966 0.0630289 0.
0.509967 0.0630285 0.
0.511967 0.0630287 0.
0.513967 0.0630299 0.
0.515967 0.0630311 0.
0.517967 0.0630312 0.
0.519968 0.0630308 0.
0.521968 0.0630304 0.
0.523969 0.0630303 0.
0.525969 0.0630303 0.
0.52797 0.0630302 0.
0.52997 0.0630298 0.
0.53197 0.0630295 0.
0.533971 0.0630291 0.
0.535971 0.0630287 0.
0.537971 0.0630284 0.
0.539972 0.0630283 0.
0.541972 0.0630285 0.
0.543972 0.0630286 0.
0.545973 0.0630285 0.
0.547973 0.0630283 0.
0.549974 0.0630281 0.
0.551975 0.0630284 0.
0.553976 0.0630288 0.
0.555977 0.063029 0.
0.557978 0.063029 0.
0.559979 0.0630289 0.
0.56198 0.0630292 0.
0.56398 0.0630298 0.
0.565981 0.0630304 0.
0.567982 0.0630298 0.
0.569983 0.0630286 0.
0.571984 0.0630273 0.
0.573985 0.0630274 0.
0.575986 0.0630277 0.
0.577987 0.063028 0.
0.579988 0.063029 0.
0.581989 0.0630299 0.
0.58399 0.0630303 0.
0.585991 0.0630297 0.
0.587993 0.063029 0.
0.589994 0.0630284 0.
0.591995 0.0630277 0.
0.593996 0.063027 0.
0.595998 0.0630275 0.
0.598 0.0630283 0.
0.600001 0.0630291 0.
0.602002 0.0630284 0.
0.604004 0.0630277 0.
0.606005 0.0630271 0.
0.608006 0.0630272 0.
0.610007 0.0630273 0.
0.612008 0.0630275 0.
0.614009 0.0630278 0.
0.61601 0.063028 0.
0.618011 0.0630285 0.
0.620012 0.0630292 0.
0.622013 0.0630298 0.
0.624015 0.0630298 0.
0.626016 0.0630297 0.
0.628018 0.0630296 0.
0.630019 0.0630295 0.
0.63202 0.0630293 0.
0.634021 0.0630293 0.
0.636022 0.0630294 0.
0.638023 0.0630296 0.
0.640024 0.0630295 0.
0.642025 0.0630292 0.
0.644025 0.0630289 0.
0.646026 0.0630298 0.
0.648026 0.063031 0.
0.650026 0.0630321 0.
0.652027 0.0630316 0.
0.654028 0.063031 0.
0.656028 0.0630306 0.
0.658029 0.0630305 0.
0.66003 0.0630305 0.
0.662031 0.0630308 0.
0.664032 0.0630316 0.
0.666033 0.0630324 0.
0.668033 0.0630325 0.
0.670033 0.0630322 0.
0.672033 0.063032 0.
0.674033 0.0630313 0.
0.676033 0.0630306 0.
0.678034 0.0630299 0.
0.680034 0.0630296 0.
0.682035 0.0630293 0.
0.684035 0.063029 0.
0.686035 0.0630289 0.
0.688035 0.0630288 0.
0.690036 0.0630289 0.
0.692036 0.0630292 0.
0.694037 0.0630295 0.
0.696037 0.0630303 0.
0.698037 0.0630311 0.
0.499965 0.0650296 0.
0.501966 0.0650297 0.
0.503967 0.0650299 0.
0.505968 0.0650301 0.
0.507967 0.0650295 0.
0.509967 0.0650289 0.
0.511967 0.065029 0.
0.513967 0.0650303 0.
0.515967 0.0650315 0.
0.517967 0.0650317 0.
0.519968 0.0650312 0.
0.521968 0.0650308 0.
0.523969 0.0650307 0.
0.525969 0.0650306 0.
0.527969 0.0650305 0.
0.52997 0.0650302 0.
0.531971 0.0650298 0.
0.533971 0.0650294 0.
0.535971 0.0650289 0.
0.537972 0.0650285 0.
0.539972 0.0650284 0.
0.541972 0.0650287 0.
0.543973 0.0650289 0.
0.545973 0.0650288 0.
0.547973 0.0650285 0.
0.549974 0.0650283 0.
0.551975 0.0650288 0.
0.553976 0.0650293 0.
0.555977 0.0650296 0.
0.557978 0.0650293 0.
0.559979 0.0650291 0.
0.561979 0.0650294 0.
0.56398 0.0650303 0.
0.565981 0.0650313 0.
0.567982 0.0650307 0.
0.569984 0.0650292 0.
0.571985 0.0650278 0.
0.573985 0.0650278 0.
0.575986 0.065028 0.
0.577986 0.0650283 0.
0.579987 0.0650294 0.
0.581988 0.0650304 0.
0.58399 0.0650308 0.
0.585991 0.0650299 0.
0.587992 0.065029 0.
0.589993 0.0650282 0.
0.591995 0.0650275 0.
0.593996 0.0650268 0.
0.595998 0.0650273 0.
0.598 0.0650281 0.
0.600002 0.065029 0.
0.602003 0.0650284 0.
0.604003 0.0650278 0.
0.606004 0.0650273 0.
0.608006 0.0650273 0.
0.610007 0.0650272 0.
0.612008 0.0650273 0.
0.614008 0.0650274 0.
0.616009 0.0650275 0.
0.61801 0.0650282 0.
0.620012 0.0650291 0.
0.622013 0.06503 0.
0.624015 0.0650298 0.
0.626017 0.0650295 0.
0.628018 0.0650293 0.
0.63002 0.0650294 0.
0.632021 0.0650295 0.
0.634022 0.0650296 0.
0.636023 0.0650297 0.
0.638024 0.0650297 0.
0.640024 0.0650297 0.
0.642025 0.0650296 0.
0.644025 0.0650295 0.
0.646026 0.0650305 0.
0.648026 0.0650318 0.
0.650027 0.0650331 0.
0.652028 0.0650322 0.
0.654028 0.0650313 0.
0.656029 0.0650305 0.
0.658029 0.0650306 0.
0.660029 0.0650306 0.
0.66203 0.0650311 0.
0.664031 0.065032 0.
0.666032 0.0650329 0.
0.668033 0.0650331 0.
0.670033 0.0650328 0.
0.672033 0.0650326 0.
0.674033 0.065032 0.
0.676033 0.0650313 0.
0.678033 0.0650307 0.
0.680034 0.0650303 0.
0.682034 0.0650299 0.
0.684035 0.0650295 0.
0.686035 0.0650295 0.
0.688035 0.0650294 0.
0.690035 0.0650295 0.
0.692035 0.0650298 0.
0.694036 0.06503 0.
0.696036 0.0650307 0.
0.698036 0.0650315 0.
0.499966 0.0670305 0.
0.501966 0.0670304 0.
0.503967 0.0670306 0.
0.505967 0.0670307 0.
0.507967 0.06703 0.
0.509967 0.0670293 0.
0.511967 0.0670294 0.
0.513967 0.0670306 0.
0.515967 0.0670318 0.
0.517968 0.067032 0.
0.519968 0.0670317 0.
0.521969 0.0670314 0.
0.523969 0.0670311 0.
0.52597 0.0670308 0.
0.52797 0.0670305 0.
0.52997 0.0670302 0.
0.53197 0.0670299 0.
0.53397 0.0670296 0.
0.535971 0.0670292 0.
0.537971 0.0670288 0.
0.539972 0.0670289 0.
0.541972 0.0670292 0.
0.543973 0.0670295 0.
0.545973 0.0670295 0.
0.547974 0.0670293 0.
0.549974 0.0670292 0.
0.551975 0.0670292 0.
0.553976 0.0670293 0.
0.555977 0.0670293 0.
0.557978 0.0670292 0.
0.559978 0.0670291 0.
0.561979 0.0670294 0.
0.56398 0.0670301 0.
0.565981 0.0670308 0.
0.567982 0.0670304 0.
0.569983 0.0670295 0.
0.571984 0.0670285 0.
0.573985 0.0670284 0.
0.575986 0.0670284 0.
0.577986 0.0670286 0.
0.579988 0.0670292 0.
0.581989 0.0670299 0.
0.58399 0.0670301 0.
0.585991 0.0670295 0.
0.587992 0.0670289 0.
0.589993 0.0670282 0.
0.591995 0.0670275 0.
0.593996 0.0670267 0.
0.595997 0.0670272 0.
0.597999 0.067028 0.
0.600001 0.0670287 0.
0.602002 0.0670282 0.
0.604003 0.0670276 0.
0.606005 0.0670271 0.
0.608006 0.0670271 0.
0.610007 0.067027 0.
0.612008 0.0670271 0.
0.614009 0.0670272 0.
0.61601 0.0670274 0.
0.618011 0.067028 0.
0.620012 0.0670289 0.
0.622013 0.0670297 0.
0.624015 0.0670296 0.
0.626016 0.0670295 0.
0.628018 0.0670294 0.
0.630019 0.0670296 0.
0.63202 0.0670299 0.
0.634021 0.06703 0.
0.636022 0.0670299 0.
0.638023 0.0670298 0.
0.640024 0.0670297 0.
0.642024 0.0670296 0.
0.644025 0.0670295 0.
0.646026 0.0670305 0.
0.648026 0.0670318 0.
0.650027 0.067033 0.
0.652027 0.0670321 0.
0.654027 0.0670312 0.
0.656028 0.0670306 0.
0.658028 0.0670309 0.
0.660029 0.0670312 0.
0.662029 0.0670316 0.
0.66403 0.067032 0.
0.666031 0.0670324 0.
0.668031 0.0670326 0.
0.670032 0.0670326 0.
0.672032 0.0670326 0.
0.674033 0.067032 0.
0.676033 0.0670314 0.
0.678033 0.0670308 0.
0.680034 0.0670305 0.
0.682034 0.0670303 0.
0.684034 0.0670301 0.
0.686035 0.06703 0.
0.688035 0.06703 0.
0.690035 0.06703 0.
0.692035 0.0670301 0.
0.694035 0.0670302 0.
0.696035 0.067031 0.
0.698036 0.0670319 0.
0.499966 0.0690311 0.
0.501967 0.0690312 0.
0.503966 0.0690313 0.
0.505966 0.0690312 0.
0.507966 0.0690305 0.
0.509966 0.0690297 0.
0.511966 0.0690298 0.
0.513967 0.0690309 0.
0.515967 0.0690321 0.
0.517968 0.0690324 0.
0.519969 0.0690322 0.
0.52197 0.0690321 0.
0.52397 0.0690316 0.
0.52597 0.069031 0.
0.52797 0.0690305 0.
0.52997 0.0690303 0.
0.531969 0.06903 0.
0.533969 0.0690297 0.
0.53597 0.0690295 0.
0.537971 0.0690292 0.
0.539972 0.0690293 0.
0.541972 0.0690297 0.
0.543972 0.0690301 0.
0.545973 0.0690301 0.
0.547974 0.0690301 0.
0.549974 0.06903 0.
0.551975 0.0690296 0.
0.553976 0.0690292 0.
0.555976 0.0690289 0.
0.557977 0.069029 0.
0.559978 0.0690291 0.
0.561979 0.0690294 0.
0.56398 0.0690299 0.
0.565981 0.0690304 0.
0.567982 0.0690302 0.
0.569983 0.0690297 0.
0.571984 0.0690292 0.
0.573985 0.069029 0.
0.575986 0.0690288 0.
0.577987 0.0690288 0.
0.579988 0.0690291 0.
0.58199 0.0690294 0.
0.583991 0.0690295 0.
0.585992 0.0690291 0.
0.587992 0.0690288 0.
0.589993 0.0690282 0.
0.591995 0.0690274 0.
0.593996 0.0690266 0.
0.595997 0.069027 0.
0.597998 0.0690278 0.
0.6 0.0690285 0.
0.602002 0.069028 0.
0.604003 0.0690274 0.
0.606005 0.069027 0.
0.608006 0.0690269 0.
0.610007 0.0690268 0.
0.612008 0.0690268 0.
0.614009 0.069027 0.
0.61601 0.0690273 0.
0.618011 0.0690279 0.
0.620012 0.0690286 0.
0.622013 0.0690294 0.
0.624015 0.0690295 0.
0.626016 0.0690294 0.
0.628018 0.0690294 0.
0.630018 0.0690299 0.
0.632019 0.0690303 0.
0.63402 0.0690305 0.
0.636021 0.0690302 0.
0.638023 0.0690299 0.
0.640023 0.0690297 0.
0.642024 0.0690296 0.
0.644025 0.0690295 0.
0.646025 0.0690304 0.
0.648026 0.0690317 0.
0.650026 0.0690329 0.
0.652026 0.069032 0.
0.654026 0.0690311 0.
0.656027 0.0690306 0.
0.658027 0.0690312 0.
0.660028 0.0690318 0.
0.662028 0.069032 0.
0.664029 0.0690319 0.
0.666029 0.0690318 0.
0.66803 0.069032 0.
0.670031 0.0690323 0.
0.672032 0.0690326 0.
0.674032 0.0690321 0.
0.676033 0.0690314 0.
0.678033 0.0690308 0.
0.680033 0.0690308 0.
0.682034 0.0690307 0.
0.684034 0.0690306 0.
0.686034 0.0690306 0.
0.688034 0.0690305 0.
0.690034 0.0690305 0.
0.692035 0.0690305 0.
0.694035 0.0690304 0.
0.696035 0.0690312 0.
0.698036 0.0690323 0.
0.499967 0.0710314 0.
0.501966 0.0710317 0.
0.503966 0.0710319 0.
0.505966 0.0710318 0.
0.507966 0.0710312 0.
0.509966 0.0710305 0.
0.511966 0.0710306 0.
0.513966 0.0710316 0.
0.515967 0.0710325 0.
0.517968 0.0710327 0.
0.519969 0.0710325 0.
0.52197 0.0710323 0.
0.52397 0.0710318 0.
0.52597 0.0710313 0.
0.52797 0.0710308 0.
0.52997 0.0710306 0.
0.531969 0.0710304 0.
0.533969 0.0710302 0.
0.53597 0.0710298 0.
0.537971 0.0710295 0.
0.539972 0.0710297 0.
0.541972 0.0710302 0.
0.543972 0.0710306 0.
0.545973 0.0710306 0.
0.547974 0.0710304 0.
0.549975 0.0710302 0.
0.551975 0.0710297 0.
0.553976 0.0710292 0.
0.555976 0.0710289 0.
0.557977 0.0710292 0.
0.559978 0.0710295 0.
0.561979 0.0710297 0.
0.56398 0.0710299 0.
0.565981 0.07103 0.
0.567982 0.07103 0.
0.569983 0.0710297 0.
0.571983 0.0710295 0.
0.573985 0.0710293 0.
0.575986 0.0710292 0.
0.577987 0.0710291 0.
0.579988 0.0710291 0.
0.58199 0.0710291 0.
0.583991 0.0710291 0.
0.585992 0.0710291 0.
0.587992 0.071029 0.
0.589993 0.0710285 0.
0.591995 0.0710276 0.
0.593996 0.0710267 0.
0.595997 0.0710269 0.
0.597998 0.0710275 0.
0.6 0.0710281 0.
0.602002 0.0710278 0.
0.604004 0.0710276 0.
0.606005 0.0710273 0.
0.608006 0.0710271 0.
0.610008 0.0710268 0.
0.612009 0.0710267 0.
0.614009 0.0710269 0.
0.61601 0.071027 0.
0.618011 0.0710276 0.
0.620012 0.0710284 0.
0.622013 0.0710291 0.
0.624014 0.0710293 0.
0.626016 0.0710294 0.
0.628017 0.0710295 0.
0.630018 0.07103 0.
0.632019 0.0710305 0.
0.63402 0.0710307 0.
0.636021 0.0710303 0.
0.638022 0.07103 0.
0.640023 0.0710299 0.
0.642023 0.0710298 0.
0.644024 0.0710298 0.
0.646025 0.0710305 0.
0.648025 0.0710315 0.
0.650026 0.0710324 0.
0.652026 0.0710319 0.
0.654026 0.0710314 0.
0.656026 0.0710311 0.
0.658027 0.0710317 0.
0.660028 0.0710322 0.
0.662028 0.0710324 0.
0.664028 0.071032 0.
0.666029 0.0710316 0.
0.66803 0.0710318 0.
0.670031 0.0710322 0.
0.672032 0.0710326 0.
0.674032 0.0710322 0.
0.676033 0.0710317 0.
0.678033 0.0710312 0.
0.680033 0.0710312 0.
0.682033 0.0710312 0.
0.684033 0.0710312 0.
0.686034 0.0710311 0.
0.688034 0.071031 0.
0.690034 0.0710309 0.
0.692034 0.0710308 0.
0.694035 0.0710307 0.
0.696035 0.0710314 0.
0.698036 0.0710324 0.
0.499965 0.0730317 0.
0.501965 0.0730321 0.
0.503965 0.0730323 0.
0.505965 0.0730325 0.
0.507966 0.0730321 0.
0.509966 0.0730318 0.
0.511966 0.0730319 0.
0.513966 0.0730325 0.
0.515967 0.0730331 0.
0.517968 0.073033 0.
0.519968 0.0730326 0.
0.521969 0.0730322 0.
0.523969 0.0730319 0.
0.525969 0.0730316 0.
0.527969 0.0730313 0.
0.529969 0.0730312 0.
0.531969 0.073031 0.
0.533969 0.0730308 0.
0.53597 0.0730303 0.
0.537971 0.0730299 0.
0.539972 0.07303 0.
0.541972 0.0730306 0.
0.543973 0.0730312 0.
0.545973 0.0730308 0.
0.547974 0.0730302 0.
0.549975 0.0730296 0.
0.551975 0.0730294 0.
0.553976 0.0730293 0.
0.555977 0.0730292 0.
0.557977 0.0730297 0.
0.559978 0.0730302 0.
0.561979 0.0730304 0.
0.56398 0.0730301 0.
0.565981 0.0730298 0.
0.567982 0.0730296 0.
0.569983 0.0730295 0.
0.571984 0.0730295 0.
0.573985 0.0730295 0.
0.575986 0.0730295 0.
0.577987 0.0730295 0.
0.579988 0.0730293 0.
0.581989 0.0730292 0.
0.58399 0.0730291 0.
0.585991 0.0730293 0.
0.587992 0.0730295 0.
0.589993 0.073029 0.
0.591994 0.0730279 0.
0.593996 0.0730269 0.
0.595997 0.0730269 0.
0.597998 0.0730272 0.
0.6 0.0730275 0.
0.602002 0.0730277 0.
0.604004 0.073028 0.
0.606006 0.073028 0.
0.608007 0.0730275 0.
0.610008 0.073027 0.
0.612009 0.0730268 0.
0.61401 0.0730267 0.
0.61601 0.0730267 0.
0.618011 0.0730273 0.
0.620012 0.0730281 0.
0.622012 0.073029 0.
0.624013 0.0730292 0.
0.626015 0.0730294 0.
0.628017 0.0730296 0.
0.630018 0.07303 0.
0.632019 0.0730304 0.
0.63402 0.0730307 0.
0.636021 0.0730304 0.
0.638022 0.0730302 0.
0.640022 0.0730302 0.
0.642023 0.0730303 0.
0.644023 0.0730304 0.
0.646024 0.0730308 0.
0.648025 0.0730312 0.
0.650026 0.0730315 0.
0.652027 0.0730318 0.
0.654027 0.073032 0.
0.656027 0.0730322 0.
0.658028 0.0730324 0.
0.660028 0.0730326 0.
0.662029 0.0730325 0.
0.664029 0.0730321 0.
0.666029 0.0730317 0.
0.66803 0.0730319 0.
0.670031 0.0730322 0.
0.672031 0.0730326 0.
0.674032 0.0730324 0.
0.676032 0.0730321 0.
0.678033 0.0730318 0.
0.680033 0.0730318 0.
0.682033 0.0730318 0.
0.684033 0.0730317 0.
0.686033 0.0730315 0.
0.688034 0.0730314 0.
0.690034 0.0730312 0.
0.692035 0.0730311 0.
0.694035 0.0730309 0.
0.696036 0.0730316 0.
0.698036 0.0730324 0.
0.499964 0.0750317 0.
0.501965 0.0750324 0.
0.503965 0.0750328 0.
0.505965 0.075033 0.
0.507965 0.075033 0.
0.509966 0.075033 0.
0.511966 0.0750331 0.
0.513967 0.0750334 0.
0.515967 0.0750336 0.
0.517967 0.0750333 0.
0.519968 0.0750327 0.
0.521968 0.0750321 0.
0.523968 0.0750319 0.
0.525968 0.0750319 0.
0.527968 0.0750318 0.
0.529969 0.0750317 0.
0.531969 0.0750316 0.
0.53397 0.0750314 0.
0.53597 0.0750308 0.
0.537971 0.0750302 0.
0.539971 0.0750303 0.
0.541972 0.075031 0.
0.543973 0.0750317 0.
0.545974 0.0750311 0.
0.547974 0.07503 0.
0.549975 0.075029 0.
0.551975 0.0750291 0.
0.553976 0.0750293 0.
0.555977 0.0750296 0.
0.557978 0.0750302 0.
0.559978 0.0750309 0.
0.561979 0.075031 0.
0.56398 0.0750302 0.
0.565981 0.0750295 0.
0.567982 0.0750293 0.
0.569983 0.0750294 0.
0.571984 0.0750294 0.
0.573985 0.0750296 0.
0.575986 0.0750298 0.
0.577987 0.0750299 0.
0.579988 0.0750296 0.
0.581989 0.0750292 0.
0.58399 0.0750291 0.
0.585991 0.0750295 0.
0.587992 0.0750299 0.
0.589993 0.0750294 0.
0.591994 0.0750283 0.
0.593995 0.0750271 0.
0.595997 0.0750269 0.
0.597999 0.0750269 0.
0.6 0.0750269 0.
0.602003 0.0750276 0.
0.604005 0.0750284 0.
0.606007 0.0750288 0.
0.608007 0.075028 0.
0.610008 0.0750273 0.
0.612009 0.0750268 0.
0.61401 0.0750266 0.
0.616011 0.0750264 0.
0.618011 0.0750269 0.
0.620011 0.0750279 0.
0.622011 0.0750288 0.
0.624013 0.0750291 0.
0.626014 0.0750294 0.
0.628016 0.0750296 0.
0.630017 0.07503 0.
0.632018 0.0750304 0.
0.634019 0.0750306 0.
0.63602 0.0750305 0.
0.638021 0.0750305 0.
0.640022 0.0750306 0.
0.642022 0.0750308 0.
0.644023 0.0750311 0.
0.646024 0.075031 0.
0.648025 0.0750309 0.
0.650027 0.0750307 0.
0.652027 0.0750316 0.
0.654027 0.0750325 0.
0.656028 0.0750332 0.
0.658028 0.0750331 0.
0.660029 0.0750329 0.
0.662029 0.0750327 0.
0.664029 0.0750323 0.
0.66603 0.0750319 0.
0.66803 0.0750319 0.
0.67003 0.0750323 0.
0.672031 0.0750326 0.
0.674032 0.0750326 0.
0.676032 0.0750325 0.
0.678033 0.0750324 0.
0.680033 0.0750324 0.
0.682032 0.0750324 0.
0.684032 0.0750323 0.
0.686033 0.075032 0.
0.688033 0.0750317 0.
0.690034 0.0750315 0.
0.692035 0.0750314 0.
0.694036 0.0750312 0.
0.696036 0.0750317 0.
0.698037 0.0750324 0.
0.499964 0.0770317 0.
0.501965 0.0770321 0.
0.503965 0.0770324 0.
0.505965 0.0770327 0.
0.507966 0.0770328 0.
0.509966 0.0770329 0.
0.511967 0.0770332 0.
0.513967 0.0770339 0.
0.515967 0.0770346 0.
0.517967 0.0770343 0.
0.519968 0.0770336 0.
0.521968 0.0770328 0.
0.523968 0.0770326 0.
0.525969 0.0770323 0.
0.527969 0.0770321 0.
0.529969 0.077032 0.
0.53197 0.0770319 0.
0.53397 0.0770317 0.
0.53597 0.0770314 0.
0.537971 0.0770311 0.
0.539971 0.077031 0.
0.541972 0.0770311 0.
0.543973 0.0770312 0.
0.545973 0.0770307 0.
0.547974 0.07703 0.
0.549975 0.0770292 0.
0.551976 0.0770294 0.
0.553976 0.0770295 0.
0.555977 0.0770297 0.
0.557978 0.0770301 0.
0.559979 0.0770305 0.
0.561979 0.0770305 0.
0.56398 0.0770298 0.
0.565981 0.0770292 0.
0.567982 0.0770291 0.
0.569983 0.0770292 0.
0.571984 0.0770293 0.
0.573985 0.0770294 0.
0.575987 0.0770295 0.
0.577988 0.0770295 0.
0.579989 0.0770294 0.
0.58199 0.0770293 0.
0.583991 0.0770292 0.
0.585991 0.0770292 0.
0.587992 0.0770292 0.
0.589993 0.0770288 0.
0.591994 0.0770281 0.
0.593995 0.0770274 0.
0.595997 0.077027 0.
0.597999 0.0770267 0.
0.600001 0.0770264 0.
0.602002 0.0770273 0.
0.604004 0.0770282 0.
0.606006 0.0770288 0.
0.608007 0.0770281 0.
0.610008 0.0770275 0.
0.612009 0.077027 0.
0.614009 0.0770268 0.
0.61601 0.0770267 0.
0.61801 0.0770271 0.
0.620011 0.0770277 0.
0.622011 0.0770284 0.
0.624013 0.0770287 0.
0.626014 0.077029 0.
0.628016 0.0770292 0.
0.630017 0.0770294 0.
0.632018 0.0770297 0.
0.634019 0.0770299 0.
0.63602 0.0770302 0.
0.638021 0.0770305 0.
0.640022 0.0770306 0.
0.642022 0.0770305 0.
0.644023 0.0770305 0.
0.646024 0.0770307 0.
0.648025 0.077031 0.
0.650026 0.0770312 0.
0.652026 0.0770319 0.
0.654027 0.0770325 0.
0.656027 0.077033 0.
0.658028 0.0770327 0.
0.660028 0.0770324 0.
0.662029 0.0770323 0.
0.664029 0.0770324 0.
0.666029 0.0770326 0.
0.66803 0.0770327 0.
0.67003 0.0770329 0.
0.672031 0.077033 0.
0.674031 0.0770329 0.
0.676032 0.0770328 0.
0.678033 0.0770327 0.
0.680033 0.0770328 0.
0.682033 0.077033 0.
0.684033 0.0770329 0.
0.686033 0.0770325 0.
0.688033 0.077032 0.
0.690034 0.0770316 0.
0.692034 0.0770313 0.
0.694035 0.077031 0.
0.696035 0.0770316 0.
0.698036 0.0770324 0.
0.499964 0.0790316 0.
0.501965 0.0790317 0.
0.503965 0.0790321 0.
0.505966 0.0790324 0.
0.507966 0.0790326 0.
0.509967 0.0790328 0.
0.511967 0.0790333 0.
0.513967 0.0790344 0.
0.515967 0.0790355 0.
0.517968 0.0790353 0.
0.519968 0.0790345 0.
0.521968 0.0790336 0.
0.523969 0.0790332 0.
0.525969 0.0790328 0.
0.527969 0.0790324 0.
0.52997 0.0790323 0.
0.53197 0.0790322 0.
0.53397 0.0790321 0.
0.535971 0.079032 0.
0.537971 0.079032 0.
0.539971 0.0790317 0.
0.541972 0.0790311 0.
0.543972 0.0790306 0.
0.545973 0.0790302 0.
0.547974 0.0790299 0.
0.549975 0.0790295 0.
0.551976 0.0790296 0.
0.553977 0.0790297 0.
0.555978 0.0790298 0.
0.557978 0.0790299 0.
0.559979 0.0790301 0.
0.561979 0.07903 0.
0.563981 0.0790294 0.
0.565982 0.0790289 0.
0.567983 0.0790288 0.
0.569983 0.0790291 0.
0.571984 0.0790293 0.
0.573985 0.0790293 0.
0.575987 0.0790292 0.
0.577988 0.0790291 0.
0.579989 0.0790292 0.
0.58199 0.0790293 0.
0.583991 0.0790292 0.
0.585992 0.0790288 0.
0.587993 0.0790284 0.
0.589993 0.0790281 0.
0.591994 0.0790278 0.
0.593994 0.0790276 0.
0.595996 0.0790271 0.
0.597999 0.0790265 0.
0.600001 0.079026 0.
0.602002 0.079027 0.
0.604004 0.0790281 0.
0.606005 0.0790288 0.
0.608006 0.0790282 0.
0.610007 0.0790277 0.
0.612008 0.0790273 0.
0.614009 0.0790271 0.
0.616009 0.0790269 0.
0.61801 0.0790272 0.
0.62001 0.0790276 0.
0.622011 0.079028 0.
0.624013 0.0790282 0.
0.626015 0.0790285 0.
0.628016 0.0790288 0.
0.630017 0.0790288 0.
0.632019 0.0790289 0.
0.63402 0.0790292 0.
0.63602 0.0790299 0.
0.638021 0.0790305 0.
0.640022 0.0790306 0.
0.642022 0.0790303 0.
0.644023 0.0790299 0.
0.646024 0.0790304 0.
0.648024 0.0790311 0.
0.650025 0.0790318 0.
0.652025 0.0790322 0.
0.654026 0.0790325 0.
0.656026 0.0790327 0.
0.658027 0.0790323 0.
0.660028 0.0790318 0.
0.662029 0.079032 0.
0.664029 0.0790326 0.
0.666029 0.0790333 0.
0.66803 0.0790335 0.
0.67003 0.0790335 0.
0.672031 0.0790334 0.
0.674031 0.0790333 0.
0.676032 0.0790331 0.
0.678032 0.079033 0.
0.680033 0.0790333 0.
0.682034 0.0790336 0.
0.684034 0.0790335 0.
0.686034 0.0790329 0.
0.688033 0.0790323 0.
0.690033 0.0790318 0.
0.692034 0.0790313 0.
0.694034 0.0790308 0.
0.696035 0.0790314 0.
0.698035 0.0790324 0.
0.499964 0.0810315 0.
0.501965 0.0810319 0.
0.503965 0.0810323 0.
0.505965 0.0810326 0.
0.507966 0.0810328 0.
0.509966 0.0810329 0.
0.511967 0.0810335 0.
0.513967 0.0810347 0.
0.515967 0.0810359 0.
0.517967 0.0810358 0.
0.519968 0.0810351 0.
0.521968 0.0810343 0.
0.523969 0.0810337 0.
0.525969 0.0810332 0.
0.527969 0.0810327 0.
0.52997 0.0810326 0.
0.53197 0.0810324 0.
0.533971 0.0810323 0.
0.535971 0.0810323 0.
0.537971 0.0810323 0.
0.539971 0.0810319 0.
0.541972 0.0810313 0.
0.543973 0.0810306 0.
0.545974 0.0810303 0.
0.547975 0.08103 0.
0.549975 0.0810297 0.
0.551976 0.0810298 0.
0.553977 0.0810299 0.
0.555978 0.0810299 0.
0.557978 0.0810299 0.
0.559979 0.0810299 0.
0.56198 0.0810296 0.
0.563981 0.0810292 0.
0.565982 0.0810288 0.
0.567983 0.0810287 0.
0.569983 0.0810289 0.
0.571984 0.0810291 0.
0.573985 0.081029 0.
0.575987 0.0810288 0.
0.577988 0.0810286 0.
0.579989 0.0810288 0.
0.58199 0.0810291 0.
0.583991 0.0810291 0.
0.585992 0.0810286 0.
0.587993 0.0810281 0.
0.589993 0.0810278 0.
0.591994 0.0810276 0.
0.593995 0.0810274 0.
0.595997 0.0810269 0.
0.597999 0.0810262 0.
0.600001 0.0810255 0.
0.602002 0.0810267 0.
0.604004 0.0810279 0.
0.606005 0.0810287 0.
0.608006 0.0810282 0.
0.610007 0.0810277 0.
0.612008 0.0810274 0.
0.614008 0.0810273 0.
0.616009 0.0810272 0.
0.61801 0.0810273 0.
0.620011 0.0810274 0.
0.622012 0.0810276 0.
0.624013 0.0810278 0.
0.626015 0.0810281 0.
0.628016 0.0810283 0.
0.630017 0.0810283 0.
0.632018 0.0810283 0.
0.634019 0.0810286 0.
0.63602 0.0810294 0.
0.638021 0.0810303 0.
0.640022 0.0810304 0.
0.642022 0.08103 0.
0.644023 0.0810296 0.
0.646023 0.0810302 0.
0.648024 0.081031 0.
0.650024 0.0810318 0.
0.652025 0.081032 0.
0.654025 0.0810322 0.
0.656026 0.0810322 0.
0.658027 0.0810319 0.
0.660028 0.0810317 0.
0.662028 0.0810319 0.
0.664029 0.0810328 0.
0.666029 0.0810336 0.
0.66803 0.0810338 0.
0.67003 0.0810338 0.
0.672031 0.0810337 0.
0.674031 0.0810335 0.
0.676032 0.0810333 0.
0.678033 0.0810332 0.
0.680033 0.0810335 0.
0.682034 0.0810339 0.
0.684034 0.0810339 0.
0.686034 0.0810332 0.
0.688033 0.0810325 0.
0.690033 0.081032 0.
0.692034 0.0810315 0.
0.694034 0.0810311 0.
0.696035 0.0810316 0.
0.698035 0.0810323 0.
0.499964 0.0830318 0.
0.501964 0.0830325 0.
0.503964 0.083033 0.
0.505965 0.0830334 0.
0.507965 0.0830334 0.
0.509965 0.0830333 0.
0.511966 0.0830338 0.
0.513966 0.0830348 0.
0.515967 0.0830358 0.
0.517967 0.0830358 0.
0.519968 0.0830353 0.
0.521968 0.0830348 0.
0.523968 0.0830343 0.
0.525968 0.0830337 0.
0.527969 0.0830331 0.
0.529969 0.0830329 0.
0.53197 0.0830327 0.
0.53397 0.0830325 0.
0.535971 0.0830323 0.
0.537972 0.0830321 0.
0.539972 0.0830318 0.
0.541973 0.0830314 0.
0.543974 0.0830311 0.
0.545974 0.0830307 0.
0.547975 0.0830302 0.
0.549976 0.0830298 0.
0.551977 0.0830299 0.
0.553977 0.08303 0.
0.555978 0.0830301 0.
0.557978 0.0830299 0.
0.559979 0.0830297 0.
0.561979 0.0830294 0.
0.563981 0.0830292 0.
0.565982 0.0830289 0.
0.567983 0.0830288 0.
0.569983 0.0830288 0.
0.571984 0.0830288 0.
0.573985 0.0830285 0.
0.575987 0.0830282 0.
0.577988 0.0830279 0.
0.579989 0.0830283 0.
0.58199 0.0830286 0.
0.583991 0.0830288 0.
0.585992 0.0830285 0.
0.587993 0.0830282 0.
0.589994 0.0830279 0.
0.591995 0.0830274 0.
0.593996 0.0830269 0.
0.595998 0.0830263 0.
0.597999 0.0830257 0.
0.600001 0.0830251 0.
0.602002 0.0830263 0.
0.604004 0.0830275 0.
0.606005 0.0830284 0.
0.608006 0.083028 0.
0.610007 0.0830276 0.
0.612008 0.0830273 0.
0.614008 0.0830274 0.
0.616009 0.0830274 0.
0.61801 0.0830273 0.
0.620011 0.0830273 0.
0.622012 0.0830272 0.
0.624013 0.0830274 0.
0.626015 0.0830276 0.
0.628016 0.0830277 0.
0.630017 0.0830277 0.
0.632018 0.0830277 0.
0.634019 0.083028 0.
0.63602 0.0830289 0.
0.63802 0.0830297 0.
0.640021 0.08303 0.
0.642022 0.0830297 0.
0.644022 0.0830294 0.
0.646023 0.0830299 0.
0.648023 0.0830306 0.
0.650023 0.0830313 0.
0.652024 0.0830313 0.
0.654025 0.0830314 0.
0.656026 0.0830315 0.
0.658027 0.0830317 0.
0.660027 0.0830318 0.
0.662028 0.0830322 0.
0.664028 0.0830329 0.
0.666029 0.0830336 0.
0.668029 0.0830338 0.
0.67003 0.0830338 0.
0.672031 0.0830338 0.
0.674031 0.0830336 0.
0.676032 0.0830334 0.
0.678033 0.0830332 0.
0.680033 0.0830336 0.
0.682034 0.0830339 0.
0.684034 0.0830339 0.
0.686034 0.0830333 0.
0.688034 0.0830326 0.
0.690034 0.0830323 0.
0.692035 0.0830322 0.
0.694035 0.0830321 0.
0.696035 0.083032 0.
0.698035 0.0830319 0.
0.499964 0.0850326 0.
0.501964 0.0850332 0.
0.503964 0.0850337 0.
0.505964 0.0850341 0.
0.507964 0.0850339 0.
0.509964 0.0850338 0.
0.511964 0.085034 0.
0.513965 0.0850349 0.
0.515966 0.0850357 0.
0.517967 0.0850358 0.
0.519967 0.0850356 0.
0.521968 0.0850354 0.
0.523968 0.0850348 0.
0.525968 0.0850341 0.
0.527968 0.0850334 0.
0.529969 0.0850332 0.
0.531969 0.0850329 0.
0.53397 0.0850326 0.
0.535971 0.0850322 0.
0.537972 0.0850318 0.
0.539973 0.0850316 0.
0.541974 0.0850316 0.
0.543974 0.0850315 0.
0.545975 0.0850311 0.
0.547976 0.0850305 0.
0.549977 0.08503 0.
0.551977 0.0850301 0.
0.553978 0.0850302 0.
0.555978 0.0850302 0.
0.557979 0.0850299 0.
0.559979 0.0850295 0.
0.561979 0.0850292 0.
0.563981 0.0850291 0.
0.565982 0.085029 0.
0.567983 0.0850289 0.
0.569983 0.0850287 0.
0.571984 0.0850285 0.
0.573985 0.0850281 0.
0.575986 0.0850276 0.
0.577988 0.0850273 0.
0.579989 0.0850277 0.
0.58199 0.0850281 0.
0.583991 0.0850284 0.
0.585992 0.0850284 0.
0.587993 0.0850283 0.
0.589994 0.0850279 0.
0.591996 0.0850271 0.
0.593997 0.0850263 0.
0.595999 0.0850258 0.
0.598 0.0850252 0.
0.600001 0.0850247 0.
0.602002 0.0850259 0.
0.604004 0.0850271 0.
0.606005 0.085028 0.
0.608006 0.0850277 0.
0.610007 0.0850274 0.
0.612007 0.0850273 0.
0.614008 0.0850274 0.
0.616009 0.0850275 0.
0.61801 0.0850274 0.
0.620012 0.0850271 0.
0.622013 0.0850268 0.
0.624014 0.0850269 0.
0.626015 0.0850271 0.
0.628015 0.0850272 0.
0.630016 0.0850272 0.
0.632017 0.0850272 0.
0.634018 0.0850275 0.
0.636019 0.0850283 0.
0.63802 0.0850292 0.
0.640021 0.0850295 0.
0.642021 0.0850294 0.
0.644022 0.0850293 0.
0.646022 0.0850297 0.
0.648022 0.0850302 0.
0.650023 0.0850308 0.
0.652024 0.0850307 0.
0.654025 0.0850307 0.
0.656026 0.0850308 0.
0.658027 0.0850314 0.
0.660027 0.0850319 0.
0.662028 0.0850325 0.
0.664028 0.085033 0.
0.666029 0.0850336 0.
0.668029 0.0850338 0.
0.67003 0.0850338 0.
0.672031 0.0850338 0.
0.674032 0.0850337 0.
0.676032 0.0850334 0.
0.678033 0.0850333 0.
0.680034 0.0850336 0.
0.682034 0.0850339 0.
0.684035 0.0850339 0.
0.686035 0.0850333 0.
0.688035 0.0850327 0.
0.690035 0.0850326 0.
0.692036 0.0850328 0.
0.694036 0.085033 0.
0.696036 0.0850324 0.
0.698036 0.0850315 0.
0.499964 0.0870329 0.
0.501964 0.0870333 0.
0.503964 0.0870336 0.
0.505964 0.0870339 0.
0.507964 0.0870341 0.
0.509964 0.0870344 0.
0.511965 0.0870346 0.
0.513965 0.0870347 0.
0.515966 0.0870347 0.
0.517966 0.0870349 0.
0.519967 0.0870352 0.
0.521967 0.0870354 0.
0.523968 0.0870348 0.
0.525968 0.087034 0.
0.527969 0.0870332 0.
0.529969 0.0870329 0.
0.53197 0.0870325 0.
0.533971 0.0870322 0.
0.535972 0.0870321 0.
0.537972 0.0870319 0.
0.539973 0.0870316 0.
0.541974 0.0870313 0.
0.543974 0.087031 0.
0.545975 0.0870308 0.
0.547976 0.0870306 0.
0.549976 0.0870305 0.
0.551977 0.0870304 0.
0.553978 0.0870304 0.
0.555979 0.0870302 0.
0.557979 0.0870298 0.
0.559979 0.0870293 0.
0.56198 0.087029 0.
0.563981 0.0870289 0.
0.565982 0.0870289 0.
0.567982 0.0870288 0.
0.569983 0.0870287 0.
0.571984 0.0870285 0.
0.573985 0.0870281 0.
0.575987 0.0870275 0.
0.577988 0.0870271 0.
0.579989 0.0870274 0.
0.58199 0.0870276 0.
0.583991 0.0870278 0.
0.585992 0.0870276 0.
0.587993 0.0870274 0.
0.589994 0.087027 0.
0.591996 0.0870264 0.
0.593997 0.0870258 0.
0.595999 0.0870255 0.
0.598 0.0870252 0.
0.600001 0.087025 0.
0.602002 0.0870258 0.
0.604003 0.0870265 0.
0.606005 0.087027 0.
0.608006 0.0870269 0.
0.610006 0.0870267 0.
0.612007 0.0870267 0.
0.614008 0.0870269 0.
0.616009 0.0870272 0.
0.61801 0.0870271 0.
0.620012 0.0870268 0.
0.622013 0.0870266 0.
0.624014 0.0870265 0.
0.626014 0.0870265 0.
0.628015 0.0870265 0.
0.630016 0.0870266 0.
0.632017 0.0870268 0.
0.634018 0.0870272 0.
0.636019 0.087028 0.
0.638019 0.0870287 0.
0.64002 0.0870292 0.
0.642021 0.0870294 0.
0.644021 0.0870297 0.
0.646022 0.0870301 0.
0.648023 0.0870305 0.
0.650023 0.0870309 0.
0.652024 0.0870309 0.
0.654025 0.0870308 0.
0.656026 0.0870309 0.
0.658026 0.0870314 0.
0.660027 0.087032 0.
0.662027 0.0870325 0.
0.664027 0.0870329 0.
0.666028 0.0870333 0.
0.668028 0.0870334 0.
0.670029 0.0870334 0.
0.67203 0.0870335 0.
0.674031 0.0870333 0.
0.676032 0.0870331 0.
0.678033 0.087033 0.
0.680033 0.0870333 0.
0.682034 0.0870337 0.
0.684034 0.0870338 0.
0.686034 0.0870333 0.
0.688034 0.0870329 0.
0.690035 0.0870328 0.
0.692035 0.0870329 0.
0.694035 0.0870331 0.
0.696035 0.0870328 0.
0.698035 0.0870324 0.
0.499963 0.0890335 0.
0.501963 0.0890335 0.
0.503964 0.0890335 0.
0.505964 0.0890336 0.
0.507964 0.0890343 0.
0.509964 0.089035 0.
0.511964 0.0890352 0.
0.513965 0.0890345 0.
0.515965 0.0890338 0.
0.517965 0.089034 0.
0.519966 0.0890347 0.
0.521967 0.0890354 0.
0.523967 0.0890347 0.
0.525968 0.0890338 0.
0.527969 0.0890329 0.
0.52997 0.0890325 0.
0.53197 0.0890321 0.
0.533971 0.0890319 0.
0.535972 0.0890319 0.
0.537973 0.089032 0.
0.539973 0.0890317 0.
0.541974 0.0890311 0.
0.543974 0.0890304 0.
0.545975 0.0890305 0.
0.547976 0.0890307 0.
0.549976 0.0890309 0.
0.551977 0.0890307 0.
0.553978 0.0890305 0.
0.555979 0.0890302 0.
0.557979 0.0890297 0.
0.55998 0.0890291 0.
0.561981 0.0890288 0.
0.563981 0.0890288 0.
0.565982 0.0890287 0.
0.567982 0.0890287 0.
0.569983 0.0890286 0.
0.571984 0.0890285 0.
0.573985 0.089028 0.
0.575987 0.0890274 0.
0.577989 0.0890269 0.
0.57999 0.089027 0.
0.581991 0.0890271 0.
0.583992 0.0890271 0.
0.585992 0.0890268 0.
0.587993 0.0890264 0.
0.589994 0.0890261 0.
0.591996 0.0890257 0.
0.593997 0.0890252 0.
0.595998 0.0890252 0.
0.598 0.0890253 0.
0.600001 0.0890253 0.
0.602002 0.0890256 0.
0.604003 0.0890259 0.
0.606004 0.0890261 0.
0.608005 0.089026 0.
0.610006 0.0890259 0.
0.612007 0.0890261 0.
0.614008 0.0890265 0.
0.616009 0.0890269 0.
0.61801 0.0890268 0.
0.620012 0.0890266 0.
0.622013 0.0890263 0.
0.624013 0.0890261 0.
0.626014 0.0890259 0.
0.628014 0.0890257 0.
0.630015 0.0890261 0.
0.632016 0.0890264 0.
0.634017 0.0890269 0.
0.636018 0.0890276 0.
0.638019 0.0890283 0.
0.64002 0.0890289 0.
0.642021 0.0890295 0.
0.644021 0.08903 0.
0.646022 0.0890304 0.
0.648023 0.0890308 0.
0.650024 0.0890311 0.
0.652024 0.089031 0.
0.654025 0.0890309 0.
0.656026 0.089031 0.
0.658026 0.0890315 0.
0.660026 0.0890321 0.
0.662027 0.0890325 0.
0.664027 0.0890327 0.
0.666027 0.089033 0.
0.668028 0.0890331 0.
0.670028 0.0890331 0.
0.672029 0.0890331 0.
0.67403 0.0890329 0.
0.676031 0.0890327 0.
0.678032 0.0890327 0.
0.680033 0.089033 0.
0.682033 0.0890334 0.
0.684034 0.0890336 0.
0.686034 0.0890334 0.
0.688034 0.0890331 0.
0.690034 0.0890331 0.
0.692034 0.0890331 0.
0.694034 0.0890331 0.
0.696035 0.0890332 0.
0.698035 0.0890334 0.
0.499962 0.0910334 0.
0.501963 0.0910335 0.
0.503963 0.0910335 0.
0.505964 0.0910337 0.
0.507964 0.0910344 0.
0.509964 0.0910351 0.
0.511964 0.0910351 0.
0.513964 0.0910341 0.
0.515964 0.0910331 0.
0.517965 0.0910333 0.
0.519965 0.0910342 0.
0.521966 0.0910351 0.
0.523967 0.0910344 0.
0.525968 0.0910336 0.
0.527969 0.0910328 0.
0.52997 0.0910323 0.
0.53197 0.0910318 0.
0.533971 0.0910315 0.
0.535972 0.0910316 0.
0.537972 0.0910317 0.
0.539973 0.0910314 0.
0.541974 0.0910307 0.
0.543974 0.09103 0.
0.545975 0.0910301 0.
0.547976 0.0910304 0.
0.549976 0.0910308 0.
0.551977 0.0910306 0.
0.553978 0.0910304 0.
0.555979 0.0910301 0.
0.55798 0.0910296 0.
0.559981 0.091029 0.
0.561981 0.0910287 0.
0.563981 0.0910287 0.
0.565982 0.0910287 0.
0.567982 0.0910286 0.
0.569983 0.0910285 0.
0.571984 0.0910284 0.
0.573985 0.0910278 0.
0.575987 0.0910272 0.
0.577989 0.0910266 0.
0.57999 0.0910266 0.
0.581991 0.0910266 0.
0.583992 0.0910264 0.
0.585992 0.0910262 0.
0.587993 0.0910259 0.
0.589994 0.0910255 0.
0.591995 0.0910251 0.
0.593997 0.0910247 0.
0.595998 0.0910247 0.
0.597999 0.0910249 0.
0.600001 0.0910251 0.
0.602002 0.0910253 0.
0.604003 0.0910255 0.
0.606004 0.0910256 0.
0.608005 0.0910254 0.
0.610006 0.0910251 0.
0.612007 0.0910252 0.
0.614008 0.0910257 0.
0.616009 0.0910261 0.
0.61801 0.0910262 0.
0.620012 0.091026 0.
0.622013 0.0910259 0.
0.624013 0.0910257 0.
0.626014 0.0910254 0.
0.628014 0.0910253 0.
0.630015 0.0910257 0.
0.632016 0.0910261 0.
0.634017 0.0910266 0.
0.636018 0.0910273 0.
0.638019 0.091028 0.
0.64002 0.0910286 0.
0.64202 0.0910292 0.
0.644021 0.0910298 0.
0.646022 0.0910303 0.
0.648023 0.0910309 0.
0.650023 0.0910314 0.
0.652024 0.0910312 0.
0.654025 0.0910311 0.
0.656025 0.0910311 0.
0.658026 0.0910317 0.
0.660026 0.0910323 0.
0.662026 0.0910326 0.
0.664027 0.0910326 0.
0.666027 0.0910327 0.
0.668028 0.0910326 0.
0.670028 0.0910326 0.
0.672029 0.0910326 0.
0.67403 0.0910325 0.
0.676031 0.0910325 0.
0.678032 0.0910326 0.
0.680032 0.0910329 0.
0.682033 0.0910331 0.
0.684033 0.0910333 0.
0.686033 0.0910334 0.
0.688033 0.0910335 0.
0.690033 0.0910334 0.
0.692033 0.0910332 0.
0.694034 0.091033 0.
0.696034 0.0910333 0.
0.698034 0.0910336 0.
0.499962 0.0930334 0.
0.501962 0.0930334 0.
0.503962 0.0930337 0.
0.505963 0.0930339 0.
0.507963 0.0930343 0.
0.509962 0.0930347 0.
0.511963 0.0930345 0.
0.513963 0.0930336 0.
0.515964 0.0930327 0.
0.517965 0.0930329 0.
0.519965 0.0930337 0.
0.521966 0.0930345 0.
0.523967 0.093034 0.
0.525968 0.0930334 0.
0.527969 0.0930327 0.
0.529969 0.0930322 0.
0.53197 0.0930316 0.
0.533971 0.0930312 0.
0.535971 0.0930312 0.
0.537972 0.0930312 0.
0.539973 0.0930309 0.
0.541973 0.0930303 0.
0.543974 0.0930297 0.
0.545975 0.0930297 0.
0.547976 0.0930299 0.
0.549976 0.0930301 0.
0.551977 0.0930301 0.
0.553978 0.0930301 0.
0.555979 0.09303 0.
0.55798 0.0930294 0.
0.559981 0.0930289 0.
0.561981 0.0930286 0.
0.563982 0.0930287 0.
0.565982 0.0930287 0.
0.567983 0.0930286 0.
0.569984 0.0930283 0.
0.571985 0.093028 0.
0.573986 0.0930274 0.
0.575987 0.0930267 0.
0.577988 0.0930261 0.
0.579989 0.093026 0.
0.58199 0.0930259 0.
0.583991 0.0930258 0.
0.585992 0.0930258 0.
0.587993 0.0930257 0.
0.589994 0.0930253 0.
0.591995 0.0930247 0.
0.593996 0.093024 0.
0.595997 0.0930241 0.
0.597998 0.0930244 0.
0.6 0.0930246 0.
0.602001 0.0930251 0.
0.604002 0.0930255 0.
0.606004 0.0930257 0.
0.608005 0.0930249 0.
0.610006 0.0930242 0.
0.612007 0.093024 0.
0.614008 0.0930245 0.
0.616009 0.0930251 0.
0.61801 0.0930253 0.
0.620011 0.0930252 0.
0.622012 0.0930252 0.
0.624013 0.0930252 0.
0.626014 0.0930251 0.
0.628015 0.0930251 0.
0.630016 0.0930255 0.
0.632017 0.0930259 0.
0.634017 0.0930263 0.
0.636018 0.0930271 0.
0.638019 0.0930278 0.
0.64002 0.0930283 0.
0.64202 0.0930287 0.
0.644021 0.093029 0.
0.646022 0.0930298 0.
0.648022 0.0930307 0.
0.650023 0.0930316 0.
0.652023 0.0930314 0.
0.654024 0.0930312 0.
0.656024 0.0930312 0.
0.658025 0.0930319 0.
0.660025 0.0930326 0.
0.662026 0.0930329 0.
0.664027 0.0930326 0.
0.666028 0.0930323 0.
0.668028 0.0930321 0.
0.670029 0.093032 0.
0.67203 0.093032 0.
0.67403 0.0930322 0.
0.67603 0.0930325 0.
0.678031 0.0930327 0.
0.680031 0.0930327 0.
0.682032 0.0930328 0.
0.684032 0.0930329 0.
0.686032 0.0930334 0.
0.688033 0.0930338 0.
0.690033 0.0930338 0.
0.692033 0.0930333 0.
0.694033 0.0930328 0.
0.696033 0.0930329 0.
0.698034 0.0930331 0.
0.499962 0.0950327 0.
0.501962 0.0950333 0.
0.503962 0.0950338 0.
0.505961 0.0950342 0.
0.507961 0.0950342 0.
0.509961 0.0950342 0.
0.511962 0.0950338 0.
0.513963 0.0950331 0.
0.515964 0.0950323 0.
0.517965 0.0950325 0.
0.519965 0.0950332 0.
0.521966 0.0950339 0.
0.523966 0.0950336 0.
0.525967 0.0950331 0.
0.527968 0.0950327 0.
0.529969 0.095032 0.
0.531969 0.0950314 0.
0.53397 0.0950309 0.
0.535971 0.0950308 0.
0.537971 0.0950307 0.
0.539972 0.0950304 0.
0.541973 0.0950299 0.
0.543974 0.0950294 0.
0.545975 0.0950293 0.
0.547976 0.0950293 0.
0.549976 0.0950294 0.
0.551978 0.0950296 0.
0.553979 0.0950299 0.
0.55598 0.0950299 0.
0.55798 0.0950293 0.
0.559981 0.0950287 0.
0.561981 0.0950285 0.
0.563982 0.0950286 0.
0.565983 0.0950288 0.
0.567983 0.0950286 0.
0.569984 0.0950282 0.
0.571985 0.0950277 0.
0.573986 0.095027 0.
0.575987 0.0950262 0.
0.577988 0.0950255 0.
0.579989 0.0950254 0.
0.58199 0.0950253 0.
0.583991 0.0950252 0.
0.585992 0.0950254 0.
0.587994 0.0950255 0.
0.589995 0.0950251 0.
0.591995 0.0950242 0.
0.593995 0.0950234 0.
0.595996 0.0950235 0.
0.597997 0.0950238 0.
0.599998 0.0950241 0.
0.602 0.0950248 0.
0.604002 0.0950255 0.
0.606004 0.0950257 0.
0.608004 0.0950245 0.
0.610005 0.0950233 0.
0.612006 0.0950229 0.
0.614008 0.0950234 0.
0.616009 0.095024 0.
0.61801 0.0950243 0.
0.620011 0.0950245 0.
0.622012 0.0950246 0.
0.624013 0.0950247 0.
0.626015 0.0950249 0.
0.628016 0.095025 0.
0.630016 0.0950253 0.
0.632017 0.0950256 0.
0.634018 0.095026 0.
0.636018 0.0950268 0.
0.638019 0.0950276 0.
0.640019 0.095028 0.
0.64202 0.0950282 0.
0.644021 0.0950283 0.
0.646021 0.0950293 0.
0.648021 0.0950306 0.
0.650022 0.0950319 0.
0.652022 0.0950316 0.
0.654023 0.0950313 0.
0.656023 0.0950313 0.
0.658024 0.0950321 0.
0.660025 0.095033 0.
0.662025 0.0950331 0.
0.664027 0.0950325 0.
0.666028 0.095032 0.
0.668029 0.0950317 0.
0.67003 0.0950315 0.
0.67203 0.0950314 0.
0.67403 0.0950318 0.
0.67603 0.0950324 0.
0.67803 0.0950329 0.
0.68003 0.0950326 0.
0.682031 0.0950324 0.
0.684031 0.0950325 0.
0.686032 0.0950334 0.
0.688032 0.0950342 0.
0.690032 0.0950341 0.
0.692033 0.0950334 0.
0.694033 0.0950326 0.
0.696033 0.0950325 0.
0.698033 0.0950327 0.
0.499963 0.0970335 0.
0.501962 0.097034 0.
0.503962 0.0970345 0.
0.505962 0.0970349 0.
0.507962 0.0970345 0.
0.509962 0.0970341 0.
0.511963 0.0970336 0.
0.513964 0.0970332 0.
0.515965 0.0970327 0.
0.517965 0.0970326 0.
0.519966 0.0970327 0.
0.521966 0.0970328 0.
0.523967 0.0970326 0.
0.525968 0.0970324 0.
0.527969 0.0970322 0.
0.52997 0.0970316 0.
0.53197 0.097031 0.
0.533971 0.0970306 0.
0.535971 0.0970306 0.
0.537972 0.0970306 0.
0.539972 0.0970303 0.
0.541973 0.0970297 0.
0.543974 0.097029 0.
0.545975 0.0970289 0.
0.547975 0.0970288 0.
0.549976 0.0970288 0.
0.551977 0.0970291 0.
0.553979 0.0970293 0.
0.55598 0.0970294 0.
0.557981 0.097029 0.
0.559981 0.0970285 0.
0.561982 0.0970283 0.
0.563982 0.0970284 0.
0.565983 0.0970285 0.
0.567984 0.0970283 0.
0.569985 0.0970279 0.
0.571985 0.0970276 0.
0.573986 0.0970266 0.
0.575987 0.0970257 0.
0.577988 0.0970248 0.
0.579989 0.0970247 0.
0.58199 0.0970245 0.
0.583991 0.0970245 0.
0.585992 0.0970247 0.
0.587994 0.0970249 0.
0.589995 0.0970249 0.
0.591995 0.0970248 0.
0.593996 0.0970246 0.
0.595997 0.0970244 0.
0.597998 0.0970242 0.
0.599999 0.0970239 0.
0.602001 0.0970243 0.
0.604003 0.0970246 0.
0.606005 0.0970247 0.
0.608006 0.097024 0.
0.610006 0.0970233 0.
0.612007 0.097023 0.
0.614008 0.0970232 0.
0.616009 0.0970235 0.
0.61801 0.0970237 0.
0.620011 0.0970239 0.
0.622012 0.097024 0.
0.624013 0.097024 0.
0.626013 0.0970239 0.
0.628014 0.0970239 0.
0.630015 0.0970242 0.
0.632016 0.0970245 0.
0.634017 0.0970251 0.
0.636018 0.0970261 0.
0.638019 0.0970272 0.
0.640019 0.0970277 0.
0.64202 0.0970279 0.
0.64402 0.0970281 0.
0.646021 0.0970289 0.
0.648022 0.0970298 0.
0.650022 0.0970308 0.
0.652023 0.0970311 0.
0.654023 0.0970314 0.
0.656024 0.0970318 0.
0.658025 0.0970323 0.
0.660025 0.0970328 0.
0.662026 0.0970328 0.
0.664027 0.0970324 0.
0.666028 0.0970319 0.
0.668028 0.0970318 0.
0.670029 0.097032 0.
0.67203 0.0970321 0.
0.67403 0.0970322 0.
0.67603 0.0970323 0.
0.67803 0.0970323 0.
0.68003 0.0970322 0.
0.682031 0.0970321 0.
0.684032 0.0970322 0.
0.686032 0.0970329 0.
0.688032 0.0970336 0.
0.690032 0.0970337 0.
0.692033 0.0970332 0.
0.694033 0.0970327 0.
0.696033 0.0970326 0.
0.698033 0.0970326 0.
0.499963 0.099034 0.
0.501963 0.0990346 0.
0.503962 0.0990352 0.
0.505962 0.0990356 0.
0.507963 0.0990348 0.
0.509963 0.099034 0.
0.511964 0.0990334 0.
0.513965 0.0990333 0.
0.515965 0.0990331 0.
0.517966 0.0990327 0.
0.519966 0.0990322 0.
0.521967 0.0990317 0.
0.523968 0.0990317 0.
0.525969 0.0990318 0.
0.52797 0.0990318 0.
0.52997 0.0990311 0.
0.531971 0.0990305 0.
0.533971 0.0990302 0.
0.535972 0.0990304 0.
0.537972 0.0990306 0.
0.539973 0.0990302 0.
0.541973 0.0990294 0.
0.543974 0.0990286 0.
0.545975 0.0990284 0.
0.547975 0.0990283 0.
0.549975 0.0990283 0.
0.551977 0.0990285 0.
0.553979 0.0990287 0.
0.55598 0.0990288 0.
0.557981 0.0990286 0.
0.559982 0.0990284 0.
0.561983 0.0990282 0.
0.563983 0.0990282 0.
0.565984 0.0990282 0.
0.567984 0.099028 0.
0.569985 0.0990277 0.
0.571985 0.0990274 0.
0.573986 0.0990263 0.
0.575988 0.0990251 0.
0.577989 0.099024 0.
0.579989 0.0990239 0.
0.58199 0.0990238 0.
0.583991 0.0990238 0.
0.585992 0.0990241 0.
0.587994 0.0990243 0.
0.589995 0.0990247 0.
0.591996 0.0990253 0.
0.593996 0.0990259 0.
0.595998 0.0990254 0.
0.597999 0.0990246 0.
0.6 0.0990237 0.
0.602003 0.0990237 0.
0.604005 0.0990237 0.
0.606007 0.0990237 0.
0.608007 0.0990235 0.
0.610007 0.0990233 0.
0.612008 0.0990231 0.
0.614008 0.099023 0.
0.616009 0.0990229 0.
0.618009 0.099023 0.
0.62001 0.0990233 0.
0.622011 0.0990235 0.
0.624012 0.0990233 0.
0.626012 0.099023 0.
0.628013 0.0990228 0.
0.630014 0.0990231 0.
0.632015 0.0990234 0.
0.634016 0.0990241 0.
0.636017 0.0990254 0.
0.638018 0.0990268 0.
0.640019 0.0990275 0.
0.64202 0.0990276 0.
0.64402 0.0990278 0.
0.646021 0.0990284 0.
0.648022 0.0990291 0.
0.650023 0.0990297 0.
0.652023 0.0990306 0.
0.654024 0.0990315 0.
0.656024 0.0990323 0.
0.658025 0.0990325 0.
0.660026 0.0990326 0.
0.662027 0.0990326 0.
0.664027 0.0990322 0.
0.666027 0.0990319 0.
0.668028 0.099032 0.
0.670028 0.0990324 0.
0.672029 0.0990328 0.
0.674029 0.0990325 0.
0.676029 0.0990321 0.
0.67803 0.0990318 0.
0.680031 0.0990318 0.
0.682031 0.0990317 0.
0.684032 0.0990319 0.
0.686032 0.0990325 0.
0.688031 0.0990331 0.
0.690032 0.0990332 0.
0.692033 0.099033 0.
0.694033 0.0990328 0.
0.696034 0.0990326 0.
0.698034 0.0990325 0.
CELLS 5000 10000
1 0
1 1
1 2
1 3
1 4
1 5
1 6
1 7
1 8
1 9
1 10
1 11
1 12
1 13
1 14
1 15
1 16
1 17
1 18
1 19
1 20
1 21
1 22
1 23
1 24
1 25
1 26
1 27
1 28
1 29
1 30
1 31
1 32
1 33
1 34
1 35
1 36
1 37
1 38
1 39
1 40
1 41
1 42
1 43
1 44
1 45
1 46
1 47
1 48
1 49
1 50
1 51
1 52
1 53
1 54
1 55
1 56
1 57
1 58
1 59
1 60
1 61
1 62
1 63
1 64
1 65
1 66
1 67
1 68
1 69
1 70
1 71
1 72
1 73
1 74
1 75
1 76
1 77
1 78
1 79
1 80
1 81
1 82
1 83
1 84
1 85
1 86
1 87
1 88
1 89
1 90
1 91
1 92
1 93
1 94
1 95
1 96
1 97
1 98
1 99
1 100
1 101
1 102
1 103
1 104
1 105
1 106
1 107
1 108
1 109
1 110
1 111
1 112
1 113
1 114
1 115
1 116
1 117
1 118
1 119
1 120
1 121
1 122
1 123
1 124
1 125
1 126
1 127
1 128
1 129
1 130
1 131
1 132
1 133
1 134
1 135
1 136
1 137
1 138
1 139
1 140
1 141
1 142
1 143
1 144
1 145
1 146
1 147
1 148
1 149
1 150
1 151
1 152
1 153
1 154
1 155
1 156
1 157
1 158
1 159
1 160
1 161
1 162
1 163
1 164
1 165
1 166
1 167
1 168
1 169
1 170
1 171
1 172
1 173
1 174
1 175
1 176
1 177
1 178
1 179
1 180
1 181
1 182
1 183
1 184
1 185
1 186
1 187
1 188
1 189
1 190
1 191
1 192
1 193
1 194
1 195
1 196
1 197
1 198
1 199
1 200
1 201
1 202
1 203
1 204
1 205
1 206
1 207
1 208
1 209
1 210
1 211
1 212
1 213
1 214
1 215
1 216
1 217
1 218
1 219
1 220
1 221
1 222
1 223
1 224
1 225
1 226
1 227
1 228
1 229
1 230
1 231
1 232
1 233
1 234
1 235
1 236
1 237
1 238
1 239
1 240
1 241
1 242
1 243
1 244
1 245
1 246
1 247
1 248
1 249
1 250
1 251
1 252
1 253
1 254
1 255
1 256
1 257
1 258
1 259
1 260
1 261
1 262
1 263
1 264
1 265
1 266
1 267
1 268
1 269
1 270
1 271
1 272
1 273
1 274
1 275
1 276
1 277
1 278
1 279
1 280
1 281
1 282
1 283
1 284
1 285
1 286
1 287
1 288
1 289
1 290
1 291
1 292
1 293
1 294
1 295
1 296
1 297
1 298
1 299
1 300
1 301
1 302
1 303
1 304
1 305
1 306
1 307
1 308
1 309
1 310
1 311
1 312
1 313
1 314
1 315
1 316
1 317
1 318
1 319
1 320
1 321
1 322
1 323
1 324
1 325
1 326
1 327
1 328
1 329
1 330
1 331
1 332
1 333
1 334
1 335
1 336
1 337
1 338
1 339
1 340
1 341
1 342
1 343
1 344
1 345
1 346
1 347
1 348
1 349
1 350
1 351
1 352
1 353
1 354
1 355
1 356
1 357
1 358
1 359
1 360
1 361
1 362
1 363
1 364
1 365
1 366
1 367
1 368
1 369
1 370
1 371
1 372
1 373
1 374
1 375
1 376
1 377
1 378
1 379
1 380
1 381
1 382
1 383
1 384
1 385
1 386
1 387
1 388
1 389
1 390
1 391
1 392
1 393
1 394
1 395
1 396
1 397
1 398
1 399
1 400
1 401
1 402
1 403
1 404
1 405
1 406
1 407
1 408
1 409
1 410
1 411
1 412
1 413
1 414
1 415
1 416
1 417
1 418
1 419
1 420
1 421
1 422
1 423
1 424
1 425
1 426
1 427
1 428
1 429
1 430
1 431
1 432
1 433
1 434
1 435
1 436
1 437
1 438
1 439
1 440
1 441
1 442
1 443
1 444
1 445
1 446
1 447
1 448
1 449
1 450
1 451
1 452
1 453
1 454
1 455
1 456
1 457
1 458
1 459
1 460
1 461
1 462
1 463
1 464
1 465
1 466
1 467
1 468
1 469
1 470
1 471
1 472
1 473
1 474
1 475
1 476
1 477
1 478
1 479
1 480
1 481
1 482
1 483
1 484
1 485
1 486
1 487
1 488
1 489
1 490
1 491
1 492
1 493
1 494
1 495
1 496
1 497
1 498
1 499
1 500
1 501
1 502
1 503
1 504
1 505
1 506
1 507
1 508
1 509
1 510
1 511
1 512
1 513
1 514
1 515
1 516
1 517
1 518
1 519
1 520
1 521
1 522
1 523
1 524
1 525
1 526
1 527
1 528
1 529
1 530
1 531
1 532
1 533
1 534
1 535
1 536
1 537
1 538
1 539
1 540
1 541
1 542
1 543
1 544
1 545
1 546
1 547
1 548
1 549
1 550
1 551
1 552
1 553
1 554
1 555
1 556
1 557
1 558
1 559
1 560
1 561
1 562
1 563
1 564
1 565
1 566
1 567
1 568
1 569
1 570
1 571
1 572
1 573
1 574
1 575
1 576
1 577
1 578
1 579
1 580
1 581
1 582
1 583
1 584
1 585
1 586
1 587
1 588
1 589
1 590
1 591
1 592
1 593
1 594
1 595
1 596
1 597
1 598
1 599
1 600
1 601
1 602
1 603
1 604
1 605
1 606
1 607
1 608
1 609
1 610
1 611
1 612
1 613
1 614
1 615
1 616
1 617
1 618
1 619
1 620
1 621
1 622
1 623
1 624
1 625
1 626
1 627
1 628
1 629
1 630
1 631
1 632
1 633
1 634
1 635
1 636
1 637
1 638
1 639
1 640
1 641
1 642
1 643
1 644
1 645
1 646
1 647
1 648
1 649
1 650
1 651
1 652
1 653
1 654
1 655
1 656
1 657
1 658
1 659
1 660
1 661
1 662
1 663
1 664
1 665
1 666
1 667
1 668
1 669
1 670
1 671
1 672
1 673
1 674
1 675
1 676
1 677
1 678
1 679
1 680
1 681
1 682
1 683
1 684
1 685
1 686
1 687
1 688
1 689
1 690
1 691
1 692
1 693
1 694
1 695
1 696
1 697
1 698
1 699
1 700
1 701
1 702
1 703
1 704
1 705
1 706
1 707
1 708
1 709
1 710
1 711
1 712
1 713
1 714
1 715
1 716
1 717
1 718
1 719
1 720
1 721
1 722
1 723
1 724
1 725
1 726
1 727
1 728
1 729
1 730
1 731
1 732
1 733
1 734
1 735
1 736
1 737
1 738
1 739
1 740
1 741
1 742
1 743
1 744
1 745
1 746
1 747
1 748
1 749
1 750
1 751
1 752
1 753
1 754
1 755
1 756
1 757
1 758
1 759
1 760
1 761
1 762
1 763
1 764
1 765
1 766
1 767
1 768
1 769
1 770
1 771
1 772
1 773
1 774
1 775
1 776
1 777
1 778
1 779
1 780
1 781
1 782
1 783
1 784
1 785
1 786
1 787
1 788
1 789
1 790
1 791
1 792
1 793
1 794
1 795
1 796
1 797
1 798
1 799
1 800
1 801
1 802
1 803
1 804
1 805
1 806
1 807
1 808
1 809
1 810
1 811
1 812
1 813
1 814
1 815
1 816
1 817
1 818
1 819
1 820
1 821
1 822
1 823
1 824
1 825
1 826
1 827
1 828
1 829
1 830
1 831
1 832
1 833
1 834
1 835
1 836
1 837
1 838
1 839
1 840
1 841
1 842
1 843
1 844
1 845
1 846
1 847
1 848
1 849
1 850
1 851
1 852
1 853
1 854
1 855
1 856
1 857
1 858
1 859
1 860
1 861
1 862
1 863
1 864
1 865
1 866
1 867
1 868
1 869
1 870
1 871
1 872
1 873
1 874
1 875
1 876
1 877
1 878
1 879
1 880
1 881
1 882
1 883
1 884
1 885
1 886
1 887
1 888
1 889
1 890
1 891
1 892
1 893
1 894
1 895
1 896
1 897
1 898
1 899
1 900
1 901
1 902
1 903
1 904
1 905
1 906
1 907
1 908
1 909
1 910
1 911
1 912
1 913
1 914
1 915
1 916
1 917
1 918
1 919
1 920
1 921
1 922
1 923
1 924
1 925
1 926
1 927
1 928
1 929
1 930
1 931
1 932
1 933
1 934
1 935
1 936
1 937
1 938
1 939
1 940
1 941
1 942
1 943
1 944
1 945
1 946
1 947
1 948
1 949
1 950
1 951
1 952
1 953
1 954
1 955
1 956
1 957
1 958
1 959
1 960
1 961
1 962
1 963
1 964
1 965
1 966
1 967
1 968
1 969
1 970
1 971
1 972
1 973
1 974
1 975
1 976
1 977
1 978
1 979
1 980
1 981
1 982
1 983
1 984
1 985
1 986
1 987
1 988
1 989
1 990
1 991
1 992
1 993
1 994
1 995
1 996
1 997
1 998
1 999
1 1000
1 1001
1 1002
1 1003
1 1004
1 1005
1 1006
1 1007
1 1008
1 1009
1 1010
1 1011
1 1012
1 1013
1 1014
1 1015
1 1016
1 1017
1 1018
1 1019
1 1020
1 1021
1 1022
1 1023
1 1024
1 1025
1 1026
1 1027
1 1028
1 1029
1 1030
1 1031
1 1032
1 1033
1 1034
1 1035
1 1036
1 1037
1 1038
1 1039
1 1040
1 1041
1 1042
1 1043
1 1044
1 1045
1 1046
1 1047
1 1048
1 1049
1 1050
1 1051
1 1052
1 1053
1 1054
1 1055
1 1056
1 1057
1 1058
1 1059
1 1060
1 1061
1 1062
1 1063
1 1064
1 1065
1 1066
1 1067
1 1068
1 1069
1 1070
1 1071
1 1072
1 1073
1 1074
1 1075
1 1076
1 1077
1 1078
1 1079
1 1080
1 1081
1 1082
1 1083
1 1084
1 1085
1 1086
1 1087
1 1088
1 1089
1 1090
1 1091
1 1092
1 1093
1 1094
1 1095
1 1096
1 1097
1 1098
1 1099
1 1100
1 1101
1 1102
1 1103
1 1104
1 1105
1 1106
1 1107
1 1108
1 1109
1 1110
1 1111
1 1112
1 1113
1 1114
1 1115
1 1116
1 1117
1 1118
1 1119
1 1120
1 1121
1 1122
1 1123
1 1124
1 1125
1 1126
1 1127
1 1128
1 1129
1 1130
1 1131
1 1132
1 1133
1 1134
1 1135
1 1136
1 1137
1 1138
1 1139
1 1140
1 1141
1 1142
1 1143
1 1144
1 1145
1 1146
1 1147
1 1148
1 1149
1 1150
1 1151
1 1152
1 1153
1 1154
1 1155
1 1156
1 1157
1 1158
1 1159
1 1160
1 1161
1 1162
1 1163
1 1164
1 1165
1 1166
1 1167
1 1168
1 1169
1 1170
1 1171
1 1172
1 1173
1 1174
1 1175
1 1176
1 1177
1 1178
1 1179
1 1180
1 1181
1 1182
1 1183
1 1184
1 1185
1 1186
1 1187
1 1188
1 1189
1 1190
1 1191
1 1192
1 1193
1 1194
1 1195
1 1196
1 1197
1 1198
1 1199
1 1200
1 1201
1 1202
1 1203
1 1204
1 1205
1 1206
1 1207
1 1208
1 1209
1 1210
1 1211
1 1212
1 1213
1 1214
1 1215
1 1216
1 1217
1 1218
1 1219
1 1220
1 1221
1 1222
1 1223
1 1224
1 1225
1 1226
1 1227
1 1228
1 1229
1 1230
1 1231
1 1232
1 1233
1 1234
1 1235
1 1236
1 1237
1 1238
1 1239
1 1240
1 1241
1 1242
1 1243
1 1244
1 1245
1 1246
1 1247
1 1248
1 1249
1 1250
1 1251
1 1252
1 1253
1 1254
1 1255
1 1256
1 1257
1 1258
1 1259
1 1260
1 1261
1 1262
1 1263
1 1264
1 1265
1 1266
1 1267
1 1268
1 1269
1 1270
1 1271
1 1272
1 1273
1 1274
1 1275
1 1276
1 1277
1 1278
1 1279
1 1280
1 1281
1 1282
1 1283
1 1284
1 1285
1 1286
1 1287
1 1288
1 1289
1 1290
1 1291
1 1292
1 1293
1 1294
1 1295
1 1296
1 1297
1 1298
1 1299
1 1300
1 1301
1 1302
1 1303
1 1304
1 1305
1 1306
1 1307
1 1308
1 1309
1 1310
1 1311
1 1312
1 1313
1 1314
1 1315
1 1316
1 1317
1 1318
1 1319
1 1320
1 1321
1 1322
1 1323
1 1324
1 1325
1 1326
1 1327
1 1328
1 1329
1 1330
1 1331
1 1332
1 1333
1 1334
1 1335
1 1336
1 1337
1 1338
1 1339
1 1340
1 1341
1 1342
1 1343
1 1344
1 1345
1 1346
1 1347
1 1348
1 1349
1 1350
1 1351
1 1352
1 1353
1 1354
1 1355
1 1356
1 1357
1 1358
1 1359
1 1360
1 1361
1 1362
1 1363
1 1364
1 1365
1 1366
1 1367
1 1368
1 1369
1 1370
1 1371
1 1372
1 1373
1 1374
1 1375
1 1376
1 1377
1 1378
1 1379
1 1380
1 1381
1 1382
1 1383
1 1384
1 1385
1 1386
1 1387
1 1388
1 1389
1 1390
1 1391
1 1392
1 1393
1 1394
1 1395
1 1396
1 1397
1 1398
1 1399
1 1400
1 1401
1 1402
1 1403
1 1404
1 1405
1 1406
1 1407
1 1408
1 1409
1 1410
1 1411
1 1412
1 1413
1 1414
1 1415
1 1416
1 1417
1 1418
1 1419
1 1420
1 1421
1 1422
1 1423
1 1424
1 1425
1 1426
1 1427
1 1428
1 1429
1 1430
1 1431
1 1432
1 1433
1 1434
1 1435
1 1436
1 1437
1 1438
1 1439
1 1440
1 1441
1 1442
1 1443
1 1444
1 1445
1 1446
1 1447
1 1448
1 1449
1 1450
1 1451
1 1452
1 1453
1 1454
1 1455
1 1456
1 1457
1 1458
1 1459
1 1460
1 1461
1 1462
1 1463
1 1464
1 1465
1 1466
1 1467
1 1468
1 1469
1 1470
1 1471
1 1472
1 1473
1 1474
1 1475
1 1476
1 1477
1 1478
1 1479
1 1480
1 1481
1 1482
1 1483
1 1484
1 1485
1 1486
1 1487
1 1488
1 1489
1 1490
1 1491
1 1492
1 1493
1 1494
1 1495
1 1496
1 1497
1 1498
1 1499
1 1500
1 1501
1 1502
1 1503
1 1504
1 1505
1 1506
1 1507
1 1508
1 1509
1 1510
1 1511
1 1512
1 1513
1 1514
1 1515
1 1516
1 1517
1 1518
1 1519
1 1520
1 1521
1 1522
1 1523
1 1524
1 1525
1 1526
1 1527
1 1528
1 1529
1 1530
1 1531
1 1532
1 1533
1 1534
1 1535
1 1536
1 1537
1 1538
1 1539
1 1540
1 1541
1 1542
1 1543
1 1544
1 1545
1 1546
1 1547
1 1548
1 1549
1 1550
1 1551
1 1552
1 1553
1 1554
1 1555
1 1556
1 1557
1 1558
1 1559
1 1560
1 1561
1 1562
1 1563
1 1564
1 1565
1 1566
1 1567
1 1568
1 1569
1 1570
1 1571
1 1572
1 1573
1 1574
1 1575
1 1576
1 1577
1 1578
1 1579
1 1580
1 1581
1 1582
1 1583
1 1584
1 1585
1 1586
1 1587
1 1588
1 1589
1 1590
1 1591
1 1592
1 1593
1 1594
1 1595
1 1596
1 1597
1 1598
1 1599
1 1600
1 1601
1 1602
1 1603
1 1604
1 1605
1 1606
1 1607
1 1608
1 1609
1 1610
1 1611
1 1612
1 1613
1 1614
1 1615
1 1616
1 1617
1 1618
1 1619
1 1620
1 1621
1 1622
1 1623
1 1624
1 1625
1 1626
1 1627
1 1628
1 1629
1 1630
1 1631
1 1632
1 1633
1 1634
1 1635
1 1636
1 1637
1 1638
1 1639
1 1640
1 1641
1 1642
1 1643
1 1644
1 1645
1 1646
1 1647
1 1648
1 1649
1 1650
1 1651
1 1652
1 1653
1 1654
1 1655
1 1656
1 1657
1 1658
1 1659
1 1660
1 1661
1 1662
1 1663
1 1664
1 1665
1 1666
1 1667
1 1668
1 1669
1 1670
1 1671
1 1672
1 1673
1 1674
1 1675
1 1676
1 1677
1 1678
1 1679
1 1680
1 1681
1 1682
1 1683
1 1684
1 1685
1 1686
1 1687
1 1688
1 1689
1 1690
1 1691
1 1692
1 1693
1 1694
1 1695
1 1696
1 1697
1 1698
1 1699
1 1700
1 1701
1 1702
1 1703
1 1704
1 1705
1 1706
1 1707
1 1708
1 1709
1 1710
1 1711
1 1712
1 1713
1 1714
1 1715
1 1716
1 1717
1 1718
1 1719
1 1720
1 1721
1 1722
1 1723
1 1724
1 1725
1 1726
1 1727
1 1728
1 1729
1 1730
1 1731
1 1732
1 1733
1 1734
1 1735
1 1736
1 1737
1 1738
1 1739
1 1740
1 1741
1 1742
1 1743
1 1744
1 1745
1 1746
1 1747
1 1748
1 1749
1 1750
1 1751
1 1752
1 1753
1 1754
1 1755
1 1756
1 1757
1 1758
1 1759
1 1760
1 1761
1 1762
1 1763
1 1764
1 1765
1 1766
1 1767
1 1768
1 1769
1 1770
1 1771
1 1772
1 1773
1 1774
1 1775
1 1776
1 1777
1 1778
1 1779
1 1780
1 1781
1 1782
1 1783
1 1784
1 1785
1 1786
1 1787
1 1788
1 1789
1 1790
1 1791
1 1792
1 1793
1 1794
1 1795
1 1796
1 1797
1 1798
1 1799
1 1800
1 1801
1 1802
1 1803
1 1804
1 1805
1 1806
1 1807
1 1808
1 1809
1 1810
1 1811
1 1812
1 1813
1 1814
1 1815
1 1816
1 1817
1 1818
1 1819
1 1820
1 1821
1 1822
1 1823
1 1824
1 1825
1 1826
1 1827
1 1828
1 1829
1 1830
1 1831
1 1832
1 1833
1 1834
1 1835
1 1836
1 1837
1 1838
1 1839
1 1840
1 1841
1 1842
1 1843
1 1844
1 1845
1 1846
1 1847
1 1848
1 1849
1 1850
1 1851
1 1852
1 1853
1 1854
1 1855
1 1856
1 1857
1 1858
1 1859
1 1860
1 1861
1 1862
1 1863
1 1864
1 1865
1 1866
1 1867
1 1868
1 1869
1 1870
1 1871
1 1872
1 1873
1 1874
1 1875
1 1876
1 1877
1 1878
1 1879
1 1880
1 1881
1 1882
1 1883
1 1884
1 1885
1 1886
1 1887
1 1888
1 1889
1 1890
1 1891
1 1892
1 1893
1 1894
1 1895
1 1896
1 1897
1 1898
1 1899
1 1900
1 1901
1 1902
1 1903
1 1904
1 1905
1 1906
1 1907
1 1908
1 1909
1 1910
1 1911
1 1912
1 1913
1 1914
1 1915
1 1916
1 1917
1 1918
1 1919
1 1920
1 1921
1 1922
1 1923
1 1924
1 1925
1 1926
1 1927
1 1928
1 1929
1 1930
1 1931
1 1932
1 1933
1 1934
1 1935
1 1936
1 1937
1 1938
1 1939
1 1940
1 1941
1 1942
1 1943
1 1944
1 1945
1 1946
1 1947
1 1948
1 1949
1 1950
1 1951
1 1952
1 1953
1 1954
1 1955
1 1956
1 1957
1 1958
1 1959
1 1960
1 1961
1 1962
1 1963
1 1964
1 1965
1 1966
1 1967
1 1968
1 1969
1 1970
1 1971
1 1972
1 1973
1 1974
1 1975
1 1976
1 1977
1 1978
1 1979
1 1980
1 1981
1 1982
1 1983
1 1984
1 1985
1 1986
1 1987
1 1988
1 1989
1 1990
1 1991
1 1992
1 1993
1 1994
1 1995
1 1996
1 1997
1 1998
1 1999
1 2000
1 2001
1 2002
1 2003
1 2004
1 2005
1 2006
1 2007
1 2008
1 2009
1 2010
1 2011
1 2012
1 2013
1 2014
1 2015
1 2016
1 2017
1 2018
1 2019
1 2020
1 2021
1 2022
1 2023
1 2024
1 2025
1 2026
1 2027
1 2028
1 2029
1 2030
1 2031
1 2032
1 2033
1 2034
1 2035
1 2036
1 2037
1 2038
1 2039
1 2040
1 2041
1 2042
1 2043
1 2044
1 2045
1 2046
1 2047
1 2048
1 2049
1 2050
1 2051
1 2052
1 2053
1 2054
1 2055
1 2056
1 2057
1 2058
1 2059
1 2060
1 2061
1 2062
1 2063
1 2064
1 2065
1 2066
1 2067
1 2068
1 2069
1 2070
1 2071
1 2072
1 2073
1 2074
1 2075
1 2076
1 2077
1 2078
1 2079
1 2080
1 2081
1 2082
1 2083
1 2084
1 2085
1 2086
1 2087
1 2088
1 2089
1 2090
1 2091
1 2092
1 2093
1 2094
1 2095
1 2096
1 2097
1 2098
1 2099
1 2100
1 2101
1 2102
1 2103
1 2104
1 2105
1 2106
1 2107
1 2108
1 2109
1 2110
1 2111
1 2112
1 2113
1 2114
1 2115
1 2116
1 2117
1 2118
1 2119
1 2120
1 2121
1 2122
1 2123
1 2124
1 2125
1 2126
1 2127
1 2128
1 2129
1 2130
1 2131
1 2132
1 2133
1 2134
1 2135
1 2136
1 2137
1 2138
1 2139
1 2140
1 2141
1 2142
1 2143
1 2144
1 2145
1 2146
1 2147
1 2148
1 2149
1 2150
1 2151
1 2152
1 2153
1 2154
1 2155
1 2156
1 2157
1 2158
1 2159
1 2160
1 2161
1 2162
1 2163
1 2164
1 2165
1 2166
1 2167
1 2168
1 2169
1 2170
1 2171
1 2172
1 2173
1 2174
1 2175
1 2176
1 2177
1 2178
1 2179
1 2180
1 2181
1 2182
1 2183
1 2184
1 2185
1 2186
1 2187
1 2188
1 2189
1 2190
1 2191
1 2192
1 2193
1 2194
1 2195
1 2196
1 2197
1 2198
1 2199
1 2200
1 2201
1 2202
1 2203
1 2204
1 2205
1 2206
1 2207
1 2208
1 2209
1 2210
1 2211
1 2212
1 2213
1 2214
1 2215
1 2216
1 2217
1 2218
1 2219
1 2220
1 2221
1 2222
1 2223
1 2224
1 2225
1 2226
1 2227
1 2228
1 2229
1 2230
1 2231
1 2232
1 2233
1 2234
1 2235
1 2236
1 2237
1 2238
1 2239
1 2240
1 2241
1 2242
1 2243
1 2244
1 2245
1 2246
1 2247
1 2248
1 2249
1 2250
1 2251
1 2252
1 2253
1 2254
1 2255
1 2256
1 2257
1 2258
1 2259
1 2260
1 2261
1 2262
1 2263
1 2264
1 2265
1 2266
1 2267
1 2268
1 2269
1 2270
1 2271
1 2272
1 2273
1 2274
1 2275
1 2276
1 2277
1 2278
1 2279
1 2280
1 2281
1 2282
1 2283
1 2284
1 2285
1 2286
1 2287
1 2288
1 2289
1 2290
1 2291
1 2292
1 2293
1 2294
1 2295
1 2296
1 2297
1 2298
1 2299
1 2300
1 2301
1 2302
1 2303
1 2304
1 2305
1 2306
1 2307
1 2308
1 2309
1 2310
1 2311
1 2312
1 2313
1 2314
1 2315
1 2316
1 2317
1 2318
1 2319
1 2320
1 2321
1 2322
1 2323
1 2324
1 2325
1 2326
1 2327
1 2328
1 2329
1 2330
1 2331
1 2332
1 2333
1 2334
1 2335
1 2336
1 2337
1 2338
1 2339
1 2340
1 2341
1 2342
1 2343
1 2344
1 2345
1 2346
1 2347
1 2348
1 2349
1 2350
1 2351
1 2352
1 2353
1 2354
1 2355
1 2356
1 2357
1 2358
1 2359
1 2360
1 2361
1 2362
1 2363
1 2364
1 2365
1 2366
1 2367
1 2368
1 2369
1 2370
1 2371
1 2372
1 2373
1 2374
1 2375
1 2376
1 2377
1 2378
1 2379
1 2380
1 2381
1 2382
1 2383
1 2384
1 2385
1 2386
1 2387
1 2388
1 2389
1 2390
1 2391
1 2392
1 2393
1 2394
1 2395
1 2396
1 2397
1 2398
1 2399
1 2400
1 2401
1 2402
1 2403
1 2404
1 2405
1 2406
1 2407
1 2408
1 2409
1 2410
1 2411
1 2412
1 2413
1 2414
1 2415
1 2416
1 2417
1 2418
1 2419
1 2420
1 2421
1 2422
1 2423
1 2424
1 2425
1 2426
1 2427
1 2428
1 2429
1 2430
1 2431
1 2432
1 2433
1 2434
1 2435
1 2436
1 2437
1 2438
1 2439
1 2440
1 2441
1 2442
1 2443
1 2444
1 2445
1 2446
1 2447
1 2448
1 2449
1 2450
1 2451
1 2452
1 2453
1 2454
1 2455
1 2456
1 2457
1 2458
1 2459
1 2460
1 2461
1 2462
1 2463
1 2464
1 2465
1 2466
1 2467
1 2468
1 2469
1 2470
1 2471
1 2472
1 2473
1 2474
1 2475
1 2476
1 2477
1 2478
1 2479
1 2480
1 2481
1 2482
1 2483
1 2484
1 2485
1 2486
1 2487
1 2488
1 2489
1 2490
1 2491
1 2492
1 2493
1 2494
1 2495
1 2496
1 2497
1 2498
1 2499
1 2500
1 2501
1 2502
1 2503
1 2504
1 2505
1 2506
1 2507
1 2508
1 2509
1 2510
1 2511
1 2512
1 2513
1 2514
1 2515
1 2516
1 2517
1 2518
1 2519
1 2520
1 2521
1 2522
1 2523
1 2524
1 2525
1 2526
1 2527
1 2528
1 2529
1 2530
1 2531
1 2532
1 2533
1 2534
1 2535
1 2536
1 2537
1 2538
1 2539
1 2540
1 2541
1 2542
1 2543
1 2544
1 2545
1 2546
1 2547
1 2548
1 2549
1 2550
1 2551
1 2552
1 2553
1 2554
1 2555
1 2556
1 2557
1 2558
1 2559
1 2560
1 2561
1 2562
1 2563
1 2564
1 2565
1 2566
1 2567
1 2568
1 2569
1 2570
1 2571
1 2572
1 2573
1 2574
1 2575
1 2576
1 2577
1 2578
1 2579
1 2580
1 2581
1 2582
1 2583
1 2584
1 2585
1 2586
1 2587
1 2588
1 2589
1 2590
1 2591
1 2592
1 2593
1 2594
1 2595
1 2596
1 2597
1 2598
1 2599
1 2600
1 2601
1 2602
1 2603
1 2604
1 2605
1 2606
1 2607
1 2608
1 2609
1 2610
1 2611
1 2612
1 2613
1 2614
1 2615
1 2616
1 2617
1 2618
1 2619
1 2620
1 2621
1 2622
1 2623
1 2624
1 2625
1 2626
1 2627
1 2628
1 2629
1 2630
1 2631
1 2632
1 2633
1 2634
1 2635
1 2636
1 2637
1 2638
1 2639
1 2640
1 2641
1 2642
1 2643
1 2644
1 2645
1 2646
1 2647
1 2648
1 2649
1 2650
1 2651
1 2652
1 2653
1 2654
1 2655
1 2656
1 2657
1 2658
1 2659
1 2660
1 2661
1 2662
1 2663
1 2664
1 2665
1 2666
1 2667
1 2668
1 2669
1 2670
1 2671
1 2672
1 2673
1 2674
1 2675
1 2676
1 2677
1 2678
1 2679
1 2680
1 2681
1 2682
1 2683
1 2684
1 2685
1 2686
1 2687
1 2688
1 2689
1 2690
1 2691
1 2692
1 2693
1 2694
1 2695
1 2696
1 2697
1 2698
1 2699
1 2700
1 2701
1 2702
1 2703
1 2704
1 2705
1 2706
1 2707
1 2708
1 2709
1 2710
1 2711
1 2712
1 2713
1 2714
1 2715
1 2716
1 2717
1 2718
1 2719
1 2720
1 2721
1 2722
1 2723
1 2724
1 2725
1 2726
1 2727
1 2728
1 2729
1 2730
1 2731
1 2732
1 2733
1 2734
1 2735
1 2736
1 2737
1 2738
1 2739
1 2740
1 2741
1 2742
1 2743
1 2744
1 2745
1 2746
1 2747
1 2748
1 2749
1 2750
1 2751
1 2752
1 2753
1 2754
1 2755
1 2756
1 2757
1 2758
1 2759
1 2760
1 2761
1 2762
1 2763
1 2764
1 2765
1 2766
1 2767
1 2768
1 2769
1 2770
1 2771
1 2772
1 2773
1 2774
1 2775
1 2776
1 2777
1 2778
1 2779
1 2780
1 2781
1 2782
1 2783
1 2784
1 2785
1 2786
1 2787
1 2788
1 2789
1 2790
1 2791
1 2792
1 2793
1 2794
1 2795
1 2796
1 2797
1 2798
1 2799
1 2800
1 2801
1 2802
1 2803
1 2804
1 2805
1 2806
1 2807
1 2808
1 2809
1 2810
1 2811
1 2812
1 2813
1 2814
1 2815
1 2816
1 2817
1 2818
1 2819
1 2820
1 2821
1 2822
1 2823
1 2824
1 2825
1 2826
1 2827
1 2828
1 2829
1 2830
1 2831
1 2832
1 2833
1 2834
1 2835
1 2836
1 2837
1 2838
1 2839
1 2840
1 2841
1 2842
1 2843
1 2844
1 2845
1 2846
1 2847
1 2848
1 2849
1 2850
1 2851
1 2852
1 2853
1 2854
1 2855
1 2856
1 2857
1 2858
1 2859
1 2860
1 2861
1 2862
1 2863
1 2864
1 2865
1 2866
1 2867
1 2868
1 2869
1 2870
1 2871
1 2872
1 2873
1 2874
1 2875
1 2876
1 2877
1 2878
1 2879
1 2880
1 2881
1 2882
1 2883
1 2884
1 2885
1 2886
1 2887
1 2888
1 2889
1 2890
1 2891
1 2892
1 2893
1 2894
1 2895
1 2896
1 2897
1 2898
1 2899
1 2900
1 2901
1 2902
1 2903
1 2904
1 2905
1 2906
1 2907
1 2908
1 2909
1 2910
1 2911
1 2912
1 2913
1 2914
1 2915
1 2916
1 2917
1 2918
1 2919
1 2920
1 2921
1 2922
1 2923
1 2924
1 2925
1 2926
1 2927
1 2928
1 2929
1 2930
1 2931
1 2932
1 2933
1 2934
1 2935
1 2936
1 2937
1 2938
1 2939
1 2940
1 2941
1 2942
1 2943
1 2944
1 2945
1 2946
1 2947
1 2948
1 2949
1 2950
1 2951
1 2952
1 2953
1 2954
1 2955
1 2956
1 2957
1 2958
1 2959
1 2960
1 2961
1 2962
1 2963
1 2964
1 2965
1 2966
1 2967
1 2968
1 2969
1 2970
1 2971
1 2972
1 2973
1 2974
1 2975
1 2976
1 2977
1 2978
1 2979
1 2980
1 2981
1 2982
1 2983
1 2984
1 2985
1 2986
1 2987
1 2988
1 2989
1 2990
1 2991
1 2992
1 2993
1 2994
1 2995
1 2996
1 2997
1 2998
1 2999
1 3000
1 3001
1 3002
1 3003
1 3004
1 3005
1 3006
1 3007
1 3008
1 3009
1 3010
1 3011
1 3012
1 3013
1 3014
1 3015
1 3016
1 3017
1 3018
1 3019
1 3020
1 3021
1 3022
1 3023
1 3024
1 3025
1 3026
1 3027
1 3028
1 3029
1 3030
1 3031
1 3032
1 3033
1 3034
1 3035
1 3036
1 3037
1 3038
1 3039
1 3040
1 3041
1 3042
1 3043
1 3044
1 3045
1 3046
1 3047
1 3048
1 3049
1 3050
1 3051
1 3052
1 3053
1 3054
1 3055
1 3056
1 3057
1 3058
1 3059
1 3060
1 3061
1 3062
1 3063
1 3064
1 3065
1 3066
1 3067
1 3068
1 3069
1 3070
1 3071
1 3072
1 3073
1 3074
1 3075
1 3076
1 3077
1 3078
1 3079
1 3080
1 3081
1 3082
1 3083
1 3084
1 3085
1 3086
1 3087
1 3088
1 3089
1 3090
1 3091
1 3092
1 3093
1 3094
1 3095
1 3096
1 3097
1 3098
1 3099
1 3100
1 3101
1 3102
1 3103
1 3104
1 3105
1 3106
1 3107
1 3108
1 3109
1 3110
1 3111
1 3112
1 3113
1 3114
1 3115
1 3116
1 3117
1 3118
1 3119
1 3120
1 3121
1 3122
1 3123
1 3124
1 3125
1 3126
1 3127
1 3128
1 3129
1 3130
1 3131
1 3132
1 3133
1 3134
1 3135
1 3136
1 3137
1 3138
1 3139
1 3140
1 3141
1 3142
1 3143
1 3144
1 3145
1 3146
1 3147
1 3148
1 3149
1 3150
1 3151
1 3152
1 3153
1 3154
1 3155
1 3156
1 3157
1 3158
1 3159
1 3160
1 3161
1 3162
1 3163
1 3164
1 3165
1 3166
1 3167
1 3168
1 3169
1 3170
1 3171
1 3172
1 3173
1 3174
1 3175
1 3176
1 3177
1 3178
1 3179
1 3180
1 3181
1 3182
1 3183
1 3184
1 3185
1 3186
1 3187
1 3188
1 3189
1 3190
1 3191
1 3192
1 3193
1 3194
1 3195
1 3196
1 3197
1 3198
1 3199
1 3200
1 3201
1 3202
1 3203
1 3204
1 3205
1 3206
1 3207
1 3208
1 3209
1 3210
1 3211
1 3212
1 3213
1 3214
1 3215
1 3216
1 3217
1 3218
1 3219
1 3220
1 3221
1 3222
1 3223
1 3224
1 3225
1 3226
1 3227
1 3228
1 3229
1 3230
1 3231
1 3232
1 3233
1 3234
1 3235
1 3236
1 3237
1 3238
1 3239
1 3240
1 3241
1 3242
1 3243
1 3244
1 3245
1 3246
1 3247
1 3248
1 3249
1 3250
1 3251
1 3252
1 3253
1 3254
1 3255
1 3256
1 3257
1 3258
1 3259
1 3260
1 3261
1 3262
1 3263
1 3264
1 3265
1 3266
1 3267
1 3268
1 3269
1 3270
1 3271
1 3272
1 3273
1 3274
1 3275
1 3276
1 3277
1 3278
1 3279
1 3280
1 3281
1 3282
1 3283
1 3284
1 3285
1 3286
1 3287
1 3288
1 3289
1 3290
1 3291
1 3292
1 3293
1 3294
1 3295
1 3296
1 3297
1 3298
1 3299
1 3300
1 3301
1 3302
1 3303
1 3304
1 3305
1 3306
1 3307
1 3308
1 3309
1 3310
1 3311
1 3312
1 3313
1 3314
1 3315
1 3316
1 3317
1 3318
1 3319
1 3320
1 3321
1 3322
1 3323
1 3324
1 3325
1 3326
1 3327
1 3328
1 3329
1 3330
1 3331
1 3332
1 3333
1 3334
1 3335
1 3336
1 3337
1 3338
1 3339
1 3340
1 3341
1 3342
1 3343
1 3344
1 3345
1 3346
1 3347
1 3348
1 3349
1 3350
1 3351
1 3352
1 3353
1 3354
1 3355
1 3356
1 3357
1 3358
1 3359
1 3360
1 3361
1 3362
1 3363
1 3364
1 3365
1 3366
1 3367
1 3368
1 3369
1 3370
1 3371
1 3372
1 3373
1 3374
1 3375
1 3376
1 3377
1 3378
1 3379
1 3380
1 3381
1 3382
1 3383
1 3384
1 3385
1 3386
1 3387
1 3388
1 3389
1 3390
1 3391
1 3392
1 3393
1 3394
1 3395
1 3396
1 3397
1 3398
1 3399
1 3400
1 3401
1 3402
1 3403
1 3404
1 3405
1 3406
1 3407
1 3408
1 3409
1 3410
1 3411
1 3412
1 3413
1 3414
1 3415
1 3416
1 3417
1 3418
1 3419
1 3420
1 3421
1 3422
1 3423
1 3424
1 3425
1 3426
1 3427
1 3428
1 3429
1 3430
1 3431
1 3432
1 3433
1 3434
1 3435
1 3436
1 3437
1 3438
1 3439
1 3440
1 3441
1 3442
1 3443
1 3444
1 3445
1 3446
1 3447
1 3448
1 3449
1 3450
1 3451
1 3452
1 3453
1 3454
1 3455
1 3456
1 3457
1 3458
1 3459
1 3460
1 3461
1 3462
1 3463
1 3464
1 3465
1 3466
1 3467
1 3468
1 3469
1 3470
1 3471
1 3472
1 3473
1 3474
1 3475
1 3476
1 3477
1 3478
1 3479
1 3480
1 3481
1 3482
1 3483
1 3484
1 3485
1 3486
1 3487
1 3488
1 3489
1 3490
1 3491
1 3492
1 3493
1 3494
1 3495
1 3496
1 3497
1 3498
1 3499
1 3500
1 3501
1 3502
1 3503
1 3504
1 3505
1 3506
1 3507
1 3508
1 3509
1 3510
1 3511
1 3512
1 3513
1 3514
1 3515
1 3516
1 3517
1 3518
1 3519
1 3520
1 3521
1 3522
1 3523
1 3524
1 3525
1 3526
1 3527
1 3528
1 3529
1 3530
1 3531
1 3532
1 3533
1 3534
1 3535
1 3536
1 3537
1 3538
1 3539
1 3540
1 3541
1 3542
1 3543
1 3544
1 3545
1 3546
1 3547
1 3548
1 3549
1 3550
1 3551
1 3552
1 3553
1 3554
1 3555
1 3556
1 3557
1 3558
1 3559
1 3560
1 3561
1 3562
1 3563
1 3564
1 3565
1 3566
1 3567
1 3568
1 3569
1 3570
1 3571
1 3572
1 3573
1 3574
1 3575
1 3576
1 3577
1 3578
1 3579
1 3580
1 3581
1 3582
1 3583
1 3584
1 3585
1 3586
1 3587
1 3588
1 3589
1 3590
1 3591
1 3592
1 3593
1 3594
1 3595
1 3596
1 3597
1 3598
1 3599
1 3600
1 3601
1 3602
1 3603
1 3604
1 3605
1 3606
1 3607
1 3608
1 3609
1 3610
1 3611
1 3612
1 3613
1 3614
1 3615
1 3616
1 3617
1 3618
1 3619
1 3620
1 3621
1 3622
1 3623
1 3624
1 3625
1 3626
1 3627
1 3628
1 3629
1 3630
1 3631
1 3632
1 3633
1 3634
1 3635
1 3636
1 3637
1 3638
1 3639
1 3640
1 3641
1 3642
1 3643
1 3644
1 3645
1 3646
1 3647
1 3648
1 3649
1 3650
1 3651
1 3652
1 3653
1 3654
1 3655
1 3656
1 3657
1 3658
1 3659
1 3660
1 3661
1 3662
1 3663
1 3664
1 3665
1 3666
1 3667
1 3668
1 3669
1 3670
1 3671
1 3672
1 3673
1 3674
1 3675
1 3676
1 3677
1 3678
1 3679
1 3680
1 3681
1 3682
1 3683
1 3684
1 3685
1 3686
1 3687
1 3688
1 3689
1 3690
1 3691
1 3692
1 3693
1 3694
1 3695
1 3696
1 3697
1 3698
1 3699
1 3700
1 3701
1 3702
1 3703
1 3704
1 3705
1 3706
1 3707
1 3708
1 3709
1 3710
1 3711
1 3712
1 3713
1 3714
1 3715
1 3716
1 3717
1 3718
1 3719
1 3720
1 3721
1 3722
1 3723
1 3724
1 3725
1 3726
1 3727
1 3728
1 3729
1 3730
1 3731
1 3732
1 3733
1 3734
1 3735
1 3736
1 3737
1 3738
1 3739
1 3740
1 3741
1 3742
1 3743
1 3744
1 3745
1 3746
1 3747
1 3748
1 3749
1 3750
1 3751
1 3752
1 3753
1 3754
1 3755
1 3756
1 3757
1 3758
1 3759
1 3760
1 3761
1 3762
1 3763
1 3764
1 3765
1 3766
1 3767
1 3768
1 3769
1 3770
1 3771
1 3772
1 3773
1 3774
1 3775
1 3776
1 3777
1 3778
1 3779
1 3780
1 3781
1 3782
1 3783
1 3784
1 3785
1 3786
1 3787
1 3788
1 3789
1 3790
1 3791
1 3792
1 3793
1 3794
1 3795
1 3796
1 3797
1 3798
1 3799
1 3800
1 3801
1 3802
1 3803
1 3804
1 3805
1 3806
1 3807
1 3808
1 3809
1 3810
1 3811
1 3812
1 3813
1 3814
1 3815
1 3816
1 3817
1 3818
1 3819
1 3820
1 3821
1 3822
1 3823
1 3824
1 3825
1 3826
1 3827
1 3828
1 3829
1 3830
1 3831
1 3832
1 3833
1 3834
1 3835
1 3836
1 3837
1 3838
1 3839
1 3840
1 3841
1 3842
1 3843
1 3844
1 3845
1 3846
1 3847
1 3848
1 3849
1 3850
1 3851
1 3852
1 3853
1 3854
1 3855
1 3856
1 3857
1 3858
1 3859
1 3860
1 3861
1 3862
1 3863
1 3864
1 3865
1 3866
1 3867
1 3868
1 3869
1 3870
1 3871
1 3872
1 3873
1 3874
1 3875
1 3876
1 3877
1 3878
1 3879
1 3880
1 3881
1 3882
1 3883
1 3884
1 3885
1 3886
1 3887
1 3888
1 3889
1 3890
1 3891
1 3892
1 3893
1 3894
1 3895
1 3896
1 3897
1 3898
1 3899
1 3900
1 3901
1 3902
1 3903
1 3904
1 3905
1 3906
1 3907
1 3908
1 3909
1 3910
1 3911
1 3912
1 3913
1 3914
1 3915
1 3916
1 3917
1 3918
1 3919
1 3920
1 3921
1 3922
1 3923
1 3924
1 3925
1 3926
1 3927
1 3928
1 3929
1 3930
1 3931
1 3932
1 3933
1 3934
1 3935
1 3936
1 3937
1 3938
1 3939
1 3940
1 3941
1 3942
1 3943
1 3944
1 3945
1 3946
1 3947
1 3948
1 3949
1 3950
1 3951
1 3952
1 3953
1 3954
1 3955
1 3956
1 3957
1 3958
1 3959
1 3960
1 3961
1 3962
1 3963
1 3964
1 3965
1 3966
1 3967
1 3968
1 3969
1 3970
1 3971
1 3972
1 3973
1 3974
1 3975
1 3976
1 3977
1 3978
1 3979
1 3980
1 3981
1 3982
1 3983
1 3984
1 3985
1 3986
1 3987
1 3988
1 3989
1 3990
1 3991
1 3992
1 3993
1 3994
1 3995
1 3996
1 3997
1 3998
1 3999
1 4000
1 4001
1 4002
1 4003
1 4004
1 4005
1 4006
1 4007
1 4008
1 4009
1 4010
1 4011
1 4012
1 4013
1 4014
1 4015
1 4016
1 4017
1 4018
1 4019
1 4020
1 4021
1 4022
1 4023
1 4024
1 4025
1 4026
1 4027
1 4028
1 4029
1 4030
1 4031
1 4032
1 4033
1 4034
1 4035
1 4036
1 4037
1 4038
1 4039
1 4040
1 4041
1 4042
1 4043
1 4044
1 4045
1 4046
1 4047
1 4048
1 4049
1 4050
1 4051
1 4052
1 4053
1 4054
1 4055
1 4056
1 4057
1 4058
1 4059
1 4060
1 4061
1 4062
1 4063
1 4064
1 4065
1 4066
1 4067
1 4068
1 4069
1 4070
1 4071
1 4072
1 4073
1 4074
1 4075
1 4076
1 4077
1 4078
1 4079
1 4080
1 4081
1 4082
1 4083
1 4084
1 4085
1 4086
1 4087
1 4088
1 4089
1 4090
1 4091
1 4092
1 4093
1 4094
1 4095
1 4096
1 4097
1 4098
1 4099
1 4100
1 4101
1 4102
1 4103
1 4104
1 4105
1 4106
1 4107
1 4108
1 4109
1 4110
1 4111
1 4112
1 4113
1 4114
1 4115
1 4116
1 4117
1 4118
1 4119
1 4120
1 4121
1 4122
1 4123
1 4124
1 4125
1 4126
1 4127
1 4128
1 4129
1 4130
1 4131
1 4132
1 4133
1 4134
1 4135
1 4136
1 4137
1 4138
1 4139
1 4140
1 4141
1 4142
1 4143
1 4144
1 4145
1 4146
1 4147
1 4148
1 4149
1 4150
1 4151
1 4152
1 4153
1 4154
1 4155
1 4156
1 4157
1 4158
1 4159
1 4160
1 4161
1 4162
1 4163
1 4164
1 4165
1 4166
1 4167
1 4168
1 4169
1 4170
1 4171
1 4172
1 4173
1 4174
1 4175
1 4176
1 4177
1 4178
1 4179
1 4180
1 4181
1 4182
1 4183
1 4184
1 4185
1 4186
1 4187
1 4188
1 4189
1 4190
1 4191
1 4192
1 4193
1 4194
1 4195
1 4196
1 4197
1 4198
1 4199
1 4200
1 4201
1 4202
1 4203
1 4204
1 4205
1 4206
1 4207
1 4208
1 4209
1 4210
1 4211
1 4212
1 4213
1 4214
1 4215
1 4216
1 4217
1 4218
1 4219
1 4220
1 4221
1 4222
1 4223
1 4224
1 4225
1 4226
1 4227
1 4228
1 4229
1 4230
1 4231
1 4232
1 4233
1 4234
1 4235
1 4236
1 4237
1 4238
1 4239
1 4240
1 4241
1 4242
1 4243
1 4244
1 4245
1 4246
1 4247
1 4248
1 4249
1 4250
1 4251
1 4252
1 4253
1 4254
1 4255
1 4256
1 4257
1 4258
1 4259
1 4260
1 4261
1 4262
1 4263
1 4264
1 4265
1 4266
1 4267
1 4268
1 4269
1 4270
1 4271
1 4272
1 4273
1 4274
1 4275
1 4276
1 4277
1 4278
1 4279
1 4280
1 4281
1 4282
1 4283
1 4284
1 4285
1 4286
1 4287
1 4288
1 4289
1 4290
1 4291
1 4292
1 4293
1 4294
1 4295
1 4296
1 4297
1 4298
1 4299
1 4300
1 4301
1 4302
1 4303
1 4304
1 4305
1 4306
1 4307
1 4308
1 4309
1 4310
1 4311
1 4312
1 4313
1 4314
1 4315
1 4316
1 4317
1 4318
1 4319
1 4320
1 4321
1 4322
1 4323
1 4324
1 4325
1 4326
1 4327
1 4328
1 4329
1 4330
1 4331
1 4332
1 4333
1 4334
1 4335
1 4336
1 4337
1 4338
1 4339
1 4340
1 4341
1 4342
1 4343
1 4344
1 4345
1 4346
1 4347
1 4348
1 4349
1 4350
1 4351
1 4352
1 4353
1 4354
1 4355
1 4356
1 4357
1 4358
1 4359
1 4360
1 4361
1 4362
1 4363
1 4364
1 4365
1 4366
1 4367
1 4368
1 4369
1 4370
1 4371
1 4372
1 4373
1 4374
1 4375
1 4376
1 4377
1 4378
1 4379
1 4380
1 4381
1 4382
1 4383
1 4384
1 4385
1 4386
1 4387
1 4388
1 4389
1 4390
1 4391
1 4392
1 4393
1 4394
1 4395
1 4396
1 4397
1 4398
1 4399
1 4400
1 4401
1 4402
1 4403
1 4404
1 4405
1 4406
1 4407
1 4408
1 4409
1 4410
1 4411
1 4412
1 4413
1 4414
1 4415
1 4416
1 4417
1 4418
1 4419
1 4420
1 4421
1 4422
1 4423
1 4424
1 4425
1 4426
1 4427
1 4428
1 4429
1 4430
1 4431
1 4432
1 4433
1 4434
1 4435
1 4436
1 4437
1 4438
1 4439
1 4440
1 4441
1 4442
1 4443
1 4444
1 4445
1 4446
1 4447
1 4448
1 4449
1 4450
1 4451
1 4452
1 4453
1 4454
1 4455
1 4456
1 4457
1 4458
1 4459
1 4460
1 4461
1 4462
1 4463
1 4464
1 4465
1 4466
1 4467
1 4468
1 4469
1 4470
1 4471
1 4472
1 4473
1 4474
1 4475
1 4476
1 4477
1 4478
1 4479
1 4480
1 4481
1 4482
1 4483
1 4484
1 4485
1 4486
1 4487
1 4488
1 4489
1 4490
1 4491
1 4492
1 4493
1 4494
1 4495
1 4496
1 4497
1 4498
1 4499
1 4500
1 4501
1 4502
1 4503
1 4504
1 4505
1 4506
1 4507
1 4508
1 4509
1 4510
1 4511
1 4512
1 4513
1 4514
1 4515
1 4516
1 4517
1 4518
1 4519
1 4520
1 4521
1 4522
1 4523
1 4524
1 4525
1 4526
1 4527
1 4528
1 4529
1 4530
1 4531
1 4532
1 4533
1 4534
1 4535
1 4536
1 4537
1 4538
1 4539
1 4540
1 4541
1 4542
1 4543
1 4544
1 4545
1 4546
1 4547
1 4548
1 4549
1 4550
1 4551
1 4552
1 4553
1 4554
1 4555
1 4556
1 4557
1 4558
1 4559
1 4560
1 4561
1 4562
1 4563
1 4564
1 4565
1 4566
1 4567
1 4568
1 4569
1 4570
1 4571
1 4572
1 4573
1 4574
1 4575
1 4576
1 4577
1 4578
1 4579
1 4580
1 4581
1 4582
1 4583
1 4584
1 4585
1 4586
1 4587
1 4588
1 4589
1 4590
1 4591
1 4592
1 4593
1 4594
1 4595
1 4596
1 4597
1 4598
1 4599
1 4600
1 4601
1 4602
1 4603
1 4604
1 4605
1 4606
1 4607
1 4608
1 4609
1 4610
1 4611
1 4612
1 4613
1 4614
1 4615
1 4616
1 4617
1 4618
1 4619
1 4620
1 4621
1 4622
1 4623
1 4624
1 4625
1 4626
1 4627
1 4628
1 4629
1 4630
1 4631
1 4632
1 4633
1 4634
1 4635
1 4636
1 4637
1 4638
1 4639
1 4640
1 4641
1 4642
1 4643
1 4644
1 4645
1 4646
1 4647
1 4648
1 4649
1 4650
1 4651
1 4652
1 4653
1 4654
1 4655
1 4656
1 4657
1 4658
1 4659
1 4660
1 4661
1 4662
1 4663
1 4664
1 4665
1 4666
1 4667
1 4668
1 4669
1 4670
1 4671
1 4672
1 4673
1 4674
1 4675
1 4676
1 4677
1 4678
1 4679
1 4680
1 4681
1 4682
1 4683
1 4684
1 4685
1 4686
1 4687
1 4688
1 4689
1 4690
1 4691
1 4692
1 4693
1 4694
1 4695
1 4696
1 4697
1 4698
1 4699
1 4700
1 4701
1 4702
1 4703
1 4704
1 4705
1 4706
1 4707
1 4708
1 4709
1 4710
1 4711
1 4712
1 4713
1 4714
1 4715
1 4716
1 4717
1 4718
1 4719
1 4720
1 4721
1 4722
1 4723
1 4724
1 4725
1 4726
1 4727
1 4728
1 4729
1 4730
1 4731
1 4732
1 4733
1 4734
1 4735
1 4736
1 4737
1 4738
1 4739
1 4740
1 4741
1 4742
1 4743
1 4744
1 4745
1 4746
1 4747
1 4748
1 4749
1 4750
1 4751
1 4752
1 4753
1 4754
1 4755
1 4756
1 4757
1 4758
1 4759
1 4760
1 4761
1 4762
1 4763
1 4764
1 4765
1 4766
1 4767
1 4768
1 4769
1 4770
1 4771
1 4772
1 4773
1 4774
1 4775
1 4776
1 4777
1 4778
1 4779
1 4780
1 4781
1 4782
1 4783
1 4784
1 4785
1 4786
1 4787
1 4788
1 4789
1 4790
1 4791
1 4792
1 4793
1 4794
1 4795
1 4796
1 4797
1 4798
1 4799
1 4800
1 4801
1 4802
1 4803
1 4804
1 4805
1 4806
1 4807
1 4808
1 4809
1 4810
1 4811
1 4812
1 4813
1 4814
1 4815
1 4816
1 4817
1 4818
1 4819
1 4820
1 4821
1 4822
1 4823
1 4824
1 4825
1 4826
1 4827
1 4828
1 4829
1 4830
1 4831
1 4832
1 4833
1 4834
1 4835
1 4836
1 4837
1 4838
1 4839
1 4840
1 4841
1 4842
1 4843
1 4844
1 4845
1 4846
1 4847
1 4848
1 4849
1 4850
1 4851
1 4852
1 4853
1 4854
1 4855
1 4856
1 4857
1 4858
1 4859
1 4860
1 4861
1 4862
1 4863
1 4864
1 4865
1 4866
1 4867
1 4868
1 4869
1 4870
1 4871
1 4872
1 4873
1 4874
1 4875
1 4876
1 4877
1 4878
1 4879
1 4880
1 4881
1 4882
1 4883
1 4884
1 4885
1 4886
1 4887
1 4888
1 4889
1 4890
1 4891
1 4892
1 4893
1 4894
1 4895
1 4896
1 4897
1 4898
1 4899
1 4900
1 4901
1 4902
1 4903
1 4904
1 4905
1 4906
1 4907
1 4908
1 4909
1 4910
1 4911
1 4912
1 4913
1 4914
1 4915
1 4916
1 4917
1 4918
1 4919
1 4920
1 4921
1 4922
1 4923
1 4924
1 4925
1 4926
1 4927
1 4928
1 4929
1 4930
1 4931
1 4932
1 4933
1 4934
1 4935
1 4936
1 4937
1 4938
1 4939
1 4940
1 4941
1 4942
1 4943
1 4944
1 4945
1 4946
1 4947
1 4948
1 4949
1 4950
1 4951
1 4952
1 4953
1 4954
1 4955
1 4956
1 4957
1 4958
1 4959
1 4960
1 4961
1 4962
1 4963
1 4964
1 4965
1 4966
1 4967
1 4968
1 4969
1 4970
1 4971
1 4972
1 4973
1 4974
1 4975
1 4976
1 4977
1 4978
1 4979
1 4980
1 4981
1 4982
1 4983
1 4984
1 4985
1 4986
1 4987
1 4988
1 4989
1 4990
1 4991
1 4992
1 4993
1 4994
1 4995
1 4996
1 4997
1 4998
1 4999
CELL_TYPES 5000
1 
1 
1 
1 
1 
1 
1 
1 
1 
1 
1 
1 
1 
1 
1 
1 
1 
1 
1 
1 
1 
1 
1 
1 
1 
1 
1 
1 
1 
1 
1 
1 
1 
1 
1 
1 
1 
1 
1 
1 
1 
1 
1 
1 
1 
1 
1 
1 
1 
1 
1 
1 
1 
1 
1 
1 
1 
1 
1 
1 
1 
1 
1 
1 
1 
1 
1 
1 
1 
1 
1 
1 
1 
1 
1 
1 
1 
1 
1 
1 
1 
1 
1 
1 
1 
1 
1 
1 
1 
1 
1 
1 
1 
1 
1 
1 
1 
1 
1 
1 
1 
1 
1 
1 
1 
1 
1 
1 
1 
1 
1 
1 
1 
1 
1 
1 
1 
1 
1 
1 
1 
1 
1 
1 
1 
1 
1 
1 
1 
1 
1 
1 
1 
1 
1 
1 
1 
1 
1 
1 
1 
1 
1 
1 
1 
1 
1 
1 
1 
1 
1 
1 
1 
1 
1 
1 
1 
1 
1 
1 
1 
1 
1 
1 
1 
1 
1 
1 
1 
1 
1 
1 
1 
1 
1 
1 
1 
1 
1 
1 
1 
1 
1 
1 
1 
1 
1 
1 
1 
1 
1 
1 
1 
1 
1 
1 
1 
1 
1 
1 
1 
1 
1 
1 
1 
1 
1 
1 
1 
1 
1 
1 
1 
1 
1 
1 
1 
1 
1 
1 
1 
1 
1 
1 
1 
1 
1 
1 
1 
1 
1 
1 
1 
1 
1 
1 
1 
1 
1 
1 
1 
1 
1 
1 
1 
1 
1 
1 
1 
1 
1 
1 
1 
1 
1 
1 
1 
1 
1 
1 
1 
1 
1 
1 
1 
1 
1 
1 
1 
1 
1 
1 
1 
1 
1 
1 
1 
1 
1 
1 
1 
1 
1 
1 
1 
1 
1 
1 
1 
1 
1 
1 
1 
1 
1 
1 
1 
1 
1 
1 
1 
1 
1 
1 
1 
1 
1 
1 
1 
1 
1 
1 
1 
1 
1 
1 
1 
1 
1 
1 
1 
1 
1 
1 
1 
1 
1 
1 
1 
1 
1 
1 
1 
1 
1 
1 
1 
1 
1 
1 
1 
1 
1 
1 
1 
1 
1 
1 
1 
1 
1 
1 
1 
1 
1 
1 
1 
1 
1 
1 
1 
1 
1 
1 
1 
1 
1 
1 
1 
1 
1 
1 
1 
1 
1 
1 
1 
1 
1 
1 
1 
1 
1 
1 
1 
1 
1 
1 
1 
1 
1 
1 
1 
1 
1 
1 
1 
1 
1 
1 
1 
1 
1 
1 
1 
1 
1 
1 
1 
1 
1 
1 
1 
1 
1 
1 
1 
1 
1 
1 
1 
1 
1 
1 
1 
1 
1 
1 
1 
1 
1 
1 
1 
1 
1 
1 
1 
1 
1 
1 
1 
1 
1 
1 
1 
1 
1 
1 
1 
1 
1 
1 
1 
1 
1 
1 
1 
1 
1 
1 
1 
1 
1 
1 
1 
1 
1 
1 
1 
1 
1 
1 
1 
1 
1 
1 
1 
1 
1 
1 
1 
1 
1 
1 
1 
1 
1 
1 
1 
1 
1 
1 
1 
1 
1 
1 
1 
1 
1 
1 
1 
1 
1 
1 
1 
1 
1 
1 
1 
1 
1 
1 
1 
1 
1 
1 
1 
1 
1 
1 
1 
1 
1 
1 
1 
1 
1 
1 
1 
1 
1 
1 
1 
1 
1 
1 
1 
1 
1 
1 
1 
1 
1 
1 
1 
1 
1 
1 
1 
1 
1 
1 
1 
1 
1 
1 
1 
1 
1 
1 
1 
1 
1 
1 
1 
1 
1 
1 
1 
1 
1 
1 
1 
1 
1 
1 
1 
1 
1 
1 
1 
1 
1 
1 
1 
1 
1 
1 
1 
1 
1 
1 
1 
1 
1 
1 
1 
1 
1 
1 
1 
1 
1 
1 
1 
1 
1 
1 
1 
1 
1 
1 
1 
1 
1 
1 
1 
1 
1 
1 
1 
1 
1 
1 
1 
1 
1 
1 
1 
1 
1 
1 
1 
1 
1 
1 
1 
1 
1 
1 
1 
1 
1 
1 
1 
1 
1 
1 
1 
1 
1 
1 
1 
1 
1 
1 
1 
1 
1 
1 
1 
1 
1 
1 
1 
1 
1 
1 
1 
1 
1 
1 
1 
1 
1 
1 
1 
1 
1 
1 
1 
1 
1 
1 
1 
1 
1 
1 
1 
1 
1 
1 
1 
1 
1 
1 
1 
1 
1 
1 
1 
1 
1 
1 
1 
1 
1 
1 
1 
1 
1 
1 
1 
1 
1 
1 
1 
1 
1 
1 
1 
1 
1 
1 
1 
1 
1 
1 
1 
1 
1 
1 
1 
1 
1 
1 
1 
1 
1 
1 
1 
1 
1 
1 
1 
1 
1 
1 
1 
1 
1 
1 
1 
1 
1 
1 
1 
1 
1 
1 
1 
1 
1 
1 
1 
1 
1 
1 
1 
1 
1 
1 
1 
1 
1 
1 
1 
1 
1 
1 
1 
1 
1 
1 
1 
1 
1 
1 
1 
1 
1 
1 
1 
1 
1 
1 
1 
1 
1 
1 
1 
1 
1 
1 
1 
1 
1 
1 
1 
1 
1 
1 
1 
1 
1 
1 
1 
1 
1 
1 
1 
1 
1 
1 
1 
1 
1 
1 
1 
1 
1 
1 
1 
1 
1 
1 
1 
1 
1 
1 
1 
1 
1 
1 
1 
1 
1 
1 
1 
1 
1 
1 
1 
1 
1 
1 
1 
1 
1 
1 
1 
1 
1 
1 
1 
1 
1 
1 
1 
1 
1 
1 
1 
1 
1 
1 
1 
1 
1 
1 
1 
1 
1 
1 
1 
1 
1 
1 
1 
1 
1 
1 
1 
1 
1 
1 
1 
1 
1 
1 
1 
1 
1 
1 
1 
1 
1 
1 
1 
1 
1 
1 
1 
1 
1 
1 
1 
1 
1 
1 
1 
1 
1 
1 
1 
1 
1 
1 
1 
1 
1 
1 
1 
1 
1 
1 
1 
1 
1 
1 
1 
1 
1 
1 
1 
1 
1 
1 
1 
1 
1 
1 
1 
1 
1 
1 
1 
1 
1 
1 
1 
1 
1 
1 
1 
1 
1 
1 
1 
1 
1 
1 
1 
1 
1 
1 
1 
1 
1 
1 
1 
1 
1 
1 
1 
1 
1 
1 
1 
1 
1 
1 
1 
1 
1 
1 
1 
1 
1 
1 
1 
1 
1 
1 
1 
1 
1 
1 
1 
1 
1 
1 
1 
1 
1 
1 
1 
1 
1 
1 
1 
1 
1 
1 
1 
1 
1 
1 
1 
1 
1 
1 
1 
1 
1 
1 
1 
1 
1 
1 
1 
1 
1 
1 
1 
1 
1 
1 
1 
1 
1 
1 
1 
1 
1 
1 
1 
1 
1 
1 
1 
1 
1 
1 
1 
1 
1 
1 
1 
1 
1 
1 
1 
1 
1 
1 
1 
1 
1 
1 
1 
1 
1 
1 
1 
1 
1 
1 
1 
1 
1 
1 
1 
1 
1 
1 
1 
1 
1 
1 
1 
1 
1 
1 
1 
1 
1 
1 
1 
1 
1 
1 
1 
1 
1 
1 
1 
1 
1 
1 
1 
1 
1 
1 
1 
1 
1 
1 
1 
1 
1 
1 
1 
1 
1 
1 
1 
1 
1 
1 
1 
1 
1 
1 
1 
1 
1 
1 
1 
1 
1 
1 
1 
1 
1 
1 
1 
1 
1 
1 
1 
1 
1 
1 
1 
1 
1 
1 
1 
1 
1 
1 
1 
1 
1 
1 
1 
1 
1 
1 
1 
1 
1 
1 
1 
1 
1 
1 
1 
1 
1 
1 
1 
1 
1 
1 
1 
1 
1 
1 
1 
1 
1 
1 
1 
1 
1 
1 
1 
1 
1 
1 
1 
1 
1 
1 
1 
1 
1 
1 
1 
1 
1 
1 
1 
1 
1 
1 
1 
1 
1 
1 
1 
1 
1 
1 
1 
1 
1 
1 
1 
1 
1 
1 
1 
1 
1 
1 
1 
1 
1 
1 
1 
1 
1 
1 
1 
1 
1 
1 
1 
1 
1 
1 
1 
1 
1 
1 
1 
1 
1 
1 
1 
1 
1 
1 
1 
1 
1 
1 
1 
1 
1 
1 
1 
1 
1 
1 
1 
1 
1 
1 
1 
1 
1 
1 
1 
1 
1 
1 
1 
1 
1 
1 
1 
1 
1 
1 
1 
1 
1 
1 
1 
1 
1 
1 
1 
1 
1 
1 
1 
1 
1 
1 
1 
1 
1 
1 
1 
1 
1 
1 
1 
1 
1 
1 
1 
1 
1 
1 
1 
1 
1 
1 
1 
1 
1 
1 
1 
1 
1 
1 
1 
1 
1 
1 
1 
1 
1 
1 
1 
1 
1 
1 
1 
1 
1 
1 
1 
1 
1 
1 
1 
1 
1 
1 
1 
1 
1 
1 
1 
1 
1 
1 
1 
1 
1 
1 
1 
1 
1 
1 
1 
1 
1 
1 
1 
1 
1 
1 
1 
1 
1 
1 
1 
1 
1 
1 
1 
1 
1 
1 
1 
1 
1 
1 
1 
1 
1 
1 
1 
1 
1 
1 
1 
1 
1 
1 
1 
1 
1 
1 
1 
1 
1 
1 
1 
1 
1 
1 
1 
1 
1 
1 
1 
1 
1 
1 
1 
1 
1 
1 
1 
1 
1 
1 
1 
1 
1 
1 
1 
1 
1 
1 
1 
1 
1 
1 
1 
1 
1 
1 
1 
1 
1 
1 
1 
1 
1 
1 
1 
1 
1 
1 
1 
1 
1 
1 
1 
1 
1 
1 
1 
1 
1 
1 
1 
1 
1 
1 
1 
1 
1 
1 
1 
1 
1 
1 
1 
1 
1 
1 
1 
1 
1 
1 
1 
1 
1 
1 
1 
1 
1 
1 
1 
1 
1 
1 
1 
1 
1 
1 
1 
1 
1 
1 
1 
1 
1 
1 
1 
1 
1 
1 
1 
1 
1 
1 
1 
1 
1 
1 
1 
1 
1 
1 
1 
1 
1 
1 
1 
1 
1 
1 
1 
1 
1 
1 
1 
1 
1 
1 
1 
1 
1 
1 
1 
1 
1 
1 
1 
1 
1 
1 
1 
1 
1 
1 
1 
1 
1 
1 
1 
1 
1 
1 
1 
1 
1 
1 
1 
1 
1 
1 
1 
1 
1 
1 
1 
1 
1 
1 
1 
1 
1 
1 
1 
1 
1 
1 
1 
1 
1 
1 
1 
1 
1 
1 
1 
1 
1 
1 
1 
1 
1 
1 
1 
1 
1 
1 
1 
1 
1 
1 
1 
1 
1 
1 
1 
1 
1 
1 
1 
1 
1 
1 
1 
1 
1 
1 
1 
1 
1 
1 
1 
1 
1 
1 
1 
1 
1 
1 
1 
1 
1 
1 
1 
1 
1 
1 
1 
1 
1 
1 
1 
1 
1 
1 
1 
1 
1 
1 
1 
1 
1 
1 
1 
1 
1 
1 
1 
1 
1 
1 
1 
1 
1 
1 
1 
1 
1 
1 
1 
1 
1 
1 
1 
1 
1 
1 
1 
1 
1 
1 
1 
1 
1 
1 
1 
1 
1 
1 
1 
1 
1 
1 
1 
1 
1 
1 
1 
1 
1 
1 
1 
1 
1 
1 
1 
1 
1 
1 
1 
1 
1 
1 
1 
1 
1 
1 
1 
1 
1 
1 
1 
1 
1 
1 
1 
1 
1 
1 
1 
1 
1 
1 
1 
1 
1 
1 
1 
1 
1 
1 
1 
1 
1 
1 
1 
1 
1 
1 
1 
1 
1 
1 
1 
1 
1 
1 
1 
1 
1 
1 
1 
1 
1 
1 
1 
1 
1 
1 
1 
1 
1 
1 
1 
1 
1 
1 
1 
1 
1 
1 
1 
1 
1 
1 
1 
1 
1 
1 
1 
1 
1 
1 
1 
1 
1 
1 
1 
1 
1 
1 
1 
1 
1 
1 
1 
1 
1 
1 
1 
1 
1 
1 
1 
1 
1 
1 
1 
1 
1 
1 
1 
1 
1 
1 
1 
1 
1 
1 
1 
1 
1 
1 
1 
1 
1 
1 
1 
1 
1 
1 
1 
1 
1 
1 
1 
1 
1 
1 
1 
1 
1 
1 
1 
1 
1 
1 
1 
1 
1 
1 
1 
1 
1 
1 
1 
1 
1 
1 
1 
1 
1 
1 
1 
1 
1 
1 
1 
1 
1 
1 
1 
1 
1 
1 
1 
1 
1 
1 
1 
1 
1 
1 
1 
1 
1 
1 
1 
1 
1 
1 
1 
1 
1 
1 
1 
1 
1 
1 
1 
1 
1 
1 
1 
1 
1 
1 
1 
1 
1 
1 
1 
1 
1 
1 
1 
1 
1 
1 
1 
1 
1 
1 
1 
1 
1 
1 
1 
1 
1 
1 
1 
1 
1 
1 
1 
1 
1 
1 
1 
1 
1 
1 
1 
1 
1 
1 
1 
1 
1 
1 
1 
1 
1 
1 
1 
1 
1 
1 
1 
1 
1 
1 
1 
1 
1 
1 
1 
1 
1 
1 
1 
1 
1 
1 
1 
1 
1 
1 
1 
1 
1 
1 
1 
1 
1 
1 
1 
1 
1 
1 
1 
1 
1 
1 
1 
1 
1 
1 
1 
1 
1 
1 
1 
1 
1 
1 
1 
1 
1 
1 
1 
1 
1 
1 
1 
1 
1 
1 
1 
1 
1 
1 
1 
1 
1 
1 
1 
1 
1 
1 
1 
1 
1 
1 
1 
1 
1 
1 
1 
1 
1 
1 
1 
1 
1 
1 
1 
1 
1 
1 
1 
1 
1 
1 
1 
1 
1 
1 
1 
1 
1 
1 
1 
1 
1 
1 
1 
1 
1 
1 
1 
1 
1 
1 
1 
1 
1 
1 
1 
1 
1 
1 
1 
1 
1 
1 
1 
1 
1 
1 
1 
1 
1 
1 
1 
1 
1 
1 
1 
1 
1 
1 
1 
1 
1 
1 
1 
1 
1 
1 
1 
1 
1 
1 
1 
1 
1 
1 
1 
1 
1 
1 
1 
1 
1 
1 
1 
1 
1 
1 
1 
1 
1 
1 
1 
1 
1 
1 
1 
1 
1 
1 
1 
1 
1 
1 
1 
1 
1 
1 
1 
1 
1 
1 
1 
1 
1 
1 
1 
1 
1 
1 
1 
1 
1 
1 
1 
1 
1 
1 
1 
1 
1 
1 
1 
1 
1 
1 
1 
1 
1 
1 
1 
1 
1 
1 
1 
1 
1 
1 
1 
1 
1 
1 
1 
1 
1 
1 
1 
1 
1 
1 
1 
1 
1 
1 
1 
1 
1 
1 
1 
1 
1 
1 
1 
1 
1 
1 
1 
1 
1 
1 
1 
1 
1 
1 
1 
1 
1 
1 
1 
1 
1 
1 
1 
1 
1 
1 
1 
1 
1 
1 
1 
1 
1 
1 
1 
1 
1 
1 
1 
1 
1 
1 
1 
1 
1 
1 
1 
1 
1 
1 
1 
1 
1 
1 
1 
1 
1 
1 
1 
1 
1 
1 
1 
1 
1 
1 
1 
1 
1 
1 
1 
1 
1 
1 
1 
1 
1 
1 
1 
1 
1 
1 
1 
1 
1 
1 
1 
1 
1 
1 
1 
1 
1 
1 
1 
1 
1 
1 
1 
1 
1 
1 
1 
1 
1 
1 
1 
1 
1 
1 
1 
1 
1 
1 
1 
1 
1 
1 
1 
1 
1 
1 
1 
1 
1 
1 
1 
1 
1 
1 
1 
1 
1 
1 
1 
1 
1 
1 
1 
1 
1 
1 
1 
1 
1 
1 
1 
1 
1 
1 
1 
1 
1 
1 
1 
1 
1 
1 
1 
1 
1 
1 
1 
1 
1 
1 
1 
1 
1 
1 
1 
1 
1 
1 
1 
1 
1 
1 
1 
1 
1 
1 
1 
1 
1 
1 
1 
1 
1 
1 
1 
1 
1 
1 
1 
1 
1 
1 
1 
1 
1 
1 
1 
1 
1 
1 
1 
1 
1 
1 
1 
1 
1 
1 
1 
1 
1 
1 
1 
1 
1 
1 
1 
1 
1 
1 
1 
1 
1 
1 
1 
1 
1 
1 
1 
1 
1 
1 
1 
1 
1 
1 
1 
1 
1 
1 
1 
1 
1 
1 
1 
1 
1 
1 
1 
1 
1 
1 
1 
1 
1 
1 
1 
1 
1 
1 
1 
1 
1 
1 
1 
1 
1 
1 
1 
1 
1 
1 
1 
1 
1 
1 
1 
1 
1 
1 
1 
1 
1 
1 
1 
1 
1 
1 
1 
1 
1 
1 
1 
1 
1 
1 
1 
1 
1 
1 
1 
1 
1 
1 
1 
1 
1 
1 
1 
1 
1 
1 
1 
1 
1 
1 
1 
1 
1 
1 
1 
1 
1 
1 
1 
1 
1 
1 
1 
1 
1 
1 
1 
1 
1 
1 
1 
1 
1 
1 
1 
1 
1 
1 
1 
1 
1 
1 
1 
1 
1 
1 
1 
1 
1 
1 
1 
1 
1 
1 
1 
1 
1 
1 
1 
1 
1 
1 
1 
1 
1 
1 
1 
1 
1 
1 
1 
1 
1 
1 
1 
1 
1 
1 
1 
1 
1 
1 
1 
1 
1 
1 
1 
1 
1 
1 
1 
1 
1 
1 
1 
1 
1 
1 
1 
1 
1 
1 
1 
1 
1 
1 
1 
1 
1 
1 
1 
1 
1 
1 
1 
1 
1 
1 
1 
1 
1 
1 
1 
1 
1 
1 
1 
1 
1 
1 
1 
1 
1 
1 
1 
1 
1 
1 
1 
1 
1 
1 
1 
1 
1 
1 
1 
1 
1 
1 
1 
1 
1 
1 
1 
1 
1 
1 
1 
1 
1 
1 
1 
1 
1 
1 
1 
1 
1 
1 
1 
1 
1 
1 
1 
1 
1 
1 
1 
1 
1 
1 
1 
1 
1 
1 
1 
1 
1 
1 
1 
1 
1 
1 
1 
1 
1 
1 
1 
1 
1 
1 
1 
1 
1 
1 
1 
1 
1 
1 
1 
1 
1 
1 
1 
1 
1 
1 
1 
1 
1 
1 
1 
1 
1 
1 
1 
1 
1 
1 
1 
1 
1 
1 
1 
1 
1 
1 
1 
1 
1 
1 
1 
1 
1 
1 
1 
1 
1 
1 
1 
1 
1 
1 
1 
1 
1 
1 
1 
1 
1 
1 
1 
1 
1 
1 
1 
1 
1 
1 
1 
1 
1 
1 
1 
1 
1 
1 
1 
1 
1 
1 
1 
1 
1 
1 
1 
1 
1 
1 
1 
1 
1 
1 
1 
1 
1 
1 
1 
1 
1 
1 
1 
1 
1 
1 
1 
1 
1 
1 
1 
1 
1 
1 
1 
1 
1 
1 
1 
1 
1 
1 
1 
1 
1 
1 
1 
1 
1 
1 
1 
1 
1 
1 
1 
1 
1 
1 
1 
1 
1 
1 
1 
1 
1 
1 
1 
1 
1 
1 
1 
1 
1 
1 
1 
1 
1 
1 
1 
1 
1 
1 
1 
1 
1 
1 
1 
1 
1 
1 
1 
1 
1 
1 
1 
1 
1 
1 
1 
1 
1 
1 
1 
1 
1 
1 
1 
1 
1 
1 
1 
1 
1 
1 
1 
1 
1 
1 
1 
1 
1 
1 
1 
1 
1 
1 
1 
1 
1 
1 
1 
1 
1 
1 
1 
1 
1 
1 
1 
1 
1 
1 
1 
1 
1 
1 
1 
1 
1 
1 
1 
1 
1 
1 
1 
1 
1 
1 
1 
1 
1 
1 
1 
1 
1 
1 
1 
1 
1 
1 
1 
1 
1 
1 
1 
1 
1 
1 
1 
1 
1 
1 
1 
1 
1 
1 
1 
1 
1 
1 
1 
1 
1 
1 
1 
1 
1 
1 
1 
1 
1 
1 
1 
1 
1 
1 
1 
1 
1 
1 
1 
1 
1 
1 
1 
1 
1 
1 
1 
1 
1 
1 
1 
1 
1 
1 
1 
1 
1 
1 
1 
1 
1 
1 
1 
1 
1 
1 
1 
1 
1 
1 
1 
1 
1 
1 
1 
1 
1 
1 
1 
1 
1 
1 
1 
1 
1 
1 
1 
1 
1 
1 
1 
1 
1 
1 
1 
1 
1 
1 
1 
1 
1 
1 
1 
1 
1 
1 
1 
1 
1 
1 
1 
1 
1 
1 
1 
1 
1 
1 
1 
1 
1 
1 
1 
1 
1 
1 
1 
1 
1 
1 
1 
1 
1 
1 
1 
1 
1 
1 
1 
1 
1 
1 
1 
1 
1 
1 
1 
1 
1 
1 
1 
1 
1 
1 
1 
1 
1 
1 
1 
1 
1 
1 
1 
1 
1 
1 
1 
1 
1 
1 
1 
1 
1 
1 
1 
1 
1 
1 
1 
1 
1 
1 
1 
1 
1 
1 
1 
1 
1 
1 
1 
1 
1 
1 
1 
1 
1 
1 
1 
1 
1 
1 
1 
1 
1 
1 
1 
1 
1 
1 
1 
1 
1 
1 
1 
1 
1 
1 
1 
1 
1 
1 
1 
1 
1 
1 
1 
1 
1 
1 
1 
1 
1 
1 
1 
1 
1 
1 
1 
1 
1 
1 
1 
1 
1 
1 
1 
1 
1 
1 
1 
1 
1 
1 
1 
1 
1 
1 
1 
1 
1 
1 
1 
1 
1 
1 
1 
1 
1 
1 
1 
1 
1 
1 
1 
1 
1 
1 
1 
1 
1 
1 
1 
1 
1 
1 
1 
1 
1 
1 
1 
1 
1 
1 
1 
1 
1 
1 
1 
1 
1 
1 
1 
1 
1 
1 
1 
1 
1 
1 
1 
1 
1 
1 
1 
1 
1 
1 
1 
1 
1 
1 
1 
1 
1 
1 
1 
1 
1 
1 
1 
1 
1 
1 
1 
1 
1 
1 
1 
1 
1 
1 
1 
1 
1 
1 
1 
1 
1 
1 
1 
1 
1 
1 
1 
1 
1 
1 
1 
1 
1 
1 
1 
1 
1 
1 
1 
1 
1 
1 
1 
1 
1 
1 
1 
1 
1 
1 
1 
1 
1 
1 
1 
1 
1 
1 
1 
1 
1 
1 
1 
1 
1 
1 
1 
1 
1 
1 
1 
1 
1 
1 
1 
1 
1 
1 
1 
1 
1 
1 
1 
1 
1 
1 
1 
1 
1 
1 
1 
1 
1 
1 
1 
1 
1 
1 
1 
1 
1 
1 
1 
1 
1 
1 
1 
1 
1 
1 
1 
1 
1 
1 
1 
1 
1 
1 
1 
1 
1 
1 
1 
1 
1 
1 
1 
1 
1 
1 
1 
1 
1 
1 
1 
1 
1 
1 
1 
1 
1 
1 
1 
1 
1 
1 
1 
1 
1 
1 
1 
1 
1 
1 
1 
1 
1 
1 
1 
1 
1 
1 
1 
1 
1 
1 
1 
1 
1 
1 
1 
1 
1 
1 
1 
1 
1 
1 
1 
1 
1 
1 
1 
1 
1 
1 
1 
1 
1 
1 
1 
1 
1 
1 
1 
1 
1 
1 
1 
1 
1 
1 
1 
1 
1 
1 
1 
1 
1 
1 
1 
1 
1 
1 
1 
1 
1 
1 
1 
1 
1 
1 
1 
1 
1 
1 
1 
1 
1 
1 
1 
1 
1 
1 
1 
1 
1 
1 
1 
1 
1 
1 
1 
1 
1 
1 
1 
1 
1 
1 
1 
1 
1 
1 
1 
1 
1 
1 
1 
1 
1 
1 
1 
1 
1 
1 
1 
1 
1 
1 
1 
1 
1 
1 
1 
1 
1 
1 
1 
1 
1 
1 
1 
1 
1 
1 
1 
1 
1 
1 
1 
1 
1 
1 
1 
1 
1 
1 
1 
1 
1 
1 
1 
1 
1 
1 
1 
1 
1 
1 
1 
1 
1 
1 
1 
1 
1 
1 
1 
1 
1 
1 
1 
1 
1 
1 
1 
1 
1 
1 
1 
1 
1 
1 
1 
1 
1 
1 
1 
1 
1 
1 
1 
1 
1 
1 
1 
1 
1 
1 
1 
1 
1 
1 
1 
1 
1 
1 
1 
1 
1 
1 
1 
1 
1 
1 
1 
1 
1 
1 
1 
1 
1 
1 
1 
1 
1 
1 
1 
1 
1 
1 
1 
1 
1 
1 
1 
1 
1 
1 
1 
1 
1 
1 
1 
1 
1 
1 
1 
1 
1 
1 
1 
1 
1 
1 
1 
1 
1 
1 
1 
1 
1 
1 
1 
1 
1 
1 
1 
1 
1 
1 
1 
1 
1 
1 
1 
1 
1 
1 
1 
1 
1 
1 
1 
1 
1 
1 
1 
1 
1 
1 
1 
1 
1 
1 
1 
1 
1 
1 
1 
1 
1 
1 
1 
1 
1 
1 
1 
1 
1 
1 
1 
1 
1 
1 
1 
1 
1 
1 
1 
1 
1 
1 
1 
1 
1 
1 
1 
1 
1 
1 
1 
1 
1 
1 
1 
1 
1 
1 
1 
1 
1 
1 
1 
1 
1 
1 
1 
1 
1 
1 
1 
1 
1 
1 
1 
1 
1 
1 
1 
1 
1 
1 
1 
1 
1 
1 
1 
1 
1 
1 
1 
1 
1 
1 
1 
1 
1 
1 
1 
1 
1 
1 
1 
1 
1 
1 
1 
1 
1 
1 
1 
1 
1 
1 
1 
1 
1 
1 
1 
1 
1 
1 
1 
1 
1 
1 
1 
1 
1 
1 
1 
1 
1 
1 
1 
1 
1 
1 
1 
1 
1 
1 
1 
1 
1 
1 
1 
1 
1 
1 
1 
1 
1 
1 
1 
1 
1 
1 
1 
1 
1 
1 
1 
1 
1 
1 
1 
1 
1 
1 
1 
1 
1 
1 
1 
1 
1 
1 
1 
1 
1 
1 
1 
1 
1 
1 
1 
1 
1 
1 
1 
1 
1 
1 
1 
1 
1 
1 
1 
1 
1 
1 
1 
1 
1 
1 
1 
1 
1 
1 
1 
1 
1 
1 
1 
1 
1 
1 
1 
1 
1 
1 
1 
1 
1 
1 
1 
1 
1 
1 
1 
1 
1 
1 
1 
1 
1 
1 
1 
1 
1 
1 
1 
1 
1 
1 
1 
1 
1 
1 
1 
1 
1 
1 
1 
1 
1 
1 
1 
1 
1 
1 
1 
1 
1 
1 
1 
1 
1 
1 
1 
1 
1 
1 
1 
1 
1 
1 
1 
1 
1 
1 
1 
1 
1 
1 
1 
1 
1 
1 
1 
1 
1 
1 
1 
1 
1 
1 
1 
1 
1 
1 
1 
1 
1 
1 
1 
1 
1 
1 
1 
1 
1 
1 
1 
1 
1 
1 
1 
1 
1 
1 
1 
1 
1 
1 
1 
1 
1 
1 
1 
1 
1 
1 
1 
1 
1 
1 
1 
1 
1 
1 
1 
1 
1 
1 
1 
1 
1 
1 
1 
1 
1 
1 
1 
1 
1 
1 
1 
1 
1 
1 
1 
1 
1 
1 
1 
1 
1 
1 
1 
1 
1 
1 
1 
1 
1 
1 
1 
1 
1 
1 
1 
1 
1 
1 
1 
1 
1 
1 
1 
1 
1 
1 
1 
1 
1 
1 
1 
1 
1 
1 
1 
1 
1 
1 
1 
1 
1 
1 
1 
1 
1 
1 
1 
1 
1 
1 
1 
1 
1 
1 
1 
1 
1 
1 
1 
1 
1 
1 
1 
1 
1 
1 
1 
1 
1 
1 
1 
1 
1 
1 
1 
1 
1 
1 
1 
1 
1 
1 
1 
1 
1 
1 
1 
1 
1 
1 
1 
1 
1 
1 
1 
1 
1 
1 
1 
1 
1 
1 
1 
1 
1 
1 
1 
1 
1 
1 
1 
1 
1 
1 
1 
1 
1 
1 
1 
1 
1 
1 
1 
1 
1 
1 
1 
1 
1 
1 
1 
1 
1 
1 
1 
1 
1 
1 
1 
1 
1 
1 
1 
1 
1 
1 
1 
1 
1 
1 
1 
1 
1 
1 
1 
1 
1 
1 
1 
1 
1 
1 
1 
1 
1 
1 
1 
1 
1 
1 
1 
1 
1 
1 
1 
1 
1 
1 
1 
1 
1 
1 
1 
1 
1 
1 
1 
1 
1 
1 
1 
1 
1 
1 
1 
1 
1 
1 
1 
1 
1 
1 
1 
1 
1 
1 
1 
1 
1 
1 
1 
1 
1 
1 
1 
1 
1 
1 
1 
1 
1 
1 
1 
1 
1 
1 
1 
1 
1 
1 
1 
1 
1 
1 
1 
1 
1 
1 
1 
1 
1 
1 
1 
1 
1 
1 
1 
1 
1 
1 
1 
1 
1 
1 
1 
1 
1 
1 
1 
1 
1 
1 
1 
1 
1 
1 
1 
1 
1 
1 
1 
1 
1 
1 
1 
1 
1 
1 
1 
1 
1 
1 
1 
1 
1 
1 
1 
1 
1 
1 
1 
1 
1 
1 
1 
1 
1 
1 
1 
1 
1 
1 
1 
1 
1 
1 
1 
1 
1 
1 
1 
1 
1 
1 
1 
1 
1 
1 
1 
1 
1 
1 
1 
1 
1 
1 
1 
1 
1 
1 
1 
1 
1 
1 
1 
1 
1 
1 
1 
1 
1 
1 
1 
1 
1 
1 
1 
1 
1 
1 
1 
1 
1 
1 
1 
1 
1 
1 
1 
1 
1 
1 
1 
1 
1 
1 
1 
1 
1 
1 
1 
1 
1 
1 
1 
1 
1 
1 
1 
1 
1 
1 
1 
1 
1 
1 
1 
1 
1 
1 
1 
1 
1 
1 
1 
1 
1 
1 
1 
1 
1 
1 
1 
1 
1 
1 
1 
1 
1 
1 
1 
1 
1 
1 
1 
1 
1 
1 
1 
1 
1 
1 
1 
1 
1 
1 
1 
1 
1 
1 
1 
1 
1 
1 
1 
1 
1 
1 
1 
1 
1 
1 
1 
1 
1 
1 
1 
1 
1 
1 
1 
1 
1 
1 
1 
1 
1 
1 
1 
1 
1 
1 
1 
1 
1 
1 
1 
1 
1 
1 
1 
1 
1 
1 
1 
1 
1 
1 
1 
1 
1 
1 
1 
1 
1 
1 
1 
1 
1 
1 
1 
1 
1 
1 
1 
1 
1 
1 
1 
1 
1 
1 
1 
1 
1 
1 
1 
1 
1 
1 
1 
1 
1 
1 
1 
1 
1 
1 
1 
1 
1 
1 
1 
1 
1 
1 
1 
1 
1 
1 
1 
1 
1 
1 
1 
1 
1 
1 
1 
1 
1 
1 
1 
1 
1 
1 
1 
1 
1 
1 
1 
1 
1 
1 
1 
1 
1 
1 
1 
1 
1 
1 
1 
1 
1 
1 
1 
1 
1 
1 
1 
1 
1 
1 
1 
1 
1 
1 
1 
1 
1 
1 
1 
1 
1 
1 
1 
1 
1 
1 
1 
1 
1 
1 
1 
1 
1 
1 
1 
1 
1 
1 
1 
1 
1 
1 
1 
1 
1 
1 
1 
1 
1 
1 
1 
1 
1 
1 
1 
1 
1 
1 
1 
1 
1 
1 
1 
1 
1 
1 
1 
1 
1 
1 
1 
1 
1 
1 
1 
1 
1 
1 
1 
1 
1 
1 
1 
1 
1 
1 
1 
1 
1 
1 
1 
1 
1 
1 
1 
1 
1 
1 
1 
1 
1 
1 
1 
1 
1 
1 
1 
1 
1 
1 
1 
1 
1 
1 
1 
1 
1 
1 
1 
1 
1 
1 
1 
1 
1 
1 
1 
1 
1 
1 
1 
1 
1 
1 
1 
1 
1 
1 
1 
1 
1 
1 
1 
1 
1 
1 
1 
1 
1 
1 
1 
1 
1 
1 
1 
1 
1 
1 
1 
1 
1 
1 
1 
1 
1 
1 
1 
1 
1 
1 
1 
1 
1 
1 
1 
1 
1 
1 
1 
1 
1 
1 
1 
1 
1 
1 
1 
1 
1 
1 
1 
1 
1 
1 
1 
1 
1 
1 
1 
1 
1 
1 
1 
1 
1 
1 
1 
1 
1 
1 
1 
1 
1 
1 
1 
1 
1 
1 
1 
1 
1 
1 
1 
1 
1 
1 
1 
1 
1 
1 
1 
1 
1 
1 
1 
1 
1 
1 
1 
1 
1 
1 
1 
1 
1 
1 
1 
1 
1 
1 
1 
1 
1 
1 
1 
1 
1 
1 
1 
1 
1 
1 
1 
1 
1 
1 
1 
1 
1 
1 
1 
1 
1 
1 
1 
1 
1 
1 
POINT_DATA 5000
VECTORS Stress float
251.63 -837.206 0.
364.176 -840.365 0.
342.392 -891.252 0.
-385.962 -1213.47 0.
-315.745 -1050.19 0.
-245.528 -886.911 0.
275.826 -731.621 0.
94.549 -1154.98 0.
-86.7281 -1578.33 0.
-573.246 -1747.39 0.
-441.418 -1439.74 0.
-309.591 -1132.1 0.
-224.926 -1183.9 0.
-296.675 -1351.29 0.
-577.686 -1564.01 0.
-412.528 -1178.83 0.
-247.37 -793.654 0.
175.246 -540.967 0.
-58.7467 -1087.53 0.
-292.739 -1634.09 0.
-115.126 -1590.43 0.
50.9985 -1202.82 0.
217.123 -815.201 0.
-14.5023 -831.13 0.
-7.92577 -815.746 0.
127.119 -745.311 0.
-911.487 -1050.63 0.
-837.119 -876.685 0.
57.4866 -453.864 0.
-125.916 -882.295 0.
-309.319 -1310.73 0.
-1149.1 -1725.41 0.
-977.196 -1323.63 0.
-805.291 -921.855 0.
-215.904 -820.829 0.
-427.796 -1314.97 0.
-639.689 -1809.12 0.
-1250.26 -2020.52 0.
-1191.91 -1884.36 0.
-1135.67 -1708.74 0.
-864.303 -1075.64 0.
-592.941 -442.55 0.
-1728.37 -493.756 0.
-1593.39 -177.656 0.
-1458.41 138.445 0.
-2821.26 -841.678 0.
-3318.1 -2000.54 0.
-3814.93 -3159.4 0.
10948.1 3951.12 0.
11640.2 5566.97 0.
-73384.7 -29553.8 0.
10098.5 4973.05 0.
9441.99 3440.18 0.
-2563.03 -2519.33 0.
-2246.64 -1781.35 0.
-1930.26 -1043.36 0.
-1177.1 -441.267 0.
-1235.32 -576.936 0.
-1293.54 -712.604 0.
-1356.96 -676.018 0.
-1279.1 -494.166 0.
-1201.24 -312.313 0.
-842.052 -495.643 0.
-1045.82 -970.853 0.
-559.977 -1134.13 0.
-705.424 -1473.44 0.
-850.871 -1812.76 0.
-39.4332 -1563.47 0.
87.3904 -1267.75 0.
214.214 -972.032 0.
-559.557 -1161.93 0.
-525.106 -1081.45 0.
-490.655 -1000.96 0.
-400.884 -656.579 0.
-207.606 -205.66 0.
170.601 303.469 0.
-103.455 -404.887 0.
-413.516 -1128.66 0.
-279.352 -1532.24 0.
-312.781 -1610.09 0.
-346.21 -1687.94 0.
318.712 -1400.67 0.
361.501 -1300.32 0.
404.289 -1199.96 0.
-215.091 -1261.9 0.
-85.1013 -957.742 0.
44.8886 -653.581 0.
-545.579 -1166.67 0.
-704.222 -1537.57 0.
19.346 -1449.22 0.
165.408 -1107.96 0.
311.47 -766.697 0.
-220.213 -838.262 0.
-248.295 -904.555 0.
-276.377 -970.848 0.
30.2549 -781.47 0.
103.081 -611.817 0.
175.907 -442.165 0.
-741.846 -898.26 0.
-801.82 -1036.94 0.
216.763 -821.975 0.
420.875 -786.699 0.
398.992 -837.934 0.
-422.557 -1196.43 0.
-352.081 -1033.66 0.
-281.605 -870.898 0.
94.2572 -777.917 0.
-86.712 -1201.3 0.
-267.681 -1624.69 0.
-371.335 -1629.86 0.
-239.537 -1322.19 0.
-107.74 -1014.51 0.
-276.691 -1174.63 0.
-348.46 -1342.02 0.
-570.818 -1530.43 0.
-405.486 -1145.23 0.
-240.154 -760.018 0.
99.8732 -541.737 0.
-133.759 -1088.62 0.
-367.392 -1635.49 0.
207.754 -1421.01 0.
373.939 -1033.28 0.
540.123 -645.542 0.
-336.474 -937.595 0.
-330.002 -922.377 0.
-654.227 -1048.89 0.
-685.557 -922.153 0.
-611.52 -748.15 0.
-330.551 -589.236 0.
-513.572 -1017.76 0.
-696.594 -1446.28 0.
-770.24 -1532.18 0.
-598.667 -1129.84 0.
-427.095 -727.499 0.
-431.635 -882.72 0.
-643.649 -1376.61 0.
-855.664 -1870.49 0.
-643.084 -1729.51 0.
-584.672 -1593.18 0.
-1111.26 -1665.96 0.
-839.808 -1032.81 0.
-568.351 -399.666 0.
-1696.2 -450.175 0.
-1561.77 -133.058 0.
-1427.34 184.06 0.
-1416.17 -211.568 0.
-1913.81 -1371.47 0.
-2411.44 -2531.37 0.
9129.99 3205.49 0.
9820.61 4819.6 0.
-60985.1 -24208.2 0.
8631.7 4376.48 0.
7976.51 2844.73 0.
-1618.11 -2083.27 0.
-1301.41 -1345.04 0.
-984.7 -606.802 0.
-943.361 -310.03 0.
-1001.72 -445.643 0.
-1060.07 -581.257 0.
-1007.96 -495.683 0.
-930.16 -313.611 0.
-852.363 -131.539 0.
-1235.11 -632.728 0.
-1438.98 -1107.64 0.
-245.063 -968.169 0.
-390.558 -1307.47 0.
-536.052 -1646.77 0.
211.482 -1424.29 0.
338.474 -1128.58 0.
465.465 -832.881 0.
-337.22 -1035.32 0.
-302.845 -954.806 0.
-268.47 -874.288 0.
-725.762 -764.917 0.
-532.507 -314.179 0.
-428.809 79.0317 0.
-627.74 -597.24 0.
-937.549 -1321.03 0.
532.201 -1153.23 0.
498.648 -1231.07 0.
465.095 -1308.91 0.
274.873 -1388.29 0.
317.341 -1287.66 0.
359.809 -1187.03 0.
-437.696 -1326.81 0.
-308.327 -1022.4 0.
-178.96 -717.987 0.
-363.489 -1057.79 0.
-521.761 -1429.31 0.
-431.215 -1612.03 0.
-285.515 -1270.71 0.
-139.816 -929.387 0.
94.5449 -671.67 0.
66.8164 -738.674 0.
39.0879 -805.678 0.
-23.9728 -772.979 0.
49.035 -603.453 0.
122.043 -433.928 0.
-79.471 -582.26 0.
-140.06 -719.863 0.
-151.734 -1584.03 0.
420.878 -862.864 0.
523.855 -620.232 0.
-779.05 -1933.18 0.
-483.012 -1241.67 0.
-772.88 -1917.26 0.
-1482.32 -4085.48 0.
-1214.36 -3460.97 0.
-2710.54 -6952.77 0.
-3630.83 -9588.03 0.
-1949.68 -5666.32 0.
-2132.94 -6094.89 0.
-2247.3 -5643.7 0.
-2235.51 -5612.95 0.
-3731.16 -8895.96 0.
-1478.29 -3636.32 0.
-1820.14 -4431.08 0.
-1615.7 -4380.26 0.
-1766.85 -4732.16 0.
-4350.67 -10760.3 0.
-9728.5 -25189.3 0.
-3144.43 -9825.1 0.
-2504.96 -8331.6 0.
-3010.26 -6533.66 0.
-2318.31 -4919.17 0.
-3177.82 -6981.03 0.
-2020.35 -4430.08 0.
-1907.54 -4166.08 0.
-1900.51 -3497.51 0.
-1923.05 -3547.38 0.
-3247.6 -6635.25 0.
-5170.28 -12487.3 0.
-2610.09 -6516.81 0.
-2484.91 -6228.02 0.
-3086.25 -6630.72 0.
-3798.78 -8296.26 0.
-7852.3 -17757.5 0.
-7888.47 -19762.1 0.
-5489.93 -14166 0.
-6057.1 -13227 0.
-3982.24 -8386.57 0.
-3991.37 -8408.77 0.
-3868.75 -5547.56 0.
-2839.57 -3148.75 0.
-2980.65 -3480.55 0.
-1933.92 -4064.97 0.
-2235.7 -4768.38 0.
-7049.3 -15999.4 0.
5466.65 -1847.95 0.
5550.63 -1649.37 0.
-50964.3 -28996.5 0.
4479.92 -2483.62 0.
4111.47 -3345.15 0.
-6518.62 -15291.6 0.
-2564.34 -6063.38 0.
-3338.13 -7867.35 0.
-3688.26 -7128.98 0.
-3049.57 -5638.47 0.
-4071.39 -8022.44 0.
-3654.92 -7311.57 0.
-2525.67 -4677.73 0.
-2713.5 -5117.05 0.
-3017.08 -4009.28 0.
-2971.19 -3903.78 0.
-2644.22 -7132.71 0.
-2835.97 -7580.72 0.
-5374.47 -13504.4 0.
-9965.42 -25618.4 0.
-3271.75 -9998.82 0.
-3033.16 -9441.06 0.
-3292.16 -8321.65 0.
-2834.51 -7254.76 0.
-4558.09 -11277.4 0.
-2368.15 -3947.78 0.
-1976.36 -3032.41 0.
-2741.69 -4291.19 0.
-2068.61 -2935.99 0.
-2988.07 -5079.1 0.
-6590.06 -19285.1 0.
-5232.11 -16116.1 0.
-8779.3 -24392.5 0.
-8138.3 -20903.5 0.
-4517.23 -12454.3 0.
-4343.57 -12049.1 0.
-1960.15 -4424.34 0.
-951.125 -2072.53 0.
-1673.96 -3761.73 0.
-1283.84 -3515.12 0.
-1421.14 -3835.35 0.
-2932.62 -6568.69 0.
-1230.26 -2595.35 0.
-1182.85 -2483.92 0.
-459.015 -2530.93 0.
-284.729 -2124.81 0.
-1015.28 -3829.97 0.
-892.993 -2670.87 0.
-234.325 -1132.67 0.
-88.1103 -790.343 0.
111.524 -1365.2 0.
-789.272 -3469.26 0.
239.786 -119.202 0.
532.729 44.8036 0.
530.51 41.4894 0.
96.1607 -131.249 0.
144.173 -16.8402 0.
192.186 97.5688 0.
479.939 542.373 0.
811.239 1315.21 0.
1142.54 2088.05 0.
1250.67 2157.99 0.
1092.39 1787.42 0.
934.106 1416.85 0.
965.322 1679.09 0.
1135.93 2079.69 0.
1180.08 2346.63 0.
910.038 1719.51 0.
639.994 1092.39 0.
791.493 1223.06 0.
1467.53 2800.97 0.
2143.56 4378.89 0.
2726.25 4844.79 0.
2364.68 4000.52 0.
2003.11 3156.26 0.
900.636 2340.14 0.
774.016 2044.24 0.
1197.31 1983.95 0.
687.36 1550.1 0.
576.17 1290.71 0.
338.291 1164.62 0.
687.084 1981.51 0.
1035.88 2798.4 0.
1455.63 3220.64 0.
1300.98 2858.32 0.
1146.34 2496.01 0.
1237.12 3119.75 0.
1787.31 4401.81 0.
2337.51 5683.86 0.
2749.92 5827.9 0.
2655.37 5607.74 0.
1972.67 5064.51 0.
1542.6 4061.18 0.
1112.53 3057.85 0.
177.152 1916.29 0.
-133.837 1189.38 0.
-444.825 462.48 0.
658.171 1028.79 0.
1005.04 1838.06 0.
1351.91 2647.33 0.
7076.03 5067.6 0.
6951.47 4778.05 0.
-13920.2 -4402.59 0.
6383.29 4598.59 0.
6541.34 4965.86 0.
1563.8 3023.5 0.
1466.82 2797.87 0.
1369.83 2572.24 0.
763.702 2234.73 0.
787.626 2290.81 0.
811.55 2346.89 0.
569.633 2033.35 0.
397.688 1631.44 0.
225.744 1229.52 0.
-115.319 1457.71 0.
121.579 2008.37 0.
1543.03 3098.31 0.
1918.03 3972.47 0.
2293.03 4846.63 0.
2884.87 5368.8 0.
2583.6 4665.59 0.
2282.33 3962.38 0.
1572.81 3350.44 0.
1516.74 3218.01 0.
1460.66 3085.58 0.
923.028 2291.29 0.
564.348 1457.35 0.
84.0685 605.765 0.
613.549 2002.85 0.
1226.63 3435.76 0.
3023.57 5162.87 0.
3173.29 5512.33 0.
3323.01 5861.79 0.
2848.4 5531.67 0.
2527.37 4782.01 0.
2206.33 4032.35 0.
1448.54 2952.97 0.
1023.53 1959.03 0.
598.514 965.096 0.
779.247 1200.33 0.
907.757 1501.06 0.
739.865 1568.28 0.
475.581 952.226 0.
211.297 336.171 0.
684.099 279.222 0.
764.442 466.785 0.
844.784 654.348 0.
439.119 416.54 0.
327.765 158.199 0.
216.411 -100.142 0.
539.973 122.585 0.
620.392 309.833 0.
-32.6328 -203.685 0.
209.937 -61.6542 0.
207.817 -65.22 0.
238.738 -38.8078 0.
286.131 75.7658 0.
333.524 190.34 0.
470.633 569.915 0.
801.757 1342.88 0.
1132.88 2115.84 0.
1080.23 2116.18 0.
922.109 1745.7 0.
763.985 1375.21 0.
1072.92 1756.82 0.
1243.8 2157.32 0.
1310.03 2432.86 0.
1039.96 1805.73 0.
769.885 1178.61 0.
815.095 1264.69 0.
1491.2 2842.48 0.
2167.3 4420.26 0.
2232.76 4666.35 0.
1871.9 3821.73 0.
1511.04 2977.1 0.
1049.36 2435.54 0.
922.793 2139.38 0.
1492.18 2141.4 0.
881.67 1665.68 0.
770.63 1405.9 0.
649.679 1329.48 0.
998.417 2146.53 0.
1347.15 2963.58 0.
1342.02 3203.02 0.
1186.87 2841.35 0.
1031.71 2479.68 0.
1430.19 3232.85 0.
1980.04 4515.34 0.
2529.89 5797.84 0.
2364.09 5694.68 0.
2269.22 5474.8 0.
2222.5 5202.83 0.
1792.15 4199.93 0.
1361.8 3197.02 0.
1230.88 2398.39 0.
919.355 1671.59 0.
607.833 944.794 0.
1174.31 1278.67 0.
1521.51 2087.87 0.
1868.71 2897.08 0.
5433.71 4395.88 0.
5309.61 4105.87 0.
-2892.38 355.064 0.
5013.01 4042.3 0.
5170.95 4409.61 0.
1866.14 3185.09 0.
1769.44 2959.22 0.
1672.74 2733.35 0.
1317.62 2502.99 0.
1341.48 2558.93 0.
1365.33 2614.88 0.
855.429 2187.83 0.
683.391 1786.04 0.
511.353 1384.25 0.
586.277 1790.98 0.
823.5 2341.88 0.
1317.45 3032.71 0.
1692.48 3906.7 0.
2067.51 4780.69 0.
2374.97 5182.24 0.
2074.12 4478.72 0.
1773.27 3775.2 0.
1421.9 3318.79 0.
1365.95 3186.02 0.
1310 3053.25 0.
1696.82 2656.44 0.
1337.34 1822.45 0.
764.972 927.279 0.
1322.31 2337.08 0.
1935.77 3770.93 0.
1981.73 4748.08 0.
2131.66 5097.7 0.
2281.59 5447.33 0.
2445.61 5391.38 0.
2124.84 4641.74 0.
1804.07 3892.11 0.
1767.38 3120.64 0.
1342.17 2126.59 0.
916.96 1132.53 0.
847.277 1260.64 0.
975.468 1561.44 0.
982.649 1702.27 0.
718.331 1085.95 0.
454.013 469.634 0.
626.621 288.015 0.
706.799 475.795 0.
786.977 663.574 0.
466.325 459.246 0.
354.901 200.92 0.
243.476 -57.4051 0.
300.92 53.052 0.
380.956 241.176 0.
-216.762 -643.424 0.
-176.983 -687.74 0.
-194.845 -733.554 0.
35.299 -660.933 0.
54.5719 -618.53 0.
73.8451 -576.127 0.
-151.944 -786.875 0.
-314.906 -1169.37 0.
-477.868 -1551.87 0.
-542.974 -1564.87 0.
-436.722 -1317.36 0.
-330.469 -1069.85 0.
-93.5371 -992.911 0.
-125.558 -1069.14 0.
-242.072 -1163.69 0.
-171.879 -998.7 0.
-101.687 -833.705 0.
-58.6735 -884.479 0.
-325.745 -1502.4 0.
-592.815 -2120.33 0.
-886.481 -2311.17 0.
-720.954 -1926.36 0.
-555.427 -1541.55 0.
-480.89 -1331.9 0.
-407.063 -1162.9 0.
182.639 -772.707 0.
-112.1 -783.369 0.
-50.3559 -638.502 0.
-150.452 -637.653 0.
-269.882 -918.193 0.
-389.312 -1198.73 0.
-564.816 -1273.94 0.
-404.202 -907.405 0.
-243.586 -540.864 0.
-188.095 -755.537 0.
-458.213 -1389.86 0.
-728.331 -2024.19 0.
-962.62 -2042.16 0.
-874.526 -1842.18 0.
-462.98 -1512.39 0.
-421.551 -1419.1 0.
-380.123 -1325.82 0.
221.405 -989.021 0.
265.497 -886.856 0.
309.589 -784.692 0.
555.801 -541.842 0.
650.363 -324.93 0.
744.923 -108.019 0.
2635.08 80.0707 0.
2192.41 -952.741 0.
-2021.27 -3602.64 0.
1952.71 -1090.08 0.
2379.53 -97.6553 0.
540.188 -320.533 0.
398.158 -642.085 0.
256.13 -963.636 0.
-51.1398 -1205.57 0.
-11.1548 -1115.35 0.
28.83 -1025.13 0.
-339.545 -1023.91 0.
-237.266 -782.664 0.
-134.986 -541.421 0.
-81.5624 -563.15 0.
-120.02 -652.35 0.
-367.513 -859.9 0.
-532.171 -1243.33 0.
-696.83 -1626.76 0.
-778.081 -1838.16 0.
-731.646 -1728.19 0.
-685.21 -1618.21 0.
-718.586 -1644.25 0.
-764.071 -1747.52 0.
-809.555 -1850.79 0.
223.175 -1207.85 0.
370.23 -871.412 0.
256.383 -653.587 0.
88.4029 -970.794 0.
-41.3137 -1271.6 0.
-1135.76 -1930.11 0.
-1147.37 -1955.01 0.
-1158.99 -1979.91 0.
-652.649 -1726.58 0.
-600.739 -1605.38 0.
-548.829 -1484.17 0.
-22.9863 -1204.84 0.
-4.45396 -1163.76 0.
14.0778 -1122.68 0.
-152.44 -1119.5 0.
-111.968 -1021.55 0.
-81.5506 -921.992 0.
-30.3094 -800.328 0.
20.9316 -678.665 0.
152.433 -620.048 0.
65.2757 -816.934 0.
-21.881 -1013.82 0.
-220.307 -1115.87 0.
-178.873 -1019.88 0.
-137.438 -923.88 0.
-171.81 -798.275 0.
-88.0258 -603.516 0.
83.0907 -486.421 0.
-111.524 -628.702 0.
-130.178 -673.754 0.
87.7964 -609.047 0.
107.299 -567.059 0.
126.802 -525.071 0.
-217.067 -782.358 0.
-380.297 -1165.14 0.
-543.528 -1547.92 0.
-454.168 -1495.99 0.
-347.822 -1248.71 0.
-241.477 -1001.43 0.
-147.636 -986.198 0.
-179.806 -1062.52 0.
-359.602 -1182.73 0.
-289.644 -1017.76 0.
-219.686 -852.793 0.
53.411 -805.138 0.
-213.171 -1423.82 0.
-479.753 -2042.51 0.
-688.749 -2195.15 0.
-523.226 -1810.2 0.
-357.703 -1425.26 0.
-390.9 -1263.22 0.
-316.89 -1094.36 0.
-767.855 -1150.52 0.
-145.731 -766.712 0.
-84.283 -622.181 0.
-308.196 -674.677 0.
-428.27 -954.716 0.
-548.345 -1234.75 0.
-387.065 -1167.51 0.
-227.134 -800.361 0.
-67.2025 -433.215 0.
-127.276 -700.144 0.
-397.099 -1334.51 0.
-666.921 -1968.89 0.
-587.815 -1851.18 0.
-499.774 -1650.98 0.
-197.371 -1367.54 0.
-155.674 -1274.71 0.
-113.977 -1181.89 0.
273.276 -935.435 0.
317.401 -833.493 0.
361.526 -731.55 0.
463.578 -553.663 0.
558.069 -336.992 0.
652.559 -120.321 0.
1940.77 -186.19 0.
1498.88 -1218.77 0.
-2122.05 -3616.03 0.
1244.97 -1363.81 0.
1671.57 -371.96 0.
677.06 -229.224 0.
535.561 -551.131 0.
394.064 -873.038 0.
-25.6484 -1164.97 0.
13.9885 -1074.49 0.
53.6253 -984.016 0.
-144.829 -910.767 0.
-42.6871 -669.332 0.
59.4552 -427.898 0.
82.5943 -461.41 0.
44.2926 -551.062 0.
-154.569 -737.643 0.
-319.609 -1121.17 0.
-484.649 -1504.69 0.
-605.772 -1732.12 0.
-559.138 -1622.39 0.
-512.503 -1512.66 0.
-572.563 -1551.48 0.
-617.869 -1654.92 0.
-663.174 -1758.35 0.
-59.8742 -1297.15 0.
86.8731 -960.227 0.
62.4409 -705.675 0.
-117.666 -1027.98 0.
-247.291 -1328.64 0.
-718.825 -1721.67 0.
-730.337 -1746.09 0.
-741.849 -1770.5 0.
-356.722 -1570.03 0.
-304.695 -1448.7 0.
-252.669 -1327.38 0.
-155.809 -1231.55 0.
-137.317 -1190.28 0.
-118.827 -1149.01 0.
-171.989 -1098.16 0.
-130.853 -1000.84 0.
-138.221 -914.597 0.
-86.731 -793.433 0.
-35.241 -672.269 0.
18.4401 -646.135 0.
-68.0117 -843.628 0.
-154.463 -1041.12 0.
-232.272 -1091.34 0.
-191.33 -994.921 0.
-150.387 -898.5 0.
-167.924 -765.088 0.
-84.7227 -570.014 0.
394.691 -263.404 0.
138.579 -143.289 0.
41.5585 -368.218 0.
-38.8892 -978.714 0.
123.407 -598.806 0.
194.342 -432.055 0.
-819.347 -2031.59 0.
238.959 436.899 0.
307.441 595.391 0.
189.242 -144.341 0.
-228.048 -1117.3 0.
169.119 -189.865 0.
295.408 187.392 0.
191.008 -60.0397 0.
-346.93 -895.24 0.
77.8534 89.2974 0.
-174.479 -506.113 0.
0.935318 -1092.31 0.
106.1 -848.087 0.
438.804 -72.9593 0.
384.194 -36.9624 0.
418.616 42.1195 0.
466.218 151.912 0.
321.828 252.947 0.
0.95573 -493.422 0.
66.3609 -229.141 0.
135.396 -10.8231 0.
-176.769 -744.991 0.
-367.199 -477.694 0.
88.308 578.512 0.
456.617 1431.28 0.
-400.306 -1504.74 0.
-105.645 -818.224 0.
237.414 -18.6991 0.
373.02 370.701 0.
-450.215 -1547.1 0.
-1097.89 -3055.34 0.
-396.68 -2086.39 0.
156.137 -794.611 0.
310.356 -667.646 0.
281.241 -732.175 0.
456.377 -320.208 0.
358.868 -800.287 0.
282.36 -979.093 0.
1045.32 800.725 0.
822.582 478.918 0.
449.892 -386.961 0.
635.993 50.9553 0.
1073.15 -865.572 0.
1739.35 692.368 0.
-1167.88 -1335.1 0.
1378.48 309.685 0.
1161.58 -194.09 0.
733.343 -312.512 0.
264.647 -1408.14 0.
-190.331 -2471.74 0.
395.706 -205.571 0.
1034.88 1285.18 0.
1034.23 1283.04 0.
330.498 -145.008 0.
-149.089 -1265.74 0.
941.195 1276.65 0.
568.973 388.447 0.
-263.455 -1548.49 0.
-320.084 -1484.67 0.
777.066 1073.24 0.
336.56 43.2552 0.
109.248 -354.326 0.
-58.1927 -745.587 0.
81.402 -420.397 0.
-217.754 -965.252 0.
636.949 1027.02 0.
505.648 718.663 0.
-181.616 -1018.32 0.
-334.99 -1375.29 0.
594.291 489.639 0.
51.8313 -216.194 0.
-264.834 -955.072 0.
585.077 572.346 0.
14.8708 -758.088 0.
-64.2868 -942.673 0.
163.382 -880.249 0.
314.468 -527.901 0.
427.781 -263.629 0.
-356.385 -1419.7 0.
-300.043 -1288.13 0.
-668.574 -2147.97 0.
70.745 -453.243 0.
457.623 447.692 0.
528.847 769.364 0.
392.221 446.611 0.
237.098 80.5374 0.
103.685 -158.785 0.
184.205 30.3015 0.
749.298 1350.06 0.
361.546 348.865 0.
104.491 -251.972 0.
-44.6857 -601.057 0.
266.916 264.94 0.
-123.872 -643.581 0.
140.908 -428.993 0.
24.6889 -504.037 0.
15.1124 -525.676 0.
89.6473 -520.827 0.
42.3225 -630.988 0.
-5.00247 -741.149 0.
-137.193 -799.792 0.
-68.6615 -638.661 0.
-0.130403 -477.531 0.
25.506 -481.61 0.
-28.5877 -608.656 0.
-82.6813 -735.702 0.
-37.7553 -744.216 0.
-41.4823 -756.552 0.
-306.502 -857.844 0.
-163.817 -529.829 0.
-21.1323 -201.814 0.
330.935 11.3664 0.
119.787 -482.266 0.
-91.3603 -975.898 0.
40.4836 -1076.49 0.
68.1276 -1012.98 0.
95.7717 -949.478 0.
-141.672 -914.138 0.
-55.2307 -711.315 0.
26.5069 -510.341 0.
-342.156 -676.744 0.
-344.057 -685.379 0.
-329.141 -698.792 0.
-351.986 -756.929 0.
-374.831 -815.066 0.
-33.3801 -806.974 0.
-165.633 -1117.75 0.
-297.885 -1428.52 0.
-186.366 -1263.28 0.
-23.6806 -880.065 0.
139.006 -496.846 0.
270.293 -534.067 0.
191.63 -715.561 0.
287.336 -813.73 0.
226.707 -952.826 0.
166.079 -1091.92 0.
302.67 -1064.29 0.
381.134 -881.522 0.
459.599 -698.756 0.
294.993 -672.025 0.
320.878 -610.562 0.
346.763 -549.1 0.
974.2 -428.428 0.
870.036 -669.136 0.
655.914 -954.855 0.
852.04 -608.913 0.
987.598 -289.082 0.
775.987 -210.247 0.
709.132 -368.029 0.
642.277 -525.812 0.
128.008 -884.442 0.
41.3901 -1087.63 0.
-45.2277 -1290.82 0.
-39.0566 -1208.14 0.
66.9261 -961.312 0.
172.909 -714.483 0.
98.6356 -762.107 0.
74.3063 -814.259 0.
-179.95 -982.862 0.
-252.432 -1153.56 0.
-324.914 -1324.25 0.
-237.91 -1310.98 0.
-138.821 -1079.76 0.
-39.7308 -848.542 0.
-37.4601 -763.363 0.
-36.7309 -762.213 0.
-36.0016 -761.064 0.
49.7583 -573.447 0.
148.988 -339.887 0.
-114.894 -268.943 0.
-270.017 -569.709 0.
-393.32 -856.839 0.
43.9041 -902.952 0.
-83.0296 -1198.91 0.
-209.963 -1494.87 0.
-40.2269 -1432.49 0.
98.8208 -1107.34 0.
237.869 -782.191 0.
-208.025 -708.874 0.
-70.0589 -385.829 0.
67.9076 -62.7852 0.
136.666 -317.933 0.
-39.921 -730.299 0.
-165.443 -1074.43 0.
-139.688 -1016.53 0.
-113.933 -958.63 0.
-361.198 -975.457 0.
-276.107 -775.235 0.
-191.016 -575.013 0.
24.1762 -462.602 0.
-20.5058 -567.585 0.
-65.1879 -672.567 0.
-216.626 -754.451 0.
-216.39 -751.448 0.
-67.2651 -488.132 0.
90.9927 -444.432 0.
81.6645 -466.186 0.
23.5557 -517.042 0.
-23.5334 -627.65 0.
-70.6225 -738.258 0.
67.7717 -681.437 0.
135.738 -519.621 0.
203.703 -357.807 0.
19.3094 -452.018 0.
-34.4089 -579.688 0.
-88.1273 -707.359 0.
59.7661 -671.282 0.
55.9358 -683.461 0.
-259.194 -804.649 0.
-117.011 -476.446 0.
25.1718 -148.242 0.
171.72 -26.5506 0.
-39.3805 -520.036 0.
-250.481 -1013.52 0.
181.814 -984.303 0.
209.322 -920.606 0.
236.831 -856.909 0.
-80.2184 -856.454 0.
6.81597 -653.88 0.
75.5644 -458.935 0.
-560.409 -738.869 0.
-562.762 -747.034 0.
-151.108 -592.289 0.
-174.728 -649.97 0.
-198.347 -707.651 0.
66.8454 -732.695 0.
-65.2729 -1043.85 0.
-197.391 -1355.01 0.
2.60211 -1150.79 0.
165.109 -767.489 0.
327.616 -384.186 0.
289.823 -492.965 0.
211.184 -674.594 0.
352.795 -752.576 0.
292.379 -892.412 0.
231.964 -1032.25 0.
389.07 -996.281 0.
467.567 -813.188 0.
546.064 -630.095 0.
269.219 -652.159 0.
295.892 -590.936 0.
322.565 -529.713 0.
641.423 -538.528 0.
537.711 -779.301 0.
196.984 -1121.71 0.
703.951 -642.797 0.
839.156 -322.922 0.
791.536 -171.67 0.
724.546 -329.383 0.
657.556 -487.097 0.
173.134 -833.546 0.
86.7243 -1036.76 0.
0.314319 -1239.97 0.
82.5678 -1125.3 0.
188.194 -877.547 0.
293.819 -629.794 0.
142.586 -713.216 0.
118.653 -765.695 0.
-254.615 -981.625 0.
-326.936 -1152.2 0.
-399.257 -1322.78 0.
-143.963 -1238.7 0.
-45.0273 -1007.16 0.
53.9086 -775.614 0.
93.1913 -678.091 0.
93.4406 -676.375 0.
93.6899 -674.659 0.
115.969 -513.752 0.
214.863 -280.021 0.
-224.51 -285.562 0.
-463.133 -621.892 0.
-586.406 -908.765 0.
172.294 -816.561 0.
45.4069 -1112.22 0.
-81.4804 -1407.88 0.
16.352 -1376.9 0.
155.365 -1051.4 0.
294.379 -725.896 0.
-382.35 -750.98 0.
-244.605 -427.569 0.
-106.861 -104.159 0.
162.754 -275.547 0.
-14.4049 -687.504 0.
-32.2883 -986.535 0.
-6.94106 -928.008 0.
18.4061 -869.48 0.
-486.329 -998.982 0.
-401.419 -798.834 0.
-316.509 -598.686 0.
53.3404 -418.968 0.
8.60014 -523.708 0.
-36.1402 -628.448 0.
-257.653 -741.321 0.
-257.192 -738.689 0.
-23.3346 -329.831 0.
225.755 -285.749 0.
184.394 -383.279 0.
82.6767 -528.642 0.
-20.2748 -769.846 0.
-123.226 -1011.05 0.
-161.231 -1125.84 0.
-145.114 -1090.24 0.
-128.996 -1054.65 0.
-245.581 -1098.99 0.
-246.642 -1100.37 0.
-247.703 -1101.76 0.
-83.2313 -1015.34 0.
-76.6938 -995.454 0.
-365.227 -1104.42 0.
-346.698 -1058.48 0.
-328.169 -1012.54 0.
-255.66 -986.25 0.
-304.003 -1098.14 0.
-352.346 -1210.02 0.
240.212 -979.396 0.
258.555 -937.642 0.
276.897 -895.889 0.
-222.802 -1053.3 0.
-189.575 -975.15 0.
128.747 -774.747 0.
-705.359 -1206.59 0.
-743.593 -1298.31 0.
-344.925 -1178.76 0.
-308.467 -1092.8 0.
-272.009 -1006.83 0.
67.2826 -821.892 0.
70.0917 -818.265 0.
72.9007 -814.638 0.
175.118 -888.253 0.
86.2666 -1096.49 0.
-2.58523 -1304.73 0.
46.0596 -1277.61 0.
57.7929 -1249.27 0.
96.9886 -1194.59 0.
189.627 -974.871 0.
282.265 -755.156 0.
490.758 -606.117 0.
390.47 -834.675 0.
290.182 -1063.23 0.
166.021 -996.049 0.
357.941 -548.934 0.
549.861 -101.818 0.
645.405 -147.858 0.
533.188 -414.089 0.
-759.146 -1184.54 0.
624.349 -797.91 0.
516.197 -1050.53 0.
275.294 -1287.92 0.
317.343 -1187 0.
359.391 -1086.07 0.
113.486 -1037.79 0.
242.591 -734.815 0.
371.696 -431.839 0.
380.374 -481.863 0.
276.497 -724.358 0.
172.621 -966.853 0.
-37.829 -1141.57 0.
-76.8832 -1235 0.
-424.165 -1434.98 0.
-370.754 -1308.01 0.
-317.343 -1181.03 0.
-79.8724 -1007.6 0.
-80.2926 -1007.47 0.
-80.7123 -1007.34 0.
20.5283 -981.874 0.
0.365447 -1030.81 0.
-19.7974 -1079.75 0.
-95.2548 -1091.87 0.
-70.7643 -1037.73 0.
-609.839 -1225.95 0.
-764.855 -1350.19 0.
-795.47 -1421.15 0.
-14.3179 -1145.13 0.
-49.8156 -1226.83 0.
-85.314 -1308.53 0.
-20.6537 -1257.91 0.
43.1619 -1108.7 0.
106.977 -959.485 0.
-452.132 -1015.44 0.
-343.347 -763.933 0.
-234.562 -512.431 0.
48.408 -413.382 0.
23.2884 -475.908 0.
188.817 -459.918 0.
163.912 -517.293 0.
139.008 -574.668 0.
-376.932 -823.314 0.
-377.741 -827.976 0.
-378.549 -832.638 0.
-122.149 -782.604 0.
-175.445 -906.479 0.
-228.74 -1030.35 0.
-381.676 -1113.85 0.
-376.477 -1106.8 0.
131.631 -230.641 0.
361.738 -194.942 0.
320.283 -292.634 0.
329.393 -392.262 0.
226.224 -633.263 0.
123.055 -874.265 0.
-414.471 -1201.87 0.
-398.182 -1166.35 0.
-381.893 -1130.84 0.
-173.554 -1037.96 0.
-174.441 -1039.47 0.
-175.327 -1040.98 0.
-139.189 -1008.2 0.
-132.693 -988.259 0.
-330.536 -1058.22 0.
-311.863 -1012.49 0.
-293.19 -966.763 0.
-103.573 -889.757 0.
-152.144 -1001.67 0.
-200.715 -1113.59 0.
263.276 -937.199 0.
281.957 -895.591 0.
300.637 -853.984 0.
-396.935 -1098.94 0.
-363.623 -1021.11 0.
281.732 -680.917 0.
-328.122 -1013.12 0.
-366.083 -1105.41 0.
-348.952 -1147.64 0.
-312.617 -1062.19 0.
-276.282 -976.734 0.
91.5879 -781.261 0.
94.3199 -777.964 0.
97.0518 -774.666 0.
178.966 -854.812 0.
89.1314 -1062.67 0.
-0.70415 -1270.53 0.
279.202 -1146.7 0.
290.289 -1118.13 0.
-85.7019 -1241.87 0.
6.67824 -1022.56 0.
99.0575 -803.245 0.
267.088 -670.974 0.
167.456 -900.172 0.
67.8245 -1129.37 0.
322.019 -896.066 0.
513.991 -448.973 0.
705.964 -1.88069 0.
613.421 -131.672 0.
500.448 -397.296 0.
-124.956 -882.195 0.
757.677 -709.333 0.
648.748 -961.545 0.
199.182 -1289.43 0.
241.182 -1188.82 0.
283.181 -1088.21 0.
167.476 -982.284 0.
296.952 -679.996 0.
426.427 -377.709 0.
339.091 -466.802 0.
234.86 -709.187 0.
130.63 -951.571 0.
-19.6575 -1102.3 0.
-58.9956 -1195.27 0.
-274.194 -1340.71 0.
-220.848 -1213.06 0.
-167.501 -1085.41 0.
-228.724 -1041.52 0.
-229.364 -1040.75 0.
-230.004 -1039.99 0.
60.1415 -935.311 0.
40.3272 -984.533 0.
20.513 -1033.76 0.
-27.9371 -1029.09 0.
-3.12335 -975.517 0.
-708.678 -1237.09 0.
-520.386 -1213.96 0.
-551.153 -1284.69 0.
-226.055 -1205.65 0.
-261.635 -1286.79 0.
-297.216 -1367.93 0.
-254.973 -1328.41 0.
-191.476 -1178.97 0.
-127.979 -1029.52 0.
-132.682 -846.326 0.
-24.2953 -594.322 0.
84.0907 -342.318 0.
-66.2726 -432.455 0.
-91.7429 -494.247 0.
78.7189 -474.918 0.
53.996 -532.31 0.
29.2729 -589.703 0.
-138.653 -690.388 0.
-140.38 -694.036 0.
-142.108 -697.685 0.
-169.238 -772.342 0.
-222.689 -895.886 0.
-276.14 -1019.43 0.
-218.095 -1013.32 0.
-212.182 -1005.91 0.
80.0169 -611.002 0.
235.793 -706.885 0.
804.421 621.084 0.
745.435 145.247 0.
574.81 -251.615 0.
741.399 138.494 0.
-54.3201 140.713 0.
-17.6081 226.493 0.
235.917 816.916 0.
782.589 1090.65 0.
695.109 886.185 0.
436.808 283.196 0.
142.169 -217.551 0.
-79.6845 -737.026 0.
-89.8002 -526.453 0.
400.211 612.992 0.
134.639 -10.5997 0.
515.569 301.101 0.
533.272 341.566 0.
511.246 289.061 0.
1129.61 1068.08 0.
1072.37 934.737 0.
374.287 -693.771 0.
-180.538 -237.845 0.
265.025 796.756 0.
249.712 364.588 0.
666.742 618.736 0.
295.466 -254.311 0.
30.5714 -221.732 0.
344.248 508.024 0.
398.518 632.437 0.
640.369 480.756 0.
522.706 207.748 0.
595.282 379.029 0.
795.048 609.649 0.
881.886 815.246 0.
503.461 -64.1853 0.
1576.54 1480.57 0.
1095.15 355.596 0.
397.797 255.244 0.
220.187 -163.791 0.
296.956 10.9978 0.
337.272 -46.7462 0.
736.196 879.186 0.
677.531 737.108 0.
886.548 169.359 0.
636.063 -417.559 0.
1298.84 1126.74 0.
1064.61 1003.77 0.
955.949 749.153 0.
-2358.23 176.527 0.
1873.47 1694.82 0.
1393.7 572.07 0.
1384.8 1661.04 0.
1026.72 823.772 0.
616.928 -133.471 0.
933.157 737.197 0.
835.751 511.532 0.
1091.74 1110.5 0.
547.7 134.478 0.
657.754 393.492 0.
909.922 983.581 0.
567.285 254.23 0.
593.827 324.05 0.
639.913 548.152 0.
601.267 458.052 0.
704.715 699.833 0.
220.001 317.737 0.
499.328 965.84 0.
-40.1928 -296.789 0.
431.505 -112.851 0.
794.74 734.794 0.
1020.95 1262.46 0.
886.836 1001.53 0.
1263.58 1883.58 0.
-482.134 101.901 0.
153.125 -76.4096 0.
446.831 606.022 0.
-70.2273 -399.471 0.
-33.1192 -314.751 0.
146.33 101.871 0.
105.877 -25.0434 0.
24.8293 -208.78 0.
294.881 426.812 0.
700.783 522.348 0.
441.827 -78.6169 0.
930.567 1064.58 0.
221.103 491.438 0.
447.236 1023.96 0.
198.052 39.7331 0.
291.829 259.018 0.
237.62 132.873 0.
-42.3016 -883.446 0.
449.167 260.676 0.
421.84 193.711 0.
-322.076 -999.151 0.
122.686 37.493 0.
38.89 -158.987 0.
190.662 -344.162 0.
61.0178 -642.638 0.
5.99012 -898.96 0.
-91.5444 -1008.35 0.
-113.972 -1059.2 0.
78.6894 -987.343 0.
127.805 -870.669 0.
176.92 -753.995 0.
-457.621 -970.919 0.
-454.624 -963.439 0.
-451.626 -955.958 0.
-114.653 -876.838 0.
-167.787 -1001.81 0.
-220.922 -1126.78 0.
-350.984 -1177.54 0.
-343.638 -1159.2 0.
-107.059 -1055.18 0.
-192.053 -1255.37 0.
-277.047 -1455.55 0.
-227.857 -1478.23 0.
-108.417 -1200.17 0.
11.0229 -922.118 0.
180.115 -726.441 0.
198.021 -685.833 0.
215.927 -645.225 0.
-498.042 -1053.42 0.
-567.875 -1220.56 0.
-277.169 -1233.39 0.
-8.36902 -951.408 0.
85.282 -737.513 0.
-107.814 -729.641 0.
-223.857 -1003.26 0.
-339.901 -1276.88 0.
-44.7679 -1229.01 0.
12.7169 -1093.45 0.
70.2016 -957.887 0.
-117.036 -1210.27 0.
-287.971 -1607.54 0.
-458.905 -2004.8 0.
178.365 -1570.34 0.
296.961 -1293.5 0.
-16.1171 -1230.03 0.
-30.2654 -1265.93 0.
-44.4137 -1301.83 0.
-113.487 -1254.74 0.
39.4029 -901.538 0.
192.293 -548.339 0.
252.76 -656.856 0.
4.59074 -1240.25 0.
-243.58 -1823.65 0.
34.9362 -1562.03 0.
205.079 -1166.83 0.
-1808.96 -1708.22 0.
1037.3 -585.949 0.
987.004 -704.991 0.
51.3594 -1173.47 0.
74.8073 -1118.57 0.
98.2549 -1063.67 0.
-47.7312 -1094.38 0.
-38.3533 -1071.47 0.
-28.975 -1048.56 0.
149.972 -1003.28 0.
118.879 -1075.78 0.
87.7866 -1148.27 0.
-12.4254 -1180.67 0.
-7.68422 -1165.64 0.
-193.816 -1231.25 0.
-183.753 -1209.13 0.
-173.691 -1187 0.
-342.199 -1256.67 0.
-357.959 -1294.56 0.
-373.719 -1332.45 0.
-115.706 -1162.41 0.
-48.6142 -1004.68 0.
18.4774 -846.949 0.
19.4983 -911.542 0.
-39.8962 -1047.07 0.
-474.692 -1343.26 0.
-358.245 -1333.31 0.
-377.113 -1381.29 0.
-613.659 -1478.34 0.
-528.39 -1281.19 0.
-443.121 -1084.03 0.
-183.66 -856.37 0.
-162.308 -800.058 0.
-140.955 -743.746 0.
134.3 -697.705 0.
67.2297 -851.946 0.
0.159741 -1006.19 0.
-313.346 -1027.6 0.
-242.871 -861.379 0.
-80.186 -679.24 0.
-105.888 -739.699 0.
-131.589 -800.158 0.
211.603 -703.71 0.
195.397 -746.079 0.
179.19 -788.449 0.
-306.368 -874.311 0.
-178.243 -578.072 0.
-50.1172 -281.833 0.
100.424 -199.997 0.
74.6957 -256.164 0.
81.8294 -837.247 0.
-318.352 -1075.48 0.
-340.76 -1126.59 0.
-126.608 -1043.38 0.
-77.9061 -926.709 0.
-29.2037 -810.04 0.
-351.426 -893.407 0.
-348.628 -886.09 0.
-345.831 -878.773 0.
-164.57 -866.64 0.
-217.192 -991.67 0.
-269.814 -1116.7 0.
-436.185 -1182.65 0.
-429.429 -1163.96 0.
163.741 -909.55 0.
78.4755 -1109.56 0.
-6.78894 -1309.57 0.
-188.297 -1429.82 0.
-69.1957 -1151.71 0.
49.906 -873.599 0.
-21.7948 -780.251 0.
-3.01096 -739.92 0.
15.7725 -699.59 0.
-441.694 -998.526 0.
-512.068 -1165.16 0.
-188.007 -1163.12 0.
5.80664 -914.748 0.
99.5531 -701.198 0.
7.86248 -647.973 0.
-108.055 -921.998 0.
-223.974 -1196.02 0.
30.9832 -1162.19 0.
88.6771 -1027.1 0.
146.371 -892.018 0.
-261.999 -1241.48 0.
-432.644 -1638.72 0.
-603.289 -2035.97 0.
84.5505 -1578.89 0.
202.828 -1301.82 0.
273.443 -1074.42 0.
258.799 -1109.79 0.
244.155 -1145.17 0.
-15.3355 -1182.46 0.
137.277 -829.047 0.
289.89 -475.633 0.
-74.4595 -766.839 0.
-321.961 -1350.46 0.
-569.465 -1934.08 0.
139.011 -1484.51 0.
309.443 -1089.93 0.
-2872.21 -2131.53 0.
1227.21 -472.368 0.
1176.71 -591.865 0.
-77.3938 -1195.67 0.
-53.8311 -1140.87 0.
-30.2686 -1086.08 0.
-270.804 -1158.81 0.
-261.052 -1135.94 0.
-251.299 -1113.07 0.
275.707 -919.565 0.
244.566 -992.052 0.
213.425 -1064.54 0.
49.0081 -1121.26 0.
54.4477 -1106.62 0.
-261.491 -1227.7 0.
-251.439 -1205.59 0.
-241.387 -1183.49 0.
-189.831 -1160.5 0.
-205.714 -1198.2 0.
-221.597 -1235.9 0.
-220.529 -1176.11 0.
-152.961 -1018.7 0.
-85.3929 -861.287 0.
-22.4013 -897.283 0.
-81.6085 -1032.79 0.
300.498 -980.046 0.
-308.829 -1280.58 0.
-328.163 -1328.28 0.
-693.065 -1480.38 0.
-608.171 -1283.01 0.
-523.276 -1085.64 0.
-87.8534 -786.25 0.
-66.7076 -729.832 0.
-45.5617 -673.413 0.
97.4281 -682.456 0.
30.5494 -837.287 0.
-36.3293 -992.117 0.
-152.782 -926.677 0.
-81.4101 -761.096 0.
-26.0787 -623.613 0.
-51.6693 -684.265 0.
-77.2599 -744.917 0.
445.187 -571.992 0.
429.372 -614.648 0.
413.557 -657.305 0.
-336.218 -855.845 0.
-207.549 -559.952 0.
-78.8796 -264.058 0.
-68.8879 -240.441 0.
-94.253 -296.002 0.
174.033 -731.218 0.
-358.814 -741.584 0.
-237.742 -462.994 0.
134.269 -163.564 0.
31.4404 -405.013 0.
-71.3874 -646.464 0.
-194.732 -808.068 0.
-186.374 -790.445 0.
-178.017 -772.822 0.
-150.381 -714.402 0.
-116.998 -634.617 0.
-83.616 -554.832 0.
-189.19 -656.003 0.
-230.791 -752.403 0.
315.166 -604.124 0.
246.088 -763.71 0.
177.01 -923.295 0.
-96.6934 -1063.12 0.
11.1867 -812.106 0.
119.067 -561.088 0.
-69.0304 -585.571 0.
-106.937 -671.744 0.
-144.843 -757.918 0.
-346.531 -956.16 0.
-408.566 -1100.46 0.
192.542 -960.431 0.
-21.471 -1071.69 0.
-30.4571 -1091.55 0.
-88.0036 -1103.88 0.
-0.652693 -896.779 0.
86.6985 -689.681 0.
259.199 -556.98 0.
214.165 -664.479 0.
169.131 -771.977 0.
-153.534 -955.929 0.
-163.665 -979.921 0.
-173.797 -1003.91 0.
303.646 -941.287 0.
218.238 -1139.06 0.
230.164 -1256.46 0.
354.36 -966.825 0.
478.556 -677.188 0.
234.493 -644.781 0.
191.991 -739.756 0.
149.49 -834.73 0.
-187.56 -950.534 0.
-125.461 -800.256 0.
-63.3623 -649.979 0.
588.152 -439.813 0.
525.389 -583.816 0.
-4021.79 -2650.36 0.
1390.63 -192.093 0.
1464.56 -21.2465 0.
180.345 -465.824 0.
169.019 -493.057 0.
157.692 -520.29 0.
-36.2255 -652.122 0.
-83.4288 -760.254 0.
-130.632 -868.385 0.
328.019 -761.142 0.
276.821 -877.2 0.
225.622 -993.258 0.
109.239 -927.495 0.
182.981 -754.263 0.
-80.106 -750.182 0.
-124.957 -851.743 0.
-169.808 -953.304 0.
-55.1884 -971.657 0.
-78.0393 -1021.84 0.
-100.89 -1072.02 0.
-171.405 -1042.36 0.
-100.291 -877.36 0.
-29.1778 -712.364 0.
102.929 -690.966 0.
63.7665 -789.173 0.
766.549 -574.943 0.
-308.663 -1014.06 0.
-296.478 -987.09 0.
-398.695 -989.978 0.
-358.777 -892.862 0.
-318.86 -795.746 0.
-17.5888 -739.064 0.
-149.606 -1048.05 0.
-281.624 -1357.03 0.
-261.366 -1358.77 0.
-209.851 -1242.37 0.
-158.335 -1125.98 0.
-117.67 -1018.31 0.
-64.3419 -897.27 0.
-132.308 -835.35 0.
-144.806 -866.104 0.
-157.303 -896.859 0.
385.872 -681.884 0.
389.783 -673.217 0.
393.694 -664.551 0.
-299.583 -881.882 0.
-231.616 -719.568 0.
-163.649 -557.254 0.
-305.866 -834.95 0.
-466.196 -1209.05 0.
229.527 -676.751 0.
-549.568 -792.244 0.
-429.233 -513.527 0.
92.2323 -150.789 0.
-11.2631 -392.133 0.
-114.758 -633.477 0.
28.1023 -680.757 0.
36.4843 -663.637 0.
44.8664 -646.517 0.
-192.401 -700.678 0.
-159.078 -620.889 0.
-125.755 -541.1 0.
-24.3908 -554.073 0.
-66.1992 -649.839 0.
126.139 -654.534 0.
57.1868 -814.165 0.
-11.7656 -973.797 0.
-260.935 -1102.46 0.
-153.18 -851.548 0.
-45.425 -600.639 0.
-165.117 -596.265 0.
-203.056 -682.457 0.
-240.994 -768.65 0.
-184.14 -855.384 0.
-246.029 -999.873 0.
-107.359 -1058.36 0.
101.545 -987.48 0.
93.1752 -1008.1 0.
60.5918 -1008.28 0.
147.964 -801.147 0.
235.336 -594.009 0.
146.384 -571.717 0.
101.332 -679.348 0.
56.2797 -786.978 0.
-17.2953 -866.569 0.
-27.7793 -890.713 0.
-38.2636 -914.857 0.
296.75 -912.262 0.
211.818 -1109.88 0.
75.2388 -1292.17 0.
199.165 -1002.36 0.
323.092 -712.544 0.
211.36 -623.548 0.
168.965 -719.135 0.
126.571 -814.722 0.
64.9122 -809.751 0.
127.559 -660.568 0.
190.206 -511.384 0.
517.945 -436.577 0.
455.799 -581.426 0.
2400.55 133.577 0.
1338.61 -182.339 0.
1412.58 -11.4862 0.
210.66 -421.024 0.
198.971 -447.775 0.
187.281 -474.526 0.
242.266 -503.68 0.
194.529 -611.416 0.
146.792 -719.151 0.
191.954 -789.075 0.
140.455 -904.803 0.
88.9576 -1020.53 0.
33.4033 -927.34 0.
106.873 -753.865 0.
-51.9388 -707.592 0.
-96.2971 -809.423 0.
-140.656 -911.255 0.
-37.0151 -930.6 0.
-59.4255 -981.337 0.
-81.8358 -1032.07 0.
-55.7324 -962.076 0.
15.4742 -797.317 0.
86.6805 -632.557 0.
267.081 -588.148 0.
227.352 -685.946 0.
466.343 -671.7 0.
-584.85 -1101.51 0.
-572.489 -1075.21 0.
-102.518 -831.505 0.
-62.1237 -734.936 0.
-21.7305 -638.368 0.
47.5003 -679.44 0.
-85.203 -988.337 0.
-217.906 -1297.23 0.
-353.658 -1368.2 0.
-302.451 -1252.22 0.
-251.243 -1136.24 0.
-69.8861 -966.07 0.
-16.8598 -844.786 0.
-190.506 -829.501 0.
-202.853 -860.207 0.
-215.2 -890.913 0.
159.058 -747.944 0.
163.076 -739.412 0.
167.094 -730.88 0.
-137.752 -781.601 0.
-69.6847 -619.386 0.
-1.61776 -457.17 0.
-62.0302 -698.783 0.
-223.046 -1073.23 0.
1008.92 1111.86 0.
-600.399 -531.072 0.
-755.701 -897.122 0.
36.2858 -165.173 0.
24.7927 -195.666 0.
445.575 783.773 0.
238.409 -576.579 0.
326.823 -371.809 0.
403.116 -195.998 0.
-297.495 -833.14 0.
122.547 145.855 0.
544.726 1130.22 0.
420.534 204.473 0.
434.583 239.705 0.
508.983 634.189 0.
-202.48 -1028.18 0.
117.912 -282.5 0.
-6.43058 -167 0.
490.977 993.4 0.
421.865 831.851 0.
583.147 1355.55 0.
296.323 686.599 0.
166.128 383.591 0.
103.656 -473.04 0.
441.132 311.257 0.
730.393 472.276 0.
895.364 658.374 0.
1202.41 1369.44 0.
1205.32 1424.69 0.
1022.32 998.59 0.
469.946 -289.168 0.
227.915 -141.552 0.
420.617 307.719 0.
597.451 719.815 0.
1029.14 1366.79 0.
672.182 533.18 0.
712.206 625.415 0.
1229.08 1310.49 0.
761.823 220.889 0.
315.98 -416.775 0.
856.883 844.533 0.
671.018 409.649 0.
960.719 1211.5 0.
541.659 230.91 0.
677.792 545.518 0.
877.521 655.83 0.
389.929 -485.45 0.
661.99 145.651 0.
717.505 193.003 0.
1280.26 1507.61 0.
-5511.29 -782.515 0.
1834.54 1108.47 0.
1452.47 218.062 0.
-64.5814 -1093.65 0.
737.886 777.672 0.
440.489 82.959 0.
532.618 -310.397 0.
730.424 148.64 0.
497.062 -398.051 0.
363.639 -86.0581 0.
960.21 1300.8 0.
329.523 -176.191 0.
540.754 435.169 0.
632.394 646.307 0.
372.716 269.52 0.
480.881 522.488 0.
454.911 462.048 0.
207.621 -371.137 0.
305.021 -143.089 0.
707.223 796.197 0.
1101.11 1550.01 0.
352.991 -197.063 0.
93.5332 -803.735 0.
730.683 210.61 0.
826.322 434.374 0.
1030.7 1630.72 0.
-207.26 321.3 0.
-8.05852 790.427 0.
750.46 637.309 0.
475.802 -4.83554 0.
264.001 -500.841 0.
462.245 190.421 0.
669.597 672.447 0.
655.437 637.889 0.
288.788 341.012 0.
164.861 53.2426 0.
332.379 445.364 0.
545.437 411.675 0.
347.199 -45.9773 0.
585.726 1117.36 0.
341.649 552.716 0.
-19.1799 -284.947 0.
700.816 956.072 0.
871.847 1356.66 0.
577.299 670.887 0.
161.692 -353.937 0.
163.723 -352.039 0.
577.379 611.22 0.
680.595 598.18 0.
942.34 1207.09 0.
-132.879 -849.264 0.
-552.445 -1011.37 0.
-568.831 -1050.37 0.
-324.278 -939.838 0.
-249.741 -766.923 0.
-175.205 -594.009 0.
112.498 -420.566 0.
75.015 -509.443 0.
37.531 -598.32 0.
-221.665 -739.297 0.
-224.85 -746.228 0.
-228.036 -753.159 0.
-13.9791 -739.161 0.
-58.425 -843.86 0.
-317.881 -1011.77 0.
-246.2 -848.66 0.
-174.52 -685.552 0.
-186.456 -648.253 0.
-258.778 -818.638 0.
-331.099 -989.023 0.
-302.774 -1123.44 0.
-384.541 -1316.4 0.
-466.308 -1509.36 0.
-161.073 -1232.59 0.
-32.8227 -936.77 0.
364.55 -525.518 0.
268.137 -584.744 0.
258.795 -608.96 0.
208.647 -657.688 0.
175.698 -735.198 0.
142.748 -812.709 0.
4.58667 -935.909 0.
-31.0528 -1020.53 0.
-66.6922 -1105.15 0.
-0.531817 -1172.94 0.
-59.2771 -1311.19 0.
-118.023 -1449.45 0.
186.864 -1247.49 0.
240.119 -1123.66 0.
-20.5472 -1131.25 0.
58.1152 -949.673 0.
136.778 -768.101 0.
18.8728 -748.105 0.
-26.7895 -856.765 0.
-72.4514 -965.424 0.
186.959 -926.085 0.
154.984 -1006.12 0.
123.009 -1086.16 0.
307.061 -1031.04 0.
301.682 -1042.88 0.
-984.837 -1605.08 0.
927.519 -502.835 0.
1075.59 -157.053 0.
373.834 -289.793 0.
244.131 -593.656 0.
114.428 -897.519 0.
136.423 -1054.21 0.
112.573 -1111.91 0.
88.7238 -1169.61 0.
-186.583 -1281.77 0.
-170.013 -1246.23 0.
-153.442 -1210.69 0.
-93.1407 -1108.79 0.
-47.512 -1005.42 0.
-33.8264 -939.858 0.
-94.9316 -1084.49 0.
-156.037 -1229.12 0.
-58.8238 -1161.29 0.
98.2859 -794.474 0.
255.396 -427.66 0.
233.427 -460.353 0.
94.195 -786.517 0.
-45.0368 -1112.68 0.
221.233 -901.256 0.
323.659 -659.711 0.
-70.8492 -627.62 0.
-583.603 -1010.69 0.
-672.31 -1212.39 0.
-69.4559 -1079.2 0.
-57.8758 -1053.9 0.
-46.2953 -1028.6 0.
-114.351 -999.164 0.
-57.4364 -865.608 0.
-0.521791 -732.051 0.
-155.663 -767.591 0.
-160.616 -776.984 0.
-165.568 -786.378 0.
-186.265 -827.031 0.
-208.876 -875.083 0.
-182.902 -895.089 0.
-156.354 -829.135 0.
-129.806 -763.181 0.
19.759 -669.485 0.
4.1617 -704.557 0.
-11.4354 -739.629 0.
-80.3013 -888.372 0.
-173.589 -1106.98 0.
-266.877 -1325.59 0.
-173.068 -1074.13 0.
-7.93383 -690.349 0.
-486.66 -971.881 0.
-224.712 -839.153 0.
-242.007 -877.909 0.
-343.557 -918.33 0.
-269.952 -744.798 0.
-196.346 -571.267 0.
-107.85 -484.057 0.
-145.295 -572.947 0.
-182.741 -661.838 0.
-163.377 -684.019 0.
-166.672 -690.796 0.
-169.968 -697.574 0.
-34.5363 -717.326 0.
-78.9767 -822.042 0.
-447.451 -1034.94 0.
-375.899 -871.877 0.
-304.346 -708.813 0.
-137.668 -594.505 0.
-209.93 -764.697 0.
-282.193 -934.889 0.
-69.2331 -993.357 0.
-151.317 -1186.34 0.
-233.4 -1379.33 0.
-67.2991 -1159.76 0.
60.619 -864.124 0.
-240.722 -752.624 0.
167.936 -596.758 0.
158.119 -621.165 0.
100.327 -674.505 0.
67.1859 -751.932 0.
34.0442 -829.36 0.
168.122 -831.546 0.
133.145 -916.555 0.
98.1685 -1001.56 0.
89.1417 -1101.38 0.
30.0395 -1239.28 0.
-29.0628 -1377.18 0.
270.914 -1180.64 0.
324.125 -1056.63 0.
-41.3484 -1109.13 0.
37.8245 -927.775 0.
116.998 -746.42 0.
-92.0563 -762.505 0.
-137.752 -871.309 0.
-183.447 -980.112 0.
188.62 -894.425 0.
156.332 -974.149 0.
124.043 -1053.87 0.
464.903 -932.305 0.
459.166 -943.978 0.
-70.0354 -1181.23 0.
679.186 -577.534 0.
827.404 -231.69 0.
505.147 -202.825 0.
375.493 -507.132 0.
245.839 -811.44 0.
59.086 -1054.5 0.
35.5557 -1112.76 0.
12.0254 -1171.02 0.
-216.54 -1263.15 0.
-200.12 -1227.25 0.
-183.7 -1191.35 0.
-45.6248 -1057.28 0.
-0.0451211 -954.286 0.
126.414 -837.822 0.
65.7782 -983.013 0.
5.14122 -1128.2 0.
41.2877 -1086.59 0.
198.882 -720.066 0.
356.477 -353.542 0.
242.209 -425.503 0.
103.484 -752.02 0.
-35.2413 -1078.54 0.
196.334 -880.205 0.
298.778 -638.531 0.
-161.099 -634.531 0.
-329.534 -870.735 0.
-417.863 -1072.99 0.
-155.993 -1085.07 0.
-144.566 -1059.48 0.
-133.139 -1033.89 0.
-181.63 -996.748 0.
-124.891 -863.27 0.
-68.1517 -729.792 0.
-102.565 -713.305 0.
-107.286 -723.235 0.
-112.008 -733.164 0.
-416.278 -894.348 0.
-438.52 -942.896 0.
-51.529 -808.342 0.
-24.8117 -742.281 0.
1.90604 -676.221 0.
57.1364 -620.274 0.
41.6428 -655.4 0.
26.1494 -690.525 0.
-81.2418 -858.592 0.
-174.844 -1077.16 0.
-268.447 -1295.73 0.
-324.376 -1108.16 0.
-159.54 -724.711 0.
-347.561 -330.432 0.
89.1434 -286.964 0.
55.5846 -363.669 0.
-193.642 -512.632 0.
-171.776 -461.024 0.
-149.911 -409.416 0.
-181.273 -445.127 0.
-240.938 -581.858 0.
-300.603 -718.588 0.
-143.787 -616.008 0.
-80.5123 -469.336 0.
-17.2372 -322.664 0.
124.712 -365.166 0.
50.5661 -535.382 0.
-372.55 -829.003 0.
-314.851 -689.933 0.
-257.153 -550.864 0.
-18.1757 -410.777 0.
-80.899 -554.678 0.
-143.622 -698.579 0.
157.565 -576.356 0.
203.49 -470.239 0.
249.416 -364.122 0.
266.013 -321.925 0.
276.206 -296.684 0.
389.21 -226.92 0.
157.634 -509.294 0.
57.1547 -743.249 0.
10.602 -918.381 0.
8.44034 -924.328 0.
6.27891 -930.275 0.
194.013 -851.095 0.
196.073 -842.781 0.
198.132 -834.468 0.
211.578 -719.984 0.
299.826 -515.657 0.
388.073 -311.329 0.
664.823 -314.132 0.
579.155 -513.632 0.
-11.9534 -912.514 0.
-19.4544 -928.807 0.
-26.9552 -945.1 0.
-26.4625 -901.732 0.
54.643 -708.746 0.
135.749 -515.761 0.
348.74 -453.787 0.
256.59 -668.831 0.
164.44 -883.874 0.
618.749 -542.434 0.
748.281 -241.611 0.
-1134.48 -802.772 0.
837.182 -157.204 0.
731.784 -401.844 0.
224.253 -750.256 0.
281.312 -616.284 0.
338.371 -482.311 0.
282.043 -521.331 0.
195.014 -723.414 0.
107.985 -925.496 0.
-23.6651 -860.937 0.
114.521 -538.047 0.
252.706 -215.158 0.
333.856 -357.575 0.
213.753 -634.674 0.
113.354 -862.292 0.
189.18 -684.55 0.
265.006 -506.808 0.
334.157 -465.202 0.
210.145 -751.435 0.
86.1331 -1037.67 0.
-59.3599 -1106.15 0.
19.6852 -918.68 0.
98.7299 -731.212 0.
378.793 -546.039 0.
396.933 -501.962 0.
147.822 -586.321 0.
-205.621 -730.729 0.
-201.523 -721.44 0.
8.38524 -625.031 0.
-10.9102 -667.934 0.
-30.2059 -710.838 0.
-144.652 -689.155 0.
-34.4644 -432.513 0.
75.7238 -175.871 0.
92.7062 -197.816 0.
17.5865 -373.741 0.
-57.5337 -549.666 0.
-345.594 -717.137 0.
-358.645 -748.655 0.
27.2829 -601.484 0.
10.9173 -643.025 0.
-5.44825 -684.566 0.
19.8705 -699.501 0.
29.1116 -681.083 0.
38.3528 -662.666 0.
-61.0909 -675.182 0.
-41.24 -630.206 0.
-21.3897 -585.229 0.
-168.589 -703.306 0.
-206.281 -795.968 0.
-341.585 -300.979 0.
-4.19609 -297.124 0.
-37.6825 -373.915 0.
-195.231 -481.311 0.
-173.425 -429.594 0.
-151.618 -377.878 0.
-157.532 -402.601 0.
-216.623 -539.812 0.
-275.715 -677.023 0.
-197.55 -608.813 0.
-134.303 -462.167 0.
-71.0558 -315.521 0.
196.722 -302.039 0.
122.611 -472.502 0.
-252.286 -745.696 0.
-195.137 -606.65 0.
-137.988 -467.604 0.
62.6582 -344.163 0.
0.619912 -488.68 0.
-61.4186 -633.197 0.
88.0204 -573.907 0.
133.718 -467.623 0.
179.415 -361.339 0.
156.477 -336.122 0.
166.69 -311.088 0.
201.086 -275.653 0.
177.464 -470.018 0.
76.9225 -703.483 0.
176.294 -816.662 0.
174.208 -822.449 0.
172.122 -828.236 0.
142.467 -842.257 0.
144.596 -833.88 0.
146.724 -825.503 0.
61.7377 -751.789 0.
150.378 -547.686 0.
239.018 -343.583 0.
667.989 -282.208 0.
582.085 -481.081 0.
-91.7495 -916.008 0.
-99.6139 -931.698 0.
-107.478 -947.387 0.
408.138 -685.195 0.
488.987 -491.646 0.
569.836 -298.098 0.
308.174 -437.924 0.
216.997 -653.804 0.
125.818 -869.685 0.
464.342 -578.018 0.
593.546 -276.999 0.
623.031 -17.8842 0.
1072.64 -24.333 0.
966.834 -268.906 0.
15.3748 -807.86 0.
72.8933 -674.197 0.
130.412 -540.534 0.
364.558 -455.362 0.
277.699 -657.726 0.
190.84 -860.091 0.
82.9511 -784.105 0.
221.739 -461.946 0.
360.526 -139.786 0.
514.096 -248.421 0.
393.789 -525.622 0.
-30.7829 -891.007 0.
45.6406 -713.769 0.
122.064 -536.531 0.
330.347 -435.248 0.
206.701 -721.859 0.
83.0544 -1008.47 0.
-65.4732 -1076.66 0.
13.6959 -889.046 0.
92.8647 -701.433 0.
529.382 -452.398 0.
547.26 -408.318 0.
435.761 -428.553 0.
-261.012 -720.645 0.
-257.017 -711.874 0.
45.1943 -578.901 0.
25.8044 -622.064 0.
6.41417 -665.227 0.
-267.73 -710.302 0.
-157.31 -454.148 0.
-46.8899 -197.992 0.
10.0778 -200.305 0.
-64.2599 -376.957 0.
-138.598 -553.611 0.
-106.752 -583.391 0.
-119.673 -615.305 0.
-85.7212 -619.718 0.
-101.67 -661.106 0.
-117.62 -702.495 0.
23.6155 -665.578 0.
32.9969 -647.298 0.
42.3784 -629.017 0.
-169.707 -690.045 0.
-150.049 -645.113 0.
-130.393 -600.18 0.
-29.2133 -614.058 0.
-67.5343 -707.527 0.
-219.764 30.6925 0.
315.654 653.42 0.
138.613 238.362 0.
501.107 1177.57 0.
13.9102 37.7724 0.
149.376 351.503 0.
-119.525 -328.476 0.
257.769 555.122 0.
295.465 645.793 0.
120.592 250.514 0.
268.764 599.632 0.
161.772 354.185 0.
557.378 441.22 0.
592.374 522.486 0.
478.314 777.747 0.
173.097 65.7099 0.
319.627 408.094 0.
447.291 424.062 0.
650.745 900.166 0.
379.586 268.706 0.
9.32708 -594.877 0.
266.559 7.9483 0.
336.453 173.567 0.
90.0748 -265.223 0.
695.069 1144.7 0.
797.867 595.115 0.
398.782 34.2508 0.
939.74 1299.67 0.
805.951 356.896 0.
1203.06 1288.44 0.
884.565 550.435 0.
117.828 -766.682 0.
907.833 1075.34 0.
970.943 1221.2 0.
436.612 439.199 0.
476.622 532.502 0.
639.325 911.446 0.
748.668 -62.2844 0.
483.236 -682.44 0.
61.0038 -373.555 0.
503.603 664.427 0.
373.518 365.951 0.
1039.87 9.43096 0.
1080.19 102.575 0.
1341.79 712.424 0.
764.155 723.907 0.
534.791 189.583 0.
887.346 1012.81 0.
876.105 707.099 0.
896.836 755.334 0.
-3154.57 -1267.41 0.
1794.54 1239.73 0.
1463.6 467.975 0.
210.754 69.6966 0.
227.157 108.244 0.
30.0249 -351.536 0.
701.399 206.719 0.
1080.46 1092.34 0.
777.733 387.371 0.
626.544 302.843 0.
226.783 -631.908 0.
406.1 -215.677 0.
448.256 -709.022 0.
955.523 469.098 0.
552.775 762.714 0.
226.307 7.19975 0.
267.049 108.569 0.
565.151 156.224 0.
1056.61 1307.45 0.
901.034 948.987 0.
588.59 481.054 0.
793.386 964.771 0.
1029.3 1521.29 0.
941.024 250.868 0.
552.39 -659.441 0.
461.88 608.966 0.
154.081 380.424 0.
129.071 320.321 0.
508.707 471.613 0.
61.5523 -575.068 0.
716.4 949.341 0.
-108.275 -84.0064 0.
-60.1436 27.6447 0.
129.823 470.182 0.
-227.957 -572.738 0.
-29.3836 -109.865 0.
215.688 462.313 0.
916.718 1381.4 0.
610.869 668.162 0.
124.852 107.452 0.
114.577 85.7531 0.
305.978 534.196 0.
78.3101 -525.55 0.
483.659 421.031 0.
437.565 314.281 0.
-153.314 -410.099 0.
-249.247 -632.117 0.
276.513 595.342 0.
515.133 414.181 0.
309.005 -66.3347 0.
-644.635 -1010.51 0.
-198.518 -684.984 0.
-156.795 -590.234 0.
-120.603 -527.169 0.
-150.698 -601.108 0.
-180.794 -675.046 0.
-394.377 -812.621 0.
-408.035 -842.122 0.
-421.693 -871.623 0.
-289.685 -889.42 0.
-344.993 -1018.91 0.
-400.301 -1148.41 0.
-12.6533 -794.719 0.
112.942 -503.599 0.
-126.68 -410.095 0.
-217.297 -626.131 0.
-307.913 -842.166 0.
30.341 -820.533 0.
20.1473 -843.683 0.
9.953 -866.833 0.
-251.572 -976.259 0.
-241.072 -952.205 0.
-230.572 -928.15 0.
-125.444 -831.609 0.
-93.5841 -755.858 0.
-239.693 -756.572 0.
109.778 -787.674 0.
16.1881 -1006.55 0.
262.822 -991.707 0.
378.468 -720.107 0.
494.113 -448.508 0.
229.901 -463.521 0.
194.428 -547.045 0.
158.955 -630.57 0.
-120.717 -832.994 0.
-167.923 -943.411 0.
-215.129 -1053.83 0.
382.769 -663.968 0.
468.46 -466.444 0.
82.181 -510.316 0.
-16.8829 -742.483 0.
-115.947 -974.65 0.
446.587 -850.411 0.
463.035 -814.624 0.
479.482 -778.838 0.
346.913 -731.855 0.
432.326 -532.687 0.
517.74 -333.517 0.
191.618 -557.939 0.
110.808 -748.998 0.
-680.887 -1245.63 0.
839.557 -529.451 0.
873.183 -450.77 0.
159.948 -720.472 0.
122.508 -809.652 0.
85.0679 -898.833 0.
158.321 -845.256 0.
233.358 -671.916 0.
308.395 -498.576 0.
296.694 -592.06 0.
190.449 -837.937 0.
84.2046 -1083.81 0.
463.605 -698.131 0.
608.071 -366.929 0.
65.3478 -380.663 0.
-16.6854 -566.21 0.
-98.7185 -751.756 0.
34.0313 -754.429 0.
79.6995 -643.915 0.
125.367 -533.401 0.
312.277 -479.594 0.
254.73 -614.398 0.
197.182 -749.203 0.
296.387 -678.923 0.
334.718 -594.36 0.
957.365 -256.694 0.
-153.304 -634.536 0.
-101.322 -514.441 0.
132.597 -384.141 0.
35.6698 -615.593 0.
-61.2581 -847.046 0.
-366.992 -1094.54 0.
-382.511 -1131.4 0.
-398.029 -1168.25 0.
-520.461 -1173.93 0.
-472.25 -1060.82 0.
-424.04 -947.712 0.
74.0339 -640.915 0.
122.777 -528.627 0.
-209.416 -577.322 0.
-139.982 -413.473 0.
-70.5479 -249.624 0.
131.498 -118.928 0.
67.6533 -266.409 0.
3.80852 -413.889 0.
10.8414 -444.756 0.
27.9244 -403.696 0.
45.0074 -362.635 0.
326.202 -206.638 0.
341.771 -170.285 0.
-603.968 -965.797 0.
-109.561 -617.309 0.
-67.6367 -522.457 0.
31.0646 -429.238 0.
1.35277 -503.623 0.
-28.3593 -578.008 0.
-462.109 -811.071 0.
-475.401 -840.547 0.
-488.694 -870.023 0.
-174.852 -808.772 0.
-229.449 -939.033 0.
-284.046 -1069.29 0.
-47.2915 -777.127 0.
78.4973 -486.452 0.
-221.217 -418.516 0.
-312.382 -633.809 0.
-403.548 -849.102 0.
191.211 -720.715 0.
180.984 -743.588 0.
170.756 -766.46 0.
-354.46 -990.946 0.
-344.087 -966.837 0.
-333.713 -942.728 0.
-74.7541 -778.792 0.
-43.5205 -702.554 0.
778.349 -287.784 0.
202.29 -719.072 0.
108.971 -938.2 0.
324.715 -933.332 0.
440.703 -662.136 0.
556.69 -390.939 0.
222.463 -434.703 0.
187.206 -518.363 0.
151.949 -602.023 0.
-119.724 -799.546 0.
-166.619 -910.199 0.
-213.515 -1020.85 0.
264.185 -683.312 0.
349.556 -485.316 0.
202.015 -427.497 0.
102.564 -659.292 0.
3.11365 -891.086 0.
187.689 -930.783 0.
204.389 -894.96 0.
221.089 -859.137 0.
616.109 -586.472 0.
701.952 -387.564 0.
787.796 -188.656 0.
37.3015 -593.795 0.
-43.6773 -784.508 0.
-1713.1 -1656.07 0.
609.582 -596.878 0.
643.7 -518.74 0.
530.757 -529.62 0.
493.23 -619.389 0.
455.702 -709.158 0.
65.3524 -853.649 0.
139.859 -680.289 0.
214.366 -506.928 0.
376.877 -527.823 0.
270.516 -773.792 0.
164.156 -1019.76 0.
493.234 -653.624 0.
638.037 -322.122 0.
88.1497 -338.185 0.
6.82833 -523.863 0.
-74.4931 -709.54 0.
-123.269 -791.651 0.
-77.3379 -681.159 0.
-31.4082 -570.669 0.
497.412 -367.496 0.
440.598 -502.931 0.
383.784 -638.368 0.
14.3917 -770.044 0.
52.9371 -685.906 0.
791.433 -294.999 0.
18.6446 -528.112 0.
70.4385 -408.083 0.
135.856 -350.885 0.
38.5794 -582.236 0.
-58.6974 -813.587 0.
-139.463 -966.17 0.
-154.822 -1003.37 0.
-170.18 -1040.56 0.
-549.193 -1155.6 0.
-500.401 -1043.16 0.
-451.609 -930.714 0.
119.542 -590.273 0.
168.217 -477.851 0.
-246.25 -560.797 0.
-176.552 -396.916 0.
-106.854 -233.036 0.
-0.107248 -144.615 0.
-64.1152 -291.773 0.
-128.123 -438.93 0.
244.703 -314.149 0.
261.646 -273.368 0.
278.589 -232.588 0.
438.834 -125.526 0.
454.39 -89.9459 0.
-341.485 -827.687 0.
-129.436 -697.2 0.
-57.1284 -526.298 0.
94.2591 -354.579 0.
78.9555 -386.532 0.
63.6518 -418.486 0.
-344.574 -571.303 0.
-304.015 -475.548 0.
-263.455 -379.793 0.
136.997 -192.081 0.
127.523 -213.189 0.
118.048 -234.296 0.
35.9269 -304.628 0.
16.6221 -349.809 0.
-238.266 -494.12 0.
-225.593 -462.867 0.
-212.921 -431.614 0.
389.65 -209.162 0.
296.338 -425.107 0.
203.026 -641.052 0.
-278.775 -857.3 0.
-210.109 -697.752 0.
-141.443 -538.204 0.
80.995 -498.457 0.
27.8219 -623.829 0.
963.691 -325.092 0.
342.353 -464.724 0.
402.373 -320.993 0.
589.248 -156.062 0.
571.395 -196.262 0.
553.541 -236.462 0.
204.47 -422.538 0.
180.234 -474.387 0.
155.997 -526.237 0.
73.6037 -520.414 0.
121.681 -406.864 0.
169.759 -293.313 0.
412.026 -367.895 0.
296.758 -635.08 0.
19.9075 -915.088 0.
171.075 -563.191 0.
322.243 -211.294 0.
521.88 30.5022 0.
459.626 -114.207 0.
397.371 -258.916 0.
819.684 -175.099 0.
781.716 -259.977 0.
743.748 -344.853 0.
13.4565 -644.498 0.
34.4418 -594.208 0.
763.12 -243.066 0.
590.732 -437.26 0.
527.709 -584.583 0.
540.707 -656.735 0.
572.205 -582.417 0.
603.704 -508.099 0.
115.01 -637.948 0.
171.52 -506.959 0.
228.03 -375.971 0.
514.611 -169.381 0.
551.622 -81.8972 0.
588.632 5.58689 0.
759.176 -62.988 0.
671.68 -264.895 0.
12.4277 -664.651 0.
130.656 -389.05 0.
248.885 -113.448 0.
159.834 -84.7977 0.
32.0627 -383.846 0.
-95.7081 -682.894 0.
391.903 -557.197 0.
408.686 -513.706 0.
425.468 -470.215 0.
34.6828 -669.998 0.
9.2127 -731.397 0.
882.862 -402.378 0.
-64.8168 -730.396 0.
-24.3853 -635.297 0.
73.7232 -542.76 0.
41.8665 -611.83 0.
10.0099 -680.899 0.
31.2311 -688.51 0.
48.0536 -648.16 0.
64.8757 -607.81 0.
-222.335 -617.675 0.
-142.359 -430.778 0.
-62.3838 -243.88 0.
238.657 -168.539 0.
201.978 -252.775 0.
-219.371 -482.033 0.
-165.012 -355.897 0.
-110.653 -229.761 0.
-41.0278 -196.099 0.
-142.468 -432.997 0.
-243.908 -669.895 0.
203.109 -493.077 0.
263.59 -354.576 0.
324.072 -216.074 0.
247.86 -249.648 0.
239.908 -269.243 0.
108.416 -603.175 0.
-155.812 -680.981 0.
-84.2282 -509.04 0.
40.1962 -344.117 0.
25.2033 -376.108 0.
10.2106 -408.099 0.
-215.875 -486.443 0.
-175.605 -390.565 0.
-135.335 -294.688 0.
167.611 -146.903 0.
158.434 -168.286 0.
149.256 -189.669 0.
-179.744 -367.201 0.
-198.971 -412.643 0.
-84.7296 -394.381 0.
-71.7499 -363.032 0.
-58.7702 -331.682 0.
213.303 -254.685 0.
119.67 -469.944 0.
26.0378 -685.203 0.
-112.454 -755.475 0.
-43.414 -596.219 0.
25.6256 -436.962 0.
161.106 -429.888 0.
107.787 -555.439 0.
191.715 -622.431 0.
354.175 -429.86 0.
414.293 -286.333 0.
398.255 -204.979 0.
380.575 -245.417 0.
362.894 -285.856 0.
190.172 -397.056 0.
166.164 -449.121 0.
142.155 -501.186 0.
279.353 -400.339 0.
327.416 -287.057 0.
375.479 -173.774 0.
591.181 -260.55 0.
476.374 -527.887 0.
1.26845 -889.597 0.
152.812 -538.342 0.
304.356 -187.087 0.
610.705 97.8707 0.
549.037 -47.4751 0.
487.369 -192.821 0.
642.76 -218.036 0.
605.503 -303.772 0.
568.246 -389.508 0.
166.853 -547.054 0.
188.271 -497.396 0.
196.662 -453.414 0.
660.899 -374.106 0.
597.368 -521.286 0.
359.028 -703.743 0.
389.753 -629.252 0.
420.478 -554.761 0.
124.127 -603.31 0.
180.404 -472.483 0.
236.682 -341.655 0.
435.479 -171.57 0.
472.676 -84.0022 0.
509.874 3.5653 0.
798.068 -14.8764 0.
711.08 -216.881 0.
171.92 -565.347 0.
289.996 -289.532 0.
408.072 -13.7159 0.
289.152 0.0326102 0.
160.8 -298.416 0.
32.4472 -596.863 0.
175.792 -617.654 0.
191.88 -573.793 0.
207.967 -529.932 0.
289.882 -530.035 0.
263.75 -590.786 0.
375.256 -586.961 0.
-180.294 -747.446 0.
-139.574 -652.289 0.
144.4 -481.844 0.
113.268 -551.76 0.
82.1358 -621.677 0.
-37.6467 -685.934 0.
-20.6903 -645.832 0.
-3.73437 -605.73 0.
57.3692 -466.303 0.
137.869 -279.918 0.
218.367 -93.5316 0.
81.8835 -203.276 0.
45.4014 -287.544 0.
-161.608 -426.313 0.
-107.543 -299.278 0.
-53.4775 -172.243 0.
72.0087 -117.562 0.
-29.8084 -354.296 0.
-131.626 -591.03 0.
93.5064 -508.492 0.
153.858 -370.242 0.
214.21 -231.992 0.
-150.851 -388.912 0.
-158.758 -409.558 0.
779.848 186.659 0.
652.005 1304.48 0.
325.105 538.826 0.
125.797 -17.9107 0.
-316.161 -1047.88 0.
442.671 723.746 0.
552.291 1103.11 0.
346.611 617.223 0.
-156.979 -563.968 0.
341.733 238.1 0.
408.44 392.828 0.
398.219 367.567 0.
-3.65799 464.604 0.
-293.233 -211.119 0.
647.306 1070.82 0.
816.476 1465.01 0.
302.68 265.387 0.
70.4293 -215.879 0.
249.423 201.202 0.
167.363 9.03024 0.
241.583 -202.197 0.
383.21 125.943 0.
253.808 -178.355 0.
328.113 -163.754 0.
442.956 100.384 0.
198.675 23.4996 0.
368.359 -386.823 0.
691.955 368.377 0.
65.8709 -591.032 0.
-133.128 -1053.89 0.
375.292 134.107 0.
596.933 608.777 0.
428.109 214.208 0.
577.51 562.25 0.
711.529 255.709 0.
324.326 -647.535 0.
755.807 359.33 0.
1036.23 468.898 0.
856.045 51.8724 0.
475.71 269.878 0.
415.603 131.373 0.
348.522 -23.1829 0.
671.245 86.4242 0.
760.941 297.567 0.
570.643 -144.196 0.
318.137 -613.737 0.
357.247 -525.812 0.
455.47 -299.659 0.
641.718 314.15 0.
957.594 1049.77 0.
-206.197 6.04693 0.
907.65 92.4289 0.
757.642 -255.162 0.
474.853 -61.5172 0.
434.641 -150.451 0.
785.523 673.45 0.
375.609 -10.663 0.
436.31 133.951 0.
598.023 514.096 0.
286.91 -331.943 0.
387.256 -94.8972 0.
644.667 508.312 0.
957.15 306.211 0.
849.268 59.7375 0.
767.653 545.189 0.
368.885 -380.004 0.
409.421 -280.042 0.
548.221 391.572 0.
564.343 430.588 0.
392.107 29.9053 0.
245.844 -7.64631 0.
316.34 158.584 0.
182.661 -152.32 0.
1194.51 1144.66 0.
885.263 427.87 0.
197.713 802.259 0.
310.718 626.147 0.
-341.35 -890.046 0.
593.87 457.541 0.
452.956 131.88 0.
572.573 414.256 0.
198.218 26.9743 0.
446.425 602.342 0.
135.606 -126.256 0.
401.451 -153.065 0.
429.504 -86.1772 0.
456.326 -21.9554 0.
345.315 736.131 0.
142.424 261.796 0.
219.801 388.832 0.
21.6349 -71.6861 0.
244.65 449.479 0.
544.761 812.718 0.
399.584 476.504 0.
321.931 297.303 0.
336.033 290.363 0.
-6.22282 -509.151 0.
-7.53331 -510.813 0.
-709.929 -918.218 0.
-449.604 -309.125 0.
474.596 105.035 0.
-87.5943 -266.877 0.
-220.26 -577.882 0.
-116.706 -737.715 0.
-107.152 -713.637 0.
-97.5982 -689.558 0.
-165.409 -614.43 0.
-52.5583 -356.67 0.
60.2931 -98.9091 0.
177.95 -35.0666 0.
138.226 -128.792 0.
98.5018 -222.519 0.
-113.064 -348.166 0.
-136.496 -399.566 0.
-124.88 -448.75 0.
-189.46 -600.255 0.
-254.039 -751.761 0.
-157.483 -756.932 0.
-101.865 -628.726 0.
-46.2465 -500.519 0.
48.4569 -424.096 0.
31.2943 -464.552 0.
14.1317 -505.008 0.
90.2167 -597.806 0.
12.2718 -781.776 0.
344.653 -788.834 0.
257.078 -664.222 0.
343.971 -460.676 0.
247.914 -391.322 0.
198.992 -505.135 0.
150.07 -618.947 0.
47.9082 -676.584 0.
99.3126 -559.99 0.
150.717 -443.396 0.
271.655 -482.361 0.
164.71 -729.35 0.
57.765 -976.339 0.
534.411 -652.224 0.
620.363 -450.434 0.
292.394 -459.19 0.
238.812 -583.65 0.
185.229 -708.109 0.
188.345 -760.802 0.
206.548 -717.463 0.
224.752 -674.123 0.
366.451 -561.71 0.
406.692 -472.45 0.
446.933 -383.19 0.
465.564 -337.12 0.
479.633 -303.277 0.
992.301 -55.9383 0.
608.023 -408.847 0.
508.043 -640.445 0.
132.21 -930.12 0.
177.112 -822.932 0.
222.014 -715.746 0.
214.155 -652.529 0.
233.055 -606.488 0.
251.954 -560.448 0.
130.99 -585.559 0.
141.322 -558.953 0.
151.654 -532.347 0.
620.804 -297.364 0.
638.47 -256.576 0.
400.537 -353.932 0.
287.941 -614.678 0.
175.344 -875.424 0.
-20.649 -1013.67 0.
113.46 -699.029 0.
247.569 -384.384 0.
238.235 -292.409 0.
221.691 -330.777 0.
205.146 -369.144 0.
197.392 -408.242 0.
177.014 -454.817 0.
583.843 -322.522 0.
-149.828 -686.888 0.
-178.305 -748.967 0.
305.601 -557.499 0.
350.98 -449.216 0.
396.358 -340.933 0.
75.8506 -412.382 0.
99.1059 -359.956 0.
122.361 -307.53 0.
185.541 -286.247 0.
171.065 -322.145 0.
156.587 -358.043 0.
-267.742 -575.511 0.
-284.034 -616.176 0.
-82.9586 -566.538 0.
-122.291 -659.25 0.
-161.623 -751.961 0.
-180.966 -732.715 0.
-68.901 -472.556 0.
43.1635 -212.397 0.
331.469 -68.8735 0.
271.816 -207.379 0.
212.164 -345.885 0.
-437.354 -587.334 0.
-404.419 -508.804 0.
158.883 -3.05823 0.
-153.258 -263.776 0.
-286.201 -574.406 0.
-17.4341 -663.627 0.
-7.99324 -639.323 0.
1.4479 -615.018 0.
-126.761 -565.408 0.
-14.1218 -307.88 0.
98.5176 -50.3511 0.
136.616 -22.9395 0.
96.4824 -116.226 0.
56.3488 -209.513 0.
191.64 -186.775 0.
168.327 -238.288 0.
-259.042 -475.767 0.
-324.205 -626.644 0.
-389.368 -777.52 0.
-132.632 -715.081 0.
-77.5173 -586.645 0.
-22.4026 -458.209 0.
-54.7905 -437.148 0.
-71.8723 -477.846 0.
-88.9541 -518.544 0.
42.8931 -586.28 0.
-35.2517 -770.305 0.
562.162 -663.718 0.
282.75 -621.477 0.
370.244 -418.361 0.
384.986 -301.402 0.
335.216 -414.257 0.
285.446 -527.112 0.
65.5456 -638.883 0.
116.993 -522.348 0.
168.44 -405.812 0.
138.064 -508.24 0.
31.5565 -755.871 0.
-74.951 -1003.5 0.
524.229 -624.312 0.
610.129 -422.222 0.
466.977 -354.084 0.
413.42 -478.691 0.
359.864 -603.299 0.
61.4762 -785.281 0.
80.253 -742.436 0.
99.03 -699.59 0.
410.986 -510.001 0.
451.358 -421.218 0.
491.73 -332.435 0.
609.674 -242.786 0.
624.178 -209.37 0.
422.954 -267.265 0.
520.885 -413.459 0.
420.401 -644.829 0.
187.978 -876.529 0.
232.454 -769.499 0.
276.931 -662.47 0.
370.687 -553.697 0.
389.356 -507.82 0.
408.025 -461.944 0.
88.7119 -572.203 0.
99.1123 -545.429 0.
109.513 -518.656 0.
541.676 -300.891 0.
559.468 -260.324 0.
444.751 -301.933 0.
332.833 -563.114 0.
220.916 -824.294 0.
36.4674 -957.253 0.
170.951 -642.816 0.
305.434 -328.378 0.
397.195 -193.412 0.
380.083 -231.228 0.
362.97 -269.045 0.
-187.06 -541.624 0.
-206.909 -588.553 0.
1310.62 21.1168 0.
-5.79629 -593.771 0.
-33.6699 -656.6 0.
501.168 -439.968 0.
546.735 -331.916 0.
592.303 -223.864 0.
173.826 -340.833 0.
196.644 -287.875 0.
219.461 -234.915 0.
12.0479 -327.835 0.
-2.30206 -363.88 0.
-16.6529 -399.925 0.
-310.615 -561.598 0.
-326.718 -602.097 0.
61.4164 -473.115 0.
22.0623 -565.941 0.
-17.2916 -658.768 0.
-238.131 -725.692 0.
-126.486 -465.391 0.
-14.8417 -205.091 0.
530.752 47.528 0.
471 -91.3588 0.
411.249 -230.246 0.
-262.007 -480.866 0.
-229.166 -402.695 0.
-493.444 -760.242 0.
-167.132 -518.131 0.
-75.4964 -302.278 0.
171.902 -68.203 0.
118.106 -195.615 0.
64.3109 -323.028 0.
-95.6669 -452.038 0.
-84.953 -425.115 0.
-74.2397 -398.191 0.
-26.8894 -364.817 0.
-31.0314 -374.555 0.
-35.1728 -384.292 0.
209.467 -300.375 0.
203.565 -313.823 0.
-239.24 -508.74 0.
-244.184 -519.188 0.
-249.128 -529.636 0.
-50.9499 -455.257 0.
-66.354 -489.253 0.
-81.7577 -523.249 0.
-126.297 -546.844 0.
-117.749 -525.553 0.
-109.201 -504.261 0.
58.2254 -443.116 0.
49.5516 -461.79 0.
590.066 -245.018 0.
500.139 -149.531 0.
568.891 9.65354 0.
523.528 43.659 0.
434.403 -168.92 0.
345.278 -381.5 0.
154.402 -461.778 0.
260.614 -210.744 0.
366.825 40.2903 0.
392.964 44.1512 0.
339.034 -82.7301 0.
285.103 -209.612 0.
597.895 -111.982 0.
580.617 -153.522 0.
591.607 -174.786 0.
619.657 -109.083 0.
647.707 -43.38 0.
333.016 -189.934 0.
265.167 -348.744 0.
197.32 -507.555 0.
421.777 -489.046 0.
404.136 -529.392 0.
386.496 -569.739 0.
629.731 -457.786 0.
640.183 -432.337 0.
661.895 -401.535 0.
414.915 -431.434 0.
456.988 -337.779 0.
465.252 -295.002 0.
425.942 -392.741 0.
386.631 -490.481 0.
339.862 -583.712 0.
304.618 -667.72 0.
269.374 -751.728 0.
64.6361 -766.426 0.
136.122 -601.299 0.
207.608 -436.173 0.
562.364 -326.671 0.
525.775 -409.164 0.
353.125 -531.35 0.
401.774 -416.461 0.
450.424 -301.572 0.
336.591 -295.04 0.
318.285 -338.755 0.
299.979 -382.469 0.
347.189 -325.705 0.
398.057 -211.023 0.
448.925 -96.3408 0.
-157.292 -274.109 0.
-113.208 -171.64 0.
275.962 82.5861 0.
205.841 -145.331 0.
100.8 -388.593 0.
494.015 -368.764 0.
508.872 -335.306 0.
523.729 -301.849 0.
218.778 -363.82 0.
271.972 -239.591 0.
325.166 -115.362 0.
-39.0696 -265.136 0.
-55.8346 -300.735 0.
-72.5996 -336.334 0.
-210.93 -328.777 0.
-174.555 -244.018 0.
306.829 14.2328 0.
263.065 -87.8346 0.
219.301 -189.902 0.
-108.893 -377.319 0.
-96.2022 -347.398 0.
-83.5114 -317.477 0.
430.894 -88.2793 0.
427.19 -98.5301 0.
423.486 -108.782 0.
-137.942 -377.179 0.
-149.872 -404.834 0.
-876.972 -897.162 0.
134.063 -358.779 0.
226.4 -143.489 0.
-42.2816 -127.579 0.
-95.885 -254.973 0.
-149.488 -382.366 0.
-144.146 -438.62 0.
-132.972 -412.51 0.
-121.799 -386.399 0.
-2.34623 -324.744 0.
-6.99613 -334.296 0.
-11.6454 -343.848 0.
123.525 -304.481 0.
117.647 -317.733 0.
2.91767 -374.18 0.
-2.75994 -384.037 0.
-8.43696 -393.894 0.
-119.738 -455.413 0.
-135.804 -488.83 0.
-151.87 -522.247 0.
-59.2121 -487.053 0.
-50.601 -466.107 0.
-41.9897 -445.161 0.
28.3253 -423.922 0.
19.6618 -442.977 0.
122.049 -413.811 0.
550.258 -96.0289 0.
619.061 63.1438 0.
411.69 27.8422 0.
322.767 -184.986 0.
233.843 -397.815 0.
201.295 -411.37 0.
307.742 -161.043 0.
414.188 89.2845 0.
588.125 160.329 0.
534.322 33.2478 0.
480.518 -93.8339 0.
290.622 -212.445 0.
273.339 -253.722 0.
572.09 -151.58 0.
600.783 -86.2726 0.
629.476 -20.965 0.
516.71 -79.9705 0.
448.579 -238.86 0.
380.449 -397.75 0.
426.252 -455.4 0.
409.227 -496.577 0.
392.203 -537.754 0.
791.481 -355.962 0.
801.825 -330.23 0.
1560.59 16.1403 0.
302.453 -448.26 0.
344.623 -354.496 0.
516.402 -241.83 0.
476.337 -338.845 0.
436.271 -435.861 0.
189.536 -618.786 0.
153.756 -702.252 0.
117.976 -785.718 0.
279.835 -644.539 0.
350.55 -478.849 0.
421.265 -313.161 0.
748.995 -215.693 0.
712.348 -298.597 0.
354.176 -500.593 0.
402.425 -385.221 0.
450.674 -269.848 0.
344.004 -261.158 0.
325.352 -304.293 0.
306.7 -347.427 0.
247.632 -337.505 0.
298.429 -222.734 0.
349.226 -107.962 0.
33.0949 -161.144 0.
76.8221 -58.2708 0.
345.904 142.49 0.
156.104 -136.351 0.
50.9376 -379.395 0.
248.54 -443.656 0.
262.835 -409.439 0.
277.13 -375.221 0.
294.334 -301.179 0.
347.653 -176.848 0.
400.972 -52.5173 0.
-29.4753 -227.543 0.
-46.4668 -263.309 0.
-63.4582 -299.075 0.
-138.643 -268.068 0.
-103.166 -182.772 0.
294.633 39.889 0.
250.987 -62.2786 0.
207.341 -164.446 0.
-81.6113 -334.193 0.
-69.4431 -303.706 0.
-57.275 -273.218 0.
171.524 -169.119 0.
168.139 -179.679 0.
164.754 -190.239 0.
-73.4547 -318.217 0.
-84.963 -346.424 0.
-742.023 -144.007 0.
811.529 718.721 0.
202.52 -701.609 0.
-293.903 -288.898 0.
217.848 907.271 0.
82.7486 594.189 0.
782.45 1846.43 0.
119.626 299.339 0.
-61.2347 -122.352 0.
264.956 285.056 0.
182.759 93.2136 0.
265.626 286.603 0.
179.803 13.8526 0.
-5.44788 -419.149 0.
739.151 939.672 0.
671.12 781.292 0.
348.356 29.6525 0.
-102.772 -266.459 0.
218.766 485.626 0.
126.354 271.171 0.
92.3432 -225.437 0.
545.674 829.258 0.
717.47 1226.91 0.
104.582 -173.219 0.
18.8351 -366.928 0.
875.174 29.7993 0.
737.025 284.473 0.
870.709 597.401 0.
371.24 167.932 0.
427.897 295.773 0.
213.478 -208.013 0.
430.599 69.8254 0.
481.829 188.022 0.
578.484 412.37 0.
908.556 570.147 0.
880.151 505.149 0.
647.782 -36.0329 0.
151.198 63.5925 0.
72.0781 -124.53 0.
520.26 -218.678 0.
308.056 -714.715 0.
578.612 -84.3162 0.
884.166 465.556 0.
1035.16 819.054 0.
841.568 368.662 0.
839.729 529.638 0.
724.002 262.198 0.
788.343 414.972 0.
1453.32 911.437 0.
1504.42 1030.53 0.
-1628.99 -951.806 0.
496.436 246.551 0.
615.021 521.732 0.
906.832 613.246 0.
837.551 450.228 0.
759.514 266.619 0.
-17.0181 -791.918 0.
-90.6068 -964.319 0.
177.465 -339.353 0.
975.661 605.306 0.
893.384 414.659 0.
759.219 102.879 0.
1045.57 149.502 0.
1143.2 383.488 0.
183.096 -864.768 0.
240.118 -728.337 0.
751.539 468.735 0.
418.371 -73.1081 0.
257.314 -447.315 0.
310.667 -320.694 0.
130.685 -403.046 0.
317.986 36.3465 0.
-12.7094 -733.808 0.
221.764 -52.2444 0.
525.613 659.309 0.
139.945 253.002 0.
544.155 889.693 0.
-0.879428 -382.347 0.
226.533 3.32291 0.
322.335 223.893 0.
192.698 -81.5511 0.
324.981 -346.937 0.
271.99 -463.899 0.
588.024 281.292 0.
370.059 712.546 0.
46.8577 -43.0257 0.
-49.3238 -269.058 0.
337.968 743.457 0.
542.968 1225.65 0.
302.716 113.307 0.
832.609 1349.59 0.
147.442 -250.589 0.
-2.20947 -158.087 0.
371.337 712.782 0.
254.648 439.142 0.
-230.826 -599.246 0.
213.608 441.636 0.
-6.40104 -68.2913 0.
743.127 1484.56 0.
248.126 325.64 0.
-1086.9 -534.287 0.
231.152 31.0905 0.
210.866 -14.2702 0.
-261.116 -274.078 0.
-298.382 -360.728 0.
-335.649 -447.377 0.
-85.8467 -367.349 0.
-81.9072 -357.889 0.
-77.9683 -348.429 0.
262.937 -163.841 0.
298.972 -81.4486 0.
335.008 0.94383 0.
8.04242 -254.35 0.
-65.3482 -428.138 0.
-246.632 -632.683 0.
-229.277 -596.371 0.
-211.922 -560.058 0.
67.7682 -399.095 0.
101.414 -321.527 0.
135.061 -243.959 0.
30.7553 -236.512 0.
48.6754 -196.241 0.
66.5954 -155.97 0.
272.673 -9.55014 0.
308.995 77.0221 0.
813.548 364.08 0.
446.687 -74.3848 0.
299.809 -416.121 0.
-17.0303 -734.176 0.
50.8661 -574.112 0.
118.762 -414.048 0.
397.033 -291.664 0.
323.933 -464.048 0.
250.834 -636.432 0.
308.161 -484.575 0.
440.35 -173.512 0.
572.539 137.55 0.
283.512 -47.4889 0.
234.199 -165.79 0.
674.391 -84.2138 0.
574.725 -316.949 0.
475.059 -549.685 0.
240.686 -737.304 0.
302.969 -592.974 0.
365.253 -448.644 0.
421.475 -374.468 0.
417.912 -381.039 0.
414.348 -387.61 0.
795.67 -244.497 0.
784.116 -273.588 0.
-3067.13 -1949.93 0.
442.824 -428 0.
451.705 -405.795 0.
472.329 -385.98 0.
460.352 -411.268 0.
448.375 -436.557 0.
141.305 -573.776 0.
151.102 -552.045 0.
160.899 -530.315 0.
426.713 -428.698 0.
414.878 -457.705 0.
403.044 -486.713 0.
798.519 -265.756 0.
827.534 -195.926 0.
302.541 -358.086 0.
341.168 -266.274 0.
379.796 -174.463 0.
528.55 -89.6764 0.
484.316 -190.898 0.
440.081 -292.119 0.
49.0712 -491.645 0.
46.4459 -491.943 0.
43.8208 -492.241 0.
64.4268 -493.154 0.
54.8058 -514.13 0.
549.117 -319.547 0.
-212.699 -647.799 0.
-212.345 -648.02 0.
54.9939 -493.029 0.
152.599 -269.35 0.
250.205 -45.67 0.
329.421 -58.5794 0.
165.931 -437.86 0.
2.44006 -817.141 0.
-87.8847 -846.215 0.
-4.88005 -657.066 0.
78.1243 -467.917 0.
-150.914 -551.384 0.
-150.274 -548.312 0.
-38.2826 -486.975 0.
10.2214 -372.524 0.
58.7257 -258.073 0.
-44.3007 -233.268 0.
-29.7304 -201.301 0.
-15.1603 -169.334 0.
-85.5008 -256.106 0.
-147.001 -398.419 0.
-208.5 -540.734 0.
23.6546 -384.391 0.
75.6376 -263.641 0.
-629.431 -311.709 0.
-102.432 -82.6659 0.
-122.916 -127.858 0.
-210.865 -220.6 0.
-247.337 -308.06 0.
-283.81 -395.519 0.
28.8613 -285.183 0.
33.7051 -276.262 0.
38.5484 -267.342 0.
512.833 -23.994 0.
548.937 58.3925 0.
585.041 140.779 0.
-42.0973 -243.851 0.
-115.349 -417.849 0.
-610.704 -757.148 0.
-593.75 -720.704 0.
-576.796 -684.26 0.
366.799 -239.851 0.
400.166 -162.145 0.
433.534 -84.4384 0.
-23.6415 -228.305 0.
-5.32893 -188.388 0.
12.9837 -148.47 0.
411.644 80.8441 0.
448.527 167.11 0.
393.018 213.474 0.
293.604 -107.72 0.
147.511 -450.059 0.
-4.73778 -698.022 0.
63.2113 -538.072 0.
131.16 -378.124 0.
557.2 -191.847 0.
484.032 -363.989 0.
410.865 -536.13 0.
145.508 -523.564 0.
277.904 -213.198 0.
410.3 97.1685 0.
520.959 86.2404 0.
471.677 -32.2283 0.
808.15 5.33159 0.
709.018 -228.097 0.
609.886 -461.525 0.
103.384 -764.747 0.
165.824 -620.832 0.
228.264 -476.917 0.
396.596 -353.602 0.
393.465 -360.729 0.
390.335 -367.857 0.
609.519 -292.725 0.
598.323 -322.062 0.
-1021.79 -1040.52 0.
749.987 -263.563 0.
759.266 -241.554 0.
476.808 -353.459 0.
464.733 -378.501 0.
452.658 -403.543 0.
239.163 -500.593 0.
249.179 -479.073 0.
259.196 -457.553 0.
312.908 -446.195 0.
301.398 -475.316 0.
289.888 -504.438 0.
729.966 -263.13 0.
759.227 -193.559 0.
198.173 -371.525 0.
236.448 -279.501 0.
274.724 -187.478 0.
691.223 10.5014 0.
646.685 -90.7682 0.
602.146 -192.038 0.
12.0273 -475.619 0.
9.32075 -476.522 0.
6.61437 -477.424 0.
117.034 -440.336 0.
107.016 -461.158 0.
1193.85 -12.207 0.
-316.798 -659.578 0.
-316.841 -659.254 0.
119.11 -437.043 0.
216.643 -212.689 0.
314.176 11.6656 0.
202.596 -81.8036 0.
39.6203 -461.059 0.
-123.355 -840.313 0.
185.299 -698.284 0.
268.336 -509.005 0.
351.373 -319.726 0.
-50.1199 -475.938 0.
-48.8576 -473.288 0.
-130.867 -493.851 0.
-82.1124 -379.723 0.
-33.3572 -265.594 0.
-39.0076 -201.095 0.
-24.7045 -168.999 0.
-10.4017 -136.903 0.
-68.6978 -216.614 0.
-129.98 -359.348 0.
-191.262 -502.083 0.
139.225 -305.656 0.
190.66 -184.332 0.
-1010.1 -783.045 0.
-320.725 -417.805 0.
-279.527 -323.231 0.
-117.285 -161.546 0.
-29.6623 46.0983 0.
57.9594 253.742 0.
380.094 405.732 0.
279.483 173.87 0.
178.872 -57.9915 0.
468.175 -75.6814 0.
404.515 -222.911 0.
340.855 -370.14 0.
-175.749 -491.31 0.
-102.562 -322.54 0.
-441.898 -335.124 0.
-418.125 -280.622 0.
-394.352 -226.119 0.
591.775 190.079 0.
540.232 67.3748 0.
488.689 -55.3301 0.
-4.08126 -281.157 0.
29.3076 -202.503 0.
62.6957 -123.848 0.
322.192 -175.984 0.
194.477 -473.408 0.
677.047 -507.563 0.
34.7896 -602.381 0.
129.053 -377.927 0.
244.267 -159.431 0.
296.469 -36.9392 0.
348.671 85.5531 0.
730.507 202.469 0.
606.399 -84.3076 0.
482.291 -371.084 0.
104.903 -564.107 0.
146.096 -469.159 0.
187.289 -374.211 0.
503.001 -149.771 0.
548.896 -40.7314 0.
840.074 148.722 0.
773.21 -3.82681 0.
706.346 -156.375 0.
236.893 -386.922 0.
326.906 -176.086 0.
416.919 34.751 0.
608.231 148.732 0.
567.282 54.8591 0.
526.333 -39.0135 0.
643.945 -150.268 0.
551.394 -367.223 0.
1355.84 -199.064 0.
988 -83.8571 0.
1130.86 250.079 0.
677.774 238.736 0.
609.813 76.5736 0.
541.852 -85.5888 0.
347.759 -277.13 0.
304.241 -380.043 0.
260.724 -482.956 0.
137.082 -540.933 0.
155.61 -498.066 0.
174.139 -455.199 0.
756.507 -169.688 0.
776.856 -122.308 0.
213.981 -329.08 0.
222.07 -311.007 0.
230.158 -292.934 0.
655.335 -93.7096 0.
670.874 -57.4669 0.
686.414 -21.2243 0.
111.725 -195.933 0.
158.713 -91.498 0.
205.7 12.9369 0.
320.659 -176.562 0.
152.792 -569.839 0.
462.515 -752.335 0.
-310.144 -674.333 0.
-93.6823 -171.898 0.
421.422 316.924 0.
314.224 67.9195 0.
207.027 -181.086 0.
14.8101 -371.927 0.
19.6512 -362.368 0.
24.493 -352.809 0.
429.682 -194.942 0.
414.414 -226.537 0.
399.147 -258.131 0.
97.078 -294.05 0.
149.596 -170.2 0.
-85.451 -177.115 0.
-72.5923 -150.307 0.
-59.7338 -123.498 0.
36.9258 -96.0198 0.
-1.78311 -186.175 0.
-40.4918 -276.33 0.
4.45122 -282.961 0.
7.61743 -276.155 0.
10.7847 -269.349 0.
160.865 -280.867 0.
111.971 -398.425 0.
46.5593 -301.457 0.
-168.007 -323.015 0.
-126.905 -228.548 0.
11.2253 -74.3459 0.
99.2846 132.759 0.
187.343 339.865 0.
427.39 458.823 0.
327.052 226.698 0.
226.715 -5.42729 0.
212.019 -154.38 0.
148.966 -302.387 0.
85.9123 -450.394 0.
-158.755 -451.409 0.
-85.1951 -283.253 0.
-101.016 -157.375 0.
-77.5235 -102.632 0.
-54.0311 -47.8899 0.
455.139 163.489 0.
403.502 40.6204 0.
351.864 -82.2484 0.
180.373 -169.803 0.
213.599 -90.9748 0.
246.825 -12.1472 0.
273.16 -165.244 0.
145.15 -462.096 0.
1058.18 -310.657 0.
101.397 -542.942 0.
195.947 -318.749 0.
303.58 -101.667 0.
355.966 20.6636 0.
408.352 142.995 0.
616.967 185.105 0.
492.793 -101.739 0.
368.619 -388.583 0.
238.152 -476.786 0.
279.016 -381.935 0.
319.88 -287.084 0.
508.63 -115.109 0.
554.887 -6.55024 0.
668.352 107.707 0.
601.909 -45.2173 0.
535.466 -198.142 0.
323.2 -317.847 0.
413.566 -107.794 0.
503.933 102.259 0.
656.627 201.843 0.
615.714 107.774 0.
574.802 13.7051 0.
806.989 -49.223 0.
714.525 -266.28 0.
-1856.9 -1544.47 0.
1084.29 -10.7099 0.
1226.85 323.193 0.
595.583 233.717 0.
527.37 71.6776 0.
459.158 -90.3622 0.
308.486 -262.048 0.
264.985 -364.952 0.
221.483 -467.856 0.
-47.7959 -588.377 0.
-28.5752 -545.71 0.
-9.35395 -503.043 0.
833.846 -104.558 0.
854.683 -57.5382 0.
336.902 -244.691 0.
345.116 -226.759 0.
353.329 -208.827 0.
559.58 -103.188 0.
574.151 -66.5189 0.
588.723 -29.8504 0.
136.743 -155.05 0.
183.088 -50.7239 0.
229.433 53.6026 0.
527.598 -57.5198 0.
359.402 -450.791 0.
5.28462 -917.408 0.
-146.387 -572.658 0.
69.8812 -70.0984 0.
336.902 311.804 0.
229.829 62.56 0.
122.757 -186.684 0.
20.5771 -336.09 0.
25.5425 -326.542 0.
30.5083 -316.994 0.
268.792 -232.144 0.
254.093 -263.932 0.
239.394 -295.721 0.
190.073 -221.288 0.
242.563 -97.1915 0.
-170.481 -182.319 0.
-157.442 -155.348 0.
-144.403 -128.376 0.
135 -24.6878 0.
96.2335 -114.69 0.
57.4668 -204.691 0.
248.033 -147.138 0.
251.585 -140.693 0.
255.137 -134.249 0.
112.847 -271.166 0.
64.2536 -389.314 0.
-239.125 277.701 0.
-77.0486 -365.592 0.
140.618 140.208 0.
49.4673 -197.277 0.
-22.901 -361.937 0.
173.934 100.519 0.
-36.0477 -685.149 0.
395.128 323.769 0.
235.76 -45.1798 0.
387.462 763.836 0.
297.305 552.21 0.
176.87 270.421 0.
241.875 482.725 0.
247.279 497.674 0.
168.094 -127.261 0.
511.703 672.429 0.
143.423 -188.692 0.
136.101 -297.218 0.
101.925 -374.465 0.
366.483 244.427 0.
365.112 -46.6406 0.
307.833 -183.915 0.
365.079 -53.8006 0.
-29.5193 -741.844 0.
282.683 -11.6876 0.
279.993 979.327 0.
721.949 811.662 0.
564.307 443.721 0.
359.025 -44.5093 0.
520.732 330.55 0.
720.952 796.018 0.
483.899 115.631 0.
457.559 55.4892 0.
423.785 -21.553 0.
830.861 678.623 0.
758.081 507.274 0.
319.516 -516.744 0.
911.202 843.863 0.
809.982 607.403 0.
342.394 -288.147 0.
324.954 -331.984 0.
402.132 -154.9 0.
411.719 -241.659 0.
464.882 -119.396 0.
383.693 -310.428 0.
652.879 138.549 0.
872.065 649.551 0.
381.001 -496.652 0.
874.944 -174.423 0.
771.338 -420.247 0.
-698.513 -1714.41 0.
1282.93 326.333 0.
1505.69 845.891 0.
633.85 496.547 0.
630.523 487.943 0.
562.568 329.138 0.
461.708 207.599 0.
525.354 354.11 0.
336.058 -89.5043 0.
-303.707 -810.345 0.
-40.2797 -197.019 0.
333.314 673.12 0.
926.663 -9.9114 0.
991.955 140.576 0.
678.058 352.861 0.
416.004 -260.684 0.
319.874 -486.967 0.
440.101 -172.515 0.
459.501 -125.179 0.
417.474 -220.862 0.
38.2432 -403.079 0.
272.299 142.371 0.
474.051 613.327 0.
578.282 -291.492 0.
626.788 -173.893 0.
-229.351 -662.411 0.
640.732 979.091 0.
70.6963 -352.28 0.
167.557 115.348 0.
184.062 149.526 0.
-61.5246 -427.663 0.
28.634 -289.864 0.
380.634 529.985 0.
55.7992 -229.56 0.
99.747 -292.17 0.
473.868 579.792 0.
225.575 -0.661147 0.
553.112 492.662 0.
527.107 434.271 0.
-571.147 -943.131 0.
83.9322 586.026 0.
-19.4691 345.551 0.
-34.4489 -580.569 0.
534.131 748.556 0.
508.9 690.865 0.
914.458 991.797 0.
735.986 577.755 0.
802.479 734.144 0.
282.802 244.019 0.
571.522 919.767 0.
-163.323 -509.499 0.
-39.9393 -506.663 0.
-56.3289 -543.909 0.
-61.7946 -554.092 0.
-25.1924 -466.569 0.
11.4098 -379.046 0.
47.0959 -235.025 0.
152.441 11.5237 0.
257.785 258.072 0.
239.368 283.527 0.
208.387 213.517 0.
177.406 143.507 0.
128.046 48.8367 0.
84.3299 -49.0069 0.
148.199 -104.653 0.
129.942 -148.13 0.
111.685 -191.606 0.
89.9404 -172.738 0.
169.155 16.8602 0.
248.369 206.458 0.
426.327 177.803 0.
254.353 -223.056 0.
82.3796 -623.914 0.
174.968 -508.681 0.
284.763 -253.106 0.
-502.06 -381.851 0.
377.104 -33.4226 0.
354.501 -86.0557 0.
247.751 -198.94 0.
183.82 -349.347 0.
119.89 -499.755 0.
295.35 -476.978 0.
314.635 -434.844 0.
333.92 -392.71 0.
310.423 -360.814 0.
333.283 -306.703 0.
356.142 -252.592 0.
561.013 -222.036 0.
522.744 -309.717 0.
325.882 -442.721 0.
399.88 -266.787 0.
473.877 -90.8529 0.
370.579 -113.307 0.
251.935 -389.966 0.
133.291 -666.625 0.
182.782 -628.057 0.
296.575 -366.661 0.
410.369 -105.264 0.
1142.07 157.645 0.
1074.1 -1.83722 0.
-1255.72 -1132.57 0.
903.11 -123.112 0.
949.254 -18.7534 0.
427.894 -166.025 0.
451.386 -111.016 0.
474.879 -56.0068 0.
278.181 -117.679 0.
281.686 -109.108 0.
285.191 -100.538 0.
52.9596 -289.36 0.
-24.1484 -464.017 0.
-101.256 -638.674 0.
833.22 -240.147 0.
842.668 -217.171 0.
401.057 -401.201 0.
344.248 -537.903 0.
287.439 -674.605 0.
154.474 -725.882 0.
275.554 -443.456 0.
396.632 -161.031 0.
104.435 -284.842 0.
18.7337 -487.064 0.
-66.968 -689.288 0.
384.122 -346.272 0.
508.207 -56.7723 0.
642.184 236.968 0.
125.076 -128.258 0.
49.2378 -306.588 0.
120.59 -410.317 0.
80.8507 -506.37 0.
41.111 -602.424 0.
-81.1588 -575.043 0.
60.7332 -240.274 0.
202.625 94.4943 0.
326.517 182.148 0.
280.016 74.1593 0.
233.516 -33.8287 0.
284.275 -28.9926 0.
278.793 -40.0697 0.
30.5221 -147.843 0.
62.8629 -70.4388 0.
95.2043 6.96556 0.
-23.9053 -27.7397 0.
-67.9091 -129.933 0.
-111.913 -232.126 0.
276.699 -152.571 0.
231.823 -255.422 0.
186.947 -358.272 0.
79.8357 -346.434 0.
126.324 -232.778 0.
1147.24 83.9173 0.
93.1474 -417.471 0.
76.8308 -454.754 0.
6.01311 -494.532 0.
42.4227 -407.044 0.
78.8325 -319.556 0.
-67.6968 -253.142 0.
37.7607 -6.90895 0.
143.218 239.324 0.
326.106 352.663 0.
295.174 282.135 0.
264.241 211.607 0.
231.016 123.98 0.
187.365 25.6459 0.
129.508 -79.5385 0.
111.501 -123.426 0.
93.4931 -167.312 0.
-14.5808 -184.121 0.
64.7402 5.30975 0.
144.061 194.74 0.
397.585 195.699 0.
226.054 -205.798 0.
54.5233 -607.295 0.
321.373 -413.58 0.
432.155 -158.306 0.
-295.068 -261.953 0.
412.896 14.3788 0.
390.876 -38.5537 0.
208.776 -183.409 0.
145.17 -333.773 0.
81.5634 -484.138 0.
392.162 -404.103 0.
411.42 -361.951 0.
430.678 -319.799 0.
232.972 -363.784 0.
255.577 -309.496 0.
278.181 -255.208 0.
712.753 -124.125 0.
674.105 -211.729 0.
397.534 -381.525 0.
471.213 -205.65 0.
544.891 -29.7756 0.
268.169 -125.484 0.
149.56 -402.387 0.
30.9513 -679.29 0.
28.5636 -662.605 0.
141.855 -400.705 0.
255.147 -138.804 0.
1310.56 260.429 0.
1242.17 101.14 0.
-857.151 -930.252 0.
692.241 -182.654 0.
738.355 -78.6798 0.
536.843 -85.4452 0.
561.238 -31.388 0.
585.632 22.6691 0.
244.875 -100.706 0.
248.82 -92.3189 0.
252.764 -83.9321 0.
227.36 -182.582 0.
150.887 -357.462 0.
74.4136 -532.342 0.
855.448 -198.466 0.
865.406 -176.126 0.
477.58 -335.023 0.
420.94 -472.415 0.
364.298 -609.808 0.
114.501 -711.33 0.
235.311 -429.277 0.
356.12 -147.224 0.
141.165 -236.995 0.
55.6322 -439.525 0.
-29.9007 -642.056 0.
187.049 -399.91 0.
311.12 -110.545 0.
372.528 152.764 0.
94.8416 -109.269 0.
18.8893 -287.591 0.
355.096 -277.186 0.
316.143 -373.872 0.
277.19 -470.56 0.
-50.1589 -527.694 0.
91.7057 -192.814 0.
233.57 142.066 0.
371.755 232.652 0.
325.107 124.995 0.
278.459 17.3376 0.
246.38 -14.6863 0.
241.335 -25.9209 0.
360.915 26.2884 0.
393.865 102.996 0.
426.815 179.704 0.
-284.176 -106.585 0.
-328.214 -208.436 0.
-372.254 -310.287 0.
113.009 -191.529 0.
68.157 -294.269 0.
23.3048 -397.009 0.
156.683 -283.154 0.
202.54 -169.233 0.
439.729 141.517 0.
313.559 163.186 0.
351.76 250.974 0.
306.015 268.548 0.
258.143 155.236 0.
210.27 41.9237 0.
45.15 -114.17 0.
-0.0512295 -216.612 0.
-45.2524 -319.053 0.
136.586 -177.561 0.
214.209 1.45185 0.
291.832 180.465 0.
203.405 107.655 0.
167.308 23.9552 0.
187.098 -32.4495 0.
181.613 -45.2501 0.
176.128 -58.0506 0.
60.6231 -151.284 0.
7.46742 -277.816 0.
-45.6884 -404.348 0.
202.229 -252.955 0.
292.326 -45.0974 0.
382.422 162.761 0.
601.255 227.177 0.
551.649 113.785 0.
776.676 118.138 0.
391.254 -30.5956 0.
400.759 -2.52757 0.
192.847 -86.0203 0.
135.689 -219.319 0.
78.5308 -352.618 0.
513.736 -195.031 0.
561.713 -80.5182 0.
609.689 33.9939 0.
305.529 -126.477 0.
254.582 -243.16 0.
203.635 -359.842 0.
708.695 -209.19 0.
677.097 -286.436 0.
363.282 -473 0.
382.43 -434.819 0.
401.579 -396.638 0.
118.573 -454.643 0.
183.66 -302.359 0.
248.747 -150.074 0.
320.302 -133.885 0.
252.584 -291.042 0.
184.867 -448.198 0.
1099.5 -70.5003 0.
1110.28 -44.8401 0.
465.887 -301.91 0.
591.746 -222.461 0.
604.164 -192.069 0.
498.388 -213.303 0.
517.897 -166.676 0.
537.407 -120.051 0.
192.412 -211.241 0.
233.612 -115.371 0.
274.813 -19.5012 0.
455.017 -14.1645 0.
381.764 -187.81 0.
308.51 -361.455 0.
724.635 -222.571 0.
705.776 -262.792 0.
438.936 -403.104 0.
439.739 -395.8 0.
440.542 -388.496 0.
213.447 -483.646 0.
219.059 -472.019 0.
224.672 -460.392 0.
34.8971 -493.807 0.
72.6799 -403.685 0.
110.463 -313.562 0.
99.4422 -363.258 0.
60.3951 -451.294 0.
572.385 -299.546 0.
-46.5242 -633.235 0.
-82.7618 -715.755 0.
274.407 -557.229 0.
395.038 -269.216 0.
515.668 18.7956 0.
174.95 -36.9361 0.
136.067 -127.291 0.
97.1848 -217.645 0.
223.955 -175.56 0.
229.516 -161.27 0.
235.077 -146.979 0.
216.159 -155.763 0.
215.159 -158.492 0.
384.864 -88.6175 0.
383.809 -90.1283 0.
382.754 -91.6387 0.
-459.64 -451.91 0.
-456.092 -445.16 0.
-452.545 -438.409 0.
120.813 -85.2971 0.
216.343 137.494 0.
311.873 360.286 0.
203.345 -1.43187 0.
-31.0925 -552.168 0.
-136.927 -74.0769 0.
155.928 126.504 0.
194.11 214.388 0.
212.473 258.951 0.
164.69 145.633 0.
116.907 32.3144 0.
310.786 32.2965 0.
265.527 -70.3985 0.
220.269 -173.093 0.
170.922 -133.409 0.
248.071 46.1454 0.
325.22 225.7 0.
86.8175 88.6748 0.
50.6829 5.25009 0.
317.196 53.1555 0.
311.491 40.5034 0.
305.786 27.8514 0.
338.398 0.125969 0.
285.406 -126.502 0.
232.413 -253.13 0.
258.015 -198.377 0.
348.219 9.30752 0.
438.422 216.992 0.
502.977 214.766 0.
452.987 102.043 0.
987.041 240.627 0.
377.583 -4.24369 0.
387.464 23.5522 0.
123.791 -85.8404 0.
66.6809 -218.921 0.
9.57079 -352.001 0.
525.481 -157.424 0.
573.808 -43.4203 0.
622.134 70.5839 0.
347.631 -76.432 0.
296.757 -193.347 0.
245.883 -310.262 0.
665.776 -195.461 0.
633.743 -272.681 0.
363.128 -441.862 0.
381.948 -403.568 0.
400.768 -365.275 0.
232.744 -373.71 0.
297.602 -221.109 0.
362.459 -68.5082 0.
651.729 38.5539 0.
584.165 -118.648 0.
516.602 -275.85 0.
792.759 -169.958 0.
803.782 -144.719 0.
-972.49 -886.101 0.
630.056 -174.422 0.
643.055 -144.396 0.
463.917 -193.626 0.
484.249 -147.722 0.
504.582 -101.819 0.
238.19 -160.156 0.
279.445 -64.4011 0.
320.701 31.3542 0.
705.877 126.084 0.
632.227 -47.068 0.
558.578 -220.22 0.
461.545 -304.75 0.
442.565 -344.922 0.
358.457 -405.606 0.
359.544 -398.933 0.
360.63 -392.261 0.
299.637 -414.339 0.
305.137 -402.803 0.
310.638 -391.268 0.
34.1201 -463.296 0.
72.6154 -373.764 0.
111.111 -284.233 0.
71.6549 -343.119 0.
32.7079 -431.248 0.
927.055 -116.648 0.
214.579 -489.703 0.
178.113 -571.549 0.
158.775 -575.38 0.
280.306 -287.771 0.
401.835 -0.162841 0.
214.958 10.9868 0.
176.53 -79.365 0.
138.103 -169.717 0.
279.114 -119.373 0.
284.67 -105.357 0.
290.226 -91.3414 0.
347.94 -67.0728 0.
346.893 -70.0153 0.
287.698 -99.7134 0.
286.661 -101.011 0.
285.624 -102.308 0.
-243.106 -327.547 0.
-239.711 -320.374 0.
-236.317 -313.202 0.
215.552 -12.9655 0.
310.821 210.216 0.
406.09 433.398 0.
-24.085 -69.109 0.
-258.723 -619.522 0.
58.9006 350.933 0.
-255.258 -507.822 0.
117.161 360.574 0.
266.815 583.843 0.
-222.321 -553.519 0.
-18.1477 -75.9275 0.
482.123 -38.623 0.
454.97 -102.387 0.
363.734 -316.313 0.
386.863 335.721 0.
238.172 -14.6704 0.
253.994 19.0837 0.
-56.1974 -9.90923 0.
-162.621 -259.573 0.
30.0065 -830.831 0.
528.36 334.241 0.
836.116 1054.93 0.
734.331 434.215 0.
681.314 307.312 0.
533.114 -40.6019 0.
297.538 -190.999 0.
241.322 -322.316 0.
305.205 -174.715 0.
424.691 245.939 0.
687.645 860.487 0.
640.816 71.694 0.
353.229 -5.80251 0.
435.49 184.92 0.
40.8751 -138.15 0.
11.8067 -199.867 0.
-47.1276 -330.814 0.
595.126 26.3537 0.
744.67 374.757 0.
913.691 768.08 0.
651.627 577.877 0.
403.257 -0.292939 0.
255.575 -343.409 0.
552.365 -347.257 0.
749.838 112.31 0.
380.393 -380.615 0.
516.052 -61.7517 0.
749.952 486.382 0.
734.626 618.086 0.
392.585 -178.788 0.
196.356 -635.447 0.
904.648 42.2128 0.
957.06 162.718 0.
1039.09 352.469 0.
500.411 -254.987 0.
708.916 229.408 0.
-1247.35 -638.347 0.
709.736 -6.91491 0.
693.381 -47.6791 0.
409.313 -232.491 0.
67.2418 -1028.52 0.
627.417 280.496 0.
864.97 1239.47 0.
621.409 672.561 0.
270.76 -144.263 0.
763.822 -175.793 0.
786.303 -122.908 0.
765.84 -170.282 0.
686.118 747.373 0.
618.862 589.613 0.
443.405 -20.4251 0.
485.465 77.4608 0.
386.695 -152.727 0.
330.205 -482.514 0.
43.8157 -1155.42 0.
317.317 -521.595 0.
208.06 -33.2248 0.
303.537 189.81 0.
340.243 275.668 0.
487.615 716.203 0.
460.899 656.369 0.
300.23 62.8301 0.
572.439 -122.962 0.
386.923 -555.873 0.
-153.284 -1044.91 0.
273.442 -48.774 0.
310.364 38.1628 0.
288.145 133.758 0.
-223.191 -1056.06 0.
60.3698 -391.629 0.
635.845 642.777 0.
651.626 678.933 0.
251.758 -254.977 0.
337.173 -314.45 0.
410.384 -142.811 0.
277.496 91.9851 0.
422.885 433.167 0.
463.688 528.648 0.
193.542 314.827 0.
301.533 569.211 0.
80.9392 56.523 0.
789.528 1189.65 0.
496.836 508.944 0.
459.392 421.537 0.
-316.997 -305.469 0.
-246.736 -144.119 0.
-110.499 27.0738 0.
100.783 -50.0894 0.
7.27112 -267.311 0.
-166.254 -424.611 0.
-31.4648 -108.55 0.
103.324 207.51 0.
388.362 290.358 0.
166.408 -231.401 0.
-55.5467 -753.16 0.
0.244586 -707.335 0.
136.257 -391.851 0.
272.27 -76.3674 0.
129.868 -168.23 0.
94.6698 -251.966 0.
286.057 -232.284 0.
276.41 -255.284 0.
266.763 -278.284 0.
371.566 -211.188 0.
428.555 -79.8157 0.
485.545 51.5571 0.
290.032 -69.6307 0.
205.624 -264.906 0.
121.217 -460.181 0.
222.305 -287.1 0.
339.449 -17.9239 0.
199.628 141.341 0.
481.281 165.88 0.
429.552 41.7403 0.
146.281 -168.437 0.
131.838 -202.457 0.
117.397 -236.478 0.
363.598 -143.922 0.
371.912 -127.469 0.
380.225 -111.017 0.
326.189 -102.608 0.
345.86 -58.7039 0.
365.531 -14.8003 0.
898.311 180.286 0.
880.095 137.262 0.
499.129 -67.0617 0.
453.671 -170.494 0.
408.214 -273.926 0.
272.769 -422.527 0.
222.461 -540.525 0.
172.153 -658.523 0.
632.213 -442.059 0.
688.462 -311.362 0.
744.712 -180.665 0.
643.278 -76.8881 0.
728.2 120.6 0.
-560.541 -271.542 0.
604.102 -46.4814 0.
459.163 -383.476 0.
283.893 -647.587 0.
330.318 -533.497 0.
376.743 -419.408 0.
216.995 -416.04 0.
240.818 -361.62 0.
264.642 -307.2 0.
731.156 -72.5296 0.
748.093 -32.3271 0.
765.03 7.87523 0.
142.938 -352.179 0.
84.5582 -489.373 0.
295.868 -484.252 0.
356.351 -343.253 0.
416.834 -202.253 0.
431.668 -134.387 0.
400.715 -208.365 0.
369.762 -282.342 0.
183.404 -285.269 0.
280.291 -55.7825 0.
377.178 173.703 0.
383 186.183 0.
361.868 135.196 0.
245.975 45.1444 0.
590.709 157.517 0.
575.024 116.97 0.
181.652 -71.7285 0.
178.697 -79.1426 0.
175.741 -86.557 0.
82.9065 -167.613 0.
42.2783 -263.825 0.
1.65026 -360.038 0.
277.188 -269.261 0.
277.664 -266.202 0.
278.14 -263.143 0.
445.651 -179.918 0.
450.304 -168.924 0.
118.153 -298.43 0.
131.138 -271.011 0.
144.123 -243.592 0.
-83.5492 -292.815 0.
-30.6391 -169.218 0.
22.2711 -45.6196 0.
214.944 47.7735 0.
184.605 -26.0463 0.
154.265 -99.8665 0.
8.59442 56.5257 0.
163.485 413.565 0.
255.351 218.43 0.
310.984 71.5727 0.
217.854 -145.78 0.
-153.393 -387.596 0.
-18.2063 -71.3594 0.
116.98 244.876 0.
120.268 207.49 0.
-100.777 -314.616 0.
-321.823 -836.723 0.
90.5393 -638.347 0.
225.887 -322.711 0.
361.235 -7.07527 0.
457.439 3.58686 0.
422.094 -80.8363 0.
306.989 -190.597 0.
297.653 -214.298 0.
288.316 -237.998 0.
283.832 -218.031 0.
340.682 -86.6293 0.
397.533 44.7727 0.
229.84 -63.6886 0.
145.633 -258.953 0.
61.4271 -454.216 0.
271.746 -235.315 0.
388.778 34.1385 0.
461.383 284.059 0.
568.341 234.551 0.
516.127 111.044 0.
310.057 -67.8072 0.
295.51 -102.095 0.
280.965 -136.384 0.
184.591 -187.969 0.
193.272 -172.323 0.
201.951 -156.678 0.
306.415 -79.3125 0.
326.835 -36.1473 0.
347.255 7.01778 0.
1061.82 282.357 0.
1044.34 238.742 0.
494.761 -35.6686 0.
449.95 -139.636 0.
405.14 -243.603 0.
271.871 -390.388 0.
221.946 -508.783 0.
172.022 -627.177 0.
568.694 -437.794 0.
625.128 -307.254 0.
681.563 -176.714 0.
750.094 1.0945 0.
835.228 198.367 0.
845.344 362.589 0.
501.299 -59.0074 0.
356.483 -395.656 0.
360.638 -582.523 0.
407.339 -468.419 0.
454.04 -354.317 0.
313.899 -343.361 0.
337.64 -288.611 0.
361.38 -233.86 0.
654.969 -72.5832 0.
671.658 -32.2271 0.
688.346 8.12856 0.
70.8505 -351.472 0.
11.725 -487.638 0.
377.184 -418.952 0.
437.182 -277.497 0.
497.18 -136.041 0.
387.856 -123.511 0.
356.334 -197.031 0.
324.813 -270.552 0.
298.994 -205.445 0.
396.068 24.1235 0.
493.141 253.691 0.
546.543 288.046 0.
525.592 237.217 0.
369.388 127.909 0.
485.289 143.714 0.
470.007 103.074 0.
96.1729 -77.3536 0.
93.8677 -84.9928 0.
91.5627 -92.6323 0.
8.7783 -167.986 0.
-31.4069 -264.436 0.
-71.5921 -360.887 0.
331.245 -214.347 0.
331.943 -211.72 0.
332.641 -209.093 0.
524.75 -113.763 0.
529.383 -103.177 0.
145.825 -254.681 0.
158.204 -226.855 0.
170.582 -199.027 0.
-86.9481 -263.872 0.
-34.0331 -139.974 0.
18.882 -16.0768 0.
127.285 42.6256 0.
96.7024 -31.3275 0.
66.1197 -105.281 0.
236.91 184.568 0.
391.366 542.063 0.
-1090.05 -788.205 0.
244.044 -74.5363 0.
337.159 142.992 0.
23.5903 93.4851 0.
-101.967 -198.664 0.
-227.525 -490.812 0.
-158.108 -570.165 0.
-125.526 -489.108 0.
-92.9449 -408.052 0.
239.953 -268.192 0.
216.943 -321.584 0.
193.933 -374.975 0.
505.258 -144.199 0.
571.338 11.5776 0.
392.986 41.8267 0.
353.04 -49.9985 0.
313.094 -141.824 0.
232.009 -234.168 0.
222.21 -254.319 0.
212.411 -274.469 0.
181.402 -276.843 0.
201.685 -228.2 0.
221.967 -179.557 0.
307.73 -199.22 0.
258.976 -309.991 0.
797.536 -170.16 0.
419.327 -211.35 0.
485.254 -58.0504 0.
366.76 -11.5747 0.
361.688 -23.3237 0.
356.616 -35.0732 0.
191.193 -91.8851 0.
214.589 -37.5272 0.
237.985 16.8308 0.
377.518 36.4682 0.
332.856 -68.3854 0.
288.194 -173.239 0.
905.869 45.5111 0.
885.99 -0.916917 0.
417.147 -240.819 0.
396.87 -285.612 0.
376.594 -330.405 0.
352.524 -318.288 0.
420.999 -154.998 0.
489.474 8.29107 0.
661.505 71.2363 0.
595.908 -80.3405 0.
530.31 -231.917 0.
665.807 -188.893 0.
675.363 -166.579 0.
428.182 -252.951 0.
555.829 -26.694 0.
645.718 183.63 0.
702.684 274.919 0.
549.733 -82.8545 0.
396.782 -440.628 0.
289.453 -630.047 0.
307.169 -586.342 0.
324.885 -542.637 0.
438.083 -431.954 0.
476.762 -341.152 0.
515.441 -250.35 0.
162.388 -286.971 0.
226.744 -139.161 0.
578.031 112.139 0.
547.189 40.9977 0.
516.348 -30.1436 0.
343.908 -139.722 0.
353.591 -116.606 0.
363.275 -93.4902 0.
341.901 -158.534 0.
281.619 -297.356 0.
221.337 -436.178 0.
303.58 -270.679 0.
403.383 -31.1798 0.
553.68 228.07 0.
413.868 138.391 0.
396.36 101.59 0.
121.939 -24.367 0.
149.946 46.0043 0.
177.954 116.375 0.
247.936 110.621 0.
168.018 -72.1898 0.
88.1009 -255 0.
310.884 -235.629 0.
286.596 -289.103 0.
262.308 -342.578 0.
369.855 -164.965 0.
449.192 21.9252 0.
309.273 76.7392 0.
230.487 -106.447 0.
151.702 -289.634 0.
-121.747 -421.271 0.
2.23372 -129.671 0.
126.215 161.929 0.
144.551 171.947 0.
52.6555 -41.1562 0.
-39.2394 -254.259 0.
91.2797 -278.492 0.
65.4945 -336.607 0.
12.1446 -287.175 0.
66.8762 -119.754 0.
160.976 97.4703 0.
-19.1615 107.529 0.
-144.052 -184.408 0.
-268.942 -476.345 0.
243.727 -366.244 0.
276.896 -285.307 0.
310.064 -204.37 0.
160.06 -272.481 0.
137.064 -326.194 0.
114.069 -379.907 0.
496.48 -113.978 0.
563.486 40.6773 0.
357.363 57.564 0.
317.584 -34.508 0.
277.805 -126.581 0.
233.733 -200.311 0.
224.648 -221.218 0.
215.563 -242.125 0.
379.581 -160.444 0.
399.372 -111.297 0.
419.164 -62.151 0.
328.457 -162.062 0.
279.894 -273.225 0.
180.639 -405.594 0.
467.094 -157.037 0.
532.899 -3.83954 0.
324.102 0.951194 0.
318.723 -10.8124 0.
313.344 -22.5763 0.
303.939 -11.4595 0.
327.534 42.6059 0.
351.129 96.6714 0.
485.049 113.954 0.
440.569 8.73177 0.
396.09 -96.4901 0.
654.964 -31.2924 0.
635.383 -78.0104 0.
472.621 -185.048 0.
452.345 -229.89 0.
432.07 -274.732 0.
492.714 -227.516 0.
561.142 -64.2365 0.
629.569 99.0428 0.
454.876 12.6925 0.
389.429 -138.89 0.
323.981 -290.473 0.
584.246 -190.752 0.
594.261 -168.596 0.
-25.9689 -416.448 0.
789.021 104.75 0.
878.999 315.313 0.
621.976 272.021 0.
469.19 -85.6846 0.
316.404 -443.39 0.
464.56 -522.372 0.
482.937 -478.958 0.
501.314 -435.543 0.
398.687 -417.791 0.
437.68 -326.725 0.
476.673 -235.66 0.
417.503 -145.117 0.
481.704 2.98972 0.
467.405 95.2464 0.
436.915 23.7769 0.
406.426 -47.6928 0.
335.079 -109.386 0.
345.481 -87.1428 0.
355.884 -64.8992 0.
321.288 -135.433 0.
260.951 -274.672 0.
200.614 -413.91 0.
164.45 -297.995 0.
264.489 -58.8918 0.
949.136 429.243 0.
397.287 163.33 0.
379.381 126.97 0.
222.182 49.8502 0.
250.376 120.01 0.
278.57 190.17 0.
626.311 304.077 0.
546.948 120.718 0.
467.586 -62.6411 0.
266.417 -221.973 0.
242.607 -275.78 0.
218.797 -329.587 0.
12.7506 -286.926 0.
92.1909 -100.373 0.
366.919 134.418 0.
288.5 -49.3421 0.
210.082 -233.102 0.
-6.37465 -341.114 0.
117.83 -49.5515 0.
242.035 242.01 0.
166.106 213.749 0.
74.4536 0.595888 0.
-17.1981 -212.558 0.
22.2798 -275.495 0.
-3.47388 -333.667 0.
-808.9 -648.789 0.
-248.215 -476.863 0.
-224.969 -420.925 0.
248.221 814.68 0.
-15.205 204.66 0.
-163.234 -135.812 0.
641.917 -164.642 0.
831.012 275.964 0.
922.604 488.401 0.
89.7593 -249.306 0.
15.5535 -422.617 0.
196.754 0.0820029 0.
963.505 1008.97 0.
709.943 421.001 0.
-278.449 -1328.79 0.
281.787 -22.4542 0.
110.885 -421.325 0.
216.605 -216.3 0.
96.0178 -495.498 0.
432.689 291.021 0.
888.679 679.894 0.
587.317 -24.43 0.
318.615 -652.935 0.
342.628 -127.84 0.
723.023 757.746 0.
-480.287 -540.419 0.
355.93 -482.487 0.
479.816 -188.517 0.
616.143 790.834 0.
588.8 729.514 0.
74.427 -467.702 0.
89.8629 -683.401 0.
545.817 381.976 0.
523.71 331.727 0.
615.248 233.287 0.
320.643 -452.912 0.
553.059 90.5634 0.
354.026 -236.134 0.
339.577 -272.487 0.
835.853 603.184 0.
981.449 941.904 0.
624.261 107.507 0.
643.796 -100.847 0.
842.779 361.265 0.
389.713 -698.031 0.
-10.8904 -673.673 0.
395.2 277.668 0.
374.382 233.127 0.
636.115 127.017 0.
700.664 273.943 0.
-309.546 804.3 0.
948.016 61.4255 0.
648.462 -641.063 0.
395.876 -65.6569 0.
640.756 505.712 0.
756.078 774.478 0.
1114.14 690.125 0.
1220.22 940.675 0.
1053.59 555.203 0.
313.46 -511.614 0.
42.4914 -1141.19 0.
727.328 459.022 0.
884.492 503.464 0.
840.687 404.895 0.
566.232 562.126 0.
334.8 20.4066 0.
-12.2544 -790.544 0.
-20.1192 -893.237 0.
231.653 -309.296 0.
65.2516 -700.679 0.
340.094 -22.455 0.
180.064 -400.693 0.
271.697 -191.554 0.
406.771 580.727 0.
430.03 637.787 0.
461.795 -26.3363 0.
284.355 -60.5776 0.
-170.56 -1111.32 0.
205.377 -157.077 0.
736.391 1088.85 0.
-305.867 -1335.67 0.
583.753 -465.899 0.
992.528 487.005 0.
676.657 -250.394 0.
-4.80425 -738.088 0.
326.137 33.1989 0.
416.923 243.752 0.
-293.271 -302.036 0.
49.7308 497.706 0.
390.365 109.106 0.
253 -209.804 0.
299.351 -100.521 0.
215.035 -6.39068 0.
435.499 509.225 0.
186.496 -70.912 0.
-15.5369 -225.68 0.
9.14036 -169.519 0.
-271.967 -826.129 0.
232.249 391.792 0.
-111.916 -411.436 0.
-409.09 146.545 0.
-68.4364 321.81 0.
-80.6833 295.089 0.
342.794 429.007 0.
248.981 209.541 0.
155.166 -9.92559 0.
533.171 111.685 0.
614.841 298.825 0.
696.511 485.965 0.
341.962 175.794 0.
168.576 -226.675 0.
-4.80992 -629.144 0.
401.564 -377.76 0.
465.417 -222.475 0.
165.277 -235.473 0.
182.57 -195.095 0.
199.863 -154.718 0.
211.839 -115.204 0.
228.433 -72.4837 0.
245.027 -29.7638 0.
554.947 90.4797 0.
525.164 14.309 0.
495.381 -61.862 0.
213.451 -209.695 0.
208.568 -222.495 0.
990.719 102.331 0.
707.041 -33.375 0.
696.806 -55.0721 0.
285.641 -220.817 0.
341.475 -87.0283 0.
397.308 46.7604 0.
397.39 86.7536 0.
368.08 24.9053 0.
338.769 -36.9431 0.
379.058 -23.8112 0.
390.089 1.58122 0.
401.12 26.9735 0.
594.017 23.9646 0.
539.624 -103.685 0.
319.114 -288.04 0.
326.06 -274.37 0.
333.007 -260.7 0.
752.691 -78.0304 0.
754.393 -77.0842 0.
756.095 -76.1379 0.
302.338 -50.6356 0.
510.422 435.405 0.
718.506 921.445 0.
1036.41 910.913 0.
876.725 538.655 0.
-1275.07 -686.409 0.
1108.86 140.002 0.
1007.3 -98.2422 0.
55.5715 -593.511 0.
197.678 -264.033 0.
339.784 65.4458 0.
668.702 275.353 0.
581.63 72.3519 0.
494.559 -130.649 0.
455.944 -194.589 0.
459.055 -186.037 0.
462.164 -177.485 0.
301.672 -355.941 0.
236.725 -506.717 0.
228.721 -617.953 0.
239.567 -592.509 0.
250.414 -567.066 0.
238.831 -497.674 0.
331.711 -279.806 0.
424.59 -61.9387 0.
295.711 -38.5759 0.
297.961 -36.7476 0.
300.212 -34.9195 0.
233.811 -193.923 0.
145.039 -401.552 0.
519.99 -402.313 0.
201.445 -214.19 0.
374.873 187.332 0.
643.02 521.071 0.
565.429 337.593 0.
487.838 154.113 0.
440.375 44.4579 0.
434.694 32.8807 0.
429.014 21.3046 0.
439.839 172.545 0.
554.507 440.309 0.
669.174 708.073 0.
29.1016 202.391 0.
-119.487 -143.537 0.
337.277 -190.425 0.
369.145 -113.997 0.
401.014 -37.5702 0.
-48.9168 -219.762 0.
-90.0659 -318.631 0.
-131.215 -417.5 0.
152.228 -245.27 0.
230.483 -61.6204 0.
308.737 122.029 0.
71.2705 -1.24148 0.
32.0116 -91.4146 0.
-176.218 275.992 0.
-247.144 276.417 0.
-258.992 249.414 0.
677.523 604.626 0.
584.47 385.41 0.
491.416 166.194 0.
281.902 35.898 0.
364.442 223.088 0.
446.983 410.279 0.
439.245 248.782 0.
265.721 -153.472 0.
92.1983 -555.726 0.
459.403 -323.633 0.
523.131 -168.088 0.
150.556 -209.041 0.
168.449 -169.115 0.
186.341 -129.19 0.
165.592 -105.28 0.
182.231 -62.549 0.
198.87 -19.8183 0.
471.265 88.8137 0.
442.246 12.3857 0.
413.227 -64.0428 0.
116.973 -220.313 0.
112.259 -232.931 0.
-67.6187 -321.344 0.
918.982 89.2719 0.
908.084 67.7129 0.
428.666 -130.578 0.
483.395 3.8311 0.
538.123 138.24 0.
376.063 107.112 0.
346.385 45.4132 0.
316.707 -16.2853 0.
241.225 -50.6726 0.
252.934 -26.4327 0.
264.641 -2.19324 0.
763.532 130.887 0.
710.493 2.28257 0.
169.794 -321.373 0.
176.89 -307.753 0.
183.987 -294.133 0.
889.763 12.9118 0.
891.321 13.6833 0.
892.879 14.4547 0.
378.632 13.0977 0.
586.187 500.238 0.
793.741 987.378 0.
1139.82 986.039 0.
980.467 614.051 0.
-2390.38 -1132.75 0.
1276.79 244.367 0.
1175.65 6.23603 0.
-70.2066 -615.289 0.
72.4524 -286.223 0.
215.112 42.8451 0.
366.217 177.924 0.
279.87 -25.2343 0.
193.526 -228.392 0.
479.963 -152.495 0.
482.607 -143.514 0.
485.251 -134.534 0.
56.8011 -430.239 0.
-8.47573 -580.551 0.
456.874 -488.072 0.
467.459 -462.249 0.
478.045 -436.426 0.
361.713 -413.728 0.
454.593 -195.742 0.
547.473 22.2439 0.
272.858 -16.665 0.
274.77 -14.8067 0.
276.682 -12.9484 0.
446.176 -70.6718 0.
356.913 -278.286 0.
-260.406 -704.43 0.
198.633 -184.557 0.
371.702 216.636 0.
846.831 639.245 0.
769.663 455.2 0.
692.495 271.154 0.
10.8462 -107.611 0.
5.07322 -119.026 0.
-0.698418 -130.439 0.
520.695 238.21 0.
634.984 506.474 0.
749.273 774.738 0.
177.448 296.84 0.
28.4696 -49.0525 0.
441.405 -113.949 0.
473.874 -37.6998 0.
506.343 38.5492 0.
-242.886 -272.059 0.
-283.408 -371.071 0.
-323.93 -470.084 0.
380.883 -114.596 0.
459.348 69.3902 0.
537.814 253.375 0.
99.8766 40.3066 0.
60.5495 -48.5922 0.
