# vtk DataFile Version 2.0
test grain
ASCII
DATASET UNSTRUCTURED_GRID
POINTS 5000 float
0.499954 0.00100092 0.
0.501953 0.00100079 0.
0.503953 0.00100065 0.
0.505953 0.00100054 0.
0.507954 0.00100055 0.
0.509955 0.00100057 0.
0.511957 0.00100048 0.
0.513957 0.00100024 0.
0.515958 0.001 0.
0.51796 0.001 0.
0.519961 0.00100013 0.
0.521962 0.00100026 0.
0.523963 0.0010003 0.
0.525964 0.00100032 0.
0.527965 0.00100034 0.
0.529966 0.00100041 0.
0.531967 0.00100048 0.
0.533968 0.00100046 0.
0.535969 0.00100024 0.
0.53797 0.00100002 0.
0.539971 0.001 0.
0.541973 0.00100015 0.
0.543975 0.0010003 0.
0.545976 0.00100033 0.
0.547977 0.00100033 0.
0.549977 0.00100032 0.
0.551978 0.00100054 0.
0.553978 0.00100075 0.
0.555979 0.00100089 0.
0.55798 0.00100071 0.
0.55998 0.00100053 0.
0.561981 0.00100038 0.
0.563983 0.00100026 0.
0.565984 0.00100014 0.
0.567985 0.00100008 0.
0.569986 0.00100004 0.
0.571986 0.000999999 0.
0.573987 0.00100016 0.
0.575987 0.00100034 0.
0.577987 0.00100051 0.
0.579989 0.00100056 0.
0.58199 0.0010006 0.
0.583991 0.0010007 0.
0.585991 0.00100089 0.
0.587991 0.00100108 0.
0.58999 0.00100096 0.
0.591989 0.0010006 0.
0.593989 0.00100023 0.
0.595992 0.00100033 0.
0.597996 0.00100057 0.
0.6 0.00100081 0.
0.602004 0.00100063 0.
0.604008 0.00100044 0.
0.606011 0.00100032 0.
0.608011 0.00100047 0.
0.610011 0.00100061 0.
0.612012 0.00100066 0.
0.614012 0.0010006 0.
0.616012 0.00100054 0.
0.618013 0.00100059 0.
0.620013 0.00100069 0.
0.622014 0.0010008 0.
0.624014 0.00100071 0.
0.626014 0.0010006 0.
0.628014 0.00100049 0.
0.630015 0.00100028 0.
0.632016 0.00100006 0.
0.634017 0.001 0.
0.636018 0.00100024 0.
0.63802 0.00100048 0.
0.640021 0.0010005 0.
0.642021 0.00100035 0.
0.644021 0.00100021 0.
0.646022 0.00100036 0.
0.648022 0.00100058 0.
0.650023 0.00100079 0.
0.652024 0.00100051 0.
0.654026 0.00100022 0.
0.656027 0.001 0.
0.658028 0.00100001 0.
0.660029 0.00100001 0.
0.66203 0.00100001 0.
0.664032 0.00100001 0.
0.666033 0.001 0.
0.668034 0.00100012 0.
0.670036 0.00100028 0.
0.672038 0.00100045 0.
0.674039 0.00100042 0.
0.67604 0.00100038 0.
0.678041 0.00100035 0.
0.680042 0.00100035 0.
0.682042 0.00100036 0.
0.684042 0.00100038 0.
0.686044 0.00100045 0.
0.688045 0.00100051 0.
0.690047 0.00100058 0.
0.692048 0.00100064 0.
0.694049 0.0010007 0.
0.69605 0.00100069 0.
0.698051 0.00100067 0.
0.499953 0.00300275 0.
0.501953 0.00300237 0.
0.503953 0.00300195 0.
0.505954 0.00300162 0.
0.507954 0.00300167 0.
0.509955 0.00300172 0.
0.511956 0.00300144 0.
0.513958 0.00300072 0.
0.515959 0.00300001 0.
0.51796 0.00300001 0.
0.519962 0.0030004 0.
0.521963 0.00300079 0.
0.523964 0.00300089 0.
0.525964 0.00300095 0.
0.527964 0.00300103 0.
0.529965 0.00300124 0.
0.531967 0.00300145 0.
0.533968 0.00300138 0.
0.535969 0.00300072 0.
0.53797 0.00300006 0.
0.539972 0.00300001 0.
0.541973 0.00300046 0.
0.543975 0.00300091 0.
0.545976 0.003001 0.
0.547977 0.00300099 0.
0.549977 0.00300097 0.
0.551978 0.00300161 0.
0.553979 0.00300225 0.
0.555979 0.00300266 0.
0.55798 0.00300213 0.
0.55998 0.0030016 0.
0.561981 0.00300115 0.
0.563982 0.00300079 0.
0.565983 0.00300043 0.
0.567984 0.00300023 0.
0.569985 0.00300011 0.
0.571986 0.003 0.
0.573987 0.00300047 0.
0.575987 0.00300102 0.
0.577988 0.00300153 0.
0.579989 0.00300167 0.
0.58199 0.0030018 0.
0.583991 0.00300208 0.
0.585991 0.00300266 0.
0.587991 0.00300324 0.
0.58999 0.00300289 0.
0.59199 0.00300179 0.
0.59399 0.00300069 0.
0.595993 0.003001 0.
0.597997 0.00300172 0.
0.6 0.00300244 0.
0.602003 0.00300187 0.
0.604006 0.00300131 0.
0.606008 0.00300097 0.
0.608009 0.0030014 0.
0.610009 0.00300183 0.
0.61201 0.00300199 0.
0.614011 0.0030018 0.
0.616012 0.00300162 0.
0.618012 0.00300177 0.
0.620013 0.00300208 0.
0.622014 0.0030024 0.
0.624013 0.00300214 0.
0.626013 0.00300181 0.
0.628013 0.00300146 0.
0.630014 0.00300082 0.
0.632015 0.00300019 0.
0.634016 0.00300001 0.
0.636018 0.00300072 0.
0.638019 0.00300143 0.
0.64002 0.0030015 0.
0.642021 0.00300106 0.
0.644022 0.00300063 0.
0.646022 0.00300107 0.
0.648023 0.00300174 0.
0.650023 0.00300238 0.
0.652024 0.00300152 0.
0.654024 0.00300066 0.
0.656026 0.00300001 0.
0.658027 0.00300003 0.
0.660029 0.00300004 0.
0.662031 0.00300004 0.
0.664032 0.00300003 0.
0.666034 0.00300001 0.
0.668035 0.00300035 0.
0.670036 0.00300084 0.
0.672038 0.00300134 0.
0.674038 0.00300127 0.
0.676039 0.00300115 0.
0.67804 0.00300105 0.
0.680041 0.00300106 0.
0.682042 0.00300107 0.
0.684043 0.00300115 0.
0.686044 0.00300134 0.
0.688045 0.00300154 0.
0.690046 0.00300173 0.
0.692047 0.00300191 0.
0.694048 0.0030021 0.
0.696049 0.00300207 0.
0.69805 0.003002 0.
0.499952 0.00500458 0.
0.501953 0.00500395 0.
0.503953 0.00500324 0.
0.505954 0.0050027 0.
0.507954 0.00500278 0.
0.509955 0.00500286 0.
0.511956 0.0050024 0.
0.513958 0.0050012 0.
0.515959 0.00500001 0.
0.517961 0.00500001 0.
0.519963 0.00500066 0.
0.521964 0.00500132 0.
0.523964 0.00500148 0.
0.525964 0.00500159 0.
0.527963 0.00500171 0.
0.529965 0.00500206 0.
0.531966 0.00500241 0.
0.533967 0.0050023 0.
0.535969 0.0050012 0.
0.53797 0.0050001 0.
0.539972 0.00500001 0.
0.541974 0.00500076 0.
0.543975 0.00500151 0.
0.545976 0.00500166 0.
0.547977 0.00500164 0.
0.549977 0.00500162 0.
0.551978 0.00500268 0.
0.553979 0.00500376 0.
0.555979 0.00500443 0.
0.55798 0.00500355 0.
0.55998 0.00500266 0.
0.561981 0.00500191 0.
0.563982 0.00500131 0.
0.565983 0.00500072 0.
0.567984 0.00500038 0.
0.569985 0.00500019 0.
0.571986 0.005 0.
0.573987 0.00500078 0.
0.575988 0.0050017 0.
0.577988 0.00500255 0.
0.57999 0.00500278 0.
0.581991 0.005003 0.
0.583992 0.00500347 0.
0.585991 0.00500443 0.
0.587991 0.0050054 0.
0.58999 0.00500481 0.
0.591991 0.00500297 0.
0.593991 0.00500114 0.
0.595994 0.00500167 0.
0.597997 0.00500286 0.
0.6 0.00500406 0.
0.602002 0.00500312 0.
0.604004 0.00500218 0.
0.606006 0.00500162 0.
0.608007 0.00500233 0.
0.610008 0.00500304 0.
0.612009 0.00500331 0.
0.61401 0.005003 0.
0.616011 0.0050027 0.
0.618012 0.00500294 0.
0.620013 0.00500347 0.
0.622014 0.00500399 0.
0.624013 0.00500356 0.
0.626012 0.00500302 0.
0.628011 0.00500243 0.
0.630013 0.00500137 0.
0.632015 0.00500031 0.
0.634016 0.00500002 0.
0.636017 0.0050012 0.
0.638018 0.00500238 0.
0.64002 0.00500249 0.
0.642021 0.00500177 0.
0.644023 0.00500105 0.
0.646023 0.00500177 0.
0.648023 0.00500289 0.
0.650023 0.00500398 0.
0.652023 0.00500254 0.
0.654023 0.00500111 0.
0.656024 0.00500002 0.
0.658026 0.00500004 0.
0.660029 0.00500007 0.
0.662031 0.00500007 0.
0.664033 0.00500004 0.
0.666035 0.00500002 0.
0.668036 0.00500058 0.
0.670036 0.0050014 0.
0.672037 0.00500223 0.
0.674038 0.00500211 0.
0.676038 0.00500191 0.
0.678039 0.00500174 0.
0.680041 0.00500176 0.
0.682043 0.00500178 0.
0.684044 0.00500191 0.
0.686045 0.00500223 0.
0.688045 0.00500256 0.
0.690046 0.00500287 0.
0.692046 0.00500318 0.
0.694047 0.00500349 0.
0.696048 0.00500346 0.
0.698049 0.00500333 0.
0.499952 0.0070064 0.
0.501953 0.00700582 0.
0.503954 0.0070052 0.
0.505955 0.00700479 0.
0.507956 0.00700515 0.
0.509957 0.00700552 0.
0.511958 0.00700547 0.
0.513959 0.00700486 0.
0.51596 0.00700425 0.
0.517962 0.00700438 0.
0.519963 0.00700491 0.
0.521964 0.00700545 0.
0.523965 0.00700584 0.
0.525965 0.00700622 0.
0.527965 0.00700654 0.
0.529966 0.00700644 0.
0.531967 0.00700634 0.
0.533968 0.00700627 0.
0.53597 0.00700624 0.
0.537971 0.00700621 0.
0.539972 0.00700631 0.
0.541974 0.00700651 0.
0.543975 0.0070067 0.
0.545976 0.00700647 0.
0.547977 0.00700611 0.
0.549977 0.00700575 0.
0.551978 0.00700654 0.
0.553979 0.00700734 0.
0.555979 0.00700795 0.
0.55798 0.00700786 0.
0.559981 0.00700776 0.
0.561982 0.00700735 0.
0.563983 0.00700653 0.
0.565984 0.00700571 0.
0.567984 0.00700591 0.
0.569985 0.00700665 0.
0.571986 0.0070074 0.
0.573987 0.0070081 0.
0.575987 0.00700879 0.
0.577988 0.0070094 0.
0.579989 0.00700933 0.
0.58199 0.00700926 0.
0.583991 0.00700925 0.
0.585991 0.00700934 0.
0.587992 0.00700943 0.
0.589992 0.00700902 0.
0.591992 0.00700822 0.
0.593993 0.00700743 0.
0.595995 0.00700786 0.
0.597998 0.00700861 0.
0.6 0.00700936 0.
0.602002 0.00700868 0.
0.604004 0.007008 0.
0.606005 0.00700754 0.
0.608006 0.00700785 0.
0.610007 0.00700815 0.
0.612008 0.00700821 0.
0.614009 0.00700796 0.
0.61601 0.00700772 0.
0.618011 0.00700785 0.
0.620012 0.00700818 0.
0.622012 0.00700852 0.
0.624012 0.00700825 0.
0.626012 0.00700792 0.
0.628012 0.00700761 0.
0.630013 0.00700748 0.
0.632014 0.00700736 0.
0.634015 0.0070074 0.
0.636016 0.00700777 0.
0.638017 0.00700814 0.
0.640018 0.00700797 0.
0.642019 0.00700739 0.
0.644021 0.00700681 0.
0.646021 0.00700684 0.
0.648022 0.00700703 0.
0.650022 0.00700722 0.
0.652023 0.00700698 0.
0.654024 0.00700673 0.
0.656024 0.00700648 0.
0.658026 0.00700621 0.
0.660028 0.00700594 0.
0.662029 0.0070057 0.
0.664031 0.0070055 0.
0.666033 0.0070053 0.
0.668034 0.00700527 0.
0.670034 0.00700532 0.
0.672035 0.00700537 0.
0.674036 0.00700516 0.
0.676037 0.00700493 0.
0.678039 0.00700472 0.
0.68004 0.00700469 0.
0.682042 0.00700466 0.
0.684043 0.00700474 0.
0.686043 0.00700502 0.
0.688044 0.00700529 0.
0.690045 0.00700537 0.
0.692045 0.00700531 0.
0.694046 0.00700525 0.
0.696047 0.00700547 0.
0.698048 0.00700577 0.
0.499953 0.00900818 0.
0.501954 0.00900768 0.
0.503955 0.00900716 0.
0.505956 0.00900687 0.
0.507957 0.00900752 0.
0.509958 0.00900817 0.
0.511959 0.00900854 0.
0.51396 0.00900851 0.
0.515961 0.00900849 0.
0.517962 0.00900874 0.
0.519963 0.00900916 0.
0.521965 0.00900958 0.
0.523965 0.00901019 0.
0.525966 0.00901084 0.
0.527966 0.00901137 0.
0.529967 0.00901082 0.
0.531968 0.00901027 0.
0.533969 0.00901023 0.
0.53597 0.00901128 0.
0.537971 0.00901232 0.
0.539973 0.00901261 0.
0.541973 0.00901225 0.
0.543974 0.00901189 0.
0.545975 0.00901128 0.
0.547976 0.00901059 0.
0.549977 0.0090099 0.
0.551978 0.0090104 0.
0.553979 0.00901092 0.
0.55598 0.00901148 0.
0.557981 0.00901217 0.
0.559982 0.00901286 0.
0.561983 0.00901279 0.
0.563984 0.00901174 0.
0.565985 0.0090107 0.
0.567985 0.00901144 0.
0.569985 0.00901311 0.
0.571986 0.00901479 0.
0.573986 0.00901542 0.
0.575987 0.00901589 0.
0.577988 0.00901626 0.
0.579989 0.0090159 0.
0.581989 0.00901553 0.
0.58399 0.00901502 0.
0.585991 0.00901424 0.
0.587993 0.00901346 0.
0.589994 0.00901322 0.
0.591994 0.00901347 0.
0.593994 0.00901371 0.
0.595996 0.00901404 0.
0.597998 0.00901436 0.
0.6 0.00901467 0.
0.602002 0.00901424 0.
0.604003 0.00901381 0.
0.606005 0.00901347 0.
0.608005 0.00901336 0.
0.610006 0.00901326 0.
0.612007 0.00901311 0.
0.614008 0.00901292 0.
0.61601 0.00901273 0.
0.61801 0.00901275 0.
0.620011 0.0090129 0.
0.622011 0.00901305 0.
0.624012 0.00901295 0.
0.626012 0.00901281 0.
0.628013 0.00901279 0.
0.630014 0.0090136 0.
0.632014 0.00901441 0.
0.634015 0.00901479 0.
0.636015 0.00901435 0.
0.638015 0.0090139 0.
0.640016 0.00901346 0.
0.642017 0.00901302 0.
0.644018 0.00901258 0.
0.64602 0.00901191 0.
0.648021 0.00901117 0.
0.650022 0.00901047 0.
0.652023 0.00901141 0.
0.654024 0.00901236 0.
0.656025 0.00901295 0.
0.658026 0.00901238 0.
0.660027 0.00901182 0.
0.662028 0.00901134 0.
0.664029 0.00901096 0.
0.66603 0.00901059 0.
0.668031 0.00900997 0.
0.670032 0.00900924 0.
0.672033 0.00900851 0.
0.674035 0.00900821 0.
0.676037 0.00900795 0.
0.678039 0.0090077 0.
0.68004 0.00900761 0.
0.682041 0.00900753 0.
0.684042 0.00900758 0.
0.686042 0.0090078 0.
0.688042 0.00900802 0.
0.690043 0.00900786 0.
0.692044 0.00900743 0.
0.694045 0.009007 0.
0.696046 0.00900749 0.
0.698047 0.00900821 0.
0.499954 0.0110096 0.
0.501955 0.0110091 0.
0.503956 0.0110086 0.
0.505956 0.0110084 0.
0.507958 0.0110091 0.
0.509959 0.0110098 0.
0.51196 0.0110103 0.
0.513961 0.0110105 0.
0.515961 0.0110107 0.
0.517962 0.011011 0.
0.519963 0.0110114 0.
0.521964 0.0110118 0.
0.523965 0.0110125 0.
0.525966 0.0110132 0.
0.527967 0.0110137 0.
0.529967 0.011013 0.
0.531968 0.0110123 0.
0.533969 0.0110122 0.
0.535971 0.0110137 0.
0.537972 0.0110151 0.
0.539973 0.0110155 0.
0.541974 0.0110149 0.
0.543974 0.0110144 0.
0.545975 0.0110137 0.
0.547976 0.011013 0.
0.549977 0.0110122 0.
0.551978 0.0110126 0.
0.553979 0.0110131 0.
0.55598 0.0110137 0.
0.557981 0.0110146 0.
0.559982 0.0110156 0.
0.561983 0.0110157 0.
0.563984 0.0110147 0.
0.565985 0.0110138 0.
0.567985 0.0110146 0.
0.569985 0.0110164 0.
0.571986 0.0110182 0.
0.573987 0.011019 0.
0.575987 0.0110195 0.
0.577988 0.0110199 0.
0.579989 0.0110194 0.
0.581989 0.0110189 0.
0.58399 0.0110182 0.
0.585992 0.011017 0.
0.587993 0.0110159 0.
0.589994 0.0110158 0.
0.591995 0.0110165 0.
0.593995 0.0110173 0.
0.595997 0.0110175 0.
0.597999 0.0110175 0.
0.6 0.0110175 0.
0.602002 0.0110173 0.
0.604003 0.0110171 0.
0.606004 0.0110169 0.
0.608005 0.0110166 0.
0.610006 0.0110163 0.
0.612007 0.0110161 0.
0.614008 0.011016 0.
0.616009 0.0110159 0.
0.618009 0.0110158 0.
0.62001 0.0110157 0.
0.62201 0.0110156 0.
0.624011 0.0110156 0.
0.626012 0.0110155 0.
0.628013 0.0110156 0.
0.630014 0.0110168 0.
0.632014 0.011018 0.
0.634014 0.0110186 0.
0.636015 0.0110178 0.
0.638015 0.0110171 0.
0.640016 0.0110165 0.
0.642016 0.011016 0.
0.644017 0.0110156 0.
0.646019 0.0110146 0.
0.64802 0.0110135 0.
0.650022 0.0110124 0.
0.652023 0.0110138 0.
0.654024 0.0110152 0.
0.656025 0.0110161 0.
0.658026 0.0110155 0.
0.660026 0.0110149 0.
0.662027 0.0110143 0.
0.664028 0.0110138 0.
0.666029 0.0110133 0.
0.66803 0.0110123 0.
0.670031 0.0110112 0.
0.672032 0.01101 0.
0.674034 0.0110097 0.
0.676036 0.0110095 0.
0.678038 0.0110093 0.
0.680039 0.0110094 0.
0.68204 0.0110094 0.
0.68404 0.0110095 0.
0.686041 0.0110095 0.
0.688041 0.0110095 0.
0.690042 0.0110092 0.
0.692043 0.0110088 0.
0.694045 0.0110084 0.
0.696046 0.0110091 0.
0.698046 0.0110101 0.
0.499956 0.0130107 0.
0.501956 0.0130102 0.
0.503956 0.0130096 0.
0.505957 0.0130093 0.
0.507958 0.0130099 0.
0.509959 0.0130105 0.
0.511959 0.0130109 0.
0.51396 0.0130109 0.
0.515961 0.0130109 0.
0.517962 0.0130112 0.
0.519963 0.0130117 0.
0.521964 0.0130121 0.
0.523964 0.0130127 0.
0.525965 0.0130132 0.
0.527966 0.0130136 0.
0.529967 0.013013 0.
0.531968 0.0130124 0.
0.533969 0.0130123 0.
0.535971 0.0130134 0.
0.537972 0.0130146 0.
0.539973 0.0130149 0.
0.541974 0.0130146 0.
0.543975 0.0130142 0.
0.545976 0.0130137 0.
0.547976 0.0130132 0.
0.549977 0.0130127 0.
0.551978 0.0130133 0.
0.553979 0.0130139 0.
0.55598 0.0130145 0.
0.557981 0.0130153 0.
0.559982 0.013016 0.
0.561983 0.0130162 0.
0.563983 0.0130155 0.
0.565984 0.0130149 0.
0.567985 0.0130154 0.
0.569985 0.0130166 0.
0.571986 0.0130178 0.
0.573987 0.0130187 0.
0.575988 0.0130196 0.
0.577989 0.0130204 0.
0.579989 0.0130199 0.
0.58199 0.0130194 0.
0.583991 0.0130187 0.
0.585992 0.0130177 0.
0.587993 0.0130166 0.
0.589994 0.0130166 0.
0.591995 0.0130175 0.
0.593996 0.0130183 0.
0.595997 0.0130183 0.
0.597999 0.0130181 0.
0.6 0.0130179 0.
0.602002 0.0130179 0.
0.604003 0.013018 0.
0.606004 0.013018 0.
0.608005 0.0130176 0.
0.610006 0.0130172 0.
0.612007 0.013017 0.
0.614007 0.0130171 0.
0.616008 0.0130171 0.
0.618008 0.0130169 0.
0.620009 0.0130165 0.
0.622009 0.0130162 0.
0.62401 0.0130161 0.
0.626011 0.013016 0.
0.628013 0.013016 0.
0.630013 0.0130172 0.
0.632014 0.0130183 0.
0.634014 0.0130189 0.
0.636015 0.0130183 0.
0.638016 0.0130176 0.
0.640017 0.013017 0.
0.642017 0.0130165 0.
0.644018 0.0130159 0.
0.646019 0.013015 0.
0.64802 0.013014 0.
0.650021 0.0130131 0.
0.652022 0.0130142 0.
0.654024 0.0130153 0.
0.656025 0.013016 0.
0.658026 0.0130156 0.
0.660027 0.0130151 0.
0.662028 0.0130146 0.
0.664028 0.013014 0.
0.666029 0.0130134 0.
0.66803 0.0130124 0.
0.670031 0.0130111 0.
0.672032 0.0130098 0.
0.674034 0.0130096 0.
0.676036 0.0130096 0.
0.678037 0.0130096 0.
0.680038 0.0130099 0.
0.682039 0.0130103 0.
0.684039 0.0130104 0.
0.68604 0.01301 0.
0.688041 0.0130097 0.
0.690042 0.0130095 0.
0.692043 0.0130095 0.
0.694044 0.0130095 0.
0.696045 0.0130103 0.
0.698046 0.0130113 0.
0.499957 0.0150118 0.
0.501957 0.0150112 0.
0.503957 0.0150106 0.
0.505957 0.0150101 0.
0.507958 0.0150107 0.
0.509958 0.0150112 0.
0.511959 0.0150114 0.
0.51396 0.0150112 0.
0.515961 0.0150111 0.
0.517961 0.0150114 0.
0.519962 0.0150119 0.
0.521963 0.0150125 0.
0.523964 0.0150128 0.
0.525965 0.0150132 0.
0.527965 0.0150134 0.
0.529967 0.0150129 0.
0.531968 0.0150124 0.
0.533969 0.0150123 0.
0.535971 0.0150132 0.
0.537972 0.015014 0.
0.539973 0.0150143 0.
0.541974 0.0150142 0.
0.543975 0.015014 0.
0.545976 0.0150138 0.
0.547976 0.0150135 0.
0.549977 0.0150131 0.
0.551978 0.0150139 0.
0.553979 0.0150147 0.
0.55598 0.0150154 0.
0.557981 0.0150159 0.
0.559982 0.0150164 0.
0.561982 0.0150166 0.
0.563983 0.0150163 0.
0.565983 0.015016 0.
0.567984 0.0150162 0.
0.569985 0.0150168 0.
0.571986 0.0150173 0.
0.573987 0.0150185 0.
0.575988 0.0150198 0.
0.577989 0.0150208 0.
0.57999 0.0150203 0.
0.581991 0.0150198 0.
0.583992 0.0150192 0.
0.585992 0.0150183 0.
0.587993 0.0150174 0.
0.589993 0.0150175 0.
0.591995 0.0150184 0.
0.593996 0.0150192 0.
0.595997 0.0150191 0.
0.597999 0.0150187 0.
0.6 0.0150182 0.
0.602001 0.0150185 0.
0.604003 0.0150188 0.
0.606004 0.015019 0.
0.608005 0.0150186 0.
0.610006 0.0150182 0.
0.612007 0.015018 0.
0.614007 0.0150181 0.
0.616007 0.0150183 0.
0.618008 0.015018 0.
0.620008 0.0150174 0.
0.622008 0.0150168 0.
0.62401 0.0150166 0.
0.626011 0.0150164 0.
0.628012 0.0150164 0.
0.630013 0.0150175 0.
0.632013 0.0150186 0.
0.634014 0.0150191 0.
0.636015 0.0150187 0.
0.638017 0.0150182 0.
0.640018 0.0150176 0.
0.642018 0.0150169 0.
0.644018 0.0150162 0.
0.646019 0.0150154 0.
0.64802 0.0150145 0.
0.650021 0.0150137 0.
0.652022 0.0150145 0.
0.654023 0.0150153 0.
0.656024 0.0150159 0.
0.658026 0.0150156 0.
0.660027 0.0150154 0.
0.662028 0.0150149 0.
0.664028 0.0150142 0.
0.666029 0.0150136 0.
0.66803 0.0150124 0.
0.670031 0.015011 0.
0.672033 0.0150096 0.
0.674034 0.0150096 0.
0.676035 0.0150097 0.
0.678036 0.0150099 0.
0.680037 0.0150105 0.
0.682038 0.0150111 0.
0.684038 0.0150113 0.
0.686039 0.0150106 0.
0.68804 0.0150099 0.
0.690041 0.0150098 0.
0.692043 0.0150102 0.
0.694044 0.0150105 0.
0.696045 0.0150114 0.
0.698046 0.0150125 0.
0.499957 0.0170132 0.
0.501957 0.0170126 0.
0.503957 0.0170121 0.
0.505958 0.0170117 0.
0.507958 0.0170121 0.
0.509959 0.0170125 0.
0.51196 0.0170126 0.
0.51396 0.0170123 0.
0.515961 0.0170119 0.
0.517962 0.0170121 0.
0.519963 0.0170126 0.
0.521964 0.0170131 0.
0.523965 0.0170134 0.
0.525966 0.0170135 0.
0.527967 0.0170137 0.
0.529968 0.0170137 0.
0.531969 0.0170137 0.
0.53397 0.0170138 0.
0.535971 0.0170142 0.
0.537972 0.0170146 0.
0.539973 0.0170147 0.
0.541974 0.0170146 0.
0.543975 0.0170145 0.
0.545976 0.0170144 0.
0.547977 0.0170143 0.
0.549978 0.0170142 0.
0.551979 0.0170148 0.
0.55398 0.0170155 0.
0.55598 0.0170161 0.
0.557981 0.0170165 0.
0.559982 0.0170169 0.
0.561983 0.0170171 0.
0.563983 0.017017 0.
0.565984 0.0170168 0.
0.567985 0.0170174 0.
0.569986 0.0170182 0.
0.571987 0.017019 0.
0.573987 0.0170199 0.
0.575988 0.0170207 0.
0.577989 0.0170214 0.
0.57999 0.0170211 0.
0.581991 0.0170208 0.
0.583992 0.0170204 0.
0.585992 0.0170196 0.
0.587993 0.0170189 0.
0.589994 0.0170189 0.
0.591995 0.0170194 0.
0.593996 0.0170199 0.
0.595997 0.0170197 0.
0.597999 0.0170194 0.
0.6 0.017019 0.
0.602001 0.0170195 0.
0.604002 0.0170199 0.
0.606003 0.0170202 0.
0.608004 0.0170198 0.
0.610005 0.0170195 0.
0.612006 0.0170192 0.
0.614006 0.0170188 0.
0.616006 0.0170184 0.
0.618007 0.0170182 0.
0.620008 0.0170181 0.
0.622009 0.0170181 0.
0.62401 0.0170179 0.
0.62601 0.0170176 0.
0.628011 0.0170174 0.
0.630012 0.017018 0.
0.632012 0.0170186 0.
0.634013 0.0170189 0.
0.636015 0.0170188 0.
0.638016 0.0170188 0.
0.640017 0.0170185 0.
0.642018 0.017018 0.
0.644018 0.0170175 0.
0.646019 0.0170165 0.
0.64802 0.0170153 0.
0.650021 0.0170142 0.
0.652022 0.017015 0.
0.654023 0.0170157 0.
0.656025 0.0170162 0.
0.658026 0.017016 0.
0.660027 0.0170157 0.
0.662028 0.0170153 0.
0.664029 0.0170145 0.
0.666029 0.0170137 0.
0.66803 0.0170129 0.
0.670031 0.0170121 0.
0.672033 0.0170113 0.
0.674033 0.0170108 0.
0.676034 0.0170103 0.
0.678035 0.01701 0.
0.680036 0.0170106 0.
0.682037 0.0170111 0.
0.684037 0.0170113 0.
0.686038 0.0170107 0.
0.688039 0.0170101 0.
0.69004 0.0170101 0.
0.692042 0.0170106 0.
0.694043 0.0170112 0.
0.696044 0.0170124 0.
0.698045 0.0170138 0.
0.499957 0.0190147 0.
0.501957 0.0190141 0.
0.503958 0.0190135 0.
0.505958 0.0190132 0.
0.507959 0.0190135 0.
0.509959 0.0190138 0.
0.51196 0.0190138 0.
0.513961 0.0190133 0.
0.515962 0.0190128 0.
0.517963 0.0190129 0.
0.519964 0.0190134 0.
0.521965 0.0190138 0.
0.523966 0.0190139 0.
0.525967 0.0190139 0.
0.527968 0.0190139 0.
0.529969 0.0190145 0.
0.53197 0.019015 0.
0.533971 0.0190153 0.
0.535972 0.0190152 0.
0.537972 0.0190151 0.
0.539973 0.019015 0.
0.541975 0.019015 0.
0.543976 0.0190149 0.
0.545977 0.019015 0.
0.547978 0.0190151 0.
0.549979 0.0190152 0.
0.551979 0.0190157 0.
0.55398 0.0190163 0.
0.55598 0.0190168 0.
0.557982 0.0190171 0.
0.559983 0.0190173 0.
0.561984 0.0190175 0.
0.563984 0.0190176 0.
0.565984 0.0190177 0.
0.567985 0.0190185 0.
0.569986 0.0190196 0.
0.571987 0.0190207 0.
0.573988 0.0190212 0.
0.575989 0.0190216 0.
0.57799 0.0190219 0.
0.57999 0.0190219 0.
0.581991 0.0190218 0.
0.583992 0.0190215 0.
0.585993 0.019021 0.
0.587993 0.0190204 0.
0.589994 0.0190202 0.
0.591995 0.0190204 0.
0.593995 0.0190206 0.
0.595997 0.0190204 0.
0.597999 0.0190201 0.
0.600001 0.0190198 0.
0.602001 0.0190204 0.
0.604002 0.019021 0.
0.606002 0.0190214 0.
0.608003 0.0190211 0.
0.610004 0.0190209 0.
0.612005 0.0190203 0.
0.614005 0.0190194 0.
0.616006 0.0190184 0.
0.618007 0.0190184 0.
0.620008 0.0190189 0.
0.622009 0.0190193 0.
0.62401 0.0190191 0.
0.62601 0.0190188 0.
0.62801 0.0190185 0.
0.630011 0.0190186 0.
0.632012 0.0190186 0.
0.634012 0.0190187 0.
0.636014 0.019019 0.
0.638015 0.0190193 0.
0.640016 0.0190193 0.
0.642018 0.019019 0.
0.644019 0.0190188 0.
0.64602 0.0190176 0.
0.64802 0.0190162 0.
0.650021 0.0190147 0.
0.652022 0.0190154 0.
0.654024 0.019016 0.
0.656025 0.0190165 0.
0.658026 0.0190163 0.
0.660027 0.0190161 0.
0.662028 0.0190156 0.
0.664029 0.0190147 0.
0.66603 0.0190139 0.
0.668031 0.0190134 0.
0.670031 0.0190132 0.
0.672032 0.019013 0.
0.674032 0.019012 0.
0.676033 0.019011 0.
0.678033 0.0190101 0.
0.680034 0.0190106 0.
0.682036 0.0190111 0.
0.684037 0.0190113 0.
0.686037 0.0190107 0.
0.688038 0.0190102 0.
0.690039 0.0190104 0.
0.69204 0.0190111 0.
0.694042 0.0190118 0.
0.696043 0.0190133 0.
0.698043 0.0190151 0.
0.499957 0.0210159 0.
0.501958 0.0210153 0.
0.503958 0.0210148 0.
0.505959 0.0210144 0.
0.507959 0.0210146 0.
0.50996 0.0210148 0.
0.511961 0.0210147 0.
0.513962 0.0210141 0.
0.515963 0.0210135 0.
0.517964 0.0210135 0.
0.519964 0.0210138 0.
0.521965 0.0210142 0.
0.523967 0.0210143 0.
0.525968 0.0210143 0.
0.527969 0.0210144 0.
0.52997 0.0210153 0.
0.531971 0.0210161 0.
0.533972 0.0210165 0.
0.535972 0.0210161 0.
0.537973 0.0210156 0.
0.539974 0.0210154 0.
0.541975 0.0210153 0.
0.543976 0.0210152 0.
0.545977 0.0210154 0.
0.547978 0.0210158 0.
0.549979 0.0210161 0.
0.55198 0.0210165 0.
0.55398 0.021017 0.
0.555981 0.0210174 0.
0.557982 0.0210176 0.
0.559983 0.0210178 0.
0.561984 0.021018 0.
0.563984 0.0210182 0.
0.565985 0.0210184 0.
0.567986 0.0210192 0.
0.569986 0.0210204 0.
0.571987 0.0210216 0.
0.573988 0.0210219 0.
0.575989 0.0210221 0.
0.57799 0.0210223 0.
0.579991 0.0210224 0.
0.581991 0.0210224 0.
0.583992 0.0210223 0.
0.585993 0.0210217 0.
0.587993 0.0210211 0.
0.589994 0.021021 0.
0.591995 0.0210212 0.
0.593996 0.0210214 0.
0.595997 0.0210212 0.
0.597999 0.0210209 0.
0.600001 0.0210206 0.
0.602001 0.0210213 0.
0.604002 0.021022 0.
0.606002 0.0210224 0.
0.608003 0.0210221 0.
0.610004 0.0210219 0.
0.612005 0.0210212 0.
0.614005 0.02102 0.
0.616005 0.0210188 0.
0.618006 0.0210189 0.
0.620008 0.0210197 0.
0.622009 0.0210205 0.
0.62401 0.0210201 0.
0.62601 0.0210196 0.
0.62801 0.0210191 0.
0.630011 0.021019 0.
0.632011 0.0210189 0.
0.634012 0.021019 0.
0.636013 0.0210194 0.
0.638015 0.0210199 0.
0.640016 0.0210199 0.
0.642017 0.0210196 0.
0.644019 0.0210194 0.
0.646019 0.0210181 0.
0.64802 0.0210166 0.
0.650021 0.0210151 0.
0.652022 0.0210156 0.
0.654023 0.021016 0.
0.656024 0.0210164 0.
0.658025 0.0210163 0.
0.660026 0.0210162 0.
0.662027 0.0210157 0.
0.664028 0.0210148 0.
0.666029 0.0210139 0.
0.66803 0.0210137 0.
0.670031 0.0210139 0.
0.672032 0.021014 0.
0.674032 0.0210128 0.
0.676032 0.0210115 0.
0.678032 0.0210103 0.
0.680034 0.0210108 0.
0.682035 0.0210113 0.
0.684036 0.0210114 0.
0.686037 0.021011 0.
0.688037 0.0210105 0.
0.690038 0.0210109 0.
0.692039 0.0210118 0.
0.69404 0.0210127 0.
0.696041 0.0210142 0.
0.698042 0.0210159 0.
0.499957 0.0230168 0.
0.501958 0.0230162 0.
0.503959 0.0230157 0.
0.505959 0.0230153 0.
0.50796 0.0230153 0.
0.509961 0.0230154 0.
0.511961 0.0230152 0.
0.513962 0.0230146 0.
0.515963 0.0230139 0.
0.517964 0.0230138 0.
0.519965 0.023014 0.
0.521966 0.0230142 0.
0.523967 0.0230145 0.
0.525968 0.0230149 0.
0.527969 0.0230152 0.
0.52997 0.023016 0.
0.531971 0.0230169 0.
0.533972 0.0230173 0.
0.535973 0.0230167 0.
0.537974 0.0230162 0.
0.539975 0.0230158 0.
0.541976 0.0230156 0.
0.543977 0.0230153 0.
0.545978 0.0230157 0.
0.547978 0.0230163 0.
0.549979 0.0230168 0.
0.55198 0.0230172 0.
0.553981 0.0230175 0.
0.555982 0.0230178 0.
0.557983 0.023018 0.
0.559984 0.0230182 0.
0.561984 0.0230185 0.
0.563985 0.0230187 0.
0.565985 0.0230189 0.
0.567986 0.0230196 0.
0.569987 0.0230205 0.
0.571988 0.0230215 0.
0.573989 0.0230219 0.
0.57599 0.0230222 0.
0.57799 0.0230225 0.
0.579991 0.0230227 0.
0.581992 0.0230228 0.
0.583992 0.0230226 0.
0.585993 0.0230218 0.
0.587994 0.023021 0.
0.589994 0.023021 0.
0.591995 0.0230217 0.
0.593996 0.0230223 0.
0.595997 0.0230222 0.
0.597999 0.0230219 0.
0.6 0.0230215 0.
0.602001 0.0230222 0.
0.604002 0.0230228 0.
0.606003 0.0230233 0.
0.608003 0.0230229 0.
0.610004 0.0230225 0.
0.612005 0.0230218 0.
0.614005 0.0230207 0.
0.616005 0.0230196 0.
0.618006 0.0230198 0.
0.620007 0.0230207 0.
0.622008 0.0230216 0.
0.624009 0.0230209 0.
0.62601 0.02302 0.
0.628011 0.0230192 0.
0.630011 0.0230193 0.
0.632012 0.0230194 0.
0.634013 0.0230196 0.
0.636014 0.02302 0.
0.638015 0.0230204 0.
0.640016 0.0230203 0.
0.642017 0.0230198 0.
0.644018 0.0230192 0.
0.646019 0.023018 0.
0.648019 0.0230167 0.
0.65002 0.0230153 0.
0.652021 0.0230155 0.
0.654023 0.0230157 0.
0.656024 0.0230159 0.
0.658025 0.0230159 0.
0.660026 0.0230159 0.
0.662026 0.0230155 0.
0.664028 0.0230147 0.
0.666029 0.0230139 0.
0.66803 0.0230138 0.
0.67003 0.0230141 0.
0.672031 0.0230144 0.
0.674032 0.0230132 0.
0.676032 0.0230118 0.
0.678033 0.0230106 0.
0.680034 0.0230111 0.
0.682035 0.0230116 0.
0.684036 0.0230117 0.
0.686036 0.0230114 0.
0.688037 0.0230111 0.
0.690037 0.0230116 0.
0.692038 0.0230127 0.
0.694039 0.0230138 0.
0.69604 0.023015 0.
0.69804 0.0230163 0.
0.499958 0.0250178 0.
0.501958 0.0250172 0.
0.503959 0.0250167 0.
0.50596 0.0250162 0.
0.50796 0.0250161 0.
0.509961 0.025016 0.
0.511962 0.0250157 0.
0.513963 0.0250151 0.
0.515964 0.0250144 0.
0.517965 0.0250142 0.
0.519965 0.0250142 0.
0.521966 0.0250142 0.
0.523967 0.0250148 0.
0.525968 0.0250154 0.
0.52797 0.025016 0.
0.529971 0.0250168 0.
0.531972 0.0250177 0.
0.533973 0.025018 0.
0.535974 0.0250174 0.
0.537975 0.0250168 0.
0.539976 0.0250163 0.
0.541977 0.0250159 0.
0.543978 0.0250155 0.
0.545979 0.025016 0.
0.547979 0.0250168 0.
0.549979 0.0250176 0.
0.55198 0.0250178 0.
0.553981 0.025018 0.
0.555982 0.0250182 0.
0.557983 0.0250185 0.
0.559984 0.0250187 0.
0.561985 0.0250189 0.
0.563985 0.0250191 0.
0.565985 0.0250194 0.
0.567986 0.0250199 0.
0.569987 0.0250207 0.
0.571988 0.0250214 0.
0.573989 0.0250219 0.
0.57599 0.0250223 0.
0.577991 0.0250227 0.
0.579992 0.0250229 0.
0.581992 0.0250231 0.
0.583993 0.0250229 0.
0.585993 0.0250219 0.
0.587994 0.0250209 0.
0.589994 0.0250211 0.
0.591995 0.0250222 0.
0.593997 0.0250232 0.
0.595998 0.0250232 0.
0.597999 0.0250228 0.
0.6 0.0250224 0.
0.602001 0.0250231 0.
0.604002 0.0250237 0.
0.606003 0.0250241 0.
0.608004 0.0250237 0.
0.610004 0.0250232 0.
0.612005 0.0250225 0.
0.614005 0.0250214 0.
0.616006 0.0250204 0.
0.618006 0.0250207 0.
0.620007 0.0250217 0.
0.622008 0.0250226 0.
0.624009 0.0250216 0.
0.62601 0.0250204 0.
0.628012 0.0250193 0.
0.630012 0.0250196 0.
0.632013 0.0250199 0.
0.634013 0.0250202 0.
0.636014 0.0250206 0.
0.638015 0.0250209 0.
0.640016 0.0250206 0.
0.642017 0.0250199 0.
0.644017 0.0250191 0.
0.646018 0.025018 0.
0.648019 0.0250167 0.
0.650019 0.0250155 0.
0.652021 0.0250154 0.
0.654022 0.0250154 0.
0.656023 0.0250154 0.
0.658024 0.0250155 0.
0.660025 0.0250157 0.
0.662026 0.0250154 0.
0.664027 0.0250146 0.
0.666028 0.0250138 0.
0.668029 0.0250139 0.
0.67003 0.0250143 0.
0.672031 0.0250147 0.
0.674032 0.0250135 0.
0.676032 0.0250121 0.
0.678033 0.0250109 0.
0.680034 0.0250114 0.
0.682034 0.0250118 0.
0.684035 0.025012 0.
0.686035 0.0250118 0.
0.688036 0.0250116 0.
0.690036 0.0250122 0.
0.692037 0.0250135 0.
0.694038 0.0250148 0.
0.696038 0.0250158 0.
0.698038 0.0250166 0.
0.499959 0.027019 0.
0.50196 0.0270183 0.
0.50396 0.0270175 0.
0.505961 0.0270168 0.
0.507961 0.0270166 0.
0.509962 0.0270164 0.
0.511963 0.027016 0.
0.513964 0.0270154 0.
0.515965 0.0270147 0.
0.517966 0.0270143 0.
0.519966 0.0270141 0.
0.521967 0.0270139 0.
0.523968 0.0270145 0.
0.525969 0.0270152 0.
0.52797 0.0270159 0.
0.529972 0.0270165 0.
0.531973 0.0270172 0.
0.533974 0.0270175 0.
0.535975 0.027017 0.
0.537976 0.0270165 0.
0.539977 0.0270163 0.
0.541978 0.0270163 0.
0.543979 0.0270164 0.
0.545979 0.0270167 0.
0.54798 0.0270172 0.
0.54998 0.0270177 0.
0.551981 0.0270179 0.
0.553982 0.0270181 0.
0.555983 0.0270183 0.
0.557984 0.0270185 0.
0.559984 0.0270187 0.
0.561985 0.0270189 0.
0.563986 0.0270191 0.
0.565986 0.0270193 0.
0.567987 0.0270198 0.
0.569988 0.0270206 0.
0.571989 0.0270213 0.
0.57399 0.0270217 0.
0.57599 0.0270221 0.
0.577991 0.0270225 0.
0.579992 0.0270227 0.
0.581993 0.0270229 0.
0.583994 0.0270228 0.
0.585994 0.0270224 0.
0.587994 0.0270219 0.
0.589995 0.027022 0.
0.591996 0.0270226 0.
0.593997 0.0270232 0.
0.595998 0.0270233 0.
0.597999 0.0270232 0.
0.6 0.0270231 0.
0.602001 0.0270236 0.
0.604003 0.0270241 0.
0.606004 0.0270243 0.
0.608004 0.0270238 0.
0.610005 0.0270233 0.
0.612005 0.0270226 0.
0.614006 0.0270216 0.
0.616006 0.0270206 0.
0.618007 0.0270208 0.
0.620007 0.0270216 0.
0.622008 0.0270224 0.
0.624009 0.0270214 0.
0.62601 0.0270202 0.
0.628011 0.0270193 0.
0.630011 0.0270197 0.
0.632012 0.0270202 0.
0.634013 0.0270205 0.
0.636013 0.0270205 0.
0.638014 0.0270205 0.
0.640015 0.0270202 0.
0.642016 0.0270197 0.
0.644017 0.0270191 0.
0.646018 0.0270181 0.
0.648019 0.0270168 0.
0.65002 0.0270156 0.
0.652021 0.0270156 0.
0.654022 0.0270156 0.
0.656023 0.0270156 0.
0.658024 0.0270157 0.
0.660025 0.0270159 0.
0.662026 0.0270156 0.
0.664026 0.0270148 0.
0.666027 0.0270139 0.
0.668028 0.0270139 0.
0.670029 0.0270141 0.
0.67203 0.0270144 0.
0.674031 0.0270133 0.
0.676031 0.0270121 0.
0.678032 0.0270111 0.
0.680033 0.0270117 0.
0.682033 0.0270123 0.
0.684034 0.0270127 0.
0.686035 0.0270126 0.
0.688035 0.0270125 0.
0.690036 0.0270131 0.
0.692036 0.0270144 0.
0.694037 0.0270157 0.
0.696037 0.0270167 0.
0.698038 0.0270176 0.
0.49996 0.0290203 0.
0.501961 0.0290193 0.
0.503961 0.0290182 0.
0.505962 0.0290173 0.
0.507962 0.0290171 0.
0.509963 0.0290168 0.
0.511964 0.0290164 0.
0.513965 0.0290156 0.
0.515966 0.0290149 0.
0.517966 0.0290144 0.
0.519968 0.029014 0.
0.521969 0.0290136 0.
0.523969 0.0290142 0.
0.52597 0.029015 0.
0.527971 0.0290158 0.
0.529972 0.0290162 0.
0.531973 0.0290167 0.
0.533974 0.0290169 0.
0.535976 0.0290166 0.
0.537977 0.0290163 0.
0.539978 0.0290164 0.
0.541978 0.0290168 0.
0.543979 0.0290173 0.
0.54598 0.0290175 0.
0.547981 0.0290177 0.
0.549982 0.0290179 0.
0.551982 0.029018 0.
0.553983 0.0290182 0.
0.555983 0.0290184 0.
0.557984 0.0290186 0.
0.559985 0.0290187 0.
0.561985 0.0290188 0.
0.563986 0.029019 0.
0.565987 0.0290191 0.
0.567988 0.0290197 0.
0.569989 0.0290205 0.
0.571989 0.0290213 0.
0.57399 0.0290216 0.
0.57599 0.0290219 0.
0.577991 0.0290222 0.
0.579992 0.0290224 0.
0.581994 0.0290226 0.
0.583995 0.0290227 0.
0.585995 0.0290228 0.
0.587995 0.0290229 0.
0.589995 0.029023 0.
0.591996 0.0290231 0.
0.593997 0.0290232 0.
0.595998 0.0290234 0.
0.597999 0.0290236 0.
0.6 0.0290238 0.
0.602002 0.0290241 0.
0.604003 0.0290244 0.
0.606004 0.0290245 0.
0.608005 0.029024 0.
0.610005 0.0290234 0.
0.612006 0.0290227 0.
0.614006 0.0290218 0.
0.616007 0.0290209 0.
0.618007 0.0290209 0.
0.620007 0.0290215 0.
0.622008 0.0290221 0.
0.624008 0.0290212 0.
0.626009 0.0290201 0.
0.62801 0.0290192 0.
0.630011 0.0290198 0.
0.632011 0.0290204 0.
0.634012 0.0290207 0.
0.636013 0.0290204 0.
0.638014 0.0290201 0.
0.640015 0.0290198 0.
0.642016 0.0290195 0.
0.644017 0.0290192 0.
0.646018 0.0290182 0.
0.648019 0.0290169 0.
0.65002 0.0290157 0.
0.652021 0.0290157 0.
0.654022 0.0290158 0.
0.656022 0.0290158 0.
0.658024 0.029016 0.
0.660025 0.0290161 0.
0.662025 0.0290158 0.
0.664026 0.0290149 0.
0.666027 0.0290141 0.
0.668027 0.0290139 0.
0.670028 0.0290139 0.
0.672029 0.029014 0.
0.67403 0.0290131 0.
0.67603 0.0290121 0.
0.678031 0.0290113 0.
0.680032 0.0290121 0.
0.682032 0.0290129 0.
0.684033 0.0290134 0.
0.686034 0.0290133 0.
0.688034 0.0290133 0.
0.690035 0.029014 0.
0.692035 0.0290153 0.
0.694036 0.0290165 0.
0.696037 0.0290176 0.
0.698038 0.0290186 0.
0.499961 0.031021 0.
0.501962 0.03102 0.
0.503963 0.0310189 0.
0.505963 0.0310179 0.
0.507964 0.0310175 0.
0.509965 0.0310171 0.
0.511965 0.0310165 0.
0.513966 0.0310158 0.
0.515967 0.0310152 0.
0.517967 0.0310146 0.
0.519969 0.0310142 0.
0.52197 0.0310137 0.
0.523971 0.0310144 0.
0.525971 0.0310151 0.
0.527972 0.0310159 0.
0.529973 0.0310161 0.
0.531974 0.0310163 0.
0.533975 0.0310164 0.
0.535976 0.0310165 0.
0.537977 0.0310165 0.
0.539978 0.0310168 0.
0.541979 0.0310173 0.
0.54398 0.0310179 0.
0.545981 0.0310181 0.
0.547982 0.0310181 0.
0.549983 0.0310182 0.
0.551983 0.0310183 0.
0.553984 0.0310184 0.
0.555984 0.0310185 0.
0.557985 0.0310187 0.
0.559985 0.031019 0.
0.561986 0.0310191 0.
0.563987 0.0310192 0.
0.565987 0.0310192 0.
0.567988 0.0310198 0.
0.569989 0.0310206 0.
0.57199 0.0310213 0.
0.573991 0.0310217 0.
0.575991 0.031022 0.
0.577992 0.0310222 0.
0.579993 0.0310225 0.
0.581994 0.0310227 0.
0.583995 0.031023 0.
0.585995 0.0310234 0.
0.587995 0.0310238 0.
0.589996 0.0310239 0.
0.591996 0.0310236 0.
0.593997 0.0310234 0.
0.595998 0.0310236 0.
0.597999 0.031024 0.
0.6 0.0310243 0.
0.602002 0.0310245 0.
0.604003 0.0310247 0.
0.606004 0.0310247 0.
0.608005 0.0310242 0.
0.610005 0.0310237 0.
0.612006 0.0310231 0.
0.614007 0.0310223 0.
0.616007 0.0310214 0.
0.618007 0.0310214 0.
0.620007 0.0310218 0.
0.622008 0.0310221 0.
0.624008 0.0310213 0.
0.626009 0.0310204 0.
0.62801 0.0310196 0.
0.630011 0.0310202 0.
0.632011 0.0310207 0.
0.634012 0.031021 0.
0.636013 0.0310205 0.
0.638014 0.03102 0.
0.640015 0.0310197 0.
0.642016 0.0310193 0.
0.644017 0.031019 0.
0.646018 0.0310182 0.
0.648019 0.0310171 0.
0.65002 0.0310161 0.
0.652021 0.0310161 0.
0.654021 0.031016 0.
0.656022 0.0310161 0.
0.658023 0.0310162 0.
0.660024 0.0310163 0.
0.662025 0.0310159 0.
0.664026 0.0310151 0.
0.666026 0.0310143 0.
0.668027 0.0310141 0.
0.670027 0.0310141 0.
0.672028 0.0310141 0.
0.674029 0.0310132 0.
0.676029 0.0310123 0.
0.67803 0.0310116 0.
0.680031 0.0310124 0.
0.682031 0.0310132 0.
0.684032 0.0310138 0.
0.686033 0.0310139 0.
0.688033 0.0310141 0.
0.690034 0.0310149 0.
0.692035 0.0310161 0.
0.694035 0.0310174 0.
0.696036 0.0310184 0.
0.698037 0.0310193 0.
0.499963 0.0330213 0.
0.501964 0.0330205 0.
0.503964 0.0330195 0.
0.505965 0.0330185 0.
0.507966 0.0330178 0.
0.509967 0.0330172 0.
0.511967 0.0330165 0.
0.513968 0.0330159 0.
0.515968 0.0330154 0.
0.517969 0.033015 0.
0.51997 0.0330146 0.
0.521971 0.0330143 0.
0.523972 0.0330149 0.
0.525973 0.0330155 0.
0.527974 0.0330161 0.
0.529975 0.033016 0.
0.531975 0.033016 0.
0.533976 0.0330161 0.
0.535977 0.0330165 0.
0.537978 0.033017 0.
0.539979 0.0330174 0.
0.54198 0.0330178 0.
0.54398 0.0330182 0.
0.545981 0.0330184 0.
0.547982 0.0330186 0.
0.549983 0.0330188 0.
0.551984 0.0330187 0.
0.553984 0.0330186 0.
0.555985 0.0330186 0.
0.557986 0.0330191 0.
0.559986 0.0330195 0.
0.561987 0.0330198 0.
0.563987 0.0330197 0.
0.565988 0.0330196 0.
0.567989 0.03302 0.
0.56999 0.0330208 0.
0.571991 0.0330216 0.
0.573992 0.0330219 0.
0.575992 0.0330222 0.
0.577993 0.0330225 0.
0.579994 0.0330229 0.
0.581995 0.0330232 0.
0.583995 0.0330237 0.
0.585995 0.0330242 0.
0.587995 0.0330248 0.
0.589996 0.0330248 0.
0.591996 0.0330243 0.
0.593997 0.0330239 0.
0.595998 0.033024 0.
0.597999 0.0330243 0.
0.6 0.0330246 0.
0.602002 0.0330248 0.
0.604003 0.033025 0.
0.606005 0.033025 0.
0.608005 0.0330246 0.
0.610006 0.0330241 0.
0.612006 0.0330236 0.
0.614006 0.033023 0.
0.616006 0.0330223 0.
0.618007 0.0330222 0.
0.620007 0.0330224 0.
0.622008 0.0330226 0.
0.624009 0.0330219 0.
0.62601 0.0330211 0.
0.628011 0.0330204 0.
0.630011 0.0330207 0.
0.632012 0.0330211 0.
0.634012 0.0330211 0.
0.636014 0.0330207 0.
0.638015 0.0330203 0.
0.640016 0.0330198 0.
0.642017 0.0330192 0.
0.644018 0.0330187 0.
0.646018 0.0330181 0.
0.648019 0.0330174 0.
0.650019 0.0330168 0.
0.65202 0.0330166 0.
0.654021 0.0330164 0.
0.656021 0.0330163 0.
0.658022 0.0330163 0.
0.660024 0.0330164 0.
0.662025 0.0330161 0.
0.664025 0.0330154 0.
0.666026 0.0330146 0.
0.668026 0.0330144 0.
0.670027 0.0330145 0.
0.672027 0.0330145 0.
0.674028 0.0330136 0.
0.676029 0.0330127 0.
0.678029 0.0330119 0.
0.68003 0.0330127 0.
0.682031 0.0330134 0.
0.684032 0.033014 0.
0.686032 0.0330144 0.
0.688033 0.0330148 0.
0.690033 0.0330157 0.
0.692034 0.033017 0.
0.694035 0.0330183 0.
0.696036 0.033019 0.
0.698036 0.0330197 0.
0.499964 0.0350216 0.
0.501965 0.0350209 0.
0.503966 0.03502 0.
0.505967 0.0350192 0.
0.507968 0.0350182 0.
0.509969 0.0350173 0.
0.511969 0.0350165 0.
0.513969 0.035016 0.
0.515969 0.0350156 0.
0.51797 0.0350153 0.
0.519971 0.0350151 0.
0.521972 0.0350149 0.
0.523973 0.0350154 0.
0.525974 0.0350159 0.
0.527975 0.0350164 0.
0.529976 0.035016 0.
0.531977 0.0350157 0.
0.533977 0.0350157 0.
0.535978 0.0350166 0.
0.537978 0.0350176 0.
0.539979 0.0350181 0.
0.54198 0.0350183 0.
0.543981 0.0350185 0.
0.545982 0.0350188 0.
0.547983 0.0350191 0.
0.549983 0.0350194 0.
0.551984 0.0350191 0.
0.553985 0.0350188 0.
0.555986 0.0350187 0.
0.557986 0.0350194 0.
0.559987 0.0350201 0.
0.561987 0.0350204 0.
0.563988 0.0350201 0.
0.565989 0.0350199 0.
0.56799 0.0350203 0.
0.569991 0.035021 0.
0.571992 0.0350218 0.
0.573992 0.0350221 0.
0.575993 0.0350225 0.
0.577994 0.0350228 0.
0.579994 0.0350233 0.
0.581995 0.0350238 0.
0.583995 0.0350243 0.
0.585995 0.035025 0.
0.587995 0.0350257 0.
0.589996 0.0350257 0.
0.591997 0.0350251 0.
0.593997 0.0350244 0.
0.595998 0.0350245 0.
0.597999 0.0350247 0.
0.6 0.0350249 0.
0.602002 0.0350251 0.
0.604004 0.0350252 0.
0.606005 0.0350253 0.
0.608005 0.0350249 0.
0.610006 0.0350246 0.
0.612006 0.0350242 0.
0.614006 0.0350237 0.
0.616006 0.0350232 0.
0.618006 0.035023 0.
0.620007 0.035023 0.
0.622008 0.035023 0.
0.624009 0.0350224 0.
0.62601 0.0350218 0.
0.628011 0.0350212 0.
0.630012 0.0350213 0.
0.632012 0.0350214 0.
0.634013 0.0350213 0.
0.636014 0.0350209 0.
0.638015 0.0350205 0.
0.640016 0.0350199 0.
0.642017 0.0350191 0.
0.644018 0.0350183 0.
0.646018 0.035018 0.
0.648018 0.0350178 0.
0.650019 0.0350175 0.
0.652019 0.0350171 0.
0.65402 0.0350167 0.
0.656021 0.0350165 0.
0.658022 0.0350165 0.
0.660023 0.0350165 0.
0.662024 0.0350163 0.
0.664024 0.0350156 0.
0.666025 0.035015 0.
0.668025 0.0350148 0.
0.670026 0.0350149 0.
0.672026 0.0350149 0.
0.674027 0.035014 0.
0.676028 0.035013 0.
0.678029 0.0350123 0.
0.68003 0.0350129 0.
0.68203 0.0350136 0.
0.684031 0.0350142 0.
0.686031 0.0350148 0.
0.688032 0.0350154 0.
0.690032 0.0350165 0.
0.692034 0.0350178 0.
0.694035 0.0350191 0.
0.696035 0.0350197 0.
0.698036 0.0350201 0.
0.499965 0.0370214 0.
0.501967 0.0370207 0.
0.503968 0.0370198 0.
0.505968 0.0370189 0.
0.507969 0.0370184 0.
0.509969 0.0370178 0.
0.51197 0.0370172 0.
0.513971 0.0370166 0.
0.515971 0.037016 0.
0.517972 0.0370156 0.
0.519972 0.0370154 0.
0.521973 0.0370151 0.
0.523974 0.0370153 0.
0.525974 0.0370154 0.
0.527975 0.0370156 0.
0.529976 0.0370156 0.
0.531977 0.0370157 0.
0.533978 0.0370159 0.
0.535978 0.0370165 0.
0.537979 0.0370172 0.
0.53998 0.0370178 0.
0.541981 0.0370182 0.
0.543982 0.0370187 0.
0.545983 0.0370191 0.
0.547983 0.0370194 0.
0.549984 0.0370197 0.
0.551985 0.0370196 0.
0.553985 0.0370194 0.
0.555985 0.0370194 0.
0.557986 0.0370199 0.
0.559986 0.0370203 0.
0.561987 0.0370205 0.
0.563988 0.0370203 0.
0.565989 0.0370202 0.
0.56799 0.0370204 0.
0.569991 0.037021 0.
0.571991 0.0370215 0.
0.573992 0.037022 0.
0.575993 0.0370224 0.
0.577994 0.0370228 0.
0.579994 0.0370235 0.
0.581995 0.0370243 0.
0.583995 0.0370249 0.
0.585996 0.0370253 0.
0.587996 0.0370256 0.
0.589996 0.0370256 0.
0.591997 0.0370253 0.
0.593998 0.0370251 0.
0.595999 0.0370252 0.
0.598 0.0370254 0.
0.6 0.0370256 0.
0.602002 0.0370257 0.
0.604003 0.0370257 0.
0.606004 0.0370256 0.
0.608005 0.037025 0.
0.610005 0.0370245 0.
0.612006 0.0370241 0.
0.614006 0.0370238 0.
0.616006 0.0370236 0.
0.618007 0.0370234 0.
0.620007 0.0370234 0.
0.622008 0.0370233 0.
0.624009 0.0370228 0.
0.62601 0.0370222 0.
0.62801 0.0370217 0.
0.630011 0.0370217 0.
0.632012 0.0370216 0.
0.634013 0.0370216 0.
0.636014 0.0370215 0.
0.638015 0.0370214 0.
0.640016 0.0370208 0.
0.642016 0.0370197 0.
0.644017 0.0370187 0.
0.646018 0.0370181 0.
0.648018 0.0370175 0.
0.650019 0.037017 0.
0.652019 0.0370168 0.
0.65402 0.0370166 0.
0.65602 0.0370164 0.
0.658022 0.0370163 0.
0.660023 0.0370163 0.
0.662024 0.0370162 0.
0.664024 0.037016 0.
0.666025 0.0370158 0.
0.668025 0.0370154 0.
0.670025 0.037015 0.
0.672026 0.0370146 0.
0.674027 0.037014 0.
0.676027 0.0370133 0.
0.678028 0.0370128 0.
0.680029 0.0370135 0.
0.68203 0.0370141 0.
0.68403 0.0370147 0.
0.686031 0.0370151 0.
0.688031 0.0370155 0.
0.690031 0.0370162 0.
0.692032 0.0370173 0.
0.694033 0.0370184 0.
0.696034 0.0370193 0.
0.698034 0.0370202 0.
0.499966 0.0390213 0.
0.501968 0.0390205 0.
0.503969 0.0390195 0.
0.50597 0.0390187 0.
0.50797 0.0390185 0.
0.50997 0.0390184 0.
0.511971 0.0390179 0.
0.513972 0.0390171 0.
0.515973 0.0390164 0.
0.517974 0.0390159 0.
0.519974 0.0390156 0.
0.521974 0.0390154 0.
0.523975 0.0390151 0.
0.525975 0.0390149 0.
0.527975 0.0390148 0.
0.529976 0.0390152 0.
0.531978 0.0390157 0.
0.533979 0.0390161 0.
0.535979 0.0390165 0.
0.537979 0.0390168 0.
0.53998 0.0390174 0.
0.541981 0.0390182 0.
0.543982 0.0390189 0.
0.545983 0.0390193 0.
0.547984 0.0390196 0.
0.549985 0.0390199 0.
0.551985 0.03902 0.
0.553985 0.03902 0.
0.555985 0.0390201 0.
0.557986 0.0390203 0.
0.559986 0.0390205 0.
0.561987 0.0390206 0.
0.563988 0.0390205 0.
0.565989 0.0390204 0.
0.56799 0.0390206 0.
0.56999 0.039021 0.
0.571991 0.0390213 0.
0.573992 0.0390218 0.
0.575993 0.0390223 0.
0.577994 0.0390228 0.
0.579994 0.0390238 0.
0.581995 0.0390248 0.
0.583995 0.0390255 0.
0.585996 0.0390255 0.
0.587996 0.0390255 0.
0.589997 0.0390255 0.
0.591998 0.0390256 0.
0.593998 0.0390257 0.
0.595999 0.0390259 0.
0.598 0.0390261 0.
0.6 0.0390263 0.
0.602001 0.0390262 0.
0.604002 0.0390261 0.
0.606003 0.0390259 0.
0.608004 0.0390251 0.
0.610004 0.0390244 0.
0.612005 0.039024 0.
0.614006 0.039024 0.
0.616007 0.0390239 0.
0.618007 0.0390238 0.
0.620008 0.0390237 0.
0.622008 0.0390236 0.
0.624009 0.0390231 0.
0.626009 0.0390226 0.
0.62801 0.0390221 0.
0.630011 0.039022 0.
0.632012 0.0390219 0.
0.634013 0.0390218 0.
0.636014 0.039022 0.
0.638014 0.0390222 0.
0.640015 0.0390216 0.
0.642016 0.0390203 0.
0.644016 0.039019 0.
0.646017 0.0390181 0.
0.648018 0.0390173 0.
0.650019 0.0390165 0.
0.65202 0.0390165 0.
0.65402 0.0390164 0.
0.65602 0.0390163 0.
0.658022 0.0390162 0.
0.660023 0.039016 0.
0.662024 0.0390161 0.
0.664024 0.0390163 0.
0.666025 0.0390166 0.
0.668025 0.039016 0.
0.670025 0.0390151 0.
0.672026 0.0390142 0.
0.674026 0.0390139 0.
0.676027 0.0390135 0.
0.678028 0.0390133 0.
0.680029 0.039014 0.
0.682029 0.0390147 0.
0.68403 0.0390152 0.
0.68603 0.0390153 0.
0.68803 0.0390155 0.
0.69003 0.039016 0.
0.69203 0.0390168 0.
0.694031 0.0390176 0.
0.696032 0.0390189 0.
0.698033 0.0390203 0.
0.499967 0.0410215 0.
0.501969 0.0410206 0.
0.50397 0.0410196 0.
0.50597 0.0410188 0.
0.507971 0.0410187 0.
0.509971 0.0410186 0.
0.511972 0.0410182 0.
0.513973 0.0410174 0.
0.515974 0.0410165 0.
0.517975 0.0410161 0.
0.519975 0.0410159 0.
0.521975 0.0410157 0.
0.523976 0.0410154 0.
0.525976 0.041015 0.
0.527976 0.0410147 0.
0.529977 0.0410153 0.
0.531978 0.0410159 0.
0.533979 0.0410163 0.
0.53598 0.0410166 0.
0.53798 0.0410169 0.
0.539981 0.0410175 0.
0.541982 0.0410184 0.
0.543983 0.0410193 0.
0.545983 0.0410197 0.
0.547984 0.0410199 0.
0.549985 0.04102 0.
0.551985 0.0410202 0.
0.553985 0.0410204 0.
0.555985 0.0410205 0.
0.557986 0.0410206 0.
0.559986 0.0410207 0.
0.561987 0.0410208 0.
0.563988 0.0410209 0.
0.565989 0.041021 0.
0.56799 0.0410212 0.
0.56999 0.0410214 0.
0.571991 0.0410216 0.
0.573992 0.041022 0.
0.575993 0.0410225 0.
0.577994 0.0410231 0.
0.579994 0.0410242 0.
0.581994 0.0410252 0.
0.583995 0.0410259 0.
0.585996 0.0410258 0.
0.587996 0.0410256 0.
0.589997 0.0410258 0.
0.591998 0.0410261 0.
0.593998 0.0410264 0.
0.595999 0.0410266 0.
0.598 0.0410269 0.
0.6 0.0410271 0.
0.602001 0.0410268 0.
0.604002 0.0410265 0.
0.606003 0.041026 0.
0.608004 0.0410253 0.
0.610004 0.0410245 0.
0.612005 0.0410242 0.
0.614006 0.0410243 0.
0.616007 0.0410244 0.
0.618008 0.0410244 0.
0.620008 0.0410242 0.
0.622008 0.041024 0.
0.624009 0.0410235 0.
0.626009 0.041023 0.
0.62801 0.0410226 0.
0.630011 0.0410222 0.
0.632012 0.0410219 0.
0.634013 0.0410218 0.
0.636013 0.0410221 0.
0.638014 0.0410225 0.
0.640015 0.0410219 0.
0.642015 0.0410207 0.
0.644016 0.0410194 0.
0.646017 0.0410184 0.
0.648018 0.0410176 0.
0.650019 0.0410167 0.
0.652019 0.0410165 0.
0.65402 0.0410163 0.
0.65602 0.0410161 0.
0.658021 0.0410161 0.
0.660022 0.0410161 0.
0.662023 0.0410162 0.
0.664024 0.0410165 0.
0.666024 0.0410169 0.
0.668025 0.0410164 0.
0.670025 0.0410155 0.
0.672025 0.0410146 0.
0.674026 0.0410142 0.
0.676026 0.0410139 0.
0.678027 0.0410137 0.
0.680028 0.0410144 0.
0.682029 0.041015 0.
0.684029 0.0410155 0.
0.686029 0.0410157 0.
0.688029 0.0410158 0.
0.690029 0.0410162 0.
0.692029 0.0410168 0.
0.69403 0.0410174 0.
0.696031 0.0410188 0.
0.698032 0.0410204 0.
0.499968 0.043022 0.
0.501969 0.043021 0.
0.50397 0.0430201 0.
0.505971 0.0430193 0.
0.507971 0.043019 0.
0.509972 0.0430187 0.
0.511972 0.0430182 0.
0.513974 0.0430173 0.
0.515975 0.0430165 0.
0.517975 0.0430162 0.
0.519976 0.0430163 0.
0.521976 0.0430163 0.
0.523977 0.043016 0.
0.525977 0.0430156 0.
0.527978 0.0430153 0.
0.529978 0.0430158 0.
0.531979 0.0430163 0.
0.53398 0.0430167 0.
0.53598 0.0430169 0.
0.537981 0.0430172 0.
0.539982 0.0430179 0.
0.541982 0.0430189 0.
0.543983 0.0430199 0.
0.545984 0.0430201 0.
0.547984 0.0430201 0.
0.549985 0.04302 0.
0.551985 0.0430203 0.
0.553986 0.0430205 0.
0.555986 0.0430207 0.
0.557987 0.0430207 0.
0.559987 0.0430207 0.
0.561988 0.0430209 0.
0.563989 0.0430215 0.
0.56599 0.043022 0.
0.56799 0.0430222 0.
0.569991 0.0430222 0.
0.571991 0.0430222 0.
0.573991 0.0430226 0.
0.575992 0.0430231 0.
0.577993 0.0430236 0.
0.579993 0.0430246 0.
0.581993 0.0430256 0.
0.583994 0.0430263 0.
0.585995 0.0430262 0.
0.587996 0.0430261 0.
0.589996 0.0430263 0.
0.591997 0.0430266 0.
0.593998 0.043027 0.
0.595999 0.0430273 0.
0.598 0.0430277 0.
0.6 0.043028 0.
0.602002 0.0430273 0.
0.604003 0.0430267 0.
0.606004 0.043026 0.
0.608004 0.0430255 0.
0.610005 0.0430249 0.
0.612005 0.0430247 0.
0.614006 0.0430249 0.
0.616007 0.0430251 0.
0.618008 0.043025 0.
0.620008 0.0430247 0.
0.622008 0.0430244 0.
0.624009 0.043024 0.
0.62601 0.0430235 0.
0.62801 0.043023 0.
0.630011 0.0430224 0.
0.632012 0.0430217 0.
0.634013 0.0430214 0.
0.636013 0.0430218 0.
0.638014 0.0430222 0.
0.640014 0.0430219 0.
0.642015 0.0430208 0.
0.644016 0.0430198 0.
0.646017 0.043019 0.
0.648017 0.0430182 0.
0.650017 0.0430174 0.
0.652018 0.0430168 0.
0.654019 0.0430162 0.
0.65602 0.0430159 0.
0.65802 0.0430162 0.
0.660021 0.0430165 0.
0.662022 0.0430167 0.
0.664023 0.0430167 0.
0.666023 0.0430167 0.
0.668024 0.0430164 0.
0.670024 0.0430161 0.
0.672025 0.0430157 0.
0.674025 0.0430151 0.
0.676026 0.0430144 0.
0.678026 0.0430139 0.
0.680027 0.0430145 0.
0.682027 0.0430152 0.
0.684028 0.0430157 0.
0.686028 0.0430161 0.
0.688028 0.0430164 0.
0.690028 0.0430168 0.
0.692029 0.0430172 0.
0.694029 0.0430176 0.
0.69603 0.043019 0.
0.698031 0.0430207 0.
0.499969 0.0450226 0.
0.50197 0.0450214 0.
0.503971 0.0450206 0.
0.505972 0.0450198 0.
0.507972 0.0450193 0.
0.509973 0.0450187 0.
0.511973 0.0450181 0.
0.513974 0.0450173 0.
0.515975 0.0450165 0.
0.517976 0.0450163 0.
0.519977 0.0450166 0.
0.521977 0.0450168 0.
0.523978 0.0450166 0.
0.525979 0.0450162 0.
0.527979 0.0450159 0.
0.52998 0.0450163 0.
0.53198 0.0450167 0.
0.53398 0.045017 0.
0.535981 0.0450173 0.
0.537982 0.0450175 0.
0.539983 0.0450183 0.
0.541983 0.0450194 0.
0.543984 0.0450205 0.
0.545984 0.0450206 0.
0.547984 0.0450203 0.
0.549984 0.0450199 0.
0.551985 0.0450203 0.
0.553987 0.0450206 0.
0.555988 0.0450209 0.
0.557988 0.0450208 0.
0.559988 0.0450208 0.
0.561988 0.0450211 0.
0.563989 0.045022 0.
0.56599 0.0450229 0.
0.567991 0.0450231 0.
0.569991 0.045023 0.
0.571991 0.0450229 0.
0.573991 0.0450232 0.
0.575991 0.0450236 0.
0.577992 0.045024 0.
0.579992 0.045025 0.
0.581993 0.045026 0.
0.583993 0.0450267 0.
0.585994 0.0450266 0.
0.587995 0.0450266 0.
0.589996 0.0450268 0.
0.591996 0.0450272 0.
0.593997 0.0450276 0.
0.595998 0.045028 0.
0.597999 0.0450284 0.
0.6 0.0450288 0.
0.602002 0.0450278 0.
0.604003 0.0450268 0.
0.606004 0.045026 0.
0.608005 0.0450256 0.
0.610005 0.0450252 0.
0.612006 0.0450252 0.
0.614007 0.0450255 0.
0.616007 0.0450258 0.
0.618008 0.0450256 0.
0.620008 0.0450252 0.
0.622008 0.0450248 0.
0.624009 0.0450244 0.
0.62601 0.045024 0.
0.628011 0.0450235 0.
0.630012 0.0450225 0.
0.632012 0.0450216 0.
0.634012 0.0450211 0.
0.636013 0.0450216 0.
0.638013 0.045022 0.
0.640014 0.0450218 0.
0.642015 0.045021 0.
0.644016 0.0450202 0.
0.646016 0.0450195 0.
0.648016 0.0450189 0.
0.650016 0.0450182 0.
0.652017 0.0450172 0.
0.654018 0.0450162 0.
0.656019 0.0450156 0.
0.65802 0.0450162 0.
0.66002 0.0450169 0.
0.662021 0.0450171 0.
0.664022 0.0450168 0.
0.666023 0.0450165 0.
0.668023 0.0450165 0.
0.670024 0.0450167 0.
0.672024 0.0450169 0.
0.674025 0.0450159 0.
0.676025 0.0450149 0.
0.678025 0.045014 0.
0.680026 0.0450147 0.
0.682026 0.0450153 0.
0.684026 0.0450159 0.
0.686027 0.0450165 0.
0.688027 0.045017 0.
0.690028 0.0450174 0.
0.692028 0.0450176 0.
0.694029 0.0450179 0.
0.69603 0.0450193 0.
0.698031 0.0450209 0.
0.499971 0.047022 0.
0.501971 0.0470211 0.
0.503972 0.0470203 0.
0.505973 0.0470196 0.
0.507973 0.047019 0.
0.509974 0.0470183 0.
0.511974 0.0470178 0.
0.513975 0.0470174 0.
0.515976 0.047017 0.
0.517977 0.0470167 0.
0.519977 0.0470165 0.
0.521978 0.0470162 0.
0.523978 0.0470163 0.
0.525979 0.0470164 0.
0.52798 0.0470165 0.
0.52998 0.0470167 0.
0.53198 0.0470168 0.
0.533981 0.0470171 0.
0.535982 0.0470176 0.
0.537982 0.047018 0.
0.539983 0.0470185 0.
0.541983 0.0470191 0.
0.543984 0.0470196 0.
0.545984 0.0470197 0.
0.547985 0.0470195 0.
0.549986 0.0470194 0.
0.551986 0.04702 0.
0.553987 0.0470207 0.
0.555988 0.0470211 0.
0.557988 0.047021 0.
0.559988 0.0470208 0.
0.561989 0.0470211 0.
0.56399 0.047022 0.
0.56599 0.0470228 0.
0.567991 0.0470229 0.
0.569991 0.0470226 0.
0.571992 0.0470222 0.
0.573992 0.047023 0.
0.575992 0.0470239 0.
0.577992 0.0470247 0.
0.579992 0.0470256 0.
0.581993 0.0470264 0.
0.583993 0.047027 0.
0.585994 0.0470271 0.
0.587995 0.0470272 0.
0.589996 0.0470274 0.
0.591997 0.0470276 0.
0.593998 0.0470279 0.
0.595999 0.047028 0.
0.598 0.0470281 0.
0.600001 0.0470283 0.
0.602002 0.0470275 0.
0.604003 0.0470268 0.
0.606004 0.0470262 0.
0.608005 0.0470259 0.
0.610005 0.0470256 0.
0.612006 0.0470255 0.
0.614006 0.0470257 0.
0.616007 0.0470259 0.
0.618008 0.0470258 0.
0.620008 0.0470255 0.
0.622008 0.0470252 0.
0.624009 0.0470245 0.
0.62601 0.0470237 0.
0.628011 0.047023 0.
0.630011 0.0470222 0.
0.632012 0.0470215 0.
0.634012 0.0470212 0.
0.636013 0.0470217 0.
0.638013 0.0470223 0.
0.640014 0.047022 0.
0.642015 0.0470211 0.
0.644016 0.0470202 0.
0.646016 0.0470197 0.
0.648016 0.0470194 0.
0.650016 0.047019 0.
0.652017 0.0470179 0.
0.654018 0.0470168 0.
0.656018 0.047016 0.
0.658019 0.0470163 0.
0.66002 0.0470166 0.
0.66202 0.0470167 0.
0.664021 0.0470168 0.
0.666022 0.0470168 0.
0.668022 0.047017 0.
0.670023 0.0470173 0.
0.672023 0.0470175 0.
0.674024 0.0470166 0.
0.676024 0.0470156 0.
0.678024 0.0470147 0.
0.680025 0.0470152 0.
0.682025 0.0470157 0.
0.684025 0.0470162 0.
0.686025 0.0470166 0.
0.688026 0.0470171 0.
0.690026 0.0470176 0.
0.692027 0.0470182 0.
0.694027 0.0470187 0.
0.696028 0.0470198 0.
0.698029 0.0470211 0.
0.499972 0.0490216 0.
0.501973 0.0490208 0.
0.503974 0.04902 0.
0.505974 0.0490193 0.
0.507975 0.0490186 0.
0.509975 0.0490179 0.
0.511975 0.0490175 0.
0.513976 0.0490175 0.
0.515977 0.0490176 0.
0.517977 0.0490171 0.
0.519978 0.0490164 0.
0.521978 0.0490156 0.
0.523979 0.0490161 0.
0.525979 0.0490166 0.
0.52798 0.0490171 0.
0.52998 0.0490171 0.
0.531981 0.049017 0.
0.533982 0.0490172 0.
0.535982 0.0490179 0.
0.537983 0.0490185 0.
0.539983 0.0490188 0.
0.541984 0.0490188 0.
0.543984 0.0490187 0.
0.545985 0.0490188 0.
0.547986 0.0490188 0.
0.549987 0.0490189 0.
0.551987 0.0490198 0.
0.553987 0.0490207 0.
0.555988 0.0490214 0.
0.557988 0.0490211 0.
0.559989 0.0490209 0.
0.561989 0.0490211 0.
0.56399 0.0490219 0.
0.56599 0.0490227 0.
0.567991 0.0490227 0.
0.569992 0.0490222 0.
0.571992 0.0490216 0.
0.573992 0.0490228 0.
0.575992 0.0490241 0.
0.577992 0.0490254 0.
0.579992 0.0490261 0.
0.581993 0.0490269 0.
0.583994 0.0490274 0.
0.585994 0.0490276 0.
0.587995 0.0490278 0.
0.589996 0.049028 0.
0.591997 0.049028 0.
0.593998 0.0490281 0.
0.595999 0.049028 0.
0.598 0.0490278 0.
0.600001 0.0490277 0.
0.602002 0.0490273 0.
0.604004 0.0490268 0.
0.606005 0.0490264 0.
0.608005 0.0490261 0.
0.610006 0.0490259 0.
0.612006 0.0490258 0.
0.614006 0.0490259 0.
0.616007 0.049026 0.
0.618008 0.0490259 0.
0.620008 0.0490258 0.
0.622009 0.0490256 0.
0.624009 0.0490246 0.
0.62601 0.0490235 0.
0.62801 0.0490224 0.
0.630011 0.0490219 0.
0.632011 0.0490214 0.
0.634012 0.0490213 0.
0.636013 0.0490219 0.
0.638013 0.0490225 0.
0.640014 0.0490223 0.
0.642015 0.0490212 0.
0.644016 0.0490202 0.
0.646016 0.0490199 0.
0.648017 0.0490198 0.
0.650017 0.0490197 0.
0.652017 0.0490186 0.
0.654018 0.0490174 0.
0.656018 0.0490165 0.
0.658018 0.0490164 0.
0.660019 0.0490162 0.
0.662019 0.0490163 0.
0.66402 0.0490168 0.
0.666021 0.0490172 0.
0.668021 0.0490175 0.
0.670022 0.0490179 0.
0.672022 0.0490182 0.
0.674023 0.0490173 0.
0.676023 0.0490162 0.
0.678023 0.0490153 0.
0.680024 0.0490157 0.
0.682024 0.049016 0.
0.684024 0.0490164 0.
0.686024 0.0490167 0.
0.688024 0.0490171 0.
0.690025 0.0490178 0.
0.692025 0.0490187 0.
0.694025 0.0490196 0.
0.696026 0.0490204 0.
0.698027 0.0490212 0.
0.499973 0.0510213 0.
0.501974 0.0510207 0.
0.503975 0.05102 0.
0.505975 0.0510194 0.
0.507976 0.0510186 0.
0.509976 0.0510178 0.
0.511976 0.0510174 0.
0.513977 0.0510176 0.
0.515978 0.0510178 0.
0.517978 0.0510173 0.
0.519979 0.0510164 0.
0.521979 0.0510155 0.
0.523979 0.0510161 0.
0.52598 0.0510169 0.
0.52798 0.0510176 0.
0.529981 0.0510175 0.
0.531982 0.0510175 0.
0.533982 0.0510176 0.
0.535983 0.0510182 0.
0.537983 0.0510188 0.
0.539984 0.0510189 0.
0.541984 0.0510187 0.
0.543985 0.0510184 0.
0.545986 0.0510186 0.
0.547987 0.0510189 0.
0.549987 0.0510192 0.
0.551988 0.05102 0.
0.553988 0.0510208 0.
0.555988 0.0510214 0.
0.557989 0.0510213 0.
0.559989 0.0510211 0.
0.56199 0.0510213 0.
0.56399 0.051022 0.
0.56599 0.0510228 0.
0.567991 0.0510227 0.
0.569992 0.0510223 0.
0.571992 0.0510219 0.
0.573992 0.0510231 0.
0.575992 0.0510245 0.
0.577992 0.0510258 0.
0.579993 0.0510265 0.
0.581994 0.0510272 0.
0.583994 0.0510278 0.
0.585995 0.051028 0.
0.587995 0.0510283 0.
0.589996 0.0510284 0.
0.591997 0.0510283 0.
0.593998 0.0510282 0.
0.595999 0.0510279 0.
0.598 0.0510276 0.
0.600001 0.0510272 0.
0.602002 0.0510271 0.
0.604004 0.0510268 0.
0.606005 0.0510266 0.
0.608005 0.0510264 0.
0.610005 0.0510262 0.
0.612006 0.0510262 0.
0.614006 0.0510262 0.
0.616007 0.0510262 0.
0.618007 0.0510262 0.
0.620008 0.0510262 0.
0.622009 0.0510262 0.
0.624009 0.0510249 0.
0.62601 0.0510235 0.
0.62801 0.0510222 0.
0.63001 0.0510219 0.
0.632011 0.0510216 0.
0.634012 0.0510215 0.
0.636013 0.0510221 0.
0.638013 0.0510226 0.
0.640014 0.0510223 0.
0.642015 0.0510214 0.
0.644016 0.0510204 0.
0.646016 0.0510202 0.
0.648016 0.0510202 0.
0.650017 0.0510202 0.
0.652017 0.0510191 0.
0.654017 0.0510181 0.
0.656018 0.0510171 0.
0.658018 0.0510166 0.
0.660018 0.0510161 0.
0.662019 0.0510162 0.
0.664019 0.0510167 0.
0.66602 0.0510173 0.
0.66802 0.0510178 0.
0.670021 0.0510182 0.
0.672022 0.0510186 0.
0.674022 0.0510177 0.
0.676022 0.0510167 0.
0.678023 0.0510158 0.
0.680023 0.0510161 0.
0.682023 0.0510164 0.
0.684023 0.0510167 0.
0.686023 0.0510171 0.
0.688023 0.0510174 0.
0.690024 0.0510181 0.
0.692024 0.0510191 0.
0.694024 0.05102 0.
0.696025 0.0510206 0.
0.698026 0.0510212 0.
0.499974 0.053021 0.
0.501975 0.0530207 0.
0.503976 0.0530203 0.
0.505976 0.0530199 0.
0.507977 0.0530189 0.
0.509977 0.0530179 0.
0.511978 0.0530174 0.
0.513978 0.0530176 0.
0.515979 0.0530177 0.
0.517979 0.0530173 0.
0.519979 0.0530166 0.
0.52198 0.053016 0.
0.52398 0.0530165 0.
0.52598 0.0530173 0.
0.527981 0.053018 0.
0.529981 0.0530181 0.
0.531982 0.0530181 0.
0.533983 0.0530183 0.
0.535983 0.0530186 0.
0.537984 0.0530188 0.
0.539985 0.0530189 0.
0.541985 0.0530188 0.
0.543986 0.0530187 0.
0.545987 0.0530192 0.
0.547987 0.0530198 0.
0.549987 0.0530204 0.
0.551987 0.0530207 0.
0.553988 0.0530211 0.
0.555988 0.0530213 0.
0.557989 0.0530214 0.
0.55999 0.0530214 0.
0.56199 0.0530217 0.
0.56399 0.0530223 0.
0.56599 0.0530229 0.
0.56799 0.053023 0.
0.569991 0.053023 0.
0.571992 0.053023 0.
0.573992 0.0530239 0.
0.575993 0.0530249 0.
0.577994 0.0530259 0.
0.579994 0.0530267 0.
0.581995 0.0530275 0.
0.583995 0.0530281 0.
0.585996 0.0530284 0.
0.587996 0.0530286 0.
0.589997 0.0530286 0.
0.591997 0.0530284 0.
0.593998 0.0530282 0.
0.595999 0.0530278 0.
0.598 0.0530273 0.
0.600001 0.0530269 0.
0.602002 0.0530269 0.
0.604003 0.0530269 0.
0.606004 0.0530269 0.
0.608005 0.0530268 0.
0.610005 0.0530267 0.
0.612006 0.0530266 0.
0.614006 0.0530266 0.
0.616007 0.0530266 0.
0.618007 0.0530267 0.
0.620008 0.0530268 0.
0.622008 0.053027 0.
0.624009 0.0530255 0.
0.626009 0.0530237 0.
0.62801 0.0530221 0.
0.63001 0.053022 0.
0.632011 0.0530219 0.
0.634011 0.0530219 0.
0.636012 0.0530221 0.
0.638013 0.0530224 0.
0.640014 0.0530221 0.
0.642014 0.0530215 0.
0.644015 0.0530209 0.
0.646016 0.0530207 0.
0.648016 0.0530206 0.
0.650017 0.0530205 0.
0.652017 0.0530196 0.
0.654017 0.0530187 0.
0.656018 0.0530179 0.
0.658018 0.0530171 0.
0.660018 0.0530163 0.
0.662018 0.0530162 0.
0.664019 0.0530167 0.
0.666019 0.0530173 0.
0.66802 0.0530178 0.
0.67002 0.0530182 0.
0.672021 0.0530186 0.
0.674021 0.0530178 0.
0.676022 0.0530169 0.
0.678022 0.0530161 0.
0.680022 0.0530165 0.
0.682022 0.0530168 0.
0.684022 0.0530172 0.
0.686022 0.0530177 0.
0.688023 0.0530181 0.
0.690023 0.0530186 0.
0.692023 0.0530193 0.
0.694023 0.0530199 0.
0.696024 0.0530205 0.
0.698025 0.053021 0.
0.499976 0.0550207 0.
0.501976 0.0550206 0.
0.503977 0.0550206 0.
0.505977 0.0550204 0.
0.507978 0.0550192 0.
0.509978 0.055018 0.
0.511979 0.0550174 0.
0.513979 0.0550175 0.
0.51598 0.0550177 0.
0.51798 0.0550174 0.
0.51998 0.0550169 0.
0.521981 0.0550164 0.
0.523981 0.0550169 0.
0.525981 0.0550177 0.
0.527981 0.0550184 0.
0.529982 0.0550186 0.
0.531983 0.0550188 0.
0.533983 0.0550189 0.
0.535984 0.0550189 0.
0.537985 0.0550189 0.
0.539985 0.0550189 0.
0.541986 0.055019 0.
0.543987 0.0550191 0.
0.545987 0.0550198 0.
0.547987 0.0550207 0.
0.549987 0.0550216 0.
0.551987 0.0550214 0.
0.553988 0.0550213 0.
0.555989 0.0550213 0.
0.557989 0.0550215 0.
0.55999 0.0550218 0.
0.56199 0.0550222 0.
0.56399 0.0550226 0.
0.56599 0.055023 0.
0.56799 0.0550234 0.
0.569991 0.0550237 0.
0.571991 0.0550241 0.
0.573992 0.0550247 0.
0.575994 0.0550254 0.
0.577995 0.0550261 0.
0.579995 0.055027 0.
0.581996 0.0550278 0.
0.583996 0.0550285 0.
0.585996 0.0550287 0.
0.587997 0.0550289 0.
0.589997 0.0550289 0.
0.591998 0.0550286 0.
0.593998 0.0550282 0.
0.595999 0.0550277 0.
0.598 0.0550271 0.
0.600001 0.0550265 0.
0.602002 0.0550268 0.
0.604003 0.055027 0.
0.606004 0.0550272 0.
0.608004 0.0550272 0.
0.610005 0.0550272 0.
0.612005 0.0550271 0.
0.614006 0.055027 0.
0.616007 0.0550269 0.
0.618007 0.0550271 0.
0.620008 0.0550275 0.
0.622008 0.0550278 0.
0.624009 0.055026 0.
0.626009 0.0550239 0.
0.62801 0.0550221 0.
0.63001 0.0550222 0.
0.63201 0.0550223 0.
0.634011 0.0550223 0.
0.636012 0.0550222 0.
0.638013 0.0550221 0.
0.640013 0.055022 0.
0.642014 0.0550217 0.
0.644015 0.0550215 0.
0.646015 0.0550212 0.
0.648016 0.055021 0.
0.650016 0.0550207 0.
0.652017 0.0550201 0.
0.654017 0.0550194 0.
0.656018 0.0550186 0.
0.658017 0.0550176 0.
0.660017 0.0550165 0.
0.662017 0.0550162 0.
0.664018 0.0550167 0.
0.666019 0.0550173 0.
0.668019 0.0550178 0.
0.670019 0.0550182 0.
0.67202 0.0550187 0.
0.67402 0.055018 0.
0.676021 0.0550171 0.
0.678021 0.0550164 0.
0.680021 0.0550168 0.
0.682021 0.0550173 0.
0.684021 0.0550177 0.
0.686021 0.0550182 0.
0.688022 0.0550187 0.
0.690022 0.0550192 0.
0.692023 0.0550195 0.
0.694023 0.0550199 0.
0.696023 0.0550203 0.
0.698024 0.0550208 0.
0.499977 0.0570204 0.
0.501977 0.0570207 0.
0.503978 0.0570209 0.
0.505979 0.0570208 0.
0.507979 0.0570195 0.
0.509979 0.0570182 0.
0.51198 0.0570176 0.
0.51398 0.0570179 0.
0.51598 0.0570182 0.
0.517981 0.057018 0.
0.519981 0.0570175 0.
0.521982 0.0570171 0.
0.523982 0.0570177 0.
0.525982 0.0570184 0.
0.527982 0.057019 0.
0.529983 0.057019 0.
0.531983 0.0570189 0.
0.533984 0.0570188 0.
0.535985 0.0570187 0.
0.537985 0.0570185 0.
0.539986 0.0570186 0.
0.541987 0.0570189 0.
0.543988 0.0570192 0.
0.545988 0.05702 0.
0.547988 0.057021 0.
0.549988 0.057022 0.
0.551988 0.0570219 0.
0.553989 0.0570218 0.
0.55599 0.0570217 0.
0.55799 0.0570218 0.
0.55999 0.0570219 0.
0.561991 0.0570222 0.
0.563991 0.0570227 0.
0.565991 0.0570233 0.
0.567992 0.0570238 0.
0.569992 0.0570242 0.
0.571993 0.0570247 0.
0.573993 0.0570251 0.
0.575994 0.0570256 0.
0.577994 0.0570261 0.
0.579995 0.0570272 0.
0.581996 0.0570282 0.
0.583996 0.0570289 0.
0.585997 0.0570288 0.
0.587997 0.0570287 0.
0.589997 0.0570287 0.
0.591998 0.0570286 0.
0.593998 0.0570285 0.
0.595999 0.057028 0.
0.598 0.0570274 0.
0.600001 0.0570268 0.
0.602002 0.0570269 0.
0.604003 0.057027 0.
0.606003 0.0570271 0.
0.608004 0.0570273 0.
0.610004 0.0570274 0.
0.612005 0.0570275 0.
0.614006 0.0570274 0.
0.616007 0.0570274 0.
0.618007 0.0570274 0.
0.620008 0.0570275 0.
0.622008 0.0570275 0.
0.624009 0.0570259 0.
0.626009 0.0570241 0.
0.62801 0.0570225 0.
0.63001 0.0570226 0.
0.63201 0.0570227 0.
0.634011 0.0570227 0.
0.636011 0.0570224 0.
0.638012 0.0570222 0.
0.640012 0.057022 0.
0.642013 0.057022 0.
0.644014 0.057022 0.
0.646015 0.0570216 0.
0.648015 0.0570211 0.
0.650016 0.0570206 0.
0.652016 0.0570201 0.
0.654017 0.0570196 0.
0.656017 0.0570189 0.
0.658017 0.057018 0.
0.660017 0.057017 0.
0.662017 0.0570166 0.
0.664017 0.057017 0.
0.666018 0.0570173 0.
0.668018 0.0570177 0.
0.670018 0.0570182 0.
0.672019 0.0570187 0.
0.674019 0.057018 0.
0.67602 0.0570171 0.
0.678021 0.0570164 0.
0.680021 0.057017 0.
0.682021 0.0570176 0.
0.684021 0.057018 0.
0.686021 0.0570184 0.
0.688021 0.0570187 0.
0.690022 0.0570191 0.
0.692022 0.0570196 0.
0.694023 0.0570201 0.
0.696023 0.0570207 0.
0.698024 0.0570213 0.
0.499978 0.05902 0.
0.501979 0.0590208 0.
0.503979 0.0590212 0.
0.50598 0.0590212 0.
0.50798 0.0590198 0.
0.50998 0.0590185 0.
0.511981 0.0590179 0.
0.513981 0.0590183 0.
0.515981 0.0590187 0.
0.517981 0.0590186 0.
0.519982 0.0590182 0.
0.521983 0.0590178 0.
0.523983 0.0590184 0.
0.525983 0.0590191 0.
0.527983 0.0590197 0.
0.529983 0.0590194 0.
0.531984 0.059019 0.
0.533985 0.0590187 0.
0.535986 0.0590185 0.
0.537986 0.0590182 0.
0.539987 0.0590183 0.
0.541987 0.0590188 0.
0.543988 0.0590193 0.
0.545988 0.0590203 0.
0.547989 0.0590214 0.
0.549989 0.0590225 0.
0.551989 0.0590223 0.
0.55399 0.0590222 0.
0.55599 0.0590221 0.
0.557991 0.059022 0.
0.559991 0.0590219 0.
0.561991 0.0590222 0.
0.563992 0.0590229 0.
0.565992 0.0590236 0.
0.567993 0.0590242 0.
0.569993 0.0590247 0.
0.571994 0.0590252 0.
0.573994 0.0590255 0.
0.575994 0.0590258 0.
0.577994 0.0590261 0.
0.579995 0.0590274 0.
0.581996 0.0590286 0.
0.583997 0.0590293 0.
0.585997 0.0590289 0.
0.587997 0.0590285 0.
0.589997 0.0590284 0.
0.591998 0.0590286 0.
0.593999 0.0590287 0.
0.596 0.0590282 0.
0.598 0.0590276 0.
0.600001 0.059027 0.
0.602002 0.059027 0.
0.604002 0.059027 0.
0.606003 0.059027 0.
0.608003 0.0590274 0.
0.610004 0.0590277 0.
0.612005 0.0590279 0.
0.614005 0.0590279 0.
0.616006 0.0590279 0.
0.618007 0.0590277 0.
0.620007 0.0590274 0.
0.622008 0.0590272 0.
0.624008 0.0590258 0.
0.626009 0.0590243 0.
0.62801 0.059023 0.
0.63001 0.0590231 0.
0.63201 0.0590232 0.
0.634011 0.0590231 0.
0.636011 0.0590226 0.
0.638011 0.0590222 0.
0.640012 0.0590221 0.
0.642012 0.0590223 0.
0.644013 0.0590226 0.
0.646014 0.059022 0.
0.648015 0.0590213 0.
0.650016 0.0590205 0.
0.652016 0.0590201 0.
0.654016 0.0590197 0.
0.656016 0.0590192 0.
0.658016 0.0590184 0.
0.660016 0.0590175 0.
0.662016 0.059017 0.
0.664016 0.0590172 0.
0.666017 0.0590174 0.
0.668017 0.0590177 0.
0.670018 0.0590182 0.
0.672018 0.0590186 0.
0.674019 0.0590179 0.
0.67602 0.0590171 0.
0.67802 0.0590165 0.
0.680021 0.0590172 0.
0.682021 0.0590179 0.
0.684021 0.0590184 0.
0.686021 0.0590185 0.
0.688021 0.0590187 0.
0.690021 0.0590191 0.
0.692022 0.0590197 0.
0.694022 0.0590203 0.
0.696023 0.0590211 0.
0.698023 0.0590219 0.
0.499978 0.0610204 0.
0.501979 0.0610209 0.
0.50398 0.0610212 0.
0.505981 0.0610212 0.
0.507981 0.06102 0.
0.509981 0.0610188 0.
0.511981 0.0610183 0.
0.513982 0.0610186 0.
0.515982 0.061019 0.
0.517982 0.0610189 0.
0.519983 0.0610185 0.
0.521983 0.0610181 0.
0.523984 0.0610187 0.
0.525984 0.0610194 0.
0.527984 0.0610199 0.
0.529985 0.0610195 0.
0.531985 0.0610191 0.
0.533986 0.0610188 0.
0.535986 0.0610185 0.
0.537987 0.0610182 0.
0.539987 0.0610185 0.
0.541988 0.0610191 0.
0.543988 0.0610198 0.
0.545989 0.0610207 0.
0.547989 0.0610216 0.
0.54999 0.0610226 0.
0.55199 0.0610226 0.
0.553991 0.0610227 0.
0.555991 0.0610227 0.
0.557991 0.0610225 0.
0.559991 0.0610224 0.
0.561992 0.0610226 0.
0.563992 0.0610232 0.
0.565993 0.0610238 0.
0.567994 0.0610244 0.
0.569994 0.061025 0.
0.571995 0.0610256 0.
0.573994 0.0610259 0.
0.575994 0.0610261 0.
0.577994 0.0610265 0.
0.579995 0.0610277 0.
0.581996 0.0610289 0.
0.583997 0.0610296 0.
0.585997 0.0610291 0.
0.587997 0.0610286 0.
0.589998 0.0610285 0.
0.591998 0.0610286 0.
0.593999 0.0610286 0.
0.596 0.0610284 0.
0.598001 0.061028 0.
0.600002 0.0610277 0.
0.602002 0.0610275 0.
0.604002 0.0610273 0.
0.606003 0.0610272 0.
0.608003 0.0610275 0.
0.610004 0.0610279 0.
0.612005 0.0610281 0.
0.614005 0.0610281 0.
0.616006 0.0610281 0.
0.618007 0.0610279 0.
0.620007 0.0610275 0.
0.622008 0.0610271 0.
0.624008 0.061026 0.
0.626009 0.0610248 0.
0.628009 0.0610237 0.
0.63001 0.0610237 0.
0.63201 0.0610237 0.
0.63401 0.0610235 0.
0.636011 0.0610229 0.
0.638011 0.0610224 0.
0.640011 0.0610223 0.
0.642012 0.0610225 0.
0.644013 0.0610228 0.
0.646013 0.0610222 0.
0.648014 0.0610213 0.
0.650015 0.0610204 0.
0.652015 0.0610201 0.
0.654015 0.0610197 0.
0.656015 0.0610193 0.
0.658015 0.0610186 0.
0.660015 0.061018 0.
0.662015 0.0610175 0.
0.664016 0.0610174 0.
0.666016 0.0610173 0.
0.668016 0.0610175 0.
0.670017 0.0610179 0.
0.672017 0.0610183 0.
0.674018 0.0610178 0.
0.676019 0.0610173 0.
0.678019 0.0610169 0.
0.68002 0.0610175 0.
0.68202 0.0610182 0.
0.68402 0.0610187 0.
0.68602 0.0610187 0.
0.68802 0.0610187 0.
0.690021 0.0610192 0.
0.692021 0.0610199 0.
0.694022 0.0610206 0.
0.696022 0.0610215 0.
0.698022 0.0610224 0.
0.499979 0.0630212 0.
0.50198 0.0630209 0.
0.503981 0.0630209 0.
0.505982 0.0630207 0.
0.507982 0.0630199 0.
0.509982 0.0630191 0.
0.511982 0.0630187 0.
0.513983 0.0630189 0.
0.515983 0.0630191 0.
0.517983 0.0630189 0.
0.519984 0.0630185 0.
0.521984 0.0630181 0.
0.523984 0.0630186 0.
0.525985 0.0630192 0.
0.527986 0.0630198 0.
0.529986 0.0630195 0.
0.531987 0.0630192 0.
0.533988 0.0630189 0.
0.535988 0.0630188 0.
0.537988 0.0630187 0.
0.539988 0.063019 0.
0.541988 0.0630197 0.
0.543988 0.0630205 0.
0.545989 0.0630211 0.
0.547989 0.0630217 0.
0.54999 0.0630223 0.
0.551991 0.0630228 0.
0.553991 0.0630233 0.
0.555992 0.0630236 0.
0.557992 0.0630234 0.
0.559992 0.0630232 0.
0.561992 0.0630233 0.
0.563992 0.0630235 0.
0.565993 0.0630239 0.
0.567993 0.0630244 0.
0.569994 0.0630252 0.
0.571994 0.0630259 0.
0.573994 0.0630263 0.
0.575994 0.0630267 0.
0.577995 0.0630271 0.
0.579995 0.0630282 0.
0.581996 0.0630292 0.
0.583996 0.0630298 0.
0.585997 0.0630294 0.
0.587997 0.063029 0.
0.589998 0.0630287 0.
0.591998 0.0630286 0.
0.593999 0.0630284 0.
0.596 0.0630284 0.
0.598 0.0630286 0.
0.600001 0.0630287 0.
0.602002 0.0630283 0.
0.604003 0.0630278 0.
0.606003 0.0630276 0.
0.608004 0.0630278 0.
0.610005 0.0630281 0.
0.612005 0.0630282 0.
0.614006 0.0630282 0.
0.616006 0.0630282 0.
0.618007 0.063028 0.
0.620007 0.0630276 0.
0.622008 0.0630272 0.
0.624008 0.0630263 0.
0.626009 0.0630254 0.
0.628009 0.0630246 0.
0.630009 0.0630244 0.
0.63201 0.0630241 0.
0.63401 0.0630238 0.
0.63601 0.0630233 0.
0.638011 0.0630227 0.
0.640011 0.0630226 0.
0.642011 0.0630226 0.
0.644012 0.0630227 0.
0.646013 0.063022 0.
0.648014 0.0630212 0.
0.650014 0.0630204 0.
0.652015 0.06302 0.
0.654015 0.0630195 0.
0.656015 0.063019 0.
0.658015 0.0630187 0.
0.660015 0.0630185 0.
0.662015 0.0630181 0.
0.664015 0.0630176 0.
0.666015 0.0630171 0.
0.668016 0.0630171 0.
0.670016 0.0630174 0.
0.672017 0.0630177 0.
0.674017 0.0630177 0.
0.676018 0.0630176 0.
0.678018 0.0630175 0.
0.680019 0.0630181 0.
0.682019 0.0630186 0.
0.68402 0.0630189 0.
0.68602 0.0630189 0.
0.68802 0.0630189 0.
0.69002 0.0630194 0.
0.692021 0.0630202 0.
0.694021 0.0630211 0.
0.696021 0.063022 0.
0.698021 0.0630229 0.
0.49998 0.0650215 0.
0.501981 0.065021 0.
0.503981 0.0650205 0.
0.505982 0.0650202 0.
0.507982 0.0650198 0.
0.509983 0.0650195 0.
0.511983 0.0650192 0.
0.513984 0.0650192 0.
0.515984 0.0650191 0.
0.517984 0.0650189 0.
0.519984 0.0650185 0.
0.521984 0.0650181 0.
0.523985 0.0650185 0.
0.525986 0.0650191 0.
0.527987 0.0650196 0.
0.529988 0.0650194 0.
0.531989 0.0650192 0.
0.533989 0.0650191 0.
0.535989 0.0650191 0.
0.537988 0.0650191 0.
0.539988 0.0650195 0.
0.541988 0.0650204 0.
0.543988 0.0650212 0.
0.545989 0.0650215 0.
0.54799 0.0650218 0.
0.54999 0.065022 0.
0.551991 0.0650229 0.
0.553992 0.0650238 0.
0.555992 0.0650245 0.
0.557992 0.0650242 0.
0.559992 0.065024 0.
0.561992 0.0650239 0.
0.563992 0.0650239 0.
0.565993 0.0650239 0.
0.567993 0.0650245 0.
0.569993 0.0650253 0.
0.571994 0.0650261 0.
0.573994 0.0650267 0.
0.575995 0.0650272 0.
0.577995 0.0650277 0.
0.579995 0.0650286 0.
0.581996 0.0650295 0.
0.583996 0.0650301 0.
0.585997 0.0650297 0.
0.587998 0.0650294 0.
0.589998 0.065029 0.
0.591999 0.0650286 0.
0.593999 0.0650281 0.
0.596 0.0650285 0.
0.598 0.0650291 0.
0.600001 0.0650297 0.
0.602002 0.0650291 0.
0.604003 0.0650284 0.
0.606004 0.065028 0.
0.608005 0.0650281 0.
0.610005 0.0650282 0.
0.612006 0.0650283 0.
0.614006 0.0650283 0.
0.616006 0.0650283 0.
0.618007 0.0650281 0.
0.620008 0.0650276 0.
0.622008 0.0650272 0.
0.624008 0.0650267 0.
0.626008 0.0650261 0.
0.628009 0.0650255 0.
0.630009 0.065025 0.
0.63201 0.0650245 0.
0.63401 0.0650241 0.
0.63601 0.0650236 0.
0.638011 0.0650231 0.
0.640011 0.0650228 0.
0.642011 0.0650227 0.
0.644011 0.0650225 0.
0.646012 0.0650219 0.
0.648013 0.0650212 0.
0.650013 0.0650205 0.
0.652014 0.0650199 0.
0.654014 0.0650192 0.
0.656014 0.0650187 0.
0.658014 0.0650189 0.
0.660014 0.065019 0.
0.662014 0.0650187 0.
0.664014 0.0650178 0.
0.666014 0.0650169 0.
0.668015 0.0650168 0.
0.670016 0.065017 0.
0.672016 0.0650172 0.
0.674017 0.0650175 0.
0.676017 0.0650178 0.
0.678017 0.0650182 0.
0.680018 0.0650186 0.
0.682018 0.0650189 0.
0.684019 0.0650192 0.
0.686019 0.0650191 0.
0.68802 0.065019 0.
0.69002 0.0650196 0.
0.69202 0.0650206 0.
0.69402 0.0650216 0.
0.69602 0.0650225 0.
0.69802 0.0650234 0.
0.499982 0.0670221 0.
0.501982 0.0670213 0.
0.503982 0.067021 0.
0.505983 0.0670206 0.
0.507983 0.0670201 0.
0.509983 0.0670196 0.
0.511983 0.0670193 0.
0.513984 0.0670192 0.
0.515985 0.0670191 0.
0.517985 0.0670189 0.
0.519985 0.0670187 0.
0.521985 0.0670185 0.
0.523986 0.0670187 0.
0.525987 0.0670189 0.
0.527987 0.0670192 0.
0.529988 0.0670193 0.
0.531989 0.0670193 0.
0.533989 0.0670194 0.
0.535989 0.0670196 0.
0.537988 0.0670198 0.
0.539988 0.0670202 0.
0.541988 0.0670207 0.
0.543989 0.0670212 0.
0.545989 0.0670216 0.
0.54799 0.0670221 0.
0.54999 0.0670226 0.
0.551991 0.0670232 0.
0.553992 0.0670239 0.
0.555992 0.0670244 0.
0.557992 0.0670243 0.
0.559993 0.0670242 0.
0.561993 0.0670242 0.
0.563993 0.0670243 0.
0.565993 0.0670244 0.
0.567993 0.0670248 0.
0.569994 0.0670255 0.
0.571994 0.0670261 0.
0.573995 0.0670266 0.
0.575995 0.0670271 0.
0.577995 0.0670277 0.
0.579996 0.0670287 0.
0.581996 0.0670297 0.
0.583997 0.0670303 0.
0.585997 0.0670298 0.
0.587998 0.0670294 0.
0.589998 0.0670289 0.
0.591999 0.0670284 0.
0.593999 0.0670278 0.
0.596 0.067028 0.
0.598 0.0670285 0.
0.600001 0.0670289 0.
0.602002 0.0670287 0.
0.604003 0.0670285 0.
0.606004 0.0670284 0.
0.608005 0.0670283 0.
0.610005 0.0670282 0.
0.612006 0.0670282 0.
0.614006 0.0670283 0.
0.616006 0.0670283 0.
0.618007 0.067028 0.
0.620008 0.0670276 0.
0.622008 0.0670271 0.
0.624008 0.0670268 0.
0.626008 0.0670265 0.
0.628008 0.0670261 0.
0.630009 0.0670255 0.
0.632009 0.0670249 0.
0.63401 0.0670243 0.
0.63601 0.0670237 0.
0.638011 0.0670231 0.
0.640011 0.0670228 0.
0.642011 0.0670225 0.
0.644011 0.0670223 0.
0.646012 0.0670217 0.
0.648012 0.067021 0.
0.650013 0.0670202 0.
0.652013 0.0670198 0.
0.654013 0.0670193 0.
0.656014 0.067019 0.
0.658014 0.067019 0.
0.660014 0.067019 0.
0.662014 0.0670188 0.
0.664014 0.0670185 0.
0.666015 0.0670181 0.
0.668015 0.067018 0.
0.670016 0.0670179 0.
0.672016 0.0670178 0.
0.674016 0.0670178 0.
0.676016 0.0670177 0.
0.678017 0.0670177 0.
0.680017 0.0670181 0.
0.682017 0.0670186 0.
0.684017 0.0670189 0.
0.686018 0.067019 0.
0.688019 0.0670192 0.
0.690019 0.0670198 0.
0.692019 0.0670208 0.
0.694019 0.0670217 0.
0.696019 0.0670222 0.
0.698019 0.0670225 0.
0.499983 0.0690222 0.
0.501983 0.0690217 0.
0.503983 0.0690214 0.
0.505983 0.0690211 0.
0.507983 0.0690204 0.
0.509983 0.0690197 0.
0.511983 0.0690193 0.
0.513984 0.0690191 0.
0.515985 0.069019 0.
0.517985 0.0690189 0.
0.519986 0.0690189 0.
0.521986 0.0690189 0.
0.523986 0.0690188 0.
0.525987 0.0690188 0.
0.527987 0.0690188 0.
0.529988 0.0690191 0.
0.531989 0.0690194 0.
0.533989 0.0690198 0.
0.535989 0.0690201 0.
0.537988 0.0690205 0.
0.539988 0.0690208 0.
0.541989 0.069021 0.
0.543989 0.0690212 0.
0.545989 0.0690218 0.
0.54799 0.0690225 0.
0.549991 0.0690232 0.
0.551991 0.0690236 0.
0.553992 0.0690239 0.
0.555992 0.0690242 0.
0.557993 0.0690243 0.
0.559993 0.0690244 0.
0.561993 0.0690245 0.
0.563993 0.0690247 0.
0.565993 0.0690249 0.
0.567993 0.0690252 0.
0.569994 0.0690256 0.
0.571995 0.069026 0.
0.573995 0.0690265 0.
0.575995 0.069027 0.
0.577996 0.0690276 0.
0.579997 0.0690287 0.
0.581997 0.0690299 0.
0.583998 0.0690305 0.
0.585998 0.06903 0.
0.587998 0.0690295 0.
0.589998 0.0690289 0.
0.591999 0.0690282 0.
0.594 0.0690275 0.
0.596 0.0690275 0.
0.598001 0.0690278 0.
0.600001 0.0690281 0.
0.602002 0.0690284 0.
0.604004 0.0690286 0.
0.606005 0.0690287 0.
0.608005 0.0690285 0.
0.610006 0.0690282 0.
0.612006 0.0690281 0.
0.614006 0.0690282 0.
0.616006 0.0690283 0.
0.618007 0.069028 0.
0.620008 0.0690275 0.
0.622008 0.0690269 0.
0.624008 0.0690268 0.
0.626008 0.0690268 0.
0.628008 0.0690267 0.
0.630009 0.069026 0.
0.632009 0.0690253 0.
0.63401 0.0690245 0.
0.63601 0.0690238 0.
0.638011 0.0690231 0.
0.640011 0.0690227 0.
0.642011 0.0690224 0.
0.644011 0.0690221 0.
0.646012 0.0690215 0.
0.648012 0.0690207 0.
0.650012 0.0690199 0.
0.652013 0.0690197 0.
0.654013 0.0690194 0.
0.656013 0.0690192 0.
0.658013 0.0690191 0.
0.660013 0.069019 0.
0.662014 0.069019 0.
0.664014 0.0690192 0.
0.666015 0.0690193 0.
0.668016 0.0690191 0.
0.670016 0.0690188 0.
0.672016 0.0690185 0.
0.674016 0.069018 0.
0.676016 0.0690176 0.
0.678016 0.0690173 0.
0.680016 0.0690177 0.
0.682016 0.0690182 0.
0.684016 0.0690186 0.
0.686017 0.069019 0.
0.688017 0.0690194 0.
0.690018 0.06902 0.
0.692018 0.0690209 0.
0.694018 0.0690218 0.
0.696019 0.0690218 0.
0.698019 0.0690216 0.
0.499985 0.0710223 0.
0.501984 0.0710221 0.
0.503984 0.0710218 0.
0.505984 0.0710214 0.
0.507984 0.0710206 0.
0.509984 0.0710198 0.
0.511984 0.0710193 0.
0.513984 0.0710192 0.
0.515985 0.0710191 0.
0.517985 0.0710191 0.
0.519986 0.0710192 0.
0.521986 0.0710192 0.
0.523987 0.071019 0.
0.525987 0.0710188 0.
0.527987 0.0710187 0.
0.529988 0.0710191 0.
0.531988 0.0710196 0.
0.533989 0.0710201 0.
0.535989 0.0710205 0.
0.537988 0.071021 0.
0.539988 0.0710212 0.
0.541989 0.0710212 0.
0.543989 0.0710213 0.
0.545989 0.0710218 0.
0.54799 0.0710225 0.
0.549991 0.0710233 0.
0.551991 0.0710236 0.
0.553991 0.071024 0.
0.555992 0.0710243 0.
0.557993 0.0710244 0.
0.559993 0.0710245 0.
0.561994 0.0710247 0.
0.563993 0.071025 0.
0.565993 0.0710252 0.
0.567993 0.0710255 0.
0.569994 0.0710257 0.
0.571994 0.071026 0.
0.573995 0.0710265 0.
0.575995 0.0710271 0.
0.577996 0.0710277 0.
0.579996 0.0710288 0.
0.581997 0.07103 0.
0.583998 0.0710306 0.
0.585998 0.0710299 0.
0.587998 0.0710293 0.
0.589999 0.0710286 0.
0.591999 0.0710279 0.
0.594 0.0710272 0.
0.596 0.0710273 0.
0.598001 0.0710276 0.
0.600001 0.0710279 0.
0.602002 0.0710283 0.
0.604004 0.0710287 0.
0.606005 0.0710289 0.
0.608005 0.0710286 0.
0.610006 0.0710282 0.
0.612006 0.0710281 0.
0.614006 0.0710281 0.
0.616006 0.0710282 0.
0.618007 0.071028 0.
0.620008 0.0710276 0.
0.622008 0.0710272 0.
0.624008 0.0710271 0.
0.626008 0.0710271 0.
0.628008 0.0710269 0.
0.630009 0.0710263 0.
0.632009 0.0710256 0.
0.63401 0.0710249 0.
0.63601 0.0710242 0.
0.638011 0.0710234 0.
0.640011 0.0710228 0.
0.642011 0.0710224 0.
0.644012 0.071022 0.
0.646012 0.0710213 0.
0.648012 0.0710205 0.
0.650012 0.0710198 0.
0.652013 0.0710196 0.
0.654013 0.0710195 0.
0.656013 0.0710194 0.
0.658013 0.0710193 0.
0.660013 0.0710193 0.
0.662013 0.0710194 0.
0.664014 0.0710196 0.
0.666015 0.0710198 0.
0.668015 0.0710197 0.
0.670016 0.0710193 0.
0.672016 0.071019 0.
0.674016 0.0710184 0.
0.676015 0.0710177 0.
0.678015 0.0710171 0.
0.680015 0.0710175 0.
0.682015 0.0710179 0.
0.684015 0.0710184 0.
0.686016 0.0710189 0.
0.688016 0.0710195 0.
0.690017 0.0710202 0.
0.692017 0.0710209 0.
0.694017 0.0710216 0.
0.696018 0.0710214 0.
0.698018 0.0710211 0.
0.499985 0.0730229 0.
0.501985 0.0730225 0.
0.503984 0.0730221 0.
0.505984 0.0730216 0.
0.507984 0.0730207 0.
0.509985 0.0730197 0.
0.511985 0.0730192 0.
0.513985 0.0730193 0.
0.515985 0.0730195 0.
0.517985 0.0730195 0.
0.519986 0.0730195 0.
0.521987 0.0730196 0.
0.523987 0.0730193 0.
0.525987 0.073019 0.
0.527987 0.0730189 0.
0.529988 0.0730193 0.
0.531988 0.0730198 0.
0.533988 0.0730203 0.
0.535988 0.0730208 0.
0.537988 0.0730212 0.
0.539988 0.0730214 0.
0.541988 0.0730214 0.
0.543988 0.0730214 0.
0.545989 0.0730218 0.
0.54799 0.0730224 0.
0.549991 0.0730229 0.
0.551991 0.0730234 0.
0.553991 0.073024 0.
0.555991 0.0730244 0.
0.557992 0.0730245 0.
0.559993 0.0730246 0.
0.561994 0.0730248 0.
0.563993 0.0730251 0.
0.565993 0.0730255 0.
0.567993 0.0730257 0.
0.569994 0.0730258 0.
0.571994 0.0730259 0.
0.573994 0.0730265 0.
0.575995 0.0730272 0.
0.577995 0.0730279 0.
0.579996 0.073029 0.
0.581996 0.0730301 0.
0.583997 0.0730305 0.
0.585998 0.0730297 0.
0.587998 0.0730289 0.
0.589999 0.0730282 0.
0.591999 0.0730276 0.
0.594 0.073027 0.
0.596001 0.0730272 0.
0.598001 0.0730278 0.
0.600001 0.0730283 0.
0.602002 0.0730285 0.
0.604003 0.0730287 0.
0.606004 0.0730288 0.
0.608005 0.0730286 0.
0.610005 0.0730284 0.
0.612006 0.0730282 0.
0.614006 0.0730281 0.
0.616007 0.073028 0.
0.618007 0.073028 0.
0.620007 0.0730279 0.
0.622008 0.0730279 0.
0.624008 0.0730276 0.
0.626008 0.0730272 0.
0.628008 0.0730267 0.
0.630009 0.0730264 0.
0.632009 0.073026 0.
0.63401 0.0730255 0.
0.63601 0.0730247 0.
0.638011 0.0730239 0.
0.640011 0.0730232 0.
0.642011 0.0730226 0.
0.644012 0.0730219 0.
0.646012 0.0730212 0.
0.648012 0.0730204 0.
0.650012 0.0730197 0.
0.652013 0.0730196 0.
0.654013 0.0730195 0.
0.656013 0.0730195 0.
0.658013 0.0730197 0.
0.660013 0.0730199 0.
0.662013 0.07302 0.
0.664013 0.0730198 0.
0.666014 0.0730196 0.
0.668014 0.0730196 0.
0.670015 0.0730195 0.
0.672015 0.0730195 0.
0.674015 0.0730188 0.
0.676015 0.073018 0.
0.678015 0.0730173 0.
0.680015 0.0730175 0.
0.682015 0.0730178 0.
0.684015 0.0730182 0.
0.686015 0.0730189 0.
0.688016 0.0730197 0.
0.690016 0.0730202 0.
0.692016 0.0730206 0.
0.694017 0.0730209 0.
0.696017 0.073021 0.
0.698016 0.073021 0.
0.499986 0.0750237 0.
0.501985 0.075023 0.
0.503985 0.0750225 0.
0.505984 0.0750218 0.
0.507985 0.0750207 0.
0.509986 0.0750197 0.
0.511986 0.0750192 0.
0.513986 0.0750195 0.
0.515985 0.0750198 0.
0.517985 0.0750199 0.
0.519986 0.0750199 0.
0.521987 0.0750199 0.
0.523987 0.0750196 0.
0.525987 0.0750193 0.
0.527987 0.0750191 0.
0.529987 0.0750196 0.
0.531988 0.0750201 0.
0.533988 0.0750205 0.
0.535988 0.075021 0.
0.537988 0.0750215 0.
0.539988 0.0750217 0.
0.541988 0.0750216 0.
0.543988 0.0750216 0.
0.545989 0.0750218 0.
0.54799 0.0750222 0.
0.54999 0.0750225 0.
0.551991 0.0750232 0.
0.553991 0.075024 0.
0.555991 0.0750246 0.
0.557992 0.0750246 0.
0.559993 0.0750246 0.
0.561993 0.0750248 0.
0.563993 0.0750253 0.
0.565994 0.0750257 0.
0.567994 0.0750259 0.
0.569993 0.0750258 0.
0.571993 0.0750258 0.
0.573994 0.0750265 0.
0.575994 0.0750273 0.
0.577995 0.0750281 0.
0.579995 0.0750291 0.
0.581995 0.0750301 0.
0.583996 0.0750305 0.
0.585997 0.0750295 0.
0.587998 0.0750286 0.
0.589999 0.0750279 0.
0.592 0.0750273 0.
0.594 0.0750267 0.
0.596001 0.0750272 0.
0.598001 0.075028 0.
0.600002 0.0750287 0.
0.602002 0.0750287 0.
0.604003 0.0750287 0.
0.606004 0.0750287 0.
0.608005 0.0750286 0.
0.610005 0.0750285 0.
0.612006 0.0750283 0.
0.614006 0.0750281 0.
0.616007 0.0750278 0.
0.618007 0.075028 0.
0.620007 0.0750283 0.
0.622008 0.0750286 0.
0.624008 0.075028 0.
0.626008 0.0750272 0.
0.628009 0.0750266 0.
0.630009 0.0750265 0.
0.63201 0.0750264 0.
0.63401 0.0750261 0.
0.63601 0.0750253 0.
0.638011 0.0750245 0.
0.640011 0.0750237 0.
0.642011 0.0750227 0.
0.644012 0.0750218 0.
0.646012 0.075021 0.
0.648012 0.0750204 0.
0.650013 0.0750196 0.
0.652013 0.0750196 0.
0.654013 0.0750195 0.
0.656013 0.0750196 0.
0.658013 0.07502 0.
0.660013 0.0750205 0.
0.662013 0.0750205 0.
0.664013 0.07502 0.
0.666013 0.0750194 0.
0.668013 0.0750195 0.
0.670014 0.0750197 0.
0.672015 0.07502 0.
0.674015 0.0750192 0.
0.676014 0.0750182 0.
0.678014 0.0750174 0.
0.680015 0.0750175 0.
0.682015 0.0750176 0.
0.684015 0.075018 0.
0.686015 0.0750189 0.
0.688015 0.0750199 0.
0.690016 0.0750203 0.
0.692016 0.0750203 0.
0.694016 0.0750203 0.
0.696015 0.0750206 0.
0.698015 0.0750209 0.
0.499986 0.0770239 0.
0.501985 0.0770231 0.
0.503985 0.0770224 0.
0.505985 0.0770217 0.
0.507985 0.0770211 0.
0.509986 0.0770204 0.
0.511986 0.07702 0.
0.513986 0.0770199 0.
0.515986 0.0770199 0.
0.517986 0.0770197 0.
0.519986 0.0770195 0.
0.521987 0.0770194 0.
0.523987 0.0770195 0.
0.525987 0.0770196 0.
0.527987 0.0770198 0.
0.529987 0.0770203 0.
0.531988 0.0770209 0.
0.533988 0.0770213 0.
0.535988 0.0770214 0.
0.537988 0.0770215 0.
0.539989 0.0770215 0.
0.541989 0.0770215 0.
0.543989 0.0770215 0.
0.545989 0.0770219 0.
0.54799 0.0770223 0.
0.54999 0.0770228 0.
0.55199 0.0770235 0.
0.553991 0.0770242 0.
0.555991 0.0770247 0.
0.557992 0.0770248 0.
0.559992 0.0770249 0.
0.561993 0.077025 0.
0.563993 0.0770254 0.
0.565993 0.0770258 0.
0.567993 0.077026 0.
0.569993 0.0770262 0.
0.571994 0.0770263 0.
0.573994 0.0770268 0.
0.575995 0.0770274 0.
0.577996 0.0770281 0.
0.579996 0.077029 0.
0.581996 0.0770299 0.
0.583997 0.0770303 0.
0.585998 0.0770294 0.
0.587999 0.0770286 0.
0.589999 0.0770279 0.
0.592 0.0770275 0.
0.594 0.077027 0.
0.596001 0.0770275 0.
0.598001 0.0770283 0.
0.600001 0.0770291 0.
0.602002 0.077029 0.
0.604003 0.0770288 0.
0.606004 0.0770287 0.
0.608005 0.0770286 0.
0.610005 0.0770284 0.
0.612006 0.0770283 0.
0.614006 0.0770281 0.
0.616006 0.077028 0.
0.618007 0.0770281 0.
0.620007 0.0770284 0.
0.622007 0.0770287 0.
0.624008 0.0770282 0.
0.626008 0.0770276 0.
0.628009 0.077027 0.
0.63001 0.0770266 0.
0.63201 0.0770263 0.
0.634011 0.0770258 0.
0.636011 0.077025 0.
0.638011 0.0770241 0.
0.640012 0.0770234 0.
0.642012 0.0770227 0.
0.644013 0.0770221 0.
0.646013 0.0770214 0.
0.648012 0.0770207 0.
0.650012 0.0770199 0.
0.652012 0.0770201 0.
0.654013 0.0770203 0.
0.656013 0.0770205 0.
0.658012 0.0770206 0.
0.660012 0.0770207 0.
0.662012 0.0770205 0.
0.664013 0.07702 0.
0.666013 0.0770195 0.
0.668013 0.0770195 0.
0.670014 0.0770199 0.
0.672014 0.0770202 0.
0.674014 0.0770194 0.
0.676014 0.0770184 0.
0.678014 0.0770175 0.
0.680015 0.0770178 0.
0.682015 0.0770181 0.
0.684015 0.0770185 0.
0.686015 0.0770189 0.
0.688015 0.0770194 0.
0.690015 0.0770197 0.
0.692015 0.07702 0.
0.694016 0.0770202 0.
0.696016 0.0770205 0.
0.698016 0.0770209 0.
0.499986 0.0790243 0.
0.501986 0.0790233 0.
0.503986 0.0790224 0.
0.505986 0.0790216 0.
0.507986 0.0790214 0.
0.509986 0.0790212 0.
0.511986 0.0790209 0.
0.513986 0.0790204 0.
0.515986 0.0790199 0.
0.517987 0.0790196 0.
0.519987 0.0790192 0.
0.521987 0.0790189 0.
0.523987 0.0790194 0.
0.525987 0.0790199 0.
0.527987 0.0790205 0.
0.529987 0.0790211 0.
0.531988 0.0790217 0.
0.533988 0.079022 0.
0.535988 0.0790217 0.
0.537989 0.0790214 0.
0.539989 0.0790213 0.
0.541989 0.0790214 0.
0.54399 0.0790214 0.
0.54599 0.0790219 0.
0.54799 0.0790225 0.
0.54999 0.0790231 0.
0.55199 0.0790238 0.
0.553991 0.0790244 0.
0.555991 0.0790249 0.
0.557991 0.079025 0.
0.559992 0.0790251 0.
0.561992 0.0790253 0.
0.563992 0.0790256 0.
0.565992 0.0790259 0.
0.567993 0.0790262 0.
0.569993 0.0790265 0.
0.571994 0.0790268 0.
0.573995 0.0790272 0.
0.575996 0.0790276 0.
0.577996 0.079028 0.
0.579997 0.0790289 0.
0.581997 0.0790297 0.
0.583998 0.07903 0.
0.585999 0.0790293 0.
0.587999 0.0790286 0.
0.59 0.079028 0.
0.592 0.0790276 0.
0.594 0.0790272 0.
0.596 0.0790278 0.
0.598 0.0790287 0.
0.6 0.0790295 0.
0.602002 0.0790292 0.
0.604003 0.0790289 0.
0.606004 0.0790287 0.
0.608004 0.0790285 0.
0.610005 0.0790284 0.
0.612005 0.0790283 0.
0.614006 0.0790282 0.
0.616006 0.0790281 0.
0.618006 0.0790283 0.
0.620007 0.0790286 0.
0.622007 0.0790288 0.
0.624008 0.0790284 0.
0.626009 0.0790279 0.
0.628009 0.0790274 0.
0.63001 0.0790268 0.
0.632011 0.0790261 0.
0.634011 0.0790255 0.
0.636012 0.0790246 0.
0.638012 0.0790238 0.
0.640013 0.0790231 0.
0.642013 0.0790228 0.
0.644014 0.0790224 0.
0.646013 0.0790217 0.
0.648013 0.079021 0.
0.650012 0.0790202 0.
0.652012 0.0790207 0.
0.654012 0.0790211 0.
0.656012 0.0790214 0.
0.658012 0.0790212 0.
0.660012 0.0790209 0.
0.662012 0.0790205 0.
0.664012 0.07902 0.
0.666013 0.0790195 0.
0.668013 0.0790196 0.
0.670013 0.07902 0.
0.672014 0.0790204 0.
0.674014 0.0790195 0.
0.676014 0.0790185 0.
0.678015 0.0790177 0.
0.680014 0.0790182 0.
0.682014 0.0790187 0.
0.684014 0.079019 0.
0.686014 0.079019 0.
0.688014 0.0790189 0.
0.690014 0.0790192 0.
0.692015 0.0790197 0.
0.694015 0.0790201 0.
0.696016 0.0790205 0.
0.698016 0.0790208 0.
0.499986 0.0810245 0.
0.501986 0.0810235 0.
0.503986 0.0810226 0.
0.505986 0.0810218 0.
0.507986 0.0810217 0.
0.509986 0.0810216 0.
0.511986 0.0810213 0.
0.513986 0.0810207 0.
0.515987 0.0810201 0.
0.517987 0.0810196 0.
0.519987 0.0810192 0.
0.521987 0.0810188 0.
0.523987 0.0810193 0.
0.525987 0.08102 0.
0.527987 0.0810207 0.
0.529987 0.0810212 0.
0.531988 0.0810218 0.
0.533988 0.0810221 0.
0.535988 0.0810218 0.
0.537989 0.0810215 0.
0.539989 0.0810214 0.
0.54199 0.0810214 0.
0.54399 0.0810214 0.
0.54599 0.0810219 0.
0.54799 0.0810225 0.
0.549989 0.0810232 0.
0.55199 0.0810239 0.
0.553991 0.0810245 0.
0.555991 0.081025 0.
0.557991 0.0810251 0.
0.559992 0.0810252 0.
0.561992 0.0810254 0.
0.563992 0.0810257 0.
0.565992 0.0810259 0.
0.567993 0.0810262 0.
0.569993 0.0810266 0.
0.571994 0.0810269 0.
0.573995 0.0810273 0.
0.575996 0.0810277 0.
0.577997 0.0810281 0.
0.579997 0.0810288 0.
0.581998 0.0810294 0.
0.583998 0.0810296 0.
0.585999 0.0810289 0.
0.587999 0.0810282 0.
0.59 0.0810279 0.
0.592 0.0810278 0.
0.594 0.0810277 0.
0.596 0.0810282 0.
0.598 0.0810289 0.
0.600001 0.0810296 0.
0.602002 0.0810293 0.
0.604003 0.0810289 0.
0.606004 0.0810287 0.
0.608004 0.0810286 0.
0.610005 0.0810286 0.
0.612005 0.0810285 0.
0.614005 0.0810284 0.
0.616005 0.0810284 0.
0.618006 0.0810285 0.
0.620006 0.0810287 0.
0.622007 0.081029 0.
0.624008 0.0810287 0.
0.626009 0.0810283 0.
0.628009 0.0810279 0.
0.63001 0.081027 0.
0.632011 0.0810262 0.
0.634011 0.0810253 0.
0.636012 0.0810246 0.
0.638012 0.0810238 0.
0.640013 0.0810233 0.
0.642013 0.0810231 0.
0.644013 0.0810228 0.
0.646013 0.0810221 0.
0.648013 0.0810213 0.
0.650012 0.0810205 0.
0.652012 0.0810211 0.
0.654012 0.0810217 0.
0.656012 0.0810221 0.
0.658012 0.0810216 0.
0.660012 0.0810212 0.
0.662012 0.0810207 0.
0.664013 0.0810202 0.
0.666013 0.0810196 0.
0.668013 0.0810197 0.
0.670013 0.0810202 0.
0.672013 0.0810206 0.
0.674014 0.0810197 0.
0.676014 0.0810187 0.
0.678014 0.0810179 0.
0.680014 0.0810184 0.
0.682014 0.0810188 0.
0.684014 0.0810191 0.
0.686014 0.0810187 0.
0.688014 0.0810184 0.
0.690014 0.0810185 0.
0.692015 0.0810191 0.
0.694015 0.0810196 0.
0.696016 0.0810198 0.
0.698016 0.08102 0.
0.499986 0.0830246 0.
0.501987 0.0830239 0.
0.503987 0.0830231 0.
0.505987 0.0830223 0.
0.507986 0.083022 0.
0.509986 0.0830217 0.
0.511986 0.0830213 0.
0.513986 0.0830208 0.
0.515987 0.0830204 0.
0.517986 0.0830199 0.
0.519986 0.0830195 0.
0.521986 0.0830191 0.
0.523987 0.0830194 0.
0.525987 0.0830198 0.
0.527987 0.0830202 0.
0.529988 0.0830207 0.
0.531988 0.0830213 0.
0.533988 0.0830216 0.
0.535989 0.0830217 0.
0.537989 0.0830218 0.
0.539989 0.0830217 0.
0.54199 0.0830216 0.
0.54399 0.0830215 0.
0.54599 0.0830219 0.
0.54799 0.0830225 0.
0.549989 0.0830231 0.
0.55199 0.0830238 0.
0.553991 0.0830245 0.
0.555992 0.0830251 0.
0.557992 0.0830252 0.
0.559992 0.0830254 0.
0.561992 0.0830255 0.
0.563992 0.0830258 0.
0.565993 0.083026 0.
0.567993 0.0830262 0.
0.569993 0.0830264 0.
0.571994 0.0830266 0.
0.573994 0.0830271 0.
0.575995 0.0830277 0.
0.577996 0.0830282 0.
0.579997 0.0830287 0.
0.581997 0.0830291 0.
0.583998 0.0830292 0.
0.585998 0.0830283 0.
0.587999 0.0830275 0.
0.589999 0.0830274 0.
0.591999 0.0830279 0.
0.594 0.0830283 0.
0.596 0.0830287 0.
0.598001 0.0830291 0.
0.600002 0.0830295 0.
0.602002 0.0830292 0.
0.604003 0.0830289 0.
0.606003 0.0830287 0.
0.608004 0.0830289 0.
0.610005 0.083029 0.
0.612005 0.0830291 0.
0.614005 0.0830289 0.
0.616005 0.0830287 0.
0.618006 0.0830288 0.
0.620006 0.083029 0.
0.622006 0.0830292 0.
0.624007 0.083029 0.
0.626008 0.0830288 0.
0.628009 0.0830285 0.
0.63001 0.0830274 0.
0.632011 0.0830263 0.
0.634011 0.0830254 0.
0.636011 0.0830248 0.
0.638011 0.0830242 0.
0.640011 0.0830238 0.
0.642012 0.0830236 0.
0.644012 0.0830234 0.
0.646012 0.0830227 0.
0.648012 0.0830217 0.
0.650012 0.0830208 0.
0.652012 0.0830214 0.
0.654013 0.083022 0.
0.656013 0.0830224 0.
0.658013 0.083022 0.
0.660013 0.0830217 0.
0.662013 0.0830212 0.
0.664014 0.0830205 0.
0.666014 0.0830198 0.
0.668014 0.0830199 0.
0.670014 0.0830204 0.
0.672014 0.0830208 0.
0.674014 0.08302 0.
0.676014 0.0830189 0.
0.678014 0.0830181 0.
0.680014 0.0830183 0.
0.682014 0.0830186 0.
0.684014 0.0830187 0.
0.686014 0.0830182 0.
0.688014 0.0830178 0.
0.690014 0.0830179 0.
0.692015 0.0830183 0.
0.694015 0.0830187 0.
0.696015 0.0830186 0.
0.698016 0.0830184 0.
0.499987 0.0850253 0.
0.501987 0.0850242 0.
0.503987 0.0850235 0.
0.505987 0.0850228 0.
0.507987 0.0850223 0.
0.509987 0.0850218 0.
0.511987 0.0850214 0.
0.513987 0.085021 0.
0.515986 0.0850206 0.
0.517986 0.0850202 0.
0.519986 0.0850198 0.
0.521986 0.0850195 0.
0.523986 0.0850195 0.
0.525987 0.0850196 0.
0.527987 0.0850198 0.
0.529988 0.0850202 0.
0.531988 0.0850207 0.
0.533989 0.0850212 0.
0.535989 0.0850216 0.
0.537989 0.085022 0.
0.53999 0.085022 0.
0.54199 0.0850218 0.
0.54399 0.0850215 0.
0.54599 0.0850219 0.
0.547989 0.0850224 0.
0.549989 0.0850229 0.
0.55199 0.0850237 0.
0.553992 0.0850246 0.
0.555992 0.0850252 0.
0.557992 0.0850253 0.
0.559992 0.0850255 0.
0.561992 0.0850256 0.
0.563993 0.0850258 0.
0.565993 0.0850261 0.
0.567994 0.0850262 0.
0.569994 0.0850262 0.
0.571994 0.0850262 0.
0.573994 0.0850269 0.
0.575995 0.0850277 0.
0.577995 0.0850284 0.
0.579996 0.0850286 0.
0.581997 0.0850288 0.
0.583998 0.0850287 0.
0.585998 0.0850278 0.
0.587998 0.0850269 0.
0.589999 0.085027 0.
0.591999 0.085028 0.
0.594 0.0850289 0.
0.596001 0.0850292 0.
0.598002 0.0850293 0.
0.600003 0.0850294 0.
0.602003 0.0850291 0.
0.604003 0.0850289 0.
0.606003 0.0850287 0.
0.608004 0.0850291 0.
0.610004 0.0850295 0.
0.612005 0.0850296 0.
0.614005 0.0850293 0.
0.616005 0.085029 0.
0.618005 0.085029 0.
0.620006 0.0850293 0.
0.622006 0.0850295 0.
0.624007 0.0850294 0.
0.626008 0.0850293 0.
0.628009 0.0850291 0.
0.63001 0.0850278 0.
0.632011 0.0850265 0.
0.634011 0.0850255 0.
0.63601 0.0850251 0.
0.63801 0.0850246 0.
0.64001 0.0850243 0.
0.642011 0.0850242 0.
0.644011 0.0850241 0.
0.646012 0.0850232 0.
0.648012 0.0850221 0.
0.650013 0.0850211 0.
0.652013 0.0850217 0.
0.654013 0.0850223 0.
0.656013 0.0850227 0.
0.658013 0.0850224 0.
0.660014 0.0850221 0.
0.662014 0.0850216 0.
0.664015 0.0850208 0.
0.666015 0.08502 0.
0.668015 0.0850201 0.
0.670014 0.0850205 0.
0.672014 0.085021 0.
0.674013 0.0850202 0.
0.676013 0.0850191 0.
0.678013 0.0850183 0.
0.680013 0.0850183 0.
0.682013 0.0850184 0.
0.684013 0.0850183 0.
0.686014 0.0850178 0.
0.688014 0.0850172 0.
0.690015 0.0850172 0.
0.692015 0.0850175 0.
0.694015 0.0850178 0.
0.696015 0.0850174 0.
0.698015 0.0850168 0.
0.499987 0.0870244 0.
0.501987 0.0870236 0.
0.503988 0.0870231 0.
0.505988 0.0870227 0.
0.507988 0.0870224 0.
0.509988 0.0870222 0.
0.511987 0.0870218 0.
0.513987 0.0870212 0.
0.515987 0.0870207 0.
0.517987 0.0870201 0.
0.519987 0.0870195 0.
0.521987 0.0870189 0.
0.523987 0.0870193 0.
0.525987 0.0870197 0.
0.527987 0.0870201 0.
0.529987 0.0870203 0.
0.531988 0.0870205 0.
0.533988 0.0870207 0.
0.535989 0.0870209 0.
0.537989 0.0870212 0.
0.539989 0.0870214 0.
0.541989 0.0870216 0.
0.54399 0.0870217 0.
0.54599 0.0870221 0.
0.54799 0.0870225 0.
0.54999 0.0870229 0.
0.551991 0.0870238 0.
0.553992 0.0870247 0.
0.555992 0.0870254 0.
0.557992 0.0870253 0.
0.559992 0.0870252 0.
0.561992 0.0870252 0.
0.563993 0.0870254 0.
0.565993 0.0870256 0.
0.567994 0.0870257 0.
0.569994 0.0870258 0.
0.571994 0.087026 0.
0.573994 0.0870265 0.
0.575995 0.087027 0.
0.577995 0.0870276 0.
0.579996 0.0870281 0.
0.581997 0.0870286 0.
0.583998 0.0870287 0.
0.585998 0.0870282 0.
0.587998 0.0870276 0.
0.589998 0.0870277 0.
0.591999 0.0870283 0.
0.593999 0.0870288 0.
0.596 0.0870291 0.
0.598001 0.0870292 0.
0.600002 0.0870294 0.
0.602003 0.0870292 0.
0.604003 0.0870291 0.
0.606003 0.0870291 0.
0.608004 0.0870291 0.
0.610004 0.0870291 0.
0.612005 0.0870291 0.
0.614005 0.0870291 0.
0.616005 0.0870292 0.
0.618006 0.0870291 0.
0.620006 0.087029 0.
0.622006 0.0870289 0.
0.624007 0.0870288 0.
0.626008 0.0870286 0.
0.628009 0.0870283 0.
0.63001 0.0870274 0.
0.63201 0.0870266 0.
0.634011 0.0870259 0.
0.63601 0.0870254 0.
0.63801 0.087025 0.
0.640011 0.0870245 0.
0.642011 0.0870239 0.
0.644011 0.0870233 0.
0.646012 0.0870228 0.
0.648012 0.0870223 0.
0.650013 0.0870218 0.
0.652013 0.0870221 0.
0.654013 0.0870223 0.
0.656013 0.0870224 0.
0.658013 0.087022 0.
0.660013 0.0870217 0.
0.662014 0.0870212 0.
0.664014 0.0870205 0.
0.666015 0.0870198 0.
0.668015 0.08702 0.
0.670015 0.0870206 0.
0.672015 0.0870212 0.
0.674014 0.0870204 0.
0.676014 0.0870195 0.
0.678013 0.0870186 0.
0.680014 0.0870185 0.
0.682014 0.0870185 0.
0.684014 0.0870183 0.
0.686014 0.0870178 0.
0.688014 0.0870174 0.
0.690014 0.0870172 0.
0.692014 0.0870172 0.
0.694014 0.0870172 0.
0.696015 0.087017 0.
0.698015 0.0870167 0.
0.499987 0.0890239 0.
0.501988 0.0890231 0.
0.503988 0.0890227 0.
0.505989 0.0890225 0.
0.507989 0.0890225 0.
0.509988 0.0890225 0.
0.511988 0.0890222 0.
0.513988 0.0890215 0.
0.515988 0.0890207 0.
0.517988 0.08902 0.
0.519988 0.0890192 0.
0.521988 0.0890184 0.
0.523987 0.089019 0.
0.525987 0.0890198 0.
0.527987 0.0890205 0.
0.529987 0.0890204 0.
0.531988 0.0890203 0.
0.533988 0.0890202 0.
0.535988 0.0890203 0.
0.537988 0.0890204 0.
0.539988 0.0890207 0.
0.541989 0.0890213 0.
0.543989 0.0890219 0.
0.54599 0.0890222 0.
0.54799 0.0890225 0.
0.54999 0.0890228 0.
0.551991 0.0890238 0.
0.553992 0.0890248 0.
0.555992 0.0890256 0.
0.557992 0.0890253 0.
0.559992 0.0890249 0.
0.561992 0.0890248 0.
0.563993 0.0890249 0.
0.565993 0.089025 0.
0.567993 0.0890252 0.
0.569994 0.0890255 0.
0.571994 0.0890257 0.
0.573994 0.089026 0.
0.575995 0.0890264 0.
0.577996 0.0890268 0.
0.579996 0.0890276 0.
0.581997 0.0890283 0.
0.583997 0.0890288 0.
0.585997 0.0890285 0.
0.587998 0.0890283 0.
0.589998 0.0890283 0.
0.591998 0.0890285 0.
0.593999 0.0890288 0.
0.596 0.089029 0.
0.598001 0.0890292 0.
0.600002 0.0890293 0.
0.602003 0.0890294 0.
0.604003 0.0890294 0.
0.606004 0.0890294 0.
0.608004 0.089029 0.
0.610004 0.0890287 0.
0.612004 0.0890286 0.
0.614005 0.089029 0.
0.616006 0.0890294 0.
0.618006 0.0890292 0.
0.620007 0.0890288 0.
0.622007 0.0890284 0.
0.624007 0.0890281 0.
0.626008 0.0890278 0.
0.628009 0.0890275 0.
0.630009 0.0890271 0.
0.63201 0.0890267 0.
0.63401 0.0890262 0.
0.636011 0.0890258 0.
0.638011 0.0890253 0.
0.640011 0.0890246 0.
0.642011 0.0890236 0.
0.644011 0.0890226 0.
0.646012 0.0890225 0.
0.648012 0.0890225 0.
0.650013 0.0890226 0.
0.652013 0.0890224 0.
0.654012 0.0890222 0.
0.656012 0.089022 0.
0.658013 0.0890217 0.
0.660013 0.0890213 0.
0.662013 0.0890208 0.
0.664014 0.0890202 0.
0.666015 0.0890196 0.
0.668015 0.0890199 0.
0.670016 0.0890206 0.
0.672016 0.0890214 0.
0.674015 0.0890207 0.
0.676014 0.0890198 0.
0.678014 0.0890189 0.
0.680014 0.0890187 0.
0.682014 0.0890185 0.
0.684014 0.0890183 0.
0.686014 0.0890179 0.
0.688014 0.0890175 0.
0.690014 0.0890172 0.
0.692014 0.089017 0.
0.694014 0.0890167 0.
0.696014 0.0890166 0.
0.698015 0.0890165 0.
0.499987 0.0910231 0.
0.501988 0.0910226 0.
0.503989 0.0910224 0.
0.50599 0.0910223 0.
0.507989 0.0910225 0.
0.509989 0.0910228 0.
0.511988 0.0910225 0.
0.513988 0.0910216 0.
0.515988 0.0910207 0.
0.517988 0.0910198 0.
0.519988 0.0910189 0.
0.521988 0.091018 0.
0.523988 0.0910188 0.
0.525988 0.0910197 0.
0.527987 0.0910206 0.
0.529988 0.0910204 0.
0.531988 0.0910202 0.
0.533988 0.0910201 0.
0.535988 0.0910202 0.
0.537988 0.0910203 0.
0.539988 0.0910206 0.
0.541989 0.0910212 0.
0.543989 0.0910218 0.
0.54599 0.0910222 0.
0.54799 0.0910226 0.
0.549991 0.091023 0.
0.551991 0.091024 0.
0.553992 0.091025 0.
0.555992 0.0910257 0.
0.557992 0.0910251 0.
0.559992 0.0910246 0.
0.561992 0.0910244 0.
0.563992 0.0910245 0.
0.565993 0.0910247 0.
0.567993 0.091025 0.
0.569994 0.0910253 0.
0.571994 0.0910257 0.
0.573994 0.091026 0.
0.575995 0.0910263 0.
0.577995 0.0910267 0.
0.579996 0.0910275 0.
0.581996 0.0910282 0.
0.583997 0.0910287 0.
0.585997 0.0910286 0.
0.587997 0.0910284 0.
0.589998 0.0910284 0.
0.591998 0.0910286 0.
0.593999 0.0910287 0.
0.595999 0.0910289 0.
0.598001 0.091029 0.
0.600002 0.0910292 0.
0.602002 0.0910294 0.
0.604003 0.0910296 0.
0.606004 0.0910297 0.
0.608004 0.0910291 0.
0.610004 0.0910286 0.
0.612004 0.0910285 0.
0.614005 0.0910288 0.
0.616006 0.0910292 0.
0.618007 0.091029 0.
0.620007 0.0910285 0.
0.622007 0.091028 0.
0.624008 0.0910278 0.
0.626008 0.0910277 0.
0.628009 0.0910275 0.
0.630009 0.0910271 0.
0.63201 0.0910267 0.
0.63401 0.0910263 0.
0.636011 0.0910259 0.
0.638011 0.0910254 0.
0.640011 0.0910246 0.
0.642011 0.0910235 0.
0.644011 0.0910224 0.
0.646012 0.0910223 0.
0.648012 0.0910224 0.
0.650013 0.0910225 0.
0.652013 0.0910224 0.
0.654013 0.0910222 0.
0.656013 0.091022 0.
0.658013 0.0910215 0.
0.660013 0.091021 0.
0.662013 0.0910205 0.
0.664014 0.0910201 0.
0.666015 0.0910197 0.
0.668015 0.0910201 0.
0.670016 0.0910208 0.
0.672016 0.0910215 0.
0.674015 0.0910209 0.
0.676014 0.09102 0.
0.678014 0.0910193 0.
0.680014 0.0910189 0.
0.682014 0.0910185 0.
0.684014 0.0910181 0.
0.686014 0.0910178 0.
0.688014 0.0910174 0.
0.690014 0.0910171 0.
0.692014 0.0910167 0.
0.694014 0.0910164 0.
0.696014 0.0910165 0.
0.698014 0.0910167 0.
0.499989 0.0930223 0.
0.501989 0.0930221 0.
0.50399 0.093022 0.
0.50599 0.0930221 0.
0.50799 0.0930225 0.
0.509989 0.0930229 0.
0.511989 0.0930227 0.
0.513989 0.0930217 0.
0.515988 0.0930207 0.
0.517988 0.0930197 0.
0.519988 0.0930186 0.
0.521988 0.0930176 0.
0.523988 0.0930184 0.
0.525988 0.0930195 0.
0.527988 0.0930204 0.
0.529988 0.0930204 0.
0.531988 0.0930203 0.
0.533988 0.0930203 0.
0.535988 0.0930206 0.
0.537988 0.0930208 0.
0.539988 0.093021 0.
0.541989 0.0930212 0.
0.543989 0.0930215 0.
0.54599 0.093022 0.
0.54799 0.0930227 0.
0.549991 0.0930233 0.
0.551991 0.0930242 0.
0.553991 0.0930251 0.
0.555992 0.0930257 0.
0.557992 0.0930249 0.
0.559992 0.0930242 0.
0.561992 0.0930239 0.
0.563992 0.0930242 0.
0.565993 0.0930244 0.
0.567993 0.0930249 0.
0.569993 0.0930254 0.
0.571994 0.093026 0.
0.573994 0.0930264 0.
0.575995 0.0930268 0.
0.577995 0.0930272 0.
0.579995 0.0930277 0.
0.581995 0.0930283 0.
0.583996 0.0930286 0.
0.585997 0.0930283 0.
0.587997 0.0930281 0.
0.589998 0.0930281 0.
0.591999 0.0930284 0.
0.593999 0.0930286 0.
0.596 0.0930287 0.
0.598 0.0930288 0.
0.600001 0.0930288 0.
0.602002 0.0930293 0.
0.604003 0.0930297 0.
0.606003 0.09303 0.
0.608004 0.0930295 0.
0.610004 0.0930289 0.
0.612005 0.0930287 0.
0.614005 0.0930287 0.
0.616006 0.0930287 0.
0.618006 0.0930285 0.
0.620007 0.0930281 0.
0.622008 0.0930278 0.
0.624008 0.0930279 0.
0.626009 0.0930281 0.
0.628009 0.0930282 0.
0.63001 0.0930275 0.
0.63201 0.0930267 0.
0.634011 0.0930261 0.
0.636011 0.0930257 0.
0.638011 0.0930252 0.
0.640012 0.0930245 0.
0.642012 0.0930236 0.
0.644012 0.0930227 0.
0.646012 0.0930223 0.
0.648012 0.093022 0.
0.650012 0.0930217 0.
0.652013 0.093022 0.
0.654013 0.0930223 0.
0.656013 0.0930223 0.
0.658014 0.0930215 0.
0.660014 0.0930206 0.
0.662014 0.0930202 0.
0.664014 0.0930202 0.
0.666015 0.0930202 0.
0.668015 0.0930206 0.
0.670015 0.0930211 0.
0.672015 0.0930216 0.
0.674015 0.093021 0.
0.676014 0.0930203 0.
0.678014 0.0930196 0.
0.680014 0.0930189 0.
0.682015 0.0930183 0.
0.684015 0.0930178 0.
0.686014 0.0930175 0.
0.688014 0.0930171 0.
0.690014 0.0930168 0.
0.692014 0.0930166 0.
0.694014 0.0930164 0.
0.696014 0.0930167 0.
0.698014 0.0930171 0.
0.49999 0.0950214 0.
0.50199 0.0950216 0.
0.50399 0.0950217 0.
0.50599 0.095022 0.
0.50799 0.0950225 0.
0.50999 0.095023 0.
0.511989 0.0950228 0.
0.513989 0.0950217 0.
0.515989 0.0950207 0.
0.517988 0.0950195 0.
0.519989 0.0950184 0.
0.521989 0.0950172 0.
0.523989 0.0950181 0.
0.525989 0.0950192 0.
0.527989 0.0950202 0.
0.529988 0.0950203 0.
0.531988 0.0950203 0.
0.533988 0.0950205 0.
0.535988 0.0950209 0.
0.537988 0.0950213 0.
0.539989 0.0950214 0.
0.541989 0.0950213 0.
0.543989 0.0950211 0.
0.54599 0.0950218 0.
0.54799 0.0950227 0.
0.549991 0.0950237 0.
0.551991 0.0950245 0.
0.553991 0.0950253 0.
0.555991 0.0950257 0.
0.557992 0.0950247 0.
0.559992 0.0950237 0.
0.561992 0.0950234 0.
0.563992 0.0950238 0.
0.565992 0.0950242 0.
0.567993 0.0950249 0.
0.569993 0.0950255 0.
0.571994 0.0950262 0.
0.573994 0.0950268 0.
0.575994 0.0950272 0.
0.577995 0.0950277 0.
0.579995 0.095028 0.
0.581995 0.0950283 0.
0.583995 0.0950284 0.
0.585996 0.0950281 0.
0.587997 0.0950277 0.
0.589998 0.0950277 0.
0.591999 0.0950282 0.
0.593999 0.0950286 0.
0.596 0.0950286 0.
0.598 0.0950286 0.
0.6 0.0950285 0.
0.602001 0.0950292 0.
0.604002 0.0950298 0.
0.606003 0.0950302 0.
0.608004 0.0950297 0.
0.610005 0.0950292 0.
0.612005 0.0950288 0.
0.614005 0.0950285 0.
0.616006 0.0950282 0.
0.618006 0.095028 0.
0.620007 0.0950278 0.
0.622009 0.0950275 0.
0.624009 0.095028 0.
0.626009 0.0950285 0.
0.628009 0.0950288 0.
0.63001 0.0950278 0.
0.63201 0.0950268 0.
0.634011 0.0950259 0.
0.636011 0.0950255 0.
0.638012 0.095025 0.
0.640012 0.0950245 0.
0.642012 0.0950238 0.
0.644012 0.0950231 0.
0.646012 0.0950223 0.
0.648012 0.0950216 0.
0.650012 0.0950209 0.
0.652013 0.0950216 0.
0.654014 0.0950224 0.
0.656014 0.0950226 0.
0.658014 0.0950215 0.
0.660015 0.0950203 0.
0.662015 0.0950199 0.
0.664015 0.0950203 0.
0.666015 0.0950207 0.
0.668015 0.0950211 0.
0.670014 0.0950214 0.
0.672014 0.0950217 0.
0.674014 0.0950212 0.
0.676014 0.0950205 0.
0.678014 0.0950199 0.
0.680014 0.095019 0.
0.682015 0.0950182 0.
0.684015 0.0950175 0.
0.686015 0.0950171 0.
0.688014 0.0950168 0.
0.690014 0.0950166 0.
0.692015 0.0950165 0.
0.694015 0.0950164 0.
0.696015 0.0950169 0.
0.698014 0.0950176 0.
0.499991 0.0970224 0.
0.501991 0.0970223 0.
0.50399 0.0970224 0.
0.50599 0.0970224 0.
0.50799 0.0970226 0.
0.50999 0.0970227 0.
0.51199 0.0970224 0.
0.51399 0.0970217 0.
0.51599 0.097021 0.
0.51799 0.0970199 0.
0.519989 0.0970187 0.
0.521989 0.0970174 0.
0.523989 0.097018 0.
0.525989 0.0970188 0.
0.527989 0.0970196 0.
0.529989 0.09702 0.
0.531989 0.0970205 0.
0.533989 0.0970209 0.
0.535989 0.0970213 0.
0.537989 0.0970216 0.
0.539989 0.0970217 0.
0.541989 0.0970215 0.
0.543989 0.0970213 0.
0.545989 0.097022 0.
0.54799 0.0970228 0.
0.54999 0.0970237 0.
0.55199 0.0970243 0.
0.553991 0.0970249 0.
0.555991 0.0970252 0.
0.557992 0.0970244 0.
0.559992 0.0970237 0.
0.561993 0.0970235 0.
0.563993 0.0970239 0.
0.565993 0.0970243 0.
0.567993 0.0970247 0.
0.569994 0.0970251 0.
0.571994 0.0970255 0.
0.573994 0.0970265 0.
0.575994 0.0970275 0.
0.577995 0.0970284 0.
0.579995 0.0970284 0.
0.581995 0.0970284 0.
0.583996 0.0970283 0.
0.585997 0.0970278 0.
0.587997 0.0970273 0.
0.589998 0.0970274 0.
0.591999 0.097028 0.
0.593999 0.0970285 0.
0.596 0.0970286 0.
0.598 0.0970286 0.
0.600001 0.0970286 0.
0.602002 0.097029 0.
0.604002 0.0970294 0.
0.606003 0.0970296 0.
0.608004 0.0970291 0.
0.610005 0.0970287 0.
0.612005 0.0970285 0.
0.614006 0.0970285 0.
0.616006 0.0970284 0.
0.618007 0.0970283 0.
0.620007 0.0970281 0.
0.622008 0.0970279 0.
0.624008 0.0970279 0.
0.626008 0.0970279 0.
0.628009 0.0970279 0.
0.63001 0.0970274 0.
0.632011 0.0970268 0.
0.634012 0.0970262 0.
0.636012 0.0970255 0.
0.638012 0.0970247 0.
0.640013 0.0970242 0.
0.642013 0.0970238 0.
0.644013 0.0970234 0.
0.646014 0.0970228 0.
0.648014 0.0970221 0.
0.650014 0.0970214 0.
0.652015 0.0970218 0.
0.654015 0.0970223 0.
0.656015 0.0970224 0.
0.658015 0.0970213 0.
0.660016 0.0970202 0.
0.662016 0.0970198 0.
0.664016 0.0970202 0.
0.666015 0.0970206 0.
0.668015 0.0970208 0.
0.670015 0.0970208 0.
0.672015 0.0970208 0.
0.674015 0.0970206 0.
0.676016 0.0970204 0.
0.678016 0.09702 0.
0.680016 0.097019 0.
0.682016 0.097018 0.
0.684016 0.0970172 0.
0.686015 0.097017 0.
0.688015 0.0970168 0.
0.690015 0.0970167 0.
0.692015 0.0970168 0.
0.694015 0.0970169 0.
0.696014 0.0970171 0.
0.698014 0.0970175 0.
0.499992 0.0990234 0.
0.501991 0.0990231 0.
0.503991 0.099023 0.
0.50599 0.0990229 0.
0.50799 0.0990226 0.
0.50999 0.0990224 0.
0.511991 0.0990221 0.
0.513991 0.0990217 0.
0.515991 0.0990213 0.
0.517991 0.0990203 0.
0.51999 0.0990189 0.
0.52199 0.0990176 0.
0.523989 0.0990179 0.
0.525989 0.0990184 0.
0.527989 0.099019 0.
0.529989 0.0990198 0.
0.53199 0.0990206 0.
0.53399 0.0990212 0.
0.53599 0.0990216 0.
0.53799 0.0990219 0.
0.53999 0.099022 0.
0.541989 0.0990217 0.
0.543989 0.0990215 0.
0.545989 0.0990221 0.
0.547989 0.099023 0.
0.549989 0.0990238 0.
0.55199 0.0990241 0.
0.553991 0.0990245 0.
0.555991 0.0990246 0.
0.557992 0.0990241 0.
0.559992 0.0990236 0.
0.561993 0.0990235 0.
0.563993 0.099024 0.
0.565993 0.0990244 0.
0.567994 0.0990246 0.
0.569994 0.0990247 0.
0.571994 0.0990248 0.
0.573994 0.0990262 0.
0.575994 0.0990277 0.
0.577995 0.099029 0.
0.579995 0.0990288 0.
0.581996 0.0990285 0.
0.583996 0.0990281 0.
0.585997 0.0990275 0.
0.587997 0.0990269 0.
0.589998 0.099027 0.
0.591998 0.0990277 0.
0.593999 0.0990285 0.
0.596 0.0990286 0.
0.598001 0.0990286 0.
0.600002 0.0990287 0.
0.602002 0.0990288 0.
0.604003 0.0990289 0.
0.606004 0.0990289 0.
0.608004 0.0990285 0.
0.610005 0.0990282 0.
0.612005 0.0990281 0.
0.614006 0.0990284 0.
0.616007 0.0990286 0.
0.618007 0.0990286 0.
0.620007 0.0990284 0.
0.622007 0.0990282 0.
0.624007 0.0990278 0.
0.626008 0.0990274 0.
0.628008 0.099027 0.
0.63001 0.0990269 0.
0.632011 0.0990269 0.
0.634012 0.0990265 0.
0.636013 0.0990254 0.
0.638013 0.0990244 0.
0.640013 0.0990239 0.
0.642014 0.0990239 0.
0.644014 0.0990238 0.
0.646015 0.0990232 0.
0.648016 0.0990226 0.
0.650017 0.0990219 0.
0.652017 0.0990221 0.
0.654016 0.0990222 0.
0.656016 0.0990221 0.
0.658017 0.0990211 0.
0.660017 0.09902 0.
0.662017 0.0990196 0.
0.664016 0.0990201 0.
0.666016 0.0990205 0.
0.668016 0.0990205 0.
0.670016 0.0990202 0.
0.672016 0.09902 0.
0.674017 0.0990201 0.
0.676017 0.0990202 0.
0.678018 0.0990202 0.
0.680018 0.099019 0.
0.682017 0.0990177 0.
0.684017 0.0990169 0.
0.686016 0.0990168 0.
0.688016 0.0990168 0.
0.690015 0.0990169 0.
0.692015 0.0990171 0.
0.694014 0.0990174 0.
0.696014 0.0990174 0.
0.698014 0.0990174 0.
CELLS 5000 10000
1 0
1 1
1 2
1 3
1 4
1 5
1 6
1 7
1 8
1 9
1 10
1 11
1 12
1 13
1 14
1 15
1 16
1 17
1 18
1 19
1 20
1 21
1 22
1 23
1 24
1 25
1 26
1 27
1 28
1 29
1 30
1 31
1 32
1 33
1 34
1 35
1 36
1 37
1 38
1 39
1 40
1 41
1 42
1 43
1 44
1 45
1 46
1 47
1 48
1 49
1 50
1 51
1 52
1 53
1 54
1 55
1 56
1 57
1 58
1 59
1 60
1 61
1 62
1 63
1 64
1 65
1 66
1 67
1 68
1 69
1 70
1 71
1 72
1 73
1 74
1 75
1 76
1 77
1 78
1 79
1 80
1 81
1 82
1 83
1 84
1 85
1 86
1 87
1 88
1 89
1 90
1 91
1 92
1 93
1 94
1 95
1 96
1 97
1 98
1 99
1 100
1 101
1 102
1 103
1 104
1 105
1 106
1 107
1 108
1 109
1 110
1 111
1 112
1 113
1 114
1 115
1 116
1 117
1 118
1 119
1 120
1 121
1 122
1 123
1 124
1 125
1 126
1 127
1 128
1 129
1 130
1 131
1 132
1 133
1 134
1 135
1 136
1 137
1 138
1 139
1 140
1 141
1 142
1 143
1 144
1 145
1 146
1 147
1 148
1 149
1 150
1 151
1 152
1 153
1 154
1 155
1 156
1 157
1 158
1 159
1 160
1 161
1 162
1 163
1 164
1 165
1 166
1 167
1 168
1 169
1 170
1 171
1 172
1 173
1 174
1 175
1 176
1 177
1 178
1 179
1 180
1 181
1 182
1 183
1 184
1 185
1 186
1 187
1 188
1 189
1 190
1 191
1 192
1 193
1 194
1 195
1 196
1 197
1 198
1 199
1 200
1 201
1 202
1 203
1 204
1 205
1 206
1 207
1 208
1 209
1 210
1 211
1 212
1 213
1 214
1 215
1 216
1 217
1 218
1 219
1 220
1 221
1 222
1 223
1 224
1 225
1 226
1 227
1 228
1 229
1 230
1 231
1 232
1 233
1 234
1 235
1 236
1 237
1 238
1 239
1 240
1 241
1 242
1 243
1 244
1 245
1 246
1 247
1 248
1 249
1 250
1 251
1 252
1 253
1 254
1 255
1 256
1 257
1 258
1 259
1 260
1 261
1 262
1 263
1 264
1 265
1 266
1 267
1 268
1 269
1 270
1 271
1 272
1 273
1 274
1 275
1 276
1 277
1 278
1 279
1 280
1 281
1 282
1 283
1 284
1 285
1 286
1 287
1 288
1 289
1 290
1 291
1 292
1 293
1 294
1 295
1 296
1 297
1 298
1 299
1 300
1 301
1 302
1 303
1 304
1 305
1 306
1 307
1 308
1 309
1 310
1 311
1 312
1 313
1 314
1 315
1 316
1 317
1 318
1 319
1 320
1 321
1 322
1 323
1 324
1 325
1 326
1 327
1 328
1 329
1 330
1 331
1 332
1 333
1 334
1 335
1 336
1 337
1 338
1 339
1 340
1 341
1 342
1 343
1 344
1 345
1 346
1 347
1 348
1 349
1 350
1 351
1 352
1 353
1 354
1 355
1 356
1 357
1 358
1 359
1 360
1 361
1 362
1 363
1 364
1 365
1 366
1 367
1 368
1 369
1 370
1 371
1 372
1 373
1 374
1 375
1 376
1 377
1 378
1 379
1 380
1 381
1 382
1 383
1 384
1 385
1 386
1 387
1 388
1 389
1 390
1 391
1 392
1 393
1 394
1 395
1 396
1 397
1 398
1 399
1 400
1 401
1 402
1 403
1 404
1 405
1 406
1 407
1 408
1 409
1 410
1 411
1 412
1 413
1 414
1 415
1 416
1 417
1 418
1 419
1 420
1 421
1 422
1 423
1 424
1 425
1 426
1 427
1 428
1 429
1 430
1 431
1 432
1 433
1 434
1 435
1 436
1 437
1 438
1 439
1 440
1 441
1 442
1 443
1 444
1 445
1 446
1 447
1 448
1 449
1 450
1 451
1 452
1 453
1 454
1 455
1 456
1 457
1 458
1 459
1 460
1 461
1 462
1 463
1 464
1 465
1 466
1 467
1 468
1 469
1 470
1 471
1 472
1 473
1 474
1 475
1 476
1 477
1 478
1 479
1 480
1 481
1 482
1 483
1 484
1 485
1 486
1 487
1 488
1 489
1 490
1 491
1 492
1 493
1 494
1 495
1 496
1 497
1 498
1 499
1 500
1 501
1 502
1 503
1 504
1 505
1 506
1 507
1 508
1 509
1 510
1 511
1 512
1 513
1 514
1 515
1 516
1 517
1 518
1 519
1 520
1 521
1 522
1 523
1 524
1 525
1 526
1 527
1 528
1 529
1 530
1 531
1 532
1 533
1 534
1 535
1 536
1 537
1 538
1 539
1 540
1 541
1 542
1 543
1 544
1 545
1 546
1 547
1 548
1 549
1 550
1 551
1 552
1 553
1 554
1 555
1 556
1 557
1 558
1 559
1 560
1 561
1 562
1 563
1 564
1 565
1 566
1 567
1 568
1 569
1 570
1 571
1 572
1 573
1 574
1 575
1 576
1 577
1 578
1 579
1 580
1 581
1 582
1 583
1 584
1 585
1 586
1 587
1 588
1 589
1 590
1 591
1 592
1 593
1 594
1 595
1 596
1 597
1 598
1 599
1 600
1 601
1 602
1 603
1 604
1 605
1 606
1 607
1 608
1 609
1 610
1 611
1 612
1 613
1 614
1 615
1 616
1 617
1 618
1 619
1 620
1 621
1 622
1 623
1 624
1 625
1 626
1 627
1 628
1 629
1 630
1 631
1 632
1 633
1 634
1 635
1 636
1 637
1 638
1 639
1 640
1 641
1 642
1 643
1 644
1 645
1 646
1 647
1 648
1 649
1 650
1 651
1 652
1 653
1 654
1 655
1 656
1 657
1 658
1 659
1 660
1 661
1 662
1 663
1 664
1 665
1 666
1 667
1 668
1 669
1 670
1 671
1 672
1 673
1 674
1 675
1 676
1 677
1 678
1 679
1 680
1 681
1 682
1 683
1 684
1 685
1 686
1 687
1 688
1 689
1 690
1 691
1 692
1 693
1 694
1 695
1 696
1 697
1 698
1 699
1 700
1 701
1 702
1 703
1 704
1 705
1 706
1 707
1 708
1 709
1 710
1 711
1 712
1 713
1 714
1 715
1 716
1 717
1 718
1 719
1 720
1 721
1 722
1 723
1 724
1 725
1 726
1 727
1 728
1 729
1 730
1 731
1 732
1 733
1 734
1 735
1 736
1 737
1 738
1 739
1 740
1 741
1 742
1 743
1 744
1 745
1 746
1 747
1 748
1 749
1 750
1 751
1 752
1 753
1 754
1 755
1 756
1 757
1 758
1 759
1 760
1 761
1 762
1 763
1 764
1 765
1 766
1 767
1 768
1 769
1 770
1 771
1 772
1 773
1 774
1 775
1 776
1 777
1 778
1 779
1 780
1 781
1 782
1 783
1 784
1 785
1 786
1 787
1 788
1 789
1 790
1 791
1 792
1 793
1 794
1 795
1 796
1 797
1 798
1 799
1 800
1 801
1 802
1 803
1 804
1 805
1 806
1 807
1 808
1 809
1 810
1 811
1 812
1 813
1 814
1 815
1 816
1 817
1 818
1 819
1 820
1 821
1 822
1 823
1 824
1 825
1 826
1 827
1 828
1 829
1 830
1 831
1 832
1 833
1 834
1 835
1 836
1 837
1 838
1 839
1 840
1 841
1 842
1 843
1 844
1 845
1 846
1 847
1 848
1 849
1 850
1 851
1 852
1 853
1 854
1 855
1 856
1 857
1 858
1 859
1 860
1 861
1 862
1 863
1 864
1 865
1 866
1 867
1 868
1 869
1 870
1 871
1 872
1 873
1 874
1 875
1 876
1 877
1 878
1 879
1 880
1 881
1 882
1 883
1 884
1 885
1 886
1 887
1 888
1 889
1 890
1 891
1 892
1 893
1 894
1 895
1 896
1 897
1 898
1 899
1 900
1 901
1 902
1 903
1 904
1 905
1 906
1 907
1 908
1 909
1 910
1 911
1 912
1 913
1 914
1 915
1 916
1 917
1 918
1 919
1 920
1 921
1 922
1 923
1 924
1 925
1 926
1 927
1 928
1 929
1 930
1 931
1 932
1 933
1 934
1 935
1 936
1 937
1 938
1 939
1 940
1 941
1 942
1 943
1 944
1 945
1 946
1 947
1 948
1 949
1 950
1 951
1 952
1 953
1 954
1 955
1 956
1 957
1 958
1 959
1 960
1 961
1 962
1 963
1 964
1 965
1 966
1 967
1 968
1 969
1 970
1 971
1 972
1 973
1 974
1 975
1 976
1 977
1 978
1 979
1 980
1 981
1 982
1 983
1 984
1 985
1 986
1 987
1 988
1 989
1 990
1 991
1 992
1 993
1 994
1 995
1 996
1 997
1 998
1 999
1 1000
1 1001
1 1002
1 1003
1 1004
1 1005
1 1006
1 1007
1 1008
1 1009
1 1010
1 1011
1 1012
1 1013
1 1014
1 1015
1 1016
1 1017
1 1018
1 1019
1 1020
1 1021
1 1022
1 1023
1 1024
1 1025
1 1026
1 1027
1 1028
1 1029
1 1030
1 1031
1 1032
1 1033
1 1034
1 1035
1 1036
1 1037
1 1038
1 1039
1 1040
1 1041
1 1042
1 1043
1 1044
1 1045
1 1046
1 1047
1 1048
1 1049
1 1050
1 1051
1 1052
1 1053
1 1054
1 1055
1 1056
1 1057
1 1058
1 1059
1 1060
1 1061
1 1062
1 1063
1 1064
1 1065
1 1066
1 1067
1 1068
1 1069
1 1070
1 1071
1 1072
1 1073
1 1074
1 1075
1 1076
1 1077
1 1078
1 1079
1 1080
1 1081
1 1082
1 1083
1 1084
1 1085
1 1086
1 1087
1 1088
1 1089
1 1090
1 1091
1 1092
1 1093
1 1094
1 1095
1 1096
1 1097
1 1098
1 1099
1 1100
1 1101
1 1102
1 1103
1 1104
1 1105
1 1106
1 1107
1 1108
1 1109
1 1110
1 1111
1 1112
1 1113
1 1114
1 1115
1 1116
1 1117
1 1118
1 1119
1 1120
1 1121
1 1122
1 1123
1 1124
1 1125
1 1126
1 1127
1 1128
1 1129
1 1130
1 1131
1 1132
1 1133
1 1134
1 1135
1 1136
1 1137
1 1138
1 1139
1 1140
1 1141
1 1142
1 1143
1 1144
1 1145
1 1146
1 1147
1 1148
1 1149
1 1150
1 1151
1 1152
1 1153
1 1154
1 1155
1 1156
1 1157
1 1158
1 1159
1 1160
1 1161
1 1162
1 1163
1 1164
1 1165
1 1166
1 1167
1 1168
1 1169
1 1170
1 1171
1 1172
1 1173
1 1174
1 1175
1 1176
1 1177
1 1178
1 1179
1 1180
1 1181
1 1182
1 1183
1 1184
1 1185
1 1186
1 1187
1 1188
1 1189
1 1190
1 1191
1 1192
1 1193
1 1194
1 1195
1 1196
1 1197
1 1198
1 1199
1 1200
1 1201
1 1202
1 1203
1 1204
1 1205
1 1206
1 1207
1 1208
1 1209
1 1210
1 1211
1 1212
1 1213
1 1214
1 1215
1 1216
1 1217
1 1218
1 1219
1 1220
1 1221
1 1222
1 1223
1 1224
1 1225
1 1226
1 1227
1 1228
1 1229
1 1230
1 1231
1 1232
1 1233
1 1234
1 1235
1 1236
1 1237
1 1238
1 1239
1 1240
1 1241
1 1242
1 1243
1 1244
1 1245
1 1246
1 1247
1 1248
1 1249
1 1250
1 1251
1 1252
1 1253
1 1254
1 1255
1 1256
1 1257
1 1258
1 1259
1 1260
1 1261
1 1262
1 1263
1 1264
1 1265
1 1266
1 1267
1 1268
1 1269
1 1270
1 1271
1 1272
1 1273
1 1274
1 1275
1 1276
1 1277
1 1278
1 1279
1 1280
1 1281
1 1282
1 1283
1 1284
1 1285
1 1286
1 1287
1 1288
1 1289
1 1290
1 1291
1 1292
1 1293
1 1294
1 1295
1 1296
1 1297
1 1298
1 1299
1 1300
1 1301
1 1302
1 1303
1 1304
1 1305
1 1306
1 1307
1 1308
1 1309
1 1310
1 1311
1 1312
1 1313
1 1314
1 1315
1 1316
1 1317
1 1318
1 1319
1 1320
1 1321
1 1322
1 1323
1 1324
1 1325
1 1326
1 1327
1 1328
1 1329
1 1330
1 1331
1 1332
1 1333
1 1334
1 1335
1 1336
1 1337
1 1338
1 1339
1 1340
1 1341
1 1342
1 1343
1 1344
1 1345
1 1346
1 1347
1 1348
1 1349
1 1350
1 1351
1 1352
1 1353
1 1354
1 1355
1 1356
1 1357
1 1358
1 1359
1 1360
1 1361
1 1362
1 1363
1 1364
1 1365
1 1366
1 1367
1 1368
1 1369
1 1370
1 1371
1 1372
1 1373
1 1374
1 1375
1 1376
1 1377
1 1378
1 1379
1 1380
1 1381
1 1382
1 1383
1 1384
1 1385
1 1386
1 1387
1 1388
1 1389
1 1390
1 1391
1 1392
1 1393
1 1394
1 1395
1 1396
1 1397
1 1398
1 1399
1 1400
1 1401
1 1402
1 1403
1 1404
1 1405
1 1406
1 1407
1 1408
1 1409
1 1410
1 1411
1 1412
1 1413
1 1414
1 1415
1 1416
1 1417
1 1418
1 1419
1 1420
1 1421
1 1422
1 1423
1 1424
1 1425
1 1426
1 1427
1 1428
1 1429
1 1430
1 1431
1 1432
1 1433
1 1434
1 1435
1 1436
1 1437
1 1438
1 1439
1 1440
1 1441
1 1442
1 1443
1 1444
1 1445
1 1446
1 1447
1 1448
1 1449
1 1450
1 1451
1 1452
1 1453
1 1454
1 1455
1 1456
1 1457
1 1458
1 1459
1 1460
1 1461
1 1462
1 1463
1 1464
1 1465
1 1466
1 1467
1 1468
1 1469
1 1470
1 1471
1 1472
1 1473
1 1474
1 1475
1 1476
1 1477
1 1478
1 1479
1 1480
1 1481
1 1482
1 1483
1 1484
1 1485
1 1486
1 1487
1 1488
1 1489
1 1490
1 1491
1 1492
1 1493
1 1494
1 1495
1 1496
1 1497
1 1498
1 1499
1 1500
1 1501
1 1502
1 1503
1 1504
1 1505
1 1506
1 1507
1 1508
1 1509
1 1510
1 1511
1 1512
1 1513
1 1514
1 1515
1 1516
1 1517
1 1518
1 1519
1 1520
1 1521
1 1522
1 1523
1 1524
1 1525
1 1526
1 1527
1 1528
1 1529
1 1530
1 1531
1 1532
1 1533
1 1534
1 1535
1 1536
1 1537
1 1538
1 1539
1 1540
1 1541
1 1542
1 1543
1 1544
1 1545
1 1546
1 1547
1 1548
1 1549
1 1550
1 1551
1 1552
1 1553
1 1554
1 1555
1 1556
1 1557
1 1558
1 1559
1 1560
1 1561
1 1562
1 1563
1 1564
1 1565
1 1566
1 1567
1 1568
1 1569
1 1570
1 1571
1 1572
1 1573
1 1574
1 1575
1 1576
1 1577
1 1578
1 1579
1 1580
1 1581
1 1582
1 1583
1 1584
1 1585
1 1586
1 1587
1 1588
1 1589
1 1590
1 1591
1 1592
1 1593
1 1594
1 1595
1 1596
1 1597
1 1598
1 1599
1 1600
1 1601
1 1602
1 1603
1 1604
1 1605
1 1606
1 1607
1 1608
1 1609
1 1610
1 1611
1 1612
1 1613
1 1614
1 1615
1 1616
1 1617
1 1618
1 1619
1 1620
1 1621
1 1622
1 1623
1 1624
1 1625
1 1626
1 1627
1 1628
1 1629
1 1630
1 1631
1 1632
1 1633
1 1634
1 1635
1 1636
1 1637
1 1638
1 1639
1 1640
1 1641
1 1642
1 1643
1 1644
1 1645
1 1646
1 1647
1 1648
1 1649
1 1650
1 1651
1 1652
1 1653
1 1654
1 1655
1 1656
1 1657
1 1658
1 1659
1 1660
1 1661
1 1662
1 1663
1 1664
1 1665
1 1666
1 1667
1 1668
1 1669
1 1670
1 1671
1 1672
1 1673
1 1674
1 1675
1 1676
1 1677
1 1678
1 1679
1 1680
1 1681
1 1682
1 1683
1 1684
1 1685
1 1686
1 1687
1 1688
1 1689
1 1690
1 1691
1 1692
1 1693
1 1694
1 1695
1 1696
1 1697
1 1698
1 1699
1 1700
1 1701
1 1702
1 1703
1 1704
1 1705
1 1706
1 1707
1 1708
1 1709
1 1710
1 1711
1 1712
1 1713
1 1714
1 1715
1 1716
1 1717
1 1718
1 1719
1 1720
1 1721
1 1722
1 1723
1 1724
1 1725
1 1726
1 1727
1 1728
1 1729
1 1730
1 1731
1 1732
1 1733
1 1734
1 1735
1 1736
1 1737
1 1738
1 1739
1 1740
1 1741
1 1742
1 1743
1 1744
1 1745
1 1746
1 1747
1 1748
1 1749
1 1750
1 1751
1 1752
1 1753
1 1754
1 1755
1 1756
1 1757
1 1758
1 1759
1 1760
1 1761
1 1762
1 1763
1 1764
1 1765
1 1766
1 1767
1 1768
1 1769
1 1770
1 1771
1 1772
1 1773
1 1774
1 1775
1 1776
1 1777
1 1778
1 1779
1 1780
1 1781
1 1782
1 1783
1 1784
1 1785
1 1786
1 1787
1 1788
1 1789
1 1790
1 1791
1 1792
1 1793
1 1794
1 1795
1 1796
1 1797
1 1798
1 1799
1 1800
1 1801
1 1802
1 1803
1 1804
1 1805
1 1806
1 1807
1 1808
1 1809
1 1810
1 1811
1 1812
1 1813
1 1814
1 1815
1 1816
1 1817
1 1818
1 1819
1 1820
1 1821
1 1822
1 1823
1 1824
1 1825
1 1826
1 1827
1 1828
1 1829
1 1830
1 1831
1 1832
1 1833
1 1834
1 1835
1 1836
1 1837
1 1838
1 1839
1 1840
1 1841
1 1842
1 1843
1 1844
1 1845
1 1846
1 1847
1 1848
1 1849
1 1850
1 1851
1 1852
1 1853
1 1854
1 1855
1 1856
1 1857
1 1858
1 1859
1 1860
1 1861
1 1862
1 1863
1 1864
1 1865
1 1866
1 1867
1 1868
1 1869
1 1870
1 1871
1 1872
1 1873
1 1874
1 1875
1 1876
1 1877
1 1878
1 1879
1 1880
1 1881
1 1882
1 1883
1 1884
1 1885
1 1886
1 1887
1 1888
1 1889
1 1890
1 1891
1 1892
1 1893
1 1894
1 1895
1 1896
1 1897
1 1898
1 1899
1 1900
1 1901
1 1902
1 1903
1 1904
1 1905
1 1906
1 1907
1 1908
1 1909
1 1910
1 1911
1 1912
1 1913
1 1914
1 1915
1 1916
1 1917
1 1918
1 1919
1 1920
1 1921
1 1922
1 1923
1 1924
1 1925
1 1926
1 1927
1 1928
1 1929
1 1930
1 1931
1 1932
1 1933
1 1934
1 1935
1 1936
1 1937
1 1938
1 1939
1 1940
1 1941
1 1942
1 1943
1 1944
1 1945
1 1946
1 1947
1 1948
1 1949
1 1950
1 1951
1 1952
1 1953
1 1954
1 1955
1 1956
1 1957
1 1958
1 1959
1 1960
1 1961
1 1962
1 1963
1 1964
1 1965
1 1966
1 1967
1 1968
1 1969
1 1970
1 1971
1 1972
1 1973
1 1974
1 1975
1 1976
1 1977
1 1978
1 1979
1 1980
1 1981
1 1982
1 1983
1 1984
1 1985
1 1986
1 1987
1 1988
1 1989
1 1990
1 1991
1 1992
1 1993
1 1994
1 1995
1 1996
1 1997
1 1998
1 1999
1 2000
1 2001
1 2002
1 2003
1 2004
1 2005
1 2006
1 2007
1 2008
1 2009
1 2010
1 2011
1 2012
1 2013
1 2014
1 2015
1 2016
1 2017
1 2018
1 2019
1 2020
1 2021
1 2022
1 2023
1 2024
1 2025
1 2026
1 2027
1 2028
1 2029
1 2030
1 2031
1 2032
1 2033
1 2034
1 2035
1 2036
1 2037
1 2038
1 2039
1 2040
1 2041
1 2042
1 2043
1 2044
1 2045
1 2046
1 2047
1 2048
1 2049
1 2050
1 2051
1 2052
1 2053
1 2054
1 2055
1 2056
1 2057
1 2058
1 2059
1 2060
1 2061
1 2062
1 2063
1 2064
1 2065
1 2066
1 2067
1 2068
1 2069
1 2070
1 2071
1 2072
1 2073
1 2074
1 2075
1 2076
1 2077
1 2078
1 2079
1 2080
1 2081
1 2082
1 2083
1 2084
1 2085
1 2086
1 2087
1 2088
1 2089
1 2090
1 2091
1 2092
1 2093
1 2094
1 2095
1 2096
1 2097
1 2098
1 2099
1 2100
1 2101
1 2102
1 2103
1 2104
1 2105
1 2106
1 2107
1 2108
1 2109
1 2110
1 2111
1 2112
1 2113
1 2114
1 2115
1 2116
1 2117
1 2118
1 2119
1 2120
1 2121
1 2122
1 2123
1 2124
1 2125
1 2126
1 2127
1 2128
1 2129
1 2130
1 2131
1 2132
1 2133
1 2134
1 2135
1 2136
1 2137
1 2138
1 2139
1 2140
1 2141
1 2142
1 2143
1 2144
1 2145
1 2146
1 2147
1 2148
1 2149
1 2150
1 2151
1 2152
1 2153
1 2154
1 2155
1 2156
1 2157
1 2158
1 2159
1 2160
1 2161
1 2162
1 2163
1 2164
1 2165
1 2166
1 2167
1 2168
1 2169
1 2170
1 2171
1 2172
1 2173
1 2174
1 2175
1 2176
1 2177
1 2178
1 2179
1 2180
1 2181
1 2182
1 2183
1 2184
1 2185
1 2186
1 2187
1 2188
1 2189
1 2190
1 2191
1 2192
1 2193
1 2194
1 2195
1 2196
1 2197
1 2198
1 2199
1 2200
1 2201
1 2202
1 2203
1 2204
1 2205
1 2206
1 2207
1 2208
1 2209
1 2210
1 2211
1 2212
1 2213
1 2214
1 2215
1 2216
1 2217
1 2218
1 2219
1 2220
1 2221
1 2222
1 2223
1 2224
1 2225
1 2226
1 2227
1 2228
1 2229
1 2230
1 2231
1 2232
1 2233
1 2234
1 2235
1 2236
1 2237
1 2238
1 2239
1 2240
1 2241
1 2242
1 2243
1 2244
1 2245
1 2246
1 2247
1 2248
1 2249
1 2250
1 2251
1 2252
1 2253
1 2254
1 2255
1 2256
1 2257
1 2258
1 2259
1 2260
1 2261
1 2262
1 2263
1 2264
1 2265
1 2266
1 2267
1 2268
1 2269
1 2270
1 2271
1 2272
1 2273
1 2274
1 2275
1 2276
1 2277
1 2278
1 2279
1 2280
1 2281
1 2282
1 2283
1 2284
1 2285
1 2286
1 2287
1 2288
1 2289
1 2290
1 2291
1 2292
1 2293
1 2294
1 2295
1 2296
1 2297
1 2298
1 2299
1 2300
1 2301
1 2302
1 2303
1 2304
1 2305
1 2306
1 2307
1 2308
1 2309
1 2310
1 2311
1 2312
1 2313
1 2314
1 2315
1 2316
1 2317
1 2318
1 2319
1 2320
1 2321
1 2322
1 2323
1 2324
1 2325
1 2326
1 2327
1 2328
1 2329
1 2330
1 2331
1 2332
1 2333
1 2334
1 2335
1 2336
1 2337
1 2338
1 2339
1 2340
1 2341
1 2342
1 2343
1 2344
1 2345
1 2346
1 2347
1 2348
1 2349
1 2350
1 2351
1 2352
1 2353
1 2354
1 2355
1 2356
1 2357
1 2358
1 2359
1 2360
1 2361
1 2362
1 2363
1 2364
1 2365
1 2366
1 2367
1 2368
1 2369
1 2370
1 2371
1 2372
1 2373
1 2374
1 2375
1 2376
1 2377
1 2378
1 2379
1 2380
1 2381
1 2382
1 2383
1 2384
1 2385
1 2386
1 2387
1 2388
1 2389
1 2390
1 2391
1 2392
1 2393
1 2394
1 2395
1 2396
1 2397
1 2398
1 2399
1 2400
1 2401
1 2402
1 2403
1 2404
1 2405
1 2406
1 2407
1 2408
1 2409
1 2410
1 2411
1 2412
1 2413
1 2414
1 2415
1 2416
1 2417
1 2418
1 2419
1 2420
1 2421
1 2422
1 2423
1 2424
1 2425
1 2426
1 2427
1 2428
1 2429
1 2430
1 2431
1 2432
1 2433
1 2434
1 2435
1 2436
1 2437
1 2438
1 2439
1 2440
1 2441
1 2442
1 2443
1 2444
1 2445
1 2446
1 2447
1 2448
1 2449
1 2450
1 2451
1 2452
1 2453
1 2454
1 2455
1 2456
1 2457
1 2458
1 2459
1 2460
1 2461
1 2462
1 2463
1 2464
1 2465
1 2466
1 2467
1 2468
1 2469
1 2470
1 2471
1 2472
1 2473
1 2474
1 2475
1 2476
1 2477
1 2478
1 2479
1 2480
1 2481
1 2482
1 2483
1 2484
1 2485
1 2486
1 2487
1 2488
1 2489
1 2490
1 2491
1 2492
1 2493
1 2494
1 2495
1 2496
1 2497
1 2498
1 2499
1 2500
1 2501
1 2502
1 2503
1 2504
1 2505
1 2506
1 2507
1 2508
1 2509
1 2510
1 2511
1 2512
1 2513
1 2514
1 2515
1 2516
1 2517
1 2518
1 2519
1 2520
1 2521
1 2522
1 2523
1 2524
1 2525
1 2526
1 2527
1 2528
1 2529
1 2530
1 2531
1 2532
1 2533
1 2534
1 2535
1 2536
1 2537
1 2538
1 2539
1 2540
1 2541
1 2542
1 2543
1 2544
1 2545
1 2546
1 2547
1 2548
1 2549
1 2550
1 2551
1 2552
1 2553
1 2554
1 2555
1 2556
1 2557
1 2558
1 2559
1 2560
1 2561
1 2562
1 2563
1 2564
1 2565
1 2566
1 2567
1 2568
1 2569
1 2570
1 2571
1 2572
1 2573
1 2574
1 2575
1 2576
1 2577
1 2578
1 2579
1 2580
1 2581
1 2582
1 2583
1 2584
1 2585
1 2586
1 2587
1 2588
1 2589
1 2590
1 2591
1 2592
1 2593
1 2594
1 2595
1 2596
1 2597
1 2598
1 2599
1 2600
1 2601
1 2602
1 2603
1 2604
1 2605
1 2606
1 2607
1 2608
1 2609
1 2610
1 2611
1 2612
1 2613
1 2614
1 2615
1 2616
1 2617
1 2618
1 2619
1 2620
1 2621
1 2622
1 2623
1 2624
1 2625
1 2626
1 2627
1 2628
1 2629
1 2630
1 2631
1 2632
1 2633
1 2634
1 2635
1 2636
1 2637
1 2638
1 2639
1 2640
1 2641
1 2642
1 2643
1 2644
1 2645
1 2646
1 2647
1 2648
1 2649
1 2650
1 2651
1 2652
1 2653
1 2654
1 2655
1 2656
1 2657
1 2658
1 2659
1 2660
1 2661
1 2662
1 2663
1 2664
1 2665
1 2666
1 2667
1 2668
1 2669
1 2670
1 2671
1 2672
1 2673
1 2674
1 2675
1 2676
1 2677
1 2678
1 2679
1 2680
1 2681
1 2682
1 2683
1 2684
1 2685
1 2686
1 2687
1 2688
1 2689
1 2690
1 2691
1 2692
1 2693
1 2694
1 2695
1 2696
1 2697
1 2698
1 2699
1 2700
1 2701
1 2702
1 2703
1 2704
1 2705
1 2706
1 2707
1 2708
1 2709
1 2710
1 2711
1 2712
1 2713
1 2714
1 2715
1 2716
1 2717
1 2718
1 2719
1 2720
1 2721
1 2722
1 2723
1 2724
1 2725
1 2726
1 2727
1 2728
1 2729
1 2730
1 2731
1 2732
1 2733
1 2734
1 2735
1 2736
1 2737
1 2738
1 2739
1 2740
1 2741
1 2742
1 2743
1 2744
1 2745
1 2746
1 2747
1 2748
1 2749
1 2750
1 2751
1 2752
1 2753
1 2754
1 2755
1 2756
1 2757
1 2758
1 2759
1 2760
1 2761
1 2762
1 2763
1 2764
1 2765
1 2766
1 2767
1 2768
1 2769
1 2770
1 2771
1 2772
1 2773
1 2774
1 2775
1 2776
1 2777
1 2778
1 2779
1 2780
1 2781
1 2782
1 2783
1 2784
1 2785
1 2786
1 2787
1 2788
1 2789
1 2790
1 2791
1 2792
1 2793
1 2794
1 2795
1 2796
1 2797
1 2798
1 2799
1 2800
1 2801
1 2802
1 2803
1 2804
1 2805
1 2806
1 2807
1 2808
1 2809
1 2810
1 2811
1 2812
1 2813
1 2814
1 2815
1 2816
1 2817
1 2818
1 2819
1 2820
1 2821
1 2822
1 2823
1 2824
1 2825
1 2826
1 2827
1 2828
1 2829
1 2830
1 2831
1 2832
1 2833
1 2834
1 2835
1 2836
1 2837
1 2838
1 2839
1 2840
1 2841
1 2842
1 2843
1 2844
1 2845
1 2846
1 2847
1 2848
1 2849
1 2850
1 2851
1 2852
1 2853
1 2854
1 2855
1 2856
1 2857
1 2858
1 2859
1 2860
1 2861
1 2862
1 2863
1 2864
1 2865
1 2866
1 2867
1 2868
1 2869
1 2870
1 2871
1 2872
1 2873
1 2874
1 2875
1 2876
1 2877
1 2878
1 2879
1 2880
1 2881
1 2882
1 2883
1 2884
1 2885
1 2886
1 2887
1 2888
1 2889
1 2890
1 2891
1 2892
1 2893
1 2894
1 2895
1 2896
1 2897
1 2898
1 2899
1 2900
1 2901
1 2902
1 2903
1 2904
1 2905
1 2906
1 2907
1 2908
1 2909
1 2910
1 2911
1 2912
1 2913
1 2914
1 2915
1 2916
1 2917
1 2918
1 2919
1 2920
1 2921
1 2922
1 2923
1 2924
1 2925
1 2926
1 2927
1 2928
1 2929
1 2930
1 2931
1 2932
1 2933
1 2934
1 2935
1 2936
1 2937
1 2938
1 2939
1 2940
1 2941
1 2942
1 2943
1 2944
1 2945
1 2946
1 2947
1 2948
1 2949
1 2950
1 2951
1 2952
1 2953
1 2954
1 2955
1 2956
1 2957
1 2958
1 2959
1 2960
1 2961
1 2962
1 2963
1 2964
1 2965
1 2966
1 2967
1 2968
1 2969
1 2970
1 2971
1 2972
1 2973
1 2974
1 2975
1 2976
1 2977
1 2978
1 2979
1 2980
1 2981
1 2982
1 2983
1 2984
1 2985
1 2986
1 2987
1 2988
1 2989
1 2990
1 2991
1 2992
1 2993
1 2994
1 2995
1 2996
1 2997
1 2998
1 2999
1 3000
1 3001
1 3002
1 3003
1 3004
1 3005
1 3006
1 3007
1 3008
1 3009
1 3010
1 3011
1 3012
1 3013
1 3014
1 3015
1 3016
1 3017
1 3018
1 3019
1 3020
1 3021
1 3022
1 3023
1 3024
1 3025
1 3026
1 3027
1 3028
1 3029
1 3030
1 3031
1 3032
1 3033
1 3034
1 3035
1 3036
1 3037
1 3038
1 3039
1 3040
1 3041
1 3042
1 3043
1 3044
1 3045
1 3046
1 3047
1 3048
1 3049
1 3050
1 3051
1 3052
1 3053
1 3054
1 3055
1 3056
1 3057
1 3058
1 3059
1 3060
1 3061
1 3062
1 3063
1 3064
1 3065
1 3066
1 3067
1 3068
1 3069
1 3070
1 3071
1 3072
1 3073
1 3074
1 3075
1 3076
1 3077
1 3078
1 3079
1 3080
1 3081
1 3082
1 3083
1 3084
1 3085
1 3086
1 3087
1 3088
1 3089
1 3090
1 3091
1 3092
1 3093
1 3094
1 3095
1 3096
1 3097
1 3098
1 3099
1 3100
1 3101
1 3102
1 3103
1 3104
1 3105
1 3106
1 3107
1 3108
1 3109
1 3110
1 3111
1 3112
1 3113
1 3114
1 3115
1 3116
1 3117
1 3118
1 3119
1 3120
1 3121
1 3122
1 3123
1 3124
1 3125
1 3126
1 3127
1 3128
1 3129
1 3130
1 3131
1 3132
1 3133
1 3134
1 3135
1 3136
1 3137
1 3138
1 3139
1 3140
1 3141
1 3142
1 3143
1 3144
1 3145
1 3146
1 3147
1 3148
1 3149
1 3150
1 3151
1 3152
1 3153
1 3154
1 3155
1 3156
1 3157
1 3158
1 3159
1 3160
1 3161
1 3162
1 3163
1 3164
1 3165
1 3166
1 3167
1 3168
1 3169
1 3170
1 3171
1 3172
1 3173
1 3174
1 3175
1 3176
1 3177
1 3178
1 3179
1 3180
1 3181
1 3182
1 3183
1 3184
1 3185
1 3186
1 3187
1 3188
1 3189
1 3190
1 3191
1 3192
1 3193
1 3194
1 3195
1 3196
1 3197
1 3198
1 3199
1 3200
1 3201
1 3202
1 3203
1 3204
1 3205
1 3206
1 3207
1 3208
1 3209
1 3210
1 3211
1 3212
1 3213
1 3214
1 3215
1 3216
1 3217
1 3218
1 3219
1 3220
1 3221
1 3222
1 3223
1 3224
1 3225
1 3226
1 3227
1 3228
1 3229
1 3230
1 3231
1 3232
1 3233
1 3234
1 3235
1 3236
1 3237
1 3238
1 3239
1 3240
1 3241
1 3242
1 3243
1 3244
1 3245
1 3246
1 3247
1 3248
1 3249
1 3250
1 3251
1 3252
1 3253
1 3254
1 3255
1 3256
1 3257
1 3258
1 3259
1 3260
1 3261
1 3262
1 3263
1 3264
1 3265
1 3266
1 3267
1 3268
1 3269
1 3270
1 3271
1 3272
1 3273
1 3274
1 3275
1 3276
1 3277
1 3278
1 3279
1 3280
1 3281
1 3282
1 3283
1 3284
1 3285
1 3286
1 3287
1 3288
1 3289
1 3290
1 3291
1 3292
1 3293
1 3294
1 3295
1 3296
1 3297
1 3298
1 3299
1 3300
1 3301
1 3302
1 3303
1 3304
1 3305
1 3306
1 3307
1 3308
1 3309
1 3310
1 3311
1 3312
1 3313
1 3314
1 3315
1 3316
1 3317
1 3318
1 3319
1 3320
1 3321
1 3322
1 3323
1 3324
1 3325
1 3326
1 3327
1 3328
1 3329
1 3330
1 3331
1 3332
1 3333
1 3334
1 3335
1 3336
1 3337
1 3338
1 3339
1 3340
1 3341
1 3342
1 3343
1 3344
1 3345
1 3346
1 3347
1 3348
1 3349
1 3350
1 3351
1 3352
1 3353
1 3354
1 3355
1 3356
1 3357
1 3358
1 3359
1 3360
1 3361
1 3362
1 3363
1 3364
1 3365
1 3366
1 3367
1 3368
1 3369
1 3370
1 3371
1 3372
1 3373
1 3374
1 3375
1 3376
1 3377
1 3378
1 3379
1 3380
1 3381
1 3382
1 3383
1 3384
1 3385
1 3386
1 3387
1 3388
1 3389
1 3390
1 3391
1 3392
1 3393
1 3394
1 3395
1 3396
1 3397
1 3398
1 3399
1 3400
1 3401
1 3402
1 3403
1 3404
1 3405
1 3406
1 3407
1 3408
1 3409
1 3410
1 3411
1 3412
1 3413
1 3414
1 3415
1 3416
1 3417
1 3418
1 3419
1 3420
1 3421
1 3422
1 3423
1 3424
1 3425
1 3426
1 3427
1 3428
1 3429
1 3430
1 3431
1 3432
1 3433
1 3434
1 3435
1 3436
1 3437
1 3438
1 3439
1 3440
1 3441
1 3442
1 3443
1 3444
1 3445
1 3446
1 3447
1 3448
1 3449
1 3450
1 3451
1 3452
1 3453
1 3454
1 3455
1 3456
1 3457
1 3458
1 3459
1 3460
1 3461
1 3462
1 3463
1 3464
1 3465
1 3466
1 3467
1 3468
1 3469
1 3470
1 3471
1 3472
1 3473
1 3474
1 3475
1 3476
1 3477
1 3478
1 3479
1 3480
1 3481
1 3482
1 3483
1 3484
1 3485
1 3486
1 3487
1 3488
1 3489
1 3490
1 3491
1 3492
1 3493
1 3494
1 3495
1 3496
1 3497
1 3498
1 3499
1 3500
1 3501
1 3502
1 3503
1 3504
1 3505
1 3506
1 3507
1 3508
1 3509
1 3510
1 3511
1 3512
1 3513
1 3514
1 3515
1 3516
1 3517
1 3518
1 3519
1 3520
1 3521
1 3522
1 3523
1 3524
1 3525
1 3526
1 3527
1 3528
1 3529
1 3530
1 3531
1 3532
1 3533
1 3534
1 3535
1 3536
1 3537
1 3538
1 3539
1 3540
1 3541
1 3542
1 3543
1 3544
1 3545
1 3546
1 3547
1 3548
1 3549
1 3550
1 3551
1 3552
1 3553
1 3554
1 3555
1 3556
1 3557
1 3558
1 3559
1 3560
1 3561
1 3562
1 3563
1 3564
1 3565
1 3566
1 3567
1 3568
1 3569
1 3570
1 3571
1 3572
1 3573
1 3574
1 3575
1 3576
1 3577
1 3578
1 3579
1 3580
1 3581
1 3582
1 3583
1 3584
1 3585
1 3586
1 3587
1 3588
1 3589
1 3590
1 3591
1 3592
1 3593
1 3594
1 3595
1 3596
1 3597
1 3598
1 3599
1 3600
1 3601
1 3602
1 3603
1 3604
1 3605
1 3606
1 3607
1 3608
1 3609
1 3610
1 3611
1 3612
1 3613
1 3614
1 3615
1 3616
1 3617
1 3618
1 3619
1 3620
1 3621
1 3622
1 3623
1 3624
1 3625
1 3626
1 3627
1 3628
1 3629
1 3630
1 3631
1 3632
1 3633
1 3634
1 3635
1 3636
1 3637
1 3638
1 3639
1 3640
1 3641
1 3642
1 3643
1 3644
1 3645
1 3646
1 3647
1 3648
1 3649
1 3650
1 3651
1 3652
1 3653
1 3654
1 3655
1 3656
1 3657
1 3658
1 3659
1 3660
1 3661
1 3662
1 3663
1 3664
1 3665
1 3666
1 3667
1 3668
1 3669
1 3670
1 3671
1 3672
1 3673
1 3674
1 3675
1 3676
1 3677
1 3678
1 3679
1 3680
1 3681
1 3682
1 3683
1 3684
1 3685
1 3686
1 3687
1 3688
1 3689
1 3690
1 3691
1 3692
1 3693
1 3694
1 3695
1 3696
1 3697
1 3698
1 3699
1 3700
1 3701
1 3702
1 3703
1 3704
1 3705
1 3706
1 3707
1 3708
1 3709
1 3710
1 3711
1 3712
1 3713
1 3714
1 3715
1 3716
1 3717
1 3718
1 3719
1 3720
1 3721
1 3722
1 3723
1 3724
1 3725
1 3726
1 3727
1 3728
1 3729
1 3730
1 3731
1 3732
1 3733
1 3734
1 3735
1 3736
1 3737
1 3738
1 3739
1 3740
1 3741
1 3742
1 3743
1 3744
1 3745
1 3746
1 3747
1 3748
1 3749
1 3750
1 3751
1 3752
1 3753
1 3754
1 3755
1 3756
1 3757
1 3758
1 3759
1 3760
1 3761
1 3762
1 3763
1 3764
1 3765
1 3766
1 3767
1 3768
1 3769
1 3770
1 3771
1 3772
1 3773
1 3774
1 3775
1 3776
1 3777
1 3778
1 3779
1 3780
1 3781
1 3782
1 3783
1 3784
1 3785
1 3786
1 3787
1 3788
1 3789
1 3790
1 3791
1 3792
1 3793
1 3794
1 3795
1 3796
1 3797
1 3798
1 3799
1 3800
1 3801
1 3802
1 3803
1 3804
1 3805
1 3806
1 3807
1 3808
1 3809
1 3810
1 3811
1 3812
1 3813
1 3814
1 3815
1 3816
1 3817
1 3818
1 3819
1 3820
1 3821
1 3822
1 3823
1 3824
1 3825
1 3826
1 3827
1 3828
1 3829
1 3830
1 3831
1 3832
1 3833
1 3834
1 3835
1 3836
1 3837
1 3838
1 3839
1 3840
1 3841
1 3842
1 3843
1 3844
1 3845
1 3846
1 3847
1 3848
1 3849
1 3850
1 3851
1 3852
1 3853
1 3854
1 3855
1 3856
1 3857
1 3858
1 3859
1 3860
1 3861
1 3862
1 3863
1 3864
1 3865
1 3866
1 3867
1 3868
1 3869
1 3870
1 3871
1 3872
1 3873
1 3874
1 3875
1 3876
1 3877
1 3878
1 3879
1 3880
1 3881
1 3882
1 3883
1 3884
1 3885
1 3886
1 3887
1 3888
1 3889
1 3890
1 3891
1 3892
1 3893
1 3894
1 3895
1 3896
1 3897
1 3898
1 3899
1 3900
1 3901
1 3902
1 3903
1 3904
1 3905
1 3906
1 3907
1 3908
1 3909
1 3910
1 3911
1 3912
1 3913
1 3914
1 3915
1 3916
1 3917
1 3918
1 3919
1 3920
1 3921
1 3922
1 3923
1 3924
1 3925
1 3926
1 3927
1 3928
1 3929
1 3930
1 3931
1 3932
1 3933
1 3934
1 3935
1 3936
1 3937
1 3938
1 3939
1 3940
1 3941
1 3942
1 3943
1 3944
1 3945
1 3946
1 3947
1 3948
1 3949
1 3950
1 3951
1 3952
1 3953
1 3954
1 3955
1 3956
1 3957
1 3958
1 3959
1 3960
1 3961
1 3962
1 3963
1 3964
1 3965
1 3966
1 3967
1 3968
1 3969
1 3970
1 3971
1 3972
1 3973
1 3974
1 3975
1 3976
1 3977
1 3978
1 3979
1 3980
1 3981
1 3982
1 3983
1 3984
1 3985
1 3986
1 3987
1 3988
1 3989
1 3990
1 3991
1 3992
1 3993
1 3994
1 3995
1 3996
1 3997
1 3998
1 3999
1 4000
1 4001
1 4002
1 4003
1 4004
1 4005
1 4006
1 4007
1 4008
1 4009
1 4010
1 4011
1 4012
1 4013
1 4014
1 4015
1 4016
1 4017
1 4018
1 4019
1 4020
1 4021
1 4022
1 4023
1 4024
1 4025
1 4026
1 4027
1 4028
1 4029
1 4030
1 4031
1 4032
1 4033
1 4034
1 4035
1 4036
1 4037
1 4038
1 4039
1 4040
1 4041
1 4042
1 4043
1 4044
1 4045
1 4046
1 4047
1 4048
1 4049
1 4050
1 4051
1 4052
1 4053
1 4054
1 4055
1 4056
1 4057
1 4058
1 4059
1 4060
1 4061
1 4062
1 4063
1 4064
1 4065
1 4066
1 4067
1 4068
1 4069
1 4070
1 4071
1 4072
1 4073
1 4074
1 4075
1 4076
1 4077
1 4078
1 4079
1 4080
1 4081
1 4082
1 4083
1 4084
1 4085
1 4086
1 4087
1 4088
1 4089
1 4090
1 4091
1 4092
1 4093
1 4094
1 4095
1 4096
1 4097
1 4098
1 4099
1 4100
1 4101
1 4102
1 4103
1 4104
1 4105
1 4106
1 4107
1 4108
1 4109
1 4110
1 4111
1 4112
1 4113
1 4114
1 4115
1 4116
1 4117
1 4118
1 4119
1 4120
1 4121
1 4122
1 4123
1 4124
1 4125
1 4126
1 4127
1 4128
1 4129
1 4130
1 4131
1 4132
1 4133
1 4134
1 4135
1 4136
1 4137
1 4138
1 4139
1 4140
1 4141
1 4142
1 4143
1 4144
1 4145
1 4146
1 4147
1 4148
1 4149
1 4150
1 4151
1 4152
1 4153
1 4154
1 4155
1 4156
1 4157
1 4158
1 4159
1 4160
1 4161
1 4162
1 4163
1 4164
1 4165
1 4166
1 4167
1 4168
1 4169
1 4170
1 4171
1 4172
1 4173
1 4174
1 4175
1 4176
1 4177
1 4178
1 4179
1 4180
1 4181
1 4182
1 4183
1 4184
1 4185
1 4186
1 4187
1 4188
1 4189
1 4190
1 4191
1 4192
1 4193
1 4194
1 4195
1 4196
1 4197
1 4198
1 4199
1 4200
1 4201
1 4202
1 4203
1 4204
1 4205
1 4206
1 4207
1 4208
1 4209
1 4210
1 4211
1 4212
1 4213
1 4214
1 4215
1 4216
1 4217
1 4218
1 4219
1 4220
1 4221
1 4222
1 4223
1 4224
1 4225
1 4226
1 4227
1 4228
1 4229
1 4230
1 4231
1 4232
1 4233
1 4234
1 4235
1 4236
1 4237
1 4238
1 4239
1 4240
1 4241
1 4242
1 4243
1 4244
1 4245
1 4246
1 4247
1 4248
1 4249
1 4250
1 4251
1 4252
1 4253
1 4254
1 4255
1 4256
1 4257
1 4258
1 4259
1 4260
1 4261
1 4262
1 4263
1 4264
1 4265
1 4266
1 4267
1 4268
1 4269
1 4270
1 4271
1 4272
1 4273
1 4274
1 4275
1 4276
1 4277
1 4278
1 4279
1 4280
1 4281
1 4282
1 4283
1 4284
1 4285
1 4286
1 4287
1 4288
1 4289
1 4290
1 4291
1 4292
1 4293
1 4294
1 4295
1 4296
1 4297
1 4298
1 4299
1 4300
1 4301
1 4302
1 4303
1 4304
1 4305
1 4306
1 4307
1 4308
1 4309
1 4310
1 4311
1 4312
1 4313
1 4314
1 4315
1 4316
1 4317
1 4318
1 4319
1 4320
1 4321
1 4322
1 4323
1 4324
1 4325
1 4326
1 4327
1 4328
1 4329
1 4330
1 4331
1 4332
1 4333
1 4334
1 4335
1 4336
1 4337
1 4338
1 4339
1 4340
1 4341
1 4342
1 4343
1 4344
1 4345
1 4346
1 4347
1 4348
1 4349
1 4350
1 4351
1 4352
1 4353
1 4354
1 4355
1 4356
1 4357
1 4358
1 4359
1 4360
1 4361
1 4362
1 4363
1 4364
1 4365
1 4366
1 4367
1 4368
1 4369
1 4370
1 4371
1 4372
1 4373
1 4374
1 4375
1 4376
1 4377
1 4378
1 4379
1 4380
1 4381
1 4382
1 4383
1 4384
1 4385
1 4386
1 4387
1 4388
1 4389
1 4390
1 4391
1 4392
1 4393
1 4394
1 4395
1 4396
1 4397
1 4398
1 4399
1 4400
1 4401
1 4402
1 4403
1 4404
1 4405
1 4406
1 4407
1 4408
1 4409
1 4410
1 4411
1 4412
1 4413
1 4414
1 4415
1 4416
1 4417
1 4418
1 4419
1 4420
1 4421
1 4422
1 4423
1 4424
1 4425
1 4426
1 4427
1 4428
1 4429
1 4430
1 4431
1 4432
1 4433
1 4434
1 4435
1 4436
1 4437
1 4438
1 4439
1 4440
1 4441
1 4442
1 4443
1 4444
1 4445
1 4446
1 4447
1 4448
1 4449
1 4450
1 4451
1 4452
1 4453
1 4454
1 4455
1 4456
1 4457
1 4458
1 4459
1 4460
1 4461
1 4462
1 4463
1 4464
1 4465
1 4466
1 4467
1 4468
1 4469
1 4470
1 4471
1 4472
1 4473
1 4474
1 4475
1 4476
1 4477
1 4478
1 4479
1 4480
1 4481
1 4482
1 4483
1 4484
1 4485
1 4486
1 4487
1 4488
1 4489
1 4490
1 4491
1 4492
1 4493
1 4494
1 4495
1 4496
1 4497
1 4498
1 4499
1 4500
1 4501
1 4502
1 4503
1 4504
1 4505
1 4506
1 4507
1 4508
1 4509
1 4510
1 4511
1 4512
1 4513
1 4514
1 4515
1 4516
1 4517
1 4518
1 4519
1 4520
1 4521
1 4522
1 4523
1 4524
1 4525
1 4526
1 4527
1 4528
1 4529
1 4530
1 4531
1 4532
1 4533
1 4534
1 4535
1 4536
1 4537
1 4538
1 4539
1 4540
1 4541
1 4542
1 4543
1 4544
1 4545
1 4546
1 4547
1 4548
1 4549
1 4550
1 4551
1 4552
1 4553
1 4554
1 4555
1 4556
1 4557
1 4558
1 4559
1 4560
1 4561
1 4562
1 4563
1 4564
1 4565
1 4566
1 4567
1 4568
1 4569
1 4570
1 4571
1 4572
1 4573
1 4574
1 4575
1 4576
1 4577
1 4578
1 4579
1 4580
1 4581
1 4582
1 4583
1 4584
1 4585
1 4586
1 4587
1 4588
1 4589
1 4590
1 4591
1 4592
1 4593
1 4594
1 4595
1 4596
1 4597
1 4598
1 4599
1 4600
1 4601
1 4602
1 4603
1 4604
1 4605
1 4606
1 4607
1 4608
1 4609
1 4610
1 4611
1 4612
1 4613
1 4614
1 4615
1 4616
1 4617
1 4618
1 4619
1 4620
1 4621
1 4622
1 4623
1 4624
1 4625
1 4626
1 4627
1 4628
1 4629
1 4630
1 4631
1 4632
1 4633
1 4634
1 4635
1 4636
1 4637
1 4638
1 4639
1 4640
1 4641
1 4642
1 4643
1 4644
1 4645
1 4646
1 4647
1 4648
1 4649
1 4650
1 4651
1 4652
1 4653
1 4654
1 4655
1 4656
1 4657
1 4658
1 4659
1 4660
1 4661
1 4662
1 4663
1 4664
1 4665
1 4666
1 4667
1 4668
1 4669
1 4670
1 4671
1 4672
1 4673
1 4674
1 4675
1 4676
1 4677
1 4678
1 4679
1 4680
1 4681
1 4682
1 4683
1 4684
1 4685
1 4686
1 4687
1 4688
1 4689
1 4690
1 4691
1 4692
1 4693
1 4694
1 4695
1 4696
1 4697
1 4698
1 4699
1 4700
1 4701
1 4702
1 4703
1 4704
1 4705
1 4706
1 4707
1 4708
1 4709
1 4710
1 4711
1 4712
1 4713
1 4714
1 4715
1 4716
1 4717
1 4718
1 4719
1 4720
1 4721
1 4722
1 4723
1 4724
1 4725
1 4726
1 4727
1 4728
1 4729
1 4730
1 4731
1 4732
1 4733
1 4734
1 4735
1 4736
1 4737
1 4738
1 4739
1 4740
1 4741
1 4742
1 4743
1 4744
1 4745
1 4746
1 4747
1 4748
1 4749
1 4750
1 4751
1 4752
1 4753
1 4754
1 4755
1 4756
1 4757
1 4758
1 4759
1 4760
1 4761
1 4762
1 4763
1 4764
1 4765
1 4766
1 4767
1 4768
1 4769
1 4770
1 4771
1 4772
1 4773
1 4774
1 4775
1 4776
1 4777
1 4778
1 4779
1 4780
1 4781
1 4782
1 4783
1 4784
1 4785
1 4786
1 4787
1 4788
1 4789
1 4790
1 4791
1 4792
1 4793
1 4794
1 4795
1 4796
1 4797
1 4798
1 4799
1 4800
1 4801
1 4802
1 4803
1 4804
1 4805
1 4806
1 4807
1 4808
1 4809
1 4810
1 4811
1 4812
1 4813
1 4814
1 4815
1 4816
1 4817
1 4818
1 4819
1 4820
1 4821
1 4822
1 4823
1 4824
1 4825
1 4826
1 4827
1 4828
1 4829
1 4830
1 4831
1 4832
1 4833
1 4834
1 4835
1 4836
1 4837
1 4838
1 4839
1 4840
1 4841
1 4842
1 4843
1 4844
1 4845
1 4846
1 4847
1 4848
1 4849
1 4850
1 4851
1 4852
1 4853
1 4854
1 4855
1 4856
1 4857
1 4858
1 4859
1 4860
1 4861
1 4862
1 4863
1 4864
1 4865
1 4866
1 4867
1 4868
1 4869
1 4870
1 4871
1 4872
1 4873
1 4874
1 4875
1 4876
1 4877
1 4878
1 4879
1 4880
1 4881
1 4882
1 4883
1 4884
1 4885
1 4886
1 4887
1 4888
1 4889
1 4890
1 4891
1 4892
1 4893
1 4894
1 4895
1 4896
1 4897
1 4898
1 4899
1 4900
1 4901
1 4902
1 4903
1 4904
1 4905
1 4906
1 4907
1 4908
1 4909
1 4910
1 4911
1 4912
1 4913
1 4914
1 4915
1 4916
1 4917
1 4918
1 4919
1 4920
1 4921
1 4922
1 4923
1 4924
1 4925
1 4926
1 4927
1 4928
1 4929
1 4930
1 4931
1 4932
1 4933
1 4934
1 4935
1 4936
1 4937
1 4938
1 4939
1 4940
1 4941
1 4942
1 4943
1 4944
1 4945
1 4946
1 4947
1 4948
1 4949
1 4950
1 4951
1 4952
1 4953
1 4954
1 4955
1 4956
1 4957
1 4958
1 4959
1 4960
1 4961
1 4962
1 4963
1 4964
1 4965
1 4966
1 4967
1 4968
1 4969
1 4970
1 4971
1 4972
1 4973
1 4974
1 4975
1 4976
1 4977
1 4978
1 4979
1 4980
1 4981
1 4982
1 4983
1 4984
1 4985
1 4986
1 4987
1 4988
1 4989
1 4990
1 4991
1 4992
1 4993
1 4994
1 4995
1 4996
1 4997
1 4998
1 4999
CELL_TYPES 5000
1 
1 
1 
1 
1 
1 
1 
1 
1 
1 
1 
1 
1 
1 
1 
1 
1 
1 
1 
1 
1 
1 
1 
1 
1 
1 
1 
1 
1 
1 
1 
1 
1 
1 
1 
1 
1 
1 
1 
1 
1 
1 
1 
1 
1 
1 
1 
1 
1 
1 
1 
1 
1 
1 
1 
1 
1 
1 
1 
1 
1 
1 
1 
1 
1 
1 
1 
1 
1 
1 
1 
1 
1 
1 
1 
1 
1 
1 
1 
1 
1 
1 
1 
1 
1 
1 
1 
1 
1 
1 
1 
1 
1 
1 
1 
1 
1 
1 
1 
1 
1 
1 
1 
1 
1 
1 
1 
1 
1 
1 
1 
1 
1 
1 
1 
1 
1 
1 
1 
1 
1 
1 
1 
1 
1 
1 
1 
1 
1 
1 
1 
1 
1 
1 
1 
1 
1 
1 
1 
1 
1 
1 
1 
1 
1 
1 
1 
1 
1 
1 
1 
1 
1 
1 
1 
1 
1 
1 
1 
1 
1 
1 
1 
1 
1 
1 
1 
1 
1 
1 
1 
1 
1 
1 
1 
1 
1 
1 
1 
1 
1 
1 
1 
1 
1 
1 
1 
1 
1 
1 
1 
1 
1 
1 
1 
1 
1 
1 
1 
1 
1 
1 
1 
1 
1 
1 
1 
1 
1 
1 
1 
1 
1 
1 
1 
1 
1 
1 
1 
1 
1 
1 
1 
1 
1 
1 
1 
1 
1 
1 
1 
1 
1 
1 
1 
1 
1 
1 
1 
1 
1 
1 
1 
1 
1 
1 
1 
1 
1 
1 
1 
1 
1 
1 
1 
1 
1 
1 
1 
1 
1 
1 
1 
1 
1 
1 
1 
1 
1 
1 
1 
1 
1 
1 
1 
1 
1 
1 
1 
1 
1 
1 
1 
1 
1 
1 
1 
1 
1 
1 
1 
1 
1 
1 
1 
1 
1 
1 
1 
1 
1 
1 
1 
1 
1 
1 
1 
1 
1 
1 
1 
1 
1 
1 
1 
1 
1 
1 
1 
1 
1 
1 
1 
1 
1 
1 
1 
1 
1 
1 
1 
1 
1 
1 
1 
1 
1 
1 
1 
1 
1 
1 
1 
1 
1 
1 
1 
1 
1 
1 
1 
1 
1 
1 
1 
1 
1 
1 
1 
1 
1 
1 
1 
1 
1 
1 
1 
1 
1 
1 
1 
1 
1 
1 
1 
1 
1 
1 
1 
1 
1 
1 
1 
1 
1 
1 
1 
1 
1 
1 
1 
1 
1 
1 
1 
1 
1 
1 
1 
1 
1 
1 
1 
1 
1 
1 
1 
1 
1 
1 
1 
1 
1 
1 
1 
1 
1 
1 
1 
1 
1 
1 
1 
1 
1 
1 
1 
1 
1 
1 
1 
1 
1 
1 
1 
1 
1 
1 
1 
1 
1 
1 
1 
1 
1 
1 
1 
1 
1 
1 
1 
1 
1 
1 
1 
1 
1 
1 
1 
1 
1 
1 
1 
1 
1 
1 
1 
1 
1 
1 
1 
1 
1 
1 
1 
1 
1 
1 
1 
1 
1 
1 
1 
1 
1 
1 
1 
1 
1 
1 
1 
1 
1 
1 
1 
1 
1 
1 
1 
1 
1 
1 
1 
1 
1 
1 
1 
1 
1 
1 
1 
1 
1 
1 
1 
1 
1 
1 
1 
1 
1 
1 
1 
1 
1 
1 
1 
1 
1 
1 
1 
1 
1 
1 
1 
1 
1 
1 
1 
1 
1 
1 
1 
1 
1 
1 
1 
1 
1 
1 
1 
1 
1 
1 
1 
1 
1 
1 
1 
1 
1 
1 
1 
1 
1 
1 
1 
1 
1 
1 
1 
1 
1 
1 
1 
1 
1 
1 
1 
1 
1 
1 
1 
1 
1 
1 
1 
1 
1 
1 
1 
1 
1 
1 
1 
1 
1 
1 
1 
1 
1 
1 
1 
1 
1 
1 
1 
1 
1 
1 
1 
1 
1 
1 
1 
1 
1 
1 
1 
1 
1 
1 
1 
1 
1 
1 
1 
1 
1 
1 
1 
1 
1 
1 
1 
1 
1 
1 
1 
1 
1 
1 
1 
1 
1 
1 
1 
1 
1 
1 
1 
1 
1 
1 
1 
1 
1 
1 
1 
1 
1 
1 
1 
1 
1 
1 
1 
1 
1 
1 
1 
1 
1 
1 
1 
1 
1 
1 
1 
1 
1 
1 
1 
1 
1 
1 
1 
1 
1 
1 
1 
1 
1 
1 
1 
1 
1 
1 
1 
1 
1 
1 
1 
1 
1 
1 
1 
1 
1 
1 
1 
1 
1 
1 
1 
1 
1 
1 
1 
1 
1 
1 
1 
1 
1 
1 
1 
1 
1 
1 
1 
1 
1 
1 
1 
1 
1 
1 
1 
1 
1 
1 
1 
1 
1 
1 
1 
1 
1 
1 
1 
1 
1 
1 
1 
1 
1 
1 
1 
1 
1 
1 
1 
1 
1 
1 
1 
1 
1 
1 
1 
1 
1 
1 
1 
1 
1 
1 
1 
1 
1 
1 
1 
1 
1 
1 
1 
1 
1 
1 
1 
1 
1 
1 
1 
1 
1 
1 
1 
1 
1 
1 
1 
1 
1 
1 
1 
1 
1 
1 
1 
1 
1 
1 
1 
1 
1 
1 
1 
1 
1 
1 
1 
1 
1 
1 
1 
1 
1 
1 
1 
1 
1 
1 
1 
1 
1 
1 
1 
1 
1 
1 
1 
1 
1 
1 
1 
1 
1 
1 
1 
1 
1 
1 
1 
1 
1 
1 
1 
1 
1 
1 
1 
1 
1 
1 
1 
1 
1 
1 
1 
1 
1 
1 
1 
1 
1 
1 
1 
1 
1 
1 
1 
1 
1 
1 
1 
1 
1 
1 
1 
1 
1 
1 
1 
1 
1 
1 
1 
1 
1 
1 
1 
1 
1 
1 
1 
1 
1 
1 
1 
1 
1 
1 
1 
1 
1 
1 
1 
1 
1 
1 
1 
1 
1 
1 
1 
1 
1 
1 
1 
1 
1 
1 
1 
1 
1 
1 
1 
1 
1 
1 
1 
1 
1 
1 
1 
1 
1 
1 
1 
1 
1 
1 
1 
1 
1 
1 
1 
1 
1 
1 
1 
1 
1 
1 
1 
1 
1 
1 
1 
1 
1 
1 
1 
1 
1 
1 
1 
1 
1 
1 
1 
1 
1 
1 
1 
1 
1 
1 
1 
1 
1 
1 
1 
1 
1 
1 
1 
1 
1 
1 
1 
1 
1 
1 
1 
1 
1 
1 
1 
1 
1 
1 
1 
1 
1 
1 
1 
1 
1 
1 
1 
1 
1 
1 
1 
1 
1 
1 
1 
1 
1 
1 
1 
1 
1 
1 
1 
1 
1 
1 
1 
1 
1 
1 
1 
1 
1 
1 
1 
1 
1 
1 
1 
1 
1 
1 
1 
1 
1 
1 
1 
1 
1 
1 
1 
1 
1 
1 
1 
1 
1 
1 
1 
1 
1 
1 
1 
1 
1 
1 
1 
1 
1 
1 
1 
1 
1 
1 
1 
1 
1 
1 
1 
1 
1 
1 
1 
1 
1 
1 
1 
1 
1 
1 
1 
1 
1 
1 
1 
1 
1 
1 
1 
1 
1 
1 
1 
1 
1 
1 
1 
1 
1 
1 
1 
1 
1 
1 
1 
1 
1 
1 
1 
1 
1 
1 
1 
1 
1 
1 
1 
1 
1 
1 
1 
1 
1 
1 
1 
1 
1 
1 
1 
1 
1 
1 
1 
1 
1 
1 
1 
1 
1 
1 
1 
1 
1 
1 
1 
1 
1 
1 
1 
1 
1 
1 
1 
1 
1 
1 
1 
1 
1 
1 
1 
1 
1 
1 
1 
1 
1 
1 
1 
1 
1 
1 
1 
1 
1 
1 
1 
1 
1 
1 
1 
1 
1 
1 
1 
1 
1 
1 
1 
1 
1 
1 
1 
1 
1 
1 
1 
1 
1 
1 
1 
1 
1 
1 
1 
1 
1 
1 
1 
1 
1 
1 
1 
1 
1 
1 
1 
1 
1 
1 
1 
1 
1 
1 
1 
1 
1 
1 
1 
1 
1 
1 
1 
1 
1 
1 
1 
1 
1 
1 
1 
1 
1 
1 
1 
1 
1 
1 
1 
1 
1 
1 
1 
1 
1 
1 
1 
1 
1 
1 
1 
1 
1 
1 
1 
1 
1 
1 
1 
1 
1 
1 
1 
1 
1 
1 
1 
1 
1 
1 
1 
1 
1 
1 
1 
1 
1 
1 
1 
1 
1 
1 
1 
1 
1 
1 
1 
1 
1 
1 
1 
1 
1 
1 
1 
1 
1 
1 
1 
1 
1 
1 
1 
1 
1 
1 
1 
1 
1 
1 
1 
1 
1 
1 
1 
1 
1 
1 
1 
1 
1 
1 
1 
1 
1 
1 
1 
1 
1 
1 
1 
1 
1 
1 
1 
1 
1 
1 
1 
1 
1 
1 
1 
1 
1 
1 
1 
1 
1 
1 
1 
1 
1 
1 
1 
1 
1 
1 
1 
1 
1 
1 
1 
1 
1 
1 
1 
1 
1 
1 
1 
1 
1 
1 
1 
1 
1 
1 
1 
1 
1 
1 
1 
1 
1 
1 
1 
1 
1 
1 
1 
1 
1 
1 
1 
1 
1 
1 
1 
1 
1 
1 
1 
1 
1 
1 
1 
1 
1 
1 
1 
1 
1 
1 
1 
1 
1 
1 
1 
1 
1 
1 
1 
1 
1 
1 
1 
1 
1 
1 
1 
1 
1 
1 
1 
1 
1 
1 
1 
1 
1 
1 
1 
1 
1 
1 
1 
1 
1 
1 
1 
1 
1 
1 
1 
1 
1 
1 
1 
1 
1 
1 
1 
1 
1 
1 
1 
1 
1 
1 
1 
1 
1 
1 
1 
1 
1 
1 
1 
1 
1 
1 
1 
1 
1 
1 
1 
1 
1 
1 
1 
1 
1 
1 
1 
1 
1 
1 
1 
1 
1 
1 
1 
1 
1 
1 
1 
1 
1 
1 
1 
1 
1 
1 
1 
1 
1 
1 
1 
1 
1 
1 
1 
1 
1 
1 
1 
1 
1 
1 
1 
1 
1 
1 
1 
1 
1 
1 
1 
1 
1 
1 
1 
1 
1 
1 
1 
1 
1 
1 
1 
1 
1 
1 
1 
1 
1 
1 
1 
1 
1 
1 
1 
1 
1 
1 
1 
1 
1 
1 
1 
1 
1 
1 
1 
1 
1 
1 
1 
1 
1 
1 
1 
1 
1 
1 
1 
1 
1 
1 
1 
1 
1 
1 
1 
1 
1 
1 
1 
1 
1 
1 
1 
1 
1 
1 
1 
1 
1 
1 
1 
1 
1 
1 
1 
1 
1 
1 
1 
1 
1 
1 
1 
1 
1 
1 
1 
1 
1 
1 
1 
1 
1 
1 
1 
1 
1 
1 
1 
1 
1 
1 
1 
1 
1 
1 
1 
1 
1 
1 
1 
1 
1 
1 
1 
1 
1 
1 
1 
1 
1 
1 
1 
1 
1 
1 
1 
1 
1 
1 
1 
1 
1 
1 
1 
1 
1 
1 
1 
1 
1 
1 
1 
1 
1 
1 
1 
1 
1 
1 
1 
1 
1 
1 
1 
1 
1 
1 
1 
1 
1 
1 
1 
1 
1 
1 
1 
1 
1 
1 
1 
1 
1 
1 
1 
1 
1 
1 
1 
1 
1 
1 
1 
1 
1 
1 
1 
1 
1 
1 
1 
1 
1 
1 
1 
1 
1 
1 
1 
1 
1 
1 
1 
1 
1 
1 
1 
1 
1 
1 
1 
1 
1 
1 
1 
1 
1 
1 
1 
1 
1 
1 
1 
1 
1 
1 
1 
1 
1 
1 
1 
1 
1 
1 
1 
1 
1 
1 
1 
1 
1 
1 
1 
1 
1 
1 
1 
1 
1 
1 
1 
1 
1 
1 
1 
1 
1 
1 
1 
1 
1 
1 
1 
1 
1 
1 
1 
1 
1 
1 
1 
1 
1 
1 
1 
1 
1 
1 
1 
1 
1 
1 
1 
1 
1 
1 
1 
1 
1 
1 
1 
1 
1 
1 
1 
1 
1 
1 
1 
1 
1 
1 
1 
1 
1 
1 
1 
1 
1 
1 
1 
1 
1 
1 
1 
1 
1 
1 
1 
1 
1 
1 
1 
1 
1 
1 
1 
1 
1 
1 
1 
1 
1 
1 
1 
1 
1 
1 
1 
1 
1 
1 
1 
1 
1 
1 
1 
1 
1 
1 
1 
1 
1 
1 
1 
1 
1 
1 
1 
1 
1 
1 
1 
1 
1 
1 
1 
1 
1 
1 
1 
1 
1 
1 
1 
1 
1 
1 
1 
1 
1 
1 
1 
1 
1 
1 
1 
1 
1 
1 
1 
1 
1 
1 
1 
1 
1 
1 
1 
1 
1 
1 
1 
1 
1 
1 
1 
1 
1 
1 
1 
1 
1 
1 
1 
1 
1 
1 
1 
1 
1 
1 
1 
1 
1 
1 
1 
1 
1 
1 
1 
1 
1 
1 
1 
1 
1 
1 
1 
1 
1 
1 
1 
1 
1 
1 
1 
1 
1 
1 
1 
1 
1 
1 
1 
1 
1 
1 
1 
1 
1 
1 
1 
1 
1 
1 
1 
1 
1 
1 
1 
1 
1 
1 
1 
1 
1 
1 
1 
1 
1 
1 
1 
1 
1 
1 
1 
1 
1 
1 
1 
1 
1 
1 
1 
1 
1 
1 
1 
1 
1 
1 
1 
1 
1 
1 
1 
1 
1 
1 
1 
1 
1 
1 
1 
1 
1 
1 
1 
1 
1 
1 
1 
1 
1 
1 
1 
1 
1 
1 
1 
1 
1 
1 
1 
1 
1 
1 
1 
1 
1 
1 
1 
1 
1 
1 
1 
1 
1 
1 
1 
1 
1 
1 
1 
1 
1 
1 
1 
1 
1 
1 
1 
1 
1 
1 
1 
1 
1 
1 
1 
1 
1 
1 
1 
1 
1 
1 
1 
1 
1 
1 
1 
1 
1 
1 
1 
1 
1 
1 
1 
1 
1 
1 
1 
1 
1 
1 
1 
1 
1 
1 
1 
1 
1 
1 
1 
1 
1 
1 
1 
1 
1 
1 
1 
1 
1 
1 
1 
1 
1 
1 
1 
1 
1 
1 
1 
1 
1 
1 
1 
1 
1 
1 
1 
1 
1 
1 
1 
1 
1 
1 
1 
1 
1 
1 
1 
1 
1 
1 
1 
1 
1 
1 
1 
1 
1 
1 
1 
1 
1 
1 
1 
1 
1 
1 
1 
1 
1 
1 
1 
1 
1 
1 
1 
1 
1 
1 
1 
1 
1 
1 
1 
1 
1 
1 
1 
1 
1 
1 
1 
1 
1 
1 
1 
1 
1 
1 
1 
1 
1 
1 
1 
1 
1 
1 
1 
1 
1 
1 
1 
1 
1 
1 
1 
1 
1 
1 
1 
1 
1 
1 
1 
1 
1 
1 
1 
1 
1 
1 
1 
1 
1 
1 
1 
1 
1 
1 
1 
1 
1 
1 
1 
1 
1 
1 
1 
1 
1 
1 
1 
1 
1 
1 
1 
1 
1 
1 
1 
1 
1 
1 
1 
1 
1 
1 
1 
1 
1 
1 
1 
1 
1 
1 
1 
1 
1 
1 
1 
1 
1 
1 
1 
1 
1 
1 
1 
1 
1 
1 
1 
1 
1 
1 
1 
1 
1 
1 
1 
1 
1 
1 
1 
1 
1 
1 
1 
1 
1 
1 
1 
1 
1 
1 
1 
1 
1 
1 
1 
1 
1 
1 
1 
1 
1 
1 
1 
1 
1 
1 
1 
1 
1 
1 
1 
1 
1 
1 
1 
1 
1 
1 
1 
1 
1 
1 
1 
1 
1 
1 
1 
1 
1 
1 
1 
1 
1 
1 
1 
1 
1 
1 
1 
1 
1 
1 
1 
1 
1 
1 
1 
1 
1 
1 
1 
1 
1 
1 
1 
1 
1 
1 
1 
1 
1 
1 
1 
1 
1 
1 
1 
1 
1 
1 
1 
1 
1 
1 
1 
1 
1 
1 
1 
1 
1 
1 
1 
1 
1 
1 
1 
1 
1 
1 
1 
1 
1 
1 
1 
1 
1 
1 
1 
1 
1 
1 
1 
1 
1 
1 
1 
1 
1 
1 
1 
1 
1 
1 
1 
1 
1 
1 
1 
1 
1 
1 
1 
1 
1 
1 
1 
1 
1 
1 
1 
1 
1 
1 
1 
1 
1 
1 
1 
1 
1 
1 
1 
1 
1 
1 
1 
1 
1 
1 
1 
1 
1 
1 
1 
1 
1 
1 
1 
1 
1 
1 
1 
1 
1 
1 
1 
1 
1 
1 
1 
1 
1 
1 
1 
1 
1 
1 
1 
1 
1 
1 
1 
1 
1 
1 
1 
1 
1 
1 
1 
1 
1 
1 
1 
1 
1 
1 
1 
1 
1 
1 
1 
1 
1 
1 
1 
1 
1 
1 
1 
1 
1 
1 
1 
1 
1 
1 
1 
1 
1 
1 
1 
1 
1 
1 
1 
1 
1 
1 
1 
1 
1 
1 
1 
1 
1 
1 
1 
1 
1 
1 
1 
1 
1 
1 
1 
1 
1 
1 
1 
1 
1 
1 
1 
1 
1 
1 
1 
1 
1 
1 
1 
1 
1 
1 
1 
1 
1 
1 
1 
1 
1 
1 
1 
1 
1 
1 
1 
1 
1 
1 
1 
1 
1 
1 
1 
1 
1 
1 
1 
1 
1 
1 
1 
1 
1 
1 
1 
1 
1 
1 
1 
1 
1 
1 
1 
1 
1 
1 
1 
1 
1 
1 
1 
1 
1 
1 
1 
1 
1 
1 
1 
1 
1 
1 
1 
1 
1 
1 
1 
1 
1 
1 
1 
1 
1 
1 
1 
1 
1 
1 
1 
1 
1 
1 
1 
1 
1 
1 
1 
1 
1 
1 
1 
1 
1 
1 
1 
1 
1 
1 
1 
1 
1 
1 
1 
1 
1 
1 
1 
1 
1 
1 
1 
1 
1 
1 
1 
1 
1 
1 
1 
1 
1 
1 
1 
1 
1 
1 
1 
1 
1 
1 
1 
1 
1 
1 
1 
1 
1 
1 
1 
1 
1 
1 
1 
1 
1 
1 
1 
1 
1 
1 
1 
1 
1 
1 
1 
1 
1 
1 
1 
1 
1 
1 
1 
1 
1 
1 
1 
1 
1 
1 
1 
1 
1 
1 
1 
1 
1 
1 
1 
1 
1 
1 
1 
1 
1 
1 
1 
1 
1 
1 
1 
1 
1 
1 
1 
1 
1 
1 
1 
1 
1 
1 
1 
1 
1 
1 
1 
1 
1 
1 
1 
1 
1 
1 
1 
1 
1 
1 
1 
1 
1 
1 
1 
1 
1 
1 
1 
1 
1 
1 
1 
1 
1 
1 
1 
1 
1 
1 
1 
1 
1 
1 
1 
1 
1 
1 
1 
1 
1 
1 
1 
1 
1 
1 
1 
1 
1 
1 
1 
1 
1 
1 
1 
1 
1 
1 
1 
1 
1 
1 
1 
1 
1 
1 
1 
1 
1 
1 
1 
1 
1 
1 
1 
1 
1 
1 
1 
1 
1 
1 
1 
1 
1 
1 
1 
1 
1 
1 
1 
1 
1 
1 
1 
1 
1 
1 
1 
1 
1 
1 
1 
1 
1 
1 
1 
1 
1 
1 
1 
1 
1 
1 
1 
1 
1 
1 
1 
1 
1 
1 
1 
1 
1 
1 
1 
1 
1 
1 
1 
1 
1 
1 
1 
1 
1 
1 
1 
1 
1 
1 
1 
1 
1 
1 
1 
1 
1 
1 
1 
1 
1 
1 
1 
1 
1 
1 
1 
1 
1 
1 
1 
1 
1 
1 
1 
1 
1 
1 
1 
1 
1 
1 
1 
1 
1 
1 
1 
1 
1 
1 
1 
1 
1 
1 
1 
1 
1 
1 
1 
1 
1 
1 
1 
1 
1 
1 
1 
1 
1 
1 
1 
1 
1 
1 
1 
1 
1 
1 
1 
1 
1 
1 
1 
1 
1 
1 
1 
1 
1 
1 
1 
1 
1 
1 
1 
1 
1 
1 
1 
1 
1 
1 
1 
1 
1 
1 
1 
1 
1 
1 
1 
1 
1 
1 
1 
1 
1 
1 
1 
1 
1 
1 
1 
1 
1 
1 
1 
1 
1 
1 
1 
1 
1 
1 
1 
1 
1 
1 
1 
1 
1 
1 
1 
1 
1 
1 
1 
1 
1 
1 
1 
1 
1 
1 
1 
1 
1 
1 
1 
1 
1 
1 
1 
1 
1 
1 
1 
1 
1 
1 
1 
1 
1 
1 
1 
1 
1 
1 
1 
1 
1 
1 
1 
1 
1 
1 
1 
1 
1 
1 
1 
1 
1 
1 
1 
1 
1 
1 
1 
1 
1 
1 
1 
1 
1 
1 
1 
1 
1 
1 
1 
1 
1 
1 
1 
1 
1 
1 
1 
1 
1 
1 
1 
1 
1 
1 
1 
1 
1 
1 
1 
1 
1 
1 
1 
1 
1 
1 
1 
1 
1 
1 
1 
1 
1 
1 
1 
1 
1 
1 
1 
1 
1 
1 
1 
1 
1 
1 
1 
1 
1 
1 
1 
1 
1 
1 
1 
1 
1 
1 
1 
1 
1 
1 
1 
1 
1 
1 
1 
1 
1 
1 
1 
1 
1 
1 
1 
1 
1 
1 
1 
1 
1 
1 
1 
1 
1 
1 
1 
1 
1 
1 
1 
1 
1 
1 
1 
1 
1 
1 
1 
1 
1 
1 
1 
1 
1 
1 
1 
1 
1 
1 
1 
1 
1 
1 
1 
1 
1 
1 
1 
1 
1 
1 
1 
1 
1 
1 
1 
1 
1 
1 
1 
1 
1 
1 
1 
1 
1 
1 
1 
1 
1 
1 
1 
1 
1 
1 
1 
1 
1 
1 
1 
1 
1 
1 
1 
1 
1 
1 
1 
1 
1 
1 
1 
1 
1 
1 
1 
1 
1 
1 
1 
1 
1 
1 
1 
1 
1 
1 
1 
1 
1 
1 
1 
1 
1 
1 
1 
1 
1 
1 
1 
1 
1 
1 
1 
1 
1 
1 
1 
1 
1 
1 
1 
1 
1 
1 
1 
1 
1 
1 
1 
1 
1 
1 
1 
1 
1 
1 
1 
1 
1 
1 
1 
1 
1 
1 
1 
1 
1 
1 
1 
1 
1 
1 
1 
1 
1 
1 
1 
1 
1 
1 
1 
1 
1 
1 
1 
1 
1 
1 
1 
1 
1 
1 
1 
1 
1 
1 
1 
1 
1 
1 
1 
1 
1 
1 
1 
1 
1 
1 
1 
1 
1 
1 
1 
1 
1 
1 
1 
1 
1 
1 
1 
1 
1 
1 
1 
1 
1 
1 
1 
1 
1 
1 
1 
1 
1 
1 
1 
1 
1 
1 
1 
1 
1 
1 
1 
1 
1 
1 
1 
1 
1 
1 
1 
1 
1 
1 
1 
1 
1 
1 
1 
1 
1 
1 
1 
1 
1 
1 
1 
1 
1 
1 
1 
1 
1 
1 
1 
1 
1 
1 
1 
1 
1 
1 
1 
1 
1 
1 
1 
1 
1 
1 
1 
1 
1 
1 
1 
1 
1 
1 
1 
1 
1 
1 
1 
1 
1 
1 
1 
1 
1 
1 
1 
1 
1 
1 
1 
1 
1 
1 
1 
1 
1 
1 
1 
1 
1 
1 
1 
1 
1 
1 
1 
1 
1 
1 
1 
1 
1 
1 
1 
1 
1 
1 
1 
1 
1 
1 
1 
1 
1 
1 
1 
1 
1 
1 
1 
1 
1 
1 
1 
1 
1 
1 
1 
1 
1 
1 
1 
1 
1 
1 
1 
1 
1 
1 
1 
1 
1 
1 
1 
1 
1 
1 
1 
1 
1 
1 
1 
1 
1 
1 
1 
1 
1 
1 
1 
1 
1 
1 
1 
1 
1 
1 
1 
1 
1 
1 
1 
1 
1 
1 
1 
1 
1 
1 
1 
1 
1 
1 
1 
1 
1 
1 
1 
1 
1 
1 
1 
1 
1 
1 
1 
1 
1 
1 
1 
1 
1 
1 
1 
1 
1 
1 
1 
1 
1 
1 
1 
1 
1 
1 
1 
1 
1 
1 
1 
1 
1 
1 
1 
1 
1 
1 
1 
1 
1 
1 
1 
1 
1 
1 
1 
1 
1 
1 
1 
1 
1 
1 
1 
1 
1 
1 
1 
1 
1 
1 
1 
1 
1 
1 
1 
1 
1 
1 
1 
1 
1 
1 
1 
1 
1 
1 
1 
1 
1 
1 
1 
1 
1 
1 
1 
1 
1 
1 
1 
1 
1 
1 
1 
1 
1 
1 
1 
1 
1 
1 
1 
1 
1 
1 
1 
1 
1 
1 
1 
1 
1 
1 
1 
1 
1 
1 
1 
1 
1 
1 
1 
1 
1 
1 
1 
1 
1 
1 
1 
1 
1 
1 
1 
1 
1 
1 
1 
1 
1 
1 
1 
1 
1 
1 
1 
1 
1 
1 
1 
1 
1 
1 
1 
1 
1 
1 
1 
1 
1 
1 
1 
1 
1 
1 
1 
1 
1 
1 
1 
1 
1 
1 
1 
1 
1 
1 
1 
1 
1 
1 
1 
1 
1 
1 
1 
1 
1 
1 
1 
1 
1 
1 
1 
1 
1 
1 
1 
1 
1 
1 
1 
1 
1 
1 
1 
1 
1 
1 
1 
1 
1 
1 
1 
1 
1 
1 
1 
1 
1 
1 
1 
1 
1 
1 
1 
1 
1 
1 
1 
1 
1 
1 
1 
1 
1 
1 
1 
1 
1 
1 
1 
1 
1 
1 
1 
1 
1 
1 
1 
1 
1 
1 
1 
1 
1 
1 
1 
1 
1 
1 
1 
1 
1 
1 
1 
1 
1 
1 
1 
1 
1 
1 
1 
1 
1 
1 
1 
1 
1 
1 
1 
1 
1 
1 
1 
1 
1 
1 
1 
1 
1 
1 
1 
1 
1 
1 
1 
1 
1 
1 
1 
1 
1 
1 
1 
1 
1 
1 
1 
1 
1 
1 
1 
1 
1 
1 
1 
1 
1 
1 
1 
1 
1 
1 
1 
1 
1 
1 
1 
1 
1 
1 
1 
1 
1 
1 
1 
1 
1 
1 
1 
1 
1 
1 
1 
1 
1 
1 
1 
1 
1 
1 
1 
1 
1 
1 
1 
1 
1 
1 
1 
1 
1 
1 
1 
1 
1 
1 
1 
1 
1 
1 
1 
1 
1 
1 
1 
1 
1 
1 
1 
1 
1 
1 
1 
1 
1 
1 
1 
1 
1 
1 
1 
1 
1 
1 
1 
1 
1 
1 
1 
1 
1 
1 
1 
1 
1 
1 
1 
1 
1 
1 
1 
1 
1 
1 
1 
1 
1 
1 
1 
1 
1 
1 
1 
1 
1 
1 
1 
1 
1 
1 
1 
1 
1 
1 
1 
1 
1 
1 
1 
1 
1 
1 
1 
1 
1 
1 
1 
1 
1 
1 
1 
1 
1 
1 
1 
1 
1 
1 
1 
1 
1 
1 
1 
1 
1 
1 
1 
1 
1 
1 
1 
1 
1 
1 
1 
1 
1 
1 
1 
1 
1 
1 
1 
1 
1 
1 
1 
1 
1 
1 
1 
1 
1 
1 
1 
1 
1 
1 
1 
1 
1 
1 
1 
1 
1 
1 
1 
1 
1 
1 
1 
1 
1 
1 
1 
1 
1 
1 
1 
1 
1 
1 
1 
1 
1 
1 
1 
1 
1 
1 
1 
1 
1 
1 
1 
1 
1 
1 
1 
1 
1 
1 
1 
1 
1 
1 
1 
1 
1 
1 
1 
1 
1 
1 
1 
1 
1 
1 
1 
1 
1 
1 
1 
1 
1 
1 
1 
1 
1 
1 
1 
1 
1 
1 
1 
1 
1 
1 
1 
1 
1 
1 
1 
1 
1 
1 
1 
1 
1 
1 
1 
1 
1 
1 
1 
1 
1 
1 
1 
1 
1 
1 
1 
1 
1 
1 
1 
1 
1 
1 
1 
1 
1 
1 
1 
1 
1 
1 
1 
1 
1 
1 
1 
1 
1 
1 
1 
1 
1 
1 
1 
1 
1 
1 
1 
1 
1 
1 
1 
1 
1 
1 
1 
1 
1 
1 
1 
1 
1 
1 
1 
1 
1 
1 
1 
1 
1 
1 
1 
1 
1 
1 
1 
1 
1 
1 
1 
1 
1 
1 
1 
1 
1 
1 
1 
1 
1 
1 
1 
1 
1 
1 
1 
1 
1 
1 
1 
1 
1 
1 
1 
1 
1 
1 
1 
1 
1 
1 
1 
1 
1 
1 
1 
1 
1 
1 
1 
1 
1 
1 
1 
1 
1 
1 
1 
1 
1 
1 
1 
1 
1 
1 
1 
1 
1 
1 
1 
1 
1 
1 
1 
1 
1 
1 
1 
1 
1 
1 
1 
1 
1 
1 
1 
1 
1 
1 
1 
1 
1 
1 
1 
1 
1 
1 
1 
1 
1 
1 
1 
1 
1 
1 
1 
1 
1 
1 
1 
1 
1 
1 
1 
1 
1 
1 
1 
1 
1 
1 
1 
1 
1 
1 
1 
1 
1 
1 
1 
1 
1 
1 
1 
1 
1 
1 
1 
1 
1 
1 
1 
1 
1 
1 
1 
1 
1 
1 
1 
1 
1 
1 
1 
1 
1 
1 
1 
1 
1 
1 
1 
1 
1 
1 
1 
1 
1 
1 
1 
1 
1 
1 
1 
1 
1 
1 
1 
1 
1 
1 
1 
1 
1 
1 
1 
1 
1 
1 
1 
1 
1 
1 
1 
1 
1 
1 
1 
1 
1 
1 
1 
1 
1 
1 
1 
1 
1 
1 
1 
1 
1 
1 
1 
1 
1 
1 
1 
1 
1 
1 
1 
1 
1 
1 
1 
1 
1 
1 
1 
1 
1 
1 
1 
1 
1 
1 
1 
1 
1 
1 
1 
1 
1 
1 
1 
1 
1 
1 
1 
1 
1 
1 
1 
1 
1 
1 
1 
1 
1 
1 
1 
1 
1 
1 
1 
1 
1 
1 
1 
1 
1 
1 
1 
1 
1 
1 
1 
1 
1 
1 
1 
1 
1 
1 
1 
1 
1 
1 
1 
1 
1 
1 
1 
1 
1 
1 
1 
1 
1 
1 
1 
1 
1 
1 
1 
1 
1 
1 
1 
1 
1 
1 
1 
1 
1 
1 
1 
1 
1 
1 
1 
1 
1 
1 
1 
1 
1 
1 
1 
1 
1 
1 
1 
1 
1 
1 
1 
1 
1 
1 
1 
1 
1 
1 
1 
1 
1 
1 
1 
1 
1 
1 
1 
1 
1 
1 
1 
1 
1 
1 
1 
1 
1 
1 
1 
1 
1 
1 
1 
1 
1 
1 
1 
1 
1 
1 
1 
1 
1 
1 
1 
1 
1 
1 
1 
1 
1 
1 
1 
1 
1 
1 
1 
1 
1 
1 
1 
1 
1 
1 
1 
1 
1 
1 
1 
1 
1 
1 
1 
1 
1 
1 
1 
1 
1 
1 
1 
1 
1 
1 
1 
1 
1 
1 
1 
1 
1 
1 
1 
1 
1 
1 
1 
1 
1 
1 
1 
1 
1 
1 
1 
1 
1 
1 
1 
1 
1 
1 
1 
1 
1 
1 
1 
1 
1 
1 
1 
1 
1 
1 
1 
1 
1 
1 
1 
1 
1 
1 
1 
1 
1 
1 
1 
1 
1 
1 
1 
1 
1 
1 
1 
1 
1 
1 
1 
1 
1 
1 
1 
1 
1 
1 
1 
1 
1 
1 
1 
1 
1 
1 
1 
1 
1 
1 
1 
1 
1 
1 
1 
1 
1 
1 
1 
1 
1 
1 
1 
1 
1 
1 
1 
1 
1 
1 
1 
1 
1 
1 
1 
1 
1 
1 
1 
1 
1 
1 
1 
1 
1 
1 
1 
1 
1 
1 
1 
1 
1 
1 
1 
1 
1 
1 
1 
1 
1 
1 
1 
1 
1 
1 
1 
1 
1 
1 
1 
1 
1 
1 
1 
1 
1 
1 
1 
1 
1 
1 
1 
1 
1 
1 
1 
1 
1 
1 
1 
1 
1 
1 
1 
1 
1 
1 
1 
1 
1 
1 
1 
1 
1 
1 
1 
1 
1 
1 
1 
1 
1 
1 
1 
1 
1 
1 
1 
1 
1 
1 
1 
1 
1 
1 
1 
1 
1 
1 
1 
1 
1 
1 
1 
1 
1 
1 
1 
1 
POINT_DATA 5000
VECTORS Stress float
534.036 -305.436 0.
-723.623 -999.487 0.
-802.01 -1182.94 0.
166.681 -884.666 0.
178.564 -857.158 0.
190.448 -829.65 0.
-93.94 -1051.47 0.
-233.94 -1378.14 0.
-373.939 -1704.8 0.
-122.867 -1591.34 0.
-41.9532 -1402.61 0.
38.9603 -1213.88 0.
-110.772 -1247.34 0.
-103.033 -1229.34 0.
-201.43 -1249.74 0.
-157.189 -1146.73 0.
-112.947 -1043.72 0.
-88.3047 -1058.33 0.
-220.119 -1366.31 0.
-351.933 -1674.29 0.
225.826 -1447.68 0.
315.89 -1237.65 0.
405.954 -1027.63 0.
-224.857 -1266.28 0.
-230.066 -1278.39 0.
-106.806 -1235.44 0.
-319.35 -1089.06 0.
-192.194 -792.161 0.
-48.5504 -578.047 0.
-151.763 -819.065 0.
-254.976 -1060.08 0.
262.96 -1006.61 0.
193.822 -1167.64 0.
124.683 -1328.67 0.
-570.296 -1698.75 0.
-592.542 -1750.21 0.
-614.788 -1801.68 0.
-620.912 -1632.49 0.
-516.566 -1388.92 0.
105.131 -939.263 0.
131.408 -877.885 0.
157.685 -816.508 0.
-572.598 -1025.73 0.
-462.856 -769.296 0.
-353.114 -512.863 0.
-1034.56 -923.696 0.
-1238.8 -1400.27 0.
-1443.04 -1876.85 0.
2206.26 -198.562 0.
2343.88 122.557 0.
-17926.8 -8303.06 0.
1908.06 -19.9042 0.
1794.35 -286 0.
-652.298 -1467.81 0.
-563.926 -1261.87 0.
-475.554 -1055.94 0.
-350.011 -946.214 0.
-393.965 -1048.85 0.
-437.918 -1151.48 0.
-245.69 -1013.26 0.
-180.024 -859.868 0.
-114.359 -706.473 0.
-541.953 -985 0.
-604.13 -1129.98 0.
-251.959 -1108.63 0.
-375.339 -1396.45 0.
-498.719 -1684.26 0.
99.0748 -1497.26 0.
234.824 -1180.65 0.
370.574 -864.052 0.
-425.665 -1183.13 0.
-511.098 -1382.38 0.
-596.531 -1581.64 0.
-506.7 -1376.57 0.
-373.072 -1064.96 0.
430.136 -476.609 0.
301.152 -846.521 0.
136.162 -1231.86 0.
-241.177 -1633.4 0.
-242.903 -1637.32 0.
-244.629 -1641.25 0.
-176.282 -1612.37 0.
-174.205 -1607.15 0.
-172.128 -1601.93 0.
253.571 -1301.89 0.
338.775 -1102.28 0.
423.98 -902.664 0.
27.3632 -1093.88 0.
7.72399 -1140.39 0.
-652.712 -1455.93 0.
-646.488 -1441.21 0.
-640.265 -1426.5 0.
266.535 -1006.39 0.
301.022 -925.8 0.
335.509 -845.21 0.
197.021 -824.444 0.
243.939 -714.489 0.
290.857 -604.534 0.
-80.2249 -775.927 0.
-102.309 -826.802 0.
296.108 -376.177 0.
-334.966 -802.107 0.
-413.106 -986.088 0.
-65.1336 -951.556 0.
-53.1634 -924.289 0.
-41.1932 -897.022 0.
198.396 -895.05 0.
58.3583 -1221.81 0.
-81.6794 -1548.57 0.
11.3601 -1502.48 0.
92.3321 -1313.75 0.
173.304 -1125.02 0.
-585.09 -1419.39 0.
-577.292 -1401.36 0.
-25.4119 -1143.4 0.
18.9935 -1040.44 0.
63.3988 -937.486 0.
121.604 -936.414 0.
-9.97815 -1244.68 0.
-141.56 -1552.95 0.
180.519 -1435.54 0.
270.673 -1225.55 0.
360.827 -1015.57 0.
-280.797 -1259.11 0.
-286.078 -1271.29 0.
-622.057 -1425.2 0.
-230.694 -1019.15 0.
-103.667 -722.142 0.
-64.9001 -553.944 0.
-167.977 -795.022 0.
-271.053 -1036.1 0.
38.32 -1071.77 0.
-30.9527 -1232.52 0.
-100.225 -1393.28 0.
-292.558 -1548.86 0.
-315.09 -1600.1 0.
-337.623 -1651.34 0.
-546.118 -1569.44 0.
-441.784 -1325.74 0.
170.545 -879.854 0.
196.797 -818.409 0.
223.048 -756.963 0.
-726.67 -1060.77 0.
-617.073 -803.941 0.
-507.475 -547.111 0.
-646.112 -727.723 0.
-850.316 -1204.22 0.
-1054.52 -1680.73 0.
1898.93 -298.736 0.
2036.51 22.2798 0.
-13986.6 -6582.94 0.
1318.81 -241.487 0.
1205.61 -507.928 0.
-447.565 -1348.09 0.
-359.049 -1142.37 0.
-270.533 -936.639 0.
23.5311 -754.375 0.
-20.4112 -857.14 0.
-64.3536 -959.905 0.
-245.847 -982.525 0.
-180.267 -828.977 0.
-114.688 -675.43 0.
-805.732 -1066.37 0.
-867.981 -1211.31 0.
115.836 -920.126 0.
-7.61907 -1207.97 0.
-131.074 -1495.82 0.
-63.712 -1534.95 0.
72.126 -1218.44 0.
207.964 -901.922 0.
-28.1483 -981.569 0.
-113.649 -1180.81 0.
-199.149 -1380.04 0.
-671.106 -1416.06 0.
-537.355 -1104.55 0.
-28.4873 -640.868 0.
-82.3306 -978.776 0.
-247.052 -1364.2 0.
200.775 -1412.72 0.
198.981 -1416.61 0.
197.187 -1420.49 0.
94.7895 -1464.84 0.
96.6426 -1459.41 0.
98.4956 -1453.98 0.
-73.5209 -1411.3 0.
11.1194 -1211.4 0.
95.7595 -1011.5 0.
-206.817 -1163.58 0.
-226.065 -1210.57 0.
-11.149 -1150.01 0.
-5.06979 -1135.25 0.
1.00929 -1120.48 0.
-39.5123 -1106.45 0.
-5.18076 -1025.98 0.
29.1508 -945.512 0.
-29.9185 -891.016 0.
16.7723 -780.632 0.
63.4631 -670.248 0.
125.551 -656.52 0.
103.297 -706.488 0.
-404.404 -1530.04 0.
-254.326 -1328.32 0.
-116.627 -1004.8 0.
-702.271 -1963.66 0.
-401.924 -1262.83 0.
-634.673 -1805.95 0.
-696.951 -3511.96 0.
-614.387 -3319.86 0.
-1823.38 -6141.35 0.
-2006.17 -6433.73 0.
-1374.97 -4962.34 0.
-1381.74 -4979.56 0.
-2671.59 -5355.78 0.
-2363.85 -4636.12 0.
-2296.2 -6748.96 0.
-1001.7 -3726.8 0.
-1184.88 -4152.57 0.
-1090.33 -4142.41 0.
-1501.51 -5100.49 0.
-3363.17 -9442.98 0.
-5206.12 -13886.2 0.
-2529.81 -7640.78 0.
-2334.36 -7183.97 0.
-2144.33 -5468.86 0.
-1745.33 -4538.32 0.
-2501.18 -6358.66 0.
-1792.81 -4802.04 0.
-1619.07 -4396.01 0.
-1346.69 -3487.03 0.
-1497.9 -3838.42 0.
-2649.68 -6524.49 0.
-3577.45 -9051.08 0.
-2555.48 -6667.93 0.
-2494.96 -6528.15 0.
-1969.33 -5954.06 0.
-2502.14 -7199.53 0.
-4707.05 -12346.6 0.
-4613.93 -11173.6 0.
-3576.43 -8753.29 0.
-4036.14 -10792.4 0.
-2626.01 -7501.52 0.
-2589.38 -7415.46 0.
-2603.76 -5116.71 0.
-1515.27 -2577.38 0.
-1584.65 -2739.73 0.
-1658.26 -3798.15 0.
-2015.95 -4633.43 0.
-3763.04 -8710.63 0.
-8.63514 -4134.21 0.
-20.4283 -4162.67 0.
-14748.1 -13595.5 0.
-1310.21 -5225 0.
-1742.53 -6232.46 0.
-3558.82 -8971.34 0.
-2094.38 -5552.71 0.
-2980.56 -7618.89 0.
-2183.95 -6582.82 0.
-1602.13 -5225.18 0.
-2262.37 -6765.67 0.
-2817.16 -6956.02 0.
-1723.58 -4405.91 0.
-1719.79 -4398.65 0.
-2228.59 -3851.29 0.
-2390.17 -4229.26 0.
-2331.99 -7299.12 0.
-2265.65 -7144.67 0.
-3733.78 -10570.6 0.
-4769.89 -12175.6 0.
-2679.33 -7296.92 0.
-2899.88 -7810.78 0.
-2409.63 -7262.34 0.
-2017.75 -6348.64 0.
-3182.24 -9066.43 0.
-2073.58 -4343.79 0.
-1589.04 -3212.73 0.
-1842.65 -4111.24 0.
-1451.34 -3415.05 0.
-2546.75 -5970.25 0.
-3757.02 -11457.4 0.
-2432.52 -8366.37 0.
-3124.43 -9980.31 0.
-3423.17 -10157.4 0.
-2590.18 -8214.02 0.
-3074.3 -9343.93 0.
-1999.03 -5247.63 0.
-882.43 -2643.27 0.
-1311.91 -3646.42 0.
-1639.1 -4029.99 0.
-1920.05 -4684.91 0.
-1044.38 -4757.19 0.
-95.0566 -2541.77 0.
38.5153 -2229.86 0.
-870.816 -2431.2 0.
-670.755 -1964.39 0.
-1513.55 -3930.86 0.
-792.106 -2208.68 0.
-349.396 -1176.5 0.
-310.049 -1085.59 0.
-235.15 -1861.05 0.
-674.686 -2887.06 0.
9.10334 -458.28 0.
214.418 -277.102 0.
233.844 -229.228 0.
275.215 -156.405 0.
352.734 24.2344 0.
430.253 204.874 0.
874.063 619.275 0.
1042.36 1011.88 0.
1210.66 1404.49 0.
1234.59 1478.86 0.
1199.68 1396.02 0.
1164.78 1313.17 0.
384.543 1120.28 0.
472.721 1327.84 0.
1244.36 1786.36 0.
1101.49 1453.91 0.
958.625 1121.47 0.
1152.8 1213.39 0.
1469.29 1952.73 0.
1785.79 2692.07 0.
1743.02 2774.3 0.
1575.81 2383.24 0.
1408.59 1992.18 0.
987.456 1605.43 0.
895.946 1391.3 0.
1354.35 1412.79 0.
675.521 969.348 0.
597.292 786.452 0.
682.951 795.536 0.
907.996 1322.14 0.
1133.04 1848.74 0.
1188.79 2060.71 0.
1126.19 1913.67 0.
1063.59 1766.63 0.
1208.25 2123.6 0.
1477.07 2749.13 0.
1745.88 3374.66 0.
1705.75 3314.73 0.
1644.3 3170.89 0.
1645.08 3045.07 0.
1548.65 2821 0.
1452.23 2596.94 0.
1058.57 2159.7 0.
819.596 1602.07 0.
580.62 1044.44 0.
470.057 1097.24 0.
760.934 1774.68 0.
1051.81 2452.11 0.
2772.9 3120.76 0.
2645.03 2819.84 0.
-277.07 1322 0.
1792.91 2358.61 0.
1870.48 2541.25 0.
1302.27 2363.63 0.
1179.24 2077.95 0.
1056.2 1792.27 0.
1374.26 1821.82 0.
1398.95 1879.79 0.
1423.63 1937.76 0.
825.149 1622.14 0.
769.729 1491.99 0.
714.309 1361.84 0.
401.384 1314.52 0.
457.954 1445.95 0.
1347.8 1981.62 0.
1615.66 2605.44 0.
1883.51 3229.25 0.
1680.04 3328.83 0.
1451.26 2794.15 0.
1222.48 2259.46 0.
1514.7 2231.37 0.
1549.88 2312 0.
1585.06 2392.64 0.
952.89 1734.09 0.
685.559 1112.07 0.
472.248 530.84 0.
725.726 1282.91 0.
1062.81 2070.8 0.
2053.55 2954.57 0.
1979.17 2781.59 0.
1904.8 2608.62 0.
1792.96 2436.47 0.
1736.62 2304.44 0.
1680.28 2172.41 0.
925.437 1534.81 0.
713.478 1038.91 0.
501.519 543.008 0.
798.982 617.225 0.
785.984 588.321 0.
1000.66 652.863 0.
986.621 620.411 0.
972.586 587.96 0.
220.178 239.581 0.
198.465 189.308 0.
176.752 139.034 0.
352.726 71.1484 0.
239.784 -192.426 0.
126.843 -456 0.
294.635 -237.951 0.
418.438 50.7918 0.
-30.4156 -443.585 0.
252.884 -229.797 0.
272.157 -181.978 0.
540.644 -10.7144 0.
618.177 169.772 0.
695.711 350.258 0.
646.637 554.161 0.
814.775 946.844 0.
982.914 1339.53 0.
1067.1 1438.89 0.
1032.22 1356.1 0.
997.333 1273.31 0.
744.408 1305.03 0.
832.569 1512.77 0.
1116.95 1763.06 0.
974.35 1430.5 0.
831.755 1097.94 0.
1105.48 1224.84 0.
1422.12 1964.01 0.
1738.76 2703.18 0.
1526.21 2714.28 0.
1359.55 2322.88 0.
1192.88 1931.48 0.
1126.82 1697.41 0.
1035.31 1483.14 0.
1639.76 1567.05 0.
685.952 1005.63 0.
608.032 822.464 0.
937.629 936.551 0.
1162.63 1463.09 0.
1387.62 1989.62 0.
1210.16 2101.15 0.
1147.45 1954.31 0.
1084.73 1807.46 0.
876.073 2011.79 0.
1144.63 2637.29 0.
1413.18 3262.79 0.
1857.78 3411.86 0.
1796.32 3268.11 0.
1357.04 2954.26 0.
1260.59 2730.49 0.
1164.13 2506.71 0.
1741.12 2483.28 0.
1501.92 1925.58 0.
1262.72 1367.89 0.
522.418 1148.74 0.
813.554 1826.15 0.
1104.69 2503.57 0.
2388.39 2988.3 0.
2260.98 2686.84 0.
-2096.5 573.638 0.
1629.3 2319.86 0.
1706.86 2502.82 0.
1322.62 2403.52 0.
1199.66 2117.84 0.
1076.7 1832.15 0.
1337.01 1837.06 0.
1361.58 1895.07 0.
1386.16 1953.09 0.
799.854 1642.55 0.
744.237 1512.68 0.
688.621 1382.8 0.
928.151 1572.84 0.
984.658 1704.53 0.
999.341 1863.12 0.
1267.43 2486.62 0.
1535.52 3110.12 0.
1458.25 3265.94 0.
1229.97 2730.8 0.
1001.68 2195.66 0.
1354.95 2195.57 0.
1390.36 2275.93 0.
1425.76 2356.29 0.
1486.41 1995.09 0.
1218.55 1373.11 0.
661.808 643.023 0.
942.661 1407.22 0.
1279.63 2195.47 0.
1621.65 2800.77 0.
1547.44 2628.24 0.
1473.23 2455.7 0.
1587.51 2379.99 0.
1531.25 2247.87 0.
1474.99 2115.75 0.
963.946 1583.37 0.
752.029 1087.27 0.
540.111 591.166 0.
1362.03 889.329 0.
1348.66 860.423 0.
681.537 546.465 0.
667.422 513.897 0.
653.306 481.329 0.
171.872 252.017 0.
150.075 201.899 0.
128.278 151.782 0.
574.5 197.212 0.
461.286 -66.1996 0.
348.072 -329.611 0.
107.937 -286.464 0.
231.849 2.75974 0.
-298.63 -932.529 0.
-123.495 -924.611 0.
-126.629 -935.499 0.
195.835 -818.816 0.
164.528 -891.324 0.
133.221 -963.832 0.
-189.277 -1172.4 0.
-234.234 -1279.78 0.
-279.19 -1387.16 0.
-228.225 -1377.38 0.
-209.276 -1333.67 0.
-190.326 -1289.96 0.
-278.153 -1418.55 0.
-337.415 -1559.17 0.
-353.512 -1664.29 0.
-307.995 -1558.6 0.
-262.478 -1452.91 0.
-21.6045 -1344.32 0.
-108.084 -1545.59 0.
-194.564 -1746.86 0.
-509.536 -1899.47 0.
-451.054 -1764.51 0.
-392.572 -1629.56 0.
-213.842 -1437.02 0.
-149.412 -1289.93 0.
430.893 -921.64 0.
-165.016 -1108.55 0.
-128.288 -1023.68 0.
181.713 -862.776 0.
121.234 -1004.7 0.
60.7562 -1146.62 0.
-258.637 -1265.23 0.
-156.845 -1031.21 0.
-55.0538 -797.188 0.
-496.572 -1155.64 0.
-680.436 -1586.25 0.
-864.3 -2016.85 0.
-287.207 -1640.85 0.
-186.321 -1404.82 0.
-509.244 -1367.44 0.
-488.143 -1319.92 0.
-467.042 -1272.4 0.
400.38 -862.426 0.
417.74 -823.143 0.
435.1 -783.859 0.
-316.115 -1070.56 0.
-297.174 -1028.79 0.
-278.232 -987.024 0.
621.104 -689.748 0.
562.542 -826.855 0.
-2727.53 -2350.75 0.
109.453 -993.319 0.
184.879 -819.425 0.
7.33939 -790.483 0.
-8.26699 -823.11 0.
-23.8734 -855.736 0.
83.2577 -803.301 0.
111.486 -740.737 0.
139.715 -678.173 0.
-318.331 -939.336 0.
-385.13 -1093.95 0.
-451.928 -1248.57 0.
17.7855 -1089.69 0.
0.659698 -1129.68 0.
-512.414 -1380.75 0.
-523.079 -1404.12 0.
-533.743 -1427.49 0.
-492.519 -1405.25 0.
-461.681 -1331.59 0.
-430.842 -1257.94 0.
-225.359 -1178.69 0.
-257.592 -1250.87 0.
-289.826 -1323.05 0.
311.464 -1016.9 0.
353.824 -922.376 0.
54.6373 -978.063 0.
-68.3994 -1191.22 0.
-153.173 -1387.97 0.
-373.875 -1577.4 0.
-320.669 -1450.45 0.
-267.462 -1323.49 0.
-104.293 -1227.4 0.
-140.394 -1311.22 0.
-176.494 -1395.03 0.
-262.527 -1491.78 0.
-292.293 -1560.52 0.
-322.058 -1629.25 0.
544.225 -1197.62 0.
580.921 -1110.95 0.
-301.184 -1405.03 0.
-214.342 -1200.95 0.
-127.501 -996.871 0.
-349.426 -1052.02 0.
-447.824 -1278.9 0.
-546.222 -1505.78 0.
75.2387 -1196.6 0.
182.774 -947.048 0.
290.31 -697.496 0.
-168.466 -830.551 0.
-153.836 -794.429 0.
-382.766 -939.778 0.
-308.365 -972.76 0.
-312.112 -983.259 0.
-37.1063 -888.207 0.
-68.436 -960.75 0.
-99.7662 -1033.29 0.
-162.784 -1129.44 0.
-207.822 -1236.96 0.
-252.86 -1344.47 0.
-245.568 -1352.82 0.
-226.706 -1309.04 0.
-207.844 -1265.26 0.
-253.593 -1378.56 0.
-313.321 -1518.66 0.
-198.097 -1565.37 0.
-152.751 -1459.55 0.
-107.406 -1353.74 0.
-2.08988 -1305.39 0.
-88.7486 -1506.69 0.
-175.408 -1707.99 0.
-409.91 -1825.2 0.
-351.474 -1690 0.
-293.038 -1554.8 0.
-302.774 -1444.17 0.
-238.206 -1296.83 0.
-698.615 -1374.51 0.
-10.7538 -1011.09 0.
25.6974 -926.325 0.
5.80008 -906.989 0.
-54.8278 -1049.07 0.
-115.456 -1191.14 0.
-311.361 -1256.65 0.
-209.714 -1022.78 0.
-108.067 -788.905 0.
-184.153 -990.891 0.
-367.726 -1421.75 0.
-551.299 -1852.61 0.
-351 -1636.67 0.
-249.883 -1400.71 0.
-227.273 -1215.78 0.
-206.269 -1168.27 0.
-185.263 -1120.75 0.
-16.9719 -1009 0.
0.443733 -970.091 0.
17.8589 -931.179 0.
-74.1581 -939.324 0.
-54.9855 -897.933 0.
-35.8117 -856.542 0.
537.904 -692.969 0.
479.902 -830.543 0.
-325.041 -1290.74 0.
65.4365 -982.166 0.
141.333 -808.593 0.
134.929 -703.563 0.
119.764 -736.442 0.
104.598 -769.321 0.
-144.1 -870.516 0.
-116.086 -807.839 0.
-88.072 -745.163 0.
-285.681 -894.667 0.
-352.653 -1049.09 0.
-419.625 -1203.51 0.
92.5959 -1026.26 0.
75.8251 -1066.64 0.
-433.79 -1315.67 0.
-444.468 -1339.09 0.
-455.146 -1362.52 0.
-129.538 -1217.52 0.
-98.1241 -1144.4 0.
-66.7101 -1071.28 0.
-365.495 -1207.24 0.
-397.737 -1279.38 0.
-429.978 -1351.51 0.
103.265 -1074.57 0.
145.689 -979.877 0.
136.975 -911.631 0.
1.58172 -1129.94 0.
-83.3306 -1326.61 0.
-211.42 -1477.63 0.
-158.472 -1350.07 0.
-105.523 -1222.5 0.
-225.648 -1248.89 0.
-261.817 -1332.78 0.
-297.985 -1416.68 0.
-53.3007 -1371.44 0.
-83.5109 -1439.95 0.
-113.721 -1508.45 0.
190.869 -1319.88 0.
227.643 -1233.38 0.
-309.453 -1376.55 0.
-222.351 -1172.86 0.
-135.25 -969.173 0.
-184.127 -950.202 0.
-282.528 -1176.9 0.
-380.928 -1403.6 0.
138.508 -1139.25 0.
245.645 -889.361 0.
352.781 -639.468 0.
-59.7669 -753.15 0.
-45.4018 -716.839 0.
-304.576 -542.93 0.
-145.471 -217.638 0.
-230.013 -412.894 0.
-280.11 -982.844 0.
-97.5985 -556.463 0.
-6.44773 -343.24 0.
-425.087 -1760.99 0.
515.466 433.949 0.
466.194 318.889 0.
66.5387 -571.718 0.
-309.867 -1451.51 0.
128.186 -430.909 0.
311.702 -66.3839 0.
177.164 -384.048 0.
128.534 -1060.5 0.
544.549 -93.8296 0.
283.45 -707.111 0.
-84.8068 -1494.14 0.
100.693 -1063.55 0.
513.733 -102.056 0.
426.767 -21.3142 0.
448.082 27.5581 0.
482.577 107.141 0.
297.225 145.324 0.
-51.727 -667.415 0.
16.4408 -456.302 0.
488.62 -98.7687 0.
156.657 -876.576 0.
-34.3787 -639.807 0.
405.634 384.666 0.
758.448 1205.7 0.
-606.002 -1812.06 0.
-124.454 -688.314 0.
405.491 548.441 0.
967.178 1134.99 0.
58.2998 -983.976 0.
-675.015 -2693.39 0.
-606.602 -2084.21 0.
-93.5385 -889.419 0.
180.688 -759.987 0.
270.766 -550.942 0.
565.095 134.598 0.
-137.454 -472.691 0.
-244.841 -722.827 0.
487.237 985.661 0.
833.372 745.475 0.
333.053 -417.311 0.
391.526 -276.302 0.
188.125 -1326.55 0.
982.559 531.594 0.
5.86362 -423.539 0.
501.691 145.489 0.
180.443 -599.757 0.
258.712 -619.1 0.
-121.792 -1508.32 0.
-488.577 -2365.52 0.
-7.99842 -96.2607 0.
574.259 1263.11 0.
516.701 1129.6 0.
25.3941 -210.219 0.
-427.222 -1267.8 0.
690.034 1337.74 0.
886.37 717.151 0.
65.073 -1195.77 0.
-379.61 -1300.99 0.
630.03 1052.88 0.
102.014 -181.138 0.
495.546 -412.679 0.
347.282 -758.529 0.
506.053 -387.927 0.
-465.018 -1138.96 0.
454.204 1002.87 0.
387.422 844.071 0.
-69.8253 -1055.56 0.
-416.441 -1862.07 0.
639.884 -302.25 0.
204.122 -759.645 0.
-5.84525 -1250.09 0.
722.808 435.808 0.
279.038 -600.473 0.
326.318 -490.904 0.
-108.281 -714.643 0.
-109.64 -718.432 0.
-148.772 -810.297 0.
-5.68535 -1625.48 0.
82.0173 -1422.11 0.
-255.153 -2210.15 0.
192.384 -613.874 0.
588.329 309.641 0.
508.211 571.614 0.
326.819 147.365 0.
126.931 -320.204 0.
78.2226 -622.863 0.
90.9573 -592.531 0.
588.265 568.473 0.
572.781 -214.57 0.
420.356 -571.165 0.
375.809 -676.007 0.
457.678 277.215 0.
164.778 -406.133 0.
-142.491 -530.712 0.
-192.583 -549.856 0.
-189.856 -541.813 0.
-39.2842 -477.48 0.
-66.4651 -540.989 0.
-93.6459 -604.498 0.
137.06 -579.189 0.
88.1246 -691.911 0.
39.1889 -804.632 0.
-46.2937 -887.669 0.
-59.8162 -921.054 0.
-73.3388 -954.439 0.
52.926 -965.849 0.
19.0596 -1048.35 0.
-22.7386 -1105.99 0.
111.492 -796.078 0.
245.722 -486.166 0.
288.541 -370.985 0.
157.643 -678.344 0.
26.7458 -985.704 0.
-13.8752 -1102.41 0.
0.590955 -1069.1 0.
15.0572 -1035.79 0.
-66.0286 -978.529 0.
-7.88023 -841.913 0.
45.5632 -707.148 0.
20.4241 -761.684 0.
-1.12524 -813.951 0.
-9.17473 -865.665 0.
-46.7605 -956.118 0.
-84.3461 -1046.57 0.
-345.243 -1158.88 0.
-290.479 -1032.52 0.
-235.715 -906.153 0.
164.94 -602.367 0.
242.254 -420.563 0.
319.569 -238.759 0.
103.347 -514.314 0.
-15.3217 -792.6 0.
6.63233 -971.52 0.
65.0193 -836.645 0.
123.406 -701.77 0.
-139.78 -713.934 0.
-92.0576 -602.708 0.
-44.3347 -491.481 0.
208.065 -446.39 0.
106.218 -681.747 0.
4.37165 -917.104 0.
511.913 -709.259 0.
535.428 -649.425 0.
25.8479 -815.882 0.
-33.3154 -776.507 0.
-1.6768 -698.448 0.
255.319 -536.171 0.
276.673 -487.595 0.
298.027 -439.019 0.
-275.831 -775.34 0.
-419.418 -1110.24 0.
-563.006 -1445.14 0.
-157.789 -1193.45 0.
-24.7657 -883.696 0.
108.258 -573.943 0.
29.0905 -598.982 0.
15.808 -627.016 0.
-69.1006 -725.85 0.
-228.918 -1100.86 0.
-388.735 -1475.87 0.
25.4501 -1421.9 0.
143.737 -1145.48 0.
262.023 -869.068 0.
-80.7168 -849.333 0.
-15.6461 -698.591 0.
49.425 -547.848 0.
73.4964 -648.555 0.
-20.3391 -864.586 0.
145.02 -969.328 0.
96.4056 -1021.69 0.
79.6112 -1060.41 0.
27.4125 -1104.8 0.
26.834 -1106.6 0.
26.2551 -1108.39 0.
-237.494 -1235.68 0.
-250.879 -1266.79 0.
-264.264 -1297.89 0.
139.814 -916.126 0.
309.426 -521.582 0.
479.038 -127.037 0.
-31.7222 -602.281 0.
-199.053 -992.23 0.
-116.788 -1242.49 0.
-135.85 -1286.41 0.
-154.913 -1330.33 0.
-249.577 -1381.27 0.
-232.439 -1339.64 0.
-215.302 -1298.01 0.
133.848 -1069.4 0.
193.912 -930.409 0.
253.977 -791.42 0.
40.1969 -713.544 0.
138.416 -485.437 0.
65.2272 -412.015 0.
-59.5004 -461.721 0.
-56.7018 -453.784 0.
6.91351 -426.219 0.
-20.103 -489.994 0.
-47.1196 -553.769 0.
222.018 -510.832 0.
172.804 -623.17 0.
123.589 -735.508 0.
-1.58722 -836.758 0.
-15.0481 -870.273 0.
-28.5091 -903.788 0.
224.835 -860.773 0.
190.864 -943.043 0.
-167.132 -1135.68 0.
-33.0905 -825.817 0.
100.952 -515.95 0.
172.673 -389.427 0.
41.7379 -696.732 0.
-89.1975 -1004.04 0.
30.5231 -1051.79 0.
44.783 -1018.28 0.
59.043 -984.767 0.
95.6724 -877.613 0.
154.2 -741.082 0.
194.441 -612.181 0.
-188.472 -820.801 0.
-210.324 -872.593 0.
156.003 -763.924 0.
118.398 -854.502 0.
80.7922 -945.081 0.
-351.185 -1129.19 0.
-296.156 -1003.3 0.
-241.127 -877.409 0.
111.056 -593.248 0.
188.464 -411.607 0.
265.872 -229.967 0.
165.853 -455.635 0.
46.9562 -733.863 0.
-78.9443 -975.816 0.
-20.5225 -841.284 0.
37.8995 -706.752 0.
0.491829 -623.171 0.
48.3832 -511.825 0.
96.275 -400.48 0.
84.5732 -467.447 0.
-16.5882 -702.955 0.
-117.75 -938.463 0.
601.875 -639.211 0.
625.287 -579.106 0.
-886.192 -1176.25 0.
-189.97 -813.791 0.
-158.262 -735.986 0.
224.832 -516.928 0.
246.067 -468.333 0.
267.302 -419.737 0.
-230.838 -724.65 0.
-374.273 -1059.91 0.
-517.709 -1395.17 0.
150.207 -1030.7 0.
282.942 -720.255 0.
415.678 -409.808 0.
-313.901 -715.67 0.
-326.871 -743.932 0.
26.6109 -651.288 0.
-132.871 -1026.46 0.
-292.353 -1401.62 0.
-3.54002 -1402.19 0.
114.613 -1125.66 0.
232.765 -849.136 0.
253.941 -676.327 0.
318.355 -524.982 0.
382.768 -373.638 0.
51.655 -626.729 0.
-42.3401 -842.637 0.
249.725 -894.444 0.
117.422 -982.395 0.
100.468 -1020.89 0.
1.58144 -1083.72 0.
0.966506 -1085.2 0.
0.351333 -1086.69 0.
-106.52 -1148.9 0.
-119.926 -1179.76 0.
-133.333 -1210.63 0.
-37.3715 -959.708 0.
132.303 -565.098 0.
301.978 -170.488 0.
-295.662 -683.61 0.
-463.376 -1073.32 0.
85.6587 -1124.9 0.
66.1365 -1168.52 0.
46.6141 -1212.13 0.
-237.625 -1346.53 0.
-220.836 -1304.81 0.
-204.047 -1263.1 0.
61.4485 -1069.13 0.
121.571 -930.164 0.
181.694 -791.202 0.
65.2303 -671.782 0.
163.768 -444.116 0.
-155.204 -769.615 0.
-118.836 -736.058 0.
-128.323 -760.651 0.
-104.637 -781.146 0.
-142.07 -869.367 0.
-179.504 -957.589 0.
73.4428 -894.67 0.
65.5523 -914.262 0.
57.6618 -933.853 0.
-119.489 -1070.1 0.
-162.898 -1171.05 0.
-206.308 -1272.01 0.
213.427 -991.919 0.
279.264 -835.523 0.
-54.5918 -863.06 0.
-33.3856 -812.547 0.
-12.1796 -762.035 0.
-18.8819 -766.344 0.
-64.957 -873.735 0.
-111.032 -981.127 0.
68.0367 -977.215 0.
35.3313 -1052.42 0.
2.62599 -1127.63 0.
-28.3934 -1069.57 0.
30.5393 -931.161 0.
374.568 -670.495 0.
-261.619 -994.685 0.
-291.21 -1064.47 0.
98.9453 -946.205 0.
93.6181 -954.706 0.
88.2909 -963.208 0.
-371.131 -1155.01 0.
-355.729 -1121.39 0.
-340.326 -1087.76 0.
-93.6407 -1044.28 0.
-147.869 -1170.49 0.
-202.097 -1296.7 0.
-137.895 -1240.7 0.
-113.528 -1184.48 0.
-240.298 -1196.08 0.
-227.089 -1161.54 0.
-213.88 -1127 0.
-193.459 -1129.98 0.
-246.233 -1250.16 0.
-299.006 -1370.34 0.
-253.981 -1275.59 0.
-140.326 -1011.19 0.
-26.6702 -746.793 0.
641.617 -433.753 0.
628.216 -471.021 0.
-1757.43 -1524.15 0.
-196.546 -848.567 0.
-193.045 -840.429 0.
69.5815 -728.839 0.
38.8495 -796.667 0.
8.11734 -864.495 0.
-341.738 -1034.18 0.
-324.333 -991.298 0.
-306.928 -948.419 0.
369.16 -601.622 0.
404.011 -519.345 0.
438.862 -437.069 0.
-411.213 -967.395 0.
-514.46 -1208.7 0.
-229.945 -1246.05 0.
-180.916 -1128.74 0.
-131.887 -1011.43 0.
187.257 -812.147 0.
184.94 -817.01 0.
182.622 -821.874 0.
242.699 -881.811 0.
158.544 -1080.26 0.
74.3877 -1278.72 0.
-332.197 -1413.29 0.
-276.675 -1287.64 0.
249.641 -962.85 0.
38.1978 -1218.8 0.
-48.8443 -1421.45 0.
-262.476 -1621.29 0.
-222.391 -1525.58 0.
-182.306 -1429.88 0.
-141.605 -1354.44 0.
-125.845 -1318.17 0.
-110.084 -1281.91 0.
-230.829 -1282.28 0.
-199.372 -1209.45 0.
-167.914 -1136.61 0.
-587.316 -1298.55 0.
-582.34 -1289.09 0.
146.8 -977.903 0.
132.67 -1013.37 0.
118.54 -1048.83 0.
-212.479 -1177.11 0.
-168.313 -1078.56 0.
-124.146 -980.014 0.
95.7733 -802.665 0.
140.995 -695.876 0.
186.218 -589.087 0.
-68.5079 -871.795 0.
-193.372 -1164.44 0.
-505.283 -884.974 0.
-71.9577 -683.818 0.
-81.5819 -708.643 0.
-18.6 -712.967 0.
-56.158 -800.85 0.
-93.7158 -888.732 0.
66.9035 -865.403 0.
59.0617 -884.789 0.
51.2198 -904.176 0.
-166.3 -1060.03 0.
-209.74 -1160.87 0.
-253.179 -1261.71 0.
187.603 -971.76 0.
253.526 -815.428 0.
104.599 -762.344 0.
125.992 -711.982 0.
147.384 -661.621 0.
55.237 -703.337 0.
9.10377 -810.773 0.
-37.0294 -918.209 0.
64.9164 -945.85 0.
32.3131 -1021.18 0.
-0.290294 -1096.51 0.
-260.579 -1139.4 0.
-201.92 -1001.02 0.
468.781 -600.265 0.
-24.4873 -861.913 0.
-53.8135 -931.947 0.
13.4718 -950.713 0.
8.17527 -959.568 0.
2.87889 -968.422 0.
-361.615 -1120.54 0.
-346.299 -1087.11 0.
-330.982 -1053.67 0.
-32.8658 -986.078 0.
-87.6711 -1112.25 0.
-142.477 -1238.42 0.
-87.6567 -1187.6 0.
-63.5378 -1131.36 0.
-291.379 -1187.25 0.
-278.379 -1153.13 0.
-265.379 -1119.01 0.
-252.613 -1124.18 0.
-305.062 -1244.91 0.
-357.511 -1365.63 0.
-90.119 -1172.32 0.
23.6427 -907.938 0.
137.404 -643.557 0.
485.633 -470.55 0.
471.584 -507.322 0.
-74.5183 -772.328 0.
-1.18378 -733.667 0.
1.86344 -725.086 0.
-26.9321 -739.474 0.
-57.5762 -807.493 0.
-88.2206 -875.512 0.
-310.527 -988.15 0.
-292.972 -945.791 0.
-275.417 -903.432 0.
181.929 -650.293 0.
216.383 -567.718 0.
250.837 -485.142 0.
-10.9457 -765.004 0.
-114.446 -1006.25 0.
-305.797 -1247.64 0.
-256.809 -1130.05 0.
-207.822 -1012.45 0.
90.8079 -823.059 0.
88.6367 -827.602 0.
86.4659 -832.145 0.
129.439 -900.571 0.
45.3523 -1098.84 0.
-38.7346 -1297.1 0.
-382.805 -1402.49 0.
-326.798 -1277.27 0.
-299.791 -1166.95 0.
106.642 -1158.32 0.
19.8379 -1361.08 0.
-297.622 -1604.5 0.
-257.431 -1508.59 0.
-217.24 -1412.7 0.
-101.507 -1307.43 0.
-85.8177 -1271 0.
-70.1283 -1234.57 0.
-152.561 -1215.37 0.
-121.28 -1142.18 0.
-89.9988 -1069 0.
-353.712 -1168.37 0.
-348.945 -1158.46 0.
-19.6971 -1017.36 0.
-33.9028 -1052.74 0.
-48.1085 -1088.13 0.
-300.591 -1184.03 0.
-257.261 -1084.98 0.
-213.931 -985.928 0.
2.2433 -811.728 0.
47.3703 -704.737 0.
92.4975 -597.746 0.
-180.796 -889.489 0.
-305.331 -1181.49 0.
-605.252 -434.539 0.
85.3089 -372.972 0.
611.124 854.811 0.
445.803 237.897 0.
196.676 -343.675 0.
284.762 -138.276 0.
507.988 203.219 0.
529.74 253.572 0.
474.337 122.824 0.
352.909 271.382 0.
512.389 642.651 0.
451.079 498.851 0.
482.221 -207.18 0.
214.773 -832.608 0.
740.405 462.011 0.
820.701 646.573 0.
576.495 73.9437 0.
479.448 177.872 0.
439.671 84.7673 0.
360.167 -101.307 0.
587.507 311.987 0.
666.701 496.04 0.
121.814 -775.95 0.
-24.6427 -118.232 0.
452.237 990.998 0.
473.601 645.944 0.
761.104 549.026 0.
281.396 -573.598 0.
64.7305 -632.464 0.
491.876 362.507 0.
758.561 983.003 0.
284.368 399.24 0.
94.137 -44.2626 0.
94.1449 -43.4761 0.
641.115 501.408 0.
900.853 1109.08 0.
695.329 631.716 0.
1188.93 1733.14 0.
569.389 287.157 0.
208.059 100.564 0.
43.2549 -286.895 0.
132.831 -80.531 0.
239.61 176.825 0.
616.982 1054.56 0.
433.334 622.957 0.
549.734 50.3491 0.
658.281 302.175 0.
867.314 788.551 0.
1149.95 1393.29 0.
1081.65 1233.35 0.
-2158.61 -549.931 0.
590.389 320.892 0.
551.304 226.261 0.
969.849 1803.42 0.
594.505 925.273 0.
291.26 216.019 0.
484.781 840.958 0.
359.02 547.739 0.
667.909 1268.77 0.
184.583 -250.172 0.
396.208 244.664 0.
618.461 763.681 0.
729.424 232.453 0.
761.267 314.343 0.
297.44 337.333 0.
311.373 369.93 0.
467.4 734.408 0.
624.192 634.769 0.
805.138 1056.81 0.
167.236 -431.88 0.
191.425 -512.395 0.
566.1 361.428 0.
803.749 915.278 0.
448.789 651.649 0.
881.286 1662.38 0.
-31.7353 342.142 0.
781.622 319.029 0.
1115.14 1097.4 0.
348.244 6.31575 0.
296.795 -116.876 0.
387.687 91.8336 0.
423.368 -131.634 0.
303.55 -408.584 0.
534.833 133.795 0.
422.514 9.86331 0.
186.509 -541.176 0.
698.2 651.95 0.
417.645 230.86 0.
622.297 712.727 0.
311.81 98.8301 0.
268.402 -0.469798 0.
291.575 55.4806 0.
-290.663 -965.023 0.
244.985 284.925 0.
261.837 323.787 0.
-84.0869 -803.504 0.
230.579 -70.2231 0.
16.6878 -570.066 0.
-296.86 -918.06 0.
-368.492 -1082.57 0.
-246.021 -537.554 0.
-86.4796 -607.849 0.
-151.731 -758.745 0.
7.66087 -797.708 0.
-21.7512 -865.338 0.
-51.1631 -932.968 0.
-32.4381 -967.303 0.
-44.1291 -995.014 0.
-55.82 -1022.73 0.
-136.835 -1142.92 0.
-197.977 -1285.49 0.
-259.119 -1428.06 0.
-96.9239 -1324.84 0.
-70.4898 -1262.4 0.
5.64738 -1193.48 0.
-57.842 -1342.91 0.
-121.331 -1492.34 0.
-207.957 -1577.35 0.
-145.685 -1433.02 0.
-83.4128 -1288.69 0.
-132.87 -1140.98 0.
-21.365 -882.018 0.
90.1403 -623.052 0.
-84.5726 -764.501 0.
-160.672 -944.708 0.
123.768 -970.598 0.
-123.41 -1110.7 0.
-138.128 -1146.25 0.
-243.299 -1212.96 0.
-245.672 -1221.35 0.
-248.045 -1229.74 0.
-315.306 -1274.78 0.
-330.278 -1309.9 0.
-345.25 -1345.01 0.
-155.622 -1268.33 0.
-153.739 -1263.63 0.
-151.857 -1258.93 0.
-260.134 -1339.45 0.
-279.608 -1383.75 0.
-199.331 -1382.11 0.
-200.783 -1386.31 0.
-202.235 -1390.51 0.
-524.186 -1433.69 0.
-368.088 -1070.36 0.
-211.99 -707.023 0.
113.304 -575.587 0.
-18.8427 -886.444 0.
-150.989 -1197.3 0.
182.511 -987.844 0.
267.949 -789.383 0.
-419.281 -922.115 0.
166.623 -776.053 0.
112.415 -904.652 0.
-281.794 -1158.5 0.
-289.197 -1176.08 0.
-296.6 -1193.67 0.
-321.401 -1196.54 0.
-300.735 -1149.21 0.
-280.07 -1101.88 0.
-390.891 -1213.38 0.
-451.937 -1356.69 0.
-512.982 -1500.01 0.
-48.023 -1288.48 0.
-38.324 -1261.25 0.
-360.052 -1366.22 0.
-297.708 -1221.42 0.
-235.364 -1076.62 0.
-92.8594 -1006.35 0.
-206.77 -1270.58 0.
-320.68 -1534.82 0.
-138.227 -1467.97 0.
-59.771 -1283.88 0.
18.6853 -1099.79 0.
-220.675 -1176.82 0.
-224.428 -1183.65 0.
-44.946 -1112.27 0.
44.5234 -1035.4 0.
65.7097 -987.743 0.
-9.97705 -994.546 0.
-13.6145 -1004.82 0.
-17.2526 -1015.1 0.
-98.2566 -1061.26 0.
-115.497 -1098.07 0.
-132.737 -1134.88 0.
-139.256 -1207.92 0.
-183.533 -1311.67 0.
-227.81 -1415.41 0.
-290.162 -1363.1 0.
-241.625 -1246.95 0.
-245.641 -1149.06 0.
-193.907 -1027.42 0.
-142.172 -905.772 0.
-137.411 -828.279 0.
-109.318 -765.049 0.
-81.226 -701.819 0.
-88.6056 -686.971 0.
-90.7275 -693.91 0.
-92.8493 -700.848 0.
5.66348 -606.181 0.
37.9532 -528.784 0.
263.099 -290.863 0.
-157.738 -608.381 0.
-222.983 -759.409 0.
30.9665 -756.76 0.
1.11676 -823.988 0.
-28.7327 -891.217 0.
-63.3678 -948.68 0.
-74.987 -976.32 0.
-86.606 -1003.96 0.
21.7423 -1044.22 0.
-39.4636 -1186.57 0.
-100.67 -1328.92 0.
-204.909 -1339.92 0.
-178.808 -1277.61 0.
-9.96866 -1168.76 0.
-73.5906 -1318.23 0.
-137.213 -1467.69 0.
-112.375 -1504.85 0.
-50.1305 -1360.61 0.
12.1141 -1216.38 0.
-233.045 -1150.47 0.
-121.038 -891.752 0.
-9.02984 -633.039 0.
198.4 -612.558 0.
121.798 -792.204 0.
223.075 -895.944 0.
-318.638 -1163.62 0.
-333.197 -1199.38 0.
-297.268 -1203.89 0.
-299.314 -1212.67 0.
-301.36 -1221.45 0.
-154.091 -1172.22 0.
-168.743 -1207.98 0.
-183.394 -1243.75 0.
-185.238 -1249.36 0.
-183.149 -1244.74 0.
-181.06 -1240.12 0.
-404.835 -1369.66 0.
-424.545 -1413.89 0.
96.7525 -1223.91 0.
94.6951 -1227.45 0.
92.6378 -1231 0.
-598.09 -1435.05 0.
-442.391 -1071.38 0.
-286.693 -707.721 0.
-77.1926 -626.599 0.
-209.035 -937.62 0.
-340.877 -1248.64 0.
265.649 -919.985 0.
351.239 -721.831 0.
-2253.44 -1675.86 0.
240.151 -712.541 0.
185.825 -841.4 0.
-244.095 -1110.65 0.
-251.429 -1128.29 0.
-258.763 -1145.93 0.
-221.96 -1121.96 0.
-200.738 -1074.74 0.
-179.516 -1027.53 0.
-574.389 -1262.01 0.
-635.52 -1405.05 0.
-696.65 -1548.1 0.
-184.326 -1315.09 0.
-174.272 -1288.14 0.
-251.49 -1286.83 0.
-189.455 -1142.06 0.
-127.419 -997.293 0.
-95.3427 -976.891 0.
-209.145 -1241.22 0.
-322.947 -1505.56 0.
-25.4924 -1387.68 0.
53.3649 -1203.73 0.
132.222 -1019.79 0.
-64.7003 -1077.96 0.
-68.3809 -1084.77 0.
169.383 -989.847 0.
-131.788 -1080.19 0.
-110.827 -1032.55 0.
95.8276 -918.579 0.
91.4661 -928.156 0.
87.104 -937.732 0.
-234.536 -1089.44 0.
-251.806 -1126.05 0.
-269.077 -1162.65 0.
-171.415 -1190.4 0.
-215.658 -1294.17 0.
-259.902 -1397.93 0.
-302.956 -1337.1 0.
-253.98 -1221 0.
-256.179 -1121.67 0.
-204.28 -1000.21 0.
-152.381 -878.754 0.
-4.47873 -739.552 0.
24.1242 -676.836 0.
52.7273 -614.121 0.
-138.682 -676.812 0.
-140.412 -683.91 0.
-142.142 -691.008 0.
229.113 -478.91 0.
261.772 -401.305 0.
80.9878 -838.646 0.
-237.206 -935.124 0.
-196.16 -840.19 0.
33.3892 -710.507 0.
-39.4095 -883.767 0.
-112.208 -1057.03 0.
-262.682 -1177.72 0.
-231.574 -1104.62 0.
-200.466 -1031.52 0.
149.289 -818.895 0.
182.23 -741.852 0.
215.171 -664.809 0.
28.5728 -785.606 0.
-2.617 -859.123 0.
63.2391 -901.985 0.
-16.0612 -1085.4 0.
-95.3612 -1268.81 0.
-52.0214 -1272.1 0.
76.4423 -970.528 0.
204.906 -668.958 0.
-29.3078 -706.286 0.
-76.2762 -815.558 0.
-123.244 -924.829 0.
164.637 -789.399 0.
189.547 -732.156 0.
251.345 -658.937 0.
-251.648 -960.735 0.
-298.56 -1072.09 0.
-307.687 -1133.1 0.
-246.162 -986.407 0.
-184.636 -839.716 0.
85.2643 -699.488 0.
30.9153 -824.772 0.
-23.4336 -950.056 0.
-52.2386 -987.821 0.
-43.1785 -966.307 0.
-34.1186 -944.794 0.
-315.542 -1056.89 0.
-312.894 -1051.31 0.
288.195 -785.558 0.
326.928 -698.592 0.
365.661 -611.625 0.
-404.34 -866.211 0.
-366.58 -777.043 0.
-328.82 -687.876 0.
-92.9595 -615.19 0.
-148.342 -742.748 0.
-203.725 -870.306 0.
355.952 -670.712 0.
346.598 -691.599 0.
-3531.41 -2370.86 0.
291.731 -747.961 0.
284.006 -766.307 0.
-204.99 -974.958 0.
-179.374 -916.578 0.
-153.757 -858.197 0.
-128.736 -789.431 0.
-98.4749 -714.41 0.
-68.214 -639.389 0.
-376.585 -812.019 0.
-427.637 -928.702 0.
-478.689 -1045.39 0.
62.5067 -731.772 0.
116.673 -605.611 0.
64.1337 -552.787 0.
-15.6622 -737.33 0.
-95.4579 -921.874 0.
-66.5536 -994.61 0.
-44.837 -942.283 0.
-23.1204 -889.956 0.
188.656 -857.234 0.
114.28 -1031.18 0.
39.905 -1205.13 0.
-110.221 -1141.61 0.
-1.78728 -893.112 0.
288.156 -574.215 0.
-111.72 -830.167 0.
-155.805 -933.664 0.
162.273 -869.376 0.
132.268 -936.194 0.
102.263 -1003.01 0.
-321.697 -1177.63 0.
-275.887 -1073.6 0.
-230.077 -969.576 0.
-114.051 -884.656 0.
-110.144 -876.227 0.
-106.238 -867.799 0.
-74.097 -864.481 0.
-75.9157 -871.46 0.
-147.336 -905.796 0.
-177.648 -979.393 0.
-207.96 -1052.99 0.
-139.676 -1018.14 0.
-64.1052 -842.981 0.
11.4655 -667.82 0.
-39.2596 -628.664 0.
-40.8664 -629.038 0.
-42.4726 -629.412 0.
144.409 -659.98 0.
70.2842 -833.278 0.
-243.594 -947.168 0.
4.78429 -800.555 0.
45.3616 -705.443 0.
9.64331 -690.109 0.
-63.8515 -862.893 0.
-137.346 -1035.68 0.
-445.082 -1223.88 0.
-413.987 -1151 0.
-382.893 -1078.12 0.
106.937 -806.233 0.
139.669 -729.084 0.
172.401 -651.935 0.
156.775 -700.034 0.
125.444 -773.242 0.
3.73327 -896.281 0.
-75.7598 -1079.53 0.
-155.253 -1262.78 0.
-208.429 -1307.95 0.
-79.8392 -1006.67 0.
48.7506 -705.383 0.
125.793 -609.152 0.
78.5744 -718.213 0.
31.3557 -827.274 0.
23.7685 -818.6 0.
48.4497 -761.264 0.
-208.398 -824.499 0.
-71.9027 -852.82 0.
-118.452 -964.643 0.
-330.415 -1110.75 0.
-268.937 -964.292 0.
-207.458 -817.829 0.
45.5466 -683.074 0.
-8.87382 -808.511 0.
-63.2942 -933.948 0.
60.5969 -908.289 0.
69.3825 -886.926 0.
78.168 -865.564 0.
-249.839 -997.708 0.
-246.738 -992.061 0.
54.7593 -854.655 0.
93.0328 -767.142 0.
131.306 -679.63 0.
-419.333 -842.13 0.
-381.563 -753.172 0.
-343.794 -664.215 0.
66.5141 -514.837 0.
11.3943 -642.921 0.
-43.7254 -771.005 0.
266.35 -676.415 0.
257.562 -697.886 0.
881.542 -447.97 0.
416.023 -662.627 0.
408.381 -681.064 0.
-251.013 -963.763 0.
-225.777 -904.894 0.
-200.54 -846.024 0.
-323.453 -842.467 0.
-293.338 -767.17 0.
-263.222 -691.873 0.
-168.669 -693.172 0.
-219.982 -809.513 0.
-271.296 -925.854 0.
226.064 -629.292 0.
279.915 -502.942 0.
-8.42513 -553.09 0.
-87.7477 -737.945 0.
-167.07 -922.799 0.
56.8792 -909.066 0.
78.837 -857.024 0.
100.795 -804.982 0.
80.4154 -873.274 0.
6.18811 -1047.34 0.
-68.039 -1221.4 0.
-268.814 -1177.62 0.
-160.754 -928.774 0.
303.839 -535.581 0.
-118.652 -801.899 0.
-162.603 -905.936 0.
192.299 -825.53 0.
162.76 -892.656 0.
133.222 -959.782 0.
-271.553 -1124.39 0.
-226.002 -1020.28 0.
-180.451 -916.167 0.
-226.349 -902.181 0.
-222.581 -893.868 0.
-218.813 -885.555 0.
25.621 -790.532 0.
23.5553 -797.198 0.
-61.6167 -839.175 0.
-91.7108 -912.803 0.
-121.805 -986.432 0.
-278.11 -1045.47 0.
-202.06 -870.802 0.
-126.009 -696.133 0.
221.559 -486.098 0.
220.071 -486.577 0.
218.583 -487.057 0.
-58.6449 -715.304 0.
-133.094 -889.08 0.
40.4128 358.245 0.
331.981 -452.43 0.
180.748 -808.392 0.
82.7616 -443.299 0.
103.073 -397.279 0.
861.192 1371.19 0.
135.193 503.932 0.
-255.238 -409.247 0.
-20.7529 135.29 0.
246.272 -366.479 0.
450.482 107.966 0.
641.84 552.88 0.
396.502 -349.394 0.
638.056 215.513 0.
660.957 784.451 0.
309.252 -36.8491 0.
694.946 862.634 0.
593.697 890.649 0.
570.005 834.555 0.
131.322 -189.734 0.
525.13 59.8801 0.
753.238 592.12 0.
1107.16 1418.13 0.
301.121 113.89 0.
382.94 303.249 0.
448.317 292.442 0.
374.668 -120.478 0.
967.028 1258.62 0.
578.711 1086.96 0.
361.109 579.745 0.
-64.0256 -411.557 0.
596.14 715.002 0.
459.029 391.588 0.
605.119 729.044 0.
837.709 736.49 0.
432.416 -209.451 0.
556.676 79.975 0.
62.4019 -363.485 0.
116.71 -237.144 0.
217.419 -15.5504 0.
468.14 568.449 0.
96.4782 -299.995 0.
128.754 496.569 0.
97.0012 420.108 0.
461.512 1268.22 0.
1009.26 1427.04 0.
481.579 194.174 0.
834.368 1015.49 0.
788.953 747.56 0.
982.526 1201.74 0.
-4181.21 -1060.16 0.
920.573 307.467 0.
1016.94 533.472 0.
106.4 -10.0728 0.
462.96 819.678 0.
133.629 49.3373 0.
-247.577 -269.705 0.
272.043 940.621 0.
110.253 561.463 0.
530.89 594.474 0.
684.751 950.796 0.
489.317 491.809 0.
830.592 509.629 0.
788.052 407.437 0.
272.229 268.904 0.
533.348 876.953 0.
374.083 504.283 0.
718.591 434.303 0.
793.248 608.489 0.
945.203 963.035 0.
652.481 695.423 0.
292.363 -143.799 0.
252.161 -236.373 0.
-12.3611 -260.929 0.
-103.056 -470.98 0.
758.344 806.411 0.
87.2977 -276.99 0.
448.595 569.465 0.
476.381 -189.363 0.
338.44 -511.354 0.
436.002 -284.131 0.
640.783 926.841 0.
435.4 448.121 0.
62.3651 -421.299 0.
-66.1322 -280.449 0.
53.068 -1.94092 0.
154.631 235.024 0.
167.635 -615.744 0.
218.167 -495.937 0.
999.221 1495.55 0.
650.204 685.787 0.
306.162 -112.969 0.
267.366 500.541 0.
512.541 1075.96 0.
162.277 261.998 0.
409.707 -501.375 0.
432.032 -450.841 0.
865.98 561.055 0.
150.584 177.99 0.
395.43 750.519 0.
-371.033 -1287.67 0.
73.7576 -1064.56 0.
61.9348 -1093.65 0.
-398.535 -1267.97 0.
-291.595 -1018.87 0.
-184.655 -769.763 0.
-33.7429 -621.374 0.
-73.7192 -716.496 0.
-113.695 -811.617 0.
-86.4133 -840.55 0.
-97.6888 -867.298 0.
-108.964 -894.046 0.
-183.261 -1113.69 0.
-292.003 -1367.24 0.
-195.46 -1484.84 0.
-74.7989 -1204.69 0.
45.8625 -924.545 0.
-227.999 -941.57 0.
-315.835 -1148.32 0.
-403.671 -1355.08 0.
-30.6266 -1194.18 0.
43.6396 -1022.68 0.
117.906 -851.191 0.
3.57561 -851.358 0.
14.879 -827.05 0.
566.916 -571.144 0.
-224.562 -822.108 0.
-174.257 -705.559 0.
-75.0931 -612.904 0.
-143.899 -774.376 0.
-212.706 -935.849 0.
15.6386 -884.196 0.
49.6668 -807.957 0.
83.6952 -731.717 0.
-14.2202 -844.563 0.
-86.4365 -1015.19 0.
-158.653 -1185.82 0.
-117.842 -1138.21 0.
-88.0431 -1068.98 0.
-269.906 -1083.86 0.
-191.792 -902.658 0.
-113.679 -721.452 0.
-260.665 -752.382 0.
-366.299 -999.967 0.
-471.934 -1247.55 0.
-146.159 -1080.84 0.
-33.804 -822.012 0.
78.5516 -563.182 0.
205.102 -481.819 0.
191.054 -514.176 0.
-1362.69 -1207.53 0.
386.113 -523.225 0.
351.587 -603.541 0.
-213.006 -918.636 0.
-268.573 -1048.06 0.
-324.14 -1177.48 0.
-422.368 -1221.33 0.
-350.669 -1053.32 0.
-278.97 -885.321 0.
-131.238 -795.876 0.
-148.03 -837.069 0.
-164.821 -878.263 0.
95.7959 -746.8 0.
111.528 -711.946 0.
-8.41617 -743.936 0.
-38.7768 -816.304 0.
-69.1382 -888.672 0.
133.461 -793.863 0.
208.337 -617.952 0.
283.213 -442.041 0.
42.8906 -543.519 0.
-14.0229 -675.21 0.
-70.9359 -806.901 0.
-132.451 -987.343 0.
-219.868 -1188.55 0.
-151.695 -1314.07 0.
-439.971 -1361.3 0.
-402.29 -1268.85 0.
137.375 -982.872 0.
134.053 -991.799 0.
130.731 -1000.73 0.
-242.671 -1076.29 0.
-140.941 -837.081 0.
-39.2106 -597.876 0.
-251.908 -787.01 0.
-375.896 -1075.34 0.
-499.883 -1363.68 0.
-99.647 -1064.76 0.
-17.6976 -871.037 0.
72.8963 -696.64 0.
84.8427 -664.754 0.
96.7892 -632.868 0.
-418.846 -880.397 0.
-490.013 -1043.82 0.
-561.179 -1207.23 0.
-90.4763 -1145.59 0.
-163.131 -1315.81 0.
-235.785 -1486.03 0.
-229.192 -1290.55 0.
-80.2915 -943.648 0.
5.55629 -1095.09 0.
95.3137 -1024.18 0.
83.0749 -1053.2 0.
-538.548 -1296.48 0.
-431.939 -1047.08 0.
-325.331 -797.676 0.
366.146 -418.666 0.
326.115 -513.875 0.
286.084 -609.084 0.
-229.365 -870.676 0.
-240.767 -897.428 0.
-252.168 -924.181 0.
-476.073 -1208.26 0.
-584.766 -1461.91 0.
-35.8153 -1383.93 0.
84.8326 -1103.71 0.
205.481 -823.495 0.
-256.261 -921.903 0.
-344.145 -1128.23 0.
-432.03 -1334.56 0.
-36.0788 -1166.13 0.
38.0319 -994.815 0.
112.143 -823.499 0.
164.652 -750.446 0.
175.808 -726.561 0.
-376.41 -944.448 0.
-573.812 -939.311 0.
-523.672 -823.264 0.
35.534 -535.269 0.
-33.4109 -696.844 0.
-102.356 -858.419 0.
162.664 -788.363 0.
196.986 -712.326 0.
231.308 -636.288 0.
-209.624 -895.296 0.
-282.145 -1065.65 0.
-354.666 -1236.01 0.
84.8655 -1021.39 0.
114.566 -951.965 0.
-290.241 -1061.16 0.
-211.752 -880.17 0.
-133.263 -699.184 0.
-68.7267 -637.837 0.
-174.471 -885.473 0.
-280.215 -1133.11 0.
-228.694 -1085.56 0.
-116.56 -826.562 0.
-4.42559 -567.56 0.
153.194 -472.142 0.
139.33 -504.618 0.
-43.8544 -610.299 0.
184.793 -577.886 0.
150.653 -658.338 0.
-110.861 -843.267 0.
-166.534 -973.052 0.
-222.207 -1102.84 0.
-119.782 -1059.03 0.
-48.0015 -891.312 0.
23.7792 -723.597 0.
-196.579 -792.299 0.
-213.329 -833.478 0.
-230.078 -874.658 0.
-130.56 -812.609 0.
-114.957 -777.958 0.
198.165 -623.036 0.
168.424 -696.093 0.
138.684 -769.149 0.
73.678 -787.603 0.
148.546 -611.737 0.
223.414 -435.872 0.
-37.02 -547.164 0.
-93.5101 -679.046 0.
-150 -810.929 0.
117.479 -848.874 0.
30.2074 -1050.27 0.
-216.168 -1309.43 0.
-501.303 -1356.24 0.
-463.079 -1264.45 0.
155.982 -943.333 0.
152.688 -952.183 0.
149.394 -961.033 0.
-258.635 -1051.74 0.
-156.612 -812.663 0.
-54.5885 -573.588 0.
-197.483 -732.789 0.
-321.408 -1021.08 0.
-445.333 -1309.38 0.
-175.427 -1066.14 0.
-93.1849 -872.693 0.
104.954 -651.667 0.
117.222 -619.914 0.
129.491 -588.161 0.
-516.482 -889.595 0.
-587.399 -1053.22 0.
-658.316 -1216.84 0.
-349.608 -1225.59 0.
-422.236 -1396.02 0.
-494.865 -1566.44 0.
93.3861 -1120.81 0.
242.654 -774.741 0.
412.863 -429.777 0.
280.159 -533.896 0.
287.249 -515.088 0.
-352.582 -797.28 0.
-408.081 -925.667 0.
-463.58 -1054.05 0.
321.293 -779.276 0.
319.215 -781.696 0.
317.137 -784.115 0.
-306.372 -974.601 0.
-240.818 -821.855 0.
-175.265 -669.11 0.
-303.189 -708.335 0.
-304.521 -711.561 0.
298.464 -460.781 0.
259.207 -548.973 0.
219.95 -637.164 0.
-184.381 -852.297 0.
-173.85 -825.456 0.
-163.319 -798.616 0.
133.52 -620.514 0.
172.425 -528.256 0.
211.33 -435.997 0.
207.076 -540.14 0.
127.488 -725.796 0.
-75.1444 -963.802 0.
-622.471 -1141.81 0.
-598.069 -1083.39 0.
-132.844 -862.323 0.
-155.209 -914.651 0.
-177.574 -966.978 0.
213.014 -738.751 0.
317.157 -493.583 0.
421.3 -248.414 0.
-102.493 -447.929 0.
-134.635 -524.413 0.
-166.777 -600.897 0.
277.532 -450.78 0.
255.595 -502.156 0.
-149.397 -716.434 0.
-169.531 -763.877 0.
-189.664 -811.32 0.
-31.5105 -757.729 0.
-10.5404 -708.442 0.
10.4299 -659.155 0.
-34.4464 -646.766 0.
-18.0407 -607.793 0.
-1.63525 -568.82 0.
166.57 -465.101 0.
186.578 -418.827 0.
-2667.93 -1603.62 0.
163.061 -549.518 0.
79.0458 -744.687 0.
-138.36 -939.668 0.
-88.3089 -825.01 0.
-38.2576 -710.352 0.
207.728 -540.402 0.
224.89 -499.978 0.
242.052 -459.554 0.
-190.09 -655.171 0.
-208.987 -699.003 0.
-227.884 -742.836 0.
-101.283 -696.945 0.
-104.411 -701.22 0.
228.379 -579.655 0.
149.414 -761.926 0.
70.4501 -944.197 0.
-170.542 -1142.31 0.
-162.283 -1122.88 0.
-154.025 -1103.46 0.
-220.532 -1052.12 0.
-159.208 -907.832 0.
-97.8846 -763.54 0.
208.159 -534.995 0.
253.173 -430.643 0.
14.0963 -463.733 0.
-205.264 -786.409 0.
-324.847 -1066.41 0.
47.4983 -1033.55 0.
138.478 -819.085 0.
229.458 -604.624 0.
-72.6895 -717.964 0.
-154.897 -908.022 0.
-237.105 -1098.08 0.
-278.825 -977.601 0.
-136.768 -647.142 0.
5.28818 -316.682 0.
9.69196 -462.886 0.
-86.5225 -687.558 0.
9.21152 -802.505 0.
8.01836 -806.912 0.
6.82541 -811.32 0.
-570.251 -1030.49 0.
-513.69 -901.172 0.
-457.128 -771.858 0.
-177.476 -653.144 0.
-222.747 -758.903 0.
-268.019 -864.663 0.
366.948 -610.918 0.
369.801 -607.742 0.
356.057 -426.603 0.
228.165 -525.173 0.
235.227 -506.217 0.
-246.511 -720.34 0.
-301.867 -848.713 0.
-357.223 -977.086 0.
230.308 -785.199 0.
228.832 -788.124 0.
227.355 -791.05 0.
-215.389 -904.912 0.
-149.789 -752.175 0.
-84.1894 -599.437 0.
-82.1038 -580.613 0.
-83.3166 -584.138 0.
27.5101 -544.981 0.
-12.2163 -633.015 0.
-51.9424 -721.049 0.
-21.3029 -751.314 0.
-10.3892 -724.738 0.
0.524312 -698.162 0.
16.5823 -638.653 0.
55.415 -546.381 0.
94.2477 -454.108 0.
-23.7666 -606.624 0.
-103.166 -792.557 0.
-104.048 -944.716 0.
-152.257 -909.157 0.
-127.7 -850.717 0.
-275.939 -892.118 0.
-298.163 -944.448 0.
-320.388 -996.778 0.
161.551 -730.072 0.
265.802 -485.034 0.
370.053 -239.995 0.
-90.1619 -410.017 0.
-122.177 -486.454 0.
-154.192 -562.891 0.
-13.6757 -545.336 0.
-35.6468 -596.312 0.
-107.55 -667.836 0.
-127.851 -714.865 0.
-148.151 -761.895 0.
30.1463 -700.609 0.
51.1352 -651.188 0.
72.1242 -601.766 0.
90.7548 -560.374 0.
107.86 -522.013 0.
124.966 -483.651 0.
265.468 -390.743 0.
285.645 -344.601 0.
-1398.61 -1027.91 0.
315.963 -451.918 0.
231.594 -646.934 0.
-172.326 -923.378 0.
-122.203 -808.549 0.
-72.0801 -693.72 0.
204.63 -511.097 0.
221.869 -470.7 0.
239.108 -430.303 0.
-223.148 -638.414 0.
-241.586 -682.721 0.
-260.024 -727.027 0.
102.757 -577.318 0.
99.4578 -581.641 0.
73.9859 -613.337 0.
-4.46229 -795.988 0.
-82.9101 -978.638 0.
-304.36 -1167.85 0.
-295.957 -1148.75 0.
-287.554 -1129.65 0.
-32.4074 -940.021 0.
29.0177 -795.618 0.
90.442 -651.216 0.
-105.204 -639.002 0.
-60.5666 -534.36 0.
-99.3625 -479.502 0.
16.0902 -658.763 0.
-103.797 -938.942 0.
-105.594 -1068.88 0.
-14.5809 -854.637 0.
76.4323 -640.39 0.
81.7663 -619.762 0.
-0.192875 -810.3 0.
-82.1522 -1000.84 0.
-245.241 -931.137 0.
-102.607 -601.257 0.
40.0288 -271.377 0.
-64.6412 -463.864 0.
-160.492 -689.027 0.
-62.4938 -801.304 0.
-63.2761 -805.721 0.
-64.0581 -810.138 0.
-414.719 -932.073 0.
-358.041 -802.751 0.
-301.363 -673.429 0.
-73.2288 -577.226 0.
-118.616 -682.993 0.
-164.004 -788.759 0.
230.523 -639.358 0.
233.235 -637.004 0.
463.859 -11.4979 0.
547.072 352.74 0.
352.515 -102.129 0.
446.504 727.444 0.
-142.047 -646.851 0.
-100.327 -549.944 0.
337.053 -328.853 0.
867.225 910.543 0.
714.075 555.104 0.
246.919 26.1925 0.
592.106 832.662 0.
237.952 8.18374 0.
365.262 76.3114 0.
755.228 987.467 0.
560.421 1252.67 0.
98.3056 170.879 0.
-28.5464 -128.069 0.
325.36 -223.579 0.
660.278 558.664 0.
732.534 728.108 0.
183.451 10.4659 0.
284.353 247.715 0.
327.689 350.592 0.
-96.1853 -320.513 0.
467.353 993.631 0.
496.374 110.869 0.
613.891 20.7996 0.
893.331 674.441 0.
-233.943 -508.842 0.
421.867 1024.04 0.
367.008 898.977 0.
419.533 12.5162 0.
764.581 817.251 0.
792.943 883.279 0.
7.27733 -180.877 0.
-17.0603 -236.605 0.
161.378 180.631 0.
-22.3807 18.7116 0.
-149.559 -278.764 0.
188.826 -30.8405 0.
392.224 448.742 0.
465.708 625.343 0.
559.111 445.352 0.
614.781 575.574 0.
398.695 71.6547 0.
440.806 48.3067 0.
374.022 -106.717 0.
670.408 585.359 0.
685.677 434.478 0.
630.718 306.072 0.
-2252.23 -1594.56 0.
939.121 740.158 0.
768.662 341.865 0.
175.149 -15.9577 0.
444.927 613.135 0.
492.414 723.453 0.
851.072 1034.54 0.
1007.27 1400.03 0.
464.504 134.851 0.
8.30956 -16.0045 0.
-74.1874 -209.774 0.
501.459 1132.03 0.
618.815 277.85 0.
511.979 25.4525 0.
181.226 -48.7159 0.
137.706 -145.014 0.
506.506 720.672 0.
382.382 710.562 0.
694.904 1442.21 0.
179.56 242.36 0.
346.887 -382.828 0.
814.221 712.214 0.
1269.42 1779.02 0.
-164.386 -168.429 0.
-525.82 -1013.25 0.
35.0419 730.722 0.
718.601 592.01 0.
683.191 508.816 0.
522.212 721.993 0.
47.8681 -388.07 0.
622.01 948.051 0.
597.588 324.594 0.
874.496 969.656 0.
776.673 740.447 0.
100.714 -161.269 0.
207.573 88.4727 0.
165.235 -9.32634 0.
359.84 692.368 0.
169.065 246.926 0.
597.848 901.963 0.
532.213 750.686 0.
38.9375 -398.957 0.
-102.485 -479.264 0.
336.324 545.234 0.
-49.6258 -354.856 0.
-17.3753 -602.866 0.
-37.287 -648.412 0.
564.493 755.518 0.
499.953 259.499 0.
150.058 -554.207 0.
96.0529 -1027.63 0.
-54.3833 -1022.55 0.
-30.1389 -967.666 0.
-338.885 -1076.69 0.
-375.213 -1163.46 0.
-411.541 -1250.22 0.
-30.2678 -1024.59 0.
94.5402 -731.61 0.
219.348 -438.627 0.
-91.8577 -657.493 0.
-228.984 -978.723 0.
-366.11 -1299.95 0.
-167.949 -1028.97 0.
-33.2409 -713.966 0.
-63.5951 -504.802 0.
-112.104 -623.521 0.
-160.614 -742.241 0.
18.8696 -699.574 0.
66.8438 -587.291 0.
114.818 -475.008 0.
-99.0947 -706.571 0.
-274.601 -1115.81 0.
-450.107 -1525.04 0.
-414.552 -1502.84 0.
-360.133 -1373.52 0.
108.381 -1066.84 0.
-103.098 -1012.36 0.
-22.0062 -823.367 0.
-225.969 -793.198 0.
-246.684 -843.043 0.
-267.4 -892.888 0.
-63.072 -837.331 0.
-76.1541 -867.686 0.
-89.2363 -898.041 0.
-228.768 -1033.22 0.
-281.454 -1155.75 0.
-334.14 -1278.29 0.
-638.565 -1195.9 0.
-505.352 -886.385 0.
61.8651 -427.833 0.
31.5147 -500.407 0.
1.16425 -572.981 0.
99.0367 -551.979 0.
128.559 -485.02 0.
158.08 -418.062 0.
307.78 -380.547 0.
259.936 -493.687 0.
212.092 -606.826 0.
156.108 -753.488 0.
88.6047 -911.476 0.
127.701 -1024.51 0.
227.621 -874.237 0.
283.75 -743.222 0.
-176.333 -846.92 0.
-152.01 -791.458 0.
-127.687 -735.996 0.
1.51653 -668.19 0.
-14.4198 -705.711 0.
-30.3563 -743.232 0.
-189.261 -794.598 0.
-167.926 -741.823 0.
-146.591 -689.049 0.
22.0159 -759.018 0.
-64.3725 -963.132 0.
-297.665 -1197.96 0.
-244.647 -1070.84 0.
-191.629 -943.715 0.
-154.411 -836.46 0.
-127.57 -772.308 0.
-100.73 -708.156 0.
179.669 -600.543 0.
147.012 -676.58 0.
114.356 -752.617 0.
-339.843 -851.177 0.
-263.315 -673.985 0.
-152.025 -475.393 0.
133.714 -382.118 0.
118.876 -417.618 0.
-59.2401 -572.507 0.
-174.798 -847.599 0.
-290.357 -1122.69 0.
-98.6841 -1071.8 0.
4.39319 -832.59 0.
107.471 -593.376 0.
-14.2567 -547.154 0.
16.8454 -473.73 0.
47.9475 -400.305 0.
-105.934 -468.089 0.
-111.541 -481.697 0.
-132.092 -513.172 0.
-178.765 -620.563 0.
-225.438 -727.955 0.
-260.831 -813.788 0.
-282.479 -863.129 0.
-304.127 -912.471 0.
-152.599 -765.912 0.
-59.5359 -548.248 0.
33.5271 -330.584 0.
234.34 -394.153 0.
106.708 -690.898 0.
193.761 -957.89 0.
-52.709 -991.756 0.
-28.2254 -936.83 0.
-335.53 -1042.39 0.
-371.308 -1129.46 0.
-407.087 -1216.53 0.
-99.3811 -1022.7 0.
25.6905 -729.706 0.
150.762 -436.713 0.
-128.907 -641.846 0.
-265.715 -963.373 0.
-402.524 -1284.9 0.
-225.517 -1021.35 0.
-90.8402 -706.596 0.
117.787 -395.551 0.
68.5759 -513.614 0.
19.3648 -631.676 0.
-89.253 -715.287 0.
-41.3458 -602.911 0.
6.56157 -490.536 0.
-52.1501 -656.251 0.
-227.633 -1065.51 0.
-403.116 -1474.78 0.
-166.704 -1365.21 0.
-112.658 -1235.48 0.
54.7943 -1057.26 0.
-424.407 -1120.76 0.
-343.035 -932.289 0.
-47.4175 -683.935 0.
-67.6449 -734.391 0.
-87.8728 -784.847 0.
-193.909 -861.32 0.
-206.826 -891.83 0.
-219.743 -922.34 0.
-52.7249 -924.909 0.
-105.283 -1047.55 0.
-157.84 -1170.18 0.
-741.892 -1209.74 0.
-608.928 -899.734 0.
136.449 -364.557 0.
105.816 -436.597 0.
75.1832 -508.637 0.
75.0432 -531.603 0.
104.883 -464.893 0.
134.722 -398.184 0.
387.579 -315.709 0.
339.671 -428.817 0.
291.762 -541.925 0.
150.468 -725.486 0.
82.7936 -883.277 0.
-343.781 -1194.48 0.
219.452 -845.884 0.
275.765 -714.993 0.
-155.041 -806.438 0.
-130.443 -751.441 0.
-105.845 -696.444 0.
-128.858 -692.688 0.
-144.952 -729.967 0.
-161.046 -767.246 0.
-8.39226 -686.477 0.
13.0499 -633.887 0.
34.4919 -581.297 0.
-147.709 -800.071 0.
-233.933 -1003.84 0.
-262.044 -1150.87 0.
-208.579 -1023.92 0.
-155.114 -896.963 0.
17.1904 -732.13 0.
44.3932 -668.163 0.
71.5964 -604.196 0.
107.007 -598.887 0.
75.0907 -675.647 0.
43.1746 -752.406 0.
-177.152 -750.865 0.
-100.569 -574.054 0.
128.477 -323.204 0.
-55.6446 -431.431 0.
-70.5701 -467.143 0.
-76.8091 -549.488 0.
-192.455 -824.561 0.
-308.102 -1099.64 0.
-204.463 -1086.31 0.
-100.97 -847.521 0.
2.52379 -608.731 0.
62.2263 -482.762 0.
93.8875 -410.041 0.
125.549 -337.321 0.
-50.906 -413.426 0.
-56.6855 -426.928 0.
-269.712 -540.118 0.
-316.304 -647.348 0.
-362.895 -754.577 0.
-262.306 -783.707 0.
-284.154 -832.731 0.
-306.002 -881.756 0.
-218.115 -763.693 0.
-125.234 -546.177 0.
-32.352 -328.661 0.
270.291 -345.874 0.
143.21 -643.299 0.
232.506 -784.122 0.
19.0785 -784.707 0.
103.618 -584.665 0.
-119.653 -566.284 0.
-161.787 -661.299 0.
-203.922 -756.314 0.
-26.5939 -730.838 0.
-37.6756 -756.314 0.
-48.7573 -781.789 0.
-227.438 -809.126 0.
-182.601 -703.176 0.
-137.765 -597.225 0.
-89.1512 -569.914 0.
-91.1832 -574.498 0.
137.073 -476.926 0.
167.636 -402.999 0.
198.2 -329.073 0.
20.897 -413.984 0.
-63.7201 -610.017 0.
-148.337 -806.049 0.
-53.0482 -787.557 0.
-4.8585 -676.619 0.
43.3314 -565.681 0.
215.257 -345.655 0.
306.011 -135.554 0.
500.077 119.881 0.
-186.421 -433.177 0.
-331.354 -767.192 0.
-44.4908 -833.176 0.
22.3935 -672.771 0.
89.2771 -512.367 0.
-202.983 -599.875 0.
-248.118 -702.557 0.
-293.253 -805.239 0.
134.003 -525.951 0.
236.821 -286.34 0.
339.638 -46.7302 0.
-270.061 -438.792 0.
-363.212 -655.559 0.
9.08968 -649.87 0.
26.026 -609.722 0.
42.9621 -569.574 0.
16.4964 -554.368 0.
19.0935 -545.155 0.
21.6907 -535.941 0.
291.024 -465.158 0.
249.927 -559.549 0.
208.829 -653.941 0.
102.764 -772.057 0.
63.7527 -862.863 0.
-253.072 -1074.62 0.
287.154 -697.323 0.
363.811 -518.645 0.
-84.9602 -587.021 0.
-64.3813 -538.257 0.
-43.8023 -489.492 0.
-11.9108 -474.939 0.
-31.2115 -522.483 0.
-50.5125 -570.026 0.
81.1445 -471.002 0.
124.611 -369.669 0.
168.077 -268.337 0.
-48.402 -495.147 0.
-132.219 -689.687 0.
-155.701 -827.864 0.
-101.578 -700.413 0.
-47.4546 -572.963 0.
219.277 -447.785 0.
127.645 -660.88 0.
36.0134 -873.976 0.
-57.3177 -881.097 0.
41.5974 -646.142 0.
140.512 -411.187 0.
-11.4888 -484.357 0.
-42.1377 -558.675 0.
670.63 -312.904 0.
-164.427 -571.201 0.
-112.89 -450.274 0.
-68.1844 -384.022 0.
-148.699 -566.393 0.
-229.213 -748.764 0.
-110.952 -781.899 0.
-112.823 -782.492 0.
-114.693 -783.085 0.
-67.7924 -759.442 0.
-63.0133 -748.821 0.
-58.2347 -738.199 0.
-153.26 -742.122 0.
-132.209 -692.523 0.
-437.921 -784.842 0.
-415.26 -733.324 0.
-392.599 -681.806 0.
-156.33 -542.234 0.
-146.551 -519.962 0.
-136.772 -497.689 0.
-158.676 -567.98 0.
-224.279 -723.458 0.
-289.884 -878.936 0.
38.7517 -813.135 0.
12.0688 -875.318 0.
56.2758 -827.153 0.
1.02921 -763.499 0.
85.3739 -562.91 0.
-73.8359 -513.075 0.
-115.499 -608.316 0.
-157.162 -703.557 0.
-54.9821 -712.69 0.
-66.1794 -738.065 0.
-77.3766 -763.439 0.
-227.092 -776.688 0.
-182.011 -670.857 0.
-136.931 -565.026 0.
-128.762 -556.431 0.
-130.622 -561.373 0.
113.66 -453.334 0.
144.41 -379.52 0.
175.16 -305.706 0.
112.29 -344.522 0.
27.4947 -540.374 0.
-57.3007 -736.226 0.
53.3781 -710.409 0.
101.739 -599.723 0.
150.099 -489.036 0.
-119.496 -456.023 0.
-28.9431 -245.908 0.
-148.412 -125.042 0.
21.8592 -314.87 0.
-123.082 -648.891 0.
-33.4732 -794.747 0.
33.9706 -634.986 0.
101.414 -475.225 0.
-338.522 -626.546 0.
-383.264 -729.448 0.
-428.006 -832.349 0.
38.6818 -534.242 0.
141.791 -295.119 0.
244.9 -55.995 0.
204.383 -204.886 0.
111.541 -421.866 0.
-46.1881 -640.586 0.
-28.8637 -600.967 0.
-11.5395 -561.347 0.
-53.5611 -553.737 0.
-50.447 -545.112 0.
-47.3329 -536.488 0.
159.936 -488.053 0.
119.253 -583.219 0.
78.5706 -678.385 0.
65.6392 -756.246 0.
26.8089 -847.342 0.
-228.034 -1032.15 0.
351.199 -637.507 0.
427.105 -458.441 0.
-135.724 -577.269 0.
-115.299 -528.536 0.
-94.8746 -479.803 0.
195.523 -354.915 0.
176.263 -402.529 0.
157.002 -450.144 0.
-57.7649 -498.475 0.
-14.181 -397.202 0.
29.4029 -295.929 0.
76.6531 -409.911 0.
-6.89651 -604.345 0.
-243.006 -834.69 0.
-188.802 -707.141 0.
-134.598 -579.591 0.
273.719 -394.792 0.
182.085 -607.76 0.
90.451 -820.727 0.
-71.2502 -854.612 0.
27.809 -620.003 0.
126.868 -385.395 0.
-4.08967 -449.335 0.
-35.1614 -523.392 0.
507.789 -350.406 0.
-59.2808 -494.409 0.
-7.51242 -373.458 0.
-180.284 -401.44 0.
-259.961 -584.738 0.
-339.636 -768.037 0.
-81.4388 -737.623 0.
-83.1946 -738.367 0.
-84.9506 -739.112 0.
-145.11 -760.157 0.
-139.971 -749.85 0.
-134.832 -739.543 0.
-76.7461 -677.846 0.
-55.7904 -628.03 0.
-419.663 -746.096 0.
-397.346 -693.703 0.
-375.03 -641.31 0.
-112.43 -493.077 0.
-103.12 -470.458 0.
-93.8116 -447.839 0.
-119.879 -519.975 0.
-185.685 -675.471 0.
-251.491 -830.967 0.
-25.7312 -809.745 0.
-52.5851 -872.083 0.
-138.196 -900.898 0.
487.193 449.524 0.
452.657 367.912 0.
-8.68918 -421.21 0.
-182.889 -824.995 0.
205.589 83.8101 0.
-169.239 -884.889 0.
224.939 29.974 0.
-39.0907 -590.518 0.
211.452 280.459 0.
15.6301 -177.832 0.
-138.88 -539.842 0.
161.957 225.58 0.
311.558 572.629 0.
822.581 1284.01 0.
709.276 1019.72 0.
427.498 362.23 0.
440.076 281.967 0.
235.444 -195.139 0.
298.685 -47.5496 0.
497.408 164.931 0.
620.265 450.666 0.
557.214 302.704 0.
-218.751 -27.5128 0.
-178.319 65.7991 0.
-456.21 -3.28269 0.
3.10092 -727.467 0.
335.71 48.8195 0.
552.148 595.455 0.
370.744 174.894 0.
493.683 464.61 0.
-117.079 170.245 0.
-179.481 24.7424 0.
17.772 485.063 0.
267.408 205.463 0.
-55.8327 -548.548 0.
676.329 1159.74 0.
836.263 411.533 0.
454.218 -478.059 0.
41.7959 -308.291 0.
160.932 -31.8843 0.
412.799 554.334 0.
483.559 860.294 0.
429.311 733.492 0.
242.903 298.601 0.
313.642 149.218 0.
209.444 -94.9865 0.
91.4354 -371.129 0.
544.089 465.828 0.
729.537 897.709 0.
269.277 -399.425 0.
611.602 -117.673 0.
736.453 173.072 0.
307.845 584.702 0.
219.458 381.539 0.
522.774 1092.57 0.
692.265 440.992 0.
710.719 486.735 0.
810.884 723.297 0.
-175.086 -480.443 0.
-165.864 -456.214 0.
69.7661 96.071 0.
492.963 346.702 0.
464.44 281.3 0.
543.314 1200.01 0.
170.292 332.205 0.
-20.2136 -109.971 0.
636.388 382.515 0.
783.857 727.271 0.
442.745 -68.2374 0.
288.626 45.0909 0.
271.659 7.57818 0.
262.722 -12.0039 0.
491.528 718.373 0.
161.66 -48.8612 0.
-42.184 -613.929 0.
386.008 367.107 0.
201.288 -58.7901 0.
458.294 1327.78 0.
80.4169 448.248 0.
59.4505 401.562 0.
180.529 -143.875 0.
502.07 603.812 0.
154.488 -209.973 0.
-80.4476 -432.931 0.
-23.0527 -297.688 0.
148.831 104.855 0.
112.487 -353.743 0.
-84.9019 -813.028 0.
-116.503 -37.5013 0.
108.758 489.13 0.
126.353 530.455 0.
232.836 262.879 0.
205.623 202.045 0.
389.707 634.257 0.
406.968 662.634 0.
-406.026 -1236.63 0.
29.5782 -220.001 0.
-45.5219 -704.23 0.
256.206 -2.61974 0.
-90.8445 -829.85 0.
92.7812 -558.204 0.
149.26 -427.038 0.
-53.0251 -445.62 0.
-83.3816 -514.316 0.
-113.738 -583.012 0.
-158.96 -600.121 0.
-118.587 -510 0.
-78.2139 -419.879 0.
103.048 -301.609 0.
122.012 -257.88 0.
140.977 -214.151 0.
-191.218 -348.008 0.
-194.601 -354.552 0.
224.746 -200.942 0.
150.594 -375.891 0.
76.4429 -550.84 0.
43.0883 -680.446 0.
3.07193 -773.565 0.
-36.9442 -866.684 0.
-31.8667 -832.188 0.
29.7403 -687.856 0.
91.3472 -543.524 0.
-338.001 -672.148 0.
-317.696 -626.649 0.
-14.5026 -459.559 0.
115.149 -397.56 0.
119.772 -386.113 0.
-42.264 -465.786 0.
-85.5453 -566.593 0.
-128.827 -667.4 0.
-258.519 -742.518 0.
-225.182 -665.499 0.
-191.846 -588.481 0.
8.20739 -434.69 0.
38.834 -359.478 0.
69.4604 -284.266 0.
116.08 -379.628 0.
43.4882 -548.222 0.
48.7437 -659.263 0.
106.881 -524.069 0.
165.019 -388.876 0.
-137.885 -497.685 0.
-223.449 -698.033 0.
-309.013 -898.382 0.
-81.0626 -808.71 0.
-18.9642 -666.142 0.
43.1343 -523.573 0.
218.079 -434.594 0.
210.524 -451.267 0.
1391.26 40.798 0.
165.335 -553.021 0.
129.202 -637.209 0.
-163.956 -795.814 0.
-117.71 -686.494 0.
-71.464 -577.175 0.
326.818 -340.856 0.
344.784 -298.188 0.
362.749 -255.52 0.
-136.605 -557.627 0.
-213.95 -736.342 0.
-291.294 -915.056 0.
26.749 -683.504 0.
90.3957 -535.39 0.
-168.485 -539.082 0.
-158.056 -514.497 0.
-147.626 -489.912 0.
103.165 -397.986 0.
57.9242 -501.876 0.
12.6831 -605.766 0.
121.385 -537.332 0.
176.571 -406.965 0.
231.758 -276.598 0.
115.841 -418.317 0.
37.6302 -599.137 0.
515.471 -541.684 0.
-228.155 -775.581 0.
-185.394 -672.884 0.
-389.778 -680.956 0.
-354.816 -598.379 0.
-319.855 -515.802 0.
23.3107 -388.612 0.
-40.3961 -538.336 0.
-104.103 -688.06 0.
-177.909 -767.501 0.
-184.33 -782.972 0.
-190.751 -798.444 0.
8.32473 -680.138 0.
29.2446 -632.116 0.
-316.062 -736.353 0.
-287.785 -671.479 0.
-259.507 -606.605 0.
-249.859 -592.908 0.
-289.293 -685.992 0.
-328.728 -779.075 0.
-76.3072 -692.003 0.
-60.0905 -653.93 0.
-43.874 -615.857 0.
-1.87327 -471.02 0.
71.8095 -298.848 0.
-53.9535 -785.297 0.
154.153 -500.523 0.
210.694 -369.432 0.
-76.2721 -423.725 0.
-106.471 -492.453 0.
-136.669 -561.181 0.
-279.757 -619.33 0.
-239.457 -529.418 0.
-199.157 -439.505 0.
291.362 -190.262 0.
309.764 -145.895 0.
328.166 -101.529 0.
-310.196 -368.707 0.
-313.723 -375.203 0.
289.379 -142.532 0.
214.809 -317.271 0.
140.238 -492.009 0.
80.2079 -633.224 0.
40.1809 -726.53 0.
0.154138 -819.836 0.
-141.153 -847.352 0.
-79.3096 -703.401 0.
-17.466 -559.449 0.
-128.652 -550.74 0.
-108.014 -505.647 0.
633.332 -151.085 0.
95.6959 -373.65 0.
100.668 -362.423 0.
-195.65 -500.122 0.
-238.977 -600.807 0.
-282.304 -701.492 0.
63.0727 -572.772 0.
96.8635 -496.084 0.
130.654 -419.395 0.
42.4942 -387.9 0.
73.7194 -313.418 0.
104.944 -238.935 0.
-334.718 -541.214 0.
-407.413 -709.311 0.
257.295 -540.501 0.
315.074 -404.812 0.
372.853 -269.124 0.
-168.092 -480.888 0.
-253.426 -681.342 0.
-338.76 -881.796 0.
-48.2294 -762.994 0.
14.054 -620.951 0.
76.3374 -478.907 0.
309.926 -362.232 0.
302.621 -379.25 0.
-231.359 -622.446 0.
-134.798 -649.518 0.
-171.379 -733.348 0.
-0.878174 -696.355 0.
45.1672 -587.054 0.
91.2124 -477.754 0.
308.864 -316.973 0.
326.703 -274.33 0.
344.541 -231.686 0.
-33.4042 -482.054 0.
-110.889 -660.483 0.
-188.373 -838.913 0.
12.0093 -659.377 0.
75.4281 -510.907 0.
-109.356 -482.618 0.
-98.5369 -458.181 0.
-87.7179 -433.745 0.
-123.985 -463.499 0.
-168.858 -567.702 0.
-213.731 -671.905 0.
241.344 -453.742 0.
296.371 -323.254 0.
351.398 -192.766 0.
271.275 -320.24 0.
193.407 -501.167 0.
1051.97 -279.826 0.
-364.547 -802.744 0.
-321.072 -700.562 0.
-356.641 -633.554 0.
-321.399 -551.2 0.
-286.157 -468.847 0.
-23.912 -378.412 0.
-88.082 -527.578 0.
-152.252 -676.743 0.
-102.455 -703.132 0.
-108.682 -718.647 0.
-114.909 -734.162 0.
71.6773 -621.101 0.
92.9516 -573.124 0.
-180.102 -645.881 0.
-151.727 -581.176 0.
-123.351 -516.471 0.
-371.653 -613.993 0.
-411.326 -706.924 0.
-450.999 -799.854 0.
58.8806 -603.122 0.
74.933 -564.978 0.
90.9854 -526.834 0.
-55.4519 -462.227 0.
17.4803 -289.289 0.
35.4692 -229.596 0.
200.329 -444.985 0.
71.6592 -743.028 0.
-365.079 -1063.68 0.
-231.001 -752.432 0.
-96.9231 -441.189 0.
-157.73 -382.42 0.
-219.295 -526.004 0.
-280.86 -669.587 0.
78.417 -547.49 0.
79.5832 -546.454 0.
80.7489 -545.418 0.
-380.453 -787.107 0.
-401.358 -836.479 0.
95.1528 -649.755 0.
122.549 -583.812 0.
149.946 -517.87 0.
2.20469 -514.631 0.
53.0127 -398.117 0.
103.821 -281.603 0.
43.6723 -254.63 0.
55.2595 -228.299 0.
66.8468 -201.967 0.
71.8581 -327.181 0.
-19.9848 -538.636 0.
449.815 -508.642 0.
43.8412 -465.305 0.
159.616 -198.157 0.
-91.2331 -149.263 0.
-109.103 -191.917 0.
-126.974 -234.572 0.
282.727 -129.191 0.
209.798 -296.113 0.
136.869 -463.034 0.
-21.9021 -562.823 0.
-5.84873 -525.397 0.
10.2046 -487.97 0.
-445.247 -588.33 0.
-393.093 -467.764 0.
442.544 -32.2077 0.
389.772 -154.206 0.
337 -276.205 0.
-103.688 -523.304 0.
-86.9265 -482.671 0.
-70.1648 -442.039 0.
62.8537 -440.268 0.
-2.38799 -590.567 0.
-67.6292 -740.866 0.
280.125 -433.216 0.
407.291 -134.71 0.
-509.632 -282.666 0.
64.1613 -140.777 0.
10.6877 -268.322 0.
220.398 -273.859 0.
193.629 -339.515 0.
166.86 -405.171 0.
179.831 -438.058 0.
170.624 -461.218 0.
161.417 -484.378 0.
-10.487 -566.621 0.
-13.3121 -575.478 0.
-16.1373 -584.334 0.
47.0773 -381.782 0.
151.84 -138.027 0.
154.333 23.4726 0.
74.2617 -161.306 0.
-5.8098 -346.084 0.
-218.035 -533.782 0.
-218.625 -534.589 0.
-219.216 -535.394 0.
214.454 -383.574 0.
183.918 -457.402 0.
153.381 -531.231 0.
248.911 -486.117 0.
261.764 -455.668 0.
-448.617 -729.794 0.
-383.837 -765.418 0.
-417.6 -842.786 0.
-442.946 -869.8 0.
-356.745 -668.972 0.
-270.544 -468.144 0.
-58.1464 -355.605 0.
-143.841 -559.263 0.
-229.536 -762.921 0.
-122.105 -824.385 0.
-160.662 -911.76 0.
-199.219 -999.135 0.
43.1663 -667.969 0.
175.476 -358.95 0.
68.4683 -196.369 0.
24.9753 -297.177 0.
-18.5174 -397.986 0.
-333.476 -597.35 0.
-349.01 -633.512 0.
-364.545 -669.673 0.
59.9977 -451.848 0.
101.058 -356.431 0.
142.118 -261.013 0.
-73.5556 -357.494 0.
-80.8841 -376.382 0.
-486.231 -425.36 0.
210.937 -409.646 0.
82.8107 -708.185 0.
-339.417 -1020.51 0.
-205.269 -709.405 0.
-71.1221 -398.302 0.
40.8733 -263.671 0.
-20.4167 -407.922 0.
-81.7067 -552.172 0.
-221.015 -645.485 0.
-220.165 -644.416 0.
-219.315 -643.347 0.
37.3693 -576.491 0.
16.7474 -625.979 0.
112.332 -611.746 0.
139.244 -545.623 0.
166.157 -479.5 0.
-312.825 -618.659 0.
-262.436 -501.868 0.
-212.047 -385.076 0.
11.3266 -237.959 0.
22.7845 -211.796 0.
34.2425 -185.633 0.
150.798 -261.781 0.
58.7391 -473.263 0.
-89.9211 -707.974 0.
75.5515 -419.636 0.
191.253 -152.292 0.
-32.9191 -92.8592 0.
-50.6327 -135.565 0.
-68.3464 -178.271 0.
79.0439 -186.638 0.
6.0794 -353.715 0.
-66.8854 -520.791 0.
1.75325 -520.232 0.
17.7154 -482.762 0.
33.6775 -445.293 0.
-198.764 -452.63 0.
-146.854 -331.537 0.
199.075 -105.623 0.
147.161 -228.13 0.
95.2474 -350.636 0.
139.567 -387.662 0.
156.489 -347.332 0.
173.411 -307.001 0.
1.44792 -434.741 0.
-63.2192 -585.794 0.
-127.886 -736.846 0.
220.693 -426.564 0.
347.752 -127.936 0.
-194.687 -115.969 0.
340.439 8.68043 0.
287.022 -118.811 0.
192.931 -254.629 0.
165.547 -319.718 0.
138.164 -384.807 0.
45.2412 -465.036 0.
35.8243 -488.248 0.
26.4073 -511.461 0.
66.2539 -503.624 0.
63.1632 -512.191 0.
60.0723 -520.758 0.
-99.2337 -412.38 0.
5.53459 -168.915 0.
231.329 87.0706 0.
150.933 -97.3163 0.
70.5379 -281.702 0.
-129.892 -465.397 0.
-130.696 -465.741 0.
-131.499 -466.084 0.
-2.68013 -445.882 0.
-33.2445 -519.442 0.
-63.8091 -593.001 0.
251.762 -453.377 0.
264.451 -422.896 0.
-680.045 -797.711 0.
-296.312 -696.66 0.
-329.873 -774.203 0.
-408.453 -824.089 0.
-322.779 -622.521 0.
-237.105 -420.953 0.
-78.7169 -333.323 0.
-164.602 -536.604 0.
-250.488 -739.886 0.
-82.3095 -775.435 0.
-121.134 -862.586 0.
-159.958 -949.735 0.
-5.10063 -658.691 0.
126.722 -349.32 0.
107.932 -147.479 0.
64.8249 -248.668 0.
21.7185 -349.857 0.
-113.778 -471.97 0.
-129.768 -507.573 0.
-145.757 -543.176 0.
-191.639 -529.406 0.
-150.325 -433.974 0.
-109.012 -338.542 0.
-136.392 -352.367 0.
-143.594 -371.074 0.
-183.562 -124.852 0.
345.089 -69.6241 0.
-155.609 -1237.4 0.
-44.539 -351.915 0.
265.981 372.834 0.
124.039 42.0668 0.
287.062 -32.6384 0.
174.329 -295.229 0.
401.54 235.382 0.
-22.8238 414.62 0.
-64.5264 318.001 0.
-317.6 -272.046 0.
505.909 -251.789 0.
344.555 -629.757 0.
591.5 512.896 0.
469.247 228.456 0.
198.12 -402.636 0.
-494.426 -422.109 0.
-0.118986 732.37 0.
-282.827 73.9411 0.
-9.03754 -193.7 0.
211.049 317.684 0.
292.759 506.056 0.
72.851 -565.107 0.
468.873 361.163 0.
997.273 768.407 0.
607.719 796.577 0.
134.881 -304.722 0.
-88.1326 -308.273 0.
98.8207 127.152 0.
7.8545 -85.7401 0.
-57.7904 -87.301 0.
23.7716 102.387 0.
174.77 454.215 0.
577.871 806.817 0.
524.666 684.457 0.
359.338 300.396 0.
381.5 464.979 0.
230.692 112.014 0.
-42.6813 -201.051 0.
-311.364 -828.11 0.
-283.616 -763.54 0.
499.198 31.7938 0.
792.105 715.826 0.
669.872 431.289 0.
282.479 366.246 0.
149.302 57.5823 0.
201.195 180.756 0.
539.607 457.483 0.
561.709 509.583 0.
-900.865 -654.327 0.
623.075 182.33 0.
706.895 375.244 0.
319.346 137.637 0.
369.645 252.792 0.
411.392 347.688 0.
-102.451 -531.55 0.
-232.72 -835.242 0.
14.1345 -258.758 0.
613.649 657.288 0.
633.318 703.78 0.
422.646 212.916 0.
-128.638 -180.815 0.
189.424 560.75 0.
304.656 154.196 0.
250.595 28.6717 0.
200.89 -86.7764 0.
-85.8323 -495.085 0.
217.355 214.323 0.
474.603 816.841 0.
226.37 524.309 0.
300.265 696.831 0.
-12.4083 -33.3008 0.
338.607 -229.946 0.
404.009 -76.6549 0.
-146.182 -365.68 0.
370.359 721.93 0.
16.2834 -104.575 0.
-453.304 -960.409 0.
-191.566 -350.774 0.
-169.365 -300.092 0.
-114.253 -351.618 0.
-93.6514 -299.208 0.
95.4318 147.172 0.
357.084 203.225 0.
395.718 293.008 0.
230.277 -93.3863 0.
260.271 88.9518 0.
437.98 507.33 0.
-225.575 -971.599 0.
475.463 665.089 0.
90.1454 -234.469 0.
175.623 -175.777 0.
181.135 -163.972 0.
381.134 301.242 0.
-137.355 96.4809 0.
-43.338 316.57 0.
-252.723 -170.925 0.
393.247 1029.33 0.
-324.657 -648.933 0.
-267.503 -517.359 0.
33.6706 -287.411 0.
73.0889 -195.44 0.
-117.597 -254.248 0.
-178.579 -397.147 0.
-239.562 -540.045 0.
126.993 -449.538 0.
118.578 -466.74 0.
110.163 -483.942 0.
-296.622 -618.331 0.
-254.683 -521.164 0.
-212.743 -423.996 0.
285.57 -336.263 0.
206.081 -524.447 0.
10.2411 -731.769 0.
93.2839 -542.253 0.
176.327 -352.737 0.
-470.594 -503.213 0.
-431.893 -411.973 0.
-393.192 -320.732 0.
-15.8305 -198.378 0.
-90.1529 -372.509 0.
-164.475 -546.641 0.
159.44 -362.896 0.
216.873 -229.915 0.
293.306 -88.8446 0.
121.147 -284.375 0.
56.9932 -432.703 0.
-80.1008 -564.153 0.
-43.1943 -475.419 0.
-6.28741 -386.684 0.
-276.175 -458.021 0.
-262.887 -429.223 0.
-249.6 -400.424 0.
139.272 -276.865 0.
94.7389 -381.662 0.
50.2056 -486.46 0.
-71.8755 -556.738 0.
-73.2332 -562.011 0.
9.37671 -525.851 0.
39.8902 -452.683 0.
70.4041 -379.515 0.
98.7804 -340.15 0.
79.7996 -385.685 0.
60.8187 -431.219 0.
-49.3067 -545.223 0.
-98.0377 -658.395 0.
-146.769 -771.568 0.
-35.9187 -788.657 0.
-63.5822 -856.327 0.
1863.26 -87.8517 0.
375.392 -511.05 0.
487.814 -247.937 0.
122.507 -262.168 0.
62.9669 -400.251 0.
3.42671 -538.335 0.
-202.309 -670.036 0.
-179.356 -615.644 0.
-156.402 -561.251 0.
168.102 -435.898 0.
148.378 -482.714 0.
128.654 -529.529 0.
-336.179 -593.78 0.
-255.666 -405.79 0.
229.761 -67.9919 0.
188.557 -165.099 0.
147.354 -262.206 0.
2.62838 -388.972 0.
-15.9208 -431.556 0.
-34.4699 -474.141 0.
-227.789 -618.551 0.
-275.902 -726.467 0.
-324.015 -834.383 0.
-1.60633 -711.239 0.
-1.88907 -710.204 0.
79.4829 -674.825 0.
-245.151 -702.353 0.
-186.197 -564.178 0.
-229.722 -504.011 0.
-247.254 -547.291 0.
-264.786 -590.571 0.
67.1502 -358.415 0.
197.074 -53.2647 0.
326.998 251.885 0.
289.168 236.216 0.
224.313 80.4325 0.
159.457 -75.352 0.
-161.149 -419.344 0.
-272.598 -678.364 0.
-288.196 -867.092 0.
-280.015 -846.522 0.
-271.833 -825.952 0.
1.86056 -660.49 0.
63.3155 -519.308 0.
124.77 -378.125 0.
-257.553 -507.084 0.
-269.098 -534.654 0.
-280.642 -562.224 0.
-316.86 -834.939 0.
-486.959 -1234.03 0.
-94.5393 -413.843 0.
-216.831 -365.281 0.
-177.448 -273.358 0.
-239.767 -274.044 0.
-300.111 -417.518 0.
-360.457 -560.991 0.
164.626 -401.209 0.
156.595 -418.516 0.
148.564 -435.823 0.
-72.7905 -490.677 0.
-30.8989 -393.324 0.
10.9931 -295.971 0.
79.791 -393.127 0.
0.564296 -581.615 0.
-28.7605 -715.825 0.
54.4143 -526.56 0.
137.589 -337.295 0.
-378.385 -431.68 0.
-339.664 -340.635 0.
-300.942 -249.59 0.
-8.62748 -163.561 0.
-82.796 -338.003 0.
-156.965 -512.446 0.
178.314 -324.255 0.
235.865 -191.085 0.
-129.628 -239.486 0.
105.617 -259.112 0.
42.0396 -407.862 0.
80.4934 -464.798 0.
117.334 -376.093 0.
154.175 -287.387 0.
-336.61 -452.494 0.
-323.233 -423.547 0.
-309.856 -394.6 0.
190.08 -224.331 0.
145.748 -329.505 0.
101.416 -434.679 0.
-72.5628 -524.85 0.
-73.978 -530.151 0.
257.648 -387.412 0.
288.705 -314.851 0.
319.761 -242.29 0.
-179.345 -428.03 0.
-198.061 -473.874 0.
-216.777 -519.718 0.
35.6468 -477.078 0.
-12.75 -590.737 0.
-61.1467 -704.395 0.
-69.7805 -772.216 0.
-97.2507 -839.959 0.
-415.728 -1031.86 0.
451.854 -445.678 0.
564.784 -182.961 0.
102.962 -240.22 0.
43.3413 -378.261 0.
-16.279 -516.302 0.
-232.976 -651.883 0.
-209.618 -597.742 0.
-186.261 -543.601 0.
212.933 -384.881 0.
193.453 -431.781 0.
173.972 -478.681 0.
-358.882 -571.233 0.
-278.096 -383.463 0.
271.262 -19.1493 0.
229.625 -116.124 0.
187.988 -213.099 0.
74.6579 -327.387 0.
56.0054 -369.83 0.
37.3528 -412.274 0.
-169.29 -562.451 0.
-217.741 -670.43 0.
-266.191 -778.409 0.
-151.122 -745.307 0.
-151.654 -744.059 0.
693.188 -380.519 0.
-235.669 -665.302 0.
-177.025 -526.683 0.
-180.384 -453.822 0.
-198.117 -496.475 0.
-215.85 -539.128 0.
309.779 -223.266 0.
440.404 81.7709 0.
571.031 386.808 0.
205.71 230.925 0.
140.953 75.0762 0.
76.1947 -80.7731 0.
-390.609 -485.371 0.
-501.445 -744.848 0.
-408.929 -885.874 0.
-400.327 -865.591 0.
-391.725 -845.308 0.
60.8327 -604.952 0.
122.219 -463.715 0.
183.606 -322.477 0.
-69.4424 -394.147 0.
-80.9052 -422 0.
-92.3677 -449.854 0.
-191.926 -751.528 0.
-361.75 -1150.55 0.
-625.841 -383.102 0.
-353.281 -346.691 0.
-391.365 -436.099 0.
-241.578 -445.571 0.
-278.471 -529.791 0.
-315.364 -614.011 0.
0.943755 -476.242 0.
50.5738 -362.005 0.
100.203 -247.768 0.
166.441 -182.158 0.
170.74 -172.4 0.
175.039 -162.643 0.
35.0587 -253.358 0.
15.6959 -297.625 0.
89.2544 -296.39 0.
97.4005 -277.206 0.
105.547 -258.023 0.
-292.589 -418.47 0.
-288.882 -411.077 0.
-285.174 -403.684 0.
-128.519 -357.945 0.
-142.955 -392.541 0.
-157.392 -427.138 0.
199.233 -347.21 0.
150.384 -462.884 0.
425.945 -438.291 0.
-75.0042 -570.284 0.
-31.8553 -465.78 0.
235.428 -284.108 0.
231.051 -296.961 0.
226.674 -309.814 0.
-368.962 -539.203 0.
-328.54 -443.884 0.
-288.117 -348.565 0.
132.766 -222.859 0.
69.7382 -369.693 0.
6.71032 -516.528 0.
-43.6725 -486.524 0.
-4.63775 -395.442 0.
345.376 -181.262 0.
322.315 -235.802 0.
299.254 -290.342 0.
-193.582 -561.743 0.
-238.041 -664.154 0.
-282.499 -766.565 0.
-9.52437 -664.389 0.
12.4356 -612.359 0.
34.3956 -560.329 0.
35.6877 -463.307 0.
97.8615 -318.963 0.
-1385.02 -837.02 0.
584.232 -73.5413 0.
541.352 -172.418 0.
30.0197 -441.072 0.
54.5226 -386.43 0.
79.0256 -331.788 0.
-115.469 -431.619 0.
-164.221 -545.893 0.
-212.972 -660.168 0.
175.225 -388.575 0.
281.565 -139.98 0.
387.906 108.616 0.
-204.095 -298.432 0.
-305.561 -534.003 0.
40.2974 -536.906 0.
136.01 -312.69 0.
231.722 -88.4749 0.
226.356 15.4807 0.
205.639 -32.8444 0.
184.923 -81.1697 0.
3.39132 -224.332 0.
-48.6887 -350.511 0.
-100.769 -476.691 0.
-104.428 -495.618 0.
-98.4601 -484.379 0.
634.39 -163.434 0.
-164.532 -487.808 0.
-153.032 -463.997 0.
-194.662 -436.516 0.
-128.292 -282.19 0.
-61.9221 -127.864 0.
440.023 64.6978 0.
333.801 -183.606 0.
227.579 -431.911 0.
-120.996 -537.017 0.
-35.1858 -332.93 0.
50.6249 -128.845 0.
-395.838 -379.693 0.
-441.302 -486.138 0.
-271.231 -498.083 0.
-307.595 -584.963 0.
-343.959 -671.843 0.
69.9107 -507.972 0.
120.026 -390.866 0.
170.141 -273.759 0.
-40.1442 -421.476 0.
-131.649 -634.907 0.
-223.154 -848.339 0.
-261.224 -774.452 0.
-173.033 -568.591 0.
11.6836 -79.329 0.
-432.908 -349.965 0.
-470.832 -439.629 0.
66.1583 -281.584 0.
29.6522 -366.208 0.
-6.85449 -450.832 0.
-318.195 -580.974 0.
-268.572 -466.665 0.
-218.95 -352.358 0.
242.655 -118.184 0.
247.095 -108.643 0.
251.534 -99.1026 0.
17.8088 -229.307 0.
-1.60272 -273.575 0.
-0.645156 -303.25 0.
7.45879 -284.044 0.
15.5629 -264.837 0.
-147.99 -324.852 0.
-144.051 -317.855 0.
-140.112 -310.858 0.
-187.268 -349.709 0.
-201.516 -384.538 0.
-215.763 -419.367 0.
287.157 -277.973 0.
238.301 -393.508 0.
1060.23 -133.841 0.
-141.238 -567.685 0.
-97.7832 -463.493 0.
303.815 -222.336 0.
299.52 -235.42 0.
295.226 -248.503 0.
-267.066 -464.69 0.
-226.717 -369.501 0.
-186.368 -274.313 0.
-29.0464 -261.639 0.
-92.009 -408.849 0.
-154.972 -556.059 0.
13.9934 -429.465 0.
53.0943 -338.578 0.
147.385 -234.723 0.
124.403 -289.339 0.
101.42 -343.954 0.
196.657 -362.912 0.
152.549 -465.82 0.
108.442 -568.727 0.
22.5539 -618.581 0.
44.441 -566.496 0.
66.328 -514.411 0.
42.6359 -429.633 0.
104.669 -284.939 0.
-936.662 -613.086 0.
457.465 -95.9385 0.
414.335 -194.854 0.
121.503 -372.166 0.
145.543 -317.504 0.
169.584 -262.843 0.
-4.48752 -351.912 0.
-53.0989 -466.329 0.
-101.71 -580.745 0.
75.4219 -399.409 0.
182.276 -151.028 0.
289.13 97.3528 0.
-51.5407 -201.148 0.
-152.436 -437.163 0.
1.435 -521.458 0.
97.1473 -297.323 0.
192.859 -73.1887 0.
200.531 35.5602 0.
178.982 -12.2134 0.
157.432 -59.987 0.
53.4057 -171.506 0.
0.645544 -297.381 0.
-52.1148 -423.257 0.
-61.1481 -446.847 0.
-55.3355 -435.487 0.
-203.514 -491.272 0.
-152.158 -450.904 0.
-140.517 -427.35 0.
-264.03 -435.332 0.
-197.487 -281.113 0.
-130.943 -126.895 0.
253.732 17.3374 0.
148.015 -230.99 0.
42.299 -479.318 0.
-7.65892 -456.611 0.
78.8026 -252.818 0.
165.264 -49.0261 0.
-269.5 -293.51 0.
-315.349 -399.516 0.
-185.025 -429.581 0.
-221.07 -516.421 0.
-257.116 -603.26 0.
-35.4042 -523.43 0.
14.9413 -406.412 0.
65.2871 -289.395 0.
-102.185 -416.532 0.
-193.125 -630.459 0.
-284.065 -844.387 0.
-491.966 -842.62 0.
-402.316 -638.176 0.
-202.645 -361.394 0.
-268.563 207.37 0.
-282.846 174.793 0.
436.738 36.0681 0.
589.096 396.613 0.
747.901 771.623 0.
-45.8079 676.006 0.
-47.9412 673.321 0.
-485.325 -344.916 0.
472.316 310.047 0.
205.239 -315.583 0.
-57.87 -931.494 0.
-198.688 -662.874 0.
-14.4797 -231.44 0.
427.462 893.512 0.
407.536 846.867 0.
17.0377 -64.1401 0.
192.159 225.6 0.
-61.1896 -364.66 0.
28.2971 -155.902 0.
-165.765 -159.024 0.
-17.9649 184.027 0.
-15.6163 187.733 0.
347.769 -262.444 0.
278.198 -424.14 0.
-56.74 598.719 0.
249.471 495.629 0.
178.337 330.885 0.
417.208 -52.7909 0.
574.93 313.97 0.
746.707 714.015 0.
-89.757 -218.048 0.
-35.371 -90.1286 0.
-248.92 -586.725 0.
-129.557 -174.055 0.
69.1884 291.225 0.
-160.578 -243.002 0.
622.009 906.129 0.
424.998 448.441 0.
-37.5141 -266.96 0.
47.3425 -68.6381 0.
177.43 235.334 0.
733.816 191.529 0.
617.426 -80.9168 0.
734.115 190.669 0.
520.327 518.677 0.
643.009 805.74 0.
150.302 -343.113 0.
293.652 174.212 0.
263.822 105.831 0.
773.593 -222.909 0.
539.719 373.07 0.
580.563 468.436 0.
399.079 130.291 0.
351.421 19.6702 0.
337.464 -11.8166 0.
185.868 -88.6707 0.
288.266 149.422 0.
280.563 130.679 0.
32.8846 -277.2 0.
167.911 36.3275 0.
555.536 938.879 0.
17.4135 -305.139 0.
128.849 -45.9321 0.
253.652 174.513 0.
170.298 -21.7992 0.
258.398 182.112 0.
205.908 127.54 0.
32.2497 -275.668 0.
-56.0867 -479.632 0.
93.7831 -140.962 0.
291.281 319.65 0.
350.572 458.449 0.
186.23 81.7349 0.
85.5872 -147.654 0.
266.092 -322.15 0.
322.685 661.505 0.
101.506 144.274 0.
60.2264 490.335 0.
29.2993 414.73 0.
-265.683 -276.84 0.
196.119 266.441 0.
657.487 1340.5 0.
341.03 599.524 0.
175.568 -211.608 0.
445.928 416.831 0.
307.421 91.1697 0.
135.391 447.292 0.
-69.751 -28.8234 0.
-136.978 -447.809 0.
82.272 63.7587 0.
-49.7158 -244.292 0.
-296.861 -917.388 0.
110.434 34.2319 0.
259.139 382.627 0.
175.247 379.626 0.
122.823 256.81 0.
279.641 621.242 0.
-424.235 -226.93 0.
-88.1228 560.878 0.
-540.341 -413.414 0.
-358.492 -440.21 0.
-422.846 -587.824 0.
-24.1955 -454.709 0.
110.849 -137.034 0.
245.894 180.642 0.
-40.5953 118.815 0.
-145.611 -125.263 0.
-250.627 -369.341 0.
42.2586 -385.74 0.
-19.2765 -528.397 0.
-80.8117 -671.054 0.
-198.093 -501.245 0.
-60.2029 -178.136 0.
179.152 158.981 0.
184.68 170.065 0.
190.207 181.15 0.
142.915 97.6811 0.
31.8926 -160.456 0.
-79.1298 -418.594 0.
-201.867 -537.112 0.
-175.277 -475.528 0.
-148.687 -413.944 0.
107.164 -265.068 0.
132.395 -206.98 0.
295.391 -89.2647 0.
65.8654 -189.253 0.
58.9725 -205.05 0.
236.876 -143.923 0.
241.312 -132.081 0.
245.748 -120.24 0.
-86.3582 -282.889 0.
-119.604 -361.778 0.
-152.85 -440.667 0.
-41.5375 -326.081 0.
28.2962 -161.394 0.
98.1301 3.29368 0.
366.983 21.1808 0.
298.423 -136.092 0.
-24.2382 -393.511 0.
-47.4962 -443.112 0.
-70.7542 -492.712 0.
372.66 -307.574 0.
406.118 -229.253 0.
439.576 -150.931 0.
106.47 -244.743 0.
128.589 -195.425 0.
150.708 -146.107 0.
29.508 -159.331 0.
47.7471 -117.293 0.
-1459.72 -729.394 0.
528.816 18.9581 0.
475.891 -107.497 0.
136.752 -332.213 0.
140.719 -322.321 0.
144.686 -312.429 0.
41.3886 -332.531 0.
65.1837 -275.923 0.
88.979 -219.315 0.
89.7123 -205.853 0.
86.3022 -210.371 0.
82.8922 -214.89 0.
215.511 -122.393 0.
239.107 -68.4654 0.
214.931 -53.5102 0.
140.917 -229.706 0.
66.9025 -405.902 0.
-3.29902 -532.957 0.
-6.02967 -538.896 0.
-8.76042 -544.836 0.
-36.6709 -492.814 0.
32.1083 -333.42 0.
100.888 -174.026 0.
-223.876 -284.932 0.
-227.391 -290.497 0.
-17.5586 -205.332 0.
13.2965 -60.9958 0.
81.0593 97.285 0.
-98.7354 73.6623 0.
-199.517 -163.615 0.
-300.299 -400.892 0.
-51.0781 -390.066 0.
-38.8996 -358.75 0.
-26.7212 -327.434 0.
108.727 -244.243 0.
119.438 -219.872 0.
130.148 -195.501 0.
-85.9697 -303.709 0.
-97.4558 -329.657 0.
-169.236 -366.915 0.
-112.239 -232.819 0.
-55.2428 -98.722 0.
-17.9562 -91.03 0.
-148.684 -395.177 0.
-279.413 -699.324 0.
-192.21 -702.481 0.
-126.964 -550.3 0.
-61.7181 -398.118 0.
-208.074 -443.094 0.
-216.489 -457.622 0.
191.932 -68.7289 0.
-115.187 -303.536 0.
-179.47 -451.34 0.
-312.869 -547.242 0.
-177.94 -229.716 0.
-43.0113 87.8099 0.
276.561 286.148 0.
171.602 41.6967 0.
66.6429 -202.754 0.
-102.929 -416.238 0.
-164.532 -559.13 0.
-226.135 -702.022 0.
-268.035 -499.797 0.
-130.094 -176.789 0.
279.621 234 0.
285.589 244.579 0.
291.557 255.159 0.
168.863 141.646 0.
58.0243 -116.744 0.
-52.8146 -375.135 0.
-33.6038 -433.794 0.
-6.40258 -372.726 0.
20.7991 -311.658 0.
-167.177 -350.314 0.
-140.985 -292.662 0.
200.649 -99.1312 0.
215.129 -93.9783 0.
208.525 -109.687 0.
80.4187 -178.607 0.
84.835 -166.652 0.
89.2514 -154.698 0.
-32.4056 -228.535 0.
-65.6227 -307.406 0.
-98.8396 -386.278 0.
161.739 -208.712 0.
231.263 -43.7594 0.
300.786 121.193 0.
539.135 127.222 0.
470.374 -29.9614 0.
70.4182 -321.965 0.
46.9998 -371.576 0.
23.5813 -421.187 0.
207.166 -347.089 0.
240.542 -268.822 0.
273.919 -190.555 0.
19.28 -250.334 0.
41.3665 -200.821 0.
63.4531 -151.308 0.
-101.264 -184.492 0.
-83.0645 -142.3 0.
-1337.33 -645.125 0.
721.827 133.021 0.
668.877 6.20483 0.
72.0942 -327.385 0.
76.5556 -318.197 0.
81.0172 -309.01 0.
13.7867 -313 0.
37.7971 -256.673 0.
61.8076 -200.345 0.
134.952 -154.296 0.
132.272 -159.186 0.
129.592 -164.076 0.
376.883 -21.3801 0.
401.235 31.7731 0.
308.687 20.6211 0.
234.592 -156.038 0.
160.495 -332.697 0.
106.916 -453.824 0.
104.045 -460.121 0.
101.175 -466.417 0.
5.39837 -442.59 0.
74.1614 -283.293 0.
142.924 -123.995 0.
-519.506 -380.757 0.
-523.007 -386.201 0.
-792.177 -506.634 0.
31.5493 -22.2898 0.
99.3377 136.012 0.
-60.4852 122.672 0.
-160.793 -114.913 0.
-261.101 -352.499 0.
6.59859 -332.177 0.
18.5107 -300.539 0.
30.4225 -268.901 0.
60.7089 -234.899 0.
70.9851 -209.822 0.
81.2612 -184.745 0.
55.5288 -211.585 0.
44.5521 -237.819 0.
-240.575 -366.244 0.
-183.208 -232.664 0.
-125.842 -99.0839 0.
-92.4316 -90.0639 0.
-223.142 -394.26 0.
-353.852 -698.456 0.
-58.3268 -613.693 0.
6.91965 -461.449 0.
72.166 -309.205 0.
187.072 -243.499 0.
178.132 -257.911 0.
214.488 2.06648 0.
26.6191 -64.783 0.
56.8484 3.5383 0.
-185.436 -80.9313 0.
-240.975 -210.399 0.
-296.514 -339.866 0.
91.6666 -210.804 0.
114.487 -153.533 0.
137.307 -96.2616 0.
-72.388 -156.37 0.
-60.4223 -129.6 0.
-48.4569 -102.83 0.
-151.525 -281.556 0.
-234.94 -476.25 0.
8.45554 -519.023 0.
-9.79588 -560.684 0.
-28.0472 -602.344 0.
-130.032 -604.916 0.
-23.5666 -357.409 0.
82.8991 -109.901 0.
164.068 -36.218 0.
115.761 -150.24 0.
67.453 -264.263 0.
-337.347 -464.583 0.
-343.86 -476.29 0.
687.622 -43.6617 0.
297.198 -180.3 0.
314.806 -136.351 0.
-80.4485 -268.371 0.
-77.7715 -263.034 0.
-75.0945 -257.696 0.
45.2878 -209.679 0.
42.8481 -213.54 0.
40.4084 -217.402 0.
167.092 -219.364 0.
123.746 -319.865 0.
80.4006 -420.365 0.
396.602 -199.187 0.
453.99 -69.9252 0.
268.446 -71.8273 0.
204.783 -225.742 0.
141.121 -379.657 0.
-7.93092 -540.213 0.
-32.7722 -598.507 0.
-57.6134 -656.802 0.
-104.069 -542.747 0.
41.6986 -201.396 0.
187.466 139.954 0.
72.0733 14.1049 0.
-21.4338 -202.894 0.
870.765 0.42942 0.
534.548 -114.497 0.
549.254 -79.2786 0.
125.672 -212.993 0.
189.485 -64.0235 0.
253.298 84.9461 0.
129.504 73.5166 0.
100.239 3.91726 0.
70.9733 -65.6821 0.
195.427 -51.6782 0.
178.901 -92.7854 0.
162.375 -133.893 0.
527.625 108.172 0.
578.03 230.462 0.
419.46 236.192 0.
351.774 81.3077 0.
284.087 -73.5767 0.
138.378 -192.941 0.
188.562 -79.4165 0.
238.745 34.1087 0.
268.298 112.035 0.
288.094 157.896 0.
307.89 203.756 0.
-399.608 -153.585 0.
-437.795 -241.161 0.
193.547 -34.2698 0.
-6.24242 -101.6 0.
1.94556 -79.3804 0.
-68.9174 -89.4484 0.
-53.9917 -48.8292 0.
-39.0658 -8.20997 0.
208.071 76.9497 0.
163.601 -25.1959 0.
119.131 -127.342 0.
-59.5384 -215.14 0.
-50.6086 -192.512 0.
-41.6793 -169.885 0.
102.422 -109.78 0.
101.612 -111.432 0.
-209.662 -257.705 0.
-264.095 -382.481 0.
-318.527 -507.257 0.
-287.569 -591.49 0.
-328.464 -686.916 0.
-369.36 -782.34 0.
-115.162 -740.998 0.
-148.497 -817.277 0.
-181.832 -893.556 0.
-60.4087 -995.649 0.
-156.524 -1221.7 0.
-606.898 -318.518 0.
-77.0957 -77.8518 0.
-46.6873 -9.31814 0.
-41.8431 12.3982 0.
-97.375 -117.33 0.
-152.907 -247.058 0.
-117.485 -268.324 0.
-94.6599 -211.299 0.
-71.8348 -154.274 0.
-101.653 -138.412 0.
-89.9892 -111.362 0.
-78.3254 -84.3118 0.
-0.0429157 -185.527 0.
-83.358 -380.211 0.
62.3297 -466.154 0.
44.0456 -507.591 0.
25.7615 -549.027 0.
-82.0327 -551.996 0.
24.4976 -304.427 0.
131.028 -56.8576 0.
101.031 -32.4826 0.
52.8495 -146.646 0.
4.66829 -260.81 0.
-337.87 -434.469 0.
-344.167 -446.021 0.
433.543 -121.185 0.
473.159 -71.6992 0.
491.318 -28.0947 0.
-188.12 -284.702 0.
-185.756 -278.884 0.
-183.392 -273.066 0.
195.626 -113.648 0.
193.336 -117.595 0.
191.045 -121.541 0.
33.0414 -246.017 0.
-10.2548 -346.565 0.
-53.5512 -447.113 0.
260.65 -225.427 0.
318.081 -96.6281 0.
449.023 37.4232 0.
385.056 -116.346 0.
321.089 -270.115 0.
-127.176 -560.276 0.
-152.531 -618.119 0.
-177.885 -675.963 0.
10.1072 -463.145 0.
156.175 -121.859 0.
302.243 219.427 0.
422.066 195.489 0.
328.72 -21.771 0.
-1248.94 -875.517 0.
193.859 -228.39 0.
209.021 -193.478 0.
226.308 -136.884 0.
290.436 11.8832 0.
354.564 160.651 0.
70.6882 79.6957 0.
41.1371 10.3595 0.
11.5861 -58.9767 0.
233.919 -3.21011 0.
217.101 -43.9725 0.
200.283 -84.7348 0.
641.668 188.032 0.
691.909 310.147 0.
397.239 259.024 0.
329.641 103.461 0.
262.043 -52.1016 0.
-106.356 -265.59 0.
-56.1024 -152.289 0.
-5.84834 -38.9871 0.
320.882 165.506 0.
341.196 211.006 0.
361.511 256.507 0.
-23.4976 39.9047 0.
-61.4745 -47.7963 0.
724.834 223.692 0.
-8.13154 -71.9969 0.
0.0253196 -49.3682 0.
109.016 19.3068 0.
124.463 59.6086 0.
139.911 99.9102 0.
247.721 124.888 0.
203.357 22.6668 0.
158.993 -79.5538 0.
-289.836 -282.399 0.
-281.109 -259.898 0.
-272.382 -237.397 0.
0.0325115 -121.85 0.
-0.770585 -123.659 0.
-148.832 -200.017 0.
-203.175 -324.896 0.
-257.517 -449.775 0.
-129.371 -492.544 0.
-170.426 -587.609 0.
-211.481 -682.675 0.
-218.369 -753.426 0.
-251.893 -829.469 0.
-285.417 -905.512 0.
-242.528 -1043.41 0.
-339.138 -1269.02 0.
323.783 -54.8927 0.
-481.22 -789.007 0.
-21.505 284.957 0.
169.097 271.43 0.
-234.592 -669.503 0.
66.132 31.5399 0.
-459.205 -649.92 0.
-435.083 -594.691 0.
-389.804 -489.541 0.
31.6575 261.958 0.
60.042 326.505 0.
-202.461 -287.5 0.
-57.2231 -575.594 0.
-64.2532 -590.605 0.
114.073 -421.136 0.
649.253 829.602 0.
503.518 491.842 0.
9.08991 -392.022 0.
166.827 -27.9148 0.
145.194 -81.3039 0.
331.722 651.106 0.
-85.6898 -324.727 0.
254.408 465.694 0.
167.749 776.566 0.
-26.8026 323.644 0.
23.9363 -856.47 0.
686.492 124.187 0.
890.062 598.625 0.
24.4289 442.494 0.
-9.55232 362.943 0.
-345.833 -421.648 0.
170.381 -420.077 0.
361.978 25.2563 0.
513.362 376.481 0.
100.479 185.057 0.
-133.127 -357.922 0.
-230.456 -582.836 0.
237.758 6.48058 0.
406.442 399.289 0.
286.306 -654.177 0.
423.32 -334.278 0.
705.795 324.979 0.
241.108 558.362 0.
-39.6427 -95.4463 0.
-121.669 -285.569 0.
361.006 174.115 0.
204.189 -193.06 0.
73.0644 -500.179 0.
421.652 -438.733 0.
846.589 550.732 0.
663.085 763.057 0.
12.7264 31.9863 0.
-6.80719 -13.4485 0.
434.913 197.04 0.
-74.9741 -992.108 0.
255.352 -220.888 0.
171.838 451.654 0.
116.624 324.018 0.
72.0276 221.156 0.
257.643 11.8743 0.
131.272 -283.529 0.
33.6835 -511.708 0.
861.007 526.29 0.
745.483 255.781 0.
163.432 -212.046 0.
114.597 -324.889 0.
154.829 -229.619 0.
-187.112 25.0175 0.
-214.125 -40.4431 0.
108.192 709.416 0.
566.646 663.607 0.
409.499 297.805 0.
151.187 -304.133 0.
324.084 177.886 0.
239.248 -21.5388 0.
-41.0665 -319.663 0.
260.622 586.094 0.
234.204 523.587 0.
223.393 -5.01626 0.
97.9818 -299.171 0.
-138.614 -852.519 0.
350.413 315.765 0.
200.961 -30.9488 0.
311.542 228.521 0.
-90.8575 648.555 0.
-186.726 422.744 0.
-498.173 -306.267 0.
100.634 341.202 0.
127.654 404.163 0.
-113.198 -196.471 0.
-116.331 -204.384 0.
100.002 299.794 0.
91.7662 -242.977 0.
164.966 -72.4448 0.
309.27 264.303 0.
282.917 644.622 0.
84.6897 183.606 0.
156.351 350.145 0.
108.014 144.922 0.
191.396 335.834 0.
282.62 -452.834 0.
-93.6163 -500.223 0.
-47.7932 -391.773 0.
-253.665 -378.805 0.
-181.881 -211.103 0.
-110.096 -43.4013 0.
-151.518 -30.01 0.
-203.136 -153.316 0.
-254.755 -276.623 0.
-188.907 -351.243 0.
-243.939 -481.06 0.
-298.97 -610.876 0.
-161.54 -398.977 0.
-61.5588 -164.592 0.
356.776 173.957 0.
272.914 -20.3219 0.
189.051 -214.6 0.
-164.872 -506.972 0.
-216.472 -628.977 0.
-268.073 -750.983 0.
-67.6203 -583.831 0.
51.5379 -303.533 0.
170.696 -23.2352 0.
-48.4903 -112.395 0.
-79.447 -186.141 0.
-386.679 -378.948 0.
500.97 62.0571 0.
533.824 137.166 0.
-214.88 -164.237 0.
-276.535 -311.301 0.
-338.19 -458.365 0.
202.234 -311.061 0.
186.453 -352.984 0.
170.67 -394.908 0.
-171.524 -516.476 0.
-141.281 -449.414 0.
-111.037 -382.351 0.
115.898 -382.367 0.
57.1998 -518.511 0.
217.823 -534.45 0.
294.167 -354.411 0.
370.512 -174.372 0.
-49.7606 -204.323 0.
32.6086 -12.2979 0.
114.978 179.727 0.
361.587 264.855 0.
274.437 62.1018 0.
187.288 -140.651 0.
635.731 16.9435 0.
639.196 24.4428 0.
-438.722 -432.453 0.
111.256 -89.0857 0.
166.88 42.7766 0.
218.342 101.998 0.
100.107 -170.356 0.
-18.128 -442.71 0.
7.27377 -471.699 0.
102.6 -248.113 0.
197.925 -24.5268 0.
163.954 -84.9651 0.
81.5334 -276.173 0.
-0.886654 -467.382 0.
321.211 -399.592 0.
290.153 -474.696 0.
1.86606 -625.098 0.
129.456 -326.757 0.
257.045 -28.4156 0.
-27.546 9.806 0.
-33.705 -4.49493 0.
-39.8637 -18.7959 0.
110.697 -87.9113 0.
-7.54334 -361.18 0.
-125.784 -634.449 0.
164.062 -316.312 0.
324.311 55.544 0.
289.493 339.786 0.
-76.9399 -41.8396 0.
-191.897 -314.784 0.
-20.4589 -411.864 0.
-23.8036 -422.318 0.
-27.1482 -432.771 0.
212.645 -315.029 0.
235.472 -263.11 0.
258.299 -211.19 0.
-298.314 -382.549 0.
-254.423 -281.043 0.
-210.531 -179.538 0.
-358.151 -191.122 0.
-334.452 -136.432 0.
88.423 71.9261 0.
40.8154 -42.2733 0.
-6.7929 -156.473 0.
-24.9033 -203.255 0.
7.25891 -128.799 0.
39.4208 -54.3429 0.
-61.8068 -168.02 0.
-150.35 -376.765 0.
-238.893 -585.511 0.
-81.9131 -426.77 0.
3.38267 -231.861 0.
-139.508 -600.957 0.
244.017 -323.6 0.
290.396 -215.354 0.
-415.589 -416.991 0.
-344.179 -248.838 0.
-272.768 -80.6862 0.
-79.8561 31.4671 0.
-131.476 -91.8262 0.
-183.096 -215.12 0.
-120.799 -291.688 0.
-176.12 -421.509 0.
-231.442 -551.33 0.
-365.229 -453.901 0.
-264.985 -220.088 0.
361.291 208.832 0.
277.651 14.378 0.
194.011 -180.075 0.
-301.063 -536.017 0.
-353.222 -657.342 0.
-405.38 -778.666 0.
102.95 -479.602 0.
222.279 -199.281 0.
341.608 81.039 0.
169.196 11.3684 0.
138.391 -62.3883 0.
68.5786 -153.196 0.
326.532 19.355 0.
359.171 94.8381 0.
-172.604 -115.943 0.
-234.402 -262.905 0.
-296.2 -409.866 0.
197.73 -281.081 0.
182.471 -323.516 0.
167.211 -365.951 0.
-114.986 -461.167 0.
-84.036 -394.781 0.
-53.086 -328.395 0.
186.378 -320.225 0.
128.429 -456.97 0.
85.2132 -558.466 0.
161.936 -378.485 0.
238.66 -198.505 0.
11.5983 -146.875 0.
93.7008 45.2179 0.
175.803 237.311 0.
330.4 282.982 0.
243.084 80.1604 0.
155.768 -122.661 0.
684.73 69.3889 0.
688.185 76.9015 0.
495.726 0.542002 0.
303.012 25.6407 0.
358.942 157.311 0.
18.5039 48.1102 0.
-99.3935 -224.326 0.
-217.291 -496.763 0.
307.657 -311.382 0.
403.259 -87.6583 0.
498.86 136.065 0.
116.38 -73.3222 0.
33.5563 -264.27 0.
-49.267 -455.217 0.
161.871 -436.522 0.
130.09 -510.732 0.
37.8091 -578.557 0.
165.175 -280.109 0.
292.54 18.3385 0.
188.817 132.563 0.
182.35 118.454 0.
175.884 104.346 0.
-38.9053 -121.309 0.
-156.87 -394.601 0.
-274.835 -667.893 0.
238.107 -253.114 0.
398.38 118.955 0.
247.927 352.532 0.
-139.501 -36.2191 0.
-254.706 -308.719 0.
-89.573 -412.072 0.
-92.9635 -422.127 0.
-96.3539 -432.182 0.
393.762 -206.204 0.
416.778 -154.313 0.
439.795 -102.421 0.
4.33011 -222.321 0.
48.4028 -121.082 0.
92.4759 -19.8439 0.
-624.639 -272.788 0.
-600.949 -218.453 0.
213.512 157.045 0.
165.355 43.2081 0.
117.196 -70.6287 0.
-171.078 -235.24 0.
-139.223 -160.545 0.
-107.368 -85.8493 0.
-41.5102 -127.285 0.
-130.459 -335.934 0.
-219.409 -544.584 0.
6.99572 -357.557 0.
91.6422 -162.164 0.
-111.569 -580.327 0.
321.587 -299.26 0.
375.32 -172.68 0.
-473.985 -439.112 0.
-423.34 -320.881 0.
-372.694 -202.651 0.
-132.568 -72.4274 0.
-166.082 -149.316 0.
-199.596 -226.204 0.
-78.5347 -234.883 0.
-108.617 -304.885 0.
-138.699 -374.887 0.
-407.981 -482.824 0.
-397.836 -457.961 0.
86.6329 -222.365 0.
133.201 -113.62 0.
179.769 -4.87497 0.
-106.721 -36.9018 0.
-58.0312 77.5452 0.
-9.34184 191.992 0.
480.99 328.705 0.
372.711 75.8722 0.
264.432 -176.96 0.
183.742 -143.704 0.
259.007 34.2987 0.
611.324 329.306 0.
267.844 114.257 0.
231.105 28.7948 0.
-137.94 -207.68 0.
-199.083 -349.942 0.
-260.225 -492.205 0.
95.0594 -367.511 0.
140.966 -258.985 0.
186.872 -150.46 0.
87.1948 -115.788 0.
126.094 -26.1004 0.
164.992 63.588 0.
402.954 240.678 0.
444.386 336.965 0.
379.765 363.924 0.
301.996 183.225 0.
224.226 2.52595 0.
134.255 -145.946 0.
110.567 -200.484 0.
86.8807 -255.022 0.
108.548 -236.363 0.
139.486 -164.68 0.
170.424 -92.9964 0.
572.349 65.4684 0.
554.661 23.9857 0.
244.317 -140.469 0.
428.574 29.079 0.
476.15 139.859 0.
23.1565 19.1348 0.
32.4218 40.5623 0.
41.6872 61.9898 0.
555.289 218.511 0.
468.176 15.2561 0.
381.062 -187.998 0.
62.5558 -346.752 0.
87.7603 -289.175 0.
112.965 -231.598 0.
259.02 12.2106 0.
363.495 253.656 0.
495.142 463.941 0.
397.527 235.568 0.
299.911 7.19453 0.
115.386 -190.344 0.
128.158 -160.232 0.
140.93 -130.119 0.
-86.6927 -173.769 0.
-46.4483 -78.4891 0.
-6.20398 16.7904 0.
269.167 -21.9461 0.
150.408 -295.021 0.
-196.687 -662.452 0.
-215.796 -420.856 0.
-85.83 -113.659 0.
121.025 124.251 0.
17.2745 -113.318 0.
-86.4757 -350.887 0.
368.43 -150.787 0.
493.094 142.183 0.
617.756 435.152 0.
261.815 280.331 0.
197.584 133.047 0.
133.353 -14.236 0.
-627.455 -316.741 0.
-605.319 -263.23 0.
243.017 126.485 0.
181.554 -16.8927 0.
120.091 -160.271 0.
-329.042 -435.886 0.
-337.914 -456.364 0.
-346.786 -476.843 0.
-109.671 -344.442 0.
-73.6244 -260.335 0.
-37.578 -176.229 0.
85.8624 -12.544 0.
155.776 150.105 0.
-1039.33 -948.936 0.
179.588 -328.748 0.
233.672 -202.292 0.
-400.779 -376.959 0.
-350.486 -258.102 0.
-300.193 -139.246 0.
-189.403 -65.7977 0.
-223.132 -142.548 0.
-256.861 -219.299 0.
-72.394 -201.253 0.
-102.266 -271.698 0.
-132.137 -342.143 0.
-248.049 -380.815 0.
-237.126 -356.695 0.
-105.951 -274.251 0.
-59.2085 -165.758 0.
-12.4654 -57.2661 0.
10.4493 46.4859 0.
59.6366 160.681 0.
108.824 274.876 0.
429.315 337.092 0.
320.859 84.5914 0.
212.404 -167.909 0.
182.603 -114.046 0.
257.966 63.9257 0.
128.35 153.09 0.
227.661 128.842 0.
190.705 43.5815 0.
28.6506 -105.802 0.
-32.6551 -247.864 0.
-93.9602 -389.926 0.
-33.2519 -390.094 0.
13.0893 -282.03 0.
59.4306 -173.967 0.
193.337 -39.3092 0.
232.445 50.1036 0.
271.553 139.517 0.
309.31 232.084 0.
351.189 328.071 0.
298.199 361.25 0.
220.632 180.539 0.
143.064 -0.171527 0.
398.779 -1.93413 0.
374.877 -56.2839 0.
350.976 -110.633 0.
171.021 -178.962 0.
201.938 -107.402 0.
232.856 -35.8412 0.
295.678 -20.965 0.
278.053 -62.3521 0.
691.421 82.4142 0.
577.61 124.368 0.
625.092 235.408 0.
292.91 166.183 0.
302.305 187.643 0.
311.699 209.103 0.
350.053 162.427 0.
263.212 -40.9343 0.
176.37 -244.295 0.
297.017 -214.314 0.
322.045 -156.457 0.
347.074 -98.601 0.
217.326 26.0433 0.
321.513 267.613 0.
522.212 506.645 0.
424.854 277.855 0.
327.496 49.0643 0.
99.9767 -163.915 0.
113.195 -134.399 0.
126.413 -104.882 0.
27.357 -92.7828 0.
67.5319 2.11729 0.
107.707 97.0173 0.
65.7321 -76.9046 0.
-52.737 -350.409 0.
496.75 -334.538 0.
97.3668 -255.275 0.
227.165 52.3092 0.
159.868 172.704 0.
56.228 -64.9872 0.
-47.4118 -302.678 0.
102.546 -234.436 0.
227.377 58.3631 0.
352.209 351.162 0.
96.2967 241.459 0.
32.4988 93.9559 0.
-31.299 -53.5476 0.
-304.046 -146.246 0.
-281.922 -92.8828 0.
258.35 165.301 0.
197.339 21.5669 0.
136.329 -122.167 0.
-322.486 -402.475 0.
-331.214 -422.954 0.
-339.942 -443.433 0.
-33.47 -279.254 0.
2.68961 -195.152 0.
38.8492 -111.051 0.
-137.789 -76.0109 0.
-68.2399 87.2091 0.
-1407.84 -435.436 0.
9.73409 -411.564 0.
-21.5006 -486.172 0.
47.5922 565.327 0.
-88.2802 246.616 0.
-201.324 -18.9716 0.
-417.667 -474.118 0.
-122.849 212.188 0.
169.949 893.419 0.
257.199 594.708 0.
-66.833 -161.32 0.
-159.958 -378.538 0.
244.623 495.074 0.
455.797 992.653 0.
-344.176 -450.12 0.
-271.596 -278.432 0.
-411.851 -602.817 0.
-403.535 -1111.26 0.
-104.398 -414.398 0.
159.791 200.193 0.
206.431 -50.0216 0.
284.496 130.891 0.
13.0664 -503.816 0.
215.166 2.96188 0.
258.237 103.244 0.
97.21 -246.145 0.
-76.7598 -486.372 0.
-78.8478 -486.861 0.
616.297 979.214 0.
595.767 933.169 0.
154.68 -93.8166 0.
-267 -668.623 0.
-53.0039 -166.902 0.
-125.872 -334.719 0.
426.102 331.769 0.
395.634 258.78 0.
241.43 -102.885 0.
-239.061 -839.623 0.
-323.343 -1039.33 0.
-211.103 -642.743 0.
180.912 271.425 0.
-34.904 -232.69 0.
455.652 -328.799 0.
809.357 492.683 0.
619.019 44.9654 0.
294.291 20.6732 0.
465.783 420.779 0.
263.238 -51.574 0.
-144.753 -502.835 0.
-127.317 -466.388 0.
-748.844 222.837 0.
698.208 163.916 0.
573.871 -127.612 0.
610.118 435.764 0.
376.976 -107.995 0.
321.438 -237.469 0.
-5.3846 -261.673 0.
337.297 538.129 0.
294.434 438.472 0.
395.155 -379.289 0.
88.3365 -1095.75 0.
873.851 736.174 0.
188.686 71.7031 0.
-38.5231 -456.624 0.
95.0042 -521.971 0.
214.304 -242.588 0.
256.454 -143 0.
107.393 -88.7193 0.
90.6512 -129.552 0.
-68.5766 -502.5 0.
-70.3795 -505.377 0.
-4.49765 -354.127 0.
390.555 565.553 0.
233.162 736.792 0.
-141.265 -134.577 0.
-444.915 -862.881 0.
631.166 424.888 0.
440.854 -13.2154 0.
46.6502 -142.77 0.
332.48 530.349 0.
-346.914 -1048 0.
-16.3566 19.7939 0.
365.823 910.56 0.
-9.04458 35.0224 0.
-501.845 -806.069 0.
-266.147 -257.575 0.
155.574 724.96 0.
218.448 491.254 0.
258.613 583.599 0.
286.785 234.243 0.
160.9 -57.9555 0.
80.6104 -243.848 0.
-249.194 -217.017 0.
6.81733 380.318 0.
-101.053 129.069 0.
-29.0616 -374.846 0.
74.2527 -135.378 0.
7.60382 -292.123 0.
-269.204 79.8282 0.
-309.571 -13.3675 0.
119.243 500.196 0.
100.197 429.355 0.
66.6759 350.181 0.
34.3318 236.136 0.
-92.9762 -64.9047 0.
-220.284 -365.946 0.
-233.282 -410.297 0.
-113.487 -133.302 0.
6.30816 143.694 0.
-71.8268 148.228 0.
-102.522 79.4118 0.
-133.217 10.5947 0.
-160.1 -148.627 0.
-249.139 -351.081 0.
-77.2038 -403.2 0.
20.4105 -175.518 0.
118.024 52.163 0.
49.5618 148.232 0.
53.1496 158.855 0.
56.7375 169.478 0.
85.6587 169.682 0.
67.392 123.517 0.
49.1253 77.3516 0.
179.128 96.8531 0.
162.146 56.4015 0.
1567.23 625.476 0.
266.565 -43.1603 0.
205.013 -184.293 0.
110.55 -288.376 0.
173.555 -138.78 0.
236.561 10.8158 0.
86.3049 12.4761 0.
79.9685 2.10194 0.
73.6325 -8.27234 0.
218.55 -34.9649 0.
148.354 -195.729 0.
78.158 -356.493 0.
27.4104 -179.695 0.
152.354 114.276 0.
315.131 386.712 0.
247.996 229.902 0.
180.86 73.0923 0.
545.369 114.255 0.
507.238 21.8329 0.
469.108 -70.5888 0.
170.361 -182.658 0.
217.556 -73.0072 0.
264.75 36.6438 0.
392.915 131.359 0.
408.295 166.241 0.
-1842.08 -768.588 0.
481.92 70.6774 0.
398.77 -122.33 0.
264.296 -290.064 0.
292.678 -223.865 0.
321.059 -157.667 0.
169.604 -135.706 0.
237.195 22.4222 0.
304.787 180.55 0.
364.269 260.911 0.
373.86 283.726 0.
383.452 306.542 0.
240.265 22.8982 0.
107.463 -284.538 0.
404.067 -348.288 0.
535.667 -37.8514 0.
667.267 272.584 0.
244.612 201.996 0.
158.076 2.09147 0.
71.5407 -197.813 0.
141.658 -141.567 0.
233.254 70.6542 0.
324.851 282.875 0.
382.759 381.672 0.
409.157 444.968 0.
642.931 600.429 0.
221.576 211.549 0.
113.967 -41.4667 0.
83.8778 -196.979 0.
119.324 -116.666 0.
154.77 -36.3519 0.
-218.96 -168.938 0.
-225.106 -182.704 0.
-231.253 -196.469 0.
-175.41 -273.511 0.
-254.057 -456.61 0.
-332.703 -639.709 0.
110.923 -282.071 0.
218.133 -33.0636 0.
-23.227 29.3913 0.
-76.4306 -93.5316 0.
-129.635 -216.455 0.
-356.486 -351.517 0.
-308.236 -239.862 0.
-259.987 -128.207 0.
-62.4041 53.352 0.
-10.1803 175.383 0.
42.0439 297.414 0.
-101.925 113.563 0.
-200.56 -116.052 0.
-229.117 379.366 0.
-210.043 327.964 0.
-243.52 248.924 0.
206.487 340.882 0.
78.7826 40.5884 0.
-48.9215 -259.706 0.
-14.3035 -285.73 0.
104.792 -7.99811 0.
223.888 269.734 0.
-227.281 111.363 0.
-258.525 42.7537 0.
-289.77 -25.8555 0.
-302.302 -178.757 0.
-391.056 -381.488 0.
243.733 -232.358 0.
342.072 -5.27614 0.
440.41 221.805 0.
-43.7138 139.289 0.
-40.0794 150.352 0.
-36.4451 161.414 0.
-164.512 93.4691 0.
-182.493 47.7347 0.
-200.474 2.00033 0.
101.703 94.9584 0.
84.7437 54.6271 0.
391.002 152.577 0.
475.068 78.1797 0.
412.768 -62.5064 0.
173.326 -231.875 0.
235.524 -81.6324 0.
297.722 68.6094 0.
175.695 80.0914 0.
169.587 69.4762 0.
163.48 58.8609 0.
171.677 -22.2997 0.
102.293 -184.238 0.
32.909 -346.176 0.
19.9957 -149.783 0.
145.797 143.496 0.
433.466 469.232 0.
366.64 312.332 0.
299.814 155.432 0.
439.383 101.056 0.
400.986 8.60637 0.
362.59 -83.8428 0.
145.624 -162.398 0.
192.018 -51.6012 0.
238.412 59.1956 0.
734.975 308.369 0.
750.223 343.77 0.
-639.691 -221.249 0.
287.389 20.0848 0.
204.219 -172.515 0.
234.068 -272.055 0.
262.894 -206.063 0.
291.72 -140.07 0.
336.641 -32.2313 0.
404.692 125.923 0.
472.742 284.076 0.
6.3106 138.794 0.
15.4732 162.062 0.
24.6367 185.331 0.
345.529 98.6624 0.
212.32 -208.558 0.
709.77 -184.501 0.
840.965 126.201 0.
972.159 436.902 0.
276.44 246.27 0.
189.22 46.7616 0.
102 -152.747 0.
232.399 -71.4324 0.
323.243 141.06 0.
414.087 353.553 0.
768.771 579.125 0.
794.192 642.948 0.
597.756 613.079 0.
-149.791 82.3966 0.
-257.914 -170.792 0.
181.214 -123.359 0.
217.395 -43.774 0.
253.576 35.8114 0.
-354.234 -195.042 0.
-360.499 -208.516 0.
-366.765 -221.991 0.
-39.7092 -183.802 0.
-118.523 -366.781 0.
-197.337 -549.76 0.
403.219 -125.613 0.
510.225 123.589 0.
-280.693 -49.2481 0.
-333.296 -172.171 0.
-385.899 -295.095 0.
-402.13 -340.498 0.
-353.403 -228.961 0.
-304.675 -117.425 0.
-314.941 -22.1534 0.
-262.729 100.359 0.
-210.515 222.872 0.
106.194 231.231 0.
7.47642 2.57925 0.
