# vtk DataFile Version 2.0
test grain
ASCII
DATASET UNSTRUCTURED_GRID
POINTS 5000 float
0.499883 0.00100131 0.
0.501884 0.00100134 0.
0.503885 0.00100136 0.
0.505886 0.00100137 0.
0.507886 0.00100132 0.
0.509886 0.00100126 0.
0.511886 0.00100103 0.
0.513887 0.00100054 0.
0.515888 0.00100005 0.
0.517889 0.00100012 0.
0.519889 0.00100051 0.
0.521889 0.00100091 0.
0.523889 0.00100086 0.
0.525888 0.00100073 0.
0.527887 0.00100065 0.
0.529886 0.00100118 0.
0.531886 0.00100171 0.
0.533885 0.00100183 0.
0.535885 0.00100102 0.
0.537885 0.00100022 0.
0.539885 0.00100002 0.
0.541885 0.00100038 0.
0.543885 0.00100073 0.
0.545885 0.00100099 0.
0.547884 0.00100123 0.
0.549883 0.00100146 0.
0.551878 0.00100172 0.
0.553874 0.00100198 0.
0.555869 0.00100215 0.
0.557866 0.00100207 0.
0.559862 0.00100198 0.
0.561858 0.00100198 0.
0.563854 0.00100205 0.
0.565849 0.00100212 0.
0.567845 0.00100163 0.
0.56984 0.00100083 0.
0.571836 0.00100004 0.
0.573826 0.0010011 0.
0.575815 0.00100249 0.
0.577804 0.00100387 0.
0.57979 0.0010044 0.
0.581777 0.00100493 0.
0.583762 0.00100528 0.
0.585744 0.00100517 0.
0.587725 0.00100506 0.
0.589704 0.00100398 0.
0.591681 0.00100202 0.
0.593657 0.00100005 0.
0.59574 0.00100086 0.
0.597868 0.00100253 0.
0.6 0.00100421 0.
0.602129 0.00100254 0.
0.604258 0.00100088 0.
0.606342 0.00100003 0.
0.608319 0.00100174 0.
0.610296 0.00100345 0.
0.612276 0.00100444 0.
0.614258 0.00100466 0.
0.616241 0.00100488 0.
0.618225 0.00100486 0.
0.620211 0.0010048 0.
0.622197 0.00100473 0.
0.624184 0.00100403 0.
0.626171 0.00100328 0.
0.62816 0.0010025 0.
0.630156 0.00100148 0.
0.632152 0.00100045 0.
0.634148 0.00100003 0.
0.636145 0.00100063 0.
0.638141 0.00100124 0.
0.640138 0.00100154 0.
0.642136 0.00100164 0.
0.644133 0.00100174 0.
0.646129 0.00100193 0.
0.648124 0.00100215 0.
0.65012 0.00100236 0.
0.652119 0.00100183 0.
0.654118 0.00100131 0.
0.656117 0.00100081 0.
0.658118 0.0010004 0.
0.660119 0.001 0.
0.66212 0.0010001 0.
0.66412 0.00100072 0.
0.666121 0.00100134 0.
0.66812 0.00100165 0.
0.670118 0.00100184 0.
0.672117 0.00100203 0.
0.674115 0.00100155 0.
0.676114 0.00100101 0.
0.678113 0.00100059 0.
0.680113 0.00100081 0.
0.682114 0.00100103 0.
0.684114 0.00100112 0.
0.686115 0.00100099 0.
0.688115 0.00100086 0.
0.690115 0.00100086 0.
0.692115 0.00100097 0.
0.694115 0.00100108 0.
0.696116 0.00100111 0.
0.698117 0.0010011 0.
0.499884 0.00300394 0.
0.501885 0.00300401 0.
0.503885 0.00300408 0.
0.505885 0.00300411 0.
0.507886 0.00300395 0.
0.509886 0.00300379 0.
0.511886 0.00300311 0.
0.513887 0.00300163 0.
0.515887 0.00300015 0.
0.517888 0.00300034 0.
0.519889 0.00300153 0.
0.52189 0.00300272 0.
0.523889 0.00300257 0.
0.525888 0.00300218 0.
0.527887 0.00300195 0.
0.529887 0.00300353 0.
0.531887 0.00300511 0.
0.533886 0.00300548 0.
0.535884 0.00300307 0.
0.537883 0.00300066 0.
0.539883 0.00300007 0.
0.541886 0.00300113 0.
0.543888 0.00300219 0.
0.545888 0.00300299 0.
0.547886 0.00300368 0.
0.549884 0.00300438 0.
0.551879 0.00300516 0.
0.553875 0.00300594 0.
0.55587 0.00300646 0.
0.557867 0.0030062 0.
0.559863 0.00300594 0.
0.561859 0.00300595 0.
0.563855 0.00300616 0.
0.565851 0.00300637 0.
0.567848 0.00300489 0.
0.569844 0.0030025 0.
0.571841 0.00300011 0.
0.573831 0.00300329 0.
0.575821 0.00300748 0.
0.57781 0.00301162 0.
0.579798 0.00301321 0.
0.581786 0.0030148 0.
0.583772 0.00301582 0.
0.585754 0.0030155 0.
0.587736 0.00301518 0.
0.589718 0.00301192 0.
0.5917 0.00300601 0.
0.593682 0.0030001 0.
0.59576 0.00300257 0.
0.597879 0.00300759 0.
0.6 0.00301262 0.
0.602119 0.00300763 0.
0.604238 0.00300264 0.
0.606316 0.00300006 0.
0.608299 0.00300519 0.
0.610281 0.00301033 0.
0.612264 0.00301331 0.
0.614247 0.00301397 0.
0.61623 0.00301463 0.
0.618216 0.00301459 0.
0.620204 0.00301439 0.
0.622191 0.00301419 0.
0.624179 0.00301209 0.
0.626167 0.00300986 0.
0.628157 0.0030075 0.
0.630152 0.00300442 0.
0.632147 0.00300134 0.
0.634144 0.00300007 0.
0.636142 0.0030019 0.
0.638141 0.00300372 0.
0.640139 0.00300463 0.
0.642136 0.00300492 0.
0.644133 0.00300522 0.
0.646129 0.00300578 0.
0.648124 0.00300644 0.
0.650119 0.00300708 0.
0.652116 0.00300551 0.
0.654112 0.00300393 0.
0.656111 0.00300242 0.
0.658116 0.00300121 0.
0.66012 0.003 0.
0.662122 0.00300028 0.
0.664121 0.00300215 0.
0.666121 0.00300402 0.
0.668119 0.00300496 0.
0.670117 0.00300552 0.
0.672115 0.00300609 0.
0.674114 0.00300464 0.
0.676113 0.00300304 0.
0.678112 0.00300178 0.
0.680113 0.00300243 0.
0.682114 0.00300308 0.
0.684115 0.00300336 0.
0.686115 0.00300296 0.
0.688115 0.00300256 0.
0.690115 0.00300259 0.
0.692115 0.00300293 0.
0.694115 0.00300326 0.
0.696116 0.00300332 0.
0.698118 0.0030033 0.
0.499886 0.00500655 0.
0.501886 0.00500668 0.
0.503885 0.00500679 0.
0.505885 0.00500686 0.
0.507885 0.00500659 0.
0.509886 0.00500632 0.
0.511886 0.00500518 0.
0.513886 0.00500271 0.
0.515887 0.00500025 0.
0.517888 0.00500057 0.
0.519889 0.00500254 0.
0.521891 0.00500453 0.
0.52389 0.00500429 0.
0.525889 0.00500363 0.
0.527888 0.00500323 0.
0.529888 0.00500587 0.
0.531887 0.00500851 0.
0.533887 0.00500913 0.
0.535884 0.00500512 0.
0.537881 0.00500111 0.
0.539882 0.00500013 0.
0.541887 0.00500189 0.
0.543892 0.00500366 0.
0.545891 0.00500498 0.
0.547888 0.00500613 0.
0.549885 0.00500729 0.
0.55188 0.00500859 0.
0.553876 0.00500989 0.
0.555872 0.00501077 0.
0.557868 0.00501033 0.
0.559864 0.00500989 0.
0.56186 0.00500991 0.
0.563857 0.00501027 0.
0.565854 0.00501063 0.
0.567851 0.00500814 0.
0.569848 0.00500417 0.
0.571845 0.00500019 0.
0.573836 0.0050055 0.
0.575826 0.00501248 0.
0.577816 0.00501935 0.
0.579805 0.005022 0.
0.581795 0.00502465 0.
0.583782 0.00502633 0.
0.585764 0.00502581 0.
0.587747 0.0050253 0.
0.589732 0.00501981 0.
0.591719 0.00500992 0.
0.593707 0.0050001 0.
0.595781 0.00500431 0.
0.597889 0.0050129 0.
0.6 0.00502179 0.
0.602109 0.00501296 0.
0.604217 0.00500442 0.
0.606291 0.00500004 0.
0.608278 0.00500858 0.
0.610266 0.00501716 0.
0.612252 0.00502216 0.
0.614235 0.00502324 0.
0.616219 0.00502433 0.
0.618207 0.0050243 0.
0.620197 0.00502398 0.
0.622186 0.00502366 0.
0.624175 0.00502014 0.
0.626164 0.00501643 0.
0.628153 0.00501251 0.
0.630148 0.00500737 0.
0.632142 0.00500224 0.
0.634139 0.00500013 0.
0.63614 0.00500316 0.
0.63814 0.00500619 0.
0.640139 0.00500772 0.
0.642136 0.00500821 0.
0.644133 0.00500869 0.
0.646128 0.00500963 0.
0.648123 0.00501074 0.
0.650118 0.0050118 0.
0.652113 0.00500918 0.
0.654107 0.00500657 0.
0.656105 0.00500404 0.
0.658113 0.00500202 0.
0.660121 0.00500001 0.
0.662125 0.00500049 0.
0.664123 0.0050036 0.
0.66612 0.0050067 0.
0.668118 0.00500825 0.
0.670116 0.00500919 0.
0.672113 0.00501014 0.
0.674113 0.00500773 0.
0.676112 0.00500507 0.
0.678112 0.00500297 0.
0.680113 0.00500405 0.
0.682114 0.00500514 0.
0.684115 0.00500558 0.
0.686115 0.00500491 0.
0.688115 0.00500425 0.
0.690115 0.00500433 0.
0.692115 0.00500488 0.
0.694115 0.00500544 0.
0.696117 0.00500554 0.
0.698118 0.0050055 0.
0.499887 0.00701001 0.
0.501887 0.00700993 0.
0.503887 0.0070098 0.
0.505887 0.00700968 0.
0.507887 0.00700959 0.
0.509888 0.00700951 0.
0.511888 0.00700914 0.
0.513889 0.00700829 0.
0.515889 0.00700744 0.
0.51789 0.00700763 0.
0.519891 0.00700847 0.
0.521891 0.00700933 0.
0.523891 0.00700968 0.
0.52589 0.00700991 0.
0.52789 0.00701021 0.
0.529889 0.00701155 0.
0.531889 0.00701289 0.
0.533889 0.0070139 0.
0.535887 0.00701407 0.
0.537885 0.00701426 0.
0.539885 0.00701391 0.
0.541887 0.00701305 0.
0.543889 0.00701221 0.
0.545888 0.0070124 0.
0.547886 0.00701294 0.
0.549884 0.00701349 0.
0.551881 0.00701473 0.
0.553877 0.00701599 0.
0.555874 0.00701707 0.
0.557871 0.00701749 0.
0.559868 0.00701791 0.
0.561865 0.00701816 0.
0.563862 0.00701801 0.
0.565859 0.00701786 0.
0.567856 0.00701793 0.
0.569853 0.00701822 0.
0.57185 0.00701851 0.
0.573842 0.00702295 0.
0.575833 0.00702819 0.
0.577825 0.00703324 0.
0.579816 0.00703397 0.
0.581808 0.00703471 0.
0.583799 0.00703496 0.
0.585788 0.00703417 0.
0.587777 0.00703341 0.
0.589768 0.00702515 0.
0.591761 0.00700969 0.
0.593754 0.00699431 0.
0.595818 0.0070128 0.
0.597908 0.00704447 0.
0.6 0.00707668 0.
0.60209 0.00704478 0.
0.60418 0.00701342 0.
0.606243 0.00699511 0.
0.608236 0.00700982 0.
0.61023 0.00702459 0.
0.612221 0.00703232 0.
0.614211 0.00703287 0.
0.616201 0.00703342 0.
0.618192 0.00703315 0.
0.620184 0.00703262 0.
0.622176 0.0070321 0.
0.624167 0.00702829 0.
0.626158 0.00702428 0.
0.62815 0.00702069 0.
0.630145 0.00701955 0.
0.63214 0.00701842 0.
0.634137 0.0070176 0.
0.636136 0.00701722 0.
0.638135 0.00701685 0.
0.640133 0.00701691 0.
0.642131 0.0070173 0.
0.644128 0.00701767 0.
0.646125 0.00701733 0.
0.648121 0.00701687 0.
0.650118 0.00701647 0.
0.652115 0.00701647 0.
0.654111 0.00701647 0.
0.65611 0.00701687 0.
0.658114 0.00701847 0.
0.660117 0.00702008 0.
0.662118 0.00701998 0.
0.664117 0.00701804 0.
0.666116 0.0070161 0.
0.668114 0.00701503 0.
0.670113 0.00701435 0.
0.672112 0.00701368 0.
0.674112 0.00701183 0.
0.676112 0.00700987 0.
0.678112 0.00700825 0.
0.680113 0.0070085 0.
0.682114 0.00700875 0.
0.684114 0.00700882 0.
0.686114 0.00700857 0.
0.688114 0.00700832 0.
0.690114 0.00700835 0.
0.692115 0.00700857 0.
0.694115 0.00700879 0.
0.696116 0.00700931 0.
0.698116 0.00700991 0.
0.499888 0.00901336 0.
0.501888 0.00901319 0.
0.503889 0.0090128 0.
0.505889 0.00901249 0.
0.50789 0.00901259 0.
0.50989 0.0090127 0.
0.51189 0.0090131 0.
0.513891 0.00901386 0.
0.515891 0.00901462 0.
0.517892 0.00901469 0.
0.519892 0.0090144 0.
0.521892 0.00901412 0.
0.523892 0.00901507 0.
0.525892 0.00901619 0.
0.527892 0.00901718 0.
0.529891 0.00901723 0.
0.531891 0.00901728 0.
0.533891 0.00901867 0.
0.53589 0.00902303 0.
0.53789 0.00902741 0.
0.539889 0.00902768 0.
0.541888 0.00902422 0.
0.543887 0.00902076 0.
0.545886 0.00901982 0.
0.547884 0.00901976 0.
0.549883 0.0090197 0.
0.551881 0.00902086 0.
0.553879 0.00902209 0.
0.555877 0.00902337 0.
0.557874 0.00902465 0.
0.559872 0.00902594 0.
0.56187 0.0090264 0.
0.563867 0.00902575 0.
0.565865 0.0090251 0.
0.567861 0.00902772 0.
0.569858 0.00903226 0.
0.571854 0.00903682 0.
0.573847 0.00904041 0.
0.57584 0.00904391 0.
0.577833 0.00904712 0.
0.579827 0.00904594 0.
0.581821 0.00904476 0.
0.583816 0.00904358 0.
0.585812 0.00904254 0.
0.587808 0.00904151 0.
0.589805 0.00903035 0.
0.591803 0.00900928 0.
0.593801 0.00898831 0.
0.595854 0.00902189 0.
0.597927 0.00907634 0.
0.600001 0.00913157 0.
0.602072 0.00907689 0.
0.604143 0.009023 0.
0.606195 0.00898998 0.
0.608194 0.00901088 0.
0.610194 0.00903187 0.
0.612191 0.00904249 0.
0.614186 0.00904251 0.
0.616182 0.00904253 0.
0.618177 0.00904199 0.
0.620171 0.00904125 0.
0.622166 0.00904053 0.
0.62416 0.00903644 0.
0.626153 0.00903214 0.
0.628148 0.00902887 0.
0.630143 0.00903171 0.
0.632139 0.00903457 0.
0.634135 0.00903507 0.
0.636132 0.00903129 0.
0.638129 0.00902751 0.
0.640127 0.00902612 0.
0.642125 0.00902639 0.
0.644124 0.00902666 0.
0.646122 0.00902503 0.
0.648119 0.00902302 0.
0.650117 0.00902113 0.
0.652117 0.00902375 0.
0.654116 0.00902638 0.
0.656115 0.00902972 0.
0.658114 0.00903492 0.
0.660113 0.00904013 0.
0.662112 0.00903949 0.
0.664112 0.0090325 0.
0.666111 0.00902552 0.
0.668111 0.00902182 0.
0.670111 0.00901951 0.
0.672111 0.00901722 0.
0.674112 0.00901591 0.
0.676112 0.00901468 0.
0.678113 0.00901352 0.
0.680113 0.00901293 0.
0.682114 0.00901235 0.
0.684114 0.00901206 0.
0.686113 0.00901223 0.
0.688113 0.00901239 0.
0.690113 0.00901238 0.
0.692114 0.00901225 0.
0.694115 0.00901213 0.
0.696115 0.0090131 0.
0.698114 0.00901433 0.
0.499889 0.0110164 0.
0.50189 0.0110161 0.
0.50389 0.0110154 0.
0.505891 0.0110149 0.
0.507891 0.011015 0.
0.509891 0.0110152 0.
0.511892 0.0110158 0.
0.513892 0.011017 0.
0.515893 0.0110183 0.
0.517893 0.0110184 0.
0.519893 0.0110179 0.
0.521893 0.0110174 0.
0.523893 0.0110185 0.
0.525893 0.0110199 0.
0.527893 0.0110211 0.
0.529892 0.0110207 0.
0.531892 0.0110204 0.
0.533892 0.0110219 0.
0.535892 0.0110274 0.
0.537892 0.0110329 0.
0.539891 0.0110335 0.
0.54189 0.0110297 0.
0.543888 0.0110259 0.
0.545887 0.0110245 0.
0.547886 0.0110238 0.
0.549885 0.0110233 0.
0.551884 0.0110245 0.
0.553882 0.0110259 0.
0.55588 0.0110274 0.
0.557879 0.0110289 0.
0.559877 0.0110305 0.
0.561875 0.0110311 0.
0.563873 0.0110305 0.
0.565871 0.01103 0.
0.567868 0.0110334 0.
0.569865 0.0110391 0.
0.571862 0.0110448 0.
0.573857 0.0110481 0.
0.575852 0.011051 0.
0.577848 0.0110535 0.
0.579844 0.0110513 0.
0.581841 0.011049 0.
0.583839 0.0110467 0.
0.58584 0.0110442 0.
0.587841 0.0110417 0.
0.589842 0.01103 0.
0.591845 0.0110094 0.
0.593848 0.0109887 0.
0.595891 0.0110228 0.
0.597947 0.0110756 0.
0.600003 0.0111277 0.
0.602055 0.0110764 0.
0.604109 0.0110244 0.
0.606149 0.0109911 0.
0.608153 0.011012 0.
0.610157 0.0110328 0.
0.612159 0.0110439 0.
0.614159 0.0110448 0.
0.616159 0.0110458 0.
0.618157 0.0110457 0.
0.620154 0.0110453 0.
0.622151 0.0110448 0.
0.624147 0.0110409 0.
0.626143 0.0110367 0.
0.628139 0.0110336 0.
0.630136 0.0110377 0.
0.632133 0.0110417 0.
0.63413 0.0110427 0.
0.636127 0.0110382 0.
0.638124 0.0110336 0.
0.640122 0.0110317 0.
0.64212 0.0110317 0.
0.644119 0.0110317 0.
0.646118 0.0110295 0.
0.648116 0.0110268 0.
0.650115 0.0110243 0.
0.652116 0.011028 0.
0.654116 0.0110317 0.
0.656115 0.0110361 0.
0.658113 0.011042 0.
0.66011 0.0110478 0.
0.662109 0.011047 0.
0.664109 0.0110387 0.
0.666109 0.0110304 0.
0.668109 0.0110259 0.
0.67011 0.011023 0.
0.67211 0.0110201 0.
0.674111 0.011019 0.
0.676112 0.011018 0.
0.678112 0.011017 0.
0.680112 0.0110161 0.
0.682113 0.0110151 0.
0.684113 0.0110147 0.
0.686113 0.0110151 0.
0.688112 0.0110154 0.
0.690113 0.0110155 0.
0.692113 0.0110153 0.
0.694114 0.0110152 0.
0.696114 0.0110163 0.
0.698113 0.0110177 0.
0.49989 0.0130193 0.
0.501891 0.0130186 0.
0.503891 0.0130176 0.
0.505891 0.0130167 0.
0.507892 0.0130168 0.
0.509892 0.013017 0.
0.511892 0.0130173 0.
0.513893 0.0130178 0.
0.515893 0.0130183 0.
0.517894 0.0130186 0.
0.519894 0.0130189 0.
0.521894 0.0130191 0.
0.523894 0.01302 0.
0.525894 0.013021 0.
0.527894 0.0130219 0.
0.529893 0.0130221 0.
0.531893 0.0130222 0.
0.533892 0.0130235 0.
0.535893 0.0130272 0.
0.537893 0.0130309 0.
0.539893 0.0130316 0.
0.541892 0.0130296 0.
0.543892 0.0130276 0.
0.545891 0.0130263 0.
0.54789 0.0130252 0.
0.549889 0.0130241 0.
0.551888 0.0130258 0.
0.553886 0.0130275 0.
0.555885 0.0130291 0.
0.557884 0.0130304 0.
0.559883 0.0130316 0.
0.561881 0.0130323 0.
0.56388 0.0130323 0.
0.565878 0.0130323 0.
0.567877 0.0130349 0.
0.569875 0.0130389 0.
0.571873 0.0130429 0.
0.573871 0.0130464 0.
0.575869 0.0130498 0.
0.577868 0.0130527 0.
0.579867 0.0130502 0.
0.581867 0.0130477 0.
0.583868 0.0130444 0.
0.585872 0.0130394 0.
0.587875 0.0130343 0.
0.589881 0.0130245 0.
0.591888 0.0130101 0.
0.593895 0.0129957 0.
0.595927 0.0130151 0.
0.597966 0.0130453 0.
0.600006 0.0130751 0.
0.602041 0.0130463 0.
0.604076 0.0130172 0.
0.606105 0.0129987 0.
0.608113 0.0130133 0.
0.61012 0.0130279 0.
0.612126 0.0130369 0.
0.614129 0.0130401 0.
0.616132 0.0130433 0.
0.618133 0.0130445 0.
0.620133 0.0130448 0.
0.622133 0.0130452 0.
0.62413 0.0130417 0.
0.626128 0.0130379 0.
0.628126 0.013035 0.
0.630124 0.0130377 0.
0.632123 0.0130403 0.
0.634122 0.0130409 0.
0.63612 0.013038 0.
0.638119 0.0130351 0.
0.640117 0.0130337 0.
0.642116 0.0130333 0.
0.644115 0.0130329 0.
0.646114 0.0130308 0.
0.648113 0.0130283 0.
0.650112 0.0130259 0.
0.652111 0.0130293 0.
0.654111 0.0130326 0.
0.656111 0.0130361 0.
0.65811 0.01304 0.
0.660109 0.0130438 0.
0.662108 0.0130429 0.
0.664109 0.0130369 0.
0.666109 0.0130309 0.
0.668109 0.0130274 0.
0.67011 0.0130248 0.
0.67211 0.0130223 0.
0.67411 0.0130211 0.
0.67611 0.0130199 0.
0.67811 0.0130188 0.
0.680111 0.013018 0.
0.682111 0.0130171 0.
0.684112 0.0130167 0.
0.686112 0.0130171 0.
0.688112 0.0130175 0.
0.690112 0.0130177 0.
0.692112 0.0130178 0.
0.694112 0.0130179 0.
0.696112 0.0130188 0.
0.698112 0.0130199 0.
0.499892 0.0150222 0.
0.501892 0.0150212 0.
0.503892 0.0150198 0.
0.505892 0.0150186 0.
0.507892 0.0150187 0.
0.509893 0.0150187 0.
0.511893 0.0150187 0.
0.513893 0.0150186 0.
0.515894 0.0150185 0.
0.517894 0.0150189 0.
0.519895 0.0150199 0.
0.521896 0.0150208 0.
0.523895 0.0150215 0.
0.525895 0.0150221 0.
0.527894 0.0150227 0.
0.529894 0.0150234 0.
0.531893 0.0150241 0.
0.533893 0.0150251 0.
0.535893 0.015027 0.
0.537894 0.015029 0.
0.539894 0.0150298 0.
0.541895 0.0150295 0.
0.543895 0.0150293 0.
0.545895 0.0150281 0.
0.547894 0.0150266 0.
0.549893 0.015025 0.
0.551892 0.015027 0.
0.553891 0.015029 0.
0.555889 0.0150308 0.
0.557889 0.0150318 0.
0.559888 0.0150328 0.
0.561887 0.0150335 0.
0.563886 0.0150341 0.
0.565885 0.0150347 0.
0.567885 0.0150363 0.
0.569885 0.0150386 0.
0.571884 0.015041 0.
0.573885 0.0150446 0.
0.575886 0.0150485 0.
0.577888 0.0150518 0.
0.57989 0.015049 0.
0.581893 0.0150463 0.
0.583897 0.0150421 0.
0.585903 0.0150345 0.
0.58791 0.0150269 0.
0.589919 0.015019 0.
0.59193 0.0150109 0.
0.593941 0.0150028 0.
0.595962 0.015007 0.
0.597986 0.015015 0.
0.600009 0.0150229 0.
0.602027 0.0150163 0.
0.604045 0.0150096 0.
0.606061 0.0150064 0.
0.608072 0.0150147 0.
0.610083 0.0150231 0.
0.612092 0.0150299 0.
0.614099 0.0150354 0.
0.616106 0.0150408 0.
0.61811 0.0150433 0.
0.620112 0.0150443 0.
0.622114 0.0150454 0.
0.624114 0.0150424 0.
0.626113 0.0150391 0.
0.628112 0.0150364 0.
0.630113 0.0150376 0.
0.632113 0.0150388 0.
0.634114 0.0150392 0.
0.636113 0.0150379 0.
0.638113 0.0150366 0.
0.640113 0.0150356 0.
0.642112 0.0150349 0.
0.644111 0.0150341 0.
0.64611 0.0150321 0.
0.648109 0.0150297 0.
0.650108 0.0150275 0.
0.652107 0.0150305 0.
0.654106 0.0150335 0.
0.656106 0.0150362 0.
0.658107 0.015038 0.
0.660107 0.0150398 0.
0.662108 0.015039 0.
0.664108 0.0150352 0.
0.666109 0.0150314 0.
0.668109 0.0150288 0.
0.670109 0.0150266 0.
0.67211 0.0150245 0.
0.674109 0.0150231 0.
0.676109 0.0150218 0.
0.678109 0.0150206 0.
0.680109 0.0150198 0.
0.68211 0.015019 0.
0.684111 0.0150187 0.
0.686111 0.0150191 0.
0.688112 0.0150195 0.
0.690111 0.0150199 0.
0.692111 0.0150203 0.
0.69411 0.0150207 0.
0.696111 0.0150213 0.
0.698111 0.0150221 0.
0.499893 0.0170243 0.
0.501893 0.0170233 0.
0.503893 0.0170222 0.
0.505893 0.0170212 0.
0.507894 0.0170209 0.
0.509894 0.0170206 0.
0.511894 0.0170204 0.
0.513895 0.0170202 0.
0.515895 0.0170201 0.
0.517896 0.0170204 0.
0.519897 0.0170209 0.
0.521897 0.0170215 0.
0.523897 0.0170224 0.
0.525896 0.0170232 0.
0.527896 0.017024 0.
0.529895 0.0170246 0.
0.531895 0.0170252 0.
0.533895 0.0170261 0.
0.535895 0.0170276 0.
0.537896 0.0170291 0.
0.539896 0.0170297 0.
0.541897 0.0170294 0.
0.543898 0.0170291 0.
0.545898 0.0170285 0.
0.547897 0.0170277 0.
0.549897 0.017027 0.
0.551896 0.0170286 0.
0.553894 0.0170303 0.
0.555893 0.0170317 0.
0.557893 0.0170324 0.
0.559892 0.0170331 0.
0.561892 0.0170337 0.
0.563892 0.0170342 0.
0.565891 0.0170346 0.
0.567891 0.0170362 0.
0.569891 0.0170384 0.
0.571891 0.0170406 0.
0.573893 0.0170435 0.
0.575895 0.0170465 0.
0.577898 0.0170489 0.
0.579902 0.0170456 0.
0.581906 0.0170424 0.
0.583911 0.0170378 0.
0.585918 0.0170302 0.
0.587925 0.0170227 0.
0.589933 0.0170152 0.
0.591942 0.0170077 0.
0.593952 0.0170003 0.
0.595968 0.0170027 0.
0.597987 0.0170082 0.
0.600006 0.0170136 0.
0.602022 0.0170099 0.
0.604037 0.0170061 0.
0.606052 0.0170049 0.
0.608061 0.017012 0.
0.61007 0.0170191 0.
0.612079 0.0170253 0.
0.614085 0.0170306 0.
0.616092 0.0170359 0.
0.618096 0.0170391 0.
0.6201 0.0170414 0.
0.622103 0.0170436 0.
0.624104 0.0170413 0.
0.626105 0.0170387 0.
0.628106 0.0170366 0.
0.630107 0.0170375 0.
0.632107 0.0170384 0.
0.634108 0.0170387 0.
0.636108 0.0170379 0.
0.638108 0.0170372 0.
0.640108 0.0170364 0.
0.642108 0.0170356 0.
0.644107 0.0170348 0.
0.646106 0.017033 0.
0.648105 0.017031 0.
0.650104 0.0170291 0.
0.652104 0.0170313 0.
0.654104 0.0170336 0.
0.656104 0.0170357 0.
0.658104 0.0170373 0.
0.660105 0.0170389 0.
0.662106 0.0170383 0.
0.664107 0.0170352 0.
0.666107 0.0170322 0.
0.668107 0.0170301 0.
0.670108 0.0170283 0.
0.672108 0.0170265 0.
0.674107 0.0170249 0.
0.676107 0.0170233 0.
0.678107 0.0170219 0.
0.680108 0.0170212 0.
0.682109 0.0170205 0.
0.684109 0.0170201 0.
0.686109 0.0170201 0.
0.68811 0.0170201 0.
0.69011 0.0170207 0.
0.692109 0.0170216 0.
0.694109 0.0170226 0.
0.696109 0.0170233 0.
0.698109 0.0170241 0.
0.499893 0.0190264 0.
0.501894 0.0190255 0.
0.503895 0.0190246 0.
0.505895 0.0190238 0.
0.507895 0.0190232 0.
0.509895 0.0190225 0.
0.511896 0.019022 0.
0.513896 0.0190219 0.
0.515897 0.0190217 0.
0.517898 0.0190218 0.
0.519898 0.019022 0.
0.521899 0.0190223 0.
0.523899 0.0190232 0.
0.525898 0.0190243 0.
0.527897 0.0190253 0.
0.529897 0.0190258 0.
0.531897 0.0190264 0.
0.533897 0.0190271 0.
0.535897 0.0190282 0.
0.537898 0.0190293 0.
0.539898 0.0190297 0.
0.541899 0.0190292 0.
0.5439 0.0190288 0.
0.545901 0.0190288 0.
0.5479 0.0190289 0.
0.5499 0.019029 0.
0.551899 0.0190302 0.
0.553898 0.0190315 0.
0.555897 0.0190326 0.
0.557897 0.019033 0.
0.559897 0.0190335 0.
0.561897 0.0190339 0.
0.563897 0.0190342 0.
0.565897 0.0190346 0.
0.567897 0.019036 0.
0.569897 0.0190381 0.
0.571898 0.0190403 0.
0.573901 0.0190424 0.
0.575904 0.0190445 0.
0.577907 0.0190461 0.
0.579913 0.0190422 0.
0.581919 0.0190384 0.
0.583925 0.0190335 0.
0.585932 0.019026 0.
0.587939 0.0190184 0.
0.589946 0.0190113 0.
0.591954 0.0190045 0.
0.593962 0.0189977 0.
0.595975 0.0189984 0.
0.597989 0.0190013 0.
0.600004 0.0190042 0.
0.602017 0.0190034 0.
0.60403 0.0190026 0.
0.606042 0.0190033 0.
0.60805 0.0190092 0.
0.610058 0.0190151 0.
0.612065 0.0190206 0.
0.614071 0.0190258 0.
0.616078 0.019031 0.
0.618083 0.019035 0.
0.620088 0.0190384 0.
0.622093 0.0190417 0.
0.624095 0.0190402 0.
0.626097 0.0190383 0.
0.628099 0.0190367 0.
0.630101 0.0190373 0.
0.632102 0.0190379 0.
0.634103 0.0190382 0.
0.636103 0.019038 0.
0.638103 0.0190377 0.
0.640103 0.0190371 0.
0.642103 0.0190363 0.
0.644103 0.0190356 0.
0.646103 0.019034 0.
0.648102 0.0190323 0.
0.650101 0.0190306 0.
0.652101 0.0190322 0.
0.654101 0.0190338 0.
0.656101 0.0190353 0.
0.658102 0.0190366 0.
0.660103 0.019038 0.
0.662104 0.0190376 0.
0.664105 0.0190353 0.
0.666106 0.019033 0.
0.668106 0.0190314 0.
0.670106 0.0190299 0.
0.672106 0.0190285 0.
0.674105 0.0190267 0.
0.676105 0.0190249 0.
0.678105 0.0190232 0.
0.680106 0.0190226 0.
0.682107 0.019022 0.
0.684107 0.0190214 0.
0.686108 0.0190211 0.
0.688108 0.0190207 0.
0.690108 0.0190214 0.
0.692108 0.0190229 0.
0.694108 0.0190245 0.
0.696107 0.0190254 0.
0.698107 0.0190262 0.
0.499895 0.0210281 0.
0.501896 0.0210272 0.
0.503896 0.0210264 0.
0.505897 0.0210256 0.
0.507897 0.0210248 0.
0.509897 0.0210241 0.
0.511898 0.0210235 0.
0.513898 0.0210232 0.
0.515899 0.0210229 0.
0.5179 0.0210228 0.
0.5199 0.0210229 0.
0.5219 0.021023 0.
0.5239 0.021024 0.
0.5259 0.0210251 0.
0.527899 0.0210261 0.
0.529899 0.0210269 0.
0.531899 0.0210276 0.
0.533899 0.0210283 0.
0.5359 0.0210287 0.
0.5379 0.0210292 0.
0.539901 0.0210291 0.
0.541902 0.0210287 0.
0.543903 0.0210282 0.
0.545904 0.0210285 0.
0.547904 0.0210291 0.
0.549904 0.0210297 0.
0.551903 0.0210308 0.
0.553902 0.0210319 0.
0.555902 0.0210328 0.
0.557902 0.0210331 0.
0.559902 0.0210333 0.
0.561902 0.0210336 0.
0.563903 0.0210337 0.
0.565904 0.0210339 0.
0.567904 0.021035 0.
0.569905 0.0210368 0.
0.571906 0.0210386 0.
0.57391 0.0210398 0.
0.575914 0.0210409 0.
0.577918 0.0210415 0.
0.579924 0.0210376 0.
0.58193 0.0210338 0.
0.583936 0.0210288 0.
0.585943 0.0210216 0.
0.587949 0.0210143 0.
0.589956 0.0210078 0.
0.591963 0.0210019 0.
0.593969 0.020996 0.
0.595979 0.0209955 0.
0.597991 0.0209966 0.
0.600002 0.0209976 0.
0.602013 0.0209986 0.
0.604024 0.0209996 0.
0.606034 0.0210015 0.
0.608041 0.0210066 0.
0.610048 0.0210117 0.
0.612054 0.0210166 0.
0.61406 0.0210215 0.
0.616066 0.0210264 0.
0.618072 0.0210306 0.
0.620077 0.0210346 0.
0.622082 0.0210385 0.
0.624085 0.0210377 0.
0.626089 0.0210364 0.
0.628092 0.0210353 0.
0.630093 0.021036 0.
0.632095 0.0210366 0.
0.634096 0.0210371 0.
0.636096 0.0210374 0.
0.638097 0.0210376 0.
0.640098 0.0210372 0.
0.642098 0.0210363 0.
0.644099 0.0210355 0.
0.646098 0.0210342 0.
0.648098 0.0210328 0.
0.650097 0.0210314 0.
0.652098 0.0210325 0.
0.654098 0.0210336 0.
0.656098 0.0210347 0.
0.658099 0.0210359 0.
0.6601 0.0210371 0.
0.662101 0.0210369 0.
0.664102 0.0210351 0.
0.666103 0.0210334 0.
0.668103 0.0210321 0.
0.670103 0.021031 0.
0.672103 0.0210299 0.
0.674103 0.021028 0.
0.676103 0.021026 0.
0.678103 0.0210242 0.
0.680104 0.0210236 0.
0.682105 0.0210231 0.
0.684105 0.0210226 0.
0.686105 0.0210224 0.
0.688105 0.0210222 0.
0.690106 0.021023 0.
0.692106 0.0210246 0.
0.694106 0.0210262 0.
0.696106 0.0210273 0.
0.698105 0.0210284 0.
0.499898 0.0230294 0.
0.501898 0.0230285 0.
0.503899 0.0230275 0.
0.505899 0.0230266 0.
0.507899 0.0230259 0.
0.509899 0.0230253 0.
0.5119 0.0230247 0.
0.5139 0.0230241 0.
0.515901 0.0230236 0.
0.517901 0.0230235 0.
0.519901 0.0230236 0.
0.521901 0.0230238 0.
0.523901 0.0230246 0.
0.525901 0.0230256 0.
0.527902 0.0230265 0.
0.529902 0.0230277 0.
0.531901 0.0230288 0.
0.533902 0.0230295 0.
0.535902 0.0230291 0.
0.537903 0.0230286 0.
0.539904 0.0230282 0.
0.541906 0.0230276 0.
0.543907 0.0230271 0.
0.545907 0.0230276 0.
0.547907 0.0230284 0.
0.549907 0.0230291 0.
0.551907 0.0230303 0.
0.553907 0.0230314 0.
0.555907 0.0230324 0.
0.557907 0.0230326 0.
0.559908 0.0230328 0.
0.561909 0.0230329 0.
0.56391 0.0230328 0.
0.565911 0.0230327 0.
0.567913 0.0230334 0.
0.569915 0.0230344 0.
0.571917 0.0230355 0.
0.57392 0.0230357 0.
0.575924 0.0230357 0.
0.577928 0.0230355 0.
0.579934 0.0230319 0.
0.581939 0.0230283 0.
0.583944 0.0230237 0.
0.58595 0.023017 0.
0.587956 0.0230104 0.
0.589962 0.0230047 0.
0.591968 0.023 0.
0.593974 0.0229952 0.
0.595983 0.022994 0.
0.597992 0.0229939 0.
0.600001 0.0229937 0.
0.602011 0.0229954 0.
0.60402 0.0229971 0.
0.606028 0.0229994 0.
0.608035 0.0230041 0.
0.610041 0.0230088 0.
0.612047 0.0230133 0.
0.614052 0.0230176 0.
0.616057 0.0230219 0.
0.618062 0.0230261 0.
0.620067 0.0230301 0.
0.622072 0.0230341 0.
0.624076 0.0230337 0.
0.62608 0.023033 0.
0.628083 0.0230324 0.
0.630085 0.0230334 0.
0.632086 0.0230344 0.
0.634088 0.0230353 0.
0.636089 0.0230361 0.
0.63809 0.0230369 0.
0.640091 0.0230366 0.
0.642092 0.0230356 0.
0.644093 0.0230346 0.
0.646093 0.0230336 0.
0.648093 0.0230325 0.
0.650093 0.0230315 0.
0.652094 0.0230323 0.
0.654094 0.0230331 0.
0.656095 0.023034 0.
0.658095 0.0230351 0.
0.660096 0.0230362 0.
0.662097 0.0230361 0.
0.664098 0.0230347 0.
0.666099 0.0230333 0.
0.668099 0.0230323 0.
0.6701 0.0230314 0.
0.6721 0.0230305 0.
0.6741 0.0230287 0.
0.6761 0.0230268 0.
0.6781 0.0230251 0.
0.680101 0.0230244 0.
0.682101 0.0230238 0.
0.684102 0.0230235 0.
0.686102 0.0230241 0.
0.688103 0.0230246 0.
0.690103 0.0230255 0.
0.692104 0.0230267 0.
0.694104 0.0230278 0.
0.696104 0.0230292 0.
0.698103 0.0230307 0.
0.499901 0.0250308 0.
0.501901 0.0250299 0.
0.503901 0.0250286 0.
0.505901 0.0250275 0.
0.507901 0.025027 0.
0.509901 0.0250265 0.
0.511902 0.0250259 0.
0.513902 0.0250251 0.
0.515903 0.0250243 0.
0.517903 0.0250242 0.
0.519903 0.0250244 0.
0.521902 0.0250246 0.
0.523903 0.0250253 0.
0.525903 0.0250261 0.
0.527904 0.0250269 0.
0.529904 0.0250285 0.
0.531904 0.02503 0.
0.533904 0.0250307 0.
0.535905 0.0250294 0.
0.537906 0.0250281 0.
0.539907 0.0250272 0.
0.541909 0.0250267 0.
0.54391 0.0250261 0.
0.54591 0.0250267 0.
0.54791 0.0250277 0.
0.54991 0.0250286 0.
0.55191 0.0250298 0.
0.553911 0.025031 0.
0.555912 0.0250319 0.
0.557913 0.0250321 0.
0.559914 0.0250322 0.
0.561916 0.0250321 0.
0.563917 0.0250319 0.
0.565919 0.0250316 0.
0.567922 0.0250317 0.
0.569924 0.025032 0.
0.571927 0.0250324 0.
0.573931 0.0250316 0.
0.575935 0.0250306 0.
0.577939 0.0250294 0.
0.579943 0.0250262 0.
0.581948 0.0250229 0.
0.583953 0.0250187 0.
0.585958 0.0250125 0.
0.587963 0.0250064 0.
0.589968 0.0250016 0.
0.591973 0.024998 0.
0.593979 0.0249944 0.
0.595986 0.0249925 0.
0.597993 0.0249912 0.
0.600001 0.0249899 0.
0.602008 0.0249922 0.
0.604015 0.0249945 0.
0.606022 0.0249973 0.
0.608028 0.0250016 0.
0.610034 0.0250059 0.
0.61204 0.0250099 0.
0.614044 0.0250137 0.
0.616048 0.0250175 0.
0.618053 0.0250216 0.
0.620057 0.0250256 0.
0.622061 0.0250297 0.
0.624066 0.0250298 0.
0.62607 0.0250296 0.
0.628075 0.0250296 0.
0.630076 0.0250309 0.
0.632078 0.0250322 0.
0.634079 0.0250336 0.
0.636081 0.0250348 0.
0.638084 0.0250361 0.
0.640085 0.025036 0.
0.642086 0.0250349 0.
0.644087 0.0250338 0.
0.646088 0.025033 0.
0.648088 0.0250323 0.
0.650089 0.0250316 0.
0.65209 0.0250321 0.
0.65409 0.0250326 0.
0.656091 0.0250332 0.
0.658092 0.0250342 0.
0.660092 0.0250353 0.
0.662093 0.0250353 0.
0.664094 0.0250342 0.
0.666095 0.0250331 0.
0.668096 0.0250324 0.
0.670096 0.0250318 0.
0.672097 0.0250312 0.
0.674097 0.0250294 0.
0.676097 0.0250276 0.
0.678098 0.0250259 0.
0.680098 0.0250252 0.
0.682098 0.0250245 0.
0.684099 0.0250245 0.
0.6861 0.0250257 0.
0.688101 0.025027 0.
0.690101 0.0250279 0.
0.692101 0.0250287 0.
0.694101 0.0250295 0.
0.696102 0.0250312 0.
0.698102 0.025033 0.
0.499902 0.0270323 0.
0.501902 0.0270311 0.
0.503902 0.0270295 0.
0.505903 0.0270281 0.
0.507903 0.0270278 0.
0.509903 0.0270276 0.
0.511904 0.027027 0.
0.513904 0.0270259 0.
0.515904 0.0270249 0.
0.517905 0.0270247 0.
0.519905 0.027025 0.
0.521905 0.0270254 0.
0.523905 0.0270261 0.
0.525906 0.0270268 0.
0.527906 0.0270275 0.
0.529907 0.0270283 0.
0.531907 0.027029 0.
0.533908 0.0270293 0.
0.535909 0.0270285 0.
0.53791 0.0270277 0.
0.539911 0.0270271 0.
0.541911 0.0270268 0.
0.543912 0.0270264 0.
0.545913 0.0270266 0.
0.547913 0.027027 0.
0.549913 0.0270274 0.
0.551913 0.0270288 0.
0.553914 0.0270302 0.
0.555915 0.0270313 0.
0.557917 0.0270311 0.
0.559918 0.027031 0.
0.56192 0.0270308 0.
0.563922 0.0270307 0.
0.565924 0.0270305 0.
0.567926 0.0270301 0.
0.569929 0.0270295 0.
0.571931 0.027029 0.
0.573936 0.0270283 0.
0.57594 0.0270276 0.
0.577944 0.0270266 0.
0.579949 0.027023 0.
0.581953 0.0270194 0.
0.583958 0.0270151 0.
0.585963 0.0270095 0.
0.587968 0.0270038 0.
0.589972 0.0269994 0.
0.591977 0.026996 0.
0.593981 0.0269927 0.
0.595987 0.0269913 0.
0.597994 0.0269904 0.
0.600001 0.0269896 0.
0.602007 0.0269914 0.
0.604014 0.0269933 0.
0.60602 0.0269956 0.
0.608025 0.0269995 0.
0.61003 0.0270034 0.
0.612034 0.0270073 0.
0.614039 0.027011 0.
0.616043 0.0270147 0.
0.618047 0.0270185 0.
0.620052 0.0270224 0.
0.622056 0.0270263 0.
0.62406 0.0270268 0.
0.626064 0.027027 0.
0.628068 0.0270273 0.
0.63007 0.0270289 0.
0.632073 0.0270306 0.
0.634075 0.027032 0.
0.636077 0.0270331 0.
0.638079 0.0270341 0.
0.64008 0.0270342 0.
0.642081 0.0270337 0.
0.644082 0.0270332 0.
0.646083 0.0270325 0.
0.648084 0.0270317 0.
0.650085 0.0270309 0.
0.652086 0.0270312 0.
0.654087 0.0270316 0.
0.656088 0.0270321 0.
0.658089 0.0270332 0.
0.660089 0.0270343 0.
0.66209 0.0270345 0.
0.664091 0.0270335 0.
0.666092 0.0270326 0.
0.668093 0.027032 0.
0.670094 0.0270316 0.
0.672095 0.0270311 0.
0.674095 0.0270293 0.
0.676095 0.0270274 0.
0.678096 0.0270256 0.
0.680096 0.0270254 0.
0.682097 0.0270252 0.
0.684097 0.0270255 0.
0.686098 0.0270267 0.
0.688099 0.027028 0.
0.690099 0.027029 0.
0.692099 0.02703 0.
0.694099 0.027031 0.
0.6961 0.0270328 0.
0.6981 0.0270348 0.
0.499903 0.029034 0.
0.501903 0.0290323 0.
0.503904 0.0290303 0.
0.505904 0.0290287 0.
0.507905 0.0290287 0.
0.509905 0.0290287 0.
0.511905 0.0290282 0.
0.513906 0.0290268 0.
0.515906 0.0290254 0.
0.517906 0.0290252 0.
0.519907 0.0290257 0.
0.521907 0.0290262 0.
0.523907 0.0290268 0.
0.525908 0.0290275 0.
0.527908 0.0290281 0.
0.52991 0.029028 0.
0.531911 0.029028 0.
0.533912 0.0290279 0.
0.535912 0.0290276 0.
0.537913 0.0290273 0.
0.539914 0.0290271 0.
0.541914 0.0290269 0.
0.543914 0.0290268 0.
0.545915 0.0290266 0.
0.547915 0.0290264 0.
0.549916 0.0290262 0.
0.551917 0.0290278 0.
0.553917 0.0290295 0.
0.555918 0.0290307 0.
0.55792 0.0290302 0.
0.559923 0.0290297 0.
0.561925 0.0290295 0.
0.563926 0.0290295 0.
0.565928 0.0290295 0.
0.567931 0.0290285 0.
0.569933 0.029027 0.
0.571936 0.0290256 0.
0.57394 0.029025 0.
0.575945 0.0290246 0.
0.577949 0.0290238 0.
0.579954 0.0290199 0.
0.581959 0.0290159 0.
0.583964 0.0290116 0.
0.585968 0.0290064 0.
0.587973 0.0290013 0.
0.589976 0.0289972 0.
0.59198 0.0289941 0.
0.593983 0.0289909 0.
0.595989 0.02899 0.
0.597995 0.0289897 0.
0.600001 0.0289893 0.
0.602006 0.0289907 0.
0.604012 0.028992 0.
0.606017 0.0289939 0.
0.608021 0.0289974 0.
0.610025 0.029001 0.
0.612029 0.0290046 0.
0.614033 0.0290082 0.
0.616037 0.0290117 0.
0.618042 0.0290154 0.
0.620046 0.0290192 0.
0.622051 0.0290229 0.
0.624054 0.0290238 0.
0.626058 0.0290243 0.
0.628062 0.0290251 0.
0.630065 0.029027 0.
0.632067 0.0290289 0.
0.63407 0.0290305 0.
0.636072 0.0290313 0.
0.638074 0.0290321 0.
0.640075 0.0290325 0.
0.642076 0.0290325 0.
0.644078 0.0290325 0.
0.646079 0.0290319 0.
0.64808 0.029031 0.
0.650081 0.0290302 0.
0.652082 0.0290304 0.
0.654083 0.0290306 0.
0.656084 0.029031 0.
0.658085 0.0290322 0.
0.660087 0.0290334 0.
0.662088 0.0290336 0.
0.664088 0.0290329 0.
0.666089 0.0290321 0.
0.66809 0.0290316 0.
0.670091 0.0290313 0.
0.672093 0.029031 0.
0.674093 0.0290291 0.
0.676094 0.0290271 0.
0.678094 0.0290254 0.
0.680095 0.0290256 0.
0.682095 0.0290259 0.
0.684096 0.0290265 0.
0.686096 0.0290277 0.
0.688097 0.029029 0.
0.690097 0.0290302 0.
0.692097 0.0290314 0.
0.694097 0.0290326 0.
0.696098 0.0290345 0.
0.698098 0.0290366 0.
0.499905 0.0310352 0.
0.501905 0.0310335 0.
0.503906 0.0310315 0.
0.505906 0.0310299 0.
0.507907 0.0310297 0.
0.509907 0.0310296 0.
0.511907 0.0310289 0.
0.513908 0.0310276 0.
0.515908 0.0310262 0.
0.517909 0.0310259 0.
0.519909 0.0310263 0.
0.52191 0.0310267 0.
0.52391 0.0310273 0.
0.525911 0.0310279 0.
0.527911 0.0310283 0.
0.529913 0.0310278 0.
0.531914 0.0310272 0.
0.533915 0.0310269 0.
0.535916 0.0310269 0.
0.537916 0.0310269 0.
0.539917 0.0310268 0.
0.541917 0.0310266 0.
0.543917 0.0310264 0.
0.545918 0.031026 0.
0.547919 0.0310256 0.
0.54992 0.0310253 0.
0.551921 0.0310267 0.
0.553922 0.0310283 0.
0.555923 0.0310294 0.
0.557925 0.0310288 0.
0.559927 0.0310282 0.
0.561929 0.0310279 0.
0.563931 0.0310278 0.
0.565933 0.0310276 0.
0.567935 0.0310263 0.
0.569938 0.0310244 0.
0.571941 0.0310225 0.
0.573945 0.0310218 0.
0.57595 0.0310214 0.
0.577954 0.0310206 0.
0.579959 0.0310167 0.
0.581964 0.0310127 0.
0.583968 0.0310086 0.
0.585972 0.0310039 0.
0.587976 0.0309992 0.
0.589979 0.0309955 0.
0.591982 0.0309926 0.
0.593986 0.0309898 0.
0.59599 0.030989 0.
0.597995 0.0309888 0.
0.6 0.0309886 0.
0.602005 0.0309899 0.
0.604011 0.0309911 0.
0.606015 0.0309927 0.
0.608018 0.0309959 0.
0.610022 0.030999 0.
0.612025 0.0310023 0.
0.614029 0.0310057 0.
0.616033 0.0310091 0.
0.618037 0.0310127 0.
0.620041 0.0310163 0.
0.622045 0.0310198 0.
0.624049 0.031021 0.
0.626053 0.0310219 0.
0.628056 0.0310229 0.
0.630059 0.0310248 0.
0.632062 0.0310267 0.
0.634064 0.0310282 0.
0.636066 0.0310292 0.
0.638069 0.0310301 0.
0.64007 0.0310307 0.
0.642072 0.0310311 0.
0.644073 0.0310315 0.
0.646074 0.0310309 0.
0.648076 0.0310301 0.
0.650077 0.0310292 0.
0.652078 0.0310294 0.
0.654079 0.0310296 0.
0.65608 0.0310301 0.
0.658082 0.0310312 0.
0.660083 0.0310324 0.
0.662084 0.0310326 0.
0.664085 0.031032 0.
0.666086 0.0310313 0.
0.668087 0.0310311 0.
0.670089 0.031031 0.
0.67209 0.0310309 0.
0.674091 0.0310292 0.
0.676091 0.0310274 0.
0.678092 0.0310259 0.
0.680093 0.0310262 0.
0.682093 0.0310266 0.
0.684094 0.0310273 0.
0.686094 0.0310285 0.
0.688094 0.0310297 0.
0.690095 0.031031 0.
0.692095 0.0310325 0.
0.694096 0.0310339 0.
0.696096 0.0310358 0.
0.698097 0.0310379 0.
0.499907 0.0330361 0.
0.501907 0.0330348 0.
0.503908 0.0330332 0.
0.505908 0.0330317 0.
0.507909 0.033031 0.
0.509909 0.0330302 0.
0.511909 0.0330293 0.
0.51391 0.0330282 0.
0.515911 0.0330272 0.
0.517912 0.0330269 0.
0.519912 0.0330269 0.
0.521913 0.0330269 0.
0.523913 0.0330274 0.
0.525914 0.0330279 0.
0.527914 0.0330283 0.
0.529916 0.0330275 0.
0.531917 0.0330268 0.
0.533918 0.0330263 0.
0.535918 0.0330264 0.
0.537919 0.0330265 0.
0.53992 0.0330263 0.
0.54192 0.0330258 0.
0.543921 0.0330253 0.
0.545922 0.033025 0.
0.547923 0.0330248 0.
0.549924 0.0330246 0.
0.551926 0.0330256 0.
0.553927 0.0330266 0.
0.555928 0.0330273 0.
0.557931 0.0330269 0.
0.559933 0.0330264 0.
0.561935 0.033026 0.
0.563937 0.0330255 0.
0.565938 0.033025 0.
0.567941 0.0330236 0.
0.569943 0.0330217 0.
0.571946 0.0330198 0.
0.57395 0.0330188 0.
0.575954 0.033018 0.
0.577958 0.0330169 0.
0.579963 0.0330134 0.
0.581967 0.0330098 0.
0.583971 0.033006 0.
0.585974 0.0330017 0.
0.587977 0.0329975 0.
0.589981 0.0329942 0.
0.591984 0.0329917 0.
0.593988 0.0329892 0.
0.595992 0.0329883 0.
0.597996 0.0329879 0.
0.600001 0.0329874 0.
0.602005 0.0329889 0.
0.604009 0.0329904 0.
0.606013 0.0329922 0.
0.608016 0.0329948 0.
0.610019 0.0329973 0.
0.612022 0.0330003 0.
0.614026 0.0330035 0.
0.61603 0.0330068 0.
0.618033 0.0330102 0.
0.620036 0.0330136 0.
0.622039 0.033017 0.
0.624043 0.0330184 0.
0.626047 0.0330196 0.
0.62805 0.0330208 0.
0.630053 0.0330223 0.
0.632056 0.0330239 0.
0.634059 0.0330253 0.
0.636061 0.0330267 0.
0.638063 0.0330281 0.
0.640065 0.033029 0.
0.642067 0.0330295 0.
0.644068 0.0330301 0.
0.64607 0.0330296 0.
0.648072 0.0330288 0.
0.650074 0.0330281 0.
0.652075 0.0330284 0.
0.654075 0.0330288 0.
0.656076 0.0330293 0.
0.658078 0.0330303 0.
0.660079 0.0330313 0.
0.662081 0.0330315 0.
0.664082 0.0330309 0.
0.666084 0.0330302 0.
0.668085 0.0330303 0.
0.670086 0.0330306 0.
0.672087 0.0330309 0.
0.674088 0.0330296 0.
0.676089 0.0330282 0.
0.67809 0.033027 0.
0.68009 0.0330272 0.
0.68209 0.0330274 0.
0.684091 0.033028 0.
0.686091 0.0330291 0.
0.688092 0.0330302 0.
0.690092 0.0330317 0.
0.692093 0.0330333 0.
0.694095 0.033035 0.
0.696095 0.0330368 0.
0.698096 0.0330387 0.
0.499909 0.0350371 0.
0.50191 0.035036 0.
0.50391 0.0350348 0.
0.50591 0.0350335 0.
0.507911 0.0350322 0.
0.509911 0.0350308 0.
0.511912 0.0350297 0.
0.513912 0.0350289 0.
0.515913 0.0350282 0.
0.517914 0.0350278 0.
0.519915 0.0350275 0.
0.521916 0.0350272 0.
0.523917 0.0350275 0.
0.525917 0.0350279 0.
0.527918 0.0350282 0.
0.529919 0.0350272 0.
0.53192 0.0350263 0.
0.533921 0.0350257 0.
0.535921 0.0350259 0.
0.537922 0.0350262 0.
0.539923 0.0350258 0.
0.541924 0.035025 0.
0.543925 0.0350243 0.
0.545926 0.035024 0.
0.547928 0.0350239 0.
0.549929 0.0350239 0.
0.551931 0.0350244 0.
0.553932 0.0350249 0.
0.555934 0.0350253 0.
0.557936 0.035025 0.
0.559938 0.0350246 0.
0.56194 0.0350241 0.
0.563942 0.0350233 0.
0.565944 0.0350224 0.
0.567946 0.0350209 0.
0.569948 0.035019 0.
0.57195 0.0350171 0.
0.573954 0.0350158 0.
0.575958 0.0350147 0.
0.577962 0.0350133 0.
0.579967 0.0350101 0.
0.581971 0.0350068 0.
0.583974 0.0350034 0.
0.585977 0.0349996 0.
0.587979 0.0349958 0.
0.589982 0.0349929 0.
0.591986 0.0349908 0.
0.59399 0.0349887 0.
0.595993 0.0349876 0.
0.597997 0.0349869 0.
0.600001 0.0349862 0.
0.602004 0.034988 0.
0.604008 0.0349898 0.
0.606011 0.0349916 0.
0.608014 0.0349937 0.
0.610016 0.0349957 0.
0.61202 0.0349982 0.
0.614023 0.0350014 0.
0.616027 0.0350045 0.
0.61803 0.0350077 0.
0.620032 0.035011 0.
0.622034 0.0350142 0.
0.624037 0.0350159 0.
0.626041 0.0350173 0.
0.628045 0.0350187 0.
0.630048 0.0350199 0.
0.63205 0.035021 0.
0.634053 0.0350225 0.
0.636055 0.0350243 0.
0.638058 0.0350261 0.
0.64006 0.0350273 0.
0.642062 0.035028 0.
0.644064 0.0350286 0.
0.646066 0.0350282 0.
0.648068 0.0350276 0.
0.65007 0.0350269 0.
0.652071 0.0350274 0.
0.654072 0.0350279 0.
0.656073 0.0350285 0.
0.658074 0.0350294 0.
0.660076 0.0350302 0.
0.662077 0.0350303 0.
0.664079 0.0350298 0.
0.666081 0.0350292 0.
0.668083 0.0350295 0.
0.670083 0.0350302 0.
0.672084 0.0350309 0.
0.674086 0.03503 0.
0.676087 0.035029 0.
0.678088 0.0350282 0.
0.680088 0.0350282 0.
0.682088 0.0350282 0.
0.684088 0.0350286 0.
0.686088 0.0350297 0.
0.688089 0.0350307 0.
0.69009 0.0350323 0.
0.692092 0.0350342 0.
0.694093 0.0350361 0.
0.696094 0.0350378 0.
0.698095 0.0350395 0.
0.499912 0.0370383 0.
0.501912 0.037037 0.
0.503913 0.0370355 0.
0.505913 0.037034 0.
0.507913 0.0370327 0.
0.509914 0.0370315 0.
0.511914 0.0370304 0.
0.513915 0.0370294 0.
0.515916 0.0370284 0.
0.517917 0.0370279 0.
0.519917 0.0370277 0.
0.521918 0.0370275 0.
0.523919 0.0370276 0.
0.52592 0.0370278 0.
0.52792 0.0370279 0.
0.529921 0.0370271 0.
0.531922 0.0370263 0.
0.533923 0.0370257 0.
0.535924 0.0370253 0.
0.537924 0.0370249 0.
0.539925 0.0370245 0.
0.541927 0.0370239 0.
0.543928 0.0370234 0.
0.545929 0.0370231 0.
0.547931 0.0370229 0.
0.549932 0.0370227 0.
0.551934 0.0370232 0.
0.553936 0.0370236 0.
0.555938 0.0370239 0.
0.557939 0.0370234 0.
0.559941 0.0370229 0.
0.561943 0.0370223 0.
0.563945 0.0370214 0.
0.565947 0.0370205 0.
0.56795 0.0370187 0.
0.569952 0.0370164 0.
0.571954 0.0370141 0.
0.573958 0.0370129 0.
0.575962 0.0370118 0.
0.577965 0.0370105 0.
0.579969 0.0370076 0.
0.581973 0.0370047 0.
0.583976 0.0370016 0.
0.585979 0.0369981 0.
0.587982 0.0369946 0.
0.589984 0.036992 0.
0.591988 0.03699 0.
0.593991 0.0369881 0.
0.595994 0.0369871 0.
0.597997 0.0369865 0.
0.6 0.0369859 0.
0.602004 0.0369877 0.
0.604008 0.0369894 0.
0.606011 0.0369912 0.
0.608013 0.0369931 0.
0.610016 0.036995 0.
0.612018 0.0369972 0.
0.614021 0.037 0.
0.616024 0.0370027 0.
0.618026 0.0370056 0.
0.620029 0.0370086 0.
0.622031 0.0370116 0.
0.624035 0.0370135 0.
0.626038 0.0370152 0.
0.628042 0.0370169 0.
0.630045 0.0370184 0.
0.632047 0.0370198 0.
0.63405 0.0370213 0.
0.636052 0.0370227 0.
0.638054 0.0370242 0.
0.640056 0.0370254 0.
0.642058 0.0370264 0.
0.64406 0.0370274 0.
0.646062 0.0370273 0.
0.648064 0.0370269 0.
0.650066 0.0370266 0.
0.652068 0.0370268 0.
0.654069 0.037027 0.
0.65607 0.0370272 0.
0.658072 0.0370277 0.
0.660074 0.0370282 0.
0.662075 0.0370285 0.
0.664077 0.0370287 0.
0.666078 0.0370289 0.
0.66808 0.0370293 0.
0.670081 0.03703 0.
0.672082 0.0370306 0.
0.674083 0.0370299 0.
0.676084 0.0370291 0.
0.678085 0.0370284 0.
0.680085 0.0370284 0.
0.682085 0.0370285 0.
0.684086 0.037029 0.
0.686086 0.0370302 0.
0.688086 0.0370314 0.
0.690087 0.0370329 0.
0.692089 0.0370346 0.
0.69409 0.0370364 0.
0.696091 0.0370384 0.
0.698091 0.0370405 0.
0.499914 0.0390395 0.
0.501914 0.039038 0.
0.503915 0.0390362 0.
0.505916 0.0390345 0.
0.507916 0.0390333 0.
0.509917 0.0390322 0.
0.511917 0.0390311 0.
0.513918 0.0390298 0.
0.515919 0.0390286 0.
0.517919 0.0390281 0.
0.519919 0.0390279 0.
0.52192 0.0390278 0.
0.523921 0.0390277 0.
0.525922 0.0390277 0.
0.527923 0.0390276 0.
0.529924 0.039027 0.
0.531925 0.0390263 0.
0.533926 0.0390256 0.
0.535926 0.0390246 0.
0.537927 0.0390237 0.
0.539928 0.0390231 0.
0.54193 0.0390229 0.
0.543931 0.0390226 0.
0.545933 0.0390223 0.
0.547934 0.039022 0.
0.549935 0.0390216 0.
0.551937 0.039022 0.
0.553939 0.0390223 0.
0.555941 0.0390224 0.
0.557943 0.0390218 0.
0.559944 0.0390211 0.
0.561946 0.0390204 0.
0.563948 0.0390194 0.
0.565951 0.0390185 0.
0.567953 0.0390165 0.
0.569956 0.0390139 0.
0.571958 0.0390112 0.
0.573962 0.03901 0.
0.575965 0.0390089 0.
0.577968 0.0390076 0.
0.579972 0.0390051 0.
0.581975 0.0390026 0.
0.583978 0.0389999 0.
0.585981 0.0389967 0.
0.587984 0.0389935 0.
0.589987 0.0389911 0.
0.591989 0.0389893 0.
0.593992 0.0389875 0.
0.595995 0.0389867 0.
0.597997 0.0389861 0.
0.599999 0.0389855 0.
0.602003 0.0389873 0.
0.604007 0.0389891 0.
0.606011 0.0389908 0.
0.608013 0.0389926 0.
0.610015 0.0389943 0.
0.612017 0.0389963 0.
0.614019 0.0389985 0.
0.616021 0.0390008 0.
0.618023 0.0390034 0.
0.620026 0.0390062 0.
0.622029 0.039009 0.
0.624032 0.0390111 0.
0.626036 0.0390131 0.
0.628039 0.0390152 0.
0.630042 0.0390169 0.
0.632044 0.0390185 0.
0.634047 0.0390201 0.
0.636049 0.0390211 0.
0.638051 0.0390222 0.
0.640053 0.0390235 0.
0.642054 0.0390248 0.
0.644056 0.0390261 0.
0.646058 0.0390264 0.
0.64806 0.0390264 0.
0.650062 0.0390263 0.
0.652064 0.0390262 0.
0.654066 0.039026 0.
0.656068 0.0390259 0.
0.65807 0.039026 0.
0.660072 0.0390261 0.
0.662073 0.0390266 0.
0.664074 0.0390276 0.
0.666075 0.0390285 0.
0.668077 0.0390292 0.
0.670078 0.0390297 0.
0.67208 0.0390303 0.
0.67408 0.0390297 0.
0.676081 0.0390291 0.
0.678082 0.0390286 0.
0.680082 0.0390287 0.
0.682083 0.0390289 0.
0.684084 0.0390295 0.
0.686084 0.0390308 0.
0.688084 0.0390322 0.
0.690085 0.0390336 0.
0.692086 0.0390351 0.
0.694086 0.0390366 0.
0.696087 0.0390389 0.
0.698087 0.0390415 0.
0.499916 0.0410405 0.
0.501917 0.0410388 0.
0.503918 0.0410369 0.
0.505918 0.041035 0.
0.507919 0.0410337 0.
0.509919 0.0410324 0.
0.51192 0.0410312 0.
0.513921 0.04103 0.
0.515922 0.0410288 0.
0.517922 0.0410283 0.
0.519922 0.041028 0.
0.521923 0.0410278 0.
0.523924 0.0410276 0.
0.525925 0.0410273 0.
0.527927 0.041027 0.
0.529927 0.0410265 0.
0.531928 0.0410261 0.
0.533929 0.0410254 0.
0.535929 0.0410241 0.
0.53793 0.0410229 0.
0.539931 0.0410222 0.
0.541933 0.041022 0.
0.543935 0.0410218 0.
0.545936 0.0410214 0.
0.547937 0.0410208 0.
0.549939 0.0410202 0.
0.551941 0.0410206 0.
0.553942 0.0410211 0.
0.555944 0.0410212 0.
0.557946 0.0410204 0.
0.559947 0.0410195 0.
0.561949 0.0410186 0.
0.563951 0.0410174 0.
0.565954 0.0410162 0.
0.567956 0.0410141 0.
0.569959 0.0410115 0.
0.571961 0.0410088 0.
0.573965 0.0410074 0.
0.575968 0.0410061 0.
0.577971 0.0410047 0.
0.579974 0.0410024 0.
0.581977 0.0410002 0.
0.58398 0.0409978 0.
0.585983 0.0409949 0.
0.587985 0.0409921 0.
0.589988 0.04099 0.
0.59199 0.0409885 0.
0.593993 0.040987 0.
0.595995 0.0409863 0.
0.597997 0.0409858 0.
0.599999 0.0409853 0.
0.602003 0.0409869 0.
0.604006 0.0409886 0.
0.60601 0.0409902 0.
0.608012 0.0409918 0.
0.610014 0.0409935 0.
0.612015 0.0409953 0.
0.614017 0.0409974 0.
0.616019 0.0409994 0.
0.618021 0.0410018 0.
0.620024 0.0410043 0.
0.622027 0.0410067 0.
0.62403 0.0410089 0.
0.626033 0.0410111 0.
0.628036 0.0410132 0.
0.630039 0.0410151 0.
0.632042 0.041017 0.
0.634044 0.0410186 0.
0.636046 0.0410194 0.
0.638048 0.0410202 0.
0.640049 0.0410215 0.
0.642051 0.041023 0.
0.644053 0.0410246 0.
0.646055 0.041025 0.
0.648057 0.041025 0.
0.650059 0.0410251 0.
0.652061 0.0410248 0.
0.654063 0.0410246 0.
0.656065 0.0410245 0.
0.658067 0.0410246 0.
0.660069 0.0410247 0.
0.66207 0.0410254 0.
0.664071 0.0410266 0.
0.666072 0.0410278 0.
0.668073 0.0410285 0.
0.670075 0.0410291 0.
0.672076 0.0410296 0.
0.674077 0.0410292 0.
0.676078 0.0410288 0.
0.678079 0.0410285 0.
0.680079 0.0410289 0.
0.68208 0.0410293 0.
0.684081 0.04103 0.
0.686081 0.0410314 0.
0.688082 0.0410328 0.
0.690082 0.0410341 0.
0.692083 0.0410356 0.
0.694083 0.041037 0.
0.696083 0.0410399 0.
0.698084 0.0410432 0.
0.49992 0.0430413 0.
0.50192 0.0430395 0.
0.50392 0.0430376 0.
0.50592 0.0430357 0.
0.507921 0.0430339 0.
0.509922 0.0430321 0.
0.511923 0.0430307 0.
0.513924 0.0430299 0.
0.515925 0.043029 0.
0.517925 0.0430285 0.
0.519926 0.0430281 0.
0.521927 0.0430276 0.
0.523928 0.0430272 0.
0.525929 0.0430267 0.
0.52793 0.0430262 0.
0.529931 0.0430259 0.
0.531931 0.0430255 0.
0.533932 0.0430249 0.
0.535933 0.0430237 0.
0.537934 0.0430225 0.
0.539935 0.0430218 0.
0.541937 0.0430214 0.
0.543939 0.0430211 0.
0.54594 0.0430204 0.
0.547941 0.0430195 0.
0.549942 0.0430186 0.
0.551944 0.0430192 0.
0.553945 0.0430199 0.
0.555947 0.0430202 0.
0.557948 0.0430191 0.
0.55995 0.0430181 0.
0.561952 0.0430168 0.
0.563954 0.0430152 0.
0.565956 0.0430136 0.
0.567959 0.0430116 0.
0.569961 0.0430092 0.
0.571963 0.0430068 0.
0.573967 0.0430051 0.
0.57597 0.0430035 0.
0.577973 0.0430018 0.
0.579976 0.0429996 0.
0.581978 0.0429975 0.
0.583981 0.0429953 0.
0.585984 0.0429929 0.
0.587986 0.0429906 0.
0.589989 0.0429889 0.
0.591991 0.0429877 0.
0.593992 0.0429865 0.
0.595995 0.042986 0.
0.597997 0.0429857 0.
0.6 0.0429853 0.
0.602002 0.0429866 0.
0.604005 0.0429879 0.
0.606008 0.0429893 0.
0.60801 0.042991 0.
0.610012 0.0429926 0.
0.612013 0.0429944 0.
0.614015 0.0429964 0.
0.616018 0.0429984 0.
0.61802 0.0430005 0.
0.620022 0.0430027 0.
0.622025 0.0430049 0.
0.624028 0.0430069 0.
0.626031 0.043009 0.
0.628034 0.043011 0.
0.630036 0.0430131 0.
0.632039 0.0430152 0.
0.634041 0.0430168 0.
0.636043 0.0430175 0.
0.638044 0.0430182 0.
0.640046 0.0430195 0.
0.642048 0.0430211 0.
0.644049 0.0430228 0.
0.646052 0.0430231 0.
0.648054 0.043023 0.
0.650056 0.0430229 0.
0.652058 0.0430229 0.
0.65406 0.0430228 0.
0.656062 0.0430229 0.
0.658063 0.0430234 0.
0.660065 0.0430239 0.
0.662066 0.0430246 0.
0.664067 0.0430257 0.
0.666068 0.0430268 0.
0.668069 0.0430275 0.
0.67007 0.043028 0.
0.672072 0.0430286 0.
0.674073 0.0430284 0.
0.676074 0.0430282 0.
0.678075 0.0430281 0.
0.680076 0.0430289 0.
0.682077 0.0430298 0.
0.684077 0.0430307 0.
0.686078 0.043032 0.
0.688079 0.0430332 0.
0.690079 0.0430347 0.
0.69208 0.0430362 0.
0.69408 0.0430378 0.
0.696081 0.0430414 0.
0.698081 0.0430454 0.
0.499923 0.0450422 0.
0.501923 0.0450402 0.
0.503922 0.0450383 0.
0.505922 0.0450364 0.
0.507923 0.0450341 0.
0.509925 0.0450319 0.
0.511926 0.0450303 0.
0.513927 0.0450298 0.
0.515928 0.0450292 0.
0.517929 0.0450287 0.
0.51993 0.0450281 0.
0.521931 0.0450275 0.
0.523932 0.0450268 0.
0.525933 0.0450261 0.
0.527933 0.0450254 0.
0.529934 0.0450252 0.
0.531935 0.045025 0.
0.533936 0.0450245 0.
0.535937 0.0450233 0.
0.537938 0.0450221 0.
0.53994 0.0450213 0.
0.541941 0.0450209 0.
0.543943 0.0450204 0.
0.545944 0.0450194 0.
0.547944 0.0450182 0.
0.549945 0.0450169 0.
0.551947 0.0450178 0.
0.553948 0.0450187 0.
0.55595 0.0450192 0.
0.557951 0.0450179 0.
0.559953 0.0450166 0.
0.561955 0.045015 0.
0.563957 0.045013 0.
0.565959 0.0450111 0.
0.567961 0.045009 0.
0.569963 0.045007 0.
0.571965 0.0450049 0.
0.573968 0.0450029 0.
0.575972 0.0450009 0.
0.577975 0.0449989 0.
0.579978 0.0449969 0.
0.58198 0.0449948 0.
0.583982 0.0449928 0.
0.585985 0.0449909 0.
0.587987 0.0449891 0.
0.589989 0.0449878 0.
0.591991 0.044987 0.
0.593992 0.0449861 0.
0.595995 0.0449857 0.
0.597997 0.0449855 0.
0.6 0.0449853 0.
0.602002 0.0449863 0.
0.604004 0.0449873 0.
0.606006 0.0449885 0.
0.608008 0.0449901 0.
0.610009 0.0449917 0.
0.612011 0.0449934 0.
0.614014 0.0449954 0.
0.616016 0.0449974 0.
0.618019 0.0449993 0.
0.620021 0.0450012 0.
0.622023 0.0450031 0.
0.624026 0.045005 0.
0.626028 0.0450069 0.
0.628031 0.0450088 0.
0.630033 0.0450111 0.
0.632036 0.0450134 0.
0.634038 0.0450151 0.
0.63604 0.0450156 0.
0.638041 0.0450162 0.
0.640043 0.0450175 0.
0.642045 0.0450192 0.
0.644046 0.045021 0.
0.646048 0.0450212 0.
0.648051 0.045021 0.
0.650053 0.0450208 0.
0.652055 0.0450209 0.
0.654057 0.045021 0.
0.656058 0.0450213 0.
0.65806 0.0450222 0.
0.660061 0.045023 0.
0.662062 0.0450239 0.
0.664063 0.0450248 0.
0.666064 0.0450257 0.
0.668065 0.0450264 0.
0.670066 0.045027 0.
0.672067 0.0450276 0.
0.674068 0.0450276 0.
0.67607 0.0450276 0.
0.678072 0.0450278 0.
0.680072 0.045029 0.
0.682073 0.0450302 0.
0.684074 0.0450314 0.
0.686075 0.0450326 0.
0.688076 0.0450337 0.
0.690077 0.0450352 0.
0.692077 0.0450369 0.
0.694077 0.0450386 0.
0.696078 0.0450428 0.
0.698078 0.0450476 0.
0.499926 0.0470427 0.
0.501926 0.0470408 0.
0.503926 0.0470386 0.
0.505925 0.0470365 0.
0.507926 0.0470344 0.
0.509927 0.0470323 0.
0.511928 0.0470306 0.
0.513929 0.0470296 0.
0.51593 0.0470286 0.
0.517931 0.047028 0.
0.519932 0.0470275 0.
0.521934 0.047027 0.
0.523934 0.0470265 0.
0.525935 0.047026 0.
0.527935 0.0470255 0.
0.529936 0.0470245 0.
0.531937 0.0470236 0.
0.533938 0.0470227 0.
0.53594 0.047022 0.
0.537941 0.0470212 0.
0.539943 0.0470205 0.
0.541944 0.0470196 0.
0.543945 0.0470187 0.
0.545946 0.0470179 0.
0.547947 0.047017 0.
0.549948 0.0470162 0.
0.55195 0.0470169 0.
0.553951 0.0470176 0.
0.555953 0.0470179 0.
0.557955 0.0470163 0.
0.559956 0.0470148 0.
0.561958 0.047013 0.
0.56396 0.0470111 0.
0.565962 0.0470092 0.
0.567964 0.0470072 0.
0.569966 0.0470051 0.
0.571968 0.047003 0.
0.573971 0.0470011 0.
0.575974 0.0469992 0.
0.577977 0.0469974 0.
0.579979 0.0469956 0.
0.581981 0.0469938 0.
0.583983 0.046992 0.
0.585985 0.0469902 0.
0.587987 0.0469885 0.
0.589989 0.0469872 0.
0.591991 0.0469864 0.
0.593992 0.0469856 0.
0.595995 0.0469854 0.
0.597997 0.0469853 0.
0.599999 0.0469853 0.
0.602001 0.046986 0.
0.604003 0.0469867 0.
0.606005 0.0469875 0.
0.608007 0.046989 0.
0.610009 0.0469904 0.
0.612011 0.0469922 0.
0.614013 0.0469942 0.
0.616015 0.0469963 0.
0.618017 0.046998 0.
0.620019 0.0469996 0.
0.622022 0.0470012 0.
0.624024 0.0470032 0.
0.626027 0.0470054 0.
0.62803 0.0470076 0.
0.630031 0.0470096 0.
0.632033 0.0470117 0.
0.634035 0.0470132 0.
0.636037 0.0470139 0.
0.638039 0.0470146 0.
0.640041 0.0470159 0.
0.642043 0.0470175 0.
0.644045 0.0470192 0.
0.646047 0.0470194 0.
0.648048 0.0470193 0.
0.65005 0.0470193 0.
0.652051 0.0470198 0.
0.654053 0.0470204 0.
0.656054 0.0470209 0.
0.658056 0.0470215 0.
0.660058 0.047022 0.
0.662059 0.0470229 0.
0.66406 0.0470242 0.
0.666061 0.0470255 0.
0.668062 0.0470262 0.
0.670063 0.0470266 0.
0.672065 0.0470271 0.
0.674066 0.0470274 0.
0.676067 0.0470278 0.
0.678069 0.0470282 0.
0.68007 0.0470293 0.
0.68207 0.0470304 0.
0.684071 0.0470315 0.
0.686071 0.0470329 0.
0.688072 0.0470342 0.
0.690073 0.0470358 0.
0.692073 0.0470376 0.
0.694074 0.0470394 0.
0.696075 0.047043 0.
0.698076 0.0470472 0.
0.499929 0.0490434 0.
0.501929 0.0490413 0.
0.503929 0.0490389 0.
0.505929 0.0490367 0.
0.507929 0.0490347 0.
0.50993 0.0490327 0.
0.51193 0.0490309 0.
0.513932 0.0490294 0.
0.515933 0.049028 0.
0.517934 0.0490272 0.
0.519935 0.0490269 0.
0.521936 0.0490266 0.
0.523937 0.0490263 0.
0.525937 0.049026 0.
0.527938 0.0490256 0.
0.529938 0.0490239 0.
0.531939 0.0490222 0.
0.533941 0.0490209 0.
0.535943 0.0490206 0.
0.537945 0.0490204 0.
0.539946 0.0490196 0.
0.541947 0.0490183 0.
0.543948 0.049017 0.
0.545949 0.0490164 0.
0.54795 0.0490159 0.
0.549951 0.0490155 0.
0.551952 0.049016 0.
0.553954 0.0490165 0.
0.555956 0.0490166 0.
0.557958 0.0490148 0.
0.55996 0.0490129 0.
0.561961 0.0490111 0.
0.563963 0.0490092 0.
0.565965 0.0490073 0.
0.567967 0.0490053 0.
0.569969 0.0490032 0.
0.571971 0.0490012 0.
0.573974 0.0489994 0.
0.575976 0.0489976 0.
0.577978 0.0489959 0.
0.57998 0.0489943 0.
0.581982 0.0489928 0.
0.583984 0.0489912 0.
0.585986 0.0489895 0.
0.587987 0.0489879 0.
0.589989 0.0489867 0.
0.591991 0.0489858 0.
0.593992 0.048985 0.
0.595995 0.048985 0.
0.597997 0.0489852 0.
0.599999 0.0489854 0.
0.602001 0.0489857 0.
0.604003 0.048986 0.
0.606004 0.0489866 0.
0.608006 0.0489879 0.
0.610008 0.0489892 0.
0.61201 0.0489909 0.
0.614012 0.048993 0.
0.616013 0.0489951 0.
0.618015 0.0489967 0.
0.620018 0.048998 0.
0.62202 0.0489992 0.
0.624023 0.0490015 0.
0.626025 0.0490039 0.
0.628028 0.0490063 0.
0.630029 0.0490081 0.
0.632031 0.0490099 0.
0.634032 0.0490114 0.
0.636034 0.0490122 0.
0.638036 0.0490131 0.
0.640039 0.0490143 0.
0.642041 0.0490158 0.
0.644043 0.0490173 0.
0.646045 0.0490177 0.
0.648046 0.0490177 0.
0.650047 0.0490178 0.
0.652048 0.0490188 0.
0.654049 0.0490198 0.
0.65605 0.0490205 0.
0.658053 0.0490207 0.
0.660055 0.049021 0.
0.662057 0.0490219 0.
0.664058 0.0490237 0.
0.666059 0.0490254 0.
0.66806 0.049026 0.
0.670061 0.0490263 0.
0.672062 0.0490265 0.
0.674064 0.0490272 0.
0.676065 0.0490279 0.
0.678066 0.0490286 0.
0.680067 0.0490296 0.
0.682067 0.0490305 0.
0.684068 0.0490317 0.
0.686068 0.0490332 0.
0.688068 0.0490347 0.
0.690069 0.0490364 0.
0.69207 0.0490383 0.
0.694071 0.0490401 0.
0.696072 0.0490433 0.
0.698073 0.0490467 0.
0.499932 0.0510439 0.
0.501932 0.0510417 0.
0.503932 0.0510393 0.
0.505932 0.0510371 0.
0.507932 0.0510351 0.
0.509933 0.0510331 0.
0.511934 0.0510311 0.
0.513935 0.0510294 0.
0.515936 0.0510277 0.
0.517937 0.0510268 0.
0.519938 0.0510263 0.
0.521939 0.0510259 0.
0.523939 0.0510257 0.
0.52594 0.0510255 0.
0.527941 0.0510253 0.
0.529942 0.0510233 0.
0.531943 0.0510213 0.
0.533944 0.0510199 0.
0.535946 0.0510197 0.
0.537947 0.0510194 0.
0.539949 0.0510186 0.
0.54195 0.0510172 0.
0.543951 0.0510159 0.
0.545952 0.0510153 0.
0.547953 0.0510151 0.
0.549954 0.0510148 0.
0.551955 0.0510149 0.
0.553957 0.051015 0.
0.555959 0.0510147 0.
0.557961 0.0510128 0.
0.559962 0.0510109 0.
0.561964 0.0510091 0.
0.563966 0.0510073 0.
0.565968 0.0510055 0.
0.56797 0.0510036 0.
0.569972 0.0510017 0.
0.571974 0.0509998 0.
0.573976 0.050998 0.
0.575977 0.0509962 0.
0.577979 0.0509944 0.
0.579981 0.0509931 0.
0.581983 0.0509917 0.
0.583985 0.0509903 0.
0.585986 0.0509888 0.
0.587988 0.0509872 0.
0.589989 0.050986 0.
0.591991 0.0509852 0.
0.593993 0.0509843 0.
0.595995 0.0509845 0.
0.597997 0.0509849 0.
0.599999 0.0509853 0.
0.602001 0.0509856 0.
0.604002 0.0509858 0.
0.606004 0.0509863 0.
0.608006 0.0509872 0.
0.610008 0.0509882 0.
0.612009 0.0509897 0.
0.614011 0.0509918 0.
0.616012 0.0509938 0.
0.618014 0.0509953 0.
0.620016 0.0509965 0.
0.622019 0.0509977 0.
0.624021 0.051 0.
0.626024 0.0510024 0.
0.628026 0.0510047 0.
0.630027 0.0510064 0.
0.632028 0.0510081 0.
0.63403 0.0510096 0.
0.636032 0.0510107 0.
0.638034 0.0510118 0.
0.640037 0.051013 0.
0.642039 0.0510142 0.
0.644041 0.0510155 0.
0.646042 0.0510159 0.
0.648043 0.0510161 0.
0.650044 0.0510164 0.
0.652045 0.0510175 0.
0.654046 0.0510186 0.
0.656047 0.0510195 0.
0.65805 0.0510199 0.
0.660052 0.0510203 0.
0.662054 0.0510214 0.
0.664055 0.0510231 0.
0.666056 0.0510249 0.
0.668057 0.0510256 0.
0.670059 0.0510259 0.
0.67206 0.0510262 0.
0.674061 0.0510272 0.
0.676062 0.0510282 0.
0.678063 0.0510292 0.
0.680064 0.05103 0.
0.682064 0.0510309 0.
0.684065 0.0510319 0.
0.686065 0.0510333 0.
0.688065 0.0510347 0.
0.690065 0.0510365 0.
0.692067 0.0510385 0.
0.694068 0.0510406 0.
0.696069 0.0510437 0.
0.69807 0.0510471 0.
0.499934 0.0530441 0.
0.501935 0.0530418 0.
0.503935 0.0530398 0.
0.505936 0.0530378 0.
0.507936 0.0530355 0.
0.509937 0.0530333 0.
0.511937 0.0530312 0.
0.513938 0.0530295 0.
0.515939 0.0530278 0.
0.51794 0.0530267 0.
0.519941 0.0530258 0.
0.521942 0.053025 0.
0.523943 0.0530248 0.
0.525943 0.0530247 0.
0.527944 0.0530244 0.
0.529946 0.0530227 0.
0.531947 0.053021 0.
0.533948 0.0530196 0.
0.535949 0.053019 0.
0.53795 0.0530184 0.
0.539951 0.0530175 0.
0.541952 0.0530164 0.
0.543953 0.0530154 0.
0.545954 0.0530148 0.
0.547956 0.0530144 0.
0.549957 0.0530139 0.
0.551959 0.0530135 0.
0.55396 0.0530131 0.
0.555961 0.0530123 0.
0.557963 0.0530105 0.
0.559965 0.0530087 0.
0.561967 0.0530069 0.
0.563969 0.0530054 0.
0.565971 0.0530038 0.
0.567972 0.0530022 0.
0.569974 0.0530005 0.
0.571976 0.0529988 0.
0.573977 0.0529969 0.
0.575979 0.052995 0.
0.57798 0.0529931 0.
0.579982 0.0529919 0.
0.581984 0.0529908 0.
0.583986 0.0529895 0.
0.585987 0.052988 0.
0.587989 0.0529865 0.
0.58999 0.0529853 0.
0.591992 0.0529844 0.
0.593994 0.0529835 0.
0.595996 0.0529838 0.
0.597998 0.0529845 0.
0.6 0.0529852 0.
0.602001 0.0529857 0.
0.604002 0.0529862 0.
0.606004 0.0529866 0.
0.608005 0.052987 0.
0.610007 0.0529874 0.
0.612008 0.0529885 0.
0.61401 0.0529905 0.
0.616012 0.0529925 0.
0.618014 0.052994 0.
0.620016 0.0529952 0.
0.622018 0.0529965 0.
0.62402 0.0529986 0.
0.626022 0.0530008 0.
0.628024 0.0530029 0.
0.630026 0.0530046 0.
0.632027 0.0530063 0.
0.634028 0.0530079 0.
0.63603 0.0530094 0.
0.638032 0.0530108 0.
0.640034 0.0530119 0.
0.642036 0.0530128 0.
0.644038 0.0530137 0.
0.64604 0.0530142 0.
0.648041 0.0530146 0.
0.650042 0.053015 0.
0.652043 0.053016 0.
0.654044 0.053017 0.
0.656045 0.0530179 0.
0.658047 0.053019 0.
0.660049 0.05302 0.
0.662051 0.0530212 0.
0.664052 0.0530226 0.
0.666054 0.0530241 0.
0.668055 0.053025 0.
0.670056 0.0530256 0.
0.672058 0.0530262 0.
0.674059 0.0530275 0.
0.67606 0.0530288 0.
0.678061 0.05303 0.
0.680061 0.0530307 0.
0.682062 0.0530314 0.
0.684062 0.0530322 0.
0.686062 0.0530333 0.
0.688062 0.0530344 0.
0.690063 0.0530362 0.
0.692064 0.0530384 0.
0.694065 0.0530406 0.
0.696066 0.0530443 0.
0.698067 0.0530482 0.
0.499936 0.0550443 0.
0.501937 0.055042 0.
0.503939 0.0550402 0.
0.50594 0.0550384 0.
0.50794 0.0550359 0.
0.509941 0.0550335 0.
0.511941 0.0550313 0.
0.513942 0.0550296 0.
0.515942 0.0550279 0.
0.517943 0.0550266 0.
0.519944 0.0550253 0.
0.521944 0.0550241 0.
0.523946 0.0550239 0.
0.525947 0.0550238 0.
0.527948 0.0550237 0.
0.52995 0.0550222 0.
0.531951 0.0550207 0.
0.533952 0.0550193 0.
0.535952 0.0550183 0.
0.537952 0.0550173 0.
0.539953 0.0550164 0.
0.541954 0.0550157 0.
0.543955 0.0550149 0.
0.545957 0.0550143 0.
0.547959 0.0550137 0.
0.549961 0.0550131 0.
0.551962 0.0550121 0.
0.553963 0.0550111 0.
0.555964 0.0550099 0.
0.557966 0.0550082 0.
0.559967 0.0550064 0.
0.561969 0.0550048 0.
0.563971 0.0550035 0.
0.565973 0.0550022 0.
0.567975 0.0550008 0.
0.569976 0.0549993 0.
0.571978 0.0549979 0.
0.573979 0.0549959 0.
0.57598 0.0549937 0.
0.577981 0.0549917 0.
0.579983 0.0549908 0.
0.581985 0.0549898 0.
0.583987 0.0549886 0.
0.585989 0.0549872 0.
0.58799 0.0549857 0.
0.589992 0.0549846 0.
0.591993 0.0549836 0.
0.593995 0.0549827 0.
0.595997 0.0549832 0.
0.597999 0.0549842 0.
0.600001 0.0549851 0.
0.602002 0.0549858 0.
0.604002 0.0549865 0.
0.606003 0.054987 0.
0.608004 0.0549868 0.
0.610005 0.0549866 0.
0.612007 0.0549873 0.
0.614009 0.0549892 0.
0.616011 0.0549911 0.
0.618013 0.0549926 0.
0.620015 0.0549939 0.
0.622017 0.0549953 0.
0.624019 0.0549972 0.
0.626021 0.0549992 0.
0.628023 0.0550011 0.
0.630024 0.0550029 0.
0.632025 0.0550046 0.
0.634027 0.0550063 0.
0.636029 0.055008 0.
0.638031 0.0550097 0.
0.640032 0.0550108 0.
0.642034 0.0550114 0.
0.644035 0.0550119 0.
0.646037 0.0550125 0.
0.648038 0.0550131 0.
0.65004 0.0550137 0.
0.652041 0.0550145 0.
0.654042 0.0550153 0.
0.656043 0.0550164 0.
0.658045 0.055018 0.
0.660046 0.0550196 0.
0.662048 0.055021 0.
0.66405 0.0550222 0.
0.666051 0.0550233 0.
0.668053 0.0550243 0.
0.670054 0.0550253 0.
0.672055 0.0550262 0.
0.674056 0.0550278 0.
0.676057 0.0550294 0.
0.678058 0.0550308 0.
0.680058 0.0550313 0.
0.682059 0.0550319 0.
0.684059 0.0550326 0.
0.68606 0.0550333 0.
0.68806 0.0550341 0.
0.690061 0.0550359 0.
0.692061 0.0550383 0.
0.694062 0.0550408 0.
0.696063 0.0550448 0.
0.698063 0.0550492 0.
0.499939 0.0570438 0.
0.50194 0.057042 0.
0.503941 0.0570403 0.
0.505942 0.0570385 0.
0.507942 0.0570359 0.
0.509943 0.0570333 0.
0.511944 0.0570312 0.
0.513944 0.0570296 0.
0.515944 0.057028 0.
0.517945 0.0570266 0.
0.519946 0.0570251 0.
0.521947 0.0570237 0.
0.523948 0.0570232 0.
0.525949 0.0570229 0.
0.527951 0.0570225 0.
0.529952 0.0570212 0.
0.531953 0.0570198 0.
0.533954 0.0570186 0.
0.535955 0.0570178 0.
0.537955 0.057017 0.
0.539956 0.0570161 0.
0.541957 0.0570152 0.
0.543958 0.0570142 0.
0.545959 0.0570135 0.
0.547961 0.0570128 0.
0.549962 0.0570121 0.
0.551963 0.057011 0.
0.553965 0.0570098 0.
0.555966 0.0570085 0.
0.557967 0.0570069 0.
0.559969 0.0570053 0.
0.56197 0.0570037 0.
0.563972 0.0570023 0.
0.565974 0.0570008 0.
0.567976 0.0569994 0.
0.569977 0.0569981 0.
0.571979 0.0569967 0.
0.57398 0.056995 0.
0.575981 0.0569933 0.
0.577982 0.0569916 0.
0.579984 0.0569902 0.
0.581986 0.0569889 0.
0.583987 0.0569875 0.
0.585989 0.0569861 0.
0.58799 0.0569846 0.
0.589991 0.0569837 0.
0.591993 0.0569832 0.
0.593994 0.0569826 0.
0.595996 0.0569832 0.
0.597998 0.0569841 0.
0.6 0.056985 0.
0.602001 0.0569856 0.
0.604002 0.0569862 0.
0.606003 0.0569866 0.
0.608005 0.0569866 0.
0.610006 0.0569865 0.
0.612008 0.0569871 0.
0.614009 0.0569886 0.
0.616011 0.0569901 0.
0.618013 0.0569915 0.
0.620014 0.056993 0.
0.622016 0.0569945 0.
0.624018 0.0569964 0.
0.626019 0.0569984 0.
0.628021 0.0570003 0.
0.630022 0.057002 0.
0.632023 0.0570038 0.
0.634025 0.0570054 0.
0.636027 0.0570071 0.
0.638028 0.0570087 0.
0.64003 0.0570097 0.
0.642031 0.0570103 0.
0.644033 0.057011 0.
0.646034 0.0570115 0.
0.648036 0.0570119 0.
0.650037 0.0570124 0.
0.652038 0.0570132 0.
0.654039 0.057014 0.
0.65604 0.057015 0.
0.658042 0.0570171 0.
0.660044 0.0570191 0.
0.662045 0.0570205 0.
0.664047 0.0570213 0.
0.666048 0.0570221 0.
0.66805 0.0570232 0.
0.670051 0.0570245 0.
0.672052 0.0570258 0.
0.674053 0.0570273 0.
0.676054 0.0570288 0.
0.678055 0.0570302 0.
0.680055 0.0570307 0.
0.682056 0.0570313 0.
0.684056 0.0570321 0.
0.686057 0.0570332 0.
0.688057 0.0570344 0.
0.690058 0.0570365 0.
0.692059 0.0570392 0.
0.694059 0.0570419 0.
0.69606 0.0570454 0.
0.698061 0.0570491 0.
0.499941 0.0590433 0.
0.501942 0.0590419 0.
0.503943 0.0590403 0.
0.505943 0.0590385 0.
0.507944 0.0590358 0.
0.509945 0.0590332 0.
0.511946 0.059031 0.
0.513946 0.0590296 0.
0.515946 0.0590282 0.
0.517947 0.0590266 0.
0.519948 0.0590249 0.
0.521949 0.0590232 0.
0.52395 0.0590225 0.
0.525952 0.059022 0.
0.527953 0.0590214 0.
0.529954 0.0590201 0.
0.531955 0.0590189 0.
0.533956 0.0590178 0.
0.535957 0.0590172 0.
0.537958 0.0590166 0.
0.539959 0.0590157 0.
0.54196 0.0590147 0.
0.543961 0.0590136 0.
0.545962 0.0590127 0.
0.547963 0.0590119 0.
0.549964 0.0590112 0.
0.551965 0.0590098 0.
0.553966 0.0590085 0.
0.555968 0.0590071 0.
0.557969 0.0590056 0.
0.55997 0.0590041 0.
0.561972 0.0590026 0.
0.563973 0.059001 0.
0.565975 0.0589994 0.
0.567976 0.058998 0.
0.569978 0.0589968 0.
0.57198 0.0589955 0.
0.573981 0.0589942 0.
0.575982 0.0589929 0.
0.577984 0.0589915 0.
0.579985 0.0589897 0.
0.581987 0.058988 0.
0.583988 0.0589864 0.
0.585989 0.058985 0.
0.58799 0.0589835 0.
0.589991 0.0589828 0.
0.591992 0.0589827 0.
0.593994 0.0589826 0.
0.595995 0.0589832 0.
0.597997 0.0589841 0.
0.599999 0.0589849 0.
0.602 0.0589854 0.
0.604002 0.0589858 0.
0.606003 0.0589862 0.
0.608005 0.0589863 0.
0.610007 0.0589864 0.
0.612008 0.0589869 0.
0.614009 0.058988 0.
0.61601 0.0589891 0.
0.618012 0.0589905 0.
0.620013 0.058992 0.
0.622015 0.0589936 0.
0.624016 0.0589956 0.
0.626018 0.0589975 0.
0.628019 0.0589995 0.
0.63002 0.0590012 0.
0.632022 0.0590029 0.
0.634023 0.0590046 0.
0.636024 0.0590061 0.
0.638026 0.0590076 0.
0.640027 0.0590086 0.
0.642028 0.0590093 0.
0.64403 0.05901 0.
0.646031 0.0590105 0.
0.648033 0.0590108 0.
0.650034 0.0590112 0.
0.652035 0.0590119 0.
0.654036 0.0590126 0.
0.656037 0.0590137 0.
0.658039 0.0590161 0.
0.660041 0.0590186 0.
0.662043 0.0590201 0.
0.664044 0.0590205 0.
0.666046 0.0590209 0.
0.668047 0.0590222 0.
0.670048 0.0590237 0.
0.672049 0.0590253 0.
0.67405 0.0590268 0.
0.676051 0.0590283 0.
0.678052 0.0590296 0.
0.680052 0.0590301 0.
0.682052 0.0590307 0.
0.684053 0.0590316 0.
0.686054 0.0590332 0.
0.688055 0.0590348 0.
0.690055 0.0590371 0.
0.692056 0.05904 0.
0.694056 0.059043 0.
0.696057 0.059046 0.
0.698058 0.059049 0.
0.499944 0.0610431 0.
0.501945 0.0610416 0.
0.503946 0.06104 0.
0.505946 0.0610382 0.
0.507947 0.0610357 0.
0.509948 0.0610332 0.
0.511948 0.0610311 0.
0.513949 0.0610296 0.
0.515949 0.0610281 0.
0.51795 0.0610264 0.
0.519951 0.0610246 0.
0.521952 0.0610228 0.
0.523953 0.0610219 0.
0.525954 0.0610212 0.
0.527955 0.0610204 0.
0.529956 0.0610193 0.
0.531957 0.0610182 0.
0.533958 0.0610173 0.
0.535959 0.0610165 0.
0.53796 0.0610157 0.
0.539961 0.0610149 0.
0.541962 0.0610139 0.
0.543963 0.0610129 0.
0.545964 0.0610119 0.
0.547965 0.061011 0.
0.549965 0.06101 0.
0.551967 0.0610085 0.
0.553968 0.0610071 0.
0.555969 0.0610056 0.
0.557971 0.0610043 0.
0.559972 0.061003 0.
0.561974 0.0610015 0.
0.563975 0.0609998 0.
0.565976 0.0609981 0.
0.567977 0.0609968 0.
0.569979 0.0609957 0.
0.57198 0.0609947 0.
0.573982 0.0609935 0.
0.575983 0.0609923 0.
0.577984 0.060991 0.
0.579986 0.0609891 0.
0.581987 0.0609872 0.
0.583988 0.0609855 0.
0.585989 0.0609842 0.
0.58799 0.0609828 0.
0.589991 0.0609823 0.
0.591992 0.0609823 0.
0.593993 0.0609823 0.
0.595995 0.0609829 0.
0.597997 0.0609837 0.
0.599999 0.0609845 0.
0.602 0.0609849 0.
0.604002 0.0609853 0.
0.606003 0.0609857 0.
0.608005 0.060986 0.
0.610007 0.0609863 0.
0.612008 0.0609869 0.
0.614009 0.0609878 0.
0.61601 0.0609886 0.
0.618011 0.06099 0.
0.620013 0.0609915 0.
0.622014 0.0609931 0.
0.624015 0.0609949 0.
0.626017 0.0609967 0.
0.628018 0.0609984 0.
0.630019 0.0610002 0.
0.63202 0.061002 0.
0.634021 0.0610036 0.
0.636022 0.061005 0.
0.638024 0.0610065 0.
0.640025 0.0610075 0.
0.642026 0.0610083 0.
0.644028 0.061009 0.
0.646029 0.0610094 0.
0.648031 0.0610097 0.
0.650032 0.0610101 0.
0.652033 0.0610109 0.
0.654034 0.0610116 0.
0.656035 0.0610127 0.
0.658037 0.0610151 0.
0.660038 0.0610174 0.
0.66204 0.0610189 0.
0.664041 0.0610195 0.
0.666043 0.06102 0.
0.668044 0.0610213 0.
0.670045 0.061023 0.
0.672046 0.0610246 0.
0.674047 0.0610261 0.
0.676048 0.0610276 0.
0.678048 0.0610289 0.
0.680049 0.0610296 0.
0.682049 0.0610303 0.
0.68405 0.0610313 0.
0.686051 0.0610331 0.
0.688051 0.0610348 0.
0.690052 0.0610374 0.
0.692053 0.0610405 0.
0.694053 0.0610437 0.
0.696054 0.0610465 0.
0.698054 0.0610492 0.
0.499948 0.0630432 0.
0.501949 0.0630412 0.
0.503949 0.0630393 0.
0.50595 0.0630374 0.
0.50795 0.0630354 0.
0.50995 0.0630335 0.
0.511951 0.0630315 0.
0.513951 0.0630296 0.
0.515952 0.0630277 0.
0.517953 0.0630259 0.
0.519954 0.0630241 0.
0.521955 0.0630224 0.
0.523956 0.0630213 0.
0.525957 0.0630204 0.
0.527957 0.0630195 0.
0.529958 0.0630187 0.
0.531959 0.0630179 0.
0.53396 0.0630169 0.
0.535961 0.0630157 0.
0.537962 0.0630144 0.
0.539963 0.0630135 0.
0.541964 0.0630129 0.
0.543965 0.0630124 0.
0.545966 0.0630112 0.
0.547967 0.0630099 0.
0.549967 0.0630086 0.
0.551969 0.063007 0.
0.55397 0.0630055 0.
0.555971 0.063004 0.
0.557973 0.063003 0.
0.559974 0.0630019 0.
0.561975 0.0630005 0.
0.563976 0.0629987 0.
0.565977 0.0629969 0.
0.567978 0.0629957 0.
0.56998 0.0629949 0.
0.571981 0.0629941 0.
0.573983 0.0629928 0.
0.575984 0.0629915 0.
0.577985 0.0629901 0.
0.579986 0.0629883 0.
0.581988 0.0629865 0.
0.583989 0.0629849 0.
0.585989 0.0629838 0.
0.58799 0.0629826 0.
0.58999 0.062982 0.
0.591991 0.0629819 0.
0.593992 0.0629818 0.
0.595994 0.0629824 0.
0.597997 0.062983 0.
0.6 0.0629837 0.
0.602001 0.0629842 0.
0.604002 0.0629846 0.
0.606003 0.0629851 0.
0.608005 0.0629857 0.
0.610006 0.0629863 0.
0.612007 0.062987 0.
0.614008 0.0629879 0.
0.61601 0.0629888 0.
0.618011 0.0629901 0.
0.620012 0.0629915 0.
0.622013 0.0629929 0.
0.624014 0.0629943 0.
0.626015 0.0629957 0.
0.628017 0.0629972 0.
0.630018 0.062999 0.
0.632019 0.0630008 0.
0.63402 0.0630025 0.
0.636021 0.0630039 0.
0.638022 0.0630053 0.
0.640023 0.0630064 0.
0.642024 0.0630071 0.
0.644026 0.0630079 0.
0.646027 0.0630083 0.
0.648028 0.0630087 0.
0.65003 0.0630091 0.
0.652031 0.06301 0.
0.654032 0.0630109 0.
0.656033 0.0630121 0.
0.658035 0.0630138 0.
0.660036 0.0630156 0.
0.662037 0.0630171 0.
0.664039 0.0630182 0.
0.66604 0.0630194 0.
0.668041 0.0630208 0.
0.670042 0.0630223 0.
0.672042 0.0630238 0.
0.674043 0.0630253 0.
0.676044 0.0630267 0.
0.678045 0.0630282 0.
0.680046 0.0630291 0.
0.682046 0.0630301 0.
0.684047 0.0630313 0.
0.686047 0.063033 0.
0.688048 0.0630346 0.
0.690048 0.0630373 0.
0.692049 0.0630407 0.
0.69405 0.0630441 0.
0.69605 0.063047 0.
0.698051 0.0630498 0.
0.499951 0.065043 0.
0.501952 0.0650407 0.
0.503953 0.0650386 0.
0.505953 0.0650367 0.
0.507953 0.0650352 0.
0.509953 0.0650337 0.
0.511953 0.0650319 0.
0.513954 0.0650296 0.
0.515955 0.0650273 0.
0.517956 0.0650254 0.
0.519957 0.0650237 0.
0.521959 0.065022 0.
0.523959 0.0650208 0.
0.525959 0.0650196 0.
0.527959 0.0650186 0.
0.52996 0.065018 0.
0.531961 0.0650175 0.
0.533962 0.0650166 0.
0.535963 0.0650148 0.
0.537964 0.0650131 0.
0.539965 0.0650122 0.
0.541966 0.065012 0.
0.543967 0.0650118 0.
0.545968 0.0650105 0.
0.547969 0.0650088 0.
0.549969 0.0650072 0.
0.551971 0.0650056 0.
0.553972 0.065004 0.
0.555973 0.0650025 0.
0.557975 0.0650016 0.
0.559976 0.0650008 0.
0.561977 0.0649995 0.
0.563977 0.0649976 0.
0.565978 0.0649957 0.
0.567979 0.0649947 0.
0.569981 0.0649941 0.
0.571982 0.0649936 0.
0.573983 0.0649922 0.
0.575984 0.0649907 0.
0.577985 0.0649892 0.
0.579987 0.0649876 0.
0.581988 0.0649859 0.
0.583989 0.0649844 0.
0.585989 0.0649834 0.
0.58799 0.0649823 0.
0.58999 0.0649818 0.
0.59199 0.0649815 0.
0.593991 0.0649813 0.
0.595994 0.0649818 0.
0.597997 0.0649824 0.
0.6 0.064983 0.
0.602001 0.0649834 0.
0.604003 0.0649839 0.
0.606003 0.0649845 0.
0.608004 0.0649854 0.
0.610005 0.0649863 0.
0.612006 0.0649872 0.
0.614008 0.0649881 0.
0.61601 0.064989 0.
0.618011 0.0649902 0.
0.620011 0.0649915 0.
0.622012 0.0649928 0.
0.624013 0.0649938 0.
0.626014 0.0649948 0.
0.628016 0.0649959 0.
0.630016 0.0649978 0.
0.632017 0.0649997 0.
0.634018 0.0650014 0.
0.636019 0.0650028 0.
0.63802 0.0650042 0.
0.640021 0.0650053 0.
0.642022 0.065006 0.
0.644023 0.0650068 0.
0.646025 0.0650073 0.
0.648026 0.0650077 0.
0.650028 0.0650081 0.
0.652029 0.0650092 0.
0.65403 0.0650103 0.
0.656031 0.0650114 0.
0.658032 0.0650126 0.
0.660034 0.0650138 0.
0.662035 0.0650152 0.
0.664036 0.065017 0.
0.666037 0.0650188 0.
0.668038 0.0650202 0.
0.670039 0.0650216 0.
0.672039 0.0650229 0.
0.67404 0.0650244 0.
0.676041 0.0650259 0.
0.678042 0.0650274 0.
0.680042 0.0650287 0.
0.682043 0.0650299 0.
0.684043 0.0650313 0.
0.686044 0.0650328 0.
0.688044 0.0650344 0.
0.690045 0.0650372 0.
0.692046 0.0650408 0.
0.694046 0.0650444 0.
0.696047 0.0650474 0.
0.698047 0.0650503 0.
0.499953 0.0670439 0.
0.501953 0.0670412 0.
0.503954 0.0670387 0.
0.505955 0.0670365 0.
0.507955 0.0670348 0.
0.509956 0.0670332 0.
0.511956 0.0670314 0.
0.513957 0.0670293 0.
0.515957 0.0670273 0.
0.517958 0.0670254 0.
0.519959 0.0670235 0.
0.521961 0.0670216 0.
0.523961 0.0670205 0.
0.525961 0.0670194 0.
0.527962 0.0670184 0.
0.529963 0.0670175 0.
0.531963 0.0670167 0.
0.533964 0.0670156 0.
0.535965 0.0670139 0.
0.537966 0.0670123 0.
0.539967 0.0670114 0.
0.541968 0.0670112 0.
0.543969 0.067011 0.
0.54597 0.0670096 0.
0.547971 0.0670078 0.
0.549972 0.0670061 0.
0.551973 0.067005 0.
0.553975 0.0670039 0.
0.555976 0.0670027 0.
0.557977 0.0670011 0.
0.559978 0.0669996 0.
0.561979 0.0669981 0.
0.563979 0.0669966 0.
0.56598 0.0669952 0.
0.567981 0.0669941 0.
0.569982 0.0669934 0.
0.571984 0.0669926 0.
0.573985 0.0669913 0.
0.575986 0.0669901 0.
0.577987 0.0669888 0.
0.579988 0.0669872 0.
0.581988 0.0669856 0.
0.583989 0.0669842 0.
0.58599 0.0669834 0.
0.58799 0.0669826 0.
0.589991 0.066982 0.
0.591991 0.0669816 0.
0.593992 0.0669811 0.
0.595995 0.0669814 0.
0.597997 0.0669818 0.
0.6 0.0669823 0.
0.602001 0.066983 0.
0.604002 0.0669837 0.
0.606003 0.0669845 0.
0.608004 0.0669852 0.
0.610005 0.0669859 0.
0.612006 0.0669867 0.
0.614007 0.0669876 0.
0.616009 0.0669884 0.
0.618009 0.0669893 0.
0.62001 0.0669903 0.
0.62201 0.0669913 0.
0.624012 0.0669925 0.
0.626013 0.0669938 0.
0.628014 0.0669951 0.
0.630015 0.0669968 0.
0.632016 0.0669986 0.
0.634017 0.0670001 0.
0.636018 0.0670015 0.
0.638018 0.0670029 0.
0.64002 0.0670041 0.
0.642021 0.0670051 0.
0.644023 0.067006 0.
0.646024 0.0670065 0.
0.648025 0.0670068 0.
0.650026 0.0670071 0.
0.652027 0.0670085 0.
0.654028 0.0670099 0.
0.656029 0.0670112 0.
0.65803 0.0670123 0.
0.660031 0.0670133 0.
0.662032 0.0670146 0.
0.664033 0.0670164 0.
0.666035 0.0670181 0.
0.668036 0.0670198 0.
0.670036 0.0670214 0.
0.672037 0.067023 0.
0.674038 0.0670242 0.
0.676039 0.0670253 0.
0.67804 0.0670265 0.
0.68004 0.0670279 0.
0.68204 0.0670292 0.
0.684041 0.0670308 0.
0.686041 0.0670329 0.
0.688041 0.0670349 0.
0.690042 0.0670376 0.
0.692042 0.0670409 0.
0.694043 0.0670442 0.
0.696043 0.0670473 0.
0.698044 0.0670504 0.
0.499954 0.0690444 0.
0.501954 0.0690417 0.
0.503956 0.0690389 0.
0.505957 0.0690363 0.
0.507957 0.0690344 0.
0.509958 0.0690326 0.
0.511959 0.0690308 0.
0.513959 0.069029 0.
0.51596 0.0690273 0.
0.517961 0.0690253 0.
0.519962 0.0690233 0.
0.521963 0.0690213 0.
0.523963 0.0690202 0.
0.525964 0.0690192 0.
0.527964 0.0690182 0.
0.529965 0.069017 0.
0.531966 0.0690158 0.
0.533966 0.0690145 0.
0.535967 0.069013 0.
0.537968 0.0690115 0.
0.539969 0.0690107 0.
0.54197 0.0690104 0.
0.543971 0.0690102 0.
0.545972 0.0690087 0.
0.547973 0.0690069 0.
0.549974 0.069005 0.
0.551975 0.0690044 0.
0.553977 0.0690038 0.
0.555979 0.0690029 0.
0.557979 0.0690006 0.
0.55998 0.0689984 0.
0.56198 0.0689967 0.
0.563981 0.0689956 0.
0.565982 0.0689946 0.
0.567983 0.0689936 0.
0.569984 0.0689926 0.
0.571985 0.0689915 0.
0.573986 0.0689905 0.
0.575987 0.0689894 0.
0.577988 0.0689883 0.
0.579988 0.0689868 0.
0.581989 0.0689853 0.
0.583989 0.0689841 0.
0.58599 0.0689835 0.
0.58799 0.0689829 0.
0.589991 0.0689823 0.
0.591992 0.0689816 0.
0.593993 0.0689809 0.
0.595995 0.068981 0.
0.597998 0.0689813 0.
0.6 0.0689815 0.
0.602001 0.0689825 0.
0.604002 0.0689835 0.
0.606003 0.0689844 0.
0.608004 0.068985 0.
0.610005 0.0689855 0.
0.612006 0.0689862 0.
0.614007 0.068987 0.
0.616007 0.0689879 0.
0.618008 0.0689885 0.
0.620009 0.0689892 0.
0.622009 0.0689898 0.
0.62401 0.0689912 0.
0.626012 0.0689928 0.
0.628013 0.0689943 0.
0.630014 0.0689959 0.
0.632015 0.0689974 0.
0.634015 0.0689989 0.
0.636016 0.0690003 0.
0.638017 0.0690016 0.
0.640018 0.0690029 0.
0.64202 0.0690041 0.
0.644022 0.0690053 0.
0.646023 0.0690057 0.
0.648024 0.0690059 0.
0.650025 0.0690061 0.
0.652025 0.0690078 0.
0.654026 0.0690096 0.
0.656027 0.0690111 0.
0.658028 0.0690119 0.
0.660028 0.0690128 0.
0.662029 0.069014 0.
0.664031 0.0690158 0.
0.666032 0.0690175 0.
0.668033 0.0690193 0.
0.670034 0.0690212 0.
0.672034 0.0690231 0.
0.674035 0.0690239 0.
0.676036 0.0690247 0.
0.678037 0.0690256 0.
0.680037 0.0690271 0.
0.682038 0.0690286 0.
0.684038 0.0690304 0.
0.686038 0.0690329 0.
0.688038 0.0690353 0.
0.690038 0.069038 0.
0.692039 0.069041 0.
0.694039 0.0690439 0.
0.69604 0.0690471 0.
0.698041 0.0690504 0.
0.499956 0.0710447 0.
0.501957 0.0710419 0.
0.503958 0.071039 0.
0.505959 0.0710363 0.
0.50796 0.0710343 0.
0.509961 0.0710322 0.
0.511962 0.0710304 0.
0.513962 0.0710287 0.
0.515963 0.0710271 0.
0.517963 0.0710252 0.
0.519964 0.0710231 0.
0.521965 0.0710211 0.
0.523966 0.0710198 0.
0.525966 0.0710187 0.
0.527967 0.0710175 0.
0.529967 0.0710162 0.
0.531968 0.071015 0.
0.533969 0.0710136 0.
0.53597 0.0710123 0.
0.53797 0.071011 0.
0.539971 0.0710102 0.
0.541972 0.0710097 0.
0.543973 0.0710092 0.
0.545974 0.0710078 0.
0.547975 0.071006 0.
0.549976 0.0710042 0.
0.551977 0.0710036 0.
0.553979 0.0710031 0.
0.55598 0.0710023 0.
0.557981 0.071 0.
0.559981 0.0709978 0.
0.561982 0.0709961 0.
0.563983 0.070995 0.
0.565983 0.070994 0.
0.567984 0.070993 0.
0.569985 0.0709919 0.
0.571986 0.0709908 0.
0.573987 0.0709899 0.
0.575988 0.070989 0.
0.577989 0.0709881 0.
0.579989 0.0709866 0.
0.581989 0.070985 0.
0.58399 0.0709838 0.
0.585991 0.0709833 0.
0.587992 0.0709828 0.
0.589993 0.0709822 0.
0.591993 0.0709814 0.
0.593994 0.0709807 0.
0.595996 0.0709807 0.
0.597998 0.0709808 0.
0.6 0.0709809 0.
0.602001 0.0709819 0.
0.604002 0.070983 0.
0.606003 0.070984 0.
0.608004 0.0709845 0.
0.610005 0.0709851 0.
0.612006 0.0709858 0.
0.614006 0.0709866 0.
0.616006 0.0709874 0.
0.618007 0.0709879 0.
0.620008 0.0709884 0.
0.622009 0.0709888 0.
0.62401 0.0709903 0.
0.626011 0.0709919 0.
0.628012 0.0709935 0.
0.630013 0.0709951 0.
0.632014 0.0709966 0.
0.634014 0.0709981 0.
0.636015 0.0709994 0.
0.638016 0.0710006 0.
0.640018 0.0710019 0.
0.642019 0.0710031 0.
0.64402 0.0710044 0.
0.646021 0.0710049 0.
0.648022 0.0710053 0.
0.650023 0.0710057 0.
0.652024 0.0710073 0.
0.654024 0.071009 0.
0.656025 0.0710105 0.
0.658025 0.0710113 0.
0.660026 0.0710122 0.
0.662027 0.0710134 0.
0.664028 0.071015 0.
0.666029 0.0710166 0.
0.66803 0.0710186 0.
0.670031 0.0710208 0.
0.672031 0.071023 0.
0.674033 0.0710236 0.
0.676034 0.0710241 0.
0.678035 0.0710248 0.
0.680035 0.0710266 0.
0.682035 0.0710285 0.
0.684035 0.0710305 0.
0.686035 0.071033 0.
0.688036 0.0710356 0.
0.690036 0.0710382 0.
0.692036 0.071041 0.
0.694036 0.0710437 0.
0.696037 0.0710468 0.
0.698038 0.07105 0.
0.49996 0.073045 0.
0.501961 0.073042 0.
0.503962 0.0730391 0.
0.505963 0.0730364 0.
0.507963 0.0730342 0.
0.509964 0.0730321 0.
0.511965 0.0730301 0.
0.513965 0.0730284 0.
0.515966 0.0730267 0.
0.517967 0.0730248 0.
0.519968 0.0730228 0.
0.521968 0.0730208 0.
0.523969 0.0730193 0.
0.525969 0.0730179 0.
0.527969 0.0730164 0.
0.52997 0.0730152 0.
0.53197 0.073014 0.
0.533971 0.0730129 0.
0.535972 0.0730118 0.
0.537973 0.0730107 0.
0.539973 0.0730098 0.
0.541974 0.073009 0.
0.543975 0.0730081 0.
0.545976 0.0730067 0.
0.547977 0.0730051 0.
0.549978 0.0730035 0.
0.551979 0.0730026 0.
0.55398 0.0730019 0.
0.555981 0.0730009 0.
0.557982 0.0729994 0.
0.559983 0.0729979 0.
0.561983 0.0729964 0.
0.563984 0.0729948 0.
0.565984 0.0729933 0.
0.567985 0.0729922 0.
0.569986 0.0729912 0.
0.571987 0.0729903 0.
0.573988 0.0729896 0.
0.575989 0.072989 0.
0.577989 0.0729882 0.
0.57999 0.0729865 0.
0.58199 0.0729847 0.
0.583991 0.0729833 0.
0.585992 0.0729827 0.
0.587993 0.0729822 0.
0.589994 0.0729816 0.
0.591995 0.0729811 0.
0.593995 0.0729806 0.
0.595996 0.0729804 0.
0.597998 0.0729803 0.
0.6 0.0729802 0.
0.602001 0.0729812 0.
0.604001 0.0729821 0.
0.606002 0.0729831 0.
0.608003 0.0729839 0.
0.610004 0.0729847 0.
0.612005 0.0729855 0.
0.614005 0.0729862 0.
0.616005 0.072987 0.
0.618006 0.0729875 0.
0.620007 0.072988 0.
0.622008 0.0729884 0.
0.624009 0.0729898 0.
0.62601 0.0729913 0.
0.628011 0.0729928 0.
0.630012 0.0729944 0.
0.632013 0.0729961 0.
0.634014 0.0729976 0.
0.636015 0.0729988 0.
0.638016 0.073 0.
0.640017 0.0730011 0.
0.642018 0.0730022 0.
0.644019 0.0730032 0.
0.646019 0.0730041 0.
0.64802 0.073005 0.
0.650021 0.0730058 0.
0.652022 0.073007 0.
0.654022 0.0730082 0.
0.656023 0.0730093 0.
0.658023 0.0730104 0.
0.660024 0.0730116 0.
0.662025 0.0730128 0.
0.664025 0.073014 0.
0.666026 0.0730153 0.
0.668027 0.0730175 0.
0.670028 0.0730201 0.
0.672029 0.0730227 0.
0.67403 0.0730233 0.
0.676031 0.0730236 0.
0.678032 0.0730242 0.
0.680032 0.0730265 0.
0.682033 0.0730288 0.
0.684033 0.0730311 0.
0.686033 0.0730333 0.
0.688033 0.0730356 0.
0.690033 0.0730381 0.
0.692033 0.0730409 0.
0.694034 0.0730436 0.
0.696034 0.0730464 0.
0.698035 0.0730493 0.
0.499964 0.0750449 0.
0.501965 0.075042 0.
0.503966 0.0750392 0.
0.505967 0.0750365 0.
0.507967 0.0750342 0.
0.509967 0.0750319 0.
0.511967 0.0750299 0.
0.513969 0.0750281 0.
0.51597 0.0750263 0.
0.51797 0.0750245 0.
0.519971 0.0750226 0.
0.521971 0.0750207 0.
0.523971 0.0750189 0.
0.525971 0.075017 0.
0.527971 0.0750153 0.
0.529972 0.0750142 0.
0.531973 0.0750131 0.
0.533974 0.0750121 0.
0.535974 0.0750113 0.
0.537975 0.0750105 0.
0.539976 0.0750095 0.
0.541976 0.0750082 0.
0.543976 0.075007 0.
0.545977 0.0750056 0.
0.547979 0.0750042 0.
0.54998 0.0750028 0.
0.551981 0.0750016 0.
0.553981 0.0750006 0.
0.555982 0.0749996 0.
0.557983 0.0749988 0.
0.559984 0.074998 0.
0.561984 0.0749966 0.
0.563985 0.0749946 0.
0.565985 0.0749926 0.
0.567986 0.0749914 0.
0.569987 0.0749906 0.
0.571989 0.0749898 0.
0.573989 0.0749894 0.
0.57599 0.0749889 0.
0.57799 0.0749883 0.
0.57999 0.0749863 0.
0.581991 0.0749844 0.
0.583992 0.0749828 0.
0.585993 0.0749822 0.
0.587995 0.0749815 0.
0.589996 0.0749811 0.
0.591996 0.0749808 0.
0.593996 0.0749804 0.
0.595997 0.0749801 0.
0.597998 0.0749799 0.
0.6 0.0749796 0.
0.602 0.0749804 0.
0.604001 0.0749812 0.
0.606002 0.0749821 0.
0.608002 0.0749832 0.
0.610003 0.0749843 0.
0.612004 0.0749852 0.
0.614004 0.0749859 0.
0.616004 0.0749866 0.
0.618005 0.0749871 0.
0.620007 0.0749875 0.
0.622008 0.0749879 0.
0.624009 0.0749892 0.
0.626009 0.0749906 0.
0.62801 0.0749921 0.
0.630011 0.0749938 0.
0.632012 0.0749956 0.
0.634013 0.0749971 0.
0.636015 0.0749982 0.
0.638016 0.0749993 0.
0.640017 0.0750003 0.
0.642017 0.0750012 0.
0.644017 0.075002 0.
0.646018 0.0750033 0.
0.648019 0.0750046 0.
0.65002 0.075006 0.
0.65202 0.0750067 0.
0.654021 0.0750073 0.
0.656021 0.0750082 0.
0.658021 0.0750096 0.
0.660022 0.0750109 0.
0.662022 0.0750122 0.
0.664023 0.0750131 0.
0.666023 0.0750141 0.
0.668024 0.0750164 0.
0.670025 0.0750194 0.
0.672026 0.0750225 0.
0.674027 0.0750229 0.
0.676029 0.075023 0.
0.67803 0.0750235 0.
0.68003 0.0750263 0.
0.68203 0.0750292 0.
0.68403 0.0750317 0.
0.68603 0.0750336 0.
0.68803 0.0750356 0.
0.690031 0.0750381 0.
0.692031 0.0750408 0.
0.694032 0.0750435 0.
0.696032 0.075046 0.
0.698032 0.0750485 0.
0.499968 0.0770442 0.
0.501968 0.0770414 0.
0.503968 0.0770386 0.
0.505968 0.0770358 0.
0.507968 0.0770338 0.
0.509969 0.0770318 0.
0.51197 0.0770298 0.
0.513971 0.0770279 0.
0.515972 0.0770261 0.
0.517972 0.0770244 0.
0.519973 0.0770227 0.
0.521974 0.077021 0.
0.523974 0.0770192 0.
0.525974 0.0770174 0.
0.527974 0.0770156 0.
0.529974 0.0770144 0.
0.531975 0.0770132 0.
0.533975 0.0770121 0.
0.535976 0.0770112 0.
0.537977 0.0770103 0.
0.539977 0.0770092 0.
0.541978 0.0770077 0.
0.543978 0.0770063 0.
0.545979 0.077005 0.
0.547981 0.0770036 0.
0.549982 0.0770022 0.
0.551983 0.077001 0.
0.553984 0.0769998 0.
0.555984 0.0769987 0.
0.557985 0.0769978 0.
0.559985 0.0769969 0.
0.561986 0.0769956 0.
0.563987 0.0769939 0.
0.565987 0.0769921 0.
0.567988 0.0769911 0.
0.569989 0.0769903 0.
0.57199 0.0769895 0.
0.57399 0.0769888 0.
0.575991 0.0769881 0.
0.577991 0.0769873 0.
0.579991 0.0769855 0.
0.581991 0.0769837 0.
0.583992 0.0769822 0.
0.585993 0.0769813 0.
0.587995 0.0769805 0.
0.589995 0.0769801 0.
0.591996 0.0769799 0.
0.593996 0.0769798 0.
0.595997 0.07698 0.
0.597999 0.0769803 0.
0.6 0.0769807 0.
0.602001 0.0769809 0.
0.604001 0.0769812 0.
0.606002 0.0769816 0.
0.608003 0.0769828 0.
0.610003 0.0769839 0.
0.612004 0.0769848 0.
0.614004 0.0769853 0.
0.616005 0.0769858 0.
0.618005 0.0769864 0.
0.620006 0.076987 0.
0.622007 0.0769876 0.
0.624007 0.0769888 0.
0.626008 0.0769901 0.
0.628008 0.0769914 0.
0.63001 0.076993 0.
0.632011 0.0769945 0.
0.634012 0.076996 0.
0.636013 0.0769974 0.
0.638014 0.0769988 0.
0.640014 0.0769999 0.
0.642015 0.0770008 0.
0.644015 0.0770017 0.
0.646016 0.077003 0.
0.648017 0.0770044 0.
0.650018 0.0770058 0.
0.652018 0.0770065 0.
0.654019 0.0770072 0.
0.656019 0.077008 0.
0.65802 0.0770092 0.
0.660021 0.0770105 0.
0.662021 0.0770117 0.
0.664022 0.077013 0.
0.666022 0.0770142 0.
0.668023 0.0770163 0.
0.670023 0.0770189 0.
0.672024 0.0770214 0.
0.674025 0.0770222 0.
0.676026 0.0770227 0.
0.678027 0.0770235 0.
0.680028 0.0770261 0.
0.682028 0.0770287 0.
0.684028 0.0770312 0.
0.686028 0.0770333 0.
0.688028 0.0770354 0.
0.690028 0.0770379 0.
0.692029 0.0770405 0.
0.694029 0.0770431 0.
0.696029 0.0770457 0.
0.698029 0.0770482 0.
0.499971 0.0790436 0.
0.50197 0.0790408 0.
0.50397 0.0790379 0.
0.505969 0.0790352 0.
0.50797 0.0790334 0.
0.509971 0.0790316 0.
0.511972 0.0790297 0.
0.513973 0.0790278 0.
0.515974 0.0790259 0.
0.517975 0.0790243 0.
0.519975 0.0790228 0.
0.521976 0.0790214 0.
0.523976 0.0790196 0.
0.525976 0.0790177 0.
0.527976 0.0790159 0.
0.529977 0.0790146 0.
0.531977 0.0790133 0.
0.533977 0.0790121 0.
0.535978 0.0790111 0.
0.537978 0.0790101 0.
0.539979 0.0790088 0.
0.54198 0.0790073 0.
0.54398 0.0790057 0.
0.545981 0.0790043 0.
0.547982 0.0790029 0.
0.549984 0.0790016 0.
0.551985 0.0790003 0.
0.553986 0.078999 0.
0.555987 0.0789978 0.
0.557987 0.0789967 0.
0.559987 0.0789957 0.
0.561987 0.0789945 0.
0.563988 0.0789931 0.
0.565989 0.0789917 0.
0.56799 0.0789907 0.
0.569991 0.0789899 0.
0.571991 0.0789891 0.
0.573991 0.0789882 0.
0.575992 0.0789873 0.
0.577992 0.0789862 0.
0.579992 0.0789846 0.
0.581992 0.078983 0.
0.583993 0.0789815 0.
0.585993 0.0789805 0.
0.587994 0.0789795 0.
0.589995 0.0789791 0.
0.591996 0.0789791 0.
0.593997 0.0789791 0.
0.595998 0.0789799 0.
0.597999 0.0789808 0.
0.6 0.0789817 0.
0.602001 0.0789814 0.
0.604002 0.0789811 0.
0.606002 0.0789811 0.
0.608003 0.0789824 0.
0.610004 0.0789836 0.
0.612004 0.0789844 0.
0.614005 0.0789847 0.
0.616005 0.078985 0.
0.618005 0.0789857 0.
0.620005 0.0789864 0.
0.622005 0.0789872 0.
0.624006 0.0789884 0.
0.626006 0.0789896 0.
0.628007 0.0789908 0.
0.630008 0.0789921 0.
0.632009 0.0789934 0.
0.63401 0.0789949 0.
0.636011 0.0789966 0.
0.638011 0.0789982 0.
0.640012 0.0789995 0.
0.642013 0.0790004 0.
0.644014 0.0790013 0.
0.646015 0.0790027 0.
0.648016 0.0790042 0.
0.650017 0.0790056 0.
0.652017 0.0790063 0.
0.654017 0.079007 0.
0.656017 0.0790078 0.
0.658018 0.0790089 0.
0.660019 0.07901 0.
0.66202 0.0790113 0.
0.664021 0.0790128 0.
0.666021 0.0790143 0.
0.668021 0.0790162 0.
0.670021 0.0790183 0.
0.672021 0.0790204 0.
0.674023 0.0790215 0.
0.676024 0.0790224 0.
0.678025 0.0790236 0.
0.680025 0.0790259 0.
0.682026 0.0790283 0.
0.684026 0.0790306 0.
0.686026 0.0790329 0.
0.688026 0.0790352 0.
0.690026 0.0790377 0.
0.692026 0.0790402 0.
0.694026 0.0790427 0.
0.696026 0.0790453 0.
0.698026 0.0790479 0.
0.499973 0.0810432 0.
0.501972 0.0810404 0.
0.503972 0.0810375 0.
0.505971 0.0810349 0.
0.507972 0.0810331 0.
0.509973 0.0810314 0.
0.511974 0.0810295 0.
0.513975 0.0810276 0.
0.515976 0.0810256 0.
0.517976 0.0810241 0.
0.519977 0.0810227 0.
0.521978 0.0810213 0.
0.523978 0.0810196 0.
0.525979 0.0810179 0.
0.527979 0.0810163 0.
0.529979 0.0810148 0.
0.531979 0.0810134 0.
0.533979 0.0810121 0.
0.53598 0.0810111 0.
0.53798 0.0810101 0.
0.539981 0.0810087 0.
0.541982 0.0810069 0.
0.543982 0.0810051 0.
0.545983 0.0810036 0.
0.547984 0.0810023 0.
0.549985 0.0810009 0.
0.551986 0.0809997 0.
0.553987 0.0809984 0.
0.555988 0.0809972 0.
0.557988 0.0809961 0.
0.559988 0.080995 0.
0.561989 0.0809938 0.
0.56399 0.0809924 0.
0.565991 0.0809911 0.
0.567991 0.0809902 0.
0.569992 0.0809895 0.
0.571992 0.0809888 0.
0.573992 0.0809879 0.
0.575993 0.080987 0.
0.577993 0.080986 0.
0.579993 0.0809844 0.
0.581993 0.0809828 0.
0.583993 0.0809814 0.
0.585994 0.0809802 0.
0.587994 0.080979 0.
0.589995 0.0809786 0.
0.591996 0.0809788 0.
0.593997 0.080979 0.
0.595998 0.0809799 0.
0.597999 0.0809809 0.
0.600001 0.080982 0.
0.602001 0.0809816 0.
0.604002 0.0809812 0.
0.606002 0.0809812 0.
0.608003 0.0809824 0.
0.610003 0.0809836 0.
0.612004 0.0809843 0.
0.614004 0.0809844 0.
0.616005 0.0809846 0.
0.618005 0.0809852 0.
0.620005 0.080986 0.
0.622004 0.0809869 0.
0.624005 0.080988 0.
0.626005 0.0809893 0.
0.628006 0.0809905 0.
0.630007 0.0809917 0.
0.632008 0.0809929 0.
0.634008 0.0809942 0.
0.636009 0.0809957 0.
0.63801 0.0809973 0.
0.64001 0.0809986 0.
0.642011 0.0809997 0.
0.644012 0.0810009 0.
0.646013 0.0810023 0.
0.648014 0.0810039 0.
0.650015 0.0810054 0.
0.652015 0.081006 0.
0.654016 0.0810065 0.
0.656016 0.0810071 0.
0.658017 0.0810084 0.
0.660018 0.0810096 0.
0.662018 0.081011 0.
0.664019 0.0810127 0.
0.66602 0.0810143 0.
0.66802 0.081016 0.
0.670019 0.0810178 0.
0.672019 0.0810196 0.
0.67402 0.0810208 0.
0.676021 0.081022 0.
0.678022 0.0810233 0.
0.680023 0.0810257 0.
0.682023 0.0810281 0.
0.684023 0.0810305 0.
0.686023 0.0810327 0.
0.688023 0.0810348 0.
0.690023 0.0810373 0.
0.692023 0.0810401 0.
0.694024 0.0810429 0.
0.696024 0.0810452 0.
0.698024 0.0810475 0.
0.499975 0.0830427 0.
0.501975 0.0830402 0.
0.503975 0.0830375 0.
0.505975 0.0830349 0.
0.507975 0.083033 0.
0.509976 0.0830311 0.
0.511977 0.0830292 0.
0.513977 0.0830273 0.
0.515977 0.0830254 0.
0.517978 0.0830238 0.
0.519978 0.0830222 0.
0.521979 0.0830207 0.
0.52398 0.0830194 0.
0.525981 0.0830181 0.
0.527982 0.0830168 0.
0.529982 0.0830152 0.
0.531981 0.0830136 0.
0.533982 0.0830122 0.
0.535982 0.0830112 0.
0.537982 0.0830103 0.
0.539983 0.0830087 0.
0.541984 0.0830067 0.
0.543984 0.0830046 0.
0.545985 0.083003 0.
0.547986 0.0830016 0.
0.549986 0.0830002 0.
0.551987 0.0829991 0.
0.553987 0.0829981 0.
0.555988 0.082997 0.
0.557989 0.0829958 0.
0.559989 0.0829947 0.
0.56199 0.0829934 0.
0.563991 0.0829918 0.
0.565992 0.0829902 0.
0.567993 0.0829894 0.
0.569993 0.082989 0.
0.571993 0.0829887 0.
0.573993 0.082988 0.
0.575994 0.0829874 0.
0.577994 0.0829866 0.
0.579994 0.0829849 0.
0.581994 0.0829833 0.
0.583995 0.0829818 0.
0.585995 0.0829804 0.
0.587995 0.082979 0.
0.589995 0.0829786 0.
0.591996 0.082979 0.
0.593997 0.0829794 0.
0.595998 0.08298 0.
0.597999 0.0829807 0.
0.6 0.0829814 0.
0.602001 0.0829815 0.
0.604001 0.0829816 0.
0.606002 0.0829819 0.
0.608002 0.0829828 0.
0.610003 0.0829838 0.
0.612003 0.0829844 0.
0.614003 0.0829844 0.
0.616004 0.0829845 0.
0.618004 0.082985 0.
0.620004 0.0829857 0.
0.622004 0.0829865 0.
0.624004 0.0829877 0.
0.626005 0.0829891 0.
0.628006 0.0829905 0.
0.630006 0.0829916 0.
0.632007 0.0829928 0.
0.634007 0.0829939 0.
0.636008 0.0829949 0.
0.638008 0.0829959 0.
0.640009 0.0829972 0.
0.64201 0.0829988 0.
0.644011 0.0830004 0.
0.646011 0.083002 0.
0.648012 0.0830036 0.
0.650013 0.0830051 0.
0.652013 0.0830054 0.
0.654014 0.0830056 0.
0.656015 0.0830061 0.
0.658015 0.0830077 0.
0.660015 0.0830093 0.
0.662016 0.0830109 0.
0.664017 0.0830125 0.
0.666017 0.0830142 0.
0.668017 0.0830158 0.
0.670017 0.0830174 0.
0.672017 0.083019 0.
0.674018 0.0830202 0.
0.676019 0.0830213 0.
0.678019 0.0830227 0.
0.680019 0.0830255 0.
0.682019 0.0830282 0.
0.684019 0.0830307 0.
0.68602 0.0830325 0.
0.68802 0.0830343 0.
0.69002 0.0830369 0.
0.692021 0.0830402 0.
0.694021 0.0830435 0.
0.696022 0.0830454 0.
0.698022 0.0830469 0.
0.499977 0.0850425 0.
0.501977 0.08504 0.
0.503978 0.0850374 0.
0.505978 0.0850349 0.
0.507978 0.0850329 0.
0.509979 0.0850308 0.
0.511979 0.0850289 0.
0.513979 0.085027 0.
0.515979 0.0850252 0.
0.517979 0.0850235 0.
0.51998 0.0850218 0.
0.52198 0.0850202 0.
0.523981 0.0850192 0.
0.525983 0.0850183 0.
0.527984 0.0850173 0.
0.529984 0.0850155 0.
0.531984 0.0850137 0.
0.533984 0.0850122 0.
0.535984 0.0850113 0.
0.537984 0.0850104 0.
0.539985 0.0850087 0.
0.541986 0.0850064 0.
0.543986 0.0850041 0.
0.545987 0.0850024 0.
0.547987 0.085001 0.
0.549987 0.0849995 0.
0.551988 0.0849986 0.
0.553988 0.0849977 0.
0.555988 0.0849967 0.
0.557989 0.0849956 0.
0.55999 0.0849944 0.
0.561991 0.084993 0.
0.563992 0.0849912 0.
0.565993 0.0849894 0.
0.567994 0.0849887 0.
0.569994 0.0849886 0.
0.571994 0.0849885 0.
0.573994 0.0849882 0.
0.575995 0.0849877 0.
0.577995 0.0849872 0.
0.579995 0.0849855 0.
0.581996 0.0849838 0.
0.583996 0.0849822 0.
0.585995 0.0849806 0.
0.587995 0.0849791 0.
0.589995 0.0849787 0.
0.591996 0.0849792 0.
0.593997 0.0849798 0.
0.595998 0.0849802 0.
0.597999 0.0849805 0.
0.6 0.0849809 0.
0.602001 0.0849814 0.
0.604001 0.0849819 0.
0.606002 0.0849825 0.
0.608002 0.0849833 0.
0.610002 0.084984 0.
0.612002 0.0849845 0.
0.614002 0.0849844 0.
0.616002 0.0849844 0.
0.618003 0.0849848 0.
0.620003 0.0849854 0.
0.622003 0.0849861 0.
0.624004 0.0849875 0.
0.626005 0.084989 0.
0.628005 0.0849905 0.
0.630005 0.0849916 0.
0.632006 0.0849927 0.
0.634006 0.0849936 0.
0.636006 0.084994 0.
0.638007 0.0849945 0.
0.640008 0.0849958 0.
0.642008 0.0849979 0.
0.644009 0.0849999 0.
0.646009 0.0850016 0.
0.64801 0.0850032 0.
0.65001 0.0850048 0.
0.652012 0.0850048 0.
0.654013 0.0850047 0.
0.656014 0.085005 0.
0.658014 0.085007 0.
0.660013 0.085009 0.
0.662013 0.0850108 0.
0.664014 0.0850124 0.
0.666015 0.085014 0.
0.668015 0.0850155 0.
0.670015 0.0850169 0.
0.672015 0.0850184 0.
0.674016 0.0850195 0.
0.676016 0.0850207 0.
0.678016 0.0850221 0.
0.680016 0.0850252 0.
0.682015 0.0850283 0.
0.684015 0.0850309 0.
0.686016 0.0850323 0.
0.688016 0.0850338 0.
0.690017 0.0850365 0.
0.692018 0.0850403 0.
0.694019 0.0850441 0.
0.69602 0.0850455 0.
0.698021 0.0850462 0.
0.49998 0.0870424 0.
0.50198 0.0870401 0.
0.50398 0.0870376 0.
0.505981 0.0870352 0.
0.507981 0.087033 0.
0.509981 0.0870308 0.
0.511981 0.0870287 0.
0.513982 0.087027 0.
0.515982 0.0870252 0.
0.517982 0.0870234 0.
0.519983 0.0870215 0.
0.521983 0.0870197 0.
0.523984 0.0870187 0.
0.525985 0.0870177 0.
0.527986 0.0870167 0.
0.529986 0.0870153 0.
0.531986 0.0870138 0.
0.533986 0.0870124 0.
0.535986 0.0870111 0.
0.537987 0.0870097 0.
0.539987 0.087008 0.
0.541988 0.087006 0.
0.543988 0.087004 0.
0.545989 0.0870021 0.
0.547989 0.0870003 0.
0.549989 0.0869985 0.
0.551989 0.0869977 0.
0.553989 0.0869969 0.
0.55599 0.086996 0.
0.55799 0.0869952 0.
0.559991 0.0869943 0.
0.561992 0.086993 0.
0.563992 0.0869913 0.
0.565993 0.0869896 0.
0.567994 0.0869888 0.
0.569994 0.0869885 0.
0.571994 0.0869881 0.
0.573994 0.0869876 0.
0.575995 0.086987 0.
0.577995 0.0869863 0.
0.579996 0.0869849 0.
0.581996 0.0869835 0.
0.583996 0.0869821 0.
0.585996 0.0869807 0.
0.587996 0.0869792 0.
0.589996 0.0869787 0.
0.591996 0.086979 0.
0.593997 0.0869792 0.
0.595998 0.0869796 0.
0.597999 0.0869801 0.
0.6 0.0869805 0.
0.602 0.086981 0.
0.604001 0.0869816 0.
0.606001 0.0869823 0.
0.608001 0.0869833 0.
0.610001 0.0869843 0.
0.612001 0.0869848 0.
0.614001 0.0869846 0.
0.616002 0.0869843 0.
0.618002 0.0869846 0.
0.620002 0.0869851 0.
0.622003 0.0869856 0.
0.624003 0.0869871 0.
0.626004 0.0869888 0.
0.628004 0.0869904 0.
0.630004 0.0869913 0.
0.632005 0.0869921 0.
0.634005 0.086993 0.
0.636005 0.0869939 0.
0.638006 0.0869948 0.
0.640006 0.0869961 0.
0.642007 0.0869977 0.
0.644008 0.0869994 0.
0.646008 0.0870008 0.
0.648009 0.0870023 0.
0.650009 0.0870037 0.
0.65201 0.087004 0.
0.65401 0.0870042 0.
0.656011 0.0870048 0.
0.658011 0.0870063 0.
0.660011 0.0870079 0.
0.662011 0.0870096 0.
0.664012 0.0870113 0.
0.666012 0.0870131 0.
0.668013 0.0870148 0.
0.670013 0.0870165 0.
0.672013 0.0870183 0.
0.674014 0.0870195 0.
0.676014 0.0870208 0.
0.678015 0.0870223 0.
0.680014 0.0870253 0.
0.682014 0.0870284 0.
0.684014 0.0870309 0.
0.686014 0.0870324 0.
0.688014 0.087034 0.
0.690015 0.0870365 0.
0.692015 0.0870397 0.
0.694015 0.0870429 0.
0.696016 0.0870446 0.
0.698017 0.0870458 0.
0.499983 0.0890426 0.
0.501983 0.0890403 0.
0.503983 0.0890379 0.
0.505984 0.0890355 0.
0.507983 0.0890331 0.
0.509983 0.0890307 0.
0.511984 0.0890286 0.
0.513984 0.0890269 0.
0.515985 0.0890251 0.
0.517985 0.0890232 0.
0.519985 0.0890212 0.
0.521986 0.0890192 0.
0.523986 0.0890182 0.
0.525986 0.0890171 0.
0.527987 0.0890161 0.
0.529987 0.089015 0.
0.531988 0.0890139 0.
0.533988 0.0890126 0.
0.535989 0.0890108 0.
0.537989 0.089009 0.
0.53999 0.0890073 0.
0.54199 0.0890056 0.
0.543991 0.0890039 0.
0.545991 0.0890018 0.
0.54799 0.0889997 0.
0.54999 0.0889975 0.
0.551991 0.0889968 0.
0.553991 0.0889961 0.
0.555991 0.0889953 0.
0.557991 0.0889947 0.
0.559992 0.0889941 0.
0.561992 0.0889931 0.
0.563992 0.0889914 0.
0.565993 0.0889898 0.
0.567993 0.0889889 0.
0.569993 0.0889883 0.
0.571994 0.0889878 0.
0.573994 0.088987 0.
0.575995 0.0889863 0.
0.577996 0.0889855 0.
0.579996 0.0889844 0.
0.581996 0.0889833 0.
0.583996 0.0889821 0.
0.585996 0.0889808 0.
0.587997 0.0889794 0.
0.589997 0.0889788 0.
0.591997 0.0889788 0.
0.593997 0.0889787 0.
0.595998 0.0889791 0.
0.597999 0.0889795 0.
0.6 0.08898 0.
0.602 0.0889806 0.
0.604 0.0889813 0.
0.606 0.088982 0.
0.608 0.0889833 0.
0.61 0.0889846 0.
0.612 0.0889851 0.
0.614 0.0889847 0.
0.616001 0.0889842 0.
0.618001 0.0889844 0.
0.620002 0.0889848 0.
0.622002 0.0889852 0.
0.624003 0.0889868 0.
0.626003 0.0889886 0.
0.628003 0.0889903 0.
0.630004 0.0889909 0.
0.632004 0.0889916 0.
0.634004 0.0889925 0.
0.636004 0.0889938 0.
0.638004 0.0889951 0.
0.640005 0.0889964 0.
0.642006 0.0889976 0.
0.644007 0.0889988 0.
0.646007 0.0890001 0.
0.648007 0.0890014 0.
0.650008 0.0890027 0.
0.652008 0.0890032 0.
0.654007 0.0890038 0.
0.656008 0.0890045 0.
0.658008 0.0890057 0.
0.660008 0.0890069 0.
0.662009 0.0890084 0.
0.664009 0.0890103 0.
0.66601 0.0890122 0.
0.66801 0.0890141 0.
0.670011 0.0890161 0.
0.672011 0.0890181 0.
0.674012 0.0890195 0.
0.676012 0.0890209 0.
0.678013 0.0890224 0.
0.680013 0.0890254 0.
0.682012 0.0890284 0.
0.684012 0.0890309 0.
0.686012 0.0890326 0.
0.688012 0.0890342 0.
0.690012 0.0890364 0.
0.692012 0.089039 0.
0.694011 0.0890417 0.
0.696012 0.0890436 0.
0.698014 0.0890454 0.
0.499985 0.0910424 0.
0.501985 0.0910402 0.
0.503986 0.0910377 0.
0.505986 0.0910353 0.
0.507986 0.0910329 0.
0.509986 0.0910305 0.
0.511986 0.0910284 0.
0.513987 0.0910266 0.
0.515987 0.0910248 0.
0.517988 0.0910229 0.
0.519988 0.0910209 0.
0.521988 0.0910189 0.
0.523988 0.0910179 0.
0.525989 0.0910169 0.
0.527989 0.091016 0.
0.529989 0.0910149 0.
0.53199 0.0910138 0.
0.53399 0.0910124 0.
0.535991 0.0910104 0.
0.537992 0.0910084 0.
0.539992 0.0910067 0.
0.541992 0.0910052 0.
0.543992 0.0910038 0.
0.545992 0.0910017 0.
0.547992 0.0909994 0.
0.549992 0.0909971 0.
0.551992 0.0909964 0.
0.553993 0.0909957 0.
0.555993 0.090995 0.
0.557993 0.0909944 0.
0.559993 0.0909939 0.
0.561993 0.0909929 0.
0.563993 0.0909915 0.
0.565993 0.0909901 0.
0.567993 0.0909892 0.
0.569994 0.0909884 0.
0.571994 0.0909876 0.
0.573994 0.0909866 0.
0.575995 0.0909856 0.
0.577996 0.0909846 0.
0.579996 0.0909837 0.
0.581996 0.0909828 0.
0.583996 0.0909818 0.
0.585997 0.0909808 0.
0.587997 0.0909798 0.
0.589997 0.0909792 0.
0.591997 0.090979 0.
0.593997 0.0909787 0.
0.595998 0.0909789 0.
0.597998 0.0909791 0.
0.599999 0.0909794 0.
0.601999 0.0909802 0.
0.603999 0.090981 0.
0.605999 0.0909819 0.
0.607999 0.0909832 0.
0.609999 0.0909844 0.
0.611999 0.0909849 0.
0.613999 0.0909845 0.
0.616 0.0909842 0.
0.618001 0.0909844 0.
0.620001 0.0909848 0.
0.622002 0.0909853 0.
0.624002 0.0909868 0.
0.626002 0.0909885 0.
0.628002 0.0909901 0.
0.630003 0.0909907 0.
0.632003 0.0909914 0.
0.634003 0.0909923 0.
0.636003 0.0909936 0.
0.638003 0.090995 0.
0.640003 0.0909962 0.
0.642004 0.0909973 0.
0.644005 0.0909984 0.
0.646006 0.0909995 0.
0.648006 0.0910007 0.
0.650006 0.0910019 0.
0.652006 0.0910027 0.
0.654005 0.0910036 0.
0.656005 0.0910045 0.
0.658006 0.0910055 0.
0.660007 0.0910065 0.
0.662007 0.091008 0.
0.664007 0.0910099 0.
0.666008 0.0910117 0.
0.668008 0.0910137 0.
0.670009 0.0910158 0.
0.672009 0.0910178 0.
0.67401 0.0910194 0.
0.67601 0.091021 0.
0.678011 0.0910227 0.
0.680011 0.0910255 0.
0.682011 0.0910283 0.
0.68401 0.0910308 0.
0.68601 0.0910325 0.
0.68801 0.0910343 0.
0.690009 0.0910365 0.
0.692009 0.091039 0.
0.694009 0.0910416 0.
0.696009 0.0910433 0.
0.698011 0.0910448 0.
0.499986 0.0930428 0.
0.501986 0.0930399 0.
0.503987 0.0930371 0.
0.505988 0.0930344 0.
0.507988 0.0930323 0.
0.509989 0.0930302 0.
0.511989 0.0930281 0.
0.513989 0.0930261 0.
0.51599 0.0930242 0.
0.51799 0.0930223 0.
0.51999 0.0930205 0.
0.52199 0.0930186 0.
0.523991 0.0930178 0.
0.525991 0.093017 0.
0.527991 0.0930162 0.
0.529992 0.0930148 0.
0.531992 0.0930134 0.
0.533992 0.0930118 0.
0.535993 0.0930098 0.
0.537993 0.0930078 0.
0.539993 0.0930062 0.
0.541994 0.093005 0.
0.543994 0.0930037 0.
0.545994 0.0930017 0.
0.547994 0.0929996 0.
0.549994 0.0929974 0.
0.551994 0.0929966 0.
0.553995 0.0929957 0.
0.555995 0.0929949 0.
0.557994 0.0929942 0.
0.559994 0.0929935 0.
0.561994 0.0929926 0.
0.563994 0.0929916 0.
0.565994 0.0929906 0.
0.567994 0.0929897 0.
0.569994 0.0929887 0.
0.571993 0.0929877 0.
0.573994 0.0929864 0.
0.575995 0.092985 0.
0.577996 0.0929836 0.
0.579996 0.0929828 0.
0.581996 0.092982 0.
0.583996 0.0929813 0.
0.585997 0.0929808 0.
0.587997 0.0929803 0.
0.589997 0.0929799 0.
0.591997 0.0929796 0.
0.593997 0.0929793 0.
0.595997 0.0929791 0.
0.597997 0.0929789 0.
0.599998 0.0929787 0.
0.601998 0.0929798 0.
0.603998 0.0929809 0.
0.605998 0.092982 0.
0.607998 0.0929828 0.
0.609998 0.0929837 0.
0.611998 0.0929841 0.
0.613999 0.0929842 0.
0.615999 0.0929842 0.
0.618 0.0929847 0.
0.62 0.0929853 0.
0.622001 0.0929859 0.
0.624001 0.0929871 0.
0.626001 0.0929884 0.
0.628001 0.0929897 0.
0.630001 0.0929906 0.
0.632001 0.0929915 0.
0.634002 0.0929924 0.
0.636002 0.0929934 0.
0.638002 0.0929944 0.
0.640002 0.0929955 0.
0.642003 0.0929969 0.
0.644003 0.0929982 0.
0.646003 0.0929993 0.
0.648004 0.0930003 0.
0.650004 0.0930013 0.
0.652004 0.0930024 0.
0.654004 0.0930035 0.
0.656004 0.0930046 0.
0.658005 0.0930058 0.
0.660005 0.0930069 0.
0.662006 0.0930084 0.
0.664006 0.09301 0.
0.666006 0.0930117 0.
0.668006 0.0930135 0.
0.670007 0.0930154 0.
0.672008 0.0930173 0.
0.674008 0.0930192 0.
0.676008 0.0930211 0.
0.678008 0.0930231 0.
0.680008 0.0930256 0.
0.682008 0.0930281 0.
0.684008 0.0930304 0.
0.686008 0.0930323 0.
0.688008 0.0930342 0.
0.690008 0.0930366 0.
0.692007 0.0930395 0.
0.694007 0.0930424 0.
0.696007 0.0930435 0.
0.698008 0.093044 0.
0.499987 0.0950428 0.
0.501987 0.0950396 0.
0.503988 0.0950365 0.
0.505989 0.0950336 0.
0.50799 0.0950317 0.
0.509991 0.0950298 0.
0.511992 0.0950279 0.
0.513992 0.0950257 0.
0.515992 0.0950235 0.
0.517992 0.0950217 0.
0.519992 0.09502 0.
0.521993 0.0950183 0.
0.523993 0.0950177 0.
0.525993 0.0950172 0.
0.527994 0.0950165 0.
0.529994 0.0950148 0.
0.531994 0.095013 0.
0.533994 0.0950112 0.
0.535995 0.0950092 0.
0.537995 0.0950073 0.
0.539995 0.0950058 0.
0.541995 0.0950047 0.
0.543995 0.0950036 0.
0.545996 0.0950017 0.
0.547996 0.0949997 0.
0.549996 0.0949977 0.
0.551996 0.0949967 0.
0.553996 0.0949958 0.
0.555996 0.0949949 0.
0.557996 0.094994 0.
0.559995 0.0949931 0.
0.561995 0.0949924 0.
0.563995 0.0949917 0.
0.565995 0.0949911 0.
0.567995 0.0949902 0.
0.569994 0.094989 0.
0.571993 0.0949878 0.
0.573994 0.0949861 0.
0.575995 0.0949843 0.
0.577996 0.0949826 0.
0.579996 0.0949819 0.
0.581996 0.0949812 0.
0.583997 0.0949807 0.
0.585997 0.0949808 0.
0.587997 0.0949808 0.
0.589997 0.0949806 0.
0.591997 0.0949802 0.
0.593997 0.0949798 0.
0.595997 0.0949793 0.
0.597997 0.0949786 0.
0.599997 0.0949779 0.
0.601997 0.0949794 0.
0.603997 0.0949808 0.
0.605997 0.094982 0.
0.607997 0.0949825 0.
0.609997 0.094983 0.
0.611998 0.0949834 0.
0.613998 0.0949838 0.
0.615999 0.0949842 0.
0.617999 0.0949849 0.
0.619999 0.0949858 0.
0.622 0.0949866 0.
0.624 0.0949875 0.
0.626 0.0949884 0.
0.628 0.0949894 0.
0.63 0.0949906 0.
0.632 0.0949917 0.
0.634 0.0949927 0.
0.636 0.0949932 0.
0.638 0.0949938 0.
0.640001 0.0949949 0.
0.642001 0.0949965 0.
0.644001 0.094998 0.
0.646001 0.094999 0.
0.648001 0.0949999 0.
0.650001 0.0950008 0.
0.652002 0.0950022 0.
0.654003 0.0950035 0.
0.656003 0.0950048 0.
0.658004 0.0950061 0.
0.660004 0.0950074 0.
0.662005 0.0950088 0.
0.664004 0.0950102 0.
0.666004 0.0950117 0.
0.668005 0.0950133 0.
0.670005 0.095015 0.
0.672006 0.0950167 0.
0.674006 0.095019 0.
0.676006 0.0950212 0.
0.678005 0.0950235 0.
0.680006 0.0950257 0.
0.682006 0.0950279 0.
0.684006 0.09503 0.
0.686006 0.095032 0.
0.688006 0.0950341 0.
0.690006 0.0950368 0.
0.692005 0.09504 0.
0.694005 0.0950432 0.
0.696005 0.0950436 0.
0.698006 0.0950432 0.
0.49999 0.0970431 0.
0.501991 0.0970397 0.
0.503991 0.0970363 0.
0.505992 0.0970332 0.
0.507993 0.0970313 0.
0.509993 0.0970294 0.
0.511994 0.0970275 0.
0.513994 0.0970256 0.
0.515994 0.0970238 0.
0.517994 0.0970217 0.
0.519995 0.0970196 0.
0.521995 0.0970174 0.
0.523995 0.0970169 0.
0.525995 0.0970166 0.
0.527996 0.0970162 0.
0.529996 0.0970152 0.
0.531996 0.0970141 0.
0.533996 0.0970126 0.
0.535997 0.0970101 0.
0.537997 0.0970077 0.
0.539997 0.0970059 0.
0.541997 0.0970047 0.
0.543997 0.0970034 0.
0.545998 0.0970016 0.
0.547998 0.0969995 0.
0.549998 0.0969974 0.
0.551998 0.0969967 0.
0.553998 0.0969959 0.
0.555997 0.0969952 0.
0.557997 0.0969945 0.
0.559996 0.0969939 0.
0.561996 0.096993 0.
0.563996 0.0969919 0.
0.565997 0.0969907 0.
0.567997 0.0969896 0.
0.569996 0.0969886 0.
0.571996 0.0969875 0.
0.573996 0.0969861 0.
0.575996 0.0969847 0.
0.577996 0.0969833 0.
0.579996 0.0969823 0.
0.581996 0.0969814 0.
0.583996 0.0969805 0.
0.585997 0.09698 0.
0.587997 0.0969795 0.
0.589997 0.0969795 0.
0.591997 0.0969799 0.
0.593998 0.0969804 0.
0.595997 0.09698 0.
0.597997 0.0969793 0.
0.599997 0.0969786 0.
0.601997 0.0969794 0.
0.603996 0.0969802 0.
0.605996 0.096981 0.
0.607997 0.0969818 0.
0.609997 0.0969826 0.
0.611997 0.0969831 0.
0.613998 0.0969833 0.
0.615998 0.0969834 0.
0.617999 0.0969842 0.
0.619999 0.0969852 0.
0.621999 0.0969862 0.
0.623999 0.0969871 0.
0.625999 0.096988 0.
0.627999 0.0969889 0.
0.629999 0.0969902 0.
0.631999 0.0969915 0.
0.633999 0.0969925 0.
0.635999 0.0969926 0.
0.637999 0.0969928 0.
0.639999 0.0969941 0.
0.641999 0.0969964 0.
0.643999 0.0969986 0.
0.645999 0.0969996 0.
0.648 0.0970002 0.
0.65 0.0970009 0.
0.652001 0.0970019 0.
0.654002 0.097003 0.
0.656002 0.0970041 0.
0.658002 0.0970056 0.
0.660002 0.0970071 0.
0.662003 0.0970086 0.
0.664003 0.0970099 0.
0.666003 0.0970112 0.
0.668003 0.0970131 0.
0.670004 0.0970152 0.
0.672004 0.0970173 0.
0.674004 0.0970192 0.
0.676004 0.0970211 0.
0.678004 0.0970231 0.
0.680004 0.0970256 0.
0.682004 0.097028 0.
0.684004 0.0970302 0.
0.686004 0.0970322 0.
0.688004 0.0970342 0.
0.690004 0.0970368 0.
0.692004 0.0970397 0.
0.694004 0.0970427 0.
0.696004 0.0970435 0.
0.698004 0.0970436 0.
0.499993 0.0990431 0.
0.501994 0.0990398 0.
0.503994 0.0990361 0.
0.505995 0.0990328 0.
0.507995 0.0990308 0.
0.509995 0.0990289 0.
0.511995 0.0990271 0.
0.513996 0.0990256 0.
0.515996 0.099024 0.
0.517997 0.0990218 0.
0.519997 0.0990191 0.
0.521998 0.0990165 0.
0.523998 0.0990161 0.
0.525997 0.0990161 0.
0.527997 0.0990159 0.
0.529998 0.0990156 0.
0.531998 0.0990152 0.
0.533998 0.0990139 0.
0.535998 0.099011 0.
0.537999 0.0990081 0.
0.539999 0.099006 0.
0.541999 0.0990047 0.
0.544 0.0990033 0.
0.546 0.0990014 0.
0.548 0.0989993 0.
0.55 0.0989972 0.
0.551999 0.0989966 0.
0.553999 0.0989961 0.
0.555998 0.0989955 0.
0.557998 0.0989951 0.
0.559997 0.0989946 0.
0.561997 0.0989936 0.
0.563997 0.0989919 0.
0.565998 0.0989903 0.
0.567998 0.0989891 0.
0.569999 0.0989882 0.
0.571999 0.0989873 0.
0.573998 0.0989862 0.
0.575997 0.0989851 0.
0.577996 0.0989839 0.
0.579996 0.0989827 0.
0.581996 0.0989815 0.
0.583996 0.0989803 0.
0.585996 0.0989792 0.
0.587997 0.0989782 0.
0.589998 0.0989784 0.
0.591998 0.0989796 0.
0.593998 0.0989809 0.
0.595998 0.0989807 0.
0.597998 0.0989799 0.
0.599997 0.0989792 0.
0.601997 0.0989794 0.
0.603996 0.0989795 0.
0.605996 0.0989798 0.
0.607996 0.0989811 0.
0.609996 0.0989823 0.
0.611997 0.0989829 0.
0.613997 0.0989827 0.
0.615998 0.0989826 0.
0.617998 0.0989834 0.
0.619998 0.0989847 0.
0.621999 0.0989859 0.
0.623999 0.0989868 0.
0.625999 0.0989876 0.
0.627998 0.0989884 0.
0.629998 0.0989899 0.
0.631998 0.0989914 0.
0.633998 0.0989923 0.
0.635997 0.0989921 0.
0.637997 0.0989918 0.
0.639997 0.0989934 0.
0.641997 0.0989963 0.
0.643997 0.0989992 0.
0.645998 0.0990001 0.
0.647998 0.0990005 0.
0.649999 0.0990009 0.
0.651999 0.0990017 0.
0.654 0.0990025 0.
0.656001 0.0990035 0.
0.658001 0.0990052 0.
0.66 0.0990069 0.
0.662 0.0990084 0.
0.664001 0.0990096 0.
0.666002 0.0990108 0.
0.668002 0.0990128 0.
0.670002 0.0990153 0.
0.672002 0.0990178 0.
0.674002 0.0990194 0.
0.676002 0.099021 0.
0.678002 0.0990227 0.
0.680002 0.0990254 0.
0.682002 0.0990281 0.
0.684002 0.0990305 0.
0.686002 0.0990324 0.
0.688002 0.0990343 0.
0.690002 0.0990367 0.
0.692002 0.0990395 0.
0.694002 0.0990422 0.
0.696002 0.0990433 0.
0.698002 0.099044 0.
CELLS 5000 10000
1 0
1 1
1 2
1 3
1 4
1 5
1 6
1 7
1 8
1 9
1 10
1 11
1 12
1 13
1 14
1 15
1 16
1 17
1 18
1 19
1 20
1 21
1 22
1 23
1 24
1 25
1 26
1 27
1 28
1 29
1 30
1 31
1 32
1 33
1 34
1 35
1 36
1 37
1 38
1 39
1 40
1 41
1 42
1 43
1 44
1 45
1 46
1 47
1 48
1 49
1 50
1 51
1 52
1 53
1 54
1 55
1 56
1 57
1 58
1 59
1 60
1 61
1 62
1 63
1 64
1 65
1 66
1 67
1 68
1 69
1 70
1 71
1 72
1 73
1 74
1 75
1 76
1 77
1 78
1 79
1 80
1 81
1 82
1 83
1 84
1 85
1 86
1 87
1 88
1 89
1 90
1 91
1 92
1 93
1 94
1 95
1 96
1 97
1 98
1 99
1 100
1 101
1 102
1 103
1 104
1 105
1 106
1 107
1 108
1 109
1 110
1 111
1 112
1 113
1 114
1 115
1 116
1 117
1 118
1 119
1 120
1 121
1 122
1 123
1 124
1 125
1 126
1 127
1 128
1 129
1 130
1 131
1 132
1 133
1 134
1 135
1 136
1 137
1 138
1 139
1 140
1 141
1 142
1 143
1 144
1 145
1 146
1 147
1 148
1 149
1 150
1 151
1 152
1 153
1 154
1 155
1 156
1 157
1 158
1 159
1 160
1 161
1 162
1 163
1 164
1 165
1 166
1 167
1 168
1 169
1 170
1 171
1 172
1 173
1 174
1 175
1 176
1 177
1 178
1 179
1 180
1 181
1 182
1 183
1 184
1 185
1 186
1 187
1 188
1 189
1 190
1 191
1 192
1 193
1 194
1 195
1 196
1 197
1 198
1 199
1 200
1 201
1 202
1 203
1 204
1 205
1 206
1 207
1 208
1 209
1 210
1 211
1 212
1 213
1 214
1 215
1 216
1 217
1 218
1 219
1 220
1 221
1 222
1 223
1 224
1 225
1 226
1 227
1 228
1 229
1 230
1 231
1 232
1 233
1 234
1 235
1 236
1 237
1 238
1 239
1 240
1 241
1 242
1 243
1 244
1 245
1 246
1 247
1 248
1 249
1 250
1 251
1 252
1 253
1 254
1 255
1 256
1 257
1 258
1 259
1 260
1 261
1 262
1 263
1 264
1 265
1 266
1 267
1 268
1 269
1 270
1 271
1 272
1 273
1 274
1 275
1 276
1 277
1 278
1 279
1 280
1 281
1 282
1 283
1 284
1 285
1 286
1 287
1 288
1 289
1 290
1 291
1 292
1 293
1 294
1 295
1 296
1 297
1 298
1 299
1 300
1 301
1 302
1 303
1 304
1 305
1 306
1 307
1 308
1 309
1 310
1 311
1 312
1 313
1 314
1 315
1 316
1 317
1 318
1 319
1 320
1 321
1 322
1 323
1 324
1 325
1 326
1 327
1 328
1 329
1 330
1 331
1 332
1 333
1 334
1 335
1 336
1 337
1 338
1 339
1 340
1 341
1 342
1 343
1 344
1 345
1 346
1 347
1 348
1 349
1 350
1 351
1 352
1 353
1 354
1 355
1 356
1 357
1 358
1 359
1 360
1 361
1 362
1 363
1 364
1 365
1 366
1 367
1 368
1 369
1 370
1 371
1 372
1 373
1 374
1 375
1 376
1 377
1 378
1 379
1 380
1 381
1 382
1 383
1 384
1 385
1 386
1 387
1 388
1 389
1 390
1 391
1 392
1 393
1 394
1 395
1 396
1 397
1 398
1 399
1 400
1 401
1 402
1 403
1 404
1 405
1 406
1 407
1 408
1 409
1 410
1 411
1 412
1 413
1 414
1 415
1 416
1 417
1 418
1 419
1 420
1 421
1 422
1 423
1 424
1 425
1 426
1 427
1 428
1 429
1 430
1 431
1 432
1 433
1 434
1 435
1 436
1 437
1 438
1 439
1 440
1 441
1 442
1 443
1 444
1 445
1 446
1 447
1 448
1 449
1 450
1 451
1 452
1 453
1 454
1 455
1 456
1 457
1 458
1 459
1 460
1 461
1 462
1 463
1 464
1 465
1 466
1 467
1 468
1 469
1 470
1 471
1 472
1 473
1 474
1 475
1 476
1 477
1 478
1 479
1 480
1 481
1 482
1 483
1 484
1 485
1 486
1 487
1 488
1 489
1 490
1 491
1 492
1 493
1 494
1 495
1 496
1 497
1 498
1 499
1 500
1 501
1 502
1 503
1 504
1 505
1 506
1 507
1 508
1 509
1 510
1 511
1 512
1 513
1 514
1 515
1 516
1 517
1 518
1 519
1 520
1 521
1 522
1 523
1 524
1 525
1 526
1 527
1 528
1 529
1 530
1 531
1 532
1 533
1 534
1 535
1 536
1 537
1 538
1 539
1 540
1 541
1 542
1 543
1 544
1 545
1 546
1 547
1 548
1 549
1 550
1 551
1 552
1 553
1 554
1 555
1 556
1 557
1 558
1 559
1 560
1 561
1 562
1 563
1 564
1 565
1 566
1 567
1 568
1 569
1 570
1 571
1 572
1 573
1 574
1 575
1 576
1 577
1 578
1 579
1 580
1 581
1 582
1 583
1 584
1 585
1 586
1 587
1 588
1 589
1 590
1 591
1 592
1 593
1 594
1 595
1 596
1 597
1 598
1 599
1 600
1 601
1 602
1 603
1 604
1 605
1 606
1 607
1 608
1 609
1 610
1 611
1 612
1 613
1 614
1 615
1 616
1 617
1 618
1 619
1 620
1 621
1 622
1 623
1 624
1 625
1 626
1 627
1 628
1 629
1 630
1 631
1 632
1 633
1 634
1 635
1 636
1 637
1 638
1 639
1 640
1 641
1 642
1 643
1 644
1 645
1 646
1 647
1 648
1 649
1 650
1 651
1 652
1 653
1 654
1 655
1 656
1 657
1 658
1 659
1 660
1 661
1 662
1 663
1 664
1 665
1 666
1 667
1 668
1 669
1 670
1 671
1 672
1 673
1 674
1 675
1 676
1 677
1 678
1 679
1 680
1 681
1 682
1 683
1 684
1 685
1 686
1 687
1 688
1 689
1 690
1 691
1 692
1 693
1 694
1 695
1 696
1 697
1 698
1 699
1 700
1 701
1 702
1 703
1 704
1 705
1 706
1 707
1 708
1 709
1 710
1 711
1 712
1 713
1 714
1 715
1 716
1 717
1 718
1 719
1 720
1 721
1 722
1 723
1 724
1 725
1 726
1 727
1 728
1 729
1 730
1 731
1 732
1 733
1 734
1 735
1 736
1 737
1 738
1 739
1 740
1 741
1 742
1 743
1 744
1 745
1 746
1 747
1 748
1 749
1 750
1 751
1 752
1 753
1 754
1 755
1 756
1 757
1 758
1 759
1 760
1 761
1 762
1 763
1 764
1 765
1 766
1 767
1 768
1 769
1 770
1 771
1 772
1 773
1 774
1 775
1 776
1 777
1 778
1 779
1 780
1 781
1 782
1 783
1 784
1 785
1 786
1 787
1 788
1 789
1 790
1 791
1 792
1 793
1 794
1 795
1 796
1 797
1 798
1 799
1 800
1 801
1 802
1 803
1 804
1 805
1 806
1 807
1 808
1 809
1 810
1 811
1 812
1 813
1 814
1 815
1 816
1 817
1 818
1 819
1 820
1 821
1 822
1 823
1 824
1 825
1 826
1 827
1 828
1 829
1 830
1 831
1 832
1 833
1 834
1 835
1 836
1 837
1 838
1 839
1 840
1 841
1 842
1 843
1 844
1 845
1 846
1 847
1 848
1 849
1 850
1 851
1 852
1 853
1 854
1 855
1 856
1 857
1 858
1 859
1 860
1 861
1 862
1 863
1 864
1 865
1 866
1 867
1 868
1 869
1 870
1 871
1 872
1 873
1 874
1 875
1 876
1 877
1 878
1 879
1 880
1 881
1 882
1 883
1 884
1 885
1 886
1 887
1 888
1 889
1 890
1 891
1 892
1 893
1 894
1 895
1 896
1 897
1 898
1 899
1 900
1 901
1 902
1 903
1 904
1 905
1 906
1 907
1 908
1 909
1 910
1 911
1 912
1 913
1 914
1 915
1 916
1 917
1 918
1 919
1 920
1 921
1 922
1 923
1 924
1 925
1 926
1 927
1 928
1 929
1 930
1 931
1 932
1 933
1 934
1 935
1 936
1 937
1 938
1 939
1 940
1 941
1 942
1 943
1 944
1 945
1 946
1 947
1 948
1 949
1 950
1 951
1 952
1 953
1 954
1 955
1 956
1 957
1 958
1 959
1 960
1 961
1 962
1 963
1 964
1 965
1 966
1 967
1 968
1 969
1 970
1 971
1 972
1 973
1 974
1 975
1 976
1 977
1 978
1 979
1 980
1 981
1 982
1 983
1 984
1 985
1 986
1 987
1 988
1 989
1 990
1 991
1 992
1 993
1 994
1 995
1 996
1 997
1 998
1 999
1 1000
1 1001
1 1002
1 1003
1 1004
1 1005
1 1006
1 1007
1 1008
1 1009
1 1010
1 1011
1 1012
1 1013
1 1014
1 1015
1 1016
1 1017
1 1018
1 1019
1 1020
1 1021
1 1022
1 1023
1 1024
1 1025
1 1026
1 1027
1 1028
1 1029
1 1030
1 1031
1 1032
1 1033
1 1034
1 1035
1 1036
1 1037
1 1038
1 1039
1 1040
1 1041
1 1042
1 1043
1 1044
1 1045
1 1046
1 1047
1 1048
1 1049
1 1050
1 1051
1 1052
1 1053
1 1054
1 1055
1 1056
1 1057
1 1058
1 1059
1 1060
1 1061
1 1062
1 1063
1 1064
1 1065
1 1066
1 1067
1 1068
1 1069
1 1070
1 1071
1 1072
1 1073
1 1074
1 1075
1 1076
1 1077
1 1078
1 1079
1 1080
1 1081
1 1082
1 1083
1 1084
1 1085
1 1086
1 1087
1 1088
1 1089
1 1090
1 1091
1 1092
1 1093
1 1094
1 1095
1 1096
1 1097
1 1098
1 1099
1 1100
1 1101
1 1102
1 1103
1 1104
1 1105
1 1106
1 1107
1 1108
1 1109
1 1110
1 1111
1 1112
1 1113
1 1114
1 1115
1 1116
1 1117
1 1118
1 1119
1 1120
1 1121
1 1122
1 1123
1 1124
1 1125
1 1126
1 1127
1 1128
1 1129
1 1130
1 1131
1 1132
1 1133
1 1134
1 1135
1 1136
1 1137
1 1138
1 1139
1 1140
1 1141
1 1142
1 1143
1 1144
1 1145
1 1146
1 1147
1 1148
1 1149
1 1150
1 1151
1 1152
1 1153
1 1154
1 1155
1 1156
1 1157
1 1158
1 1159
1 1160
1 1161
1 1162
1 1163
1 1164
1 1165
1 1166
1 1167
1 1168
1 1169
1 1170
1 1171
1 1172
1 1173
1 1174
1 1175
1 1176
1 1177
1 1178
1 1179
1 1180
1 1181
1 1182
1 1183
1 1184
1 1185
1 1186
1 1187
1 1188
1 1189
1 1190
1 1191
1 1192
1 1193
1 1194
1 1195
1 1196
1 1197
1 1198
1 1199
1 1200
1 1201
1 1202
1 1203
1 1204
1 1205
1 1206
1 1207
1 1208
1 1209
1 1210
1 1211
1 1212
1 1213
1 1214
1 1215
1 1216
1 1217
1 1218
1 1219
1 1220
1 1221
1 1222
1 1223
1 1224
1 1225
1 1226
1 1227
1 1228
1 1229
1 1230
1 1231
1 1232
1 1233
1 1234
1 1235
1 1236
1 1237
1 1238
1 1239
1 1240
1 1241
1 1242
1 1243
1 1244
1 1245
1 1246
1 1247
1 1248
1 1249
1 1250
1 1251
1 1252
1 1253
1 1254
1 1255
1 1256
1 1257
1 1258
1 1259
1 1260
1 1261
1 1262
1 1263
1 1264
1 1265
1 1266
1 1267
1 1268
1 1269
1 1270
1 1271
1 1272
1 1273
1 1274
1 1275
1 1276
1 1277
1 1278
1 1279
1 1280
1 1281
1 1282
1 1283
1 1284
1 1285
1 1286
1 1287
1 1288
1 1289
1 1290
1 1291
1 1292
1 1293
1 1294
1 1295
1 1296
1 1297
1 1298
1 1299
1 1300
1 1301
1 1302
1 1303
1 1304
1 1305
1 1306
1 1307
1 1308
1 1309
1 1310
1 1311
1 1312
1 1313
1 1314
1 1315
1 1316
1 1317
1 1318
1 1319
1 1320
1 1321
1 1322
1 1323
1 1324
1 1325
1 1326
1 1327
1 1328
1 1329
1 1330
1 1331
1 1332
1 1333
1 1334
1 1335
1 1336
1 1337
1 1338
1 1339
1 1340
1 1341
1 1342
1 1343
1 1344
1 1345
1 1346
1 1347
1 1348
1 1349
1 1350
1 1351
1 1352
1 1353
1 1354
1 1355
1 1356
1 1357
1 1358
1 1359
1 1360
1 1361
1 1362
1 1363
1 1364
1 1365
1 1366
1 1367
1 1368
1 1369
1 1370
1 1371
1 1372
1 1373
1 1374
1 1375
1 1376
1 1377
1 1378
1 1379
1 1380
1 1381
1 1382
1 1383
1 1384
1 1385
1 1386
1 1387
1 1388
1 1389
1 1390
1 1391
1 1392
1 1393
1 1394
1 1395
1 1396
1 1397
1 1398
1 1399
1 1400
1 1401
1 1402
1 1403
1 1404
1 1405
1 1406
1 1407
1 1408
1 1409
1 1410
1 1411
1 1412
1 1413
1 1414
1 1415
1 1416
1 1417
1 1418
1 1419
1 1420
1 1421
1 1422
1 1423
1 1424
1 1425
1 1426
1 1427
1 1428
1 1429
1 1430
1 1431
1 1432
1 1433
1 1434
1 1435
1 1436
1 1437
1 1438
1 1439
1 1440
1 1441
1 1442
1 1443
1 1444
1 1445
1 1446
1 1447
1 1448
1 1449
1 1450
1 1451
1 1452
1 1453
1 1454
1 1455
1 1456
1 1457
1 1458
1 1459
1 1460
1 1461
1 1462
1 1463
1 1464
1 1465
1 1466
1 1467
1 1468
1 1469
1 1470
1 1471
1 1472
1 1473
1 1474
1 1475
1 1476
1 1477
1 1478
1 1479
1 1480
1 1481
1 1482
1 1483
1 1484
1 1485
1 1486
1 1487
1 1488
1 1489
1 1490
1 1491
1 1492
1 1493
1 1494
1 1495
1 1496
1 1497
1 1498
1 1499
1 1500
1 1501
1 1502
1 1503
1 1504
1 1505
1 1506
1 1507
1 1508
1 1509
1 1510
1 1511
1 1512
1 1513
1 1514
1 1515
1 1516
1 1517
1 1518
1 1519
1 1520
1 1521
1 1522
1 1523
1 1524
1 1525
1 1526
1 1527
1 1528
1 1529
1 1530
1 1531
1 1532
1 1533
1 1534
1 1535
1 1536
1 1537
1 1538
1 1539
1 1540
1 1541
1 1542
1 1543
1 1544
1 1545
1 1546
1 1547
1 1548
1 1549
1 1550
1 1551
1 1552
1 1553
1 1554
1 1555
1 1556
1 1557
1 1558
1 1559
1 1560
1 1561
1 1562
1 1563
1 1564
1 1565
1 1566
1 1567
1 1568
1 1569
1 1570
1 1571
1 1572
1 1573
1 1574
1 1575
1 1576
1 1577
1 1578
1 1579
1 1580
1 1581
1 1582
1 1583
1 1584
1 1585
1 1586
1 1587
1 1588
1 1589
1 1590
1 1591
1 1592
1 1593
1 1594
1 1595
1 1596
1 1597
1 1598
1 1599
1 1600
1 1601
1 1602
1 1603
1 1604
1 1605
1 1606
1 1607
1 1608
1 1609
1 1610
1 1611
1 1612
1 1613
1 1614
1 1615
1 1616
1 1617
1 1618
1 1619
1 1620
1 1621
1 1622
1 1623
1 1624
1 1625
1 1626
1 1627
1 1628
1 1629
1 1630
1 1631
1 1632
1 1633
1 1634
1 1635
1 1636
1 1637
1 1638
1 1639
1 1640
1 1641
1 1642
1 1643
1 1644
1 1645
1 1646
1 1647
1 1648
1 1649
1 1650
1 1651
1 1652
1 1653
1 1654
1 1655
1 1656
1 1657
1 1658
1 1659
1 1660
1 1661
1 1662
1 1663
1 1664
1 1665
1 1666
1 1667
1 1668
1 1669
1 1670
1 1671
1 1672
1 1673
1 1674
1 1675
1 1676
1 1677
1 1678
1 1679
1 1680
1 1681
1 1682
1 1683
1 1684
1 1685
1 1686
1 1687
1 1688
1 1689
1 1690
1 1691
1 1692
1 1693
1 1694
1 1695
1 1696
1 1697
1 1698
1 1699
1 1700
1 1701
1 1702
1 1703
1 1704
1 1705
1 1706
1 1707
1 1708
1 1709
1 1710
1 1711
1 1712
1 1713
1 1714
1 1715
1 1716
1 1717
1 1718
1 1719
1 1720
1 1721
1 1722
1 1723
1 1724
1 1725
1 1726
1 1727
1 1728
1 1729
1 1730
1 1731
1 1732
1 1733
1 1734
1 1735
1 1736
1 1737
1 1738
1 1739
1 1740
1 1741
1 1742
1 1743
1 1744
1 1745
1 1746
1 1747
1 1748
1 1749
1 1750
1 1751
1 1752
1 1753
1 1754
1 1755
1 1756
1 1757
1 1758
1 1759
1 1760
1 1761
1 1762
1 1763
1 1764
1 1765
1 1766
1 1767
1 1768
1 1769
1 1770
1 1771
1 1772
1 1773
1 1774
1 1775
1 1776
1 1777
1 1778
1 1779
1 1780
1 1781
1 1782
1 1783
1 1784
1 1785
1 1786
1 1787
1 1788
1 1789
1 1790
1 1791
1 1792
1 1793
1 1794
1 1795
1 1796
1 1797
1 1798
1 1799
1 1800
1 1801
1 1802
1 1803
1 1804
1 1805
1 1806
1 1807
1 1808
1 1809
1 1810
1 1811
1 1812
1 1813
1 1814
1 1815
1 1816
1 1817
1 1818
1 1819
1 1820
1 1821
1 1822
1 1823
1 1824
1 1825
1 1826
1 1827
1 1828
1 1829
1 1830
1 1831
1 1832
1 1833
1 1834
1 1835
1 1836
1 1837
1 1838
1 1839
1 1840
1 1841
1 1842
1 1843
1 1844
1 1845
1 1846
1 1847
1 1848
1 1849
1 1850
1 1851
1 1852
1 1853
1 1854
1 1855
1 1856
1 1857
1 1858
1 1859
1 1860
1 1861
1 1862
1 1863
1 1864
1 1865
1 1866
1 1867
1 1868
1 1869
1 1870
1 1871
1 1872
1 1873
1 1874
1 1875
1 1876
1 1877
1 1878
1 1879
1 1880
1 1881
1 1882
1 1883
1 1884
1 1885
1 1886
1 1887
1 1888
1 1889
1 1890
1 1891
1 1892
1 1893
1 1894
1 1895
1 1896
1 1897
1 1898
1 1899
1 1900
1 1901
1 1902
1 1903
1 1904
1 1905
1 1906
1 1907
1 1908
1 1909
1 1910
1 1911
1 1912
1 1913
1 1914
1 1915
1 1916
1 1917
1 1918
1 1919
1 1920
1 1921
1 1922
1 1923
1 1924
1 1925
1 1926
1 1927
1 1928
1 1929
1 1930
1 1931
1 1932
1 1933
1 1934
1 1935
1 1936
1 1937
1 1938
1 1939
1 1940
1 1941
1 1942
1 1943
1 1944
1 1945
1 1946
1 1947
1 1948
1 1949
1 1950
1 1951
1 1952
1 1953
1 1954
1 1955
1 1956
1 1957
1 1958
1 1959
1 1960
1 1961
1 1962
1 1963
1 1964
1 1965
1 1966
1 1967
1 1968
1 1969
1 1970
1 1971
1 1972
1 1973
1 1974
1 1975
1 1976
1 1977
1 1978
1 1979
1 1980
1 1981
1 1982
1 1983
1 1984
1 1985
1 1986
1 1987
1 1988
1 1989
1 1990
1 1991
1 1992
1 1993
1 1994
1 1995
1 1996
1 1997
1 1998
1 1999
1 2000
1 2001
1 2002
1 2003
1 2004
1 2005
1 2006
1 2007
1 2008
1 2009
1 2010
1 2011
1 2012
1 2013
1 2014
1 2015
1 2016
1 2017
1 2018
1 2019
1 2020
1 2021
1 2022
1 2023
1 2024
1 2025
1 2026
1 2027
1 2028
1 2029
1 2030
1 2031
1 2032
1 2033
1 2034
1 2035
1 2036
1 2037
1 2038
1 2039
1 2040
1 2041
1 2042
1 2043
1 2044
1 2045
1 2046
1 2047
1 2048
1 2049
1 2050
1 2051
1 2052
1 2053
1 2054
1 2055
1 2056
1 2057
1 2058
1 2059
1 2060
1 2061
1 2062
1 2063
1 2064
1 2065
1 2066
1 2067
1 2068
1 2069
1 2070
1 2071
1 2072
1 2073
1 2074
1 2075
1 2076
1 2077
1 2078
1 2079
1 2080
1 2081
1 2082
1 2083
1 2084
1 2085
1 2086
1 2087
1 2088
1 2089
1 2090
1 2091
1 2092
1 2093
1 2094
1 2095
1 2096
1 2097
1 2098
1 2099
1 2100
1 2101
1 2102
1 2103
1 2104
1 2105
1 2106
1 2107
1 2108
1 2109
1 2110
1 2111
1 2112
1 2113
1 2114
1 2115
1 2116
1 2117
1 2118
1 2119
1 2120
1 2121
1 2122
1 2123
1 2124
1 2125
1 2126
1 2127
1 2128
1 2129
1 2130
1 2131
1 2132
1 2133
1 2134
1 2135
1 2136
1 2137
1 2138
1 2139
1 2140
1 2141
1 2142
1 2143
1 2144
1 2145
1 2146
1 2147
1 2148
1 2149
1 2150
1 2151
1 2152
1 2153
1 2154
1 2155
1 2156
1 2157
1 2158
1 2159
1 2160
1 2161
1 2162
1 2163
1 2164
1 2165
1 2166
1 2167
1 2168
1 2169
1 2170
1 2171
1 2172
1 2173
1 2174
1 2175
1 2176
1 2177
1 2178
1 2179
1 2180
1 2181
1 2182
1 2183
1 2184
1 2185
1 2186
1 2187
1 2188
1 2189
1 2190
1 2191
1 2192
1 2193
1 2194
1 2195
1 2196
1 2197
1 2198
1 2199
1 2200
1 2201
1 2202
1 2203
1 2204
1 2205
1 2206
1 2207
1 2208
1 2209
1 2210
1 2211
1 2212
1 2213
1 2214
1 2215
1 2216
1 2217
1 2218
1 2219
1 2220
1 2221
1 2222
1 2223
1 2224
1 2225
1 2226
1 2227
1 2228
1 2229
1 2230
1 2231
1 2232
1 2233
1 2234
1 2235
1 2236
1 2237
1 2238
1 2239
1 2240
1 2241
1 2242
1 2243
1 2244
1 2245
1 2246
1 2247
1 2248
1 2249
1 2250
1 2251
1 2252
1 2253
1 2254
1 2255
1 2256
1 2257
1 2258
1 2259
1 2260
1 2261
1 2262
1 2263
1 2264
1 2265
1 2266
1 2267
1 2268
1 2269
1 2270
1 2271
1 2272
1 2273
1 2274
1 2275
1 2276
1 2277
1 2278
1 2279
1 2280
1 2281
1 2282
1 2283
1 2284
1 2285
1 2286
1 2287
1 2288
1 2289
1 2290
1 2291
1 2292
1 2293
1 2294
1 2295
1 2296
1 2297
1 2298
1 2299
1 2300
1 2301
1 2302
1 2303
1 2304
1 2305
1 2306
1 2307
1 2308
1 2309
1 2310
1 2311
1 2312
1 2313
1 2314
1 2315
1 2316
1 2317
1 2318
1 2319
1 2320
1 2321
1 2322
1 2323
1 2324
1 2325
1 2326
1 2327
1 2328
1 2329
1 2330
1 2331
1 2332
1 2333
1 2334
1 2335
1 2336
1 2337
1 2338
1 2339
1 2340
1 2341
1 2342
1 2343
1 2344
1 2345
1 2346
1 2347
1 2348
1 2349
1 2350
1 2351
1 2352
1 2353
1 2354
1 2355
1 2356
1 2357
1 2358
1 2359
1 2360
1 2361
1 2362
1 2363
1 2364
1 2365
1 2366
1 2367
1 2368
1 2369
1 2370
1 2371
1 2372
1 2373
1 2374
1 2375
1 2376
1 2377
1 2378
1 2379
1 2380
1 2381
1 2382
1 2383
1 2384
1 2385
1 2386
1 2387
1 2388
1 2389
1 2390
1 2391
1 2392
1 2393
1 2394
1 2395
1 2396
1 2397
1 2398
1 2399
1 2400
1 2401
1 2402
1 2403
1 2404
1 2405
1 2406
1 2407
1 2408
1 2409
1 2410
1 2411
1 2412
1 2413
1 2414
1 2415
1 2416
1 2417
1 2418
1 2419
1 2420
1 2421
1 2422
1 2423
1 2424
1 2425
1 2426
1 2427
1 2428
1 2429
1 2430
1 2431
1 2432
1 2433
1 2434
1 2435
1 2436
1 2437
1 2438
1 2439
1 2440
1 2441
1 2442
1 2443
1 2444
1 2445
1 2446
1 2447
1 2448
1 2449
1 2450
1 2451
1 2452
1 2453
1 2454
1 2455
1 2456
1 2457
1 2458
1 2459
1 2460
1 2461
1 2462
1 2463
1 2464
1 2465
1 2466
1 2467
1 2468
1 2469
1 2470
1 2471
1 2472
1 2473
1 2474
1 2475
1 2476
1 2477
1 2478
1 2479
1 2480
1 2481
1 2482
1 2483
1 2484
1 2485
1 2486
1 2487
1 2488
1 2489
1 2490
1 2491
1 2492
1 2493
1 2494
1 2495
1 2496
1 2497
1 2498
1 2499
1 2500
1 2501
1 2502
1 2503
1 2504
1 2505
1 2506
1 2507
1 2508
1 2509
1 2510
1 2511
1 2512
1 2513
1 2514
1 2515
1 2516
1 2517
1 2518
1 2519
1 2520
1 2521
1 2522
1 2523
1 2524
1 2525
1 2526
1 2527
1 2528
1 2529
1 2530
1 2531
1 2532
1 2533
1 2534
1 2535
1 2536
1 2537
1 2538
1 2539
1 2540
1 2541
1 2542
1 2543
1 2544
1 2545
1 2546
1 2547
1 2548
1 2549
1 2550
1 2551
1 2552
1 2553
1 2554
1 2555
1 2556
1 2557
1 2558
1 2559
1 2560
1 2561
1 2562
1 2563
1 2564
1 2565
1 2566
1 2567
1 2568
1 2569
1 2570
1 2571
1 2572
1 2573
1 2574
1 2575
1 2576
1 2577
1 2578
1 2579
1 2580
1 2581
1 2582
1 2583
1 2584
1 2585
1 2586
1 2587
1 2588
1 2589
1 2590
1 2591
1 2592
1 2593
1 2594
1 2595
1 2596
1 2597
1 2598
1 2599
1 2600
1 2601
1 2602
1 2603
1 2604
1 2605
1 2606
1 2607
1 2608
1 2609
1 2610
1 2611
1 2612
1 2613
1 2614
1 2615
1 2616
1 2617
1 2618
1 2619
1 2620
1 2621
1 2622
1 2623
1 2624
1 2625
1 2626
1 2627
1 2628
1 2629
1 2630
1 2631
1 2632
1 2633
1 2634
1 2635
1 2636
1 2637
1 2638
1 2639
1 2640
1 2641
1 2642
1 2643
1 2644
1 2645
1 2646
1 2647
1 2648
1 2649
1 2650
1 2651
1 2652
1 2653
1 2654
1 2655
1 2656
1 2657
1 2658
1 2659
1 2660
1 2661
1 2662
1 2663
1 2664
1 2665
1 2666
1 2667
1 2668
1 2669
1 2670
1 2671
1 2672
1 2673
1 2674
1 2675
1 2676
1 2677
1 2678
1 2679
1 2680
1 2681
1 2682
1 2683
1 2684
1 2685
1 2686
1 2687
1 2688
1 2689
1 2690
1 2691
1 2692
1 2693
1 2694
1 2695
1 2696
1 2697
1 2698
1 2699
1 2700
1 2701
1 2702
1 2703
1 2704
1 2705
1 2706
1 2707
1 2708
1 2709
1 2710
1 2711
1 2712
1 2713
1 2714
1 2715
1 2716
1 2717
1 2718
1 2719
1 2720
1 2721
1 2722
1 2723
1 2724
1 2725
1 2726
1 2727
1 2728
1 2729
1 2730
1 2731
1 2732
1 2733
1 2734
1 2735
1 2736
1 2737
1 2738
1 2739
1 2740
1 2741
1 2742
1 2743
1 2744
1 2745
1 2746
1 2747
1 2748
1 2749
1 2750
1 2751
1 2752
1 2753
1 2754
1 2755
1 2756
1 2757
1 2758
1 2759
1 2760
1 2761
1 2762
1 2763
1 2764
1 2765
1 2766
1 2767
1 2768
1 2769
1 2770
1 2771
1 2772
1 2773
1 2774
1 2775
1 2776
1 2777
1 2778
1 2779
1 2780
1 2781
1 2782
1 2783
1 2784
1 2785
1 2786
1 2787
1 2788
1 2789
1 2790
1 2791
1 2792
1 2793
1 2794
1 2795
1 2796
1 2797
1 2798
1 2799
1 2800
1 2801
1 2802
1 2803
1 2804
1 2805
1 2806
1 2807
1 2808
1 2809
1 2810
1 2811
1 2812
1 2813
1 2814
1 2815
1 2816
1 2817
1 2818
1 2819
1 2820
1 2821
1 2822
1 2823
1 2824
1 2825
1 2826
1 2827
1 2828
1 2829
1 2830
1 2831
1 2832
1 2833
1 2834
1 2835
1 2836
1 2837
1 2838
1 2839
1 2840
1 2841
1 2842
1 2843
1 2844
1 2845
1 2846
1 2847
1 2848
1 2849
1 2850
1 2851
1 2852
1 2853
1 2854
1 2855
1 2856
1 2857
1 2858
1 2859
1 2860
1 2861
1 2862
1 2863
1 2864
1 2865
1 2866
1 2867
1 2868
1 2869
1 2870
1 2871
1 2872
1 2873
1 2874
1 2875
1 2876
1 2877
1 2878
1 2879
1 2880
1 2881
1 2882
1 2883
1 2884
1 2885
1 2886
1 2887
1 2888
1 2889
1 2890
1 2891
1 2892
1 2893
1 2894
1 2895
1 2896
1 2897
1 2898
1 2899
1 2900
1 2901
1 2902
1 2903
1 2904
1 2905
1 2906
1 2907
1 2908
1 2909
1 2910
1 2911
1 2912
1 2913
1 2914
1 2915
1 2916
1 2917
1 2918
1 2919
1 2920
1 2921
1 2922
1 2923
1 2924
1 2925
1 2926
1 2927
1 2928
1 2929
1 2930
1 2931
1 2932
1 2933
1 2934
1 2935
1 2936
1 2937
1 2938
1 2939
1 2940
1 2941
1 2942
1 2943
1 2944
1 2945
1 2946
1 2947
1 2948
1 2949
1 2950
1 2951
1 2952
1 2953
1 2954
1 2955
1 2956
1 2957
1 2958
1 2959
1 2960
1 2961
1 2962
1 2963
1 2964
1 2965
1 2966
1 2967
1 2968
1 2969
1 2970
1 2971
1 2972
1 2973
1 2974
1 2975
1 2976
1 2977
1 2978
1 2979
1 2980
1 2981
1 2982
1 2983
1 2984
1 2985
1 2986
1 2987
1 2988
1 2989
1 2990
1 2991
1 2992
1 2993
1 2994
1 2995
1 2996
1 2997
1 2998
1 2999
1 3000
1 3001
1 3002
1 3003
1 3004
1 3005
1 3006
1 3007
1 3008
1 3009
1 3010
1 3011
1 3012
1 3013
1 3014
1 3015
1 3016
1 3017
1 3018
1 3019
1 3020
1 3021
1 3022
1 3023
1 3024
1 3025
1 3026
1 3027
1 3028
1 3029
1 3030
1 3031
1 3032
1 3033
1 3034
1 3035
1 3036
1 3037
1 3038
1 3039
1 3040
1 3041
1 3042
1 3043
1 3044
1 3045
1 3046
1 3047
1 3048
1 3049
1 3050
1 3051
1 3052
1 3053
1 3054
1 3055
1 3056
1 3057
1 3058
1 3059
1 3060
1 3061
1 3062
1 3063
1 3064
1 3065
1 3066
1 3067
1 3068
1 3069
1 3070
1 3071
1 3072
1 3073
1 3074
1 3075
1 3076
1 3077
1 3078
1 3079
1 3080
1 3081
1 3082
1 3083
1 3084
1 3085
1 3086
1 3087
1 3088
1 3089
1 3090
1 3091
1 3092
1 3093
1 3094
1 3095
1 3096
1 3097
1 3098
1 3099
1 3100
1 3101
1 3102
1 3103
1 3104
1 3105
1 3106
1 3107
1 3108
1 3109
1 3110
1 3111
1 3112
1 3113
1 3114
1 3115
1 3116
1 3117
1 3118
1 3119
1 3120
1 3121
1 3122
1 3123
1 3124
1 3125
1 3126
1 3127
1 3128
1 3129
1 3130
1 3131
1 3132
1 3133
1 3134
1 3135
1 3136
1 3137
1 3138
1 3139
1 3140
1 3141
1 3142
1 3143
1 3144
1 3145
1 3146
1 3147
1 3148
1 3149
1 3150
1 3151
1 3152
1 3153
1 3154
1 3155
1 3156
1 3157
1 3158
1 3159
1 3160
1 3161
1 3162
1 3163
1 3164
1 3165
1 3166
1 3167
1 3168
1 3169
1 3170
1 3171
1 3172
1 3173
1 3174
1 3175
1 3176
1 3177
1 3178
1 3179
1 3180
1 3181
1 3182
1 3183
1 3184
1 3185
1 3186
1 3187
1 3188
1 3189
1 3190
1 3191
1 3192
1 3193
1 3194
1 3195
1 3196
1 3197
1 3198
1 3199
1 3200
1 3201
1 3202
1 3203
1 3204
1 3205
1 3206
1 3207
1 3208
1 3209
1 3210
1 3211
1 3212
1 3213
1 3214
1 3215
1 3216
1 3217
1 3218
1 3219
1 3220
1 3221
1 3222
1 3223
1 3224
1 3225
1 3226
1 3227
1 3228
1 3229
1 3230
1 3231
1 3232
1 3233
1 3234
1 3235
1 3236
1 3237
1 3238
1 3239
1 3240
1 3241
1 3242
1 3243
1 3244
1 3245
1 3246
1 3247
1 3248
1 3249
1 3250
1 3251
1 3252
1 3253
1 3254
1 3255
1 3256
1 3257
1 3258
1 3259
1 3260
1 3261
1 3262
1 3263
1 3264
1 3265
1 3266
1 3267
1 3268
1 3269
1 3270
1 3271
1 3272
1 3273
1 3274
1 3275
1 3276
1 3277
1 3278
1 3279
1 3280
1 3281
1 3282
1 3283
1 3284
1 3285
1 3286
1 3287
1 3288
1 3289
1 3290
1 3291
1 3292
1 3293
1 3294
1 3295
1 3296
1 3297
1 3298
1 3299
1 3300
1 3301
1 3302
1 3303
1 3304
1 3305
1 3306
1 3307
1 3308
1 3309
1 3310
1 3311
1 3312
1 3313
1 3314
1 3315
1 3316
1 3317
1 3318
1 3319
1 3320
1 3321
1 3322
1 3323
1 3324
1 3325
1 3326
1 3327
1 3328
1 3329
1 3330
1 3331
1 3332
1 3333
1 3334
1 3335
1 3336
1 3337
1 3338
1 3339
1 3340
1 3341
1 3342
1 3343
1 3344
1 3345
1 3346
1 3347
1 3348
1 3349
1 3350
1 3351
1 3352
1 3353
1 3354
1 3355
1 3356
1 3357
1 3358
1 3359
1 3360
1 3361
1 3362
1 3363
1 3364
1 3365
1 3366
1 3367
1 3368
1 3369
1 3370
1 3371
1 3372
1 3373
1 3374
1 3375
1 3376
1 3377
1 3378
1 3379
1 3380
1 3381
1 3382
1 3383
1 3384
1 3385
1 3386
1 3387
1 3388
1 3389
1 3390
1 3391
1 3392
1 3393
1 3394
1 3395
1 3396
1 3397
1 3398
1 3399
1 3400
1 3401
1 3402
1 3403
1 3404
1 3405
1 3406
1 3407
1 3408
1 3409
1 3410
1 3411
1 3412
1 3413
1 3414
1 3415
1 3416
1 3417
1 3418
1 3419
1 3420
1 3421
1 3422
1 3423
1 3424
1 3425
1 3426
1 3427
1 3428
1 3429
1 3430
1 3431
1 3432
1 3433
1 3434
1 3435
1 3436
1 3437
1 3438
1 3439
1 3440
1 3441
1 3442
1 3443
1 3444
1 3445
1 3446
1 3447
1 3448
1 3449
1 3450
1 3451
1 3452
1 3453
1 3454
1 3455
1 3456
1 3457
1 3458
1 3459
1 3460
1 3461
1 3462
1 3463
1 3464
1 3465
1 3466
1 3467
1 3468
1 3469
1 3470
1 3471
1 3472
1 3473
1 3474
1 3475
1 3476
1 3477
1 3478
1 3479
1 3480
1 3481
1 3482
1 3483
1 3484
1 3485
1 3486
1 3487
1 3488
1 3489
1 3490
1 3491
1 3492
1 3493
1 3494
1 3495
1 3496
1 3497
1 3498
1 3499
1 3500
1 3501
1 3502
1 3503
1 3504
1 3505
1 3506
1 3507
1 3508
1 3509
1 3510
1 3511
1 3512
1 3513
1 3514
1 3515
1 3516
1 3517
1 3518
1 3519
1 3520
1 3521
1 3522
1 3523
1 3524
1 3525
1 3526
1 3527
1 3528
1 3529
1 3530
1 3531
1 3532
1 3533
1 3534
1 3535
1 3536
1 3537
1 3538
1 3539
1 3540
1 3541
1 3542
1 3543
1 3544
1 3545
1 3546
1 3547
1 3548
1 3549
1 3550
1 3551
1 3552
1 3553
1 3554
1 3555
1 3556
1 3557
1 3558
1 3559
1 3560
1 3561
1 3562
1 3563
1 3564
1 3565
1 3566
1 3567
1 3568
1 3569
1 3570
1 3571
1 3572
1 3573
1 3574
1 3575
1 3576
1 3577
1 3578
1 3579
1 3580
1 3581
1 3582
1 3583
1 3584
1 3585
1 3586
1 3587
1 3588
1 3589
1 3590
1 3591
1 3592
1 3593
1 3594
1 3595
1 3596
1 3597
1 3598
1 3599
1 3600
1 3601
1 3602
1 3603
1 3604
1 3605
1 3606
1 3607
1 3608
1 3609
1 3610
1 3611
1 3612
1 3613
1 3614
1 3615
1 3616
1 3617
1 3618
1 3619
1 3620
1 3621
1 3622
1 3623
1 3624
1 3625
1 3626
1 3627
1 3628
1 3629
1 3630
1 3631
1 3632
1 3633
1 3634
1 3635
1 3636
1 3637
1 3638
1 3639
1 3640
1 3641
1 3642
1 3643
1 3644
1 3645
1 3646
1 3647
1 3648
1 3649
1 3650
1 3651
1 3652
1 3653
1 3654
1 3655
1 3656
1 3657
1 3658
1 3659
1 3660
1 3661
1 3662
1 3663
1 3664
1 3665
1 3666
1 3667
1 3668
1 3669
1 3670
1 3671
1 3672
1 3673
1 3674
1 3675
1 3676
1 3677
1 3678
1 3679
1 3680
1 3681
1 3682
1 3683
1 3684
1 3685
1 3686
1 3687
1 3688
1 3689
1 3690
1 3691
1 3692
1 3693
1 3694
1 3695
1 3696
1 3697
1 3698
1 3699
1 3700
1 3701
1 3702
1 3703
1 3704
1 3705
1 3706
1 3707
1 3708
1 3709
1 3710
1 3711
1 3712
1 3713
1 3714
1 3715
1 3716
1 3717
1 3718
1 3719
1 3720
1 3721
1 3722
1 3723
1 3724
1 3725
1 3726
1 3727
1 3728
1 3729
1 3730
1 3731
1 3732
1 3733
1 3734
1 3735
1 3736
1 3737
1 3738
1 3739
1 3740
1 3741
1 3742
1 3743
1 3744
1 3745
1 3746
1 3747
1 3748
1 3749
1 3750
1 3751
1 3752
1 3753
1 3754
1 3755
1 3756
1 3757
1 3758
1 3759
1 3760
1 3761
1 3762
1 3763
1 3764
1 3765
1 3766
1 3767
1 3768
1 3769
1 3770
1 3771
1 3772
1 3773
1 3774
1 3775
1 3776
1 3777
1 3778
1 3779
1 3780
1 3781
1 3782
1 3783
1 3784
1 3785
1 3786
1 3787
1 3788
1 3789
1 3790
1 3791
1 3792
1 3793
1 3794
1 3795
1 3796
1 3797
1 3798
1 3799
1 3800
1 3801
1 3802
1 3803
1 3804
1 3805
1 3806
1 3807
1 3808
1 3809
1 3810
1 3811
1 3812
1 3813
1 3814
1 3815
1 3816
1 3817
1 3818
1 3819
1 3820
1 3821
1 3822
1 3823
1 3824
1 3825
1 3826
1 3827
1 3828
1 3829
1 3830
1 3831
1 3832
1 3833
1 3834
1 3835
1 3836
1 3837
1 3838
1 3839
1 3840
1 3841
1 3842
1 3843
1 3844
1 3845
1 3846
1 3847
1 3848
1 3849
1 3850
1 3851
1 3852
1 3853
1 3854
1 3855
1 3856
1 3857
1 3858
1 3859
1 3860
1 3861
1 3862
1 3863
1 3864
1 3865
1 3866
1 3867
1 3868
1 3869
1 3870
1 3871
1 3872
1 3873
1 3874
1 3875
1 3876
1 3877
1 3878
1 3879
1 3880
1 3881
1 3882
1 3883
1 3884
1 3885
1 3886
1 3887
1 3888
1 3889
1 3890
1 3891
1 3892
1 3893
1 3894
1 3895
1 3896
1 3897
1 3898
1 3899
1 3900
1 3901
1 3902
1 3903
1 3904
1 3905
1 3906
1 3907
1 3908
1 3909
1 3910
1 3911
1 3912
1 3913
1 3914
1 3915
1 3916
1 3917
1 3918
1 3919
1 3920
1 3921
1 3922
1 3923
1 3924
1 3925
1 3926
1 3927
1 3928
1 3929
1 3930
1 3931
1 3932
1 3933
1 3934
1 3935
1 3936
1 3937
1 3938
1 3939
1 3940
1 3941
1 3942
1 3943
1 3944
1 3945
1 3946
1 3947
1 3948
1 3949
1 3950
1 3951
1 3952
1 3953
1 3954
1 3955
1 3956
1 3957
1 3958
1 3959
1 3960
1 3961
1 3962
1 3963
1 3964
1 3965
1 3966
1 3967
1 3968
1 3969
1 3970
1 3971
1 3972
1 3973
1 3974
1 3975
1 3976
1 3977
1 3978
1 3979
1 3980
1 3981
1 3982
1 3983
1 3984
1 3985
1 3986
1 3987
1 3988
1 3989
1 3990
1 3991
1 3992
1 3993
1 3994
1 3995
1 3996
1 3997
1 3998
1 3999
1 4000
1 4001
1 4002
1 4003
1 4004
1 4005
1 4006
1 4007
1 4008
1 4009
1 4010
1 4011
1 4012
1 4013
1 4014
1 4015
1 4016
1 4017
1 4018
1 4019
1 4020
1 4021
1 4022
1 4023
1 4024
1 4025
1 4026
1 4027
1 4028
1 4029
1 4030
1 4031
1 4032
1 4033
1 4034
1 4035
1 4036
1 4037
1 4038
1 4039
1 4040
1 4041
1 4042
1 4043
1 4044
1 4045
1 4046
1 4047
1 4048
1 4049
1 4050
1 4051
1 4052
1 4053
1 4054
1 4055
1 4056
1 4057
1 4058
1 4059
1 4060
1 4061
1 4062
1 4063
1 4064
1 4065
1 4066
1 4067
1 4068
1 4069
1 4070
1 4071
1 4072
1 4073
1 4074
1 4075
1 4076
1 4077
1 4078
1 4079
1 4080
1 4081
1 4082
1 4083
1 4084
1 4085
1 4086
1 4087
1 4088
1 4089
1 4090
1 4091
1 4092
1 4093
1 4094
1 4095
1 4096
1 4097
1 4098
1 4099
1 4100
1 4101
1 4102
1 4103
1 4104
1 4105
1 4106
1 4107
1 4108
1 4109
1 4110
1 4111
1 4112
1 4113
1 4114
1 4115
1 4116
1 4117
1 4118
1 4119
1 4120
1 4121
1 4122
1 4123
1 4124
1 4125
1 4126
1 4127
1 4128
1 4129
1 4130
1 4131
1 4132
1 4133
1 4134
1 4135
1 4136
1 4137
1 4138
1 4139
1 4140
1 4141
1 4142
1 4143
1 4144
1 4145
1 4146
1 4147
1 4148
1 4149
1 4150
1 4151
1 4152
1 4153
1 4154
1 4155
1 4156
1 4157
1 4158
1 4159
1 4160
1 4161
1 4162
1 4163
1 4164
1 4165
1 4166
1 4167
1 4168
1 4169
1 4170
1 4171
1 4172
1 4173
1 4174
1 4175
1 4176
1 4177
1 4178
1 4179
1 4180
1 4181
1 4182
1 4183
1 4184
1 4185
1 4186
1 4187
1 4188
1 4189
1 4190
1 4191
1 4192
1 4193
1 4194
1 4195
1 4196
1 4197
1 4198
1 4199
1 4200
1 4201
1 4202
1 4203
1 4204
1 4205
1 4206
1 4207
1 4208
1 4209
1 4210
1 4211
1 4212
1 4213
1 4214
1 4215
1 4216
1 4217
1 4218
1 4219
1 4220
1 4221
1 4222
1 4223
1 4224
1 4225
1 4226
1 4227
1 4228
1 4229
1 4230
1 4231
1 4232
1 4233
1 4234
1 4235
1 4236
1 4237
1 4238
1 4239
1 4240
1 4241
1 4242
1 4243
1 4244
1 4245
1 4246
1 4247
1 4248
1 4249
1 4250
1 4251
1 4252
1 4253
1 4254
1 4255
1 4256
1 4257
1 4258
1 4259
1 4260
1 4261
1 4262
1 4263
1 4264
1 4265
1 4266
1 4267
1 4268
1 4269
1 4270
1 4271
1 4272
1 4273
1 4274
1 4275
1 4276
1 4277
1 4278
1 4279
1 4280
1 4281
1 4282
1 4283
1 4284
1 4285
1 4286
1 4287
1 4288
1 4289
1 4290
1 4291
1 4292
1 4293
1 4294
1 4295
1 4296
1 4297
1 4298
1 4299
1 4300
1 4301
1 4302
1 4303
1 4304
1 4305
1 4306
1 4307
1 4308
1 4309
1 4310
1 4311
1 4312
1 4313
1 4314
1 4315
1 4316
1 4317
1 4318
1 4319
1 4320
1 4321
1 4322
1 4323
1 4324
1 4325
1 4326
1 4327
1 4328
1 4329
1 4330
1 4331
1 4332
1 4333
1 4334
1 4335
1 4336
1 4337
1 4338
1 4339
1 4340
1 4341
1 4342
1 4343
1 4344
1 4345
1 4346
1 4347
1 4348
1 4349
1 4350
1 4351
1 4352
1 4353
1 4354
1 4355
1 4356
1 4357
1 4358
1 4359
1 4360
1 4361
1 4362
1 4363
1 4364
1 4365
1 4366
1 4367
1 4368
1 4369
1 4370
1 4371
1 4372
1 4373
1 4374
1 4375
1 4376
1 4377
1 4378
1 4379
1 4380
1 4381
1 4382
1 4383
1 4384
1 4385
1 4386
1 4387
1 4388
1 4389
1 4390
1 4391
1 4392
1 4393
1 4394
1 4395
1 4396
1 4397
1 4398
1 4399
1 4400
1 4401
1 4402
1 4403
1 4404
1 4405
1 4406
1 4407
1 4408
1 4409
1 4410
1 4411
1 4412
1 4413
1 4414
1 4415
1 4416
1 4417
1 4418
1 4419
1 4420
1 4421
1 4422
1 4423
1 4424
1 4425
1 4426
1 4427
1 4428
1 4429
1 4430
1 4431
1 4432
1 4433
1 4434
1 4435
1 4436
1 4437
1 4438
1 4439
1 4440
1 4441
1 4442
1 4443
1 4444
1 4445
1 4446
1 4447
1 4448
1 4449
1 4450
1 4451
1 4452
1 4453
1 4454
1 4455
1 4456
1 4457
1 4458
1 4459
1 4460
1 4461
1 4462
1 4463
1 4464
1 4465
1 4466
1 4467
1 4468
1 4469
1 4470
1 4471
1 4472
1 4473
1 4474
1 4475
1 4476
1 4477
1 4478
1 4479
1 4480
1 4481
1 4482
1 4483
1 4484
1 4485
1 4486
1 4487
1 4488
1 4489
1 4490
1 4491
1 4492
1 4493
1 4494
1 4495
1 4496
1 4497
1 4498
1 4499
1 4500
1 4501
1 4502
1 4503
1 4504
1 4505
1 4506
1 4507
1 4508
1 4509
1 4510
1 4511
1 4512
1 4513
1 4514
1 4515
1 4516
1 4517
1 4518
1 4519
1 4520
1 4521
1 4522
1 4523
1 4524
1 4525
1 4526
1 4527
1 4528
1 4529
1 4530
1 4531
1 4532
1 4533
1 4534
1 4535
1 4536
1 4537
1 4538
1 4539
1 4540
1 4541
1 4542
1 4543
1 4544
1 4545
1 4546
1 4547
1 4548
1 4549
1 4550
1 4551
1 4552
1 4553
1 4554
1 4555
1 4556
1 4557
1 4558
1 4559
1 4560
1 4561
1 4562
1 4563
1 4564
1 4565
1 4566
1 4567
1 4568
1 4569
1 4570
1 4571
1 4572
1 4573
1 4574
1 4575
1 4576
1 4577
1 4578
1 4579
1 4580
1 4581
1 4582
1 4583
1 4584
1 4585
1 4586
1 4587
1 4588
1 4589
1 4590
1 4591
1 4592
1 4593
1 4594
1 4595
1 4596
1 4597
1 4598
1 4599
1 4600
1 4601
1 4602
1 4603
1 4604
1 4605
1 4606
1 4607
1 4608
1 4609
1 4610
1 4611
1 4612
1 4613
1 4614
1 4615
1 4616
1 4617
1 4618
1 4619
1 4620
1 4621
1 4622
1 4623
1 4624
1 4625
1 4626
1 4627
1 4628
1 4629
1 4630
1 4631
1 4632
1 4633
1 4634
1 4635
1 4636
1 4637
1 4638
1 4639
1 4640
1 4641
1 4642
1 4643
1 4644
1 4645
1 4646
1 4647
1 4648
1 4649
1 4650
1 4651
1 4652
1 4653
1 4654
1 4655
1 4656
1 4657
1 4658
1 4659
1 4660
1 4661
1 4662
1 4663
1 4664
1 4665
1 4666
1 4667
1 4668
1 4669
1 4670
1 4671
1 4672
1 4673
1 4674
1 4675
1 4676
1 4677
1 4678
1 4679
1 4680
1 4681
1 4682
1 4683
1 4684
1 4685
1 4686
1 4687
1 4688
1 4689
1 4690
1 4691
1 4692
1 4693
1 4694
1 4695
1 4696
1 4697
1 4698
1 4699
1 4700
1 4701
1 4702
1 4703
1 4704
1 4705
1 4706
1 4707
1 4708
1 4709
1 4710
1 4711
1 4712
1 4713
1 4714
1 4715
1 4716
1 4717
1 4718
1 4719
1 4720
1 4721
1 4722
1 4723
1 4724
1 4725
1 4726
1 4727
1 4728
1 4729
1 4730
1 4731
1 4732
1 4733
1 4734
1 4735
1 4736
1 4737
1 4738
1 4739
1 4740
1 4741
1 4742
1 4743
1 4744
1 4745
1 4746
1 4747
1 4748
1 4749
1 4750
1 4751
1 4752
1 4753
1 4754
1 4755
1 4756
1 4757
1 4758
1 4759
1 4760
1 4761
1 4762
1 4763
1 4764
1 4765
1 4766
1 4767
1 4768
1 4769
1 4770
1 4771
1 4772
1 4773
1 4774
1 4775
1 4776
1 4777
1 4778
1 4779
1 4780
1 4781
1 4782
1 4783
1 4784
1 4785
1 4786
1 4787
1 4788
1 4789
1 4790
1 4791
1 4792
1 4793
1 4794
1 4795
1 4796
1 4797
1 4798
1 4799
1 4800
1 4801
1 4802
1 4803
1 4804
1 4805
1 4806
1 4807
1 4808
1 4809
1 4810
1 4811
1 4812
1 4813
1 4814
1 4815
1 4816
1 4817
1 4818
1 4819
1 4820
1 4821
1 4822
1 4823
1 4824
1 4825
1 4826
1 4827
1 4828
1 4829
1 4830
1 4831
1 4832
1 4833
1 4834
1 4835
1 4836
1 4837
1 4838
1 4839
1 4840
1 4841
1 4842
1 4843
1 4844
1 4845
1 4846
1 4847
1 4848
1 4849
1 4850
1 4851
1 4852
1 4853
1 4854
1 4855
1 4856
1 4857
1 4858
1 4859
1 4860
1 4861
1 4862
1 4863
1 4864
1 4865
1 4866
1 4867
1 4868
1 4869
1 4870
1 4871
1 4872
1 4873
1 4874
1 4875
1 4876
1 4877
1 4878
1 4879
1 4880
1 4881
1 4882
1 4883
1 4884
1 4885
1 4886
1 4887
1 4888
1 4889
1 4890
1 4891
1 4892
1 4893
1 4894
1 4895
1 4896
1 4897
1 4898
1 4899
1 4900
1 4901
1 4902
1 4903
1 4904
1 4905
1 4906
1 4907
1 4908
1 4909
1 4910
1 4911
1 4912
1 4913
1 4914
1 4915
1 4916
1 4917
1 4918
1 4919
1 4920
1 4921
1 4922
1 4923
1 4924
1 4925
1 4926
1 4927
1 4928
1 4929
1 4930
1 4931
1 4932
1 4933
1 4934
1 4935
1 4936
1 4937
1 4938
1 4939
1 4940
1 4941
1 4942
1 4943
1 4944
1 4945
1 4946
1 4947
1 4948
1 4949
1 4950
1 4951
1 4952
1 4953
1 4954
1 4955
1 4956
1 4957
1 4958
1 4959
1 4960
1 4961
1 4962
1 4963
1 4964
1 4965
1 4966
1 4967
1 4968
1 4969
1 4970
1 4971
1 4972
1 4973
1 4974
1 4975
1 4976
1 4977
1 4978
1 4979
1 4980
1 4981
1 4982
1 4983
1 4984
1 4985
1 4986
1 4987
1 4988
1 4989
1 4990
1 4991
1 4992
1 4993
1 4994
1 4995
1 4996
1 4997
1 4998
1 4999
CELL_TYPES 5000
1 
1 
1 
1 
1 
1 
1 
1 
1 
1 
1 
1 
1 
1 
1 
1 
1 
1 
1 
1 
1 
1 
1 
1 
1 
1 
1 
1 
1 
1 
1 
1 
1 
1 
1 
1 
1 
1 
1 
1 
1 
1 
1 
1 
1 
1 
1 
1 
1 
1 
1 
1 
1 
1 
1 
1 
1 
1 
1 
1 
1 
1 
1 
1 
1 
1 
1 
1 
1 
1 
1 
1 
1 
1 
1 
1 
1 
1 
1 
1 
1 
1 
1 
1 
1 
1 
1 
1 
1 
1 
1 
1 
1 
1 
1 
1 
1 
1 
1 
1 
1 
1 
1 
1 
1 
1 
1 
1 
1 
1 
1 
1 
1 
1 
1 
1 
1 
1 
1 
1 
1 
1 
1 
1 
1 
1 
1 
1 
1 
1 
1 
1 
1 
1 
1 
1 
1 
1 
1 
1 
1 
1 
1 
1 
1 
1 
1 
1 
1 
1 
1 
1 
1 
1 
1 
1 
1 
1 
1 
1 
1 
1 
1 
1 
1 
1 
1 
1 
1 
1 
1 
1 
1 
1 
1 
1 
1 
1 
1 
1 
1 
1 
1 
1 
1 
1 
1 
1 
1 
1 
1 
1 
1 
1 
1 
1 
1 
1 
1 
1 
1 
1 
1 
1 
1 
1 
1 
1 
1 
1 
1 
1 
1 
1 
1 
1 
1 
1 
1 
1 
1 
1 
1 
1 
1 
1 
1 
1 
1 
1 
1 
1 
1 
1 
1 
1 
1 
1 
1 
1 
1 
1 
1 
1 
1 
1 
1 
1 
1 
1 
1 
1 
1 
1 
1 
1 
1 
1 
1 
1 
1 
1 
1 
1 
1 
1 
1 
1 
1 
1 
1 
1 
1 
1 
1 
1 
1 
1 
1 
1 
1 
1 
1 
1 
1 
1 
1 
1 
1 
1 
1 
1 
1 
1 
1 
1 
1 
1 
1 
1 
1 
1 
1 
1 
1 
1 
1 
1 
1 
1 
1 
1 
1 
1 
1 
1 
1 
1 
1 
1 
1 
1 
1 
1 
1 
1 
1 
1 
1 
1 
1 
1 
1 
1 
1 
1 
1 
1 
1 
1 
1 
1 
1 
1 
1 
1 
1 
1 
1 
1 
1 
1 
1 
1 
1 
1 
1 
1 
1 
1 
1 
1 
1 
1 
1 
1 
1 
1 
1 
1 
1 
1 
1 
1 
1 
1 
1 
1 
1 
1 
1 
1 
1 
1 
1 
1 
1 
1 
1 
1 
1 
1 
1 
1 
1 
1 
1 
1 
1 
1 
1 
1 
1 
1 
1 
1 
1 
1 
1 
1 
1 
1 
1 
1 
1 
1 
1 
1 
1 
1 
1 
1 
1 
1 
1 
1 
1 
1 
1 
1 
1 
1 
1 
1 
1 
1 
1 
1 
1 
1 
1 
1 
1 
1 
1 
1 
1 
1 
1 
1 
1 
1 
1 
1 
1 
1 
1 
1 
1 
1 
1 
1 
1 
1 
1 
1 
1 
1 
1 
1 
1 
1 
1 
1 
1 
1 
1 
1 
1 
1 
1 
1 
1 
1 
1 
1 
1 
1 
1 
1 
1 
1 
1 
1 
1 
1 
1 
1 
1 
1 
1 
1 
1 
1 
1 
1 
1 
1 
1 
1 
1 
1 
1 
1 
1 
1 
1 
1 
1 
1 
1 
1 
1 
1 
1 
1 
1 
1 
1 
1 
1 
1 
1 
1 
1 
1 
1 
1 
1 
1 
1 
1 
1 
1 
1 
1 
1 
1 
1 
1 
1 
1 
1 
1 
1 
1 
1 
1 
1 
1 
1 
1 
1 
1 
1 
1 
1 
1 
1 
1 
1 
1 
1 
1 
1 
1 
1 
1 
1 
1 
1 
1 
1 
1 
1 
1 
1 
1 
1 
1 
1 
1 
1 
1 
1 
1 
1 
1 
1 
1 
1 
1 
1 
1 
1 
1 
1 
1 
1 
1 
1 
1 
1 
1 
1 
1 
1 
1 
1 
1 
1 
1 
1 
1 
1 
1 
1 
1 
1 
1 
1 
1 
1 
1 
1 
1 
1 
1 
1 
1 
1 
1 
1 
1 
1 
1 
1 
1 
1 
1 
1 
1 
1 
1 
1 
1 
1 
1 
1 
1 
1 
1 
1 
1 
1 
1 
1 
1 
1 
1 
1 
1 
1 
1 
1 
1 
1 
1 
1 
1 
1 
1 
1 
1 
1 
1 
1 
1 
1 
1 
1 
1 
1 
1 
1 
1 
1 
1 
1 
1 
1 
1 
1 
1 
1 
1 
1 
1 
1 
1 
1 
1 
1 
1 
1 
1 
1 
1 
1 
1 
1 
1 
1 
1 
1 
1 
1 
1 
1 
1 
1 
1 
1 
1 
1 
1 
1 
1 
1 
1 
1 
1 
1 
1 
1 
1 
1 
1 
1 
1 
1 
1 
1 
1 
1 
1 
1 
1 
1 
1 
1 
1 
1 
1 
1 
1 
1 
1 
1 
1 
1 
1 
1 
1 
1 
1 
1 
1 
1 
1 
1 
1 
1 
1 
1 
1 
1 
1 
1 
1 
1 
1 
1 
1 
1 
1 
1 
1 
1 
1 
1 
1 
1 
1 
1 
1 
1 
1 
1 
1 
1 
1 
1 
1 
1 
1 
1 
1 
1 
1 
1 
1 
1 
1 
1 
1 
1 
1 
1 
1 
1 
1 
1 
1 
1 
1 
1 
1 
1 
1 
1 
1 
1 
1 
1 
1 
1 
1 
1 
1 
1 
1 
1 
1 
1 
1 
1 
1 
1 
1 
1 
1 
1 
1 
1 
1 
1 
1 
1 
1 
1 
1 
1 
1 
1 
1 
1 
1 
1 
1 
1 
1 
1 
1 
1 
1 
1 
1 
1 
1 
1 
1 
1 
1 
1 
1 
1 
1 
1 
1 
1 
1 
1 
1 
1 
1 
1 
1 
1 
1 
1 
1 
1 
1 
1 
1 
1 
1 
1 
1 
1 
1 
1 
1 
1 
1 
1 
1 
1 
1 
1 
1 
1 
1 
1 
1 
1 
1 
1 
1 
1 
1 
1 
1 
1 
1 
1 
1 
1 
1 
1 
1 
1 
1 
1 
1 
1 
1 
1 
1 
1 
1 
1 
1 
1 
1 
1 
1 
1 
1 
1 
1 
1 
1 
1 
1 
1 
1 
1 
1 
1 
1 
1 
1 
1 
1 
1 
1 
1 
1 
1 
1 
1 
1 
1 
1 
1 
1 
1 
1 
1 
1 
1 
1 
1 
1 
1 
1 
1 
1 
1 
1 
1 
1 
1 
1 
1 
1 
1 
1 
1 
1 
1 
1 
1 
1 
1 
1 
1 
1 
1 
1 
1 
1 
1 
1 
1 
1 
1 
1 
1 
1 
1 
1 
1 
1 
1 
1 
1 
1 
1 
1 
1 
1 
1 
1 
1 
1 
1 
1 
1 
1 
1 
1 
1 
1 
1 
1 
1 
1 
1 
1 
1 
1 
1 
1 
1 
1 
1 
1 
1 
1 
1 
1 
1 
1 
1 
1 
1 
1 
1 
1 
1 
1 
1 
1 
1 
1 
1 
1 
1 
1 
1 
1 
1 
1 
1 
1 
1 
1 
1 
1 
1 
1 
1 
1 
1 
1 
1 
1 
1 
1 
1 
1 
1 
1 
1 
1 
1 
1 
1 
1 
1 
1 
1 
1 
1 
1 
1 
1 
1 
1 
1 
1 
1 
1 
1 
1 
1 
1 
1 
1 
1 
1 
1 
1 
1 
1 
1 
1 
1 
1 
1 
1 
1 
1 
1 
1 
1 
1 
1 
1 
1 
1 
1 
1 
1 
1 
1 
1 
1 
1 
1 
1 
1 
1 
1 
1 
1 
1 
1 
1 
1 
1 
1 
1 
1 
1 
1 
1 
1 
1 
1 
1 
1 
1 
1 
1 
1 
1 
1 
1 
1 
1 
1 
1 
1 
1 
1 
1 
1 
1 
1 
1 
1 
1 
1 
1 
1 
1 
1 
1 
1 
1 
1 
1 
1 
1 
1 
1 
1 
1 
1 
1 
1 
1 
1 
1 
1 
1 
1 
1 
1 
1 
1 
1 
1 
1 
1 
1 
1 
1 
1 
1 
1 
1 
1 
1 
1 
1 
1 
1 
1 
1 
1 
1 
1 
1 
1 
1 
1 
1 
1 
1 
1 
1 
1 
1 
1 
1 
1 
1 
1 
1 
1 
1 
1 
1 
1 
1 
1 
1 
1 
1 
1 
1 
1 
1 
1 
1 
1 
1 
1 
1 
1 
1 
1 
1 
1 
1 
1 
1 
1 
1 
1 
1 
1 
1 
1 
1 
1 
1 
1 
1 
1 
1 
1 
1 
1 
1 
1 
1 
1 
1 
1 
1 
1 
1 
1 
1 
1 
1 
1 
1 
1 
1 
1 
1 
1 
1 
1 
1 
1 
1 
1 
1 
1 
1 
1 
1 
1 
1 
1 
1 
1 
1 
1 
1 
1 
1 
1 
1 
1 
1 
1 
1 
1 
1 
1 
1 
1 
1 
1 
1 
1 
1 
1 
1 
1 
1 
1 
1 
1 
1 
1 
1 
1 
1 
1 
1 
1 
1 
1 
1 
1 
1 
1 
1 
1 
1 
1 
1 
1 
1 
1 
1 
1 
1 
1 
1 
1 
1 
1 
1 
1 
1 
1 
1 
1 
1 
1 
1 
1 
1 
1 
1 
1 
1 
1 
1 
1 
1 
1 
1 
1 
1 
1 
1 
1 
1 
1 
1 
1 
1 
1 
1 
1 
1 
1 
1 
1 
1 
1 
1 
1 
1 
1 
1 
1 
1 
1 
1 
1 
1 
1 
1 
1 
1 
1 
1 
1 
1 
1 
1 
1 
1 
1 
1 
1 
1 
1 
1 
1 
1 
1 
1 
1 
1 
1 
1 
1 
1 
1 
1 
1 
1 
1 
1 
1 
1 
1 
1 
1 
1 
1 
1 
1 
1 
1 
1 
1 
1 
1 
1 
1 
1 
1 
1 
1 
1 
1 
1 
1 
1 
1 
1 
1 
1 
1 
1 
1 
1 
1 
1 
1 
1 
1 
1 
1 
1 
1 
1 
1 
1 
1 
1 
1 
1 
1 
1 
1 
1 
1 
1 
1 
1 
1 
1 
1 
1 
1 
1 
1 
1 
1 
1 
1 
1 
1 
1 
1 
1 
1 
1 
1 
1 
1 
1 
1 
1 
1 
1 
1 
1 
1 
1 
1 
1 
1 
1 
1 
1 
1 
1 
1 
1 
1 
1 
1 
1 
1 
1 
1 
1 
1 
1 
1 
1 
1 
1 
1 
1 
1 
1 
1 
1 
1 
1 
1 
1 
1 
1 
1 
1 
1 
1 
1 
1 
1 
1 
1 
1 
1 
1 
1 
1 
1 
1 
1 
1 
1 
1 
1 
1 
1 
1 
1 
1 
1 
1 
1 
1 
1 
1 
1 
1 
1 
1 
1 
1 
1 
1 
1 
1 
1 
1 
1 
1 
1 
1 
1 
1 
1 
1 
1 
1 
1 
1 
1 
1 
1 
1 
1 
1 
1 
1 
1 
1 
1 
1 
1 
1 
1 
1 
1 
1 
1 
1 
1 
1 
1 
1 
1 
1 
1 
1 
1 
1 
1 
1 
1 
1 
1 
1 
1 
1 
1 
1 
1 
1 
1 
1 
1 
1 
1 
1 
1 
1 
1 
1 
1 
1 
1 
1 
1 
1 
1 
1 
1 
1 
1 
1 
1 
1 
1 
1 
1 
1 
1 
1 
1 
1 
1 
1 
1 
1 
1 
1 
1 
1 
1 
1 
1 
1 
1 
1 
1 
1 
1 
1 
1 
1 
1 
1 
1 
1 
1 
1 
1 
1 
1 
1 
1 
1 
1 
1 
1 
1 
1 
1 
1 
1 
1 
1 
1 
1 
1 
1 
1 
1 
1 
1 
1 
1 
1 
1 
1 
1 
1 
1 
1 
1 
1 
1 
1 
1 
1 
1 
1 
1 
1 
1 
1 
1 
1 
1 
1 
1 
1 
1 
1 
1 
1 
1 
1 
1 
1 
1 
1 
1 
1 
1 
1 
1 
1 
1 
1 
1 
1 
1 
1 
1 
1 
1 
1 
1 
1 
1 
1 
1 
1 
1 
1 
1 
1 
1 
1 
1 
1 
1 
1 
1 
1 
1 
1 
1 
1 
1 
1 
1 
1 
1 
1 
1 
1 
1 
1 
1 
1 
1 
1 
1 
1 
1 
1 
1 
1 
1 
1 
1 
1 
1 
1 
1 
1 
1 
1 
1 
1 
1 
1 
1 
1 
1 
1 
1 
1 
1 
1 
1 
1 
1 
1 
1 
1 
1 
1 
1 
1 
1 
1 
1 
1 
1 
1 
1 
1 
1 
1 
1 
1 
1 
1 
1 
1 
1 
1 
1 
1 
1 
1 
1 
1 
1 
1 
1 
1 
1 
1 
1 
1 
1 
1 
1 
1 
1 
1 
1 
1 
1 
1 
1 
1 
1 
1 
1 
1 
1 
1 
1 
1 
1 
1 
1 
1 
1 
1 
1 
1 
1 
1 
1 
1 
1 
1 
1 
1 
1 
1 
1 
1 
1 
1 
1 
1 
1 
1 
1 
1 
1 
1 
1 
1 
1 
1 
1 
1 
1 
1 
1 
1 
1 
1 
1 
1 
1 
1 
1 
1 
1 
1 
1 
1 
1 
1 
1 
1 
1 
1 
1 
1 
1 
1 
1 
1 
1 
1 
1 
1 
1 
1 
1 
1 
1 
1 
1 
1 
1 
1 
1 
1 
1 
1 
1 
1 
1 
1 
1 
1 
1 
1 
1 
1 
1 
1 
1 
1 
1 
1 
1 
1 
1 
1 
1 
1 
1 
1 
1 
1 
1 
1 
1 
1 
1 
1 
1 
1 
1 
1 
1 
1 
1 
1 
1 
1 
1 
1 
1 
1 
1 
1 
1 
1 
1 
1 
1 
1 
1 
1 
1 
1 
1 
1 
1 
1 
1 
1 
1 
1 
1 
1 
1 
1 
1 
1 
1 
1 
1 
1 
1 
1 
1 
1 
1 
1 
1 
1 
1 
1 
1 
1 
1 
1 
1 
1 
1 
1 
1 
1 
1 
1 
1 
1 
1 
1 
1 
1 
1 
1 
1 
1 
1 
1 
1 
1 
1 
1 
1 
1 
1 
1 
1 
1 
1 
1 
1 
1 
1 
1 
1 
1 
1 
1 
1 
1 
1 
1 
1 
1 
1 
1 
1 
1 
1 
1 
1 
1 
1 
1 
1 
1 
1 
1 
1 
1 
1 
1 
1 
1 
1 
1 
1 
1 
1 
1 
1 
1 
1 
1 
1 
1 
1 
1 
1 
1 
1 
1 
1 
1 
1 
1 
1 
1 
1 
1 
1 
1 
1 
1 
1 
1 
1 
1 
1 
1 
1 
1 
1 
1 
1 
1 
1 
1 
1 
1 
1 
1 
1 
1 
1 
1 
1 
1 
1 
1 
1 
1 
1 
1 
1 
1 
1 
1 
1 
1 
1 
1 
1 
1 
1 
1 
1 
1 
1 
1 
1 
1 
1 
1 
1 
1 
1 
1 
1 
1 
1 
1 
1 
1 
1 
1 
1 
1 
1 
1 
1 
1 
1 
1 
1 
1 
1 
1 
1 
1 
1 
1 
1 
1 
1 
1 
1 
1 
1 
1 
1 
1 
1 
1 
1 
1 
1 
1 
1 
1 
1 
1 
1 
1 
1 
1 
1 
1 
1 
1 
1 
1 
1 
1 
1 
1 
1 
1 
1 
1 
1 
1 
1 
1 
1 
1 
1 
1 
1 
1 
1 
1 
1 
1 
1 
1 
1 
1 
1 
1 
1 
1 
1 
1 
1 
1 
1 
1 
1 
1 
1 
1 
1 
1 
1 
1 
1 
1 
1 
1 
1 
1 
1 
1 
1 
1 
1 
1 
1 
1 
1 
1 
1 
1 
1 
1 
1 
1 
1 
1 
1 
1 
1 
1 
1 
1 
1 
1 
1 
1 
1 
1 
1 
1 
1 
1 
1 
1 
1 
1 
1 
1 
1 
1 
1 
1 
1 
1 
1 
1 
1 
1 
1 
1 
1 
1 
1 
1 
1 
1 
1 
1 
1 
1 
1 
1 
1 
1 
1 
1 
1 
1 
1 
1 
1 
1 
1 
1 
1 
1 
1 
1 
1 
1 
1 
1 
1 
1 
1 
1 
1 
1 
1 
1 
1 
1 
1 
1 
1 
1 
1 
1 
1 
1 
1 
1 
1 
1 
1 
1 
1 
1 
1 
1 
1 
1 
1 
1 
1 
1 
1 
1 
1 
1 
1 
1 
1 
1 
1 
1 
1 
1 
1 
1 
1 
1 
1 
1 
1 
1 
1 
1 
1 
1 
1 
1 
1 
1 
1 
1 
1 
1 
1 
1 
1 
1 
1 
1 
1 
1 
1 
1 
1 
1 
1 
1 
1 
1 
1 
1 
1 
1 
1 
1 
1 
1 
1 
1 
1 
1 
1 
1 
1 
1 
1 
1 
1 
1 
1 
1 
1 
1 
1 
1 
1 
1 
1 
1 
1 
1 
1 
1 
1 
1 
1 
1 
1 
1 
1 
1 
1 
1 
1 
1 
1 
1 
1 
1 
1 
1 
1 
1 
1 
1 
1 
1 
1 
1 
1 
1 
1 
1 
1 
1 
1 
1 
1 
1 
1 
1 
1 
1 
1 
1 
1 
1 
1 
1 
1 
1 
1 
1 
1 
1 
1 
1 
1 
1 
1 
1 
1 
1 
1 
1 
1 
1 
1 
1 
1 
1 
1 
1 
1 
1 
1 
1 
1 
1 
1 
1 
1 
1 
1 
1 
1 
1 
1 
1 
1 
1 
1 
1 
1 
1 
1 
1 
1 
1 
1 
1 
1 
1 
1 
1 
1 
1 
1 
1 
1 
1 
1 
1 
1 
1 
1 
1 
1 
1 
1 
1 
1 
1 
1 
1 
1 
1 
1 
1 
1 
1 
1 
1 
1 
1 
1 
1 
1 
1 
1 
1 
1 
1 
1 
1 
1 
1 
1 
1 
1 
1 
1 
1 
1 
1 
1 
1 
1 
1 
1 
1 
1 
1 
1 
1 
1 
1 
1 
1 
1 
1 
1 
1 
1 
1 
1 
1 
1 
1 
1 
1 
1 
1 
1 
1 
1 
1 
1 
1 
1 
1 
1 
1 
1 
1 
1 
1 
1 
1 
1 
1 
1 
1 
1 
1 
1 
1 
1 
1 
1 
1 
1 
1 
1 
1 
1 
1 
1 
1 
1 
1 
1 
1 
1 
1 
1 
1 
1 
1 
1 
1 
1 
1 
1 
1 
1 
1 
1 
1 
1 
1 
1 
1 
1 
1 
1 
1 
1 
1 
1 
1 
1 
1 
1 
1 
1 
1 
1 
1 
1 
1 
1 
1 
1 
1 
1 
1 
1 
1 
1 
1 
1 
1 
1 
1 
1 
1 
1 
1 
1 
1 
1 
1 
1 
1 
1 
1 
1 
1 
1 
1 
1 
1 
1 
1 
1 
1 
1 
1 
1 
1 
1 
1 
1 
1 
1 
1 
1 
1 
1 
1 
1 
1 
1 
1 
1 
1 
1 
1 
1 
1 
1 
1 
1 
1 
1 
1 
1 
1 
1 
1 
1 
1 
1 
1 
1 
1 
1 
1 
1 
1 
1 
1 
1 
1 
1 
1 
1 
1 
1 
1 
1 
1 
1 
1 
1 
1 
1 
1 
1 
1 
1 
1 
1 
1 
1 
1 
1 
1 
1 
1 
1 
1 
1 
1 
1 
1 
1 
1 
1 
1 
1 
1 
1 
1 
1 
1 
1 
1 
1 
1 
1 
1 
1 
1 
1 
1 
1 
1 
1 
1 
1 
1 
1 
1 
1 
1 
1 
1 
1 
1 
1 
1 
1 
1 
1 
1 
1 
1 
1 
1 
1 
1 
1 
1 
1 
1 
1 
1 
1 
1 
1 
1 
1 
1 
1 
1 
1 
1 
1 
1 
1 
1 
1 
1 
1 
1 
1 
1 
1 
1 
1 
1 
1 
1 
1 
1 
1 
1 
1 
1 
1 
1 
1 
1 
1 
1 
1 
1 
1 
1 
1 
1 
1 
1 
1 
1 
1 
1 
1 
1 
1 
1 
1 
1 
1 
1 
1 
1 
1 
1 
1 
1 
1 
1 
1 
1 
1 
1 
1 
1 
1 
1 
1 
1 
1 
1 
1 
1 
1 
1 
1 
1 
1 
1 
1 
1 
1 
1 
1 
1 
1 
1 
1 
1 
1 
1 
1 
1 
1 
1 
1 
1 
1 
1 
1 
1 
1 
1 
1 
1 
1 
1 
1 
1 
1 
1 
1 
1 
1 
1 
1 
1 
1 
1 
1 
1 
1 
1 
1 
1 
1 
1 
1 
1 
1 
1 
1 
1 
1 
1 
1 
1 
1 
1 
1 
1 
1 
1 
1 
1 
1 
1 
1 
1 
1 
1 
1 
1 
1 
1 
1 
1 
1 
1 
1 
1 
1 
1 
1 
1 
1 
1 
1 
1 
1 
1 
1 
1 
1 
1 
1 
1 
1 
1 
1 
1 
1 
1 
1 
1 
1 
1 
1 
1 
1 
1 
1 
1 
1 
1 
1 
1 
1 
1 
1 
1 
1 
1 
1 
1 
1 
1 
1 
1 
1 
1 
1 
1 
1 
1 
1 
1 
1 
1 
1 
1 
1 
1 
1 
1 
1 
1 
1 
1 
1 
1 
1 
1 
1 
1 
1 
1 
1 
1 
1 
1 
1 
1 
1 
1 
1 
1 
1 
1 
1 
1 
1 
1 
1 
1 
1 
1 
1 
1 
1 
1 
1 
1 
1 
1 
1 
1 
1 
1 
1 
1 
1 
1 
1 
1 
1 
1 
1 
1 
1 
1 
1 
1 
1 
1 
1 
1 
1 
1 
1 
1 
1 
1 
1 
1 
1 
1 
1 
1 
1 
1 
1 
1 
1 
1 
1 
1 
1 
1 
1 
1 
1 
1 
1 
1 
1 
1 
1 
1 
1 
1 
1 
1 
1 
1 
1 
1 
1 
1 
1 
1 
1 
1 
1 
1 
1 
1 
1 
1 
1 
1 
1 
1 
1 
1 
1 
1 
1 
1 
1 
1 
1 
1 
1 
1 
1 
1 
1 
1 
1 
1 
1 
1 
1 
1 
1 
1 
1 
1 
1 
1 
1 
1 
1 
1 
1 
1 
1 
1 
1 
1 
1 
1 
1 
1 
1 
1 
1 
1 
1 
1 
1 
1 
1 
1 
1 
1 
1 
1 
1 
1 
1 
1 
1 
1 
1 
1 
1 
1 
1 
1 
1 
1 
1 
1 
1 
1 
1 
1 
1 
1 
1 
1 
1 
1 
1 
1 
1 
1 
1 
1 
1 
1 
1 
1 
1 
1 
1 
1 
1 
1 
1 
1 
1 
1 
1 
1 
1 
1 
1 
1 
1 
1 
1 
1 
1 
1 
1 
1 
1 
1 
1 
1 
1 
1 
1 
1 
1 
1 
1 
1 
1 
1 
1 
1 
1 
1 
1 
1 
1 
1 
1 
1 
1 
1 
1 
1 
1 
1 
1 
1 
1 
1 
1 
1 
1 
1 
1 
1 
1 
1 
1 
1 
1 
1 
1 
1 
1 
1 
1 
1 
1 
1 
1 
1 
1 
1 
1 
1 
1 
1 
1 
1 
1 
1 
1 
1 
1 
1 
1 
1 
1 
1 
1 
1 
1 
1 
1 
1 
1 
1 
1 
1 
1 
1 
1 
1 
1 
1 
1 
1 
1 
1 
1 
1 
1 
1 
1 
1 
1 
1 
1 
1 
1 
1 
1 
1 
1 
1 
1 
1 
1 
1 
1 
1 
1 
1 
1 
1 
1 
1 
1 
1 
1 
1 
1 
1 
1 
1 
1 
1 
1 
1 
1 
1 
1 
1 
1 
1 
1 
1 
1 
1 
1 
1 
1 
1 
1 
1 
1 
1 
1 
1 
1 
1 
1 
1 
1 
1 
1 
1 
1 
1 
1 
1 
1 
1 
1 
1 
1 
1 
1 
1 
1 
1 
1 
1 
1 
1 
1 
1 
1 
1 
1 
1 
1 
1 
1 
1 
1 
1 
1 
1 
1 
1 
1 
1 
1 
1 
1 
1 
1 
1 
1 
1 
1 
1 
1 
1 
1 
1 
1 
1 
1 
1 
1 
1 
1 
1 
1 
1 
1 
1 
1 
1 
1 
1 
1 
1 
1 
1 
1 
1 
1 
1 
1 
1 
1 
1 
1 
1 
1 
1 
1 
1 
1 
1 
1 
1 
1 
1 
1 
1 
1 
1 
1 
1 
1 
1 
1 
1 
1 
1 
1 
1 
1 
1 
1 
1 
1 
1 
1 
1 
1 
1 
1 
1 
1 
1 
1 
1 
1 
1 
1 
1 
1 
1 
1 
1 
1 
1 
1 
1 
1 
1 
1 
1 
1 
1 
1 
1 
1 
1 
1 
1 
1 
1 
1 
1 
1 
1 
1 
1 
1 
1 
1 
1 
1 
1 
1 
1 
1 
1 
1 
1 
1 
1 
1 
1 
1 
1 
1 
1 
1 
1 
1 
1 
1 
1 
1 
1 
1 
1 
1 
1 
1 
1 
1 
1 
1 
1 
1 
1 
1 
1 
1 
1 
1 
1 
1 
1 
1 
1 
1 
1 
1 
1 
1 
1 
1 
1 
1 
1 
1 
1 
1 
1 
1 
1 
1 
1 
1 
1 
1 
1 
1 
1 
1 
1 
1 
1 
1 
1 
1 
1 
1 
1 
1 
1 
1 
1 
1 
1 
1 
1 
1 
1 
1 
1 
1 
1 
1 
1 
1 
1 
1 
1 
1 
1 
1 
1 
1 
1 
1 
1 
1 
1 
1 
1 
1 
1 
1 
1 
1 
1 
1 
1 
1 
1 
1 
1 
1 
1 
1 
1 
1 
1 
1 
1 
1 
1 
1 
1 
1 
1 
1 
1 
1 
1 
1 
1 
1 
1 
1 
1 
1 
1 
1 
1 
1 
1 
1 
1 
1 
1 
1 
1 
1 
1 
1 
1 
1 
1 
1 
1 
1 
1 
1 
1 
1 
1 
1 
1 
1 
1 
1 
1 
1 
1 
1 
1 
1 
1 
1 
1 
1 
1 
1 
1 
1 
1 
1 
1 
1 
1 
1 
1 
1 
1 
1 
1 
1 
1 
1 
1 
1 
1 
1 
1 
1 
1 
1 
1 
1 
1 
1 
1 
1 
1 
1 
1 
1 
1 
1 
1 
1 
1 
1 
1 
1 
1 
1 
1 
1 
1 
1 
1 
1 
1 
1 
1 
1 
1 
1 
1 
1 
1 
1 
1 
1 
1 
1 
1 
1 
1 
1 
1 
1 
1 
1 
1 
1 
1 
1 
1 
1 
1 
1 
1 
1 
1 
1 
1 
1 
1 
1 
1 
1 
1 
1 
1 
1 
1 
1 
1 
1 
1 
1 
1 
1 
1 
1 
1 
1 
1 
1 
1 
1 
1 
1 
1 
1 
1 
1 
1 
1 
1 
1 
1 
1 
1 
1 
1 
1 
1 
1 
1 
1 
1 
1 
1 
1 
1 
1 
1 
1 
1 
1 
1 
1 
1 
1 
1 
1 
1 
1 
1 
1 
1 
1 
1 
1 
1 
1 
1 
1 
1 
1 
1 
1 
1 
1 
1 
1 
1 
1 
1 
1 
1 
1 
1 
1 
1 
1 
1 
1 
1 
1 
1 
1 
1 
1 
1 
1 
1 
1 
1 
1 
1 
1 
1 
1 
1 
1 
1 
1 
1 
1 
1 
1 
1 
1 
1 
1 
1 
1 
1 
1 
1 
1 
1 
1 
1 
1 
1 
1 
1 
1 
1 
1 
1 
1 
1 
1 
1 
1 
1 
1 
1 
1 
1 
1 
1 
1 
1 
1 
1 
1 
1 
1 
1 
1 
1 
1 
1 
1 
1 
1 
1 
1 
1 
1 
1 
1 
1 
1 
1 
1 
1 
1 
1 
1 
1 
1 
1 
1 
1 
1 
1 
1 
1 
1 
1 
1 
1 
1 
1 
1 
1 
1 
1 
1 
1 
1 
1 
1 
1 
1 
1 
1 
1 
1 
1 
1 
1 
1 
1 
1 
1 
1 
1 
1 
1 
1 
1 
1 
1 
1 
1 
1 
1 
1 
1 
1 
1 
1 
1 
1 
1 
1 
1 
1 
1 
1 
1 
1 
1 
1 
1 
1 
1 
1 
1 
1 
1 
1 
1 
1 
1 
1 
1 
1 
1 
1 
1 
1 
1 
1 
1 
1 
1 
1 
1 
1 
1 
1 
1 
1 
1 
1 
1 
1 
1 
1 
1 
1 
1 
1 
1 
1 
1 
1 
1 
1 
1 
1 
1 
1 
1 
1 
1 
1 
1 
1 
1 
1 
1 
1 
1 
1 
1 
1 
1 
1 
1 
1 
1 
1 
1 
1 
1 
1 
1 
1 
1 
1 
1 
1 
1 
1 
1 
1 
1 
1 
1 
1 
1 
1 
1 
1 
1 
1 
1 
1 
1 
1 
1 
1 
1 
1 
1 
1 
1 
1 
1 
1 
1 
1 
1 
1 
1 
1 
1 
1 
1 
1 
1 
1 
1 
1 
1 
1 
1 
1 
1 
1 
1 
1 
1 
1 
1 
1 
1 
1 
1 
1 
1 
1 
1 
1 
1 
1 
1 
1 
1 
1 
1 
1 
1 
1 
1 
1 
1 
1 
1 
1 
1 
1 
1 
1 
1 
1 
1 
1 
1 
1 
1 
1 
1 
1 
1 
1 
1 
1 
1 
1 
1 
1 
1 
1 
1 
1 
1 
1 
1 
1 
1 
1 
1 
1 
1 
1 
1 
1 
1 
1 
1 
1 
1 
1 
1 
1 
1 
1 
1 
1 
1 
1 
1 
1 
1 
1 
1 
1 
1 
1 
1 
1 
1 
1 
1 
1 
1 
1 
1 
1 
1 
1 
1 
1 
1 
1 
1 
1 
1 
1 
1 
1 
1 
1 
1 
1 
1 
1 
1 
1 
1 
1 
1 
1 
1 
1 
1 
1 
1 
1 
1 
1 
1 
1 
1 
1 
1 
1 
1 
1 
1 
1 
1 
1 
1 
1 
1 
1 
1 
1 
1 
1 
1 
1 
1 
1 
1 
1 
1 
1 
1 
1 
1 
1 
1 
1 
1 
1 
1 
1 
1 
1 
1 
1 
1 
1 
1 
1 
1 
1 
1 
1 
1 
1 
1 
1 
1 
1 
1 
1 
1 
1 
1 
1 
1 
1 
1 
1 
1 
1 
1 
1 
1 
1 
1 
1 
1 
1 
1 
1 
1 
1 
1 
1 
1 
1 
1 
1 
1 
1 
1 
1 
1 
1 
1 
1 
1 
1 
1 
1 
1 
1 
1 
1 
1 
1 
1 
1 
1 
1 
1 
1 
1 
1 
1 
1 
1 
1 
1 
1 
1 
1 
1 
1 
1 
1 
1 
1 
1 
1 
1 
1 
1 
1 
1 
1 
1 
1 
1 
1 
1 
1 
1 
1 
1 
1 
1 
1 
1 
1 
1 
1 
1 
1 
1 
1 
1 
1 
1 
1 
1 
1 
1 
1 
1 
1 
1 
1 
1 
1 
1 
1 
1 
1 
1 
1 
1 
1 
1 
1 
1 
1 
1 
1 
1 
1 
1 
1 
1 
1 
1 
1 
1 
1 
1 
1 
1 
1 
1 
1 
1 
1 
1 
1 
1 
1 
1 
1 
1 
1 
1 
1 
1 
1 
1 
1 
1 
1 
1 
1 
1 
1 
1 
1 
1 
1 
1 
1 
1 
1 
1 
1 
1 
1 
1 
1 
1 
1 
1 
1 
1 
1 
1 
1 
1 
1 
1 
1 
1 
1 
1 
1 
1 
1 
1 
1 
1 
1 
1 
1 
1 
1 
1 
1 
1 
1 
1 
1 
1 
1 
1 
1 
1 
1 
1 
1 
1 
1 
1 
1 
1 
1 
1 
1 
1 
1 
1 
1 
1 
1 
1 
1 
1 
1 
1 
1 
1 
1 
1 
1 
1 
1 
1 
1 
1 
1 
1 
1 
1 
1 
1 
1 
1 
1 
1 
1 
1 
1 
1 
1 
1 
1 
1 
1 
1 
1 
1 
1 
1 
1 
1 
1 
1 
1 
1 
1 
1 
1 
1 
1 
1 
1 
1 
1 
1 
1 
1 
1 
1 
1 
1 
1 
1 
1 
1 
1 
1 
1 
1 
1 
1 
1 
1 
1 
1 
1 
1 
1 
1 
1 
1 
1 
1 
1 
1 
1 
1 
1 
1 
1 
1 
1 
1 
1 
POINT_DATA 5000
VECTORS Stress float
-100.597 -127.89 0.
721.135 213.82 0.
735.327 246.548 0.
-355.982 -208.939 0.
-377.779 -260.199 0.
-399.575 -311.459 0.
289.822 -258.208 0.
3.59829 -926.147 0.
-282.626 -1594.09 0.
-695.662 -1702.65 0.
-469.771 -1175.12 0.
-243.881 -647.592 0.
-1117.62 -1075.67 0.
-1192.31 -1250.19 0.
-835.617 -1183.79 0.
-540.098 -494.522 0.
-244.578 194.746 0.
-209.843 334.169 0.
-664.974 -728.28 0.
-1120.1 -1790.73 0.
-835.653 -1874.36 0.
-631.877 -1399.05 0.
-428.101 -923.736 0.
-1027.39 -889.891 0.
-892.046 -573.907 0.
-628.234 -202.872 0.
-3086.95 -969.61 0.
-2938.92 -623.412 0.
-2180.75 -109.345 0.
-2234.96 -236.324 0.
-2289.17 -363.303 0.
-2823.7 -595.139 0.
-2784.87 -504.012 0.
-2746.03 -412.885 0.
-3011.89 -1060.38 0.
-3468.07 -2123.45 0.
-3924.25 -3186.53 0.
-7746.37 -3661.32 0.
-6943.93 -1788.53 0.
-7866.64 -677.517 0.
-7556.07 46.4252 0.
-7245.5 770.368 0.
-10318.6 -163.329 0.
-10389.6 -326.132 0.
-10460.6 -488.935 0.
-14905.9 -3573.25 0.
-16032.9 -6199.42 0.
-17159.9 -8825.59 0.
84602.5 35657.8 0.
85544.6 37866.2 0.
-1.05056e+06 -447232 0.
84796.8 37561.4 0.
83864.2 35375.2 0.
-16239.4 -8439.2 0.
-15258.6 -6152.53 0.
-14277.9 -3865.86 0.
-10308.7 -1089.77 0.
-10187.1 -806.82 0.
-10065.5 -523.865 0.
-7926.59 365.78 0.
-7966.68 271.56 0.
-8006.77 177.339 0.
-7214.51 -243.113 0.
-7640.47 -1235.27 0.
-2203.43 246.905 0.
-2790.8 -1124.11 0.
-3378.16 -2495.13 0.
-3317.58 -2931.14 0.
-2968.21 -2117.01 0.
-2618.83 -1302.88 0.
-1940.44 -677.144 0.
-1878.03 -532.359 0.
-1815.62 -387.575 0.
-2923.93 -674.245 0.
-2809.28 -406.237 0.
-310.484 874.511 0.
-571.146 198.233 0.
-867.813 -493.468 0.
-17.6521 -666.315 0.
-245.714 -1197.77 0.
-473.776 -1729.23 0.
-458.344 -1619.77 0.
-104.743 -793.546 0.
248.857 32.6779 0.
-1153.49 -222.933 0.
-1043.64 34.568 0.
-933.787 292.069 0.
-1031.34 -283.077 0.
-1341.69 -1007.31 0.
-194.873 -979.45 0.
-66.8414 -680.23 0.
61.1905 -381.01 0.
-207.496 -400.791 0.
-292.548 -601.003 0.
-377.601 -801.215 0.
-390.54 -785.354 0.
-305.293 -586.276 0.
-220.047 -387.197 0.
423.615 -121.927 0.
393.41 -191.129 0.
-279.578 -173.733 0.
66.839 -36.3877 0.
81.0655 -4.34551 0.
-118.485 -74.0675 0.
-140.049 -125.586 0.
-161.612 -177.105 0.
138.277 -291.294 0.
-147.735 -958.904 0.
-433.747 -1626.51 0.
-313.565 -1508.54 0.
-87.8591 -980.547 0.
137.847 -452.551 0.
-1185.78 -1073.42 0.
-1260.29 -1248.02 0.
-732.891 -1109.47 0.
-437.172 -420.291 0.
-141.453 268.892 0.
-1045.14 8.09812 0.
-1499.78 -1054.16 0.
-1954.42 -2116.41 0.
766.736 -1156.95 0.
970.759 -681.39 0.
1174.78 -205.829 0.
-1697.14 -1144.36 0.
-1562.23 -829.027 0.
-1758.01 -655.418 0.
-2996.87 -901.332 0.
-2849.38 -554.84 0.
-2262.61 -112.86 0.
-2316.5 -240.072 0.
-2370.4 -367.284 0.
-2420.07 -389.618 0.
-2381.36 -297.748 0.
-2342.64 -205.877 0.
-2394.13 -766.465 0.
-2851.2 -1828.91 0.
-3308.26 -2891.35 0.
-7488.13 -3518.37 0.
-6685.84 -1645.04 0.
-6805.58 -189.633 0.
-6494.32 534.465 0.
-6183.06 1258.56 0.
-10177.7 -75.1289 0.
-10250.5 -236.301 0.
-10323.3 -397.47 0.
-10934.6 -1851.68 0.
-12067 -4483.5 0.
-13199.5 -7115.31 0.
78031.6 32873.6 0.
78962.8 35077 0.
-942517 -400897 0.
78303.2 34809.8 0.
77381.3 32628.3 0.
-12726.6 -6916.82 0.
-11742.2 -4625.34 0.
-10757.9 -2333.86 0.
-9843.77 -862.281 0.
-9721.9 -580.258 0.
-9600.03 -298.233 0.
-6573.87 980.331 0.
-6613.55 885.706 0.
-6653.23 791.082 0.
-6725.64 -0.32536 0.
-7152.73 -991.595 0.
-2741.9 46.1657 0.
-3328.65 -1324.43 0.
-3915.39 -2695.04 0.
-1854.86 -2273.92 0.
-1504.55 -1459.76 0.
-1154.23 -645.597 0.
-2017.04 -675.904 0.
-1954.23 -531.87 0.
-1891.42 -387.836 0.
-3049.91 -696.911 0.
-2935.6 -428.692 0.
-1990.15 187.441 0.
-2176 -455.826 0.
-2472.72 -1146.61 0.
2582.07 478.593 0.
2353.15 -53.4924 0.
2124.23 -585.578 0.
-1377.25 -1982.4 0.
-1024.65 -1156.19 0.
-672.053 -329.986 0.
-1380.36 -289.256 0.
-1271.44 -31.5726 0.
-1162.52 226.111 0.
-689.209 -104.104 0.
-999.595 -828.646 0.
-26.6917 -876.798 0.
101.034 -577.335 0.
228.76 -277.872 0.
-284.365 -403.686 0.
-368.581 -605.459 0.
-452.797 -807.231 0.
-344.906 -732.58 0.
-259.793 -533.47 0.
-174.68 -334.36 0.
530.192 -44.1203 0.
499.157 -112.711 0.
-631.591 -634.586 0.
-825.689 -849.182 0.
-791.976 -769.891 0.
-565.402 -1537.9 0.
-261.307 -827.697 0.
-575.632 -1560.48 0.
-1527.61 -3857.12 0.
-1128.74 -2926.92 0.
-3705.14 -8939.03 0.
-5761.32 -14915.3 0.
-1634.48 -5287.68 0.
-1929.97 -5978.77 0.
-3431.18 -6149.02 0.
-3685.74 -6738.74 0.
-4503.59 -10084 0.
-1617.24 -3348.55 0.
-2082.24 -4432.9 0.
-3994.75 -5259.05 0.
-3590.42 -4316.54 0.
-5936.45 -9791.52 0.
-30892 -78048.5 0.
-1582.64 -9657.22 0.
-772.386 -7763.85 0.
-4694.21 -6836.8 0.
-4015.65 -5255.03 0.
-4894.82 -7364.21 0.
-4650.3 -4894 0.
-4438.32 -4401.68 0.
-3698.62 -3291.22 0.
-3812.1 -3553.63 0.
-5116.65 -6595.19 0.
-8203.32 -14622.7 0.
-4940.41 -7009.6 0.
-4823.32 -6736.74 0.
-4150.22 -5991.25 0.
-4275.43 -6289.16 0.
-19973.3 -42923.3 0.
-16595 -25230.1 0.
-12850.8 -16498 0.
-11793.1 -13820 0.
-9796.03 -9167.26 0.
-9928.18 -9482.66 0.
-13567.6 -8280.22 0.
-12291.9 -5307.83 0.
-12186.4 -5066.04 0.
-9721.88 -6572.43 0.
-11989.8 -11843.7 0.
-41580.6 -80868.3 0.
70056.8 26846.2 0.
76857.4 42825.2 0.
-778834 -314125 0.
76114.7 42206.6 0.
69069.7 25656.3 0.
-39479.8 -76020.4 0.
-12556.5 -13218.6 0.
-11442.6 -10638.8 0.
-12878 -8852.57 0.
-12408 -7756.29 0.
-13617.4 -10578.6 0.
-9373.02 -8106.6 0.
-8125.6 -5195.17 0.
-8195.23 -5356.91 0.
-8380.46 -4756.49 0.
-8657.02 -5409.39 0.
-6762.06 -8286.39 0.
-6234.77 -7055.63 0.
-8242.08 -11738.9 0.
-27037.5 -63790.7 0.
-3515.64 -8902.67 0.
-3570.94 -9028.01 0.
-5498.77 -8628.81 0.
-4958.24 -7367.76 0.
-6846.43 -11773.7 0.
-4593.67 -4015.6 0.
-4277.78 -3278.08 0.
-5471.56 -4851.35 0.
-4664.39 -3181.7 0.
-5449.76 -5010.37 0.
-5060.08 -22259.8 0.
-5705.59 -23769.4 0.
-40408.3 -104746 0.
-13310.8 -28047.6 0.
-6727.12 -12687.4 0.
-6991.92 -13306.9 0.
-3697.22 -5227.14 0.
-2738.67 -2995.14 0.
-3521.83 -4827.16 0.
-2090.38 -3980.26 0.
-2151.57 -4121.41 0.
-2911.99 -7911.68 0.
-427.057 -2111.53 0.
-344.893 -1918.21 0.
-1294.5 -2594.04 0.
-1070.62 -2069.23 0.
-1944.55 -4105.94 0.
-1031.08 -2394.49 0.
-270.588 -619.66 0.
-153.568 -346.295 0.
380.418 -546.315 0.
-536.546 -2685.41 0.
-23.9034 395.493 0.
-38.4783 346.718 0.
-110.177 180.355 0.
127.152 181.164 0.
167.101 277.875 0.
207.049 374.586 0.
596.968 957.525 0.
1061.8 2042.08 0.
1526.63 3126.63 0.
1583.37 3086.16 0.
1263.48 2338.6 0.
943.6 1591.04 0.
182.252 1579.95 0.
427.293 2154.17 0.
944.156 2751.37 0.
591.359 1930.36 0.
238.563 1109.36 0.
-663.338 953.744 0.
529.031 3732.23 0.
1721.4 6510.72 0.
4365.32 7973.25 0.
3618.75 6230.8 0.
2872.19 4488.35 0.
-186.576 2561.4 0.
-365.148 2144.65 0.
6.19645 1963.51 0.
-1370.48 1329.65 0.
-1382.85 1298.92 0.
-1211.83 1476.93 0.
-953.788 2081.2 0.
-695.742 2685.48 0.
-480.927 2910.88 0.
-631.001 2561.53 0.
-781.075 2212.19 0.
-242.047 3837.22 0.
982.888 6690.73 0.
2207.82 9544.25 0.
-1774.42 7353.86 0.
-2272.45 6187.58 0.
-2411.07 5135.56 0.
-2965.85 3838.87 0.
-3520.63 2542.19 0.
-5885.62 742.213 0.
-5950.32 589.316 0.
-6015 436.429 0.
-4043.12 -195.156 0.
-5667.23 -3963.86 0.
-7291.3 -7732.5 0.
61604.6 29616.3 0.
68119.6 44992.3 0.
-558749 -211084 0.
67404.5 44821.4 0.
60966.1 29614.9 0.
-6729.52 -7036.04 0.
-4931.85 -2866.86 0.
-3134.15 1302.39 0.
-5001.52 1983.83 0.
-5147.89 1643.59 0.
-5294.25 1303.36 0.
-3751.29 1834.47 0.
-3805.28 1709.86 0.
-3859.26 1585.25 0.
-4399.19 1175 0.
-4485.62 967.538 0.
-1954.17 2221.2 0.
-815.669 4872.83 0.
322.838 7524.47 0.
3361.44 9533.03 0.
2390.64 7267.54 0.
1419.85 5002.05 0.
152.05 3654.29 0.
119.901 3576.35 0.
87.7526 3498.4 0.
-1073.12 2321.89 0.
-1508.13 1310.29 0.
-1628.55 481.737 0.
-963.151 2194.2 0.
-214.146 3942.49 0.
5239.44 7866.77 0.
6255.07 10235.7 0.
7270.69 12604.7 0.
3739.46 10778.3 0.
2306.17 7433.11 0.
872.893 4087.94 0.
225.03 2376.31 0.
-242.643 1282.73 0.
-710.314 189.144 0.
351.507 937.614 0.
553.653 1413.4 0.
1084.87 1906.71 0.
847.282 1353.4 0.
609.695 800.078 0.
-105.037 305.096 0.
19.2161 599.426 0.
143.469 893.754 0.
616.781 1047.54 0.
491.352 755.686 0.
365.924 463.828 0.
418.495 773.976 0.
632.187 1275.13 0.
196.715 522.319 0.
314.09 528.493 0.
242.275 362.171 0.
89.6825 196.81 0.
128.679 294.156 0.
167.675 391.504 0.
688.115 1027.51 0.
1152.92 2112.44 0.
1617.72 3197.37 0.
1145.24 2927.78 0.
825.434 2180.86 0.
505.631 1433.93 0.
567.748 1777.07 0.
813.315 2350.73 0.
894.856 2760.31 0.
541.558 1939.67 0.
188.26 1119.04 0.
172.743 1344.12 0.
1366.68 4123.48 0.
2560.63 6902.85 0.
2410.98 7167.81 0.
1666.28 5426.47 0.
921.581 3685.12 0.
418.523 2853.68 0.
239.297 2436.86 0.
756.018 2318.22 0.
-604.051 1688.69 0.
-616.63 1657.92 0.
-652.454 1747.81 0.
-394.276 2352.16 0.
-136.099 2956.5 0.
-210.35 3056.91 0.
-360.699 2708.09 0.
-511.047 2359.27 0.
-598.132 3715.76 0.
626.044 6568.58 0.
1850.22 9421.4 0.
-707.882 7845.17 0.
-1206.35 6677.88 0.
-854.223 5832.42 0.
-1410.97 4536.01 0.
-1967.71 3239.61 0.
-1195.83 2782.9 0.
-1261.28 2630.54 0.
-1326.72 2478.19 0.
-440.408 1338.08 0.
-2069.05 -2440.86 0.
-3697.64 -6219.74 0.
49899.4 24797.5 0.
56338.3 40058.7 0.
-341867 -118103 0.
55419.9 39796.5 0.
49061 24704.7 0.
-2840.83 -5395.11 0.
-1035.88 -1215.13 0.
769.115 2964.92 0.
-1023.11 3724.8 0.
-1170.63 3383.46 0.
-1318.15 3042.13 0.
-2068.31 2585.09 0.
-2122.62 2460.33 0.
-2176.93 2335.56 0.
-2618.07 1972.77 0.
-2705.07 1765.83 0.
-1565.42 2417.48 0.
-424.725 5068.92 0.
715.972 7720.36 0.
2122.02 9033.92 0.
1153.26 6769.2 0.
184.501 4504.48 0.
644.075 3900.22 0.
612.574 3821.03 0.
581.072 3741.83 0.
-69.9664 2785.46 0.
-506.195 1773.98 0.
69.6069 1239.38 0.
764.688 2965.5 0.
1515.89 4715.67 0.
2058.08 6537.97 0.
3070.86 8902.79 0.
4083.63 11267.6 0.
4262.15 11040 0.
2828 7693.56 0.
1393.85 4347.12 0.
1054.45 2763.14 0.
585.703 1669.34 0.
116.957 575.542 0.
777.13 1150.86 0.
978.432 1627.24 0.
842.188 1832.46 0.
604.9 1279.32 0.
367.611 726.177 0.
-153.102 316.683 0.
-29.5107 611.403 0.
94.0798 906.122 0.
844.573 1176.16 0.
718.933 884.283 0.
593.293 592.401 0.
-210.931 536.948 0.
2.1784 1038.76 0.
381.81 402.439 0.
181.354 69.7499 0.
79.5442 -165.88 0.
-167.027 -434.978 0.
-173.303 -450.14 0.
-179.58 -465.3 0.
-11.1714 -557.749 0.
-217.143 -1036.95 0.
-423.115 -1516.14 0.
-864.639 -1603.38 0.
-652.499 -1110.68 0.
-440.358 -617.993 0.
-416.31 -710.22 0.
-520.483 -950.979 0.
-889.395 -1267.49 0.
-762.479 -969.177 0.
-635.564 -670.86 0.
-287.333 -655.887 0.
-811.451 -1866.54 0.
-1335.56 -3077.19 0.
-2678.24 -3601.84 0.
-2148.89 -2368.79 0.
-1619.54 -1135.74 0.
-882.371 -755.598 0.
-1018.56 -1077.86 0.
-638.878 -1178.94 0.
-1591.23 -1395.4 0.
-1480.52 -1140.1 0.
-1472.45 -1020.77 0.
-1577.72 -1266.69 0.
-1682.98 -1512.6 0.
-1937.13 -1585.78 0.
-1758.92 -1176.7 0.
-1580.7 -767.63 0.
-2648.23 -1716.31 0.
-3142.49 -2873.6 0.
-3636.76 -4030.9 0.
-4653.98 -4342.59 0.
-4505.75 -3999.58 0.
-3320.25 -3257.56 0.
-3398.54 -3441.19 0.
-3476.82 -3624.82 0.
-971.629 -3048.6 0.
-1720 -4785.31 0.
-2468.36 -6522.01 0.
-352.667 -4523.79 0.
1457.95 -259.191 0.
3268.52 4005.36 0.
33854.7 8782.25 0.
27150.7 -6583.16 0.
5495.82 -28339.4 0.
25597.6 -7123.56 0.
32363.3 8377.89 0.
4041.55 4627.66 0.
2226.24 377.98 0.
410.901 -3871.7 0.
-2839.61 -6442.33 0.
-2175.43 -4900.54 0.
-1511.24 -3358.74 0.
-3229.74 -3438.3 0.
-3016.35 -2940.01 0.
-2802.95 -2441.72 0.
-3346.35 -2408.96 0.
-3214.81 -2103.05 0.
-2675.22 -1765.67 0.
-3083.36 -2714.87 0.
-3491.5 -3664.07 0.
-3445.92 -3814.24 0.
-2972.21 -2708.18 0.
-2498.51 -1602.13 0.
-1144.27 -785.791 0.
-1263.9 -1062.49 0.
-1383.53 -1339.18 0.
-1396.26 -1307.21 0.
-1337.48 -1182.48 0.
-163.883 -579.165 0.
-327.119 -880.928 0.
-452.093 -1166.29 0.
-2630.41 -2552.95 0.
-3195.59 -3865.65 0.
-3760.76 -5178.34 0.
-2105.13 -4452.91 0.
-1472.82 -2979.11 0.
-840.505 -1505.32 0.
-109.661 -680.38 0.
7.67403 -410.948 0.
125.008 -141.516 0.
205.618 -175.693 0.
157.923 -287.241 0.
-184.232 -502.394 0.
-160.902 -438.455 0.
-137.573 -374.515 0.
-416.705 -453.227 0.
-417.287 -448.23 0.
-417.867 -443.233 0.
203.329 -75.7123 0.
289.472 123.551 0.
375.616 322.814 0.
-587.933 -227.696 0.
-696.608 -476.242 0.
760.763 591.973 0.
26.9597 33.5078 0.
-76.1983 -200.467 0.
-66.727 -364.609 0.
-72.4151 -379.852 0.
-78.1028 -395.094 0.
-133.846 -578.619 0.
-340.102 -1057.94 0.
-546.358 -1537.26 0.
-565.756 -1446.42 0.
-353.413 -953.649 0.
-141.069 -460.879 0.
-582.275 -750.432 0.
-686.8 -991.245 0.
-942.553 -1262.05 0.
-816.332 -963.589 0.
-690.112 -665.127 0.
-142.399 -561.277 0.
-665.648 -1773.51 0.
-1188.89 -2985.74 0.
-1911.25 -3239.42 0.
-1381.22 -2006.27 0.
-851.179 -773.115 0.
-839.197 -707.371 0.
-975.261 -1029.41 0.
-1636.3 -1576.48 0.
-1507.71 -1330.24 0.
-1397.86 -1074.74 0.
-1109.01 -833.814 0.
-1214.45 -1079.5 0.
-1319.88 -1325.19 0.
-1541.47 -1388.37 0.
-1364.26 -978.365 0.
-1187.05 -568.358 0.
-1634.56 -1255.2 0.
-2130.49 -2411.9 0.
-2626.43 -3568.59 0.
-2596.2 -3431.41 0.
-2447.4 -3088.43 0.
-1356.16 -2388.34 0.
-1435.64 -2571.46 0.
-1515.11 -2754.58 0.
1077.06 -2154 0.
326.204 -3893.09 0.
-424.63 -5632.16 0.
2405.87 -3277.58 0.
4224.05 991.308 0.
6042.2 5260.18 0.
23108.8 4099.81 0.
16492 -11178.9 0.
2432.64 -29611.6 0.
13925 -12143 0.
20597.1 3260.24 0.
6497.02 5748.73 0.
4676.09 1494.16 0.
2855.13 -2760.41 0.
-535.117 -5437.42 0.
129.834 -3892.34 0.
794.794 -2347.26 0.
-1418.49 -2636.02 0.
-1205.1 -2137.18 0.
-991.691 -1638.33 0.
-2272.85 -1919.42 0.
-2141.69 -1613.19 0.
-1406.81 -1191.36 0.
-1815.72 -2140.91 0.
-2224.62 -3090.44 0.
-2394.2 -3334.77 0.
-1919.75 -2228.18 0.
-1445.29 -1121.59 0.
-1059.4 -717.294 0.
-1178.42 -994.569 0.
-1297.44 -1271.84 0.
-1309.7 -1239.96 0.
-1251.58 -1114.07 0.
-444.565 -669.19 0.
-619.595 -976.18 0.
-744.143 -1261.53 0.
-1503.49 -2039.64 0.
-2068.58 -3353.02 0.
-2633.67 -4666.4 0.
-1911.08 -4341.08 0.
-1278.4 -2866.91 0.
-645.721 -1392.74 0.
-134.266 -658.286 0.
-16.6619 -388.652 0.
100.941 -119.018 0.
-211.164 -324.516 0.
-259.113 -435.729 0.
13.658 -386.57 0.
37.2027 -322.922 0.
60.7476 -259.273 0.
-180.878 -320.671 0.
-181.166 -315.815 0.
-181.453 -310.959 0.
-227.648 -230.666 0.
-141.933 -31.3925 0.
-56.2184 167.881 0.
-79.7564 21.4618 0.
-190.083 -226.264 0.
880.578 224.89 0.
-34.8208 200.022 0.
-41.5064 181.164 0.
61.6262 -232.368 0.
162.094 3.65315 0.
171.201 26.5177 0.
-702.998 -1644.86 0.
288.984 673.331 0.
291.142 681.526 0.
244.548 -116.615 0.
-219.774 -1196.72 0.
130.361 -376.437 0.
-516.696 -242.435 0.
-557.05 -342.737 0.
-893.861 -1004.12 0.
-620.85 -376.157 0.
-1024.96 -1328.15 0.
-647.362 -1960.7 0.
-434.073 -1465.61 0.
6.75493 -439.628 0.
-83.756 -395.062 0.
-120.183 -483.056 0.
-143.43 -540.341 0.
-703.875 -453.258 0.
-879.369 -862.888 0.
-668.585 -261.87 0.
-1066.16 -425 0.
-1476.91 -1396.68 0.
-898.002 -980.32 0.
-485.472 -21.5478 0.
-160.142 733.781 0.
-1681.49 -2448.5 0.
-1287.53 -1532.97 0.
-845.175 -504.429 0.
-347.122 -124.542 0.
-1358.16 -2481.35 0.
-2193.63 -4428.6 0.
-1020.33 -3613.93 0.
-660.541 -2771.82 0.
88.6647 -2724.34 0.
-20.9907 -2974.58 0.
73.6127 -2748.33 0.
2694.16 -2208.95 0.
2548.23 -2549.67 0.
3241.78 -931.775 0.
6061.87 145.969 0.
5838.47 -380.197 0.
5823.87 -414.873 0.
13300.2 1522.16 0.
13353.7 1661.99 0.
3406.25 -4534.86 0.
9700.1 35.0361 0.
10182.2 1149.8 0.
6140.75 373.957 0.
5405.86 -1350.26 0.
4689.51 -3031.18 0.
2761.42 -2058.83 0.
3447.21 -464.414 0.
3493.2 -362.883 0.
40.3671 -2638.11 0.
-207.368 -3219.51 0.
1114.77 -137.784 0.
-1193.74 -1440 0.
-1808.07 -2866.89 0.
-734.045 -1967.56 0.
345.246 550.157 0.
-113.118 -520.018 0.
-561.251 -1004.03 0.
-686.524 -1294.34 0.
-504.762 -868.197 0.
-1386.2 -1617.11 0.
-518.406 408.75 0.
-636.616 133.995 0.
-1444.74 -1692.34 0.
-1628.88 -2118.65 0.
-258.215 -125.657 0.
-863.633 -982.81 0.
-1243.26 -1873.01 0.
186.771 -166.616 0.
-339.461 -1394.81 0.
-374.645 -1477.16 0.
-524.891 -1444.51 0.
-280.088 -872.345 0.
-73.0603 -388.261 0.
-479.685 -1392.11 0.
-464.137 -1350.47 0.
-873.463 -2300.24 0.
-717.735 -676.779 0.
-227.226 466.113 0.
924.706 1407.79 0.
767.858 1029.91 0.
592.513 608.706 0.
161.226 93.1997 0.
60.2518 -146.143 0.
443.85 745.186 0.
-696.915 -497.781 0.
-757.236 -638.729 0.
-709.678 -527.923 0.
687.828 893.132 0.
318.416 20.5879 0.
825.887 143.529 0.
-8.48982 -102.082 0.
72.2902 82.4094 0.
157.135 212.667 0.
48.0384 -41.4603 0.
-61.0584 -295.587 0.
-55.6069 -427.176 0.
-53.4545 -416.366 0.
-51.3019 -405.557 0.
98.1723 -446.222 0.
-3.41686 -679.876 0.
-105.006 -913.53 0.
-1016.14 -1246.87 0.
-956.507 -1111.53 0.
-740.561 -918.918 0.
-750.301 -947.217 0.
-760.042 -975.515 0.
-154.053 -787.6 0.
-257.445 -1030.36 0.
-360.837 -1273.12 0.
-357.934 -1405.9 0.
-400.893 -1509.55 0.
-443.852 -1613.2 0.
-979.412 -1539.74 0.
-747.668 -1000.06 0.
-520.628 -462.224 0.
-1245.98 -962.198 0.
-1345.87 -1208.87 0.
-870.59 -1204.85 0.
-936.781 -1360.68 0.
-1002.97 -1516.52 0.
-1032.84 -1631.31 0.
-1066.57 -1712.5 0.
-1100.3 -1793.69 0.
-860.021 -1740.44 0.
-885.562 -1796.07 0.
-911.103 -1851.7 0.
371.91 -1751.17 0.
99.9301 -2382.69 0.
1041.98 -2456.23 0.
900.018 -2780.02 0.
758.061 -3103.8 0.
2671.84 -2458.97 0.
2680.83 -2437.62 0.
2689.82 -2416.28 0.
4408.1 -1487.13 0.
4583.99 -1086.64 0.
4759.88 -686.146 0.
10600.2 844.824 0.
9886.3 -811.708 0.
4204.4 -4596.76 0.
7808.09 -1470.99 0.
8640.18 466.564 0.
5052.96 -18.8108 0.
4724.02 -792.291 0.
4395.08 -1565.77 0.
2320.49 -2813.87 0.
2280.44 -2913.68 0.
2240.4 -3013.49 0.
393.782 -3393.41 0.
731.699 -2606.59 0.
1069.62 -1819.77 0.
-652.14 -2158.57 0.
-458.027 -1700.41 0.
-255.968 -1320.62 0.
-346.117 -1531.57 0.
-436.267 -1742.52 0.
-866.82 -1939.57 0.
-724.867 -1608.21 0.
-582.914 -1276.84 0.
-936.409 -1299.02 0.
-922.753 -1264.31 0.
-909.096 -1229.6 0.
-1196.08 -1239.89 0.
-1127.91 -1075.6 0.
-528.799 -697.029 0.
-748.113 -1148.34 0.
-935.607 -1586.01 0.
-420.41 -1674.1 0.
-504.071 -1866.89 0.
-587.733 -2059.68 0.
-593.239 -1938.83 0.
-359.919 -1394.14 0.
-126.6 -849.44 0.
-303.711 -667.617 0.
-205.761 -435.166 0.
-107.811 -202.713 0.
-539.765 -491.354 0.
-612.721 -661.835 0.
117.81 -483.846 0.
122.469 -480.182 0.
127.129 -476.519 0.
-244.372 -700.686 0.
-341.587 -927.985 0.
-438.802 -1155.28 0.
-811.194 -1214.34 0.
-659.175 -859.565 0.
-507.155 -504.787 0.
-191.484 -296.189 0.
-171.199 -256.428 0.
816.822 168.639 0.
198.035 16.1674 0.
279.084 200.603 0.
58.0149 203.598 0.
-50.789 -51.0539 0.
-159.593 -305.706 0.
114.594 -322.931 0.
116.127 -311.461 0.
117.659 -299.993 0.
109.336 -408.968 0.
7.65856 -642.705 0.
-94.0181 -876.44 0.
-1084.9 -1246.76 0.
-1026.06 -1110.71 0.
-580.382 -817.923 0.
-591.276 -845.767 0.
-602.171 -873.61 0.
-149.959 -756.098 0.
-253.673 -998.703 0.
-357.386 -1241.31 0.
-147.071 -1285.03 0.
-189.92 -1388.57 0.
-232.769 -1492.1 0.
-729.995 -1401.45 0.
-497.734 -861.897 0.
-283.759 -329.972 0.
-1166.51 -895.6 0.
-1266.25 -1142.33 0.
-703.204 -1101.77 0.
-770.538 -1257.42 0.
-837.873 -1413.07 0.
-650.888 -1437.6 0.
-685.26 -1518.6 0.
-719.632 -1599.6 0.
-624.567 -1609.85 0.
-650.71 -1665.24 0.
-676.853 -1720.63 0.
1116.71 -1399.61 0.
844.464 -2031.65 0.
2083.78 -1980.89 0.
1941.23 -2304.39 0.
1798.69 -2627.88 0.
2792.12 -2376.97 0.
2801.08 -2354.8 0.
2810.04 -2332.63 0.
3256.14 -1949.43 0.
3433.56 -1549.86 0.
3610.97 -1150.28 0.
7666.32 -379.75 0.
6955.85 -2034.07 0.
718.541 -6062.76 0.
6294.43 -2092.31 0.
7123.66 -155.517 0.
3942.91 -463.997 0.
3613.12 -1235.8 0.
3283.32 -2007.59 0.
2192.39 -2839.13 0.
2152.49 -2939.26 0.
2112.6 -3039.4 0.
1238.37 -3002.73 0.
1576.02 -2214.34 0.
1913.66 -1425.94 0.
403.747 -1677.69 0.
598.597 -1219.59 0.
7.31261 -1174.25 0.
-82.4857 -1385.14 0.
-172.284 -1596.04 0.
-731.285 -1846.18 0.
-588.79 -1515.29 0.
-446.295 -1184.41 0.
-536.261 -1097.54 0.
-523.248 -1062.31 0.
-510.234 -1027.07 0.
-1112.59 -1172.61 0.
-1045.04 -1008.09 0.
-199.814 -526.442 0.
-503.858 -1012.54 0.
-692.554 -1449.18 0.
-358.027 -1619.89 0.
-442.344 -1811.45 0.
-526.661 -2003.02 0.
-401.401 -1825.33 0.
-167.559 -1280.55 0.
66.2824 -735.762 0.
-450.424 -696.06 0.
-351.916 -463.906 0.
-253.41 -231.751 0.
-401.628 -398.85 0.
-475.155 -568.995 0.
138.36 -443.8 0.
141.738 -438.613 0.
145.116 -433.426 0.
-310.217 -701.427 0.
-408.425 -927.892 0.
-506.633 -1154.36 0.
-558.939 -1075.8 0.
-407.01 -720.912 0.
-255.081 -366.021 0.
-628.278 -452.988 0.
-609.099 -412.819 0.
354.373 -293.448 0.
-56.783 -534.206 0.
-119.172 -682.681 0.
-440.334 -912.105 0.
-402.466 -829.614 0.
-364.597 -747.123 0.
33.008 -571.598 0.
-20.7393 -707.289 0.
-74.4872 -842.982 0.
-239.224 -961.603 0.
-238.676 -963.555 0.
-238.128 -965.506 0.
-986.409 -1337.33 0.
-1021.62 -1414.41 0.
-725.289 -1333.48 0.
-609.837 -1063.78 0.
-494.386 -794.083 0.
-29.2645 -580.918 0.
-289.088 -1186.72 0.
-548.912 -1792.52 0.
-306.913 -1933.72 0.
-308.844 -1937.92 0.
-310.775 -1942.12 0.
-998.189 -2137.82 0.
-927.102 -1972.57 0.
-570.918 -1685.06 0.
-1432.62 -2054.29 0.
-1433.56 -2056.98 0.
-784.676 -1796.9 0.
-808.552 -1855.3 0.
-832.428 -1913.71 0.
-556.834 -1867.84 0.
-607.23 -1993.95 0.
-657.628 -2120.05 0.
-602.995 -2400.54 0.
-824.3 -2915.07 0.
-1045.61 -3429.6 0.
620.985 -3237.04 0.
331.401 -3906.97 0.
1469.09 -3908.27 0.
1556.34 -3699.76 0.
1643.59 -3491.26 0.
2325.97 -2989.31 0.
2468.19 -2648.45 0.
2610.41 -2307.59 0.
2704.93 -1792.91 0.
3039.5 -1009.96 0.
3374.07 -227.008 0.
6430.04 709.811 0.
6075.76 -119.235 0.
-458.225 -3595.75 0.
5795.72 -505 0.
6014.33 -0.281866 0.
3191.22 -944.103 0.
3064.24 -1239.73 0.
2937.25 -1535.36 0.
2245.53 -2109.44 0.
2086.04 -2474.44 0.
1926.56 -2839.44 0.
1374.88 -3147.81 0.
1390.6 -3108.27 0.
1406.32 -3068.73 0.
321.847 -3260.42 0.
471.823 -2910.44 0.
-714.387 -3141.18 0.
-599.801 -2869.88 0.
-485.215 -2598.59 0.
-766.183 -2471.4 0.
-623.831 -2137.09 0.
-481.48 -1802.78 0.
-596.684 -1791.88 0.
-641.915 -1901.37 0.
-687.147 -2010.85 0.
-1347.54 -2141.97 0.
-1235.69 -1889.24 0.
-389.41 -1334.8 0.
-591.6 -1578.67 0.
-669.387 -1769.25 0.
-451.126 -1808.46 0.
-476.053 -1875.3 0.
-500.98 -1942.14 0.
-329.719 -1819.73 0.
-240.124 -1610.17 0.
-150.529 -1400.61 0.
-807.118 -1523.03 0.
-731.028 -1349.23 0.
-654.938 -1175.44 0.
-611.446 -1103.22 0.
-588.561 -1053.23 0.
-54.4642 -796.287 0.
-67.3282 -827.55 0.
-80.1926 -858.814 0.
-316.014 -826.187 0.
-109.795 -351.459 0.
96.4243 123.272 0.
52.8511 133.205 0.
-58.4709 -123.425 0.
-169.793 -380.054 0.
-671.504 -448.532 0.
-557.506 -180.188 0.
-248.648 -516.955 0.
-252.291 -585.729 0.
-315.357 -733.669 0.
-355.432 -844.716 0.
-317.957 -762.082 0.
-280.482 -679.448 0.
-15.7538 -561.034 0.
-69.6102 -696.961 0.
-123.467 -832.889 0.
-474.04 -1032.01 0.
-473.806 -1034.25 0.
-473.572 -1036.49 0.
-566.409 -1125.02 0.
-601.174 -1202.83 0.
-673.65 -1281.33 0.
-558.546 -1011.5 0.
-443.442 -741.671 0.
111.857 -489.556 0.
-148.292 -1095.22 0.
-408.44 -1700.89 0.
-213.455 -1862.72 0.
-214.686 -1867.37 0.
-215.917 -1872.02 0.
-1096.28 -2150.49 0.
-1025.86 -1984.78 0.
-343.394 -1556.71 0.
-921.84 -1804.05 0.
-922.233 -1807.14 0.
-401.339 -1601.11 0.
-426.089 -1659.35 0.
-450.84 -1717.59 0.
-208.807 -1691.24 0.
-260.574 -1816.45 0.
-312.341 -1941.66 0.
59.6616 -2086.25 0.
-163.246 -2600.43 0.
-386.154 -3114.6 0.
647.241 -3196.22 0.
357.4 -3865.99 0.
1044.49 -4059.59 0.
1131.88 -3851.23 0.
1219.26 -3642.88 0.
1739.56 -3210.34 0.
1882.35 -2869.84 0.
2025.14 -2529.33 0.
2340.89 -1914.43 0.
2675.84 -1132.24 0.
3010.78 -350.038 0.
5206.28 212.959 0.
4851.56 -614.773 0.
984.691 -2946.89 0.
4444.24 -1052.6 0.
4661.62 -548.054 0.
2993.86 -995.861 0.
2866.97 -1292.48 0.
2740.08 -1589.09 0.
1765.52 -2282.27 0.
1606.15 -2648.31 0.
1446.79 -3014.36 0.
1072.46 -3242.15 0.
1087.75 -3202.66 0.
1103.04 -3163.16 0.
808.606 -3021.61 0.
958.197 -2671.11 0.
-655.413 -3086.62 0.
-540.367 -2814.46 0.
-425.323 -2542.31 0.
-317.759 -2248.29 0.
-175.503 -1913.42 0.
-33.2486 -1578.56 0.
-381.553 -1671.33 0.
-426.642 -1780.91 0.
-471.731 -1890.48 0.
-956.821 -1940.78 0.
-844.688 -1687.81 0.
-557.919 -1376.61 0.
-416.953 -1472.84 0.
-495.045 -1662.95 0.
-501.806 -1802.37 0.
-527.264 -1868.04 0.
-552.722 -1933.71 0.
-318.966 -1783.89 0.
-229.361 -1574.3 0.
-139.757 -1364.7 0.
-613.425 -1407.04 0.
-537.484 -1232.85 0.
-461.543 -1058.65 0.
-468.992 -1013.4 0.
-447.4 -961.618 0.
-146.252 -802.534 0.
-158.879 -834.074 0.
-171.506 -865.615 0.
-105.985 -705.798 0.
99.4399 -229.686 0.
304.866 246.427 0.
66.1861 168.445 0.
-45.2992 -87.8927 0.
-156.784 -344.23 0.
-346.854 -279.499 0.
-232.443 -10.5265 0.
-638.081 -289.827 0.
-373.54 -470.848 0.
111.585 666.789 0.
110.734 95.3115 0.
-25.6282 -216.491 0.
175.222 258.676 0.
465.643 680.889 0.
395.785 517.672 0.
542.741 859.099 0.
90.6418 753.014 0.
112.545 804.514 0.
-36.3723 457.492 0.
332.865 216.75 0.
77.5117 -383.372 0.
-266.737 -400.407 0.
87.092 424.69 0.
-314.66 -513.249 0.
305.841 -275.711 0.
334.387 -210.192 0.
323.205 -237.641 0.
899.993 594.134 0.
891.131 572.033 0.
241.426 -945.232 0.
-570.892 -724.055 0.
-233.895 56.6325 0.
-357.775 -629.451 0.
91.4433 -396.138 0.
-294.446 -1302.14 0.
162.163 -969.979 0.
521.243 -135.668 0.
620.918 93.2999 0.
749.7 -85.6425 0.
604.11 -428.92 0.
648.758 -327.908 0.
1493.95 60.9485 0.
1497.83 66.185 0.
1036.44 -1013.61 0.
2235.77 488.778 0.
1710.17 -741.677 0.
2255.14 -397.292 0.
1987.16 -1034.24 0.
1973.56 -1077.37 0.
2067.1 -1282.4 0.
2497.89 -288.261 0.
2369.2 -599.062 0.
2779.57 -171.41 0.
2880 61.0596 0.
2583.05 -635.673 0.
4199.89 219.687 0.
4647 1263.61 0.
-1037.05 480.187 0.
3757.94 -24.7182 0.
3494.27 -643.688 0.
3314.1 140.726 0.
2871.65 -892.074 0.
2748.38 -1175.61 0.
2254.18 -189.691 0.
2113.94 -514.656 0.
2196.68 -320.043 0.
1737.25 -1087.62 0.
1819.16 -894.289 0.
2043.18 -369.883 0.
2192.65 -672.459 0.
2343.53 -319.207 0.
386.821 -739.469 0.
407.511 -693.321 0.
570.298 -315.29 0.
848.913 -326.068 0.
1091.38 233.618 0.
514.999 -1117.43 0.
-65.5794 -1301.87 0.
389.084 -240.752 0.
706.722 500.395 0.
269.343 203.15 0.
694.756 1195.34 0.
-476.693 -257.418 0.
134.523 -490.264 0.
404.184 137.632 0.
-191.462 -963.643 0.
-220.115 -1033.34 0.
-106.427 -771.14 0.
88.7649 -835.476 0.
40.2858 -944.568 0.
342.906 -234.33 0.
6.81035 -315.339 0.
-156.097 -690.528 0.
428.69 678.447 0.
109.251 110.784 0.
232.961 403.253 0.
-225.822 -787.449 0.
41.9882 -159.468 0.
161.812 123.082 0.
95.4165 -593.908 0.
600.251 583.831 0.
586.291 550.484 0.
-344.302 -776.913 0.
35.8824 107.296 0.
-112.49 -241.618 0.
-171.394 -456.116 0.
-244.153 -621.712 0.
52.1405 -251.821 0.
-280.98 -593.767 0.
-386.176 -835.447 0.
-308.194 -927.665 0.
-224.083 -727.172 0.
-139.972 -526.679 0.
-84.2902 -492.9 0.
-187.626 -734.932 0.
-290.963 -976.963 0.
-547.973 -1101.4 0.
-491.307 -971.117 0.
-434.64 -840.834 0.
-104.155 -719.73 0.
-130.671 -781.657 0.
-169.035 -878.943 0.
-389.732 -1393.81 0.
-610.427 -1908.67 0.
-551.352 -2102.95 0.
-421.393 -1799.2 0.
-291.433 -1495.46 0.
-147.375 -1244.66 0.
-81.864 -1092.12 0.
-16.3546 -939.575 0.
-675.638 -1450.74 0.
-854.469 -1871.32 0.
-672.761 -2137.57 0.
-560.381 -1958.42 0.
-480.832 -1777.65 0.
246.35 -1381.33 0.
175.449 -1550.4 0.
104.549 -1719.46 0.
70.8715 -1791.81 0.
100.263 -1726.76 0.
129.654 -1661.7 0.
676.123 -1718.3 0.
421.965 -2315.44 0.
167.806 -2912.58 0.
1208.87 -2404.05 0.
1283.33 -2232.61 0.
1606.16 -1982.72 0.
1501.3 -2236.75 0.
1396.44 -2490.78 0.
1366.67 -2546.5 0.
1539.43 -2153.59 0.
1712.2 -1760.68 0.
1689.91 -1565.35 0.
1749.68 -1434.48 0.
1809.44 -1303.61 0.
3443.31 -369.524 0.
3593.09 -19.8975 0.
-797.765 -1614.32 0.
3384.46 -94.6553 0.
3240.37 -429.047 0.
2158.58 -1156.47 0.
2050.26 -1403.92 0.
1941.94 -1651.37 0.
1378.93 -2016.91 0.
1353.09 -2077.54 0.
1327.25 -2138.17 0.
1291.87 -2244.71 0.
1232.02 -2382.17 0.
1172.18 -2519.63 0.
1326.58 -2231.79 0.
1454.93 -1932.51 0.
-7.51177 -2331.81 0.
61.0917 -2172.44 0.
129.696 -2013.06 0.
167.052 -1953.21 0.
114.366 -2079.17 0.
61.6806 -2205.13 0.
-465.509 -2289.28 0.
-306.903 -1917.77 0.
-148.296 -1546.26 0.
-303.66 -1583.25 0.
-313.999 -1609.24 0.
-449.417 -1694.77 0.
-357.112 -1739.6 0.
-400.122 -1842.36 0.
-415.955 -1903.61 0.
-395.849 -1861.61 0.
-375.743 -1819.61 0.
-395.224 -1749.77 0.
-341.45 -1618.74 0.
-287.677 -1487.7 0.
-211.902 -1386.65 0.
-182.554 -1315.38 0.
-153.206 -1244.12 0.
-497.615 -1440.84 0.
-529.744 -1514.51 0.
-519.924 -1512.82 0.
-370.153 -1165.73 0.
-220.381 -818.627 0.
54.0509 -537.157 0.
51.917 -546.349 0.
49.7832 -555.541 0.
-319.913 -648.85 0.
-256.334 -504.784 0.
-192.754 -360.718 0.
63.4835 -173.39 0.
94.8763 -95.7075 0.
892.281 135.904 0.
-87.8916 -482.342 0.
-192.332 -724.792 0.
-265.673 -874.09 0.
-181.241 -674.842 0.
-96.8089 -475.592 0.
-124.727 -477.546 0.
-228.027 -720.257 0.
-331.328 -962.968 0.
-339.262 -978.127 0.
-281.666 -848.619 0.
-224.069 -719.111 0.
-133.223 -701.333 0.
-160.692 -762.525 0.
216.726 -683.123 0.
-3.76145 -1198.14 0.
-224.247 -1713.16 0.
-625.56 -2102.46 0.
-496.263 -1798.02 0.
-366.967 -1493.58 0.
-447.161 -1342.73 0.
-381.546 -1189.78 0.
-315.931 -1036.83 0.
-406.533 -1306.96 0.
-586.336 -1726.54 0.
-371.705 -1977.45 0.
-522.919 -1913.9 0.
-442.764 -1733.65 0.
584.599 -1203.11 0.
513.562 -1372.58 0.
442.525 -1542.05 0.
152.93 -1721.38 0.
182.365 -1657.05 0.
211.799 -1592.72 0.
625.419 -1708.84 0.
371.287 -2305.46 0.
117.155 -2902.09 0.
1486.32 -2254.52 0.
1560.55 -2082.77 0.
1660.64 -1927.27 0.
1554.95 -2180.99 0.
1449.26 -2434.71 0.
1187.91 -2593.93 0.
1360.61 -2200.88 0.
1533.31 -1807.83 0.
1103.68 -1784.96 0.
1165.12 -1655.06 0.
1226.56 -1525.17 0.
2844.32 -592.857 0.
2994.37 -243.677 0.
-2644.07 -2373.36 0.
2979.14 -236.255 0.
2834.95 -571.143 0.
1438.46 -1429.09 0.
1330.57 -1677.1 0.
1222.69 -1925.11 0.
1282.68 -2028.4 0.
1257.63 -2089.27 0.
1232.58 -2150.14 0.
1369.95 -2180.33 0.
1309.45 -2317.06 0.
1248.96 -2453.79 0.
1101.67 -2296.82 0.
1229.98 -1997.1 0.
364.213 -2141.21 0.
432.01 -1980.85 0.
499.807 -1820.49 0.
199.759 -1909.78 0.
146.885 -2035.2 0.
94.0116 -2160.63 0.
-423.052 -2240.83 0.
-263.883 -1869.33 0.
-104.714 -1497.84 0.
-51.2256 -1442.32 0.
-60.9941 -1468.9 0.
345.608 -1323.76 0.
-287.96 -1679.31 0.
-331.535 -1782.02 0.
-176.423 -1766.75 0.
-156.093 -1725.27 0.
-135.765 -1683.79 0.
-493.868 -1762.63 0.
-440.449 -1631.41 0.
-387.029 -1500.19 0.
98.9954 -1222.66 0.
128.905 -1152.25 0.
158.814 -1081.84 0.
-409.467 -1372.5 0.
-440.881 -1446.65 0.
-481.684 -1463.6 0.
-330.361 -1117.83 0.
-179.037 -772.065 0.
-7.63606 -528.424 0.
-8.67206 -538.343 0.
-9.70781 -548.263 0.
-341.082 -627.161 0.
-276.928 -483.179 0.
-212.774 -339.197 0.
219.287 -75.2754 0.
251.28 3.98444 0.
782.537 -210.54 0.
-10.0745 -380.339 0.
101.105 -121.366 0.
108.395 -9.62912 0.
-75.8719 -440.952 0.
-260.139 -872.276 0.
-293.885 -1018.89 0.
-192.735 -784.53 0.
-91.5841 -550.166 0.
-51.1728 -586.065 0.
-154.648 -825.969 0.
-258.122 -1065.87 0.
-344.394 -1166.37 0.
-370.322 -1224.56 0.
173.8 -1045.92 0.
111.078 -1190.2 0.
48.3556 -1334.47 0.
-436.08 -1599.72 0.
-395.261 -1503.09 0.
-354.441 -1406.46 0.
-562.289 -1548.37 0.
-655.64 -1762.84 0.
-748.991 -1977.31 0.
-434.1 -1820.49 0.
-382.322 -1701.69 0.
332.6 -1298.56 0.
-389.759 -1872.68 0.
-533.847 -2209.21 0.
289.077 -2071.97 0.
316.445 -2007.78 0.
343.813 -1943.59 0.
14.1819 -2135.4 0.
-85.6372 -2368.49 0.
-185.456 -2601.58 0.
235.711 -2478.68 0.
246.241 -2450.21 0.
256.77 -2421.74 0.
1607.45 -2022.39 0.
1492.42 -2286.82 0.
1336.31 -2534.79 0.
1457.05 -2254.58 0.
1577.8 -1974.37 0.
1220.97 -1904.66 0.
1329.35 -1646.94 0.
1437.74 -1389.22 0.
1123.07 -1319.38 0.
1235.31 -1050.17 0.
1347.55 -780.948 0.
2515.09 -357.136 0.
2432.48 -549.669 0.
-5832.11 -4249.11 0.
2474.3 -527.631 0.
2561.93 -328.096 0.
1326.96 -794.581 0.
1169.72 -1156.79 0.
1012.48 -1519.01 0.
1397.89 -1559.03 0.
1335.74 -1701.7 0.
1273.59 -1844.37 0.
1263.76 -1929.63 0.
1228.72 -2006.01 0.
1193.69 -2082.39 0.
1117.03 -2000.73 0.
1184.32 -1836.33 0.
581.648 -2005.25 0.
472.091 -2261.19 0.
362.535 -2517.13 0.
-143.034 -2773.11 0.
-3.31632 -2442.82 0.
136.401 -2112.52 0.
-259.596 -2115.25 0.
-211.19 -2003.03 0.
-162.785 -1890.81 0.
-24.9344 -1796.35 0.
-9.68774 -1761.28 0.
706.661 -1429.38 0.
-339.328 -1799.49 0.
-297.921 -1703.53 0.
33.5783 -1516.95 0.
-4.43006 -1595.05 0.
-42.4377 -1673.15 0.
-417.364 -1860.22 0.
-413.364 -1852.51 0.
-409.365 -1844.8 0.
35.1911 -1481.47 0.
157.544 -1194.87 0.
279.898 -908.277 0.
-90.8967 -860.633 0.
21.0042 -601.581 0.
-81.4284 -477.996 0.
-141.25 -612.865 0.
-201.071 -747.734 0.
-162.166 -815.509 0.
-176.216 -847.289 0.
-190.265 -879.069 0.
-254.772 -840.271 0.
-194.52 -695.257 0.
-134.267 -550.244 0.
119.157 -478.943 0.
83.1036 -567.371 0.
86.7278 -478.358 0.
-77.2332 -378.568 0.
32.2285 -119.185 0.
123.182 27.8402 0.
-62.0893 -403.703 0.
-247.36 -835.246 0.
-71.0458 -891.085 0.
30.212 -657.266 0.
131.47 -423.446 0.
73.1102 -500.678 0.
-29.9083 -741.277 0.
-132.927 -981.875 0.
-328.199 -1130.06 0.
-353.928 -1187.88 0.
92.8248 -1049.3 0.
30.7927 -1193.94 0.
-31.2392 -1338.59 0.
-395.921 -1551.42 0.
-354.558 -1454.97 0.
-313.196 -1358.52 0.
-317.138 -1414.24 0.
-410.569 -1628.45 0.
-504 -1842.66 0.
-204.52 -1690.75 0.
-153.102 -1571.49 0.
98.8737 -1366.23 0.
-114.972 -1725.61 0.
-259.575 -2062 0.
171.341 -2093.34 0.
198.141 -2028.46 0.
224.942 -1963.59 0.
70.5347 -2077.51 0.
-28.9928 -2311.46 0.
-128.521 -2545.41 0.
166.305 -2477.4 0.
177.024 -2449.55 0.
187.743 -2421.7 0.
1426.92 -2066.28 0.
1312.36 -2330.44 0.
1167.99 -2576.57 0.
1288.19 -2296.26 0.
1408.38 -2015.94 0.
786.272 -2059.9 0.
894.722 -1803.32 0.
1003.17 -1546.74 0.
1273.68 -1217.37 0.
1386.23 -949.266 0.
1498.78 -681.159 0.
2081.44 -512.138 0.
1998.84 -704.512 0.
5650.74 703.352 0.
1997.97 -698.609 0.
2084.31 -498.149 0.
1158.2 -833.709 0.
1000.6 -1195.91 0.
842.988 -1558.12 0.
1305.38 -1569.7 0.
1242.61 -1711.86 0.
1179.83 -1854.02 0.
696.495 -2141.61 0.
661.749 -2218.52 0.
627.009 -2295.44 0.
1100.97 -1973.69 0.
1168.41 -1809.87 0.
638.411 -1949.45 0.
529.475 -2206.3 0.
420.54 -2463.16 0.
-82.1147 -2713.92 0.
58.4949 -2384.56 0.
199.105 -2055.2 0.
-15.0243 -1981.56 0.
33.7753 -1869.41 0.
82.5729 -1757.26 0.
180.447 -1674.53 0.
195.772 -1639.51 0.
658.312 -1419.31 0.
-363.68 -1779.75 0.
-322.117 -1684.09 0.
71.0957 -1467.96 0.
33.8494 -1546.85 0.
-3.39625 -1625.75 0.
-8.43799 -1652.83 0.
-5.58072 -1644.83 0.
-2.72406 -1636.84 0.
-108.911 -1513.15 0.
12.8883 -1227.4 0.
134.687 -941.649 0.
76.8094 -758.607 0.
188.258 -499.059 0.
-169.84 -485.579 0.
-228.828 -621.018 0.
-287.817 -756.457 0.
-164.955 -784.743 0.
-178.868 -816.688 0.
-192.781 -848.632 0.
211.839 -609.067 0.
272.54 -464.128 0.
333.242 -319.191 0.
177.901 -422.017 0.
141.531 -510.792 0.
234.831 1219.3 0.
57.5093 87.2945 0.
-154.029 -412.415 0.
100.759 -19.937 0.
37.4154 -167.754 0.
406.347 694.362 0.
152.933 -754.797 0.
215.863 -608.633 0.
266.674 -491.428 0.
-124.945 -1168.74 0.
202.386 -401.395 0.
341.515 -72.7218 0.
21.4953 -316.671 0.
189.465 78.53 0.
702.596 553.121 0.
94.0919 -865.656 0.
309.987 -360.371 0.
380.651 209.112 0.
501.316 490.586 0.
322.838 73.9532 0.
668.442 449.266 0.
537.714 140.019 0.
667.679 439.518 0.
631.042 -154.007 0.
1018.85 748.881 0.
1009.6 214.657 0.
590.838 -574.99 0.
986.572 346.442 0.
1222.33 613.305 0.
1165.15 484.458 0.
767.05 -439.805 0.
1068.3 154.49 0.
659.064 -792.921 0.
733.571 -611.749 0.
1347.1 449.882 0.
1078.08 -180.42 0.
910.134 -575.653 0.
2567.57 987.038 0.
2043.02 -233.812 0.
1865.25 -604.528 0.
2328.87 468.391 0.
2274.04 334.314 0.
1156.3 -321.523 0.
1120.75 -406.895 0.
1257.62 -87.0098 0.
1910.96 30.215 0.
1654.8 -571.665 0.
2236.12 783.705 0.
1921.92 -22.1691 0.
2433.3 1175.03 0.
-6739.51 -504.413 0.
2292.34 935.449 0.
1802.01 -206.765 0.
1272.05 -212.155 0.
1485.51 286.115 0.
1199.28 -380.808 0.
1910.6 57.848 0.
2073.28 435.075 0.
1217.21 -1561.97 0.
1267.94 314.287 0.
931.096 -479.397 0.
639.039 -1169.59 0.
1997.45 194.864 0.
2071.19 360.077 0.
1894.29 914.236 0.
1344.69 -371.662 0.
1490.84 -34.5376 0.
1132.56 28.2016 0.
845.916 -641.446 0.
665.442 -1063.72 0.
1050.67 86.6276 0.
844.216 -398.22 0.
876.232 -326.483 0.
829.568 -518.116 0.
841.212 -489.55 0.
1222.84 404.205 0.
301.531 -165.409 0.
569.728 465.627 0.
785.625 156.254 0.
481.514 -551.86 0.
-128.594 -1974.82 0.
681.967 -767.912 0.
1056.97 104.793 0.
1200.65 438.004 0.
413.353 -0.510379 0.
256.392 -363.888 0.
390.878 -47.3736 0.
549.973 64.1396 0.
448.581 -171.811 0.
387.512 1010.61 0.
126.744 407.954 0.
-250.774 -467.717 0.
508.371 806.669 0.
727.584 1324.69 0.
481.218 756.351 0.
910.325 186.291 0.
960.002 301.658 0.
1421.3 1378.39 0.
813.437 987.168 0.
1006.58 1440.86 0.
-30.5456 -363.612 0.
-17.1892 -443.612 0.
-90.231 -616.652 0.
-223.459 -779.777 0.
-201.155 -724.292 0.
-178.85 -668.807 0.
198.905 -525.66 0.
135.973 -673.204 0.
73.0418 -820.748 0.
-230.934 -988.217 0.
-223.798 -967.356 0.
-216.661 -946.494 0.
-0.89824 -945.54 0.
-58.6126 -1080.75 0.
-113.504 -1189.29 0.
-60.5642 -1064.31 0.
-7.62393 -939.327 0.
-203.335 -1059.76 0.
-377.659 -1467.98 0.
-551.982 -1876.2 0.
-70.3168 -1750.42 0.
4.43034 -1580.34 0.
79.1779 -1410.26 0.
47.1226 -1432.01 0.
19.458 -1500.68 0.
260.916 -1453.91 0.
265.691 -1506.54 0.
237.433 -1572.51 0.
96.5675 -1694.79 0.
39.1549 -1825.96 0.
-18.2583 -1957.12 0.
350.425 -1868.63 0.
338.729 -1890.91 0.
327.033 -1913.19 0.
365.133 -2028.19 0.
260.551 -2274.65 0.
155.968 -2521.12 0.
1033.47 -2138.62 0.
1057.79 -2080.43 0.
1047.57 -2027.28 0.
1137.54 -1824.26 0.
1227.52 -1621.23 0.
660.447 -1694.22 0.
753.45 -1481.05 0.
846.454 -1267.89 0.
1230.43 -977.475 0.
1278.81 -873.005 0.
1327.2 -768.535 0.
1264.64 -738.634 0.
1291.92 -676.945 0.
-610.822 -1446.22 0.
1797.08 -414.826 0.
1797.7 -415.464 0.
893.827 -816.172 0.
844.922 -932.255 0.
796.018 -1048.34 0.
921.231 -1150 0.
813.402 -1400.12 0.
705.575 -1650.23 0.
468.594 -1925.79 0.
382.123 -2132.51 0.
295.651 -2339.23 0.
1022.62 -1866.88 0.
1127.32 -1628.28 0.
797.409 -1574.85 0.
880.617 -1387.01 0.
963.827 -1199.17 0.
451.976 -1401.78 0.
337.117 -1672.21 0.
222.259 -1942.65 0.
108.952 -1992.12 0.
199.22 -1785.83 0.
289.489 -1579.55 0.
471.605 -1322.83 0.
564.931 -1101.06 0.
634.381 -892.261 0.
124.462 -1268.13 0.
38.5894 -1462.64 0.
121.256 -1603.12 0.
10.6929 -1860.53 0.
-99.8708 -2117.94 0.
-135.086 -2043.6 0.
79.1899 -1541.97 0.
293.465 -1040.34 0.
190.42 -1013.15 0.
152.422 -1098.24 0.
114.425 -1183.34 0.
-99.0098 -1139.42 0.
-24.6127 -965.852 0.
-310.899 -972.102 0.
-301.076 -944.489 0.
-291.251 -916.876 0.
-248.797 -850.38 0.
-216.122 -768.275 0.
-183.447 -686.17 0.
392 -467.479 0.
346.56 -572.57 0.
301.119 -677.66 0.
-9.19076 -671.657 0.
87.6548 -442.5 0.
492.065 -108.08 0.
187.891 -322.009 0.
113.52 -495.19 0.
-206.394 -743.445 0.
-185.403 -687.449 0.
-164.411 -631.454 0.
150.44 -516.026 0.
87.5809 -663.644 0.
24.7218 -811.262 0.
-441.285 -1048.84 0.
-434.122 -1028.2 0.
-426.96 -1007.55 0.
318.476 -777.75 0.
260.858 -913.398 0.
-179.763 -1185.59 0.
-127.642 -1060.32 0.
-75.52 -935.05 0.
-236.156 -1041.43 0.
-410.319 -1449.14 0.
-584.481 -1856.85 0.
195.192 -1609.37 0.
268.884 -1438.57 0.
342.576 -1267.77 0.
22.4998 -1408.79 0.
-5.02067 -1478.13 0.
-461.8 -1731.61 0.
371.985 -1430.78 0.
343.56 -1496.59 0.
-52.7209 -1730.61 0.
-110.043 -1861.85 0.
-167.366 -1993.09 0.
553.06 -1748.05 0.
542.309 -1770.99 0.
531.557 -1793.93 0.
480.979 -1944.79 0.
375.913 -2190.71 0.
270.847 -2436.63 0.
812.619 -2202.32 0.
836.946 -2143.81 0.
809.515 -2098.83 0.
898.954 -1895.21 0.
988.397 -1691.59 0.
790.289 -1606.82 0.
882.87 -1393.67 0.
975.452 -1180.53 0.
948.059 -1067.37 0.
995.59 -962.239 0.
1043.12 -857.105 0.
853.751 -884.43 0.
880.659 -822.3 0.
-1496.51 -1795.03 0.
1916.89 -331.596 0.
1916.67 -331.08 0.
762.834 -842.615 0.
714.395 -959.263 0.
665.957 -1075.91 0.
361.637 -1355.72 0.
254.331 -1606.76 0.
147.024 -1857.8 0.
679.955 -1804.69 0.
593.328 -2010.95 0.
506.7 -2217.2 0.
924.488 -1878.15 0.
1028.56 -1639.24 0.
782.408 -1548.98 0.
866.347 -1361.9 0.
950.287 -1174.82 0.
381.313 -1400.59 0.
267.032 -1671.18 0.
152.75 -1941.77 0.
63.2263 -1981.35 0.
154.429 -1775.68 0.
245.632 -1570.01 0.
471.48 -1289.81 0.
564.869 -1067.24 0.
667.531 -845.646 0.
502.169 -1074.73 0.
416.911 -1269.87 0.
248.416 -1516.6 0.
137.648 -1773.83 0.
26.8785 -2031.06 0.
-452.642 -2150.2 0.
-239.015 -1648.34 0.
-25.3879 -1146.49 0.
465.038 -862.894 0.
427.259 -948.624 0.
389.481 -1034.35 0.
-246.304 -1171.59 0.
-171.375 -998.6 0.
-109.309 -855.615 0.
-99.3506 -828.227 0.
-89.3903 -800.84 0.
-287.531 -832.661 0.
-254.663 -750.865 0.
-221.795 -669.069 0.
114.728 -557.034 0.
69.1744 -662.038 0.
23.6211 -767.042 0.
-129.464 -692.206 0.
-32.6036 -462.786 0.
342.098 -281.967 0.
24.9806 -530.095 0.
17.8992 -546.716 0.
-53.7626 -627.044 0.
-176.961 -915.941 0.
-300.159 -1204.84 0.
-165.13 -1217.26 0.
-73.7547 -998.831 0.
17.6195 -780.401 0.
-359.453 -930.924 0.
-403.729 -1036.41 0.
-448.005 -1141.89 0.
283.194 -966.041 0.
204.682 -1143.74 0.
-334.479 -1500.41 0.
-308.681 -1443.26 0.
-282.883 -1386.11 0.
-315.068 -1357.35 0.
-292.819 -1303.28 0.
-270.57 -1249.22 0.
545.752 -919.406 0.
506.396 -1016.12 0.
467.04 -1112.83 0.
-78.2495 -1505.4 0.
-180.032 -1741.77 0.
-179.003 -1933.61 0.
261.595 -1607.39 0.
341.227 -1423.88 0.
40.1411 -1446.7 0.
-18.4995 -1584.52 0.
-77.1395 -1722.33 0.
617.23 -1586.83 0.
500.174 -1862.75 0.
383.119 -2138.67 0.
406.907 -2119.96 0.
484.193 -1944.18 0.
561.48 -1768.41 0.
928.442 -1769.82 0.
820.127 -2024.31 0.
529.379 -2328.38 0.
574.016 -2222.41 0.
618.653 -2116.45 0.
622.976 -1975.74 0.
750.725 -1675.07 0.
878.474 -1374.4 0.
658.425 -1249.8 0.
767.802 -999.303 0.
877.181 -748.804 0.
830.881 -675.691 0.
868.637 -592.479 0.
-1460.96 -1527.41 0.
1731.26 -336.953 0.
1639.33 -553.934 0.
535.055 -1164.17 0.
528.027 -1178.1 0.
521 -1192.02 0.
246.398 -1328.12 0.
237.332 -1350.12 0.
228.268 -1372.12 0.
967.592 -1151.13 0.
897.804 -1309.12 0.
828.016 -1467.11 0.
979.721 -1521.36 0.
915.977 -1659.68 0.
595.819 -1881.07 0.
651.478 -1742.7 0.
707.137 -1604.34 0.
168.791 -1794.24 0.
123.443 -1896.36 0.
78.0946 -1998.48 0.
-3.48419 -2033.86 0.
23.2006 -1968.16 0.
49.8854 -1902.47 0.
291.435 -1813.8 0.
268.272 -1867.37 0.
586.717 -1780.22 0.
255.964 -1874.36 0.
282.751 -1814.8 0.
92.5319 -1797.28 0.
206.129 -1531.7 0.
319.726 -1266.12 0.
-271.799 -1446.57 0.
-309.794 -1535.96 0.
-347.789 -1625.36 0.
268.76 -1364.43 0.
279.246 -1340.82 0.
289.732 -1317.2 0.
-305.899 -1479.14 0.
-249.486 -1344.9 0.
-170.218 -1166.88 0.
-43.4419 -872.417 0.
83.3345 -577.954 0.
-113.991 -549.087 0.
-153.207 -644.107 0.
-192.423 -739.127 0.
-55.0569 -663.491 0.
-16.0915 -572.932 0.
22.8732 -482.372 0.
55.1184 -79.688 0.
304.217 488.551 0.
-301.985 -529.239 0.
-314.717 -644.899 0.
-321.85 -662.059 0.
228.337 -474.579 0.
104.426 -763.318 0.
-19.4841 -1052.06 0.
-137.043 -1172.89 0.
-45.0228 -955.37 0.
46.996 -737.852 0.
-57.504 -771.851 0.
-102.289 -877.195 0.
-147.074 -982.54 0.
111.854 -1005.42 0.
34.1084 -1184.18 0.
-268.991 -1441.81 0.
-244.109 -1384.47 0.
-219.226 -1327.13 0.
-120.475 -1242.5 0.
-97.389 -1189.19 0.
-74.304 -1135.88 0.
459.421 -923.201 0.
420.144 -1019.97 0.
380.868 -1116.74 0.
-157.639 -1509.16 0.
-258.946 -1746.33 0.
-336.069 -1973.1 0.
116.93 -1637.12 0.
195.859 -1452.46 0.
148.725 -1370.19 0.
89.6515 -1507.19 0.
30.579 -1644.18 0.
441.676 -1633.51 0.
323.535 -1908.35 0.
205.397 -2183.19 0.
331.399 -2119.79 0.
408.959 -1944.21 0.
486.519 -1768.63 0.
1007.7 -1707.03 0.
899.087 -1960.57 0.
344.88 -2375.19 0.
388.792 -2268.63 0.
432.705 -2162.07 0.
498.21 -2001.99 0.
625.39 -1700.41 0.
752.57 -1398.84 0.
463.001 -1299.16 0.
572.862 -1049.32 0.
682.726 -799.478 0.
1004.83 -570.922 0.
1042.52 -487.895 0.
-15.5555 -876.175 0.
1202.17 -530.924 0.
1109.89 -747.304 0.
477.867 -1156.95 0.
471.084 -1171.26 0.
464.301 -1185.56 0.
510.733 -1184.49 0.
502.61 -1207.35 0.
494.488 -1230.2 0.
797.403 -1193.69 0.
728.985 -1352.89 0.
660.567 -1512.09 0.
862.678 -1538.96 0.
799.33 -1678.06 0.
494.038 -1892.22 0.
550.915 -1754.87 0.
607.793 -1617.52 0.
142.616 -1774.78 0.
97.2103 -1877.2 0.
51.8045 -1979.62 0.
-58.3809 -2024.9 0.
-31.8247 -1958.79 0.
-5.26849 -1892.68 0.
439.834 -1722.28 0.
415.959 -1775.56 0.
846.795 -1634.72 0.
172.805 -1876.29 0.
199.583 -1817.01 0.
-70.5589 -1837.39 0.
43.3941 -1571.72 0.
157.347 -1306.04 0.
-223.078 -1394.64 0.
-259.861 -1484.52 0.
-296.644 -1574.4 0.
84.7069 -1411.78 0.
96.3451 -1388.84 0.
107.983 -1365.89 0.
39.175 -1298.23 0.
95.3167 -1164.35 0.
-149.747 -1128.1 0.
-22.9792 -833.119 0.
103.789 -538.14 0.
92.3718 -428.929 0.
52.8644 -523.568 0.
13.3567 -618.207 0.
-49.9874 -629.753 0.
-11.2604 -539.362 0.
27.466 -448.97 0.
-0.916716 -74.9595 0.
247.564 492.678 0.
-532.036 161.355 0.
-61.9033 617.309 0.
-335.863 -25.5891 0.
1186 1280.07 0.
762.25 284.657 0.
961.166 742.771 0.
325.692 -125.454 0.
319.265 -138.067 0.
294.856 -192.699 0.
728.747 524.11 0.
637.093 312.324 0.
845.913 801.913 0.
718.966 770.808 0.
658.183 632.12 0.
729.668 796.35 0.
194.562 -453.072 0.
301.635 -203.524 0.
489.868 -170.447 0.
598.436 89.1685 0.
759.563 471.11 0.
597.549 -406.577 0.
703.422 -149.927 0.
995.562 541.296 0.
425.061 -0.801156 0.
453.895 71.6595 0.
555.527 -474.044 0.
310.757 -897.008 0.
1113.98 978.469 0.
783.484 -75.4674 0.
1049.7 547.653 0.
803.304 -24.5602 0.
836.981 -336.816 0.
1221.91 553.962 0.
1006.95 45.4146 0.
992.384 -409.649 0.
965.775 -469.266 0.
781.418 -897.275 0.
1592.28 -456.284 0.
1171.4 -1443.77 0.
749.744 -1032.3 0.
1252.5 144.954 0.
920.722 -625.129 0.
907.05 -775.309 0.
964.475 -643.485 0.
1310.93 163.109 0.
819.824 -67.9735 0.
519.46 -772.07 0.
627.201 -524.054 0.
1467.29 198.885 0.
1460.52 185.227 0.
-985.526 -899.471 0.
884.816 -241.471 0.
753.071 -548.379 0.
1021.32 263.157 0.
1318.75 955.593 0.
818.714 -211.95 0.
550.369 -1568.95 0.
804.028 -981.998 0.
767.163 -1070.62 0.
1072.28 -210.567 0.
810.374 -819.992 0.
1385.42 523.084 0.
1466.42 112.784 0.
1539.97 276.532 0.
1269.9 141.112 0.
1070.69 -320.121 0.
1414.36 487.313 0.
384.198 -1134.91 0.
985.424 270.756 0.
892.975 57.9794 0.
441.884 -725.766 0.
486.283 -618.365 0.
795.437 107.354 0.
1114.84 -400.1 0.
980.388 -711.037 0.
1686.29 1351.77 0.
1278.49 890.951 0.
1161.18 616.527 0.
777.367 472.777 0.
349.622 -527.211 0.
684.281 251.228 0.
256.545 -344.273 0.
560.769 367.742 0.
1082.64 1587.44 0.
920.026 897.163 0.
695.737 375.292 0.
69.5166 -1082.86 0.
1000.96 322.151 0.
622.125 -561.184 0.
203.483 -304.365 0.
623.255 673.788 0.
392.105 132.96 0.
-51.5634 -1121.56 0.
461.6 75.0477 0.
542.086 262.02 0.
72.9837 -322.898 0.
-30.8161 -564.438 0.
487.076 643.498 0.
-106.99 -194.131 0.
-506.071 -1119.6 0.
-782.276 -805.895 0.
-596.568 -730.628 0.
-651.936 -863.466 0.
171.453 -592.505 0.
204.357 -522.254 0.
237.261 -452.003 0.
330.868 -490.414 0.
188.181 -821.822 0.
45.4941 -1153.23 0.
-62.8338 -1262.52 0.
-34.757 -1198.11 0.
-6.6797 -1133.69 0.
-185.966 -1071.66 0.
-105.425 -880.757 0.
100.87 -686.024 0.
-109.899 -1181.1 0.
-320.669 -1676.18 0.
59.8887 -1725.18 0.
172.732 -1457.36 0.
285.575 -1189.55 0.
40.2919 -1307.83 0.
-80.2655 -1583.14 0.
-200.822 -1858.44 0.
-336.061 -1786.52 0.
-213.126 -1492.99 0.
-268.16 -1275.93 0.
306.266 -1169.38 0.
233.952 -1341.66 0.
231.44 -1478.28 0.
164.376 -1635.13 0.
97.3118 -1791.99 0.
202.812 -1816.14 0.
203.382 -1820.51 0.
203.952 -1824.88 0.
378.32 -1721.4 0.
408.733 -1652.52 0.
439.145 -1583.64 0.
904.143 -1342.88 0.
928.007 -1294.5 0.
462.431 -1452.2 0.
536.079 -1284.26 0.
609.726 -1116.32 0.
605.106 -1006.33 0.
634.865 -943.709 0.
664.623 -881.088 0.
450.576 -942.058 0.
462.697 -916.213 0.
474.817 -890.368 0.
1031.82 -568.52 0.
1087.62 -441.561 0.
1165.01 -306.691 0.
660.211 -707.173 0.
563.162 -933.393 0.
482.018 -1128.92 0.
440.579 -1229.26 0.
399.141 -1329.59 0.
402.593 -1359.26 0.
421.291 -1316.36 0.
439.988 -1273.46 0.
619.019 -1309.12 0.
522.351 -1534.37 0.
425.683 -1759.63 0.
786.019 -1465.78 0.
880.446 -1251.28 0.
358.6 -1338.39 0.
279.765 -1514.22 0.
200.929 -1690.06 0.
283.225 -1713.95 0.
323.575 -1616.57 0.
363.925 -1519.2 0.
286.435 -1554.3 0.
258.268 -1621.06 0.
230.1 -1687.81 0.
188.416 -1677.93 0.
212.666 -1620.52 0.
1163.16 -1159.44 0.
126.615 -1363.97 0.
252.716 -1070.56 0.
511.401 -818.861 0.
431.255 -1011.07 0.
351.111 -1203.29 0.
-136.807 -1404.99 0.
-34.9488 -1167.8 0.
66.9098 -930.606 0.
206.942 -869.406 0.
171.157 -951.439 0.
135.373 -1033.47 0.
413.33 -759.473 0.
503.287 -551.632 0.
36.238 -620.265 0.
4.53374 -694.406 0.
-27.1707 -768.547 0.
-145.017 -812.9 0.
-82.1534 -667.076 0.
-19.289 -521.253 0.
235.622 -358.029 0.
245.144 -336.741 0.
254.667 -315.453 0.
-6.29086 -690.869 0.
-183.711 -1100.31 0.
-566.926 -687.161 0.
-528.102 -672.484 0.
-583.443 -804.969 0.
-69.7149 -662.413 0.
-36.8783 -592.802 0.
-4.04067 -523.19 0.
543.164 -369.682 0.
400.669 -701.296 0.
258.174 -1032.91 0.
-74.4839 -1234.52 0.
-46.0867 -1170.75 0.
-17.6888 -1106.97 0.
-314.589 -1095.95 0.
-234.138 -905.086 0.
131.086 -641.374 0.
-80.9443 -1135.25 0.
-292.974 -1629.12 0.
366.955 -1563.9 0.
479.906 -1295.98 0.
592.857 -1028.07 0.
-154.766 -1363.19 0.
-275.3 -1638.61 0.
-395.833 -1914.01 0.
-311.959 -1743.56 0.
-189.015 -1450.18 0.
724.564 -818.264 0.
459.218 -1074.49 0.
388.013 -1247.4 0.
311.683 -1412.36 0.
245.147 -1569.67 0.
178.611 -1726.99 0.
216.521 -1779.52 0.
217.194 -1784.11 0.
217.866 -1788.71 0.
331.055 -1709.69 0.
362.652 -1641.73 0.
394.248 -1573.76 0.
545.265 -1463.98 0.
569.115 -1415.2 0.
354.186 -1464.35 0.
427.773 -1296.81 0.
501.361 -1129.26 0.
374.305 -1074.97 0.
404.255 -1012.55 0.
434.204 -950.136 0.
469.937 -902.68 0.
483.071 -877.488 0.
496.204 -852.296 0.
926.975 -580.894 0.
983.714 -454.597 0.
-2045.56 -1650.71 0.
643.825 -683.242 0.
546.639 -909.586 0.
570.118 -1059.24 0.
528.825 -1160.37 0.
487.533 -1261.49 0.
128.411 -1444.17 0.
146.65 -1401.3 0.
164.888 -1358.42 0.
656.645 -1262.68 0.
560.069 -1488.39 0.
463.493 -1714.11 0.
799.878 -1428.95 0.
894.561 -1214.23 0.
34.6075 -1446.7 0.
-43.9815 -1622.08 0.
-122.571 -1797.45 0.
478.591 -1599.44 0.
518.907 -1502.09 0.
559.223 -1404.74 0.
550.845 -1407.42 0.
523.48 -1474.78 0.
496.114 -1542.15 0.
-257.377 -1840.86 0.
-232.623 -1783.94 0.
613.856 -1361.1 0.
-84.3471 -1421.29 0.
42.0318 -1128.34 0.
877.323 -631.075 0.
797.085 -823.58 0.
716.849 -1016.09 0.
-47.388 -1334.36 0.
55.6039 -1097.84 0.
158.597 -861.319 0.
275.495 -809.161 0.
240.929 -892.204 0.
206.364 -975.249 0.
277.62 -785.633 0.
367.69 -577.975 0.
9.79155 -599.691 0.
-21.9799 -673.395 0.
-53.7515 -747.099 0.
-404.5 -892.853 0.
-341.67 -747.124 0.
-278.84 -601.395 0.
467.967 -227.895 0.
477.655 -207.137 0.
487.342 -186.38 0.
395.971 -485.675 0.
218.5 -896.735 0.
-401.245 -761.078 0.
-371.648 -785.182 0.
-316.442 -652.175 0.
-71.4272 -480.351 0.
-131.766 -616.191 0.
-192.105 -752.03 0.
426.879 -549.097 0.
424.44 -553.138 0.
422.001 -557.179 0.
80.7977 -811.236 0.
-7.23971 -1017.73 0.
-95.2774 -1224.22 0.
-375.904 -1373.41 0.
-380.165 -1385.96 0.
-75.7432 -1261.18 0.
-8.93419 -1105.45 0.
57.8743 -949.723 0.
636.92 -667.558 0.
532.039 -914.79 0.
427.156 -1162.02 0.
-212.877 -1430.64 0.
-111.68 -1198.55 0.
-10.4835 -966.462 0.
105.911 -971.85 0.
39.7126 -1121.67 0.
962.556 -847.376 0.
299.297 -1383.16 0.
154.618 -1715.55 0.
74.5932 -1970.03 0.
72.4117 -1971.73 0.
70.2302 -1973.43 0.
192.288 -1862.55 0.
276.205 -1662.02 0.
360.121 -1461.48 0.
435.79 -1312.07 0.
484.763 -1196.53 0.
533.736 -1080.99 0.
408.786 -1195.06 0.
364.58 -1293.32 0.
375.751 -1341.94 0.
423.774 -1232.5 0.
471.796 -1123.05 0.
243.349 -1143.89 0.
276.877 -1064.67 0.
310.404 -985.441 0.
453.666 -926.799 0.
433.055 -969.087 0.
412.443 -1011.38 0.
827.81 -739.846 0.
896.547 -573.658 0.
830.854 -467.219 0.
592.059 -461.827 0.
648.222 -330.83 0.
876.834 -209.785 0.
724.247 -566.2 0.
571.658 -922.615 0.
162.365 -1291.36 0.
131.117 -1368.93 0.
99.87 -1446.5 0.
633.261 -1214.92 0.
655.085 -1159.13 0.
676.909 -1103.35 0.
837.412 -1155.45 0.
764.171 -1326.07 0.
-257.533 -1887.33 0.
-236.997 -1845.14 0.
-216.463 -1802.96 0.
583.272 -1373.85 0.
663.782 -1186.04 0.
744.292 -998.235 0.
713.869 -1062.6 0.
605.204 -1310.05 0.
496.538 -1557.5 0.
-407.615 -1903.57 0.
-359.014 -1794.51 0.
736.865 -1239.96 0.
-272.195 -1709.57 0.
-293.144 -1756.06 0.
648.601 -1299.69 0.
808.833 -919.698 0.
969.065 -539.709 0.
297.371 -733.379 0.
223.541 -904.881 0.
149.712 -1076.38 0.
223.344 -981.644 0.
301.428 -800.646 0.
379.511 -619.646 0.
323.371 -475.376 0.
417.199 -254.577 0.
142.342 -234.819 0.
100.567 -334.033 0.
58.7939 -433.248 0.
-388.983 -735.553 0.
-481.399 -954.232 0.
-573.815 -1172.91 0.
212.996 -829.719 0.
285.568 -660.679 0.
358.14 -491.639 0.
595.149 -191.963 0.
717.045 84.8912 0.
-123.739 -607.616 0.
62.2525 -571.49 0.
117.585 -437.577 0.
-23.8026 -425.405 0.
-83.4842 -561.693 0.
-143.167 -697.979 0.
165.11 -630.385 0.
162.513 -634.747 0.
159.916 -639.109 0.
46.9971 -793.388 0.
-40.8705 -1000.33 0.
-128.738 -1207.27 0.
-64.8073 -1211.14 0.
-69.2029 -1223.81 0.
75.5073 -1160.08 0.
142.561 -1004.06 0.
209.614 -848.036 0.
101.56 -869.869 0.
-4.28939 -1115.43 0.
-110.139 -1360.99 0.
-68.8755 -1339.46 0.
32.9828 -1107.25 0.
134.842 -875.053 0.
336.055 -840.34 0.
270.347 -990.874 0.
341.886 -1082.85 0.
107.916 -1434.33 0.
-35.9415 -1767.59 0.
30.6452 -1955.56 0.
29.3014 -1958.52 0.
27.9575 -1961.49 0.
223.648 -1815.09 0.
308.344 -1615.72 0.
393.039 -1416.34 0.
350.531 -1317.83 0.
399.742 -1203.02 0.
448.952 -1088.2 0.
164.63 -1267.46 0.
122.045 -1366.4 0.
443.93 -1278.98 0.
492.372 -1170.34 0.
540.814 -1061.71 0.
257.803 -1107.71 0.
292.791 -1030.32 0.
327.778 -952.92 0.
436.826 -899.922 0.
417.664 -943.432 0.
398.5 -986.943 0.
854.201 -694.3 0.
924.766 -529.924 0.
-900.743 -1178.16 0.
307.992 -551.029 0.
362.869 -419.196 0.
661.066 -272.507 0.
507.29 -627.832 0.
353.513 -983.156 0.
396.836 -1161.62 0.
365.413 -1239.7 0.
333.99 -1317.77 0.
511.194 -1233.67 0.
534.041 -1178.78 0.
556.889 -1123.89 0.
662.5 -1198.44 0.
589.833 -1369.47 0.
-144.542 -1808.66 0.
-125.252 -1765.72 0.
-105.963 -1722.79 0.
447.6 -1402.72 0.
527.302 -1214.22 0.
607.004 -1025.71 0.
506.336 -1117.65 0.
396.643 -1364.28 0.
286.952 -1610.9 0.
-224.477 -1797.75 0.
-177.354 -1687.61 0.
416.455 -1343.09 0.
-200.237 -1645.55 0.
-220.658 -1692.36 0.
470.35 -1346.77 0.
630.822 -967.199 0.
791.294 -587.63 0.
427.22 -645.131 0.
353.71 -817.058 0.
280.2 -988.985 0.
238.46 -944.517 0.
317.099 -763.931 0.
395.738 -583.344 0.
287.413 -459.19 0.
382.611 -238.976 0.
150.71 -197.494 0.
109.296 -296.414 0.
67.8841 -395.335 0.
-239.513 -640.22 0.
-332.033 -859.136 0.
-424.554 -1078.05 0.
32.3658 -874.193 0.
104.847 -705.908 0.
177.327 -537.623 0.
411.679 -241.077 0.
532.664 35.0476 0.
-133.118 -1105.49 0.
1025.24 923.578 0.
876.738 573.945 0.
214.81 73.0063 0.
-253.775 -1021.73 0.
424.486 559.281 0.
530.729 752.147 0.
-25.5756 -549.67 0.
155.623 -129.671 0.
315.323 -69.1391 0.
-8.71872 -824.929 0.
551.162 482.198 0.
805.062 258.117 0.
377.416 -739.349 0.
793.646 265.27 0.
928.438 579.68 0.
142.08 -1255.68 0.
-247.758 -645.572 0.
-143.744 -398.951 0.
33.4108 17.8068 0.
790.097 418.043 0.
900.405 671.041 0.
562.999 -120.144 0.
951.17 198.095 0.
1223.67 828.185 0.
847.887 442.561 0.
403.423 -362.702 0.
328.038 -535.057 0.
473.183 -800.371 0.
855.614 94.7527 0.
872.591 137.342 0.
1130.58 263.936 0.
311.081 -1649.69 0.
1431.16 962.005 0.
1187.91 832.085 0.
792.222 -88.6896 0.
451.305 -881.807 0.
639.436 344.511 0.
200.529 -677.84 0.
455.779 -1363.88 0.
1161.24 285.607 0.
1033.84 -9.0292 0.
565.031 -412.094 0.
681.692 -141.884 0.
821.587 182.506 0.
376.853 -973.362 0.
498.22 -693.658 0.
729.701 -157.292 0.
907.036 -573.983 0.
1123 -69.5845 0.
631.985 -395.65 0.
-75.7318 -889.097 0.
-79.8603 -889.117 0.
509.595 -187.758 0.
365.476 -517.971 0.
508.909 -176.497 0.
675.958 -941.629 0.
787.012 -683.79 0.
1020.8 -138.789 0.
1059.98 315.53 0.
511.461 -960.208 0.
947.792 61.8637 0.
1170.45 341.047 0.
939.521 -191.454 0.
524.47 -446.547 0.
546.652 -388.409 0.
338.775 -867.583 0.
-25.7263 -2211.31 0.
544.114 -880.795 0.
1255.97 780.8 0.
547.284 -573.92 0.
589.268 -470.374 0.
1116.35 762.821 0.
1063.43 879.223 0.
226.501 -1070.79 0.
117.874 -569.053 0.
622.381 164.874 0.
309.662 -561.788 0.
1276.25 905.508 0.
585.358 -707.706 0.
866.4 -52.895 0.
818.763 55.1976 0.
720.259 -178.348 0.
483.151 -734.972 0.
429.913 -498.957 0.
427.551 -501.435 0.
496.692 -336.842 0.
691.159 572.911 0.
479.49 81.5629 0.
-231.812 -1078.16 0.
227.585 0.790322 0.
-32.5664 -600.022 0.
-81.6699 -517.823 0.
44.7185 -218.598 0.
155.368 43.318 0.
311.188 141.69 0.
92.9314 -367.885 0.
215.62 -79.6107 0.
128.964 -514.306 0.
169.74 -416.503 0.
273.832 -882.953 0.
236.045 -669.299 0.
282.035 -564.48 0.
3.8444 -632.559 0.
-13.5834 -672.635 0.
-31.0102 -712.711 0.
-150.532 -750.375 0.
-111.661 -664.535 0.
-72.7915 -578.692 0.
120.801 -584.526 0.
39.7197 -773.73 0.
-41.3625 -962.934 0.
335.683 -899.319 0.
279.383 -1026.15 0.
91.5919 -1198.24 0.
124.455 -1121.16 0.
157.319 -1044.07 0.
-279.176 -1154.58 0.
-229.242 -1040.88 0.
-179.308 -927.164 0.
165.717 -789.361 0.
106.853 -924.246 0.
47.9901 -1059.13 0.
286.327 -1008.08 0.
274.408 -1038.62 0.
672.816 -892.257 0.
31.1903 -1287.93 0.
-36.3761 -1442.55 0.
198.023 -1424.01 0.
254.994 -1290.73 0.
311.966 -1157.46 0.
406.279 -1090.81 0.
366.16 -1186.33 0.
326.041 -1281.85 0.
256.489 -1298.97 0.
279.177 -1240.43 0.
301.864 -1181.89 0.
141.575 -1053.62 0.
251.522 -787.929 0.
703.532 -425.575 0.
593.236 -680.052 0.
482.94 -934.528 0.
76.763 -1249.36 0.
75.2872 -1253.94 0.
73.8114 -1258.52 0.
305.254 -1042.84 0.
426.552 -765.674 0.
547.852 -488.504 0.
882.101 -307.991 0.
869.024 -331.103 0.
-1557.19 -1387.27 0.
252.639 -666.25 0.
223.533 -732.629 0.
434.372 -673.458 0.
465.639 -598.907 0.
496.907 -524.356 0.
583.955 -557.537 0.
464.148 -834.877 0.
344.34 -1112.22 0.
389.525 -1122.21 0.
422.364 -1044.74 0.
455.202 -967.268 0.
472.71 -929.521 0.
491.309 -891.401 0.
252.964 -969.334 0.
233.769 -1013.68 0.
214.575 -1058.02 0.
349.273 -1037.44 0.
334.854 -1069.46 0.
320.436 -1101.47 0.
268.309 -1117.63 0.
278.426 -1092.29 0.
288.541 -1066.96 0.
278.326 -1093.17 0.
261.124 -1133.86 0.
590.247 -1033.38 0.
-145.233 -1403.24 0.
-175.518 -1470.82 0.
423.867 -1202.59 0.
540.883 -925.746 0.
657.898 -648.9 0.
502.003 -693.324 0.
386.816 -962.787 0.
271.63 -1232.25 0.
45.7333 -1262.81 0.
152.372 -1016.83 0.
259.012 -770.839 0.
44.7617 -897.242 0.
18.4076 -959.488 0.
-271.475 -1121.48 0.
-263.045 -1098.02 0.
-254.614 -1074.55 0.
-160.702 -952.438 0.
-59.487 -715.528 0.
41.7269 -478.619 0.
156.537 -283.091 0.
220.988 -131.833 0.
285.44 19.4239 0.
156.697 -288.701 0.
-29.8579 -721.053 0.
670.355 -686.793 0.
120.787 -687.722 0.
166.758 -582.72 0.
134.653 -544.231 0.
116.759 -583.474 0.
98.866 -622.718 0.
-179.88 -731.127 0.
-140.578 -645.888 0.
-101.277 -560.647 0.
168.904 -534.557 0.
87.9034 -723.735 0.
6.90176 -912.913 0.
380.966 -847.971 0.
324.622 -974.647 0.
10.7681 -1204.74 0.
43.2259 -1127.01 0.
75.6836 -1049.28 0.
-29.5026 -1015.32 0.
20.7688 -902.202 0.
71.0409 -789.084 0.
52.7473 -805.406 0.
-6.15402 -940.338 0.
-65.055 -1075.27 0.
121.81 -1046.01 0.
109.192 -1076.04 0.
772.133 -815.46 0.
76.0998 -1237.2 0.
8.90987 -1392.01 0.
206.818 -1389.58 0.
263.178 -1255.46 0.
319.538 -1121.34 0.
247.213 -1126.79 0.
207.194 -1222.19 0.
167.176 -1317.59 0.
251.452 -1270.17 0.
274.968 -1212.29 0.
298.484 -1154.41 0.
281.242 -961.772 0.
390.73 -695.264 0.
529.744 -469.176 0.
419.656 -724.163 0.
309.566 -979.151 0.
-67.7943 -1281.47 0.
-68.8573 -1286.92 0.
-69.9202 -1292.36 0.
264.556 -1026.6 0.
386.035 -749.918 0.
507.514 -473.239 0.
726.854 -342.997 0.
714.133 -366.353 0.
-1841.35 -1478.13 0.
558.226 -502.876 0.
528.119 -568.621 0.
619.848 -564.534 0.
651.071 -490.191 0.
682.293 -415.847 0.
283.754 -653.223 0.
163.391 -930.471 0.
43.0269 -1207.72 0.
343.017 -1112.63 0.
375.577 -1034.43 0.
408.138 -956.237 0.
303.401 -969.823 0.
322.044 -931.834 0.
217.542 -949.847 0.
199.092 -995.135 0.
180.642 -1040.42 0.
206.705 -1066.61 0.
192.409 -1098.75 0.
178.113 -1130.89 0.
231.498 -1102.88 0.
240.472 -1076.77 0.
249.444 -1050.66 0.
375.966 -1019.15 0.
359.209 -1060.2 0.
1074.46 -794.32 0.
-243.784 -1414.45 0.
-273.494 -1482.51 0.
498.599 -1138.69 0.
615.603 -861.207 0.
732.607 -583.73 0.
522.543 -656.006 0.
407.559 -925.649 0.
292.574 -1195.29 0.
-2.36511 -1248.71 0.
105.245 -1003.81 0.
212.855 -758.914 0.
45.1538 -862.927 0.
19.3828 -925.268 0.
-284.288 -1096.39 0.
-275.645 -1073.24 0.
-267.002 -1050.1 0.
-7.74089 -853.38 0.
92.8668 -616.426 0.
193.474 -379.473 0.
205.732 -232.234 0.
270.19 -81.5313 0.
334.648 69.1701 0.
87.2014 -287.516 0.
-99.3895 -719.819 0.
775.254 -246.224 0.
47.1899 -786.91 0.
-25.9044 -955.654 0.
-173.357 -1063.27 0.
-35.0629 -744.836 0.
103.231 -426.404 0.
-3.89169 -418.507 0.
-108.336 -661.506 0.
-212.781 -904.503 0.
125.835 -806.494 0.
138.37 -776.791 0.
150.905 -747.088 0.
248.86 -814.718 0.
186.78 -959.958 0.
10.1413 -1121.75 0.
88.9015 -935.028 0.
167.662 -748.31 0.
192.363 -709.784 0.
49.2937 -1036.3 0.
-93.7742 -1362.81 0.
-219.138 -1432.49 0.
-112.265 -1181.36 0.
-5.3924 -930.235 0.
26.2638 -1002.91 0.
-69.367 -1225.3 0.
384.19 -1212.25 0.
31.9153 -1382.8 0.
22.8562 -1403.21 0.
187.641 -1328.02 0.
255.771 -1174.03 0.
323.901 -1020.03 0.
146.074 -1056.07 0.
101.39 -1159.64 0.
56.7055 -1263.2 0.
316.624 -1079.19 0.
403.764 -876.306 0.
490.903 -673.424 0.
368.106 -768.513 0.
329.591 -862 0.
240.01 -958.669 0.
270.475 -887.515 0.
300.941 -816.361 0.
-17.7432 -887.566 0.
31.1809 -773.289 0.
80.1054 -659.012 0.
341.333 -552.804 0.
293.939 -661.973 0.
246.546 -771.143 0.
752.115 -597.492 0.
741.634 -626.591 0.
-1160.59 -1466.93 0.
501.946 -750.547 0.
507.917 -743.701 0.
488.987 -708.528 0.
588.441 -488.809 0.
687.897 -269.086 0.
417.592 -291.047 0.
413.521 -303.904 0.
409.451 -316.762 0.
565.571 -275.518 0.
544.39 -326.873 0.
523.21 -378.227 0.
347.185 -690.45 0.
209.003 -1006.13 0.
-3.85012 -1320.29 0.
20.7835 -1262.69 0.
45.4166 -1205.09 0.
72.7558 -1168.82 0.
64.0738 -1193.41 0.
55.3904 -1217.99 0.
170.517 -1161.88 0.
182.318 -1136.85 0.
194.118 -1111.82 0.
392.573 -1015.61 0.
398.62 -1001.41 0.
-174.874 -1225.82 0.
-96.1273 -1109.84 0.
-52.3012 -1009.21 0.
585.9 -748.66 0.
431.77 -1109.56 0.
277.639 -1470.46 0.
113.913 -1537.23 0.
281.578 -1141.99 0.
449.243 -746.747 0.
72.8463 -877.634 0.
22.772 -988.069 0.
-27.3023 -1098.5 0.
-33.4527 -1087.2 0.
-21.6899 -1062.27 0.
-316.888 -1153.43 0.
-245.187 -987.348 0.
-173.486 -821.261 0.
103.693 -625.212 0.
90.0033 -654.019 0.
76.3125 -682.826 0.
66.2168 -611.99 0.
137.026 -448.503 0.
207.836 -285.017 0.
18.4699 -322.155 0.
32.6035 -286.017 0.
296.966 -419.363 0.
82.1802 -741.22 0.
9.50745 -910.099 0.
-462.52 -1155.28 0.
-323.841 -837.289 0.
-185.162 -519.291 0.
152.975 -316.104 0.
49.7386 -560.484 0.
-53.498 -804.864 0.
279.048 -710.253 0.
291.195 -680.402 0.
303.342 -650.552 0.
-104.281 -934.427 0.
-166.259 -1079.44 0.
37.6449 -1078.66 0.
115.487 -890.976 0.
193.329 -703.296 0.
178.249 -688.176 0.
34.5068 -1013.81 0.
-109.234 -1339.43 0.
-78.0725 -1340.05 0.
28.6573 -1088.82 0.
135.387 -837.588 0.
-45.2418 -1002.63 0.
-140.418 -1225.56 0.
-124.544 -1400.28 0.
78.0345 -1331.19 0.
69.1867 -1351.53 0.
99.0722 -1334.7 0.
168.104 -1181.07 0.
237.135 -1027.43 0.
27.8651 -1074.98 0.
-16.4237 -1179.08 0.
-60.7128 -1283.18 0.
305.308 -1052.43 0.
392.645 -849.894 0.
479.982 -647.357 0.
263.102 -781.248 0.
224.052 -874.042 0.
263.231 -919.473 0.
293.84 -847.789 0.
324.45 -776.105 0.
-129.904 -905.086 0.
-81.9265 -790.43 0.
-33.9482 -675.775 0.
99.6759 -625.622 0.
53.7106 -736.675 0.
7.74517 -847.729 0.
1275.91 -340.116 0.
1265.58 -369.385 0.
-1100.97 -1409.27 0.
338.361 -788.32 0.
343.953 -780.655 0.
186.747 -809.93 0.
285.092 -588.755 0.
383.438 -367.578 0.
714.959 -134.908 0.
710.716 -147.143 0.
706.472 -159.378 0.
310.242 -355.464 0.
287.931 -405.76 0.
265.622 -456.055 0.
377.46 -646.835 0.
239.866 -963.103 0.
-80.604 -1319.9 0.
-56.6343 -1261.8 0.
-32.6653 -1203.7 0.
38.1367 -1152.97 0.
27.8798 -1176.11 0.
17.6215 -1199.25 0.
158.747 -1136.36 0.
170.684 -1111.28 0.
182.62 -1086.21 0.
365.061 -995.089 0.
370.756 -980.402 0.
86.4502 -1085.74 0.
70.7071 -1009.97 0.
114.44 -909.178 0.
356.562 -816.013 0.
201.859 -1175.82 0.
47.1559 -1535.62 0.
58.6824 -1532.59 0.
226.601 -1137.11 0.
394.519 -741.637 0.
-53.608 -897.346 0.
-103.606 -1008.15 0.
-153.604 -1118.96 0.
46.5871 -1022.08 0.
58.5681 -996.927 0.
-277.693 -1107.06 0.
-206.494 -940.353 0.
-135.296 -773.648 0.
13.1133 -629.691 0.
-1.0181 -658.061 0.
-15.15 -686.43 0.
102.327 -567.345 0.
173.759 -404.363 0.
245.192 -241.38 0.
-11.2823 -304.033 0.
3.41354 -268.227 0.
330.303 285.773 0.
595.26 457.973 0.
-102.288 -1165.8 0.
-1046.92 -1970.93 0.
-74.0019 303.707 0.
-126.266 186.135 0.
678.479 644.211 0.
306.74 -219.075 0.
263.751 -315.017 0.
950.634 607.312 0.
666.69 -55.9508 0.
654.006 -86.7978 0.
-229.665 -535.97 0.
-604.675 -1413.25 0.
494.864 -20.1153 0.
717.251 496.064 0.
757.208 587.162 0.
438.533 -19.3648 0.
438.006 -19.0061 0.
628.441 426.705 0.
707.758 265.844 0.
593.428 -8.96715 0.
158.708 -1030.12 0.
117.601 -473.973 0.
229.39 -210.158 0.
920.804 -202.165 0.
171.08 -1155.28 0.
699.589 74.3204 0.
834.306 570.877 0.
480.904 -257.838 0.
320.444 -635.408 0.
279.882 -240.038 0.
893.695 1195.75 0.
397.119 42.3616 0.
913.764 413.573 0.
1052.74 739.826 0.
709.547 -59.1945 0.
752.591 596.532 0.
319.54 -422.29 0.
194.662 -1099.84 0.
249.89 -973.201 0.
465.575 -472.433 0.
155.056 2.70101 0.
207.666 128.657 0.
154.9 9.11112 0.
204.833 101.689 0.
-38.6832 -463.615 0.
-480.563 -1491.54 0.
1585.92 -599.043 0.
1949.28 246.036 0.
-8483.46 -3163.32 0.
745.153 523.95 0.
640.001 276.949 0.
118.135 -366.951 0.
178.954 -229.636 0.
40.4246 -557.277 0.
997.405 -11.3928 0.
775.134 -530.418 0.
1210.07 484.067 0.
567.185 754.46 0.
-20.6728 -617.952 0.
-366.31 -1424.35 0.
172.101 -1153.04 0.
980.332 739.099 0.
442.405 87.7004 0.
392.114 -30.8123 0.
327.531 -180.306 0.
223.354 -608.867 0.
200.148 -662.503 0.
602.59 276.297 0.
515.711 -255.188 0.
1030.47 945.26 0.
726.72 234.364 0.
664.642 -207.978 0.
831.394 189.104 0.
-57.7647 -769.056 0.
968.22 790.511 0.
717.79 210.75 0.
646.205 319.243 0.
252.582 -601.472 0.
101.056 -957.707 0.
266.295 -914.617 0.
617.537 -88.3252 0.
338.065 -733.213 0.
320.435 250.089 0.
208.117 -20.1848 0.
-444.855 -1551.44 0.
382.555 -353.479 0.
783.933 588.761 0.
-64.6721 -644.346 0.
475.673 611.941 0.
153.037 -145.387 0.
-20.2361 -492.182 0.
179.025 -26.7496 0.
140.163 -118.12 0.
307.434 -120.874 0.
563.877 484.983 0.
291.995 -142.469 0.
622.516 1227.34 0.
140.668 96.8413 0.
-230.412 -199.154 0.
439.404 -47.3619 0.
330.785 -296.288 0.
-195.981 -720.636 0.
-244.43 -831.267 0.
-292.879 -941.897 0.
-62.508 -820.977 0.
13.5681 -640.431 0.
89.6427 -459.885 0.
480.354 -302.643 0.
435.36 -408.538 0.
390.366 -514.432 0.
-192.076 -743.099 0.
-171.872 -697.564 0.
193.084 -525.66 0.
106.915 -733.437 0.
20.7471 -941.217 0.
-11.6296 -1046.75 0.
20.6895 -976.158 0.
53.0082 -905.566 0.
202.897 -811.652 0.
200.854 -823.113 0.
198.812 -834.575 0.
-56.4553 -994.524 0.
-83.3099 -1055.53 0.
235.756 -968.485 0.
540.8 -597.509 0.
671.639 -294.119 0.
274.098 -336.28 0.
73.4156 -803.691 0.
-127.268 -1271.1 0.
-225.618 -1425.75 0.
-87.9154 -1105.01 0.
49.7869 -784.28 0.
368.433 -654.02 0.
285.236 -845.05 0.
202.039 -1036.08 0.
73.0347 -990.49 0.
147.992 -820.159 0.
79.299 -723.875 0.
96.3074 -686.239 0.
113.316 -648.603 0.
-22.5647 -637.843 0.
51.0582 -467.199 0.
124.681 -296.556 0.
213.952 -266.098 0.
143.804 -423.271 0.
73.6566 -580.444 0.
1571.94 -49.2807 0.
1516.26 -177.213 0.
-2684.63 -2083.39 0.
190.418 -688.975 0.
275.757 -489.649 0.
232.326 -407.092 0.
170.745 -551.483 0.
109.163 -695.874 0.
372.564 -645.133 0.
380.212 -627.136 0.
387.861 -609.14 0.
-164.959 -999.416 0.
-281.479 -1277.51 0.
-397.999 -1555.6 0.
179.301 -1158.1 0.
276.905 -931.067 0.
5.35615 -900.259 0.
-49.8323 -1030.01 0.
-105.02 -1159.77 0.
-77.5183 -1222.27 0.
-86.1464 -1245.39 0.
-94.7747 -1268.52 0.
312.744 -1027 0.
382.613 -863.273 0.
452.483 -699.549 0.
253.319 -817.218 0.
207.578 -917.657 0.
693.104 -783.335 0.
152.585 -807.594 0.
259.941 -552.649 0.
262.119 -431.141 0.
192.273 -598.325 0.
122.426 -765.509 0.
401.06 -709.776 0.
411.773 -682.355 0.
422.485 -654.933 0.
-125.46 -790.896 0.
-53.4335 -629.398 0.
18.5919 -467.898 0.
337.109 -499.381 0.
232.897 -739.859 0.
-333.489 -1141.69 0.
-295.83 -1055.07 0.
-258.172 -968.451 0.
-228.397 -822.8 0.
-93.9371 -510.193 0.
40.5224 -197.585 0.
119.741 -179.823 0.
6.56154 -439.527 0.
-106.618 -699.232 0.
123.975 -547.558 0.
188.904 -398.04 0.
11.3959 -70.9225 0.
530.339 21.1781 0.
421.731 -227.699 0.
207.774 -515.794 0.
160.246 -627.333 0.
112.719 -738.871 0.
-184.353 -839.675 0.
-107.278 -659.787 0.
-30.2038 -479.898 0.
397.83 -305.775 0.
352.791 -411.421 0.
307.753 -517.067 0.
-20.2043 -637.099 0.
-0.467196 -591.302 0.
105.46 -533.401 0.
18.4618 -740.719 0.
-68.536 -948.039 0.
-2.8932 -1012.67 0.
29.2466 -942.14 0.
61.3859 -871.612 0.
164.602 -797.054 0.
162.246 -808.262 0.
159.89 -819.47 0.
25.0492 -928.412 0.
-1.29969 -989.307 0.
-534.706 -1267.85 0.
709.217 -494.917 0.
840.214 -191.289 0.
81.1614 -389.274 0.
-119.198 -856.568 0.
-319.557 -1323.86 0.
-212.147 -1390.11 0.
-74.5296 -1068.71 0.
63.0876 -747.312 0.
283.659 -658.7 0.
201.304 -850.98 0.
118.948 -1043.26 0.
91.2158 -950.326 0.
165.547 -779.744 0.
-245.614 -831.034 0.
-228.372 -793.838 0.
-211.129 -756.642 0.
118.645 -547.215 0.
191.74 -376.874 0.
264.834 -206.532 0.
433.287 -140.909 0.
363.765 -299.358 0.
294.243 -457.807 0.
1270.88 -146.009 0.
1215.89 -274.303 0.
-5403.19 -3215.93 0.
171.426 -664.952 0.
257.311 -466.067 0.
409.697 -298.035 0.
348.574 -443.072 0.
287.45 -588.11 0.
-49.6913 -794.164 0.
-41.8089 -777.264 0.
-33.9265 -760.365 0.
-122.847 -947.475 0.
-238.921 -1226.3 0.
-354.996 -1505.13 0.
211.22 -1112.48 0.
309.231 -886.001 0.
3.03808 -868.2 0.
-51.8352 -998.647 0.
-106.708 -1129.09 0.
-103.431 -1202 0.
-112.435 -1225.3 0.
-121.44 -1248.6 0.
485.174 -920.867 0.
555.188 -758.319 0.
625.203 -595.772 0.
83.8139 -857.759 0.
37.5953 -958.154 0.
534.422 -823.216 0.
5.66138 -841.062 0.
112.89 -585.566 0.
197.53 -428.358 0.
127.84 -595.007 0.
58.1492 -761.657 0.
479.224 -645.579 0.
489.558 -617.268 0.
499.892 -588.957 0.
-110.057 -754.671 0.
-38.4286 -592.755 0.
33.1989 -430.839 0.
377.509 -448.718 0.
274.426 -690.12 0.
-391.691 -1134.03 0.
-354.046 -1047.24 0.
-316.401 -960.447 0.
-291.772 -820.092 0.
-157.7 -507.087 0.
-23.6285 -194.081 0.
-60.3557 -224.92 0.
-173.125 -484.911 0.
-285.893 -744.903 0.
460.476 -374.769 0.
524.651 -224.333 0.
-418.939 -597.571 0.
447.268 -210.344 0.
468.774 -162.696 0.
389.214 -184.593 0.
335.518 -306.377 0.
281.822 -428.159 0.
-55.3621 -643.395 0.
-69.594 -673.466 0.
-83.8255 -703.537 0.
189.929 -559.197 0.
214.639 -499.165 0.
239.348 -439.133 0.
-69.4724 -729.679 0.
-161.882 -951.097 0.
-165.966 -1108.59 0.
-144.23 -1058.34 0.
-122.495 -1008.09 0.
37.4526 -871.319 0.
114.831 -688.068 0.
192.209 -504.818 0.
191.677 -549.467 0.
83.2939 -796.712 0.
-25.0892 -1043.96 0.
77.0918 -971.176 0.
120.168 -868.934 0.
319.962 -697.91 0.
540.195 -759.833 0.
453.315 -954.293 0.
-350.854 -1331.86 0.
-137.018 -829.887 0.
76.8188 -327.914 0.
296.371 -126.67 0.
151.805 -462.514 0.
7.23913 -798.359 0.
219.019 -737.782 0.
268.405 -622.513 0.
317.79 -507.243 0.
252.601 -443.7 0.
299.329 -331.396 0.
-187.955 -465.692 0.
-241.386 -586.804 0.
-294.815 -707.916 0.
275.24 -555.931 0.
243.98 -632.794 0.
212.721 -709.656 0.
166.068 -691.05 0.
232.014 -537.753 0.
297.96 -384.456 0.
1031.31 -126.653 0.
982.22 -244.089 0.
-477.211 -964.164 0.
90.8845 -816.555 0.
38.6704 -937.14 0.
147.2 -930.285 0.
230.628 -731.971 0.
314.056 -533.658 0.
-164.541 -669.83 0.
-185.721 -719.451 0.
-206.9 -769.073 0.
102.19 -645.83 0.
103.094 -641.089 0.
103.998 -636.348 0.
359.147 -603.862 0.
318.536 -696.34 0.
38.5201 -867.55 0.
83.6427 -766.183 0.
128.766 -664.816 0.
185.818 -619.199 0.
153.321 -696.51 0.
120.824 -773.82 0.
462.03 -701.444 0.
410.312 -822.904 0.
358.595 -944.364 0.
8.51867 -894.555 0.
164.177 -536.719 0.
382.238 -158.958 0.
23.2653 -617.491 0.
-134.056 -989.246 0.
-202.354 -1208.63 0.
-109.336 -993.044 0.
-16.3177 -777.456 0.
425.645 -578.538 0.
330.671 -803.487 0.
235.697 -1028.44 0.
-231.312 -1133.87 0.
-115.701 -862.559 0.
-0.0906896 -591.245 0.
404.295 -479.227 0.
357.726 -586.824 0.
-346.746 -929.196 0.
-201.867 -598.44 0.
-56.9867 -267.683 0.
-46.8675 -158.902 0.
-132.215 -369.156 0.
-217.565 -579.412 0.
-253.999 -652.047 0.
-240.797 -624.724 0.
-227.594 -597.4 0.
383.205 -478.209 0.
286.55 -704.588 0.
776.793 -55.8622 0.
410.993 -195.068 0.
432.613 -146.998 0.
116.825 -270.026 0.
63.7989 -392.131 0.
10.7729 -514.236 0.
190.413 -505.495 0.
176.412 -535.93 0.
162.412 -566.366 0.
63.4485 -582.678 0.
89.2665 -523.869 0.
115.084 -465.06 0.
-212.422 -757.431 0.
-304.508 -979.419 0.
-109.202 -1053.45 0.
-87.4873 -1002.94 0.
-65.773 -952.434 0.
5.32199 -853.363 0.
82.8642 -670.303 0.
160.406 -487.243 0.
58.4201 -575.677 0.
-49.4202 -822.85 0.
-157.26 -1070.02 0.
196.824 -886.951 0.
239.701 -783.958 0.
1036.38 -355.891 0.
264.061 -848.724 0.
178.459 -1043.97 0.
-218.159 -1241.91 0.
-3.73084 -739.869 0.
210.697 -237.829 0.
238.03 -122.677 0.
93.1106 -458.267 0.
-51.8082 -793.857 0.
254.157 -692.227 0.
302.901 -576.663 0.
351.644 -461.099 0.
134.024 -462.732 0.
180.879 -350.659 0.
-83.131 -388.85 0.
-136.557 -510.357 0.
-189.983 -631.864 0.
554.276 -406.023 0.
522.925 -483.633 0.
491.575 -561.243 0.
-97.9054 -770.364 0.
-32.4457 -617.085 0.
33.0136 -463.806 0.
780.033 -203.101 0.
730.462 -320.171 0.
-587.377 -979.194 0.
67.4045 -795.169 0.
14.8311 -915.761 0.
33.9795 -950.129 0.
117.407 -752.139 0.
200.833 -554.15 0.
-125.224 -618.299 0.
-145.467 -669.558 0.
-165.71 -720.817 0.
325.357 -517.062 0.
327.256 -513.16 0.
329.154 -509.26 0.
186.808 -645.163 0.
146.564 -738.1 0.
159.427 -783.244 0.
204.956 -682.312 0.
250.485 -581.38 0.
337.104 -523.235 0.
304.062 -600.19 0.
271.02 -677.145 0.
31.3717 -854.642 0.
-20.4034 -976.868 0.
-72.1773 -1099.09 0.
75.9241 -836.203 0.
231.169 -478.599 0.
853.449 76.9185 0.
22.2131 -584.407 0.
-134.812 -956.662 0.
-264.939 -1205.13 0.
-171.735 -989.735 0.
-78.5311 -774.338 0.
191.587 -644.918 0.
96.5327 -869.609 0.
1.47797 -1094.3 0.
-113.816 -1053.36 0.
2.01814 -782.165 0.
117.852 -510.968 0.
498.92 -404.285 0.
452.349 -512.012 0.
-346.377 -897.851 0.
-201.593 -566.865 0.
-56.8084 -235.879 0.
-39.1174 -127.001 0.
-125.143 -336.156 0.
-211.171 -545.312 0.
-89.0128 -549.638 0.
-75.2671 -522.551 0.
-61.5198 -495.465 0.
28.0265 -599.469 0.
-68.613 -825.716 0.
837.78 458.512 0.
28.7169 -951.101 0.
661.707 518.564 0.
2.04404 -1.71345 0.
-200.613 -471.24 0.
13.5581 32.1571 0.
111.981 -1119.93 0.
640.31 114.51 0.
204.09 -900.876 0.
250.501 121.373 0.
342.824 337.895 0.
567.238 862.824 0.
439.034 1054.23 0.
236.825 585.855 0.
144.277 -542.97 0.
398.562 47.9825 0.
223.155 -363.418 0.
619.762 676.571 0.
689.831 838.124 0.
151.498 -421.564 0.
-109.164 -669.332 0.
68.5093 -258.264 0.
311.201 304.871 0.
497.631 -370.066 0.
1092.95 1017.85 0.
710.214 543.454 0.
374.362 -35.7265 0.
273.926 -269.045 0.
-21.1425 -1001.48 0.
-14.3291 -988.659 0.
214.585 -458.324 0.
378.902 341.655 0.
238.929 16.8322 0.
-276.591 -1183.88 0.
774.023 473.243 0.
591.173 43.4626 0.
404.738 -392.554 0.
-7.56519 -532.596 0.
-211.777 -1008.47 0.
394.227 567.37 0.
368.031 506.378 0.
-134.07 -664.949 0.
822.221 -280.323 0.
950.048 13.1984 0.
914.787 -73.7231 0.
-118.693 -283.165 0.
71.1146 157.99 0.
-648.316 -1522.29 0.
708.01 149.373 0.
1155.44 1189.76 0.
-14.9919 735.219 0.
613.845 563.757 0.
82.098 -680.134 0.
-175.392 -1199.37 0.
333.921 -12.5425 0.
493.857 359.694 0.
301.102 344.119 0.
201.092 105.068 0.
247.079 206.865 0.
709.66 -11.2483 0.
479.631 -547.001 0.
813.22 232.219 0.
286.808 -62.5311 0.
49.4867 -616.162 0.
401.329 -412.143 0.
492.252 -207.195 0.
589.594 15.8761 0.
1214.01 1267.85 0.
691.767 52.1964 0.
529.88 -322.336 0.
-807.374 -1968.01 0.
-261.118 -690.196 0.
94.2269 142.859 0.
606.796 293.273 0.
359.763 -276.045 0.
-52.8723 -226.845 0.
646.931 902.824 0.
207.969 -121.847 0.
572.315 903.237 0.
170.006 -41.1991 0.
-65.1701 -594.687 0.
441.529 416.341 0.
483.77 511.17 0.
-81.204 -811.752 0.
636.897 517.471 0.
756.837 794.412 0.
247.498 -398.013 0.
607.642 -295.767 0.
578.886 -358.279 0.
-182.319 -496.215 0.
77.8795 114.623 0.
194.823 391.083 0.
-347.587 -840.222 0.
-265.231 -647.595 0.
140.023 298.418 0.
769.244 1180.65 0.
382.618 285.064 0.
454.819 459.025 0.
-33.5574 -61.0015 0.
226.128 540.891 0.
-128.556 -776.222 0.
-345.757 -884.383 0.
-339.073 -871.873 0.
-86.0597 -731.318 0.
-18.4035 -572.023 0.
49.2528 -412.727 0.
445.559 -188.357 0.
418.93 -250.241 0.
392.3 -312.124 0.
149.583 -346.704 0.
219.734 -180.08 0.
289.885 -13.457 0.
-78.9771 -191.352 0.
-106.47 -250.603 0.
145.695 -197.837 0.
128.809 -239 0.
111.923 -280.161 0.
200.613 -272.037 0.
179.869 -319.54 0.
159.126 -367.042 0.
57.3835 -483.113 0.
0.810503 -616.263 0.
-55.7618 -749.413 0.
378.209 -567.387 0.
399.767 -518.539 0.
159.687 -581.57 0.
209.714 -601.92 0.
178.092 -675.622 0.
-132.309 -881.055 0.
-170.938 -973.498 0.
-209.568 -1065.94 0.
-97.6322 -985.11 0.
-9.73251 -781.2 0.
78.168 -577.288 0.
275.434 -443.869 0.
267.793 -462.657 0.
260.152 -481.445 0.
-185.564 -779.411 0.
-246.999 -924.998 0.
-348.912 -1064.47 0.
-306.29 -962.689 0.
-263.668 -860.909 0.
492.886 -505.035 0.
447.76 -609.822 0.
402.634 -714.608 0.
-257.05 -987.518 0.
-205.885 -872.538 0.
-154.72 -757.558 0.
609.864 -156.202 0.
778.449 235.699 0.
-1328.77 -350.439 0.
379.455 85.4396 0.
226.384 -275.292 0.
76.9255 -558.657 0.
91.2108 -523.98 0.
105.496 -489.302 0.
-40.7961 -588.972 0.
-99.473 -721.46 0.
-158.149 -853.949 0.
47.4103 -721.658 0.
103.874 -582.099 0.
160.34 -442.54 0.
57.6761 -537.225 0.
20.8348 -625.157 0.
311.107 -581.911 0.
253.547 -717.445 0.
195.989 -852.981 0.
132.36 -889.291 0.
221.135 -683.534 0.
309.909 -477.777 0.
22.9592 -529.456 0.
36.9733 -501.872 0.
50.989 -474.289 0.
309.331 -352.873 0.
310.826 -349.761 0.
484.319 -273.89 0.
-26.1878 -475.667 0.
-18.3985 -457.395 0.
177.904 -383.37 0.
138.067 -477.786 0.
98.2304 -572.201 0.
24.7087 -574.996 0.
108.648 -377.313 0.
192.586 -179.629 0.
20.9274 -365.827 0.
-109.23 -669.75 0.
-239.39 -973.673 0.
535.735 -475.847 0.
645.955 -216.181 0.
-74.2817 -353.181 0.
-144.309 -516.649 0.
-214.335 -680.117 0.
-315.685 -774.33 0.
-257.441 -642.334 0.
-199.196 -510.338 0.
-124.489 -479.819 0.
-163.418 -565.139 0.
-202.347 -650.458 0.
-234.609 -650.947 0.
-217.169 -611.121 0.
356.038 -537.912 0.
-826.15 -1058.31 0.
-820.023 -1045.4 0.
207.371 -575.28 0.
274.687 -415.773 0.
342.004 -256.266 0.
383.662 -183.609 0.
357.298 -245.649 0.
330.934 -307.689 0.
287.663 -256.025 0.
358.385 -90.4001 0.
429.106 75.2255 0.
-45.9235 -144.189 0.
-72.6038 -204.356 0.
-16.0947 -232.875 0.
-32.5119 -274.639 0.
-48.9298 -316.402 0.
201.542 -240.081 0.
180.802 -287.287 0.
160.064 -334.494 0.
177.842 -401.682 0.
121.918 -535.417 0.
65.9943 -669.152 0.
353.331 -546.391 0.
376.122 -498.089 0.
-386.81 -785.753 0.
318.042 -523.632 0.
287.415 -597.938 0.
-316.194 -927.4 0.
-353.999 -1020.02 0.
-391.805 -1112.64 0.
29.7395 -899.375 0.
117.605 -695.612 0.
205.471 -491.85 0.
163.191 -462.078 0.
155.493 -480.9 0.
147.794 -499.724 0.
-258.007 -776.903 0.
-319.174 -923.443 0.
-388.13 -1048.95 0.
-346.107 -947.68 0.
-304.084 -846.408 0.
218.212 -591.726 0.
172.69 -696.976 0.
127.168 -802.226 0.
-30.7669 -858.918 0.
19.8199 -743.521 0.
70.4062 -628.124 0.
669.651 -99.3776 0.
837.807 292.278 0.
-2612.64 -869.446 0.
359.094 107.651 0.
206.099 -253.582 0.
63.3264 -530.005 0.
78.0428 -496.186 0.
92.7593 -462.367 0.
45.305 -521.135 0.
-12.7227 -654.804 0.
-70.7499 -788.474 0.
-385.329 -873.473 0.
-327.686 -734.858 0.
-270.038 -596.244 0.
46.9509 -509.62 0.
10.3897 -597.901 0.
306.332 -550.792 0.
249.514 -687.757 0.
192.696 -824.724 0.
-43.3819 -931.037 0.
45.7326 -726.265 0.
134.848 -521.493 0.
305.748 -375.36 0.
319.959 -348.3 0.
334.171 -321.24 0.
296.432 -329.31 0.
297.489 -326.379 0.
-38.9748 -465.157 0.
-108.483 -477.984 0.
-100.471 -460.188 0.
385.666 -261.79 0.
346.209 -356.993 0.
306.752 -452.195 0.
48.1364 -532.221 0.
131.681 -334.324 0.
215.225 -136.427 0.
-254.04 -451.994 0.
-384.305 -755.58 0.
-514.571 -1059.17 0.
559.588 -434.814 0.
670.875 -175.529 0.
-3.35694 -289.103 0.
-71.9765 -453.484 0.
-140.595 -617.865 0.
-291.657 -730.409 0.
-232.838 -598.513 0.
-174.019 -466.618 0.
-330.293 -535.765 0.
-368.958 -621.015 0.
-407.623 -706.264 0.
-155.849 -587.162 0.
-139.053 -547.043 0.
-1024.03 -859.789 0.
-657.32 -628.829 0.
-629.8 -566.806 0.
438.77 -79.147 0.
409.865 -150.862 0.
380.959 -222.576 0.
216.228 -312.321 0.
231.125 -273.339 0.
246.02 -234.356 0.
267.453 -281.348 0.
217.258 -401.431 0.
167.064 -521.514 0.
29.517 -375.43 0.
152.221 -83.0587 0.
5.29618 60.8309 0.
-55.7203 -78.8501 0.
-116.737 -218.53 0.
186.105 -166.254 0.
192.807 -148.423 0.
199.509 -130.592 0.
334.026 -146.306 0.
263.065 -311.341 0.
192.103 -476.377 0.
259.541 -511.055 0.
231.199 -571.804 0.
265.33 -605.767 0.
300.574 -490.166 0.
351.278 -363.855 0.
-124.275 -477.311 0.
-129.534 -485.104 0.
-134.792 -492.897 0.
341.313 -353.174 0.
273.063 -505.789 0.
204.812 -658.403 0.
-33.4805 -694.039 0.
48.1513 -498.77 0.
129.782 -303.502 0.
-56.1625 -246.497 0.
11.9042 -86.388 0.
85.3515 57.3121 0.
79.085 38.0521 0.
72.8192 18.7919 0.
280.57 65.2678 0.
227.977 -59.0695 0.
175.384 -183.407 0.
364.098 -92.8886 0.
417.273 30.6968 0.
470.448 154.282 0.
782.674 149.451 0.
674.372 -100.694 0.
-760.163 -920.246 0.
189.718 -251.097 0.
323.635 65.8637 0.
324.968 241.731 0.
261.516 97.0099 0.
198.064 -47.7107 0.
212.505 -121.722 0.
190.085 -174.17 0.
167.665 -226.618 0.
-358.376 -526.828 0.
-399.478 -624.982 0.
-440.579 -723.137 0.
111.453 -382.648 0.
173.194 -233.982 0.
441.155 -17.3173 0.
401.356 -101.733 0.
361.557 -186.149 0.
99.0957 -439.474 0.
-40.7115 -763.511 0.
-180.518 -1087.55 0.
98.2054 -968.772 0.
204.908 -717.25 0.
311.611 -465.728 0.
215.07 -414.761 0.
251.039 -332.621 0.
566.491 -128.473 0.
-65.428 -586.121 0.
-162.61 -811.671 0.
75.8375 -798.354 0.
183.583 -540.87 0.
291.327 -283.389 0.
219.741 -218.896 0.
207.715 -249.167 0.
195.689 -279.437 0.
-408.31 -622.062 0.
-465.158 -754.362 0.
-522.007 -886.66 0.
415.485 -478.462 0.
424.193 -457.865 0.
-222.619 -696.57 0.
-123.995 -464.738 0.
-25.3699 -232.906 0.
-3.24839 -173.917 0.
-111.811 -426.648 0.
-220.374 -679.38 0.
-302.01 -636.702 0.
-147.848 -277.536 0.
6.31406 81.6291 0.
91.3013 -149.701 0.
-131.184 -664.435 0.
511.821 -168.03 0.
-218.927 -409.74 0.
-191.957 -347.157 0.
238.527 -136.219 0.
209.633 -208.016 0.
180.738 -279.814 0.
41.7765 -353.066 0.
56.9627 -314.387 0.
72.1483 -275.708 0.
134.85 -310.858 0.
83.9433 -430.031 0.
33.0376 -549.204 0.
455.473 -158.843 0.
578.875 133.42 0.
-60.0703 62.4521 0.
-120.72 -77.4748 0.
-181.37 -217.401 0.
97.2271 -171.064 0.
104.799 -153.604 0.
112.369 -136.142 0.
350.92 -107.481 0.
280.648 -272.765 0.
210.375 -438.05 0.
43.5265 -573.364 0.
14.4789 -633.126 0.
413.737 -508.503 0.
148.945 -522.979 0.
199.933 -396.792 0.
83.5022 -359.288 0.
78.0748 -366.617 0.
72.648 -373.946 0.
425.986 -284.481 0.
357.894 -437.717 0.
289.802 -590.952 0.
-125.6 -700.59 0.
-43.9501 -505.514 0.
37.6994 -310.439 0.
-11.9426 -195.013 0.
55.9765 -35.0989 0.
170.957 127.03 0.
164.308 107.457 0.
157.659 87.8834 0.
60.1361 3.94776 0.
6.70529 -120.241 0.
-46.7246 -244.43 0.
326.04 -78.9129 0.
378.833 44.8001 0.
431.625 168.513 0.
733.249 159.272 0.
624.822 -91.135 0.
373.39 -402.379 0.
220.48 -206.319 0.
354.873 110.44 0.
205.069 225.53 0.
142.474 79.7848 0.
79.8798 -65.9604 0.
143.528 -119.931 0.
120.567 -172.554 0.
97.6058 -225.178 0.
-181.067 -418.035 0.
-222.014 -515.995 0.
-262.961 -613.957 0.
194.717 -318.41 0.
257.118 -169.887 0.
216.497 -80.9165 0.
176.517 -165.623 0.
136.536 -250.329 0.
137.382 -390.835 0.
-2.66697 -714.984 0.
-142.716 -1039.13 0.
-43.2669 -999.16 0.
64.1513 -747.914 0.
171.57 -496.668 0.
178.324 -398.197 0.
214.824 -316.375 0.
1571.55 332.84 0.
257.082 -416.009 0.
159.261 -640.308 0.
-303.349 -932.058 0.
-195.058 -675.02 0.
-86.7682 -417.984 0.
312.247 -147.546 0.
301.074 -178.482 0.
289.901 -209.418 0.
-303.973 -544.48 0.
-361.109 -676.538 0.
-418.245 -808.593 0.
117.155 -574.269 0.
125.615 -553.873 0.
-359.136 -725.73 0.
-260.689 -493.65 0.
-162.241 -261.569 0.
110.402 -94.8501 0.
1.68023 -347.164 0.
-107.042 -599.478 0.
89.7468 -436.686 0.
243.973 -77.408 0.
398.199 281.869 0.
174.977 -84.857 0.
-46.5176 -600.967 0.
-114.497 563.174 0.
154.983 -317.128 0.
332.49 96.5818 0.
-10.4649 -326.568 0.
104.172 -50.9162 0.
243.135 278.91 0.
-121.244 -400.239 0.
111.987 150.127 0.
345.166 700.191 0.
646.527 1163.34 0.
292.521 337.024 0.
-243.729 -913.362 0.
836.166 -32.7201 0.
1049.29 463.56 0.
-661.933 -1204.21 0.
-338.091 -442.67 0.
-252.028 -235.295 0.
100.357 25.6775 0.
420.033 766.738 0.
290.107 459.714 0.
176.733 -516.864 0.
-69.8148 -1091.45 0.
255.489 -333.063 0.
-37.8889 -321.365 0.
248.457 351.315 0.
117.402 52.6461 0.
-6.1426 -572.174 0.
-130.742 -866.114 0.
16.2518 -884.213 0.
367.838 -59.3881 0.
581.11 443.329 0.
769.567 387.762 0.
450.916 -351.525 0.
385.604 -500.868 0.
-72.0419 -374.573 0.
-543.361 -1471.72 0.
-263.511 -816.826 0.
395.8 711.941 0.
478.813 906.111 0.
445.323 636.713 0.
97.3395 -172.476 0.
-44.5759 -500.786 0.
-465.06 -765.464 0.
-255.281 -275.833 0.
-155.538 -42.9519 0.
443.102 300.088 0.
340.412 60.4414 0.
361.747 110.375 0.
639.977 67.1949 0.
1029.29 973.997 0.
951.077 748.218 0.
483.258 396.545 0.
544.284 540.315 0.
262.404 615.289 0.
-86.0533 -195.207 0.
154.433 368.519 0.
663.994 1247.12 0.
374.268 573.725 0.
28.152 -231.293 0.
90.5483 -82.4606 0.
165.422 87.0266 0.
327.426 461.483 0.
768.681 886.235 0.
553.099 386.227 0.
-110.117 -380.946 0.
-434.238 -1135.74 0.
117.008 151.858 0.
432.988 261.534 0.
-104.594 -1000.47 0.
-189.992 -1206.01 0.
587.32 772.754 0.
408.173 349.231 0.
817.854 1300.02 0.
335.223 59.6801 0.
514.39 484.362 0.
831.207 -235.97 0.
871.459 429.858 0.
1175.4 1137.6 0.
-397.74 -398.502 0.
-717.214 -1144.75 0.
-443.057 -505.971 0.
500.662 151.439 0.
327.947 -250.29 0.
70.9432 -849.477 0.
-196.679 -463.593 0.
-65.3766 -157.519 0.
-27.7368 -70.9484 0.
203.705 216.339 0.
162.363 122.742 0.
-236.26 -154.797 0.
-522.347 -816.974 0.
-5.98529 391.025 0.
432.234 472.134 0.
504.955 646.274 0.
-169.677 -923.596 0.
642.757 164.995 0.
522.955 -113.586 0.
488.593 -194.993 0.
-105.22 -884.649 0.
-53.4923 -769.513 0.
116.364 -187.859 0.
135.57 -91.1037 0.
177.55 7.00806 0.
24.5357 -13.408 0.
-38.1848 -156.272 0.
-100.906 -299.133 0.
80.636 -274.937 0.
98.4325 -234.014 0.
116.227 -193.091 0.
-17.4636 -294.298 0.
-63.047 -402.738 0.
-108.631 -511.177 0.
433.491 -307.213 0.
425.773 -327.603 0.
-261.353 -614.761 0.
-172.768 -406.248 0.
-84.1857 -197.737 0.
189.997 -38.7388 0.
75.7881 -307.327 0.
-38.4202 -575.917 0.
67.7535 -542.401 0.
145.858 -353.228 0.
223.963 -164.056 0.
-154.872 -422.364 0.
-239.655 -625.725 0.
153.833 -624.343 0.
-134.866 -697.251 0.
-105.286 -634.744 0.
54.0103 -497.782 0.
122.303 -340.246 0.
190.595 -182.711 0.
422.584 8.05518 0.
452.781 75.3164 0.
482.977 142.577 0.
67.5409 -94.6537 0.
2.78 -248.854 0.
-61.9811 -403.054 0.
21.1411 -475.076 0.
-28.1847 -592.119 0.
-238.71 -748.453 0.
-151.814 -544.375 0.
-64.9174 -340.298 0.
-81.9187 -223.091 0.
-58.1382 -168.26 0.
-34.3577 -113.429 0.
130.857 -108.668 0.
43.8362 -314.183 0.
-43.1844 -519.697 0.
438.261 -315.966 0.
460.837 -264.269 0.
-25.9659 -430.785 0.
-11.806 -411.747 0.
-6.81998 -397.69 0.
-248.96 -453.325 0.
-168.403 -258.852 0.
-87.8472 -64.3798 0.
232.993 97.6514 0.
160.93 -74.5393 0.
88.8652 -246.731 0.
72.8846 -322.055 0.
54.8226 -362.143 0.
36.7601 -402.231 0.
156.11 -326.126 0.
170.444 -291.196 0.
-141.452 -403.349 0.
-169.218 -469.883 0.
-196.983 -536.417 0.
12.597 -415.625 0.
117.301 -176.926 0.
222.006 61.7739 0.
472.224 129.566 0.
355.658 -139.157 0.
239.092 -407.878 0.
-85.1593 -668.193 0.
-137.126 -786.365 0.
432.822 -634.443 0.
82.5238 -583.146 0.
193.97 -331.488 0.
-209.951 -398.174 0.
-332.971 -690.599 0.
-455.99 -983.025 0.
-2.65039 -885.968 0.
42.7486 -781.774 0.
88.1478 -677.58 0.
-198.133 -661.536 0.
-106.532 -446.824 0.
-14.9307 -232.111 0.
198.028 -90.3656 0.
214.712 -48.9214 0.
-250.702 -221.162 0.
-272.559 -273.367 0.
-294.417 -325.573 0.
-12.7765 -206.366 0.
24.177 -119.839 0.
61.1307 -33.3121 0.
178.898 -136.25 0.
8.45191 -537.821 0.
-161.995 -939.394 0.
139.901 -661.625 0.
291.564 -314.241 0.
-419.166 -382.238 0.
7.24083 -115.207 0.
49.7602 -16.8555 0.
-83.9477 -28.6223 0.
-145.607 -172.301 0.
-207.268 -315.978 0.
283.062 -153.604 0.
302.283 -113.455 0.
321.501 -73.3046 0.
-47.9053 -277.685 0.
-93.6562 -386.286 0.
-139.407 -494.886 0.
102.703 -416.383 0.
94.9268 -437.359 0.
-58.033 -494.98 0.
31.1447 -286.996 0.
120.321 -79.013 0.
350.94 60.046 0.
236.323 -207.793 0.
121.706 -475.632 0.
-42.1484 -559.043 0.
36.0478 -369.127 0.
114.244 -179.213 0.
-225.404 -422.523 0.
-310.386 -625.431 0.
223.901 -563.781 0.
-207.925 -696.489 0.
-178.485 -633.877 0.
-80.4099 -523.425 0.
-12.5051 -365.847 0.
55.3999 -208.27 0.
216.778 -48.6668 0.
246.174 18.6719 0.
275.569 86.0099 0.
117.286 -41.8822 0.
53.5494 -197.006 0.
-10.1872 -352.131 0.
206.547 -363.493 0.
158.074 -481.155 0.
-335.223 -757.627 0.
-248.102 -553.972 0.
-160.98 -350.317 0.
130.294 -98.0064 0.
154.442 -43.4222 0.
178.59 11.1621 0.
-14.5963 -139.888 0.
-101.354 -345.287 0.
-188.112 -550.686 0.
415.557 -293.332 0.
438.389 -241.887 0.
-172.385 -462.809 0.
-186.885 -454.925 0.
-182.296 -440.634 0.
-296.573 -441.542 0.
-216.097 -247.081 0.
-135.622 -52.6207 0.
332.691 172.131 0.
260.47 0.0953324 0.
188.249 -171.941 0.
193.153 -237.53 0.
174.701 -277.225 0.
156.247 -316.921 0.
57.345 -338.169 0.
70.6597 -301.56 0.
-146.017 -375.412 0.
-174.688 -441.333 0.
-203.36 -507.254 0.
-128.965 -447.553 0.
-25.2183 -208.588 0.
78.5281 30.377 0.
678.432 248.01 0.
561.696 -20.6485 0.
444.961 -289.306 0.
-207.465 -690.159 0.
-258.747 -808.365 0.
489.596 -580.473 0.
-332.337 -729.441 0.
-220.687 -477.679 0.
38.4529 -259.781 0.
-83.6979 -553.045 0.
-205.849 -846.31 0.
-59.1084 -877.888 0.
-13.2321 -773.889 0.
32.6446 -669.891 0.
-81.2918 -581.346 0.
10.6522 -366.875 0.
102.597 -152.404 0.
368.913 15.0888 0.
386.171 55.8028 0.
-217.079 -175.818 0.
-239.192 -227.826 0.
-261.307 -279.833 0.
-182.465 -247.325 0.
-145.11 -160.958 0.
-107.755 -74.5916 0.
-214.669 -272.517 0.
-385.441 -674.219 0.
-556.213 -1075.92 0.
341.893 -546.279 0.
492.677 -198.567 0.
-3.9519 10.15 0.
7.19683 -236.323 0.
-94.1043 -471.004 0.
-275.386 -673.229 0.
-211.419 -519.208 0.
-147.455 -365.189 0.
263.556 -170.19 0.
202.602 -309.929 0.
141.649 -449.669 0.
-156.926 -538.992 0.
-101.568 -407.741 0.
-46.211 -276.491 0.
123.167 -101.218 0.
178.778 34.3942 0.
263.849 149.507 0.
169.967 -68.8255 0.
76.0851 -287.159 0.
183.693 -357.2 0.
191.313 -338.766 0.
198.932 -320.333 0.
-51.7144 -365.562 0.
-0.149519 -250.184 0.
51.416 -134.808 0.
-57.6243 -117.962 0.
-33.4521 -59.3723 0.
870.124 374.772 0.
10.0127 -65.0903 0.
-25.4396 -147.046 0.
-89.4718 -243.701 0.
-118.101 -310.911 0.
-146.729 -378.122 0.
20.9241 -247.356 0.
126.845 -5.22768 0.
232.766 236.901 0.
106.35 182.689 0.
50.1282 53.7523 0.
-6.09532 -75.1843 0.
415.072 -84.778 0.
309.798 -330.24 0.
-357.922 -798.196 0.
-342.384 -758.051 0.
-326.845 -717.905 0.
29.2882 -439.97 0.
181.349 -77.2061 0.
333.409 285.555 0.
87.8881 290.186 0.
64.1167 237.49 0.
40.3453 184.795 0.
504.759 176.71 0.
370.573 -133.288 0.
-146.544 -607.215 0.
-233.339 -449.888 0.
-128.864 -209.961 0.
-150.491 -120.239 0.
-274.544 -410.855 0.
-398.598 -701.472 0.
62.4556 -535.315 0.
181.476 -254.241 0.
300.496 26.832 0.
387.611 200.47 0.
435.419 309.589 0.
483.227 418.709 0.
194.965 159.758 0.
109.74 -41.0816 0.
-91.3129 -259.69 0.
-50.5823 -165.903 0.
-9.85186 -72.1158 0.
-40.4355 -98.2839 0.
-138.207 -327.834 0.
-235.978 -557.384 0.
427.752 -290.687 0.
497.837 -131.059 0.
567.921 28.571 0.
-94.3328 -280.452 0.
-133.026 -365.991 0.
55.3856 -356.802 0.
-238.745 -360.623 0.
-176.649 -211.623 0.
296.852 96.7751 0.
320.279 158.012 0.
343.706 219.249 0.
292.27 183.773 0.
243.371 67.8874 0.
194.472 -47.998 0.
185.395 -143.704 0.
142.924 -244.773 0.
100.452 -345.842 0.
245.834 -140.227 0.
337.17 71.17 0.
-82.8814 28.4186 0.
-154.059 -137.694 0.
-225.235 -303.806 0.
-301.499 -405.325 0.
-267.615 -326.859 0.
-233.731 -248.392 0.
-301.617 -148.13 0.
-204.963 79.5907 0.
-108.308 307.31 0.
688.488 272.895 0.
412.815 -371.569 0.
386.772 210.792 0.
289.005 -83.2484 0.
187.987 -318.051 0.
58.5316 -498.467 0.
123.605 -344.298 0.
188.675 -190.128 0.
68.6434 -221.777 0.
8.66642 -361.588 0.
-51.3109 -501.398 0.
-95.003 -482.768 0.
-39.3948 -351.806 0.
16.2133 -220.845 0.
191.96 -37.8652 0.
248.649 96.4793 0.
203.3 154.394 0.
109.18 -63.9898 0.
15.0613 -282.375 0.
93.8846 -362.371 0.
101.73 -344.157 0.
109.575 -325.943 0.
-115.786 -362.901 0.
-65.0434 -246.046 0.
-14.3005 -129.192 0.
120.963 -13.4072 0.
145.376 44.6826 0.
417.097 208.976 0.
-8.33504 -39.112 0.
-43.9595 -121.412 0.
-244.14 -279.322 0.
-273.533 -346.405 0.
-302.926 -413.488 0.
1.43916 -223.695 0.
107.037 18.3251 0.
212.636 260.346 0.
-164.5 98.2658 0.
-220.092 -31.528 0.
-275.684 -161.322 0.
470.772 -29.6312 0.
366.207 -275.477 0.
-249.843 -719.197 0.
-234.431 -679.092 0.
-219.019 -638.988 0.
-55.1966 -444.127 0.
96.585 -81.6022 0.
248.365 280.921 0.
58.6293 305.835 0.
34.5782 253.385 0.
10.527 200.934 0.
280.458 114.818 0.
147.363 -195.776 0.
325.519 -373.304 0.
-142.318 -378.546 0.
-37.7172 -138.05 0.
-18.3662 -31.1761 0.
-142.122 -322.269 0.
-265.878 -613.362 0.
74.67 -495.594 0.
195.278 -215.888 0.
315.886 63.8181 0.
313.07 200.476 0.
361.544 309.974 0.
410.017 419.471 0.
150.368 172.788 0.
66.0574 -28.3131 0.
-41.8186 -207.426 0.
-0.753221 -113.435 0.
40.3121 -19.4436 0.
-14.842 -53.4784 0.
-111.595 -284.311 0.
-208.348 -515.146 0.
203.541 -354.527 0.
273.448 -195.259 0.
343.355 -35.9893 0.
-88.7046 -246.169 0.
-126.577 -332.207 0.
-1444.91 -967.173 0.
58.9197 -200.877 0.
121.084 -51.3285 0.
316.097 137.021 0.
339.96 198.125 0.
363.824 259.228 0.
120.163 140.895 0.
71.8593 24.8104 0.
23.5561 -91.2747 0.
307.31 -57.9824 0.
265.465 -159.704 0.
223.619 -261.426 0.
-29.141 -226.818 0.
62.3357 -15.73 0.
36.0115 113.644 0.
-34.2346 -53.057 0.
-104.48 -219.759 0.
-228.852 -345.82 0.
-195.439 -266.558 0.
-162.027 -187.294 0.
-235.514 -86.9575 0.
-138.409 140.465 0.
-41.3039 367.887 0.
514.154 230.395 0.
238.439 -413.691 0.
-419.471 -383.958 0.
425.094 -260.591 0.
541.98 14.8823 0.
947.252 964.473 0.
541.014 27.1281 0.
842.653 741.438 0.
126.226 277.137 0.
-191.265 -456.253 0.
21.1297 45.9517 0.
148.169 5.37621 0.
-123.338 -628.237 0.
-231.243 -880.318 0.
294.139 95.4501 0.
373.324 282.712 0.
-350.586 -989.477 0.
214.716 328.507 0.
-13.944 -204.839 0.
87.9556 -190.445 0.
-26.6837 -453.981 0.
-122.998 -676.685 0.
-111.425 -214.892 0.
-208.592 -441.788 0.
-434.044 -969.211 0.
228.394 -64.986 0.
94.9046 -373.439 0.
-708.223 -897.521 0.
-166.535 -346.517 0.
95.1508 270.517 0.
-207.628 141.264 0.
12.9203 659.099 0.
-790.872 -1211.47 0.
-330.333 -930.712 0.
477.533 960.979 0.
-12.8507 -176.463 0.
-282.363 344.721 0.
-309.317 285.256 0.
-57.2644 876.573 0.
651.867 331.693 0.
602.976 212.485 0.
115.288 -35.9605 0.
230.59 232.458 0.
198.549 157.495 0.
193.243 340.044 0.
357.061 721.602 0.
133.955 200.575 0.
-26.1158 178.616 0.
-102.286 11.2615 0.
-158.342 -108.843 0.
-45.1883 -177.336 0.
59.5409 61.995 0.
-2467.22 -323.276 0.
-81.3122 -373.703 0.
30.0208 -117.886 0.
90.242 6.35043 0.
40.2855 -112.614 0.
-120.065 -489.575 0.
13.5335 -638.359 0.
525.932 561.152 0.
435.889 355.318 0.
-184.859 -785.488 0.
29.0763 -280.971 0.
435.981 674.282 0.
-207.296 -565.505 0.
16.594 -36.5307 0.
241.459 389.371 0.
-23.9005 -229.337 0.
-62.1094 -318.201 0.
76.3451 149.529 0.
-88.6715 -234.853 0.
159.825 345.014 0.
-98.0611 -606.677 0.
-531.884 -1622.13 0.
116.94 -110.01 0.
223.811 509.85 0.
567.882 1313.98 0.
67.6229 -77.2144 0.
520.119 331.954 0.
158.152 -500.969 0.
-112.742 -874.185 0.
500.702 562.903 0.
-166.738 -987.58 0.
-234.539 -338.463 0.
207.647 693.311 0.
-104.054 -32.9053 0.
111.008 -714.66 0.
227.645 -446.311 0.
798.705 885.115 0.
-170.655 -6.97379 0.
-318.576 -350.926 0.
22.611 -112.595 0.
58.6982 -22.9833 0.
-75.0635 -330.293 0.
-389.155 -839.485 0.
192.1 514.213 0.
-204.336 -413.399 0.
-427.062 -624.824 0.
-391.924 -545.208 0.
-358.064 -466.967 0.
431.07 423.442 0.
272.731 51.128 0.
-616.143 -271.235 0.
490.632 160.427 0.
407.406 -32.5126 0.
247.117 -215.821 0.
242.637 -223.672 0.
238.156 -231.523 0.
2.50356 -250.359 0.
105.255 -9.7916 0.
208.004 230.777 0.
241.287 127.037 0.
91.7131 -219.419 0.
-57.8603 -565.875 0.
-143.471 -515.702 0.
-81.3749 -362.056 0.
88.2637 -135.845 0.
276.441 304.342 0.
464.617 744.528 0.
500.262 896.698 0.
339.133 527.057 0.
178.005 157.417 0.
93.9701 -14.2382 0.
88.5446 -32.5582 0.
83.1192 -50.8792 0.
136.214 -50.9513 0.
126.557 -73.3007 0.
1077.24 316.909 0.
-239.492 -129.61 0.
-178.777 14.453 0.
-205.93 110.525 0.
-173.737 186.906 0.
-141.542 263.288 0.
252.487 347.929 0.
105.284 15.5358 0.
-41.916 -316.855 0.
-260.722 -459.709 0.
-226.777 -376.343 0.
-192.831 -292.976 0.
-61.1064 -53.5173 0.
36.344 174.042 0.
151.35 369.612 0.
86.0183 212.992 0.
20.6861 56.3703 0.
176.977 -59.6703 0.
30.7253 -410.731 0.
-115.526 -761.794 0.
-236.401 -692.002 0.
-2.51453 -148.574 0.
231.375 394.855 0.
25.7998 392.931 0.
14.9404 364.313 0.
-1074.49 -125.344 0.
-134.417 -117.117 0.
-342.903 -603.949 0.
-213.81 -799.985 0.
-86.2198 -501.118 0.
41.3701 -202.251 0.
248.042 -48.5488 0.
165.96 -233.966 0.
83.8794 -419.382 0.
-34.5428 -444.832 0.
20.1989 -311.52 0.
74.9397 -178.209 0.
-150.459 -310.78 0.
-181.298 -379.223 0.
-215.534 -436.404 0.
-153.665 -293.973 0.
-91.795 -151.544 0.
-135.048 -172.233 0.
-258.266 -457.85 0.
-381.482 -743.468 0.
-130.566 -528.532 0.
69.7737 -59.921 0.
270.115 408.689 0.
310.566 380.611 0.
220.374 174.904 0.
-114.012 -127.972 0.
376.74 -46.6801 0.
310.062 -204.257 0.
-111.522 -451.589 0.
-29.0638 -259.738 0.
53.3947 -67.8866 0.
143.227 9.09562 0.
90.578 -107.249 0.
37.9283 -223.592 0.
168.809 -82.0566 0.
259.312 131.074 0.
349.814 344.205 0.
-99.1847 25.0405 0.
-183.228 -168.909 0.
-103.61 -262.957 0.
-36.7318 -100.446 0.
30.1471 62.0644 0.
157.506 182.325 0.
125.306 101.662 0.
93.1045 20.9985 0.
-220.13 -196.917 0.
-268.576 -309.214 0.
-317.022 -421.51 0.
90.4505 -47.2095 0.
236.194 294.167 0.
-799.456 -317.479 0.
368.767 138.794 0.
286.384 -54.665 0.
26.5082 -279.182 0.
23.411 -286.983 0.
20.3123 -294.784 0.
155.575 -150.199 0.
260.936 89.8509 0.
366.294 329.903 0.
300.651 182.375 0.
151.21 -163.463 0.
1.77002 -509.3 0.
-337.99 -568.951 0.
-276.985 -414.33 0.
190.621 -60.6905 0.
378.807 379.55 0.
566.992 819.789 0.
445.573 901.307 0.
283.947 532.427 0.
122.322 163.548 0.
254.743 87.7254 0.
251.062 69.5949 0.
247.38 51.4637 0.
33.3984 -63.164 0.
24.3344 -85.368 0.
745.884 205.769 0.
-423.106 -178.185 0.
-363.465 -33.2555 0.
-165.188 157.278 0.
-134.918 234.564 0.
-104.649 311.85 0.
301.621 396.863 0.
153.417 64.7375 0.
5.21652 -267.385 0.
213.406 -224.902 0.
247.097 -142.223 0.
280.789 -59.5443 0.
-728.282 -304.282 0.
-629.039 -78.6751 0.
0.512141 335.133 0.
-64.9246 179.273 0.
-130.362 23.413 0.
390.56 62.7665 0.
243.541 -287.75 0.
96.5228 -638.268 0.
-11.2463 -565.033 0.
223.034 -21.2046 0.
457.315 522.626 0.
-163.068 347.596 0.
-172.241 317.66 0.
-420.568 187.692 0.
-316.245 -163.296 0.
-523.955 -650.642 0.
-151.373 -741.971 0.
-23.3236 -443.053 0.
104.726 -144.135 0.
249.011 -14.6661 0.
168.239 -200.847 0.
87.4684 -387.027 0.
-10.2841 -402.129 0.
43.7204 -267.604 0.
97.7238 -133.08 0.
-193.875 -300.103 0.
-224.213 -368.366 0.
-319.644 -448.788 0.
-257.175 -306.799 0.
-194.705 -164.81 0.
-214.792 -171.324 0.
-336.911 -457.518 0.
-459.028 -743.712 0.
-186.262 -518.963 0.
14.0913 -50.1392 0.
214.445 418.683 0.
495.31 488.849 0.
403.98 284.019 0.
235.644 52.696 0.
415.278 0.7306 0.
347.966 -156.512 0.
-306.494 -504.817 0.
-224.091 -312.7 0.
-141.687 -120.582 0.
436.715 164.62 0.
384 49.2681 0.
331.284 -66.0823 0.
-78.3693 -157.307 0.
11.9998 56.2561 0.
102.368 269.818 0.
-10.1121 94.5875 0.
-94.1764 -99.6619 0.
-167.564 -258.793 0.
-100.329 -96.1946 0.
-33.0928 66.403 0.
308.626 278.259 0.
276.717 197.194 0.
244.808 116.129 0.
-178.506 -145.846 0.
-226.619 -257.751 0.
-274.733 -369.655 0.
-60.5831 -83.2799 0.
84.269 260.009 0.
