# vtk DataFile Version 2.0
test grain
ASCII
DATASET UNSTRUCTURED_GRID
POINTS 5000 float
0.499889 0.00100176 0.
0.501888 0.00100167 0.
0.503888 0.0010016 0.
0.505888 0.00100151 0.
0.507889 0.00100137 0.
0.50989 0.00100122 0.
0.511891 0.00100099 0.
0.513891 0.00100064 0.
0.515892 0.00100029 0.
0.517892 0.00100033 0.
0.519893 0.00100058 0.
0.521894 0.00100084 0.
0.523894 0.00100101 0.
0.525894 0.00100116 0.
0.527894 0.00100134 0.
0.529892 0.00100173 0.
0.53189 0.00100212 0.
0.533888 0.0010021 0.
0.535888 0.00100113 0.
0.537888 0.00100016 0.
0.539889 0.00100001 0.
0.541889 0.00100062 0.
0.54389 0.00100123 0.
0.545889 0.00100148 0.
0.547889 0.0010016 0.
0.549888 0.00100171 0.
0.551884 0.00100198 0.
0.553881 0.00100226 0.
0.555877 0.00100242 0.
0.557875 0.00100214 0.
0.559872 0.00100187 0.
0.561868 0.00100186 0.
0.563864 0.00100221 0.
0.565859 0.00100257 0.
0.567855 0.0010021 0.
0.56985 0.00100113 0.
0.571845 0.00100017 0.
0.573837 0.00100123 0.
0.575828 0.00100267 0.
0.577819 0.00100408 0.
0.579806 0.00100473 0.
0.581793 0.00100538 0.
0.583779 0.00100578 0.
0.585761 0.00100553 0.
0.587743 0.00100528 0.
0.589723 0.0010041 0.
0.591699 0.00100208 0.
0.593676 0.00100006 0.
0.595755 0.00100133 0.
0.597876 0.00100379 0.
0.6 0.00100626 0.
0.602124 0.00100377 0.
0.604247 0.00100129 0.
0.606326 0.00100004 0.
0.608303 0.00100199 0.
0.61028 0.00100394 0.
0.61226 0.001005 0.
0.614243 0.00100515 0.
0.616226 0.00100531 0.
0.618211 0.0010053 0.
0.620197 0.00100526 0.
0.622184 0.00100522 0.
0.624172 0.00100444 0.
0.626159 0.00100361 0.
0.628148 0.00100274 0.
0.630144 0.00100161 0.
0.632139 0.00100048 0.
0.634135 0.00100001 0.
0.636134 0.00100064 0.
0.638132 0.00100128 0.
0.64013 0.00100167 0.
0.642129 0.00100189 0.
0.644127 0.0010021 0.
0.646123 0.00100232 0.
0.648118 0.00100255 0.
0.650113 0.00100275 0.
0.652112 0.00100208 0.
0.65411 0.00100142 0.
0.656109 0.00100081 0.
0.658109 0.00100042 0.
0.66011 0.00100002 0.
0.66211 0.00100016 0.
0.664112 0.00100085 0.
0.666113 0.00100154 0.
0.668113 0.00100175 0.
0.670112 0.00100177 0.
0.672111 0.00100179 0.
0.67411 0.00100149 0.
0.67611 0.00100116 0.
0.67811 0.00100091 0.
0.68011 0.00100119 0.
0.68211 0.00100147 0.
0.68411 0.00100164 0.
0.686109 0.00100161 0.
0.688109 0.00100158 0.
0.690108 0.00100153 0.
0.692108 0.0010015 0.
0.694107 0.00100146 0.
0.696108 0.00100132 0.
0.698108 0.00100115 0.
0.499889 0.00300529 0.
0.501889 0.00300502 0.
0.503889 0.0030048 0.
0.505889 0.00300454 0.
0.50789 0.0030041 0.
0.50989 0.00300366 0.
0.511891 0.00300297 0.
0.513891 0.00300193 0.
0.515892 0.00300088 0.
0.517893 0.00300098 0.
0.519893 0.00300175 0.
0.521894 0.00300252 0.
0.523894 0.00300302 0.
0.525893 0.00300347 0.
0.527893 0.00300401 0.
0.529892 0.00300518 0.
0.531891 0.00300635 0.
0.53389 0.0030063 0.
0.535889 0.00300339 0.
0.537887 0.00300048 0.
0.539888 0.00300001 0.
0.54189 0.00300185 0.
0.543893 0.00300368 0.
0.545892 0.00300444 0.
0.54789 0.00300479 0.
0.549889 0.00300513 0.
0.551885 0.00300595 0.
0.553881 0.00300677 0.
0.555877 0.00300726 0.
0.557875 0.00300643 0.
0.559872 0.0030056 0.
0.561869 0.00300557 0.
0.563865 0.00300664 0.
0.565861 0.00300771 0.
0.567857 0.00300628 0.
0.569854 0.0030034 0.
0.57185 0.00300052 0.
0.573842 0.0030037 0.
0.575833 0.003008 0.
0.577824 0.00301225 0.
0.579812 0.00301419 0.
0.581801 0.00301613 0.
0.583788 0.00301733 0.
0.585771 0.00301659 0.
0.587754 0.00301585 0.
0.589737 0.00301227 0.
0.591719 0.00300619 0.
0.593702 0.00300012 0.
0.595776 0.003004 0.
0.597887 0.00301138 0.
0.6 0.00301877 0.
0.602113 0.00301133 0.
0.604226 0.0030039 0.
0.606301 0.00300007 0.
0.608283 0.00300593 0.
0.610265 0.0030118 0.
0.612248 0.00301498 0.
0.614232 0.00301545 0.
0.616216 0.00301591 0.
0.618203 0.0030159 0.
0.620192 0.00301578 0.
0.62218 0.00301567 0.
0.624168 0.00301332 0.
0.626157 0.00301084 0.
0.628146 0.00300822 0.
0.630141 0.00300482 0.
0.632136 0.00300143 0.
0.634132 0.00300002 0.
0.636132 0.00300193 0.
0.638132 0.00300384 0.
0.640131 0.00300501 0.
0.642128 0.00300566 0.
0.644126 0.00300631 0.
0.646122 0.00300695 0.
0.648117 0.00300764 0.
0.650112 0.00300826 0.
0.652109 0.00300626 0.
0.654106 0.00300426 0.
0.656104 0.00300244 0.
0.658108 0.00300125 0.
0.660112 0.00300005 0.
0.662114 0.00300048 0.
0.664114 0.00300256 0.
0.666114 0.00300464 0.
0.668113 0.00300526 0.
0.670111 0.00300532 0.
0.67211 0.00300538 0.
0.674109 0.00300448 0.
0.676109 0.00300348 0.
0.678109 0.00300274 0.
0.680109 0.00300357 0.
0.68211 0.00300441 0.
0.68411 0.00300491 0.
0.68611 0.00300481 0.
0.68811 0.00300471 0.
0.690109 0.00300459 0.
0.692108 0.00300449 0.
0.694107 0.00300439 0.
0.696107 0.00300396 0.
0.698107 0.00300344 0.
0.49989 0.0050088 0.
0.50189 0.00500835 0.
0.50389 0.00500799 0.
0.505891 0.00500758 0.
0.507891 0.00500684 0.
0.509891 0.00500609 0.
0.511891 0.00500495 0.
0.513892 0.00500321 0.
0.515892 0.00500147 0.
0.517893 0.00500162 0.
0.519894 0.00500291 0.
0.521895 0.0050042 0.
0.523894 0.00500503 0.
0.525893 0.00500578 0.
0.527892 0.00500667 0.
0.529892 0.00500862 0.
0.531893 0.00501057 0.
0.533892 0.0050105 0.
0.535889 0.00500566 0.
0.537886 0.00500082 0.
0.539886 0.00500002 0.
0.541891 0.00500308 0.
0.543895 0.00500615 0.
0.545895 0.00500741 0.
0.547892 0.00500798 0.
0.549889 0.00500855 0.
0.551885 0.0050099 0.
0.553881 0.00501128 0.
0.555877 0.00501209 0.
0.557875 0.00501071 0.
0.559872 0.00500932 0.
0.561869 0.00500929 0.
0.563866 0.00501107 0.
0.565862 0.00501285 0.
0.56786 0.00501046 0.
0.569857 0.00500567 0.
0.571855 0.00500087 0.
0.573847 0.00500618 0.
0.575838 0.00501335 0.
0.577828 0.00502041 0.
0.579819 0.00502363 0.
0.581809 0.00502686 0.
0.583797 0.00502882 0.
0.585781 0.0050276 0.
0.587765 0.0050264 0.
0.589751 0.0050204 0.
0.591739 0.00501024 0.
0.593727 0.00500012 0.
0.595796 0.00500672 0.
0.597898 0.00501918 0.
0.600001 0.00503188 0.
0.602103 0.0050191 0.
0.604205 0.00500656 0.
0.606275 0.00500004 0.
0.608262 0.0050098 0.
0.61025 0.00501959 0.
0.612237 0.00502493 0.
0.614222 0.0050257 0.
0.616207 0.00502647 0.
0.618196 0.00502647 0.
0.620186 0.00502628 0.
0.622176 0.0050261 0.
0.624165 0.00502218 0.
0.626154 0.00501806 0.
0.628144 0.0050137 0.
0.630138 0.00500804 0.
0.632132 0.0050024 0.
0.634129 0.00500004 0.
0.636131 0.00500322 0.
0.638132 0.00500639 0.
0.640131 0.00500834 0.
0.642128 0.00500943 0.
0.644126 0.00501052 0.
0.646121 0.00501158 0.
0.648116 0.00501272 0.
0.650112 0.00501377 0.
0.652107 0.00501044 0.
0.654102 0.00500711 0.
0.6561 0.00500406 0.
0.658107 0.00500208 0.
0.660115 0.00500009 0.
0.662118 0.00500081 0.
0.664116 0.00500427 0.
0.666115 0.00500773 0.
0.668113 0.00500875 0.
0.670111 0.00500886 0.
0.672109 0.00500897 0.
0.674108 0.00500746 0.
0.676108 0.00500579 0.
0.678108 0.00500457 0.
0.680109 0.00500596 0.
0.68211 0.00500734 0.
0.68411 0.00500816 0.
0.68611 0.00500799 0.
0.688111 0.00500782 0.
0.69011 0.00500766 0.
0.692108 0.00500749 0.
0.694107 0.00500734 0.
0.696107 0.00500662 0.
0.698107 0.00500575 0.
0.49989 0.00701141 0.
0.501891 0.00701113 0.
0.503892 0.00701101 0.
0.505892 0.00701082 0.
0.507892 0.00701025 0.
0.509892 0.00700968 0.
0.511893 0.00700927 0.
0.513893 0.00700903 0.
0.515893 0.0070088 0.
0.517894 0.00700916 0.
0.519894 0.00700992 0.
0.521895 0.00701069 0.
0.523894 0.00701157 0.
0.525894 0.00701245 0.
0.527893 0.00701336 0.
0.529893 0.00701445 0.
0.531893 0.00701555 0.
0.533893 0.0070163 0.
0.535891 0.00701614 0.
0.53789 0.00701598 0.
0.53989 0.00701574 0.
0.541891 0.0070155 0.
0.543893 0.00701526 0.
0.545892 0.00701523 0.
0.54789 0.00701525 0.
0.549888 0.00701526 0.
0.551886 0.00701621 0.
0.553883 0.0070172 0.
0.555881 0.00701797 0.
0.557878 0.0070179 0.
0.559876 0.00701784 0.
0.561873 0.00701815 0.
0.563871 0.007019 0.
0.565868 0.00701986 0.
0.567865 0.00702016 0.
0.569862 0.00702015 0.
0.57186 0.00702016 0.
0.573852 0.00702446 0.
0.575844 0.00702959 0.
0.577836 0.00703453 0.
0.579829 0.00703564 0.
0.581821 0.00703676 0.
0.583813 0.00703723 0.
0.585804 0.00703616 0.
0.587794 0.00703512 0.
0.589786 0.00702702 0.
0.59178 0.00701225 0.
0.593773 0.00699754 0.
0.595832 0.00701604 0.
0.597916 0.00704727 0.
0.6 0.00707892 0.
0.602085 0.00704727 0.
0.604169 0.00701604 0.
0.606229 0.0069978 0.
0.608222 0.00701269 0.
0.610215 0.00702763 0.
0.612208 0.00703537 0.
0.614198 0.00703582 0.
0.616189 0.00703627 0.
0.618181 0.00703583 0.
0.620174 0.00703509 0.
0.622166 0.00703438 0.
0.624158 0.00703035 0.
0.62615 0.00702612 0.
0.628142 0.00702227 0.
0.630138 0.00702066 0.
0.632133 0.00701906 0.
0.634129 0.00701795 0.
0.636128 0.00701748 0.
0.638127 0.00701702 0.
0.640125 0.00701742 0.
0.642123 0.0070184 0.
0.644121 0.00701938 0.
0.646118 0.00701941 0.
0.648115 0.0070193 0.
0.650112 0.00701917 0.
0.652109 0.00701859 0.
0.654106 0.00701802 0.
0.656105 0.00701789 0.
0.658108 0.0070191 0.
0.660111 0.00702031 0.
0.662113 0.00702036 0.
0.664111 0.00701905 0.
0.66611 0.00701774 0.
0.668109 0.00701634 0.
0.670108 0.00701497 0.
0.672107 0.0070136 0.
0.674107 0.00701227 0.
0.676107 0.00701091 0.
0.678107 0.00700982 0.
0.680107 0.00701031 0.
0.682108 0.0070108 0.
0.684109 0.0070112 0.
0.686109 0.00701141 0.
0.688109 0.00701162 0.
0.690109 0.00701155 0.
0.692107 0.00701129 0.
0.694106 0.00701104 0.
0.696106 0.0070111 0.
0.698106 0.00701123 0.
0.499891 0.0090139 0.
0.501892 0.00901391 0.
0.503893 0.00901403 0.
0.505894 0.00901405 0.
0.507894 0.00901366 0.
0.509894 0.00901327 0.
0.511894 0.00901358 0.
0.513894 0.00901484 0.
0.515895 0.00901611 0.
0.517895 0.00901669 0.
0.519894 0.00901692 0.
0.521894 0.00901716 0.
0.523894 0.00901811 0.
0.525894 0.00901912 0.
0.527894 0.00902004 0.
0.529894 0.00902028 0.
0.531894 0.00902052 0.
0.533894 0.0090221 0.
0.535894 0.00902662 0.
0.537894 0.00903115 0.
0.539893 0.00903146 0.
0.541891 0.00902791 0.
0.54389 0.00902438 0.
0.545889 0.00902306 0.
0.547888 0.00902252 0.
0.549887 0.00902198 0.
0.551886 0.00902252 0.
0.553885 0.00902311 0.
0.555884 0.00902385 0.
0.557882 0.0090251 0.
0.559879 0.00902635 0.
0.561878 0.00902701 0.
0.563876 0.00902693 0.
0.565874 0.00902686 0.
0.567871 0.00902986 0.
0.569867 0.00903464 0.
0.571864 0.00903945 0.
0.573857 0.00904275 0.
0.575851 0.00904583 0.
0.577844 0.00904865 0.
0.579839 0.00904765 0.
0.581834 0.00904665 0.
0.583829 0.00904565 0.
0.585827 0.00904474 0.
0.587824 0.00904384 0.
0.589822 0.00903352 0.
0.591821 0.00901411 0.
0.593819 0.00899478 0.
0.595868 0.00902582 0.
0.597934 0.0090756 0.
0.6 0.00912595 0.
0.602067 0.00907567 0.
0.604134 0.00902596 0.
0.606183 0.0089954 0.
0.608182 0.00901545 0.
0.610181 0.00903555 0.
0.612179 0.00904582 0.
0.614175 0.00904595 0.
0.616172 0.00904608 0.
0.618167 0.00904517 0.
0.620162 0.0090439 0.
0.622157 0.00904265 0.
0.624152 0.00903852 0.
0.626146 0.00903419 0.
0.628141 0.00903083 0.
0.630137 0.00903327 0.
0.632133 0.00903572 0.
0.634129 0.00903585 0.
0.636125 0.00903175 0.
0.638122 0.00902766 0.
0.640119 0.0090265 0.
0.642118 0.00902737 0.
0.644116 0.00902824 0.
0.646115 0.00902725 0.
0.648113 0.00902588 0.
0.650112 0.00902457 0.
0.652111 0.00902674 0.
0.654111 0.00902892 0.
0.65611 0.00903172 0.
0.658109 0.00903611 0.
0.660108 0.00904052 0.
0.662107 0.00903994 0.
0.664106 0.00903385 0.
0.666106 0.00902777 0.
0.668105 0.00902392 0.
0.670105 0.00902108 0.
0.672105 0.00901823 0.
0.674106 0.00901708 0.
0.676106 0.00901603 0.
0.678106 0.00901506 0.
0.680106 0.00901466 0.
0.682107 0.00901425 0.
0.684107 0.00901424 0.
0.686107 0.00901483 0.
0.688108 0.00901542 0.
0.690107 0.00901543 0.
0.692106 0.00901508 0.
0.694105 0.00901473 0.
0.696105 0.00901559 0.
0.698105 0.00901673 0.
0.499893 0.0110166 0.
0.501893 0.0110166 0.
0.503894 0.0110167 0.
0.505895 0.0110168 0.
0.507895 0.0110165 0.
0.509895 0.0110163 0.
0.511895 0.0110169 0.
0.513895 0.0110188 0.
0.515896 0.0110206 0.
0.517895 0.0110212 0.
0.519895 0.0110211 0.
0.521895 0.011021 0.
0.523895 0.011022 0.
0.525895 0.0110231 0.
0.527895 0.0110241 0.
0.529895 0.011024 0.
0.531895 0.011024 0.
0.533895 0.0110259 0.
0.535896 0.0110319 0.
0.537896 0.0110379 0.
0.539895 0.0110385 0.
0.541893 0.0110342 0.
0.543891 0.01103 0.
0.54589 0.0110281 0.
0.547889 0.011027 0.
0.549888 0.011026 0.
0.551888 0.0110264 0.
0.553887 0.011027 0.
0.555887 0.0110278 0.
0.557885 0.0110296 0.
0.559884 0.0110315 0.
0.561883 0.0110325 0.
0.563881 0.0110323 0.
0.56588 0.0110322 0.
0.567877 0.0110359 0.
0.569874 0.0110419 0.
0.571871 0.0110479 0.
0.573867 0.0110509 0.
0.575862 0.0110534 0.
0.577858 0.0110556 0.
0.579855 0.0110532 0.
0.581852 0.0110508 0.
0.583851 0.0110486 0.
0.585853 0.0110468 0.
0.587854 0.0110451 0.
0.589857 0.0110346 0.
0.59186 0.0110158 0.
0.593863 0.0109969 0.
0.595902 0.0110279 0.
0.597952 0.0110756 0.
0.600002 0.0111227 0.
0.602052 0.0110757 0.
0.604101 0.0110283 0.
0.606139 0.0109979 0.
0.608143 0.0110176 0.
0.610146 0.0110373 0.
0.612148 0.0110479 0.
0.614149 0.0110489 0.
0.61615 0.01105 0.
0.618148 0.0110494 0.
0.620146 0.0110483 0.
0.622143 0.0110471 0.
0.62414 0.0110434 0.
0.626137 0.0110394 0.
0.628134 0.0110365 0.
0.630131 0.0110403 0.
0.632128 0.0110441 0.
0.634124 0.0110448 0.
0.636121 0.0110397 0.
0.638117 0.0110346 0.
0.640115 0.0110328 0.
0.642113 0.0110331 0.
0.644112 0.0110335 0.
0.646111 0.0110321 0.
0.648111 0.0110303 0.
0.65011 0.0110286 0.
0.65211 0.0110319 0.
0.65411 0.0110353 0.
0.65611 0.0110391 0.
0.658108 0.0110441 0.
0.660106 0.011049 0.
0.662105 0.0110482 0.
0.664104 0.0110408 0.
0.666104 0.0110334 0.
0.668104 0.0110288 0.
0.670104 0.0110253 0.
0.672104 0.0110219 0.
0.674105 0.0110208 0.
0.676105 0.0110199 0.
0.678105 0.0110189 0.
0.680105 0.0110181 0.
0.682105 0.0110173 0.
0.684105 0.011017 0.
0.686106 0.0110178 0.
0.688106 0.0110186 0.
0.690106 0.0110187 0.
0.692105 0.0110185 0.
0.694105 0.0110182 0.
0.696105 0.0110192 0.
0.698105 0.0110205 0.
0.499895 0.0130194 0.
0.501895 0.0130193 0.
0.503895 0.0130191 0.
0.505895 0.013019 0.
0.507895 0.0130189 0.
0.509895 0.0130187 0.
0.511895 0.0130193 0.
0.513896 0.0130208 0.
0.515896 0.0130224 0.
0.517896 0.0130227 0.
0.519896 0.0130224 0.
0.521896 0.0130221 0.
0.523896 0.0130231 0.
0.525896 0.0130243 0.
0.527896 0.0130254 0.
0.529896 0.0130258 0.
0.531896 0.0130261 0.
0.533896 0.0130276 0.
0.535896 0.0130321 0.
0.537897 0.0130365 0.
0.539897 0.0130372 0.
0.541896 0.0130346 0.
0.543895 0.013032 0.
0.545894 0.0130302 0.
0.547893 0.0130287 0.
0.549893 0.0130272 0.
0.551892 0.0130279 0.
0.553891 0.0130287 0.
0.55589 0.0130297 0.
0.55789 0.0130316 0.
0.559889 0.0130334 0.
0.561888 0.0130347 0.
0.563887 0.0130352 0.
0.565886 0.0130357 0.
0.567884 0.0130383 0.
0.569883 0.0130421 0.
0.571882 0.0130459 0.
0.57388 0.0130493 0.
0.575878 0.0130527 0.
0.577876 0.0130555 0.
0.579876 0.0130525 0.
0.581876 0.0130495 0.
0.583878 0.0130463 0.
0.585882 0.0130427 0.
0.587886 0.0130391 0.
0.589891 0.0130305 0.
0.591898 0.0130173 0.
0.593904 0.0130041 0.
0.595933 0.013022 0.
0.59797 0.0130496 0.
0.600006 0.013077 0.
0.602039 0.01305 0.
0.604071 0.0130227 0.
0.606098 0.0130054 0.
0.608105 0.0130193 0.
0.610111 0.0130331 0.
0.612117 0.0130418 0.
0.614121 0.0130449 0.
0.616125 0.0130481 0.
0.618126 0.0130487 0.
0.620125 0.0130483 0.
0.622125 0.0130478 0.
0.624124 0.0130449 0.
0.626123 0.0130417 0.
0.628121 0.0130393 0.
0.63012 0.013042 0.
0.632118 0.0130446 0.
0.634116 0.013045 0.
0.636115 0.0130415 0.
0.638113 0.013038 0.
0.640112 0.0130362 0.
0.64211 0.0130356 0.
0.644109 0.0130351 0.
0.646108 0.0130339 0.
0.648107 0.0130325 0.
0.650107 0.0130312 0.
0.652106 0.0130342 0.
0.654106 0.0130372 0.
0.656106 0.0130402 0.
0.658105 0.0130433 0.
0.660105 0.0130464 0.
0.662105 0.0130455 0.
0.664105 0.0130401 0.
0.666105 0.0130347 0.
0.668105 0.0130309 0.
0.670104 0.0130277 0.
0.672104 0.0130246 0.
0.674104 0.0130235 0.
0.676104 0.0130225 0.
0.678104 0.0130214 0.
0.680104 0.0130206 0.
0.682104 0.0130198 0.
0.684104 0.0130195 0.
0.686104 0.0130202 0.
0.688105 0.013021 0.
0.690105 0.0130213 0.
0.692105 0.0130214 0.
0.694105 0.0130215 0.
0.696105 0.013022 0.
0.698105 0.0130226 0.
0.499897 0.0150224 0.
0.501896 0.0150219 0.
0.503895 0.0150216 0.
0.505894 0.0150212 0.
0.507895 0.0150212 0.
0.509895 0.0150212 0.
0.511896 0.0150217 0.
0.513896 0.0150229 0.
0.515897 0.0150241 0.
0.517897 0.0150242 0.
0.519897 0.0150237 0.
0.521897 0.0150233 0.
0.523897 0.0150243 0.
0.525897 0.0150256 0.
0.527896 0.0150268 0.
0.529897 0.0150274 0.
0.531897 0.0150281 0.
0.533897 0.0150294 0.
0.535897 0.0150322 0.
0.537898 0.0150351 0.
0.539898 0.015036 0.
0.541899 0.015035 0.
0.543899 0.015034 0.
0.545899 0.0150324 0.
0.547898 0.0150304 0.
0.549897 0.0150284 0.
0.551896 0.0150294 0.
0.553895 0.0150305 0.
0.555894 0.0150316 0.
0.557894 0.0150334 0.
0.559894 0.0150353 0.
0.561894 0.0150368 0.
0.563893 0.015038 0.
0.565892 0.0150392 0.
0.567891 0.0150407 0.
0.569892 0.0150423 0.
0.571892 0.015044 0.
0.573893 0.0150477 0.
0.575894 0.0150518 0.
0.577895 0.0150553 0.
0.579898 0.0150517 0.
0.5819 0.0150481 0.
0.583904 0.0150439 0.
0.585911 0.0150385 0.
0.587918 0.0150332 0.
0.589926 0.0150266 0.
0.591936 0.015019 0.
0.593945 0.0150114 0.
0.595965 0.0150157 0.
0.597987 0.0150237 0.
0.600009 0.0150316 0.
0.602026 0.0150242 0.
0.604042 0.0150168 0.
0.606057 0.015013 0.
0.608067 0.015021 0.
0.610077 0.0150291 0.
0.612085 0.0150357 0.
0.614092 0.0150409 0.
0.616099 0.0150461 0.
0.618103 0.015048 0.
0.620105 0.0150483 0.
0.622107 0.0150486 0.
0.624108 0.0150464 0.
0.626109 0.015044 0.
0.628109 0.0150421 0.
0.630109 0.0150436 0.
0.632108 0.015045 0.
0.634108 0.0150453 0.
0.636109 0.0150432 0.
0.638109 0.0150412 0.
0.640108 0.0150396 0.
0.642107 0.0150381 0.
0.644106 0.0150367 0.
0.646105 0.0150357 0.
0.648104 0.0150347 0.
0.650103 0.0150339 0.
0.652102 0.0150365 0.
0.654102 0.0150391 0.
0.656101 0.0150413 0.
0.658103 0.0150425 0.
0.660104 0.0150438 0.
0.662105 0.0150428 0.
0.664105 0.0150394 0.
0.666106 0.0150359 0.
0.668105 0.0150329 0.
0.670104 0.0150301 0.
0.672103 0.0150274 0.
0.674103 0.0150261 0.
0.676103 0.015025 0.
0.678103 0.015024 0.
0.680103 0.0150231 0.
0.682102 0.0150223 0.
0.684102 0.015022 0.
0.686103 0.0150227 0.
0.688104 0.0150234 0.
0.690104 0.015024 0.
0.692105 0.0150244 0.
0.694105 0.0150248 0.
0.696105 0.0150248 0.
0.698105 0.0150247 0.
0.499898 0.0170254 0.
0.501897 0.0170248 0.
0.503896 0.0170244 0.
0.505895 0.0170239 0.
0.507896 0.0170235 0.
0.509896 0.0170232 0.
0.511897 0.0170233 0.
0.513897 0.0170243 0.
0.515897 0.0170252 0.
0.517898 0.0170255 0.
0.519898 0.0170255 0.
0.521898 0.0170255 0.
0.523898 0.0170262 0.
0.525898 0.0170271 0.
0.527898 0.017028 0.
0.529898 0.017029 0.
0.531899 0.01703 0.
0.533899 0.0170313 0.
0.535899 0.0170333 0.
0.537899 0.0170353 0.
0.539899 0.0170358 0.
0.5419 0.017035 0.
0.543901 0.0170343 0.
0.545901 0.017033 0.
0.5479 0.0170315 0.
0.5499 0.0170301 0.
0.551899 0.017031 0.
0.553898 0.0170321 0.
0.555897 0.0170332 0.
0.557897 0.0170346 0.
0.559897 0.0170361 0.
0.561897 0.0170375 0.
0.563897 0.0170389 0.
0.565896 0.0170403 0.
0.567897 0.0170415 0.
0.569898 0.0170427 0.
0.571899 0.0170439 0.
0.573901 0.0170468 0.
0.575903 0.01705 0.
0.577905 0.0170526 0.
0.579909 0.0170489 0.
0.581913 0.0170452 0.
0.583917 0.017041 0.
0.585924 0.0170355 0.
0.58793 0.01703 0.
0.589938 0.0170236 0.
0.591946 0.0170162 0.
0.593955 0.0170089 0.
0.595971 0.0170115 0.
0.597989 0.017017 0.
0.600008 0.0170226 0.
0.602022 0.0170184 0.
0.604036 0.0170143 0.
0.606049 0.0170126 0.
0.608058 0.0170192 0.
0.610066 0.0170257 0.
0.612074 0.0170318 0.
0.614081 0.0170373 0.
0.616087 0.0170429 0.
0.618092 0.0170454 0.
0.620095 0.0170466 0.
0.622098 0.0170477 0.
0.624099 0.0170457 0.
0.626101 0.0170433 0.
0.628102 0.0170415 0.
0.630103 0.0170428 0.
0.632104 0.0170441 0.
0.634104 0.0170445 0.
0.636104 0.0170432 0.
0.638105 0.0170419 0.
0.640104 0.0170407 0.
0.642104 0.0170394 0.
0.644103 0.0170381 0.
0.646102 0.0170373 0.
0.648101 0.0170364 0.
0.6501 0.0170357 0.
0.6521 0.017038 0.
0.6541 0.0170402 0.
0.6561 0.017042 0.
0.658101 0.0170424 0.
0.660102 0.0170429 0.
0.662103 0.017042 0.
0.664103 0.0170396 0.
0.666104 0.0170372 0.
0.668104 0.0170349 0.
0.670103 0.0170327 0.
0.672103 0.0170305 0.
0.674103 0.0170288 0.
0.676103 0.0170271 0.
0.678102 0.0170255 0.
0.680102 0.0170248 0.
0.682102 0.0170241 0.
0.684102 0.0170238 0.
0.686103 0.0170242 0.
0.688103 0.0170247 0.
0.690103 0.0170252 0.
0.692104 0.0170257 0.
0.694104 0.0170262 0.
0.696105 0.0170268 0.
0.698105 0.0170274 0.
0.499899 0.0190286 0.
0.501898 0.0190278 0.
0.503897 0.0190272 0.
0.505896 0.0190266 0.
0.507897 0.0190259 0.
0.509897 0.0190252 0.
0.511898 0.019025 0.
0.513898 0.0190256 0.
0.515898 0.0190263 0.
0.517899 0.0190268 0.
0.519899 0.0190272 0.
0.5219 0.0190277 0.
0.5239 0.0190282 0.
0.5259 0.0190286 0.
0.5279 0.0190292 0.
0.5299 0.0190306 0.
0.5319 0.019032 0.
0.5339 0.0190333 0.
0.5359 0.0190344 0.
0.5379 0.0190355 0.
0.539901 0.0190357 0.
0.541902 0.0190351 0.
0.543903 0.0190345 0.
0.545903 0.0190336 0.
0.547903 0.0190326 0.
0.549903 0.0190317 0.
0.551902 0.0190327 0.
0.5539 0.0190337 0.
0.5559 0.0190348 0.
0.557899 0.0190358 0.
0.559899 0.0190369 0.
0.5619 0.0190382 0.
0.5639 0.0190397 0.
0.565901 0.0190413 0.
0.567902 0.0190423 0.
0.569904 0.0190431 0.
0.571905 0.0190438 0.
0.573908 0.0190458 0.
0.575912 0.0190481 0.
0.577915 0.0190499 0.
0.57992 0.0190461 0.
0.581925 0.0190424 0.
0.58393 0.019038 0.
0.585936 0.0190324 0.
0.587942 0.0190269 0.
0.589949 0.0190205 0.
0.591957 0.0190135 0.
0.593964 0.0190064 0.
0.595977 0.0190072 0.
0.597992 0.0190104 0.
0.600007 0.0190136 0.
0.602018 0.0190127 0.
0.60403 0.0190118 0.
0.606041 0.0190122 0.
0.608048 0.0190173 0.
0.610055 0.0190224 0.
0.612062 0.0190279 0.
0.614069 0.0190337 0.
0.616076 0.0190396 0.
0.61808 0.0190428 0.
0.620084 0.0190449 0.
0.622088 0.0190469 0.
0.624091 0.019045 0.
0.626094 0.0190427 0.
0.628096 0.0190408 0.
0.630097 0.019042 0.
0.632099 0.0190432 0.
0.6341 0.0190437 0.
0.6361 0.0190432 0.
0.6381 0.0190427 0.
0.6401 0.0190418 0.
0.6421 0.0190407 0.
0.6441 0.0190396 0.
0.646099 0.0190388 0.
0.648098 0.0190381 0.
0.650098 0.0190375 0.
0.652098 0.0190394 0.
0.654098 0.0190414 0.
0.656098 0.0190427 0.
0.658099 0.0190423 0.
0.6601 0.0190419 0.
0.662101 0.0190411 0.
0.664101 0.0190398 0.
0.666102 0.0190385 0.
0.668102 0.0190369 0.
0.670102 0.0190353 0.
0.672102 0.0190337 0.
0.674102 0.0190314 0.
0.676102 0.0190291 0.
0.678102 0.019027 0.
0.680102 0.0190264 0.
0.682102 0.0190259 0.
0.684102 0.0190256 0.
0.686102 0.0190258 0.
0.688102 0.019026 0.
0.690103 0.0190264 0.
0.692103 0.019027 0.
0.694104 0.0190276 0.
0.696104 0.0190288 0.
0.698105 0.0190301 0.
0.4999 0.0210318 0.
0.501899 0.0210307 0.
0.503899 0.0210299 0.
0.505898 0.0210291 0.
0.507898 0.0210282 0.
0.509899 0.0210273 0.
0.511899 0.0210269 0.
0.513899 0.0210273 0.
0.515899 0.0210278 0.
0.5179 0.0210282 0.
0.519901 0.0210288 0.
0.521901 0.0210293 0.
0.523902 0.0210298 0.
0.525902 0.0210301 0.
0.527902 0.0210306 0.
0.529903 0.0210321 0.
0.531903 0.0210335 0.
0.533903 0.0210347 0.
0.535903 0.0210352 0.
0.537903 0.0210357 0.
0.539903 0.0210357 0.
0.541904 0.0210353 0.
0.543905 0.0210349 0.
0.545906 0.0210343 0.
0.547906 0.0210335 0.
0.549906 0.0210327 0.
0.551905 0.0210338 0.
0.553905 0.0210349 0.
0.555904 0.021036 0.
0.557904 0.0210367 0.
0.559904 0.0210375 0.
0.561904 0.0210385 0.
0.563906 0.02104 0.
0.565907 0.0210414 0.
0.567909 0.0210422 0.
0.569911 0.0210426 0.
0.571913 0.0210429 0.
0.573917 0.0210442 0.
0.575921 0.0210457 0.
0.577925 0.0210467 0.
0.57993 0.0210428 0.
0.581935 0.0210388 0.
0.583941 0.0210344 0.
0.585947 0.0210291 0.
0.587952 0.0210238 0.
0.589959 0.0210179 0.
0.591965 0.0210115 0.
0.593972 0.021005 0.
0.595982 0.0210047 0.
0.597994 0.0210063 0.
0.600005 0.0210079 0.
0.602016 0.0210089 0.
0.604026 0.0210098 0.
0.606035 0.0210115 0.
0.608041 0.0210158 0.
0.610047 0.02102 0.
0.612053 0.0210248 0.
0.614059 0.0210304 0.
0.616066 0.021036 0.
0.618071 0.0210397 0.
0.620075 0.0210424 0.
0.622079 0.0210452 0.
0.624083 0.0210436 0.
0.626086 0.0210416 0.
0.628089 0.02104 0.
0.63009 0.021041 0.
0.632092 0.0210421 0.
0.634093 0.0210428 0.
0.636094 0.0210428 0.
0.638094 0.0210428 0.
0.640095 0.0210424 0.
0.642095 0.0210417 0.
0.644096 0.021041 0.
0.646095 0.0210402 0.
0.648095 0.0210394 0.
0.650095 0.0210386 0.
0.652095 0.0210402 0.
0.654095 0.0210418 0.
0.656096 0.0210428 0.
0.658096 0.0210422 0.
0.660097 0.0210416 0.
0.662098 0.0210409 0.
0.664099 0.02104 0.
0.6661 0.021039 0.
0.6681 0.0210378 0.
0.670101 0.0210366 0.
0.672101 0.0210353 0.
0.674101 0.021033 0.
0.676101 0.0210307 0.
0.678101 0.0210286 0.
0.680101 0.0210281 0.
0.682101 0.0210276 0.
0.684101 0.0210274 0.
0.686101 0.0210274 0.
0.688101 0.0210275 0.
0.690101 0.0210279 0.
0.692102 0.0210287 0.
0.694103 0.0210294 0.
0.696103 0.0210309 0.
0.698104 0.0210326 0.
0.499901 0.0230351 0.
0.501901 0.0230338 0.
0.503901 0.0230326 0.
0.505901 0.0230314 0.
0.507901 0.0230304 0.
0.509901 0.0230294 0.
0.511901 0.0230289 0.
0.513901 0.0230292 0.
0.515901 0.0230296 0.
0.517902 0.0230299 0.
0.519902 0.0230301 0.
0.521903 0.0230304 0.
0.523904 0.023031 0.
0.525904 0.0230315 0.
0.527905 0.0230322 0.
0.529905 0.0230334 0.
0.531905 0.0230346 0.
0.533905 0.0230355 0.
0.535906 0.0230357 0.
0.537906 0.0230358 0.
0.539907 0.0230358 0.
0.541908 0.0230357 0.
0.543908 0.0230355 0.
0.545909 0.0230349 0.
0.547909 0.0230341 0.
0.54991 0.0230333 0.
0.55191 0.0230345 0.
0.55391 0.0230358 0.
0.55591 0.0230369 0.
0.55791 0.0230374 0.
0.55991 0.0230379 0.
0.561911 0.0230386 0.
0.563913 0.0230397 0.
0.565915 0.0230408 0.
0.567917 0.0230412 0.
0.569919 0.0230412 0.
0.571921 0.0230412 0.
0.573925 0.0230419 0.
0.57593 0.0230428 0.
0.577934 0.0230431 0.
0.579939 0.0230388 0.
0.581944 0.0230345 0.
0.583949 0.02303 0.
0.585955 0.0230254 0.
0.58796 0.0230209 0.
0.589966 0.0230157 0.
0.591972 0.0230101 0.
0.593977 0.0230045 0.
0.595986 0.0230038 0.
0.597995 0.0230046 0.
0.600004 0.0230054 0.
0.602013 0.0230069 0.
0.604022 0.0230085 0.
0.60603 0.0230106 0.
0.608036 0.0230144 0.
0.610041 0.0230183 0.
0.612047 0.0230226 0.
0.614052 0.0230273 0.
0.616057 0.0230321 0.
0.618062 0.0230359 0.
0.620067 0.0230393 0.
0.622071 0.0230426 0.
0.624075 0.0230415 0.
0.626078 0.0230401 0.
0.628081 0.0230389 0.
0.630082 0.0230399 0.
0.632084 0.0230408 0.
0.634086 0.0230416 0.
0.636086 0.0230421 0.
0.638087 0.0230425 0.
0.640088 0.0230426 0.
0.642089 0.0230425 0.
0.64409 0.0230424 0.
0.646091 0.0230414 0.
0.648091 0.0230402 0.
0.650091 0.023039 0.
0.652092 0.0230402 0.
0.654092 0.0230415 0.
0.656093 0.0230423 0.
0.658093 0.0230421 0.
0.660094 0.0230418 0.
0.662095 0.0230411 0.
0.664096 0.02304 0.
0.666097 0.0230389 0.
0.668097 0.0230378 0.
0.670098 0.0230366 0.
0.672099 0.0230354 0.
0.674099 0.0230336 0.
0.676098 0.0230317 0.
0.678098 0.0230301 0.
0.680098 0.0230297 0.
0.682098 0.0230294 0.
0.684098 0.0230291 0.
0.686099 0.0230291 0.
0.688099 0.0230291 0.
0.6901 0.0230297 0.
0.6921 0.0230306 0.
0.694101 0.0230316 0.
0.696101 0.0230332 0.
0.698102 0.0230349 0.
0.499902 0.0250384 0.
0.501902 0.0250368 0.
0.503903 0.0250352 0.
0.505903 0.0250337 0.
0.507903 0.0250326 0.
0.509903 0.0250315 0.
0.511903 0.025031 0.
0.513903 0.0250312 0.
0.515903 0.0250314 0.
0.517903 0.0250315 0.
0.519904 0.0250315 0.
0.521905 0.0250315 0.
0.523906 0.0250322 0.
0.525907 0.025033 0.
0.527907 0.0250337 0.
0.529908 0.0250347 0.
0.531908 0.0250357 0.
0.533908 0.0250364 0.
0.535909 0.0250362 0.
0.53791 0.025036 0.
0.53991 0.025036 0.
0.541911 0.025036 0.
0.543912 0.0250361 0.
0.545912 0.0250355 0.
0.547913 0.0250347 0.
0.549914 0.0250338 0.
0.551914 0.0250352 0.
0.553915 0.0250366 0.
0.555915 0.0250378 0.
0.557916 0.025038 0.
0.559917 0.0250382 0.
0.561918 0.0250386 0.
0.56392 0.0250394 0.
0.565922 0.0250401 0.
0.567924 0.0250402 0.
0.569927 0.0250399 0.
0.571929 0.0250396 0.
0.573934 0.0250396 0.
0.575939 0.0250398 0.
0.577944 0.0250395 0.
0.579948 0.0250349 0.
0.581953 0.0250302 0.
0.583958 0.0250257 0.
0.585963 0.0250218 0.
0.587968 0.0250179 0.
0.589973 0.0250136 0.
0.591978 0.0250088 0.
0.593983 0.025004 0.
0.59599 0.0250029 0.
0.597996 0.0250029 0.
0.600003 0.0250029 0.
0.602011 0.025005 0.
0.604018 0.0250071 0.
0.606025 0.0250096 0.
0.60803 0.0250131 0.
0.610035 0.0250166 0.
0.61204 0.0250203 0.
0.614045 0.0250243 0.
0.616049 0.0250282 0.
0.618054 0.0250322 0.
0.620058 0.0250361 0.
0.622063 0.02504 0.
0.624067 0.0250395 0.
0.62607 0.0250385 0.
0.628073 0.0250378 0.
0.630075 0.0250387 0.
0.632076 0.0250396 0.
0.634078 0.0250405 0.
0.636079 0.0250413 0.
0.63808 0.0250421 0.
0.640082 0.0250428 0.
0.642083 0.0250433 0.
0.644085 0.0250437 0.
0.646086 0.0250425 0.
0.648087 0.0250409 0.
0.650088 0.0250394 0.
0.652088 0.0250403 0.
0.654089 0.0250412 0.
0.65609 0.0250419 0.
0.65809 0.0250419 0.
0.660091 0.025042 0.
0.662091 0.0250414 0.
0.664092 0.0250401 0.
0.666094 0.0250388 0.
0.668095 0.0250377 0.
0.670096 0.0250366 0.
0.672097 0.0250355 0.
0.674097 0.0250342 0.
0.676096 0.0250328 0.
0.678096 0.0250316 0.
0.680096 0.0250313 0.
0.682096 0.0250311 0.
0.684096 0.0250309 0.
0.686097 0.0250309 0.
0.688097 0.0250308 0.
0.690098 0.0250314 0.
0.692098 0.0250326 0.
0.694099 0.0250337 0.
0.696099 0.0250354 0.
0.6981 0.0250373 0.
0.499904 0.0270401 0.
0.501904 0.0270386 0.
0.503905 0.0270372 0.
0.505905 0.0270358 0.
0.507905 0.0270345 0.
0.509905 0.0270331 0.
0.511905 0.0270323 0.
0.513905 0.0270322 0.
0.515905 0.0270321 0.
0.517906 0.0270319 0.
0.519906 0.0270316 0.
0.521907 0.0270314 0.
0.523908 0.0270324 0.
0.525909 0.0270336 0.
0.527909 0.0270347 0.
0.529909 0.0270351 0.
0.53191 0.0270355 0.
0.53391 0.0270358 0.
0.535911 0.027036 0.
0.537912 0.0270361 0.
0.539913 0.0270362 0.
0.541913 0.0270362 0.
0.543914 0.0270362 0.
0.545915 0.0270357 0.
0.547916 0.027035 0.
0.549917 0.0270342 0.
0.551917 0.0270355 0.
0.553918 0.0270367 0.
0.555919 0.0270378 0.
0.55792 0.0270378 0.
0.559921 0.0270378 0.
0.561922 0.027038 0.
0.563924 0.0270384 0.
0.565927 0.0270388 0.
0.567929 0.0270385 0.
0.569932 0.0270377 0.
0.571934 0.027037 0.
0.573939 0.0270367 0.
0.575944 0.0270364 0.
0.577948 0.0270359 0.
0.579953 0.0270321 0.
0.581957 0.0270283 0.
0.583962 0.0270243 0.
0.585966 0.02702 0.
0.587971 0.0270157 0.
0.589976 0.0270118 0.
0.59198 0.0270082 0.
0.593985 0.0270045 0.
0.595991 0.0270036 0.
0.597996 0.0270034 0.
0.600002 0.0270033 0.
0.602009 0.027005 0.
0.604016 0.0270066 0.
0.606022 0.0270087 0.
0.608027 0.027012 0.
0.610031 0.0270154 0.
0.612036 0.0270189 0.
0.61404 0.0270226 0.
0.616045 0.0270263 0.
0.618049 0.0270301 0.
0.620053 0.0270338 0.
0.622058 0.0270376 0.
0.624061 0.0270374 0.
0.626065 0.0270368 0.
0.628068 0.0270364 0.
0.63007 0.0270375 0.
0.632072 0.0270386 0.
0.634074 0.0270396 0.
0.636076 0.0270404 0.
0.638078 0.0270412 0.
0.640079 0.0270417 0.
0.642081 0.0270421 0.
0.644082 0.0270425 0.
0.646083 0.0270416 0.
0.648084 0.0270404 0.
0.650085 0.0270393 0.
0.652086 0.0270403 0.
0.654087 0.0270413 0.
0.656088 0.027042 0.
0.658088 0.0270421 0.
0.660089 0.0270422 0.
0.66209 0.0270416 0.
0.664091 0.0270403 0.
0.666092 0.0270389 0.
0.668093 0.0270379 0.
0.670094 0.027037 0.
0.672095 0.0270361 0.
0.674095 0.027035 0.
0.676095 0.0270338 0.
0.678095 0.0270327 0.
0.680095 0.0270325 0.
0.682095 0.0270323 0.
0.684095 0.0270323 0.
0.686096 0.0270328 0.
0.688096 0.0270332 0.
0.690096 0.0270338 0.
0.692096 0.0270346 0.
0.694096 0.0270354 0.
0.696097 0.0270371 0.
0.698098 0.027039 0.
0.499906 0.0290419 0.
0.501906 0.0290404 0.
0.503906 0.0290392 0.
0.505907 0.0290379 0.
0.507907 0.0290363 0.
0.509907 0.0290347 0.
0.511907 0.0290336 0.
0.513907 0.0290333 0.
0.515908 0.0290329 0.
0.517908 0.0290324 0.
0.519909 0.0290318 0.
0.521909 0.0290312 0.
0.52391 0.0290325 0.
0.52591 0.0290342 0.
0.527911 0.0290356 0.
0.529911 0.0290355 0.
0.531911 0.0290353 0.
0.533912 0.0290353 0.
0.535913 0.0290357 0.
0.537914 0.0290361 0.
0.539915 0.0290363 0.
0.541916 0.0290363 0.
0.543917 0.0290364 0.
0.545918 0.0290359 0.
0.547918 0.0290353 0.
0.549919 0.0290346 0.
0.55192 0.0290357 0.
0.553921 0.0290369 0.
0.555922 0.0290377 0.
0.557924 0.0290375 0.
0.559925 0.0290373 0.
0.561927 0.0290373 0.
0.563929 0.0290374 0.
0.565931 0.0290376 0.
0.567934 0.0290369 0.
0.569937 0.0290356 0.
0.571939 0.0290344 0.
0.573944 0.0290337 0.
0.575949 0.0290331 0.
0.577953 0.0290323 0.
0.579957 0.0290294 0.
0.581962 0.0290264 0.
0.583966 0.029023 0.
0.58597 0.0290182 0.
0.587974 0.0290135 0.
0.589978 0.02901 0.
0.591982 0.0290075 0.
0.593987 0.029005 0.
0.595992 0.0290043 0.
0.597997 0.029004 0.
0.600001 0.0290037 0.
0.602008 0.0290049 0.
0.604014 0.0290061 0.
0.606019 0.0290078 0.
0.608023 0.0290109 0.
0.610027 0.0290141 0.
0.612031 0.0290174 0.
0.614036 0.0290209 0.
0.61604 0.0290245 0.
0.618044 0.029028 0.
0.620049 0.0290316 0.
0.622053 0.0290351 0.
0.624056 0.0290352 0.
0.626059 0.029035 0.
0.628063 0.0290349 0.
0.630065 0.0290362 0.
0.632067 0.0290375 0.
0.63407 0.0290387 0.
0.636072 0.0290394 0.
0.638075 0.0290402 0.
0.640077 0.0290407 0.
0.642078 0.029041 0.
0.644079 0.0290413 0.
0.646081 0.0290407 0.
0.648082 0.0290399 0.
0.650083 0.0290392 0.
0.652084 0.0290403 0.
0.654085 0.0290414 0.
0.656086 0.0290422 0.
0.658087 0.0290423 0.
0.660087 0.0290424 0.
0.662088 0.0290418 0.
0.664089 0.0290404 0.
0.666091 0.029039 0.
0.668091 0.0290382 0.
0.670092 0.0290375 0.
0.672093 0.0290368 0.
0.674093 0.0290358 0.
0.676093 0.0290348 0.
0.678093 0.0290339 0.
0.680094 0.0290337 0.
0.682094 0.0290335 0.
0.684095 0.0290337 0.
0.686095 0.0290347 0.
0.688095 0.0290356 0.
0.690095 0.0290362 0.
0.692094 0.0290366 0.
0.694094 0.029037 0.
0.696095 0.0290387 0.
0.698096 0.0290407 0.
0.499908 0.0310441 0.
0.501908 0.0310424 0.
0.503908 0.0310409 0.
0.505909 0.0310394 0.
0.507909 0.0310378 0.
0.509909 0.0310362 0.
0.511909 0.031035 0.
0.51391 0.0310345 0.
0.51591 0.031034 0.
0.517911 0.0310333 0.
0.519911 0.0310325 0.
0.521912 0.0310317 0.
0.523912 0.0310331 0.
0.525913 0.0310347 0.
0.527913 0.0310362 0.
0.529913 0.0310357 0.
0.531914 0.0310352 0.
0.533914 0.0310351 0.
0.535915 0.0310356 0.
0.537917 0.0310362 0.
0.539917 0.0310364 0.
0.541918 0.0310363 0.
0.543919 0.0310362 0.
0.54592 0.0310358 0.
0.547921 0.0310353 0.
0.549922 0.0310348 0.
0.551923 0.0310358 0.
0.553925 0.0310368 0.
0.555926 0.0310376 0.
0.557927 0.0310371 0.
0.559929 0.0310365 0.
0.561931 0.0310363 0.
0.563934 0.0310363 0.
0.565936 0.0310364 0.
0.567938 0.0310354 0.
0.569941 0.031034 0.
0.571944 0.0310325 0.
0.573948 0.0310314 0.
0.575953 0.0310303 0.
0.577957 0.0310292 0.
0.579961 0.0310269 0.
0.581965 0.0310247 0.
0.583969 0.0310216 0.
0.585973 0.031017 0.
0.587976 0.0310123 0.
0.58998 0.031009 0.
0.591984 0.0310069 0.
0.593988 0.0310047 0.
0.595992 0.0310041 0.
0.597996 0.0310039 0.
0.600001 0.0310037 0.
0.602007 0.0310047 0.
0.604012 0.0310056 0.
0.606017 0.031007 0.
0.608021 0.03101 0.
0.610024 0.031013 0.
0.612028 0.0310162 0.
0.614032 0.0310196 0.
0.616036 0.031023 0.
0.61804 0.0310263 0.
0.620044 0.0310295 0.
0.622048 0.0310327 0.
0.624051 0.0310331 0.
0.626054 0.0310331 0.
0.628058 0.0310334 0.
0.63006 0.0310348 0.
0.632063 0.0310362 0.
0.634066 0.0310374 0.
0.636068 0.0310382 0.
0.638071 0.0310391 0.
0.640073 0.0310396 0.
0.642074 0.0310399 0.
0.644076 0.0310403 0.
0.646077 0.0310399 0.
0.648078 0.0310394 0.
0.650079 0.0310389 0.
0.65208 0.03104 0.
0.654081 0.0310411 0.
0.656082 0.031042 0.
0.658083 0.0310421 0.
0.660084 0.0310422 0.
0.662085 0.0310416 0.
0.664087 0.0310404 0.
0.666088 0.0310392 0.
0.668089 0.0310385 0.
0.67009 0.0310381 0.
0.672091 0.0310376 0.
0.674091 0.0310369 0.
0.676091 0.0310361 0.
0.678091 0.0310354 0.
0.680092 0.0310351 0.
0.682092 0.0310349 0.
0.684093 0.0310351 0.
0.686093 0.0310363 0.
0.688093 0.0310374 0.
0.690093 0.0310382 0.
0.692092 0.0310388 0.
0.694092 0.0310394 0.
0.696092 0.031041 0.
0.698093 0.0310429 0.
0.49991 0.0330468 0.
0.501911 0.0330445 0.
0.503911 0.0330424 0.
0.505911 0.0330404 0.
0.507911 0.033039 0.
0.509911 0.0330375 0.
0.511911 0.0330365 0.
0.513912 0.0330359 0.
0.515913 0.0330354 0.
0.517913 0.0330346 0.
0.519914 0.0330338 0.
0.521914 0.0330329 0.
0.523915 0.0330339 0.
0.525915 0.0330352 0.
0.527915 0.0330363 0.
0.529916 0.0330358 0.
0.531917 0.0330353 0.
0.533918 0.0330352 0.
0.535918 0.0330357 0.
0.537919 0.0330362 0.
0.53992 0.0330362 0.
0.541921 0.0330359 0.
0.543922 0.0330356 0.
0.545923 0.0330353 0.
0.547925 0.033035 0.
0.549926 0.0330347 0.
0.551927 0.0330357 0.
0.553928 0.0330366 0.
0.55593 0.0330373 0.
0.557932 0.0330363 0.
0.559934 0.0330354 0.
0.561936 0.033035 0.
0.563938 0.0330351 0.
0.565941 0.0330352 0.
0.567943 0.0330343 0.
0.569946 0.0330328 0.
0.571948 0.0330314 0.
0.573952 0.0330298 0.
0.575957 0.0330282 0.
0.577961 0.0330266 0.
0.579965 0.0330248 0.
0.581968 0.0330229 0.
0.583972 0.0330204 0.
0.585975 0.0330163 0.
0.587978 0.0330122 0.
0.589981 0.0330089 0.
0.591984 0.0330062 0.
0.593987 0.0330036 0.
0.595992 0.0330031 0.
0.597996 0.0330032 0.
0.600001 0.0330034 0.
0.602006 0.0330043 0.
0.604011 0.0330052 0.
0.606016 0.0330065 0.
0.608019 0.0330094 0.
0.610022 0.0330122 0.
0.612026 0.0330153 0.
0.614029 0.0330186 0.
0.616032 0.0330219 0.
0.618036 0.0330248 0.
0.620039 0.0330276 0.
0.622043 0.0330303 0.
0.624046 0.0330309 0.
0.62605 0.0330313 0.
0.628053 0.0330318 0.
0.630056 0.0330332 0.
0.632058 0.0330347 0.
0.634061 0.0330359 0.
0.636064 0.0330368 0.
0.638066 0.0330377 0.
0.640068 0.0330384 0.
0.642069 0.0330389 0.
0.644071 0.0330394 0.
0.646072 0.0330392 0.
0.648074 0.0330387 0.
0.650075 0.0330383 0.
0.652076 0.0330394 0.
0.654076 0.0330406 0.
0.656077 0.0330414 0.
0.658078 0.0330415 0.
0.660079 0.0330416 0.
0.662081 0.0330412 0.
0.664082 0.0330403 0.
0.666084 0.0330395 0.
0.668085 0.033039 0.
0.670086 0.0330388 0.
0.672087 0.0330386 0.
0.674088 0.0330381 0.
0.676088 0.0330376 0.
0.678088 0.0330371 0.
0.680089 0.0330367 0.
0.682089 0.0330364 0.
0.68409 0.0330366 0.
0.68609 0.0330376 0.
0.688089 0.0330386 0.
0.69009 0.0330398 0.
0.69209 0.033041 0.
0.69409 0.0330423 0.
0.69609 0.0330438 0.
0.698089 0.0330453 0.
0.499912 0.0350495 0.
0.501913 0.0350466 0.
0.503913 0.0350439 0.
0.505913 0.0350414 0.
0.507913 0.0350401 0.
0.509913 0.0350389 0.
0.511914 0.0350379 0.
0.513914 0.0350373 0.
0.515915 0.0350367 0.
0.517916 0.035036 0.
0.519916 0.035035 0.
0.521917 0.035034 0.
0.523917 0.0350347 0.
0.525917 0.0350356 0.
0.527918 0.0350364 0.
0.529919 0.0350359 0.
0.53192 0.0350355 0.
0.533921 0.0350353 0.
0.535921 0.0350357 0.
0.537922 0.0350362 0.
0.539922 0.0350361 0.
0.541924 0.0350356 0.
0.543925 0.035035 0.
0.545926 0.0350348 0.
0.547928 0.0350347 0.
0.549929 0.0350346 0.
0.55193 0.0350355 0.
0.553932 0.0350365 0.
0.555933 0.0350369 0.
0.557936 0.0350356 0.
0.559938 0.0350343 0.
0.56194 0.0350337 0.
0.563943 0.0350338 0.
0.565945 0.035034 0.
0.567948 0.0350331 0.
0.56995 0.0350316 0.
0.571953 0.0350302 0.
0.573956 0.0350282 0.
0.57596 0.0350261 0.
0.577964 0.035024 0.
0.579968 0.0350226 0.
0.581971 0.0350212 0.
0.583975 0.0350192 0.
0.585977 0.0350156 0.
0.58798 0.035012 0.
0.589983 0.0350087 0.
0.591985 0.0350056 0.
0.593987 0.0350025 0.
0.595991 0.0350021 0.
0.597996 0.0350025 0.
0.600001 0.035003 0.
0.602006 0.0350039 0.
0.60401 0.0350047 0.
0.606014 0.035006 0.
0.608018 0.0350087 0.
0.610021 0.0350114 0.
0.612023 0.0350144 0.
0.614026 0.0350176 0.
0.616028 0.0350208 0.
0.618031 0.0350233 0.
0.620035 0.0350256 0.
0.622038 0.0350279 0.
0.624042 0.0350288 0.
0.626045 0.0350294 0.
0.628048 0.0350302 0.
0.630051 0.0350316 0.
0.632054 0.0350331 0.
0.634056 0.0350344 0.
0.636059 0.0350354 0.
0.638062 0.0350364 0.
0.640063 0.0350372 0.
0.642065 0.0350379 0.
0.644066 0.0350386 0.
0.646068 0.0350385 0.
0.648069 0.0350381 0.
0.650071 0.0350378 0.
0.652071 0.0350389 0.
0.654071 0.03504 0.
0.656072 0.0350408 0.
0.658073 0.0350409 0.
0.660075 0.035041 0.
0.662076 0.0350408 0.
0.664078 0.0350402 0.
0.66608 0.0350397 0.
0.668082 0.0350395 0.
0.670083 0.0350396 0.
0.672084 0.0350396 0.
0.674085 0.0350394 0.
0.676085 0.0350391 0.
0.678085 0.0350388 0.
0.680086 0.0350383 0.
0.682086 0.0350379 0.
0.684087 0.035038 0.
0.686086 0.0350389 0.
0.688086 0.0350399 0.
0.690086 0.0350414 0.
0.692087 0.0350433 0.
0.694088 0.0350452 0.
0.696087 0.0350465 0.
0.698086 0.0350478 0.
0.499916 0.0370497 0.
0.501916 0.0370473 0.
0.503916 0.0370449 0.
0.505916 0.0370426 0.
0.507916 0.0370412 0.
0.509916 0.0370397 0.
0.511917 0.0370386 0.
0.513917 0.0370381 0.
0.515918 0.0370375 0.
0.517918 0.0370367 0.
0.519919 0.0370356 0.
0.521919 0.0370345 0.
0.52392 0.0370351 0.
0.52592 0.0370359 0.
0.527921 0.0370367 0.
0.529921 0.0370363 0.
0.531922 0.0370359 0.
0.533923 0.0370357 0.
0.535924 0.0370359 0.
0.537925 0.0370362 0.
0.539926 0.0370359 0.
0.541927 0.0370353 0.
0.543928 0.0370346 0.
0.545929 0.0370344 0.
0.54793 0.0370344 0.
0.549932 0.0370344 0.
0.551933 0.037035 0.
0.553935 0.0370355 0.
0.555937 0.0370356 0.
0.557939 0.0370342 0.
0.55994 0.0370329 0.
0.561943 0.0370321 0.
0.563945 0.0370319 0.
0.565948 0.0370317 0.
0.56795 0.0370307 0.
0.569953 0.0370292 0.
0.571955 0.0370277 0.
0.573959 0.037026 0.
0.575963 0.0370243 0.
0.577967 0.0370225 0.
0.579971 0.0370211 0.
0.581974 0.0370198 0.
0.583977 0.0370178 0.
0.58598 0.0370146 0.
0.587982 0.0370114 0.
0.589985 0.0370084 0.
0.591987 0.0370055 0.
0.593989 0.0370027 0.
0.595993 0.0370021 0.
0.597996 0.0370022 0.
0.6 0.0370022 0.
0.602004 0.0370034 0.
0.604009 0.0370045 0.
0.606013 0.0370059 0.
0.608015 0.0370082 0.
0.610017 0.0370106 0.
0.61202 0.0370133 0.
0.614023 0.0370164 0.
0.616026 0.0370195 0.
0.618029 0.0370218 0.
0.620032 0.0370237 0.
0.622036 0.0370256 0.
0.624039 0.0370267 0.
0.626042 0.0370277 0.
0.628046 0.0370288 0.
0.630049 0.0370303 0.
0.632051 0.0370319 0.
0.634054 0.0370332 0.
0.636056 0.0370344 0.
0.638058 0.0370355 0.
0.64006 0.0370364 0.
0.642062 0.0370372 0.
0.644064 0.037038 0.
0.646065 0.0370382 0.
0.648067 0.0370382 0.
0.650068 0.0370381 0.
0.652069 0.0370387 0.
0.65407 0.0370392 0.
0.65607 0.0370397 0.
0.658072 0.03704 0.
0.660074 0.0370402 0.
0.662076 0.0370401 0.
0.664077 0.0370396 0.
0.666079 0.0370391 0.
0.66808 0.0370393 0.
0.670081 0.0370399 0.
0.672082 0.0370405 0.
0.674082 0.0370399 0.
0.676082 0.0370392 0.
0.678083 0.0370386 0.
0.680083 0.0370387 0.
0.682083 0.0370388 0.
0.684084 0.0370392 0.
0.686084 0.0370401 0.
0.688084 0.0370411 0.
0.690084 0.0370425 0.
0.692085 0.0370442 0.
0.694086 0.037046 0.
0.696085 0.0370475 0.
0.698084 0.037049 0.
0.499919 0.0390499 0.
0.501919 0.039048 0.
0.503919 0.0390459 0.
0.505919 0.0390439 0.
0.507919 0.0390422 0.
0.509919 0.0390405 0.
0.51192 0.0390393 0.
0.51392 0.0390388 0.
0.51592 0.0390383 0.
0.51792 0.0390374 0.
0.519921 0.0390362 0.
0.521922 0.0390349 0.
0.523922 0.0390354 0.
0.525923 0.0390362 0.
0.527924 0.0390369 0.
0.529924 0.0390366 0.
0.531924 0.0390363 0.
0.533925 0.0390361 0.
0.535926 0.0390361 0.
0.537928 0.0390361 0.
0.539929 0.0390358 0.
0.54193 0.039035 0.
0.543931 0.0390342 0.
0.545932 0.0390341 0.
0.547933 0.0390342 0.
0.549934 0.0390343 0.
0.551936 0.0390344 0.
0.553938 0.0390345 0.
0.55594 0.0390342 0.
0.557941 0.0390328 0.
0.559943 0.0390315 0.
0.561945 0.0390305 0.
0.563947 0.03903 0.
0.56595 0.0390294 0.
0.567953 0.0390283 0.
0.569955 0.0390268 0.
0.571958 0.0390252 0.
0.573962 0.0390238 0.
0.575966 0.0390225 0.
0.57797 0.039021 0.
0.579973 0.0390197 0.
0.581976 0.0390183 0.
0.583979 0.0390165 0.
0.585982 0.0390137 0.
0.587984 0.0390108 0.
0.589987 0.0390081 0.
0.591989 0.0390055 0.
0.593991 0.0390029 0.
0.595994 0.0390021 0.
0.597996 0.0390018 0.
0.599999 0.0390015 0.
0.602003 0.0390029 0.
0.604007 0.0390043 0.
0.606011 0.0390058 0.
0.608012 0.0390078 0.
0.610014 0.0390098 0.
0.612017 0.0390122 0.
0.61402 0.0390153 0.
0.616023 0.0390183 0.
0.618026 0.0390203 0.
0.620029 0.0390217 0.
0.622033 0.0390232 0.
0.624036 0.0390246 0.
0.62604 0.039026 0.
0.628043 0.0390274 0.
0.630046 0.039029 0.
0.632049 0.0390306 0.
0.634051 0.0390321 0.
0.636053 0.0390333 0.
0.638055 0.0390345 0.
0.640057 0.0390356 0.
0.642059 0.0390366 0.
0.644061 0.0390375 0.
0.646063 0.0390379 0.
0.648064 0.0390382 0.
0.650065 0.0390384 0.
0.652067 0.0390384 0.
0.654068 0.0390384 0.
0.656069 0.0390385 0.
0.658071 0.039039 0.
0.660073 0.0390395 0.
0.662075 0.0390395 0.
0.664076 0.0390389 0.
0.666077 0.0390384 0.
0.668078 0.0390391 0.
0.670078 0.0390402 0.
0.672079 0.0390414 0.
0.674079 0.0390404 0.
0.67608 0.0390393 0.
0.67808 0.0390383 0.
0.68008 0.039039 0.
0.68208 0.0390397 0.
0.68408 0.0390404 0.
0.686081 0.0390414 0.
0.688081 0.0390423 0.
0.690082 0.0390436 0.
0.692083 0.0390452 0.
0.694083 0.0390467 0.
0.696083 0.0390485 0.
0.698083 0.0390503 0.
0.499921 0.0410504 0.
0.501921 0.0410488 0.
0.503921 0.0410471 0.
0.505922 0.0410454 0.
0.507922 0.0410435 0.
0.509922 0.0410417 0.
0.511922 0.0410403 0.
0.513922 0.0410397 0.
0.515922 0.041039 0.
0.517923 0.0410381 0.
0.519924 0.0410371 0.
0.521924 0.0410361 0.
0.523925 0.0410363 0.
0.525926 0.0410368 0.
0.527927 0.0410372 0.
0.529927 0.0410371 0.
0.531927 0.0410369 0.
0.533927 0.0410367 0.
0.535929 0.0410364 0.
0.53793 0.041036 0.
0.539932 0.0410355 0.
0.541933 0.0410348 0.
0.543934 0.041034 0.
0.545935 0.0410338 0.
0.547936 0.0410337 0.
0.549937 0.0410336 0.
0.551939 0.0410335 0.
0.553941 0.0410334 0.
0.555943 0.0410331 0.
0.557944 0.0410318 0.
0.559946 0.0410306 0.
0.561948 0.0410295 0.
0.56395 0.0410287 0.
0.565953 0.0410278 0.
0.567955 0.0410265 0.
0.569958 0.0410249 0.
0.571961 0.0410234 0.
0.573965 0.0410221 0.
0.575969 0.0410209 0.
0.577972 0.0410197 0.
0.579975 0.0410182 0.
0.581978 0.0410168 0.
0.583981 0.0410151 0.
0.585983 0.0410127 0.
0.587985 0.0410103 0.
0.589988 0.0410079 0.
0.59199 0.0410056 0.
0.593992 0.0410032 0.
0.595995 0.0410023 0.
0.597997 0.0410018 0.
0.599999 0.0410013 0.
0.602003 0.0410027 0.
0.604006 0.0410041 0.
0.606009 0.0410055 0.
0.608011 0.0410073 0.
0.610012 0.0410091 0.
0.612015 0.0410113 0.
0.614018 0.0410141 0.
0.616021 0.0410169 0.
0.618025 0.0410187 0.
0.620027 0.04102 0.
0.62203 0.0410214 0.
0.624034 0.0410231 0.
0.626037 0.0410248 0.
0.628041 0.0410265 0.
0.630043 0.0410281 0.
0.632046 0.0410297 0.
0.634048 0.0410312 0.
0.63605 0.0410322 0.
0.638052 0.0410333 0.
0.640054 0.0410345 0.
0.642056 0.0410356 0.
0.644058 0.0410367 0.
0.64606 0.0410374 0.
0.648061 0.0410379 0.
0.650063 0.0410383 0.
0.652064 0.0410381 0.
0.654066 0.0410379 0.
0.656067 0.0410379 0.
0.658069 0.0410384 0.
0.660072 0.0410388 0.
0.662073 0.041039 0.
0.664074 0.0410389 0.
0.666074 0.0410388 0.
0.668075 0.0410396 0.
0.670076 0.0410407 0.
0.672076 0.0410419 0.
0.674077 0.0410408 0.
0.676077 0.0410396 0.
0.678078 0.0410387 0.
0.680078 0.0410396 0.
0.682078 0.0410406 0.
0.684078 0.0410415 0.
0.686078 0.0410424 0.
0.688079 0.0410432 0.
0.690079 0.0410446 0.
0.69208 0.0410463 0.
0.69408 0.041048 0.
0.696081 0.0410498 0.
0.698081 0.0410518 0.
0.499923 0.043051 0.
0.501924 0.0430496 0.
0.503924 0.0430483 0.
0.505925 0.0430469 0.
0.507925 0.0430451 0.
0.509925 0.0430432 0.
0.511925 0.0430416 0.
0.513925 0.0430405 0.
0.515926 0.0430394 0.
0.517926 0.0430387 0.
0.519927 0.0430382 0.
0.521927 0.0430377 0.
0.523928 0.0430377 0.
0.525928 0.0430377 0.
0.527929 0.0430377 0.
0.529929 0.0430376 0.
0.53193 0.0430376 0.
0.53393 0.0430373 0.
0.535932 0.0430366 0.
0.537933 0.0430359 0.
0.539934 0.0430353 0.
0.541935 0.0430347 0.
0.543936 0.0430342 0.
0.545938 0.0430336 0.
0.547939 0.0430331 0.
0.54994 0.0430325 0.
0.551942 0.0430324 0.
0.553944 0.0430324 0.
0.555946 0.0430321 0.
0.557948 0.0430312 0.
0.559949 0.0430303 0.
0.561951 0.0430292 0.
0.563953 0.0430279 0.
0.565956 0.0430267 0.
0.567958 0.0430252 0.
0.569961 0.0430236 0.
0.571964 0.043022 0.
0.573967 0.0430208 0.
0.575971 0.0430196 0.
0.577974 0.0430184 0.
0.579976 0.0430168 0.
0.581979 0.0430153 0.
0.583982 0.0430136 0.
0.585984 0.0430117 0.
0.587986 0.0430098 0.
0.589988 0.0430078 0.
0.591991 0.0430057 0.
0.593993 0.0430036 0.
0.595995 0.0430027 0.
0.597998 0.0430022 0.
0.6 0.0430017 0.
0.602003 0.0430028 0.
0.604005 0.0430039 0.
0.606008 0.0430051 0.
0.60801 0.0430068 0.
0.610012 0.0430086 0.
0.612014 0.0430106 0.
0.614017 0.043013 0.
0.616021 0.0430154 0.
0.618024 0.0430172 0.
0.620026 0.0430186 0.
0.622029 0.0430201 0.
0.624032 0.043022 0.
0.626035 0.043024 0.
0.628038 0.0430259 0.
0.630041 0.0430275 0.
0.632043 0.0430291 0.
0.634045 0.0430304 0.
0.636047 0.0430311 0.
0.638048 0.0430319 0.
0.64005 0.043033 0.
0.642052 0.0430344 0.
0.644054 0.0430357 0.
0.646056 0.0430366 0.
0.648058 0.0430373 0.
0.650061 0.0430379 0.
0.652062 0.0430378 0.
0.654064 0.0430377 0.
0.656065 0.0430377 0.
0.658067 0.043038 0.
0.660069 0.0430383 0.
0.66207 0.0430388 0.
0.66407 0.0430395 0.
0.666071 0.0430401 0.
0.668072 0.0430407 0.
0.670073 0.0430413 0.
0.672073 0.043042 0.
0.674074 0.0430411 0.
0.676074 0.0430402 0.
0.678075 0.0430395 0.
0.680075 0.0430405 0.
0.682075 0.0430416 0.
0.684076 0.0430425 0.
0.686076 0.0430432 0.
0.688076 0.043044 0.
0.690077 0.0430455 0.
0.692077 0.0430476 0.
0.694078 0.0430496 0.
0.696077 0.0430515 0.
0.698077 0.0430535 0.
0.499926 0.0450516 0.
0.501926 0.0450504 0.
0.503927 0.0450495 0.
0.505928 0.0450485 0.
0.507928 0.0450466 0.
0.509928 0.0450447 0.
0.511928 0.0450429 0.
0.513928 0.0450414 0.
0.515929 0.0450399 0.
0.517929 0.0450394 0.
0.51993 0.0450394 0.
0.52193 0.0450394 0.
0.52393 0.045039 0.
0.525931 0.0450386 0.
0.527931 0.0450382 0.
0.529932 0.0450382 0.
0.531933 0.0450382 0.
0.533933 0.0450379 0.
0.535934 0.0450368 0.
0.537935 0.0450357 0.
0.539936 0.0450351 0.
0.541938 0.0450347 0.
0.543939 0.0450343 0.
0.54594 0.0450334 0.
0.547942 0.0450324 0.
0.549943 0.0450313 0.
0.551945 0.0450313 0.
0.553947 0.0450313 0.
0.555949 0.0450312 0.
0.557951 0.0450305 0.
0.559953 0.0450299 0.
0.561954 0.0450289 0.
0.563957 0.0450272 0.
0.565959 0.0450256 0.
0.567961 0.0450239 0.
0.569964 0.0450223 0.
0.571966 0.0450207 0.
0.573969 0.0450195 0.
0.575972 0.0450183 0.
0.577975 0.0450171 0.
0.579978 0.0450154 0.
0.58198 0.0450138 0.
0.583982 0.0450121 0.
0.585984 0.0450107 0.
0.587987 0.0450093 0.
0.589989 0.0450077 0.
0.591991 0.0450058 0.
0.593994 0.045004 0.
0.595996 0.0450032 0.
0.597999 0.0450027 0.
0.600001 0.0450022 0.
0.602003 0.0450029 0.
0.604005 0.0450037 0.
0.606007 0.0450047 0.
0.608009 0.0450064 0.
0.610011 0.045008 0.
0.612014 0.0450098 0.
0.614017 0.0450118 0.
0.61602 0.0450138 0.
0.618023 0.0450156 0.
0.620025 0.0450172 0.
0.622028 0.0450188 0.
0.62403 0.045021 0.
0.626033 0.0450232 0.
0.628036 0.0450253 0.
0.630038 0.0450269 0.
0.63204 0.0450284 0.
0.634041 0.0450296 0.
0.636043 0.04503 0.
0.638045 0.0450305 0.
0.640047 0.0450316 0.
0.642048 0.0450332 0.
0.64405 0.0450348 0.
0.646053 0.0450357 0.
0.648056 0.0450366 0.
0.650058 0.0450374 0.
0.65206 0.0450374 0.
0.654061 0.0450374 0.
0.656063 0.0450375 0.
0.658064 0.0450376 0.
0.660066 0.0450378 0.
0.662067 0.0450386 0.
0.664067 0.04504 0.
0.666068 0.0450414 0.
0.668069 0.0450419 0.
0.67007 0.045042 0.
0.67207 0.045042 0.
0.674071 0.0450414 0.
0.676071 0.0450407 0.
0.678072 0.0450403 0.
0.680073 0.0450414 0.
0.682073 0.0450426 0.
0.684074 0.0450435 0.
0.686074 0.0450441 0.
0.688074 0.0450448 0.
0.690074 0.0450465 0.
0.692074 0.0450489 0.
0.694075 0.0450513 0.
0.696074 0.0450532 0.
0.698074 0.0450551 0.
0.499928 0.0470524 0.
0.501929 0.047051 0.
0.503929 0.0470495 0.
0.505929 0.0470481 0.
0.50793 0.0470466 0.
0.50993 0.0470452 0.
0.51193 0.0470436 0.
0.51393 0.0470417 0.
0.515931 0.0470399 0.
0.517931 0.0470393 0.
0.519932 0.0470393 0.
0.521932 0.0470394 0.
0.523933 0.0470391 0.
0.525933 0.0470387 0.
0.527934 0.0470383 0.
0.529935 0.047038 0.
0.531936 0.0470377 0.
0.533936 0.0470372 0.
0.535937 0.0470363 0.
0.537938 0.0470353 0.
0.539939 0.0470345 0.
0.541941 0.0470338 0.
0.543942 0.047033 0.
0.545943 0.0470323 0.
0.547945 0.0470316 0.
0.549946 0.0470309 0.
0.551948 0.0470303 0.
0.55395 0.0470297 0.
0.555952 0.0470292 0.
0.557954 0.0470288 0.
0.559956 0.0470284 0.
0.561957 0.0470276 0.
0.563959 0.047026 0.
0.565961 0.0470245 0.
0.567963 0.047023 0.
0.569965 0.0470215 0.
0.571967 0.04702 0.
0.57397 0.0470187 0.
0.575974 0.0470175 0.
0.577977 0.0470162 0.
0.579979 0.0470146 0.
0.581981 0.0470129 0.
0.583983 0.0470113 0.
0.585985 0.0470099 0.
0.587988 0.0470084 0.
0.58999 0.047007 0.
0.591992 0.0470054 0.
0.593994 0.0470038 0.
0.595996 0.0470034 0.
0.597998 0.0470032 0.
0.6 0.047003 0.
0.602003 0.0470035 0.
0.604005 0.047004 0.
0.606007 0.0470047 0.
0.608009 0.0470062 0.
0.610011 0.0470077 0.
0.612013 0.0470094 0.
0.614016 0.0470111 0.
0.616018 0.0470129 0.
0.618021 0.0470147 0.
0.620023 0.0470166 0.
0.622026 0.0470185 0.
0.624028 0.0470203 0.
0.626031 0.0470221 0.
0.628033 0.0470238 0.
0.630035 0.0470254 0.
0.632038 0.047027 0.
0.634039 0.0470283 0.
0.636041 0.0470292 0.
0.638043 0.04703 0.
0.640044 0.0470311 0.
0.642046 0.0470321 0.
0.644048 0.0470332 0.
0.64605 0.0470342 0.
0.648053 0.0470351 0.
0.650056 0.047036 0.
0.652057 0.0470364 0.
0.654058 0.0470367 0.
0.656059 0.0470369 0.
0.658061 0.0470372 0.
0.660062 0.0470375 0.
0.662063 0.0470382 0.
0.664064 0.0470392 0.
0.666066 0.0470402 0.
0.668067 0.0470409 0.
0.670067 0.0470415 0.
0.672068 0.0470421 0.
0.674069 0.0470418 0.
0.67607 0.0470414 0.
0.67807 0.0470412 0.
0.68007 0.0470425 0.
0.682071 0.0470438 0.
0.684071 0.0470448 0.
0.686071 0.0470454 0.
0.688071 0.0470461 0.
0.690071 0.0470477 0.
0.692072 0.0470499 0.
0.694072 0.0470521 0.
0.696072 0.0470545 0.
0.698072 0.0470568 0.
0.499931 0.0490533 0.
0.501931 0.0490516 0.
0.503931 0.0490495 0.
0.505931 0.0490477 0.
0.507932 0.0490467 0.
0.509932 0.0490457 0.
0.511932 0.0490442 0.
0.513932 0.0490421 0.
0.515933 0.0490399 0.
0.517933 0.0490392 0.
0.519934 0.0490393 0.
0.521934 0.0490394 0.
0.523935 0.0490391 0.
0.525935 0.0490387 0.
0.527936 0.0490384 0.
0.529937 0.0490378 0.
0.531938 0.0490372 0.
0.53394 0.0490366 0.
0.535941 0.0490357 0.
0.537942 0.0490349 0.
0.539943 0.0490339 0.
0.541944 0.0490329 0.
0.543945 0.0490318 0.
0.545947 0.0490312 0.
0.547948 0.0490308 0.
0.54995 0.0490305 0.
0.551951 0.0490293 0.
0.553953 0.0490282 0.
0.555955 0.0490272 0.
0.557957 0.049027 0.
0.559959 0.0490269 0.
0.561961 0.0490262 0.
0.563962 0.0490249 0.
0.565963 0.0490235 0.
0.567965 0.0490221 0.
0.569967 0.0490206 0.
0.571968 0.0490192 0.
0.573971 0.0490179 0.
0.575975 0.0490167 0.
0.577978 0.0490153 0.
0.57998 0.0490137 0.
0.581982 0.0490121 0.
0.583984 0.0490105 0.
0.585986 0.049009 0.
0.587989 0.0490076 0.
0.589991 0.0490062 0.
0.591992 0.049005 0.
0.593994 0.0490037 0.
0.595996 0.0490035 0.
0.597998 0.0490037 0.
0.6 0.0490039 0.
0.602002 0.0490041 0.
0.604005 0.0490043 0.
0.606007 0.0490048 0.
0.608009 0.0490061 0.
0.610011 0.0490074 0.
0.612013 0.0490089 0.
0.614015 0.0490104 0.
0.616017 0.0490119 0.
0.618019 0.0490139 0.
0.620021 0.049016 0.
0.622024 0.0490182 0.
0.624026 0.0490196 0.
0.626028 0.049021 0.
0.62803 0.0490224 0.
0.630033 0.0490239 0.
0.632035 0.0490255 0.
0.634037 0.0490269 0.
0.636039 0.0490283 0.
0.63804 0.0490296 0.
0.640042 0.0490305 0.
0.642044 0.0490311 0.
0.644046 0.0490316 0.
0.646048 0.0490326 0.
0.64805 0.0490336 0.
0.650053 0.0490347 0.
0.652054 0.0490353 0.
0.654055 0.0490359 0.
0.656056 0.0490364 0.
0.658057 0.0490368 0.
0.660058 0.0490372 0.
0.66206 0.0490377 0.
0.664062 0.0490384 0.
0.666064 0.049039 0.
0.668064 0.04904 0.
0.670065 0.049041 0.
0.672066 0.0490421 0.
0.674067 0.0490421 0.
0.676068 0.049042 0.
0.678069 0.0490421 0.
0.680068 0.0490435 0.
0.682068 0.049045 0.
0.684068 0.0490461 0.
0.686068 0.0490467 0.
0.688068 0.0490474 0.
0.690069 0.0490489 0.
0.692069 0.0490509 0.
0.694069 0.049053 0.
0.69607 0.0490557 0.
0.698071 0.0490585 0.
0.499934 0.0510539 0.
0.501934 0.0510522 0.
0.503934 0.0510503 0.
0.505934 0.0510486 0.
0.507934 0.0510475 0.
0.509935 0.0510464 0.
0.511935 0.0510448 0.
0.513935 0.0510426 0.
0.515934 0.0510404 0.
0.517935 0.0510396 0.
0.519936 0.0510395 0.
0.521936 0.0510395 0.
0.523937 0.0510392 0.
0.525937 0.0510389 0.
0.527938 0.0510385 0.
0.529939 0.0510376 0.
0.531941 0.0510368 0.
0.533942 0.051036 0.
0.535943 0.0510352 0.
0.537944 0.0510344 0.
0.539945 0.0510334 0.
0.541946 0.0510323 0.
0.543948 0.0510312 0.
0.545949 0.0510307 0.
0.54795 0.0510304 0.
0.549952 0.0510301 0.
0.551954 0.0510285 0.
0.553955 0.0510269 0.
0.555957 0.0510256 0.
0.557959 0.0510257 0.
0.559961 0.0510257 0.
0.561963 0.0510252 0.
0.563964 0.0510238 0.
0.565965 0.0510224 0.
0.567967 0.0510211 0.
0.569968 0.0510198 0.
0.57197 0.0510185 0.
0.573973 0.0510171 0.
0.575976 0.0510156 0.
0.577979 0.0510141 0.
0.579981 0.0510126 0.
0.581982 0.0510112 0.
0.583985 0.0510098 0.
0.585987 0.0510084 0.
0.58799 0.051007 0.
0.589992 0.0510058 0.
0.591993 0.0510047 0.
0.593994 0.0510036 0.
0.595996 0.0510035 0.
0.597998 0.0510037 0.
0.6 0.0510039 0.
0.602002 0.0510041 0.
0.604005 0.0510043 0.
0.606007 0.0510047 0.
0.608009 0.0510059 0.
0.610011 0.0510072 0.
0.612012 0.0510085 0.
0.614014 0.05101 0.
0.616016 0.0510115 0.
0.618018 0.0510134 0.
0.62002 0.0510154 0.
0.622023 0.0510173 0.
0.624024 0.0510187 0.
0.626026 0.05102 0.
0.628028 0.0510213 0.
0.630031 0.0510228 0.
0.632033 0.0510242 0.
0.634035 0.0510257 0.
0.636037 0.0510272 0.
0.638039 0.0510288 0.
0.64004 0.0510297 0.
0.642042 0.0510301 0.
0.644044 0.0510306 0.
0.646046 0.0510315 0.
0.648048 0.0510327 0.
0.65005 0.0510338 0.
0.652051 0.0510345 0.
0.654052 0.0510352 0.
0.656053 0.0510358 0.
0.658054 0.0510363 0.
0.660055 0.0510368 0.
0.662057 0.0510373 0.
0.664059 0.0510379 0.
0.666061 0.0510385 0.
0.668062 0.0510396 0.
0.670063 0.051041 0.
0.672063 0.0510424 0.
0.674064 0.0510426 0.
0.676065 0.0510425 0.
0.678066 0.0510427 0.
0.680066 0.0510442 0.
0.682065 0.0510458 0.
0.684065 0.0510471 0.
0.686066 0.0510478 0.
0.688066 0.0510486 0.
0.690066 0.0510501 0.
0.692066 0.0510521 0.
0.694066 0.051054 0.
0.696067 0.051057 0.
0.698068 0.0510602 0.
0.499936 0.0530542 0.
0.501936 0.0530528 0.
0.503936 0.0530517 0.
0.505936 0.0530506 0.
0.507937 0.0530489 0.
0.509937 0.0530473 0.
0.511937 0.0530454 0.
0.513937 0.0530433 0.
0.515936 0.0530412 0.
0.517937 0.0530403 0.
0.519937 0.05304 0.
0.521938 0.0530398 0.
0.523939 0.0530394 0.
0.52594 0.0530391 0.
0.527941 0.0530386 0.
0.529942 0.0530375 0.
0.531943 0.0530364 0.
0.533944 0.0530353 0.
0.535945 0.0530346 0.
0.537946 0.0530338 0.
0.539947 0.053033 0.
0.541948 0.0530322 0.
0.543949 0.0530313 0.
0.545951 0.0530307 0.
0.547952 0.0530302 0.
0.549953 0.0530297 0.
0.551955 0.0530278 0.
0.553957 0.053026 0.
0.555959 0.0530245 0.
0.557961 0.0530247 0.
0.559962 0.0530249 0.
0.561964 0.0530244 0.
0.563965 0.0530229 0.
0.565967 0.0530214 0.
0.567968 0.0530201 0.
0.56997 0.053019 0.
0.571971 0.0530179 0.
0.573974 0.0530161 0.
0.575977 0.0530142 0.
0.57798 0.0530124 0.
0.579982 0.0530114 0.
0.581984 0.0530104 0.
0.583986 0.0530093 0.
0.585987 0.0530081 0.
0.587989 0.0530069 0.
0.589991 0.0530058 0.
0.591993 0.0530047 0.
0.593994 0.0530037 0.
0.595996 0.0530034 0.
0.597998 0.0530032 0.
0.6 0.053003 0.
0.602003 0.0530034 0.
0.604005 0.0530039 0.
0.606007 0.0530045 0.
0.608008 0.0530057 0.
0.610009 0.0530069 0.
0.612011 0.0530083 0.
0.614013 0.05301 0.
0.616015 0.0530117 0.
0.618017 0.0530132 0.
0.62002 0.0530146 0.
0.622022 0.053016 0.
0.624024 0.0530176 0.
0.626026 0.0530192 0.
0.628028 0.0530207 0.
0.63003 0.0530219 0.
0.632032 0.0530231 0.
0.634033 0.0530245 0.
0.636035 0.0530261 0.
0.638037 0.0530276 0.
0.640039 0.0530287 0.
0.64204 0.0530293 0.
0.644042 0.05303 0.
0.646043 0.053031 0.
0.648045 0.0530322 0.
0.650047 0.0530333 0.
0.652048 0.0530339 0.
0.654049 0.0530345 0.
0.656051 0.0530351 0.
0.658052 0.0530357 0.
0.660053 0.0530363 0.
0.662054 0.053037 0.
0.664056 0.0530378 0.
0.666057 0.0530387 0.
0.668059 0.05304 0.
0.67006 0.0530415 0.
0.672061 0.053043 0.
0.674061 0.053043 0.
0.676061 0.0530429 0.
0.678062 0.053043 0.
0.680062 0.0530446 0.
0.682062 0.0530463 0.
0.684063 0.0530478 0.
0.686063 0.0530488 0.
0.688063 0.0530498 0.
0.690063 0.0530513 0.
0.692063 0.0530533 0.
0.694063 0.0530552 0.
0.696063 0.0530584 0.
0.698064 0.0530619 0.
0.499939 0.0550545 0.
0.501939 0.0550535 0.
0.503939 0.0550532 0.
0.505939 0.0550525 0.
0.507939 0.0550503 0.
0.50994 0.0550481 0.
0.51194 0.055046 0.
0.513939 0.055044 0.
0.515939 0.0550419 0.
0.517939 0.0550409 0.
0.519939 0.0550405 0.
0.52194 0.05504 0.
0.523941 0.0550396 0.
0.525942 0.0550393 0.
0.527943 0.0550388 0.
0.529944 0.0550374 0.
0.531945 0.055036 0.
0.533946 0.0550348 0.
0.535947 0.055034 0.
0.537948 0.0550333 0.
0.539949 0.0550326 0.
0.54195 0.055032 0.
0.543951 0.0550314 0.
0.545952 0.0550307 0.
0.547954 0.05503 0.
0.549955 0.0550293 0.
0.551957 0.0550272 0.
0.553959 0.0550251 0.
0.555961 0.0550235 0.
0.557962 0.0550238 0.
0.559964 0.0550242 0.
0.561965 0.0550236 0.
0.563967 0.055022 0.
0.565969 0.0550203 0.
0.56797 0.0550192 0.
0.569972 0.0550182 0.
0.571973 0.0550173 0.
0.573975 0.0550152 0.
0.575978 0.0550128 0.
0.57798 0.0550107 0.
0.579983 0.0550101 0.
0.581985 0.0550096 0.
0.583987 0.0550089 0.
0.585988 0.0550078 0.
0.587989 0.0550067 0.
0.589991 0.0550057 0.
0.591993 0.0550048 0.
0.593995 0.0550038 0.
0.595997 0.0550032 0.
0.597999 0.0550026 0.
0.600001 0.0550021 0.
0.602003 0.0550028 0.
0.604005 0.0550035 0.
0.606007 0.0550043 0.
0.608007 0.0550054 0.
0.610008 0.0550065 0.
0.612009 0.055008 0.
0.614012 0.05501 0.
0.616014 0.0550119 0.
0.618017 0.0550131 0.
0.620019 0.0550139 0.
0.622021 0.0550147 0.
0.624023 0.0550165 0.
0.626025 0.0550183 0.
0.628027 0.0550201 0.
0.630028 0.0550211 0.
0.63203 0.0550221 0.
0.634032 0.0550233 0.
0.636033 0.0550249 0.
0.638035 0.0550264 0.
0.640037 0.0550276 0.
0.642038 0.0550285 0.
0.64404 0.0550294 0.
0.646041 0.0550305 0.
0.648042 0.0550317 0.
0.650044 0.0550328 0.
0.652045 0.0550333 0.
0.654047 0.0550338 0.
0.656048 0.0550344 0.
0.658049 0.0550351 0.
0.66005 0.0550357 0.
0.662051 0.0550366 0.
0.664053 0.0550377 0.
0.666054 0.0550388 0.
0.668055 0.0550403 0.
0.670057 0.0550419 0.
0.672058 0.0550436 0.
0.674058 0.0550435 0.
0.676058 0.0550433 0.
0.678058 0.0550433 0.
0.680059 0.0550451 0.
0.682059 0.0550469 0.
0.68406 0.0550485 0.
0.68606 0.0550497 0.
0.68806 0.0550509 0.
0.69006 0.0550526 0.
0.69206 0.0550545 0.
0.694059 0.0550564 0.
0.696059 0.0550598 0.
0.69806 0.0550635 0.
0.49994 0.0570557 0.
0.50194 0.0570546 0.
0.50394 0.057054 0.
0.505941 0.057053 0.
0.507941 0.0570507 0.
0.509941 0.0570483 0.
0.511942 0.0570462 0.
0.513942 0.0570443 0.
0.515942 0.0570425 0.
0.517942 0.0570413 0.
0.519943 0.0570404 0.
0.521943 0.0570395 0.
0.523944 0.0570392 0.
0.525944 0.0570389 0.
0.527945 0.0570385 0.
0.529946 0.0570374 0.
0.531947 0.0570363 0.
0.533948 0.0570352 0.
0.535949 0.0570342 0.
0.53795 0.0570332 0.
0.539951 0.0570323 0.
0.541952 0.0570316 0.
0.543953 0.0570309 0.
0.545954 0.0570301 0.
0.547956 0.0570293 0.
0.549957 0.0570285 0.
0.551959 0.057027 0.
0.553961 0.0570255 0.
0.555962 0.0570242 0.
0.557964 0.0570238 0.
0.559965 0.0570234 0.
0.561967 0.0570225 0.
0.563968 0.0570209 0.
0.56597 0.0570193 0.
0.567972 0.0570183 0.
0.569973 0.0570176 0.
0.571975 0.0570169 0.
0.573977 0.0570148 0.
0.575979 0.0570125 0.
0.577981 0.0570103 0.
0.579983 0.0570096 0.
0.581985 0.0570089 0.
0.583987 0.057008 0.
0.585988 0.057007 0.
0.587989 0.0570059 0.
0.589991 0.0570052 0.
0.591993 0.0570046 0.
0.593995 0.057004 0.
0.595997 0.0570037 0.
0.597998 0.0570034 0.
0.6 0.0570031 0.
0.602002 0.0570035 0.
0.604004 0.057004 0.
0.606006 0.0570046 0.
0.608007 0.0570056 0.
0.610008 0.0570066 0.
0.61201 0.0570078 0.
0.614012 0.0570094 0.
0.616014 0.0570109 0.
0.618016 0.057012 0.
0.620018 0.0570128 0.
0.62202 0.0570136 0.
0.624022 0.0570156 0.
0.626024 0.0570177 0.
0.628025 0.0570197 0.
0.630027 0.0570207 0.
0.632029 0.0570216 0.
0.634031 0.0570227 0.
0.636033 0.0570242 0.
0.638035 0.0570257 0.
0.640036 0.057027 0.
0.642037 0.0570281 0.
0.644038 0.0570292 0.
0.64604 0.0570302 0.
0.648041 0.0570312 0.
0.650042 0.0570321 0.
0.652044 0.0570327 0.
0.654045 0.0570332 0.
0.656047 0.0570337 0.
0.658048 0.0570345 0.
0.660049 0.0570353 0.
0.66205 0.0570362 0.
0.664051 0.0570373 0.
0.666052 0.0570384 0.
0.668053 0.0570399 0.
0.670054 0.0570415 0.
0.672055 0.0570432 0.
0.674056 0.0570437 0.
0.676056 0.0570441 0.
0.678056 0.0570445 0.
0.680056 0.0570458 0.
0.682056 0.0570471 0.
0.684057 0.0570486 0.
0.686057 0.0570502 0.
0.688057 0.0570518 0.
0.690057 0.0570538 0.
0.692057 0.0570561 0.
0.694057 0.0570583 0.
0.696057 0.0570611 0.
0.698057 0.0570639 0.
0.499941 0.0590567 0.
0.501942 0.0590558 0.
0.503942 0.0590547 0.
0.505943 0.0590534 0.
0.507943 0.059051 0.
0.509943 0.0590485 0.
0.511943 0.0590464 0.
0.513944 0.0590447 0.
0.515945 0.059043 0.
0.517945 0.0590416 0.
0.519946 0.0590403 0.
0.521946 0.059039 0.
0.523946 0.0590387 0.
0.525947 0.0590385 0.
0.527947 0.0590382 0.
0.529948 0.0590374 0.
0.531949 0.0590366 0.
0.533951 0.0590357 0.
0.535951 0.0590344 0.
0.537952 0.0590331 0.
0.539953 0.0590321 0.
0.541954 0.0590312 0.
0.543955 0.0590304 0.
0.545956 0.0590295 0.
0.547958 0.0590286 0.
0.549959 0.0590277 0.
0.551961 0.0590268 0.
0.553962 0.0590259 0.
0.555964 0.0590249 0.
0.557966 0.0590238 0.
0.559967 0.0590227 0.
0.561969 0.0590214 0.
0.56397 0.0590198 0.
0.565971 0.0590182 0.
0.567973 0.0590173 0.
0.569975 0.0590169 0.
0.571977 0.0590164 0.
0.573979 0.0590144 0.
0.57598 0.0590121 0.
0.577982 0.05901 0.
0.579983 0.0590091 0.
0.581985 0.0590082 0.
0.583986 0.0590072 0.
0.585988 0.0590062 0.
0.58799 0.0590052 0.
0.589991 0.0590046 0.
0.591993 0.0590044 0.
0.593994 0.0590043 0.
0.595996 0.0590042 0.
0.597998 0.0590042 0.
0.6 0.0590041 0.
0.602002 0.0590043 0.
0.604003 0.0590045 0.
0.606005 0.0590048 0.
0.608007 0.0590057 0.
0.610009 0.0590066 0.
0.61201 0.0590076 0.
0.614012 0.0590088 0.
0.616014 0.0590099 0.
0.618015 0.0590108 0.
0.620017 0.0590116 0.
0.622018 0.0590124 0.
0.62402 0.0590147 0.
0.626022 0.0590171 0.
0.628024 0.0590194 0.
0.630026 0.0590203 0.
0.632028 0.0590212 0.
0.63403 0.0590222 0.
0.636032 0.0590236 0.
0.638034 0.059025 0.
0.640035 0.0590264 0.
0.642036 0.0590277 0.
0.644037 0.059029 0.
0.646038 0.0590299 0.
0.64804 0.0590307 0.
0.650041 0.0590315 0.
0.652042 0.059032 0.
0.654043 0.0590325 0.
0.656045 0.0590331 0.
0.658046 0.059034 0.
0.660047 0.0590349 0.
0.662048 0.0590359 0.
0.664049 0.0590369 0.
0.66605 0.0590379 0.
0.668051 0.0590394 0.
0.670052 0.0590411 0.
0.672053 0.0590428 0.
0.674053 0.0590438 0.
0.676053 0.0590448 0.
0.678054 0.0590458 0.
0.680053 0.0590466 0.
0.682053 0.0590474 0.
0.684053 0.0590487 0.
0.686054 0.0590507 0.
0.688055 0.0590527 0.
0.690055 0.0590551 0.
0.692055 0.0590576 0.
0.694055 0.0590602 0.
0.696055 0.0590624 0.
0.698055 0.0590644 0.
0.499944 0.0610578 0.
0.501944 0.0610566 0.
0.503945 0.0610553 0.
0.505945 0.0610538 0.
0.507945 0.0610514 0.
0.509945 0.0610491 0.
0.511946 0.061047 0.
0.513947 0.0610454 0.
0.515948 0.0610439 0.
0.517948 0.0610422 0.
0.519948 0.0610406 0.
0.521948 0.0610389 0.
0.523949 0.0610386 0.
0.525949 0.0610383 0.
0.527949 0.0610381 0.
0.529951 0.0610375 0.
0.531952 0.061037 0.
0.533953 0.0610361 0.
0.535953 0.0610346 0.
0.537954 0.0610331 0.
0.539955 0.0610319 0.
0.541956 0.0610309 0.
0.543957 0.06103 0.
0.545958 0.0610291 0.
0.54796 0.0610282 0.
0.549961 0.0610274 0.
0.551963 0.0610266 0.
0.553964 0.0610258 0.
0.555966 0.0610249 0.
0.557967 0.0610235 0.
0.559969 0.0610222 0.
0.56197 0.0610207 0.
0.563972 0.0610191 0.
0.565973 0.0610175 0.
0.567974 0.0610166 0.
0.569976 0.0610162 0.
0.571978 0.0610157 0.
0.573979 0.0610138 0.
0.575981 0.0610118 0.
0.577983 0.0610098 0.
0.579984 0.0610087 0.
0.581985 0.0610075 0.
0.583987 0.0610065 0.
0.585988 0.0610058 0.
0.58799 0.061005 0.
0.589991 0.0610046 0.
0.591992 0.0610044 0.
0.593994 0.0610042 0.
0.595996 0.0610042 0.
0.597998 0.0610043 0.
0.6 0.0610044 0.
0.602002 0.0610045 0.
0.604003 0.0610047 0.
0.606005 0.0610049 0.
0.608007 0.0610056 0.
0.610009 0.0610064 0.
0.61201 0.0610072 0.
0.614012 0.0610083 0.
0.616013 0.0610093 0.
0.618014 0.0610102 0.
0.620016 0.0610111 0.
0.622017 0.0610119 0.
0.624019 0.0610139 0.
0.626021 0.0610161 0.
0.628023 0.0610181 0.
0.630025 0.0610193 0.
0.632026 0.0610205 0.
0.634028 0.0610217 0.
0.63603 0.061023 0.
0.638032 0.0610243 0.
0.640033 0.0610257 0.
0.642034 0.061027 0.
0.644035 0.0610284 0.
0.646037 0.0610292 0.
0.648038 0.0610298 0.
0.65004 0.0610305 0.
0.652041 0.0610314 0.
0.654042 0.0610323 0.
0.656043 0.0610332 0.
0.658044 0.0610341 0.
0.660045 0.061035 0.
0.662046 0.0610359 0.
0.664047 0.0610369 0.
0.666048 0.0610379 0.
0.668049 0.0610394 0.
0.670049 0.0610409 0.
0.67205 0.0610425 0.
0.67405 0.0610438 0.
0.676051 0.0610451 0.
0.678051 0.0610463 0.
0.680051 0.061047 0.
0.682051 0.0610477 0.
0.684051 0.061049 0.
0.686052 0.0610513 0.
0.688052 0.0610536 0.
0.690053 0.061056 0.
0.692053 0.0610586 0.
0.694053 0.0610612 0.
0.696053 0.0610631 0.
0.698053 0.0610648 0.
0.499947 0.063059 0.
0.501947 0.0630572 0.
0.503947 0.0630557 0.
0.505948 0.0630541 0.
0.507948 0.063052 0.
0.509948 0.0630499 0.
0.511949 0.063048 0.
0.513949 0.0630464 0.
0.51595 0.0630449 0.
0.51795 0.0630431 0.
0.51995 0.0630412 0.
0.521951 0.0630393 0.
0.523951 0.0630387 0.
0.525952 0.0630384 0.
0.527952 0.063038 0.
0.529953 0.0630376 0.
0.531954 0.0630372 0.
0.533955 0.0630365 0.
0.535955 0.0630349 0.
0.537956 0.0630333 0.
0.539957 0.0630319 0.
0.541958 0.0630308 0.
0.543959 0.0630296 0.
0.54596 0.0630288 0.
0.547961 0.0630281 0.
0.549962 0.0630274 0.
0.551964 0.0630263 0.
0.553966 0.0630253 0.
0.555968 0.0630241 0.
0.557969 0.063023 0.
0.55997 0.0630219 0.
0.561972 0.0630205 0.
0.563973 0.0630189 0.
0.565974 0.0630172 0.
0.567975 0.0630162 0.
0.569976 0.0630155 0.
0.571977 0.0630148 0.
0.573979 0.0630132 0.
0.575981 0.0630115 0.
0.577983 0.0630098 0.
0.579984 0.0630084 0.
0.581986 0.063007 0.
0.583988 0.0630059 0.
0.585988 0.0630057 0.
0.587989 0.0630055 0.
0.58999 0.0630051 0.
0.591992 0.0630044 0.
0.593993 0.0630038 0.
0.595995 0.0630037 0.
0.597998 0.0630038 0.
0.6 0.0630038 0.
0.602002 0.0630041 0.
0.604004 0.0630045 0.
0.606005 0.0630048 0.
0.608007 0.0630053 0.
0.610008 0.0630058 0.
0.61201 0.0630066 0.
0.614011 0.0630079 0.
0.616012 0.0630091 0.
0.618014 0.0630102 0.
0.620015 0.0630111 0.
0.622016 0.063012 0.
0.624018 0.0630132 0.
0.62602 0.0630146 0.
0.628021 0.0630159 0.
0.630023 0.0630178 0.
0.632025 0.0630197 0.
0.634027 0.0630213 0.
0.636028 0.0630224 0.
0.63803 0.0630236 0.
0.640031 0.0630248 0.
0.642032 0.0630261 0.
0.644033 0.0630274 0.
0.646035 0.0630281 0.
0.648036 0.0630287 0.
0.650038 0.0630292 0.
0.652039 0.0630309 0.
0.65404 0.0630325 0.
0.656041 0.0630339 0.
0.658042 0.0630346 0.
0.660042 0.0630354 0.
0.662043 0.0630363 0.
0.664044 0.0630373 0.
0.666045 0.0630383 0.
0.668046 0.0630396 0.
0.670047 0.063041 0.
0.672047 0.0630424 0.
0.674047 0.0630437 0.
0.676048 0.063045 0.
0.678048 0.0630463 0.
0.680049 0.0630472 0.
0.682049 0.0630481 0.
0.684049 0.0630495 0.
0.68605 0.0630519 0.
0.68805 0.0630543 0.
0.69005 0.0630566 0.
0.692051 0.063059 0.
0.694051 0.0630613 0.
0.696051 0.0630633 0.
0.698051 0.063065 0.
0.499951 0.0650598 0.
0.501951 0.0650578 0.
0.50395 0.065056 0.
0.50595 0.0650543 0.
0.50795 0.0650525 0.
0.509951 0.0650507 0.
0.511951 0.065049 0.
0.513952 0.0650474 0.
0.515952 0.0650458 0.
0.517953 0.0650439 0.
0.519953 0.0650418 0.
0.521953 0.0650396 0.
0.523953 0.0650389 0.
0.525954 0.0650384 0.
0.527955 0.065038 0.
0.529955 0.0650378 0.
0.531956 0.0650375 0.
0.533957 0.0650368 0.
0.535957 0.0650351 0.
0.537958 0.0650334 0.
0.539959 0.065032 0.
0.54196 0.0650306 0.
0.543961 0.0650293 0.
0.545962 0.0650285 0.
0.547963 0.065028 0.
0.549964 0.0650274 0.
0.551966 0.0650261 0.
0.553968 0.0650247 0.
0.555969 0.0650234 0.
0.557971 0.0650225 0.
0.559972 0.0650216 0.
0.561973 0.0650203 0.
0.563974 0.0650186 0.
0.565975 0.0650169 0.
0.567975 0.0650157 0.
0.569976 0.0650148 0.
0.571976 0.0650139 0.
0.573978 0.0650126 0.
0.57598 0.0650112 0.
0.577983 0.0650097 0.
0.579985 0.0650081 0.
0.581987 0.0650064 0.
0.583989 0.0650054 0.
0.585989 0.0650057 0.
0.587989 0.065006 0.
0.58999 0.0650055 0.
0.591991 0.0650044 0.
0.593992 0.0650034 0.
0.595995 0.0650032 0.
0.597998 0.0650032 0.
0.6 0.0650033 0.
0.602002 0.0650038 0.
0.604004 0.0650043 0.
0.606006 0.0650047 0.
0.608007 0.065005 0.
0.610008 0.0650052 0.
0.612009 0.065006 0.
0.61401 0.0650075 0.
0.616011 0.0650089 0.
0.618013 0.0650101 0.
0.620014 0.0650111 0.
0.622016 0.065012 0.
0.624017 0.0650126 0.
0.626018 0.065013 0.
0.62802 0.0650138 0.
0.630022 0.0650163 0.
0.632024 0.0650188 0.
0.634025 0.0650208 0.
0.636026 0.0650218 0.
0.638027 0.0650229 0.
0.640028 0.065024 0.
0.64203 0.0650253 0.
0.644031 0.0650265 0.
0.646033 0.0650271 0.
0.648034 0.0650275 0.
0.650036 0.065028 0.
0.652037 0.0650303 0.
0.654038 0.0650326 0.
0.656039 0.0650345 0.
0.658039 0.0650352 0.
0.66004 0.0650358 0.
0.66204 0.0650366 0.
0.664042 0.0650377 0.
0.666043 0.0650387 0.
0.668043 0.0650399 0.
0.670044 0.0650411 0.
0.672044 0.0650423 0.
0.674045 0.0650436 0.
0.676045 0.065045 0.
0.678046 0.0650463 0.
0.680046 0.0650474 0.
0.682047 0.0650486 0.
0.684048 0.0650501 0.
0.686048 0.0650525 0.
0.688048 0.065055 0.
0.690048 0.0650572 0.
0.692048 0.0650593 0.
0.694048 0.0650615 0.
0.696048 0.0650634 0.
0.698049 0.0650653 0.
0.499952 0.067061 0.
0.501952 0.0670587 0.
0.503952 0.0670565 0.
0.505952 0.0670544 0.
0.507953 0.0670525 0.
0.509953 0.0670506 0.
0.511954 0.067049 0.
0.513954 0.0670475 0.
0.515954 0.0670461 0.
0.517955 0.0670444 0.
0.519955 0.0670424 0.
0.521955 0.0670405 0.
0.523955 0.0670397 0.
0.525956 0.067039 0.
0.527957 0.0670384 0.
0.529958 0.0670376 0.
0.531958 0.0670369 0.
0.533959 0.0670359 0.
0.53596 0.0670346 0.
0.537961 0.0670333 0.
0.539961 0.0670319 0.
0.541962 0.0670304 0.
0.543963 0.0670289 0.
0.545964 0.067028 0.
0.547965 0.0670274 0.
0.549966 0.0670267 0.
0.551967 0.0670254 0.
0.553969 0.0670241 0.
0.555971 0.0670228 0.
0.557972 0.0670221 0.
0.559973 0.0670213 0.
0.561974 0.0670201 0.
0.563975 0.0670181 0.
0.565976 0.0670161 0.
0.567977 0.0670148 0.
0.569978 0.0670139 0.
0.571978 0.067013 0.
0.57398 0.0670117 0.
0.575982 0.0670104 0.
0.577984 0.0670092 0.
0.579986 0.0670078 0.
0.581987 0.0670064 0.
0.583989 0.0670054 0.
0.585989 0.0670052 0.
0.58799 0.067005 0.
0.589991 0.0670045 0.
0.591992 0.0670036 0.
0.593993 0.0670028 0.
0.595995 0.0670031 0.
0.597998 0.0670036 0.
0.6 0.0670042 0.
0.602002 0.067004 0.
0.604004 0.0670038 0.
0.606006 0.0670039 0.
0.608006 0.0670046 0.
0.610007 0.0670053 0.
0.612008 0.0670061 0.
0.614009 0.0670072 0.
0.61601 0.0670082 0.
0.618011 0.0670094 0.
0.620013 0.0670106 0.
0.622014 0.0670118 0.
0.624016 0.0670123 0.
0.626018 0.0670127 0.
0.628019 0.0670133 0.
0.630021 0.0670158 0.
0.632023 0.0670183 0.
0.634024 0.0670203 0.
0.636025 0.0670213 0.
0.638026 0.0670224 0.
0.640027 0.0670235 0.
0.642028 0.0670247 0.
0.644029 0.0670259 0.
0.646031 0.0670266 0.
0.648032 0.0670273 0.
0.650034 0.0670279 0.
0.652034 0.06703 0.
0.654035 0.067032 0.
0.656036 0.0670338 0.
0.658036 0.0670347 0.
0.660037 0.0670356 0.
0.662038 0.0670366 0.
0.664039 0.0670376 0.
0.66604 0.0670386 0.
0.66804 0.0670398 0.
0.670041 0.0670412 0.
0.672041 0.0670425 0.
0.674042 0.0670437 0.
0.676043 0.067045 0.
0.678044 0.0670462 0.
0.680044 0.0670475 0.
0.682044 0.0670487 0.
0.684045 0.0670504 0.
0.686045 0.067053 0.
0.688045 0.0670557 0.
0.690046 0.0670578 0.
0.692046 0.0670596 0.
0.694046 0.0670615 0.
0.696046 0.0670635 0.
0.698047 0.0670656 0.
0.499954 0.0690617 0.
0.501954 0.0690595 0.
0.503954 0.0690569 0.
0.505954 0.0690545 0.
0.507955 0.0690525 0.
0.509956 0.0690506 0.
0.511956 0.0690489 0.
0.513956 0.0690477 0.
0.515957 0.0690464 0.
0.517957 0.0690448 0.
0.519957 0.0690431 0.
0.521957 0.0690413 0.
0.523957 0.0690404 0.
0.525959 0.0690396 0.
0.52796 0.0690388 0.
0.52996 0.0690375 0.
0.531961 0.0690362 0.
0.533961 0.0690351 0.
0.535962 0.0690341 0.
0.537963 0.0690332 0.
0.539964 0.0690319 0.
0.541965 0.0690302 0.
0.543966 0.0690286 0.
0.545966 0.0690276 0.
0.547967 0.0690268 0.
0.549968 0.069026 0.
0.551969 0.0690247 0.
0.553971 0.0690233 0.
0.555972 0.0690222 0.
0.557973 0.0690216 0.
0.559975 0.0690211 0.
0.561976 0.0690198 0.
0.563977 0.0690176 0.
0.565978 0.0690154 0.
0.567979 0.069014 0.
0.569979 0.069013 0.
0.57198 0.069012 0.
0.573982 0.0690109 0.
0.575983 0.0690097 0.
0.577985 0.0690086 0.
0.579986 0.0690075 0.
0.581988 0.0690065 0.
0.583989 0.0690055 0.
0.58599 0.0690048 0.
0.58799 0.0690041 0.
0.589992 0.0690034 0.
0.591993 0.0690028 0.
0.593994 0.0690022 0.
0.595996 0.0690029 0.
0.597998 0.069004 0.
0.600001 0.0690051 0.
0.602002 0.0690042 0.
0.604004 0.0690034 0.
0.606005 0.069003 0.
0.608006 0.0690041 0.
0.610006 0.0690053 0.
0.612007 0.0690062 0.
0.614008 0.0690068 0.
0.616009 0.0690075 0.
0.61801 0.0690086 0.
0.620011 0.0690101 0.
0.622013 0.0690116 0.
0.624015 0.069012 0.
0.626017 0.0690124 0.
0.628019 0.0690129 0.
0.63002 0.0690154 0.
0.632021 0.0690178 0.
0.634023 0.0690198 0.
0.636024 0.0690208 0.
0.638025 0.0690219 0.
0.640026 0.069023 0.
0.642027 0.0690241 0.
0.644028 0.0690252 0.
0.646029 0.0690262 0.
0.64803 0.069027 0.
0.650031 0.0690279 0.
0.652031 0.0690297 0.
0.654032 0.0690314 0.
0.656032 0.069033 0.
0.658033 0.0690342 0.
0.660034 0.0690354 0.
0.662035 0.0690365 0.
0.664036 0.0690375 0.
0.666037 0.0690385 0.
0.668037 0.0690398 0.
0.670038 0.0690412 0.
0.672038 0.0690427 0.
0.674039 0.0690438 0.
0.676041 0.069045 0.
0.678042 0.0690462 0.
0.680042 0.0690475 0.
0.682042 0.0690488 0.
0.684042 0.0690507 0.
0.686042 0.0690535 0.
0.688043 0.0690564 0.
0.690043 0.0690584 0.
0.692043 0.0690599 0.
0.694043 0.0690614 0.
0.696044 0.0690635 0.
0.698045 0.0690658 0.
0.499956 0.0710624 0.
0.501956 0.07106 0.
0.503957 0.0710572 0.
0.505957 0.0710547 0.
0.507958 0.0710527 0.
0.509958 0.0710508 0.
0.511959 0.0710492 0.
0.513959 0.071048 0.
0.515959 0.0710468 0.
0.517959 0.0710453 0.
0.519959 0.0710437 0.
0.521959 0.071042 0.
0.52396 0.0710409 0.
0.525961 0.0710399 0.
0.527962 0.0710388 0.
0.529962 0.0710374 0.
0.531963 0.0710359 0.
0.533963 0.0710347 0.
0.535964 0.0710338 0.
0.537965 0.0710329 0.
0.539966 0.0710316 0.
0.541967 0.0710301 0.
0.543968 0.0710285 0.
0.545968 0.0710273 0.
0.547969 0.0710264 0.
0.549969 0.0710254 0.
0.55197 0.0710243 0.
0.553972 0.0710231 0.
0.555973 0.071022 0.
0.557974 0.0710213 0.
0.559976 0.0710205 0.
0.561977 0.0710192 0.
0.563978 0.0710172 0.
0.565979 0.0710152 0.
0.56798 0.0710137 0.
0.569981 0.0710125 0.
0.571981 0.0710112 0.
0.573983 0.0710101 0.
0.575984 0.071009 0.
0.577986 0.0710079 0.
0.579987 0.071007 0.
0.581988 0.0710061 0.
0.583989 0.0710052 0.
0.58599 0.0710044 0.
0.587991 0.0710035 0.
0.589993 0.0710029 0.
0.591994 0.0710024 0.
0.593995 0.0710019 0.
0.595997 0.0710026 0.
0.597999 0.0710037 0.
0.600001 0.0710047 0.
0.602002 0.0710038 0.
0.604003 0.0710029 0.
0.606005 0.0710025 0.
0.608005 0.0710037 0.
0.610005 0.071005 0.
0.612006 0.0710059 0.
0.614007 0.0710063 0.
0.616008 0.0710068 0.
0.618009 0.0710079 0.
0.620011 0.0710093 0.
0.622012 0.0710107 0.
0.624014 0.0710114 0.
0.626016 0.0710119 0.
0.628018 0.0710126 0.
0.630019 0.0710151 0.
0.63202 0.0710175 0.
0.634021 0.0710195 0.
0.636022 0.0710205 0.
0.638023 0.0710215 0.
0.640024 0.0710226 0.
0.642025 0.0710238 0.
0.644025 0.071025 0.
0.646026 0.0710259 0.
0.648027 0.0710268 0.
0.650029 0.0710277 0.
0.652029 0.0710294 0.
0.654029 0.0710311 0.
0.656029 0.0710326 0.
0.658031 0.0710339 0.
0.660032 0.0710352 0.
0.662033 0.0710364 0.
0.664034 0.0710375 0.
0.666035 0.0710385 0.
0.668035 0.0710399 0.
0.670035 0.0710415 0.
0.672035 0.071043 0.
0.674037 0.071044 0.
0.676038 0.071045 0.
0.678039 0.071046 0.
0.680039 0.0710475 0.
0.682039 0.0710491 0.
0.684039 0.071051 0.
0.68604 0.0710538 0.
0.68804 0.0710566 0.
0.69004 0.0710586 0.
0.69204 0.07106 0.
0.694041 0.0710614 0.
0.696041 0.0710635 0.
0.698042 0.0710659 0.
0.49996 0.0730631 0.
0.50196 0.0730602 0.
0.50396 0.0730574 0.
0.50596 0.0730548 0.
0.50796 0.0730531 0.
0.509961 0.0730514 0.
0.511961 0.0730498 0.
0.513961 0.0730486 0.
0.515961 0.0730474 0.
0.517961 0.0730459 0.
0.519961 0.0730442 0.
0.521962 0.0730426 0.
0.523962 0.0730411 0.
0.525963 0.0730397 0.
0.527963 0.0730383 0.
0.529964 0.0730372 0.
0.531965 0.073036 0.
0.533965 0.0730348 0.
0.535966 0.0730336 0.
0.537967 0.0730324 0.
0.539968 0.0730312 0.
0.541969 0.0730299 0.
0.543969 0.0730286 0.
0.54597 0.0730274 0.
0.54797 0.0730261 0.
0.54997 0.0730248 0.
0.551971 0.073024 0.
0.553972 0.0730233 0.
0.555973 0.0730224 0.
0.557975 0.073021 0.
0.559976 0.0730197 0.
0.561978 0.0730183 0.
0.563979 0.0730169 0.
0.56598 0.0730156 0.
0.567981 0.073014 0.
0.569982 0.0730123 0.
0.571982 0.0730106 0.
0.573984 0.0730094 0.
0.575985 0.0730083 0.
0.577987 0.0730072 0.
0.579988 0.0730062 0.
0.581989 0.0730052 0.
0.58399 0.0730044 0.
0.585991 0.0730039 0.
0.587992 0.0730035 0.
0.589994 0.073003 0.
0.591995 0.0730024 0.
0.593996 0.0730019 0.
0.595997 0.0730021 0.
0.597999 0.0730026 0.
0.600001 0.0730031 0.
0.602002 0.0730027 0.
0.604003 0.0730024 0.
0.606004 0.0730023 0.
0.608004 0.0730033 0.
0.610005 0.0730043 0.
0.612006 0.0730051 0.
0.614007 0.0730056 0.
0.616008 0.0730061 0.
0.618009 0.0730071 0.
0.62001 0.0730082 0.
0.622012 0.0730093 0.
0.624014 0.0730102 0.
0.626016 0.0730112 0.
0.628018 0.0730123 0.
0.630019 0.0730149 0.
0.63202 0.0730176 0.
0.63402 0.0730196 0.
0.636021 0.0730204 0.
0.638022 0.0730212 0.
0.640022 0.0730224 0.
0.642023 0.0730238 0.
0.644023 0.0730251 0.
0.646024 0.0730259 0.
0.648025 0.0730266 0.
0.650026 0.0730273 0.
0.652027 0.0730291 0.
0.654027 0.0730309 0.
0.656028 0.0730326 0.
0.658029 0.0730338 0.
0.66003 0.0730351 0.
0.662031 0.0730363 0.
0.664032 0.0730375 0.
0.666032 0.0730387 0.
0.668033 0.0730402 0.
0.670033 0.0730418 0.
0.672033 0.0730435 0.
0.674034 0.0730442 0.
0.676035 0.0730449 0.
0.678037 0.0730457 0.
0.680036 0.0730475 0.
0.682036 0.0730494 0.
0.684036 0.0730514 0.
0.686037 0.0730539 0.
0.688037 0.0730564 0.
0.690038 0.0730583 0.
0.692038 0.0730598 0.
0.694038 0.0730613 0.
0.696039 0.0730635 0.
0.698039 0.073066 0.
0.499963 0.0750634 0.
0.501963 0.0750604 0.
0.503963 0.0750576 0.
0.505963 0.075055 0.
0.507963 0.0750534 0.
0.509963 0.0750519 0.
0.511963 0.0750505 0.
0.513963 0.0750492 0.
0.515963 0.0750479 0.
0.517964 0.0750464 0.
0.519964 0.0750448 0.
0.521964 0.0750431 0.
0.523965 0.0750414 0.
0.525965 0.0750396 0.
0.527965 0.075038 0.
0.529966 0.075037 0.
0.531966 0.0750361 0.
0.533967 0.0750349 0.
0.535968 0.0750335 0.
0.537969 0.075032 0.
0.53997 0.0750308 0.
0.54197 0.0750298 0.
0.543971 0.0750288 0.
0.545971 0.0750274 0.
0.547971 0.0750259 0.
0.549972 0.0750243 0.
0.551972 0.0750238 0.
0.553973 0.0750235 0.
0.555974 0.0750228 0.
0.557976 0.0750208 0.
0.559977 0.0750188 0.
0.561979 0.0750174 0.
0.56398 0.0750167 0.
0.565981 0.075016 0.
0.567982 0.0750143 0.
0.569982 0.0750121 0.
0.571983 0.07501 0.
0.573985 0.0750087 0.
0.575986 0.0750076 0.
0.577988 0.0750066 0.
0.579989 0.0750055 0.
0.58199 0.0750044 0.
0.583991 0.0750036 0.
0.585992 0.0750035 0.
0.587994 0.0750034 0.
0.589995 0.075003 0.
0.591996 0.0750025 0.
0.593997 0.0750019 0.
0.595998 0.0750017 0.
0.597999 0.0750015 0.
0.600001 0.0750014 0.
0.602002 0.0750016 0.
0.604002 0.0750018 0.
0.606003 0.0750021 0.
0.608004 0.0750029 0.
0.610005 0.0750037 0.
0.612005 0.0750044 0.
0.614006 0.0750049 0.
0.616007 0.0750055 0.
0.618008 0.0750062 0.
0.62001 0.075007 0.
0.622012 0.0750078 0.
0.624014 0.0750091 0.
0.626015 0.0750105 0.
0.628017 0.075012 0.
0.630018 0.0750148 0.
0.632019 0.0750176 0.
0.634019 0.0750196 0.
0.63602 0.0750203 0.
0.63802 0.0750209 0.
0.640021 0.0750221 0.
0.64202 0.0750237 0.
0.64402 0.0750253 0.
0.646022 0.075026 0.
0.648023 0.0750265 0.
0.650024 0.0750269 0.
0.652025 0.0750288 0.
0.654026 0.0750307 0.
0.656026 0.0750325 0.
0.658027 0.0750337 0.
0.660029 0.075035 0.
0.66203 0.0750363 0.
0.66403 0.0750376 0.
0.66603 0.0750388 0.
0.668031 0.0750404 0.
0.670031 0.0750422 0.
0.672031 0.0750439 0.
0.674032 0.0750445 0.
0.676033 0.0750448 0.
0.678034 0.0750454 0.
0.680034 0.0750476 0.
0.682034 0.0750497 0.
0.684034 0.0750518 0.
0.686034 0.075054 0.
0.688035 0.0750562 0.
0.690035 0.0750581 0.
0.692035 0.0750597 0.
0.694036 0.0750613 0.
0.696036 0.0750636 0.
0.698036 0.075066 0.
0.499965 0.0770627 0.
0.501965 0.0770602 0.
0.503965 0.0770576 0.
0.505965 0.0770552 0.
0.507966 0.0770538 0.
0.509966 0.0770523 0.
0.511966 0.0770509 0.
0.513966 0.0770495 0.
0.515966 0.0770482 0.
0.517966 0.0770466 0.
0.519966 0.0770449 0.
0.521967 0.0770432 0.
0.523967 0.0770417 0.
0.525967 0.0770401 0.
0.527967 0.0770386 0.
0.529967 0.0770374 0.
0.531968 0.0770361 0.
0.533969 0.0770348 0.
0.53597 0.0770333 0.
0.537971 0.0770319 0.
0.539971 0.0770307 0.
0.541972 0.0770299 0.
0.543972 0.0770291 0.
0.545972 0.0770278 0.
0.547973 0.0770262 0.
0.549973 0.0770247 0.
0.551974 0.0770241 0.
0.553975 0.0770235 0.
0.555976 0.0770226 0.
0.557977 0.0770205 0.
0.559978 0.0770185 0.
0.56198 0.077017 0.
0.563981 0.077016 0.
0.565982 0.077015 0.
0.567983 0.0770136 0.
0.569984 0.0770119 0.
0.571985 0.0770102 0.
0.573986 0.0770089 0.
0.575988 0.0770077 0.
0.577989 0.0770065 0.
0.57999 0.0770057 0.
0.581991 0.0770049 0.
0.583992 0.0770041 0.
0.585993 0.0770035 0.
0.587994 0.0770029 0.
0.589995 0.0770025 0.
0.591996 0.0770022 0.
0.593996 0.0770019 0.
0.595998 0.0770019 0.
0.597999 0.077002 0.
0.6 0.0770021 0.
0.602001 0.0770017 0.
0.604002 0.0770013 0.
0.606003 0.0770013 0.
0.608004 0.0770025 0.
0.610005 0.0770037 0.
0.612005 0.0770045 0.
0.614006 0.0770046 0.
0.616007 0.0770047 0.
0.618008 0.0770055 0.
0.620009 0.0770066 0.
0.62201 0.0770077 0.
0.624012 0.077009 0.
0.626013 0.0770102 0.
0.628014 0.0770116 0.
0.630015 0.077014 0.
0.632016 0.0770165 0.
0.634017 0.0770184 0.
0.636018 0.0770194 0.
0.638018 0.0770205 0.
0.640019 0.077022 0.
0.642019 0.0770237 0.
0.644019 0.0770254 0.
0.64602 0.0770261 0.
0.648021 0.0770267 0.
0.650022 0.0770272 0.
0.652022 0.0770288 0.
0.654023 0.0770303 0.
0.656023 0.0770319 0.
0.658025 0.0770332 0.
0.660026 0.0770346 0.
0.662026 0.0770361 0.
0.664027 0.0770376 0.
0.666027 0.0770392 0.
0.668027 0.0770406 0.
0.670028 0.0770421 0.
0.672028 0.0770435 0.
0.674029 0.0770443 0.
0.67603 0.0770451 0.
0.678031 0.077046 0.
0.680031 0.077048 0.
0.682031 0.0770501 0.
0.684031 0.0770521 0.
0.686032 0.0770539 0.
0.688032 0.0770558 0.
0.690033 0.0770577 0.
0.692033 0.0770594 0.
0.694033 0.0770612 0.
0.696033 0.0770636 0.
0.698034 0.0770661 0.
0.499968 0.079062 0.
0.501967 0.07906 0.
0.503967 0.0790577 0.
0.505967 0.0790555 0.
0.507968 0.0790541 0.
0.509968 0.0790527 0.
0.511968 0.0790512 0.
0.513968 0.0790498 0.
0.515968 0.0790484 0.
0.517969 0.0790468 0.
0.519969 0.079045 0.
0.521969 0.0790433 0.
0.523969 0.079042 0.
0.525968 0.0790407 0.
0.527968 0.0790393 0.
0.529969 0.0790378 0.
0.53197 0.0790362 0.
0.533971 0.0790347 0.
0.535971 0.0790332 0.
0.537972 0.0790317 0.
0.539972 0.0790307 0.
0.541973 0.07903 0.
0.543973 0.0790294 0.
0.545974 0.0790281 0.
0.547974 0.0790266 0.
0.549975 0.0790251 0.
0.551976 0.0790243 0.
0.553977 0.0790234 0.
0.555979 0.0790223 0.
0.557979 0.0790203 0.
0.55998 0.0790182 0.
0.56198 0.0790166 0.
0.563981 0.0790153 0.
0.565983 0.0790141 0.
0.567984 0.0790128 0.
0.569985 0.0790116 0.
0.571986 0.0790103 0.
0.573988 0.079009 0.
0.575989 0.0790077 0.
0.57799 0.0790064 0.
0.57999 0.0790058 0.
0.581991 0.0790053 0.
0.583992 0.0790046 0.
0.585993 0.0790035 0.
0.587994 0.0790024 0.
0.589995 0.0790019 0.
0.591996 0.0790018 0.
0.593996 0.0790018 0.
0.595997 0.0790021 0.
0.597998 0.0790025 0.
0.6 0.0790029 0.
0.602001 0.0790019 0.
0.604001 0.0790009 0.
0.606002 0.0790004 0.
0.608004 0.0790021 0.
0.610005 0.0790037 0.
0.612006 0.0790045 0.
0.614006 0.0790042 0.
0.616006 0.0790039 0.
0.618007 0.0790048 0.
0.620008 0.0790063 0.
0.622009 0.0790077 0.
0.62401 0.0790088 0.
0.62601 0.07901 0.
0.628011 0.0790112 0.
0.630012 0.0790133 0.
0.632014 0.0790153 0.
0.634015 0.0790172 0.
0.636016 0.0790186 0.
0.638016 0.0790201 0.
0.640017 0.0790218 0.
0.642018 0.0790236 0.
0.644018 0.0790255 0.
0.646019 0.0790263 0.
0.648019 0.0790269 0.
0.65002 0.0790275 0.
0.65202 0.0790287 0.
0.65402 0.07903 0.
0.656021 0.0790312 0.
0.658022 0.0790327 0.
0.660022 0.0790342 0.
0.662023 0.0790359 0.
0.664023 0.0790377 0.
0.666023 0.0790395 0.
0.668024 0.0790408 0.
0.670025 0.079042 0.
0.672025 0.0790431 0.
0.674026 0.0790442 0.
0.676028 0.0790453 0.
0.678029 0.0790465 0.
0.680029 0.0790485 0.
0.682029 0.0790505 0.
0.684029 0.0790524 0.
0.686029 0.0790539 0.
0.68803 0.0790554 0.
0.69003 0.0790572 0.
0.69203 0.0790591 0.
0.694031 0.0790611 0.
0.696031 0.0790635 0.
0.698031 0.0790662 0.
0.499969 0.0810614 0.
0.501969 0.0810596 0.
0.503969 0.0810577 0.
0.505969 0.0810557 0.
0.50797 0.0810542 0.
0.50997 0.0810527 0.
0.511971 0.0810512 0.
0.513971 0.0810498 0.
0.515971 0.0810484 0.
0.517971 0.0810468 0.
0.519971 0.0810451 0.
0.521971 0.0810434 0.
0.523971 0.0810421 0.
0.52597 0.0810409 0.
0.52797 0.0810396 0.
0.529971 0.0810378 0.
0.531972 0.0810361 0.
0.533973 0.0810344 0.
0.535973 0.081033 0.
0.537973 0.0810315 0.
0.539974 0.0810305 0.
0.541974 0.0810299 0.
0.543975 0.0810293 0.
0.545975 0.0810281 0.
0.547976 0.0810268 0.
0.549976 0.0810254 0.
0.551977 0.0810243 0.
0.553979 0.0810232 0.
0.55598 0.0810219 0.
0.55798 0.0810201 0.
0.559981 0.0810182 0.
0.561981 0.0810166 0.
0.563982 0.0810151 0.
0.565983 0.0810136 0.
0.567984 0.0810125 0.
0.569986 0.0810116 0.
0.571987 0.0810106 0.
0.573988 0.0810093 0.
0.575989 0.081008 0.
0.57799 0.0810067 0.
0.579991 0.0810059 0.
0.581991 0.0810052 0.
0.583992 0.0810044 0.
0.585993 0.0810033 0.
0.587994 0.0810022 0.
0.589995 0.0810017 0.
0.591995 0.0810017 0.
0.593996 0.0810016 0.
0.595997 0.081002 0.
0.597998 0.0810024 0.
0.599999 0.0810029 0.
0.602 0.0810018 0.
0.604001 0.0810007 0.
0.606002 0.0810002 0.
0.608003 0.0810019 0.
0.610004 0.0810035 0.
0.612005 0.0810043 0.
0.614005 0.0810041 0.
0.616006 0.0810038 0.
0.618006 0.0810046 0.
0.620007 0.081006 0.
0.622008 0.0810073 0.
0.624008 0.0810084 0.
0.626009 0.0810095 0.
0.628009 0.0810107 0.
0.630011 0.0810126 0.
0.632012 0.0810146 0.
0.634013 0.0810164 0.
0.636014 0.081018 0.
0.638015 0.0810196 0.
0.640015 0.0810214 0.
0.642016 0.0810233 0.
0.644017 0.0810252 0.
0.646018 0.0810263 0.
0.648018 0.081027 0.
0.650018 0.0810278 0.
0.652018 0.0810288 0.
0.654018 0.0810298 0.
0.656019 0.0810308 0.
0.658019 0.0810323 0.
0.66002 0.0810337 0.
0.662021 0.0810354 0.
0.664021 0.0810373 0.
0.666021 0.0810393 0.
0.668022 0.0810406 0.
0.670022 0.0810417 0.
0.672023 0.0810427 0.
0.674024 0.0810439 0.
0.676025 0.0810451 0.
0.678026 0.0810464 0.
0.680026 0.0810486 0.
0.682026 0.0810509 0.
0.684026 0.0810528 0.
0.686027 0.0810542 0.
0.688027 0.0810556 0.
0.690028 0.0810573 0.
0.692028 0.0810592 0.
0.694028 0.0810611 0.
0.696029 0.0810636 0.
0.698029 0.0810663 0.
0.499969 0.0830605 0.
0.50197 0.0830592 0.
0.503971 0.0830576 0.
0.505971 0.0830559 0.
0.507972 0.0830541 0.
0.509973 0.0830523 0.
0.511973 0.0830507 0.
0.513973 0.0830494 0.
0.515973 0.083048 0.
0.517973 0.0830466 0.
0.519973 0.0830451 0.
0.521973 0.0830436 0.
0.523973 0.0830422 0.
0.525973 0.0830408 0.
0.527973 0.0830393 0.
0.529974 0.0830375 0.
0.531974 0.0830357 0.
0.533975 0.083034 0.
0.535975 0.0830326 0.
0.537975 0.0830312 0.
0.539975 0.0830303 0.
0.541976 0.0830296 0.
0.543977 0.083029 0.
0.545977 0.0830279 0.
0.547977 0.0830268 0.
0.549977 0.0830256 0.
0.551979 0.0830242 0.
0.55398 0.0830228 0.
0.555981 0.0830214 0.
0.557981 0.0830199 0.
0.559982 0.0830185 0.
0.561982 0.083017 0.
0.563983 0.0830154 0.
0.565984 0.0830137 0.
0.567985 0.0830126 0.
0.569986 0.0830118 0.
0.571986 0.0830109 0.
0.573988 0.0830098 0.
0.575989 0.0830086 0.
0.57799 0.0830074 0.
0.579991 0.083006 0.
0.581991 0.0830046 0.
0.583992 0.0830035 0.
0.585993 0.0830029 0.
0.587994 0.0830023 0.
0.589994 0.0830019 0.
0.591995 0.0830017 0.
0.593995 0.0830014 0.
0.595996 0.0830016 0.
0.597997 0.0830019 0.
0.599997 0.0830022 0.
0.601999 0.0830015 0.
0.604 0.0830009 0.
0.606001 0.0830006 0.
0.608002 0.0830019 0.
0.610002 0.0830032 0.
0.612003 0.083004 0.
0.614003 0.0830042 0.
0.616004 0.0830044 0.
0.618005 0.083005 0.
0.620006 0.0830058 0.
0.622007 0.0830066 0.
0.624008 0.0830077 0.
0.626008 0.0830088 0.
0.628009 0.08301 0.
0.63001 0.0830122 0.
0.632011 0.0830143 0.
0.634011 0.0830162 0.
0.636012 0.0830176 0.
0.638013 0.083019 0.
0.640014 0.0830207 0.
0.642015 0.0830227 0.
0.644016 0.0830247 0.
0.646017 0.083026 0.
0.648017 0.0830271 0.
0.650017 0.0830281 0.
0.652017 0.083029 0.
0.654017 0.0830298 0.
0.656017 0.0830307 0.
0.658018 0.0830319 0.
0.660019 0.0830332 0.
0.662019 0.0830347 0.
0.66402 0.0830367 0.
0.66602 0.0830386 0.
0.668021 0.08304 0.
0.670021 0.0830412 0.
0.672021 0.0830423 0.
0.674022 0.0830434 0.
0.676023 0.0830445 0.
0.678024 0.0830458 0.
0.680024 0.0830485 0.
0.682024 0.0830512 0.
0.684024 0.0830535 0.
0.686024 0.0830549 0.
0.688025 0.0830563 0.
0.690025 0.0830578 0.
0.692026 0.0830596 0.
0.694026 0.0830613 0.
0.696027 0.0830637 0.
0.698027 0.0830663 0.
0.49997 0.08506 0.
0.501971 0.0850588 0.
0.503972 0.0850575 0.
0.505973 0.0850561 0.
0.507974 0.085054 0.
0.509975 0.085052 0.
0.511976 0.0850503 0.
0.513975 0.085049 0.
0.515975 0.0850477 0.
0.517975 0.0850464 0.
0.519975 0.0850451 0.
0.521975 0.0850439 0.
0.523975 0.0850424 0.
0.525975 0.0850407 0.
0.527976 0.0850391 0.
0.529976 0.0850372 0.
0.531977 0.0850353 0.
0.533977 0.0850335 0.
0.535977 0.0850322 0.
0.537976 0.0850309 0.
0.539977 0.08503 0.
0.541978 0.0850293 0.
0.543979 0.0850286 0.
0.545979 0.0850277 0.
0.547979 0.0850268 0.
0.549979 0.0850258 0.
0.55198 0.0850241 0.
0.55398 0.0850224 0.
0.555981 0.0850208 0.
0.557982 0.0850198 0.
0.559982 0.0850188 0.
0.561983 0.0850174 0.
0.563984 0.0850156 0.
0.565985 0.0850138 0.
0.567986 0.0850127 0.
0.569986 0.085012 0.
0.571986 0.0850113 0.
0.573987 0.0850103 0.
0.575989 0.0850092 0.
0.57799 0.085008 0.
0.57999 0.085006 0.
0.581991 0.085004 0.
0.583992 0.0850026 0.
0.585993 0.0850025 0.
0.587993 0.0850024 0.
0.589994 0.0850021 0.
0.591995 0.0850017 0.
0.593995 0.0850012 0.
0.595996 0.0850012 0.
0.597996 0.0850014 0.
0.599996 0.0850015 0.
0.601998 0.0850013 0.
0.603999 0.0850011 0.
0.606 0.0850011 0.
0.608001 0.0850019 0.
0.610001 0.0850028 0.
0.612001 0.0850036 0.
0.614002 0.0850043 0.
0.616002 0.0850049 0.
0.618003 0.0850053 0.
0.620005 0.0850056 0.
0.622006 0.0850059 0.
0.624007 0.0850069 0.
0.626008 0.0850081 0.
0.628009 0.0850094 0.
0.630009 0.0850117 0.
0.632009 0.085014 0.
0.63401 0.0850159 0.
0.636011 0.0850171 0.
0.638011 0.0850184 0.
0.640013 0.0850201 0.
0.642014 0.0850222 0.
0.644015 0.0850242 0.
0.646016 0.0850258 0.
0.648016 0.0850271 0.
0.650016 0.0850284 0.
0.652016 0.0850291 0.
0.654016 0.0850298 0.
0.656016 0.0850305 0.
0.658017 0.0850316 0.
0.660017 0.0850326 0.
0.662018 0.0850341 0.
0.664019 0.085036 0.
0.66602 0.085038 0.
0.66802 0.0850395 0.
0.67002 0.0850407 0.
0.672019 0.0850419 0.
0.67402 0.0850429 0.
0.676021 0.0850439 0.
0.678022 0.0850451 0.
0.680021 0.0850483 0.
0.682021 0.0850515 0.
0.684021 0.0850541 0.
0.686022 0.0850555 0.
0.688022 0.0850569 0.
0.690023 0.0850584 0.
0.692023 0.0850599 0.
0.694024 0.0850615 0.
0.696024 0.0850638 0.
0.698024 0.0850663 0.
0.499974 0.0870606 0.
0.501974 0.087059 0.
0.503975 0.0870574 0.
0.505975 0.0870558 0.
0.507976 0.0870541 0.
0.509976 0.0870523 0.
0.511977 0.0870507 0.
0.513976 0.0870493 0.
0.515976 0.0870478 0.
0.517976 0.0870463 0.
0.519976 0.0870448 0.
0.521976 0.0870433 0.
0.523976 0.0870421 0.
0.525977 0.0870408 0.
0.527978 0.0870395 0.
0.529978 0.0870376 0.
0.531978 0.0870357 0.
0.533978 0.0870339 0.
0.535978 0.0870325 0.
0.537978 0.0870311 0.
0.539979 0.0870301 0.
0.541979 0.0870295 0.
0.54398 0.0870288 0.
0.54598 0.0870279 0.
0.547981 0.087027 0.
0.549981 0.087026 0.
0.551981 0.0870242 0.
0.553982 0.0870223 0.
0.555983 0.0870206 0.
0.557983 0.0870194 0.
0.559984 0.0870183 0.
0.561985 0.0870171 0.
0.563986 0.0870157 0.
0.565986 0.0870143 0.
0.567986 0.0870132 0.
0.569986 0.0870123 0.
0.571986 0.0870115 0.
0.573988 0.0870101 0.
0.575989 0.0870087 0.
0.57799 0.0870073 0.
0.579991 0.0870055 0.
0.581992 0.0870038 0.
0.583993 0.0870026 0.
0.585993 0.0870025 0.
0.587994 0.0870023 0.
0.589994 0.0870021 0.
0.591995 0.0870016 0.
0.593996 0.0870012 0.
0.595996 0.0870012 0.
0.597997 0.0870013 0.
0.599997 0.0870014 0.
0.601998 0.0870014 0.
0.603999 0.0870014 0.
0.606 0.0870015 0.
0.608 0.087002 0.
0.61 0.0870025 0.
0.612001 0.0870032 0.
0.614001 0.0870039 0.
0.616001 0.0870046 0.
0.618002 0.0870049 0.
0.620003 0.0870051 0.
0.622005 0.0870052 0.
0.624005 0.0870065 0.
0.626006 0.087008 0.
0.628007 0.0870096 0.
0.630007 0.0870117 0.
0.632008 0.0870139 0.
0.634008 0.0870156 0.
0.636009 0.0870168 0.
0.63801 0.087018 0.
0.640011 0.0870196 0.
0.642012 0.0870214 0.
0.644013 0.0870233 0.
0.646014 0.0870248 0.
0.648014 0.0870263 0.
0.650015 0.0870277 0.
0.652015 0.0870286 0.
0.654015 0.0870296 0.
0.656015 0.0870305 0.
0.658015 0.0870314 0.
0.660015 0.0870324 0.
0.662016 0.0870338 0.
0.664016 0.0870358 0.
0.666017 0.0870377 0.
0.668017 0.0870393 0.
0.670017 0.0870406 0.
0.672017 0.0870419 0.
0.674018 0.087043 0.
0.676018 0.0870441 0.
0.678019 0.0870454 0.
0.680019 0.0870482 0.
0.682019 0.087051 0.
0.684019 0.0870534 0.
0.686019 0.0870548 0.
0.688019 0.0870563 0.
0.69002 0.0870581 0.
0.69202 0.0870601 0.
0.694021 0.0870621 0.
0.696021 0.0870642 0.
0.698022 0.0870665 0.
0.499977 0.0890613 0.
0.501977 0.0890591 0.
0.503977 0.0890573 0.
0.505977 0.0890555 0.
0.507977 0.0890541 0.
0.509978 0.0890527 0.
0.511978 0.0890512 0.
0.513977 0.0890495 0.
0.515977 0.0890479 0.
0.517977 0.0890462 0.
0.519977 0.0890445 0.
0.521977 0.0890428 0.
0.523977 0.0890418 0.
0.525978 0.0890409 0.
0.527979 0.0890399 0.
0.529979 0.089038 0.
0.53198 0.0890361 0.
0.53398 0.0890343 0.
0.53598 0.0890328 0.
0.53798 0.0890313 0.
0.53998 0.0890302 0.
0.541981 0.0890296 0.
0.543981 0.089029 0.
0.545982 0.0890282 0.
0.547982 0.0890272 0.
0.549982 0.0890263 0.
0.551983 0.0890243 0.
0.553984 0.0890222 0.
0.555984 0.0890203 0.
0.557985 0.0890191 0.
0.559986 0.0890179 0.
0.561986 0.0890168 0.
0.563987 0.0890157 0.
0.565987 0.0890147 0.
0.567987 0.0890137 0.
0.569987 0.0890127 0.
0.571987 0.0890116 0.
0.573988 0.08901 0.
0.575989 0.0890082 0.
0.577991 0.0890065 0.
0.579992 0.0890051 0.
0.581993 0.0890037 0.
0.583993 0.0890027 0.
0.585994 0.0890025 0.
0.587994 0.0890023 0.
0.589995 0.089002 0.
0.591995 0.0890016 0.
0.593996 0.0890012 0.
0.595997 0.0890012 0.
0.597998 0.0890012 0.
0.599998 0.0890013 0.
0.601999 0.0890015 0.
0.603999 0.0890017 0.
0.606 0.0890019 0.
0.608 0.0890021 0.
0.61 0.0890023 0.
0.612 0.0890028 0.
0.614001 0.0890036 0.
0.616001 0.0890043 0.
0.618001 0.0890046 0.
0.620002 0.0890046 0.
0.622003 0.0890045 0.
0.624004 0.0890061 0.
0.626005 0.089008 0.
0.628005 0.0890098 0.
0.630006 0.0890118 0.
0.632006 0.0890137 0.
0.634007 0.0890154 0.
0.636008 0.0890165 0.
0.638008 0.0890176 0.
0.640009 0.089019 0.
0.64201 0.0890207 0.
0.644011 0.0890223 0.
0.646011 0.0890239 0.
0.648012 0.0890254 0.
0.650013 0.089027 0.
0.652013 0.0890282 0.
0.654013 0.0890293 0.
0.656013 0.0890304 0.
0.658013 0.0890313 0.
0.660013 0.0890322 0.
0.662013 0.0890335 0.
0.664014 0.0890355 0.
0.666014 0.0890375 0.
0.668015 0.089039 0.
0.670015 0.0890404 0.
0.672015 0.0890417 0.
0.674016 0.089043 0.
0.676016 0.0890443 0.
0.678016 0.0890457 0.
0.680016 0.0890481 0.
0.682016 0.0890505 0.
0.684016 0.0890526 0.
0.686016 0.0890542 0.
0.688016 0.0890558 0.
0.690017 0.0890578 0.
0.692017 0.0890602 0.
0.694018 0.0890626 0.
0.696018 0.0890647 0.
0.698019 0.0890667 0.
0.499979 0.0910613 0.
0.501979 0.0910594 0.
0.503979 0.0910575 0.
0.505979 0.0910557 0.
0.507979 0.0910543 0.
0.509979 0.0910529 0.
0.511979 0.0910514 0.
0.513979 0.0910497 0.
0.515979 0.0910479 0.
0.517979 0.0910462 0.
0.519978 0.0910444 0.
0.521978 0.0910427 0.
0.523979 0.0910417 0.
0.52598 0.0910408 0.
0.527981 0.0910398 0.
0.529981 0.091038 0.
0.531981 0.0910362 0.
0.533981 0.0910345 0.
0.535982 0.0910331 0.
0.537982 0.0910317 0.
0.539982 0.0910306 0.
0.541982 0.0910299 0.
0.543983 0.0910292 0.
0.545983 0.0910282 0.
0.547983 0.0910272 0.
0.549984 0.0910261 0.
0.551984 0.0910241 0.
0.553985 0.091022 0.
0.555986 0.0910201 0.
0.557986 0.0910189 0.
0.559987 0.0910176 0.
0.561988 0.0910166 0.
0.563988 0.0910157 0.
0.565989 0.0910149 0.
0.567989 0.0910139 0.
0.569988 0.0910128 0.
0.571988 0.0910116 0.
0.573989 0.0910097 0.
0.57599 0.0910076 0.
0.577992 0.0910057 0.
0.579992 0.0910047 0.
0.581993 0.0910037 0.
0.583994 0.0910029 0.
0.585994 0.0910026 0.
0.587995 0.0910023 0.
0.589995 0.0910019 0.
0.591995 0.0910016 0.
0.593996 0.0910013 0.
0.595997 0.0910011 0.
0.597998 0.0910008 0.
0.599999 0.0910005 0.
0.601999 0.0910011 0.
0.603999 0.0910016 0.
0.606 0.0910021 0.
0.608 0.0910022 0.
0.61 0.0910023 0.
0.612 0.0910026 0.
0.614 0.0910031 0.
0.616 0.0910037 0.
0.618001 0.091004 0.
0.620001 0.0910042 0.
0.622002 0.0910044 0.
0.624003 0.091006 0.
0.626003 0.0910078 0.
0.628004 0.0910097 0.
0.630004 0.0910114 0.
0.632005 0.0910132 0.
0.634006 0.0910148 0.
0.636006 0.091016 0.
0.638007 0.0910173 0.
0.640007 0.0910187 0.
0.642008 0.0910203 0.
0.644009 0.0910218 0.
0.64601 0.0910234 0.
0.64801 0.091025 0.
0.650011 0.0910266 0.
0.652011 0.0910278 0.
0.654011 0.0910289 0.
0.656012 0.0910301 0.
0.658012 0.0910312 0.
0.660011 0.0910322 0.
0.662011 0.0910336 0.
0.664012 0.0910355 0.
0.666012 0.0910373 0.
0.668013 0.0910388 0.
0.670013 0.09104 0.
0.672013 0.0910413 0.
0.674014 0.0910429 0.
0.676014 0.0910445 0.
0.678014 0.0910462 0.
0.680014 0.0910483 0.
0.682014 0.0910503 0.
0.684014 0.0910522 0.
0.686014 0.091054 0.
0.688014 0.0910557 0.
0.690014 0.0910578 0.
0.692015 0.0910603 0.
0.694015 0.0910628 0.
0.696016 0.0910648 0.
0.698016 0.0910667 0.
0.49998 0.0930616 0.
0.50198 0.0930596 0.
0.50398 0.093058 0.
0.50598 0.0930563 0.
0.50798 0.0930547 0.
0.50998 0.093053 0.
0.51198 0.0930513 0.
0.513981 0.0930496 0.
0.515981 0.0930479 0.
0.517981 0.0930463 0.
0.519981 0.0930446 0.
0.52198 0.0930429 0.
0.523981 0.0930417 0.
0.525981 0.0930405 0.
0.527982 0.0930393 0.
0.529983 0.0930376 0.
0.531983 0.093036 0.
0.533983 0.0930345 0.
0.535984 0.0930334 0.
0.537984 0.0930323 0.
0.539984 0.0930313 0.
0.541984 0.0930303 0.
0.543984 0.0930294 0.
0.545984 0.0930282 0.
0.547985 0.093027 0.
0.549985 0.0930257 0.
0.551986 0.0930237 0.
0.553987 0.0930218 0.
0.555987 0.0930199 0.
0.557988 0.0930188 0.
0.559988 0.0930176 0.
0.561989 0.0930165 0.
0.56399 0.0930157 0.
0.56599 0.0930148 0.
0.56799 0.0930138 0.
0.56999 0.0930126 0.
0.57199 0.0930114 0.
0.573991 0.0930092 0.
0.575992 0.093007 0.
0.577993 0.0930049 0.
0.579994 0.0930044 0.
0.581994 0.0930039 0.
0.583994 0.0930034 0.
0.585995 0.0930028 0.
0.587995 0.0930023 0.
0.589995 0.0930019 0.
0.591995 0.0930017 0.
0.593996 0.0930015 0.
0.595996 0.0930009 0.
0.597997 0.0930001 0.
0.599998 0.0929992 0.
0.601999 0.0930002 0.
0.603999 0.0930012 0.
0.605999 0.093002 0.
0.608 0.0930023 0.
0.61 0.0930025 0.
0.612 0.0930026 0.
0.614 0.0930027 0.
0.616001 0.0930027 0.
0.618001 0.0930032 0.
0.620001 0.0930039 0.
0.622002 0.0930047 0.
0.624002 0.0930061 0.
0.626002 0.0930076 0.
0.628003 0.0930092 0.
0.630003 0.0930108 0.
0.632004 0.0930123 0.
0.634004 0.0930139 0.
0.636005 0.0930155 0.
0.638005 0.0930171 0.
0.640006 0.0930187 0.
0.642007 0.0930202 0.
0.644008 0.0930218 0.
0.646008 0.0930233 0.
0.648008 0.0930249 0.
0.650008 0.0930264 0.
0.652009 0.0930274 0.
0.65401 0.0930284 0.
0.65601 0.0930295 0.
0.65801 0.093031 0.
0.660011 0.0930324 0.
0.662011 0.093034 0.
0.66401 0.0930357 0.
0.66601 0.0930373 0.
0.66801 0.0930385 0.
0.670011 0.0930395 0.
0.672011 0.0930405 0.
0.674012 0.0930425 0.
0.676012 0.0930448 0.
0.678012 0.093047 0.
0.680012 0.0930487 0.
0.682012 0.0930504 0.
0.684012 0.0930521 0.
0.686012 0.093054 0.
0.688013 0.093056 0.
0.690013 0.0930581 0.
0.692013 0.0930603 0.
0.694013 0.0930626 0.
0.696014 0.0930646 0.
0.698014 0.0930666 0.
0.499981 0.0950612 0.
0.501981 0.0950598 0.
0.503981 0.0950584 0.
0.505982 0.0950569 0.
0.507982 0.095055 0.
0.509982 0.0950531 0.
0.511982 0.0950513 0.
0.513983 0.0950496 0.
0.515983 0.0950479 0.
0.517983 0.0950463 0.
0.519983 0.0950448 0.
0.521983 0.0950432 0.
0.523983 0.0950417 0.
0.525983 0.0950403 0.
0.527983 0.0950388 0.
0.529984 0.0950373 0.
0.531985 0.0950358 0.
0.533985 0.0950345 0.
0.535986 0.0950337 0.
0.537986 0.0950329 0.
0.539986 0.0950319 0.
0.541986 0.0950307 0.
0.543985 0.0950295 0.
0.545986 0.0950282 0.
0.547986 0.0950267 0.
0.549987 0.0950253 0.
0.551987 0.0950234 0.
0.553988 0.0950215 0.
0.555989 0.0950197 0.
0.557989 0.0950186 0.
0.559989 0.0950175 0.
0.56199 0.0950165 0.
0.563991 0.0950156 0.
0.565992 0.0950147 0.
0.567992 0.0950136 0.
0.569992 0.0950124 0.
0.571992 0.0950111 0.
0.573993 0.0950088 0.
0.575994 0.0950063 0.
0.577995 0.0950041 0.
0.579995 0.0950041 0.
0.581995 0.0950041 0.
0.583995 0.0950038 0.
0.585995 0.095003 0.
0.587995 0.0950023 0.
0.589995 0.0950018 0.
0.591995 0.0950018 0.
0.593995 0.0950017 0.
0.595996 0.0950007 0.
0.597997 0.0949993 0.
0.599998 0.094998 0.
0.601998 0.0949994 0.
0.603999 0.0950008 0.
0.605999 0.095002 0.
0.608 0.0950023 0.
0.61 0.0950027 0.
0.612 0.0950027 0.
0.614001 0.0950022 0.
0.616001 0.0950017 0.
0.618001 0.0950024 0.
0.620001 0.0950037 0.
0.622001 0.095005 0.
0.624001 0.0950062 0.
0.626001 0.0950074 0.
0.628001 0.0950087 0.
0.630002 0.0950101 0.
0.632003 0.0950115 0.
0.634003 0.095013 0.
0.636004 0.0950149 0.
0.638004 0.0950169 0.
0.640005 0.0950186 0.
0.642006 0.0950202 0.
0.644007 0.0950217 0.
0.646007 0.0950232 0.
0.648006 0.0950247 0.
0.650006 0.0950262 0.
0.652007 0.0950271 0.
0.654008 0.0950279 0.
0.656009 0.0950289 0.
0.658009 0.0950308 0.
0.66001 0.0950327 0.
0.66201 0.0950344 0.
0.664009 0.0950359 0.
0.666008 0.0950373 0.
0.668008 0.0950382 0.
0.670009 0.0950389 0.
0.672009 0.0950396 0.
0.67401 0.0950422 0.
0.67601 0.095045 0.
0.67801 0.0950477 0.
0.68001 0.0950491 0.
0.68201 0.0950504 0.
0.68401 0.095052 0.
0.686011 0.0950541 0.
0.688011 0.0950562 0.
0.690011 0.0950583 0.
0.692011 0.0950603 0.
0.694011 0.0950623 0.
0.696011 0.0950644 0.
0.698012 0.0950664 0.
0.499983 0.0970604 0.
0.501984 0.0970591 0.
0.503984 0.0970581 0.
0.505984 0.0970569 0.
0.507984 0.0970549 0.
0.509984 0.0970529 0.
0.511985 0.0970511 0.
0.513985 0.0970496 0.
0.515985 0.097048 0.
0.517985 0.0970465 0.
0.519985 0.0970449 0.
0.521985 0.0970434 0.
0.523985 0.0970417 0.
0.525985 0.09704 0.
0.527985 0.0970384 0.
0.529985 0.0970373 0.
0.531986 0.0970362 0.
0.533986 0.0970352 0.
0.535986 0.0970341 0.
0.537986 0.0970331 0.
0.539986 0.0970319 0.
0.541987 0.0970305 0.
0.543987 0.097029 0.
0.545987 0.0970277 0.
0.547987 0.0970263 0.
0.549988 0.0970249 0.
0.551989 0.0970232 0.
0.55399 0.0970215 0.
0.555991 0.0970198 0.
0.557991 0.0970185 0.
0.559992 0.0970171 0.
0.561992 0.097016 0.
0.563992 0.0970151 0.
0.565993 0.0970143 0.
0.567993 0.0970133 0.
0.569993 0.0970122 0.
0.571994 0.0970112 0.
0.573994 0.0970088 0.
0.575995 0.0970064 0.
0.577995 0.0970041 0.
0.579996 0.097004 0.
0.581996 0.0970039 0.
0.583996 0.0970037 0.
0.585996 0.0970033 0.
0.587995 0.0970029 0.
0.589995 0.0970024 0.
0.591996 0.0970018 0.
0.593996 0.0970013 0.
0.595996 0.0970006 0.
0.597997 0.0969998 0.
0.599997 0.096999 0.
0.601998 0.0969999 0.
0.603998 0.0970008 0.
0.605999 0.0970016 0.
0.608 0.0970018 0.
0.610001 0.097002 0.
0.612001 0.0970021 0.
0.614001 0.0970021 0.
0.616001 0.0970021 0.
0.618001 0.097003 0.
0.62 0.0970042 0.
0.622 0.0970054 0.
0.624 0.0970062 0.
0.626 0.097007 0.
0.628001 0.0970078 0.
0.630001 0.0970091 0.
0.632001 0.0970104 0.
0.634001 0.097012 0.
0.636002 0.0970142 0.
0.638002 0.0970164 0.
0.640003 0.0970182 0.
0.642004 0.0970197 0.
0.644005 0.0970212 0.
0.646005 0.0970225 0.
0.648006 0.0970239 0.
0.650006 0.0970252 0.
0.652006 0.0970264 0.
0.654007 0.0970276 0.
0.656008 0.097029 0.
0.658008 0.0970312 0.
0.660009 0.0970335 0.
0.662009 0.0970351 0.
0.664008 0.0970361 0.
0.666008 0.097037 0.
0.668008 0.0970378 0.
0.670008 0.0970384 0.
0.672008 0.0970391 0.
0.674008 0.0970421 0.
0.676009 0.0970455 0.
0.678009 0.0970486 0.
0.680009 0.0970498 0.
0.682009 0.097051 0.
0.684009 0.0970524 0.
0.686009 0.0970545 0.
0.688009 0.0970565 0.
0.690009 0.0970584 0.
0.692009 0.0970602 0.
0.694009 0.097062 0.
0.69601 0.097064 0.
0.69801 0.0970662 0.
0.499986 0.0990592 0.
0.501986 0.0990585 0.
0.503987 0.0990578 0.
0.505987 0.0990568 0.
0.507987 0.0990547 0.
0.509987 0.0990526 0.
0.511987 0.0990509 0.
0.513987 0.0990495 0.
0.515987 0.0990481 0.
0.517987 0.0990467 0.
0.519987 0.0990451 0.
0.521987 0.0990436 0.
0.523987 0.0990417 0.
0.525986 0.0990397 0.
0.527986 0.099038 0.
0.529987 0.0990374 0.
0.531987 0.0990367 0.
0.533987 0.0990359 0.
0.535987 0.0990346 0.
0.537987 0.0990333 0.
0.539987 0.0990318 0.
0.541987 0.0990302 0.
0.543988 0.0990286 0.
0.545988 0.0990272 0.
0.547989 0.0990258 0.
0.549989 0.0990245 0.
0.55199 0.099023 0.
0.553992 0.0990215 0.
0.555993 0.0990199 0.
0.557993 0.0990183 0.
0.559994 0.0990167 0.
0.561994 0.0990155 0.
0.563994 0.0990147 0.
0.565993 0.0990139 0.
0.567994 0.099013 0.
0.569995 0.0990121 0.
0.571996 0.0990112 0.
0.573996 0.0990089 0.
0.575996 0.0990064 0.
0.577996 0.0990042 0.
0.579996 0.0990039 0.
0.581997 0.0990037 0.
0.583997 0.0990035 0.
0.585996 0.0990035 0.
0.587996 0.0990035 0.
0.589996 0.099003 0.
0.591996 0.0990019 0.
0.593997 0.0990008 0.
0.595997 0.0990005 0.
0.597997 0.0990002 0.
0.599997 0.099 0.
0.601997 0.0990004 0.
0.603998 0.0990008 0.
0.605999 0.0990011 0.
0.608 0.0990012 0.
0.610001 0.0990013 0.
0.612001 0.0990015 0.
0.614001 0.099002 0.
0.616001 0.0990025 0.
0.618001 0.0990035 0.
0.62 0.0990047 0.
0.621999 0.0990059 0.
0.623999 0.0990063 0.
0.626 0.0990066 0.
0.628 0.099007 0.
0.63 0.0990082 0.
0.632 0.0990094 0.
0.634 0.099011 0.
0.636 0.0990134 0.
0.638001 0.0990159 0.
0.640002 0.0990177 0.
0.642002 0.0990192 0.
0.644003 0.0990206 0.
0.646004 0.0990218 0.
0.648005 0.099023 0.
0.650006 0.0990241 0.
0.652006 0.0990257 0.
0.654007 0.0990273 0.
0.656007 0.0990291 0.
0.658007 0.0990317 0.
0.660007 0.0990342 0.
0.662007 0.0990358 0.
0.664007 0.0990363 0.
0.666007 0.0990368 0.
0.668007 0.0990373 0.
0.670007 0.0990379 0.
0.672007 0.0990385 0.
0.674007 0.099042 0.
0.676008 0.0990459 0.
0.678008 0.0990495 0.
0.680007 0.0990505 0.
0.682007 0.0990515 0.
0.684007 0.0990528 0.
0.686007 0.0990548 0.
0.688008 0.0990568 0.
0.690008 0.0990586 0.
0.692008 0.0990601 0.
0.694008 0.0990616 0.
0.696008 0.0990637 0.
0.698008 0.0990659 0.
CELLS 5000 10000
1 0
1 1
1 2
1 3
1 4
1 5
1 6
1 7
1 8
1 9
1 10
1 11
1 12
1 13
1 14
1 15
1 16
1 17
1 18
1 19
1 20
1 21
1 22
1 23
1 24
1 25
1 26
1 27
1 28
1 29
1 30
1 31
1 32
1 33
1 34
1 35
1 36
1 37
1 38
1 39
1 40
1 41
1 42
1 43
1 44
1 45
1 46
1 47
1 48
1 49
1 50
1 51
1 52
1 53
1 54
1 55
1 56
1 57
1 58
1 59
1 60
1 61
1 62
1 63
1 64
1 65
1 66
1 67
1 68
1 69
1 70
1 71
1 72
1 73
1 74
1 75
1 76
1 77
1 78
1 79
1 80
1 81
1 82
1 83
1 84
1 85
1 86
1 87
1 88
1 89
1 90
1 91
1 92
1 93
1 94
1 95
1 96
1 97
1 98
1 99
1 100
1 101
1 102
1 103
1 104
1 105
1 106
1 107
1 108
1 109
1 110
1 111
1 112
1 113
1 114
1 115
1 116
1 117
1 118
1 119
1 120
1 121
1 122
1 123
1 124
1 125
1 126
1 127
1 128
1 129
1 130
1 131
1 132
1 133
1 134
1 135
1 136
1 137
1 138
1 139
1 140
1 141
1 142
1 143
1 144
1 145
1 146
1 147
1 148
1 149
1 150
1 151
1 152
1 153
1 154
1 155
1 156
1 157
1 158
1 159
1 160
1 161
1 162
1 163
1 164
1 165
1 166
1 167
1 168
1 169
1 170
1 171
1 172
1 173
1 174
1 175
1 176
1 177
1 178
1 179
1 180
1 181
1 182
1 183
1 184
1 185
1 186
1 187
1 188
1 189
1 190
1 191
1 192
1 193
1 194
1 195
1 196
1 197
1 198
1 199
1 200
1 201
1 202
1 203
1 204
1 205
1 206
1 207
1 208
1 209
1 210
1 211
1 212
1 213
1 214
1 215
1 216
1 217
1 218
1 219
1 220
1 221
1 222
1 223
1 224
1 225
1 226
1 227
1 228
1 229
1 230
1 231
1 232
1 233
1 234
1 235
1 236
1 237
1 238
1 239
1 240
1 241
1 242
1 243
1 244
1 245
1 246
1 247
1 248
1 249
1 250
1 251
1 252
1 253
1 254
1 255
1 256
1 257
1 258
1 259
1 260
1 261
1 262
1 263
1 264
1 265
1 266
1 267
1 268
1 269
1 270
1 271
1 272
1 273
1 274
1 275
1 276
1 277
1 278
1 279
1 280
1 281
1 282
1 283
1 284
1 285
1 286
1 287
1 288
1 289
1 290
1 291
1 292
1 293
1 294
1 295
1 296
1 297
1 298
1 299
1 300
1 301
1 302
1 303
1 304
1 305
1 306
1 307
1 308
1 309
1 310
1 311
1 312
1 313
1 314
1 315
1 316
1 317
1 318
1 319
1 320
1 321
1 322
1 323
1 324
1 325
1 326
1 327
1 328
1 329
1 330
1 331
1 332
1 333
1 334
1 335
1 336
1 337
1 338
1 339
1 340
1 341
1 342
1 343
1 344
1 345
1 346
1 347
1 348
1 349
1 350
1 351
1 352
1 353
1 354
1 355
1 356
1 357
1 358
1 359
1 360
1 361
1 362
1 363
1 364
1 365
1 366
1 367
1 368
1 369
1 370
1 371
1 372
1 373
1 374
1 375
1 376
1 377
1 378
1 379
1 380
1 381
1 382
1 383
1 384
1 385
1 386
1 387
1 388
1 389
1 390
1 391
1 392
1 393
1 394
1 395
1 396
1 397
1 398
1 399
1 400
1 401
1 402
1 403
1 404
1 405
1 406
1 407
1 408
1 409
1 410
1 411
1 412
1 413
1 414
1 415
1 416
1 417
1 418
1 419
1 420
1 421
1 422
1 423
1 424
1 425
1 426
1 427
1 428
1 429
1 430
1 431
1 432
1 433
1 434
1 435
1 436
1 437
1 438
1 439
1 440
1 441
1 442
1 443
1 444
1 445
1 446
1 447
1 448
1 449
1 450
1 451
1 452
1 453
1 454
1 455
1 456
1 457
1 458
1 459
1 460
1 461
1 462
1 463
1 464
1 465
1 466
1 467
1 468
1 469
1 470
1 471
1 472
1 473
1 474
1 475
1 476
1 477
1 478
1 479
1 480
1 481
1 482
1 483
1 484
1 485
1 486
1 487
1 488
1 489
1 490
1 491
1 492
1 493
1 494
1 495
1 496
1 497
1 498
1 499
1 500
1 501
1 502
1 503
1 504
1 505
1 506
1 507
1 508
1 509
1 510
1 511
1 512
1 513
1 514
1 515
1 516
1 517
1 518
1 519
1 520
1 521
1 522
1 523
1 524
1 525
1 526
1 527
1 528
1 529
1 530
1 531
1 532
1 533
1 534
1 535
1 536
1 537
1 538
1 539
1 540
1 541
1 542
1 543
1 544
1 545
1 546
1 547
1 548
1 549
1 550
1 551
1 552
1 553
1 554
1 555
1 556
1 557
1 558
1 559
1 560
1 561
1 562
1 563
1 564
1 565
1 566
1 567
1 568
1 569
1 570
1 571
1 572
1 573
1 574
1 575
1 576
1 577
1 578
1 579
1 580
1 581
1 582
1 583
1 584
1 585
1 586
1 587
1 588
1 589
1 590
1 591
1 592
1 593
1 594
1 595
1 596
1 597
1 598
1 599
1 600
1 601
1 602
1 603
1 604
1 605
1 606
1 607
1 608
1 609
1 610
1 611
1 612
1 613
1 614
1 615
1 616
1 617
1 618
1 619
1 620
1 621
1 622
1 623
1 624
1 625
1 626
1 627
1 628
1 629
1 630
1 631
1 632
1 633
1 634
1 635
1 636
1 637
1 638
1 639
1 640
1 641
1 642
1 643
1 644
1 645
1 646
1 647
1 648
1 649
1 650
1 651
1 652
1 653
1 654
1 655
1 656
1 657
1 658
1 659
1 660
1 661
1 662
1 663
1 664
1 665
1 666
1 667
1 668
1 669
1 670
1 671
1 672
1 673
1 674
1 675
1 676
1 677
1 678
1 679
1 680
1 681
1 682
1 683
1 684
1 685
1 686
1 687
1 688
1 689
1 690
1 691
1 692
1 693
1 694
1 695
1 696
1 697
1 698
1 699
1 700
1 701
1 702
1 703
1 704
1 705
1 706
1 707
1 708
1 709
1 710
1 711
1 712
1 713
1 714
1 715
1 716
1 717
1 718
1 719
1 720
1 721
1 722
1 723
1 724
1 725
1 726
1 727
1 728
1 729
1 730
1 731
1 732
1 733
1 734
1 735
1 736
1 737
1 738
1 739
1 740
1 741
1 742
1 743
1 744
1 745
1 746
1 747
1 748
1 749
1 750
1 751
1 752
1 753
1 754
1 755
1 756
1 757
1 758
1 759
1 760
1 761
1 762
1 763
1 764
1 765
1 766
1 767
1 768
1 769
1 770
1 771
1 772
1 773
1 774
1 775
1 776
1 777
1 778
1 779
1 780
1 781
1 782
1 783
1 784
1 785
1 786
1 787
1 788
1 789
1 790
1 791
1 792
1 793
1 794
1 795
1 796
1 797
1 798
1 799
1 800
1 801
1 802
1 803
1 804
1 805
1 806
1 807
1 808
1 809
1 810
1 811
1 812
1 813
1 814
1 815
1 816
1 817
1 818
1 819
1 820
1 821
1 822
1 823
1 824
1 825
1 826
1 827
1 828
1 829
1 830
1 831
1 832
1 833
1 834
1 835
1 836
1 837
1 838
1 839
1 840
1 841
1 842
1 843
1 844
1 845
1 846
1 847
1 848
1 849
1 850
1 851
1 852
1 853
1 854
1 855
1 856
1 857
1 858
1 859
1 860
1 861
1 862
1 863
1 864
1 865
1 866
1 867
1 868
1 869
1 870
1 871
1 872
1 873
1 874
1 875
1 876
1 877
1 878
1 879
1 880
1 881
1 882
1 883
1 884
1 885
1 886
1 887
1 888
1 889
1 890
1 891
1 892
1 893
1 894
1 895
1 896
1 897
1 898
1 899
1 900
1 901
1 902
1 903
1 904
1 905
1 906
1 907
1 908
1 909
1 910
1 911
1 912
1 913
1 914
1 915
1 916
1 917
1 918
1 919
1 920
1 921
1 922
1 923
1 924
1 925
1 926
1 927
1 928
1 929
1 930
1 931
1 932
1 933
1 934
1 935
1 936
1 937
1 938
1 939
1 940
1 941
1 942
1 943
1 944
1 945
1 946
1 947
1 948
1 949
1 950
1 951
1 952
1 953
1 954
1 955
1 956
1 957
1 958
1 959
1 960
1 961
1 962
1 963
1 964
1 965
1 966
1 967
1 968
1 969
1 970
1 971
1 972
1 973
1 974
1 975
1 976
1 977
1 978
1 979
1 980
1 981
1 982
1 983
1 984
1 985
1 986
1 987
1 988
1 989
1 990
1 991
1 992
1 993
1 994
1 995
1 996
1 997
1 998
1 999
1 1000
1 1001
1 1002
1 1003
1 1004
1 1005
1 1006
1 1007
1 1008
1 1009
1 1010
1 1011
1 1012
1 1013
1 1014
1 1015
1 1016
1 1017
1 1018
1 1019
1 1020
1 1021
1 1022
1 1023
1 1024
1 1025
1 1026
1 1027
1 1028
1 1029
1 1030
1 1031
1 1032
1 1033
1 1034
1 1035
1 1036
1 1037
1 1038
1 1039
1 1040
1 1041
1 1042
1 1043
1 1044
1 1045
1 1046
1 1047
1 1048
1 1049
1 1050
1 1051
1 1052
1 1053
1 1054
1 1055
1 1056
1 1057
1 1058
1 1059
1 1060
1 1061
1 1062
1 1063
1 1064
1 1065
1 1066
1 1067
1 1068
1 1069
1 1070
1 1071
1 1072
1 1073
1 1074
1 1075
1 1076
1 1077
1 1078
1 1079
1 1080
1 1081
1 1082
1 1083
1 1084
1 1085
1 1086
1 1087
1 1088
1 1089
1 1090
1 1091
1 1092
1 1093
1 1094
1 1095
1 1096
1 1097
1 1098
1 1099
1 1100
1 1101
1 1102
1 1103
1 1104
1 1105
1 1106
1 1107
1 1108
1 1109
1 1110
1 1111
1 1112
1 1113
1 1114
1 1115
1 1116
1 1117
1 1118
1 1119
1 1120
1 1121
1 1122
1 1123
1 1124
1 1125
1 1126
1 1127
1 1128
1 1129
1 1130
1 1131
1 1132
1 1133
1 1134
1 1135
1 1136
1 1137
1 1138
1 1139
1 1140
1 1141
1 1142
1 1143
1 1144
1 1145
1 1146
1 1147
1 1148
1 1149
1 1150
1 1151
1 1152
1 1153
1 1154
1 1155
1 1156
1 1157
1 1158
1 1159
1 1160
1 1161
1 1162
1 1163
1 1164
1 1165
1 1166
1 1167
1 1168
1 1169
1 1170
1 1171
1 1172
1 1173
1 1174
1 1175
1 1176
1 1177
1 1178
1 1179
1 1180
1 1181
1 1182
1 1183
1 1184
1 1185
1 1186
1 1187
1 1188
1 1189
1 1190
1 1191
1 1192
1 1193
1 1194
1 1195
1 1196
1 1197
1 1198
1 1199
1 1200
1 1201
1 1202
1 1203
1 1204
1 1205
1 1206
1 1207
1 1208
1 1209
1 1210
1 1211
1 1212
1 1213
1 1214
1 1215
1 1216
1 1217
1 1218
1 1219
1 1220
1 1221
1 1222
1 1223
1 1224
1 1225
1 1226
1 1227
1 1228
1 1229
1 1230
1 1231
1 1232
1 1233
1 1234
1 1235
1 1236
1 1237
1 1238
1 1239
1 1240
1 1241
1 1242
1 1243
1 1244
1 1245
1 1246
1 1247
1 1248
1 1249
1 1250
1 1251
1 1252
1 1253
1 1254
1 1255
1 1256
1 1257
1 1258
1 1259
1 1260
1 1261
1 1262
1 1263
1 1264
1 1265
1 1266
1 1267
1 1268
1 1269
1 1270
1 1271
1 1272
1 1273
1 1274
1 1275
1 1276
1 1277
1 1278
1 1279
1 1280
1 1281
1 1282
1 1283
1 1284
1 1285
1 1286
1 1287
1 1288
1 1289
1 1290
1 1291
1 1292
1 1293
1 1294
1 1295
1 1296
1 1297
1 1298
1 1299
1 1300
1 1301
1 1302
1 1303
1 1304
1 1305
1 1306
1 1307
1 1308
1 1309
1 1310
1 1311
1 1312
1 1313
1 1314
1 1315
1 1316
1 1317
1 1318
1 1319
1 1320
1 1321
1 1322
1 1323
1 1324
1 1325
1 1326
1 1327
1 1328
1 1329
1 1330
1 1331
1 1332
1 1333
1 1334
1 1335
1 1336
1 1337
1 1338
1 1339
1 1340
1 1341
1 1342
1 1343
1 1344
1 1345
1 1346
1 1347
1 1348
1 1349
1 1350
1 1351
1 1352
1 1353
1 1354
1 1355
1 1356
1 1357
1 1358
1 1359
1 1360
1 1361
1 1362
1 1363
1 1364
1 1365
1 1366
1 1367
1 1368
1 1369
1 1370
1 1371
1 1372
1 1373
1 1374
1 1375
1 1376
1 1377
1 1378
1 1379
1 1380
1 1381
1 1382
1 1383
1 1384
1 1385
1 1386
1 1387
1 1388
1 1389
1 1390
1 1391
1 1392
1 1393
1 1394
1 1395
1 1396
1 1397
1 1398
1 1399
1 1400
1 1401
1 1402
1 1403
1 1404
1 1405
1 1406
1 1407
1 1408
1 1409
1 1410
1 1411
1 1412
1 1413
1 1414
1 1415
1 1416
1 1417
1 1418
1 1419
1 1420
1 1421
1 1422
1 1423
1 1424
1 1425
1 1426
1 1427
1 1428
1 1429
1 1430
1 1431
1 1432
1 1433
1 1434
1 1435
1 1436
1 1437
1 1438
1 1439
1 1440
1 1441
1 1442
1 1443
1 1444
1 1445
1 1446
1 1447
1 1448
1 1449
1 1450
1 1451
1 1452
1 1453
1 1454
1 1455
1 1456
1 1457
1 1458
1 1459
1 1460
1 1461
1 1462
1 1463
1 1464
1 1465
1 1466
1 1467
1 1468
1 1469
1 1470
1 1471
1 1472
1 1473
1 1474
1 1475
1 1476
1 1477
1 1478
1 1479
1 1480
1 1481
1 1482
1 1483
1 1484
1 1485
1 1486
1 1487
1 1488
1 1489
1 1490
1 1491
1 1492
1 1493
1 1494
1 1495
1 1496
1 1497
1 1498
1 1499
1 1500
1 1501
1 1502
1 1503
1 1504
1 1505
1 1506
1 1507
1 1508
1 1509
1 1510
1 1511
1 1512
1 1513
1 1514
1 1515
1 1516
1 1517
1 1518
1 1519
1 1520
1 1521
1 1522
1 1523
1 1524
1 1525
1 1526
1 1527
1 1528
1 1529
1 1530
1 1531
1 1532
1 1533
1 1534
1 1535
1 1536
1 1537
1 1538
1 1539
1 1540
1 1541
1 1542
1 1543
1 1544
1 1545
1 1546
1 1547
1 1548
1 1549
1 1550
1 1551
1 1552
1 1553
1 1554
1 1555
1 1556
1 1557
1 1558
1 1559
1 1560
1 1561
1 1562
1 1563
1 1564
1 1565
1 1566
1 1567
1 1568
1 1569
1 1570
1 1571
1 1572
1 1573
1 1574
1 1575
1 1576
1 1577
1 1578
1 1579
1 1580
1 1581
1 1582
1 1583
1 1584
1 1585
1 1586
1 1587
1 1588
1 1589
1 1590
1 1591
1 1592
1 1593
1 1594
1 1595
1 1596
1 1597
1 1598
1 1599
1 1600
1 1601
1 1602
1 1603
1 1604
1 1605
1 1606
1 1607
1 1608
1 1609
1 1610
1 1611
1 1612
1 1613
1 1614
1 1615
1 1616
1 1617
1 1618
1 1619
1 1620
1 1621
1 1622
1 1623
1 1624
1 1625
1 1626
1 1627
1 1628
1 1629
1 1630
1 1631
1 1632
1 1633
1 1634
1 1635
1 1636
1 1637
1 1638
1 1639
1 1640
1 1641
1 1642
1 1643
1 1644
1 1645
1 1646
1 1647
1 1648
1 1649
1 1650
1 1651
1 1652
1 1653
1 1654
1 1655
1 1656
1 1657
1 1658
1 1659
1 1660
1 1661
1 1662
1 1663
1 1664
1 1665
1 1666
1 1667
1 1668
1 1669
1 1670
1 1671
1 1672
1 1673
1 1674
1 1675
1 1676
1 1677
1 1678
1 1679
1 1680
1 1681
1 1682
1 1683
1 1684
1 1685
1 1686
1 1687
1 1688
1 1689
1 1690
1 1691
1 1692
1 1693
1 1694
1 1695
1 1696
1 1697
1 1698
1 1699
1 1700
1 1701
1 1702
1 1703
1 1704
1 1705
1 1706
1 1707
1 1708
1 1709
1 1710
1 1711
1 1712
1 1713
1 1714
1 1715
1 1716
1 1717
1 1718
1 1719
1 1720
1 1721
1 1722
1 1723
1 1724
1 1725
1 1726
1 1727
1 1728
1 1729
1 1730
1 1731
1 1732
1 1733
1 1734
1 1735
1 1736
1 1737
1 1738
1 1739
1 1740
1 1741
1 1742
1 1743
1 1744
1 1745
1 1746
1 1747
1 1748
1 1749
1 1750
1 1751
1 1752
1 1753
1 1754
1 1755
1 1756
1 1757
1 1758
1 1759
1 1760
1 1761
1 1762
1 1763
1 1764
1 1765
1 1766
1 1767
1 1768
1 1769
1 1770
1 1771
1 1772
1 1773
1 1774
1 1775
1 1776
1 1777
1 1778
1 1779
1 1780
1 1781
1 1782
1 1783
1 1784
1 1785
1 1786
1 1787
1 1788
1 1789
1 1790
1 1791
1 1792
1 1793
1 1794
1 1795
1 1796
1 1797
1 1798
1 1799
1 1800
1 1801
1 1802
1 1803
1 1804
1 1805
1 1806
1 1807
1 1808
1 1809
1 1810
1 1811
1 1812
1 1813
1 1814
1 1815
1 1816
1 1817
1 1818
1 1819
1 1820
1 1821
1 1822
1 1823
1 1824
1 1825
1 1826
1 1827
1 1828
1 1829
1 1830
1 1831
1 1832
1 1833
1 1834
1 1835
1 1836
1 1837
1 1838
1 1839
1 1840
1 1841
1 1842
1 1843
1 1844
1 1845
1 1846
1 1847
1 1848
1 1849
1 1850
1 1851
1 1852
1 1853
1 1854
1 1855
1 1856
1 1857
1 1858
1 1859
1 1860
1 1861
1 1862
1 1863
1 1864
1 1865
1 1866
1 1867
1 1868
1 1869
1 1870
1 1871
1 1872
1 1873
1 1874
1 1875
1 1876
1 1877
1 1878
1 1879
1 1880
1 1881
1 1882
1 1883
1 1884
1 1885
1 1886
1 1887
1 1888
1 1889
1 1890
1 1891
1 1892
1 1893
1 1894
1 1895
1 1896
1 1897
1 1898
1 1899
1 1900
1 1901
1 1902
1 1903
1 1904
1 1905
1 1906
1 1907
1 1908
1 1909
1 1910
1 1911
1 1912
1 1913
1 1914
1 1915
1 1916
1 1917
1 1918
1 1919
1 1920
1 1921
1 1922
1 1923
1 1924
1 1925
1 1926
1 1927
1 1928
1 1929
1 1930
1 1931
1 1932
1 1933
1 1934
1 1935
1 1936
1 1937
1 1938
1 1939
1 1940
1 1941
1 1942
1 1943
1 1944
1 1945
1 1946
1 1947
1 1948
1 1949
1 1950
1 1951
1 1952
1 1953
1 1954
1 1955
1 1956
1 1957
1 1958
1 1959
1 1960
1 1961
1 1962
1 1963
1 1964
1 1965
1 1966
1 1967
1 1968
1 1969
1 1970
1 1971
1 1972
1 1973
1 1974
1 1975
1 1976
1 1977
1 1978
1 1979
1 1980
1 1981
1 1982
1 1983
1 1984
1 1985
1 1986
1 1987
1 1988
1 1989
1 1990
1 1991
1 1992
1 1993
1 1994
1 1995
1 1996
1 1997
1 1998
1 1999
1 2000
1 2001
1 2002
1 2003
1 2004
1 2005
1 2006
1 2007
1 2008
1 2009
1 2010
1 2011
1 2012
1 2013
1 2014
1 2015
1 2016
1 2017
1 2018
1 2019
1 2020
1 2021
1 2022
1 2023
1 2024
1 2025
1 2026
1 2027
1 2028
1 2029
1 2030
1 2031
1 2032
1 2033
1 2034
1 2035
1 2036
1 2037
1 2038
1 2039
1 2040
1 2041
1 2042
1 2043
1 2044
1 2045
1 2046
1 2047
1 2048
1 2049
1 2050
1 2051
1 2052
1 2053
1 2054
1 2055
1 2056
1 2057
1 2058
1 2059
1 2060
1 2061
1 2062
1 2063
1 2064
1 2065
1 2066
1 2067
1 2068
1 2069
1 2070
1 2071
1 2072
1 2073
1 2074
1 2075
1 2076
1 2077
1 2078
1 2079
1 2080
1 2081
1 2082
1 2083
1 2084
1 2085
1 2086
1 2087
1 2088
1 2089
1 2090
1 2091
1 2092
1 2093
1 2094
1 2095
1 2096
1 2097
1 2098
1 2099
1 2100
1 2101
1 2102
1 2103
1 2104
1 2105
1 2106
1 2107
1 2108
1 2109
1 2110
1 2111
1 2112
1 2113
1 2114
1 2115
1 2116
1 2117
1 2118
1 2119
1 2120
1 2121
1 2122
1 2123
1 2124
1 2125
1 2126
1 2127
1 2128
1 2129
1 2130
1 2131
1 2132
1 2133
1 2134
1 2135
1 2136
1 2137
1 2138
1 2139
1 2140
1 2141
1 2142
1 2143
1 2144
1 2145
1 2146
1 2147
1 2148
1 2149
1 2150
1 2151
1 2152
1 2153
1 2154
1 2155
1 2156
1 2157
1 2158
1 2159
1 2160
1 2161
1 2162
1 2163
1 2164
1 2165
1 2166
1 2167
1 2168
1 2169
1 2170
1 2171
1 2172
1 2173
1 2174
1 2175
1 2176
1 2177
1 2178
1 2179
1 2180
1 2181
1 2182
1 2183
1 2184
1 2185
1 2186
1 2187
1 2188
1 2189
1 2190
1 2191
1 2192
1 2193
1 2194
1 2195
1 2196
1 2197
1 2198
1 2199
1 2200
1 2201
1 2202
1 2203
1 2204
1 2205
1 2206
1 2207
1 2208
1 2209
1 2210
1 2211
1 2212
1 2213
1 2214
1 2215
1 2216
1 2217
1 2218
1 2219
1 2220
1 2221
1 2222
1 2223
1 2224
1 2225
1 2226
1 2227
1 2228
1 2229
1 2230
1 2231
1 2232
1 2233
1 2234
1 2235
1 2236
1 2237
1 2238
1 2239
1 2240
1 2241
1 2242
1 2243
1 2244
1 2245
1 2246
1 2247
1 2248
1 2249
1 2250
1 2251
1 2252
1 2253
1 2254
1 2255
1 2256
1 2257
1 2258
1 2259
1 2260
1 2261
1 2262
1 2263
1 2264
1 2265
1 2266
1 2267
1 2268
1 2269
1 2270
1 2271
1 2272
1 2273
1 2274
1 2275
1 2276
1 2277
1 2278
1 2279
1 2280
1 2281
1 2282
1 2283
1 2284
1 2285
1 2286
1 2287
1 2288
1 2289
1 2290
1 2291
1 2292
1 2293
1 2294
1 2295
1 2296
1 2297
1 2298
1 2299
1 2300
1 2301
1 2302
1 2303
1 2304
1 2305
1 2306
1 2307
1 2308
1 2309
1 2310
1 2311
1 2312
1 2313
1 2314
1 2315
1 2316
1 2317
1 2318
1 2319
1 2320
1 2321
1 2322
1 2323
1 2324
1 2325
1 2326
1 2327
1 2328
1 2329
1 2330
1 2331
1 2332
1 2333
1 2334
1 2335
1 2336
1 2337
1 2338
1 2339
1 2340
1 2341
1 2342
1 2343
1 2344
1 2345
1 2346
1 2347
1 2348
1 2349
1 2350
1 2351
1 2352
1 2353
1 2354
1 2355
1 2356
1 2357
1 2358
1 2359
1 2360
1 2361
1 2362
1 2363
1 2364
1 2365
1 2366
1 2367
1 2368
1 2369
1 2370
1 2371
1 2372
1 2373
1 2374
1 2375
1 2376
1 2377
1 2378
1 2379
1 2380
1 2381
1 2382
1 2383
1 2384
1 2385
1 2386
1 2387
1 2388
1 2389
1 2390
1 2391
1 2392
1 2393
1 2394
1 2395
1 2396
1 2397
1 2398
1 2399
1 2400
1 2401
1 2402
1 2403
1 2404
1 2405
1 2406
1 2407
1 2408
1 2409
1 2410
1 2411
1 2412
1 2413
1 2414
1 2415
1 2416
1 2417
1 2418
1 2419
1 2420
1 2421
1 2422
1 2423
1 2424
1 2425
1 2426
1 2427
1 2428
1 2429
1 2430
1 2431
1 2432
1 2433
1 2434
1 2435
1 2436
1 2437
1 2438
1 2439
1 2440
1 2441
1 2442
1 2443
1 2444
1 2445
1 2446
1 2447
1 2448
1 2449
1 2450
1 2451
1 2452
1 2453
1 2454
1 2455
1 2456
1 2457
1 2458
1 2459
1 2460
1 2461
1 2462
1 2463
1 2464
1 2465
1 2466
1 2467
1 2468
1 2469
1 2470
1 2471
1 2472
1 2473
1 2474
1 2475
1 2476
1 2477
1 2478
1 2479
1 2480
1 2481
1 2482
1 2483
1 2484
1 2485
1 2486
1 2487
1 2488
1 2489
1 2490
1 2491
1 2492
1 2493
1 2494
1 2495
1 2496
1 2497
1 2498
1 2499
1 2500
1 2501
1 2502
1 2503
1 2504
1 2505
1 2506
1 2507
1 2508
1 2509
1 2510
1 2511
1 2512
1 2513
1 2514
1 2515
1 2516
1 2517
1 2518
1 2519
1 2520
1 2521
1 2522
1 2523
1 2524
1 2525
1 2526
1 2527
1 2528
1 2529
1 2530
1 2531
1 2532
1 2533
1 2534
1 2535
1 2536
1 2537
1 2538
1 2539
1 2540
1 2541
1 2542
1 2543
1 2544
1 2545
1 2546
1 2547
1 2548
1 2549
1 2550
1 2551
1 2552
1 2553
1 2554
1 2555
1 2556
1 2557
1 2558
1 2559
1 2560
1 2561
1 2562
1 2563
1 2564
1 2565
1 2566
1 2567
1 2568
1 2569
1 2570
1 2571
1 2572
1 2573
1 2574
1 2575
1 2576
1 2577
1 2578
1 2579
1 2580
1 2581
1 2582
1 2583
1 2584
1 2585
1 2586
1 2587
1 2588
1 2589
1 2590
1 2591
1 2592
1 2593
1 2594
1 2595
1 2596
1 2597
1 2598
1 2599
1 2600
1 2601
1 2602
1 2603
1 2604
1 2605
1 2606
1 2607
1 2608
1 2609
1 2610
1 2611
1 2612
1 2613
1 2614
1 2615
1 2616
1 2617
1 2618
1 2619
1 2620
1 2621
1 2622
1 2623
1 2624
1 2625
1 2626
1 2627
1 2628
1 2629
1 2630
1 2631
1 2632
1 2633
1 2634
1 2635
1 2636
1 2637
1 2638
1 2639
1 2640
1 2641
1 2642
1 2643
1 2644
1 2645
1 2646
1 2647
1 2648
1 2649
1 2650
1 2651
1 2652
1 2653
1 2654
1 2655
1 2656
1 2657
1 2658
1 2659
1 2660
1 2661
1 2662
1 2663
1 2664
1 2665
1 2666
1 2667
1 2668
1 2669
1 2670
1 2671
1 2672
1 2673
1 2674
1 2675
1 2676
1 2677
1 2678
1 2679
1 2680
1 2681
1 2682
1 2683
1 2684
1 2685
1 2686
1 2687
1 2688
1 2689
1 2690
1 2691
1 2692
1 2693
1 2694
1 2695
1 2696
1 2697
1 2698
1 2699
1 2700
1 2701
1 2702
1 2703
1 2704
1 2705
1 2706
1 2707
1 2708
1 2709
1 2710
1 2711
1 2712
1 2713
1 2714
1 2715
1 2716
1 2717
1 2718
1 2719
1 2720
1 2721
1 2722
1 2723
1 2724
1 2725
1 2726
1 2727
1 2728
1 2729
1 2730
1 2731
1 2732
1 2733
1 2734
1 2735
1 2736
1 2737
1 2738
1 2739
1 2740
1 2741
1 2742
1 2743
1 2744
1 2745
1 2746
1 2747
1 2748
1 2749
1 2750
1 2751
1 2752
1 2753
1 2754
1 2755
1 2756
1 2757
1 2758
1 2759
1 2760
1 2761
1 2762
1 2763
1 2764
1 2765
1 2766
1 2767
1 2768
1 2769
1 2770
1 2771
1 2772
1 2773
1 2774
1 2775
1 2776
1 2777
1 2778
1 2779
1 2780
1 2781
1 2782
1 2783
1 2784
1 2785
1 2786
1 2787
1 2788
1 2789
1 2790
1 2791
1 2792
1 2793
1 2794
1 2795
1 2796
1 2797
1 2798
1 2799
1 2800
1 2801
1 2802
1 2803
1 2804
1 2805
1 2806
1 2807
1 2808
1 2809
1 2810
1 2811
1 2812
1 2813
1 2814
1 2815
1 2816
1 2817
1 2818
1 2819
1 2820
1 2821
1 2822
1 2823
1 2824
1 2825
1 2826
1 2827
1 2828
1 2829
1 2830
1 2831
1 2832
1 2833
1 2834
1 2835
1 2836
1 2837
1 2838
1 2839
1 2840
1 2841
1 2842
1 2843
1 2844
1 2845
1 2846
1 2847
1 2848
1 2849
1 2850
1 2851
1 2852
1 2853
1 2854
1 2855
1 2856
1 2857
1 2858
1 2859
1 2860
1 2861
1 2862
1 2863
1 2864
1 2865
1 2866
1 2867
1 2868
1 2869
1 2870
1 2871
1 2872
1 2873
1 2874
1 2875
1 2876
1 2877
1 2878
1 2879
1 2880
1 2881
1 2882
1 2883
1 2884
1 2885
1 2886
1 2887
1 2888
1 2889
1 2890
1 2891
1 2892
1 2893
1 2894
1 2895
1 2896
1 2897
1 2898
1 2899
1 2900
1 2901
1 2902
1 2903
1 2904
1 2905
1 2906
1 2907
1 2908
1 2909
1 2910
1 2911
1 2912
1 2913
1 2914
1 2915
1 2916
1 2917
1 2918
1 2919
1 2920
1 2921
1 2922
1 2923
1 2924
1 2925
1 2926
1 2927
1 2928
1 2929
1 2930
1 2931
1 2932
1 2933
1 2934
1 2935
1 2936
1 2937
1 2938
1 2939
1 2940
1 2941
1 2942
1 2943
1 2944
1 2945
1 2946
1 2947
1 2948
1 2949
1 2950
1 2951
1 2952
1 2953
1 2954
1 2955
1 2956
1 2957
1 2958
1 2959
1 2960
1 2961
1 2962
1 2963
1 2964
1 2965
1 2966
1 2967
1 2968
1 2969
1 2970
1 2971
1 2972
1 2973
1 2974
1 2975
1 2976
1 2977
1 2978
1 2979
1 2980
1 2981
1 2982
1 2983
1 2984
1 2985
1 2986
1 2987
1 2988
1 2989
1 2990
1 2991
1 2992
1 2993
1 2994
1 2995
1 2996
1 2997
1 2998
1 2999
1 3000
1 3001
1 3002
1 3003
1 3004
1 3005
1 3006
1 3007
1 3008
1 3009
1 3010
1 3011
1 3012
1 3013
1 3014
1 3015
1 3016
1 3017
1 3018
1 3019
1 3020
1 3021
1 3022
1 3023
1 3024
1 3025
1 3026
1 3027
1 3028
1 3029
1 3030
1 3031
1 3032
1 3033
1 3034
1 3035
1 3036
1 3037
1 3038
1 3039
1 3040
1 3041
1 3042
1 3043
1 3044
1 3045
1 3046
1 3047
1 3048
1 3049
1 3050
1 3051
1 3052
1 3053
1 3054
1 3055
1 3056
1 3057
1 3058
1 3059
1 3060
1 3061
1 3062
1 3063
1 3064
1 3065
1 3066
1 3067
1 3068
1 3069
1 3070
1 3071
1 3072
1 3073
1 3074
1 3075
1 3076
1 3077
1 3078
1 3079
1 3080
1 3081
1 3082
1 3083
1 3084
1 3085
1 3086
1 3087
1 3088
1 3089
1 3090
1 3091
1 3092
1 3093
1 3094
1 3095
1 3096
1 3097
1 3098
1 3099
1 3100
1 3101
1 3102
1 3103
1 3104
1 3105
1 3106
1 3107
1 3108
1 3109
1 3110
1 3111
1 3112
1 3113
1 3114
1 3115
1 3116
1 3117
1 3118
1 3119
1 3120
1 3121
1 3122
1 3123
1 3124
1 3125
1 3126
1 3127
1 3128
1 3129
1 3130
1 3131
1 3132
1 3133
1 3134
1 3135
1 3136
1 3137
1 3138
1 3139
1 3140
1 3141
1 3142
1 3143
1 3144
1 3145
1 3146
1 3147
1 3148
1 3149
1 3150
1 3151
1 3152
1 3153
1 3154
1 3155
1 3156
1 3157
1 3158
1 3159
1 3160
1 3161
1 3162
1 3163
1 3164
1 3165
1 3166
1 3167
1 3168
1 3169
1 3170
1 3171
1 3172
1 3173
1 3174
1 3175
1 3176
1 3177
1 3178
1 3179
1 3180
1 3181
1 3182
1 3183
1 3184
1 3185
1 3186
1 3187
1 3188
1 3189
1 3190
1 3191
1 3192
1 3193
1 3194
1 3195
1 3196
1 3197
1 3198
1 3199
1 3200
1 3201
1 3202
1 3203
1 3204
1 3205
1 3206
1 3207
1 3208
1 3209
1 3210
1 3211
1 3212
1 3213
1 3214
1 3215
1 3216
1 3217
1 3218
1 3219
1 3220
1 3221
1 3222
1 3223
1 3224
1 3225
1 3226
1 3227
1 3228
1 3229
1 3230
1 3231
1 3232
1 3233
1 3234
1 3235
1 3236
1 3237
1 3238
1 3239
1 3240
1 3241
1 3242
1 3243
1 3244
1 3245
1 3246
1 3247
1 3248
1 3249
1 3250
1 3251
1 3252
1 3253
1 3254
1 3255
1 3256
1 3257
1 3258
1 3259
1 3260
1 3261
1 3262
1 3263
1 3264
1 3265
1 3266
1 3267
1 3268
1 3269
1 3270
1 3271
1 3272
1 3273
1 3274
1 3275
1 3276
1 3277
1 3278
1 3279
1 3280
1 3281
1 3282
1 3283
1 3284
1 3285
1 3286
1 3287
1 3288
1 3289
1 3290
1 3291
1 3292
1 3293
1 3294
1 3295
1 3296
1 3297
1 3298
1 3299
1 3300
1 3301
1 3302
1 3303
1 3304
1 3305
1 3306
1 3307
1 3308
1 3309
1 3310
1 3311
1 3312
1 3313
1 3314
1 3315
1 3316
1 3317
1 3318
1 3319
1 3320
1 3321
1 3322
1 3323
1 3324
1 3325
1 3326
1 3327
1 3328
1 3329
1 3330
1 3331
1 3332
1 3333
1 3334
1 3335
1 3336
1 3337
1 3338
1 3339
1 3340
1 3341
1 3342
1 3343
1 3344
1 3345
1 3346
1 3347
1 3348
1 3349
1 3350
1 3351
1 3352
1 3353
1 3354
1 3355
1 3356
1 3357
1 3358
1 3359
1 3360
1 3361
1 3362
1 3363
1 3364
1 3365
1 3366
1 3367
1 3368
1 3369
1 3370
1 3371
1 3372
1 3373
1 3374
1 3375
1 3376
1 3377
1 3378
1 3379
1 3380
1 3381
1 3382
1 3383
1 3384
1 3385
1 3386
1 3387
1 3388
1 3389
1 3390
1 3391
1 3392
1 3393
1 3394
1 3395
1 3396
1 3397
1 3398
1 3399
1 3400
1 3401
1 3402
1 3403
1 3404
1 3405
1 3406
1 3407
1 3408
1 3409
1 3410
1 3411
1 3412
1 3413
1 3414
1 3415
1 3416
1 3417
1 3418
1 3419
1 3420
1 3421
1 3422
1 3423
1 3424
1 3425
1 3426
1 3427
1 3428
1 3429
1 3430
1 3431
1 3432
1 3433
1 3434
1 3435
1 3436
1 3437
1 3438
1 3439
1 3440
1 3441
1 3442
1 3443
1 3444
1 3445
1 3446
1 3447
1 3448
1 3449
1 3450
1 3451
1 3452
1 3453
1 3454
1 3455
1 3456
1 3457
1 3458
1 3459
1 3460
1 3461
1 3462
1 3463
1 3464
1 3465
1 3466
1 3467
1 3468
1 3469
1 3470
1 3471
1 3472
1 3473
1 3474
1 3475
1 3476
1 3477
1 3478
1 3479
1 3480
1 3481
1 3482
1 3483
1 3484
1 3485
1 3486
1 3487
1 3488
1 3489
1 3490
1 3491
1 3492
1 3493
1 3494
1 3495
1 3496
1 3497
1 3498
1 3499
1 3500
1 3501
1 3502
1 3503
1 3504
1 3505
1 3506
1 3507
1 3508
1 3509
1 3510
1 3511
1 3512
1 3513
1 3514
1 3515
1 3516
1 3517
1 3518
1 3519
1 3520
1 3521
1 3522
1 3523
1 3524
1 3525
1 3526
1 3527
1 3528
1 3529
1 3530
1 3531
1 3532
1 3533
1 3534
1 3535
1 3536
1 3537
1 3538
1 3539
1 3540
1 3541
1 3542
1 3543
1 3544
1 3545
1 3546
1 3547
1 3548
1 3549
1 3550
1 3551
1 3552
1 3553
1 3554
1 3555
1 3556
1 3557
1 3558
1 3559
1 3560
1 3561
1 3562
1 3563
1 3564
1 3565
1 3566
1 3567
1 3568
1 3569
1 3570
1 3571
1 3572
1 3573
1 3574
1 3575
1 3576
1 3577
1 3578
1 3579
1 3580
1 3581
1 3582
1 3583
1 3584
1 3585
1 3586
1 3587
1 3588
1 3589
1 3590
1 3591
1 3592
1 3593
1 3594
1 3595
1 3596
1 3597
1 3598
1 3599
1 3600
1 3601
1 3602
1 3603
1 3604
1 3605
1 3606
1 3607
1 3608
1 3609
1 3610
1 3611
1 3612
1 3613
1 3614
1 3615
1 3616
1 3617
1 3618
1 3619
1 3620
1 3621
1 3622
1 3623
1 3624
1 3625
1 3626
1 3627
1 3628
1 3629
1 3630
1 3631
1 3632
1 3633
1 3634
1 3635
1 3636
1 3637
1 3638
1 3639
1 3640
1 3641
1 3642
1 3643
1 3644
1 3645
1 3646
1 3647
1 3648
1 3649
1 3650
1 3651
1 3652
1 3653
1 3654
1 3655
1 3656
1 3657
1 3658
1 3659
1 3660
1 3661
1 3662
1 3663
1 3664
1 3665
1 3666
1 3667
1 3668
1 3669
1 3670
1 3671
1 3672
1 3673
1 3674
1 3675
1 3676
1 3677
1 3678
1 3679
1 3680
1 3681
1 3682
1 3683
1 3684
1 3685
1 3686
1 3687
1 3688
1 3689
1 3690
1 3691
1 3692
1 3693
1 3694
1 3695
1 3696
1 3697
1 3698
1 3699
1 3700
1 3701
1 3702
1 3703
1 3704
1 3705
1 3706
1 3707
1 3708
1 3709
1 3710
1 3711
1 3712
1 3713
1 3714
1 3715
1 3716
1 3717
1 3718
1 3719
1 3720
1 3721
1 3722
1 3723
1 3724
1 3725
1 3726
1 3727
1 3728
1 3729
1 3730
1 3731
1 3732
1 3733
1 3734
1 3735
1 3736
1 3737
1 3738
1 3739
1 3740
1 3741
1 3742
1 3743
1 3744
1 3745
1 3746
1 3747
1 3748
1 3749
1 3750
1 3751
1 3752
1 3753
1 3754
1 3755
1 3756
1 3757
1 3758
1 3759
1 3760
1 3761
1 3762
1 3763
1 3764
1 3765
1 3766
1 3767
1 3768
1 3769
1 3770
1 3771
1 3772
1 3773
1 3774
1 3775
1 3776
1 3777
1 3778
1 3779
1 3780
1 3781
1 3782
1 3783
1 3784
1 3785
1 3786
1 3787
1 3788
1 3789
1 3790
1 3791
1 3792
1 3793
1 3794
1 3795
1 3796
1 3797
1 3798
1 3799
1 3800
1 3801
1 3802
1 3803
1 3804
1 3805
1 3806
1 3807
1 3808
1 3809
1 3810
1 3811
1 3812
1 3813
1 3814
1 3815
1 3816
1 3817
1 3818
1 3819
1 3820
1 3821
1 3822
1 3823
1 3824
1 3825
1 3826
1 3827
1 3828
1 3829
1 3830
1 3831
1 3832
1 3833
1 3834
1 3835
1 3836
1 3837
1 3838
1 3839
1 3840
1 3841
1 3842
1 3843
1 3844
1 3845
1 3846
1 3847
1 3848
1 3849
1 3850
1 3851
1 3852
1 3853
1 3854
1 3855
1 3856
1 3857
1 3858
1 3859
1 3860
1 3861
1 3862
1 3863
1 3864
1 3865
1 3866
1 3867
1 3868
1 3869
1 3870
1 3871
1 3872
1 3873
1 3874
1 3875
1 3876
1 3877
1 3878
1 3879
1 3880
1 3881
1 3882
1 3883
1 3884
1 3885
1 3886
1 3887
1 3888
1 3889
1 3890
1 3891
1 3892
1 3893
1 3894
1 3895
1 3896
1 3897
1 3898
1 3899
1 3900
1 3901
1 3902
1 3903
1 3904
1 3905
1 3906
1 3907
1 3908
1 3909
1 3910
1 3911
1 3912
1 3913
1 3914
1 3915
1 3916
1 3917
1 3918
1 3919
1 3920
1 3921
1 3922
1 3923
1 3924
1 3925
1 3926
1 3927
1 3928
1 3929
1 3930
1 3931
1 3932
1 3933
1 3934
1 3935
1 3936
1 3937
1 3938
1 3939
1 3940
1 3941
1 3942
1 3943
1 3944
1 3945
1 3946
1 3947
1 3948
1 3949
1 3950
1 3951
1 3952
1 3953
1 3954
1 3955
1 3956
1 3957
1 3958
1 3959
1 3960
1 3961
1 3962
1 3963
1 3964
1 3965
1 3966
1 3967
1 3968
1 3969
1 3970
1 3971
1 3972
1 3973
1 3974
1 3975
1 3976
1 3977
1 3978
1 3979
1 3980
1 3981
1 3982
1 3983
1 3984
1 3985
1 3986
1 3987
1 3988
1 3989
1 3990
1 3991
1 3992
1 3993
1 3994
1 3995
1 3996
1 3997
1 3998
1 3999
1 4000
1 4001
1 4002
1 4003
1 4004
1 4005
1 4006
1 4007
1 4008
1 4009
1 4010
1 4011
1 4012
1 4013
1 4014
1 4015
1 4016
1 4017
1 4018
1 4019
1 4020
1 4021
1 4022
1 4023
1 4024
1 4025
1 4026
1 4027
1 4028
1 4029
1 4030
1 4031
1 4032
1 4033
1 4034
1 4035
1 4036
1 4037
1 4038
1 4039
1 4040
1 4041
1 4042
1 4043
1 4044
1 4045
1 4046
1 4047
1 4048
1 4049
1 4050
1 4051
1 4052
1 4053
1 4054
1 4055
1 4056
1 4057
1 4058
1 4059
1 4060
1 4061
1 4062
1 4063
1 4064
1 4065
1 4066
1 4067
1 4068
1 4069
1 4070
1 4071
1 4072
1 4073
1 4074
1 4075
1 4076
1 4077
1 4078
1 4079
1 4080
1 4081
1 4082
1 4083
1 4084
1 4085
1 4086
1 4087
1 4088
1 4089
1 4090
1 4091
1 4092
1 4093
1 4094
1 4095
1 4096
1 4097
1 4098
1 4099
1 4100
1 4101
1 4102
1 4103
1 4104
1 4105
1 4106
1 4107
1 4108
1 4109
1 4110
1 4111
1 4112
1 4113
1 4114
1 4115
1 4116
1 4117
1 4118
1 4119
1 4120
1 4121
1 4122
1 4123
1 4124
1 4125
1 4126
1 4127
1 4128
1 4129
1 4130
1 4131
1 4132
1 4133
1 4134
1 4135
1 4136
1 4137
1 4138
1 4139
1 4140
1 4141
1 4142
1 4143
1 4144
1 4145
1 4146
1 4147
1 4148
1 4149
1 4150
1 4151
1 4152
1 4153
1 4154
1 4155
1 4156
1 4157
1 4158
1 4159
1 4160
1 4161
1 4162
1 4163
1 4164
1 4165
1 4166
1 4167
1 4168
1 4169
1 4170
1 4171
1 4172
1 4173
1 4174
1 4175
1 4176
1 4177
1 4178
1 4179
1 4180
1 4181
1 4182
1 4183
1 4184
1 4185
1 4186
1 4187
1 4188
1 4189
1 4190
1 4191
1 4192
1 4193
1 4194
1 4195
1 4196
1 4197
1 4198
1 4199
1 4200
1 4201
1 4202
1 4203
1 4204
1 4205
1 4206
1 4207
1 4208
1 4209
1 4210
1 4211
1 4212
1 4213
1 4214
1 4215
1 4216
1 4217
1 4218
1 4219
1 4220
1 4221
1 4222
1 4223
1 4224
1 4225
1 4226
1 4227
1 4228
1 4229
1 4230
1 4231
1 4232
1 4233
1 4234
1 4235
1 4236
1 4237
1 4238
1 4239
1 4240
1 4241
1 4242
1 4243
1 4244
1 4245
1 4246
1 4247
1 4248
1 4249
1 4250
1 4251
1 4252
1 4253
1 4254
1 4255
1 4256
1 4257
1 4258
1 4259
1 4260
1 4261
1 4262
1 4263
1 4264
1 4265
1 4266
1 4267
1 4268
1 4269
1 4270
1 4271
1 4272
1 4273
1 4274
1 4275
1 4276
1 4277
1 4278
1 4279
1 4280
1 4281
1 4282
1 4283
1 4284
1 4285
1 4286
1 4287
1 4288
1 4289
1 4290
1 4291
1 4292
1 4293
1 4294
1 4295
1 4296
1 4297
1 4298
1 4299
1 4300
1 4301
1 4302
1 4303
1 4304
1 4305
1 4306
1 4307
1 4308
1 4309
1 4310
1 4311
1 4312
1 4313
1 4314
1 4315
1 4316
1 4317
1 4318
1 4319
1 4320
1 4321
1 4322
1 4323
1 4324
1 4325
1 4326
1 4327
1 4328
1 4329
1 4330
1 4331
1 4332
1 4333
1 4334
1 4335
1 4336
1 4337
1 4338
1 4339
1 4340
1 4341
1 4342
1 4343
1 4344
1 4345
1 4346
1 4347
1 4348
1 4349
1 4350
1 4351
1 4352
1 4353
1 4354
1 4355
1 4356
1 4357
1 4358
1 4359
1 4360
1 4361
1 4362
1 4363
1 4364
1 4365
1 4366
1 4367
1 4368
1 4369
1 4370
1 4371
1 4372
1 4373
1 4374
1 4375
1 4376
1 4377
1 4378
1 4379
1 4380
1 4381
1 4382
1 4383
1 4384
1 4385
1 4386
1 4387
1 4388
1 4389
1 4390
1 4391
1 4392
1 4393
1 4394
1 4395
1 4396
1 4397
1 4398
1 4399
1 4400
1 4401
1 4402
1 4403
1 4404
1 4405
1 4406
1 4407
1 4408
1 4409
1 4410
1 4411
1 4412
1 4413
1 4414
1 4415
1 4416
1 4417
1 4418
1 4419
1 4420
1 4421
1 4422
1 4423
1 4424
1 4425
1 4426
1 4427
1 4428
1 4429
1 4430
1 4431
1 4432
1 4433
1 4434
1 4435
1 4436
1 4437
1 4438
1 4439
1 4440
1 4441
1 4442
1 4443
1 4444
1 4445
1 4446
1 4447
1 4448
1 4449
1 4450
1 4451
1 4452
1 4453
1 4454
1 4455
1 4456
1 4457
1 4458
1 4459
1 4460
1 4461
1 4462
1 4463
1 4464
1 4465
1 4466
1 4467
1 4468
1 4469
1 4470
1 4471
1 4472
1 4473
1 4474
1 4475
1 4476
1 4477
1 4478
1 4479
1 4480
1 4481
1 4482
1 4483
1 4484
1 4485
1 4486
1 4487
1 4488
1 4489
1 4490
1 4491
1 4492
1 4493
1 4494
1 4495
1 4496
1 4497
1 4498
1 4499
1 4500
1 4501
1 4502
1 4503
1 4504
1 4505
1 4506
1 4507
1 4508
1 4509
1 4510
1 4511
1 4512
1 4513
1 4514
1 4515
1 4516
1 4517
1 4518
1 4519
1 4520
1 4521
1 4522
1 4523
1 4524
1 4525
1 4526
1 4527
1 4528
1 4529
1 4530
1 4531
1 4532
1 4533
1 4534
1 4535
1 4536
1 4537
1 4538
1 4539
1 4540
1 4541
1 4542
1 4543
1 4544
1 4545
1 4546
1 4547
1 4548
1 4549
1 4550
1 4551
1 4552
1 4553
1 4554
1 4555
1 4556
1 4557
1 4558
1 4559
1 4560
1 4561
1 4562
1 4563
1 4564
1 4565
1 4566
1 4567
1 4568
1 4569
1 4570
1 4571
1 4572
1 4573
1 4574
1 4575
1 4576
1 4577
1 4578
1 4579
1 4580
1 4581
1 4582
1 4583
1 4584
1 4585
1 4586
1 4587
1 4588
1 4589
1 4590
1 4591
1 4592
1 4593
1 4594
1 4595
1 4596
1 4597
1 4598
1 4599
1 4600
1 4601
1 4602
1 4603
1 4604
1 4605
1 4606
1 4607
1 4608
1 4609
1 4610
1 4611
1 4612
1 4613
1 4614
1 4615
1 4616
1 4617
1 4618
1 4619
1 4620
1 4621
1 4622
1 4623
1 4624
1 4625
1 4626
1 4627
1 4628
1 4629
1 4630
1 4631
1 4632
1 4633
1 4634
1 4635
1 4636
1 4637
1 4638
1 4639
1 4640
1 4641
1 4642
1 4643
1 4644
1 4645
1 4646
1 4647
1 4648
1 4649
1 4650
1 4651
1 4652
1 4653
1 4654
1 4655
1 4656
1 4657
1 4658
1 4659
1 4660
1 4661
1 4662
1 4663
1 4664
1 4665
1 4666
1 4667
1 4668
1 4669
1 4670
1 4671
1 4672
1 4673
1 4674
1 4675
1 4676
1 4677
1 4678
1 4679
1 4680
1 4681
1 4682
1 4683
1 4684
1 4685
1 4686
1 4687
1 4688
1 4689
1 4690
1 4691
1 4692
1 4693
1 4694
1 4695
1 4696
1 4697
1 4698
1 4699
1 4700
1 4701
1 4702
1 4703
1 4704
1 4705
1 4706
1 4707
1 4708
1 4709
1 4710
1 4711
1 4712
1 4713
1 4714
1 4715
1 4716
1 4717
1 4718
1 4719
1 4720
1 4721
1 4722
1 4723
1 4724
1 4725
1 4726
1 4727
1 4728
1 4729
1 4730
1 4731
1 4732
1 4733
1 4734
1 4735
1 4736
1 4737
1 4738
1 4739
1 4740
1 4741
1 4742
1 4743
1 4744
1 4745
1 4746
1 4747
1 4748
1 4749
1 4750
1 4751
1 4752
1 4753
1 4754
1 4755
1 4756
1 4757
1 4758
1 4759
1 4760
1 4761
1 4762
1 4763
1 4764
1 4765
1 4766
1 4767
1 4768
1 4769
1 4770
1 4771
1 4772
1 4773
1 4774
1 4775
1 4776
1 4777
1 4778
1 4779
1 4780
1 4781
1 4782
1 4783
1 4784
1 4785
1 4786
1 4787
1 4788
1 4789
1 4790
1 4791
1 4792
1 4793
1 4794
1 4795
1 4796
1 4797
1 4798
1 4799
1 4800
1 4801
1 4802
1 4803
1 4804
1 4805
1 4806
1 4807
1 4808
1 4809
1 4810
1 4811
1 4812
1 4813
1 4814
1 4815
1 4816
1 4817
1 4818
1 4819
1 4820
1 4821
1 4822
1 4823
1 4824
1 4825
1 4826
1 4827
1 4828
1 4829
1 4830
1 4831
1 4832
1 4833
1 4834
1 4835
1 4836
1 4837
1 4838
1 4839
1 4840
1 4841
1 4842
1 4843
1 4844
1 4845
1 4846
1 4847
1 4848
1 4849
1 4850
1 4851
1 4852
1 4853
1 4854
1 4855
1 4856
1 4857
1 4858
1 4859
1 4860
1 4861
1 4862
1 4863
1 4864
1 4865
1 4866
1 4867
1 4868
1 4869
1 4870
1 4871
1 4872
1 4873
1 4874
1 4875
1 4876
1 4877
1 4878
1 4879
1 4880
1 4881
1 4882
1 4883
1 4884
1 4885
1 4886
1 4887
1 4888
1 4889
1 4890
1 4891
1 4892
1 4893
1 4894
1 4895
1 4896
1 4897
1 4898
1 4899
1 4900
1 4901
1 4902
1 4903
1 4904
1 4905
1 4906
1 4907
1 4908
1 4909
1 4910
1 4911
1 4912
1 4913
1 4914
1 4915
1 4916
1 4917
1 4918
1 4919
1 4920
1 4921
1 4922
1 4923
1 4924
1 4925
1 4926
1 4927
1 4928
1 4929
1 4930
1 4931
1 4932
1 4933
1 4934
1 4935
1 4936
1 4937
1 4938
1 4939
1 4940
1 4941
1 4942
1 4943
1 4944
1 4945
1 4946
1 4947
1 4948
1 4949
1 4950
1 4951
1 4952
1 4953
1 4954
1 4955
1 4956
1 4957
1 4958
1 4959
1 4960
1 4961
1 4962
1 4963
1 4964
1 4965
1 4966
1 4967
1 4968
1 4969
1 4970
1 4971
1 4972
1 4973
1 4974
1 4975
1 4976
1 4977
1 4978
1 4979
1 4980
1 4981
1 4982
1 4983
1 4984
1 4985
1 4986
1 4987
1 4988
1 4989
1 4990
1 4991
1 4992
1 4993
1 4994
1 4995
1 4996
1 4997
1 4998
1 4999
CELL_TYPES 5000
1 
1 
1 
1 
1 
1 
1 
1 
1 
1 
1 
1 
1 
1 
1 
1 
1 
1 
1 
1 
1 
1 
1 
1 
1 
1 
1 
1 
1 
1 
1 
1 
1 
1 
1 
1 
1 
1 
1 
1 
1 
1 
1 
1 
1 
1 
1 
1 
1 
1 
1 
1 
1 
1 
1 
1 
1 
1 
1 
1 
1 
1 
1 
1 
1 
1 
1 
1 
1 
1 
1 
1 
1 
1 
1 
1 
1 
1 
1 
1 
1 
1 
1 
1 
1 
1 
1 
1 
1 
1 
1 
1 
1 
1 
1 
1 
1 
1 
1 
1 
1 
1 
1 
1 
1 
1 
1 
1 
1 
1 
1 
1 
1 
1 
1 
1 
1 
1 
1 
1 
1 
1 
1 
1 
1 
1 
1 
1 
1 
1 
1 
1 
1 
1 
1 
1 
1 
1 
1 
1 
1 
1 
1 
1 
1 
1 
1 
1 
1 
1 
1 
1 
1 
1 
1 
1 
1 
1 
1 
1 
1 
1 
1 
1 
1 
1 
1 
1 
1 
1 
1 
1 
1 
1 
1 
1 
1 
1 
1 
1 
1 
1 
1 
1 
1 
1 
1 
1 
1 
1 
1 
1 
1 
1 
1 
1 
1 
1 
1 
1 
1 
1 
1 
1 
1 
1 
1 
1 
1 
1 
1 
1 
1 
1 
1 
1 
1 
1 
1 
1 
1 
1 
1 
1 
1 
1 
1 
1 
1 
1 
1 
1 
1 
1 
1 
1 
1 
1 
1 
1 
1 
1 
1 
1 
1 
1 
1 
1 
1 
1 
1 
1 
1 
1 
1 
1 
1 
1 
1 
1 
1 
1 
1 
1 
1 
1 
1 
1 
1 
1 
1 
1 
1 
1 
1 
1 
1 
1 
1 
1 
1 
1 
1 
1 
1 
1 
1 
1 
1 
1 
1 
1 
1 
1 
1 
1 
1 
1 
1 
1 
1 
1 
1 
1 
1 
1 
1 
1 
1 
1 
1 
1 
1 
1 
1 
1 
1 
1 
1 
1 
1 
1 
1 
1 
1 
1 
1 
1 
1 
1 
1 
1 
1 
1 
1 
1 
1 
1 
1 
1 
1 
1 
1 
1 
1 
1 
1 
1 
1 
1 
1 
1 
1 
1 
1 
1 
1 
1 
1 
1 
1 
1 
1 
1 
1 
1 
1 
1 
1 
1 
1 
1 
1 
1 
1 
1 
1 
1 
1 
1 
1 
1 
1 
1 
1 
1 
1 
1 
1 
1 
1 
1 
1 
1 
1 
1 
1 
1 
1 
1 
1 
1 
1 
1 
1 
1 
1 
1 
1 
1 
1 
1 
1 
1 
1 
1 
1 
1 
1 
1 
1 
1 
1 
1 
1 
1 
1 
1 
1 
1 
1 
1 
1 
1 
1 
1 
1 
1 
1 
1 
1 
1 
1 
1 
1 
1 
1 
1 
1 
1 
1 
1 
1 
1 
1 
1 
1 
1 
1 
1 
1 
1 
1 
1 
1 
1 
1 
1 
1 
1 
1 
1 
1 
1 
1 
1 
1 
1 
1 
1 
1 
1 
1 
1 
1 
1 
1 
1 
1 
1 
1 
1 
1 
1 
1 
1 
1 
1 
1 
1 
1 
1 
1 
1 
1 
1 
1 
1 
1 
1 
1 
1 
1 
1 
1 
1 
1 
1 
1 
1 
1 
1 
1 
1 
1 
1 
1 
1 
1 
1 
1 
1 
1 
1 
1 
1 
1 
1 
1 
1 
1 
1 
1 
1 
1 
1 
1 
1 
1 
1 
1 
1 
1 
1 
1 
1 
1 
1 
1 
1 
1 
1 
1 
1 
1 
1 
1 
1 
1 
1 
1 
1 
1 
1 
1 
1 
1 
1 
1 
1 
1 
1 
1 
1 
1 
1 
1 
1 
1 
1 
1 
1 
1 
1 
1 
1 
1 
1 
1 
1 
1 
1 
1 
1 
1 
1 
1 
1 
1 
1 
1 
1 
1 
1 
1 
1 
1 
1 
1 
1 
1 
1 
1 
1 
1 
1 
1 
1 
1 
1 
1 
1 
1 
1 
1 
1 
1 
1 
1 
1 
1 
1 
1 
1 
1 
1 
1 
1 
1 
1 
1 
1 
1 
1 
1 
1 
1 
1 
1 
1 
1 
1 
1 
1 
1 
1 
1 
1 
1 
1 
1 
1 
1 
1 
1 
1 
1 
1 
1 
1 
1 
1 
1 
1 
1 
1 
1 
1 
1 
1 
1 
1 
1 
1 
1 
1 
1 
1 
1 
1 
1 
1 
1 
1 
1 
1 
1 
1 
1 
1 
1 
1 
1 
1 
1 
1 
1 
1 
1 
1 
1 
1 
1 
1 
1 
1 
1 
1 
1 
1 
1 
1 
1 
1 
1 
1 
1 
1 
1 
1 
1 
1 
1 
1 
1 
1 
1 
1 
1 
1 
1 
1 
1 
1 
1 
1 
1 
1 
1 
1 
1 
1 
1 
1 
1 
1 
1 
1 
1 
1 
1 
1 
1 
1 
1 
1 
1 
1 
1 
1 
1 
1 
1 
1 
1 
1 
1 
1 
1 
1 
1 
1 
1 
1 
1 
1 
1 
1 
1 
1 
1 
1 
1 
1 
1 
1 
1 
1 
1 
1 
1 
1 
1 
1 
1 
1 
1 
1 
1 
1 
1 
1 
1 
1 
1 
1 
1 
1 
1 
1 
1 
1 
1 
1 
1 
1 
1 
1 
1 
1 
1 
1 
1 
1 
1 
1 
1 
1 
1 
1 
1 
1 
1 
1 
1 
1 
1 
1 
1 
1 
1 
1 
1 
1 
1 
1 
1 
1 
1 
1 
1 
1 
1 
1 
1 
1 
1 
1 
1 
1 
1 
1 
1 
1 
1 
1 
1 
1 
1 
1 
1 
1 
1 
1 
1 
1 
1 
1 
1 
1 
1 
1 
1 
1 
1 
1 
1 
1 
1 
1 
1 
1 
1 
1 
1 
1 
1 
1 
1 
1 
1 
1 
1 
1 
1 
1 
1 
1 
1 
1 
1 
1 
1 
1 
1 
1 
1 
1 
1 
1 
1 
1 
1 
1 
1 
1 
1 
1 
1 
1 
1 
1 
1 
1 
1 
1 
1 
1 
1 
1 
1 
1 
1 
1 
1 
1 
1 
1 
1 
1 
1 
1 
1 
1 
1 
1 
1 
1 
1 
1 
1 
1 
1 
1 
1 
1 
1 
1 
1 
1 
1 
1 
1 
1 
1 
1 
1 
1 
1 
1 
1 
1 
1 
1 
1 
1 
1 
1 
1 
1 
1 
1 
1 
1 
1 
1 
1 
1 
1 
1 
1 
1 
1 
1 
1 
1 
1 
1 
1 
1 
1 
1 
1 
1 
1 
1 
1 
1 
1 
1 
1 
1 
1 
1 
1 
1 
1 
1 
1 
1 
1 
1 
1 
1 
1 
1 
1 
1 
1 
1 
1 
1 
1 
1 
1 
1 
1 
1 
1 
1 
1 
1 
1 
1 
1 
1 
1 
1 
1 
1 
1 
1 
1 
1 
1 
1 
1 
1 
1 
1 
1 
1 
1 
1 
1 
1 
1 
1 
1 
1 
1 
1 
1 
1 
1 
1 
1 
1 
1 
1 
1 
1 
1 
1 
1 
1 
1 
1 
1 
1 
1 
1 
1 
1 
1 
1 
1 
1 
1 
1 
1 
1 
1 
1 
1 
1 
1 
1 
1 
1 
1 
1 
1 
1 
1 
1 
1 
1 
1 
1 
1 
1 
1 
1 
1 
1 
1 
1 
1 
1 
1 
1 
1 
1 
1 
1 
1 
1 
1 
1 
1 
1 
1 
1 
1 
1 
1 
1 
1 
1 
1 
1 
1 
1 
1 
1 
1 
1 
1 
1 
1 
1 
1 
1 
1 
1 
1 
1 
1 
1 
1 
1 
1 
1 
1 
1 
1 
1 
1 
1 
1 
1 
1 
1 
1 
1 
1 
1 
1 
1 
1 
1 
1 
1 
1 
1 
1 
1 
1 
1 
1 
1 
1 
1 
1 
1 
1 
1 
1 
1 
1 
1 
1 
1 
1 
1 
1 
1 
1 
1 
1 
1 
1 
1 
1 
1 
1 
1 
1 
1 
1 
1 
1 
1 
1 
1 
1 
1 
1 
1 
1 
1 
1 
1 
1 
1 
1 
1 
1 
1 
1 
1 
1 
1 
1 
1 
1 
1 
1 
1 
1 
1 
1 
1 
1 
1 
1 
1 
1 
1 
1 
1 
1 
1 
1 
1 
1 
1 
1 
1 
1 
1 
1 
1 
1 
1 
1 
1 
1 
1 
1 
1 
1 
1 
1 
1 
1 
1 
1 
1 
1 
1 
1 
1 
1 
1 
1 
1 
1 
1 
1 
1 
1 
1 
1 
1 
1 
1 
1 
1 
1 
1 
1 
1 
1 
1 
1 
1 
1 
1 
1 
1 
1 
1 
1 
1 
1 
1 
1 
1 
1 
1 
1 
1 
1 
1 
1 
1 
1 
1 
1 
1 
1 
1 
1 
1 
1 
1 
1 
1 
1 
1 
1 
1 
1 
1 
1 
1 
1 
1 
1 
1 
1 
1 
1 
1 
1 
1 
1 
1 
1 
1 
1 
1 
1 
1 
1 
1 
1 
1 
1 
1 
1 
1 
1 
1 
1 
1 
1 
1 
1 
1 
1 
1 
1 
1 
1 
1 
1 
1 
1 
1 
1 
1 
1 
1 
1 
1 
1 
1 
1 
1 
1 
1 
1 
1 
1 
1 
1 
1 
1 
1 
1 
1 
1 
1 
1 
1 
1 
1 
1 
1 
1 
1 
1 
1 
1 
1 
1 
1 
1 
1 
1 
1 
1 
1 
1 
1 
1 
1 
1 
1 
1 
1 
1 
1 
1 
1 
1 
1 
1 
1 
1 
1 
1 
1 
1 
1 
1 
1 
1 
1 
1 
1 
1 
1 
1 
1 
1 
1 
1 
1 
1 
1 
1 
1 
1 
1 
1 
1 
1 
1 
1 
1 
1 
1 
1 
1 
1 
1 
1 
1 
1 
1 
1 
1 
1 
1 
1 
1 
1 
1 
1 
1 
1 
1 
1 
1 
1 
1 
1 
1 
1 
1 
1 
1 
1 
1 
1 
1 
1 
1 
1 
1 
1 
1 
1 
1 
1 
1 
1 
1 
1 
1 
1 
1 
1 
1 
1 
1 
1 
1 
1 
1 
1 
1 
1 
1 
1 
1 
1 
1 
1 
1 
1 
1 
1 
1 
1 
1 
1 
1 
1 
1 
1 
1 
1 
1 
1 
1 
1 
1 
1 
1 
1 
1 
1 
1 
1 
1 
1 
1 
1 
1 
1 
1 
1 
1 
1 
1 
1 
1 
1 
1 
1 
1 
1 
1 
1 
1 
1 
1 
1 
1 
1 
1 
1 
1 
1 
1 
1 
1 
1 
1 
1 
1 
1 
1 
1 
1 
1 
1 
1 
1 
1 
1 
1 
1 
1 
1 
1 
1 
1 
1 
1 
1 
1 
1 
1 
1 
1 
1 
1 
1 
1 
1 
1 
1 
1 
1 
1 
1 
1 
1 
1 
1 
1 
1 
1 
1 
1 
1 
1 
1 
1 
1 
1 
1 
1 
1 
1 
1 
1 
1 
1 
1 
1 
1 
1 
1 
1 
1 
1 
1 
1 
1 
1 
1 
1 
1 
1 
1 
1 
1 
1 
1 
1 
1 
1 
1 
1 
1 
1 
1 
1 
1 
1 
1 
1 
1 
1 
1 
1 
1 
1 
1 
1 
1 
1 
1 
1 
1 
1 
1 
1 
1 
1 
1 
1 
1 
1 
1 
1 
1 
1 
1 
1 
1 
1 
1 
1 
1 
1 
1 
1 
1 
1 
1 
1 
1 
1 
1 
1 
1 
1 
1 
1 
1 
1 
1 
1 
1 
1 
1 
1 
1 
1 
1 
1 
1 
1 
1 
1 
1 
1 
1 
1 
1 
1 
1 
1 
1 
1 
1 
1 
1 
1 
1 
1 
1 
1 
1 
1 
1 
1 
1 
1 
1 
1 
1 
1 
1 
1 
1 
1 
1 
1 
1 
1 
1 
1 
1 
1 
1 
1 
1 
1 
1 
1 
1 
1 
1 
1 
1 
1 
1 
1 
1 
1 
1 
1 
1 
1 
1 
1 
1 
1 
1 
1 
1 
1 
1 
1 
1 
1 
1 
1 
1 
1 
1 
1 
1 
1 
1 
1 
1 
1 
1 
1 
1 
1 
1 
1 
1 
1 
1 
1 
1 
1 
1 
1 
1 
1 
1 
1 
1 
1 
1 
1 
1 
1 
1 
1 
1 
1 
1 
1 
1 
1 
1 
1 
1 
1 
1 
1 
1 
1 
1 
1 
1 
1 
1 
1 
1 
1 
1 
1 
1 
1 
1 
1 
1 
1 
1 
1 
1 
1 
1 
1 
1 
1 
1 
1 
1 
1 
1 
1 
1 
1 
1 
1 
1 
1 
1 
1 
1 
1 
1 
1 
1 
1 
1 
1 
1 
1 
1 
1 
1 
1 
1 
1 
1 
1 
1 
1 
1 
1 
1 
1 
1 
1 
1 
1 
1 
1 
1 
1 
1 
1 
1 
1 
1 
1 
1 
1 
1 
1 
1 
1 
1 
1 
1 
1 
1 
1 
1 
1 
1 
1 
1 
1 
1 
1 
1 
1 
1 
1 
1 
1 
1 
1 
1 
1 
1 
1 
1 
1 
1 
1 
1 
1 
1 
1 
1 
1 
1 
1 
1 
1 
1 
1 
1 
1 
1 
1 
1 
1 
1 
1 
1 
1 
1 
1 
1 
1 
1 
1 
1 
1 
1 
1 
1 
1 
1 
1 
1 
1 
1 
1 
1 
1 
1 
1 
1 
1 
1 
1 
1 
1 
1 
1 
1 
1 
1 
1 
1 
1 
1 
1 
1 
1 
1 
1 
1 
1 
1 
1 
1 
1 
1 
1 
1 
1 
1 
1 
1 
1 
1 
1 
1 
1 
1 
1 
1 
1 
1 
1 
1 
1 
1 
1 
1 
1 
1 
1 
1 
1 
1 
1 
1 
1 
1 
1 
1 
1 
1 
1 
1 
1 
1 
1 
1 
1 
1 
1 
1 
1 
1 
1 
1 
1 
1 
1 
1 
1 
1 
1 
1 
1 
1 
1 
1 
1 
1 
1 
1 
1 
1 
1 
1 
1 
1 
1 
1 
1 
1 
1 
1 
1 
1 
1 
1 
1 
1 
1 
1 
1 
1 
1 
1 
1 
1 
1 
1 
1 
1 
1 
1 
1 
1 
1 
1 
1 
1 
1 
1 
1 
1 
1 
1 
1 
1 
1 
1 
1 
1 
1 
1 
1 
1 
1 
1 
1 
1 
1 
1 
1 
1 
1 
1 
1 
1 
1 
1 
1 
1 
1 
1 
1 
1 
1 
1 
1 
1 
1 
1 
1 
1 
1 
1 
1 
1 
1 
1 
1 
1 
1 
1 
1 
1 
1 
1 
1 
1 
1 
1 
1 
1 
1 
1 
1 
1 
1 
1 
1 
1 
1 
1 
1 
1 
1 
1 
1 
1 
1 
1 
1 
1 
1 
1 
1 
1 
1 
1 
1 
1 
1 
1 
1 
1 
1 
1 
1 
1 
1 
1 
1 
1 
1 
1 
1 
1 
1 
1 
1 
1 
1 
1 
1 
1 
1 
1 
1 
1 
1 
1 
1 
1 
1 
1 
1 
1 
1 
1 
1 
1 
1 
1 
1 
1 
1 
1 
1 
1 
1 
1 
1 
1 
1 
1 
1 
1 
1 
1 
1 
1 
1 
1 
1 
1 
1 
1 
1 
1 
1 
1 
1 
1 
1 
1 
1 
1 
1 
1 
1 
1 
1 
1 
1 
1 
1 
1 
1 
1 
1 
1 
1 
1 
1 
1 
1 
1 
1 
1 
1 
1 
1 
1 
1 
1 
1 
1 
1 
1 
1 
1 
1 
1 
1 
1 
1 
1 
1 
1 
1 
1 
1 
1 
1 
1 
1 
1 
1 
1 
1 
1 
1 
1 
1 
1 
1 
1 
1 
1 
1 
1 
1 
1 
1 
1 
1 
1 
1 
1 
1 
1 
1 
1 
1 
1 
1 
1 
1 
1 
1 
1 
1 
1 
1 
1 
1 
1 
1 
1 
1 
1 
1 
1 
1 
1 
1 
1 
1 
1 
1 
1 
1 
1 
1 
1 
1 
1 
1 
1 
1 
1 
1 
1 
1 
1 
1 
1 
1 
1 
1 
1 
1 
1 
1 
1 
1 
1 
1 
1 
1 
1 
1 
1 
1 
1 
1 
1 
1 
1 
1 
1 
1 
1 
1 
1 
1 
1 
1 
1 
1 
1 
1 
1 
1 
1 
1 
1 
1 
1 
1 
1 
1 
1 
1 
1 
1 
1 
1 
1 
1 
1 
1 
1 
1 
1 
1 
1 
1 
1 
1 
1 
1 
1 
1 
1 
1 
1 
1 
1 
1 
1 
1 
1 
1 
1 
1 
1 
1 
1 
1 
1 
1 
1 
1 
1 
1 
1 
1 
1 
1 
1 
1 
1 
1 
1 
1 
1 
1 
1 
1 
1 
1 
1 
1 
1 
1 
1 
1 
1 
1 
1 
1 
1 
1 
1 
1 
1 
1 
1 
1 
1 
1 
1 
1 
1 
1 
1 
1 
1 
1 
1 
1 
1 
1 
1 
1 
1 
1 
1 
1 
1 
1 
1 
1 
1 
1 
1 
1 
1 
1 
1 
1 
1 
1 
1 
1 
1 
1 
1 
1 
1 
1 
1 
1 
1 
1 
1 
1 
1 
1 
1 
1 
1 
1 
1 
1 
1 
1 
1 
1 
1 
1 
1 
1 
1 
1 
1 
1 
1 
1 
1 
1 
1 
1 
1 
1 
1 
1 
1 
1 
1 
1 
1 
1 
1 
1 
1 
1 
1 
1 
1 
1 
1 
1 
1 
1 
1 
1 
1 
1 
1 
1 
1 
1 
1 
1 
1 
1 
1 
1 
1 
1 
1 
1 
1 
1 
1 
1 
1 
1 
1 
1 
1 
1 
1 
1 
1 
1 
1 
1 
1 
1 
1 
1 
1 
1 
1 
1 
1 
1 
1 
1 
1 
1 
1 
1 
1 
1 
1 
1 
1 
1 
1 
1 
1 
1 
1 
1 
1 
1 
1 
1 
1 
1 
1 
1 
1 
1 
1 
1 
1 
1 
1 
1 
1 
1 
1 
1 
1 
1 
1 
1 
1 
1 
1 
1 
1 
1 
1 
1 
1 
1 
1 
1 
1 
1 
1 
1 
1 
1 
1 
1 
1 
1 
1 
1 
1 
1 
1 
1 
1 
1 
1 
1 
1 
1 
1 
1 
1 
1 
1 
1 
1 
1 
1 
1 
1 
1 
1 
1 
1 
1 
1 
1 
1 
1 
1 
1 
1 
1 
1 
1 
1 
1 
1 
1 
1 
1 
1 
1 
1 
1 
1 
1 
1 
1 
1 
1 
1 
1 
1 
1 
1 
1 
1 
1 
1 
1 
1 
1 
1 
1 
1 
1 
1 
1 
1 
1 
1 
1 
1 
1 
1 
1 
1 
1 
1 
1 
1 
1 
1 
1 
1 
1 
1 
1 
1 
1 
1 
1 
1 
1 
1 
1 
1 
1 
1 
1 
1 
1 
1 
1 
1 
1 
1 
1 
1 
1 
1 
1 
1 
1 
1 
1 
1 
1 
1 
1 
1 
1 
1 
1 
1 
1 
1 
1 
1 
1 
1 
1 
1 
1 
1 
1 
1 
1 
1 
1 
1 
1 
1 
1 
1 
1 
1 
1 
1 
1 
1 
1 
1 
1 
1 
1 
1 
1 
1 
1 
1 
1 
1 
1 
1 
1 
1 
1 
1 
1 
1 
1 
1 
1 
1 
1 
1 
1 
1 
1 
1 
1 
1 
1 
1 
1 
1 
1 
1 
1 
1 
1 
1 
1 
1 
1 
1 
1 
1 
1 
1 
1 
1 
1 
1 
1 
1 
1 
1 
1 
1 
1 
1 
1 
1 
1 
1 
1 
1 
1 
1 
1 
1 
1 
1 
1 
1 
1 
1 
1 
1 
1 
1 
1 
1 
1 
1 
1 
1 
1 
1 
1 
1 
1 
1 
1 
1 
1 
1 
1 
1 
1 
1 
1 
1 
1 
1 
1 
1 
1 
1 
1 
1 
1 
1 
1 
1 
1 
1 
1 
1 
1 
1 
1 
1 
1 
1 
1 
1 
1 
1 
1 
1 
1 
1 
1 
1 
1 
1 
1 
1 
1 
1 
1 
1 
1 
1 
1 
1 
1 
1 
1 
1 
1 
1 
1 
1 
1 
1 
1 
1 
1 
1 
1 
1 
1 
1 
1 
1 
1 
1 
1 
1 
1 
1 
1 
1 
1 
1 
1 
1 
1 
1 
1 
1 
1 
1 
1 
1 
1 
1 
1 
1 
1 
1 
1 
1 
1 
1 
1 
1 
1 
1 
1 
1 
1 
1 
1 
1 
1 
1 
1 
1 
1 
1 
1 
1 
1 
1 
1 
1 
1 
1 
1 
1 
1 
1 
1 
1 
1 
1 
1 
1 
1 
1 
1 
1 
1 
1 
1 
1 
1 
1 
1 
1 
1 
1 
1 
1 
1 
1 
1 
1 
1 
1 
1 
1 
1 
1 
1 
1 
1 
1 
1 
1 
1 
1 
1 
1 
1 
1 
1 
1 
1 
1 
1 
1 
1 
1 
1 
1 
1 
1 
1 
1 
1 
1 
1 
1 
1 
1 
1 
1 
1 
1 
1 
1 
1 
1 
1 
1 
1 
1 
1 
1 
1 
1 
1 
1 
1 
1 
1 
1 
1 
1 
1 
1 
1 
1 
1 
1 
1 
1 
1 
1 
1 
1 
1 
1 
1 
1 
1 
1 
1 
1 
1 
1 
1 
1 
1 
1 
1 
1 
1 
1 
1 
1 
1 
1 
1 
1 
1 
1 
1 
1 
1 
1 
1 
1 
1 
1 
1 
1 
1 
1 
1 
1 
1 
1 
1 
1 
1 
1 
1 
1 
1 
1 
1 
1 
1 
1 
1 
1 
1 
1 
1 
1 
1 
1 
1 
1 
1 
1 
1 
1 
1 
1 
1 
1 
1 
1 
1 
1 
1 
1 
1 
1 
1 
1 
1 
1 
1 
1 
1 
1 
1 
1 
1 
1 
1 
1 
1 
1 
1 
1 
1 
1 
1 
1 
1 
1 
1 
1 
1 
1 
1 
1 
1 
1 
1 
1 
1 
1 
1 
1 
1 
1 
1 
1 
1 
1 
1 
1 
1 
1 
1 
1 
1 
1 
1 
1 
1 
1 
1 
1 
1 
1 
1 
1 
1 
1 
1 
1 
1 
1 
1 
1 
1 
1 
1 
1 
1 
1 
1 
1 
1 
1 
1 
1 
1 
1 
1 
1 
1 
1 
1 
1 
1 
1 
1 
1 
1 
1 
1 
1 
1 
1 
1 
1 
1 
1 
1 
1 
1 
1 
1 
1 
1 
1 
1 
1 
1 
1 
1 
1 
1 
1 
1 
1 
1 
1 
1 
1 
1 
1 
1 
1 
1 
1 
1 
1 
1 
1 
1 
1 
1 
1 
1 
1 
1 
1 
1 
1 
1 
1 
1 
1 
1 
1 
1 
1 
1 
1 
1 
1 
1 
1 
1 
1 
1 
1 
1 
1 
1 
1 
1 
1 
1 
1 
1 
1 
1 
1 
1 
1 
1 
1 
1 
1 
1 
1 
1 
1 
1 
1 
1 
1 
1 
1 
1 
1 
1 
1 
1 
1 
1 
1 
1 
1 
1 
1 
1 
1 
1 
1 
1 
1 
1 
1 
1 
1 
1 
1 
1 
1 
1 
1 
1 
1 
1 
1 
1 
1 
1 
1 
1 
1 
1 
1 
1 
1 
1 
1 
1 
1 
1 
1 
1 
1 
1 
1 
1 
1 
1 
1 
1 
1 
1 
1 
1 
1 
1 
1 
1 
1 
1 
1 
1 
1 
1 
1 
1 
1 
1 
1 
1 
1 
1 
1 
1 
1 
1 
1 
1 
1 
1 
1 
1 
1 
1 
1 
1 
1 
1 
1 
1 
1 
1 
1 
1 
1 
1 
1 
1 
1 
1 
1 
1 
1 
1 
1 
1 
1 
1 
1 
1 
1 
1 
1 
1 
1 
1 
1 
1 
1 
1 
1 
1 
1 
1 
1 
1 
1 
1 
1 
1 
1 
1 
1 
1 
1 
1 
1 
1 
1 
1 
1 
1 
1 
1 
1 
1 
1 
1 
1 
1 
1 
1 
1 
1 
1 
1 
1 
1 
1 
1 
1 
1 
1 
1 
1 
1 
1 
1 
1 
1 
1 
1 
1 
1 
1 
1 
1 
1 
1 
1 
1 
1 
1 
1 
1 
1 
1 
1 
1 
1 
1 
1 
1 
1 
1 
1 
1 
1 
1 
1 
1 
1 
1 
1 
1 
1 
1 
1 
1 
1 
1 
1 
1 
1 
1 
1 
1 
1 
1 
1 
1 
1 
1 
1 
1 
1 
1 
1 
1 
1 
1 
1 
1 
1 
1 
1 
1 
1 
1 
1 
1 
1 
1 
1 
1 
1 
1 
1 
1 
1 
1 
1 
1 
1 
1 
1 
1 
1 
1 
1 
1 
1 
1 
1 
1 
1 
1 
1 
1 
1 
1 
1 
1 
1 
1 
1 
1 
1 
1 
1 
1 
1 
1 
1 
1 
1 
1 
1 
1 
1 
1 
1 
1 
1 
1 
1 
1 
1 
1 
1 
1 
1 
1 
1 
1 
1 
1 
1 
1 
1 
1 
1 
1 
1 
1 
1 
1 
1 
1 
1 
1 
1 
1 
1 
1 
1 
1 
1 
1 
1 
1 
1 
1 
1 
1 
1 
1 
1 
1 
1 
1 
1 
1 
1 
1 
1 
1 
1 
1 
1 
1 
1 
1 
1 
1 
1 
1 
1 
1 
1 
1 
1 
1 
1 
1 
1 
1 
1 
1 
1 
1 
1 
1 
1 
1 
1 
1 
1 
1 
1 
1 
1 
1 
1 
1 
1 
1 
1 
1 
1 
1 
1 
1 
1 
1 
1 
1 
1 
1 
1 
1 
1 
1 
1 
1 
1 
1 
1 
1 
1 
1 
1 
1 
1 
1 
1 
1 
1 
1 
1 
1 
1 
1 
1 
1 
1 
1 
1 
1 
1 
1 
1 
1 
1 
1 
1 
1 
1 
1 
1 
1 
1 
1 
1 
1 
1 
1 
1 
1 
1 
1 
1 
1 
1 
1 
1 
1 
1 
1 
1 
1 
1 
1 
1 
1 
1 
1 
1 
1 
1 
1 
1 
1 
1 
1 
1 
1 
1 
1 
1 
1 
1 
1 
1 
1 
1 
1 
1 
1 
1 
1 
1 
1 
1 
1 
1 
1 
1 
1 
1 
1 
1 
1 
1 
1 
1 
1 
1 
1 
1 
1 
1 
1 
1 
1 
1 
1 
1 
1 
1 
1 
1 
1 
1 
1 
1 
1 
1 
1 
1 
1 
1 
1 
1 
1 
1 
1 
1 
1 
1 
1 
1 
1 
1 
1 
1 
1 
1 
1 
1 
1 
1 
1 
1 
1 
1 
1 
1 
1 
1 
1 
1 
1 
1 
1 
1 
1 
1 
1 
1 
1 
1 
1 
1 
1 
1 
1 
1 
1 
1 
1 
1 
1 
1 
1 
1 
1 
1 
1 
1 
1 
1 
1 
1 
1 
1 
1 
1 
1 
1 
1 
1 
1 
1 
1 
1 
1 
1 
1 
1 
1 
1 
1 
1 
1 
1 
1 
1 
1 
1 
1 
1 
1 
1 
1 
1 
1 
1 
1 
1 
1 
1 
1 
1 
1 
1 
1 
1 
1 
1 
1 
1 
1 
1 
1 
1 
1 
1 
1 
1 
1 
1 
1 
1 
1 
1 
1 
1 
1 
1 
1 
1 
1 
1 
1 
1 
1 
1 
1 
1 
1 
1 
1 
1 
1 
1 
1 
1 
1 
1 
1 
1 
1 
1 
1 
1 
1 
1 
1 
1 
1 
1 
1 
1 
1 
1 
1 
1 
1 
1 
1 
1 
1 
1 
1 
1 
1 
1 
1 
1 
1 
1 
1 
1 
1 
1 
1 
1 
1 
1 
1 
1 
1 
1 
1 
1 
1 
1 
1 
1 
1 
1 
1 
1 
1 
1 
1 
1 
1 
1 
1 
1 
1 
1 
1 
1 
1 
1 
1 
1 
1 
1 
1 
1 
1 
1 
1 
1 
1 
1 
1 
1 
1 
1 
1 
1 
1 
1 
1 
1 
1 
1 
1 
1 
1 
1 
1 
1 
1 
1 
1 
1 
1 
1 
1 
1 
1 
1 
1 
1 
1 
1 
1 
1 
1 
1 
1 
1 
1 
1 
1 
1 
1 
1 
1 
1 
1 
1 
1 
1 
1 
1 
1 
1 
1 
1 
1 
1 
1 
1 
1 
1 
1 
1 
1 
1 
1 
1 
1 
1 
1 
1 
1 
1 
1 
1 
1 
1 
1 
1 
1 
1 
1 
1 
1 
1 
1 
1 
1 
1 
1 
1 
1 
1 
1 
1 
1 
1 
1 
1 
1 
1 
1 
1 
1 
1 
1 
1 
1 
1 
1 
1 
1 
1 
1 
1 
1 
1 
1 
1 
1 
1 
1 
1 
1 
1 
1 
1 
1 
1 
1 
1 
1 
1 
1 
1 
1 
1 
1 
1 
1 
1 
1 
1 
1 
1 
1 
1 
1 
1 
1 
1 
1 
1 
1 
1 
1 
1 
1 
1 
1 
1 
1 
1 
1 
1 
1 
1 
1 
1 
1 
1 
1 
1 
1 
1 
1 
1 
1 
1 
1 
1 
1 
1 
1 
1 
1 
1 
1 
1 
1 
1 
1 
1 
1 
1 
1 
1 
1 
1 
1 
1 
1 
1 
1 
1 
1 
1 
1 
1 
1 
1 
1 
1 
1 
1 
1 
1 
1 
1 
1 
1 
1 
1 
1 
1 
1 
1 
1 
1 
1 
1 
1 
1 
1 
1 
1 
1 
1 
1 
1 
1 
1 
1 
1 
1 
1 
1 
1 
1 
1 
1 
1 
1 
1 
1 
1 
1 
1 
1 
1 
1 
1 
1 
1 
1 
1 
1 
1 
1 
1 
1 
1 
1 
1 
1 
1 
1 
1 
1 
1 
1 
1 
1 
1 
1 
1 
1 
1 
1 
1 
1 
1 
1 
1 
1 
1 
1 
1 
1 
1 
1 
1 
1 
1 
1 
1 
1 
1 
1 
1 
1 
1 
1 
1 
1 
1 
1 
1 
1 
1 
1 
1 
1 
1 
1 
1 
1 
1 
1 
1 
1 
1 
1 
1 
1 
1 
1 
1 
1 
1 
1 
1 
1 
1 
1 
1 
1 
1 
1 
1 
1 
1 
1 
1 
1 
1 
1 
1 
1 
1 
1 
1 
1 
1 
1 
1 
1 
1 
1 
1 
1 
1 
1 
1 
1 
1 
1 
1 
1 
1 
1 
1 
1 
1 
1 
1 
1 
1 
1 
1 
1 
1 
1 
1 
1 
1 
1 
1 
1 
1 
1 
1 
1 
1 
1 
1 
1 
1 
1 
1 
1 
1 
1 
1 
1 
1 
1 
1 
1 
1 
1 
1 
1 
1 
1 
1 
1 
1 
1 
1 
1 
1 
1 
1 
1 
1 
1 
1 
1 
1 
1 
1 
1 
1 
1 
1 
1 
1 
1 
1 
1 
1 
1 
1 
1 
1 
1 
1 
1 
1 
1 
1 
1 
1 
1 
1 
1 
1 
1 
1 
1 
1 
1 
1 
1 
1 
1 
1 
1 
1 
1 
1 
1 
1 
1 
1 
1 
1 
1 
1 
1 
1 
1 
1 
1 
1 
1 
1 
1 
1 
1 
1 
1 
1 
1 
1 
1 
1 
1 
1 
1 
1 
1 
1 
1 
1 
1 
1 
1 
1 
1 
1 
1 
1 
1 
1 
1 
1 
1 
1 
1 
1 
1 
1 
1 
1 
1 
1 
1 
1 
1 
1 
1 
1 
1 
1 
1 
1 
1 
1 
1 
1 
1 
1 
1 
1 
1 
1 
1 
1 
1 
1 
1 
1 
1 
1 
1 
1 
1 
1 
1 
1 
1 
1 
1 
1 
1 
1 
1 
1 
1 
1 
1 
1 
1 
1 
1 
1 
1 
1 
1 
1 
1 
1 
1 
1 
1 
1 
1 
1 
1 
1 
1 
1 
1 
1 
1 
1 
1 
1 
1 
1 
1 
1 
1 
1 
1 
1 
1 
1 
1 
1 
1 
1 
1 
1 
1 
1 
1 
1 
POINT_DATA 5000
VECTORS Stress float
-1049.39 -72.9958 0.
-533.41 62.5747 0.
-578.356 -42.4627 0.
705.709 406.55 0.
621.963 210.713 0.
538.216 14.8761 0.
-101.077 -505.894 0.
-299.772 -969.043 0.
-498.467 -1432.19 0.
-333.366 -1324.99 0.
-188.257 -985.785 0.
-43.1479 -646.58 0.
-351.146 -583.876 0.
-254.691 -358.905 0.
-1549.94 -701.502 0.
-1339.64 -211.422 0.
-1129.34 278.658 0.
232.811 828.42 0.
-311.296 -441.639 0.
-855.404 -1711.7 0.
-647.428 -1785.4 0.
-302.197 -979.85 0.
43.0342 -174.3 0.
-656.597 -201.723 0.
-590.112 -46.6264 0.
-395.159 163.522 0.
-2138.88 -270.359 0.
-1971.95 119.924 0.
-1527.19 495.253 0.
-1699.04 94.0024 0.
-1870.89 -307.249 0.
-2948.1 -787.66 0.
-2735.71 -291.378 0.
-2523.33 204.904 0.
-2909.22 -472.796 0.
-3468.39 -1775.98 0.
-4027.55 -3079.16 0.
-6244.49 -2868.89 0.
-5418.68 -940.983 0.
-7368.28 -222.449 0.
-6999.1 638.836 0.
-6629.91 1500.12 0.
-9754.28 604.592 0.
-9892.77 284.2 0.
-10031.3 -36.1907 0.
-14202.8 -3115.57 0.
-15376.9 -5851.79 0.
-16551 -8588.01 0.
79756.4 34074.4 0.
81170.4 37383.9 0.
-922376 -390005 0.
82000 37737.9 0.
80586.5 34428.9 0.
-16508.2 -8557.56 0.
-15391.8 -5954.77 0.
-14275.5 -3351.98 0.
-9739.98 -251.744 0.
-9642.36 -24.8837 0.
-9544.75 201.977 0.
-7176.75 1200.64 0.
-7202.65 1139.46 0.
-7228.56 1078.27 0.
-6604.56 506.91 0.
-7072.73 -583.809 0.
-2555.84 411.389 0.
-3213.39 -1123.13 0.
-3870.94 -2657.66 0.
-2060.95 -2405.82 0.
-1692.22 -1546.05 0.
-1323.5 -686.269 0.
-1224.69 -226.41 0.
-1106.9 48.2525 0.
-989.113 322.915 0.
-2787.6 -203.76 0.
-2649.65 118.749 0.
-606.46 1234.17 0.
-961.513 337.969 0.
-1352.57 -573.654 0.
-235.245 -763.862 0.
-462.024 -1292.48 0.
-688.803 -1821.11 0.
-23.5082 -1377.59 0.
378.606 -438.016 0.
780.72 501.561 0.
-608.441 134.78 0.
-599.914 156.044 0.
-591.388 177.308 0.
-327.71 -36.4285 0.
-517.574 -479.568 0.
-313.748 -657.156 0.
-158.505 -294.747 0.
-3.26263 67.6609 0.
-560.622 9.30876 0.
-574.327 -24.2098 0.
-588.033 -57.7282 0.
-284.412 18.5067 0.
-309.762 -40.3735 0.
-335.112 -99.2536 0.
13.4826 -84.2386 0.
-72.2449 -283.238 0.
-17.5187 400.137 0.
-118.83 270.322 0.
-163.899 164.668 0.
346.248 285.467 0.
262.715 89.2712 0.
179.181 -106.925 0.
-38.668 -447.459 0.
-237.549 -910.101 0.
-436.43 -1372.74 0.
-263.711 -1265.17 0.
-118.958 -925.565 0.
25.7952 -585.954 0.
-686.627 -696.36 0.
-590.115 -471.441 0.
-745.141 -326.388 0.
-534.349 163.627 0.
-323.558 653.642 0.
-871.093 387.27 0.
-1414.55 -882.22 0.
-1958.01 -2151.71 0.
763.564 -1150.54 0.
1109.06 -344.336 0.
1454.56 461.865 0.
-1287.6 -439.727 0.
-1221.4 -285.386 0.
-1485.91 -272.772 0.
-2320.26 -318.123 0.
-2153.96 72.3093 0.
-1476.44 548.285 0.
-1648.11 146.911 0.
-1819.77 -254.463 0.
-2504.82 -564.986 0.
-2292.61 -67.671 0.
-2080.39 429.644 0.
-2080.71 -88.9027 0.
-2641 -1391.62 0.
-3201.28 -2694.34 0.
-6395.98 -2901.11 0.
-5570.88 -972.855 0.
-6241.12 293.25 0.
-5871.53 1155.18 0.
-5501.94 2017.11 0.
-9194.14 871.438 0.
-9334.37 552.513 0.
-9474.6 233.592 0.
-10403.2 -1467.89 0.
-11582.6 -4209.82 0.
-12762.1 -6951.74 0.
73369.1 31377 0.
74770.1 34676.6 0.
-823330 -347526 0.
75251.8 34881.8 0.
73851.9 31583.1 0.
-12816.3 -6961.89 0.
-11695.7 -4353.26 0.
-10575.1 -1744.61 0.
-8956.79 112.522 0.
-8858.79 338.437 0.
-8760.8 564.353 0.
-5845.24 1805.63 0.
-5870.7 1744 0.
-5896.15 1682.38 0.
-6237.82 697.674 0.
-6707.07 -392.173 0.
-2827.61 325.05 0.
-3484.8 -1209.15 0.
-4142 -2743.34 0.
-1098.19 -1961.89 0.
-728.926 -1102.01 0.
-359.665 -242.142 0.
-1462.74 -295.485 0.
-1344.96 -21.1993 0.
-1227.18 253.087 0.
-2817.99 -185.804 0.
-2680.41 137.085 0.
-1755.43 774.438 0.
-2035.89 -88.6225 0.
-2427.22 -999.204 0.
2157.86 292.728 0.
1930.33 -236.582 0.
1702.8 -765.892 0.
-914.182 -1727.52 0.
-513.171 -787.892 0.
-112.162 151.732 0.
-1037.05 -18.7326 0.
-1029.54 2.88581 0.
-1022.04 24.5045 0.
-256.729 26.0405 0.
-446.556 -417.262 0.
-79.474 -526.035 0.
75.6623 -163.524 0.
230.798 198.987 0.
-214.411 187.432 0.
-227.417 152.468 0.
-240.424 117.504 0.
-653.949 -107.05 0.
-679.464 -165.775 0.
-704.98 -224.499 0.
-72.2651 -88.6759 0.
-158.522 -286.848 0.
347.593 -675.972 0.
-286.098 -878.541 0.
-114.743 -478.65 0.
-664.017 -1359.68 0.
-357.481 -644.26 0.
-669.363 -1371.83 0.
-1342.56 -3570.12 0.
-970.122 -2703.38 0.
-3475.44 -8551.41 0.
-5848.07 -14397.1 0.
-1685.45 -4687.03 0.
-1816.92 -4996.46 0.
-2950.97 -5308.83 0.
-3424.99 -6410.56 0.
-4304.67 -10144 0.
-1305.79 -3144.88 0.
-1648.8 -3943.49 0.
-3965.04 -4709.32 0.
-3424.54 -3447.32 0.
-5617.2 -8562.67 0.
-28354.9 -71750.8 0.
-1440.88 -8948.38 0.
-825.015 -7508.37 0.
-4413.63 -6508.22 0.
-3709.79 -4866.91 0.
-4563.68 -6916.54 0.
-4339.32 -4651.91 0.
-4238.02 -4417.45 0.
-3079.12 -3264.35 0.
-3059.34 -3216.93 0.
-4230.64 -5948.66 0.
-7999.57 -14197.9 0.
-4859.73 -6872.71 0.
-4865.71 -6887.76 0.
-3945.01 -5965.09 0.
-3921.88 -5916.87 0.
-18952.1 -40993.2 0.
-15763.3 -24442.3 0.
-12101.6 -15901.5 0.
-11229.3 -13458.9 0.
-9277.6 -8911.25 0.
-9455.13 -9331.66 0.
-12482.9 -7883.44 0.
-11103.6 -4668.91 0.
-10894.6 -4184.98 0.
-9087.93 -5626.02 0.
-11065.1 -10218 0.
-37922 -72862.6 0.
65561.3 25396.8 0.
71122.9 38483.1 0.
-672819 -272937 0.
71045.2 38049.2 0.
65186.1 24269.5 0.
-36456.1 -69145.6 0.
-11971.4 -12033.4 0.
-11160.9 -10161.2 0.
-11907.5 -8279.02 0.
-11392.9 -7078.2 0.
-12557.7 -9796.02 0.
-8820.92 -7654.96 0.
-7664.56 -4956.58 0.
-7825.26 -5331.37 0.
-8295.04 -4770.57 0.
-8525.34 -5314.57 0.
-6682.43 -8125.89 0.
-6122.18 -6818.29 0.
-8096.54 -11424.7 0.
-25553.7 -60828.8 0.
-3205.04 -8677.48 0.
-3332.78 -8971.14 0.
-5221.06 -8584.53 0.
-4664.9 -7286.42 0.
-6537.44 -11655.3 0.
-4442.45 -3876.53 0.
-4074.53 -3017.6 0.
-4823.75 -4299.68 0.
-3953.24 -2483.19 0.
-4675.27 -4165.02 0.
-5400.52 -21859.6 0.
-6158.11 -23629.9 0.
-37339.9 -96389.8 0.
-12782.8 -27694.1 0.
-6163.08 -12248.7 0.
-6361.88 -12713.3 0.
-3397.89 -4672.93 0.
-2394.9 -2337.18 0.
-3133.63 -4065.45 0.
-1696.28 -3425.29 0.
-1875.39 -3842.55 0.
-3113.58 -8036.56 0.
-639.279 -2260.83 0.
-571.447 -2100.56 0.
-1160.52 -2659.78 0.
-960.56 -2191.01 0.
-1858.41 -4283.76 0.
-2205.47 -3002.06 0.
-1335.49 -972.791 0.
-1108.99 -444.988 0.
-303.915 -419.991 0.
-1174.63 -2450.77 0.
185.71 23.7134 0.
338.415 247.977 0.
404.329 402.215 0.
67.8879 376.201 0.
110.141 478.126 0.
152.394 580.051 0.
585.105 1159.98 0.
1023.3 2180.87 0.
1461.49 3201.76 0.
1497.6 3335.54 0.
1348.44 2984.96 0.
1199.27 2634.39 0.
565.746 2378.64 0.
591.444 2440.39 0.
1149.59 2676.45 0.
918.799 2141.03 0.
688.008 1605.61 0.
-460.293 1578.27 0.
868.768 4676.63 0.
2197.83 7774.99 0.
4663.12 9118.36 0.
3722.52 6923.26 0.
2781.91 4728.16 0.
105.497 2894.62 0.
-47.6879 2537.38 0.
349.043 2415.76 0.
-818.569 1675.07 0.
-941.666 1386.25 0.
-876.057 1382.6 0.
-484.996 2296.86 0.
-93.9363 3211.11 0.
-54.0404 3430.44 0.
-327.356 2793.18 0.
-600.671 2155.93 0.
-95.539 3839.16 0.
1277.69 7038.57 0.
2650.91 10238 0.
-1116.42 8066.7 0.
-1696.78 6709.17 0.
-1832.15 5503.46 0.
-2432.29 4101.48 0.
-3032.44 2699.49 0.
-5001 1055.12 0.
-4961.76 1145.05 0.
-4922.5 1234.99 0.
-3299.58 807.437 0.
-4632.43 -2280.42 0.
-5965.24 -5368.21 0.
57301.6 28209.5 0.
62590.5 40717.8 0.
-476614 -180130 0.
62782.9 40836.7 0.
57515.2 28375.4 0.
-5938.91 -5172.63 0.
-4446.04 -1713.06 0.
-2953.14 1746.55 0.
-4125.05 2516.14 0.
-4226.62 2280.78 0.
-4328.2 2045.42 0.
-3254.26 2263.61 0.
-3399.47 1925.7 0.
-3544.68 1587.8 0.
-4121.68 1242.79 0.
-4161.82 1144.29 0.
-1799.64 2413.91 0.
-628.068 5142.54 0.
543.508 7871.18 0.
3443.38 9797.3 0.
2400.68 7364.01 0.
1357.98 4930.73 0.
229.163 3612.42 0.
212.722 3571.5 0.
196.282 3530.57 0.
-674.378 2567.11 0.
-1057.46 1676.87 0.
-1289.94 900.729 0.
-561.561 2759.99 0.
250.426 4655.08 0.
5285.2 8432.03 0.
6189.59 10541.1 0.
7093.97 12650.2 0.
3954.59 10940.4 0.
2587.92 7750.53 0.
1221.25 4560.63 0.
482.925 2912.64 0.
59.9039 1922.76 0.
-363.116 932.878 0.
462.918 1371.54 0.
547.06 1571.18 0.
977.234 1829.11 0.
725.306 1242.53 0.
473.378 655.957 0.
124.645 280.511 0.
224.903 518.895 0.
325.162 757.279 0.
-568.057 435.137 0.
-584.159 397.923 0.
-600.261 360.709 0.
383.535 1177.98 0.
643.569 1787.77 0.
-363.21 -179.853 0.
528.286 360.37 0.
594.054 514.649 0.
69.7692 408.656 0.
110.933 511.222 0.
152.096 613.787 0.
479.344 1145.43 0.
917.297 2166.48 0.
1355.25 3187.53 0.
1202.13 3238.89 0.
1053.02 2888.59 0.
903.919 2538.3 0.
854.536 2534.25 0.
880.871 2594.98 0.
1116.25 2692.54 0.
884.982 2157.34 0.
653.711 1622.14 0.
549.122 2043.44 0.
1880.28 5143.05 0.
3211.44 8242.67 0.
2670.44 8295.85 0.
1732.05 6102.56 0.
793.655 3909.26 0.
722.09 3191.54 0.
568.361 2834.21 0.
1110.58 2775.06 0.
188.785 2137.45 0.
65.4284 1848.36 0.
-600.408 1532.29 0.
-209.454 2446.77 0.
181.499 3361.25 0.
439.674 3671.23 0.
165.911 3034.5 0.
-107.85 2397.78 0.
-510.333 3693.47 0.
862.089 6891.98 0.
2234.51 10090.5 0.
-223.556 8483.02 0.
-804.276 7124.48 0.
-260.179 6207.21 0.
-862.28 4805.2 0.
-1464.38 3403.2 0.
-511.296 3011.94 0.
-472.412 3103.1 0.
-433.51 3194.26 0.
412.721 2396.87 0.
-924.085 -699.579 0.
-2260.85 -3795.97 0.
45789.1 23433.7 0.
51014.9 35852.1 0.
-285658 -98260.7 0.
51246.4 35984.8 0.
46043 23612.8 0.
-2148.14 -3561.25 0.
-649.342 -92.781 0.
849.49 3375.74 0.
-240.604 4215.85 0.
-343.205 3979.74 0.
-445.808 3743.63 0.
-1626.36 2991.73 0.
-1772.05 2653.43 0.
-1917.73 2315.14 0.
-2148.48 2122.43 0.
-2189.13 2024.51 0.
-1335.99 2642.41 0.
-162.114 5371.01 0.
1011.77 8099.61 0.
1902.87 9168.95 0.
862.735 6736.95 0.
-177.4 4304.95 0.
520.597 3772.19 0.
504.87 3729.99 0.
489.143 3687.79 0.
576.3 3136.82 0.
191.898 2246.67 0.
99.0068 1525.69 0.
856.715 3398.57 0.
1670.54 5295.49 0.
2490.04 7268.25 0.
3392.42 9374.11 0.
4294.79 11480 0.
4194.37 11080.5 0.
2827.45 7889.67 0.
1460.52 4698.88 0.
1270.9 3281.6 0.
847.026 2291.45 0.
423.152 1301.31 0.
605.852 1463.74 0.
689.063 1663.93 0.
824.807 1793.53 0.
573.17 1206.9 0.
321.533 620.277 0.
172.275 333.248 0.
271.799 572.122 0.
371.323 810.995 0.
-350.713 558.92 0.
-367.184 521.887 0.
-383.654 484.854 0.
403.484 1218.64 0.
663.032 1829.41 0.
-322.79 114.978 0.
311.557 203.994 0.
240.388 39.5091 0.
-179.115 -242.766 0.
-143.418 -160.701 0.
-107.719 -78.6357 0.
-35.707 -80.4113 0.
-130.187 -299.076 0.
-224.666 -517.74 0.
-633.025 -819.147 0.
-685.603 -943.968 0.
-738.182 -1068.79 0.
-555.162 -979.368 0.
-536.638 -933.244 0.
-393.747 -816.715 0.
-300.627 -597.602 0.
-207.506 -378.489 0.
-136.654 -492.618 0.
-595.907 -1551.46 0.
-1055.16 -2610.29 0.
-2696.66 -3237 0.
-2205.04 -2091.05 0.
-1713.42 -945.104 0.
-631.603 -443.632 0.
-772.774 -777.627 0.
-398.072 -890.434 0.
-815.605 -929.818 0.
-733.64 -741.802 0.
-1272.94 -873.426 0.
-1283.55 -899.049 0.
-1294.17 -924.67 0.
-1229.4 -736.566 0.
-1030.57 -279.836 0.
-831.742 176.895 0.
-2224.02 -1038.81 0.
-2842.34 -2486.84 0.
-3460.67 -3934.86 0.
-4499.71 -4175.72 0.
-4273.44 -3649.93 0.
-2667.57 -2591.26 0.
-2851.58 -3022.14 0.
-3035.58 -3453.02 0.
-524.369 -2915.6 0.
-1046.87 -4126.21 0.
-1569.36 -5336.81 0.
309.583 -3402.13 0.
1921.87 387.684 0.
3534.13 4177.48 0.
30859.8 8468.12 0.
24952.7 -5104.33 0.
5057.41 -24658.7 0.
24354 -5286.86 0.
30314.1 8370.14 0.
3674.77 4366.67 0.
2007.61 465.397 0.
340.428 -3435.87 0.
-2013.97 -5543.51 0.
-1408.65 -4139.32 0.
-803.332 -2735.12 0.
-2848.23 -2980.02 0.
-2632.57 -2475.81 0.
-2416.89 -1971.6 0.
-2443.37 -1551.01 0.
-2221.88 -1034.37 0.
-2183.36 -747.15 0.
-2520.92 -1530.03 0.
-2858.48 -2312.91 0.
-3200.27 -2576.66 0.
-2768.06 -1566.4 0.
-2335.85 -556.136 0.
-878.439 111.149 0.
-1138 -492.412 0.
-1397.57 -1095.97 0.
-646.067 -644.742 0.
-501.875 -321.106 0.
-39.1852 131.415 0.
-210.327 -189.108 0.
-343.205 -493.231 0.
-1966.58 -1638.95 0.
-2500.41 -2878.68 0.
-3034.23 -4118.41 0.
-1896.76 -3643.69 0.
-1328.22 -2318.02 0.
-759.682 -992.349 0.
-90.4805 -275.699 0.
-7.7676 -86.9372 0.
74.9433 101.824 0.
3.30227 60.9982 0.
-11.2354 28.7244 0.
-71.0025 -22.9855 0.
-84.9003 -47.5005 0.
-98.797 -72.0147 0.
108.863 12.1341 0.
108.2 14.0759 0.
107.538 16.018 0.
-469.449 -125.762 0.
-379.135 84.1912 0.
-288.821 294.144 0.
-51.5229 117.317 0.
-250.098 -340.172 0.
19.4687 288.414 0.
-201.741 13.7353 0.
-274.352 -149.151 0.
-74.3992 -170.649 0.
-38.4063 -88.717 0.
-2.41278 -6.78482 0.
102.901 11.0868 0.
8.14259 -207.981 0.
-86.6164 -427.049 0.
-540.067 -750.439 0.
-592.429 -875.505 0.
-644.792 -1000.57 0.
-596.517 -966.102 0.
-578.217 -920.235 0.
-339.078 -764.729 0.
-246.511 -545.458 0.
-153.943 -326.187 0.
-142.37 -462.475 0.
-600.659 -1522.77 0.
-1058.95 -2583.07 0.
-1779.55 -2810.72 0.
-1287.17 -1664.53 0.
-794.788 -518.346 0.
-700.493 -443.471 0.
-841.457 -777.307 0.
-1507.4 -1336.17 0.
-1019.2 -987.788 0.
-938.237 -799.554 0.
-659.482 -579.463 0.
-670.352 -604.72 0.
-681.222 -629.976 0.
-1145.36 -672.637 0.
-947.649 -214.917 0.
-749.941 242.804 0.
-1068.5 -517.971 0.
-1688.7 -1965.63 0.
-2308.89 -3413.29 0.
-2580.72 -3323.05 0.
-2353.8 -2796.96 0.
-870.095 -1795.08 0.
-1055.27 -2225.92 0.
-1240.43 -2656.76 0.
1252.06 -2131.52 0.
727.526 -3343.49 0.
203.009 -4555.46 0.
2450.23 -2429.03 0.
4067.96 1363.3 0.
5685.67 5155.63 0.
21508 4406.75 0.
15667.5 -9098.43 0.
2742.78 -25613 0.
13444.4 -9969.24 0.
19325.6 3608.79 0.
5842.55 5358.35 0.
4170.83 1453.18 0.
2499.09 -2451.98 0.
69.3545 -4631.25 0.
675.084 -3224.01 0.
1280.82 -1816.76 0.
-1177.13 -2238.01 0.
-961.349 -1733.25 0.
-745.562 -1228.49 0.
-1243.35 -1008.94 0.
-1022.05 -491.811 0.
-1172.24 -283.836 0.
-1510.03 -1066.97 0.
-1847.82 -1850.09 0.
-1891.62 -1986.77 0.
-1458.48 -975.859 0.
-1025.34 35.0511 0.
-724.107 209.248 0.
-983.216 -394.724 0.
-1242.32 -998.694 0.
-862.64 -707.721 0.
-719.055 -383.015 0.
-232.921 78.9866 0.
-415.744 -246.834 0.
-548.085 -551.018 0.
-836.113 -1124.09 0.
-1369.89 -2364.42 0.
-1903.66 -3604.74 0.
-1570.97 -3475.43 0.
-1002.08 -2149.16 0.
-433.197 -822.895 0.
-433.566 -391.334 0.
-350.507 -202.404 0.
-267.449 -13.4736 0.
-139.559 29.4023 0.
-154.308 -2.51054 0.
-180.343 -38.7939 0.
-194.062 -63.5518 0.
-207.78 -88.3085 0.
274.673 114.195 0.
274.195 116.161 0.
273.718 118.127 0.
-217.217 12.0917 0.
-127.171 222.104 0.
-37.1243 432.117 0.
-17.4672 163.303 0.
-217.513 -293.317 0.
414.982 654.907 0.
-445.543 434.781 0.
-579.897 116.688 0.
-59.7569 -312.43 0.
68.9683 -11.2233 0.
106.333 76.8267 0.
-446.326 -1495.36 0.
452.935 606.043 0.
362.371 397.449 0.
-346.371 -476.251 0.
-574.024 -1003.6 0.
12.7816 369.444 0.
24.7651 598.375 0.
-179.545 116.37 0.
-302.174 -734.095 0.
75.4757 139.306 0.
-223.99 -567.242 0.
-591.793 -1449.1 0.
-517.476 -1279.46 0.
-215.62 -578.918 0.
-52.5597 -478.992 0.
-7.83319 -377.797 0.
50.0736 -245.891 0.
-705.711 -308.353 0.
-959.766 -902.187 0.
-827.542 -485.372 0.
-911.873 -326.587 0.
-1214.25 -1045.48 0.
-30.8244 -209.473 0.
346.542 666.306 0.
636.71 1338.64 0.
-1726.04 -2188.44 0.
-1254.79 -1092.97 0.
-735.141 115.508 0.
369.696 689.287 0.
-747.974 -1916.23 0.
-1690.08 -4112.19 0.
-1141.11 -3570.98 0.
-763.996 -2689.18 0.
293.733 -2466.07 0.
297.342 -2452.17 0.
505.206 -1961.78 0.
3004.81 -1346.61 0.
2813.65 -1794.36 0.
3461.95 -283.482 0.
5293.28 241.118 0.
4981.05 -487.077 0.
5890.91 1639.19 0.
12607.9 1316.56 0.
12684.4 1506.57 0.
2515.49 -4742.82 0.
8924.29 96.1064 0.
9521.38 1479.9 0.
5644.99 888.461 0.
4804.14 -1082.91 0.
3981.85 -3010.99 0.
3043.27 -1587.99 0.
3874.57 344.997 0.
4066.06 785.098 0.
428.785 -1626.17 0.
79.7389 -2443.25 0.
1300.57 402.795 0.
-211.696 -863.399 0.
-989.805 -2672.55 0.
-1380.83 -2650.44 0.
-267.171 -51.7689 0.
-691.167 -1040.99 0.
-489.058 -1140.11 0.
-527.935 -1228.35 0.
-259.778 -600.135 0.
-1264.27 -1314.05 0.
-376.577 757.319 0.
-474.887 528.071 0.
-1327.02 -1359.69 0.
-1541.27 -1856.65 0.
-210.462 73.1325 0.
-736.829 -599.207 0.
-1037.4 -1304.59 0.
797.118 614.42 0.
139.839 -919.581 0.
-26.3935 -1307.73 0.
-465.179 -1475.44 0.
-169.304 -784.444 0.
88.7968 -181.525 0.
-1135.39 -1373.4 0.
-1023.54 -1106.54 0.
-1336.56 -1831.09 0.
-297.979 -29.5705 0.
74.0661 836.863 0.
237.89 1181.61 0.
127.271 913.026 0.
-1.84455 601.126 0.
589.033 594.489 0.
516.624 423.273 0.
928.787 1382.73 0.
14.0108 95.1253 0.
-185.931 -372.857 0.
-277.994 -589.086 0.
231.295 712.612 0.
55.7208 291.255 0.
-111.533 371.221 0.
-640.109 37.8322 0.
-687.127 -76.8385 0.
172.263 191.094 0.
91.4307 1.97914 0.
10.5982 -187.136 0.
-38.3984 -380.07 0.
-128.909 -586.178 0.
-219.42 -792.287 0.
-294.543 -720.601 0.
-159.373 -401.631 0.
-24.2019 -82.662 0.
-258.598 -313.296 0.
-362.697 -559.955 0.
-358.051 -738.26 0.
-263.054 -521.122 0.
-168.057 -303.983 0.
-165.07 -305.121 0.
-407.684 -873.078 0.
-650.298 -1441.04 0.
-374.228 -1510.58 0.
-336.161 -1424.87 0.
-298.094 -1339.15 0.
-967.934 -1389.46 0.
-814.851 -1033.93 0.
-666.472 -680.251 0.
-1135.37 -882.218 0.
-1126.81 -876.205 0.
-301.037 -562.073 0.
-402.441 -800.744 0.
-503.847 -1039.42 0.
-777.42 -1242.13 0.
-733.779 -1143.38 0.
-690.136 -1044.63 0.
27.7878 -853.894 0.
-104.467 -1158.26 0.
-236.72 -1462.63 0.
368.675 -1657.8 0.
113.842 -2249.57 0.
883.927 -2352.56 0.
855.392 -2412.29 0.
826.86 -2472.02 0.
2729.24 -1705.5 0.
2692.99 -1791.33 0.
2656.74 -1877.16 0.
4066.62 -1209.42 0.
4153.64 -1010.63 0.
4240.66 -811.844 0.
10318 814.47 0.
9626.27 -792.003 0.
3350.97 -4788.87 0.
7069.6 -1394.5 0.
8016.63 811.665 0.
4765.37 586.641 0.
4330.77 -434.196 0.
3896.18 -1455.04 0.
2626.85 -2334.04 0.
2732.16 -2095.04 0.
2837.47 -1856.03 0.
535.758 -2486.29 0.
772.269 -1935.35 0.
1008.78 -1384.41 0.
-11.9391 -1726.96 0.
18.2397 -1651.35 0.
-627.597 -1885.92 0.
-683.413 -2016 0.
-739.226 -2146.08 0.
-855.821 -2102.78 0.
-627.731 -1569.1 0.
-399.641 -1035.42 0.
-898.587 -1032.3 0.
-865.228 -951.946 0.
-831.868 -871.597 0.
-1079.84 -908.043 0.
-1041.84 -814.358 0.
-405.297 -465.758 0.
-545.386 -732.355 0.
-653.655 -985.314 0.
53.3401 -950.933 0.
-161.294 -1449.63 0.
-375.93 -1948.33 0.
-674.439 -2030.37 0.
-390.38 -1366.65 0.
-106.322 -702.919 0.
-503.372 -454.258 0.
-309.242 3.6216 0.
-115.112 461.501 0.
-199.375 121.867 0.
-390.775 -324.989 0.
-468.696 -668.081 0.
-417.416 -555.394 0.
-366.135 -442.707 0.
33.5029 -262.109 0.
-34.781 -421.762 0.
-103.065 -581.414 0.
-164.464 -648.441 0.
-152.157 -620.712 0.
-139.85 -592.981 0.
-147.298 -262.249 0.
66.7308 228.983 0.
-592.439 193.998 0.
-654.481 61.2379 0.
-701.36 -53.4157 0.
209.655 240.516 0.
129.122 50.7015 0.
48.5886 -139.113 0.
-107.66 -378.22 0.
-198.733 -583.798 0.
-289.806 -789.377 0.
-85.1759 -598.091 0.
49.996 -279.34 0.
185.169 39.4113 0.
-111.277 -220.426 0.
-215.941 -466.678 0.
-407.05 -726.628 0.
-313.108 -509.04 0.
-219.166 -291.452 0.
-227.561 -302.74 0.
-470.747 -870.29 0.
-713.933 -1437.84 0.
-210.855 -1410.45 0.
-172.806 -1324.45 0.
-134.757 -1238.45 0.
-705.203 -1245.8 0.
-551.704 -890.345 0.
-416.491 -542.522 0.
-1099.56 -834.053 0.
-1090.79 -828.193 0.
-431.276 -587.072 0.
-533.874 -825.394 0.
-636.473 -1063.72 0.
-95.4996 -919.314 0.
-52.4215 -820.368 0.
-9.34092 -721.42 0.
434.232 -650.598 0.
301.294 -954.754 0.
168.358 -1258.91 0.
1231.02 -1255.83 0.
975.741 -1848.04 0.
1562.6 -2031.8 0.
1533.65 -2091.33 0.
1504.7 -2150.86 0.
2596.26 -1732.38 0.
2559.99 -1817.54 0.
2523.72 -1902.69 0.
3341.78 -1489.16 0.
3430.27 -1290.96 0.
3518.76 -1092.77 0.
7794.23 -234.862 0.
7105.12 -1839.24 0.
-97.5671 -6239.02 0.
5593.26 -2000.39 0.
6537.42 204.583 0.
3863.49 232.403 0.
3428.34 -786.953 0.
2993.18 -1806.31 0.
2523.26 -2350.33 0.
2628.58 -2111.4 0.
2733.89 -1872.47 0.
1133.91 -2200.43 0.
1370.05 -1648.12 0.
1606.19 -1095.81 0.
702.102 -1391.07 0.
732.867 -1315.82 0.
-89.1607 -1621.97 0.
-144.658 -1752.08 0.
-200.154 -1882.19 0.
-781.48 -2036.51 0.
-553.107 -1503.07 0.
-324.734 -969.63 0.
-582.544 -867.156 0.
-550.026 -786.146 0.
-517.506 -705.136 0.
-997.836 -841.574 0.
-960.518 -747.602 0.
-0.562089 -262.689 0.
-225.208 -564.174 0.
-334.506 -816.2 0.
-20.8723 -954.596 0.
-236.089 -1452.17 0.
-451.306 -1949.74 0.
-623.511 -1977.47 0.
-339.264 -1313.47 0.
-55.0187 -649.457 0.
-194.039 -288.048 0.
0.522968 169.742 0.
195.084 627.532 0.
-140.604 180.382 0.
-332.555 -266.054 0.
-347.836 -586.082 0.
-297.445 -472.152 0.
-247.054 -358.222 0.
-182.274 -325.562 0.
-251.185 -484.861 0.
-320.096 -644.16 0.
23.5956 -536.908 0.
35.7204 -509.078 0.
47.8452 -481.248 0.
-83.3749 -204.592 0.
129.455 287.335 0.
-421.694 346.184 0.
-426.943 243.056 0.
-511.366 43.4192 0.
162.397 183.653 0.
133.168 108.643 0.
103.939 33.6334 0.
-82.4643 -108.733 0.
-122.142 -211.241 0.
-161.82 -313.75 0.
141.768 -306.434 0.
70.4159 -476.737 0.
-0.936108 -647.041 0.
-181.376 -667.166 0.
-135.121 -552.934 0.
-336.092 -557.143 0.
-384.828 -670.478 0.
-433.564 -783.812 0.
-431.093 -913.225 0.
-543.521 -1174.68 0.
-655.95 -1436.14 0.
-118.001 -1227.07 0.
-33.6943 -1030.96 0.
50.6126 -834.859 0.
-439.031 -1034.83 0.
-463.304 -1091.45 0.
-202.48 -1025.81 0.
-1136.95 -1338.02 0.
-1084.3 -1215.16 0.
-507.421 -924.871 0.
-602.066 -1147.84 0.
-696.713 -1370.8 0.
132.344 -1189.42 0.
54.4613 -1379.36 0.
-23.4229 -1569.31 0.
244.304 -1636.48 0.
142.762 -1871.21 0.
41.2183 -2105.94 0.
1385.45 -1884.73 0.
1178.03 -2363.2 0.
1559.82 -2568.54 0.
1462.65 -2788.82 0.
1365.47 -3009.1 0.
1972.18 -2758.51 0.
2159.54 -2312.12 0.
2346.89 -1865.73 0.
2975.03 -1169.02 0.
3223.08 -589.172 0.
3471.13 -9.3206 0.
6726.27 1152.03 0.
6493.77 607.987 0.
-702.215 -2920.23 0.
5496.2 43.1021 0.
5659.28 420.409 0.
3027.77 -498.822 0.
2945.99 -687.12 0.
2864.21 -875.418 0.
2730.55 -1242.08 0.
2483.27 -1812.85 0.
2235.99 -2383.61 0.
1151.5 -2778.55 0.
1310.65 -2405.43 0.
1469.8 -2032.3 0.
720.851 -2039.28 0.
885.141 -1657.17 0.
57.6039 -1755.51 0.
18.7576 -1841 0.
-20.0889 -1926.49 0.
-713.479 -2178.44 0.
-602.476 -1915.92 0.
-491.473 -1653.39 0.
-493.035 -1353.26 0.
-309.438 -929.54 0.
-125.84 -505.82 0.
-802.223 -927.923 0.
-918.96 -1208.82 0.
-247.151 -1143.38 0.
-444.715 -1374.86 0.
-517.877 -1553.05 0.
-364.95 -1560.96 0.
-288.745 -1392.44 0.
-212.54 -1223.91 0.
-214.591 -1199.74 0.
-253.187 -1290.08 0.
-291.782 -1380.41 0.
-510.297 -1466.75 0.
-494.763 -1433.92 0.
-479.229 -1401.08 0.
-742.426 -1229.7 0.
-586.404 -868.829 0.
-280.263 -482.82 0.
-252.11 -417.716 0.
-223.957 -352.611 0.
-200.058 -334.406 0.
-230.803 -412.767 0.
-261.55 -491.13 0.
171.806 -234.819 0.
250.289 -48.4115 0.
328.771 137.996 0.
138.292 92.7297 0.
144.363 109.418 0.
301.99 691.14 0.
-12.2393 453.028 0.
-97.447 253.93 0.
112.138 192.797 0.
82.5811 117.977 0.
53.0249 43.1563 0.
-181.159 -119.265 0.
-220.877 -222.042 0.
-260.596 -324.821 0.
229.731 -238.547 0.
158.055 -409.171 0.
86.3792 -579.795 0.
-5.84496 -559.683 0.
40.9737 -446.259 0.
-270.929 -499.739 0.
-320.037 -612.843 0.
-369.146 -725.946 0.
-202.543 -784.208 0.
-315.264 -1045.53 0.
-427.984 -1306.84 0.
-223.729 -1241.61 0.
-139.052 -1045.69 0.
-54.3763 -849.769 0.
-244.996 -922.585 0.
-269.914 -978.763 0.
317.21 -772.569 0.
-705.694 -1121.53 0.
-652.622 -998.852 0.
-198.831 -761.434 0.
-294.275 -984.299 0.
-389.718 -1207.16 0.
356.547 -1065.94 0.
277.269 -1254.97 0.
197.99 -1444.01 0.
448.26 -1518 0.
345.331 -1752.21 0.
242.4 -1986.42 0.
1617.02 -1755.09 0.
1409.35 -2233.51 0.
1505.31 -2562.55 0.
1408.43 -2783.01 0.
1311.55 -3003.47 0.
1670.72 -2856.71 0.
1858.65 -2410.69 0.
2046.59 -1964.68 0.
2474.77 -1349.42 0.
2723.02 -770.199 0.
2971.26 -190.979 0.
5200.66 526.167 0.
4967.78 -16.8865 0.
1199.42 -2074.32 0.
4603.87 -307.469 0.
4766.14 69.6324 0.
2676.15 -616.794 0.
2594.49 -806.056 0.
2512.84 -995.318 0.
2208.77 -1432.76 0.
1961.4 -2004.27 0.
1714.03 -2575.78 0.
1233.5 -2710.56 0.
1392.39 -2337.7 0.
1551.27 -1964.83 0.
815.644 -1967.33 0.
979.73 -1584.97 0.
62.1903 -1723.35 0.
23.7109 -1808.05 0.
-14.7685 -1892.74 0.
-457.134 -2037.09 0.
-346.239 -1774.14 0.
-235.345 -1511.19 0.
-56.6679 -1140.02 0.
126.893 -716.058 0.
310.455 -292.096 0.
-285.672 -671.864 0.
-402.273 -952.658 0.
-547.451 -1241.58 0.
-401.738 -1325.41 0.
-475.083 -1503.12 0.
-460.588 -1573.94 0.
-384.936 -1404.2 0.
-309.284 -1234.46 0.
-54.9198 -1100.33 0.
-93.4323 -1190.66 0.
-131.944 -1280.99 0.
-289.642 -1339.06 0.
-274.201 -1305.88 0.
-258.76 -1272.69 0.
-740.11 -1199.9 0.
-585.249 -837.336 0.
-316.334 -465.63 0.
-288.006 -400.702 0.
-259.677 -335.775 0.
2.71536 -216.396 0.
-29.1662 -293.309 0.
-61.0482 -370.222 0.
70.1812 -249.686 0.
148.505 -62.9312 0.
226.83 123.823 0.
319.398 200.601 0.
325.897 217.8 0.
763.375 448.569 0.
149.662 93.8572 0.
770.893 1548.49 0.
408.607 985.481 0.
115.84 309.769 0.
160.287 421.029 0.
-8.02568 492.04 0.
-44.0612 408.01 0.
136.717 828.624 0.
850.93 1078.4 0.
729.331 795.296 0.
436.912 113.673 0.
297.092 -146.497 0.
193.262 -393.137 0.
-59.8718 -94.0365 0.
337.94 833.728 0.
-19.8307 -1.54499 0.
386.581 185.277 0.
380.112 168.596 0.
333.916 58.9456 0.
459.51 574.323 0.
361.078 342.521 0.
-378.197 -1384.44 0.
164.74 -306.725 0.
731.137 1008.49 0.
836.658 856.931 0.
312.662 445.46 0.
-208.445 -776.882 0.
46.1246 -729.961 0.
443.808 194.379 0.
582.084 513.375 0.
1191.73 483.019 0.
915.825 -163.762 0.
830.158 -366.253 0.
1189.7 -129.234 0.
1317.4 164.94 0.
979.84 -625.914 0.
2949.81 955.513 0.
2248.57 -685.347 0.
2169.04 -863.432 0.
2256.44 -672.731 0.
2598.21 111.799 0.
2719.93 221.726 0.
2871.95 564.553 0.
2464.49 -397.565 0.
2687.06 123.517 0.
2846.2 493.141 0.
2457.95 -416.067 0.
3967.35 580.86 0.
4368.54 1516.96 0.
-613.515 914.66 0.
4457.02 1104.57 0.
3923.98 -140.705 0.
2809.8 376.531 0.
2351.46 -691.068 0.
2310.38 -783.187 0.
2670.08 672.518 0.
2484.1 240.405 0.
2521.1 327.869 0.
2298.28 -339.432 0.
2396.94 -104.055 0.
2637.71 462.397 0.
1523.26 -472.439 0.
1622.24 -238.783 0.
658.514 -312.132 0.
695.423 -228.113 0.
874.429 187.788 0.
608.674 -3.37063 0.
897.901 663.517 0.
368.278 -580.328 0.
492.593 -639.056 0.
758.835 -17.0594 0.
888.051 284.964 0.
458.402 118.39 0.
1006.31 1397.73 0.
-503.315 30.8425 0.
180.274 -33.5368 0.
522.308 762.826 0.
46.0676 -186.887 0.
13.8865 -264.23 0.
124.046 -9.67262 0.
503.72 -82.1215 0.
365.18 -400.803 0.
577.74 99.8453 0.
522.002 160.99 0.
411.312 -92.5258 0.
1048.32 1398.12 0.
39.0473 653.06 0.
226.022 1093.61 0.
-159.277 -3.71433 0.
-19.1213 324.627 0.
-26.951 307.54 0.
75.3479 -386.668 0.
717.075 1110.29 0.
840.007 1396.16 0.
106.393 70.7718 0.
325.686 579.604 0.
16.4221 -144.688 0.
233.275 -316.594 0.
146.07 -516.792 0.
361.037 17.8548 0.
-25.6898 -143.953 0.
5.10537 -68.4991 0.
-17.6214 -41.2057 0.
-89.9383 -204.587 0.
-162.255 -367.968 0.
-368.157 -600.712 0.
-437.793 -763.474 0.
-507.428 -926.234 0.
-35.4205 -882.422 0.
-122.241 -1086.74 0.
-209.064 -1291.07 0.
-226.804 -1119.53 0.
-101.797 -828.039 0.
-286.172 -711.252 0.
-462.906 -1123.28 0.
-639.64 -1535.31 0.
-272.623 -1557.48 0.
-177.686 -1335.94 0.
-82.7497 -1114.4 0.
-183.673 -1091.6 0.
-207.672 -1148.81 0.
-231.67 -1206.02 0.
-153.688 -1124.29 0.
-103.089 -1010.2 0.
308.049 -741.796 0.
-190.597 -1053.56 0.
-246.195 -1189.26 0.
11.4861 -1191.89 0.
-20.7249 -1270.95 0.
-52.9355 -1350 0.
541.517 -1210.69 0.
440.776 -1449.29 0.
340.035 -1687.88 0.
518.554 -1845.07 0.
388.097 -2153.26 0.
257.641 -2461.44 0.
1666.17 -2048.38 0.
1564.92 -2287.34 0.
1280.45 -2549.58 0.
1531.01 -1976.02 0.
1781.56 -1402.45 0.
1887.55 -1100.03 0.
1781.34 -1358.07 0.
1675.13 -1616.13 0.
1900.5 -1274.28 0.
2236.91 -495.673 0.
2573.33 282.942 0.
3504.77 767.896 0.
3468.84 684.274 0.
-301.078 -998.323 0.
3863.91 525.364 0.
3725.38 204.784 0.
2009.25 -758.496 0.
1956.04 -878.163 0.
1902.82 -997.83 0.
1881.39 -1117.42 0.
1809.9 -1285.34 0.
1738.41 -1453.27 0.
1611.75 -1599.66 0.
1569.03 -1695.49 0.
1526.31 -1791.32 0.
905.099 -1924.91 0.
981.693 -1745.39 0.
200.919 -1931.46 0.
285.621 -1734.23 0.
370.323 -1537.01 0.
306.287 -1467.92 0.
299.986 -1486.59 0.
293.682 -1505.26 0.
-13.7922 -1671.89 0.
-43.554 -1739.62 0.
-73.3148 -1807.36 0.
-319.132 -1756.28 0.
-206.998 -1495.01 0.
-308.628 -1334.99 0.
-144.069 -1211.2 0.
-114.824 -1145.33 0.
-316.47 -1186.46 0.
-300.016 -1152.05 0.
-283.561 -1117.65 0.
114.953 -955.421 0.
78.6901 -1034 0.
42.4277 -1112.57 0.
-44.0452 -1059.23 0.
37.6105 -866.306 0.
119.266 -673.385 0.
-527.58 -881.137 0.
-496.457 -806.66 0.
-329.595 -676.3 0.
-307.881 -628.502 0.
-286.167 -580.703 0.
26.6181 -333.704 0.
161.337 -23.5955 0.
296.057 286.514 0.
-144.958 81.0051 0.
-242.298 -150.243 0.
-339.637 -381.492 0.
485.971 -26.1557 0.
502.9 16.9102 0.
108.555 -63.202 0.
-100.511 -147.417 0.
-69.0763 -72.5919 0.
17.5993 8.6586 0.
-54.4208 -155.932 0.
-126.441 -320.522 0.
-218.792 -504.321 0.
-288.513 -667.678 0.
-358.233 -831.035 0.
-74.4459 -865.555 0.
-160.323 -1070.66 0.
-246.201 -1275.76 0.
-342.747 -1137.7 0.
-218.694 -845.525 0.
-224.412 -654.111 0.
-400.958 -1066.13 0.
-577.502 -1478.15 0.
-148.84 -1472.51 0.
-54.5745 -1250.27 0.
39.6913 -1028.04 0.
-79.2756 -1016.81 0.
-103.108 -1073.66 0.
-126.94 -1130.5 0.
-98.2644 -1071.4 0.
-48.6081 -956.177 0.
395.482 -672.279 0.
-4.56951 -945.781 0.
-59.4895 -1082.12 0.
230.909 -1064.25 0.
198.649 -1143.73 0.
166.389 -1223.21 0.
652.192 -1127.82 0.
551.678 -1367.27 0.
451.163 -1606.72 0.
614.532 -1772.2 0.
483.978 -2079.85 0.
353.423 -2387.51 0.
1686.89 -2009.91 0.
1585.32 -2248.55 0.
1095.34 -2594.84 0.
1345.09 -2021.03 0.
1594.85 -1447.21 0.
1576.83 -1205.11 0.
1470.36 -1462.66 0.
1363.88 -1720.22 0.
1687.39 -1333.84 0.
2025 -555.938 0.
2362.61 221.971 0.
2859.66 524.921 0.
2824.1 440.932 0.
-2626.88 -1962.94 0.
3455.84 382.84 0.
3317.01 61.9805 0.
1640.88 -881.163 0.
1587.88 -1001.3 0.
1534.89 -1121.43 0.
1871.7 -1091.62 0.
1801.09 -1259.94 0.
1730.49 -1428.26 0.
1448.68 -1638.41 0.
1405.68 -1733.93 0.
1362.69 -1829.44 0.
928.088 -1883.07 0.
1004.79 -1703.28 0.
509.382 -1767.83 0.
593.156 -1569.65 0.
676.93 -1371.46 0.
718.469 -1261.9 0.
711.605 -1279.94 0.
704.737 -1297.98 0.
-77.7902 -1668.86 0.
-106.935 -1736.73 0.
-136.08 -1804.6 0.
-271.228 -1703.63 0.
-158.545 -1442.83 0.
653.807 -892.466 0.
92.3752 -1079.23 0.
120.937 -1013.15 0.
-214.983 -1109.2 0.
-198.428 -1075.26 0.
-181.874 -1041.32 0.
111.53 -927.275 0.
74.9385 -1005.68 0.
38.3467 -1084.09 0.
-80.4821 -1044.14 0.
1.82529 -852.098 0.
84.1329 -660.052 0.
-399.194 -795.37 0.
-367.368 -721.313 0.
-167.569 -574.283 0.
-144.707 -527.479 0.
-121.845 -480.674 0.
-42.4331 -328.759 0.
93.3446 -19.2936 0.
229.123 290.173 0.
-441.868 -15.1357 0.
-538.659 -246.405 0.
-635.451 -477.675 0.
659.594 79.6723 0.
677.103 124.3 0.
147.02 465.321 0.
-37.9148 66.0285 0.
-207.64 -331.17 0.
-247.308 -602.419 0.
-195.907 -484.844 0.
-144.505 -367.268 0.
27.2411 -235.555 0.
23.8168 -246.639 0.
20.393 -257.723 0.
117.477 -270.119 0.
77.2981 -362.217 0.
37.1187 -454.315 0.
-202.701 -715.925 0.
-299.569 -938.903 0.
-333.606 -1126.09 0.
-337.742 -1134.08 0.
-341.878 -1142.07 0.
23.0236 -995.476 0.
7.8693 -1030.34 0.
-7.28506 -1065.2 0.
-57.6568 -1157.72 0.
-115.552 -1289.16 0.
-173.447 -1420.6 0.
-152.534 -1384.66 0.
-109.197 -1285.44 0.
597.284 -901.883 0.
1.13642 -1165.87 0.
-2.97561 -1175.97 0.
410.325 -1051.36 0.
284.605 -1343.82 0.
158.887 -1636.28 0.
495.36 -1604.86 0.
536.632 -1509.02 0.
577.904 -1413.17 0.
812.158 -1308.68 0.
792.402 -1350.08 0.
772.645 -1391.48 0.
1986.2 -1124.39 0.
1830.97 -1482.77 0.
1200.91 -1999.34 0.
1339.86 -1675.12 0.
1478.81 -1350.91 0.
1371.7 -1130.09 0.
1515.34 -788.647 0.
1658.97 -447.207 0.
1796.87 -413.95 0.
1656.89 -737.41 0.
1516.92 -1060.87 0.
2086.22 -750.837 0.
2175.27 -541.939 0.
-5143.56 -3507.81 0.
2945.14 -59.9638 0.
2938.51 -81.1531 0.
1482.21 -732.814 0.
1433.57 -842.114 0.
1384.93 -951.414 0.
1760.5 -852.695 0.
1732.13 -913.896 0.
1703.75 -975.096 0.
1502.28 -1235.53 0.
1378.56 -1519.16 0.
1254.85 -1802.79 0.
956.549 -1816.01 0.
1031.92 -1632.71 0.
666.749 -1655.07 0.
674.953 -1636.1 0.
683.158 -1617.14 0.
725.454 -1582.01 0.
739.683 -1544.66 0.
753.913 -1507.3 0.
-181.64 -1832.26 0.
-125.706 -1702.9 0.
-69.7719 -1573.53 0.
-74.3111 -1494.78 0.
-31.2491 -1396.69 0.
1001.7 -882.835 0.
-96.4876 -1374.97 0.
-107.279 -1401.03 0.
-241.089 -1474.91 0.
-253.936 -1495.68 0.
-266.783 -1516.44 0.
45.5773 -1281.18 0.
161.874 -1012.01 0.
278.17 -742.828 0.
104.255 -688.081 0.
148.536 -584.118 0.
192.818 -480.153 0.
-210.097 -502.292 0.
-123.201 -303.07 0.
137.213 -58.5512 0.
100.569 -140.285 0.
63.9253 -222.018 0.
-155.973 -374.949 0.
-170.063 -406.514 0.
-184.152 -438.079 0.
-525.822 -384.302 0.
-350.028 30.3882 0.
-174.234 445.077 0.
669.088 745.863 0.
592.856 566.37 0.
-53.2428 409.89 0.
-4.56126 109.899 0.
-175.821 -286.957 0.
-240.306 -567.762 0.
-189.93 -450.308 0.
-139.554 -332.855 0.
235.79 -114.326 0.
232.332 -125.936 0.
228.875 -137.546 0.
39.214 -271.56 0.
-0.513348 -364.421 0.
-40.2413 -457.282 0.
-171.435 -672.986 0.
-268.163 -895.637 0.
-154.557 -1017.65 0.
-158.014 -1026.03 0.
-161.472 -1034.42 0.
-136.683 -1033.19 0.
-151.417 -1068.21 0.
-166.152 -1103.24 0.
63.1591 -1076.98 0.
5.13291 -1208.13 0.
-52.8931 -1339.29 0.
9.15268 -1283.91 0.
52.1521 -1184.19 0.
295.71 -998.47 0.
101.955 -1092.88 0.
97.5985 -1102.94 0.
633.818 -926.574 0.
507.621 -1218.36 0.
381.426 -1510.15 0.
545.673 -1548.88 0.
587.289 -1453.88 0.
628.905 -1358.88 0.
742.375 -1307.34 0.
722.78 -1349.34 0.
703.185 -1391.35 0.
1808.61 -1167.27 0.
1653.85 -1525.35 0.
1050.94 -2032.96 0.
1189.61 -1708.87 0.
1328.28 -1384.78 0.
1124.54 -1204.05 0.
1268.71 -863.96 0.
1412.89 -523.869 0.
1331.1 -577.105 0.
1191.39 -901.292 0.
1051.68 -1225.48 0.
2199.01 -671.08 0.
2288.08 -462.175 0.
6610.05 1560.6 0.
2618.39 -166.753 0.
2610.42 -186.82 0.
1355.59 -754.613 0.
1306.37 -863.817 0.
1257.15 -973.021 0.
1275.8 -1031.46 0.
1246.75 -1092.08 0.
1217.7 -1152.71 0.
1388.8 -1253.67 0.
1265.17 -1537.64 0.
1141.53 -1821.6 0.
969.277 -1776.91 0.
1044.76 -1594.14 0.
664.061 -1625.28 0.
672.853 -1607.13 0.
681.646 -1588.98 0.
714.296 -1553.49 0.
729.363 -1516.98 0.
744.432 -1480.46 0.
-179.903 -1802.14 0.
-123.652 -1672.81 0.
-67.4013 -1543.48 0.
157.468 -1361.83 0.
200.413 -1263.47 0.
653.818 -1001.39 0.
-420.601 -1483.59 0.
-431.467 -1509.69 0.
-10.018 -1344.65 0.
-22.3713 -1366.06 0.
-34.7245 -1387.47 0.
284.907 -1147.47 0.
400.03 -877.816 0.
515.153 -608.165 0.
248.463 -595.722 0.
292.331 -492.564 0.
336.2 -389.406 0.
-162.835 -451.737 0.
-76.408 -252.055 0.
189.33 -5.76283 0.
153.581 -88.2324 0.
117.831 -170.702 0.
-299.325 -404.294 0.
-313.241 -435.992 0.
-327.155 -467.689 0.
-51.9439 -150.916 0.
124.111 263.97 0.
300.166 678.854 0.
-110.839 444.192 0.
-187.313 264.39 0.
-150.784 602.561 0.
-69.1541 -73.7832 0.
-111.848 -178.626 0.
197.743 470.143 0.
37.2737 95.5782 0.
309.079 730.946 0.
110.174 -759.625 0.
235.269 -468.053 0.
348.243 -205.441 0.
-337.501 -988.195 0.
-30.4863 -268.802 0.
88.3261 11.9199 0.
98.3814 -69.5571 0.
283.323 364.741 0.
780.283 861.046 0.
159.585 -586.208 0.
363.286 -109.401 0.
374.712 472.318 0.
595.038 986.077 0.
516.219 801.73 0.
1163.47 1295.52 0.
929.217 744.293 0.
955.652 801.808 0.
757.207 182.419 0.
1211.78 1240.87 0.
1269.3 862.206 0.
543.569 -236.313 0.
839.647 454.027 0.
1528.65 779.11 0.
1520.88 765.216 0.
1172.19 -44.095 0.
1464.75 516.236 0.
947.542 -683.857 0.
914.07 -755.366 0.
1358.17 303.639 0.
1207.38 -51.0215 0.
1157.68 -170.612 0.
2808.44 1547.99 0.
2361.68 509.185 0.
1834.21 104.641 0.
2199.29 948.346 0.
2066.43 632.138 0.
1592.74 406.295 0.
1454.52 79.2246 0.
1651.59 537.117 0.
1536.66 831.14 0.
1163.74 -43.7989 0.
1465.1 656.276 0.
2848.91 669.106 0.
3272.09 1661.09 0.
-5518.81 -77.7838 0.
2902.89 1158.66 0.
2425.75 46.7582 0.
1470.35 -209.695 0.
1761.91 471.78 0.
1629.97 166.221 0.
1479.35 396.906 0.
1545.9 547.913 0.
691.39 -1448.14 0.
2292.12 1119.71 0.
1896.26 189.311 0.
1555.47 -613.585 0.
1863.89 325.858 0.
1957.36 537.838 0.
1821.68 1123.41 0.
1195.38 -341.941 0.
1264.83 -184.267 0.
1405.75 104.786 0.
1274.75 -202.254 0.
1249.94 -261.917 0.
846.485 624.3 0.
595.511 34.4456 0.
583.003 1.17677 0.
873.271 -99.4849 0.
861.118 -125.798 0.
864.273 555.899 0.
-123.485 -169.619 0.
78.2666 305.512 0.
831.179 209.705 0.
681.725 -136.769 0.
226.272 -1198.09 0.
920.625 -69.9273 0.
1102.27 351.021 0.
1052.58 232.474 0.
646.888 104.698 0.
679.355 182.464 0.
1003.27 940.119 0.
186.222 298.656 0.
-118.026 -409.619 0.
564.626 808.703 0.
454.469 558.01 0.
227.557 34.3003 0.
246.954 1143.22 0.
429.606 1575.27 0.
146.678 920.969 0.
500.49 285.509 0.
544.974 387.872 0.
1001.08 1451.6 0.
-683.371 573.78 0.
-502.837 995.989 0.
-536.432 -1030.49 0.
-384.34 -707.002 0.
-288.446 -485.141 0.
-53.7654 -259.376 0.
-128.622 -430.529 0.
-203.478 -601.681 0.
-66.0227 -625.499 0.
-66.7557 -627.698 0.
-67.4906 -629.897 0.
-82.7332 -652.892 0.
-95.9469 -679.962 0.
-109.162 -707.032 0.
-108.802 -777.686 0.
-149.479 -873.765 0.
-179.027 -942.78 0.
-138.115 -846.402 0.
-97.2018 -750.025 0.
129.172 -650.79 0.
54.6597 -826.952 0.
-19.8528 -1003.11 0.
122.114 -1033.87 0.
93.331 -1105.81 0.
64.5483 -1177.76 0.
129.465 -1114.43 0.
168.56 -1027.39 0.
476.779 -824.918 0.
295.016 -1135.11 0.
167.203 -1432.16 0.
325.649 -1561.95 0.
317.559 -1578.04 0.
309.468 -1594.13 0.
569.628 -1582.83 0.
449.906 -1857.73 0.
330.185 -2132.62 0.
458.076 -2139.06 0.
471.701 -2109.86 0.
485.326 -2080.67 0.
1455.46 -1499.78 0.
1557.66 -1259.65 0.
1179.06 -1248.37 0.
1170.68 -1274.57 0.
1162.3 -1300.77 0.
724.54 -1424.9 0.
852.546 -1130.38 0.
980.553 -835.86 0.
885.558 -702.746 0.
951.038 -557.699 0.
1016.52 -412.651 0.
1916.36 -159.917 0.
1810.23 -408.972 0.
-612.999 -1653.66 0.
2109.11 -312.583 0.
2200.9 -99.126 0.
1037.64 -507.539 0.
916.136 -792.41 0.
794.627 -1077.28 0.
969.511 -1149.28 0.
958.836 -1173.83 0.
948.161 -1198.37 0.
1197.57 -1266.85 0.
1062.44 -1586.28 0.
927.301 -1905.71 0.
1121.26 -1636.26 0.
1245.8 -1350.99 0.
754.012 -1353.01 0.
760.411 -1344.56 0.
766.811 -1336.1 0.
640.468 -1361.99 0.
681.146 -1269.76 0.
721.824 -1177.53 0.
225.553 -1317.08 0.
271.293 -1215.77 0.
317.033 -1114.46 0.
348.354 -975.674 0.
418.037 -808.912 0.
313.702 -724.16 0.
-262.777 -1255.75 0.
-415.209 -1605.97 0.
247.911 -1515.32 0.
292.174 -1411.26 0.
336.437 -1307.2 0.
94.6067 -1348.43 0.
115.653 -1298.59 0.
136.699 -1248.75 0.
-0.725684 -1090.09 0.
150.735 -733.991 0.
302.195 -377.896 0.
-239.263 -809.106 0.
-367.644 -1107.81 0.
-501.266 -1331.57 0.
-340.727 -952.095 0.
-180.191 -572.618 0.
-214.268 -386.986 0.
-218.019 -390.788 0.
-221.769 -394.592 0.
221.188 -265.723 0.
170.642 -383.883 0.
120.096 -502.043 0.
-948.536 -846.39 0.
-864.133 -648.865 0.
-134.081 -825.078 0.
-419.749 -687.714 0.
-325.093 -465.959 0.
36.0085 -192.724 0.
-40.1954 -363.255 0.
-116.398 -533.785 0.
-336.656 -710.876 0.
-337.282 -713.212 0.
-337.911 -715.548 0.
67.6723 -558.735 0.
54.45 -586.004 0.
41.2268 -613.273 0.
25.7818 -689.156 0.
-14.7319 -785.631 0.
-388.495 -1000.5 0.
-348.235 -903.956 0.
-307.974 -807.415 0.
434.798 -486.703 0.
360.598 -662.581 0.
286.398 -838.458 0.
85.0227 -1022.53 0.
55.1838 -1093.79 0.
25.3446 -1165.05 0.
61.019 -1110.05 0.
100.25 -1023.54 0.
-289.777 -1121.17 0.
477.904 -1026.61 0.
350.025 -1323.48 0.
99.1197 -1630.72 0.
91.034 -1646.77 0.
82.9475 -1662.81 0.
595.008 -1538.22 0.
476.186 -1813.7 0.
357.364 -2089.18 0.
655.797 -2020.28 0.
668.906 -1990.53 0.
682.015 -1960.78 0.
1415.74 -1485.58 0.
1518.03 -1245.25 0.
1103.53 -1250.17 0.
1094.79 -1275.78 0.
1086.06 -1301.4 0.
637.702 -1430.38 0.
765.516 -1136.17 0.
893.332 -841.96 0.
914.764 -658.436 0.
979.689 -512.95 0.
1044.62 -367.464 0.
1227.66 -424.757 0.
1121.48 -673.465 0.
-1186.74 -1868.91 0.
1923.8 -360.256 0.
2014.8 -145.822 0.
680.605 -630.251 0.
559.553 -915.539 0.
438.501 -1200.83 0.
1174.8 -1027.65 0.
1164.37 -1053.07 0.
1153.93 -1078.49 0.
1124.01 -1268.23 0.
988.792 -1587.2 0.
853.575 -1906.16 0.
1255.32 -1547.89 0.
1379.34 -1262.42 0.
768.224 -1314.48 0.
775.246 -1306.71 0.
782.268 -1298.95 0.
485.116 -1397.59 0.
526.251 -1305.47 0.
567.387 -1213.34 0.
500.611 -1168.94 0.
547.279 -1068.22 0.
593.948 -967.498 0.
181.272 -1014.13 0.
251.173 -846.7 0.
384.745 -661.136 0.
152.708 -1045.75 0.
0.776687 -1396.41 0.
456.172 -1394.43 0.
500.4 -1290.37 0.
544.627 -1186.31 0.
-231.915 -1457.84 0.
-211.381 -1407.8 0.
-190.847 -1357.77 0.
-150.79 -1121.99 0.
0.920786 -766.47 0.
152.63 -410.954 0.
-163.06 -745.478 0.
-290.833 -1044.71 0.
-667.156 -1372.65 0.
-506.378 -993.495 0.
-345.601 -614.341 0.
42.9437 -242.419 0.
39.5232 -246.475 0.
36.1031 -250.531 0.
182.937 -252.741 0.
132.365 -370.879 0.
81.7939 -489.017 0.
-511.347 -628.284 0.
-426.763 -430.647 0.
-79.4614 -622.997 0.
-295.534 -601.164 0.
-164.1 -293.252 0.
101.689 22.2085 0.
81.3139 -27.6996 0.
60.939 -77.608 0.
-202.436 -294.454 0.
-306.773 -532.772 0.
-411.111 -771.088 0.
113.335 -468.331 0.
243.312 -166.855 0.
373.288 134.622 0.
305 -68.1064 0.
171.982 -371.669 0.
-334.364 -809.749 0.
-304.578 -742.485 0.
-274.791 -675.221 0.
534.074 -356.018 0.
423.946 -610.964 0.
313.818 -865.91 0.
100.595 -1003.24 0.
158.577 -872.625 0.
216.559 -742.009 0.
133.223 -945.637 0.
-10.2025 -1278.44 0.
-50.8172 -1566.72 0.
431.774 -1336.59 0.
452.03 -1292.73 0.
118.127 -1372.68 0.
197.726 -1188.81 0.
277.326 -1004.93 0.
944.228 -717.455 0.
841.047 -960.712 0.
737.868 -1203.97 0.
1016.72 -1185.16 0.
996.907 -1237.07 0.
977.091 -1288.97 0.
1508.49 -1034.64 0.
1527.59 -992.202 0.
1017.02 -1185.65 0.
983.656 -1260.9 0.
950.29 -1336.15 0.
551.533 -1464.06 0.
685.231 -1149.46 0.
818.928 -834.861 0.
974.58 -568.437 0.
1059.52 -373.656 0.
1144.47 -178.876 0.
1044.17 -209.665 0.
1033.61 -238.588 0.
-322.436 -847.757 0.
1731.58 -141.586 0.
1641.93 -353.933 0.
425.052 -1011.09 0.
416.297 -1029.81 0.
407.542 -1048.54 0.
1365.86 -744.632 0.
1254.55 -1004.88 0.
1143.25 -1265.12 0.
993.196 -1339.19 0.
1036.95 -1231.67 0.
1080.71 -1124.15 0.
1515.2 -824.335 0.
1574.99 -674.21 0.
904.007 -854.39 0.
905.548 -841.672 0.
907.09 -828.955 0.
530.798 -1060.32 0.
418.33 -1318.41 0.
305.864 -1576.5 0.
399.717 -1550.11 0.
461.32 -1401.81 0.
522.923 -1253.5 0.
197.357 -1268.23 0.
257.562 -1128.58 0.
674.773 -845.574 0.
345.277 -936.786 0.
373.321 -874.303 0.
731.259 -691.262 0.
698.238 -768.37 0.
665.218 -845.477 0.
-198.004 -1075.64 0.
-2.21616 -619.918 0.
193.572 -164.199 0.
200.067 -222.649 0.
68.7178 -529.115 0.
-62.6307 -835.582 0.
-134.205 -756.415 0.
-57.9586 -576.724 0.
-315.14 -544.84 0.
-302.989 -518.24 0.
-290.838 -491.64 0.
37.905 -364.012 0.
13.8302 -422.783 0.
-10.2444 -481.553 0.
62.7638 -359.69 0.
156.14 -141.749 0.
249.515 76.1937 0.
-113.923 -38.7878 0.
-101.367 -19.766 0.
-515.836 -782.388 0.
-33.403 -457.797 0.
98.0385 -150.451 0.
12.2426 15.6914 0.
-8.72191 -33.9102 0.
-29.686 -83.5121 0.
-38.2468 -192.295 0.
-141.773 -431.556 0.
-245.299 -670.816 0.
19.2388 -478.463 0.
148.732 -176.881 0.
278.225 124.701 0.
231.637 -65.8641 0.
99.2839 -370.452 0.
-156.961 -703.152 0.
-127.911 -635.724 0.
-98.861 -568.295 0.
377.705 -391.507 0.
268.614 -647.318 0.
159.522 -903.128 0.
187.436 -932.719 0.
245.386 -802.164 0.
303.336 -671.61 0.
236.433 -871.3 0.
93.2925 -1204.64 0.
-25.664 -1527.59 0.
508.418 -1271.78 0.
528.257 -1226.9 0.
150.7 -1328.47 0.
229.77 -1143.68 0.
308.841 -958.9 0.
947.015 -687.286 0.
842.765 -929.543 0.
738.516 -1171.8 0.
868.795 -1216.49 0.
849.241 -1268.46 0.
829.687 -1320.44 0.
1340.99 -1077.21 0.
1359.92 -1033.98 0.
834.099 -1231.7 0.
800.078 -1306.46 0.
766.059 -1381.21 0.
490.664 -1462.62 0.
623.873 -1147.16 0.
757.082 -831.71 0.
1034.46 -508.295 0.
1119.9 -314.13 0.
1205.35 -119.966 0.
1084.9 -161.825 0.
1074.3 -191.019 0.
226.775 -580.821 0.
1267.83 -307.644 0.
1177.75 -519.395 0.
585.997 -910.358 0.
577.381 -929.321 0.
568.764 -948.284 0.
1350.56 -721.028 0.
1239.96 -981.822 0.
1129.37 -1242.62 0.
840.985 -1374.8 0.
886.168 -1268.58 0.
931.353 -1162.36 0.
1287.71 -889.452 0.
1347.97 -740.074 0.
733.547 -895.031 0.
736.202 -883.15 0.
738.857 -871.269 0.
455.005 -1061.92 0.
342.463 -1320.21 0.
229.921 -1578.51 0.
291.778 -1563.87 0.
353.203 -1415.05 0.
414.628 -1266.22 0.
695.209 -1027.69 0.
754.412 -887.214 0.
1014.93 -666.589 0.
342.135 -904.97 0.
370.11 -842.488 0.
518.164 -752.223 0.
485.696 -829.256 0.
453.229 -906.289 0.
-163.024 -1030.41 0.
33.9858 -575.092 0.
230.996 -119.776 0.
284.793 -153.964 0.
154.621 -461.034 0.
24.4489 -768.105 0.
-90.8968 -705.309 0.
-15.0239 -525.793 0.
-129.215 -435.324 0.
-117.024 -408.193 0.
-104.831 -381.062 0.
-45.817 -367.656 0.
-70.0157 -426.131 0.
-94.2142 -484.607 0.
-39.0252 -372.038 0.
54.1151 -154.328 0.
147.255 63.383 0.
-154.548 -27.0743 0.
-142.63 -8.74222 0.
-413.826 306.821 0.
716.862 858.238 0.
347.374 -7.77709 0.
104.899 430.878 0.
-211.449 -312.794 0.
94.8666 397.064 0.
155.576 -17.8187 0.
192.819 71.7384 0.
212.08 119.277 0.
473.068 779.069 0.
368.763 537.039 0.
564.93 996.386 0.
576.009 908.504 0.
446.026 609.382 0.
574.389 695.363 0.
158.182 -275.729 0.
384.155 252.15 0.
590.348 414.894 0.
634.871 524.772 0.
731.954 756.978 0.
568.667 -178.175 0.
675.837 80.4661 0.
969.274 773.68 0.
861.156 395.331 0.
911.86 516.606 0.
1049.93 54.2826 0.
971.946 -313.142 0.
1562.58 1067.36 0.
528.581 -492.317 0.
930.88 447.035 0.
820.577 191.054 0.
1150.48 -167.366 0.
1853.01 1464.63 0.
1686.93 1069.97 0.
1306.97 114.643 0.
1213.12 -102.921 0.
1305.68 113.568 0.
1743.57 209.165 0.
1400.6 -594.502 0.
909.052 -660.537 0.
1551.76 842.327 0.
1474.57 665.203 0.
1049.7 -9.46833 0.
1075.27 47.3202 0.
1488.98 1010.21 0.
1739.43 1052.45 0.
1113.57 -410.237 0.
1309.57 44.4772 0.
1477.4 699.058 0.
1575.11 928.96 0.
-1725.17 -642.889 0.
1335.53 753.88 0.
1126.11 264.273 0.
1484.63 924.406 0.
1599.46 1191.09 0.
1002.86 -201.551 0.
1164.9 -1097.22 0.
1225.07 -958.982 0.
1266.93 -862.931 0.
1103.89 -455.513 0.
1116.13 -425.865 0.
1872.24 1339.03 0.
1821.79 814.449 0.
1665.32 443.182 0.
818 -352.942 0.
882.57 -199.374 0.
961.79 -10.3583 0.
460.909 -875.978 0.
1169.97 782.162 0.
1185.35 821.86 0.
884.84 56.1304 0.
803.692 -128.718 0.
987.299 304.752 0.
1448.33 -180.715 0.
1320.71 -478.211 0.
1511.33 1373.52 0.
1056.57 801.814 0.
892.285 416.502 0.
826.477 396.812 0.
516.133 -328.974 0.
968.19 723.666 0.
284.167 -44.1608 0.
391.193 207.41 0.
715.865 966.66 0.
574.056 385.434 0.
509.184 235.443 0.
42.3794 -850.828 0.
384.499 333.934 0.
9.81076 -538.302 0.
190.402 5.07133 0.
684.716 1157.93 0.
528.11 791.815 0.
-195.333 -538.724 0.
251.787 503.823 0.
266.23 536.736 0.
-3.4461 -64.7098 0.
-151.613 -409.632 0.
321.911 694.923 0.
-6.86197 418.74 0.
-109.4 184.145 0.
-795.414 -717.835 0.
-87.637 -606.035 0.
-238.718 -961.828 0.
-525.384 -1276.95 0.
-384.957 -954.881 0.
-244.529 -632.807 0.
-151.613 -516.393 0.
-250.598 -745.444 0.
-349.584 -974.495 0.
-194.938 -955.173 0.
-179.438 -920.937 0.
-163.938 -886.7 0.
-202.153 -879.974 0.
-190.596 -849.581 0.
173.777 -688.217 0.
82.0195 -905.033 0.
-9.73872 -1121.85 0.
-111.628 -1256.51 0.
-62.8357 -1138.45 0.
-14.0433 -1020.4 0.
212.019 -993.836 0.
92.7335 -1267.19 0.
-26.5514 -1540.55 0.
122.484 -1380.81 0.
224.113 -1139.72 0.
147.774 -975.093 0.
513.258 -1126.87 0.
350.176 -1510.71 0.
81.6217 -1849.63 0.
150.685 -1690.33 0.
219.748 -1531.03 0.
347.074 -1370.39 0.
380.842 -1297.42 0.
414.611 -1224.45 0.
618.01 -1072.27 0.
660.648 -974.763 0.
703.284 -877.258 0.
1453.6 -582.437 0.
1433.69 -635.406 0.
610.032 -1032.92 0.
616.93 -1020.98 0.
623.827 -1009.04 0.
880.847 -894.845 0.
874.753 -912.546 0.
868.66 -930.246 0.
480.855 -1026.75 0.
557.961 -849.695 0.
635.067 -672.637 0.
1030.08 -302.995 0.
1146.01 -35.506 0.
1949.54 524.917 0.
1124.76 14.7366 0.
1042.63 -177.234 0.
941.319 -361.822 0.
893.513 -476.883 0.
845.706 -591.944 0.
996.759 -641.942 0.
926.131 -808.117 0.
855.502 -974.292 0.
859.29 -924.022 0.
931.275 -755.581 0.
1003.26 -587.142 0.
954.721 -794.202 0.
841.436 -1064.59 0.
553.186 -1382.61 0.
530.796 -1427.8 0.
508.405 -1472.98 0.
105.773 -1563.98 0.
253.919 -1214.11 0.
402.063 -864.247 0.
498.718 -871.272 0.
345.028 -1230.2 0.
191.337 -1589.14 0.
826.117 -1328.47 0.
856.889 -1257.24 0.
1074.23 -1101.25 0.
-9.40795 -1416.55 0.
69.6059 -1233.9 0.
220.562 -1040.86 0.
257.961 -958.877 0.
295.361 -876.899 0.
173.934 -982.803 0.
78.7353 -1206.17 0.
-16.4618 -1429.54 0.
-275.438 -1440.18 0.
-151.977 -1150.18 0.
-28.5164 -860.174 0.
118.456 -609.908 0.
212.538 -390.832 0.
-186.009 -400.727 0.
-143.309 -300.059 0.
-100.61 -199.39 0.
7.78832 -103.137 0.
4.62575 -111.35 0.
1.46348 -119.563 0.
-31.2592 -181.105 0.
-66.2088 -263.097 0.
-101.158 -345.089 0.
-26.6282 -130.549 0.
92.4171 151.233 0.
-711.419 -656.504 0.
-289.006 -664.226 0.
-440.241 -1019.5 0.
-382.29 -1182.11 0.
-241.805 -860.603 0.
-101.319 -539.088 0.
-251.682 -529.273 0.
-350.443 -758.344 0.
-449.203 -987.414 0.
-83.0138 -874.783 0.
-67.1184 -841.122 0.
-51.2228 -807.462 0.
-204.005 -850.27 0.
-192.321 -819.999 0.
432.181 -544.776 0.
339.274 -760.452 0.
246.368 -976.129 0.
-76.5583 -1211.9 0.
-27.6632 -1093.77 0.
21.2315 -975.635 0.
217.568 -963.602 0.
98.2811 -1237.11 0.
-21.0055 -1510.62 0.
169.037 -1328.26 0.
270.763 -1087.37 0.
1163.13 -507.938 0.
394.009 -1148.79 0.
232.289 -1533.39 0.
266.95 -1738.21 0.
336.581 -1579.45 0.
406.211 -1420.68 0.
8.50143 -1484.45 0.
42.3634 -1411.68 0.
76.2267 -1338.91 0.
413.399 -1128.03 0.
457.312 -1031.45 0.
501.225 -934.867 0.
1531.08 -516.808 0.
1511.25 -569.349 0.
463.902 -1061.1 0.
470.637 -1049.48 0.
477.372 -1037.86 0.
1156.46 -746.543 0.
1150.64 -764.485 0.
1144.81 -782.427 0.
44.162 -1182.62 0.
122.215 -1006.21 0.
200.268 -829.795 0.
1035.85 -268.392 0.
1152.66 -1.46115 0.
-1663.13 -991.329 0.
1265.91 106.28 0.
1183.72 -85.847 0.
968.497 -318.392 0.
920.888 -434.256 0.
873.279 -550.121 0.
570.686 -791.933 0.
499.675 -958.078 0.
428.664 -1124.22 0.
821.121 -910.559 0.
893.136 -742.392 0.
965.15 -574.224 0.
756.141 -847.508 0.
643.281 -1117.67 0.
784.894 -1252.77 0.
762.728 -1297.54 0.
740.56 -1342.3 0.
46.977 -1558.44 0.
195.052 -1208.58 0.
343.126 -858.721 0.
532.454 -823.26 0.
379.592 -1182.73 0.
226.729 -1542.19 0.
684.53 -1361.33 0.
715.503 -1290.19 0.
610.943 -1266.47 0.
-134.467 -1437.31 0.
-55.2941 -1255 0.
246.535 -999.097 0.
283.987 -917.422 0.
321.44 -835.747 0.
546.472 -790.095 0.
452.546 -1014.26 0.
358.622 -1238.42 0.
-343.292 -1438.98 0.
-218.784 -1149.83 0.
-94.276 -860.684 0.
304.329 -498.285 0.
398.508 -279.258 0.
-421.62 -470.053 0.
-379.127 -368.848 0.
-336.635 -267.642 0.
44.8814 -56.1628 0.
41.7012 -64.4471 0.
38.5212 -72.732 0.
10.634 -132.236 0.
-24.2539 -214.656 0.
-59.1417 -297.077 0.
255.169 22.0947 0.
374.086 302.613 0.
-558.072 -823.12 0.
-287.115 -462.499 0.
-86.9058 6.57571 0.
392.286 464.48 0.
227.958 85.6494 0.
63.6301 -293.178 0.
-414.228 -643.204 0.
-374.166 -549.063 0.
-334.104 -454.922 0.
210.042 -269.905 0.
146.896 -417.949 0.
83.7496 -565.993 0.
-56.0072 -646.826 0.
-58.3632 -655.801 0.
505.465 -439.36 0.
426.658 -623.896 0.
347.853 -808.432 0.
-3.19413 -1064.5 0.
-14.2949 -1093.15 0.
-25.3949 -1121.8 0.
209.915 -938.787 0.
303.609 -724.194 0.
397.304 -509.6 0.
507.128 -525.537 0.
437.084 -684.229 0.
1356.08 -418.813 0.
488.559 -921.334 0.
411.05 -1096.89 0.
490.339 -1165.03 0.
529.339 -1070.8 0.
568.34 -976.58 0.
97.8396 -1162.56 0.
72.8865 -1216.57 0.
47.9331 -1270.57 0.
315.104 -1114.68 0.
361.217 -1006 0.
407.33 -897.316 0.
1377.07 -705.982 0.
1234.7 -1031.34 0.
198.357 -1676.61 0.
344.682 -1337.84 0.
491.007 -999.059 0.
1152.44 -512.038 0.
1184.63 -438.055 0.
1216.81 -364.072 0.
208.154 -741.605 0.
243.534 -652.797 0.
278.913 -563.989 0.
926.218 -433.155 0.
815.381 -686.392 0.
925.802 -847.566 0.
943.237 -710.015 0.
1010.71 -551.501 0.
697.94 -581.391 0.
690.686 -598.21 0.
683.429 -615.029 0.
556.264 -632.625 0.
616.325 -497.399 0.
676.388 -362.172 0.
1027.46 -395.754 0.
859.994 -782.712 0.
692.528 -1169.67 0.
525.177 -1147.87 0.
599.042 -975.817 0.
974.581 -709.068 0.
933.287 -810.681 0.
891.992 -912.292 0.
200.876 -1254.28 0.
192.259 -1275.39 0.
183.642 -1296.49 0.
363.475 -1163.78 0.
419.154 -1028.63 0.
474.832 -893.487 0.
766.054 -732.294 0.
772.824 -721.355 0.
1077.56 -584.155 0.
62.972 -1065.83 0.
36.4944 -1124.39 0.
159.258 -1090.14 0.
185.278 -1023.22 0.
211.3 -956.297 0.
661.025 -681.501 0.
724.102 -532.609 0.
787.178 -383.718 0.
117.731 -554.959 0.
176.707 -418.983 0.
235.682 -283.006 0.
267.39 -348.927 0.
220.863 -458.445 0.
-551.427 -863.209 0.
-513.406 -777.743 0.
-475.384 -692.276 0.
-127.106 -442.011 0.
-55.3391 -277.207 0.
16.4278 -112.401 0.
-37.7308 -89.9916 0.
-45.1607 -107.376 0.
-52.5904 -124.761 0.
388.677 175.543 0.
473.875 366.343 0.
-105.093 -594.819 0.
-292.647 -437.275 0.
-92.7529 33.1424 0.
437.337 517.47 0.
273.518 138.365 0.
109.699 -240.737 0.
-557.025 -673.905 0.
-517.283 -579.836 0.
-477.541 -485.767 0.
202.266 -241.053 0.
139.268 -389.565 0.
76.269 -538.077 0.
140.608 -533.502 0.
137.981 -542.509 0.
368.979 -462.511 0.
290.375 -646.724 0.
211.77 -830.938 0.
21.0855 -1026.44 0.
9.09916 -1053.6 0.
-2.88647 -1080.76 0.
184.519 -920.099 0.
278.827 -705.374 0.
373.135 -490.647 0.
490.04 -500.424 0.
420.33 -659.74 0.
487.867 -760.495 0.
615.264 -836.159 0.
538.602 -1012.75 0.
284.264 -1220.11 0.
324.03 -1127.09 0.
363.797 -1034.07 0.
321.623 -1033.09 0.
297.288 -1088 0.
272.952 -1142.92 0.
289.053 -1095.45 0.
335.39 -987.403 0.
381.726 -879.358 0.
1147.42 -772.063 0.
1006.71 -1098.16 0.
370.006 -1568.71 0.
516.686 -1230.55 0.
663.367 -892.396 0.
659.603 -694.194 0.
692.904 -621.599 0.
726.203 -549.004 0.
593.264 -542.61 0.
630.02 -454.933 0.
666.775 -367.255 0.
823.718 -443.793 0.
714.763 -698.891 0.
-201.265 -1299.29 0.
928.641 -683.421 0.
994.966 -524.152 0.
299.746 -722.952 0.
291.353 -738.843 0.
282.959 -754.733 0.
809.509 -494.433 0.
869.505 -359.778 0.
929.502 -225.123 0.
1058.2 -348.859 0.
891.88 -736.661 0.
725.56 -1124.46 0.
500.916 -1126.52 0.
575.345 -954.923 0.
695.658 -798.178 0.
653.055 -898.919 0.
610.453 -999.658 0.
350.046 -1161.33 0.
340.582 -1181.65 0.
331.118 -1201.96 0.
288.129 -1163.12 0.
342.826 -1027.32 0.
397.523 -891.525 0.
502.489 -816.39 0.
508.076 -804.63 0.
915.118 -619.678 0.
292.903 -934.1 0.
266.959 -992.88 0.
50.6118 -1106.71 0.
77.1191 -1040.25 0.
103.627 -973.796 0.
480.751 -726.953 0.
544.375 -578.626 0.
607.999 -430.3 0.
401.063 -401.866 0.
460.43 -266.154 0.
519.795 -130.441 0.
-97.2003 -474.346 0.
-142.94 -583.954 0.
-196.734 -677.693 0.
-158.643 -591.724 0.
-120.552 -505.755 0.
-146.426 -419.559 0.
-74.6352 -254.946 0.
-2.84456 -90.3325 0.
-203.903 -128.515 0.
-211.209 -146.721 0.
-218.515 -164.926 0.
305.678 170.634 0.
390.128 360.678 0.
524.407 105.118 0.
464.228 1384.33 0.
185.17 729.448 0.
406.039 400.098 0.
-84.4859 -746.438 0.
571.835 782.767 0.
-124.393 615.911 0.
-668.822 -656.405 0.
-475.747 -206.903 0.
317.389 82.8345 0.
-48.7794 -771.278 0.
468.975 437.526 0.
644.178 307.636 0.
302.224 -489.809 0.
734.132 675.816 0.
915.889 1098.65 0.
176.498 -628.293 0.
226.879 -558.998 0.
454.868 -23.5781 0.
620.038 364.957 0.
654.294 251.696 0.
845.049 692.548 0.
1034.78 1131.37 0.
1025.05 805.315 0.
846.893 385.022 0.
159.888 -725.591 0.
1063.73 -3.87142 0.
1538.59 1107.84 0.
868.791 568.905 0.
848.782 525.97 0.
810.796 441.459 0.
1461.35 1231.81 0.
493.331 -1027.67 0.
968.115 78.9686 0.
1019.24 686.318 0.
941.257 506.411 0.
793.105 162.746 0.
1453.23 416.984 0.
1508.46 548.238 0.
1285.12 263.504 0.
1424.15 591.457 0.
1359.72 443.568 0.
582.305 63.5174 0.
461.534 -219.487 0.
485.73 -163.258 0.
869.421 -594.522 0.
831.02 -687.967 0.
981.991 -339.332 0.
658.685 -589.031 0.
1106.41 455.694 0.
1091.27 764.428 0.
1263.86 144.713 0.
982.656 -501.135 0.
-99.44 -872.239 0.
5.68008 -621.486 0.
409.431 326.887 0.
1054.96 -385.874 0.
1040.96 -420.315 0.
1437.53 503.66 0.
1244.41 66.3618 0.
1118.5 -224.333 0.
1436.33 519.939 0.
1052.36 225.917 0.
1427.02 1106.21 0.
1207.98 936.582 0.
713.975 -209.207 0.
902.371 236.827 0.
680.439 -641.374 0.
1081 293.15 0.
980.964 60.3374 0.
510.139 -445.658 0.
1159.42 1075.63 0.
958.257 610.839 0.
1197.63 1316.52 0.
563.074 -160.938 0.
851.142 411.16 0.
1382.34 1208.12 0.
910.813 110.714 0.
927.757 1177.82 0.
138.43 -665.168 0.
321.037 -240.129 0.
653.493 46.8415 0.
687.067 121.329 0.
582.036 -127.262 0.
840.323 132.567 0.
694.45 -205.659 0.
620.079 -376.813 0.
61.4531 588.011 0.
81.5249 634.988 0.
483.843 289.985 0.
789.744 1009.4 0.
376.097 49.0583 0.
-93.8279 -228.485 0.
45.0838 100.085 0.
168.257 391.346 0.
-149.319 327.385 0.
-341.657 -121.14 0.
-193.05 228.185 0.
92.006 -129.638 0.
72.9833 -171.156 0.
413.335 107.099 0.
18.9406 -61.203 0.
-65.8721 -261.366 0.
-17.2043 -397.194 0.
-56.6658 -488.998 0.
-96.1268 -580.804 0.
-289.631 -665.632 0.
-238.833 -550.35 0.
-188.034 -435.066 0.
-69.8236 -514.486 0.
-192.885 -802.157 0.
-315.947 -1089.83 0.
-50.5734 -946.686 0.
-21.0017 -873.758 0.
189.048 -720.027 0.
268.761 -534.414 0.
348.474 -348.801 0.
292.089 -306.224 0.
221.02 -474.947 0.
149.95 -643.67 0.
240.277 -700.003 0.
204.296 -781.453 0.
168.316 -862.901 0.
320.299 -853.525 0.
298.742 -907.249 0.
687.511 -784.061 0.
753.35 -453.642 0.
911.601 -81.3891 0.
741.124 7.54002 0.
545.499 -448.057 0.
349.874 -903.654 0.
307.39 -1135.03 0.
309.994 -1130.77 0.
312.598 -1126.51 0.
436.926 -986.686 0.
497.08 -841.374 0.
557.233 -696.063 0.
860.034 -486.739 0.
894.927 -397.669 0.
764.288 -408.952 0.
679.067 -605.538 0.
593.845 -802.125 0.
251.623 -1036.19 0.
285.328 -958.864 0.
319.033 -881.536 0.
725.353 -589.005 0.
818.412 -378.09 0.
911.472 -167.175 0.
972.352 17.6259 0.
1049.23 204.886 0.
-1642.7 -793.57 0.
1097.83 240.135 0.
1023.1 67.5784 0.
498.626 -284.554 0.
461.695 -368.786 0.
424.766 -453.017 0.
854.195 -400.628 0.
745.934 -650.249 0.
637.673 -899.869 0.
577.068 -1000.4 0.
568.153 -1019.21 0.
559.238 -1038.03 0.
634.875 -861.219 0.
725.316 -655.378 0.
587.302 -570.254 0.
562.23 -627.931 0.
537.159 -685.608 0.
759.347 -646.926 0.
727.197 -720.508 0.
695.048 -794.089 0.
183.023 -964.103 0.
246.023 -814.85 0.
309.022 -665.599 0.
341.818 -694.629 0.
298.141 -796.668 0.
1072.17 -551.073 0.
373.275 -835.959 0.
379.573 -818.559 0.
152.413 -896.839 0.
171.056 -849.918 0.
189.699 -802.998 0.
233.95 -745.521 0.
250.82 -707.007 0.
267.689 -668.492 0.
244.527 -722.059 0.
207.551 -811.55 0.
170.573 -901.042 0.
-367.09 -789.765 0.
-161.817 -313.138 0.
180.829 134 0.
36.0094 -201.8 0.
-108.811 -537.601 0.
-153.238 -654.729 0.
-39.3949 -388.357 0.
74.4476 -121.985 0.
-164.112 -37.5715 0.
-73.7752 174.729 0.
16.5614 387.028 0.
140.143 104.904 0.
-106.384 -467.023 0.
291.798 82.6126 0.
247.588 67.7204 0.
162.51 -131.994 0.
-98.6736 -400.591 0.
-138.696 -491.49 0.
-178.718 -582.39 0.
197.04 -425.406 0.
248.324 -310.786 0.
299.608 -196.163 0.
-214.41 -546.451 0.
-337.244 -834.24 0.
-460.078 -1122.03 0.
-230.662 -992.223 0.
-200.956 -919.408 0.
265.194 -658.849 0.
344.384 -472.489 0.
423.575 -286.13 0.
260.237 -287.66 0.
189.633 -457.026 0.
119.028 -626.392 0.
250.125 -663.838 0.
214.196 -745.424 0.
178.267 -827.009 0.
344.756 -810.445 0.
322.474 -863.744 0.
975.751 -626.432 0.
624.306 -477.358 0.
783 -105.365 0.
896.76 104.824 0.
700.657 -349.942 0.
504.555 -804.708 0.
153.718 -1168.82 0.
156.551 -1164.42 0.
159.384 -1160.01 0.
619.851 -876.879 0.
680.9 -732.151 0.
741.948 -587.424 0.
621.584 -556.751 0.
656.047 -466.935 0.
496.674 -491.888 0.
411.896 -688.917 0.
327.116 -885.947 0.
441.176 -925.56 0.
475.409 -848.973 0.
509.642 -772.385 0.
557.599 -627.318 0.
650.997 -416.905 0.
744.395 -206.491 0.
1053.05 84.0864 0.
1130.46 271.022 0.
-545.962 -292.385 0.
861.181 171.017 0.
785.469 -0.837874 0.
943.029 -64.3422 0.
905.925 -148.896 0.
868.823 -233.448 0.
630.672 -464.486 0.
521.982 -714.237 0.
413.292 -963.988 0.
336.337 -1073.58 0.
327.318 -1091.71 0.
318.3 -1109.84 0.
712.913 -795.805 0.
803.586 -590.195 0.
639.909 -513.049 0.
615.885 -571.965 0.
591.86 -630.882 0.
873.125 -566.088 0.
841.281 -639.965 0.
809.438 -713.841 0.
74.107 -980.401 0.
136.302 -830.605 0.
198.496 -680.809 0.
373.47 -647.604 0.
330.514 -750.18 0.
1510.25 -332.329 0.
228.623 -867.445 0.
235.536 -850.502 0.
304.183 -799.489 0.
322.877 -752.09 0.
341.571 -704.691 0.
151.707 -752.043 0.
168.758 -713.764 0.
185.809 -675.486 0.
-15.1893 -798.73 0.
-51.2984 -889.039 0.
-87.4087 -979.35 0.
-148.844 -663.076 0.
56.8998 -185.994 0.
-95.3336 46.4311 0.
-239.695 -289.419 0.
-384.058 -625.27 0.
19.3444 -547.301 0.
132.685 -280.768 0.
246.026 -14.2342 0.
24.9424 73.1103 0.
115.252 284.847 0.
205.561 496.582 0.
91.051 115.027 0.
-155.685 -457.104 0.
-64.7244 -18.5073 0.
134.058 -182.191 0.
56.0788 -361.539 0.
-190.453 -535.686 0.
-98.1921 -324.18 0.
-5.93127 -112.674 0.
609.736 230.878 0.
601.643 212.115 0.
593.547 193.352 0.
-118.169 -183.107 0.
-178.959 -325.071 0.
-239.75 -467.035 0.
-51.2673 -495.993 0.
-101.313 -613.784 0.
290.746 -516.491 0.
343.882 -389.524 0.
397.018 -262.558 0.
279.99 -254.14 0.
245.251 -327.364 0.
210.512 -400.588 0.
311.674 -440.037 0.
257.679 -564.18 0.
203.684 -688.322 0.
409.297 -563.245 0.
450.203 -466.782 0.
1040.3 -134.875 0.
628.406 -447.873 0.
555.382 -617.877 0.
525.462 -730.345 0.
577.899 -612.462 0.
630.336 -494.578 0.
316.377 -585.249 0.
297.277 -629.081 0.
278.178 -672.913 0.
614.453 -604.305 0.
568.687 -710.884 0.
522.92 -817.464 0.
570.562 -672.997 0.
649.628 -490.365 0.
501.241 -431.434 0.
429.756 -597.183 0.
358.271 -762.931 0.
427.244 -735.637 0.
573.812 -393.046 0.
720.379 -50.4548 0.
715.453 -44.0058 0.
604.112 -301.581 0.
492.772 -559.155 0.
941.678 -447.519 0.
923.839 -493.526 0.
-619.62 -1193.76 0.
498.441 -601.802 0.
561.697 -461.663 0.
907.542 -253.285 0.
850.137 -399.738 0.
792.733 -546.191 0.
359.708 -758.425 0.
406.967 -651.423 0.
454.227 -544.421 0.
504.704 -464.825 0.
524.537 -420.894 0.
544.37 -376.962 0.
707.013 -683.263 0.
480.728 -1203.92 0.
193.868 -1661.67 0.
367.975 -1253.83 0.
542.082 -845.984 0.
762.621 -551.038 0.
737.335 -613.87 0.
712.048 -676.701 0.
77.0511 -983.414 0.
63.2039 -1017.38 0.
49.356 -1051.34 0.
272.625 -1030.41 0.
229.588 -1131.73 0.
-70.8912 -1323.68 0.
173.909 -819.787 0.
383.789 -331.242 0.
597.462 35.3713 0.
554.834 -64.5874 0.
512.206 -164.546 0.
356.698 -269.829 0.
346.987 -288.125 0.
337.276 -306.422 0.
-23.5086 -512.314 0.
-54.4262 -577.956 0.
-85.3434 -643.597 0.
-47.5833 -630.505 0.
-47.5092 -634.112 0.
-455.674 -800.018 0.
-403.638 -681.562 0.
-351.603 -563.107 0.
159.106 -260.691 0.
191.347 -182.132 0.
223.588 -103.573 0.
-90.4353 -293.705 0.
-170.457 -482.069 0.
-250.478 -670.433 0.
-225.339 -624.507 0.
-179.674 -515.504 0.
-599.994 -218.844 0.
-83.7243 -244.672 0.
-161.229 -424.281 0.
-163.075 -492.214 0.
-70.4702 -280.94 0.
22.135 -69.6646 0.
505.967 221.471 0.
499.066 201.398 0.
492.163 181.325 0.
-104.908 -146.723 0.
-166.142 -288.548 0.
-227.376 -430.373 0.
76.1862 -409.907 0.
26.1325 -527.478 0.
172.223 -535.977 0.
224.469 -408.151 0.
276.714 -280.326 0.
330.12 -204.453 0.
294.761 -276.895 0.
259.402 -349.338 0.
253.579 -433.24 0.
199.361 -557.318 0.
145.143 -681.397 0.
332.428 -565.411 0.
373.786 -469.629 0.
526.195 -325.626 0.
778.339 -351.064 0.
705.416 -520.951 0.
376.251 -763.376 0.
429.734 -645.926 0.
483.216 -528.474 0.
292.985 -563.152 0.
274.488 -607.58 0.
255.99 -652.007 0.
169.72 -763.543 0.
124.338 -870.525 0.
78.9557 -977.508 0.
834.471 -527.197 0.
913.378 -344.163 0.
751.837 -294.506 0.
680.626 -459.822 0.
609.414 -625.139 0.
39.0126 -871.504 0.
184.931 -528.809 0.
330.849 -186.115 0.
681.197 -27.0525 0.
571.521 -286.72 0.
461.845 -546.388 0.
1181.54 -311.735 0.
1163.84 -357.904 0.
-1041.65 -1342.39 0.
682.834 -490.376 0.
745.688 -349.363 0.
634.645 -341.948 0.
576.156 -486.988 0.
517.666 -632.028 0.
267.076 -769.047 0.
314.275 -661.62 0.
361.475 -554.193 0.
546.793 -417.506 0.
565.511 -372.376 0.
584.229 -327.246 0.
546.2 -722.136 0.
320.429 -1243.19 0.
290.442 -1587.26 0.
464.188 -1179.01 0.
637.934 -770.76 0.
413.035 -670.289 0.
386.549 -731.968 0.
360.062 -793.647 0.
226.621 -888.551 0.
213.058 -922.597 0.
199.495 -956.643 0.
427.106 -931.623 0.
383.568 -1032.39 0.
12.0577 -1260.38 0.
162.35 -796.669 0.
372.118 -307.939 0.
334.728 -46.1485 0.
291.533 -145.148 0.
248.338 -244.146 0.
465.93 -194.013 0.
456.531 -212.072 0.
447.133 -230.131 0.
-65.9946 -495.907 0.
-96.6647 -561.997 0.
-127.334 -628.087 0.
-6.07454 -582.134 0.
-5.69429 -585.493 0.
-151.359 -639.632 0.
-99.8212 -520.547 0.
-48.2846 -401.463 0.
59.828 -269.048 0.
91.636 -190.154 0.
123.443 -111.26 0.
-136.036 -283.758 0.
-215.465 -472.621 0.
-294.893 -661.485 0.
-146.683 -559.86 0.
-100.606 -451.161 0.
-825.398 -57.1464 0.
-24.7312 353.869 0.
-719.202 -1263.54 0.
-627.455 -1611.67 0.
368.396 715.646 0.
339.066 650.749 0.
715.129 935.098 0.
324.47 26.6047 0.
262.56 -114.544 0.
196.771 571.084 0.
-5.12766 99.0413 0.
64.2349 259.415 0.
472.653 299.886 0.
45.586 -698.135 0.
265.735 -54.7321 0.
423.802 311.004 0.
396.447 244.674 0.
591.066 348.504 0.
675.791 547.063 0.
896.688 1062.74 0.
620.951 570.372 0.
509.254 302.211 0.
309.054 -171.006 0.
743.024 557.653 0.
738.225 548.121 0.
1354.2 378.527 0.
761.289 -625.434 0.
1246.91 505 0.
865.574 674.938 0.
224.228 -825.286 0.
387.758 -446.056 0.
715.187 491.129 0.
936.867 1010.77 0.
487.638 -33.3777 0.
176.47 114.966 0.
344.992 511.552 0.
-28.3861 -356.541 0.
1664.88 946.685 0.
1564.31 702.856 0.
1236.33 386.272 0.
841.819 -536.314 0.
1171.66 230.407 0.
366.841 660.961 0.
95.5137 30.8962 0.
-331.57 -962.558 0.
446.525 -487.283 0.
621.729 -76.2355 0.
582.362 -165.615 0.
1569.21 151.024 0.
1914.03 953.026 0.
-7363.23 -1670.45 0.
1676.98 1529.84 0.
1353.23 772.651 0.
356.716 -442.005 0.
412.798 -316.088 0.
690.886 327.871 0.
730.176 518.414 0.
182.062 -762.133 0.
317.778 -447.051 0.
1009.76 606.585 0.
657.454 -216.959 0.
70.9651 -1586.45 0.
779.404 153.569 0.
1277.48 1322.74 0.
1153.49 285.754 0.
940.016 -209.288 0.
1369.1 797.035 0.
263.702 -322.57 0.
216.879 -431.814 0.
645.08 567.224 0.
560.198 -363.386 0.
1352.69 1485.28 0.
1126.57 956.159 0.
1159.05 523.504 0.
1238.73 716.808 0.
-258.591 -898.742 0.
725.644 563.684 0.
587.498 246.075 0.
243.166 253.397 0.
-83.1055 -511.152 0.
-414.131 -1286.94 0.
497.699 -290.627 0.
735.744 271.693 0.
420.17 -457.302 0.
275.734 420.658 0.
140.44 97.3135 0.
-535.509 -1487.01 0.
159.767 -247.973 0.
620.693 833.125 0.
317.502 -67.7375 0.
866.071 1210.26 0.
551.662 474.633 0.
52.4328 -63.0097 0.
161.255 191.602 0.
31.9541 -110.59 0.
-191.052 -306.212 0.
108.491 398.84 0.
-120.291 -129.418 0.
767.308 1429.65 0.
241.065 197.042 0.
-757.826 -271.404 0.
-104.979 -119.08 0.
-210.472 -361.684 0.
8.57219 -453.473 0.
-16.9222 -511.41 0.
-42.4172 -569.346 0.
-63.262 -546.505 0.
-6.18757 -411.058 0.
50.8854 -275.611 0.
-168.439 -293.402 0.
-131.388 -208.119 0.
-94.336 -122.835 0.
470.003 75.6167 0.
438.194 0.307498 0.
184.757 -193.839 0.
33.026 -554.616 0.
-118.705 -915.397 0.
-9.72226 -1005.16 0.
92.2717 -771.164 0.
194.266 -537.168 0.
217.99 -464.465 0.
187.405 -542.265 0.
156.821 -620.065 0.
121.919 -703.509 0.
91.5908 -773.554 0.
407.182 -695.548 0.
634.473 -614.983 0.
629.073 -630.084 0.
297.077 -745.486 0.
358.669 -600.663 0.
420.261 -455.84 0.
307.507 -504.62 0.
236.069 -672.018 0.
164.631 -839.417 0.
-246.984 -1082.95 0.
-268.228 -1130.11 0.
-289.473 -1177.27 0.
774.843 -670.872 0.
811.824 -589.622 0.
655.585 -579.547 0.
755.644 -347.484 0.
855.703 -115.42 0.
69.7965 -417.535 0.
-83.4451 -775.521 0.
-236.687 -1133.51 0.
177.354 -1014.12 0.
244.18 -852.03 0.
311.006 -689.945 0.
1373.88 20.0125 0.
1526.76 378.539 0.
-2297 -968.995 0.
950.769 31.3774 0.
745.023 -447.707 0.
-97.8949 -1057.68 0.
26.723 -767.137 0.
151.342 -476.592 0.
394.788 -337.773 0.
286.644 -589.345 0.
178.501 -840.917 0.
426.854 -696.149 0.
516.011 -494.549 0.
605.169 -292.948 0.
782.19 -279.294 0.
732.289 -396.247 0.
612.977 -531.893 0.
619.52 -516.915 0.
626.063 -501.937 0.
167.024 -687.626 0.
169.52 -683.649 0.
172.016 -679.671 0.
318.473 -644.006 0.
293.267 -701.465 0.
268.06 -758.924 0.
508.032 -558.865 0.
572.465 -402.259 0.
771.814 -191.533 0.
36.8347 -669.863 0.
-50.2681 -868.988 0.
-68.4211 -962.708 0.
27.4193 -743.856 0.
123.26 -525.003 0.
381.998 -340.055 0.
356.671 -396.755 0.
331.344 -453.455 0.
-180.794 -624.554 0.
-131.603 -516.201 0.
-82.4118 -407.847 0.
390.953 -275.834 0.
346.469 -377.613 0.
-127.439 -640.06 0.
-81.1664 -532.066 0.
-34.8928 -424.071 0.
-51.3379 -348.02 0.
-7.21012 -246.342 0.
36.9172 -144.662 0.
-69.2394 -232.893 0.
-139.427 -393.439 0.
-209.614 -553.986 0.
112.081 -411.359 0.
132.891 -364.091 0.
112.109 127.367 0.
61.5646 -18.1542 0.
-43.8687 -260.757 0.
197.417 -340.73 0.
172.865 -399.556 0.
148.311 -458.381 0.
-222.512 -581.617 0.
-164.519 -446.72 0.
-106.528 -311.824 0.
-145.893 -251.064 0.
-108.886 -165.575 0.
-71.8799 -80.086 0.
601.638 164.477 0.
569.402 89.3219 0.
175.123 -168.411 0.
22.4861 -528.691 0.
-130.151 -888.973 0.
-15.1051 -977.034 0.
86.6809 -743.096 0.
188.467 -509.157 0.
282.618 -405.648 0.
251.675 -483.16 0.
220.732 -560.673 0.
44.0335 -705.898 0.
14.1023 -775.759 0.
-522.887 -1063.27 0.
482.883 -650.072 0.
477.672 -665.083 0.
363.538 -686.605 0.
425.418 -541.883 0.
487.299 -397.161 0.
340.282 -460.936 0.
268.748 -627.733 0.
197.214 -794.53 0.
-114.998 -994.728 0.
-135.372 -1043.25 0.
-155.748 -1091.76 0.
548.534 -735.451 0.
584.839 -654.028 0.
466.439 -628.632 0.
566.675 -396.965 0.
666.911 -165.296 0.
290.857 -292.422 0.
137.168 -650.869 0.
-16.5202 -1009.32 0.
137.044 -1000.39 0.
204.566 -839.704 0.
272.087 -679.02 0.
1213.28 -16.1363 0.
1366.85 341.818 0.
-4285.89 -1788.85 0.
869.047 28.4763 0.
663.866 -451.093 0.
-319.359 -1119.53 0.
-194.219 -829.739 0.
-69.0773 -539.944 0.
449.727 -282.164 0.
342.082 -534.941 0.
234.438 -787.718 0.
413.914 -667.652 0.
503.477 -466.573 0.
593.041 -265.493 0.
1031.7 -140.449 0.
982.055 -257.765 0.
396.613 -591.95 0.
403.402 -577.616 0.
410.193 -563.283 0.
259.726 -616.508 0.
261.939 -612.811 0.
264.152 -609.115 0.
186.381 -668.597 0.
161.222 -727.14 0.
136.064 -785.683 0.
292.729 -619.345 0.
356.877 -462.866 0.
577.228 -245.124 0.
-145.897 -717.076 0.
-233.03 -915.683 0.
200.245 -818.37 0.
296.109 -598.71 0.
391.973 -379.049 0.
286.794 -350.262 0.
261.15 -406.087 0.
235.505 -461.912 0.
-176.026 -592.557 0.
-127.09 -483.859 0.
-78.1556 -375.161 0.
707.984 -107.127 0.
664.81 -209.991 0.
-361.766 -707.374 0.
-315.118 -599.541 0.
-268.468 -491.707 0.
-10.3225 -299.706 0.
33.5235 -197.736 0.
77.3691 -95.7654 0.
60.169 -145.723 0.
-9.71601 -306.592 0.
-79.5999 -467.461 0.
291.895 -304.689 0.
312.229 -256.634 0.
-213.539 -323.491 0.
-32.3953 -309.42 0.
-48.387 -348.619 0.
207.569 -244.875 0.
253.476 -133.337 0.
299.384 -21.7985 0.
-95.7401 -162.935 0.
-123.076 -224.178 0.
-150.411 -285.421 0.
-94.58 -244.952 0.
-71.0341 -186.308 0.
-47.4891 -127.663 0.
438.409 -101.818 0.
331.342 -357.64 0.
-49.8391 -692.568 0.
26.181 -516.014 0.
102.201 -339.459 0.
328.836 -197.351 0.
249.523 -379.97 0.
170.211 -562.589 0.
204.687 -549.138 0.
272.772 -385.456 0.
340.856 -221.775 0.
87.7394 -404.178 0.
5.92612 -592.755 0.
80.8306 -712.549 0.
492.291 -327.109 0.
601.178 -64.8297 0.
766.949 110.849 0.
585.238 -310.918 0.
403.527 -732.685 0.
190.959 -868.459 0.
382.48 -420.017 0.
574.002 28.4246 0.
284.087 -136.866 0.
149.132 -451.282 0.
14.176 -765.698 0.
549.822 -561.593 0.
551.85 -553.168 0.
370.623 -626.135 0.
346.869 -678.193 0.
323.116 -730.252 0.
195.872 -750.936 0.
306.373 -496.588 0.
416.876 -242.24 0.
483.882 -150.156 0.
457.707 -210.821 0.
431.532 -271.486 0.
914.366 -319.194 0.
757.458 -687.614 0.
596.076 -1056.31 0.
396.918 -831.203 0.
558.285 -454.03 0.
-115.076 -531.214 0.
-184.061 -689.221 0.
-253.046 -847.229 0.
252.099 -703.481 0.
253.942 -699.25 0.
255.785 -695.018 0.
403.199 -752.915 0.
306.05 -977.361 0.
208.901 -1201.81 0.
831.39 -724.204 0.
970.451 -397.979 0.
348.359 -417.844 0.
376.633 -354.764 0.
404.908 -291.685 0.
347.904 -318.107 0.
315.249 -395.708 0.
282.593 -473.309 0.
111.057 -504.262 0.
165.647 -379.033 0.
220.239 -253.804 0.
421.052 -235.877 0.
370.655 -357.174 0.
11.6927 -608.076 0.
-168.552 -650.375 0.
-147.145 -605.894 0.
542.647 -280.35 0.
542.334 -281.632 0.
542.02 -282.914 0.
168.107 -399.991 0.
220.732 -280.938 0.
273.359 -161.885 0.
-37.621 -250.794 0.
-28.6216 -227.13 0.
-19.6221 -203.466 0.
797.018 7.52205 0.
716.005 -180.409 0.
-480.58 -802.736 0.
-382.566 -581.29 0.
-284.55 -359.843 0.
67.1602 -162.614 0.
-18.8432 -374.242 0.
-104.848 -585.871 0.
-101.332 -619.104 0.
-68.0024 -544.094 0.
-34.6711 -469.084 0.
242.804 -302.104 0.
266.029 -249.367 0.
584.255 47.4443 0.
-93.5528 -304.57 0.
-109.479 -343.308 0.
-28.373 -314.66 0.
17.9662 -203.306 0.
64.3061 -91.9524 0.
-49.0566 -110.449 0.
-76.1788 -172.018 0.
-103.301 -233.586 0.
26.7981 -161.977 0.
51.3905 -104.561 0.
75.982 -47.1441 0.
247.991 -150.234 0.
141.151 -406.525 0.
-9.82228 -644.556 0.
66.2405 -467.812 0.
142.303 -291.069 0.
382.115 -143.151 0.
302.823 -325.905 0.
223.532 -508.66 0.
126.389 -551.806 0.
194.945 -388.272 0.
263.499 -224.739 0.
-18.2568 -416.683 0.
-100.084 -604.759 0.
571.889 -467.762 0.
353.918 -356.265 0.
463.835 -94.8844 0.
861.7 183.28 0.
680.311 -238.504 0.
498.922 -660.287 0.
253.111 -812.195 0.
444.157 -363.512 0.
635.203 85.1703 0.
256.558 -118.36 0.
121.007 -432.542 0.
-14.5437 -746.723 0.
633.395 -493.803 0.
635.546 -485.654 0.
339.928 -607.497 0.
316.148 -659.906 0.
292.367 -712.316 0.
250.162 -697.176 0.
360.617 -443.64 0.
471.073 -190.104 0.
518.402 -101.713 0.
491.89 -162.461 0.
465.378 -223.209 0.
709.994 -375.79 0.
552.599 -743.791 0.
-668.513 -1566.09 0.
220.247 -875.534 0.
380.998 -498.3 0.
38.9337 -437.026 0.
-30.3346 -595.24 0.
-99.6025 -753.454 0.
174.578 -702.35 0.
177.247 -699.572 0.
179.917 -696.794 0.
508.416 -674.278 0.
412.309 -899.41 0.
316.202 -1124.54 0.
745.782 -728.925 0.
885.352 -403.23 0.
290.059 -409.814 0.
318.814 -347.221 0.
347.57 -284.629 0.
192.705 -353.185 0.
159.66 -430.517 0.
126.614 -507.849 0.
-82.3637 -555.931 0.
-27.9785 -431.34 0.
26.4074 -306.749 0.
581.923 -137.125 0.
530.796 -258.358 0.
579.942 -331.293 0.
-73.0066 -575.945 0.
-51.7449 -531.524 0.
582.856 -233.681 0.
582.565 -235.087 0.
582.275 -236.493 0.
67.821 -409.798 0.
120.42 -290.455 0.
173.02 -171.111 0.
-32.8197 -217.306 0.
-23.3684 -193.798 0.
-13.917 -170.29 0.
634.071 -28.3517 0.
553.142 -216.334 0.
-404.64 -738.794 0.
-306.773 -517.052 0.
-208.905 -295.309 0.
113.315 -114.581 0.
26.6337 -325.124 0.
-60.0495 -535.667 0.
-96.1395 -585.097 0.
-62.2476 -510.325 0.
-28.3544 -435.552 0.
-4.46359 -377.331 0.
18.7063 -324.569 0.
178.64 203.148 0.
-432.228 -939.949 0.
286.528 731.304 0.
134.262 540.205 0.
-113.252 -35.3898 0.
56.0625 361.94 0.
-439.83 -1079.84 0.
105.65 195.345 0.
-313.42 -779.294 0.
338.652 375.098 0.
317.716 326.494 0.
428.873 586.299 0.
590.841 1036.91 0.
486.688 797.4 0.
260.13 -70.4487 0.
679.41 906.206 0.
277.539 -32.9324 0.
389.041 -193.202 0.
546.259 172.092 0.
442.337 -73.1738 0.
501.168 517.318 0.
459.749 416.648 0.
494.936 494.252 0.
-226.406 -664.596 0.
247.778 440.842 0.
-173.331 -123.102 0.
628.508 573.893 0.
880.431 1163.78 0.
1180.16 784.46 0.
600.593 -570.508 0.
597.079 -581.6 0.
765.264 292.415 0.
622.051 -40.3826 0.
27.757 -1425.12 0.
419.934 332.236 0.
395.872 274.141 0.
-129.312 -952.186 0.
880.461 -40.2691 0.
792.678 -244.226 0.
666.246 255.474 0.
631.954 175.371 0.
559.682 6.72251 0.
786.307 482.849 0.
563.989 -40.8319 0.
138.455 -1038.46 0.
378.418 -460.832 0.
731.093 360.414 0.
189.261 -905.404 0.
757.895 166.903 0.
1000.09 729.136 0.
-1122.53 -437.505 0.
518.717 196.657 0.
172.04 -614.64 0.
-50.7699 -916.953 0.
450.413 251.384 0.
601.498 603.424 0.
685.742 679.603 0.
450.696 126.141 0.
212.236 -435.128 0.
540.635 -760.871 0.
811.487 -127.96 0.
1114.53 578.626 0.
935.764 -100.938 0.
933.764 -105.514 0.
96.3697 -716.425 0.
205.241 -469.524 0.
561.309 356.568 0.
629.171 987.823 0.
-29.645 -546.512 0.
-329.4 -1242.74 0.
-366.614 -834.131 0.
2.6654 25.9345 0.
13.3835 50.2287 0.
814.611 137.094 0.
903.301 349.4 0.
173.502 350.444 0.
661.803 986.917 0.
85.7959 -356.97 0.
766.278 165.655 0.
710.533 30.4215 0.
784.278 198.311 0.
283.744 318.76 0.
268.291 278.695 0.
-209.507 -840.275 0.
231.211 421.887 0.
397.525 805.688 0.
-65.4384 -279.876 0.
469.166 -81.4192 0.
448.64 -124.768 0.
-99.8548 -149.186 0.
202.562 560.445 0.
361.724 935.698 0.
96.0704 -220.327 0.
33.8537 -364.075 0.
294.536 245.562 0.
546.055 930.376 0.
235.229 210.758 0.
383.229 560.69 0.
17.9207 149.887 0.
295.065 793.575 0.
-339.518 -838.511 0.
-357.464 -681.042 0.
-264.757 -467.189 0.
-69.1733 -238.091 0.
-46.3449 -184.869 0.
-23.5166 -131.647 0.
-64.0977 -129.719 0.
-73.5579 -151.015 0.
-83.0181 -172.311 0.
99.1365 -152.739 0.
55.8986 -251.243 0.
12.6605 -349.746 0.
-189.916 -321.033 0.
-119.356 -151.571 0.
443.614 192.972 0.
364.459 7.22125 0.
285.304 -178.529 0.
301.84 -273.362 0.
296.487 -284.255 0.
291.134 -295.148 0.
62.5958 -349.066 0.
105.166 -250.426 0.
147.737 -151.787 0.
93.225 -152.268 0.
102.284 -132.101 0.
-150.295 -223.813 0.
546.146 -18.2529 0.
488.594 -152.735 0.
435.209 -273.676 0.
427.869 -293.495 0.
420.528 -313.314 0.
428.795 -378.227 0.
354.567 -553.685 0.
280.339 -729.142 0.
205.139 -650.859 0.
331.008 -357.145 0.
456.879 -63.4314 0.
799.357 64.1528 0.
771.609 -3.12107 0.
310.875 -234.254 0.
382.537 -64.6109 0.
454.2 105.032 0.
699.488 213.634 0.
548.534 -137.757 0.
397.579 -489.147 0.
145.825 -638.225 0.
233.8 -436.355 0.
321.776 -234.484 0.
679.03 62.4163 0.
749.111 223.853 0.
-2040.26 -843.142 0.
424.255 -106.228 0.
258.886 -495.593 0.
124.265 -748.467 0.
242.541 -473.025 0.
360.817 -197.582 0.
250.293 -213.192 0.
143.959 -457.41 0.
37.6255 -701.627 0.
422.343 -492.656 0.
503.852 -295.625 0.
585.364 -98.5947 0.
613.24 -135.119 0.
573.962 -227.684 0.
408.192 -394.427 0.
308.384 -630.648 0.
208.576 -866.87 0.
-177.952 -1079.23 0.
-67.6078 -822.83 0.
42.7366 -566.43 0.
-82.8527 -503.091 0.
-40.1244 -408.643 0.
2.60474 -314.195 0.
431.948 -85.4388 0.
448.704 -49.3044 0.
658.588 67.6222 0.
54.2267 -353.594 0.
-31.8386 -554.76 0.
370.982 -502.068 0.
393.494 -450.919 0.
416.006 -399.769 0.
-167.964 -570.734 0.
-99.6381 -409.639 0.
-31.3127 -248.542 0.
131.429 -240.793 0.
47.632 -437.893 0.
-36.1645 -634.993 0.
444.44 -241.38 0.
562.755 37.5599 0.
-12.8194 -15.4467 0.
-40.505 -80.2985 0.
-68.189 -145.151 0.
113.646 -160.118 0.
27.2714 -364.448 0.
-59.1025 -568.78 0.
-121.096 -633.021 0.
-84.169 -542.557 0.
-47.2415 -452.092 0.
-140.965 -422.229 0.
-106.148 -340.676 0.
593.284 -407.083 0.
-388.617 -662.78 0.
-296.213 -448.772 0.
108.927 -130.745 0.
131.444 -77.3161 0.
153.961 -23.8877 0.
-83.8402 -106.421 0.
-93.0168 -128.033 0.
-102.194 -149.645 0.
98.6184 -121.821 0.
55.8205 -221.325 0.
13.0222 -320.828 0.
-419.609 -386.237 0.
-348.239 -217.838 0.
547.303 271.286 0.
468.681 84.85 0.
390.057 -101.586 0.
254.392 -261.963 0.
249.087 -272.605 0.
243.782 -283.248 0.
-6.20181 -348.31 0.
37.108 -250.359 0.
80.4178 -152.407 0.
232.441 -61.0759 0.
242.752 -41.4901 0.
-532.662 -357.87 0.
767.942 108.689 0.
711.174 -26.3626 0.
96.6201 -386.475 0.
89.8639 -406.421 0.
83.1066 -426.366 0.
382.178 -367.581 0.
307.734 -542.955 0.
233.291 -718.33 0.
474.119 -505.938 0.
600.061 -212.503 0.
726.004 80.9327 0.
660.319 38.5203 0.
632.625 -29.658 0.
149.442 -270.987 0.
220.357 -101.781 0.
291.272 67.4246 0.
749.961 266.264 0.
598.472 -85.5282 0.
446.982 -437.321 0.
-25.9629 -680.574 0.
61.1236 -477.971 0.
148.211 -275.369 0.
655.887 83.5355 0.
725.634 244.777 0.
-1672.54 -654.42 0.
483.611 -50.0258 0.
318.177 -439.73 0.
263.403 -653.932 0.
382.178 -379.316 0.
500.953 -104.7 0.
202.787 -203.171 0.
96.9216 -448.199 0.
-8.94347 -693.227 0.
145.918 -577.784 0.
228.401 -381.447 0.
310.886 -185.11 0.
254.391 -257.059 0.
215.546 -350.005 0.
638.44 -261.701 0.
539.321 -499.347 0.
440.201 -736.995 0.
-64.2031 -997.542 0.
46.5672 -742.04 0.
157.338 -486.537 0.
110.724 -387.158 0.
153.672 -293.095 0.
196.62 -199.033 0.
93.2288 -201.344 0.
109.483 -165.092 0.
197.487 -97.4284 0.
33.9071 -329.456 0.
-52.1526 -530.86 0.
252.884 -520.351 0.
275.885 -469.995 0.
298.887 -419.64 0.
-240.403 -568.169 0.
-172.336 -406.95 0.
-104.27 -245.73 0.
372.646 -106.344 0.
288.731 -303.143 0.
204.817 -499.943 0.
515.474 -180.229 0.
634.72 98.4408 0.
37.1032 39.3378 0.
10.9487 -26.6043 0.
-15.2044 -92.547 0.
123.347 -121.878 0.
37.5013 -326.261 0.
-48.344 -530.646 0.
-100.319 -591.889 0.
-63.0704 -501.542 0.
-25.8217 -411.195 0.
-20.0384 -340.615 0.
14.0536 -258.837 0.
-603.927 -950.399 0.
-226.551 -578.668 0.
-123.892 -340.18 0.
270.226 -46.5667 0.
190.684 -235.045 0.
111.141 -423.523 0.
-361.676 -702.289 0.
-350.954 -672.342 0.
-340.234 -642.395 0.
-93.6734 -440.972 0.
-19.6713 -271.07 0.
54.3315 -101.168 0.
-396.121 -347.82 0.
-445.7 -458.961 0.
316.375 -218.591 0.
275.153 -312.101 0.
233.931 -405.61 0.
10.517 -541.404 0.
36.7434 -479.284 0.
62.9685 -417.163 0.
31.7085 -413.857 0.
30.7163 -416.457 0.
29.7243 -419.058 0.
101.645 -312.134 0.
148.759 -197.175 0.
258.345 -55.4283 0.
699.898 -41.2225 0.
603.339 -258.473 0.
-114.025 -645.811 0.
9.56824 -354.018 0.
133.162 -62.2277 0.
617.191 224.976 0.
554.881 85.4747 0.
492.571 -54.0261 0.
671.078 43.2153 0.
714.33 148.358 0.
757.582 253.5 0.
726.389 297.792 0.
754.394 364.09 0.
308.403 185.17 0.
121.974 -254.952 0.
-64.4552 -695.076 0.
307.772 -675.872 0.
467.584 -305.223 0.
627.396 65.4264 0.
175.021 -58.5695 0.
112.686 -204.647 0.
50.3511 -350.725 0.
401.897 -299.651 0.
353.126 -410.701 0.
-1007.63 -1085.02 0.
465.704 -230.369 0.
580.18 39.2352 0.
576.068 165.684 0.
473.108 -72.449 0.
370.149 -310.582 0.
66.8033 -439.044 0.
192.827 -145.633 0.
318.851 147.778 0.
405.114 61.4997 0.
251.202 -299.409 0.
97.2891 -660.318 0.
-76.8847 -741.704 0.
-67.1987 -714.283 0.
518.977 -427.677 0.
578.597 -278.15 0.
638.216 -128.624 0.
320.725 -231.856 0.
252.129 -390.387 0.
183.534 -548.917 0.
177.615 -576.946 0.
204.543 -511.077 0.
231.471 -445.207 0.
-149.024 -487.767 0.
-71.6413 -308.504 0.
597.282 125.805 0.
24.7427 -194.189 0.
-13.0572 -282.085 0.
299.778 -224.833 0.
237.764 -365.202 0.
175.75 -505.57 0.
-254.086 -755.853 0.
-247.023 -741.004 0.
-239.96 -726.155 0.
163.775 -501.744 0.
202.598 -409.397 0.
241.419 -317.05 0.
441.264 -307.951 0.
391.768 -424.938 0.
-351.457 -795.401 0.
-219.47 -485.323 0.
-87.4827 -175.245 0.
268.485 147.722 0.
280.968 176.73 0.
293.451 205.739 0.
243.736 140.495 0.
190.786 18.9982 0.
137.837 -102.499 0.
78.1136 -189.066 0.
48.1775 -255.802 0.
1158.84 -162.197 0.
130.398 -394.828 0.
232.38 -155.605 0.
420.253 46.5142 0.
340.691 -142.074 0.
261.128 -330.663 0.
-359.341 -667.484 0.
-348.273 -637.897 0.
-337.207 -608.31 0.
-202.245 -458.872 0.
-128.958 -288.146 0.
-55.6698 -117.421 0.
-133.559 -202.188 0.
-182.735 -313.353 0.
200.549 -238.488 0.
159.679 -332.255 0.
118.809 -426.021 0.
-213.893 -604.228 0.
-186.944 -542.432 0.
-159.996 -480.636 0.
276.487 -277.35 0.
276.126 -280.147 0.
275.764 -282.945 0.
-61.6815 -351.821 0.
-15.3164 -235.912 0.
459.355 64.381 0.
511.966 -89.748 0.
415.591 -307.033 0.
-1.66821 -568.852 0.
121.545 -276.397 0.
244.758 16.0559 0.
639.731 266.866 0.
577.497 126.827 0.
515.264 -13.2121 0.
351.446 -61.2219 0.
394.755 43.6447 0.
438.062 148.511 0.
790.849 358.988 0.
818.605 425.125 0.
426.046 267.885 0.
238.984 -172.31 0.
51.9235 -612.506 0.
207.763 -685.779 0.
366.652 -314.869 0.
525.542 56.0398 0.
221.012 -8.69578 0.
158.289 -154.504 0.
95.5649 -300.313 0.
199.905 -355.124 0.
151.098 -466.384 0.
-351.27 -771.559 0.
603.49 -139.351 0.
718.352 130.176 0.
378.917 116.082 0.
276.845 -123.079 0.
174.774 -362.241 0.
59.0931 -410.904 0.
184.539 -117.553 0.
309.984 175.798 0.
680.566 211.901 0.
526.389 -148.488 0.
372.211 -508.876 0.
21.4291 -671.231 0.
31.7417 -644.056 0.
180.543 -539.679 0.
240.056 -390.571 0.
299.568 -241.465 0.
378.899 -175.004 0.
310.105 -333.687 0.
241.312 -492.369 0.
373.025 -462.391 0.
400.922 -396.964 0.
428.819 -331.537 0.
-61.7512 -418.271 0.
16.1956 -239.395 0.
1158.77 396.525 0.
-96.3274 -214.577 0.
-134.776 -301.129 0.
245.91 -218.733 0.
184.425 -359.412 0.
122.939 -500.091 0.
-3.93527 -616.712 0.
4.28822 -602.79 0.
12.512 -588.869 0.
-121.685 -590.915 0.
-82.9672 -498.486 0.
-44.2503 -406.056 0.
356.57 -312.025 0.
306.975 -429.307 0.
-435.639 -801.939 0.
-303.762 -491.652 0.
-171.886 -181.365 0.
350.393 212.914 0.
362.552 242.5 0.
374.712 272.086 0.
325.032 207.626 0.
271.982 86.131 0.
218.931 -35.3638 0.
68.8573 -164.617 0.
39.9884 -232.859 0.
1072.85 1473.7 0.
544.668 -40.3159 0.
573.922 26.9349 0.
276.52 -538.536 0.
545.109 95.9328 0.
838.024 784.572 0.
-87.8574 -27.9808 0.
74.2834 356.336 0.
236.373 740.353 0.
349.843 1063.43 0.
-15.2096 211.543 0.
-562.506 -1064.41 0.
53.5119 -227.574 0.
391.057 559.306 0.
-194.649 -923.278 0.
193.377 -13.1358 0.
233.271 85.343 0.
-298.297 -358.997 0.
-118.264 56.4003 0.
-206.489 -153.567 0.
483.589 -222.853 0.
533.192 -106.276 0.
253.693 -759.186 0.
-276.069 -516.378 0.
220.311 645.573 0.
270.687 769.45 0.
526.799 321.928 0.
86.2366 -709.158 0.
-288.617 -1424.3 0.
221.721 -229.736 0.
281.601 -85.6194 0.
441.525 -202.699 0.
516.545 -23.5188 0.
810.875 665.859 0.
360.979 593.584 0.
-267.227 -870.5 0.
-383.289 -1139.82 0.
856.493 429.807 0.
963.32 679.557 0.
195.289 -462.18 0.
-26.9343 -976.902 0.
85.6842 -710.278 0.
230.274 -406.683 0.
390.142 -33.5324 0.
468.948 150.476 0.
307.222 137.886 0.
117.446 -304.701 0.
47.4586 -467.62 0.
-88.6894 -612.267 0.
396.849 518.941 0.
-211.785 289.987 0.
1034.79 653.167 0.
1089.38 780.631 0.
437.301 655.295 0.
3.46123 -355.559 0.
101.807 -124.569 0.
461.12 562.363 0.
201.804 -40.4938 0.
-165.96 -896.465 0.
558.554 -555.301 0.
954.627 367.813 0.
1271.24 1105.07 0.
734.357 830.192 0.
462.195 198.196 0.
-158.404 -656.787 0.
-221.058 -802.545 0.
143.665 48.9979 0.
414.439 -166.677 0.
324.345 -385.065 0.
219.63 -636.529 0.
1225.11 1193.97 0.
950.821 550.414 0.
1145.37 1001.26 0.
-273.587 -1062.23 0.
26.4558 -355.713 0.
-123.187 -598.989 0.
-33.6713 180.627 0.
207.779 741.473 0.
101.972 -416.503 0.
-296.163 -1345.27 0.
237.337 -100.378 0.
744.307 695.048 0.
516.148 165.457 0.
503.906 138.514 0.
-118.114 -26.7927 0.
-155.302 -114.602 0.
-192.681 -203.861 0.
554.389 338.762 0.
541.536 312.611 0.
-208.742 -87.0424 0.
-576.207 -940.656 0.
-141.224 75.9068 0.
340.173 68.3656 0.
404.264 222.738 0.
-278.998 -1366.9 0.
240.416 -108.957 0.
402.398 267.491 0.
649.82 841.116 0.
101.388 -56.6688 0.
-73.2249 -469.723 0.
506.933 380.313 0.
345.811 108.302 0.
239.503 -139.961 0.
115.596 -308.657 0.
206.787 -92.7204 0.
297.977 123.216 0.
-39.1079 31.558 0.
-92.391 -93.6352 0.
-145.676 -218.827 0.
-316.365 -395.097 0.
-372.974 -529.149 0.
-429.583 -663.2 0.
246.855 -246.386 0.
334.458 -43.8823 0.
103.132 14.0823 0.
119.087 52.692 0.
135.043 91.3017 0.
-6.85749 26.9158 0.
-42.7621 -58.1571 0.
-78.6663 -143.23 0.
462.035 66.5614 0.
466.572 84.1386 0.
471.109 101.715 0.
-3.11969 -92.2695 0.
6.04443 -76.9368 0.
493.481 143.14 0.
347.61 2.86131 0.
309.337 -92.7727 0.
295.486 -173.697 0.
258.403 -262.06 0.
221.322 -350.423 0.
245.782 -281.174 0.
372.195 11.3802 0.
498.607 303.934 0.
48.5645 132.848 0.
-1.82365 12.0433 0.
-52.2119 -108.762 0.
701.546 27.7776 0.
602.681 -203.535 0.
238.452 -508.591 0.
331.751 -289.391 0.
425.051 -70.1918 0.
319.962 -12.0594 0.
296.561 -67.2032 0.
273.161 -122.347 0.
177.404 -163.41 0.
192.301 -131.904 0.
207.198 -100.398 0.
300.463 -74.9685 0.
286.113 -109.898 0.
-76.0859 -294.092 0.
559.039 107.243 0.
625.01 263.943 0.
159.21 124.361 0.
51.5229 -119.128 0.
-56.1639 -362.615 0.
-47.2563 -455.167 0.
-27.7435 -414.193 0.
-8.23036 -373.219 0.
562.281 -165.688 0.
524.123 -254.372 0.
485.965 -343.055 0.
247.605 -284.869 0.
345.052 -56.9961 0.
205.328 37.3212 0.
146.576 -101.761 0.
87.8241 -240.842 0.
359.673 -203.591 0.
353.948 -222.269 0.
348.222 -240.947 0.
439.481 -275.622 0.
377.101 -417.031 0.
314.72 -558.441 0.
24.746 -669.562 0.
47.9748 -613.635 0.
95.4207 -545.265 0.
-284.171 -562.536 0.
-202.018 -379.445 0.
13.2146 -181.189 0.
-11.9534 -244.038 0.
-37.122 -306.889 0.
328.208 -189.285 0.
320.251 -208.391 0.
312.294 -227.498 0.
-174.243 -425.973 0.
-157.698 -387.033 0.
-141.152 -348.094 0.
210.143 -113.055 0.
255.313 -4.26613 0.
-154.317 -123.502 0.
-257.69 -367.129 0.
-361.065 -610.757 0.
-77.3253 -598.505 0.
-49.0633 -531.767 0.
-20.8011 -465.029 0.
233.535 -214.697 0.
344.883 38.5992 0.
456.232 291.896 0.
138.894 77.9719 0.
64.2858 -103.126 0.
-825.459 -156.474 0.
38.0375 6.79086 0.
-67.7677 -241.148 0.
-188.813 -407.152 0.
-96.6014 -192.048 0.
-4.39069 23.0569 0.
10.1874 87.1291 0.
-41.6605 -38.9055 0.
-93.5105 -164.939 0.
-349.024 -379.37 0.
-405.78 -513.627 0.
-462.536 -647.883 0.
512.087 -99.873 0.
599.647 102.041 0.
-2.30274 1.70618 0.
14.1645 39.8483 0.
30.6323 77.9908 0.
165.091 130.617 0.
128.911 46.2819 0.
92.7299 -38.054 0.
294.013 25.039 0.
298.619 43.38 0.
303.226 61.7206 0.
127.522 -6.57917 0.
136.377 9.27038 0.
764.503 289.68 0.
316.006 21.1884 0.
277.629 -74.4704 0.
376.263 -107.228 0.
338.769 -195.466 0.
301.276 -283.705 0.
68.5591 -325.35 0.
194.267 -32.8194 0.
319.975 259.711 0.
-67.0998 114.704 0.
-116.388 -7.13992 0.
-165.676 -128.985 0.
743.374 77.9407 0.
645.66 -154.184 0.
332.711 -435.602 0.
426.335 -216.827 0.
519.961 1.94747 0.
246.315 -9.48535 0.
223.271 -64.8646 0.
200.227 -120.244 0.
199.508 -123.034 0.
214.45 -91.3202 0.
229.392 -59.6061 0.
519.712 51.2911 0.
505.613 16.1627 0.
405.493 -56.8385 0.
269.925 15.182 0.
335.55 172.101 0.
112.821 136.488 0.
5.06145 -106.885 0.
-102.698 -350.256 0.
-113.902 -452.218 0.
-94.5128 -411.035 0.
-75.1236 -369.852 0.
378.239 -211.708 0.
339.679 -300.006 0.
301.12 -388.304 0.
254.415 -251.237 0.
350.739 -21.7525 0.
306.907 110.102 0.
247.071 -28.2658 0.
187.235 -166.632 0.
329.062 -187.907 0.
322.392 -206.221 0.
315.721 -224.535 0.
257.745 -323.896 0.
195.378 -465.188 0.
133.01 -606.48 0.
196.536 -565.164 0.
220.573 -509.448 0.
669.954 -268.827 0.
-181.1 -486.386 0.
-98.5703 -303.216 0.
-201.249 -241.808 0.
-225.43 -305.336 0.
-249.611 -368.865 0.
298.47 -170.079 0.
291.066 -189.281 0.
283.663 -208.483 0.
-18.6042 -328.964 0.
-1.75311 -290.21 0.
15.0986 -251.457 0.
42.4582 -152.712 0.
88.1987 -44.7559 0.
-51.8261 -48.2514 0.
-155.594 -291.668 0.
-259.363 -535.084 0.
-219.501 -627.834 0.
-190.899 -561.277 0.
-162.297 -494.721 0.
296.945 -155.459 0.
407.979 97.5433 0.
519.013 350.547 0.
133.271 104.936 0.
57.8522 -76.1277 0.
-801.935 -463.172 0.
-42.921 -50.3403 0.
30.0463 120.658 0.
-23.759 179.817 0.
-90.0557 29.1968 0.
-156.353 -121.423 0.
-34.0146 -137.813 0.
-32.7652 -131.693 0.
-31.5163 -125.573 0.
-244.249 -174.952 0.
-217.872 -110.654 0.
-191.494 -46.3552 0.
614.18 172.119 0.
536.36 -4.27889 0.
-130.351 -413.177 0.
-95.4803 -330.581 0.
-60.6087 -247.986 0.
109.988 -80.1866 0.
192.866 113.582 0.
275.745 307.349 0.
280.906 322.542 0.
223.041 182.494 0.
165.175 42.4449 0.
181.678 -46.932 0.
129.768 -166.848 0.
957.261 88.7907 0.
203.792 -219.047 0.
215.352 -191.433 0.
353.934 -104.578 0.
380.604 -42.6973 0.
407.274 19.1827 0.
183.32 -54.5489 0.
175.247 -77.8348 0.
167.173 -101.121 0.
-272.781 -315.347 0.
-291.86 -357.003 0.
-310.94 -398.658 0.
632.096 -105.189 0.
570.129 -250.754 0.
253.485 -467.117 0.
406.641 -106.168 0.
559.795 254.779 0.
299.119 297.444 0.
219.395 118.376 0.
139.672 -60.6924 0.
190.632 -64.4959 0.
225.057 18.5833 0.
259.481 101.662 0.
567.029 4.69924 0.
401.917 -377.815 0.
250.737 -754.151 0.
-116.301 -650.948 0.
22.7573 -329.722 0.
10.9794 -117.496 0.
43.4447 -42.2842 0.
75.91 32.9275 0.
19.1458 -86.5209 0.
-132.971 -438.512 0.
-285.086 -790.501 0.
93.0741 -510.389 0.
262.878 -117.054 0.
432.683 276.282 0.
331.181 92.1999 0.
228.312 -149.823 0.
152.265 -363.076 0.
114.205 -454.228 0.
76.1448 -545.38 0.
114.163 -525.256 0.
201.509 -322.399 0.
288.854 -119.542 0.
390.14 0.0129486 0.
400.734 21.5654 0.
411.328 43.1184 0.
330.837 -15.4607 0.
308.969 -60.8131 0.
417.388 -55.1696 0.
5.51346 -334.217 0.
-50.134 -460.442 0.
-333.788 -612.175 0.
-223.04 -347.51 0.
-112.292 -82.8461 0.
266.281 174.023 0.
236.451 102.816 0.
206.621 31.6084 0.
130.769 -148.564 0.
34.5736 -373.978 0.
-61.622 -599.391 0.
-96.3507 -341.517 0.
77.0712 61.1937 0.
171.17 370.341 0.
73.6476 144.924 0.
-23.8741 -80.4929 0.
-50.2897 -190.7 0.
-15.8038 -111.204 0.
18.6812 -31.7065 0.
305.32 66.0028 0.
256.632 -44.0053 0.
207.943 -154.014 0.
109.349 -155.979 0.
152.017 -56.6449 0.
68.3607 -56.6912 0.
148.365 64.1024 0.
221.862 234.958 0.
83.4203 256.953 0.
17.9931 106.565 0.
-47.4348 -43.8219 0.
69.825 -61.3944 0.
71.9939 -55.4549 0.
74.1623 -49.5151 0.
-150.436 -105.058 0.
-123.807 -41.0551 0.
-97.1773 22.9478 0.
359.755 96.7215 0.
282.938 -80.8895 0.
111.271 -278.963 0.
145.834 -196.412 0.
180.397 -113.864 0.
71.0678 -63.6728 0.
154.1 130.027 0.
237.133 323.727 0.
156.736 299.265 0.
98.1447 160.686 0.
39.5532 22.1065 0.
247.016 9.33566 0.
195.324 -111.1 0.
390.94 -125.333 0.
245.639 -167.156 0.
256.809 -139.594 0.
250.52 -118.495 0.
276.365 -56.4295 0.
302.211 5.63563 0.
391.256 66.4039 0.
382.947 43.0397 0.
374.638 19.6749 0.
-168.993 -239.231 0.
-187.342 -281.86 0.
-205.691 -324.488 0.
531.774 -116.494 0.
470.402 -262.467 0.
20.8731 -534.329 0.
173.968 -173.57 0.
327.063 187.188 0.
197.843 286.116 0.
117.888 106.939 0.
37.9334 -72.2366 0.
107.452 -72.2654 0.
141.55 11.0651 0.
175.648 94.3952 0.
546.595 30.2664 0.
382.497 -352.899 0.
193.06 -747.244 0.
-39.9188 -585.766 0.
99.211 -263.958 0.
130.744 -33.7768 0.
163.598 41.0019 0.
196.451 115.781 0.
62.6937 -33.0968 0.
-87.818 -386.475 0.
-238.329 -739.854 0.
-74.9895 -550.797 0.
95.282 -157.038 0.
265.554 236.722 0.
191.717 64.5738 0.
89.7874 -177.812 0.
203.534 -309.855 0.
165.853 -400.913 0.
128.172 -491.973 0.
7.40884 -537.598 0.
95.7617 -335.998 0.
184.115 -134.397 0.
578.176 112.875 0.
588.739 134.02 0.
599.303 155.165 0.
-46.4593 -145.287 0.
-67.4611 -191.172 0.
-811.72 -549.265 0.
246.75 -198.546 0.
191.08 -324.221 0.
-64.0703 -464.491 0.
47.1566 -199.994 0.
158.384 64.5011 0.
-110.9 42.8825 0.
-140.221 -28.5672 0.
-169.542 -100.017 0.
198.057 -85.9133 0.
102.485 -312.004 0.
6.91339 -538.096 0.
-48.6598 -290.129 0.
124.774 112.468 0.
212.05 421.922 0.
115.227 195.974 0.
18.4045 -29.9743 0.
70.8288 -110.218 0.
104.805 -29.9051 0.
138.78 50.4089 0.
75.0234 -0.376106 0.
26.9458 -110.731 0.
-21.1317 -221.086 0.
339.085 -26.0924 0.
381.734 73.1871 0.
-496.564 -1046.65 0.
-67.3196 -779.128 0.
222.236 -101.357 0.
500.451 1041.03 0.
66.7799 39.1501 0.
340.987 688.927 0.
374.488 465.563 0.
-3.28386 -409.17 0.
148.832 -48.3091 0.
-85.9169 -93.9128 0.
-207.122 -377.144 0.
-164.725 -278.843 0.
305.242 468.79 0.
98.0707 -13.1181 0.
-125.788 -1241.94 0.
616.584 487.61 0.
375.876 -76.0366 0.
-95.3641 -358.821 0.
-178.314 -550.275 0.
-64.9761 -285.249 0.
34.4854 260.169 0.
-309.254 -542.68 0.
-755.135 -1584.55 0.
149.386 -310.165 0.
141.277 -327.438 0.
-843.335 -1276.2 0.
-42.7596 -893.785 0.
337.728 1.21852 0.
409.818 487.373 0.
747.394 1279.89 0.
25.5314 -398.078 0.
134.033 -892.296 0.
661.436 343.44 0.
20.2111 -1147.1 0.
-58.085 -171.36 0.
218.838 477.731 0.
709.935 1626.58 0.
667.063 433.946 0.
691.745 486.11 0.
158.096 264.379 0.
272.35 530.23 0.
219.403 405.993 0.
215.615 564.482 0.
285.22 725.111 0.
-83.0615 -135.734 0.
-4.06663 -159.56 0.
-35.2555 -221.742 0.
-40.1375 -222.224 0.
421.494 -182.196 0.
498.467 -7.7233 0.
-2092.32 -479.742 0.
6.44889 -587.083 0.
78.501 -422.046 0.
65.8261 -377.631 0.
204.228 -56.7988 0.
246.864 40.1733 0.
20.2258 -191.407 0.
369.652 627.26 0.
199.356 233.6 0.
-223.015 -542.634 0.
-45.9791 -123.722 0.
257.616 590.995 0.
-107.064 -357.164 0.
-128.382 -400.777 0.
2.24088 -845.662 0.
408.749 101.649 0.
152.435 -497.738 0.
15.8274 -276.555 0.
109.293 -58.54 0.
438.9 709.862 0.
447.651 -518.621 0.
138.927 -1243.63 0.
742.697 161.543 0.
-300.76 12.868 0.
112.871 980.009 0.
57.2284 -270.771 0.
404.751 -273.533 0.
157.982 -837.393 0.
576.139 553.669 0.
875.341 1257.97 0.
-83.6947 -972.439 0.
-519.086 -183.411 0.
40.1561 1121.94 0.
-573.761 -308.797 0.
-81.7395 -830.488 0.
-129.978 -946.302 0.
355.608 184.961 0.
78.5648 -52.686 0.
151.529 117.539 0.
312.409 625.123 0.
234.593 446.068 0.
-13.0714 -129.908 0.
-69.3992 -643.81 0.
557.607 817.224 0.
206.924 -3.05214 0.
-258.784 -326.097 0.
-269.02 -351.89 0.
-280.534 -379.059 0.
649.087 341.744 0.
347.228 -361.759 0.
1116.23 -159.285 0.
137.115 -298.013 0.
226.499 -88.6042 0.
10.7677 -49.044 0.
-21.2474 -121.473 0.
-53.2633 -193.902 0.
14.987 -163.267 0.
57.2627 -64.0563 0.
99.5359 35.1563 0.
-35.2249 9.90238 0.
-34.3784 13.691 0.
-33.5323 17.4788 0.
-42.8392 -103.713 0.
-120.927 -278.567 0.
166.412 -253.987 0.
304.144 67.4336 0.
441.877 388.854 0.
237.494 442.113 0.
182.179 317.314 0.
126.865 192.513 0.
11.6679 15.4729 0.
-69.2244 -178.535 0.
-150.117 -372.544 0.
181.401 -249.039 0.
197.042 -211.91 0.
1173.02 237.779 0.
601.043 118.274 0.
665.385 270.882 0.
239.475 160.034 0.
168.251 -5.37644 0.
97.0266 -170.786 0.
94.1492 -247.523 0.
89.8384 -247.95 0.
85.528 -248.377 0.
207.57 -126.326 0.
261.439 3.13196 0.
315.309 132.59 0.
320.94 145.168 0.
315.054 133.35 0.
143.823 40.6874 0.
111.438 -38.069 0.
79.0532 -116.826 0.
-239.411 -225.053 0.
-117.073 52.3419 0.
5.26477 329.739 0.
284.815 398.167 0.
137.733 53.1513 0.
-9.34799 -291.864 0.
279.36 6.98072 0.
439.491 378.271 0.
-478.95 288.523 0.
491.268 410.245 0.
337.978 49.2159 0.
301.469 -203.613 0.
276.158 -262.351 0.
250.847 -321.089 0.
-165.299 -408.008 0.
-23.7342 -71.2733 0.
117.831 265.46 0.
-113.929 213.52 0.
-153.376 126.907 0.
-192.823 40.2953 0.
123.392 -11.3173 0.
16.2502 -258.771 0.
-92.8756 -502.1 0.
-146.503 -628.639 0.
-200.13 -755.179 0.
-33.5096 -691.349 0.
66.9812 -456.664 0.
167.473 -221.981 0.
500.206 -32.7497 0.
464.429 -115.029 0.
428.655 -197.307 0.
-137.565 -492.853 0.
-165.221 -552.09 0.
77.2684 -486.823 0.
370.882 -175.839 0.
468.588 51.3362 0.
189.862 116.627 0.
291.637 354.289 0.
393.411 591.952 0.
-98.132 341.953 0.
-265.495 -42.3178 0.
-432.858 -426.587 0.
18.9109 -329.185 0.
24.088 -316.321 0.
29.2649 -303.459 0.
78.3318 -51.3304 0.
215.204 268.905 0.
146.828 457.723 0.
99.5102 351.632 0.
52.1928 245.542 0.
314.233 308.453 0.
327.913 335.05 0.
341.593 361.646 0.
10.7973 128.311 0.
-83.0436 -89.437 0.
-176.884 -307.184 0.
144.995 -198.787 0.
147.761 -188.948 0.
702.326 -304.204 0.
154.147 -259.549 0.
244.313 -50.6101 0.
0.608335 -22.1847 0.
-30.126 -94.6084 0.
-60.861 -167.032 0.
-67.7213 -164.441 0.
-23.032 -65.761 0.
21.6551 32.9212 0.
-18.2852 47.3976 0.
-17.1879 51.6658 0.
-16.091 55.933 0.
-147.831 -118.315 0.
-226.895 -292.324 0.
17.371 -286.496 0.
155.151 34.9051 0.
292.932 356.305 0.
236.339 469.584 0.
180.521 345.527 0.
124.703 221.471 0.
127.446 98.5237 0.
48.2931 -95.6018 0.
-30.8606 -289.729 0.
204.578 -207.51 0.
220.68 -170.211 0.
1820.23 546.244 0.
877.899 266.942 0.
941.123 420.486 0.
224.514 182.528 0.
151.635 17.8479 0.
78.7568 -146.831 0.
-284.943 -382.107 0.
-289.95 -382.412 0.
-294.957 -382.716 0.
531.217 45.0108 0.
584.985 173.654 0.
638.753 302.297 0.
56.9055 66.2812 0.
52.4032 53.0627 0.
261.235 120.964 0.
228.717 42.6073 0.
196.199 -35.7497 0.
-360.437 -246.31 0.
-238.903 31.6038 0.
-117.367 309.518 0.
369.911 465.079 0.
223.219 120.493 0.
76.5267 -224.092 0.
26.3253 -65.4007 0.
188.272 304.528 0.
111.065 574.431 0.
582.1 481.275 0.
429.38 119.948 0.
513.803 -81.1812 0.
488.908 -139.737 0.
464.013 -198.292 0.
-255.527 -413.567 0.
-112.96 -77.3829 0.
29.6072 258.8 0.
-360.016 139.956 0.
-400.458 54.6759 0.
-440.899 -30.6032 0.
246.016 70.433 0.
139.072 -176.631 0.
-368.561 -588.483 0.
-421.693 -715.196 0.
-474.825 -841.91 0.
134.478 -584.705 0.
236.176 -350.632 0.
337.876 -116.56 0.
333.473 -70.7554 0.
297.424 -152.63 0.
261.378 -234.504 0.
338.291 -259.812 0.
309.25 -317.867 0.
677.529 -198.49 0.
293.856 -178.071 0.
390.8 49.7186 0.
-28.8901 52.6656 0.
72.8545 290.581 0.
174.599 528.497 0.
154.834 480.766 0.
-12.457 96.9773 0.
-179.748 -286.809 0.
-106.018 -351.736 0.
-100.825 -338.545 0.
-95.6331 -325.355 0.
95.7009 -12.4429 0.
232.582 307.501 0.
43.5147 444.846 0.
-3.73915 338.909 0.
-50.9927 232.972 0.
302.325 334.84 0.
316.425 360.959 0.
330.525 387.077 0.
115.071 205.883 0.
21.5421 -11.5147 0.
-71.9872 -228.912 0.
-169.511 -304.735 0.
-167.092 -293.333 0.
