# vtk DataFile Version 2.0
test grain
ASCII
DATASET UNSTRUCTURED_GRID
POINTS 5000 float
0.499931 0.00100058 0.
0.501932 0.00100048 0.
0.503933 0.00100043 0.
0.505934 0.00100038 0.
0.507935 0.00100029 0.
0.509936 0.00100021 0.
0.511938 0.00100013 0.
0.513939 0.00100008 0.
0.515941 0.00100002 0.
0.517943 0.001 0.
0.519944 0.001 0.
0.521946 0.001 0.
0.523947 0.001 0.
0.525949 0.001 0.
0.52795 0.001 0.
0.529952 0.001 0.
0.531954 0.001 0.
0.533955 0.001 0.
0.535957 0.001 0.
0.537958 0.001 0.
0.53996 0.000999999 0.
0.541961 0.001 0.
0.543962 0.001 0.
0.545963 0.001 0.
0.547965 0.001 0.
0.549967 0.001 0.
0.551968 0.001 0.
0.553969 0.001 0.
0.55597 0.001 0.
0.557972 0.001 0.
0.559973 0.001 0.
0.561975 0.001 0.
0.563977 0.001 0.
0.56598 0.001 0.
0.567981 0.001 0.
0.569982 0.001 0.
0.571983 0.001 0.
0.573985 0.001 0.
0.575986 0.001 0.
0.577988 0.001 0.
0.579989 0.001 0.
0.581991 0.001 0.
0.583992 0.001 0.
0.585993 0.001 0.
0.587994 0.001 0.
0.589995 0.001 0.
0.591996 0.001 0.
0.593997 0.001 0.
0.595998 0.001 0.
0.597999 0.001 0.
0.6 0.000999999 0.
0.602003 0.000999999 0.
0.604006 0.001 0.
0.606008 0.001 0.
0.608009 0.001 0.
0.61001 0.001 0.
0.612011 0.001 0.
0.614012 0.001 0.
0.616014 0.001 0.
0.618015 0.001 0.
0.620016 0.00100001 0.
0.622017 0.00100002 0.
0.624018 0.00100001 0.
0.62602 0.00100001 0.
0.628021 0.001 0.
0.630022 0.001 0.
0.632024 0.001 0.
0.634025 0.001 0.
0.636027 0.001 0.
0.638028 0.001 0.
0.640029 0.001 0.
0.64203 0.001 0.
0.644032 0.001 0.
0.646033 0.00100002 0.
0.648034 0.00100004 0.
0.650035 0.00100006 0.
0.652037 0.00100004 0.
0.654038 0.00100002 0.
0.65604 0.001 0.
0.658042 0.001 0.
0.660043 0.001 0.
0.662045 0.001 0.
0.664046 0.001 0.
0.666047 0.001 0.
0.668049 0.00100001 0.
0.67005 0.00100001 0.
0.672051 0.00100001 0.
0.674053 0.00100001 0.
0.676056 0.001 0.
0.678058 0.001 0.
0.680059 0.00100004 0.
0.68206 0.00100008 0.
0.684061 0.00100011 0.
0.686063 0.00100014 0.
0.688064 0.00100017 0.
0.690065 0.00100023 0.
0.692067 0.00100031 0.
0.694068 0.00100039 0.
0.696069 0.00100032 0.
0.698071 0.00100021 0.
0.499931 0.00300173 0.
0.501932 0.00300143 0.
0.503933 0.0030013 0.
0.505934 0.00300115 0.
0.507935 0.00300089 0.
0.509936 0.00300062 0.
0.511938 0.0030004 0.
0.513939 0.00300023 0.
0.515941 0.00300006 0.
0.517943 0.003 0.
0.519945 0.00300001 0.
0.521946 0.00300001 0.
0.523948 0.00300001 0.
0.525949 0.003 0.
0.527951 0.003 0.
0.529952 0.003 0.
0.531954 0.003 0.
0.533955 0.003 0.
0.535957 0.003 0.
0.537958 0.003 0.
0.53996 0.003 0.
0.541961 0.003 0.
0.543962 0.003 0.
0.545964 0.00300001 0.
0.547965 0.00300001 0.
0.549967 0.00300001 0.
0.551968 0.00300001 0.
0.553969 0.003 0.
0.555971 0.003 0.
0.557972 0.00300001 0.
0.559973 0.00300001 0.
0.561975 0.00300001 0.
0.563977 0.00300001 0.
0.565979 0.003 0.
0.56798 0.00300001 0.
0.569982 0.00300001 0.
0.571983 0.00300001 0.
0.573984 0.00300001 0.
0.575986 0.003 0.
0.577987 0.003 0.
0.579989 0.003 0.
0.581991 0.003 0.
0.583992 0.003 0.
0.585993 0.003 0.
0.587994 0.003 0.
0.589995 0.003 0.
0.591996 0.003 0.
0.593997 0.00300001 0.
0.595998 0.003 0.
0.597999 0.003 0.
0.6 0.003 0.
0.602003 0.003 0.
0.604006 0.003 0.
0.606008 0.003 0.
0.608009 0.003 0.
0.61001 0.003 0.
0.612012 0.003 0.
0.614013 0.003 0.
0.616014 0.003 0.
0.618015 0.00300001 0.
0.620016 0.00300004 0.
0.622018 0.00300006 0.
0.624019 0.00300004 0.
0.62602 0.00300002 0.
0.628021 0.00300001 0.
0.630022 0.00300001 0.
0.632024 0.003 0.
0.634026 0.003 0.
0.636027 0.00300001 0.
0.638028 0.00300001 0.
0.64003 0.00300001 0.
0.642031 0.00300001 0.
0.644032 0.003 0.
0.646033 0.00300006 0.
0.648034 0.00300013 0.
0.650035 0.00300019 0.
0.652037 0.00300012 0.
0.654038 0.00300005 0.
0.65604 0.003 0.
0.658042 0.003 0.
0.660043 0.003 0.
0.662045 0.003 0.
0.664046 0.00300001 0.
0.666047 0.00300001 0.
0.668049 0.00300002 0.
0.67005 0.00300003 0.
0.672051 0.00300003 0.
0.674053 0.00300002 0.
0.676055 0.003 0.
0.678056 0.00300001 0.
0.680058 0.00300012 0.
0.682059 0.00300023 0.
0.68406 0.00300033 0.
0.686062 0.00300043 0.
0.688063 0.00300052 0.
0.690065 0.0030007 0.
0.692066 0.00300094 0.
0.694067 0.00300118 0.
0.696069 0.00300095 0.
0.69807 0.00300063 0.
0.499931 0.00500286 0.
0.501932 0.00500238 0.
0.503933 0.00500216 0.
0.505934 0.00500191 0.
0.507935 0.00500147 0.
0.509937 0.00500104 0.
0.511938 0.00500066 0.
0.513939 0.00500038 0.
0.515941 0.0050001 0.
0.517943 0.005 0.
0.519945 0.00500001 0.
0.521947 0.00500002 0.
0.523948 0.00500001 0.
0.52595 0.005 0.
0.527951 0.005 0.
0.529953 0.005 0.
0.531954 0.005 0.
0.533955 0.00500001 0.
0.535957 0.005 0.
0.537958 0.005 0.
0.53996 0.005 0.
0.541961 0.005 0.
0.543963 0.005 0.
0.545964 0.00500001 0.
0.547965 0.00500001 0.
0.549966 0.00500002 0.
0.551968 0.00500001 0.
0.553969 0.005 0.
0.555971 0.00500001 0.
0.557972 0.00500001 0.
0.559973 0.00500001 0.
0.561975 0.00500001 0.
0.563976 0.00500001 0.
0.565978 0.00500001 0.
0.56798 0.00500001 0.
0.569981 0.00500001 0.
0.571983 0.00500002 0.
0.573984 0.00500001 0.
0.575986 0.00500001 0.
0.577987 0.005 0.
0.579989 0.005 0.
0.581991 0.005 0.
0.583992 0.00500001 0.
0.585993 0.005 0.
0.587994 0.00500001 0.
0.589995 0.005 0.
0.591996 0.005 0.
0.593997 0.00500001 0.
0.595998 0.005 0.
0.597999 0.005 0.
0.6 0.00499999 0.
0.602003 0.005 0.
0.604006 0.005 0.
0.606008 0.005 0.
0.60801 0.005 0.
0.610011 0.005 0.
0.612012 0.00500001 0.
0.614013 0.005 0.
0.616013 0.005 0.
0.618015 0.00500002 0.
0.620016 0.00500006 0.
0.622018 0.0050001 0.
0.624019 0.00500007 0.
0.62602 0.00500003 0.
0.628021 0.00500001 0.
0.630023 0.00500001 0.
0.632025 0.00500001 0.
0.634026 0.00500001 0.
0.636027 0.00500001 0.
0.638029 0.00500001 0.
0.64003 0.00500001 0.
0.642032 0.00500001 0.
0.644033 0.005 0.
0.646034 0.0050001 0.
0.648035 0.00500021 0.
0.650035 0.00500032 0.
0.652037 0.0050002 0.
0.654038 0.00500008 0.
0.65604 0.005 0.
0.658041 0.005 0.
0.660043 0.005 0.
0.662044 0.00500001 0.
0.664046 0.00500001 0.
0.666047 0.00500001 0.
0.668049 0.00500003 0.
0.67005 0.00500004 0.
0.672051 0.00500005 0.
0.674053 0.00500003 0.
0.676054 0.005 0.
0.678055 0.00500001 0.
0.680057 0.00500019 0.
0.682058 0.00500038 0.
0.68406 0.00500055 0.
0.686061 0.00500071 0.
0.688062 0.00500087 0.
0.690064 0.00500116 0.
0.692065 0.00500156 0.
0.694067 0.00500196 0.
0.696068 0.00500159 0.
0.698069 0.00500105 0.
0.499933 0.00700432 0.
0.501934 0.00700389 0.
0.503935 0.00700366 0.
0.505935 0.00700345 0.
0.507937 0.00700327 0.
0.509938 0.00700308 0.
0.511939 0.00700285 0.
0.51394 0.00700254 0.
0.515941 0.00700224 0.
0.517943 0.00700214 0.
0.519945 0.00700215 0.
0.521947 0.00700217 0.
0.523948 0.00700207 0.
0.52595 0.00700195 0.
0.527952 0.00700185 0.
0.529953 0.00700198 0.
0.531954 0.00700212 0.
0.533955 0.0070022 0.
0.535957 0.00700214 0.
0.537959 0.00700208 0.
0.53996 0.00700207 0.
0.541962 0.0070021 0.
0.543963 0.00700212 0.
0.545964 0.00700197 0.
0.547965 0.00700177 0.
0.549966 0.00700156 0.
0.551968 0.00700165 0.
0.55397 0.00700176 0.
0.555971 0.00700187 0.
0.557972 0.00700201 0.
0.559974 0.00700214 0.
0.561975 0.00700222 0.
0.563976 0.00700223 0.
0.565978 0.00700223 0.
0.567979 0.00700226 0.
0.569981 0.00700231 0.
0.571982 0.00700235 0.
0.573984 0.00700243 0.
0.575985 0.00700251 0.
0.577987 0.00700257 0.
0.579989 0.00700241 0.
0.58199 0.00700225 0.
0.583992 0.00700217 0.
0.585993 0.00700224 0.
0.587993 0.00700231 0.
0.589995 0.00700234 0.
0.591996 0.00700237 0.
0.593997 0.00700239 0.
0.595998 0.00700241 0.
0.597999 0.00700243 0.
0.600001 0.00700245 0.
0.602003 0.00700244 0.
0.604006 0.00700244 0.
0.606008 0.00700244 0.
0.608009 0.00700246 0.
0.61001 0.00700247 0.
0.612012 0.00700242 0.
0.614013 0.00700228 0.
0.616014 0.00700213 0.
0.618015 0.00700215 0.
0.620016 0.00700224 0.
0.622018 0.00700234 0.
0.624019 0.00700228 0.
0.62602 0.0070022 0.
0.628021 0.00700217 0.
0.630023 0.00700237 0.
0.632025 0.00700257 0.
0.634026 0.00700268 0.
0.636027 0.00700263 0.
0.638028 0.00700258 0.
0.640029 0.00700254 0.
0.64203 0.00700252 0.
0.644032 0.00700249 0.
0.646033 0.00700242 0.
0.648034 0.00700235 0.
0.650035 0.00700228 0.
0.652037 0.00700235 0.
0.654038 0.00700243 0.
0.65604 0.00700244 0.
0.658042 0.00700229 0.
0.660043 0.00700213 0.
0.662045 0.00700215 0.
0.664046 0.00700235 0.
0.666047 0.00700255 0.
0.668049 0.00700243 0.
0.67005 0.00700217 0.
0.672051 0.0070019 0.
0.674052 0.0070019 0.
0.676054 0.00700191 0.
0.678055 0.00700192 0.
0.680057 0.00700189 0.
0.682058 0.00700187 0.
0.684059 0.00700192 0.
0.686061 0.00700211 0.
0.688062 0.0070023 0.
0.690063 0.00700244 0.
0.692065 0.00700256 0.
0.694066 0.00700268 0.
0.696068 0.00700282 0.
0.698069 0.00700298 0.
0.499935 0.0090058 0.
0.501935 0.00900539 0.
0.503936 0.00900516 0.
0.505937 0.009005 0.
0.507938 0.00900506 0.
0.509939 0.00900513 0.
0.51194 0.00900503 0.
0.513941 0.00900471 0.
0.515942 0.00900439 0.
0.517943 0.00900428 0.
0.519945 0.0090043 0.
0.521946 0.00900432 0.
0.523948 0.00900412 0.
0.525951 0.00900389 0.
0.527952 0.0090037 0.
0.529953 0.00900396 0.
0.531954 0.00900423 0.
0.533956 0.00900439 0.
0.535957 0.00900428 0.
0.537959 0.00900417 0.
0.539961 0.00900414 0.
0.541962 0.00900419 0.
0.543963 0.00900424 0.
0.545965 0.00900394 0.
0.547965 0.00900352 0.
0.549966 0.0090031 0.
0.551968 0.0090033 0.
0.55397 0.00900351 0.
0.555972 0.00900374 0.
0.557973 0.009004 0.
0.559974 0.00900427 0.
0.561975 0.00900443 0.
0.563976 0.00900444 0.
0.565978 0.00900445 0.
0.567979 0.00900451 0.
0.569981 0.0090046 0.
0.571982 0.00900468 0.
0.573984 0.00900485 0.
0.575985 0.00900502 0.
0.577987 0.00900515 0.
0.579988 0.00900483 0.
0.58199 0.00900451 0.
0.583991 0.00900434 0.
0.585992 0.00900447 0.
0.587993 0.00900461 0.
0.589994 0.00900468 0.
0.591995 0.00900473 0.
0.593996 0.00900478 0.
0.595998 0.00900482 0.
0.598 0.00900486 0.
0.600001 0.0090049 0.
0.602003 0.00900489 0.
0.604006 0.00900488 0.
0.606008 0.00900488 0.
0.608009 0.00900491 0.
0.61001 0.00900494 0.
0.612011 0.00900484 0.
0.614012 0.00900455 0.
0.616014 0.00900427 0.
0.618015 0.00900428 0.
0.620017 0.00900443 0.
0.622018 0.00900458 0.
0.624019 0.00900449 0.
0.626021 0.00900437 0.
0.628022 0.00900432 0.
0.630023 0.00900473 0.
0.632025 0.00900513 0.
0.634026 0.00900536 0.
0.636027 0.00900525 0.
0.638028 0.00900514 0.
0.640029 0.00900507 0.
0.642029 0.00900502 0.
0.64403 0.00900497 0.
0.646031 0.00900475 0.
0.648033 0.00900449 0.
0.650034 0.00900424 0.
0.652036 0.00900451 0.
0.654038 0.00900477 0.
0.65604 0.00900488 0.
0.658042 0.00900457 0.
0.660044 0.00900426 0.
0.662045 0.00900429 0.
0.664046 0.00900469 0.
0.666047 0.00900509 0.
0.668048 0.00900484 0.
0.670049 0.0090043 0.
0.672051 0.00900376 0.
0.674052 0.00900377 0.
0.676054 0.00900383 0.
0.678056 0.00900383 0.
0.680057 0.00900359 0.
0.682058 0.00900335 0.
0.684059 0.00900329 0.
0.68606 0.00900352 0.
0.688061 0.00900374 0.
0.690063 0.00900372 0.
0.692064 0.00900356 0.
0.694066 0.00900339 0.
0.696067 0.00900405 0.
0.698069 0.00900491 0.
0.499935 0.011007 0.
0.501936 0.0110065 0.
0.503937 0.0110061 0.
0.505938 0.0110059 0.
0.507939 0.0110061 0.
0.50994 0.0110062 0.
0.511941 0.0110062 0.
0.513942 0.0110059 0.
0.515943 0.0110056 0.
0.517944 0.0110054 0.
0.519945 0.0110054 0.
0.521947 0.0110054 0.
0.523949 0.0110051 0.
0.525951 0.0110048 0.
0.527953 0.0110046 0.
0.529954 0.0110049 0.
0.531955 0.0110052 0.
0.533956 0.0110054 0.
0.535958 0.0110051 0.
0.537959 0.0110048 0.
0.539961 0.0110048 0.
0.541962 0.0110049 0.
0.543964 0.011005 0.
0.545965 0.0110047 0.
0.547966 0.0110042 0.
0.549967 0.0110037 0.
0.551968 0.011004 0.
0.55397 0.0110042 0.
0.555972 0.0110045 0.
0.557973 0.0110049 0.
0.559974 0.0110052 0.
0.561976 0.0110054 0.
0.563977 0.0110054 0.
0.565978 0.0110054 0.
0.567979 0.0110055 0.
0.569981 0.0110055 0.
0.571982 0.0110055 0.
0.573983 0.0110058 0.
0.575985 0.011006 0.
0.577987 0.0110062 0.
0.579988 0.0110058 0.
0.581989 0.0110054 0.
0.583991 0.0110052 0.
0.585992 0.0110054 0.
0.587993 0.0110056 0.
0.589994 0.0110056 0.
0.591995 0.0110056 0.
0.593997 0.0110055 0.
0.595998 0.0110056 0.
0.598 0.0110057 0.
0.600001 0.0110058 0.
0.602003 0.0110058 0.
0.604005 0.0110058 0.
0.606007 0.0110058 0.
0.608008 0.0110059 0.
0.610009 0.011006 0.
0.61201 0.0110059 0.
0.614012 0.0110057 0.
0.616014 0.0110055 0.
0.618015 0.0110055 0.
0.620016 0.0110056 0.
0.622018 0.0110057 0.
0.624019 0.0110056 0.
0.626021 0.0110055 0.
0.628022 0.0110055 0.
0.630023 0.0110059 0.
0.632025 0.0110064 0.
0.634026 0.0110066 0.
0.636027 0.0110065 0.
0.638028 0.0110065 0.
0.640028 0.0110064 0.
0.642029 0.0110064 0.
0.644029 0.0110064 0.
0.646031 0.011006 0.
0.648033 0.0110055 0.
0.650034 0.0110051 0.
0.652036 0.0110053 0.
0.654038 0.0110055 0.
0.65604 0.0110057 0.
0.658042 0.0110055 0.
0.660044 0.0110054 0.
0.662045 0.0110055 0.
0.664046 0.0110058 0.
0.666047 0.0110061 0.
0.668048 0.0110057 0.
0.670049 0.0110051 0.
0.672051 0.0110044 0.
0.674052 0.0110045 0.
0.676054 0.0110047 0.
0.678055 0.0110048 0.
0.680057 0.0110045 0.
0.682058 0.0110042 0.
0.684059 0.0110041 0.
0.68606 0.0110043 0.
0.688061 0.0110045 0.
0.690062 0.0110045 0.
0.692064 0.0110042 0.
0.694066 0.011004 0.
0.696067 0.0110049 0.
0.698068 0.0110061 0.
0.499935 0.013008 0.
0.501936 0.0130072 0.
0.503936 0.0130065 0.
0.505937 0.013006 0.
0.507938 0.0130062 0.
0.50994 0.0130064 0.
0.511941 0.0130064 0.
0.513942 0.0130061 0.
0.515943 0.0130058 0.
0.517944 0.0130055 0.
0.519946 0.0130054 0.
0.521947 0.0130053 0.
0.523949 0.013005 0.
0.525951 0.0130047 0.
0.527952 0.0130044 0.
0.529953 0.0130047 0.
0.531955 0.0130051 0.
0.533956 0.0130051 0.
0.535958 0.0130046 0.
0.537959 0.0130041 0.
0.539961 0.013004 0.
0.541962 0.0130042 0.
0.543964 0.0130045 0.
0.545965 0.0130042 0.
0.547966 0.0130038 0.
0.549967 0.0130034 0.
0.551969 0.0130036 0.
0.553971 0.0130039 0.
0.555972 0.0130042 0.
0.557973 0.0130046 0.
0.559975 0.013005 0.
0.561976 0.0130052 0.
0.563977 0.0130052 0.
0.565979 0.0130052 0.
0.56798 0.0130051 0.
0.569981 0.013005 0.
0.571982 0.0130049 0.
0.573983 0.0130051 0.
0.575985 0.0130054 0.
0.577986 0.0130056 0.
0.579988 0.0130053 0.
0.581989 0.013005 0.
0.58399 0.0130048 0.
0.585992 0.0130051 0.
0.587994 0.0130053 0.
0.589995 0.0130052 0.
0.591996 0.0130049 0.
0.593998 0.0130046 0.
0.595999 0.0130047 0.
0.598 0.0130048 0.
0.600001 0.013005 0.
0.602002 0.0130051 0.
0.604004 0.0130051 0.
0.606005 0.0130052 0.
0.608007 0.0130053 0.
0.610008 0.0130055 0.
0.61201 0.0130057 0.
0.614012 0.0130058 0.
0.616013 0.013006 0.
0.618015 0.0130059 0.
0.620016 0.0130058 0.
0.622017 0.0130057 0.
0.624019 0.0130056 0.
0.62602 0.0130056 0.
0.628022 0.0130056 0.
0.630023 0.0130059 0.
0.632024 0.0130063 0.
0.634025 0.0130065 0.
0.636026 0.0130065 0.
0.638027 0.0130065 0.
0.640028 0.0130066 0.
0.642029 0.0130066 0.
0.64403 0.0130067 0.
0.646032 0.0130061 0.
0.648033 0.0130055 0.
0.650035 0.0130048 0.
0.652036 0.0130048 0.
0.654038 0.0130047 0.
0.656039 0.0130048 0.
0.658041 0.0130052 0.
0.660043 0.0130056 0.
0.662044 0.0130058 0.
0.664045 0.0130057 0.
0.666046 0.0130055 0.
0.668048 0.0130051 0.
0.670049 0.0130045 0.
0.672051 0.0130039 0.
0.674052 0.0130042 0.
0.676054 0.0130046 0.
0.678055 0.0130049 0.
0.680056 0.0130047 0.
0.682058 0.0130044 0.
0.684059 0.0130044 0.
0.68606 0.0130046 0.
0.688061 0.0130047 0.
0.690062 0.0130047 0.
0.692064 0.0130046 0.
0.694065 0.0130045 0.
0.696066 0.0130054 0.
0.698067 0.0130065 0.
0.499935 0.015009 0.
0.501935 0.0150079 0.
0.503936 0.0150069 0.
0.505937 0.0150062 0.
0.507938 0.0150064 0.
0.50994 0.0150066 0.
0.511941 0.0150066 0.
0.513943 0.0150063 0.
0.515944 0.0150059 0.
0.517945 0.0150057 0.
0.519946 0.0150054 0.
0.521948 0.0150052 0.
0.523949 0.0150049 0.
0.52595 0.0150046 0.
0.527952 0.0150043 0.
0.529953 0.0150046 0.
0.531955 0.0150049 0.
0.533956 0.0150048 0.
0.535958 0.0150041 0.
0.53796 0.0150033 0.
0.539961 0.0150031 0.
0.541963 0.0150035 0.
0.543964 0.0150039 0.
0.545965 0.0150037 0.
0.547967 0.0150034 0.
0.549968 0.015003 0.
0.551969 0.0150033 0.
0.553971 0.0150036 0.
0.555972 0.0150039 0.
0.557974 0.0150044 0.
0.559975 0.0150048 0.
0.561977 0.015005 0.
0.563978 0.015005 0.
0.565979 0.0150049 0.
0.56798 0.0150047 0.
0.569981 0.0150045 0.
0.571982 0.0150042 0.
0.573983 0.0150045 0.
0.575984 0.0150048 0.
0.577986 0.0150051 0.
0.579987 0.0150048 0.
0.581988 0.0150045 0.
0.58399 0.0150044 0.
0.585992 0.0150047 0.
0.587994 0.015005 0.
0.589996 0.0150048 0.
0.591997 0.0150042 0.
0.593998 0.0150036 0.
0.595999 0.0150037 0.
0.598 0.015004 0.
0.6 0.0150043 0.
0.602001 0.0150044 0.
0.604002 0.0150044 0.
0.606004 0.0150046 0.
0.608006 0.0150048 0.
0.610008 0.0150051 0.
0.61201 0.0150054 0.
0.614011 0.0150059 0.
0.616013 0.0150064 0.
0.618014 0.0150063 0.
0.620016 0.015006 0.
0.622017 0.0150057 0.
0.624018 0.0150057 0.
0.62602 0.0150057 0.
0.628022 0.0150057 0.
0.630023 0.015006 0.
0.632024 0.0150062 0.
0.634025 0.0150064 0.
0.636026 0.0150065 0.
0.638027 0.0150066 0.
0.640029 0.0150067 0.
0.64203 0.0150068 0.
0.644031 0.015007 0.
0.646032 0.0150063 0.
0.648034 0.0150054 0.
0.650035 0.0150045 0.
0.652036 0.0150042 0.
0.654037 0.0150039 0.
0.656039 0.0150039 0.
0.65804 0.0150049 0.
0.660042 0.0150058 0.
0.662043 0.0150061 0.
0.664045 0.0150055 0.
0.666046 0.0150049 0.
0.668047 0.0150044 0.
0.670049 0.0150039 0.
0.672051 0.0150033 0.
0.674052 0.0150038 0.
0.676053 0.0150044 0.
0.678054 0.0150049 0.
0.680056 0.0150048 0.
0.682057 0.0150047 0.
0.684059 0.0150046 0.
0.68606 0.0150048 0.
0.688061 0.0150049 0.
0.690062 0.015005 0.
0.692064 0.015005 0.
0.694065 0.0150051 0.
0.696066 0.0150059 0.
0.698066 0.0150069 0.
0.499936 0.0170098 0.
0.501936 0.0170088 0.
0.503937 0.017008 0.
0.505938 0.0170073 0.
0.507939 0.0170073 0.
0.50994 0.0170074 0.
0.511942 0.0170071 0.
0.513943 0.0170066 0.
0.515944 0.0170061 0.
0.517945 0.0170058 0.
0.519947 0.0170056 0.
0.521948 0.0170054 0.
0.52395 0.0170051 0.
0.525951 0.0170047 0.
0.527953 0.0170043 0.
0.529954 0.0170047 0.
0.531955 0.0170051 0.
0.533957 0.0170052 0.
0.535958 0.0170046 0.
0.53796 0.017004 0.
0.539961 0.0170037 0.
0.541963 0.0170037 0.
0.543964 0.0170037 0.
0.545965 0.0170035 0.
0.547967 0.0170033 0.
0.549968 0.0170031 0.
0.55197 0.0170036 0.
0.553971 0.0170041 0.
0.555973 0.0170045 0.
0.557974 0.0170046 0.
0.559976 0.0170046 0.
0.561977 0.0170047 0.
0.563978 0.0170047 0.
0.56598 0.0170047 0.
0.567981 0.017005 0.
0.569981 0.0170052 0.
0.571982 0.0170055 0.
0.573984 0.0170055 0.
0.575985 0.0170054 0.
0.577987 0.0170053 0.
0.579988 0.0170052 0.
0.581989 0.0170051 0.
0.58399 0.017005 0.
0.585992 0.0170049 0.
0.587994 0.0170048 0.
0.589995 0.0170046 0.
0.591996 0.0170043 0.
0.593998 0.0170041 0.
0.595999 0.017004 0.
0.598 0.017004 0.
0.6 0.0170039 0.
0.602002 0.0170043 0.
0.604003 0.0170048 0.
0.606004 0.0170051 0.
0.608006 0.0170053 0.
0.610008 0.0170054 0.
0.612009 0.0170056 0.
0.614011 0.0170058 0.
0.616012 0.0170059 0.
0.618014 0.0170059 0.
0.620016 0.0170057 0.
0.622017 0.0170056 0.
0.624018 0.0170057 0.
0.62602 0.0170059 0.
0.628021 0.017006 0.
0.630022 0.0170061 0.
0.632024 0.0170061 0.
0.634025 0.0170063 0.
0.636026 0.0170067 0.
0.638027 0.0170071 0.
0.640028 0.0170072 0.
0.64203 0.0170071 0.
0.644031 0.017007 0.
0.646032 0.0170065 0.
0.648034 0.0170059 0.
0.650035 0.0170053 0.
0.652037 0.0170049 0.
0.654038 0.0170046 0.
0.656039 0.0170044 0.
0.65804 0.0170049 0.
0.660042 0.0170054 0.
0.662043 0.0170056 0.
0.664044 0.0170056 0.
0.666045 0.0170055 0.
0.668047 0.0170052 0.
0.670049 0.0170047 0.
0.67205 0.0170043 0.
0.674051 0.0170045 0.
0.676053 0.0170048 0.
0.678054 0.017005 0.
0.680055 0.0170048 0.
0.682057 0.0170045 0.
0.684058 0.0170045 0.
0.68606 0.0170049 0.
0.688061 0.0170054 0.
0.690062 0.0170056 0.
0.692063 0.0170058 0.
0.694064 0.0170059 0.
0.696065 0.0170066 0.
0.698066 0.0170075 0.
0.499936 0.0190107 0.
0.501937 0.0190098 0.
0.503938 0.0190091 0.
0.505939 0.0190085 0.
0.50794 0.0190083 0.
0.509941 0.0190081 0.
0.511942 0.0190077 0.
0.513943 0.0190069 0.
0.515944 0.0190062 0.
0.517945 0.0190058 0.
0.519947 0.0190058 0.
0.521949 0.0190057 0.
0.52395 0.0190053 0.
0.525952 0.0190048 0.
0.527953 0.0190044 0.
0.529955 0.0190048 0.
0.531956 0.0190053 0.
0.533958 0.0190055 0.
0.535959 0.0190051 0.
0.53796 0.0190047 0.
0.539961 0.0190043 0.
0.541963 0.0190039 0.
0.543964 0.0190036 0.
0.545965 0.0190034 0.
0.547967 0.0190032 0.
0.549969 0.0190031 0.
0.55197 0.0190038 0.
0.553972 0.0190046 0.
0.555973 0.0190051 0.
0.557974 0.0190048 0.
0.559976 0.0190044 0.
0.561977 0.0190043 0.
0.563979 0.0190045 0.
0.56598 0.0190046 0.
0.567981 0.0190052 0.
0.569981 0.019006 0.
0.571982 0.0190068 0.
0.573984 0.0190065 0.
0.575986 0.019006 0.
0.577987 0.0190055 0.
0.579988 0.0190056 0.
0.581989 0.0190058 0.
0.58399 0.0190057 0.
0.585992 0.0190051 0.
0.587993 0.0190046 0.
0.589994 0.0190044 0.
0.591996 0.0190044 0.
0.593997 0.0190045 0.
0.595998 0.0190042 0.
0.598 0.0190039 0.
0.600001 0.0190035 0.
0.602002 0.0190043 0.
0.604004 0.0190051 0.
0.606005 0.0190057 0.
0.608006 0.0190057 0.
0.610008 0.0190058 0.
0.612009 0.0190058 0.
0.614011 0.0190056 0.
0.616012 0.0190055 0.
0.618014 0.0190054 0.
0.620015 0.0190054 0.
0.622017 0.0190054 0.
0.624018 0.0190057 0.
0.626019 0.0190061 0.
0.62802 0.0190063 0.
0.630022 0.0190062 0.
0.632023 0.019006 0.
0.634024 0.0190061 0.
0.636025 0.0190069 0.
0.638027 0.0190076 0.
0.640028 0.0190077 0.
0.642029 0.0190073 0.
0.644031 0.0190069 0.
0.646033 0.0190066 0.
0.648034 0.0190064 0.
0.650036 0.0190061 0.
0.652037 0.0190057 0.
0.654038 0.0190053 0.
0.656039 0.0190049 0.
0.65804 0.019005 0.
0.660041 0.019005 0.
0.662042 0.0190052 0.
0.664044 0.0190056 0.
0.666045 0.0190061 0.
0.668047 0.019006 0.
0.670048 0.0190056 0.
0.672049 0.0190053 0.
0.674051 0.0190052 0.
0.676052 0.0190051 0.
0.678053 0.019005 0.
0.680055 0.0190047 0.
0.682056 0.0190044 0.
0.684058 0.0190044 0.
0.68606 0.0190051 0.
0.688061 0.0190058 0.
0.690062 0.0190062 0.
0.692063 0.0190065 0.
0.694063 0.0190067 0.
0.696064 0.0190074 0.
0.698065 0.0190082 0.
0.499938 0.0210114 0.
0.501939 0.0210106 0.
0.503939 0.02101 0.
0.50594 0.0210094 0.
0.507941 0.021009 0.
0.509942 0.0210086 0.
0.511943 0.021008 0.
0.513943 0.0210073 0.
0.515944 0.0210066 0.
0.517946 0.0210062 0.
0.519947 0.0210059 0.
0.521949 0.0210057 0.
0.523951 0.0210052 0.
0.525952 0.0210047 0.
0.527954 0.0210042 0.
0.529955 0.0210047 0.
0.531957 0.0210052 0.
0.533958 0.0210054 0.
0.535959 0.0210051 0.
0.537961 0.0210048 0.
0.539962 0.0210043 0.
0.541963 0.0210038 0.
0.543964 0.0210033 0.
0.545966 0.0210032 0.
0.547967 0.0210032 0.
0.549969 0.0210032 0.
0.55197 0.0210039 0.
0.553972 0.0210045 0.
0.555973 0.021005 0.
0.557974 0.0210046 0.
0.559976 0.0210043 0.
0.561977 0.0210041 0.
0.563978 0.0210042 0.
0.56598 0.0210043 0.
0.567981 0.0210051 0.
0.569982 0.0210061 0.
0.571982 0.0210072 0.
0.573984 0.0210067 0.
0.575986 0.021006 0.
0.577987 0.0210054 0.
0.579988 0.0210056 0.
0.581989 0.0210058 0.
0.58399 0.0210057 0.
0.585992 0.0210049 0.
0.587993 0.0210042 0.
0.589994 0.021004 0.
0.591996 0.0210043 0.
0.593997 0.0210045 0.
0.595998 0.0210042 0.
0.598 0.0210037 0.
0.600001 0.0210033 0.
0.602003 0.0210042 0.
0.604004 0.0210051 0.
0.606006 0.0210057 0.
0.608007 0.0210057 0.
0.610008 0.0210056 0.
0.612009 0.0210055 0.
0.614011 0.0210052 0.
0.616012 0.021005 0.
0.618014 0.0210049 0.
0.620016 0.021005 0.
0.622017 0.021005 0.
0.624018 0.0210054 0.
0.626019 0.0210059 0.
0.62802 0.0210062 0.
0.630022 0.021006 0.
0.632023 0.0210057 0.
0.634024 0.0210058 0.
0.636025 0.0210066 0.
0.638026 0.0210074 0.
0.640028 0.0210075 0.
0.642029 0.0210071 0.
0.644031 0.0210066 0.
0.646033 0.0210065 0.
0.648034 0.0210064 0.
0.650036 0.0210063 0.
0.652037 0.0210058 0.
0.654038 0.0210053 0.
0.656039 0.0210049 0.
0.65804 0.0210048 0.
0.660041 0.0210046 0.
0.662042 0.0210049 0.
0.664044 0.0210056 0.
0.666045 0.0210063 0.
0.668046 0.0210063 0.
0.670047 0.0210061 0.
0.672049 0.0210059 0.
0.67405 0.0210057 0.
0.676051 0.0210054 0.
0.678053 0.0210051 0.
0.680054 0.0210048 0.
0.682056 0.0210045 0.
0.684057 0.0210045 0.
0.686059 0.0210053 0.
0.68806 0.021006 0.
0.690061 0.0210065 0.
0.692062 0.0210069 0.
0.694062 0.0210073 0.
0.696064 0.021008 0.
0.698065 0.0210089 0.
0.49994 0.023012 0.
0.50194 0.0230113 0.
0.503941 0.0230107 0.
0.505941 0.0230101 0.
0.507942 0.0230094 0.
0.509943 0.0230087 0.
0.511944 0.0230081 0.
0.513945 0.0230077 0.
0.515945 0.0230072 0.
0.517946 0.0230067 0.
0.519948 0.0230061 0.
0.521949 0.0230055 0.
0.523951 0.023005 0.
0.525952 0.0230045 0.
0.527954 0.023004 0.
0.529956 0.0230043 0.
0.531957 0.0230046 0.
0.533959 0.0230048 0.
0.53596 0.0230045 0.
0.537962 0.0230042 0.
0.539963 0.0230038 0.
0.541964 0.0230034 0.
0.543965 0.023003 0.
0.545966 0.0230031 0.
0.547967 0.0230033 0.
0.549969 0.0230035 0.
0.55197 0.0230037 0.
0.553971 0.023004 0.
0.555972 0.0230041 0.
0.557974 0.0230041 0.
0.559975 0.0230041 0.
0.561977 0.0230041 0.
0.563978 0.023004 0.
0.565979 0.0230039 0.
0.56798 0.0230045 0.
0.569982 0.0230056 0.
0.571983 0.0230067 0.
0.573984 0.0230062 0.
0.575985 0.0230056 0.
0.577987 0.023005 0.
0.579988 0.0230051 0.
0.581989 0.0230052 0.
0.583991 0.0230051 0.
0.585992 0.0230044 0.
0.587993 0.0230037 0.
0.589995 0.0230035 0.
0.591996 0.0230039 0.
0.593997 0.0230042 0.
0.595998 0.0230039 0.
0.598 0.0230035 0.
0.600001 0.0230031 0.
0.602003 0.0230039 0.
0.604004 0.0230047 0.
0.606006 0.0230053 0.
0.608007 0.0230051 0.
0.610009 0.0230049 0.
0.61201 0.0230047 0.
0.614011 0.0230045 0.
0.616013 0.0230043 0.
0.618014 0.0230043 0.
0.620016 0.0230043 0.
0.622017 0.0230043 0.
0.624018 0.0230048 0.
0.626019 0.0230053 0.
0.628021 0.0230058 0.
0.630022 0.0230056 0.
0.632023 0.0230054 0.
0.634024 0.0230054 0.
0.636025 0.023006 0.
0.638027 0.0230065 0.
0.640028 0.0230066 0.
0.642029 0.0230063 0.
0.644031 0.023006 0.
0.646032 0.023006 0.
0.648034 0.023006 0.
0.650035 0.023006 0.
0.652036 0.0230054 0.
0.654038 0.0230048 0.
0.656039 0.0230043 0.
0.65804 0.0230043 0.
0.660041 0.0230044 0.
0.662042 0.0230047 0.
0.664044 0.0230053 0.
0.666045 0.0230059 0.
0.668046 0.0230062 0.
0.670047 0.0230062 0.
0.672048 0.0230063 0.
0.674049 0.023006 0.
0.676051 0.0230056 0.
0.678052 0.0230052 0.
0.680053 0.023005 0.
0.682055 0.0230048 0.
0.684056 0.0230049 0.
0.686057 0.0230054 0.
0.688058 0.0230059 0.
0.69006 0.0230065 0.
0.692061 0.0230071 0.
0.694062 0.0230077 0.
0.696063 0.0230086 0.
0.698064 0.0230096 0.
0.499942 0.0250126 0.
0.501942 0.0250121 0.
0.503942 0.0250114 0.
0.505943 0.0250107 0.
0.507944 0.0250098 0.
0.509945 0.0250089 0.
0.511945 0.0250083 0.
0.513946 0.0250081 0.
0.515947 0.0250079 0.
0.517947 0.0250072 0.
0.519948 0.0250063 0.
0.52195 0.0250053 0.
0.523951 0.0250047 0.
0.525953 0.0250042 0.
0.527954 0.0250038 0.
0.529956 0.0250039 0.
0.531957 0.0250041 0.
0.533959 0.0250042 0.
0.535961 0.0250039 0.
0.537963 0.0250036 0.
0.539964 0.0250033 0.
0.541965 0.025003 0.
0.543966 0.0250027 0.
0.545967 0.0250029 0.
0.547967 0.0250033 0.
0.549968 0.0250037 0.
0.551969 0.0250035 0.
0.553971 0.0250034 0.
0.555972 0.0250033 0.
0.557973 0.0250036 0.
0.559975 0.025004 0.
0.561976 0.0250041 0.
0.563977 0.0250037 0.
0.565978 0.0250034 0.
0.56798 0.025004 0.
0.569982 0.0250051 0.
0.571983 0.0250061 0.
0.573984 0.0250058 0.
0.575985 0.0250052 0.
0.577986 0.0250046 0.
0.579988 0.0250047 0.
0.58199 0.0250047 0.
0.583991 0.0250045 0.
0.585992 0.0250038 0.
0.587994 0.0250031 0.
0.589995 0.025003 0.
0.591996 0.0250035 0.
0.593997 0.0250039 0.
0.595999 0.0250037 0.
0.598 0.0250033 0.
0.600001 0.0250029 0.
0.602003 0.0250036 0.
0.604005 0.0250044 0.
0.606006 0.0250049 0.
0.608008 0.0250045 0.
0.61001 0.0250041 0.
0.612011 0.0250039 0.
0.614012 0.0250038 0.
0.616013 0.0250037 0.
0.618015 0.0250036 0.
0.620016 0.0250036 0.
0.622017 0.0250036 0.
0.624019 0.0250041 0.
0.62602 0.0250048 0.
0.628021 0.0250053 0.
0.630022 0.0250052 0.
0.632022 0.025005 0.
0.634023 0.025005 0.
0.636025 0.0250053 0.
0.638027 0.0250056 0.
0.640028 0.0250057 0.
0.642029 0.0250055 0.
0.64403 0.0250054 0.
0.646032 0.0250055 0.
0.648033 0.0250056 0.
0.650034 0.0250058 0.
0.652036 0.025005 0.
0.654037 0.0250043 0.
0.656039 0.0250037 0.
0.65804 0.0250039 0.
0.660042 0.0250041 0.
0.662043 0.0250045 0.
0.664043 0.0250051 0.
0.666044 0.0250056 0.
0.668045 0.025006 0.
0.670046 0.0250063 0.
0.672048 0.0250067 0.
0.674049 0.0250062 0.
0.67605 0.0250058 0.
0.678051 0.0250053 0.
0.680053 0.0250052 0.
0.682054 0.0250051 0.
0.684055 0.0250052 0.
0.686056 0.0250055 0.
0.688057 0.0250059 0.
0.690058 0.0250065 0.
0.69206 0.0250072 0.
0.694062 0.025008 0.
0.696062 0.0250091 0.
0.698063 0.0250103 0.
0.499943 0.0270133 0.
0.501943 0.0270127 0.
0.503943 0.0270122 0.
0.505944 0.0270115 0.
0.507945 0.0270106 0.
0.509946 0.0270096 0.
0.511947 0.0270089 0.
0.513947 0.0270083 0.
0.515948 0.0270078 0.
0.517949 0.0270071 0.
0.51995 0.0270062 0.
0.521951 0.0270054 0.
0.523952 0.0270047 0.
0.525954 0.0270042 0.
0.527955 0.0270036 0.
0.529957 0.0270035 0.
0.531958 0.0270034 0.
0.53396 0.0270032 0.
0.535961 0.0270029 0.
0.537963 0.0270026 0.
0.539964 0.0270025 0.
0.541965 0.0270027 0.
0.543966 0.0270028 0.
0.545967 0.0270029 0.
0.547968 0.0270029 0.
0.549969 0.0270029 0.
0.55197 0.0270031 0.
0.553971 0.0270032 0.
0.555972 0.0270034 0.
0.557973 0.0270033 0.
0.559974 0.0270033 0.
0.561976 0.0270033 0.
0.563977 0.0270033 0.
0.565979 0.0270033 0.
0.56798 0.0270039 0.
0.569982 0.0270048 0.
0.571983 0.0270058 0.
0.573984 0.0270052 0.
0.575985 0.0270044 0.
0.577986 0.0270037 0.
0.579988 0.0270037 0.
0.581989 0.0270036 0.
0.58399 0.0270035 0.
0.585991 0.027003 0.
0.587993 0.0270025 0.
0.589994 0.0270025 0.
0.591995 0.0270028 0.
0.593997 0.0270031 0.
0.595998 0.0270029 0.
0.598 0.0270025 0.
0.600001 0.0270022 0.
0.602003 0.0270026 0.
0.604005 0.0270031 0.
0.606007 0.0270034 0.
0.608008 0.0270033 0.
0.61001 0.0270032 0.
0.612011 0.0270031 0.
0.614012 0.027003 0.
0.616014 0.0270029 0.
0.618015 0.0270029 0.
0.620016 0.027003 0.
0.622017 0.0270031 0.
0.624019 0.0270034 0.
0.62602 0.0270038 0.
0.628021 0.0270042 0.
0.630022 0.0270043 0.
0.632022 0.0270045 0.
0.634023 0.0270046 0.
0.636025 0.0270047 0.
0.638027 0.0270047 0.
0.640028 0.0270048 0.
0.642029 0.0270048 0.
0.64403 0.0270048 0.
0.646032 0.0270048 0.
0.648033 0.0270048 0.
0.650034 0.0270048 0.
0.652035 0.0270044 0.
0.654037 0.0270039 0.
0.656038 0.0270036 0.
0.658039 0.0270037 0.
0.660041 0.0270039 0.
0.662042 0.0270042 0.
0.664042 0.0270048 0.
0.666043 0.0270054 0.
0.668044 0.0270057 0.
0.670046 0.0270058 0.
0.672047 0.0270059 0.
0.674048 0.0270057 0.
0.676049 0.0270055 0.
0.678051 0.0270052 0.
0.680052 0.0270051 0.
0.682053 0.027005 0.
0.684054 0.027005 0.
0.686055 0.0270054 0.
0.688056 0.0270058 0.
0.690057 0.0270067 0.
0.692059 0.0270079 0.
0.69406 0.0270092 0.
0.696061 0.0270102 0.
0.698061 0.0270111 0.
0.499944 0.0290141 0.
0.501944 0.0290133 0.
0.503945 0.0290129 0.
0.505945 0.0290123 0.
0.507946 0.0290113 0.
0.509947 0.0290104 0.
0.511948 0.0290094 0.
0.513949 0.0290086 0.
0.515949 0.0290077 0.
0.51795 0.0290069 0.
0.519951 0.0290062 0.
0.521952 0.0290054 0.
0.523953 0.0290048 0.
0.525955 0.0290041 0.
0.527956 0.0290035 0.
0.529957 0.029003 0.
0.531959 0.0290026 0.
0.53396 0.0290022 0.
0.535962 0.0290019 0.
0.537963 0.0290016 0.
0.539964 0.0290017 0.
0.541965 0.0290023 0.
0.543966 0.0290029 0.
0.545967 0.0290028 0.
0.547968 0.0290025 0.
0.549969 0.0290022 0.
0.55197 0.0290026 0.
0.553971 0.0290031 0.
0.555973 0.0290034 0.
0.557973 0.029003 0.
0.559974 0.0290026 0.
0.561976 0.0290025 0.
0.563977 0.0290028 0.
0.565979 0.0290031 0.
0.56798 0.0290037 0.
0.569982 0.0290046 0.
0.571983 0.0290054 0.
0.573984 0.0290047 0.
0.575985 0.0290037 0.
0.577986 0.0290028 0.
0.579987 0.0290027 0.
0.581988 0.0290026 0.
0.583989 0.0290024 0.
0.585991 0.0290022 0.
0.587992 0.0290019 0.
0.589993 0.0290019 0.
0.591995 0.0290021 0.
0.593996 0.0290022 0.
0.595998 0.0290021 0.
0.597999 0.0290017 0.
0.600001 0.0290014 0.
0.602003 0.0290016 0.
0.604005 0.0290018 0.
0.606007 0.029002 0.
0.608008 0.0290021 0.
0.61001 0.0290022 0.
0.612011 0.0290023 0.
0.614013 0.0290022 0.
0.616014 0.0290021 0.
0.618015 0.0290022 0.
0.620016 0.0290024 0.
0.622018 0.0290026 0.
0.624019 0.0290027 0.
0.62602 0.0290028 0.
0.628021 0.029003 0.
0.630021 0.0290035 0.
0.632022 0.029004 0.
0.634023 0.0290042 0.
0.636025 0.029004 0.
0.638027 0.0290038 0.
0.640028 0.0290039 0.
0.642029 0.0290041 0.
0.64403 0.0290042 0.
0.646031 0.0290042 0.
0.648032 0.029004 0.
0.650033 0.0290038 0.
0.652035 0.0290037 0.
0.654036 0.0290036 0.
0.656038 0.0290036 0.
0.658039 0.0290036 0.
0.66004 0.0290036 0.
0.662041 0.0290039 0.
0.664041 0.0290046 0.
0.666042 0.0290053 0.
0.668044 0.0290054 0.
0.670045 0.0290053 0.
0.672046 0.0290052 0.
0.674047 0.0290052 0.
0.676049 0.0290052 0.
0.67805 0.0290051 0.
0.680051 0.029005 0.
0.682052 0.0290048 0.
0.684053 0.0290049 0.
0.686054 0.0290054 0.
0.688055 0.0290058 0.
0.690056 0.029007 0.
0.692057 0.0290086 0.
0.694058 0.0290103 0.
0.696059 0.0290112 0.
0.69806 0.0290119 0.
0.499945 0.0310147 0.
0.501945 0.0310139 0.
0.503946 0.0310134 0.
0.505946 0.0310128 0.
0.507947 0.0310117 0.
0.509948 0.0310107 0.
0.511949 0.0310097 0.
0.51395 0.0310088 0.
0.515951 0.0310079 0.
0.517951 0.031007 0.
0.519952 0.0310062 0.
0.521953 0.0310054 0.
0.523955 0.0310047 0.
0.525956 0.0310039 0.
0.527957 0.0310032 0.
0.529958 0.0310026 0.
0.531959 0.0310021 0.
0.533961 0.0310016 0.
0.535962 0.0310012 0.
0.537963 0.0310008 0.
0.539965 0.0310011 0.
0.541966 0.031002 0.
0.543967 0.0310028 0.
0.545968 0.0310027 0.
0.547969 0.0310022 0.
0.549969 0.0310018 0.
0.551971 0.0310023 0.
0.553972 0.0310028 0.
0.555973 0.0310031 0.
0.557974 0.0310026 0.
0.559975 0.0310021 0.
0.561976 0.031002 0.
0.563977 0.0310026 0.
0.565979 0.0310031 0.
0.567981 0.0310036 0.
0.569982 0.0310042 0.
0.571983 0.0310047 0.
0.573984 0.0310039 0.
0.575985 0.031003 0.
0.577987 0.0310021 0.
0.579987 0.0310019 0.
0.581988 0.0310017 0.
0.583989 0.0310015 0.
0.58599 0.0310013 0.
0.587992 0.0310011 0.
0.589993 0.0310011 0.
0.591995 0.0310012 0.
0.593996 0.0310013 0.
0.595997 0.0310012 0.
0.597999 0.0310009 0.
0.6 0.0310007 0.
0.602003 0.0310008 0.
0.604005 0.0310008 0.
0.606007 0.0310009 0.
0.608008 0.0310012 0.
0.61001 0.0310014 0.
0.612011 0.0310015 0.
0.614012 0.0310014 0.
0.616014 0.0310013 0.
0.618015 0.0310015 0.
0.620016 0.0310018 0.
0.622017 0.0310021 0.
0.624018 0.0310022 0.
0.62602 0.0310024 0.
0.628021 0.0310026 0.
0.630022 0.0310032 0.
0.632022 0.0310037 0.
0.634024 0.031004 0.
0.636025 0.0310037 0.
0.638026 0.0310034 0.
0.640028 0.0310035 0.
0.642029 0.0310037 0.
0.64403 0.031004 0.
0.646031 0.0310038 0.
0.648032 0.0310035 0.
0.650033 0.0310031 0.
0.652034 0.0310033 0.
0.654036 0.0310034 0.
0.656037 0.0310035 0.
0.658038 0.0310035 0.
0.660039 0.0310036 0.
0.66204 0.0310038 0.
0.664041 0.0310044 0.
0.666042 0.031005 0.
0.668043 0.0310051 0.
0.670044 0.031005 0.
0.672046 0.0310049 0.
0.674047 0.0310049 0.
0.676048 0.0310049 0.
0.67805 0.031005 0.
0.680051 0.031005 0.
0.682052 0.0310049 0.
0.684053 0.0310051 0.
0.686054 0.0310057 0.
0.688055 0.0310062 0.
0.690056 0.0310075 0.
0.692056 0.0310093 0.
0.694057 0.0310112 0.
0.696058 0.0310121 0.
0.698059 0.0310128 0.
0.499946 0.0330152 0.
0.501946 0.0330144 0.
0.503947 0.0330137 0.
0.505947 0.033013 0.
0.507949 0.0330118 0.
0.50995 0.0330106 0.
0.511951 0.0330097 0.
0.513951 0.033009 0.
0.515952 0.0330083 0.
0.517953 0.0330074 0.
0.519954 0.0330064 0.
0.521955 0.0330054 0.
0.523956 0.0330045 0.
0.525957 0.0330036 0.
0.527958 0.0330028 0.
0.529959 0.0330022 0.
0.53196 0.0330017 0.
0.533961 0.0330012 0.
0.535963 0.0330007 0.
0.537964 0.0330003 0.
0.539965 0.0330006 0.
0.541966 0.0330015 0.
0.543967 0.0330025 0.
0.545968 0.0330025 0.
0.547969 0.0330022 0.
0.54997 0.0330018 0.
0.551971 0.033002 0.
0.553972 0.0330022 0.
0.555973 0.0330023 0.
0.557974 0.0330021 0.
0.559975 0.0330018 0.
0.561976 0.0330019 0.
0.563978 0.0330026 0.
0.565979 0.0330032 0.
0.56798 0.0330035 0.
0.569982 0.0330035 0.
0.571983 0.0330036 0.
0.573984 0.0330029 0.
0.575985 0.0330022 0.
0.577987 0.0330014 0.
0.579988 0.0330012 0.
0.581989 0.033001 0.
0.58399 0.0330008 0.
0.585991 0.0330004 0.
0.587992 0.033 0.
0.589993 0.0329999 0.
0.591995 0.0330001 0.
0.593996 0.0330002 0.
0.595997 0.0330002 0.
0.597999 0.0330001 0.
0.6 0.033 0.
0.602003 0.033 0.
0.604005 0.0330001 0.
0.606007 0.0330002 0.
0.608008 0.0330004 0.
0.610009 0.0330007 0.
0.61201 0.0330008 0.
0.614012 0.0330006 0.
0.616013 0.0330005 0.
0.618014 0.0330007 0.
0.620016 0.0330011 0.
0.622017 0.0330015 0.
0.624018 0.033002 0.
0.626019 0.0330025 0.
0.628021 0.033003 0.
0.630022 0.0330034 0.
0.632023 0.0330038 0.
0.634024 0.033004 0.
0.636025 0.0330038 0.
0.638026 0.0330035 0.
0.640027 0.0330036 0.
0.642028 0.0330039 0.
0.644029 0.0330041 0.
0.64603 0.0330038 0.
0.648032 0.0330033 0.
0.650033 0.0330028 0.
0.652034 0.033003 0.
0.654035 0.0330032 0.
0.656036 0.0330034 0.
0.658038 0.0330036 0.
0.660039 0.0330038 0.
0.66204 0.033004 0.
0.664041 0.0330043 0.
0.666042 0.0330047 0.
0.668043 0.0330048 0.
0.670044 0.0330049 0.
0.672046 0.033005 0.
0.674047 0.0330049 0.
0.676049 0.0330048 0.
0.67805 0.0330047 0.
0.680051 0.033005 0.
0.682052 0.0330053 0.
0.684053 0.0330057 0.
0.686054 0.0330064 0.
0.688054 0.0330071 0.
0.690055 0.0330083 0.
0.692055 0.03301 0.
0.694056 0.0330117 0.
0.696056 0.0330128 0.
0.698057 0.0330138 0.
0.499946 0.0350157 0.
0.501947 0.0350148 0.
0.503948 0.035014 0.
0.505948 0.0350132 0.
0.50795 0.0350119 0.
0.509951 0.0350106 0.
0.511952 0.0350096 0.
0.513953 0.0350091 0.
0.515953 0.0350086 0.
0.517954 0.0350077 0.
0.519955 0.0350065 0.
0.521956 0.0350053 0.
0.523957 0.0350043 0.
0.525958 0.0350033 0.
0.527959 0.0350024 0.
0.52996 0.0350019 0.
0.531961 0.0350013 0.
0.533962 0.0350008 0.
0.535963 0.0350003 0.
0.537964 0.0349998 0.
0.539965 0.0350001 0.
0.541966 0.0350011 0.
0.543967 0.0350021 0.
0.545968 0.0350023 0.
0.54797 0.0350021 0.
0.549971 0.0350019 0.
0.551972 0.0350018 0.
0.553973 0.0350017 0.
0.555974 0.0350015 0.
0.557975 0.0350015 0.
0.559976 0.0350015 0.
0.561977 0.0350019 0.
0.563978 0.0350026 0.
0.565979 0.0350034 0.
0.56798 0.0350034 0.
0.569981 0.0350029 0.
0.571982 0.0350025 0.
0.573984 0.0350019 0.
0.575985 0.0350014 0.
0.577987 0.0350008 0.
0.579988 0.0350006 0.
0.581989 0.0350003 0.
0.583991 0.035 0.
0.585992 0.0349994 0.
0.587993 0.0349988 0.
0.589994 0.0349987 0.
0.591995 0.0349989 0.
0.593995 0.0349992 0.
0.595997 0.0349992 0.
0.597999 0.0349992 0.
0.6 0.0349992 0.
0.602002 0.0349993 0.
0.604004 0.0349993 0.
0.606006 0.0349994 0.
0.608007 0.0349997 0.
0.610008 0.035 0.
0.61201 0.035 0.
0.614011 0.0349998 0.
0.616013 0.0349996 0.
0.618014 0.0349999 0.
0.620015 0.0350004 0.
0.622016 0.0350009 0.
0.624018 0.0350017 0.
0.626019 0.0350026 0.
0.628021 0.0350034 0.
0.630022 0.0350036 0.
0.632023 0.0350039 0.
0.634024 0.035004 0.
0.636025 0.0350038 0.
0.638025 0.0350036 0.
0.640026 0.0350037 0.
0.642027 0.035004 0.
0.644028 0.0350042 0.
0.64603 0.0350037 0.
0.648031 0.0350031 0.
0.650033 0.0350024 0.
0.652034 0.0350027 0.
0.654035 0.035003 0.
0.656036 0.0350034 0.
0.658037 0.0350037 0.
0.660038 0.0350039 0.
0.662039 0.0350042 0.
0.664041 0.0350043 0.
0.666042 0.0350044 0.
0.668043 0.0350046 0.
0.670044 0.0350048 0.
0.672045 0.0350051 0.
0.674047 0.0350049 0.
0.676049 0.0350046 0.
0.67805 0.0350044 0.
0.680051 0.0350051 0.
0.682052 0.0350057 0.
0.684053 0.0350063 0.
0.686053 0.0350071 0.
0.688054 0.0350079 0.
0.690054 0.0350091 0.
0.692054 0.0350107 0.
0.694054 0.0350122 0.
0.696055 0.0350136 0.
0.698056 0.0350148 0.
0.499948 0.0370166 0.
0.501949 0.0370153 0.
0.50395 0.0370143 0.
0.50595 0.0370132 0.
0.507951 0.0370122 0.
0.509952 0.0370111 0.
0.511953 0.0370102 0.
0.513954 0.0370095 0.
0.515955 0.0370088 0.
0.517955 0.0370079 0.
0.519956 0.0370069 0.
0.521957 0.0370059 0.
0.523958 0.0370047 0.
0.525959 0.0370034 0.
0.52796 0.0370021 0.
0.529961 0.0370016 0.
0.531962 0.0370011 0.
0.533963 0.0370006 0.
0.535964 0.0370001 0.
0.537964 0.0369996 0.
0.539965 0.0369997 0.
0.541967 0.0370003 0.
0.543968 0.0370009 0.
0.545969 0.0370013 0.
0.54797 0.0370016 0.
0.549971 0.0370018 0.
0.551972 0.0370018 0.
0.553973 0.0370017 0.
0.555974 0.0370017 0.
0.557975 0.0370015 0.
0.559976 0.0370013 0.
0.561978 0.0370015 0.
0.563979 0.0370022 0.
0.56598 0.0370029 0.
0.567981 0.0370028 0.
0.569982 0.0370024 0.
0.571983 0.037002 0.
0.573984 0.0370018 0.
0.575986 0.0370016 0.
0.577987 0.0370014 0.
0.579988 0.0370007 0.
0.581989 0.0369999 0.
0.58399 0.0369992 0.
0.585992 0.0369985 0.
0.587993 0.0369979 0.
0.589994 0.0369977 0.
0.591995 0.036998 0.
0.593996 0.0369983 0.
0.595997 0.0369985 0.
0.597999 0.0369985 0.
0.600001 0.0369986 0.
0.602002 0.0369989 0.
0.604004 0.0369991 0.
0.606006 0.0369993 0.
0.608007 0.0369994 0.
0.610008 0.0369995 0.
0.612009 0.0369994 0.
0.614011 0.0369991 0.
0.616012 0.0369988 0.
0.618013 0.0369989 0.
0.620015 0.0369992 0.
0.622016 0.0369995 0.
0.624017 0.0370005 0.
0.626019 0.0370015 0.
0.62802 0.0370024 0.
0.630021 0.0370028 0.
0.632022 0.0370031 0.
0.634023 0.0370033 0.
0.636024 0.0370033 0.
0.638025 0.0370033 0.
0.640026 0.0370034 0.
0.642027 0.0370036 0.
0.644028 0.0370038 0.
0.64603 0.0370033 0.
0.648031 0.0370027 0.
0.650032 0.0370021 0.
0.652033 0.0370024 0.
0.654034 0.0370027 0.
0.656035 0.0370029 0.
0.658037 0.0370031 0.
0.660038 0.0370033 0.
0.662039 0.0370036 0.
0.66404 0.0370039 0.
0.666041 0.0370042 0.
0.668042 0.0370044 0.
0.670044 0.0370045 0.
0.672046 0.0370047 0.
0.674047 0.0370046 0.
0.676048 0.0370045 0.
0.678049 0.0370045 0.
0.68005 0.0370054 0.
0.68205 0.0370063 0.
0.684051 0.037007 0.
0.686052 0.0370076 0.
0.688052 0.0370081 0.
0.690053 0.0370093 0.
0.692053 0.0370108 0.
0.694054 0.0370124 0.
0.696054 0.0370139 0.
0.698055 0.0370154 0.
0.49995 0.0390174 0.
0.501951 0.0390159 0.
0.503952 0.0390145 0.
0.505952 0.0390133 0.
0.507953 0.0390124 0.
0.509954 0.0390116 0.
0.511954 0.0390107 0.
0.513955 0.0390098 0.
0.515956 0.039009 0.
0.517957 0.0390082 0.
0.519957 0.0390074 0.
0.521958 0.0390066 0.
0.523959 0.0390051 0.
0.52596 0.0390034 0.
0.527961 0.0390018 0.
0.529961 0.0390013 0.
0.531962 0.0390009 0.
0.533963 0.0390004 0.
0.535964 0.0389999 0.
0.537965 0.0389994 0.
0.539966 0.0389993 0.
0.541967 0.0389995 0.
0.543968 0.0389996 0.
0.545969 0.0390002 0.
0.54797 0.039001 0.
0.549971 0.0390018 0.
0.551972 0.0390018 0.
0.553973 0.0390018 0.
0.555974 0.0390018 0.
0.557976 0.0390014 0.
0.559977 0.0390011 0.
0.561978 0.0390012 0.
0.563979 0.0390017 0.
0.565981 0.0390023 0.
0.567982 0.0390023 0.
0.569982 0.0390019 0.
0.571983 0.0390015 0.
0.573985 0.0390017 0.
0.575986 0.0390019 0.
0.577987 0.039002 0.
0.579988 0.0390008 0.
0.581989 0.0389995 0.
0.58399 0.0389984 0.
0.585991 0.0389976 0.
0.587993 0.0389969 0.
0.589994 0.0389967 0.
0.591995 0.0389971 0.
0.593996 0.0389975 0.
0.595998 0.0389977 0.
0.597999 0.0389978 0.
0.600001 0.0389979 0.
0.602003 0.0389984 0.
0.604004 0.0389989 0.
0.606006 0.0389992 0.
0.608007 0.0389991 0.
0.610008 0.038999 0.
0.612009 0.0389987 0.
0.61401 0.0389983 0.
0.616011 0.0389979 0.
0.618013 0.0389979 0.
0.620014 0.0389981 0.
0.622016 0.0389982 0.
0.624017 0.0389993 0.
0.626018 0.0390004 0.
0.628019 0.0390014 0.
0.630021 0.0390019 0.
0.632022 0.0390023 0.
0.634023 0.0390027 0.
0.636024 0.0390028 0.
0.638025 0.0390029 0.
0.640026 0.039003 0.
0.642028 0.0390032 0.
0.644029 0.0390033 0.
0.64603 0.0390029 0.
0.648031 0.0390024 0.
0.650032 0.0390018 0.
0.652033 0.0390021 0.
0.654033 0.0390023 0.
0.656035 0.0390025 0.
0.658036 0.0390026 0.
0.660038 0.0390027 0.
0.662039 0.039003 0.
0.664039 0.0390036 0.
0.66604 0.0390041 0.
0.668042 0.0390043 0.
0.670044 0.0390043 0.
0.672046 0.0390043 0.
0.674046 0.0390043 0.
0.676047 0.0390044 0.
0.678047 0.0390046 0.
0.680048 0.0390057 0.
0.682049 0.0390069 0.
0.68405 0.0390077 0.
0.68605 0.039008 0.
0.688051 0.0390083 0.
0.690052 0.0390094 0.
0.692052 0.039011 0.
0.694053 0.0390126 0.
0.696053 0.0390143 0.
0.698054 0.0390159 0.
0.499952 0.0410178 0.
0.501953 0.0410162 0.
0.503953 0.0410147 0.
0.505954 0.0410134 0.
0.507955 0.0410126 0.
0.509955 0.0410119 0.
0.511956 0.041011 0.
0.513956 0.04101 0.
0.515957 0.0410091 0.
0.517958 0.0410082 0.
0.519959 0.0410075 0.
0.52196 0.0410067 0.
0.52396 0.0410052 0.
0.525961 0.0410036 0.
0.527962 0.041002 0.
0.529962 0.0410014 0.
0.531963 0.0410009 0.
0.533964 0.0410003 0.
0.535965 0.0409998 0.
0.537966 0.0409994 0.
0.539967 0.0409991 0.
0.541968 0.040999 0.
0.543969 0.0409989 0.
0.54597 0.0409996 0.
0.54797 0.0410005 0.
0.549971 0.0410014 0.
0.551972 0.0410015 0.
0.553973 0.0410015 0.
0.555975 0.0410015 0.
0.557976 0.0410011 0.
0.559977 0.0410008 0.
0.561978 0.0410008 0.
0.56398 0.0410012 0.
0.565981 0.0410016 0.
0.567982 0.0410016 0.
0.569983 0.0410012 0.
0.571984 0.0410009 0.
0.573985 0.0410012 0.
0.575986 0.0410016 0.
0.577987 0.0410018 0.
0.579988 0.0410004 0.
0.581989 0.0409991 0.
0.58399 0.0409979 0.
0.585991 0.0409972 0.
0.587993 0.0409964 0.
0.589994 0.0409962 0.
0.591995 0.0409966 0.
0.593997 0.040997 0.
0.595998 0.0409972 0.
0.597999 0.0409974 0.
0.600001 0.0409977 0.
0.602003 0.0409981 0.
0.604005 0.0409985 0.
0.606006 0.0409988 0.
0.608007 0.0409986 0.
0.610008 0.0409984 0.
0.612009 0.0409981 0.
0.61401 0.0409976 0.
0.616011 0.040997 0.
0.618013 0.040997 0.
0.620014 0.0409973 0.
0.622015 0.0409975 0.
0.624017 0.0409985 0.
0.626018 0.0409996 0.
0.628019 0.0410006 0.
0.63002 0.0410011 0.
0.632022 0.0410015 0.
0.634023 0.0410019 0.
0.636024 0.0410021 0.
0.638025 0.0410023 0.
0.640026 0.0410025 0.
0.642028 0.0410027 0.
0.644029 0.0410029 0.
0.64603 0.0410026 0.
0.64803 0.0410021 0.
0.650031 0.0410017 0.
0.652032 0.0410018 0.
0.654033 0.0410019 0.
0.656034 0.0410021 0.
0.658035 0.0410022 0.
0.660037 0.0410024 0.
0.662038 0.0410028 0.
0.664039 0.0410033 0.
0.666039 0.0410039 0.
0.668041 0.0410041 0.
0.670043 0.0410042 0.
0.672044 0.0410042 0.
0.674045 0.0410044 0.
0.676045 0.0410046 0.
0.678046 0.0410049 0.
0.680047 0.0410061 0.
0.682048 0.0410073 0.
0.684048 0.0410081 0.
0.686049 0.0410084 0.
0.68805 0.0410087 0.
0.69005 0.0410098 0.
0.692051 0.0410114 0.
0.694051 0.041013 0.
0.696052 0.0410147 0.
0.698052 0.0410164 0.
0.499953 0.0430176 0.
0.501954 0.0430162 0.
0.503955 0.0430148 0.
0.505955 0.0430136 0.
0.507956 0.0430127 0.
0.509956 0.0430119 0.
0.511957 0.043011 0.
0.513958 0.0430101 0.
0.515958 0.0430091 0.
0.517959 0.0430082 0.
0.51996 0.0430072 0.
0.521961 0.0430063 0.
0.523962 0.0430051 0.
0.525962 0.0430039 0.
0.527963 0.0430027 0.
0.529964 0.0430019 0.
0.531964 0.0430011 0.
0.533965 0.0430004 0.
0.535966 0.0429999 0.
0.537966 0.0429994 0.
0.539967 0.0429991 0.
0.541968 0.042999 0.
0.543969 0.0429988 0.
0.54597 0.0429993 0.
0.547971 0.043 0.
0.549971 0.0430007 0.
0.551973 0.0430008 0.
0.553974 0.0430008 0.
0.555975 0.0430008 0.
0.557976 0.0430005 0.
0.559977 0.0430003 0.
0.561979 0.0430003 0.
0.56398 0.0430005 0.
0.565981 0.0430008 0.
0.567982 0.0430007 0.
0.569983 0.0430004 0.
0.571984 0.0430001 0.
0.573985 0.0430003 0.
0.575987 0.0430006 0.
0.577988 0.0430008 0.
0.579989 0.0429997 0.
0.58199 0.0429986 0.
0.583991 0.0429977 0.
0.585992 0.042997 0.
0.587993 0.0429964 0.
0.589994 0.0429963 0.
0.591995 0.0429965 0.
0.593997 0.0429968 0.
0.595998 0.0429971 0.
0.597999 0.0429975 0.
0.600001 0.0429978 0.
0.602003 0.0429979 0.
0.604005 0.042998 0.
0.606006 0.042998 0.
0.608007 0.0429979 0.
0.610008 0.0429978 0.
0.612009 0.0429974 0.
0.61401 0.0429968 0.
0.616011 0.0429962 0.
0.618013 0.0429964 0.
0.620014 0.0429969 0.
0.622015 0.0429975 0.
0.624016 0.0429983 0.
0.626018 0.0429991 0.
0.628019 0.0429999 0.
0.63002 0.0430002 0.
0.632022 0.0430006 0.
0.634023 0.0430009 0.
0.636024 0.0430012 0.
0.638025 0.0430016 0.
0.640026 0.0430019 0.
0.642027 0.0430022 0.
0.644028 0.0430025 0.
0.646029 0.0430024 0.
0.64803 0.043002 0.
0.650031 0.0430017 0.
0.652032 0.0430016 0.
0.654033 0.0430016 0.
0.656033 0.0430016 0.
0.658034 0.043002 0.
0.660035 0.0430024 0.
0.662036 0.0430028 0.
0.664037 0.0430032 0.
0.666038 0.0430036 0.
0.668039 0.043004 0.
0.670041 0.0430043 0.
0.672042 0.0430045 0.
0.674043 0.0430048 0.
0.676044 0.043005 0.
0.678045 0.0430054 0.
0.680046 0.0430064 0.
0.682047 0.0430074 0.
0.684047 0.0430082 0.
0.686048 0.0430088 0.
0.688049 0.0430093 0.
0.690049 0.0430104 0.
0.69205 0.0430119 0.
0.69405 0.0430135 0.
0.69605 0.0430151 0.
0.698051 0.0430168 0.
0.499954 0.0450176 0.
0.501955 0.0450163 0.
0.503956 0.045015 0.
0.505957 0.0450138 0.
0.507957 0.0450129 0.
0.509958 0.045012 0.
0.511958 0.045011 0.
0.513959 0.0450101 0.
0.515959 0.0450092 0.
0.51796 0.0450081 0.
0.519961 0.0450069 0.
0.521963 0.0450058 0.
0.523963 0.045005 0.
0.525964 0.0450042 0.
0.527964 0.0450034 0.
0.529965 0.0450024 0.
0.531966 0.0450014 0.
0.533966 0.0450005 0.
0.535967 0.045 0.
0.537967 0.0449995 0.
0.539968 0.0449991 0.
0.541969 0.0449989 0.
0.54397 0.0449987 0.
0.545971 0.044999 0.
0.547971 0.0449996 0.
0.549972 0.0450001 0.
0.551973 0.0450001 0.
0.553974 0.0450001 0.
0.555975 0.0450001 0.
0.557976 0.045 0.
0.559978 0.0449999 0.
0.561979 0.0449999 0.
0.56398 0.0449999 0.
0.565981 0.0449999 0.
0.567982 0.0449998 0.
0.569983 0.0449995 0.
0.571985 0.0449993 0.
0.573986 0.0449995 0.
0.575987 0.0449997 0.
0.577988 0.0449998 0.
0.579989 0.044999 0.
0.58199 0.0449982 0.
0.583991 0.0449975 0.
0.585992 0.0449969 0.
0.587994 0.0449964 0.
0.589995 0.0449963 0.
0.591996 0.0449965 0.
0.593997 0.0449967 0.
0.595998 0.044997 0.
0.597999 0.0449975 0.
0.6 0.0449979 0.
0.602003 0.0449977 0.
0.604005 0.0449974 0.
0.606006 0.0449973 0.
0.608007 0.0449972 0.
0.610008 0.0449971 0.
0.612009 0.0449968 0.
0.61401 0.044996 0.
0.616011 0.0449953 0.
0.618013 0.0449957 0.
0.620014 0.0449966 0.
0.622015 0.0449974 0.
0.624016 0.0449981 0.
0.626018 0.0449987 0.
0.628019 0.0449992 0.
0.63002 0.0449994 0.
0.632021 0.0449996 0.
0.634023 0.0449999 0.
0.636024 0.0450004 0.
0.638025 0.0450008 0.
0.640026 0.0450013 0.
0.642027 0.0450017 0.
0.644028 0.0450022 0.
0.646029 0.0450021 0.
0.64803 0.0450019 0.
0.650031 0.0450017 0.
0.652032 0.0450015 0.
0.654032 0.0450012 0.
0.656033 0.0450012 0.
0.658033 0.0450018 0.
0.660034 0.0450024 0.
0.662035 0.0450029 0.
0.664036 0.0450031 0.
0.666037 0.0450034 0.
0.668038 0.0450038 0.
0.670039 0.0450043 0.
0.672039 0.0450049 0.
0.674041 0.0450052 0.
0.676043 0.0450055 0.
0.678044 0.0450058 0.
0.680045 0.0450067 0.
0.682046 0.0450075 0.
0.684046 0.0450083 0.
0.686047 0.0450091 0.
0.688048 0.0450099 0.
0.690048 0.0450111 0.
0.692048 0.0450125 0.
0.694049 0.045014 0.
0.696049 0.0450155 0.
0.69805 0.0450171 0.
0.499956 0.0470174 0.
0.501956 0.0470162 0.
0.503957 0.0470149 0.
0.505958 0.0470137 0.
0.507958 0.0470128 0.
0.509959 0.047012 0.
0.511959 0.047011 0.
0.51396 0.0470099 0.
0.51596 0.0470088 0.
0.517961 0.0470077 0.
0.519962 0.0470066 0.
0.521963 0.0470056 0.
0.523964 0.0470047 0.
0.525965 0.0470039 0.
0.527965 0.0470031 0.
0.529966 0.0470022 0.
0.531967 0.0470013 0.
0.533967 0.0470005 0.
0.535968 0.0469999 0.
0.537969 0.0469993 0.
0.53997 0.0469989 0.
0.54197 0.0469988 0.
0.543971 0.0469988 0.
0.545971 0.0469989 0.
0.547972 0.0469992 0.
0.549972 0.0469994 0.
0.551973 0.0469995 0.
0.553974 0.0469996 0.
0.555976 0.0469996 0.
0.557977 0.0469995 0.
0.559978 0.0469994 0.
0.561979 0.0469993 0.
0.56398 0.0469993 0.
0.565982 0.0469992 0.
0.567983 0.0469991 0.
0.569984 0.046999 0.
0.571985 0.0469988 0.
0.573986 0.046999 0.
0.575987 0.0469992 0.
0.577988 0.0469993 0.
0.579989 0.0469984 0.
0.58199 0.0469975 0.
0.583992 0.0469967 0.
0.585993 0.0469963 0.
0.587994 0.0469958 0.
0.589995 0.0469957 0.
0.591996 0.0469959 0.
0.593996 0.046996 0.
0.595998 0.0469964 0.
0.597999 0.0469968 0.
0.6 0.0469972 0.
0.602002 0.046997 0.
0.604004 0.0469968 0.
0.606006 0.0469966 0.
0.608007 0.0469966 0.
0.610008 0.0469966 0.
0.612009 0.0469964 0.
0.61401 0.046996 0.
0.616011 0.0469955 0.
0.618012 0.0469957 0.
0.620013 0.0469961 0.
0.622014 0.0469965 0.
0.624015 0.0469973 0.
0.626017 0.0469981 0.
0.628018 0.0469989 0.
0.63002 0.0469989 0.
0.632021 0.046999 0.
0.634022 0.0469992 0.
0.636023 0.0469995 0.
0.638025 0.0469998 0.
0.640026 0.0470003 0.
0.642027 0.0470009 0.
0.644027 0.0470015 0.
0.646028 0.0470017 0.
0.648029 0.0470018 0.
0.65003 0.0470019 0.
0.652031 0.0470017 0.
0.654031 0.0470016 0.
0.656032 0.0470016 0.
0.658033 0.0470018 0.
0.660034 0.0470021 0.
0.662035 0.0470024 0.
0.664036 0.0470026 0.
0.666037 0.0470029 0.
0.668038 0.0470034 0.
0.670038 0.047004 0.
0.672039 0.0470046 0.
0.67404 0.0470049 0.
0.676041 0.0470053 0.
0.678043 0.0470057 0.
0.680043 0.0470068 0.
0.682044 0.0470078 0.
0.684045 0.0470087 0.
0.686046 0.0470095 0.
0.688046 0.0470103 0.
0.690046 0.0470114 0.
0.692047 0.0470129 0.
0.694047 0.0470143 0.
0.696047 0.0470162 0.
0.698048 0.0470181 0.
0.499957 0.0490173 0.
0.501958 0.0490162 0.
0.503958 0.0490149 0.
0.505959 0.0490137 0.
0.50796 0.0490128 0.
0.50996 0.049012 0.
0.511961 0.049011 0.
0.513961 0.0490097 0.
0.515961 0.0490085 0.
0.517962 0.0490074 0.
0.519963 0.0490063 0.
0.521964 0.0490053 0.
0.523965 0.0490044 0.
0.525965 0.0490036 0.
0.527966 0.0490028 0.
0.529967 0.049002 0.
0.531968 0.0490012 0.
0.533968 0.0490005 0.
0.535969 0.0489998 0.
0.53797 0.048999 0.
0.539971 0.0489987 0.
0.541972 0.0489988 0.
0.543972 0.0489988 0.
0.545972 0.0489988 0.
0.547972 0.0489988 0.
0.549972 0.0489988 0.
0.551973 0.0489989 0.
0.553975 0.0489991 0.
0.555976 0.0489992 0.
0.557977 0.048999 0.
0.559979 0.0489988 0.
0.56198 0.0489987 0.
0.563981 0.0489986 0.
0.565982 0.0489986 0.
0.567983 0.0489985 0.
0.569984 0.0489984 0.
0.571986 0.0489984 0.
0.573986 0.0489985 0.
0.575987 0.0489986 0.
0.577988 0.0489987 0.
0.579989 0.0489977 0.
0.581991 0.0489968 0.
0.583992 0.048996 0.
0.585993 0.0489956 0.
0.587994 0.0489953 0.
0.589995 0.0489952 0.
0.591995 0.0489952 0.
0.593996 0.0489953 0.
0.595998 0.0489957 0.
0.597999 0.0489961 0.
0.6 0.0489966 0.
0.602002 0.0489963 0.
0.604004 0.0489961 0.
0.606006 0.0489959 0.
0.608007 0.048996 0.
0.610008 0.048996 0.
0.612009 0.048996 0.
0.61401 0.0489959 0.
0.61601 0.0489957 0.
0.618011 0.0489957 0.
0.620012 0.0489956 0.
0.622013 0.0489956 0.
0.624014 0.0489965 0.
0.626016 0.0489976 0.
0.628018 0.0489985 0.
0.630019 0.0489985 0.
0.63202 0.0489985 0.
0.634021 0.0489985 0.
0.636023 0.0489986 0.
0.638024 0.0489987 0.
0.640025 0.0489993 0.
0.642026 0.0490001 0.
0.644027 0.0490009 0.
0.646028 0.0490013 0.
0.648028 0.0490017 0.
0.650029 0.049002 0.
0.65203 0.049002 0.
0.654031 0.049002 0.
0.656032 0.0490019 0.
0.658032 0.0490019 0.
0.660033 0.0490018 0.
0.662034 0.0490019 0.
0.664035 0.0490021 0.
0.666036 0.0490024 0.
0.668037 0.0490029 0.
0.670037 0.0490036 0.
0.672038 0.0490042 0.
0.674039 0.0490047 0.
0.67604 0.0490051 0.
0.678041 0.0490057 0.
0.680042 0.0490068 0.
0.682043 0.049008 0.
0.684044 0.0490091 0.
0.686044 0.0490099 0.
0.688044 0.0490107 0.
0.690045 0.0490118 0.
0.692045 0.0490132 0.
0.694045 0.0490147 0.
0.696046 0.0490168 0.
0.698046 0.0490191 0.
0.499959 0.0510175 0.
0.501959 0.0510165 0.
0.50396 0.0510154 0.
0.50596 0.0510143 0.
0.507961 0.0510132 0.
0.509961 0.051012 0.
0.511962 0.0510109 0.
0.513962 0.0510096 0.
0.515962 0.0510083 0.
0.517963 0.0510072 0.
0.519964 0.0510062 0.
0.521965 0.0510052 0.
0.523966 0.0510044 0.
0.525966 0.0510036 0.
0.527967 0.0510028 0.
0.529968 0.0510021 0.
0.531968 0.0510014 0.
0.533969 0.0510007 0.
0.53597 0.0509999 0.
0.537971 0.0509992 0.
0.539972 0.0509988 0.
0.541972 0.0509989 0.
0.543973 0.0509989 0.
0.545973 0.0509988 0.
0.547973 0.0509987 0.
0.549973 0.0509987 0.
0.551974 0.0509987 0.
0.553975 0.0509987 0.
0.555976 0.0509987 0.
0.557978 0.0509985 0.
0.559979 0.0509983 0.
0.56198 0.0509982 0.
0.563981 0.0509981 0.
0.565982 0.050998 0.
0.567983 0.0509978 0.
0.569984 0.0509977 0.
0.571986 0.0509975 0.
0.573987 0.0509976 0.
0.575987 0.0509978 0.
0.577988 0.0509978 0.
0.57999 0.0509969 0.
0.581991 0.050996 0.
0.583992 0.0509953 0.
0.585993 0.0509951 0.
0.587994 0.0509948 0.
0.589995 0.0509947 0.
0.591996 0.0509946 0.
0.593997 0.0509945 0.
0.595998 0.0509948 0.
0.597999 0.0509953 0.
0.600001 0.0509957 0.
0.602002 0.0509955 0.
0.604004 0.0509953 0.
0.606006 0.0509952 0.
0.608007 0.0509953 0.
0.610008 0.0509954 0.
0.612009 0.0509955 0.
0.61401 0.0509955 0.
0.61601 0.0509956 0.
0.618011 0.0509954 0.
0.620012 0.0509953 0.
0.622013 0.0509951 0.
0.624014 0.050996 0.
0.626016 0.050997 0.
0.628017 0.0509979 0.
0.630019 0.050998 0.
0.63202 0.0509981 0.
0.634021 0.0509981 0.
0.636022 0.0509982 0.
0.638023 0.0509983 0.
0.640024 0.0509988 0.
0.642025 0.0509997 0.
0.644026 0.0510007 0.
0.646027 0.0510012 0.
0.648028 0.0510016 0.
0.650028 0.0510021 0.
0.652029 0.051002 0.
0.65403 0.051002 0.
0.656031 0.0510019 0.
0.658031 0.0510018 0.
0.660032 0.0510016 0.
0.662033 0.0510017 0.
0.664034 0.0510019 0.
0.666035 0.0510021 0.
0.668035 0.0510028 0.
0.670036 0.0510036 0.
0.672037 0.0510044 0.
0.674037 0.0510048 0.
0.676038 0.0510052 0.
0.678039 0.0510057 0.
0.68004 0.0510069 0.
0.682041 0.0510081 0.
0.684042 0.0510092 0.
0.686042 0.05101 0.
0.688043 0.0510108 0.
0.690043 0.0510121 0.
0.692043 0.0510137 0.
0.694044 0.0510153 0.
0.696044 0.0510175 0.
0.698045 0.0510198 0.
0.49996 0.0530178 0.
0.501961 0.0530171 0.
0.503961 0.0530165 0.
0.505961 0.0530157 0.
0.507962 0.0530139 0.
0.509963 0.0530122 0.
0.511963 0.0530107 0.
0.513963 0.0530095 0.
0.515964 0.0530084 0.
0.517965 0.0530073 0.
0.519966 0.0530064 0.
0.521967 0.0530054 0.
0.523967 0.0530046 0.
0.525968 0.0530038 0.
0.527968 0.0530031 0.
0.529968 0.0530024 0.
0.531969 0.0530018 0.
0.533969 0.0530011 0.
0.53597 0.0530003 0.
0.537971 0.0529996 0.
0.539972 0.0529992 0.
0.541973 0.0529991 0.
0.543973 0.052999 0.
0.545973 0.052999 0.
0.547974 0.0529991 0.
0.549974 0.0529991 0.
0.551975 0.0529988 0.
0.553976 0.0529985 0.
0.555977 0.0529982 0.
0.557978 0.0529981 0.
0.559979 0.0529979 0.
0.56198 0.0529978 0.
0.563981 0.0529976 0.
0.565982 0.0529975 0.
0.567983 0.0529971 0.
0.569984 0.0529966 0.
0.571985 0.0529962 0.
0.573987 0.0529963 0.
0.575988 0.0529965 0.
0.577989 0.0529967 0.
0.57999 0.052996 0.
0.581992 0.0529953 0.
0.583993 0.0529948 0.
0.585994 0.0529946 0.
0.587995 0.0529945 0.
0.589996 0.0529943 0.
0.591997 0.0529939 0.
0.593997 0.0529936 0.
0.595998 0.0529939 0.
0.598 0.0529942 0.
0.600001 0.0529946 0.
0.602002 0.0529946 0.
0.604004 0.0529946 0.
0.606005 0.0529946 0.
0.608007 0.0529947 0.
0.610008 0.0529948 0.
0.612009 0.0529948 0.
0.614009 0.0529949 0.
0.61601 0.052995 0.
0.618011 0.052995 0.
0.620012 0.0529951 0.
0.622013 0.0529951 0.
0.624015 0.0529958 0.
0.626016 0.0529965 0.
0.628018 0.0529972 0.
0.630019 0.0529975 0.
0.63202 0.0529979 0.
0.634021 0.0529981 0.
0.636022 0.0529982 0.
0.638023 0.0529984 0.
0.640023 0.0529989 0.
0.642024 0.0529999 0.
0.644025 0.0530009 0.
0.646026 0.0530014 0.
0.648027 0.0530017 0.
0.650028 0.0530021 0.
0.652029 0.0530019 0.
0.654029 0.0530017 0.
0.65603 0.0530016 0.
0.65803 0.0530016 0.
0.660031 0.0530016 0.
0.662032 0.0530017 0.
0.664032 0.0530019 0.
0.666033 0.0530022 0.
0.668034 0.0530029 0.
0.670034 0.0530039 0.
0.672035 0.0530049 0.
0.674036 0.0530052 0.
0.676036 0.0530055 0.
0.678037 0.0530058 0.
0.680038 0.0530069 0.
0.682039 0.0530081 0.
0.68404 0.0530091 0.
0.68604 0.0530099 0.
0.688041 0.0530106 0.
0.690041 0.0530121 0.
0.692041 0.0530142 0.
0.694042 0.0530162 0.
0.696042 0.0530182 0.
0.698043 0.0530202 0.
0.499962 0.0550181 0.
0.501962 0.0550178 0.
0.503962 0.0550176 0.
0.505963 0.055017 0.
0.507963 0.0550146 0.
0.509964 0.0550123 0.
0.511964 0.0550105 0.
0.513965 0.0550095 0.
0.515965 0.0550084 0.
0.517966 0.0550075 0.
0.519968 0.0550065 0.
0.521969 0.0550055 0.
0.523969 0.0550048 0.
0.525969 0.0550041 0.
0.527969 0.0550033 0.
0.529969 0.0550027 0.
0.531969 0.0550021 0.
0.53397 0.0550015 0.
0.535971 0.0550008 0.
0.537972 0.055 0.
0.539972 0.0549996 0.
0.541973 0.0549993 0.
0.543974 0.0549991 0.
0.545974 0.0549992 0.
0.547974 0.0549994 0.
0.549975 0.0549995 0.
0.551976 0.0549989 0.
0.553977 0.0549982 0.
0.555978 0.0549977 0.
0.557978 0.0549976 0.
0.559979 0.0549975 0.
0.561979 0.0549974 0.
0.56398 0.0549972 0.
0.565981 0.054997 0.
0.567983 0.0549964 0.
0.569984 0.0549956 0.
0.571985 0.0549949 0.
0.573987 0.054995 0.
0.575988 0.0549953 0.
0.57799 0.0549955 0.
0.579991 0.054995 0.
0.581993 0.0549945 0.
0.583994 0.0549942 0.
0.585995 0.0549942 0.
0.587996 0.0549942 0.
0.589997 0.0549939 0.
0.591997 0.0549933 0.
0.593998 0.0549927 0.
0.595999 0.0549929 0.
0.598 0.0549932 0.
0.600001 0.0549936 0.
0.602003 0.0549937 0.
0.604004 0.0549938 0.
0.606005 0.0549939 0.
0.608006 0.054994 0.
0.610007 0.0549941 0.
0.612008 0.0549942 0.
0.614009 0.0549943 0.
0.61601 0.0549944 0.
0.618011 0.0549946 0.
0.620012 0.0549949 0.
0.622013 0.0549951 0.
0.624015 0.0549955 0.
0.626017 0.0549959 0.
0.628018 0.0549964 0.
0.630019 0.054997 0.
0.63202 0.0549977 0.
0.634021 0.0549981 0.
0.636021 0.0549983 0.
0.638022 0.0549985 0.
0.640022 0.0549991 0.
0.642023 0.0550001 0.
0.644024 0.0550011 0.
0.646025 0.0550015 0.
0.648026 0.0550018 0.
0.650028 0.0550021 0.
0.652028 0.0550017 0.
0.654028 0.0550014 0.
0.656029 0.0550012 0.
0.658029 0.0550014 0.
0.66003 0.0550016 0.
0.66203 0.0550018 0.
0.664031 0.055002 0.
0.666031 0.0550022 0.
0.668032 0.0550031 0.
0.670032 0.0550043 0.
0.672033 0.0550055 0.
0.674034 0.0550057 0.
0.676035 0.0550057 0.
0.678035 0.0550059 0.
0.680036 0.055007 0.
0.682037 0.055008 0.
0.684037 0.055009 0.
0.686038 0.0550097 0.
0.688038 0.0550105 0.
0.690039 0.0550122 0.
0.692039 0.0550147 0.
0.69404 0.0550172 0.
0.696041 0.055019 0.
0.698042 0.0550207 0.
0.499964 0.0570186 0.
0.501964 0.0570183 0.
0.503964 0.0570179 0.
0.505964 0.0570171 0.
0.507965 0.0570148 0.
0.509966 0.0570125 0.
0.511966 0.0570107 0.
0.513967 0.0570094 0.
0.515967 0.0570081 0.
0.517968 0.0570071 0.
0.519969 0.0570062 0.
0.52197 0.0570053 0.
0.52397 0.0570048 0.
0.52597 0.0570044 0.
0.52797 0.0570039 0.
0.52997 0.0570031 0.
0.531971 0.0570022 0.
0.533971 0.0570014 0.
0.535972 0.0570007 0.
0.537973 0.057 0.
0.539973 0.0569995 0.
0.541974 0.0569992 0.
0.543975 0.0569988 0.
0.545975 0.0569987 0.
0.547976 0.0569986 0.
0.549976 0.0569985 0.
0.551977 0.0569981 0.
0.553978 0.0569978 0.
0.555978 0.0569974 0.
0.557979 0.0569972 0.
0.559979 0.056997 0.
0.56198 0.0569968 0.
0.563981 0.0569965 0.
0.565982 0.0569962 0.
0.567983 0.0569956 0.
0.569984 0.056995 0.
0.571985 0.0569944 0.
0.573987 0.0569943 0.
0.575988 0.0569944 0.
0.577989 0.0569944 0.
0.579991 0.0569942 0.
0.581992 0.056994 0.
0.583993 0.0569939 0.
0.585994 0.0569939 0.
0.587995 0.0569938 0.
0.589996 0.0569935 0.
0.591997 0.0569928 0.
0.593998 0.0569921 0.
0.595999 0.0569921 0.
0.598 0.0569923 0.
0.600001 0.0569926 0.
0.602002 0.0569927 0.
0.604004 0.0569929 0.
0.606005 0.056993 0.
0.608006 0.0569933 0.
0.610007 0.0569935 0.
0.612008 0.0569936 0.
0.614009 0.0569937 0.
0.61601 0.0569937 0.
0.618011 0.0569938 0.
0.620012 0.0569939 0.
0.622013 0.0569941 0.
0.624014 0.0569947 0.
0.626015 0.0569952 0.
0.628017 0.0569958 0.
0.630018 0.0569964 0.
0.632019 0.056997 0.
0.63402 0.0569975 0.
0.63602 0.056998 0.
0.638021 0.0569985 0.
0.640022 0.0569992 0.
0.642022 0.0570002 0.
0.644023 0.0570012 0.
0.646024 0.0570016 0.
0.648025 0.0570017 0.
0.650026 0.0570019 0.
0.652027 0.0570016 0.
0.654027 0.0570014 0.
0.656028 0.0570012 0.
0.658028 0.0570013 0.
0.660029 0.0570014 0.
0.66203 0.0570015 0.
0.66403 0.0570018 0.
0.66603 0.057002 0.
0.668031 0.0570028 0.
0.670031 0.0570038 0.
0.672032 0.0570048 0.
0.674033 0.0570051 0.
0.676033 0.0570053 0.
0.678034 0.0570057 0.
0.680035 0.0570068 0.
0.682035 0.0570078 0.
0.684036 0.0570089 0.
0.686036 0.05701 0.
0.688036 0.0570111 0.
0.690037 0.0570127 0.
0.692037 0.0570148 0.
0.694038 0.0570169 0.
0.696039 0.0570191 0.
0.69804 0.0570214 0.
0.499965 0.0590191 0.
0.501966 0.0590187 0.
0.503966 0.0590182 0.
0.505966 0.0590173 0.
0.507967 0.0590151 0.
0.509967 0.0590128 0.
0.511968 0.0590109 0.
0.513969 0.0590093 0.
0.51597 0.0590077 0.
0.51797 0.0590067 0.
0.519971 0.0590059 0.
0.521971 0.0590051 0.
0.523971 0.0590048 0.
0.525971 0.0590047 0.
0.527971 0.0590044 0.
0.529971 0.0590034 0.
0.531972 0.0590023 0.
0.533972 0.0590014 0.
0.535973 0.0590007 0.
0.537974 0.059 0.
0.539974 0.0589995 0.
0.541975 0.058999 0.
0.543976 0.0589985 0.
0.545976 0.0589981 0.
0.547977 0.0589978 0.
0.549978 0.0589974 0.
0.551978 0.0589973 0.
0.553978 0.0589973 0.
0.555979 0.0589972 0.
0.557979 0.0589969 0.
0.55998 0.0589966 0.
0.561981 0.0589962 0.
0.563981 0.0589958 0.
0.565982 0.0589954 0.
0.567983 0.0589949 0.
0.569984 0.0589944 0.
0.571985 0.0589939 0.
0.573987 0.0589937 0.
0.575988 0.0589935 0.
0.577989 0.0589933 0.
0.57999 0.0589934 0.
0.581991 0.0589935 0.
0.583993 0.0589936 0.
0.585994 0.0589935 0.
0.587995 0.0589935 0.
0.589996 0.058993 0.
0.591997 0.0589922 0.
0.593998 0.0589914 0.
0.595999 0.0589913 0.
0.598 0.0589915 0.
0.600001 0.0589916 0.
0.602002 0.0589918 0.
0.604004 0.0589919 0.
0.606005 0.0589921 0.
0.608006 0.0589925 0.
0.610007 0.0589929 0.
0.612008 0.0589931 0.
0.614009 0.058993 0.
0.61601 0.0589929 0.
0.618011 0.0589929 0.
0.620012 0.058993 0.
0.622012 0.0589931 0.
0.624013 0.0589938 0.
0.626014 0.0589946 0.
0.628015 0.0589953 0.
0.630017 0.0589958 0.
0.632018 0.0589963 0.
0.634019 0.0589969 0.
0.63602 0.0589977 0.
0.63802 0.0589985 0.
0.640021 0.0589994 0.
0.642022 0.0590004 0.
0.644022 0.0590014 0.
0.646023 0.0590016 0.
0.648024 0.0590016 0.
0.650025 0.0590017 0.
0.652026 0.0590015 0.
0.654026 0.0590013 0.
0.656027 0.0590011 0.
0.658027 0.0590011 0.
0.660028 0.0590011 0.
0.662029 0.0590013 0.
0.664029 0.0590016 0.
0.666029 0.0590019 0.
0.668029 0.0590025 0.
0.67003 0.0590033 0.
0.672031 0.059004 0.
0.674031 0.0590045 0.
0.676032 0.0590049 0.
0.678033 0.0590054 0.
0.680033 0.0590065 0.
0.682034 0.0590077 0.
0.684034 0.0590089 0.
0.686034 0.0590102 0.
0.688034 0.0590116 0.
0.690035 0.0590132 0.
0.692035 0.0590149 0.
0.694036 0.0590167 0.
0.696037 0.0590193 0.
0.698039 0.0590221 0.
0.499967 0.0610196 0.
0.501967 0.061019 0.
0.503967 0.0610182 0.
0.505968 0.0610173 0.
0.507969 0.061015 0.
0.509969 0.0610128 0.
0.51197 0.0610109 0.
0.513971 0.0610094 0.
0.515971 0.0610078 0.
0.517972 0.0610068 0.
0.519972 0.061006 0.
0.521972 0.0610052 0.
0.523972 0.061005 0.
0.525972 0.0610048 0.
0.527972 0.0610045 0.
0.529973 0.0610035 0.
0.531973 0.0610025 0.
0.533974 0.0610016 0.
0.535974 0.0610008 0.
0.537975 0.0610001 0.
0.539975 0.0609994 0.
0.541976 0.0609989 0.
0.543977 0.0609983 0.
0.545977 0.0609978 0.
0.547978 0.0609974 0.
0.549979 0.0609969 0.
0.551979 0.060997 0.
0.553979 0.060997 0.
0.555979 0.060997 0.
0.55798 0.0609966 0.
0.559981 0.0609963 0.
0.561981 0.0609958 0.
0.563982 0.0609952 0.
0.565983 0.0609946 0.
0.567984 0.0609942 0.
0.569985 0.0609938 0.
0.571986 0.0609935 0.
0.573987 0.0609931 0.
0.575988 0.0609927 0.
0.577989 0.0609923 0.
0.57999 0.0609925 0.
0.581991 0.0609927 0.
0.583992 0.0609928 0.
0.585994 0.0609927 0.
0.587995 0.0609926 0.
0.589996 0.0609922 0.
0.591997 0.0609915 0.
0.593998 0.0609907 0.
0.595999 0.0609906 0.
0.598 0.0609907 0.
0.600001 0.0609908 0.
0.602002 0.060991 0.
0.604003 0.0609911 0.
0.606005 0.0609914 0.
0.608006 0.0609917 0.
0.610007 0.0609921 0.
0.612008 0.0609924 0.
0.614009 0.0609924 0.
0.61601 0.0609925 0.
0.618011 0.0609925 0.
0.620012 0.0609926 0.
0.622012 0.0609927 0.
0.624013 0.0609933 0.
0.626014 0.0609939 0.
0.628014 0.0609945 0.
0.630016 0.0609951 0.
0.632017 0.0609956 0.
0.634018 0.0609963 0.
0.636019 0.0609972 0.
0.63802 0.0609982 0.
0.64002 0.0609991 0.
0.642021 0.0609999 0.
0.644022 0.0610008 0.
0.646022 0.0610011 0.
0.648023 0.0610013 0.
0.650024 0.0610014 0.
0.652025 0.0610012 0.
0.654025 0.061001 0.
0.656026 0.0610009 0.
0.658027 0.0610009 0.
0.660028 0.0610009 0.
0.662028 0.0610011 0.
0.664028 0.0610015 0.
0.666028 0.061002 0.
0.668028 0.0610025 0.
0.670029 0.0610031 0.
0.67203 0.0610037 0.
0.67403 0.0610043 0.
0.676031 0.0610048 0.
0.678031 0.0610055 0.
0.680032 0.0610066 0.
0.682032 0.0610077 0.
0.684032 0.061009 0.
0.686032 0.0610105 0.
0.688033 0.061012 0.
0.690033 0.0610135 0.
0.692034 0.0610151 0.
0.694034 0.0610166 0.
0.696035 0.0610194 0.
0.698036 0.0610224 0.
0.499968 0.06302 0.
0.501969 0.063019 0.
0.503969 0.0630181 0.
0.50597 0.0630169 0.
0.507971 0.0630147 0.
0.509971 0.0630126 0.
0.511972 0.0630108 0.
0.513972 0.0630096 0.
0.515973 0.0630084 0.
0.517973 0.0630074 0.
0.519973 0.0630065 0.
0.521973 0.0630057 0.
0.523973 0.0630052 0.
0.525973 0.0630048 0.
0.527973 0.0630043 0.
0.529974 0.0630036 0.
0.531975 0.0630028 0.
0.533975 0.063002 0.
0.535976 0.0630011 0.
0.537976 0.0630001 0.
0.539977 0.0629994 0.
0.541977 0.0629988 0.
0.543978 0.0629982 0.
0.545978 0.0629978 0.
0.547979 0.0629974 0.
0.54998 0.062997 0.
0.55198 0.062997 0.
0.55398 0.062997 0.
0.55598 0.062997 0.
0.55798 0.0629965 0.
0.559981 0.0629961 0.
0.561982 0.0629955 0.
0.563982 0.0629946 0.
0.565983 0.0629938 0.
0.567984 0.0629935 0.
0.569985 0.0629934 0.
0.571986 0.0629933 0.
0.573987 0.0629927 0.
0.575989 0.062992 0.
0.57799 0.0629915 0.
0.579991 0.0629916 0.
0.581992 0.0629917 0.
0.583993 0.0629917 0.
0.585994 0.0629915 0.
0.587995 0.0629913 0.
0.589996 0.062991 0.
0.591997 0.0629905 0.
0.593999 0.0629901 0.
0.596 0.0629901 0.
0.598001 0.0629902 0.
0.600002 0.0629902 0.
0.602003 0.0629904 0.
0.604004 0.0629906 0.
0.606005 0.0629907 0.
0.608006 0.0629909 0.
0.610007 0.0629911 0.
0.612008 0.0629914 0.
0.614009 0.0629919 0.
0.61601 0.0629924 0.
0.618011 0.0629927 0.
0.620012 0.0629928 0.
0.622012 0.062993 0.
0.624013 0.0629932 0.
0.626013 0.0629934 0.
0.628014 0.0629937 0.
0.630015 0.0629943 0.
0.632016 0.0629949 0.
0.634017 0.0629957 0.
0.636018 0.0629966 0.
0.638019 0.0629976 0.
0.64002 0.0629983 0.
0.64202 0.0629989 0.
0.644021 0.0629994 0.
0.646022 0.063 0.
0.648023 0.0630006 0.
0.650023 0.0630012 0.
0.652024 0.0630009 0.
0.654024 0.0630006 0.
0.656025 0.0630004 0.
0.658026 0.0630006 0.
0.660027 0.0630008 0.
0.662027 0.0630011 0.
0.664027 0.0630017 0.
0.666027 0.0630023 0.
0.668028 0.0630028 0.
0.670028 0.0630033 0.
0.672029 0.0630038 0.
0.674029 0.0630044 0.
0.676029 0.063005 0.
0.678029 0.0630057 0.
0.68003 0.0630069 0.
0.68203 0.063008 0.
0.684031 0.0630093 0.
0.686031 0.0630107 0.
0.688031 0.0630121 0.
0.690031 0.0630136 0.
0.692032 0.0630152 0.
0.694032 0.0630168 0.
0.696033 0.0630194 0.
0.698033 0.0630222 0.
0.499969 0.0650202 0.
0.50197 0.0650191 0.
0.503972 0.0650179 0.
0.505972 0.0650166 0.
0.507973 0.0650145 0.
0.509973 0.0650123 0.
0.511974 0.0650107 0.
0.513974 0.0650098 0.
0.515974 0.0650089 0.
0.517974 0.065008 0.
0.519974 0.0650071 0.
0.521974 0.0650062 0.
0.523975 0.0650055 0.
0.525975 0.0650047 0.
0.527975 0.065004 0.
0.529975 0.0650036 0.
0.531976 0.0650031 0.
0.533977 0.0650024 0.
0.535977 0.0650013 0.
0.537977 0.0650002 0.
0.539978 0.0649994 0.
0.541978 0.0649988 0.
0.543979 0.0649982 0.
0.545979 0.0649977 0.
0.54798 0.0649974 0.
0.549981 0.064997 0.
0.551981 0.064997 0.
0.553981 0.064997 0.
0.55598 0.0649969 0.
0.557981 0.0649964 0.
0.559981 0.0649959 0.
0.561982 0.0649951 0.
0.563983 0.0649941 0.
0.565984 0.0649931 0.
0.567985 0.0649928 0.
0.569986 0.0649929 0.
0.571987 0.064993 0.
0.573988 0.0649923 0.
0.575989 0.0649914 0.
0.57799 0.0649906 0.
0.579991 0.0649906 0.
0.581992 0.0649906 0.
0.583994 0.0649905 0.
0.585994 0.0649902 0.
0.587995 0.0649899 0.
0.589996 0.0649897 0.
0.591997 0.0649896 0.
0.593999 0.0649895 0.
0.596 0.0649895 0.
0.598001 0.0649896 0.
0.600002 0.0649897 0.
0.602003 0.0649898 0.
0.604004 0.06499 0.
0.606005 0.0649901 0.
0.608006 0.0649901 0.
0.610008 0.06499 0.
0.612009 0.0649904 0.
0.61401 0.0649914 0.
0.61601 0.0649923 0.
0.618011 0.0649928 0.
0.620012 0.064993 0.
0.622012 0.0649933 0.
0.624013 0.0649931 0.
0.626013 0.0649929 0.
0.628014 0.0649928 0.
0.630015 0.0649935 0.
0.632015 0.0649943 0.
0.634016 0.0649951 0.
0.636017 0.064996 0.
0.638018 0.064997 0.
0.640019 0.0649976 0.
0.64202 0.0649978 0.
0.644021 0.0649981 0.
0.646021 0.0649989 0.
0.648022 0.0649999 0.
0.650022 0.0650009 0.
0.652023 0.0650005 0.
0.654024 0.0650001 0.
0.656024 0.0649999 0.
0.658025 0.0650002 0.
0.660026 0.0650006 0.
0.662026 0.0650012 0.
0.664026 0.0650019 0.
0.666026 0.0650026 0.
0.668027 0.0650031 0.
0.670027 0.0650035 0.
0.672028 0.0650039 0.
0.674028 0.0650046 0.
0.676028 0.0650052 0.
0.678027 0.065006 0.
0.680028 0.0650071 0.
0.682028 0.0650083 0.
0.684029 0.0650096 0.
0.686029 0.0650109 0.
0.688029 0.0650123 0.
0.690029 0.0650138 0.
0.69203 0.0650154 0.
0.69403 0.065017 0.
0.69603 0.0650194 0.
0.698031 0.0650219 0.
0.499972 0.0670205 0.
0.501973 0.0670193 0.
0.503974 0.0670181 0.
0.505974 0.0670167 0.
0.507974 0.0670147 0.
0.509975 0.0670126 0.
0.511975 0.067011 0.
0.513975 0.06701 0.
0.515976 0.067009 0.
0.517976 0.067008 0.
0.519976 0.0670071 0.
0.521976 0.0670062 0.
0.523976 0.0670056 0.
0.525976 0.067005 0.
0.527976 0.0670044 0.
0.529977 0.0670037 0.
0.531977 0.0670031 0.
0.533977 0.0670023 0.
0.535978 0.0670011 0.
0.537978 0.067 0.
0.539979 0.0669991 0.
0.541979 0.0669985 0.
0.54398 0.0669979 0.
0.54598 0.0669974 0.
0.547981 0.066997 0.
0.549981 0.0669966 0.
0.551981 0.0669966 0.
0.553982 0.0669966 0.
0.555982 0.0669963 0.
0.557983 0.0669955 0.
0.559983 0.0669948 0.
0.561984 0.0669941 0.
0.563985 0.0669935 0.
0.565985 0.066993 0.
0.567986 0.0669926 0.
0.569987 0.0669922 0.
0.571988 0.0669919 0.
0.573989 0.0669912 0.
0.57599 0.0669905 0.
0.577991 0.0669898 0.
0.579992 0.0669898 0.
0.581993 0.0669897 0.
0.583993 0.0669895 0.
0.585994 0.0669891 0.
0.587995 0.0669887 0.
0.589996 0.0669885 0.
0.591997 0.0669883 0.
0.593998 0.0669882 0.
0.596 0.0669884 0.
0.598001 0.0669886 0.
0.600002 0.0669889 0.
0.602003 0.066989 0.
0.604004 0.0669891 0.
0.606005 0.0669891 0.
0.608006 0.0669891 0.
0.610007 0.0669891 0.
0.612008 0.0669895 0.
0.614009 0.0669904 0.
0.61601 0.0669914 0.
0.618011 0.0669919 0.
0.620011 0.0669922 0.
0.622012 0.0669924 0.
0.624013 0.0669923 0.
0.626013 0.066992 0.
0.628014 0.0669919 0.
0.630014 0.0669927 0.
0.632015 0.0669935 0.
0.634015 0.0669944 0.
0.636016 0.0669953 0.
0.638017 0.0669963 0.
0.640018 0.0669969 0.
0.642019 0.0669972 0.
0.64402 0.0669975 0.
0.646021 0.0669985 0.
0.648021 0.0669996 0.
0.650022 0.0670007 0.
0.652022 0.0670003 0.
0.654023 0.067 0.
0.656023 0.0669999 0.
0.658024 0.0670003 0.
0.660024 0.0670007 0.
0.662025 0.0670012 0.
0.664025 0.0670019 0.
0.666025 0.0670026 0.
0.668025 0.0670032 0.
0.670026 0.0670037 0.
0.672026 0.0670042 0.
0.674026 0.0670049 0.
0.676026 0.0670057 0.
0.678026 0.0670064 0.
0.680026 0.0670073 0.
0.682027 0.0670083 0.
0.684027 0.0670093 0.
0.686027 0.0670105 0.
0.688027 0.0670117 0.
0.690027 0.0670134 0.
0.692028 0.0670156 0.
0.694028 0.0670178 0.
0.696028 0.06702 0.
0.698029 0.0670223 0.
0.499975 0.0690208 0.
0.501975 0.0690195 0.
0.503975 0.0690182 0.
0.505976 0.0690168 0.
0.507976 0.0690149 0.
0.509976 0.0690129 0.
0.511976 0.0690113 0.
0.513977 0.0690102 0.
0.515977 0.069009 0.
0.517977 0.069008 0.
0.519977 0.0690071 0.
0.521977 0.0690062 0.
0.523977 0.0690057 0.
0.525977 0.0690052 0.
0.527977 0.0690048 0.
0.529978 0.0690039 0.
0.531978 0.0690031 0.
0.533978 0.0690021 0.
0.535979 0.0690009 0.
0.537979 0.0689998 0.
0.53998 0.0689989 0.
0.541981 0.0689982 0.
0.543981 0.0689975 0.
0.545981 0.0689971 0.
0.547981 0.0689967 0.
0.549981 0.0689963 0.
0.551982 0.0689962 0.
0.553983 0.0689961 0.
0.555984 0.0689957 0.
0.557984 0.0689947 0.
0.559985 0.0689936 0.
0.561986 0.068993 0.
0.563986 0.068993 0.
0.565987 0.0689929 0.
0.567988 0.0689924 0.
0.569988 0.0689916 0.
0.571989 0.0689908 0.
0.57399 0.0689901 0.
0.575991 0.0689895 0.
0.577992 0.068989 0.
0.579992 0.0689889 0.
0.581993 0.0689888 0.
0.583993 0.0689886 0.
0.585994 0.0689881 0.
0.587996 0.0689875 0.
0.589996 0.0689872 0.
0.591997 0.0689871 0.
0.593998 0.0689869 0.
0.595999 0.0689873 0.
0.598 0.0689877 0.
0.600002 0.0689881 0.
0.602003 0.0689881 0.
0.604004 0.0689881 0.
0.606005 0.0689881 0.
0.608006 0.0689881 0.
0.610007 0.0689881 0.
0.612008 0.0689885 0.
0.614009 0.0689895 0.
0.616009 0.0689905 0.
0.61801 0.068991 0.
0.620011 0.0689913 0.
0.622012 0.0689916 0.
0.624012 0.0689914 0.
0.626013 0.0689912 0.
0.628014 0.0689911 0.
0.630014 0.068992 0.
0.632014 0.0689928 0.
0.634015 0.0689937 0.
0.636016 0.0689946 0.
0.638016 0.0689956 0.
0.640017 0.0689962 0.
0.642018 0.0689966 0.
0.644019 0.068997 0.
0.64602 0.068998 0.
0.64802 0.0689992 0.
0.650021 0.0690005 0.
0.652022 0.0690002 0.
0.654022 0.069 0.
0.656022 0.0689999 0.
0.658023 0.0690003 0.
0.660023 0.0690007 0.
0.662024 0.0690013 0.
0.664024 0.0690019 0.
0.666024 0.0690025 0.
0.668024 0.0690032 0.
0.670024 0.0690038 0.
0.672025 0.0690044 0.
0.674025 0.0690052 0.
0.676025 0.0690061 0.
0.678025 0.0690069 0.
0.680025 0.0690075 0.
0.682025 0.0690082 0.
0.684025 0.069009 0.
0.686025 0.06901 0.
0.688025 0.0690111 0.
0.690025 0.0690131 0.
0.692026 0.0690159 0.
0.694026 0.0690186 0.
0.696027 0.0690207 0.
0.698028 0.0690226 0.
0.499977 0.0710207 0.
0.501977 0.0710195 0.
0.503977 0.0710181 0.
0.505977 0.0710167 0.
0.507977 0.0710149 0.
0.509978 0.071013 0.
0.511978 0.0710115 0.
0.513978 0.0710103 0.
0.515979 0.0710092 0.
0.517979 0.0710082 0.
0.519979 0.0710072 0.
0.521978 0.0710063 0.
0.523978 0.0710058 0.
0.525978 0.0710053 0.
0.527979 0.0710047 0.
0.529979 0.0710038 0.
0.531979 0.0710029 0.
0.533979 0.0710019 0.
0.53598 0.0710007 0.
0.53798 0.0709995 0.
0.539981 0.0709986 0.
0.541982 0.0709978 0.
0.543982 0.0709971 0.
0.545982 0.0709967 0.
0.547982 0.0709963 0.
0.549982 0.0709959 0.
0.551983 0.0709958 0.
0.553984 0.0709957 0.
0.555985 0.0709954 0.
0.557986 0.0709942 0.
0.559986 0.0709931 0.
0.561987 0.0709925 0.
0.563987 0.0709926 0.
0.565988 0.0709927 0.
0.567988 0.070992 0.
0.569989 0.0709909 0.
0.57199 0.0709899 0.
0.573991 0.0709894 0.
0.575991 0.070989 0.
0.577992 0.0709886 0.
0.579992 0.0709884 0.
0.581993 0.0709881 0.
0.583993 0.0709877 0.
0.585994 0.0709872 0.
0.587996 0.0709866 0.
0.589997 0.0709863 0.
0.591997 0.0709862 0.
0.593998 0.0709861 0.
0.595999 0.0709864 0.
0.598 0.0709868 0.
0.600001 0.0709873 0.
0.602003 0.0709873 0.
0.604004 0.0709873 0.
0.606005 0.0709873 0.
0.608006 0.0709875 0.
0.610007 0.0709877 0.
0.612007 0.0709881 0.
0.614008 0.0709889 0.
0.616009 0.0709897 0.
0.61801 0.0709903 0.
0.62001 0.0709907 0.
0.622011 0.0709911 0.
0.624012 0.070991 0.
0.626013 0.0709907 0.
0.628013 0.0709906 0.
0.630013 0.0709916 0.
0.632014 0.0709925 0.
0.634014 0.0709934 0.
0.636015 0.0709942 0.
0.638015 0.070995 0.
0.640016 0.0709956 0.
0.642017 0.0709961 0.
0.644018 0.0709966 0.
0.646018 0.0709976 0.
0.648019 0.0709987 0.
0.65002 0.0709998 0.
0.65202 0.0709998 0.
0.654021 0.0709998 0.
0.656021 0.0709999 0.
0.658021 0.0710003 0.
0.660022 0.0710008 0.
0.662022 0.0710013 0.
0.664022 0.0710019 0.
0.666022 0.0710026 0.
0.668023 0.0710033 0.
0.670023 0.0710041 0.
0.672023 0.0710049 0.
0.674023 0.0710056 0.
0.676024 0.0710064 0.
0.678024 0.0710071 0.
0.680024 0.0710077 0.
0.682024 0.0710083 0.
0.684024 0.0710091 0.
0.686024 0.0710102 0.
0.688024 0.0710114 0.
0.690024 0.0710134 0.
0.692024 0.071016 0.
0.694024 0.0710187 0.
0.696025 0.0710207 0.
0.698026 0.0710225 0.
0.499977 0.0730208 0.
0.501978 0.0730194 0.
0.503978 0.0730178 0.
0.505979 0.0730162 0.
0.507979 0.0730146 0.
0.509979 0.073013 0.
0.51198 0.0730116 0.
0.51398 0.0730105 0.
0.51598 0.0730095 0.
0.51798 0.0730085 0.
0.51998 0.0730076 0.
0.52198 0.0730067 0.
0.52398 0.0730059 0.
0.52598 0.0730051 0.
0.52798 0.0730043 0.
0.52998 0.0730034 0.
0.53198 0.0730025 0.
0.533981 0.0730015 0.
0.535981 0.0730003 0.
0.537982 0.0729992 0.
0.539982 0.0729982 0.
0.541983 0.0729974 0.
0.543983 0.0729966 0.
0.545983 0.0729962 0.
0.547983 0.0729959 0.
0.549983 0.0729956 0.
0.551984 0.0729956 0.
0.553985 0.0729956 0.
0.555986 0.0729953 0.
0.557987 0.0729942 0.
0.559987 0.0729932 0.
0.561988 0.0729925 0.
0.563988 0.0729924 0.
0.565989 0.0729922 0.
0.567989 0.0729914 0.
0.56999 0.0729903 0.
0.57199 0.0729892 0.
0.573991 0.072989 0.
0.575992 0.072989 0.
0.577992 0.0729888 0.
0.579993 0.0729882 0.
0.581993 0.0729875 0.
0.583993 0.0729869 0.
0.585995 0.0729865 0.
0.587996 0.072986 0.
0.589996 0.0729858 0.
0.591997 0.0729857 0.
0.593998 0.0729856 0.
0.595999 0.0729858 0.
0.598 0.0729861 0.
0.600002 0.0729863 0.
0.602003 0.0729864 0.
0.604004 0.0729865 0.
0.606005 0.0729867 0.
0.608006 0.0729872 0.
0.610006 0.0729878 0.
0.612007 0.0729882 0.
0.614007 0.0729887 0.
0.616008 0.0729891 0.
0.618009 0.0729897 0.
0.62001 0.0729904 0.
0.62201 0.0729911 0.
0.624011 0.0729909 0.
0.626012 0.0729906 0.
0.628012 0.0729904 0.
0.630012 0.0729916 0.
0.632013 0.0729927 0.
0.634013 0.0729936 0.
0.636014 0.0729941 0.
0.638014 0.0729946 0.
0.640015 0.0729952 0.
0.642015 0.0729959 0.
0.644016 0.0729965 0.
0.646017 0.0729973 0.
0.648017 0.072998 0.
0.650018 0.0729987 0.
0.652018 0.0729991 0.
0.654019 0.0729995 0.
0.656019 0.0729999 0.
0.65802 0.0730004 0.
0.66002 0.0730009 0.
0.662021 0.0730014 0.
0.664021 0.073002 0.
0.666021 0.0730027 0.
0.668021 0.0730035 0.
0.670022 0.0730046 0.
0.672022 0.0730056 0.
0.674023 0.0730061 0.
0.676023 0.0730065 0.
0.678023 0.073007 0.
0.680023 0.0730078 0.
0.682023 0.0730086 0.
0.684023 0.0730096 0.
0.686023 0.0730111 0.
0.688023 0.0730125 0.
0.690023 0.0730143 0.
0.692023 0.0730162 0.
0.694023 0.0730181 0.
0.696024 0.0730201 0.
0.698024 0.0730221 0.
0.499978 0.0750209 0.
0.501979 0.0750192 0.
0.50398 0.0750175 0.
0.505981 0.0750157 0.
0.507981 0.0750143 0.
0.509981 0.0750129 0.
0.511981 0.0750117 0.
0.513981 0.0750107 0.
0.515981 0.0750097 0.
0.517981 0.0750088 0.
0.519981 0.0750079 0.
0.521981 0.075007 0.
0.523981 0.075006 0.
0.525981 0.0750049 0.
0.527981 0.0750039 0.
0.529981 0.075003 0.
0.531982 0.0750022 0.
0.533982 0.0750012 0.
0.535982 0.075 0.
0.537983 0.0749989 0.
0.539983 0.0749978 0.
0.541984 0.074997 0.
0.543984 0.0749962 0.
0.545984 0.0749958 0.
0.547985 0.0749956 0.
0.549985 0.0749954 0.
0.551986 0.0749954 0.
0.553987 0.0749954 0.
0.555987 0.0749952 0.
0.557988 0.0749942 0.
0.559988 0.0749932 0.
0.561989 0.0749925 0.
0.563989 0.0749921 0.
0.56599 0.0749917 0.
0.56799 0.0749908 0.
0.56999 0.0749897 0.
0.571991 0.0749886 0.
0.573991 0.0749886 0.
0.575992 0.0749889 0.
0.577992 0.074989 0.
0.579993 0.074988 0.
0.581993 0.074987 0.
0.583994 0.0749862 0.
0.585995 0.0749858 0.
0.587995 0.0749855 0.
0.589996 0.0749853 0.
0.591997 0.0749852 0.
0.593998 0.0749852 0.
0.595999 0.0749852 0.
0.598 0.0749853 0.
0.600002 0.0749854 0.
0.602003 0.0749856 0.
0.604004 0.0749858 0.
0.606005 0.0749861 0.
0.608005 0.074987 0.
0.610005 0.0749879 0.
0.612006 0.0749884 0.
0.614007 0.0749884 0.
0.616007 0.0749884 0.
0.618008 0.0749891 0.
0.620009 0.0749901 0.
0.62201 0.074991 0.
0.62401 0.0749908 0.
0.626011 0.0749905 0.
0.628011 0.0749903 0.
0.630011 0.0749916 0.
0.632012 0.0749928 0.
0.634012 0.0749937 0.
0.636013 0.0749939 0.
0.638013 0.0749942 0.
0.640013 0.0749948 0.
0.642014 0.0749956 0.
0.644014 0.0749965 0.
0.646015 0.0749969 0.
0.648015 0.0749972 0.
0.650016 0.0749976 0.
0.652016 0.0749984 0.
0.654017 0.0749993 0.
0.656017 0.075 0.
0.658018 0.0750005 0.
0.660019 0.0750009 0.
0.662019 0.0750015 0.
0.664019 0.0750021 0.
0.666019 0.0750028 0.
0.66802 0.0750038 0.
0.670021 0.075005 0.
0.672021 0.0750063 0.
0.674022 0.0750065 0.
0.676022 0.0750067 0.
0.678023 0.075007 0.
0.680022 0.0750079 0.
0.682022 0.0750088 0.
0.684022 0.07501 0.
0.686022 0.0750119 0.
0.688021 0.0750137 0.
0.690021 0.0750151 0.
0.692021 0.0750163 0.
0.694022 0.0750175 0.
0.696022 0.0750195 0.
0.698023 0.0750217 0.
0.49998 0.0770204 0.
0.501981 0.0770191 0.
0.503982 0.0770173 0.
0.505982 0.0770157 0.
0.507982 0.0770143 0.
0.509982 0.0770129 0.
0.511982 0.0770117 0.
0.513982 0.0770108 0.
0.515982 0.0770098 0.
0.517982 0.0770089 0.
0.519982 0.0770081 0.
0.521983 0.0770073 0.
0.523983 0.0770061 0.
0.525982 0.0770048 0.
0.527982 0.0770036 0.
0.529982 0.0770027 0.
0.531983 0.0770018 0.
0.533983 0.0770009 0.
0.535983 0.077 0.
0.537984 0.076999 0.
0.539984 0.076998 0.
0.541984 0.076997 0.
0.543985 0.0769961 0.
0.545985 0.0769956 0.
0.547986 0.0769954 0.
0.549986 0.0769952 0.
0.551987 0.0769949 0.
0.553987 0.0769947 0.
0.555988 0.0769943 0.
0.557989 0.0769936 0.
0.559989 0.0769928 0.
0.56199 0.0769922 0.
0.56399 0.0769919 0.
0.56599 0.0769915 0.
0.567991 0.0769908 0.
0.569991 0.0769898 0.
0.571991 0.0769888 0.
0.573992 0.0769885 0.
0.575992 0.0769882 0.
0.577992 0.0769879 0.
0.579993 0.0769872 0.
0.581993 0.0769866 0.
0.583994 0.0769859 0.
0.585995 0.0769854 0.
0.587996 0.0769848 0.
0.589996 0.0769846 0.
0.591997 0.0769845 0.
0.593998 0.0769845 0.
0.595999 0.0769845 0.
0.598 0.0769846 0.
0.600001 0.0769846 0.
0.602002 0.076985 0.
0.604003 0.0769854 0.
0.606004 0.0769859 0.
0.608005 0.0769866 0.
0.610005 0.0769873 0.
0.612005 0.0769878 0.
0.614006 0.0769879 0.
0.616007 0.0769881 0.
0.618007 0.0769887 0.
0.620008 0.0769895 0.
0.622009 0.0769902 0.
0.624009 0.0769902 0.
0.626009 0.07699 0.
0.62801 0.0769901 0.
0.63001 0.0769913 0.
0.632011 0.0769925 0.
0.634011 0.0769934 0.
0.636012 0.0769936 0.
0.638013 0.0769938 0.
0.640013 0.0769944 0.
0.642013 0.0769952 0.
0.644013 0.076996 0.
0.646014 0.0769966 0.
0.648015 0.0769972 0.
0.650016 0.0769978 0.
0.652016 0.0769985 0.
0.654016 0.0769991 0.
0.656016 0.0769997 0.
0.658017 0.0770002 0.
0.660017 0.0770006 0.
0.662018 0.0770012 0.
0.664018 0.077002 0.
0.666018 0.0770028 0.
0.668019 0.0770038 0.
0.670019 0.0770049 0.
0.67202 0.0770059 0.
0.67402 0.0770063 0.
0.67602 0.0770067 0.
0.678021 0.077007 0.
0.680021 0.0770081 0.
0.682021 0.0770091 0.
0.68402 0.0770103 0.
0.68602 0.0770119 0.
0.68802 0.0770135 0.
0.69002 0.077015 0.
0.69202 0.0770164 0.
0.69402 0.0770178 0.
0.696021 0.0770193 0.
0.698022 0.077021 0.
0.499982 0.0790199 0.
0.501983 0.0790189 0.
0.503984 0.0790172 0.
0.505984 0.0790156 0.
0.507984 0.0790143 0.
0.509984 0.0790129 0.
0.511983 0.0790118 0.
0.513983 0.0790108 0.
0.515983 0.0790098 0.
0.517983 0.079009 0.
0.519984 0.0790083 0.
0.521984 0.0790076 0.
0.523984 0.0790062 0.
0.525984 0.0790047 0.
0.527984 0.0790033 0.
0.529984 0.0790024 0.
0.531984 0.0790015 0.
0.533984 0.0790007 0.
0.535984 0.0789999 0.
0.537984 0.0789992 0.
0.539985 0.0789982 0.
0.541985 0.0789971 0.
0.543986 0.0789959 0.
0.545986 0.0789955 0.
0.547987 0.0789952 0.
0.549987 0.078995 0.
0.551988 0.0789945 0.
0.553988 0.078994 0.
0.555989 0.0789935 0.
0.55799 0.0789929 0.
0.55999 0.0789924 0.
0.561991 0.0789919 0.
0.563991 0.0789916 0.
0.565991 0.0789913 0.
0.567991 0.0789907 0.
0.569992 0.0789899 0.
0.571992 0.078989 0.
0.573992 0.0789883 0.
0.575992 0.0789875 0.
0.577992 0.0789868 0.
0.579993 0.0789865 0.
0.581994 0.0789862 0.
0.583994 0.0789857 0.
0.585995 0.0789849 0.
0.587996 0.0789842 0.
0.589996 0.0789838 0.
0.591997 0.0789838 0.
0.593997 0.0789838 0.
0.595998 0.0789838 0.
0.598 0.0789838 0.
0.600001 0.0789839 0.
0.602002 0.0789845 0.
0.604003 0.0789851 0.
0.606004 0.0789857 0.
0.608004 0.0789862 0.
0.610004 0.0789867 0.
0.612005 0.0789872 0.
0.614005 0.0789875 0.
0.616006 0.0789878 0.
0.618006 0.0789883 0.
0.620007 0.0789889 0.
0.622008 0.0789895 0.
0.624008 0.0789896 0.
0.626008 0.0789896 0.
0.628009 0.0789898 0.
0.630009 0.078991 0.
0.63201 0.0789921 0.
0.634011 0.078993 0.
0.636011 0.0789932 0.
0.638012 0.0789935 0.
0.640013 0.078994 0.
0.642012 0.0789948 0.
0.644012 0.0789955 0.
0.646013 0.0789964 0.
0.648014 0.0789972 0.
0.650016 0.078998 0.
0.652016 0.0789985 0.
0.654016 0.078999 0.
0.656016 0.0789995 0.
0.658016 0.0789999 0.
0.660016 0.0790003 0.
0.662016 0.0790009 0.
0.664017 0.0790019 0.
0.666017 0.0790029 0.
0.668018 0.0790038 0.
0.670018 0.0790047 0.
0.672018 0.0790056 0.
0.674018 0.0790061 0.
0.676019 0.0790066 0.
0.678019 0.0790071 0.
0.680019 0.0790082 0.
0.682019 0.0790093 0.
0.684019 0.0790105 0.
0.686019 0.079012 0.
0.688019 0.0790134 0.
0.690019 0.0790149 0.
0.692019 0.0790165 0.
0.694019 0.0790181 0.
0.69602 0.0790192 0.
0.69802 0.0790202 0.
0.499984 0.0810196 0.
0.501984 0.0810184 0.
0.503985 0.0810167 0.
0.505985 0.0810152 0.
0.507985 0.0810141 0.
0.509985 0.081013 0.
0.511985 0.081012 0.
0.513984 0.0810111 0.
0.515984 0.0810101 0.
0.517984 0.0810092 0.
0.519985 0.0810084 0.
0.521985 0.0810076 0.
0.523985 0.0810062 0.
0.525985 0.0810048 0.
0.527985 0.0810034 0.
0.529985 0.0810024 0.
0.531985 0.0810014 0.
0.533985 0.0810005 0.
0.535985 0.0809998 0.
0.537985 0.0809991 0.
0.539985 0.0809981 0.
0.541986 0.080997 0.
0.543987 0.0809958 0.
0.545987 0.0809953 0.
0.547988 0.080995 0.
0.549988 0.0809947 0.
0.551989 0.0809941 0.
0.553989 0.0809935 0.
0.55599 0.0809929 0.
0.55799 0.0809925 0.
0.559991 0.0809921 0.
0.561991 0.0809917 0.
0.563992 0.0809914 0.
0.565992 0.0809911 0.
0.567992 0.0809905 0.
0.569992 0.0809898 0.
0.571992 0.0809891 0.
0.573992 0.0809881 0.
0.575992 0.0809871 0.
0.577993 0.0809861 0.
0.579993 0.0809859 0.
0.581994 0.0809857 0.
0.583995 0.0809852 0.
0.585996 0.0809844 0.
0.587996 0.0809836 0.
0.589997 0.0809832 0.
0.591997 0.0809832 0.
0.593998 0.0809831 0.
0.595998 0.0809832 0.
0.597999 0.0809833 0.
0.600001 0.0809834 0.
0.602001 0.080984 0.
0.604002 0.0809846 0.
0.606003 0.0809852 0.
0.608004 0.0809857 0.
0.610004 0.0809862 0.
0.612004 0.0809867 0.
0.614005 0.0809871 0.
0.616005 0.0809875 0.
0.618006 0.080988 0.
0.620006 0.0809885 0.
0.622007 0.0809889 0.
0.624007 0.0809892 0.
0.626008 0.0809895 0.
0.628008 0.0809898 0.
0.630008 0.0809909 0.
0.632009 0.080992 0.
0.63401 0.0809928 0.
0.636011 0.0809931 0.
0.638011 0.0809934 0.
0.640012 0.0809939 0.
0.642012 0.0809947 0.
0.644012 0.0809954 0.
0.646013 0.0809962 0.
0.648014 0.0809969 0.
0.650015 0.0809977 0.
0.652015 0.0809983 0.
0.654015 0.0809989 0.
0.656015 0.0809995 0.
0.658015 0.0809998 0.
0.660015 0.0810001 0.
0.662015 0.0810008 0.
0.664016 0.0810019 0.
0.666016 0.081003 0.
0.668017 0.0810039 0.
0.670017 0.0810047 0.
0.672017 0.0810056 0.
0.674017 0.0810062 0.
0.676017 0.0810068 0.
0.678017 0.0810075 0.
0.680017 0.0810085 0.
0.682017 0.0810096 0.
0.684018 0.0810107 0.
0.686018 0.0810121 0.
0.688018 0.0810134 0.
0.690018 0.0810149 0.
0.692018 0.0810166 0.
0.694018 0.0810182 0.
0.696018 0.0810191 0.
0.698019 0.0810197 0.
0.499985 0.0830192 0.
0.501985 0.0830177 0.
0.503985 0.083016 0.
0.505986 0.0830145 0.
0.507986 0.0830138 0.
0.509986 0.0830132 0.
0.511986 0.0830125 0.
0.513986 0.0830115 0.
0.515985 0.0830105 0.
0.517985 0.0830095 0.
0.519986 0.0830084 0.
0.521986 0.0830074 0.
0.523986 0.0830062 0.
0.525986 0.0830049 0.
0.527986 0.0830037 0.
0.529986 0.0830026 0.
0.531986 0.0830014 0.
0.533986 0.0830004 0.
0.535986 0.0829995 0.
0.537986 0.0829987 0.
0.539987 0.0829977 0.
0.541987 0.0829967 0.
0.543988 0.0829956 0.
0.545989 0.0829951 0.
0.547989 0.0829947 0.
0.549989 0.0829944 0.
0.55199 0.0829937 0.
0.55399 0.0829931 0.
0.555991 0.0829925 0.
0.557991 0.0829923 0.
0.559991 0.082992 0.
0.561992 0.0829916 0.
0.563992 0.0829912 0.
0.565992 0.0829908 0.
0.567992 0.0829902 0.
0.569992 0.0829896 0.
0.571992 0.082989 0.
0.573993 0.0829879 0.
0.575993 0.0829868 0.
0.577994 0.0829857 0.
0.579995 0.0829854 0.
0.581995 0.082985 0.
0.583996 0.0829846 0.
0.585996 0.0829839 0.
0.587997 0.0829833 0.
0.589997 0.0829828 0.
0.591998 0.0829826 0.
0.593998 0.0829823 0.
0.595999 0.0829825 0.
0.598 0.0829829 0.
0.6 0.0829833 0.
0.602001 0.0829836 0.
0.604002 0.082984 0.
0.606003 0.0829845 0.
0.608003 0.0829851 0.
0.610003 0.0829858 0.
0.612004 0.0829864 0.
0.614004 0.0829868 0.
0.616005 0.0829873 0.
0.618005 0.0829877 0.
0.620006 0.0829882 0.
0.622006 0.0829887 0.
0.624007 0.0829891 0.
0.626007 0.0829896 0.
0.628008 0.0829901 0.
0.630008 0.082991 0.
0.632008 0.082992 0.
0.634009 0.0829928 0.
0.63601 0.0829931 0.
0.63801 0.0829935 0.
0.640011 0.0829941 0.
0.642011 0.0829949 0.
0.644011 0.0829956 0.
0.646012 0.0829961 0.
0.648012 0.0829964 0.
0.650013 0.0829968 0.
0.652013 0.0829978 0.
0.654013 0.0829989 0.
0.656013 0.0829997 0.
0.658014 0.083 0.
0.660014 0.0830002 0.
0.662014 0.0830008 0.
0.664015 0.0830019 0.
0.666015 0.0830031 0.
0.668015 0.0830041 0.
0.670016 0.083005 0.
0.672016 0.0830059 0.
0.674016 0.0830067 0.
0.676016 0.0830074 0.
0.678016 0.0830082 0.
0.680016 0.083009 0.
0.682016 0.0830098 0.
0.684016 0.0830108 0.
0.686016 0.0830122 0.
0.688016 0.0830135 0.
0.690016 0.083015 0.
0.692017 0.0830166 0.
0.694017 0.0830182 0.
0.696017 0.0830189 0.
0.698018 0.0830194 0.
0.499986 0.0850189 0.
0.501986 0.085017 0.
0.503986 0.0850152 0.
0.505986 0.0850137 0.
0.507986 0.0850136 0.
0.509987 0.0850134 0.
0.511987 0.0850129 0.
0.513987 0.0850119 0.
0.515987 0.0850109 0.
0.517987 0.0850098 0.
0.519986 0.0850085 0.
0.521986 0.0850072 0.
0.523987 0.0850061 0.
0.525987 0.0850051 0.
0.527988 0.0850041 0.
0.529987 0.0850027 0.
0.531987 0.0850014 0.
0.533986 0.0850002 0.
0.535987 0.0849992 0.
0.537987 0.0849983 0.
0.539988 0.0849973 0.
0.541989 0.0849964 0.
0.54399 0.0849955 0.
0.54599 0.0849949 0.
0.54799 0.0849945 0.
0.549991 0.084994 0.
0.551991 0.0849934 0.
0.553991 0.0849927 0.
0.555992 0.0849922 0.
0.557992 0.084992 0.
0.559992 0.0849919 0.
0.561992 0.0849915 0.
0.563992 0.084991 0.
0.565992 0.0849905 0.
0.567992 0.0849899 0.
0.569993 0.0849894 0.
0.571993 0.0849888 0.
0.573993 0.0849877 0.
0.575994 0.0849865 0.
0.577995 0.0849853 0.
0.579996 0.0849849 0.
0.581997 0.0849844 0.
0.583997 0.0849839 0.
0.585997 0.0849834 0.
0.587998 0.0849829 0.
0.589998 0.0849824 0.
0.591999 0.084982 0.
0.593999 0.0849815 0.
0.596 0.0849819 0.
0.598 0.0849825 0.
0.6 0.0849831 0.
0.602001 0.0849833 0.
0.604002 0.0849834 0.
0.606003 0.0849837 0.
0.608003 0.0849846 0.
0.610003 0.0849854 0.
0.612003 0.0849861 0.
0.614004 0.0849865 0.
0.616005 0.084987 0.
0.618005 0.0849875 0.
0.620005 0.084988 0.
0.622005 0.0849885 0.
0.624006 0.0849891 0.
0.626007 0.0849897 0.
0.628008 0.0849903 0.
0.630008 0.0849912 0.
0.632008 0.084992 0.
0.634008 0.0849928 0.
0.636009 0.0849932 0.
0.638009 0.0849937 0.
0.64001 0.0849943 0.
0.64201 0.0849951 0.
0.644011 0.0849958 0.
0.646011 0.0849959 0.
0.648011 0.0849959 0.
0.650011 0.0849959 0.
0.652011 0.0849974 0.
0.654012 0.0849988 0.
0.656012 0.085 0.
0.658013 0.0850001 0.
0.660013 0.0850002 0.
0.662014 0.0850008 0.
0.664014 0.085002 0.
0.666014 0.0850032 0.
0.668014 0.0850042 0.
0.670014 0.0850052 0.
0.672015 0.0850062 0.
0.674015 0.0850071 0.
0.676015 0.085008 0.
0.678015 0.0850089 0.
0.680015 0.0850095 0.
0.682015 0.0850101 0.
0.684015 0.085011 0.
0.686015 0.0850123 0.
0.688015 0.0850136 0.
0.690015 0.0850151 0.
0.692016 0.0850167 0.
0.694016 0.0850183 0.
0.696016 0.0850188 0.
0.698016 0.0850191 0.
0.499988 0.0870188 0.
0.501988 0.0870171 0.
0.503988 0.0870157 0.
0.505988 0.0870145 0.
0.507988 0.087014 0.
0.509988 0.0870136 0.
0.511988 0.0870129 0.
0.513988 0.0870118 0.
0.515988 0.0870108 0.
0.517988 0.0870095 0.
0.519988 0.0870082 0.
0.521988 0.0870069 0.
0.523988 0.0870058 0.
0.525988 0.0870048 0.
0.527989 0.0870037 0.
0.529988 0.0870023 0.
0.531988 0.0870009 0.
0.533988 0.0869997 0.
0.535988 0.0869988 0.
0.537988 0.086998 0.
0.539989 0.086997 0.
0.541989 0.0869961 0.
0.54399 0.0869951 0.
0.54599 0.0869946 0.
0.547991 0.0869941 0.
0.549991 0.0869937 0.
0.551991 0.0869931 0.
0.553992 0.0869925 0.
0.555992 0.086992 0.
0.557992 0.0869919 0.
0.559992 0.0869917 0.
0.561992 0.0869914 0.
0.563992 0.0869907 0.
0.565993 0.0869901 0.
0.567993 0.0869894 0.
0.569993 0.0869887 0.
0.571993 0.086988 0.
0.573994 0.086987 0.
0.575994 0.0869859 0.
0.577995 0.0869849 0.
0.579996 0.0869843 0.
0.581996 0.0869838 0.
0.583997 0.0869832 0.
0.585997 0.0869828 0.
0.587998 0.0869823 0.
0.589998 0.0869819 0.
0.591999 0.0869816 0.
0.593999 0.0869812 0.
0.595999 0.0869815 0.
0.598 0.0869818 0.
0.6 0.0869822 0.
0.602001 0.0869827 0.
0.604002 0.0869832 0.
0.606003 0.0869837 0.
0.608003 0.0869843 0.
0.610003 0.086985 0.
0.612003 0.0869855 0.
0.614004 0.086986 0.
0.616005 0.0869864 0.
0.618005 0.086987 0.
0.620005 0.0869876 0.
0.622005 0.0869882 0.
0.624006 0.0869889 0.
0.626006 0.0869895 0.
0.628006 0.0869902 0.
0.630007 0.0869908 0.
0.632007 0.0869915 0.
0.634008 0.0869921 0.
0.636008 0.0869929 0.
0.638008 0.0869937 0.
0.640009 0.0869944 0.
0.642009 0.0869951 0.
0.64401 0.0869958 0.
0.64601 0.086996 0.
0.64801 0.0869961 0.
0.650011 0.0869963 0.
0.652011 0.0869975 0.
0.654011 0.0869987 0.
0.656012 0.0869997 0.
0.658012 0.0869998 0.
0.660012 0.0869999 0.
0.662012 0.0870005 0.
0.664013 0.0870017 0.
0.666013 0.087003 0.
0.668013 0.0870041 0.
0.670014 0.0870052 0.
0.672014 0.0870063 0.
0.674014 0.0870072 0.
0.676014 0.087008 0.
0.678014 0.0870089 0.
0.680014 0.0870096 0.
0.682014 0.0870103 0.
0.684014 0.0870112 0.
0.686014 0.0870125 0.
0.688014 0.0870138 0.
0.690015 0.0870151 0.
0.692015 0.0870163 0.
0.694015 0.0870176 0.
0.696015 0.0870186 0.
0.698015 0.0870195 0.
0.49999 0.0890184 0.
0.50199 0.0890172 0.
0.50399 0.0890162 0.
0.505989 0.0890152 0.
0.507989 0.0890145 0.
0.509989 0.0890137 0.
0.511989 0.0890128 0.
0.513989 0.0890117 0.
0.515989 0.0890106 0.
0.517989 0.0890093 0.
0.519989 0.0890079 0.
0.521989 0.0890066 0.
0.523989 0.0890055 0.
0.525989 0.0890045 0.
0.527989 0.0890034 0.
0.529989 0.0890019 0.
0.53199 0.0890005 0.
0.53399 0.0889992 0.
0.53599 0.0889984 0.
0.53799 0.0889977 0.
0.53999 0.0889968 0.
0.54199 0.0889958 0.
0.543991 0.0889948 0.
0.545991 0.0889942 0.
0.547991 0.0889938 0.
0.549992 0.0889933 0.
0.551992 0.0889928 0.
0.553992 0.0889922 0.
0.555993 0.0889918 0.
0.557992 0.0889917 0.
0.559992 0.0889916 0.
0.561993 0.0889912 0.
0.563993 0.0889905 0.
0.565993 0.0889897 0.
0.567993 0.0889889 0.
0.569994 0.088988 0.
0.571994 0.0889872 0.
0.573994 0.0889863 0.
0.575995 0.0889853 0.
0.577995 0.0889844 0.
0.579995 0.0889838 0.
0.581995 0.0889832 0.
0.583996 0.0889826 0.
0.585997 0.0889821 0.
0.587998 0.0889816 0.
0.589998 0.0889813 0.
0.591999 0.0889811 0.
0.593999 0.0889809 0.
0.595999 0.088981 0.
0.598 0.0889811 0.
0.6 0.0889812 0.
0.602001 0.0889821 0.
0.604002 0.088983 0.
0.606002 0.0889837 0.
0.608003 0.0889841 0.
0.610003 0.0889845 0.
0.612004 0.088985 0.
0.614004 0.0889854 0.
0.616005 0.0889859 0.
0.618005 0.0889865 0.
0.620005 0.0889872 0.
0.622005 0.0889879 0.
0.624005 0.0889886 0.
0.626005 0.0889894 0.
0.628005 0.0889901 0.
0.630006 0.0889905 0.
0.632007 0.0889909 0.
0.634008 0.0889915 0.
0.636008 0.0889926 0.
0.638008 0.0889937 0.
0.640008 0.0889946 0.
0.642008 0.0889951 0.
0.644009 0.0889957 0.
0.646009 0.0889961 0.
0.64801 0.0889964 0.
0.650011 0.0889967 0.
0.652011 0.0889977 0.
0.654011 0.0889987 0.
0.656011 0.0889994 0.
0.658011 0.0889995 0.
0.660011 0.0889996 0.
0.662011 0.0890002 0.
0.664011 0.0890015 0.
0.666012 0.0890028 0.
0.668012 0.089004 0.
0.670013 0.0890052 0.
0.672013 0.0890064 0.
0.674013 0.0890073 0.
0.676013 0.0890081 0.
0.678013 0.0890089 0.
0.680013 0.0890097 0.
0.682013 0.0890106 0.
0.684013 0.0890115 0.
0.686014 0.0890128 0.
0.688014 0.089014 0.
0.690014 0.0890151 0.
0.692014 0.089016 0.
0.694015 0.0890169 0.
0.696014 0.0890184 0.
0.698014 0.08902 0.
0.499991 0.0910185 0.
0.501991 0.0910174 0.
0.503991 0.0910165 0.
0.505991 0.0910156 0.
0.507991 0.0910147 0.
0.50999 0.0910139 0.
0.51199 0.0910129 0.
0.51399 0.0910117 0.
0.51599 0.0910106 0.
0.51799 0.0910093 0.
0.51999 0.0910079 0.
0.521991 0.0910065 0.
0.52399 0.0910053 0.
0.52599 0.0910042 0.
0.52799 0.091003 0.
0.52999 0.0910016 0.
0.531991 0.0910003 0.
0.533991 0.0909991 0.
0.535991 0.0909984 0.
0.537991 0.0909976 0.
0.539991 0.0909967 0.
0.541991 0.0909956 0.
0.543991 0.0909946 0.
0.545992 0.090994 0.
0.547992 0.0909935 0.
0.549992 0.090993 0.
0.551992 0.0909926 0.
0.553993 0.0909922 0.
0.555993 0.0909918 0.
0.557993 0.0909918 0.
0.559993 0.0909917 0.
0.561993 0.0909913 0.
0.563994 0.0909903 0.
0.565994 0.0909894 0.
0.567994 0.0909885 0.
0.569994 0.0909877 0.
0.571995 0.0909869 0.
0.573995 0.090986 0.
0.575995 0.0909852 0.
0.577995 0.0909844 0.
0.579995 0.0909837 0.
0.581995 0.090983 0.
0.583996 0.0909824 0.
0.585997 0.0909818 0.
0.587997 0.0909812 0.
0.589998 0.0909809 0.
0.591998 0.0909808 0.
0.593999 0.0909807 0.
0.595999 0.0909806 0.
0.598 0.0909806 0.
0.6 0.0909805 0.
0.602001 0.0909816 0.
0.604001 0.0909827 0.
0.606002 0.0909837 0.
0.608002 0.090984 0.
0.610003 0.0909843 0.
0.612003 0.0909847 0.
0.614004 0.0909852 0.
0.616005 0.0909858 0.
0.618005 0.0909864 0.
0.620005 0.090987 0.
0.622004 0.0909877 0.
0.624005 0.0909884 0.
0.626005 0.0909891 0.
0.628005 0.0909897 0.
0.630006 0.0909901 0.
0.632006 0.0909906 0.
0.634007 0.0909912 0.
0.636007 0.0909925 0.
0.638007 0.0909937 0.
0.640007 0.0909946 0.
0.642007 0.0909951 0.
0.644008 0.0909957 0.
0.646008 0.0909961 0.
0.648009 0.0909965 0.
0.65001 0.0909968 0.
0.65201 0.0909978 0.
0.65401 0.0909987 0.
0.65601 0.0909994 0.
0.65801 0.0909995 0.
0.66001 0.0909996 0.
0.66201 0.0910003 0.
0.66401 0.0910015 0.
0.666011 0.0910028 0.
0.668011 0.091004 0.
0.670012 0.0910052 0.
0.672012 0.0910065 0.
0.674012 0.0910073 0.
0.676012 0.0910081 0.
0.678011 0.0910089 0.
0.680012 0.09101 0.
0.682012 0.091011 0.
0.684012 0.0910119 0.
0.686012 0.0910129 0.
0.688013 0.0910138 0.
0.690013 0.0910148 0.
0.692013 0.0910159 0.
0.694013 0.091017 0.
0.696013 0.0910185 0.
0.698013 0.0910202 0.
0.499991 0.0930187 0.
0.501991 0.0930176 0.
0.503991 0.0930166 0.
0.505992 0.0930156 0.
0.507992 0.0930148 0.
0.509992 0.093014 0.
0.511991 0.093013 0.
0.513991 0.0930118 0.
0.515991 0.0930106 0.
0.517991 0.0930093 0.
0.519992 0.093008 0.
0.521992 0.0930067 0.
0.523992 0.0930053 0.
0.525991 0.0930039 0.
0.527991 0.0930026 0.
0.529991 0.0930015 0.
0.531992 0.0930004 0.
0.533992 0.0929994 0.
0.535992 0.0929986 0.
0.537992 0.0929978 0.
0.539992 0.0929968 0.
0.541992 0.0929957 0.
0.543992 0.0929946 0.
0.545993 0.0929939 0.
0.547993 0.0929933 0.
0.549993 0.0929928 0.
0.551993 0.0929925 0.
0.553993 0.0929923 0.
0.555994 0.0929921 0.
0.557994 0.0929921 0.
0.559994 0.0929921 0.
0.561994 0.0929915 0.
0.563995 0.0929903 0.
0.565995 0.0929891 0.
0.567995 0.0929883 0.
0.569995 0.0929877 0.
0.571996 0.0929871 0.
0.573996 0.0929863 0.
0.575996 0.0929854 0.
0.577996 0.0929846 0.
0.579996 0.092984 0.
0.581996 0.0929833 0.
0.583996 0.0929826 0.
0.585997 0.0929818 0.
0.587997 0.0929811 0.
0.589997 0.0929807 0.
0.591998 0.0929806 0.
0.593998 0.0929806 0.
0.595999 0.0929804 0.
0.598 0.0929802 0.
0.600001 0.0929799 0.
0.602001 0.0929812 0.
0.604001 0.0929825 0.
0.606002 0.0929836 0.
0.608002 0.0929839 0.
0.610002 0.0929842 0.
0.612003 0.0929847 0.
0.614003 0.0929854 0.
0.616004 0.0929862 0.
0.618004 0.0929867 0.
0.620004 0.0929871 0.
0.622004 0.0929875 0.
0.624004 0.092988 0.
0.626004 0.0929885 0.
0.628005 0.092989 0.
0.630005 0.0929898 0.
0.632005 0.0929905 0.
0.634005 0.0929914 0.
0.636006 0.0929925 0.
0.638006 0.0929936 0.
0.640006 0.0929944 0.
0.642007 0.0929951 0.
0.644007 0.0929957 0.
0.646007 0.0929961 0.
0.648007 0.0929964 0.
0.650008 0.0929968 0.
0.652008 0.0929978 0.
0.654008 0.0929988 0.
0.656009 0.0929996 0.
0.658009 0.0929998 0.
0.660009 0.0929999 0.
0.662009 0.0930006 0.
0.664009 0.0930018 0.
0.66601 0.093003 0.
0.66801 0.0930042 0.
0.67001 0.0930054 0.
0.672011 0.0930065 0.
0.674011 0.0930074 0.
0.67601 0.0930082 0.
0.67801 0.093009 0.
0.680011 0.0930103 0.
0.682011 0.0930115 0.
0.684011 0.0930125 0.
0.686011 0.0930129 0.
0.688011 0.0930134 0.
0.690011 0.0930145 0.
0.692011 0.0930161 0.
0.694012 0.0930177 0.
0.696011 0.093019 0.
0.698011 0.0930203 0.
0.49999 0.0950191 0.
0.501991 0.0950179 0.
0.503992 0.0950167 0.
0.505993 0.0950156 0.
0.507993 0.0950149 0.
0.509993 0.0950142 0.
0.511993 0.0950132 0.
0.513992 0.0950119 0.
0.515992 0.0950106 0.
0.517993 0.0950094 0.
0.519993 0.0950081 0.
0.521993 0.0950069 0.
0.523993 0.0950053 0.
0.525992 0.0950037 0.
0.527992 0.0950022 0.
0.529992 0.0950013 0.
0.531992 0.0950005 0.
0.533993 0.0949996 0.
0.535993 0.0949988 0.
0.537993 0.094998 0.
0.539993 0.0949969 0.
0.541993 0.0949957 0.
0.543993 0.0949946 0.
0.545994 0.0949938 0.
0.547994 0.0949932 0.
0.549994 0.0949925 0.
0.551994 0.0949924 0.
0.553994 0.0949924 0.
0.555994 0.0949923 0.
0.557995 0.0949924 0.
0.559995 0.0949924 0.
0.561995 0.0949918 0.
0.563996 0.0949903 0.
0.565996 0.0949888 0.
0.567996 0.0949881 0.
0.569996 0.0949877 0.
0.571996 0.0949873 0.
0.573996 0.0949865 0.
0.575996 0.0949857 0.
0.577996 0.0949849 0.
0.579996 0.0949843 0.
0.581997 0.0949836 0.
0.583997 0.0949829 0.
0.585996 0.0949819 0.
0.587996 0.0949809 0.
0.589996 0.0949805 0.
0.591997 0.0949805 0.
0.593998 0.0949805 0.
0.595999 0.0949802 0.
0.598 0.0949798 0.
0.600001 0.0949794 0.
0.602001 0.0949808 0.
0.604001 0.0949823 0.
0.606001 0.0949835 0.
0.608001 0.0949838 0.
0.610001 0.0949841 0.
0.612002 0.0949847 0.
0.614002 0.0949856 0.
0.616003 0.0949865 0.
0.618003 0.094987 0.
0.620003 0.0949872 0.
0.622004 0.0949874 0.
0.624004 0.0949877 0.
0.626004 0.094988 0.
0.628004 0.0949884 0.
0.630004 0.0949894 0.
0.632004 0.0949905 0.
0.634004 0.0949916 0.
0.636004 0.0949925 0.
0.638005 0.0949935 0.
0.640005 0.0949943 0.
0.642006 0.094995 0.
0.644006 0.0949957 0.
0.646006 0.0949961 0.
0.648006 0.0949964 0.
0.650006 0.0949967 0.
0.652006 0.0949978 0.
0.654007 0.0949989 0.
0.656007 0.0949998 0.
0.658007 0.095 0.
0.660007 0.0950002 0.
0.662008 0.0950009 0.
0.664008 0.0950021 0.
0.666009 0.0950033 0.
0.668009 0.0950044 0.
0.670009 0.0950055 0.
0.672009 0.0950066 0.
0.674009 0.0950074 0.
0.676009 0.0950082 0.
0.678009 0.0950091 0.
0.680009 0.0950106 0.
0.68201 0.0950121 0.
0.68401 0.0950131 0.
0.68601 0.095013 0.
0.688009 0.0950129 0.
0.690009 0.0950141 0.
0.69201 0.0950162 0.
0.69401 0.0950184 0.
0.69601 0.0950195 0.
0.698009 0.0950204 0.
0.49999 0.0970187 0.
0.501991 0.0970174 0.
0.503992 0.0970163 0.
0.505993 0.0970153 0.
0.507993 0.0970146 0.
0.509994 0.0970139 0.
0.511994 0.0970129 0.
0.513994 0.0970115 0.
0.515993 0.0970102 0.
0.517994 0.0970091 0.
0.519994 0.0970081 0.
0.521994 0.0970072 0.
0.523994 0.0970055 0.
0.525994 0.0970037 0.
0.527994 0.097002 0.
0.529994 0.0970008 0.
0.531994 0.0969996 0.
0.533994 0.0969986 0.
0.535994 0.0969982 0.
0.537995 0.0969978 0.
0.539995 0.0969968 0.
0.541994 0.0969955 0.
0.543994 0.0969941 0.
0.545994 0.0969934 0.
0.547994 0.0969928 0.
0.549994 0.0969923 0.
0.551994 0.0969924 0.
0.553994 0.0969924 0.
0.555994 0.0969925 0.
0.557995 0.0969922 0.
0.559995 0.096992 0.
0.561996 0.0969914 0.
0.563996 0.0969903 0.
0.565996 0.0969892 0.
0.567996 0.0969886 0.
0.569996 0.0969884 0.
0.571996 0.0969882 0.
0.573996 0.0969872 0.
0.575997 0.0969861 0.
0.577997 0.096985 0.
0.579997 0.096984 0.
0.581997 0.096983 0.
0.583997 0.0969821 0.
0.585998 0.0969816 0.
0.587998 0.096981 0.
0.589998 0.0969806 0.
0.591998 0.0969803 0.
0.593998 0.09698 0.
0.595998 0.0969798 0.
0.597999 0.0969795 0.
0.599999 0.0969792 0.
0.601999 0.0969805 0.
0.604 0.0969818 0.
0.606 0.096983 0.
0.608 0.0969836 0.
0.61 0.0969843 0.
0.612001 0.0969849 0.
0.614001 0.0969856 0.
0.616002 0.0969862 0.
0.618002 0.0969865 0.
0.620002 0.0969867 0.
0.622003 0.0969868 0.
0.624003 0.0969874 0.
0.626003 0.0969879 0.
0.628004 0.0969885 0.
0.630004 0.096989 0.
0.632004 0.0969895 0.
0.634004 0.0969903 0.
0.636004 0.0969915 0.
0.638004 0.0969928 0.
0.640005 0.0969938 0.
0.642005 0.0969946 0.
0.644006 0.0969953 0.
0.646006 0.0969956 0.
0.648006 0.0969959 0.
0.650006 0.0969961 0.
0.652007 0.0969976 0.
0.654007 0.0969991 0.
0.656007 0.0970003 0.
0.658007 0.0970004 0.
0.660007 0.0970005 0.
0.662008 0.0970011 0.
0.664008 0.0970023 0.
0.666007 0.0970034 0.
0.668008 0.0970043 0.
0.670008 0.0970051 0.
0.672008 0.0970059 0.
0.674008 0.0970072 0.
0.676008 0.0970085 0.
0.678008 0.0970098 0.
0.680008 0.0970111 0.
0.682008 0.0970123 0.
0.684008 0.0970132 0.
0.686008 0.0970133 0.
0.688008 0.0970135 0.
0.690008 0.0970146 0.
0.692008 0.0970165 0.
0.694008 0.0970183 0.
0.696008 0.0970196 0.
0.698008 0.0970208 0.
0.49999 0.0990181 0.
0.501991 0.0990169 0.
0.503992 0.0990159 0.
0.505993 0.0990149 0.
0.507994 0.0990143 0.
0.509994 0.0990137 0.
0.511995 0.0990127 0.
0.513995 0.0990112 0.
0.515995 0.0990097 0.
0.517995 0.0990088 0.
0.519995 0.0990081 0.
0.521995 0.0990075 0.
0.523996 0.0990056 0.
0.525996 0.0990037 0.
0.527996 0.0990018 0.
0.529996 0.0990002 0.
0.531996 0.0989987 0.
0.533996 0.0989976 0.
0.535996 0.0989976 0.
0.537996 0.0989976 0.
0.539996 0.0989967 0.
0.541995 0.0989952 0.
0.543995 0.0989937 0.
0.545995 0.098993 0.
0.547995 0.0989925 0.
0.549994 0.098992 0.
0.551994 0.0989923 0.
0.553995 0.0989925 0.
0.555995 0.0989926 0.
0.557995 0.0989921 0.
0.559996 0.0989917 0.
0.561996 0.0989911 0.
0.563996 0.0989903 0.
0.565997 0.0989895 0.
0.567997 0.0989892 0.
0.569996 0.0989892 0.
0.571996 0.0989891 0.
0.573996 0.0989879 0.
0.575997 0.0989865 0.
0.577998 0.0989851 0.
0.579998 0.0989837 0.
0.581998 0.0989824 0.
0.583998 0.0989814 0.
0.585999 0.0989813 0.
0.587999 0.0989811 0.
0.589999 0.0989808 0.
0.591999 0.0989802 0.
0.593999 0.0989796 0.
0.595998 0.0989794 0.
0.597998 0.0989792 0.
0.599997 0.098979 0.
0.601998 0.0989802 0.
0.603998 0.0989814 0.
0.605998 0.0989825 0.
0.607999 0.0989835 0.
0.609999 0.0989844 0.
0.611999 0.0989851 0.
0.614 0.0989855 0.
0.616001 0.0989858 0.
0.618001 0.098986 0.
0.620001 0.0989861 0.
0.622002 0.0989862 0.
0.624002 0.098987 0.
0.626002 0.0989879 0.
0.628003 0.0989887 0.
0.630003 0.0989886 0.
0.632003 0.0989885 0.
0.634003 0.098989 0.
0.636004 0.0989905 0.
0.638004 0.0989921 0.
0.640004 0.0989933 0.
0.642005 0.0989941 0.
0.644005 0.0989949 0.
0.646006 0.0989952 0.
0.648006 0.0989953 0.
0.650007 0.0989954 0.
0.652007 0.0989973 0.
0.654007 0.0989992 0.
0.656006 0.0990007 0.
0.658007 0.0990008 0.
0.660007 0.0990008 0.
0.662007 0.0990014 0.
0.664007 0.0990025 0.
0.666006 0.0990036 0.
0.668006 0.0990043 0.
0.670007 0.0990047 0.
0.672007 0.0990052 0.
0.674007 0.0990069 0.
0.676007 0.0990088 0.
0.678007 0.0990106 0.
0.680007 0.0990115 0.
0.682007 0.0990125 0.
0.684007 0.0990133 0.
0.686007 0.0990137 0.
0.688006 0.0990142 0.
0.690006 0.0990152 0.
0.692006 0.0990167 0.
0.694006 0.0990182 0.
0.696006 0.0990197 0.
0.698007 0.0990212 0.
CELLS 5000 10000
1 0
1 1
1 2
1 3
1 4
1 5
1 6
1 7
1 8
1 9
1 10
1 11
1 12
1 13
1 14
1 15
1 16
1 17
1 18
1 19
1 20
1 21
1 22
1 23
1 24
1 25
1 26
1 27
1 28
1 29
1 30
1 31
1 32
1 33
1 34
1 35
1 36
1 37
1 38
1 39
1 40
1 41
1 42
1 43
1 44
1 45
1 46
1 47
1 48
1 49
1 50
1 51
1 52
1 53
1 54
1 55
1 56
1 57
1 58
1 59
1 60
1 61
1 62
1 63
1 64
1 65
1 66
1 67
1 68
1 69
1 70
1 71
1 72
1 73
1 74
1 75
1 76
1 77
1 78
1 79
1 80
1 81
1 82
1 83
1 84
1 85
1 86
1 87
1 88
1 89
1 90
1 91
1 92
1 93
1 94
1 95
1 96
1 97
1 98
1 99
1 100
1 101
1 102
1 103
1 104
1 105
1 106
1 107
1 108
1 109
1 110
1 111
1 112
1 113
1 114
1 115
1 116
1 117
1 118
1 119
1 120
1 121
1 122
1 123
1 124
1 125
1 126
1 127
1 128
1 129
1 130
1 131
1 132
1 133
1 134
1 135
1 136
1 137
1 138
1 139
1 140
1 141
1 142
1 143
1 144
1 145
1 146
1 147
1 148
1 149
1 150
1 151
1 152
1 153
1 154
1 155
1 156
1 157
1 158
1 159
1 160
1 161
1 162
1 163
1 164
1 165
1 166
1 167
1 168
1 169
1 170
1 171
1 172
1 173
1 174
1 175
1 176
1 177
1 178
1 179
1 180
1 181
1 182
1 183
1 184
1 185
1 186
1 187
1 188
1 189
1 190
1 191
1 192
1 193
1 194
1 195
1 196
1 197
1 198
1 199
1 200
1 201
1 202
1 203
1 204
1 205
1 206
1 207
1 208
1 209
1 210
1 211
1 212
1 213
1 214
1 215
1 216
1 217
1 218
1 219
1 220
1 221
1 222
1 223
1 224
1 225
1 226
1 227
1 228
1 229
1 230
1 231
1 232
1 233
1 234
1 235
1 236
1 237
1 238
1 239
1 240
1 241
1 242
1 243
1 244
1 245
1 246
1 247
1 248
1 249
1 250
1 251
1 252
1 253
1 254
1 255
1 256
1 257
1 258
1 259
1 260
1 261
1 262
1 263
1 264
1 265
1 266
1 267
1 268
1 269
1 270
1 271
1 272
1 273
1 274
1 275
1 276
1 277
1 278
1 279
1 280
1 281
1 282
1 283
1 284
1 285
1 286
1 287
1 288
1 289
1 290
1 291
1 292
1 293
1 294
1 295
1 296
1 297
1 298
1 299
1 300
1 301
1 302
1 303
1 304
1 305
1 306
1 307
1 308
1 309
1 310
1 311
1 312
1 313
1 314
1 315
1 316
1 317
1 318
1 319
1 320
1 321
1 322
1 323
1 324
1 325
1 326
1 327
1 328
1 329
1 330
1 331
1 332
1 333
1 334
1 335
1 336
1 337
1 338
1 339
1 340
1 341
1 342
1 343
1 344
1 345
1 346
1 347
1 348
1 349
1 350
1 351
1 352
1 353
1 354
1 355
1 356
1 357
1 358
1 359
1 360
1 361
1 362
1 363
1 364
1 365
1 366
1 367
1 368
1 369
1 370
1 371
1 372
1 373
1 374
1 375
1 376
1 377
1 378
1 379
1 380
1 381
1 382
1 383
1 384
1 385
1 386
1 387
1 388
1 389
1 390
1 391
1 392
1 393
1 394
1 395
1 396
1 397
1 398
1 399
1 400
1 401
1 402
1 403
1 404
1 405
1 406
1 407
1 408
1 409
1 410
1 411
1 412
1 413
1 414
1 415
1 416
1 417
1 418
1 419
1 420
1 421
1 422
1 423
1 424
1 425
1 426
1 427
1 428
1 429
1 430
1 431
1 432
1 433
1 434
1 435
1 436
1 437
1 438
1 439
1 440
1 441
1 442
1 443
1 444
1 445
1 446
1 447
1 448
1 449
1 450
1 451
1 452
1 453
1 454
1 455
1 456
1 457
1 458
1 459
1 460
1 461
1 462
1 463
1 464
1 465
1 466
1 467
1 468
1 469
1 470
1 471
1 472
1 473
1 474
1 475
1 476
1 477
1 478
1 479
1 480
1 481
1 482
1 483
1 484
1 485
1 486
1 487
1 488
1 489
1 490
1 491
1 492
1 493
1 494
1 495
1 496
1 497
1 498
1 499
1 500
1 501
1 502
1 503
1 504
1 505
1 506
1 507
1 508
1 509
1 510
1 511
1 512
1 513
1 514
1 515
1 516
1 517
1 518
1 519
1 520
1 521
1 522
1 523
1 524
1 525
1 526
1 527
1 528
1 529
1 530
1 531
1 532
1 533
1 534
1 535
1 536
1 537
1 538
1 539
1 540
1 541
1 542
1 543
1 544
1 545
1 546
1 547
1 548
1 549
1 550
1 551
1 552
1 553
1 554
1 555
1 556
1 557
1 558
1 559
1 560
1 561
1 562
1 563
1 564
1 565
1 566
1 567
1 568
1 569
1 570
1 571
1 572
1 573
1 574
1 575
1 576
1 577
1 578
1 579
1 580
1 581
1 582
1 583
1 584
1 585
1 586
1 587
1 588
1 589
1 590
1 591
1 592
1 593
1 594
1 595
1 596
1 597
1 598
1 599
1 600
1 601
1 602
1 603
1 604
1 605
1 606
1 607
1 608
1 609
1 610
1 611
1 612
1 613
1 614
1 615
1 616
1 617
1 618
1 619
1 620
1 621
1 622
1 623
1 624
1 625
1 626
1 627
1 628
1 629
1 630
1 631
1 632
1 633
1 634
1 635
1 636
1 637
1 638
1 639
1 640
1 641
1 642
1 643
1 644
1 645
1 646
1 647
1 648
1 649
1 650
1 651
1 652
1 653
1 654
1 655
1 656
1 657
1 658
1 659
1 660
1 661
1 662
1 663
1 664
1 665
1 666
1 667
1 668
1 669
1 670
1 671
1 672
1 673
1 674
1 675
1 676
1 677
1 678
1 679
1 680
1 681
1 682
1 683
1 684
1 685
1 686
1 687
1 688
1 689
1 690
1 691
1 692
1 693
1 694
1 695
1 696
1 697
1 698
1 699
1 700
1 701
1 702
1 703
1 704
1 705
1 706
1 707
1 708
1 709
1 710
1 711
1 712
1 713
1 714
1 715
1 716
1 717
1 718
1 719
1 720
1 721
1 722
1 723
1 724
1 725
1 726
1 727
1 728
1 729
1 730
1 731
1 732
1 733
1 734
1 735
1 736
1 737
1 738
1 739
1 740
1 741
1 742
1 743
1 744
1 745
1 746
1 747
1 748
1 749
1 750
1 751
1 752
1 753
1 754
1 755
1 756
1 757
1 758
1 759
1 760
1 761
1 762
1 763
1 764
1 765
1 766
1 767
1 768
1 769
1 770
1 771
1 772
1 773
1 774
1 775
1 776
1 777
1 778
1 779
1 780
1 781
1 782
1 783
1 784
1 785
1 786
1 787
1 788
1 789
1 790
1 791
1 792
1 793
1 794
1 795
1 796
1 797
1 798
1 799
1 800
1 801
1 802
1 803
1 804
1 805
1 806
1 807
1 808
1 809
1 810
1 811
1 812
1 813
1 814
1 815
1 816
1 817
1 818
1 819
1 820
1 821
1 822
1 823
1 824
1 825
1 826
1 827
1 828
1 829
1 830
1 831
1 832
1 833
1 834
1 835
1 836
1 837
1 838
1 839
1 840
1 841
1 842
1 843
1 844
1 845
1 846
1 847
1 848
1 849
1 850
1 851
1 852
1 853
1 854
1 855
1 856
1 857
1 858
1 859
1 860
1 861
1 862
1 863
1 864
1 865
1 866
1 867
1 868
1 869
1 870
1 871
1 872
1 873
1 874
1 875
1 876
1 877
1 878
1 879
1 880
1 881
1 882
1 883
1 884
1 885
1 886
1 887
1 888
1 889
1 890
1 891
1 892
1 893
1 894
1 895
1 896
1 897
1 898
1 899
1 900
1 901
1 902
1 903
1 904
1 905
1 906
1 907
1 908
1 909
1 910
1 911
1 912
1 913
1 914
1 915
1 916
1 917
1 918
1 919
1 920
1 921
1 922
1 923
1 924
1 925
1 926
1 927
1 928
1 929
1 930
1 931
1 932
1 933
1 934
1 935
1 936
1 937
1 938
1 939
1 940
1 941
1 942
1 943
1 944
1 945
1 946
1 947
1 948
1 949
1 950
1 951
1 952
1 953
1 954
1 955
1 956
1 957
1 958
1 959
1 960
1 961
1 962
1 963
1 964
1 965
1 966
1 967
1 968
1 969
1 970
1 971
1 972
1 973
1 974
1 975
1 976
1 977
1 978
1 979
1 980
1 981
1 982
1 983
1 984
1 985
1 986
1 987
1 988
1 989
1 990
1 991
1 992
1 993
1 994
1 995
1 996
1 997
1 998
1 999
1 1000
1 1001
1 1002
1 1003
1 1004
1 1005
1 1006
1 1007
1 1008
1 1009
1 1010
1 1011
1 1012
1 1013
1 1014
1 1015
1 1016
1 1017
1 1018
1 1019
1 1020
1 1021
1 1022
1 1023
1 1024
1 1025
1 1026
1 1027
1 1028
1 1029
1 1030
1 1031
1 1032
1 1033
1 1034
1 1035
1 1036
1 1037
1 1038
1 1039
1 1040
1 1041
1 1042
1 1043
1 1044
1 1045
1 1046
1 1047
1 1048
1 1049
1 1050
1 1051
1 1052
1 1053
1 1054
1 1055
1 1056
1 1057
1 1058
1 1059
1 1060
1 1061
1 1062
1 1063
1 1064
1 1065
1 1066
1 1067
1 1068
1 1069
1 1070
1 1071
1 1072
1 1073
1 1074
1 1075
1 1076
1 1077
1 1078
1 1079
1 1080
1 1081
1 1082
1 1083
1 1084
1 1085
1 1086
1 1087
1 1088
1 1089
1 1090
1 1091
1 1092
1 1093
1 1094
1 1095
1 1096
1 1097
1 1098
1 1099
1 1100
1 1101
1 1102
1 1103
1 1104
1 1105
1 1106
1 1107
1 1108
1 1109
1 1110
1 1111
1 1112
1 1113
1 1114
1 1115
1 1116
1 1117
1 1118
1 1119
1 1120
1 1121
1 1122
1 1123
1 1124
1 1125
1 1126
1 1127
1 1128
1 1129
1 1130
1 1131
1 1132
1 1133
1 1134
1 1135
1 1136
1 1137
1 1138
1 1139
1 1140
1 1141
1 1142
1 1143
1 1144
1 1145
1 1146
1 1147
1 1148
1 1149
1 1150
1 1151
1 1152
1 1153
1 1154
1 1155
1 1156
1 1157
1 1158
1 1159
1 1160
1 1161
1 1162
1 1163
1 1164
1 1165
1 1166
1 1167
1 1168
1 1169
1 1170
1 1171
1 1172
1 1173
1 1174
1 1175
1 1176
1 1177
1 1178
1 1179
1 1180
1 1181
1 1182
1 1183
1 1184
1 1185
1 1186
1 1187
1 1188
1 1189
1 1190
1 1191
1 1192
1 1193
1 1194
1 1195
1 1196
1 1197
1 1198
1 1199
1 1200
1 1201
1 1202
1 1203
1 1204
1 1205
1 1206
1 1207
1 1208
1 1209
1 1210
1 1211
1 1212
1 1213
1 1214
1 1215
1 1216
1 1217
1 1218
1 1219
1 1220
1 1221
1 1222
1 1223
1 1224
1 1225
1 1226
1 1227
1 1228
1 1229
1 1230
1 1231
1 1232
1 1233
1 1234
1 1235
1 1236
1 1237
1 1238
1 1239
1 1240
1 1241
1 1242
1 1243
1 1244
1 1245
1 1246
1 1247
1 1248
1 1249
1 1250
1 1251
1 1252
1 1253
1 1254
1 1255
1 1256
1 1257
1 1258
1 1259
1 1260
1 1261
1 1262
1 1263
1 1264
1 1265
1 1266
1 1267
1 1268
1 1269
1 1270
1 1271
1 1272
1 1273
1 1274
1 1275
1 1276
1 1277
1 1278
1 1279
1 1280
1 1281
1 1282
1 1283
1 1284
1 1285
1 1286
1 1287
1 1288
1 1289
1 1290
1 1291
1 1292
1 1293
1 1294
1 1295
1 1296
1 1297
1 1298
1 1299
1 1300
1 1301
1 1302
1 1303
1 1304
1 1305
1 1306
1 1307
1 1308
1 1309
1 1310
1 1311
1 1312
1 1313
1 1314
1 1315
1 1316
1 1317
1 1318
1 1319
1 1320
1 1321
1 1322
1 1323
1 1324
1 1325
1 1326
1 1327
1 1328
1 1329
1 1330
1 1331
1 1332
1 1333
1 1334
1 1335
1 1336
1 1337
1 1338
1 1339
1 1340
1 1341
1 1342
1 1343
1 1344
1 1345
1 1346
1 1347
1 1348
1 1349
1 1350
1 1351
1 1352
1 1353
1 1354
1 1355
1 1356
1 1357
1 1358
1 1359
1 1360
1 1361
1 1362
1 1363
1 1364
1 1365
1 1366
1 1367
1 1368
1 1369
1 1370
1 1371
1 1372
1 1373
1 1374
1 1375
1 1376
1 1377
1 1378
1 1379
1 1380
1 1381
1 1382
1 1383
1 1384
1 1385
1 1386
1 1387
1 1388
1 1389
1 1390
1 1391
1 1392
1 1393
1 1394
1 1395
1 1396
1 1397
1 1398
1 1399
1 1400
1 1401
1 1402
1 1403
1 1404
1 1405
1 1406
1 1407
1 1408
1 1409
1 1410
1 1411
1 1412
1 1413
1 1414
1 1415
1 1416
1 1417
1 1418
1 1419
1 1420
1 1421
1 1422
1 1423
1 1424
1 1425
1 1426
1 1427
1 1428
1 1429
1 1430
1 1431
1 1432
1 1433
1 1434
1 1435
1 1436
1 1437
1 1438
1 1439
1 1440
1 1441
1 1442
1 1443
1 1444
1 1445
1 1446
1 1447
1 1448
1 1449
1 1450
1 1451
1 1452
1 1453
1 1454
1 1455
1 1456
1 1457
1 1458
1 1459
1 1460
1 1461
1 1462
1 1463
1 1464
1 1465
1 1466
1 1467
1 1468
1 1469
1 1470
1 1471
1 1472
1 1473
1 1474
1 1475
1 1476
1 1477
1 1478
1 1479
1 1480
1 1481
1 1482
1 1483
1 1484
1 1485
1 1486
1 1487
1 1488
1 1489
1 1490
1 1491
1 1492
1 1493
1 1494
1 1495
1 1496
1 1497
1 1498
1 1499
1 1500
1 1501
1 1502
1 1503
1 1504
1 1505
1 1506
1 1507
1 1508
1 1509
1 1510
1 1511
1 1512
1 1513
1 1514
1 1515
1 1516
1 1517
1 1518
1 1519
1 1520
1 1521
1 1522
1 1523
1 1524
1 1525
1 1526
1 1527
1 1528
1 1529
1 1530
1 1531
1 1532
1 1533
1 1534
1 1535
1 1536
1 1537
1 1538
1 1539
1 1540
1 1541
1 1542
1 1543
1 1544
1 1545
1 1546
1 1547
1 1548
1 1549
1 1550
1 1551
1 1552
1 1553
1 1554
1 1555
1 1556
1 1557
1 1558
1 1559
1 1560
1 1561
1 1562
1 1563
1 1564
1 1565
1 1566
1 1567
1 1568
1 1569
1 1570
1 1571
1 1572
1 1573
1 1574
1 1575
1 1576
1 1577
1 1578
1 1579
1 1580
1 1581
1 1582
1 1583
1 1584
1 1585
1 1586
1 1587
1 1588
1 1589
1 1590
1 1591
1 1592
1 1593
1 1594
1 1595
1 1596
1 1597
1 1598
1 1599
1 1600
1 1601
1 1602
1 1603
1 1604
1 1605
1 1606
1 1607
1 1608
1 1609
1 1610
1 1611
1 1612
1 1613
1 1614
1 1615
1 1616
1 1617
1 1618
1 1619
1 1620
1 1621
1 1622
1 1623
1 1624
1 1625
1 1626
1 1627
1 1628
1 1629
1 1630
1 1631
1 1632
1 1633
1 1634
1 1635
1 1636
1 1637
1 1638
1 1639
1 1640
1 1641
1 1642
1 1643
1 1644
1 1645
1 1646
1 1647
1 1648
1 1649
1 1650
1 1651
1 1652
1 1653
1 1654
1 1655
1 1656
1 1657
1 1658
1 1659
1 1660
1 1661
1 1662
1 1663
1 1664
1 1665
1 1666
1 1667
1 1668
1 1669
1 1670
1 1671
1 1672
1 1673
1 1674
1 1675
1 1676
1 1677
1 1678
1 1679
1 1680
1 1681
1 1682
1 1683
1 1684
1 1685
1 1686
1 1687
1 1688
1 1689
1 1690
1 1691
1 1692
1 1693
1 1694
1 1695
1 1696
1 1697
1 1698
1 1699
1 1700
1 1701
1 1702
1 1703
1 1704
1 1705
1 1706
1 1707
1 1708
1 1709
1 1710
1 1711
1 1712
1 1713
1 1714
1 1715
1 1716
1 1717
1 1718
1 1719
1 1720
1 1721
1 1722
1 1723
1 1724
1 1725
1 1726
1 1727
1 1728
1 1729
1 1730
1 1731
1 1732
1 1733
1 1734
1 1735
1 1736
1 1737
1 1738
1 1739
1 1740
1 1741
1 1742
1 1743
1 1744
1 1745
1 1746
1 1747
1 1748
1 1749
1 1750
1 1751
1 1752
1 1753
1 1754
1 1755
1 1756
1 1757
1 1758
1 1759
1 1760
1 1761
1 1762
1 1763
1 1764
1 1765
1 1766
1 1767
1 1768
1 1769
1 1770
1 1771
1 1772
1 1773
1 1774
1 1775
1 1776
1 1777
1 1778
1 1779
1 1780
1 1781
1 1782
1 1783
1 1784
1 1785
1 1786
1 1787
1 1788
1 1789
1 1790
1 1791
1 1792
1 1793
1 1794
1 1795
1 1796
1 1797
1 1798
1 1799
1 1800
1 1801
1 1802
1 1803
1 1804
1 1805
1 1806
1 1807
1 1808
1 1809
1 1810
1 1811
1 1812
1 1813
1 1814
1 1815
1 1816
1 1817
1 1818
1 1819
1 1820
1 1821
1 1822
1 1823
1 1824
1 1825
1 1826
1 1827
1 1828
1 1829
1 1830
1 1831
1 1832
1 1833
1 1834
1 1835
1 1836
1 1837
1 1838
1 1839
1 1840
1 1841
1 1842
1 1843
1 1844
1 1845
1 1846
1 1847
1 1848
1 1849
1 1850
1 1851
1 1852
1 1853
1 1854
1 1855
1 1856
1 1857
1 1858
1 1859
1 1860
1 1861
1 1862
1 1863
1 1864
1 1865
1 1866
1 1867
1 1868
1 1869
1 1870
1 1871
1 1872
1 1873
1 1874
1 1875
1 1876
1 1877
1 1878
1 1879
1 1880
1 1881
1 1882
1 1883
1 1884
1 1885
1 1886
1 1887
1 1888
1 1889
1 1890
1 1891
1 1892
1 1893
1 1894
1 1895
1 1896
1 1897
1 1898
1 1899
1 1900
1 1901
1 1902
1 1903
1 1904
1 1905
1 1906
1 1907
1 1908
1 1909
1 1910
1 1911
1 1912
1 1913
1 1914
1 1915
1 1916
1 1917
1 1918
1 1919
1 1920
1 1921
1 1922
1 1923
1 1924
1 1925
1 1926
1 1927
1 1928
1 1929
1 1930
1 1931
1 1932
1 1933
1 1934
1 1935
1 1936
1 1937
1 1938
1 1939
1 1940
1 1941
1 1942
1 1943
1 1944
1 1945
1 1946
1 1947
1 1948
1 1949
1 1950
1 1951
1 1952
1 1953
1 1954
1 1955
1 1956
1 1957
1 1958
1 1959
1 1960
1 1961
1 1962
1 1963
1 1964
1 1965
1 1966
1 1967
1 1968
1 1969
1 1970
1 1971
1 1972
1 1973
1 1974
1 1975
1 1976
1 1977
1 1978
1 1979
1 1980
1 1981
1 1982
1 1983
1 1984
1 1985
1 1986
1 1987
1 1988
1 1989
1 1990
1 1991
1 1992
1 1993
1 1994
1 1995
1 1996
1 1997
1 1998
1 1999
1 2000
1 2001
1 2002
1 2003
1 2004
1 2005
1 2006
1 2007
1 2008
1 2009
1 2010
1 2011
1 2012
1 2013
1 2014
1 2015
1 2016
1 2017
1 2018
1 2019
1 2020
1 2021
1 2022
1 2023
1 2024
1 2025
1 2026
1 2027
1 2028
1 2029
1 2030
1 2031
1 2032
1 2033
1 2034
1 2035
1 2036
1 2037
1 2038
1 2039
1 2040
1 2041
1 2042
1 2043
1 2044
1 2045
1 2046
1 2047
1 2048
1 2049
1 2050
1 2051
1 2052
1 2053
1 2054
1 2055
1 2056
1 2057
1 2058
1 2059
1 2060
1 2061
1 2062
1 2063
1 2064
1 2065
1 2066
1 2067
1 2068
1 2069
1 2070
1 2071
1 2072
1 2073
1 2074
1 2075
1 2076
1 2077
1 2078
1 2079
1 2080
1 2081
1 2082
1 2083
1 2084
1 2085
1 2086
1 2087
1 2088
1 2089
1 2090
1 2091
1 2092
1 2093
1 2094
1 2095
1 2096
1 2097
1 2098
1 2099
1 2100
1 2101
1 2102
1 2103
1 2104
1 2105
1 2106
1 2107
1 2108
1 2109
1 2110
1 2111
1 2112
1 2113
1 2114
1 2115
1 2116
1 2117
1 2118
1 2119
1 2120
1 2121
1 2122
1 2123
1 2124
1 2125
1 2126
1 2127
1 2128
1 2129
1 2130
1 2131
1 2132
1 2133
1 2134
1 2135
1 2136
1 2137
1 2138
1 2139
1 2140
1 2141
1 2142
1 2143
1 2144
1 2145
1 2146
1 2147
1 2148
1 2149
1 2150
1 2151
1 2152
1 2153
1 2154
1 2155
1 2156
1 2157
1 2158
1 2159
1 2160
1 2161
1 2162
1 2163
1 2164
1 2165
1 2166
1 2167
1 2168
1 2169
1 2170
1 2171
1 2172
1 2173
1 2174
1 2175
1 2176
1 2177
1 2178
1 2179
1 2180
1 2181
1 2182
1 2183
1 2184
1 2185
1 2186
1 2187
1 2188
1 2189
1 2190
1 2191
1 2192
1 2193
1 2194
1 2195
1 2196
1 2197
1 2198
1 2199
1 2200
1 2201
1 2202
1 2203
1 2204
1 2205
1 2206
1 2207
1 2208
1 2209
1 2210
1 2211
1 2212
1 2213
1 2214
1 2215
1 2216
1 2217
1 2218
1 2219
1 2220
1 2221
1 2222
1 2223
1 2224
1 2225
1 2226
1 2227
1 2228
1 2229
1 2230
1 2231
1 2232
1 2233
1 2234
1 2235
1 2236
1 2237
1 2238
1 2239
1 2240
1 2241
1 2242
1 2243
1 2244
1 2245
1 2246
1 2247
1 2248
1 2249
1 2250
1 2251
1 2252
1 2253
1 2254
1 2255
1 2256
1 2257
1 2258
1 2259
1 2260
1 2261
1 2262
1 2263
1 2264
1 2265
1 2266
1 2267
1 2268
1 2269
1 2270
1 2271
1 2272
1 2273
1 2274
1 2275
1 2276
1 2277
1 2278
1 2279
1 2280
1 2281
1 2282
1 2283
1 2284
1 2285
1 2286
1 2287
1 2288
1 2289
1 2290
1 2291
1 2292
1 2293
1 2294
1 2295
1 2296
1 2297
1 2298
1 2299
1 2300
1 2301
1 2302
1 2303
1 2304
1 2305
1 2306
1 2307
1 2308
1 2309
1 2310
1 2311
1 2312
1 2313
1 2314
1 2315
1 2316
1 2317
1 2318
1 2319
1 2320
1 2321
1 2322
1 2323
1 2324
1 2325
1 2326
1 2327
1 2328
1 2329
1 2330
1 2331
1 2332
1 2333
1 2334
1 2335
1 2336
1 2337
1 2338
1 2339
1 2340
1 2341
1 2342
1 2343
1 2344
1 2345
1 2346
1 2347
1 2348
1 2349
1 2350
1 2351
1 2352
1 2353
1 2354
1 2355
1 2356
1 2357
1 2358
1 2359
1 2360
1 2361
1 2362
1 2363
1 2364
1 2365
1 2366
1 2367
1 2368
1 2369
1 2370
1 2371
1 2372
1 2373
1 2374
1 2375
1 2376
1 2377
1 2378
1 2379
1 2380
1 2381
1 2382
1 2383
1 2384
1 2385
1 2386
1 2387
1 2388
1 2389
1 2390
1 2391
1 2392
1 2393
1 2394
1 2395
1 2396
1 2397
1 2398
1 2399
1 2400
1 2401
1 2402
1 2403
1 2404
1 2405
1 2406
1 2407
1 2408
1 2409
1 2410
1 2411
1 2412
1 2413
1 2414
1 2415
1 2416
1 2417
1 2418
1 2419
1 2420
1 2421
1 2422
1 2423
1 2424
1 2425
1 2426
1 2427
1 2428
1 2429
1 2430
1 2431
1 2432
1 2433
1 2434
1 2435
1 2436
1 2437
1 2438
1 2439
1 2440
1 2441
1 2442
1 2443
1 2444
1 2445
1 2446
1 2447
1 2448
1 2449
1 2450
1 2451
1 2452
1 2453
1 2454
1 2455
1 2456
1 2457
1 2458
1 2459
1 2460
1 2461
1 2462
1 2463
1 2464
1 2465
1 2466
1 2467
1 2468
1 2469
1 2470
1 2471
1 2472
1 2473
1 2474
1 2475
1 2476
1 2477
1 2478
1 2479
1 2480
1 2481
1 2482
1 2483
1 2484
1 2485
1 2486
1 2487
1 2488
1 2489
1 2490
1 2491
1 2492
1 2493
1 2494
1 2495
1 2496
1 2497
1 2498
1 2499
1 2500
1 2501
1 2502
1 2503
1 2504
1 2505
1 2506
1 2507
1 2508
1 2509
1 2510
1 2511
1 2512
1 2513
1 2514
1 2515
1 2516
1 2517
1 2518
1 2519
1 2520
1 2521
1 2522
1 2523
1 2524
1 2525
1 2526
1 2527
1 2528
1 2529
1 2530
1 2531
1 2532
1 2533
1 2534
1 2535
1 2536
1 2537
1 2538
1 2539
1 2540
1 2541
1 2542
1 2543
1 2544
1 2545
1 2546
1 2547
1 2548
1 2549
1 2550
1 2551
1 2552
1 2553
1 2554
1 2555
1 2556
1 2557
1 2558
1 2559
1 2560
1 2561
1 2562
1 2563
1 2564
1 2565
1 2566
1 2567
1 2568
1 2569
1 2570
1 2571
1 2572
1 2573
1 2574
1 2575
1 2576
1 2577
1 2578
1 2579
1 2580
1 2581
1 2582
1 2583
1 2584
1 2585
1 2586
1 2587
1 2588
1 2589
1 2590
1 2591
1 2592
1 2593
1 2594
1 2595
1 2596
1 2597
1 2598
1 2599
1 2600
1 2601
1 2602
1 2603
1 2604
1 2605
1 2606
1 2607
1 2608
1 2609
1 2610
1 2611
1 2612
1 2613
1 2614
1 2615
1 2616
1 2617
1 2618
1 2619
1 2620
1 2621
1 2622
1 2623
1 2624
1 2625
1 2626
1 2627
1 2628
1 2629
1 2630
1 2631
1 2632
1 2633
1 2634
1 2635
1 2636
1 2637
1 2638
1 2639
1 2640
1 2641
1 2642
1 2643
1 2644
1 2645
1 2646
1 2647
1 2648
1 2649
1 2650
1 2651
1 2652
1 2653
1 2654
1 2655
1 2656
1 2657
1 2658
1 2659
1 2660
1 2661
1 2662
1 2663
1 2664
1 2665
1 2666
1 2667
1 2668
1 2669
1 2670
1 2671
1 2672
1 2673
1 2674
1 2675
1 2676
1 2677
1 2678
1 2679
1 2680
1 2681
1 2682
1 2683
1 2684
1 2685
1 2686
1 2687
1 2688
1 2689
1 2690
1 2691
1 2692
1 2693
1 2694
1 2695
1 2696
1 2697
1 2698
1 2699
1 2700
1 2701
1 2702
1 2703
1 2704
1 2705
1 2706
1 2707
1 2708
1 2709
1 2710
1 2711
1 2712
1 2713
1 2714
1 2715
1 2716
1 2717
1 2718
1 2719
1 2720
1 2721
1 2722
1 2723
1 2724
1 2725
1 2726
1 2727
1 2728
1 2729
1 2730
1 2731
1 2732
1 2733
1 2734
1 2735
1 2736
1 2737
1 2738
1 2739
1 2740
1 2741
1 2742
1 2743
1 2744
1 2745
1 2746
1 2747
1 2748
1 2749
1 2750
1 2751
1 2752
1 2753
1 2754
1 2755
1 2756
1 2757
1 2758
1 2759
1 2760
1 2761
1 2762
1 2763
1 2764
1 2765
1 2766
1 2767
1 2768
1 2769
1 2770
1 2771
1 2772
1 2773
1 2774
1 2775
1 2776
1 2777
1 2778
1 2779
1 2780
1 2781
1 2782
1 2783
1 2784
1 2785
1 2786
1 2787
1 2788
1 2789
1 2790
1 2791
1 2792
1 2793
1 2794
1 2795
1 2796
1 2797
1 2798
1 2799
1 2800
1 2801
1 2802
1 2803
1 2804
1 2805
1 2806
1 2807
1 2808
1 2809
1 2810
1 2811
1 2812
1 2813
1 2814
1 2815
1 2816
1 2817
1 2818
1 2819
1 2820
1 2821
1 2822
1 2823
1 2824
1 2825
1 2826
1 2827
1 2828
1 2829
1 2830
1 2831
1 2832
1 2833
1 2834
1 2835
1 2836
1 2837
1 2838
1 2839
1 2840
1 2841
1 2842
1 2843
1 2844
1 2845
1 2846
1 2847
1 2848
1 2849
1 2850
1 2851
1 2852
1 2853
1 2854
1 2855
1 2856
1 2857
1 2858
1 2859
1 2860
1 2861
1 2862
1 2863
1 2864
1 2865
1 2866
1 2867
1 2868
1 2869
1 2870
1 2871
1 2872
1 2873
1 2874
1 2875
1 2876
1 2877
1 2878
1 2879
1 2880
1 2881
1 2882
1 2883
1 2884
1 2885
1 2886
1 2887
1 2888
1 2889
1 2890
1 2891
1 2892
1 2893
1 2894
1 2895
1 2896
1 2897
1 2898
1 2899
1 2900
1 2901
1 2902
1 2903
1 2904
1 2905
1 2906
1 2907
1 2908
1 2909
1 2910
1 2911
1 2912
1 2913
1 2914
1 2915
1 2916
1 2917
1 2918
1 2919
1 2920
1 2921
1 2922
1 2923
1 2924
1 2925
1 2926
1 2927
1 2928
1 2929
1 2930
1 2931
1 2932
1 2933
1 2934
1 2935
1 2936
1 2937
1 2938
1 2939
1 2940
1 2941
1 2942
1 2943
1 2944
1 2945
1 2946
1 2947
1 2948
1 2949
1 2950
1 2951
1 2952
1 2953
1 2954
1 2955
1 2956
1 2957
1 2958
1 2959
1 2960
1 2961
1 2962
1 2963
1 2964
1 2965
1 2966
1 2967
1 2968
1 2969
1 2970
1 2971
1 2972
1 2973
1 2974
1 2975
1 2976
1 2977
1 2978
1 2979
1 2980
1 2981
1 2982
1 2983
1 2984
1 2985
1 2986
1 2987
1 2988
1 2989
1 2990
1 2991
1 2992
1 2993
1 2994
1 2995
1 2996
1 2997
1 2998
1 2999
1 3000
1 3001
1 3002
1 3003
1 3004
1 3005
1 3006
1 3007
1 3008
1 3009
1 3010
1 3011
1 3012
1 3013
1 3014
1 3015
1 3016
1 3017
1 3018
1 3019
1 3020
1 3021
1 3022
1 3023
1 3024
1 3025
1 3026
1 3027
1 3028
1 3029
1 3030
1 3031
1 3032
1 3033
1 3034
1 3035
1 3036
1 3037
1 3038
1 3039
1 3040
1 3041
1 3042
1 3043
1 3044
1 3045
1 3046
1 3047
1 3048
1 3049
1 3050
1 3051
1 3052
1 3053
1 3054
1 3055
1 3056
1 3057
1 3058
1 3059
1 3060
1 3061
1 3062
1 3063
1 3064
1 3065
1 3066
1 3067
1 3068
1 3069
1 3070
1 3071
1 3072
1 3073
1 3074
1 3075
1 3076
1 3077
1 3078
1 3079
1 3080
1 3081
1 3082
1 3083
1 3084
1 3085
1 3086
1 3087
1 3088
1 3089
1 3090
1 3091
1 3092
1 3093
1 3094
1 3095
1 3096
1 3097
1 3098
1 3099
1 3100
1 3101
1 3102
1 3103
1 3104
1 3105
1 3106
1 3107
1 3108
1 3109
1 3110
1 3111
1 3112
1 3113
1 3114
1 3115
1 3116
1 3117
1 3118
1 3119
1 3120
1 3121
1 3122
1 3123
1 3124
1 3125
1 3126
1 3127
1 3128
1 3129
1 3130
1 3131
1 3132
1 3133
1 3134
1 3135
1 3136
1 3137
1 3138
1 3139
1 3140
1 3141
1 3142
1 3143
1 3144
1 3145
1 3146
1 3147
1 3148
1 3149
1 3150
1 3151
1 3152
1 3153
1 3154
1 3155
1 3156
1 3157
1 3158
1 3159
1 3160
1 3161
1 3162
1 3163
1 3164
1 3165
1 3166
1 3167
1 3168
1 3169
1 3170
1 3171
1 3172
1 3173
1 3174
1 3175
1 3176
1 3177
1 3178
1 3179
1 3180
1 3181
1 3182
1 3183
1 3184
1 3185
1 3186
1 3187
1 3188
1 3189
1 3190
1 3191
1 3192
1 3193
1 3194
1 3195
1 3196
1 3197
1 3198
1 3199
1 3200
1 3201
1 3202
1 3203
1 3204
1 3205
1 3206
1 3207
1 3208
1 3209
1 3210
1 3211
1 3212
1 3213
1 3214
1 3215
1 3216
1 3217
1 3218
1 3219
1 3220
1 3221
1 3222
1 3223
1 3224
1 3225
1 3226
1 3227
1 3228
1 3229
1 3230
1 3231
1 3232
1 3233
1 3234
1 3235
1 3236
1 3237
1 3238
1 3239
1 3240
1 3241
1 3242
1 3243
1 3244
1 3245
1 3246
1 3247
1 3248
1 3249
1 3250
1 3251
1 3252
1 3253
1 3254
1 3255
1 3256
1 3257
1 3258
1 3259
1 3260
1 3261
1 3262
1 3263
1 3264
1 3265
1 3266
1 3267
1 3268
1 3269
1 3270
1 3271
1 3272
1 3273
1 3274
1 3275
1 3276
1 3277
1 3278
1 3279
1 3280
1 3281
1 3282
1 3283
1 3284
1 3285
1 3286
1 3287
1 3288
1 3289
1 3290
1 3291
1 3292
1 3293
1 3294
1 3295
1 3296
1 3297
1 3298
1 3299
1 3300
1 3301
1 3302
1 3303
1 3304
1 3305
1 3306
1 3307
1 3308
1 3309
1 3310
1 3311
1 3312
1 3313
1 3314
1 3315
1 3316
1 3317
1 3318
1 3319
1 3320
1 3321
1 3322
1 3323
1 3324
1 3325
1 3326
1 3327
1 3328
1 3329
1 3330
1 3331
1 3332
1 3333
1 3334
1 3335
1 3336
1 3337
1 3338
1 3339
1 3340
1 3341
1 3342
1 3343
1 3344
1 3345
1 3346
1 3347
1 3348
1 3349
1 3350
1 3351
1 3352
1 3353
1 3354
1 3355
1 3356
1 3357
1 3358
1 3359
1 3360
1 3361
1 3362
1 3363
1 3364
1 3365
1 3366
1 3367
1 3368
1 3369
1 3370
1 3371
1 3372
1 3373
1 3374
1 3375
1 3376
1 3377
1 3378
1 3379
1 3380
1 3381
1 3382
1 3383
1 3384
1 3385
1 3386
1 3387
1 3388
1 3389
1 3390
1 3391
1 3392
1 3393
1 3394
1 3395
1 3396
1 3397
1 3398
1 3399
1 3400
1 3401
1 3402
1 3403
1 3404
1 3405
1 3406
1 3407
1 3408
1 3409
1 3410
1 3411
1 3412
1 3413
1 3414
1 3415
1 3416
1 3417
1 3418
1 3419
1 3420
1 3421
1 3422
1 3423
1 3424
1 3425
1 3426
1 3427
1 3428
1 3429
1 3430
1 3431
1 3432
1 3433
1 3434
1 3435
1 3436
1 3437
1 3438
1 3439
1 3440
1 3441
1 3442
1 3443
1 3444
1 3445
1 3446
1 3447
1 3448
1 3449
1 3450
1 3451
1 3452
1 3453
1 3454
1 3455
1 3456
1 3457
1 3458
1 3459
1 3460
1 3461
1 3462
1 3463
1 3464
1 3465
1 3466
1 3467
1 3468
1 3469
1 3470
1 3471
1 3472
1 3473
1 3474
1 3475
1 3476
1 3477
1 3478
1 3479
1 3480
1 3481
1 3482
1 3483
1 3484
1 3485
1 3486
1 3487
1 3488
1 3489
1 3490
1 3491
1 3492
1 3493
1 3494
1 3495
1 3496
1 3497
1 3498
1 3499
1 3500
1 3501
1 3502
1 3503
1 3504
1 3505
1 3506
1 3507
1 3508
1 3509
1 3510
1 3511
1 3512
1 3513
1 3514
1 3515
1 3516
1 3517
1 3518
1 3519
1 3520
1 3521
1 3522
1 3523
1 3524
1 3525
1 3526
1 3527
1 3528
1 3529
1 3530
1 3531
1 3532
1 3533
1 3534
1 3535
1 3536
1 3537
1 3538
1 3539
1 3540
1 3541
1 3542
1 3543
1 3544
1 3545
1 3546
1 3547
1 3548
1 3549
1 3550
1 3551
1 3552
1 3553
1 3554
1 3555
1 3556
1 3557
1 3558
1 3559
1 3560
1 3561
1 3562
1 3563
1 3564
1 3565
1 3566
1 3567
1 3568
1 3569
1 3570
1 3571
1 3572
1 3573
1 3574
1 3575
1 3576
1 3577
1 3578
1 3579
1 3580
1 3581
1 3582
1 3583
1 3584
1 3585
1 3586
1 3587
1 3588
1 3589
1 3590
1 3591
1 3592
1 3593
1 3594
1 3595
1 3596
1 3597
1 3598
1 3599
1 3600
1 3601
1 3602
1 3603
1 3604
1 3605
1 3606
1 3607
1 3608
1 3609
1 3610
1 3611
1 3612
1 3613
1 3614
1 3615
1 3616
1 3617
1 3618
1 3619
1 3620
1 3621
1 3622
1 3623
1 3624
1 3625
1 3626
1 3627
1 3628
1 3629
1 3630
1 3631
1 3632
1 3633
1 3634
1 3635
1 3636
1 3637
1 3638
1 3639
1 3640
1 3641
1 3642
1 3643
1 3644
1 3645
1 3646
1 3647
1 3648
1 3649
1 3650
1 3651
1 3652
1 3653
1 3654
1 3655
1 3656
1 3657
1 3658
1 3659
1 3660
1 3661
1 3662
1 3663
1 3664
1 3665
1 3666
1 3667
1 3668
1 3669
1 3670
1 3671
1 3672
1 3673
1 3674
1 3675
1 3676
1 3677
1 3678
1 3679
1 3680
1 3681
1 3682
1 3683
1 3684
1 3685
1 3686
1 3687
1 3688
1 3689
1 3690
1 3691
1 3692
1 3693
1 3694
1 3695
1 3696
1 3697
1 3698
1 3699
1 3700
1 3701
1 3702
1 3703
1 3704
1 3705
1 3706
1 3707
1 3708
1 3709
1 3710
1 3711
1 3712
1 3713
1 3714
1 3715
1 3716
1 3717
1 3718
1 3719
1 3720
1 3721
1 3722
1 3723
1 3724
1 3725
1 3726
1 3727
1 3728
1 3729
1 3730
1 3731
1 3732
1 3733
1 3734
1 3735
1 3736
1 3737
1 3738
1 3739
1 3740
1 3741
1 3742
1 3743
1 3744
1 3745
1 3746
1 3747
1 3748
1 3749
1 3750
1 3751
1 3752
1 3753
1 3754
1 3755
1 3756
1 3757
1 3758
1 3759
1 3760
1 3761
1 3762
1 3763
1 3764
1 3765
1 3766
1 3767
1 3768
1 3769
1 3770
1 3771
1 3772
1 3773
1 3774
1 3775
1 3776
1 3777
1 3778
1 3779
1 3780
1 3781
1 3782
1 3783
1 3784
1 3785
1 3786
1 3787
1 3788
1 3789
1 3790
1 3791
1 3792
1 3793
1 3794
1 3795
1 3796
1 3797
1 3798
1 3799
1 3800
1 3801
1 3802
1 3803
1 3804
1 3805
1 3806
1 3807
1 3808
1 3809
1 3810
1 3811
1 3812
1 3813
1 3814
1 3815
1 3816
1 3817
1 3818
1 3819
1 3820
1 3821
1 3822
1 3823
1 3824
1 3825
1 3826
1 3827
1 3828
1 3829
1 3830
1 3831
1 3832
1 3833
1 3834
1 3835
1 3836
1 3837
1 3838
1 3839
1 3840
1 3841
1 3842
1 3843
1 3844
1 3845
1 3846
1 3847
1 3848
1 3849
1 3850
1 3851
1 3852
1 3853
1 3854
1 3855
1 3856
1 3857
1 3858
1 3859
1 3860
1 3861
1 3862
1 3863
1 3864
1 3865
1 3866
1 3867
1 3868
1 3869
1 3870
1 3871
1 3872
1 3873
1 3874
1 3875
1 3876
1 3877
1 3878
1 3879
1 3880
1 3881
1 3882
1 3883
1 3884
1 3885
1 3886
1 3887
1 3888
1 3889
1 3890
1 3891
1 3892
1 3893
1 3894
1 3895
1 3896
1 3897
1 3898
1 3899
1 3900
1 3901
1 3902
1 3903
1 3904
1 3905
1 3906
1 3907
1 3908
1 3909
1 3910
1 3911
1 3912
1 3913
1 3914
1 3915
1 3916
1 3917
1 3918
1 3919
1 3920
1 3921
1 3922
1 3923
1 3924
1 3925
1 3926
1 3927
1 3928
1 3929
1 3930
1 3931
1 3932
1 3933
1 3934
1 3935
1 3936
1 3937
1 3938
1 3939
1 3940
1 3941
1 3942
1 3943
1 3944
1 3945
1 3946
1 3947
1 3948
1 3949
1 3950
1 3951
1 3952
1 3953
1 3954
1 3955
1 3956
1 3957
1 3958
1 3959
1 3960
1 3961
1 3962
1 3963
1 3964
1 3965
1 3966
1 3967
1 3968
1 3969
1 3970
1 3971
1 3972
1 3973
1 3974
1 3975
1 3976
1 3977
1 3978
1 3979
1 3980
1 3981
1 3982
1 3983
1 3984
1 3985
1 3986
1 3987
1 3988
1 3989
1 3990
1 3991
1 3992
1 3993
1 3994
1 3995
1 3996
1 3997
1 3998
1 3999
1 4000
1 4001
1 4002
1 4003
1 4004
1 4005
1 4006
1 4007
1 4008
1 4009
1 4010
1 4011
1 4012
1 4013
1 4014
1 4015
1 4016
1 4017
1 4018
1 4019
1 4020
1 4021
1 4022
1 4023
1 4024
1 4025
1 4026
1 4027
1 4028
1 4029
1 4030
1 4031
1 4032
1 4033
1 4034
1 4035
1 4036
1 4037
1 4038
1 4039
1 4040
1 4041
1 4042
1 4043
1 4044
1 4045
1 4046
1 4047
1 4048
1 4049
1 4050
1 4051
1 4052
1 4053
1 4054
1 4055
1 4056
1 4057
1 4058
1 4059
1 4060
1 4061
1 4062
1 4063
1 4064
1 4065
1 4066
1 4067
1 4068
1 4069
1 4070
1 4071
1 4072
1 4073
1 4074
1 4075
1 4076
1 4077
1 4078
1 4079
1 4080
1 4081
1 4082
1 4083
1 4084
1 4085
1 4086
1 4087
1 4088
1 4089
1 4090
1 4091
1 4092
1 4093
1 4094
1 4095
1 4096
1 4097
1 4098
1 4099
1 4100
1 4101
1 4102
1 4103
1 4104
1 4105
1 4106
1 4107
1 4108
1 4109
1 4110
1 4111
1 4112
1 4113
1 4114
1 4115
1 4116
1 4117
1 4118
1 4119
1 4120
1 4121
1 4122
1 4123
1 4124
1 4125
1 4126
1 4127
1 4128
1 4129
1 4130
1 4131
1 4132
1 4133
1 4134
1 4135
1 4136
1 4137
1 4138
1 4139
1 4140
1 4141
1 4142
1 4143
1 4144
1 4145
1 4146
1 4147
1 4148
1 4149
1 4150
1 4151
1 4152
1 4153
1 4154
1 4155
1 4156
1 4157
1 4158
1 4159
1 4160
1 4161
1 4162
1 4163
1 4164
1 4165
1 4166
1 4167
1 4168
1 4169
1 4170
1 4171
1 4172
1 4173
1 4174
1 4175
1 4176
1 4177
1 4178
1 4179
1 4180
1 4181
1 4182
1 4183
1 4184
1 4185
1 4186
1 4187
1 4188
1 4189
1 4190
1 4191
1 4192
1 4193
1 4194
1 4195
1 4196
1 4197
1 4198
1 4199
1 4200
1 4201
1 4202
1 4203
1 4204
1 4205
1 4206
1 4207
1 4208
1 4209
1 4210
1 4211
1 4212
1 4213
1 4214
1 4215
1 4216
1 4217
1 4218
1 4219
1 4220
1 4221
1 4222
1 4223
1 4224
1 4225
1 4226
1 4227
1 4228
1 4229
1 4230
1 4231
1 4232
1 4233
1 4234
1 4235
1 4236
1 4237
1 4238
1 4239
1 4240
1 4241
1 4242
1 4243
1 4244
1 4245
1 4246
1 4247
1 4248
1 4249
1 4250
1 4251
1 4252
1 4253
1 4254
1 4255
1 4256
1 4257
1 4258
1 4259
1 4260
1 4261
1 4262
1 4263
1 4264
1 4265
1 4266
1 4267
1 4268
1 4269
1 4270
1 4271
1 4272
1 4273
1 4274
1 4275
1 4276
1 4277
1 4278
1 4279
1 4280
1 4281
1 4282
1 4283
1 4284
1 4285
1 4286
1 4287
1 4288
1 4289
1 4290
1 4291
1 4292
1 4293
1 4294
1 4295
1 4296
1 4297
1 4298
1 4299
1 4300
1 4301
1 4302
1 4303
1 4304
1 4305
1 4306
1 4307
1 4308
1 4309
1 4310
1 4311
1 4312
1 4313
1 4314
1 4315
1 4316
1 4317
1 4318
1 4319
1 4320
1 4321
1 4322
1 4323
1 4324
1 4325
1 4326
1 4327
1 4328
1 4329
1 4330
1 4331
1 4332
1 4333
1 4334
1 4335
1 4336
1 4337
1 4338
1 4339
1 4340
1 4341
1 4342
1 4343
1 4344
1 4345
1 4346
1 4347
1 4348
1 4349
1 4350
1 4351
1 4352
1 4353
1 4354
1 4355
1 4356
1 4357
1 4358
1 4359
1 4360
1 4361
1 4362
1 4363
1 4364
1 4365
1 4366
1 4367
1 4368
1 4369
1 4370
1 4371
1 4372
1 4373
1 4374
1 4375
1 4376
1 4377
1 4378
1 4379
1 4380
1 4381
1 4382
1 4383
1 4384
1 4385
1 4386
1 4387
1 4388
1 4389
1 4390
1 4391
1 4392
1 4393
1 4394
1 4395
1 4396
1 4397
1 4398
1 4399
1 4400
1 4401
1 4402
1 4403
1 4404
1 4405
1 4406
1 4407
1 4408
1 4409
1 4410
1 4411
1 4412
1 4413
1 4414
1 4415
1 4416
1 4417
1 4418
1 4419
1 4420
1 4421
1 4422
1 4423
1 4424
1 4425
1 4426
1 4427
1 4428
1 4429
1 4430
1 4431
1 4432
1 4433
1 4434
1 4435
1 4436
1 4437
1 4438
1 4439
1 4440
1 4441
1 4442
1 4443
1 4444
1 4445
1 4446
1 4447
1 4448
1 4449
1 4450
1 4451
1 4452
1 4453
1 4454
1 4455
1 4456
1 4457
1 4458
1 4459
1 4460
1 4461
1 4462
1 4463
1 4464
1 4465
1 4466
1 4467
1 4468
1 4469
1 4470
1 4471
1 4472
1 4473
1 4474
1 4475
1 4476
1 4477
1 4478
1 4479
1 4480
1 4481
1 4482
1 4483
1 4484
1 4485
1 4486
1 4487
1 4488
1 4489
1 4490
1 4491
1 4492
1 4493
1 4494
1 4495
1 4496
1 4497
1 4498
1 4499
1 4500
1 4501
1 4502
1 4503
1 4504
1 4505
1 4506
1 4507
1 4508
1 4509
1 4510
1 4511
1 4512
1 4513
1 4514
1 4515
1 4516
1 4517
1 4518
1 4519
1 4520
1 4521
1 4522
1 4523
1 4524
1 4525
1 4526
1 4527
1 4528
1 4529
1 4530
1 4531
1 4532
1 4533
1 4534
1 4535
1 4536
1 4537
1 4538
1 4539
1 4540
1 4541
1 4542
1 4543
1 4544
1 4545
1 4546
1 4547
1 4548
1 4549
1 4550
1 4551
1 4552
1 4553
1 4554
1 4555
1 4556
1 4557
1 4558
1 4559
1 4560
1 4561
1 4562
1 4563
1 4564
1 4565
1 4566
1 4567
1 4568
1 4569
1 4570
1 4571
1 4572
1 4573
1 4574
1 4575
1 4576
1 4577
1 4578
1 4579
1 4580
1 4581
1 4582
1 4583
1 4584
1 4585
1 4586
1 4587
1 4588
1 4589
1 4590
1 4591
1 4592
1 4593
1 4594
1 4595
1 4596
1 4597
1 4598
1 4599
1 4600
1 4601
1 4602
1 4603
1 4604
1 4605
1 4606
1 4607
1 4608
1 4609
1 4610
1 4611
1 4612
1 4613
1 4614
1 4615
1 4616
1 4617
1 4618
1 4619
1 4620
1 4621
1 4622
1 4623
1 4624
1 4625
1 4626
1 4627
1 4628
1 4629
1 4630
1 4631
1 4632
1 4633
1 4634
1 4635
1 4636
1 4637
1 4638
1 4639
1 4640
1 4641
1 4642
1 4643
1 4644
1 4645
1 4646
1 4647
1 4648
1 4649
1 4650
1 4651
1 4652
1 4653
1 4654
1 4655
1 4656
1 4657
1 4658
1 4659
1 4660
1 4661
1 4662
1 4663
1 4664
1 4665
1 4666
1 4667
1 4668
1 4669
1 4670
1 4671
1 4672
1 4673
1 4674
1 4675
1 4676
1 4677
1 4678
1 4679
1 4680
1 4681
1 4682
1 4683
1 4684
1 4685
1 4686
1 4687
1 4688
1 4689
1 4690
1 4691
1 4692
1 4693
1 4694
1 4695
1 4696
1 4697
1 4698
1 4699
1 4700
1 4701
1 4702
1 4703
1 4704
1 4705
1 4706
1 4707
1 4708
1 4709
1 4710
1 4711
1 4712
1 4713
1 4714
1 4715
1 4716
1 4717
1 4718
1 4719
1 4720
1 4721
1 4722
1 4723
1 4724
1 4725
1 4726
1 4727
1 4728
1 4729
1 4730
1 4731
1 4732
1 4733
1 4734
1 4735
1 4736
1 4737
1 4738
1 4739
1 4740
1 4741
1 4742
1 4743
1 4744
1 4745
1 4746
1 4747
1 4748
1 4749
1 4750
1 4751
1 4752
1 4753
1 4754
1 4755
1 4756
1 4757
1 4758
1 4759
1 4760
1 4761
1 4762
1 4763
1 4764
1 4765
1 4766
1 4767
1 4768
1 4769
1 4770
1 4771
1 4772
1 4773
1 4774
1 4775
1 4776
1 4777
1 4778
1 4779
1 4780
1 4781
1 4782
1 4783
1 4784
1 4785
1 4786
1 4787
1 4788
1 4789
1 4790
1 4791
1 4792
1 4793
1 4794
1 4795
1 4796
1 4797
1 4798
1 4799
1 4800
1 4801
1 4802
1 4803
1 4804
1 4805
1 4806
1 4807
1 4808
1 4809
1 4810
1 4811
1 4812
1 4813
1 4814
1 4815
1 4816
1 4817
1 4818
1 4819
1 4820
1 4821
1 4822
1 4823
1 4824
1 4825
1 4826
1 4827
1 4828
1 4829
1 4830
1 4831
1 4832
1 4833
1 4834
1 4835
1 4836
1 4837
1 4838
1 4839
1 4840
1 4841
1 4842
1 4843
1 4844
1 4845
1 4846
1 4847
1 4848
1 4849
1 4850
1 4851
1 4852
1 4853
1 4854
1 4855
1 4856
1 4857
1 4858
1 4859
1 4860
1 4861
1 4862
1 4863
1 4864
1 4865
1 4866
1 4867
1 4868
1 4869
1 4870
1 4871
1 4872
1 4873
1 4874
1 4875
1 4876
1 4877
1 4878
1 4879
1 4880
1 4881
1 4882
1 4883
1 4884
1 4885
1 4886
1 4887
1 4888
1 4889
1 4890
1 4891
1 4892
1 4893
1 4894
1 4895
1 4896
1 4897
1 4898
1 4899
1 4900
1 4901
1 4902
1 4903
1 4904
1 4905
1 4906
1 4907
1 4908
1 4909
1 4910
1 4911
1 4912
1 4913
1 4914
1 4915
1 4916
1 4917
1 4918
1 4919
1 4920
1 4921
1 4922
1 4923
1 4924
1 4925
1 4926
1 4927
1 4928
1 4929
1 4930
1 4931
1 4932
1 4933
1 4934
1 4935
1 4936
1 4937
1 4938
1 4939
1 4940
1 4941
1 4942
1 4943
1 4944
1 4945
1 4946
1 4947
1 4948
1 4949
1 4950
1 4951
1 4952
1 4953
1 4954
1 4955
1 4956
1 4957
1 4958
1 4959
1 4960
1 4961
1 4962
1 4963
1 4964
1 4965
1 4966
1 4967
1 4968
1 4969
1 4970
1 4971
1 4972
1 4973
1 4974
1 4975
1 4976
1 4977
1 4978
1 4979
1 4980
1 4981
1 4982
1 4983
1 4984
1 4985
1 4986
1 4987
1 4988
1 4989
1 4990
1 4991
1 4992
1 4993
1 4994
1 4995
1 4996
1 4997
1 4998
1 4999
CELL_TYPES 5000
1 
1 
1 
1 
1 
1 
1 
1 
1 
1 
1 
1 
1 
1 
1 
1 
1 
1 
1 
1 
1 
1 
1 
1 
1 
1 
1 
1 
1 
1 
1 
1 
1 
1 
1 
1 
1 
1 
1 
1 
1 
1 
1 
1 
1 
1 
1 
1 
1 
1 
1 
1 
1 
1 
1 
1 
1 
1 
1 
1 
1 
1 
1 
1 
1 
1 
1 
1 
1 
1 
1 
1 
1 
1 
1 
1 
1 
1 
1 
1 
1 
1 
1 
1 
1 
1 
1 
1 
1 
1 
1 
1 
1 
1 
1 
1 
1 
1 
1 
1 
1 
1 
1 
1 
1 
1 
1 
1 
1 
1 
1 
1 
1 
1 
1 
1 
1 
1 
1 
1 
1 
1 
1 
1 
1 
1 
1 
1 
1 
1 
1 
1 
1 
1 
1 
1 
1 
1 
1 
1 
1 
1 
1 
1 
1 
1 
1 
1 
1 
1 
1 
1 
1 
1 
1 
1 
1 
1 
1 
1 
1 
1 
1 
1 
1 
1 
1 
1 
1 
1 
1 
1 
1 
1 
1 
1 
1 
1 
1 
1 
1 
1 
1 
1 
1 
1 
1 
1 
1 
1 
1 
1 
1 
1 
1 
1 
1 
1 
1 
1 
1 
1 
1 
1 
1 
1 
1 
1 
1 
1 
1 
1 
1 
1 
1 
1 
1 
1 
1 
1 
1 
1 
1 
1 
1 
1 
1 
1 
1 
1 
1 
1 
1 
1 
1 
1 
1 
1 
1 
1 
1 
1 
1 
1 
1 
1 
1 
1 
1 
1 
1 
1 
1 
1 
1 
1 
1 
1 
1 
1 
1 
1 
1 
1 
1 
1 
1 
1 
1 
1 
1 
1 
1 
1 
1 
1 
1 
1 
1 
1 
1 
1 
1 
1 
1 
1 
1 
1 
1 
1 
1 
1 
1 
1 
1 
1 
1 
1 
1 
1 
1 
1 
1 
1 
1 
1 
1 
1 
1 
1 
1 
1 
1 
1 
1 
1 
1 
1 
1 
1 
1 
1 
1 
1 
1 
1 
1 
1 
1 
1 
1 
1 
1 
1 
1 
1 
1 
1 
1 
1 
1 
1 
1 
1 
1 
1 
1 
1 
1 
1 
1 
1 
1 
1 
1 
1 
1 
1 
1 
1 
1 
1 
1 
1 
1 
1 
1 
1 
1 
1 
1 
1 
1 
1 
1 
1 
1 
1 
1 
1 
1 
1 
1 
1 
1 
1 
1 
1 
1 
1 
1 
1 
1 
1 
1 
1 
1 
1 
1 
1 
1 
1 
1 
1 
1 
1 
1 
1 
1 
1 
1 
1 
1 
1 
1 
1 
1 
1 
1 
1 
1 
1 
1 
1 
1 
1 
1 
1 
1 
1 
1 
1 
1 
1 
1 
1 
1 
1 
1 
1 
1 
1 
1 
1 
1 
1 
1 
1 
1 
1 
1 
1 
1 
1 
1 
1 
1 
1 
1 
1 
1 
1 
1 
1 
1 
1 
1 
1 
1 
1 
1 
1 
1 
1 
1 
1 
1 
1 
1 
1 
1 
1 
1 
1 
1 
1 
1 
1 
1 
1 
1 
1 
1 
1 
1 
1 
1 
1 
1 
1 
1 
1 
1 
1 
1 
1 
1 
1 
1 
1 
1 
1 
1 
1 
1 
1 
1 
1 
1 
1 
1 
1 
1 
1 
1 
1 
1 
1 
1 
1 
1 
1 
1 
1 
1 
1 
1 
1 
1 
1 
1 
1 
1 
1 
1 
1 
1 
1 
1 
1 
1 
1 
1 
1 
1 
1 
1 
1 
1 
1 
1 
1 
1 
1 
1 
1 
1 
1 
1 
1 
1 
1 
1 
1 
1 
1 
1 
1 
1 
1 
1 
1 
1 
1 
1 
1 
1 
1 
1 
1 
1 
1 
1 
1 
1 
1 
1 
1 
1 
1 
1 
1 
1 
1 
1 
1 
1 
1 
1 
1 
1 
1 
1 
1 
1 
1 
1 
1 
1 
1 
1 
1 
1 
1 
1 
1 
1 
1 
1 
1 
1 
1 
1 
1 
1 
1 
1 
1 
1 
1 
1 
1 
1 
1 
1 
1 
1 
1 
1 
1 
1 
1 
1 
1 
1 
1 
1 
1 
1 
1 
1 
1 
1 
1 
1 
1 
1 
1 
1 
1 
1 
1 
1 
1 
1 
1 
1 
1 
1 
1 
1 
1 
1 
1 
1 
1 
1 
1 
1 
1 
1 
1 
1 
1 
1 
1 
1 
1 
1 
1 
1 
1 
1 
1 
1 
1 
1 
1 
1 
1 
1 
1 
1 
1 
1 
1 
1 
1 
1 
1 
1 
1 
1 
1 
1 
1 
1 
1 
1 
1 
1 
1 
1 
1 
1 
1 
1 
1 
1 
1 
1 
1 
1 
1 
1 
1 
1 
1 
1 
1 
1 
1 
1 
1 
1 
1 
1 
1 
1 
1 
1 
1 
1 
1 
1 
1 
1 
1 
1 
1 
1 
1 
1 
1 
1 
1 
1 
1 
1 
1 
1 
1 
1 
1 
1 
1 
1 
1 
1 
1 
1 
1 
1 
1 
1 
1 
1 
1 
1 
1 
1 
1 
1 
1 
1 
1 
1 
1 
1 
1 
1 
1 
1 
1 
1 
1 
1 
1 
1 
1 
1 
1 
1 
1 
1 
1 
1 
1 
1 
1 
1 
1 
1 
1 
1 
1 
1 
1 
1 
1 
1 
1 
1 
1 
1 
1 
1 
1 
1 
1 
1 
1 
1 
1 
1 
1 
1 
1 
1 
1 
1 
1 
1 
1 
1 
1 
1 
1 
1 
1 
1 
1 
1 
1 
1 
1 
1 
1 
1 
1 
1 
1 
1 
1 
1 
1 
1 
1 
1 
1 
1 
1 
1 
1 
1 
1 
1 
1 
1 
1 
1 
1 
1 
1 
1 
1 
1 
1 
1 
1 
1 
1 
1 
1 
1 
1 
1 
1 
1 
1 
1 
1 
1 
1 
1 
1 
1 
1 
1 
1 
1 
1 
1 
1 
1 
1 
1 
1 
1 
1 
1 
1 
1 
1 
1 
1 
1 
1 
1 
1 
1 
1 
1 
1 
1 
1 
1 
1 
1 
1 
1 
1 
1 
1 
1 
1 
1 
1 
1 
1 
1 
1 
1 
1 
1 
1 
1 
1 
1 
1 
1 
1 
1 
1 
1 
1 
1 
1 
1 
1 
1 
1 
1 
1 
1 
1 
1 
1 
1 
1 
1 
1 
1 
1 
1 
1 
1 
1 
1 
1 
1 
1 
1 
1 
1 
1 
1 
1 
1 
1 
1 
1 
1 
1 
1 
1 
1 
1 
1 
1 
1 
1 
1 
1 
1 
1 
1 
1 
1 
1 
1 
1 
1 
1 
1 
1 
1 
1 
1 
1 
1 
1 
1 
1 
1 
1 
1 
1 
1 
1 
1 
1 
1 
1 
1 
1 
1 
1 
1 
1 
1 
1 
1 
1 
1 
1 
1 
1 
1 
1 
1 
1 
1 
1 
1 
1 
1 
1 
1 
1 
1 
1 
1 
1 
1 
1 
1 
1 
1 
1 
1 
1 
1 
1 
1 
1 
1 
1 
1 
1 
1 
1 
1 
1 
1 
1 
1 
1 
1 
1 
1 
1 
1 
1 
1 
1 
1 
1 
1 
1 
1 
1 
1 
1 
1 
1 
1 
1 
1 
1 
1 
1 
1 
1 
1 
1 
1 
1 
1 
1 
1 
1 
1 
1 
1 
1 
1 
1 
1 
1 
1 
1 
1 
1 
1 
1 
1 
1 
1 
1 
1 
1 
1 
1 
1 
1 
1 
1 
1 
1 
1 
1 
1 
1 
1 
1 
1 
1 
1 
1 
1 
1 
1 
1 
1 
1 
1 
1 
1 
1 
1 
1 
1 
1 
1 
1 
1 
1 
1 
1 
1 
1 
1 
1 
1 
1 
1 
1 
1 
1 
1 
1 
1 
1 
1 
1 
1 
1 
1 
1 
1 
1 
1 
1 
1 
1 
1 
1 
1 
1 
1 
1 
1 
1 
1 
1 
1 
1 
1 
1 
1 
1 
1 
1 
1 
1 
1 
1 
1 
1 
1 
1 
1 
1 
1 
1 
1 
1 
1 
1 
1 
1 
1 
1 
1 
1 
1 
1 
1 
1 
1 
1 
1 
1 
1 
1 
1 
1 
1 
1 
1 
1 
1 
1 
1 
1 
1 
1 
1 
1 
1 
1 
1 
1 
1 
1 
1 
1 
1 
1 
1 
1 
1 
1 
1 
1 
1 
1 
1 
1 
1 
1 
1 
1 
1 
1 
1 
1 
1 
1 
1 
1 
1 
1 
1 
1 
1 
1 
1 
1 
1 
1 
1 
1 
1 
1 
1 
1 
1 
1 
1 
1 
1 
1 
1 
1 
1 
1 
1 
1 
1 
1 
1 
1 
1 
1 
1 
1 
1 
1 
1 
1 
1 
1 
1 
1 
1 
1 
1 
1 
1 
1 
1 
1 
1 
1 
1 
1 
1 
1 
1 
1 
1 
1 
1 
1 
1 
1 
1 
1 
1 
1 
1 
1 
1 
1 
1 
1 
1 
1 
1 
1 
1 
1 
1 
1 
1 
1 
1 
1 
1 
1 
1 
1 
1 
1 
1 
1 
1 
1 
1 
1 
1 
1 
1 
1 
1 
1 
1 
1 
1 
1 
1 
1 
1 
1 
1 
1 
1 
1 
1 
1 
1 
1 
1 
1 
1 
1 
1 
1 
1 
1 
1 
1 
1 
1 
1 
1 
1 
1 
1 
1 
1 
1 
1 
1 
1 
1 
1 
1 
1 
1 
1 
1 
1 
1 
1 
1 
1 
1 
1 
1 
1 
1 
1 
1 
1 
1 
1 
1 
1 
1 
1 
1 
1 
1 
1 
1 
1 
1 
1 
1 
1 
1 
1 
1 
1 
1 
1 
1 
1 
1 
1 
1 
1 
1 
1 
1 
1 
1 
1 
1 
1 
1 
1 
1 
1 
1 
1 
1 
1 
1 
1 
1 
1 
1 
1 
1 
1 
1 
1 
1 
1 
1 
1 
1 
1 
1 
1 
1 
1 
1 
1 
1 
1 
1 
1 
1 
1 
1 
1 
1 
1 
1 
1 
1 
1 
1 
1 
1 
1 
1 
1 
1 
1 
1 
1 
1 
1 
1 
1 
1 
1 
1 
1 
1 
1 
1 
1 
1 
1 
1 
1 
1 
1 
1 
1 
1 
1 
1 
1 
1 
1 
1 
1 
1 
1 
1 
1 
1 
1 
1 
1 
1 
1 
1 
1 
1 
1 
1 
1 
1 
1 
1 
1 
1 
1 
1 
1 
1 
1 
1 
1 
1 
1 
1 
1 
1 
1 
1 
1 
1 
1 
1 
1 
1 
1 
1 
1 
1 
1 
1 
1 
1 
1 
1 
1 
1 
1 
1 
1 
1 
1 
1 
1 
1 
1 
1 
1 
1 
1 
1 
1 
1 
1 
1 
1 
1 
1 
1 
1 
1 
1 
1 
1 
1 
1 
1 
1 
1 
1 
1 
1 
1 
1 
1 
1 
1 
1 
1 
1 
1 
1 
1 
1 
1 
1 
1 
1 
1 
1 
1 
1 
1 
1 
1 
1 
1 
1 
1 
1 
1 
1 
1 
1 
1 
1 
1 
1 
1 
1 
1 
1 
1 
1 
1 
1 
1 
1 
1 
1 
1 
1 
1 
1 
1 
1 
1 
1 
1 
1 
1 
1 
1 
1 
1 
1 
1 
1 
1 
1 
1 
1 
1 
1 
1 
1 
1 
1 
1 
1 
1 
1 
1 
1 
1 
1 
1 
1 
1 
1 
1 
1 
1 
1 
1 
1 
1 
1 
1 
1 
1 
1 
1 
1 
1 
1 
1 
1 
1 
1 
1 
1 
1 
1 
1 
1 
1 
1 
1 
1 
1 
1 
1 
1 
1 
1 
1 
1 
1 
1 
1 
1 
1 
1 
1 
1 
1 
1 
1 
1 
1 
1 
1 
1 
1 
1 
1 
1 
1 
1 
1 
1 
1 
1 
1 
1 
1 
1 
1 
1 
1 
1 
1 
1 
1 
1 
1 
1 
1 
1 
1 
1 
1 
1 
1 
1 
1 
1 
1 
1 
1 
1 
1 
1 
1 
1 
1 
1 
1 
1 
1 
1 
1 
1 
1 
1 
1 
1 
1 
1 
1 
1 
1 
1 
1 
1 
1 
1 
1 
1 
1 
1 
1 
1 
1 
1 
1 
1 
1 
1 
1 
1 
1 
1 
1 
1 
1 
1 
1 
1 
1 
1 
1 
1 
1 
1 
1 
1 
1 
1 
1 
1 
1 
1 
1 
1 
1 
1 
1 
1 
1 
1 
1 
1 
1 
1 
1 
1 
1 
1 
1 
1 
1 
1 
1 
1 
1 
1 
1 
1 
1 
1 
1 
1 
1 
1 
1 
1 
1 
1 
1 
1 
1 
1 
1 
1 
1 
1 
1 
1 
1 
1 
1 
1 
1 
1 
1 
1 
1 
1 
1 
1 
1 
1 
1 
1 
1 
1 
1 
1 
1 
1 
1 
1 
1 
1 
1 
1 
1 
1 
1 
1 
1 
1 
1 
1 
1 
1 
1 
1 
1 
1 
1 
1 
1 
1 
1 
1 
1 
1 
1 
1 
1 
1 
1 
1 
1 
1 
1 
1 
1 
1 
1 
1 
1 
1 
1 
1 
1 
1 
1 
1 
1 
1 
1 
1 
1 
1 
1 
1 
1 
1 
1 
1 
1 
1 
1 
1 
1 
1 
1 
1 
1 
1 
1 
1 
1 
1 
1 
1 
1 
1 
1 
1 
1 
1 
1 
1 
1 
1 
1 
1 
1 
1 
1 
1 
1 
1 
1 
1 
1 
1 
1 
1 
1 
1 
1 
1 
1 
1 
1 
1 
1 
1 
1 
1 
1 
1 
1 
1 
1 
1 
1 
1 
1 
1 
1 
1 
1 
1 
1 
1 
1 
1 
1 
1 
1 
1 
1 
1 
1 
1 
1 
1 
1 
1 
1 
1 
1 
1 
1 
1 
1 
1 
1 
1 
1 
1 
1 
1 
1 
1 
1 
1 
1 
1 
1 
1 
1 
1 
1 
1 
1 
1 
1 
1 
1 
1 
1 
1 
1 
1 
1 
1 
1 
1 
1 
1 
1 
1 
1 
1 
1 
1 
1 
1 
1 
1 
1 
1 
1 
1 
1 
1 
1 
1 
1 
1 
1 
1 
1 
1 
1 
1 
1 
1 
1 
1 
1 
1 
1 
1 
1 
1 
1 
1 
1 
1 
1 
1 
1 
1 
1 
1 
1 
1 
1 
1 
1 
1 
1 
1 
1 
1 
1 
1 
1 
1 
1 
1 
1 
1 
1 
1 
1 
1 
1 
1 
1 
1 
1 
1 
1 
1 
1 
1 
1 
1 
1 
1 
1 
1 
1 
1 
1 
1 
1 
1 
1 
1 
1 
1 
1 
1 
1 
1 
1 
1 
1 
1 
1 
1 
1 
1 
1 
1 
1 
1 
1 
1 
1 
1 
1 
1 
1 
1 
1 
1 
1 
1 
1 
1 
1 
1 
1 
1 
1 
1 
1 
1 
1 
1 
1 
1 
1 
1 
1 
1 
1 
1 
1 
1 
1 
1 
1 
1 
1 
1 
1 
1 
1 
1 
1 
1 
1 
1 
1 
1 
1 
1 
1 
1 
1 
1 
1 
1 
1 
1 
1 
1 
1 
1 
1 
1 
1 
1 
1 
1 
1 
1 
1 
1 
1 
1 
1 
1 
1 
1 
1 
1 
1 
1 
1 
1 
1 
1 
1 
1 
1 
1 
1 
1 
1 
1 
1 
1 
1 
1 
1 
1 
1 
1 
1 
1 
1 
1 
1 
1 
1 
1 
1 
1 
1 
1 
1 
1 
1 
1 
1 
1 
1 
1 
1 
1 
1 
1 
1 
1 
1 
1 
1 
1 
1 
1 
1 
1 
1 
1 
1 
1 
1 
1 
1 
1 
1 
1 
1 
1 
1 
1 
1 
1 
1 
1 
1 
1 
1 
1 
1 
1 
1 
1 
1 
1 
1 
1 
1 
1 
1 
1 
1 
1 
1 
1 
1 
1 
1 
1 
1 
1 
1 
1 
1 
1 
1 
1 
1 
1 
1 
1 
1 
1 
1 
1 
1 
1 
1 
1 
1 
1 
1 
1 
1 
1 
1 
1 
1 
1 
1 
1 
1 
1 
1 
1 
1 
1 
1 
1 
1 
1 
1 
1 
1 
1 
1 
1 
1 
1 
1 
1 
1 
1 
1 
1 
1 
1 
1 
1 
1 
1 
1 
1 
1 
1 
1 
1 
1 
1 
1 
1 
1 
1 
1 
1 
1 
1 
1 
1 
1 
1 
1 
1 
1 
1 
1 
1 
1 
1 
1 
1 
1 
1 
1 
1 
1 
1 
1 
1 
1 
1 
1 
1 
1 
1 
1 
1 
1 
1 
1 
1 
1 
1 
1 
1 
1 
1 
1 
1 
1 
1 
1 
1 
1 
1 
1 
1 
1 
1 
1 
1 
1 
1 
1 
1 
1 
1 
1 
1 
1 
1 
1 
1 
1 
1 
1 
1 
1 
1 
1 
1 
1 
1 
1 
1 
1 
1 
1 
1 
1 
1 
1 
1 
1 
1 
1 
1 
1 
1 
1 
1 
1 
1 
1 
1 
1 
1 
1 
1 
1 
1 
1 
1 
1 
1 
1 
1 
1 
1 
1 
1 
1 
1 
1 
1 
1 
1 
1 
1 
1 
1 
1 
1 
1 
1 
1 
1 
1 
1 
1 
1 
1 
1 
1 
1 
1 
1 
1 
1 
1 
1 
1 
1 
1 
1 
1 
1 
1 
1 
1 
1 
1 
1 
1 
1 
1 
1 
1 
1 
1 
1 
1 
1 
1 
1 
1 
1 
1 
1 
1 
1 
1 
1 
1 
1 
1 
1 
1 
1 
1 
1 
1 
1 
1 
1 
1 
1 
1 
1 
1 
1 
1 
1 
1 
1 
1 
1 
1 
1 
1 
1 
1 
1 
1 
1 
1 
1 
1 
1 
1 
1 
1 
1 
1 
1 
1 
1 
1 
1 
1 
1 
1 
1 
1 
1 
1 
1 
1 
1 
1 
1 
1 
1 
1 
1 
1 
1 
1 
1 
1 
1 
1 
1 
1 
1 
1 
1 
1 
1 
1 
1 
1 
1 
1 
1 
1 
1 
1 
1 
1 
1 
1 
1 
1 
1 
1 
1 
1 
1 
1 
1 
1 
1 
1 
1 
1 
1 
1 
1 
1 
1 
1 
1 
1 
1 
1 
1 
1 
1 
1 
1 
1 
1 
1 
1 
1 
1 
1 
1 
1 
1 
1 
1 
1 
1 
1 
1 
1 
1 
1 
1 
1 
1 
1 
1 
1 
1 
1 
1 
1 
1 
1 
1 
1 
1 
1 
1 
1 
1 
1 
1 
1 
1 
1 
1 
1 
1 
1 
1 
1 
1 
1 
1 
1 
1 
1 
1 
1 
1 
1 
1 
1 
1 
1 
1 
1 
1 
1 
1 
1 
1 
1 
1 
1 
1 
1 
1 
1 
1 
1 
1 
1 
1 
1 
1 
1 
1 
1 
1 
1 
1 
1 
1 
1 
1 
1 
1 
1 
1 
1 
1 
1 
1 
1 
1 
1 
1 
1 
1 
1 
1 
1 
1 
1 
1 
1 
1 
1 
1 
1 
1 
1 
1 
1 
1 
1 
1 
1 
1 
1 
1 
1 
1 
1 
1 
1 
1 
1 
1 
1 
1 
1 
1 
1 
1 
1 
1 
1 
1 
1 
1 
1 
1 
1 
1 
1 
1 
1 
1 
1 
1 
1 
1 
1 
1 
1 
1 
1 
1 
1 
1 
1 
1 
1 
1 
1 
1 
1 
1 
1 
1 
1 
1 
1 
1 
1 
1 
1 
1 
1 
1 
1 
1 
1 
1 
1 
1 
1 
1 
1 
1 
1 
1 
1 
1 
1 
1 
1 
1 
1 
1 
1 
1 
1 
1 
1 
1 
1 
1 
1 
1 
1 
1 
1 
1 
1 
1 
1 
1 
1 
1 
1 
1 
1 
1 
1 
1 
1 
1 
1 
1 
1 
1 
1 
1 
1 
1 
1 
1 
1 
1 
1 
1 
1 
1 
1 
1 
1 
1 
1 
1 
1 
1 
1 
1 
1 
1 
1 
1 
1 
1 
1 
1 
1 
1 
1 
1 
1 
1 
1 
1 
1 
1 
1 
1 
1 
1 
1 
1 
1 
1 
1 
1 
1 
1 
1 
1 
1 
1 
1 
1 
1 
1 
1 
1 
1 
1 
1 
1 
1 
1 
1 
1 
1 
1 
1 
1 
1 
1 
1 
1 
1 
1 
1 
1 
1 
1 
1 
1 
1 
1 
1 
1 
1 
1 
1 
1 
1 
1 
1 
1 
1 
1 
1 
1 
1 
1 
1 
1 
1 
1 
1 
1 
1 
1 
1 
1 
1 
1 
1 
1 
1 
1 
1 
1 
1 
1 
1 
1 
1 
1 
1 
1 
1 
1 
1 
1 
1 
1 
1 
1 
1 
1 
1 
1 
1 
1 
1 
1 
1 
1 
1 
1 
1 
1 
1 
1 
1 
1 
1 
1 
1 
1 
1 
1 
1 
1 
1 
1 
1 
1 
1 
1 
1 
1 
1 
1 
1 
1 
1 
1 
1 
1 
1 
1 
1 
1 
1 
1 
1 
1 
1 
1 
1 
1 
1 
1 
1 
1 
1 
1 
1 
1 
1 
1 
1 
1 
1 
1 
1 
1 
1 
1 
1 
1 
1 
1 
1 
1 
1 
1 
1 
1 
1 
1 
1 
1 
1 
1 
1 
1 
1 
1 
1 
1 
1 
1 
1 
1 
1 
1 
1 
1 
1 
1 
1 
1 
1 
1 
1 
1 
1 
1 
1 
1 
1 
1 
1 
1 
1 
1 
1 
1 
1 
1 
1 
1 
1 
1 
1 
1 
1 
1 
1 
1 
1 
1 
1 
1 
1 
1 
1 
1 
1 
1 
1 
1 
1 
1 
1 
1 
1 
1 
1 
1 
1 
1 
1 
1 
1 
1 
1 
1 
1 
1 
1 
1 
1 
1 
1 
1 
1 
1 
1 
1 
1 
1 
1 
1 
1 
1 
1 
1 
1 
1 
1 
1 
1 
1 
1 
1 
1 
1 
1 
1 
1 
1 
1 
1 
1 
1 
1 
1 
1 
1 
1 
1 
1 
1 
1 
1 
1 
1 
1 
1 
1 
1 
1 
1 
1 
1 
1 
1 
1 
1 
1 
1 
1 
1 
1 
1 
1 
1 
1 
1 
1 
1 
1 
1 
1 
1 
1 
1 
1 
1 
1 
1 
1 
1 
1 
1 
1 
1 
1 
1 
1 
1 
1 
1 
1 
1 
1 
1 
1 
1 
1 
1 
1 
1 
1 
1 
1 
1 
1 
1 
1 
1 
1 
1 
1 
1 
1 
1 
1 
1 
1 
1 
1 
1 
1 
1 
1 
1 
1 
1 
1 
1 
1 
1 
1 
1 
1 
1 
1 
1 
1 
1 
1 
1 
1 
1 
1 
1 
1 
1 
1 
1 
1 
1 
1 
1 
1 
1 
1 
1 
1 
1 
1 
1 
1 
1 
1 
1 
1 
1 
1 
1 
1 
1 
1 
1 
1 
1 
1 
1 
1 
1 
1 
1 
1 
1 
1 
1 
1 
1 
1 
1 
1 
1 
1 
1 
1 
1 
1 
1 
1 
1 
1 
1 
1 
1 
1 
1 
1 
1 
1 
1 
1 
1 
1 
1 
1 
1 
1 
1 
1 
1 
1 
1 
1 
1 
1 
1 
1 
1 
1 
1 
1 
1 
1 
1 
1 
1 
1 
1 
1 
1 
1 
1 
1 
1 
1 
1 
1 
1 
1 
1 
1 
1 
1 
1 
1 
1 
1 
1 
1 
1 
1 
1 
1 
1 
1 
1 
1 
1 
1 
1 
1 
1 
1 
1 
1 
1 
1 
1 
1 
1 
1 
1 
1 
1 
1 
1 
1 
1 
1 
1 
1 
1 
1 
1 
1 
1 
1 
1 
1 
1 
1 
1 
1 
1 
1 
1 
1 
1 
1 
1 
1 
1 
1 
1 
1 
1 
1 
1 
1 
1 
1 
1 
1 
1 
1 
1 
1 
1 
1 
1 
1 
1 
1 
1 
1 
1 
1 
1 
1 
1 
1 
1 
1 
1 
1 
1 
1 
1 
1 
1 
1 
1 
1 
1 
1 
1 
1 
1 
1 
1 
1 
1 
1 
1 
1 
1 
1 
1 
1 
1 
1 
1 
1 
1 
1 
1 
1 
1 
1 
1 
1 
1 
1 
1 
1 
1 
1 
1 
1 
1 
1 
1 
1 
1 
1 
1 
1 
1 
1 
1 
1 
1 
1 
1 
1 
1 
1 
1 
1 
1 
1 
1 
1 
1 
1 
1 
1 
1 
1 
1 
1 
1 
1 
1 
1 
1 
1 
1 
1 
1 
1 
1 
1 
1 
1 
1 
1 
1 
1 
1 
1 
1 
1 
1 
1 
1 
1 
1 
1 
1 
1 
1 
1 
1 
1 
1 
1 
1 
1 
1 
1 
1 
1 
1 
1 
1 
1 
1 
1 
1 
1 
1 
1 
1 
1 
1 
1 
1 
1 
1 
1 
1 
1 
1 
1 
1 
1 
1 
1 
1 
1 
1 
1 
1 
1 
1 
1 
1 
1 
1 
1 
1 
1 
1 
1 
1 
1 
1 
1 
1 
1 
1 
1 
1 
1 
1 
1 
1 
1 
1 
1 
1 
1 
1 
1 
1 
1 
1 
1 
1 
1 
1 
1 
1 
1 
1 
1 
1 
1 
1 
1 
1 
1 
1 
1 
1 
1 
1 
1 
1 
1 
1 
1 
1 
1 
1 
1 
1 
1 
1 
1 
1 
1 
1 
1 
1 
1 
1 
1 
1 
1 
1 
1 
1 
1 
1 
1 
1 
1 
1 
1 
1 
1 
1 
1 
1 
1 
1 
1 
1 
1 
1 
1 
1 
1 
1 
1 
1 
1 
1 
1 
1 
1 
1 
1 
1 
1 
1 
1 
1 
1 
1 
1 
1 
1 
1 
1 
1 
1 
1 
1 
1 
1 
1 
1 
1 
1 
1 
1 
1 
1 
1 
1 
1 
1 
1 
1 
1 
1 
1 
1 
1 
1 
1 
1 
1 
1 
1 
1 
1 
1 
1 
1 
1 
1 
1 
1 
1 
1 
1 
1 
1 
1 
1 
1 
1 
1 
1 
1 
1 
1 
1 
1 
1 
1 
1 
1 
1 
1 
1 
1 
1 
1 
1 
1 
1 
1 
1 
1 
1 
1 
1 
1 
1 
1 
1 
1 
1 
1 
1 
1 
1 
1 
1 
1 
1 
1 
1 
1 
1 
1 
1 
1 
1 
1 
1 
1 
1 
1 
1 
1 
1 
1 
1 
1 
1 
1 
1 
1 
1 
1 
1 
1 
1 
1 
1 
1 
1 
1 
1 
1 
1 
1 
1 
1 
1 
1 
1 
1 
1 
1 
1 
1 
1 
1 
1 
1 
1 
1 
1 
1 
1 
1 
1 
1 
1 
1 
1 
1 
1 
1 
1 
1 
1 
1 
1 
1 
1 
1 
1 
1 
1 
1 
1 
1 
1 
1 
1 
1 
1 
1 
1 
1 
1 
1 
1 
1 
1 
1 
1 
1 
1 
1 
1 
1 
1 
1 
1 
1 
1 
1 
1 
1 
1 
1 
1 
1 
1 
1 
1 
1 
1 
1 
1 
1 
1 
1 
1 
1 
1 
1 
1 
1 
1 
1 
1 
1 
1 
1 
1 
1 
1 
1 
1 
1 
1 
1 
1 
1 
1 
1 
1 
1 
1 
1 
1 
1 
1 
1 
1 
1 
1 
1 
1 
1 
1 
1 
1 
1 
1 
1 
1 
1 
1 
1 
1 
1 
1 
1 
1 
1 
1 
1 
1 
1 
1 
1 
1 
1 
1 
1 
1 
1 
1 
1 
1 
1 
1 
1 
1 
1 
1 
1 
1 
1 
1 
1 
1 
1 
1 
1 
1 
1 
1 
1 
1 
1 
1 
1 
1 
1 
1 
1 
1 
1 
1 
1 
1 
1 
1 
1 
1 
1 
1 
1 
1 
1 
1 
1 
1 
1 
1 
1 
1 
1 
1 
1 
1 
1 
1 
1 
1 
1 
1 
1 
1 
1 
1 
1 
1 
1 
1 
1 
1 
1 
1 
1 
1 
1 
1 
1 
1 
1 
1 
1 
1 
1 
1 
1 
1 
1 
1 
1 
1 
1 
1 
1 
1 
1 
1 
1 
1 
1 
1 
1 
1 
1 
1 
1 
1 
1 
1 
1 
1 
1 
1 
1 
1 
1 
1 
1 
1 
1 
1 
1 
1 
1 
1 
1 
1 
1 
1 
1 
1 
1 
1 
1 
1 
1 
1 
1 
1 
1 
1 
1 
1 
1 
1 
1 
1 
1 
1 
1 
1 
1 
1 
1 
1 
1 
1 
1 
1 
1 
1 
1 
1 
1 
1 
1 
1 
1 
1 
1 
1 
1 
1 
1 
1 
1 
1 
1 
1 
1 
1 
1 
1 
1 
1 
1 
1 
1 
1 
1 
1 
1 
1 
1 
1 
1 
1 
1 
1 
1 
1 
1 
1 
1 
1 
1 
1 
1 
1 
1 
1 
1 
1 
1 
1 
1 
1 
1 
1 
1 
1 
1 
1 
1 
1 
1 
1 
1 
1 
1 
1 
1 
1 
1 
1 
1 
1 
1 
1 
1 
1 
1 
1 
1 
1 
1 
1 
1 
1 
1 
1 
1 
1 
1 
1 
1 
1 
1 
1 
1 
1 
1 
1 
1 
1 
1 
1 
1 
1 
1 
1 
1 
1 
1 
1 
1 
1 
1 
1 
1 
1 
1 
1 
1 
1 
1 
1 
1 
1 
1 
1 
1 
1 
1 
1 
1 
1 
1 
1 
1 
1 
1 
1 
1 
1 
1 
1 
1 
1 
1 
1 
1 
1 
1 
1 
1 
1 
1 
1 
1 
1 
1 
1 
1 
1 
1 
1 
1 
1 
1 
1 
1 
1 
1 
1 
1 
1 
1 
1 
1 
1 
1 
1 
1 
1 
1 
1 
1 
1 
1 
1 
1 
1 
1 
1 
1 
1 
1 
1 
1 
1 
1 
1 
1 
1 
1 
1 
1 
1 
1 
1 
1 
1 
1 
1 
1 
1 
1 
1 
1 
1 
1 
1 
1 
1 
1 
1 
1 
1 
1 
1 
1 
1 
1 
1 
1 
1 
1 
1 
1 
1 
1 
1 
1 
1 
1 
1 
1 
1 
1 
1 
1 
1 
1 
1 
1 
1 
1 
1 
1 
1 
1 
1 
1 
1 
1 
1 
1 
1 
1 
1 
1 
1 
1 
1 
1 
1 
1 
1 
1 
1 
1 
1 
1 
1 
1 
1 
1 
1 
1 
1 
1 
1 
1 
1 
1 
1 
1 
1 
1 
1 
1 
1 
1 
1 
1 
1 
1 
1 
1 
1 
1 
1 
1 
1 
1 
1 
1 
1 
1 
1 
1 
1 
1 
1 
1 
1 
1 
1 
1 
1 
1 
1 
1 
1 
1 
1 
1 
1 
1 
1 
1 
1 
1 
1 
1 
1 
1 
1 
1 
1 
1 
1 
1 
1 
1 
1 
1 
1 
1 
1 
1 
1 
1 
1 
1 
1 
1 
1 
1 
1 
1 
1 
1 
1 
1 
1 
1 
1 
1 
1 
1 
1 
1 
1 
1 
1 
1 
1 
1 
1 
1 
1 
1 
1 
1 
1 
1 
1 
1 
1 
1 
1 
1 
1 
1 
1 
1 
1 
1 
1 
1 
1 
1 
1 
1 
1 
1 
1 
1 
1 
1 
1 
1 
1 
1 
1 
1 
1 
1 
1 
1 
1 
1 
1 
1 
1 
1 
1 
1 
1 
1 
1 
1 
1 
1 
1 
1 
1 
1 
1 
1 
1 
1 
1 
1 
1 
1 
1 
1 
1 
1 
1 
1 
1 
1 
1 
1 
1 
1 
1 
1 
1 
1 
1 
1 
1 
1 
1 
1 
1 
1 
1 
1 
1 
1 
1 
1 
1 
1 
1 
1 
1 
1 
1 
1 
1 
1 
1 
1 
1 
1 
1 
1 
1 
1 
1 
1 
1 
1 
1 
1 
1 
1 
1 
1 
1 
1 
1 
1 
1 
1 
1 
1 
1 
1 
1 
1 
1 
1 
1 
1 
1 
1 
1 
1 
1 
1 
1 
1 
POINT_DATA 5000
VECTORS Stress float
-128.782 -1003.06 0.
-156.238 -1075.29 0.
-181.198 -1133.69 0.
54.703 -1088.6 0.
3.24741 -1208.6 0.
-48.2082 -1328.61 0.
184.543 -1312.77 0.
151.016 -1391.02 0.
117.489 -1469.26 0.
182.099 -1462 0.
184.618 -1456.18 0.
187.137 -1450.36 0.
-112.837 -1583.18 0.
-115.469 -1589.32 0.
203.414 -1456.53 0.
205.218 -1452.45 0.
207.023 -1448.37 0.
-24.6685 -1545.35 0.
-23.9709 -1543.83 0.
-23.2733 -1542.32 0.
-242.858 -1637.83 0.
-244.204 -1640.93 0.
-245.55 -1644.03 0.
345.71 -1391.57 0.
345.144 -1392.82 0.
473.047 -1339.01 0.
-310.535 -1675.44 0.
-310.139 -1674.61 0.
13.4914 -1534.77 0.
12.6577 -1536.91 0.
11.824 -1539.04 0.
464.885 -1345.31 0.
466.726 -1341.17 0.
468.567 -1337.03 0.
-221.361 -1632.36 0.
-222.244 -1634.26 0.
-223.127 -1636.16 0.
8.8887 -1535.72 0.
9.64028 -1533.88 0.
6.1346 -1533.86 0.
7.0509 -1531.55 0.
7.9672 -1529.25 0.
-142.145 -1591.87 0.
-142.839 -1593.38 0.
-143.533 -1594.89 0.
-334.384 -1678.04 0.
-335.122 -1679.77 0.
-335.859 -1681.51 0.
-295.767 -1664.66 0.
-295.423 -1663.87 0.
-3404.66 -2996 0.
742.958 -1218.07 0.
743.261 -1217.47 0.
-376.58 -1696.99 0.
-375.626 -1694.69 0.
-374.672 -1692.4 0.
145.885 -1468.89 0.
143.527 -1474.32 0.
141.17 -1479.76 0.
-350.294 -1684.21 0.
-344.129 -1669.75 0.
-337.964 -1655.29 0.
-187.808 -1601.13 0.
-193.619 -1614.67 0.
90.6498 -1501.15 0.
91.9093 -1498.17 0.
93.1688 -1495.18 0.
-117.953 -1584.79 0.
-118.261 -1585.69 0.
-118.57 -1586.59 0.
-167.24 -1607.4 0.
-167.025 -1606.99 0.
-166.81 -1606.58 0.
-353.977 -1667.8 0.
-341.398 -1638.38 0.
226.541 -1372.62 0.
356.335 -1340.28 0.
344.174 -1368.78 0.
11.7703 -1527.85 0.
10.4414 -1530.84 0.
9.11251 -1533.83 0.
-21.7141 -1547.53 0.
-20.019 -1543.45 0.
-18.324 -1539.37 0.
-198.325 -1614.36 0.
-199.389 -1616.62 0.
-200.454 -1618.89 0.
560.925 -1296.6 0.
559.607 -1299.78 0.
-86.8279 -1572.77 0.
-65.2547 -1522.47 0.
-43.6815 -1472.17 0.
-151.88 -1478.82 0.
-132.594 -1433.63 0.
-113.308 -1388.43 0.
106.772 -1234.52 0.
145.249 -1144.73 0.
183.725 -1054.94 0.
165.043 -1133.05 0.
111.824 -1256.5 0.
199.381 -831.051 0.
-168.999 -1049.44 0.
-193.852 -1107.92 0.
138.515 -1021.17 0.
87.0133 -1141.16 0.
35.5112 -1261.16 0.
149.71 -1296.31 0.
116.211 -1374.52 0.
82.7119 -1452.73 0.
293.953 -1382.7 0.
296.514 -1376.88 0.
299.075 -1371.07 0.
2.76838 -1502.08 0.
0.13676 -1508.21 0.
44.7934 -1493.15 0.
46.6793 -1489.15 0.
48.5653 -1485.14 0.
52.5649 -1480.36 0.
53.3194 -1478.94 0.
54.074 -1477.52 0.
-122.07 -1554.67 0.
-123.427 -1557.71 0.
-124.784 -1560.76 0.
61.0149 -1482.24 0.
60.3957 -1483.45 0.
-270.922 -1626.4 0.
-62.9464 -1537.99 0.
-62.4977 -1537.25 0.
-61.7961 -1535.39 0.
-62.5085 -1537.63 0.
-63.221 -1539.87 0.
307.004 -1381.51 0.
308.958 -1377.42 0.
310.912 -1373.33 0.
-33.0771 -1520.13 0.
-34.0656 -1521.95 0.
-35.054 -1523.77 0.
7.63047 -1505.02 0.
8.31948 -1503.15 0.
109.408 -1458.65 0.
110.222 -1456.24 0.
111.036 -1453.84 0.
-227.866 -1597.31 0.
-228.624 -1598.74 0.
-229.382 -1600.18 0.
-230.705 -1602.58 0.
-231.44 -1604.33 0.
-232.174 -1606.09 0.
-266.893 -1620.84 0.
-266.56 -1620.1 0.
-1355.14 -2086.17 0.
829.398 -1149.61 0.
829.75 -1149.1 0.
-195.198 -1587.74 0.
-194.308 -1585.45 0.
-193.417 -1583.16 0.
-207.797 -1589.24 0.
-210.212 -1594.67 0.
-212.626 -1600.1 0.
-84.2803 -1538.99 0.
-78.1477 -1524.44 0.
-72.015 -1509.9 0.
-282.55 -1610.08 0.
-288.375 -1623.63 0.
244.458 -1404.13 0.
245.679 -1401.15 0.
246.899 -1398.17 0.
-151.046 -1567.21 0.
-151.237 -1568.21 0.
-151.428 -1569.2 0.
-24.8014 -1515.07 0.
-24.5259 -1514.7 0.
-24.2505 -1514.34 0.
-416.952 -1663.53 0.
-404.418 -1634.07 0.
109.61 -1390.82 0.
208.389 -1371.91 0.
196.289 -1400.51 0.
60.6916 -1475.61 0.
59.2894 -1478.55 0.
57.8873 -1481.48 0.
22.8544 -1496.73 0.
24.4658 -1492.6 0.
26.0773 -1488.46 0.
-137.149 -1557.07 0.
-138.349 -1559.2 0.
-139.548 -1561.34 0.
253.982 -1396.74 0.
252.725 -1400 0.
-43.657 -1522.78 0.
-22.0845 -1472.56 0.
-0.511981 -1422.34 0.
-34.1951 -1396.77 0.
-15.0336 -1351.48 0.
4.12785 -1306.19 0.
175.364 -1174.14 0.
213.87 -1084.26 0.
252.376 -994.382 0.
21.5869 -1162.96 0.
-32.0565 -1285.93 0.
446.231 -850.964 0.
-285.594 -1267.59 0.
-332.076 -1375.59 0.
-250.628 -2056.09 0.
29.5776 -1402.39 0.
-162.504 -1850.72 0.
-407.238 -2498.45 0.
-353.27 -2373.11 0.
-762.716 -3329.06 0.
-543.013 -3515.15 0.
-499.596 -3414.06 0.
-619.291 -3693.59 0.
-722.322 -3382.42 0.
-490.548 -2841.46 0.
-1203.51 -4072.87 0.
-963.508 -3512.45 0.
-1095.81 -3820.73 0.
-892.889 -3804.02 0.
-1064.72 -4204.44 0.
-1561.37 -5362.78 0.
-1859.98 -5807.54 0.
-1313.76 -4533.03 0.
-1202.4 -4273.17 0.
-1114.97 -3652.25 0.
-1083.87 -3579.99 0.
-1501.2 -4610.33 0.
-898.957 -3929.42 0.
-703.923 -3474.02 0.
-874.735 -3260.09 0.
-1046.22 -3659.75 0.
-1492.97 -4701.71 0.
-1299.51 -4798.62 0.
-1051.75 -4220.22 0.
-975.889 -4042.91 0.
-914.725 -3903.27 0.
-1219.68 -4615.79 0.
-1954.14 -6330.49 0.
-1689.97 -5432.02 0.
-1258.28 -4425.12 0.
-1547.24 -5491.19 0.
-1216.53 -4719.95 0.
-1047.22 -4325.3 0.
-1516.09 -4408.28 0.
-1016.14 -3241.92 0.
-823.059 -2791.61 0.
-950.045 -3446.42 0.
-1279.13 -4214.35 0.
-1628.96 -5030.69 0.
-1269.49 -3984.87 0.
-1222.61 -3875.29 0.
-4180.61 -6803.83 0.
-286.277 -3886.88 0.
-288.74 -3892.18 0.
-1368.24 -4640.26 0.
-1106.43 -4028.99 0.
-1392.83 -4696.88 0.
-1478.16 -3847.83 0.
-1579.64 -4084.64 0.
-2047.8 -5176.99 0.
-1207.7 -4637.96 0.
-678.704 -3403.95 0.
-692.112 -3435.56 0.
-1175.92 -3482.85 0.
-1305.79 -3785.93 0.
-1074.65 -4743.94 0.
-1022.59 -4622.28 0.
-1376.16 -5447.07 0.
-1790.63 -5299.1 0.
-1246.24 -4028.67 0.
-1561.85 -4764.91 0.
-1073.6 -4203.17 0.
-896.479 -3789.79 0.
-1388.03 -4936.64 0.
-1323.01 -3627.25 0.
-1064.32 -3023 0.
-855.013 -3323.98 0.
-528.997 -2780.5 0.
-1127.56 -4176.75 0.
-1455.18 -5072.56 0.
-958.305 -3913.16 0.
-1064.81 -4161.65 0.
-1412.05 -4897.86 0.
-1206.72 -4418.99 0.
-1369.88 -4799.93 0.
-872.013 -3353.79 0.
-520.524 -2534.1 0.
-634.223 -2799.86 0.
-676.882 -2952.75 0.
-867.424 -3397 0.
-1134.47 -4119.45 0.
-390.114 -2382.03 0.
-424.351 -2461.3 0.
-308.381 -2227.21 0.
-100.879 -1742.85 0.
-424.995 -2498.92 0.
-188.642 -2124.25 0.
117.867 -1408.95 0.
59.0531 -1546.16 0.
-376.882 -1790.65 0.
-299.279 -1610.54 0.
513.279 -409.871 0.
26.6392 -620.136 0.
14.7438 -647.5 0.
283.427 -518.824 0.
374.328 -306.735 0.
465.23 -94.6471 0.
569.326 38.1515 0.
553.028 -0.357777 0.
536.731 -38.8671 0.
875.698 93.6036 0.
875.326 92.2872 0.
874.953 90.9709 0.
896.67 59.9589 0.
871.691 1.96755 0.
373.451 -249.546 0.
406.237 -172.864 0.
439.024 -96.1824 0.
823.383 98.7496 0.
803.191 52.044 0.
783 5.33834 0.
584.058 -83.1736 0.
596.286 -54.9116 0.
608.515 -26.6496 0.
328.907 -220.518 0.
273.746 -349.783 0.
768.501 -243.427 0.
727.685 -208.236 0.
756.03 -142.063 0.
419.259 -228.558 0.
460.98 -130.921 0.
502.702 -33.2832 0.
722.645 102.025 0.
716.307 87.7995 0.
709.97 73.5743 0.
753.348 108.814 0.
770.853 148.816 0.
788.358 188.818 0.
802.716 236.901 0.
824.695 287.639 0.
912.727 352.404 0.
860.25 229.79 0.
807.773 107.175 0.
276.611 -172.902 0.
298.453 -122.17 0.
320.295 -71.4374 0.
556.521 58.9719 0.
567.214 83.951 0.
577.908 108.93 0.
646.471 149.334 0.
651.538 161.462 0.
-412.06 -284.513 0.
1467.21 514.956 0.
1463.81 507.356 0.
580.96 124.865 0.
580.24 123.489 0.
579.519 122.113 0.
432.67 31.0445 0.
401.483 -41.955 0.
370.297 -114.955 0.
703.562 23.1238 0.
715.186 49.6164 0.
726.809 76.109 0.
466.689 -46.4241 0.
459.292 -63.6976 0.
830.201 96.4372 0.
883.743 221.628 0.
937.285 346.819 0.
496.517 214.194 0.
484.368 185.355 0.
472.218 156.516 0.
559.56 175.214 0.
550.457 153.25 0.
541.354 131.286 0.
497.667 36.0194 0.
450.17 -73.9885 0.
913.461 40.1161 0.
872.368 104.705 0.
914.881 205.125 0.
870.821 229.817 0.
834.731 145.729 0.
798.641 61.6398 0.
533.053 -44.0847 0.
582.792 71.2099 0.
632.53 186.505 0.
558.231 95.0614 0.
491.847 -60.1906 0.
425.463 -215.443 0.
642.275 -125.286 0.
643.714 -120.856 0.
492.916 -201.769 0.
431.048 -345.238 0.
369.181 -488.707 0.
299.876 -582.207 0.
314.036 -548.883 0.
328.195 -515.558 0.
535.968 -503.059 0.
458.026 -684.704 0.
380.085 -866.349 0.
215.383 -663.802 0.
409.184 -212.596 0.
380.624 -434.696 0.
85.7481 -563.26 0.
73.8341 -590.754 0.
147.122 -545.761 0.
237.976 -333.664 0.
328.831 -121.566 0.
450.618 19.1287 0.
434.307 -19.3119 0.
417.995 -57.7525 0.
735.815 65.6303 0.
735.531 64.3036 0.
735.248 62.9768 0.
1089.06 173.591 0.
1064.04 115.633 0.
314.405 -243.566 0.
347.245 -166.999 0.
380.084 -90.4328 0.
893.637 160.831 0.
873.477 114.084 0.
853.317 67.3361 0.
589.193 -49.571 0.
601.534 -21.3288 0.
613.876 6.91346 0.
312.698 -195.666 0.
257.603 -325.008 0.
898.457 -156.174 0.
783.265 -152.87 0.
811.685 -86.8019 0.
429.413 -192.653 0.
471.163 -95.1265 0.
512.913 2.40016 0.
643.557 99.7707 0.
637.142 85.6308 0.
630.726 71.4909 0.
706.846 120.214 0.
724.311 160.246 0.
741.776 200.277 0.
896.467 308.28 0.
918.522 359.069 0.
875.122 368.316 0.
822.623 245.903 0.
770.124 123.49 0.
265.647 -146.077 0.
287.495 -95.3623 0.
309.342 -44.6477 0.
578.114 99.4215 0.
588.78 124.421 0.
599.445 149.421 0.
839.531 263.44 0.
844.514 275.5 0.
321.595 61.4018 0.
1320.66 483.397 0.
1317.28 475.735 0.
483.581 114.647 0.
482.883 113.243 0.
482.186 111.839 0.
753.43 199.755 0.
722.31 126.699 0.
691.191 53.6419 0.
614.508 16.7949 0.
626.247 43.2359 0.
637.986 69.6769 0.
691.609 82.0572 0.
684.178 64.7495 0.
638.87 45.7333 0.
692.385 170.92 0.
745.9 296.107 0.
420.465 213.36 0.
408.523 184.323 0.
396.581 155.286 0.
277.921 85.7376 0.
269.076 63.5493 0.
260.231 41.361 0.
821.713 207.135 0.
774.074 96.984 0.
1104.94 153.779 0.
1091.04 230.275 0.
1133.25 330.821 0.
952.662 295.813 0.
916.558 211.793 0.
880.453 127.774 0.
384.172 -76.2369 0.
434.059 38.8653 0.
483.947 153.968 0.
516.424 109.131 0.
450.004 -46.1088 0.
383.585 -201.349 0.
790.304 -30.4738 0.
791.487 -25.9025 0.
446.055 -190.637 0.
384.018 -334.214 0.
321.982 -477.792 0.
198.367 -593.316 0.
212.521 -559.932 0.
226.674 -526.547 0.
589.006 -448.846 0.
511.011 -630.494 0.
433.016 -812.141 0.
365.734 -567.895 0.
559.484 -116.779 0.
196.087 -759.091 0.
-150.381 -1046.31 0.
-224.87 -1220.2 0.
-160.898 -1316.84 0.
-179.619 -1361.75 0.
-198.341 -1406.66 0.
-172.107 -1400.93 0.
-155.402 -1362.66 0.
-138.697 -1324.4 0.
106.722 -1248.69 0.
76.2328 -1321.13 0.
45.7432 -1393.57 0.
460.478 -1236.34 0.
451.669 -1256.6 0.
-235.821 -1567.09 0.
-241.684 -1580.89 0.
-247.547 -1594.69 0.
225.267 -1439.23 0.
159.976 -1590.4 0.
94.6852 -1741.57 0.
-182.839 -1886.92 0.
-151.918 -1814.82 0.
-120.997 -1742.71 0.
-360.798 -1807.12 0.
-343.959 -1767.55 0.
188.756 -1506.8 0.
189.666 -1494.25 0.
196.068 -1479 0.
-135.634 -1609.35 0.
-128.842 -1592.32 0.
-122.049 -1575.28 0.
-112.903 -1566.43 0.
-117.36 -1576.95 0.
-121.817 -1587.46 0.
-125.968 -1652.55 0.
-172.6 -1761.89 0.
-219.232 -1871.23 0.
-16.3806 -1756.97 0.
4.14741 -1707.92 0.
-39.973 -1688.28 0.
-13.7433 -1627.59 0.
12.4865 -1566.9 0.
-253.796 -1646.87 0.
-255.068 -1650.67 0.
-256.339 -1654.46 0.
-169.599 -1692.02 0.
-237.772 -1852.76 0.
-305.944 -2013.51 0.
-165.202 -1950.78 0.
-142.102 -1898.19 0.
-1939.44 -2626.47 0.
212.308 -1687.73 0.
221.198 -1667.36 0.
-275.619 -1846.97 0.
-230.68 -1742.26 0.
-185.742 -1637.55 0.
199.315 -1363.01 0.
272.474 -1191.76 0.
345.632 -1020.52 0.
80.8963 -1147.55 0.
34.6097 -1254.16 0.
-11.6768 -1360.77 0.
202.706 -1264.29 0.
209.575 -1248.64 0.
-60.2828 -1359.36 0.
-81.6969 -1410.02 0.
-103.111 -1460.67 0.
-332.446 -1565.76 0.
-303.178 -1495.75 0.
-273.91 -1425.73 0.
-404.211 -1440.97 0.
-389.582 -1403.92 0.
-374.953 -1366.88 0.
292.249 -1182.35 0.
221.428 -1348.95 0.
393.702 -1411.7 0.
296.084 -1566.22 0.
236.728 -1704.33 0.
88.125 -1782.31 0.
237.598 -1433.74 0.
387.07 -1085.16 0.
-178.549 -1278.96 0.
-295.576 -1552 0.
-412.603 -1825.05 0.
-238.303 -1822.33 0.
-240.231 -1826.77 0.
-242.159 -1831.21 0.
113.988 -1551.02 0.
188.587 -1376.97 0.
-39.4491 -1343.37 0.
-15.9862 -1288.36 0.
7.47663 -1233.34 0.
-113.23 -1269.85 0.
-131.888 -1313.09 0.
-150.547 -1356.34 0.
284.653 -1134.19 0.
328.213 -1032.42 0.
371.773 -930.658 0.
55.7099 -1103.88 0.
21.2745 -1183 0.
254.556 -702.396 0.
-245.725 -1055.33 0.
-320.205 -1229.41 0.
63.6576 -1188.87 0.
44.9658 -1233.88 0.
26.2743 -1278.9 0.
-54.7482 -1318.69 0.
-38.019 -1280.44 0.
-21.2899 -1242.19 0.
119.833 -1211.82 0.
89.312 -1284.14 0.
58.7912 -1356.46 0.
242.592 -1298.24 0.
233.775 -1318.43 0.
-100.269 -1477.16 0.
-106.073 -1491.01 0.
-111.878 -1504.87 0.
230.684 -1405.36 0.
165.45 -1556.7 0.
100.216 -1708.03 0.
-118.445 -1827.98 0.
-87.7589 -1755.72 0.
-57.0732 -1683.45 0.
-268.007 -1735.98 0.
-251.242 -1696.33 0.
-759.454 -1881.71 0.
119.889 -1492.7 0.
126.247 -1477.54 0.
-10.6303 -1524.44 0.
-3.93382 -1507.45 0.
2.76254 -1490.47 0.
-107.755 -1532.8 0.
-112.166 -1543.42 0.
-116.578 -1554.04 0.
-225.657 -1663.67 0.
-272.328 -1772.92 0.
-318.999 -1882.17 0.
-141.472 -1780.04 0.
-121.001 -1730.85 0.
-47.8937 -1659.98 0.
-21.7332 -1599.17 0.
4.42737 -1538.36 0.
91.9111 -1467.05 0.
90.6824 -1470.83 0.
89.4533 -1474.6 0.
-109.597 -1635.94 0.
-177.677 -1796.62 0.
-245.757 -1957.3 0.
-465.905 -2048.24 0.
-442.773 -1995.7 0.
-1033.73 -2207.13 0.
-40.0198 -1765.12 0.
-30.8519 -1745.08 0.
47.4159 -1676.59 0.
92.2883 -1571.76 0.
137.161 -1466.94 0.
195.984 -1333.75 0.
269.167 -1162.51 0.
342.351 -991.279 0.
118.997 -1099.01 0.
72.7121 -1205.61 0.
26.4271 -1312.21 0.
228.775 -1221.96 0.
235.726 -1206.33 0.
-68.884 -1331.58 0.
-90.3027 -1382.25 0.
-111.722 -1432.91 0.
-204.817 -1479.43 0.
-175.244 -1409.65 0.
-145.672 -1339.88 0.
-167.725 -1307.66 0.
-153.074 -1270.57 0.
-138.423 -1233.49 0.
164.02 -1206.72 0.
92.9618 -1373.19 0.
164.308 -1478.21 0.
54.5405 -1638.13 0.
-4.74554 -1776.42 0.
100.742 -1745.54 0.
250.157 -1396.94 0.
399.571 -1048.33 0.
-112.942 -1219.59 0.
-230.018 -1492.64 0.
-347.094 -1765.7 0.
14.2129 -1682.77 0.
12.0964 -1687.14 0.
9.98001 -1691.5 0.
-60.0996 -1594.51 0.
14.4228 -1420.41 0.
63.5262 -1267.5 0.
87.0035 -1212.43 0.
110.481 -1157.37 0.
-27.9181 -1201.69 0.
-46.5327 -1244.88 0.
-65.1474 -1288.07 0.
244.481 -1120.16 0.
287.845 -1018.23 0.
331.208 -916.302 0.
-254.134 -1204.64 0.
-288.508 -1284.13 0.
341.09 -578.727 0.
-94.2076 -487.944 0.
-165.404 -652.145 0.
324.859 -976.352 0.
490.088 -588.937 0.
563.957 -414.679 0.
-288.827 -2056.63 0.
632.189 92.7039 0.
865.666 637.684 0.
570.784 -158.748 0.
-76.5864 -1668.48 0.
520.972 -273.274 0.
700.923 219.526 0.
330.135 -646.128 0.
-215.258 -1970.49 0.
174.778 -1060.39 0.
32.9276 -1391.34 0.
108.607 -1666.16 0.
235.481 -1371.08 0.
630.423 -450.506 0.
485.133 -509.089 0.
417.848 -666.607 0.
412.847 -678.876 0.
388.06 -349.916 0.
215.983 -751.75 0.
249.847 -622.449 0.
388.44 -697.379 0.
115.908 -1333.88 0.
239.865 -1144.7 0.
893.409 378.617 0.
1270.33 1256.53 0.
-344.123 -2060.68 0.
126.977 -960.918 0.
674.834 318.128 0.
616.393 518.105 0.
-224.961 -1444.31 0.
-644.742 -2423.18 0.
-410.607 -2142.39 0.
-44.3973 -1290.05 0.
65.7378 -1344.01 0.
272.385 -863.027 0.
623.765 -44.3507 0.
789.922 -464.98 0.
551.048 -1021.17 0.
780.556 -484.479 0.
176.294 -1054.28 0.
102.581 -1225.25 0.
543.813 -194.701 0.
-619.145 -1807.49 0.
82.5574 -169.153 0.
200.66 -953.353 0.
342.471 -367.916 0.
-7.67654 -1182.7 0.
447.307 -1324.73 0.
218.638 -1857.31 0.
-271.133 -2999.08 0.
500.709 -582.493 0.
1037.81 670.488 0.
899.12 346.593 0.
218.989 -908.198 0.
-54.007 -1544.29 0.
809.692 471.952 0.
764.275 11.413 0.
-31.3052 -1844.07 0.
-469.041 -2219.17 0.
852.83 866.105 0.
497.348 37.5781 0.
406.32 -264.965 0.
-81.4508 -1403.3 0.
119.586 -934.253 0.
-58.2427 -1464.63 0.
689.058 275.978 0.
550.057 -51.4145 0.
-150.264 -1663.1 0.
-372.287 -2182.44 0.
-83.2079 -1554.46 0.
198.982 -811.565 0.
-372.199 -2144.47 0.
414.639 -1005.09 0.
811.032 -78.4995 0.
785.299 -136.862 0.
537.28 203.407 0.
426.088 -56.0954 0.
92.6884 -834.025 0.
103.683 -1920.82 0.
364.761 -1312.23 0.
22.7003 -2110.97 0.
0.157059 -1093.18 0.
392.379 -178.86 0.
873.661 460.165 0.
656.057 -48.8674 0.
564.204 -264.539 0.
406.109 -322.116 0.
352.382 -447.441 0.
917.307 870.756 0.
681.335 12.0405 0.
495.618 -421.468 0.
346.951 -768.495 0.
-80.0047 -179.022 0.
-438.034 -1012.63 0.
90.7069 -741.536 0.
-128.467 -814.239 0.
-112.338 -775.349 0.
343.127 -566.359 0.
298.632 -668.792 0.
254.138 -771.224 0.
81.8682 -953.177 0.
11.7283 -1116.12 0.
-58.4116 -1279.07 0.
238.502 -1161.63 0.
265.031 -1099.3 0.
291.561 -1036.97 0.
202.385 -1108 0.
180.178 -1160.84 0.
124.343 -1218.82 0.
159.541 -1136.74 0.
194.739 -1054.66 0.
290.364 -944.359 0.
327.149 -859.425 0.
363.934 -774.491 0.
274.191 -880.096 0.
175.206 -1111.33 0.
76.2207 -1342.56 0.
99.6191 -1341.83 0.
125.03 -1283.01 0.
168.11 -1216.48 0.
192.509 -1078.98 0.
260.283 -921.175 0.
364.89 -815.136 0.
258.057 -1065.86 0.
151.224 -1316.59 0.
-82.9828 -1512.4 0.
-53.9213 -1443.97 0.
-24.8597 -1375.53 0.
-202.129 -1235.59 0.
-46.6771 -872.462 0.
108.775 -509.339 0.
466.97 -525.62 0.
346.134 -809.087 0.
17.0644 -1147.86 0.
59.4279 -1049.95 0.
101.792 -952.038 0.
481.614 -799.505 0.
382.538 -1029.63 0.
283.462 -1259.75 0.
35.2144 -1358.42 0.
120.408 -1159.02 0.
205.601 -959.623 0.
-168.734 -1217.27 0.
-259.351 -1426.92 0.
-923.157 -1882.2 0.
58.2548 -1257.84 0.
164.142 -1008.76 0.
505.876 -728.581 0.
457.42 -841.277 0.
408.965 -953.973 0.
202.662 -1149.06 0.
135.424 -1305.81 0.
68.185 -1462.56 0.
152.159 -1430.98 0.
180.193 -1364.27 0.
208.227 -1297.55 0.
37.7206 -1251.31 0.
103.224 -1096.98 0.
132.556 -994.857 0.
49.6023 -1187.49 0.
-33.351 -1380.11 0.
-105.389 -1451.2 0.
-10.6464 -1229.78 0.
84.0966 -1008.36 0.
244.082 -934.296 0.
177.492 -1092.15 0.
110.902 -1250.01 0.
210.075 -1091.19 0.
304.782 -870.868 0.
193.474 -741.221 0.
138.203 -809.446 0.
114.753 -864.036 0.
292.163 -888.2 0.
150.559 -1217.52 0.
8.95623 -1546.85 0.
-114.203 -1612.95 0.
36.9441 -1259.82 0.
188.092 -906.686 0.
472.791 -647.78 0.
510.164 -561.195 0.
547.536 -474.609 0.
205.683 -803.529 0.
94.9217 -1062.01 0.
174.616 -1222.19 0.
148.844 -1282.79 0.
123.072 -1343.39 0.
63.2989 -1341.03 0.
148.321 -1142.18 0.
233.343 -943.329 0.
35.0001 -931.751 0.
61.6466 -869.755 0.
88.293 -807.758 0.
-123.953 -915.112 0.
-140.259 -952.64 0.
-114.065 -797.893 0.
17.4683 -720.181 0.
33.7264 -681.605 0.
166.767 -610.469 0.
122.405 -713.126 0.
78.0444 -815.783 0.
-26.468 -967.459 0.
-96.7125 -1130.35 0.
-166.957 -1293.25 0.
374.746 -1072.04 0.
401.367 -1009.78 0.
427.987 -947.52 0.
305.464 -1032.11 0.
283.378 -1085.03 0.
162.87 -1169.87 0.
198.211 -1087.9 0.
233.551 -1005.92 0.
150.649 -972.815 0.
187.447 -887.922 0.
224.245 -803.028 0.
227.001 -869.138 0.
127.833 -1100.26 0.
28.6651 -1331.39 0.
283.667 -1231.38 0.
309.124 -1172.64 0.
357.081 -1104.12 0.
169.992 -1057.06 0.
237.75 -899.178 0.
360.851 -785.652 0.
253.836 -1036.28 0.
146.821 -1286.9 0.
-34.0918 -1460.49 0.
-5.20591 -1391.97 0.
23.6802 -1323.45 0.
-267.691 -1232.16 0.
-112.176 -869.184 0.
43.3392 -506.205 0.
709.948 -390.101 0.
588.993 -673.62 0.
-129.196 -1178.53 0.
-86.8805 -1080.76 0.
-44.5644 -982.994 0.
296.201 -847.978 0.
197.092 -1078.01 0.
97.9825 -1308.04 0.
38.8393 -1324.81 0.
124.045 -1125.32 0.
209.252 -925.821 0.
90.2505 -1075.36 0.
-0.576552 -1284.73 0.
-779.323 -1788.98 0.
192.709 -1168.95 0.
298.781 -919.99 0.
281.719 -792.562 0.
233.385 -905.454 0.
185.051 -1018.35 0.
151.465 -1139.82 0.
84.1093 -1296.53 0.
16.7536 -1453.25 0.
361.24 -1310.1 0.
388.995 -1243.09 0.
416.75 -1176.09 0.
-172.949 -1310.88 0.
-107.512 -1156.53 0.
243.593 -914.493 0.
160.934 -1107.21 0.
78.2756 -1299.93 0.
-92.7598 -1414.67 0.
1.71764 -1193 0.
96.195 -971.319 0.
352.875 -856.226 0.
286.032 -1013.77 0.
219.189 -1171.31 0.
367.025 -993.815 0.
461.582 -773.231 0.
217.47 -699.342 0.
78.7057 -803.37 0.
55.29 -857.941 0.
97.6565 -940.009 0.
-43.7602 -1269.45 0.
-185.177 -1598.89 0.
57.2964 -1508.19 0.
208.471 -1155.05 0.
359.646 -801.904 0.
273.503 -700.973 0.
310.886 -614.543 0.
348.269 -528.113 0.
322.005 -721.997 0.
210.859 -980.245 0.
217.149 -1173.12 0.
191.23 -1233.52 0.
165.311 -1293.92 0.
194.319 -1253.95 0.
279.26 -1054.98 0.
364.201 -856.015 0.
-244.8 -1020.44 0.
-218.222 -958.553 0.
-191.644 -896.663 0.
225.503 -733.272 0.
209.506 -771.375 0.
-332.508 -1055.59 0.
-71.5044 -892.865 0.
-50.2962 -843.933 0.
18.0514 -810.026 0.
-59.8902 -991.853 0.
-137.832 -1173.68 0.
-212.854 -1225.57 0.
-132.588 -1038.29 0.
-52.3232 -851.015 0.
494.785 -701.338 0.
381.23 -965.809 0.
267.675 -1230.28 0.
242.694 -1267.76 0.
242.255 -1268.09 0.
122.991 -1329.63 0.
80.7473 -1427.7 0.
38.5039 -1525.77 0.
-137.07 -1647.51 0.
-120.247 -1607.99 0.
-103.424 -1568.47 0.
-105.626 -1533.38 0.
-84.799 -1485.46 0.
-63.9724 -1437.54 0.
252.457 -1190.7 0.
322.008 -1027.78 0.
547.551 -797.921 0.
74.6342 -1243.21 0.
-56.9513 -1549.11 0.
-66.4805 -1710.14 0.
34.4608 -1473.3 0.
135.402 -1236.46 0.
96.0718 -1193.04 0.
36.3398 -1334.95 0.
-23.3922 -1476.86 0.
-378.432 -1672.05 0.
-379.427 -1674.39 0.
-380.421 -1676.72 0.
247.026 -1394.42 0.
254.646 -1376.25 0.
-245.194 -1579.04 0.
-256.863 -1604.86 0.
-268.532 -1630.69 0.
-106.735 -1577.03 0.
-112.305 -1590.82 0.
-117.875 -1604.61 0.
-75.0174 -1558.59 0.
-43.6052 -1485.46 0.
-12.193 -1412.33 0.
72.9653 -1333.99 0.
92.05 -1291.65 0.
116.741 -1246.7 0.
207.108 -1267.97 0.
176.321 -1341.22 0.
-65.8508 -1506.48 0.
-109.09 -1607.67 0.
-152.329 -1708.85 0.
-139.658 -1736.94 0.
-125.008 -1704.43 0.
-110.359 -1671.92 0.
282.372 -1500.73 0.
277.6 -1512.98 0.
272.827 -1525.23 0.
-437.631 -1812.02 0.
-427.257 -1789.39 0.
-79.0187 -1614.47 0.
-42.3504 -1528.15 0.
-5.68222 -1441.83 0.
-76.4036 -1471.7 0.
-148.628 -1641.32 0.
-220.852 -1810.93 0.
-24.031 -1734.26 0.
21.9718 -1626.63 0.
67.9747 -1519 0.
213.618 -1389.92 0.
246.479 -1314.1 0.
97.1519 -1322.94 0.
-197.64 -1521 0.
-235.349 -1608.9 0.
-240.825 -1638.6 0.
-190.318 -1521.29 0.
-139.812 -1403.98 0.
142.421 -1251.09 0.
119.743 -1305.54 0.
97.0644 -1359.99 0.
-91.3293 -1361.6 0.
-20.8896 -1198.35 0.
49.5502 -1035.1 0.
227.203 -993.31 0.
202.225 -1053.04 0.
244.519 -1069.48 0.
281.961 -982.886 0.
319.402 -896.29 0.
295.696 -904.744 0.
230.267 -1058.35 0.
164.838 -1211.95 0.
-370.871 -1432.43 0.
-316.118 -1304.88 0.
-261.365 -1177.33 0.
187.851 -888.019 0.
239.597 -765.142 0.
-362.253 -1036.32 0.
-221.301 -924.545 0.
-200.343 -875.375 0.
71.3119 -756.558 0.
-6.89713 -938.065 0.
-85.106 -1119.57 0.
-255.216 -1212.22 0.
-175.098 -1024.85 0.
-94.9807 -837.474 0.
301.176 -752.915 0.
187.663 -1017.41 0.
74.15 -1281.9 0.
268.107 -1225.8 0.
267.664 -1226.23 0.
184.238 -1271.86 0.
142.11 -1369.97 0.
99.9807 -1468.08 0.
36.9388 -1541.26 0.
53.8853 -1501.86 0.
70.8319 -1462.47 0.
-143.127 -1517.43 0.
-122.394 -1469.41 0.
-101.661 -1421.4 0.
-19.5745 -1276.99 0.
49.9163 -1114.06 0.
256.823 -892.162 0.
86.0105 -1207.05 0.
-45.592 -1512.81 0.
-105.873 -1694.92 0.
-4.93263 -1458.14 0.
96.0078 -1221.36 0.
116.798 -1154.01 0.
56.6084 -1295.57 0.
-3.5816 -1437.14 0.
-86.8442 -1515.8 0.
-87.9861 -1518.03 0.
-89.1275 -1520.26 0.
-39.2701 -1485.69 0.
-31.7095 -1467.5 0.
63.0273 -1415.21 0.
51.287 -1441.14 0.
39.5467 -1467.07 0.
-107.163 -1546.66 0.
-112.866 -1560.31 0.
-118.568 -1573.96 0.
-80.286 -1529.09 0.
-49.0401 -1455.77 0.
-17.7944 -1382.44 0.
86.9021 -1296.95 0.
105.711 -1254.41 0.
-984.907 -1687.32 0.
246.035 -1219.62 0.
215.076 -1292.71 0.
86.3898 -1410.68 0.
42.9435 -1511.64 0.
-0.502738 -1612.6 0.
-141.645 -1706.34 0.
-127.239 -1673.81 0.
-112.833 -1641.28 0.
111.25 -1543.51 0.
106.063 -1555.34 0.
100.877 -1567.16 0.
-314.112 -1728.03 0.
-303.819 -1705.31 0.
-217.46 -1642.46 0.
-180.836 -1555.91 0.
-144.211 -1469.36 0.
43.6679 -1389.29 0.
-28.612 -1558.78 0.
-100.892 -1728.27 0.
-105.798 -1738.51 0.
-59.897 -1630.85 0.
-13.9964 -1523.18 0.
131.992 -1393.52 0.
164.857 -1317.87 0.
-268.612 -1447.76 0.
-27.2351 -1415.86 0.
-65.0772 -1503.62 0.
-113.302 -1553.1 0.
-62.8771 -1435.61 0.
-12.4517 -1318.12 0.
-52.2827 -1303.39 0.
-74.9952 -1357.86 0.
-97.7078 -1412.32 0.
-61.0799 -1317.13 0.
9.27626 -1153.86 0.
79.6324 -990.584 0.
204.3 -972.224 0.
179.115 -1031.73 0.
192.622 -1060.07 0.
230.229 -973.716 0.
267.837 -887.359 0.
83.828 -964.36 0.
18.298 -1117.82 0.
-47.232 -1271.28 0.
57.6 -1217.53 0.
112.424 -1090.11 0.
167.248 -962.69 0.
-53.8598 -960.327 0.
-1.85978 -837.852 0.
-215.497 -604.561 0.
-266.107 -713.262 0.
338.54 696.288 0.
589.207 386.912 0.
359.368 -149.658 0.
466.743 100.743 0.
420.45 477.625 0.
209.589 -15.1978 0.
185.153 -73.4952 0.
682.08 538.248 0.
627.556 410.362 0.
971.131 1211.49 0.
1009.24 485.173 0.
543.467 -602.538 0.
945.443 423.694 0.
988.402 521.596 0.
854.109 205.906 0.
777.965 -112.571 0.
661.996 -383.527 0.
659.24 -390.392 0.
423.229 -95.1352 0.
499.841 84.3213 0.
229.619 -545.458 0.
180.712 -261.825 0.
510.223 506.477 0.
-100.194 -113.869 0.
912.239 731.53 0.
703.285 243.293 0.
868.107 683.098 0.
795.964 513.718 0.
741.407 385.402 0.
570.766 -99.8686 0.
413.069 -468.685 0.
516.541 -227.989 0.
983.549 455.975 0.
1068.77 655.373 0.
539.358 -579.201 0.
709.137 836.495 0.
324.501 -62.6103 0.
813.583 -216.136 0.
841.966 -151.09 0.
929.019 50.8786 0.
513.419 -66.7589 0.
744.978 473.23 0.
719.81 413.86 0.
486.056 -164.61 0.
706.042 347.657 0.
550.103 -17.2862 0.
807.291 386.372 0.
882.932 561.902 0.
616.695 -270.591 0.
486.928 -698.156 0.
200.279 -1367.31 0.
604.209 -460.698 0.
706.95 -220.734 0.
623.571 -414.536 0.
518.431 -132.041 0.
287.468 -672.069 0.
878.206 705.191 0.
102.027 -1207.95 0.
610.102 -21.976 0.
819.04 466.023 0.
627.936 265.541 0.
616.221 241.597 0.
449.487 208.468 0.
350.293 -22.7699 0.
318.69 -96.1677 0.
366.818 -832.789 0.
1049.8 761.333 0.
1079.74 831.577 0.
866.158 717.582 0.
780.367 516.691 0.
543.302 -37.3326 0.
709.691 137.882 0.
966.951 737.584 0.
96.7611 34.3356 0.
726.392 50.4983 0.
1254.75 1284.68 0.
963.095 748.926 0.
722.193 187.153 0.
654.523 29.7293 0.
329.246 -17.6869 0.
363.828 64.6515 0.
451.111 270.057 0.
291.765 -521.113 0.
264.079 -584.57 0.
858.587 803.441 0.
730.817 330.404 0.
613.042 56.2835 0.
385.22 -482.56 0.
786.983 455.527 0.
830.547 557.698 0.
269.209 -100.552 0.
274.547 -87.652 0.
281.376 -71.7873 0.
448.477 -1086.44 0.
1014.05 233.701 0.
689.388 -523.179 0.
-58.1808 -493.428 0.
-279.969 -1010.23 0.
-45.3019 -785.766 0.
-288.393 -882.347 0.
-274.778 -851.375 0.
137.213 -654.75 0.
127.227 -677.403 0.
117.241 -700.055 0.
-164.702 -907.227 0.
-258.258 -1126.1 0.
-351.815 -1344.98 0.
-60.2994 -1239.45 0.
-22.7658 -1151.75 0.
14.7679 -1064.05 0.
265.235 -981.105 0.
243.694 -1031.11 0.
228.933 -1088.54 0.
137.794 -1302.35 0.
46.6561 -1516.16 0.
88.5201 -1625.62 0.
79.099 -1648.26 0.
69.6778 -1670.9 0.
-252.455 -1678.61 0.
-115.88 -1359.53 0.
20.6954 -1040.45 0.
-225.804 -1260.48 0.
-348.541 -1547.66 0.
-199.082 -1718.34 0.
-23.1884 -1442.22 0.
86.4676 -1186.26 0.
33.3573 -1087.71 0.
-82.3378 -1357.59 0.
-198.033 -1627.46 0.
24.4606 -1578.94 0.
119.368 -1357.4 0.
214.275 -1135.86 0.
272.358 -1092.02 0.
237.683 -1173.52 0.
203.008 -1255.02 0.
-277.328 -1557.82 0.
-328.838 -1679.03 0.
-36.6318 -1647.38 0.
-56.3337 -1694.13 0.
-76.0355 -1740.88 0.
-194.382 -1773.19 0.
-125.249 -1611.52 0.
-56.1162 -1449.85 0.
47.8068 -1395.38 0.
2.21371 -1503.81 0.
-43.3794 -1612.24 0.
-24.0377 -1607.12 0.
-11.9559 -1579.41 0.
1056.91 -1098.65 0.
264.163 -1578.33 0.
190.524 -1749.91 0.
-96.1936 -1950.73 0.
-23.972 -1780.73 0.
48.2494 -1610.73 0.
-84.8535 -1590 0.
-80.9975 -1582.18 0.
-77.1416 -1574.37 0.
-56.7636 -1510.99 0.
-16.8249 -1418.73 0.
23.1138 -1326.47 0.
-167.812 -1528.11 0.
-243.891 -1704.37 0.
-439.316 -1896.37 0.
-358.853 -1708.38 0.
-278.39 -1520.39 0.
204.595 -1256.99 0.
136.165 -1415.4 0.
67.7351 -1573.8 0.
-170.016 -1687.43 0.
-130.721 -1594.51 0.
-91.4247 -1501.6 0.
-106.899 -1564.43 0.
-152.771 -1671.97 0.
57.1438 -1663.14 0.
50.2008 -1500.7 0.
137.441 -1297.87 0.
5.69328 -1238.17 0.
-9.94083 -1274.19 0.
-25.575 -1310.2 0.
-228.565 -1399.29 0.
-214.928 -1365.97 0.
-201.292 -1332.65 0.
-6.76986 -1314.87 0.
-63.406 -1445.69 0.
-120.042 -1576.51 0.
-28.5056 -1422.15 0.
42.5334 -1256.74 0.
97.2958 -1116.6 0.
89.4024 -1135.22 0.
81.509 -1153.85 0.
-149.167 -1259.82 0.
-136.276 -1230.35 0.
-123.385 -1200.88 0.
286.287 -860.865 0.
425.245 -536.174 0.
564.203 -211.484 0.
33.6595 -524.834 0.
-57.3465 -737.687 0.
274.775 -617.277 0.
-210.15 -817.086 0.
-196.492 -786.147 0.
146.668 -619.859 0.
136.381 -642.134 0.
126.094 -664.409 0.
-137.951 -864.226 0.
-231.413 -1083.07 0.
-324.874 -1301.91 0.
-20.6284 -1191.35 0.
16.9002 -1103.58 0.
54.4288 -1015.81 0.
139.558 -1002.99 0.
118.011 -1053.12 0.
160.569 -1086.77 0.
69.3705 -1300.58 0.
-21.828 -1514.39 0.
55.3993 -1608.23 0.
46.0503 -1630.82 0.
36.7013 -1653.41 0.
-231.543 -1637.55 0.
-94.6327 -1318.77 0.
42.2777 -999.989 0.
-182.25 -1210.58 0.
-305.098 -1497.67 0.
-24.645 -1612.14 0.
-10.9143 -1405.58 0.
98.6988 -1149.51 0.
-42.8199 -1089.18 0.
-158.627 -1358.96 0.
-274.435 -1628.75 0.
147.473 -1494.97 0.
242.3 -1273.45 0.
337.128 -1051.92 0.
230.313 -1078.45 0.
195.81 -1160.11 0.
161.306 -1241.77 0.
-211.297 -1498.24 0.
-262.785 -1619.48 0.
-310.584 -1733.09 0.
-330.117 -1779.89 0.
-349.65 -1826.68 0.
-148.933 -1722.55 0.
-79.8399 -1560.8 0.
-10.7466 -1399.06 0.
172.945 -1310.15 0.
127.501 -1418.7 0.
82.0575 -1527.24 0.
21.9957 -1555.89 0.
34.0659 -1528.3 0.
-1117.42 -1998.74 0.
469.421 -1458.76 0.
395.857 -1630.55 0.
-156.49 -1945.32 0.
-84.2882 -1775.48 0.
-12.087 -1605.65 0.
-40.9739 -1538.9 0.
-36.9726 -1531.18 0.
-32.9712 -1523.46 0.
-75.8457 -1488.23 0.
-35.8896 -1395.94 0.
4.06659 -1303.65 0.
-183.31 -1502.88 0.
-259.061 -1679.38 0.
-404.737 -1849.25 0.
-324.403 -1661.13 0.
-244.069 -1473.01 0.
243.896 -1208.63 0.
175.734 -1367.15 0.
107.572 -1525.67 0.
-162.43 -1653.12 0.
-123.11 -1560.22 0.
-83.7906 -1467.32 0.
-197.03 -1571.62 0.
-242.855 -1679.15 0.
342.88 -1509.75 0.
51.769 -1469 0.
139.064 -1266.17 0.
-105.308 -1254.55 0.
-121.038 -1290.36 0.
-136.768 -1326.16 0.
-170.099 -1342.74 0.
-156.465 -1309.42 0.
-142.831 -1276.1 0.
60.8923 -1254.14 0.
4.14772 -1384.83 0.
-52.5969 -1515.51 0.
-21.4278 -1388.4 0.
49.5654 -1222.84 0.
94.4477 -1086.17 0.
86.7351 -1104.91 0.
79.0225 -1123.65 0.
-36.2944 -1180 0.
-23.1848 -1150.49 0.
-10.0751 -1120.98 0.
-14.4276 -958.472 0.
124.508 -633.917 0.
263.444 -309.362 0.
178.872 -431.805 0.
88.1955 -645.179 0.
154.125 -684.744 0.
-215.659 -925.816 0.
-252.703 -1011.16 0.
44.5891 -952.832 0.
9.91857 -1034.44 0.
-24.7518 -1116.05 0.
-283.647 -1217.18 0.
-224.649 -1078.63 0.
-165.651 -940.068 0.
128.615 -846.51 0.
69.572 -984.587 0.
10.5285 -1122.66 0.
14.7305 -1183.85 0.
-14.7424 -1252.81 0.
-7.64573 -1302.36 0.
-0.0510029 -1283.14 0.
7.5438 -1263.93 0.
141.664 -1202.34 0.
125.733 -1238.5 0.
109.801 -1274.66 0.
-106.133 -1361.71 0.
-85.3342 -1313.83 0.
-64.5358 -1265.95 0.
-120.973 -1217.95 0.
-77.2176 -1115 0.
284.52 -875.798 0.
81.7086 -1144.76 0.
-18.4418 -1378.53 0.
-291.24 -1619.28 0.
-215.508 -1442.84 0.
-139.776 -1266.4 0.
350.175 -948.657 0.
381.089 -877.973 0.
412.003 -807.29 0.
176.917 -1061.14 0.
40.551 -1379.58 0.
-95.8149 -1698.01 0.
-211.416 -1685.67 0.
-157.958 -1559.52 0.
-283.06 -1524.81 0.
-298.263 -1560.22 0.
-313.467 -1595.63 0.
-71.4099 -1542.79 0.
-122.826 -1662.8 0.
-174.241 -1782.82 0.
-59.1826 -1751.89 0.
-34.0468 -1693.38 0.
-8.91096 -1634.88 0.
70.2441 -1561.44 0.
90.7769 -1513.09 0.
-2742.57 -2688.82 0.
585.735 -1251.02 0.
592.107 -1236.46 0.
-10.8586 -1484.14 0.
-12.8743 -1489.54 0.
-14.89 -1494.94 0.
4.45273 -1496.34 0.
-6.91907 -1520.04 0.
-18.2908 -1543.74 0.
-123.32 -1567.8 0.
-103.44 -1520.52 0.
-83.5601 -1473.23 0.
-30.2861 -1266.93 0.
75.8752 -1019.02 0.
36.5277 -867.201 0.
-4.96629 -964.802 0.
-46.4604 -1062.4 0.
284.514 -961.521 0.
299.287 -927.968 0.
314.06 -894.415 0.
82.6613 -977.921 0.
84.272 -975.356 0.
85.8829 -972.791 0.
64.083 -1060.79 0.
12.0761 -1183.09 0.
429.671 -1106.04 0.
117.806 -1156.69 0.
161.73 -1054.88 0.
-12.8717 -1047.36 0.
18.1127 -974.456 0.
49.0972 -901.55 0.
32.1114 -944.21 0.
-43.0733 -1120.04 0.
-118.258 -1295.87 0.
113.91 -1177.18 0.
160.941 -1068.73 0.
207.973 -960.278 0.
177.086 -1036.9 0.
136.767 -1131.15 0.
-17.6001 -1238.74 0.
64.6114 -1047.64 0.
146.823 -856.545 0.
124.699 -735.734 0.
172.752 -624.141 0.
220.805 -512.547 0.
-41.5886 -633.409 0.
-85.5449 -734.929 0.
-129.501 -836.449 0.
131.383 -597.533 0.
222.638 -383.267 0.
-359.149 -875.44 0.
-157.855 -869.624 0.
-195.024 -954.99 0.
168.72 -868.676 0.
133.763 -950.05 0.
98.8053 -1031.42 0.
-264.946 -1177.56 0.
-205.829 -1039.04 0.
-146.712 -900.528 0.
121.622 -818.478 0.
62.5881 -956.532 0.
3.55465 -1094.59 0.
60.7031 -1133.15 0.
31.4183 -1202.06 0.
-92.4847 -1306.33 0.
-84.809 -1287.18 0.
-77.1332 -1268.02 0.
-11.2684 -1236.79 0.
-27.2224 -1272.74 0.
-43.1763 -1308.69 0.
-76.5782 -1317.5 0.
-55.8295 -1269.65 0.
-35.081 -1221.8 0.
28.8937 -1122.08 0.
72.7076 -1019.28 0.
-190.577 -1048.23 0.
54.3842 -1125.07 0.
-45.846 -1358.71 0.
-234.955 -1564.07 0.
-159.365 -1387.48 0.
-83.7752 -1210.9 0.
185.013 -988.303 0.
215.559 -917.397 0.
246.104 -846.491 0.
104.362 -1061.09 0.
-31.9502 -1379.57 0.
-168.262 -1698.06 0.
-53.3358 -1586.38 0.
0.44732 -1460.39 0.
-128.887 -1427.75 0.
-144.281 -1462.91 0.
-159.675 -1498.08 0.
-83.5801 -1516.94 0.
-135.113 -1636.95 0.
-186.645 -1756.96 0.
-257.715 -1805.38 0.
-232.539 -1747.15 0.
-207.363 -1688.93 0.
177.087 -1484.11 0.
197.753 -1436.03 0.
-646.685 -1758.81 0.
480.641 -1264.06 0.
487.089 -1249.52 0.
-43.4779 -1467.96 0.
-45.7524 -1473.13 0.
-48.027 -1478.31 0.
54.7965 -1443.02 0.
43.3243 -1466.62 0.
31.8522 -1490.22 0.
-105.93 -1529.66 0.
-86.0564 -1482.16 0.
-66.1828 -1434.67 0.
149.244 -1157.86 0.
255.521 -909.922 0.
88.2973 -813.594 0.
46.8952 -911.119 0.
5.49303 -1008.64 0.
124.036 -998.593 0.
138.899 -965.018 0.
153.762 -931.444 0.
1.16754 -982.096 0.
2.89944 -979.614 0.
4.63147 -977.132 0.
289.152 -932.89 0.
237.196 -1055.25 0.
319.262 -1121.82 0.
-15.3195 -1182.52 0.
28.6379 -1080.94 0.
131.599 -954.428 0.
162.897 -881.562 0.
194.194 -808.696 0.
85.7495 -889.514 0.
10.5221 -1065.29 0.
-64.7053 -1241.08 0.
132.972 -1137.55 0.
179.778 -1028.8 0.
226.584 -920.048 0.
317.99 -945.666 0.
277.438 -1039.54 0.
-99.9176 -1243.44 0.
-17.4857 -1052.39 0.
64.9463 -861.33 0.
-30.0452 -770.206 0.
18.2253 -658.771 0.
66.496 -547.337 0.
-122.332 -637.034 0.
-166.325 -738.422 0.
-210.319 -839.81 0.
88.7267 -585.09 0.
180.155 -370.926 0.
-12.2688 942.84 0.
211.687 -88.3779 0.
-7.13135 -602.386 0.
641.164 35.9154 0.
721.047 220.421 0.
1059.44 1008.3 0.
315.986 176.203 0.
312.238 165.887 0.
445.191 474.249 0.
163.04 -675.456 0.
481.324 66.8678 0.
731.789 651.163 0.
640.638 163.273 0.
687.783 274.822 0.
540.552 365.619 0.
252.386 -306.379 0.
359.708 -55.325 0.
288.657 -212.733 0.
266.784 -263.11 0.
287.41 -214.281 0.
456.74 -99.0196 0.
319.028 -421.368 0.
625.983 294.135 0.
545.948 -170.002 0.
759.766 327.789 0.
546.253 422.489 0.
557.316 132.19 0.
693.905 449.627 0.
521.246 123.939 0.
648.32 419.412 0.
737.917 627.525 0.
503.569 103.022 0.
234.043 -526.353 0.
307.026 -356.544 0.
691.894 477.002 0.
537.886 118.535 0.
403.447 -194.468 0.
665.987 -175.386 0.
711.123 -69.9726 0.
223.474 -870.88 0.
318.132 -649.835 0.
219.708 -879.2 0.
752.97 492.6 0.
510.575 -74.0312 0.
753.502 491.801 0.
624.302 662.379 0.
320.969 -45.6074 0.
170.885 -395.99 0.
776.662 -249.813 0.
1125.42 564.333 0.
-1669.72 -686.26 0.
989.279 148.501 0.
930.533 11.6393 0.
479.026 -155.048 0.
554.093 19.7257 0.
395.24 -350.986 0.
544.235 -362.356 0.
915.349 502.804 0.
626.084 -172.609 0.
382.834 -383.093 0.
722.082 407.885 0.
769.657 518.03 0.
643.392 -318.495 0.
487.976 -681.001 0.
217.619 -580.239 0.
524.487 136.114 0.
378.33 -204.562 0.
138.101 -632.278 0.
228.831 -418.644 0.
447.566 93.6942 0.
251.943 -213.848 0.
309.382 -79.8223 0.
387.415 102.435 0.
973.344 259.531 0.
856.932 -10.808 0.
551.596 -219.954 0.
63.0934 -715.93 0.
620.799 587.165 0.
812.958 392.711 0.
748.343 241.232 0.
852.076 482.608 0.
567.266 159.633 0.
468.184 -71.1163 0.
450.271 -112.39 0.
606.579 -36.6466 0.
463.895 -368.281 0.
591.656 -69.024 0.
349.361 -1109.54 0.
660.563 -381.515 0.
639.361 665.977 0.
545.815 451.172 0.
451.064 233.195 0.
785.876 1447.93 0.
226.962 146.451 0.
340.928 415.061 0.
251.786 421.706 0.
-11.3903 -193.15 0.
41.3651 -70.2902 0.
353.802 137.128 0.
443.566 346.927 0.
-346.288 -667.253 0.
-17.3351 -687.744 0.
-96.4373 -874.996 0.
66.6286 -901.526 0.
129.299 -756 0.
191.97 -610.474 0.
17.9463 -663.356 0.
-38.4988 -795.809 0.
-94.9436 -928.261 0.
5.45085 -851.553 0.
63.8459 -715.705 0.
122.241 -579.856 0.
179.874 -703.408 0.
81.7372 -932.1 0.
-167.41 -1206.02 0.
-160.812 -1190.83 0.
-154.214 -1175.63 0.
-87.7346 -1131.39 0.
-78.7812 -1110.78 0.
-69.8278 -1090.17 0.
18.0886 -1192.4 0.
-124.976 -1527.37 0.
-268.042 -1862.33 0.
-214.831 -1687.65 0.
-66.1498 -1341.49 0.
257.139 -920.452 0.
98.0989 -936.173 0.
126.547 -869.59 0.
221.266 -804.501 0.
166.91 -931.913 0.
112.554 -1059.33 0.
2.74249 -1179.31 0.
-16.0893 -1223.61 0.
-34.9209 -1267.9 0.
-108.32 -1301.58 0.
-101.01 -1283.82 0.
-93.6993 -1266.06 0.
287.381 -902.647 0.
407.1 -622.465 0.
291.641 -494.678 0.
149.058 -828.287 0.
6.47535 -1161.9 0.
-3.06978 -1371.73 0.
-39.0451 -1455.94 0.
-75.0205 -1540.15 0.
-225.513 -1617.37 0.
-208.463 -1578 0.
-191.413 -1538.64 0.
239.471 -1298.91 0.
272.054 -1223.16 0.
-1971.64 -2123.3 0.
517.837 -967.915 0.
563.915 -859.799 0.
71.9932 -1021.46 0.
27.1737 -1125.98 0.
-17.6458 -1230.49 0.
65.3531 -1274.85 0.
29.1792 -1357.97 0.
-6.99471 -1441.09 0.
-8.51982 -1518.36 0.
-51.6796 -1619.68 0.
-94.8394 -1721 0.
-24.2438 -1635.82 0.
13.0842 -1549.41 0.
-122.033 -1536.67 0.
-86.8495 -1453.82 0.
-51.6662 -1370.98 0.
-106.237 -1335.35 0.
-84.9901 -1284.28 0.
-63.7431 -1233.21 0.
-107.858 -1239.33 0.
-109.74 -1242.39 0.
-111.621 -1245.45 0.
180.971 -1109.15 0.
187.883 -1092.07 0.
196.764 -1071.03 0.
-143.981 -1243.49 0.
-158.769 -1276.26 0.
222.286 -1149.54 0.
193.862 -1216.77 0.
165.438 -1283.99 0.
-204.243 -1409.53 0.
-131.985 -1240.2 0.
-59.7277 -1070.86 0.
421.545 -863.614 0.
390.391 -935.537 0.
359.238 -1007.46 0.
39.432 -1072.19 0.
81.2947 -973.776 0.
-21.5596 -928.468 0.
64.1197 -725.492 0.
149.799 -522.516 0.
-28.3965 -548.898 0.
-115.317 -750.035 0.
-202.238 -951.172 0.
-317.86 -1060.09 0.
-307.445 -1036.27 0.
-297.03 -1012.45 0.
-113.982 -834.456 0.
-50.9274 -687.669 0.
107.691 -438.891 0.
33.4226 -634.6 0.
-45.79 -821.907 0.
-128.439 -953.659 0.
-66.1576 -807.918 0.
-3.87652 -662.178 0.
108.816 -593.41 0.
52.1978 -725.733 0.
-4.42026 -858.056 0.
-78.8301 -856.985 0.
-20.613 -721.065 0.
37.6041 -585.146 0.
86.4364 -711.925 0.
-11.5126 -940.628 0.
-192.294 -1184.69 0.
-185.619 -1169.5 0.
-178.944 -1154.31 0.
-48.4896 -1082.6 0.
-39.3147 -1062.04 0.
-30.1398 -1041.48 0.
71.1479 -1138.59 0.
-71.8008 -1473.75 0.
-214.75 -1808.92 0.
-333.848 -1706.54 0.
-185.349 -1360.48 0.
924.824 -602.368 0.
113.24 -897.987 0.
141.358 -831.277 0.
358.81 -715.026 0.
304.275 -842.305 0.
249.74 -969.583 0.
77.3017 -1116.4 0.
58.5479 -1160.84 0.
39.7942 -1205.28 0.
-136.983 -1280.73 0.
-129.64 -1263.1 0.
-122.298 -1245.48 0.
221.395 -900.365 0.
340.938 -619.942 0.
194.237 -505.881 0.
51.897 -839.474 0.
-90.4432 -1173.07 0.
64.9353 -1311.26 0.
28.9761 -1395.41 0.
-6.98329 -1479.57 0.
-52.7873 -1511.88 0.
-35.6043 -1472.57 0.
-18.4214 -1433.25 0.
150.233 -1305.8 0.
182.883 -1230.05 0.
-15.3311 -1252.92 0.
542.741 -925.377 0.
589.092 -817.316 0.
45.9785 -1001.14 0.
1.17713 -1105.88 0.
-43.6243 -1210.63 0.
-27.3638 -1282.83 0.
-63.4209 -1366.15 0.
-99.4781 -1449.48 0.
124.668 -1429.56 0.
81.4364 -1530.91 0.
38.2045 -1632.26 0.
-134.133 -1651.35 0.
-96.9312 -1564.82 0.
-18.703 -1460.91 0.
16.7125 -1378.08 0.
52.128 -1295.24 0.
-20.5093 -1266.99 0.
0.720315 -1215.88 0.
21.9499 -1164.78 0.
6.17224 -1159.91 0.
4.40426 -1162.96 0.
2.63645 -1166.02 0.
-56.0691 -1179.33 0.
-48.642 -1162.67 0.
270.723 -1006.86 0.
-104.976 -1194.87 0.
-119.433 -1228.05 0.
324.9 -1074.31 0.
296.535 -1141.63 0.
268.17 -1208.94 0.
-309.262 -1423.4 0.
-236.95 -1254.1 0.
-164.639 -1084.8 0.
645.6 -735.459 0.
614.603 -807.448 0.
583.607 -879.437 0.
-342.043 -1204.57 0.
-300.201 -1106.17 0.
21.6539 -879.084 0.
107.457 -675.953 0.
193.26 -472.823 0.
40.7166 -487.874 0.
-46.1963 -688.955 0.
-133.109 -890.035 0.
-221.551 -987.722 0.
-211.077 -963.935 0.
-200.602 -940.149 0.
-160.382 -823.113 0.
-97.1765 -676.72 0.
12.6918 -961.903 0.
-67.132 -944.574 0.
-39.0123 -876.181 0.
-178.005 -898.61 0.
-196.377 -941.361 0.
-214.75 -984.111 0.
-66.4254 -935.022 0.
-60.1081 -919.861 0.
-53.7909 -904.7 0.
-83.2941 -976.532 0.
-134.775 -1096.39 0.
-186.257 -1216.26 0.
-119.746 -1003.11 0.
-1.63634 -726.103 0.
88.1802 -491.813 0.
24.832 -637.531 0.
-38.516 -783.248 0.
14.9924 -848.59 0.
3.75005 -873.911 0.
-7.49236 -899.233 0.
209.849 -816.445 0.
208.27 -818.774 0.
206.691 -821.103 0.
-157.203 -1081.25 0.
-224.96 -1238.49 0.
579.164 -1021.99 0.
-35.8546 -1296.78 0.
-45.2441 -1318.99 0.
146.843 -1236.44 0.
192.234 -1130.64 0.
237.626 -1024.83 0.
112.118 -1089.78 0.
38.6191 -1260.26 0.
-34.8799 -1430.75 0.
-222.197 -1531.77 0.
-198.835 -1477.73 0.
-175.473 -1423.69 0.
-15.4981 -1389.5 0.
-41.1545 -1449.41 0.
-298.965 -1586.86 0.
-227.343 -1419.03 0.
-155.721 -1251.2 0.
208.216 -972.251 0.
257.121 -858.171 0.
306.025 -744.091 0.
303.591 -745.611 0.
264.278 -836.747 0.
224.966 -927.882 0.
292.06 -878.544 0.
318.492 -817.551 0.
72.5556 -873.024 0.
612.064 -794.433 0.
531.713 -981.408 0.
-147.877 -1386.22 0.
-143.625 -1377.02 0.
-139.374 -1367.82 0.
-85.9088 -1359.18 0.
-106.955 -1408.61 0.
-128.002 -1458.04 0.
212.77 -1206.04 0.
305.576 -989.065 0.
398.382 -772.089 0.
141.941 -989.134 0.
68.9133 -1157.7 0.
86.3987 -1280.53 0.
43.4995 -1381.08 0.
0.600244 -1481.62 0.
-86.2273 -1541.02 0.
-32.1168 -1415.03 0.
21.9939 -1289.03 0.
-31.8651 -1238.95 0.
-11.785 -1192.09 0.
8.29505 -1145.23 0.
-87.589 -1086.69 0.
-27.8706 -945.715 0.
406.821 -653.536 0.
-27.1293 -956.075 0.
-88.483 -1099.02 0.
279.319 -997.555 0.
341.001 -853.078 0.
402.684 -708.601 0.
-61.5452 -891.717 0.
-111.592 -1008.41 0.
-161.639 -1125.11 0.
556.883 -763.362 0.
616.939 -623.534 0.
676.996 -483.706 0.
-157.79 -790.429 0.
-130.585 -727.722 0.
146.026 -574.787 0.
83.9153 -721.92 0.
21.8046 -869.052 0.
-139.524 -961.903 0.
-51.8637 -759.156 0.
35.7962 -556.409 0.
-34.9117 -547.495 0.
-64.3772 -616.955 0.
-93.8429 -686.415 0.
-155.545 -748.579 0.
-171.269 -784.101 0.
-103.171 -981.663 0.
-6.33138 -887.392 0.
21.8824 -819.013 0.
-129.928 -846.19 0.
-148.411 -888.918 0.
-166.894 -931.647 0.
-192.799 -957.565 0.
-186.295 -942.553 0.
-179.792 -927.542 0.
144.416 -848.194 0.
92.9228 -967.993 0.
41.43 -1087.79 0.
-195.954 -1003.48 0.
-77.8196 -726.623 0.
106.777 -452.333 0.
43.3518 -598.144 0.
-20.0738 -743.955 0.
-85.1089 -860.253 0.
-96.2886 -885.609 0.
-107.468 -910.965 0.
191.737 -792.526 0.
190.462 -795.004 0.
189.187 -797.483 0.
-226.4 -1078.37 0.
-293.885 -1235.78 0.
268.707 -1123.1 0.
39.104 -1233.45 0.
29.8353 -1255.56 0.
71.3853 -1237.03 0.
116.863 -1131.16 0.
162.342 -1025.29 0.
125.616 -1053.42 0.
51.9916 -1223.79 0.
-21.633 -1394.16 0.
-105.782 -1449.66 0.
-82.5977 -1395.62 0.
-59.4139 -1341.59 0.
15.8568 -1345.07 0.
-9.9443 -1404.79 0.
-243.786 -1532.73 0.
-172.453 -1364.33 0.
-101.119 -1195.94 0.
162.101 -961.111 0.
211.094 -846.76 0.
260.088 -732.409 0.
231.601 -744.977 0.
192.463 -835.98 0.
153.325 -926.983 0.
299.968 -843.904 0.
326.345 -782.766 0.
-342.007 -1018.83 0.
664.53 -739.795 0.
583.882 -926.727 0.
-164.751 -1362.8 0.
-160.703 -1353.46 0.
-156.654 -1344.12 0.
-20.0462 -1300.2 0.
-41.1213 -1349.45 0.
-62.1963 -1398.71 0.
87.7558 -1228.92 0.
180.852 -1012.34 0.
273.948 -795.772 0.
269.445 -902.155 0.
196.656 -1071.09 0.
83.9201 -1248.59 0.
41.2413 -1349.31 0.
-1.4376 -1450.02 0.
-10.8616 -1477.37 0.
43.1506 -1351.41 0.
97.1628 -1225.44 0.
-121.65 -1246.24 0.
-101.53 -1199.28 0.
-81.4093 -1152.32 0.
6.15366 -1015.83 0.
65.9299 -874.804 0.
296.426 -668.188 0.
-95.9055 -953.218 0.
-157.133 -1096.41 0.
15.9775 -1079.05 0.
77.5018 -934.534 0.
139.026 -790.015 0.
126.276 -780.069 0.
76.0231 -896.714 0.
25.7702 -1013.36 0.
183.663 -891.437 0.
243.797 -751.847 0.
303.93 -612.257 0.
269.932 -576.116 0.
297.161 -513.286 0.
122.892 -554.061 0.
60.6784 -701.004 0.
-1.53499 -847.946 0.
-114.598 -919.537 0.
-27.0756 -716.719 0.
60.447 -513.901 0.
-103.478 -546.036 0.
-133.043 -615.48 0.
-162.609 -684.925 0.
-134.333 -708.033 0.
-150.47 -743.769 0.
246.442 92.8088 0.
642.859 543.887 0.
307.038 -240.181 0.
308.061 116.573 0.
104.212 -359.887 0.
24.746 -545.82 0.
181.137 187.017 0.
379.699 650.492 0.
65.0491 -83.9365 0.
719.781 92.1171 0.
772.917 217.036 0.
584.973 -220.349 0.
39.7371 -274.488 0.
353.006 458.165 0.
744.07 1032.72 0.
380.297 182.825 0.
608.578 714.764 0.
538.484 816.092 0.
339.368 352.307 0.
219.719 74.1395 0.
276.179 -525.67 0.
490.773 -24.1805 0.
428.303 -169.062 0.
-48.8943 -501.65 0.
621.955 1061.82 0.
949.272 401.661 0.
528.039 -207.078 0.
390.351 -529.644 0.
148.617 -888.564 0.
638.786 256.246 0.
447.785 -188.195 0.
190.716 -889.833 0.
576.731 11.1835 0.
625.855 126.125 0.
465.885 -307.956 0.
596.643 -1.80284 0.
853.046 597.519 0.
808.681 479.541 0.
867.12 617.33 0.
445.667 0.451004 0.
466.165 52.5258 0.
481.329 92.187 0.
507.255 -39.8851 0.
563.911 92.7178 0.
552.963 67.5206 0.
703.252 522.743 0.
593.088 265.572 0.
548.155 160.537 0.
601.198 -119.946 0.
654.454 2.28701 0.
-1093.02 -1380.95 0.
1012.99 0.750314 0.
887.323 -291.507 0.
20.3162 -866.897 0.
120.347 -632.819 0.
144.124 -576.678 0.
609.765 74.4003 0.
657.991 187.061 0.
544.365 -77.851 0.
651.455 352.095 0.
791.109 678.244 0.
1088.66 1372.79 0.
925.81 417.263 0.
788.508 96.4401 0.
618.601 36.0319 0.
730.409 298.298 0.
860.655 603.49 0.
835.747 381.456 0.
1145.91 1104.81 0.
788.999 271.853 0.
139.833 -437.022 0.
399.134 168.961 0.
561.233 548.286 0.
146.844 -840.475 0.
-133.281 -1494.53 0.
499.356 248.461 0.
-200.885 -1034.61 0.
-42.0608 -665.437 0.
274.214 59.8426 0.
209.055 -91.518 0.
567.176 744.49 0.
537.198 -150.57 0.
571.466 -68.6152 0.
842.606 566.026 0.
231.466 -41.7067 0.
363.482 266.597 0.
168.657 -187.406 0.
909.824 134.233 0.
663.574 -441.007 0.
363.117 79.3332 0.
427.966 230.756 0.
401.355 168.414 0.
130.78 -364.8 0.
279.075 -19.644 0.
446.363 369.72 0.
813.005 1757.59 0.
215.654 363.087 0.
-133.309 -451.956 0.
-344.845 -1212.1 0.
348.787 403.185 0.
-73.0931 -901.06 0.
-14.2506 -854.566 0.
-1.13738 -824.921 0.
-117.313 -855.281 0.
-116.59 -854.94 0.
-115.868 -854.598 0.
-350.175 -985.412 0.
-389.466 -1076.65 0.
-428.758 -1167.89 0.
175.505 -925.187 0.
183.35 -906.623 0.
191.195 -888.059 0.
-173.106 -1056.6 0.
-181.542 -1075.86 0.
-157.895 -1071.36 0.
-116.178 -975.328 0.
-74.462 -879.294 0.
-15.8373 -823.174 0.
-55.8508 -916.712 0.
-95.8645 -1010.25 0.
-89.3496 -1000.32 0.
-47.8374 -903.113 0.
-6.32519 -805.902 0.
-387.159 -1052.97 0.
-458.849 -1221.56 0.
114.467 -1113.94 0.
108.398 -1091.95 0.
126.295 -1049.84 0.
198.127 -992.553 0.
182.543 -1027.8 0.
166.96 -1063.05 0.
70.0167 -1122.44 0.
66.8236 -1129.63 0.
63.6304 -1136.83 0.
101.24 -1102.1 0.
117.212 -1064.83 0.
133.185 -1027.56 0.
5.13511 -1115.92 0.
-16.5964 -1166.01 0.
33.4473 -1180.71 0.
31.8538 -1185.51 0.
30.2604 -1190.31 0.
-30.5678 -1212.03 0.
-17.7814 -1182.59 0.
-4.99502 -1153.16 0.
-51.182 -1170.32 0.
-58.7563 -1188.86 0.
-66.3305 -1207.4 0.
204.217 -1078.66 0.
216.625 -1051.59 0.
-214.781 -1215.85 0.
578.079 -912.516 0.
558.177 -957.782 0.
-30.4875 -1224.3 0.
5.12241 -1141.23 0.
40.7323 -1058.17 0.
1.9609 -969.423 0.
79.6391 -788.414 0.
157.317 -607.405 0.
148.701 -747.356 0.
3.32066 -1084.75 0.
-142.06 -1422.14 0.
273.133 -1143.83 0.
348.189 -969.788 0.
247.021 -897.72 0.
216.934 -966.944 0.
186.848 -1036.17 0.
185.597 -1104.68 0.
131.197 -1231.74 0.
76.7968 -1358.81 0.
-304.208 -1506.99 0.
-244.531 -1368.19 0.
-184.855 -1229.38 0.
2.71002 -1030.41 0.
65.9335 -884.645 0.
478.266 -587.533 0.
-17.6798 -732.847 0.
17.4311 -650.54 0.
46.0738 -629.515 0.
-40.9974 -833.443 0.
-128.069 -1037.37 0.
94.209 -1031.21 0.
91.3931 -1037.33 0.
88.5775 -1043.45 0.
-250.379 -1162.88 0.
-227.121 -1108.59 0.
-203.863 -1054.3 0.
320.553 -803.213 0.
331.933 -777.105 0.
46.0542 -869.475 0.
105.433 -730.831 0.
164.811 -592.187 0.
-64.1702 -614.476 0.
-64.2043 -615.054 0.
-64.2387 -615.632 0.
-235.55 -697.25 0.
-238.698 -704.558 0.
-241.847 -711.866 0.
-45.855 -499.929 0.
38.3395 -305.517 0.
72.9392 -808.968 0.
-68.2309 -846.94 0.
-54.9286 -817.36 0.
-111.274 -821.191 0.
-110.317 -821.03 0.
-109.359 -820.868 0.
-369.273 -961.407 0.
-408.391 -1052.77 0.
-447.51 -1144.13 0.
58.7577 -944.435 0.
66.7926 -926.086 0.
74.8273 -907.738 0.
-7.52104 -953.421 0.
-15.9069 -972.827 0.
-139.51 -1032.03 0.
-98.0056 -935.707 0.
-56.5008 -839.382 0.
182.762 -707.69 0.
142.822 -801.183 0.
102.881 -894.677 0.
-271.363 -1046.61 0.
-229.804 -949.395 0.
-188.244 -852.185 0.
-494.383 -1067.62 0.
-566.49 -1235.79 0.
456.484 -935.174 0.
74.4051 -1076.01 0.
92.2559 -1033.78 0.
330.194 -904.173 0.
314.753 -939.568 0.
299.312 -974.963 0.
59.7005 -1095.89 0.
56.4802 -1102.98 0.
53.2598 -1110.07 0.
89.8752 -1074.23 0.
105.759 -1036.95 0.
121.643 -999.662 0.
-126.599 -1142.29 0.
-148.4 -1192.33 0.
167.907 -1091.71 0.
166.266 -1096.25 0.
164.625 -1100.78 0.
-56.7827 -1192.02 0.
-43.6945 -1162.65 0.
-30.6063 -1133.28 0.
-70.4026 -1147.66 0.
-77.908 -1166.18 0.
-85.4133 -1184.7 0.
241.456 -1031.58 0.
253.715 -1004.42 0.
-909.539 -1482.06 0.
538.673 -897.881 0.
518.814 -943.302 0.
113.004 -1131.53 0.
148.759 -1048.69 0.
184.513 -965.856 0.
-178.538 -1015.76 0.
-101.182 -834.395 0.
-23.827 -653.032 0.
124.756 -727.265 0.
-20.6223 -1064.92 0.
-166 -1402.57 0.
311.343 -1095.43 0.
386.574 -921.384 0.
298.14 -843.606 0.
268.451 -913.269 0.
238.763 -982.932 0.
186.88 -1072.47 0.
132.543 -1199.66 0.
78.2067 -1326.85 0.
-270.78 -1461.19 0.
-210.829 -1322.66 0.
-150.877 -1184.12 0.
-55.6182 -1023.89 0.
7.76374 -878.397 0.
370.024 -601.997 0.
63.6733 -666.408 0.
98.8303 -584.344 0.
145.429 -555.031 0.
58.2415 -758.938 0.
-28.9461 -962.844 0.
31.4494 -1027.55 0.
28.8868 -1033.79 0.
26.3244 -1040.03 0.
-236.075 -1124.43 0.
-212.543 -1070.47 0.
-189.011 -1016.5 0.
106.224 -864.381 0.
117.589 -838.145 0.
170.707 -785.087 0.
230.1 -646.211 0.
289.494 -507.335 0.
-154.264 -621.819 0.
-154.52 -622.013 0.
-154.776 -622.206 0.
-216.226 -657.738 0.
-219.425 -665.066 0.
-222.624 -672.394 0.
-37.1476 -464.807 0.
46.7907 -270.123 0.
124.198 -491.451 0.
76.4364 -334.804 0.
181.558 -88.3159 0.
278.826 49.8486 0.
106.835 -350.851 0.
-65.157 -751.55 0.
-391.887 -1046.56 0.
-352.639 -954.205 0.
-313.39 -861.851 0.
199.321 -603.925 0.
208.808 -582.09 0.
218.295 -560.256 0.
88.3726 -593.251 0.
100.637 -563.091 0.
15.1771 -576.476 0.
20.2136 -564.338 0.
25.2503 -552.201 0.
367.915 -386.962 0.
384.007 -348.301 0.
400.099 -309.639 0.
-103.261 -562.643 0.
-152.547 -678.396 0.
-201.833 -794.15 0.
-419.347 -856.723 0.
-380.407 -766.202 0.
654.542 -248.838 0.
282.883 -580.399 0.
188.045 -801.507 0.
241.358 -918.781 0.
256.164 -883.991 0.
270.971 -849.201 0.
121.34 -913.323 0.
104.547 -952.072 0.
87.7546 -990.82 0.
96.0203 -1107.65 0.
9.939 -1308.46 0.
-76.1422 -1509.27 0.
-290.529 -1572.03 0.
-262.793 -1508.4 0.
157.99 -1273.8 0.
205.006 -1164.45 0.
252.022 -1055.1 0.
-29.3457 -1085.58 0.
13.9382 -983.258 0.
57.2221 -880.935 0.
-9.81926 -949.001 0.
-82.3583 -1118.04 0.
-154.897 -1287.08 0.
132.451 -1229.12 0.
108.72 -1284.2 0.
-1564.19 -2046.44 0.
378.976 -1118.54 0.
430.011 -1001.35 0.
171.491 -1038.87 0.
166.538 -1051.27 0.
161.585 -1063.68 0.
-315.728 -1266.52 0.
-303.248 -1239.61 0.
-290.769 -1212.7 0.
30.0282 -979.753 0.
97.8415 -821.723 0.
165.655 -663.692 0.
525.421 -645.083 0.
439.958 -844.853 0.
148.408 -1096.38 0.
229.853 -905.672 0.
311.299 -714.968 0.
296.894 -612.162 0.
307.79 -587.302 0.
318.685 -562.442 0.
70.9703 -652.351 0.
75.8227 -639.548 0.
80.675 -626.745 0.
149.665 -618.547 0.
134.807 -652.907 0.
389.356 -570.846 0.
-23.0598 -824.467 0.
-63.2682 -918.548 0.
-40.8444 -952.168 0.
-7.30967 -873.719 0.
26.2252 -795.271 0.
78.1453 -736.708 0.
80.1682 -731.888 0.
82.1911 -727.068 0.
-45.6568 -701.982 0.
15.0428 -559.779 0.
75.7422 -417.577 0.
196.898 -438.074 0.
150.313 -546.284 0.
258.056 -583.848 0.
233.523 -642.087 0.
208.989 -700.326 0.
-312.234 -957.061 0.
-317.346 -969.923 0.
-322.458 -982.785 0.
-258.597 -822.598 0.
-135.378 -535.953 0.
-12.1598 -249.308 0.
121.886 -263.761 0.
47.9375 -437.301 0.
-200.783 -598.519 0.
-20.6262 -345.148 0.
84.4043 -98.5014 0.
341.644 108.108 0.
169.807 -292.714 0.
-2.03067 -693.535 0.
-312.177 -980.905 0.
-272.906 -888.642 0.
-233.636 -796.379 0.
333.13 -515.367 0.
342.703 -493.606 0.
352.275 -471.846 0.
-183.85 -678.676 0.
-171.368 -648.622 0.
-71.7951 -582.047 0.
-66.7252 -569.785 0.
-61.6553 -557.522 0.
314.422 -379.411 0.
330.434 -340.645 0.
346.446 -301.879 0.
4.50017 -485.461 0.
-44.6523 -601.328 0.
-93.8049 -717.194 0.
-313.987 -779.05 0.
-274.872 -688.714 0.
320.066 -360.339 0.
342.987 -523.953 0.
248.294 -745.152 0.
-57.749 -1014.92 0.
-42.737 -980.296 0.
-27.7247 -945.669 0.
126.096 -880.208 0.
109.497 -918.967 0.
92.8976 -957.725 0.
189.611 -1034.91 0.
103.716 -1235.82 0.
17.8216 -1436.74 0.
-75.1825 -1449.22 0.
-47.3608 -1385.48 0.
218.838 -1215.43 0.
265.869 -1106.05 0.
312.901 -996.665 0.
-18.6913 -1051.24 0.
24.4594 -948.815 0.
67.6101 -846.388 0.
-19.2472 -921.014 0.
-92.0176 -1090 0.
-164.788 -1258.99 0.
61.9197 -1228.15 0.
38.3425 -1283.32 0.
-1068.07 -1802.46 0.
301.087 -1119.98 0.
351.742 -1002.38 0.
105.986 -1035.24 0.
101.087 -1047.61 0.
96.1883 -1059.98 0.
-176.796 -1175.8 0.
-164.418 -1148.87 0.
-152.041 -1121.94 0.
123.735 -908.126 0.
191.558 -750.24 0.
259.381 -592.354 0.
574.69 -592.182 0.
489.393 -792.009 0.
25.5814 -1117.54 0.
107.127 -926.844 0.
188.673 -736.145 0.
115.175 -659.562 0.
125.998 -634.715 0.
136.821 -609.867 0.
58.8675 -625.515 0.
63.7086 -612.87 0.
68.5496 -600.224 0.
322.408 -512.301 0.
307.307 -546.663 0.
99.1143 -663.33 0.
-114.044 -831.906 0.
-154.279 -925.943 0.
-149.469 -968.396 0.
-116.006 -890.121 0.
-82.5426 -811.846 0.
-18.6191 -747.204 0.
-16.6067 -742.276 0.
-14.5942 -737.348 0.
-9.22792 -654.928 0.
51.8442 -513.042 0.
112.916 -371.155 0.
217.722 -396.871 0.
171.336 -505.08 0.
171.494 -589.485 0.
146.928 -647.529 0.
122.362 -705.573 0.
-224.627 -888.42 0.
-229.788 -901.101 0.
-234.949 -913.783 0.
-176.632 -756.824 0.
-53.5328 -470.051 0.
69.5661 -183.278 0.
320.078 -147.148 0.
245.957 -320.664 0.
-557.661 -772.781 0.
-11.8331 -106.861 0.
-88.9766 -288.16 0.
436.716 238.981 0.
413.739 188.164 0.
528.401 457.913 0.
-111.262 -634.38 0.
328.091 389.663 0.
213.548 121.714 0.
616.438 -72.521 0.
466.561 -421.925 0.
524.158 -287.441 0.
-124.063 1.84144 0.
-230.531 -246.126 0.
168.414 177.819 0.
179.007 203.56 0.
127.537 84.4018 0.
649.408 537.343 0.
567.34 345.556 0.
443.828 56.9431 0.
67.7336 -508.144 0.
293.643 18.5706 0.
645.505 839.247 0.
330.158 553.598 0.
125.378 73.3204 0.
158.071 464.816 0.
167.776 -1016.49 0.
498.68 -244.717 0.
41.4451 -185.265 0.
-234.532 -829.54 0.
44.5272 -178.45 0.
636.008 333.348 0.
735.298 564.362 0.
805.022 726.477 0.
829.588 309.898 0.
706.433 21.6065 0.
813.928 271.547 0.
911.411 471.439 0.
573.233 -317.581 0.
972.554 459.797 0.
841.898 154.818 0.
710.269 -152.481 0.
316.587 -260.928 0.
390.48 -87.9131 0.
589.423 376.979 0.
500.307 342.619 0.
139.407 -498.903 0.
317.683 -82.2574 0.
776.948 609.907 0.
780.893 619.722 0.
-1830.15 -938.781 0.
720.399 33.9097 0.
665.543 -95.144 0.
560.652 184.609 0.
535.299 124.409 0.
625.479 333.829 0.
312.711 -270.5 0.
389.818 -88.6631 0.
610.21 427.696 0.
411.068 -386.18 0.
487.452 -206.508 0.
767.551 448.386 0.
1097.54 562.027 0.
928.152 166.211 0.
510.751 279.307 0.
418.339 65.5116 0.
413.387 55.8289 0.
484.379 577.488 0.
616.077 883.473 0.
447.292 488.073 0.
474.024 402.36 0.
317.99 38.452 0.
407.234 246.456 0.
552.659 -275.278 0.
321.019 -814.498 0.
369.367 726.724 0.
179.207 53.1633 0.
-80.1683 -549.134 0.
223.361 139.694 0.
288.65 292.934 0.
512.648 816.513 0.
267.403 135.474 0.
173.933 -82.6201 0.
228.225 44.1225 0.
538.48 585.85 0.
432.442 338.187 0.
394.958 250.502 0.
431.192 91.5839 0.
278.75 -264.561 0.
551.3 493.776 0.
414.84 176.52 0.
355.333 38.4662 0.
85.3332 -300.41 0.
354.971 329.36 0.
373.345 372.579 0.
188.864 -28.4082 0.
84.0779 -274.291 0.
31.013 -398.12 0.
31.0793 -1164.8 0.
1105.6 1341.89 0.
-684.591 -702.347 0.
-216.852 -532.617 0.
-247.274 -605.782 0.
127.699 -487.014 0.
145.356 -444.313 0.
163.013 -401.612 0.
56.1985 -502.578 0.
-35.0227 -716.048 0.
-126.244 -929.519 0.
77.7615 -866.503 0.
107.367 -796.809 0.
136.972 -727.116 0.
-534.061 -879.825 0.
-460.499 -705.987 0.
-24.1285 -401.464 0.
-81.128 -535.117 0.
-138.127 -668.769 0.
69.0741 -651.762 0.
74.2434 -640.858 0.
79.4128 -629.955 0.
22.1562 -677.8 0.
-7.61291 -746.597 0.
-37.382 -815.394 0.
-233.955 -1030.9 0.
-313.08 -1216.63 0.
562.958 -992.514 0.
-120.924 -1141.5 0.
-41.4197 -955.76 0.
-207.339 -917.869 0.
-235.361 -985.21 0.
-263.383 -1052.55 0.
-9.66218 -1001.7 0.
-39.5845 -1072.97 0.
-69.5067 -1144.23 0.
186.228 -1005.71 0.
223.812 -916.571 0.
261.396 -827.428 0.
310.191 -918.113 0.
237.34 -1088.13 0.
103.784 -1253.78 0.
189.976 -1053.24 0.
276.168 -852.688 0.
170.813 -795.394 0.
160.052 -821.333 0.
149.292 -847.273 0.
52.9982 -922.708 0.
30.5679 -976.745 0.
8.13766 -1030.78 0.
-24.4031 -1094.24 0.
-52.0293 -1157.19 0.
-407.752 -1360.66 0.
264.143 -1075.64 0.
262.63 -1079.37 0.
-71.0229 -1204.84 0.
-22.2561 -1091.47 0.
26.5105 -978.11 0.
177.124 -885.642 0.
147.72 -953.553 0.
118.315 -1021.46 0.
-61.6674 -1150.44 0.
-86.5901 -1207.54 0.
-111.513 -1264.64 0.
187.899 -1064.35 0.
231.866 -961.3 0.
128.246 -937.845 0.
105.908 -989.465 0.
83.5704 -1041.08 0.
-224.665 -1137.89 0.
-131.008 -918.005 0.
-37.3504 -698.122 0.
51.6953 -570.919 0.
61.9627 -545.618 0.
72.2299 -520.316 0.
418.625 -440.435 0.
369.842 -553.887 0.
-4.28952 -805.629 0.
-207.157 -850.502 0.
-186.335 -799.95 0.
11.678 -690.867 0.
-5.85639 -732.407 0.
-23.3909 -773.947 0.
-300.769 -896.599 0.
-280.312 -849.314 0.
-259.855 -802.029 0.
-75.9171 -800.193 0.
-145.204 -963.431 0.
-214.491 -1126.67 0.
5.32707 -953.346 0.
60.229 -826.193 0.
-116.66 -807.673 0.
-112.79 -798.371 0.
-108.919 -789.069 0.
-198.627 -769.362 0.
-115.089 -574.501 0.
-31.5518 -379.638 0.
89.8405 -372.477 0.
-12.4431 -611.095 0.
-114.727 -849.712 0.
423.362 -411.574 0.
583.889 -36.6392 0.
-860.055 -747.371 0.
-228.341 -505.97 0.
-258.643 -579.498 0.
147.808 -445.971 0.
165.748 -403.547 0.
183.688 -361.123 0.
208.101 -405.939 0.
117.006 -619.582 0.
25.9106 -833.225 0.
-150.518 -933.464 0.
-121.02 -863.615 0.
-91.5216 -793.765 0.
-559.046 -859.117 0.
-485.598 -685.076 0.
60.3489 -334.665 0.
3.17789 -468.028 0.
-53.9929 -601.391 0.
-0.183203 -650.856 0.
5.04416 -640.046 0.
10.2716 -629.237 0.
72.7408 -624.321 0.
43.0013 -693.123 0.
13.2618 -761.925 0.
-76.7759 -931.59 0.
-155.955 -1117.21 0.
640.036 -927.58 0.
-393.537 -1227.59 0.
-313.94 -1041.9 0.
-109.385 -844.24 0.
-137.404 -911.525 0.
-165.423 -978.811 0.
-83.596 -1001.68 0.
-113.323 -1073.07 0.
-143.049 -1144.46 0.
105.483 -1007.96 0.
143.479 -919.14 0.
181.475 -830.322 0.
319.427 -882.534 0.
246.683 -1052.45 0.
-44.9857 -1286.57 0.
41.026 -1086.05 0.
127.038 -885.531 0.
292.002 -713.006 0.
281.234 -738.895 0.
270.466 -764.785 0.
183.014 -835.874 0.
160.678 -890.077 0.
138.343 -944.279 0.
-93.4696 -1091.94 0.
-120.744 -1155.29 0.
278.571 -1034.75 0.
304.851 -1026.39 0.
303.253 -1030.05 0.
-98.3651 -1185.4 0.
-49.4568 -1072.1 0.
-0.548529 -958.797 0.
351.719 -779.254 0.
322.552 -847.345 0.
293.384 -915.436 0.
-223.614 -1188.81 0.
-248.381 -1246.15 0.
-273.148 -1303.49 0.
-56.8376 -1137.18 0.
-12.9569 -1034.02 0.
316.854 -825.808 0.
294.558 -877.373 0.
272.262 -928.938 0.
-176.428 -1086.19 0.
-82.6657 -866.436 0.
11.0966 -646.682 0.
60.7038 -535.03 0.
70.6607 -509.544 0.
80.6175 -484.059 0.
359.437 -435.223 0.
310.452 -548.467 0.
410.355 -595.731 0.
-190.674 -811.415 0.
-169.696 -761.099 0.
204.583 -576.67 0.
187.149 -618.533 0.
169.716 -660.396 0.
-437.756 -924.512 0.
-417.588 -876.876 0.
-397.42 -829.24 0.
-83.043 -771.297 0.
-152.135 -934.741 0.
-221.228 -1098.18 0.
50.8729 -901.808 0.
105.716 -774.451 0.
-235.593 -826.805 0.
-231.466 -817.685 0.
-227.338 -808.564 0.
-282.488 -774.114 0.
-199.084 -579.018 0.
-115.68 -383.923 0.
165.081 -308.924 0.
62.6645 -547.387 0.
-39.7521 -785.849 0.
525.77 -336.616 0.
686.031 38.7564 0.
-716.562 -670.711 0.
-155.061 -594.494 0.
-234.02 -776.043 0.
-42.4393 -806.317 0.
-27.6428 -772.368 0.
-12.8465 -738.419 0.
107.941 -596.147 0.
200.446 -378.774 0.
292.952 -161.402 0.
23.1343 -243.524 0.
0.397498 -296.578 0.
-22.3393 -349.633 0.
-448.363 -654.015 0.
-517.188 -815.695 0.
-63.9359 -727.303 0.
10.1322 -553.702 0.
84.2004 -380.101 0.
98.221 -311.41 0.
41.1229 -444.151 0.
-15.9752 -576.891 0.
68.1646 -591.864 0.
67.552 -594.587 0.
66.9393 -597.311 0.
132.869 -557.023 0.
143.901 -531.03 0.
360.552 -415.959 0.
-320.615 -713.86 0.
-323.864 -723.673 0.
4.16396 -602.632 0.
-24.8258 -668.065 0.
-53.8156 -733.498 0.
11.7371 -779.236 0.
-44.7339 -909.963 0.
-101.205 -1040.69 0.
112.238 -914.331 0.
172.582 -773.114 0.
232.925 -631.896 0.
373.689 -649.078 0.
317.193 -779.508 0.
47.1327 -997.197 0.
6.9457 -1090.77 0.
-33.2414 -1184.35 0.
54.316 -1212.45 0.
34.6176 -1259.67 0.
14.9193 -1306.88 0.
103.847 -1208.12 0.
176.674 -1036.67 0.
249.501 -865.214 0.
-20.7492 -946.516 0.
-18.3548 -939.844 0.
39.1629 -910.407 0.
352.393 -759.126 0.
361.17 -738.314 0.
93.0541 -868.06 0.
25.9107 -1023.66 0.
-41.2329 -1179.26 0.
233.516 -1026.04 0.
358.921 -733.822 0.
484.326 -441.604 0.
2.43631 -533.728 0.
29 -472.414 0.
55.5637 -411.101 0.
37.6948 -624.419 0.
-83.1093 -908.331 0.
253.789 -956.451 0.
293.079 -864.442 0.
332.368 -772.433 0.
-32.2153 -882.59 0.
-34.8821 -889.217 0.
-37.5491 -895.845 0.
-131.731 -1043.36 0.
-229.783 -1274.33 0.
-327.836 -1505.31 0.
-90.0744 -1245.13 0.
44.1085 -932.89 0.
-511.268 -917.785 0.
-163.149 -832.633 0.
-195.682 -910.248 0.
144.656 -793.921 0.
189.304 -688.545 0.
233.952 -583.169 0.
-405.452 -773.272 0.
-364.286 -678.863 0.
-323.12 -584.454 0.
43.0281 -443.597 0.
10.8239 -515.665 0.
-21.3803 -587.732 0.
112.991 -494.818 0.
135.09 -443.279 0.
-121.325 -517.745 0.
-117.999 -509.578 0.
-114.673 -501.411 0.
-225.388 -552.112 0.
-239.57 -584.679 0.
-253.751 -617.246 0.
66.4815 -482.211 0.
73.4679 -466.227 0.
80.4545 -450.243 0.
417.355 -424.483 0.
337.977 -608.866 0.
-263.133 -444.871 0.
151.848 -431.612 0.
73.2227 -613.516 0.
-114.919 -805.351 0.
-100.005 -771.556 0.
-85.0923 -737.761 0.
-53.8795 -633.033 0.
39.0058 -416.129 0.
131.891 -199.225 0.
-20.0186 -230.382 0.
-42.6868 -283.482 0.
-65.3549 -336.582 0.
-324.906 -570 0.
-393.532 -731.717 0.
-9.5059 -672.294 0.
64.5461 -498.778 0.
138.598 -325.262 0.
80.7379 -287.322 0.
23.7449 -420.067 0.
-33.2482 -552.812 0.
-0.0804696 -591.101 0.
-0.713535 -593.726 0.
-1.34661 -596.351 0.
128.304 -526.955 0.
139.474 -501.041 0.
-513.883 -759.204 0.
-367.365 -702.118 0.
-370.588 -711.701 0.
-39.2419 -589.773 0.
-67.8288 -655.529 0.
-96.4158 -721.285 0.
118.841 -702.001 0.
62.2999 -832.784 0.
5.75849 -963.566 0.
144.035 -868.302 0.
204.482 -727.249 0.
264.929 -586.197 0.
283.57 -656.989 0.
227.021 -787.087 0.
150.811 -920.765 0.
110.835 -1014.5 0.
70.8593 -1108.24 0.
-94.8602 -1245.38 0.
-114.52 -1292.68 0.
-134.18 -1339.98 0.
203.805 -1133.74 0.
276.855 -962.619 0.
349.905 -791.494 0.
98.6785 -863.666 0.
101.205 -857.206 0.
-55.4998 -919.271 0.
181.752 -800.92 0.
190.592 -780.139 0.
282.507 -755.728 0.
215.243 -911.176 0.
147.979 -1066.62 0.
57.0323 -1070.83 0.
182.498 -778.649 0.
307.963 -486.468 0.
61.0872 -477.221 0.
87.5264 -415.978 0.
113.966 -354.734 0.
15.2813 -602.166 0.
-105.677 -886.001 0.
79.9612 -1000.01 0.
119.121 -907.816 0.
158.281 -815.622 0.
90.2778 -799.489 0.
87.5196 -805.963 0.
84.7613 -812.436 0.
-44.0516 -974.737 0.
-142.034 -1205.73 0.
-240.016 -1436.71 0.
-243.987 -1279.07 0.
-109.905 -966.771 0.
-287.95 -791.157 0.
-54.8235 -755.279 0.
-87.3528 -832.902 0.
62.6053 -797.144 0.
107.262 -691.634 0.
151.918 -586.125 0.
-312.17 -701.648 0.
-270.949 -607.258 0.
-229.728 -512.869 0.
48.352 -409.903 0.
16.0685 -481.889 0.
-16.215 -553.874 0.
-176.897 -588.341 0.
-155.141 -536.71 0.
-12.8546 -440.229 0.
-9.50626 -432.086 0.
-6.15781 -423.943 0.
-206.126 -512.1 0.
-220.48 -544.453 0.
-234.833 -576.805 0.
-33.2224 -493.951 0.
-26.1161 -478.04 0.
-19.0097 -462.13 0.
184.116 -492.997 0.
104.75 -677.209 0.
808.827 1239.2 0.
907.894 793.078 0.
599.17 72.8379 0.
170.059 25.4911 0.
369.427 491.415 0.
264.565 247.559 0.
100.47 63.3706 0.
-70.1134 -334.856 0.
328.751 595.531 0.
225.142 455.984 0.
4.98285 -56.6422 0.
12.5317 -38.0489 0.
-41.2713 -118.268 0.
-182.53 -448.131 0.
303.498 -11.5737 0.
394.259 201.167 0.
314.092 15.3884 0.
72.0006 -242.517 0.
538.348 845.894 0.
328.353 356.037 0.
182.007 -8.31524 0.
295.48 254.93 0.
304.06 273.404 0.
1.08983 -787.052 0.
129.209 -488.58 0.
329.346 149.087 0.
-14.8753 238.526 0.
-342.118 -525.003 0.
-147.045 -730.821 0.
54.7848 -259.567 0.
109.588 -131.245 0.
586.95 220.838 0.
688.694 458.108 0.
668.93 411.881 0.
469.999 -139.007 0.
171.625 -836.675 0.
455.409 -175.826 0.
588.921 256.094 0.
478.965 -0.530826 0.
526.447 -211.746 0.
275.937 -795.466 0.
330.414 -667.693 0.
97.125 -487.426 0.
293.791 -28.7112 0.
396.489 210.776 0.
1013.04 598.873 0.
642.733 -265.336 0.
444.19 -728.787 0.
465.426 -206.345 0.
815.793 612.107 0.
150.382 322.396 0.
419.108 111.299 0.
388.383 38.9936 0.
814.961 164.359 0.
779.34 81.8582 0.
911.018 389.44 0.
295.752 -150.089 0.
286.926 -170.903 0.
274.402 -200.183 0.
305.358 12.1509 0.
282.793 -40.7626 0.
469.925 395.686 0.
262.185 40.1168 0.
226.774 -42.5673 0.
5.79417 -810.892 0.
211.541 -331.165 0.
508.151 360.675 0.
737.434 509.762 0.
539.551 47.2793 0.
613.663 219.467 0.
249.188 -426.612 0.
337.853 -220.248 0.
449.922 40.8923 0.
207.439 93.7576 0.
406.328 557.406 0.
908.811 -99.3137 0.
516.281 400.366 0.
338.532 -14.059 0.
454.243 306.401 0.
487.114 381.987 0.
427.205 241.149 0.
53.2402 3.60988 0.
-44.3656 -223.203 0.
325.464 641.259 0.
450.71 548.723 0.
177.939 -86.6913 0.
11.6767 -473.504 0.
-126.239 110.08 0.
-141.546 79.3413 0.
85.6843 -387.481 0.
347.724 225.544 0.
173.386 -179.785 0.
-244.92 -606.594 0.
66.9897 120.179 0.
182.754 388.67 0.
300.723 507.463 0.
621.615 1257.94 0.
-0.4489 -192.954 0.
546.884 815.007 0.
278.072 187.112 0.
-132.254 -484.743 0.
201.171 -328.431 0.
206.313 -317.191 0.
-98.9775 -438.233 0.
-84.5113 -404.784 0.
-70.0453 -371.336 0.
-8.75287 -355.906 0.
-43.149 -434.836 0.
-77.5452 -513.766 0.
-292.421 -627.369 0.
-289.784 -620.934 0.
-287.146 -614.5 0.
-238.328 -541.587 0.
-207.923 -470.862 0.
87.6246 -299.699 0.
40.9544 -409.146 0.
-5.71597 -518.593 0.
-46.2071 -604.893 0.
-56.4518 -628.686 0.
-66.6965 -652.479 0.
-52.9754 -671.484 0.
-71.9125 -716.232 0.
-90.8496 -760.98 0.
-218.179 -822.528 0.
-215.654 -816.288 0.
359.577 -564.459 0.
-189.308 -821.82 0.
-201.758 -849.64 0.
-134.673 -867.393 0.
-209.951 -1042.55 0.
-285.228 -1217.71 0.
-99.0004 -1108.88 0.
36.7421 -792.878 0.
172.485 -476.881 0.
272.007 -509.443 0.
137.813 -822.387 0.
3.61948 -1135.33 0.
-74.747 -1143.43 0.
-40.6394 -1064.51 0.
10.1023 -986.214 0.
11.8841 -981.327 0.
13.6659 -976.441 0.
23.3253 -995.317 0.
-19.5515 -1094.63 0.
-62.4281 -1193.94 0.
56.4273 -1177.07 0.
59.5264 -1169.66 0.
62.6254 -1162.25 0.
138.074 -1056.87 0.
186.812 -943.827 0.
724.252 -622.21 0.
130.096 -916.23 0.
109.792 -964.271 0.
172.208 -964.856 0.
175.549 -956.346 0.
178.89 -947.836 0.
-94.2752 -1058.63 0.
-91.8692 -1051.57 0.
-89.4631 -1044.52 0.
-130.098 -1056.35 0.
-127.166 -1049.96 0.
-124.234 -1043.56 0.
-142.749 -1040.48 0.
-136.803 -1026.74 0.
-188.235 -1037.63 0.
-179.303 -1018.13 0.
-170.37 -998.64 0.
10.3193 -912.091 0.
6.3124 -921.516 0.
2.30549 -930.941 0.
117.886 -858.416 0.
142.743 -795.614 0.
167.6 -732.811 0.
-108.066 -795.003 0.
-82.023 -733.756 0.
329.448 -509.779 0.
27.8833 -592.375 0.
51.8968 -534.682 0.
43.2561 -498.668 0.
54.246 -474.089 0.
65.2359 -449.511 0.
-230.071 -583.126 0.
-251.116 -630.284 0.
-272.161 -677.441 0.
-58.6608 -535.869 0.
-9.62747 -423.431 0.
39.4058 -310.992 0.
-262.172 -405.49 0.
-247.815 -370.41 0.
34.4659 -239.138 0.
-38.6398 -407.786 0.
-111.745 -576.433 0.
-330.475 -790.298 0.
-376.868 -898.965 0.
-423.262 -1007.63 0.
-250.217 -797.437 0.
-88.3696 -419.602 0.
73.4779 -41.7665 0.
358.853 29.3032 0.
280.672 -154.125 0.
-94.9901 -437.964 0.
-59.7092 -409.153 0.
-54.5565 -397.966 0.
-166.758 -435.533 0.
-152.166 -402.226 0.
-137.573 -368.919 0.
91.9402 -281.108 0.
57.8494 -360.367 0.
23.7586 -439.625 0.
-340.747 -615.908 0.
-338.012 -609.462 0.
-335.278 -603.016 0.
-240.997 -511.822 0.
-210.572 -441.103 0.
-9.24538 -309.698 0.
-55.8059 -419.283 0.
-102.367 -528.868 0.
15.6196 -546.604 0.
5.49722 -570.391 0.
-4.62521 -594.179 0.
22.3309 -608.03 0.
3.72014 -652.986 0.
-14.8907 -697.943 0.
-449.859 -889.978 0.
-447.167 -883.728 0.
-255.245 -796.388 0.
167.53 -637.964 0.
155.207 -665.867 0.
-30.519 -791.351 0.
-105.828 -966.555 0.
-181.136 -1141.76 0.
-226.209 -1131.91 0.
-90.5449 -815.872 0.
45.1191 -499.829 0.
241.415 -491.162 0.
107.16 -804.138 0.
-27.0943 -1117.11 0.
-135.212 -1138.22 0.
-100.976 -1059.47 0.
-200.058 -1044.09 0.
-198.167 -1039.28 0.
-196.276 -1034.46 0.
218.674 -880.13 0.
175.984 -979.588 0.
133.293 -1079.05 0.
-169.456 -1242.43 0.
-166.238 -1235.21 0.
-163.021 -1228 0.
198.927 -999.359 0.
247.886 -886.48 0.
50.17 -879.047 0.
333.779 -797.236 0.
313.706 -845.51 0.
-7.50026 -1010.85 0.
-4.12704 -1002.33 0.
-0.753728 -993.814 0.
-78.4028 -1020.42 0.
-75.6258 -1013.61 0.
-72.8488 -1006.81 0.
-86.3018 -1006.11 0.
-83.2942 -999.858 0.
-80.2865 -993.609 0.
-54.0051 -970.547 0.
-47.809 -957.096 0.
-290.135 -1050.54 0.
-281.358 -1030.93 0.
-272.581 -1011.32 0.
-117.951 -935.924 0.
-122.033 -945.171 0.
-126.115 -954.417 0.
198.036 -793.103 0.
222.862 -730.387 0.
247.688 -667.671 0.
-12.9902 -723.094 0.
13.1849 -661.856 0.
266.344 -505.317 0.
-31.97 -585.646 0.
-7.95544 -527.658 0.
-22.305 -496.679 0.
-11.2711 -471.839 0.
-0.237047 -446.999 0.
-253.431 -561.972 0.
-274.239 -609.289 0.
-295.046 -656.605 0.
-97.1457 -521.283 0.
-48.0636 -408.871 0.
1.01853 -296.46 0.
-140.06 -321.667 0.
-125.46 -286.71 0.
-91.6356 -260.598 0.
-164.613 -429.442 0.
-237.59 -598.286 0.
-322.906 -756.35 0.
-369.595 -864.687 0.
-416.284 -973.024 0.
-224.04 -754.864 0.
-62.0214 -377.144 0.
99.997 0.575346 0.
557.555 145.607 0.
479.444 -37.6548 0.
-248.273 -470.745 0.
-136.333 -557.365 0.
-207.741 -722.654 0.
-354.588 -868.148 0.
-292.569 -722.644 0.
-230.551 -577.14 0.
22.8993 -375.546 0.
53.0201 -306.407 0.
83.1409 -237.269 0.
-251.737 -367.507 0.
-256.539 -378.683 0.
-261.34 -389.86 0.
-267.792 -514.915 0.
-340.228 -684.045 0.
-224.836 -757.503 0.
-220.659 -746.97 0.
-216.482 -736.437 0.
-21.4687 -643.721 0.
-17.8891 -634.79 0.
-14.3095 -625.86 0.
-0.168055 -631.804 0.
-9.83903 -653.572 0.
-19.5101 -675.34 0.
-459.3 -844.733 0.
-444.476 -810.268 0.
-205.867 -679.252 0.
369.251 -401.925 0.
384.95 -363.937 0.
130.417 -441.911 0.
148.799 -399.677 0.
167.181 -357.443 0.
11.4761 -455.049 0.
-48.8284 -595.457 0.
-109.133 -735.865 0.
69.9827 -711.307 0.
61.6041 -731.733 0.
53.2255 -752.16 0.
53.46 -607.381 0.
139.021 -405.971 0.
8.33752 -336.928 0.
-101.818 -594.377 0.
-211.973 -851.826 0.
312.723 -743.463 0.
351.707 -653.128 0.
390.691 -562.794 0.
-15.6253 -704.745 0.
-17.0827 -708.486 0.
-18.54 -712.227 0.
391.026 -608.835 0.
343.737 -718.506 0.
-965.781 -1368.78 0.
411.043 -721.925 0.
440.312 -652.434 0.
-28.942 -767.638 0.
64.0207 -550.674 0.
156.983 -333.711 0.
236.265 -294.961 0.
124.408 -555.254 0.
12.5522 -815.546 0.
52.2218 -755.915 0.
141.828 -546.141 0.
231.434 -336.367 0.
177.856 -383.881 0.
152.186 -442.255 0.
-122.211 -591.36 0.
-77.378 -485.862 0.
-32.5451 -380.364 0.
73.7597 -333.362 0.
-6.33979 -520.734 0.
-86.4393 -708.105 0.
234.648 -573.949 0.
289.83 -449.101 0.
345.012 -324.252 0.
38.6193 -613.724 0.
-77.6619 -886.228 0.
247.945 -964.081 0.
-175.336 -903.895 0.
-46.4365 -606.612 0.
23.5391 -388.325 0.
24.1024 -386.774 0.
24.6657 -385.223 0.
-214.264 -479.709 0.
-205.078 -459.421 0.
-195.891 -439.133 0.
25.9136 -271.647 0.
76.3662 -152.108 0.
126.819 -32.57 0.
-3.90971 -197.65 0.
-73.6395 -360.264 0.
-299.931 -563.674 0.
-258.224 -467.065 0.
-216.518 -370.457 0.
-142.271 -221.639 0.
-46.2318 2.76135 0.
49.8071 227.162 0.
155.985 125.191 0.
-56.8379 -371.161 0.
-269.661 -867.513 0.
205.085 -685.992 0.
249.375 -581.869 0.
-218.144 -425.199 0.
115.654 -417.937 0.
43.9349 -582.999 0.
-264.892 -798.553 0.
-202.903 -653.037 0.
-140.914 -507.52 0.
-110.081 -401.334 0.
-80.1187 -332.051 0.
-50.1565 -262.768 0.
-214.004 -320.033 0.
-218.676 -331.362 0.
-223.347 -342.69 0.
-291.019 -493.313 0.
-363.454 -662.397 0.
-159.899 -698.192 0.
-155.7 -687.717 0.
-151.502 -677.241 0.
-36.1713 -618.958 0.
-32.5111 -610.038 0.
-28.851 -601.119 0.
-72.7039 -630.701 0.
-82.2712 -652.425 0.
-91.8386 -674.149 0.
-265.739 -730.335 0.
-250.825 -695.839 0.
-543.213 -792.384 0.
296.275 -401.733 0.
312.098 -363.715 0.
85.6002 -429.18 0.
104.075 -387.013 0.
122.55 -344.846 0.
45.14 -409.923 0.
-15.4457 -550.223 0.
-76.0312 -690.524 0.
-55.1697 -733.515 0.
-63.5794 -753.99 0.
-71.9892 -774.464 0.
54.6766 -574.905 0.
140.392 -373.642 0.
20.6021 -299.922 0.
-89.5652 -557.43 0.
-199.733 -814.939 0.
234.213 -745.551 0.
273.107 -655.211 0.
312.002 -564.871 0.
57.7946 -641.887 0.
56.1929 -645.59 0.
54.5911 -649.292 0.
424.534 -563.242 0.
377.259 -672.818 0.
-151.647 -988.009 0.
337.664 -721.49 0.
366.971 -652.13 0.
-128.148 -779.798 0.
-35.3867 -562.58 0.
57.3742 -345.363 0.
257.681 -254.385 0.
146.055 -514.655 0.
34.4288 -774.926 0.
118.008 -695.996 0.
207.935 -486.299 0.
297.862 -276.603 0.
77.8669 -395.628 0.
52.3763 -454.154 0.
-62.999 -533.773 0.
-18.0835 -428.372 0.
26.8319 -322.971 0.
74.6458 -301.558 0.
-5.61771 -488.796 0.
-85.8812 -676.033 0.
55.0058 -619.816 0.
109.684 -494.544 0.
164.363 -369.271 0.
-7.15209 -601.724 0.
-123.299 -874.293 0.
41.7063 -1021.77 0.
-98.0564 -839.622 0.
30.7112 -542.126 0.
119.604 -315.966 0.
120.352 -314.442 0.
121.1 -312.919 0.
-150.44 -420.666 0.
-140.93 -400.356 0.
-131.419 -380.046 0.
132.601 -194.626 0.
183.457 -74.9918 0.
234.313 44.6423 0.
110.417 -116.833 0.
40.4126 -278.892 0.
-324.515 -543.133 0.
-282.836 -446.4 0.
-241.157 -349.667 0.
-234.112 -230.404 0.
-138.037 -6.00011 0.
-41.963 218.404 0.
161.274 158.822 0.
-51.2795 -337.635 0.
-263.833 -834.093 0.
59.3998 -717.491 0.
104.412 -613.35 0.
820.572 169.552 0.
332.276 -359.176 0.
243.435 -568.06 0.
221.189 197.553 0.
133.001 -8.51945 0.
61.8262 -174.48 0.
-186.512 -296.601 0.
-2.76618 133.145 0.
112.589 403.214 0.
-136.738 -184.926 0.
-318.708 -611.084 0.
-91.097 -81.1553 0.
-44.8525 160.692 0.
-230.777 -272.054 0.
93.1491 -200.802 0.
360.592 423.589 0.
401.842 520.311 0.
352.076 346.173 0.
235.154 72.9521 0.
594.519 910.75 0.
34.1893 -210.702 0.
-257.657 -892.19 0.
215.072 210.357 0.
64.2961 -294.114 0.
-7.3039 -462.416 0.
-235.801 -677.307 0.
300.129 -221.842 0.
512.998 274.655 0.
248.746 66.2146 0.
99.3018 -281.756 0.
278.237 136.521 0.
385.454 348.872 0.
601.633 853.993 0.
410.13 408.052 0.
236.035 215.043 0.
100.029 -102.478 0.
-157.032 -702.486 0.
558.91 628.949 0.
492.612 474.875 0.
188.931 106.064 0.
55.2173 -207.204 0.
185.13 94.6298 0.
651.368 407.411 0.
578.832 239.601 0.
552.735 180.178 0.
500.201 285.491 0.
571.219 451.013 0.
274.931 -240.548 0.
483.743 -456.797 0.
500.758 -416.615 0.
-93.0055 -651.792 0.
546.581 -63.7875 0.
623.843 115.807 0.
-0.0244485 -259.859 0.
10.9756 -233.462 0.
-59.7376 -397.345 0.
282.685 -206.095 0.
420.108 112.966 0.
793.306 982.254 0.
797.866 799.057 0.
621.964 387.552 0.
595.344 324.228 0.
-162.777 -736.846 0.
188.761 84.1107 0.
495.971 691.318 0.
536.775 787.382 0.
356.338 367.222 0.
257.073 152.209 0.
307.707 270.405 0.
207.927 37.7521 0.
39.1131 -284.653 0.
130.256 -73.1557 0.
355.974 452.565 0.
218.571 44.7643 0.
-119.276 -743.657 0.
217.303 -299.153 0.
49.8872 -611.759 0.
165.221 -342.878 0.
512.242 444.556 0.
345.665 57.2127 0.
258.659 -144.318 0.
-86.3909 -360.356 0.
208.22 326.327 0.
-100.646 -395.19 0.
242.627 -108.933 0.
119.275 -395.699 0.
121.791 -388.941 0.
374.769 319.869 0.
366.229 299.777 0.
-87.0629 90.3481 0.
-51.9327 172.18 0.
-65.1655 141.113 0.
-324.138 -242.343 0.
-441.287 -514.575 0.
-114.285 249.487 0.
306.186 519.156 0.
28.5685 -128.733 0.
294.708 492.345 0.
149.235 -208.034 0.
431.194 453.687 0.
1074.76 -144.239 0.
216.277 -406.373 0.
246.768 -336.394 0.
-203.663 -477.477 0.
-187.705 -441.317 0.
-171.748 -405.157 0.
-295.849 -447.569 0.
-302.263 -462.117 0.
-308.677 -476.664 0.
-53.4716 -330.243 0.
-21.3128 -255.656 0.
10.8459 -181.07 0.
-313.735 -408.697 0.
-370.371 -540.867 0.
-106.186 -529.66 0.
-118.61 -559.305 0.
-131.033 -588.951 0.
-114.7 -552.754 0.
-41.6834 -382.66 0.
31.3334 -212.566 0.
108.725 -165.973 0.
58.4517 -283.13 0.
8.17834 -400.287 0.
50.76 -412.072 0.
46.1202 -422.615 0.
435.521 -264.256 0.
88.9083 -556.922 0.
11.4662 -737.686 0.
-47.8204 -851.227 0.
24.9824 -680.129 0.
97.7851 -509.032 0.
-87.7659 -505.359 0.
-85.7646 -501.918 0.
-83.7634 -498.476 0.
-73.5047 -429.456 0.
-23.2243 -311.243 0.
27.0559 -193.03 0.
-16.4847 -438.816 0.
-156.276 -765.924 0.
-174.054 -992.513 0.
-79.8615 -771.633 0.
14.3313 -550.752 0.
265.498 -364.256 0.
198.234 -521.225 0.
130.971 -678.194 0.
-20.8787 -782.688 0.
-2.72937 -740.198 0.
15.4199 -697.707 0.
411.834 -539.936 0.
397.658 -573.542 0.
-301.89 -901.227 0.
321.314 -529.63 0.
376.485 -401.704 0.
-81.5546 -534.713 0.
-121.599 -629.168 0.
-161.643 -723.624 0.
29.6451 -642.657 0.
80.1259 -524.548 0.
130.607 -406.439 0.
234.041 -414.851 0.
166.42 -571.443 0.
98.7996 -728.035 0.
-221.629 -774.589 0.
-159.895 -631.266 0.
67.0173 -434.644 0.
56.9111 -459.615 0.
46.8047 -484.586 0.
103.321 -474.28 0.
97.4553 -487.692 0.
91.5897 -501.103 0.
-234.333 -664.771 0.
-246.776 -695.23 0.
-259.22 -725.689 0.
255.6 -377.364 0.
343.648 -172.392 0.
-34.6683 -168.777 0.
26.1345 -263.055 0.
-37.2035 -409.94 0.
-73.1192 -524.543 0.
-88.7741 -560.237 0.
-104.429 -595.932 0.
-29.9554 -530.537 0.
30.0077 -389.64 0.
89.9709 -248.742 0.
50.6794 -293.884 0.
-0.401419 -412.783 0.
-51.4821 -531.682 0.
-6.09299 -458.912 0.
29.1692 -377.94 0.
-272.014 -442.189 0.
-240.96 -369.654 0.
-209.906 -297.118 0.
-251.557 -316.965 0.
-315.832 -466.279 0.
-380.108 -615.593 0.
-193.393 -522.6 0.
-131.308 -377.184 0.
-69.2229 -231.768 0.
194.979 -344.613 0.
25.3407 -738.326 0.
789.373 -235.594 0.
113.021 -419.09 0.
143.334 -348.916 0.
-351.804 -510.07 0.
-335.993 -473.867 0.
-320.181 -437.663 0.
-333.34 -432.301 0.
-339.606 -447.054 0.
-345.873 -461.806 0.
141.877 -214.729 0.
174.06 -140.341 0.
206.243 -65.9533 0.
-330.131 -384.365 0.
-386.806 -516.485 0.
-159.619 -521.158 0.
-171.923 -550.93 0.
-184.227 -580.703 0.
-197.755 -556.186 0.
-124.8 -386.046 0.
-51.8453 -215.906 0.
192.275 -99.3172 0.
142.117 -216.625 0.
91.9591 -333.933 0.
111.902 -354.511 0.
107.293 -365.112 0.
114.541 -370.999 0.
19.6653 -555.27 0.
-57.7249 -736.097 0.
88.3557 -761.164 0.
161.003 -590.057 0.
233.65 -418.949 0.
-202.921 -523.433 0.
-200.858 -519.993 0.
-198.796 -516.553 0.
-98.2686 -409.152 0.
-48.0761 -291.007 0.
2.11628 -172.862 0.
-144.781 -461.603 0.
-284.533 -788.617 0.
-24.9575 -897.687 0.
69.225 -676.809 0.
163.407 -455.93 0.
217.255 -353.006 0.
150.025 -509.995 0.
82.7951 -666.985 0.
-82.4868 -777.188 0.
-64.3513 -734.603 0.
-46.2158 -692.018 0.
384.194 -521.022 0.
369.726 -554.346 0.
-1770.78 -1498.94 0.
311.14 -502.275 0.
366.482 -374.471 0.
-19.021 -476.654 0.
-58.7681 -571.353 0.
-98.5154 -666.052 0.
-32.9519 -637.399 0.
17.7513 -519.47 0.
68.4546 -401.542 0.
192.798 -401.12 0.
125.504 -557.782 0.
58.2103 -714.444 0.
-256.447 -758.263 0.
-194.46 -615.233 0.
151.503 -365.713 0.
141.44 -390.759 0.
131.377 -415.804 0.
261.645 -375.024 0.
255.647 -388.323 0.
249.648 -401.623 0.
-352.957 -684.656 0.
-365.401 -715.118 0.
-377.844 -745.581 0.
538.483 -224.751 0.
626.809 -19.7831 0.
93.4737 -82.8692 0.
-169.704 -316.05 0.
-232.717 -463.108 0.
-264.642 -574.236 0.
-279.911 -610.06 0.
-295.181 -645.885 0.
144.499 -422.793 0.
204.665 -282.005 0.
264.83 -141.217 0.
-69.9744 -314.499 0.
-121.191 -433.087 0.
-172.407 -551.676 0.
-46.1304 -444.861 0.
-10.6157 -364.074 0.
-205.923 -382.584 0.
-174.835 -310.041 0.
-143.748 -237.497 0.
-106.195 -223.256 0.
-170.621 -372.502 0.
-235.046 -521.748 0.
-241.915 -511.935 0.
-179.79 -366.517 0.
-117.664 -221.099 0.
338.895 -252.371 0.
169.528 -645.872 0.
251.604 -365.488 0.
-71.489 -640.66 0.
-107.45 -726.438 0.
-523.086 -907.9 0.
-392.113 -602.343 0.
-261.139 -296.787 0.
-197.865 -126.863 0.
-195.296 -119.676 0.
-192.726 -112.489 0.
210.79 -25.5689 0.
139.5 -191.334 0.
68.2102 -357.099 0.
-268.455 -422.116 0.
-210.304 -286.277 0.
-96.04 -143.093 0.
-141.176 -248.476 0.
-186.311 -353.859 0.
-147.725 -425.443 0.
-192.975 -532.013 0.
-238.225 -638.584 0.
99.3017 -486.029 0.
143.688 -382.56 0.
188.074 -279.091 0.
113.038 -326.481 0.
91.0435 -377.712 0.
648.949 -180.045 0.
16.9212 -456.79 0.
14.1708 -462.391 0.
201.508 -368.284 0.
230.192 -302.278 0.
258.876 -236.272 0.
-172.565 -417.938 0.
-200.835 -483.256 0.
-229.104 -548.574 0.
-175.245 -526.185 0.
-160.59 -493.039 0.
-145.936 -459.894 0.
-136.668 -491.518 0.
-159.63 -544.971 0.
239.844 -420.89 0.
204.113 -504.343 0.
168.383 -587.796 0.
7.37833 -672.582 0.
54.9514 -561.219 0.
102.525 -449.856 0.
22.5539 -501.885 0.
-32.5304 -630.904 0.
-87.6147 -759.923 0.
283.963 -511.787 0.
359.133 -336.23 0.
-1182.06 -854.064 0.
393.207 -297.139 0.
330.626 -441.939 0.
-154.492 -728.398 0.
-120.378 -648.164 0.
-86.2644 -567.931 0.
34.7324 -475.314 0.
40.5271 -462.339 0.
46.3217 -449.364 0.
113.371 -411.494 0.
116.503 -404.508 0.
119.634 -397.523 0.
-49.5141 -378.535 0.
3.85791 -251.884 0.
267.347 -50.9079 0.
235.267 -124.662 0.
203.186 -198.417 0.
363.226 -150.402 0.
401.436 -62.7339 0.
439.645 24.934 0.
-107.425 -181.65 0.
-115.536 -200.473 0.
-123.648 -219.295 0.
523.692 -128.282 0.
403.195 -406.944 0.
212.963 -708.675 0.
-331.42 -685.704 0.
-197.46 -371.741 0.
-100.767 -149.637 0.
-138.14 -237.16 0.
-175.512 -324.683 0.
273.807 -158.591 0.
287.193 -127.382 0.
300.579 -96.174 0.
-95.0666 -239.047 0.
-83.4964 -211.381 0.
-71.9262 -183.716 0.
96.7851 -22.3657 0.
148.185 99.6595 0.
38.3266 124.2 0.
-33.432 -41.7002 0.
-105.191 -207.6 0.
-89.6303 -279.191 0.
-71.8601 -238.909 0.
-54.0899 -198.626 0.
-84.5904 -216.839 0.
-101.124 -255.462 0.
-117.657 -294.085 0.
312.134 -204.765 0.
253.17 -343.989 0.
-736.535 -757.946 0.
-149.851 -643.028 0.
-185.797 -728.713 0.
-347.865 -800.869 0.
-216.871 -495.334 0.
-85.8763 -189.799 0.
-119.725 -61.5997 0.
-117.126 -54.5102 0.
-114.527 -47.4206 0.
21.5731 -75.7401 0.
-49.7485 -241.486 0.
-121.07 -407.231 0.
-31.7084 -288.838 0.
26.4394 -153.077 0.
-249.786 -178.389 0.
-295.088 -283.647 0.
-340.391 -388.904 0.
-46.5934 -350.641 0.
-91.7522 -457.273 0.
-136.911 -563.904 0.
224.79 -401.035 0.
269.38 -297.777 0.
313.971 -194.52 0.
58.095 -318.962 0.
36.0286 -370.11 0.
776.552 -94.0283 0.
10.8067 -427.494 0.
8.02497 -433.17 0.
-38.6068 -440.447 0.
-10.0759 -374.259 0.
18.455 -308.072 0.
-57.3751 -337.326 0.
-85.5857 -402.738 0.
-113.796 -468.15 0.
-181.071 -497.313 0.
-166.501 -464.132 0.
-151.93 -430.951 0.
83.1633 -365.871 0.
60.3717 -419.627 0.
269.159 -376.424 0.
233.612 -459.892 0.
198.065 -543.361 0.
-97.1919 -685.713 0.
-49.6659 -574.405 0.
-2.13987 -463.097 0.
86.1165 -443.074 0.
31.22 -572.273 0.
-23.6765 -701.472 0.
84.2194 -566.325 0.
159.363 -390.727 0.
-555.633 -554.164 0.
420.02 -254.008 0.
357.592 -398.741 0.
-257.672 -740.715 0.
-223.294 -660.642 0.
-188.915 -580.569 0.
127.236 -403.846 0.
133.099 -390.893 0.
138.963 -377.939 0.
7.78931 -425.057 0.
10.8566 -417.864 0.
13.924 -410.671 0.
126.591 -272.322 0.
179.902 -145.573 0.
164.016 -63.885 0.
131.824 -137.653 0.
99.6309 -211.421 0.
257.196 -164.343 0.
295.394 -76.7972 0.
333.592 10.7488 0.
117.708 -54.2313 0.
109.727 -73.2455 0.
101.746 -92.2594 0.
132.179 -263.847 0.
11.9466 -542.568 0.
116.007 -719.63 0.
-112.467 -560.893 0.
21.3768 -246.641 0.
84.3359 -38.5056 0.
46.8663 -125.843 0.
9.39684 -213.18 0.
173.941 -170.389 0.
187.433 -139.164 0.
200.925 -107.939 0.
-85.1183 -204.251 0.
-73.612 -176.746 0.
-62.1057 -149.24 0.
67.7134 -3.22325 0.
119.341 118.53 0.
67.1905 168.092 0.
-4.50229 2.10369 0.
-76.195 -163.885 0.
-98.5516 -251.705 0.
-80.8521 -211.267 0.
-63.1526 -170.828 0.
71.5569 -118.404 0.
54.965 -156.875 0.
38.3728 -195.345 0.
87.8168 -269.663 0.
28.757 -408.356 0.
215.878 56.0089 0.
142.119 225.933 0.
92.8242 112.623 0.
103.582 -42.9898 0.
134.69 30.2848 0.
145.351 55.4714 0.
-95.1553 -124.412 0.
8.86147 119.354 0.
-92.0756 -115.18 0.
-137.21 -60.3567 0.
-33.8049 179.033 0.
-99.3693 24.2732 0.
412.704 333.412 0.
247.201 -52.2133 0.
-166.575 335.355 0.
-322.522 -26.2636 0.
-361.549 -115.115 0.
154.191 -42.1424 0.
297.7 290.925 0.
166.232 -17.4361 0.
304.67 -425.297 0.
81.8106 -946.207 0.
412.964 -174.748 0.
-29.3011 -389.672 0.
-212.206 -815.372 0.
-73.7489 -833.02 0.
104.593 -172 0.
206.396 64.7733 0.
151.405 490.728 0.
105.492 383.513 0.
-72.5128 -31.8838 0.
136.144 -73.3179 0.
247.58 185.654 0.
294.009 293.06 0.
45.4806 69.2693 0.
1.27156 -33.1362 0.
-12.0335 -63.3065 0.
455.998 117.886 0.
307.03 -230.583 0.
248.713 -451.042 0.
344.509 -226.787 0.
426.44 -34.8087 0.
-66.6954 -381.403 0.
-170.406 -622.626 0.
-3.63101 -232.754 0.
503.853 442 0.
473.795 370.708 0.
601.566 667.691 0.
501.992 816.069 0.
472.852 748.255 0.
-541.756 -327.159 0.
568.158 78.9817 0.
622.669 206.237 0.
-76.3217 -89.7152 0.
-229.3 -447.168 0.
-259.327 -517.739 0.
310.147 -125.642 0.
394.475 71.5635 0.
401.49 88.4176 0.
161.743 165 0.
166.298 175.71 0.
200.86 256.468 0.
440.714 161.662 0.
256.227 -270.491 0.
-79.4084 -400.118 0.
221.69 302.554 0.
529.527 1021.03 0.
776.324 1274.67 0.
408.31 415.199 0.
260.735 70.2369 0.
465.757 357.921 0.
520.635 485.052 0.
579.826 622.18 0.
-32.7806 130.654 0.
-318.505 -537.463 0.
543.196 -115.044 0.
189.382 -243.129 0.
257.383 -82.307 0.
298.342 145.53 0.
189.886 -107.669 0.
345.621 255.823 0.
274.794 282.719 0.
206.764 125.324 0.
104.058 -113.56 0.
250.888 592.287 0.
248.274 584.995 0.
69.5106 166.602 0.
101.685 162.537 0.
140.488 253.52 0.
83.8636 183.339 0.
-123.507 -300.229 0.
175.143 397.059 0.
106.475 272.131 0.
-246.553 -552.324 0.
-143.375 -312.235 0.
350.092 267.306 0.
264.242 67.1077 0.
159.225 -178.339 0.
-104.55 -263.284 0.
97.8196 209.053 0.
763.876 -27.7619 0.
-65.6202 -155.393 0.
39.4963 91.9054 0.
120.447 252.274 0.
39.6553 63.4234 0.
-41.1368 -125.428 0.
-181.542 -288.591 0.
-201.582 -336.07 0.
-221.622 -383.548 0.
-215.647 -398.458 0.
-218.268 -404.945 0.
-220.889 -411.432 0.
12.4829 -332.168 0.
0.56549 -359.221 0.
-361.517 -535.795 0.
-374.124 -564.272 0.
-386.73 -592.75 0.
-142.266 -488.686 0.
-116.635 -429.762 0.
-91.0033 -370.839 0.
236.526 -232.538 0.
213.181 -285.338 0.
189.837 -338.138 0.
-14.4487 -428.643 0.
-10.6044 -419.842 0.
17.7926 -401.246 0.
7.66139 -376.098 0.
24.0013 -339.807 0.
-228.843 -420.951 0.
-213.755 -385.662 0.
-198.668 -350.373 0.
59.6441 -245.818 0.
31.9865 -311.626 0.
4.32901 -377.433 0.
-164.655 -530.534 0.
-213.144 -643.981 0.
-261.633 -757.429 0.
88.9283 -540.178 0.
134.971 -433.305 0.
78.671 -385.846 0.
57.1065 -435.984 0.
35.5426 -486.122 0.
98.1853 -484.35 0.
101.398 -476.325 0.
104.61 -468.299 0.
19.3892 -465.86 0.
54.4 -383.393 0.
89.4106 -300.926 0.
14.763 -430.088 0.
-60.6668 -606.135 0.
-39.7042 -740.12 0.
284.675 -399.537 0.
390.673 -152.577 0.
-5.27077 -188.791 0.
-62.6383 -322.362 0.
-120.006 -455.932 0.
200.776 -380.354 0.
201.053 -379.306 0.
201.33 -378.257 0.
-221.529 -526.379 0.
-196.506 -467.17 0.
-171.484 -407.961 0.
128.956 -240.473 0.
148.808 -196.036 0.
178.494 -170.088 0.
101.645 -349.352 0.
24.7956 -528.616 0.
-160.557 -635.889 0.
-58.7013 -397.564 0.
43.1543 -159.239 0.
256.241 -11.9644 0.
231.407 -69.4687 0.
206.572 -126.973 0.
82.0319 -114.22 0.
131.999 0.481869 0.
142.269 93.4911 0.
118.921 -71.7264 0.
38.5361 -261.431 0.
-32.8622 -404.158 0.
-20.9823 -377.05 0.
-9.10251 -349.943 0.
6.16188 -330.567 0.
8.34473 -323.855 0.
10.5278 -317.143 0.
58.7084 -234.618 0.
105.221 -124.831 0.
151.735 -15.0456 0.
-148.363 -168.658 0.
-169.15 -217.792 0.
3.8344 -170.856 0.
35.4589 -98.962 0.
67.0831 -27.068 0.
5.87225 -32.1883 0.
-20.4215 -93.9252 0.
-46.7152 -155.662 0.
96.1815 -208.807 0.
11.5945 -407.596 0.
-72.9925 -606.386 0.
-239.67 -408.398 0.
-36.1091 64.9296 0.
978.841 95.3481 0.
-104.293 -140.223 0.
0.972812 106.905 0.
1.56789 232.591 0.
-79.212 43.807 0.
-159.992 -144.977 0.
-182.887 -257.486 0.
-202.75 -305.176 0.
-222.613 -352.867 0.
-117.586 -325.472 0.
-120.457 -331.694 0.
-123.329 -337.916 0.
-114.046 -354.751 0.
-125.758 -381.95 0.
-124.552 -402.984 0.
-137.193 -431.504 0.
-149.834 -460.024 0.
-255.094 -505.645 0.
-229.513 -446.739 0.
-203.932 -387.833 0.
64.4187 -274.818 0.
41.171 -327.733 0.
17.9233 -380.647 0.
41.5808 -373.794 0.
45.5111 -365.021 0.
-299.502 -506.209 0.
14.3559 -341.676 0.
30.763 -305.358 0.
-198.711 -376.46 0.
-183.681 -341.142 0.
-168.65 -305.824 0.
71.6862 -209.578 0.
43.9646 -275.375 0.
16.2432 -341.172 0.
-88.608 -466.06 0.
-136.843 -579.859 0.
-185.077 -693.658 0.
-2.21025 -547.984 0.
43.7679 -441.25 0.
-149.588 -451.348 0.
-170.958 -501.567 0.
-192.327 -551.787 0.
377.121 -334.078 0.
380.19 -325.973 0.
383.259 -317.868 0.
-83.3896 -477.978 0.
-48.2124 -395.769 0.
-13.0354 -313.559 0.
93.6155 -364.496 0.
18.2402 -540.684 0.
-777.273 -1024.29 0.
202.255 -402.676 0.
308.098 -155.494 0.
152.421 -90.6241 0.
95.0296 -224.158 0.
37.6386 -357.692 0.
216.435 -342.239 0.
216.95 -341.22 0.
217.465 -340.201 0.
-312.284 -533.477 0.
-287.215 -474.399 0.
-262.146 -415.322 0.
-28.1171 -276.228 0.
-8.50728 -231.504 0.
391.738 -46.9043 0.
314.955 -226.305 0.
238.172 -405.705 0.
-290.436 -660.427 0.
-188.586 -422.171 0.
-86.7367 -183.915 0.
208.206 -1.06841 0.
183.347 -58.6013 0.
158.487 -116.134 0.
365.352 38.2241 0.
415.125 153.034 0.
-121.662 11.6463 0.
-37.8661 -107.121 0.
-118.163 -296.742 0.
-133.414 -415.926 0.
-121.571 -388.663 0.
-109.729 -361.399 0.
15.2696 -296.001 0.
17.617 -289.305 0.
19.9645 -282.61 0.
271.214 -112.309 0.
317.807 -2.57304 0.
364.401 107.162 0.
-263.974 -186.029 0.
-284.869 -235.03 0.
109.433 -94.7465 0.
140.732 -22.6289 0.
172.032 49.4889 0.
60.6644 21.8532 0.
34.2105 -39.7879 0.
7.75658 -101.429 0.
50.5885 -196.465 0.
-33.9062 -395.228 0.
-118.401 -593.99 0.
-310.641 -408.405 0.
-107.006 65.0369 0.
847.177 416.196 0.
40.8944 15.5367 0.
8.23768 -61.0856 0.
-198.102 -190.142 0.
-179.957 -147.291 0.
-161.813 -104.44 0.
-112.326 -81.9304 0.
-131.861 -127.215 0.
-151.395 -172.499 0.
47.4237 -79.7384 0.
63.1926 -44.0633 0.
78.9616 -8.3882 0.
-158.73 -208.384 0.
-218.714 -348.392 0.
-31.6378 -356.612 0.
37.4142 -195.508 0.
106.466 -34.4047 0.
-39.6364 -16.8601 0.
-52.6718 -44.4894 0.
-65.7072 -72.1186 0.
62.714 -44.2197 0.
46.7373 -81.4817 0.
30.7607 -118.744 0.
139.481 -103.563 0.
122.616 -141.775 0.
-47.8612 -245.28 0.
90.6963 -103.781 0.
133.74 -2.17427 0.
33.6642 25.7056 0.
45.4788 53.2322 0.
57.2933 80.759 0.
200.048 83.5741 0.
116.961 -109.767 0.
33.8726 -303.108 0.
-6.12793 -273.911 0.
72.3011 -90.4249 0.
150.73 93.0608 0.
189.398 105.338 0.
178.217 79.5342 0.
-32.9005 -25.7182 0.
-18.1307 9.25965 0.
-3.36095 44.2374 0.
593.836 279.759 0.
529.906 130.34 0.
465.976 -19.078 0.
21.3284 -254.318 0.
32.5708 -228.194 0.
43.8132 -202.071 0.
278.837 -148.555 0.
243.048 -231.877 0.
-620.672 -670.665 0.
153.034 -269.935 0.
189.66 -184.986 0.
158.865 -140.932 0.
171.393 -111.506 0.
183.922 -82.0796 0.
358.337 45.4688 0.
404.569 153.871 0.
450.801 262.273 0.
-87.0409 -14.3342 0.
-144.218 -148.904 0.
-201.395 -283.475 0.
-108.765 -363.531 0.
-171.735 -512.226 0.
174.308 -447.406 0.
284.262 -191.006 0.
394.215 65.393 0.
9.28393 2.23105 0.
-45.2008 -125.444 0.
-99.6855 -253.118 0.
114.133 -175.41 0.
142.05 -109.016 0.
169.967 -42.6209 0.
347.066 16.9812 0.
328.024 -25.9083 0.
-395.316 -368.388 0.
-57.721 -150.03 0.
-19.4716 -59.8619 0.
12.2767 11.4936 0.
21.8376 34.716 0.
31.3986 57.9382 0.
233.013 148.357 0.
222.43 123.349 0.
211.847 98.3415 0.
393.372 148.72 0.
376.046 108.371 0.
358.719 68.0216 0.
-309.425 -240.819 0.
-318.614 -261.674 0.
167.789 -49.4879 0.
247.923 137.971 0.
328.057 325.43 0.
123.522 247.142 0.
-17.0366 -82.0536 0.
-157.595 -411.25 0.
-5.46544 -303.896 0.
143.997 45.1152 0.
293.459 394.126 0.
-192.422 56.0888 0.
-319.592 -239.192 0.
-317.542 -54.0816 0.
290.389 153.785 0.
257.593 77.249 0.
-95.9333 -115.087 0.
-77.7105 -72.2671 0.
-59.4877 -29.4471 0.
-89.4449 -40.2292 0.
-108.833 -85.6384 0.
-128.221 -131.047 0.
130.956 -12.3087 0.
146.818 23.4011 0.
162.679 59.1108 0.
-260.54 -220.603 0.
-320.314 -360.624 0.
-55.7193 -336.118 0.
13.3512 -175.089 0.
82.4219 -14.0595 0.
116.704 82.7927 0.
103.738 54.861 0.
90.7726 26.9295 0.
27.4271 -27.9809 0.
11.365 -65.2177 0.
-4.69698 -102.455 0.
65.195 -104.29 0.
48.3987 -142.578 0.
598.88 62.915 0.
58.4429 -86.051 0.
101.388 15.6927 0.
184.38 121.87 0.
196.322 149.391 0.
208.263 176.911 0.
230.643 128.731 0.
147.747 -64.7323 0.
64.8503 -258.195 0.
-49.2262 -261.136 0.
29.4554 -77.8433 0.
108.137 105.45 0.
100.022 98.5578 0.
88.9705 72.6644 0.
71.813 51.3585 0.
86.6814 86.405 0.
101.55 121.451 0.
222.057 150.772 0.
158.111 1.48592 0.
94.1653 -147.8 0.
183.284 -152.993 0.
194.574 -126.877 0.
205.864 -100.761 0.
456.563 -40.9036 0.
420.965 -124.357 0.
-120.601 -424.58 0.
9.6149 -300.049 0.
46.2375 -215.177 0.
98.3318 -135.657 0.
110.956 -106.348 0.
123.581 -77.0395 0.
314.023 58.4761 0.
360.616 166.683 0.
407.21 274.89 0.
52.5686 77.1055 0.
-4.63456 -57.3578 0.
-61.8379 -191.821 0.
-21.9694 -294.481 0.
-84.9925 -443.141 0.
-121.947 -542.918 0.
-12.011 -286.647 0.
97.9245 -30.3756 0.
215.845 122.408 0.
161.281 -5.29224 0.
106.717 -132.992 0.
149.635 -128.94 0.
177.576 -62.632 0.
205.517 3.67568 0.
71.5849 -69.0526 0.
52.7651 -112.226 0.
472.436 34.6425 0.
132.078 -37.5702 0.
170.399 52.5644 0.
47.4608 58.3468 0.
57.2936 81.411 0.
67.1264 104.475 0.
323.981 218.99 0.
313.508 193.916 0.
303.035 168.842 0.
243.084 115.323 0.
225.627 75.1463 0.
208.17 34.9692 0.
-217.05 -169.577 0.
-225.968 -190.74 0.
194.048 -6.17025 0.
274.65 180.876 0.
355.253 367.923 0.
22.5394 235.745 0.
-117.806 -93.4718 0.
-258.151 -422.689 0.
47.9831 -249.646 0.
197.615 99.2762 0.
347.247 448.198 0.
-289.991 46.7415 0.
-416.852 -248.593 0.
540.814 1138.68 0.
427.278 36.149 0.
174.545 -553.89 0.
-172.53 -454.518 0.
186.074 382.072 0.
270.171 578.109 0.
-100.134 -80.9048 0.
-192.621 -294.407 0.
-224.589 -367.585 0.
254.408 148.176 0.
392.914 473.141 0.
372.047 426.059 0.
-219.996 95.7544 0.
-385.148 -288.69 0.
-168.064 -526.85 0.
201.582 336.455 0.
281.12 523.055 0.
59.4578 -314.776 0.
134.758 -138.624 0.
61.5331 -309.636 0.
13.5727 38.61 0.
63.1872 154.405 0.
-146.121 -334.118 0.
-214.808 -585.436 0.
-187.302 -522.82 0.
536.484 -84.044 0.
290.877 546.261 0.
28.2463 -65.7585 0.
527.542 669.684 0.
545.028 709.108 0.
345.086 241.294 0.
328.331 327.493 0.
546.59 836.088 0.
368.909 420.97 0.
226.462 495.516 0.
97.1347 192.683 0.
-124.496 -325.739 0.
-61.4734 -75.8188 0.
64.6474 217.069 0.
382.247 615.933 0.
178.122 138.393 0.
-50.2216 -395.706 0.
-430.757 -634.128 0.
-91.6283 154.094 0.
30.1462 435.394 0.
496.571 304.62 0.
345.578 -48.2825 0.
246.292 -280.377 0.
580.481 -60.424 0.
554.897 -120.996 0.
-838.227 139.585 0.
184.5 413.338 0.
-42.3055 -116.798 0.
91.234 -2.67914 0.
92.8213 0.259442 0.
63.4071 -69.2713 0.
193.069 -107.94 0.
395.204 362.9 0.
416.91 412.762 0.
115.098 -9.95586 0.
-179.021 -696.499 0.
-26.5557 -341.129 0.
82.3263 -184.066 0.
218.425 134.855 0.
13.2414 366.777 0.
-137.004 16.529 0.
-196.717 -122.125 0.
306.726 -27.5443 0.
254.502 -148.821 0.
32.3841 -666.437 0.
-78.1212 -701.967 0.
-11.6216 -547.816 0.
104.043 -278.582 0.
74.1443 496.567 0.
48.6673 436.213 0.
-411.944 66.2499 0.
588.003 693.145 0.
-151.958 -1031.15 0.
-164.281 -476.217 0.
334.414 689.924 0.
-332.133 -863.32 0.
233.458 -136.023 0.
602.107 724.523 0.
713.487 984.764 0.
237.019 419.026 0.
181.803 290.519 0.
298.05 562.077 0.
-11.9385 163.473 0.
-121.46 -92.503 0.
29.2103 -406.753 0.
68.2197 -315.746 0.
37.0989 -388.664 0.
-308.09 -320.967 0.
-317.056 -340.542 0.
-45.9729 293.813 0.
357.05 407.004 0.
301.875 278.96 0.
97.5387 -197.419 0.
-566.087 -391.461 0.
-478.25 -187.655 0.
-8.67683 -266.645 0.
472.721 -74.203 0.
480.18 -57.6665 0.
52.8776 -225.735 0.
67.3347 -192.174 0.
81.7918 -158.613 0.
-146.161 -247.209 0.
-154.237 -266.073 0.
-162.314 -284.936 0.
129.888 -89.7447 0.
189.85 51.606 0.
249.812 192.956 0.
-100.159 -25.531 0.
-149.465 -138.869 0.
-20.7513 -181.655 0.
-115 -401.17 0.
-209.248 -620.685 0.
-211.319 -665.557 0.
-91.8538 -386.278 0.
27.6117 -107 0.
-117.483 -115.895 0.
-163.972 -225.36 0.
-210.461 -334.825 0.
-207.257 -327.748 0.
-190.845 -289.264 0.
506.558 39.7101 0.
42.9427 -61.6825 0.
93.7377 57.1706 0.
303.57 194.88 0.
231.606 28.6114 0.
159.643 -137.657 0.
124.902 -140.479 0.
227.433 99.1127 0.
329.965 338.704 0.
48.3293 324.431 0.
80.7005 398.873 0.
113.072 473.316 0.
434.717 493.93 0.
360.919 321.737 0.
18.9367 26.2134 0.
-90.1968 -230.197 0.
-199.331 -486.608 0.
-106.884 -503.772 0.
24.5829 -199.854 0.
156.05 104.066 0.
120.213 112.294 0.
39.3882 -77.6564 0.
-41.4372 -267.608 0.
121.091 -189.073 0.
151.177 -120.717 0.
-1960.07 -969.669 0.
12.4727 -198.438 0.
-27.2226 -290.292 0.
-29.0885 -307.095 0.
63.0601 -92.5978 0.
155.209 121.899 0.
438.909 269.431 0.
358.379 81.9017 0.
277.849 -105.628 0.
30.8497 -280.023 0.
14.3396 -318.099 0.
-2.17056 -356.176 0.
89.2049 -153.998 0.
188.087 77.6896 0.
80.2782 160.539 0.
-108.267 -278.181 0.
-296.812 -716.901 0.
-155.592 -829.985 0.
-51.9564 -587.522 0.
51.6789 -345.058 0.
132.366 -217.956 0.
134.605 -213.612 0.
136.844 -209.269 0.
5.48443 -288.883 0.
-11.4126 -327.896 0.
-229.401 -451.93 0.
7.2901 -165.189 0.
105.544 64.3675 0.
269.839 273.963 0.
249.028 225.302 0.
228.218 176.64 0.
-28.9705 40.4196 0.
-30.7542 36.892 0.
-32.5373 33.365 0.
172.128 -9.13925 0.
71.3399 -244.274 0.
-29.4484 -479.409 0.
-225.712 -292.587 0.
-58.1522 99.3777 0.
362.428 541.471 0.
284.522 361.388 0.
206.617 181.306 0.
-177.782 -43.5751 0.
-119.229 94.5249 0.
-60.6762 232.624 0.
205.643 308.783 0.
122.853 116.546 0.
40.0637 -75.6916 0.
-122.003 -39.3765 0.
-29.2142 178.119 0.
57.5355 -206.835 0.
605.403 14.6838 0.
612.762 31.2592 0.
223.516 -121.84 0.
238.016 -88.2032 0.
252.515 -54.566 0.
-96.2821 -194.571 0.
-104.033 -213.52 0.
-111.785 -232.469 0.
118.933 -62.6683 0.
179.14 78.5972 0.
239.347 219.862 0.
125.078 101.978 0.
75.7818 -11.282 0.
-1.9889 -142.144 0.
-96.3307 -361.746 0.
-190.672 -581.348 0.
-344.204 -691.048 0.
-224.932 -411.587 0.
-105.659 -132.127 0.
-179.134 -110.925 0.
-225.798 -220.32 0.
-272.462 -329.716 0.
-317.135 -343.954 0.
-300.675 -305.321 0.
1069.43 311.886 0.
75.8032 -14.8929 0.
126.332 104.515 0.
294.847 220.953 0.
222.516 55.12 0.
150.185 -110.712 0.
137.504 -104.077 0.
240.144 135.425 0.
342.785 374.928 0.
-65.9904 307.366 0.
-33.2932 381.456 0.
-0.595913 455.546 0.
761.006 665.885 0.
687.459 493.702 0.
-105.646 3.72066 0.
-214.453 -252.483 0.
-323.26 -508.687 0.
247.721 -319.834 0.
379.509 -15.8486 0.
511.296 288.137 0.
-229.725 -6.45358 0.
-310.557 -196.136 0.
-391.39 -385.819 0.
-356.221 -362.144 0.
-326.091 -293.699 0.
-179.993 -174.617 0.
137.908 -113.05 0.
98.1733 -204.804 0.
-2.78357 -264.641 0.
89.5437 -50.1361 0.
181.871 164.369 0.
557.94 351.734 0.
477.514 164.337 0.
397.088 -23.0604 0.
85.7678 -225.598 0.
69.275 -263.636 0.
52.7821 -301.674 0.
98.6266 -117.082 0.
198.033 113.865 0.
292.515 284.616 0.
104.279 -154.416 0.
-83.9566 -593.447 0.
-287.591 -855.81 0.
-184.127 -613.33 0.
-80.6634 -370.851 0.
154.581 -177.229 0.
156.49 -172.871 0.
158.4 -168.514 0.
353.407 -106.839 0.
336.39 -145.724 0.
-168.777 -394.277 0.
-241.036 -241.988 0.
-142.785 -12.7496 0.
428.622 374.684 0.
408.395 325.6 0.
388.169 276.516 0.
-428.136 -98.5757 0.
-429.978 -101.966 0.
-431.819 -105.356 0.
333.41 90.5169 0.
232.406 -144.519 0.
131.403 -379.554 0.
-230.161 -261.991 0.
-62.8648 130.072 0.
284.527 539.136 0.
206.601 359.127 0.
128.674 179.117 0.
-148.361 -0.193675 0.
-89.4233 137.569 0.
-30.4858 275.331 0.
85.9705 290.421 0.
3.41641 98.1781 0.
-79.1372 -94.0643 0.
255.249 153.038 0.
347.568 371.532 0.
