# vtk DataFile Version 2.0
test grain
ASCII
DATASET UNSTRUCTURED_GRID
POINTS 5000 float
0.499951 0.00100031 0.
0.501953 0.00100035 0.
0.503954 0.00100044 0.
0.505956 0.00100049 0.
0.507956 0.00100042 0.
0.509956 0.00100034 0.
0.511957 0.00100026 0.
0.513958 0.0010002 0.
0.51596 0.00100014 0.
0.517961 0.00100018 0.
0.519962 0.00100029 0.
0.521962 0.00100039 0.
0.523963 0.00100034 0.
0.525963 0.00100027 0.
0.527964 0.00100021 0.
0.529965 0.00100036 0.
0.531965 0.00100051 0.
0.533966 0.00100054 0.
0.535967 0.0010003 0.
0.537968 0.00100007 0.
0.539968 0.00100006 0.
0.541969 0.00100026 0.
0.54397 0.00100046 0.
0.54597 0.00100053 0.
0.547971 0.00100056 0.
0.549971 0.0010006 0.
0.551971 0.00100062 0.
0.553971 0.00100064 0.
0.555971 0.00100063 0.
0.557973 0.00100049 0.
0.559974 0.00100036 0.
0.561975 0.00100029 0.
0.563976 0.00100031 0.
0.565977 0.00100034 0.
0.567978 0.00100029 0.
0.569979 0.00100021 0.
0.571981 0.00100012 0.
0.573982 0.00100007 0.
0.575984 0.00100003 0.
0.577985 0.001 0.
0.579986 0.00100007 0.
0.581987 0.00100013 0.
0.583988 0.00100023 0.
0.585989 0.0010004 0.
0.58799 0.00100057 0.
0.589991 0.00100051 0.
0.591992 0.00100028 0.
0.593993 0.00100005 0.
0.595995 0.00100011 0.
0.597998 0.00100026 0.
0.6 0.00100042 0.
0.602004 0.00100035 0.
0.604007 0.00100028 0.
0.606009 0.00100024 0.
0.60801 0.00100028 0.
0.610011 0.00100032 0.
0.612012 0.00100029 0.
0.614013 0.00100018 0.
0.616015 0.00100006 0.
0.618016 0.00100011 0.
0.620017 0.00100024 0.
0.622018 0.00100037 0.
0.624019 0.00100034 0.
0.62602 0.0010003 0.
0.628021 0.00100026 0.
0.630022 0.0010002 0.
0.632023 0.00100014 0.
0.634025 0.00100014 0.
0.636025 0.00100026 0.
0.638026 0.00100039 0.
0.640027 0.00100041 0.
0.642028 0.00100036 0.
0.644028 0.0010003 0.
0.646028 0.00100044 0.
0.648028 0.00100062 0.
0.650028 0.0010008 0.
0.652029 0.00100058 0.
0.654029 0.00100036 0.
0.65603 0.00100018 0.
0.658031 0.00100015 0.
0.660032 0.00100011 0.
0.662034 0.00100011 0.
0.664035 0.00100014 0.
0.666036 0.00100018 0.
0.668037 0.00100025 0.
0.670037 0.00100033 0.
0.672038 0.00100041 0.
0.674039 0.0010004 0.
0.67604 0.00100038 0.
0.678041 0.00100038 0.
0.680041 0.00100047 0.
0.682042 0.00100056 0.
0.684042 0.0010006 0.
0.686044 0.00100052 0.
0.688045 0.00100044 0.
0.690046 0.00100044 0.
0.692046 0.0010005 0.
0.694047 0.00100056 0.
0.696047 0.00100049 0.
0.698048 0.00100038 0.
0.499952 0.00300093 0.
0.501953 0.00300106 0.
0.503955 0.00300132 0.
0.505956 0.00300148 0.
0.507957 0.00300125 0.
0.509957 0.00300101 0.
0.511958 0.00300079 0.
0.513959 0.0030006 0.
0.51596 0.00300041 0.
0.517961 0.00300055 0.
0.519962 0.00300087 0.
0.521963 0.00300118 0.
0.523963 0.00300103 0.
0.525963 0.0030008 0.
0.527964 0.00300064 0.
0.529964 0.00300109 0.
0.531965 0.00300154 0.
0.533966 0.00300162 0.
0.535967 0.00300091 0.
0.537968 0.0030002 0.
0.539968 0.00300019 0.
0.541969 0.00300078 0.
0.54397 0.00300137 0.
0.545971 0.00300158 0.
0.547971 0.00300168 0.
0.549972 0.00300178 0.
0.551972 0.00300185 0.
0.553971 0.00300191 0.
0.555972 0.00300188 0.
0.557973 0.00300148 0.
0.559974 0.00300108 0.
0.561975 0.00300088 0.
0.563976 0.00300095 0.
0.565977 0.00300101 0.
0.567979 0.00300087 0.
0.56998 0.00300062 0.
0.571981 0.00300037 0.
0.573983 0.00300022 0.
0.575984 0.0030001 0.
0.577985 0.003 0.
0.579986 0.0030002 0.
0.581988 0.00300039 0.
0.583989 0.00300069 0.
0.585989 0.00300119 0.
0.58799 0.0030017 0.
0.589991 0.00300154 0.
0.591992 0.00300084 0.
0.593993 0.00300015 0.
0.595996 0.00300034 0.
0.597998 0.00300079 0.
0.6 0.00300125 0.
0.602003 0.00300105 0.
0.604006 0.00300085 0.
0.606009 0.00300072 0.
0.60801 0.00300083 0.
0.610011 0.00300095 0.
0.612012 0.00300086 0.
0.614013 0.00300053 0.
0.616014 0.00300019 0.
0.618016 0.00300034 0.
0.620017 0.00300072 0.
0.622018 0.00300111 0.
0.624019 0.00300103 0.
0.62602 0.00300091 0.
0.628021 0.00300078 0.
0.630022 0.00300059 0.
0.632023 0.0030004 0.
0.634025 0.00300041 0.
0.636025 0.00300079 0.
0.638026 0.00300117 0.
0.640027 0.00300124 0.
0.642028 0.00300107 0.
0.644029 0.00300091 0.
0.646029 0.00300131 0.
0.648029 0.00300187 0.
0.650029 0.00300241 0.
0.652029 0.00300174 0.
0.65403 0.00300108 0.
0.65603 0.00300055 0.
0.658032 0.00300044 0.
0.660033 0.00300033 0.
0.662034 0.00300033 0.
0.664035 0.00300043 0.
0.666037 0.00300054 0.
0.668037 0.00300074 0.
0.670038 0.00300099 0.
0.672039 0.00300124 0.
0.674039 0.0030012 0.
0.67604 0.00300114 0.
0.678041 0.00300113 0.
0.680041 0.00300141 0.
0.682042 0.00300169 0.
0.684042 0.00300179 0.
0.686043 0.00300155 0.
0.688044 0.00300131 0.
0.690045 0.00300131 0.
0.692046 0.00300149 0.
0.694046 0.00300167 0.
0.696047 0.00300146 0.
0.698048 0.00300115 0.
0.499953 0.00500152 0.
0.501954 0.00500177 0.
0.503955 0.0050022 0.
0.505956 0.00500247 0.
0.507957 0.00500208 0.
0.509958 0.00500168 0.
0.511959 0.00500132 0.
0.51396 0.005001 0.
0.515961 0.00500069 0.
0.517962 0.00500092 0.
0.519963 0.00500144 0.
0.521964 0.00500197 0.
0.523964 0.00500171 0.
0.525963 0.00500134 0.
0.527963 0.00500107 0.
0.529964 0.00500182 0.
0.531965 0.00500256 0.
0.533966 0.0050027 0.
0.535967 0.00500152 0.
0.537968 0.00500033 0.
0.539968 0.00500031 0.
0.541969 0.00500129 0.
0.54397 0.00500228 0.
0.545971 0.00500263 0.
0.547972 0.0050028 0.
0.549972 0.00500297 0.
0.551972 0.00500307 0.
0.553972 0.00500318 0.
0.555972 0.00500313 0.
0.557973 0.00500246 0.
0.559974 0.0050018 0.
0.561975 0.00500147 0.
0.563977 0.00500158 0.
0.565978 0.00500168 0.
0.567979 0.00500144 0.
0.569981 0.00500103 0.
0.571982 0.00500061 0.
0.573983 0.00500037 0.
0.575984 0.00500016 0.
0.577985 0.005 0.
0.579987 0.00500032 0.
0.581988 0.00500065 0.
0.58399 0.00500114 0.
0.58599 0.00500199 0.
0.58799 0.00500283 0.
0.589991 0.00500256 0.
0.591993 0.0050014 0.
0.593994 0.00500024 0.
0.595996 0.00500057 0.
0.597998 0.00500132 0.
0.6 0.00500208 0.
0.602003 0.00500174 0.
0.604006 0.00500141 0.
0.606008 0.0050012 0.
0.608009 0.00500139 0.
0.61001 0.00500158 0.
0.612011 0.00500143 0.
0.614012 0.00500088 0.
0.616014 0.00500032 0.
0.618015 0.00500056 0.
0.620017 0.0050012 0.
0.622018 0.00500184 0.
0.624019 0.00500172 0.
0.62602 0.00500152 0.
0.628021 0.0050013 0.
0.630022 0.00500098 0.
0.632023 0.00500067 0.
0.634025 0.00500068 0.
0.636025 0.00500131 0.
0.638026 0.00500194 0.
0.640027 0.00500206 0.
0.642028 0.00500178 0.
0.64403 0.0050015 0.
0.64603 0.00500219 0.
0.648029 0.00500312 0.
0.650029 0.00500401 0.
0.65203 0.0050029 0.
0.65403 0.00500179 0.
0.656031 0.00500091 0.
0.658032 0.00500074 0.
0.660033 0.00500056 0.
0.662034 0.00500054 0.
0.664036 0.00500072 0.
0.666037 0.00500089 0.
0.668038 0.00500123 0.
0.670039 0.00500165 0.
0.67204 0.00500206 0.
0.67404 0.005002 0.
0.67604 0.0050019 0.
0.67804 0.00500189 0.
0.680041 0.00500236 0.
0.682042 0.00500282 0.
0.684043 0.00500298 0.
0.686043 0.00500258 0.
0.688044 0.00500218 0.
0.690045 0.00500218 0.
0.692045 0.00500248 0.
0.694046 0.00500279 0.
0.696047 0.00500244 0.
0.698048 0.00500192 0.
0.499954 0.00700365 0.
0.501955 0.00700355 0.
0.503956 0.00700359 0.
0.505957 0.00700365 0.
0.507958 0.00700379 0.
0.509959 0.00700393 0.
0.511959 0.00700404 0.
0.51396 0.0070041 0.
0.515961 0.00700417 0.
0.517962 0.00700449 0.
0.519963 0.00700494 0.
0.521963 0.0070054 0.
0.523964 0.00700537 0.
0.525964 0.00700528 0.
0.527964 0.00700524 0.
0.529965 0.00700574 0.
0.531965 0.00700623 0.
0.533966 0.00700645 0.
0.535967 0.00700604 0.
0.537967 0.00700563 0.
0.539968 0.00700555 0.
0.541968 0.00700573 0.
0.543969 0.00700591 0.
0.54597 0.00700609 0.
0.547971 0.00700627 0.
0.549972 0.00700646 0.
0.551972 0.00700657 0.
0.553973 0.00700668 0.
0.555973 0.00700673 0.
0.557974 0.00700655 0.
0.559975 0.00700637 0.
0.561976 0.00700622 0.
0.563977 0.0070061 0.
0.565978 0.00700598 0.
0.567979 0.00700593 0.
0.56998 0.00700593 0.
0.571981 0.00700592 0.
0.573983 0.00700548 0.
0.575984 0.00700496 0.
0.577985 0.00700452 0.
0.579987 0.0070047 0.
0.581988 0.00700488 0.
0.583989 0.00700516 0.
0.58599 0.00700562 0.
0.58799 0.00700608 0.
0.589991 0.00700598 0.
0.591993 0.00700542 0.
0.593994 0.00700486 0.
0.595996 0.00700509 0.
0.597998 0.00700554 0.
0.6 0.00700599 0.
0.602003 0.00700587 0.
0.604006 0.00700576 0.
0.606008 0.00700567 0.
0.608009 0.00700565 0.
0.61001 0.00700563 0.
0.612011 0.00700542 0.
0.614012 0.00700497 0.
0.616013 0.00700453 0.
0.618015 0.00700449 0.
0.620016 0.00700467 0.
0.622017 0.00700484 0.
0.624019 0.00700505 0.
0.62602 0.00700526 0.
0.628021 0.00700546 0.
0.630022 0.00700561 0.
0.632023 0.00700577 0.
0.634025 0.00700595 0.
0.636025 0.0070062 0.
0.638026 0.00700645 0.
0.640027 0.00700655 0.
0.642028 0.00700652 0.
0.644028 0.00700649 0.
0.646029 0.00700671 0.
0.648029 0.00700699 0.
0.650029 0.00700726 0.
0.65203 0.00700675 0.
0.654031 0.00700624 0.
0.656032 0.00700579 0.
0.658033 0.00700556 0.
0.660033 0.00700533 0.
0.662034 0.00700521 0.
0.664036 0.00700525 0.
0.666037 0.00700528 0.
0.668038 0.00700533 0.
0.670038 0.00700539 0.
0.672039 0.00700545 0.
0.67404 0.00700542 0.
0.67604 0.00700539 0.
0.678041 0.00700536 0.
0.680042 0.00700532 0.
0.682042 0.00700529 0.
0.684043 0.00700516 0.
0.686043 0.00700488 0.
0.688044 0.00700459 0.
0.690044 0.00700444 0.
0.692045 0.00700438 0.
0.694046 0.00700433 0.
0.696047 0.00700437 0.
0.698047 0.00700445 0.
0.499956 0.00900581 0.
0.501957 0.00900532 0.
0.503957 0.00900498 0.
0.505958 0.00900484 0.
0.507958 0.00900551 0.
0.509959 0.00900618 0.
0.51196 0.00900676 0.
0.513961 0.00900721 0.
0.515961 0.00900765 0.
0.517962 0.00900806 0.
0.519962 0.00900844 0.
0.521963 0.00900882 0.
0.523963 0.00900904 0.
0.525964 0.00900922 0.
0.527965 0.00900941 0.
0.529965 0.00900966 0.
0.531965 0.0090099 0.
0.533966 0.00901019 0.
0.535966 0.00901057 0.
0.537966 0.00901094 0.
0.539967 0.00901078 0.
0.541967 0.00901016 0.
0.543968 0.00900954 0.
0.545969 0.00900955 0.
0.547971 0.00900975 0.
0.549972 0.00900994 0.
0.551973 0.00901006 0.
0.553973 0.00901019 0.
0.555974 0.00901034 0.
0.557975 0.00901064 0.
0.559976 0.00901095 0.
0.561977 0.00901096 0.
0.563977 0.00901062 0.
0.565978 0.00901028 0.
0.567979 0.00901042 0.
0.56998 0.00901082 0.
0.571981 0.00901123 0.
0.573982 0.00901058 0.
0.575984 0.00900977 0.
0.577985 0.00900905 0.
0.579987 0.00900909 0.
0.581988 0.00900913 0.
0.583989 0.00900918 0.
0.58599 0.00900926 0.
0.587991 0.00900934 0.
0.589992 0.00900939 0.
0.591993 0.00900944 0.
0.593995 0.00900948 0.
0.595997 0.00900962 0.
0.597998 0.00900976 0.
0.6 0.0090099 0.
0.602003 0.00901 0.
0.604006 0.00901011 0.
0.606009 0.00901015 0.
0.60801 0.00900992 0.
0.610011 0.00900968 0.
0.612012 0.0090094 0.
0.614012 0.00900907 0.
0.616013 0.00900874 0.
0.618014 0.00900842 0.
0.620015 0.00900813 0.
0.622017 0.00900785 0.
0.624018 0.00900838 0.
0.626019 0.009009 0.
0.628021 0.00900963 0.
0.630022 0.00901024 0.
0.632023 0.00901086 0.
0.634025 0.00901122 0.
0.636025 0.00901109 0.
0.638026 0.00901096 0.
0.640027 0.00901104 0.
0.642027 0.00901126 0.
0.644027 0.00901148 0.
0.646028 0.00901124 0.
0.648029 0.00901088 0.
0.65003 0.00901052 0.
0.652031 0.0090106 0.
0.654032 0.00901068 0.
0.656033 0.00901067 0.
0.658033 0.00901038 0.
0.660034 0.00901009 0.
0.662034 0.00900988 0.
0.664035 0.00900977 0.
0.666036 0.00900966 0.
0.668037 0.00900943 0.
0.670038 0.00900913 0.
0.672038 0.00900883 0.
0.674039 0.00900885 0.
0.676041 0.00900889 0.
0.678042 0.00900883 0.
0.680042 0.00900829 0.
0.682042 0.00900775 0.
0.684043 0.00900735 0.
0.686043 0.00900718 0.
0.688043 0.00900701 0.
0.690044 0.00900669 0.
0.692044 0.00900628 0.
0.694045 0.00900588 0.
0.696046 0.00900631 0.
0.698047 0.00900697 0.
0.499957 0.0110073 0.
0.501957 0.0110067 0.
0.503958 0.0110062 0.
0.505958 0.0110059 0.
0.507959 0.0110068 0.
0.509959 0.0110076 0.
0.51196 0.0110084 0.
0.51396 0.011009 0.
0.515961 0.0110096 0.
0.517962 0.0110101 0.
0.519962 0.0110105 0.
0.521963 0.0110109 0.
0.523963 0.0110113 0.
0.525964 0.0110116 0.
0.527964 0.0110118 0.
0.529965 0.0110118 0.
0.531965 0.0110118 0.
0.533965 0.0110121 0.
0.535966 0.0110129 0.
0.537966 0.0110137 0.
0.539966 0.0110136 0.
0.541967 0.0110127 0.
0.543968 0.0110119 0.
0.545969 0.0110118 0.
0.54797 0.0110119 0.
0.549971 0.011012 0.
0.551972 0.0110122 0.
0.553973 0.0110124 0.
0.555974 0.0110126 0.
0.557975 0.0110131 0.
0.559976 0.0110136 0.
0.561977 0.0110137 0.
0.563977 0.0110133 0.
0.565977 0.011013 0.
0.567978 0.0110131 0.
0.569979 0.0110134 0.
0.57198 0.0110137 0.
0.573982 0.011013 0.
0.575983 0.0110122 0.
0.577985 0.0110115 0.
0.579986 0.0110114 0.
0.581988 0.0110113 0.
0.583989 0.0110112 0.
0.58599 0.0110111 0.
0.587991 0.011011 0.
0.589992 0.0110111 0.
0.591994 0.0110114 0.
0.593995 0.0110117 0.
0.595997 0.0110118 0.
0.597999 0.0110119 0.
0.600001 0.011012 0.
0.602003 0.011012 0.
0.604006 0.0110121 0.
0.606008 0.0110121 0.
0.60801 0.0110118 0.
0.610011 0.0110116 0.
0.612012 0.0110114 0.
0.614012 0.0110113 0.
0.616013 0.0110112 0.
0.618014 0.0110107 0.
0.620015 0.0110102 0.
0.622017 0.0110096 0.
0.624018 0.0110103 0.
0.626019 0.0110111 0.
0.628021 0.011012 0.
0.630022 0.0110128 0.
0.632023 0.0110136 0.
0.634025 0.011014 0.
0.636025 0.0110137 0.
0.638026 0.0110134 0.
0.640027 0.0110135 0.
0.642027 0.0110138 0.
0.644027 0.0110142 0.
0.646028 0.0110137 0.
0.648029 0.011013 0.
0.65003 0.0110124 0.
0.652031 0.0110128 0.
0.654032 0.0110132 0.
0.656033 0.0110134 0.
0.658034 0.0110131 0.
0.660034 0.0110128 0.
0.662035 0.0110125 0.
0.664035 0.0110123 0.
0.666036 0.0110122 0.
0.668037 0.0110118 0.
0.670038 0.0110114 0.
0.672038 0.0110109 0.
0.674039 0.011011 0.
0.676041 0.0110111 0.
0.678042 0.0110111 0.
0.680042 0.0110104 0.
0.682042 0.0110097 0.
0.684043 0.0110091 0.
0.686043 0.0110089 0.
0.688043 0.0110087 0.
0.690044 0.0110083 0.
0.692045 0.0110077 0.
0.694045 0.0110071 0.
0.696046 0.0110075 0.
0.698047 0.0110082 0.
0.499956 0.0130082 0.
0.501957 0.0130076 0.
0.503957 0.0130071 0.
0.505958 0.0130069 0.
0.507958 0.0130075 0.
0.509959 0.0130082 0.
0.511959 0.0130088 0.
0.51396 0.0130095 0.
0.515961 0.0130101 0.
0.517961 0.0130107 0.
0.519962 0.0130112 0.
0.521963 0.0130117 0.
0.523963 0.013012 0.
0.525963 0.0130123 0.
0.527963 0.0130125 0.
0.529964 0.0130123 0.
0.531964 0.013012 0.
0.533965 0.0130122 0.
0.535966 0.013013 0.
0.537966 0.0130139 0.
0.539967 0.013014 0.
0.541967 0.0130135 0.
0.543968 0.0130129 0.
0.545969 0.0130127 0.
0.547969 0.0130126 0.
0.54997 0.0130126 0.
0.551971 0.0130129 0.
0.553972 0.0130132 0.
0.555973 0.0130136 0.
0.557974 0.0130139 0.
0.559975 0.0130142 0.
0.561976 0.0130144 0.
0.563976 0.0130142 0.
0.565977 0.0130141 0.
0.567978 0.0130138 0.
0.569979 0.0130135 0.
0.571981 0.0130133 0.
0.573982 0.0130128 0.
0.575983 0.0130123 0.
0.577985 0.0130118 0.
0.579986 0.0130117 0.
0.581988 0.0130116 0.
0.58399 0.0130114 0.
0.585991 0.0130112 0.
0.587992 0.013011 0.
0.589993 0.013011 0.
0.591995 0.0130113 0.
0.593996 0.0130115 0.
0.595998 0.0130118 0.
0.597999 0.013012 0.
0.600001 0.0130123 0.
0.602003 0.013012 0.
0.604005 0.0130117 0.
0.606007 0.0130114 0.
0.608009 0.0130114 0.
0.61001 0.0130113 0.
0.612012 0.0130113 0.
0.614013 0.0130116 0.
0.616013 0.0130118 0.
0.618015 0.0130115 0.
0.620016 0.0130108 0.
0.622017 0.0130102 0.
0.624019 0.0130109 0.
0.62602 0.0130117 0.
0.628021 0.0130125 0.
0.630022 0.0130132 0.
0.632024 0.013014 0.
0.634025 0.0130144 0.
0.636025 0.0130141 0.
0.638026 0.0130138 0.
0.640027 0.0130138 0.
0.642027 0.0130142 0.
0.644028 0.0130145 0.
0.646029 0.0130141 0.
0.64803 0.0130135 0.
0.650031 0.0130129 0.
0.652032 0.0130134 0.
0.654033 0.0130139 0.
0.656034 0.0130141 0.
0.658034 0.0130137 0.
0.660035 0.0130133 0.
0.662035 0.013013 0.
0.664036 0.0130129 0.
0.666037 0.0130128 0.
0.668037 0.0130125 0.
0.670038 0.0130121 0.
0.672039 0.0130117 0.
0.67404 0.0130119 0.
0.676041 0.0130122 0.
0.678042 0.0130123 0.
0.680042 0.0130117 0.
0.682042 0.013011 0.
0.684042 0.0130105 0.
0.686043 0.0130101 0.
0.688044 0.0130097 0.
0.690045 0.0130092 0.
0.692046 0.0130086 0.
0.694046 0.013008 0.
0.696047 0.0130079 0.
0.698048 0.013008 0.
0.499956 0.0150091 0.
0.501956 0.0150086 0.
0.503957 0.0150081 0.
0.505958 0.0150079 0.
0.507958 0.0150083 0.
0.509958 0.0150088 0.
0.511959 0.0150093 0.
0.513959 0.01501 0.
0.51596 0.0150106 0.
0.517961 0.0150112 0.
0.519962 0.0150119 0.
0.521963 0.0150125 0.
0.523962 0.0150128 0.
0.525962 0.015013 0.
0.527962 0.0150131 0.
0.529963 0.0150127 0.
0.531964 0.0150122 0.
0.533965 0.0150122 0.
0.535966 0.0150132 0.
0.537967 0.0150141 0.
0.539967 0.0150144 0.
0.541968 0.0150142 0.
0.543968 0.0150139 0.
0.545969 0.0150137 0.
0.547969 0.0150134 0.
0.549969 0.0150132 0.
0.55197 0.0150136 0.
0.553971 0.0150141 0.
0.555972 0.0150145 0.
0.557973 0.0150147 0.
0.559974 0.0150149 0.
0.561975 0.015015 0.
0.563976 0.0150151 0.
0.565976 0.0150152 0.
0.567978 0.0150146 0.
0.569979 0.0150137 0.
0.571981 0.0150128 0.
0.573982 0.0150126 0.
0.575983 0.0150124 0.
0.577985 0.0150122 0.
0.579986 0.015012 0.
0.581988 0.0150118 0.
0.58399 0.0150115 0.
0.585991 0.0150113 0.
0.587993 0.015011 0.
0.589994 0.015011 0.
0.591996 0.0150111 0.
0.593997 0.0150113 0.
0.595999 0.0150117 0.
0.598 0.0150122 0.
0.600001 0.0150126 0.
0.602003 0.0150119 0.
0.604004 0.0150113 0.
0.606006 0.0150108 0.
0.608008 0.0150109 0.
0.61001 0.015011 0.
0.612012 0.0150113 0.
0.614013 0.0150119 0.
0.616014 0.0150124 0.
0.618015 0.0150122 0.
0.620017 0.0150115 0.
0.622018 0.0150107 0.
0.624019 0.0150114 0.
0.62602 0.0150122 0.
0.628021 0.015013 0.
0.630023 0.0150137 0.
0.632024 0.0150144 0.
0.634025 0.0150147 0.
0.636026 0.0150144 0.
0.638026 0.0150141 0.
0.640027 0.0150142 0.
0.642028 0.0150145 0.
0.644029 0.0150149 0.
0.64603 0.0150145 0.
0.648031 0.015014 0.
0.650032 0.0150134 0.
0.652032 0.015014 0.
0.654033 0.0150145 0.
0.656034 0.0150148 0.
0.658035 0.0150144 0.
0.660036 0.0150139 0.
0.662036 0.0150136 0.
0.664037 0.0150135 0.
0.666037 0.0150134 0.
0.668038 0.0150132 0.
0.670039 0.0150128 0.
0.67204 0.0150125 0.
0.67404 0.0150128 0.
0.676041 0.0150132 0.
0.678041 0.0150134 0.
0.680041 0.0150129 0.
0.682042 0.0150124 0.
0.684042 0.0150118 0.
0.686044 0.0150113 0.
0.688045 0.0150108 0.
0.690046 0.0150102 0.
0.692047 0.0150095 0.
0.694047 0.0150088 0.
0.696048 0.0150083 0.
0.698048 0.0150079 0.
0.499955 0.0170101 0.
0.501956 0.0170097 0.
0.503957 0.0170093 0.
0.505957 0.017009 0.
0.507958 0.0170094 0.
0.509958 0.0170098 0.
0.511959 0.0170102 0.
0.51396 0.0170106 0.
0.51596 0.017011 0.
0.517961 0.0170118 0.
0.519962 0.0170127 0.
0.521962 0.0170137 0.
0.523962 0.0170139 0.
0.525962 0.017014 0.
0.527962 0.0170141 0.
0.529963 0.0170139 0.
0.531964 0.0170138 0.
0.533965 0.0170138 0.
0.535966 0.0170142 0.
0.537966 0.0170146 0.
0.539967 0.0170147 0.
0.541968 0.0170147 0.
0.543968 0.0170147 0.
0.545969 0.0170146 0.
0.547969 0.0170144 0.
0.54997 0.0170142 0.
0.55197 0.0170145 0.
0.553971 0.0170147 0.
0.555972 0.017015 0.
0.557973 0.0170153 0.
0.559974 0.0170156 0.
0.561975 0.0170158 0.
0.563976 0.0170158 0.
0.565977 0.0170158 0.
0.567978 0.0170154 0.
0.569979 0.0170149 0.
0.57198 0.0170145 0.
0.573982 0.0170139 0.
0.575983 0.0170133 0.
0.577985 0.0170128 0.
0.579986 0.0170124 0.
0.581988 0.0170121 0.
0.583989 0.0170118 0.
0.585991 0.0170116 0.
0.587992 0.0170115 0.
0.589994 0.0170114 0.
0.591995 0.0170113 0.
0.593997 0.0170113 0.
0.595998 0.0170117 0.
0.598 0.0170122 0.
0.600001 0.0170127 0.
0.602003 0.0170122 0.
0.604004 0.0170117 0.
0.606006 0.0170113 0.
0.608008 0.0170116 0.
0.61001 0.0170119 0.
0.612012 0.0170121 0.
0.614013 0.0170121 0.
0.616014 0.0170122 0.
0.618015 0.017012 0.
0.620017 0.0170117 0.
0.622018 0.0170114 0.
0.624019 0.017012 0.
0.62602 0.0170128 0.
0.628021 0.0170136 0.
0.630022 0.0170143 0.
0.632024 0.017015 0.
0.634025 0.0170153 0.
0.636026 0.0170151 0.
0.638026 0.0170149 0.
0.640027 0.0170151 0.
0.642028 0.0170155 0.
0.644029 0.017016 0.
0.64603 0.0170156 0.
0.648031 0.0170151 0.
0.650032 0.0170146 0.
0.652033 0.0170149 0.
0.654033 0.0170151 0.
0.656034 0.0170151 0.
0.658035 0.0170147 0.
0.660035 0.0170143 0.
0.662036 0.0170141 0.
0.664037 0.0170143 0.
0.666037 0.0170145 0.
0.668038 0.0170144 0.
0.670039 0.0170143 0.
0.672039 0.0170142 0.
0.67404 0.017014 0.
0.67604 0.0170138 0.
0.678041 0.0170136 0.
0.680041 0.0170133 0.
0.682042 0.0170131 0.
0.684042 0.0170127 0.
0.686044 0.017012 0.
0.688045 0.0170114 0.
0.690046 0.0170109 0.
0.692047 0.0170105 0.
0.694047 0.01701 0.
0.696048 0.0170095 0.
0.698048 0.0170091 0.
0.499954 0.019011 0.
0.501955 0.0190108 0.
0.503956 0.0190104 0.
0.505957 0.0190101 0.
0.507958 0.0190105 0.
0.509959 0.0190108 0.
0.511959 0.0190111 0.
0.51396 0.0190113 0.
0.51596 0.0190115 0.
0.517961 0.0190123 0.
0.519961 0.0190136 0.
0.521962 0.0190149 0.
0.523962 0.019015 0.
0.525962 0.0190151 0.
0.527963 0.0190151 0.
0.529963 0.0190152 0.
0.531964 0.0190153 0.
0.533965 0.0190154 0.
0.535965 0.0190152 0.
0.537966 0.019015 0.
0.539966 0.019015 0.
0.541967 0.0190152 0.
0.543968 0.0190154 0.
0.545969 0.0190154 0.
0.54797 0.0190153 0.
0.549971 0.0190153 0.
0.551971 0.0190153 0.
0.553971 0.0190153 0.
0.555971 0.0190154 0.
0.557972 0.0190159 0.
0.559973 0.0190164 0.
0.561974 0.0190166 0.
0.563976 0.0190165 0.
0.565977 0.0190164 0.
0.567978 0.0190163 0.
0.569979 0.0190162 0.
0.57198 0.0190161 0.
0.573982 0.0190153 0.
0.575984 0.0190143 0.
0.577985 0.0190134 0.
0.579987 0.0190129 0.
0.581988 0.0190124 0.
0.583989 0.019012 0.
0.585991 0.019012 0.
0.587992 0.0190121 0.
0.589993 0.0190119 0.
0.591995 0.0190115 0.
0.593996 0.0190112 0.
0.595998 0.0190116 0.
0.598 0.0190122 0.
0.600001 0.0190129 0.
0.602003 0.0190125 0.
0.604004 0.0190121 0.
0.606006 0.0190119 0.
0.608008 0.0190124 0.
0.610011 0.0190128 0.
0.612012 0.0190129 0.
0.614013 0.0190124 0.
0.616014 0.0190119 0.
0.618016 0.0190118 0.
0.620017 0.0190119 0.
0.622018 0.019012 0.
0.624019 0.0190127 0.
0.62602 0.0190135 0.
0.62802 0.0190142 0.
0.630022 0.0190149 0.
0.632023 0.0190156 0.
0.634025 0.019016 0.
0.636026 0.0190158 0.
0.638027 0.0190157 0.
0.640028 0.0190159 0.
0.642029 0.0190165 0.
0.644029 0.019017 0.
0.646031 0.0190168 0.
0.648032 0.0190163 0.
0.650033 0.0190158 0.
0.652033 0.0190157 0.
0.654033 0.0190156 0.
0.656034 0.0190155 0.
0.658034 0.0190151 0.
0.660035 0.0190147 0.
0.662036 0.0190147 0.
0.664036 0.0190151 0.
0.666037 0.0190155 0.
0.668038 0.0190157 0.
0.670038 0.0190158 0.
0.672039 0.0190159 0.
0.674039 0.0190152 0.
0.67604 0.0190144 0.
0.67804 0.0190137 0.
0.680041 0.0190137 0.
0.682042 0.0190137 0.
0.684043 0.0190135 0.
0.686044 0.0190128 0.
0.688045 0.0190121 0.
0.690046 0.0190116 0.
0.692046 0.0190114 0.
0.694047 0.0190112 0.
0.696047 0.0190107 0.
0.698047 0.0190102 0.
0.499954 0.0210118 0.
0.501955 0.0210116 0.
0.503956 0.0210112 0.
0.505957 0.021011 0.
0.507958 0.0210113 0.
0.509958 0.0210117 0.
0.511959 0.021012 0.
0.51396 0.0210121 0.
0.51596 0.0210122 0.
0.51796 0.0210131 0.
0.519961 0.0210144 0.
0.521961 0.0210157 0.
0.523962 0.0210158 0.
0.525962 0.0210158 0.
0.527963 0.0210157 0.
0.529964 0.021016 0.
0.531964 0.0210163 0.
0.533965 0.0210164 0.
0.535965 0.021016 0.
0.537965 0.0210157 0.
0.539966 0.0210156 0.
0.541967 0.0210157 0.
0.543968 0.0210158 0.
0.545969 0.021016 0.
0.54797 0.0210162 0.
0.549971 0.0210164 0.
0.551971 0.0210162 0.
0.553971 0.021016 0.
0.555971 0.0210159 0.
0.557972 0.0210165 0.
0.559973 0.021017 0.
0.561974 0.0210172 0.
0.563976 0.021017 0.
0.565977 0.0210168 0.
0.567978 0.0210167 0.
0.569979 0.0210167 0.
0.57198 0.0210167 0.
0.573982 0.0210158 0.
0.575983 0.0210147 0.
0.577985 0.0210136 0.
0.579986 0.0210131 0.
0.581988 0.0210125 0.
0.583989 0.0210122 0.
0.58599 0.0210121 0.
0.587992 0.0210121 0.
0.589993 0.0210119 0.
0.591995 0.0210117 0.
0.593996 0.0210114 0.
0.595998 0.0210117 0.
0.597999 0.0210122 0.
0.600001 0.0210127 0.
0.602003 0.0210125 0.
0.604005 0.0210123 0.
0.606007 0.0210122 0.
0.608009 0.0210125 0.
0.610011 0.0210129 0.
0.612012 0.0210129 0.
0.614013 0.0210124 0.
0.616015 0.0210119 0.
0.618016 0.0210119 0.
0.620017 0.0210123 0.
0.622018 0.0210126 0.
0.624019 0.0210133 0.
0.62602 0.0210141 0.
0.62802 0.0210148 0.
0.630022 0.0210154 0.
0.632023 0.0210161 0.
0.634025 0.0210164 0.
0.636026 0.0210164 0.
0.638027 0.0210163 0.
0.640028 0.0210166 0.
0.642029 0.0210171 0.
0.64403 0.0210177 0.
0.646031 0.0210174 0.
0.648032 0.021017 0.
0.650033 0.0210166 0.
0.652033 0.0210163 0.
0.654033 0.021016 0.
0.656034 0.0210158 0.
0.658035 0.0210155 0.
0.660035 0.0210153 0.
0.662036 0.0210154 0.
0.664037 0.0210159 0.
0.666037 0.0210164 0.
0.668038 0.0210166 0.
0.670039 0.0210168 0.
0.672039 0.0210169 0.
0.674039 0.0210161 0.
0.67604 0.0210151 0.
0.67804 0.0210142 0.
0.680041 0.0210143 0.
0.682042 0.0210144 0.
0.684043 0.0210142 0.
0.686044 0.0210135 0.
0.688045 0.0210129 0.
0.690046 0.0210125 0.
0.692046 0.0210123 0.
0.694047 0.0210121 0.
0.696047 0.0210118 0.
0.698047 0.0210114 0.
0.499954 0.0230124 0.
0.501955 0.0230121 0.
0.503955 0.0230117 0.
0.505956 0.0230114 0.
0.507957 0.0230119 0.
0.509958 0.0230124 0.
0.511958 0.0230127 0.
0.513959 0.0230129 0.
0.51596 0.0230131 0.
0.51796 0.0230139 0.
0.519961 0.0230151 0.
0.521961 0.0230163 0.
0.523961 0.0230163 0.
0.525962 0.0230162 0.
0.527963 0.0230161 0.
0.529963 0.0230164 0.
0.531964 0.0230168 0.
0.533965 0.023017 0.
0.535965 0.0230167 0.
0.537965 0.0230165 0.
0.539966 0.0230162 0.
0.541967 0.0230161 0.
0.543968 0.0230159 0.
0.545969 0.0230163 0.
0.547969 0.0230169 0.
0.54997 0.0230174 0.
0.55197 0.0230171 0.
0.553971 0.0230167 0.
0.555972 0.0230165 0.
0.557973 0.023017 0.
0.559974 0.0230175 0.
0.561974 0.0230177 0.
0.563975 0.0230174 0.
0.565976 0.023017 0.
0.567978 0.0230168 0.
0.569979 0.0230166 0.
0.57198 0.0230164 0.
0.573981 0.0230155 0.
0.575983 0.0230144 0.
0.577984 0.0230135 0.
0.579986 0.0230131 0.
0.581987 0.0230126 0.
0.583989 0.0230122 0.
0.58599 0.0230119 0.
0.587992 0.0230116 0.
0.589993 0.0230115 0.
0.591995 0.0230117 0.
0.593996 0.0230118 0.
0.595998 0.023012 0.
0.598 0.0230121 0.
0.600001 0.0230122 0.
0.602003 0.0230122 0.
0.604005 0.0230123 0.
0.606007 0.0230123 0.
0.608009 0.0230122 0.
0.610011 0.0230121 0.
0.612012 0.0230121 0.
0.614013 0.0230121 0.
0.616014 0.0230121 0.
0.618016 0.0230124 0.
0.620017 0.0230129 0.
0.622018 0.0230133 0.
0.624019 0.0230139 0.
0.62602 0.0230146 0.
0.628021 0.0230153 0.
0.630022 0.0230159 0.
0.632023 0.0230164 0.
0.634025 0.0230168 0.
0.636026 0.0230168 0.
0.638028 0.0230168 0.
0.640029 0.0230171 0.
0.642029 0.0230175 0.
0.64403 0.0230179 0.
0.646031 0.0230177 0.
0.648032 0.0230172 0.
0.650032 0.0230168 0.
0.652033 0.0230165 0.
0.654034 0.0230163 0.
0.656034 0.0230161 0.
0.658035 0.0230161 0.
0.660035 0.0230161 0.
0.662036 0.0230163 0.
0.664037 0.0230167 0.
0.666038 0.0230171 0.
0.668039 0.0230173 0.
0.670039 0.0230173 0.
0.67204 0.0230173 0.
0.67404 0.0230166 0.
0.67604 0.0230158 0.
0.678041 0.023015 0.
0.680042 0.023015 0.
0.682042 0.0230149 0.
0.684043 0.0230147 0.
0.686044 0.0230143 0.
0.688045 0.023014 0.
0.690046 0.0230136 0.
0.692046 0.0230132 0.
0.694047 0.0230128 0.
0.696047 0.0230126 0.
0.698048 0.0230125 0.
0.499954 0.0250131 0.
0.501954 0.0250127 0.
0.503955 0.0250122 0.
0.505955 0.0250119 0.
0.507956 0.0250125 0.
0.509957 0.025013 0.
0.511958 0.0250135 0.
0.513959 0.0250138 0.
0.51596 0.0250141 0.
0.51796 0.0250148 0.
0.51996 0.0250158 0.
0.52196 0.0250168 0.
0.523961 0.0250168 0.
0.525962 0.0250166 0.
0.527962 0.0250164 0.
0.529963 0.0250168 0.
0.531964 0.0250172 0.
0.533965 0.0250175 0.
0.535965 0.0250174 0.
0.537966 0.0250172 0.
0.539966 0.0250169 0.
0.541967 0.0250165 0.
0.543968 0.025016 0.
0.545968 0.0250166 0.
0.547968 0.0250176 0.
0.549968 0.0250185 0.
0.55197 0.025018 0.
0.553971 0.0250174 0.
0.555973 0.0250171 0.
0.557973 0.0250176 0.
0.559974 0.0250181 0.
0.561975 0.0250181 0.
0.563975 0.0250177 0.
0.565976 0.0250173 0.
0.567977 0.0250169 0.
0.569979 0.0250165 0.
0.57198 0.0250161 0.
0.573981 0.0250152 0.
0.575982 0.0250142 0.
0.577984 0.0250133 0.
0.579985 0.025013 0.
0.581987 0.0250127 0.
0.583989 0.0250123 0.
0.58599 0.0250117 0.
0.587992 0.0250111 0.
0.589993 0.0250111 0.
0.591994 0.0250117 0.
0.593996 0.0250123 0.
0.595997 0.0250122 0.
0.598 0.025012 0.
0.600002 0.0250117 0.
0.602004 0.025012 0.
0.604006 0.0250122 0.
0.606008 0.0250123 0.
0.608009 0.0250118 0.
0.610011 0.0250113 0.
0.612012 0.0250113 0.
0.614013 0.0250118 0.
0.616014 0.0250124 0.
0.618015 0.0250129 0.
0.620016 0.0250134 0.
0.622017 0.0250139 0.
0.624019 0.0250145 0.
0.62602 0.0250152 0.
0.628021 0.0250158 0.
0.630022 0.0250163 0.
0.632023 0.0250167 0.
0.634025 0.0250171 0.
0.636026 0.0250172 0.
0.638028 0.0250173 0.
0.640029 0.0250176 0.
0.64203 0.0250179 0.
0.644031 0.0250182 0.
0.646031 0.0250179 0.
0.648032 0.0250175 0.
0.650032 0.025017 0.
0.652033 0.0250167 0.
0.654034 0.0250165 0.
0.656035 0.0250164 0.
0.658035 0.0250167 0.
0.660036 0.025017 0.
0.662037 0.0250173 0.
0.664037 0.0250176 0.
0.666038 0.0250179 0.
0.668039 0.0250179 0.
0.67004 0.0250178 0.
0.672041 0.0250177 0.
0.674041 0.0250171 0.
0.676041 0.0250165 0.
0.678041 0.0250159 0.
0.680042 0.0250157 0.
0.682043 0.0250154 0.
0.684044 0.0250152 0.
0.686044 0.0250151 0.
0.688045 0.025015 0.
0.690046 0.0250146 0.
0.692046 0.0250141 0.
0.694047 0.0250135 0.
0.696048 0.0250135 0.
0.698049 0.0250137 0.
0.499953 0.0270143 0.
0.501954 0.0270136 0.
0.503954 0.027013 0.
0.505955 0.0270126 0.
0.507956 0.0270133 0.
0.509957 0.027014 0.
0.511958 0.0270145 0.
0.513958 0.0270146 0.
0.515959 0.0270148 0.
0.51796 0.0270153 0.
0.51996 0.0270162 0.
0.521961 0.027017 0.
0.523962 0.0270171 0.
0.525962 0.0270171 0.
0.527963 0.027017 0.
0.529963 0.0270173 0.
0.531964 0.0270175 0.
0.533965 0.0270176 0.
0.535965 0.0270176 0.
0.537966 0.0270175 0.
0.539966 0.0270173 0.
0.541967 0.0270171 0.
0.543968 0.0270169 0.
0.545968 0.0270172 0.
0.547968 0.0270176 0.
0.549969 0.0270181 0.
0.55197 0.0270179 0.
0.553971 0.0270178 0.
0.555973 0.0270176 0.
0.557973 0.0270176 0.
0.559974 0.0270176 0.
0.561975 0.0270174 0.
0.563976 0.0270172 0.
0.565976 0.0270169 0.
0.567978 0.0270167 0.
0.569979 0.0270165 0.
0.57198 0.0270163 0.
0.573981 0.0270153 0.
0.575983 0.0270141 0.
0.577984 0.0270131 0.
0.579986 0.027013 0.
0.581987 0.0270128 0.
0.583989 0.0270125 0.
0.58599 0.027012 0.
0.587992 0.0270114 0.
0.589993 0.0270115 0.
0.591995 0.0270121 0.
0.593996 0.0270127 0.
0.595997 0.0270126 0.
0.597999 0.0270122 0.
0.600001 0.0270118 0.
0.602003 0.0270118 0.
0.604006 0.0270119 0.
0.606008 0.0270119 0.
0.608009 0.0270117 0.
0.61001 0.0270114 0.
0.612012 0.0270114 0.
0.614013 0.0270116 0.
0.616014 0.0270118 0.
0.618015 0.0270124 0.
0.620016 0.0270131 0.
0.622017 0.0270138 0.
0.624018 0.0270144 0.
0.626019 0.027015 0.
0.62802 0.0270155 0.
0.630021 0.0270157 0.
0.632023 0.0270158 0.
0.634024 0.0270161 0.
0.636026 0.0270165 0.
0.638028 0.0270169 0.
0.640029 0.0270172 0.
0.64203 0.0270176 0.
0.644031 0.027018 0.
0.646032 0.0270178 0.
0.648032 0.0270174 0.
0.650032 0.027017 0.
0.652033 0.0270168 0.
0.654034 0.0270167 0.
0.656034 0.0270166 0.
0.658035 0.0270169 0.
0.660036 0.0270172 0.
0.662036 0.0270176 0.
0.664037 0.0270181 0.
0.666038 0.0270187 0.
0.668039 0.0270185 0.
0.67004 0.0270181 0.
0.672041 0.0270177 0.
0.674041 0.0270173 0.
0.676041 0.0270168 0.
0.678041 0.0270164 0.
0.680042 0.0270163 0.
0.682043 0.0270161 0.
0.684043 0.027016 0.
0.686044 0.0270159 0.
0.688045 0.0270158 0.
0.690046 0.0270155 0.
0.692047 0.0270151 0.
0.694047 0.0270147 0.
0.696048 0.0270146 0.
0.698048 0.0270146 0.
0.499952 0.0290155 0.
0.501953 0.0290146 0.
0.503954 0.0290138 0.
0.505954 0.0290134 0.
0.507955 0.0290142 0.
0.509956 0.029015 0.
0.511957 0.0290155 0.
0.513958 0.0290155 0.
0.515959 0.0290154 0.
0.51796 0.0290158 0.
0.519961 0.0290165 0.
0.521962 0.0290172 0.
0.523962 0.0290174 0.
0.525963 0.0290175 0.
0.527963 0.0290177 0.
0.529963 0.0290177 0.
0.531964 0.0290178 0.
0.533965 0.0290178 0.
0.535965 0.0290178 0.
0.537966 0.0290178 0.
0.539967 0.0290178 0.
0.541967 0.0290178 0.
0.543968 0.0290178 0.
0.545968 0.0290178 0.
0.547969 0.0290177 0.
0.549969 0.0290177 0.
0.55197 0.0290179 0.
0.553971 0.0290181 0.
0.555972 0.0290181 0.
0.557973 0.0290176 0.
0.559974 0.0290171 0.
0.561975 0.0290168 0.
0.563976 0.0290167 0.
0.565977 0.0290166 0.
0.567978 0.0290166 0.
0.569979 0.0290166 0.
0.571981 0.0290165 0.
0.573982 0.0290154 0.
0.575983 0.0290141 0.
0.577984 0.0290129 0.
0.579986 0.0290129 0.
0.581987 0.0290129 0.
0.583989 0.0290128 0.
0.58599 0.0290122 0.
0.587992 0.0290116 0.
0.589993 0.0290118 0.
0.591995 0.0290125 0.
0.593996 0.0290132 0.
0.595997 0.0290129 0.
0.597999 0.0290124 0.
0.600001 0.0290118 0.
0.602003 0.0290117 0.
0.604005 0.0290116 0.
0.606008 0.0290115 0.
0.608009 0.0290115 0.
0.61001 0.0290116 0.
0.612011 0.0290115 0.
0.614013 0.0290114 0.
0.616014 0.0290113 0.
0.618015 0.0290119 0.
0.620016 0.0290127 0.
0.622016 0.0290136 0.
0.624017 0.0290142 0.
0.626018 0.0290147 0.
0.628019 0.0290152 0.
0.630021 0.0290151 0.
0.632023 0.0290149 0.
0.634024 0.0290151 0.
0.636026 0.0290157 0.
0.638027 0.0290164 0.
0.640029 0.0290169 0.
0.64203 0.0290173 0.
0.644032 0.0290178 0.
0.646032 0.0290176 0.
0.648032 0.0290173 0.
0.650032 0.029017 0.
0.652033 0.0290169 0.
0.654034 0.0290169 0.
0.656034 0.0290169 0.
0.658035 0.0290172 0.
0.660036 0.0290175 0.
0.662036 0.029018 0.
0.664037 0.0290187 0.
0.666038 0.0290194 0.
0.668039 0.0290191 0.
0.67004 0.0290184 0.
0.672041 0.0290177 0.
0.674041 0.0290174 0.
0.676041 0.0290171 0.
0.678041 0.0290169 0.
0.680042 0.0290169 0.
0.682042 0.0290168 0.
0.684043 0.0290168 0.
0.686044 0.0290167 0.
0.688045 0.0290166 0.
0.690046 0.0290164 0.
0.692047 0.0290162 0.
0.694048 0.029016 0.
0.696048 0.0290157 0.
0.698048 0.0290155 0.
0.499952 0.0310165 0.
0.501953 0.0310155 0.
0.503954 0.0310147 0.
0.505954 0.0310143 0.
0.507955 0.0310151 0.
0.509956 0.0310158 0.
0.511957 0.0310162 0.
0.513958 0.0310161 0.
0.515958 0.031016 0.
0.517959 0.0310163 0.
0.519961 0.0310168 0.
0.521962 0.0310174 0.
0.523962 0.0310177 0.
0.525963 0.0310179 0.
0.527963 0.0310181 0.
0.529963 0.0310181 0.
0.531964 0.0310181 0.
0.533964 0.0310181 0.
0.535965 0.0310182 0.
0.537966 0.0310182 0.
0.539967 0.0310183 0.
0.541968 0.0310184 0.
0.543968 0.0310185 0.
0.545968 0.0310184 0.
0.547969 0.0310182 0.
0.549969 0.0310181 0.
0.55197 0.0310182 0.
0.553971 0.0310184 0.
0.555972 0.0310183 0.
0.557973 0.0310176 0.
0.559974 0.0310169 0.
0.561975 0.0310165 0.
0.563976 0.0310166 0.
0.565977 0.0310166 0.
0.567978 0.0310165 0.
0.569979 0.0310163 0.
0.571981 0.0310161 0.
0.573982 0.0310151 0.
0.575983 0.0310139 0.
0.577985 0.0310129 0.
0.579986 0.0310129 0.
0.581987 0.0310128 0.
0.583989 0.0310126 0.
0.58599 0.0310123 0.
0.587992 0.031012 0.
0.589993 0.0310122 0.
0.591995 0.0310127 0.
0.593996 0.0310132 0.
0.595997 0.0310128 0.
0.597999 0.0310122 0.
0.6 0.0310116 0.
0.602003 0.0310116 0.
0.604005 0.0310116 0.
0.606008 0.0310116 0.
0.608009 0.0310116 0.
0.61001 0.0310116 0.
0.612011 0.0310116 0.
0.614013 0.0310115 0.
0.616014 0.0310115 0.
0.618015 0.0310121 0.
0.620015 0.031013 0.
0.622016 0.0310139 0.
0.624017 0.0310143 0.
0.626018 0.0310146 0.
0.628019 0.0310149 0.
0.630021 0.0310147 0.
0.632022 0.0310145 0.
0.634024 0.0310146 0.
0.636025 0.0310153 0.
0.638027 0.031016 0.
0.640028 0.0310166 0.
0.64203 0.0310173 0.
0.644031 0.031018 0.
0.646032 0.0310179 0.
0.648032 0.0310176 0.
0.650033 0.0310173 0.
0.652033 0.0310173 0.
0.654034 0.0310173 0.
0.656034 0.0310173 0.
0.658035 0.0310175 0.
0.660036 0.0310178 0.
0.662036 0.0310183 0.
0.664037 0.0310191 0.
0.666038 0.0310199 0.
0.668038 0.0310197 0.
0.670039 0.031019 0.
0.67204 0.0310183 0.
0.674041 0.031018 0.
0.676041 0.0310177 0.
0.678042 0.0310175 0.
0.680042 0.0310175 0.
0.682043 0.0310175 0.
0.684043 0.0310175 0.
0.686044 0.0310173 0.
0.688045 0.0310171 0.
0.690046 0.031017 0.
0.692047 0.031017 0.
0.694048 0.0310169 0.
0.696048 0.0310167 0.
0.698048 0.0310165 0.
0.499953 0.0330171 0.
0.501953 0.0330163 0.
0.503954 0.0330157 0.
0.505955 0.0330154 0.
0.507956 0.033016 0.
0.509956 0.0330165 0.
0.511957 0.0330168 0.
0.513958 0.0330166 0.
0.515958 0.0330164 0.
0.517959 0.0330166 0.
0.51996 0.0330171 0.
0.521961 0.0330176 0.
0.523962 0.0330179 0.
0.525962 0.033018 0.
0.527963 0.0330182 0.
0.529964 0.0330184 0.
0.531964 0.0330186 0.
0.533964 0.0330187 0.
0.535966 0.0330188 0.
0.537967 0.0330188 0.
0.539967 0.0330189 0.
0.541968 0.0330189 0.
0.543968 0.033019 0.
0.545968 0.0330191 0.
0.547969 0.0330192 0.
0.549969 0.0330193 0.
0.55197 0.033019 0.
0.553971 0.0330186 0.
0.555972 0.0330182 0.
0.557973 0.0330176 0.
0.559973 0.033017 0.
0.561974 0.0330167 0.
0.563976 0.0330168 0.
0.565977 0.0330168 0.
0.567978 0.0330164 0.
0.569979 0.0330156 0.
0.571981 0.0330149 0.
0.573982 0.0330143 0.
0.575984 0.0330138 0.
0.577985 0.0330132 0.
0.579986 0.0330128 0.
0.581987 0.0330124 0.
0.583989 0.0330122 0.
0.58599 0.0330124 0.
0.587992 0.0330126 0.
0.589993 0.0330127 0.
0.591994 0.0330127 0.
0.593996 0.0330127 0.
0.595997 0.0330123 0.
0.597999 0.0330117 0.
0.6 0.0330112 0.
0.602003 0.0330116 0.
0.604005 0.0330119 0.
0.606008 0.0330122 0.
0.608009 0.0330118 0.
0.61001 0.0330115 0.
0.612011 0.0330115 0.
0.614012 0.0330119 0.
0.616013 0.0330123 0.
0.618014 0.033013 0.
0.620015 0.0330138 0.
0.622016 0.0330147 0.
0.624017 0.0330147 0.
0.626018 0.0330146 0.
0.628019 0.0330145 0.
0.630021 0.0330145 0.
0.632022 0.0330145 0.
0.634024 0.0330147 0.
0.636025 0.0330152 0.
0.638026 0.0330157 0.
0.640028 0.0330165 0.
0.642029 0.0330176 0.
0.64403 0.0330186 0.
0.646031 0.0330186 0.
0.648032 0.0330184 0.
0.650033 0.0330181 0.
0.652034 0.033018 0.
0.654034 0.0330179 0.
0.656034 0.0330178 0.
0.658035 0.0330179 0.
0.660036 0.0330181 0.
0.662036 0.0330185 0.
0.664037 0.0330193 0.
0.666038 0.0330202 0.
0.668039 0.0330202 0.
0.670039 0.0330199 0.
0.67204 0.0330196 0.
0.674041 0.0330191 0.
0.676041 0.0330185 0.
0.678042 0.0330181 0.
0.680043 0.0330182 0.
0.682043 0.0330183 0.
0.684044 0.0330182 0.
0.686044 0.0330178 0.
0.688045 0.0330174 0.
0.690046 0.0330173 0.
0.692047 0.0330175 0.
0.694048 0.0330177 0.
0.696048 0.0330177 0.
0.698048 0.0330176 0.
0.499953 0.0350179 0.
0.501954 0.0350171 0.
0.503955 0.0350167 0.
0.505956 0.0350165 0.
0.507956 0.0350168 0.
0.509957 0.0350172 0.
0.511957 0.0350173 0.
0.513958 0.035017 0.
0.515958 0.0350168 0.
0.517958 0.0350169 0.
0.519959 0.0350174 0.
0.52196 0.0350179 0.
0.523961 0.0350181 0.
0.525962 0.0350182 0.
0.527963 0.0350184 0.
0.529964 0.0350187 0.
0.531964 0.0350191 0.
0.533965 0.0350193 0.
0.535966 0.0350194 0.
0.537967 0.0350195 0.
0.539967 0.0350195 0.
0.541968 0.0350195 0.
0.543968 0.0350195 0.
0.545968 0.0350198 0.
0.547968 0.0350202 0.
0.549969 0.0350206 0.
0.55197 0.0350198 0.
0.553971 0.0350189 0.
0.555971 0.0350181 0.
0.557972 0.0350176 0.
0.559973 0.0350171 0.
0.561974 0.0350169 0.
0.563975 0.035017 0.
0.565977 0.0350171 0.
0.567978 0.0350163 0.
0.569979 0.035015 0.
0.571981 0.0350137 0.
0.573982 0.0350136 0.
0.575984 0.0350136 0.
0.577985 0.0350135 0.
0.579986 0.0350128 0.
0.581987 0.035012 0.
0.583989 0.0350117 0.
0.58599 0.0350124 0.
0.587992 0.0350131 0.
0.589993 0.0350131 0.
0.591994 0.0350127 0.
0.593996 0.0350123 0.
0.595997 0.0350118 0.
0.597999 0.0350113 0.
0.6 0.0350108 0.
0.602003 0.0350115 0.
0.604006 0.0350123 0.
0.606008 0.0350128 0.
0.608009 0.0350121 0.
0.61001 0.0350114 0.
0.612011 0.0350114 0.
0.614011 0.0350123 0.
0.616012 0.0350131 0.
0.618013 0.0350139 0.
0.620015 0.0350147 0.
0.622017 0.0350154 0.
0.624018 0.035015 0.
0.626019 0.0350145 0.
0.62802 0.0350141 0.
0.630021 0.0350143 0.
0.632022 0.0350144 0.
0.634023 0.0350147 0.
0.636025 0.0350151 0.
0.638026 0.0350155 0.
0.640027 0.0350164 0.
0.642028 0.0350178 0.
0.644029 0.0350192 0.
0.64603 0.0350193 0.
0.648032 0.0350191 0.
0.650034 0.0350189 0.
0.652034 0.0350187 0.
0.654034 0.0350185 0.
0.656035 0.0350184 0.
0.658035 0.0350184 0.
0.660036 0.0350184 0.
0.662036 0.0350188 0.
0.664037 0.0350196 0.
0.666038 0.0350204 0.
0.668039 0.0350207 0.
0.670039 0.0350208 0.
0.67204 0.0350208 0.
0.674041 0.0350201 0.
0.676042 0.0350193 0.
0.678043 0.0350187 0.
0.680043 0.0350189 0.
0.682044 0.035019 0.
0.684044 0.0350189 0.
0.686045 0.0350183 0.
0.688045 0.0350176 0.
0.690045 0.0350176 0.
0.692046 0.035018 0.
0.694047 0.0350185 0.
0.696047 0.0350186 0.
0.698047 0.0350187 0.
0.499953 0.0370183 0.
0.501954 0.0370177 0.
0.503954 0.0370173 0.
0.505955 0.0370171 0.
0.507956 0.0370174 0.
0.509956 0.0370176 0.
0.511957 0.0370177 0.
0.513958 0.0370176 0.
0.515958 0.0370174 0.
0.517959 0.0370175 0.
0.51996 0.0370177 0.
0.52196 0.0370179 0.
0.523961 0.0370182 0.
0.525962 0.0370184 0.
0.527963 0.0370187 0.
0.529963 0.0370191 0.
0.531964 0.0370195 0.
0.533964 0.0370198 0.
0.535965 0.0370199 0.
0.537967 0.0370199 0.
0.539967 0.0370198 0.
0.541968 0.0370197 0.
0.543968 0.0370196 0.
0.545969 0.0370199 0.
0.547969 0.0370204 0.
0.549969 0.0370208 0.
0.55197 0.0370199 0.
0.553971 0.037019 0.
0.555972 0.0370182 0.
0.557973 0.0370175 0.
0.559973 0.0370169 0.
0.561974 0.0370165 0.
0.563976 0.0370165 0.
0.565977 0.0370165 0.
0.567978 0.0370158 0.
0.569979 0.0370149 0.
0.571981 0.0370139 0.
0.573982 0.0370138 0.
0.575983 0.0370138 0.
0.577985 0.0370137 0.
0.579986 0.0370128 0.
0.581987 0.0370119 0.
0.583989 0.0370114 0.
0.58599 0.0370119 0.
0.587991 0.0370124 0.
0.589993 0.0370125 0.
0.591994 0.0370123 0.
0.593996 0.0370121 0.
0.595997 0.0370118 0.
0.597999 0.0370115 0.
0.600001 0.0370112 0.
0.602003 0.0370115 0.
0.604005 0.0370117 0.
0.606007 0.0370118 0.
0.608008 0.0370115 0.
0.610009 0.0370112 0.
0.61201 0.0370114 0.
0.614011 0.0370123 0.
0.616012 0.0370131 0.
0.618014 0.0370137 0.
0.620015 0.0370142 0.
0.622016 0.0370146 0.
0.624018 0.0370144 0.
0.626019 0.037014 0.
0.62802 0.0370137 0.
0.630021 0.0370141 0.
0.632021 0.0370144 0.
0.634022 0.0370147 0.
0.636024 0.037015 0.
0.638025 0.0370154 0.
0.640026 0.0370161 0.
0.642027 0.0370172 0.
0.644028 0.0370183 0.
0.64603 0.0370186 0.
0.648031 0.0370186 0.
0.650033 0.0370186 0.
0.652033 0.0370187 0.
0.654034 0.0370188 0.
0.656035 0.0370188 0.
0.658035 0.0370189 0.
0.660036 0.037019 0.
0.662036 0.0370192 0.
0.664037 0.0370198 0.
0.666038 0.0370203 0.
0.668038 0.0370205 0.
0.670039 0.0370206 0.
0.67204 0.0370207 0.
0.67404 0.0370204 0.
0.676041 0.0370201 0.
0.678042 0.0370198 0.
0.680043 0.0370197 0.
0.682043 0.0370196 0.
0.684044 0.0370193 0.
0.686044 0.0370188 0.
0.688044 0.0370183 0.
0.690045 0.0370181 0.
0.692046 0.0370183 0.
0.694047 0.0370184 0.
0.696048 0.0370186 0.
0.698048 0.0370187 0.
0.499953 0.0390188 0.
0.501954 0.0390184 0.
0.503954 0.039018 0.
0.505954 0.0390177 0.
0.507955 0.0390179 0.
0.509956 0.039018 0.
0.511957 0.0390181 0.
0.513958 0.0390181 0.
0.515959 0.0390181 0.
0.517959 0.0390181 0.
0.51996 0.039018 0.
0.521961 0.039018 0.
0.523962 0.0390183 0.
0.525962 0.0390186 0.
0.527963 0.039019 0.
0.529963 0.0390195 0.
0.531963 0.03902 0.
0.533964 0.0390204 0.
0.535965 0.0390203 0.
0.537966 0.0390203 0.
0.539967 0.0390202 0.
0.541968 0.0390199 0.
0.543968 0.0390197 0.
0.545969 0.03902 0.
0.54797 0.0390205 0.
0.54997 0.039021 0.
0.551971 0.0390201 0.
0.553972 0.0390191 0.
0.555973 0.0390182 0.
0.557973 0.0390174 0.
0.559974 0.0390167 0.
0.561975 0.0390161 0.
0.563976 0.039016 0.
0.565978 0.0390158 0.
0.567979 0.0390154 0.
0.56998 0.0390147 0.
0.571981 0.0390141 0.
0.573982 0.039014 0.
0.575983 0.039014 0.
0.577984 0.0390139 0.
0.579986 0.0390128 0.
0.581987 0.0390117 0.
0.583989 0.0390111 0.
0.58599 0.0390114 0.
0.587991 0.0390117 0.
0.589993 0.0390119 0.
0.591994 0.0390119 0.
0.593996 0.0390119 0.
0.595998 0.0390118 0.
0.597999 0.0390118 0.
0.600001 0.0390117 0.
0.602003 0.0390114 0.
0.604005 0.0390111 0.
0.606007 0.0390109 0.
0.608008 0.039011 0.
0.610009 0.039011 0.
0.61201 0.0390114 0.
0.614011 0.0390122 0.
0.616013 0.0390131 0.
0.618014 0.0390135 0.
0.620015 0.0390137 0.
0.622016 0.0390138 0.
0.624017 0.0390137 0.
0.626019 0.0390135 0.
0.62802 0.0390134 0.
0.630021 0.0390139 0.
0.632021 0.0390144 0.
0.634022 0.0390147 0.
0.636023 0.039015 0.
0.638024 0.0390152 0.
0.640026 0.0390158 0.
0.642027 0.0390167 0.
0.644027 0.0390175 0.
0.646029 0.0390179 0.
0.64803 0.0390182 0.
0.650032 0.0390184 0.
0.652033 0.0390187 0.
0.654034 0.0390191 0.
0.656035 0.0390193 0.
0.658035 0.0390195 0.
0.660035 0.0390196 0.
0.662036 0.0390197 0.
0.664037 0.03902 0.
0.666037 0.0390202 0.
0.668038 0.0390203 0.
0.670039 0.0390204 0.
0.67204 0.0390205 0.
0.67404 0.0390207 0.
0.676041 0.0390208 0.
0.678042 0.0390209 0.
0.680042 0.0390205 0.
0.682043 0.0390201 0.
0.684043 0.0390197 0.
0.686044 0.0390193 0.
0.688044 0.0390189 0.
0.690045 0.0390187 0.
0.692046 0.0390185 0.
0.694047 0.0390184 0.
0.696048 0.0390185 0.
0.698048 0.0390187 0.
0.499953 0.0410197 0.
0.501953 0.0410192 0.
0.503954 0.0410187 0.
0.505954 0.0410184 0.
0.507955 0.0410185 0.
0.509956 0.0410187 0.
0.511957 0.0410187 0.
0.513958 0.0410187 0.
0.515959 0.0410186 0.
0.517959 0.0410185 0.
0.51996 0.0410183 0.
0.521961 0.0410181 0.
0.523962 0.0410185 0.
0.525962 0.041019 0.
0.527962 0.0410194 0.
0.529963 0.0410199 0.
0.531963 0.0410204 0.
0.533964 0.0410207 0.
0.535965 0.0410206 0.
0.537966 0.0410205 0.
0.539967 0.0410204 0.
0.541968 0.0410201 0.
0.543968 0.0410199 0.
0.545969 0.0410202 0.
0.54797 0.0410206 0.
0.549971 0.041021 0.
0.551972 0.0410202 0.
0.553972 0.0410194 0.
0.555973 0.0410185 0.
0.557974 0.0410176 0.
0.559975 0.0410166 0.
0.561976 0.041016 0.
0.563977 0.0410158 0.
0.565978 0.0410157 0.
0.567979 0.0410153 0.
0.56998 0.0410148 0.
0.571981 0.0410144 0.
0.573982 0.0410142 0.
0.575983 0.0410141 0.
0.577984 0.0410139 0.
0.579986 0.0410129 0.
0.581987 0.0410119 0.
0.583989 0.0410112 0.
0.58599 0.0410113 0.
0.587991 0.0410114 0.
0.589993 0.0410115 0.
0.591994 0.0410116 0.
0.593996 0.0410117 0.
0.595998 0.0410118 0.
0.597999 0.0410119 0.
0.600001 0.041012 0.
0.602003 0.0410115 0.
0.604004 0.041011 0.
0.606006 0.0410107 0.
0.608007 0.041011 0.
0.610009 0.0410113 0.
0.61201 0.0410117 0.
0.614011 0.0410122 0.
0.616013 0.0410128 0.
0.618014 0.0410131 0.
0.620015 0.0410134 0.
0.622016 0.0410136 0.
0.624017 0.0410136 0.
0.626019 0.0410136 0.
0.62802 0.0410136 0.
0.630021 0.0410141 0.
0.632021 0.0410146 0.
0.634022 0.041015 0.
0.636023 0.0410153 0.
0.638024 0.0410155 0.
0.640025 0.0410159 0.
0.642026 0.0410165 0.
0.644027 0.0410172 0.
0.646029 0.0410177 0.
0.64803 0.0410181 0.
0.650031 0.0410186 0.
0.652032 0.041019 0.
0.654034 0.0410194 0.
0.656034 0.0410197 0.
0.658035 0.0410198 0.
0.660036 0.04102 0.
0.662036 0.0410201 0.
0.664037 0.0410202 0.
0.666038 0.0410202 0.
0.668038 0.0410204 0.
0.670039 0.0410205 0.
0.67204 0.0410207 0.
0.67404 0.041021 0.
0.676041 0.0410213 0.
0.678041 0.0410215 0.
0.680042 0.0410211 0.
0.682042 0.0410207 0.
0.684043 0.0410203 0.
0.686044 0.04102 0.
0.688044 0.0410197 0.
0.690045 0.0410194 0.
0.692046 0.041019 0.
0.694047 0.0410187 0.
0.696047 0.041019 0.
0.698048 0.0410195 0.
0.499952 0.0430208 0.
0.501953 0.0430202 0.
0.503954 0.0430196 0.
0.505955 0.0430192 0.
0.507955 0.0430193 0.
0.509956 0.0430195 0.
0.511957 0.0430195 0.
0.513958 0.0430192 0.
0.515958 0.0430189 0.
0.517959 0.0430187 0.
0.51996 0.0430185 0.
0.521961 0.0430182 0.
0.523961 0.0430188 0.
0.525962 0.0430194 0.
0.527962 0.0430201 0.
0.529963 0.0430203 0.
0.531964 0.0430206 0.
0.533964 0.0430208 0.
0.535965 0.0430206 0.
0.537966 0.0430205 0.
0.539967 0.0430204 0.
0.541967 0.0430202 0.
0.543968 0.0430201 0.
0.545969 0.0430203 0.
0.54797 0.0430205 0.
0.549971 0.0430208 0.
0.551971 0.0430203 0.
0.553972 0.0430198 0.
0.555973 0.0430192 0.
0.557974 0.0430179 0.
0.559975 0.0430167 0.
0.561976 0.0430161 0.
0.563977 0.043016 0.
0.565978 0.043016 0.
0.567979 0.0430157 0.
0.56998 0.0430152 0.
0.571981 0.0430146 0.
0.573983 0.0430143 0.
0.575984 0.043014 0.
0.577985 0.0430136 0.
0.579986 0.043013 0.
0.581987 0.0430123 0.
0.583989 0.0430118 0.
0.58599 0.0430116 0.
0.587992 0.0430114 0.
0.589993 0.0430114 0.
0.591995 0.0430115 0.
0.593996 0.0430115 0.
0.595997 0.0430117 0.
0.597999 0.0430119 0.
0.600001 0.043012 0.
0.602002 0.0430118 0.
0.604004 0.0430115 0.
0.606006 0.0430113 0.
0.608007 0.0430117 0.
0.610009 0.043012 0.
0.61201 0.0430122 0.
0.614011 0.0430123 0.
0.616012 0.0430123 0.
0.618014 0.0430127 0.
0.620015 0.0430133 0.
0.622016 0.0430138 0.
0.624017 0.043014 0.
0.626019 0.0430142 0.
0.628021 0.0430143 0.
0.630021 0.0430148 0.
0.632022 0.0430152 0.
0.634023 0.0430156 0.
0.636024 0.0430158 0.
0.638025 0.043016 0.
0.640026 0.0430164 0.
0.642027 0.0430168 0.
0.644028 0.0430172 0.
0.646029 0.0430179 0.
0.64803 0.0430186 0.
0.650032 0.0430192 0.
0.652033 0.0430195 0.
0.654033 0.0430197 0.
0.656034 0.0430199 0.
0.658035 0.04302 0.
0.660036 0.0430202 0.
0.662037 0.0430203 0.
0.664038 0.0430204 0.
0.666038 0.0430205 0.
0.668039 0.0430207 0.
0.67004 0.043021 0.
0.67204 0.0430212 0.
0.674041 0.0430214 0.
0.676041 0.0430215 0.
0.678041 0.0430215 0.
0.680041 0.0430215 0.
0.682042 0.0430214 0.
0.684042 0.0430212 0.
0.686043 0.0430209 0.
0.688045 0.0430206 0.
0.690045 0.0430202 0.
0.692045 0.0430198 0.
0.694045 0.0430193 0.
0.696046 0.04302 0.
0.698047 0.043021 0.
0.499952 0.045022 0.
0.501953 0.0450212 0.
0.503954 0.0450205 0.
0.505955 0.0450199 0.
0.507956 0.0450202 0.
0.509957 0.0450204 0.
0.511958 0.0450203 0.
0.513958 0.0450198 0.
0.515958 0.0450193 0.
0.517958 0.0450189 0.
0.51996 0.0450187 0.
0.521961 0.0450184 0.
0.523961 0.0450191 0.
0.525961 0.0450199 0.
0.527962 0.0450207 0.
0.529963 0.0450208 0.
0.531964 0.0450209 0.
0.533965 0.0450209 0.
0.535965 0.0450207 0.
0.537965 0.0450205 0.
0.539966 0.0450204 0.
0.541967 0.0450204 0.
0.543968 0.0450203 0.
0.545969 0.0450204 0.
0.54797 0.0450205 0.
0.54997 0.0450206 0.
0.551971 0.0450204 0.
0.553972 0.0450202 0.
0.555973 0.0450198 0.
0.557975 0.0450183 0.
0.559976 0.0450169 0.
0.561977 0.0450161 0.
0.563977 0.0450162 0.
0.565977 0.0450163 0.
0.567979 0.045016 0.
0.56998 0.0450155 0.
0.571982 0.0450149 0.
0.573983 0.0450144 0.
0.575984 0.0450139 0.
0.577985 0.0450134 0.
0.579986 0.045013 0.
0.581988 0.0450127 0.
0.583989 0.0450123 0.
0.585991 0.0450119 0.
0.587992 0.0450114 0.
0.589994 0.0450112 0.
0.591995 0.0450113 0.
0.593996 0.0450114 0.
0.595997 0.0450116 0.
0.597999 0.0450118 0.
0.6 0.0450121 0.
0.602002 0.045012 0.
0.604004 0.0450119 0.
0.606006 0.0450119 0.
0.608007 0.0450123 0.
0.610009 0.0450128 0.
0.61201 0.0450128 0.
0.614011 0.0450123 0.
0.616012 0.0450118 0.
0.618013 0.0450123 0.
0.620015 0.0450132 0.
0.622016 0.045014 0.
0.624018 0.0450144 0.
0.626019 0.0450147 0.
0.628021 0.0450151 0.
0.630022 0.0450155 0.
0.632023 0.0450158 0.
0.634023 0.0450162 0.
0.636024 0.0450164 0.
0.638025 0.0450166 0.
0.640026 0.0450169 0.
0.642027 0.0450171 0.
0.644028 0.0450173 0.
0.646029 0.0450181 0.
0.648031 0.045019 0.
0.650032 0.0450198 0.
0.652033 0.0450199 0.
0.654033 0.04502 0.
0.656034 0.0450201 0.
0.658035 0.0450203 0.
0.660036 0.0450204 0.
0.662037 0.0450205 0.
0.664038 0.0450206 0.
0.666039 0.0450207 0.
0.66804 0.045021 0.
0.67004 0.0450214 0.
0.67204 0.0450218 0.
0.674041 0.0450217 0.
0.676041 0.0450216 0.
0.678041 0.0450216 0.
0.680041 0.0450218 0.
0.682041 0.0450221 0.
0.684042 0.0450222 0.
0.686043 0.0450218 0.
0.688045 0.0450215 0.
0.690045 0.045021 0.
0.692045 0.0450205 0.
0.694044 0.04502 0.
0.696045 0.045021 0.
0.698045 0.0450225 0.
0.499952 0.0470227 0.
0.501953 0.0470217 0.
0.503954 0.0470208 0.
0.505955 0.0470202 0.
0.507956 0.0470204 0.
0.509957 0.0470207 0.
0.511957 0.0470206 0.
0.513958 0.0470201 0.
0.515958 0.0470196 0.
0.517958 0.0470193 0.
0.519959 0.0470192 0.
0.52196 0.047019 0.
0.523961 0.0470195 0.
0.525962 0.04702 0.
0.527962 0.0470204 0.
0.529963 0.0470207 0.
0.531964 0.0470209 0.
0.533965 0.047021 0.
0.535965 0.0470209 0.
0.537966 0.0470208 0.
0.539967 0.0470207 0.
0.541968 0.0470206 0.
0.543968 0.0470206 0.
0.545969 0.0470204 0.
0.54797 0.0470202 0.
0.54997 0.0470201 0.
0.551972 0.0470199 0.
0.553973 0.0470198 0.
0.555974 0.0470194 0.
0.557975 0.0470184 0.
0.559976 0.0470174 0.
0.561977 0.0470167 0.
0.563977 0.0470165 0.
0.565978 0.0470162 0.
0.567979 0.0470157 0.
0.56998 0.047015 0.
0.571982 0.0470143 0.
0.573983 0.0470141 0.
0.575985 0.047014 0.
0.577986 0.0470139 0.
0.579987 0.0470134 0.
0.581988 0.047013 0.
0.58399 0.0470125 0.
0.585991 0.0470119 0.
0.587993 0.0470113 0.
0.589994 0.0470111 0.
0.591995 0.0470112 0.
0.593996 0.0470113 0.
0.595998 0.0470114 0.
0.597999 0.0470116 0.
0.600001 0.0470118 0.
0.602003 0.0470118 0.
0.604004 0.0470118 0.
0.606006 0.047012 0.
0.608007 0.0470124 0.
0.610009 0.0470128 0.
0.61201 0.0470129 0.
0.614011 0.0470124 0.
0.616011 0.047012 0.
0.618012 0.0470124 0.
0.620014 0.0470131 0.
0.622015 0.0470138 0.
0.624017 0.047014 0.
0.626018 0.0470142 0.
0.62802 0.0470144 0.
0.630021 0.047015 0.
0.632022 0.0470155 0.
0.634023 0.0470159 0.
0.636024 0.0470161 0.
0.638025 0.0470163 0.
0.640026 0.0470166 0.
0.642027 0.047017 0.
0.644028 0.0470173 0.
0.646029 0.0470182 0.
0.648031 0.0470192 0.
0.650032 0.0470202 0.
0.652032 0.0470201 0.
0.654033 0.04702 0.
0.656034 0.04702 0.
0.658035 0.0470204 0.
0.660036 0.0470207 0.
0.662036 0.0470208 0.
0.664037 0.0470208 0.
0.666038 0.0470207 0.
0.668039 0.0470211 0.
0.67004 0.0470216 0.
0.67204 0.0470221 0.
0.674041 0.0470222 0.
0.676041 0.0470222 0.
0.678041 0.0470222 0.
0.680042 0.0470223 0.
0.682042 0.0470224 0.
0.684042 0.0470224 0.
0.686043 0.0470223 0.
0.688044 0.0470221 0.
0.690044 0.0470218 0.
0.692044 0.0470214 0.
0.694044 0.0470211 0.
0.696045 0.0470214 0.
0.698045 0.0470219 0.
0.499952 0.0490233 0.
0.501954 0.0490223 0.
0.503955 0.0490212 0.
0.505956 0.0490204 0.
0.507956 0.0490207 0.
0.509957 0.0490209 0.
0.511957 0.0490209 0.
0.513957 0.0490204 0.
0.515958 0.0490199 0.
0.517958 0.0490197 0.
0.519959 0.0490197 0.
0.52196 0.0490197 0.
0.523961 0.0490198 0.
0.525962 0.04902 0.
0.527963 0.0490202 0.
0.529964 0.0490206 0.
0.531964 0.0490209 0.
0.533965 0.0490212 0.
0.535966 0.0490211 0.
0.537967 0.0490211 0.
0.539967 0.049021 0.
0.541968 0.0490209 0.
0.543968 0.0490208 0.
0.545969 0.0490204 0.
0.54797 0.04902 0.
0.54997 0.0490196 0.
0.551972 0.0490195 0.
0.553973 0.0490193 0.
0.555974 0.0490191 0.
0.557975 0.0490185 0.
0.559976 0.049018 0.
0.561976 0.0490174 0.
0.563977 0.0490167 0.
0.565978 0.0490161 0.
0.567979 0.0490153 0.
0.56998 0.0490145 0.
0.571982 0.0490137 0.
0.573983 0.0490139 0.
0.575985 0.0490142 0.
0.577987 0.0490144 0.
0.579988 0.0490138 0.
0.581989 0.0490133 0.
0.583991 0.0490127 0.
0.585992 0.0490119 0.
0.587993 0.0490112 0.
0.589994 0.049011 0.
0.591995 0.049011 0.
0.593996 0.0490111 0.
0.595998 0.0490112 0.
0.598 0.0490113 0.
0.600002 0.0490114 0.
0.602003 0.0490116 0.
0.604004 0.0490118 0.
0.606006 0.049012 0.
0.608007 0.0490124 0.
0.610009 0.0490128 0.
0.61201 0.0490129 0.
0.61401 0.0490126 0.
0.61601 0.0490122 0.
0.618011 0.0490125 0.
0.620013 0.049013 0.
0.622014 0.0490135 0.
0.624016 0.0490136 0.
0.626018 0.0490137 0.
0.628019 0.0490138 0.
0.630021 0.0490145 0.
0.632022 0.0490152 0.
0.634023 0.0490157 0.
0.636024 0.0490158 0.
0.638025 0.049016 0.
0.640026 0.0490163 0.
0.642027 0.0490168 0.
0.644028 0.0490173 0.
0.646029 0.0490183 0.
0.648031 0.0490195 0.
0.650032 0.0490206 0.
0.652032 0.0490204 0.
0.654033 0.0490201 0.
0.656033 0.04902 0.
0.658034 0.0490205 0.
0.660035 0.049021 0.
0.662035 0.0490212 0.
0.664037 0.049021 0.
0.666038 0.0490207 0.
0.668039 0.0490211 0.
0.670039 0.0490218 0.
0.67204 0.0490224 0.
0.67404 0.0490226 0.
0.676041 0.0490227 0.
0.678042 0.0490228 0.
0.680042 0.0490227 0.
0.682043 0.0490227 0.
0.684043 0.0490226 0.
0.686043 0.0490227 0.
0.688044 0.0490227 0.
0.690044 0.0490226 0.
0.692044 0.0490224 0.
0.694044 0.0490222 0.
0.696045 0.0490218 0.
0.698045 0.0490214 0.
0.499953 0.051024 0.
0.501954 0.051023 0.
0.503955 0.0510221 0.
0.505956 0.0510214 0.
0.507956 0.0510214 0.
0.509957 0.0510215 0.
0.511957 0.0510213 0.
0.513957 0.0510209 0.
0.515958 0.0510204 0.
0.517959 0.0510203 0.
0.519959 0.0510202 0.
0.52196 0.0510201 0.
0.523961 0.0510202 0.
0.525962 0.0510204 0.
0.527962 0.0510205 0.
0.529963 0.0510208 0.
0.531964 0.0510211 0.
0.533965 0.0510213 0.
0.535966 0.0510213 0.
0.537966 0.0510214 0.
0.539967 0.0510213 0.
0.541968 0.0510211 0.
0.543968 0.051021 0.
0.545969 0.0510206 0.
0.54797 0.05102 0.
0.54997 0.0510195 0.
0.551972 0.0510194 0.
0.553973 0.0510192 0.
0.555974 0.051019 0.
0.557975 0.0510188 0.
0.559976 0.0510185 0.
0.561976 0.051018 0.
0.563977 0.0510171 0.
0.565978 0.0510162 0.
0.567979 0.0510154 0.
0.569981 0.0510145 0.
0.571982 0.0510137 0.
0.573984 0.0510138 0.
0.575985 0.0510141 0.
0.577987 0.0510144 0.
0.579989 0.0510138 0.
0.58199 0.0510133 0.
0.583991 0.0510127 0.
0.585992 0.051012 0.
0.587994 0.0510114 0.
0.589995 0.051011 0.
0.591996 0.051011 0.
0.593997 0.0510109 0.
0.595998 0.051011 0.
0.598 0.0510112 0.
0.600002 0.0510114 0.
0.602003 0.0510116 0.
0.604005 0.0510118 0.
0.606006 0.051012 0.
0.608007 0.0510125 0.
0.610008 0.051013 0.
0.612009 0.0510131 0.
0.61401 0.0510128 0.
0.61601 0.0510125 0.
0.618011 0.0510126 0.
0.620012 0.0510129 0.
0.622014 0.0510132 0.
0.624015 0.0510134 0.
0.626017 0.0510135 0.
0.628019 0.0510137 0.
0.63002 0.0510143 0.
0.632021 0.051015 0.
0.634023 0.0510155 0.
0.636024 0.0510157 0.
0.638025 0.0510159 0.
0.640026 0.0510163 0.
0.642027 0.0510169 0.
0.644028 0.0510174 0.
0.646029 0.0510185 0.
0.64803 0.0510197 0.
0.650031 0.0510209 0.
0.652032 0.0510206 0.
0.654032 0.0510203 0.
0.656033 0.0510202 0.
0.658034 0.0510207 0.
0.660034 0.0510213 0.
0.662035 0.0510215 0.
0.664036 0.0510213 0.
0.666037 0.0510212 0.
0.668038 0.0510215 0.
0.670039 0.0510221 0.
0.67204 0.0510227 0.
0.67404 0.0510229 0.
0.676041 0.0510231 0.
0.678042 0.0510232 0.
0.680042 0.0510232 0.
0.682043 0.0510232 0.
0.684043 0.0510233 0.
0.686043 0.0510234 0.
0.688043 0.0510236 0.
0.690043 0.0510235 0.
0.692044 0.0510232 0.
0.694044 0.051023 0.
0.696044 0.0510223 0.
0.698045 0.0510215 0.
0.499954 0.0530245 0.
0.501955 0.0530238 0.
0.503955 0.0530234 0.
0.505956 0.053023 0.
0.507956 0.0530226 0.
0.509956 0.0530222 0.
0.511957 0.0530219 0.
0.513958 0.0530215 0.
0.515958 0.0530212 0.
0.517959 0.0530209 0.
0.51996 0.0530206 0.
0.52196 0.0530204 0.
0.523961 0.0530207 0.
0.525961 0.053021 0.
0.527962 0.0530213 0.
0.529962 0.0530213 0.
0.531963 0.0530213 0.
0.533964 0.0530213 0.
0.535965 0.0530214 0.
0.537966 0.0530216 0.
0.539967 0.0530215 0.
0.541967 0.0530214 0.
0.543968 0.0530212 0.
0.545969 0.0530208 0.
0.547969 0.0530203 0.
0.54997 0.0530199 0.
0.551971 0.0530196 0.
0.553973 0.0530194 0.
0.555974 0.0530192 0.
0.557975 0.0530192 0.
0.559976 0.0530191 0.
0.561977 0.0530187 0.
0.563977 0.0530177 0.
0.565978 0.0530167 0.
0.567979 0.0530158 0.
0.569981 0.053015 0.
0.571982 0.0530142 0.
0.573984 0.053014 0.
0.575985 0.0530139 0.
0.577987 0.0530138 0.
0.579988 0.0530134 0.
0.58199 0.0530129 0.
0.583991 0.0530125 0.
0.585993 0.0530121 0.
0.587994 0.0530117 0.
0.589995 0.0530113 0.
0.591996 0.0530109 0.
0.593997 0.0530105 0.
0.595998 0.0530108 0.
0.598 0.0530113 0.
0.600002 0.0530118 0.
0.602003 0.0530118 0.
0.604005 0.0530118 0.
0.606007 0.0530119 0.
0.608008 0.0530126 0.
0.610009 0.0530133 0.
0.612009 0.0530135 0.
0.61401 0.0530131 0.
0.616011 0.0530127 0.
0.618012 0.0530127 0.
0.620013 0.0530128 0.
0.622014 0.0530129 0.
0.624015 0.0530133 0.
0.626017 0.0530136 0.
0.628018 0.053014 0.
0.63002 0.0530145 0.
0.632021 0.0530151 0.
0.634022 0.0530155 0.
0.636023 0.0530158 0.
0.638024 0.053016 0.
0.640026 0.0530165 0.
0.642027 0.0530171 0.
0.644029 0.0530178 0.
0.646029 0.0530188 0.
0.64803 0.0530199 0.
0.65003 0.053021 0.
0.652031 0.0530209 0.
0.654032 0.0530207 0.
0.656033 0.0530207 0.
0.658034 0.0530211 0.
0.660035 0.0530215 0.
0.662036 0.0530217 0.
0.664037 0.0530219 0.
0.666037 0.0530221 0.
0.668038 0.0530223 0.
0.670039 0.0530226 0.
0.672039 0.0530229 0.
0.67404 0.0530232 0.
0.676041 0.0530234 0.
0.678042 0.0530236 0.
0.680043 0.0530238 0.
0.682043 0.053024 0.
0.684043 0.0530243 0.
0.686043 0.0530244 0.
0.688043 0.0530246 0.
0.690044 0.0530245 0.
0.692044 0.053024 0.
0.694044 0.0530236 0.
0.696044 0.0530229 0.
0.698044 0.0530221 0.
0.499956 0.055025 0.
0.501955 0.0550245 0.
0.503955 0.0550247 0.
0.505955 0.0550246 0.
0.507956 0.0550238 0.
0.509956 0.055023 0.
0.511957 0.0550224 0.
0.513958 0.0550222 0.
0.515959 0.0550219 0.
0.517959 0.0550215 0.
0.51996 0.0550211 0.
0.52196 0.0550207 0.
0.52396 0.0550211 0.
0.525961 0.0550216 0.
0.527961 0.0550221 0.
0.529961 0.0550219 0.
0.531962 0.0550216 0.
0.533962 0.0550214 0.
0.535964 0.0550216 0.
0.537965 0.0550217 0.
0.539966 0.0550217 0.
0.541967 0.0550216 0.
0.543968 0.0550215 0.
0.545968 0.0550211 0.
0.547969 0.0550206 0.
0.54997 0.0550202 0.
0.551971 0.0550199 0.
0.553973 0.0550196 0.
0.555974 0.0550194 0.
0.557975 0.0550196 0.
0.559976 0.0550197 0.
0.561977 0.0550194 0.
0.563978 0.0550183 0.
0.565978 0.0550172 0.
0.567979 0.0550163 0.
0.569981 0.0550155 0.
0.571982 0.0550146 0.
0.573984 0.0550142 0.
0.575985 0.0550137 0.
0.577987 0.0550133 0.
0.579988 0.0550129 0.
0.58199 0.0550126 0.
0.583992 0.0550123 0.
0.585993 0.0550122 0.
0.587994 0.0550121 0.
0.589995 0.0550117 0.
0.591996 0.0550109 0.
0.593998 0.0550102 0.
0.595999 0.0550106 0.
0.598 0.0550114 0.
0.600001 0.0550122 0.
0.602003 0.055012 0.
0.604006 0.0550118 0.
0.606007 0.0550119 0.
0.608008 0.0550127 0.
0.610009 0.0550136 0.
0.612009 0.0550139 0.
0.61401 0.0550135 0.
0.616011 0.055013 0.
0.618012 0.0550128 0.
0.620013 0.0550127 0.
0.622014 0.0550127 0.
0.624015 0.0550132 0.
0.626017 0.0550137 0.
0.628018 0.0550143 0.
0.630019 0.0550147 0.
0.63202 0.0550151 0.
0.634021 0.0550155 0.
0.636023 0.0550158 0.
0.638024 0.0550161 0.
0.640026 0.0550167 0.
0.642027 0.0550174 0.
0.644029 0.0550181 0.
0.646029 0.055019 0.
0.648029 0.0550201 0.
0.65003 0.0550211 0.
0.652031 0.0550211 0.
0.654032 0.0550212 0.
0.656033 0.0550212 0.
0.658034 0.0550215 0.
0.660036 0.0550217 0.
0.662037 0.055022 0.
0.664037 0.0550225 0.
0.666037 0.0550229 0.
0.668038 0.0550231 0.
0.670039 0.0550231 0.
0.672039 0.0550232 0.
0.67404 0.0550234 0.
0.676042 0.0550237 0.
0.678043 0.0550239 0.
0.680043 0.0550244 0.
0.682043 0.0550249 0.
0.684043 0.0550253 0.
0.686043 0.0550255 0.
0.688043 0.0550257 0.
0.690044 0.0550254 0.
0.692044 0.0550248 0.
0.694044 0.0550242 0.
0.696044 0.0550235 0.
0.698044 0.0550228 0.
0.499956 0.0570253 0.
0.501955 0.057025 0.
0.503956 0.0570251 0.
0.505956 0.057025 0.
0.507956 0.0570242 0.
0.509956 0.0570233 0.
0.511957 0.0570227 0.
0.513958 0.0570223 0.
0.515959 0.0570219 0.
0.517959 0.0570217 0.
0.51996 0.0570216 0.
0.52196 0.0570215 0.
0.52396 0.0570217 0.
0.525961 0.0570218 0.
0.527962 0.057022 0.
0.529962 0.0570218 0.
0.531963 0.0570217 0.
0.533963 0.0570216 0.
0.535964 0.0570217 0.
0.537965 0.0570219 0.
0.539966 0.0570219 0.
0.541967 0.0570218 0.
0.543967 0.0570217 0.
0.545968 0.0570212 0.
0.547969 0.0570207 0.
0.54997 0.0570201 0.
0.551972 0.0570199 0.
0.553973 0.0570196 0.
0.555974 0.0570194 0.
0.557975 0.0570194 0.
0.559976 0.0570194 0.
0.561977 0.0570189 0.
0.563978 0.057018 0.
0.565979 0.057017 0.
0.56798 0.0570161 0.
0.569982 0.0570151 0.
0.571983 0.0570142 0.
0.573985 0.0570138 0.
0.575986 0.0570135 0.
0.577987 0.0570132 0.
0.579989 0.0570128 0.
0.58199 0.0570125 0.
0.583991 0.0570122 0.
0.585992 0.057012 0.
0.587994 0.0570117 0.
0.589995 0.0570114 0.
0.591996 0.0570109 0.
0.593997 0.0570103 0.
0.595998 0.0570106 0.
0.598 0.057011 0.
0.600001 0.0570114 0.
0.602003 0.0570114 0.
0.604004 0.0570114 0.
0.606006 0.0570117 0.
0.608007 0.0570126 0.
0.610008 0.0570135 0.
0.612009 0.0570138 0.
0.61401 0.0570135 0.
0.616011 0.0570131 0.
0.618012 0.0570129 0.
0.620013 0.0570127 0.
0.622014 0.0570126 0.
0.624015 0.0570131 0.
0.626017 0.0570138 0.
0.628018 0.0570143 0.
0.630019 0.0570147 0.
0.63202 0.0570151 0.
0.634021 0.0570155 0.
0.636022 0.0570158 0.
0.638023 0.0570161 0.
0.640025 0.0570166 0.
0.642026 0.0570172 0.
0.644027 0.0570179 0.
0.646028 0.0570189 0.
0.648029 0.0570201 0.
0.65003 0.0570212 0.
0.652031 0.0570212 0.
0.654032 0.0570212 0.
0.656033 0.0570213 0.
0.658034 0.0570214 0.
0.660035 0.0570215 0.
0.662036 0.0570218 0.
0.664037 0.0570225 0.
0.666037 0.0570232 0.
0.668038 0.0570233 0.
0.670039 0.0570233 0.
0.672039 0.0570233 0.
0.67404 0.0570236 0.
0.676041 0.0570239 0.
0.678042 0.0570242 0.
0.680042 0.0570248 0.
0.682043 0.0570253 0.
0.684043 0.0570256 0.
0.686043 0.0570257 0.
0.688044 0.0570257 0.
0.690044 0.0570255 0.
0.692044 0.0570251 0.
0.694045 0.0570247 0.
0.696045 0.0570243 0.
0.698045 0.057024 0.
0.499956 0.0590256 0.
0.501956 0.0590256 0.
0.503956 0.0590255 0.
0.505956 0.0590253 0.
0.507956 0.0590245 0.
0.509956 0.0590237 0.
0.511957 0.059023 0.
0.513958 0.0590224 0.
0.515959 0.0590219 0.
0.517959 0.0590218 0.
0.519959 0.0590221 0.
0.52196 0.0590223 0.
0.52396 0.0590222 0.
0.525961 0.059022 0.
0.527962 0.0590218 0.
0.529963 0.0590218 0.
0.531964 0.0590218 0.
0.533964 0.0590218 0.
0.535965 0.0590219 0.
0.537965 0.059022 0.
0.539966 0.059022 0.
0.541967 0.0590219 0.
0.543967 0.0590219 0.
0.545968 0.0590214 0.
0.547969 0.0590207 0.
0.54997 0.05902 0.
0.551972 0.0590198 0.
0.553974 0.0590196 0.
0.555975 0.0590194 0.
0.557976 0.0590192 0.
0.559977 0.059019 0.
0.561978 0.0590185 0.
0.563978 0.0590176 0.
0.565979 0.0590168 0.
0.567981 0.0590158 0.
0.569983 0.0590148 0.
0.571984 0.0590138 0.
0.573986 0.0590135 0.
0.575987 0.0590133 0.
0.577988 0.0590131 0.
0.579989 0.0590128 0.
0.58199 0.0590124 0.
0.583991 0.059012 0.
0.585992 0.0590117 0.
0.587994 0.0590114 0.
0.589995 0.0590111 0.
0.591996 0.0590108 0.
0.593996 0.0590105 0.
0.595998 0.0590105 0.
0.597999 0.0590106 0.
0.600001 0.0590107 0.
0.602002 0.0590109 0.
0.604003 0.0590111 0.
0.606004 0.0590115 0.
0.608006 0.0590124 0.
0.610007 0.0590133 0.
0.612008 0.0590137 0.
0.61401 0.0590134 0.
0.616012 0.0590132 0.
0.618013 0.0590129 0.
0.620013 0.0590128 0.
0.622014 0.0590126 0.
0.624015 0.0590131 0.
0.626017 0.0590138 0.
0.628018 0.0590144 0.
0.630019 0.0590147 0.
0.632019 0.0590151 0.
0.63402 0.0590155 0.
0.636021 0.0590158 0.
0.638022 0.0590161 0.
0.640024 0.0590166 0.
0.642025 0.0590171 0.
0.644026 0.0590177 0.
0.646027 0.0590188 0.
0.648029 0.0590201 0.
0.65003 0.0590214 0.
0.652031 0.0590213 0.
0.654031 0.0590213 0.
0.656032 0.0590213 0.
0.658033 0.0590213 0.
0.660035 0.0590212 0.
0.662036 0.0590216 0.
0.664037 0.0590225 0.
0.666037 0.0590234 0.
0.668038 0.0590236 0.
0.670038 0.0590235 0.
0.672039 0.0590233 0.
0.67404 0.0590237 0.
0.676041 0.0590241 0.
0.678042 0.0590246 0.
0.680042 0.0590251 0.
0.682042 0.0590257 0.
0.684042 0.059026 0.
0.686043 0.0590258 0.
0.688044 0.0590257 0.
0.690044 0.0590255 0.
0.692045 0.0590253 0.
0.694045 0.0590252 0.
0.696046 0.0590252 0.
0.698046 0.0590252 0.
0.499956 0.0610262 0.
0.501956 0.0610261 0.
0.503956 0.0610261 0.
0.505956 0.0610258 0.
0.507957 0.061025 0.
0.509957 0.0610241 0.
0.511957 0.0610234 0.
0.513958 0.0610228 0.
0.515959 0.0610223 0.
0.517959 0.0610222 0.
0.51996 0.0610224 0.
0.52196 0.0610225 0.
0.523961 0.0610224 0.
0.525962 0.0610222 0.
0.527963 0.061022 0.
0.529964 0.061022 0.
0.531964 0.061022 0.
0.533965 0.061022 0.
0.535965 0.0610219 0.
0.537966 0.0610219 0.
0.539966 0.0610219 0.
0.541967 0.061022 0.
0.543968 0.0610221 0.
0.545969 0.0610215 0.
0.54797 0.0610206 0.
0.549971 0.0610198 0.
0.551972 0.0610196 0.
0.553974 0.0610194 0.
0.555975 0.0610192 0.
0.557976 0.0610189 0.
0.559977 0.0610186 0.
0.561978 0.0610181 0.
0.563979 0.0610174 0.
0.56598 0.0610166 0.
0.567981 0.0610157 0.
0.569983 0.0610146 0.
0.571985 0.0610136 0.
0.573986 0.0610133 0.
0.575987 0.0610132 0.
0.577988 0.061013 0.
0.579989 0.0610128 0.
0.58199 0.0610125 0.
0.583991 0.0610122 0.
0.585992 0.0610118 0.
0.587994 0.0610114 0.
0.589995 0.0610112 0.
0.591995 0.061011 0.
0.593996 0.0610108 0.
0.595998 0.0610106 0.
0.597999 0.0610104 0.
0.600001 0.0610102 0.
0.602002 0.0610106 0.
0.604003 0.0610109 0.
0.606004 0.0610114 0.
0.608005 0.0610123 0.
0.610007 0.0610131 0.
0.612008 0.0610135 0.
0.61401 0.0610133 0.
0.616012 0.061013 0.
0.618013 0.0610129 0.
0.620013 0.0610129 0.
0.622014 0.0610128 0.
0.624015 0.0610132 0.
0.626017 0.0610137 0.
0.628018 0.0610142 0.
0.630019 0.0610147 0.
0.632019 0.0610151 0.
0.63402 0.0610155 0.
0.636021 0.0610158 0.
0.638022 0.0610161 0.
0.640023 0.0610165 0.
0.642024 0.061017 0.
0.644025 0.0610176 0.
0.646027 0.0610189 0.
0.648028 0.0610203 0.
0.65003 0.0610217 0.
0.65203 0.0610215 0.
0.654031 0.0610213 0.
0.656031 0.0610211 0.
0.658033 0.0610212 0.
0.660034 0.0610213 0.
0.662035 0.0610217 0.
0.664036 0.0610225 0.
0.666037 0.0610233 0.
0.668038 0.0610236 0.
0.670038 0.0610236 0.
0.672039 0.0610236 0.
0.67404 0.0610239 0.
0.676041 0.0610243 0.
0.678042 0.0610247 0.
0.680042 0.0610254 0.
0.682042 0.0610262 0.
0.684042 0.0610265 0.
0.686043 0.0610262 0.
0.688044 0.0610259 0.
0.690044 0.0610258 0.
0.692045 0.0610259 0.
0.694045 0.061026 0.
0.696046 0.0610261 0.
0.698047 0.0610261 0.
0.499957 0.0630269 0.
0.501957 0.0630268 0.
0.503957 0.0630267 0.
0.505957 0.0630265 0.
0.507958 0.0630255 0.
0.509958 0.0630245 0.
0.511958 0.0630239 0.
0.513959 0.0630235 0.
0.515959 0.0630232 0.
0.51796 0.0630229 0.
0.51996 0.0630225 0.
0.52196 0.0630221 0.
0.523961 0.0630222 0.
0.525962 0.0630223 0.
0.527963 0.0630224 0.
0.529964 0.0630223 0.
0.531964 0.0630222 0.
0.533965 0.063022 0.
0.535966 0.0630218 0.
0.537966 0.0630216 0.
0.539967 0.0630217 0.
0.541968 0.0630221 0.
0.543968 0.0630224 0.
0.545969 0.0630216 0.
0.54797 0.0630205 0.
0.549971 0.0630194 0.
0.551972 0.0630192 0.
0.553973 0.0630191 0.
0.555975 0.0630189 0.
0.557976 0.0630186 0.
0.559977 0.0630183 0.
0.561978 0.0630178 0.
0.563979 0.0630172 0.
0.56598 0.0630165 0.
0.567982 0.0630156 0.
0.569983 0.0630146 0.
0.571985 0.0630136 0.
0.573986 0.0630133 0.
0.575987 0.063013 0.
0.577989 0.0630128 0.
0.57999 0.0630128 0.
0.581991 0.0630129 0.
0.583992 0.0630128 0.
0.585993 0.0630124 0.
0.587994 0.063012 0.
0.589995 0.0630117 0.
0.591996 0.0630114 0.
0.593997 0.0630112 0.
0.595998 0.0630108 0.
0.597999 0.0630104 0.
0.600001 0.06301 0.
0.602002 0.0630105 0.
0.604003 0.063011 0.
0.606005 0.0630116 0.
0.608006 0.0630122 0.
0.610008 0.0630128 0.
0.612009 0.063013 0.
0.61401 0.0630129 0.
0.616011 0.0630127 0.
0.618012 0.0630128 0.
0.620013 0.0630131 0.
0.622014 0.0630134 0.
0.624015 0.0630135 0.
0.626016 0.0630137 0.
0.628018 0.0630139 0.
0.630019 0.0630145 0.
0.63202 0.0630151 0.
0.634021 0.0630155 0.
0.636022 0.0630157 0.
0.638023 0.0630159 0.
0.640024 0.0630163 0.
0.642024 0.063017 0.
0.644025 0.0630177 0.
0.646026 0.0630191 0.
0.648028 0.0630206 0.
0.65003 0.0630221 0.
0.65203 0.0630216 0.
0.654031 0.0630211 0.
0.656031 0.0630208 0.
0.658032 0.0630212 0.
0.660034 0.0630215 0.
0.662034 0.063022 0.
0.664035 0.0630225 0.
0.666036 0.063023 0.
0.668037 0.0630234 0.
0.670038 0.0630237 0.
0.672038 0.0630241 0.
0.67404 0.0630243 0.
0.676041 0.0630245 0.
0.678042 0.0630247 0.
0.680042 0.0630257 0.
0.682043 0.0630267 0.
0.684043 0.0630272 0.
0.686043 0.0630268 0.
0.688043 0.0630264 0.
0.690044 0.0630265 0.
0.692044 0.0630268 0.
0.694045 0.0630272 0.
0.696045 0.0630271 0.
0.698046 0.0630268 0.
0.499958 0.0650272 0.
0.501958 0.0650274 0.
0.503958 0.0650273 0.
0.505958 0.0650271 0.
0.507958 0.0650261 0.
0.509959 0.065025 0.
0.511959 0.0650244 0.
0.513959 0.0650242 0.
0.515959 0.0650241 0.
0.51796 0.0650235 0.
0.51996 0.0650226 0.
0.521961 0.0650217 0.
0.523962 0.065022 0.
0.525963 0.0650224 0.
0.527964 0.0650228 0.
0.529964 0.0650226 0.
0.531965 0.0650224 0.
0.533965 0.0650221 0.
0.535966 0.0650217 0.
0.537967 0.0650213 0.
0.539968 0.0650215 0.
0.541968 0.0650221 0.
0.543969 0.0650227 0.
0.54597 0.0650217 0.
0.547971 0.0650204 0.
0.549972 0.065019 0.
0.551972 0.0650189 0.
0.553973 0.0650187 0.
0.555974 0.0650185 0.
0.557976 0.0650182 0.
0.559977 0.0650179 0.
0.561979 0.0650175 0.
0.56398 0.0650169 0.
0.565981 0.0650164 0.
0.567982 0.0650156 0.
0.569984 0.0650146 0.
0.571985 0.0650137 0.
0.573986 0.0650133 0.
0.575988 0.0650129 0.
0.577989 0.0650126 0.
0.579991 0.0650129 0.
0.581992 0.0650132 0.
0.583993 0.0650133 0.
0.585994 0.0650129 0.
0.587994 0.0650125 0.
0.589995 0.0650122 0.
0.591996 0.0650119 0.
0.593997 0.0650117 0.
0.595998 0.0650111 0.
0.597999 0.0650105 0.
0.6 0.0650098 0.
0.602002 0.0650105 0.
0.604004 0.0650111 0.
0.606005 0.0650117 0.
0.608007 0.0650121 0.
0.610008 0.0650125 0.
0.612009 0.0650126 0.
0.61401 0.0650125 0.
0.61601 0.0650124 0.
0.618011 0.0650128 0.
0.620012 0.0650133 0.
0.622013 0.0650139 0.
0.624015 0.0650138 0.
0.626016 0.0650136 0.
0.628018 0.0650135 0.
0.630019 0.0650143 0.
0.63202 0.065015 0.
0.634021 0.0650156 0.
0.636022 0.0650156 0.
0.638024 0.0650157 0.
0.640024 0.0650162 0.
0.642025 0.065017 0.
0.644025 0.0650178 0.
0.646026 0.0650193 0.
0.648028 0.0650209 0.
0.650029 0.0650225 0.
0.65203 0.0650218 0.
0.65403 0.065021 0.
0.656031 0.0650205 0.
0.658032 0.0650212 0.
0.660033 0.0650218 0.
0.662034 0.0650223 0.
0.664035 0.0650225 0.
0.666036 0.0650227 0.
0.668036 0.0650232 0.
0.670037 0.0650239 0.
0.672038 0.0650245 0.
0.674039 0.0650246 0.
0.676041 0.0650246 0.
0.678042 0.0650247 0.
0.680043 0.065026 0.
0.682043 0.0650273 0.
0.684043 0.065028 0.
0.686043 0.0650275 0.
0.688043 0.0650269 0.
0.690044 0.0650271 0.
0.692044 0.0650277 0.
0.694045 0.0650284 0.
0.696045 0.0650281 0.
0.698045 0.0650276 0.
0.499958 0.0670268 0.
0.501958 0.0670273 0.
0.503958 0.0670275 0.
0.505959 0.0670276 0.
0.507959 0.0670265 0.
0.509959 0.0670255 0.
0.511959 0.0670247 0.
0.513959 0.0670243 0.
0.51596 0.0670239 0.
0.51796 0.0670233 0.
0.519961 0.0670225 0.
0.521962 0.0670218 0.
0.523963 0.067022 0.
0.525963 0.0670223 0.
0.527964 0.0670225 0.
0.529965 0.0670225 0.
0.531965 0.0670225 0.
0.533966 0.0670225 0.
0.535966 0.0670222 0.
0.537967 0.067022 0.
0.539968 0.0670218 0.
0.541968 0.0670217 0.
0.543969 0.0670215 0.
0.54597 0.0670208 0.
0.547971 0.0670199 0.
0.549972 0.0670191 0.
0.551973 0.0670188 0.
0.553974 0.0670186 0.
0.555975 0.0670183 0.
0.557976 0.0670182 0.
0.559977 0.067018 0.
0.561979 0.0670176 0.
0.56398 0.0670169 0.
0.565981 0.0670161 0.
0.567982 0.0670153 0.
0.569984 0.0670144 0.
0.571985 0.0670136 0.
0.573987 0.0670131 0.
0.575988 0.0670126 0.
0.57799 0.0670123 0.
0.579991 0.0670127 0.
0.581992 0.067013 0.
0.583993 0.0670132 0.
0.585994 0.067013 0.
0.587995 0.0670127 0.
0.589995 0.0670124 0.
0.591996 0.0670118 0.
0.593997 0.0670113 0.
0.595999 0.0670109 0.
0.598 0.0670104 0.
0.600001 0.0670099 0.
0.602003 0.0670102 0.
0.604004 0.0670106 0.
0.606005 0.0670109 0.
0.608007 0.0670116 0.
0.610008 0.0670122 0.
0.612009 0.0670125 0.
0.614009 0.0670124 0.
0.61601 0.0670122 0.
0.618011 0.0670125 0.
0.620012 0.0670129 0.
0.622013 0.0670133 0.
0.624015 0.0670133 0.
0.626016 0.0670132 0.
0.628018 0.0670133 0.
0.630019 0.067014 0.
0.63202 0.0670148 0.
0.634021 0.0670154 0.
0.636022 0.0670158 0.
0.638023 0.0670161 0.
0.640024 0.0670166 0.
0.642024 0.0670172 0.
0.644025 0.0670178 0.
0.646026 0.067019 0.
0.648027 0.0670203 0.
0.650029 0.0670216 0.
0.652029 0.0670212 0.
0.65403 0.0670207 0.
0.656031 0.0670206 0.
0.658032 0.0670214 0.
0.660032 0.0670221 0.
0.662033 0.0670226 0.
0.664034 0.0670228 0.
0.666035 0.0670229 0.
0.668036 0.0670234 0.
0.670037 0.067024 0.
0.672038 0.0670246 0.
0.674039 0.0670246 0.
0.67604 0.0670245 0.
0.678041 0.0670246 0.
0.680041 0.0670257 0.
0.682042 0.0670269 0.
0.684043 0.0670275 0.
0.686043 0.0670271 0.
0.688043 0.0670268 0.
0.690043 0.067027 0.
0.692043 0.0670276 0.
0.694044 0.0670282 0.
0.696044 0.0670282 0.
0.698045 0.0670279 0.
0.499957 0.0690264 0.
0.501958 0.0690271 0.
0.503958 0.0690277 0.
0.505959 0.0690281 0.
0.507959 0.069027 0.
0.509959 0.069026 0.
0.511959 0.0690251 0.
0.513959 0.0690244 0.
0.51596 0.0690237 0.
0.517961 0.0690231 0.
0.519962 0.0690225 0.
0.521963 0.0690219 0.
0.523963 0.069022 0.
0.525964 0.0690221 0.
0.527965 0.0690222 0.
0.529965 0.0690224 0.
0.531965 0.0690227 0.
0.533966 0.0690228 0.
0.535966 0.0690228 0.
0.537967 0.0690227 0.
0.539968 0.0690222 0.
0.541969 0.0690212 0.
0.543969 0.0690203 0.
0.54597 0.0690198 0.
0.547971 0.0690195 0.
0.549973 0.0690191 0.
0.551974 0.0690188 0.
0.553975 0.0690184 0.
0.555976 0.0690181 0.
0.557977 0.0690181 0.
0.559977 0.0690182 0.
0.561979 0.0690178 0.
0.56398 0.0690168 0.
0.565981 0.0690158 0.
0.567983 0.069015 0.
0.569984 0.0690143 0.
0.571985 0.0690135 0.
0.573987 0.0690129 0.
0.575989 0.0690123 0.
0.57799 0.0690119 0.
0.579991 0.0690124 0.
0.581992 0.0690129 0.
0.583993 0.0690132 0.
0.585994 0.0690131 0.
0.587995 0.069013 0.
0.589996 0.0690125 0.
0.591997 0.0690118 0.
0.593998 0.069011 0.
0.595999 0.0690106 0.
0.598001 0.0690103 0.
0.600002 0.06901 0.
0.602003 0.06901 0.
0.604005 0.06901 0.
0.606006 0.0690102 0.
0.608007 0.0690111 0.
0.610008 0.069012 0.
0.612009 0.0690124 0.
0.614009 0.0690122 0.
0.61601 0.0690121 0.
0.618011 0.0690122 0.
0.620012 0.0690124 0.
0.622013 0.0690127 0.
0.624014 0.0690128 0.
0.626016 0.0690128 0.
0.628018 0.069013 0.
0.630019 0.0690137 0.
0.63202 0.0690145 0.
0.634021 0.0690152 0.
0.636022 0.0690159 0.
0.638023 0.0690165 0.
0.640023 0.0690171 0.
0.642024 0.0690175 0.
0.644025 0.0690179 0.
0.646026 0.0690187 0.
0.648027 0.0690197 0.
0.650028 0.0690206 0.
0.652029 0.0690206 0.
0.654029 0.0690205 0.
0.65603 0.0690207 0.
0.658031 0.0690216 0.
0.660032 0.0690225 0.
0.662033 0.069023 0.
0.664034 0.069023 0.
0.666035 0.0690231 0.
0.668036 0.0690235 0.
0.670037 0.0690241 0.
0.672037 0.0690247 0.
0.674038 0.0690246 0.
0.676038 0.0690245 0.
0.678039 0.0690245 0.
0.68004 0.0690254 0.
0.682041 0.0690264 0.
0.684042 0.0690269 0.
0.686042 0.0690268 0.
0.688042 0.0690267 0.
0.690042 0.069027 0.
0.692043 0.0690275 0.
0.694043 0.0690281 0.
0.696044 0.0690282 0.
0.698045 0.0690282 0.
0.499958 0.0710266 0.
0.501958 0.0710274 0.
0.503959 0.071028 0.
0.505959 0.0710283 0.
0.507959 0.0710273 0.
0.509959 0.0710263 0.
0.511959 0.0710254 0.
0.51396 0.0710245 0.
0.51596 0.0710236 0.
0.517961 0.0710229 0.
0.519962 0.0710225 0.
0.521963 0.071022 0.
0.523964 0.071022 0.
0.525965 0.071022 0.
0.527965 0.0710221 0.
0.529966 0.0710224 0.
0.531966 0.0710226 0.
0.533966 0.0710228 0.
0.535967 0.0710227 0.
0.537968 0.0710226 0.
0.539968 0.0710219 0.
0.541969 0.0710209 0.
0.54397 0.0710198 0.
0.545971 0.0710195 0.
0.547972 0.0710194 0.
0.549973 0.0710193 0.
0.551974 0.0710189 0.
0.553975 0.0710185 0.
0.555976 0.0710182 0.
0.557977 0.0710182 0.
0.559978 0.0710181 0.
0.561979 0.0710176 0.
0.56398 0.0710165 0.
0.565982 0.0710155 0.
0.567983 0.0710147 0.
0.569984 0.071014 0.
0.571985 0.0710133 0.
0.573987 0.0710126 0.
0.575988 0.071012 0.
0.57799 0.0710115 0.
0.579991 0.071012 0.
0.581992 0.0710126 0.
0.583993 0.0710129 0.
0.585994 0.0710129 0.
0.587995 0.0710128 0.
0.589996 0.0710124 0.
0.591997 0.0710116 0.
0.593998 0.0710109 0.
0.596 0.0710105 0.
0.598001 0.0710101 0.
0.600002 0.0710098 0.
0.602003 0.0710098 0.
0.604005 0.0710098 0.
0.606006 0.07101 0.
0.608007 0.0710107 0.
0.610008 0.0710114 0.
0.612008 0.0710118 0.
0.614009 0.0710119 0.
0.61601 0.071012 0.
0.618011 0.0710121 0.
0.620012 0.0710122 0.
0.622012 0.0710123 0.
0.624014 0.0710124 0.
0.626016 0.0710126 0.
0.628018 0.0710128 0.
0.630019 0.0710136 0.
0.63202 0.0710144 0.
0.634021 0.0710151 0.
0.636021 0.0710159 0.
0.638022 0.0710167 0.
0.640023 0.0710172 0.
0.642024 0.0710176 0.
0.644025 0.0710179 0.
0.646026 0.0710185 0.
0.648027 0.0710193 0.
0.650028 0.07102 0.
0.652029 0.0710202 0.
0.654029 0.0710204 0.
0.65603 0.0710207 0.
0.658031 0.0710216 0.
0.660032 0.0710224 0.
0.662033 0.0710229 0.
0.664034 0.0710229 0.
0.666035 0.071023 0.
0.668036 0.0710234 0.
0.670037 0.0710239 0.
0.672037 0.0710245 0.
0.674038 0.0710245 0.
0.676038 0.0710243 0.
0.678039 0.0710243 0.
0.68004 0.0710252 0.
0.682041 0.071026 0.
0.684041 0.0710266 0.
0.686042 0.0710266 0.
0.688042 0.0710266 0.
0.690042 0.071027 0.
0.692043 0.0710276 0.
0.694043 0.0710282 0.
0.696044 0.0710285 0.
0.698045 0.0710287 0.
0.499958 0.0730279 0.
0.501959 0.0730281 0.
0.503959 0.0730284 0.
0.505959 0.0730284 0.
0.507959 0.0730275 0.
0.509959 0.0730265 0.
0.51196 0.0730256 0.
0.51396 0.0730245 0.
0.515961 0.0730235 0.
0.517962 0.0730229 0.
0.519963 0.0730224 0.
0.521964 0.0730219 0.
0.523964 0.073022 0.
0.525965 0.0730221 0.
0.527966 0.0730223 0.
0.529966 0.0730224 0.
0.531967 0.0730225 0.
0.533967 0.0730224 0.
0.535968 0.073022 0.
0.537969 0.0730217 0.
0.539969 0.0730212 0.
0.54197 0.0730205 0.
0.543971 0.0730199 0.
0.545972 0.0730197 0.
0.547973 0.0730196 0.
0.549974 0.0730195 0.
0.551975 0.0730192 0.
0.553976 0.073019 0.
0.555976 0.0730187 0.
0.557977 0.0730182 0.
0.559978 0.0730178 0.
0.561979 0.073017 0.
0.56398 0.073016 0.
0.565982 0.0730149 0.
0.567983 0.0730142 0.
0.569984 0.0730135 0.
0.571985 0.0730129 0.
0.573986 0.0730123 0.
0.575988 0.0730117 0.
0.57799 0.0730112 0.
0.579991 0.0730117 0.
0.581992 0.0730122 0.
0.583993 0.0730125 0.
0.585994 0.0730124 0.
0.587995 0.0730123 0.
0.589996 0.073012 0.
0.591997 0.0730115 0.
0.593998 0.0730109 0.
0.595999 0.0730104 0.
0.598 0.0730098 0.
0.600002 0.0730092 0.
0.602003 0.0730097 0.
0.604004 0.0730101 0.
0.606005 0.0730104 0.
0.608006 0.0730105 0.
0.610007 0.0730106 0.
0.612008 0.0730109 0.
0.614009 0.0730115 0.
0.61601 0.0730121 0.
0.618011 0.0730123 0.
0.620012 0.0730122 0.
0.622012 0.0730122 0.
0.624014 0.0730123 0.
0.626016 0.0730125 0.
0.628018 0.0730128 0.
0.630018 0.0730136 0.
0.632019 0.0730144 0.
0.63402 0.0730152 0.
0.636021 0.0730159 0.
0.638022 0.0730166 0.
0.640022 0.0730171 0.
0.642023 0.0730174 0.
0.644024 0.0730178 0.
0.646025 0.0730184 0.
0.648027 0.0730191 0.
0.650028 0.0730197 0.
0.652029 0.07302 0.
0.65403 0.0730203 0.
0.65603 0.0730206 0.
0.658031 0.0730214 0.
0.660032 0.0730221 0.
0.662033 0.0730226 0.
0.664034 0.0730226 0.
0.666035 0.0730226 0.
0.668036 0.073023 0.
0.670037 0.0730236 0.
0.672038 0.0730242 0.
0.674038 0.0730242 0.
0.676039 0.073024 0.
0.678039 0.073024 0.
0.68004 0.0730249 0.
0.682041 0.0730258 0.
0.684041 0.0730263 0.
0.686042 0.0730265 0.
0.688042 0.0730266 0.
0.690042 0.0730271 0.
0.692043 0.0730278 0.
0.694044 0.0730286 0.
0.696045 0.073029 0.
0.698045 0.0730293 0.
0.499959 0.0750294 0.
0.501959 0.0750289 0.
0.503959 0.0750287 0.
0.505959 0.0750284 0.
0.507959 0.0750276 0.
0.50996 0.0750267 0.
0.51196 0.0750257 0.
0.513961 0.0750246 0.
0.515961 0.0750235 0.
0.517962 0.0750228 0.
0.519963 0.0750223 0.
0.521964 0.0750219 0.
0.523965 0.075022 0.
0.525965 0.0750222 0.
0.527966 0.0750224 0.
0.529967 0.0750224 0.
0.531968 0.0750223 0.
0.533968 0.075022 0.
0.535969 0.0750214 0.
0.53797 0.0750208 0.
0.53997 0.0750204 0.
0.541972 0.0750202 0.
0.543973 0.07502 0.
0.545973 0.0750199 0.
0.547974 0.0750198 0.
0.549975 0.0750197 0.
0.551975 0.0750195 0.
0.553976 0.0750194 0.
0.555977 0.0750191 0.
0.557978 0.0750183 0.
0.559979 0.0750175 0.
0.56198 0.0750165 0.
0.563981 0.0750155 0.
0.565982 0.0750144 0.
0.567983 0.0750137 0.
0.569984 0.0750131 0.
0.571985 0.0750125 0.
0.573986 0.075012 0.
0.575988 0.0750114 0.
0.577989 0.0750109 0.
0.57999 0.0750113 0.
0.581991 0.0750118 0.
0.583992 0.0750121 0.
0.585993 0.0750119 0.
0.587994 0.0750118 0.
0.589995 0.0750116 0.
0.591997 0.0750113 0.
0.593998 0.075011 0.
0.595999 0.0750103 0.
0.598 0.0750095 0.
0.600001 0.0750087 0.
0.602002 0.0750095 0.
0.604004 0.0750103 0.
0.606005 0.0750109 0.
0.608006 0.0750103 0.
0.610007 0.0750097 0.
0.612008 0.07501 0.
0.614009 0.0750111 0.
0.61601 0.0750122 0.
0.618011 0.0750125 0.
0.620011 0.0750123 0.
0.622012 0.075012 0.
0.624014 0.0750122 0.
0.626016 0.0750124 0.
0.628018 0.0750127 0.
0.630018 0.0750136 0.
0.632018 0.0750144 0.
0.634019 0.0750152 0.
0.63602 0.0750159 0.
0.638021 0.0750166 0.
0.640022 0.075017 0.
0.642023 0.0750173 0.
0.644024 0.0750177 0.
0.646025 0.0750182 0.
0.648027 0.0750189 0.
0.650029 0.0750195 0.
0.652029 0.0750198 0.
0.65403 0.0750202 0.
0.656031 0.0750206 0.
0.658032 0.0750212 0.
0.660033 0.0750218 0.
0.662033 0.0750222 0.
0.664034 0.0750223 0.
0.666034 0.0750223 0.
0.668035 0.0750227 0.
0.670037 0.0750233 0.
0.672038 0.0750239 0.
0.674038 0.0750239 0.
0.676039 0.0750238 0.
0.67804 0.0750238 0.
0.68004 0.0750246 0.
0.682041 0.0750255 0.
0.684041 0.0750261 0.
0.686042 0.0750264 0.
0.688042 0.0750266 0.
0.690043 0.0750272 0.
0.692044 0.0750281 0.
0.694045 0.075029 0.
0.696045 0.0750295 0.
0.698045 0.0750298 0.
0.499961 0.07703 0.
0.501961 0.0770294 0.
0.50396 0.077029 0.
0.50596 0.0770286 0.
0.507961 0.0770277 0.
0.509961 0.0770269 0.
0.511962 0.0770259 0.
0.513962 0.0770249 0.
0.515962 0.0770239 0.
0.517963 0.0770231 0.
0.519964 0.0770224 0.
0.521964 0.0770218 0.
0.523965 0.0770219 0.
0.525966 0.0770221 0.
0.527967 0.0770223 0.
0.529968 0.077022 0.
0.531969 0.0770217 0.
0.533969 0.0770215 0.
0.53597 0.0770212 0.
0.53797 0.0770209 0.
0.539971 0.0770205 0.
0.541972 0.07702 0.
0.543973 0.0770195 0.
0.545974 0.0770194 0.
0.547975 0.0770195 0.
0.549975 0.0770195 0.
0.551976 0.0770193 0.
0.553977 0.0770191 0.
0.555978 0.0770188 0.
0.557978 0.0770179 0.
0.559979 0.077017 0.
0.56198 0.0770162 0.
0.563981 0.0770155 0.
0.565982 0.0770148 0.
0.567983 0.0770141 0.
0.569984 0.0770135 0.
0.571985 0.0770128 0.
0.573987 0.0770122 0.
0.575988 0.0770115 0.
0.577989 0.077011 0.
0.57999 0.0770112 0.
0.581991 0.0770114 0.
0.583993 0.0770115 0.
0.585994 0.0770113 0.
0.587995 0.0770111 0.
0.589996 0.0770109 0.
0.591997 0.0770105 0.
0.593998 0.0770102 0.
0.595999 0.0770098 0.
0.598 0.0770094 0.
0.600001 0.077009 0.
0.602002 0.0770095 0.
0.604004 0.0770099 0.
0.606005 0.0770101 0.
0.608006 0.0770098 0.
0.610007 0.0770095 0.
0.612008 0.0770098 0.
0.614009 0.0770109 0.
0.61601 0.077012 0.
0.618011 0.0770123 0.
0.620011 0.0770123 0.
0.622012 0.0770122 0.
0.624014 0.0770124 0.
0.626015 0.0770126 0.
0.628016 0.0770129 0.
0.630017 0.0770135 0.
0.632018 0.0770142 0.
0.634019 0.0770148 0.
0.63602 0.0770153 0.
0.638021 0.0770159 0.
0.640022 0.0770163 0.
0.642023 0.0770167 0.
0.644024 0.0770171 0.
0.646025 0.0770179 0.
0.648026 0.0770187 0.
0.650028 0.0770196 0.
0.652029 0.0770197 0.
0.65403 0.0770199 0.
0.656031 0.0770202 0.
0.658032 0.077021 0.
0.660032 0.0770218 0.
0.662033 0.0770223 0.
0.664034 0.0770223 0.
0.666035 0.0770224 0.
0.668036 0.0770226 0.
0.670037 0.0770229 0.
0.672038 0.0770232 0.
0.674038 0.0770236 0.
0.676039 0.0770239 0.
0.678039 0.0770243 0.
0.68004 0.077025 0.
0.68204 0.0770256 0.
0.684041 0.0770261 0.
0.686041 0.0770265 0.
0.688042 0.0770269 0.
0.690042 0.0770274 0.
0.692043 0.0770281 0.
0.694044 0.0770287 0.
0.696044 0.0770292 0.
0.698044 0.0770296 0.
0.499962 0.0790304 0.
0.501962 0.0790299 0.
0.503962 0.0790293 0.
0.505962 0.0790287 0.
0.507962 0.0790278 0.
0.509963 0.079027 0.
0.511963 0.0790261 0.
0.513963 0.0790252 0.
0.515964 0.0790242 0.
0.517964 0.0790234 0.
0.519964 0.0790225 0.
0.521965 0.0790217 0.
0.523966 0.0790218 0.
0.525967 0.079022 0.
0.527968 0.0790221 0.
0.529969 0.0790216 0.
0.531969 0.0790212 0.
0.53397 0.0790209 0.
0.53597 0.079021 0.
0.53797 0.0790211 0.
0.539971 0.0790206 0.
0.541972 0.0790198 0.
0.543973 0.0790189 0.
0.545974 0.0790189 0.
0.547975 0.0790192 0.
0.549976 0.0790194 0.
0.551977 0.0790192 0.
0.553978 0.0790189 0.
0.555978 0.0790184 0.
0.557979 0.0790175 0.
0.55998 0.0790165 0.
0.561981 0.0790159 0.
0.563982 0.0790155 0.
0.565983 0.0790152 0.
0.567984 0.0790146 0.
0.569985 0.0790138 0.
0.571986 0.0790131 0.
0.573987 0.0790124 0.
0.575988 0.0790117 0.
0.577989 0.0790111 0.
0.57999 0.0790111 0.
0.581991 0.0790111 0.
0.583993 0.079011 0.
0.585994 0.0790107 0.
0.587995 0.0790104 0.
0.589996 0.0790101 0.
0.591997 0.0790098 0.
0.593998 0.0790095 0.
0.595999 0.0790094 0.
0.598 0.0790094 0.
0.6 0.0790094 0.
0.602002 0.0790094 0.
0.604004 0.0790094 0.
0.606005 0.0790094 0.
0.608006 0.0790093 0.
0.610006 0.0790093 0.
0.612007 0.0790097 0.
0.614008 0.0790108 0.
0.616009 0.0790118 0.
0.61801 0.0790122 0.
0.620011 0.0790122 0.
0.622013 0.0790123 0.
0.624014 0.0790125 0.
0.626014 0.0790127 0.
0.628015 0.079013 0.
0.630016 0.0790135 0.
0.632017 0.0790139 0.
0.634019 0.0790144 0.
0.63602 0.0790148 0.
0.638022 0.0790152 0.
0.640023 0.0790156 0.
0.642023 0.0790161 0.
0.644024 0.0790165 0.
0.646025 0.0790175 0.
0.648026 0.0790186 0.
0.650027 0.0790196 0.
0.652029 0.0790196 0.
0.65403 0.0790197 0.
0.656031 0.0790199 0.
0.658032 0.0790208 0.
0.660032 0.0790217 0.
0.662033 0.0790223 0.
0.664034 0.0790224 0.
0.666035 0.0790225 0.
0.668036 0.0790225 0.
0.670037 0.0790225 0.
0.672038 0.0790225 0.
0.674038 0.0790233 0.
0.676038 0.0790241 0.
0.678039 0.0790249 0.
0.680039 0.0790253 0.
0.68204 0.0790257 0.
0.684041 0.0790261 0.
0.686041 0.0790266 0.
0.688041 0.0790271 0.
0.690042 0.0790276 0.
0.692042 0.079028 0.
0.694043 0.0790285 0.
0.696043 0.0790289 0.
0.698043 0.0790294 0.
0.499963 0.0810309 0.
0.501963 0.0810302 0.
0.503963 0.0810294 0.
0.505963 0.0810287 0.
0.507963 0.081028 0.
0.509964 0.0810273 0.
0.511964 0.0810264 0.
0.513964 0.0810254 0.
0.515964 0.0810243 0.
0.517965 0.0810234 0.
0.519965 0.0810226 0.
0.521966 0.0810218 0.
0.523966 0.0810217 0.
0.525967 0.0810217 0.
0.527968 0.0810216 0.
0.529969 0.0810213 0.
0.53197 0.081021 0.
0.53397 0.0810208 0.
0.535971 0.0810209 0.
0.537971 0.0810209 0.
0.539971 0.0810205 0.
0.541973 0.0810195 0.
0.543974 0.0810186 0.
0.545975 0.0810186 0.
0.547975 0.0810189 0.
0.549976 0.0810192 0.
0.551977 0.081019 0.
0.553978 0.0810187 0.
0.555979 0.0810183 0.
0.55798 0.0810173 0.
0.559981 0.0810163 0.
0.561982 0.0810156 0.
0.563982 0.0810154 0.
0.565983 0.0810152 0.
0.567984 0.0810146 0.
0.569985 0.0810138 0.
0.571986 0.0810131 0.
0.573987 0.0810124 0.
0.575988 0.0810116 0.
0.57799 0.081011 0.
0.579991 0.0810108 0.
0.581992 0.0810107 0.
0.583993 0.0810105 0.
0.585994 0.0810102 0.
0.587995 0.0810099 0.
0.589996 0.0810096 0.
0.591997 0.0810093 0.
0.593998 0.081009 0.
0.595999 0.0810091 0.
0.598 0.0810092 0.
0.6 0.0810094 0.
0.602002 0.0810092 0.
0.604004 0.0810091 0.
0.606005 0.0810089 0.
0.608006 0.081009 0.
0.610006 0.081009 0.
0.612007 0.0810094 0.
0.614008 0.0810104 0.
0.616009 0.0810113 0.
0.61801 0.0810118 0.
0.620011 0.081012 0.
0.622013 0.0810123 0.
0.624013 0.0810125 0.
0.626014 0.0810128 0.
0.628015 0.081013 0.
0.630016 0.0810134 0.
0.632017 0.0810137 0.
0.634019 0.0810141 0.
0.63602 0.0810144 0.
0.638021 0.0810147 0.
0.640022 0.0810151 0.
0.642023 0.0810156 0.
0.644024 0.0810161 0.
0.646025 0.0810171 0.
0.648026 0.0810182 0.
0.650027 0.0810193 0.
0.652028 0.0810193 0.
0.65403 0.0810193 0.
0.656031 0.0810196 0.
0.658031 0.0810204 0.
0.660032 0.0810213 0.
0.662033 0.0810218 0.
0.664034 0.0810219 0.
0.666035 0.081022 0.
0.668036 0.0810222 0.
0.670036 0.0810223 0.
0.672037 0.0810225 0.
0.674038 0.0810234 0.
0.676038 0.0810243 0.
0.678038 0.0810252 0.
0.680039 0.0810255 0.
0.68204 0.0810258 0.
0.68404 0.0810262 0.
0.686041 0.0810268 0.
0.688041 0.0810274 0.
0.690041 0.0810278 0.
0.692042 0.0810282 0.
0.694042 0.0810286 0.
0.696042 0.0810291 0.
0.698042 0.0810297 0.
0.499963 0.0830312 0.
0.501963 0.0830304 0.
0.503963 0.0830295 0.
0.505964 0.0830286 0.
0.507964 0.0830282 0.
0.509964 0.0830277 0.
0.511964 0.0830268 0.
0.513965 0.0830255 0.
0.515965 0.0830241 0.
0.517965 0.0830232 0.
0.519966 0.0830225 0.
0.521966 0.0830219 0.
0.523967 0.0830216 0.
0.525968 0.0830213 0.
0.527969 0.083021 0.
0.529969 0.0830211 0.
0.53197 0.0830211 0.
0.53397 0.0830211 0.
0.535971 0.0830208 0.
0.537971 0.0830206 0.
0.539972 0.0830201 0.
0.541973 0.0830193 0.
0.543974 0.0830185 0.
0.545975 0.0830185 0.
0.547976 0.0830187 0.
0.549977 0.0830189 0.
0.551978 0.0830187 0.
0.553979 0.0830185 0.
0.55598 0.0830182 0.
0.55798 0.0830172 0.
0.559981 0.0830163 0.
0.561982 0.0830156 0.
0.563983 0.0830152 0.
0.565984 0.0830147 0.
0.567985 0.0830142 0.
0.569986 0.0830135 0.
0.571987 0.0830128 0.
0.573988 0.083012 0.
0.575989 0.0830113 0.
0.577991 0.0830106 0.
0.579992 0.0830105 0.
0.581993 0.0830104 0.
0.583994 0.0830103 0.
0.585994 0.0830099 0.
0.587995 0.0830096 0.
0.589996 0.0830093 0.
0.591997 0.0830091 0.
0.593998 0.0830089 0.
0.595999 0.0830089 0.
0.598 0.0830089 0.
0.600001 0.0830089 0.
0.602002 0.0830089 0.
0.604003 0.0830089 0.
0.606004 0.0830089 0.
0.608006 0.0830088 0.
0.610007 0.0830087 0.
0.612008 0.083009 0.
0.614008 0.0830098 0.
0.616009 0.0830105 0.
0.61801 0.0830111 0.
0.620011 0.0830117 0.
0.622012 0.0830122 0.
0.624013 0.0830124 0.
0.626014 0.0830127 0.
0.628015 0.083013 0.
0.630016 0.0830133 0.
0.632017 0.0830136 0.
0.634018 0.0830139 0.
0.63602 0.0830141 0.
0.638021 0.0830144 0.
0.640022 0.0830148 0.
0.642023 0.0830154 0.
0.644024 0.083016 0.
0.646025 0.0830168 0.
0.648026 0.0830176 0.
0.650027 0.0830184 0.
0.652028 0.0830187 0.
0.654029 0.083019 0.
0.65603 0.0830193 0.
0.658031 0.0830198 0.
0.660032 0.0830203 0.
0.662032 0.0830207 0.
0.664033 0.0830208 0.
0.666034 0.083021 0.
0.668035 0.0830215 0.
0.670036 0.0830222 0.
0.672036 0.0830229 0.
0.674037 0.0830238 0.
0.676037 0.0830246 0.
0.678038 0.0830254 0.
0.680039 0.0830257 0.
0.682039 0.083026 0.
0.68404 0.0830264 0.
0.68604 0.083027 0.
0.68804 0.0830275 0.
0.690041 0.083028 0.
0.692041 0.0830286 0.
0.694041 0.0830291 0.
0.696041 0.0830297 0.
0.698042 0.0830303 0.
0.499964 0.0850316 0.
0.501964 0.0850306 0.
0.503964 0.0850295 0.
0.505964 0.0850286 0.
0.507964 0.0850283 0.
0.509964 0.0850281 0.
0.511965 0.0850272 0.
0.513965 0.0850256 0.
0.515965 0.0850239 0.
0.517966 0.085023 0.
0.519967 0.0850225 0.
0.521967 0.085022 0.
0.523968 0.0850214 0.
0.525969 0.0850208 0.
0.527969 0.0850203 0.
0.529969 0.0850208 0.
0.53197 0.0850212 0.
0.53397 0.0850214 0.
0.535971 0.0850208 0.
0.537971 0.0850202 0.
0.539972 0.0850196 0.
0.541973 0.085019 0.
0.543974 0.0850184 0.
0.545975 0.0850183 0.
0.547976 0.0850184 0.
0.549977 0.0850186 0.
0.551978 0.0850185 0.
0.553979 0.0850184 0.
0.55598 0.0850181 0.
0.557981 0.0850172 0.
0.559982 0.0850163 0.
0.561982 0.0850155 0.
0.563984 0.0850149 0.
0.565985 0.0850143 0.
0.567986 0.0850137 0.
0.569986 0.0850131 0.
0.571987 0.0850125 0.
0.573988 0.0850117 0.
0.57599 0.0850109 0.
0.577991 0.0850102 0.
0.579992 0.0850102 0.
0.581993 0.0850101 0.
0.583994 0.08501 0.
0.585995 0.0850096 0.
0.587995 0.0850093 0.
0.589996 0.0850091 0.
0.591997 0.0850089 0.
0.593998 0.0850088 0.
0.595999 0.0850087 0.
0.598 0.0850086 0.
0.600001 0.0850084 0.
0.602002 0.0850086 0.
0.604003 0.0850087 0.
0.606004 0.0850088 0.
0.608005 0.0850086 0.
0.610007 0.0850083 0.
0.612008 0.0850085 0.
0.614009 0.0850092 0.
0.61601 0.0850098 0.
0.61801 0.0850105 0.
0.620011 0.0850113 0.
0.622012 0.085012 0.
0.624013 0.0850123 0.
0.626014 0.0850126 0.
0.628016 0.0850129 0.
0.630016 0.0850132 0.
0.632017 0.0850135 0.
0.634018 0.0850137 0.
0.636019 0.0850139 0.
0.63802 0.085014 0.
0.640021 0.0850145 0.
0.642022 0.0850151 0.
0.644024 0.0850158 0.
0.646025 0.0850164 0.
0.648026 0.085017 0.
0.650027 0.0850176 0.
0.652028 0.0850181 0.
0.654028 0.0850186 0.
0.656029 0.0850191 0.
0.65803 0.0850192 0.
0.660031 0.0850194 0.
0.662032 0.0850196 0.
0.664033 0.0850198 0.
0.666034 0.08502 0.
0.668035 0.0850209 0.
0.670035 0.0850221 0.
0.672035 0.0850234 0.
0.674036 0.0850242 0.
0.676037 0.0850249 0.
0.678038 0.0850255 0.
0.680038 0.0850259 0.
0.682039 0.0850263 0.
0.684039 0.0850267 0.
0.68604 0.0850271 0.
0.68804 0.0850276 0.
0.69004 0.0850282 0.
0.69204 0.085029 0.
0.69404 0.0850297 0.
0.696041 0.0850303 0.
0.698042 0.0850309 0.
0.499965 0.0870315 0.
0.501965 0.0870307 0.
0.503965 0.0870299 0.
0.505965 0.0870291 0.
0.507965 0.0870284 0.
0.509966 0.0870277 0.
0.511966 0.0870267 0.
0.513966 0.0870253 0.
0.515967 0.0870239 0.
0.517967 0.087023 0.
0.519967 0.0870225 0.
0.521968 0.087022 0.
0.523968 0.0870214 0.
0.525969 0.0870208 0.
0.52797 0.0870202 0.
0.52997 0.0870204 0.
0.53197 0.0870205 0.
0.533971 0.0870205 0.
0.535972 0.08702 0.
0.537973 0.0870196 0.
0.539973 0.0870192 0.
0.541974 0.0870188 0.
0.543975 0.0870184 0.
0.545976 0.0870184 0.
0.547977 0.0870186 0.
0.549978 0.0870187 0.
0.551979 0.0870187 0.
0.55398 0.0870186 0.
0.555981 0.0870183 0.
0.557982 0.087017 0.
0.559982 0.0870157 0.
0.561983 0.0870148 0.
0.563984 0.0870145 0.
0.565985 0.0870142 0.
0.567986 0.0870136 0.
0.569987 0.0870128 0.
0.571987 0.0870119 0.
0.573989 0.0870113 0.
0.57599 0.0870106 0.
0.577991 0.08701 0.
0.579992 0.0870101 0.
0.581993 0.0870101 0.
0.583994 0.0870099 0.
0.585995 0.0870095 0.
0.587996 0.087009 0.
0.589997 0.0870087 0.
0.591997 0.0870085 0.
0.593998 0.0870083 0.
0.595999 0.0870084 0.
0.597999 0.0870085 0.
0.6 0.0870085 0.
0.602001 0.0870084 0.
0.604003 0.0870083 0.
0.606004 0.0870082 0.
0.608005 0.0870081 0.
0.610006 0.087008 0.
0.612008 0.0870083 0.
0.614008 0.0870088 0.
0.616009 0.0870094 0.
0.61801 0.08701 0.
0.620011 0.0870105 0.
0.622012 0.087011 0.
0.624013 0.0870116 0.
0.626014 0.0870122 0.
0.628015 0.0870127 0.
0.630016 0.087013 0.
0.632017 0.0870133 0.
0.634017 0.0870136 0.
0.636019 0.087014 0.
0.63802 0.0870143 0.
0.640021 0.0870148 0.
0.642022 0.0870155 0.
0.644023 0.0870162 0.
0.646024 0.0870165 0.
0.648025 0.0870167 0.
0.650026 0.0870169 0.
0.652027 0.0870174 0.
0.654027 0.0870179 0.
0.656028 0.0870183 0.
0.658029 0.0870185 0.
0.66003 0.0870188 0.
0.662031 0.0870192 0.
0.664032 0.0870198 0.
0.666033 0.0870204 0.
0.668034 0.0870212 0.
0.670034 0.087022 0.
0.672035 0.0870228 0.
0.674036 0.0870234 0.
0.676036 0.0870241 0.
0.678037 0.0870248 0.
0.680038 0.0870255 0.
0.682038 0.0870261 0.
0.684039 0.0870266 0.
0.686039 0.0870269 0.
0.688039 0.0870272 0.
0.69004 0.0870277 0.
0.69204 0.0870284 0.
0.694041 0.087029 0.
0.696041 0.0870301 0.
0.698041 0.0870313 0.
0.499967 0.0890314 0.
0.501967 0.0890308 0.
0.503967 0.0890303 0.
0.505966 0.0890296 0.
0.507967 0.0890285 0.
0.509967 0.0890273 0.
0.511967 0.0890262 0.
0.513968 0.089025 0.
0.515968 0.0890239 0.
0.517968 0.0890231 0.
0.519968 0.0890226 0.
0.521968 0.0890221 0.
0.523969 0.0890214 0.
0.525969 0.0890207 0.
0.52797 0.0890201 0.
0.52997 0.0890199 0.
0.531971 0.0890197 0.
0.533971 0.0890195 0.
0.535973 0.0890192 0.
0.537974 0.0890189 0.
0.539975 0.0890187 0.
0.541975 0.0890185 0.
0.543975 0.0890184 0.
0.545976 0.0890185 0.
0.547977 0.0890187 0.
0.549979 0.0890189 0.
0.55198 0.0890188 0.
0.553981 0.0890188 0.
0.555982 0.0890184 0.
0.557982 0.0890168 0.
0.559983 0.0890151 0.
0.561984 0.0890142 0.
0.563984 0.0890142 0.
0.565985 0.0890141 0.
0.567986 0.0890134 0.
0.569987 0.0890124 0.
0.571988 0.0890114 0.
0.573989 0.0890108 0.
0.57599 0.0890103 0.
0.577991 0.0890099 0.
0.579992 0.08901 0.
0.581993 0.08901 0.
0.583994 0.0890099 0.
0.585995 0.0890093 0.
0.587996 0.0890087 0.
0.589997 0.0890083 0.
0.591997 0.0890081 0.
0.593998 0.0890079 0.
0.595999 0.0890081 0.
0.597999 0.0890084 0.
0.6 0.0890087 0.
0.602001 0.0890083 0.
0.604003 0.0890079 0.
0.606004 0.0890076 0.
0.608005 0.0890077 0.
0.610006 0.0890078 0.
0.612007 0.089008 0.
0.614008 0.0890085 0.
0.616009 0.089009 0.
0.61801 0.0890094 0.
0.620011 0.0890097 0.
0.622011 0.08901 0.
0.624013 0.0890108 0.
0.626014 0.0890117 0.
0.628015 0.0890125 0.
0.630016 0.0890128 0.
0.632016 0.0890131 0.
0.634017 0.0890135 0.
0.636018 0.089014 0.
0.638019 0.0890146 0.
0.64002 0.0890152 0.
0.642021 0.0890159 0.
0.644022 0.0890166 0.
0.646023 0.0890165 0.
0.648024 0.0890163 0.
0.650025 0.0890161 0.
0.652026 0.0890166 0.
0.654027 0.0890171 0.
0.656028 0.0890176 0.
0.658029 0.0890179 0.
0.660029 0.0890181 0.
0.66203 0.0890187 0.
0.664031 0.0890198 0.
0.666032 0.0890209 0.
0.668033 0.0890215 0.
0.670033 0.0890218 0.
0.672034 0.0890221 0.
0.674035 0.0890227 0.
0.676036 0.0890234 0.
0.678037 0.0890241 0.
0.680037 0.089025 0.
0.682038 0.089026 0.
0.684038 0.0890266 0.
0.686038 0.0890267 0.
0.688038 0.0890268 0.
0.690039 0.0890271 0.
0.69204 0.0890278 0.
0.694041 0.0890284 0.
0.696041 0.0890299 0.
0.698041 0.0890317 0.
0.499968 0.0910319 0.
0.501968 0.0910313 0.
0.503968 0.0910309 0.
0.505968 0.0910302 0.
0.507968 0.0910287 0.
0.509968 0.0910272 0.
0.511968 0.091026 0.
0.513969 0.091025 0.
0.515969 0.091024 0.
0.517969 0.0910233 0.
0.519969 0.0910227 0.
0.521969 0.091022 0.
0.52397 0.0910213 0.
0.52597 0.0910206 0.
0.527971 0.09102 0.
0.529971 0.0910196 0.
0.531971 0.0910193 0.
0.533972 0.0910189 0.
0.535973 0.0910187 0.
0.537974 0.0910184 0.
0.539975 0.0910182 0.
0.541975 0.091018 0.
0.543976 0.0910179 0.
0.545977 0.0910181 0.
0.547978 0.0910184 0.
0.549979 0.0910187 0.
0.55198 0.0910187 0.
0.553981 0.0910186 0.
0.555982 0.0910183 0.
0.557983 0.0910166 0.
0.559983 0.0910149 0.
0.561984 0.091014 0.
0.563985 0.0910139 0.
0.565985 0.0910138 0.
0.567986 0.0910131 0.
0.569988 0.0910121 0.
0.571989 0.091011 0.
0.57399 0.0910106 0.
0.575991 0.0910101 0.
0.577992 0.0910098 0.
0.579993 0.0910098 0.
0.581993 0.0910098 0.
0.583994 0.0910096 0.
0.585995 0.091009 0.
0.587997 0.0910085 0.
0.589997 0.0910081 0.
0.591998 0.0910079 0.
0.593998 0.0910078 0.
0.595999 0.091008 0.
0.597999 0.0910083 0.
0.6 0.0910086 0.
0.602001 0.0910082 0.
0.604003 0.0910077 0.
0.606004 0.0910074 0.
0.608005 0.0910076 0.
0.610006 0.0910077 0.
0.612007 0.091008 0.
0.614008 0.0910083 0.
0.616009 0.0910087 0.
0.618009 0.0910089 0.
0.62001 0.0910091 0.
0.622011 0.0910093 0.
0.624012 0.0910102 0.
0.626014 0.0910112 0.
0.628015 0.0910121 0.
0.630015 0.0910126 0.
0.632016 0.091013 0.
0.634017 0.0910135 0.
0.636018 0.0910141 0.
0.638019 0.0910147 0.
0.64002 0.0910153 0.
0.64202 0.0910159 0.
0.644021 0.0910165 0.
0.646022 0.0910164 0.
0.648023 0.0910161 0.
0.650024 0.0910159 0.
0.652025 0.0910163 0.
0.654026 0.0910167 0.
0.656027 0.0910171 0.
0.658028 0.0910175 0.
0.660029 0.0910179 0.
0.66203 0.0910186 0.
0.664031 0.0910197 0.
0.666031 0.0910208 0.
0.668032 0.0910213 0.
0.670033 0.0910215 0.
0.672033 0.0910217 0.
0.674034 0.0910223 0.
0.676035 0.0910229 0.
0.678036 0.0910235 0.
0.680037 0.0910247 0.
0.682037 0.0910258 0.
0.684038 0.0910265 0.
0.686038 0.0910265 0.
0.688038 0.0910266 0.
0.690038 0.0910269 0.
0.692039 0.0910275 0.
0.69404 0.091028 0.
0.69604 0.0910298 0.
0.69804 0.0910319 0.
0.499969 0.0930326 0.
0.501969 0.0930322 0.
0.503969 0.0930316 0.
0.505969 0.0930308 0.
0.507969 0.0930291 0.
0.509969 0.0930275 0.
0.511969 0.0930261 0.
0.513969 0.0930253 0.
0.515969 0.0930244 0.
0.51797 0.0930236 0.
0.51997 0.0930228 0.
0.52197 0.093022 0.
0.523971 0.0930212 0.
0.525971 0.0930205 0.
0.527972 0.0930199 0.
0.529972 0.0930195 0.
0.531972 0.0930191 0.
0.533973 0.0930187 0.
0.535973 0.0930183 0.
0.537974 0.0930179 0.
0.539975 0.0930176 0.
0.541975 0.0930172 0.
0.543976 0.0930169 0.
0.545977 0.0930172 0.
0.547977 0.0930176 0.
0.549978 0.0930181 0.
0.551979 0.0930181 0.
0.55398 0.0930182 0.
0.555982 0.0930179 0.
0.557983 0.0930165 0.
0.559984 0.093015 0.
0.561985 0.0930141 0.
0.563986 0.0930137 0.
0.565986 0.0930134 0.
0.567987 0.0930127 0.
0.569988 0.0930118 0.
0.571989 0.0930109 0.
0.573991 0.0930104 0.
0.575992 0.0930101 0.
0.577993 0.0930097 0.
0.579993 0.0930095 0.
0.581994 0.0930094 0.
0.583995 0.0930091 0.
0.585996 0.0930087 0.
0.587997 0.0930084 0.
0.589998 0.0930081 0.
0.591998 0.093008 0.
0.593999 0.0930079 0.
0.596 0.093008 0.
0.598 0.0930082 0.
0.600001 0.0930084 0.
0.602002 0.0930081 0.
0.604003 0.0930077 0.
0.606004 0.0930075 0.
0.608005 0.0930077 0.
0.610006 0.0930079 0.
0.612007 0.0930081 0.
0.614007 0.0930083 0.
0.616008 0.0930084 0.
0.618009 0.0930086 0.
0.62001 0.0930088 0.
0.622011 0.0930091 0.
0.624012 0.0930098 0.
0.626013 0.0930107 0.
0.628014 0.0930115 0.
0.630015 0.0930122 0.
0.632016 0.093013 0.
0.634017 0.0930136 0.
0.636018 0.0930142 0.
0.638019 0.0930147 0.
0.64002 0.0930152 0.
0.64202 0.0930156 0.
0.644021 0.093016 0.
0.646022 0.0930161 0.
0.648023 0.0930161 0.
0.650024 0.0930161 0.
0.652025 0.0930163 0.
0.654026 0.0930165 0.
0.656027 0.0930168 0.
0.658028 0.0930174 0.
0.660029 0.093018 0.
0.662029 0.0930186 0.
0.66403 0.0930194 0.
0.666031 0.0930202 0.
0.668032 0.0930207 0.
0.670032 0.0930211 0.
0.672033 0.0930216 0.
0.674034 0.0930221 0.
0.676034 0.0930226 0.
0.678035 0.0930232 0.
0.680036 0.0930243 0.
0.682037 0.0930255 0.
0.684037 0.0930263 0.
0.686037 0.0930265 0.
0.688038 0.0930267 0.
0.690038 0.0930271 0.
0.692038 0.0930275 0.
0.694039 0.093028 0.
0.696039 0.0930298 0.
0.698039 0.0930319 0.
0.49997 0.0950335 0.
0.50197 0.095033 0.
0.50397 0.0950323 0.
0.50597 0.0950314 0.
0.50797 0.0950295 0.
0.50997 0.0950277 0.
0.51197 0.0950263 0.
0.51397 0.0950255 0.
0.51597 0.0950248 0.
0.51797 0.0950239 0.
0.519971 0.0950229 0.
0.521971 0.0950219 0.
0.523972 0.0950211 0.
0.525972 0.0950205 0.
0.527973 0.0950198 0.
0.529973 0.0950193 0.
0.531973 0.0950189 0.
0.533973 0.0950184 0.
0.535974 0.095018 0.
0.537974 0.0950175 0.
0.539975 0.095017 0.
0.541975 0.0950164 0.
0.543976 0.0950159 0.
0.545977 0.0950163 0.
0.547977 0.0950169 0.
0.549978 0.0950175 0.
0.551979 0.0950176 0.
0.55398 0.0950177 0.
0.555981 0.0950175 0.
0.557983 0.0950163 0.
0.559984 0.0950151 0.
0.561985 0.0950142 0.
0.563986 0.0950136 0.
0.565988 0.0950129 0.
0.567988 0.0950122 0.
0.569989 0.0950115 0.
0.57199 0.0950107 0.
0.573991 0.0950103 0.
0.575992 0.09501 0.
0.577994 0.0950096 0.
0.579994 0.0950093 0.
0.581995 0.0950089 0.
0.583995 0.0950086 0.
0.585996 0.0950085 0.
0.587997 0.0950083 0.
0.589998 0.0950081 0.
0.591999 0.0950081 0.
0.594 0.095008 0.
0.596 0.0950081 0.
0.598001 0.0950082 0.
0.600001 0.0950083 0.
0.602002 0.095008 0.
0.604003 0.0950078 0.
0.606004 0.0950076 0.
0.608005 0.0950079 0.
0.610006 0.0950081 0.
0.612006 0.0950083 0.
0.614007 0.0950082 0.
0.616008 0.0950081 0.
0.618009 0.0950083 0.
0.62001 0.0950086 0.
0.622011 0.0950088 0.
0.624012 0.0950094 0.
0.626012 0.0950101 0.
0.628013 0.0950108 0.
0.630014 0.0950119 0.
0.632016 0.0950129 0.
0.634017 0.0950137 0.
0.636018 0.0950142 0.
0.638019 0.0950147 0.
0.640019 0.095015 0.
0.64202 0.0950153 0.
0.644021 0.0950156 0.
0.646022 0.0950158 0.
0.648023 0.0950161 0.
0.650024 0.0950163 0.
0.652025 0.0950163 0.
0.654026 0.0950162 0.
0.656027 0.0950164 0.
0.658027 0.0950172 0.
0.660028 0.095018 0.
0.662029 0.0950187 0.
0.66403 0.0950191 0.
0.666031 0.0950195 0.
0.668031 0.0950201 0.
0.670031 0.0950208 0.
0.672032 0.0950214 0.
0.674033 0.0950219 0.
0.676034 0.0950223 0.
0.678035 0.0950229 0.
0.680035 0.095024 0.
0.682036 0.0950251 0.
0.684036 0.095026 0.
0.686037 0.0950264 0.
0.688037 0.0950268 0.
0.690037 0.0950272 0.
0.692037 0.0950276 0.
0.694037 0.0950279 0.
0.696037 0.0950297 0.
0.698038 0.095032 0.
0.499972 0.0970334 0.
0.501972 0.0970327 0.
0.503972 0.0970321 0.
0.505972 0.0970312 0.
0.507971 0.0970294 0.
0.509971 0.0970276 0.
0.511971 0.0970263 0.
0.513971 0.0970255 0.
0.515971 0.0970247 0.
0.517972 0.0970238 0.
0.519972 0.0970229 0.
0.521972 0.097022 0.
0.523973 0.0970212 0.
0.525973 0.0970205 0.
0.527974 0.0970198 0.
0.529974 0.0970192 0.
0.531974 0.0970185 0.
0.533974 0.097018 0.
0.535974 0.0970175 0.
0.537975 0.0970171 0.
0.539975 0.0970167 0.
0.541975 0.0970163 0.
0.543976 0.097016 0.
0.545976 0.0970162 0.
0.547977 0.0970166 0.
0.549977 0.0970169 0.
0.551979 0.0970169 0.
0.553981 0.0970169 0.
0.555982 0.0970166 0.
0.557983 0.0970157 0.
0.559984 0.0970147 0.
0.561985 0.0970139 0.
0.563986 0.0970131 0.
0.565987 0.0970123 0.
0.567988 0.0970117 0.
0.569989 0.0970112 0.
0.57199 0.0970106 0.
0.573991 0.0970102 0.
0.575993 0.0970099 0.
0.577994 0.0970095 0.
0.579994 0.097009 0.
0.581995 0.0970085 0.
0.583995 0.0970081 0.
0.585996 0.097008 0.
0.587997 0.0970078 0.
0.589998 0.0970078 0.
0.591998 0.097008 0.
0.593999 0.0970081 0.
0.596 0.097008 0.
0.598001 0.0970078 0.
0.600002 0.0970077 0.
0.602002 0.0970077 0.
0.604003 0.0970077 0.
0.606004 0.0970078 0.
0.608005 0.0970078 0.
0.610006 0.0970078 0.
0.612007 0.0970077 0.
0.614008 0.0970074 0.
0.616009 0.0970071 0.
0.61801 0.0970075 0.
0.62001 0.0970082 0.
0.622011 0.0970089 0.
0.624011 0.0970094 0.
0.626012 0.0970098 0.
0.628013 0.0970103 0.
0.630014 0.0970114 0.
0.632015 0.0970126 0.
0.634016 0.0970135 0.
0.636017 0.0970141 0.
0.638018 0.0970148 0.
0.640018 0.097015 0.
0.642019 0.0970149 0.
0.644021 0.0970149 0.
0.646022 0.0970152 0.
0.648023 0.0970156 0.
0.650024 0.0970159 0.
0.652025 0.0970161 0.
0.654025 0.0970163 0.
0.656026 0.0970166 0.
0.658027 0.0970172 0.
0.660028 0.0970178 0.
0.662029 0.0970183 0.
0.664029 0.0970188 0.
0.66603 0.0970193 0.
0.66803 0.0970199 0.
0.670031 0.0970205 0.
0.672032 0.0970211 0.
0.674032 0.0970215 0.
0.676033 0.0970218 0.
0.678034 0.0970223 0.
0.680034 0.0970232 0.
0.682035 0.0970242 0.
0.684035 0.0970251 0.
0.686036 0.097026 0.
0.688036 0.0970269 0.
0.690036 0.0970275 0.
0.692036 0.0970279 0.
0.694036 0.0970283 0.
0.696036 0.0970296 0.
0.698036 0.0970311 0.
0.499974 0.099033 0.
0.501974 0.0990325 0.
0.503973 0.0990318 0.
0.505973 0.0990309 0.
0.507972 0.0990293 0.
0.509972 0.0990276 0.
0.511972 0.0990262 0.
0.513972 0.0990254 0.
0.515973 0.0990245 0.
0.517973 0.0990237 0.
0.519973 0.0990229 0.
0.521973 0.0990221 0.
0.523973 0.0990213 0.
0.525974 0.0990205 0.
0.527975 0.0990197 0.
0.529975 0.099019 0.
0.531975 0.0990182 0.
0.533975 0.0990175 0.
0.535975 0.0990171 0.
0.537975 0.0990166 0.
0.539975 0.0990163 0.
0.541975 0.0990163 0.
0.543976 0.0990162 0.
0.545976 0.0990162 0.
0.547977 0.0990162 0.
0.549977 0.0990163 0.
0.551979 0.0990162 0.
0.553981 0.0990161 0.
0.555983 0.0990158 0.
0.557984 0.0990151 0.
0.559984 0.0990143 0.
0.561985 0.0990135 0.
0.563986 0.0990126 0.
0.565987 0.0990116 0.
0.567988 0.0990111 0.
0.569989 0.0990108 0.
0.57199 0.0990105 0.
0.573991 0.0990102 0.
0.575993 0.0990097 0.
0.577994 0.0990093 0.
0.579994 0.0990087 0.
0.581995 0.0990081 0.
0.583996 0.0990076 0.
0.585997 0.0990075 0.
0.587997 0.0990074 0.
0.589998 0.0990075 0.
0.591998 0.0990079 0.
0.593999 0.0990082 0.
0.596 0.0990079 0.
0.598001 0.0990075 0.
0.600002 0.0990071 0.
0.602003 0.0990074 0.
0.604003 0.0990077 0.
0.606004 0.0990079 0.
0.608005 0.0990077 0.
0.610006 0.0990075 0.
0.612007 0.0990071 0.
0.614008 0.0990065 0.
0.61601 0.099006 0.
0.61801 0.0990066 0.
0.620011 0.0990079 0.
0.622011 0.0990091 0.
0.624011 0.0990094 0.
0.626012 0.0990095 0.
0.628013 0.0990098 0.
0.630014 0.099011 0.
0.632015 0.0990122 0.
0.634015 0.0990133 0.
0.636016 0.0990141 0.
0.638017 0.0990148 0.
0.640018 0.099015 0.
0.642019 0.0990145 0.
0.64402 0.0990141 0.
0.646022 0.0990145 0.
0.648023 0.0990151 0.
0.650025 0.0990156 0.
0.652025 0.099016 0.
0.654025 0.0990164 0.
0.656025 0.0990168 0.
0.658026 0.0990172 0.
0.660027 0.0990176 0.
0.662028 0.099018 0.
0.664029 0.0990185 0.
0.666029 0.0990191 0.
0.66803 0.0990196 0.
0.670031 0.0990202 0.
0.672031 0.0990208 0.
0.674032 0.0990211 0.
0.676032 0.0990213 0.
0.678033 0.0990216 0.
0.680033 0.0990224 0.
0.682033 0.0990232 0.
0.684034 0.0990242 0.
0.686035 0.0990256 0.
0.688036 0.0990269 0.
0.690036 0.0990278 0.
0.692035 0.0990282 0.
0.694034 0.0990287 0.
0.696034 0.0990294 0.
0.698034 0.0990301 0.
CELLS 5000 10000
1 0
1 1
1 2
1 3
1 4
1 5
1 6
1 7
1 8
1 9
1 10
1 11
1 12
1 13
1 14
1 15
1 16
1 17
1 18
1 19
1 20
1 21
1 22
1 23
1 24
1 25
1 26
1 27
1 28
1 29
1 30
1 31
1 32
1 33
1 34
1 35
1 36
1 37
1 38
1 39
1 40
1 41
1 42
1 43
1 44
1 45
1 46
1 47
1 48
1 49
1 50
1 51
1 52
1 53
1 54
1 55
1 56
1 57
1 58
1 59
1 60
1 61
1 62
1 63
1 64
1 65
1 66
1 67
1 68
1 69
1 70
1 71
1 72
1 73
1 74
1 75
1 76
1 77
1 78
1 79
1 80
1 81
1 82
1 83
1 84
1 85
1 86
1 87
1 88
1 89
1 90
1 91
1 92
1 93
1 94
1 95
1 96
1 97
1 98
1 99
1 100
1 101
1 102
1 103
1 104
1 105
1 106
1 107
1 108
1 109
1 110
1 111
1 112
1 113
1 114
1 115
1 116
1 117
1 118
1 119
1 120
1 121
1 122
1 123
1 124
1 125
1 126
1 127
1 128
1 129
1 130
1 131
1 132
1 133
1 134
1 135
1 136
1 137
1 138
1 139
1 140
1 141
1 142
1 143
1 144
1 145
1 146
1 147
1 148
1 149
1 150
1 151
1 152
1 153
1 154
1 155
1 156
1 157
1 158
1 159
1 160
1 161
1 162
1 163
1 164
1 165
1 166
1 167
1 168
1 169
1 170
1 171
1 172
1 173
1 174
1 175
1 176
1 177
1 178
1 179
1 180
1 181
1 182
1 183
1 184
1 185
1 186
1 187
1 188
1 189
1 190
1 191
1 192
1 193
1 194
1 195
1 196
1 197
1 198
1 199
1 200
1 201
1 202
1 203
1 204
1 205
1 206
1 207
1 208
1 209
1 210
1 211
1 212
1 213
1 214
1 215
1 216
1 217
1 218
1 219
1 220
1 221
1 222
1 223
1 224
1 225
1 226
1 227
1 228
1 229
1 230
1 231
1 232
1 233
1 234
1 235
1 236
1 237
1 238
1 239
1 240
1 241
1 242
1 243
1 244
1 245
1 246
1 247
1 248
1 249
1 250
1 251
1 252
1 253
1 254
1 255
1 256
1 257
1 258
1 259
1 260
1 261
1 262
1 263
1 264
1 265
1 266
1 267
1 268
1 269
1 270
1 271
1 272
1 273
1 274
1 275
1 276
1 277
1 278
1 279
1 280
1 281
1 282
1 283
1 284
1 285
1 286
1 287
1 288
1 289
1 290
1 291
1 292
1 293
1 294
1 295
1 296
1 297
1 298
1 299
1 300
1 301
1 302
1 303
1 304
1 305
1 306
1 307
1 308
1 309
1 310
1 311
1 312
1 313
1 314
1 315
1 316
1 317
1 318
1 319
1 320
1 321
1 322
1 323
1 324
1 325
1 326
1 327
1 328
1 329
1 330
1 331
1 332
1 333
1 334
1 335
1 336
1 337
1 338
1 339
1 340
1 341
1 342
1 343
1 344
1 345
1 346
1 347
1 348
1 349
1 350
1 351
1 352
1 353
1 354
1 355
1 356
1 357
1 358
1 359
1 360
1 361
1 362
1 363
1 364
1 365
1 366
1 367
1 368
1 369
1 370
1 371
1 372
1 373
1 374
1 375
1 376
1 377
1 378
1 379
1 380
1 381
1 382
1 383
1 384
1 385
1 386
1 387
1 388
1 389
1 390
1 391
1 392
1 393
1 394
1 395
1 396
1 397
1 398
1 399
1 400
1 401
1 402
1 403
1 404
1 405
1 406
1 407
1 408
1 409
1 410
1 411
1 412
1 413
1 414
1 415
1 416
1 417
1 418
1 419
1 420
1 421
1 422
1 423
1 424
1 425
1 426
1 427
1 428
1 429
1 430
1 431
1 432
1 433
1 434
1 435
1 436
1 437
1 438
1 439
1 440
1 441
1 442
1 443
1 444
1 445
1 446
1 447
1 448
1 449
1 450
1 451
1 452
1 453
1 454
1 455
1 456
1 457
1 458
1 459
1 460
1 461
1 462
1 463
1 464
1 465
1 466
1 467
1 468
1 469
1 470
1 471
1 472
1 473
1 474
1 475
1 476
1 477
1 478
1 479
1 480
1 481
1 482
1 483
1 484
1 485
1 486
1 487
1 488
1 489
1 490
1 491
1 492
1 493
1 494
1 495
1 496
1 497
1 498
1 499
1 500
1 501
1 502
1 503
1 504
1 505
1 506
1 507
1 508
1 509
1 510
1 511
1 512
1 513
1 514
1 515
1 516
1 517
1 518
1 519
1 520
1 521
1 522
1 523
1 524
1 525
1 526
1 527
1 528
1 529
1 530
1 531
1 532
1 533
1 534
1 535
1 536
1 537
1 538
1 539
1 540
1 541
1 542
1 543
1 544
1 545
1 546
1 547
1 548
1 549
1 550
1 551
1 552
1 553
1 554
1 555
1 556
1 557
1 558
1 559
1 560
1 561
1 562
1 563
1 564
1 565
1 566
1 567
1 568
1 569
1 570
1 571
1 572
1 573
1 574
1 575
1 576
1 577
1 578
1 579
1 580
1 581
1 582
1 583
1 584
1 585
1 586
1 587
1 588
1 589
1 590
1 591
1 592
1 593
1 594
1 595
1 596
1 597
1 598
1 599
1 600
1 601
1 602
1 603
1 604
1 605
1 606
1 607
1 608
1 609
1 610
1 611
1 612
1 613
1 614
1 615
1 616
1 617
1 618
1 619
1 620
1 621
1 622
1 623
1 624
1 625
1 626
1 627
1 628
1 629
1 630
1 631
1 632
1 633
1 634
1 635
1 636
1 637
1 638
1 639
1 640
1 641
1 642
1 643
1 644
1 645
1 646
1 647
1 648
1 649
1 650
1 651
1 652
1 653
1 654
1 655
1 656
1 657
1 658
1 659
1 660
1 661
1 662
1 663
1 664
1 665
1 666
1 667
1 668
1 669
1 670
1 671
1 672
1 673
1 674
1 675
1 676
1 677
1 678
1 679
1 680
1 681
1 682
1 683
1 684
1 685
1 686
1 687
1 688
1 689
1 690
1 691
1 692
1 693
1 694
1 695
1 696
1 697
1 698
1 699
1 700
1 701
1 702
1 703
1 704
1 705
1 706
1 707
1 708
1 709
1 710
1 711
1 712
1 713
1 714
1 715
1 716
1 717
1 718
1 719
1 720
1 721
1 722
1 723
1 724
1 725
1 726
1 727
1 728
1 729
1 730
1 731
1 732
1 733
1 734
1 735
1 736
1 737
1 738
1 739
1 740
1 741
1 742
1 743
1 744
1 745
1 746
1 747
1 748
1 749
1 750
1 751
1 752
1 753
1 754
1 755
1 756
1 757
1 758
1 759
1 760
1 761
1 762
1 763
1 764
1 765
1 766
1 767
1 768
1 769
1 770
1 771
1 772
1 773
1 774
1 775
1 776
1 777
1 778
1 779
1 780
1 781
1 782
1 783
1 784
1 785
1 786
1 787
1 788
1 789
1 790
1 791
1 792
1 793
1 794
1 795
1 796
1 797
1 798
1 799
1 800
1 801
1 802
1 803
1 804
1 805
1 806
1 807
1 808
1 809
1 810
1 811
1 812
1 813
1 814
1 815
1 816
1 817
1 818
1 819
1 820
1 821
1 822
1 823
1 824
1 825
1 826
1 827
1 828
1 829
1 830
1 831
1 832
1 833
1 834
1 835
1 836
1 837
1 838
1 839
1 840
1 841
1 842
1 843
1 844
1 845
1 846
1 847
1 848
1 849
1 850
1 851
1 852
1 853
1 854
1 855
1 856
1 857
1 858
1 859
1 860
1 861
1 862
1 863
1 864
1 865
1 866
1 867
1 868
1 869
1 870
1 871
1 872
1 873
1 874
1 875
1 876
1 877
1 878
1 879
1 880
1 881
1 882
1 883
1 884
1 885
1 886
1 887
1 888
1 889
1 890
1 891
1 892
1 893
1 894
1 895
1 896
1 897
1 898
1 899
1 900
1 901
1 902
1 903
1 904
1 905
1 906
1 907
1 908
1 909
1 910
1 911
1 912
1 913
1 914
1 915
1 916
1 917
1 918
1 919
1 920
1 921
1 922
1 923
1 924
1 925
1 926
1 927
1 928
1 929
1 930
1 931
1 932
1 933
1 934
1 935
1 936
1 937
1 938
1 939
1 940
1 941
1 942
1 943
1 944
1 945
1 946
1 947
1 948
1 949
1 950
1 951
1 952
1 953
1 954
1 955
1 956
1 957
1 958
1 959
1 960
1 961
1 962
1 963
1 964
1 965
1 966
1 967
1 968
1 969
1 970
1 971
1 972
1 973
1 974
1 975
1 976
1 977
1 978
1 979
1 980
1 981
1 982
1 983
1 984
1 985
1 986
1 987
1 988
1 989
1 990
1 991
1 992
1 993
1 994
1 995
1 996
1 997
1 998
1 999
1 1000
1 1001
1 1002
1 1003
1 1004
1 1005
1 1006
1 1007
1 1008
1 1009
1 1010
1 1011
1 1012
1 1013
1 1014
1 1015
1 1016
1 1017
1 1018
1 1019
1 1020
1 1021
1 1022
1 1023
1 1024
1 1025
1 1026
1 1027
1 1028
1 1029
1 1030
1 1031
1 1032
1 1033
1 1034
1 1035
1 1036
1 1037
1 1038
1 1039
1 1040
1 1041
1 1042
1 1043
1 1044
1 1045
1 1046
1 1047
1 1048
1 1049
1 1050
1 1051
1 1052
1 1053
1 1054
1 1055
1 1056
1 1057
1 1058
1 1059
1 1060
1 1061
1 1062
1 1063
1 1064
1 1065
1 1066
1 1067
1 1068
1 1069
1 1070
1 1071
1 1072
1 1073
1 1074
1 1075
1 1076
1 1077
1 1078
1 1079
1 1080
1 1081
1 1082
1 1083
1 1084
1 1085
1 1086
1 1087
1 1088
1 1089
1 1090
1 1091
1 1092
1 1093
1 1094
1 1095
1 1096
1 1097
1 1098
1 1099
1 1100
1 1101
1 1102
1 1103
1 1104
1 1105
1 1106
1 1107
1 1108
1 1109
1 1110
1 1111
1 1112
1 1113
1 1114
1 1115
1 1116
1 1117
1 1118
1 1119
1 1120
1 1121
1 1122
1 1123
1 1124
1 1125
1 1126
1 1127
1 1128
1 1129
1 1130
1 1131
1 1132
1 1133
1 1134
1 1135
1 1136
1 1137
1 1138
1 1139
1 1140
1 1141
1 1142
1 1143
1 1144
1 1145
1 1146
1 1147
1 1148
1 1149
1 1150
1 1151
1 1152
1 1153
1 1154
1 1155
1 1156
1 1157
1 1158
1 1159
1 1160
1 1161
1 1162
1 1163
1 1164
1 1165
1 1166
1 1167
1 1168
1 1169
1 1170
1 1171
1 1172
1 1173
1 1174
1 1175
1 1176
1 1177
1 1178
1 1179
1 1180
1 1181
1 1182
1 1183
1 1184
1 1185
1 1186
1 1187
1 1188
1 1189
1 1190
1 1191
1 1192
1 1193
1 1194
1 1195
1 1196
1 1197
1 1198
1 1199
1 1200
1 1201
1 1202
1 1203
1 1204
1 1205
1 1206
1 1207
1 1208
1 1209
1 1210
1 1211
1 1212
1 1213
1 1214
1 1215
1 1216
1 1217
1 1218
1 1219
1 1220
1 1221
1 1222
1 1223
1 1224
1 1225
1 1226
1 1227
1 1228
1 1229
1 1230
1 1231
1 1232
1 1233
1 1234
1 1235
1 1236
1 1237
1 1238
1 1239
1 1240
1 1241
1 1242
1 1243
1 1244
1 1245
1 1246
1 1247
1 1248
1 1249
1 1250
1 1251
1 1252
1 1253
1 1254
1 1255
1 1256
1 1257
1 1258
1 1259
1 1260
1 1261
1 1262
1 1263
1 1264
1 1265
1 1266
1 1267
1 1268
1 1269
1 1270
1 1271
1 1272
1 1273
1 1274
1 1275
1 1276
1 1277
1 1278
1 1279
1 1280
1 1281
1 1282
1 1283
1 1284
1 1285
1 1286
1 1287
1 1288
1 1289
1 1290
1 1291
1 1292
1 1293
1 1294
1 1295
1 1296
1 1297
1 1298
1 1299
1 1300
1 1301
1 1302
1 1303
1 1304
1 1305
1 1306
1 1307
1 1308
1 1309
1 1310
1 1311
1 1312
1 1313
1 1314
1 1315
1 1316
1 1317
1 1318
1 1319
1 1320
1 1321
1 1322
1 1323
1 1324
1 1325
1 1326
1 1327
1 1328
1 1329
1 1330
1 1331
1 1332
1 1333
1 1334
1 1335
1 1336
1 1337
1 1338
1 1339
1 1340
1 1341
1 1342
1 1343
1 1344
1 1345
1 1346
1 1347
1 1348
1 1349
1 1350
1 1351
1 1352
1 1353
1 1354
1 1355
1 1356
1 1357
1 1358
1 1359
1 1360
1 1361
1 1362
1 1363
1 1364
1 1365
1 1366
1 1367
1 1368
1 1369
1 1370
1 1371
1 1372
1 1373
1 1374
1 1375
1 1376
1 1377
1 1378
1 1379
1 1380
1 1381
1 1382
1 1383
1 1384
1 1385
1 1386
1 1387
1 1388
1 1389
1 1390
1 1391
1 1392
1 1393
1 1394
1 1395
1 1396
1 1397
1 1398
1 1399
1 1400
1 1401
1 1402
1 1403
1 1404
1 1405
1 1406
1 1407
1 1408
1 1409
1 1410
1 1411
1 1412
1 1413
1 1414
1 1415
1 1416
1 1417
1 1418
1 1419
1 1420
1 1421
1 1422
1 1423
1 1424
1 1425
1 1426
1 1427
1 1428
1 1429
1 1430
1 1431
1 1432
1 1433
1 1434
1 1435
1 1436
1 1437
1 1438
1 1439
1 1440
1 1441
1 1442
1 1443
1 1444
1 1445
1 1446
1 1447
1 1448
1 1449
1 1450
1 1451
1 1452
1 1453
1 1454
1 1455
1 1456
1 1457
1 1458
1 1459
1 1460
1 1461
1 1462
1 1463
1 1464
1 1465
1 1466
1 1467
1 1468
1 1469
1 1470
1 1471
1 1472
1 1473
1 1474
1 1475
1 1476
1 1477
1 1478
1 1479
1 1480
1 1481
1 1482
1 1483
1 1484
1 1485
1 1486
1 1487
1 1488
1 1489
1 1490
1 1491
1 1492
1 1493
1 1494
1 1495
1 1496
1 1497
1 1498
1 1499
1 1500
1 1501
1 1502
1 1503
1 1504
1 1505
1 1506
1 1507
1 1508
1 1509
1 1510
1 1511
1 1512
1 1513
1 1514
1 1515
1 1516
1 1517
1 1518
1 1519
1 1520
1 1521
1 1522
1 1523
1 1524
1 1525
1 1526
1 1527
1 1528
1 1529
1 1530
1 1531
1 1532
1 1533
1 1534
1 1535
1 1536
1 1537
1 1538
1 1539
1 1540
1 1541
1 1542
1 1543
1 1544
1 1545
1 1546
1 1547
1 1548
1 1549
1 1550
1 1551
1 1552
1 1553
1 1554
1 1555
1 1556
1 1557
1 1558
1 1559
1 1560
1 1561
1 1562
1 1563
1 1564
1 1565
1 1566
1 1567
1 1568
1 1569
1 1570
1 1571
1 1572
1 1573
1 1574
1 1575
1 1576
1 1577
1 1578
1 1579
1 1580
1 1581
1 1582
1 1583
1 1584
1 1585
1 1586
1 1587
1 1588
1 1589
1 1590
1 1591
1 1592
1 1593
1 1594
1 1595
1 1596
1 1597
1 1598
1 1599
1 1600
1 1601
1 1602
1 1603
1 1604
1 1605
1 1606
1 1607
1 1608
1 1609
1 1610
1 1611
1 1612
1 1613
1 1614
1 1615
1 1616
1 1617
1 1618
1 1619
1 1620
1 1621
1 1622
1 1623
1 1624
1 1625
1 1626
1 1627
1 1628
1 1629
1 1630
1 1631
1 1632
1 1633
1 1634
1 1635
1 1636
1 1637
1 1638
1 1639
1 1640
1 1641
1 1642
1 1643
1 1644
1 1645
1 1646
1 1647
1 1648
1 1649
1 1650
1 1651
1 1652
1 1653
1 1654
1 1655
1 1656
1 1657
1 1658
1 1659
1 1660
1 1661
1 1662
1 1663
1 1664
1 1665
1 1666
1 1667
1 1668
1 1669
1 1670
1 1671
1 1672
1 1673
1 1674
1 1675
1 1676
1 1677
1 1678
1 1679
1 1680
1 1681
1 1682
1 1683
1 1684
1 1685
1 1686
1 1687
1 1688
1 1689
1 1690
1 1691
1 1692
1 1693
1 1694
1 1695
1 1696
1 1697
1 1698
1 1699
1 1700
1 1701
1 1702
1 1703
1 1704
1 1705
1 1706
1 1707
1 1708
1 1709
1 1710
1 1711
1 1712
1 1713
1 1714
1 1715
1 1716
1 1717
1 1718
1 1719
1 1720
1 1721
1 1722
1 1723
1 1724
1 1725
1 1726
1 1727
1 1728
1 1729
1 1730
1 1731
1 1732
1 1733
1 1734
1 1735
1 1736
1 1737
1 1738
1 1739
1 1740
1 1741
1 1742
1 1743
1 1744
1 1745
1 1746
1 1747
1 1748
1 1749
1 1750
1 1751
1 1752
1 1753
1 1754
1 1755
1 1756
1 1757
1 1758
1 1759
1 1760
1 1761
1 1762
1 1763
1 1764
1 1765
1 1766
1 1767
1 1768
1 1769
1 1770
1 1771
1 1772
1 1773
1 1774
1 1775
1 1776
1 1777
1 1778
1 1779
1 1780
1 1781
1 1782
1 1783
1 1784
1 1785
1 1786
1 1787
1 1788
1 1789
1 1790
1 1791
1 1792
1 1793
1 1794
1 1795
1 1796
1 1797
1 1798
1 1799
1 1800
1 1801
1 1802
1 1803
1 1804
1 1805
1 1806
1 1807
1 1808
1 1809
1 1810
1 1811
1 1812
1 1813
1 1814
1 1815
1 1816
1 1817
1 1818
1 1819
1 1820
1 1821
1 1822
1 1823
1 1824
1 1825
1 1826
1 1827
1 1828
1 1829
1 1830
1 1831
1 1832
1 1833
1 1834
1 1835
1 1836
1 1837
1 1838
1 1839
1 1840
1 1841
1 1842
1 1843
1 1844
1 1845
1 1846
1 1847
1 1848
1 1849
1 1850
1 1851
1 1852
1 1853
1 1854
1 1855
1 1856
1 1857
1 1858
1 1859
1 1860
1 1861
1 1862
1 1863
1 1864
1 1865
1 1866
1 1867
1 1868
1 1869
1 1870
1 1871
1 1872
1 1873
1 1874
1 1875
1 1876
1 1877
1 1878
1 1879
1 1880
1 1881
1 1882
1 1883
1 1884
1 1885
1 1886
1 1887
1 1888
1 1889
1 1890
1 1891
1 1892
1 1893
1 1894
1 1895
1 1896
1 1897
1 1898
1 1899
1 1900
1 1901
1 1902
1 1903
1 1904
1 1905
1 1906
1 1907
1 1908
1 1909
1 1910
1 1911
1 1912
1 1913
1 1914
1 1915
1 1916
1 1917
1 1918
1 1919
1 1920
1 1921
1 1922
1 1923
1 1924
1 1925
1 1926
1 1927
1 1928
1 1929
1 1930
1 1931
1 1932
1 1933
1 1934
1 1935
1 1936
1 1937
1 1938
1 1939
1 1940
1 1941
1 1942
1 1943
1 1944
1 1945
1 1946
1 1947
1 1948
1 1949
1 1950
1 1951
1 1952
1 1953
1 1954
1 1955
1 1956
1 1957
1 1958
1 1959
1 1960
1 1961
1 1962
1 1963
1 1964
1 1965
1 1966
1 1967
1 1968
1 1969
1 1970
1 1971
1 1972
1 1973
1 1974
1 1975
1 1976
1 1977
1 1978
1 1979
1 1980
1 1981
1 1982
1 1983
1 1984
1 1985
1 1986
1 1987
1 1988
1 1989
1 1990
1 1991
1 1992
1 1993
1 1994
1 1995
1 1996
1 1997
1 1998
1 1999
1 2000
1 2001
1 2002
1 2003
1 2004
1 2005
1 2006
1 2007
1 2008
1 2009
1 2010
1 2011
1 2012
1 2013
1 2014
1 2015
1 2016
1 2017
1 2018
1 2019
1 2020
1 2021
1 2022
1 2023
1 2024
1 2025
1 2026
1 2027
1 2028
1 2029
1 2030
1 2031
1 2032
1 2033
1 2034
1 2035
1 2036
1 2037
1 2038
1 2039
1 2040
1 2041
1 2042
1 2043
1 2044
1 2045
1 2046
1 2047
1 2048
1 2049
1 2050
1 2051
1 2052
1 2053
1 2054
1 2055
1 2056
1 2057
1 2058
1 2059
1 2060
1 2061
1 2062
1 2063
1 2064
1 2065
1 2066
1 2067
1 2068
1 2069
1 2070
1 2071
1 2072
1 2073
1 2074
1 2075
1 2076
1 2077
1 2078
1 2079
1 2080
1 2081
1 2082
1 2083
1 2084
1 2085
1 2086
1 2087
1 2088
1 2089
1 2090
1 2091
1 2092
1 2093
1 2094
1 2095
1 2096
1 2097
1 2098
1 2099
1 2100
1 2101
1 2102
1 2103
1 2104
1 2105
1 2106
1 2107
1 2108
1 2109
1 2110
1 2111
1 2112
1 2113
1 2114
1 2115
1 2116
1 2117
1 2118
1 2119
1 2120
1 2121
1 2122
1 2123
1 2124
1 2125
1 2126
1 2127
1 2128
1 2129
1 2130
1 2131
1 2132
1 2133
1 2134
1 2135
1 2136
1 2137
1 2138
1 2139
1 2140
1 2141
1 2142
1 2143
1 2144
1 2145
1 2146
1 2147
1 2148
1 2149
1 2150
1 2151
1 2152
1 2153
1 2154
1 2155
1 2156
1 2157
1 2158
1 2159
1 2160
1 2161
1 2162
1 2163
1 2164
1 2165
1 2166
1 2167
1 2168
1 2169
1 2170
1 2171
1 2172
1 2173
1 2174
1 2175
1 2176
1 2177
1 2178
1 2179
1 2180
1 2181
1 2182
1 2183
1 2184
1 2185
1 2186
1 2187
1 2188
1 2189
1 2190
1 2191
1 2192
1 2193
1 2194
1 2195
1 2196
1 2197
1 2198
1 2199
1 2200
1 2201
1 2202
1 2203
1 2204
1 2205
1 2206
1 2207
1 2208
1 2209
1 2210
1 2211
1 2212
1 2213
1 2214
1 2215
1 2216
1 2217
1 2218
1 2219
1 2220
1 2221
1 2222
1 2223
1 2224
1 2225
1 2226
1 2227
1 2228
1 2229
1 2230
1 2231
1 2232
1 2233
1 2234
1 2235
1 2236
1 2237
1 2238
1 2239
1 2240
1 2241
1 2242
1 2243
1 2244
1 2245
1 2246
1 2247
1 2248
1 2249
1 2250
1 2251
1 2252
1 2253
1 2254
1 2255
1 2256
1 2257
1 2258
1 2259
1 2260
1 2261
1 2262
1 2263
1 2264
1 2265
1 2266
1 2267
1 2268
1 2269
1 2270
1 2271
1 2272
1 2273
1 2274
1 2275
1 2276
1 2277
1 2278
1 2279
1 2280
1 2281
1 2282
1 2283
1 2284
1 2285
1 2286
1 2287
1 2288
1 2289
1 2290
1 2291
1 2292
1 2293
1 2294
1 2295
1 2296
1 2297
1 2298
1 2299
1 2300
1 2301
1 2302
1 2303
1 2304
1 2305
1 2306
1 2307
1 2308
1 2309
1 2310
1 2311
1 2312
1 2313
1 2314
1 2315
1 2316
1 2317
1 2318
1 2319
1 2320
1 2321
1 2322
1 2323
1 2324
1 2325
1 2326
1 2327
1 2328
1 2329
1 2330
1 2331
1 2332
1 2333
1 2334
1 2335
1 2336
1 2337
1 2338
1 2339
1 2340
1 2341
1 2342
1 2343
1 2344
1 2345
1 2346
1 2347
1 2348
1 2349
1 2350
1 2351
1 2352
1 2353
1 2354
1 2355
1 2356
1 2357
1 2358
1 2359
1 2360
1 2361
1 2362
1 2363
1 2364
1 2365
1 2366
1 2367
1 2368
1 2369
1 2370
1 2371
1 2372
1 2373
1 2374
1 2375
1 2376
1 2377
1 2378
1 2379
1 2380
1 2381
1 2382
1 2383
1 2384
1 2385
1 2386
1 2387
1 2388
1 2389
1 2390
1 2391
1 2392
1 2393
1 2394
1 2395
1 2396
1 2397
1 2398
1 2399
1 2400
1 2401
1 2402
1 2403
1 2404
1 2405
1 2406
1 2407
1 2408
1 2409
1 2410
1 2411
1 2412
1 2413
1 2414
1 2415
1 2416
1 2417
1 2418
1 2419
1 2420
1 2421
1 2422
1 2423
1 2424
1 2425
1 2426
1 2427
1 2428
1 2429
1 2430
1 2431
1 2432
1 2433
1 2434
1 2435
1 2436
1 2437
1 2438
1 2439
1 2440
1 2441
1 2442
1 2443
1 2444
1 2445
1 2446
1 2447
1 2448
1 2449
1 2450
1 2451
1 2452
1 2453
1 2454
1 2455
1 2456
1 2457
1 2458
1 2459
1 2460
1 2461
1 2462
1 2463
1 2464
1 2465
1 2466
1 2467
1 2468
1 2469
1 2470
1 2471
1 2472
1 2473
1 2474
1 2475
1 2476
1 2477
1 2478
1 2479
1 2480
1 2481
1 2482
1 2483
1 2484
1 2485
1 2486
1 2487
1 2488
1 2489
1 2490
1 2491
1 2492
1 2493
1 2494
1 2495
1 2496
1 2497
1 2498
1 2499
1 2500
1 2501
1 2502
1 2503
1 2504
1 2505
1 2506
1 2507
1 2508
1 2509
1 2510
1 2511
1 2512
1 2513
1 2514
1 2515
1 2516
1 2517
1 2518
1 2519
1 2520
1 2521
1 2522
1 2523
1 2524
1 2525
1 2526
1 2527
1 2528
1 2529
1 2530
1 2531
1 2532
1 2533
1 2534
1 2535
1 2536
1 2537
1 2538
1 2539
1 2540
1 2541
1 2542
1 2543
1 2544
1 2545
1 2546
1 2547
1 2548
1 2549
1 2550
1 2551
1 2552
1 2553
1 2554
1 2555
1 2556
1 2557
1 2558
1 2559
1 2560
1 2561
1 2562
1 2563
1 2564
1 2565
1 2566
1 2567
1 2568
1 2569
1 2570
1 2571
1 2572
1 2573
1 2574
1 2575
1 2576
1 2577
1 2578
1 2579
1 2580
1 2581
1 2582
1 2583
1 2584
1 2585
1 2586
1 2587
1 2588
1 2589
1 2590
1 2591
1 2592
1 2593
1 2594
1 2595
1 2596
1 2597
1 2598
1 2599
1 2600
1 2601
1 2602
1 2603
1 2604
1 2605
1 2606
1 2607
1 2608
1 2609
1 2610
1 2611
1 2612
1 2613
1 2614
1 2615
1 2616
1 2617
1 2618
1 2619
1 2620
1 2621
1 2622
1 2623
1 2624
1 2625
1 2626
1 2627
1 2628
1 2629
1 2630
1 2631
1 2632
1 2633
1 2634
1 2635
1 2636
1 2637
1 2638
1 2639
1 2640
1 2641
1 2642
1 2643
1 2644
1 2645
1 2646
1 2647
1 2648
1 2649
1 2650
1 2651
1 2652
1 2653
1 2654
1 2655
1 2656
1 2657
1 2658
1 2659
1 2660
1 2661
1 2662
1 2663
1 2664
1 2665
1 2666
1 2667
1 2668
1 2669
1 2670
1 2671
1 2672
1 2673
1 2674
1 2675
1 2676
1 2677
1 2678
1 2679
1 2680
1 2681
1 2682
1 2683
1 2684
1 2685
1 2686
1 2687
1 2688
1 2689
1 2690
1 2691
1 2692
1 2693
1 2694
1 2695
1 2696
1 2697
1 2698
1 2699
1 2700
1 2701
1 2702
1 2703
1 2704
1 2705
1 2706
1 2707
1 2708
1 2709
1 2710
1 2711
1 2712
1 2713
1 2714
1 2715
1 2716
1 2717
1 2718
1 2719
1 2720
1 2721
1 2722
1 2723
1 2724
1 2725
1 2726
1 2727
1 2728
1 2729
1 2730
1 2731
1 2732
1 2733
1 2734
1 2735
1 2736
1 2737
1 2738
1 2739
1 2740
1 2741
1 2742
1 2743
1 2744
1 2745
1 2746
1 2747
1 2748
1 2749
1 2750
1 2751
1 2752
1 2753
1 2754
1 2755
1 2756
1 2757
1 2758
1 2759
1 2760
1 2761
1 2762
1 2763
1 2764
1 2765
1 2766
1 2767
1 2768
1 2769
1 2770
1 2771
1 2772
1 2773
1 2774
1 2775
1 2776
1 2777
1 2778
1 2779
1 2780
1 2781
1 2782
1 2783
1 2784
1 2785
1 2786
1 2787
1 2788
1 2789
1 2790
1 2791
1 2792
1 2793
1 2794
1 2795
1 2796
1 2797
1 2798
1 2799
1 2800
1 2801
1 2802
1 2803
1 2804
1 2805
1 2806
1 2807
1 2808
1 2809
1 2810
1 2811
1 2812
1 2813
1 2814
1 2815
1 2816
1 2817
1 2818
1 2819
1 2820
1 2821
1 2822
1 2823
1 2824
1 2825
1 2826
1 2827
1 2828
1 2829
1 2830
1 2831
1 2832
1 2833
1 2834
1 2835
1 2836
1 2837
1 2838
1 2839
1 2840
1 2841
1 2842
1 2843
1 2844
1 2845
1 2846
1 2847
1 2848
1 2849
1 2850
1 2851
1 2852
1 2853
1 2854
1 2855
1 2856
1 2857
1 2858
1 2859
1 2860
1 2861
1 2862
1 2863
1 2864
1 2865
1 2866
1 2867
1 2868
1 2869
1 2870
1 2871
1 2872
1 2873
1 2874
1 2875
1 2876
1 2877
1 2878
1 2879
1 2880
1 2881
1 2882
1 2883
1 2884
1 2885
1 2886
1 2887
1 2888
1 2889
1 2890
1 2891
1 2892
1 2893
1 2894
1 2895
1 2896
1 2897
1 2898
1 2899
1 2900
1 2901
1 2902
1 2903
1 2904
1 2905
1 2906
1 2907
1 2908
1 2909
1 2910
1 2911
1 2912
1 2913
1 2914
1 2915
1 2916
1 2917
1 2918
1 2919
1 2920
1 2921
1 2922
1 2923
1 2924
1 2925
1 2926
1 2927
1 2928
1 2929
1 2930
1 2931
1 2932
1 2933
1 2934
1 2935
1 2936
1 2937
1 2938
1 2939
1 2940
1 2941
1 2942
1 2943
1 2944
1 2945
1 2946
1 2947
1 2948
1 2949
1 2950
1 2951
1 2952
1 2953
1 2954
1 2955
1 2956
1 2957
1 2958
1 2959
1 2960
1 2961
1 2962
1 2963
1 2964
1 2965
1 2966
1 2967
1 2968
1 2969
1 2970
1 2971
1 2972
1 2973
1 2974
1 2975
1 2976
1 2977
1 2978
1 2979
1 2980
1 2981
1 2982
1 2983
1 2984
1 2985
1 2986
1 2987
1 2988
1 2989
1 2990
1 2991
1 2992
1 2993
1 2994
1 2995
1 2996
1 2997
1 2998
1 2999
1 3000
1 3001
1 3002
1 3003
1 3004
1 3005
1 3006
1 3007
1 3008
1 3009
1 3010
1 3011
1 3012
1 3013
1 3014
1 3015
1 3016
1 3017
1 3018
1 3019
1 3020
1 3021
1 3022
1 3023
1 3024
1 3025
1 3026
1 3027
1 3028
1 3029
1 3030
1 3031
1 3032
1 3033
1 3034
1 3035
1 3036
1 3037
1 3038
1 3039
1 3040
1 3041
1 3042
1 3043
1 3044
1 3045
1 3046
1 3047
1 3048
1 3049
1 3050
1 3051
1 3052
1 3053
1 3054
1 3055
1 3056
1 3057
1 3058
1 3059
1 3060
1 3061
1 3062
1 3063
1 3064
1 3065
1 3066
1 3067
1 3068
1 3069
1 3070
1 3071
1 3072
1 3073
1 3074
1 3075
1 3076
1 3077
1 3078
1 3079
1 3080
1 3081
1 3082
1 3083
1 3084
1 3085
1 3086
1 3087
1 3088
1 3089
1 3090
1 3091
1 3092
1 3093
1 3094
1 3095
1 3096
1 3097
1 3098
1 3099
1 3100
1 3101
1 3102
1 3103
1 3104
1 3105
1 3106
1 3107
1 3108
1 3109
1 3110
1 3111
1 3112
1 3113
1 3114
1 3115
1 3116
1 3117
1 3118
1 3119
1 3120
1 3121
1 3122
1 3123
1 3124
1 3125
1 3126
1 3127
1 3128
1 3129
1 3130
1 3131
1 3132
1 3133
1 3134
1 3135
1 3136
1 3137
1 3138
1 3139
1 3140
1 3141
1 3142
1 3143
1 3144
1 3145
1 3146
1 3147
1 3148
1 3149
1 3150
1 3151
1 3152
1 3153
1 3154
1 3155
1 3156
1 3157
1 3158
1 3159
1 3160
1 3161
1 3162
1 3163
1 3164
1 3165
1 3166
1 3167
1 3168
1 3169
1 3170
1 3171
1 3172
1 3173
1 3174
1 3175
1 3176
1 3177
1 3178
1 3179
1 3180
1 3181
1 3182
1 3183
1 3184
1 3185
1 3186
1 3187
1 3188
1 3189
1 3190
1 3191
1 3192
1 3193
1 3194
1 3195
1 3196
1 3197
1 3198
1 3199
1 3200
1 3201
1 3202
1 3203
1 3204
1 3205
1 3206
1 3207
1 3208
1 3209
1 3210
1 3211
1 3212
1 3213
1 3214
1 3215
1 3216
1 3217
1 3218
1 3219
1 3220
1 3221
1 3222
1 3223
1 3224
1 3225
1 3226
1 3227
1 3228
1 3229
1 3230
1 3231
1 3232
1 3233
1 3234
1 3235
1 3236
1 3237
1 3238
1 3239
1 3240
1 3241
1 3242
1 3243
1 3244
1 3245
1 3246
1 3247
1 3248
1 3249
1 3250
1 3251
1 3252
1 3253
1 3254
1 3255
1 3256
1 3257
1 3258
1 3259
1 3260
1 3261
1 3262
1 3263
1 3264
1 3265
1 3266
1 3267
1 3268
1 3269
1 3270
1 3271
1 3272
1 3273
1 3274
1 3275
1 3276
1 3277
1 3278
1 3279
1 3280
1 3281
1 3282
1 3283
1 3284
1 3285
1 3286
1 3287
1 3288
1 3289
1 3290
1 3291
1 3292
1 3293
1 3294
1 3295
1 3296
1 3297
1 3298
1 3299
1 3300
1 3301
1 3302
1 3303
1 3304
1 3305
1 3306
1 3307
1 3308
1 3309
1 3310
1 3311
1 3312
1 3313
1 3314
1 3315
1 3316
1 3317
1 3318
1 3319
1 3320
1 3321
1 3322
1 3323
1 3324
1 3325
1 3326
1 3327
1 3328
1 3329
1 3330
1 3331
1 3332
1 3333
1 3334
1 3335
1 3336
1 3337
1 3338
1 3339
1 3340
1 3341
1 3342
1 3343
1 3344
1 3345
1 3346
1 3347
1 3348
1 3349
1 3350
1 3351
1 3352
1 3353
1 3354
1 3355
1 3356
1 3357
1 3358
1 3359
1 3360
1 3361
1 3362
1 3363
1 3364
1 3365
1 3366
1 3367
1 3368
1 3369
1 3370
1 3371
1 3372
1 3373
1 3374
1 3375
1 3376
1 3377
1 3378
1 3379
1 3380
1 3381
1 3382
1 3383
1 3384
1 3385
1 3386
1 3387
1 3388
1 3389
1 3390
1 3391
1 3392
1 3393
1 3394
1 3395
1 3396
1 3397
1 3398
1 3399
1 3400
1 3401
1 3402
1 3403
1 3404
1 3405
1 3406
1 3407
1 3408
1 3409
1 3410
1 3411
1 3412
1 3413
1 3414
1 3415
1 3416
1 3417
1 3418
1 3419
1 3420
1 3421
1 3422
1 3423
1 3424
1 3425
1 3426
1 3427
1 3428
1 3429
1 3430
1 3431
1 3432
1 3433
1 3434
1 3435
1 3436
1 3437
1 3438
1 3439
1 3440
1 3441
1 3442
1 3443
1 3444
1 3445
1 3446
1 3447
1 3448
1 3449
1 3450
1 3451
1 3452
1 3453
1 3454
1 3455
1 3456
1 3457
1 3458
1 3459
1 3460
1 3461
1 3462
1 3463
1 3464
1 3465
1 3466
1 3467
1 3468
1 3469
1 3470
1 3471
1 3472
1 3473
1 3474
1 3475
1 3476
1 3477
1 3478
1 3479
1 3480
1 3481
1 3482
1 3483
1 3484
1 3485
1 3486
1 3487
1 3488
1 3489
1 3490
1 3491
1 3492
1 3493
1 3494
1 3495
1 3496
1 3497
1 3498
1 3499
1 3500
1 3501
1 3502
1 3503
1 3504
1 3505
1 3506
1 3507
1 3508
1 3509
1 3510
1 3511
1 3512
1 3513
1 3514
1 3515
1 3516
1 3517
1 3518
1 3519
1 3520
1 3521
1 3522
1 3523
1 3524
1 3525
1 3526
1 3527
1 3528
1 3529
1 3530
1 3531
1 3532
1 3533
1 3534
1 3535
1 3536
1 3537
1 3538
1 3539
1 3540
1 3541
1 3542
1 3543
1 3544
1 3545
1 3546
1 3547
1 3548
1 3549
1 3550
1 3551
1 3552
1 3553
1 3554
1 3555
1 3556
1 3557
1 3558
1 3559
1 3560
1 3561
1 3562
1 3563
1 3564
1 3565
1 3566
1 3567
1 3568
1 3569
1 3570
1 3571
1 3572
1 3573
1 3574
1 3575
1 3576
1 3577
1 3578
1 3579
1 3580
1 3581
1 3582
1 3583
1 3584
1 3585
1 3586
1 3587
1 3588
1 3589
1 3590
1 3591
1 3592
1 3593
1 3594
1 3595
1 3596
1 3597
1 3598
1 3599
1 3600
1 3601
1 3602
1 3603
1 3604
1 3605
1 3606
1 3607
1 3608
1 3609
1 3610
1 3611
1 3612
1 3613
1 3614
1 3615
1 3616
1 3617
1 3618
1 3619
1 3620
1 3621
1 3622
1 3623
1 3624
1 3625
1 3626
1 3627
1 3628
1 3629
1 3630
1 3631
1 3632
1 3633
1 3634
1 3635
1 3636
1 3637
1 3638
1 3639
1 3640
1 3641
1 3642
1 3643
1 3644
1 3645
1 3646
1 3647
1 3648
1 3649
1 3650
1 3651
1 3652
1 3653
1 3654
1 3655
1 3656
1 3657
1 3658
1 3659
1 3660
1 3661
1 3662
1 3663
1 3664
1 3665
1 3666
1 3667
1 3668
1 3669
1 3670
1 3671
1 3672
1 3673
1 3674
1 3675
1 3676
1 3677
1 3678
1 3679
1 3680
1 3681
1 3682
1 3683
1 3684
1 3685
1 3686
1 3687
1 3688
1 3689
1 3690
1 3691
1 3692
1 3693
1 3694
1 3695
1 3696
1 3697
1 3698
1 3699
1 3700
1 3701
1 3702
1 3703
1 3704
1 3705
1 3706
1 3707
1 3708
1 3709
1 3710
1 3711
1 3712
1 3713
1 3714
1 3715
1 3716
1 3717
1 3718
1 3719
1 3720
1 3721
1 3722
1 3723
1 3724
1 3725
1 3726
1 3727
1 3728
1 3729
1 3730
1 3731
1 3732
1 3733
1 3734
1 3735
1 3736
1 3737
1 3738
1 3739
1 3740
1 3741
1 3742
1 3743
1 3744
1 3745
1 3746
1 3747
1 3748
1 3749
1 3750
1 3751
1 3752
1 3753
1 3754
1 3755
1 3756
1 3757
1 3758
1 3759
1 3760
1 3761
1 3762
1 3763
1 3764
1 3765
1 3766
1 3767
1 3768
1 3769
1 3770
1 3771
1 3772
1 3773
1 3774
1 3775
1 3776
1 3777
1 3778
1 3779
1 3780
1 3781
1 3782
1 3783
1 3784
1 3785
1 3786
1 3787
1 3788
1 3789
1 3790
1 3791
1 3792
1 3793
1 3794
1 3795
1 3796
1 3797
1 3798
1 3799
1 3800
1 3801
1 3802
1 3803
1 3804
1 3805
1 3806
1 3807
1 3808
1 3809
1 3810
1 3811
1 3812
1 3813
1 3814
1 3815
1 3816
1 3817
1 3818
1 3819
1 3820
1 3821
1 3822
1 3823
1 3824
1 3825
1 3826
1 3827
1 3828
1 3829
1 3830
1 3831
1 3832
1 3833
1 3834
1 3835
1 3836
1 3837
1 3838
1 3839
1 3840
1 3841
1 3842
1 3843
1 3844
1 3845
1 3846
1 3847
1 3848
1 3849
1 3850
1 3851
1 3852
1 3853
1 3854
1 3855
1 3856
1 3857
1 3858
1 3859
1 3860
1 3861
1 3862
1 3863
1 3864
1 3865
1 3866
1 3867
1 3868
1 3869
1 3870
1 3871
1 3872
1 3873
1 3874
1 3875
1 3876
1 3877
1 3878
1 3879
1 3880
1 3881
1 3882
1 3883
1 3884
1 3885
1 3886
1 3887
1 3888
1 3889
1 3890
1 3891
1 3892
1 3893
1 3894
1 3895
1 3896
1 3897
1 3898
1 3899
1 3900
1 3901
1 3902
1 3903
1 3904
1 3905
1 3906
1 3907
1 3908
1 3909
1 3910
1 3911
1 3912
1 3913
1 3914
1 3915
1 3916
1 3917
1 3918
1 3919
1 3920
1 3921
1 3922
1 3923
1 3924
1 3925
1 3926
1 3927
1 3928
1 3929
1 3930
1 3931
1 3932
1 3933
1 3934
1 3935
1 3936
1 3937
1 3938
1 3939
1 3940
1 3941
1 3942
1 3943
1 3944
1 3945
1 3946
1 3947
1 3948
1 3949
1 3950
1 3951
1 3952
1 3953
1 3954
1 3955
1 3956
1 3957
1 3958
1 3959
1 3960
1 3961
1 3962
1 3963
1 3964
1 3965
1 3966
1 3967
1 3968
1 3969
1 3970
1 3971
1 3972
1 3973
1 3974
1 3975
1 3976
1 3977
1 3978
1 3979
1 3980
1 3981
1 3982
1 3983
1 3984
1 3985
1 3986
1 3987
1 3988
1 3989
1 3990
1 3991
1 3992
1 3993
1 3994
1 3995
1 3996
1 3997
1 3998
1 3999
1 4000
1 4001
1 4002
1 4003
1 4004
1 4005
1 4006
1 4007
1 4008
1 4009
1 4010
1 4011
1 4012
1 4013
1 4014
1 4015
1 4016
1 4017
1 4018
1 4019
1 4020
1 4021
1 4022
1 4023
1 4024
1 4025
1 4026
1 4027
1 4028
1 4029
1 4030
1 4031
1 4032
1 4033
1 4034
1 4035
1 4036
1 4037
1 4038
1 4039
1 4040
1 4041
1 4042
1 4043
1 4044
1 4045
1 4046
1 4047
1 4048
1 4049
1 4050
1 4051
1 4052
1 4053
1 4054
1 4055
1 4056
1 4057
1 4058
1 4059
1 4060
1 4061
1 4062
1 4063
1 4064
1 4065
1 4066
1 4067
1 4068
1 4069
1 4070
1 4071
1 4072
1 4073
1 4074
1 4075
1 4076
1 4077
1 4078
1 4079
1 4080
1 4081
1 4082
1 4083
1 4084
1 4085
1 4086
1 4087
1 4088
1 4089
1 4090
1 4091
1 4092
1 4093
1 4094
1 4095
1 4096
1 4097
1 4098
1 4099
1 4100
1 4101
1 4102
1 4103
1 4104
1 4105
1 4106
1 4107
1 4108
1 4109
1 4110
1 4111
1 4112
1 4113
1 4114
1 4115
1 4116
1 4117
1 4118
1 4119
1 4120
1 4121
1 4122
1 4123
1 4124
1 4125
1 4126
1 4127
1 4128
1 4129
1 4130
1 4131
1 4132
1 4133
1 4134
1 4135
1 4136
1 4137
1 4138
1 4139
1 4140
1 4141
1 4142
1 4143
1 4144
1 4145
1 4146
1 4147
1 4148
1 4149
1 4150
1 4151
1 4152
1 4153
1 4154
1 4155
1 4156
1 4157
1 4158
1 4159
1 4160
1 4161
1 4162
1 4163
1 4164
1 4165
1 4166
1 4167
1 4168
1 4169
1 4170
1 4171
1 4172
1 4173
1 4174
1 4175
1 4176
1 4177
1 4178
1 4179
1 4180
1 4181
1 4182
1 4183
1 4184
1 4185
1 4186
1 4187
1 4188
1 4189
1 4190
1 4191
1 4192
1 4193
1 4194
1 4195
1 4196
1 4197
1 4198
1 4199
1 4200
1 4201
1 4202
1 4203
1 4204
1 4205
1 4206
1 4207
1 4208
1 4209
1 4210
1 4211
1 4212
1 4213
1 4214
1 4215
1 4216
1 4217
1 4218
1 4219
1 4220
1 4221
1 4222
1 4223
1 4224
1 4225
1 4226
1 4227
1 4228
1 4229
1 4230
1 4231
1 4232
1 4233
1 4234
1 4235
1 4236
1 4237
1 4238
1 4239
1 4240
1 4241
1 4242
1 4243
1 4244
1 4245
1 4246
1 4247
1 4248
1 4249
1 4250
1 4251
1 4252
1 4253
1 4254
1 4255
1 4256
1 4257
1 4258
1 4259
1 4260
1 4261
1 4262
1 4263
1 4264
1 4265
1 4266
1 4267
1 4268
1 4269
1 4270
1 4271
1 4272
1 4273
1 4274
1 4275
1 4276
1 4277
1 4278
1 4279
1 4280
1 4281
1 4282
1 4283
1 4284
1 4285
1 4286
1 4287
1 4288
1 4289
1 4290
1 4291
1 4292
1 4293
1 4294
1 4295
1 4296
1 4297
1 4298
1 4299
1 4300
1 4301
1 4302
1 4303
1 4304
1 4305
1 4306
1 4307
1 4308
1 4309
1 4310
1 4311
1 4312
1 4313
1 4314
1 4315
1 4316
1 4317
1 4318
1 4319
1 4320
1 4321
1 4322
1 4323
1 4324
1 4325
1 4326
1 4327
1 4328
1 4329
1 4330
1 4331
1 4332
1 4333
1 4334
1 4335
1 4336
1 4337
1 4338
1 4339
1 4340
1 4341
1 4342
1 4343
1 4344
1 4345
1 4346
1 4347
1 4348
1 4349
1 4350
1 4351
1 4352
1 4353
1 4354
1 4355
1 4356
1 4357
1 4358
1 4359
1 4360
1 4361
1 4362
1 4363
1 4364
1 4365
1 4366
1 4367
1 4368
1 4369
1 4370
1 4371
1 4372
1 4373
1 4374
1 4375
1 4376
1 4377
1 4378
1 4379
1 4380
1 4381
1 4382
1 4383
1 4384
1 4385
1 4386
1 4387
1 4388
1 4389
1 4390
1 4391
1 4392
1 4393
1 4394
1 4395
1 4396
1 4397
1 4398
1 4399
1 4400
1 4401
1 4402
1 4403
1 4404
1 4405
1 4406
1 4407
1 4408
1 4409
1 4410
1 4411
1 4412
1 4413
1 4414
1 4415
1 4416
1 4417
1 4418
1 4419
1 4420
1 4421
1 4422
1 4423
1 4424
1 4425
1 4426
1 4427
1 4428
1 4429
1 4430
1 4431
1 4432
1 4433
1 4434
1 4435
1 4436
1 4437
1 4438
1 4439
1 4440
1 4441
1 4442
1 4443
1 4444
1 4445
1 4446
1 4447
1 4448
1 4449
1 4450
1 4451
1 4452
1 4453
1 4454
1 4455
1 4456
1 4457
1 4458
1 4459
1 4460
1 4461
1 4462
1 4463
1 4464
1 4465
1 4466
1 4467
1 4468
1 4469
1 4470
1 4471
1 4472
1 4473
1 4474
1 4475
1 4476
1 4477
1 4478
1 4479
1 4480
1 4481
1 4482
1 4483
1 4484
1 4485
1 4486
1 4487
1 4488
1 4489
1 4490
1 4491
1 4492
1 4493
1 4494
1 4495
1 4496
1 4497
1 4498
1 4499
1 4500
1 4501
1 4502
1 4503
1 4504
1 4505
1 4506
1 4507
1 4508
1 4509
1 4510
1 4511
1 4512
1 4513
1 4514
1 4515
1 4516
1 4517
1 4518
1 4519
1 4520
1 4521
1 4522
1 4523
1 4524
1 4525
1 4526
1 4527
1 4528
1 4529
1 4530
1 4531
1 4532
1 4533
1 4534
1 4535
1 4536
1 4537
1 4538
1 4539
1 4540
1 4541
1 4542
1 4543
1 4544
1 4545
1 4546
1 4547
1 4548
1 4549
1 4550
1 4551
1 4552
1 4553
1 4554
1 4555
1 4556
1 4557
1 4558
1 4559
1 4560
1 4561
1 4562
1 4563
1 4564
1 4565
1 4566
1 4567
1 4568
1 4569
1 4570
1 4571
1 4572
1 4573
1 4574
1 4575
1 4576
1 4577
1 4578
1 4579
1 4580
1 4581
1 4582
1 4583
1 4584
1 4585
1 4586
1 4587
1 4588
1 4589
1 4590
1 4591
1 4592
1 4593
1 4594
1 4595
1 4596
1 4597
1 4598
1 4599
1 4600
1 4601
1 4602
1 4603
1 4604
1 4605
1 4606
1 4607
1 4608
1 4609
1 4610
1 4611
1 4612
1 4613
1 4614
1 4615
1 4616
1 4617
1 4618
1 4619
1 4620
1 4621
1 4622
1 4623
1 4624
1 4625
1 4626
1 4627
1 4628
1 4629
1 4630
1 4631
1 4632
1 4633
1 4634
1 4635
1 4636
1 4637
1 4638
1 4639
1 4640
1 4641
1 4642
1 4643
1 4644
1 4645
1 4646
1 4647
1 4648
1 4649
1 4650
1 4651
1 4652
1 4653
1 4654
1 4655
1 4656
1 4657
1 4658
1 4659
1 4660
1 4661
1 4662
1 4663
1 4664
1 4665
1 4666
1 4667
1 4668
1 4669
1 4670
1 4671
1 4672
1 4673
1 4674
1 4675
1 4676
1 4677
1 4678
1 4679
1 4680
1 4681
1 4682
1 4683
1 4684
1 4685
1 4686
1 4687
1 4688
1 4689
1 4690
1 4691
1 4692
1 4693
1 4694
1 4695
1 4696
1 4697
1 4698
1 4699
1 4700
1 4701
1 4702
1 4703
1 4704
1 4705
1 4706
1 4707
1 4708
1 4709
1 4710
1 4711
1 4712
1 4713
1 4714
1 4715
1 4716
1 4717
1 4718
1 4719
1 4720
1 4721
1 4722
1 4723
1 4724
1 4725
1 4726
1 4727
1 4728
1 4729
1 4730
1 4731
1 4732
1 4733
1 4734
1 4735
1 4736
1 4737
1 4738
1 4739
1 4740
1 4741
1 4742
1 4743
1 4744
1 4745
1 4746
1 4747
1 4748
1 4749
1 4750
1 4751
1 4752
1 4753
1 4754
1 4755
1 4756
1 4757
1 4758
1 4759
1 4760
1 4761
1 4762
1 4763
1 4764
1 4765
1 4766
1 4767
1 4768
1 4769
1 4770
1 4771
1 4772
1 4773
1 4774
1 4775
1 4776
1 4777
1 4778
1 4779
1 4780
1 4781
1 4782
1 4783
1 4784
1 4785
1 4786
1 4787
1 4788
1 4789
1 4790
1 4791
1 4792
1 4793
1 4794
1 4795
1 4796
1 4797
1 4798
1 4799
1 4800
1 4801
1 4802
1 4803
1 4804
1 4805
1 4806
1 4807
1 4808
1 4809
1 4810
1 4811
1 4812
1 4813
1 4814
1 4815
1 4816
1 4817
1 4818
1 4819
1 4820
1 4821
1 4822
1 4823
1 4824
1 4825
1 4826
1 4827
1 4828
1 4829
1 4830
1 4831
1 4832
1 4833
1 4834
1 4835
1 4836
1 4837
1 4838
1 4839
1 4840
1 4841
1 4842
1 4843
1 4844
1 4845
1 4846
1 4847
1 4848
1 4849
1 4850
1 4851
1 4852
1 4853
1 4854
1 4855
1 4856
1 4857
1 4858
1 4859
1 4860
1 4861
1 4862
1 4863
1 4864
1 4865
1 4866
1 4867
1 4868
1 4869
1 4870
1 4871
1 4872
1 4873
1 4874
1 4875
1 4876
1 4877
1 4878
1 4879
1 4880
1 4881
1 4882
1 4883
1 4884
1 4885
1 4886
1 4887
1 4888
1 4889
1 4890
1 4891
1 4892
1 4893
1 4894
1 4895
1 4896
1 4897
1 4898
1 4899
1 4900
1 4901
1 4902
1 4903
1 4904
1 4905
1 4906
1 4907
1 4908
1 4909
1 4910
1 4911
1 4912
1 4913
1 4914
1 4915
1 4916
1 4917
1 4918
1 4919
1 4920
1 4921
1 4922
1 4923
1 4924
1 4925
1 4926
1 4927
1 4928
1 4929
1 4930
1 4931
1 4932
1 4933
1 4934
1 4935
1 4936
1 4937
1 4938
1 4939
1 4940
1 4941
1 4942
1 4943
1 4944
1 4945
1 4946
1 4947
1 4948
1 4949
1 4950
1 4951
1 4952
1 4953
1 4954
1 4955
1 4956
1 4957
1 4958
1 4959
1 4960
1 4961
1 4962
1 4963
1 4964
1 4965
1 4966
1 4967
1 4968
1 4969
1 4970
1 4971
1 4972
1 4973
1 4974
1 4975
1 4976
1 4977
1 4978
1 4979
1 4980
1 4981
1 4982
1 4983
1 4984
1 4985
1 4986
1 4987
1 4988
1 4989
1 4990
1 4991
1 4992
1 4993
1 4994
1 4995
1 4996
1 4997
1 4998
1 4999
CELL_TYPES 5000
1 
1 
1 
1 
1 
1 
1 
1 
1 
1 
1 
1 
1 
1 
1 
1 
1 
1 
1 
1 
1 
1 
1 
1 
1 
1 
1 
1 
1 
1 
1 
1 
1 
1 
1 
1 
1 
1 
1 
1 
1 
1 
1 
1 
1 
1 
1 
1 
1 
1 
1 
1 
1 
1 
1 
1 
1 
1 
1 
1 
1 
1 
1 
1 
1 
1 
1 
1 
1 
1 
1 
1 
1 
1 
1 
1 
1 
1 
1 
1 
1 
1 
1 
1 
1 
1 
1 
1 
1 
1 
1 
1 
1 
1 
1 
1 
1 
1 
1 
1 
1 
1 
1 
1 
1 
1 
1 
1 
1 
1 
1 
1 
1 
1 
1 
1 
1 
1 
1 
1 
1 
1 
1 
1 
1 
1 
1 
1 
1 
1 
1 
1 
1 
1 
1 
1 
1 
1 
1 
1 
1 
1 
1 
1 
1 
1 
1 
1 
1 
1 
1 
1 
1 
1 
1 
1 
1 
1 
1 
1 
1 
1 
1 
1 
1 
1 
1 
1 
1 
1 
1 
1 
1 
1 
1 
1 
1 
1 
1 
1 
1 
1 
1 
1 
1 
1 
1 
1 
1 
1 
1 
1 
1 
1 
1 
1 
1 
1 
1 
1 
1 
1 
1 
1 
1 
1 
1 
1 
1 
1 
1 
1 
1 
1 
1 
1 
1 
1 
1 
1 
1 
1 
1 
1 
1 
1 
1 
1 
1 
1 
1 
1 
1 
1 
1 
1 
1 
1 
1 
1 
1 
1 
1 
1 
1 
1 
1 
1 
1 
1 
1 
1 
1 
1 
1 
1 
1 
1 
1 
1 
1 
1 
1 
1 
1 
1 
1 
1 
1 
1 
1 
1 
1 
1 
1 
1 
1 
1 
1 
1 
1 
1 
1 
1 
1 
1 
1 
1 
1 
1 
1 
1 
1 
1 
1 
1 
1 
1 
1 
1 
1 
1 
1 
1 
1 
1 
1 
1 
1 
1 
1 
1 
1 
1 
1 
1 
1 
1 
1 
1 
1 
1 
1 
1 
1 
1 
1 
1 
1 
1 
1 
1 
1 
1 
1 
1 
1 
1 
1 
1 
1 
1 
1 
1 
1 
1 
1 
1 
1 
1 
1 
1 
1 
1 
1 
1 
1 
1 
1 
1 
1 
1 
1 
1 
1 
1 
1 
1 
1 
1 
1 
1 
1 
1 
1 
1 
1 
1 
1 
1 
1 
1 
1 
1 
1 
1 
1 
1 
1 
1 
1 
1 
1 
1 
1 
1 
1 
1 
1 
1 
1 
1 
1 
1 
1 
1 
1 
1 
1 
1 
1 
1 
1 
1 
1 
1 
1 
1 
1 
1 
1 
1 
1 
1 
1 
1 
1 
1 
1 
1 
1 
1 
1 
1 
1 
1 
1 
1 
1 
1 
1 
1 
1 
1 
1 
1 
1 
1 
1 
1 
1 
1 
1 
1 
1 
1 
1 
1 
1 
1 
1 
1 
1 
1 
1 
1 
1 
1 
1 
1 
1 
1 
1 
1 
1 
1 
1 
1 
1 
1 
1 
1 
1 
1 
1 
1 
1 
1 
1 
1 
1 
1 
1 
1 
1 
1 
1 
1 
1 
1 
1 
1 
1 
1 
1 
1 
1 
1 
1 
1 
1 
1 
1 
1 
1 
1 
1 
1 
1 
1 
1 
1 
1 
1 
1 
1 
1 
1 
1 
1 
1 
1 
1 
1 
1 
1 
1 
1 
1 
1 
1 
1 
1 
1 
1 
1 
1 
1 
1 
1 
1 
1 
1 
1 
1 
1 
1 
1 
1 
1 
1 
1 
1 
1 
1 
1 
1 
1 
1 
1 
1 
1 
1 
1 
1 
1 
1 
1 
1 
1 
1 
1 
1 
1 
1 
1 
1 
1 
1 
1 
1 
1 
1 
1 
1 
1 
1 
1 
1 
1 
1 
1 
1 
1 
1 
1 
1 
1 
1 
1 
1 
1 
1 
1 
1 
1 
1 
1 
1 
1 
1 
1 
1 
1 
1 
1 
1 
1 
1 
1 
1 
1 
1 
1 
1 
1 
1 
1 
1 
1 
1 
1 
1 
1 
1 
1 
1 
1 
1 
1 
1 
1 
1 
1 
1 
1 
1 
1 
1 
1 
1 
1 
1 
1 
1 
1 
1 
1 
1 
1 
1 
1 
1 
1 
1 
1 
1 
1 
1 
1 
1 
1 
1 
1 
1 
1 
1 
1 
1 
1 
1 
1 
1 
1 
1 
1 
1 
1 
1 
1 
1 
1 
1 
1 
1 
1 
1 
1 
1 
1 
1 
1 
1 
1 
1 
1 
1 
1 
1 
1 
1 
1 
1 
1 
1 
1 
1 
1 
1 
1 
1 
1 
1 
1 
1 
1 
1 
1 
1 
1 
1 
1 
1 
1 
1 
1 
1 
1 
1 
1 
1 
1 
1 
1 
1 
1 
1 
1 
1 
1 
1 
1 
1 
1 
1 
1 
1 
1 
1 
1 
1 
1 
1 
1 
1 
1 
1 
1 
1 
1 
1 
1 
1 
1 
1 
1 
1 
1 
1 
1 
1 
1 
1 
1 
1 
1 
1 
1 
1 
1 
1 
1 
1 
1 
1 
1 
1 
1 
1 
1 
1 
1 
1 
1 
1 
1 
1 
1 
1 
1 
1 
1 
1 
1 
1 
1 
1 
1 
1 
1 
1 
1 
1 
1 
1 
1 
1 
1 
1 
1 
1 
1 
1 
1 
1 
1 
1 
1 
1 
1 
1 
1 
1 
1 
1 
1 
1 
1 
1 
1 
1 
1 
1 
1 
1 
1 
1 
1 
1 
1 
1 
1 
1 
1 
1 
1 
1 
1 
1 
1 
1 
1 
1 
1 
1 
1 
1 
1 
1 
1 
1 
1 
1 
1 
1 
1 
1 
1 
1 
1 
1 
1 
1 
1 
1 
1 
1 
1 
1 
1 
1 
1 
1 
1 
1 
1 
1 
1 
1 
1 
1 
1 
1 
1 
1 
1 
1 
1 
1 
1 
1 
1 
1 
1 
1 
1 
1 
1 
1 
1 
1 
1 
1 
1 
1 
1 
1 
1 
1 
1 
1 
1 
1 
1 
1 
1 
1 
1 
1 
1 
1 
1 
1 
1 
1 
1 
1 
1 
1 
1 
1 
1 
1 
1 
1 
1 
1 
1 
1 
1 
1 
1 
1 
1 
1 
1 
1 
1 
1 
1 
1 
1 
1 
1 
1 
1 
1 
1 
1 
1 
1 
1 
1 
1 
1 
1 
1 
1 
1 
1 
1 
1 
1 
1 
1 
1 
1 
1 
1 
1 
1 
1 
1 
1 
1 
1 
1 
1 
1 
1 
1 
1 
1 
1 
1 
1 
1 
1 
1 
1 
1 
1 
1 
1 
1 
1 
1 
1 
1 
1 
1 
1 
1 
1 
1 
1 
1 
1 
1 
1 
1 
1 
1 
1 
1 
1 
1 
1 
1 
1 
1 
1 
1 
1 
1 
1 
1 
1 
1 
1 
1 
1 
1 
1 
1 
1 
1 
1 
1 
1 
1 
1 
1 
1 
1 
1 
1 
1 
1 
1 
1 
1 
1 
1 
1 
1 
1 
1 
1 
1 
1 
1 
1 
1 
1 
1 
1 
1 
1 
1 
1 
1 
1 
1 
1 
1 
1 
1 
1 
1 
1 
1 
1 
1 
1 
1 
1 
1 
1 
1 
1 
1 
1 
1 
1 
1 
1 
1 
1 
1 
1 
1 
1 
1 
1 
1 
1 
1 
1 
1 
1 
1 
1 
1 
1 
1 
1 
1 
1 
1 
1 
1 
1 
1 
1 
1 
1 
1 
1 
1 
1 
1 
1 
1 
1 
1 
1 
1 
1 
1 
1 
1 
1 
1 
1 
1 
1 
1 
1 
1 
1 
1 
1 
1 
1 
1 
1 
1 
1 
1 
1 
1 
1 
1 
1 
1 
1 
1 
1 
1 
1 
1 
1 
1 
1 
1 
1 
1 
1 
1 
1 
1 
1 
1 
1 
1 
1 
1 
1 
1 
1 
1 
1 
1 
1 
1 
1 
1 
1 
1 
1 
1 
1 
1 
1 
1 
1 
1 
1 
1 
1 
1 
1 
1 
1 
1 
1 
1 
1 
1 
1 
1 
1 
1 
1 
1 
1 
1 
1 
1 
1 
1 
1 
1 
1 
1 
1 
1 
1 
1 
1 
1 
1 
1 
1 
1 
1 
1 
1 
1 
1 
1 
1 
1 
1 
1 
1 
1 
1 
1 
1 
1 
1 
1 
1 
1 
1 
1 
1 
1 
1 
1 
1 
1 
1 
1 
1 
1 
1 
1 
1 
1 
1 
1 
1 
1 
1 
1 
1 
1 
1 
1 
1 
1 
1 
1 
1 
1 
1 
1 
1 
1 
1 
1 
1 
1 
1 
1 
1 
1 
1 
1 
1 
1 
1 
1 
1 
1 
1 
1 
1 
1 
1 
1 
1 
1 
1 
1 
1 
1 
1 
1 
1 
1 
1 
1 
1 
1 
1 
1 
1 
1 
1 
1 
1 
1 
1 
1 
1 
1 
1 
1 
1 
1 
1 
1 
1 
1 
1 
1 
1 
1 
1 
1 
1 
1 
1 
1 
1 
1 
1 
1 
1 
1 
1 
1 
1 
1 
1 
1 
1 
1 
1 
1 
1 
1 
1 
1 
1 
1 
1 
1 
1 
1 
1 
1 
1 
1 
1 
1 
1 
1 
1 
1 
1 
1 
1 
1 
1 
1 
1 
1 
1 
1 
1 
1 
1 
1 
1 
1 
1 
1 
1 
1 
1 
1 
1 
1 
1 
1 
1 
1 
1 
1 
1 
1 
1 
1 
1 
1 
1 
1 
1 
1 
1 
1 
1 
1 
1 
1 
1 
1 
1 
1 
1 
1 
1 
1 
1 
1 
1 
1 
1 
1 
1 
1 
1 
1 
1 
1 
1 
1 
1 
1 
1 
1 
1 
1 
1 
1 
1 
1 
1 
1 
1 
1 
1 
1 
1 
1 
1 
1 
1 
1 
1 
1 
1 
1 
1 
1 
1 
1 
1 
1 
1 
1 
1 
1 
1 
1 
1 
1 
1 
1 
1 
1 
1 
1 
1 
1 
1 
1 
1 
1 
1 
1 
1 
1 
1 
1 
1 
1 
1 
1 
1 
1 
1 
1 
1 
1 
1 
1 
1 
1 
1 
1 
1 
1 
1 
1 
1 
1 
1 
1 
1 
1 
1 
1 
1 
1 
1 
1 
1 
1 
1 
1 
1 
1 
1 
1 
1 
1 
1 
1 
1 
1 
1 
1 
1 
1 
1 
1 
1 
1 
1 
1 
1 
1 
1 
1 
1 
1 
1 
1 
1 
1 
1 
1 
1 
1 
1 
1 
1 
1 
1 
1 
1 
1 
1 
1 
1 
1 
1 
1 
1 
1 
1 
1 
1 
1 
1 
1 
1 
1 
1 
1 
1 
1 
1 
1 
1 
1 
1 
1 
1 
1 
1 
1 
1 
1 
1 
1 
1 
1 
1 
1 
1 
1 
1 
1 
1 
1 
1 
1 
1 
1 
1 
1 
1 
1 
1 
1 
1 
1 
1 
1 
1 
1 
1 
1 
1 
1 
1 
1 
1 
1 
1 
1 
1 
1 
1 
1 
1 
1 
1 
1 
1 
1 
1 
1 
1 
1 
1 
1 
1 
1 
1 
1 
1 
1 
1 
1 
1 
1 
1 
1 
1 
1 
1 
1 
1 
1 
1 
1 
1 
1 
1 
1 
1 
1 
1 
1 
1 
1 
1 
1 
1 
1 
1 
1 
1 
1 
1 
1 
1 
1 
1 
1 
1 
1 
1 
1 
1 
1 
1 
1 
1 
1 
1 
1 
1 
1 
1 
1 
1 
1 
1 
1 
1 
1 
1 
1 
1 
1 
1 
1 
1 
1 
1 
1 
1 
1 
1 
1 
1 
1 
1 
1 
1 
1 
1 
1 
1 
1 
1 
1 
1 
1 
1 
1 
1 
1 
1 
1 
1 
1 
1 
1 
1 
1 
1 
1 
1 
1 
1 
1 
1 
1 
1 
1 
1 
1 
1 
1 
1 
1 
1 
1 
1 
1 
1 
1 
1 
1 
1 
1 
1 
1 
1 
1 
1 
1 
1 
1 
1 
1 
1 
1 
1 
1 
1 
1 
1 
1 
1 
1 
1 
1 
1 
1 
1 
1 
1 
1 
1 
1 
1 
1 
1 
1 
1 
1 
1 
1 
1 
1 
1 
1 
1 
1 
1 
1 
1 
1 
1 
1 
1 
1 
1 
1 
1 
1 
1 
1 
1 
1 
1 
1 
1 
1 
1 
1 
1 
1 
1 
1 
1 
1 
1 
1 
1 
1 
1 
1 
1 
1 
1 
1 
1 
1 
1 
1 
1 
1 
1 
1 
1 
1 
1 
1 
1 
1 
1 
1 
1 
1 
1 
1 
1 
1 
1 
1 
1 
1 
1 
1 
1 
1 
1 
1 
1 
1 
1 
1 
1 
1 
1 
1 
1 
1 
1 
1 
1 
1 
1 
1 
1 
1 
1 
1 
1 
1 
1 
1 
1 
1 
1 
1 
1 
1 
1 
1 
1 
1 
1 
1 
1 
1 
1 
1 
1 
1 
1 
1 
1 
1 
1 
1 
1 
1 
1 
1 
1 
1 
1 
1 
1 
1 
1 
1 
1 
1 
1 
1 
1 
1 
1 
1 
1 
1 
1 
1 
1 
1 
1 
1 
1 
1 
1 
1 
1 
1 
1 
1 
1 
1 
1 
1 
1 
1 
1 
1 
1 
1 
1 
1 
1 
1 
1 
1 
1 
1 
1 
1 
1 
1 
1 
1 
1 
1 
1 
1 
1 
1 
1 
1 
1 
1 
1 
1 
1 
1 
1 
1 
1 
1 
1 
1 
1 
1 
1 
1 
1 
1 
1 
1 
1 
1 
1 
1 
1 
1 
1 
1 
1 
1 
1 
1 
1 
1 
1 
1 
1 
1 
1 
1 
1 
1 
1 
1 
1 
1 
1 
1 
1 
1 
1 
1 
1 
1 
1 
1 
1 
1 
1 
1 
1 
1 
1 
1 
1 
1 
1 
1 
1 
1 
1 
1 
1 
1 
1 
1 
1 
1 
1 
1 
1 
1 
1 
1 
1 
1 
1 
1 
1 
1 
1 
1 
1 
1 
1 
1 
1 
1 
1 
1 
1 
1 
1 
1 
1 
1 
1 
1 
1 
1 
1 
1 
1 
1 
1 
1 
1 
1 
1 
1 
1 
1 
1 
1 
1 
1 
1 
1 
1 
1 
1 
1 
1 
1 
1 
1 
1 
1 
1 
1 
1 
1 
1 
1 
1 
1 
1 
1 
1 
1 
1 
1 
1 
1 
1 
1 
1 
1 
1 
1 
1 
1 
1 
1 
1 
1 
1 
1 
1 
1 
1 
1 
1 
1 
1 
1 
1 
1 
1 
1 
1 
1 
1 
1 
1 
1 
1 
1 
1 
1 
1 
1 
1 
1 
1 
1 
1 
1 
1 
1 
1 
1 
1 
1 
1 
1 
1 
1 
1 
1 
1 
1 
1 
1 
1 
1 
1 
1 
1 
1 
1 
1 
1 
1 
1 
1 
1 
1 
1 
1 
1 
1 
1 
1 
1 
1 
1 
1 
1 
1 
1 
1 
1 
1 
1 
1 
1 
1 
1 
1 
1 
1 
1 
1 
1 
1 
1 
1 
1 
1 
1 
1 
1 
1 
1 
1 
1 
1 
1 
1 
1 
1 
1 
1 
1 
1 
1 
1 
1 
1 
1 
1 
1 
1 
1 
1 
1 
1 
1 
1 
1 
1 
1 
1 
1 
1 
1 
1 
1 
1 
1 
1 
1 
1 
1 
1 
1 
1 
1 
1 
1 
1 
1 
1 
1 
1 
1 
1 
1 
1 
1 
1 
1 
1 
1 
1 
1 
1 
1 
1 
1 
1 
1 
1 
1 
1 
1 
1 
1 
1 
1 
1 
1 
1 
1 
1 
1 
1 
1 
1 
1 
1 
1 
1 
1 
1 
1 
1 
1 
1 
1 
1 
1 
1 
1 
1 
1 
1 
1 
1 
1 
1 
1 
1 
1 
1 
1 
1 
1 
1 
1 
1 
1 
1 
1 
1 
1 
1 
1 
1 
1 
1 
1 
1 
1 
1 
1 
1 
1 
1 
1 
1 
1 
1 
1 
1 
1 
1 
1 
1 
1 
1 
1 
1 
1 
1 
1 
1 
1 
1 
1 
1 
1 
1 
1 
1 
1 
1 
1 
1 
1 
1 
1 
1 
1 
1 
1 
1 
1 
1 
1 
1 
1 
1 
1 
1 
1 
1 
1 
1 
1 
1 
1 
1 
1 
1 
1 
1 
1 
1 
1 
1 
1 
1 
1 
1 
1 
1 
1 
1 
1 
1 
1 
1 
1 
1 
1 
1 
1 
1 
1 
1 
1 
1 
1 
1 
1 
1 
1 
1 
1 
1 
1 
1 
1 
1 
1 
1 
1 
1 
1 
1 
1 
1 
1 
1 
1 
1 
1 
1 
1 
1 
1 
1 
1 
1 
1 
1 
1 
1 
1 
1 
1 
1 
1 
1 
1 
1 
1 
1 
1 
1 
1 
1 
1 
1 
1 
1 
1 
1 
1 
1 
1 
1 
1 
1 
1 
1 
1 
1 
1 
1 
1 
1 
1 
1 
1 
1 
1 
1 
1 
1 
1 
1 
1 
1 
1 
1 
1 
1 
1 
1 
1 
1 
1 
1 
1 
1 
1 
1 
1 
1 
1 
1 
1 
1 
1 
1 
1 
1 
1 
1 
1 
1 
1 
1 
1 
1 
1 
1 
1 
1 
1 
1 
1 
1 
1 
1 
1 
1 
1 
1 
1 
1 
1 
1 
1 
1 
1 
1 
1 
1 
1 
1 
1 
1 
1 
1 
1 
1 
1 
1 
1 
1 
1 
1 
1 
1 
1 
1 
1 
1 
1 
1 
1 
1 
1 
1 
1 
1 
1 
1 
1 
1 
1 
1 
1 
1 
1 
1 
1 
1 
1 
1 
1 
1 
1 
1 
1 
1 
1 
1 
1 
1 
1 
1 
1 
1 
1 
1 
1 
1 
1 
1 
1 
1 
1 
1 
1 
1 
1 
1 
1 
1 
1 
1 
1 
1 
1 
1 
1 
1 
1 
1 
1 
1 
1 
1 
1 
1 
1 
1 
1 
1 
1 
1 
1 
1 
1 
1 
1 
1 
1 
1 
1 
1 
1 
1 
1 
1 
1 
1 
1 
1 
1 
1 
1 
1 
1 
1 
1 
1 
1 
1 
1 
1 
1 
1 
1 
1 
1 
1 
1 
1 
1 
1 
1 
1 
1 
1 
1 
1 
1 
1 
1 
1 
1 
1 
1 
1 
1 
1 
1 
1 
1 
1 
1 
1 
1 
1 
1 
1 
1 
1 
1 
1 
1 
1 
1 
1 
1 
1 
1 
1 
1 
1 
1 
1 
1 
1 
1 
1 
1 
1 
1 
1 
1 
1 
1 
1 
1 
1 
1 
1 
1 
1 
1 
1 
1 
1 
1 
1 
1 
1 
1 
1 
1 
1 
1 
1 
1 
1 
1 
1 
1 
1 
1 
1 
1 
1 
1 
1 
1 
1 
1 
1 
1 
1 
1 
1 
1 
1 
1 
1 
1 
1 
1 
1 
1 
1 
1 
1 
1 
1 
1 
1 
1 
1 
1 
1 
1 
1 
1 
1 
1 
1 
1 
1 
1 
1 
1 
1 
1 
1 
1 
1 
1 
1 
1 
1 
1 
1 
1 
1 
1 
1 
1 
1 
1 
1 
1 
1 
1 
1 
1 
1 
1 
1 
1 
1 
1 
1 
1 
1 
1 
1 
1 
1 
1 
1 
1 
1 
1 
1 
1 
1 
1 
1 
1 
1 
1 
1 
1 
1 
1 
1 
1 
1 
1 
1 
1 
1 
1 
1 
1 
1 
1 
1 
1 
1 
1 
1 
1 
1 
1 
1 
1 
1 
1 
1 
1 
1 
1 
1 
1 
1 
1 
1 
1 
1 
1 
1 
1 
1 
1 
1 
1 
1 
1 
1 
1 
1 
1 
1 
1 
1 
1 
1 
1 
1 
1 
1 
1 
1 
1 
1 
1 
1 
1 
1 
1 
1 
1 
1 
1 
1 
1 
1 
1 
1 
1 
1 
1 
1 
1 
1 
1 
1 
1 
1 
1 
1 
1 
1 
1 
1 
1 
1 
1 
1 
1 
1 
1 
1 
1 
1 
1 
1 
1 
1 
1 
1 
1 
1 
1 
1 
1 
1 
1 
1 
1 
1 
1 
1 
1 
1 
1 
1 
1 
1 
1 
1 
1 
1 
1 
1 
1 
1 
1 
1 
1 
1 
1 
1 
1 
1 
1 
1 
1 
1 
1 
1 
1 
1 
1 
1 
1 
1 
1 
1 
1 
1 
1 
1 
1 
1 
1 
1 
1 
1 
1 
1 
1 
1 
1 
1 
1 
1 
1 
1 
1 
1 
1 
1 
1 
1 
1 
1 
1 
1 
1 
1 
1 
1 
1 
1 
1 
1 
1 
1 
1 
1 
1 
1 
1 
1 
1 
1 
1 
1 
1 
1 
1 
1 
1 
1 
1 
1 
1 
1 
1 
1 
1 
1 
1 
1 
1 
1 
1 
1 
1 
1 
1 
1 
1 
1 
1 
1 
1 
1 
1 
1 
1 
1 
1 
1 
1 
1 
1 
1 
1 
1 
1 
1 
1 
1 
1 
1 
1 
1 
1 
1 
1 
1 
1 
1 
1 
1 
1 
1 
1 
1 
1 
1 
1 
1 
1 
1 
1 
1 
1 
1 
1 
1 
1 
1 
1 
1 
1 
1 
1 
1 
1 
1 
1 
1 
1 
1 
1 
1 
1 
1 
1 
1 
1 
1 
1 
1 
1 
1 
1 
1 
1 
1 
1 
1 
1 
1 
1 
1 
1 
1 
1 
1 
1 
1 
1 
1 
1 
1 
1 
1 
1 
1 
1 
1 
1 
1 
1 
1 
1 
1 
1 
1 
1 
1 
1 
1 
1 
1 
1 
1 
1 
1 
1 
1 
1 
1 
1 
1 
1 
1 
1 
1 
1 
1 
1 
1 
1 
1 
1 
1 
1 
1 
1 
1 
1 
1 
1 
1 
1 
1 
1 
1 
1 
1 
1 
1 
1 
1 
1 
1 
1 
1 
1 
1 
1 
1 
1 
1 
1 
1 
1 
1 
1 
1 
1 
1 
1 
1 
1 
1 
1 
1 
1 
1 
1 
1 
1 
1 
1 
1 
1 
1 
1 
1 
1 
1 
1 
1 
1 
1 
1 
1 
1 
1 
1 
1 
1 
1 
1 
1 
1 
1 
1 
1 
1 
1 
1 
1 
1 
1 
1 
1 
1 
1 
1 
1 
1 
1 
1 
1 
1 
1 
1 
1 
1 
1 
1 
1 
1 
1 
1 
1 
1 
1 
1 
1 
1 
1 
1 
1 
1 
1 
1 
1 
1 
1 
1 
1 
1 
1 
1 
1 
1 
1 
1 
1 
1 
1 
1 
1 
1 
1 
1 
1 
1 
1 
1 
1 
1 
1 
1 
1 
1 
1 
1 
1 
1 
1 
1 
1 
1 
1 
1 
1 
1 
1 
1 
1 
1 
1 
1 
1 
1 
1 
1 
1 
1 
1 
1 
1 
1 
1 
1 
1 
1 
1 
1 
1 
1 
1 
1 
1 
1 
1 
1 
1 
1 
1 
1 
1 
1 
1 
1 
1 
1 
1 
1 
1 
1 
1 
1 
1 
1 
1 
1 
1 
1 
1 
1 
1 
1 
1 
1 
1 
1 
1 
1 
1 
1 
1 
1 
1 
1 
1 
1 
1 
1 
1 
1 
1 
1 
1 
1 
1 
1 
1 
1 
1 
1 
1 
1 
1 
1 
1 
1 
1 
1 
1 
1 
1 
1 
1 
1 
1 
1 
1 
1 
1 
1 
1 
1 
1 
1 
1 
1 
1 
1 
1 
1 
1 
1 
1 
1 
1 
1 
1 
1 
1 
1 
1 
1 
1 
1 
1 
1 
1 
1 
1 
1 
1 
1 
1 
1 
1 
1 
1 
1 
1 
1 
1 
1 
1 
1 
1 
1 
1 
1 
1 
1 
1 
1 
1 
1 
1 
1 
1 
1 
1 
1 
1 
1 
1 
1 
1 
1 
1 
1 
1 
1 
1 
1 
1 
1 
1 
1 
1 
1 
1 
1 
1 
1 
1 
1 
1 
1 
1 
1 
1 
1 
1 
1 
1 
1 
1 
1 
1 
1 
1 
1 
1 
1 
1 
1 
1 
1 
1 
1 
1 
1 
1 
1 
1 
1 
1 
1 
1 
1 
1 
1 
1 
1 
1 
1 
1 
1 
1 
1 
1 
1 
1 
1 
1 
1 
1 
1 
1 
1 
1 
1 
1 
1 
1 
1 
1 
1 
1 
1 
1 
1 
1 
1 
1 
1 
1 
1 
1 
1 
1 
1 
1 
1 
1 
1 
1 
1 
1 
1 
1 
1 
1 
1 
1 
1 
1 
1 
1 
1 
1 
1 
1 
1 
1 
1 
1 
1 
1 
1 
1 
1 
1 
1 
1 
1 
1 
1 
1 
1 
1 
1 
1 
1 
1 
1 
1 
1 
1 
1 
1 
1 
1 
1 
1 
1 
1 
1 
1 
1 
1 
1 
1 
1 
1 
1 
1 
1 
1 
1 
1 
1 
1 
1 
1 
1 
1 
1 
1 
1 
1 
1 
1 
1 
1 
1 
1 
1 
1 
1 
1 
1 
1 
1 
1 
1 
1 
1 
1 
1 
1 
1 
1 
1 
1 
1 
1 
1 
1 
1 
1 
1 
1 
1 
1 
1 
1 
1 
1 
1 
1 
1 
1 
1 
1 
1 
1 
1 
1 
1 
1 
1 
1 
1 
1 
1 
1 
1 
1 
1 
1 
1 
1 
1 
1 
1 
1 
1 
1 
1 
1 
1 
1 
1 
1 
1 
1 
1 
1 
1 
1 
1 
1 
1 
1 
1 
1 
1 
1 
1 
1 
1 
1 
1 
1 
1 
1 
1 
1 
1 
1 
1 
1 
1 
1 
1 
1 
1 
1 
1 
1 
1 
1 
1 
1 
1 
1 
1 
1 
1 
1 
1 
1 
1 
1 
1 
1 
1 
1 
1 
1 
1 
1 
1 
1 
1 
1 
1 
1 
1 
1 
1 
1 
1 
1 
1 
1 
1 
1 
1 
1 
1 
1 
1 
1 
1 
1 
1 
1 
1 
1 
1 
1 
1 
1 
1 
1 
1 
1 
1 
1 
1 
1 
1 
1 
1 
1 
1 
1 
1 
1 
1 
1 
1 
1 
1 
1 
1 
1 
1 
1 
1 
1 
1 
1 
1 
1 
1 
1 
1 
1 
1 
1 
1 
1 
1 
1 
1 
1 
1 
1 
1 
1 
1 
1 
1 
1 
1 
1 
1 
1 
1 
1 
1 
1 
1 
1 
1 
1 
1 
1 
1 
1 
1 
1 
1 
1 
1 
1 
1 
1 
1 
1 
1 
1 
1 
1 
1 
1 
1 
1 
1 
1 
1 
1 
1 
1 
1 
1 
1 
1 
1 
1 
1 
1 
1 
1 
1 
1 
1 
1 
1 
1 
1 
1 
1 
1 
1 
1 
1 
1 
1 
1 
1 
1 
1 
1 
1 
1 
1 
1 
1 
1 
1 
1 
1 
1 
1 
1 
1 
1 
1 
1 
1 
1 
1 
1 
1 
1 
1 
1 
1 
1 
1 
1 
1 
1 
1 
1 
1 
1 
1 
1 
1 
1 
1 
1 
1 
1 
1 
1 
1 
1 
1 
1 
1 
1 
1 
1 
1 
1 
1 
1 
1 
1 
1 
1 
1 
1 
1 
1 
1 
1 
1 
1 
1 
1 
1 
1 
1 
1 
1 
1 
1 
1 
1 
1 
1 
1 
1 
1 
1 
1 
1 
1 
1 
1 
1 
1 
1 
1 
1 
1 
1 
1 
1 
1 
1 
1 
1 
1 
1 
1 
1 
1 
1 
1 
1 
1 
1 
1 
1 
1 
1 
1 
1 
1 
1 
1 
1 
1 
1 
1 
1 
1 
1 
1 
1 
1 
1 
1 
1 
1 
1 
1 
1 
1 
1 
1 
1 
1 
1 
1 
1 
1 
1 
1 
1 
1 
1 
1 
1 
1 
1 
1 
1 
1 
1 
1 
1 
1 
1 
1 
1 
1 
1 
1 
1 
1 
1 
1 
1 
1 
1 
1 
1 
1 
1 
1 
1 
1 
1 
1 
1 
1 
1 
1 
1 
1 
1 
1 
1 
1 
1 
1 
1 
1 
1 
1 
1 
1 
1 
1 
1 
1 
1 
1 
1 
1 
1 
1 
1 
1 
1 
1 
1 
1 
1 
1 
1 
1 
1 
1 
1 
1 
1 
1 
1 
1 
1 
1 
1 
1 
1 
1 
1 
1 
1 
1 
1 
1 
1 
1 
1 
1 
1 
1 
1 
1 
1 
1 
1 
1 
1 
1 
1 
1 
1 
1 
1 
1 
1 
1 
1 
1 
1 
1 
1 
1 
1 
1 
1 
1 
1 
1 
1 
1 
1 
1 
1 
1 
1 
1 
1 
1 
1 
1 
1 
1 
1 
1 
1 
1 
1 
1 
1 
1 
1 
1 
1 
1 
1 
1 
1 
1 
1 
1 
1 
1 
1 
1 
1 
1 
1 
1 
1 
1 
1 
1 
1 
1 
1 
1 
1 
1 
1 
1 
1 
1 
1 
1 
1 
1 
1 
1 
1 
1 
1 
1 
1 
1 
1 
1 
1 
1 
1 
1 
1 
1 
1 
1 
1 
1 
1 
1 
1 
1 
1 
1 
1 
1 
1 
1 
1 
1 
1 
1 
1 
1 
1 
1 
1 
1 
1 
1 
1 
1 
1 
1 
1 
1 
1 
1 
1 
1 
1 
1 
1 
1 
1 
1 
1 
1 
1 
1 
1 
1 
1 
1 
1 
1 
1 
1 
1 
1 
1 
1 
1 
1 
1 
1 
1 
1 
1 
1 
1 
1 
1 
1 
1 
1 
1 
1 
1 
1 
1 
1 
1 
1 
1 
1 
1 
1 
1 
1 
1 
1 
1 
1 
1 
1 
1 
1 
1 
1 
1 
1 
1 
1 
1 
1 
1 
1 
1 
1 
1 
1 
1 
1 
1 
1 
1 
1 
1 
1 
1 
1 
1 
1 
1 
1 
1 
1 
1 
1 
1 
1 
1 
1 
1 
1 
1 
1 
1 
1 
1 
1 
1 
1 
1 
1 
1 
1 
1 
1 
1 
1 
1 
1 
1 
1 
1 
1 
1 
1 
1 
1 
1 
1 
1 
1 
1 
1 
1 
1 
1 
1 
1 
1 
1 
1 
1 
1 
1 
1 
1 
1 
1 
1 
1 
1 
1 
1 
1 
1 
1 
1 
1 
1 
1 
1 
1 
1 
1 
1 
1 
1 
1 
1 
1 
1 
1 
1 
1 
1 
1 
1 
1 
1 
1 
1 
1 
1 
1 
1 
1 
1 
1 
1 
1 
1 
1 
1 
1 
1 
1 
1 
1 
1 
1 
1 
1 
1 
1 
1 
1 
1 
1 
1 
1 
1 
1 
1 
1 
1 
1 
1 
1 
1 
1 
1 
1 
1 
1 
1 
1 
1 
1 
1 
1 
1 
1 
1 
1 
1 
1 
1 
1 
1 
1 
1 
1 
1 
1 
1 
1 
1 
1 
1 
1 
1 
1 
1 
1 
1 
1 
1 
1 
1 
1 
1 
1 
1 
1 
1 
1 
1 
1 
1 
1 
1 
1 
1 
1 
1 
1 
1 
1 
1 
1 
1 
1 
1 
1 
1 
1 
1 
1 
1 
1 
1 
1 
1 
1 
1 
1 
1 
1 
1 
1 
1 
1 
1 
1 
1 
1 
1 
1 
1 
1 
1 
1 
1 
1 
1 
1 
1 
1 
1 
1 
1 
1 
1 
1 
1 
1 
1 
1 
1 
1 
1 
1 
1 
1 
1 
1 
1 
1 
1 
1 
1 
1 
1 
1 
1 
1 
1 
1 
1 
1 
1 
1 
1 
1 
1 
1 
1 
1 
1 
1 
1 
1 
1 
1 
1 
1 
1 
1 
1 
1 
1 
1 
1 
1 
1 
1 
1 
1 
1 
1 
1 
1 
1 
1 
1 
1 
1 
1 
1 
1 
1 
1 
1 
1 
1 
1 
1 
1 
1 
1 
1 
1 
1 
1 
1 
1 
1 
1 
1 
1 
1 
1 
1 
1 
1 
1 
1 
1 
1 
1 
1 
1 
1 
1 
1 
POINT_DATA 5000
VECTORS Stress float
-729.339 -1517.07 0.
219.93 -1060.05 0.
266.617 -951.171 0.
-478.884 -1214.42 0.
-523.544 -1318.58 0.
-568.204 -1422.74 0.
79.3027 -1219.34 0.
48.0832 -1292.16 0.
16.8637 -1364.99 0.
-318.561 -1465.94 0.
-266.134 -1343.52 0.
-213.707 -1221.11 0.
-458.223 -1370.68 0.
-493.055 -1451.86 0.
-393.611 -1455.43 0.
-312.748 -1266.71 0.
-231.886 -1077.99 0.
-132.645 -1011.7 0.
-268.819 -1329.57 0.
-404.993 -1647.43 0.
-440.9 -1668.57 0.
-329.782 -1409.25 0.
-218.663 -1149.93 0.
-461.385 -1166.91 0.
-435.823 -1107.2 0.
-281.791 -992.429 0.
-639.853 -1138.12 0.
-635.549 -1128.07 0.
293.92 -748.98 0.
226.258 -907.195 0.
158.595 -1065.41 0.
-273.583 -1320.89 0.
-268.762 -1309.63 0.
-263.942 -1298.36 0.
125.613 -1177.35 0.
85.7908 -1269.98 0.
45.9684 -1362.61 0.
114.447 -1386.92 0.
87.4466 -1449.83 0.
-318.077 -1663.06 0.
-290.256 -1597.89 0.
-262.434 -1532.72 0.
-327.985 -1456.13 0.
-218.888 -1201.59 0.
-109.791 -947.039 0.
29.9541 -942.069 0.
-109.917 -1268.62 0.
-249.788 -1595.17 0.
955.792 -1008.6 0.
1043.79 -803.348 0.
-6442.41 -3844.46 0.
1202.15 -638.586 0.
1165.31 -724.621 0.
-116.563 -1319.22 0.
-94.1052 -1266.78 0.
-71.6479 -1214.33 0.
41.7212 -1200.5 0.
-27.4798 -1361.96 0.
-96.6808 -1523.43 0.
-173.458 -1500.64 0.
-96.6429 -1321.26 0.
-19.828 -1141.87 0.
-245.648 -1263.78 0.
-268.51 -1316.7 0.
90.9551 -1204.76 0.
59.4425 -1278.09 0.
27.9298 -1351.42 0.
-270.492 -1475.18 0.
-202.369 -1316.36 0.
-134.245 -1157.54 0.
-346.301 -1225.39 0.
-376.921 -1297.08 0.
-407.541 -1368.77 0.
-726.333 -1357.97 0.
-619.768 -1109.42 0.
-433.99 -835.11 0.
-421.99 -1077.52 0.
-551.943 -1380.76 0.
41.3962 -1323.47 0.
19.196 -1375.26 0.
-3.00426 -1427.05 0.
-146.634 -1492.13 0.
-124.348 -1439.89 0.
-102.062 -1387.65 0.
-414.934 -1444.9 0.
-368.323 -1335.9 0.
-321.712 -1226.9 0.
-10.8522 -1105.54 0.
-21.3953 -1130.31 0.
-501.083 -1340.75 0.
-449.315 -1220.01 0.
-397.547 -1099.27 0.
116.097 -843.7 0.
73.6007 -942.732 0.
31.1048 -1041.76 0.
-289.13 -1171.65 0.
-251.752 -1084.29 0.
-214.373 -996.923 0.
-410.365 -1158.34 0.
-470.556 -1298.67 0.
-296.01 -1299.89 0.
121.853 -1070.6 0.
168.531 -961.852 0.
-248.008 -1084.03 0.
-292.726 -1188.24 0.
-337.445 -1292.45 0.
-34.6709 -1237.02 0.
-65.8868 -1309.8 0.
-97.1026 -1382.58 0.
-259.516 -1409.17 0.
-207.135 -1286.7 0.
-154.754 -1164.22 0.
-673.877 -1432.08 0.
-708.721 -1513.12 0.
-236.394 -1356.81 0.
-155.541 -1168.03 0.
-74.6891 -979.238 0.
-164.659 -993.896 0.
-300.772 -1311.87 0.
-436.885 -1629.84 0.
-421.718 -1628.95 0.
-310.622 -1369.61 0.
-199.527 -1110.26 0.
-279.946 -1057.93 0.
-254.45 -998.227 0.
-559.653 -1080.25 0.
-683.616 -1125.31 0.
-679.337 -1115.3 0.
194.311 -760.15 0.
126.869 -918.527 0.
59.4266 -1076.9 0.
-44.3247 -1191.14 0.
-39.5013 -1179.83 0.
-34.678 -1168.52 0.
98.9047 -1157.52 0.
58.8982 -1250 0.
18.8917 -1342.48 0.
-11.2624 -1409.52 0.
-38.3183 -1472.37 0.
-107.794 -1542.18 0.
-80.1208 -1476.85 0.
-52.4481 -1411.52 0.
-470.56 -1486.08 0.
-361.406 -1231.43 0.
-252.253 -976.782 0.
194.903 -840.526 0.
55.1679 -1167.13 0.
-84.5678 -1493.74 0.
765.847 -1058.46 0.
853.873 -853.289 0.
-4277.63 -2885.24 0.
1116.87 -643.675 0.
1080.08 -729.745 0.
-93.8235 -1277.85 0.
-71.4215 -1225.45 0.
-49.0196 -1173.05 0.
22.3473 -1177.32 0.
-46.8661 -1338.8 0.
-116.08 -1500.27 0.
0.689843 -1395.32 0.
77.4295 -1215.81 0.
154.169 -1036.3 0.
-214.687 -1218.56 0.
-237.838 -1271.31 0.
100.833 -1169.86 0.
69.1803 -1243.12 0.
37.5279 -1316.38 0.
-263.558 -1440.57 0.
-195.342 -1281.82 0.
-127.125 -1123.06 0.
-140.75 -1106.12 0.
-171.212 -1177.94 0.
-201.675 -1249.75 0.
-793.269 -1355.03 0.
-686.65 -1106.54 0.
-282.358 -738.324 0.
-301.464 -994.164 0.
-431.449 -1297.52 0.
-58.4758 -1334.99 0.
-80.6854 -1386.77 0.
-102.895 -1438.56 0.
-35.294 -1412.91 0.
-13.1475 -1360.53 0.
8.99905 -1308.14 0.
-329.452 -1377.06 0.
-282.996 -1267.94 0.
-236.539 -1158.82 0.
-333.354 -1212.82 0.
-343.806 -1237.7 0.
-340.467 -1240.02 0.
-288.682 -1119.35 0.
-236.897 -998.667 0.
10.2586 -857.692 0.
-32.3334 -956.696 0.
-74.9253 -1055.7 0.
-268.504 -1131.65 0.
-231.162 -1044.07 0.
-193.819 -956.493 0.
-259.352 -1062.25 0.
-319.493 -1202.21 0.
195.969 -947.577 0.
-5.78746 -1154.35 0.
-60.3081 -1281.12 0.
-677.237 -2490.42 0.
-260.165 -1517.55 0.
-394.747 -1831.9 0.
-985.085 -3207.93 0.
-874.78 -2951.45 0.
-1564.84 -4562.49 0.
-1732.24 -4924.71 0.
-1448.12 -4262.61 0.
-1545.61 -4490.93 0.
-2028.71 -4151.33 0.
-1701.99 -3388.27 0.
-1604.48 -4818.3 0.
-976.292 -3352.47 0.
-1267.69 -4032.32 0.
-1457.73 -3921.76 0.
-1519.88 -4066.35 0.
-2534.52 -6433.41 0.
-3339.06 -8441.25 0.
-2198.27 -5779.19 0.
-2179.27 -5734.6 0.
-1439.76 -4077.79 0.
-1195.16 -3507.67 0.
-1826.04 -5036.59 0.
-2092.94 -4300.25 0.
-1887.78 -3820.04 0.
-726.378 -2692.88 0.
-849.603 -2979.52 0.
-1591.63 -4710.03 0.
-2051.33 -6279.12 0.
-1487.12 -4962.87 0.
-1449.97 -4876.41 0.
-1253.7 -4229.03 0.
-1682.09 -5230.03 0.
-3057.59 -8440.98 0.
-2760.62 -7554.07 0.
-1982.9 -5739.94 0.
-2642.48 -7828.68 0.
-1828.32 -5929.35 0.
-1821.48 -5913.75 0.
-2001.41 -4755.88 0.
-1205.15 -2897.42 0.
-1232.11 -2959.81 0.
-996.253 -3902.84 0.
-1319.38 -4656.88 0.
-1966.38 -6166.63 0.
-810.119 -4344.35 0.
-949.832 -4670.42 0.
-6762.64 -9801.94 0.
-708.615 -4708.31 0.
-719.954 -4734.14 0.
-2011.42 -5766.55 0.
-1495.01 -4560.56 0.
-2096.6 -5963.25 0.
-1846.66 -5469.44 0.
-1395.27 -4415.97 0.
-1847.05 -5469.88 0.
-1543.34 -5303.12 0.
-895.201 -3791.03 0.
-1061.67 -4179.7 0.
-1308.41 -3795.2 0.
-1288.52 -3749.65 0.
-1924.4 -5881.44 0.
-1732.63 -5433.91 0.
-2532.07 -7299.16 0.
-2889.94 -7552.07 0.
-1865.04 -5160.66 0.
-2233.04 -6019.34 0.
-1910.09 -5595.36 0.
-1568.21 -4798.17 0.
-2247.71 -6384.19 0.
-1917.29 -3819.04 0.
-1592.72 -3061.52 0.
-1393.37 -3525.74 0.
-1065.28 -2977.36 0.
-1855.52 -4820.8 0.
-2727.4 -7339.98 0.
-1794.61 -5163.15 0.
-2195.45 -6098.13 0.
-1966.74 -6099.5 0.
-1597.06 -5237.51 0.
-2026.46 -6240.03 0.
-1427.75 -4067.77 0.
-682.424 -2328.92 0.
-984.938 -3035.04 0.
-1583.92 -3486.32 0.
-1589.34 -3499.41 0.
-1312.46 -3782.03 0.
-677.14 -2298.81 0.
-771.947 -2519.22 0.
-731.205 -2352.6 0.
-444.809 -1684.55 0.
-955.914 -2877.28 0.
-628.48 -1979.96 0.
-215.28 -1016.15 0.
-388.337 -1420.37 0.
-486.846 -1851.45 0.
-871.658 -2748.95 0.
409.559 -99.9535 0.
191.487 -347.638 0.
70.9546 -628.386 0.
-35.5311 -800.088 0.
122.739 -431.425 0.
281.009 -62.761 0.
460.388 266.837 0.
558.185 494.264 0.
655.982 721.69 0.
578.2 743.488 0.
571.079 725.556 0.
563.957 707.623 0.
268.308 692.425 0.
334.449 847.71 0.
756.003 1133.21 0.
692.619 985.186 0.
629.235 837.16 0.
469.557 821.661 0.
694.722 1347.2 0.
919.886 1872.74 0.
1056.16 1896.4 0.
829.638 1367.39 0.
603.118 838.392 0.
838.298 824.634 0.
830.396 805.081 0.
1372.41 1021.15 0.
222.489 566.546 0.
242.708 614.817 0.
809.265 936.258 0.
930.125 1219.09 0.
1050.98 1501.93 0.
1096.33 1604.28 0.
1039.22 1471.05 0.
982.103 1337.81 0.
1161.91 1516.45 0.
1274.2 1776.91 0.
1386.5 2037.37 0.
1374.81 1914.14 0.
1289.28 1713.59 0.
1419.8 1617.25 0.
1396 1561.27 0.
1372.2 1505.29 0.
578.322 1056.87 0.
450.829 759.717 0.
323.336 462.568 0.
1061.32 862.993 0.
1243.23 1287.33 0.
1425.14 1711.66 0.
1763.95 1796.1 0.
1671.95 1579.93 0.
-692.312 390.543 0.
2121.38 1726.63 0.
2189.46 1885.7 0.
1071.18 1479.79 0.
1002.15 1319.2 0.
933.116 1158.61 0.
833.272 1082.51 0.
876.654 1184.6 0.
920.036 1286.7 0.
1210.53 1253.59 0.
1067.1 919.176 0.
923.68 584.764 0.
751.9 693.983 0.
875.55 981.998 0.
1162.02 1341.67 0.
1286.86 1633.1 0.
1411.7 1924.52 0.
1197.97 1919.05 0.
1092.46 1672.15 0.
986.947 1425.25 0.
819.384 1345.2 0.
893.098 1515.51 0.
966.813 1685.83 0.
524.974 1236.42 0.
333.571 791.031 0.
686.818 591.813 0.
783.673 978.105 0.
964.133 1400.23 0.
957.247 1650.86 0.
941.324 1613.95 0.
925.4 1577.04 0.
1254.51 1660.8 0.
1207.41 1550.29 0.
1160.31 1439.79 0.
713.894 1090.3 0.
615.661 860.434 0.
517.428 630.569 0.
521.906 651.451 0.
540.555 695.331 0.
426.548 639.316 0.
289.498 320.719 0.
152.448 2.12245 0.
83.1641 -172.449 0.
111.673 -105.202 0.
140.182 -37.9561 0.
215.34 -106.012 0.
103.751 -366.238 0.
-7.83848 -626.464 0.
197.073 -329.928 0.
360.936 52.2517 0.
243.302 -138.629 0.
26.067 -387.175 0.
-94.526 -668.026 0.
-120.185 -804.655 0.
38.1086 -436.239 0.
196.403 -67.8228 0.
423.84 283.559 0.
521.589 511.009 0.
619.339 738.46 0.
449.534 720.437 0.
442.587 702.442 0.
435.639 684.447 0.
555.395 846.333 0.
621.507 1001.79 0.
539.367 1071.45 0.
476.067 923.422 0.
412.766 775.394 0.
356.998 805.469 0.
582.243 1330.91 0.
807.488 1856.34 0.
1029.88 1917.24 0.
803.608 1388.11 0.
577.336 858.976 0.
1072.08 957.076 0.
1064.28 937.27 0.
1752.43 1215.64 0.
520.476 725.976 0.
540.824 774.134 0.
801.739 964.682 0.
922.575 1247.39 0.
1043.41 1530.1 0.
829.934 1521.54 0.
772.753 1388.42 0.
715.572 1255.3 0.
1120.82 1529.61 0.
1233.15 1790.05 0.
1345.49 2050.5 0.
1486.88 1994.49 0.
1401.51 1793.87 0.
1454.15 1664.66 0.
1430.42 1608.79 0.
1406.69 1552.92 0.
703.095 1141.37 0.
575.627 844.093 0.
448.159 546.821 0.
1095.48 907.543 0.
1277.39 1331.83 0.
1459.31 1756.11 0.
1710.35 1805.33 0.
1618.7 1588.57 0.
-690.944 422.487 0.
2226.12 1802.65 0.
2294.4 1961.79 0.
1059.75 1506.72 0.
990.87 1345.95 0.
921.994 1185.17 0.
692.817 1053.54 0.
735.991 1155.81 0.
779.165 1258.07 0.
1158.14 1262.36 0.
1014.61 928.177 0.
871.085 593.996 0.
936.014 805.379 0.
1059.56 1093.49 0.
1166.96 1374.67 0.
1291.8 1666.14 0.
1416.64 1957.62 0.
1250.02 1973.17 0.
1144.66 1725.94 0.
1039.3 1478.71 0.
535.916 1255.57 0.
609.979 1425.53 0.
684.041 1595.49 0.
879.485 1420.46 0.
687.679 975.171 0.
864.554 699.524 0.
988.692 1097.72 0.
1168.95 1519.97 0.
767.212 1600.76 0.
751.363 1563.96 0.
735.513 1527.15 0.
1142.83 1644.29 0.
1095.75 1533.81 0.
1048.66 1423.33 0.
646.252 1093.37 0.
548.125 863.35 0.
449.998 633.332 0.
945.729 864.532 0.
964.083 908.549 0.
251.811 595.244 0.
114.575 276.624 0.
-22.6617 -41.9965 0.
-46.8587 -195.868 0.
-18.6 -128.305 0.
9.65871 -60.7415 0.
281.534 -46.5074 0.
169.785 -306.599 0.
58.035 -566.69 0.
252.876 -273.835 0.
416.961 108.222 0.
-209.469 -1015.6 0.
-293.692 -1034.17 0.
-273.948 -989.078 0.
-277.649 -983.931 0.
-332.36 -1110.19 0.
-387.071 -1236.45 0.
-231.223 -1218.89 0.
-220.535 -1194.49 0.
-209.846 -1170.1 0.
-390.125 -1216.73 0.
-367.666 -1163.9 0.
-345.208 -1111.07 0.
-298.976 -1090.85 0.
-304.652 -1104.32 0.
-419.271 -1178.33 0.
-495.663 -1356.02 0.
-572.056 -1533.71 0.
-675.405 -1664.84 0.
-651.521 -1607.85 0.
-627.637 -1550.87 0.
-384.105 -1331.34 0.
-292.053 -1117.95 0.
-200.001 -904.558 0.
282.69 -725.538 0.
236.001 -835.896 0.
705.187 -725.065 0.
-90.8669 -1030.54 0.
-69.99 -983.685 0.
-12.748 -937.567 0.
-34.0937 -986.281 0.
-55.4394 -1035 0.
-393.684 -1152.97 0.
-332.28 -1011.15 0.
-270.875 -869.334 0.
109.615 -893.363 0.
-70.4669 -1314.37 0.
-250.549 -1735.38 0.
20.4315 -1498.57 0.
115.103 -1274.83 0.
321.134 -1030.99 0.
287.081 -1110.99 0.
253.027 -1191 0.
-256.513 -1455.74 0.
-264.094 -1471.84 0.
-271.675 -1487.94 0.
103.182 -1355.58 0.
81.4836 -1407.45 0.
59.7848 -1459.32 0.
330.616 -1273.56 0.
387.578 -1139.91 0.
-1583.58 -1876.96 0.
884.597 -1021.18 0.
778.078 -1268.81 0.
-267.449 -1849.67 0.
-211.81 -1717.84 0.
-156.172 -1586.01 0.
-419.231 -1560.64 0.
-324.624 -1341.11 0.
-230.017 -1121.58 0.
212.553 -897.09 0.
191.892 -944.942 0.
171.231 -992.794 0.
197.207 -992.504 0.
191.557 -1005.12 0.
119.204 -1050.96 0.
95.7645 -1105.17 0.
72.3248 -1159.38 0.
-168.661 -1286.38 0.
-160.124 -1265.7 0.
-151.587 -1245.01 0.
-658.795 -1451.86 0.
-656.077 -1442.43 0.
-653.359 -1433 0.
-57.5982 -1149.59 0.
-39.5189 -1108.92 0.
115.175 -1010.79 0.
86.0286 -1005.21 0.
95.1449 -983.23 0.
-438.084 -1202.88 0.
-453.279 -1237.85 0.
-468.475 -1272.82 0.
-171.95 -1147.36 0.
-159.795 -1119.28 0.
-147.639 -1091.2 0.
-261.007 -1104.65 0.
-238.834 -1052.35 0.
-216.661 -1000.06 0.
291.042 -725.248 0.
321.431 -654.135 0.
-450.196 -927.304 0.
-426.077 -871.294 0.
-401.958 -815.284 0.
-205.741 -745.835 0.
-268.367 -891.416 0.
-330.994 -1037 0.
-123.139 -981.032 0.
-109.212 -949.187 0.
-95.2842 -917.342 0.
-178.524 -1190.83 0.
-339.006 -1562.22 0.
-208.154 -985.334 0.
-191.863 -958.414 0.
-172.289 -913.319 0.
-365.253 -990.876 0.
-419.918 -1117.33 0.
-474.584 -1243.78 0.
-189.394 -1168.98 0.
-178.649 -1144.79 0.
-167.903 -1120.59 0.
-252.784 -1125.8 0.
-230.249 -1073.08 0.
-207.715 -1020.37 0.
-608.072 -1192.51 0.
-613.978 -1205.7 0.
-158.797 -1034.5 0.
-235.093 -1212.22 0.
-311.389 -1389.95 0.
-469.2 -1545.18 0.
-445.357 -1488.26 0.
-421.514 -1431.34 0.
-377.494 -1296.81 0.
-285.644 -1083.22 0.
-193.794 -869.627 0.
-73.7252 -847.098 0.
-120.38 -957.369 0.
-692.011 -1292.67 0.
-5.09614 -962.246 0.
15.3999 -915.202 0.
30.7871 -887.71 0.
9.4484 -936.722 0.
-11.8903 -985.735 0.
-292.109 -1077.91 0.
-230.691 -936.295 0.
-169.273 -794.684 0.
246.625 -803.817 0.
66.5738 -1224.89 0.
-113.477 -1645.96 0.
20.0842 -1467.2 0.
114.938 -1243.5 0.
374.952 -976.413 0.
340.769 -1056.39 0.
306.586 -1136.36 0.
16.7183 -1306.68 0.
9.23703 -1323 0.
1.75581 -1339.33 0.
45.4885 -1350.99 0.
23.829 -1402.89 0.
2.16914 -1454.78 0.
247.876 -1277.21 0.
305.352 -1143.91 0.
944.692 -762.393 0.
493.17 -1158.42 0.
387.408 -1406.38 0.
37.4319 -1686.5 0.
93.4816 -1554.93 0.
149.531 -1423.36 0.
-229.253 -1448.37 0.
-134.837 -1228.65 0.
-40.4222 -1008.94 0.
252.639 -848.909 0.
231.802 -896.503 0.
210.965 -944.096 0.
125.958 -991.798 0.
120.293 -1004.34 0.
129.987 -1015.45 0.
106.494 -1069.6 0.
83.0002 -1123.75 0.
-240.089 -1285.18 0.
-231.23 -1264.89 0.
-222.371 -1244.6 0.
-441.258 -1326.74 0.
-438.405 -1317.36 0.
-435.552 -1307.99 0.
25.4745 -1082.86 0.
43.5328 -1042.21 0.
-40.7622 -1045.72 0.
-82.2852 -1045.38 0.
-73.3268 -1023.4 0.
-231.05 -1083.28 0.
-246.506 -1117.79 0.
-261.963 -1152.31 0.
-315.382 -1178.68 0.
-303.565 -1150.23 0.
-291.748 -1121.77 0.
-80.8369 -996.676 0.
-59.0927 -944.055 0.
-37.3484 -891.433 0.
-33.6141 -834.403 0.
-3.32732 -763.109 0.
-361.6 -856.708 0.
-337.199 -800.888 0.
-312.799 -745.067 0.
143.74 -564.626 0.
81.1458 -709.994 0.
18.551 -855.362 0.
-157.564 -965.19 0.
-143.888 -933.109 0.
-130.213 -901.028 0.
-290.988 -1207.32 0.
-451.556 -1578.57 0.
-94.7816 -671.769 0.
158.962 -306.449 0.
88.5898 -468.864 0.
-573.548 -1279.37 0.
-390.973 -852.696 0.
-299.759 -639.177 0.
-521.358 -1988.44 0.
399.009 159.797 0.
329.553 -1.96578 0.
14.0759 -739.605 0.
-257.14 -1372.41 0.
286.102 -104.823 0.
-389.562 -61.4162 0.
-511.436 -348.1 0.
185.406 -687.275 0.
553.247 169.546 0.
243.974 -553.582 0.
-297.591 -1493.96 0.
-142.93 -1134.91 0.
239.27 -244.961 0.
96.7579 -168.201 0.
164.347 -10.5753 0.
245.116 177.76 0.
68.9155 186.835 0.
-316.443 -710.991 0.
-117.764 -195.502 0.
373.072 -204.802 0.
10.5208 -1052.51 0.
132.538 -700.104 0.
638.754 479.297 0.
1057.77 1455.25 0.
-453.842 -1619.72 0.
-53.6551 -686.139 0.
394.929 360.454 0.
1128.8 1027.99 0.
267.511 -981.715 0.
-418.212 -2581.87 0.
-167.857 -1875.99 0.
348.871 -673.243 0.
572.514 -579.697 0.
563.328 -602.037 0.
758.393 -147.881 0.
481.338 -703.957 0.
364.526 -976.099 0.
1087.18 710.383 0.
630.958 150.772 0.
162.052 -940.82 0.
257.764 -715.023 0.
-63.2234 -1817.17 0.
729.468 33.9948 0.
980.529 -403.132 0.
571.515 -202.881 0.
261.555 -923.536 0.
550.822 -1034.5 0.
314.162 -1586.29 0.
-24.0504 -2374.99 0.
501.227 -70.1974 0.
1071.95 1260.92 0.
1002.85 1099.15 0.
526.365 -258.668 0.
57.2664 -1353.37 0.
1158.04 1215.05 0.
597.795 277.264 0.
-215.321 -1619.64 0.
-45.1657 -1406.17 0.
1142.07 1362.62 0.
791.643 543.511 0.
269.816 64.7151 0.
3.38809 -555.343 0.
43.9962 -458.949 0.
-149.848 -1020.75 0.
726.08 1022.11 0.
616.003 764.35 0.
116.333 -997.412 0.
-114.12 -1535.3 0.
221.122 -69.3338 0.
-45.0605 -606.419 0.
-334.932 -1283.46 0.
536.739 353.094 0.
102.778 -658.76 0.
159.866 -524.764 0.
-210.101 -632.954 0.
-118.823 -421.253 0.
-65.3174 -297.627 0.
-64.2879 -1267.74 0.
-93.4398 -1337.95 0.
-547.464 -2399.57 0.
-344.376 -915.208 0.
60.282 27.297 0.
255.307 440.976 0.
166.024 233.07 0.
58.2445 -18.1568 0.
683.828 64.6675 0.
673.478 39.6119 0.
1147.7 1145.23 0.
176.668 -87.6086 0.
1.85938 -495.824 0.
-65.071 -652.286 0.
229.227 249.453 0.
-150.487 -636.873 0.
117.318 -638.405 0.
84.5775 -650.435 0.
101.528 -609.465 0.
-152.465 -696.529 0.
-179.526 -759.805 0.
-206.588 -823.08 0.
-148.821 -887.636 0.
-217.81 -1047.29 0.
-286.799 -1206.94 0.
-208.335 -1102.19 0.
-116.661 -888.731 0.
-24.9871 -675.275 0.
-569.549 -926.659 0.
-590.93 -977.985 0.
93.3296 -707.72 0.
179.499 -507.457 0.
265.668 -307.193 0.
43.3767 -384.943 0.
-118.368 -763.69 0.
-280.113 -1142.44 0.
-192.033 -1183.94 0.
-131.191 -1042 0.
-70.3489 -900.064 0.
-230.137 -909.685 0.
-208.501 -858.299 0.
-169.196 -799.208 0.
-217.385 -919.156 0.
-269.4 -1041.6 0.
32.6168 -979.114 0.
61.0622 -914.528 0.
89.5076 -849.942 0.
43.9258 -865.636 0.
17.007 -929.04 0.
-9.91113 -992.443 0.
236.157 -748.613 0.
360.894 -457.365 0.
485.63 -166.117 0.
620.839 -272.94 0.
505.783 -543.19 0.
391.168 -794.629 0.
350.188 -890.835 0.
309.208 -987.041 0.
235.357 -1049.87 0.
273.52 -960.629 0.
311.683 -871.39 0.
258.188 -932.211 0.
187.661 -1096.46 0.
117.135 -1260.71 0.
192.609 -1229.14 0.
214.522 -1176.39 0.
719.193 -916.023 0.
320.079 -1002.36 0.
363.005 -899.383 0.
737.981 -655.816 0.
789.407 -535.267 0.
840.832 -414.718 0.
179.006 -772.663 0.
23.6062 -1135.31 0.
-131.794 -1497.96 0.
19.43 -1380.58 0.
135.774 -1108.06 0.
252.118 -835.536 0.
-34.7766 -942.773 0.
-40.135 -954.431 0.
246.73 -839.835 0.
264.367 -799.738 0.
282.004 -759.64 0.
-18.4737 -867.207 0.
-18.3227 -864.938 0.
-18.171 -862.669 0.
-11.7506 -835.065 0.
10.5092 -783.758 0.
32.7691 -732.45 0.
239.779 -599.682 0.
261.914 -546.985 0.
-105.715 -664.011 0.
-234.103 -902.999 0.
-330.672 -1128.35 0.
-214.11 -1211.81 0.
-204.689 -1189.44 0.
-195.268 -1167.07 0.
-298.048 -1135.89 0.
-218.684 -951.66 0.
-139.319 -767.426 0.
98.6557 -551.067 0.
151.356 -430.057 0.
204.057 -309.046 0.
-276.88 -779.297 0.
-435.375 -1150.34 0.
-388.53 -1380.64 0.
-315.035 -1208.4 0.
-241.541 -1036.17 0.
276.359 -726.663 0.
270.574 -740.247 0.
264.789 -753.83 0.
-131.154 -886.202 0.
-93.5414 -798.763 0.
-55.9286 -711.323 0.
-425.133 -842.105 0.
-413.739 -816.884 0.
375.042 -498.582 0.
190.387 -574.067 0.
207.464 -533.118 0.
73.9911 -567.789 0.
47.1493 -631.393 0.
20.3075 -694.997 0.
-253.474 -900.276 0.
-322.61 -1059.77 0.
-391.745 -1219.27 0.
-273.206 -1097.91 0.
-181.464 -884.729 0.
-89.7224 -671.547 0.
-318.851 -787.359 0.
-340.515 -838.268 0.
8.13293 -712.369 0.
94.2262 -511.95 0.
180.32 -311.532 0.
-104.87 -417.529 0.
-266.661 -796.064 0.
-428.453 -1174.6 0.
4.21626 -1067.96 0.
64.9538 -925.946 0.
125.691 -783.93 0.
-4.23598 -781.436 0.
17.6732 -730.278 0.
62.0826 -669.333 0.
-548.543 -1029.71 0.
-600.739 -1151.97 0.
72.6699 -930.523 0.
100.922 -865.952 0.
129.175 -801.381 0.
274.993 -735.037 0.
248.017 -798.519 0.
221.041 -862.002 0.
91.8734 -778.74 0.
216.533 -487.471 0.
341.192 -196.203 0.
762.092 -181.111 0.
646.757 -451.22 0.
298.301 -802.322 0.
257.253 -898.568 0.
216.205 -994.815 0.
131.975 -1063.77 0.
170.173 -974.397 0.
208.371 -885.021 0.
387.233 -844.387 0.
317.299 -1008.87 0.
247.366 -1173.36 0.
214.615 -1188.37 0.
236.566 -1135.43 0.
-357.685 -1346.52 0.
446.993 -917.124 0.
489.989 -814.077 0.
785.707 -602.923 0.
837.046 -482.292 0.
888.385 -361.663 0.
169.611 -745.361 0.
14.0888 -1107.87 0.
-141.433 -1470.37 0.
3.67457 -1356.52 0.
119.533 -1083.41 0.
235.392 -810.303 0.
-153.06 -963.365 0.
-158.363 -974.892 0.
323.829 -774.073 0.
341.662 -733.939 0.
359.496 -693.805 0.
134.342 -770.196 0.
134.387 -767.757 0.
134.434 -765.317 0.
76.7049 -765.996 0.
98.7904 -714.557 0.
120.876 -663.119 0.
198.063 -587.129 0.
219.844 -534.209 0.
-82.465 -623.633 0.
-294.413 -898.248 0.
-391.013 -1123.41 0.
-295.394 -1215.02 0.
-285.819 -1192.6 0.
-276.243 -1170.18 0.
-125.808 -1031 0.
-46.3531 -846.687 0.
33.1018 -662.37 0.
-61.0854 -587.329 0.
-8.37912 -466.205 0.
44.3272 -345.082 0.
-249.217 -736.309 0.
-407.971 -1107.19 0.
-204.922 -1270.56 0.
-131.438 -1098.21 0.
-57.9551 -925.861 0.
208.642 -724.848 0.
202.67 -738.169 0.
196.698 -751.49 0.
-72.4429 -829.695 0.
-34.8398 -742.213 0.
2.76343 -654.73 0.
-636.979 -901.142 0.
-625.277 -876.27 0.
105.34 -911.974 0.
6.63395 -933.478 0.
-10.5461 -975.203 0.
-45.6984 -1002.49 0.
-7.72664 -914.34 0.
30.2454 -826.192 0.
-236.969 -876.761 0.
-212.43 -820.7 0.
-187.891 -764.638 0.
-221.741 -817.62 0.
-264.572 -918.019 0.
-307.403 -1018.42 0.
-317.368 -1082.19 0.
-347.593 -1153.2 0.
-190.927 -1137.57 0.
-169.749 -1088.87 0.
-148.572 -1040.16 0.
-464.821 -1128.5 0.
-428.236 -1043.36 0.
-391.651 -958.217 0.
143.809 -796.994 0.
45.2513 -1027.29 0.
-53.3067 -1257.59 0.
-166.352 -1168.43 0.
-41.4073 -876.729 0.
239.529 -518.095 0.
-433.961 -903.906 0.
-488.434 -1031.05 0.
51.2729 -888.844 0.
39.7698 -912.766 0.
28.2668 -936.687 0.
219.226 -881.201 0.
200.478 -928.402 0.
181.73 -975.603 0.
-85.4031 -1192.76 0.
-154.894 -1353.44 0.
-224.385 -1514.11 0.
277.35 -1269.7 0.
303.681 -1207.42 0.
121.46 -1232.76 0.
153.875 -1154.37 0.
186.29 -1075.98 0.
121.462 -1109.91 0.
36.6032 -1305.4 0.
-48.2548 -1500.89 0.
152.966 -1359.48 0.
274.741 -1074.85 0.
396.516 -790.225 0.
405.235 -891.876 0.
298.854 -1143.22 0.
-1557.44 -2143.7 0.
403.919 -1191.74 0.
463.349 -1054.83 0.
550.354 -978.824 0.
429.674 -1260.35 0.
308.995 -1541.88 0.
-266.93 -1786.69 0.
-114.767 -1433.32 0.
37.3966 -1079.94 0.
168.768 -898.493 0.
193.397 -842.582 0.
218.025 -786.671 0.
-149.485 -965.272 0.
-166.719 -1005.94 0.
299.576 -840.797 0.
266.349 -917.567 0.
233.121 -994.337 0.
134.536 -1046.42 0.
180.164 -942.409 0.
225.792 -838.395 0.
7.63751 -925.112 0.
-23.4218 -998.576 0.
-54.4809 -1072.04 0.
-108.788 -1119.74 0.
-113.308 -1132.58 0.
-159.044 -1165.25 0.
-419.396 -1282.89 0.
-422.665 -1290.37 0.
-335.335 -1220.54 0.
-254.652 -1032.63 0.
-173.969 -844.719 0.
85.9831 -673.4 0.
60.4322 -734.622 0.
34.8812 -795.845 0.
-263.785 -990.367 0.
-302.672 -1081.14 0.
-341.558 -1171.91 0.
-423.577 -1126.37 0.
-373.396 -1011.66 0.
54.7007 -761.818 0.
16.4527 -851.647 0.
-21.7953 -941.476 0.
60.3799 -903.842 0.
128.268 -747.033 0.
196.156 -590.223 0.
-23.3861 -678.781 0.
-64.8109 -775.992 0.
-106.236 -873.202 0.
-582.339 -985.887 0.
-512.97 -823.463 0.
-351.673 -1074.57 0.
-133.06 -961.116 0.
-150.278 -1002.8 0.
-75.1552 -984.434 0.
-37.5121 -895.705 0.
0.13108 -806.976 0.
-81.3074 -777.876 0.
-56.7697 -721.678 0.
-32.2321 -665.48 0.
-284.711 -814.084 0.
-327.654 -914.378 0.
-370.598 -1014.67 0.
-216.658 -1007.85 0.
-247.121 -1078.53 0.
-116.59 -1074.53 0.
-95.4861 -1025.61 0.
-74.3819 -976.688 0.
-419.729 -1078.01 0.
-383.124 -992.911 0.
-346.518 -907.808 0.
37.9937 -810.527 0.
-60.6458 -1040.7 0.
-159.285 -1270.88 0.
-349.447 -1217.34 0.
-224.732 -925.658 0.
37.3991 -575.009 0.
63.9114 -659.634 0.
9.86613 -787.258 0.
-55.0577 -901.483 0.
-66.5631 -925.621 0.
-78.0685 -949.759 0.
39.9267 -927.749 0.
20.8409 -974.771 0.
1.7549 -1021.79 0.
87.4839 -1087.28 0.
17.6475 -1247.84 0.
-52.1887 -1408.4 0.
128.361 -1302.04 0.
154.497 -1239.62 0.
259.035 -1143.28 0.
291.001 -1064.89 0.
322.967 -986.494 0.
268.848 -1016.56 0.
184.067 -1212.33 0.
99.2871 -1408.1 0.
18.4432 -1385.35 0.
140.41 -1100.87 0.
262.376 -816.389 0.
579.022 -785.916 0.
472.704 -1037.31 0.
-407.269 -1619.61 0.
488.36 -1124.06 0.
547.457 -986.863 0.
358.946 -1030.13 0.
238.048 -1311.34 0.
117.15 -1592.56 0.
-199.337 -1725.79 0.
-47.3938 -1372.58 0.
104.55 -1019.37 0.
142.562 -878.112 0.
166.521 -821.663 0.
190.48 -765.213 0.
13.9003 -864.893 0.
-3.66066 -905.311 0.
253.065 -829.771 0.
219.59 -906.152 0.
186.114 -982.532 0.
304.587 -944.215 0.
349.862 -839.479 0.
395.136 -734.743 0.
-55.4065 -922.108 0.
-86.3441 -995.551 0.
-117.282 -1068.99 0.
-217.959 -1135.03 0.
-222.273 -1148.11 0.
-512.582 -1285.45 0.
-236.386 -1173.45 0.
-239.409 -1181.11 0.
-320.645 -1182.03 0.
-239.796 -994.211 0.
-158.948 -806.391 0.
98.2668 -637.585 0.
72.6226 -698.87 0.
46.9782 -760.156 0.
-146.159 -906.913 0.
-185.016 -997.645 0.
-223.872 -1088.38 0.
-427.498 -1097.78 0.
-377.695 -982.585 0.
8.6702 -749.752 0.
-29.6683 -839.419 0.
-68.0069 -929.086 0.
-8.62447 -902.481 0.
58.785 -745.363 0.
126.195 -588.246 0.
-86.743 -674.468 0.
-128.316 -771.551 0.
-169.888 -868.634 0.
-124.944 -758.541 0.
-55.2723 -595.717 0.
-415.061 -335.814 0.
-28.8947 -426.411 0.
500.102 808.602 0.
420.667 261.796 0.
241.465 -157.805 0.
399.478 209.565 0.
625.126 602.898 0.
578.716 494.285 0.
554.015 435.14 0.
121.324 285.46 0.
114.653 267.822 0.
387.906 903.445 0.
431.948 343.723 0.
87.8749 -460.903 0.
776.272 909.456 0.
888.448 1167.77 0.
818.891 1002.05 0.
327.539 609.049 0.
283.966 506.572 0.
321.937 594.306 0.
675.941 908.989 0.
525.787 558.127 0.
19.8404 -622.86 0.
-171.891 -429.497 0.
169.785 365.962 0.
-526.966 -457.073 0.
1123.02 900.539 0.
1071.65 778.219 0.
518.709 670.736 0.
293.078 142.98 0.
381.213 347.404 0.
397.356 277.555 0.
277.604 -1.56772 0.
481.622 474.896 0.
1156.48 1112.48 0.
1299.13 1446.05 0.
778.904 233.05 0.
1322.55 1801.19 0.
841.389 678.562 0.
862.757 39.4793 0.
842.492 -11.2099 0.
813.624 -81.5901 0.
636.908 -402.191 0.
1255.23 1039.3 0.
973.299 380.088 0.
371.638 -274.12 0.
763.769 641.299 0.
676.873 438.925 0.
1453.57 946.365 0.
1543.11 1156.8 0.
-982.583 -312.098 0.
1200.74 421.56 0.
1041.13 48.2897 0.
1008.06 879.234 0.
964.377 776.041 0.
698.765 155.632 0.
821.469 562.382 0.
809.885 534.33 0.
1424.73 1967.94 0.
278.334 -474.883 0.
575.893 218.908 0.
579.79 227.404 0.
639.002 311.146 0.
598.572 220.749 0.
747.834 448.27 0.
732.803 412.521 0.
843.689 670.724 0.
851.391 40.0513 0.
1513.57 1585.65 0.
1574.76 1728.81 0.
769.111 1146.86 0.
473.969 458.358 0.
25.6796 -587.687 0.
-61.2477 -539.972 0.
746.02 1343.62 0.
218.705 1027.63 0.
644.365 568.378 0.
993.402 1384.62 0.
381.12 456.839 0.
271.993 202.194 0.
214.631 68.4666 0.
523.009 356.281 0.
675.13 713.492 0.
930.01 1310.55 0.
381.934 131.498 0.
152.197 -403.831 0.
591.192 620.911 0.
175.972 352.923 0.
257.453 544.658 0.
252.774 -57.6159 0.
596.105 742.838 0.
792.43 1199.93 0.
604.8 690.852 0.
547.622 558.233 0.
432.364 289.511 0.
-274.735 -966.164 0.
255.923 271.635 0.
64.6378 -174.935 0.
311.608 -567.271 0.
138.509 -970.226 0.
30.9824 -401.418 0.
-45.866 -594.291 0.
-107.933 -738.015 0.
62.2138 -739.886 0.
102.679 -645.417 0.
143.144 -550.947 0.
111.961 -556.021 0.
68.967 -656.746 0.
25.9733 -757.471 0.
-153.178 -921.494 0.
-198.764 -1028.02 0.
-244.351 -1134.55 0.
-276.195 -1072.75 0.
-225.528 -954.424 0.
-70.3267 -808.882 0.
-118.278 -922.628 0.
-166.23 -1036.37 0.
-270.018 -1140.21 0.
-260.513 -1118.55 0.
-251.007 -1096.9 0.
-181.688 -982.202 0.
-104.251 -802.402 0.
-26.8146 -622.603 0.
-369.685 -949.902 0.
-517.53 -1296.19 0.
-393.18 -1525.98 0.
174.507 -1099.73 0.
276.725 -861.607 0.
-89.0502 -912.264 0.
-212.746 -1203.2 0.
-336.442 -1494.14 0.
-349.211 -1610.98 0.
-320.459 -1543.34 0.
-291.707 -1475.69 0.
116.542 -1195.08 0.
185.538 -1034.99 0.
254.534 -874.905 0.
137.943 -1012.35 0.
75.9159 -1156.23 0.
291.795 -1158.4 0.
348.107 -1029.09 0.
404.418 -899.773 0.
419.276 -822.127 0.
418.315 -824.953 0.
417.354 -827.779 0.
154.846 -926.419 0.
168.791 -895.256 0.
182.737 -864.093 0.
616.308 -718.609 0.
586.366 -787.373 0.
439.331 -906.876 0.
710.243 -899.246 0.
653.133 -1032.52 0.
52.0037 -1339.66 0.
132.316 -1151.53 0.
212.628 -963.392 0.
242.97 -946.137 0.
152.925 -1157.23 0.
62.8793 -1368.32 0.
-340.028 -1533 0.
-290.406 -1420.04 0.
-240.783 -1307.07 0.
-82.3172 -1251.69 0.
-96.9724 -1285.11 0.
212.692 -1196.97 0.
129.639 -1391.43 0.
46.5863 -1585.88 0.
71.1571 -1628.07 0.
142.764 -1459.57 0.
214.37 -1291.07 0.
-82.4775 -1345.02 0.
-69.8674 -1313.99 0.
-57.2576 -1282.96 0.
-557.272 -1464.85 0.
-537.565 -1419.24 0.
-127.589 -1205.6 0.
-184.075 -1159.48 0.
-146.379 -1072.95 0.
-187.963 -1043.73 0.
-194.236 -1057.45 0.
-200.509 -1071.18 0.
-126.436 -995.444 0.
-74.5296 -871.703 0.
-22.623 -747.962 0.
70.4172 -783.172 0.
-10.0064 -970.215 0.
-90.43 -1157.26 0.
-540.328 -1267.97 0.
-486.361 -1140.95 0.
-144.911 -895.905 0.
-121.795 -843.196 0.
-98.6803 -790.487 0.
72.1805 -685.207 0.
88.9397 -648.244 0.
105.699 -611.28 0.
36.2946 -584.155 0.
76.8564 -490.866 0.
117.418 -397.577 0.
-13.9461 -535.276 0.
-77.8014 -682.879 0.
626.898 -117.347 0.
37.6919 -527.825 0.
-24.3647 -671.741 0.
165.209 -665.014 0.
205.187 -570.014 0.
245.166 -475.014 0.
108.292 -525.795 0.
65.4261 -626.37 0.
22.5606 -726.946 0.
160.096 -756.421 0.
114.322 -862.643 0.
68.5473 -968.864 0.
-385.391 -1088.7 0.
-334.964 -970.448 0.
-189.58 -827.767 0.
-237.603 -941.483 0.
-285.625 -1055.2 0.
-67.213 -1022.12 0.
-57.8881 -1000.43 0.
-48.5629 -978.747 0.
-221.535 -966.844 0.
-143.708 -787.241 0.
-65.881 -607.638 0.
-321.56 -898.086 0.
-469.571 -1244.08 0.
-214.28 -1417.44 0.
79.3777 -1109.45 0.
181.793 -871.44 0.
16.0692 -834.807 0.
-107.304 -1126.09 0.
-230.677 -1417.38 0.
-255.659 -1538.12 0.
-226.845 -1470.72 0.
-198.031 -1403.33 0.
70.9885 -1182.99 0.
140.231 -1022.91 0.
209.473 -862.817 0.
181.155 -962.26 0.
119.122 -1106.15 0.
238.552 -1149 0.
294.435 -1019.24 0.
350.319 -889.468 0.
389.811 -804.682 0.
388.671 -807.312 0.
387.531 -809.942 0.
247.498 -855.571 0.
261.865 -824.793 0.
276.232 -794.015 0.
483.185 -743.558 0.
453.439 -812.6 0.
-1614.61 -1754.77 0.
819.069 -820.754 0.
762.092 -954.432 0.
61.3404 -1304.06 0.
141.489 -1116 0.
221.638 -927.946 0.
344.043 -870.535 0.
254.123 -1081.76 0.
164.203 -1292.98 0.
-526.261 -1582.44 0.
-476.608 -1469.51 0.
-426.955 -1356.58 0.
-126.745 -1238.69 0.
-141.199 -1272.16 0.
439.735 -1067.67 0.
356.142 -1261.97 0.
272.549 -1456.27 0.
6.70118 -1624.56 0.
78.16 -1456.22 0.
149.619 -1287.89 0.
196.982 -1194.12 0.
209.849 -1163.21 0.
222.717 -1132.29 0.
-663.074 -1478.12 0.
-643.148 -1432.59 0.
64.4173 -1091.95 0.
-276.023 -1167.84 0.
-238.057 -1081.65 0.
-78.5252 -965.601 0.
-85.0148 -979.103 0.
-91.5046 -992.606 0.
-197.269 -994.917 0.
-145.342 -871.184 0.
-93.416 -747.451 0.
185.803 -701.952 0.
105.46 -889.119 0.
25.1177 -1076.28 0.
-549.48 -1240.22 0.
-495.469 -1112.98 0.
-175.247 -878.071 0.
-152.242 -825.326 0.
-129.238 -772.581 0.
159.12 -616.435 0.
176.534 -580.019 0.
193.947 -543.603 0.
233.578 -467.61 0.
274.413 -374.636 0.
315.248 -281.663 0.
-412.773 -674.355 0.
-476.739 -821.843 0.
384.008 -545.815 0.
53.1528 -591.571 0.
116.857 -443.519 0.
293.308 -298.108 0.
231.492 -444.19 0.
169.677 -590.274 0.
-43.7855 -771.4 0.
-71.0499 -833.752 0.
-98.3146 -896.103 0.
179.419 -815.876 0.
161.934 -856.827 0.
144.45 -897.779 0.
-328.803 -1113.06 0.
-334.297 -1126.73 0.
-376.306 -1149.3 0.
-338.336 -1059.67 0.
-300.365 -970.038 0.
144.336 -719.364 0.
158.064 -686.519 0.
171.793 -653.674 0.
-200.101 -812.542 0.
-211.031 -838.765 0.
-221.961 -864.988 0.
-272.243 -780.293 0.
-194.759 -598.265 0.
200.706 -279.974 0.
287.582 -503.602 0.
145.546 -836.653 0.
-113.356 -1163.67 0.
-94.2502 -1116.38 0.
-75.1448 -1069.09 0.
67.8146 -968.852 0.
89.1928 -921.092 0.
110.571 -873.333 0.
112.028 -1056.1 0.
-43.8735 -1419.87 0.
-199.776 -1783.65 0.
18.0654 -1454.19 0.
177.86 -1079.82 0.
333.925 -759.345 0.
235.267 -989.805 0.
136.609 -1220.26 0.
191.89 -1226.57 0.
342.134 -875.463 0.
492.378 -524.358 0.
399.494 -577.007 0.
265.556 -888.025 0.
131.618 -1199.04 0.
235.427 -1218.46 0.
233.014 -1223.66 0.
-2657.63 -2467.19 0.
918.598 -703.502 0.
1040.71 -419.638 0.
355.179 -575.071 0.
256.625 -806.676 0.
158.07 -1038.28 0.
214.394 -1010.06 0.
337.025 -719.901 0.
459.655 -429.742 0.
-39.0171 -600.964 0.
-68.023 -665.837 0.
-97.0296 -730.71 0.
35.3695 -870.314 0.
-76.0553 -1129.7 0.
411.727 -1095.57 0.
458.523 -985.405 0.
505.319 -875.245 0.
260.453 -949.517 0.
215.283 -1055.12 0.
170.113 -1160.73 0.
296.063 -1025.9 0.
401.889 -779.644 0.
507.716 -533.393 0.
-232.437 -790.185 0.
-217.86 -758.055 0.
208.729 -554.134 0.
-167.212 -754.103 0.
-187.363 -801.617 0.
8.11557 -760.171 0.
-29.7793 -847.215 0.
-67.6739 -934.259 0.
-194.525 -1016.87 0.
-181.682 -988.94 0.
-168.838 -961.009 0.
147.112 -690.879 0.
242.27 -470.181 0.
337.429 -249.483 0.
-174.989 -591.199 0.
-251.46 -771.275 0.
-166.715 -846.863 0.
-131.983 -767.861 0.
-97.2504 -688.859 0.
97.8524 -621.216 0.
18.888 -806.453 0.
-60.0763 -991.691 0.
99.8769 -905.796 0.
173.521 -731.385 0.
247.164 -556.975 0.
-572.144 -793.181 0.
-516.874 -666.034 0.
-297.118 -808.242 0.
108.382 -536.25 0.
171.855 -388.221 0.
161.683 -323.766 0.
99.5707 -469.498 0.
37.4592 -615.231 0.
-120.41 -772.034 0.
-147.485 -834.532 0.
-174.561 -897.029 0.
15.339 -855.787 0.
-2.33386 -896.627 0.
-20.0068 -937.466 0.
-26.0533 -952.535 0.
-31.6944 -966.065 0.
-352.249 -1107.48 0.
-314.425 -1017.7 0.
-276.601 -927.926 0.
178.148 -673.621 0.
191.631 -640.57 0.
205.114 -607.519 0.
-240.32 -798.578 0.
-251.453 -824.521 0.
-262.586 -850.464 0.
-285.297 -754.937 0.
-207.874 -572.882 0.
-437.55 -522.576 0.
291.443 -470.799 0.
149.487 -803.93 0.
-160.795 -1152.21 0.
-141.688 -1105.2 0.
-122.581 -1058.18 0.
202.291 -878.62 0.
223.573 -831.007 0.
244.854 -783.394 0.
161.371 -1003.46 0.
5.17166 -1367.19 0.
-151.027 -1730.93 0.
120.738 -1379.11 0.
280.991 -1004.75 0.
250.161 -763.423 0.
151.298 -993.6 0.
52.4344 -1223.78 0.
214.092 -1185.94 0.
364.094 -834.814 0.
514.096 -483.692 0.
414.558 -539.429 0.
280.688 -850.836 0.
146.818 -1162.24 0.
288.308 -1163.41 0.
286.276 -1169.11 0.
773.721 -964.898 0.
961.236 -653.28 0.
1083.55 -369.564 0.
339.559 -551.07 0.
240.761 -782.441 0.
141.963 -1013.81 0.
-33.1738 -1084.82 0.
89.3945 -794.791 0.
211.963 -504.763 0.
328.888 -412.743 0.
299.854 -477.582 0.
270.819 -542.422 0.
124.873 -799.836 0.
13.3105 -1059.28 0.
183.845 -1161.66 0.
230.932 -1051.72 0.
278.018 -941.787 0.
270.522 -913.703 0.
225.39 -1019.39 0.
180.257 -1125.08 0.
122.292 -1069.68 0.
228.36 -823.569 0.
334.429 -577.459 0.
232.971 -559.039 0.
247.569 -526.881 0.
185.979 -533.042 0.
-212.628 -743.135 0.
-232.696 -790.948 0.
-77.5785 -765.282 0.
-115.15 -852.481 0.
-152.721 -939.68 0.
-57.7489 -926.344 0.
-45.0968 -898.28 0.
-32.4448 -870.216 0.
-33.781 -737.765 0.
61.1107 -516.915 0.
156.002 -296.065 0.
97.2573 -443.231 0.
20.4014 -622.914 0.
-117.32 -795.535 0.
-82.4378 -716.578 0.
-47.5555 -637.622 0.
-104.03 -676.059 0.
-182.414 -861.833 0.
-260.798 -1047.61 0.
62.6009 -890.187 0.
136.374 -715.923 0.
210.147 -541.659 0.
-419.36 -696.702 0.
-364.139 -570.144 0.
-212.322 697.463 0.
379.139 29.4346 0.
243.768 -290.301 0.
249.883 161.074 0.
110.544 -166.154 0.
551.467 860.921 0.
197.505 144.754 0.
183.785 111.325 0.
430.318 684.877 0.
-193.509 -1002.86 0.
159.467 -179.288 0.
411.098 408.092 0.
664.533 120.899 0.
1035.25 987.647 0.
697.025 1331.15 0.
307.981 423.395 0.
333.625 483.51 0.
519.14 91.9101 0.
680.472 466.232 0.
362.418 -277.837 0.
-178.122 -546.82 0.
79.3831 52.9842 0.
536.273 1118.26 0.
48.3593 69.5421 0.
24.4411 12.0843 0.
-623.954 -908.389 0.
413.601 -170.627 0.
649.484 378.204 0.
146.651 -308.755 0.
190.286 -206.784 0.
314.858 84.1981 0.
870.156 462.067 0.
788.739 271.245 0.
835.191 378.842 0.
1036.3 978.343 0.
557.388 -138.995 0.
747.363 304.238 0.
845.083 155.846 0.
878.437 233.635 0.
651.015 356.494 0.
528.41 70.4645 0.
351.014 -343.527 0.
1157.05 1010.78 0.
753.671 68.4836 0.
835.463 258.25 0.
791.025 348.293 0.
542.032 -233.283 0.
811.495 394.967 0.
1048.33 547.453 0.
1407.38 1386.42 0.
-2455.2 -487.605 0.
1451.26 437.229 0.
1640.64 878.684 0.
826.984 648.491 0.
900.827 819.373 0.
674.973 291.202 0.
214.347 -7.55871 0.
599.548 889.681 0.
276.125 133.845 0.
825.069 93.1234 0.
1028.55 566.198 0.
944.247 367.524 0.
446.173 -194.547 0.
413.555 -272.7 0.
523.357 95.3641 0.
640.648 368.322 0.
503.232 47.0949 0.
833.727 411.188 0.
798.962 330.339 0.
901.519 569.916 0.
572.439 338.1 0.
577.53 351.371 0.
732.124 713.775 0.
982.99 330.68 0.
738.407 -237.901 0.
451.404 273.314 0.
-120.786 -418.159 0.
263.488 480.001 0.
5.45033 -377.067 0.
110.59 -132.195 0.
453.333 667.068 0.
1217.47 1813.95 0.
745.872 714.687 0.
233.496 -479.482 0.
104.784 -39.7026 0.
329.109 484.619 0.
823.152 1638.14 0.
698.617 478.872 0.
569.359 178.603 0.
621.97 862.423 0.
536.329 665.991 0.
68.58 -422.234 0.
200.442 428.895 0.
-107.352 -284.856 0.
176.738 381.977 0.
611.272 493.607 0.
564.516 383.991 0.
828.356 999.815 0.
154.196 380.14 0.
-246.527 -552.702 0.
-589.731 -931.878 0.
-54.5052 -657.289 0.
-50.244 -650.338 0.
-3.42589 -638.756 0.
-41.0596 -727.792 0.
-78.6928 -816.827 0.
-58.0505 -809.15 0.
-6.47728 -689.731 0.
45.0964 -570.311 0.
-17.5907 -650.501 0.
-89.474 -818.126 0.
-161.357 -985.751 0.
67.6656 -873.562 0.
87.4187 -827.434 0.
-299.38 -952.801 0.
-268.423 -881.056 0.
-237.466 -809.312 0.
282.992 -555.229 0.
266.895 -594.811 0.
250.799 -634.394 0.
-257.562 -900.404 0.
-291.181 -979.967 0.
-324.8 -1059.53 0.
-279.956 -1036.72 0.
-266.328 -1007.51 0.
-78.0986 -903.438 0.
37.4498 -887.417 0.
22.9458 -921.25 0.
-156.552 -1029.04 0.
-189.433 -1106.45 0.
-222.315 -1183.86 0.
174.534 -1085.8 0.
129.733 -1190.58 0.
84.9329 -1295.36 0.
11.0097 -1234.44 0.
108.376 -1007.19 0.
205.742 -779.95 0.
387.631 -682.138 0.
388.199 -680.891 0.
323.344 -720.543 0.
268.551 -849.517 0.
213.758 -978.491 0.
178.716 -1097.52 0.
124.282 -1224.91 0.
69.8472 -1352.3 0.
198.291 -1273.71 0.
265.456 -1118.69 0.
332.621 -963.662 0.
439.954 -787.652 0.
507.505 -630.024 0.
-901.368 -1106.55 0.
873.537 -637.486 0.
719.777 -995.205 0.
-124.887 -1541.21 0.
-25.7239 -1309.52 0.
73.4395 -1077.83 0.
-14.7903 -1017.23 0.
-19.4343 -1027.5 0.
-24.0783 -1037.76 0.
203.522 -1025.24 0.
138.737 -1178.03 0.
73.9521 -1330.82 0.
103.599 -1262.12 0.
144.741 -1166.96 0.
-246.557 -1255.36 0.
-208.776 -1167.88 0.
-170.995 -1080.4 0.
317.069 -837.676 0.
299.73 -878.214 0.
282.391 -918.751 0.
-83.7318 -1171.79 0.
-156.652 -1340.72 0.
-229.572 -1509.66 0.
254.569 -1237 0.
315.324 -1092.65 0.
56.1782 -1081.62 0.
-197.201 -1049.37 0.
-124.626 -877.437 0.
-189.21 -792.086 0.
-168.313 -743.295 0.
-147.415 -694.504 0.
118.127 -647.124 0.
20.659 -872.956 0.
-76.8086 -1098.79 0.
-295.309 -1228.77 0.
-279.351 -1190.58 0.
-263.394 -1152.39 0.
13.9057 -785.262 0.
151.705 -462.053 0.
164.931 -256.769 0.
66.7353 -482.792 0.
-31.4596 -708.815 0.
-321.716 -921.384 0.
-281.984 -825.409 0.
-242.253 -729.434 0.
192.793 -594.97 0.
118.35 -768.871 0.
43.9072 -942.772 0.
-447.767 -1182.95 0.
-446.116 -1179.04 0.
-179.129 -722.754 0.
-208.37 -691.504 0.
-204.303 -684.675 0.
122.732 -553.279 0.
84.7019 -642.075 0.
46.6718 -730.87 0.
145.691 -690.477 0.
197.04 -570.865 0.
248.39 -451.253 0.
29.2849 -599.916 0.
-42.7477 -767.502 0.
-114.78 -935.089 0.
-125.715 -925.064 0.
-105.834 -879.103 0.
-302.889 -921.605 0.
-271.974 -849.847 0.
-241.059 -778.088 0.
350.662 -494.743 0.
334.438 -533.905 0.
318.213 -573.066 0.
-153.103 -824.999 0.
-186.839 -904.64 0.
-220.575 -984.281 0.
-84.2772 -921.502 0.
-70.85 -892.372 0.
467.377 -638.768 0.
-28.9612 -883.77 0.
-43.6424 -917.817 0.
-131.442 -988.258 0.
-164.565 -1065.66 0.
-197.688 -1143.06 0.
151.872 -1062.82 0.
107.627 -1168.15 0.
63.3814 -1273.49 0.
-65.4802 -1233.42 0.
31.8497 -1006.29 0.
129.18 -779.16 0.
283.698 -696.311 0.
284.107 -694.775 0.
504.035 -612.089 0.
449.352 -740.957 0.
394.67 -869.824 0.
101.778 -1099.18 0.
47.2282 -1226.43 0.
-7.32123 -1353.68 0.
341.36 -1181.15 0.
408.462 -1025.96 0.
475.565 -870.766 0.
413.52 -767.177 0.
481.207 -609.572 0.
-631.277 -959.05 0.
746.922 -659.999 0.
593.424 -1017.63 0.
-125.092 -1510.17 0.
-26.0686 -1278.74 0.
72.9551 -1047.31 0.
250.373 -872.063 0.
245.622 -882.462 0.
240.87 -892.862 0.
45.706 -1061.5 0.
-19.1096 -1214.32 0.
-83.9249 -1367.15 0.
259.063 -1164.15 0.
299.991 -1069.06 0.
-462.892 -1316.45 0.
-424.633 -1229.39 0.
-386.373 -1142.33 0.
354.481 -789.606 0.
337.375 -830.242 0.
320.27 -870.879 0.
-78.0556 -1138.94 0.
-150.565 -1307.99 0.
-223.074 -1477.05 0.
199.365 -1229.26 0.
260.557 -1085.29 0.
345.31 -925.793 0.
56.9485 -909.019 0.
129.829 -737.419 0.
-194.149 -762.726 0.
-173.224 -713.925 0.
-152.299 -665.124 0.
78.5247 -632.925 0.
-18.8277 -858.844 0.
-116.18 -1084.76 0.
-143.709 -1131.56 0.
-127.608 -1093.43 0.
-111.506 -1055.3 0.
-145.488 -822.604 0.
-7.79029 -499.285 0.
208.706 -206.867 0.
110.756 -432.819 0.
12.8071 -658.77 0.
-234.895 -851.93 0.
-194.914 -756.168 0.
-154.933 -660.406 0.
267.374 -531.747 0.
193.023 -705.936 0.
118.672 -880.125 0.
-347.375 -1107.77 0.
-345.199 -1104.72 0.
165.136 -176.379 0.
-64.9805 -403.868 0.
-106.393 -498.099 0.
253.739 -394.367 0.
278.573 -335.194 0.
303.408 -276.021 0.
259.681 -334.146 0.
179.547 -521.341 0.
99.4132 -708.536 0.
-2.71991 -812.163 0.
-7.22212 -823.738 0.
-11.7244 -835.314 0.
-181.148 -820.116 0.
-127.444 -694.462 0.
-91.5117 -592.538 0.
-151.397 -730.758 0.
-211.283 -868.979 0.
150.121 -797.584 0.
140.806 -817.382 0.
131.491 -837.181 0.
-111.464 -927.041 0.
-90.1392 -876.765 0.
-68.8148 -826.489 0.
-8.698 -869.941 0.
-60.2015 -989.717 0.
729.437 -748.732 0.
-18.297 -856.807 0.
89.9936 -603.922 0.
181.659 -440.768 0.
96.9467 -639.197 0.
12.2342 -837.626 0.
127.257 -836.416 0.
179.044 -714.106 0.
230.831 -591.797 0.
251.268 -583.174 0.
228.023 -638.944 0.
204.777 -694.715 0.
184.204 -792.325 0.
131.042 -916.539 0.
413.975 -865.927 0.
509.831 -641.872 0.
605.686 -417.817 0.
422.039 -421.652 0.
344.69 -602.117 0.
267.342 -782.582 0.
501.164 -754.339 0.
495.968 -765.362 0.
490.773 -776.384 0.
400.353 -784.294 0.
426.23 -724.117 0.
-1352.05 -1435.87 0.
762.512 -441.008 0.
808.715 -332.648 0.
398.605 -423.784 0.
432.15 -347.111 0.
465.696 -270.437 0.
518.428 -342.413 0.
365.914 -698.535 0.
213.399 -1054.66 0.
-18.9775 -1129.9 0.
73.1075 -914.763 0.
165.192 -699.626 0.
647.369 -402.482 0.
689.625 -301.496 0.
-164.381 -598.596 0.
-175.529 -623.164 0.
-186.677 -647.732 0.
474.96 -381.432 0.
473.432 -384.143 0.
471.904 -386.854 0.
168.439 -574.544 0.
110 -709.767 0.
51.5606 -844.99 0.
436.178 -612.066 0.
494.643 -475.283 0.
664.532 -304.685 0.
253.182 -556.999 0.
214.428 -649.716 0.
-160.544 -863.712 0.
-160.965 -865.133 0.
-161.387 -866.555 0.
-18.5233 -802.584 0.
-9.04904 -781.058 0.
0.425223 -759.532 0.
55.2684 -692.477 0.
80.6093 -634.252 0.
105.95 -576.028 0.
-242.809 -821.66 0.
-295.79 -947.069 0.
-177.197 -954.884 0.
-79.7819 -729.888 0.
17.6336 -504.892 0.
136.831 -341.938 0.
136.004 -345.64 0.
135.178 -349.342 0.
195.888 -364.119 0.
158.98 -451.205 0.
122.073 -538.291 0.
24.5076 -362.588 0.
177.444 -5.32911 0.
55.8336 -195.851 0.
162.402 -275.472 0.
121.069 -369.796 0.
320.142 -333.87 0.
345.067 -274.805 0.
369.993 -215.739 0.
3.95374 -411.405 0.
-75.8501 -598.865 0.
-155.654 -786.326 0.
126.364 -726.256 0.
121.804 -737.763 0.
117.245 -749.27 0.
-201.888 -796.358 0.
-148.231 -670.901 0.
112.966 -473.93 0.
52.4079 -611.747 0.
-8.14996 -749.564 0.
-49.7735 -852.242 0.
-58.864 -872.202 0.
-67.9544 -892.161 0.
26.7477 -835.871 0.
48.0964 -785.575 0.
69.4448 -735.279 0.
-29.2178 -846.735 0.
-80.5956 -966.728 0.
641.403 -755.162 0.
83.2477 -781.932 0.
191.523 -528.838 0.
379.791 -324.214 0.
295.169 -522.634 0.
210.547 -721.055 0.
-118.71 -911.393 0.
-66.957 -789.113 0.
-15.2037 -666.833 0.
454.194 -463.553 0.
430.89 -519.352 0.
407.585 -575.151 0.
172.679 -766.516 0.
119.346 -890.391 0.
314.685 -878.081 0.
410.346 -653.509 0.
506.007 -428.937 0.
598.897 -315.373 0.
521.578 -495.534 0.
444.259 -675.695 0.
335.079 -793.709 0.
330.354 -804.949 0.
325.629 -816.19 0.
433.229 -738.595 0.
459.191 -678.36 0.
-292.201 -949.954 0.
737.879 -419.422 0.
783.714 -310.857 0.
570.659 -319.38 0.
603.949 -242.422 0.
637.238 -165.465 0.
393.665 -365.395 0.
240.92 -721.216 0.
88.175 -1077.04 0.
77.2264 -1058.22 0.
169.534 -843.444 0.
261.84 -628.666 0.
684.141 -354.474 0.
726.327 -253.732 0.
48.4762 -474.632 0.
37.8186 -499.535 0.
27.1608 -524.437 0.
334.954 -409.81 0.
333.642 -412.755 0.
332.33 -415.7 0.
205.251 -527.471 0.
146.836 -662.509 0.
88.4202 -797.546 0.
460.421 -570.968 0.
519.006 -434.298 0.
517.826 -334.802 0.
147.945 -569.574 0.
109.169 -662.512 0.
65.2393 -734.81 0.
65.0035 -736.548 0.
64.7673 -738.286 0.
1.79476 -762.763 0.
11.0054 -741.14 0.
20.2161 -719.518 0.
-33.191 -698.011 0.
-7.58446 -640.186 0.
18.0221 -582.362 0.
-290.214 -811.083 0.
-343.059 -936.444 0.
-336.223 -991.765 0.
-238.542 -766.673 0.
-140.861 -541.582 0.
460.486 -171.336 0.
459.696 -175.052 0.
458.906 -178.767 0.
-188.252 -497.836 0.
-225.253 -584.903 0.
-262.255 -671.969 0.
89.7786 -303.909 0.
242.193 52.5541 0.
263.871 531.761 0.
876.866 990.789 0.
352.684 -232.065 0.
792.628 676.013 0.
321.27 -424.066 0.
665.04 378.332 0.
156.7 459.268 0.
412.548 1057.15 0.
-156.047 -268.944 0.
238.576 -682.173 0.
610.822 187.013 0.
856.727 761.631 0.
191.206 191.191 0.
430.775 750.374 0.
863.934 936.441 0.
414.539 -114.316 0.
508.288 102.723 0.
405.438 613.779 0.
589.367 1042.82 0.
351.79 488.396 0.
423.898 -126.517 0.
655.944 414.904 0.
882.168 942.69 0.
520.327 497.221 0.
1043.18 1715.77 0.
1346.74 978.017 0.
402.442 -204.313 0.
381.684 -252.085 0.
265.396 -944.382 0.
920.378 585.974 0.
792.203 289.331 0.
-248.967 -717.93 0.
233.174 408.204 0.
410.857 823.924 0.
922.511 275.633 0.
801.643 -4.97646 0.
861.341 135.553 0.
556.301 182.792 0.
682.207 476.936 0.
1062.2 1083.98 0.
866.635 631.438 0.
606.976 29.4493 0.
706.647 -369.746 0.
932.663 158.625 0.
1002.92 323.523 0.
624.923 225.802 0.
396.963 -305.358 0.
527.087 -1.22461 0.
873.693 260.655 0.
1104.3 798.067 0.
-1561.56 -649.554 0.
1230.76 807.535 0.
895.744 25.7581 0.
706.863 -296.899 0.
979.602 339.839 0.
1212.34 883.107 0.
817.527 891.428 0.
950.301 1202.81 0.
441.566 17.4349 0.
586.116 -26.253 0.
373.217 -524.008 0.
832.785 547.153 0.
947.337 219.86 0.
1119.78 621.187 0.
804.073 913.255 0.
426.304 33.9243 0.
506.016 222.129 0.
329.903 -130.376 0.
754.159 860.352 0.
487.994 240.305 0.
445.188 -7.88445 0.
851.095 940.527 0.
997.133 1282.47 0.
675.685 -93.6852 0.
501.214 -502.512 0.
1143.06 1633.38 0.
453.253 372.957 0.
375.23 188.385 0.
887.99 800.759 0.
480.546 -152.464 0.
879.942 776.536 0.
237.609 -224.683 0.
329.991 -9.87163 0.
410.929 178.534 0.
159.7 -50.833 0.
506.507 758.365 0.
286.644 245.682 0.
50.3688 95.7875 0.
-393.884 -942.138 0.
-215.863 -390.784 0.
-33.2483 35.5667 0.
-277.871 -535.182 0.
524.257 -599.066 0.
973.889 449.472 0.
697.179 -196.963 0.
-415.847 -275.065 0.
-490.531 -447.995 0.
-272.6 60.4431 0.
56.5319 -484.249 0.
175.123 -209.902 0.
32.1718 -425.981 0.
398.478 -331.397 0.
354.266 -434.583 0.
51.7536 -635.905 0.
42.8749 -657.768 0.
33.9957 -679.632 0.
-333.862 -835.226 0.
-321.755 -805.715 0.
-309.649 -776.204 0.
286.782 -482.145 0.
311.822 -423.406 0.
336.861 -364.666 0.
-64.9719 -673.462 0.
-149.378 -870.746 0.
65.5972 -917.467 0.
115.403 -805.398 0.
165.209 -693.329 0.
-140.934 -753.351 0.
-133.523 -736.521 0.
-126.112 -719.69 0.
127.464 -618.737 0.
114.483 -649.107 0.
101.502 -679.476 0.
-62.9212 -840.606 0.
-124.195 -983.727 0.
586.02 -796.553 0.
141.129 -1013.86 0.
133.302 -1032.46 0.
20.1925 -1030.9 0.
159.194 -705.91 0.
298.195 -380.921 0.
66.8861 -425.381 0.
-50.2863 -698.281 0.
-167.458 -971.181 0.
333.857 -872.075 0.
302.406 -944.856 0.
270.955 -1017.64 0.
341.154 -797.043 0.
460.533 -518.516 0.
493.868 -307.187 0.
457.886 -393.463 0.
421.903 -479.739 0.
528.818 -501.615 0.
498.725 -572.979 0.
468.632 -644.342 0.
133.202 -818.778 0.
129.642 -828.511 0.
126.081 -838.244 0.
570.347 -682.069 0.
549.732 -731.948 0.
-436.732 -1197.51 0.
434.167 -737.476 0.
479.458 -631.713 0.
563.538 -534.413 0.
547.81 -572.143 0.
532.082 -609.873 0.
-63.0421 -856.406 0.
-33.5594 -788.012 0.
-4.0769 -719.618 0.
319.288 -633.224 0.
263.223 -762.247 0.
207.159 -891.271 0.
577.603 -800.94 0.
543.453 -881.991 0.
4.32508 -1163.2 0.
42.4349 -1072.53 0.
80.5446 -981.854 0.
-8.08815 -970.879 0.
-13.7697 -983.956 0.
-19.4513 -997.033 0.
138.902 -895.312 0.
176.703 -808.274 0.
214.505 -721.236 0.
363.482 -595.388 0.
396.686 -519.585 0.
215.778 -531.219 0.
-35.4385 -715.256 0.
-75.464 -808.749 0.
69.6516 -790.185 0.
113.653 -690.249 0.
157.655 -590.311 0.
214.65 -558.046 0.
170.756 -661.476 0.
126.863 -764.907 0.
-140.819 -860.738 0.
-101.923 -769.733 0.
-63.0266 -678.727 0.
-150.967 -655.823 0.
-121.319 -587.73 0.
-177.911 -578.945 0.
-226.931 -692.099 0.
-275.951 -805.252 0.
151.112 -641.581 0.
206.941 -511.479 0.
262.77 -381.377 0.
-345.72 -546.245 0.
-296.271 -430.776 0.
-246.821 -315.307 0.
-60.8311 -634.811 0.
-337.387 -1281.62 0.
266.028 -297.786 0.
523.22 -247.504 0.
479.141 -350.684 0.
-149.691 -690.324 0.
-158.162 -712.524 0.
-166.635 -734.724 0.
-239.076 -762.898 0.
-226.746 -733.563 0.
-214.415 -704.227 0.
256.597 -463.613 0.
281.856 -405.144 0.
307.114 -346.674 0.
91.2818 -574.353 0.
6.709 -771.852 0.
83.0277 -878.465 0.
132.317 -765.833 0.
181.607 -653.201 0.
-75.0255 -694.425 0.
-67.7485 -677.385 0.
-60.4715 -660.345 0.
39.0518 -626.083 0.
25.9408 -656.298 0.
12.8296 -686.513 0.
-59.1523 -807.526 0.
-121.048 -950.126 0.
1112.23 -538.114 0.
261.834 -932.807 0.
254.113 -951.657 0.
-216.974 -1099.64 0.
-77.295 -775.31 0.
62.384 -450.98 0.
314.295 -287.633 0.
197.574 -560.938 0.
80.8535 -834.243 0.
234.096 -881.611 0.
202.723 -954.432 0.
171.35 -1027.25 0.
606.631 -652.968 0.
725.762 -373.989 0.
548.477 -252.153 0.
512.409 -338.04 0.
476.34 -423.926 0.
396.232 -528.132 0.
366.446 -599.596 0.
336.66 -671.061 0.
96.9477 -803.109 0.
93.2783 -812.688 0.
89.609 -822.268 0.
713.811 -590.085 0.
692.948 -639.775 0.
-704.087 -1280.37 0.
284.243 -770.153 0.
329.509 -664.498 0.
529.825 -517.526 0.
514.444 -555.748 0.
499.062 -593.971 0.
-207.836 -887.674 0.
-178.602 -818.993 0.
-149.368 -750.313 0.
325.836 -599.462 0.
269.809 -728.755 0.
213.782 -858.048 0.
677.41 -726.74 0.
643.551 -807.734 0.
132.718 -1075.85 0.
171.291 -985.481 0.
209.864 -895.107 0.
36.1213 -920.64 0.
30.5426 -933.837 0.
24.9639 -947.033 0.
245.37 -818.382 0.
283.39 -731.624 0.
321.41 -644.866 0.
262.602 -607.32 0.
295.742 -531.852 0.
-150.413 -656.64 0.
-46.0815 -688.356 0.
-86.1722 -781.972 0.
-83.9537 -824.957 0.
-40.0312 -724.946 0.
3.89135 -624.934 0.
377.067 -457.51 0.
333.473 -561.262 0.
289.879 -665.013 0.
-68.6017 -797.121 0.
-29.2313 -706.764 0.
10.1392 -616.407 0.
13.4896 -554.395 0.
42.9059 -486.1 0.
-19.2881 -479.2 0.
-68.2799 -592.183 0.
-117.271 -705.167 0.
-266.311 -789.778 0.
-210.898 -659.162 0.
-155.484 -528.545 0.
-101.883 -411.342 0.
-52.4168 -295.98 0.
-2.9506 -180.617 0.
-107.859 -622.545 0.
-384.6 -1269.31 0.
152.905 -467.798 0.
455.901 -124.478 0.
596.358 203.83 0.
156.468 186.209 0.
38.8687 -87.1666 0.
-78.7311 -360.542 0.
15.5339 -427.478 0.
40.1214 -368.852 0.
64.7088 -310.225 0.
262.901 -274.136 0.
210.035 -397.771 0.
157.169 -521.405 0.
134.787 -445.04 0.
194.62 -304.225 0.
329.932 -158.96 0.
231.575 -386.232 0.
133.218 -613.504 0.
9.31955 -772.964 0.
41.0511 -697.148 0.
72.7827 -621.332 0.
25.8736 -598.811 0.
39.0033 -568.905 0.
52.1331 -538.999 0.
61.9672 -548.367 0.
55.904 -564.255 0.
1433.6 13.2589 0.
533.866 -380.187 0.
522.319 -404.529 0.
-39.3496 -646.152 0.
9.03818 -529.923 0.
57.4254 -413.694 0.
368.754 -244.567 0.
344.499 -298.858 0.
320.244 -353.15 0.
465.879 -310.423 0.
466.006 -311.729 0.
466.133 -313.036 0.
785.221 -355.598 0.
675.612 -612.379 0.
303.053 -953.099 0.
346.224 -851.744 0.
389.395 -750.389 0.
245.569 -712.898 0.
309.731 -560.835 0.
373.893 -408.773 0.
268.13 -491.673 0.
183.594 -688.519 0.
99.0592 -885.365 0.
697.55 -546.342 0.
776.19 -363.153 0.
190.871 -465.955 0.
472.686 -451.823 0.
417.311 -582.098 0.
360.765 -658.917 0.
428.685 -499.714 0.
496.606 -340.511 0.
-53.2454 -528.788 0.
-77.4953 -587.583 0.
-101.746 -646.378 0.
311.469 -555.886 0.
257.915 -680.573 0.
204.362 -805.26 0.
763.193 -465.78 0.
828.601 -313.733 0.
442.106 -381.979 0.
400.611 -478.035 0.
359.116 -574.091 0.
208.998 -679.539 0.
223.861 -645.169 0.
238.725 -610.799 0.
443.46 -489.466 0.
462.545 -441.906 0.
481.63 -394.347 0.
173.32 -533.249 0.
163.449 -555.559 0.
92.8403 -602.218 0.
54.6826 -572.138 0.
78.6696 -516.167 0.
81.805 -490.868 0.
49.904 -560.91 0.
18.0023 -630.952 0.
347.723 -444.129 0.
434.78 -238.277 0.
521.837 -32.4258 0.
200.145 -230.387 0.
115.018 -429.732 0.
29.8906 -629.076 0.
118.285 -583.334 0.
133.384 -548.077 0.
-50.9085 -585.317 0.
27.3222 -403.823 0.
105.553 -222.328 0.
-199.389 -252.303 0.
-196.7 -246.257 0.
-194.01 -240.211 0.
92.688 -177.111 0.
33.5461 -315.745 0.
-25.5961 -454.38 0.
-168.32 -487.508 0.
-128.938 -396.77 0.
-151.279 -565.815 0.
79.004 -256.166 0.
219.21 72.5056 0.
208.339 240.49 0.
91.0722 -33.1643 0.
-26.1947 -306.818 0.
217.325 -309.72 0.
241.93 -251.242 0.
266.536 -192.765 0.
141.941 -294.111 0.
89.3348 -418.008 0.
36.7279 -541.906 0.
-5.46282 -473.93 0.
54.5418 -333.327 0.
188.35 -187.416 0.
90.1451 -414.729 0.
-8.05972 -642.042 0.
257.397 -635.609 0.
289.085 -559.665 0.
320.774 -483.722 0.
69.2983 -548.742 0.
82.6614 -519.081 0.
96.0244 -489.42 0.
124.723 -488.311 0.
118.806 -504.405 0.
961.071 -156.719 0.
535.861 -349.459 0.
524.3 -373.897 0.
181.869 -518.943 0.
230.498 -403.027 0.
279.126 -287.112 0.
248.111 -264.445 0.
224.165 -318.769 0.
200.218 -373.093 0.
563.107 -236.328 0.
563.327 -237.637 0.
563.548 -238.946 0.
688.367 -366.779 0.
578.612 -623.214 0.
405.473 -876.673 0.
449.012 -775.764 0.
492.552 -674.855 0.
227.212 -690.613 0.
291.625 -538.874 0.
356.037 -387.136 0.
419.433 -394.089 0.
334.911 -591.373 0.
250.389 -788.657 0.
496.011 -601.575 0.
574.61 -418.444 0.
62.0348 -489.915 0.
788.955 -284.233 0.
732.867 -414.038 0.
157.393 -714.625 0.
225.353 -555.469 0.
293.313 -396.313 0.
121.293 -422.876 0.
97.0658 -481.666 0.
72.8384 -540.456 0.
257.631 -547.225 0.
204.314 -672.205 0.
150.998 -797.185 0.
639.542 -486.818 0.
705.049 -334.706 0.
373.482 -380.178 0.
332.111 -476.113 0.
290.74 -572.048 0.
363.813 -583 0.
378.909 -548.756 0.
394.006 -514.511 0.
507.681 -429.129 0.
526.887 -381.866 0.
546.093 -334.603 0.
18.9367 -567.534 0.
8.77762 -589.892 0.
702.73 -309.329 0.
219.468 -470.135 0.
243.506 -413.972 0.
306.958 -363.761 0.
275.583 -434.448 0.
244.207 -505.136 0.
131.493 -505.028 0.
218.667 -299.283 0.
305.84 -93.5388 0.
221.445 -189.119 0.
136.725 -388.878 0.
52.0053 -588.637 0.
279.526 -482.087 0.
294.819 -446.837 0.
-129.097 -587.363 0.
-50.9185 -405.5 0.
27.2601 -223.637 0.
-157.719 -203.332 0.
-155.024 -197.243 0.
-152.329 -191.154 0.
118.287 -134.953 0.
59.0054 -273.637 0.
-0.276198 -412.32 0.
-367.356 -541.792 0.
-328.177 -451.182 0.
-460.917 -676.564 0.
-17.8268 259.786 0.
-157.701 -67.4346 0.
401.422 622.215 0.
446.04 729.745 0.
453.536 749.971 0.
322.199 -414.457 0.
580.643 186.624 0.
471.65 -69.0771 0.
171.072 38.8174 0.
62.6295 -213.062 0.
180.475 62.9254 0.
327.774 588.143 0.
73.4349 -6.24827 0.
102.553 -88.4984 0.
47.4258 -215.993 0.
73.0545 -155.138 0.
958.739 575.003 0.
826.959 266.381 0.
654.087 -138.242 0.
67.6471 -594.04 0.
257.476 -152.1 0.
664.716 797.075 0.
535.269 382.175 0.
335.995 -85.3657 0.
1012.83 468.892 0.
598.272 -182.177 0.
730.731 127.205 0.
563.973 -10.0087 0.
422.518 -340.088 0.
666.086 228.405 0.
443.489 452.698 0.
494.833 573.241 0.
590.757 797.736 0.
946.366 502.213 0.
458.798 -634.82 0.
950.361 512.179 0.
767.379 30.5586 0.
466.345 -672.138 0.
916.914 159.569 0.
958.694 256.643 0.
1025.31 411.701 0.
628.357 302.74 0.
697.601 464.452 0.
671.195 403.268 0.
800.746 244.511 0.
577.849 -275.926 0.
399.111 -692.984 0.
604.786 70.6388 0.
923.854 814.533 0.
-753.901 -448.667 0.
1440.68 668.381 0.
1576.38 984.116 0.
815.455 1236.87 0.
538.708 591.73 0.
597.26 729.143 0.
294.438 -324.956 0.
355.806 -180.274 0.
455.074 53.0218 0.
156.8 -647.15 0.
309.821 -288.021 0.
650.79 509.473 0.
833.651 225.288 0.
588.742 -345.413 0.
495.243 67.7849 0.
404.706 -141.647 0.
620.669 363.787 0.
906.481 417.321 0.
875.715 344.452 0.
513.765 -501.415 0.
735.548 17.9976 0.
824.606 227.179 0.
822.43 222.786 0.
207.175 186.351 0.
52.2911 -173.775 0.
961.22 374.566 0.
699.422 367.732 0.
145.97 -918.955 0.
697.333 151.797 0.
497.091 -313.998 0.
901.923 632.053 0.
230.617 165.749 0.
391.897 540.442 0.
214.131 124.153 0.
319.908 32.6898 0.
291.77 -33.8233 0.
621.549 734.744 0.
730.753 301.925 0.
384.247 -506.791 0.
-27.8672 -173.242 0.
7.38615 -90.4794 0.
456.172 956.786 0.
186.808 549.456 0.
444.075 1150.06 0.
514.565 1314.78 0.
584.154 937.786 0.
135.197 -112.42 0.
524.849 795.392 0.
-772.451 -1087.56 0.
-388.901 -194.268 0.
-323.372 -575.196 0.
-299.983 -524.083 0.
-316.578 -563.221 0.
-87.0765 -493.88 0.
-90 -498.196 0.
-92.9239 -502.511 0.
296.843 -368.471 0.
255.952 -466.271 0.
215.061 -564.07 0.
-149.258 -637.313 0.
-55.3551 -416.494 0.
38.5483 -195.675 0.
137.225 -299.871 0.
28.9934 -550.597 0.
-130.658 -798.488 0.
-78.8233 -678.482 0.
-26.9884 -558.475 0.
323.497 -350.798 0.
303.546 -398.602 0.
283.595 -446.406 0.
105.696 -538.422 0.
106.605 -536.302 0.
107.515 -534.183 0.
217.107 -510.604 0.
201.621 -548.221 0.
1096.05 -195.504 0.
549.691 -424.785 0.
554.605 -412.325 0.
274.113 -543.534 0.
223.614 -663.742 0.
173.115 -783.95 0.
-56.584 -913.863 0.
-23.8989 -839.053 0.
8.78613 -764.244 0.
600.832 -521.677 0.
569.723 -591.543 0.
538.613 -661.409 0.
354.791 -685.746 0.
391.37 -600.333 0.
447.549 -518.58 0.
436.723 -544.649 0.
425.897 -570.719 0.
310.593 -647.861 0.
290.318 -695.652 0.
270.043 -743.444 0.
267.513 -703.316 0.
323.419 -575.55 0.
379.324 -447.783 0.
433.415 -537.81 0.
341.522 -751.677 0.
393.638 -903.882 0.
593.733 -700.644 0.
655.48 -557.098 0.
153.795 -679.888 0.
155.137 -675.95 0.
156.479 -672.013 0.
433.759 -532.789 0.
455.592 -481.923 0.
477.424 -431.057 0.
108.198 -593.15 0.
93.8931 -624.789 0.
79.5885 -656.428 0.
525.885 -450.624 0.
534.924 -427.893 0.
141.648 -578.543 0.
144.586 -571.221 0.
147.524 -563.9 0.
439.604 -433.539 0.
442.733 -425.381 0.
445.862 -417.224 0.
485.191 -429.69 0.
455.226 -497.646 0.
425.262 -565.603 0.
121.049 -662.934 0.
149.968 -595.535 0.
963.338 -194.674 0.
162.678 -550.496 0.
154.601 -567.046 0.
471.872 -454.158 0.
443.776 -519.451 0.
415.68 -584.744 0.
-61.9982 -776.116 0.
-12.0746 -660.597 0.
37.849 -545.079 0.
43.5852 -523.406 0.
35.0372 -543.959 0.
26.489 -564.512 0.
361.925 -401.095 0.
376.895 -366.957 0.
-218.565 -589.979 0.
-206.304 -560.994 0.
-194.044 -532.01 0.
-76.8096 -502.645 0.
-128.981 -624.52 0.
-181.154 -746.395 0.
-101.609 -685.546 0.
-33.7304 -527.199 0.
34.1477 -368.852 0.
-185.387 -315.016 0.
-111.093 -141.465 0.
-192.051 -490.425 0.
-218.156 -457.316 0.
-234.726 -496.705 0.
-82.4976 -460.168 0.
-85.0618 -464.771 0.
-87.6264 -469.373 0.
257.475 -353.136 0.
216.629 -451.278 0.
175.783 -549.42 0.
-171.078 -616.082 0.
-77.551 -394.855 0.
15.9764 -173.629 0.
382.983 -163.657 0.
274.61 -414.285 0.
-26.4621 -723.007 0.
24.9269 -602.717 0.
76.3163 -482.428 0.
50.0794 -437.411 0.
30.0488 -485.269 0.
10.0186 -533.127 0.
140.086 -491.63 0.
141.11 -489.711 0.
142.133 -487.792 0.
312.156 -437.765 0.
297.139 -475.823 0.
930.34 -235.521 0.
632.63 -357.421 0.
637.95 -345.267 0.
215.976 -536.714 0.
165.361 -656.857 0.
114.746 -777 0.
65.7043 -829.083 0.
98.7981 -754.621 0.
131.892 -680.158 0.
731.685 -433.257 0.
701.149 -503.706 0.
670.614 -574.155 0.
242.214 -702.752 0.
278.463 -616.695 0.
243.427 -575.75 0.
232.466 -601.79 0.
221.505 -627.831 0.
439.652 -562.162 0.
419.495 -610.125 0.
399.338 -658.089 0.
125.182 -732.941 0.
181.275 -605.673 0.
237.369 -478.406 0.
561.156 -450.574 0.
469.359 -664.684 0.
637.795 -767.486 0.
292.466 -798.312 0.
353.959 -654.552 0.
366.517 -558.067 0.
367.841 -554.17 0.
369.165 -550.272 0.
731.334 -373.529 0.
753.317 -322.852 0.
775.299 -272.176 0.
37.0175 -592.658 0.
22.4949 -623.995 0.
7.97221 -655.332 0.
520.088 -421.372 0.
529.011 -398.456 0.
65.6954 -580.161 0.
68.6747 -572.696 0.
71.6538 -565.231 0.
330.876 -449.357 0.
334.035 -441.192 0.
337.194 -433.028 0.
429.396 -421.779 0.
399.333 -489.668 0.
369.27 -557.558 0.
479.173 -478.268 0.
508.253 -410.919 0.
1130.76 -90.9436 0.
2.60986 -587.679 0.
-4.95669 -604.7 0.
530.106 -396.552 0.
502.18 -462.098 0.
474.255 -527.644 0.
91.6148 -680.118 0.
141.196 -564.235 0.
190.777 -448.353 0.
15.359 -503.39 0.
7.01417 -524.149 0.
-1.33088 -544.909 0.
297.03 -396.961 0.
312.319 -362.878 0.
-219.796 -558.349 0.
-207.26 -529.575 0.
-194.725 -500.8 0.
171.111 -365.105 0.
118.735 -486.751 0.
66.3597 -608.397 0.
-74.2173 -642.875 0.
-6.72113 -484.321 0.
60.7746 -325.767 0.
143.866 -142.123 0.
217.484 32.0092 0.
-137.754 -326.987 0.
-124.216 -319.945 0.
-106.707 -277.727 0.
-15.7774 -223.112 0.
-52.606 -310.691 0.
-89.4345 -398.271 0.
232.511 -255.938 0.
293.951 -110.746 0.
355.39 34.4467 0.
-11.803 -254.652 0.
-155.3 -590.995 0.
-298.797 -927.338 0.
308.665 -553.414 0.
402.478 -333.873 0.
166.269 -275 0.
126.978 -366.006 0.
87.6884 -457.013 0.
-79.2456 -613.882 0.
-132.968 -740.2 0.
-186.69 -866.519 0.
22.6656 -740.526 0.
105.512 -548.67 0.
188.358 -356.813 0.
371.241 -363.83 0.
286.585 -558.175 0.
736.369 -522.971 0.
445.537 -629.694 0.
455.779 -609.207 0.
196.462 -714.963 0.
195.64 -714.946 0.
194.817 -714.93 0.
184.586 -688.641 0.
211.458 -623.35 0.
238.331 -558.059 0.
804.981 -273.735 0.
831.022 -213.561 0.
857.064 -153.388 0.
346.138 -422.255 0.
312.084 -504.693 0.
239.197 -578.998 0.
326.666 -374.83 0.
414.135 -170.662 0.
618.769 18.2393 0.
607.122 -9.36603 0.
595.476 -36.9713 0.
322.038 -174.439 0.
314.18 -190.648 0.
306.323 -206.858 0.
711.418 -133.311 0.
646.528 -283.062 0.
753.979 -358.459 0.
364.183 -460.18 0.
398.766 -380.424 0.
589.159 -276.503 0.
525.551 -426.16 0.
461.942 -575.818 0.
588.638 -569.658 0.
611.261 -517.387 0.
633.885 -465.115 0.
91.1868 -569.015 0.
181.227 -362.748 0.
271.266 -156.482 0.
631.838 -156.055 0.
533.363 -388.303 0.
24.5198 -761.573 0.
64.6575 -667.131 0.
104.795 -572.689 0.
286.722 -466.502 0.
250.158 -551.834 0.
213.592 -637.165 0.
232.654 -615.872 0.
274.453 -519.815 0.
316.251 -423.756 0.
736.979 -178.341 0.
769.728 -101.325 0.
-517.935 -589.613 0.
-14.9537 -509.211 0.
-86.0017 -674.4 0.
435.878 -523.648 0.
509.731 -351.427 0.
583.584 -179.206 0.
312.947 -288.457 0.
227.422 -491.245 0.
141.898 -694.033 0.
-61.2983 -720.985 0.
28.6809 -509.127 0.
118.66 -297.269 0.
399.111 -239.714 0.
347.843 -358.621 0.
-253.119 -688.219 0.
-177.456 -511.89 0.
-101.793 -335.562 0.
286.106 -97.6097 0.
254.27 -171.046 0.
222.433 -244.483 0.
123.017 -210.717 0.
209.764 -8.90953 0.
296.512 192.898 0.
332.869 114.307 0.
254.791 -68.11 0.
-429.216 -422.962 0.
-95.8608 -276.43 0.
-77.8973 -234.806 0.
-73.2171 -216.311 0.
-110.047 -304.02 0.
-146.878 -391.73 0.
143.168 -261.178 0.
205.063 -116.802 0.
266.958 27.5749 0.
43.8328 -199.898 0.
-99.6708 -536.413 0.
-243.175 -872.928 0.
341.171 -508.188 0.
435.572 -288.994 0.
99.6992 -271.832 0.
60.1219 -362.749 0.
20.5448 -453.667 0.
84.2539 -512.795 0.
30.2348 -638.895 0.
-23.784 -764.994 0.
-6.84491 -722.875 0.
75.9332 -531.16 0.
158.712 -339.445 0.
375.136 -330.419 0.
290.498 -524.867 0.
415.77 -628.539 0.
241.789 -685.328 0.
251.812 -664.517 0.
418.453 -588.191 0.
418.029 -588.415 0.
417.605 -588.64 0.
237.343 -634.942 0.
264.432 -570.014 0.
291.521 -505.085 0.
720.031 -277.494 0.
746.218 -217.452 0.
772.404 -157.41 0.
449.175 -348.074 0.
414.939 -429.844 0.
460.846 -452.408 0.
549.007 -248.592 0.
637.168 -44.7755 0.
351.545 -64.977 0.
340.061 -92.9481 0.
328.576 -120.919 0.
389.603 -113.21 0.
382.304 -130.168 0.
375.005 -147.126 0.
645.411 -129.898 0.
580.514 -279.581 0.
-371.543 -809.494 0.
518.721 -362.869 0.
553.249 -282.916 0.
657.772 -216.325 0.
593.554 -365.415 0.
529.335 -514.504 0.
187.85 -710.646 0.
210.474 -658.456 0.
233.098 -606.265 0.
296.2 -450.428 0.
385.819 -243.73 0.
475.438 -37.032 0.
674.834 -106.175 0.
576.124 -338.298 0.
218.703 -648.449 0.
258.559 -553.744 0.
298.415 -459.038 0.
331.142 -416.235 0.
294.585 -501.445 0.
258.027 -586.655 0.
45.3122 -665.394 0.
87.1008 -569.233 0.
128.889 -473.071 0.
737.286 -146.7 0.
769.95 -69.7908 0.
-596.999 -592.549 0.
52.9152 -449.157 0.
-18.0644 -614.438 0.
314.462 -543.828 0.
387.91 -371.066 0.
461.357 -198.303 0.
330.011 -250.025 0.
244.308 -452.53 0.
158.606 -655.036 0.
40.1405 -646.627 0.
129.831 -434.622 0.
219.52 -222.618 0.
572.129 -135.159 0.
520.771 -254.247 0.
-158.872 -616.168 0.
-82.8755 -440.161 0.
-6.87881 -264.154 0.
72.7992 -157.25 0.
40.8313 -230.396 0.
8.86334 -303.542 0.
155.83 -166.165 0.
242.869 35.513 0.
329.907 237.191 0.
242.319 107.512 0.
164.453 -74.7526 0.
345.323 557.93 0.
-43.0075 -173.63 0.
-86.9056 -275.204 0.
-153.919 -269.599 0.
72.072 259.229 0.
-34.5382 11.8816 0.
-32.4179 -475.065 0.
-31.2281 -472.585 0.
613.795 1032.09 0.
606.98 1038.8 0.
247.914 202.897 0.
13.3439 -342.654 0.
602.096 60.8075 0.
508.251 -158.087 0.
213.987 153.218 0.
374.402 528.838 0.
12.9423 -312.983 0.
91.5349 -775.745 0.
444.294 48.5332 0.
340.823 -191.4 0.
30.4059 -555.021 0.
345.848 180.094 0.
576.421 717.004 0.
362.89 -338.519 0.
216.084 -680.012 0.
1085.95 -760.501 0.
395.6 87.8972 0.
200.916 -365.841 0.
966.461 302.866 0.
1136.4 699.249 0.
1023.6 436.172 0.
646.312 248.971 0.
609.669 163.629 0.
476.765 -146.163 0.
660.773 -225.798 0.
679.452 -183.51 0.
946.607 438.721 0.
1120.75 1047.67 0.
956.466 662.832 0.
957.797 317.143 0.
843.632 50.8342 0.
885.384 148.172 0.
213.113 143.003 0.
274.759 286.772 0.
93.9284 -135.123 0.
585.834 250.283 0.
435.245 -100.458 0.
402.496 -176.282 0.
790.678 358.038 0.
921.038 663.734 0.
-1356.24 -898.919 0.
734.468 -112.636 0.
710.949 -168.521 0.
616.009 -403.002 0.
714.7 -171.592 0.
875.625 204.716 0.
-80.4042 -552.29 0.
-37.8931 -453.617 0.
375.238 509.971 0.
1111.31 1097.47 0.
818.597 414.624 0.
648.602 18.1097 0.
772.285 58.4158 0.
953.288 480.271 0.
465.61 -406.167 0.
734.699 221.4 0.
1088.27 1045.97 0.
977.208 1042.97 0.
857.668 764.408 0.
652.931 287.193 0.
-120.365 -669.383 0.
177.282 24.9791 0.
194.671 64.7874 0.
880.637 216.326 0.
985.744 460.293 0.
-366.927 -896.384 0.
432.797 336.066 0.
346.868 136.939 0.
416.765 -43.4383 0.
705.051 628.223 0.
601.752 386.253 0.
495.418 133.6 0.
392.491 -104.689 0.
752.411 737.608 0.
662.795 639.248 0.
389.071 2.06889 0.
143.397 -569.612 0.
887.266 311.519 0.
1144.41 915.138 0.
-423.025 -1391.1 0.
493.932 749.122 0.
583.232 957.738 0.
387.75 1012.01 0.
85.761 307.096 0.
-60.1627 -34.2677 0.
198.608 -97.3515 0.
690.27 1051.81 0.
273.127 79.5674 0.
365.059 594.678 0.
115.861 11.8931 0.
-346.199 -924.208 0.
-118.891 -632.976 0.
-27.3553 -418.065 0.
-221.191 -364.377 0.
-206.631 -331.497 0.
-192.07 -298.616 0.
117.812 -220.779 0.
28.5685 -426.549 0.
-60.6748 -632.319 0.
78.1548 -583.636 0.
120.268 -485.12 0.
162.382 -386.604 0.
258.275 -416.071 0.
208.848 -531.687 0.
-150.504 -762.745 0.
-83.4018 -607.367 0.
-16.2997 -451.989 0.
251.064 -220.481 0.
298.867 -108.002 0.
346.669 4.47605 0.
243.634 -221.799 0.
22.2217 -738.218 0.
-199.191 -1254.64 0.
81.0015 -1004.08 0.
240.973 -631.311 0.
1185.29 77.1771 0.
301.517 -364.887 0.
267.787 -442.375 0.
484.76 -372.644 0.
531.422 -263.048 0.
578.085 -153.452 0.
571.638 -160.161 0.
512.761 -298.673 0.
453.885 -437.186 0.
490.43 -431.35 0.
509.23 -388.095 0.
528.03 -344.84 0.
642.453 -353.879 0.
609.05 -433.26 0.
405.796 -571.25 0.
439.739 -490.273 0.
473.682 -409.296 0.
107.637 -500.066 0.
146.016 -410.378 0.
184.396 -320.689 0.
384.591 -271.837 0.
318.119 -426.573 0.
251.647 -581.309 0.
480.62 -447.082 0.
525.769 -344.106 0.
1607.57 201.787 0.
528.219 -413.367 0.
448.411 -599.944 0.
335.581 -740.347 0.
395.628 -600.539 0.
455.674 -460.731 0.
-8.12547 -600.765 0.
-12.1769 -609.496 0.
-16.2284 -618.227 0.
320.006 -540.167 0.
273.416 -650.355 0.
226.826 -760.543 0.
621.404 -532.402 0.
660.81 -440.939 0.
372.812 -494.819 0.
371.357 -499.731 0.
369.902 -504.643 0.
231.565 -506.615 0.
326.459 -284.675 0.
421.353 -62.7344 0.
224.352 -134.072 0.
160.268 -279.997 0.
96.1834 -425.921 0.
480.573 -429.223 0.
383.782 -655.277 0.
53.949 -976.74 0.
-26.9915 -829.301 0.
68.5059 -605.073 0.
239.163 -377.918 0.
273.136 -300.848 0.
307.109 -223.779 0.
483.784 -134.532 0.
462.837 -182.507 0.
441.892 -230.482 0.
199.719 -355.911 0.
191.483 -377.418 0.
183.248 -398.925 0.
359.24 -360.295 0.
339.834 -403.313 0.
102.93 -542.239 0.
57.1494 -646.888 0.
11.3691 -751.537 0.
-401.658 -943.268 0.
-335.451 -789.977 0.
-269.245 -636.684 0.
-20.5979 -506.098 0.
-45.98 -565.536 0.
-71.3618 -624.974 0.
87.0264 -431.255 0.
176.279 -226.928 0.
-346.647 -895.435 0.
45.3815 -532.548 0.
136.838 -317.57 0.
-235.588 -338.217 0.
-220.497 -305.872 0.
-205.406 -273.526 0.
181.87 -161.534 0.
92.8928 -367.431 0.
3.91555 -573.328 0.
299.156 -457.151 0.
341.41 -358.654 0.
383.665 -260.156 0.
103.871 -451.278 0.
54.7293 -567.107 0.
-99.5993 -708.953 0.
-32.3885 -553.766 0.
34.8224 -398.579 0.
172.904 -222.312 0.
220.663 -109.945 0.
268.421 2.42177 0.
343.587 -147.391 0.
122.478 -664.085 0.
-98.6303 -1180.78 0.
102.696 -963.724 0.
262.603 -590.603 0.
190.005 -318.168 0.
437.016 -275.416 0.
403.563 -353.14 0.
265.317 -435.525 0.
311.934 -325.9 0.
358.552 -216.275 0.
709.809 -69.755 0.
650.974 -208.112 0.
592.14 -346.47 0.
407.414 -435.544 0.
426.1 -392.334 0.
444.787 -349.123 0.
809.612 -251.625 0.
776.305 -331.037 0.
209.961 -622.63 0.
244.426 -542.139 0.
278.89 -461.649 0.
334.003 -371.396 0.
372.822 -282.105 0.
411.641 -192.815 0.
425.856 -222.013 0.
359.795 -377.187 0.
293.733 -532.361 0.
541.356 -390.258 0.
586.676 -287.248 0.
34.126 -440.007 0.
448.123 -415.469 0.
368.673 -602.427 0.
186.215 -773.307 0.
246.237 -633.715 0.
306.259 -494.124 0.
122.338 -513.726 0.
118.59 -522.591 0.
114.843 -531.457 0.
226.654 -548.601 0.
180.33 -658.922 0.
134.006 -769.243 0.
762.865 -439.692 0.
802.627 -348.5 0.
321.831 -485.292 0.
320.218 -490.172 0.
318.606 -495.053 0.
148.964 -510.857 0.
243.708 -288.741 0.
338.451 -66.6253 0.
380.384 -36.3226 0.
315.858 -182.154 0.
251.333 -327.986 0.
343.991 -457.668 0.
246.904 -683.386 0.
477.606 -763.974 0.
37.5885 -769.218 0.
132.989 -544.634 0.
213.292 -359.633 0.
247.285 -282.173 0.
281.279 -204.712 0.
626.462 -42.1685 0.
606.08 -90.4165 0.
585.699 -138.664 0.
171.556 -337.169 0.
163.53 -358.839 0.
155.504 -380.509 0.
83.7624 -446.173 0.
64.7527 -489.558 0.
313.237 -419.042 0.
267.771 -523.991 0.
222.305 -628.939 0.
-325.329 -880.526 0.
-259.318 -726.918 0.
-193.308 -573.309 0.
-57.1242 -489.542 0.
-82.2036 -549.365 0.
-107.283 -609.189 0.
300.854 -309.99 0.
390.887 -105.991 0.
246.917 329.936 0.
278.127 95.5094 0.
164.828 -170.077 0.
-261.155 -520.603 0.
-243.898 -479.591 0.
-226.64 -438.579 0.
141.497 -286.565 0.
109.914 -362.678 0.
78.3309 -438.793 0.
423.557 -301.787 0.
432.945 -280.234 0.
442.334 -258.681 0.
96.1511 -381.096 0.
111.629 -345.771 0.
105.566 -328.409 0.
65.903 -422.058 0.
26.2397 -515.708 0.
-20.5911 -632.139 0.
-89.0409 -792.673 0.
-157.491 -953.207 0.
123.464 -771.235 0.
246.331 -485.662 0.
369.198 -200.088 0.
447.615 -121.324 0.
440.042 -141.193 0.
256.293 -235.048 0.
480.185 -98.5562 0.
501.839 -45.2332 0.
328.081 -123.559 0.
232.707 -347.251 0.
137.333 -570.943 0.
517.734 -514.174 0.
515.89 -518.85 0.
514.046 -523.526 0.
305.715 -587.839 0.
328.764 -534.704 0.
351.813 -481.569 0.
831.506 -235.776 0.
851.152 -190.049 0.
254.265 -419.811 0.
223.758 -491.582 0.
193.251 -563.354 0.
334.013 -540.905 0.
336.191 -536.363 0.
338.37 -531.821 0.
346.2 -463.17 0.
407.31 -320.189 0.
468.421 -177.209 0.
599.684 -199.41 0.
531.141 -359.424 0.
-778.472 -1050.31 0.
497.726 -306.356 0.
600.815 -65.121 0.
445.778 -47.2779 0.
281.564 -432.061 0.
117.351 -816.844 0.
33.2235 -902.167 0.
177.338 -566.641 0.
321.453 -231.116 0.
275.28 -219.408 0.
229.175 -325.103 0.
183.072 -430.799 0.
992.889 -76.9774 0.
1002.04 -52.91 0.
279.229 -346.977 0.
290.605 -318.299 0.
301.98 -289.621 0.
248.971 -309.065 0.
229.038 -355.757 0.
209.106 -402.449 0.
272.925 -385.988 0.
275.069 -385.618 0.
277.214 -385.248 0.
411.157 -355.269 0.
394.738 -394.309 0.
840.804 -236.869 0.
177.285 -470.019 0.
206.018 -405.48 0.
215.438 -373.136 0.
179.882 -455.256 0.
144.326 -537.377 0.
415.778 -455.532 0.
416.487 -453.818 0.
417.197 -452.103 0.
114.487 -582.941 0.
114.006 -581.666 0.
113.524 -580.391 0.
-84.3767 -646.225 0.
-74.9433 -624.654 0.
296.137 -451.985 0.
287.972 -471.977 0.
279.807 -491.968 0.
-179.573 -674.221 0.
-146.506 -597.015 0.
-113.439 -519.81 0.
51.8959 -372.291 0.
98.4246 -263.123 0.
144.954 -153.955 0.
430.055 33.7841 0.
459.298 106.065 0.
100.436 298.148 0.
64.5527 35.5031 0.
-48.5737 -230.175 0.
-97.3952 -418.569 0.
-79.899 -377.734 0.
-62.4031 -336.9 0.
148.298 -252.134 0.
116.508 -327.992 0.
84.7189 -403.849 0.
380.72 -289.006 0.
390.464 -267.709 0.
400.208 -246.412 0.
188.303 -310.203 0.
203.795 -274.894 0.
185.374 -263.022 0.
145.456 -356.46 0.
105.537 -449.898 0.
54.4542 -568.786 0.
-14.0518 -729.391 0.
-82.5577 -889.996 0.
177.676 -715.339 0.
300.477 -429.73 0.
423.277 -144.12 0.
425.372 -99.8924 0.
417.876 -119.843 0.
84.0409 -277.969 0.
307.537 -141.381 0.
329.512 -88.23 0.
402.198 -59.1134 0.
307.154 -283.034 0.
212.109 -506.956 0.
416.577 -526.603 0.
414.494 -531.184 0.
412.411 -535.767 0.
325.912 -548.007 0.
348.995 -495.055 0.
372.077 -442.102 0.
736.912 -244.856 0.
756.622 -199.082 0.
373.656 -337.048 0.
343.129 -408.756 0.
312.601 -480.465 0.
315.538 -517.83 0.
317.861 -513.265 0.
320.184 -508.7 0.
390.854 -412.416 0.
452.132 -269.553 0.
513.41 -126.69 0.
521.872 -201.787 0.
453.244 -361.549 0.
-216.136 -777.901 0.
596.162 -232.385 0.
698.979 8.87508 0.
504.628 7.77477 0.
339.888 -376.791 0.
175.147 -761.356 0.
122.309 -832.216 0.
266.585 -496.683 0.
410.86 -161.15 0.
169.593 -232.599 0.
124.091 -338.535 0.
78.5894 -444.47 0.
1076.69 -10.0563 0.
1086.53 13.5436 0.
107.996 -386.83 0.
119.505 -358.28 0.
131.015 -329.729 0.
393.529 -216.178 0.
373.095 -262.461 0.
352.661 -308.744 0.
267.85 -357.074 0.
269.468 -356.317 0.
271.086 -355.56 0.
636.457 -227.956 0.
620.092 -267.089 0.
587.549 -314.171 0.
175.942 -438.77 0.
204.53 -374.111 0.
287.922 -311.186 0.
252.712 -393.434 0.
217.502 -475.682 0.
223.013 -505.87 0.
224.199 -504.293 0.
225.385 -502.716 0.
284.92 -479.278 0.
284.671 -477.757 0.
284.421 -476.237 0.
13.8062 -571.92 0.
22.9632 -549.884 0.
131.081 -491.376 0.
122.868 -511.216 0.
114.654 -531.055 0.
-82.3422 -602.563 0.
-49.2792 -525.405 0.
-16.2161 -448.247 0.
248.636 -256.496 0.
295.529 -147.664 0.
342.423 -38.8323 0.
214.123 -27.8289 0.
245.042 43.0785 0.
472.032 749.558 0.
12.4241 343.408 0.
-233.205 -230.091 0.
-13.0679 -501.337 0.
36.1843 -384.237 0.
-24.3028 -523.422 0.
186.224 -145.314 0.
325.751 181.673 0.
-0.0814834 -577.243 0.
389.938 -151.352 0.
569.838 265.701 0.
671.544 500.64 0.
432.275 117.139 0.
261.16 -281.95 0.
473.838 289.07 0.
670.211 747.214 0.
298.962 -118.682 0.
445.09 235.985 0.
354.617 23.2323 0.
543.956 462.768 0.
635.432 281.852 0.
517.017 4.31058 0.
937.285 983.682 0.
570.255 310.678 0.
342.715 -221.476 0.
758.788 519.189 0.
204.96 -28.5616 0.
44.1355 -404.292 0.
168.533 -713.646 0.
324.285 -350.403 0.
505.355 72.2833 0.
592.601 104.744 0.
652.181 244.752 0.
408.27 -322.754 0.
449.972 -271.427 0.
527.767 -88.9924 0.
363.83 -470.186 0.
1093.72 794.16 0.
981.05 533.802 0.
604.425 11.3975 0.
429.562 -398.256 0.
620.029 44.5414 0.
616.404 251.597 0.
367.167 -330.475 0.
290.547 -509.589 0.
455.653 -311.61 0.
667.869 183.135 0.
228.441 -842.58 0.
278.63 -595.942 0.
331.18 -472.199 0.
630.777 -341.92 0.
924.708 387.616 0.
1019.35 609.643 0.
614.078 179.419 0.
592.341 129.556 0.
472.801 -147.944 0.
331.681 -480.594 0.
428.11 -257.561 0.
599.684 140.869 0.
37.885 -309.66 0.
19.8635 -353.395 0.
272.771 234.902 0.
1053.54 -190.074 0.
1282.03 343.749 0.
231.601 258.017 0.
72.2859 -113.866 0.
122.072 2.35665 0.
782.641 451.301 0.
729.33 327.199 0.
679.327 210.862 0.
463.039 140.599 0.
481.931 182.063 0.
731.195 761.618 0.
1321.93 977.858 0.
1140.81 557.026 0.
697.002 -640.868 0.
259.422 -217.321 0.
125.266 -531.864 0.
452.781 -25.1084 0.
439.106 -58.6115 0.
676.929 494.795 0.
530.312 600.574 0.
578.184 712.018 0.
-37.2639 -724.348 0.
294.957 -742.319 0.
720.3 250.882 0.
735.926 287.736 0.
580.178 605.469 0.
240.202 -186.703 0.
-17.8687 -499.132 0.
214.25 42.4115 0.
103.408 -216.427 0.
-167.203 -958.711 0.
408.439 384.776 0.
602.322 837.665 0.
575.932 174.624 0.
422.794 -182.805 0.
1036.87 1249.69 0.
-145.935 -435.884 0.
-106.311 -337.889 0.
-731.353 -279.852 0.
-148.697 -122.189 0.
-216.316 -278.776 0.
146.844 -220.235 0.
153.064 -204.518 0.
159.285 -188.802 0.
63.6356 -203.828 0.
87.2508 -148.441 0.
110.866 -93.0541 0.
304.385 -52.4147 0.
255.689 -165.968 0.
206.993 -279.521 0.
335.25 -249.229 0.
327.945 -266.463 0.
247.933 -328.125 0.
188.135 -469.86 0.
128.337 -611.595 0.
-86.9404 -720.091 0.
13.8403 -485.108 0.
114.621 -250.125 0.
491.884 -92.5766 0.
401.743 -302.758 0.
311.602 -512.938 0.
208.218 -531.264 0.
257.638 -416.223 0.
1090.7 36.1227 0.
200.886 -343.707 0.
197.313 -352.034 0.
303.09 -331.476 0.
265.805 -416.577 0.
228.52 -501.679 0.
295.059 -417.06 0.
406.777 -157.245 0.
518.494 102.57 0.
685.33 206.307 0.
652.085 130.239 0.
618.839 54.1705 0.
644.328 24.7053 0.
625.523 -17.5758 0.
601.51 -72.3272 0.
538.153 -217.884 0.
474.797 -363.441 0.
274.878 -542.418 0.
252.111 -596.636 0.
229.345 -650.853 0.
354.664 -618.303 0.
355.314 -617.505 0.
355.964 -616.708 0.
212.719 -503.029 0.
329.645 -230.614 0.
-1034.98 -593.688 0.
845.138 -7.5092 0.
730.551 -276.124 0.
105.659 -687.167 0.
171.07 -534.34 0.
236.481 -381.513 0.
391.457 -256.916 0.
380.566 -281.724 0.
369.675 -306.532 0.
315.421 -289.694 0.
351.521 -203.685 0.
387.62 -117.677 0.
776.624 45.1588 0.
770.619 30.9267 0.
285.864 -196.73 0.
245.137 -294.611 0.
204.41 -392.493 0.
522.91 -334.396 0.
480.189 -433.743 0.
437.468 -533.09 0.
17.539 -727.663 0.
43.3432 -669.677 0.
69.1474 -611.691 0.
700.982 -234.811 0.
763.711 -88.4634 0.
455.232 -103.499 0.
428.962 -206.86 0.
380.763 -320.559 0.
167.991 -461.13 0.
217.393 -345.095 0.
266.794 -229.06 0.
323.388 -160.404 0.
321.038 -162.936 0.
318.687 -165.467 0.
470.36 -190.129 0.
396.723 -362.031 0.
323.086 -533.934 0.
22.5012 -460.789 0.
148.219 -167.654 0.
353.528 115.288 0.
296.82 -17.5237 0.
240.111 -150.336 0.
80.0365 -264.056 0.
111.373 -190.458 0.
142.71 -116.86 0.
298.075 -100.562 0.
229.512 -259.961 0.
160.95 -419.361 0.
-199.309 -580.383 0.
-187.463 -547.266 0.
-511.945 -156.773 0.
-87.2122 -64.049 0.
-154.912 -220.63 0.
212.244 -161.065 0.
218.473 -145.42 0.
224.703 -129.776 0.
-37.584 -215.837 0.
-13.9236 -160.613 0.
9.73677 -105.39 0.
164.346 -80.544 0.
115.68 -194.34 0.
67.0141 -308.135 0.
422.22 -180.249 0.
414.775 -197.385 0.
314.479 -268.333 0.
254.824 -410.46 0.
195.169 -552.587 0.
-219.823 -744.875 0.
-119.287 -509.735 0.
-18.7513 -274.594 0.
528.073 -45.9006 0.
438.306 -256.396 0.
348.539 -466.891 0.
221.738 -493.802 0.
271.604 -378.89 0.
794.23 -59.9856 0.
374.366 -238.357 0.
370.966 -246.67 0.
284.7 -306.854 0.
247.453 -392.018 0.
210.207 -477.182 0.
220.346 -417.665 0.
332.319 -158.049 0.
444.293 101.567 0.
739.461 260.016 0.
706.105 184.012 0.
672.749 108.009 0.
516.356 2.39003 0.
497.507 -39.8717 0.
655.999 -18.0127 0.
592.37 -163.487 0.
528.742 -308.96 0.
291.785 -503.503 0.
268.89 -557.504 0.
245.995 -611.504 0.
408.883 -563.312 0.
409.365 -562.275 0.
409.847 -561.237 0.
101.5 -520.108 0.
218.113 -247.54 0.
-355.495 -271.179 0.
973.661 78.7593 0.
858.974 -190.131 0.
-47.0767 -720.896 0.
18.6442 -568.555 0.
84.3655 -416.214 0.
366.248 -236.315 0.
355.557 -261.407 0.
344.866 -286.498 0.
657.229 -111.065 0.
693.829 -25.1834 0.
730.43 60.6978 0.
329.227 -115.638 0.
323.651 -130.205 0.
611.87 -23.6908 0.
571.09 -121.677 0.
530.309 -219.664 0.
636.17 -254.716 0.
593.299 -353.957 0.
550.429 -453.197 0.
-56.674 -728.026 0.
-30.9319 -669.885 0.
-5.18976 -611.743 0.
591.827 -250.839 0.
654.65 -104.291 0.
179.823 -190.819 0.
648.38 -81.603 0.
600.379 -195.396 0.
62.3316 -474.143 0.
112.282 -358.429 0.
162.231 -242.715 0.
485.796 -57.3255 0.
483.689 -59.9589 0.
481.583 -62.5924 0.
412.025 -184.25 0.
338.298 -355.718 0.
264.572 -527.185 0.
-82.6096 -474.709 0.
43.3185 -181.718 0.
498.807 208.731 0.
442.288 75.7106 0.
385.768 -57.3095 0.
35.8867 -250.878 0.
67.0108 -177.177 0.
98.1347 -103.476 0.
119.384 -145.884 0.
50.636 -305.04 0.
-18.1118 -464.196 0.
-171.847 -538.431 0.
-160.338 -505.199 0.
758.394 222.667 0.
-151.756 -280.375 0.
-186.921 -363.801 0.
133.972 -259.179 0.
202.028 -99.7621 0.
270.083 59.6548 0.
25.6227 -41.2843 0.
-65.0755 -250.792 0.
-155.774 -460.299 0.
24.5302 -383.144 0.
72.3593 -270.88 0.
120.189 -158.617 0.
415.385 -156.998 0.
333.394 -347.778 0.
153.855 -545.635 0.
256.957 -303.663 0.
360.058 -61.6908 0.
44.5153 -115.543 0.
-41.0163 -316.146 0.
-126.548 -516.75 0.
420.501 -321.83 0.
456.495 -239.747 0.
492.488 -157.664 0.
343.336 -234.927 0.
322.828 -280.739 0.
1262.48 84.3316 0.
456.899 -217.855 0.
480.189 -160.165 0.
305.536 -186.796 0.
311.954 -172.428 0.
318.372 -158.06 0.
337.681 -188.986 0.
288.419 -303.013 0.
239.157 -417.041 0.
423.998 -347.829 0.
442.037 -307.202 0.
460.076 -266.576 0.
418.659 -278.317 0.
421.647 -275.632 0.
545.82 -221.378 0.
552.467 -209.178 0.
559.114 -196.979 0.
343.818 -282.245 0.
343.83 -281.833 0.
343.842 -281.422 0.
542.589 -185.99 0.
551.911 -163.643 0.
561.232 -141.297 0.
187.049 -335.756 0.
161.166 -396.113 0.
477.376 -310.773 0.
845.051 -97.2127 0.
874.74 -28.5033 0.
198.086 -286.004 0.
179.072 -331.358 0.
160.056 -376.712 0.
270.475 -394.994 0.
219.568 -515.699 0.
168.661 -636.405 0.
567.013 -401.526 0.
641.406 -229.053 0.
715.798 -56.5804 0.
191.499 -234.535 0.
208.789 -191.904 0.
702.37 43.8689 0.
672.974 -22.7814 0.
643.577 -89.4321 0.
673.819 -121.431 0.
666.83 -139.496 0.
659.842 -157.56 0.
149.649 -370.322 0.
156.649 -353.276 0.
163.648 -336.229 0.
518.55 -276.928 0.
458.192 -414.461 0.
616.331 -448.489 0.
511.822 -382.493 0.
569.584 -245.995 0.
126.586 -394.426 0.
30.2256 -617.624 0.
-66.1337 -840.822 0.
204.838 -806.097 0.
222.797 -764.517 0.
240.756 -722.936 0.
181.161 -544.332 0.
325.784 -205.01 0.
470.406 134.311 0.
128.875 -38.9553 0.
98.432 -108.78 0.
401.669 -30.4642 0.
397.923 -36.1557 0.
394.176 -41.847 0.
50.0301 -194.415 0.
49.0815 -196.785 0.
48.1329 -199.155 0.
24.3918 -158.748 0.
71.6404 -48.7912 0.
118.889 61.166 0.
185.073 121.451 0.
193.277 135.922 0.
-74.9192 -103.22 0.
-106.448 -230.5 0.
-141.575 -313.65 0.
20.1123 -275.373 0.
88.2886 -116.217 0.
156.465 42.94 0.
125.038 32.9274 0.
34.2975 -176.7 0.
-56.443 -386.327 0.
162.723 -293.005 0.
210.532 -180.652 0.
258.341 -68.2986 0.
323.409 -165.112 0.
241.514 -356.035 0.
15.5295 -574.574 0.
118.586 -332.596 0.
221.642 -90.6175 0.
185.532 -23.4218 0.
99.9123 -223.809 0.
14.292 -424.195 0.
444.905 -280.938 0.
480.882 -198.76 0.
516.86 -116.582 0.
389.122 -184.81 0.
368.862 -230.519 0.
999.054 2.38171 0.
501.753 -165.932 0.
525.417 -108.487 0.
281.763 -166.783 0.
287.751 -152.055 0.
293.74 -137.327 0.
488.428 -93.4306 0.
439.176 -207.487 0.
389.923 -321.543 0.
272.982 -381.323 0.
290.901 -340.59 0.
308.82 -299.858 0.
637.771 -152.858 0.
640.66 -150.33 0.
484.802 -215.583 0.
491.224 -203.119 0.
497.647 -190.655 0.
253.06 -289.528 0.
252.918 -288.964 0.
252.776 -288.4 0.
449.312 -195.248 0.
458.869 -173.077 0.
468.425 -150.906 0.
337.449 -239.526 0.
311.635 -300.075 0.
-1683.88 -1205.36 0.
619.426 -162.475 0.
649.326 -93.8145 0.
522.566 -114.25 0.
503.726 -159.781 0.
484.886 -205.313 0.
261.917 -367.263 0.
210.788 -487.765 0.
159.659 -608.267 0.
357.673 -459.596 0.
431.839 -286.871 0.
506.006 -114.146 0.
454.261 -91.4365 0.
471.346 -48.7276 0.
559.644 14.536 0.
530.256 -52.552 0.
500.868 -119.64 0.
558.111 -139.015 0.
551.297 -157.321 0.
544.483 -175.628 0.
379.529 -240.924 0.
387.033 -224.201 0.
394.538 -207.477 0.
508.244 -248.679 0.
448.139 -386.267 0.
784.388 -345.787 0.
309.656 -438.421 0.
367.34 -301.653 0.
332.537 -274.933 0.
236.002 -497.848 0.
139.467 -720.761 0.
180.965 -785.733 0.
198.94 -744.057 0.
216.915 -702.38 0.
81.9586 -555.867 0.
226.484 -216.68 0.
371.01 122.507 0.
309.09 69.3447 0.
278.802 -0.740115 0.
302.617 -40.7703 0.
298.969 -46.6059 0.
295.322 -52.4415 0.
103.484 -140.082 0.
102.61 -142.37 0.
101.735 -144.659 0.
10.9659 -132.846 0.
57.8889 -22.5166 0.
104.811 87.8127 0.
360.998 227.355 0.
368.132 243.012 0.
-138.804 -863.411 0.
30.7639 41.843 0.
135.172 286.263 0.
-39.6773 -167.486 0.
-147.349 -417.211 0.
79.8239 112.931 0.
-86.0703 -624.385 0.
21.4151 -373.934 0.
-33.0726 -500.919 0.
397.378 27.2295 0.
409.045 52.7304 0.
147.157 -559.817 0.
192.835 -268.784 0.
226.28 -188.716 0.
365.954 533.032 0.
367.458 539.372 0.
-104.368 -558.685 0.
-346.471 -1500.21 0.
433.896 317.72 0.
175.011 -288.637 0.
217.393 -828.864 0.
75.8607 -1159.74 0.
536.508 -86.4045 0.
586.057 217.904 0.
471.709 -48.6459 0.
252.346 -883.041 0.
779.829 424.945 0.
748.37 350.682 0.
355.432 79.0788 0.
435.011 265.601 0.
241.968 -183.756 0.
628.329 -15.5081 0.
832.703 459.699 0.
1007.93 866.924 0.
492.141 439.374 0.
460.876 368.035 0.
481.374 417.626 0.
1105.83 558.659 0.
1102.67 550.468 0.
521.217 11.1477 0.
572.281 130.957 0.
640.529 290.936 0.
272.929 -35.4262 0.
81.4055 -480.271 0.
134.851 -353.564 0.
558.2 269.11 0.
605.094 377.88 0.
789.555 807.627 0.
1003.57 1054.58 0.
916.676 851.608 0.
-439.041 -78.3979 0.
569.251 192.051 0.
526.186 91.2658 0.
794.678 -61.5977 0.
656.089 -386.039 0.
646.7 -409.116 0.
317.961 -192.357 0.
474.423 173.081 0.
503.67 241.737 0.
423.178 118.655 0.
332.541 -92.5994 0.
195.635 -411.809 0.
854.048 376.392 0.
850.471 366.2 0.
546.975 291.052 0.
562.949 328.516 0.
580.942 370.816 0.
735.357 521.504 0.
476.367 -85.0087 0.
460.391 -124.256 0.
708.325 120.236 0.
798.225 330.08 0.
904.729 578.423 0.
1035.23 1037.1 0.
755.31 383.59 0.
891.115 82.0573 0.
228.651 -223.271 0.
165.831 -367.944 0.
733.593 315.607 0.
818.508 512.474 0.
515.823 -194.906 0.
304.348 -428.695 0.
194.935 -682.169 0.
346.552 -326.954 0.
320.503 222.779 0.
340.742 268.786 0.
57.921 -392.658 0.
301.028 -259.501 0.
319.378 -216.706 0.
-4.23275 -536.734 0.
109.519 -272.326 0.
436.39 489.598 0.
121.516 -164.699 0.
107.552 -198.742 0.
375.431 424.785 0.
414.107 862.639 0.
160.057 270.458 0.
210.749 387.59 0.
483.535 221.294 0.
606.177 503.771 0.
-79.2971 -263.734 0.
-101.514 -125.268 0.
-36.8633 27.4081 0.
154.587 161.074 0.
26.2188 -137.693 0.
-102.149 -436.459 0.
-5.91618 -479.071 0.
61.9176 -322.638 0.
129.751 -166.203 0.
138.023 -126.582 0.
131.497 -142.729 0.
124.972 -158.875 0.
245.641 -130.58 0.
233.331 -158.301 0.
39.1611 -271.56 0.
-37.3332 -449.134 0.
-113.828 -626.707 0.
254.116 -553.419 0.
283.604 -486.239 0.
313.092 -419.059 0.
229.77 -345.689 0.
308.69 -159.464 0.
387.61 26.7616 0.
634.027 173.719 0.
638.992 184.208 0.
1018.9 354.827 0.
646.038 184.998 0.
642.377 173.88 0.
353.259 7.10038 0.
270.976 -186.821 0.
188.694 -380.743 0.
324.784 -359.237 0.
387.532 -215.901 0.
450.28 -72.5642 0.
415.897 -109.399 0.
368.265 -221.765 0.
320.633 -334.132 0.
643.882 -164.286 0.
669.427 -103.719 0.
436.275 -152.201 0.
472.815 -66.7065 0.
509.355 18.7876 0.
423.892 0.279559 0.
379.141 -104.059 0.
334.389 -208.398 0.
224.331 -293.319 0.
224.514 -293.034 0.
224.698 -292.749 0.
358.96 -169.3 0.
405.134 -61.1991 0.
1341.46 428.656 0.
619.477 -1.22388 0.
555.904 -148.869 0.
603.126 -210.654 0.
627.384 -153.23 0.
651.643 -95.8058 0.
366.139 -201.298 0.
355.012 -225.936 0.
343.886 -250.575 0.
233.384 -391.993 0.
164.403 -552.162 0.
95.4232 -712.331 0.
564.275 -368.609 0.
657.138 -155.028 0.
245.925 -178.63 0.
251.155 -166.895 0.
256.385 -155.159 0.
571.666 15.0363 0.
612.744 110.218 0.
653.822 205.399 0.
631.032 246.946 0.
649.389 291.055 0.
667.747 335.164 0.
669.546 153.806 0.
540.968 -148.796 0.
464.317 -428.392 0.
170.837 -532.339 0.
184.563 -503.503 0.
380.991 -393.784 0.
390.828 -373.204 0.
400.665 -352.623 0.
331.809 -266.093 0.
452.331 16.6635 0.
572.853 299.419 0.
346.696 111.566 0.
222.721 -176.841 0.
98.7469 -465.249 0.
258.66 -441.473 0.
242.656 -478.421 0.
17.2394 -578.033 0.
116.989 -347.96 0.
216.739 -117.886 0.
56.1661 -114.431 0.
-18.9674 -289.601 0.
-94.1011 -464.77 0.
59.7395 -474.362 0.
48.1405 -503.312 0.
36.5412 -532.263 0.
24.5183 -280.024 0.
198.844 122.077 0.
-265.88 -313.819 0.
-161.792 -119.082 0.
-96.9696 33.5771 0.
234.073 225.858 0.
105.377 -72.6459 0.
-23.3194 -371.15 0.
34.8354 -430.394 0.
102.688 -274.064 0.
170.54 -117.732 0.
-81.6414 -190.511 0.
-88.3756 -206.619 0.
-95.1091 -222.727 0.
252.837 -95.0066 0.
240.916 -123.332 0.
79.9202 -222.214 0.
3.57013 -399.934 0.
-72.7801 -577.653 0.
509.982 -412.821 0.
539.232 -345.334 0.
568.482 -277.847 0.
3.8108 -411.092 0.
82.9316 -225.021 0.
162.052 -38.9513 0.
732.094 246.147 0.
737.119 256.699 0.
1062.17 403.915 0.
625.757 207.737 0.
621.975 196.901 0.
406.465 60.9304 0.
324.117 -132.94 0.
241.77 -326.811 0.
148.292 -402.993 0.
211.38 -260.049 0.
274.467 -117.106 0.
630.423 14.0585 0.
583.32 -98.8436 0.
536.218 -211.746 0.
472.233 -206.173 0.
498.093 -145.987 0.
434.588 -120.505 0.
471.383 -35.0452 0.
508.18 50.4142 0.
608.093 110.28 0.
563.198 6.0267 0.
518.302 -98.2267 0.
127.653 -303.16 0.
127.754 -302.875 0.
127.856 -302.591 0.
234.222 -191.123 0.
280.437 -83.1258 0.
464.152 84.9167 0.
793.861 105.646 0.
730.306 -41.9657 0.
462.073 -239.929 0.
486.426 -182.571 0.
510.778 -125.213 0.
446.895 -135.472 0.
435.79 -159.928 0.
424.685 -184.384 0.
284.089 -338.445 0.
214.855 -498.416 0.
145.621 -658.387 0.
616.838 -314.687 0.
709.302 -100.644 0.
140.189 -192.326 0.
145.222 -180.501 0.
150.254 -168.676 0.
650.906 79.6369 0.
691.954 174.808 0.
733.003 269.98 0.
483.755 214.666 0.
502.06 258.999 0.
520.364 303.332 0.
698.758 197.371 0.
570.091 -104.991 0.
61.3486 -570.365 0.
283.442 -451.876 0.
297.211 -422.925 0.
336.972 -382.721 0.
346.611 -361.725 0.
356.249 -340.73 0.
297.768 -249.378 0.
418.509 33.2854 0.
539.25 315.948 0.
450.192 186.316 0.
325.984 -102.031 0.
201.777 -390.378 0.
319.063 -383.369 0.
302.895 -420.344 0.
83.055 -518.774 0.
182.293 -288.333 0.
281.53 -57.8923 0.
-33.439 -122.503 0.
-108.94 -297.427 0.
-184.442 -472.351 0.
344.005 -320.659 0.
332.291 -349.577 0.
320.578 -378.496 0.
-254.252 -368.552 0.
-80.2478 33.9268 0.
1111.03 829.415 0.
44.4301 337.843 0.
32.9939 310.809 0.
237.625 348.6 0.
165.663 180.68 0.
93.7016 12.7591 0.
199.706 15.9509 0.
242.838 118.221 0.
285.969 220.492 0.
-4.46491 48.876 0.
-67.6043 -97.829 0.
-130.744 -244.534 0.
260.38 -71.721 0.
274.322 -37.8994 0.
136.174 -78.7469 0.
110.134 -138.988 0.
84.0937 -199.23 0.
676.254 9.05069 0.
652.603 -44.51 0.
628.952 -98.0707 0.
-73.2507 -482.705 0.
-132.212 -621.324 0.
-191.173 -759.944 0.
392.096 -462.775 0.
440.405 -348.183 0.
980.016 -24.1342 0.
449.738 -220.649 0.
465.611 -183.358 0.
398.303 -165.352 0.
451.667 -39.8218 0.
505.032 85.7083 0.
323.293 19.0255 0.
270.628 -103.333 0.
217.962 -225.691 0.
622.625 -51.3051 0.
652.17 16.1603 0.
681.716 83.6259 0.
562.044 74.091 0.
584.643 126.601 0.
474.673 102.353 0.
406.093 -56.6433 0.
337.513 -215.64 0.
516.422 -190.361 0.
570.682 -63.5805 0.
624.942 63.2002 0.
249.253 -33.6253 0.
269.33 13.0458 0.
289.406 59.7168 0.
279.15 14.0569 0.
245.93 -64.1198 0.
-535.537 -461.589 0.
833.422 179.122 0.
862.045 245.212 0.
545.419 159.672 0.
566.878 210.853 0.
588.337 262.034 0.
608.946 238.352 0.
543.212 84.7074 0.
477.477 -68.9368 0.
406.052 -129.419 0.
416.361 -106.406 0.
426.671 -83.3934 0.
657.661 -52.6538 0.
615.944 -150.691 0.
138.558 -406.894 0.
221.369 -214.229 0.
304.18 -21.563 0.
674.255 230.08 0.
662.265 201.68 0.
650.275 173.28 0.
334.524 -29.4174 0.
282.031 -151.145 0.
229.537 -272.872 0.
617.472 -11.3272 0.
692.725 168.142 0.
-11.4959 11.4245 0.
547.44 114.362 0.
474.956 -51.5483 0.
416.916 -153.359 0.
476.759 -11.2586 0.
536.602 130.841 0.
408.973 53.184 0.
309.77 -178.047 0.
210.567 -409.278 0.
198.999 -389.529 0.
261.206 -244.924 0.
323.413 -100.319 0.
478.723 -55.2039 0.
462.823 -92.3243 0.
234.586 -214.818 0.
234.419 -215.459 0.
234.252 -216.099 0.
-125.879 -335.24 0.
-69.9507 -205.971 0.
-14.0223 -76.7023 0.
542.909 180.031 0.
517.823 121.337 0.
492.737 62.643 0.
-240.858 -247.936 0.
-226.42 -215.121 0.
83.7414 417.255 0.
156.264 416.502 0.
144.815 389.637 0.
78.9777 311.736 0.
6.93597 143.957 0.
-65.1055 -23.8223 0.
130.765 17.9219 0.
173.787 120.012 0.
216.808 222.102 0.
173.617 156.621 0.
110.719 9.5778 0.
47.8203 -137.465 0.
282.15 -30.2039 0.
296.676 3.19026 0.
115.066 -56.7258 0.
89.0595 -117.001 0.
63.053 -177.276 0.
425.492 -66.1184 0.
401.854 -119.781 0.
378.216 -173.443 0.
71.2213 -389.704 0.
11.9898 -528.157 0.
-47.2417 -666.61 0.
228.238 -502.651 0.
276.65 -388.269 0.
281.641 -292.639 0.
522.23 -157.767 0.
537.95 -120.283 0.
593.684 -50.7122 0.
647.151 74.8616 0.
700.619 200.435 0.
511.504 132.621 0.
459.22 9.83101 0.
406.936 -112.96 0.
494.11 -75.1955 0.
523.77 -7.91452 0.
553.431 59.3666 0.
688.319 159.221 0.
711.284 211.437 0.
372.104 90.6059 0.
303.774 -68.4683 0.
235.443 -227.543 0.
457.751 -184.514 0.
512.145 -57.7086 0.
566.538 69.0963 0.
390.527 58.6497 0.
410.859 105.126 0.
431.191 151.602 0.
333.281 69.2807 0.
300.093 -8.85083 0.
-369.867 -359.005 0.
712.253 158.424 0.
740.822 224.702 0.
502.044 172.085 0.
523.498 223.379 0.
544.951 274.674 0.
565.397 251.671 0.
500.01 97.8638 0.
434.624 -55.9438 0.
472.953 -69.0876 0.
483.113 -45.8085 0.
493.273 -22.5294 0.
466.457 -103.147 0.
424.597 -201.077 0.
495.356 -222.784 0.
578.356 -30.4046 0.
661.356 161.975 0.
531.016 201.442 0.
519.371 172.557 0.
507.726 143.673 0.
404.521 32.4634 0.
352.068 -89.5392 0.
299.615 -211.542 0.
637.228 29.4478 0.
712.682 208.494 0.
985.286 469.297 0.
523.314 134.685 0.
450.71 -31.2834 0.
435.912 -113.043 0.
495.931 28.8883 0.
555.951 170.819 0.
427.698 92.4008 0.
328.546 -138.851 0.
229.394 -370.104 0.
123.547 -390.939 0.
185.712 -246.285 0.
247.877 -101.631 0.
497.174 -15.6618 0.
481.299 -52.8918 0.
260.215 -171.786 0.
260.515 -172.846 0.
260.816 -173.906 0.
-9.55322 -253.728 0.
46.602 -124.562 0.
102.758 4.60362 0.
268.638 94.0692 0.
243.616 35.3721 0.
218.593 -23.3253 0.
-46.2343 -131.978 0.
-31.9205 -99.0281 0.
-372.393 -410.666 0.
-286.441 -781.17 0.
-262.852 -727.475 0.
-19.379 416.955 0.
27.6854 526.584 0.
78.7207 644.956 0.
95.9624 89.0952 0.
17.3801 -91.8137 0.
66.4887 24.4751 0.
200.622 -81.802 0.
239.762 11.7396 0.
629.353 922.987 0.
574.207 634.091 0.
281.14 -46.6015 0.
-184.754 -690.953 0.
118.56 16.8031 0.
136.411 58.798 0.
-64.2969 -702.688 0.
-23.651 -608.298 0.
153.084 -196.801 0.
366.124 57.4534 0.
408.602 156.274 0.
449.227 250.756 0.
616.874 744.285 0.
500.803 472.453 0.
354.977 -97.6279 0.
616.612 -50.9552 0.
383.088 -594.865 0.
795.729 88.6899 0.
908.252 350.371 0.
695.052 -147.963 0.
562.747 -75.3791 0.
740.026 338.296 0.
689.744 221.112 0.
651.484 560.494 0.
528.631 273.261 0.
360.816 -119.034 0.
809.109 232.924 0.
818.892 251.83 0.
251.062 41.8085 0.
232.077 -5.74057 0.
142.867 -217.139 0.
380.966 -216.152 0.
467.331 -17.4067 0.
344.109 -307.483 0.
196.352 -636.348 0.
261.433 -482.972 0.
364.989 -239.619 0.
279.536 -129.471 0.
222.727 -264.575 0.
-330.516 460.639 0.
773.184 568.571 0.
564.646 79.4395 0.
511.588 313.291 0.
464.666 204.462 0.
402.941 61.0068 0.
418.22 17.3365 0.
686.801 642.97 0.
653.27 563.786 0.
438.456 -237.177 0.
129.944 -956.706 0.
516.853 -53.8079 0.
143.113 -461.227 0.
125.821 -498.99 0.
903.174 80.7324 0.
767.878 -233.281 0.
697.959 -394.399 0.
71.9696 -567.412 0.
495.05 417.911 0.
742.336 993.216 0.
721.794 664.034 0.
292.213 -341.058 0.
165.22 -639.599 0.
441.114 -424.752 0.
543.777 -184.465 0.
141.005 -478.225 0.
653.238 511.667 0.
410.21 -50.4949 0.
523.779 79.1374 0.
846.633 835.961 0.
219.289 -624.664 0.
349.171 -95.8486 0.
439.58 113.756 0.
-29.5164 -982.215 0.
-328.29 -1272.41 0.
85.0155 -309.831 0.
528.711 723.635 0.
571.825 156.73 0.
651.128 339.823 0.
315.931 -55.4638 0.
158.775 -421.438 0.
237.889 -236.568 0.
226.488 97.6285 0.
217.448 77.5667 0.
143.514 -93.4535 0.
-117.862 -253.495 0.
-127.25 -275.645 0.
-185.644 -412.373 0.
299.161 353.232 0.
126.338 -47.7679 0.
273.774 -33.9708 0.
-233.785 -275.179 0.
-245.67 -301.956 0.
-353.664 -346.72 0.
-318.105 -263.004 0.
-282.546 -179.289 0.
177.26 43.89 0.
162.713 10.2214 0.
148.166 -23.4472 0.
109.951 -27.0938 0.
128.974 20.9838 0.
147.997 69.0607 0.
355.587 133.289 0.
332.466 82.3633 0.
65.907 -78.007 0.
29.2239 -164.019 0.
-7.45887 -250.031 0.
-40.615 -308.846 0.
-35.8262 -297.745 0.
-31.0374 -286.643 0.
216.123 -112.328 0.
277.579 30.2674 0.
339.034 172.863 0.
344.695 80.2818 0.
261.33 -113.75 0.
636.79 -112.393 0.
867.79 -38.1714 0.
853.137 -71.1863 0.
435.207 -249.335 0.
490.071 -121.125 0.
544.935 7.08611 0.
584.145 32.6771 0.
520.762 -113.691 0.
457.38 -260.06 0.
404.045 -217.82 0.
488.372 -21.3435 0.
572.7 175.133 0.
790.345 268.244 0.
779.292 242.156 0.
325.81 19.2403 0.
278.401 -92.4643 0.
230.991 -204.169 0.
358.294 -199.427 0.
381.74 -147.254 0.
405.185 -95.0805 0.
331.706 -46.5714 0.
389.665 88.7774 0.
447.625 224.126 0.
525.011 178.763 0.
458.348 21.7655 0.
-1649.21 -1008.85 0.
497.318 17.8769 0.
552.715 147.591 0.
499.14 187.932 0.
450.031 71.6674 0.
400.921 -44.5969 0.
522.754 -114.104 0.
443.404 -299.404 0.
364.054 -484.704 0.
153.113 -443.133 0.
295.129 -112.9 0.
437.145 217.333 0.
365.279 84.6436 0.
288.84 -91.7095 0.
714.021 -26.9273 0.
739.166 35.3855 0.
764.311 97.6982 0.
282.947 -45.4002 0.
332.132 72.091 0.
381.317 189.582 0.
661.371 230.49 0.
548.221 -34.9328 0.
435.072 -300.356 0.
690.835 -155.471 0.
746.789 -24.5268 0.
883.361 144.56 0.
247.58 5.87058 0.
319.083 171.546 0.
700.723 406.987 0.
628.164 237.005 0.
555.606 67.0229 0.
270.154 -106.805 0.
297.679 -42.05 0.
325.203 22.7057 0.
339.957 22.824 0.
321.842 -19.2185 0.
303.727 -61.2607 0.
311.064 -102.989 0.
285.259 -163.926 0.
134.961 -287.577 0.
78.3897 -418.161 0.
21.8179 -548.745 0.
159.979 -467.582 0.
300.561 -138.665 0.
441.143 190.251 0.
-209.283 24.5262 0.
-210.671 21.5027 0.
-212.058 18.4797 0.
-23.835 -164.196 0.
-202.905 -578.514 0.
-239.235 -222.698 0.
-415.068 -320.98 0.
-427.214 -347.453 0.
-348.584 -314.457 0.
-313.613 -229.869 0.
-278.641 -145.282 0.
322.638 136.698 0.
307.575 103.474 0.
292.514 70.2498 0.
-13.0611 -48.8684 0.
5.66365 -0.571959 0.
24.3881 47.7239 0.
365.928 168.675 0.
342.711 117.855 0.
69.4252 -45.1931 0.
32.5689 -131.212 0.
-4.28717 -217.231 0.
-203.841 -347.867 0.
-199.066 -336.549 0.
-194.29 -325.232 0.
137.729 -114.574 0.
198.929 28.4239 0.
260.128 171.422 0.
376.389 124.562 0.
292.792 -69.0886 0.
988.398 69.9272 0.
1188.16 131.491 0.
1173.05 98.9955 0.
186.716 -326.022 0.
240.941 -197.271 0.
295.165 -68.5205 0.
567.54 55.3863 0.
504.43 -91.4373 0.
441.32 -238.261 0.
525.437 -132.989 0.
610.476 62.3659 0.
695.514 257.721 0.
763.073 289.709 0.
752.622 263.373 0.
442.218 100.327 0.
394.858 -10.9828 0.
347.497 -122.293 0.
338.411 -176.551 0.
361.88 -124.129 0.
385.349 -71.7071 0.
207.03 -68.951 0.
264.613 67.2597 0.
322.195 203.47 0.
683.367 277.412 0.
616.636 120.783 0.
724.98 40.6544 0.
463.184 35.4725 0.
518.514 165.346 0.
565.617 247.525 0.
516.783 131.091 0.
467.948 14.6561 0.
737.779 9.47984 0.
658.713 -175.818 0.
579.647 -361.116 0.
-71.8864 -508.268 0.
70.0949 -178.112 0.
212.077 152.044 0.
367.359 117.877 0.
290.837 -58.6702 0.
556.767 -62.1551 0.
581.836 0.0934793 0.
606.905 62.342 0.
281.532 -14.9023 0.
330.447 102.626 0.
379.362 220.153 0.
835.919 337.138 0.
722.013 71.9223 0.
608.107 -193.294 0.
871.035 -46.1337 0.
926.143 85.3591 0.
28.5032 -189.711 0.
35.296 -55.5087 0.
106.477 109.866 0.
765.894 467.333 0.
693.918 296.953 0.
621.942 126.572 0.
193.264 -108.433 0.
220.374 -43.1693 0.
247.484 22.0948 0.
492.09 117.961 0.
473.645 76.1657 0.
455.2 34.3702 0.
147.193 -140.518 0.
121.137 -201.332 0.
46.8325 -294.184 0.
-9.58316 -424.585 0.
-65.9988 -554.985 0.
391.371 -337.925 0.
532.16 -9.07385 0.
672.948 319.777 0.
-453.375 -47.5641 0.
-454.77 -50.4398 0.
-456.163 -53.3152 0.
-125.11 -178.277 0.
-305.005 -592.013 0.
