# vtk DataFile Version 2.0
test grain
ASCII
DATASET UNSTRUCTURED_GRID
POINTS 5000 float
0.499955 0.00100026 0.
0.501956 0.00100023 0.
0.503957 0.0010002 0.
0.505958 0.00100018 0.
0.507959 0.00100019 0.
0.50996 0.0010002 0.
0.511961 0.0010002 0.
0.513963 0.00100017 0.
0.515964 0.00100015 0.
0.517965 0.00100017 0.
0.519966 0.00100021 0.
0.521967 0.00100025 0.
0.523968 0.00100031 0.
0.525969 0.00100037 0.
0.52797 0.00100042 0.
0.529971 0.0010004 0.
0.531972 0.00100038 0.
0.533973 0.00100035 0.
0.535974 0.0010003 0.
0.537974 0.00100025 0.
0.539975 0.00100024 0.
0.541976 0.00100026 0.
0.543976 0.00100029 0.
0.545977 0.00100032 0.
0.547979 0.00100035 0.
0.54998 0.00100038 0.
0.551981 0.00100034 0.
0.553982 0.0010003 0.
0.555983 0.00100026 0.
0.557984 0.00100023 0.
0.559985 0.0010002 0.
0.561986 0.00100018 0.
0.563987 0.00100017 0.
0.565987 0.00100016 0.
0.567988 0.00100015 0.
0.569989 0.00100013 0.
0.57199 0.00100012 0.
0.57399 0.0010001 0.
0.575991 0.00100008 0.
0.577991 0.00100007 0.
0.579992 0.00100011 0.
0.581993 0.00100015 0.
0.583993 0.00100018 0.
0.585994 0.00100018 0.
0.587995 0.00100018 0.
0.589996 0.0010002 0.
0.591997 0.00100022 0.
0.593998 0.00100024 0.
0.595999 0.00100023 0.
0.598 0.0010002 0.
0.600001 0.00100017 0.
0.602003 0.00100016 0.
0.604004 0.00100014 0.
0.606005 0.00100012 0.
0.608005 0.00100008 0.
0.610006 0.00100004 0.
0.612007 0.00100003 0.
0.614007 0.00100006 0.
0.616007 0.00100009 0.
0.618008 0.00100012 0.
0.620008 0.00100014 0.
0.622009 0.00100017 0.
0.62401 0.00100019 0.
0.626011 0.0010002 0.
0.628012 0.0010002 0.
0.630013 0.0010002 0.
0.632014 0.00100019 0.
0.634015 0.00100018 0.
0.636016 0.00100015 0.
0.638016 0.00100012 0.
0.640017 0.00100013 0.
0.642018 0.00100019 0.
0.644018 0.00100025 0.
0.646019 0.00100031 0.
0.64802 0.00100038 0.
0.650021 0.00100044 0.
0.652022 0.00100034 0.
0.654024 0.00100023 0.
0.656025 0.00100016 0.
0.658025 0.00100018 0.
0.660026 0.0010002 0.
0.662027 0.00100024 0.
0.664027 0.0010003 0.
0.666028 0.00100037 0.
0.668029 0.00100039 0.
0.670029 0.00100038 0.
0.67203 0.00100038 0.
0.674031 0.00100034 0.
0.676033 0.00100029 0.
0.678034 0.00100024 0.
0.680035 0.00100021 0.
0.682036 0.00100018 0.
0.684037 0.00100016 0.
0.686038 0.00100016 0.
0.68804 0.00100016 0.
0.690041 0.00100017 0.
0.692042 0.0010002 0.
0.694044 0.00100022 0.
0.696045 0.00100025 0.
0.698046 0.00100027 0.
0.499955 0.00300078 0.
0.501956 0.00300069 0.
0.503957 0.0030006 0.
0.505958 0.00300053 0.
0.507959 0.00300056 0.
0.50996 0.0030006 0.
0.511961 0.00300059 0.
0.513963 0.00300052 0.
0.515964 0.00300044 0.
0.517965 0.0030005 0.
0.519966 0.00300063 0.
0.521967 0.00300076 0.
0.523968 0.00300093 0.
0.525969 0.0030011 0.
0.52797 0.00300125 0.
0.529971 0.0030012 0.
0.531972 0.00300115 0.
0.533973 0.00300106 0.
0.535974 0.0030009 0.
0.537974 0.00300074 0.
0.539975 0.00300071 0.
0.541976 0.00300079 0.
0.543977 0.00300087 0.
0.545978 0.00300096 0.
0.547979 0.00300105 0.
0.54998 0.00300114 0.
0.551981 0.00300102 0.
0.553982 0.00300089 0.
0.555983 0.00300077 0.
0.557984 0.00300069 0.
0.559985 0.0030006 0.
0.561986 0.00300054 0.
0.563987 0.00300051 0.
0.565987 0.00300048 0.
0.567988 0.00300044 0.
0.569989 0.00300039 0.
0.57199 0.00300035 0.
0.57399 0.0030003 0.
0.575991 0.00300025 0.
0.577991 0.00300021 0.
0.579992 0.00300033 0.
0.581993 0.00300045 0.
0.583993 0.00300054 0.
0.585994 0.00300054 0.
0.587995 0.00300054 0.
0.589996 0.00300059 0.
0.591997 0.00300066 0.
0.593998 0.00300073 0.
0.595999 0.00300068 0.
0.598 0.0030006 0.
0.600001 0.00300052 0.
0.602003 0.00300047 0.
0.604004 0.00300042 0.
0.606005 0.00300036 0.
0.608005 0.00300023 0.
0.610006 0.00300011 0.
0.612007 0.00300009 0.
0.614007 0.00300017 0.
0.616007 0.00300026 0.
0.618008 0.00300035 0.
0.620009 0.00300043 0.
0.622009 0.00300052 0.
0.62401 0.00300056 0.
0.626011 0.00300059 0.
0.628012 0.00300061 0.
0.630013 0.00300059 0.
0.632014 0.00300057 0.
0.634015 0.00300053 0.
0.636015 0.00300044 0.
0.638016 0.00300035 0.
0.640017 0.0030004 0.
0.642017 0.00300058 0.
0.644018 0.00300075 0.
0.646019 0.00300094 0.
0.64802 0.00300113 0.
0.650021 0.00300131 0.
0.652022 0.00300101 0.
0.654023 0.0030007 0.
0.656024 0.00300048 0.
0.658025 0.00300054 0.
0.660026 0.00300061 0.
0.662026 0.00300072 0.
0.664027 0.00300091 0.
0.666028 0.0030011 0.
0.668029 0.00300116 0.
0.670029 0.00300115 0.
0.67203 0.00300114 0.
0.674031 0.00300101 0.
0.676032 0.00300087 0.
0.678034 0.00300073 0.
0.680035 0.00300063 0.
0.682036 0.00300053 0.
0.684037 0.00300047 0.
0.686038 0.00300047 0.
0.68804 0.00300047 0.
0.690041 0.00300051 0.
0.692042 0.00300059 0.
0.694043 0.00300066 0.
0.696045 0.00300074 0.
0.698046 0.00300082 0.
0.499955 0.00500129 0.
0.501956 0.00500116 0.
0.503957 0.00500099 0.
0.505958 0.00500088 0.
0.507959 0.00500094 0.
0.50996 0.005001 0.
0.511961 0.00500098 0.
0.513963 0.00500086 0.
0.515964 0.00500074 0.
0.517965 0.00500084 0.
0.519966 0.00500105 0.
0.521967 0.00500127 0.
0.523968 0.00500154 0.
0.525969 0.00500183 0.
0.52797 0.00500208 0.
0.529971 0.00500199 0.
0.531972 0.00500191 0.
0.533973 0.00500177 0.
0.535974 0.00500151 0.
0.537975 0.00500124 0.
0.539975 0.00500119 0.
0.541977 0.00500132 0.
0.543978 0.00500145 0.
0.545979 0.00500159 0.
0.54798 0.00500175 0.
0.54998 0.0050019 0.
0.551982 0.00500169 0.
0.553983 0.00500148 0.
0.555984 0.00500129 0.
0.557984 0.00500114 0.
0.559985 0.005001 0.
0.561986 0.00500089 0.
0.563987 0.00500085 0.
0.565987 0.0050008 0.
0.567988 0.00500073 0.
0.569989 0.00500066 0.
0.57199 0.00500058 0.
0.57399 0.0050005 0.
0.57599 0.00500041 0.
0.577991 0.00500036 0.
0.579992 0.00500056 0.
0.581993 0.00500076 0.
0.583993 0.00500089 0.
0.585994 0.0050009 0.
0.587995 0.00500091 0.
0.589996 0.00500098 0.
0.591997 0.00500109 0.
0.593998 0.00500121 0.
0.595999 0.00500113 0.
0.598 0.005001 0.
0.600002 0.00500086 0.
0.602003 0.00500078 0.
0.604004 0.0050007 0.
0.606005 0.00500059 0.
0.608005 0.00500039 0.
0.610006 0.00500019 0.
0.612007 0.00500014 0.
0.614007 0.00500029 0.
0.616007 0.00500043 0.
0.618008 0.00500058 0.
0.620009 0.00500072 0.
0.62201 0.00500087 0.
0.62401 0.00500093 0.
0.626011 0.00500098 0.
0.628012 0.00500101 0.
0.630013 0.00500098 0.
0.632014 0.00500096 0.
0.634014 0.00500089 0.
0.636015 0.00500073 0.
0.638016 0.00500058 0.
0.640017 0.00500067 0.
0.642017 0.00500096 0.
0.644018 0.00500125 0.
0.646019 0.00500156 0.
0.64802 0.00500188 0.
0.650021 0.00500218 0.
0.652022 0.00500168 0.
0.654023 0.00500117 0.
0.656024 0.00500081 0.
0.658024 0.00500091 0.
0.660025 0.00500101 0.
0.662026 0.00500121 0.
0.664027 0.00500152 0.
0.666028 0.00500183 0.
0.668029 0.00500192 0.
0.670029 0.00500191 0.
0.67203 0.0050019 0.
0.674031 0.00500169 0.
0.676032 0.00500145 0.
0.678033 0.00500123 0.
0.680034 0.00500105 0.
0.682035 0.00500088 0.
0.684037 0.00500078 0.
0.686038 0.00500078 0.
0.688039 0.00500078 0.
0.690041 0.00500086 0.
0.692042 0.00500098 0.
0.694043 0.0050011 0.
0.696044 0.00500123 0.
0.698046 0.00500136 0.
0.499956 0.00700299 0.
0.501957 0.00700264 0.
0.503958 0.00700229 0.
0.505959 0.00700204 0.
0.50796 0.00700219 0.
0.509961 0.00700234 0.
0.511962 0.00700245 0.
0.513963 0.00700251 0.
0.515964 0.00700256 0.
0.517965 0.00700261 0.
0.519966 0.00700265 0.
0.521967 0.00700268 0.
0.523968 0.0070028 0.
0.525969 0.00700293 0.
0.52797 0.00700303 0.
0.529971 0.00700299 0.
0.531972 0.00700294 0.
0.533973 0.00700287 0.
0.535974 0.00700273 0.
0.537975 0.0070026 0.
0.539976 0.00700254 0.
0.541977 0.00700256 0.
0.543978 0.00700257 0.
0.545979 0.00700265 0.
0.54798 0.00700274 0.
0.549981 0.00700283 0.
0.551982 0.00700286 0.
0.553983 0.00700288 0.
0.555984 0.00700284 0.
0.557984 0.00700256 0.
0.559985 0.00700229 0.
0.561986 0.00700211 0.
0.563987 0.00700205 0.
0.565987 0.00700198 0.
0.567988 0.00700191 0.
0.569989 0.00700182 0.
0.57199 0.00700174 0.
0.57399 0.00700166 0.
0.57599 0.00700158 0.
0.577991 0.00700153 0.
0.579992 0.00700166 0.
0.581993 0.00700179 0.
0.583993 0.00700192 0.
0.585994 0.00700205 0.
0.587995 0.00700218 0.
0.589996 0.00700228 0.
0.591997 0.00700234 0.
0.593997 0.0070024 0.
0.595999 0.00700237 0.
0.598 0.0070023 0.
0.600001 0.00700223 0.
0.602003 0.0070022 0.
0.604004 0.00700217 0.
0.606005 0.0070021 0.
0.608006 0.00700189 0.
0.610006 0.00700168 0.
0.612007 0.00700157 0.
0.614007 0.00700158 0.
0.616008 0.00700159 0.
0.618008 0.00700167 0.
0.620009 0.00700179 0.
0.62201 0.00700191 0.
0.62401 0.00700201 0.
0.626011 0.0070021 0.
0.628012 0.00700219 0.
0.630013 0.00700217 0.
0.632014 0.00700216 0.
0.634014 0.00700214 0.
0.636015 0.00700212 0.
0.638016 0.0070021 0.
0.640017 0.00700226 0.
0.642017 0.00700255 0.
0.644018 0.00700285 0.
0.646019 0.00700294 0.
0.64802 0.00700297 0.
0.650021 0.00700299 0.
0.652022 0.0070028 0.
0.654023 0.00700261 0.
0.656024 0.00700248 0.
0.658024 0.00700255 0.
0.660025 0.00700262 0.
0.662026 0.00700271 0.
0.664027 0.00700282 0.
0.666028 0.00700294 0.
0.668028 0.00700297 0.
0.670029 0.00700297 0.
0.67203 0.00700297 0.
0.674031 0.00700293 0.
0.676032 0.00700288 0.
0.678033 0.00700282 0.
0.680034 0.00700276 0.
0.682035 0.0070027 0.
0.684036 0.00700258 0.
0.686038 0.00700235 0.
0.688039 0.00700212 0.
0.69004 0.00700207 0.
0.692042 0.00700214 0.
0.694043 0.00700221 0.
0.696044 0.00700228 0.
0.698045 0.00700235 0.
0.499956 0.00900469 0.
0.501957 0.00900413 0.
0.503958 0.00900358 0.
0.505959 0.00900319 0.
0.50796 0.00900344 0.
0.509961 0.00900368 0.
0.511962 0.00900393 0.
0.513963 0.00900416 0.
0.515964 0.00900439 0.
0.517965 0.00900438 0.
0.519966 0.00900424 0.
0.521968 0.0090041 0.
0.523969 0.00900406 0.
0.52597 0.00900402 0.
0.527971 0.00900399 0.
0.529971 0.00900398 0.
0.531972 0.00900398 0.
0.533973 0.00900397 0.
0.535974 0.00900396 0.
0.537975 0.00900395 0.
0.539976 0.0090039 0.
0.541977 0.0090038 0.
0.543978 0.0090037 0.
0.545979 0.0090037 0.
0.54798 0.00900373 0.
0.549981 0.00900376 0.
0.551982 0.00900402 0.
0.553983 0.00900428 0.
0.555984 0.00900439 0.
0.557984 0.00900399 0.
0.559985 0.00900358 0.
0.561986 0.00900332 0.
0.563987 0.00900324 0.
0.565987 0.00900317 0.
0.567988 0.00900308 0.
0.569989 0.00900299 0.
0.571989 0.0090029 0.
0.57399 0.00900282 0.
0.57599 0.00900275 0.
0.577991 0.0090027 0.
0.579991 0.00900276 0.
0.581992 0.00900282 0.
0.583993 0.00900295 0.
0.585994 0.0090032 0.
0.587995 0.00900346 0.
0.589995 0.00900358 0.
0.591996 0.00900358 0.
0.593997 0.00900359 0.
0.595998 0.0090036 0.
0.598 0.0090036 0.
0.600001 0.00900361 0.
0.602003 0.00900362 0.
0.604004 0.00900364 0.
0.606005 0.0090036 0.
0.608006 0.00900339 0.
0.610006 0.00900318 0.
0.612007 0.009003 0.
0.614007 0.00900287 0.
0.616008 0.00900275 0.
0.618008 0.00900277 0.
0.620009 0.00900286 0.
0.62201 0.00900296 0.
0.624011 0.00900309 0.
0.626011 0.00900323 0.
0.628012 0.00900336 0.
0.630013 0.00900336 0.
0.632013 0.00900336 0.
0.634014 0.0090034 0.
0.636015 0.00900351 0.
0.638016 0.00900362 0.
0.640017 0.00900384 0.
0.642017 0.00900415 0.
0.644018 0.00900446 0.
0.646019 0.00900432 0.
0.64802 0.00900406 0.
0.650021 0.0090038 0.
0.652022 0.00900392 0.
0.654023 0.00900405 0.
0.656024 0.00900415 0.
0.658024 0.00900419 0.
0.660025 0.00900422 0.
0.662026 0.00900421 0.
0.664027 0.00900413 0.
0.666027 0.00900404 0.
0.668028 0.00900402 0.
0.670029 0.00900403 0.
0.67203 0.00900404 0.
0.674031 0.00900417 0.
0.676032 0.0090043 0.
0.678033 0.00900441 0.
0.680034 0.00900446 0.
0.682035 0.00900451 0.
0.684036 0.00900438 0.
0.686038 0.00900392 0.
0.688039 0.00900346 0.
0.69004 0.00900328 0.
0.692041 0.00900329 0.
0.694042 0.00900331 0.
0.696044 0.00900332 0.
0.698045 0.00900333 0.
0.499957 0.0110056 0.
0.501957 0.011005 0.
0.503958 0.0110044 0.
0.505959 0.011004 0.
0.50796 0.0110043 0.
0.509961 0.0110046 0.
0.511962 0.0110048 0.
0.513963 0.0110051 0.
0.515964 0.0110053 0.
0.517965 0.0110053 0.
0.519967 0.0110052 0.
0.521968 0.0110051 0.
0.523969 0.011005 0.
0.52597 0.0110049 0.
0.527971 0.0110048 0.
0.529972 0.0110048 0.
0.531973 0.0110047 0.
0.533973 0.0110047 0.
0.535974 0.0110047 0.
0.537975 0.0110047 0.
0.539976 0.0110046 0.
0.541977 0.0110046 0.
0.543978 0.0110046 0.
0.545979 0.0110046 0.
0.54798 0.0110045 0.
0.549981 0.0110045 0.
0.551982 0.0110048 0.
0.553983 0.0110051 0.
0.555984 0.0110052 0.
0.557984 0.0110048 0.
0.559985 0.0110044 0.
0.561986 0.0110042 0.
0.563987 0.0110041 0.
0.565987 0.011004 0.
0.567988 0.0110038 0.
0.569989 0.0110036 0.
0.571989 0.0110035 0.
0.57399 0.0110034 0.
0.57599 0.0110034 0.
0.57799 0.0110033 0.
0.579991 0.0110034 0.
0.581992 0.0110035 0.
0.583993 0.0110036 0.
0.585994 0.0110038 0.
0.587995 0.0110041 0.
0.589995 0.0110042 0.
0.591996 0.0110043 0.
0.593997 0.0110044 0.
0.595998 0.0110045 0.
0.598 0.0110045 0.
0.600001 0.0110045 0.
0.602003 0.0110045 0.
0.604004 0.0110044 0.
0.606005 0.0110044 0.
0.608006 0.0110042 0.
0.610007 0.0110039 0.
0.612007 0.0110037 0.
0.614007 0.0110036 0.
0.616008 0.0110034 0.
0.618008 0.0110034 0.
0.620009 0.0110035 0.
0.62201 0.0110035 0.
0.624011 0.0110037 0.
0.626011 0.0110038 0.
0.628012 0.011004 0.
0.630013 0.0110041 0.
0.632014 0.0110042 0.
0.634014 0.0110043 0.
0.636015 0.0110045 0.
0.638016 0.0110046 0.
0.640017 0.0110048 0.
0.642017 0.0110051 0.
0.644018 0.0110053 0.
0.646019 0.0110051 0.
0.648019 0.0110049 0.
0.65002 0.0110046 0.
0.652021 0.0110048 0.
0.654023 0.0110049 0.
0.656024 0.011005 0.
0.658024 0.011005 0.
0.660025 0.011005 0.
0.662026 0.011005 0.
0.664026 0.0110049 0.
0.666027 0.0110049 0.
0.668028 0.0110049 0.
0.670029 0.0110049 0.
0.67203 0.0110049 0.
0.674031 0.0110051 0.
0.676032 0.0110052 0.
0.678033 0.0110053 0.
0.680034 0.0110054 0.
0.682035 0.0110054 0.
0.684036 0.0110053 0.
0.686037 0.0110048 0.
0.688039 0.0110043 0.
0.69004 0.0110041 0.
0.692041 0.0110041 0.
0.694042 0.0110041 0.
0.696044 0.0110041 0.
0.698045 0.0110041 0.
0.499957 0.0130057 0.
0.501958 0.0130053 0.
0.503958 0.0130049 0.
0.505959 0.0130046 0.
0.50796 0.0130048 0.
0.509962 0.013005 0.
0.511963 0.0130052 0.
0.513964 0.0130053 0.
0.515965 0.0130054 0.
0.517966 0.0130055 0.
0.519967 0.0130055 0.
0.521968 0.0130056 0.
0.523969 0.0130056 0.
0.52597 0.0130055 0.
0.527972 0.0130055 0.
0.529972 0.0130054 0.
0.531973 0.0130052 0.
0.533974 0.0130051 0.
0.535975 0.0130049 0.
0.537975 0.0130048 0.
0.539976 0.0130048 0.
0.541977 0.013005 0.
0.543978 0.0130052 0.
0.545979 0.0130052 0.
0.54798 0.0130052 0.
0.549981 0.0130051 0.
0.551982 0.0130053 0.
0.553983 0.0130054 0.
0.555984 0.0130054 0.
0.557984 0.0130051 0.
0.559985 0.0130048 0.
0.561986 0.0130046 0.
0.563986 0.0130045 0.
0.565987 0.0130043 0.
0.567988 0.0130041 0.
0.569989 0.0130038 0.
0.57199 0.0130035 0.
0.57399 0.0130035 0.
0.57599 0.0130035 0.
0.57799 0.0130035 0.
0.579991 0.0130036 0.
0.581992 0.0130038 0.
0.583993 0.0130039 0.
0.585993 0.013004 0.
0.587994 0.0130041 0.
0.589995 0.0130043 0.
0.591996 0.0130046 0.
0.593997 0.0130049 0.
0.595998 0.013005 0.
0.598 0.013005 0.
0.600001 0.013005 0.
0.602002 0.0130048 0.
0.604004 0.0130046 0.
0.606005 0.0130044 0.
0.608006 0.0130042 0.
0.610007 0.013004 0.
0.612007 0.0130038 0.
0.614008 0.0130037 0.
0.616008 0.0130036 0.
0.618009 0.0130036 0.
0.620009 0.0130036 0.
0.62201 0.0130036 0.
0.624011 0.0130038 0.
0.626011 0.0130039 0.
0.628012 0.0130041 0.
0.630013 0.0130044 0.
0.632014 0.0130047 0.
0.634015 0.0130049 0.
0.636015 0.013005 0.
0.638016 0.0130051 0.
0.640017 0.0130052 0.
0.642017 0.0130053 0.
0.644018 0.0130054 0.
0.646018 0.0130054 0.
0.648019 0.0130054 0.
0.65002 0.0130054 0.
0.652021 0.0130053 0.
0.654022 0.0130052 0.
0.656023 0.0130051 0.
0.658024 0.0130051 0.
0.660025 0.013005 0.
0.662025 0.013005 0.
0.664026 0.0130052 0.
0.666027 0.0130055 0.
0.668028 0.0130056 0.
0.670028 0.0130056 0.
0.672029 0.0130056 0.
0.67403 0.0130056 0.
0.676031 0.0130056 0.
0.678032 0.0130056 0.
0.680033 0.0130055 0.
0.682034 0.0130054 0.
0.684036 0.0130052 0.
0.686037 0.013005 0.
0.688038 0.0130047 0.
0.69004 0.0130046 0.
0.692041 0.0130046 0.
0.694042 0.0130046 0.
0.696043 0.0130046 0.
0.698045 0.0130046 0.
0.499957 0.0150057 0.
0.501958 0.0150055 0.
0.503958 0.0150053 0.
0.505959 0.0150052 0.
0.507961 0.0150053 0.
0.509962 0.0150055 0.
0.511963 0.0150055 0.
0.513964 0.0150055 0.
0.515965 0.0150055 0.
0.517966 0.0150056 0.
0.519967 0.0150059 0.
0.521968 0.0150061 0.
0.52397 0.0150062 0.
0.525971 0.0150062 0.
0.527972 0.0150062 0.
0.529973 0.0150059 0.
0.531974 0.0150057 0.
0.533974 0.0150054 0.
0.535975 0.0150051 0.
0.537976 0.0150048 0.
0.539977 0.0150049 0.
0.541978 0.0150054 0.
0.543978 0.0150058 0.
0.545979 0.0150059 0.
0.547981 0.0150058 0.
0.549982 0.0150057 0.
0.551982 0.0150057 0.
0.553983 0.0150056 0.
0.555984 0.0150056 0.
0.557984 0.0150054 0.
0.559985 0.0150053 0.
0.561986 0.0150051 0.
0.563986 0.0150049 0.
0.565987 0.0150047 0.
0.567988 0.0150044 0.
0.569989 0.0150039 0.
0.57199 0.0150035 0.
0.57399 0.0150035 0.
0.57599 0.0150035 0.
0.57799 0.0150036 0.
0.579991 0.0150038 0.
0.581991 0.015004 0.
0.583992 0.0150042 0.
0.585993 0.0150041 0.
0.587994 0.0150041 0.
0.589995 0.0150043 0.
0.591996 0.0150048 0.
0.593997 0.0150053 0.
0.595999 0.0150054 0.
0.598 0.0150054 0.
0.600001 0.0150054 0.
0.602002 0.0150051 0.
0.604004 0.0150047 0.
0.606005 0.0150044 0.
0.608006 0.0150042 0.
0.610007 0.015004 0.
0.612007 0.0150039 0.
0.614008 0.0150038 0.
0.616008 0.0150038 0.
0.618009 0.0150038 0.
0.620009 0.0150037 0.
0.62201 0.0150037 0.
0.624011 0.0150038 0.
0.626011 0.015004 0.
0.628012 0.0150041 0.
0.630013 0.0150047 0.
0.632014 0.0150052 0.
0.634015 0.0150055 0.
0.636016 0.0150055 0.
0.638016 0.0150055 0.
0.640017 0.0150055 0.
0.642017 0.0150055 0.
0.644018 0.0150055 0.
0.646018 0.0150057 0.
0.648019 0.0150059 0.
0.650019 0.0150061 0.
0.652021 0.0150058 0.
0.654022 0.0150055 0.
0.656023 0.0150053 0.
0.658023 0.0150051 0.
0.660024 0.0150049 0.
0.662025 0.0150051 0.
0.664026 0.0150056 0.
0.666026 0.0150061 0.
0.668027 0.0150062 0.
0.670028 0.0150063 0.
0.672029 0.0150063 0.
0.67403 0.0150062 0.
0.676031 0.0150061 0.
0.678032 0.0150059 0.
0.680033 0.0150056 0.
0.682034 0.0150054 0.
0.684035 0.0150052 0.
0.686037 0.0150052 0.
0.688038 0.0150051 0.
0.690039 0.0150051 0.
0.692041 0.0150051 0.
0.694042 0.015005 0.
0.696043 0.0150051 0.
0.698045 0.0150051 0.
0.499957 0.0170072 0.
0.501958 0.0170068 0.
0.503959 0.0170064 0.
0.50596 0.0170062 0.
0.507961 0.0170064 0.
0.509962 0.0170066 0.
0.511963 0.0170067 0.
0.513964 0.0170068 0.
0.515966 0.0170068 0.
0.517967 0.0170069 0.
0.519968 0.017007 0.
0.521969 0.0170071 0.
0.52397 0.0170071 0.
0.525971 0.0170071 0.
0.527972 0.017007 0.
0.529973 0.0170069 0.
0.531974 0.0170068 0.
0.533975 0.0170067 0.
0.535976 0.0170065 0.
0.537977 0.0170062 0.
0.539977 0.0170063 0.
0.541978 0.0170065 0.
0.543979 0.0170067 0.
0.54598 0.0170068 0.
0.547981 0.0170068 0.
0.549982 0.0170069 0.
0.551983 0.0170069 0.
0.553983 0.0170069 0.
0.555984 0.0170068 0.
0.557985 0.0170066 0.
0.559986 0.0170063 0.
0.561986 0.0170061 0.
0.563987 0.0170059 0.
0.565987 0.0170057 0.
0.567988 0.0170055 0.
0.569989 0.0170052 0.
0.57199 0.0170049 0.
0.57399 0.0170048 0.
0.57599 0.0170047 0.
0.57799 0.0170046 0.
0.579991 0.0170049 0.
0.581991 0.0170052 0.
0.583992 0.0170053 0.
0.585993 0.0170052 0.
0.587994 0.017005 0.
0.589995 0.0170051 0.
0.591996 0.0170054 0.
0.593997 0.0170057 0.
0.595998 0.0170057 0.
0.597999 0.0170056 0.
0.600001 0.0170056 0.
0.602002 0.0170053 0.
0.604004 0.0170051 0.
0.606005 0.0170049 0.
0.608006 0.0170049 0.
0.610007 0.0170048 0.
0.612007 0.0170049 0.
0.614008 0.017005 0.
0.616008 0.0170051 0.
0.618009 0.0170051 0.
0.620009 0.0170049 0.
0.62201 0.0170048 0.
0.624011 0.017005 0.
0.626011 0.0170053 0.
0.628012 0.0170055 0.
0.630013 0.0170057 0.
0.632014 0.017006 0.
0.634014 0.0170062 0.
0.636015 0.0170064 0.
0.638016 0.0170066 0.
0.640016 0.0170068 0.
0.642017 0.017007 0.
0.644017 0.0170072 0.
0.646018 0.0170072 0.
0.648019 0.0170071 0.
0.650019 0.0170071 0.
0.65202 0.0170069 0.
0.654021 0.0170067 0.
0.656022 0.0170066 0.
0.658023 0.0170065 0.
0.660024 0.0170065 0.
0.662025 0.0170065 0.
0.664025 0.0170068 0.
0.666026 0.017007 0.
0.668027 0.0170071 0.
0.670028 0.0170071 0.
0.672029 0.0170071 0.
0.67403 0.0170071 0.
0.676031 0.0170071 0.
0.678032 0.017007 0.
0.680033 0.017007 0.
0.682034 0.0170069 0.
0.684035 0.0170068 0.
0.686037 0.0170065 0.
0.688038 0.0170063 0.
0.690039 0.0170062 0.
0.692041 0.0170061 0.
0.694042 0.0170061 0.
0.696043 0.0170061 0.
0.698045 0.0170061 0.
0.499958 0.0190086 0.
0.501959 0.0190081 0.
0.503959 0.0190076 0.
0.50596 0.0190072 0.
0.507961 0.0190074 0.
0.509962 0.0190077 0.
0.511964 0.0190079 0.
0.513965 0.019008 0.
0.515966 0.0190081 0.
0.517967 0.0190082 0.
0.519968 0.0190082 0.
0.521969 0.0190081 0.
0.52397 0.0190081 0.
0.525972 0.019008 0.
0.527973 0.0190079 0.
0.529974 0.0190079 0.
0.531975 0.0190079 0.
0.533975 0.0190079 0.
0.535976 0.0190078 0.
0.537977 0.0190077 0.
0.539978 0.0190076 0.
0.541979 0.0190076 0.
0.543979 0.0190075 0.
0.54598 0.0190077 0.
0.547981 0.0190079 0.
0.549982 0.0190081 0.
0.551983 0.0190081 0.
0.553984 0.0190081 0.
0.555984 0.0190081 0.
0.557985 0.0190077 0.
0.559986 0.0190074 0.
0.561987 0.0190071 0.
0.563987 0.0190069 0.
0.565988 0.0190068 0.
0.567988 0.0190066 0.
0.569989 0.0190065 0.
0.57199 0.0190063 0.
0.57399 0.0190061 0.
0.57599 0.0190059 0.
0.57799 0.0190057 0.
0.57999 0.019006 0.
0.581991 0.0190063 0.
0.583992 0.0190065 0.
0.585993 0.0190062 0.
0.587994 0.0190059 0.
0.589995 0.0190059 0.
0.591996 0.019006 0.
0.593997 0.019006 0.
0.595998 0.019006 0.
0.597999 0.0190058 0.
0.600001 0.0190057 0.
0.602002 0.0190056 0.
0.604004 0.0190054 0.
0.606005 0.0190054 0.
0.608006 0.0190055 0.
0.610007 0.0190057 0.
0.612008 0.0190059 0.
0.614008 0.0190062 0.
0.616008 0.0190065 0.
0.618009 0.0190064 0.
0.620009 0.0190061 0.
0.62201 0.0190058 0.
0.624011 0.0190062 0.
0.626011 0.0190066 0.
0.628012 0.0190069 0.
0.630012 0.0190068 0.
0.632013 0.0190068 0.
0.634014 0.0190069 0.
0.636014 0.0190072 0.
0.638015 0.0190076 0.
0.640016 0.019008 0.
0.642016 0.0190084 0.
0.644017 0.0190088 0.
0.646018 0.0190086 0.
0.648018 0.0190083 0.
0.650019 0.019008 0.
0.65202 0.019008 0.
0.654021 0.0190079 0.
0.656022 0.0190079 0.
0.658023 0.019008 0.
0.660023 0.019008 0.
0.662024 0.019008 0.
0.664025 0.019008 0.
0.666026 0.0190079 0.
0.668027 0.0190079 0.
0.670027 0.0190079 0.
0.672028 0.019008 0.
0.674029 0.019008 0.
0.67603 0.0190081 0.
0.678031 0.0190082 0.
0.680032 0.0190083 0.
0.682034 0.0190084 0.
0.684035 0.0190083 0.
0.686036 0.0190079 0.
0.688038 0.0190075 0.
0.690039 0.0190073 0.
0.692041 0.0190072 0.
0.694042 0.0190071 0.
0.696043 0.0190071 0.
0.698044 0.0190071 0.
0.499958 0.0210093 0.
0.501959 0.0210089 0.
0.50396 0.0210083 0.
0.505961 0.021008 0.
0.507962 0.0210082 0.
0.509963 0.0210084 0.
0.511964 0.0210086 0.
0.513965 0.0210087 0.
0.515966 0.0210088 0.
0.517967 0.0210088 0.
0.519968 0.0210088 0.
0.521969 0.0210087 0.
0.523971 0.0210087 0.
0.525972 0.0210086 0.
0.527973 0.0210085 0.
0.529974 0.0210085 0.
0.531975 0.0210086 0.
0.533976 0.0210086 0.
0.535977 0.0210085 0.
0.537977 0.0210084 0.
0.539978 0.0210083 0.
0.541979 0.0210082 0.
0.543979 0.0210081 0.
0.54598 0.0210083 0.
0.547981 0.0210085 0.
0.549982 0.0210088 0.
0.551983 0.0210088 0.
0.553984 0.0210088 0.
0.555984 0.0210088 0.
0.557985 0.0210085 0.
0.559986 0.0210082 0.
0.561987 0.0210079 0.
0.563987 0.0210077 0.
0.565988 0.0210074 0.
0.567989 0.0210073 0.
0.569989 0.0210072 0.
0.57199 0.021007 0.
0.57399 0.0210068 0.
0.57599 0.0210065 0.
0.57799 0.0210063 0.
0.579991 0.0210066 0.
0.581991 0.0210069 0.
0.583992 0.021007 0.
0.585993 0.0210068 0.
0.587994 0.0210066 0.
0.589995 0.0210064 0.
0.591996 0.0210064 0.
0.593997 0.0210064 0.
0.595998 0.0210063 0.
0.597999 0.0210062 0.
0.600001 0.021006 0.
0.602002 0.0210059 0.
0.604004 0.0210057 0.
0.606005 0.0210057 0.
0.608006 0.021006 0.
0.610007 0.0210063 0.
0.612007 0.0210065 0.
0.614008 0.0210068 0.
0.616008 0.021007 0.
0.618009 0.0210069 0.
0.620009 0.0210066 0.
0.62201 0.0210064 0.
0.62401 0.0210067 0.
0.626011 0.0210071 0.
0.628011 0.0210075 0.
0.630012 0.0210075 0.
0.632013 0.0210074 0.
0.634014 0.0210076 0.
0.636014 0.021008 0.
0.638015 0.0210084 0.
0.640016 0.0210089 0.
0.642016 0.0210092 0.
0.644017 0.0210096 0.
0.646018 0.0210094 0.
0.648018 0.0210091 0.
0.650019 0.0210087 0.
0.65202 0.0210086 0.
0.654021 0.0210085 0.
0.656022 0.0210084 0.
0.658023 0.0210086 0.
0.660023 0.0210087 0.
0.662024 0.0210087 0.
0.664025 0.0210086 0.
0.666026 0.0210086 0.
0.668026 0.0210085 0.
0.670027 0.0210086 0.
0.672028 0.0210086 0.
0.674029 0.0210086 0.
0.67603 0.0210087 0.
0.678031 0.0210088 0.
0.680032 0.0210089 0.
0.682034 0.021009 0.
0.684035 0.021009 0.
0.686036 0.0210086 0.
0.688038 0.0210082 0.
0.690039 0.021008 0.
0.69204 0.021008 0.
0.694042 0.021008 0.
0.696043 0.021008 0.
0.698044 0.0210081 0.
0.499958 0.0230094 0.
0.501959 0.0230091 0.
0.50396 0.0230087 0.
0.505961 0.0230084 0.
0.507962 0.0230086 0.
0.509963 0.0230088 0.
0.511965 0.0230089 0.
0.513966 0.0230088 0.
0.515967 0.0230088 0.
0.517968 0.0230088 0.
0.519969 0.0230089 0.
0.52197 0.0230089 0.
0.523971 0.0230089 0.
0.525972 0.0230088 0.
0.527973 0.0230088 0.
0.529974 0.0230088 0.
0.531975 0.0230088 0.
0.533976 0.0230088 0.
0.535977 0.0230087 0.
0.537977 0.0230086 0.
0.539978 0.0230085 0.
0.541979 0.0230085 0.
0.543979 0.0230084 0.
0.54598 0.0230086 0.
0.547981 0.0230088 0.
0.549982 0.023009 0.
0.551983 0.023009 0.
0.553984 0.023009 0.
0.555984 0.023009 0.
0.557985 0.0230088 0.
0.559986 0.0230087 0.
0.561986 0.0230084 0.
0.563987 0.0230081 0.
0.565988 0.0230078 0.
0.567989 0.0230075 0.
0.56999 0.0230073 0.
0.57199 0.0230071 0.
0.57399 0.0230068 0.
0.57599 0.0230065 0.
0.57799 0.0230063 0.
0.579991 0.0230066 0.
0.581992 0.0230068 0.
0.583993 0.0230069 0.
0.585993 0.0230069 0.
0.587994 0.0230068 0.
0.589995 0.0230068 0.
0.591996 0.0230067 0.
0.593997 0.0230067 0.
0.595998 0.0230066 0.
0.598 0.0230066 0.
0.600001 0.0230066 0.
0.602002 0.0230063 0.
0.604004 0.023006 0.
0.606005 0.0230059 0.
0.608006 0.0230062 0.
0.610007 0.0230065 0.
0.612007 0.0230067 0.
0.614007 0.0230067 0.
0.616008 0.0230067 0.
0.618008 0.0230066 0.
0.620009 0.0230065 0.
0.622009 0.0230064 0.
0.62401 0.0230066 0.
0.626011 0.0230069 0.
0.628011 0.0230072 0.
0.630012 0.0230076 0.
0.632013 0.0230079 0.
0.634014 0.0230083 0.
0.636015 0.0230087 0.
0.638015 0.023009 0.
0.640016 0.0230093 0.
0.642017 0.0230094 0.
0.644017 0.0230096 0.
0.646018 0.0230095 0.
0.648019 0.0230094 0.
0.650019 0.0230093 0.
0.65202 0.0230089 0.
0.654021 0.0230085 0.
0.656022 0.0230082 0.
0.658023 0.0230084 0.
0.660023 0.0230085 0.
0.662024 0.0230087 0.
0.664025 0.0230088 0.
0.666026 0.0230089 0.
0.668026 0.0230089 0.
0.670027 0.0230089 0.
0.672028 0.023009 0.
0.674029 0.0230089 0.
0.67603 0.0230089 0.
0.678031 0.0230089 0.
0.680032 0.0230088 0.
0.682033 0.0230087 0.
0.684035 0.0230086 0.
0.686036 0.0230085 0.
0.688038 0.0230083 0.
0.690039 0.0230083 0.
0.69204 0.0230085 0.
0.694042 0.0230086 0.
0.696043 0.0230088 0.
0.698044 0.023009 0.
0.499959 0.0250094 0.
0.501959 0.0250092 0.
0.50396 0.0250091 0.
0.505961 0.0250089 0.
0.507963 0.025009 0.
0.509964 0.0250091 0.
0.511965 0.0250091 0.
0.513966 0.025009 0.
0.515967 0.0250088 0.
0.517968 0.0250089 0.
0.519969 0.025009 0.
0.52197 0.0250092 0.
0.523971 0.0250092 0.
0.525972 0.0250091 0.
0.527973 0.0250091 0.
0.529974 0.025009 0.
0.531975 0.025009 0.
0.533976 0.0250089 0.
0.535976 0.0250088 0.
0.537977 0.0250087 0.
0.539978 0.0250087 0.
0.541979 0.0250087 0.
0.543979 0.0250088 0.
0.54598 0.0250089 0.
0.547981 0.0250091 0.
0.549982 0.0250092 0.
0.551983 0.0250092 0.
0.553983 0.0250092 0.
0.555984 0.0250092 0.
0.557985 0.0250092 0.
0.559985 0.0250091 0.
0.561986 0.0250089 0.
0.563987 0.0250085 0.
0.565988 0.0250081 0.
0.567989 0.0250078 0.
0.56999 0.0250074 0.
0.571991 0.0250071 0.
0.573991 0.0250068 0.
0.575991 0.0250066 0.
0.577991 0.0250064 0.
0.579992 0.0250066 0.
0.581992 0.0250067 0.
0.583993 0.0250069 0.
0.585994 0.025007 0.
0.587994 0.0250071 0.
0.589995 0.0250071 0.
0.591996 0.025007 0.
0.593997 0.025007 0.
0.595998 0.025007 0.
0.598 0.0250071 0.
0.600001 0.0250072 0.
0.602003 0.0250068 0.
0.604004 0.0250063 0.
0.606005 0.0250061 0.
0.608006 0.0250065 0.
0.610006 0.0250068 0.
0.612007 0.0250069 0.
0.614007 0.0250067 0.
0.616007 0.0250064 0.
0.618008 0.0250064 0.
0.620008 0.0250064 0.
0.622009 0.0250064 0.
0.62401 0.0250066 0.
0.62601 0.0250068 0.
0.628011 0.025007 0.
0.630012 0.0250077 0.
0.632013 0.0250085 0.
0.634014 0.025009 0.
0.636015 0.0250093 0.
0.638016 0.0250096 0.
0.640016 0.0250097 0.
0.642017 0.0250096 0.
0.644018 0.0250096 0.
0.646018 0.0250096 0.
0.648019 0.0250097 0.
0.65002 0.0250098 0.
0.652021 0.0250091 0.
0.654021 0.0250084 0.
0.656022 0.0250079 0.
0.658023 0.0250082 0.
0.660024 0.0250084 0.
0.662024 0.0250086 0.
0.664025 0.0250089 0.
0.666026 0.0250092 0.
0.668026 0.0250093 0.
0.670027 0.0250093 0.
0.672028 0.0250093 0.
0.674029 0.0250092 0.
0.67603 0.0250091 0.
0.678031 0.025009 0.
0.680032 0.0250087 0.
0.682033 0.0250084 0.
0.684035 0.0250083 0.
0.686036 0.0250084 0.
0.688038 0.0250085 0.
0.690039 0.0250087 0.
0.69204 0.0250089 0.
0.694041 0.0250092 0.
0.696042 0.0250095 0.
0.698043 0.0250099 0.
0.499959 0.0270106 0.
0.50196 0.0270104 0.
0.503961 0.0270102 0.
0.505962 0.02701 0.
0.507963 0.0270099 0.
0.509964 0.0270098 0.
0.511966 0.0270097 0.
0.513967 0.0270096 0.
0.515968 0.0270096 0.
0.517968 0.0270097 0.
0.519969 0.0270098 0.
0.52197 0.0270099 0.
0.523971 0.0270098 0.
0.525972 0.0270098 0.
0.527973 0.0270097 0.
0.529974 0.0270098 0.
0.531975 0.0270099 0.
0.533976 0.0270099 0.
0.535977 0.0270099 0.
0.537978 0.0270098 0.
0.539979 0.0270098 0.
0.541979 0.0270098 0.
0.54398 0.0270097 0.
0.545981 0.0270099 0.
0.547982 0.02701 0.
0.549983 0.0270101 0.
0.551983 0.0270102 0.
0.553984 0.0270102 0.
0.555985 0.0270101 0.
0.557985 0.02701 0.
0.559986 0.0270098 0.
0.561987 0.0270095 0.
0.563988 0.0270092 0.
0.565988 0.0270089 0.
0.567989 0.0270085 0.
0.56999 0.0270081 0.
0.571991 0.0270077 0.
0.573991 0.0270075 0.
0.575991 0.0270073 0.
0.577991 0.0270071 0.
0.579992 0.0270073 0.
0.581992 0.0270074 0.
0.583993 0.0270075 0.
0.585993 0.0270074 0.
0.587994 0.0270073 0.
0.589995 0.0270072 0.
0.591996 0.0270072 0.
0.593997 0.0270072 0.
0.595999 0.0270072 0.
0.598 0.0270072 0.
0.600001 0.0270072 0.
0.602002 0.027007 0.
0.604004 0.0270068 0.
0.606005 0.0270067 0.
0.608005 0.0270068 0.
0.610006 0.0270068 0.
0.612007 0.0270069 0.
0.614007 0.0270071 0.
0.616007 0.0270073 0.
0.618008 0.0270072 0.
0.620008 0.0270071 0.
0.622009 0.027007 0.
0.624009 0.0270072 0.
0.62601 0.0270076 0.
0.628011 0.0270079 0.
0.630012 0.0270085 0.
0.632013 0.027009 0.
0.634014 0.0270095 0.
0.636014 0.0270099 0.
0.638015 0.0270102 0.
0.640016 0.0270104 0.
0.642016 0.0270105 0.
0.644017 0.0270105 0.
0.646018 0.0270105 0.
0.648018 0.0270104 0.
0.650019 0.0270104 0.
0.65202 0.02701 0.
0.654021 0.0270097 0.
0.656022 0.0270095 0.
0.658022 0.0270095 0.
0.660023 0.0270096 0.
0.662024 0.0270097 0.
0.664025 0.0270099 0.
0.666025 0.02701 0.
0.668026 0.02701 0.
0.670027 0.0270098 0.
0.672028 0.0270097 0.
0.674029 0.0270097 0.
0.67603 0.0270098 0.
0.678031 0.0270099 0.
0.680032 0.0270096 0.
0.682033 0.0270093 0.
0.684035 0.0270092 0.
0.686036 0.0270093 0.
0.688037 0.0270095 0.
0.690039 0.0270097 0.
0.69204 0.02701 0.
0.694041 0.0270102 0.
0.696042 0.0270106 0.
0.698043 0.0270111 0.
0.49996 0.0290118 0.
0.501961 0.0290116 0.
0.503962 0.0290113 0.
0.505963 0.029011 0.
0.507964 0.0290107 0.
0.509965 0.0290104 0.
0.511966 0.0290103 0.
0.513967 0.0290103 0.
0.515968 0.0290104 0.
0.517968 0.0290104 0.
0.519969 0.0290105 0.
0.52197 0.0290106 0.
0.523971 0.0290105 0.
0.525972 0.0290105 0.
0.527973 0.0290104 0.
0.529974 0.0290106 0.
0.531975 0.0290108 0.
0.533976 0.0290109 0.
0.535977 0.0290109 0.
0.537978 0.0290109 0.
0.539979 0.0290109 0.
0.54198 0.0290108 0.
0.54398 0.0290107 0.
0.545981 0.0290108 0.
0.547982 0.0290109 0.
0.549983 0.0290111 0.
0.551984 0.0290111 0.
0.553985 0.0290111 0.
0.555985 0.029011 0.
0.557986 0.0290107 0.
0.559987 0.0290104 0.
0.561987 0.0290102 0.
0.563988 0.0290099 0.
0.565989 0.0290096 0.
0.56799 0.0290092 0.
0.56999 0.0290088 0.
0.571991 0.0290083 0.
0.573991 0.0290081 0.
0.575991 0.029008 0.
0.577992 0.0290078 0.
0.579992 0.029008 0.
0.581992 0.0290081 0.
0.583993 0.0290081 0.
0.585993 0.0290078 0.
0.587994 0.0290074 0.
0.589995 0.0290073 0.
0.591996 0.0290074 0.
0.593998 0.0290074 0.
0.595999 0.0290074 0.
0.598 0.0290073 0.
0.600001 0.0290072 0.
0.602002 0.0290073 0.
0.604004 0.0290073 0.
0.606005 0.0290073 0.
0.608005 0.0290071 0.
0.610006 0.0290068 0.
0.612006 0.0290069 0.
0.614007 0.0290075 0.
0.616007 0.0290081 0.
0.618007 0.0290081 0.
0.620008 0.0290078 0.
0.622008 0.0290075 0.
0.624009 0.0290079 0.
0.62601 0.0290084 0.
0.62801 0.0290089 0.
0.630011 0.0290092 0.
0.632012 0.0290096 0.
0.634013 0.02901 0.
0.636014 0.0290104 0.
0.638014 0.0290109 0.
0.640015 0.0290112 0.
0.642016 0.0290113 0.
0.644017 0.0290114 0.
0.646017 0.0290113 0.
0.648018 0.0290111 0.
0.650019 0.0290109 0.
0.65202 0.029011 0.
0.65402 0.029011 0.
0.656021 0.029011 0.
0.658022 0.0290109 0.
0.660023 0.0290109 0.
0.662023 0.0290108 0.
0.664024 0.0290108 0.
0.666025 0.0290108 0.
0.668026 0.0290106 0.
0.670027 0.0290103 0.
0.672028 0.02901 0.
0.674029 0.0290103 0.
0.67603 0.0290106 0.
0.678031 0.0290108 0.
0.680032 0.0290105 0.
0.682033 0.0290102 0.
0.684034 0.0290101 0.
0.686036 0.0290103 0.
0.688037 0.0290105 0.
0.690038 0.0290107 0.
0.692039 0.029011 0.
0.694041 0.0290112 0.
0.696042 0.0290117 0.
0.698043 0.0290122 0.
0.49996 0.0310126 0.
0.501961 0.0310123 0.
0.503962 0.031012 0.
0.505963 0.0310118 0.
0.507964 0.0310114 0.
0.509965 0.0310111 0.
0.511966 0.0310109 0.
0.513967 0.031011 0.
0.515968 0.031011 0.
0.517969 0.0310111 0.
0.519969 0.0310111 0.
0.52197 0.0310111 0.
0.523971 0.0310111 0.
0.525972 0.0310109 0.
0.527973 0.0310109 0.
0.529974 0.031011 0.
0.531975 0.0310112 0.
0.533976 0.0310113 0.
0.535977 0.0310114 0.
0.537978 0.0310114 0.
0.539979 0.0310114 0.
0.54198 0.0310113 0.
0.54398 0.0310113 0.
0.545981 0.0310113 0.
0.547982 0.0310115 0.
0.549983 0.0310116 0.
0.551984 0.0310116 0.
0.553985 0.0310115 0.
0.555986 0.0310115 0.
0.557986 0.0310112 0.
0.559987 0.0310109 0.
0.561988 0.0310106 0.
0.563989 0.0310103 0.
0.565989 0.03101 0.
0.56799 0.0310096 0.
0.569991 0.0310091 0.
0.571991 0.0310086 0.
0.573991 0.0310084 0.
0.575992 0.0310083 0.
0.577992 0.0310081 0.
0.579992 0.0310083 0.
0.581992 0.0310084 0.
0.583993 0.0310083 0.
0.585994 0.0310079 0.
0.587994 0.0310076 0.
0.589995 0.0310074 0.
0.591997 0.0310075 0.
0.593998 0.0310076 0.
0.595999 0.0310075 0.
0.598 0.0310074 0.
0.600001 0.0310074 0.
0.602002 0.0310075 0.
0.604003 0.0310076 0.
0.606005 0.0310076 0.
0.608005 0.0310073 0.
0.610006 0.031007 0.
0.612006 0.0310071 0.
0.614006 0.0310077 0.
0.616007 0.0310084 0.
0.618007 0.0310084 0.
0.620008 0.0310081 0.
0.622008 0.0310078 0.
0.624009 0.0310081 0.
0.626009 0.0310086 0.
0.62801 0.0310091 0.
0.630011 0.0310095 0.
0.632012 0.03101 0.
0.634013 0.0310104 0.
0.636013 0.0310108 0.
0.638014 0.0310113 0.
0.640015 0.0310115 0.
0.642016 0.0310117 0.
0.644016 0.0310118 0.
0.646017 0.0310117 0.
0.648018 0.0310115 0.
0.650019 0.0310113 0.
0.65202 0.0310114 0.
0.654021 0.0310115 0.
0.656021 0.0310116 0.
0.658022 0.0310115 0.
0.660023 0.0310114 0.
0.662023 0.0310113 0.
0.664024 0.0310113 0.
0.666025 0.0310112 0.
0.668026 0.031011 0.
0.670028 0.0310107 0.
0.672029 0.0310104 0.
0.674029 0.0310107 0.
0.67603 0.0310111 0.
0.678031 0.0310114 0.
0.680032 0.0310111 0.
0.682033 0.0310109 0.
0.684034 0.0310108 0.
0.686035 0.031011 0.
0.688037 0.0310112 0.
0.690038 0.0310114 0.
0.692039 0.0310117 0.
0.69404 0.0310119 0.
0.696041 0.0310125 0.
0.698042 0.0310131 0.
0.499961 0.0330129 0.
0.501962 0.0330126 0.
0.503963 0.0330124 0.
0.505964 0.0330121 0.
0.507965 0.033012 0.
0.509966 0.0330118 0.
0.511967 0.0330117 0.
0.513967 0.0330117 0.
0.515968 0.0330117 0.
0.517969 0.0330116 0.
0.519969 0.0330116 0.
0.52197 0.0330116 0.
0.523971 0.0330114 0.
0.525972 0.0330113 0.
0.527973 0.0330111 0.
0.529974 0.0330112 0.
0.531975 0.0330113 0.
0.533976 0.0330113 0.
0.535977 0.0330112 0.
0.537978 0.0330112 0.
0.539979 0.0330112 0.
0.541979 0.0330113 0.
0.54398 0.0330114 0.
0.545981 0.0330115 0.
0.547982 0.0330116 0.
0.549983 0.0330116 0.
0.551984 0.0330116 0.
0.553985 0.0330116 0.
0.555986 0.0330115 0.
0.557986 0.0330113 0.
0.559987 0.0330111 0.
0.561988 0.0330108 0.
0.563989 0.0330104 0.
0.565989 0.03301 0.
0.56799 0.0330095 0.
0.569991 0.033009 0.
0.571991 0.0330084 0.
0.573992 0.0330083 0.
0.575992 0.0330082 0.
0.577992 0.0330081 0.
0.579993 0.0330081 0.
0.581993 0.0330082 0.
0.583993 0.0330082 0.
0.585994 0.0330079 0.
0.587995 0.0330077 0.
0.589996 0.0330076 0.
0.591997 0.0330076 0.
0.593998 0.0330076 0.
0.595999 0.0330076 0.
0.598 0.0330077 0.
0.600001 0.0330077 0.
0.602002 0.0330076 0.
0.604003 0.0330075 0.
0.606004 0.0330074 0.
0.608005 0.0330073 0.
0.610005 0.0330072 0.
0.612006 0.0330073 0.
0.614006 0.0330077 0.
0.616006 0.0330081 0.
0.618007 0.033008 0.
0.620007 0.0330079 0.
0.622008 0.0330077 0.
0.624008 0.0330079 0.
0.626009 0.0330082 0.
0.62801 0.0330086 0.
0.630011 0.0330094 0.
0.632012 0.0330102 0.
0.634013 0.0330108 0.
0.636013 0.0330111 0.
0.638014 0.0330114 0.
0.640015 0.0330115 0.
0.642016 0.0330115 0.
0.644016 0.0330116 0.
0.646017 0.0330115 0.
0.648018 0.0330115 0.
0.650019 0.0330114 0.
0.65202 0.0330114 0.
0.654021 0.0330113 0.
0.656022 0.0330113 0.
0.658023 0.0330113 0.
0.660023 0.0330112 0.
0.662024 0.0330113 0.
0.664025 0.0330113 0.
0.666026 0.0330114 0.
0.668027 0.0330113 0.
0.670028 0.033011 0.
0.672029 0.0330108 0.
0.674029 0.0330111 0.
0.67603 0.0330114 0.
0.678031 0.0330117 0.
0.680032 0.0330115 0.
0.682033 0.0330113 0.
0.684034 0.0330112 0.
0.686035 0.0330114 0.
0.688036 0.0330116 0.
0.690037 0.0330119 0.
0.692038 0.0330121 0.
0.69404 0.0330123 0.
0.69604 0.033013 0.
0.698041 0.0330138 0.
0.499961 0.0350132 0.
0.501962 0.0350129 0.
0.503963 0.0350127 0.
0.505964 0.0350125 0.
0.507965 0.0350125 0.
0.509966 0.0350125 0.
0.511967 0.0350125 0.
0.513967 0.0350124 0.
0.515968 0.0350123 0.
0.517969 0.0350122 0.
0.519969 0.0350121 0.
0.52197 0.035012 0.
0.523971 0.0350118 0.
0.525972 0.0350116 0.
0.527973 0.0350114 0.
0.529974 0.0350113 0.
0.531975 0.0350113 0.
0.533976 0.0350112 0.
0.535977 0.0350111 0.
0.537978 0.035011 0.
0.539978 0.0350111 0.
0.541979 0.0350113 0.
0.54398 0.0350116 0.
0.54598 0.0350116 0.
0.547981 0.0350116 0.
0.549982 0.0350117 0.
0.551983 0.0350116 0.
0.553984 0.0350116 0.
0.555985 0.0350115 0.
0.557986 0.0350114 0.
0.559987 0.0350114 0.
0.561988 0.0350111 0.
0.563989 0.0350106 0.
0.565989 0.0350101 0.
0.56799 0.0350095 0.
0.569991 0.0350089 0.
0.571992 0.0350083 0.
0.573992 0.0350082 0.
0.575992 0.0350081 0.
0.577993 0.035008 0.
0.579993 0.035008 0.
0.581994 0.0350081 0.
0.583994 0.0350081 0.
0.585994 0.0350079 0.
0.587995 0.0350078 0.
0.589996 0.0350077 0.
0.591997 0.0350077 0.
0.593998 0.0350076 0.
0.595999 0.0350078 0.
0.598 0.0350079 0.
0.600001 0.035008 0.
0.602002 0.0350077 0.
0.604003 0.0350074 0.
0.606004 0.0350072 0.
0.608005 0.0350073 0.
0.610005 0.0350074 0.
0.612006 0.0350076 0.
0.614006 0.0350077 0.
0.616006 0.0350078 0.
0.618007 0.0350077 0.
0.620007 0.0350076 0.
0.622007 0.0350075 0.
0.624008 0.0350077 0.
0.626009 0.0350078 0.
0.62801 0.0350081 0.
0.630011 0.0350092 0.
0.632012 0.0350103 0.
0.634013 0.0350111 0.
0.636013 0.0350113 0.
0.638014 0.0350115 0.
0.640015 0.0350116 0.
0.642016 0.0350114 0.
0.644017 0.0350113 0.
0.646018 0.0350114 0.
0.648019 0.0350115 0.
0.650019 0.0350116 0.
0.652021 0.0350114 0.
0.654022 0.0350111 0.
0.656023 0.035011 0.
0.658023 0.035011 0.
0.660024 0.0350111 0.
0.662024 0.0350112 0.
0.664025 0.0350114 0.
0.666026 0.0350116 0.
0.668027 0.0350115 0.
0.670028 0.0350114 0.
0.672029 0.0350112 0.
0.67403 0.0350115 0.
0.67603 0.0350117 0.
0.678031 0.0350119 0.
0.680032 0.0350118 0.
0.682033 0.0350116 0.
0.684034 0.0350116 0.
0.686035 0.0350119 0.
0.688036 0.0350121 0.
0.690037 0.0350123 0.
0.692038 0.0350124 0.
0.694039 0.0350126 0.
0.69604 0.0350134 0.
0.69804 0.0350144 0.
0.499962 0.0370143 0.
0.501963 0.0370141 0.
0.503964 0.0370139 0.
0.505965 0.0370137 0.
0.507965 0.0370135 0.
0.509966 0.0370133 0.
0.511967 0.0370131 0.
0.513968 0.037013 0.
0.515968 0.037013 0.
0.517969 0.0370129 0.
0.51997 0.0370128 0.
0.52197 0.0370127 0.
0.523971 0.0370125 0.
0.525972 0.0370124 0.
0.527973 0.0370122 0.
0.529974 0.0370122 0.
0.531975 0.0370123 0.
0.533976 0.0370123 0.
0.535977 0.0370122 0.
0.537978 0.0370121 0.
0.539978 0.0370121 0.
0.541979 0.037012 0.
0.54398 0.037012 0.
0.545981 0.037012 0.
0.547982 0.0370119 0.
0.549983 0.0370119 0.
0.551984 0.0370119 0.
0.553985 0.0370119 0.
0.555986 0.037012 0.
0.557987 0.037012 0.
0.559988 0.037012 0.
0.561988 0.0370118 0.
0.563989 0.0370113 0.
0.56599 0.0370108 0.
0.567991 0.0370103 0.
0.569991 0.0370098 0.
0.571992 0.0370093 0.
0.573993 0.0370091 0.
0.575993 0.0370089 0.
0.577993 0.0370088 0.
0.579993 0.0370088 0.
0.581994 0.0370088 0.
0.583994 0.0370088 0.
0.585995 0.0370086 0.
0.587995 0.0370085 0.
0.589996 0.0370083 0.
0.591997 0.0370081 0.
0.593998 0.0370078 0.
0.595999 0.0370078 0.
0.598 0.0370079 0.
0.600001 0.0370079 0.
0.602002 0.0370078 0.
0.604003 0.0370077 0.
0.606004 0.0370077 0.
0.608005 0.0370079 0.
0.610005 0.037008 0.
0.612006 0.0370082 0.
0.614006 0.0370083 0.
0.616006 0.0370085 0.
0.618006 0.0370084 0.
0.620007 0.0370083 0.
0.622007 0.0370082 0.
0.624008 0.0370085 0.
0.626008 0.0370089 0.
0.628009 0.0370093 0.
0.63001 0.0370101 0.
0.632011 0.037011 0.
0.634012 0.0370116 0.
0.636012 0.0370118 0.
0.638013 0.037012 0.
0.640014 0.037012 0.
0.642015 0.0370118 0.
0.644016 0.0370117 0.
0.646017 0.0370117 0.
0.648018 0.0370118 0.
0.650019 0.0370118 0.
0.65202 0.0370119 0.
0.654021 0.0370119 0.
0.656022 0.0370119 0.
0.658023 0.0370121 0.
0.660024 0.0370122 0.
0.662024 0.0370123 0.
0.664025 0.0370124 0.
0.666026 0.0370126 0.
0.668027 0.0370125 0.
0.670028 0.0370122 0.
0.672029 0.037012 0.
0.674029 0.0370122 0.
0.67603 0.0370124 0.
0.678031 0.0370126 0.
0.680032 0.0370125 0.
0.682033 0.0370125 0.
0.684033 0.0370126 0.
0.686034 0.0370129 0.
0.688035 0.0370132 0.
0.690036 0.0370135 0.
0.692037 0.0370137 0.
0.694039 0.0370139 0.
0.696039 0.0370147 0.
0.69804 0.0370156 0.
0.499962 0.0390154 0.
0.501963 0.0390153 0.
0.503964 0.0390151 0.
0.505965 0.039015 0.
0.507966 0.0390145 0.
0.509967 0.039014 0.
0.511967 0.0390138 0.
0.513968 0.0390137 0.
0.515968 0.0390137 0.
0.517969 0.0390136 0.
0.51997 0.0390135 0.
0.52197 0.0390135 0.
0.523971 0.0390133 0.
0.525972 0.0390131 0.
0.527973 0.039013 0.
0.529974 0.0390131 0.
0.531975 0.0390132 0.
0.533976 0.0390133 0.
0.535977 0.0390132 0.
0.537978 0.0390132 0.
0.539978 0.039013 0.
0.541979 0.0390128 0.
0.54398 0.0390125 0.
0.545981 0.0390123 0.
0.547982 0.0390122 0.
0.549983 0.039012 0.
0.551984 0.0390122 0.
0.553985 0.0390123 0.
0.555986 0.0390124 0.
0.557987 0.0390125 0.
0.559988 0.0390126 0.
0.561989 0.0390124 0.
0.56399 0.039012 0.
0.565991 0.0390115 0.
0.567991 0.0390111 0.
0.569992 0.0390107 0.
0.571993 0.0390103 0.
0.573993 0.0390101 0.
0.575993 0.0390098 0.
0.577994 0.0390096 0.
0.579994 0.0390096 0.
0.581994 0.0390096 0.
0.583994 0.0390096 0.
0.585995 0.0390094 0.
0.587995 0.0390092 0.
0.589996 0.0390089 0.
0.591996 0.0390084 0.
0.593997 0.039008 0.
0.595998 0.0390079 0.
0.597999 0.0390079 0.
0.6 0.0390078 0.
0.602002 0.0390079 0.
0.604003 0.0390081 0.
0.606005 0.0390082 0.
0.608005 0.0390084 0.
0.610006 0.0390086 0.
0.612006 0.0390088 0.
0.614006 0.039009 0.
0.616006 0.0390092 0.
0.618006 0.0390091 0.
0.620006 0.039009 0.
0.622007 0.0390088 0.
0.624007 0.0390093 0.
0.626008 0.0390099 0.
0.628008 0.0390105 0.
0.630009 0.039011 0.
0.63201 0.0390116 0.
0.634011 0.039012 0.
0.636012 0.0390122 0.
0.638013 0.0390125 0.
0.640013 0.0390125 0.
0.642015 0.0390122 0.
0.644016 0.039012 0.
0.646017 0.039012 0.
0.648018 0.039012 0.
0.650019 0.0390121 0.
0.65202 0.0390124 0.
0.654021 0.0390126 0.
0.656022 0.0390129 0.
0.658023 0.0390131 0.
0.660024 0.0390133 0.
0.662024 0.0390134 0.
0.664025 0.0390135 0.
0.666026 0.0390135 0.
0.668027 0.0390134 0.
0.670028 0.0390131 0.
0.672029 0.0390128 0.
0.674029 0.039013 0.
0.67603 0.0390131 0.
0.678031 0.0390133 0.
0.680031 0.0390133 0.
0.682032 0.0390133 0.
0.684033 0.0390135 0.
0.686034 0.0390139 0.
0.688035 0.0390143 0.
0.690036 0.0390147 0.
0.692037 0.039015 0.
0.694038 0.0390153 0.
0.696039 0.039016 0.
0.698039 0.0390167 0.
0.499963 0.0410164 0.
0.501964 0.0410162 0.
0.503965 0.041016 0.
0.505966 0.0410158 0.
0.507966 0.0410153 0.
0.509967 0.0410148 0.
0.511968 0.0410145 0.
0.513968 0.0410145 0.
0.515969 0.0410144 0.
0.517969 0.0410143 0.
0.51997 0.0410142 0.
0.521971 0.041014 0.
0.523972 0.0410139 0.
0.525972 0.0410137 0.
0.527973 0.0410136 0.
0.529974 0.0410137 0.
0.531975 0.0410138 0.
0.533976 0.0410138 0.
0.535977 0.0410137 0.
0.537978 0.0410135 0.
0.539979 0.0410133 0.
0.541979 0.041013 0.
0.54398 0.0410127 0.
0.545981 0.0410125 0.
0.547982 0.0410124 0.
0.549983 0.0410123 0.
0.551984 0.0410124 0.
0.553986 0.0410125 0.
0.555987 0.0410126 0.
0.557988 0.0410127 0.
0.559989 0.0410128 0.
0.56199 0.0410127 0.
0.56399 0.0410123 0.
0.565991 0.0410118 0.
0.567991 0.0410114 0.
0.569992 0.0410111 0.
0.571993 0.0410107 0.
0.573993 0.0410104 0.
0.575993 0.0410102 0.
0.577994 0.0410099 0.
0.579994 0.04101 0.
0.581994 0.04101 0.
0.583994 0.0410099 0.
0.585995 0.0410096 0.
0.587995 0.0410094 0.
0.589996 0.041009 0.
0.591997 0.0410086 0.
0.593997 0.0410081 0.
0.595998 0.041008 0.
0.597999 0.0410079 0.
0.6 0.0410078 0.
0.602002 0.041008 0.
0.604003 0.0410082 0.
0.606004 0.0410084 0.
0.608005 0.0410086 0.
0.610005 0.0410088 0.
0.612006 0.041009 0.
0.614006 0.0410092 0.
0.616006 0.0410095 0.
0.618006 0.0410094 0.
0.620006 0.0410093 0.
0.622007 0.0410092 0.
0.624007 0.0410097 0.
0.626008 0.0410104 0.
0.628008 0.041011 0.
0.630009 0.0410114 0.
0.63201 0.0410118 0.
0.634011 0.0410121 0.
0.636011 0.0410124 0.
0.638012 0.0410127 0.
0.640013 0.0410126 0.
0.642014 0.0410124 0.
0.644015 0.0410122 0.
0.646016 0.0410122 0.
0.648017 0.0410123 0.
0.650018 0.0410123 0.
0.65202 0.0410126 0.
0.654021 0.0410129 0.
0.656022 0.0410131 0.
0.658023 0.0410134 0.
0.660023 0.0410136 0.
0.662024 0.0410138 0.
0.664025 0.0410139 0.
0.666026 0.041014 0.
0.668027 0.0410139 0.
0.670028 0.0410137 0.
0.672028 0.0410134 0.
0.674029 0.0410136 0.
0.67603 0.0410137 0.
0.67803 0.0410138 0.
0.680031 0.0410139 0.
0.682032 0.041014 0.
0.684033 0.0410143 0.
0.686034 0.0410147 0.
0.688034 0.0410151 0.
0.690035 0.0410155 0.
0.692036 0.0410159 0.
0.694037 0.0410163 0.
0.696038 0.041017 0.
0.698039 0.0410178 0.
0.499964 0.0430172 0.
0.501965 0.0430168 0.
0.503965 0.0430165 0.
0.505966 0.0430162 0.
0.507967 0.0430159 0.
0.509968 0.0430157 0.
0.511968 0.0430154 0.
0.513969 0.0430153 0.
0.515969 0.0430151 0.
0.51797 0.0430149 0.
0.51997 0.0430147 0.
0.521971 0.0430144 0.
0.523972 0.0430143 0.
0.525973 0.0430141 0.
0.527973 0.0430139 0.
0.529974 0.0430139 0.
0.531975 0.0430138 0.
0.533976 0.0430137 0.
0.535977 0.0430134 0.
0.537978 0.0430131 0.
0.539979 0.0430129 0.
0.541979 0.0430127 0.
0.54398 0.0430126 0.
0.545981 0.0430126 0.
0.547982 0.0430127 0.
0.549983 0.0430127 0.
0.551984 0.0430126 0.
0.553986 0.0430125 0.
0.555987 0.0430124 0.
0.557988 0.0430125 0.
0.559989 0.0430127 0.
0.561989 0.0430126 0.
0.56399 0.0430121 0.
0.565991 0.0430116 0.
0.567991 0.0430112 0.
0.569992 0.0430108 0.
0.571992 0.0430104 0.
0.573993 0.0430102 0.
0.575993 0.0430101 0.
0.577994 0.0430099 0.
0.579994 0.0430099 0.
0.581994 0.04301 0.
0.583994 0.0430099 0.
0.585995 0.0430094 0.
0.587995 0.043009 0.
0.589996 0.0430087 0.
0.591997 0.0430084 0.
0.593998 0.0430081 0.
0.595998 0.043008 0.
0.597999 0.0430079 0.
0.6 0.0430078 0.
0.602002 0.043008 0.
0.604003 0.0430082 0.
0.606004 0.0430084 0.
0.608004 0.0430085 0.
0.610005 0.0430086 0.
0.612005 0.0430088 0.
0.614006 0.0430091 0.
0.616006 0.0430093 0.
0.618006 0.0430094 0.
0.620007 0.0430093 0.
0.622007 0.0430093 0.
0.624007 0.0430097 0.
0.626008 0.0430102 0.
0.628009 0.0430107 0.
0.63001 0.0430111 0.
0.63201 0.0430115 0.
0.634011 0.0430119 0.
0.636012 0.0430122 0.
0.638012 0.0430126 0.
0.640013 0.0430126 0.
0.642014 0.0430124 0.
0.644015 0.0430122 0.
0.646016 0.0430123 0.
0.648017 0.0430125 0.
0.650018 0.0430126 0.
0.65202 0.0430126 0.
0.654021 0.0430125 0.
0.656022 0.0430126 0.
0.658023 0.0430129 0.
0.660023 0.0430131 0.
0.662024 0.0430134 0.
0.664025 0.0430137 0.
0.666026 0.043014 0.
0.668026 0.043014 0.
0.670027 0.043014 0.
0.672028 0.0430139 0.
0.674029 0.043014 0.
0.676029 0.0430141 0.
0.67803 0.0430142 0.
0.680031 0.0430144 0.
0.682031 0.0430146 0.
0.684032 0.0430148 0.
0.686033 0.0430152 0.
0.688034 0.0430156 0.
0.690034 0.043016 0.
0.692035 0.0430165 0.
0.694036 0.043017 0.
0.696037 0.0430178 0.
0.698037 0.0430188 0.
0.499965 0.0450179 0.
0.501965 0.0450174 0.
0.503966 0.045017 0.
0.505967 0.0450166 0.
0.507967 0.0450166 0.
0.509968 0.0450165 0.
0.511969 0.0450163 0.
0.513969 0.045016 0.
0.515969 0.0450157 0.
0.51797 0.0450154 0.
0.519971 0.0450151 0.
0.521971 0.0450148 0.
0.523972 0.0450146 0.
0.525973 0.0450145 0.
0.527973 0.0450143 0.
0.529974 0.0450141 0.
0.531975 0.0450139 0.
0.533976 0.0450137 0.
0.535977 0.0450132 0.
0.537978 0.0450127 0.
0.539979 0.0450125 0.
0.541979 0.0450125 0.
0.54398 0.0450125 0.
0.545981 0.0450126 0.
0.547982 0.0450129 0.
0.549983 0.0450131 0.
0.551984 0.0450128 0.
0.553986 0.0450124 0.
0.555987 0.0450122 0.
0.557988 0.0450124 0.
0.559989 0.0450125 0.
0.561989 0.0450124 0.
0.56399 0.0450119 0.
0.56599 0.0450115 0.
0.567991 0.045011 0.
0.569991 0.0450106 0.
0.571992 0.0450102 0.
0.573992 0.04501 0.
0.575993 0.0450099 0.
0.577994 0.0450099 0.
0.579994 0.0450099 0.
0.581994 0.04501 0.
0.583995 0.0450098 0.
0.585995 0.0450093 0.
0.587996 0.0450087 0.
0.589996 0.0450084 0.
0.591997 0.0450082 0.
0.593998 0.0450081 0.
0.595999 0.045008 0.
0.597999 0.045008 0.
0.6 0.0450079 0.
0.602001 0.045008 0.
0.604002 0.0450082 0.
0.606003 0.0450083 0.
0.608004 0.0450083 0.
0.610004 0.0450084 0.
0.612005 0.0450085 0.
0.614006 0.0450089 0.
0.616006 0.0450092 0.
0.618007 0.0450093 0.
0.620007 0.0450094 0.
0.622007 0.0450094 0.
0.624008 0.0450097 0.
0.626009 0.04501 0.
0.628009 0.0450103 0.
0.63001 0.0450108 0.
0.632011 0.0450113 0.
0.634011 0.0450117 0.
0.636012 0.0450121 0.
0.638012 0.0450125 0.
0.640013 0.0450125 0.
0.642014 0.0450124 0.
0.644015 0.0450122 0.
0.646016 0.0450124 0.
0.648017 0.0450126 0.
0.650018 0.0450129 0.
0.65202 0.0450125 0.
0.654021 0.0450122 0.
0.656022 0.045012 0.
0.658023 0.0450124 0.
0.660023 0.0450127 0.
0.662024 0.0450131 0.
0.664024 0.0450135 0.
0.666025 0.045014 0.
0.668026 0.0450142 0.
0.670027 0.0450142 0.
0.672028 0.0450143 0.
0.674028 0.0450144 0.
0.676029 0.0450145 0.
0.67803 0.0450146 0.
0.68003 0.0450148 0.
0.682031 0.0450151 0.
0.684031 0.0450154 0.
0.686032 0.0450157 0.
0.688033 0.045016 0.
0.690034 0.0450165 0.
0.692034 0.0450171 0.
0.694035 0.0450177 0.
0.696036 0.0450186 0.
0.698036 0.0450197 0.
0.499965 0.0470186 0.
0.501966 0.0470182 0.
0.503966 0.0470179 0.
0.505967 0.0470177 0.
0.507968 0.0470174 0.
0.509968 0.0470171 0.
0.511969 0.0470168 0.
0.513969 0.0470166 0.
0.51597 0.0470164 0.
0.51797 0.0470161 0.
0.519971 0.0470158 0.
0.521972 0.0470156 0.
0.523972 0.0470155 0.
0.525973 0.0470154 0.
0.527974 0.0470153 0.
0.529975 0.0470151 0.
0.531976 0.0470149 0.
0.533977 0.0470147 0.
0.535977 0.0470142 0.
0.537978 0.0470136 0.
0.539979 0.0470133 0.
0.541979 0.0470131 0.
0.54398 0.0470128 0.
0.545981 0.0470128 0.
0.547982 0.0470128 0.
0.549983 0.0470128 0.
0.551984 0.0470126 0.
0.553986 0.0470123 0.
0.555987 0.0470121 0.
0.557988 0.0470123 0.
0.559989 0.0470124 0.
0.561989 0.0470124 0.
0.56399 0.0470121 0.
0.565991 0.0470118 0.
0.567991 0.0470116 0.
0.569992 0.0470114 0.
0.571992 0.0470112 0.
0.573992 0.0470109 0.
0.575993 0.0470106 0.
0.577993 0.0470104 0.
0.579994 0.0470105 0.
0.581994 0.0470106 0.
0.583994 0.0470105 0.
0.585995 0.0470101 0.
0.587996 0.0470098 0.
0.589996 0.0470095 0.
0.591997 0.0470092 0.
0.593998 0.047009 0.
0.595999 0.0470088 0.
0.598 0.0470086 0.
0.600001 0.0470085 0.
0.602002 0.0470087 0.
0.604002 0.0470089 0.
0.606003 0.047009 0.
0.608004 0.0470091 0.
0.610005 0.0470091 0.
0.612005 0.0470092 0.
0.614006 0.0470094 0.
0.616006 0.0470096 0.
0.618006 0.0470097 0.
0.620007 0.0470098 0.
0.622007 0.0470099 0.
0.624008 0.0470103 0.
0.626008 0.0470108 0.
0.628009 0.0470112 0.
0.63001 0.0470115 0.
0.63201 0.0470118 0.
0.634011 0.047012 0.
0.636011 0.0470122 0.
0.638012 0.0470123 0.
0.640013 0.0470123 0.
0.642014 0.0470121 0.
0.644015 0.0470119 0.
0.646016 0.0470121 0.
0.648017 0.0470124 0.
0.650018 0.0470127 0.
0.652019 0.0470126 0.
0.654021 0.0470126 0.
0.656022 0.0470126 0.
0.658022 0.0470131 0.
0.660023 0.0470135 0.
0.662024 0.0470139 0.
0.664024 0.0470144 0.
0.666025 0.0470148 0.
0.668026 0.047015 0.
0.670026 0.0470152 0.
0.672027 0.0470153 0.
0.674028 0.0470153 0.
0.676028 0.0470154 0.
0.678029 0.0470154 0.
0.68003 0.0470157 0.
0.68203 0.047016 0.
0.684031 0.0470163 0.
0.686032 0.0470166 0.
0.688033 0.047017 0.
0.690033 0.0470174 0.
0.692034 0.0470179 0.
0.694035 0.0470184 0.
0.696035 0.0470193 0.
0.698036 0.0470203 0.
0.499966 0.0490192 0.
0.501966 0.049019 0.
0.503967 0.0490189 0.
0.505967 0.0490187 0.
0.507968 0.0490182 0.
0.509969 0.0490176 0.
0.511969 0.0490173 0.
0.51397 0.0490171 0.
0.51597 0.049017 0.
0.517971 0.0490168 0.
0.519971 0.0490165 0.
0.521972 0.0490163 0.
0.523973 0.0490163 0.
0.525973 0.0490163 0.
0.527974 0.0490163 0.
0.529975 0.0490161 0.
0.531976 0.049016 0.
0.533977 0.0490157 0.
0.535978 0.0490151 0.
0.537978 0.0490145 0.
0.539979 0.0490141 0.
0.54198 0.0490136 0.
0.54398 0.0490132 0.
0.545981 0.0490129 0.
0.547982 0.0490127 0.
0.549983 0.0490126 0.
0.551985 0.0490124 0.
0.553986 0.0490122 0.
0.555987 0.049012 0.
0.557988 0.0490121 0.
0.559989 0.0490123 0.
0.56199 0.0490123 0.
0.56399 0.0490122 0.
0.565991 0.0490122 0.
0.567992 0.0490122 0.
0.569992 0.0490122 0.
0.571992 0.0490122 0.
0.573993 0.0490117 0.
0.575993 0.0490113 0.
0.577993 0.0490109 0.
0.579993 0.049011 0.
0.581994 0.0490111 0.
0.583994 0.0490112 0.
0.585995 0.049011 0.
0.587995 0.0490109 0.
0.589996 0.0490106 0.
0.591997 0.0490102 0.
0.593998 0.0490098 0.
0.595999 0.0490095 0.
0.598 0.0490093 0.
0.600001 0.0490091 0.
0.602002 0.0490093 0.
0.604003 0.0490096 0.
0.606004 0.0490097 0.
0.608004 0.0490098 0.
0.610005 0.0490099 0.
0.612005 0.0490099 0.
0.614006 0.04901 0.
0.616006 0.04901 0.
0.618006 0.0490101 0.
0.620007 0.0490103 0.
0.622007 0.0490104 0.
0.624007 0.049011 0.
0.626008 0.0490116 0.
0.628008 0.0490121 0.
0.630009 0.0490122 0.
0.63201 0.0490123 0.
0.63401 0.0490123 0.
0.636011 0.0490122 0.
0.638012 0.0490121 0.
0.640013 0.049012 0.
0.642014 0.0490118 0.
0.644015 0.0490116 0.
0.646016 0.0490119 0.
0.648017 0.0490122 0.
0.650018 0.0490125 0.
0.652019 0.0490128 0.
0.65402 0.049013 0.
0.656021 0.0490133 0.
0.658022 0.0490138 0.
0.660023 0.0490142 0.
0.662023 0.0490147 0.
0.664024 0.0490152 0.
0.666025 0.0490157 0.
0.668025 0.0490159 0.
0.670026 0.0490161 0.
0.672027 0.0490162 0.
0.674027 0.0490163 0.
0.676028 0.0490163 0.
0.678028 0.0490163 0.
0.680029 0.0490166 0.
0.68203 0.0490169 0.
0.684031 0.0490172 0.
0.686032 0.0490175 0.
0.688032 0.0490179 0.
0.690033 0.0490183 0.
0.692034 0.0490187 0.
0.694034 0.0490191 0.
0.696035 0.04902 0.
0.698035 0.049021 0.
0.499967 0.0510198 0.
0.501967 0.0510196 0.
0.503967 0.0510196 0.
0.505968 0.0510194 0.
0.507968 0.0510188 0.
0.509969 0.0510182 0.
0.51197 0.0510178 0.
0.51397 0.0510177 0.
0.515971 0.0510175 0.
0.517971 0.0510173 0.
0.519972 0.0510171 0.
0.521972 0.0510168 0.
0.523973 0.0510168 0.
0.525974 0.0510168 0.
0.527975 0.0510168 0.
0.529975 0.0510166 0.
0.531976 0.0510164 0.
0.533977 0.0510161 0.
0.535978 0.0510155 0.
0.537979 0.0510149 0.
0.539979 0.0510143 0.
0.54198 0.0510138 0.
0.543981 0.0510133 0.
0.545982 0.051013 0.
0.547983 0.0510129 0.
0.549984 0.0510127 0.
0.551985 0.0510125 0.
0.553986 0.0510124 0.
0.555987 0.0510122 0.
0.557988 0.0510123 0.
0.559989 0.0510123 0.
0.56199 0.0510123 0.
0.56399 0.0510123 0.
0.565991 0.0510122 0.
0.567991 0.0510123 0.
0.569992 0.0510124 0.
0.571992 0.0510124 0.
0.573993 0.0510121 0.
0.575993 0.0510117 0.
0.577993 0.0510114 0.
0.579993 0.0510114 0.
0.581994 0.0510115 0.
0.583994 0.0510114 0.
0.585995 0.0510113 0.
0.587995 0.0510111 0.
0.589996 0.0510108 0.
0.591997 0.0510104 0.
0.593998 0.05101 0.
0.595999 0.0510097 0.
0.598 0.0510094 0.
0.600001 0.0510092 0.
0.602002 0.0510095 0.
0.604003 0.0510097 0.
0.606004 0.05101 0.
0.608004 0.05101 0.
0.610005 0.0510101 0.
0.612005 0.0510102 0.
0.614006 0.0510103 0.
0.616006 0.0510104 0.
0.618006 0.0510105 0.
0.620007 0.0510106 0.
0.622007 0.0510108 0.
0.624007 0.0510112 0.
0.626008 0.0510118 0.
0.628009 0.0510122 0.
0.630009 0.0510123 0.
0.63201 0.0510124 0.
0.63401 0.0510125 0.
0.636011 0.0510123 0.
0.638012 0.0510122 0.
0.640013 0.051012 0.
0.642014 0.0510118 0.
0.644015 0.0510117 0.
0.646016 0.0510119 0.
0.648017 0.0510122 0.
0.650018 0.0510125 0.
0.652019 0.0510128 0.
0.65402 0.0510131 0.
0.656021 0.0510134 0.
0.658022 0.051014 0.
0.660022 0.0510145 0.
0.662023 0.051015 0.
0.664023 0.0510156 0.
0.666024 0.0510162 0.
0.668025 0.0510165 0.
0.670025 0.0510167 0.
0.672026 0.0510169 0.
0.674027 0.0510169 0.
0.676027 0.0510168 0.
0.678028 0.0510168 0.
0.680028 0.0510172 0.
0.682029 0.0510175 0.
0.68403 0.0510179 0.
0.686031 0.0510182 0.
0.688032 0.0510185 0.
0.690033 0.051019 0.
0.692033 0.0510195 0.
0.694034 0.05102 0.
0.696034 0.0510208 0.
0.698034 0.0510217 0.
0.499967 0.0530205 0.
0.501968 0.0530201 0.
0.503968 0.05302 0.
0.505969 0.0530198 0.
0.507969 0.0530193 0.
0.50997 0.0530188 0.
0.51197 0.0530185 0.
0.513971 0.0530182 0.
0.515971 0.053018 0.
0.517972 0.0530178 0.
0.519973 0.0530175 0.
0.521973 0.0530172 0.
0.523974 0.0530171 0.
0.525974 0.053017 0.
0.527975 0.0530168 0.
0.529976 0.0530165 0.
0.531977 0.0530162 0.
0.533978 0.0530158 0.
0.535978 0.0530152 0.
0.537979 0.0530146 0.
0.53998 0.053014 0.
0.541981 0.0530135 0.
0.543981 0.0530131 0.
0.545982 0.053013 0.
0.547983 0.0530131 0.
0.549984 0.0530132 0.
0.551985 0.053013 0.
0.553986 0.0530129 0.
0.555987 0.0530127 0.
0.557988 0.0530126 0.
0.559988 0.0530124 0.
0.561989 0.0530123 0.
0.56399 0.0530121 0.
0.56599 0.053012 0.
0.567991 0.0530119 0.
0.569991 0.0530119 0.
0.571992 0.053012 0.
0.573992 0.0530119 0.
0.575993 0.0530119 0.
0.577993 0.0530119 0.
0.579994 0.0530117 0.
0.581994 0.0530116 0.
0.583994 0.0530113 0.
0.585995 0.0530109 0.
0.587996 0.0530105 0.
0.589996 0.0530101 0.
0.591997 0.0530098 0.
0.593998 0.0530094 0.
0.595999 0.0530092 0.
0.598 0.0530089 0.
0.600001 0.0530087 0.
0.602002 0.053009 0.
0.604002 0.0530094 0.
0.606003 0.0530097 0.
0.608004 0.0530098 0.
0.610005 0.0530099 0.
0.612005 0.0530101 0.
0.614006 0.0530104 0.
0.616006 0.0530107 0.
0.618007 0.0530108 0.
0.620007 0.0530108 0.
0.622007 0.0530109 0.
0.624008 0.0530111 0.
0.626009 0.0530114 0.
0.628009 0.0530116 0.
0.63001 0.0530119 0.
0.63201 0.0530122 0.
0.634011 0.0530124 0.
0.636012 0.0530124 0.
0.638012 0.0530124 0.
0.640013 0.0530123 0.
0.642014 0.0530121 0.
0.644014 0.053012 0.
0.646015 0.0530122 0.
0.648016 0.0530125 0.
0.650018 0.0530127 0.
0.652019 0.0530128 0.
0.65402 0.0530129 0.
0.65602 0.0530131 0.
0.658021 0.0530137 0.
0.660021 0.0530142 0.
0.662022 0.0530149 0.
0.664023 0.0530156 0.
0.666023 0.0530162 0.
0.668024 0.0530166 0.
0.670025 0.0530169 0.
0.672025 0.0530171 0.
0.674026 0.0530171 0.
0.676026 0.0530171 0.
0.678027 0.0530171 0.
0.680028 0.0530175 0.
0.682028 0.0530179 0.
0.684029 0.0530183 0.
0.68603 0.0530186 0.
0.688031 0.0530189 0.
0.690031 0.0530194 0.
0.692032 0.0530202 0.
0.694033 0.0530209 0.
0.696033 0.0530217 0.
0.698033 0.0530225 0.
0.499968 0.0550211 0.
0.501968 0.0550206 0.
0.503969 0.0550204 0.
0.505969 0.0550201 0.
0.50797 0.0550198 0.
0.50997 0.0550195 0.
0.511971 0.0550191 0.
0.513971 0.0550188 0.
0.515972 0.0550185 0.
0.517973 0.0550182 0.
0.519973 0.0550179 0.
0.521974 0.0550177 0.
0.523974 0.0550174 0.
0.525975 0.0550172 0.
0.527976 0.0550169 0.
0.529976 0.0550165 0.
0.531977 0.055016 0.
0.533978 0.0550155 0.
0.535979 0.0550149 0.
0.53798 0.0550143 0.
0.53998 0.0550137 0.
0.541981 0.0550133 0.
0.543982 0.0550129 0.
0.545982 0.055013 0.
0.547983 0.0550134 0.
0.549984 0.0550137 0.
0.551985 0.0550136 0.
0.553986 0.0550134 0.
0.555987 0.0550132 0.
0.557987 0.0550129 0.
0.559988 0.0550126 0.
0.561988 0.0550123 0.
0.563989 0.055012 0.
0.56599 0.0550117 0.
0.56799 0.0550116 0.
0.569991 0.0550115 0.
0.571991 0.0550115 0.
0.573992 0.0550118 0.
0.575993 0.0550121 0.
0.577994 0.0550124 0.
0.579994 0.055012 0.
0.581994 0.0550117 0.
0.583995 0.0550112 0.
0.585995 0.0550105 0.
0.587996 0.0550099 0.
0.589996 0.0550094 0.
0.591997 0.0550092 0.
0.593998 0.0550089 0.
0.595999 0.0550087 0.
0.598 0.0550084 0.
0.600001 0.0550082 0.
0.602001 0.0550086 0.
0.604002 0.0550091 0.
0.606003 0.0550094 0.
0.608004 0.0550095 0.
0.610004 0.0550096 0.
0.612005 0.0550099 0.
0.614006 0.0550105 0.
0.616007 0.055011 0.
0.618007 0.0550112 0.
0.620007 0.0550111 0.
0.622007 0.055011 0.
0.624008 0.055011 0.
0.626009 0.055011 0.
0.62801 0.055011 0.
0.630011 0.0550115 0.
0.632011 0.055012 0.
0.634012 0.0550124 0.
0.636012 0.0550125 0.
0.638013 0.0550126 0.
0.640013 0.0550126 0.
0.642014 0.0550124 0.
0.644014 0.0550123 0.
0.646015 0.0550124 0.
0.648016 0.0550127 0.
0.650017 0.0550129 0.
0.652018 0.0550128 0.
0.654019 0.0550127 0.
0.65602 0.0550128 0.
0.65802 0.0550134 0.
0.660021 0.055014 0.
0.662021 0.0550147 0.
0.664022 0.0550155 0.
0.666023 0.0550163 0.
0.668023 0.0550168 0.
0.670024 0.0550171 0.
0.672024 0.0550174 0.
0.674025 0.0550174 0.
0.676026 0.0550174 0.
0.678026 0.0550174 0.
0.680027 0.0550179 0.
0.682028 0.0550183 0.
0.684028 0.0550187 0.
0.686029 0.0550189 0.
0.68803 0.0550192 0.
0.69003 0.0550199 0.
0.692031 0.0550209 0.
0.694032 0.0550218 0.
0.696032 0.0550226 0.
0.698032 0.0550233 0.
0.499969 0.057022 0.
0.501969 0.0570216 0.
0.503969 0.0570214 0.
0.50597 0.0570211 0.
0.50797 0.0570206 0.
0.509971 0.0570201 0.
0.511971 0.0570197 0.
0.513972 0.0570194 0.
0.515972 0.0570192 0.
0.517973 0.0570189 0.
0.519974 0.0570187 0.
0.521974 0.0570184 0.
0.523975 0.0570182 0.
0.525975 0.0570181 0.
0.527976 0.0570179 0.
0.529977 0.0570173 0.
0.531978 0.0570168 0.
0.533979 0.0570162 0.
0.535979 0.0570156 0.
0.53798 0.057015 0.
0.539981 0.0570145 0.
0.541981 0.0570141 0.
0.543982 0.0570136 0.
0.545983 0.0570136 0.
0.547984 0.0570136 0.
0.549984 0.0570137 0.
0.551985 0.0570134 0.
0.553986 0.0570132 0.
0.555987 0.057013 0.
0.557988 0.0570128 0.
0.559988 0.0570127 0.
0.561989 0.0570126 0.
0.563989 0.0570125 0.
0.56599 0.0570124 0.
0.56799 0.0570123 0.
0.569991 0.0570122 0.
0.571991 0.0570121 0.
0.573992 0.057012 0.
0.575993 0.0570119 0.
0.577993 0.0570119 0.
0.579994 0.0570116 0.
0.581994 0.0570114 0.
0.583994 0.0570112 0.
0.585995 0.0570108 0.
0.587995 0.0570104 0.
0.589996 0.0570101 0.
0.591997 0.0570099 0.
0.593998 0.0570097 0.
0.595999 0.0570095 0.
0.598 0.0570093 0.
0.600001 0.057009 0.
0.602002 0.0570093 0.
0.604002 0.0570096 0.
0.606003 0.0570098 0.
0.608004 0.0570099 0.
0.610005 0.05701 0.
0.612005 0.0570102 0.
0.614006 0.0570105 0.
0.616007 0.0570107 0.
0.618007 0.0570108 0.
0.620007 0.0570108 0.
0.622008 0.0570108 0.
0.624008 0.0570111 0.
0.626009 0.0570115 0.
0.62801 0.0570118 0.
0.63001 0.0570121 0.
0.632011 0.0570124 0.
0.634011 0.0570126 0.
0.636012 0.0570126 0.
0.638012 0.0570126 0.
0.640013 0.0570125 0.
0.642014 0.0570125 0.
0.644014 0.0570124 0.
0.646015 0.0570126 0.
0.648016 0.0570129 0.
0.650017 0.0570132 0.
0.652018 0.0570133 0.
0.654019 0.0570134 0.
0.656019 0.0570136 0.
0.65802 0.0570143 0.
0.66002 0.0570149 0.
0.662021 0.0570156 0.
0.664021 0.0570163 0.
0.666022 0.0570171 0.
0.668023 0.0570176 0.
0.670023 0.0570179 0.
0.672024 0.0570183 0.
0.674025 0.0570183 0.
0.676025 0.0570183 0.
0.678026 0.0570183 0.
0.680026 0.0570187 0.
0.682027 0.057019 0.
0.684028 0.0570193 0.
0.686029 0.0570197 0.
0.688029 0.05702 0.
0.69003 0.0570207 0.
0.69203 0.0570215 0.
0.694031 0.0570224 0.
0.696031 0.0570232 0.
0.698032 0.0570239 0.
0.49997 0.0590228 0.
0.50197 0.0590225 0.
0.50397 0.0590224 0.
0.50597 0.0590221 0.
0.507971 0.0590215 0.
0.509971 0.0590208 0.
0.511972 0.0590203 0.
0.513972 0.0590201 0.
0.515973 0.0590198 0.
0.517973 0.0590196 0.
0.519974 0.0590194 0.
0.521975 0.0590192 0.
0.523975 0.0590191 0.
0.525976 0.059019 0.
0.527977 0.0590188 0.
0.529977 0.0590182 0.
0.531978 0.0590175 0.
0.533979 0.0590169 0.
0.53598 0.0590163 0.
0.53798 0.0590158 0.
0.539981 0.0590152 0.
0.541982 0.0590148 0.
0.543982 0.0590143 0.
0.545983 0.0590141 0.
0.547984 0.0590138 0.
0.549984 0.0590136 0.
0.551985 0.0590133 0.
0.553986 0.059013 0.
0.555987 0.0590127 0.
0.557988 0.0590128 0.
0.559989 0.0590128 0.
0.561989 0.0590129 0.
0.56399 0.059013 0.
0.56599 0.0590131 0.
0.567991 0.0590131 0.
0.569991 0.0590129 0.
0.571991 0.0590127 0.
0.573992 0.0590122 0.
0.575992 0.0590118 0.
0.577993 0.0590113 0.
0.579993 0.0590113 0.
0.581994 0.0590112 0.
0.583994 0.0590111 0.
0.585995 0.059011 0.
0.587995 0.0590109 0.
0.589996 0.0590108 0.
0.591996 0.0590106 0.
0.593997 0.0590105 0.
0.595998 0.0590103 0.
0.598 0.0590101 0.
0.600001 0.0590099 0.
0.602002 0.05901 0.
0.604003 0.05901 0.
0.606004 0.0590101 0.
0.608004 0.0590102 0.
0.610005 0.0590104 0.
0.612006 0.0590105 0.
0.614006 0.0590105 0.
0.616007 0.0590105 0.
0.618007 0.0590105 0.
0.620007 0.0590106 0.
0.622008 0.0590107 0.
0.624008 0.0590113 0.
0.626009 0.059012 0.
0.628009 0.0590126 0.
0.63001 0.0590127 0.
0.63201 0.0590128 0.
0.634011 0.0590128 0.
0.636012 0.0590126 0.
0.638012 0.0590125 0.
0.640013 0.0590125 0.
0.642013 0.0590125 0.
0.644014 0.0590126 0.
0.646015 0.0590128 0.
0.648016 0.0590131 0.
0.650017 0.0590134 0.
0.652017 0.0590137 0.
0.654018 0.0590141 0.
0.656019 0.0590145 0.
0.658019 0.0590151 0.
0.66002 0.0590158 0.
0.66202 0.0590165 0.
0.664021 0.0590172 0.
0.666021 0.0590178 0.
0.668022 0.0590183 0.
0.670023 0.0590188 0.
0.672023 0.0590192 0.
0.674024 0.0590192 0.
0.676025 0.0590192 0.
0.678025 0.0590192 0.
0.680026 0.0590195 0.
0.682026 0.0590197 0.
0.684027 0.05902 0.
0.686028 0.0590204 0.
0.688029 0.0590209 0.
0.690029 0.0590215 0.
0.69203 0.0590222 0.
0.69403 0.059023 0.
0.696031 0.0590237 0.
0.698031 0.0590245 0.
0.499971 0.0610235 0.
0.501971 0.0610232 0.
0.503971 0.0610231 0.
0.505971 0.0610228 0.
0.507972 0.0610221 0.
0.509972 0.0610214 0.
0.511973 0.0610208 0.
0.513973 0.0610206 0.
0.515973 0.0610204 0.
0.517974 0.0610201 0.
0.519975 0.0610199 0.
0.521975 0.0610197 0.
0.523976 0.0610195 0.
0.525977 0.0610194 0.
0.527977 0.0610192 0.
0.529978 0.0610186 0.
0.531979 0.0610179 0.
0.533979 0.0610172 0.
0.53598 0.0610167 0.
0.537981 0.0610161 0.
0.539981 0.0610156 0.
0.541982 0.0610151 0.
0.543983 0.0610145 0.
0.545983 0.0610142 0.
0.547984 0.061014 0.
0.549985 0.0610137 0.
0.551986 0.0610134 0.
0.553986 0.0610131 0.
0.555987 0.0610129 0.
0.557988 0.061013 0.
0.559989 0.061013 0.
0.561989 0.0610131 0.
0.56399 0.0610132 0.
0.56599 0.0610134 0.
0.567991 0.0610133 0.
0.569991 0.061013 0.
0.571991 0.0610128 0.
0.573992 0.0610124 0.
0.575992 0.0610119 0.
0.577993 0.0610114 0.
0.579993 0.0610113 0.
0.581994 0.0610112 0.
0.583994 0.0610111 0.
0.585994 0.0610111 0.
0.587995 0.061011 0.
0.589995 0.061011 0.
0.591996 0.0610109 0.
0.593997 0.0610108 0.
0.595998 0.0610106 0.
0.598 0.0610105 0.
0.600001 0.0610103 0.
0.602002 0.0610103 0.
0.604003 0.0610103 0.
0.606004 0.0610102 0.
0.608005 0.0610104 0.
0.610005 0.0610105 0.
0.612006 0.0610105 0.
0.614006 0.0610105 0.
0.616007 0.0610105 0.
0.618007 0.0610106 0.
0.620007 0.0610107 0.
0.622008 0.0610109 0.
0.624008 0.0610115 0.
0.626009 0.0610122 0.
0.628009 0.0610128 0.
0.63001 0.0610128 0.
0.63201 0.0610129 0.
0.634011 0.0610129 0.
0.636011 0.0610128 0.
0.638012 0.0610127 0.
0.640013 0.0610127 0.
0.642013 0.0610128 0.
0.644014 0.0610129 0.
0.646015 0.0610131 0.
0.648015 0.0610134 0.
0.650016 0.0610137 0.
0.652017 0.061014 0.
0.654018 0.0610144 0.
0.656018 0.0610149 0.
0.658019 0.0610156 0.
0.660019 0.0610163 0.
0.66202 0.061017 0.
0.66402 0.0610176 0.
0.666021 0.0610182 0.
0.668021 0.0610187 0.
0.670022 0.0610192 0.
0.672023 0.0610197 0.
0.674023 0.0610197 0.
0.676024 0.0610198 0.
0.678025 0.0610198 0.
0.680025 0.06102 0.
0.682026 0.0610202 0.
0.684026 0.0610205 0.
0.686027 0.061021 0.
0.688028 0.0610215 0.
0.690029 0.0610221 0.
0.692029 0.0610228 0.
0.69403 0.0610235 0.
0.69603 0.0610243 0.
0.69803 0.0610251 0.
0.499971 0.063024 0.
0.501972 0.0630237 0.
0.503972 0.0630235 0.
0.505972 0.0630232 0.
0.507973 0.0630226 0.
0.509973 0.0630219 0.
0.511973 0.0630214 0.
0.513974 0.063021 0.
0.515974 0.0630207 0.
0.517975 0.0630205 0.
0.519976 0.0630202 0.
0.521976 0.06302 0.
0.523977 0.0630197 0.
0.525977 0.0630194 0.
0.527978 0.0630191 0.
0.529979 0.0630185 0.
0.531979 0.0630179 0.
0.53398 0.0630173 0.
0.535981 0.0630167 0.
0.537981 0.0630161 0.
0.539982 0.0630155 0.
0.541982 0.0630149 0.
0.543983 0.0630142 0.
0.545984 0.0630141 0.
0.547984 0.063014 0.
0.549985 0.063014 0.
0.551986 0.0630138 0.
0.553987 0.0630137 0.
0.555987 0.0630135 0.
0.557988 0.0630134 0.
0.559989 0.0630132 0.
0.561989 0.0630131 0.
0.56399 0.0630131 0.
0.56599 0.0630131 0.
0.56799 0.0630129 0.
0.569991 0.0630127 0.
0.571991 0.0630125 0.
0.573992 0.0630124 0.
0.575992 0.0630123 0.
0.577993 0.0630122 0.
0.579993 0.0630118 0.
0.581994 0.0630115 0.
0.583994 0.0630112 0.
0.585995 0.063011 0.
0.587995 0.0630108 0.
0.589996 0.0630107 0.
0.591996 0.0630106 0.
0.593997 0.0630106 0.
0.595998 0.0630105 0.
0.597999 0.0630104 0.
0.600001 0.0630103 0.
0.602002 0.0630102 0.
0.604003 0.0630102 0.
0.606004 0.0630102 0.
0.608004 0.0630102 0.
0.610005 0.0630103 0.
0.612006 0.0630104 0.
0.614006 0.0630106 0.
0.616007 0.0630107 0.
0.618007 0.063011 0.
0.620007 0.0630112 0.
0.622008 0.0630114 0.
0.624008 0.0630117 0.
0.626009 0.063012 0.
0.62801 0.0630123 0.
0.63001 0.0630125 0.
0.632011 0.0630127 0.
0.634011 0.0630128 0.
0.636012 0.063013 0.
0.638012 0.0630131 0.
0.640013 0.0630132 0.
0.642013 0.0630132 0.
0.644014 0.0630132 0.
0.646014 0.0630134 0.
0.648015 0.0630137 0.
0.650016 0.0630139 0.
0.652017 0.0630142 0.
0.654017 0.0630145 0.
0.656018 0.0630149 0.
0.658018 0.0630156 0.
0.660019 0.0630163 0.
0.662019 0.0630169 0.
0.66402 0.0630176 0.
0.66602 0.0630182 0.
0.668021 0.0630188 0.
0.670021 0.0630192 0.
0.672022 0.0630197 0.
0.674023 0.0630198 0.
0.676023 0.06302 0.
0.678024 0.0630201 0.
0.680024 0.0630203 0.
0.682025 0.0630206 0.
0.684025 0.0630209 0.
0.686026 0.0630214 0.
0.688027 0.0630219 0.
0.690027 0.0630225 0.
0.692028 0.0630232 0.
0.694028 0.0630239 0.
0.696029 0.0630248 0.
0.698029 0.0630257 0.
0.499972 0.0650245 0.
0.501973 0.0650241 0.
0.503973 0.0650239 0.
0.505973 0.0650236 0.
0.507974 0.065023 0.
0.509974 0.0650224 0.
0.511974 0.0650219 0.
0.513975 0.0650215 0.
0.515975 0.0650211 0.
0.517976 0.0650208 0.
0.519976 0.0650205 0.
0.521977 0.0650203 0.
0.523978 0.0650199 0.
0.525978 0.0650194 0.
0.527979 0.065019 0.
0.529979 0.0650184 0.
0.53198 0.0650179 0.
0.53398 0.0650173 0.
0.535981 0.0650167 0.
0.537982 0.0650161 0.
0.539982 0.0650154 0.
0.541983 0.0650147 0.
0.543983 0.0650139 0.
0.545984 0.0650139 0.
0.547985 0.0650141 0.
0.549985 0.0650142 0.
0.551986 0.0650142 0.
0.553987 0.0650142 0.
0.555988 0.0650142 0.
0.557988 0.0650138 0.
0.559988 0.0650134 0.
0.561989 0.0650131 0.
0.563989 0.065013 0.
0.56599 0.0650128 0.
0.56799 0.0650126 0.
0.569991 0.0650124 0.
0.571991 0.0650122 0.
0.573992 0.0650124 0.
0.575992 0.0650127 0.
0.577993 0.0650129 0.
0.579993 0.0650123 0.
0.581994 0.0650117 0.
0.583994 0.0650112 0.
0.585995 0.0650109 0.
0.587995 0.0650106 0.
0.589996 0.0650104 0.
0.591996 0.0650104 0.
0.593997 0.0650104 0.
0.595998 0.0650103 0.
0.597999 0.0650102 0.
0.600001 0.0650102 0.
0.602002 0.0650102 0.
0.604003 0.0650102 0.
0.606003 0.0650102 0.
0.608004 0.0650101 0.
0.610005 0.0650101 0.
0.612006 0.0650102 0.
0.614006 0.0650106 0.
0.616007 0.065011 0.
0.618007 0.0650113 0.
0.620008 0.0650116 0.
0.622008 0.0650119 0.
0.624009 0.0650119 0.
0.626009 0.0650119 0.
0.62801 0.0650119 0.
0.63001 0.0650122 0.
0.632011 0.0650125 0.
0.634011 0.0650128 0.
0.636012 0.0650131 0.
0.638012 0.0650135 0.
0.640012 0.0650136 0.
0.642013 0.0650136 0.
0.644013 0.0650136 0.
0.646014 0.0650138 0.
0.648015 0.065014 0.
0.650015 0.0650141 0.
0.652016 0.0650144 0.
0.654017 0.0650146 0.
0.656017 0.0650149 0.
0.658018 0.0650156 0.
0.660018 0.0650163 0.
0.662019 0.0650169 0.
0.664019 0.0650176 0.
0.666019 0.0650183 0.
0.66802 0.0650188 0.
0.670021 0.0650192 0.
0.672021 0.0650197 0.
0.674022 0.0650199 0.
0.676022 0.0650202 0.
0.678023 0.0650204 0.
0.680023 0.0650207 0.
0.682024 0.0650209 0.
0.684024 0.0650213 0.
0.686025 0.0650218 0.
0.688026 0.0650224 0.
0.690026 0.065023 0.
0.692027 0.0650236 0.
0.694027 0.0650243 0.
0.696028 0.0650253 0.
0.698028 0.0650263 0.
0.499973 0.0670254 0.
0.501973 0.0670249 0.
0.503974 0.0670245 0.
0.505974 0.0670241 0.
0.507974 0.0670235 0.
0.509975 0.0670229 0.
0.511975 0.0670224 0.
0.513975 0.067022 0.
0.515976 0.0670217 0.
0.517976 0.0670213 0.
0.519977 0.067021 0.
0.521977 0.0670207 0.
0.523978 0.0670204 0.
0.525979 0.06702 0.
0.527979 0.0670196 0.
0.52998 0.067019 0.
0.53198 0.0670183 0.
0.533981 0.0670177 0.
0.535981 0.0670171 0.
0.537982 0.0670164 0.
0.539983 0.0670158 0.
0.541983 0.0670152 0.
0.543984 0.0670146 0.
0.545984 0.0670144 0.
0.547985 0.0670144 0.
0.549986 0.0670144 0.
0.551987 0.0670143 0.
0.553987 0.0670142 0.
0.555988 0.0670141 0.
0.557989 0.0670139 0.
0.559989 0.0670137 0.
0.561989 0.0670136 0.
0.56399 0.0670136 0.
0.56599 0.0670136 0.
0.567991 0.0670133 0.
0.569991 0.0670129 0.
0.571991 0.0670126 0.
0.573992 0.0670125 0.
0.575992 0.0670125 0.
0.577993 0.0670125 0.
0.579993 0.067012 0.
0.581994 0.0670115 0.
0.583994 0.0670111 0.
0.585995 0.0670109 0.
0.587995 0.0670107 0.
0.589996 0.0670106 0.
0.591996 0.0670105 0.
0.593997 0.0670104 0.
0.595998 0.0670104 0.
0.597999 0.0670103 0.
0.600001 0.0670103 0.
0.602002 0.0670103 0.
0.604003 0.0670103 0.
0.606004 0.0670103 0.
0.608004 0.0670103 0.
0.610005 0.0670103 0.
0.612006 0.0670104 0.
0.614006 0.0670107 0.
0.616007 0.067011 0.
0.618007 0.0670113 0.
0.620007 0.0670116 0.
0.622008 0.0670119 0.
0.624008 0.0670121 0.
0.626009 0.0670123 0.
0.62801 0.0670125 0.
0.63001 0.0670128 0.
0.63201 0.0670131 0.
0.634011 0.0670133 0.
0.636011 0.0670135 0.
0.638012 0.0670136 0.
0.640012 0.0670138 0.
0.642012 0.0670139 0.
0.644013 0.067014 0.
0.646014 0.0670142 0.
0.648014 0.0670144 0.
0.650015 0.0670146 0.
0.652016 0.0670149 0.
0.654016 0.0670151 0.
0.656017 0.0670155 0.
0.658017 0.0670162 0.
0.660018 0.0670168 0.
0.662018 0.0670175 0.
0.664019 0.0670181 0.
0.666019 0.0670188 0.
0.668019 0.0670193 0.
0.67002 0.0670197 0.
0.672021 0.0670201 0.
0.674021 0.0670204 0.
0.676022 0.0670207 0.
0.678023 0.0670209 0.
0.680023 0.0670212 0.
0.682023 0.0670215 0.
0.684024 0.0670219 0.
0.686024 0.0670224 0.
0.688025 0.0670229 0.
0.690026 0.0670235 0.
0.692026 0.0670242 0.
0.694026 0.0670249 0.
0.696027 0.0670259 0.
0.698027 0.067027 0.
0.499974 0.0690263 0.
0.501974 0.0690257 0.
0.503974 0.0690251 0.
0.505974 0.0690246 0.
0.507975 0.069024 0.
0.509975 0.0690235 0.
0.511976 0.069023 0.
0.513976 0.0690226 0.
0.515976 0.0690222 0.
0.517977 0.0690219 0.
0.519977 0.0690215 0.
0.521978 0.0690212 0.
0.523978 0.0690209 0.
0.525979 0.0690206 0.
0.52798 0.0690203 0.
0.52998 0.0690195 0.
0.531981 0.0690188 0.
0.533981 0.0690181 0.
0.535982 0.0690174 0.
0.537982 0.0690168 0.
0.539983 0.0690163 0.
0.541983 0.0690157 0.
0.543984 0.0690152 0.
0.545984 0.0690149 0.
0.547985 0.0690147 0.
0.549986 0.0690146 0.
0.551987 0.0690143 0.
0.553988 0.0690141 0.
0.555989 0.0690139 0.
0.557989 0.069014 0.
0.55999 0.069014 0.
0.56199 0.0690141 0.
0.56399 0.0690142 0.
0.565991 0.0690143 0.
0.567991 0.069014 0.
0.569991 0.0690135 0.
0.571991 0.0690129 0.
0.573992 0.0690126 0.
0.575992 0.0690124 0.
0.577992 0.0690121 0.
0.579993 0.0690117 0.
0.581994 0.0690113 0.
0.583994 0.069011 0.
0.585995 0.069011 0.
0.587995 0.0690109 0.
0.589996 0.0690108 0.
0.591997 0.0690106 0.
0.593997 0.0690105 0.
0.595998 0.0690104 0.
0.598 0.0690104 0.
0.600001 0.0690104 0.
0.602002 0.0690104 0.
0.604003 0.0690104 0.
0.606004 0.0690104 0.
0.608004 0.0690104 0.
0.610005 0.0690104 0.
0.612006 0.0690105 0.
0.614006 0.0690107 0.
0.616007 0.0690109 0.
0.618007 0.0690112 0.
0.620007 0.0690115 0.
0.622008 0.0690118 0.
0.624008 0.0690123 0.
0.626009 0.0690128 0.
0.628009 0.0690132 0.
0.63001 0.0690134 0.
0.63201 0.0690137 0.
0.63401 0.0690138 0.
0.636011 0.0690138 0.
0.638011 0.0690138 0.
0.640011 0.0690139 0.
0.642012 0.0690141 0.
0.644012 0.0690143 0.
0.646013 0.0690146 0.
0.648014 0.0690148 0.
0.650015 0.0690151 0.
0.652015 0.0690154 0.
0.654016 0.0690157 0.
0.656017 0.069016 0.
0.658017 0.0690167 0.
0.660017 0.0690174 0.
0.662018 0.0690181 0.
0.664018 0.0690187 0.
0.666018 0.0690193 0.
0.668019 0.0690197 0.
0.67002 0.0690202 0.
0.67202 0.0690206 0.
0.674021 0.0690209 0.
0.676021 0.0690212 0.
0.678022 0.0690215 0.
0.680022 0.0690218 0.
0.682023 0.0690221 0.
0.684023 0.0690225 0.
0.686024 0.069023 0.
0.688024 0.0690235 0.
0.690025 0.0690241 0.
0.692025 0.0690248 0.
0.694025 0.0690255 0.
0.696026 0.0690265 0.
0.698026 0.0690276 0.
0.499975 0.071027 0.
0.501975 0.0710263 0.
0.503975 0.0710257 0.
0.505975 0.0710252 0.
0.507975 0.0710246 0.
0.509976 0.071024 0.
0.511976 0.0710235 0.
0.513977 0.0710231 0.
0.515977 0.0710227 0.
0.517977 0.0710223 0.
0.519978 0.0710219 0.
0.521978 0.0710216 0.
0.523979 0.0710213 0.
0.525979 0.0710209 0.
0.52798 0.0710206 0.
0.529981 0.0710198 0.
0.531981 0.071019 0.
0.533982 0.0710183 0.
0.535982 0.0710177 0.
0.537983 0.0710171 0.
0.539983 0.0710165 0.
0.541984 0.071016 0.
0.543984 0.0710155 0.
0.545985 0.0710151 0.
0.547986 0.0710149 0.
0.549986 0.0710146 0.
0.551987 0.0710144 0.
0.553988 0.0710142 0.
0.555989 0.071014 0.
0.55799 0.0710141 0.
0.55999 0.0710142 0.
0.56199 0.0710143 0.
0.563991 0.0710143 0.
0.565991 0.0710144 0.
0.567991 0.0710141 0.
0.569991 0.0710136 0.
0.571992 0.0710131 0.
0.573992 0.0710127 0.
0.575992 0.0710124 0.
0.577993 0.071012 0.
0.579993 0.0710116 0.
0.581994 0.0710112 0.
0.583994 0.0710109 0.
0.585995 0.0710109 0.
0.587995 0.0710108 0.
0.589996 0.0710107 0.
0.591997 0.0710106 0.
0.593998 0.0710105 0.
0.595999 0.0710104 0.
0.598 0.0710104 0.
0.600001 0.0710104 0.
0.602002 0.0710104 0.
0.604003 0.0710104 0.
0.606004 0.0710104 0.
0.608004 0.0710104 0.
0.610005 0.0710104 0.
0.612005 0.0710105 0.
0.614006 0.0710107 0.
0.616006 0.0710109 0.
0.618007 0.0710111 0.
0.620007 0.0710115 0.
0.622008 0.0710118 0.
0.624008 0.0710124 0.
0.626009 0.071013 0.
0.628009 0.0710135 0.
0.630009 0.0710137 0.
0.63201 0.0710139 0.
0.63401 0.071014 0.
0.63601 0.071014 0.
0.638011 0.071014 0.
0.640011 0.0710141 0.
0.642012 0.0710144 0.
0.644012 0.0710146 0.
0.646013 0.0710149 0.
0.648014 0.0710151 0.
0.650015 0.0710154 0.
0.652015 0.0710157 0.
0.654016 0.071016 0.
0.656016 0.0710164 0.
0.658017 0.071017 0.
0.660017 0.0710177 0.
0.662017 0.0710183 0.
0.664018 0.0710189 0.
0.666018 0.0710195 0.
0.668019 0.07102 0.
0.670019 0.0710205 0.
0.67202 0.0710209 0.
0.67402 0.0710213 0.
0.676021 0.0710216 0.
0.678022 0.071022 0.
0.680022 0.0710223 0.
0.682022 0.0710227 0.
0.684023 0.071023 0.
0.686023 0.0710235 0.
0.688024 0.071024 0.
0.690024 0.0710246 0.
0.692024 0.0710253 0.
0.694024 0.0710259 0.
0.696025 0.071027 0.
0.698025 0.0710281 0.
0.499976 0.0730273 0.
0.501976 0.0730267 0.
0.503976 0.0730263 0.
0.505976 0.0730258 0.
0.507976 0.0730252 0.
0.509977 0.0730246 0.
0.511977 0.073024 0.
0.513977 0.0730235 0.
0.515978 0.073023 0.
0.517978 0.0730226 0.
0.519978 0.0730223 0.
0.521979 0.0730219 0.
0.523979 0.0730215 0.
0.52598 0.0730211 0.
0.52798 0.0730206 0.
0.529981 0.0730199 0.
0.531981 0.0730191 0.
0.533982 0.0730184 0.
0.535983 0.0730179 0.
0.537983 0.0730173 0.
0.539984 0.0730167 0.
0.541984 0.073016 0.
0.543985 0.0730154 0.
0.545985 0.0730151 0.
0.547986 0.0730149 0.
0.549987 0.0730146 0.
0.551988 0.0730145 0.
0.553988 0.0730145 0.
0.555989 0.0730144 0.
0.55799 0.0730143 0.
0.55999 0.0730142 0.
0.56199 0.0730141 0.
0.563991 0.0730141 0.
0.565991 0.073014 0.
0.567991 0.0730138 0.
0.569992 0.0730134 0.
0.571992 0.0730131 0.
0.573992 0.0730128 0.
0.575993 0.0730126 0.
0.577993 0.0730123 0.
0.579994 0.0730117 0.
0.581994 0.0730111 0.
0.583995 0.0730107 0.
0.585995 0.0730107 0.
0.587996 0.0730106 0.
0.589996 0.0730105 0.
0.591997 0.0730104 0.
0.593998 0.0730104 0.
0.595999 0.0730103 0.
0.598 0.0730103 0.
0.6 0.0730103 0.
0.602001 0.0730103 0.
0.604002 0.0730103 0.
0.606003 0.0730103 0.
0.608004 0.0730102 0.
0.610004 0.0730101 0.
0.612005 0.0730102 0.
0.614005 0.0730105 0.
0.616006 0.0730107 0.
0.618006 0.0730111 0.
0.620007 0.0730116 0.
0.622007 0.073012 0.
0.624008 0.0730125 0.
0.626008 0.073013 0.
0.628009 0.0730134 0.
0.630009 0.0730135 0.
0.63201 0.0730137 0.
0.63401 0.0730138 0.
0.636011 0.0730141 0.
0.638011 0.0730143 0.
0.640011 0.0730145 0.
0.642012 0.0730147 0.
0.644012 0.0730149 0.
0.646013 0.0730151 0.
0.648013 0.0730153 0.
0.650014 0.0730155 0.
0.652015 0.0730158 0.
0.654015 0.0730161 0.
0.656016 0.0730165 0.
0.658016 0.0730171 0.
0.660017 0.0730177 0.
0.662017 0.0730183 0.
0.664017 0.0730189 0.
0.666018 0.0730196 0.
0.668018 0.0730201 0.
0.670019 0.0730206 0.
0.672019 0.0730211 0.
0.67402 0.0730216 0.
0.67602 0.073022 0.
0.678021 0.0730224 0.
0.680021 0.0730228 0.
0.682022 0.0730232 0.
0.684022 0.0730236 0.
0.686022 0.073024 0.
0.688023 0.0730245 0.
0.690023 0.073025 0.
0.692023 0.0730256 0.
0.694023 0.0730262 0.
0.696024 0.0730273 0.
0.698024 0.0730286 0.
0.499977 0.0750276 0.
0.501977 0.0750272 0.
0.503977 0.0750268 0.
0.505977 0.0750264 0.
0.507977 0.0750258 0.
0.509977 0.0750251 0.
0.511978 0.0750245 0.
0.513978 0.0750239 0.
0.515978 0.0750233 0.
0.517979 0.0750229 0.
0.519979 0.0750226 0.
0.521979 0.0750223 0.
0.52398 0.0750218 0.
0.52598 0.0750212 0.
0.527981 0.0750206 0.
0.529981 0.0750199 0.
0.531982 0.0750192 0.
0.533982 0.0750186 0.
0.535983 0.075018 0.
0.537984 0.0750175 0.
0.539984 0.0750168 0.
0.541985 0.0750161 0.
0.543985 0.0750153 0.
0.545986 0.075015 0.
0.547986 0.0750148 0.
0.549987 0.0750146 0.
0.551988 0.0750147 0.
0.553989 0.0750147 0.
0.555989 0.0750147 0.
0.55799 0.0750145 0.
0.55999 0.0750142 0.
0.56199 0.075014 0.
0.563991 0.0750138 0.
0.565991 0.0750135 0.
0.567991 0.0750134 0.
0.569992 0.0750133 0.
0.571992 0.0750131 0.
0.573993 0.075013 0.
0.575993 0.0750128 0.
0.577994 0.0750125 0.
0.579994 0.0750118 0.
0.581995 0.0750111 0.
0.583996 0.0750106 0.
0.585996 0.0750105 0.
0.587996 0.0750103 0.
0.589997 0.0750103 0.
0.591998 0.0750103 0.
0.593998 0.0750103 0.
0.595999 0.0750103 0.
0.597999 0.0750102 0.
0.6 0.0750102 0.
0.602001 0.0750102 0.
0.604002 0.0750102 0.
0.606003 0.0750102 0.
0.608003 0.07501 0.
0.610004 0.0750099 0.
0.612005 0.0750099 0.
0.614005 0.0750103 0.
0.616005 0.0750106 0.
0.618006 0.0750111 0.
0.620007 0.0750117 0.
0.622007 0.0750123 0.
0.624008 0.0750126 0.
0.626008 0.0750129 0.
0.628009 0.0750132 0.
0.630009 0.0750134 0.
0.63201 0.0750135 0.
0.63401 0.0750137 0.
0.636011 0.0750141 0.
0.638011 0.0750145 0.
0.640011 0.0750148 0.
0.642011 0.075015 0.
0.644012 0.0750151 0.
0.646012 0.0750153 0.
0.648013 0.0750154 0.
0.650014 0.0750156 0.
0.652014 0.0750159 0.
0.654015 0.0750163 0.
0.656015 0.0750167 0.
0.658016 0.0750172 0.
0.660016 0.0750178 0.
0.662017 0.0750183 0.
0.664017 0.075019 0.
0.666017 0.0750196 0.
0.668018 0.0750202 0.
0.670018 0.0750208 0.
0.672019 0.0750214 0.
0.674019 0.0750219 0.
0.67602 0.0750224 0.
0.67802 0.0750229 0.
0.68002 0.0750233 0.
0.682021 0.0750237 0.
0.684021 0.0750241 0.
0.686021 0.0750246 0.
0.688022 0.075025 0.
0.690022 0.0750254 0.
0.692022 0.0750259 0.
0.694022 0.0750264 0.
0.696022 0.0750276 0.
0.698023 0.075029 0.
0.499978 0.0770283 0.
0.501978 0.0770277 0.
0.503978 0.0770272 0.
0.505978 0.0770267 0.
0.507978 0.077026 0.
0.509978 0.0770254 0.
0.511978 0.0770248 0.
0.513979 0.0770242 0.
0.515979 0.0770237 0.
0.517979 0.0770232 0.
0.51998 0.0770228 0.
0.52198 0.0770224 0.
0.52398 0.0770219 0.
0.525981 0.0770214 0.
0.527981 0.0770208 0.
0.529982 0.0770201 0.
0.531982 0.0770194 0.
0.533983 0.0770188 0.
0.535983 0.0770181 0.
0.537984 0.0770175 0.
0.539984 0.0770169 0.
0.541985 0.0770162 0.
0.543985 0.0770155 0.
0.545986 0.0770152 0.
0.547987 0.0770149 0.
0.549987 0.0770146 0.
0.551988 0.0770146 0.
0.553989 0.0770146 0.
0.55599 0.0770146 0.
0.55799 0.0770144 0.
0.55999 0.0770143 0.
0.561991 0.0770142 0.
0.563991 0.0770139 0.
0.565991 0.0770137 0.
0.567992 0.0770135 0.
0.569992 0.0770132 0.
0.571992 0.077013 0.
0.573993 0.0770127 0.
0.575994 0.0770125 0.
0.577994 0.0770122 0.
0.579995 0.0770116 0.
0.581995 0.0770111 0.
0.583996 0.0770106 0.
0.585996 0.0770105 0.
0.587997 0.0770104 0.
0.589997 0.0770103 0.
0.591998 0.0770102 0.
0.593998 0.0770101 0.
0.595999 0.0770101 0.
0.598 0.0770101 0.
0.6 0.0770101 0.
0.602001 0.0770101 0.
0.604002 0.0770101 0.
0.606003 0.0770101 0.
0.608003 0.07701 0.
0.610004 0.0770099 0.
0.612004 0.07701 0.
0.614005 0.0770104 0.
0.616005 0.0770107 0.
0.618006 0.0770111 0.
0.620006 0.0770116 0.
0.622007 0.077012 0.
0.624007 0.0770124 0.
0.626008 0.0770128 0.
0.628008 0.0770131 0.
0.630009 0.0770134 0.
0.632009 0.0770136 0.
0.63401 0.0770139 0.
0.63601 0.0770142 0.
0.63801 0.0770145 0.
0.640011 0.0770148 0.
0.642011 0.077015 0.
0.644011 0.0770153 0.
0.646012 0.0770155 0.
0.648013 0.0770156 0.
0.650014 0.0770158 0.
0.652014 0.0770161 0.
0.654014 0.0770164 0.
0.656015 0.0770168 0.
0.658015 0.0770173 0.
0.660016 0.0770178 0.
0.662016 0.0770184 0.
0.664017 0.0770191 0.
0.666017 0.0770197 0.
0.668017 0.0770203 0.
0.670018 0.0770209 0.
0.672018 0.0770215 0.
0.674019 0.077022 0.
0.676019 0.0770226 0.
0.678019 0.0770231 0.
0.68002 0.0770236 0.
0.68202 0.077024 0.
0.68402 0.0770245 0.
0.686021 0.077025 0.
0.688021 0.0770255 0.
0.690021 0.0770259 0.
0.692021 0.0770264 0.
0.694021 0.0770269 0.
0.696022 0.0770279 0.
0.698022 0.0770291 0.
0.499979 0.0790289 0.
0.501979 0.0790283 0.
0.503979 0.0790276 0.
0.505979 0.0790269 0.
0.507979 0.0790263 0.
0.509979 0.0790257 0.
0.511979 0.0790251 0.
0.513979 0.0790246 0.
0.51598 0.079024 0.
0.51798 0.0790235 0.
0.51998 0.079023 0.
0.521981 0.0790225 0.
0.523981 0.079022 0.
0.525981 0.0790215 0.
0.527982 0.079021 0.
0.529982 0.0790203 0.
0.531983 0.0790196 0.
0.533983 0.079019 0.
0.535984 0.0790183 0.
0.537984 0.0790176 0.
0.539985 0.0790169 0.
0.541985 0.0790163 0.
0.543986 0.0790157 0.
0.545986 0.0790153 0.
0.547987 0.079015 0.
0.549988 0.0790147 0.
0.551988 0.0790146 0.
0.553989 0.0790145 0.
0.55599 0.0790145 0.
0.55799 0.0790144 0.
0.559991 0.0790144 0.
0.561991 0.0790143 0.
0.563992 0.0790141 0.
0.565992 0.0790139 0.
0.567992 0.0790135 0.
0.569992 0.0790132 0.
0.571993 0.0790128 0.
0.573993 0.0790125 0.
0.575994 0.0790122 0.
0.577994 0.0790119 0.
0.579995 0.0790115 0.
0.581995 0.079011 0.
0.583996 0.0790107 0.
0.585996 0.0790106 0.
0.587997 0.0790105 0.
0.589997 0.0790104 0.
0.591998 0.0790102 0.
0.593999 0.07901 0.
0.595999 0.07901 0.
0.598 0.07901 0.
0.6 0.07901 0.
0.602001 0.07901 0.
0.604002 0.07901 0.
0.606002 0.07901 0.
0.608003 0.07901 0.
0.610003 0.07901 0.
0.612004 0.0790102 0.
0.614004 0.0790105 0.
0.616005 0.0790108 0.
0.618005 0.0790111 0.
0.620006 0.0790115 0.
0.622006 0.0790118 0.
0.624007 0.0790122 0.
0.626007 0.0790126 0.
0.628008 0.079013 0.
0.630008 0.0790134 0.
0.632009 0.0790138 0.
0.634009 0.0790141 0.
0.63601 0.0790143 0.
0.63801 0.0790145 0.
0.64001 0.0790148 0.
0.642011 0.0790151 0.
0.644011 0.0790154 0.
0.646012 0.0790156 0.
0.648013 0.0790158 0.
0.650013 0.079016 0.
0.652014 0.0790162 0.
0.654014 0.0790165 0.
0.656015 0.0790169 0.
0.658015 0.0790174 0.
0.660016 0.0790179 0.
0.662016 0.0790185 0.
0.664016 0.0790192 0.
0.666017 0.0790198 0.
0.668017 0.0790204 0.
0.670017 0.079021 0.
0.672017 0.0790216 0.
0.674018 0.0790222 0.
0.676018 0.0790228 0.
0.678019 0.0790234 0.
0.680019 0.0790239 0.
0.682019 0.0790243 0.
0.68402 0.0790248 0.
0.68602 0.0790254 0.
0.68802 0.0790259 0.
0.690021 0.0790264 0.
0.692021 0.0790269 0.
0.694021 0.0790274 0.
0.696021 0.0790282 0.
0.698021 0.0790292 0.
0.499979 0.0810295 0.
0.501979 0.0810288 0.
0.503979 0.0810279 0.
0.505979 0.0810272 0.
0.507979 0.0810266 0.
0.50998 0.081026 0.
0.51198 0.0810255 0.
0.51398 0.0810249 0.
0.515981 0.0810243 0.
0.517981 0.0810238 0.
0.519981 0.0810233 0.
0.521981 0.0810227 0.
0.523982 0.0810222 0.
0.525982 0.0810217 0.
0.527982 0.0810211 0.
0.529983 0.0810204 0.
0.531983 0.0810197 0.
0.533983 0.0810189 0.
0.535984 0.0810182 0.
0.537984 0.0810175 0.
0.539985 0.0810168 0.
0.541986 0.0810163 0.
0.543986 0.0810157 0.
0.545987 0.0810153 0.
0.547987 0.0810149 0.
0.549988 0.0810146 0.
0.551989 0.0810145 0.
0.553989 0.0810144 0.
0.55599 0.0810143 0.
0.557991 0.0810143 0.
0.559991 0.0810143 0.
0.561992 0.0810142 0.
0.563992 0.081014 0.
0.565992 0.0810138 0.
0.567993 0.0810134 0.
0.569993 0.081013 0.
0.571993 0.0810125 0.
0.573994 0.0810122 0.
0.575994 0.0810119 0.
0.577995 0.0810116 0.
0.579995 0.0810113 0.
0.581996 0.081011 0.
0.583996 0.0810107 0.
0.585997 0.0810106 0.
0.587997 0.0810105 0.
0.589998 0.0810104 0.
0.591998 0.0810102 0.
0.593999 0.08101 0.
0.595999 0.08101 0.
0.598 0.08101 0.
0.6 0.08101 0.
0.602001 0.08101 0.
0.604002 0.08101 0.
0.606002 0.08101 0.
0.608003 0.08101 0.
0.610003 0.08101 0.
0.612004 0.0810101 0.
0.614004 0.0810104 0.
0.616005 0.0810107 0.
0.618005 0.081011 0.
0.620006 0.0810114 0.
0.622006 0.0810117 0.
0.624006 0.0810121 0.
0.626007 0.0810125 0.
0.628007 0.0810129 0.
0.630008 0.0810133 0.
0.632008 0.0810137 0.
0.634009 0.0810141 0.
0.636009 0.0810142 0.
0.638009 0.0810144 0.
0.64001 0.0810146 0.
0.64201 0.081015 0.
0.644011 0.0810153 0.
0.646011 0.0810155 0.
0.648012 0.0810157 0.
0.650013 0.0810159 0.
0.652014 0.0810162 0.
0.654014 0.0810165 0.
0.656015 0.0810168 0.
0.658015 0.0810173 0.
0.660015 0.0810178 0.
0.662016 0.0810184 0.
0.664016 0.0810191 0.
0.666016 0.0810199 0.
0.668017 0.0810205 0.
0.670017 0.0810211 0.
0.672017 0.0810217 0.
0.674017 0.0810224 0.
0.676018 0.081023 0.
0.678018 0.0810237 0.
0.680018 0.0810242 0.
0.682019 0.0810246 0.
0.684019 0.0810251 0.
0.686019 0.0810257 0.
0.68802 0.0810264 0.
0.69002 0.0810269 0.
0.69202 0.0810273 0.
0.69402 0.0810278 0.
0.69602 0.0810285 0.
0.69802 0.0810292 0.
0.49998 0.0830298 0.
0.50198 0.0830291 0.
0.50398 0.0830282 0.
0.50598 0.0830274 0.
0.50798 0.0830269 0.
0.50998 0.0830264 0.
0.511981 0.0830259 0.
0.513981 0.0830253 0.
0.515981 0.0830246 0.
0.517981 0.0830241 0.
0.519982 0.0830236 0.
0.521982 0.0830231 0.
0.523982 0.0830225 0.
0.525982 0.0830218 0.
0.527983 0.0830212 0.
0.529983 0.0830203 0.
0.531983 0.0830195 0.
0.533984 0.0830187 0.
0.535984 0.083018 0.
0.537985 0.0830172 0.
0.539985 0.0830166 0.
0.541986 0.0830161 0.
0.543986 0.0830156 0.
0.545987 0.0830151 0.
0.547988 0.0830148 0.
0.549988 0.0830144 0.
0.551989 0.0830143 0.
0.55399 0.0830142 0.
0.555991 0.0830142 0.
0.557991 0.0830141 0.
0.559991 0.083014 0.
0.561992 0.0830138 0.
0.563992 0.0830136 0.
0.565993 0.0830134 0.
0.567993 0.083013 0.
0.569993 0.0830126 0.
0.571994 0.0830122 0.
0.573994 0.0830119 0.
0.575995 0.0830117 0.
0.577995 0.0830114 0.
0.579996 0.0830112 0.
0.581996 0.0830109 0.
0.583997 0.0830107 0.
0.585997 0.0830106 0.
0.587997 0.0830105 0.
0.589998 0.0830104 0.
0.591998 0.0830103 0.
0.593999 0.0830102 0.
0.595999 0.0830102 0.
0.598 0.0830101 0.
0.6 0.08301 0.
0.602001 0.0830101 0.
0.604001 0.0830102 0.
0.606002 0.0830102 0.
0.608003 0.08301 0.
0.610003 0.0830099 0.
0.612004 0.0830099 0.
0.614004 0.0830102 0.
0.616004 0.0830104 0.
0.618005 0.0830108 0.
0.620005 0.0830112 0.
0.622006 0.0830117 0.
0.624006 0.083012 0.
0.626006 0.0830123 0.
0.628007 0.0830126 0.
0.630007 0.0830131 0.
0.632008 0.0830135 0.
0.634008 0.0830139 0.
0.636008 0.083014 0.
0.638009 0.0830141 0.
0.640009 0.0830143 0.
0.64201 0.0830147 0.
0.64401 0.083015 0.
0.646011 0.0830152 0.
0.648012 0.0830155 0.
0.650013 0.0830157 0.
0.652013 0.083016 0.
0.654014 0.0830162 0.
0.656014 0.0830166 0.
0.658015 0.0830171 0.
0.660015 0.0830176 0.
0.662016 0.0830182 0.
0.664016 0.083019 0.
0.666016 0.0830199 0.
0.668016 0.0830205 0.
0.670016 0.0830212 0.
0.672017 0.0830218 0.
0.674017 0.0830225 0.
0.676017 0.0830233 0.
0.678018 0.083024 0.
0.680018 0.0830245 0.
0.682018 0.083025 0.
0.684018 0.0830255 0.
0.686019 0.0830261 0.
0.688019 0.0830267 0.
0.690019 0.0830272 0.
0.692019 0.0830277 0.
0.69402 0.0830281 0.
0.69602 0.0830286 0.
0.69802 0.0830291 0.
0.49998 0.0850302 0.
0.50198 0.0850294 0.
0.50398 0.0850285 0.
0.505981 0.0850276 0.
0.507981 0.0850272 0.
0.509981 0.0850268 0.
0.511981 0.0850263 0.
0.513981 0.0850256 0.
0.515982 0.0850249 0.
0.517982 0.0850244 0.
0.519982 0.0850239 0.
0.521982 0.0850234 0.
0.523983 0.0850227 0.
0.525983 0.085022 0.
0.527983 0.0850212 0.
0.529984 0.0850203 0.
0.531984 0.0850193 0.
0.533984 0.0850185 0.
0.535985 0.0850177 0.
0.537985 0.085017 0.
0.539986 0.0850164 0.
0.541986 0.0850159 0.
0.543987 0.0850154 0.
0.545987 0.085015 0.
0.547988 0.0850146 0.
0.549988 0.0850142 0.
0.551989 0.0850141 0.
0.55399 0.0850141 0.
0.555991 0.085014 0.
0.557991 0.0850138 0.
0.559992 0.0850136 0.
0.561992 0.0850134 0.
0.563993 0.0850132 0.
0.565993 0.085013 0.
0.567994 0.0850127 0.
0.569994 0.0850123 0.
0.571994 0.0850119 0.
0.573995 0.0850116 0.
0.575995 0.0850114 0.
0.577996 0.0850112 0.
0.579996 0.085011 0.
0.581997 0.0850108 0.
0.583997 0.0850106 0.
0.585997 0.0850106 0.
0.587998 0.0850105 0.
0.589998 0.0850104 0.
0.591998 0.0850104 0.
0.593999 0.0850104 0.
0.595999 0.0850103 0.
0.598 0.0850102 0.
0.6 0.0850101 0.
0.602001 0.0850102 0.
0.604001 0.0850103 0.
0.606002 0.0850103 0.
0.608003 0.0850101 0.
0.610003 0.0850098 0.
0.612003 0.0850097 0.
0.614004 0.08501 0.
0.616004 0.0850102 0.
0.618004 0.0850106 0.
0.620005 0.0850111 0.
0.622005 0.0850116 0.
0.624005 0.0850119 0.
0.626006 0.0850121 0.
0.628006 0.0850124 0.
0.630007 0.0850129 0.
0.632007 0.0850133 0.
0.634007 0.0850137 0.
0.636008 0.0850138 0.
0.638008 0.0850139 0.
0.640009 0.0850141 0.
0.642009 0.0850144 0.
0.64401 0.0850146 0.
0.646011 0.0850149 0.
0.648012 0.0850152 0.
0.650012 0.0850155 0.
0.652013 0.0850157 0.
0.654014 0.085016 0.
0.656014 0.0850163 0.
0.658015 0.0850168 0.
0.660015 0.0850173 0.
0.662015 0.085018 0.
0.664016 0.0850189 0.
0.666016 0.0850199 0.
0.668016 0.0850206 0.
0.670016 0.0850213 0.
0.672016 0.0850219 0.
0.674017 0.0850227 0.
0.676017 0.0850236 0.
0.678017 0.0850244 0.
0.680017 0.0850249 0.
0.682017 0.0850254 0.
0.684018 0.0850259 0.
0.686018 0.0850265 0.
0.688018 0.0850271 0.
0.690019 0.0850276 0.
0.692019 0.085028 0.
0.694019 0.0850284 0.
0.696019 0.0850287 0.
0.698019 0.085029 0.
0.499981 0.0870304 0.
0.501981 0.0870297 0.
0.503981 0.0870287 0.
0.505981 0.0870278 0.
0.507981 0.0870274 0.
0.509982 0.0870269 0.
0.511982 0.0870264 0.
0.513982 0.0870257 0.
0.515982 0.0870251 0.
0.517982 0.0870245 0.
0.519983 0.087024 0.
0.521983 0.0870235 0.
0.523983 0.0870228 0.
0.525983 0.087022 0.
0.527984 0.0870212 0.
0.529984 0.0870203 0.
0.531984 0.0870194 0.
0.533985 0.0870186 0.
0.535985 0.0870178 0.
0.537986 0.087017 0.
0.539986 0.0870164 0.
0.541987 0.0870158 0.
0.543987 0.0870153 0.
0.545988 0.0870148 0.
0.547988 0.0870144 0.
0.549989 0.0870141 0.
0.55199 0.087014 0.
0.55399 0.0870138 0.
0.555991 0.0870137 0.
0.557992 0.0870136 0.
0.559992 0.0870134 0.
0.561992 0.0870133 0.
0.563993 0.0870131 0.
0.565993 0.0870129 0.
0.567994 0.0870125 0.
0.569994 0.0870121 0.
0.571994 0.0870117 0.
0.573995 0.0870114 0.
0.575995 0.0870112 0.
0.577996 0.087011 0.
0.579996 0.0870109 0.
0.581997 0.0870108 0.
0.583997 0.0870107 0.
0.585997 0.0870106 0.
0.587998 0.0870106 0.
0.589998 0.0870105 0.
0.591999 0.0870105 0.
0.593999 0.0870104 0.
0.595999 0.0870103 0.
0.598 0.0870102 0.
0.6 0.0870101 0.
0.602001 0.0870102 0.
0.604001 0.0870102 0.
0.606002 0.0870102 0.
0.608002 0.0870101 0.
0.610003 0.0870099 0.
0.612003 0.0870099 0.
0.614003 0.0870101 0.
0.616004 0.0870103 0.
0.618004 0.0870106 0.
0.620004 0.0870111 0.
0.622005 0.0870115 0.
0.624005 0.0870117 0.
0.626006 0.0870119 0.
0.628006 0.0870121 0.
0.630006 0.0870126 0.
0.632007 0.0870131 0.
0.634007 0.0870134 0.
0.636008 0.0870136 0.
0.638008 0.0870138 0.
0.640009 0.087014 0.
0.642009 0.0870142 0.
0.64401 0.0870145 0.
0.64601 0.0870147 0.
0.648011 0.0870149 0.
0.650012 0.0870152 0.
0.652013 0.0870155 0.
0.654013 0.0870159 0.
0.656014 0.0870163 0.
0.658014 0.0870169 0.
0.660014 0.0870174 0.
0.662015 0.0870181 0.
0.664015 0.087019 0.
0.666015 0.0870199 0.
0.668015 0.0870207 0.
0.670016 0.0870214 0.
0.672016 0.0870221 0.
0.674016 0.0870229 0.
0.676016 0.0870238 0.
0.678017 0.0870246 0.
0.680017 0.0870252 0.
0.682017 0.0870257 0.
0.684017 0.0870262 0.
0.686018 0.0870268 0.
0.688018 0.0870274 0.
0.690018 0.0870279 0.
0.692018 0.0870283 0.
0.694019 0.0870287 0.
0.696019 0.087029 0.
0.698019 0.0870294 0.
0.499982 0.0890306 0.
0.501982 0.0890299 0.
0.503982 0.0890289 0.
0.505982 0.0890281 0.
0.507982 0.0890276 0.
0.509982 0.0890271 0.
0.511982 0.0890265 0.
0.513983 0.0890259 0.
0.515983 0.0890253 0.
0.517983 0.0890247 0.
0.519983 0.0890242 0.
0.521983 0.0890237 0.
0.523984 0.0890229 0.
0.525984 0.089022 0.
0.527984 0.0890212 0.
0.529985 0.0890203 0.
0.531985 0.0890195 0.
0.533985 0.0890187 0.
0.535986 0.0890179 0.
0.537986 0.0890171 0.
0.539987 0.0890164 0.
0.541987 0.0890158 0.
0.543988 0.0890151 0.
0.545988 0.0890147 0.
0.547989 0.0890143 0.
0.549989 0.0890139 0.
0.55199 0.0890138 0.
0.553991 0.0890136 0.
0.555991 0.0890135 0.
0.557992 0.0890134 0.
0.559992 0.0890133 0.
0.561993 0.0890131 0.
0.563993 0.0890129 0.
0.565994 0.0890127 0.
0.567994 0.0890123 0.
0.569994 0.0890119 0.
0.571995 0.0890114 0.
0.573995 0.0890112 0.
0.575996 0.089011 0.
0.577996 0.0890108 0.
0.579996 0.0890108 0.
0.581997 0.0890107 0.
0.583997 0.0890107 0.
0.585997 0.0890107 0.
0.587998 0.0890106 0.
0.589998 0.0890106 0.
0.591999 0.0890105 0.
0.593999 0.0890104 0.
0.596 0.0890103 0.
0.598 0.0890102 0.
0.6 0.0890102 0.
0.602001 0.0890101 0.
0.604002 0.0890101 0.
0.606002 0.0890101 0.
0.608002 0.08901 0.
0.610003 0.08901 0.
0.612003 0.0890101 0.
0.614003 0.0890103 0.
0.616003 0.0890104 0.
0.618004 0.0890107 0.
0.620004 0.089011 0.
0.622004 0.0890113 0.
0.624005 0.0890115 0.
0.626005 0.0890117 0.
0.628006 0.0890119 0.
0.630006 0.0890123 0.
0.632007 0.0890128 0.
0.634007 0.0890132 0.
0.636007 0.0890134 0.
0.638008 0.0890137 0.
0.640008 0.0890139 0.
0.642009 0.0890141 0.
0.644009 0.0890143 0.
0.64601 0.0890145 0.
0.648011 0.0890147 0.
0.650012 0.0890148 0.
0.652012 0.0890153 0.
0.654013 0.0890158 0.
0.656013 0.0890164 0.
0.658014 0.0890169 0.
0.660014 0.0890175 0.
0.662014 0.0890182 0.
0.664014 0.0890191 0.
0.666015 0.0890199 0.
0.668015 0.0890207 0.
0.670015 0.0890215 0.
0.672015 0.0890223 0.
0.674016 0.0890231 0.
0.676016 0.089024 0.
0.678017 0.0890249 0.
0.680017 0.0890254 0.
0.682017 0.089026 0.
0.684017 0.0890265 0.
0.686017 0.0890271 0.
0.688018 0.0890276 0.
0.690018 0.0890281 0.
0.692018 0.0890285 0.
0.694018 0.089029 0.
0.696018 0.0890294 0.
0.698019 0.0890298 0.
0.499982 0.0910308 0.
0.501982 0.0910301 0.
0.503983 0.0910291 0.
0.505983 0.0910282 0.
0.507983 0.0910278 0.
0.509983 0.0910273 0.
0.511983 0.0910268 0.
0.513983 0.0910262 0.
0.515983 0.0910255 0.
0.517983 0.091025 0.
0.519984 0.0910244 0.
0.521984 0.0910239 0.
0.523984 0.091023 0.
0.525984 0.0910221 0.
0.527985 0.0910212 0.
0.529985 0.0910204 0.
0.531986 0.0910195 0.
0.533986 0.0910187 0.
0.535986 0.0910179 0.
0.537987 0.0910171 0.
0.539987 0.0910164 0.
0.541988 0.0910157 0.
0.543988 0.091015 0.
0.545989 0.0910146 0.
0.547989 0.0910142 0.
0.549989 0.0910138 0.
0.55199 0.0910136 0.
0.553991 0.0910134 0.
0.555992 0.0910132 0.
0.557992 0.0910131 0.
0.559993 0.0910131 0.
0.561993 0.0910129 0.
0.563993 0.0910127 0.
0.565994 0.0910125 0.
0.567994 0.0910121 0.
0.569995 0.0910117 0.
0.571995 0.0910112 0.
0.573995 0.091011 0.
0.575996 0.0910108 0.
0.577996 0.0910106 0.
0.579997 0.0910106 0.
0.581997 0.0910106 0.
0.583997 0.0910106 0.
0.585998 0.0910106 0.
0.587998 0.0910106 0.
0.589998 0.0910106 0.
0.591999 0.0910105 0.
0.593999 0.0910105 0.
0.595999 0.0910104 0.
0.598 0.0910103 0.
0.6 0.0910103 0.
0.602001 0.0910102 0.
0.604001 0.0910101 0.
0.606002 0.0910101 0.
0.608002 0.0910101 0.
0.610002 0.0910101 0.
0.612003 0.0910101 0.
0.614003 0.0910103 0.
0.616003 0.0910104 0.
0.618003 0.0910106 0.
0.620004 0.0910108 0.
0.622004 0.091011 0.
0.624005 0.0910112 0.
0.626005 0.0910114 0.
0.628006 0.0910117 0.
0.630006 0.0910121 0.
0.632006 0.0910126 0.
0.634007 0.091013 0.
0.636007 0.0910133 0.
0.638008 0.0910136 0.
0.640008 0.0910138 0.
0.642009 0.091014 0.
0.644009 0.0910141 0.
0.64601 0.0910143 0.
0.648011 0.0910145 0.
0.650011 0.0910146 0.
0.652012 0.0910152 0.
0.654012 0.0910157 0.
0.656013 0.0910163 0.
0.658013 0.0910169 0.
0.660013 0.0910175 0.
0.662014 0.0910182 0.
0.664014 0.0910191 0.
0.666014 0.09102 0.
0.668014 0.0910208 0.
0.670015 0.0910216 0.
0.672015 0.0910224 0.
0.674015 0.0910233 0.
0.676016 0.0910242 0.
0.678016 0.0910251 0.
0.680016 0.0910257 0.
0.682017 0.0910263 0.
0.684017 0.0910269 0.
0.686017 0.0910274 0.
0.688017 0.091028 0.
0.690018 0.0910284 0.
0.692018 0.0910288 0.
0.694018 0.0910292 0.
0.696018 0.0910295 0.
0.698018 0.0910299 0.
0.499983 0.0930309 0.
0.501983 0.0930302 0.
0.503983 0.0930292 0.
0.505983 0.0930284 0.
0.507983 0.093028 0.
0.509984 0.0930276 0.
0.511984 0.0930271 0.
0.513984 0.0930265 0.
0.515984 0.0930259 0.
0.517984 0.0930253 0.
0.519984 0.0930247 0.
0.521984 0.0930242 0.
0.523985 0.0930233 0.
0.525985 0.0930223 0.
0.527985 0.0930213 0.
0.529986 0.0930204 0.
0.531986 0.0930195 0.
0.533987 0.0930186 0.
0.535987 0.0930178 0.
0.537988 0.093017 0.
0.539988 0.0930162 0.
0.541989 0.0930156 0.
0.543989 0.093015 0.
0.545989 0.0930145 0.
0.54799 0.093014 0.
0.54999 0.0930136 0.
0.551991 0.0930134 0.
0.553991 0.0930131 0.
0.555992 0.093013 0.
0.557993 0.0930129 0.
0.559993 0.0930129 0.
0.561993 0.0930127 0.
0.563994 0.0930125 0.
0.565994 0.0930122 0.
0.567995 0.0930119 0.
0.569995 0.0930114 0.
0.571995 0.093011 0.
0.573996 0.0930108 0.
0.575996 0.0930106 0.
0.577997 0.0930104 0.
0.579997 0.0930104 0.
0.581997 0.0930104 0.
0.583997 0.0930105 0.
0.585998 0.0930105 0.
0.587998 0.0930105 0.
0.589998 0.0930105 0.
0.591999 0.0930105 0.
0.593999 0.0930106 0.
0.595999 0.0930105 0.
0.598 0.0930105 0.
0.6 0.0930104 0.
0.602001 0.0930103 0.
0.604001 0.0930103 0.
0.606002 0.0930102 0.
0.608002 0.0930101 0.
0.610002 0.0930101 0.
0.612002 0.09301 0.
0.614003 0.0930101 0.
0.616003 0.0930101 0.
0.618003 0.0930103 0.
0.620004 0.0930105 0.
0.622004 0.0930107 0.
0.624004 0.093011 0.
0.626005 0.0930113 0.
0.628005 0.0930116 0.
0.630006 0.0930121 0.
0.632006 0.0930125 0.
0.634006 0.0930129 0.
0.636007 0.0930133 0.
0.638007 0.0930136 0.
0.640008 0.0930137 0.
0.642008 0.0930138 0.
0.644008 0.0930139 0.
0.646009 0.0930141 0.
0.64801 0.0930143 0.
0.650011 0.0930145 0.
0.652011 0.093015 0.
0.654012 0.0930156 0.
0.656012 0.0930161 0.
0.658012 0.0930168 0.
0.660013 0.0930174 0.
0.662013 0.0930182 0.
0.664014 0.0930191 0.
0.666014 0.09302 0.
0.668014 0.0930209 0.
0.670014 0.0930216 0.
0.672015 0.0930224 0.
0.674015 0.0930234 0.
0.676015 0.0930245 0.
0.678016 0.0930255 0.
0.680016 0.0930261 0.
0.682016 0.0930267 0.
0.684017 0.0930273 0.
0.686017 0.0930278 0.
0.688017 0.0930283 0.
0.690017 0.0930287 0.
0.692017 0.093029 0.
0.694017 0.0930293 0.
0.696018 0.0930295 0.
0.698018 0.0930297 0.
0.499984 0.095031 0.
0.501984 0.0950303 0.
0.503984 0.0950293 0.
0.505984 0.0950285 0.
0.507984 0.0950282 0.
0.509984 0.0950279 0.
0.511984 0.0950275 0.
0.513984 0.0950268 0.
0.515985 0.0950262 0.
0.517985 0.0950256 0.
0.519985 0.0950251 0.
0.521985 0.0950245 0.
0.523985 0.0950235 0.
0.525986 0.0950225 0.
0.527986 0.0950214 0.
0.529986 0.0950204 0.
0.531987 0.0950195 0.
0.533987 0.0950185 0.
0.535988 0.0950177 0.
0.537988 0.0950168 0.
0.539989 0.0950161 0.
0.541989 0.0950155 0.
0.54399 0.0950149 0.
0.54599 0.0950144 0.
0.54799 0.0950139 0.
0.549991 0.0950134 0.
0.551991 0.0950132 0.
0.553992 0.0950129 0.
0.555993 0.0950127 0.
0.557993 0.0950127 0.
0.559994 0.0950127 0.
0.561994 0.0950125 0.
0.563994 0.0950122 0.
0.565995 0.095012 0.
0.567995 0.0950116 0.
0.569995 0.0950112 0.
0.571996 0.0950109 0.
0.573996 0.0950106 0.
0.575997 0.0950104 0.
0.577997 0.0950101 0.
0.579997 0.0950102 0.
0.581997 0.0950103 0.
0.583997 0.0950103 0.
0.585998 0.0950103 0.
0.587998 0.0950103 0.
0.589998 0.0950104 0.
0.591999 0.0950105 0.
0.593999 0.0950106 0.
0.595999 0.0950106 0.
0.597999 0.0950106 0.
0.6 0.0950105 0.
0.602 0.0950105 0.
0.604001 0.0950104 0.
0.606001 0.0950104 0.
0.608002 0.0950102 0.
0.610002 0.09501 0.
0.612002 0.0950099 0.
0.614003 0.0950099 0.
0.616003 0.0950099 0.
0.618003 0.09501 0.
0.620004 0.0950102 0.
0.622004 0.0950103 0.
0.624004 0.0950107 0.
0.626005 0.0950111 0.
0.628005 0.0950115 0.
0.630005 0.095012 0.
0.632006 0.0950124 0.
0.634006 0.0950129 0.
0.636006 0.0950132 0.
0.638007 0.0950135 0.
0.640007 0.0950137 0.
0.642007 0.0950137 0.
0.644008 0.0950137 0.
0.646008 0.0950139 0.
0.648009 0.0950141 0.
0.65001 0.0950144 0.
0.65201 0.0950149 0.
0.654011 0.0950154 0.
0.656011 0.095016 0.
0.658012 0.0950167 0.
0.660012 0.0950173 0.
0.662013 0.0950181 0.
0.664013 0.0950191 0.
0.666013 0.0950201 0.
0.668014 0.0950209 0.
0.670014 0.0950217 0.
0.672014 0.0950225 0.
0.674015 0.0950236 0.
0.676015 0.0950247 0.
0.678015 0.0950258 0.
0.680016 0.0950264 0.
0.682016 0.0950271 0.
0.684016 0.0950277 0.
0.686016 0.0950282 0.
0.688017 0.0950287 0.
0.690017 0.095029 0.
0.692017 0.0950292 0.
0.694017 0.0950294 0.
0.696017 0.0950295 0.
0.698017 0.0950296 0.
0.499984 0.0970308 0.
0.501984 0.0970302 0.
0.503985 0.0970295 0.
0.505985 0.0970288 0.
0.507985 0.0970284 0.
0.509985 0.097028 0.
0.511985 0.0970275 0.
0.513985 0.0970268 0.
0.515985 0.0970262 0.
0.517986 0.0970256 0.
0.519986 0.097025 0.
0.521986 0.0970244 0.
0.523986 0.0970235 0.
0.525987 0.0970224 0.
0.527987 0.0970214 0.
0.529987 0.0970204 0.
0.531988 0.0970194 0.
0.533988 0.0970184 0.
0.535988 0.0970176 0.
0.537989 0.0970167 0.
0.539989 0.097016 0.
0.54199 0.0970153 0.
0.54399 0.0970147 0.
0.54599 0.0970141 0.
0.547991 0.0970136 0.
0.549991 0.0970132 0.
0.551992 0.0970129 0.
0.553992 0.0970127 0.
0.555993 0.0970125 0.
0.557993 0.0970125 0.
0.559994 0.0970125 0.
0.561994 0.0970123 0.
0.563995 0.0970119 0.
0.565995 0.0970115 0.
0.567995 0.0970112 0.
0.569996 0.097011 0.
0.571996 0.0970108 0.
0.573996 0.0970105 0.
0.575997 0.0970103 0.
0.577997 0.09701 0.
0.579997 0.0970101 0.
0.581997 0.0970102 0.
0.583997 0.0970102 0.
0.585998 0.0970102 0.
0.587998 0.0970101 0.
0.589998 0.0970102 0.
0.591999 0.0970103 0.
0.593999 0.0970104 0.
0.595999 0.0970104 0.
0.598 0.0970104 0.
0.6 0.0970105 0.
0.602 0.0970104 0.
0.604001 0.0970102 0.
0.606001 0.0970101 0.
0.608002 0.0970099 0.
0.610002 0.0970098 0.
0.612002 0.0970097 0.
0.614003 0.0970098 0.
0.616003 0.0970099 0.
0.618003 0.09701 0.
0.620003 0.09701 0.
0.622004 0.0970101 0.
0.624004 0.0970104 0.
0.626004 0.0970108 0.
0.628005 0.0970111 0.
0.630005 0.0970116 0.
0.632005 0.0970121 0.
0.634006 0.0970126 0.
0.636006 0.097013 0.
0.638006 0.0970133 0.
0.640007 0.0970135 0.
0.642007 0.0970135 0.
0.644008 0.0970135 0.
0.646008 0.0970136 0.
0.648009 0.0970138 0.
0.65001 0.097014 0.
0.65201 0.0970147 0.
0.65401 0.0970154 0.
0.656011 0.097016 0.
0.658011 0.0970166 0.
0.660011 0.0970172 0.
0.662012 0.0970179 0.
0.664012 0.0970189 0.
0.666012 0.0970199 0.
0.668013 0.0970208 0.
0.670013 0.0970217 0.
0.672013 0.0970226 0.
0.674013 0.0970236 0.
0.676014 0.0970247 0.
0.678014 0.0970258 0.
0.680015 0.0970264 0.
0.682015 0.097027 0.
0.684015 0.0970276 0.
0.686016 0.0970282 0.
0.688016 0.0970287 0.
0.690016 0.097029 0.
0.692016 0.0970292 0.
0.694017 0.0970294 0.
0.696017 0.0970295 0.
0.698017 0.0970295 0.
0.499985 0.0990307 0.
0.501985 0.0990302 0.
0.503985 0.0990297 0.
0.505985 0.0990291 0.
0.507985 0.0990285 0.
0.509985 0.099028 0.
0.511986 0.0990274 0.
0.513986 0.0990269 0.
0.515986 0.0990263 0.
0.517986 0.0990257 0.
0.519987 0.099025 0.
0.521987 0.0990244 0.
0.523987 0.0990234 0.
0.525988 0.0990224 0.
0.527988 0.0990214 0.
0.529988 0.0990204 0.
0.531989 0.0990193 0.
0.533989 0.0990183 0.
0.535989 0.0990175 0.
0.53799 0.0990166 0.
0.53999 0.0990159 0.
0.54199 0.0990151 0.
0.543991 0.0990144 0.
0.545991 0.0990139 0.
0.547991 0.0990134 0.
0.549992 0.0990129 0.
0.551992 0.0990127 0.
0.553993 0.0990125 0.
0.555993 0.0990124 0.
0.557994 0.0990123 0.
0.559994 0.0990123 0.
0.561994 0.099012 0.
0.563995 0.0990115 0.
0.565995 0.099011 0.
0.567996 0.0990108 0.
0.569996 0.0990107 0.
0.571996 0.0990107 0.
0.573996 0.0990104 0.
0.575997 0.0990102 0.
0.577997 0.0990099 0.
0.579997 0.09901 0.
0.581997 0.0990101 0.
0.583997 0.0990101 0.
0.585998 0.09901 0.
0.587998 0.0990099 0.
0.589998 0.0990099 0.
0.591999 0.09901 0.
0.593999 0.0990101 0.
0.595999 0.0990102 0.
0.598 0.0990103 0.
0.6 0.0990104 0.
0.602001 0.0990102 0.
0.604001 0.09901 0.
0.606001 0.0990099 0.
0.608002 0.0990097 0.
0.610002 0.0990095 0.
0.612002 0.0990095 0.
0.614003 0.0990097 0.
0.616003 0.0990099 0.
0.618003 0.0990099 0.
0.620003 0.0990099 0.
0.622003 0.0990099 0.
0.624004 0.0990102 0.
0.626004 0.0990105 0.
0.628004 0.0990108 0.
0.630004 0.0990113 0.
0.632005 0.0990118 0.
0.634005 0.0990123 0.
0.636006 0.0990127 0.
0.638006 0.0990131 0.
0.640007 0.0990133 0.
0.642007 0.0990132 0.
0.644008 0.0990132 0.
0.646008 0.0990133 0.
0.648009 0.0990135 0.
0.65001 0.0990137 0.
0.65201 0.0990145 0.
0.65401 0.0990153 0.
0.65601 0.0990161 0.
0.65801 0.0990165 0.
0.660011 0.099017 0.
0.662011 0.0990177 0.
0.664011 0.0990187 0.
0.666011 0.0990198 0.
0.668012 0.0990207 0.
0.670012 0.0990217 0.
0.672012 0.0990227 0.
0.674012 0.0990237 0.
0.676013 0.0990248 0.
0.678014 0.0990258 0.
0.680014 0.0990264 0.
0.682014 0.099027 0.
0.684014 0.0990275 0.
0.686015 0.0990281 0.
0.688015 0.0990287 0.
0.690016 0.0990291 0.
0.692016 0.0990292 0.
0.694016 0.0990294 0.
0.696017 0.0990294 0.
0.698017 0.0990295 0.
CELLS 5000 10000
1 0
1 1
1 2
1 3
1 4
1 5
1 6
1 7
1 8
1 9
1 10
1 11
1 12
1 13
1 14
1 15
1 16
1 17
1 18
1 19
1 20
1 21
1 22
1 23
1 24
1 25
1 26
1 27
1 28
1 29
1 30
1 31
1 32
1 33
1 34
1 35
1 36
1 37
1 38
1 39
1 40
1 41
1 42
1 43
1 44
1 45
1 46
1 47
1 48
1 49
1 50
1 51
1 52
1 53
1 54
1 55
1 56
1 57
1 58
1 59
1 60
1 61
1 62
1 63
1 64
1 65
1 66
1 67
1 68
1 69
1 70
1 71
1 72
1 73
1 74
1 75
1 76
1 77
1 78
1 79
1 80
1 81
1 82
1 83
1 84
1 85
1 86
1 87
1 88
1 89
1 90
1 91
1 92
1 93
1 94
1 95
1 96
1 97
1 98
1 99
1 100
1 101
1 102
1 103
1 104
1 105
1 106
1 107
1 108
1 109
1 110
1 111
1 112
1 113
1 114
1 115
1 116
1 117
1 118
1 119
1 120
1 121
1 122
1 123
1 124
1 125
1 126
1 127
1 128
1 129
1 130
1 131
1 132
1 133
1 134
1 135
1 136
1 137
1 138
1 139
1 140
1 141
1 142
1 143
1 144
1 145
1 146
1 147
1 148
1 149
1 150
1 151
1 152
1 153
1 154
1 155
1 156
1 157
1 158
1 159
1 160
1 161
1 162
1 163
1 164
1 165
1 166
1 167
1 168
1 169
1 170
1 171
1 172
1 173
1 174
1 175
1 176
1 177
1 178
1 179
1 180
1 181
1 182
1 183
1 184
1 185
1 186
1 187
1 188
1 189
1 190
1 191
1 192
1 193
1 194
1 195
1 196
1 197
1 198
1 199
1 200
1 201
1 202
1 203
1 204
1 205
1 206
1 207
1 208
1 209
1 210
1 211
1 212
1 213
1 214
1 215
1 216
1 217
1 218
1 219
1 220
1 221
1 222
1 223
1 224
1 225
1 226
1 227
1 228
1 229
1 230
1 231
1 232
1 233
1 234
1 235
1 236
1 237
1 238
1 239
1 240
1 241
1 242
1 243
1 244
1 245
1 246
1 247
1 248
1 249
1 250
1 251
1 252
1 253
1 254
1 255
1 256
1 257
1 258
1 259
1 260
1 261
1 262
1 263
1 264
1 265
1 266
1 267
1 268
1 269
1 270
1 271
1 272
1 273
1 274
1 275
1 276
1 277
1 278
1 279
1 280
1 281
1 282
1 283
1 284
1 285
1 286
1 287
1 288
1 289
1 290
1 291
1 292
1 293
1 294
1 295
1 296
1 297
1 298
1 299
1 300
1 301
1 302
1 303
1 304
1 305
1 306
1 307
1 308
1 309
1 310
1 311
1 312
1 313
1 314
1 315
1 316
1 317
1 318
1 319
1 320
1 321
1 322
1 323
1 324
1 325
1 326
1 327
1 328
1 329
1 330
1 331
1 332
1 333
1 334
1 335
1 336
1 337
1 338
1 339
1 340
1 341
1 342
1 343
1 344
1 345
1 346
1 347
1 348
1 349
1 350
1 351
1 352
1 353
1 354
1 355
1 356
1 357
1 358
1 359
1 360
1 361
1 362
1 363
1 364
1 365
1 366
1 367
1 368
1 369
1 370
1 371
1 372
1 373
1 374
1 375
1 376
1 377
1 378
1 379
1 380
1 381
1 382
1 383
1 384
1 385
1 386
1 387
1 388
1 389
1 390
1 391
1 392
1 393
1 394
1 395
1 396
1 397
1 398
1 399
1 400
1 401
1 402
1 403
1 404
1 405
1 406
1 407
1 408
1 409
1 410
1 411
1 412
1 413
1 414
1 415
1 416
1 417
1 418
1 419
1 420
1 421
1 422
1 423
1 424
1 425
1 426
1 427
1 428
1 429
1 430
1 431
1 432
1 433
1 434
1 435
1 436
1 437
1 438
1 439
1 440
1 441
1 442
1 443
1 444
1 445
1 446
1 447
1 448
1 449
1 450
1 451
1 452
1 453
1 454
1 455
1 456
1 457
1 458
1 459
1 460
1 461
1 462
1 463
1 464
1 465
1 466
1 467
1 468
1 469
1 470
1 471
1 472
1 473
1 474
1 475
1 476
1 477
1 478
1 479
1 480
1 481
1 482
1 483
1 484
1 485
1 486
1 487
1 488
1 489
1 490
1 491
1 492
1 493
1 494
1 495
1 496
1 497
1 498
1 499
1 500
1 501
1 502
1 503
1 504
1 505
1 506
1 507
1 508
1 509
1 510
1 511
1 512
1 513
1 514
1 515
1 516
1 517
1 518
1 519
1 520
1 521
1 522
1 523
1 524
1 525
1 526
1 527
1 528
1 529
1 530
1 531
1 532
1 533
1 534
1 535
1 536
1 537
1 538
1 539
1 540
1 541
1 542
1 543
1 544
1 545
1 546
1 547
1 548
1 549
1 550
1 551
1 552
1 553
1 554
1 555
1 556
1 557
1 558
1 559
1 560
1 561
1 562
1 563
1 564
1 565
1 566
1 567
1 568
1 569
1 570
1 571
1 572
1 573
1 574
1 575
1 576
1 577
1 578
1 579
1 580
1 581
1 582
1 583
1 584
1 585
1 586
1 587
1 588
1 589
1 590
1 591
1 592
1 593
1 594
1 595
1 596
1 597
1 598
1 599
1 600
1 601
1 602
1 603
1 604
1 605
1 606
1 607
1 608
1 609
1 610
1 611
1 612
1 613
1 614
1 615
1 616
1 617
1 618
1 619
1 620
1 621
1 622
1 623
1 624
1 625
1 626
1 627
1 628
1 629
1 630
1 631
1 632
1 633
1 634
1 635
1 636
1 637
1 638
1 639
1 640
1 641
1 642
1 643
1 644
1 645
1 646
1 647
1 648
1 649
1 650
1 651
1 652
1 653
1 654
1 655
1 656
1 657
1 658
1 659
1 660
1 661
1 662
1 663
1 664
1 665
1 666
1 667
1 668
1 669
1 670
1 671
1 672
1 673
1 674
1 675
1 676
1 677
1 678
1 679
1 680
1 681
1 682
1 683
1 684
1 685
1 686
1 687
1 688
1 689
1 690
1 691
1 692
1 693
1 694
1 695
1 696
1 697
1 698
1 699
1 700
1 701
1 702
1 703
1 704
1 705
1 706
1 707
1 708
1 709
1 710
1 711
1 712
1 713
1 714
1 715
1 716
1 717
1 718
1 719
1 720
1 721
1 722
1 723
1 724
1 725
1 726
1 727
1 728
1 729
1 730
1 731
1 732
1 733
1 734
1 735
1 736
1 737
1 738
1 739
1 740
1 741
1 742
1 743
1 744
1 745
1 746
1 747
1 748
1 749
1 750
1 751
1 752
1 753
1 754
1 755
1 756
1 757
1 758
1 759
1 760
1 761
1 762
1 763
1 764
1 765
1 766
1 767
1 768
1 769
1 770
1 771
1 772
1 773
1 774
1 775
1 776
1 777
1 778
1 779
1 780
1 781
1 782
1 783
1 784
1 785
1 786
1 787
1 788
1 789
1 790
1 791
1 792
1 793
1 794
1 795
1 796
1 797
1 798
1 799
1 800
1 801
1 802
1 803
1 804
1 805
1 806
1 807
1 808
1 809
1 810
1 811
1 812
1 813
1 814
1 815
1 816
1 817
1 818
1 819
1 820
1 821
1 822
1 823
1 824
1 825
1 826
1 827
1 828
1 829
1 830
1 831
1 832
1 833
1 834
1 835
1 836
1 837
1 838
1 839
1 840
1 841
1 842
1 843
1 844
1 845
1 846
1 847
1 848
1 849
1 850
1 851
1 852
1 853
1 854
1 855
1 856
1 857
1 858
1 859
1 860
1 861
1 862
1 863
1 864
1 865
1 866
1 867
1 868
1 869
1 870
1 871
1 872
1 873
1 874
1 875
1 876
1 877
1 878
1 879
1 880
1 881
1 882
1 883
1 884
1 885
1 886
1 887
1 888
1 889
1 890
1 891
1 892
1 893
1 894
1 895
1 896
1 897
1 898
1 899
1 900
1 901
1 902
1 903
1 904
1 905
1 906
1 907
1 908
1 909
1 910
1 911
1 912
1 913
1 914
1 915
1 916
1 917
1 918
1 919
1 920
1 921
1 922
1 923
1 924
1 925
1 926
1 927
1 928
1 929
1 930
1 931
1 932
1 933
1 934
1 935
1 936
1 937
1 938
1 939
1 940
1 941
1 942
1 943
1 944
1 945
1 946
1 947
1 948
1 949
1 950
1 951
1 952
1 953
1 954
1 955
1 956
1 957
1 958
1 959
1 960
1 961
1 962
1 963
1 964
1 965
1 966
1 967
1 968
1 969
1 970
1 971
1 972
1 973
1 974
1 975
1 976
1 977
1 978
1 979
1 980
1 981
1 982
1 983
1 984
1 985
1 986
1 987
1 988
1 989
1 990
1 991
1 992
1 993
1 994
1 995
1 996
1 997
1 998
1 999
1 1000
1 1001
1 1002
1 1003
1 1004
1 1005
1 1006
1 1007
1 1008
1 1009
1 1010
1 1011
1 1012
1 1013
1 1014
1 1015
1 1016
1 1017
1 1018
1 1019
1 1020
1 1021
1 1022
1 1023
1 1024
1 1025
1 1026
1 1027
1 1028
1 1029
1 1030
1 1031
1 1032
1 1033
1 1034
1 1035
1 1036
1 1037
1 1038
1 1039
1 1040
1 1041
1 1042
1 1043
1 1044
1 1045
1 1046
1 1047
1 1048
1 1049
1 1050
1 1051
1 1052
1 1053
1 1054
1 1055
1 1056
1 1057
1 1058
1 1059
1 1060
1 1061
1 1062
1 1063
1 1064
1 1065
1 1066
1 1067
1 1068
1 1069
1 1070
1 1071
1 1072
1 1073
1 1074
1 1075
1 1076
1 1077
1 1078
1 1079
1 1080
1 1081
1 1082
1 1083
1 1084
1 1085
1 1086
1 1087
1 1088
1 1089
1 1090
1 1091
1 1092
1 1093
1 1094
1 1095
1 1096
1 1097
1 1098
1 1099
1 1100
1 1101
1 1102
1 1103
1 1104
1 1105
1 1106
1 1107
1 1108
1 1109
1 1110
1 1111
1 1112
1 1113
1 1114
1 1115
1 1116
1 1117
1 1118
1 1119
1 1120
1 1121
1 1122
1 1123
1 1124
1 1125
1 1126
1 1127
1 1128
1 1129
1 1130
1 1131
1 1132
1 1133
1 1134
1 1135
1 1136
1 1137
1 1138
1 1139
1 1140
1 1141
1 1142
1 1143
1 1144
1 1145
1 1146
1 1147
1 1148
1 1149
1 1150
1 1151
1 1152
1 1153
1 1154
1 1155
1 1156
1 1157
1 1158
1 1159
1 1160
1 1161
1 1162
1 1163
1 1164
1 1165
1 1166
1 1167
1 1168
1 1169
1 1170
1 1171
1 1172
1 1173
1 1174
1 1175
1 1176
1 1177
1 1178
1 1179
1 1180
1 1181
1 1182
1 1183
1 1184
1 1185
1 1186
1 1187
1 1188
1 1189
1 1190
1 1191
1 1192
1 1193
1 1194
1 1195
1 1196
1 1197
1 1198
1 1199
1 1200
1 1201
1 1202
1 1203
1 1204
1 1205
1 1206
1 1207
1 1208
1 1209
1 1210
1 1211
1 1212
1 1213
1 1214
1 1215
1 1216
1 1217
1 1218
1 1219
1 1220
1 1221
1 1222
1 1223
1 1224
1 1225
1 1226
1 1227
1 1228
1 1229
1 1230
1 1231
1 1232
1 1233
1 1234
1 1235
1 1236
1 1237
1 1238
1 1239
1 1240
1 1241
1 1242
1 1243
1 1244
1 1245
1 1246
1 1247
1 1248
1 1249
1 1250
1 1251
1 1252
1 1253
1 1254
1 1255
1 1256
1 1257
1 1258
1 1259
1 1260
1 1261
1 1262
1 1263
1 1264
1 1265
1 1266
1 1267
1 1268
1 1269
1 1270
1 1271
1 1272
1 1273
1 1274
1 1275
1 1276
1 1277
1 1278
1 1279
1 1280
1 1281
1 1282
1 1283
1 1284
1 1285
1 1286
1 1287
1 1288
1 1289
1 1290
1 1291
1 1292
1 1293
1 1294
1 1295
1 1296
1 1297
1 1298
1 1299
1 1300
1 1301
1 1302
1 1303
1 1304
1 1305
1 1306
1 1307
1 1308
1 1309
1 1310
1 1311
1 1312
1 1313
1 1314
1 1315
1 1316
1 1317
1 1318
1 1319
1 1320
1 1321
1 1322
1 1323
1 1324
1 1325
1 1326
1 1327
1 1328
1 1329
1 1330
1 1331
1 1332
1 1333
1 1334
1 1335
1 1336
1 1337
1 1338
1 1339
1 1340
1 1341
1 1342
1 1343
1 1344
1 1345
1 1346
1 1347
1 1348
1 1349
1 1350
1 1351
1 1352
1 1353
1 1354
1 1355
1 1356
1 1357
1 1358
1 1359
1 1360
1 1361
1 1362
1 1363
1 1364
1 1365
1 1366
1 1367
1 1368
1 1369
1 1370
1 1371
1 1372
1 1373
1 1374
1 1375
1 1376
1 1377
1 1378
1 1379
1 1380
1 1381
1 1382
1 1383
1 1384
1 1385
1 1386
1 1387
1 1388
1 1389
1 1390
1 1391
1 1392
1 1393
1 1394
1 1395
1 1396
1 1397
1 1398
1 1399
1 1400
1 1401
1 1402
1 1403
1 1404
1 1405
1 1406
1 1407
1 1408
1 1409
1 1410
1 1411
1 1412
1 1413
1 1414
1 1415
1 1416
1 1417
1 1418
1 1419
1 1420
1 1421
1 1422
1 1423
1 1424
1 1425
1 1426
1 1427
1 1428
1 1429
1 1430
1 1431
1 1432
1 1433
1 1434
1 1435
1 1436
1 1437
1 1438
1 1439
1 1440
1 1441
1 1442
1 1443
1 1444
1 1445
1 1446
1 1447
1 1448
1 1449
1 1450
1 1451
1 1452
1 1453
1 1454
1 1455
1 1456
1 1457
1 1458
1 1459
1 1460
1 1461
1 1462
1 1463
1 1464
1 1465
1 1466
1 1467
1 1468
1 1469
1 1470
1 1471
1 1472
1 1473
1 1474
1 1475
1 1476
1 1477
1 1478
1 1479
1 1480
1 1481
1 1482
1 1483
1 1484
1 1485
1 1486
1 1487
1 1488
1 1489
1 1490
1 1491
1 1492
1 1493
1 1494
1 1495
1 1496
1 1497
1 1498
1 1499
1 1500
1 1501
1 1502
1 1503
1 1504
1 1505
1 1506
1 1507
1 1508
1 1509
1 1510
1 1511
1 1512
1 1513
1 1514
1 1515
1 1516
1 1517
1 1518
1 1519
1 1520
1 1521
1 1522
1 1523
1 1524
1 1525
1 1526
1 1527
1 1528
1 1529
1 1530
1 1531
1 1532
1 1533
1 1534
1 1535
1 1536
1 1537
1 1538
1 1539
1 1540
1 1541
1 1542
1 1543
1 1544
1 1545
1 1546
1 1547
1 1548
1 1549
1 1550
1 1551
1 1552
1 1553
1 1554
1 1555
1 1556
1 1557
1 1558
1 1559
1 1560
1 1561
1 1562
1 1563
1 1564
1 1565
1 1566
1 1567
1 1568
1 1569
1 1570
1 1571
1 1572
1 1573
1 1574
1 1575
1 1576
1 1577
1 1578
1 1579
1 1580
1 1581
1 1582
1 1583
1 1584
1 1585
1 1586
1 1587
1 1588
1 1589
1 1590
1 1591
1 1592
1 1593
1 1594
1 1595
1 1596
1 1597
1 1598
1 1599
1 1600
1 1601
1 1602
1 1603
1 1604
1 1605
1 1606
1 1607
1 1608
1 1609
1 1610
1 1611
1 1612
1 1613
1 1614
1 1615
1 1616
1 1617
1 1618
1 1619
1 1620
1 1621
1 1622
1 1623
1 1624
1 1625
1 1626
1 1627
1 1628
1 1629
1 1630
1 1631
1 1632
1 1633
1 1634
1 1635
1 1636
1 1637
1 1638
1 1639
1 1640
1 1641
1 1642
1 1643
1 1644
1 1645
1 1646
1 1647
1 1648
1 1649
1 1650
1 1651
1 1652
1 1653
1 1654
1 1655
1 1656
1 1657
1 1658
1 1659
1 1660
1 1661
1 1662
1 1663
1 1664
1 1665
1 1666
1 1667
1 1668
1 1669
1 1670
1 1671
1 1672
1 1673
1 1674
1 1675
1 1676
1 1677
1 1678
1 1679
1 1680
1 1681
1 1682
1 1683
1 1684
1 1685
1 1686
1 1687
1 1688
1 1689
1 1690
1 1691
1 1692
1 1693
1 1694
1 1695
1 1696
1 1697
1 1698
1 1699
1 1700
1 1701
1 1702
1 1703
1 1704
1 1705
1 1706
1 1707
1 1708
1 1709
1 1710
1 1711
1 1712
1 1713
1 1714
1 1715
1 1716
1 1717
1 1718
1 1719
1 1720
1 1721
1 1722
1 1723
1 1724
1 1725
1 1726
1 1727
1 1728
1 1729
1 1730
1 1731
1 1732
1 1733
1 1734
1 1735
1 1736
1 1737
1 1738
1 1739
1 1740
1 1741
1 1742
1 1743
1 1744
1 1745
1 1746
1 1747
1 1748
1 1749
1 1750
1 1751
1 1752
1 1753
1 1754
1 1755
1 1756
1 1757
1 1758
1 1759
1 1760
1 1761
1 1762
1 1763
1 1764
1 1765
1 1766
1 1767
1 1768
1 1769
1 1770
1 1771
1 1772
1 1773
1 1774
1 1775
1 1776
1 1777
1 1778
1 1779
1 1780
1 1781
1 1782
1 1783
1 1784
1 1785
1 1786
1 1787
1 1788
1 1789
1 1790
1 1791
1 1792
1 1793
1 1794
1 1795
1 1796
1 1797
1 1798
1 1799
1 1800
1 1801
1 1802
1 1803
1 1804
1 1805
1 1806
1 1807
1 1808
1 1809
1 1810
1 1811
1 1812
1 1813
1 1814
1 1815
1 1816
1 1817
1 1818
1 1819
1 1820
1 1821
1 1822
1 1823
1 1824
1 1825
1 1826
1 1827
1 1828
1 1829
1 1830
1 1831
1 1832
1 1833
1 1834
1 1835
1 1836
1 1837
1 1838
1 1839
1 1840
1 1841
1 1842
1 1843
1 1844
1 1845
1 1846
1 1847
1 1848
1 1849
1 1850
1 1851
1 1852
1 1853
1 1854
1 1855
1 1856
1 1857
1 1858
1 1859
1 1860
1 1861
1 1862
1 1863
1 1864
1 1865
1 1866
1 1867
1 1868
1 1869
1 1870
1 1871
1 1872
1 1873
1 1874
1 1875
1 1876
1 1877
1 1878
1 1879
1 1880
1 1881
1 1882
1 1883
1 1884
1 1885
1 1886
1 1887
1 1888
1 1889
1 1890
1 1891
1 1892
1 1893
1 1894
1 1895
1 1896
1 1897
1 1898
1 1899
1 1900
1 1901
1 1902
1 1903
1 1904
1 1905
1 1906
1 1907
1 1908
1 1909
1 1910
1 1911
1 1912
1 1913
1 1914
1 1915
1 1916
1 1917
1 1918
1 1919
1 1920
1 1921
1 1922
1 1923
1 1924
1 1925
1 1926
1 1927
1 1928
1 1929
1 1930
1 1931
1 1932
1 1933
1 1934
1 1935
1 1936
1 1937
1 1938
1 1939
1 1940
1 1941
1 1942
1 1943
1 1944
1 1945
1 1946
1 1947
1 1948
1 1949
1 1950
1 1951
1 1952
1 1953
1 1954
1 1955
1 1956
1 1957
1 1958
1 1959
1 1960
1 1961
1 1962
1 1963
1 1964
1 1965
1 1966
1 1967
1 1968
1 1969
1 1970
1 1971
1 1972
1 1973
1 1974
1 1975
1 1976
1 1977
1 1978
1 1979
1 1980
1 1981
1 1982
1 1983
1 1984
1 1985
1 1986
1 1987
1 1988
1 1989
1 1990
1 1991
1 1992
1 1993
1 1994
1 1995
1 1996
1 1997
1 1998
1 1999
1 2000
1 2001
1 2002
1 2003
1 2004
1 2005
1 2006
1 2007
1 2008
1 2009
1 2010
1 2011
1 2012
1 2013
1 2014
1 2015
1 2016
1 2017
1 2018
1 2019
1 2020
1 2021
1 2022
1 2023
1 2024
1 2025
1 2026
1 2027
1 2028
1 2029
1 2030
1 2031
1 2032
1 2033
1 2034
1 2035
1 2036
1 2037
1 2038
1 2039
1 2040
1 2041
1 2042
1 2043
1 2044
1 2045
1 2046
1 2047
1 2048
1 2049
1 2050
1 2051
1 2052
1 2053
1 2054
1 2055
1 2056
1 2057
1 2058
1 2059
1 2060
1 2061
1 2062
1 2063
1 2064
1 2065
1 2066
1 2067
1 2068
1 2069
1 2070
1 2071
1 2072
1 2073
1 2074
1 2075
1 2076
1 2077
1 2078
1 2079
1 2080
1 2081
1 2082
1 2083
1 2084
1 2085
1 2086
1 2087
1 2088
1 2089
1 2090
1 2091
1 2092
1 2093
1 2094
1 2095
1 2096
1 2097
1 2098
1 2099
1 2100
1 2101
1 2102
1 2103
1 2104
1 2105
1 2106
1 2107
1 2108
1 2109
1 2110
1 2111
1 2112
1 2113
1 2114
1 2115
1 2116
1 2117
1 2118
1 2119
1 2120
1 2121
1 2122
1 2123
1 2124
1 2125
1 2126
1 2127
1 2128
1 2129
1 2130
1 2131
1 2132
1 2133
1 2134
1 2135
1 2136
1 2137
1 2138
1 2139
1 2140
1 2141
1 2142
1 2143
1 2144
1 2145
1 2146
1 2147
1 2148
1 2149
1 2150
1 2151
1 2152
1 2153
1 2154
1 2155
1 2156
1 2157
1 2158
1 2159
1 2160
1 2161
1 2162
1 2163
1 2164
1 2165
1 2166
1 2167
1 2168
1 2169
1 2170
1 2171
1 2172
1 2173
1 2174
1 2175
1 2176
1 2177
1 2178
1 2179
1 2180
1 2181
1 2182
1 2183
1 2184
1 2185
1 2186
1 2187
1 2188
1 2189
1 2190
1 2191
1 2192
1 2193
1 2194
1 2195
1 2196
1 2197
1 2198
1 2199
1 2200
1 2201
1 2202
1 2203
1 2204
1 2205
1 2206
1 2207
1 2208
1 2209
1 2210
1 2211
1 2212
1 2213
1 2214
1 2215
1 2216
1 2217
1 2218
1 2219
1 2220
1 2221
1 2222
1 2223
1 2224
1 2225
1 2226
1 2227
1 2228
1 2229
1 2230
1 2231
1 2232
1 2233
1 2234
1 2235
1 2236
1 2237
1 2238
1 2239
1 2240
1 2241
1 2242
1 2243
1 2244
1 2245
1 2246
1 2247
1 2248
1 2249
1 2250
1 2251
1 2252
1 2253
1 2254
1 2255
1 2256
1 2257
1 2258
1 2259
1 2260
1 2261
1 2262
1 2263
1 2264
1 2265
1 2266
1 2267
1 2268
1 2269
1 2270
1 2271
1 2272
1 2273
1 2274
1 2275
1 2276
1 2277
1 2278
1 2279
1 2280
1 2281
1 2282
1 2283
1 2284
1 2285
1 2286
1 2287
1 2288
1 2289
1 2290
1 2291
1 2292
1 2293
1 2294
1 2295
1 2296
1 2297
1 2298
1 2299
1 2300
1 2301
1 2302
1 2303
1 2304
1 2305
1 2306
1 2307
1 2308
1 2309
1 2310
1 2311
1 2312
1 2313
1 2314
1 2315
1 2316
1 2317
1 2318
1 2319
1 2320
1 2321
1 2322
1 2323
1 2324
1 2325
1 2326
1 2327
1 2328
1 2329
1 2330
1 2331
1 2332
1 2333
1 2334
1 2335
1 2336
1 2337
1 2338
1 2339
1 2340
1 2341
1 2342
1 2343
1 2344
1 2345
1 2346
1 2347
1 2348
1 2349
1 2350
1 2351
1 2352
1 2353
1 2354
1 2355
1 2356
1 2357
1 2358
1 2359
1 2360
1 2361
1 2362
1 2363
1 2364
1 2365
1 2366
1 2367
1 2368
1 2369
1 2370
1 2371
1 2372
1 2373
1 2374
1 2375
1 2376
1 2377
1 2378
1 2379
1 2380
1 2381
1 2382
1 2383
1 2384
1 2385
1 2386
1 2387
1 2388
1 2389
1 2390
1 2391
1 2392
1 2393
1 2394
1 2395
1 2396
1 2397
1 2398
1 2399
1 2400
1 2401
1 2402
1 2403
1 2404
1 2405
1 2406
1 2407
1 2408
1 2409
1 2410
1 2411
1 2412
1 2413
1 2414
1 2415
1 2416
1 2417
1 2418
1 2419
1 2420
1 2421
1 2422
1 2423
1 2424
1 2425
1 2426
1 2427
1 2428
1 2429
1 2430
1 2431
1 2432
1 2433
1 2434
1 2435
1 2436
1 2437
1 2438
1 2439
1 2440
1 2441
1 2442
1 2443
1 2444
1 2445
1 2446
1 2447
1 2448
1 2449
1 2450
1 2451
1 2452
1 2453
1 2454
1 2455
1 2456
1 2457
1 2458
1 2459
1 2460
1 2461
1 2462
1 2463
1 2464
1 2465
1 2466
1 2467
1 2468
1 2469
1 2470
1 2471
1 2472
1 2473
1 2474
1 2475
1 2476
1 2477
1 2478
1 2479
1 2480
1 2481
1 2482
1 2483
1 2484
1 2485
1 2486
1 2487
1 2488
1 2489
1 2490
1 2491
1 2492
1 2493
1 2494
1 2495
1 2496
1 2497
1 2498
1 2499
1 2500
1 2501
1 2502
1 2503
1 2504
1 2505
1 2506
1 2507
1 2508
1 2509
1 2510
1 2511
1 2512
1 2513
1 2514
1 2515
1 2516
1 2517
1 2518
1 2519
1 2520
1 2521
1 2522
1 2523
1 2524
1 2525
1 2526
1 2527
1 2528
1 2529
1 2530
1 2531
1 2532
1 2533
1 2534
1 2535
1 2536
1 2537
1 2538
1 2539
1 2540
1 2541
1 2542
1 2543
1 2544
1 2545
1 2546
1 2547
1 2548
1 2549
1 2550
1 2551
1 2552
1 2553
1 2554
1 2555
1 2556
1 2557
1 2558
1 2559
1 2560
1 2561
1 2562
1 2563
1 2564
1 2565
1 2566
1 2567
1 2568
1 2569
1 2570
1 2571
1 2572
1 2573
1 2574
1 2575
1 2576
1 2577
1 2578
1 2579
1 2580
1 2581
1 2582
1 2583
1 2584
1 2585
1 2586
1 2587
1 2588
1 2589
1 2590
1 2591
1 2592
1 2593
1 2594
1 2595
1 2596
1 2597
1 2598
1 2599
1 2600
1 2601
1 2602
1 2603
1 2604
1 2605
1 2606
1 2607
1 2608
1 2609
1 2610
1 2611
1 2612
1 2613
1 2614
1 2615
1 2616
1 2617
1 2618
1 2619
1 2620
1 2621
1 2622
1 2623
1 2624
1 2625
1 2626
1 2627
1 2628
1 2629
1 2630
1 2631
1 2632
1 2633
1 2634
1 2635
1 2636
1 2637
1 2638
1 2639
1 2640
1 2641
1 2642
1 2643
1 2644
1 2645
1 2646
1 2647
1 2648
1 2649
1 2650
1 2651
1 2652
1 2653
1 2654
1 2655
1 2656
1 2657
1 2658
1 2659
1 2660
1 2661
1 2662
1 2663
1 2664
1 2665
1 2666
1 2667
1 2668
1 2669
1 2670
1 2671
1 2672
1 2673
1 2674
1 2675
1 2676
1 2677
1 2678
1 2679
1 2680
1 2681
1 2682
1 2683
1 2684
1 2685
1 2686
1 2687
1 2688
1 2689
1 2690
1 2691
1 2692
1 2693
1 2694
1 2695
1 2696
1 2697
1 2698
1 2699
1 2700
1 2701
1 2702
1 2703
1 2704
1 2705
1 2706
1 2707
1 2708
1 2709
1 2710
1 2711
1 2712
1 2713
1 2714
1 2715
1 2716
1 2717
1 2718
1 2719
1 2720
1 2721
1 2722
1 2723
1 2724
1 2725
1 2726
1 2727
1 2728
1 2729
1 2730
1 2731
1 2732
1 2733
1 2734
1 2735
1 2736
1 2737
1 2738
1 2739
1 2740
1 2741
1 2742
1 2743
1 2744
1 2745
1 2746
1 2747
1 2748
1 2749
1 2750
1 2751
1 2752
1 2753
1 2754
1 2755
1 2756
1 2757
1 2758
1 2759
1 2760
1 2761
1 2762
1 2763
1 2764
1 2765
1 2766
1 2767
1 2768
1 2769
1 2770
1 2771
1 2772
1 2773
1 2774
1 2775
1 2776
1 2777
1 2778
1 2779
1 2780
1 2781
1 2782
1 2783
1 2784
1 2785
1 2786
1 2787
1 2788
1 2789
1 2790
1 2791
1 2792
1 2793
1 2794
1 2795
1 2796
1 2797
1 2798
1 2799
1 2800
1 2801
1 2802
1 2803
1 2804
1 2805
1 2806
1 2807
1 2808
1 2809
1 2810
1 2811
1 2812
1 2813
1 2814
1 2815
1 2816
1 2817
1 2818
1 2819
1 2820
1 2821
1 2822
1 2823
1 2824
1 2825
1 2826
1 2827
1 2828
1 2829
1 2830
1 2831
1 2832
1 2833
1 2834
1 2835
1 2836
1 2837
1 2838
1 2839
1 2840
1 2841
1 2842
1 2843
1 2844
1 2845
1 2846
1 2847
1 2848
1 2849
1 2850
1 2851
1 2852
1 2853
1 2854
1 2855
1 2856
1 2857
1 2858
1 2859
1 2860
1 2861
1 2862
1 2863
1 2864
1 2865
1 2866
1 2867
1 2868
1 2869
1 2870
1 2871
1 2872
1 2873
1 2874
1 2875
1 2876
1 2877
1 2878
1 2879
1 2880
1 2881
1 2882
1 2883
1 2884
1 2885
1 2886
1 2887
1 2888
1 2889
1 2890
1 2891
1 2892
1 2893
1 2894
1 2895
1 2896
1 2897
1 2898
1 2899
1 2900
1 2901
1 2902
1 2903
1 2904
1 2905
1 2906
1 2907
1 2908
1 2909
1 2910
1 2911
1 2912
1 2913
1 2914
1 2915
1 2916
1 2917
1 2918
1 2919
1 2920
1 2921
1 2922
1 2923
1 2924
1 2925
1 2926
1 2927
1 2928
1 2929
1 2930
1 2931
1 2932
1 2933
1 2934
1 2935
1 2936
1 2937
1 2938
1 2939
1 2940
1 2941
1 2942
1 2943
1 2944
1 2945
1 2946
1 2947
1 2948
1 2949
1 2950
1 2951
1 2952
1 2953
1 2954
1 2955
1 2956
1 2957
1 2958
1 2959
1 2960
1 2961
1 2962
1 2963
1 2964
1 2965
1 2966
1 2967
1 2968
1 2969
1 2970
1 2971
1 2972
1 2973
1 2974
1 2975
1 2976
1 2977
1 2978
1 2979
1 2980
1 2981
1 2982
1 2983
1 2984
1 2985
1 2986
1 2987
1 2988
1 2989
1 2990
1 2991
1 2992
1 2993
1 2994
1 2995
1 2996
1 2997
1 2998
1 2999
1 3000
1 3001
1 3002
1 3003
1 3004
1 3005
1 3006
1 3007
1 3008
1 3009
1 3010
1 3011
1 3012
1 3013
1 3014
1 3015
1 3016
1 3017
1 3018
1 3019
1 3020
1 3021
1 3022
1 3023
1 3024
1 3025
1 3026
1 3027
1 3028
1 3029
1 3030
1 3031
1 3032
1 3033
1 3034
1 3035
1 3036
1 3037
1 3038
1 3039
1 3040
1 3041
1 3042
1 3043
1 3044
1 3045
1 3046
1 3047
1 3048
1 3049
1 3050
1 3051
1 3052
1 3053
1 3054
1 3055
1 3056
1 3057
1 3058
1 3059
1 3060
1 3061
1 3062
1 3063
1 3064
1 3065
1 3066
1 3067
1 3068
1 3069
1 3070
1 3071
1 3072
1 3073
1 3074
1 3075
1 3076
1 3077
1 3078
1 3079
1 3080
1 3081
1 3082
1 3083
1 3084
1 3085
1 3086
1 3087
1 3088
1 3089
1 3090
1 3091
1 3092
1 3093
1 3094
1 3095
1 3096
1 3097
1 3098
1 3099
1 3100
1 3101
1 3102
1 3103
1 3104
1 3105
1 3106
1 3107
1 3108
1 3109
1 3110
1 3111
1 3112
1 3113
1 3114
1 3115
1 3116
1 3117
1 3118
1 3119
1 3120
1 3121
1 3122
1 3123
1 3124
1 3125
1 3126
1 3127
1 3128
1 3129
1 3130
1 3131
1 3132
1 3133
1 3134
1 3135
1 3136
1 3137
1 3138
1 3139
1 3140
1 3141
1 3142
1 3143
1 3144
1 3145
1 3146
1 3147
1 3148
1 3149
1 3150
1 3151
1 3152
1 3153
1 3154
1 3155
1 3156
1 3157
1 3158
1 3159
1 3160
1 3161
1 3162
1 3163
1 3164
1 3165
1 3166
1 3167
1 3168
1 3169
1 3170
1 3171
1 3172
1 3173
1 3174
1 3175
1 3176
1 3177
1 3178
1 3179
1 3180
1 3181
1 3182
1 3183
1 3184
1 3185
1 3186
1 3187
1 3188
1 3189
1 3190
1 3191
1 3192
1 3193
1 3194
1 3195
1 3196
1 3197
1 3198
1 3199
1 3200
1 3201
1 3202
1 3203
1 3204
1 3205
1 3206
1 3207
1 3208
1 3209
1 3210
1 3211
1 3212
1 3213
1 3214
1 3215
1 3216
1 3217
1 3218
1 3219
1 3220
1 3221
1 3222
1 3223
1 3224
1 3225
1 3226
1 3227
1 3228
1 3229
1 3230
1 3231
1 3232
1 3233
1 3234
1 3235
1 3236
1 3237
1 3238
1 3239
1 3240
1 3241
1 3242
1 3243
1 3244
1 3245
1 3246
1 3247
1 3248
1 3249
1 3250
1 3251
1 3252
1 3253
1 3254
1 3255
1 3256
1 3257
1 3258
1 3259
1 3260
1 3261
1 3262
1 3263
1 3264
1 3265
1 3266
1 3267
1 3268
1 3269
1 3270
1 3271
1 3272
1 3273
1 3274
1 3275
1 3276
1 3277
1 3278
1 3279
1 3280
1 3281
1 3282
1 3283
1 3284
1 3285
1 3286
1 3287
1 3288
1 3289
1 3290
1 3291
1 3292
1 3293
1 3294
1 3295
1 3296
1 3297
1 3298
1 3299
1 3300
1 3301
1 3302
1 3303
1 3304
1 3305
1 3306
1 3307
1 3308
1 3309
1 3310
1 3311
1 3312
1 3313
1 3314
1 3315
1 3316
1 3317
1 3318
1 3319
1 3320
1 3321
1 3322
1 3323
1 3324
1 3325
1 3326
1 3327
1 3328
1 3329
1 3330
1 3331
1 3332
1 3333
1 3334
1 3335
1 3336
1 3337
1 3338
1 3339
1 3340
1 3341
1 3342
1 3343
1 3344
1 3345
1 3346
1 3347
1 3348
1 3349
1 3350
1 3351
1 3352
1 3353
1 3354
1 3355
1 3356
1 3357
1 3358
1 3359
1 3360
1 3361
1 3362
1 3363
1 3364
1 3365
1 3366
1 3367
1 3368
1 3369
1 3370
1 3371
1 3372
1 3373
1 3374
1 3375
1 3376
1 3377
1 3378
1 3379
1 3380
1 3381
1 3382
1 3383
1 3384
1 3385
1 3386
1 3387
1 3388
1 3389
1 3390
1 3391
1 3392
1 3393
1 3394
1 3395
1 3396
1 3397
1 3398
1 3399
1 3400
1 3401
1 3402
1 3403
1 3404
1 3405
1 3406
1 3407
1 3408
1 3409
1 3410
1 3411
1 3412
1 3413
1 3414
1 3415
1 3416
1 3417
1 3418
1 3419
1 3420
1 3421
1 3422
1 3423
1 3424
1 3425
1 3426
1 3427
1 3428
1 3429
1 3430
1 3431
1 3432
1 3433
1 3434
1 3435
1 3436
1 3437
1 3438
1 3439
1 3440
1 3441
1 3442
1 3443
1 3444
1 3445
1 3446
1 3447
1 3448
1 3449
1 3450
1 3451
1 3452
1 3453
1 3454
1 3455
1 3456
1 3457
1 3458
1 3459
1 3460
1 3461
1 3462
1 3463
1 3464
1 3465
1 3466
1 3467
1 3468
1 3469
1 3470
1 3471
1 3472
1 3473
1 3474
1 3475
1 3476
1 3477
1 3478
1 3479
1 3480
1 3481
1 3482
1 3483
1 3484
1 3485
1 3486
1 3487
1 3488
1 3489
1 3490
1 3491
1 3492
1 3493
1 3494
1 3495
1 3496
1 3497
1 3498
1 3499
1 3500
1 3501
1 3502
1 3503
1 3504
1 3505
1 3506
1 3507
1 3508
1 3509
1 3510
1 3511
1 3512
1 3513
1 3514
1 3515
1 3516
1 3517
1 3518
1 3519
1 3520
1 3521
1 3522
1 3523
1 3524
1 3525
1 3526
1 3527
1 3528
1 3529
1 3530
1 3531
1 3532
1 3533
1 3534
1 3535
1 3536
1 3537
1 3538
1 3539
1 3540
1 3541
1 3542
1 3543
1 3544
1 3545
1 3546
1 3547
1 3548
1 3549
1 3550
1 3551
1 3552
1 3553
1 3554
1 3555
1 3556
1 3557
1 3558
1 3559
1 3560
1 3561
1 3562
1 3563
1 3564
1 3565
1 3566
1 3567
1 3568
1 3569
1 3570
1 3571
1 3572
1 3573
1 3574
1 3575
1 3576
1 3577
1 3578
1 3579
1 3580
1 3581
1 3582
1 3583
1 3584
1 3585
1 3586
1 3587
1 3588
1 3589
1 3590
1 3591
1 3592
1 3593
1 3594
1 3595
1 3596
1 3597
1 3598
1 3599
1 3600
1 3601
1 3602
1 3603
1 3604
1 3605
1 3606
1 3607
1 3608
1 3609
1 3610
1 3611
1 3612
1 3613
1 3614
1 3615
1 3616
1 3617
1 3618
1 3619
1 3620
1 3621
1 3622
1 3623
1 3624
1 3625
1 3626
1 3627
1 3628
1 3629
1 3630
1 3631
1 3632
1 3633
1 3634
1 3635
1 3636
1 3637
1 3638
1 3639
1 3640
1 3641
1 3642
1 3643
1 3644
1 3645
1 3646
1 3647
1 3648
1 3649
1 3650
1 3651
1 3652
1 3653
1 3654
1 3655
1 3656
1 3657
1 3658
1 3659
1 3660
1 3661
1 3662
1 3663
1 3664
1 3665
1 3666
1 3667
1 3668
1 3669
1 3670
1 3671
1 3672
1 3673
1 3674
1 3675
1 3676
1 3677
1 3678
1 3679
1 3680
1 3681
1 3682
1 3683
1 3684
1 3685
1 3686
1 3687
1 3688
1 3689
1 3690
1 3691
1 3692
1 3693
1 3694
1 3695
1 3696
1 3697
1 3698
1 3699
1 3700
1 3701
1 3702
1 3703
1 3704
1 3705
1 3706
1 3707
1 3708
1 3709
1 3710
1 3711
1 3712
1 3713
1 3714
1 3715
1 3716
1 3717
1 3718
1 3719
1 3720
1 3721
1 3722
1 3723
1 3724
1 3725
1 3726
1 3727
1 3728
1 3729
1 3730
1 3731
1 3732
1 3733
1 3734
1 3735
1 3736
1 3737
1 3738
1 3739
1 3740
1 3741
1 3742
1 3743
1 3744
1 3745
1 3746
1 3747
1 3748
1 3749
1 3750
1 3751
1 3752
1 3753
1 3754
1 3755
1 3756
1 3757
1 3758
1 3759
1 3760
1 3761
1 3762
1 3763
1 3764
1 3765
1 3766
1 3767
1 3768
1 3769
1 3770
1 3771
1 3772
1 3773
1 3774
1 3775
1 3776
1 3777
1 3778
1 3779
1 3780
1 3781
1 3782
1 3783
1 3784
1 3785
1 3786
1 3787
1 3788
1 3789
1 3790
1 3791
1 3792
1 3793
1 3794
1 3795
1 3796
1 3797
1 3798
1 3799
1 3800
1 3801
1 3802
1 3803
1 3804
1 3805
1 3806
1 3807
1 3808
1 3809
1 3810
1 3811
1 3812
1 3813
1 3814
1 3815
1 3816
1 3817
1 3818
1 3819
1 3820
1 3821
1 3822
1 3823
1 3824
1 3825
1 3826
1 3827
1 3828
1 3829
1 3830
1 3831
1 3832
1 3833
1 3834
1 3835
1 3836
1 3837
1 3838
1 3839
1 3840
1 3841
1 3842
1 3843
1 3844
1 3845
1 3846
1 3847
1 3848
1 3849
1 3850
1 3851
1 3852
1 3853
1 3854
1 3855
1 3856
1 3857
1 3858
1 3859
1 3860
1 3861
1 3862
1 3863
1 3864
1 3865
1 3866
1 3867
1 3868
1 3869
1 3870
1 3871
1 3872
1 3873
1 3874
1 3875
1 3876
1 3877
1 3878
1 3879
1 3880
1 3881
1 3882
1 3883
1 3884
1 3885
1 3886
1 3887
1 3888
1 3889
1 3890
1 3891
1 3892
1 3893
1 3894
1 3895
1 3896
1 3897
1 3898
1 3899
1 3900
1 3901
1 3902
1 3903
1 3904
1 3905
1 3906
1 3907
1 3908
1 3909
1 3910
1 3911
1 3912
1 3913
1 3914
1 3915
1 3916
1 3917
1 3918
1 3919
1 3920
1 3921
1 3922
1 3923
1 3924
1 3925
1 3926
1 3927
1 3928
1 3929
1 3930
1 3931
1 3932
1 3933
1 3934
1 3935
1 3936
1 3937
1 3938
1 3939
1 3940
1 3941
1 3942
1 3943
1 3944
1 3945
1 3946
1 3947
1 3948
1 3949
1 3950
1 3951
1 3952
1 3953
1 3954
1 3955
1 3956
1 3957
1 3958
1 3959
1 3960
1 3961
1 3962
1 3963
1 3964
1 3965
1 3966
1 3967
1 3968
1 3969
1 3970
1 3971
1 3972
1 3973
1 3974
1 3975
1 3976
1 3977
1 3978
1 3979
1 3980
1 3981
1 3982
1 3983
1 3984
1 3985
1 3986
1 3987
1 3988
1 3989
1 3990
1 3991
1 3992
1 3993
1 3994
1 3995
1 3996
1 3997
1 3998
1 3999
1 4000
1 4001
1 4002
1 4003
1 4004
1 4005
1 4006
1 4007
1 4008
1 4009
1 4010
1 4011
1 4012
1 4013
1 4014
1 4015
1 4016
1 4017
1 4018
1 4019
1 4020
1 4021
1 4022
1 4023
1 4024
1 4025
1 4026
1 4027
1 4028
1 4029
1 4030
1 4031
1 4032
1 4033
1 4034
1 4035
1 4036
1 4037
1 4038
1 4039
1 4040
1 4041
1 4042
1 4043
1 4044
1 4045
1 4046
1 4047
1 4048
1 4049
1 4050
1 4051
1 4052
1 4053
1 4054
1 4055
1 4056
1 4057
1 4058
1 4059
1 4060
1 4061
1 4062
1 4063
1 4064
1 4065
1 4066
1 4067
1 4068
1 4069
1 4070
1 4071
1 4072
1 4073
1 4074
1 4075
1 4076
1 4077
1 4078
1 4079
1 4080
1 4081
1 4082
1 4083
1 4084
1 4085
1 4086
1 4087
1 4088
1 4089
1 4090
1 4091
1 4092
1 4093
1 4094
1 4095
1 4096
1 4097
1 4098
1 4099
1 4100
1 4101
1 4102
1 4103
1 4104
1 4105
1 4106
1 4107
1 4108
1 4109
1 4110
1 4111
1 4112
1 4113
1 4114
1 4115
1 4116
1 4117
1 4118
1 4119
1 4120
1 4121
1 4122
1 4123
1 4124
1 4125
1 4126
1 4127
1 4128
1 4129
1 4130
1 4131
1 4132
1 4133
1 4134
1 4135
1 4136
1 4137
1 4138
1 4139
1 4140
1 4141
1 4142
1 4143
1 4144
1 4145
1 4146
1 4147
1 4148
1 4149
1 4150
1 4151
1 4152
1 4153
1 4154
1 4155
1 4156
1 4157
1 4158
1 4159
1 4160
1 4161
1 4162
1 4163
1 4164
1 4165
1 4166
1 4167
1 4168
1 4169
1 4170
1 4171
1 4172
1 4173
1 4174
1 4175
1 4176
1 4177
1 4178
1 4179
1 4180
1 4181
1 4182
1 4183
1 4184
1 4185
1 4186
1 4187
1 4188
1 4189
1 4190
1 4191
1 4192
1 4193
1 4194
1 4195
1 4196
1 4197
1 4198
1 4199
1 4200
1 4201
1 4202
1 4203
1 4204
1 4205
1 4206
1 4207
1 4208
1 4209
1 4210
1 4211
1 4212
1 4213
1 4214
1 4215
1 4216
1 4217
1 4218
1 4219
1 4220
1 4221
1 4222
1 4223
1 4224
1 4225
1 4226
1 4227
1 4228
1 4229
1 4230
1 4231
1 4232
1 4233
1 4234
1 4235
1 4236
1 4237
1 4238
1 4239
1 4240
1 4241
1 4242
1 4243
1 4244
1 4245
1 4246
1 4247
1 4248
1 4249
1 4250
1 4251
1 4252
1 4253
1 4254
1 4255
1 4256
1 4257
1 4258
1 4259
1 4260
1 4261
1 4262
1 4263
1 4264
1 4265
1 4266
1 4267
1 4268
1 4269
1 4270
1 4271
1 4272
1 4273
1 4274
1 4275
1 4276
1 4277
1 4278
1 4279
1 4280
1 4281
1 4282
1 4283
1 4284
1 4285
1 4286
1 4287
1 4288
1 4289
1 4290
1 4291
1 4292
1 4293
1 4294
1 4295
1 4296
1 4297
1 4298
1 4299
1 4300
1 4301
1 4302
1 4303
1 4304
1 4305
1 4306
1 4307
1 4308
1 4309
1 4310
1 4311
1 4312
1 4313
1 4314
1 4315
1 4316
1 4317
1 4318
1 4319
1 4320
1 4321
1 4322
1 4323
1 4324
1 4325
1 4326
1 4327
1 4328
1 4329
1 4330
1 4331
1 4332
1 4333
1 4334
1 4335
1 4336
1 4337
1 4338
1 4339
1 4340
1 4341
1 4342
1 4343
1 4344
1 4345
1 4346
1 4347
1 4348
1 4349
1 4350
1 4351
1 4352
1 4353
1 4354
1 4355
1 4356
1 4357
1 4358
1 4359
1 4360
1 4361
1 4362
1 4363
1 4364
1 4365
1 4366
1 4367
1 4368
1 4369
1 4370
1 4371
1 4372
1 4373
1 4374
1 4375
1 4376
1 4377
1 4378
1 4379
1 4380
1 4381
1 4382
1 4383
1 4384
1 4385
1 4386
1 4387
1 4388
1 4389
1 4390
1 4391
1 4392
1 4393
1 4394
1 4395
1 4396
1 4397
1 4398
1 4399
1 4400
1 4401
1 4402
1 4403
1 4404
1 4405
1 4406
1 4407
1 4408
1 4409
1 4410
1 4411
1 4412
1 4413
1 4414
1 4415
1 4416
1 4417
1 4418
1 4419
1 4420
1 4421
1 4422
1 4423
1 4424
1 4425
1 4426
1 4427
1 4428
1 4429
1 4430
1 4431
1 4432
1 4433
1 4434
1 4435
1 4436
1 4437
1 4438
1 4439
1 4440
1 4441
1 4442
1 4443
1 4444
1 4445
1 4446
1 4447
1 4448
1 4449
1 4450
1 4451
1 4452
1 4453
1 4454
1 4455
1 4456
1 4457
1 4458
1 4459
1 4460
1 4461
1 4462
1 4463
1 4464
1 4465
1 4466
1 4467
1 4468
1 4469
1 4470
1 4471
1 4472
1 4473
1 4474
1 4475
1 4476
1 4477
1 4478
1 4479
1 4480
1 4481
1 4482
1 4483
1 4484
1 4485
1 4486
1 4487
1 4488
1 4489
1 4490
1 4491
1 4492
1 4493
1 4494
1 4495
1 4496
1 4497
1 4498
1 4499
1 4500
1 4501
1 4502
1 4503
1 4504
1 4505
1 4506
1 4507
1 4508
1 4509
1 4510
1 4511
1 4512
1 4513
1 4514
1 4515
1 4516
1 4517
1 4518
1 4519
1 4520
1 4521
1 4522
1 4523
1 4524
1 4525
1 4526
1 4527
1 4528
1 4529
1 4530
1 4531
1 4532
1 4533
1 4534
1 4535
1 4536
1 4537
1 4538
1 4539
1 4540
1 4541
1 4542
1 4543
1 4544
1 4545
1 4546
1 4547
1 4548
1 4549
1 4550
1 4551
1 4552
1 4553
1 4554
1 4555
1 4556
1 4557
1 4558
1 4559
1 4560
1 4561
1 4562
1 4563
1 4564
1 4565
1 4566
1 4567
1 4568
1 4569
1 4570
1 4571
1 4572
1 4573
1 4574
1 4575
1 4576
1 4577
1 4578
1 4579
1 4580
1 4581
1 4582
1 4583
1 4584
1 4585
1 4586
1 4587
1 4588
1 4589
1 4590
1 4591
1 4592
1 4593
1 4594
1 4595
1 4596
1 4597
1 4598
1 4599
1 4600
1 4601
1 4602
1 4603
1 4604
1 4605
1 4606
1 4607
1 4608
1 4609
1 4610
1 4611
1 4612
1 4613
1 4614
1 4615
1 4616
1 4617
1 4618
1 4619
1 4620
1 4621
1 4622
1 4623
1 4624
1 4625
1 4626
1 4627
1 4628
1 4629
1 4630
1 4631
1 4632
1 4633
1 4634
1 4635
1 4636
1 4637
1 4638
1 4639
1 4640
1 4641
1 4642
1 4643
1 4644
1 4645
1 4646
1 4647
1 4648
1 4649
1 4650
1 4651
1 4652
1 4653
1 4654
1 4655
1 4656
1 4657
1 4658
1 4659
1 4660
1 4661
1 4662
1 4663
1 4664
1 4665
1 4666
1 4667
1 4668
1 4669
1 4670
1 4671
1 4672
1 4673
1 4674
1 4675
1 4676
1 4677
1 4678
1 4679
1 4680
1 4681
1 4682
1 4683
1 4684
1 4685
1 4686
1 4687
1 4688
1 4689
1 4690
1 4691
1 4692
1 4693
1 4694
1 4695
1 4696
1 4697
1 4698
1 4699
1 4700
1 4701
1 4702
1 4703
1 4704
1 4705
1 4706
1 4707
1 4708
1 4709
1 4710
1 4711
1 4712
1 4713
1 4714
1 4715
1 4716
1 4717
1 4718
1 4719
1 4720
1 4721
1 4722
1 4723
1 4724
1 4725
1 4726
1 4727
1 4728
1 4729
1 4730
1 4731
1 4732
1 4733
1 4734
1 4735
1 4736
1 4737
1 4738
1 4739
1 4740
1 4741
1 4742
1 4743
1 4744
1 4745
1 4746
1 4747
1 4748
1 4749
1 4750
1 4751
1 4752
1 4753
1 4754
1 4755
1 4756
1 4757
1 4758
1 4759
1 4760
1 4761
1 4762
1 4763
1 4764
1 4765
1 4766
1 4767
1 4768
1 4769
1 4770
1 4771
1 4772
1 4773
1 4774
1 4775
1 4776
1 4777
1 4778
1 4779
1 4780
1 4781
1 4782
1 4783
1 4784
1 4785
1 4786
1 4787
1 4788
1 4789
1 4790
1 4791
1 4792
1 4793
1 4794
1 4795
1 4796
1 4797
1 4798
1 4799
1 4800
1 4801
1 4802
1 4803
1 4804
1 4805
1 4806
1 4807
1 4808
1 4809
1 4810
1 4811
1 4812
1 4813
1 4814
1 4815
1 4816
1 4817
1 4818
1 4819
1 4820
1 4821
1 4822
1 4823
1 4824
1 4825
1 4826
1 4827
1 4828
1 4829
1 4830
1 4831
1 4832
1 4833
1 4834
1 4835
1 4836
1 4837
1 4838
1 4839
1 4840
1 4841
1 4842
1 4843
1 4844
1 4845
1 4846
1 4847
1 4848
1 4849
1 4850
1 4851
1 4852
1 4853
1 4854
1 4855
1 4856
1 4857
1 4858
1 4859
1 4860
1 4861
1 4862
1 4863
1 4864
1 4865
1 4866
1 4867
1 4868
1 4869
1 4870
1 4871
1 4872
1 4873
1 4874
1 4875
1 4876
1 4877
1 4878
1 4879
1 4880
1 4881
1 4882
1 4883
1 4884
1 4885
1 4886
1 4887
1 4888
1 4889
1 4890
1 4891
1 4892
1 4893
1 4894
1 4895
1 4896
1 4897
1 4898
1 4899
1 4900
1 4901
1 4902
1 4903
1 4904
1 4905
1 4906
1 4907
1 4908
1 4909
1 4910
1 4911
1 4912
1 4913
1 4914
1 4915
1 4916
1 4917
1 4918
1 4919
1 4920
1 4921
1 4922
1 4923
1 4924
1 4925
1 4926
1 4927
1 4928
1 4929
1 4930
1 4931
1 4932
1 4933
1 4934
1 4935
1 4936
1 4937
1 4938
1 4939
1 4940
1 4941
1 4942
1 4943
1 4944
1 4945
1 4946
1 4947
1 4948
1 4949
1 4950
1 4951
1 4952
1 4953
1 4954
1 4955
1 4956
1 4957
1 4958
1 4959
1 4960
1 4961
1 4962
1 4963
1 4964
1 4965
1 4966
1 4967
1 4968
1 4969
1 4970
1 4971
1 4972
1 4973
1 4974
1 4975
1 4976
1 4977
1 4978
1 4979
1 4980
1 4981
1 4982
1 4983
1 4984
1 4985
1 4986
1 4987
1 4988
1 4989
1 4990
1 4991
1 4992
1 4993
1 4994
1 4995
1 4996
1 4997
1 4998
1 4999
CELL_TYPES 5000
1 
1 
1 
1 
1 
1 
1 
1 
1 
1 
1 
1 
1 
1 
1 
1 
1 
1 
1 
1 
1 
1 
1 
1 
1 
1 
1 
1 
1 
1 
1 
1 
1 
1 
1 
1 
1 
1 
1 
1 
1 
1 
1 
1 
1 
1 
1 
1 
1 
1 
1 
1 
1 
1 
1 
1 
1 
1 
1 
1 
1 
1 
1 
1 
1 
1 
1 
1 
1 
1 
1 
1 
1 
1 
1 
1 
1 
1 
1 
1 
1 
1 
1 
1 
1 
1 
1 
1 
1 
1 
1 
1 
1 
1 
1 
1 
1 
1 
1 
1 
1 
1 
1 
1 
1 
1 
1 
1 
1 
1 
1 
1 
1 
1 
1 
1 
1 
1 
1 
1 
1 
1 
1 
1 
1 
1 
1 
1 
1 
1 
1 
1 
1 
1 
1 
1 
1 
1 
1 
1 
1 
1 
1 
1 
1 
1 
1 
1 
1 
1 
1 
1 
1 
1 
1 
1 
1 
1 
1 
1 
1 
1 
1 
1 
1 
1 
1 
1 
1 
1 
1 
1 
1 
1 
1 
1 
1 
1 
1 
1 
1 
1 
1 
1 
1 
1 
1 
1 
1 
1 
1 
1 
1 
1 
1 
1 
1 
1 
1 
1 
1 
1 
1 
1 
1 
1 
1 
1 
1 
1 
1 
1 
1 
1 
1 
1 
1 
1 
1 
1 
1 
1 
1 
1 
1 
1 
1 
1 
1 
1 
1 
1 
1 
1 
1 
1 
1 
1 
1 
1 
1 
1 
1 
1 
1 
1 
1 
1 
1 
1 
1 
1 
1 
1 
1 
1 
1 
1 
1 
1 
1 
1 
1 
1 
1 
1 
1 
1 
1 
1 
1 
1 
1 
1 
1 
1 
1 
1 
1 
1 
1 
1 
1 
1 
1 
1 
1 
1 
1 
1 
1 
1 
1 
1 
1 
1 
1 
1 
1 
1 
1 
1 
1 
1 
1 
1 
1 
1 
1 
1 
1 
1 
1 
1 
1 
1 
1 
1 
1 
1 
1 
1 
1 
1 
1 
1 
1 
1 
1 
1 
1 
1 
1 
1 
1 
1 
1 
1 
1 
1 
1 
1 
1 
1 
1 
1 
1 
1 
1 
1 
1 
1 
1 
1 
1 
1 
1 
1 
1 
1 
1 
1 
1 
1 
1 
1 
1 
1 
1 
1 
1 
1 
1 
1 
1 
1 
1 
1 
1 
1 
1 
1 
1 
1 
1 
1 
1 
1 
1 
1 
1 
1 
1 
1 
1 
1 
1 
1 
1 
1 
1 
1 
1 
1 
1 
1 
1 
1 
1 
1 
1 
1 
1 
1 
1 
1 
1 
1 
1 
1 
1 
1 
1 
1 
1 
1 
1 
1 
1 
1 
1 
1 
1 
1 
1 
1 
1 
1 
1 
1 
1 
1 
1 
1 
1 
1 
1 
1 
1 
1 
1 
1 
1 
1 
1 
1 
1 
1 
1 
1 
1 
1 
1 
1 
1 
1 
1 
1 
1 
1 
1 
1 
1 
1 
1 
1 
1 
1 
1 
1 
1 
1 
1 
1 
1 
1 
1 
1 
1 
1 
1 
1 
1 
1 
1 
1 
1 
1 
1 
1 
1 
1 
1 
1 
1 
1 
1 
1 
1 
1 
1 
1 
1 
1 
1 
1 
1 
1 
1 
1 
1 
1 
1 
1 
1 
1 
1 
1 
1 
1 
1 
1 
1 
1 
1 
1 
1 
1 
1 
1 
1 
1 
1 
1 
1 
1 
1 
1 
1 
1 
1 
1 
1 
1 
1 
1 
1 
1 
1 
1 
1 
1 
1 
1 
1 
1 
1 
1 
1 
1 
1 
1 
1 
1 
1 
1 
1 
1 
1 
1 
1 
1 
1 
1 
1 
1 
1 
1 
1 
1 
1 
1 
1 
1 
1 
1 
1 
1 
1 
1 
1 
1 
1 
1 
1 
1 
1 
1 
1 
1 
1 
1 
1 
1 
1 
1 
1 
1 
1 
1 
1 
1 
1 
1 
1 
1 
1 
1 
1 
1 
1 
1 
1 
1 
1 
1 
1 
1 
1 
1 
1 
1 
1 
1 
1 
1 
1 
1 
1 
1 
1 
1 
1 
1 
1 
1 
1 
1 
1 
1 
1 
1 
1 
1 
1 
1 
1 
1 
1 
1 
1 
1 
1 
1 
1 
1 
1 
1 
1 
1 
1 
1 
1 
1 
1 
1 
1 
1 
1 
1 
1 
1 
1 
1 
1 
1 
1 
1 
1 
1 
1 
1 
1 
1 
1 
1 
1 
1 
1 
1 
1 
1 
1 
1 
1 
1 
1 
1 
1 
1 
1 
1 
1 
1 
1 
1 
1 
1 
1 
1 
1 
1 
1 
1 
1 
1 
1 
1 
1 
1 
1 
1 
1 
1 
1 
1 
1 
1 
1 
1 
1 
1 
1 
1 
1 
1 
1 
1 
1 
1 
1 
1 
1 
1 
1 
1 
1 
1 
1 
1 
1 
1 
1 
1 
1 
1 
1 
1 
1 
1 
1 
1 
1 
1 
1 
1 
1 
1 
1 
1 
1 
1 
1 
1 
1 
1 
1 
1 
1 
1 
1 
1 
1 
1 
1 
1 
1 
1 
1 
1 
1 
1 
1 
1 
1 
1 
1 
1 
1 
1 
1 
1 
1 
1 
1 
1 
1 
1 
1 
1 
1 
1 
1 
1 
1 
1 
1 
1 
1 
1 
1 
1 
1 
1 
1 
1 
1 
1 
1 
1 
1 
1 
1 
1 
1 
1 
1 
1 
1 
1 
1 
1 
1 
1 
1 
1 
1 
1 
1 
1 
1 
1 
1 
1 
1 
1 
1 
1 
1 
1 
1 
1 
1 
1 
1 
1 
1 
1 
1 
1 
1 
1 
1 
1 
1 
1 
1 
1 
1 
1 
1 
1 
1 
1 
1 
1 
1 
1 
1 
1 
1 
1 
1 
1 
1 
1 
1 
1 
1 
1 
1 
1 
1 
1 
1 
1 
1 
1 
1 
1 
1 
1 
1 
1 
1 
1 
1 
1 
1 
1 
1 
1 
1 
1 
1 
1 
1 
1 
1 
1 
1 
1 
1 
1 
1 
1 
1 
1 
1 
1 
1 
1 
1 
1 
1 
1 
1 
1 
1 
1 
1 
1 
1 
1 
1 
1 
1 
1 
1 
1 
1 
1 
1 
1 
1 
1 
1 
1 
1 
1 
1 
1 
1 
1 
1 
1 
1 
1 
1 
1 
1 
1 
1 
1 
1 
1 
1 
1 
1 
1 
1 
1 
1 
1 
1 
1 
1 
1 
1 
1 
1 
1 
1 
1 
1 
1 
1 
1 
1 
1 
1 
1 
1 
1 
1 
1 
1 
1 
1 
1 
1 
1 
1 
1 
1 
1 
1 
1 
1 
1 
1 
1 
1 
1 
1 
1 
1 
1 
1 
1 
1 
1 
1 
1 
1 
1 
1 
1 
1 
1 
1 
1 
1 
1 
1 
1 
1 
1 
1 
1 
1 
1 
1 
1 
1 
1 
1 
1 
1 
1 
1 
1 
1 
1 
1 
1 
1 
1 
1 
1 
1 
1 
1 
1 
1 
1 
1 
1 
1 
1 
1 
1 
1 
1 
1 
1 
1 
1 
1 
1 
1 
1 
1 
1 
1 
1 
1 
1 
1 
1 
1 
1 
1 
1 
1 
1 
1 
1 
1 
1 
1 
1 
1 
1 
1 
1 
1 
1 
1 
1 
1 
1 
1 
1 
1 
1 
1 
1 
1 
1 
1 
1 
1 
1 
1 
1 
1 
1 
1 
1 
1 
1 
1 
1 
1 
1 
1 
1 
1 
1 
1 
1 
1 
1 
1 
1 
1 
1 
1 
1 
1 
1 
1 
1 
1 
1 
1 
1 
1 
1 
1 
1 
1 
1 
1 
1 
1 
1 
1 
1 
1 
1 
1 
1 
1 
1 
1 
1 
1 
1 
1 
1 
1 
1 
1 
1 
1 
1 
1 
1 
1 
1 
1 
1 
1 
1 
1 
1 
1 
1 
1 
1 
1 
1 
1 
1 
1 
1 
1 
1 
1 
1 
1 
1 
1 
1 
1 
1 
1 
1 
1 
1 
1 
1 
1 
1 
1 
1 
1 
1 
1 
1 
1 
1 
1 
1 
1 
1 
1 
1 
1 
1 
1 
1 
1 
1 
1 
1 
1 
1 
1 
1 
1 
1 
1 
1 
1 
1 
1 
1 
1 
1 
1 
1 
1 
1 
1 
1 
1 
1 
1 
1 
1 
1 
1 
1 
1 
1 
1 
1 
1 
1 
1 
1 
1 
1 
1 
1 
1 
1 
1 
1 
1 
1 
1 
1 
1 
1 
1 
1 
1 
1 
1 
1 
1 
1 
1 
1 
1 
1 
1 
1 
1 
1 
1 
1 
1 
1 
1 
1 
1 
1 
1 
1 
1 
1 
1 
1 
1 
1 
1 
1 
1 
1 
1 
1 
1 
1 
1 
1 
1 
1 
1 
1 
1 
1 
1 
1 
1 
1 
1 
1 
1 
1 
1 
1 
1 
1 
1 
1 
1 
1 
1 
1 
1 
1 
1 
1 
1 
1 
1 
1 
1 
1 
1 
1 
1 
1 
1 
1 
1 
1 
1 
1 
1 
1 
1 
1 
1 
1 
1 
1 
1 
1 
1 
1 
1 
1 
1 
1 
1 
1 
1 
1 
1 
1 
1 
1 
1 
1 
1 
1 
1 
1 
1 
1 
1 
1 
1 
1 
1 
1 
1 
1 
1 
1 
1 
1 
1 
1 
1 
1 
1 
1 
1 
1 
1 
1 
1 
1 
1 
1 
1 
1 
1 
1 
1 
1 
1 
1 
1 
1 
1 
1 
1 
1 
1 
1 
1 
1 
1 
1 
1 
1 
1 
1 
1 
1 
1 
1 
1 
1 
1 
1 
1 
1 
1 
1 
1 
1 
1 
1 
1 
1 
1 
1 
1 
1 
1 
1 
1 
1 
1 
1 
1 
1 
1 
1 
1 
1 
1 
1 
1 
1 
1 
1 
1 
1 
1 
1 
1 
1 
1 
1 
1 
1 
1 
1 
1 
1 
1 
1 
1 
1 
1 
1 
1 
1 
1 
1 
1 
1 
1 
1 
1 
1 
1 
1 
1 
1 
1 
1 
1 
1 
1 
1 
1 
1 
1 
1 
1 
1 
1 
1 
1 
1 
1 
1 
1 
1 
1 
1 
1 
1 
1 
1 
1 
1 
1 
1 
1 
1 
1 
1 
1 
1 
1 
1 
1 
1 
1 
1 
1 
1 
1 
1 
1 
1 
1 
1 
1 
1 
1 
1 
1 
1 
1 
1 
1 
1 
1 
1 
1 
1 
1 
1 
1 
1 
1 
1 
1 
1 
1 
1 
1 
1 
1 
1 
1 
1 
1 
1 
1 
1 
1 
1 
1 
1 
1 
1 
1 
1 
1 
1 
1 
1 
1 
1 
1 
1 
1 
1 
1 
1 
1 
1 
1 
1 
1 
1 
1 
1 
1 
1 
1 
1 
1 
1 
1 
1 
1 
1 
1 
1 
1 
1 
1 
1 
1 
1 
1 
1 
1 
1 
1 
1 
1 
1 
1 
1 
1 
1 
1 
1 
1 
1 
1 
1 
1 
1 
1 
1 
1 
1 
1 
1 
1 
1 
1 
1 
1 
1 
1 
1 
1 
1 
1 
1 
1 
1 
1 
1 
1 
1 
1 
1 
1 
1 
1 
1 
1 
1 
1 
1 
1 
1 
1 
1 
1 
1 
1 
1 
1 
1 
1 
1 
1 
1 
1 
1 
1 
1 
1 
1 
1 
1 
1 
1 
1 
1 
1 
1 
1 
1 
1 
1 
1 
1 
1 
1 
1 
1 
1 
1 
1 
1 
1 
1 
1 
1 
1 
1 
1 
1 
1 
1 
1 
1 
1 
1 
1 
1 
1 
1 
1 
1 
1 
1 
1 
1 
1 
1 
1 
1 
1 
1 
1 
1 
1 
1 
1 
1 
1 
1 
1 
1 
1 
1 
1 
1 
1 
1 
1 
1 
1 
1 
1 
1 
1 
1 
1 
1 
1 
1 
1 
1 
1 
1 
1 
1 
1 
1 
1 
1 
1 
1 
1 
1 
1 
1 
1 
1 
1 
1 
1 
1 
1 
1 
1 
1 
1 
1 
1 
1 
1 
1 
1 
1 
1 
1 
1 
1 
1 
1 
1 
1 
1 
1 
1 
1 
1 
1 
1 
1 
1 
1 
1 
1 
1 
1 
1 
1 
1 
1 
1 
1 
1 
1 
1 
1 
1 
1 
1 
1 
1 
1 
1 
1 
1 
1 
1 
1 
1 
1 
1 
1 
1 
1 
1 
1 
1 
1 
1 
1 
1 
1 
1 
1 
1 
1 
1 
1 
1 
1 
1 
1 
1 
1 
1 
1 
1 
1 
1 
1 
1 
1 
1 
1 
1 
1 
1 
1 
1 
1 
1 
1 
1 
1 
1 
1 
1 
1 
1 
1 
1 
1 
1 
1 
1 
1 
1 
1 
1 
1 
1 
1 
1 
1 
1 
1 
1 
1 
1 
1 
1 
1 
1 
1 
1 
1 
1 
1 
1 
1 
1 
1 
1 
1 
1 
1 
1 
1 
1 
1 
1 
1 
1 
1 
1 
1 
1 
1 
1 
1 
1 
1 
1 
1 
1 
1 
1 
1 
1 
1 
1 
1 
1 
1 
1 
1 
1 
1 
1 
1 
1 
1 
1 
1 
1 
1 
1 
1 
1 
1 
1 
1 
1 
1 
1 
1 
1 
1 
1 
1 
1 
1 
1 
1 
1 
1 
1 
1 
1 
1 
1 
1 
1 
1 
1 
1 
1 
1 
1 
1 
1 
1 
1 
1 
1 
1 
1 
1 
1 
1 
1 
1 
1 
1 
1 
1 
1 
1 
1 
1 
1 
1 
1 
1 
1 
1 
1 
1 
1 
1 
1 
1 
1 
1 
1 
1 
1 
1 
1 
1 
1 
1 
1 
1 
1 
1 
1 
1 
1 
1 
1 
1 
1 
1 
1 
1 
1 
1 
1 
1 
1 
1 
1 
1 
1 
1 
1 
1 
1 
1 
1 
1 
1 
1 
1 
1 
1 
1 
1 
1 
1 
1 
1 
1 
1 
1 
1 
1 
1 
1 
1 
1 
1 
1 
1 
1 
1 
1 
1 
1 
1 
1 
1 
1 
1 
1 
1 
1 
1 
1 
1 
1 
1 
1 
1 
1 
1 
1 
1 
1 
1 
1 
1 
1 
1 
1 
1 
1 
1 
1 
1 
1 
1 
1 
1 
1 
1 
1 
1 
1 
1 
1 
1 
1 
1 
1 
1 
1 
1 
1 
1 
1 
1 
1 
1 
1 
1 
1 
1 
1 
1 
1 
1 
1 
1 
1 
1 
1 
1 
1 
1 
1 
1 
1 
1 
1 
1 
1 
1 
1 
1 
1 
1 
1 
1 
1 
1 
1 
1 
1 
1 
1 
1 
1 
1 
1 
1 
1 
1 
1 
1 
1 
1 
1 
1 
1 
1 
1 
1 
1 
1 
1 
1 
1 
1 
1 
1 
1 
1 
1 
1 
1 
1 
1 
1 
1 
1 
1 
1 
1 
1 
1 
1 
1 
1 
1 
1 
1 
1 
1 
1 
1 
1 
1 
1 
1 
1 
1 
1 
1 
1 
1 
1 
1 
1 
1 
1 
1 
1 
1 
1 
1 
1 
1 
1 
1 
1 
1 
1 
1 
1 
1 
1 
1 
1 
1 
1 
1 
1 
1 
1 
1 
1 
1 
1 
1 
1 
1 
1 
1 
1 
1 
1 
1 
1 
1 
1 
1 
1 
1 
1 
1 
1 
1 
1 
1 
1 
1 
1 
1 
1 
1 
1 
1 
1 
1 
1 
1 
1 
1 
1 
1 
1 
1 
1 
1 
1 
1 
1 
1 
1 
1 
1 
1 
1 
1 
1 
1 
1 
1 
1 
1 
1 
1 
1 
1 
1 
1 
1 
1 
1 
1 
1 
1 
1 
1 
1 
1 
1 
1 
1 
1 
1 
1 
1 
1 
1 
1 
1 
1 
1 
1 
1 
1 
1 
1 
1 
1 
1 
1 
1 
1 
1 
1 
1 
1 
1 
1 
1 
1 
1 
1 
1 
1 
1 
1 
1 
1 
1 
1 
1 
1 
1 
1 
1 
1 
1 
1 
1 
1 
1 
1 
1 
1 
1 
1 
1 
1 
1 
1 
1 
1 
1 
1 
1 
1 
1 
1 
1 
1 
1 
1 
1 
1 
1 
1 
1 
1 
1 
1 
1 
1 
1 
1 
1 
1 
1 
1 
1 
1 
1 
1 
1 
1 
1 
1 
1 
1 
1 
1 
1 
1 
1 
1 
1 
1 
1 
1 
1 
1 
1 
1 
1 
1 
1 
1 
1 
1 
1 
1 
1 
1 
1 
1 
1 
1 
1 
1 
1 
1 
1 
1 
1 
1 
1 
1 
1 
1 
1 
1 
1 
1 
1 
1 
1 
1 
1 
1 
1 
1 
1 
1 
1 
1 
1 
1 
1 
1 
1 
1 
1 
1 
1 
1 
1 
1 
1 
1 
1 
1 
1 
1 
1 
1 
1 
1 
1 
1 
1 
1 
1 
1 
1 
1 
1 
1 
1 
1 
1 
1 
1 
1 
1 
1 
1 
1 
1 
1 
1 
1 
1 
1 
1 
1 
1 
1 
1 
1 
1 
1 
1 
1 
1 
1 
1 
1 
1 
1 
1 
1 
1 
1 
1 
1 
1 
1 
1 
1 
1 
1 
1 
1 
1 
1 
1 
1 
1 
1 
1 
1 
1 
1 
1 
1 
1 
1 
1 
1 
1 
1 
1 
1 
1 
1 
1 
1 
1 
1 
1 
1 
1 
1 
1 
1 
1 
1 
1 
1 
1 
1 
1 
1 
1 
1 
1 
1 
1 
1 
1 
1 
1 
1 
1 
1 
1 
1 
1 
1 
1 
1 
1 
1 
1 
1 
1 
1 
1 
1 
1 
1 
1 
1 
1 
1 
1 
1 
1 
1 
1 
1 
1 
1 
1 
1 
1 
1 
1 
1 
1 
1 
1 
1 
1 
1 
1 
1 
1 
1 
1 
1 
1 
1 
1 
1 
1 
1 
1 
1 
1 
1 
1 
1 
1 
1 
1 
1 
1 
1 
1 
1 
1 
1 
1 
1 
1 
1 
1 
1 
1 
1 
1 
1 
1 
1 
1 
1 
1 
1 
1 
1 
1 
1 
1 
1 
1 
1 
1 
1 
1 
1 
1 
1 
1 
1 
1 
1 
1 
1 
1 
1 
1 
1 
1 
1 
1 
1 
1 
1 
1 
1 
1 
1 
1 
1 
1 
1 
1 
1 
1 
1 
1 
1 
1 
1 
1 
1 
1 
1 
1 
1 
1 
1 
1 
1 
1 
1 
1 
1 
1 
1 
1 
1 
1 
1 
1 
1 
1 
1 
1 
1 
1 
1 
1 
1 
1 
1 
1 
1 
1 
1 
1 
1 
1 
1 
1 
1 
1 
1 
1 
1 
1 
1 
1 
1 
1 
1 
1 
1 
1 
1 
1 
1 
1 
1 
1 
1 
1 
1 
1 
1 
1 
1 
1 
1 
1 
1 
1 
1 
1 
1 
1 
1 
1 
1 
1 
1 
1 
1 
1 
1 
1 
1 
1 
1 
1 
1 
1 
1 
1 
1 
1 
1 
1 
1 
1 
1 
1 
1 
1 
1 
1 
1 
1 
1 
1 
1 
1 
1 
1 
1 
1 
1 
1 
1 
1 
1 
1 
1 
1 
1 
1 
1 
1 
1 
1 
1 
1 
1 
1 
1 
1 
1 
1 
1 
1 
1 
1 
1 
1 
1 
1 
1 
1 
1 
1 
1 
1 
1 
1 
1 
1 
1 
1 
1 
1 
1 
1 
1 
1 
1 
1 
1 
1 
1 
1 
1 
1 
1 
1 
1 
1 
1 
1 
1 
1 
1 
1 
1 
1 
1 
1 
1 
1 
1 
1 
1 
1 
1 
1 
1 
1 
1 
1 
1 
1 
1 
1 
1 
1 
1 
1 
1 
1 
1 
1 
1 
1 
1 
1 
1 
1 
1 
1 
1 
1 
1 
1 
1 
1 
1 
1 
1 
1 
1 
1 
1 
1 
1 
1 
1 
1 
1 
1 
1 
1 
1 
1 
1 
1 
1 
1 
1 
1 
1 
1 
1 
1 
1 
1 
1 
1 
1 
1 
1 
1 
1 
1 
1 
1 
1 
1 
1 
1 
1 
1 
1 
1 
1 
1 
1 
1 
1 
1 
1 
1 
1 
1 
1 
1 
1 
1 
1 
1 
1 
1 
1 
1 
1 
1 
1 
1 
1 
1 
1 
1 
1 
1 
1 
1 
1 
1 
1 
1 
1 
1 
1 
1 
1 
1 
1 
1 
1 
1 
1 
1 
1 
1 
1 
1 
1 
1 
1 
1 
1 
1 
1 
1 
1 
1 
1 
1 
1 
1 
1 
1 
1 
1 
1 
1 
1 
1 
1 
1 
1 
1 
1 
1 
1 
1 
1 
1 
1 
1 
1 
1 
1 
1 
1 
1 
1 
1 
1 
1 
1 
1 
1 
1 
1 
1 
1 
1 
1 
1 
1 
1 
1 
1 
1 
1 
1 
1 
1 
1 
1 
1 
1 
1 
1 
1 
1 
1 
1 
1 
1 
1 
1 
1 
1 
1 
1 
1 
1 
1 
1 
1 
1 
1 
1 
1 
1 
1 
1 
1 
1 
1 
1 
1 
1 
1 
1 
1 
1 
1 
1 
1 
1 
1 
1 
1 
1 
1 
1 
1 
1 
1 
1 
1 
1 
1 
1 
1 
1 
1 
1 
1 
1 
1 
1 
1 
1 
1 
1 
1 
1 
1 
1 
1 
1 
1 
1 
1 
1 
1 
1 
1 
1 
1 
1 
1 
1 
1 
1 
1 
1 
1 
1 
1 
1 
1 
1 
1 
1 
1 
1 
1 
1 
1 
1 
1 
1 
1 
1 
1 
1 
1 
1 
1 
1 
1 
1 
1 
1 
1 
1 
1 
1 
1 
1 
1 
1 
1 
1 
1 
1 
1 
1 
1 
1 
1 
1 
1 
1 
1 
1 
1 
1 
1 
1 
1 
1 
1 
1 
1 
1 
1 
1 
1 
1 
1 
1 
1 
1 
1 
1 
1 
1 
1 
1 
1 
1 
1 
1 
1 
1 
1 
1 
1 
1 
1 
1 
1 
1 
1 
1 
1 
1 
1 
1 
1 
1 
1 
1 
1 
1 
1 
1 
1 
1 
1 
1 
1 
1 
1 
1 
1 
1 
1 
1 
1 
1 
1 
1 
1 
1 
1 
1 
1 
1 
1 
1 
1 
1 
1 
1 
1 
1 
1 
1 
1 
1 
1 
1 
1 
1 
1 
1 
1 
1 
1 
1 
1 
1 
1 
1 
1 
1 
1 
1 
1 
1 
1 
1 
1 
1 
1 
1 
1 
1 
1 
1 
1 
1 
1 
1 
1 
1 
1 
1 
1 
1 
1 
1 
1 
1 
1 
1 
1 
1 
1 
1 
1 
1 
1 
1 
1 
1 
1 
1 
1 
1 
1 
1 
1 
1 
1 
1 
1 
1 
1 
1 
1 
1 
1 
1 
1 
1 
1 
1 
1 
1 
1 
1 
1 
1 
1 
1 
1 
1 
1 
1 
1 
1 
1 
1 
1 
1 
1 
1 
1 
1 
1 
1 
1 
1 
1 
1 
1 
1 
1 
1 
1 
1 
1 
1 
1 
1 
1 
1 
1 
1 
1 
1 
1 
1 
1 
1 
1 
1 
1 
1 
1 
1 
1 
1 
1 
1 
1 
1 
1 
1 
1 
1 
1 
1 
1 
1 
1 
1 
1 
1 
1 
1 
1 
1 
1 
1 
1 
1 
1 
1 
1 
1 
1 
1 
1 
1 
1 
1 
1 
1 
1 
1 
1 
1 
1 
1 
1 
1 
1 
1 
1 
1 
1 
1 
1 
1 
1 
1 
1 
1 
1 
1 
1 
1 
1 
1 
1 
1 
1 
1 
1 
1 
1 
1 
1 
1 
1 
1 
1 
1 
1 
1 
1 
1 
1 
1 
1 
1 
1 
1 
1 
1 
1 
1 
1 
1 
1 
1 
1 
1 
1 
1 
1 
1 
1 
1 
1 
1 
1 
1 
1 
1 
1 
1 
1 
1 
1 
1 
1 
1 
1 
1 
1 
1 
1 
1 
1 
1 
1 
1 
1 
1 
1 
1 
1 
1 
1 
1 
1 
1 
1 
1 
1 
1 
1 
1 
1 
1 
1 
1 
1 
1 
1 
1 
1 
1 
1 
1 
1 
1 
1 
1 
1 
1 
1 
1 
1 
1 
1 
1 
1 
1 
1 
1 
1 
1 
1 
1 
1 
1 
1 
1 
1 
1 
1 
1 
1 
1 
1 
1 
1 
1 
1 
1 
1 
1 
1 
1 
1 
1 
1 
1 
1 
1 
1 
1 
1 
1 
1 
1 
1 
1 
1 
1 
1 
1 
1 
1 
1 
1 
1 
1 
1 
1 
1 
1 
1 
1 
1 
1 
1 
1 
1 
1 
1 
1 
1 
1 
1 
1 
1 
1 
1 
1 
1 
1 
1 
1 
1 
1 
1 
1 
1 
1 
1 
1 
1 
1 
1 
1 
1 
1 
1 
1 
1 
1 
1 
1 
1 
1 
1 
1 
1 
1 
1 
1 
1 
1 
1 
1 
1 
1 
1 
1 
1 
1 
1 
1 
1 
1 
1 
1 
1 
1 
1 
1 
1 
1 
1 
1 
1 
1 
1 
1 
1 
1 
1 
1 
1 
1 
1 
1 
1 
1 
1 
1 
1 
1 
1 
1 
1 
1 
1 
1 
1 
1 
1 
1 
1 
1 
1 
1 
1 
1 
1 
1 
1 
1 
1 
1 
1 
1 
1 
1 
1 
1 
1 
1 
1 
1 
1 
1 
1 
1 
1 
1 
1 
1 
1 
1 
1 
1 
1 
1 
1 
1 
1 
1 
1 
1 
1 
1 
1 
1 
1 
1 
1 
1 
1 
1 
1 
1 
1 
1 
1 
1 
1 
1 
1 
1 
1 
1 
1 
1 
1 
1 
1 
1 
1 
1 
1 
1 
1 
1 
1 
1 
1 
1 
1 
1 
1 
1 
1 
1 
1 
1 
1 
1 
1 
1 
1 
1 
1 
1 
1 
1 
1 
1 
1 
1 
1 
1 
1 
1 
1 
1 
1 
1 
1 
1 
1 
1 
1 
1 
1 
1 
1 
1 
1 
1 
1 
1 
1 
1 
1 
1 
1 
1 
1 
1 
1 
1 
1 
1 
1 
1 
1 
1 
1 
1 
1 
1 
1 
1 
1 
1 
1 
1 
1 
1 
1 
1 
1 
1 
1 
1 
1 
1 
1 
1 
1 
1 
1 
1 
1 
1 
1 
1 
1 
1 
1 
1 
1 
1 
1 
1 
1 
1 
1 
1 
1 
1 
1 
1 
1 
1 
1 
1 
1 
1 
1 
1 
1 
1 
1 
1 
1 
1 
1 
1 
1 
1 
1 
1 
1 
1 
1 
1 
1 
1 
1 
1 
1 
1 
1 
1 
1 
1 
1 
1 
1 
1 
1 
1 
1 
1 
1 
1 
1 
1 
1 
1 
1 
1 
1 
1 
1 
1 
1 
1 
1 
1 
1 
1 
1 
1 
1 
1 
1 
1 
1 
1 
1 
1 
1 
1 
1 
1 
1 
1 
1 
1 
1 
1 
1 
1 
1 
1 
1 
1 
1 
1 
1 
1 
1 
1 
1 
1 
1 
1 
1 
1 
1 
1 
1 
1 
1 
1 
1 
1 
1 
1 
1 
1 
1 
1 
1 
1 
1 
1 
1 
1 
1 
1 
1 
1 
1 
1 
1 
1 
1 
1 
1 
1 
1 
1 
1 
1 
1 
1 
1 
1 
1 
1 
1 
1 
1 
1 
1 
1 
1 
1 
1 
1 
1 
1 
1 
1 
1 
1 
1 
1 
1 
1 
1 
1 
1 
1 
1 
1 
1 
1 
1 
1 
1 
1 
1 
1 
1 
1 
1 
1 
1 
1 
1 
1 
1 
1 
1 
1 
1 
1 
1 
1 
1 
1 
1 
1 
1 
1 
1 
1 
1 
1 
1 
1 
1 
1 
1 
1 
1 
1 
1 
1 
1 
1 
1 
1 
1 
1 
1 
1 
1 
1 
1 
1 
1 
1 
1 
1 
1 
1 
1 
1 
1 
1 
1 
1 
1 
1 
1 
1 
1 
1 
1 
1 
1 
1 
1 
1 
1 
1 
1 
1 
1 
1 
1 
1 
1 
1 
1 
1 
1 
1 
1 
1 
1 
1 
1 
1 
1 
1 
1 
1 
1 
1 
1 
1 
1 
1 
1 
1 
1 
1 
1 
1 
1 
1 
1 
1 
1 
1 
1 
1 
1 
1 
1 
1 
1 
1 
1 
1 
1 
1 
1 
1 
1 
1 
1 
1 
1 
1 
1 
1 
1 
1 
1 
1 
1 
1 
1 
1 
1 
1 
1 
1 
1 
1 
1 
1 
1 
1 
1 
1 
1 
1 
1 
1 
1 
1 
1 
1 
1 
1 
1 
1 
1 
1 
1 
1 
1 
1 
1 
1 
1 
1 
1 
1 
1 
1 
1 
1 
1 
1 
1 
1 
1 
1 
1 
1 
1 
1 
1 
1 
1 
1 
1 
1 
1 
1 
1 
1 
1 
1 
1 
1 
1 
1 
1 
1 
1 
1 
1 
1 
1 
1 
1 
1 
1 
1 
1 
1 
1 
1 
1 
1 
1 
1 
1 
1 
1 
1 
1 
1 
1 
1 
1 
1 
1 
1 
1 
1 
1 
1 
1 
1 
1 
1 
1 
1 
1 
1 
1 
1 
1 
1 
1 
1 
1 
1 
1 
1 
1 
1 
1 
1 
1 
1 
1 
1 
1 
1 
1 
1 
1 
1 
1 
1 
1 
1 
1 
1 
1 
1 
1 
1 
1 
1 
1 
1 
1 
1 
1 
1 
1 
1 
1 
1 
1 
1 
1 
1 
1 
1 
1 
1 
1 
1 
1 
1 
1 
1 
1 
1 
1 
1 
1 
1 
1 
1 
1 
1 
1 
1 
1 
1 
1 
1 
1 
1 
1 
1 
1 
1 
1 
1 
1 
1 
1 
1 
1 
1 
1 
1 
1 
1 
1 
1 
1 
1 
1 
1 
1 
1 
1 
1 
1 
1 
1 
1 
1 
1 
1 
1 
1 
1 
1 
1 
1 
1 
1 
1 
1 
1 
1 
1 
1 
1 
1 
1 
1 
1 
1 
1 
1 
1 
1 
1 
1 
1 
1 
1 
1 
1 
1 
1 
1 
1 
1 
1 
1 
1 
1 
1 
1 
1 
1 
1 
1 
1 
1 
1 
1 
1 
1 
1 
1 
1 
1 
1 
1 
1 
1 
1 
1 
1 
1 
1 
1 
1 
1 
1 
1 
1 
1 
1 
1 
1 
1 
1 
1 
1 
1 
1 
1 
1 
1 
1 
1 
1 
1 
1 
1 
1 
1 
1 
1 
1 
1 
1 
1 
1 
1 
1 
1 
1 
1 
1 
1 
1 
1 
1 
1 
1 
1 
1 
1 
1 
1 
1 
1 
1 
1 
1 
1 
1 
1 
1 
1 
1 
1 
1 
1 
1 
1 
1 
1 
1 
1 
1 
1 
1 
1 
1 
1 
1 
1 
1 
1 
1 
1 
1 
1 
1 
1 
1 
1 
1 
1 
1 
1 
1 
1 
1 
1 
1 
1 
1 
1 
1 
1 
1 
1 
1 
1 
1 
1 
1 
1 
1 
1 
1 
1 
1 
1 
1 
1 
1 
1 
1 
1 
1 
1 
1 
1 
1 
1 
1 
1 
1 
1 
1 
1 
1 
1 
1 
1 
1 
1 
1 
1 
1 
1 
1 
1 
1 
1 
1 
1 
1 
1 
1 
1 
1 
1 
1 
1 
1 
1 
1 
1 
1 
1 
1 
1 
1 
1 
1 
1 
1 
1 
1 
1 
1 
1 
1 
1 
1 
1 
1 
1 
1 
1 
1 
1 
1 
1 
1 
1 
1 
1 
1 
1 
1 
1 
1 
1 
1 
1 
1 
1 
1 
1 
1 
1 
1 
1 
1 
1 
1 
1 
1 
1 
1 
1 
1 
1 
1 
1 
1 
1 
1 
1 
1 
1 
1 
1 
1 
1 
1 
1 
1 
1 
1 
1 
1 
1 
1 
1 
1 
1 
1 
1 
1 
1 
1 
1 
1 
1 
1 
1 
1 
1 
1 
1 
1 
POINT_DATA 5000
VECTORS Stress float
-442.152 -1430.99 0.
-295.356 -1404.19 0.
-315.342 -1450.81 0.
-23.2503 -1353.3 0.
-17.4655 -1339.8 0.
-11.6808 -1326.3 0.
-111.032 -1371.64 0.
-122.6 -1398.62 0.
-134.167 -1425.61 0.
-111.503 -1392.83 0.
-86.5712 -1334.65 0.
-61.6395 -1276.48 0.
-89.3439 -1224.93 0.
-54.927 -1144.63 0.
-108.691 -1110.89 0.
-120.046 -1137.41 0.
-131.401 -1163.93 0.
-376.249 -1301.8 0.
-406.07 -1371.39 0.
-435.89 -1440.97 0.
-354.279 -1414.21 0.
-337.076 -1374.1 0.
-319.874 -1333.98 0.
75.6628 -1136.83 0.
89.508 -1104.54 0.
-101.702 -1160.13 0.
1.93218 -1159.89 0.
-21.6954 -1215.03 0.
-319.078 -1385.43 0.
-337.085 -1427.46 0.
-355.092 -1469.49 0.
-269.016 -1456.34 0.
-274.472 -1469.06 0.
-279.928 -1481.79 0.
-396.677 -1547.15 0.
-406.023 -1568.96 0.
-415.369 -1590.78 0.
-546.155 -1663.18 0.
-554.599 -1682.88 0.
-538.572 -1686.82 0.
-519.601 -1642.55 0.
-500.629 -1598.28 0.
-415.463 -1536.23 0.
-413.413 -1531.46 0.
-411.363 -1526.68 0.
-141.072 -1395.24 0.
-127.644 -1363.91 0.
-114.216 -1332.58 0.
-25.8499 -1309.75 0.
-39.9041 -1342.57 0.
247.764 -1246.18 0.
-116.553 -1422.16 0.
-126.939 -1446.41 0.
-409.751 -1592.1 0.
-431.228 -1642.22 0.
-452.705 -1692.34 0.
-809.789 -1856.32 0.
-796.419 -1825.1 0.
-783.049 -1793.89 0.
-494.825 -1634.93 0.
-473.44 -1585.02 0.
-452.055 -1535.11 0.
-272.532 -1450.67 0.
-270.7 -1446.41 0.
-183.789 -1406.24 0.
-184.364 -1407.57 0.
-184.94 -1408.91 0.
-285.589 -1463.09 0.
-301.928 -1501.2 0.
-318.267 -1539.31 0.
-538.493 -1614.47 0.
-507.927 -1543.15 0.
-477.362 -1471.83 0.
-108.631 -1246.17 0.
-71.8978 -1160.46 0.
-22.7483 -1071.42 0.
66.4756 -1133.62 0.
13.7459 -1256.66 0.
-452.608 -1528.38 0.
-441.789 -1503.11 0.
-430.969 -1477.85 0.
-441.932 -1440.34 0.
-406.336 -1357.27 0.
-370.741 -1274.2 0.
-198.389 -1181.12 0.
-200.34 -1185.67 0.
-202.29 -1190.22 0.
10.4556 -1148.36 0.
-18.1918 -1215.21 0.
-146.32 -1323.6 0.
-169.448 -1377.57 0.
-192.575 -1431.53 0.
40.9925 -1359.6 0.
41.5321 -1358.33 0.
42.0717 -1357.06 0.
-25.5641 -1366.44 0.
-7.883 -1325.19 0.
9.79814 -1283.93 0.
170.535 -1180.43 0.
188.971 -1137.43 0.
-456.871 -1405.86 0.
-243.859 -1350.69 0.
-263.857 -1397.3 0.
-65.741 -1340.1 0.
-59.9581 -1326.6 0.
-54.1751 -1313.09 0.
-94.5583 -1333.16 0.
-106.128 -1360.15 0.
-117.698 -1387.13 0.
-93.0873 -1353.51 0.
-68.1559 -1295.33 0.
-43.2245 -1237.15 0.
-62.0529 -1181.81 0.
-27.632 -1101.51 0.
-131.843 -1089.36 0.
-143.182 -1115.9 0.
-154.52 -1142.44 0.
-266.752 -1223.45 0.
-296.573 -1293.04 0.
-326.393 -1362.63 0.
-224.133 -1326.99 0.
-206.914 -1286.89 0.
-189.694 -1246.79 0.
-2.30578 -1138.77 0.
11.5476 -1106.5 0.
-148.776 -1148.88 0.
-11.3923 -1134.17 0.
-35.012 -1189.31 0.
-323.768 -1355.99 0.
-341.769 -1398.03 0.
-359.77 -1440.07 0.
-261.787 -1421.81 0.
-267.246 -1434.54 0.
-272.705 -1447.26 0.
-377.073 -1507.32 0.
-386.414 -1529.15 0.
-395.755 -1550.97 0.
-617.582 -1662.36 0.
-626.026 -1682.05 0.
-396.132 -1594.37 0.
-377.16 -1550.09 0.
-358.189 -1505.82 0.
-412.443 -1503.51 0.
-410.389 -1498.74 0.
-408.334 -1493.96 0.
-136.228 -1361.75 0.
-122.798 -1330.41 0.
-109.368 -1299.08 0.
13.0658 -1261.64 0.
-0.972524 -1294.48 0.
-254.436 -1429.99 0.
-134.323 -1398.32 0.
-144.695 -1422.57 0.
-399.759 -1556.4 0.
-421.229 -1606.52 0.
-442.699 -1656.63 0.
-724.015 -1788.15 0.
-710.657 -1756.92 0.
-697.299 -1725.69 0.
-424.988 -1573.59 0.
-403.607 -1523.68 0.
-382.225 -1473.76 0.
-307.735 -1434.31 0.
-305.89 -1430.06 0.
-211.522 -1386.71 0.
-212.106 -1388.03 0.
-212.69 -1389.36 0.
-319.982 -1446.42 0.
-336.33 -1484.51 0.
-352.678 -1522.6 0.
-480.777 -1558.32 0.
-450.212 -1486.99 0.
-419.647 -1415.66 0.
-101.96 -1211.89 0.
-65.2247 -1126.19 0.
-85.4267 -1066.82 0.
-27.2692 -1142.33 0.
-79.9897 -1265.35 0.
-316.332 -1438.57 0.
-305.52 -1413.3 0.
-294.707 -1388.03 0.
-385.823 -1384.9 0.
-350.234 -1301.82 0.
-314.645 -1218.75 0.
-170.731 -1137.86 0.
-172.682 -1142.41 0.
-174.633 -1146.97 0.
-15.9098 -1128.23 0.
-44.5542 -1195.07 0.
-110.994 -1277.04 0.
-134.125 -1331 0.
-157.255 -1384.96 0.
71.4161 -1315.14 0.
71.9516 -1313.87 0.
72.4871 -1312.59 0.
-81.3944 -1358.94 0.
-63.7118 -1317.69 0.
-46.0292 -1276.44 0.
182.511 -1143.88 0.
200.954 -1100.89 0.
-199.221 -744.347 0.
-85.4414 -1047.84 0.
-91.1388 -1061.09 0.
-25.6852 -1134.43 0.
0.527508 -1073.27 0.
20.9183 -1025.69 0.
12.6215 -1082.98 0.
65.5723 -959.459 0.
96.4744 -887.384 0.
126.138 -845.782 0.
57.5528 -1005.81 0.
-13.2122 -1170.93 0.
-79.9895 -1244.23 0.
-122.902 -1344.38 0.
-375.674 -1582.93 0.
-321.512 -1456.52 0.
-323.079 -1460.15 0.
-288.412 -1451.04 0.
-217.028 -1284.46 0.
-256.215 -1375.88 0.
-104.814 -1265.04 0.
-146.538 -1362.44 0.
-236.752 -1572.97 0.
-217.253 -1460.62 0.
-230.769 -1492.11 0.
-495.113 -1766.31 0.
-122.811 -1337.37 0.
-81.2584 -1240.47 0.
-311.309 -1286.65 0.
-338.474 -1349.99 0.
-408.903 -1514.28 0.
-290.478 -1471.43 0.
-284.209 -1456.75 0.
-369.229 -1655.08 0.
-437.235 -1653.87 0.
-440.625 -1661.76 0.
-476.849 -1746.26 0.
-686.02 -1654.66 0.
-697.696 -1681.96 0.
-313.615 -1641.54 0.
-301.094 -1612.41 0.
-297.931 -1605.12 0.
-460.369 -1589.78 0.
-375.765 -1392.37 0.
-362.206 -1360.72 0.
-130.778 -1326.7 0.
-167.727 -1413.06 0.
-233.541 -1566.76 0.
61.4289 -1191.39 0.
88.9357 -1127.12 0.
-706.487 -1682.94 0.
-105.224 -1265.74 0.
-61.2902 -1163.23 0.
-321.908 -1362.33 0.
-307.461 -1328.61 0.
-374.773 -1485.66 0.
-528.786 -1464.66 0.
-528.95 -1465.12 0.
-592.237 -1612.86 0.
-379.031 -1567.9 0.
-393.371 -1601.36 0.
-439.651 -1709.35 0.
-417.502 -1592.17 0.
-402.623 -1557.32 0.
-332.67 -1585.33 0.
-311.108 -1535.07 0.
-322.58 -1561.9 0.
-460.098 -1676.39 0.
-311.691 -1330.15 0.
-332.727 -1379.27 0.
-355.348 -1344.1 0.
-305.282 -1227.35 0.
-326.729 -1277.47 0.
-127.033 -1251.74 0.
-175.957 -1365.8 0.
-499.51 -1816.79 0.
-221.124 -1384.98 0.
-130.048 -1172.62 0.
-144.012 -1264.54 0.
-79.6189 -1114.24 0.
-104.429 -1172.07 0.
-317.675 -1301.19 0.
-334.152 -1339.67 0.
-393.633 -1478.49 0.
-328.651 -1527.79 0.
-297.468 -1455.01 0.
-318.071 -1503.06 0.
-136.167 -1327.44 0.
-59.1153 -1147.61 0.
-25.0268 -1112.38 0.
44.2932 -950.612 0.
111.911 -792.817 0.
324.97 -750.065 0.
278.675 -857.995 0.
198.851 -1044.16 0.
-21.7779 -1082.19 0.
-18.3282 -1074.13 0.
-46.1362 -1139.01 0.
240.169 -1000.84 0.
248.634 -981.094 0.
-184.115 -631.539 0.
73.9289 -615.015 0.
23.1932 -733.371 0.
118.714 -759.055 0.
145.962 -695.481 0.
173.209 -631.906 0.
201.585 -552.062 0.
247.978 -443.824 0.
294.37 -335.587 0.
381.056 -327.177 0.
332.329 -440.892 0.
283.601 -554.608 0.
137.748 -704.652 0.
91.8092 -811.83 0.
-107.452 -974.439 0.
-95.1715 -945.714 0.
-82.8913 -916.99 0.
-41.5936 -862.623 0.
-7.79251 -783.747 0.
26.0086 -704.871 0.
131.128 -668.997 0.
93.7622 -756.179 0.
56.3963 -843.362 0.
83.0918 -862.708 0.
73.2278 -885.733 0.
-75.8056 -968.402 0.
91.6983 -774.239 0.
156.515 -623.013 0.
-2.64797 -608.6 0.
-36.6156 -687.761 0.
-70.5833 -766.921 0.
-39.2303 -793.821 0.
-44.1234 -805.233 0.
-49.0165 -816.645 0.
-112.953 -847.298 0.
-113.339 -848.157 0.
-113.724 -849.016 0.
-358.211 -957.395 0.
-360.364 -962.545 0.
38.4314 -797.499 0.
24.0802 -831.076 0.
9.72897 -864.652 0.
-151.375 -929.949 0.
-115.792 -846.919 0.
-80.2099 -763.889 0.
115.134 -663.742 0.
101.549 -695.519 0.
87.9648 -727.296 0.
320.353 -610.989 0.
335.668 -575.217 0.
-94.6565 -730.433 0.
322.354 -524.258 0.
336.718 -490.677 0.
-31.1622 -628.816 0.
-34.9569 -637.608 0.
-38.7517 -646.399 0.
-252.344 -770.964 0.
-286.125 -849.791 0.
-319.906 -928.618 0.
-78.4213 -861.576 0.
-90.8627 -890.567 0.
-103.304 -919.557 0.
-102.407 -892.422 0.
-85.0882 -851.861 0.
-47.0259 -805.93 0.
-45.8688 -803.204 0.
-44.7118 -800.478 0.
-32.9239 -771.074 0.
3.35674 -686.436 0.
39.6373 -601.799 0.
-49.8364 -601.99 0.
-42.2235 -584.28 0.
-34.6106 -566.57 0.
134.189 -615.121 0.
51.0861 -809.009 0.
100.327 -943.047 0.
94.7986 -796.747 0.
172.876 -614.617 0.
87.8682 -540.378 0.
81.8488 -554.397 0.
75.8295 -568.416 0.
-31.9687 -666.185 0.
-84.171 -788.005 0.
-136.373 -909.826 0.
-47.5076 -898.961 0.
-43.71 -890.114 0.
-39.9124 -881.267 0.
134.574 -715.137 0.
186.848 -593.158 0.
231.252 -479.38 0.
265.593 -399.238 0.
299.935 -319.096 0.
534.052 -220.608 0.
469.092 -372.156 0.
404.131 -523.704 0.
163.332 -701.511 0.
143.472 -747.837 0.
123.613 -794.162 0.
338.08 -749.577 0.
312.466 -809.354 0.
-208.32 -610.457 0.
58.4136 -590.253 0.
7.68505 -708.61 0.
115.033 -729.199 0.
142.28 -665.63 0.
169.526 -602.061 0.
170.849 -533.774 0.
217.234 -425.538 0.
263.618 -317.302 0.
437.565 -271.525 0.
388.843 -385.249 0.
340.12 -498.974 0.
137.68 -673.289 0.
91.7312 -780.454 0.
-81.8454 -932.051 0.
-69.576 -903.313 0.
-57.3066 -874.575 0.
-31.6608 -826.939 0.
2.14277 -748.066 0.
35.9463 -669.193 0.
123.734 -640.737 0.
86.3561 -727.903 0.
48.9786 -815.069 0.
153.62 -801.032 0.
143.771 -824.078 0.
-25.2178 -915.327 0.
75.3285 -749.823 0.
140.127 -598.598 0.
35.9645 -560.662 0.
1.97978 -639.81 0.
-32.005 -718.958 0.
-70.6686 -775.814 0.
-75.5492 -787.244 0.
-80.4297 -798.674 0.
-122.674 -820.063 0.
-123.066 -820.919 0.
-123.459 -821.776 0.
-306.185 -903.622 0.
-308.32 -908.797 0.
43.0928 -764.024 0.
28.7455 -797.594 0.
14.3983 -831.165 0.
-102.771 -877.689 0.
-67.1808 -794.65 0.
-31.5906 -711.61 0.
84.8121 -645.327 0.
71.2071 -677.09 0.
57.6021 -708.853 0.
349.323 -567.153 0.
364.653 -531.388 0.
-346.311 -806.828 0.
473.366 -428.091 0.
487.717 -394.48 0.
-43.592 -602.711 0.
-47.4036 -611.49 0.
-51.2152 -620.268 0.
-261.402 -743.431 0.
-295.209 -822.251 0.
-329.015 -901.071 0.
-64.4928 -824.179 0.
-76.9455 -853.156 0.
-89.3983 -882.133 0.
-67.2773 -845.93 0.
-49.9637 -805.357 0.
-89.8299 -792.912 0.
-88.6975 -790.158 0.
-87.5651 -787.404 0.
31.5744 -712.002 0.
67.8505 -627.352 0.
104.127 -542.702 0.
-48.6995 -570.087 0.
-41.0964 -552.381 0.
-33.4933 -534.676 0.
136.465 -582.716 0.
53.3845 -776.62 0.
167.555 -882.848 0.
189.493 -724.713 0.
267.55 -542.527 0.
8.24207 -543.063 0.
2.23157 -557.09 0.
-3.77892 -571.117 0.
1.11512 -620.631 0.
-51.0913 -742.445 0.
-103.298 -864.259 0.
-16.7226 -854.305 0.
-12.9151 -845.469 0.
-9.10761 -836.633 0.
161.245 -672.334 0.
213.526 -550.372 0.
229.376 -448.742 0.
263.719 -368.605 0.
298.062 -288.468 0.
528.741 -191.401 0.
463.801 -342.969 0.
398.86 -494.536 0.
206.733 -651.485 0.
186.873 -697.81 0.
167.012 -744.135 0.
342.622 -716.176 0.
317.006 -775.962 0.
-619.988 -1565.28 0.
-271.46 -1339.33 0.
-230.551 -1243.94 0.
-24.5404 -1097.96 0.
-38.1323 -1129.68 0.
-51.7243 -1161.41 0.
-127.934 -1236.64 0.
-162.199 -1316.6 0.
-196.463 -1396.57 0.
6.83294 -1268.68 0.
58.318 -1148.62 0.
109.803 -1028.56 0.
-3.32226 -1045.54 0.
8.06784 -1019.09 0.
-147.797 -1071.82 0.
-175.816 -1137.3 0.
-203.836 -1202.79 0.
-224.986 -1270.34 0.
-261.253 -1354.97 0.
-297.52 -1439.59 0.
-201.014 -1355.18 0.
-128.842 -1186.79 0.
-56.6703 -1018.4 0.
111.339 -933.063 0.
98.6366 -962.709 0.
-77.022 -1062.19 0.
-137.711 -1171.37 0.
-181.658 -1273.87 0.
-317.283 -1386.03 0.
-290.549 -1323.6 0.
-263.814 -1261.18 0.
-318.097 -1264.25 0.
-328.073 -1287.55 0.
-338.049 -1310.85 0.
-317.757 -1360.36 0.
-358.685 -1455.9 0.
-399.613 -1551.44 0.
-643.727 -1631.8 0.
-623.915 -1585.57 0.
-256.381 -1392.56 0.
-240.417 -1355.27 0.
-224.453 -1317.99 0.
-248.263 -1334.11 0.
-291.252 -1434.44 0.
-334.242 -1534.77 0.
-264.982 -1477.62 0.
-203.28 -1333.62 0.
-141.578 -1189.62 0.
108.305 -1072.5 0.
97.182 -1098.38 0.
-640.205 -1435.71 0.
242.975 -1122.57 0.
208.671 -1202.65 0.
-442.181 -1532.55 0.
-444.477 -1537.99 0.
-446.773 -1543.43 0.
-627.072 -1609.24 0.
-611.204 -1572.2 0.
-595.335 -1535.16 0.
-325.361 -1423.15 0.
-335.65 -1447.26 0.
-345.939 -1471.36 0.
-351.765 -1483.64 0.
-356.821 -1495.35 0.
-372.025 -1497.78 0.
-314.155 -1362.74 0.
-256.285 -1227.7 0.
-155.028 -1120.98 0.
-170.872 -1157.83 0.
-186.716 -1194.69 0.
-390.243 -1332.73 0.
-425.47 -1414.95 0.
-460.698 -1497.17 0.
-211.464 -1302.95 0.
-143.276 -1143.93 0.
169.089 -883.07 0.
77.6279 -1023.61 0.
24.4292 -1147.74 0.
-378.997 -1410.58 0.
-407.7 -1477.52 0.
-436.403 -1544.46 0.
-365.821 -1481.99 0.
-294.653 -1315.93 0.
-223.484 -1149.87 0.
-93.8766 -1047.69 0.
-91.3171 -1041.64 0.
-88.7575 -1035.58 0.
-2.42252 -1064.34 0.
-41.0905 -1154.49 0.
-112.997 -1260.46 0.
-155.129 -1358.69 0.
-197.261 -1456.93 0.
21.4152 -1376.2 0.
79.3645 -1241.03 0.
137.314 -1105.87 0.
31.351 -1105.38 0.
30.7286 -1106.83 0.
30.1061 -1108.28 0.
215.44 -1015.48 0.
224.451 -994.497 0.
-570.312 -1512.59 0.
-244.424 -1296.3 0.
-203.531 -1200.89 0.
57.0786 -1031.59 0.
43.4768 -1063.31 0.
29.875 -1095.03 0.
-58.6919 -1175.57 0.
-92.961 -1255.54 0.
-127.23 -1335.5 0.
-24.7761 -1250.77 0.
26.6986 -1130.72 0.
78.1733 -1010.67 0.
75.1375 -980.52 0.
86.5065 -954.051 0.
-155.151 -1043.61 0.
-183.176 -1109.08 0.
-211.201 -1174.55 0.
-209.864 -1232.43 0.
-246.115 -1317.06 0.
-282.365 -1401.7 0.
-205.784 -1325.76 0.
-133.615 -1157.37 0.
-61.4452 -988.986 0.
109.09 -902.582 0.
96.3935 -932.234 0.
-55.6194 -1021.59 0.
-167.839 -1152.8 0.
-211.779 -1255.3 0.
-321.391 -1356.3 0.
-294.65 -1293.89 0.
-267.908 -1231.47 0.
-346.981 -1245.18 0.
-356.958 -1268.48 0.
-366.935 -1291.78 0.
-185.613 -1272.28 0.
-226.547 -1367.81 0.
-267.481 -1463.35 0.
-724.722 -1635 0.
-704.917 -1588.77 0.
-301.381 -1380.42 0.
-285.417 -1343.13 0.
-269.453 -1305.85 0.
-141.643 -1256.9 0.
-184.654 -1357.24 0.
-227.665 -1457.58 0.
-185.158 -1412.05 0.
-123.453 -1268.03 0.
-61.7483 -1124.01 0.
52.1913 -1065.11 0.
41.0848 -1091.02 0.
-213.322 -1221.24 0.
290.412 -1070.78 0.
256.115 -1150.88 0.
-397.036 -1481.8 0.
-399.337 -1487.24 0.
-401.638 -1492.67 0.
-572.003 -1554.17 0.
-556.107 -1517.15 0.
-540.212 -1480.14 0.
-316.085 -1387.69 0.
-326.375 -1411.79 0.
-336.664 -1435.89 0.
-381.129 -1464.74 0.
-386.16 -1476.47 0.
-247.709 -1413.07 0.
-189.835 -1278.01 0.
-131.96 -1142.95 0.
-213.786 -1114.76 0.
-229.613 -1151.64 0.
-245.44 -1188.51 0.
-394.587 -1303.12 0.
-429.834 -1385.33 0.
-465.082 -1467.54 0.
-276.762 -1299.49 0.
-208.597 -1140.49 0.
160.028 -855.484 0.
56.3309 -1001.24 0.
3.11487 -1125.36 0.
-304.628 -1347.28 0.
-333.336 -1414.22 0.
-362.045 -1481.16 0.
-360.517 -1448.33 0.
-289.364 -1282.25 0.
-218.212 -1116.18 0.
-77.91 -1009.43 0.
-75.3523 -1003.39 0.
-72.7946 -997.344 0.
14.6351 -1025.66 0.
-24.027 -1115.82 0.
-65.1489 -1208.52 0.
-107.288 -1306.75 0.
-149.426 -1404.98 0.
60.2386 -1328.18 0.
118.191 -1193.02 0.
176.143 -1057.85 0.
67.9136 -1058.25 0.
67.2949 -1059.71 0.
66.6762 -1061.16 0.
246.418 -970.756 0.
255.445 -949.802 0.
-205.646 -722.212 0.
-15.4773 -782.015 0.
-45.0987 -851.139 0.
177.521 -874.247 0.
228.342 -755.636 0.
215.471 -785.636 0.
81.4348 -948.939 0.
125.798 -845.429 0.
117.694 -864.341 0.
340.144 -307.658 0.
335.299 -318.939 0.
190.373 -657.074 0.
213.617 -775.498 0.
168.307 -881.305 0.
-238.795 -1193.93 0.
-132.466 -945.779 0.
-119.687 -915.908 0.
-84.8771 -938.489 0.
-11.6552 -767.644 0.
-22.2892 -792.462 0.
-24.5274 -862.216 0.
-54.2765 -931.615 0.
-83.6335 -1000.1 0.
67.709 -963.407 0.
24.3628 -1064.51 0.
-119.033 -1179.02 0.
1.59508 -668.989 0.
141.007 -343.766 0.
170.189 -170.552 0.
101.962 -329.676 0.
-19.2575 -612.449 0.
-322.852 -1102.77 0.
-235.329 -898.529 0.
-269.486 -978.206 0.
173.746 -653.439 0.
-49.9265 -1175.33 0.
-179.064 -1476.64 0.
-650.388 -1275.75 0.
-600.062 -1158.22 0.
-314.492 -1294.05 0.
-299.549 -1259.1 0.
-265.372 -1179.27 0.
112.289 -835.339 0.
66.7823 -941.533 0.
-28.2827 -1163.36 0.
-81.738 -1290.98 0.
-47.257 -1210.7 0.
-167.243 -1490.85 0.
-246.427 -1623.25 0.
-307.425 -1765.49 0.
-208.259 -2012.63 0.
149.462 -1458.78 0.
245.411 -1234.97 0.
-476.69 -1722.36 0.
-329.416 -1378.61 0.
-345.862 -1416.88 0.
-450.94 -1344.97 0.
-341.963 -1090.6 0.
-257.692 -893.876 0.
-153.306 -993.906 0.
-97.557 -863.834 0.
-307.372 -1353.41 0.
-283.036 -1148.22 0.
-258.466 -1090.91 0.
-133.203 -1350.86 0.
-48.5055 -1153.19 0.
87.6317 -835.502 0.
-242.165 -1038.7 0.
-376.1 -1351.16 0.
-290.876 -1152.25 0.
-6.02654 -356.902 0.
128.409 -43.2498 0.
145.373 -3.69933 0.
-218.493 -1008.97 0.
-358.249 -1334.89 0.
-102.637 -1384.75 0.
0.824377 -1058.78 0.
180.225 -640.201 0.
66.3741 -591.434 0.
107.412 -495.648 0.
18.2917 -703.564 0.
-70.5524 -750.43 0.
-101.608 -822.92 0.
-262.826 -1199.12 0.
-143.247 -1161.19 0.
-82.7035 -1019.99 0.
-174.903 -1235.19 0.
-60.74 -1202.98 0.
172.126 -659.55 0.
382.351 -223.823 0.
282.394 -457.123 0.
182.952 -689.221 0.
543.788 -242.493 0.
376.161 -633.638 0.
421.686 -527.424 0.
193.628 -803.167 0.
196.018 -797.586 0.
186.148 -820.61 0.
373.289 -702.058 0.
383.515 -678.107 0.
-227.176 -612.105 0.
48.3775 -562.842 0.
11.0944 -649.859 0.
300.958 -579.754 0.
308.514 -562.099 0.
316.071 -544.444 0.
260.687 -542.681 0.
281.478 -494.182 0.
302.269 -445.682 0.
269.296 -492.83 0.
231.54 -580.908 0.
193.785 -668.986 0.
263.984 -661.286 0.
255.754 -680.524 0.
-19.8446 -806.154 0.
14.7836 -725.342 0.
49.4118 -644.529 0.
91.4786 -569.522 0.
111.165 -523.59 0.
130.852 -477.658 0.
44.4917 -569.19 0.
-24.8492 -730.962 0.
-94.1902 -892.735 0.
121.096 -774.055 0.
159.826 -683.642 0.
127.779 -623.564 0.
19.0152 -653.64 0.
27.33 -634.298 0.
31.7099 -628.222 0.
14.0602 -669.313 0.
-3.58958 -710.403 0.
-185.187 -806.669 0.
-184.476 -804.985 0.
-183.766 -803.301 0.
106.717 -625.454 0.
148.61 -527.663 0.
190.503 -429.872 0.
-495.756 -795.639 0.
-543.827 -907.762 0.
-98.3307 -793.134 0.
-76.2105 -741.489 0.
-54.0904 -689.843 0.
210.519 -570.448 0.
176.211 -650.529 0.
141.903 -730.61 0.
111.861 -837.031 0.
50.0168 -981.392 0.
-11.8275 -1125.75 0.
0.450561 -1155.37 0.
-5.26683 -1168.67 0.
-310.992 -1310.69 0.
383.114 -976.655 0.
402.335 -931.872 0.
-201.902 -1139.34 0.
-146.81 -1010.82 0.
-91.7177 -882.296 0.
-275.534 -861.558 0.
-226.368 -746.8 0.
-177.201 -632.042 0.
2.67291 -573.821 0.
-36.2088 -664.563 0.
-75.0904 -755.306 0.
-109.674 -708.806 0.
-69.1962 -614.305 0.
165.922 -463.394 0.
86.6342 -648.405 0.
7.34605 -833.416 0.
-203.966 -994.08 0.
-157.558 -885.827 0.
-111.15 -777.575 0.
-87.6285 -669.574 0.
-32.2427 -540.408 0.
23.1431 -411.242 0.
7.52731 -502.256 0.
-64.7155 -670.761 0.
188.477 -698.042 0.
180.237 -656.669 0.
203.818 -601.66 0.
20.4082 -628.615 0.
60.3536 -535.48 0.
100.299 -442.345 0.
73.0011 -473.859 0.
2.96964 -637.263 0.
-67.0618 -800.668 0.
12.5903 -813.846 0.
9.09536 -822.05 0.
5.60047 -830.253 0.
118.077 -733.206 0.
147.098 -665.447 0.
289.124 -543.013 0.
341.312 -421.283 0.
393.5 -299.553 0.
588.399 -188.393 0.
533.884 -315.564 0.
479.37 -442.735 0.
322.141 -558.246 0.
318.858 -565.904 0.
315.576 -573.563 0.
406.685 -541.43 0.
402.959 -549.997 0.
-294.826 -609.611 0.
28.0403 -540.117 0.
-9.23473 -627.13 0.
314.084 -542.654 0.
321.643 -525 0.
329.201 -507.347 0.
283.524 -501.392 0.
304.314 -452.893 0.
325.103 -404.394 0.
296.251 -449.853 0.
258.49 -537.94 0.
220.73 -626.027 0.
282.324 -621.951 0.
274.083 -641.181 0.
61.3734 -739.87 0.
96.0047 -659.049 0.
130.636 -578.228 0.
130.276 -521.435 0.
149.966 -475.511 0.
169.655 -429.587 0.
-8.27494 -560.391 0.
-77.6148 -722.15 0.
-146.955 -883.909 0.
103.483 -750.187 0.
142.213 -659.784 0.
100.656 -603.793 0.
48.8245 -609.451 0.
57.1205 -590.106 0.
118.843 -559.464 0.
101.181 -600.547 0.
83.5182 -641.631 0.
-155.48 -762.544 0.
-154.773 -760.838 0.
-154.066 -759.132 0.
26.3769 -628.45 0.
68.2809 -530.664 0.
110.185 -432.877 0.
-541.92 -784.027 0.
-589.971 -896.143 0.
-79.9206 -753.679 0.
-57.7917 -702.041 0.
-35.6628 -650.404 0.
208.392 -539.895 0.
174.069 -619.955 0.
139.747 -700.016 0.
127.214 -798.871 0.
65.3471 -943.204 0.
3.48067 -1087.54 0.
73.8506 -1092.43 0.
68.1378 -1105.77 0.
-722.786 -1455.65 0.
432.671 -923.932 0.
451.905 -879.156 0.
-154.714 -1087.52 0.
-99.5978 -959.023 0.
-44.4818 -830.522 0.
-297.908 -839.608 0.
-248.728 -724.884 0.
-199.549 -610.16 0.
-10.2008 -547.748 0.
-49.0704 -638.509 0.
-87.9399 -729.27 0.
-111.563 -678.21 0.
-71.1028 -583.723 0.
82.9511 -467.525 0.
3.67587 -652.498 0.
-75.5994 -837.472 0.
-164.099 -945.631 0.
-117.665 -837.416 0.
-71.2314 -729.202 0.
-6.98265 -603.596 0.
48.4085 -474.428 0.
103.8 -345.261 0.
34.9044 -459.046 0.
-37.3039 -627.595 0.
200.569 -661.524 0.
205.29 -614.575 0.
228.86 -559.55 0.
0.209588 -605.778 0.
40.1753 -512.654 0.
80.141 -419.53 0.
120.151 -422.173 0.
50.1106 -585.583 0.
-19.9301 -748.994 0.
37.6593 -771.67 0.
34.157 -779.863 0.
30.6546 -788.056 0.
107.063 -706.518 0.
136.093 -638.771 0.
358.992 -481.636 0.
411.176 -359.897 0.
463.36 -238.158 0.
631.181 -138.555 0.
576.654 -265.715 0.
522.126 -392.876 0.
367.487 -507.381 0.
364.207 -515.038 0.
360.926 -522.695 0.
379.768 -521.533 0.
376.024 -530.106 0.
-692.483 -1502.88 0.
-253.36 -1229.26 0.
-207.01 -1121.09 0.
167.28 -895.671 0.
153.459 -927.983 0.
139.639 -960.295 0.
64.0507 -1039.47 0.
24.9873 -1130.67 0.
-14.076 -1221.86 0.
-71.6413 -1236.43 0.
-42.6845 -1168.89 0.
-13.7276 -1101.34 0.
105.274 -1035.41 0.
109.941 -1024.5 0.
-84.7022 -1103.61 0.
-101.259 -1142.23 0.
-117.816 -1180.85 0.
-166.627 -1217.89 0.
-157.947 -1197.68 0.
-149.267 -1177.46 0.
-308.144 -1216.93 0.
-287.523 -1168.83 0.
-266.902 -1120.73 0.
-15.2574 -1023.54 0.
-28.3252 -1054.04 0.
-105.302 -1111.92 0.
-202.804 -1156.68 0.
-204.856 -1161.36 0.
-117.178 -1114.02 0.
-86.4832 -1042.64 0.
-55.7886 -971.248 0.
-231.934 -1037.66 0.
-260.264 -1103.85 0.
-288.595 -1170.04 0.
-224.402 -1198.99 0.
-254.429 -1269.11 0.
-284.456 -1339.22 0.
-868.061 -1568.65 0.
-852.124 -1531.4 0.
-295.632 -1272.07 0.
-326.023 -1343.03 0.
-356.414 -1414 0.
-207.494 -1352.63 0.
-150.686 -1220.07 0.
-93.8785 -1087.52 0.
57.3614 -983.993 0.
48.4528 -1004.84 0.
39.5443 -1025.69 0.
187.795 -940.187 0.
205.165 -899.627 0.
-467.663 -1154.89 0.
435.917 -825.979 0.
405.158 -897.507 0.
-212.588 -1201.31 0.
-198.423 -1168.03 0.
-184.258 -1134.76 0.
-510.24 -1321.92 0.
-583.846 -1493.74 0.
-657.452 -1665.56 0.
-468.27 -1572.96 0.
-422.66 -1466.58 0.
-377.051 -1360.2 0.
-413.438 -1423.32 0.
-446.42 -1500.3 0.
-350.43 -1491.26 0.
-247.658 -1251.47 0.
-144.886 -1011.68 0.
-107.253 -874.292 0.
-120.276 -904.662 0.
-133.3 -935.032 0.
-182.601 -1037.45 0.
-248.919 -1192.1 0.
-315.236 -1346.76 0.
-303.705 -1281.12 0.
-244.239 -1142.41 0.
99.3156 -885.486 0.
5.43042 -1056.65 0.
-63.2813 -1217.02 0.
-377.451 -1448.84 0.
-371.766 -1435.51 0.
-366.082 -1422.19 0.
-272.886 -1335.43 0.
-226.465 -1227.08 0.
-180.043 -1118.73 0.
-84.8761 -1050.87 0.
-85.8631 -1053.16 0.
-86.8501 -1055.44 0.
-49.3757 -1091.57 0.
-80.0344 -1163.05 0.
72.9256 -1161.25 0.
25.6503 -1271.58 0.
-21.6251 -1381.91 0.
132.956 -1326.74 0.
203.429 -1162.31 0.
273.902 -997.881 0.
197.772 -934.197 0.
233.193 -851.552 0.
268.614 -768.908 0.
244.842 -711.591 0.
280.23 -629.202 0.
-631.658 -1445.33 0.
-166.589 -1160.65 0.
-120.241 -1052.45 0.
198.117 -851.104 0.
184.286 -883.409 0.
170.455 -915.714 0.
101.574 -992.001 0.
62.5161 -1083.2 0.
23.4583 -1174.39 0.
-141.279 -1234.86 0.
-112.312 -1167.33 0.
-83.3451 -1099.8 0.
121.284 -997.051 0.
125.955 -986.152 0.
-107.733 -1082.06 0.
-124.283 -1120.67 0.
-140.833 -1159.27 0.
-168.09 -1187.07 0.
-159.41 -1166.86 0.
-150.729 -1146.64 0.
-268.567 -1168.54 0.
-247.949 -1120.44 0.
-227.332 -1072.34 0.
31.0515 -972.265 0.
17.9728 -1002.76 0.
-59.7402 -1060.95 0.
-240.664 -1141.47 0.
-242.731 -1146.14 0.
-165.978 -1103.53 0.
-135.288 -1032.13 0.
-104.599 -960.722 0.
-127.448 -961.425 0.
-155.805 -1027.59 0.
-184.161 -1093.76 0.
-127.28 -1125.97 0.
-157.295 -1196.08 0.
-187.31 -1266.2 0.
-765.153 -1493.1 0.
-749.196 -1455.85 0.
-264.664 -1227.36 0.
-295.067 -1298.3 0.
-325.47 -1369.23 0.
-336.605 -1376.5 0.
-279.826 -1243.94 0.
-223.047 -1111.39 0.
98.5315 -934.974 0.
89.5762 -955.792 0.
80.6208 -976.61 0.
267.85 -874.458 0.
285.183 -833.897 0.
-492.909 -1134.38 0.
325.235 -842.072 0.
294.51 -913.637 0.
-248.411 -1185.11 0.
-234.208 -1151.87 0.
-220.005 -1118.63 0.
-468.684 -1272.59 0.
-542.323 -1444.41 0.
-615.963 -1616.23 0.
-467.631 -1541.25 0.
-422.058 -1434.88 0.
-376.485 -1328.52 0.
-336.213 -1358.82 0.
-369.206 -1435.8 0.
-222.665 -1405.05 0.
-119.873 -1165.24 0.
-17.0804 -925.424 0.
-50.0162 -818.431 0.
-63.0773 -848.804 0.
-76.1384 -879.176 0.
-204.83 -1015.47 0.
-271.133 -1170.14 0.
-337.437 -1324.82 0.
-264.124 -1232.61 0.
-204.657 -1093.89 0.
82.6994 -861.302 0.
-11.7518 -1032.69 0.
-80.4638 -1193.04 0.
-365.028 -1412.09 0.
-359.351 -1398.76 0.
-353.673 -1385.43 0.
-290.367 -1311.5 0.
-243.947 -1203.15 0.
-197.528 -1094.81 0.
-83.5017 -1018.88 0.
-84.4968 -1021.17 0.
-85.4919 -1023.45 0.
15.302 -1032.35 0.
-15.3518 -1103.84 0.
48.8588 -1140.18 0.
1.55479 -1250.48 0.
-45.7492 -1360.78 0.
150.552 -1287.88 0.
221.016 -1123.43 0.
291.48 -958.978 0.
217.971 -894.121 0.
253.383 -811.48 0.
288.794 -728.839 0.
174.226 -710.444 0.
209.591 -628.065 0.
-283.836 -714.913 0.
137.318 -585.389 0.
116.561 -633.751 0.
331.743 -566.767 0.
275.546 -697.872 0.
206.065 -859.976 0.
278.654 -617.966 0.
290.143 -591.078 0.
488.065 -129.191 0.
218.894 -230.733 0.
222.665 -221.961 0.
231.554 -201.246 0.
440.674 -251.579 0.
317.427 -539.159 0.
-72.5207 -925.122 0.
280.709 -101.048 0.
365.136 95.8202 0.
308.155 -42.2589 0.
253.764 -169.276 0.
204.272 -284.863 0.
131.427 -278.871 0.
46.0421 -478.059 0.
-85.1471 -784.124 0.
268.314 -475.079 0.
179.838 -681.574 0.
315.216 -228.215 0.
196.449 -19.7584 0.
172.794 -75.1835 0.
437.437 427.671 0.
272.459 42.8324 0.
130.227 -288.933 0.
163.764 -448.756 0.
162.821 -451.036 0.
175.366 -421.851 0.
184.985 -550.441 0.
112.441 -719.645 0.
40.7485 -886.859 0.
66.4042 283.861 0.
-122.994 -158.279 0.
39.8437 -543.868 0.
-114.658 -904.332 0.
392.523 279.137 0.
281.746 342.826 0.
197.226 145.537 0.
66.3113 -160.007 0.
367.228 -354.871 0.
242.255 -646.286 0.
81.0399 -1022.27 0.
261.265 -1010.03 0.
553.093 -329.142 0.
-20.0455 -493.257 0.
128.502 -1060.01 0.
193.465 -908.35 0.
-190.131 -949.555 0.
61.7189 -361.644 0.
135.464 -189.312 0.
123.615 62.4594 0.
-41.6915 -323.399 0.
264.06 389.879 0.
-286.091 -1087.53 0.
-114.644 -687.572 0.
80.4614 -232.408 0.
187.825 -251.595 0.
-255.009 -1284.85 0.
181.548 -672.923 0.
213.66 -597.954 0.
232.96 -552.877 0.
95.6786 -555.887 0.
162.958 -398.676 0.
217.678 -270.771 0.
177.205 -50.9401 0.
316.18 273.486 0.
383.453 430.611 0.
310.959 65.0012 0.
242.839 -93.7366 0.
-61.9261 -1084.43 0.
103.485 -700.497 0.
433.548 69.651 0.
217.024 -46.2479 0.
39.9109 -459.551 0.
111.364 -292.866 0.
168.853 -176.371 0.
178.483 -153.795 0.
218.141 -61.1553 0.
354.773 32.0626 0.
156.643 -430.182 0.
94.8362 -574.333 0.
400.881 -223.761 0.
428.202 -160.092 0.
199.294 -711.632 0.
354.795 -348.887 0.
690.056 433.286 0.
682.102 -49.3691 0.
497.651 -479.704 0.
492.854 -490.85 0.
342.31 -611.008 0.
354.18 -583.295 0.
340.251 -615.781 0.
150.175 -601.645 0.
196.244 -494.151 0.
-257.606 -589.22 0.
235.644 -396.797 0.
226.059 -419.129 0.
412.265 -377.475 0.
349.953 -522.824 0.
287.641 -668.173 0.
92.5378 -791.674 0.
127.184 -710.725 0.
161.83 -629.776 0.
38.1616 -676.938 0.
24.4693 -708.832 0.
10.777 -740.726 0.
246.702 -653.348 0.
240.284 -668.312 0.
63.5399 -747.322 0.
102.715 -656.008 0.
141.89 -564.694 0.
177.782 -496.304 0.
181.853 -486.811 0.
185.924 -477.318 0.
16.2685 -563.262 0.
-0.616425 -602.623 0.
-17.5013 -641.984 0.
186.172 -568.07 0.
181.739 -578.492 0.
115.721 -615.308 0.
-12.7603 -675.471 0.
-15.4031 -681.815 0.
-31.7499 -702.551 0.
-53.8265 -753.908 0.
-75.903 -805.265 0.
-3.04388 -779.601 0.
18.5434 -729.218 0.
40.1307 -678.835 0.
57.7076 -680.561 0.
38.9759 -724.252 0.
20.2442 -767.943 0.
-465.968 -985.227 0.
-468.037 -990.159 0.
-205.538 -879.575 0.
-194.476 -853.595 0.
-183.414 -827.614 0.
-129.736 -836.55 0.
-202.01 -1005.14 0.
-274.285 -1173.74 0.
98.6936 -1052.34 0.
119.492 -1003.71 0.
140.29 -955.083 0.
177.427 -946.459 0.
166.528 -971.966 0.
252.138 -955.654 0.
270.948 -838.557 0.
328.152 -705.027 0.
-172.433 -872.802 0.
-259.267 -1075.39 0.
-346.102 -1277.98 0.
-501.805 -1336 0.
-383.505 -1059.99 0.
-265.204 -783.981 0.
-139.953 -721.116 0.
-191.487 -841.462 0.
-243.022 -961.807 0.
-74.0365 -819.843 0.
-27.7918 -711.909 0.
193.404 -548.958 0.
148.128 -654.582 0.
102.853 -760.207 0.
-57.4398 -877.404 0.
-43.6914 -845.329 0.
-29.9431 -813.254 0.
-82.2511 -790.358 0.
-50.201 -715.489 0.
-18.151 -640.62 0.
6.48507 -676.354 0.
-34.1831 -771.142 0.
38.2109 -814.85 0.
136.088 -597.859 0.
227.927 -383.457 0.
110.284 -313.878 0.
79.3179 -386.143 0.
48.3518 -458.408 0.
130.275 -491.67 0.
89.3377 -587.165 0.
48.4001 -682.66 0.
78.6493 -744.504 0.
40.0138 -834.588 0.
1.3782 -924.671 0.
108.01 -774.475 0.
172.971 -622.961 0.
307.48 -460.204 0.
294.991 -489.447 0.
282.502 -518.689 0.
457.482 -451.699 0.
468.365 -426.304 0.
479.249 -400.91 0.
392.923 -427.372 0.
394.799 -422.996 0.
396.675 -418.62 0.
251.424 -425.362 0.
288.116 -339.742 0.
-274.981 -565.273 0.
273.572 -349.136 0.
263.999 -371.478 0.
428.031 -339.281 0.
365.709 -484.626 0.
303.388 -629.97 0.
-27.746 -811.745 0.
6.89178 -730.803 0.
41.5296 -649.862 0.
67.5337 -633.022 0.
53.8266 -664.909 0.
40.1195 -696.795 0.
236.474 -626.207 0.
230.061 -641.163 0.
153.408 -677.432 0.
192.599 -586.104 0.
231.791 -494.777 0.
272.985 -423.996 0.
277.037 -414.474 0.
281.088 -404.951 0.
40.919 -521.282 0.
24.0212 -560.638 0.
7.12337 -599.994 0.
150.855 -551.802 0.
146.425 -562.235 0.
76.5586 -600.711 0.
91.7943 -599.224 0.
89.144 -605.559 0.
3.35669 -656.111 0.
-18.7151 -707.474 0.
-40.7869 -758.837 0.
-17.2932 -754.236 0.
4.26252 -703.837 0.
25.8182 -653.438 0.
-13.3134 -679.564 0.
-32.048 -723.262 0.
-50.7825 -766.959 0.
-435.572 -940.735 0.
-437.64 -945.649 0.
-313.466 -894.306 0.
-302.437 -868.294 0.
-291.407 -842.282 0.
1.77547 -748.926 0.
-70.5516 -917.519 0.
-142.879 -1086.11 0.
152.301 -997.86 0.
173.129 -949.259 0.
193.957 -900.659 0.
57.7917 -966.398 0.
46.9121 -991.907 0.
414.856 -854.464 0.
345.463 -774.982 0.
402.71 -641.449 0.
-174.446 -842.162 0.
-261.257 -1044.75 0.
-348.069 -1247.33 0.
-517.313 -1311.3 0.
-399.066 -1035.28 0.
-280.818 -759.261 0.
-136.757 -688.237 0.
-188.344 -808.563 0.
-239.932 -928.889 0.
-80.0376 -790.943 0.
-33.7681 -683.048 0.
159.295 -532.095 0.
114.018 -637.713 0.
68.7404 -743.331 0.
-59.6846 -846.975 0.
-45.92 -814.94 0.
-32.1555 -782.905 0.
4.59388 -721.641 0.
36.6739 -646.784 0.
68.754 -571.927 0.
39.353 -630.783 0.
-1.31407 -725.567 0.
27.051 -788.29 0.
138.596 -565.42 0.
230.405 -351.009 0.
136.478 -271.273 0.
105.523 -343.545 0.
74.5669 -415.818 0.
265.142 -402.225 0.
224.221 -497.75 0.
183.301 -593.275 0.
164.608 -676.284 0.
125.966 -766.377 0.
87.3243 -856.47 0.
54.873 -765.815 0.
119.833 -614.306 0.
324.556 -421.525 0.
312.052 -450.755 0.
299.549 -479.985 0.
410.083 -440.502 0.
420.985 -415.118 0.
431.887 -389.734 0.
375.047 -403.545 0.
376.924 -399.182 0.
378.801 -394.819 0.
299.422 -373.334 0.
336.107 -287.721 0.
-503.58 -1108.85 0.
65.1409 -857.585 0.
71.5404 -842.626 0.
225.879 -747.612 0.
276.356 -629.946 0.
326.833 -512.281 0.
4.64524 -619.114 0.
-25.2205 -688.834 0.
-55.0863 -758.554 0.
-3.19943 -777.642 0.
-20.622 -818.403 0.
-38.0445 -859.165 0.
152.7 -803.008 0.
139.911 -832.821 0.
88.1157 -884.525 0.
49.1228 -975.382 0.
10.13 -1066.24 0.
-44.5563 -1143.86 0.
-51.0401 -1159.02 0.
-57.524 -1174.17 0.
-251.657 -1218.22 0.
-207.795 -1115.86 0.
-163.932 -1013.49 0.
-24.6174 -950.633 0.
-35.3112 -975.546 0.
-109.173 -1027.53 0.
-29.4029 -1005.61 0.
-36.0135 -1020.97 0.
-159.185 -1074.38 0.
-137.399 -1023.59 0.
-115.613 -972.797 0.
-119.827 -981.366 0.
-155.839 -1065.43 0.
-191.85 -1149.5 0.
-264.842 -1213.86 0.
-272.163 -1231 0.
-279.485 -1248.15 0.
-574.145 -1351.12 0.
-559.915 -1318.05 0.
-502.653 -1273.52 0.
-524.313 -1324.44 0.
-545.973 -1375.37 0.
-199.232 -1229.56 0.
-160.718 -1139.74 0.
-122.204 -1049.92 0.
179.426 -906.405 0.
162.855 -945.253 0.
146.284 -984.1 0.
-26.3358 -1029.03 0.
-2.06932 -972.32 0.
206.993 -837.059 0.
287.554 -895.608 0.
238.835 -1009.26 0.
-371.812 -1317.05 0.
-312.78 -1179.3 0.
-253.748 -1041.56 0.
-448.738 -1127.43 0.
-524.963 -1305.25 0.
-601.188 -1483.07 0.
-451.716 -1416.57 0.
-412.39 -1324.42 0.
-373.063 -1232.27 0.
-285.984 -1275.01 0.
-337.308 -1394.52 0.
-218.725 -1409.83 0.
-127.541 -1196.99 0.
-36.3576 -984.156 0.
-109.851 -916.771 0.
-135.701 -977.001 0.
-161.551 -1037.23 0.
-98.1985 -1073.88 0.
-137.583 -1165.77 0.
-176.967 -1257.67 0.
-164.803 -1197.02 0.
-116.621 -1084.6 0.
-19.2214 -952.962 0.
-50.6309 -1047.48 0.
-93.1332 -1146.76 0.
-308.44 -1296.14 0.
-298.863 -1273.76 0.
-289.286 -1251.39 0.
-18.7853 -1102.44 0.
7.45 -1041.14 0.
33.6853 -979.836 0.
76.0827 -914.947 0.
99.9095 -859.422 0.
123.736 -803.897 0.
-15.5516 -897.879 0.
-37.9894 -950.245 0.
67.8225 -935.788 0.
95.1579 -871.927 0.
122.493 -808.066 0.
251.874 -713.807 0.
259.466 -696.099 0.
267.058 -678.39 0.
227.366 -703.671 0.
214.75 -733.155 0.
202.133 -762.638 0.
103.656 -758.401 0.
136.133 -682.563 0.
-445.597 -1052.49 0.
84.0134 -818.077 0.
90.4129 -803.119 0.
177.498 -736.984 0.
227.951 -619.308 0.
278.404 -501.631 0.
33.137 -575.512 0.
3.26351 -645.225 0.
-26.61 -714.937 0.
-21.2335 -754.008 0.
-38.6762 -794.761 0.
-56.1189 -835.515 0.
177.394 -761.037 0.
164.622 -790.849 0.
89.3055 -852.579 0.
50.3601 -943.45 0.
11.4146 -1034.32 0.
-127.156 -1147.75 0.
-133.642 -1162.9 0.
-140.129 -1178.05 0.
-228.078 -1176.63 0.
-184.212 -1074.29 0.
-140.346 -971.94 0.
32.2489 -895.134 0.
21.5407 -920.041 0.
-57.1432 -974.08 0.
30.1027 -948.415 0.
23.4945 -963.79 0.
-120.964 -1026.63 0.
-99.1766 -975.837 0.
-77.3894 -925.048 0.
-84.747 -935.031 0.
-120.784 -1019.08 0.
-156.822 -1103.13 0.
-216.534 -1161.64 0.
-223.884 -1178.78 0.
-231.233 -1195.91 0.
-480.458 -1279.58 0.
-466.222 -1246.5 0.
-426.979 -1209.71 0.
-448.678 -1260.63 0.
-470.378 -1311.55 0.
-284.012 -1234.54 0.
-245.498 -1144.74 0.
-206.985 -1054.94 0.
129.87 -896.221 0.
113.337 -935.105 0.
96.8042 -973.989 0.
-14.5276 -992.675 0.
9.79476 -936.021 0.
-459.303 -1091.16 0.
232.45 -887.576 0.
183.813 -1001.25 0.
-322.026 -1264.35 0.
-262.98 -1126.6 0.
-203.933 -988.849 0.
-425.587 -1086.18 0.
-501.884 -1263.93 0.
-578.18 -1441.69 0.
-428.945 -1375.47 0.
-389.574 -1283.39 0.
-350.202 -1191.31 0.
-243.286 -1225.11 0.
-294.585 -1344.61 0.
-156.936 -1351.92 0.
-65.7535 -1139.06 0.
25.4292 -926.197 0.
-123.787 -891.371 0.
-149.629 -951.605 0.
-175.471 -1011.84 0.
-34.2759 -1014.97 0.
-73.6876 -1106.83 0.
-113.099 -1198.69 0.
-70.2114 -1124.97 0.
-22.0186 -1012.55 0.
45.1682 -894.249 0.
22.2666 -985.08 0.
-20.2842 -1084.33 0.
-315.197 -1267.51 0.
-305.619 -1245.13 0.
-296.041 -1222.75 0.
-79.2731 -1096.89 0.
-53.0209 -1035.62 0.
-26.7686 -974.359 0.
58.0314 -891.255 0.
81.8469 -835.728 0.
105.662 -780.2 0.
36.1312 -844.325 0.
13.6894 -896.695 0.
-5.04299 -935.64 0.
22.2769 -871.773 0.
49.5968 -807.906 0.
231.312 -691.242 0.
238.921 -673.544 0.
246.531 -655.845 0.
231.747 -670.336 0.
219.142 -699.828 0.
206.537 -729.319 0.
14.8688 -765.072 0.
47.3147 -689.236 0.
-186.849 -525.762 0.
272.907 -381.903 0.
303.649 -310.193 0.
300.789 -326.472 0.
233.084 -484.416 0.
74.9217 -853.388 0.
-67.9598 -833.553 0.
46.8761 -565.748 0.
225.215 -149.792 0.
238.49 -82.6522 0.
217.196 -132.465 0.
241.946 -74.8521 0.
413.943 -225.037 0.
279.131 -539.646 0.
94.0272 -811.989 0.
130.686 -726.514 0.
218.329 -522.076 0.
151.43 -310.279 0.
215.719 -160.305 0.
337.206 123.13 0.
234.438 -111.245 0.
64.9477 -506.811 0.
69.8671 -495.42 0.
64.626 -897.984 0.
-114.081 -1314.94 0.
72.9831 -773.43 0.
342.025 -303.088 0.
576.19 243.067 0.
600.609 616.803 0.
513.854 414.328 0.
426.04 209.383 0.
311.167 -46.3759 0.
204.596 -295.132 0.
105.376 -526.735 0.
44.2409 -613.938 0.
4.31137 -707.054 0.
-28.3039 -783.101 0.
-465.324 -1390.23 0.
151.827 49.8605 0.
-5.98229 -340.235 0.
-143.737 -661.573 0.
-127.617 -623.86 0.
35.6599 -295.861 0.
18.7627 -335.256 0.
-52.1236 -500.631 0.
286.669 -405.216 0.
320.38 -326.517 0.
317.584 -333.002 0.
294.627 -262.639 0.
333.158 -172.322 0.
-856.744 -648.89 0.
473.783 -189.319 0.
404.71 -350.45 0.
-16.562 -614.426 0.
5.88947 -562.095 0.
-7.18399 -592.657 0.
-202.713 -577.329 0.
-131.741 -411.899 0.
-216.852 -610.664 0.
-140.739 -713.812 0.
10.9574 -360.019 0.
240.613 175.686 0.
-347.204 -1517.76 0.
-152.924 -1064.55 0.
258.926 -466.786 0.
271.981 -436.241 0.
280.934 -415.265 0.
27.6043 -480.53 0.
149.25 -196.759 0.
259.994 61.5699 0.
575.633 319.544 0.
595.712 366.396 0.
688.653 583.273 0.
423.703 -121.656 0.
10.585 -1085.45 0.
63.8976 -961.043 0.
20.6702 -1097.45 0.
342.331 -347.014 0.
215.322 14.2578 0.
-51.5828 -608.47 0.
46.9856 -378.427 0.
225.689 -239.766 0.
158.428 -396.734 0.
142.766 -433.302 0.
226.656 -431.804 0.
191.603 -513.552 0.
168.095 -568.363 0.
267.072 -371.309 0.
340.31 -200.556 0.
263.823 -138.932 0.
267.969 -129.375 0.
245.811 -181.194 0.
536.84 91.829 0.
291.845 -479.755 0.
353.155 -336.654 0.
357.767 -354.27 0.
396.347 -264.121 0.
404.234 -245.591 0.
106.244 -352.702 0.
99.6495 -368.205 0.
-154.44 -420.862 0.
340.588 -190.429 0.
351.416 -165.216 0.
321.741 -186.206 0.
255.637 -340.394 0.
189.533 -494.581 0.
-47.8914 -655.32 0.
-30.6107 -615.023 0.
-13.33 -574.727 0.
71.3814 -526.197 0.
71.6426 -525.526 0.
71.9038 -524.856 0.
295.217 -425.641 0.
297.154 -421.105 0.
209.071 -449.136 0.
240.76 -375.193 0.
272.449 -301.249 0.
222.211 -286.348 0.
215.557 -301.83 0.
208.903 -317.311 0.
153.044 -421.246 0.
80.4918 -590.596 0.
7.93929 -759.946 0.
141.558 -766.95 0.
118.991 -819.646 0.
35.243 -898.562 0.
155.344 -806.365 0.
177.734 -754.249 0.
66.4086 -755.97 0.
96.6323 -685.382 0.
126.856 -614.794 0.
60.3275 -597.371 0.
76.5697 -559.483 0.
92.812 -521.596 0.
100.3 -478.23 0.
123.597 -423.827 0.
146.893 -369.424 0.
-146.096 -550.223 0.
-181.155 -631.95 0.
-243.082 -716.095 0.
-234.02 -694.624 0.
-224.958 -673.152 0.
-88.6838 -607.778 0.
-95.5734 -623.871 0.
-102.463 -639.963 0.
153.576 -592.025 0.
99.6783 -717.453 0.
45.781 -842.881 0.
71.2237 -882.634 0.
52.6044 -926.039 0.
-701.234 -1284.28 0.
303.85 -753.614 0.
356.22 -631.256 0.
-114.302 -750.923 0.
-100.466 -718.534 0.
-86.6307 -686.146 0.
-365.764 -785.327 0.
-358.693 -768.981 0.
-351.622 -752.635 0.
-155.938 -689.217 0.
-175.214 -734.432 0.
-194.49 -779.648 0.
20.2935 -567.739 0.
92.7392 -398.785 0.
348.386 -185.063 0.
265.226 -379.149 0.
182.066 -573.235 0.
-44.7399 -776.739 0.
-45.7562 -779.168 0.
-46.7726 -781.597 0.
165.818 -699.985 0.
157.768 -718.864 0.
149.718 -737.743 0.
147.411 -766.159 0.
131.16 -804.001 0.
163.7 -817.997 0.
256.238 -656.511 0.
320.213 -507.267 0.
41.7783 -520.161 0.
74.0292 -444.928 0.
106.28 -369.694 0.
238.127 -288.588 0.
228.438 -311.231 0.
218.75 -333.874 0.
232.819 -354.294 0.
216.848 -391.515 0.
200.876 -428.735 0.
145.451 -471.234 0.
136.375 -492.508 0.
144.142 -499.915 0.
162.298 -457.699 0.
180.454 -415.484 0.
313.671 -325.19 0.
330.142 -286.709 0.
346.612 -248.228 0.
429.39 -172.582 0.
453.18 -116.957 0.
476.969 -61.3321 0.
145.218 -223.319 0.
127.532 -264.629 0.
-153.331 -388.997 0.
339.49 -159.437 0.
350.324 -134.24 0.
290.28 -168.239 0.
224.171 -322.415 0.
158.062 -476.592 0.
-100.397 -646.418 0.
-83.1197 -606.113 0.
-65.8419 -565.808 0.
116.082 -475.687 0.
116.326 -474.995 0.
116.57 -474.303 0.
271.528 -404.312 0.
273.466 -399.776 0.
175.912 -431.875 0.
207.636 -357.972 0.
239.361 -284.07 0.
312.992 -216.023 0.
306.323 -231.49 0.
299.654 -246.956 0.
232.601 -355.464 0.
160.051 -524.859 0.
87.5012 -694.254 0.
183.389 -717.93 0.
160.821 -770.637 0.
84.4471 -846.402 0.
207.363 -752.396 0.
229.744 -700.288 0.
149.206 -689.143 0.
179.433 -618.546 0.
209.661 -547.948 0.
58.4815 -566.788 0.
74.7324 -528.9 0.
90.9833 -491.011 0.
114.448 -440.576 0.
137.714 -386.166 0.
160.979 -331.756 0.
-179.659 -533.264 0.
-214.736 -614.953 0.
-319.861 -717.706 0.
-310.827 -696.218 0.
-301.794 -674.731 0.
-61.0667 -564.534 0.
-67.9221 -580.649 0.
-74.7774 -596.763 0.
104.79 -581.481 0.
50.8811 -706.892 0.
-3.02743 -832.304 0.
139.101 -822.006 0.
120.54 -865.504 0.
327.226 -812.169 0.
409.109 -676.836 0.
461.401 -554.368 0.
-146.074 -733.172 0.
-132.266 -700.774 0.
-118.458 -668.376 0.
-439.952 -785.764 0.
-432.913 -769.366 0.
-425.875 -752.968 0.
-171.113 -664.447 0.
-190.362 -709.744 0.
-209.61 -755.042 0.
-11.7762 -549.826 0.
60.7214 -380.923 0.
326.751 -162.757 0.
243.608 -356.839 0.
160.465 -550.921 0.
38.5439 -709.751 0.
37.4888 -712.144 0.
36.4336 -714.537 0.
215.592 -647.213 0.
207.502 -666.053 0.
199.412 -684.893 0.
163.871 -727.646 0.
147.631 -765.51 0.
229 -758.752 0.
329.817 -593.69 0.
393.768 -444.428 0.
126.34 -452.384 0.
158.599 -377.14 0.
190.859 -301.896 0.
295.61 -232.564 0.
285.926 -255.211 0.
276.242 -277.859 0.
216.163 -329.953 0.
200.184 -367.172 0.
184.206 -404.391 0.
65.4286 -474.076 0.
56.3568 -495.361 0.
203.69 -443.022 0.
221.83 -400.796 0.
239.969 -358.57 0.
275.676 -310.046 0.
292.161 -271.571 0.
308.645 -233.096 0.
438.252 -137.34 0.
462.042 -81.7232 0.
485.833 -26.1068 0.
141.585 -193.353 0.
123.877 -234.642 0.
-260.522 -617.097 0.
153.303 -508.698 0.
118.444 -589.853 0.
63.8672 -642.502 0.
125.784 -498.117 0.
187.701 -353.733 0.
-32.9399 -414.92 0.
-76.1235 -515.583 0.
-119.307 -616.245 0.
75.6113 -587.854 0.
54.7394 -636.614 0.
33.8675 -685.374 0.
118.599 -651.073 0.
120.499 -646.541 0.
85.6155 -667.355 0.
38.2098 -777.865 0.
-9.19589 -888.375 0.
17.7365 -959.741 0.
-18.7994 -1045.07 0.
-55.3354 -1130.39 0.
-127.198 -1150.73 0.
-85.145 -1052.57 0.
-43.0917 -954.404 0.
187.62 -770.511 0.
232.769 -665.037 0.
205.802 -590.469 0.
269.117 -659.793 0.
217.747 -779.587 0.
69.6647 -920.927 0.
66.3216 -928.748 0.
62.9785 -936.569 0.
-186.604 -1058.13 0.
-199.267 -1087.65 0.
-211.93 -1117.18 0.
-201.093 -1124.38 0.
-203.377 -1129.83 0.
-205.661 -1135.28 0.
-416.949 -1160.12 0.
-378.76 -1071.08 0.
-463.144 -1043.85 0.
-470.789 -1062.15 0.
-478.433 -1080.45 0.
-255.499 -1021.85 0.
-298.924 -1122.95 0.
-342.348 -1224.06 0.
-155.892 -1140.29 0.
-116.037 -1047.63 0.
-76.1814 -954.963 0.
113.774 -865.531 0.
107.546 -879.95 0.
177.34 -861.821 0.
332.381 -794.354 0.
333.083 -792.882 0.
-271.073 -1057.21 0.
-292.226 -1106.82 0.
-313.378 -1156.43 0.
-618.699 -1293.71 0.
-599.778 -1249.72 0.
-580.857 -1205.73 0.
-351.662 -1053.77 0.
-319.1 -977.469 0.
-286.538 -901.164 0.
-174.464 -934.031 0.
-225.19 -1052.21 0.
-101.439 -1084.08 0.
-95.961 -1071.2 0.
-90.4827 -1058.31 0.
-123.808 -1053.01 0.
-106.331 -1012.33 0.
-88.8545 -971.653 0.
114.468 -863.745 0.
120.246 -850.318 0.
126.024 -836.891 0.
182.778 -763.631 0.
213.896 -690.976 0.
307.47 -594.547 0.
287.65 -747.795 0.
211.685 -925.106 0.
-190.581 -1208.12 0.
-191.858 -1211.04 0.
-193.135 -1213.95 0.
-97.3441 -1136.91 0.
-55.0559 -1038.14 0.
-12.7676 -939.367 0.
-24.4505 -864.456 0.
17.408 -766.793 0.
59.2665 -669.131 0.
-72.1404 -738.572 0.
-83.8832 -765.833 0.
74.737 -710.021 0.
102.765 -644.562 0.
130.792 -579.103 0.
135.772 -544.003 0.
132.967 -550.558 0.
130.163 -557.113 0.
260.032 -484.042 0.
279.141 -439.559 0.
298.25 -395.076 0.
8.73115 -467.227 0.
36.9283 -401.484 0.
-253.141 -582.461 0.
98.9598 -500.546 0.
64.101 -581.7 0.
71.4269 -607.89 0.
133.334 -463.489 0.
195.242 -319.088 0.
-26.1993 -380.647 0.
-69.3837 -481.297 0.
-112.568 -581.948 0.
82.043 -553.778 0.
61.1667 -602.536 0.
40.2905 -651.293 0.
60.8299 -644.436 0.
62.7503 -639.926 0.
176.662 -596.827 0.
129.263 -707.358 0.
81.8651 -817.888 0.
19.2381 -927.725 0.
-17.3107 -1013.04 0.
-53.8596 -1098.36 0.
-218.76 -1158.42 0.
-176.704 -1060.3 0.
-134.648 -962.182 0.
244.389 -714.937 0.
289.577 -609.482 0.
288.034 -524.055 0.
306.119 -612.396 0.
254.731 -732.205 0.
67.374 -890.44 0.
64.0253 -898.269 0.
60.6766 -906.098 0.
-235.435 -1047.66 0.
-248.09 -1077.18 0.
-260.745 -1106.71 0.
-235.784 -1107.65 0.
-238.126 -1113.06 0.
-240.468 -1118.47 0.
-274.95 -1067.98 0.
-236.76 -978.902 0.
-361.906 -969.326 0.
-369.61 -987.567 0.
-377.313 -1005.81 0.
-246.989 -986.776 0.
-290.331 -1087.92 0.
-333.674 -1189.07 0.
-125.587 -1095.79 0.
-85.7609 -1003.09 0.
-45.935 -910.389 0.
63.7288 -855.492 0.
57.518 -869.989 0.
-746.846 -1226.41 0.
197.898 -820.146 0.
198.512 -818.542 0.
-171.652 -983.521 0.
-192.913 -1033.06 0.
-214.174 -1082.6 0.
-418.455 -1176.51 0.
-399.595 -1132.44 0.
-380.735 -1088.38 0.
-338.673 -1017.14 0.
-306.057 -940.955 0.
-273.44 -864.77 0.
-104.244 -872.28 0.
-154.972 -990.488 0.
-128.079 -1063.91 0.
-122.583 -1051.01 0.
-117.087 -1038.12 0.
-209.877 -1058.52 0.
-192.43 -1017.84 0.
-174.983 -977.167 0.
77.5156 -848.159 0.
83.2845 -834.706 0.
89.0535 -821.254 0.
283.616 -689.061 0.
314.746 -616.428 0.
353.951 -543.252 0.
306.687 -708.236 0.
230.7 -885.53 0.
-224.378 -1191.15 0.
-225.64 -1194.08 0.
-226.901 -1197 0.
-133.538 -1121.02 0.
-91.2395 -1022.26 0.
-48.9408 -923.494 0.
-2.76823 -823.715 0.
39.0862 -726.051 0.
80.9405 -628.387 0.
-20.1769 -684.928 0.
-31.9177 -712.205 0.
13.0089 -705.038 0.
41.0257 -639.587 0.
69.0425 -574.135 0.
110.101 -523.568 0.
107.297 -530.125 0.
104.492 -536.683 0.
213.206 -472.68 0.
232.309 -428.205 0.
251.413 -383.73 0.
7.80532 -436.285 0.
35.988 -370.529 0.
-282.32 -630.656 0.
59.8462 -457.214 0.
107.247 -346.809 0.
209.811 -268.624 0.
162.019 -380.064 0.
291.537 -77.7332 0.
-84.4978 -498.876 0.
-209.689 -791.241 0.
48.8514 -188.284 0.
382.972 167.993 0.
371.777 141.793 0.
346.216 82.0835 0.
253.322 -56.0161 0.
190.403 -202.818 0.
358.173 -313.986 0.
375.243 -274.161 0.
393.389 -231.833 0.
306.073 -230.39 0.
254.655 -350.377 0.
386.928 -41.756 0.
160.746 -68.2263 0.
69.6303 -280.889 0.
-26.8126 -505.971 0.
282.47 -702.432 0.
333.941 -582.402 0.
195.693 -810.34 0.
122.728 -1080.33 0.
591.243 12.3901 0.
633.118 467.415 0.
478.518 106.596 0.
391.606 -96.2827 0.
-26.0126 -435.863 0.
-104.423 -618.899 0.
-192.414 -824.295 0.
-196.475 -920.092 0.
-228.054 -993.661 0.
-238.103 -1016.98 0.
-187.666 -1101.17 0.
166.928 -273.93 0.
-112.048 -547.576 0.
-50.0649 -402.977 0.
-8.82423 -306.775 0.
70.2451 -231.749 0.
110.862 -136.839 0.
91.3453 -182.243 0.
280.916 -173.639 0.
261.671 -218.195 0.
236.812 -275.851 0.
327.651 -113.168 0.
425.884 116.196 0.
-191.645 97.6143 0.
464.399 89.082 0.
363.772 -145.651 0.
181.89 -314.201 0.
219.668 -226.118 0.
242.925 -171.919 0.
144.33 -210.84 0.
110.298 -290.476 0.
37.8069 -459.842 0.
-123.165 -507.594 0.
-75.0922 -395.452 0.
77.7298 -38.8902 0.
-229.548 -1267.17 0.
-271.323 -1364.74 0.
-123.249 -971.442 0.
-38.0451 -772.506 0.
37.7139 -595.605 0.
-55.4858 -503.872 0.
40.9419 -278.912 0.
73.933 -201.973 0.
322.623 -174.903 0.
339.432 -135.431 0.
400.598 7.56004 0.
253.033 -921.111 0.
199.307 -1046.28 0.
327.705 -567.665 0.
388.683 -521.444 0.
437.745 -406.789 0.
144.109 -235.79 0.
91.9263 -357.49 0.
77.1027 -392.011 0.
122.413 -424.641 0.
77.7566 -528.851 0.
128.01 -411.609 0.
210.163 -337.015 0.
246.329 -252.702 0.
291.493 -147.392 0.
291.832 -23.1674 0.
343.984 98.4116 0.
333.68 190.871 0.
357.269 246.034 0.
304.043 121.963 0.
131.603 -395.736 0.
7.42472 -685.488 0.
204.878 -224.784 0.
380.077 36.7363 0.
195.086 -394.896 0.
176.502 -438.237 0.
-41.831 -518.486 0.
-51.6953 -541.597 0.
-306.757 -562.175 0.
60.9763 -331.48 0.
100.849 -238.603 0.
252.638 -139.854 0.
182.642 -303.118 0.
112.647 -466.381 0.
-117.901 -615.664 0.
-85.1564 -539.351 0.
-52.4122 -463.039 0.
130.07 -359.175 0.
132.566 -353.303 0.
135.063 -347.431 0.
205.595 -276.016 0.
229.897 -219.289 0.
393.366 -104.942 0.
405.078 -77.5611 0.
416.79 -50.1802 0.
367.315 -71.29 0.
343.382 -127.07 0.
319.449 -182.851 0.
74.0195 -369.944 0.
13.9721 -510.008 0.
-46.0753 -650.073 0.
287.442 -614.983 0.
231.808 -744.804 0.
145.234 -887.885 0.
213.114 -839.616 0.
224.05 -814.206 0.
96.0308 -853.474 0.
94.927 -856.032 0.
93.8232 -858.59 0.
-155.754 -909.591 0.
-87.8204 -751.088 0.
-19.8868 -592.584 0.
-36.3985 -494.678 0.
11.8287 -382.15 0.
60.0559 -269.623 0.
1.32046 -397.389 0.
-65.0754 -552.397 0.
-181.971 -710.963 0.
-160.11 -659.776 0.
-138.25 -608.589 0.
3.94943 -480.751 0.
66.5275 -334.713 0.
129.106 -188.674 0.
309.646 -90.7677 0.
277.931 -164.495 0.
246.216 -238.222 0.
363.1 -229.813 0.
344.042 -274.193 0.
-72.3205 -488.857 0.
286.722 -327.94 0.
290.422 -319.357 0.
131.882 -380.942 0.
135.742 -371.959 0.
139.602 -362.977 0.
-47.9162 -476.877 0.
-91.9039 -579.783 0.
-135.892 -682.689 0.
-223.223 -735.011 0.
-213.121 -711.445 0.
-203.018 -687.879 0.
57.5315 -499.669 0.
101.246 -397.884 0.
146.888 -314.014 0.
100.128 -423.102 0.
53.3686 -532.189 0.
-37.6994 -674.707 0.
-105.52 -832.982 0.
-173.341 -991.258 0.
53.287 -948.065 0.
55.9058 -941.927 0.
58.5245 -935.789 0.
229.955 -853.156 0.
235.091 -841.144 0.
203.044 -843.102 0.
298.433 -660.16 0.
372.981 -486.151 0.
53.1719 -500.708 0.
85.3869 -425.562 0.
117.602 -350.415 0.
147.187 -295.209 0.
158.378 -269.146 0.
169.568 -243.082 0.
260.057 -183.363 0.
270.948 -158.054 0.
281.838 -132.744 0.
191.464 -185.196 0.
182.11 -207.206 0.
213.746 -210.088 0.
213.586 -210.576 0.
213.426 -211.064 0.
269.607 -193.544 0.
260.076 -215.759 0.
250.544 -237.973 0.
187.411 -279.803 0.
180.236 -296.548 0.
173.061 -313.293 0.
-72.5741 -439.346 0.
-83.8777 -465.835 0.
-356.183 -552.003 0.
12.8846 -320.597 0.
52.7401 -227.72 0.
253.99 -107.857 0.
184 -271.115 0.
114.01 -434.373 0.
-81.0725 -568.475 0.
-48.3419 -492.146 0.
-15.6113 -415.818 0.
113.666 -334.797 0.
116.178 -328.941 0.
118.689 -323.085 0.
279.074 -213.055 0.
303.378 -156.329 0.
343.177 -94.9861 0.
354.909 -67.615 0.
366.64 -40.244 0.
375.367 -36.4613 0.
351.418 -92.2313 0.
327.47 -148.001 0.
142.805 -308.931 0.
82.7608 -449.014 0.
22.7164 -589.096 0.
264.132 -593.659 0.
208.511 -723.478 0.
99.8672 -876.02 0.
214.205 -807.617 0.
225.1 -782.169 0.
147.939 -799.81 0.
146.845 -802.386 0.
145.751 -804.962 0.
-49.5854 -832.745 0.
18.3585 -674.212 0.
86.3023 -515.679 0.
-46.7747 -467.433 0.
1.43989 -354.925 0.
49.6544 -242.416 0.
-120.426 -418.343 0.
-186.83 -573.318 0.
-165.656 -672.723 0.
-143.825 -621.485 0.
-121.995 -570.247 0.
69.7885 -421.14 0.
132.419 -275.135 0.
195.049 -129.13 0.
317.934 -55.6634 0.
286.232 -129.41 0.
254.529 -203.156 0.
484.063 -146.583 0.
465.03 -191.026 0.
571.966 -181.166 0.
304.523 -288.589 0.
308.251 -279.994 0.
122.259 -353.782 0.
126.052 -344.753 0.
129.844 -335.724 0.
-127.105 -479.387 0.
-171.112 -582.276 0.
-215.118 -685.165 0.
-210.41 -698.401 0.
-200.301 -674.902 0.
-190.192 -651.403 0.
22.8643 -482.891 0.
66.6185 -381.124 0.
149.604 -281.239 0.
102.859 -390.329 0.
56.1137 -499.419 0.
90.1704 -588.559 0.
22.3139 -746.843 0.
-45.5427 -905.126 0.
145.96 -876.927 0.
148.588 -870.771 0.
151.216 -864.615 0.
182.645 -841.974 0.
187.8 -829.995 0.
216.659 -805.865 0.
277.351 -637.795 0.
351.899 -463.787 0.
97.4674 -450.221 0.
129.689 -375.074 0.
161.91 -299.926 0.
126.278 -272.795 0.
137.467 -246.728 0.
148.656 -220.661 0.
257.003 -153.21 0.
267.878 -127.897 0.
278.753 -102.583 0.
170.107 -162.958 0.
160.754 -184.981 0.
294.094 -144.215 0.
293.956 -144.716 0.
293.818 -145.217 0.
348.988 -128.051 0.
339.456 -150.257 0.
329.924 -172.463 0.
134.076 -271.227 0.
126.908 -287.981 0.
119.74 -304.736 0.
-135.275 -434.775 0.
-146.574 -461.272 0.
-363.361 -611.199 0.
-93.1487 -536.019 0.
-113.807 -584.143 0.
48.4695 -530.691 0.
86.8231 -441.294 0.
125.177 -351.896 0.
32.3332 -377.781 0.
-2.02124 -457.926 0.
-36.3757 -538.07 0.
18.3202 -536.893 0.
19.2118 -534.833 0.
20.1035 -532.774 0.
132.129 -535.363 0.
101.677 -606.259 0.
74.3837 -677.99 0.
32.0959 -776.59 0.
-10.192 -875.19 0.
-12.0759 -928.823 0.
-9.51392 -922.798 0.
-6.95197 -916.774 0.
-117.064 -953.09 0.
-107.953 -931.86 0.
-98.8419 -910.629 0.
198.995 -678.601 0.
267.369 -519.02 0.
283.058 -382.02 0.
393.158 -316.924 0.
402.133 -296.029 0.
301.191 -348.405 0.
246.3 -476.481 0.
191.41 -604.557 0.
-13.0599 -786.465 0.
-55.0694 -884.495 0.
-97.0788 -982.525 0.
-311.945 -1106.85 0.
-315.548 -1115.29 0.
-319.152 -1123.73 0.
-322.601 -930.496 0.
-207.591 -662.009 0.
-55.0587 -415.358 0.
-125.241 -579.245 0.
-195.424 -743.131 0.
-91.807 -831.043 0.
-160.789 -991.894 0.
-229.771 -1152.75 0.
-141.417 -1154.74 0.
-122.966 -1111.87 0.
-104.516 -1069.01 0.
125.402 -963.96 0.
124.37 -966.336 0.
218.307 -928.155 0.
6.02872 -964.019 0.
35.0445 -896.281 0.
-107.231 -913.497 0.
-106.723 -912.561 0.
-106.215 -911.625 0.
-303.823 -937.789 0.
-235.914 -779.201 0.
-168.005 -620.613 0.
-182.465 -613.819 0.
-205.847 -668.34 0.
-229.229 -722.86 0.
-97.6064 -816.051 0.
-182.653 -1014.24 0.
-236.873 -1170.78 0.
-186.183 -1052.51 0.
-135.493 -934.235 0.
3.52989 -783.812 0.
43.7858 -689.941 0.
84.0416 -596.07 0.
283.052 -482.179 0.
278.089 -493.821 0.
273.126 -505.463 0.
303.917 -501.684 0.
299.311 -512.478 0.
341.652 -504.065 0.
245.741 -633.374 0.
199.439 -741.424 0.
-129.614 -949.253 0.
-127.864 -945.075 0.
-126.114 -940.897 0.
-140.307 -915.872 0.
-107.44 -839.266 0.
-74.5723 -762.66 0.
-1.88867 -691.399 0.
13.6866 -655.007 0.
29.2619 -618.615 0.
-39.5364 -644.897 0.
-39.0422 -643.545 0.
122.016 -568.953 0.
138.351 -530.682 0.
154.687 -492.412 0.
227.598 -439.262 0.
229.859 -433.961 0.
232.12 -428.66 0.
29.0253 -461.904 0.
77.1343 -349.604 0.
125.243 -237.304 0.
-107.605 -351.237 0.
-129.612 -402.578 0.
-241.72 -527.599 0.
-46.8355 -484.691 0.
-67.5065 -532.803 0.
21.5997 -510.763 0.
59.9475 -421.365 0.
98.2953 -331.966 0.
105.628 -314.944 0.
71.2833 -395.093 0.
36.9387 -475.242 0.
44.5712 -494.194 0.
45.4725 -492.134 0.
46.3737 -490.073 0.
72.5397 -529.559 0.
42.1032 -600.46 0.
110.859 -630.91 0.
68.5925 -729.519 0.
26.3263 -828.127 0.
1.67293 -891.504 0.
4.24354 -885.497 0.
6.81416 -879.489 0.
-112.819 -919.801 0.
-103.697 -898.59 0.
-94.575 -877.378 0.
184.556 -653.353 0.
252.943 -493.78 0.
305.241 -341.104 0.
350.518 -303.769 0.
359.489 -282.872 0.
184.019 -367.23 0.
129.167 -495.326 0.
74.3145 -623.421 0.
-44.1261 -768.406 0.
-86.12 -866.426 0.
-128.114 -964.446 0.
-246.399 -1047.21 0.
-250.01 -1055.66 0.
-253.622 -1064.12 0.
-128.058 -815.795 0.
-13.0549 -547.228 0.
-36.8853 -376.19 0.
-107.102 -540.019 0.
-177.32 -703.849 0.
-90.2246 -798.999 0.
-159.158 -959.883 0.
-228.091 -1120.77 0.
-88.1376 -1100.52 0.
-69.7215 -1057.62 0.
-51.3054 -1014.73 0.
19.9131 -977.746 0.
18.957 -980.2 0.
-190.321 -1071.8 0.
-0.416932 -935.18 0.
28.5856 -867.419 0.
-39.5474 -853.154 0.
-39.0815 -852.192 0.
-38.6156 -851.23 0.
-146.982 -839.161 0.
-79.0722 -680.551 0.
-11.1623 -521.94 0.
-182.182 -582.513 0.
-205.591 -637.042 0.
-228.999 -691.571 0.
24.4632 -732.059 0.
-60.5263 -930.309 0.
-218.729 -1131.48 0.
-168.017 -1013.22 0.
-117.304 -894.958 0.
-96.7533 -795.461 0.
-56.527 -701.576 0.
-16.3007 -607.692 0.
146.727 -509.236 0.
141.761 -520.868 0.
136.795 -532.5 0.
324.747 -461.419 0.
320.123 -472.2 0.
379.029 -456.615 0.
217.446 -614.06 0.
171.148 -722.095 0.
-172.591 -936.274 0.
-170.844 -932.091 0.
-169.098 -927.909 0.
-64.4532 -851.965 0.
-31.5857 -775.346 0.
1.28178 -698.727 0.
-33.5678 -673.575 0.
-17.9938 -637.196 0.
-2.4198 -600.818 0.
6.15887 -593.846 0.
6.68125 -592.524 0.
98.8327 -547.439 0.
115.184 -509.17 0.
131.536 -470.9 0.
213.508 -413.854 0.
215.763 -408.538 0.
218.017 -403.222 0.
57.03 -418.508 0.
105.143 -306.205 0.
153.255 -193.903 0.
-34.3131 -288.244 0.
-56.3293 -339.595 0.
-22.7708 -210.673 0.
116.744 -157.779 0.
246.787 145.531 0.
95.1312 -257.759 0.
276.186 164.91 0.
361.893 365.082 0.
281.037 -12.5208 0.
110.556 -410.469 0.
296.435 23.0352 0.
337.639 171.005 0.
328.379 149.361 0.
308.266 102.402 0.
275.358 86.7234 0.
266.392 65.9062 0.
430.446 76.4138 0.
352.747 -104.796 0.
292.26 -245.856 0.
279.911 -237.1 0.
327.026 -127.134 0.
399.996 43.1449 0.
204.415 -156.701 0.
126.352 -338.914 0.
150.816 -281.88 0.
376.786 -145.715 0.
358.814 -187.751 0.
266.069 -349.809 0.
154.13 -651.384 0.
294.174 -324.812 0.
264.51 73.5201 0.
244.641 27.2518 0.
245.473 29.2798 0.
214.074 -75.6023 0.
149.461 -226.326 0.
87.4612 -370.958 0.
-39.6348 -658.341 0.
-138.999 -890.079 0.
-103.533 -807.194 0.
291.835 -172.161 0.
223.161 -332.678 0.
-194.311 -746.623 0.
-137.977 -615.267 0.
-111.138 -552.737 0.
56.9925 -426.725 0.
96.168 -335.401 0.
119.193 -281.763 0.
314.199 -231.145 0.
320.114 -217.337 0.
319.804 -218.053 0.
257.712 -194.033 0.
292.826 -111.848 0.
145.871 -136.753 0.
310.503 -165.808 0.
265.24 -271.484 0.
208.303 -371.888 0.
256.135 -260.238 0.
295.638 -168.02 0.
234.683 -213.74 0.
160.554 -386.767 0.
68.7812 -600.961 0.
-231.121 -666.477 0.
-151.909 -481.471 0.
-87.7976 -331.702 0.
444.94 49.9815 0.
45.937 -881.26 0.
-132.687 -935.111 0.
-58.2459 -761.399 0.
34.2001 -545.669 0.
-4.54833 -359.012 0.
82.1031 -156.945 0.
122.637 -62.492 0.
209.229 -74.5001 0.
120.614 -281.226 0.
79.3265 -377.489 0.
280.186 -574.284 0.
373.017 -357.536 0.
562.183 110.054 0.
393.625 -117.644 0.
354.162 -209.617 0.
58.3455 -284.79 0.
80.8364 -232.246 0.
171.094 -21.5641 0.
367.961 44.3561 0.
311.307 -87.7835 0.
331.266 -41.1682 0.
169.603 -110.078 0.
161.399 -129.394 0.
171.044 -107.068 0.
303.925 46.5191 0.
363.598 185.58 0.
427.626 295.4 0.
434.975 312.617 0.
367.662 155.619 0.
283.708 -193.085 0.
242.461 -289.317 0.
353.291 -30.7514 0.
321.212 176.296 0.
106.644 -324.403 0.
264.922 44.825 0.
-35.3277 -397.159 0.
-16.6423 -353.643 0.
-99.5053 -171.42 0.
62.9244 -89.0417 0.
69.6083 -73.5543 0.
198.446 -28.038 0.
149.18 -142.9 0.
99.9137 -257.762 0.
134.617 -280.144 0.
154.208 -234.413 0.
173.799 -188.682 0.
210.001 -157.198 0.
212.375 -151.579 0.
214.748 -145.96 0.
223.157 -114.639 0.
239.385 -76.7017 0.
382.317 7.6333 0.
356.035 -53.6291 0.
329.753 -114.891 0.
286.17 -164.223 0.
291.382 -152.072 0.
296.594 -139.92 0.
198.648 -178.412 0.
197.264 -181.626 0.
195.879 -184.84 0.
302.195 -244.912 0.
230.661 -411.935 0.
154.323 -581.017 0.
162.177 -638.235 0.
130.79 -711.486 0.
-38.0933 -807.355 0.
19.4889 -672.842 0.
77.071 -538.329 0.
31.001 -445.434 0.
91.6107 -303.953 0.
152.22 -162.472 0.
85.4467 -194.756 0.
51.4354 -274.096 0.
17.4241 -353.436 0.
74.6587 -545.757 0.
-49.153 -834.838 0.
-345.773 -1162.24 0.
-294.073 -1041.72 0.
-242.374 -921.19 0.
-96.6678 -746.064 0.
-21.7572 -571.313 0.
53.1535 -396.562 0.
253.973 -227.725 0.
272.058 -185.617 0.
290.143 -143.51 0.
548.72 -2.95538 0.
563.519 31.7152 0.
356.032 -29.292 0.
325.53 -164.787 0.
261.274 -314.753 0.
165.935 -446.342 0.
177.355 -419.573 0.
188.775 -392.805 0.
37.8363 -510.403 0.
-38.5684 -688.677 0.
-114.973 -866.951 0.
-334.624 -990.596 0.
-320.594 -957.931 0.
-306.564 -925.265 0.
90.1131 -570.894 0.
197.057 -321.377 0.
194.43 -153.082 0.
140.214 -279.493 0.
85.9989 -405.904 0.
-35.6911 -549.77 0.
-71.0671 -632.37 0.
-106.443 -714.971 0.
4.17254 -662.464 0.
37.0043 -585.882 0.
69.836 -509.3 0.
291.914 -399.213 0.
292.292 -398.439 0.
430.447 -337.586 0.
302.036 -293.665 0.
353.936 -172.469 0.
75.1358 -207.828 0.
93.4795 -165.091 0.
111.823 -122.354 0.
294.388 -41.4829 0.
276.271 -83.7388 0.
258.154 -125.995 0.
206.186 -136.018 0.
224.366 -93.7624 0.
242.546 -51.5073 0.
243.657 -48.4864 0.
243.14 -49.9104 0.
294.646 -36.1209 0.
266.037 -102.985 0.
237.429 -169.849 0.
295.967 -169.123 0.
312.602 -130.349 0.
329.236 -91.5739 0.
171.105 -163.798 0.
154.074 -203.606 0.
137.043 -243.414 0.
-5.92461 -294.919 0.
4.85127 -269.784 0.
-197.598 -182.004 0.
-22.5745 -94.2232 0.
-15.8955 -78.7329 0.
220.865 12.9318 0.
171.599 -101.93 0.
122.334 -216.792 0.
112.221 -258.257 0.
131.807 -212.525 0.
151.394 -166.793 0.
242.538 -111.859 0.
244.913 -106.232 0.
247.289 -100.606 0.
281.323 -58.3122 0.
297.56 -20.3772 0.
376.083 36.4501 0.
349.824 -24.829 0.
323.565 -86.108 0.
272.13 -138.826 0.
277.352 -126.687 0.
282.575 -114.547 0.
219.675 -137.952 0.
218.295 -141.175 0.
216.916 -144.398 0.
279.6 -223.175 0.
208.079 -390.209 0.
129.274 -560.364 0.
181.805 -598.348 0.
150.416 -671.584 0.
70.2142 -729.509 0.
127.789 -594.989 0.
185.363 -460.47 0.
17.4654 -419.8 0.
78.0654 -278.298 0.
138.665 -136.795 0.
11.9794 -194.736 0.
-22.0177 -274.099 0.
-56.0148 -353.461 0.
20.9309 -537.427 0.
-102.872 -826.489 0.
-296.855 -1109.86 0.
-245.154 -989.319 0.
-193.452 -868.779 0.
-101.095 -716.64 0.
-26.1601 -541.906 0.
48.7751 -367.171 0.
194.877 -221.649 0.
212.973 -179.544 0.
231.068 -137.44 0.
821.613 145.51 0.
836.48 180.14 0.
510.44 68.4138 0.
359.808 -118.571 0.
295.549 -268.529 0.
169.616 -413.513 0.
180.974 -386.719 0.
192.333 -359.926 0.
-31.1524 -508.654 0.
-107.57 -686.901 0.
-183.987 -865.149 0.
-275.148 -933.794 0.
-261.06 -901.192 0.
-246.972 -868.589 0.
-2.19587 -578.985 0.
104.737 -329.491 0.
201.205 -118.681 0.
146.987 -245.082 0.
92.7696 -371.484 0.
42.8865 -484.67 0.
7.48646 -567.261 0.
-27.9136 -649.852 0.
78.1894 -599.307 0.
111.042 -522.733 0.
143.895 -446.158 0.
231.179 -393.79 0.
231.539 -393 0.
412.679 -313.803 0.
299.051 -263.528 0.
350.941 -142.316 0.
71.989 -177.758 0.
90.3235 -135.011 0.
108.658 -92.2638 0.
265.983 -22.2315 0.
247.875 -64.4828 0.
229.766 -106.734 0.
281.156 -72.4764 0.
299.32 -30.2131 0.
317.484 12.0502 0.
236.263 -20.2124 0.
235.747 -21.6446 0.
322.525 7.33805 0.
293.938 -59.5432 0.
265.351 -126.425 0.
314.9 -129.552 0.
331.525 -90.7673 0.
348.151 -51.9827 0.
182.264 -127.596 0.
165.232 -167.409 0.
148.199 -207.222 0.
-7.04894 -263.911 0.
3.70143 -238.76 0.
-415.757 -539.976 0.
-173.973 -438.979 0.
-174.78 -440.751 0.
58.7179 -335.531 0.
73.7981 -300.426 0.
88.8784 -265.321 0.
86.0034 -273.076 0.
58.3982 -337.477 0.
30.793 -401.878 0.
128.94 -382.572 0.
125.489 -390.681 0.
122.039 -398.789 0.
109.194 -462.846 0.
74.9753 -542.638 0.
75.9217 -598.091 0.
88.6737 -568.379 0.
101.426 -538.666 0.
85.707 -532.899 0.
79.6704 -546.977 0.
73.6338 -561.055 0.
5.71875 -627.018 0.
-24.6173 -697.79 0.
-54.9534 -768.562 0.
73.7296 -653.059 0.
123.93 -535.911 0.
172.6 -419.414 0.
319.153 -263.174 0.
368.499 -148.218 0.
308.515 -125.537 0.
246.544 -270.381 0.
184.572 -415.225 0.
-81.4519 -634.789 0.
-127.874 -743.344 0.
-174.297 -851.9 0.
-311.45 -923.359 0.
-297.914 -891.714 0.
-284.378 -860.068 0.
2.76548 -544.443 0.
115.144 -282.158 0.
154.858 -89.1449 0.
79.7665 -264.294 0.
4.67488 -439.443 0.
-43.6562 -578.441 0.
-79.6675 -662.485 0.
-115.679 -746.53 0.
-43.4494 -732.613 0.
-30.6205 -702.639 0.
-17.7915 -672.664 0.
654.722 -369.578 0.
661.189 -354.42 0.
96.2485 -583.96 0.
214.65 -509.326 0.
227.236 -480.002 0.
131.961 -514.771 0.
101.211 -586.605 0.
70.4604 -658.44 0.
-150.585 -738.067 0.
-94.5831 -607.391 0.
-38.5813 -476.715 0.
-19.6893 -396.896 0.
9.11903 -329.445 0.
37.9273 -261.993 0.
40.5755 -436.135 0.
-66.0974 -684.973 0.
-140.456 -890.337 0.
-108.571 -816.046 0.
-76.6862 -741.755 0.
-29.077 -642.999 0.
29.5107 -506.3 0.
88.0985 -369.6 0.
197.761 -283.894 0.
187.76 -307.072 0.
177.759 -330.25 0.
232.437 -328.313 0.
221.284 -354.062 0.
16.2714 -462.135 0.
202.042 -414.331 0.
185.364 -453.287 0.
-93.724 -600.82 0.
-100.535 -616.723 0.
-107.345 -632.626 0.
-27.5875 -601.572 0.
-23.7842 -592.602 0.
-19.9809 -583.632 0.
85.3998 -542.13 0.
80.7246 -552.983 0.
76.0494 -563.836 0.
26.8285 -537.111 0.
55.4172 -470.285 0.
121.151 -390.664 0.
132.636 -363.748 0.
144.12 -336.833 0.
247.992 -271.025 0.
258.71 -246 0.
269.429 -220.974 0.
111.623 -294.801 0.
97.8051 -327.01 0.
83.9869 -359.219 0.
-23.6035 -366.123 0.
6.14071 -296.907 0.
-448.424 -522.509 0.
-68.6488 -362.442 0.
-69.4745 -364.184 0.
38.4859 -312.679 0.
53.5622 -277.573 0.
68.6384 -242.468 0.
92.3241 -238.945 0.
64.718 -303.348 0.
37.112 -367.752 0.
135.99 -348.06 0.
132.531 -356.152 0.
129.072 -364.243 0.
88.7075 -440.351 0.
54.5024 -520.148 0.
47.441 -578.831 0.
60.1907 -549.12 0.
72.9405 -519.409 0.
89.6762 -499.721 0.
83.6504 -513.811 0.
77.6246 -527.901 0.
7.70599 -594.779 0.
-22.6333 -665.553 0.
-52.9727 -736.328 0.
75.3119 -620.879 0.
125.505 -503.735 0.
104.149 -417.252 0.
319.04 -231.842 0.
368.389 -116.894 0.
185.725 -146.667 0.
123.757 -291.502 0.
61.7892 -436.337 0.
-51.5578 -590.601 0.
-97.9956 -699.131 0.
-144.433 -807.661 0.
-233.05 -858.322 0.
-219.508 -826.689 0.
-205.966 -795.056 0.
51.7239 -492.086 0.
164.076 -229.771 0.
174.188 -49.426 0.
99.1074 -224.58 0.
24.0265 -399.734 0.
-11.2794 -533.16 0.
-47.284 -617.202 0.
-83.2887 -701.243 0.
0.685458 -682.257 0.
13.4989 -652.284 0.
26.3123 -622.311 0.
550.873 -382.618 0.
557.368 -367.476 0.
5.3219 -591.425 0.
268.291 -454.853 0.
280.859 -425.506 0.
175.935 -464.508 0.
145.168 -536.335 0.
114.402 -608.162 0.
-101.443 -685.67 0.
-45.4323 -555.002 0.
10.578 -424.335 0.
16.0959 -349.995 0.
44.9495 -282.582 0.
73.8032 -215.17 0.
119.358 -370.891 0.
12.7036 -619.76 0.
-139.114 -858.37 0.
-107.256 -784.056 0.
-75.3981 -709.741 0.
-83.3802 -634.908 0.
-24.7928 -498.232 0.
33.7945 -361.555 0.
120.735 -285.415 0.
110.737 -308.582 0.
100.739 -331.75 0.
260.456 -284.869 0.
249.309 -310.621 0.
161.696 -368.35 0.
158.391 -401.578 0.
141.712 -440.527 0.
-19.7463 -537.705 0.
-26.564 -553.592 0.
-33.3816 -569.478 0.
-75.9379 -590.864 0.
-72.1417 -581.891 0.
-68.3454 -572.918 0.
59.6587 -521.746 0.
54.975 -532.596 0.
50.2914 -543.447 0.
95.5689 -476.266 0.
124.156 -409.448 0.
51.644 -388.935 0.
63.1409 -362.029 0.
74.6378 -335.124 0.
247.703 -239.721 0.
258.41 -214.688 0.
269.117 -189.654 0.
135.326 -253.137 0.
121.513 -285.355 0.
107.7 -317.574 0.
74.6705 -292.54 0.
104.427 -223.346 0.
-220.267 106.167 0.
223.627 155.592 0.
133.532 -54.8964 0.
169.985 64.2129 0.
140.572 -4.20398 0.
134.115 -19.0882 0.
134.014 -122.95 0.
93.0628 -218.486 0.
199.055 28.7825 0.
353.208 177.022 0.
341.854 150.424 0.
307.572 70.3274 0.
269.005 49.2381 0.
281.269 77.8403 0.
294.246 81.1135 0.
193.085 -154.877 0.
147.457 -261.31 0.
181.139 -262.162 0.
219.275 -173.232 0.
243.13 -117.625 0.
150.675 -233.874 0.
147.025 -242.422 0.
243.796 -16.6537 0.
379.685 117.272 0.
359.46 69.9217 0.
291.218 -43.8586 0.
301.244 -243.86 0.
331.171 -174.031 0.
70.4727 -152.257 0.
84.2674 -120.014 0.
124.905 -25.1493 0.
224.124 27.5339 0.
178.704 -78.512 0.
150.108 -145.288 0.
47.7221 -320.31 0.
28.5987 -365.068 0.
133.49 -120.434 0.
282.833 -12.8687 0.
154.658 -312.218 0.
-78.6922 -644.681 0.
-42.804 -560.952 0.
-18.6638 -504.635 0.
19.2139 -491.804 0.
28.5909 -469.907 0.
32.7497 -460.187 0.
120.419 -455.504 0.
110.937 -477.658 0.
91.9696 -521.944 0.
480.476 -317.665 0.
499 -274.403 0.
187.22 -386.851 0.
331.972 -375.85 0.
314.336 -416.941 0.
185.863 -493.048 0.
229.874 -390.39 0.
259.814 -320.562 0.
58.8945 -373.526 0.
34.5799 -430.22 0.
-4.85399 -522.189 0.
-28.0891 -489.099 0.
22.7667 -370.405 0.
58.8948 -286.076 0.
335.353 16.2732 0.
302.242 -60.8566 0.
38.27 -416.933 0.
10.4272 -481.91 0.
76.6673 -327.338 0.
51.9208 -185.718 0.
79.2179 -121.926 0.
67.379 -149.446 0.
77.1183 -210.29 0.
70.769 -225.123 0.
120.409 -109.306 0.
362.906 -68.421 0.
368.386 -55.716 0.
551.357 224.248 0.
285.028 7.76646 0.
237.114 -103.904 0.
173.223 -196.135 0.
167.393 -209.772 0.
219.409 -88.4248 0.
96.009 -67.7301 0.
49.2384 -176.891 0.
68.5073 -131.967 0.
210.989 -89.7621 0.
217.953 -73.5804 0.
228.846 -48.24 0.
379.463 87.2247 0.
411.782 162.558 0.
208.622 140.164 0.
222.393 172.312 0.
154.508 13.9137 0.
291.723 -104.953 0.
289.146 -110.967 0.
408.948 168.509 0.
334.078 199.835 0.
231.725 -39.0577 0.
249.328 1.9879 0.
289.443 55.8734 0.
167.881 -227.642 0.
-307.121 -97.1035 0.
51.2385 -42.5229 0.
-0.374295 -163.129 0.
53.1064 -217.136 0.
55.2928 -211.95 0.
57.4793 -206.763 0.
116.175 -171.825 0.
125.48 -150.064 0.
134.785 -128.304 0.
205.839 -110.637 0.
190.642 -146.074 0.
175.444 -181.511 0.
191.869 -155.659 0.
205.221 -124.512 0.
215.027 -101.461 0.
194.133 -150.218 0.
173.238 -198.975 0.
181.082 -222.688 0.
180.452 -224.156 0.
179.821 -225.625 0.
136.478 -217.86 0.
162.355 -157.525 0.
188.233 -97.189 0.
318.478 -90.6811 0.
277.313 -186.795 0.
492.906 -172.769 0.
321.261 -317.643 0.
283.799 -405.133 0.
-83.8302 -594.645 0.
-24.6062 -456.427 0.
34.6179 -318.208 0.
85.0062 -202.667 0.
120.858 -118.958 0.
156.71 -35.2497 0.
85.3278 -105.645 0.
35.9372 -220.975 0.
-13.4535 -336.305 0.
14.0008 -464.88 0.
-62.8566 -644.344 0.
-108.225 -787.97 0.
-74.6337 -709.609 0.
-41.042 -631.248 0.
5.29983 -550.484 0.
34.1929 -483.056 0.
63.086 -415.627 0.
221.845 -343.04 0.
202.906 -387.262 0.
183.967 -431.483 0.
440.942 -307.817 0.
455.438 -273.948 0.
319.58 -304.811 0.
397.537 -290.181 0.
387.6 -313.33 0.
196.315 -403.253 0.
212.282 -366.008 0.
228.25 -328.763 0.
32.1816 -413.764 0.
11.036 -463.049 0.
-10.1096 -512.333 0.
-58.4203 -559.816 0.
-68.9944 -584.48 0.
-79.5685 -609.145 0.
99.0481 -399.588 0.
178.506 -214.022 0.
152.574 -92.2149 0.
145.227 -109.347 0.
137.88 -126.479 0.
69.0772 -194.626 0.
23.4163 -301.152 0.
-22.2446 -407.679 0.
16.1744 -398.673 0.
45.4963 -330.305 0.
74.8182 -261.936 0.
373.432 -108.852 0.
381.691 -89.5803 0.
562.546 2.99049 0.
210.683 -137.171 0.
216.331 -123.952 0.
166.088 -135.585 0.
168.227 -130.601 0.
170.367 -125.618 0.
52.7695 -183.932 0.
41.577 -210.123 0.
30.3845 -236.314 0.
185.739 -178.01 0.
184.582 -180.772 0.
183.424 -183.533 0.
287.539 -117.865 0.
300.046 -88.7906 0.
81.596 -161.747 0.
82.4212 -159.899 0.
83.2463 -158.052 0.
263.687 -81.6236 0.
260.075 -90.0893 0.
256.463 -98.555 0.
113.639 -148.602 0.
126.827 -117.828 0.
140.014 -87.0546 0.
225.274 -33.0712 0.
233.023 -14.8029 0.
-290.207 -58.2511 0.
-39.4054 -50.0713 0.
-91.0164 -170.653 0.
74.2151 -176.596 0.
76.4153 -171.426 0.
78.6155 -166.256 0.
136.58 -131.617 0.
145.885 -109.86 0.
155.19 -88.1028 0.
192.909 -84.7182 0.
177.705 -120.137 0.
162.501 -155.556 0.
221.413 -111.653 0.
234.769 -80.5029 0.
230.496 -63.4023 0.
209.602 -112.157 0.
188.709 -160.912 0.
176.688 -193.118 0.
176.06 -194.59 0.
175.432 -196.061 0.
127.347 -190.342 0.
153.225 -130.013 0.
179.104 -69.6844 0.
369.423 -37.372 0.
328.252 -133.487 0.
534.252 -123.617 0.
401.071 -252.044 0.
363.608 -339.537 0.
-24.0312 -537.55 0.
35.1984 -399.336 0.
94.4281 -261.121 0.
52.0034 -185.319 0.
87.849 -101.606 0.
123.695 -17.8935 0.
35.3264 -95.6531 0.
-14.0506 -210.989 0.
-63.4276 -326.326 0.
-61.7788 -465.946 0.
-138.643 -645.384 0.
-52.844 -732.768 0.
-19.2535 -654.415 0.
14.337 -576.063 0.
35.3033 -506.189 0.
64.2085 -438.762 0.
93.1136 -371.335 0.
303.505 -276.583 0.
284.556 -320.801 0.
265.608 -365.02 0.
404.11 -292.188 0.
418.622 -258.322 0.
304.299 -279.81 0.
448.569 -236.852 0.
438.614 -260.007 0.
178.437 -379.491 0.
194.404 -342.238 0.
210.371 -304.984 0.
37.2119 -380.212 0.
16.0546 -429.492 0.
-5.10267 -478.771 0.
-42.2257 -521.407 0.
-52.799 -546.062 0.
-63.3724 -570.717 0.
44.1866 -391.689 0.
123.646 -206.14 0.
138.848 -66.6839 0.
131.475 -83.7965 0.
124.102 -100.909 0.
111.414 -145.026 0.
65.7617 -251.567 0.
20.1097 -358.108 0.
56.8622 -349.728 0.
86.19 -281.354 0.
115.518 -212.98 0.
424.402 -55.6345 0.
432.652 -36.3502 0.
584.835 43.9987 0.
212.432 -104.974 0.
218.082 -91.7588 0.
142.125 -114.425 0.
144.256 -109.432 0.
146.387 -104.439 0.
77.306 -141.978 0.
66.1079 -168.172 0.
54.9097 -194.367 0.
217.552 -133.023 0.
216.386 -135.785 0.
215.221 -138.546 0.
299.225 -81.4036 0.
311.746 -52.3453 0.
101.11 -121.909 0.
101.938 -120.06 0.
102.766 -118.212 0.
233.641 -63.0986 0.
230.014 -71.5546 0.
226.388 -80.0106 0.
43.0507 -147.404 0.
56.2354 -116.638 0.
69.42 -85.8718 0.
209.844 -8.26038 0.
217.581 10.0044 0.
-416.651 -441.935 0.
-177.837 -278.717 0.
-146.757 -206.073 0.
100.519 -55.1311 0.
96.1803 -65.2584 0.
91.8415 -75.3857 0.
149.615 -80.6078 0.
119.029 -151.984 0.
88.4424 -223.36 0.
113.537 -221.435 0.
122.695 -200.151 0.
131.852 -178.867 0.
164.109 -212.648 0.
134.697 -281.378 0.
119.42 -337.441 0.
122.796 -329.522 0.
126.172 -321.604 0.
134.167 -307.161 0.
145.251 -281.31 0.
156.334 -255.459 0.
66.4726 -312.698 0.
39.1482 -376.455 0.
11.8238 -440.213 0.
226.351 -360.677 0.
226.229 -360.986 0.
431.341 -273.134 0.
426.008 -204.461 0.
463.824 -116.301 0.
101.577 -230.959 0.
62.5845 -322.01 0.
23.5915 -413.06 0.
-104.192 -546.001 0.
-147.296 -646.601 0.
-190.4 -747.2 0.
-247.77 -730.967 0.
-193.968 -605.359 0.
-140.166 -479.751 0.
-14.4355 -375.203 0.
9.08913 -320.389 0.
186.315 -214.037 0.
139.562 -323.142 0.
92.8095 -432.247 0.
20.7394 -526.62 0.
14.6656 -540.803 0.
8.59193 -554.987 0.
231.294 -444.563 0.
250.232 -400.353 0.
269.169 -356.143 0.
323.051 -344.35 0.
309.974 -374.832 0.
160.425 -463.762 0.
402.521 -328.19 0.
419.262 -289.226 0.
159.974 -388.026 0.
130.614 -456.518 0.
101.254 -525.011 0.
-62.0116 -612.791 0.
-46.4583 -576.587 0.
-30.905 -540.382 0.
-2.05505 -463.506 0.
40.8717 -363.317 0.
83.7984 -263.128 0.
59.7374 -328.021 0.
22.4147 -415.228 0.
-40.0272 -507.287 0.
-50.9654 -532.868 0.
-61.9037 -558.448 0.
-59.7799 -536.162 0.
-4.7737 -407.742 0.
50.2325 -279.323 0.
96.5317 -224.981 0.
85.3181 -250.997 0.
74.1045 -277.013 0.
381.848 -166.947 0.
370.618 -193.091 0.
465.736 -172.787 0.
100.793 -316.087 0.
107.751 -299.827 0.
54.2292 -320.227 0.
37.003 -360.437 0.
19.7768 -400.648 0.
-39.135 -438.702 0.
-33.5158 -425.539 0.
-27.8966 -412.375 0.
139.936 -312.421 0.
159.101 -267.7 0.
178.265 -222.979 0.
236.238 -162.112 0.
255.209 -117.738 0.
84.2212 -154.777 0.
99.7332 -118.504 0.
115.245 -82.231 0.
201.461 -33.148 0.
190.77 -58.1043 0.
180.08 -83.0606 0.
-20.6698 -212.645 0.
-53.0024 -288.094 0.
-85.3351 -363.543 0.
65.6266 -267.959 0.
94.99 -199.655 0.
-314.11 -366.581 0.
-157.166 -238.426 0.
-126.073 -165.792 0.
49.3347 -45.5286 0.
45.0087 -55.6693 0.
40.6826 -65.8099 0.
141.7 -52.5753 0.
111.118 -123.953 0.
80.5366 -195.33 0.
108.881 -191.953 0.
118.031 -170.651 0.
127.18 -149.348 0.
134.932 -193.809 0.
105.527 -262.541 0.
152.757 -291.692 0.
156.125 -283.768 0.
159.492 -275.843 0.
185.997 -253.503 0.
197.083 -227.654 0.
208.168 -201.805 0.
87.0366 -272.461 0.
59.7169 -336.227 0.
32.3973 -399.993 0.
198.989 -340.905 0.
198.879 -341.226 0.
390.126 -259.329 0.
393.196 -187.022 0.
430.997 -98.8585 0.
61.6477 -216.617 0.
22.6473 -307.654 0.
-16.353 -398.691 0.
-42.8603 -488.349 0.
-85.9654 -588.945 0.
-129.07 -689.542 0.
-192.26 -675.73 0.
-138.445 -550.128 0.
-84.6305 -424.527 0.
113.423 -288.954 0.
136.942 -234.132 0.
206.16 -174.082 0.
159.403 -283.188 0.
112.646 -392.294 0.
10.7628 -499.502 0.
4.68612 -513.681 0.
-1.39055 -527.861 0.
183.79 -433.497 0.
202.734 -389.297 0.
221.679 -345.097 0.
250.335 -344.088 0.
237.276 -374.571 0.
118.745 -450.168 0.
369.528 -310.868 0.
386.253 -271.895 0.
174.612 -350.353 0.
145.251 -418.848 0.
115.891 -487.344 0.
-32.7734 -568.84 0.
-17.2222 -532.635 0.
-1.67092 -496.43 0.
52.5077 -408.668 0.
95.4493 -308.481 0.
138.391 -208.293 0.
118.701 -271.281 0.
81.3659 -358.468 0.
31.209 -445.363 0.
20.2567 -470.933 0.
9.30436 -496.502 0.
-77.036 -512.16 0.
-22.0279 -383.751 0.
32.9802 -255.341 0.
56.5674 -210.624 0.
45.3682 -236.649 0.
34.1689 -262.673 0.
377.55 -137.282 0.
366.325 -163.421 0.
408.197 -165.987 0.
81.1429 -293.047 0.
88.091 -276.782 0.
110.522 -264.655 0.
93.2846 -304.857 0.
76.0467 -345.058 0.
-4.66748 -392.533 0.
0.955121 -379.372 0.
6.57772 -366.212 0.
140.522 -280.725 0.
159.687 -236.009 0.
178.852 -191.294 0.
189.883 -150.564 0.
208.85 -106.189 0.
90.3795 -120.67 0.
105.893 -84.3959 0.
121.407 -48.1223 0.
155.042 -21.6064 0.
144.34 -46.5578 0.
133.637 -71.5093 0.
-8.31101 -175.834 0.
-40.637 -251.293 0.
-72.963 -326.752 0.
33.1569 -250.392 0.
62.5187 -182.099 0.
18.1948 255.115 0.
-111.644 -140.394 0.
-145.175 -218.72 0.
-13.2899 -63.7418 0.
11.4558 -5.88718 0.
13.538 -0.917743 0.
133.14 -27.389 0.
105.998 -90.6263 0.
153.903 21.1857 0.
214.988 95.5976 0.
195.542 50.089 0.
142.326 -74.2165 0.
145.816 -83.0532 0.
151.29 -70.3278 0.
280.189 -25.5083 0.
199.962 -212.77 0.
157.688 -311.492 0.
219.831 -240.408 0.
234.847 -205.443 0.
215.981 -249.531 0.
37.7627 -396.014 0.
69.4926 -321.973 0.
166.973 -94.5228 0.
286.083 -54.762 0.
271.175 -89.639 0.
466.33 7.89922 0.
361.778 -167.157 0.
364.531 -160.893 0.
9.00652 -233.166 0.
30.0347 -184.139 0.
43.9809 -151.654 0.
122.329 -187.877 0.
60.082 -333.259 0.
58.3332 -337.476 0.
2.8635 -293.932 0.
71.9095 -132.906 0.
136.493 17.7157 0.
330.31 7.14766 0.
252.301 -175.03 0.
154.406 -300.619 0.
168.045 -268.782 0.
170.515 -263.003 0.
81.4651 -283.894 0.
91.7026 -260.041 0.
94.0127 -254.685 0.
223.775 -218.089 0.
213.261 -242.559 0.
203.498 -265.276 0.
230.319 -222.254 0.
253.412 -168.262 0.
205.261 -153.073 0.
401.311 -140.149 0.
369.853 -213.549 0.
184.808 -322.062 0.
209.55 -264.347 0.
225.325 -227.554 0.
119.017 -239.058 0.
130.386 -212.507 0.
138.768 -192.925 0.
195.899 -145.433 0.
212.346 -106.99 0.
224.182 -79.3041 0.
256.113 -30.3999 0.
277.129 18.7801 0.
216.032 -117.795 0.
103.926 -379.291 0.
90.1934 -411.245 0.
-48.0306 -381.413 0.
-13.7676 -301.442 0.
27.5069 -205.111 0.
18.5252 -192.754 0.
0.963149 -233.745 0.
26.3742 -174.481 0.
398.846 -49.3509 0.
413.34 -15.4067 0.
493.047 137.127 0.
122.865 -127.255 0.
73.9728 -241.272 0.
132.943 -287.358 0.
102.229 -359.051 0.
131.441 -290.904 0.
74.4379 -241.537 0.
49.7708 -299.067 0.
32.8313 -338.571 0.
123.816 -288.519 0.
162.302 -198.638 0.
219.085 -66.0748 0.
213.117 20.3606 0.
256.016 120.526 0.
208.319 174.295 0.
218.912 199.022 0.
171.194 87.6648 0.
93.9628 -46.8458 0.
96.1539 -41.7853 0.
144.547 71.0404 0.
82.1771 45.1992 0.
3.64231 -138.109 0.
7.16751 -129.916 0.
121.109 48.1866 0.
85.6264 -34.5395 0.
-227.941 -73.4966 0.
-86.5507 -87.2639 0.
-128.046 -184.184 0.
-79.3999 -225.445 0.
-78.6133 -223.572 0.
-77.8267 -221.699 0.
98.3562 -139.159 0.
105.853 -121.622 0.
113.35 -104.086 0.
84.0579 -145.094 0.
57.3765 -207.32 0.
30.6952 -269.546 0.
61.4327 -256.946 0.
64.6912 -249.34 0.
156.425 -202.524 0.
166.189 -179.897 0.
175.953 -157.27 0.
230.084 -135.654 0.
207.064 -189.395 0.
184.044 -243.135 0.
151.653 -260.164 0.
167.599 -222.949 0.
183.545 -185.735 0.
221.804 -181.872 0.
208.726 -212.419 0.
388.536 -160.292 0.
320.038 -217.429 0.
305.443 -251.53 0.
-5.39231 -396.674 0.
18.5733 -340.741 0.
42.539 -284.809 0.
96.6265 -237.047 0.
95.2577 -240.246 0.
93.8888 -243.446 0.
-23.7556 -338.366 0.
-57.8762 -417.971 0.
-91.9968 -497.575 0.
114.753 -434.82 0.
103.762 -460.536 0.
76.9349 -482.754 0.
116.754 -389.825 0.
156.573 -296.897 0.
88.5965 -276.449 0.
86.6141 -281.101 0.
84.6318 -285.754 0.
197.194 -260.342 0.
177.324 -306.673 0.
157.455 -353.003 0.
160.379 -342.79 0.
172.1 -315.419 0.
53.987 -343.705 0.
292.168 -269.002 0.
277.816 -302.515 0.
139.35 -370.442 0.
168.713 -301.952 0.
198.077 -233.462 0.
132.547 -233.845 0.
128.862 -242.416 0.
125.177 -250.988 0.
122.4 -297.776 0.
88.367 -377.166 0.
54.3338 -456.556 0.
50.8827 -448.324 0.
60.7777 -425.141 0.
87.6459 -388.592 0.
124.619 -302.299 0.
161.593 -216.006 0.
56.2496 -230.393 0.
30.7242 -289.988 0.
5.19875 -349.583 0.
-21.8359 -357.862 0.
1.67255 -303.047 0.
25.181 -248.232 0.
401.476 -78.0295 0.
400.791 -79.5544 0.
405.671 -79.0122 0.
83.1529 -232.046 0.
75.4009 -250.114 0.
155.186 -228.096 0.
152.514 -234.325 0.
149.841 -240.554 0.
29.3572 -293.906 0.
30.9095 -290.261 0.
32.4617 -286.615 0.
49.3601 -278.091 0.
49.4348 -277.75 0.
49.5095 -277.409 0.
134.124 -209.758 0.
152.468 -166.92 0.
57.6361 -176.326 0.
60.9235 -168.732 0.
64.2109 -161.138 0.
74.2039 -138.708 0.
95.5722 -88.9254 0.
116.941 -39.1424 0.
0.257051 -69.904 0.
1.64615 -66.6162 0.
3.03525 -63.3284 0.
59.3715 -125.299 0.
1.36534 -260.542 0.
-340.236 -89.9048 0.
-67.1511 -47.5359 0.
-108.655 -144.446 0.
-58.8169 -185.155 0.
-58.0257 -183.289 0.
-57.2345 -181.423 0.
130.922 -93.7683 0.
138.422 -76.2362 0.
145.922 -58.704 0.
66.6274 -121.097 0.
39.943 -183.309 0.
13.2586 -245.521 0.
65.7403 -223.732 0.
69.0021 -216.127 0.
114.301 -189.11 0.
124.064 -166.489 0.
133.826 -143.869 0.
203.977 -115.352 0.
180.963 -169.098 0.
157.95 -222.844 0.
236.425 -192.407 0.
252.364 -155.182 0.
268.303 -117.958 0.
226.349 -148.494 0.
213.272 -179.037 0.
384.378 -130.623 0.
311.905 -189.486 0.
297.318 -223.594 0.
79.3073 -328.864 0.
103.266 -272.928 0.
127.226 -216.992 0.
107.317 -201.036 0.
105.955 -204.239 0.
104.593 -207.443 0.
-16.5153 -303.813 0.
-50.6313 -383.416 0.
-84.7473 -463.019 0.
98.9924 -410.192 0.
88.0113 -435.915 0.
94.0129 -443.922 0.
133.839 -351.005 0.
173.664 -258.089 0.
109.668 -236.016 0.
107.686 -240.67 0.
105.704 -245.324 0.
203.029 -226.388 0.
183.159 -272.723 0.
163.288 -319.059 0.
154.747 -313.767 0.
166.485 -286.404 0.
202.573 -248.588 0.
241.463 -259.289 0.
227.118 -292.803 0.
125.557 -344.932 0.
154.917 -276.445 0.
184.276 -207.958 0.
163.068 -189.353 0.
159.383 -197.924 0.
155.699 -206.495 0.
128.64 -263.644 0.
94.6092 -343.034 0.
60.5789 -422.423 0.
35.1775 -423.619 0.
45.0689 -400.428 0.
89.1867 -356.507 0.
126.154 -270.209 0.
163.121 -183.911 0.
121.253 -171.087 0.
95.7296 -230.683 0.
70.2063 -290.279 0.
31.7734 -303.383 0.
55.2905 -248.57 0.
78.8077 -193.757 0.
436.49 -31.6105 0.
435.792 -33.1205 0.
388.07 -55.0812 0.
106.068 -190.774 0.
98.3127 -208.84 0.
167.928 -191.223 0.
165.251 -197.443 0.
162.574 -203.663 0.
17.9793 -267.323 0.
19.5247 -263.677 0.
21.0701 -260.03 0.
-31.0445 -281.116 0.
-30.979 -280.769 0.
-30.9135 -280.421 0.
174.696 -160.984 0.
193.047 -118.153 0.
73.7071 -137.998 0.
76.9908 -130.401 0.
80.2746 -122.804 0.
114.811 -89.9008 0.
136.174 -40.1192 0.
157.538 9.66228 0.
-23.1441 -48.4768 0.
-21.7457 -45.1989 0.
-20.3473 -41.921 0.
91.333 -80.0087 0.
33.3494 -215.264 0.
-374.795 -231.017 0.
-97.2295 -149.546 0.
-112.882 -185.997 0.
-33.833 -167.255 0.
-13.7811 -120.461 0.
6.27076 -73.6677 0.
169.406 6.48355 0.
156.179 -24.4215 0.
142.953 -55.3266 0.
57.1692 -91.4386 0.
64.6495 -74.114 0.
72.1297 -56.7893 0.
125.971 -77.562 0.
99.057 -140.52 0.
83.7244 -199.475 0.
50.2404 -277.602 0.
16.7564 -355.728 0.
69.6632 -377.932 0.
66.7464 -384.756 0.
63.8295 -391.58 0.
186.76 -327.577 0.
200.058 -296.637 0.
213.356 -265.696 0.
165.178 -294.639 0.
155.735 -316.702 0.
282.628 -280.255 0.
299.949 -263.926 0.
304.803 -252.593 0.
78.115 -350.976 0.
57.6408 -398.799 0.
37.1665 -446.621 0.
-7.69455 -484.339 0.
-3.64697 -474.925 0.
0.400599 -465.511 0.
-83.3528 -494.765 0.
-80.2053 -487.427 0.
-77.0578 -480.088 0.
99.8796 -391.353 0.
107.402 -373.737 0.
108.843 -356.339 0.
127.142 -313.645 0.
145.44 -270.951 0.
90.2552 -267.9 0.
95.7131 -255.135 0.
101.171 -242.369 0.
199.14 -177.329 0.
216.556 -136.704 0.
233.972 -96.0779 0.
204.294 -127.702 0.
186.522 -169.202 0.
179.151 -206.268 0.
289.421 -118.25 0.
310.768 -68.3327 0.
213.64 -94.6182 0.
175.353 -183.928 0.
137.065 -273.237 0.
77.446 -347.349 0.
67.8118 -369.853 0.
58.1776 -392.356 0.
77.1945 -355.016 0.
104.878 -290.385 0.
132.562 -225.754 0.
75.3088 -283.242 0.
52.6932 -336.021 0.
83.0547 -359.438 0.
87.6614 -348.675 0.
92.2681 -337.912 0.
57.0608 -355.248 0.
44.8667 -383.64 0.
32.6725 -412.032 0.
13.0685 -441.434 0.
2.78253 -465.441 0.
-7.50349 -489.449 0.
319.787 -325.473 0.
338.567 -281.687 0.
262.917 -278.371 0.
51.8577 -382.847 0.
44.4526 -400.036 0.
61.1953 -402.854 0.
62.99 -398.629 0.
64.7846 -394.404 0.
-62.4565 -419.289 0.
-30.2836 -344.181 0.
1.88924 -269.072 0.
-58.1929 -264.337 0.
-49.9081 -245.01 0.
-41.6233 -225.683 0.
187.558 -88.8412 0.
209.244 -38.0309 0.
110.849 -42.7447 0.
113.169 -37.2952 0.
115.489 -31.8456 0.
156.491 -9.7513 0.
158.891 -4.10139 0.
161.29 1.54853 0.
-35.2879 -93.1478 0.
-47.025 -120.57 0.
-58.7621 -147.993 0.
-19.1027 -231.551 0.
-82.8389 -380.104 0.
-55.5576 -62.7033 0.
-51.5539 -98.4498 0.
-67.1999 -134.908 0.
19.3722 -112.972 0.
39.4234 -66.1771 0.
59.4745 -19.3818 0.
160.159 33.9824 0.
146.938 3.0733 0.
133.717 -27.8358 0.
52.8483 -61.8294 0.
60.3321 -44.5015 0.
67.8159 -27.1736 0.
148.929 -36.2807 0.
122.012 -99.2366 0.
94.1653 -163.628 0.
60.6862 -241.756 0.
27.207 -319.883 0.
74.7583 -344.31 0.
71.8448 -351.138 0.
68.9314 -357.966 0.
156.87 -308.942 0.
170.168 -278.001 0.
183.467 -247.06 0.
197.548 -249.29 0.
188.106 -271.356 0.
266.223 -255.857 0.
388.551 -194.518 0.
393.403 -183.186 0.
48.2344 -332.335 0.
27.7604 -380.155 0.
7.28641 -427.975 0.
30.6502 -436.459 0.
34.7029 -427.048 0.
38.7555 -417.637 0.
-21.4478 -436.784 0.
-18.2985 -429.447 0.
-15.1491 -422.111 0.
131.399 -346.392 0.
138.929 -328.785 0.
70.1199 -341.484 0.
88.4105 -298.79 0.
106.701 -256.096 0.
89.0594 -236.955 0.
94.5143 -224.187 0.
99.9691 -211.42 0.
166.681 -159.798 0.
184.098 -119.178 0.
201.515 -78.5578 0.
168.827 -111.482 0.
151.06 -152.982 0.
109.24 -204.784 0.
343.846 -63.4915 0.
365.213 -13.5902 0.
213.898 -63.041 0.
175.612 -152.351 0.
137.326 -241.66 0.
37.4488 -333.04 0.
27.8182 -355.544 0.
18.1877 -378.048 0.
74.3505 -324.813 0.
102.032 -260.178 0.
129.714 -195.543 0.
75.6527 -251.669 0.
53.041 -304.451 0.
102.622 -319.622 0.
107.222 -308.854 0.
111.823 -298.085 0.
62.473 -321.494 0.
50.2706 -349.874 0.
38.0681 -378.254 0.
90.8662 -376.618 0.
80.5812 -400.624 0.
70.2963 -424.631 0.
341.147 -284.869 0.
359.924 -241.081 0.
292.273 -234.401 0.
129.969 -317.929 0.
122.555 -335.109 0.
42.4358 -379.456 0.
44.2235 -375.225 0.
46.0112 -370.994 0.
-55.5796 -384.971 0.
-23.4059 -309.866 0.
8.76774 -234.761 0.
-30.2545 -220.928 0.
-21.978 -201.602 0.
-13.7015 -182.276 0.
138.249 -78.5053 0.
159.929 -27.6944 0.
118.175 -8.16315 0.
120.487 -2.71564 0.
122.799 2.73186 0.
167.507 26.4302 0.
169.903 32.0815 0.
172.299 37.7328 0.
34.9489 -31.5419 0.
23.2132 -58.9702 0.
11.4776 -86.3984 0.
-127.399 -246.327 0.
-191.114 -394.876 0.
73.2303 76.242 0.
-15.0204 -65.349 0.
-39.3224 -122.08 0.
82.7409 -32.567 0.
100.566 9.04142 0.
104.267 17.6665 0.
118.486 -14.0053 0.
100.042 -57.1248 0.
115.599 -20.9441 0.
51.3713 -25.9567 0.
54.3711 -19.0825 0.
32.5215 -70.1887 0.
140.682 -69.0986 0.
120.073 -117.186 0.
87.713 -168.453 0.
48.3654 -260.296 0.
36.4121 -288.26 0.
135.775 -180.506 0.
180.533 -76.1311 0.
188.703 -57.1085 0.
205.369 -108.01 0.
195.453 -131.166 0.
205.87 -106.878 0.
280.375 -86.0279 0.
284.81 -75.7051 0.
359.451 -3.1879 0.
539.76 23.1416 0.
558.274 66.3469 0.
133.508 -45.3498 0.
117.071 -83.7437 0.
85.7276 -156.938 0.
158.86 -178.838 0.
150.335 -198.77 0.
181.973 -124.984 0.
192.498 -22.8088 0.
229.722 63.9399 0.
212.983 24.8025 0.
274.448 -40.265 0.
245.17 -108.735 0.
110.769 -141.408 0.
112.652 -137.03 0.
114.711 -132.243 0.
124.733 -119.635 0.
129.839 -107.768 0.
131.713 -103.443 0.
165.599 -69.5915 0.
192.793 -6.13441 0.
220.732 59.0584 0.
199.724 59.9001 0.
201.135 63.1761 0.
110.443 13.5631 0.
443.011 96.9543 0.
417.227 36.7897 0.
188.931 -89.2018 0.
218.7 -19.7663 0.
249.712 52.5683 0.
142.998 20.6782 0.
120.405 -32.0524 0.
94.5842 -92.3158 0.
161.286 -84.4523 0.
160.945 -85.2234 0.
163.089 -80.2005 0.
121.748 -113.98 0.
142.754 -64.8351 0.
274.716 76.9052 0.
258.918 40.1492 0.
217.12 -57.2849 0.
101.315 -210.469 0.
97.9691 -218.287 0.
156.716 -81.2249 0.
338.955 87.4887 0.
333.881 75.6884 0.
337.094 83.1924 0.
490.797 55.8368 0.
448.697 -42.4076 0.
378.894 -93.8152 0.
264.345 -120.71 0.
264.987 -119.228 0.
104.5 -168.055 0.
92.756 -195.469 0.
111.683 -151.304 0.
30.2279 -166.782 0.
-1.44852 -240.648 0.
-19.5547 -282.867 0.
-40.0199 -266.62 0.
-11.4333 -199.889 0.
26.3485 -111.728 0.
120.712 2.32636 0.
159.164 92.0314 0.
186.703 169.624 0.
175.84 144.432 0.
154.013 93.6399 0.
191.242 92.7401 0.
172.307 48.6054 0.
174.153 52.9371 0.
94.6727 8.37962 0.
68.6201 -52.5188 0.
64.9249 -61.2195 0.
-150.961 -68.5681 0.
-91.5399 70.1183 0.
-82.0035 -83.492 0.
5.51488 -44.3675 0.
5.29111 -44.8606 0.
60.5177 -26.2452 0.
49.0949 -52.9149 0.
37.6722 -79.5846 0.
86.5449 -66.0844 0.
92.328 -52.6861 0.
98.1111 -39.2878 0.
22.3635 -76.2284 0.
15.8929 -91.3492 0.
9.4224 -106.47 0.
157.53 -73.3588 0.
140.28 -113.646 0.
94.1711 -160.116 0.
108.224 -127.353 0.
122.276 -94.5898 0.
212.987 -39.9913 0.
209.188 -48.8556 0.
205.388 -57.7198 0.
227.059 -78.5335 0.
201.357 -138.515 0.
175.655 -198.496 0.
176.686 -198.565 0.
184.073 -181.275 0.
285.141 -123.732 0.
432.525 -93.8387 0.
415.01 -134.72 0.
61.9563 -307.988 0.
71.4799 -285.749 0.
81.0035 -263.509 0.
146.442 -226.642 0.
144.994 -230.019 0.
143.546 -233.396 0.
65.3256 -277.443 0.
57.8931 -294.812 0.
50.4605 -312.181 0.
159.952 -252.903 0.
168.341 -233.34 0.
82.1072 -251.612 0.
102.902 -203.087 0.
123.697 -154.563 0.
110.872 -129.492 0.
117.404 -114.295 0.
123.936 -99.0975 0.
187.571 -73.0874 0.
181.174 -88.022 0.
174.777 -102.957 0.
135.232 -120.143 0.
136.905 -116.209 0.
-8.90077 -175.479 0.
332.909 -66.6433 0.
313.138 -112.744 0.
78.2572 -227.503 0.
113.958 -144.244 0.
149.659 -60.9847 0.
106.242 -46.3993 0.
100.948 -58.7521 0.
95.6542 -71.105 0.
146.408 -96.2233 0.
112.185 -176.119 0.
77.9611 -256.015 0.
106.228 -269.062 0.
95.6524 -293.716 0.
87.3025 -315.289 0.
85.6481 -319.157 0.
83.9937 -323.025 0.
87.6252 -305.347 0.
115.517 -240.298 0.
143.409 -175.249 0.
243.197 -121.563 0.
231.48 -148.926 0.
219.763 -176.29 0.
382.91 -140.082 0.
363.739 -184.77 0.
208.407 -286.904 0.
201.646 -210.238 0.
243.523 -112.574 0.
140.139 -93.0406 0.
145.076 -81.5279 0.
150.012 -70.0153 0.
45.7259 -118.388 0.
35.2896 -142.735 0.
24.8534 -167.081 0.
17.0886 -153.762 0.
35.2262 -111.412 0.
53.3637 -69.0621 0.
174.165 -0.990866 0.
181.61 16.4503 0.
117.476 3.83203 0.
127.871 28.144 0.
138.267 52.456 0.
168.393 71.6057 0.
157.769 46.8355 0.
147.145 22.0652 0.
63.8121 -15.7478 0.
70.079 -1.12458 0.
76.3459 13.4987 0.
-29.4184 -11.7958 0.
-17.9291 15.0257 0.
163.772 53.3772 0.
36.1203 0.201561 0.
35.8959 -0.2898 0.
46.4462 -0.853204 0.
35.0204 -27.5179 0.
23.5947 -54.1826 0.
91.1273 -32.6695 0.
96.9127 -19.2705 0.
102.698 -5.87157 0.
29.7798 -41.6108 0.
23.3153 -56.7328 0.
16.8508 -71.8548 0.
196.924 -25.0456 0.
179.681 -65.3408 0.
114.265 -120.062 0.
128.308 -87.2892 0.
142.351 -54.5164 0.
250.169 7.39882 0.
246.368 -1.4656 0.
242.567 -10.33 0.
254.574 -35.3382 0.
228.87 -95.3187 0.
203.166 -155.299 0.
125.005 -189.25 0.
132.393 -171.959 0.
326.369 -74.6053 0.
379.008 -85.3571 0.
361.494 -126.235 0.
128.673 -247.927 0.
138.194 -225.683 0.
147.715 -203.438 0.
172.868 -183.871 0.
171.422 -187.25 0.
169.977 -190.63 0.
59.8432 -248.33 0.
52.4108 -265.702 0.
44.9785 -283.074 0.
147.585 -226.769 0.
155.97 -207.2 0.
121.177 -203.445 0.
141.969 -154.919 0.
162.761 -106.392 0.
115.545 -96.0472 0.
122.076 -80.8517 0.
128.608 -65.6562 0.
232.793 -22.3021 0.
226.397 -37.2384 0.
220.001 -52.1747 0.
167.108 -75.034 0.
168.788 -71.1041 0.
17.1132 -132.908 0.
300.105 -49.2793 0.
280.336 -95.3805 0.
31.6679 -216.036 0.
67.3634 -132.78 0.
103.059 -49.5234 0.
112.877 -12.1186 0.
107.583 -24.4727 0.
102.29 -36.8268 0.
150.649 -62.9635 0.
116.428 -142.857 0.
82.207 -222.75 0.
184.936 -203.914 0.
174.349 -228.56 0.
80.3341 -286.805 0.
78.6756 -290.671 0.
77.0171 -294.537 0.
137.263 -252.654 0.
165.149 -187.599 0.
193.034 -122.544 0.
252.174 -86.234 0.
240.463 -113.601 0.
228.753 -140.968 0.
369.88 -114.232 0.
350.7 -158.906 0.
243.208 -240.568 0.
188.279 -184.519 0.
230.145 -86.8505 0.
160.901 -52.727 0.
165.834 -41.2123 0.
170.768 -29.6975 0.
55.6725 -82.7035 0.
45.2331 -107.047 0.
34.7937 -131.391 0.
44.1762 -110.71 0.
62.323 -68.3702 0.
80.4697 -26.0305 0.
257.958 66.3605 0.
265.399 83.8045 0.
136.276 43.3312 0.
146.668 67.6427 0.
157.061 91.9541 0.
168.095 102.932 0.
157.464 78.1659 0.
146.834 53.4001 0.
55.0872 11.9353 0.
61.3521 26.559 0.
67.6171 41.1826 0.
106.206 77.7672 0.
117.699 104.594 0.
80.556 -57.0133 0.
7.85663 -81.5354 0.
10.0012 -76.5948 0.
16.4587 -61.111 0.
39.9417 -6.37788 0.
63.4247 48.3552 0.
130.75 103.42 0.
132.088 106.56 0.
133.427 109.7 0.
90.5181 89.9199 0.
88.7261 85.6558 0.
86.934 81.3916 0.
257.854 119.885 0.
237.512 72.2593 0.
187.966 12.909 0.
171.288 -26.0926 0.
154.61 -65.0942 0.
228.364 -60.2931 0.
219.739 -80.4893 0.
211.113 -100.686 0.
232.375 -88.3964 0.
242.585 -64.6403 0.
252.795 -40.8841 0.
123.656 -117.762 0.
106.077 -158.772 0.
360.868 -83.065 0.
349.956 -102.105 0.
342.549 -119.404 0.
163.466 -202.881 0.
173.555 -179.318 0.
183.643 -155.755 0.
181.557 -152.051 0.
174.274 -169.094 0.
166.992 -186.137 0.
63.5151 -224.761 0.
71.8113 -205.433 0.
80.1076 -186.105 0.
162.947 -161.372 0.
155.614 -178.447 0.
95.5996 -214.493 0.
104.574 -193.578 0.
113.548 -172.662 0.
77.4458 -174.897 0.
80.4242 -167.918 0.
83.4026 -160.94 0.
194.601 -86.5496 0.
217.602 -32.9244 0.
240.604 20.7008 0.
208.593 27.9968 0.
216.187 45.7248 0.
-14.3904 -38.6375 0.
357.786 119.842 0.
357.249 118.572 0.
105.222 -0.882287 0.
80.2799 -59.0432 0.
55.3382 -117.204 0.
55.4153 -159.431 0.
36.5818 -203.393 0.
17.7483 -247.354 0.
67.3112 -250.284 0.
57.7155 -272.701 0.
48.1198 -295.118 0.
202.629 -183.065 0.
230.951 -117.002 0.
141.495 -106.995 0.
143.072 -103.295 0.
144.649 -99.5962 0.
216.343 -67.6743 0.
214.959 -70.8775 0.
213.576 -74.0807 0.
227.638 -87.0687 0.
210.749 -126.45 0.
193.86 -165.832 0.
389.495 -72.4658 0.
400.802 -46.1871 0.
394.727 -27.3613 0.
189.039 -125.632 0.
183.73 -138.024 0.
127.611 -164.412 0.
139.832 -135.837 0.
152.054 -107.263 0.
69.2122 -114.85 0.
86.9727 -73.4127 0.
104.733 -31.9756 0.
82.9131 -35.9871 0.
78.3043 -46.6255 0.
73.6955 -57.2639 0.
276.697 69.4749 0.
300.435 125.043 0.
170.756 112.129 0.
182.305 139.105 0.
193.855 166.081 0.
192.809 175.366 0.
185.511 158.376 0.
178.213 141.386 0.
73.9528 61.5728 0.
46.6633 -2.08601 0.
19.3739 -65.7448 0.
57.255 -121.697 0.
16.918 -215.832 0.
3.60801 -58.5801 0.
24.4972 -42.956 0.
26.642 -38.0139 0.
51.8158 -14.4865 0.
75.2966 40.2496 0.
98.7773 94.9857 0.
113.501 127.471 0.
114.841 130.61 0.
116.181 133.749 0.
125.463 136.358 0.
123.674 132.096 0.
121.884 127.833 0.
249.842 147.834 0.
229.497 100.214 0.
241.852 67.4478 0.
225.176 28.4435 0.
208.5 -10.5608 0.
242.11 -22.9735 0.
233.488 -43.1725 0.
224.867 -63.3716 0.
239.244 -54.0022 0.
249.46 -30.251 0.
259.675 -6.49992 0.
129.831 -83.6856 0.
112.252 -124.694 0.
391.545 -38.4635 0.
381.608 -57.1059 0.
374.211 -74.4133 0.
167.893 -169.553 0.
177.979 -145.987 0.
188.066 -122.422 0.
176.976 -122.548 0.
169.695 -139.59 0.
162.414 -156.632 0.
86.1559 -183.578 0.
94.4595 -164.259 0.
102.763 -144.939 0.
178.415 -123.321 0.
171.079 -140.393 0.
40.1737 -206.802 0.
49.14 -185.879 0.
58.1062 -164.956 0.
95.7486 -135.604 0.
98.7291 -128.627 0.
101.71 -121.651 0.
157.883 -70.8859 0.
180.876 -17.2593 0.
203.869 36.3672 0.
203.428 57.2214 0.
211.026 74.943 0.
115.529 48.476 0.
388.398 164.399 0.
387.857 163.131 0.
138.77 44.9275 0.
113.825 -13.2335 0.
88.8805 -71.3944 0.
96.1681 -110.514 0.
77.3349 -154.478 0.
58.5016 -198.443 0.
89.1831 -209.454 0.
79.5859 -231.867 0.
69.9887 -254.28 0.
180.697 -161.04 0.
209.015 -94.9786 0.
142.37 -75.1759 0.
143.944 -71.4762 0.
145.518 -67.7765 0.
200.499 -43.0198 0.
199.117 -46.2248 0.
197.735 -49.4297 0.
192.656 -70.6151 0.
175.772 -109.999 0.
158.888 -149.384 0.
438.691 -19.9481 0.
449.993 6.3382 0.
402.992 7.58017 0.
175.252 -100.124 0.
169.938 -112.512 0.
175.038 -112.625 0.
187.265 -84.0588 0.
199.493 -55.4926 0.
157.706 -45.4993 0.
175.467 -4.05868 0.
193.228 37.3819 0.
106.377 5.51087 0.
101.76 -5.12138 0.
97.1433 -15.7536 0.
270.166 98.0902 0.
293.903 153.658 0.
196.265 154.532 0.
207.811 181.508 0.
219.357 208.484 0.
209.65 214.021 0.
202.345 197.035 0.
195.04 180.049 0.
108.107 107.698 0.
80.8139 44.0402 0.
53.5207 -19.6177 0.
47.0453 -94.6541 0.
6.70976 -188.783 0.
23.3233 -36.0521 0.
22.8292 -44.6255 0.
21.7776 -47.3366 0.
65.9178 -15.8762 0.
57.198 -36.18 0.
33.3626 -91.7757 0.
-31.6432 -149.766 0.
-14.2605 -109.311 0.
12.2411 -47.6122 0.
73.8671 -19.5865 0.
59.2719 -53.7158 0.
37.6129 -104.318 0.
152.711 -35.985 0.
165.523 -6.17331 0.
264.168 50.7404 0.
236.085 -14.9099 0.
225.603 -39.5228 0.
251.955 5.63592 0.
272.255 52.9132 0.
261.167 26.9096 0.
274.811 47.3587 0.
274.018 45.3689 0.
251.117 -8.19668 0.
115.025 -99.1959 0.
114.051 -101.477 0.
421.107 59.1828 0.
475.323 134.408 0.
487.316 162.389 0.
248.782 43.2341 0.
221.733 -19.8777 0.
213.021 -40.2446 0.
196.402 -37.7549 0.
199.494 -30.5863 0.
204.745 -18.3609 0.
185.345 36.4382 0.
215.766 107.368 0.
223.234 124.773 0.
289.819 139.778 0.
294.344 150.415 0.
117.41 111.005 0.
110.786 95.5713 0.
108.133 89.4032 0.
206.484 118.844 0.
184.399 67.3172 0.
159.337 8.84629 0.
136.767 -18.841 0.
141.609 -7.55942 0.
146.387 3.57373 0.
185.971 57.1056 0.
210.704 114.775 0.
99.6462 117.4 0.
413.676 198.367 0.
382.016 124.481 0.
118.661 -34.8983 0.
111.001 -52.8283 0.
102.396 -72.964 0.
147.765 -35.6799 0.
178.104 35.1078 0.
209.131 107.496 0.
231.353 113.528 0.
216.295 78.3614 0.
204.517 50.8499 0.
234.847 39.3531 0.
235.481 40.8684 0.
185.846 55.6249 0.
216.454 127.055 0.
202.424 94.3854 0.
204.092 26.1805 0.
187.672 -12.1001 0.
191.333 -3.53334 0.
180.275 -2.10387 0.
185.817 10.8176 0.
196.489 35.689 0.
543.668 164.767 0.
512.907 93.0705 0.
364.254 -28.0672 0.
162.764 -71.6111 0.
173.47 -46.6185 0.
244.137 -9.76474 0.
231.266 -39.6614 0.
216.769 -73.3392 0.
225.636 -21.2128 0.
242.39 17.9435 0.
256.849 51.6924 0.
108.858 -2.74224 0.
109.765 -0.705947 0.
115.987 13.7292 0.
230.651 46.1499 0.
216.042 12.125 0.
112.047 -58.8317 0.
116.481 -48.3878 0.
119.622 -40.9718 0.
97.4463 -49.6842 0.
88.8611 -69.7213 0.
91.619 -63.3233 0.
45.3616 -73.7021 0.
37.2716 -92.5726 0.
28.1292 -113.865 0.
35.2829 -70.7139 0.
92.0243 61.8134 0.
33.6808 -90.8775 0.
42.6229 0.972934 0.
89.4189 110.031 0.
111.034 175.782 0.
78.9359 100.85 0.
46.8378 25.9191 0.
118.614 26.2495 0.
123.409 37.327 0.
128.204 48.4045 0.
126.664 38.4727 0.
116.794 15.3856 0.
106.924 -7.70147 0.
243.313 52.1016 0.
245.443 56.9685 0.
179.225 30.1844 0.
171.504 12.0246 0.
163.783 -6.1352 0.
239.214 16.777 0.
239.796 18.0187 0.
240.378 19.2605 0.
218.908 -9.71533 0.
199.787 -54.4857 0.
180.666 -99.2561 0.
101.374 -136.763 0.
104.721 -129.075 0.
431.116 17.0741 0.
369.884 7.07109 0.
378.464 27.1015 0.
184.427 -44.8487 0.
180.39 -54.3039 0.
176.352 -63.7591 0.
195.326 -89.683 0.
159.976 -172.209 0.
124.627 -254.735 0.
59.9909 -243.434 0.
108.761 -129.682 0.
157.532 -15.9306 0.
224.245 16.1127 0.
220.012 6.29103 0.
-1.16606 -94.5938 0.
3.68808 -83.2457 0.
8.54222 -71.8977 0.
205.881 8.43451 0.
189.411 -30.0194 0.
172.941 -68.4733 0.
60.3345 -135.55 0.
55.7427 -146.287 0.
51.1509 -157.024 0.
179.184 -73.0671 0.
200.216 -24.0264 0.
-48.6035 -90.6981 0.
244.783 -1.30841 0.
225.708 -45.8386 0.
142.517 -109.44 0.
143.212 -107.881 0.
143.908 -106.321 0.
122.319 -90.2256 0.
151.263 -22.7203 0.
180.207 44.785 0.
104.804 -6.69721 0.
75.357 -75.4813 0.
45.9097 -144.265 0.
133.519 -130.842 0.
122.988 -155.446 0.
110.183 -177.551 0.
116.088 -163.746 0.
121.994 -149.94 0.
162.904 -116.585 0.
175.875 -86.28 0.
188.846 -55.9744 0.
227.567 -37.8028 0.
218.795 -58.2441 0.
210.023 -78.6855 0.
431.527 -0.409459 0.
422.694 -20.8862 0.
318.446 -81.8193 0.
85.382 -102.958 0.
126.719 -6.45288 0.
228.279 86.2735 0.
200.555 21.6785 0.
172.83 -42.9166 0.
147.24 -79.5991 0.
151.058 -70.6032 0.
154.875 -61.6073 0.
72.3518 -61.1298 0.
98.7059 0.290736 0.
125.06 61.7113 0.
348.118 157.994 0.
345.186 151.176 0.
184.968 74.1921 0.
169.601 38.4367 0.
154.235 2.68128 0.
171.775 -0.653305 0.
184.784 29.7015 0.
197.792 60.0564 0.
150.658 49.3576 0.
149.515 46.7138 0.
148.372 44.07 0.
59.6652 -6.6278 0.
51.1588 -26.3263 0.
122.366 -21.3789 0.
59.4862 39.6858 0.
106.284 148.747 0.
82.095 194.791 0.
49.9848 119.872 0.
17.8747 44.9533 0.
226.539 103.917 0.
231.333 115 0.
236.127 126.082 0.
177.543 91.7006 0.
167.674 68.6171 0.
157.805 45.5335 0.
324.653 118.444 0.
326.785 123.305 0.
102.204 28.5699 0.
94.4833 10.4159 0.
86.7627 -7.7382 0.
234.191 46.0931 0.
234.778 47.3309 0.
235.365 48.5686 0.
196.997 12.3089 0.
177.888 -32.4706 0.
158.778 -77.2501 0.
121.034 -96.8645 0.
124.383 -89.1776 0.
517.341 85.4932 0.
323.972 18.834 0.
332.555 38.8636 0.
168.28 -20.3351 0.
164.234 -29.786 0.
160.188 -39.2369 0.
237.68 -40.1011 0.
202.34 -122.637 0.
167 -205.173 0.
69.9909 -207.687 0.
118.774 -93.9451 0.
167.558 19.7967 0.
225.509 48.1343 0.
221.275 38.3154 0.
-21.9799 -72.1049 0.
-17.1269 -60.7531 0.
-12.2738 -49.4013 0.
279.757 71.5472 0.
263.291 33.0883 0.
246.824 -5.37053 0.
44.4908 -110.887 0.
39.9002 -121.627 0.
35.3096 -132.367 0.
256.126 -8.66439 0.
277.154 40.3814 0.
23.3561 -28.4443 0.
159.458 -6.44939 0.
140.39 -50.9769 0.
227.699 -41.5035 0.
228.393 -39.9372 0.
229.087 -38.3709 0.
136.213 -52.8354 0.
165.169 14.6604 0.
194.125 82.1561 0.
29.4566 -7.55906 0.
0.0221645 -76.3461 0.
-29.4123 -145.133 0.
115.418 -107.096 0.
104.903 -131.713 0.
156.594 -126.239 0.
162.492 -112.431 0.
168.39 -98.6221 0.
203.84 -67.6017 0.
216.806 -37.2913 0.
229.771 -6.98091 0.
320.626 33.5266 0.
311.861 13.0758 0.
303.096 -7.37504 0.
397.368 16.4066 0.
388.525 -4.05334 0.
286.48 -64.0844 0.
23.6178 -97.9941 0.
64.9515 -1.49412 0.
175.073 94.918 0.
147.345 30.3352 0.
119.616 -34.2476 0.
98.0726 -69.2498 0.
101.889 -60.2544 0.
105.706 -51.2589 0.
74.6755 -28.7364 0.
101.03 32.6791 0.
127.384 94.0946 0.
450.171 233.208 0.
447.243 226.389 0.
220.813 121.006 0.
205.442 85.2539 0.
190.071 49.5016 0.
253.524 65.7987 0.
266.532 96.1564 0.
279.539 126.514 0.
231.635 115.508 0.
230.492 112.861 0.
229.349 110.214 0.
72.5893 30.3658 0.
64.0753 10.6677 0.
