# vtk DataFile Version 2.0
test grain
ASCII
DATASET UNSTRUCTURED_GRID
POINTS 5000 float
0.499925 0.00100017 0.
0.501926 0.00100012 0.
0.503927 0.00100008 0.
0.505929 0.00100005 0.
0.50793 0.00100003 0.
0.509932 0.00100001 0.
0.511933 0.001 0.
0.513935 0.001 0.
0.515936 0.001 0.
0.517938 0.001 0.
0.519939 0.001 0.
0.521941 0.00100001 0.
0.523942 0.001 0.
0.525943 0.001 0.
0.527944 0.001 0.
0.529946 0.000999999 0.
0.531948 0.000999999 0.
0.53395 0.000999998 0.
0.53595 0.000999999 0.
0.537951 0.001 0.
0.539952 0.001 0.
0.541954 0.001 0.
0.543956 0.001 0.
0.545958 0.001 0.
0.54796 0.001 0.
0.549962 0.001 0.
0.551963 0.001 0.
0.553964 0.001 0.
0.555966 0.001 0.
0.557968 0.001 0.
0.55997 0.001 0.
0.561971 0.000999999 0.
0.563973 0.001 0.
0.565974 0.001 0.
0.567975 0.001 0.
0.569977 0.001 0.
0.571978 0.000999999 0.
0.57398 0.001 0.
0.575982 0.001 0.
0.577984 0.001 0.
0.579986 0.001 0.
0.581987 0.001 0.
0.583989 0.000999999 0.
0.58599 0.001 0.
0.587991 0.001 0.
0.589993 0.001 0.
0.591994 0.001 0.
0.593996 0.001 0.
0.595997 0.001 0.
0.597999 0.000999999 0.
0.6 0.000999998 0.
0.602004 0.000999999 0.
0.604008 0.001 0.
0.606012 0.001 0.
0.608012 0.001 0.
0.610013 0.001 0.
0.612014 0.001 0.
0.614016 0.001 0.
0.616017 0.001 0.
0.618019 0.001 0.
0.620021 0.001 0.
0.622022 0.001 0.
0.624024 0.001 0.
0.626025 0.001 0.
0.628027 0.001 0.
0.630028 0.001 0.
0.632029 0.001 0.
0.63403 0.000999999 0.
0.636032 0.000999998 0.
0.638034 0.000999996 0.
0.640035 0.000999996 0.
0.642037 0.000999997 0.
0.644038 0.000999998 0.
0.64604 0.000999998 0.
0.648042 0.000999998 0.
0.650044 0.000999998 0.
0.652045 0.000999997 0.
0.654047 0.000999997 0.
0.656048 0.000999998 0.
0.65805 0.000999999 0.
0.660051 0.000999999 0.
0.662052 0.000999999 0.
0.664054 0.000999997 0.
0.666056 0.000999996 0.
0.668057 0.000999998 0.
0.670058 0.000999998 0.
0.67206 0.000999998 0.
0.674062 0.000999999 0.
0.676063 0.001 0.
0.678065 0.001 0.
0.680067 0.001 0.
0.682068 0.001 0.
0.684069 0.001 0.
0.686071 0.001 0.
0.688073 0.000999999 0.
0.690075 0.00100001 0.
0.692077 0.00100002 0.
0.694079 0.00100003 0.
0.69608 0.00100006 0.
0.698082 0.0010001 0.
0.499925 0.0030005 0.
0.501926 0.00300036 0.
0.503927 0.00300025 0.
0.505929 0.00300014 0.
0.50793 0.00300009 0.
0.509932 0.00300004 0.
0.511933 0.00300001 0.
0.513935 0.00300001 0.
0.515937 0.00300001 0.
0.517938 0.00300001 0.
0.519939 0.00300001 0.
0.521941 0.00300002 0.
0.523942 0.00300001 0.
0.525943 0.003 0.
0.527944 0.003 0.
0.529946 0.003 0.
0.531948 0.003 0.
0.53395 0.003 0.
0.535951 0.003 0.
0.537952 0.003 0.
0.539953 0.003 0.
0.541955 0.003 0.
0.543957 0.003 0.
0.545958 0.003 0.
0.54796 0.003 0.
0.549962 0.003 0.
0.551963 0.003 0.
0.553965 0.00300001 0.
0.555966 0.00300001 0.
0.557968 0.003 0.
0.55997 0.003 0.
0.561971 0.003 0.
0.563973 0.003 0.
0.565974 0.003 0.
0.567976 0.003 0.
0.569978 0.003 0.
0.571979 0.003 0.
0.573981 0.003 0.
0.575982 0.003 0.
0.577984 0.00300001 0.
0.579986 0.003 0.
0.581988 0.003 0.
0.583989 0.003 0.
0.58599 0.003 0.
0.587991 0.003 0.
0.589993 0.003 0.
0.591994 0.003 0.
0.593996 0.003 0.
0.595997 0.003 0.
0.597999 0.003 0.
0.6 0.00299999 0.
0.602004 0.003 0.
0.604008 0.003 0.
0.606011 0.003 0.
0.608012 0.00300001 0.
0.610013 0.00300001 0.
0.612014 0.00300001 0.
0.614016 0.00300001 0.
0.616017 0.00300001 0.
0.618019 0.00300001 0.
0.62002 0.00300001 0.
0.622022 0.00300001 0.
0.624023 0.00300001 0.
0.626024 0.00300001 0.
0.628026 0.00300001 0.
0.630027 0.003 0.
0.632028 0.003 0.
0.63403 0.003 0.
0.636032 0.00299999 0.
0.638034 0.00299999 0.
0.640035 0.00299999 0.
0.642037 0.00299999 0.
0.644038 0.00299999 0.
0.64604 0.00299999 0.
0.648041 0.00299999 0.
0.650043 0.00299999 0.
0.652045 0.00299999 0.
0.654046 0.00299999 0.
0.656048 0.00299999 0.
0.65805 0.003 0.
0.660051 0.003 0.
0.662053 0.003 0.
0.664055 0.00299999 0.
0.666056 0.00299999 0.
0.668058 0.00299999 0.
0.670059 0.00299999 0.
0.672061 0.00299999 0.
0.674062 0.003 0.
0.676064 0.003 0.
0.678065 0.00300001 0.
0.680067 0.003 0.
0.682069 0.003 0.
0.68407 0.003 0.
0.686072 0.003 0.
0.688073 0.003 0.
0.690075 0.00300002 0.
0.692076 0.00300006 0.
0.694078 0.0030001 0.
0.69608 0.00300019 0.
0.698081 0.0030003 0.
0.499924 0.00500081 0.
0.501926 0.0050006 0.
0.503927 0.00500041 0.
0.505928 0.00500024 0.
0.50793 0.00500015 0.
0.509932 0.00500006 0.
0.511933 0.00500001 0.
0.513935 0.00500001 0.
0.515937 0.00500001 0.
0.517938 0.00500002 0.
0.51994 0.00500002 0.
0.521941 0.00500003 0.
0.523942 0.00500002 0.
0.525943 0.00500001 0.
0.527944 0.005 0.
0.529946 0.00499999 0.
0.531948 0.00499999 0.
0.533949 0.00499999 0.
0.535951 0.005 0.
0.537952 0.005 0.
0.539954 0.00500001 0.
0.541956 0.005 0.
0.543958 0.005 0.
0.545959 0.005 0.
0.54796 0.005 0.
0.549961 0.005 0.
0.551963 0.005 0.
0.553965 0.00500001 0.
0.555967 0.00500001 0.
0.557968 0.00500001 0.
0.55997 0.005 0.
0.561972 0.00499999 0.
0.563973 0.005 0.
0.565975 0.005 0.
0.567977 0.005 0.
0.569978 0.005 0.
0.57198 0.005 0.
0.573982 0.005 0.
0.575983 0.00500001 0.
0.577984 0.00500001 0.
0.579986 0.005 0.
0.581988 0.005 0.
0.583989 0.005 0.
0.58599 0.005 0.
0.587991 0.005 0.
0.589992 0.005 0.
0.591994 0.005 0.
0.593996 0.005 0.
0.595997 0.005 0.
0.597999 0.005 0.
0.6 0.00499999 0.
0.602004 0.00499999 0.
0.604007 0.005 0.
0.60601 0.00500001 0.
0.608011 0.00500001 0.
0.610013 0.00500001 0.
0.612014 0.00500002 0.
0.614015 0.00500002 0.
0.616017 0.00500002 0.
0.618018 0.00500002 0.
0.62002 0.00500002 0.
0.622022 0.00500002 0.
0.624023 0.00500001 0.
0.626023 0.00500001 0.
0.628024 0.00500001 0.
0.630026 0.005 0.
0.632028 0.005 0.
0.634029 0.005 0.
0.636031 0.00499999 0.
0.638034 0.00499998 0.
0.640035 0.00499998 0.
0.642037 0.00499998 0.
0.644038 0.00499999 0.
0.646039 0.00499999 0.
0.64804 0.00499999 0.
0.650042 0.00499999 0.
0.652044 0.00499999 0.
0.654046 0.00499999 0.
0.656048 0.00499999 0.
0.65805 0.00499999 0.
0.660051 0.00499999 0.
0.662053 0.00499999 0.
0.664055 0.00499999 0.
0.666057 0.00499998 0.
0.668059 0.00499998 0.
0.67006 0.00499999 0.
0.672062 0.00499999 0.
0.674063 0.00499999 0.
0.676064 0.005 0.
0.678065 0.00500001 0.
0.680067 0.00500001 0.
0.682069 0.005 0.
0.684071 0.005 0.
0.686072 0.005 0.
0.688073 0.005 0.
0.690074 0.00500003 0.
0.692076 0.0050001 0.
0.694078 0.00500017 0.
0.696079 0.00500032 0.
0.69808 0.00500049 0.
0.499925 0.00700237 0.
0.501926 0.00700206 0.
0.503928 0.00700157 0.
0.505929 0.00700121 0.
0.507931 0.00700137 0.
0.509933 0.00700153 0.
0.511934 0.00700162 0.
0.513936 0.00700161 0.
0.515937 0.00700161 0.
0.517938 0.00700161 0.
0.51994 0.00700162 0.
0.521941 0.00700163 0.
0.523942 0.00700148 0.
0.525944 0.00700131 0.
0.527945 0.00700116 0.
0.529947 0.00700119 0.
0.531948 0.00700122 0.
0.53395 0.00700125 0.
0.535951 0.00700128 0.
0.537952 0.00700131 0.
0.539954 0.00700126 0.
0.541956 0.00700114 0.
0.543958 0.00700101 0.
0.545959 0.00700073 0.
0.54796 0.00700039 0.
0.549961 0.00700006 0.
0.551963 0.0070002 0.
0.553965 0.00700035 0.
0.555967 0.00700052 0.
0.557969 0.00700075 0.
0.55997 0.00700099 0.
0.561972 0.00700113 0.
0.563973 0.00700115 0.
0.565975 0.00700117 0.
0.567977 0.0070013 0.
0.569978 0.00700148 0.
0.57198 0.00700166 0.
0.573981 0.00700167 0.
0.575983 0.00700165 0.
0.577984 0.00700163 0.
0.579986 0.00700159 0.
0.581988 0.00700155 0.
0.58399 0.00700157 0.
0.585991 0.00700167 0.
0.587992 0.00700178 0.
0.589993 0.00700173 0.
0.591994 0.00700156 0.
0.593996 0.00700139 0.
0.595997 0.00700126 0.
0.597999 0.00700114 0.
0.6 0.00700102 0.
0.602003 0.00700087 0.
0.604006 0.00700072 0.
0.606009 0.00700067 0.
0.608011 0.00700095 0.
0.610012 0.00700122 0.
0.612013 0.00700139 0.
0.614015 0.00700142 0.
0.616016 0.00700144 0.
0.618018 0.00700144 0.
0.62002 0.00700141 0.
0.622021 0.00700139 0.
0.624022 0.00700127 0.
0.626023 0.00700114 0.
0.628024 0.00700104 0.
0.630026 0.00700111 0.
0.632028 0.00700117 0.
0.634029 0.00700124 0.
0.636031 0.00700133 0.
0.638033 0.00700141 0.
0.640034 0.00700144 0.
0.642035 0.00700143 0.
0.644037 0.00700141 0.
0.646038 0.00700114 0.
0.64804 0.00700081 0.
0.650042 0.0070005 0.
0.652044 0.00700088 0.
0.654045 0.00700126 0.
0.656047 0.00700153 0.
0.658049 0.0070015 0.
0.660051 0.00700147 0.
0.662053 0.00700143 0.
0.664054 0.00700137 0.
0.666056 0.00700131 0.
0.668058 0.00700117 0.
0.67006 0.00700098 0.
0.672061 0.0070008 0.
0.674063 0.00700076 0.
0.676064 0.00700073 0.
0.678065 0.00700072 0.
0.680067 0.00700077 0.
0.682068 0.00700083 0.
0.68407 0.00700086 0.
0.686071 0.00700083 0.
0.688072 0.00700081 0.
0.690074 0.00700081 0.
0.692075 0.00700084 0.
0.694077 0.00700087 0.
0.696078 0.00700157 0.
0.698078 0.00700245 0.
0.499926 0.00900396 0.
0.501927 0.00900351 0.
0.503928 0.00900273 0.
0.50593 0.00900218 0.
0.507932 0.00900258 0.
0.509934 0.00900299 0.
0.511935 0.00900323 0.
0.513936 0.00900322 0.
0.515937 0.00900321 0.
0.517938 0.00900321 0.
0.51994 0.00900322 0.
0.521941 0.00900323 0.
0.523943 0.00900295 0.
0.525944 0.00900262 0.
0.527946 0.00900232 0.
0.529947 0.00900239 0.
0.531949 0.00900245 0.
0.53395 0.00900252 0.
0.535951 0.00900257 0.
0.537953 0.00900262 0.
0.539954 0.00900252 0.
0.541956 0.00900227 0.
0.543958 0.00900202 0.
0.545959 0.00900146 0.
0.54796 0.00900079 0.
0.549962 0.00900011 0.
0.551964 0.00900039 0.
0.553966 0.00900069 0.
0.555967 0.00900103 0.
0.557969 0.0090015 0.
0.559971 0.00900198 0.
0.561972 0.00900227 0.
0.563974 0.00900231 0.
0.565975 0.00900235 0.
0.567977 0.00900259 0.
0.569978 0.00900295 0.
0.57198 0.00900331 0.
0.573981 0.00900333 0.
0.575982 0.0090033 0.
0.577984 0.00900326 0.
0.579986 0.00900319 0.
0.581988 0.00900312 0.
0.58399 0.00900314 0.
0.585991 0.00900335 0.
0.587992 0.00900356 0.
0.589993 0.00900346 0.
0.591994 0.00900311 0.
0.593995 0.00900276 0.
0.595997 0.00900251 0.
0.597999 0.00900228 0.
0.6 0.00900205 0.
0.602003 0.00900175 0.
0.604006 0.00900144 0.
0.606008 0.00900134 0.
0.60801 0.00900189 0.
0.610011 0.00900243 0.
0.612013 0.00900276 0.
0.614014 0.00900281 0.
0.616016 0.00900287 0.
0.618018 0.00900286 0.
0.620019 0.00900281 0.
0.62202 0.00900277 0.
0.624022 0.00900253 0.
0.626023 0.00900228 0.
0.628025 0.00900207 0.
0.630026 0.00900221 0.
0.632028 0.00900234 0.
0.634029 0.00900249 0.
0.63603 0.00900266 0.
0.638032 0.00900284 0.
0.640033 0.00900291 0.
0.642034 0.00900287 0.
0.644036 0.00900283 0.
0.646038 0.00900229 0.
0.64804 0.00900163 0.
0.650042 0.009001 0.
0.652043 0.00900176 0.
0.654045 0.00900252 0.
0.656047 0.00900308 0.
0.658048 0.00900301 0.
0.66005 0.00900294 0.
0.662052 0.00900286 0.
0.664054 0.00900275 0.
0.666055 0.00900264 0.
0.668057 0.00900235 0.
0.670059 0.00900198 0.
0.67206 0.00900161 0.
0.674062 0.00900153 0.
0.676064 0.00900147 0.
0.678065 0.00900143 0.
0.680066 0.00900154 0.
0.682067 0.00900165 0.
0.684069 0.00900172 0.
0.68607 0.00900167 0.
0.688072 0.00900163 0.
0.690073 0.00900159 0.
0.692074 0.00900158 0.
0.694076 0.00900156 0.
0.696076 0.00900283 0.
0.698077 0.00900441 0.
0.499927 0.0110053 0.
0.501928 0.0110044 0.
0.503929 0.0110033 0.
0.505931 0.0110024 0.
0.507932 0.0110029 0.
0.509934 0.0110033 0.
0.511936 0.0110036 0.
0.513937 0.0110036 0.
0.515938 0.0110036 0.
0.517939 0.0110035 0.
0.519941 0.0110033 0.
0.521942 0.0110032 0.
0.523944 0.011003 0.
0.525945 0.0110028 0.
0.527947 0.0110026 0.
0.529948 0.0110026 0.
0.531949 0.0110026 0.
0.533951 0.0110026 0.
0.535952 0.0110026 0.
0.537953 0.0110027 0.
0.539955 0.0110026 0.
0.541956 0.0110023 0.
0.543958 0.011002 0.
0.545959 0.0110014 0.
0.547961 0.0110006 0.
0.549962 0.0109999 0.
0.551964 0.0110003 0.
0.553966 0.0110007 0.
0.555968 0.0110011 0.
0.557969 0.0110015 0.
0.559971 0.0110019 0.
0.561972 0.0110022 0.
0.563974 0.0110023 0.
0.565975 0.0110024 0.
0.567977 0.0110027 0.
0.569979 0.011003 0.
0.57198 0.0110033 0.
0.573982 0.0110034 0.
0.575983 0.0110035 0.
0.577984 0.0110035 0.
0.579986 0.0110034 0.
0.581988 0.0110033 0.
0.58399 0.0110033 0.
0.585991 0.0110035 0.
0.587993 0.0110037 0.
0.589994 0.0110036 0.
0.591995 0.0110032 0.
0.593996 0.0110029 0.
0.595997 0.0110026 0.
0.597999 0.0110024 0.
0.600001 0.0110021 0.
0.602003 0.0110018 0.
0.604006 0.0110015 0.
0.606008 0.0110014 0.
0.608009 0.0110019 0.
0.610011 0.0110025 0.
0.612012 0.0110028 0.
0.614014 0.011003 0.
0.616016 0.0110031 0.
0.618017 0.0110031 0.
0.620018 0.011003 0.
0.62202 0.0110029 0.
0.624021 0.0110026 0.
0.626023 0.0110023 0.
0.628024 0.011002 0.
0.630026 0.0110022 0.
0.632027 0.0110025 0.
0.634029 0.0110026 0.
0.63603 0.0110028 0.
0.638031 0.0110029 0.
0.640033 0.0110029 0.
0.642034 0.0110029 0.
0.644035 0.0110029 0.
0.646037 0.0110023 0.
0.648039 0.0110016 0.
0.650041 0.0110009 0.
0.652043 0.0110018 0.
0.654045 0.0110026 0.
0.656046 0.0110032 0.
0.658048 0.011003 0.
0.66005 0.0110029 0.
0.662051 0.0110028 0.
0.664053 0.0110027 0.
0.666054 0.0110026 0.
0.668056 0.0110024 0.
0.670058 0.011002 0.
0.672059 0.0110017 0.
0.674061 0.0110016 0.
0.676063 0.0110015 0.
0.678064 0.0110014 0.
0.680065 0.0110015 0.
0.682066 0.0110017 0.
0.684068 0.0110018 0.
0.686069 0.0110018 0.
0.688071 0.0110019 0.
0.690072 0.0110019 0.
0.692073 0.0110021 0.
0.694074 0.0110022 0.
0.696075 0.0110037 0.
0.698075 0.0110054 0.
0.499929 0.0130064 0.
0.50193 0.0130048 0.
0.50393 0.0130031 0.
0.505931 0.0130019 0.
0.507933 0.0130022 0.
0.509935 0.0130025 0.
0.511936 0.0130028 0.
0.513937 0.0130028 0.
0.515939 0.0130029 0.
0.51794 0.0130025 0.
0.519942 0.013002 0.
0.521944 0.0130014 0.
0.523945 0.0130015 0.
0.525946 0.0130018 0.
0.527947 0.013002 0.
0.529948 0.0130018 0.
0.53195 0.0130016 0.
0.533951 0.0130015 0.
0.535953 0.0130015 0.
0.537954 0.0130015 0.
0.539956 0.0130014 0.
0.541957 0.0130012 0.
0.543959 0.0130011 0.
0.54596 0.0130006 0.
0.547962 0.013 0.
0.549963 0.0129993 0.
0.551965 0.0129999 0.
0.553967 0.0130004 0.
0.555968 0.0130008 0.
0.55797 0.0130008 0.
0.559971 0.0130008 0.
0.561973 0.0130009 0.
0.563974 0.0130012 0.
0.565976 0.0130014 0.
0.567978 0.0130016 0.
0.569979 0.0130016 0.
0.571981 0.0130017 0.
0.573983 0.013002 0.
0.575984 0.0130022 0.
0.577986 0.0130024 0.
0.579988 0.0130022 0.
0.581989 0.0130021 0.
0.58399 0.013002 0.
0.585992 0.0130021 0.
0.587993 0.0130023 0.
0.589994 0.0130022 0.
0.591995 0.013002 0.
0.593996 0.0130017 0.
0.595998 0.0130015 0.
0.598 0.0130013 0.
0.600002 0.0130011 0.
0.602004 0.013001 0.
0.604006 0.0130009 0.
0.606008 0.0130008 0.
0.60801 0.0130011 0.
0.610011 0.0130014 0.
0.612012 0.0130016 0.
0.614014 0.0130019 0.
0.616015 0.0130021 0.
0.618016 0.0130021 0.
0.620018 0.0130019 0.
0.622019 0.0130018 0.
0.624021 0.0130015 0.
0.626022 0.0130011 0.
0.628024 0.0130009 0.
0.630025 0.0130012 0.
0.632027 0.0130015 0.
0.634028 0.0130017 0.
0.63603 0.0130016 0.
0.638032 0.0130016 0.
0.640033 0.0130016 0.
0.642034 0.0130016 0.
0.644035 0.0130016 0.
0.646037 0.0130012 0.
0.648039 0.0130008 0.
0.650041 0.0130003 0.
0.652043 0.0130009 0.
0.654044 0.0130014 0.
0.656046 0.0130018 0.
0.658048 0.0130016 0.
0.660049 0.0130013 0.
0.662051 0.0130013 0.
0.664052 0.0130013 0.
0.666053 0.0130013 0.
0.668055 0.0130012 0.
0.670057 0.0130011 0.
0.672058 0.013001 0.
0.67406 0.0130008 0.
0.676061 0.0130007 0.
0.678063 0.0130007 0.
0.680064 0.0130008 0.
0.682065 0.0130009 0.
0.684067 0.0130011 0.
0.686068 0.0130013 0.
0.688069 0.0130015 0.
0.69007 0.0130019 0.
0.692071 0.0130024 0.
0.694072 0.0130029 0.
0.696073 0.0130042 0.
0.698074 0.0130056 0.
0.49993 0.0150074 0.
0.501931 0.0150052 0.
0.503932 0.015003 0.
0.505932 0.0150013 0.
0.507934 0.0150016 0.
0.509935 0.0150018 0.
0.511937 0.0150019 0.
0.513938 0.015002 0.
0.51594 0.0150021 0.
0.517941 0.0150016 0.
0.519943 0.0150006 0.
0.521945 0.0149996 0.
0.523946 0.0150001 0.
0.525947 0.0150008 0.
0.527947 0.0150014 0.
0.529949 0.015001 0.
0.53195 0.0150007 0.
0.533951 0.0150004 0.
0.535953 0.0150003 0.
0.537955 0.0150002 0.
0.539957 0.0150002 0.
0.541958 0.0150002 0.
0.543959 0.0150001 0.
0.545961 0.0149998 0.
0.547963 0.0149993 0.
0.549964 0.0149988 0.
0.551966 0.0149994 0.
0.553967 0.0150001 0.
0.555969 0.0150005 0.
0.55797 0.0150001 0.
0.559971 0.0149997 0.
0.561973 0.0149997 0.
0.563975 0.015 0.
0.565976 0.0150004 0.
0.567978 0.0150004 0.
0.56998 0.0150003 0.
0.571982 0.0150001 0.
0.573984 0.0150005 0.
0.575986 0.0150009 0.
0.577988 0.0150013 0.
0.579989 0.015001 0.
0.58199 0.0150008 0.
0.583991 0.0150007 0.
0.585992 0.0150008 0.
0.587993 0.0150008 0.
0.589994 0.0150008 0.
0.591995 0.0150007 0.
0.593997 0.0150006 0.
0.595999 0.0150005 0.
0.598001 0.0150003 0.
0.600003 0.0150002 0.
0.602005 0.0150002 0.
0.604006 0.0150002 0.
0.606008 0.0150002 0.
0.60801 0.0150003 0.
0.610011 0.0150003 0.
0.612012 0.0150004 0.
0.614013 0.0150007 0.
0.616014 0.0150011 0.
0.618016 0.015001 0.
0.620017 0.0150009 0.
0.622018 0.0150007 0.
0.62402 0.0150003 0.
0.626022 0.015 0.
0.628023 0.0149998 0.
0.630024 0.0150002 0.
0.632026 0.0150006 0.
0.634027 0.0150007 0.
0.63603 0.0150005 0.
0.638032 0.0150003 0.
0.640033 0.0150002 0.
0.642034 0.0150002 0.
0.644035 0.0150003 0.
0.646037 0.0150001 0.
0.648039 0.0149999 0.
0.650041 0.0149997 0.
0.652042 0.015 0.
0.654044 0.0150003 0.
0.656046 0.0150004 0.
0.658047 0.0150001 0.
0.660049 0.0149998 0.
0.66205 0.0149997 0.
0.664051 0.0149998 0.
0.666052 0.015 0.
0.668054 0.0150001 0.
0.670055 0.0150002 0.
0.672057 0.0150003 0.
0.674058 0.0150001 0.
0.67606 0.015 0.
0.678061 0.0149999 0.
0.680063 0.015 0.
0.682064 0.0150001 0.
0.684066 0.0150003 0.
0.686067 0.0150007 0.
0.688068 0.0150011 0.
0.690069 0.0150018 0.
0.692069 0.0150027 0.
0.69407 0.0150036 0.
0.696071 0.0150046 0.
0.698073 0.0150057 0.
0.499932 0.0170082 0.
0.501933 0.017006 0.
0.503933 0.0170038 0.
0.505934 0.017002 0.
0.507935 0.0170021 0.
0.509937 0.0170022 0.
0.511938 0.0170021 0.
0.51394 0.0170017 0.
0.515941 0.0170013 0.
0.517943 0.0170008 0.
0.519944 0.0170002 0.
0.521946 0.0169996 0.
0.523947 0.0169999 0.
0.525947 0.0170003 0.
0.527948 0.0170007 0.
0.52995 0.0170004 0.
0.531951 0.0170001 0.
0.533952 0.0169998 0.
0.535954 0.0169996 0.
0.537956 0.0169993 0.
0.539958 0.0169992 0.
0.541959 0.0169991 0.
0.543961 0.016999 0.
0.545963 0.0169986 0.
0.547964 0.0169981 0.
0.549966 0.0169977 0.
0.551967 0.0169981 0.
0.553968 0.0169986 0.
0.55597 0.016999 0.
0.557971 0.0169991 0.
0.559972 0.0169992 0.
0.561974 0.0169993 0.
0.563975 0.0169994 0.
0.565977 0.0169995 0.
0.567979 0.0169997 0.
0.569981 0.0169998 0.
0.571983 0.017 0.
0.573984 0.0170001 0.
0.575986 0.0170002 0.
0.577988 0.0170004 0.
0.579989 0.0170009 0.
0.58199 0.0170014 0.
0.583991 0.0170015 0.
0.585992 0.0170009 0.
0.587993 0.0170003 0.
0.589994 0.0170001 0.
0.591996 0.0170002 0.
0.593997 0.0170003 0.
0.595999 0.017 0.
0.598001 0.0169996 0.
0.600003 0.0169992 0.
0.602005 0.0169996 0.
0.604006 0.017 0.
0.606008 0.0170002 0.
0.608009 0.0170003 0.
0.61001 0.0170003 0.
0.612012 0.0170003 0.
0.614013 0.0170003 0.
0.616014 0.0170003 0.
0.618015 0.017 0.
0.620017 0.0169996 0.
0.622019 0.0169992 0.
0.62402 0.0169991 0.
0.626021 0.016999 0.
0.628022 0.0169989 0.
0.630024 0.0169989 0.
0.632025 0.0169989 0.
0.634027 0.016999 0.
0.636029 0.0169992 0.
0.638031 0.0169994 0.
0.640032 0.0169993 0.
0.642034 0.016999 0.
0.644035 0.0169987 0.
0.646037 0.0169988 0.
0.648038 0.0169989 0.
0.650039 0.0169991 0.
0.652041 0.0169992 0.
0.654042 0.0169993 0.
0.656044 0.0169994 0.
0.658046 0.0169993 0.
0.660047 0.0169992 0.
0.662049 0.0169992 0.
0.66405 0.0169993 0.
0.666051 0.0169994 0.
0.668053 0.0169997 0.
0.670055 0.0170001 0.
0.672056 0.0170005 0.
0.674057 0.017 0.
0.676058 0.0169995 0.
0.67806 0.016999 0.
0.680061 0.0169994 0.
0.682063 0.0169998 0.
0.684064 0.0170002 0.
0.686065 0.0170007 0.
0.688066 0.0170012 0.
0.690067 0.017002 0.
0.692068 0.017003 0.
0.694069 0.017004 0.
0.69607 0.0170052 0.
0.698072 0.0170064 0.
0.499934 0.019009 0.
0.501934 0.0190067 0.
0.503935 0.0190045 0.
0.505935 0.0190027 0.
0.507937 0.0190027 0.
0.509938 0.0190026 0.
0.51194 0.0190022 0.
0.513941 0.0190013 0.
0.515943 0.0190005 0.
0.517944 0.019 0.
0.519945 0.0189998 0.
0.521946 0.0189996 0.
0.523947 0.0189997 0.
0.525948 0.0189998 0.
0.527949 0.019 0.
0.529951 0.0189997 0.
0.531952 0.0189995 0.
0.533953 0.0189992 0.
0.535955 0.0189988 0.
0.537957 0.0189984 0.
0.539959 0.0189982 0.
0.541961 0.018998 0.
0.543963 0.0189979 0.
0.545964 0.0189975 0.
0.547966 0.018997 0.
0.549967 0.0189965 0.
0.551968 0.0189969 0.
0.553969 0.0189972 0.
0.55597 0.0189976 0.
0.557972 0.0189981 0.
0.559973 0.0189987 0.
0.561974 0.0189989 0.
0.563976 0.0189988 0.
0.565978 0.0189986 0.
0.56798 0.0189989 0.
0.569982 0.0189994 0.
0.571983 0.0189999 0.
0.573985 0.0189998 0.
0.575987 0.0189995 0.
0.577989 0.0189995 0.
0.579989 0.0190007 0.
0.58199 0.0190019 0.
0.583991 0.0190024 0.
0.585992 0.0190011 0.
0.587993 0.0189999 0.
0.589995 0.0189995 0.
0.591996 0.0189998 0.
0.593998 0.0190001 0.
0.596 0.0189996 0.
0.598001 0.018999 0.
0.600003 0.0189983 0.
0.602004 0.018999 0.
0.604006 0.0189997 0.
0.606007 0.0190003 0.
0.608009 0.0190003 0.
0.61001 0.0190003 0.
0.612011 0.0190002 0.
0.614012 0.0189998 0.
0.616013 0.0189995 0.
0.618015 0.018999 0.
0.620017 0.0189984 0.
0.622019 0.0189978 0.
0.62402 0.0189979 0.
0.62602 0.018998 0.
0.628021 0.0189981 0.
0.630023 0.0189977 0.
0.632024 0.0189973 0.
0.634026 0.0189972 0.
0.636028 0.0189979 0.
0.638029 0.0189985 0.
0.640031 0.0189984 0.
0.642033 0.0189977 0.
0.644035 0.0189971 0.
0.646036 0.0189974 0.
0.648037 0.018998 0.
0.650038 0.0189985 0.
0.652039 0.0189984 0.
0.654041 0.0189984 0.
0.656042 0.0189983 0.
0.658044 0.0189984 0.
0.660046 0.0189985 0.
0.662048 0.0189986 0.
0.664049 0.0189987 0.
0.666051 0.0189987 0.
0.668052 0.0189993 0.
0.670054 0.019 0.
0.672055 0.0190008 0.
0.674056 0.0189999 0.
0.676057 0.0189989 0.
0.678058 0.0189981 0.
0.68006 0.0189988 0.
0.682061 0.0189994 0.
0.684062 0.019 0.
0.686063 0.0190006 0.
0.688064 0.0190013 0.
0.690065 0.0190022 0.
0.692066 0.0190033 0.
0.694067 0.0190044 0.
0.696069 0.0190058 0.
0.698071 0.0190072 0.
0.499935 0.0210094 0.
0.501936 0.0210071 0.
0.503936 0.0210049 0.
0.505937 0.021003 0.
0.507939 0.0210027 0.
0.50994 0.0210023 0.
0.511942 0.0210017 0.
0.513943 0.0210007 0.
0.515944 0.0209997 0.
0.517946 0.0209993 0.
0.519947 0.0209992 0.
0.521948 0.0209991 0.
0.523949 0.0209992 0.
0.52595 0.0209993 0.
0.527951 0.0209993 0.
0.529952 0.020999 0.
0.531953 0.0209987 0.
0.533955 0.0209983 0.
0.535956 0.0209978 0.
0.537958 0.0209973 0.
0.53996 0.020997 0.
0.541962 0.020997 0.
0.543964 0.0209969 0.
0.545965 0.0209966 0.
0.547967 0.0209961 0.
0.549968 0.0209957 0.
0.551969 0.0209958 0.
0.55397 0.0209959 0.
0.555971 0.0209961 0.
0.557972 0.020997 0.
0.559974 0.0209978 0.
0.561975 0.0209982 0.
0.563977 0.020998 0.
0.565979 0.0209977 0.
0.56798 0.020998 0.
0.569982 0.0209986 0.
0.571984 0.0209992 0.
0.573985 0.020999 0.
0.575987 0.0209986 0.
0.577988 0.0209984 0.
0.57999 0.0209999 0.
0.581991 0.0210014 0.
0.583992 0.0210019 0.
0.585993 0.0210004 0.
0.587994 0.0209989 0.
0.589995 0.0209984 0.
0.591997 0.0209988 0.
0.593999 0.0209991 0.
0.596 0.0209987 0.
0.598002 0.0209981 0.
0.600003 0.0209975 0.
0.602004 0.0209984 0.
0.604006 0.0209992 0.
0.606007 0.0209999 0.
0.608008 0.0209999 0.
0.610009 0.0209999 0.
0.61201 0.0209997 0.
0.614012 0.0209991 0.
0.616013 0.0209986 0.
0.618014 0.020998 0.
0.620016 0.0209973 0.
0.622018 0.0209966 0.
0.624019 0.0209968 0.
0.62602 0.020997 0.
0.628021 0.0209971 0.
0.630022 0.0209964 0.
0.632024 0.0209956 0.
0.634025 0.0209954 0.
0.636027 0.0209962 0.
0.638029 0.0209969 0.
0.64003 0.0209969 0.
0.642032 0.0209963 0.
0.644034 0.0209957 0.
0.646035 0.0209961 0.
0.648036 0.0209968 0.
0.650037 0.0209974 0.
0.652038 0.0209972 0.
0.65404 0.0209971 0.
0.656041 0.0209971 0.
0.658043 0.0209974 0.
0.660045 0.0209978 0.
0.662047 0.020998 0.
0.664048 0.020998 0.
0.666049 0.0209981 0.
0.668051 0.0209986 0.
0.670053 0.0209993 0.
0.672054 0.021 0.
0.674055 0.0209993 0.
0.676056 0.0209985 0.
0.678057 0.0209978 0.
0.680058 0.0209985 0.
0.682059 0.0209992 0.
0.68406 0.0209998 0.
0.686061 0.0210005 0.
0.688062 0.0210011 0.
0.690063 0.0210022 0.
0.692065 0.0210035 0.
0.694066 0.0210048 0.
0.696068 0.0210061 0.
0.698069 0.0210073 0.
0.499937 0.0230094 0.
0.501938 0.0230072 0.
0.503938 0.0230049 0.
0.50594 0.0230029 0.
0.507941 0.0230022 0.
0.509942 0.0230014 0.
0.511943 0.0230007 0.
0.513945 0.0229999 0.
0.515946 0.0229992 0.
0.517947 0.0229987 0.
0.519948 0.0229984 0.
0.521949 0.0229982 0.
0.52395 0.0229983 0.
0.525951 0.0229986 0.
0.527952 0.0229987 0.
0.529954 0.0229981 0.
0.531955 0.0229975 0.
0.533956 0.022997 0.
0.535958 0.0229964 0.
0.53796 0.0229959 0.
0.539961 0.0229958 0.
0.541963 0.0229959 0.
0.543965 0.022996 0.
0.545966 0.0229958 0.
0.547967 0.0229954 0.
0.549968 0.022995 0.
0.551969 0.0229948 0.
0.553971 0.0229946 0.
0.555972 0.0229947 0.
0.557973 0.0229957 0.
0.559975 0.0229966 0.
0.561976 0.0229971 0.
0.563978 0.022997 0.
0.565979 0.0229968 0.
0.567981 0.022997 0.
0.569982 0.0229975 0.
0.571984 0.0229979 0.
0.573985 0.0229977 0.
0.575987 0.0229973 0.
0.577988 0.0229971 0.
0.579989 0.0229984 0.
0.581991 0.0229997 0.
0.583992 0.0230001 0.
0.585993 0.0229987 0.
0.587995 0.0229974 0.
0.589996 0.0229969 0.
0.591998 0.0229971 0.
0.593999 0.0229974 0.
0.596 0.0229973 0.
0.598001 0.0229971 0.
0.600003 0.0229969 0.
0.602004 0.0229977 0.
0.604006 0.0229986 0.
0.606007 0.0229992 0.
0.608008 0.0229991 0.
0.610009 0.0229991 0.
0.61201 0.0229988 0.
0.614011 0.0229982 0.
0.616012 0.0229976 0.
0.618013 0.022997 0.
0.620015 0.0229963 0.
0.622016 0.0229957 0.
0.624018 0.0229958 0.
0.626019 0.022996 0.
0.62802 0.022996 0.
0.630022 0.022995 0.
0.632024 0.022994 0.
0.634025 0.0229936 0.
0.636027 0.0229941 0.
0.638028 0.0229947 0.
0.64003 0.0229949 0.
0.642032 0.0229947 0.
0.644033 0.0229946 0.
0.646034 0.0229949 0.
0.648035 0.0229954 0.
0.650036 0.0229958 0.
0.652037 0.0229956 0.
0.654039 0.0229955 0.
0.65604 0.0229955 0.
0.658042 0.0229962 0.
0.660044 0.0229968 0.
0.662045 0.0229972 0.
0.664047 0.0229973 0.
0.666048 0.0229973 0.
0.668049 0.0229976 0.
0.670051 0.022998 0.
0.672053 0.0229984 0.
0.674054 0.0229983 0.
0.676055 0.0229981 0.
0.678056 0.0229981 0.
0.680057 0.0229986 0.
0.682058 0.0229991 0.
0.684059 0.0229997 0.
0.68606 0.0230002 0.
0.688061 0.0230008 0.
0.690062 0.0230019 0.
0.692064 0.0230035 0.
0.694065 0.023005 0.
0.696066 0.023006 0.
0.698067 0.0230069 0.
0.499938 0.0250093 0.
0.501939 0.0250072 0.
0.503941 0.0250049 0.
0.505942 0.0250028 0.
0.507943 0.0250017 0.
0.509944 0.0250005 0.
0.511945 0.0249996 0.
0.513947 0.0249991 0.
0.515948 0.0249986 0.
0.517949 0.0249981 0.
0.51995 0.0249977 0.
0.521951 0.0249972 0.
0.523952 0.0249975 0.
0.525953 0.0249979 0.
0.527954 0.0249982 0.
0.529955 0.0249973 0.
0.531957 0.0249964 0.
0.533958 0.0249956 0.
0.53596 0.0249951 0.
0.537961 0.0249945 0.
0.539962 0.0249945 0.
0.541964 0.0249948 0.
0.543965 0.0249952 0.
0.545967 0.024995 0.
0.547968 0.0249947 0.
0.549969 0.0249944 0.
0.55197 0.0249939 0.
0.553971 0.0249934 0.
0.555973 0.0249932 0.
0.557974 0.0249943 0.
0.559976 0.0249955 0.
0.561977 0.024996 0.
0.563979 0.024996 0.
0.56598 0.0249959 0.
0.567982 0.024996 0.
0.569983 0.0249963 0.
0.571984 0.0249967 0.
0.573985 0.0249964 0.
0.575986 0.024996 0.
0.577987 0.0249959 0.
0.579989 0.0249969 0.
0.581991 0.024998 0.
0.583993 0.0249983 0.
0.585994 0.0249971 0.
0.587996 0.0249959 0.
0.589997 0.0249954 0.
0.591998 0.0249955 0.
0.593999 0.0249956 0.
0.596 0.0249958 0.
0.598001 0.024996 0.
0.600002 0.0249962 0.
0.602004 0.0249971 0.
0.604005 0.0249979 0.
0.606007 0.0249985 0.
0.608008 0.0249984 0.
0.610009 0.0249982 0.
0.61201 0.0249979 0.
0.61401 0.0249972 0.
0.616011 0.0249965 0.
0.618012 0.0249959 0.
0.620014 0.0249954 0.
0.622015 0.0249948 0.
0.624017 0.0249948 0.
0.626018 0.0249949 0.
0.62802 0.0249949 0.
0.630022 0.0249937 0.
0.632024 0.0249924 0.
0.634025 0.0249917 0.
0.636026 0.0249921 0.
0.638028 0.0249925 0.
0.640029 0.0249928 0.
0.642031 0.0249931 0.
0.644032 0.0249935 0.
0.646033 0.0249938 0.
0.648034 0.024994 0.
0.650035 0.0249942 0.
0.652037 0.024994 0.
0.654038 0.0249939 0.
0.65604 0.024994 0.
0.658041 0.0249949 0.
0.660043 0.0249959 0.
0.662044 0.0249964 0.
0.664045 0.0249965 0.
0.666046 0.0249966 0.
0.668048 0.0249966 0.
0.67005 0.0249967 0.
0.672051 0.0249967 0.
0.674053 0.0249973 0.
0.676054 0.0249978 0.
0.678055 0.0249983 0.
0.680056 0.0249987 0.
0.682057 0.0249991 0.
0.684057 0.0249995 0.
0.686059 0.0249999 0.
0.68806 0.0250004 0.
0.690061 0.0250017 0.
0.692062 0.0250034 0.
0.694064 0.0250052 0.
0.696065 0.025006 0.
0.698065 0.0250066 0.
0.49994 0.0270088 0.
0.501941 0.0270068 0.
0.503943 0.0270047 0.
0.505944 0.0270028 0.
0.507945 0.0270016 0.
0.509946 0.0270003 0.
0.511947 0.0269993 0.
0.513948 0.0269985 0.
0.515949 0.0269978 0.
0.51795 0.0269973 0.
0.519951 0.0269969 0.
0.521953 0.0269965 0.
0.523954 0.0269966 0.
0.525955 0.0269966 0.
0.527956 0.0269967 0.
0.529957 0.0269959 0.
0.531959 0.0269952 0.
0.53396 0.0269945 0.
0.535961 0.0269939 0.
0.537962 0.0269934 0.
0.539964 0.0269931 0.
0.541965 0.0269932 0.
0.543967 0.0269932 0.
0.545968 0.0269932 0.
0.547969 0.0269932 0.
0.549969 0.0269931 0.
0.551971 0.026993 0.
0.553972 0.0269929 0.
0.555973 0.0269929 0.
0.557975 0.0269936 0.
0.559976 0.0269942 0.
0.561977 0.0269945 0.
0.563979 0.0269945 0.
0.565981 0.0269945 0.
0.567982 0.0269948 0.
0.569983 0.0269954 0.
0.571985 0.0269959 0.
0.573986 0.0269955 0.
0.575987 0.026995 0.
0.577988 0.0269946 0.
0.579989 0.0269954 0.
0.581991 0.0269963 0.
0.583992 0.0269966 0.
0.585994 0.0269958 0.
0.587996 0.026995 0.
0.589997 0.0269947 0.
0.591998 0.026995 0.
0.593999 0.0269952 0.
0.596 0.0269953 0.
0.598001 0.0269953 0.
0.600002 0.0269954 0.
0.602003 0.0269959 0.
0.604005 0.0269965 0.
0.606007 0.026997 0.
0.608008 0.0269968 0.
0.610009 0.0269966 0.
0.61201 0.0269963 0.
0.614011 0.0269958 0.
0.616011 0.0269954 0.
0.618012 0.026995 0.
0.620014 0.0269946 0.
0.622015 0.0269942 0.
0.624017 0.0269939 0.
0.626018 0.0269937 0.
0.62802 0.0269934 0.
0.630021 0.0269925 0.
0.632023 0.0269917 0.
0.634024 0.0269911 0.
0.636025 0.0269911 0.
0.638027 0.0269912 0.
0.640028 0.0269915 0.
0.642029 0.026992 0.
0.644031 0.0269925 0.
0.646032 0.0269926 0.
0.648033 0.0269927 0.
0.650034 0.0269927 0.
0.652035 0.0269924 0.
0.654036 0.0269921 0.
0.656038 0.026992 0.
0.658039 0.026993 0.
0.660041 0.0269939 0.
0.662042 0.0269945 0.
0.664043 0.0269948 0.
0.666045 0.026995 0.
0.668046 0.0269951 0.
0.670048 0.0269953 0.
0.672049 0.0269955 0.
0.674051 0.0269962 0.
0.676052 0.0269969 0.
0.678053 0.0269976 0.
0.680054 0.0269981 0.
0.682055 0.0269986 0.
0.684056 0.0269991 0.
0.686057 0.0269997 0.
0.688059 0.0270004 0.
0.69006 0.0270017 0.
0.692061 0.0270035 0.
0.694062 0.0270054 0.
0.696063 0.0270061 0.
0.698064 0.0270067 0.
0.499942 0.0290083 0.
0.501944 0.0290064 0.
0.503945 0.0290045 0.
0.505946 0.0290028 0.
0.507947 0.0290015 0.
0.509948 0.0290001 0.
0.511949 0.0289989 0.
0.51395 0.0289979 0.
0.515951 0.028997 0.
0.517952 0.0289964 0.
0.519953 0.0289961 0.
0.521954 0.0289958 0.
0.523956 0.0289956 0.
0.525957 0.0289954 0.
0.527958 0.0289951 0.
0.52996 0.0289946 0.
0.531961 0.028994 0.
0.533962 0.0289934 0.
0.535963 0.0289928 0.
0.537964 0.0289922 0.
0.539965 0.0289918 0.
0.541966 0.0289915 0.
0.543968 0.0289913 0.
0.545969 0.0289914 0.
0.547969 0.0289916 0.
0.54997 0.0289919 0.
0.551972 0.0289921 0.
0.553973 0.0289924 0.
0.555974 0.0289926 0.
0.557975 0.0289928 0.
0.559976 0.0289929 0.
0.561978 0.0289931 0.
0.563979 0.0289931 0.
0.565981 0.0289932 0.
0.567983 0.0289937 0.
0.569984 0.0289944 0.
0.571985 0.0289951 0.
0.573986 0.0289946 0.
0.575987 0.0289939 0.
0.577988 0.0289933 0.
0.579989 0.028994 0.
0.581991 0.0289946 0.
0.583992 0.0289949 0.
0.585994 0.0289945 0.
0.587996 0.028994 0.
0.589997 0.028994 0.
0.591998 0.0289944 0.
0.593999 0.0289948 0.
0.596 0.0289947 0.
0.598 0.0289946 0.
0.600001 0.0289945 0.
0.602003 0.0289948 0.
0.604005 0.0289952 0.
0.606007 0.0289954 0.
0.608008 0.0289951 0.
0.610009 0.0289949 0.
0.61201 0.0289946 0.
0.614011 0.0289944 0.
0.616011 0.0289942 0.
0.618013 0.028994 0.
0.620014 0.0289938 0.
0.622015 0.0289935 0.
0.624017 0.028993 0.
0.626018 0.0289924 0.
0.62802 0.0289919 0.
0.630021 0.0289914 0.
0.632021 0.0289909 0.
0.634023 0.0289905 0.
0.636024 0.0289902 0.
0.638025 0.0289899 0.
0.640027 0.0289901 0.
0.642028 0.0289908 0.
0.64403 0.0289915 0.
0.646031 0.0289915 0.
0.648031 0.0289914 0.
0.650032 0.0289913 0.
0.652034 0.0289907 0.
0.654035 0.0289902 0.
0.656036 0.02899 0.
0.658037 0.028991 0.
0.660039 0.028992 0.
0.66204 0.0289927 0.
0.664042 0.028993 0.
0.666043 0.0289934 0.
0.668044 0.0289936 0.
0.670046 0.0289939 0.
0.672047 0.0289942 0.
0.674049 0.0289951 0.
0.67605 0.028996 0.
0.678051 0.0289969 0.
0.680052 0.0289975 0.
0.682054 0.028998 0.
0.684055 0.0289987 0.
0.686056 0.0289995 0.
0.688057 0.0290003 0.
0.690058 0.0290017 0.
0.692059 0.0290036 0.
0.69406 0.0290055 0.
0.696062 0.0290063 0.
0.698063 0.0290067 0.
0.499944 0.031008 0.
0.501946 0.031006 0.
0.503947 0.0310042 0.
0.505948 0.0310025 0.
0.507949 0.0310011 0.
0.50995 0.0309997 0.
0.511951 0.0309984 0.
0.513952 0.0309974 0.
0.515952 0.0309963 0.
0.517954 0.0309957 0.
0.519955 0.0309954 0.
0.521956 0.0309951 0.
0.523957 0.0309948 0.
0.525959 0.0309945 0.
0.52796 0.0309941 0.
0.529961 0.0309935 0.
0.531963 0.030993 0.
0.533964 0.0309924 0.
0.535964 0.0309918 0.
0.537965 0.0309912 0.
0.539966 0.0309907 0.
0.541968 0.0309903 0.
0.543969 0.0309899 0.
0.54597 0.0309901 0.
0.547971 0.0309905 0.
0.549971 0.0309908 0.
0.551973 0.0309913 0.
0.553974 0.0309918 0.
0.555976 0.0309921 0.
0.557977 0.030992 0.
0.559978 0.0309918 0.
0.561979 0.0309917 0.
0.56398 0.0309919 0.
0.565981 0.030992 0.
0.567983 0.0309925 0.
0.569984 0.0309932 0.
0.571986 0.0309939 0.
0.573987 0.0309936 0.
0.575987 0.0309931 0.
0.577988 0.0309927 0.
0.579989 0.030993 0.
0.581991 0.0309932 0.
0.583992 0.0309934 0.
0.585994 0.0309932 0.
0.587995 0.030993 0.
0.589997 0.0309932 0.
0.591998 0.0309937 0.
0.593999 0.0309942 0.
0.596 0.0309942 0.
0.598 0.030994 0.
0.600001 0.0309939 0.
0.602003 0.0309939 0.
0.604005 0.030994 0.
0.606007 0.0309939 0.
0.608008 0.0309937 0.
0.610009 0.0309935 0.
0.61201 0.0309934 0.
0.614011 0.0309932 0.
0.616011 0.0309931 0.
0.618013 0.030993 0.
0.620014 0.0309929 0.
0.622016 0.0309927 0.
0.624017 0.030992 0.
0.626018 0.0309913 0.
0.628019 0.0309905 0.
0.63002 0.0309902 0.
0.632021 0.0309899 0.
0.634022 0.0309895 0.
0.636023 0.0309891 0.
0.638024 0.0309887 0.
0.640026 0.030989 0.
0.642027 0.0309897 0.
0.644028 0.0309904 0.
0.646029 0.0309903 0.
0.64803 0.0309901 0.
0.650031 0.0309898 0.
0.652032 0.0309892 0.
0.654033 0.0309887 0.
0.656035 0.0309885 0.
0.658036 0.0309895 0.
0.660037 0.0309904 0.
0.662038 0.0309911 0.
0.66404 0.0309916 0.
0.666041 0.030992 0.
0.668043 0.0309924 0.
0.670044 0.0309928 0.
0.672045 0.0309932 0.
0.674047 0.0309941 0.
0.676048 0.0309951 0.
0.678049 0.0309961 0.
0.680051 0.0309967 0.
0.682052 0.0309974 0.
0.684053 0.0309981 0.
0.686054 0.0309992 0.
0.688056 0.0310002 0.
0.690056 0.0310017 0.
0.692057 0.0310035 0.
0.694058 0.0310054 0.
0.69606 0.0310062 0.
0.698061 0.0310067 0.
0.499947 0.0330079 0.
0.501948 0.0330058 0.
0.503949 0.0330038 0.
0.50595 0.0330019 0.
0.507951 0.0330004 0.
0.509952 0.032999 0.
0.511953 0.0329977 0.
0.513954 0.0329967 0.
0.515955 0.0329957 0.
0.517956 0.0329952 0.
0.519957 0.0329948 0.
0.521958 0.0329944 0.
0.52396 0.0329942 0.
0.525961 0.0329939 0.
0.527962 0.0329936 0.
0.529963 0.0329929 0.
0.531964 0.0329922 0.
0.533965 0.0329915 0.
0.535966 0.0329909 0.
0.537967 0.0329903 0.
0.539968 0.0329898 0.
0.541969 0.0329895 0.
0.54397 0.0329891 0.
0.545971 0.0329893 0.
0.547972 0.0329896 0.
0.549973 0.0329899 0.
0.551975 0.0329905 0.
0.553976 0.0329911 0.
0.555977 0.0329915 0.
0.557978 0.0329911 0.
0.559979 0.0329907 0.
0.56198 0.0329906 0.
0.563981 0.0329908 0.
0.565982 0.0329911 0.
0.567983 0.0329914 0.
0.569984 0.0329919 0.
0.571986 0.0329923 0.
0.573987 0.0329925 0.
0.575988 0.0329927 0.
0.577989 0.0329928 0.
0.57999 0.0329925 0.
0.581991 0.0329921 0.
0.583993 0.0329919 0.
0.585994 0.032992 0.
0.587995 0.032992 0.
0.589996 0.0329923 0.
0.591998 0.0329929 0.
0.593999 0.0329934 0.
0.596 0.0329936 0.
0.598 0.0329936 0.
0.600001 0.0329937 0.
0.602003 0.0329933 0.
0.604005 0.0329929 0.
0.606007 0.0329926 0.
0.608007 0.0329926 0.
0.610008 0.0329925 0.
0.612009 0.0329924 0.
0.61401 0.0329922 0.
0.616011 0.0329919 0.
0.618013 0.0329918 0.
0.620014 0.0329918 0.
0.622015 0.0329917 0.
0.624016 0.032991 0.
0.626017 0.0329902 0.
0.628018 0.0329894 0.
0.630019 0.032989 0.
0.63202 0.0329885 0.
0.634021 0.0329882 0.
0.636022 0.032988 0.
0.638024 0.0329878 0.
0.640025 0.0329881 0.
0.642026 0.0329887 0.
0.644027 0.0329894 0.
0.646028 0.0329891 0.
0.648029 0.0329887 0.
0.65003 0.0329882 0.
0.652031 0.0329879 0.
0.654032 0.0329876 0.
0.656034 0.0329875 0.
0.658035 0.0329884 0.
0.660035 0.0329892 0.
0.662037 0.0329899 0.
0.664038 0.0329904 0.
0.666039 0.0329909 0.
0.668041 0.0329914 0.
0.670042 0.032992 0.
0.672043 0.0329925 0.
0.674045 0.0329933 0.
0.676046 0.0329943 0.
0.678048 0.0329951 0.
0.680049 0.0329958 0.
0.68205 0.0329965 0.
0.684052 0.0329974 0.
0.686052 0.0329987 0.
0.688053 0.033 0.
0.690054 0.0330015 0.
0.692055 0.0330032 0.
0.694056 0.0330049 0.
0.696057 0.0330058 0.
0.698058 0.0330066 0.
0.499949 0.0350079 0.
0.50195 0.0350056 0.
0.503951 0.0350034 0.
0.505952 0.0350013 0.
0.507953 0.0349998 0.
0.509954 0.0349983 0.
0.511955 0.0349971 0.
0.513956 0.0349961 0.
0.515957 0.0349952 0.
0.517958 0.0349946 0.
0.519959 0.0349942 0.
0.52196 0.0349938 0.
0.523962 0.0349936 0.
0.525963 0.0349934 0.
0.527964 0.0349931 0.
0.529965 0.0349923 0.
0.531966 0.0349914 0.
0.533967 0.0349907 0.
0.535967 0.03499 0.
0.537968 0.0349894 0.
0.539969 0.034989 0.
0.54197 0.0349886 0.
0.543971 0.0349883 0.
0.545972 0.0349885 0.
0.547974 0.0349888 0.
0.549975 0.0349891 0.
0.551976 0.0349898 0.
0.553978 0.0349905 0.
0.555979 0.0349909 0.
0.55798 0.0349903 0.
0.559981 0.0349897 0.
0.561982 0.0349895 0.
0.563982 0.0349898 0.
0.565983 0.0349901 0.
0.567984 0.0349903 0.
0.569985 0.0349905 0.
0.571986 0.0349907 0.
0.573987 0.0349914 0.
0.575988 0.0349922 0.
0.577989 0.0349929 0.
0.579991 0.034992 0.
0.581992 0.034991 0.
0.583993 0.0349905 0.
0.585994 0.0349907 0.
0.587995 0.034991 0.
0.589996 0.0349914 0.
0.591998 0.034992 0.
0.593999 0.0349927 0.
0.596 0.034993 0.
0.598 0.0349932 0.
0.600001 0.0349935 0.
0.602003 0.0349927 0.
0.604005 0.0349919 0.
0.606006 0.0349913 0.
0.608007 0.0349914 0.
0.610007 0.0349916 0.
0.612008 0.0349915 0.
0.61401 0.0349911 0.
0.616011 0.0349908 0.
0.618012 0.0349907 0.
0.620014 0.0349907 0.
0.622015 0.0349907 0.
0.624016 0.0349899 0.
0.626017 0.0349891 0.
0.628017 0.0349882 0.
0.630019 0.0349877 0.
0.63202 0.0349872 0.
0.634021 0.0349869 0.
0.636022 0.0349869 0.
0.638023 0.0349868 0.
0.640024 0.0349872 0.
0.642025 0.0349877 0.
0.644026 0.0349883 0.
0.646027 0.0349879 0.
0.648028 0.0349873 0.
0.650028 0.0349866 0.
0.65203 0.0349865 0.
0.654031 0.0349864 0.
0.656032 0.0349865 0.
0.658033 0.0349873 0.
0.660034 0.034988 0.
0.662035 0.0349886 0.
0.664036 0.0349893 0.
0.666038 0.0349899 0.
0.668039 0.0349905 0.
0.67004 0.0349911 0.
0.672041 0.0349917 0.
0.674043 0.0349925 0.
0.676044 0.0349934 0.
0.678046 0.0349942 0.
0.680047 0.0349949 0.
0.682049 0.0349957 0.
0.68405 0.0349967 0.
0.68605 0.0349983 0.
0.688051 0.0349999 0.
0.690052 0.0350014 0.
0.692053 0.0350029 0.
0.694055 0.0350044 0.
0.696054 0.0350055 0.
0.698054 0.0350065 0.
0.499951 0.037007 0.
0.501952 0.037005 0.
0.503953 0.037003 0.
0.505954 0.0370012 0.
0.507955 0.0369997 0.
0.509956 0.0369982 0.
0.511957 0.0369968 0.
0.513958 0.0369956 0.
0.515959 0.0369943 0.
0.517961 0.0369937 0.
0.519962 0.0369933 0.
0.521963 0.036993 0.
0.523964 0.0369928 0.
0.525965 0.0369926 0.
0.527966 0.0369924 0.
0.529967 0.0369914 0.
0.531968 0.0369904 0.
0.533969 0.0369896 0.
0.535969 0.0369889 0.
0.53797 0.0369883 0.
0.539971 0.0369878 0.
0.541972 0.0369873 0.
0.543973 0.0369869 0.
0.545974 0.0369871 0.
0.547975 0.0369874 0.
0.549976 0.0369878 0.
0.551978 0.0369885 0.
0.553979 0.0369891 0.
0.55598 0.0369895 0.
0.557981 0.0369893 0.
0.559982 0.036989 0.
0.561983 0.036989 0.
0.563984 0.0369892 0.
0.565984 0.0369895 0.
0.567985 0.0369896 0.
0.569986 0.0369896 0.
0.571986 0.0369896 0.
0.573988 0.0369901 0.
0.575989 0.0369907 0.
0.57799 0.0369911 0.
0.579991 0.0369906 0.
0.581993 0.0369902 0.
0.583994 0.0369899 0.
0.585995 0.0369902 0.
0.587996 0.0369904 0.
0.589997 0.0369908 0.
0.591998 0.0369911 0.
0.593999 0.0369914 0.
0.596 0.0369917 0.
0.598001 0.036992 0.
0.600001 0.0369923 0.
0.602003 0.0369917 0.
0.604004 0.036991 0.
0.606005 0.0369905 0.
0.608006 0.0369904 0.
0.610007 0.0369904 0.
0.612008 0.0369902 0.
0.614009 0.0369898 0.
0.61601 0.0369895 0.
0.618011 0.0369894 0.
0.620013 0.0369894 0.
0.622014 0.0369894 0.
0.624015 0.0369888 0.
0.626016 0.0369882 0.
0.628016 0.0369876 0.
0.630018 0.036987 0.
0.632019 0.0369865 0.
0.63402 0.0369861 0.
0.636021 0.036986 0.
0.638021 0.0369858 0.
0.640022 0.0369861 0.
0.642023 0.0369867 0.
0.644024 0.0369873 0.
0.646025 0.0369869 0.
0.648026 0.0369864 0.
0.650027 0.0369858 0.
0.652028 0.0369857 0.
0.654029 0.0369857 0.
0.65603 0.0369858 0.
0.658031 0.0369863 0.
0.660031 0.0369868 0.
0.662032 0.0369874 0.
0.664034 0.0369883 0.
0.666035 0.0369892 0.
0.668036 0.0369899 0.
0.670038 0.0369905 0.
0.672039 0.0369912 0.
0.674041 0.0369916 0.
0.676042 0.036992 0.
0.678044 0.0369925 0.
0.680045 0.0369936 0.
0.682046 0.0369946 0.
0.684047 0.0369959 0.
0.686048 0.0369976 0.
0.688049 0.0369993 0.
0.69005 0.0370009 0.
0.692051 0.0370025 0.
0.694053 0.0370041 0.
0.696053 0.0370055 0.
0.698053 0.0370068 0.
0.499953 0.0390061 0.
0.501954 0.0390044 0.
0.503955 0.0390027 0.
0.505956 0.0390011 0.
0.507957 0.0389996 0.
0.509958 0.0389981 0.
0.511959 0.0389966 0.
0.51396 0.038995 0.
0.515961 0.0389934 0.
0.517963 0.0389927 0.
0.519964 0.0389925 0.
0.521965 0.0389922 0.
0.523966 0.0389921 0.
0.525967 0.0389919 0.
0.527968 0.0389917 0.
0.529969 0.0389906 0.
0.53197 0.0389894 0.
0.53397 0.0389885 0.
0.535971 0.0389878 0.
0.537973 0.0389872 0.
0.539974 0.0389866 0.
0.541975 0.038986 0.
0.543976 0.0389854 0.
0.545976 0.0389856 0.
0.547977 0.0389861 0.
0.549978 0.0389866 0.
0.551979 0.0389871 0.
0.55398 0.0389877 0.
0.555981 0.0389882 0.
0.557982 0.0389883 0.
0.559983 0.0389884 0.
0.561984 0.0389885 0.
0.563985 0.0389886 0.
0.565986 0.0389888 0.
0.567986 0.0389888 0.
0.569987 0.0389887 0.
0.571987 0.0389886 0.
0.573988 0.0389888 0.
0.575989 0.0389891 0.
0.577991 0.0389894 0.
0.579992 0.0389893 0.
0.581993 0.0389893 0.
0.583995 0.0389893 0.
0.585996 0.0389896 0.
0.587997 0.0389899 0.
0.589997 0.0389901 0.
0.591998 0.0389901 0.
0.593998 0.0389902 0.
0.596 0.0389905 0.
0.598001 0.0389908 0.
0.600002 0.0389912 0.
0.602003 0.0389907 0.
0.604003 0.0389902 0.
0.606004 0.0389897 0.
0.608005 0.0389895 0.
0.610006 0.0389892 0.
0.612008 0.0389889 0.
0.614009 0.0389885 0.
0.61601 0.0389882 0.
0.618011 0.0389881 0.
0.620011 0.0389881 0.
0.622012 0.0389881 0.
0.624013 0.0389877 0.
0.626014 0.0389873 0.
0.628016 0.0389869 0.
0.630017 0.0389864 0.
0.632018 0.0389858 0.
0.634019 0.0389853 0.
0.636019 0.0389851 0.
0.63802 0.0389848 0.
0.640021 0.038985 0.
0.642022 0.0389856 0.
0.644023 0.0389862 0.
0.646024 0.038986 0.
0.648025 0.0389855 0.
0.650026 0.038985 0.
0.652026 0.038985 0.
0.654026 0.0389849 0.
0.656027 0.038985 0.
0.658028 0.0389853 0.
0.660029 0.0389856 0.
0.66203 0.0389862 0.
0.664031 0.0389874 0.
0.666032 0.0389885 0.
0.668034 0.0389893 0.
0.670036 0.03899 0.
0.672038 0.0389907 0.
0.674039 0.0389907 0.
0.67604 0.0389906 0.
0.678041 0.0389907 0.
0.680042 0.0389922 0.
0.682044 0.0389936 0.
0.684045 0.0389952 0.
0.686046 0.038997 0.
0.688048 0.0389988 0.
0.690049 0.0390004 0.
0.69205 0.0390021 0.
0.694051 0.0390037 0.
0.696052 0.0390054 0.
0.698053 0.0390071 0.
0.499956 0.0410052 0.
0.501957 0.0410036 0.
0.503957 0.0410022 0.
0.505958 0.0410008 0.
0.507959 0.0409993 0.
0.50996 0.0409978 0.
0.511961 0.0409962 0.
0.513962 0.0409945 0.
0.515963 0.0409928 0.
0.517964 0.0409921 0.
0.519965 0.0409918 0.
0.521967 0.0409916 0.
0.523968 0.0409913 0.
0.525969 0.040991 0.
0.52797 0.0409907 0.
0.529971 0.0409897 0.
0.531971 0.0409886 0.
0.533972 0.0409877 0.
0.535973 0.040987 0.
0.537974 0.0409863 0.
0.539975 0.0409857 0.
0.541976 0.0409852 0.
0.543977 0.0409847 0.
0.545978 0.0409848 0.
0.547978 0.0409851 0.
0.549979 0.0409854 0.
0.55198 0.0409861 0.
0.553981 0.0409867 0.
0.555982 0.0409873 0.
0.557983 0.0409875 0.
0.559984 0.0409876 0.
0.561985 0.0409878 0.
0.563986 0.040988 0.
0.565986 0.0409882 0.
0.567987 0.0409881 0.
0.569988 0.0409879 0.
0.571988 0.0409877 0.
0.573989 0.0409878 0.
0.57599 0.0409879 0.
0.577991 0.040988 0.
0.579993 0.0409882 0.
0.581994 0.0409885 0.
0.583995 0.0409888 0.
0.585996 0.0409891 0.
0.587997 0.0409895 0.
0.589997 0.0409896 0.
0.591998 0.0409896 0.
0.593998 0.0409895 0.
0.595999 0.0409897 0.
0.598001 0.0409899 0.
0.600002 0.0409902 0.
0.602002 0.0409898 0.
0.604003 0.0409894 0.
0.606004 0.040989 0.
0.608005 0.0409886 0.
0.610006 0.0409882 0.
0.612007 0.0409878 0.
0.614008 0.0409874 0.
0.616009 0.040987 0.
0.61801 0.040987 0.
0.620011 0.0409871 0.
0.622011 0.0409873 0.
0.624012 0.0409868 0.
0.626013 0.0409864 0.
0.628014 0.0409859 0.
0.630016 0.0409854 0.
0.632017 0.0409849 0.
0.634018 0.0409844 0.
0.636018 0.0409841 0.
0.638019 0.0409838 0.
0.64002 0.040984 0.
0.642021 0.0409846 0.
0.644022 0.0409852 0.
0.646022 0.040985 0.
0.648023 0.0409846 0.
0.650024 0.0409842 0.
0.652025 0.0409843 0.
0.654025 0.0409845 0.
0.656025 0.0409846 0.
0.658026 0.0409846 0.
0.660027 0.0409847 0.
0.662028 0.0409853 0.
0.664029 0.0409865 0.
0.66603 0.0409877 0.
0.668032 0.0409885 0.
0.670034 0.0409892 0.
0.672036 0.0409899 0.
0.674037 0.0409898 0.
0.676038 0.0409896 0.
0.678039 0.0409897 0.
0.68004 0.0409913 0.
0.682042 0.040993 0.
0.684043 0.0409947 0.
0.686044 0.0409965 0.
0.688045 0.0409983 0.
0.690046 0.0409999 0.
0.692048 0.0410015 0.
0.694049 0.041003 0.
0.69605 0.0410051 0.
0.698051 0.0410072 0.
0.499959 0.0430043 0.
0.501959 0.0430028 0.
0.50396 0.0430015 0.
0.50596 0.0430002 0.
0.507961 0.0429987 0.
0.509962 0.0429971 0.
0.511963 0.0429956 0.
0.513964 0.042994 0.
0.515965 0.0429924 0.
0.517966 0.0429917 0.
0.519967 0.0429913 0.
0.521968 0.042991 0.
0.523969 0.0429905 0.
0.52597 0.04299 0.
0.527971 0.0429895 0.
0.529972 0.0429888 0.
0.531973 0.042988 0.
0.533974 0.0429873 0.
0.535975 0.0429865 0.
0.537975 0.0429857 0.
0.539976 0.0429852 0.
0.541977 0.042985 0.
0.543978 0.0429847 0.
0.545978 0.0429846 0.
0.547979 0.0429845 0.
0.549979 0.0429844 0.
0.55198 0.0429853 0.
0.553981 0.0429861 0.
0.555982 0.0429868 0.
0.557983 0.0429868 0.
0.559984 0.0429869 0.
0.561985 0.042987 0.
0.563986 0.0429872 0.
0.565987 0.0429875 0.
0.567988 0.0429874 0.
0.569988 0.0429872 0.
0.571989 0.042987 0.
0.57399 0.042987 0.
0.575991 0.042987 0.
0.577992 0.042987 0.
0.579993 0.0429874 0.
0.581994 0.0429878 0.
0.583995 0.0429882 0.
0.585996 0.0429887 0.
0.587996 0.0429892 0.
0.589997 0.0429894 0.
0.591998 0.0429893 0.
0.593998 0.0429893 0.
0.595999 0.0429893 0.
0.598 0.0429893 0.
0.600001 0.0429893 0.
0.602002 0.042989 0.
0.604003 0.0429887 0.
0.606004 0.0429883 0.
0.608005 0.0429878 0.
0.610005 0.0429873 0.
0.612006 0.0429869 0.
0.614007 0.0429864 0.
0.616009 0.042986 0.
0.61801 0.0429861 0.
0.62001 0.0429865 0.
0.622011 0.0429869 0.
0.624012 0.0429862 0.
0.626013 0.0429853 0.
0.628013 0.0429844 0.
0.630015 0.0429841 0.
0.632016 0.0429838 0.
0.634017 0.0429834 0.
0.636018 0.0429831 0.
0.638018 0.0429828 0.
0.640019 0.042983 0.
0.64202 0.0429836 0.
0.644021 0.0429843 0.
0.646021 0.0429841 0.
0.648022 0.0429838 0.
0.650023 0.0429834 0.
0.652024 0.0429838 0.
0.654024 0.0429842 0.
0.656025 0.0429845 0.
0.658026 0.0429843 0.
0.660026 0.042984 0.
0.662027 0.0429845 0.
0.664028 0.0429857 0.
0.66603 0.0429869 0.
0.668031 0.0429877 0.
0.670033 0.0429883 0.
0.672034 0.0429889 0.
0.674035 0.0429889 0.
0.676036 0.042989 0.
0.678037 0.0429892 0.
0.680038 0.042991 0.
0.68204 0.0429928 0.
0.684041 0.0429945 0.
0.686042 0.0429962 0.
0.688043 0.0429979 0.
0.690044 0.0429994 0.
0.692045 0.0430007 0.
0.694047 0.043002 0.
0.696048 0.0430044 0.
0.698049 0.0430071 0.
0.499962 0.0450034 0.
0.501962 0.0450019 0.
0.503962 0.0450009 0.
0.505962 0.0449997 0.
0.507963 0.0449981 0.
0.509964 0.0449965 0.
0.511965 0.0449949 0.
0.513966 0.0449935 0.
0.515967 0.044992 0.
0.517968 0.0449913 0.
0.519969 0.0449908 0.
0.521969 0.0449905 0.
0.52397 0.0449898 0.
0.525971 0.044989 0.
0.527972 0.0449882 0.
0.529973 0.0449879 0.
0.531974 0.0449875 0.
0.533975 0.0449869 0.
0.535976 0.044986 0.
0.537976 0.0449851 0.
0.539977 0.0449847 0.
0.541977 0.0449847 0.
0.543978 0.0449848 0.
0.545979 0.0449844 0.
0.547979 0.0449839 0.
0.549979 0.0449834 0.
0.55198 0.0449844 0.
0.553981 0.0449855 0.
0.555982 0.0449863 0.
0.557983 0.0449862 0.
0.559984 0.0449861 0.
0.561985 0.0449862 0.
0.563986 0.0449865 0.
0.565987 0.0449868 0.
0.567988 0.0449868 0.
0.569989 0.0449865 0.
0.57199 0.0449863 0.
0.573991 0.0449862 0.
0.575992 0.0449861 0.
0.577993 0.0449861 0.
0.579994 0.0449866 0.
0.581994 0.0449871 0.
0.583995 0.0449876 0.
0.585995 0.0449882 0.
0.587996 0.0449888 0.
0.589997 0.0449891 0.
0.591997 0.0449891 0.
0.593998 0.0449891 0.
0.595999 0.044989 0.
0.598 0.0449887 0.
0.6 0.0449885 0.
0.602002 0.0449882 0.
0.604003 0.044988 0.
0.606004 0.0449876 0.
0.608004 0.0449871 0.
0.610005 0.0449865 0.
0.612005 0.044986 0.
0.614007 0.0449855 0.
0.616008 0.044985 0.
0.618009 0.0449853 0.
0.62001 0.0449859 0.
0.622011 0.0449866 0.
0.624011 0.0449855 0.
0.626012 0.0449842 0.
0.628012 0.044983 0.
0.630014 0.0449828 0.
0.632015 0.0449826 0.
0.634016 0.0449824 0.
0.636017 0.0449821 0.
0.638017 0.0449818 0.
0.640018 0.044982 0.
0.642019 0.0449827 0.
0.64402 0.0449833 0.
0.64602 0.0449832 0.
0.648021 0.044983 0.
0.650022 0.0449827 0.
0.652023 0.0449833 0.
0.654024 0.044984 0.
0.656025 0.0449844 0.
0.658025 0.0449839 0.
0.660025 0.0449834 0.
0.662026 0.0449837 0.
0.664027 0.0449849 0.
0.666029 0.0449861 0.
0.66803 0.0449868 0.
0.670031 0.0449873 0.
0.672032 0.0449878 0.
0.674033 0.0449881 0.
0.676034 0.0449883 0.
0.678035 0.0449888 0.
0.680036 0.0449907 0.
0.682037 0.0449925 0.
0.684038 0.0449943 0.
0.686039 0.0449959 0.
0.68804 0.0449976 0.
0.690041 0.0449989 0.
0.692043 0.045 0.
0.694045 0.045001 0.
0.696046 0.0450038 0.
0.698047 0.0450069 0.
0.499963 0.0470031 0.
0.501963 0.0470014 0.
0.503963 0.0470001 0.
0.505964 0.0469987 0.
0.507965 0.0469971 0.
0.509966 0.0469955 0.
0.511967 0.046994 0.
0.513967 0.0469927 0.
0.515968 0.0469914 0.
0.517969 0.0469905 0.
0.51997 0.0469899 0.
0.52197 0.0469892 0.
0.523972 0.0469885 0.
0.525973 0.0469877 0.
0.527974 0.0469869 0.
0.529975 0.0469868 0.
0.531976 0.0469866 0.
0.533977 0.0469862 0.
0.535977 0.0469854 0.
0.537978 0.0469846 0.
0.539978 0.0469841 0.
0.541979 0.046984 0.
0.54398 0.0469838 0.
0.545981 0.0469835 0.
0.547981 0.046983 0.
0.549981 0.0469826 0.
0.551982 0.0469834 0.
0.553983 0.0469843 0.
0.555984 0.0469849 0.
0.557985 0.046985 0.
0.559986 0.0469851 0.
0.561987 0.0469854 0.
0.563988 0.0469857 0.
0.565988 0.0469861 0.
0.567989 0.046986 0.
0.56999 0.0469857 0.
0.571991 0.0469854 0.
0.573992 0.0469854 0.
0.575993 0.0469854 0.
0.577994 0.0469854 0.
0.579994 0.0469859 0.
0.581995 0.0469864 0.
0.583996 0.046987 0.
0.585996 0.0469877 0.
0.587997 0.0469883 0.
0.589997 0.0469885 0.
0.591998 0.0469884 0.
0.593999 0.0469882 0.
0.595999 0.0469879 0.
0.598 0.0469876 0.
0.600001 0.0469872 0.
0.602002 0.0469874 0.
0.604003 0.0469876 0.
0.606004 0.0469875 0.
0.608004 0.0469867 0.
0.610005 0.0469859 0.
0.612005 0.0469852 0.
0.614006 0.0469847 0.
0.616007 0.0469842 0.
0.618008 0.0469843 0.
0.620009 0.0469847 0.
0.62201 0.0469851 0.
0.62401 0.0469843 0.
0.626011 0.0469832 0.
0.628011 0.0469823 0.
0.630012 0.0469822 0.
0.632013 0.0469821 0.
0.634014 0.046982 0.
0.636015 0.0469819 0.
0.638015 0.0469818 0.
0.640016 0.0469819 0.
0.642017 0.0469822 0.
0.644018 0.0469825 0.
0.646019 0.0469823 0.
0.648019 0.046982 0.
0.65002 0.0469816 0.
0.652021 0.0469823 0.
0.654022 0.0469829 0.
0.656022 0.0469833 0.
0.658023 0.0469831 0.
0.660024 0.0469828 0.
0.662025 0.0469831 0.
0.664026 0.0469842 0.
0.666027 0.0469853 0.
0.668028 0.046986 0.
0.670029 0.0469864 0.
0.672031 0.0469868 0.
0.674032 0.0469872 0.
0.676032 0.0469876 0.
0.678033 0.0469882 0.
0.680034 0.0469899 0.
0.682035 0.0469917 0.
0.684036 0.0469935 0.
0.686037 0.046995 0.
0.688038 0.0469966 0.
0.690039 0.0469982 0.
0.692041 0.0469996 0.
0.694042 0.0470011 0.
0.696043 0.0470036 0.
0.698044 0.0470064 0.
0.499964 0.0490029 0.
0.501964 0.0490009 0.
0.503965 0.0489993 0.
0.505966 0.0489977 0.
0.507967 0.0489961 0.
0.509968 0.0489945 0.
0.511969 0.0489931 0.
0.513969 0.0489919 0.
0.51597 0.0489907 0.
0.51797 0.0489897 0.
0.519971 0.0489889 0.
0.521971 0.048988 0.
0.523973 0.0489872 0.
0.525974 0.0489863 0.
0.527975 0.0489856 0.
0.529976 0.0489857 0.
0.531977 0.0489857 0.
0.533978 0.0489856 0.
0.535978 0.0489848 0.
0.537979 0.0489841 0.
0.53998 0.0489835 0.
0.541981 0.0489832 0.
0.543982 0.0489829 0.
0.545983 0.0489825 0.
0.547983 0.0489822 0.
0.549983 0.0489818 0.
0.551984 0.0489824 0.
0.553984 0.048983 0.
0.555985 0.0489836 0.
0.557986 0.0489839 0.
0.559987 0.0489842 0.
0.561988 0.0489846 0.
0.563989 0.048985 0.
0.56599 0.0489854 0.
0.56799 0.0489853 0.
0.569991 0.0489849 0.
0.571992 0.0489846 0.
0.573993 0.0489846 0.
0.575993 0.0489846 0.
0.577994 0.0489847 0.
0.579995 0.0489852 0.
0.581996 0.0489858 0.
0.583997 0.0489864 0.
0.585997 0.0489871 0.
0.587998 0.0489878 0.
0.589998 0.0489879 0.
0.591999 0.0489876 0.
0.594 0.0489872 0.
0.596 0.0489868 0.
0.598001 0.0489864 0.
0.600001 0.048986 0.
0.602002 0.0489866 0.
0.604003 0.0489872 0.
0.606004 0.0489874 0.
0.608005 0.0489864 0.
0.610005 0.0489853 0.
0.612006 0.0489845 0.
0.614006 0.0489839 0.
0.616007 0.0489834 0.
0.618007 0.0489833 0.
0.620008 0.0489835 0.
0.622009 0.0489837 0.
0.624009 0.048983 0.
0.62601 0.0489823 0.
0.628011 0.0489816 0.
0.630011 0.0489816 0.
0.632011 0.0489816 0.
0.634012 0.0489816 0.
0.636013 0.0489817 0.
0.638013 0.0489818 0.
0.640014 0.0489819 0.
0.642015 0.0489818 0.
0.644016 0.0489817 0.
0.646017 0.0489814 0.
0.648017 0.048981 0.
0.650018 0.0489806 0.
0.652018 0.0489812 0.
0.654019 0.0489818 0.
0.65602 0.0489823 0.
0.658021 0.0489822 0.
0.660022 0.0489822 0.
0.662024 0.0489826 0.
0.664025 0.0489836 0.
0.666026 0.0489846 0.
0.668027 0.0489851 0.
0.670028 0.0489854 0.
0.672029 0.0489857 0.
0.67403 0.0489862 0.
0.676031 0.0489868 0.
0.678032 0.0489875 0.
0.680033 0.0489892 0.
0.682034 0.0489909 0.
0.684035 0.0489926 0.
0.686036 0.0489942 0.
0.688037 0.0489957 0.
0.690037 0.0489974 0.
0.692038 0.0489993 0.
0.694039 0.0490012 0.
0.69604 0.0490035 0.
0.698041 0.0490059 0.
0.499965 0.0510025 0.
0.501966 0.0510004 0.
0.503967 0.0509987 0.
0.505967 0.050997 0.
0.507969 0.0509954 0.
0.50997 0.0509938 0.
0.51197 0.0509925 0.
0.513971 0.0509914 0.
0.515971 0.0509903 0.
0.517972 0.0509892 0.
0.519972 0.0509881 0.
0.521973 0.050987 0.
0.523974 0.0509861 0.
0.525975 0.0509852 0.
0.527977 0.0509844 0.
0.529978 0.0509846 0.
0.531978 0.0509848 0.
0.533979 0.0509847 0.
0.53598 0.0509841 0.
0.537981 0.0509836 0.
0.539982 0.050983 0.
0.541983 0.0509826 0.
0.543984 0.0509821 0.
0.545984 0.0509818 0.
0.547985 0.0509815 0.
0.549985 0.0509813 0.
0.551985 0.0509817 0.
0.553986 0.0509822 0.
0.555987 0.0509827 0.
0.557988 0.050983 0.
0.559988 0.0509834 0.
0.561989 0.0509838 0.
0.56399 0.0509841 0.
0.565991 0.0509845 0.
0.567991 0.0509845 0.
0.569992 0.0509842 0.
0.571993 0.0509839 0.
0.573993 0.0509839 0.
0.575994 0.050984 0.
0.577994 0.0509841 0.
0.579995 0.0509845 0.
0.581996 0.0509849 0.
0.583997 0.0509854 0.
0.585998 0.0509863 0.
0.587998 0.0509871 0.
0.589999 0.0509873 0.
0.592 0.0509869 0.
0.594 0.0509866 0.
0.596001 0.0509862 0.
0.598001 0.0509858 0.
0.600001 0.0509853 0.
0.602002 0.050986 0.
0.604003 0.0509867 0.
0.606004 0.0509869 0.
0.608005 0.050986 0.
0.610005 0.050985 0.
0.612006 0.0509842 0.
0.614006 0.0509835 0.
0.616006 0.0509829 0.
0.618007 0.0509827 0.
0.620007 0.0509827 0.
0.622008 0.0509826 0.
0.624009 0.0509821 0.
0.626009 0.0509814 0.
0.62801 0.0509809 0.
0.63001 0.050981 0.
0.63201 0.0509811 0.
0.634011 0.0509813 0.
0.636011 0.0509814 0.
0.638012 0.0509816 0.
0.640012 0.0509815 0.
0.642013 0.0509814 0.
0.644015 0.0509813 0.
0.646015 0.0509809 0.
0.648015 0.0509805 0.
0.650016 0.0509801 0.
0.652017 0.0509805 0.
0.654017 0.0509808 0.
0.656018 0.0509811 0.
0.65802 0.0509812 0.
0.660021 0.0509813 0.
0.662022 0.0509818 0.
0.664023 0.0509827 0.
0.666024 0.0509836 0.
0.668025 0.0509841 0.
0.670026 0.0509844 0.
0.672027 0.0509846 0.
0.674028 0.0509853 0.
0.676029 0.0509861 0.
0.67803 0.0509869 0.
0.680031 0.0509885 0.
0.682032 0.0509902 0.
0.684033 0.0509918 0.
0.686033 0.0509934 0.
0.688034 0.0509951 0.
0.690035 0.0509969 0.
0.692036 0.0509988 0.
0.694036 0.0510008 0.
0.696037 0.0510031 0.
0.698038 0.0510054 0.
0.499967 0.053002 0.
0.501968 0.053 0.
0.503969 0.0529982 0.
0.505969 0.0529965 0.
0.50797 0.052995 0.
0.509971 0.0529934 0.
0.511972 0.0529921 0.
0.513973 0.052991 0.
0.515973 0.05299 0.
0.517974 0.0529888 0.
0.519974 0.0529876 0.
0.521975 0.0529863 0.
0.523976 0.0529853 0.
0.525977 0.0529843 0.
0.527978 0.0529834 0.
0.529979 0.0529835 0.
0.53198 0.0529836 0.
0.53398 0.0529836 0.
0.535981 0.0529833 0.
0.537982 0.052983 0.
0.539983 0.0529826 0.
0.541984 0.052982 0.
0.543985 0.0529815 0.
0.545986 0.0529813 0.
0.547986 0.0529811 0.
0.549986 0.052981 0.
0.551987 0.0529814 0.
0.553988 0.0529818 0.
0.555988 0.0529822 0.
0.557989 0.0529825 0.
0.559989 0.0529827 0.
0.56199 0.052983 0.
0.563991 0.0529832 0.
0.565991 0.0529835 0.
0.567992 0.0529835 0.
0.569993 0.0529834 0.
0.571993 0.0529834 0.
0.573994 0.0529834 0.
0.575994 0.0529834 0.
0.577994 0.0529835 0.
0.579995 0.0529836 0.
0.581996 0.0529838 0.
0.583997 0.0529842 0.
0.585998 0.0529852 0.
0.587999 0.0529863 0.
0.589999 0.0529866 0.
0.592 0.0529864 0.
0.594 0.0529862 0.
0.596 0.0529859 0.
0.598001 0.0529856 0.
0.600001 0.0529853 0.
0.602002 0.0529857 0.
0.604003 0.052986 0.
0.606004 0.0529861 0.
0.608005 0.0529855 0.
0.610005 0.052985 0.
0.612005 0.0529843 0.
0.614006 0.0529836 0.
0.616006 0.0529829 0.
0.618006 0.0529825 0.
0.620007 0.0529822 0.
0.622008 0.052982 0.
0.624008 0.0529814 0.
0.626009 0.0529807 0.
0.628009 0.0529801 0.
0.63001 0.0529804 0.
0.63201 0.0529807 0.
0.634011 0.0529809 0.
0.636011 0.0529809 0.
0.638011 0.052981 0.
0.640011 0.052981 0.
0.642012 0.0529811 0.
0.644013 0.0529811 0.
0.646013 0.0529809 0.
0.648014 0.0529806 0.
0.650014 0.0529803 0.
0.652015 0.0529801 0.
0.654016 0.0529799 0.
0.656017 0.0529798 0.
0.658018 0.05298 0.
0.660019 0.0529802 0.
0.66202 0.0529807 0.
0.664021 0.0529815 0.
0.666022 0.0529824 0.
0.668023 0.0529829 0.
0.670024 0.0529832 0.
0.672025 0.0529836 0.
0.674026 0.0529845 0.
0.676027 0.0529854 0.
0.678028 0.0529865 0.
0.680029 0.0529879 0.
0.682029 0.0529894 0.
0.68403 0.052991 0.
0.686031 0.0529928 0.
0.688032 0.0529947 0.
0.690033 0.0529965 0.
0.692034 0.0529983 0.
0.694034 0.0530001 0.
0.696035 0.0530024 0.
0.698036 0.0530049 0.
0.499969 0.0550015 0.
0.50197 0.0549995 0.
0.503971 0.0549978 0.
0.505971 0.0549961 0.
0.507972 0.0549945 0.
0.509973 0.054993 0.
0.511974 0.0549918 0.
0.513974 0.0549907 0.
0.515975 0.0549897 0.
0.517976 0.0549884 0.
0.519976 0.054987 0.
0.521977 0.0549856 0.
0.523978 0.0549845 0.
0.525979 0.0549834 0.
0.52798 0.0549824 0.
0.529981 0.0549824 0.
0.531981 0.0549825 0.
0.533982 0.0549825 0.
0.535983 0.0549825 0.
0.537984 0.0549824 0.
0.539985 0.0549821 0.
0.541986 0.0549815 0.
0.543987 0.0549809 0.
0.545987 0.0549808 0.
0.547988 0.0549808 0.
0.549988 0.0549808 0.
0.551989 0.0549811 0.
0.553989 0.0549815 0.
0.555989 0.0549818 0.
0.55799 0.0549819 0.
0.55999 0.0549821 0.
0.56199 0.0549822 0.
0.563991 0.0549823 0.
0.565992 0.0549824 0.
0.567993 0.0549825 0.
0.569993 0.0549827 0.
0.571994 0.0549828 0.
0.573994 0.0549829 0.
0.575994 0.0549829 0.
0.577995 0.054983 0.
0.579995 0.0549828 0.
0.581996 0.0549827 0.
0.583997 0.054983 0.
0.585998 0.0549842 0.
0.587999 0.0549854 0.
0.589999 0.054986 0.
0.591999 0.0549859 0.
0.594 0.0549858 0.
0.596 0.0549857 0.
0.598001 0.0549855 0.
0.600001 0.0549853 0.
0.602002 0.0549854 0.
0.604003 0.0549854 0.
0.606004 0.0549853 0.
0.608005 0.0549851 0.
0.610005 0.0549849 0.
0.612005 0.0549844 0.
0.614005 0.0549837 0.
0.616005 0.0549829 0.
0.618006 0.0549823 0.
0.620007 0.0549818 0.
0.622007 0.0549813 0.
0.624008 0.0549806 0.
0.626008 0.0549799 0.
0.628009 0.0549794 0.
0.630009 0.0549798 0.
0.63201 0.0549803 0.
0.634011 0.0549805 0.
0.63601 0.0549804 0.
0.63801 0.0549803 0.
0.64001 0.0549805 0.
0.642011 0.0549807 0.
0.644011 0.054981 0.
0.646012 0.0549809 0.
0.648012 0.0549806 0.
0.650013 0.0549804 0.
0.652014 0.0549797 0.
0.654014 0.054979 0.
0.656015 0.0549786 0.
0.658016 0.0549788 0.
0.660017 0.0549791 0.
0.662018 0.0549796 0.
0.664019 0.0549804 0.
0.66602 0.0549812 0.
0.66802 0.0549817 0.
0.670022 0.0549821 0.
0.672023 0.0549825 0.
0.674024 0.0549836 0.
0.676025 0.0549848 0.
0.678026 0.054986 0.
0.680026 0.0549873 0.
0.682027 0.0549886 0.
0.684028 0.0549902 0.
0.686028 0.0549923 0.
0.688029 0.0549943 0.
0.69003 0.0549961 0.
0.692031 0.0549977 0.
0.694033 0.0549993 0.
0.696033 0.0550017 0.
0.698033 0.0550043 0.
0.499971 0.0570006 0.
0.501971 0.0569985 0.
0.503972 0.0569966 0.
0.505973 0.0569949 0.
0.507973 0.0569934 0.
0.509974 0.0569919 0.
0.511975 0.0569907 0.
0.513976 0.0569896 0.
0.515977 0.0569886 0.
0.517977 0.0569873 0.
0.519978 0.056986 0.
0.521979 0.0569846 0.
0.52398 0.0569836 0.
0.525981 0.0569826 0.
0.527981 0.0569817 0.
0.529982 0.0569816 0.
0.531983 0.0569814 0.
0.533984 0.0569814 0.
0.535984 0.0569815 0.
0.537985 0.0569817 0.
0.539986 0.0569814 0.
0.541987 0.0569807 0.
0.543988 0.0569799 0.
0.545989 0.0569798 0.
0.547989 0.0569798 0.
0.54999 0.0569798 0.
0.55199 0.0569802 0.
0.55399 0.0569806 0.
0.555991 0.056981 0.
0.557991 0.0569812 0.
0.559991 0.0569815 0.
0.561992 0.0569816 0.
0.563993 0.0569816 0.
0.565993 0.0569816 0.
0.567994 0.0569816 0.
0.569995 0.0569817 0.
0.571995 0.0569817 0.
0.573995 0.056982 0.
0.575996 0.0569822 0.
0.577996 0.0569825 0.
0.579997 0.0569824 0.
0.581997 0.0569823 0.
0.583998 0.0569825 0.
0.585998 0.0569834 0.
0.587999 0.0569843 0.
0.59 0.0569849 0.
0.592 0.0569852 0.
0.594 0.0569855 0.
0.596 0.0569854 0.
0.598001 0.0569852 0.
0.600001 0.0569849 0.
0.602002 0.0569851 0.
0.604003 0.0569852 0.
0.606003 0.0569852 0.
0.608004 0.0569848 0.
0.610004 0.0569845 0.
0.612005 0.056984 0.
0.614005 0.0569834 0.
0.616005 0.0569828 0.
0.618005 0.0569823 0.
0.620005 0.0569817 0.
0.622006 0.0569811 0.
0.624006 0.0569804 0.
0.626007 0.0569797 0.
0.628007 0.0569791 0.
0.630008 0.0569795 0.
0.632008 0.0569799 0.
0.634009 0.0569801 0.
0.636009 0.0569799 0.
0.638009 0.0569797 0.
0.640009 0.0569799 0.
0.64201 0.0569802 0.
0.64401 0.0569806 0.
0.646011 0.0569802 0.
0.648011 0.0569796 0.
0.650012 0.056979 0.
0.652012 0.0569788 0.
0.654013 0.0569785 0.
0.656014 0.0569783 0.
0.658015 0.0569783 0.
0.660016 0.0569783 0.
0.662016 0.0569786 0.
0.664017 0.0569795 0.
0.666018 0.0569803 0.
0.668019 0.0569809 0.
0.67002 0.0569814 0.
0.672021 0.0569818 0.
0.674021 0.056983 0.
0.676022 0.0569842 0.
0.678023 0.0569855 0.
0.680024 0.0569869 0.
0.682025 0.0569882 0.
0.684026 0.0569899 0.
0.686027 0.0569919 0.
0.688028 0.056994 0.
0.690028 0.0569958 0.
0.692029 0.0569975 0.
0.69403 0.0569991 0.
0.696031 0.0570012 0.
0.698032 0.0570034 0.
0.499972 0.0589997 0.
0.501972 0.0589975 0.
0.503973 0.0589955 0.
0.505974 0.0589937 0.
0.507975 0.0589922 0.
0.509975 0.0589908 0.
0.511976 0.0589896 0.
0.513977 0.0589885 0.
0.515978 0.0589875 0.
0.517979 0.0589862 0.
0.51998 0.0589849 0.
0.521981 0.0589835 0.
0.523982 0.0589827 0.
0.525982 0.0589818 0.
0.527983 0.058981 0.
0.529984 0.0589807 0.
0.531985 0.0589803 0.
0.533985 0.0589802 0.
0.535986 0.0589806 0.
0.537986 0.058981 0.
0.539987 0.0589807 0.
0.541988 0.0589798 0.
0.543989 0.058979 0.
0.54599 0.0589788 0.
0.547991 0.0589789 0.
0.549991 0.0589789 0.
0.551991 0.0589794 0.
0.553992 0.0589798 0.
0.555992 0.0589801 0.
0.557992 0.0589805 0.
0.559993 0.0589809 0.
0.561993 0.0589811 0.
0.563994 0.0589809 0.
0.565994 0.0589808 0.
0.567995 0.0589807 0.
0.569996 0.0589806 0.
0.571996 0.0589806 0.
0.573997 0.058981 0.
0.575997 0.0589816 0.
0.577998 0.058982 0.
0.579998 0.058982 0.
0.581998 0.0589819 0.
0.583999 0.0589821 0.
0.585999 0.0589826 0.
0.588 0.0589832 0.
0.59 0.0589838 0.
0.592 0.0589845 0.
0.594 0.0589852 0.
0.596001 0.0589851 0.
0.598001 0.0589848 0.
0.600001 0.0589845 0.
0.602002 0.0589847 0.
0.604002 0.058985 0.
0.606003 0.0589851 0.
0.608003 0.0589846 0.
0.610004 0.058984 0.
0.612004 0.0589836 0.
0.614004 0.0589832 0.
0.616004 0.0589828 0.
0.618004 0.0589822 0.
0.620004 0.0589816 0.
0.622004 0.0589809 0.
0.624005 0.0589801 0.
0.626005 0.0589794 0.
0.628005 0.0589787 0.
0.630006 0.0589791 0.
0.632007 0.0589795 0.
0.634007 0.0589796 0.
0.636007 0.0589794 0.
0.638007 0.0589791 0.
0.640008 0.0589793 0.
0.642009 0.0589797 0.
0.64401 0.0589802 0.
0.64601 0.0589796 0.
0.64801 0.0589786 0.
0.65001 0.0589776 0.
0.652011 0.0589778 0.
0.654012 0.058978 0.
0.656013 0.0589781 0.
0.658013 0.0589777 0.
0.660014 0.0589774 0.
0.662015 0.0589776 0.
0.664015 0.0589785 0.
0.666016 0.0589795 0.
0.668017 0.0589801 0.
0.670018 0.0589806 0.
0.672018 0.0589811 0.
0.674019 0.0589823 0.
0.67602 0.0589837 0.
0.678021 0.058985 0.
0.680022 0.0589865 0.
0.682023 0.0589879 0.
0.684024 0.0589895 0.
0.686025 0.0589916 0.
0.688026 0.0589936 0.
0.690027 0.0589955 0.
0.692027 0.0589972 0.
0.694028 0.058999 0.
0.696029 0.0590008 0.
0.69803 0.0590026 0.
0.499973 0.0609993 0.
0.501974 0.0609968 0.
0.503975 0.0609947 0.
0.505975 0.0609928 0.
0.507976 0.0609914 0.
0.509977 0.06099 0.
0.511977 0.0609887 0.
0.513979 0.0609875 0.
0.51598 0.0609864 0.
0.517981 0.0609852 0.
0.519982 0.060984 0.
0.521983 0.0609828 0.
0.523983 0.060982 0.
0.525984 0.0609812 0.
0.527984 0.0609805 0.
0.529985 0.06098 0.
0.531986 0.0609795 0.
0.533987 0.0609793 0.
0.535987 0.0609797 0.
0.537987 0.0609801 0.
0.539988 0.0609798 0.
0.541989 0.0609791 0.
0.54399 0.0609783 0.
0.545991 0.0609782 0.
0.547992 0.0609782 0.
0.549992 0.0609782 0.
0.551992 0.0609787 0.
0.553993 0.0609792 0.
0.555993 0.0609797 0.
0.557993 0.0609801 0.
0.559994 0.0609804 0.
0.561994 0.0609806 0.
0.563995 0.0609804 0.
0.565995 0.0609802 0.
0.567996 0.06098 0.
0.569997 0.0609798 0.
0.571997 0.0609797 0.
0.573998 0.0609804 0.
0.575998 0.0609812 0.
0.577999 0.0609819 0.
0.579999 0.0609818 0.
0.581999 0.0609818 0.
0.583999 0.0609819 0.
0.585999 0.0609822 0.
0.588 0.0609826 0.
0.59 0.0609832 0.
0.592 0.060984 0.
0.594 0.0609848 0.
0.596001 0.0609848 0.
0.598001 0.0609846 0.
0.600001 0.0609843 0.
0.602001 0.0609845 0.
0.604002 0.0609847 0.
0.606002 0.0609848 0.
0.608003 0.0609843 0.
0.610004 0.0609838 0.
0.612004 0.0609834 0.
0.614004 0.060983 0.
0.616004 0.0609827 0.
0.618004 0.0609821 0.
0.620004 0.0609815 0.
0.622004 0.0609808 0.
0.624004 0.06098 0.
0.626004 0.0609791 0.
0.628004 0.0609784 0.
0.630005 0.0609788 0.
0.632005 0.0609792 0.
0.634006 0.0609793 0.
0.636006 0.060979 0.
0.638006 0.0609788 0.
0.640007 0.0609788 0.
0.642008 0.0609791 0.
0.644009 0.0609793 0.
0.646009 0.0609787 0.
0.648009 0.0609778 0.
0.65001 0.060977 0.
0.65201 0.0609773 0.
0.654011 0.0609775 0.
0.656011 0.0609777 0.
0.658012 0.0609774 0.
0.660013 0.060977 0.
0.662013 0.0609772 0.
0.664014 0.0609779 0.
0.666014 0.0609786 0.
0.668015 0.0609793 0.
0.670016 0.0609799 0.
0.672017 0.0609805 0.
0.674017 0.0609818 0.
0.676018 0.0609832 0.
0.678019 0.0609846 0.
0.68002 0.0609861 0.
0.682021 0.0609875 0.
0.684022 0.0609891 0.
0.686023 0.0609911 0.
0.688024 0.0609931 0.
0.690025 0.060995 0.
0.692025 0.0609967 0.
0.694026 0.0609985 0.
0.696027 0.0610001 0.
0.698028 0.0610017 0.
0.499974 0.0629991 0.
0.501975 0.0629965 0.
0.503976 0.0629943 0.
0.505977 0.0629924 0.
0.507978 0.0629909 0.
0.509978 0.0629894 0.
0.511979 0.062988 0.
0.51398 0.0629867 0.
0.515981 0.0629855 0.
0.517982 0.0629844 0.
0.519983 0.0629835 0.
0.521983 0.0629825 0.
0.523984 0.0629817 0.
0.525985 0.0629808 0.
0.527986 0.06298 0.
0.529986 0.0629795 0.
0.531987 0.0629791 0.
0.533988 0.0629788 0.
0.535988 0.0629789 0.
0.537989 0.0629789 0.
0.539989 0.0629788 0.
0.54199 0.0629784 0.
0.543991 0.062978 0.
0.545991 0.0629778 0.
0.547992 0.0629776 0.
0.549993 0.0629775 0.
0.551993 0.0629782 0.
0.553993 0.0629789 0.
0.555993 0.0629796 0.
0.557994 0.0629798 0.
0.559994 0.0629801 0.
0.561994 0.0629802 0.
0.563995 0.0629799 0.
0.565996 0.0629797 0.
0.567996 0.0629795 0.
0.569997 0.0629793 0.
0.571998 0.0629791 0.
0.573998 0.06298 0.
0.575999 0.0629811 0.
0.577999 0.0629821 0.
0.579999 0.062982 0.
0.581999 0.0629819 0.
0.584 0.062982 0.
0.586 0.0629823 0.
0.588 0.0629826 0.
0.59 0.0629831 0.
0.592 0.0629837 0.
0.594001 0.0629843 0.
0.596001 0.0629844 0.
0.598001 0.0629844 0.
0.600001 0.0629844 0.
0.602001 0.0629844 0.
0.604002 0.0629844 0.
0.606002 0.0629843 0.
0.608003 0.0629841 0.
0.610003 0.0629838 0.
0.612004 0.0629835 0.
0.614004 0.062983 0.
0.616005 0.0629824 0.
0.618005 0.0629819 0.
0.620004 0.0629814 0.
0.622004 0.0629809 0.
0.624004 0.06298 0.
0.626004 0.0629789 0.
0.628004 0.062978 0.
0.630004 0.0629785 0.
0.632005 0.062979 0.
0.634005 0.0629792 0.
0.636006 0.062979 0.
0.638006 0.0629787 0.
0.640007 0.0629784 0.
0.642007 0.0629782 0.
0.644008 0.0629779 0.
0.646008 0.0629777 0.
0.648009 0.0629774 0.
0.650009 0.0629772 0.
0.652009 0.0629771 0.
0.65401 0.0629771 0.
0.65601 0.0629771 0.
0.658011 0.0629772 0.
0.660011 0.0629772 0.
0.662012 0.0629773 0.
0.664012 0.0629776 0.
0.666013 0.0629779 0.
0.668013 0.0629785 0.
0.670014 0.0629793 0.
0.672015 0.0629802 0.
0.674016 0.0629815 0.
0.676016 0.0629829 0.
0.678017 0.0629844 0.
0.680018 0.0629857 0.
0.682019 0.0629871 0.
0.68402 0.0629886 0.
0.686021 0.0629905 0.
0.688022 0.0629924 0.
0.690022 0.0629942 0.
0.692023 0.0629959 0.
0.694023 0.0629976 0.
0.696024 0.0629992 0.
0.698025 0.0630009 0.
0.499976 0.0649987 0.
0.501977 0.0649962 0.
0.503978 0.0649939 0.
0.505979 0.0649919 0.
0.507979 0.0649903 0.
0.50998 0.0649888 0.
0.51198 0.0649873 0.
0.513981 0.0649859 0.
0.515982 0.0649845 0.
0.517983 0.0649836 0.
0.519983 0.0649829 0.
0.521984 0.0649822 0.
0.523985 0.0649813 0.
0.525986 0.0649804 0.
0.527987 0.0649796 0.
0.529987 0.0649791 0.
0.531988 0.0649786 0.
0.533989 0.0649782 0.
0.535989 0.064978 0.
0.53799 0.0649778 0.
0.539991 0.0649777 0.
0.541991 0.0649777 0.
0.543991 0.0649777 0.
0.545992 0.0649774 0.
0.547993 0.0649771 0.
0.549993 0.0649768 0.
0.551994 0.0649777 0.
0.553994 0.0649787 0.
0.555994 0.0649794 0.
0.557994 0.0649796 0.
0.559994 0.0649797 0.
0.561995 0.0649797 0.
0.563995 0.0649795 0.
0.565996 0.0649793 0.
0.567997 0.064979 0.
0.569998 0.0649787 0.
0.571999 0.0649785 0.
0.573999 0.0649797 0.
0.575999 0.0649811 0.
0.577999 0.0649823 0.
0.58 0.0649822 0.
0.582 0.0649821 0.
0.584 0.0649821 0.
0.586 0.0649823 0.
0.587999 0.0649825 0.
0.59 0.0649829 0.
0.592 0.0649833 0.
0.594001 0.0649837 0.
0.596001 0.064984 0.
0.598 0.0649843 0.
0.6 0.0649845 0.
0.602001 0.0649843 0.
0.604001 0.064984 0.
0.606002 0.0649838 0.
0.608003 0.0649839 0.
0.610003 0.0649839 0.
0.612004 0.0649836 0.
0.614004 0.0649829 0.
0.616005 0.0649822 0.
0.618005 0.0649817 0.
0.620005 0.0649814 0.
0.622004 0.0649811 0.
0.624004 0.0649799 0.
0.626004 0.0649787 0.
0.628004 0.0649776 0.
0.630004 0.0649782 0.
0.632004 0.0649788 0.
0.634005 0.0649791 0.
0.636006 0.0649789 0.
0.638006 0.0649786 0.
0.640007 0.0649781 0.
0.642007 0.0649773 0.
0.644006 0.0649765 0.
0.646007 0.0649766 0.
0.648008 0.064977 0.
0.650009 0.0649773 0.
0.652009 0.064977 0.
0.654009 0.0649767 0.
0.656009 0.0649765 0.
0.65801 0.064977 0.
0.66001 0.0649774 0.
0.662011 0.0649775 0.
0.664011 0.0649773 0.
0.666011 0.0649771 0.
0.668011 0.0649777 0.
0.670012 0.0649787 0.
0.672013 0.0649798 0.
0.674014 0.0649812 0.
0.676015 0.0649826 0.
0.678016 0.0649841 0.
0.680016 0.0649854 0.
0.682017 0.0649866 0.
0.684018 0.0649881 0.
0.686019 0.0649899 0.
0.68802 0.0649917 0.
0.69002 0.0649934 0.
0.69202 0.0649951 0.
0.694021 0.0649968 0.
0.696021 0.0649984 0.
0.698022 0.065 0.
0.499977 0.0669975 0.
0.501978 0.0669955 0.
0.503979 0.0669935 0.
0.50598 0.0669916 0.
0.507981 0.0669899 0.
0.509981 0.0669883 0.
0.511982 0.0669867 0.
0.513983 0.0669853 0.
0.515983 0.0669838 0.
0.517984 0.0669827 0.
0.519985 0.0669818 0.
0.521985 0.0669808 0.
0.523986 0.0669803 0.
0.525987 0.0669798 0.
0.527988 0.0669793 0.
0.529989 0.0669785 0.
0.531989 0.0669778 0.
0.53399 0.0669772 0.
0.535991 0.0669771 0.
0.537992 0.066977 0.
0.539992 0.0669769 0.
0.541992 0.0669767 0.
0.543993 0.0669766 0.
0.545993 0.0669764 0.
0.547993 0.0669763 0.
0.549994 0.0669761 0.
0.551994 0.0669772 0.
0.553995 0.0669783 0.
0.555995 0.0669792 0.
0.557996 0.0669792 0.
0.559996 0.0669792 0.
0.561996 0.0669792 0.
0.563997 0.0669791 0.
0.565997 0.0669789 0.
0.567998 0.0669789 0.
0.569999 0.0669788 0.
0.571999 0.0669788 0.
0.573999 0.0669797 0.
0.575999 0.0669808 0.
0.578 0.0669818 0.
0.58 0.066982 0.
0.582 0.0669821 0.
0.584 0.0669823 0.
0.586 0.0669825 0.
0.588 0.0669827 0.
0.59 0.066983 0.
0.592 0.0669834 0.
0.594 0.0669837 0.
0.596001 0.0669839 0.
0.598001 0.0669839 0.
0.600001 0.066984 0.
0.602001 0.0669839 0.
0.604001 0.0669838 0.
0.606002 0.0669838 0.
0.608002 0.0669837 0.
0.610002 0.0669837 0.
0.612003 0.0669835 0.
0.614003 0.066983 0.
0.616004 0.0669825 0.
0.618004 0.0669822 0.
0.620003 0.0669821 0.
0.622003 0.0669819 0.
0.624003 0.0669807 0.
0.626002 0.0669793 0.
0.628002 0.0669781 0.
0.630002 0.0669782 0.
0.632003 0.0669784 0.
0.634003 0.0669784 0.
0.636004 0.0669781 0.
0.638005 0.0669778 0.
0.640005 0.0669774 0.
0.642005 0.0669769 0.
0.644005 0.0669765 0.
0.646006 0.0669763 0.
0.648006 0.0669762 0.
0.650006 0.0669761 0.
0.652007 0.0669758 0.
0.654007 0.0669754 0.
0.656008 0.0669753 0.
0.658008 0.0669758 0.
0.660009 0.0669764 0.
0.662009 0.0669767 0.
0.66401 0.0669767 0.
0.66601 0.0669767 0.
0.668011 0.0669772 0.
0.670011 0.066978 0.
0.672012 0.0669787 0.
0.674013 0.0669802 0.
0.676013 0.0669818 0.
0.678014 0.0669833 0.
0.680015 0.0669846 0.
0.682016 0.0669858 0.
0.684017 0.0669872 0.
0.686017 0.0669889 0.
0.688018 0.0669907 0.
0.690019 0.0669924 0.
0.692019 0.066994 0.
0.69402 0.0669957 0.
0.69602 0.0669974 0.
0.698021 0.0669992 0.
0.499979 0.0689964 0.
0.50198 0.0689947 0.
0.503981 0.068993 0.
0.505982 0.0689913 0.
0.507982 0.0689895 0.
0.509983 0.0689878 0.
0.511983 0.0689861 0.
0.513984 0.0689846 0.
0.515985 0.0689831 0.
0.517985 0.0689818 0.
0.519986 0.0689806 0.
0.521987 0.0689794 0.
0.523987 0.0689792 0.
0.525988 0.0689791 0.
0.527989 0.0689789 0.
0.52999 0.0689779 0.
0.531991 0.0689769 0.
0.533992 0.0689762 0.
0.535992 0.0689762 0.
0.537993 0.0689761 0.
0.539993 0.068976 0.
0.541994 0.0689758 0.
0.543994 0.0689756 0.
0.545994 0.0689755 0.
0.547994 0.0689754 0.
0.549994 0.0689754 0.
0.551995 0.0689767 0.
0.553996 0.0689779 0.
0.555996 0.0689789 0.
0.557997 0.0689788 0.
0.559997 0.0689787 0.
0.561998 0.0689787 0.
0.563998 0.0689786 0.
0.565999 0.0689786 0.
0.567999 0.0689787 0.
0.569999 0.0689789 0.
0.572 0.0689791 0.
0.574 0.0689798 0.
0.576 0.0689805 0.
0.578 0.0689813 0.
0.58 0.0689817 0.
0.582001 0.0689822 0.
0.584001 0.0689826 0.
0.586001 0.0689827 0.
0.588001 0.0689829 0.
0.590001 0.0689832 0.
0.592 0.0689834 0.
0.594 0.0689837 0.
0.596 0.0689837 0.
0.598001 0.0689835 0.
0.600001 0.0689834 0.
0.602001 0.0689835 0.
0.604001 0.0689837 0.
0.606001 0.0689837 0.
0.608001 0.0689836 0.
0.610002 0.0689835 0.
0.612002 0.0689834 0.
0.614002 0.0689831 0.
0.616003 0.0689828 0.
0.618003 0.0689828 0.
0.620002 0.0689828 0.
0.622002 0.0689828 0.
0.624001 0.0689814 0.
0.626001 0.0689799 0.
0.628 0.0689785 0.
0.630001 0.0689783 0.
0.632001 0.068978 0.
0.634001 0.0689777 0.
0.636002 0.0689773 0.
0.638004 0.0689769 0.
0.640004 0.0689766 0.
0.642004 0.0689766 0.
0.644005 0.0689765 0.
0.646005 0.068976 0.
0.648004 0.0689754 0.
0.650004 0.0689749 0.
0.652005 0.0689745 0.
0.654006 0.0689741 0.
0.656006 0.068974 0.
0.658007 0.0689747 0.
0.660007 0.0689753 0.
0.662008 0.0689758 0.
0.664008 0.0689761 0.
0.666009 0.0689764 0.
0.66801 0.0689768 0.
0.67001 0.0689772 0.
0.672011 0.0689777 0.
0.674012 0.0689792 0.
0.676012 0.0689809 0.
0.678013 0.0689825 0.
0.680013 0.0689838 0.
0.682014 0.068985 0.
0.684015 0.0689863 0.
0.686016 0.068988 0.
0.688016 0.0689896 0.
0.690017 0.0689913 0.
0.692018 0.068993 0.
0.694019 0.0689947 0.
0.69602 0.0689965 0.
0.69802 0.0689983 0.
0.499981 0.0709957 0.
0.501982 0.0709942 0.
0.503983 0.0709925 0.
0.505983 0.0709908 0.
0.507984 0.070989 0.
0.509984 0.0709872 0.
0.511985 0.0709856 0.
0.513986 0.0709841 0.
0.515986 0.0709826 0.
0.517987 0.0709812 0.
0.519987 0.0709798 0.
0.521988 0.0709784 0.
0.523989 0.0709782 0.
0.525989 0.0709783 0.
0.52799 0.0709782 0.
0.529991 0.0709772 0.
0.531992 0.0709762 0.
0.533993 0.0709755 0.
0.535994 0.0709754 0.
0.537994 0.0709754 0.
0.539995 0.0709752 0.
0.541995 0.070975 0.
0.543995 0.0709747 0.
0.545995 0.0709747 0.
0.547995 0.0709748 0.
0.549995 0.0709749 0.
0.551996 0.0709762 0.
0.553997 0.0709775 0.
0.555997 0.0709784 0.
0.557998 0.0709783 0.
0.559998 0.0709783 0.
0.561999 0.0709782 0.
0.563999 0.0709782 0.
0.565999 0.0709781 0.
0.568 0.0709784 0.
0.57 0.0709787 0.
0.572 0.070979 0.
0.574 0.0709797 0.
0.576 0.0709804 0.
0.578001 0.070981 0.
0.580001 0.0709814 0.
0.582001 0.0709819 0.
0.584001 0.0709823 0.
0.586001 0.0709827 0.
0.588001 0.0709831 0.
0.590001 0.0709834 0.
0.592 0.0709836 0.
0.594 0.0709838 0.
0.596 0.0709837 0.
0.598001 0.0709834 0.
0.600001 0.0709832 0.
0.602001 0.0709834 0.
0.604001 0.0709836 0.
0.606001 0.0709837 0.
0.608001 0.0709835 0.
0.610001 0.0709833 0.
0.612001 0.0709831 0.
0.614002 0.0709829 0.
0.616002 0.0709827 0.
0.618002 0.0709828 0.
0.620002 0.070983 0.
0.622001 0.0709832 0.
0.624001 0.0709818 0.
0.626 0.0709802 0.
0.628 0.0709788 0.
0.63 0.0709781 0.
0.632 0.0709775 0.
0.634001 0.0709769 0.
0.636002 0.0709766 0.
0.638002 0.0709762 0.
0.640003 0.0709761 0.
0.642003 0.0709761 0.
0.644004 0.0709762 0.
0.646004 0.0709755 0.
0.648003 0.0709747 0.
0.650003 0.0709739 0.
0.652004 0.0709736 0.
0.654005 0.0709732 0.
0.656005 0.0709731 0.
0.658006 0.0709738 0.
0.660006 0.0709746 0.
0.662007 0.0709751 0.
0.664007 0.0709754 0.
0.666008 0.0709757 0.
0.668008 0.0709762 0.
0.670009 0.0709767 0.
0.67201 0.0709772 0.
0.67401 0.0709786 0.
0.676011 0.0709802 0.
0.678011 0.0709816 0.
0.680012 0.0709829 0.
0.682013 0.0709841 0.
0.684013 0.0709854 0.
0.686014 0.070987 0.
0.688015 0.0709885 0.
0.690015 0.0709902 0.
0.692016 0.0709919 0.
0.694018 0.0709937 0.
0.696018 0.0709955 0.
0.698019 0.0709974 0.
0.499983 0.0729955 0.
0.501983 0.0729938 0.
0.503984 0.072992 0.
0.505985 0.0729903 0.
0.507986 0.0729884 0.
0.509986 0.0729866 0.
0.511987 0.072985 0.
0.513988 0.0729836 0.
0.515988 0.0729823 0.
0.517989 0.0729808 0.
0.519989 0.0729792 0.
0.52199 0.0729776 0.
0.52399 0.0729774 0.
0.525991 0.0729773 0.
0.527992 0.0729772 0.
0.529992 0.0729765 0.
0.531993 0.0729757 0.
0.533994 0.0729751 0.
0.535995 0.0729749 0.
0.537995 0.0729746 0.
0.539995 0.0729744 0.
0.541995 0.0729743 0.
0.543995 0.0729741 0.
0.545996 0.0729743 0.
0.547996 0.0729745 0.
0.549996 0.0729747 0.
0.551997 0.0729758 0.
0.553998 0.0729768 0.
0.555998 0.0729777 0.
0.557998 0.0729777 0.
0.559999 0.0729778 0.
0.561999 0.0729778 0.
0.563999 0.0729776 0.
0.566 0.0729775 0.
0.568 0.0729777 0.
0.57 0.0729781 0.
0.572001 0.0729785 0.
0.574001 0.0729794 0.
0.576001 0.0729803 0.
0.578001 0.0729811 0.
0.580001 0.0729811 0.
0.582001 0.0729811 0.
0.584001 0.0729814 0.
0.586001 0.0729824 0.
0.588001 0.0729833 0.
0.590001 0.0729838 0.
0.592 0.0729839 0.
0.594 0.072984 0.
0.596 0.0729838 0.
0.598001 0.0729836 0.
0.600001 0.0729834 0.
0.602001 0.0729836 0.
0.604 0.0729837 0.
0.606 0.0729837 0.
0.608001 0.0729834 0.
0.610001 0.072983 0.
0.612001 0.0729827 0.
0.614001 0.0729825 0.
0.616002 0.0729822 0.
0.618002 0.0729824 0.
0.620002 0.0729828 0.
0.622002 0.0729832 0.
0.624001 0.0729818 0.
0.626001 0.0729803 0.
0.628001 0.0729788 0.
0.630001 0.0729778 0.
0.632 0.0729769 0.
0.634001 0.0729762 0.
0.636001 0.072976 0.
0.638002 0.0729758 0.
0.640002 0.0729757 0.
0.642002 0.0729756 0.
0.644003 0.0729756 0.
0.646003 0.0729749 0.
0.648003 0.0729741 0.
0.650003 0.0729733 0.
0.652004 0.072973 0.
0.654004 0.0729727 0.
0.656004 0.0729726 0.
0.658005 0.0729733 0.
0.660005 0.0729741 0.
0.662005 0.0729746 0.
0.664006 0.0729747 0.
0.666007 0.0729748 0.
0.668007 0.0729754 0.
0.670008 0.0729764 0.
0.672009 0.0729773 0.
0.674009 0.0729784 0.
0.676009 0.0729795 0.
0.67801 0.0729806 0.
0.68001 0.0729818 0.
0.682011 0.0729831 0.
0.684012 0.0729844 0.
0.686012 0.0729859 0.
0.688013 0.0729874 0.
0.690013 0.0729891 0.
0.692014 0.0729909 0.
0.694015 0.0729927 0.
0.696016 0.0729945 0.
0.698017 0.0729963 0.
0.499984 0.0749949 0.
0.501985 0.0749933 0.
0.503986 0.0749915 0.
0.505987 0.0749897 0.
0.507988 0.0749878 0.
0.509988 0.074986 0.
0.511989 0.0749844 0.
0.51399 0.0749832 0.
0.51599 0.074982 0.
0.517991 0.0749804 0.
0.519991 0.0749786 0.
0.521991 0.0749768 0.
0.523992 0.0749765 0.
0.525993 0.0749764 0.
0.527993 0.0749762 0.
0.529994 0.0749757 0.
0.531994 0.0749752 0.
0.533995 0.0749747 0.
0.535995 0.0749743 0.
0.537996 0.0749739 0.
0.539996 0.0749737 0.
0.541996 0.0749736 0.
0.543996 0.0749735 0.
0.545996 0.0749738 0.
0.547997 0.0749741 0.
0.549998 0.0749744 0.
0.551998 0.0749753 0.
0.553998 0.0749762 0.
0.555999 0.0749769 0.
0.557999 0.0749771 0.
0.559999 0.0749773 0.
0.562 0.0749774 0.
0.564 0.0749771 0.
0.566 0.0749769 0.
0.568 0.0749771 0.
0.570001 0.0749775 0.
0.572001 0.0749779 0.
0.574001 0.074979 0.
0.576002 0.0749802 0.
0.578002 0.0749812 0.
0.580001 0.0749808 0.
0.582001 0.0749804 0.
0.584001 0.0749806 0.
0.586001 0.0749821 0.
0.588001 0.0749836 0.
0.590001 0.0749842 0.
0.592 0.0749842 0.
0.594 0.0749841 0.
0.596 0.074984 0.
0.598 0.0749838 0.
0.6 0.0749836 0.
0.602 0.0749837 0.
0.604 0.0749838 0.
0.606 0.0749838 0.
0.608 0.0749833 0.
0.610001 0.0749827 0.
0.612001 0.0749823 0.
0.614001 0.074982 0.
0.616001 0.0749817 0.
0.618002 0.074982 0.
0.620002 0.0749826 0.
0.622002 0.0749831 0.
0.624002 0.0749818 0.
0.626001 0.0749803 0.
0.628001 0.0749788 0.
0.630001 0.0749776 0.
0.632001 0.0749763 0.
0.634001 0.0749755 0.
0.636001 0.0749754 0.
0.638001 0.0749754 0.
0.640001 0.0749753 0.
0.642002 0.0749751 0.
0.644002 0.074975 0.
0.646002 0.0749743 0.
0.648003 0.0749735 0.
0.650004 0.0749727 0.
0.652004 0.0749724 0.
0.654004 0.0749721 0.
0.656004 0.0749721 0.
0.658004 0.0749728 0.
0.660004 0.0749736 0.
0.662004 0.074974 0.
0.664005 0.0749739 0.
0.666006 0.0749738 0.
0.668006 0.0749747 0.
0.670007 0.0749761 0.
0.672007 0.0749775 0.
0.674008 0.0749782 0.
0.676008 0.0749788 0.
0.678008 0.0749795 0.
0.680009 0.0749808 0.
0.682009 0.0749821 0.
0.68401 0.0749834 0.
0.68601 0.0749848 0.
0.688011 0.0749862 0.
0.690011 0.074988 0.
0.692012 0.0749899 0.
0.694013 0.0749918 0.
0.696014 0.0749936 0.
0.698015 0.0749952 0.
0.499987 0.0769942 0.
0.501987 0.0769924 0.
0.503988 0.0769906 0.
0.505989 0.0769888 0.
0.507989 0.0769871 0.
0.50999 0.0769854 0.
0.51199 0.0769839 0.
0.513991 0.0769826 0.
0.515991 0.0769813 0.
0.517992 0.0769798 0.
0.519993 0.0769781 0.
0.521993 0.0769764 0.
0.523994 0.076976 0.
0.525994 0.0769757 0.
0.527994 0.0769754 0.
0.529995 0.0769748 0.
0.531995 0.0769741 0.
0.533996 0.0769736 0.
0.535996 0.0769734 0.
0.537996 0.0769731 0.
0.539996 0.076973 0.
0.541996 0.076973 0.
0.543997 0.0769729 0.
0.545997 0.0769734 0.
0.547997 0.076974 0.
0.549998 0.0769746 0.
0.551998 0.0769753 0.
0.553999 0.0769759 0.
0.555999 0.0769765 0.
0.557999 0.0769767 0.
0.56 0.076977 0.
0.562 0.0769771 0.
0.564 0.0769772 0.
0.566 0.0769772 0.
0.568001 0.0769774 0.
0.570001 0.0769778 0.
0.572001 0.0769781 0.
0.574001 0.0769791 0.
0.576001 0.0769801 0.
0.578001 0.0769811 0.
0.580001 0.0769809 0.
0.582001 0.0769808 0.
0.584001 0.0769811 0.
0.586001 0.0769823 0.
0.588001 0.0769835 0.
0.590001 0.0769841 0.
0.592001 0.0769842 0.
0.594001 0.0769843 0.
0.596001 0.0769843 0.
0.598001 0.0769842 0.
0.6 0.0769841 0.
0.602 0.0769841 0.
0.604 0.0769841 0.
0.606 0.0769839 0.
0.608 0.0769834 0.
0.61 0.0769829 0.
0.612 0.0769825 0.
0.614001 0.0769823 0.
0.616001 0.0769821 0.
0.618001 0.0769823 0.
0.620001 0.0769828 0.
0.622001 0.0769832 0.
0.624001 0.0769817 0.
0.626001 0.07698 0.
0.628001 0.0769784 0.
0.630001 0.0769772 0.
0.632001 0.0769761 0.
0.634001 0.0769752 0.
0.636001 0.076975 0.
0.638001 0.0769748 0.
0.640001 0.0769748 0.
0.642001 0.0769748 0.
0.644001 0.0769749 0.
0.646002 0.0769743 0.
0.648002 0.0769736 0.
0.650003 0.0769728 0.
0.652003 0.0769725 0.
0.654002 0.0769721 0.
0.656002 0.0769719 0.
0.658002 0.0769725 0.
0.660002 0.0769731 0.
0.662003 0.0769734 0.
0.664003 0.0769732 0.
0.666004 0.076973 0.
0.668005 0.0769739 0.
0.670005 0.0769753 0.
0.672006 0.0769767 0.
0.674006 0.0769774 0.
0.676006 0.076978 0.
0.678007 0.0769787 0.
0.680007 0.0769799 0.
0.682007 0.0769812 0.
0.684008 0.0769825 0.
0.686008 0.0769838 0.
0.688008 0.0769852 0.
0.690009 0.0769869 0.
0.69201 0.0769888 0.
0.694011 0.0769907 0.
0.696012 0.0769927 0.
0.698012 0.0769946 0.
0.49999 0.078993 0.
0.50199 0.0789914 0.
0.50399 0.0789897 0.
0.505991 0.0789879 0.
0.507991 0.0789864 0.
0.509991 0.0789848 0.
0.511992 0.0789833 0.
0.513992 0.078982 0.
0.515993 0.0789807 0.
0.517994 0.0789792 0.
0.519994 0.0789776 0.
0.521995 0.078976 0.
0.523995 0.0789755 0.
0.525995 0.0789751 0.
0.527995 0.0789746 0.
0.529996 0.0789738 0.
0.531996 0.078973 0.
0.533997 0.0789725 0.
0.535997 0.0789724 0.
0.537996 0.0789723 0.
0.539997 0.0789723 0.
0.541997 0.0789723 0.
0.543997 0.0789724 0.
0.545998 0.078973 0.
0.547998 0.0789739 0.
0.549998 0.0789748 0.
0.551998 0.0789752 0.
0.553999 0.0789756 0.
0.555999 0.078976 0.
0.557999 0.0789763 0.
0.56 0.0789766 0.
0.562 0.0789769 0.
0.564 0.0789772 0.
0.566 0.0789775 0.
0.568001 0.0789777 0.
0.570001 0.078978 0.
0.572001 0.0789782 0.
0.574001 0.0789791 0.
0.576001 0.0789801 0.
0.578001 0.0789809 0.
0.580001 0.0789811 0.
0.582002 0.0789812 0.
0.584002 0.0789816 0.
0.586002 0.0789825 0.
0.588001 0.0789834 0.
0.590001 0.0789839 0.
0.592001 0.0789842 0.
0.594001 0.0789845 0.
0.596001 0.0789846 0.
0.598001 0.0789846 0.
0.600001 0.0789846 0.
0.602001 0.0789845 0.
0.604001 0.0789843 0.
0.606001 0.0789841 0.
0.608 0.0789836 0.
0.61 0.078983 0.
0.612 0.0789827 0.
0.614 0.0789826 0.
0.616 0.0789825 0.
0.618 0.0789827 0.
0.620001 0.078983 0.
0.622001 0.0789832 0.
0.624001 0.0789816 0.
0.626001 0.0789798 0.
0.628001 0.078978 0.
0.630001 0.0789769 0.
0.632 0.0789758 0.
0.634 0.0789749 0.
0.636 0.0789746 0.
0.638001 0.0789743 0.
0.640001 0.0789743 0.
0.642001 0.0789745 0.
0.644001 0.0789748 0.
0.646001 0.0789743 0.
0.648001 0.0789736 0.
0.650002 0.0789729 0.
0.652001 0.0789725 0.
0.654001 0.0789721 0.
0.656001 0.0789718 0.
0.658001 0.0789722 0.
0.660001 0.0789727 0.
0.662001 0.0789728 0.
0.664002 0.0789725 0.
0.666003 0.0789722 0.
0.668003 0.078973 0.
0.670004 0.0789745 0.
0.672004 0.078976 0.
0.674005 0.0789766 0.
0.676005 0.0789772 0.
0.678006 0.0789778 0.
0.680006 0.078979 0.
0.682006 0.0789802 0.
0.684006 0.0789815 0.
0.686006 0.0789828 0.
0.688006 0.0789841 0.
0.690007 0.0789858 0.
0.692008 0.0789877 0.
0.694009 0.0789896 0.
0.696009 0.0789918 0.
0.698009 0.078994 0.
0.499992 0.0809924 0.
0.501992 0.0809907 0.
0.503992 0.080989 0.
0.505992 0.0809873 0.
0.507993 0.0809857 0.
0.509993 0.0809841 0.
0.511993 0.0809826 0.
0.513994 0.0809814 0.
0.515994 0.0809801 0.
0.517995 0.0809788 0.
0.519996 0.0809773 0.
0.521997 0.0809759 0.
0.523997 0.0809752 0.
0.525996 0.0809745 0.
0.527996 0.0809738 0.
0.529997 0.080973 0.
0.531997 0.0809723 0.
0.533998 0.0809718 0.
0.535997 0.0809718 0.
0.537997 0.0809718 0.
0.539997 0.0809719 0.
0.541998 0.080972 0.
0.543998 0.0809721 0.
0.545998 0.0809728 0.
0.547999 0.0809736 0.
0.549999 0.0809745 0.
0.551999 0.0809749 0.
0.553999 0.0809753 0.
0.555999 0.0809757 0.
0.558 0.0809759 0.
0.56 0.0809762 0.
0.562 0.0809765 0.
0.564 0.080977 0.
0.566 0.0809775 0.
0.568001 0.0809778 0.
0.570001 0.0809781 0.
0.572001 0.0809785 0.
0.574001 0.0809792 0.
0.576001 0.0809799 0.
0.578001 0.0809806 0.
0.580001 0.080981 0.
0.582002 0.0809814 0.
0.584002 0.0809818 0.
0.586002 0.0809825 0.
0.588002 0.0809832 0.
0.590001 0.0809838 0.
0.592001 0.0809841 0.
0.594001 0.0809844 0.
0.596001 0.0809847 0.
0.598001 0.0809848 0.
0.600001 0.080985 0.
0.602001 0.0809847 0.
0.604001 0.0809844 0.
0.606001 0.0809841 0.
0.608001 0.0809837 0.
0.61 0.0809833 0.
0.612 0.080983 0.
0.614 0.0809828 0.
0.616 0.0809826 0.
0.618 0.0809827 0.
0.62 0.0809828 0.
0.622 0.080983 0.
0.624 0.0809814 0.
0.626 0.0809797 0.
0.628 0.080978 0.
0.63 0.0809769 0.
0.632 0.0809758 0.
0.634 0.080975 0.
0.636 0.0809745 0.
0.638 0.0809741 0.
0.640001 0.080974 0.
0.642001 0.0809744 0.
0.644001 0.0809747 0.
0.646001 0.0809742 0.
0.648001 0.0809735 0.
0.650001 0.0809727 0.
0.652001 0.0809724 0.
0.654001 0.0809721 0.
0.656 0.0809719 0.
0.658 0.080972 0.
0.66 0.0809722 0.
0.662 0.0809722 0.
0.664001 0.080972 0.
0.666001 0.0809718 0.
0.668002 0.0809726 0.
0.670002 0.0809739 0.
0.672003 0.0809753 0.
0.674003 0.080976 0.
0.676004 0.0809766 0.
0.678004 0.0809773 0.
0.680004 0.0809784 0.
0.682004 0.0809796 0.
0.684004 0.0809808 0.
0.686004 0.0809822 0.
0.688004 0.0809836 0.
0.690005 0.0809851 0.
0.692006 0.0809869 0.
0.694007 0.0809887 0.
0.696007 0.0809908 0.
0.698007 0.080993 0.
0.499993 0.0829921 0.
0.501993 0.0829903 0.
0.503994 0.0829885 0.
0.505994 0.0829868 0.
0.507994 0.082985 0.
0.509995 0.0829832 0.
0.511995 0.0829818 0.
0.513995 0.0829807 0.
0.515996 0.0829797 0.
0.517996 0.0829785 0.
0.519997 0.0829773 0.
0.521998 0.082976 0.
0.523998 0.082975 0.
0.525998 0.082974 0.
0.527998 0.082973 0.
0.529998 0.0829725 0.
0.531998 0.0829719 0.
0.533998 0.0829716 0.
0.535998 0.0829716 0.
0.537998 0.0829717 0.
0.539998 0.0829718 0.
0.541999 0.0829719 0.
0.543999 0.082972 0.
0.545999 0.0829726 0.
0.547999 0.0829732 0.
0.549999 0.0829738 0.
0.552 0.0829745 0.
0.554 0.0829751 0.
0.556 0.0829756 0.
0.558 0.0829757 0.
0.56 0.0829758 0.
0.562 0.0829761 0.
0.564 0.0829766 0.
0.566 0.0829772 0.
0.568 0.0829777 0.
0.570001 0.0829782 0.
0.572001 0.0829788 0.
0.574001 0.0829792 0.
0.576001 0.0829796 0.
0.578001 0.0829801 0.
0.580001 0.0829806 0.
0.582001 0.0829812 0.
0.584001 0.0829818 0.
0.586001 0.0829824 0.
0.588001 0.0829831 0.
0.590001 0.0829835 0.
0.592001 0.0829838 0.
0.594001 0.0829841 0.
0.596 0.0829845 0.
0.598 0.0829849 0.
0.6 0.0829853 0.
0.602001 0.0829848 0.
0.604001 0.0829844 0.
0.606001 0.082984 0.
0.608001 0.0829839 0.
0.610001 0.0829837 0.
0.612 0.0829834 0.
0.614 0.0829829 0.
0.616 0.0829824 0.
0.618 0.0829823 0.
0.62 0.0829824 0.
0.622 0.0829825 0.
0.624 0.0829812 0.
0.626 0.0829797 0.
0.628 0.0829782 0.
0.63 0.0829773 0.
0.632 0.0829763 0.
0.634 0.0829754 0.
0.636 0.0829748 0.
0.638 0.0829742 0.
0.640001 0.0829741 0.
0.642001 0.0829743 0.
0.644001 0.0829745 0.
0.646001 0.082974 0.
0.648001 0.0829732 0.
0.650001 0.0829724 0.
0.652 0.0829723 0.
0.654 0.0829722 0.
0.656 0.0829721 0.
0.658 0.0829719 0.
0.66 0.0829717 0.
0.662 0.0829716 0.
0.664 0.0829717 0.
0.666001 0.0829718 0.
0.668001 0.0829726 0.
0.670001 0.0829736 0.
0.672001 0.0829747 0.
0.674001 0.0829755 0.
0.676002 0.0829763 0.
0.678002 0.0829772 0.
0.680002 0.0829782 0.
0.682002 0.0829793 0.
0.684003 0.0829805 0.
0.686003 0.082982 0.
0.688003 0.0829835 0.
0.690003 0.082985 0.
0.692004 0.0829864 0.
0.694005 0.0829878 0.
0.696005 0.0829897 0.
0.698005 0.0829917 0.
0.499995 0.084992 0.
0.501995 0.0849899 0.
0.503995 0.0849881 0.
0.505995 0.0849863 0.
0.507996 0.0849843 0.
0.509996 0.0849824 0.
0.511997 0.084981 0.
0.513997 0.0849801 0.
0.515997 0.0849792 0.
0.517998 0.0849782 0.
0.519998 0.0849772 0.
0.521999 0.0849761 0.
0.523999 0.0849748 0.
0.525999 0.0849734 0.
0.527999 0.0849722 0.
0.529999 0.0849719 0.
0.531999 0.0849716 0.
0.533999 0.0849714 0.
0.535999 0.0849715 0.
0.537999 0.0849715 0.
0.539999 0.0849716 0.
0.541999 0.0849718 0.
0.544 0.084972 0.
0.546 0.0849723 0.
0.548 0.0849728 0.
0.55 0.0849732 0.
0.552 0.084974 0.
0.554001 0.0849748 0.
0.556001 0.0849754 0.
0.558001 0.0849754 0.
0.56 0.0849754 0.
0.562 0.0849757 0.
0.564 0.0849763 0.
0.566 0.0849768 0.
0.568 0.0849775 0.
0.570001 0.0849783 0.
0.572001 0.0849791 0.
0.574001 0.0849793 0.
0.576001 0.0849794 0.
0.578001 0.0849796 0.
0.580001 0.0849803 0.
0.582001 0.084981 0.
0.584001 0.0849817 0.
0.586001 0.0849823 0.
0.588001 0.0849829 0.
0.590001 0.0849833 0.
0.592 0.0849836 0.
0.594 0.0849839 0.
0.596 0.0849844 0.
0.598 0.084985 0.
0.6 0.0849856 0.
0.602 0.084985 0.
0.604 0.0849844 0.
0.606 0.0849839 0.
0.608001 0.0849841 0.
0.610001 0.0849842 0.
0.612001 0.0849839 0.
0.614 0.084983 0.
0.616 0.0849821 0.
0.618 0.0849819 0.
0.62 0.0849819 0.
0.622 0.084982 0.
0.624 0.0849809 0.
0.626 0.0849797 0.
0.628 0.0849785 0.
0.63 0.0849776 0.
0.632 0.0849767 0.
0.634 0.0849758 0.
0.636 0.0849751 0.
0.638 0.0849743 0.
0.640001 0.0849741 0.
0.642001 0.0849742 0.
0.644001 0.0849744 0.
0.646001 0.0849737 0.
0.648001 0.0849728 0.
0.65 0.084972 0.
0.652 0.0849722 0.
0.654 0.0849724 0.
0.656 0.0849724 0.
0.658 0.0849718 0.
0.659999 0.0849712 0.
0.661999 0.084971 0.
0.664 0.0849715 0.
0.666 0.0849719 0.
0.668 0.0849725 0.
0.67 0.0849733 0.
0.672 0.0849741 0.
0.674 0.0849751 0.
0.676 0.0849761 0.
0.678 0.0849771 0.
0.68 0.0849781 0.
0.682001 0.084979 0.
0.684001 0.0849802 0.
0.686001 0.0849818 0.
0.688001 0.0849835 0.
0.690002 0.0849848 0.
0.692002 0.0849859 0.
0.694003 0.084987 0.
0.696003 0.0849886 0.
0.698004 0.0849904 0.
0.499997 0.0869914 0.
0.501997 0.0869894 0.
0.503997 0.0869875 0.
0.505997 0.0869856 0.
0.507997 0.0869837 0.
0.509998 0.0869818 0.
0.511998 0.0869804 0.
0.513998 0.0869797 0.
0.515999 0.086979 0.
0.517999 0.0869779 0.
0.52 0.0869767 0.
0.522 0.0869755 0.
0.524 0.0869741 0.
0.525999 0.0869727 0.
0.527999 0.0869715 0.
0.529999 0.0869713 0.
0.532 0.0869712 0.
0.534 0.0869711 0.
0.536 0.0869711 0.
0.537999 0.0869712 0.
0.54 0.0869714 0.
0.542 0.0869718 0.
0.544 0.0869721 0.
0.546 0.0869725 0.
0.548 0.0869728 0.
0.55 0.0869731 0.
0.552 0.0869738 0.
0.554 0.0869745 0.
0.556 0.0869751 0.
0.558 0.0869752 0.
0.56 0.0869753 0.
0.562 0.0869755 0.
0.564 0.086976 0.
0.566 0.0869764 0.
0.568 0.0869772 0.
0.57 0.0869782 0.
0.572 0.0869791 0.
0.574001 0.0869794 0.
0.576001 0.0869796 0.
0.578001 0.0869798 0.
0.580001 0.0869805 0.
0.582001 0.0869812 0.
0.584001 0.0869819 0.
0.586001 0.0869826 0.
0.588001 0.0869833 0.
0.590001 0.0869837 0.
0.592 0.0869838 0.
0.594 0.0869839 0.
0.596 0.0869845 0.
0.598 0.0869852 0.
0.6 0.0869859 0.
0.602 0.0869854 0.
0.604 0.0869848 0.
0.606 0.0869843 0.
0.608 0.0869844 0.
0.61 0.0869844 0.
0.612 0.0869841 0.
0.614 0.0869835 0.
0.616 0.0869828 0.
0.618 0.0869824 0.
0.62 0.086982 0.
0.621999 0.0869817 0.
0.624 0.0869806 0.
0.626 0.0869795 0.
0.628 0.0869784 0.
0.63 0.0869774 0.
0.632 0.0869763 0.
0.634 0.0869754 0.
0.636 0.086975 0.
0.638 0.0869746 0.
0.64 0.0869742 0.
0.642 0.086974 0.
0.644 0.0869737 0.
0.646 0.0869733 0.
0.648 0.086973 0.
0.65 0.0869726 0.
0.651999 0.0869723 0.
0.653999 0.0869721 0.
0.655999 0.0869717 0.
0.657998 0.0869714 0.
0.659998 0.086971 0.
0.661998 0.0869709 0.
0.663998 0.0869713 0.
0.665998 0.0869716 0.
0.667998 0.0869722 0.
0.669999 0.0869728 0.
0.671999 0.0869735 0.
0.673999 0.0869744 0.
0.675999 0.0869753 0.
0.677999 0.0869763 0.
0.679999 0.0869775 0.
0.682 0.0869787 0.
0.684 0.0869799 0.
0.686 0.0869814 0.
0.688 0.0869829 0.
0.69 0.0869843 0.
0.692001 0.0869856 0.
0.694001 0.0869869 0.
0.696002 0.0869884 0.
0.698002 0.08699 0.
0.499999 0.0889912 0.
0.501999 0.0889889 0.
0.503999 0.0889869 0.
0.505999 0.088985 0.
0.507999 0.0889831 0.
0.509999 0.0889812 0.
0.511999 0.0889799 0.
0.514 0.0889793 0.
0.516001 0.0889787 0.
0.518001 0.0889776 0.
0.520001 0.0889763 0.
0.522001 0.0889749 0.
0.524 0.0889735 0.
0.526 0.088972 0.
0.527999 0.0889707 0.
0.53 0.0889707 0.
0.532 0.0889707 0.
0.534001 0.0889708 0.
0.536 0.0889708 0.
0.538 0.0889708 0.
0.54 0.0889712 0.
0.542 0.0889717 0.
0.544 0.0889723 0.
0.546 0.0889726 0.
0.548 0.0889728 0.
0.55 0.088973 0.
0.551999 0.0889736 0.
0.553999 0.0889742 0.
0.555999 0.0889747 0.
0.558 0.0889749 0.
0.56 0.0889751 0.
0.562 0.0889754 0.
0.564 0.0889756 0.
0.566 0.0889759 0.
0.568 0.0889768 0.
0.57 0.088978 0.
0.572 0.0889792 0.
0.574 0.0889796 0.
0.576 0.0889798 0.
0.578001 0.0889801 0.
0.580001 0.0889808 0.
0.582 0.0889815 0.
0.584001 0.0889822 0.
0.586001 0.0889829 0.
0.588001 0.0889837 0.
0.590001 0.088984 0.
0.592 0.088984 0.
0.594 0.088984 0.
0.596 0.0889846 0.
0.598 0.0889854 0.
0.6 0.0889863 0.
0.601999 0.0889857 0.
0.603999 0.0889852 0.
0.605999 0.0889847 0.
0.607999 0.0889847 0.
0.609999 0.0889847 0.
0.611999 0.0889844 0.
0.614 0.088984 0.
0.616 0.0889836 0.
0.618 0.0889829 0.
0.619999 0.0889821 0.
0.621999 0.0889813 0.
0.623999 0.0889804 0.
0.625999 0.0889794 0.
0.628 0.0889784 0.
0.63 0.0889771 0.
0.632 0.0889759 0.
0.634 0.088975 0.
0.636 0.0889749 0.
0.637999 0.0889749 0.
0.639999 0.0889744 0.
0.641999 0.0889737 0.
0.643999 0.088973 0.
0.645999 0.088973 0.
0.647999 0.0889731 0.
0.649999 0.0889732 0.
0.651999 0.0889725 0.
0.653998 0.0889717 0.
0.655998 0.0889711 0.
0.657997 0.0889709 0.
0.659997 0.0889708 0.
0.661997 0.0889708 0.
0.663997 0.088971 0.
0.665997 0.0889713 0.
0.667997 0.0889718 0.
0.669997 0.0889723 0.
0.671998 0.0889729 0.
0.673998 0.0889737 0.
0.675998 0.0889745 0.
0.677998 0.0889754 0.
0.679998 0.0889769 0.
0.681999 0.0889783 0.
0.683999 0.0889797 0.
0.685999 0.088981 0.
0.687999 0.0889823 0.
0.689999 0.0889837 0.
0.691999 0.0889852 0.
0.694 0.0889867 0.
0.696 0.0889882 0.
0.698001 0.0889896 0.
0.500001 0.090991 0.
0.502001 0.0909888 0.
0.504001 0.0909868 0.
0.506001 0.0909849 0.
0.508001 0.0909829 0.
0.51 0.0909809 0.
0.512001 0.0909795 0.
0.514001 0.0909788 0.
0.516002 0.0909782 0.
0.518002 0.0909771 0.
0.520002 0.0909758 0.
0.522002 0.0909745 0.
0.524001 0.0909731 0.
0.526001 0.0909717 0.
0.528 0.0909704 0.
0.53 0.0909703 0.
0.532001 0.0909702 0.
0.534001 0.0909703 0.
0.536001 0.0909705 0.
0.538001 0.0909707 0.
0.54 0.0909711 0.
0.542 0.0909717 0.
0.544 0.0909723 0.
0.546 0.0909725 0.
0.548 0.0909727 0.
0.549999 0.0909729 0.
0.551999 0.0909735 0.
0.553999 0.0909741 0.
0.555999 0.0909746 0.
0.557999 0.0909747 0.
0.559999 0.0909749 0.
0.561999 0.0909751 0.
0.563999 0.0909754 0.
0.565999 0.0909756 0.
0.567999 0.0909766 0.
0.569999 0.0909779 0.
0.571999 0.0909791 0.
0.573999 0.0909795 0.
0.576 0.0909798 0.
0.578 0.0909801 0.
0.58 0.0909808 0.
0.582 0.0909815 0.
0.584 0.0909823 0.
0.586 0.0909831 0.
0.588 0.090984 0.
0.59 0.0909842 0.
0.592 0.0909841 0.
0.593999 0.0909839 0.
0.595999 0.0909845 0.
0.598 0.0909853 0.
0.6 0.090986 0.
0.602 0.0909857 0.
0.603999 0.0909853 0.
0.605999 0.090985 0.
0.607999 0.0909848 0.
0.609999 0.0909847 0.
0.611999 0.0909846 0.
0.613999 0.0909843 0.
0.616 0.090984 0.
0.618 0.0909833 0.
0.62 0.0909823 0.
0.621999 0.0909814 0.
0.623999 0.0909804 0.
0.625999 0.0909794 0.
0.627999 0.0909784 0.
0.63 0.0909771 0.
0.632 0.0909758 0.
0.634 0.0909749 0.
0.636 0.090975 0.
0.637999 0.0909751 0.
0.639999 0.0909746 0.
0.641998 0.0909738 0.
0.643998 0.0909729 0.
0.645998 0.0909729 0.
0.647998 0.0909731 0.
0.649998 0.0909732 0.
0.651998 0.0909725 0.
0.653997 0.0909718 0.
0.655997 0.0909712 0.
0.657997 0.090971 0.
0.659997 0.0909708 0.
0.661996 0.0909708 0.
0.663996 0.090971 0.
0.665996 0.0909713 0.
0.667996 0.0909716 0.
0.669996 0.090972 0.
0.671997 0.0909724 0.
0.673997 0.0909731 0.
0.675996 0.0909738 0.
0.677996 0.0909747 0.
0.679997 0.0909763 0.
0.681997 0.090978 0.
0.683997 0.0909795 0.
0.685997 0.0909808 0.
0.687997 0.0909821 0.
0.689997 0.0909835 0.
0.691998 0.0909849 0.
0.693998 0.0909863 0.
0.695998 0.0909879 0.
0.697999 0.0909894 0.
0.500003 0.0929909 0.
0.502003 0.0929891 0.
0.504003 0.0929873 0.
0.506002 0.0929854 0.
0.508002 0.0929831 0.
0.510002 0.0929808 0.
0.512002 0.0929791 0.
0.514002 0.0929782 0.
0.516003 0.0929773 0.
0.518003 0.0929763 0.
0.520003 0.0929753 0.
0.522003 0.0929742 0.
0.524002 0.092973 0.
0.526002 0.0929718 0.
0.528001 0.0929706 0.
0.530001 0.0929702 0.
0.532001 0.0929697 0.
0.534001 0.0929696 0.
0.536001 0.0929701 0.
0.538001 0.0929706 0.
0.540001 0.0929711 0.
0.542 0.0929716 0.
0.544 0.0929721 0.
0.546 0.0929724 0.
0.548 0.0929726 0.
0.549999 0.0929728 0.
0.551999 0.0929735 0.
0.553999 0.0929741 0.
0.555999 0.0929746 0.
0.557999 0.0929747 0.
0.559999 0.0929747 0.
0.561999 0.0929749 0.
0.563999 0.0929752 0.
0.565999 0.0929755 0.
0.567998 0.0929764 0.
0.569998 0.0929776 0.
0.571998 0.0929788 0.
0.573999 0.0929792 0.
0.575999 0.0929795 0.
0.578 0.0929798 0.
0.58 0.0929806 0.
0.582 0.0929814 0.
0.584 0.0929823 0.
0.586 0.0929832 0.
0.588 0.0929841 0.
0.589999 0.0929843 0.
0.591999 0.092984 0.
0.593999 0.0929838 0.
0.595999 0.0929841 0.
0.598 0.0929846 0.
0.6 0.0929852 0.
0.602 0.0929851 0.
0.604 0.0929851 0.
0.606 0.092985 0.
0.608 0.0929848 0.
0.61 0.0929847 0.
0.612 0.0929845 0.
0.614 0.0929843 0.
0.616 0.0929841 0.
0.618 0.0929835 0.
0.62 0.0929827 0.
0.622 0.0929818 0.
0.624 0.0929807 0.
0.626 0.0929796 0.
0.627999 0.0929785 0.
0.63 0.0929772 0.
0.632 0.092976 0.
0.634 0.0929752 0.
0.636 0.0929752 0.
0.638 0.0929753 0.
0.639999 0.0929749 0.
0.641999 0.0929741 0.
0.643998 0.0929734 0.
0.645998 0.0929731 0.
0.647998 0.0929728 0.
0.649998 0.0929726 0.
0.651998 0.0929725 0.
0.653997 0.0929724 0.
0.655997 0.0929722 0.
0.657997 0.0929717 0.
0.659997 0.0929711 0.
0.661997 0.0929709 0.
0.663996 0.0929712 0.
0.665996 0.0929715 0.
0.667995 0.0929717 0.
0.669996 0.0929718 0.
0.671996 0.092972 0.
0.673996 0.0929726 0.
0.675995 0.0929732 0.
0.677995 0.092974 0.
0.679995 0.0929758 0.
0.681996 0.0929777 0.
0.683996 0.0929794 0.
0.685996 0.0929809 0.
0.687996 0.0929824 0.
0.689996 0.0929837 0.
0.691996 0.0929847 0.
0.693996 0.0929857 0.
0.695996 0.0929875 0.
0.697997 0.0929895 0.
0.500006 0.094991 0.
0.502005 0.0949894 0.
0.504005 0.0949877 0.
0.506004 0.0949858 0.
0.508004 0.0949832 0.
0.510004 0.0949806 0.
0.512004 0.0949787 0.
0.514003 0.0949776 0.
0.516003 0.0949765 0.
0.518003 0.0949756 0.
0.520004 0.0949748 0.
0.522004 0.094974 0.
0.524004 0.0949729 0.
0.526003 0.0949719 0.
0.528003 0.0949708 0.
0.530002 0.09497 0.
0.532001 0.0949692 0.
0.534001 0.094969 0.
0.536001 0.0949698 0.
0.538001 0.0949706 0.
0.540001 0.0949712 0.
0.542 0.0949716 0.
0.544 0.094972 0.
0.546 0.0949723 0.
0.548 0.0949725 0.
0.549999 0.0949727 0.
0.551999 0.0949734 0.
0.553999 0.0949741 0.
0.555999 0.0949746 0.
0.557999 0.0949746 0.
0.559999 0.0949745 0.
0.561998 0.0949747 0.
0.563998 0.094975 0.
0.565998 0.0949754 0.
0.567998 0.0949763 0.
0.569998 0.0949774 0.
0.571997 0.0949785 0.
0.573998 0.0949789 0.
0.575999 0.0949792 0.
0.577999 0.0949795 0.
0.579999 0.0949804 0.
0.582 0.0949813 0.
0.584 0.0949823 0.
0.585999 0.0949832 0.
0.587999 0.0949841 0.
0.589998 0.0949843 0.
0.591998 0.094984 0.
0.593998 0.0949836 0.
0.595999 0.0949838 0.
0.598 0.094984 0.
0.600001 0.0949843 0.
0.602001 0.0949846 0.
0.604 0.0949849 0.
0.606 0.094985 0.
0.608 0.0949848 0.
0.61 0.0949846 0.
0.612 0.0949844 0.
0.614 0.0949843 0.
0.616 0.0949842 0.
0.618 0.0949837 0.
0.620001 0.094983 0.
0.622001 0.0949823 0.
0.624001 0.0949811 0.
0.626 0.0949798 0.
0.627999 0.0949786 0.
0.629999 0.0949774 0.
0.631999 0.0949762 0.
0.633999 0.0949754 0.
0.636 0.0949754 0.
0.638 0.0949754 0.
0.64 0.0949751 0.
0.641999 0.0949745 0.
0.643999 0.0949739 0.
0.645998 0.0949733 0.
0.647998 0.0949726 0.
0.649997 0.0949719 0.
0.651997 0.0949725 0.
0.653997 0.094973 0.
0.655997 0.0949732 0.
0.657997 0.0949723 0.
0.659997 0.0949714 0.
0.661997 0.0949711 0.
0.663996 0.0949714 0.
0.665995 0.0949718 0.
0.667995 0.0949718 0.
0.669995 0.0949717 0.
0.671995 0.0949716 0.
0.673995 0.094972 0.
0.675994 0.0949726 0.
0.677994 0.0949733 0.
0.679994 0.0949753 0.
0.681994 0.0949774 0.
0.683994 0.0949793 0.
0.685994 0.094981 0.
0.687994 0.0949827 0.
0.689994 0.0949838 0.
0.691993 0.0949845 0.
0.693993 0.0949851 0.
0.695994 0.0949871 0.
0.697994 0.0949895 0.
0.500007 0.0969917 0.
0.502007 0.0969897 0.
0.504007 0.0969878 0.
0.506007 0.0969857 0.
0.508006 0.0969836 0.
0.510006 0.0969814 0.
0.512006 0.0969795 0.
0.514006 0.0969781 0.
0.516005 0.0969766 0.
0.518005 0.0969756 0.
0.520005 0.0969748 0.
0.522005 0.096974 0.
0.524004 0.0969731 0.
0.526004 0.0969722 0.
0.528003 0.0969712 0.
0.530003 0.0969703 0.
0.532002 0.0969693 0.
0.534002 0.0969691 0.
0.536001 0.0969701 0.
0.538001 0.0969711 0.
0.540001 0.0969718 0.
0.542 0.0969721 0.
0.544 0.0969725 0.
0.546 0.0969727 0.
0.548 0.0969728 0.
0.55 0.0969729 0.
0.551999 0.0969736 0.
0.553999 0.0969743 0.
0.555999 0.0969747 0.
0.557998 0.0969744 0.
0.559998 0.0969741 0.
0.561998 0.0969742 0.
0.563998 0.0969748 0.
0.565998 0.0969754 0.
0.567998 0.0969762 0.
0.569997 0.0969771 0.
0.571997 0.096978 0.
0.573997 0.0969783 0.
0.575998 0.0969786 0.
0.577998 0.096979 0.
0.579998 0.0969804 0.
0.581999 0.0969818 0.
0.583999 0.096983 0.
0.585998 0.0969837 0.
0.587998 0.0969844 0.
0.589998 0.0969844 0.
0.591998 0.096984 0.
0.593998 0.0969836 0.
0.595998 0.0969837 0.
0.597999 0.0969839 0.
0.599999 0.0969842 0.
0.602 0.0969847 0.
0.604 0.0969851 0.
0.606 0.0969855 0.
0.608001 0.0969852 0.
0.610001 0.096985 0.
0.612001 0.0969847 0.
0.614001 0.0969844 0.
0.616001 0.0969841 0.
0.618001 0.0969836 0.
0.620001 0.0969829 0.
0.622002 0.0969823 0.
0.624001 0.0969813 0.
0.626001 0.0969802 0.
0.628001 0.0969791 0.
0.63 0.096978 0.
0.632 0.0969769 0.
0.634 0.096976 0.
0.636 0.0969757 0.
0.638 0.0969754 0.
0.64 0.096975 0.
0.641999 0.0969744 0.
0.643999 0.0969739 0.
0.645999 0.0969734 0.
0.647999 0.096973 0.
0.649998 0.0969725 0.
0.651998 0.0969725 0.
0.653998 0.0969725 0.
0.655997 0.0969724 0.
0.657997 0.0969718 0.
0.659997 0.0969712 0.
0.661996 0.0969711 0.
0.663996 0.0969715 0.
0.665996 0.096972 0.
0.667995 0.096972 0.
0.669995 0.0969719 0.
0.671995 0.0969718 0.
0.673994 0.0969723 0.
0.675993 0.096973 0.
0.677992 0.0969738 0.
0.679992 0.0969756 0.
0.681992 0.0969774 0.
0.683992 0.0969792 0.
0.685992 0.0969812 0.
0.687992 0.0969831 0.
0.689992 0.0969842 0.
0.691992 0.0969847 0.
0.693992 0.0969852 0.
0.695992 0.0969872 0.
0.697992 0.0969897 0.
0.500009 0.0989921 0.
0.502009 0.09899 0.
0.504009 0.0989878 0.
0.506009 0.0989856 0.
0.508009 0.0989839 0.
0.510009 0.0989821 0.
0.512008 0.0989803 0.
0.514008 0.0989786 0.
0.516007 0.0989768 0.
0.518007 0.0989756 0.
0.520006 0.0989748 0.
0.522005 0.098974 0.
0.524005 0.0989732 0.
0.526004 0.0989725 0.
0.528004 0.0989717 0.
0.530003 0.0989706 0.
0.532003 0.0989694 0.
0.534002 0.0989691 0.
0.536001 0.0989704 0.
0.538001 0.0989717 0.
0.54 0.0989724 0.
0.542 0.0989727 0.
0.544 0.098973 0.
0.546 0.0989731 0.
0.548 0.0989731 0.
0.55 0.0989731 0.
0.551999 0.0989738 0.
0.553998 0.0989744 0.
0.555998 0.0989748 0.
0.557998 0.0989742 0.
0.559998 0.0989736 0.
0.561998 0.0989737 0.
0.563998 0.0989745 0.
0.565998 0.0989753 0.
0.567998 0.098976 0.
0.569997 0.0989768 0.
0.571997 0.0989776 0.
0.573997 0.0989778 0.
0.575997 0.098978 0.
0.577998 0.0989784 0.
0.579997 0.0989803 0.
0.581997 0.0989823 0.
0.583997 0.0989838 0.
0.585997 0.0989842 0.
0.587998 0.0989846 0.
0.589998 0.0989845 0.
0.591998 0.098984 0.
0.593997 0.0989836 0.
0.595997 0.0989836 0.
0.597998 0.0989838 0.
0.599998 0.098984 0.
0.601999 0.0989847 0.
0.604 0.0989854 0.
0.606001 0.0989859 0.
0.608001 0.0989856 0.
0.610001 0.0989853 0.
0.612001 0.0989849 0.
0.614001 0.0989845 0.
0.616001 0.098984 0.
0.618001 0.0989835 0.
0.620001 0.0989829 0.
0.622002 0.0989823 0.
0.624002 0.0989815 0.
0.626002 0.0989805 0.
0.628002 0.0989796 0.
0.630001 0.0989786 0.
0.632001 0.0989775 0.
0.634001 0.0989766 0.
0.636 0.098976 0.
0.638 0.0989754 0.
0.64 0.0989749 0.
0.641999 0.0989744 0.
0.643999 0.0989738 0.
0.645999 0.0989736 0.
0.647999 0.0989733 0.
0.65 0.0989731 0.
0.651999 0.0989726 0.
0.653998 0.0989721 0.
0.655998 0.0989716 0.
0.657997 0.0989713 0.
0.659996 0.098971 0.
0.661996 0.0989711 0.
0.663996 0.0989716 0.
0.665996 0.0989722 0.
0.667996 0.0989723 0.
0.669995 0.0989721 0.
0.671994 0.098972 0.
0.673993 0.0989727 0.
0.675992 0.0989735 0.
0.677991 0.0989744 0.
0.679991 0.0989759 0.
0.681991 0.0989774 0.
0.68399 0.0989791 0.
0.68599 0.0989813 0.
0.687989 0.0989835 0.
0.689989 0.0989846 0.
0.69199 0.098985 0.
0.69399 0.0989853 0.
0.69599 0.0989874 0.
0.69799 0.0989899 0.
CELLS 5000 10000
1 0
1 1
1 2
1 3
1 4
1 5
1 6
1 7
1 8
1 9
1 10
1 11
1 12
1 13
1 14
1 15
1 16
1 17
1 18
1 19
1 20
1 21
1 22
1 23
1 24
1 25
1 26
1 27
1 28
1 29
1 30
1 31
1 32
1 33
1 34
1 35
1 36
1 37
1 38
1 39
1 40
1 41
1 42
1 43
1 44
1 45
1 46
1 47
1 48
1 49
1 50
1 51
1 52
1 53
1 54
1 55
1 56
1 57
1 58
1 59
1 60
1 61
1 62
1 63
1 64
1 65
1 66
1 67
1 68
1 69
1 70
1 71
1 72
1 73
1 74
1 75
1 76
1 77
1 78
1 79
1 80
1 81
1 82
1 83
1 84
1 85
1 86
1 87
1 88
1 89
1 90
1 91
1 92
1 93
1 94
1 95
1 96
1 97
1 98
1 99
1 100
1 101
1 102
1 103
1 104
1 105
1 106
1 107
1 108
1 109
1 110
1 111
1 112
1 113
1 114
1 115
1 116
1 117
1 118
1 119
1 120
1 121
1 122
1 123
1 124
1 125
1 126
1 127
1 128
1 129
1 130
1 131
1 132
1 133
1 134
1 135
1 136
1 137
1 138
1 139
1 140
1 141
1 142
1 143
1 144
1 145
1 146
1 147
1 148
1 149
1 150
1 151
1 152
1 153
1 154
1 155
1 156
1 157
1 158
1 159
1 160
1 161
1 162
1 163
1 164
1 165
1 166
1 167
1 168
1 169
1 170
1 171
1 172
1 173
1 174
1 175
1 176
1 177
1 178
1 179
1 180
1 181
1 182
1 183
1 184
1 185
1 186
1 187
1 188
1 189
1 190
1 191
1 192
1 193
1 194
1 195
1 196
1 197
1 198
1 199
1 200
1 201
1 202
1 203
1 204
1 205
1 206
1 207
1 208
1 209
1 210
1 211
1 212
1 213
1 214
1 215
1 216
1 217
1 218
1 219
1 220
1 221
1 222
1 223
1 224
1 225
1 226
1 227
1 228
1 229
1 230
1 231
1 232
1 233
1 234
1 235
1 236
1 237
1 238
1 239
1 240
1 241
1 242
1 243
1 244
1 245
1 246
1 247
1 248
1 249
1 250
1 251
1 252
1 253
1 254
1 255
1 256
1 257
1 258
1 259
1 260
1 261
1 262
1 263
1 264
1 265
1 266
1 267
1 268
1 269
1 270
1 271
1 272
1 273
1 274
1 275
1 276
1 277
1 278
1 279
1 280
1 281
1 282
1 283
1 284
1 285
1 286
1 287
1 288
1 289
1 290
1 291
1 292
1 293
1 294
1 295
1 296
1 297
1 298
1 299
1 300
1 301
1 302
1 303
1 304
1 305
1 306
1 307
1 308
1 309
1 310
1 311
1 312
1 313
1 314
1 315
1 316
1 317
1 318
1 319
1 320
1 321
1 322
1 323
1 324
1 325
1 326
1 327
1 328
1 329
1 330
1 331
1 332
1 333
1 334
1 335
1 336
1 337
1 338
1 339
1 340
1 341
1 342
1 343
1 344
1 345
1 346
1 347
1 348
1 349
1 350
1 351
1 352
1 353
1 354
1 355
1 356
1 357
1 358
1 359
1 360
1 361
1 362
1 363
1 364
1 365
1 366
1 367
1 368
1 369
1 370
1 371
1 372
1 373
1 374
1 375
1 376
1 377
1 378
1 379
1 380
1 381
1 382
1 383
1 384
1 385
1 386
1 387
1 388
1 389
1 390
1 391
1 392
1 393
1 394
1 395
1 396
1 397
1 398
1 399
1 400
1 401
1 402
1 403
1 404
1 405
1 406
1 407
1 408
1 409
1 410
1 411
1 412
1 413
1 414
1 415
1 416
1 417
1 418
1 419
1 420
1 421
1 422
1 423
1 424
1 425
1 426
1 427
1 428
1 429
1 430
1 431
1 432
1 433
1 434
1 435
1 436
1 437
1 438
1 439
1 440
1 441
1 442
1 443
1 444
1 445
1 446
1 447
1 448
1 449
1 450
1 451
1 452
1 453
1 454
1 455
1 456
1 457
1 458
1 459
1 460
1 461
1 462
1 463
1 464
1 465
1 466
1 467
1 468
1 469
1 470
1 471
1 472
1 473
1 474
1 475
1 476
1 477
1 478
1 479
1 480
1 481
1 482
1 483
1 484
1 485
1 486
1 487
1 488
1 489
1 490
1 491
1 492
1 493
1 494
1 495
1 496
1 497
1 498
1 499
1 500
1 501
1 502
1 503
1 504
1 505
1 506
1 507
1 508
1 509
1 510
1 511
1 512
1 513
1 514
1 515
1 516
1 517
1 518
1 519
1 520
1 521
1 522
1 523
1 524
1 525
1 526
1 527
1 528
1 529
1 530
1 531
1 532
1 533
1 534
1 535
1 536
1 537
1 538
1 539
1 540
1 541
1 542
1 543
1 544
1 545
1 546
1 547
1 548
1 549
1 550
1 551
1 552
1 553
1 554
1 555
1 556
1 557
1 558
1 559
1 560
1 561
1 562
1 563
1 564
1 565
1 566
1 567
1 568
1 569
1 570
1 571
1 572
1 573
1 574
1 575
1 576
1 577
1 578
1 579
1 580
1 581
1 582
1 583
1 584
1 585
1 586
1 587
1 588
1 589
1 590
1 591
1 592
1 593
1 594
1 595
1 596
1 597
1 598
1 599
1 600
1 601
1 602
1 603
1 604
1 605
1 606
1 607
1 608
1 609
1 610
1 611
1 612
1 613
1 614
1 615
1 616
1 617
1 618
1 619
1 620
1 621
1 622
1 623
1 624
1 625
1 626
1 627
1 628
1 629
1 630
1 631
1 632
1 633
1 634
1 635
1 636
1 637
1 638
1 639
1 640
1 641
1 642
1 643
1 644
1 645
1 646
1 647
1 648
1 649
1 650
1 651
1 652
1 653
1 654
1 655
1 656
1 657
1 658
1 659
1 660
1 661
1 662
1 663
1 664
1 665
1 666
1 667
1 668
1 669
1 670
1 671
1 672
1 673
1 674
1 675
1 676
1 677
1 678
1 679
1 680
1 681
1 682
1 683
1 684
1 685
1 686
1 687
1 688
1 689
1 690
1 691
1 692
1 693
1 694
1 695
1 696
1 697
1 698
1 699
1 700
1 701
1 702
1 703
1 704
1 705
1 706
1 707
1 708
1 709
1 710
1 711
1 712
1 713
1 714
1 715
1 716
1 717
1 718
1 719
1 720
1 721
1 722
1 723
1 724
1 725
1 726
1 727
1 728
1 729
1 730
1 731
1 732
1 733
1 734
1 735
1 736
1 737
1 738
1 739
1 740
1 741
1 742
1 743
1 744
1 745
1 746
1 747
1 748
1 749
1 750
1 751
1 752
1 753
1 754
1 755
1 756
1 757
1 758
1 759
1 760
1 761
1 762
1 763
1 764
1 765
1 766
1 767
1 768
1 769
1 770
1 771
1 772
1 773
1 774
1 775
1 776
1 777
1 778
1 779
1 780
1 781
1 782
1 783
1 784
1 785
1 786
1 787
1 788
1 789
1 790
1 791
1 792
1 793
1 794
1 795
1 796
1 797
1 798
1 799
1 800
1 801
1 802
1 803
1 804
1 805
1 806
1 807
1 808
1 809
1 810
1 811
1 812
1 813
1 814
1 815
1 816
1 817
1 818
1 819
1 820
1 821
1 822
1 823
1 824
1 825
1 826
1 827
1 828
1 829
1 830
1 831
1 832
1 833
1 834
1 835
1 836
1 837
1 838
1 839
1 840
1 841
1 842
1 843
1 844
1 845
1 846
1 847
1 848
1 849
1 850
1 851
1 852
1 853
1 854
1 855
1 856
1 857
1 858
1 859
1 860
1 861
1 862
1 863
1 864
1 865
1 866
1 867
1 868
1 869
1 870
1 871
1 872
1 873
1 874
1 875
1 876
1 877
1 878
1 879
1 880
1 881
1 882
1 883
1 884
1 885
1 886
1 887
1 888
1 889
1 890
1 891
1 892
1 893
1 894
1 895
1 896
1 897
1 898
1 899
1 900
1 901
1 902
1 903
1 904
1 905
1 906
1 907
1 908
1 909
1 910
1 911
1 912
1 913
1 914
1 915
1 916
1 917
1 918
1 919
1 920
1 921
1 922
1 923
1 924
1 925
1 926
1 927
1 928
1 929
1 930
1 931
1 932
1 933
1 934
1 935
1 936
1 937
1 938
1 939
1 940
1 941
1 942
1 943
1 944
1 945
1 946
1 947
1 948
1 949
1 950
1 951
1 952
1 953
1 954
1 955
1 956
1 957
1 958
1 959
1 960
1 961
1 962
1 963
1 964
1 965
1 966
1 967
1 968
1 969
1 970
1 971
1 972
1 973
1 974
1 975
1 976
1 977
1 978
1 979
1 980
1 981
1 982
1 983
1 984
1 985
1 986
1 987
1 988
1 989
1 990
1 991
1 992
1 993
1 994
1 995
1 996
1 997
1 998
1 999
1 1000
1 1001
1 1002
1 1003
1 1004
1 1005
1 1006
1 1007
1 1008
1 1009
1 1010
1 1011
1 1012
1 1013
1 1014
1 1015
1 1016
1 1017
1 1018
1 1019
1 1020
1 1021
1 1022
1 1023
1 1024
1 1025
1 1026
1 1027
1 1028
1 1029
1 1030
1 1031
1 1032
1 1033
1 1034
1 1035
1 1036
1 1037
1 1038
1 1039
1 1040
1 1041
1 1042
1 1043
1 1044
1 1045
1 1046
1 1047
1 1048
1 1049
1 1050
1 1051
1 1052
1 1053
1 1054
1 1055
1 1056
1 1057
1 1058
1 1059
1 1060
1 1061
1 1062
1 1063
1 1064
1 1065
1 1066
1 1067
1 1068
1 1069
1 1070
1 1071
1 1072
1 1073
1 1074
1 1075
1 1076
1 1077
1 1078
1 1079
1 1080
1 1081
1 1082
1 1083
1 1084
1 1085
1 1086
1 1087
1 1088
1 1089
1 1090
1 1091
1 1092
1 1093
1 1094
1 1095
1 1096
1 1097
1 1098
1 1099
1 1100
1 1101
1 1102
1 1103
1 1104
1 1105
1 1106
1 1107
1 1108
1 1109
1 1110
1 1111
1 1112
1 1113
1 1114
1 1115
1 1116
1 1117
1 1118
1 1119
1 1120
1 1121
1 1122
1 1123
1 1124
1 1125
1 1126
1 1127
1 1128
1 1129
1 1130
1 1131
1 1132
1 1133
1 1134
1 1135
1 1136
1 1137
1 1138
1 1139
1 1140
1 1141
1 1142
1 1143
1 1144
1 1145
1 1146
1 1147
1 1148
1 1149
1 1150
1 1151
1 1152
1 1153
1 1154
1 1155
1 1156
1 1157
1 1158
1 1159
1 1160
1 1161
1 1162
1 1163
1 1164
1 1165
1 1166
1 1167
1 1168
1 1169
1 1170
1 1171
1 1172
1 1173
1 1174
1 1175
1 1176
1 1177
1 1178
1 1179
1 1180
1 1181
1 1182
1 1183
1 1184
1 1185
1 1186
1 1187
1 1188
1 1189
1 1190
1 1191
1 1192
1 1193
1 1194
1 1195
1 1196
1 1197
1 1198
1 1199
1 1200
1 1201
1 1202
1 1203
1 1204
1 1205
1 1206
1 1207
1 1208
1 1209
1 1210
1 1211
1 1212
1 1213
1 1214
1 1215
1 1216
1 1217
1 1218
1 1219
1 1220
1 1221
1 1222
1 1223
1 1224
1 1225
1 1226
1 1227
1 1228
1 1229
1 1230
1 1231
1 1232
1 1233
1 1234
1 1235
1 1236
1 1237
1 1238
1 1239
1 1240
1 1241
1 1242
1 1243
1 1244
1 1245
1 1246
1 1247
1 1248
1 1249
1 1250
1 1251
1 1252
1 1253
1 1254
1 1255
1 1256
1 1257
1 1258
1 1259
1 1260
1 1261
1 1262
1 1263
1 1264
1 1265
1 1266
1 1267
1 1268
1 1269
1 1270
1 1271
1 1272
1 1273
1 1274
1 1275
1 1276
1 1277
1 1278
1 1279
1 1280
1 1281
1 1282
1 1283
1 1284
1 1285
1 1286
1 1287
1 1288
1 1289
1 1290
1 1291
1 1292
1 1293
1 1294
1 1295
1 1296
1 1297
1 1298
1 1299
1 1300
1 1301
1 1302
1 1303
1 1304
1 1305
1 1306
1 1307
1 1308
1 1309
1 1310
1 1311
1 1312
1 1313
1 1314
1 1315
1 1316
1 1317
1 1318
1 1319
1 1320
1 1321
1 1322
1 1323
1 1324
1 1325
1 1326
1 1327
1 1328
1 1329
1 1330
1 1331
1 1332
1 1333
1 1334
1 1335
1 1336
1 1337
1 1338
1 1339
1 1340
1 1341
1 1342
1 1343
1 1344
1 1345
1 1346
1 1347
1 1348
1 1349
1 1350
1 1351
1 1352
1 1353
1 1354
1 1355
1 1356
1 1357
1 1358
1 1359
1 1360
1 1361
1 1362
1 1363
1 1364
1 1365
1 1366
1 1367
1 1368
1 1369
1 1370
1 1371
1 1372
1 1373
1 1374
1 1375
1 1376
1 1377
1 1378
1 1379
1 1380
1 1381
1 1382
1 1383
1 1384
1 1385
1 1386
1 1387
1 1388
1 1389
1 1390
1 1391
1 1392
1 1393
1 1394
1 1395
1 1396
1 1397
1 1398
1 1399
1 1400
1 1401
1 1402
1 1403
1 1404
1 1405
1 1406
1 1407
1 1408
1 1409
1 1410
1 1411
1 1412
1 1413
1 1414
1 1415
1 1416
1 1417
1 1418
1 1419
1 1420
1 1421
1 1422
1 1423
1 1424
1 1425
1 1426
1 1427
1 1428
1 1429
1 1430
1 1431
1 1432
1 1433
1 1434
1 1435
1 1436
1 1437
1 1438
1 1439
1 1440
1 1441
1 1442
1 1443
1 1444
1 1445
1 1446
1 1447
1 1448
1 1449
1 1450
1 1451
1 1452
1 1453
1 1454
1 1455
1 1456
1 1457
1 1458
1 1459
1 1460
1 1461
1 1462
1 1463
1 1464
1 1465
1 1466
1 1467
1 1468
1 1469
1 1470
1 1471
1 1472
1 1473
1 1474
1 1475
1 1476
1 1477
1 1478
1 1479
1 1480
1 1481
1 1482
1 1483
1 1484
1 1485
1 1486
1 1487
1 1488
1 1489
1 1490
1 1491
1 1492
1 1493
1 1494
1 1495
1 1496
1 1497
1 1498
1 1499
1 1500
1 1501
1 1502
1 1503
1 1504
1 1505
1 1506
1 1507
1 1508
1 1509
1 1510
1 1511
1 1512
1 1513
1 1514
1 1515
1 1516
1 1517
1 1518
1 1519
1 1520
1 1521
1 1522
1 1523
1 1524
1 1525
1 1526
1 1527
1 1528
1 1529
1 1530
1 1531
1 1532
1 1533
1 1534
1 1535
1 1536
1 1537
1 1538
1 1539
1 1540
1 1541
1 1542
1 1543
1 1544
1 1545
1 1546
1 1547
1 1548
1 1549
1 1550
1 1551
1 1552
1 1553
1 1554
1 1555
1 1556
1 1557
1 1558
1 1559
1 1560
1 1561
1 1562
1 1563
1 1564
1 1565
1 1566
1 1567
1 1568
1 1569
1 1570
1 1571
1 1572
1 1573
1 1574
1 1575
1 1576
1 1577
1 1578
1 1579
1 1580
1 1581
1 1582
1 1583
1 1584
1 1585
1 1586
1 1587
1 1588
1 1589
1 1590
1 1591
1 1592
1 1593
1 1594
1 1595
1 1596
1 1597
1 1598
1 1599
1 1600
1 1601
1 1602
1 1603
1 1604
1 1605
1 1606
1 1607
1 1608
1 1609
1 1610
1 1611
1 1612
1 1613
1 1614
1 1615
1 1616
1 1617
1 1618
1 1619
1 1620
1 1621
1 1622
1 1623
1 1624
1 1625
1 1626
1 1627
1 1628
1 1629
1 1630
1 1631
1 1632
1 1633
1 1634
1 1635
1 1636
1 1637
1 1638
1 1639
1 1640
1 1641
1 1642
1 1643
1 1644
1 1645
1 1646
1 1647
1 1648
1 1649
1 1650
1 1651
1 1652
1 1653
1 1654
1 1655
1 1656
1 1657
1 1658
1 1659
1 1660
1 1661
1 1662
1 1663
1 1664
1 1665
1 1666
1 1667
1 1668
1 1669
1 1670
1 1671
1 1672
1 1673
1 1674
1 1675
1 1676
1 1677
1 1678
1 1679
1 1680
1 1681
1 1682
1 1683
1 1684
1 1685
1 1686
1 1687
1 1688
1 1689
1 1690
1 1691
1 1692
1 1693
1 1694
1 1695
1 1696
1 1697
1 1698
1 1699
1 1700
1 1701
1 1702
1 1703
1 1704
1 1705
1 1706
1 1707
1 1708
1 1709
1 1710
1 1711
1 1712
1 1713
1 1714
1 1715
1 1716
1 1717
1 1718
1 1719
1 1720
1 1721
1 1722
1 1723
1 1724
1 1725
1 1726
1 1727
1 1728
1 1729
1 1730
1 1731
1 1732
1 1733
1 1734
1 1735
1 1736
1 1737
1 1738
1 1739
1 1740
1 1741
1 1742
1 1743
1 1744
1 1745
1 1746
1 1747
1 1748
1 1749
1 1750
1 1751
1 1752
1 1753
1 1754
1 1755
1 1756
1 1757
1 1758
1 1759
1 1760
1 1761
1 1762
1 1763
1 1764
1 1765
1 1766
1 1767
1 1768
1 1769
1 1770
1 1771
1 1772
1 1773
1 1774
1 1775
1 1776
1 1777
1 1778
1 1779
1 1780
1 1781
1 1782
1 1783
1 1784
1 1785
1 1786
1 1787
1 1788
1 1789
1 1790
1 1791
1 1792
1 1793
1 1794
1 1795
1 1796
1 1797
1 1798
1 1799
1 1800
1 1801
1 1802
1 1803
1 1804
1 1805
1 1806
1 1807
1 1808
1 1809
1 1810
1 1811
1 1812
1 1813
1 1814
1 1815
1 1816
1 1817
1 1818
1 1819
1 1820
1 1821
1 1822
1 1823
1 1824
1 1825
1 1826
1 1827
1 1828
1 1829
1 1830
1 1831
1 1832
1 1833
1 1834
1 1835
1 1836
1 1837
1 1838
1 1839
1 1840
1 1841
1 1842
1 1843
1 1844
1 1845
1 1846
1 1847
1 1848
1 1849
1 1850
1 1851
1 1852
1 1853
1 1854
1 1855
1 1856
1 1857
1 1858
1 1859
1 1860
1 1861
1 1862
1 1863
1 1864
1 1865
1 1866
1 1867
1 1868
1 1869
1 1870
1 1871
1 1872
1 1873
1 1874
1 1875
1 1876
1 1877
1 1878
1 1879
1 1880
1 1881
1 1882
1 1883
1 1884
1 1885
1 1886
1 1887
1 1888
1 1889
1 1890
1 1891
1 1892
1 1893
1 1894
1 1895
1 1896
1 1897
1 1898
1 1899
1 1900
1 1901
1 1902
1 1903
1 1904
1 1905
1 1906
1 1907
1 1908
1 1909
1 1910
1 1911
1 1912
1 1913
1 1914
1 1915
1 1916
1 1917
1 1918
1 1919
1 1920
1 1921
1 1922
1 1923
1 1924
1 1925
1 1926
1 1927
1 1928
1 1929
1 1930
1 1931
1 1932
1 1933
1 1934
1 1935
1 1936
1 1937
1 1938
1 1939
1 1940
1 1941
1 1942
1 1943
1 1944
1 1945
1 1946
1 1947
1 1948
1 1949
1 1950
1 1951
1 1952
1 1953
1 1954
1 1955
1 1956
1 1957
1 1958
1 1959
1 1960
1 1961
1 1962
1 1963
1 1964
1 1965
1 1966
1 1967
1 1968
1 1969
1 1970
1 1971
1 1972
1 1973
1 1974
1 1975
1 1976
1 1977
1 1978
1 1979
1 1980
1 1981
1 1982
1 1983
1 1984
1 1985
1 1986
1 1987
1 1988
1 1989
1 1990
1 1991
1 1992
1 1993
1 1994
1 1995
1 1996
1 1997
1 1998
1 1999
1 2000
1 2001
1 2002
1 2003
1 2004
1 2005
1 2006
1 2007
1 2008
1 2009
1 2010
1 2011
1 2012
1 2013
1 2014
1 2015
1 2016
1 2017
1 2018
1 2019
1 2020
1 2021
1 2022
1 2023
1 2024
1 2025
1 2026
1 2027
1 2028
1 2029
1 2030
1 2031
1 2032
1 2033
1 2034
1 2035
1 2036
1 2037
1 2038
1 2039
1 2040
1 2041
1 2042
1 2043
1 2044
1 2045
1 2046
1 2047
1 2048
1 2049
1 2050
1 2051
1 2052
1 2053
1 2054
1 2055
1 2056
1 2057
1 2058
1 2059
1 2060
1 2061
1 2062
1 2063
1 2064
1 2065
1 2066
1 2067
1 2068
1 2069
1 2070
1 2071
1 2072
1 2073
1 2074
1 2075
1 2076
1 2077
1 2078
1 2079
1 2080
1 2081
1 2082
1 2083
1 2084
1 2085
1 2086
1 2087
1 2088
1 2089
1 2090
1 2091
1 2092
1 2093
1 2094
1 2095
1 2096
1 2097
1 2098
1 2099
1 2100
1 2101
1 2102
1 2103
1 2104
1 2105
1 2106
1 2107
1 2108
1 2109
1 2110
1 2111
1 2112
1 2113
1 2114
1 2115
1 2116
1 2117
1 2118
1 2119
1 2120
1 2121
1 2122
1 2123
1 2124
1 2125
1 2126
1 2127
1 2128
1 2129
1 2130
1 2131
1 2132
1 2133
1 2134
1 2135
1 2136
1 2137
1 2138
1 2139
1 2140
1 2141
1 2142
1 2143
1 2144
1 2145
1 2146
1 2147
1 2148
1 2149
1 2150
1 2151
1 2152
1 2153
1 2154
1 2155
1 2156
1 2157
1 2158
1 2159
1 2160
1 2161
1 2162
1 2163
1 2164
1 2165
1 2166
1 2167
1 2168
1 2169
1 2170
1 2171
1 2172
1 2173
1 2174
1 2175
1 2176
1 2177
1 2178
1 2179
1 2180
1 2181
1 2182
1 2183
1 2184
1 2185
1 2186
1 2187
1 2188
1 2189
1 2190
1 2191
1 2192
1 2193
1 2194
1 2195
1 2196
1 2197
1 2198
1 2199
1 2200
1 2201
1 2202
1 2203
1 2204
1 2205
1 2206
1 2207
1 2208
1 2209
1 2210
1 2211
1 2212
1 2213
1 2214
1 2215
1 2216
1 2217
1 2218
1 2219
1 2220
1 2221
1 2222
1 2223
1 2224
1 2225
1 2226
1 2227
1 2228
1 2229
1 2230
1 2231
1 2232
1 2233
1 2234
1 2235
1 2236
1 2237
1 2238
1 2239
1 2240
1 2241
1 2242
1 2243
1 2244
1 2245
1 2246
1 2247
1 2248
1 2249
1 2250
1 2251
1 2252
1 2253
1 2254
1 2255
1 2256
1 2257
1 2258
1 2259
1 2260
1 2261
1 2262
1 2263
1 2264
1 2265
1 2266
1 2267
1 2268
1 2269
1 2270
1 2271
1 2272
1 2273
1 2274
1 2275
1 2276
1 2277
1 2278
1 2279
1 2280
1 2281
1 2282
1 2283
1 2284
1 2285
1 2286
1 2287
1 2288
1 2289
1 2290
1 2291
1 2292
1 2293
1 2294
1 2295
1 2296
1 2297
1 2298
1 2299
1 2300
1 2301
1 2302
1 2303
1 2304
1 2305
1 2306
1 2307
1 2308
1 2309
1 2310
1 2311
1 2312
1 2313
1 2314
1 2315
1 2316
1 2317
1 2318
1 2319
1 2320
1 2321
1 2322
1 2323
1 2324
1 2325
1 2326
1 2327
1 2328
1 2329
1 2330
1 2331
1 2332
1 2333
1 2334
1 2335
1 2336
1 2337
1 2338
1 2339
1 2340
1 2341
1 2342
1 2343
1 2344
1 2345
1 2346
1 2347
1 2348
1 2349
1 2350
1 2351
1 2352
1 2353
1 2354
1 2355
1 2356
1 2357
1 2358
1 2359
1 2360
1 2361
1 2362
1 2363
1 2364
1 2365
1 2366
1 2367
1 2368
1 2369
1 2370
1 2371
1 2372
1 2373
1 2374
1 2375
1 2376
1 2377
1 2378
1 2379
1 2380
1 2381
1 2382
1 2383
1 2384
1 2385
1 2386
1 2387
1 2388
1 2389
1 2390
1 2391
1 2392
1 2393
1 2394
1 2395
1 2396
1 2397
1 2398
1 2399
1 2400
1 2401
1 2402
1 2403
1 2404
1 2405
1 2406
1 2407
1 2408
1 2409
1 2410
1 2411
1 2412
1 2413
1 2414
1 2415
1 2416
1 2417
1 2418
1 2419
1 2420
1 2421
1 2422
1 2423
1 2424
1 2425
1 2426
1 2427
1 2428
1 2429
1 2430
1 2431
1 2432
1 2433
1 2434
1 2435
1 2436
1 2437
1 2438
1 2439
1 2440
1 2441
1 2442
1 2443
1 2444
1 2445
1 2446
1 2447
1 2448
1 2449
1 2450
1 2451
1 2452
1 2453
1 2454
1 2455
1 2456
1 2457
1 2458
1 2459
1 2460
1 2461
1 2462
1 2463
1 2464
1 2465
1 2466
1 2467
1 2468
1 2469
1 2470
1 2471
1 2472
1 2473
1 2474
1 2475
1 2476
1 2477
1 2478
1 2479
1 2480
1 2481
1 2482
1 2483
1 2484
1 2485
1 2486
1 2487
1 2488
1 2489
1 2490
1 2491
1 2492
1 2493
1 2494
1 2495
1 2496
1 2497
1 2498
1 2499
1 2500
1 2501
1 2502
1 2503
1 2504
1 2505
1 2506
1 2507
1 2508
1 2509
1 2510
1 2511
1 2512
1 2513
1 2514
1 2515
1 2516
1 2517
1 2518
1 2519
1 2520
1 2521
1 2522
1 2523
1 2524
1 2525
1 2526
1 2527
1 2528
1 2529
1 2530
1 2531
1 2532
1 2533
1 2534
1 2535
1 2536
1 2537
1 2538
1 2539
1 2540
1 2541
1 2542
1 2543
1 2544
1 2545
1 2546
1 2547
1 2548
1 2549
1 2550
1 2551
1 2552
1 2553
1 2554
1 2555
1 2556
1 2557
1 2558
1 2559
1 2560
1 2561
1 2562
1 2563
1 2564
1 2565
1 2566
1 2567
1 2568
1 2569
1 2570
1 2571
1 2572
1 2573
1 2574
1 2575
1 2576
1 2577
1 2578
1 2579
1 2580
1 2581
1 2582
1 2583
1 2584
1 2585
1 2586
1 2587
1 2588
1 2589
1 2590
1 2591
1 2592
1 2593
1 2594
1 2595
1 2596
1 2597
1 2598
1 2599
1 2600
1 2601
1 2602
1 2603
1 2604
1 2605
1 2606
1 2607
1 2608
1 2609
1 2610
1 2611
1 2612
1 2613
1 2614
1 2615
1 2616
1 2617
1 2618
1 2619
1 2620
1 2621
1 2622
1 2623
1 2624
1 2625
1 2626
1 2627
1 2628
1 2629
1 2630
1 2631
1 2632
1 2633
1 2634
1 2635
1 2636
1 2637
1 2638
1 2639
1 2640
1 2641
1 2642
1 2643
1 2644
1 2645
1 2646
1 2647
1 2648
1 2649
1 2650
1 2651
1 2652
1 2653
1 2654
1 2655
1 2656
1 2657
1 2658
1 2659
1 2660
1 2661
1 2662
1 2663
1 2664
1 2665
1 2666
1 2667
1 2668
1 2669
1 2670
1 2671
1 2672
1 2673
1 2674
1 2675
1 2676
1 2677
1 2678
1 2679
1 2680
1 2681
1 2682
1 2683
1 2684
1 2685
1 2686
1 2687
1 2688
1 2689
1 2690
1 2691
1 2692
1 2693
1 2694
1 2695
1 2696
1 2697
1 2698
1 2699
1 2700
1 2701
1 2702
1 2703
1 2704
1 2705
1 2706
1 2707
1 2708
1 2709
1 2710
1 2711
1 2712
1 2713
1 2714
1 2715
1 2716
1 2717
1 2718
1 2719
1 2720
1 2721
1 2722
1 2723
1 2724
1 2725
1 2726
1 2727
1 2728
1 2729
1 2730
1 2731
1 2732
1 2733
1 2734
1 2735
1 2736
1 2737
1 2738
1 2739
1 2740
1 2741
1 2742
1 2743
1 2744
1 2745
1 2746
1 2747
1 2748
1 2749
1 2750
1 2751
1 2752
1 2753
1 2754
1 2755
1 2756
1 2757
1 2758
1 2759
1 2760
1 2761
1 2762
1 2763
1 2764
1 2765
1 2766
1 2767
1 2768
1 2769
1 2770
1 2771
1 2772
1 2773
1 2774
1 2775
1 2776
1 2777
1 2778
1 2779
1 2780
1 2781
1 2782
1 2783
1 2784
1 2785
1 2786
1 2787
1 2788
1 2789
1 2790
1 2791
1 2792
1 2793
1 2794
1 2795
1 2796
1 2797
1 2798
1 2799
1 2800
1 2801
1 2802
1 2803
1 2804
1 2805
1 2806
1 2807
1 2808
1 2809
1 2810
1 2811
1 2812
1 2813
1 2814
1 2815
1 2816
1 2817
1 2818
1 2819
1 2820
1 2821
1 2822
1 2823
1 2824
1 2825
1 2826
1 2827
1 2828
1 2829
1 2830
1 2831
1 2832
1 2833
1 2834
1 2835
1 2836
1 2837
1 2838
1 2839
1 2840
1 2841
1 2842
1 2843
1 2844
1 2845
1 2846
1 2847
1 2848
1 2849
1 2850
1 2851
1 2852
1 2853
1 2854
1 2855
1 2856
1 2857
1 2858
1 2859
1 2860
1 2861
1 2862
1 2863
1 2864
1 2865
1 2866
1 2867
1 2868
1 2869
1 2870
1 2871
1 2872
1 2873
1 2874
1 2875
1 2876
1 2877
1 2878
1 2879
1 2880
1 2881
1 2882
1 2883
1 2884
1 2885
1 2886
1 2887
1 2888
1 2889
1 2890
1 2891
1 2892
1 2893
1 2894
1 2895
1 2896
1 2897
1 2898
1 2899
1 2900
1 2901
1 2902
1 2903
1 2904
1 2905
1 2906
1 2907
1 2908
1 2909
1 2910
1 2911
1 2912
1 2913
1 2914
1 2915
1 2916
1 2917
1 2918
1 2919
1 2920
1 2921
1 2922
1 2923
1 2924
1 2925
1 2926
1 2927
1 2928
1 2929
1 2930
1 2931
1 2932
1 2933
1 2934
1 2935
1 2936
1 2937
1 2938
1 2939
1 2940
1 2941
1 2942
1 2943
1 2944
1 2945
1 2946
1 2947
1 2948
1 2949
1 2950
1 2951
1 2952
1 2953
1 2954
1 2955
1 2956
1 2957
1 2958
1 2959
1 2960
1 2961
1 2962
1 2963
1 2964
1 2965
1 2966
1 2967
1 2968
1 2969
1 2970
1 2971
1 2972
1 2973
1 2974
1 2975
1 2976
1 2977
1 2978
1 2979
1 2980
1 2981
1 2982
1 2983
1 2984
1 2985
1 2986
1 2987
1 2988
1 2989
1 2990
1 2991
1 2992
1 2993
1 2994
1 2995
1 2996
1 2997
1 2998
1 2999
1 3000
1 3001
1 3002
1 3003
1 3004
1 3005
1 3006
1 3007
1 3008
1 3009
1 3010
1 3011
1 3012
1 3013
1 3014
1 3015
1 3016
1 3017
1 3018
1 3019
1 3020
1 3021
1 3022
1 3023
1 3024
1 3025
1 3026
1 3027
1 3028
1 3029
1 3030
1 3031
1 3032
1 3033
1 3034
1 3035
1 3036
1 3037
1 3038
1 3039
1 3040
1 3041
1 3042
1 3043
1 3044
1 3045
1 3046
1 3047
1 3048
1 3049
1 3050
1 3051
1 3052
1 3053
1 3054
1 3055
1 3056
1 3057
1 3058
1 3059
1 3060
1 3061
1 3062
1 3063
1 3064
1 3065
1 3066
1 3067
1 3068
1 3069
1 3070
1 3071
1 3072
1 3073
1 3074
1 3075
1 3076
1 3077
1 3078
1 3079
1 3080
1 3081
1 3082
1 3083
1 3084
1 3085
1 3086
1 3087
1 3088
1 3089
1 3090
1 3091
1 3092
1 3093
1 3094
1 3095
1 3096
1 3097
1 3098
1 3099
1 3100
1 3101
1 3102
1 3103
1 3104
1 3105
1 3106
1 3107
1 3108
1 3109
1 3110
1 3111
1 3112
1 3113
1 3114
1 3115
1 3116
1 3117
1 3118
1 3119
1 3120
1 3121
1 3122
1 3123
1 3124
1 3125
1 3126
1 3127
1 3128
1 3129
1 3130
1 3131
1 3132
1 3133
1 3134
1 3135
1 3136
1 3137
1 3138
1 3139
1 3140
1 3141
1 3142
1 3143
1 3144
1 3145
1 3146
1 3147
1 3148
1 3149
1 3150
1 3151
1 3152
1 3153
1 3154
1 3155
1 3156
1 3157
1 3158
1 3159
1 3160
1 3161
1 3162
1 3163
1 3164
1 3165
1 3166
1 3167
1 3168
1 3169
1 3170
1 3171
1 3172
1 3173
1 3174
1 3175
1 3176
1 3177
1 3178
1 3179
1 3180
1 3181
1 3182
1 3183
1 3184
1 3185
1 3186
1 3187
1 3188
1 3189
1 3190
1 3191
1 3192
1 3193
1 3194
1 3195
1 3196
1 3197
1 3198
1 3199
1 3200
1 3201
1 3202
1 3203
1 3204
1 3205
1 3206
1 3207
1 3208
1 3209
1 3210
1 3211
1 3212
1 3213
1 3214
1 3215
1 3216
1 3217
1 3218
1 3219
1 3220
1 3221
1 3222
1 3223
1 3224
1 3225
1 3226
1 3227
1 3228
1 3229
1 3230
1 3231
1 3232
1 3233
1 3234
1 3235
1 3236
1 3237
1 3238
1 3239
1 3240
1 3241
1 3242
1 3243
1 3244
1 3245
1 3246
1 3247
1 3248
1 3249
1 3250
1 3251
1 3252
1 3253
1 3254
1 3255
1 3256
1 3257
1 3258
1 3259
1 3260
1 3261
1 3262
1 3263
1 3264
1 3265
1 3266
1 3267
1 3268
1 3269
1 3270
1 3271
1 3272
1 3273
1 3274
1 3275
1 3276
1 3277
1 3278
1 3279
1 3280
1 3281
1 3282
1 3283
1 3284
1 3285
1 3286
1 3287
1 3288
1 3289
1 3290
1 3291
1 3292
1 3293
1 3294
1 3295
1 3296
1 3297
1 3298
1 3299
1 3300
1 3301
1 3302
1 3303
1 3304
1 3305
1 3306
1 3307
1 3308
1 3309
1 3310
1 3311
1 3312
1 3313
1 3314
1 3315
1 3316
1 3317
1 3318
1 3319
1 3320
1 3321
1 3322
1 3323
1 3324
1 3325
1 3326
1 3327
1 3328
1 3329
1 3330
1 3331
1 3332
1 3333
1 3334
1 3335
1 3336
1 3337
1 3338
1 3339
1 3340
1 3341
1 3342
1 3343
1 3344
1 3345
1 3346
1 3347
1 3348
1 3349
1 3350
1 3351
1 3352
1 3353
1 3354
1 3355
1 3356
1 3357
1 3358
1 3359
1 3360
1 3361
1 3362
1 3363
1 3364
1 3365
1 3366
1 3367
1 3368
1 3369
1 3370
1 3371
1 3372
1 3373
1 3374
1 3375
1 3376
1 3377
1 3378
1 3379
1 3380
1 3381
1 3382
1 3383
1 3384
1 3385
1 3386
1 3387
1 3388
1 3389
1 3390
1 3391
1 3392
1 3393
1 3394
1 3395
1 3396
1 3397
1 3398
1 3399
1 3400
1 3401
1 3402
1 3403
1 3404
1 3405
1 3406
1 3407
1 3408
1 3409
1 3410
1 3411
1 3412
1 3413
1 3414
1 3415
1 3416
1 3417
1 3418
1 3419
1 3420
1 3421
1 3422
1 3423
1 3424
1 3425
1 3426
1 3427
1 3428
1 3429
1 3430
1 3431
1 3432
1 3433
1 3434
1 3435
1 3436
1 3437
1 3438
1 3439
1 3440
1 3441
1 3442
1 3443
1 3444
1 3445
1 3446
1 3447
1 3448
1 3449
1 3450
1 3451
1 3452
1 3453
1 3454
1 3455
1 3456
1 3457
1 3458
1 3459
1 3460
1 3461
1 3462
1 3463
1 3464
1 3465
1 3466
1 3467
1 3468
1 3469
1 3470
1 3471
1 3472
1 3473
1 3474
1 3475
1 3476
1 3477
1 3478
1 3479
1 3480
1 3481
1 3482
1 3483
1 3484
1 3485
1 3486
1 3487
1 3488
1 3489
1 3490
1 3491
1 3492
1 3493
1 3494
1 3495
1 3496
1 3497
1 3498
1 3499
1 3500
1 3501
1 3502
1 3503
1 3504
1 3505
1 3506
1 3507
1 3508
1 3509
1 3510
1 3511
1 3512
1 3513
1 3514
1 3515
1 3516
1 3517
1 3518
1 3519
1 3520
1 3521
1 3522
1 3523
1 3524
1 3525
1 3526
1 3527
1 3528
1 3529
1 3530
1 3531
1 3532
1 3533
1 3534
1 3535
1 3536
1 3537
1 3538
1 3539
1 3540
1 3541
1 3542
1 3543
1 3544
1 3545
1 3546
1 3547
1 3548
1 3549
1 3550
1 3551
1 3552
1 3553
1 3554
1 3555
1 3556
1 3557
1 3558
1 3559
1 3560
1 3561
1 3562
1 3563
1 3564
1 3565
1 3566
1 3567
1 3568
1 3569
1 3570
1 3571
1 3572
1 3573
1 3574
1 3575
1 3576
1 3577
1 3578
1 3579
1 3580
1 3581
1 3582
1 3583
1 3584
1 3585
1 3586
1 3587
1 3588
1 3589
1 3590
1 3591
1 3592
1 3593
1 3594
1 3595
1 3596
1 3597
1 3598
1 3599
1 3600
1 3601
1 3602
1 3603
1 3604
1 3605
1 3606
1 3607
1 3608
1 3609
1 3610
1 3611
1 3612
1 3613
1 3614
1 3615
1 3616
1 3617
1 3618
1 3619
1 3620
1 3621
1 3622
1 3623
1 3624
1 3625
1 3626
1 3627
1 3628
1 3629
1 3630
1 3631
1 3632
1 3633
1 3634
1 3635
1 3636
1 3637
1 3638
1 3639
1 3640
1 3641
1 3642
1 3643
1 3644
1 3645
1 3646
1 3647
1 3648
1 3649
1 3650
1 3651
1 3652
1 3653
1 3654
1 3655
1 3656
1 3657
1 3658
1 3659
1 3660
1 3661
1 3662
1 3663
1 3664
1 3665
1 3666
1 3667
1 3668
1 3669
1 3670
1 3671
1 3672
1 3673
1 3674
1 3675
1 3676
1 3677
1 3678
1 3679
1 3680
1 3681
1 3682
1 3683
1 3684
1 3685
1 3686
1 3687
1 3688
1 3689
1 3690
1 3691
1 3692
1 3693
1 3694
1 3695
1 3696
1 3697
1 3698
1 3699
1 3700
1 3701
1 3702
1 3703
1 3704
1 3705
1 3706
1 3707
1 3708
1 3709
1 3710
1 3711
1 3712
1 3713
1 3714
1 3715
1 3716
1 3717
1 3718
1 3719
1 3720
1 3721
1 3722
1 3723
1 3724
1 3725
1 3726
1 3727
1 3728
1 3729
1 3730
1 3731
1 3732
1 3733
1 3734
1 3735
1 3736
1 3737
1 3738
1 3739
1 3740
1 3741
1 3742
1 3743
1 3744
1 3745
1 3746
1 3747
1 3748
1 3749
1 3750
1 3751
1 3752
1 3753
1 3754
1 3755
1 3756
1 3757
1 3758
1 3759
1 3760
1 3761
1 3762
1 3763
1 3764
1 3765
1 3766
1 3767
1 3768
1 3769
1 3770
1 3771
1 3772
1 3773
1 3774
1 3775
1 3776
1 3777
1 3778
1 3779
1 3780
1 3781
1 3782
1 3783
1 3784
1 3785
1 3786
1 3787
1 3788
1 3789
1 3790
1 3791
1 3792
1 3793
1 3794
1 3795
1 3796
1 3797
1 3798
1 3799
1 3800
1 3801
1 3802
1 3803
1 3804
1 3805
1 3806
1 3807
1 3808
1 3809
1 3810
1 3811
1 3812
1 3813
1 3814
1 3815
1 3816
1 3817
1 3818
1 3819
1 3820
1 3821
1 3822
1 3823
1 3824
1 3825
1 3826
1 3827
1 3828
1 3829
1 3830
1 3831
1 3832
1 3833
1 3834
1 3835
1 3836
1 3837
1 3838
1 3839
1 3840
1 3841
1 3842
1 3843
1 3844
1 3845
1 3846
1 3847
1 3848
1 3849
1 3850
1 3851
1 3852
1 3853
1 3854
1 3855
1 3856
1 3857
1 3858
1 3859
1 3860
1 3861
1 3862
1 3863
1 3864
1 3865
1 3866
1 3867
1 3868
1 3869
1 3870
1 3871
1 3872
1 3873
1 3874
1 3875
1 3876
1 3877
1 3878
1 3879
1 3880
1 3881
1 3882
1 3883
1 3884
1 3885
1 3886
1 3887
1 3888
1 3889
1 3890
1 3891
1 3892
1 3893
1 3894
1 3895
1 3896
1 3897
1 3898
1 3899
1 3900
1 3901
1 3902
1 3903
1 3904
1 3905
1 3906
1 3907
1 3908
1 3909
1 3910
1 3911
1 3912
1 3913
1 3914
1 3915
1 3916
1 3917
1 3918
1 3919
1 3920
1 3921
1 3922
1 3923
1 3924
1 3925
1 3926
1 3927
1 3928
1 3929
1 3930
1 3931
1 3932
1 3933
1 3934
1 3935
1 3936
1 3937
1 3938
1 3939
1 3940
1 3941
1 3942
1 3943
1 3944
1 3945
1 3946
1 3947
1 3948
1 3949
1 3950
1 3951
1 3952
1 3953
1 3954
1 3955
1 3956
1 3957
1 3958
1 3959
1 3960
1 3961
1 3962
1 3963
1 3964
1 3965
1 3966
1 3967
1 3968
1 3969
1 3970
1 3971
1 3972
1 3973
1 3974
1 3975
1 3976
1 3977
1 3978
1 3979
1 3980
1 3981
1 3982
1 3983
1 3984
1 3985
1 3986
1 3987
1 3988
1 3989
1 3990
1 3991
1 3992
1 3993
1 3994
1 3995
1 3996
1 3997
1 3998
1 3999
1 4000
1 4001
1 4002
1 4003
1 4004
1 4005
1 4006
1 4007
1 4008
1 4009
1 4010
1 4011
1 4012
1 4013
1 4014
1 4015
1 4016
1 4017
1 4018
1 4019
1 4020
1 4021
1 4022
1 4023
1 4024
1 4025
1 4026
1 4027
1 4028
1 4029
1 4030
1 4031
1 4032
1 4033
1 4034
1 4035
1 4036
1 4037
1 4038
1 4039
1 4040
1 4041
1 4042
1 4043
1 4044
1 4045
1 4046
1 4047
1 4048
1 4049
1 4050
1 4051
1 4052
1 4053
1 4054
1 4055
1 4056
1 4057
1 4058
1 4059
1 4060
1 4061
1 4062
1 4063
1 4064
1 4065
1 4066
1 4067
1 4068
1 4069
1 4070
1 4071
1 4072
1 4073
1 4074
1 4075
1 4076
1 4077
1 4078
1 4079
1 4080
1 4081
1 4082
1 4083
1 4084
1 4085
1 4086
1 4087
1 4088
1 4089
1 4090
1 4091
1 4092
1 4093
1 4094
1 4095
1 4096
1 4097
1 4098
1 4099
1 4100
1 4101
1 4102
1 4103
1 4104
1 4105
1 4106
1 4107
1 4108
1 4109
1 4110
1 4111
1 4112
1 4113
1 4114
1 4115
1 4116
1 4117
1 4118
1 4119
1 4120
1 4121
1 4122
1 4123
1 4124
1 4125
1 4126
1 4127
1 4128
1 4129
1 4130
1 4131
1 4132
1 4133
1 4134
1 4135
1 4136
1 4137
1 4138
1 4139
1 4140
1 4141
1 4142
1 4143
1 4144
1 4145
1 4146
1 4147
1 4148
1 4149
1 4150
1 4151
1 4152
1 4153
1 4154
1 4155
1 4156
1 4157
1 4158
1 4159
1 4160
1 4161
1 4162
1 4163
1 4164
1 4165
1 4166
1 4167
1 4168
1 4169
1 4170
1 4171
1 4172
1 4173
1 4174
1 4175
1 4176
1 4177
1 4178
1 4179
1 4180
1 4181
1 4182
1 4183
1 4184
1 4185
1 4186
1 4187
1 4188
1 4189
1 4190
1 4191
1 4192
1 4193
1 4194
1 4195
1 4196
1 4197
1 4198
1 4199
1 4200
1 4201
1 4202
1 4203
1 4204
1 4205
1 4206
1 4207
1 4208
1 4209
1 4210
1 4211
1 4212
1 4213
1 4214
1 4215
1 4216
1 4217
1 4218
1 4219
1 4220
1 4221
1 4222
1 4223
1 4224
1 4225
1 4226
1 4227
1 4228
1 4229
1 4230
1 4231
1 4232
1 4233
1 4234
1 4235
1 4236
1 4237
1 4238
1 4239
1 4240
1 4241
1 4242
1 4243
1 4244
1 4245
1 4246
1 4247
1 4248
1 4249
1 4250
1 4251
1 4252
1 4253
1 4254
1 4255
1 4256
1 4257
1 4258
1 4259
1 4260
1 4261
1 4262
1 4263
1 4264
1 4265
1 4266
1 4267
1 4268
1 4269
1 4270
1 4271
1 4272
1 4273
1 4274
1 4275
1 4276
1 4277
1 4278
1 4279
1 4280
1 4281
1 4282
1 4283
1 4284
1 4285
1 4286
1 4287
1 4288
1 4289
1 4290
1 4291
1 4292
1 4293
1 4294
1 4295
1 4296
1 4297
1 4298
1 4299
1 4300
1 4301
1 4302
1 4303
1 4304
1 4305
1 4306
1 4307
1 4308
1 4309
1 4310
1 4311
1 4312
1 4313
1 4314
1 4315
1 4316
1 4317
1 4318
1 4319
1 4320
1 4321
1 4322
1 4323
1 4324
1 4325
1 4326
1 4327
1 4328
1 4329
1 4330
1 4331
1 4332
1 4333
1 4334
1 4335
1 4336
1 4337
1 4338
1 4339
1 4340
1 4341
1 4342
1 4343
1 4344
1 4345
1 4346
1 4347
1 4348
1 4349
1 4350
1 4351
1 4352
1 4353
1 4354
1 4355
1 4356
1 4357
1 4358
1 4359
1 4360
1 4361
1 4362
1 4363
1 4364
1 4365
1 4366
1 4367
1 4368
1 4369
1 4370
1 4371
1 4372
1 4373
1 4374
1 4375
1 4376
1 4377
1 4378
1 4379
1 4380
1 4381
1 4382
1 4383
1 4384
1 4385
1 4386
1 4387
1 4388
1 4389
1 4390
1 4391
1 4392
1 4393
1 4394
1 4395
1 4396
1 4397
1 4398
1 4399
1 4400
1 4401
1 4402
1 4403
1 4404
1 4405
1 4406
1 4407
1 4408
1 4409
1 4410
1 4411
1 4412
1 4413
1 4414
1 4415
1 4416
1 4417
1 4418
1 4419
1 4420
1 4421
1 4422
1 4423
1 4424
1 4425
1 4426
1 4427
1 4428
1 4429
1 4430
1 4431
1 4432
1 4433
1 4434
1 4435
1 4436
1 4437
1 4438
1 4439
1 4440
1 4441
1 4442
1 4443
1 4444
1 4445
1 4446
1 4447
1 4448
1 4449
1 4450
1 4451
1 4452
1 4453
1 4454
1 4455
1 4456
1 4457
1 4458
1 4459
1 4460
1 4461
1 4462
1 4463
1 4464
1 4465
1 4466
1 4467
1 4468
1 4469
1 4470
1 4471
1 4472
1 4473
1 4474
1 4475
1 4476
1 4477
1 4478
1 4479
1 4480
1 4481
1 4482
1 4483
1 4484
1 4485
1 4486
1 4487
1 4488
1 4489
1 4490
1 4491
1 4492
1 4493
1 4494
1 4495
1 4496
1 4497
1 4498
1 4499
1 4500
1 4501
1 4502
1 4503
1 4504
1 4505
1 4506
1 4507
1 4508
1 4509
1 4510
1 4511
1 4512
1 4513
1 4514
1 4515
1 4516
1 4517
1 4518
1 4519
1 4520
1 4521
1 4522
1 4523
1 4524
1 4525
1 4526
1 4527
1 4528
1 4529
1 4530
1 4531
1 4532
1 4533
1 4534
1 4535
1 4536
1 4537
1 4538
1 4539
1 4540
1 4541
1 4542
1 4543
1 4544
1 4545
1 4546
1 4547
1 4548
1 4549
1 4550
1 4551
1 4552
1 4553
1 4554
1 4555
1 4556
1 4557
1 4558
1 4559
1 4560
1 4561
1 4562
1 4563
1 4564
1 4565
1 4566
1 4567
1 4568
1 4569
1 4570
1 4571
1 4572
1 4573
1 4574
1 4575
1 4576
1 4577
1 4578
1 4579
1 4580
1 4581
1 4582
1 4583
1 4584
1 4585
1 4586
1 4587
1 4588
1 4589
1 4590
1 4591
1 4592
1 4593
1 4594
1 4595
1 4596
1 4597
1 4598
1 4599
1 4600
1 4601
1 4602
1 4603
1 4604
1 4605
1 4606
1 4607
1 4608
1 4609
1 4610
1 4611
1 4612
1 4613
1 4614
1 4615
1 4616
1 4617
1 4618
1 4619
1 4620
1 4621
1 4622
1 4623
1 4624
1 4625
1 4626
1 4627
1 4628
1 4629
1 4630
1 4631
1 4632
1 4633
1 4634
1 4635
1 4636
1 4637
1 4638
1 4639
1 4640
1 4641
1 4642
1 4643
1 4644
1 4645
1 4646
1 4647
1 4648
1 4649
1 4650
1 4651
1 4652
1 4653
1 4654
1 4655
1 4656
1 4657
1 4658
1 4659
1 4660
1 4661
1 4662
1 4663
1 4664
1 4665
1 4666
1 4667
1 4668
1 4669
1 4670
1 4671
1 4672
1 4673
1 4674
1 4675
1 4676
1 4677
1 4678
1 4679
1 4680
1 4681
1 4682
1 4683
1 4684
1 4685
1 4686
1 4687
1 4688
1 4689
1 4690
1 4691
1 4692
1 4693
1 4694
1 4695
1 4696
1 4697
1 4698
1 4699
1 4700
1 4701
1 4702
1 4703
1 4704
1 4705
1 4706
1 4707
1 4708
1 4709
1 4710
1 4711
1 4712
1 4713
1 4714
1 4715
1 4716
1 4717
1 4718
1 4719
1 4720
1 4721
1 4722
1 4723
1 4724
1 4725
1 4726
1 4727
1 4728
1 4729
1 4730
1 4731
1 4732
1 4733
1 4734
1 4735
1 4736
1 4737
1 4738
1 4739
1 4740
1 4741
1 4742
1 4743
1 4744
1 4745
1 4746
1 4747
1 4748
1 4749
1 4750
1 4751
1 4752
1 4753
1 4754
1 4755
1 4756
1 4757
1 4758
1 4759
1 4760
1 4761
1 4762
1 4763
1 4764
1 4765
1 4766
1 4767
1 4768
1 4769
1 4770
1 4771
1 4772
1 4773
1 4774
1 4775
1 4776
1 4777
1 4778
1 4779
1 4780
1 4781
1 4782
1 4783
1 4784
1 4785
1 4786
1 4787
1 4788
1 4789
1 4790
1 4791
1 4792
1 4793
1 4794
1 4795
1 4796
1 4797
1 4798
1 4799
1 4800
1 4801
1 4802
1 4803
1 4804
1 4805
1 4806
1 4807
1 4808
1 4809
1 4810
1 4811
1 4812
1 4813
1 4814
1 4815
1 4816
1 4817
1 4818
1 4819
1 4820
1 4821
1 4822
1 4823
1 4824
1 4825
1 4826
1 4827
1 4828
1 4829
1 4830
1 4831
1 4832
1 4833
1 4834
1 4835
1 4836
1 4837
1 4838
1 4839
1 4840
1 4841
1 4842
1 4843
1 4844
1 4845
1 4846
1 4847
1 4848
1 4849
1 4850
1 4851
1 4852
1 4853
1 4854
1 4855
1 4856
1 4857
1 4858
1 4859
1 4860
1 4861
1 4862
1 4863
1 4864
1 4865
1 4866
1 4867
1 4868
1 4869
1 4870
1 4871
1 4872
1 4873
1 4874
1 4875
1 4876
1 4877
1 4878
1 4879
1 4880
1 4881
1 4882
1 4883
1 4884
1 4885
1 4886
1 4887
1 4888
1 4889
1 4890
1 4891
1 4892
1 4893
1 4894
1 4895
1 4896
1 4897
1 4898
1 4899
1 4900
1 4901
1 4902
1 4903
1 4904
1 4905
1 4906
1 4907
1 4908
1 4909
1 4910
1 4911
1 4912
1 4913
1 4914
1 4915
1 4916
1 4917
1 4918
1 4919
1 4920
1 4921
1 4922
1 4923
1 4924
1 4925
1 4926
1 4927
1 4928
1 4929
1 4930
1 4931
1 4932
1 4933
1 4934
1 4935
1 4936
1 4937
1 4938
1 4939
1 4940
1 4941
1 4942
1 4943
1 4944
1 4945
1 4946
1 4947
1 4948
1 4949
1 4950
1 4951
1 4952
1 4953
1 4954
1 4955
1 4956
1 4957
1 4958
1 4959
1 4960
1 4961
1 4962
1 4963
1 4964
1 4965
1 4966
1 4967
1 4968
1 4969
1 4970
1 4971
1 4972
1 4973
1 4974
1 4975
1 4976
1 4977
1 4978
1 4979
1 4980
1 4981
1 4982
1 4983
1 4984
1 4985
1 4986
1 4987
1 4988
1 4989
1 4990
1 4991
1 4992
1 4993
1 4994
1 4995
1 4996
1 4997
1 4998
1 4999
CELL_TYPES 5000
1 
1 
1 
1 
1 
1 
1 
1 
1 
1 
1 
1 
1 
1 
1 
1 
1 
1 
1 
1 
1 
1 
1 
1 
1 
1 
1 
1 
1 
1 
1 
1 
1 
1 
1 
1 
1 
1 
1 
1 
1 
1 
1 
1 
1 
1 
1 
1 
1 
1 
1 
1 
1 
1 
1 
1 
1 
1 
1 
1 
1 
1 
1 
1 
1 
1 
1 
1 
1 
1 
1 
1 
1 
1 
1 
1 
1 
1 
1 
1 
1 
1 
1 
1 
1 
1 
1 
1 
1 
1 
1 
1 
1 
1 
1 
1 
1 
1 
1 
1 
1 
1 
1 
1 
1 
1 
1 
1 
1 
1 
1 
1 
1 
1 
1 
1 
1 
1 
1 
1 
1 
1 
1 
1 
1 
1 
1 
1 
1 
1 
1 
1 
1 
1 
1 
1 
1 
1 
1 
1 
1 
1 
1 
1 
1 
1 
1 
1 
1 
1 
1 
1 
1 
1 
1 
1 
1 
1 
1 
1 
1 
1 
1 
1 
1 
1 
1 
1 
1 
1 
1 
1 
1 
1 
1 
1 
1 
1 
1 
1 
1 
1 
1 
1 
1 
1 
1 
1 
1 
1 
1 
1 
1 
1 
1 
1 
1 
1 
1 
1 
1 
1 
1 
1 
1 
1 
1 
1 
1 
1 
1 
1 
1 
1 
1 
1 
1 
1 
1 
1 
1 
1 
1 
1 
1 
1 
1 
1 
1 
1 
1 
1 
1 
1 
1 
1 
1 
1 
1 
1 
1 
1 
1 
1 
1 
1 
1 
1 
1 
1 
1 
1 
1 
1 
1 
1 
1 
1 
1 
1 
1 
1 
1 
1 
1 
1 
1 
1 
1 
1 
1 
1 
1 
1 
1 
1 
1 
1 
1 
1 
1 
1 
1 
1 
1 
1 
1 
1 
1 
1 
1 
1 
1 
1 
1 
1 
1 
1 
1 
1 
1 
1 
1 
1 
1 
1 
1 
1 
1 
1 
1 
1 
1 
1 
1 
1 
1 
1 
1 
1 
1 
1 
1 
1 
1 
1 
1 
1 
1 
1 
1 
1 
1 
1 
1 
1 
1 
1 
1 
1 
1 
1 
1 
1 
1 
1 
1 
1 
1 
1 
1 
1 
1 
1 
1 
1 
1 
1 
1 
1 
1 
1 
1 
1 
1 
1 
1 
1 
1 
1 
1 
1 
1 
1 
1 
1 
1 
1 
1 
1 
1 
1 
1 
1 
1 
1 
1 
1 
1 
1 
1 
1 
1 
1 
1 
1 
1 
1 
1 
1 
1 
1 
1 
1 
1 
1 
1 
1 
1 
1 
1 
1 
1 
1 
1 
1 
1 
1 
1 
1 
1 
1 
1 
1 
1 
1 
1 
1 
1 
1 
1 
1 
1 
1 
1 
1 
1 
1 
1 
1 
1 
1 
1 
1 
1 
1 
1 
1 
1 
1 
1 
1 
1 
1 
1 
1 
1 
1 
1 
1 
1 
1 
1 
1 
1 
1 
1 
1 
1 
1 
1 
1 
1 
1 
1 
1 
1 
1 
1 
1 
1 
1 
1 
1 
1 
1 
1 
1 
1 
1 
1 
1 
1 
1 
1 
1 
1 
1 
1 
1 
1 
1 
1 
1 
1 
1 
1 
1 
1 
1 
1 
1 
1 
1 
1 
1 
1 
1 
1 
1 
1 
1 
1 
1 
1 
1 
1 
1 
1 
1 
1 
1 
1 
1 
1 
1 
1 
1 
1 
1 
1 
1 
1 
1 
1 
1 
1 
1 
1 
1 
1 
1 
1 
1 
1 
1 
1 
1 
1 
1 
1 
1 
1 
1 
1 
1 
1 
1 
1 
1 
1 
1 
1 
1 
1 
1 
1 
1 
1 
1 
1 
1 
1 
1 
1 
1 
1 
1 
1 
1 
1 
1 
1 
1 
1 
1 
1 
1 
1 
1 
1 
1 
1 
1 
1 
1 
1 
1 
1 
1 
1 
1 
1 
1 
1 
1 
1 
1 
1 
1 
1 
1 
1 
1 
1 
1 
1 
1 
1 
1 
1 
1 
1 
1 
1 
1 
1 
1 
1 
1 
1 
1 
1 
1 
1 
1 
1 
1 
1 
1 
1 
1 
1 
1 
1 
1 
1 
1 
1 
1 
1 
1 
1 
1 
1 
1 
1 
1 
1 
1 
1 
1 
1 
1 
1 
1 
1 
1 
1 
1 
1 
1 
1 
1 
1 
1 
1 
1 
1 
1 
1 
1 
1 
1 
1 
1 
1 
1 
1 
1 
1 
1 
1 
1 
1 
1 
1 
1 
1 
1 
1 
1 
1 
1 
1 
1 
1 
1 
1 
1 
1 
1 
1 
1 
1 
1 
1 
1 
1 
1 
1 
1 
1 
1 
1 
1 
1 
1 
1 
1 
1 
1 
1 
1 
1 
1 
1 
1 
1 
1 
1 
1 
1 
1 
1 
1 
1 
1 
1 
1 
1 
1 
1 
1 
1 
1 
1 
1 
1 
1 
1 
1 
1 
1 
1 
1 
1 
1 
1 
1 
1 
1 
1 
1 
1 
1 
1 
1 
1 
1 
1 
1 
1 
1 
1 
1 
1 
1 
1 
1 
1 
1 
1 
1 
1 
1 
1 
1 
1 
1 
1 
1 
1 
1 
1 
1 
1 
1 
1 
1 
1 
1 
1 
1 
1 
1 
1 
1 
1 
1 
1 
1 
1 
1 
1 
1 
1 
1 
1 
1 
1 
1 
1 
1 
1 
1 
1 
1 
1 
1 
1 
1 
1 
1 
1 
1 
1 
1 
1 
1 
1 
1 
1 
1 
1 
1 
1 
1 
1 
1 
1 
1 
1 
1 
1 
1 
1 
1 
1 
1 
1 
1 
1 
1 
1 
1 
1 
1 
1 
1 
1 
1 
1 
1 
1 
1 
1 
1 
1 
1 
1 
1 
1 
1 
1 
1 
1 
1 
1 
1 
1 
1 
1 
1 
1 
1 
1 
1 
1 
1 
1 
1 
1 
1 
1 
1 
1 
1 
1 
1 
1 
1 
1 
1 
1 
1 
1 
1 
1 
1 
1 
1 
1 
1 
1 
1 
1 
1 
1 
1 
1 
1 
1 
1 
1 
1 
1 
1 
1 
1 
1 
1 
1 
1 
1 
1 
1 
1 
1 
1 
1 
1 
1 
1 
1 
1 
1 
1 
1 
1 
1 
1 
1 
1 
1 
1 
1 
1 
1 
1 
1 
1 
1 
1 
1 
1 
1 
1 
1 
1 
1 
1 
1 
1 
1 
1 
1 
1 
1 
1 
1 
1 
1 
1 
1 
1 
1 
1 
1 
1 
1 
1 
1 
1 
1 
1 
1 
1 
1 
1 
1 
1 
1 
1 
1 
1 
1 
1 
1 
1 
1 
1 
1 
1 
1 
1 
1 
1 
1 
1 
1 
1 
1 
1 
1 
1 
1 
1 
1 
1 
1 
1 
1 
1 
1 
1 
1 
1 
1 
1 
1 
1 
1 
1 
1 
1 
1 
1 
1 
1 
1 
1 
1 
1 
1 
1 
1 
1 
1 
1 
1 
1 
1 
1 
1 
1 
1 
1 
1 
1 
1 
1 
1 
1 
1 
1 
1 
1 
1 
1 
1 
1 
1 
1 
1 
1 
1 
1 
1 
1 
1 
1 
1 
1 
1 
1 
1 
1 
1 
1 
1 
1 
1 
1 
1 
1 
1 
1 
1 
1 
1 
1 
1 
1 
1 
1 
1 
1 
1 
1 
1 
1 
1 
1 
1 
1 
1 
1 
1 
1 
1 
1 
1 
1 
1 
1 
1 
1 
1 
1 
1 
1 
1 
1 
1 
1 
1 
1 
1 
1 
1 
1 
1 
1 
1 
1 
1 
1 
1 
1 
1 
1 
1 
1 
1 
1 
1 
1 
1 
1 
1 
1 
1 
1 
1 
1 
1 
1 
1 
1 
1 
1 
1 
1 
1 
1 
1 
1 
1 
1 
1 
1 
1 
1 
1 
1 
1 
1 
1 
1 
1 
1 
1 
1 
1 
1 
1 
1 
1 
1 
1 
1 
1 
1 
1 
1 
1 
1 
1 
1 
1 
1 
1 
1 
1 
1 
1 
1 
1 
1 
1 
1 
1 
1 
1 
1 
1 
1 
1 
1 
1 
1 
1 
1 
1 
1 
1 
1 
1 
1 
1 
1 
1 
1 
1 
1 
1 
1 
1 
1 
1 
1 
1 
1 
1 
1 
1 
1 
1 
1 
1 
1 
1 
1 
1 
1 
1 
1 
1 
1 
1 
1 
1 
1 
1 
1 
1 
1 
1 
1 
1 
1 
1 
1 
1 
1 
1 
1 
1 
1 
1 
1 
1 
1 
1 
1 
1 
1 
1 
1 
1 
1 
1 
1 
1 
1 
1 
1 
1 
1 
1 
1 
1 
1 
1 
1 
1 
1 
1 
1 
1 
1 
1 
1 
1 
1 
1 
1 
1 
1 
1 
1 
1 
1 
1 
1 
1 
1 
1 
1 
1 
1 
1 
1 
1 
1 
1 
1 
1 
1 
1 
1 
1 
1 
1 
1 
1 
1 
1 
1 
1 
1 
1 
1 
1 
1 
1 
1 
1 
1 
1 
1 
1 
1 
1 
1 
1 
1 
1 
1 
1 
1 
1 
1 
1 
1 
1 
1 
1 
1 
1 
1 
1 
1 
1 
1 
1 
1 
1 
1 
1 
1 
1 
1 
1 
1 
1 
1 
1 
1 
1 
1 
1 
1 
1 
1 
1 
1 
1 
1 
1 
1 
1 
1 
1 
1 
1 
1 
1 
1 
1 
1 
1 
1 
1 
1 
1 
1 
1 
1 
1 
1 
1 
1 
1 
1 
1 
1 
1 
1 
1 
1 
1 
1 
1 
1 
1 
1 
1 
1 
1 
1 
1 
1 
1 
1 
1 
1 
1 
1 
1 
1 
1 
1 
1 
1 
1 
1 
1 
1 
1 
1 
1 
1 
1 
1 
1 
1 
1 
1 
1 
1 
1 
1 
1 
1 
1 
1 
1 
1 
1 
1 
1 
1 
1 
1 
1 
1 
1 
1 
1 
1 
1 
1 
1 
1 
1 
1 
1 
1 
1 
1 
1 
1 
1 
1 
1 
1 
1 
1 
1 
1 
1 
1 
1 
1 
1 
1 
1 
1 
1 
1 
1 
1 
1 
1 
1 
1 
1 
1 
1 
1 
1 
1 
1 
1 
1 
1 
1 
1 
1 
1 
1 
1 
1 
1 
1 
1 
1 
1 
1 
1 
1 
1 
1 
1 
1 
1 
1 
1 
1 
1 
1 
1 
1 
1 
1 
1 
1 
1 
1 
1 
1 
1 
1 
1 
1 
1 
1 
1 
1 
1 
1 
1 
1 
1 
1 
1 
1 
1 
1 
1 
1 
1 
1 
1 
1 
1 
1 
1 
1 
1 
1 
1 
1 
1 
1 
1 
1 
1 
1 
1 
1 
1 
1 
1 
1 
1 
1 
1 
1 
1 
1 
1 
1 
1 
1 
1 
1 
1 
1 
1 
1 
1 
1 
1 
1 
1 
1 
1 
1 
1 
1 
1 
1 
1 
1 
1 
1 
1 
1 
1 
1 
1 
1 
1 
1 
1 
1 
1 
1 
1 
1 
1 
1 
1 
1 
1 
1 
1 
1 
1 
1 
1 
1 
1 
1 
1 
1 
1 
1 
1 
1 
1 
1 
1 
1 
1 
1 
1 
1 
1 
1 
1 
1 
1 
1 
1 
1 
1 
1 
1 
1 
1 
1 
1 
1 
1 
1 
1 
1 
1 
1 
1 
1 
1 
1 
1 
1 
1 
1 
1 
1 
1 
1 
1 
1 
1 
1 
1 
1 
1 
1 
1 
1 
1 
1 
1 
1 
1 
1 
1 
1 
1 
1 
1 
1 
1 
1 
1 
1 
1 
1 
1 
1 
1 
1 
1 
1 
1 
1 
1 
1 
1 
1 
1 
1 
1 
1 
1 
1 
1 
1 
1 
1 
1 
1 
1 
1 
1 
1 
1 
1 
1 
1 
1 
1 
1 
1 
1 
1 
1 
1 
1 
1 
1 
1 
1 
1 
1 
1 
1 
1 
1 
1 
1 
1 
1 
1 
1 
1 
1 
1 
1 
1 
1 
1 
1 
1 
1 
1 
1 
1 
1 
1 
1 
1 
1 
1 
1 
1 
1 
1 
1 
1 
1 
1 
1 
1 
1 
1 
1 
1 
1 
1 
1 
1 
1 
1 
1 
1 
1 
1 
1 
1 
1 
1 
1 
1 
1 
1 
1 
1 
1 
1 
1 
1 
1 
1 
1 
1 
1 
1 
1 
1 
1 
1 
1 
1 
1 
1 
1 
1 
1 
1 
1 
1 
1 
1 
1 
1 
1 
1 
1 
1 
1 
1 
1 
1 
1 
1 
1 
1 
1 
1 
1 
1 
1 
1 
1 
1 
1 
1 
1 
1 
1 
1 
1 
1 
1 
1 
1 
1 
1 
1 
1 
1 
1 
1 
1 
1 
1 
1 
1 
1 
1 
1 
1 
1 
1 
1 
1 
1 
1 
1 
1 
1 
1 
1 
1 
1 
1 
1 
1 
1 
1 
1 
1 
1 
1 
1 
1 
1 
1 
1 
1 
1 
1 
1 
1 
1 
1 
1 
1 
1 
1 
1 
1 
1 
1 
1 
1 
1 
1 
1 
1 
1 
1 
1 
1 
1 
1 
1 
1 
1 
1 
1 
1 
1 
1 
1 
1 
1 
1 
1 
1 
1 
1 
1 
1 
1 
1 
1 
1 
1 
1 
1 
1 
1 
1 
1 
1 
1 
1 
1 
1 
1 
1 
1 
1 
1 
1 
1 
1 
1 
1 
1 
1 
1 
1 
1 
1 
1 
1 
1 
1 
1 
1 
1 
1 
1 
1 
1 
1 
1 
1 
1 
1 
1 
1 
1 
1 
1 
1 
1 
1 
1 
1 
1 
1 
1 
1 
1 
1 
1 
1 
1 
1 
1 
1 
1 
1 
1 
1 
1 
1 
1 
1 
1 
1 
1 
1 
1 
1 
1 
1 
1 
1 
1 
1 
1 
1 
1 
1 
1 
1 
1 
1 
1 
1 
1 
1 
1 
1 
1 
1 
1 
1 
1 
1 
1 
1 
1 
1 
1 
1 
1 
1 
1 
1 
1 
1 
1 
1 
1 
1 
1 
1 
1 
1 
1 
1 
1 
1 
1 
1 
1 
1 
1 
1 
1 
1 
1 
1 
1 
1 
1 
1 
1 
1 
1 
1 
1 
1 
1 
1 
1 
1 
1 
1 
1 
1 
1 
1 
1 
1 
1 
1 
1 
1 
1 
1 
1 
1 
1 
1 
1 
1 
1 
1 
1 
1 
1 
1 
1 
1 
1 
1 
1 
1 
1 
1 
1 
1 
1 
1 
1 
1 
1 
1 
1 
1 
1 
1 
1 
1 
1 
1 
1 
1 
1 
1 
1 
1 
1 
1 
1 
1 
1 
1 
1 
1 
1 
1 
1 
1 
1 
1 
1 
1 
1 
1 
1 
1 
1 
1 
1 
1 
1 
1 
1 
1 
1 
1 
1 
1 
1 
1 
1 
1 
1 
1 
1 
1 
1 
1 
1 
1 
1 
1 
1 
1 
1 
1 
1 
1 
1 
1 
1 
1 
1 
1 
1 
1 
1 
1 
1 
1 
1 
1 
1 
1 
1 
1 
1 
1 
1 
1 
1 
1 
1 
1 
1 
1 
1 
1 
1 
1 
1 
1 
1 
1 
1 
1 
1 
1 
1 
1 
1 
1 
1 
1 
1 
1 
1 
1 
1 
1 
1 
1 
1 
1 
1 
1 
1 
1 
1 
1 
1 
1 
1 
1 
1 
1 
1 
1 
1 
1 
1 
1 
1 
1 
1 
1 
1 
1 
1 
1 
1 
1 
1 
1 
1 
1 
1 
1 
1 
1 
1 
1 
1 
1 
1 
1 
1 
1 
1 
1 
1 
1 
1 
1 
1 
1 
1 
1 
1 
1 
1 
1 
1 
1 
1 
1 
1 
1 
1 
1 
1 
1 
1 
1 
1 
1 
1 
1 
1 
1 
1 
1 
1 
1 
1 
1 
1 
1 
1 
1 
1 
1 
1 
1 
1 
1 
1 
1 
1 
1 
1 
1 
1 
1 
1 
1 
1 
1 
1 
1 
1 
1 
1 
1 
1 
1 
1 
1 
1 
1 
1 
1 
1 
1 
1 
1 
1 
1 
1 
1 
1 
1 
1 
1 
1 
1 
1 
1 
1 
1 
1 
1 
1 
1 
1 
1 
1 
1 
1 
1 
1 
1 
1 
1 
1 
1 
1 
1 
1 
1 
1 
1 
1 
1 
1 
1 
1 
1 
1 
1 
1 
1 
1 
1 
1 
1 
1 
1 
1 
1 
1 
1 
1 
1 
1 
1 
1 
1 
1 
1 
1 
1 
1 
1 
1 
1 
1 
1 
1 
1 
1 
1 
1 
1 
1 
1 
1 
1 
1 
1 
1 
1 
1 
1 
1 
1 
1 
1 
1 
1 
1 
1 
1 
1 
1 
1 
1 
1 
1 
1 
1 
1 
1 
1 
1 
1 
1 
1 
1 
1 
1 
1 
1 
1 
1 
1 
1 
1 
1 
1 
1 
1 
1 
1 
1 
1 
1 
1 
1 
1 
1 
1 
1 
1 
1 
1 
1 
1 
1 
1 
1 
1 
1 
1 
1 
1 
1 
1 
1 
1 
1 
1 
1 
1 
1 
1 
1 
1 
1 
1 
1 
1 
1 
1 
1 
1 
1 
1 
1 
1 
1 
1 
1 
1 
1 
1 
1 
1 
1 
1 
1 
1 
1 
1 
1 
1 
1 
1 
1 
1 
1 
1 
1 
1 
1 
1 
1 
1 
1 
1 
1 
1 
1 
1 
1 
1 
1 
1 
1 
1 
1 
1 
1 
1 
1 
1 
1 
1 
1 
1 
1 
1 
1 
1 
1 
1 
1 
1 
1 
1 
1 
1 
1 
1 
1 
1 
1 
1 
1 
1 
1 
1 
1 
1 
1 
1 
1 
1 
1 
1 
1 
1 
1 
1 
1 
1 
1 
1 
1 
1 
1 
1 
1 
1 
1 
1 
1 
1 
1 
1 
1 
1 
1 
1 
1 
1 
1 
1 
1 
1 
1 
1 
1 
1 
1 
1 
1 
1 
1 
1 
1 
1 
1 
1 
1 
1 
1 
1 
1 
1 
1 
1 
1 
1 
1 
1 
1 
1 
1 
1 
1 
1 
1 
1 
1 
1 
1 
1 
1 
1 
1 
1 
1 
1 
1 
1 
1 
1 
1 
1 
1 
1 
1 
1 
1 
1 
1 
1 
1 
1 
1 
1 
1 
1 
1 
1 
1 
1 
1 
1 
1 
1 
1 
1 
1 
1 
1 
1 
1 
1 
1 
1 
1 
1 
1 
1 
1 
1 
1 
1 
1 
1 
1 
1 
1 
1 
1 
1 
1 
1 
1 
1 
1 
1 
1 
1 
1 
1 
1 
1 
1 
1 
1 
1 
1 
1 
1 
1 
1 
1 
1 
1 
1 
1 
1 
1 
1 
1 
1 
1 
1 
1 
1 
1 
1 
1 
1 
1 
1 
1 
1 
1 
1 
1 
1 
1 
1 
1 
1 
1 
1 
1 
1 
1 
1 
1 
1 
1 
1 
1 
1 
1 
1 
1 
1 
1 
1 
1 
1 
1 
1 
1 
1 
1 
1 
1 
1 
1 
1 
1 
1 
1 
1 
1 
1 
1 
1 
1 
1 
1 
1 
1 
1 
1 
1 
1 
1 
1 
1 
1 
1 
1 
1 
1 
1 
1 
1 
1 
1 
1 
1 
1 
1 
1 
1 
1 
1 
1 
1 
1 
1 
1 
1 
1 
1 
1 
1 
1 
1 
1 
1 
1 
1 
1 
1 
1 
1 
1 
1 
1 
1 
1 
1 
1 
1 
1 
1 
1 
1 
1 
1 
1 
1 
1 
1 
1 
1 
1 
1 
1 
1 
1 
1 
1 
1 
1 
1 
1 
1 
1 
1 
1 
1 
1 
1 
1 
1 
1 
1 
1 
1 
1 
1 
1 
1 
1 
1 
1 
1 
1 
1 
1 
1 
1 
1 
1 
1 
1 
1 
1 
1 
1 
1 
1 
1 
1 
1 
1 
1 
1 
1 
1 
1 
1 
1 
1 
1 
1 
1 
1 
1 
1 
1 
1 
1 
1 
1 
1 
1 
1 
1 
1 
1 
1 
1 
1 
1 
1 
1 
1 
1 
1 
1 
1 
1 
1 
1 
1 
1 
1 
1 
1 
1 
1 
1 
1 
1 
1 
1 
1 
1 
1 
1 
1 
1 
1 
1 
1 
1 
1 
1 
1 
1 
1 
1 
1 
1 
1 
1 
1 
1 
1 
1 
1 
1 
1 
1 
1 
1 
1 
1 
1 
1 
1 
1 
1 
1 
1 
1 
1 
1 
1 
1 
1 
1 
1 
1 
1 
1 
1 
1 
1 
1 
1 
1 
1 
1 
1 
1 
1 
1 
1 
1 
1 
1 
1 
1 
1 
1 
1 
1 
1 
1 
1 
1 
1 
1 
1 
1 
1 
1 
1 
1 
1 
1 
1 
1 
1 
1 
1 
1 
1 
1 
1 
1 
1 
1 
1 
1 
1 
1 
1 
1 
1 
1 
1 
1 
1 
1 
1 
1 
1 
1 
1 
1 
1 
1 
1 
1 
1 
1 
1 
1 
1 
1 
1 
1 
1 
1 
1 
1 
1 
1 
1 
1 
1 
1 
1 
1 
1 
1 
1 
1 
1 
1 
1 
1 
1 
1 
1 
1 
1 
1 
1 
1 
1 
1 
1 
1 
1 
1 
1 
1 
1 
1 
1 
1 
1 
1 
1 
1 
1 
1 
1 
1 
1 
1 
1 
1 
1 
1 
1 
1 
1 
1 
1 
1 
1 
1 
1 
1 
1 
1 
1 
1 
1 
1 
1 
1 
1 
1 
1 
1 
1 
1 
1 
1 
1 
1 
1 
1 
1 
1 
1 
1 
1 
1 
1 
1 
1 
1 
1 
1 
1 
1 
1 
1 
1 
1 
1 
1 
1 
1 
1 
1 
1 
1 
1 
1 
1 
1 
1 
1 
1 
1 
1 
1 
1 
1 
1 
1 
1 
1 
1 
1 
1 
1 
1 
1 
1 
1 
1 
1 
1 
1 
1 
1 
1 
1 
1 
1 
1 
1 
1 
1 
1 
1 
1 
1 
1 
1 
1 
1 
1 
1 
1 
1 
1 
1 
1 
1 
1 
1 
1 
1 
1 
1 
1 
1 
1 
1 
1 
1 
1 
1 
1 
1 
1 
1 
1 
1 
1 
1 
1 
1 
1 
1 
1 
1 
1 
1 
1 
1 
1 
1 
1 
1 
1 
1 
1 
1 
1 
1 
1 
1 
1 
1 
1 
1 
1 
1 
1 
1 
1 
1 
1 
1 
1 
1 
1 
1 
1 
1 
1 
1 
1 
1 
1 
1 
1 
1 
1 
1 
1 
1 
1 
1 
1 
1 
1 
1 
1 
1 
1 
1 
1 
1 
1 
1 
1 
1 
1 
1 
1 
1 
1 
1 
1 
1 
1 
1 
1 
1 
1 
1 
1 
1 
1 
1 
1 
1 
1 
1 
1 
1 
1 
1 
1 
1 
1 
1 
1 
1 
1 
1 
1 
1 
1 
1 
1 
1 
1 
1 
1 
1 
1 
1 
1 
1 
1 
1 
1 
1 
1 
1 
1 
1 
1 
1 
1 
1 
1 
1 
1 
1 
1 
1 
1 
1 
1 
1 
1 
1 
1 
1 
1 
1 
1 
1 
1 
1 
1 
1 
1 
1 
1 
1 
1 
1 
1 
1 
1 
1 
1 
1 
1 
1 
1 
1 
1 
1 
1 
1 
1 
1 
1 
1 
1 
1 
1 
1 
1 
1 
1 
1 
1 
1 
1 
1 
1 
1 
1 
1 
1 
1 
1 
1 
1 
1 
1 
1 
1 
1 
1 
1 
1 
1 
1 
1 
1 
1 
1 
1 
1 
1 
1 
1 
1 
1 
1 
1 
1 
1 
1 
1 
1 
1 
1 
1 
1 
1 
1 
1 
1 
1 
1 
1 
1 
1 
1 
1 
1 
1 
1 
1 
1 
1 
1 
1 
1 
1 
1 
1 
1 
1 
1 
1 
1 
1 
1 
1 
1 
1 
1 
1 
1 
1 
1 
1 
1 
1 
1 
1 
1 
1 
1 
1 
1 
1 
1 
1 
1 
1 
1 
1 
1 
1 
1 
1 
1 
1 
1 
1 
1 
1 
1 
1 
1 
1 
1 
1 
1 
1 
1 
1 
1 
1 
1 
1 
1 
1 
1 
1 
1 
1 
1 
1 
1 
1 
1 
1 
1 
1 
1 
1 
1 
1 
1 
1 
1 
1 
1 
1 
1 
1 
1 
1 
1 
1 
1 
1 
1 
1 
1 
1 
1 
1 
1 
1 
1 
1 
1 
1 
1 
1 
1 
1 
1 
1 
1 
1 
1 
1 
1 
1 
1 
1 
1 
1 
1 
1 
1 
1 
1 
1 
1 
1 
1 
1 
1 
1 
1 
1 
1 
1 
1 
1 
1 
1 
1 
1 
1 
1 
1 
1 
1 
1 
1 
1 
1 
1 
1 
1 
1 
1 
1 
1 
1 
1 
1 
1 
1 
1 
1 
1 
1 
1 
1 
1 
1 
1 
1 
1 
1 
1 
1 
1 
1 
1 
1 
1 
1 
1 
1 
1 
1 
1 
1 
1 
1 
1 
1 
1 
1 
1 
1 
1 
1 
1 
1 
1 
1 
1 
1 
1 
1 
1 
1 
1 
1 
1 
1 
1 
1 
1 
1 
1 
1 
1 
1 
1 
1 
1 
1 
1 
1 
1 
1 
1 
1 
1 
1 
1 
1 
1 
1 
1 
1 
1 
1 
1 
1 
1 
1 
1 
1 
1 
1 
1 
1 
1 
1 
1 
1 
1 
1 
1 
1 
1 
1 
1 
1 
1 
1 
1 
1 
1 
1 
1 
1 
1 
1 
1 
1 
1 
1 
1 
1 
1 
1 
1 
1 
1 
1 
1 
1 
1 
1 
1 
1 
1 
1 
1 
1 
1 
1 
1 
1 
1 
1 
1 
1 
1 
1 
1 
1 
1 
1 
1 
1 
1 
1 
1 
1 
1 
1 
1 
1 
1 
1 
1 
1 
1 
1 
1 
1 
1 
1 
1 
1 
1 
1 
1 
1 
1 
1 
1 
1 
1 
1 
1 
1 
1 
1 
1 
1 
1 
1 
1 
1 
1 
1 
1 
1 
1 
1 
1 
1 
1 
1 
1 
1 
1 
1 
1 
1 
1 
1 
1 
1 
1 
1 
1 
1 
1 
1 
1 
1 
1 
1 
1 
1 
1 
1 
1 
1 
1 
1 
1 
1 
1 
1 
1 
1 
1 
1 
1 
1 
1 
1 
1 
1 
1 
1 
1 
1 
1 
1 
1 
1 
1 
1 
1 
1 
1 
1 
1 
1 
1 
1 
1 
1 
1 
1 
1 
1 
1 
1 
1 
1 
1 
1 
1 
1 
1 
1 
1 
1 
1 
1 
1 
1 
1 
1 
1 
1 
1 
1 
1 
1 
1 
1 
1 
1 
1 
1 
1 
1 
1 
1 
1 
1 
1 
1 
1 
1 
1 
1 
1 
1 
1 
1 
1 
1 
1 
1 
1 
1 
1 
1 
1 
1 
1 
1 
1 
1 
1 
1 
1 
1 
1 
1 
1 
1 
1 
1 
1 
1 
1 
1 
1 
1 
1 
1 
1 
1 
1 
1 
1 
1 
1 
1 
1 
1 
1 
1 
1 
1 
1 
1 
1 
1 
1 
1 
1 
1 
1 
1 
1 
1 
1 
1 
1 
1 
1 
1 
1 
1 
1 
1 
1 
1 
1 
1 
1 
1 
1 
1 
1 
1 
1 
1 
1 
1 
1 
1 
1 
1 
1 
1 
1 
1 
1 
1 
1 
1 
1 
1 
1 
1 
1 
1 
1 
1 
1 
1 
1 
1 
1 
1 
1 
1 
1 
1 
1 
1 
1 
1 
1 
1 
1 
1 
1 
1 
1 
1 
1 
1 
1 
1 
1 
1 
1 
1 
1 
1 
1 
1 
1 
1 
1 
1 
1 
1 
1 
1 
1 
1 
1 
1 
1 
1 
1 
1 
1 
1 
1 
1 
1 
1 
1 
1 
1 
1 
1 
1 
1 
1 
1 
1 
1 
1 
1 
1 
1 
1 
1 
1 
1 
1 
1 
1 
1 
1 
1 
1 
1 
1 
1 
1 
1 
1 
1 
1 
1 
1 
1 
1 
1 
1 
1 
1 
1 
1 
1 
1 
1 
1 
1 
1 
1 
1 
1 
1 
1 
1 
1 
1 
1 
1 
1 
1 
1 
1 
1 
1 
1 
1 
1 
1 
1 
1 
1 
1 
1 
1 
1 
1 
1 
1 
1 
1 
1 
1 
1 
1 
1 
1 
1 
1 
1 
1 
1 
1 
1 
1 
1 
1 
1 
1 
1 
1 
1 
1 
1 
1 
1 
1 
1 
1 
1 
1 
1 
1 
1 
1 
1 
1 
1 
1 
1 
1 
1 
1 
1 
1 
1 
1 
1 
1 
1 
1 
1 
1 
1 
1 
1 
1 
1 
1 
1 
1 
1 
1 
1 
1 
1 
1 
1 
1 
1 
1 
1 
1 
1 
1 
1 
1 
1 
1 
1 
1 
1 
1 
1 
1 
1 
1 
1 
1 
1 
1 
1 
1 
1 
1 
1 
1 
1 
1 
1 
1 
1 
1 
1 
1 
1 
1 
1 
1 
1 
1 
1 
1 
1 
1 
1 
1 
1 
1 
1 
1 
1 
1 
1 
1 
1 
1 
1 
1 
1 
1 
1 
1 
1 
1 
1 
1 
1 
1 
1 
1 
1 
1 
1 
1 
1 
1 
1 
1 
1 
1 
1 
1 
1 
1 
1 
1 
1 
1 
1 
1 
1 
1 
1 
1 
1 
1 
1 
1 
1 
1 
1 
1 
1 
1 
1 
1 
1 
1 
1 
1 
1 
1 
1 
1 
1 
1 
1 
1 
1 
1 
1 
1 
1 
1 
1 
1 
1 
1 
1 
1 
1 
1 
1 
1 
1 
1 
1 
1 
1 
1 
1 
1 
1 
1 
1 
1 
1 
1 
1 
1 
1 
1 
1 
1 
1 
1 
1 
1 
1 
1 
1 
1 
1 
1 
1 
1 
1 
1 
1 
1 
1 
1 
1 
1 
1 
1 
1 
1 
1 
1 
1 
1 
1 
1 
1 
1 
1 
1 
1 
1 
1 
1 
1 
1 
1 
1 
1 
1 
1 
1 
1 
1 
1 
1 
1 
1 
1 
1 
1 
1 
1 
1 
1 
1 
1 
1 
1 
1 
1 
1 
1 
1 
1 
1 
1 
1 
1 
1 
1 
1 
1 
1 
1 
1 
1 
1 
1 
1 
1 
1 
1 
1 
1 
1 
1 
1 
1 
1 
1 
1 
1 
1 
1 
1 
1 
1 
1 
1 
1 
1 
1 
1 
1 
1 
1 
1 
1 
1 
1 
1 
1 
1 
1 
1 
1 
1 
1 
1 
1 
1 
1 
1 
1 
1 
1 
1 
1 
1 
1 
1 
1 
1 
1 
1 
1 
1 
1 
1 
1 
1 
1 
1 
1 
1 
1 
1 
1 
1 
1 
1 
1 
1 
1 
1 
1 
1 
1 
1 
1 
1 
1 
1 
1 
1 
1 
1 
1 
1 
1 
1 
1 
1 
1 
1 
1 
1 
1 
1 
1 
1 
1 
1 
1 
1 
1 
1 
1 
1 
1 
1 
1 
1 
1 
1 
1 
1 
1 
1 
1 
1 
1 
1 
1 
1 
1 
1 
1 
1 
1 
1 
1 
1 
1 
1 
1 
1 
1 
1 
1 
1 
1 
1 
1 
1 
1 
1 
1 
1 
1 
1 
1 
1 
1 
1 
1 
1 
1 
1 
1 
1 
1 
1 
1 
1 
1 
1 
1 
1 
1 
1 
1 
1 
1 
1 
1 
1 
1 
1 
1 
1 
1 
1 
1 
1 
1 
1 
1 
1 
1 
1 
1 
1 
1 
1 
1 
1 
1 
1 
1 
1 
1 
1 
1 
1 
1 
1 
1 
1 
1 
1 
1 
1 
1 
1 
1 
1 
1 
1 
1 
1 
1 
1 
1 
1 
1 
1 
1 
1 
1 
1 
1 
1 
1 
1 
1 
1 
1 
1 
1 
1 
1 
1 
1 
1 
1 
1 
1 
1 
1 
1 
1 
1 
1 
1 
1 
1 
1 
1 
1 
1 
POINT_DATA 5000
VECTORS Stress float
920.012 -975.584 0.
9.80173 -1416.14 0.
-8.72079 -1459.48 0.
50.1846 -1466.18 0.
39.6391 -1490.8 0.
29.0935 -1515.41 0.
17.0439 -1531.85 0.
17.7826 -1530.18 0.
18.5213 -1528.52 0.
81.0514 -1500.14 0.
81.931 -1498.15 0.
82.8105 -1496.16 0.
-256.483 -1641.15 0.
-255.997 -1640 0.
344.709 -1381.39 0.
342.146 -1387.45 0.
339.582 -1393.51 0.
-521.049 -1766.41 0.
-520.325 -1764.83 0.
-519.601 -1763.25 0.
158.975 -1472.56 0.
158.516 -1473.62 0.
158.057 -1474.68 0.
406.288 -1368.24 0.
406.16 -1368.47 0.
534.501 -1313.65 0.
-121.462 -1590.95 0.
-118.973 -1585.22 0.
318.47 -1394.36 0.
317.388 -1397.13 0.
316.306 -1399.89 0.
-135.473 -1595.74 0.
-136.126 -1597.39 0.
-136.78 -1599.04 0.
98.9567 -1498.14 0.
99.0233 -1497.79 0.
99.0899 -1497.43 0.
272.776 -1420.01 0.
274.342 -1416.26 0.
96.4118 -1489.4 0.
95.6748 -1490.85 0.
94.9378 -1492.3 0.
-31.1152 -1546.38 0.
-31.4034 -1547 0.
-31.6916 -1547.61 0.
-74.2316 -1566.1 0.
-74.0615 -1565.7 0.
-73.8914 -1565.3 0.
156.211 -1471.59 0.
153.169 -1478.7 0.
-3335.5 -2979.89 0.
1639.46 -846.235 0.
1640.35 -844.218 0.
-463.259 -1743.61 0.
-461.516 -1739.37 0.
-459.774 -1735.14 0.
89.964 -1497.02 0.
88.9645 -1499.35 0.
87.965 -1501.68 0.
65.2405 -1512.43 0.
65.9212 -1510.82 0.
66.602 -1509.21 0.
139.562 -1480.93 0.
138.132 -1484.26 0.
-335.315 -1688.47 0.
-335.163 -1688.07 0.
-335.011 -1687.67 0.
193.123 -1459.95 0.
196.733 -1451.75 0.
200.343 -1443.55 0.
-0.539865 -1529.44 0.
-3.15812 -1535.62 0.
-5.77638 -1541.8 0.
361.245 -1386.61 0.
360.415 -1388.5 0.
-122.138 -1597.45 0.
22.1029 -1531.34 0.
24.3898 -1526.07 0.
-174.122 -1608.12 0.
-177.772 -1616.59 0.
-181.422 -1625.05 0.
188.106 -1466.87 0.
192.539 -1456.34 0.
196.972 -1445.82 0.
-64.3781 -1557.53 0.
-67.823 -1565.27 0.
-71.2678 -1573.02 0.
274.568 -1424.06 0.
275.881 -1421.1 0.
-109.209 -1584.43 0.
-110.046 -1586.32 0.
-110.883 -1588.2 0.
298.961 -1411.88 0.
299.697 -1410.15 0.
300.433 -1408.42 0.
264.376 -1416.16 0.
270.427 -1401.99 0.
276.477 -1387.82 0.
14.6237 -1452.86 0.
44.293 -1383.39 0.
257.455 -1228.2 0.
-27.1564 -1400.66 0.
-45.6102 -1444.08 0.
184.872 -1376.87 0.
174.318 -1401.52 0.
163.764 -1426.17 0.
104.686 -1462.9 0.
105.479 -1461.24 0.
106.272 -1459.57 0.
-54.3521 -1526.79 0.
-53.419 -1524.81 0.
-52.4859 -1522.83 0.
-233.529 -1599.86 0.
-233.034 -1598.67 0.
325.282 -1358.49 0.
322.773 -1364.58 0.
320.265 -1370.66 0.
-260.564 -1622.99 0.
-259.782 -1621.5 0.
-259.001 -1620 0.
293.941 -1383.22 0.
293.482 -1384.26 0.
293.024 -1385.29 0.
78.6077 -1477.32 0.
78.429 -1477.52 0.
-252.448 -1619.45 0.
74.9906 -1475.37 0.
77.5249 -1469.7 0.
278.395 -1379.97 0.
277.463 -1382.87 0.
276.531 -1385.77 0.
-23.0532 -1516.13 0.
-23.6198 -1517.82 0.
-24.1865 -1519.51 0.
244.612 -1404.17 0.
244.544 -1403.73 0.
244.475 -1403.28 0.
23.5041 -1495.58 0.
25.0108 -1491.79 0.
244.469 -1395.26 0.
243.573 -1396.55 0.
242.678 -1397.84 0.
-217.736 -1595.03 0.
-218.032 -1595.56 0.
-218.329 -1596.08 0.
100.137 -1460.56 0.
100.323 -1460.13 0.
100.51 -1459.69 0.
101.665 -1463.52 0.
98.6116 -1470.68 0.
-1561.68 -2188.23 0.
1428.26 -905.3 0.
1429.18 -903.346 0.
-188.075 -1594.24 0.
-186.463 -1589.97 0.
-184.85 -1585.69 0.
-7.35882 -1507.57 0.
-8.37463 -1509.93 0.
-9.39044 -1512.3 0.
181.349 -1431.35 0.
182.03 -1429.7 0.
182.711 -1428.06 0.
-185.534 -1588.6 0.
-186.978 -1591.95 0.
-67.3954 -1542.51 0.
-67.284 -1542.11 0.
-67.1725 -1541.71 0.
309.146 -1378.58 0.
312.906 -1370.48 0.
316.667 -1362.37 0.
-3.87379 -1499.48 0.
-6.43662 -1505.68 0.
-8.99945 -1511.88 0.
136.82 -1451.77 0.
135.947 -1453.65 0.
126.101 -1459.07 0.
239.275 -1406.4 0.
241.571 -1401.24 0.
43.7912 -1483.59 0.
40.108 -1492.02 0.
36.4247 -1500.45 0.
264.398 -1402.56 0.
268.718 -1391.94 0.
273.037 -1381.32 0.
48.4979 -1478.03 0.
44.8776 -1485.6 0.
41.2573 -1493.17 0.
7.50713 -1507.42 0.
8.87507 -1504.54 0.
127.976 -1451.18 0.
127.077 -1453.08 0.
126.178 -1454.98 0.
58.2755 -1483.36 0.
59.0264 -1481.58 0.
59.7774 -1479.79 0.
205.652 -1410.29 0.
211.737 -1395.93 0.
217.822 -1381.58 0.
-32.6712 -1441.78 0.
-3.08358 -1372.02 0.
-315.899 -1275.21 0.
-40.2843 -1332.9 0.
-48.6985 -1352.01 0.
-38.9525 -2122.41 0.
230.036 -1495.14 0.
-41.9853 -2130.25 0.
-632.554 -3319.36 0.
-548.534 -3123.96 0.
-1004.63 -4188.82 0.
-1522.77 -4662.19 0.
-1465.48 -4528.87 0.
-1551.89 -4730.86 0.
-1387.79 -4305.71 0.
-1183.63 -3828.9 0.
-1339.47 -5175.29 0.
-919.94 -4196.29 0.
-1136.85 -4702.31 0.
-1323.41 -4569.46 0.
-1505.99 -4995.15 0.
-2229.96 -6684.08 0.
-2125.52 -7253.61 0.
-1486 -5760.98 0.
-1399.55 -5558.81 0.
-1593.25 -4722.25 0.
-1470.55 -4436.32 0.
-1995.58 -5718.03 0.
-1274.59 -4967.66 0.
-1144.64 -4663.62 0.
-979.544 -4211.23 0.
-1047.28 -4368.76 0.
-1643.2 -5758.74 0.
-1999.41 -6310.38 0.
-1747.56 -5722.56 0.
-1649.16 -5492.75 0.
-1168.56 -4946.1 0.
-1527.8 -5785.29 0.
-2442.68 -7921.01 0.
-2591.6 -7090.89 0.
-2114.07 -5977.05 0.
-2072.22 -7053.7 0.
-1549.58 -5834.77 0.
-1554.34 -5846.47 0.
-2021.71 -5418.43 0.
-1328.47 -3801.21 0.
-1102.14 -3273.44 0.
-918.499 -4137.46 0.
-1344.84 -5132.3 0.
-1702.69 -5967.35 0.
-1715.83 -5570.97 0.
-1641.65 -5397.63 0.
-4372.23 -8459.56 0.
-633.344 -5282.82 0.
-693.179 -5422.02 0.
-2046.85 -6425.01 0.
-1590.16 -5358.76 0.
-1882.3 -6039.8 0.
-1711.49 -5266.64 0.
-1577.21 -4953.18 0.
-2068.08 -6098.35 0.
-1572.98 -5717.25 0.
-954.628 -4274.74 0.
-965.322 -4300.02 0.
-1698.29 -4467.55 0.
-1819.59 -4750.76 0.
-1831.75 -6138.6 0.
-1848.22 -6176.84 0.
-2362.2 -7375.91 0.
-1954.83 -6851.99 0.
-1289.79 -5299.9 0.
-1559.21 -5928.22 0.
-1893.29 -5870.51 0.
-1659.32 -5324.84 0.
-2156.55 -6485.32 0.
-1418.99 -4624.04 0.
-1128.98 -3946.69 0.
-971.861 -4398.99 0.
-596.174 -3739.88 0.
-1303.11 -5389.25 0.
-1992.91 -6618.9 0.
-1360.81 -5143.74 0.
-1615.74 -5738.33 0.
-1610.88 -5892.01 0.
-1516.45 -5671.84 0.
-1741.99 -6198.29 0.
-1196.65 -4564.24 0.
-704.452 -3416.34 0.
-818.78 -3683.7 0.
-1276.09 -3962.08 0.
-1369.94 -4181.24 0.
-951.099 -4388.27 0.
-324.953 -2926.76 0.
-242.794 -2734.54 0.
-749.465 -2876.63 0.
-521.708 -2344.85 0.
-922.658 -3280.05 0.
-335.688 -2532.01 0.
77.4149 -1568.04 0.
68.6158 -1588.61 0.
-309.199 -1969.17 0.
-445.997 -2287.7 0.
296.01 -400.419 0.
356.79 -487.48 0.
274.263 -679.468 0.
625.344 -632.875 0.
695.924 -468.549 0.
766.503 -304.224 0.
468.345 -355.166 0.
464.16 -365.525 0.
459.974 -375.885 0.
369.774 -420.323 0.
369.279 -422.364 0.
368.784 -424.406 0.
360.686 -514.964 0.
305.894 -642.328 0.
518.332 -641.889 0.
541.57 -587.742 0.
564.808 -533.595 0.
305.737 -610.288 0.
312.136 -595.322 0.
318.536 -580.357 0.
716.503 -438.872 0.
680.946 -521.838 0.
645.388 -604.804 0.
81.0272 -1003.35 0.
-16.4528 -1231.61 0.
435.983 -1224.25 0.
398.443 -1180.81 0.
431.737 -1102.69 0.
346.498 -1059.8 0.
421.675 -883.826 0.
496.852 -707.848 0.
368.439 -674.114 0.
377.654 -651.807 0.
386.868 -629.5 0.
693.596 -428.731 0.
744.542 -310.809 0.
795.488 -192.888 0.
309.653 -409.353 0.
297.452 -438.735 0.
938.542 -187.034 0.
929.04 -209.617 0.
919.538 -232.2 0.
152.392 -551.809 0.
185.98 -473.503 0.
219.568 -395.197 0.
550.486 -277.721 0.
498.279 -399.492 0.
446.073 -521.263 0.
518.889 -537.103 0.
503.297 -574.492 0.
-1801.05 -1592.65 0.
1343.41 -339.134 0.
1293.66 -454.823 0.
267.999 -935.883 0.
335.773 -777.333 0.
403.547 -618.783 0.
462.814 -511.177 0.
476.336 -479.765 0.
489.859 -448.352 0.
562.564 -420.8 0.
553.419 -442.554 0.
544.275 -464.308 0.
152.588 -683.335 0.
124.211 -749.541 0.
484.943 -637.672 0.
502.987 -595.476 0.
521.03 -553.28 0.
570.353 -505.108 0.
578.967 -485.444 0.
587.582 -465.781 0.
378.549 -537.848 0.
388.462 -516.185 0.
398.376 -494.523 0.
520.074 -579.09 0.
427.983 -792.866 0.
603.676 -884.011 0.
616.16 -694.633 0.
712.249 -469.424 0.
667.514 -345.63 0.
678.89 -319.016 0.
690.266 -292.402 0.
741.411 -295.934 0.
700.027 -393.406 0.
658.642 -490.877 0.
525.262 -621.783 0.
488.342 -708.987 0.
451.423 -796.191 0.
177.116 -939.856 0.
163.834 -970.254 0.
320.044 -920.883 0.
338.839 -876.417 0.
357.633 -831.95 0.
206.322 -881.045 0.
195.604 -905.306 0.
184.886 -929.568 0.
282.622 -906.769 0.
272.983 -928.86 0.
263.343 -950.95 0.
19.6578 -764.417 0.
207.448 -325.053 0.
603.212 -236.579 0.
415.738 -430.979 0.
333.172 -623.033 0.
673.712 -580.525 0.
744.288 -416.185 0.
814.865 -251.844 0.
277.541 -404.937 0.
273.358 -415.236 0.
269.175 -425.536 0.
477.942 -342.002 0.
477.646 -344.109 0.
477.349 -346.215 0.
528.828 -411.675 0.
474.038 -538.989 0.
430.451 -648.408 0.
453.748 -594.305 0.
477.045 -540.202 0.
239.688 -606.542 0.
246.203 -591.62 0.
252.719 -576.699 0.
636.757 -441.597 0.
601.366 -524.603 0.
565.975 -607.609 0.
196.392 -921.912 0.
99.0121 -1150.36 0.
697.58 -1080.63 0.
476.52 -1115.53 0.
509.932 -1037.51 0.
332.957 -1034.06 0.
408.093 -858.135 0.
483.229 -682.215 0.
326.437 -660.827 0.
335.45 -638.374 0.
344.463 -615.922 0.
619.471 -429.367 0.
670.403 -311.443 0.
721.335 -193.52 0.
372.674 -350.364 0.
360.659 -379.821 0.
1038.66 -111.887 0.
1029.17 -134.271 0.
1019.68 -156.655 0.
276.994 -467.355 0.
310.494 -388.98 0.
343.993 -310.606 0.
339.411 -338.131 0.
287.154 -459.916 0.
234.898 -581.702 0.
630.5 -457.14 0.
615.24 -495.011 0.
-1973.26 -1635.27 0.
1185.81 -375.62 0.
1136.11 -491.194 0.
238.205 -917.601 0.
306.044 -759.122 0.
373.883 -600.642 0.
646.278 -401.005 0.
659.885 -369.684 0.
673.491 -338.363 0.
414.635 -452.472 0.
405.526 -474.245 0.
396.417 -496.02 0.
450.077 -523.696 0.
421.616 -589.913 0.
451.264 -620.953 0.
469.331 -578.803 0.
487.397 -536.652 0.
348.187 -568.709 0.
357.022 -549.296 0.
365.857 -529.884 0.
378.52 -506.211 0.
388.825 -484.833 0.
399.131 -463.454 0.
788.803 -431.595 0.
696.469 -645.482 0.
479.581 -905.622 0.
519.221 -704.367 0.
614.98 -479.061 0.
649.428 -322.22 0.
660.899 -295.569 0.
672.369 -268.918 0.
701.688 -281.199 0.
660.527 -378.877 0.
619.367 -476.555 0.
581.714 -565.409 0.
544.916 -652.806 0.
508.118 -740.203 0.
387.03 -818.655 0.
373.467 -848.929 0.
73.2003 -995.457 0.
91.8894 -951.119 0.
110.579 -906.782 0.
346.39 -788.799 0.
335.596 -812.852 0.
324.803 -836.905 0.
203.311 -909.296 0.
193.55 -931.289 0.
183.789 -953.282 0.
-193.368 -823.86 0.
-5.79534 -384.545 0.
350.26 -743.268 0.
24.0315 -1170.84 0.
-118.633 -1504.69 0.
205.253 -1601.52 0.
168.983 -1686.42 0.
132.712 -1771.31 0.
-447.417 -2046.41 0.
-431.605 -2009.28 0.
-415.793 -1972.14 0.
-139.255 -1970.19 0.
-242.744 -2211.3 0.
-346.234 -2452.42 0.
-291.412 -2242.06 0.
-162.635 -1939.62 0.
-78.9309 -1688 0.
-143.929 -1839.06 0.
-208.927 -1990.11 0.
-346.38 -2147.63 0.
-365.87 -2191.55 0.
-385.36 -2235.46 0.
-179.584 -2132.25 0.
-148.337 -2059.03 0.
-117.09 -1985.81 0.
-156.036 -1917.7 0.
-107.787 -1804.82 0.
456.336 -1470.75 0.
312.194 -1456.75 0.
352.219 -1364.14 0.
73.9121 -1470.18 0.
-44.3724 -1744.88 0.
-162.657 -2019.58 0.
-264.57 -2165.63 0.
-234.477 -2096.32 0.
-204.384 -2027.01 0.
-103.069 -2053.93 0.
-173.191 -2217.64 0.
-243.314 -2381.35 0.
-370.508 -2347.16 0.
-310.071 -2204.32 0.
162.385 -1901.95 0.
151.27 -1928.45 0.
140.155 -1954.94 0.
-452.181 -2241.22 0.
-484.245 -2316.12 0.
-516.309 -2391.02 0.
-594.766 -2406.11 0.
-551.491 -2305.75 0.
-508.215 -2205.38 0.
75.451 -1941.97 0.
73.7919 -1944.75 0.
-2345.16 -2984.48 0.
477.316 -1675.66 0.
529.423 -1554.14 0.
-134.13 -1788.03 0.
-194.727 -1929.06 0.
-255.324 -2070.09 0.
-82.5678 -2040.56 0.
-58.62 -1984.2 0.
-34.6722 -1927.84 0.
-311.064 -2052.65 0.
-328.56 -2092.2 0.
-346.057 -2131.75 0.
-100.653 -2044.15 0.
-109.785 -2066.04 0.
-234.513 -2131.88 0.
-214.936 -2086.46 0.
-195.36 -2041.05 0.
-276.457 -2067.76 0.
-302.363 -2126.69 0.
-328.268 -2185.62 0.
-391.857 -2245.17 0.
-402.578 -2266.78 0.
-413.298 -2288.39 0.
217.402 -1915.02 0.
287.904 -1752.4 0.
84.7688 -1711.84 0.
-16.5021 -1874.36 0.
-79.5101 -2020.47 0.
-188.441 -2181.25 0.
-242.993 -2307.66 0.
-297.545 -2434.08 0.
-303.54 -2426.91 0.
-235.283 -2266.96 0.
-167.025 -2107.02 0.
12.2753 -1937.68 0.
53.6214 -1839.77 0.
94.9677 -1741.87 0.
-2.268 -1784.73 0.
-7.00287 -1795.03 0.
-357.404 -1952.68 0.
-364.298 -1967.94 0.
-371.193 -1983.2 0.
-129.734 -1851.01 0.
-75.8372 -1724.68 0.
-21.94 -1598.35 0.
-118.4 -1466.58 0.
-4.2498 -1200.25 0.
109.9 -933.922 0.
-403.309 -1283.96 0.
-513.248 -1539.44 0.
-8.5928 -866.001 0.
-178.002 -1225.64 0.
-320.666 -1559.59 0.
112.234 -1610.13 0.
75.8735 -1695.01 0.
39.513 -1779.89 0.
-275.829 -1941.1 0.
-259.917 -1904.08 0.
-244.005 -1867.07 0.
-17.3145 -1886.91 0.
-120.885 -2127.9 0.
-224.456 -2368.88 0.
-515.382 -2307.03 0.
-386.52 -2004.76 0.
-112.998 -1670.48 0.
-177.892 -1821.6 0.
-242.785 -1972.72 0.
-69.2457 -1997.43 0.
-88.7525 -2041.53 0.
-108.259 -2085.64 0.
-293.246 -2149.14 0.
-262.315 -2075.73 0.
-231.384 -2002.32 0.
-54.8484 -1843.36 0.
-6.74347 -1730.34 0.
-483.615 -1842.34 0.
222.552 -1463.47 0.
262.399 -1370.81 0.
-54.0394 -1494.38 0.
-172.468 -1769.11 0.
-290.897 -2043.84 0.
-61.2577 -2047.2 0.
-31.0855 -1978.04 0.
-0.913084 -1908.88 0.
-63.4258 -2005.6 0.
-133.472 -2169.36 0.
-203.518 -2333.12 0.
-122.468 -2209.72 0.
-61.7814 -2066.93 0.
-166.821 -2011.3 0.
-178.016 -2037.64 0.
-189.211 -2063.98 0.
-467.568 -2216.27 0.
-499.67 -2291.17 0.
-531.772 -2366.07 0.
-472.681 -2324.14 0.
-429.471 -2223.77 0.
-386.261 -2123.39 0.
178.816 -1866.02 0.
177.533 -1869.14 0.
-179.331 -2025.12 0.
298.145 -1721.96 0.
350.877 -1600.89 0.
-78.4797 -1731.53 0.
-138.836 -1872.75 0.
-199.193 -2013.97 0.
-297.33 -2101.86 0.
-273.335 -2045.59 0.
-249.34 -1989.32 0.
-226.655 -1984.36 0.
-244.079 -2023.98 0.
-261.503 -2063.6 0.
-115.795 -2019.36 0.
-124.741 -2041.33 0.
-258.886 -2110.65 0.
-239.372 -2065.26 0.
-219.859 -2019.87 0.
17.3419 -1910.53 0.
-8.35994 -1969.61 0.
-34.0617 -2028.69 0.
-428.951 -2229.05 0.
-439.604 -2250.63 0.
-450.256 -2272.2 0.
140.729 -1917.24 0.
211.067 -1754.55 0.
145.012 -1654.31 0.
31.5168 -1822.15 0.
-31.4972 -1968.36 0.
-240.33 -2172.15 0.
-295.057 -2298.29 0.
-349.784 -2424.44 0.
-442.589 -2456.11 0.
-374.612 -2295.93 0.
-306.634 -2135.76 0.
30.8764 -1898.64 0.
72.056 -1800.73 0.
113.236 -1702.81 0.
-121.257 -1805.16 0.
-125.852 -1815.49 0.
-128.608 -1822.01 0.
-135.17 -1837.38 0.
-141.733 -1852.75 0.
-283.641 -1885.55 0.
-229.684 -1759.12 0.
-175.727 -1632.69 0.
-201.595 -1471.2 0.
-87.6905 -1204.65 0.
26.2139 -938.11 0.
-182.692 -1156.92 0.
-292.702 -1412.49 0.
-330.396 -897.069 0.
-75.4144 -572.852 0.
-177.316 -807.764 0.
185.139 -1232.22 0.
354.915 -834.525 0.
433.33 -649.989 0.
-297.665 -2287.28 0.
554.889 -298 0.
719.905 86.9211 0.
629.621 -583.76 0.
53.0276 -1929.57 0.
595.635 -663.794 0.
164.825 -260.058 0.
-211.623 -1140.14 0.
-419.191 -2285.19 0.
-80.4338 -1495.44 0.
-380.15 -2195.47 0.
-88.3431 -2532.58 0.
152.432 -1972.38 0.
628.669 -862.787 0.
61.787 -1067.21 0.
5.75768 -1198.94 0.
23.4896 -1158.65 0.
514.401 -674.9 0.
265.172 -1256.86 0.
554.336 -531.937 0.
453.55 -718.296 0.
58.5247 -1640.22 0.
-265.723 -1714.14 0.
364.721 -245.139 0.
760.328 675.901 0.
74.0351 -2087.24 0.
532.003 -1018.49 0.
935.121 -77.5873 0.
826.959 25.9399 0.
-118.432 -2179.26 0.
-711.867 -3563.32 0.
-206.317 -2849.59 0.
385.219 -1470.68 0.
-318.749 -1704.64 0.
-120.137 -1241.88 0.
327.992 -196.969 0.
246.8 -490.395 0.
-101.256 -1302.29 0.
352.544 -243.216 0.
302.499 -719.119 0.
-20.5603 -1471.45 0.
248.149 -843.024 0.
267.046 -1822.42 0.
1048.95 3.67223 0.
176.98 -860.576 0.
820.443 -138.135 0.
428.627 -1049.45 0.
-43.4289 -1720.95 0.
-311.59 -2345.67 0.
-761.706 -3394.92 0.
4.9078 -954.592 0.
522.376 251.636 0.
364.043 -119.014 0.
113.212 -1323.19 0.
-253.136 -2176.94 0.
658.07 -49.6623 0.
350.087 -871.51 0.
-375.148 -2562.21 0.
-457.731 -2493.03 0.
669.679 137.636 0.
192.12 -976.621 0.
565.463 -1160.17 0.
403.6 -1537.56 0.
683.221 -884.773 0.
-261.257 -1731.49 0.
398.079 -195.559 0.
103.492 -885.417 0.
-165.688 -2452.86 0.
-461.614 -3143.4 0.
105.516 -1794.05 0.
300.801 -1253.58 0.
22.5964 -1902.6 0.
306.409 -764.727 0.
58.3218 -1342.98 0.
141.271 -1148.81 0.
297.507 -430.215 0.
181.8 -701.941 0.
-86.2638 -1329.12 0.
-219.419 -2483.73 0.
-20.0886 -2020.32 0.
-383.055 -2869.01 0.
-137.718 -1586.48 0.
375.067 -391.725 0.
999.866 402.941 0.
819.541 -17.8681 0.
706.84 -280.921 0.
81.9002 -710.361 0.
114.051 -635.509 0.
630.774 570.015 0.
155.542 -441.758 0.
-40.7387 -899.542 0.
-129.141 -1105.57 0.
483.163 -0.729064 0.
149.514 -778.521 0.
-248.025 -917.688 0.
-253.243 -961.061 0.
-267.753 -992.834 0.
406.693 -734.81 0.
366.689 -826.929 0.
326.685 -919.047 0.
200.447 -1129.33 0.
61.8719 -1452.35 0.
-76.7035 -1775.37 0.
-5.43774 -1716.28 0.
91.7722 -1489.95 0.
188.982 -1263.61 0.
-347.551 -1593.57 0.
-421.398 -1767.44 0.
-197.666 -1798.28 0.
-177.495 -1751.44 0.
-157.324 -1704.61 0.
281.664 -1512.81 0.
240.064 -1611.27 0.
198.463 -1709.73 0.
-78.4751 -1875.75 0.
-88.7986 -1900.41 0.
-99.1219 -1925.07 0.
-73.6533 -1922.2 0.
-75.9599 -1928.12 0.
-60.5966 -1926.34 0.
-327.163 -2135.96 0.
-377.639 -2253.57 0.
-453.005 -2306.32 0.
-319.257 -1995.92 0.
-185.509 -1685.52 0.
320.679 -1384.28 0.
252.239 -1543.98 0.
183.798 -1703.67 0.
163.867 -1640.23 0.
255.803 -1425.21 0.
347.739 -1210.18 0.
347.498 -1347.08 0.
253.97 -1566.01 0.
-470.259 -1992.89 0.
-258.133 -1498.47 0.
-46.0073 -1004.06 0.
120.376 -784.815 0.
-70.6871 -1230.41 0.
-261.75 -1676 0.
37.2685 -1643.68 0.
97.1227 -1504.63 0.
156.977 -1365.58 0.
295.759 -1388.63 0.
223.934 -1554.56 0.
-607.895 -2046.07 0.
138.775 -1541.58 0.
234.073 -1316.33 0.
65.0573 -1253.89 0.
56.2636 -1274.13 0.
47.4698 -1294.38 0.
-113.626 -1444 0.
-200.607 -1647.54 0.
-287.588 -1851.07 0.
8.83612 -1862.21 0.
-56.4946 -2013.16 0.
-121.825 -2164.12 0.
-458.838 -2183.63 0.
-379.328 -1996.3 0.
-99.6544 -1770.37 0.
-209.145 -2025.44 0.
-318.636 -2280.51 0.
34.6334 -2195.96 0.
139.301 -1951 0.
243.968 -1706.05 0.
-89.2883 -1862.49 0.
-180.664 -2077.76 0.
-272.039 -2293.03 0.
-343.523 -2184.41 0.
-228.323 -1915.15 0.
156.382 -1535.25 0.
57.5897 -1704.83 0.
-9.38232 -1860.79 0.
-33.8841 -1929.7 0.
49.1963 -1735.1 0.
132.277 -1540.5 0.
-150.429 -1609.37 0.
-182.746 -1685.47 0.
-215.062 -1761.58 0.
185.04 -1477.28 0.
286.425 -1242.43 0.
387.81 -1007.58 0.
-130.851 -1404.94 0.
-242.625 -1666.72 0.
-32.1243 -1749.36 0.
36.3812 -1588.92 0.
104.887 -1428.48 0.
-284.689 -1484.55 0.
-247.979 -1398.28 0.
-211.27 -1312.01 0.
-6.57522 -1177.86 0.
9.4784 -1140.04 0.
25.5319 -1102.21 0.
214.495 -926.755 0.
271.934 -793.048 0.
-120.036 -831.852 0.
-250.877 -928.916 0.
-265.191 -960.956 0.
433.619 -691.504 0.
393.692 -783.812 0.
353.765 -876.12 0.
219.529 -1089.12 0.
80.8747 -1412.1 0.
-57.7796 -1735.08 0.
-171.969 -1756.34 0.
-74.7656 -1530 0.
22.4382 -1303.65 0.
-258.311 -1523.64 0.
-332.266 -1697.47 0.
-165.044 -1752.37 0.
-144.892 -1705.48 0.
-124.74 -1658.6 0.
216.074 -1509.53 0.
174.435 -1608.04 0.
132.796 -1706.55 0.
190.683 -1729.05 0.
180.121 -1753.57 0.
169.559 -1778.08 0.
-122.513 -1911.5 0.
-124.746 -1917.52 0.
-104.479 -1913.75 0.
-522.207 -2188.17 0.
-572.73 -2305.68 0.
-355.7 -2233.45 0.
-222.231 -1922.93 0.
-88.7631 -1612.41 0.
270.647 -1374.68 0.
202.088 -1534.41 0.
133.528 -1694.14 0.
242.732 -1574.85 0.
334.704 -1359.98 0.
426.676 -1145.11 0.
253.869 -1355.78 0.
160.226 -1574.72 0.
-488.023 -1968.25 0.
-275.924 -1474 0.
-63.825 -979.762 0.
136.549 -747.228 0.
-54.5649 -1192.64 0.
-245.679 -1638.04 0.
214.783 -1535.12 0.
275.179 -1396.38 0.
335.576 -1257.65 0.
120.529 -1432.35 0.
48.7732 -1598.09 0.
-1076.58 -2215.44 0.
55.9448 -1545.82 0.
151.363 -1320.66 0.
-30.0352 -1262.29 0.
-38.7004 -1282.8 0.
-47.3656 -1303.31 0.
14.6898 -1357.6 0.
-72.5129 -1561.14 0.
-159.716 -1764.67 0.
180.37 -1757.56 0.
114.748 -1908.24 0.
49.1261 -2058.93 0.
-744.581 -2275.57 0.
-665.017 -2088.29 0.
-23.6883 -1705.31 0.
-132.974 -1960.36 0.
-242.26 -2215.41 0.
-55.0908 -2202.82 0.
49.423 -1957.67 0.
153.937 -1712.52 0.
206.95 -1704.37 0.
115.36 -1919.44 0.
23.7704 -2134.52 0.
-686.519 -2301.14 0.
-571.433 -2031.78 0.
194.903 -1487.03 0.
12.6726 -1692.44 0.
-54.2085 -1848.39 0.
177.675 -1807.72 0.
260.703 -1613.02 0.
343.73 -1418.33 0.
-64.1721 -1541.34 0.
-96.6552 -1617.25 0.
-129.138 -1693.16 0.
168.969 -1452.1 0.
270.403 -1217.26 0.
371.837 -982.412 0.
-201.275 -1403.72 0.
-313.377 -1665.2 0.
-150.549 -1768.9 0.
-82.1225 -1608.31 0.
-13.6956 -1447.72 0.
-311.526 -1465.59 0.
-275.009 -1379.12 0.
-238.492 -1292.65 0.
197.841 -1058.87 0.
213.798 -1021.05 0.
229.755 -983.221 0.
388.342 -820.26 0.
446.067 -686.949 0.
-188.913 -1309.3 0.
-356.504 -1364.38 0.
-359.834 -1373.11 0.
169.76 -1195.41 0.
47.9425 -1479.71 0.
-73.8751 -1764.02 0.
-120.571 -1863.26 0.
-52.966 -1704.94 0.
14.6392 -1546.62 0.
-225.872 -1654.96 0.
-267.285 -1750.76 0.
-308.699 -1846.56 0.
-361.888 -1804.56 0.
-318.311 -1702.28 0.
-27.6033 -1518.01 0.
-109.011 -1708.04 0.
-190.418 -1898.07 0.
-34.7834 -1947.02 0.
-44.44 -1969.41 0.
-54.0967 -1991.81 0.
181.158 -1844.78 0.
233.555 -1723.38 0.
285.951 -1601.97 0.
-113.964 -1726.48 0.
-97.8408 -1688.11 0.
74.274 -1582.81 0.
-442.009 -1943.04 0.
-518.459 -2120.19 0.
-247.175 -2103.7 0.
-208.369 -2011.27 0.
-169.563 -1918.84 0.
65.908 -1762.46 0.
81.0607 -1728.82 0.
96.2134 -1695.18 0.
127.962 -1719.98 0.
92.1245 -1803.22 0.
56.2864 -1886.47 0.
-111.996 -1962.55 0.
-109.349 -1957.16 0.
-462.274 -2119.11 0.
-533.64 -2285.3 0.
-605.006 -2451.49 0.
-544.817 -2478.67 0.
-490.154 -2348.99 0.
-435.491 -2219.31 0.
-28.8097 -2035.31 0.
-63.4468 -2114.86 0.
-98.084 -2194.41 0.
-279.032 -2115.94 0.
-164.913 -1851.89 0.
-1702.22 -2295.44 0.
3.57766 -1571.59 0.
0.765084 -1580.04 0.
-276.623 -1708.79 0.
-294.381 -1750.6 0.
-312.14 -1792.4 0.
-171.574 -1772.72 0.
-194.183 -1826.86 0.
-216.793 -1880.99 0.
188.058 -1685.17 0.
216.223 -1620.73 0.
244.388 -1556.28 0.
-570.853 -1965.89 0.
-611.007 -2060.5 0.
-57.9351 -1906.18 0.
-131.482 -2077.04 0.
-205.029 -2247.9 0.
-240.797 -2380.67 0.
-282.944 -2480.47 0.
-325.092 -2580.27 0.
-4.05122 -2331.41 0.
126.346 -2026.4 0.
256.744 -1721.38 0.
-723.236 -2188.84 0.
-786.972 -2338.56 0.
1.04587 -2124.45 0.
-239.077 -2195.33 0.
-222.117 -2156.05 0.
144.537 -1941.19 0.
211.153 -1787.25 0.
277.769 -1633.31 0.
-142.143 -1737.39 0.
-132.668 -1716.69 0.
-123.193 -1695.99 0.
55.2014 -1727.09 0.
-31.392 -1929.43 0.
-117.985 -2131.77 0.
-454.482 -1972.09 0.
-271.183 -1545.6 0.
34.2272 -1126.32 0.
3.67015 -1198.33 0.
-26.8869 -1270.34 0.
-282.606 -1433.65 0.
-311.07 -1501.43 0.
-339.534 -1569.21 0.
164.685 -1290.89 0.
241.782 -1111.19 0.
318.879 -931.5 0.
219.338 -1101.58 0.
119.523 -1332.47 0.
45.8818 -1176.26 0.
-126.845 -1233.63 0.
-130.415 -1242.05 0.
58.854 -1212.54 0.
-63.2065 -1496.42 0.
-185.267 -1780.29 0.
-124.57 -1833.13 0.
-56.9559 -1674.82 0.
10.6576 -1516.51 0.
-259.637 -1638 0.
-301.048 -1733.8 0.
-342.459 -1829.6 0.
-374.972 -1778.99 0.
-331.533 -1676.72 0.
61.7369 -1448.42 0.
-19.7207 -1638.41 0.
-101.179 -1828.4 0.
-92.7376 -1940.44 0.
-102.426 -1962.98 0.
-112.115 -1985.52 0.
40.671 -1873.2 0.
92.8527 -1751.67 0.
145.034 -1630.14 0.
-207.176 -1736.26 0.
-191.213 -1697.86 0.
-37.8341 -1600.48 0.
-280.377 -1842.49 0.
-356.712 -2019.66 0.
-183.553 -2044.16 0.
-144.677 -1951.92 0.
-105.801 -1859.68 0.
50.1944 -1738.81 0.
65.0239 -1705.04 0.
79.8533 -1671.27 0.
-44.3443 -1762.33 0.
-80.3488 -1845.51 0.
-116.354 -1928.69 0.
-245.15 -1987.97 0.
-242.591 -1982.47 0.
-192.905 -1972.7 0.
-264.485 -2138.99 0.
-336.064 -2305.29 0.
-381.427 -2378.02 0.
-326.771 -2248.42 0.
-272.114 -2118.83 0.
-250.524 -2098.4 0.
-285.36 -2177.77 0.
-320.196 -2257.14 0.
-326.785 -2105.47 0.
-212.872 -1841.2 0.
-1636.07 -2236.5 0.
17.4992 -1534.61 0.
14.2892 -1542.74 0.
-287.52 -1682.79 0.
-305.392 -1724.51 0.
-323.264 -1766.22 0.
-284.765 -1789.38 0.
-307.545 -1843.62 0.
-330.326 -1897.85 0.
-9.99146 -1739.16 0.
17.6263 -1674.23 0.
45.2441 -1609.3 0.
-148.649 -1754.04 0.
-189.086 -1848.45 0.
16.9159 -1843.4 0.
-56.881 -2013.79 0.
-130.678 -2184.18 0.
-386.943 -2412.97 0.
-429.406 -2512.23 0.
-471.87 -2611.49 0.
-134.018 -2357.39 0.
-3.71148 -2052.17 0.
126.595 -1746.95 0.
-550.911 -2083.67 0.
-614.58 -2233.57 0.
-547.05 -2327.17 0.
-251.002 -2168.15 0.
-234.173 -2128.8 0.
24.6375 -1962 0.
91.0599 -1807.81 0.
157.482 -1653.61 0.
-174.687 -1720.29 0.
-165.258 -1699.69 0.
-155.829 -1679.08 0.
112.349 -1670.61 0.
25.7731 -1873.02 0.
-60.803 -2075.42 0.
-367.198 -1903.96 0.
-183.97 -1477.28 0.
-35.0855 -1124.1 0.
-65.5805 -1196.17 0.
-96.0755 -1268.23 0.
-179.418 -1358.37 0.
-208.015 -1426.01 0.
-236.612 -1493.64 0.
150.897 -1265.88 0.
227.968 -1086.25 0.
305.039 -906.609 0.
-27.5868 -1175.61 0.
-127.269 -1406.69 0.
278.599 -1047.21 0.
89.9291 -1135.16 0.
734.489 367.679 0.
418.156 -126.348 0.
180.037 -683.569 0.
279.132 -453.82 0.
549.662 -219.975 0.
427.979 -504.293 0.
668.935 56.912 0.
495.375 223.138 0.
374.687 -60.2808 0.
701.717 701.114 0.
312.599 -119.404 0.
-78.8802 -1034.38 0.
904.261 384.937 0.
905.886 385.602 0.
739.304 -6.22026 0.
485.778 -449.84 0.
413.849 -618.805 0.
487.997 -447.022 0.
694.529 -49.2483 0.
572.742 -333.087 0.
61.6218 -1525.32 0.
60.3822 -905.22 0.
651.514 473.858 0.
183.79 186.771 0.
859.475 541.281 0.
487.387 -328.142 0.
708.656 -52.8059 0.
692.077 -92.539 0.
692.535 -92.4979 0.
563.541 -476.5 0.
416.164 -821.266 0.
498.977 -628.783 0.
549.082 -18.211 0.
721.533 384.797 0.
215.031 -796.26 0.
803.775 748.362 0.
347.331 -317.005 0.
533.339 -760.838 0.
564.478 -689.858 0.
580.609 -653.745 0.
442.311 -734.592 0.
765.343 17.8924 0.
627.285 -305.628 0.
-20.0572 -1103.66 0.
262.308 -446.284 0.
167.266 -669.579 0.
445.598 -187.353 0.
607.836 190.975 0.
-625.392 -693.822 0.
515.313 -360.323 0.
477.504 -449.806 0.
705.682 685.03 0.
492.739 188.512 0.
74.8169 -785.72 0.
340.546 -84.3637 0.
128.566 -579.742 0.
747.616 863.938 0.
87.5012 -1102.3 0.
498.1 -143.812 0.
613.504 125.891 0.
1016.91 190.017 0.
1035.52 237.542 0.
993.357 326.435 0.
856.649 7.63053 0.
789.797 -148.021 0.
-93.7084 -1421.39 0.
464.851 -117.643 0.
434.501 -188.169 0.
731.509 -57.5473 0.
600.043 -365.907 0.
258.397 -1164.82 0.
135.695 -782.207 0.
750.263 650.647 0.
32.6991 2.2596 0.
437.134 -506.909 0.
743.58 209.597 0.
514.766 -559.914 0.
410.958 -801.876 0.
466.453 -671.989 0.
310.848 -500.446 0.
369.64 -361.701 0.
456.73 -156.871 0.
516.977 -802.751 0.
517.947 -799.058 0.
1141.11 656.103 0.
545.264 90.5008 0.
482.218 -54.8795 0.
-91.2577 -1093.15 0.
392.354 35.9571 0.
683.172 714.868 0.
593.203 275.109 0.
493.199 42.6687 0.
403.02 -167.313 0.
29.3233 -1493.92 0.
614.071 -129.554 0.
400.217 -628.45 0.
-309.97 -1351.3 0.
-424.875 -1619.22 0.
-73.2758 -1453.04 0.
-30.856 -1346.66 0.
22.6493 -1222.42 0.
5.17792 -1151.34 0.
-13.2142 -1194.48 0.
-31.6061 -1237.63 0.
-96.989 -1344.95 0.
-168.417 -1511.97 0.
-239.844 -1678.98 0.
-207.822 -1687.24 0.
-184.544 -1633.36 0.
-161.266 -1579.47 0.
-261.829 -1765.7 0.
-353.407 -1979.3 0.
-198.66 -2062.79 0.
-152.257 -1956.07 0.
-105.853 -1849.34 0.
-275.975 -1870.29 0.
-286.469 -1895.32 0.
-296.963 -1920.35 0.
-143.555 -1941.68 0.
-217.383 -2113.99 0.
-291.211 -2286.3 0.
-626.893 -2353.32 0.
-552.521 -2180.09 0.
-205.954 -1890.37 0.
-25.3828 -1626.13 0.
74.0817 -1393.9 0.
25.1158 -1317.23 0.
-112.806 -1639.84 0.
-250.728 -1962.45 0.
-81.4042 -2016.95 0.
-53.8723 -1952.48 0.
-26.3405 -1888 0.
-148.714 -1840.13 0.
-83.0976 -1688.09 0.
-17.4813 -1536.05 0.
-360.168 -1766.35 0.
-417.771 -1900.06 0.
-60.4127 -1855.32 0.
-108.506 -1968.27 0.
-156.599 -2081.23 0.
-49.1472 -2032.81 0.
51.1962 -1799.29 0.
151.539 -1565.76 0.
-241.23 -1621.09 0.
-214.928 -1562.22 0.
-188.625 -1503.34 0.
-303.309 -1594.24 0.
-337.572 -1673.99 0.
265.459 -1480.66 0.
152.246 -1665.03 0.
80.9231 -1831.67 0.
-501.233 -2197.29 0.
-525.39 -2252.16 0.
-549.546 -2307.04 0.
-638.31 -2313.33 0.
-569.137 -2152.63 0.
-499.963 -1991.93 0.
-135.915 -1729.79 0.
-88.2042 -1619.8 0.
-40.4936 -1509.82 0.
137.654 -1572.49 0.
49.4683 -1777.07 0.
-237.937 -2022.69 0.
-131.459 -1774.56 0.
-24.9811 -1526.44 0.
-31.5357 -1461.22 0.
-133.806 -1698.93 0.
-236.076 -1936.64 0.
-117.155 -1919.59 0.
-72.8392 -1815.63 0.
-28.5232 -1711.66 0.
-393.474 -1914.7 0.
-433.442 -2008.74 0.
-151.416 -1963.64 0.
-315.183 -2167.58 0.
-384.767 -2331.13 0.
-301.829 -2389.64 0.
-280.153 -2338.17 0.
-258.477 -2286.7 0.
-431.709 -2308.79 0.
-400.739 -2234.46 0.
-369.77 -2160.12 0.
-20.4164 -1964.21 0.
0.25711 -1914.57 0.
20.9306 -1864.94 0.
-296.534 -1874.51 0.
-226.524 -1710.73 0.
-117.605 -1538.24 0.
-91.481 -1477.63 0.
-65.3567 -1417.02 0.
-95.4581 -1374.51 0.
-51.4066 -1272.2 0.
-7.35512 -1169.89 0.
54.4393 -1088.42 0.
72.3857 -1047.44 0.
90.3321 -1006.47 0.
154.141 -981.957 0.
148.727 -995.097 0.
-275.276 -1509.18 0.
-51.1118 -1323.82 0.
2.41314 -1199.63 0.
53.6479 -1099.78 0.
34.8295 -1142.39 0.
16.0112 -1184.99 0.
-282.2 -1392.97 0.
-353.532 -1559.88 0.
-424.863 -1726.79 0.
-50.3716 -1588.58 0.
-27.247 -1534.39 0.
-4.12251 -1480.2 0.
-85.8165 -1659.34 0.
-177.659 -1873.01 0.
-249.356 -2053.26 0.
-203.287 -1946.36 0.
-157.218 -1839.47 0.
-446.745 -1912.3 0.
-457.499 -1937.2 0.
-468.254 -1962.1 0.
-158.895 -1916.26 0.
-232.362 -2088.87 0.
-305.829 -2261.47 0.
-691.699 -2349.75 0.
-617.481 -2176.29 0.
-139.962 -1830.19 0.
45.8333 -1564.31 0.
145.208 -1331.95 0.
-131.832 -1353.38 0.
-269.737 -1676.01 0.
-407.642 -1998.65 0.
-46.3732 -1970.32 0.
-18.9525 -1905.88 0.
8.46826 -1841.45 0.
-29.4667 -1757.1 0.
36.4288 -1605.23 0.
102.325 -1453.36 0.
-448.38 -1772.72 0.
-506.068 -1906.37 0.
-197.103 -1881.94 0.
-245.078 -1994.83 0.
-293.053 -2107.72 0.
47.3975 -1960.37 0.
147.609 -1726.66 0.
247.821 -1492.95 0.
-224.496 -1582.8 0.
-197.982 -1523.96 0.
-171.467 -1465.12 0.
-464.292 -1631.82 0.
-498.568 -1711.58 0.
-1537.39 -2221.55 0.
408.972 -1523.43 0.
337.643 -1690.26 0.
-450.561 -2143.88 0.
-474.712 -2198.95 0.
-498.863 -2254.03 0.
-649.659 -2285.88 0.
-580.321 -2125.25 0.
-510.983 -1964.62 0.
-63.9449 -1668.29 0.
-16.2256 -1558.27 0.
31.4938 -1448.24 0.
3.61341 -1597.56 0.
-84.3104 -1802.32 0.
-495.264 -2101.43 0.
-389.098 -1853.12 0.
-282.931 -1604.8 0.
81.743 -1381.42 0.
-20.3763 -1619.17 0.
-122.496 -1856.93 0.
-164.451 -1908.75 0.
-120.103 -1804.68 0.
-75.7554 -1700.61 0.
-432.208 -1899.98 0.
-472.207 -1993.94 0.
99.0461 -1824.86 0.
-348.768 -2150.71 0.
-418.177 -2314.46 0.
-322.43 -2367.51 0.
-300.994 -2315.69 0.
-279.558 -2263.88 0.
-376.544 -2254.27 0.
-345.627 -2179.84 0.
-314.711 -2105.42 0.
-52.4347 -1946.23 0.
-31.751 -1896.68 0.
-11.0673 -1847.13 0.
-278.849 -1835.66 0.
-208.82 -1671.83 0.
101.241 -1412.67 0.
127.447 -1352.16 0.
153.654 -1291.66 0.
-56.7867 -1327.17 0.
-12.3987 -1224.97 0.
31.9895 -1122.78 0.
-110.85 -1127.28 0.
-92.6767 -1086.6 0.
-74.5035 -1045.93 0.
544.979 -783.693 0.
539.701 -797.286 0.
-194.342 -1171.11 0.
-27.3502 -1222.81 0.
-83.3535 -1353.36 0.
-111.934 -1457.65 0.
-123.616 -1485.63 0.
-135.298 -1513.61 0.
-397.521 -1619.08 0.
-373.691 -1562.63 0.
-349.861 -1506.19 0.
65.0352 -1343.36 0.
40.2267 -1401.45 0.
15.4181 -1459.53 0.
50.9209 -1407.55 0.
76.4288 -1348.91 0.
-7.19493 -1350 0.
-41.9486 -1430.79 0.
-76.7021 -1511.59 0.
-427.936 -1706.25 0.
-430.384 -1712.25 0.
-432.833 -1718.25 0.
-52.0386 -1551.57 0.
-45.8013 -1537.72 0.
-39.5643 -1523.87 0.
-363.514 -1672.74 0.
-371.227 -1690.51 0.
-60.9578 -1572.02 0.
110.894 -1428.32 0.
145.398 -1348.13 0.
-230.663 -1486.47 0.
-292.489 -1629.73 0.
-354.315 -1773 0.
-73.7925 -1704.4 0.
-55.7949 -1664.61 0.
-37.7971 -1624.83 0.
-9.23838 -1698.95 0.
-85.7379 -1877.43 0.
-162.237 -2055.9 0.
-483.024 -1887.32 0.
-292.103 -1440.59 0.
146.166 -960.879 0.
-29.1621 -1369.61 0.
-204.49 -1778.35 0.
32.1555 -1861.45 0.
94.1734 -1716.38 0.
156.191 -1571.32 0.
-203.134 -1640.88 0.
-172.759 -1569.21 0.
-142.385 -1497.54 0.
-504.983 -1587.6 0.
-468.335 -1501.68 0.
-2789.13 -2427.01 0.
602.095 -1198.13 0.
484.901 -1472.38 0.
-425.781 -2006.27 0.
-361.473 -1857.09 0.
-297.166 -1707.92 0.
-342.258 -1691.7 0.
-383.314 -1784.89 0.
-424.371 -1878.08 0.
-70.4054 -1729.84 0.
-55.283 -1693.27 0.
-40.1607 -1656.71 0.
-177.892 -1752.21 0.
-199.726 -1803.32 0.
-510.846 -1975.85 0.
-518.349 -1993.55 0.
-525.851 -2011.24 0.
-121.101 -1817.05 0.
-78.6555 -1718.15 0.
-36.2096 -1619.25 0.
-100.243 -1619.51 0.
-110.457 -1643.96 0.
-120.671 -1668.4 0.
-460.471 -1922.19 0.
-527.909 -2081.31 0.
17.3451 -1978.67 0.
-257.015 -1941.67 0.
-175.584 -1752.21 0.
-85.1799 -1612.58 0.
-132.976 -1724.02 0.
-180.772 -1835.45 0.
-189.649 -1861.45 0.
-158.675 -1790.54 0.
-127.7 -1719.64 0.
35.1529 -1583.74 0.
70.3097 -1502.96 0.
105.467 -1422.18 0.
-82.0104 -1547.5 0.
-110.339 -1613.54 0.
77.4399 -1571.95 0.
91.2498 -1539.13 0.
105.06 -1506.31 0.
-193.315 -1562.07 0.
-112.01 -1372.41 0.
-30.7056 -1182.76 0.
-165.373 -1227.16 0.
-212.187 -1333.96 0.
-259 -1440.76 0.
273.609 -1152.92 0.
320.405 -1042.94 0.
-122.485 -1110.39 0.
-17.3514 -1187.06 0.
-73.4803 -1317.66 0.
-155.347 -1445.34 0.
-167.193 -1473.13 0.
-179.038 -1500.92 0.
-224.114 -1513.1 0.
-200.113 -1456.75 0.
-176.112 -1400.39 0.
-36.1832 -1355.61 0.
-61.0608 -1413.65 0.
-85.9384 -1471.7 0.
-21.2604 -1407.52 0.
4.24336 -1348.77 0.
-69.5118 -1344.94 0.
-104.341 -1425.63 0.
-139.17 -1506.33 0.
-392.053 -1659.81 0.
-394.731 -1665.47 0.
-397.409 -1671.14 0.
-127.323 -1552.6 0.
-121.208 -1538.66 0.
-115.093 -1524.73 0.
-165.511 -1556.36 0.
-173.2 -1574.19 0.
-487.987 -1723.76 0.
87.5251 -1407.14 0.
121.984 -1326.9 0.
-143.522 -1417.6 0.
-205.419 -1560.91 0.
-267.316 -1704.21 0.
-423.345 -1822.6 0.
-405.68 -1782.65 0.
-388.015 -1742.69 0.
-107.379 -1709.72 0.
-183.898 -1888.36 0.
-260.417 -2067 0.
-328.729 -1789.9 0.
-137.441 -1343.21 0.
190.659 -910.544 0.
15.145 -1319.09 0.
-160.368 -1727.64 0.
-172.438 -1918.02 0.
-110.545 -1773.04 0.
-48.6525 -1628.07 0.
-76.3179 -1555.27 0.
-45.966 -1483.83 0.
-15.6142 -1412.39 0.
-460.132 -1536.76 0.
-423.398 -1451.08 0.
-743.613 -1518.6 0.
508.419 -1206.19 0.
391.301 -1480.43 0.
-526.219 -2019 0.
-462.218 -1869.58 0.
-398.217 -1720.16 0.
-173.895 -1587.85 0.
-215.079 -1680.96 0.
-256.263 -1774.08 0.
-63.9387 -1696.66 0.
-48.8056 -1659.97 0.
-33.6725 -1623.28 0.
-291.614 -1768.59 0.
-313.289 -1819.84 0.
-382.701 -1889.22 0.
-389.93 -1907.04 0.
-397.159 -1924.86 0.
-241.514 -1837.12 0.
-199.012 -1738.19 0.
-156.51 -1639.25 0.
-165.039 -1616.5 0.
-174.891 -1641.17 0.
-184.744 -1665.83 0.
-432.008 -1878.37 0.
-499.462 -2037.51 0.
112.495 -1906.92 0.
-184.544 -1880.02 0.
-103.044 -1690.84 0.
-251.948 -1652.87 0.
-299.471 -1764.37 0.
-346.993 -1875.87 0.
-161.253 -1817.56 0.
-130.363 -1746.56 0.
-99.4735 -1675.57 0.
-62.7249 -1594.72 0.
-27.8979 -1513.59 0.
6.92918 -1432.46 0.
112.09 -1433.31 0.
83.6394 -1499.14 0.
-4.83772 -1576.3 0.
9.2158 -1543.66 0.
23.2692 -1511.03 0.
-289.964 -1572.12 0.
-208.522 -1382.71 0.
-127.08 -1193.3 0.
-6.1991 -1127.57 0.
-52.8454 -1234.52 0.
-99.4914 -1341.46 0.
-342.112 -1385.96 0.
-295.101 -1276.49 0.
458.766 146.83 0.
165.867 -748.823 0.
125.807 -845.248 0.
353.931 -140.397 0.
240.51 -407.327 0.
602.329 434.976 0.
398.322 -356.89 0.
321.718 -537.021 0.
573.069 47.7319 0.
-261.593 -1657.64 0.
166.374 -659.407 0.
492.994 102.628 0.
358.156 -353.351 0.
654.668 340.894 0.
669.841 531.389 0.
302.189 -325.961 0.
406.171 -82.5721 0.
173.437 -375.823 0.
108.368 -527.957 0.
-102.12 -1019.36 0.
100.071 -848.695 0.
114.085 -816.249 0.
471.698 18.184 0.
455.579 -455.342 0.
624.526 -61.8072 0.
231.795 -384.808 0.
301.144 -834.513 0.
521.265 -321.763 0.
303.173 -506.79 0.
494.838 -60.4635 0.
647.045 293.997 0.
-65.4982 -286.895 0.
-172.871 -537.399 0.
-180.029 -554.037 0.
477.779 -129.018 0.
58.2845 -1106.37 0.
376.82 -361.917 0.
395.017 -360.131 0.
364.029 -432.916 0.
111.606 -1150.56 0.
83.8324 -1215.67 0.
-5.59332 -1424.6 0.
475.481 16.4115 0.
185.545 -660.398 0.
342.948 -293.409 0.
806.039 296.173 0.
560.201 -277.907 0.
728.863 115.33 0.
25.4073 -453.01 0.
342.132 285.365 0.
-2712.57 -1308.95 0.
969.264 78.7869 0.
1220.95 665.443 0.
269.563 59.4854 0.
409.132 384.904 0.
242.452 -3.91086 0.
683.651 126.373 0.
1028.98 931.585 0.
696.188 154.83 0.
536.001 -267.831 0.
595.23 -130.821 0.
408.278 -568.466 0.
-208.194 -1328.73 0.
-72.9011 -1013.41 0.
415.702 -241.389 0.
452.608 -154.761 0.
215.128 -708.253 0.
213.027 -518.951 0.
362.578 -168.173 0.
651.687 508.253 0.
579.65 270.904 0.
494.865 72.882 0.
698.08 547.208 0.
399.173 30.256 0.
-106.988 -1149.12 0.
659.75 -664.047 0.
294.504 -872.331 0.
967.681 700.301 0.
411.72 245.637 0.
152.612 -359.323 0.
177.748 -301.01 0.
613.735 -38.7659 0.
311.202 -744.441 0.
106.904 -1220.61 0.
146.791 -885.157 0.
181.282 -803.731 0.
674.141 347.037 0.
443.443 -999.861 0.
510.614 -840.817 0.
664.87 171.292 0.
446.152 -336.975 0.
236.648 -824.001 0.
466.255 396.861 0.
39.3093 -596.621 0.
313.261 44.7626 0.
675.206 193.875 0.
601.782 22.2336 0.
949.452 833.752 0.
-160.206 226.66 0.
-452.084 -452.73 0.
-191.353 -1598.34 0.
-143.685 -1382.52 0.
-44.0666 -1152.21 0.
20.3998 -974.354 0.
13.3484 -991.997 0.
6.29735 -1009.64 0.
90.0324 -1059.41 0.
-3.82853 -1278.98 0.
-97.6892 -1498.55 0.
-177.903 -1563.14 0.
-151.352 -1501.57 0.
-124.801 -1440 0.
-70.4915 -1405.77 0.
-67.3755 -1397.6 0.
-284.861 -1490.16 0.
-325.789 -1585.78 0.
-366.718 -1681.41 0.
-290.448 -1698.62 0.
-287.408 -1692.33 0.
-284.367 -1686.04 0.
-258.937 -1720.47 0.
-304.949 -1828.27 0.
-350.961 -1936.07 0.
-378.252 -1919.46 0.
-344.738 -1841.88 0.
-136.616 -1689.42 0.
-95.0999 -1719.7 0.
-118.61 -1774.2 0.
-324.685 -1857.83 0.
-234.441 -1647.98 0.
-144.198 -1438.13 0.
-460.812 -1480.95 0.
-466.691 -1494.62 0.
-472.57 -1508.3 0.
-269.444 -1490.49 0.
-321.744 -1611.54 0.
-374.045 -1732.58 0.
-198.719 -1783.66 0.
-266.461 -1941.48 0.
-238.395 -2021.57 0.
-116.868 -1739.53 0.
4.66033 -1457.49 0.
-101.17 -1340.12 0.
-88.6783 -1310.8 0.
-76.1862 -1281.48 0.
-168.413 -1407.06 0.
-260.054 -1622.68 0.
-351.695 -1838.3 0.
-376.989 -1840.57 0.
-344.291 -1765.64 0.
-1840.89 -2346.92 0.
-54.9963 -1512.02 0.
-18.7193 -1427.04 0.
-235.108 -1494.79 0.
-303.022 -1652.56 0.
-370.935 -1810.33 0.
-189.656 -1799.62 0.
-182.423 -1781.44 0.
-175.19 -1763.26 0.
-307.967 -1821.11 0.
-312.531 -1832.74 0.
-317.095 -1844.38 0.
-253.003 -1679.32 0.
-171.93 -1489.57 0.
-35.8478 -1297.64 0.
-59.1976 -1351.34 0.
-82.5474 -1405.04 0.
-296.632 -1544.43 0.
-324.4 -1607.69 0.
-352.168 -1670.95 0.
-257.33 -1658.33 0.
-260.286 -1663.79 0.
-263.241 -1669.25 0.
-312.971 -1650.9 0.
-286.744 -1588.3 0.
95.9753 -1368.55 0.
-226.621 -1498.1 0.
-223.261 -1487.96 0.
-279.795 -1533.99 0.
-332.397 -1657.68 0.
-384.999 -1781.38 0.
-123.861 -1666.47 0.
-55.4133 -1505.61 0.
13.0346 -1344.76 0.
249.242 -1186.93 0.
260.94 -1159.25 0.
272.639 -1131.57 0.
24.0008 -1462.15 0.
-110.478 -1773.83 0.
-183.936 -2000.87 0.
-78.8563 -1753.77 0.
26.223 -1506.66 0.
-208.722 -1453.59 0.
-179.267 -1383.13 0.
-149.813 -1312.67 0.
-7.15949 -1218.3 0.
2.19713 -1196.33 0.
11.5536 -1174.37 0.
-366.843 -1167.63 0.
-256.57 -910.033 0.
-53.4766 -1505.06 0.
-173.458 -1363.7 0.
-73.9866 -1133.47 0.
66.3366 -923.004 0.
58.8969 -940.458 0.
51.4574 -957.911 0.
96.2329 -1025.97 0.
2.08076 -1245.32 0.
-92.0711 -1464.66 0.
-108.257 -1502.69 0.
-81.9448 -1441.03 0.
-55.6329 -1379.36 0.
-27.0471 -1355.58 0.
-23.8393 -1347.41 0.
-375.864 -1497.07 0.
-416.732 -1592.72 0.
-457.6 -1688.36 0.
-145.815 -1604.91 0.
-142.724 -1598.5 0.
-139.632 -1592.1 0.
-223.351 -1674.14 0.
-269.287 -1782.19 0.
-315.223 -1890.24 0.
-617.145 -1990.04 0.
-583.945 -1912.54 0.
410.929 -1422.99 0.
-97.9803 -1689.37 0.
-121.782 -1743.89 0.
-368.278 -1845.81 0.
-278.245 -1635.87 0.
-188.213 -1425.92 0.
-299.743 -1380.78 0.
-305.368 -1394.75 0.
-310.993 -1408.72 0.
-453.179 -1535.77 0.
-505.328 -1657.02 0.
-557.478 -1778.26 0.
-162.117 -1737.26 0.
-229.987 -1894.79 0.
-193.33 -1971.89 0.
-71.6104 -1689.74 0.
50.1091 -1407.6 0.
-80.0156 -1299.49 0.
-67.5012 -1270.13 0.
-54.9869 -1240.78 0.
-452.166 -1497.33 0.
-543.716 -1712.88 0.
-635.265 -1928.42 0.
-121.973 -1699.95 0.
-89.3104 -1624.84 0.
-147.015 -1589.18 0.
-458.65 -1653.21 0.
-422.139 -1568.24 0.
-19.1038 -1370.79 0.
-87.0613 -1528.79 0.
-155.018 -1686.78 0.
-234.038 -1786.93 0.
-226.722 -1768.97 0.
-219.407 -1751.01 0.
-510.932 -1876.34 0.
-515.503 -1888.09 0.
-520.073 -1899.85 0.
-105.978 -1584.73 0.
-25.2051 -1394.89 0.
-18.4396 -1258.71 0.
-41.4136 -1312.71 0.
-64.3876 -1366.7 0.
-367.263 -1542.66 0.
-394.878 -1606.01 0.
-422.494 -1669.35 0.
-253.917 -1626.79 0.
-256.666 -1632.18 0.
-259.415 -1637.57 0.
-288.572 -1609.15 0.
-261.792 -1547.01 0.
-164.735 -1447.71 0.
-522.268 -1592.86 0.
-518.558 -1583.19 0.
-174.836 -1457.37 0.
-227.329 -1581.28 0.
-279.821 -1705.2 0.
-157.567 -1650.02 0.
-89.1395 -1489.12 0.
-20.7119 -1328.22 0.
551.489 -1025.12 0.
563.344 -997.542 0.
575.198 -969.963 0.
-231.377 -1540.16 0.
-365.934 -1851.67 0.
-67.3654 -1920.38 0.
37.7697 -1673.07 0.
142.905 -1425.76 0.
-45.9533 -1352.8 0.
-16.5942 -1282.18 0.
12.7646 -1211.57 0.
-85.9664 -1220.95 0.
-76.5485 -1199.1 0.
-67.1306 -1177.25 0.
128.874 -923.637 0.
239.449 -666.672 0.
-51.4628 -1347.14 0.
-307.727 -1453.52 0.
-288.652 -1407.44 0.
-113.763 -1305.41 0.
-119.194 -1317.48 0.
-124.624 -1329.56 0.
-8.75703 -1257.03 0.
26.3545 -1175.61 0.
61.466 -1094.19 0.
43.0091 -1113.95 0.
15.2193 -1179.27 0.
-12.5705 -1244.58 0.
-38.1458 -1364.06 0.
-101.399 -1511.11 0.
-484.73 -1767.85 0.
-404.697 -1579.19 0.
-324.664 -1390.54 0.
25.288 -1157.14 0.
-5.5063 -1227.61 0.
-36.3006 -1298.08 0.
-92.9587 -1261.61 0.
-10.5631 -1068.51 0.
71.8325 -875.413 0.
-383.8 -1215.94 0.
-506.443 -1501.91 0.
242.795 -1414.14 0.
-3.97482 -1389.38 0.
62.299 -1234.15 0.
-124.411 -1230.75 0.
-155.962 -1304.49 0.
-187.513 -1378.23 0.
-234.101 -1420.6 0.
-221.442 -1390.43 0.
-208.784 -1360.27 0.
-444.753 -1457.84 0.
-446.275 -1462.68 0.
-447.797 -1467.52 0.
4.5659 -1346.4 0.
-40.4893 -1450.93 0.
-69.5993 -1526.07 0.
-13.1438 -1393.14 0.
43.3113 -1260.21 0.
-109.955 -1243.96 0.
-94.6239 -1208.07 0.
-79.2928 -1172.18 0.
-425.905 -1270.52 0.
-390.46 -1186.92 0.
-355.014 -1103.33 0.
211.138 -984.33 0.
119.482 -1198.2 0.
-255.602 -1533.33 0.
-475.293 -1573.99 0.
-447.734 -1508.66 0.
-23.8929 -1289.36 0.
-39.9093 -1327.83 0.
-55.9255 -1366.3 0.
-53.9433 -1405.52 0.
-80.9799 -1469.12 0.
-108.016 -1532.71 0.
-451.396 -1594.81 0.
-373.19 -1411.97 0.
-294.985 -1229.13 0.
-13.0888 -1302.39 0.
-134.525 -1585.15 0.
-251.043 -1826.92 0.
-202.084 -1712.78 0.
-153.126 -1598.64 0.
-439.822 -1664.99 0.
-439.703 -1665.68 0.
-439.583 -1666.37 0.
-259.114 -1567.33 0.
-246.082 -1536.36 0.
-233.051 -1505.39 0.
-228.056 -1467.28 0.
-209.445 -1422.63 0.
-175.869 -1380.45 0.
-480.263 -1381.4 0.
-412.06 -1222.75 0.
0.173345 -974.218 0.
-73.5294 -1145.18 0.
-147.232 -1316.14 0.
-49.444 -1358.54 0.
-56.1939 -1374.66 0.
-62.9439 -1390.78 0.
500.051 -1179.46 0.
477.052 -1233.7 0.
454.053 -1287.93 0.
-288.292 -1502.25 0.
-221.967 -1348.53 0.
293.897 -1009.05 0.
312.507 -966.841 0.
331.118 -924.634 0.
112.061 -1011.87 0.
95.4027 -1052.24 0.
78.7446 -1092.62 0.
1.73846 -1206.96 0.
-59.0549 -1349.89 0.
-119.849 -1492.82 0.
150.941 -1185.44 0.
291.86 -856.877 0.
-324.749 -1435.39 0.
-475.125 -1493.91 0.
-456 -1447.95 0.
-164.005 -1295.1 0.
-169.594 -1307.17 0.
-175.183 -1319.25 0.
5.30816 -1219.28 0.
40.5707 -1137.97 0.
75.8332 -1056.66 0.
-32.7426 -1115.83 0.
-60.6034 -1181.11 0.
-88.4643 -1246.39 0.
-66.9132 -1344.16 0.
-130.31 -1491.33 0.
-338.925 -1674.05 0.
-259.299 -1485.2 0.
-179.672 -1296.35 0.
-144.465 -1198.76 0.
-175.082 -1269.31 0.
-205.698 -1339.87 0.
-211.607 -1280.77 0.
-129.087 -1087.76 0.
-46.5658 -894.751 0.
-341.608 -1165.79 0.
-464.148 -1451.89 0.
43.3891 -1467.9 0.
-51.3471 -1378.7 0.
14.8757 -1223.27 0.
-95.1814 -1186.67 0.
-126.646 -1260.4 0.
-158.111 -1334.13 0.
-166.307 -1361 0.
-153.744 -1330.78 0.
-141.182 -1300.55 0.
-282.761 -1356.05 0.
-284.47 -1360.84 0.
-286.179 -1365.63 0.
-6.2422 -1320.12 0.
-51.3909 -1424.38 0.
-250.472 -1573.2 0.
-194.257 -1439.77 0.
-138.042 -1306.34 0.
-235.455 -1267 0.
-220.109 -1230.75 0.
-204.763 -1194.49 0.
-281.442 -1177.09 0.
-245.73 -1093.44 0.
-210.017 -1009.79 0.
40.6707 -1026.27 0.
-51.0206 -1239.93 0.
-478.817 -1596.89 0.
-153.467 -1403.73 0.
-126.085 -1338.36 0.
-309.282 -1380.9 0.
-325.555 -1419.12 0.
-341.829 -1457.35 0.
71.4311 -1321.21 0.
44.2198 -1384.55 0.
17.0085 -1447.89 0.
-368.292 -1528.99 0.
-289.909 -1346.45 0.
-211.527 -1163.9 0.
-198.464 -1349.2 0.
-319.991 -1632.18 0.
-209.616 -1776.6 0.
-160.449 -1662.73 0.
-111.282 -1548.85 0.
-383.85 -1609.55 0.
-383.647 -1610.38 0.
-383.444 -1611.22 0.
-301.442 -1553.94 0.
-288.455 -1522.72 0.
-275.468 -1491.49 0.
-226.773 -1436.41 0.
-208.226 -1391.68 0.
0.759745 -1272.66 0.
-262.248 -1255.94 0.
-194.152 -1097.38 0.
-155.891 -1008.94 0.
-229.671 -1179.88 0.
-303.452 -1350.83 0.
-18.4545 -1315.01 0.
-25.6057 -1330.98 0.
-32.7569 -1346.94 0.
264.347 -1248.26 0.
241.53 -1302.82 0.
218.712 -1357.39 0.
-176.28 -1423.42 0.
-109.786 -1269.7 0.
141.05 -1043.32 0.
159.724 -1000.9 0.
178.398 -958.477 0.
15.5772 -1022.01 0.
-1.16948 -1062.29 0.
-17.9163 -1102.57 0.
314.3 -1041.66 0.
253.362 -1184.61 0.
192.424 -1327.57 0.
27.083 -1207.81 0.
167.196 -879.475 0.
-12.4355 -161.358 0.
22.1678 8.2744 0.
-412.46 -1005.15 0.
171.389 -384.1 0.
-143.243 -1119.08 0.
194.034 -332.642 0.
538.77 29.4501 0.
868.131 798.63 0.
459.139 -155.299 0.
254.34 -276.149 0.
351.567 -48.3556 0.
54.6641 -739.917 0.
197.343 -639.401 0.
516.855 107.108 0.
711.45 537.465 0.
345.658 -318.203 0.
615.168 308.908 0.
505.967 674.993 0.
272.314 129.694 0.
-173.98 -911.704 0.
-500.048 -1691.26 0.
-93.5234 -742.8 0.
275.04 117.091 0.
129.451 -123.086 0.
676.406 1152.29 0.
806.635 355.922 0.
162.304 -761.043 0.
200.874 -672.508 0.
-23.981 -1054.59 0.
568.619 330.23 0.
382.507 -101.541 0.
1.46768 -1061.6 0.
191.395 -618.535 0.
-73.574 -1236.93 0.
-276.406 -1620.38 0.
126.878 -678.589 0.
571.533 359.637 0.
688.627 357.115 0.
662.291 296.568 0.
243.548 -47.818 0.
293.119 73.0493 0.
276.39 39.3322 0.
163.924 -67.7193 0.
55.1966 -320.76 0.
-32.8336 -525.56 0.
277.376 -117.857 0.
253.213 -174.474 0.
156.882 -399.666 0.
56.013 -631.249 0.
180.296 -343.203 0.
-1738.56 -1560.08 0.
673.557 -55.9912 0.
502.131 -455.266 0.
-401.866 -1021.29 0.
-228.881 -616.89 0.
-215.657 -585.274 0.
660.123 -159.652 0.
951.204 521.11 0.
567.498 -372.541 0.
170.434 -401.749 0.
253.835 -207.99 0.
555.377 494.444 0.
-14.5174 -534.319 0.
58.9566 -364.85 0.
734.119 379.85 0.
578.5 18.4961 0.
516.37 -124.875 0.
61.8143 -652.561 0.
618.976 648.029 0.
494.477 358.286 0.
266.277 -118.191 0.
424.092 251.03 0.
405.765 209.253 0.
-144.4 -1221.82 0.
-375.171 -1761.73 0.
697.4 247.944 0.
122.563 -742.871 0.
348.897 -216.289 0.
335.222 470.923 0.
-90.9252 -524.146 0.
90.1109 -102.743 0.
107.273 -1052.27 0.
118.939 -1025.62 0.
333.01 -526.471 0.
378.43 -501.471 0.
707.57 265.696 0.
496.233 -227.905 0.
385.111 -297.889 0.
14.0418 -1164.48 0.
199.693 -587.574 0.
269.853 -423.098 0.
415.164 -83.7305 0.
31.5618 -772.766 0.
151.166 -494.556 0.
-154.739 -1209.38 0.
974.94 -61.4101 0.
658.296 -801.002 0.
555.347 -1041.95 0.
112.321 -750.443 0.
428.053 -16.8035 0.
-57.299 -1037.15 0.
-406.49 -1292.28 0.
-470.93 -1442.6 0.
-188.837 -1419.55 0.
-190.406 -1424.59 0.
-191.975 -1429.63 0.
-210.314 -1405.61 0.
-169.143 -1308.77 0.
-127.972 -1211.92 0.
-284.729 -1335.8 0.
-353.308 -1495.6 0.
-421.888 -1655.4 0.
-102.713 -1573.09 0.
-123.307 -1620.99 0.
-310.388 -1719.95 0.
-228.021 -1531.33 0.
-145.653 -1342.71 0.
-278.365 -1274.31 0.
-252.712 -1214.83 0.
-227.06 -1155.34 0.
-101.153 -1141.18 0.
-156.947 -1271.52 0.
-212.74 -1401.86 0.
-548.599 -1544.05 0.
-532.927 -1507.35 0.
135.909 -1190.9 0.
-246.332 -1493.58 0.
-316.229 -1657.37 0.
-269.506 -1712.12 0.
-206.456 -1564.25 0.
-143.407 -1416.38 0.
-210.356 -1364.01 0.
-196.666 -1332.14 0.
-182.976 -1300.28 0.
-153.542 -1305.68 0.
-173.569 -1351.67 0.
-193.595 -1397.66 0.
-148.359 -1327.79 0.
-115.71 -1251.9 0.
-185.314 -1229.2 0.
-200.766 -1266.56 0.
-216.218 -1303.92 0.
-371.808 -1370.23 0.
-338.328 -1292.75 0.
-304.849 -1215.27 0.
-211.632 -1222.31 0.
-282.737 -1389.62 0.
-353.841 -1556.93 0.
-451.813 -1639.62 0.
-456.996 -1654.37 0.
-1294.97 -2027.56 0.
67.5821 -1224.56 0.
181.742 -956.996 0.
-318.773 -1033.21 0.
-391.343 -1202.89 0.
-463.912 -1372.56 0.
-96.9678 -1293.35 0.
-101.004 -1303.18 0.
-105.041 -1313.01 0.
-272.849 -1471.25 0.
-338.201 -1622.72 0.
-403.554 -1774.18 0.
-498.993 -1695.82 0.
-421.637 -1517.15 0.
-181.186 -1281.9 0.
-151.793 -1211.65 0.
-122.4 -1141.39 0.
-160.865 -1082.27 0.
-111.558 -966.74 0.
-62.2515 -851.206 0.
50.457 -873.789 0.
-47.7859 -1104.79 0.
-146.029 -1335.8 0.
-372.529 -1507.85 0.
-394.459 -1561.75 0.
284.136 -1308.13 0.
-257.628 -1528.37 0.
-251.029 -1513.57 0.
-284.465 -1499.35 0.
-227.059 -1367.9 0.
-169.654 -1236.44 0.
33.7284 -1110.64 0.
7.89483 -1172.2 0.
-17.9385 -1233.77 0.
13.8746 -1276.06 0.
-14.2839 -1341.82 0.
-42.4422 -1407.58 0.
-117.482 -1368.13 0.
-73.6332 -1266.16 0.
-26.2365 -1181.64 0.
-51.4489 -1240.71 0.
-76.6613 -1299.78 0.
-172.578 -1373 0.
-178.208 -1386.95 0.
-183.838 -1400.9 0.
146.902 -1153.95 0.
250.816 -911.258 0.
354.729 -668.561 0.
66.0546 -870.714 0.
-13.3715 -1058.17 0.
363.409 -826.986 0.
-232.018 -1186.76 0.
-296.228 -1337.25 0.
-69.6403 -1336.98 0.
-70.9763 -1342.21 0.
-72.3124 -1347.43 0.
-358.592 -1437.02 0.
-317.299 -1340.35 0.
-276.005 -1243.67 0.
-372.92 -1342.47 0.
-441.284 -1502.53 0.
-509.649 -1662.59 0.
36.4159 -1481.52 0.
15.6778 -1529.63 0.
-357.377 -1708.37 0.
-275.409 -1519.29 0.
-193.44 -1330.21 0.
-197.7 -1209 0.
-172.118 -1149.31 0.
-146.536 -1089.61 0.
118.424 -1016.49 0.
62.4745 -1146.67 0.
6.52495 -1276.85 0.
-618.914 -1543.12 0.
-603.759 -1505.99 0.
627.544 -948.022 0.
-346.622 -1506.92 0.
-416.591 -1670.66 0.
-209.923 -1654.17 0.
-146.454 -1506.72 0.
-82.9852 -1359.27 0.
-296.245 -1369.58 0.
-282.409 -1337.75 0.
-268.572 -1305.93 0.
-151.215 -1271.85 0.
-171.219 -1317.9 0.
-191.224 -1363.95 0.
-274.432 -1351.55 0.
-241.934 -1275.58 0.
-68.822 -1148.25 0.
-84.2774 -1185.32 0.
-99.7327 -1222.39 0.
-326.318 -1319.54 0.
-292.544 -1242.11 0.
-258.769 -1164.68 0.
-215.504 -1192.64 0.
-286.517 -1359.91 0.
-357.53 -1527.18 0.
-523.097 -1639.48 0.
-528.505 -1654.04 0.
-2123.91 -2350.97 0.
-48.5899 -1242.65 0.
65.5771 -975.191 0.
-191.889 -947.701 0.
-264.092 -1117.9 0.
-336.295 -1288.1 0.
-415.133 -1398.72 0.
-419.403 -1408.25 0.
-423.674 -1417.77 0.
-240.321 -1426.8 0.
-305.662 -1578.52 0.
-371.004 -1730.24 0.
-461.788 -1648.42 0.
-384.202 -1469.73 0.
-416.691 -1350.59 0.
-386.894 -1280.72 0.
-357.097 -1210.84 0.
-190.929 -1063.37 0.
-141.438 -948.113 0.
-91.9479 -832.859 0.
198.629 -778.629 0.
100.696 -1010.03 0.
2.76192 -1241.42 0.
-481.956 -1523.33 0.
-503.707 -1577.62 0.
-255.539 -1507.67 0.
-298.032 -1514.12 0.
-291.449 -1499.54 0.
10.4263 -1341.64 0.
67.6963 -1210.05 0.
124.967 -1078.47 0.
-8.73748 -1097.96 0.
-34.3074 -1159.78 0.
-59.8771 -1221.6 0.
-10.4502 -1253.89 0.
-38.2787 -1320.14 0.
-66.1071 -1386.39 0.
-156.027 -1353.91 0.
-112.204 -1251.88 0.
24.8803 -1128.61 0.
-0.339544 -1187.4 0.
-25.5594 -1246.18 0.
-88.9979 -1306.01 0.
-95.0032 -1319.42 0.
-101.009 -1332.82 0.
-279.509 -1306.39 0.
-175.726 -1063.8 0.
-71.9437 -821.22 0.
90.1231 -828.157 0.
10.502 -1015.51 0.
390.483 -843.838 0.
-124.907 -1080.12 0.
-117.324 -1061.35 0.
114.133 -947.495 0.
117.071 -940.287 0.
120.01 -933.079 0.
-260.018 -1088.26 0.
-255.1 -1076.65 0.
-250.182 -1065.04 0.
-286.369 -1121.42 0.
-322.682 -1205.78 0.
-358.995 -1290.13 0.
193.129 -1111 0.
163.499 -1179.3 0.
-262.211 -1415.72 0.
-280.707 -1457.54 0.
-299.202 -1499.37 0.
-246.277 -1457.77 0.
-174.762 -1289.67 0.
-103.248 -1121.57 0.
186.64 -956.213 0.
163.657 -1010.81 0.
140.673 -1065.41 0.
-526.626 -1294.2 0.
-475.254 -1175.96 0.
826.629 -521.749 0.
-166.769 -971.744 0.
-184.567 -1012.05 0.
-5.53061 -978.495 0.
-41.2527 -1059.75 0.
-76.9747 -1141.01 0.
-256.897 -1293.63 0.
-298.703 -1390.22 0.
-340.508 -1486.81 0.
-251.707 -1390.43 0.
-183.023 -1231.43 0.
-114.34 -1072.43 0.
-284.668 -1154.6 0.
-299.752 -1191.25 0.
-23.3685 -1113.12 0.
-84.6422 -1256.78 0.
-145.916 -1400.45 0.
-382.822 -1550.11 0.
-339.738 -1447.59 0.
-296.654 -1345.08 0.
-285.344 -1241.35 0.
-225.657 -1101.45 0.
-165.971 -961.549 0.
-255.014 -945.42 0.
-236.39 -901.879 0.
-889.401 -1147.06 0.
63.4095 -904.628 0.
-22.4278 -1107.16 0.
-322.392 -1317.4 0.
-216.386 -1069.59 0.
-110.379 -821.777 0.
-322.111 -825.55 0.
-346.678 -884.841 0.
-371.244 -944.133 0.
-10.7284 -883.223 0.
-72.1466 -1026.46 0.
-133.565 -1169.69 0.
-292.675 -1254.17 0.
-292.551 -1254.43 0.
-451.908 -1315.96 0.
-417.916 -1236.21 0.
-383.923 -1156.46 0.
-315.346 -1099.89 0.
-335.729 -1147.94 0.
-356.112 -1196 0.
94.272 -969.191 0.
137.868 -864.787 0.
181.464 -760.383 0.
-226.445 -867.284 0.
-192.41 -786.519 0.
168.715 -569.824 0.
-86.4237 -980.389 0.
-244.811 -1349.4 0.
39.9456 -1444.54 0.
65.3234 -1382.97 0.
90.7013 -1321.39 0.
-194.642 -1431.21 0.
-212.385 -1470.54 0.
-230.127 -1509.87 0.
-111.536 -1453.09 0.
-97.3731 -1419.61 0.
-83.2099 -1386.12 0.
-116.114 -1283.64 0.
-48.0118 -1124.14 0.
53.807 -977.15 0.
12.5391 -1074.18 0.
-28.729 -1171.21 0.
-49.4797 -1192.72 0.
7.32618 -1061.12 0.
64.1318 -929.53 0.
-256.33 -1067.77 0.
-302.212 -1175.5 0.
-348.093 -1283.24 0.
-125.749 -1192.69 0.
-112.205 -1159.82 0.
83.6013 -943.248 0.
-114.555 -1045.38 0.
-107.136 -1026.25 0.
62.8623 -937.65 0.
66.0074 -930.626 0.
69.1525 -923.601 0.
-203.411 -1032.49 0.
-198.534 -1020.93 0.
-193.658 -1009.37 0.
-184.635 -1046.61 0.
-220.852 -1131.06 0.
-257.069 -1215.52 0.
81.6188 -1127.8 0.
52.1513 -1196.17 0.
-262.339 -1384.12 0.
-280.647 -1425.96 0.
-298.955 -1467.8 0.
-154.063 -1387.43 0.
-82.6471 -1219.17 0.
-11.2308 -1050.92 0.
84.7246 -968.544 0.
62.0101 -1023.37 0.
39.2955 -1078.19 0.
-447.84 -1228.07 0.
-396.407 -1109.89 0.
717.112 -536.642 0.
-154.973 -936.272 0.
-172.655 -976.709 0.
-244.186 -1048.38 0.
-279.676 -1129.87 0.
-315.166 -1211.35 0.
-116.052 -1202.02 0.
-157.692 -1298.57 0.
-199.331 -1395.12 0.
-342.892 -1397.13 0.
-274.093 -1238.16 0.
-205.295 -1079.2 0.
-356.444 -1154.82 0.
-371.497 -1191.34 0.
-39.8293 -1088.17 0.
-101.123 -1231.83 0.
-162.417 -1375.49 0.
-295.014 -1482.4 0.
-251.879 -1379.91 0.
-208.744 -1277.43 0.
-373.295 -1246.7 0.
-313.675 -1106.93 0.
-254.056 -967.156 0.
-231.665 -904.128 0.
-212.938 -860.642 0.
120.51 -683.074 0.
145.354 -837.617 0.
58.9578 -1039.71 0.
-354.853 -1299.57 0.
-248.707 -1051.79 0.
-142.561 -804.005 0.
-344.485 -804.083 0.
-369.006 -863.35 0.
-393.527 -922.618 0.
-22.2149 -856.952 0.
-83.4986 -1000.34 0.
-144.782 -1143.73 0.
-298.715 -1225.16 0.
-298.477 -1225.48 0.
-300.616 -1219.66 0.
-266.505 -1139.87 0.
-232.395 -1060.09 0.
-521.652 -1158.03 0.
-541.759 -1206.28 0.
-561.866 -1254.52 0.
-81.3385 -1011.93 0.
-37.6119 -907.854 0.
6.11447 -803.774 0.
-145.295 -800.839 0.
-111.402 -720.26 0.
381.949 -446.305 0.
-49.9404 -932.994 0.
-208.342 -1302.02 0.
-51.3189 -1452.79 0.
-25.7358 -1391.66 0.
-0.152625 -1330.54 0.
-229.909 -1414.68 0.
-247.309 -1454.3 0.
-264.709 -1493.92 0.
-98.1159 -1415.23 0.
-83.4193 -1382.21 0.
-68.7228 -1349.19 0.
-22.3005 -1211.2 0.
45.9504 -1051.67 0.
-51.3561 -990.915 0.
-92.6765 -1087.76 0.
-133.997 -1184.61 0.
-120.72 -1192.26 0.
-63.9475 -1060.56 0.
-7.17547 -928.859 0.
11.068 -922.022 0.
-34.9072 -1029.73 0.
-80.8826 -1137.45 0.
-259.689 -1218.78 0.
-246.216 -1185.96 0.
-441.892 -1548.71 0.
202.388 -293.544 0.
183.805 -338.118 0.
431.377 47.8405 0.
462.522 123.4 0.
433.846 58.7134 0.
-297.385 -1331.17 0.
130.761 -333.594 0.
126.783 -343.903 0.
113.303 -509.945 0.
-44.0962 -876.91 0.
-11.2158 -800.102 0.
409.64 -125.393 0.
202.353 -609.555 0.
71.6027 -571.076 0.
217.504 -229.501 0.
248.061 -157.131 0.
626.076 290.833 0.
496.034 -13.0668 0.
309.587 -448.737 0.
4.50701 -923.29 0.
67.133 -777.891 0.
336.977 -149.034 0.
-106.448 -552.909 0.
-235.79 -856.814 0.
480.661 -196.512 0.
-228.185 -1098.73 0.
4.55856 -555.389 0.
-68.7324 -151.782 0.
-321.585 -741.934 0.
-154.968 -353.14 0.
792.32 683.036 0.
751.89 588.91 0.
649.635 350.44 0.
26.4749 -333.112 0.
-89.4966 -604.05 0.
467.493 694.621 0.
386.065 741.841 0.
-103.251 -399.12 0.
366.169 -75.2021 0.
333.523 -152.257 0.
283.826 -269.042 0.
273.593 -296.163 0.
234.689 -386.318 0.
334.434 -152.844 0.
-129.656 -476.498 0.
-490.273 -1317.18 0.
-308.752 -892.813 0.
142.631 -38.1304 0.
422.619 615.346 0.
-894.887 -126.997 0.
607.48 112.178 0.
468.638 -213.009 0.
177.564 38.9655 0.
16.6151 -337.154 0.
91.3376 -163.206 0.
-374.481 -804.036 0.
-175.004 -337.193 0.
18.1615 115.174 0.
14.2372 -718.978 0.
-19.7798 -796.841 0.
152.905 -392.5 0.
-100.891 -725.862 0.
-206.955 -973.933 0.
328.479 -8.26721 0.
199.116 -308.329 0.
96.1246 -546.89 0.
-363.46 -370.05 0.
-75.208 301.385 0.
-60.2661 334.906 0.
461.939 624.875 0.
277.834 197.083 0.
53.9295 -324.13 0.
230.641 -48.2434 0.
26.7778 -522.835 0.
635.33 234.306 0.
462.605 219.132 0.
184.861 -425.461 0.
584.93 238.296 0.
259.979 -519.819 0.
455.143 -64.2715 0.
77.5179 -598.873 0.
227.113 -250.372 0.
-29.6015 -849.788 0.
291.226 -497.081 0.
161.916 -799.374 0.
74.8789 -1003.12 0.
146.081 -964.617 0.
108.163 -1054.24 0.
187.286 -203.213 0.
220.957 -123.241 0.
189.201 -196.29 0.
-9.32328 -772.091 0.
302.593 -42.9943 0.
411.698 212.753 0.
705.321 220.589 0.
454.671 -366.788 0.
462.737 -349.056 0.
-506.426 -1510.2 0.
197.04 129.606 0.
-201.875 -1224.5 0.
-236.679 -1275.86 0.
-277.478 -1372.61 0.
-212.666 -1403.72 0.
-195.174 -1361.03 0.
-177.683 -1318.34 0.
-162.781 -1293.24 0.
-165.21 -1300.08 0.
-167.638 -1306.92 0.
-139.413 -1302.11 0.
-141.864 -1306.94 0.
-144.315 -1311.77 0.
-169.58 -1235.35 0.
-120.322 -1118.54 0.
-105.13 -1041.41 0.
-175.828 -1206.73 0.
-246.526 -1372.06 0.
-266.647 -1426.8 0.
-200.159 -1272.78 0.
-133.67 -1118.76 0.
31.1202 -1025.45 0.
-1.37095 -1100.62 0.
-33.8621 -1175.79 0.
-335.62 -1316.32 0.
-333.26 -1311.9 0.
881.374 -787.239 0.
-453.306 -1354.8 0.
-448.727 -1343.92 0.
-455.965 -1324.83 0.
-416.867 -1236.35 0.
-377.769 -1147.87 0.
-71.4003 -1003.2 0.
-103.391 -1079.42 0.
-135.382 -1155.65 0.
-303.689 -1284.72 0.
-334.24 -1353.58 0.
-364.79 -1422.43 0.
-438.744 -1331.65 0.
-364.549 -1156.77 0.
-167.318 -948.09 0.
-170.943 -957.064 0.
-174.567 -966.038 0.
-130.83 -1004.15 0.
-211.361 -1192.51 0.
-291.892 -1380.87 0.
-559.047 -1459.43 0.
-460.244 -1231.33 0.
-361.441 -1003.23 0.
-294.667 -967.583 0.
-317.665 -1020.38 0.
-320.895 -1065.46 0.
54.9501 -831.195 0.
93.3825 -741.658 0.
-127.09 -797.595 0.
-170.719 -899.57 0.
-214.348 -1001.54 0.
-496.733 -1112.57 0.
-430.805 -959.29 0.
-364.876 -806.013 0.
-206.875 -743.742 0.
-243.077 -827.031 0.
-279.279 -910.321 0.
-220.205 -913.706 0.
-234.039 -944.881 0.
-73.9595 -900.881 0.
-81.6292 -917.842 0.
-89.2989 -934.803 0.
-605.958 -1176.82 0.
-627.61 -1225.67 0.
-649.262 -1274.52 0.
-140.493 -1050.56 0.
-115.315 -990.203 0.
-90.1373 -929.85 0.
-321.03 -1178.33 0.
-429.445 -1431.14 0.
-117.803 -1500.95 0.
-227.687 -1298.05 0.
-97.4832 -992.622 0.
85.2868 -761.794 0.
-2.00841 -966.766 0.
-89.3034 -1171.74 0.
-255.941 -1318.93 0.
-234.705 -1269.76 0.
-213.468 -1220.59 0.
4.75694 -1094.88 0.
19.7691 -1060.43 0.
34.7811 -1025.97 0.
45.6245 -998.45 0.
58.1578 -970.082 0.
-14.3814 -972.541 0.
11.0133 -912.989 0.
36.4083 -853.437 0.
17.1209 -831.325 0.
16.7161 -831.635 0.
16.3109 -831.946 0.
131.313 -764.026 0.
150.054 -719.479 0.
168.795 -674.932 0.
-91.7877 -940.496 0.
-202.801 -1199.93 0.
-61.4683 -1135.04 0.
-242.748 -1247.27 0.
-283.43 -1344.23 0.
-222.231 -1375.6 0.
-204.379 -1333.23 0.
-186.527 -1290.85 0.
-1.35014 -1192.11 0.
-3.77786 -1199.17 0.
-6.20558 -1206.22 0.
-17.6585 -1219.24 0.
-20.4194 -1223.7 0.
-23.1803 -1228.17 0.
-282.24 -1252.5 0.
-233.075 -1135.5 0.
-57.9533 -990.407 0.
-128.868 -1155.44 0.
-199.782 -1320.48 0.
-444.408 -1472.63 0.
-378.038 -1318.61 0.
-311.668 -1164.59 0.
136.32 -948.67 0.
103.9 -1024 0.
71.4805 -1099.33 0.
-200.103 -1226.06 0.
-197.595 -1221.71 0.
569.906 -888.918 0.
-578.249 -1376.97 0.
-573.312 -1366.36 0.
-293.957 -1223.9 0.
-254.981 -1135.26 0.
-216.006 -1046.61 0.
-230.474 -1039.88 0.
-262.177 -1116.31 0.
-293.88 -1192.75 0.
-189.898 -1203.46 0.
-219.968 -1272.75 0.
-250.039 -1342.04 0.
-342.263 -1258.5 0.
-267.974 -1083.48 0.
-347.782 -994.644 0.
-351.577 -1003.67 0.
-355.372 -1012.69 0.
-236.827 -1019.19 0.
-317.397 -1207.45 0.
-397.967 -1395.71 0.
-555.099 -1426.44 0.
-456.031 -1198.71 0.
-356.962 -970.978 0.
-323.877 -947.939 0.
-346.689 -1001.07 0.
-9.89507 -900.219 0.
-111.178 -870.782 0.
-72.8586 -781.249 0.
-43.8852 -730.712 0.
-87.3989 -832.85 0.
-130.913 -934.988 0.
-466.369 -1067.98 0.
-400.204 -914.904 0.
-334.039 -761.833 0.
-449.982 -817.244 0.
-486.202 -900.464 0.
-522.422 -983.683 0.
-249.944 -894.35 0.
-263.886 -925.38 0.
-83.3506 -873.911 0.
-91.0279 -890.812 0.
-98.7052 -907.714 0.
-461.377 -1083.82 0.
-482.878 -1132.82 0.
-504.38 -1181.82 0.
19.4346 -950.037 0.
44.4167 -889.548 0.
69.399 -829.059 0.
-385.377 -1175 0.
-493.898 -1427.74 0.
-6.45141 -1421.22 0.
-262.971 -1281.45 0.
-132.574 -976.362 0.
14.2792 -760.288 0.
-72.8786 -965.607 0.
-160.036 -1170.93 0.
-269.235 -1293.88 0.
-248.247 -1244.47 0.
-227.259 -1195.06 0.
-15.1711 -1071.2 0.
0.122972 -1037.07 0.
15.417 -1002.94 0.
-41.0491 -1003.74 0.
-28.5443 -975.115 0.
159.033 -866.226 0.
184.674 -806.894 0.
210.315 -747.563 0.
98.6179 -765.824 0.
97.9432 -765.837 0.
97.2681 -765.85 0.
-40.4044 -806.295 0.
-21.9754 -761.485 0.
-3.54705 -716.675 0.
132.648 -813.026 0.
21.0733 -1071.95 0.
124.623 -679.888 0.
2.17349 -795.518 0.
-20.3034 -846.433 0.
-61.9539 -901.636 0.
-75.1435 -933.815 0.
-88.3331 -965.995 0.
143.354 -919.472 0.
100.424 -1017.99 0.
57.494 -1116.52 0.
48.4227 -1046.93 0.
128.514 -860.817 0.
208.605 -674.702 0.
-106.691 -835.613 0.
-131.009 -893.111 0.
-9.58545 -879.669 0.
-0.984397 -859.1 0.
7.61678 -838.532 0.
-287.921 -1006.18 0.
-370.823 -1199.61 0.
-453.725 -1393.04 0.
-4.33018 -1165.45 0.
97.6391 -929.279 0.
199.609 -693.104 0.
35.7507 -789.632 0.
-10.0648 -895.485 0.
182.72 -898.189 0.
-466.917 -1047.3 0.
-397.978 -889.184 0.
-51.7883 -657.062 0.
-90.345 -744.487 0.
-128.902 -831.912 0.
-202.028 -904.58 0.
-207.489 -915.458 0.
-212.95 -926.336 0.
7.52916 -865.248 0.
-12.8656 -912.977 0.
-33.2603 -960.707 0.
-187.033 -882.117 0.
-100.389 -680.498 0.
-220.569 -584.603 0.
-225.935 -596.571 0.
-231.3 -608.539 0.
-184.095 -610.849 0.
-207.518 -666.389 0.
-230.941 -721.93 0.
-258.772 -810.866 0.
-312.473 -933.696 0.
-366.174 -1056.53 0.
-403.179 -981.703 0.
-325.994 -800.723 0.
-222.989 -608.835 0.
-77.1845 -679.963 0.
-146.881 -843.545 0.
-101.63 -896.538 0.
-26.7161 -722.37 0.
48.1984 -548.201 0.
-213.956 -622.523 0.
-260.193 -730.446 0.
-306.431 -838.369 0.
-603.74 -942.007 0.
-561.873 -846.2 0.
-520.005 -750.393 0.
-261.1 -721.547 0.
-312.394 -842.893 0.
-98.8863 -830.766 0.
-69.4915 -762.053 0.
-40.0969 -693.34 0.
-187.31 -723.65 0.
-193.552 -738.19 0.
-199.794 -752.73 0.
16.7653 -804.627 0.
-113.746 -1111.57 0.
-244.257 -1418.51 0.
-420.335 -1304.48 0.
-257.372 -923.994 0.
-553.523 -742.609 0.
-81.2093 -696.882 0.
-162.674 -888.045 0.
-91.9713 -934.23 0.
10.203 -694.443 0.
112.377 -454.656 0.
-6.91367 -517.096 0.
-143.566 -837.443 0.
-280.219 -1157.79 0.
-28.8543 -1062.57 0.
25.9298 -931.856 0.
80.7138 -801.143 0.
23.5692 -777.814 0.
43.1074 -732.423 0.
306.605 -594.196 0.
284.025 -646.597 0.
261.445 -698.998 0.
84.4217 -825.978 0.
48.3827 -909.733 0.
12.3435 -993.488 0.
-294.429 -1156.51 0.
-299.997 -1170.25 0.
-305.565 -1183.99 0.
55.554 -1047.57 0.
46.9361 -1066.6 0.
-13.3482 -706.972 0.
161.062 -696.036 0.
138.895 -747.305 0.
-124.175 -897.404 0.
-137.445 -929.642 0.
-150.714 -961.88 0.
83.4407 -912.133 0.
41.0455 -1011.42 0.
-1.35002 -1110.71 0.
-63.1514 -1063.05 0.
16.8158 -876.936 0.
96.783 -690.819 0.
44.849 -739.577 0.
20.9346 -797.253 0.
-23.7201 -853.923 0.
-15.2315 -833.418 0.
-6.74285 -812.914 0.
-180.04 -928.67 0.
-262.977 -1122.03 0.
-345.914 -1315.39 0.
-205.426 -1221.46 0.
-103.594 -985.249 0.
-1.76209 -749.035 0.
54.8142 -749.761 0.
9.01844 -855.729 0.
-593.048 -1198.97 0.
-372.255 -974.853 0.
-303.371 -816.414 0.
-192.201 -685.646 0.
-230.333 -773.333 0.
-268.466 -861.019 0.
-81.0121 -821.743 0.
-86.5422 -832.683 0.
-92.0722 -843.622 0.
53.6475 -812.881 0.
33.2529 -860.711 0.
12.8582 -908.54 0.
-269.624 -886.93 0.
-183.272 -684.825 0.
-123.312 -511.302 0.
-128.426 -523.458 0.
-133.539 -535.614 0.
-347.935 -650.104 0.
-371.338 -705.715 0.
-394.741 -761.325 0.
-150.371 -732.724 0.
-203.676 -856.148 0.
-256.98 -979.572 0.
-510.263 -995.523 0.
-432.984 -814.788 0.
-762.736 -808.597 0.
10.7726 -610.947 0.
-58.9481 -774.473 0.
-125.283 -875.543 0.
-50.5894 -701.149 0.
24.1045 -526.755 0.
-62.4501 -526.557 0.
-108.552 -634.589 0.
-154.654 -742.621 0.
-573.575 -898.462 0.
-531.965 -802.538 0.
-490.354 -706.613 0.
-404.291 -750.997 0.
-455.78 -872.273 0.
-138.313 -817.353 0.
-109.183 -748.42 0.
-80.0525 -679.488 0.
-7.10784 -615.559 0.
-13.3693 -629.99 0.
-19.6311 -644.421 0.
-278.366 -900.209 0.
-408.846 -1206.93 0.
-539.328 -1513.65 0.
-268.312 -1207.87 0.
-105.362 -827.361 0.
-273.893 -591.724 0.
-173.986 -705.623 0.
-255.424 -896.828 0.
-68.908 -892.323 0.
33.4332 -652.568 0.
135.774 -412.813 0.
-132.19 -538.632 0.
-268.7 -858.952 0.
-405.211 -1179.27 0.
-17.4854 -1026.37 0.
37.1462 -895.542 0.
91.7775 -764.717 0.
61.3121 -731.029 0.
80.4783 -685.483 0.
242.816 -590.357 0.
220.235 -642.804 0.
197.654 -695.25 0.
62.4259 -803.782 0.
26.1782 -887.304 0.
-10.0696 -970.826 0.
-341.944 -1146.28 0.
-347.36 -1160.12 0.
-352.774 -1173.96 0.
-71.9165 -1070.03 0.
-80.4875 -1088.94 0.
199.664 76.9277 0.
492.632 -189.462 0.
319.225 -592.775 0.
-313.677 -1194.15 0.
105.346 -215.545 0.
36.8804 -374.484 0.
173.046 -560.905 0.
0.543607 -963.103 0.
487.605 173.599 0.
407.671 280.355 0.
212.388 -174.606 0.
105.788 -422.684 0.
292.483 -427.215 0.
95.7302 -886.376 0.
-60.3362 -879.131 0.
303.693 -28.6784 0.
163.482 -354.511 0.
-102.48 -921.716 0.
224.389 -158.405 0.
-129.537 -983.706 0.
-494.215 -1483.06 0.
-92.2368 -546.499 0.
258.085 269.38 0.
166.6 -499.608 0.
144.128 -552.22 0.
226.889 182.277 0.
245.754 317.443 0.
-145.022 -594.506 0.
-272.528 -577.63 0.
-106.509 -189.838 0.
19.2638 104.34 0.
598.46 569.253 0.
522.371 392.233 0.
380.807 62.4823 0.
274.251 -357.393 0.
156.976 -632.562 0.
553.521 291.361 0.
174.678 336.224 0.
-47.0238 -181.878 0.
85.8064 -179.47 0.
21.181 -329.162 0.
226.152 150.152 0.
-52.9328 376.973 0.
-39.9933 407.258 0.
-117.584 226.355 0.
461.215 522.832 0.
175.181 -145.014 0.
72.0218 -386.161 0.
-162.729 48.8273 0.
220.719 943.959 0.
-1052.78 540.555 0.
635.5 715.016 0.
470.648 329.204 0.
196.692 -39.5559 0.
297.938 196.819 0.
518.682 711.724 0.
419.101 336.708 0.
313.864 91.1548 0.
207.137 -157.709 0.
-277.784 -235.109 0.
-213.638 -85.1716 0.
-118.911 136.137 0.
-331.575 -285.961 0.
-267.209 -136.062 0.
-221.768 -906.236 0.
-88.8997 -596.065 0.
28.1242 -322.694 0.
350.645 -92.5806 0.
358.766 -73.7522 0.
617.632 530.21 0.
-297.282 -350.8 0.
-262.473 -270.157 0.
-162.106 -36.9493 0.
363.804 5.73338 0.
587.484 526.547 0.
922.949 220.087 0.
201.11 375.017 0.
-152.815 -450.358 0.
190.4 -298.833 0.
214.718 -243.402 0.
134.602 -431.668 0.
-312.348 -687.822 0.
-361.562 -801.899 0.
-35.6159 -40.0634 0.
415.713 -8.72375 0.
137.2 -657.307 0.
-60.2129 -1116.54 0.
364.499 -66.6047 0.
468.66 180.886 0.
-137.333 -1326.44 0.
241.029 -441.816 0.
225.214 -477.077 0.
77.7706 -696.481 0.
265.339 -259.041 0.
309.767 -156.27 0.
-1.69296 -229.544 0.
293.802 461.714 0.
-401.328 -1159.55 0.
288.322 39.7148 0.
61.1465 -491.263 0.
-71.8856 -1141.99 0.
129.098 -873.999 0.
216.73 -668.425 0.
-129.74 -703.577 0.
-165.653 -787.972 0.
-201.567 -872.366 0.
79.2513 -794.557 0.
73.6624 -804.916 0.
68.0733 -815.274 0.
-163.108 -1026.87 0.
-248.64 -1226.94 0.
-334.172 -1427.01 0.
-65.9863 -1128.36 0.
54.2201 -847.947 0.
167.369 -610.301 0.
92.7644 -785.077 0.
18.1601 -959.853 0.
-196.434 -1133.91 0.
-172.781 -1078.11 0.
-149.129 -1022.31 0.
-344.727 -1114.92 0.
-376.183 -1188.36 0.
-407.638 -1261.81 0.
-297.068 -1170.35 0.
-256.101 -1074.51 0.
529.047 -659.794 0.
-143.709 -861.414 0.
-98.433 -754.324 0.
-260.306 -768.889 0.
-297.382 -854.93 0.
-334.457 -940.971 0.
-62.9913 -835.561 0.
-27.0122 -752.697 0.
8.9668 -669.834 0.
48.5069 -543.063 0.
112.773 -392.812 0.
177.04 -242.562 0.
-227.55 -563.427 0.
-320.5 -781.264 0.
-215.847 -878.51 0.
-138.096 -696.055 0.
-60.3438 -513.6 0.
-390.348 -556.245 0.
-390.04 -555.762 0.
-389.733 -555.278 0.
-172.895 -489.925 0.
-199.203 -550.885 0.
-225.51 -611.844 0.
-287.104 -736.911 0.
-346.226 -875.391 0.
144.801 -779.601 0.
-239.172 -831.723 0.
-179.964 -693.783 0.
-120.998 -587.414 0.
-139.331 -630.047 0.
-157.665 -672.679 0.
-41.8755 -596.575 0.
12.9221 -467.691 0.
67.7197 -338.808 0.
-363.367 -409.577 0.
-300.39 -263.621 0.
-237.413 -117.665 0.
-374.603 -246.329 0.
-423.696 -361.445 0.
6.30252 -283.821 0.
-113.065 -563.279 0.
-232.433 -842.738 0.
82.1799 -865.267 0.
72.8581 -886.821 0.
63.5363 -908.375 0.
-462.37 -1063.28 0.
-390.695 -891.923 0.
-319.021 -720.566 0.
-242.55 -826.917 0.
-356.483 -1093.53 0.
-26.7494 -1168.09 0.
-414.839 -1364.06 0.
-430.677 -1399.94 0.
-264.329 -1338.12 0.
-224.897 -1246.93 0.
-185.464 -1155.73 0.
-395.339 -1137.2 0.
-319.289 -958.703 0.
-243.239 -780.208 0.
108.281 -689.637 0.
26.0929 -883.698 0.
-56.0951 -1077.76 0.
-155.424 -1078.4 0.
-122.296 -999.201 0.
49.1423 -871.409 0.
28.3336 -917.371 0.
7.52501 -963.333 0.
-109.987 -1047.37 0.
-126.389 -1086.04 0.
-142.791 -1124.71 0.
-222.553 -1182.04 0.
-228.661 -1196.49 0.
-234.769 -1210.93 0.
-215.882 -1123.71 0.
-162.932 -1001.39 0.
520.404 -857.346 0.
59.2568 -873.161 0.
146.715 -667.516 0.
-143.668 -677.902 0.
-179.381 -762.549 0.
-215.094 -847.196 0.
100.327 -753.851 0.
95.0086 -764.361 0.
89.6902 -774.871 0.
-158.811 -993.319 0.
-244.252 -1193.33 0.
-329.692 -1393.35 0.
-120.68 -1120.65 0.
-0.333349 -840.37 0.
322.566 -512.12 0.
248.058 -687.098 0.
173.55 -862.076 0.
-184.288 -1096.95 0.
-160.623 -1041.09 0.
-136.958 -985.238 0.
-340.261 -1081.66 0.
-371.456 -1155.27 0.
-402.65 -1228.88 0.
-494.78 -1223.79 0.
-453.855 -1127.74 0.
267.631 -740.234 0.
10.9726 -763.532 0.
56.5484 -656.685 0.
-126.056 -680.195 0.
-163.22 -766.19 0.
-200.384 -852.184 0.
-121.045 -829.257 0.
-85.1766 -746.269 0.
-49.3082 -663.28 0.
-113.502 -580.803 0.
-49.3793 -430.604 0.
14.7436 -280.406 0.
-230.628 -533.871 0.
-323.561 -751.637 0.
-202.675 -840.971 0.
-124.85 -658.563 0.
-47.0262 -476.155 0.
-292.48 -482.965 0.
-291.933 -482.709 0.
-291.386 -482.453 0.
-405.971 -558.125 0.
-432.084 -619.364 0.
-458.197 -680.603 0.
-7.26489 -585.562 0.
-66.1365 -724.323 0.
-109.647 -856.037 0.
-485.73 -905.293 0.
-426.155 -767.849 0.
-207.366 -593.203 0.
-225.611 -636.044 0.
-243.856 -678.885 0.
-101.98 -590.842 0.
-46.8037 -462.229 0.
8.37242 -333.616 0.
-360.986 -377.032 0.
-297.844 -231.235 0.
-234.701 -85.4374 0.
-430.779 -238.494 0.
-479.61 -353.807 0.
-23.7731 -265.58 0.
-143.244 -544.872 0.
-262.714 -824.164 0.
175.284 -794.341 0.
165.807 -815.618 0.
156.33 -836.895 0.
-271.296 -950.385 0.
-199.946 -778.827 0.
-128.595 -607.269 0.
-537.199 -922.892 0.
-651.234 -1189.24 0.
20.0698 -1116.36 0.
-237.574 -1255.72 0.
-253.342 -1291.4 0.
-260.342 -1306.18 0.
-220.823 -1214.78 0.
-181.304 -1123.38 0.
-243.641 -1040.94 0.
-167.157 -862.695 0.
-90.6725 -684.454 0.
106.504 -659.027 0.
24.4397 -853.159 0.
-57.6252 -1047.29 0.
-243.586 -1084.54 0.
-210.3 -1005.38 0.
53.2393 -837.301 0.
32.5002 -883.387 0.
11.7612 -929.473 0.
-139.685 -1029.6 0.
-156.282 -1067.97 0.
-172.88 -1106.34 0.
24.0306 -1044.44 0.
18.0686 -1059.06 0.
12.1069 -1073.69 0.
-205.94 -1089.05 0.
-153.239 -966.509 0.
549.798 -380.713 0.
137.323 -616.056 0.
108.446 -684.368 0.
-170.64 -851.66 0.
-173.057 -857.243 0.
-175.474 -862.827 0.
73.9967 -730.026 0.
106.362 -656.909 0.
138.727 -583.792 0.
-50.1761 -703.949 0.
-97.6274 -813.994 0.
-145.079 -924.038 0.
-76.0863 -948.594 0.
-101.892 -1008.84 0.
133.648 -938.722 0.
202.425 -778.434 0.
271.203 -618.145 0.
-27.0813 -689.162 0.
-77.2738 -807.445 0.
-127.466 -925.728 0.
-373.551 -1044.6 0.
-339.029 -964.424 0.
-304.506 -884.247 0.
-337.846 -840.375 0.
-309.324 -775.19 0.
445.325 -398.253 0.
67.4363 -648.25 0.
19.2291 -758.838 0.
-189.656 -903.263 0.
-151.485 -814.852 0.
-113.314 -726.441 0.
-125.417 -715.469 0.
-152.628 -778.436 0.
-179.839 -841.402 0.
-300.021 -904.265 0.
-293.115 -889.147 0.
-286.208 -874.029 0.
-316.261 -759.65 0.
-243.421 -588.98 0.
-121.117 -435.209 0.
-230.372 -690.899 0.
-339.627 -946.589 0.
-495.763 -1064.89 0.
-358.237 -743.943 0.
-220.71 -422.993 0.
-430.077 -417.368 0.
-450.013 -463.56 0.
-469.95 -509.752 0.
181.638 -232.903 0.
187.214 -219.519 0.
-1198.14 -802.074 0.
-400.631 -513.814 0.
-429.504 -579.652 0.
-194.698 -532.744 0.
-230.412 -616.185 0.
-266.127 -699.627 0.
-192.412 -719.618 0.
-209.92 -760.186 0.
-227.428 -800.754 0.
-534.071 -878.903 0.
-484.186 -761.75 0.
-434.301 -644.598 0.
-615.066 -703.088 0.
-609.297 -687.135 0.
-197.461 -516.687 0.
-286.17 -722.838 0.
-374.878 -928.988 0.
112.118 -806.503 0.
155.045 -706.854 0.
197.973 -607.206 0.
-134.446 -717.574 0.
-141.239 -737.802 0.
-148.032 -758.031 0.
-563.569 -962.86 0.
-577.193 -994.874 0.
409.85 -600.782 0.
-31.4403 -753.525 0.
-10.4558 -707.505 0.
-79.9423 -705.702 0.
-84.8233 -715.868 0.
-89.7043 -726.033 0.
-10.9075 -748.549 0.
-69.6838 -886.015 0.
-128.46 -1023.48 0.
-20.7707 -856.365 0.
100.152 -571.828 0.
221.074 -287.292 0.
-116.13 -634.769 0.
-248.86 -944.744 0.
-78.4759 -1089.96 0.
-65.9565 -1062.06 0.
-53.4371 -1034.15 0.
-203.23 -1097.03 0.
-228.322 -1155.41 0.
-253.414 -1213.79 0.
89.2245 -1043.25 0.
128.758 -950.76 0.
168.292 -858.27 0.
-116.639 -1021.46 0.
-152.142 -1104.43 0.
-40.653 -603.368 0.
161.29 -574.201 0.
132.15 -642.379 0.
-10.3585 -751.792 0.
-12.8329 -757.384 0.
-15.3073 -762.977 0.
0.678826 -730.274 0.
32.805 -656.925 0.
64.9312 -583.577 0.
-60.3757 -677.186 0.
-107.571 -787.442 0.
-154.766 -897.698 0.
-58.1612 -909.292 0.
-83.9544 -969.531 0.
-14.4443 -970.762 0.
54.1868 -810.486 0.
122.818 -650.21 0.
-42.8335 -664.778 0.
-93.1932 -783.012 0.
-143.553 -901.246 0.
-461.371 -1050.09 0.
-426.883 -969.821 0.
-392.395 -889.55 0.
-121.165 -716.146 0.
-92.6827 -650.83 0.
-160.653 -626.092 0.
-29.4632 -658.717 0.
-77.5316 -769.28 0.
-214.756 -881.89 0.
-176.387 -793.626 0.
-138.018 -705.362 0.
-163.576 -701.079 0.
-191.022 -763.898 0.
-218.468 -826.717 0.
-217.87 -837.318 0.
-210.915 -822.311 0.
-203.96 -807.305 0.
-249.592 -699.348 0.
-176.678 -528.616 0.
-331.428 -493.617 0.
-440.683 -749.312 0.
-549.937 -1005.01 0.
-450.749 -1014.56 0.
-313.284 -693.619 0.
-175.819 -372.674 0.
-368.818 -359.468 0.
-388.717 -405.77 0.
-408.617 -452.072 0.
20.3808 -270.566 0.
25.9687 -257.106 0.
-927.169 -654.255 0.
-329.114 -451.292 0.
-358.103 -517.158 0.
-106.492 -464.937 0.
-142.591 -548.044 0.
-178.689 -631.15 0.
-190.926 -687.524 0.
-208.127 -728.079 0.
-225.327 -768.635 0.
-399.617 -789.481 0.
-349.253 -672.492 0.
-298.888 -555.503 0.
-479.023 -613.369 0.
-472.783 -597.64 0.
-303.672 -529.761 0.
-392.284 -735.967 0.
-480.897 -942.173 0.
-92.6773 -863.378 0.
-50.207 -763.402 0.
-7.73648 -663.425 0.
-194.552 -712.197 0.
-202.032 -731.922 0.
-209.511 -751.646 0.
-243.955 -795.029 0.
-257.482 -827.129 0.
18.3911 -737.215 0.
-209.762 -798.113 0.
-189.012 -751.833 0.
-246.54 -746.515 0.
-251.353 -756.643 0.
-256.165 -766.771 0.
130.874 -655.954 0.
72.3391 -793.311 0.
13.8047 -930.668 0.
-98.1362 -858.613 0.
23.0908 -573.879 0.
144.318 -289.147 0.
-154.204 -618.85 0.
-287.249 -928.211 0.
-96.1106 -1066.58 0.
-83.6977 -1038.47 0.
-71.2848 -1010.35 0.
-223.199 -1075.27 0.
-248.268 -1133.65 0.
-273.337 -1192.03 0.
22.8553 -1040.44 0.
62.6946 -948.172 0.
102.534 -855.901 0.
59.4746 -914.814 0.
24.7552 -997.942 0.
-341.125 -632.311 0.
433.201 42.2647 0.
473.21 133.849 0.
774.213 802.779 0.
159.778 -629.5 0.
-34.8375 -1081.87 0.
-198.356 -1025.82 0.
72.8175 -391.914 0.
226.894 -31.3355 0.
28.9569 -420.048 0.
-110.109 -747.199 0.
77.8974 -310.782 0.
299.018 -72.6199 0.
102.877 -530.659 0.
3.73154 -615.679 0.
219.924 -110.684 0.
253.027 -32.7549 0.
129.416 -202.225 0.
18.0599 -463.02 0.
603.71 902.254 0.
-32.1039 152.31 0.
-531.365 -1013.42 0.
-116.655 -46.6414 0.
22.7875 -757.709 0.
-41.121 -908.549 0.
-70.9962 -151.625 0.
43.6996 -275.079 0.
101.729 -139.853 0.
-46.5541 -411.487 0.
-59.3053 -441.308 0.
184.452 127.457 0.
181.198 205.825 0.
258.856 387.853 0.
-50.8734 -333.441 0.
52.7338 -334.104 0.
132.886 -147.446 0.
-36.7394 -543.22 0.
311.957 513.346 0.
197.192 246.655 0.
-478.412 -397.475 0.
-595.208 -671.675 0.
-440.309 -311.95 0.
37.9564 69.0741 0.
-48.3376 -129.881 0.
-79.1549 -199.362 0.
-199.906 -45.9176 0.
-45.0556 314.934 0.
-278.953 -231.325 0.
-146.897 -319.873 0.
-35.0843 -58.462 0.
640.733 424.655 0.
106.198 461.332 0.
113.903 479.367 0.
248.689 225.51 0.
150.6 -2.77474 0.
-44.6042 -457.235 0.
-127.043 -510.045 0.
23.8917 -160.354 0.
331.83 555.768 0.
119.577 199.761 0.
-61.5219 -224.024 0.
-57.5968 -216.246 0.
-569.38 -1054.4 0.
-203.593 -200.734 0.
-171.383 13.2808 0.
-270.4 -216.266 0.
-370.094 -447.343 0.
-31.5165 -299.773 0.
112.612 36.821 0.
246.084 348.724 0.
-20.3201 -157.907 0.
-26.1208 -172.841 0.
20.2818 -65.7416 0.
305.534 -93.1051 0.
53.2744 -680.223 0.
-566.034 -1473.68 0.
-425.681 -932.109 0.
-522.313 -1158.88 0.
-251.378 -407.307 0.
-468.094 -913.584 0.
-519.391 -1033.82 0.
249.139 -617.737 0.
591.013 179.472 0.
246.63 -624.578 0.
-111.587 -710.727 0.
-217.241 -956.222 0.
-180.53 -869.564 0.
-26.2997 -210.398 0.
-100.925 -384.264 0.
90.8679 -563.437 0.
337.41 11.5258 0.
429.607 226.324 0.
78.9449 -308.271 0.
-155.599 -854.449 0.
52.4414 -367.725 0.
313.224 -206.041 0.
72.8988 -767.415 0.
391.407 -24.555 0.
375.256 -490.154 0.
519.631 -149.854 0.
142.522 -816.748 0.
-71.7655 -871.914 0.
-63.8227 -853.535 0.
-60.366 -822.569 0.
-25.0461 -740.38 0.
10.2739 -658.191 0.
-33.0602 -655.206 0.
-49.7174 -693.662 0.
-66.3748 -732.117 0.
48.6792 -648.059 0.
83.7096 -566.787 0.
118.74 -485.515 0.
-172.169 -686.037 0.
-220.148 -799.515 0.
-50.0241 -818.7 0.
-86.3876 -904.536 0.
-122.751 -990.371 0.
-447.491 -1142.52 0.
-391.845 -1013.12 0.
-336.199 -883.722 0.
-307.819 -808.698 0.
-297.003 -783.32 0.
-286.186 -757.941 0.
28.1106 -509.863 0.
104.82 -331.577 0.
156.448 -163.385 0.
-53.318 -406.29 0.
-135.115 -597.589 0.
-105.363 -697.054 0.
-75.978 -627.44 0.
-46.5933 -557.825 0.
-170.567 -519.742 0.
-103.964 -365.853 0.
-37.3603 -211.965 0.
140.645 -121.047 0.
118.898 -171.148 0.
97.1508 -221.249 0.
-197.176 -404.464 0.
-226.691 -473.947 0.
-294.585 -538.113 0.
-221.57 -366.123 0.
-148.554 -194.134 0.
-142.177 -153.462 0.
-230.066 -359.291 0.
-317.955 -565.12 0.
-342.989 -597.867 0.
-291.969 -479.353 0.
-240.948 -360.838 0.
-231.642 -296.559 0.
-206.229 -237.381 0.
-1266.72 -643.332 0.
-111.2 -194.58 0.
-135.183 -251.351 0.
-208.037 -321.009 0.
-210.68 -327.707 0.
-213.322 -334.405 0.
-10.3336 -229.569 0.
14.8631 -169.85 0.
40.0599 -110.131 0.
6.65499 -160.497 0.
-34.292 -254.511 0.
-75.2388 -348.525 0.
-333.233 -536.003 0.
-374.13 -631.762 0.
-451.991 -734.162 0.
-441.014 -710.246 0.
-430.036 -686.331 0.
-197.924 -593.562 0.
-233.406 -676.483 0.
-268.889 -759.404 0.
-267.192 -744.304 0.
-218.152 -632.549 0.
-169.112 -520.795 0.
66.6202 -361.555 0.
89.6641 -307.231 0.
-252.091 -409.1 0.
-274.499 -458.422 0.
-294.952 -507.002 0.
-275.11 -551.244 0.
-324.455 -667.198 0.
-373.8 -783.152 0.
110.903 -654.298 0.
80.8866 -722.698 0.
50.8701 -791.098 0.
-149.848 -879.151 0.
-137.179 -849.884 0.
-124.51 -820.616 0.
-210.513 -867.422 0.
-220.079 -890.665 0.
-238.514 -917.289 0.
-241.375 -923.463 0.
-244.236 -929.637 0.
-255.885 -945.437 0.
-269.758 -976.691 0.
-283.632 -1007.95 0.
78.2684 -877.295 0.
66.4645 -904.379 0.
54.6605 -931.463 0.
-3.45589 -824.22 0.
85.5228 -612.967 0.
-34.0132 -863.65 0.
-196.979 -894.361 0.
-189.249 -875.826 0.
-213.477 -856.963 0.
-178.197 -774.904 0.
-142.917 -692.844 0.
-7.40358 -612.646 0.
-23.8719 -651.298 0.
-40.3405 -689.949 0.
211.541 -546.305 0.
246.587 -465.208 0.
281.632 -384.111 0.
-415.84 -759.095 0.
-463.967 -872.417 0.
11.7387 -761.066 0.
-24.4955 -847.179 0.
-60.7299 -933.291 0.
-646.313 -1195.46 0.
-590.819 -1066.01 0.
-535.325 -936.563 0.
-122.884 -698.052 0.
-111.904 -672.862 0.
-100.924 -647.671 0.
-82.4541 -526.238 0.
-5.65452 -347.95 0.
-477.507 -404.171 0.
-91.736 -391.223 0.
-173.386 -582.636 0.
-9.14555 -624.09 0.
20.1417 -554.456 0.
49.4289 -484.823 0.
-204.42 -502.767 0.
-137.71 -348.872 0.
-70.9994 -194.977 0.
153.457 -84.926 0.
131.577 -134.883 0.
109.697 -184.84 0.
-322.861 -425.931 0.
-352.415 -495.248 0.
24.7836 -370.604 0.
97.8214 -198.576 0.
170.859 -26.5483 0.
-228.201 -158.273 0.
-316.036 -364.129 0.
-403.872 -569.985 0.
-211.058 -509.483 0.
-160.074 -390.891 0.
-109.09 -272.298 0.
-327.175 -306.749 0.
-302.061 -247.333 0.
-2040.12 -943.596 0.
-16.1636 -122.515 0.
-40.1158 -179.361 0.
-467.223 -401 0.
-469.518 -407.956 0.
-471.813 -414.913 0.
3.4979 -192.298 0.
28.9571 -132.807 0.
54.4163 -73.3154 0.
68.5327 -102.146 0.
28.0635 -196.321 0.
-12.4057 -290.497 0.
-301.39 -491.303 0.
-342.064 -587.244 0.
-381.465 -671.338 0.
-370.441 -647.581 0.
-359.416 -623.825 0.
-228.173 -574.706 0.
-263.736 -657.678 0.
-299.298 -740.651 0.
-246.202 -704.139 0.
-197.181 -592.356 0.
-148.159 -480.574 0.
-74.5309 -390.983 0.
-51.2621 -336.588 0.
70.1684 -240.095 0.
-316.911 -445.411 0.
-337.166 -493.993 0.
-210.21 -491.539 0.
-259.18 -607.578 0.
-308.149 -723.618 0.
-27.4123 -680.664 0.
-57.3311 -749.063 0.
-87.2498 -817.463 0.
-87.5538 -821.464 0.
-75.073 -791.794 0.
-62.5922 -762.123 0.
-72.2191 -776.966 0.
-81.5928 -800.328 0.
-445.242 -974.66 0.
-448.116 -980.818 0.
-450.99 -986.975 0.
-313.723 -938.665 0.
-327.901 -969.747 0.
-342.079 -1000.83 0.
159.586 -811.088 0.
147.798 -838.122 0.
136.011 -865.156 0.
-277.17 -911.423 0.
-188.255 -699.939 0.
88.7039 -371.47 0.
-137.446 -554.346 0.
-155.503 -598.172 0.
-153.543 -643.957 0.
-194.733 -740.234 0.
-235.923 -836.51 0.
-89.9371 -771.516 0.
-35.9119 -643.91 0.
18.1131 -516.305 0.
336.923 -272.466 0.
392.365 -142.328 0.
447.806 -12.1904 0.
-389.019 -524.547 0.
-486.657 -751.041 0.
-13.135 -699.427 0.
39.0675 -576.889 0.
91.2696 -454.351 0.
-461.318 -625.032 0.
-458.567 -619.806 0.
-455.815 -614.58 0.
94.7353 -359.683 0.
112.827 -319.437 0.
130.919 -279.192 0.
-141.14 -478.039 0.
-203.469 -621.551 0.
-351.417 -802.305 0.
-196.372 -618.47 0.
-135.325 -472.889 0.
77.9501 -301.622 0.
35.407 -401.241 0.
-7.13612 -500.861 0.
-305.711 -664.487 0.
-290.407 -628.159 0.
-275.103 -591.831 0.
33.1877 -357.829 0.
107.881 -184.463 0.
182.574 -11.0966 0.
-315.15 -380.348 0.
-417.401 -619.313 0.
-49.3175 -623.193 0.
14.2941 -475.635 0.
77.906 -328.077 0.
-315.377 -427.247 0.
-333.397 -468.521 0.
-351.417 -509.795 0.
-251.623 -503.245 0.
-272.662 -551.702 0.
-293.702 -600.159 0.
-407.332 -561.217 0.
-342.572 -410.493 0.
-1287.51 -693.104 0.
-38.7895 -230.118 0.
-76.4829 -318.246 0.
-532.129 -544.391 0.
-470.408 -400.35 0.
-408.687 -256.31 0.
-45.4458 -107.254 0.
-129.741 -305.1 0.
-214.036 -502.945 0.
-123.707 -542.051 0.
-143.899 -589.578 0.
-164.09 -637.104 0.
-290.609 -548.741 0.
-204.838 -346.318 0.
-152.757 -171.633 0.
-133.868 -125.293 0.
-114.978 -78.9533 0.
1.36528 -39.4024 0.
-45.8749 -150.739 0.
-93.1148 -262.076 0.
-53.8987 -295.454 0.
-67.3998 -326.325 0.
-80.9008 -357.196 0.
-219.774 -477.654 0.
-253.961 -555.082 0.
359.184 -348.076 0.
-362.52 -519.105 0.
-290.945 -349.585 0.
-95.367 -205.733 0.
-199.38 -446.23 0.
-303.393 -686.725 0.
-106.667 -637.15 0.
-22.6572 -441.497 0.
61.3529 -245.844 0.
123.175 -249.852 0.
54.1417 -409.241 0.
-14.8915 -568.63 0.
29.471 -505.341 0.
64.9062 -421.259 0.
-265.705 -504.588 0.
-282.545 -542.426 0.
-299.384 -580.264 0.
-178.102 -532.127 0.
-148.078 -463.464 0.
-118.054 -394.802 0.
378.698 -239.3 0.
300.838 -420.302 0.
222.979 -601.303 0.
-396.354 -1039.79 0.
-489.904 -1260.86 0.
-798.207 -720.358 0.
-185.48 -544.451 0.
-203.779 -587.859 0.
-39.4483 -563.287 0.
-80.6427 -659.612 0.
-121.837 -755.937 0.
-120.401 -752.599 0.
-66.3775 -625.095 0.
-12.3542 -497.59 0.
218.437 -292.597 0.
273.769 -162.328 0.
329.1 -32.0597 0.
-291.778 -451.426 0.
-389.194 -678.253 0.
-175.595 -738.376 0.
-123.465 -615.774 0.
-71.3359 -493.171 0.
-368.63 -553.627 0.
-365.75 -548.457 0.
-362.869 -543.287 0.
112.982 -320.788 0.
131.151 -280.652 0.
149.319 -240.517 0.
-184.841 -466.25 0.
-247.129 -609.658 0.
-347.003 -769.175 0.
-140.797 -562.401 0.
-79.598 -416.986 0.
-116.199 -354.223 0.
-158.995 -453.529 0.
-201.79 -552.835 0.
-314.046 -636.985 0.
-298.584 -600.734 0.
-283.122 -564.482 0.
45.1247 -321.48 0.
119.767 -148.03 0.
194.41 25.4195 0.
-177.793 -289.965 0.
-279.934 -529.283 0.
-261.311 -682.401 0.
-197.738 -534.726 0.
-134.165 -387.051 0.
-126.063 -314.324 0.
-144.203 -355.594 0.
-162.344 -396.864 0.
-467.262 -564.446 0.
-488.161 -613.075 0.
-509.059 -661.703 0.
-218.053 -448.825 0.
-153.323 -298.096 0.
-1642.32 -814.071 0.
-40.0443 -199.153 0.
-77.72 -287.079 0.
-242.235 -388.112 0.
-180.242 -244.129 0.
-118.248 -100.146 0.
-239.269 -159.12 0.
-323.66 -356.703 0.
-408.05 -554.287 0.
-159.034 -525.466 0.
-179.255 -572.784 0.
-199.476 -620.101 0.
-200.067 -479.563 0.
-114.398 -277.077 0.
-162.037 -143.998 0.
-143.095 -97.9958 0.
-124.154 -51.9942 0.
76.3637 25.2704 0.
29.3893 -86.5054 0.
-17.5848 -198.282 0.
-0.872306 -241.568 0.
-14.0281 -272.69 0.
-27.1838 -303.811 0.
-303.314 -480.917 0.
-337.237 -558.419 0.
70.8045 -441.255 0.
-329.473 -474.373 0.
-257.95 -304.652 0.
-148.014 -196.232 0.
-251.953 -436.708 0.
-355.892 -677.185 0.
-173.36 -634.772 0.
-89.2443 -439.068 0.
-5.12888 -243.365 0.
0.313682 -271.617 0.
-68.7129 -431.227 0.
-137.739 -590.836 0.
-124.2 -539.464 0.
-88.5228 -455.737 0.
-73.5757 -390.583 0.
-90.4578 -428.468 0.
-107.34 -466.353 0.
-177.3 -500.494 0.
-147.419 -431.671 0.
-117.538 -362.847 0.
268.119 -254.969 0.
190.19 -435.819 0.
112.262 -616.669 0.
-246.697 -944.318 0.
-340.49 -1164.98 0.
-195.77 -743.962 0.
-198.031 -443.94 0.
-213.566 -480.206 0.
35.2064 -571.36 0.
61.0119 -510.165 0.
17.2998 -611.757 0.
-113.031 -650.174 0.
88.7618 -178.401 0.
107.397 -133.983 0.
211.566 -54.4371 0.
227.871 -18.8261 0.
77.7908 -371.322 0.
-238.127 -478.905 0.
-475.127 -1030.87 0.
-186.403 -426.256 0.
-153.778 -347.542 0.
-21.6678 -36.7478 0.
-109.444 -93.7839 0.
23.6281 214.932 0.
-102.738 -81.3139 0.
89.0275 -383.813 0.
-310.463 -1316.07 0.
216.529 -87.2765 0.
-16.0344 37.8239 0.
-90.4244 -134.999 0.
-159.942 -127.193 0.
260.892 298.909 0.
195.763 145.947 0.
-9.33797 293.156 0.
-13.6115 283.756 0.
-119.202 38.3549 0.
-75.8621 -33.3166 0.
12.0414 170.499 0.
148.889 488.565 0.
331.675 349.557 0.
181.242 -0.495726 0.
84.8207 -224.316 0.
-86.0831 -302.183 0.
-23.8266 -157.474 0.
-368.66 -498.432 0.
-365.618 -490.45 0.
-381.983 -527.673 0.
-108.785 -599.115 0.
-128.365 -643.278 0.
98.2161 -113.108 0.
-375.607 91.3499 0.
-482.875 -159.39 0.
-456.708 -98.7658 0.
335.535 510.625 0.
432.83 738.043 0.
-786.658 -129.198 0.
63.6646 85.5656 0.
91.7622 151.517 0.
231.75 194.698 0.
145.906 -6.08865 0.
227.998 184.97 0.
-245.652 222.838 0.
-302.556 90.751 0.
-549.897 -485.583 0.
-96.5415 -281.61 0.
-44.2449 -159.655 0.
59.5327 82.4333 0.
95.1415 71.6612 0.
-3.62777 -160.307 0.
-185.342 -147.491 0.
-79.3497 100.672 0.
-11.9053 258.999 0.
339.513 524.4 0.
104.046 -26.9649 0.
13.7903 -239.309 0.
92.4965 -96.0578 0.
198.771 151.757 0.
256.801 286.889 0.
-12.6179 390.402 0.
-237.94 -136.435 0.
284.702 540.132 0.
35.6124 343.694 0.
-263.107 -350.799 0.
-429.405 -715.33 0.
-150.44 -64.819 0.
-175.982 -124.418 0.
10.0165 -53.8517 0.
-94.4049 -295.951 0.
-385.668 -974.511 0.
-123.367 -291.885 0.
30.232 65.8726 0.
31.6296 68.3699 0.
39.876 167.363 0.
105.314 320.027 0.
392.085 363.918 0.
168.876 -157.139 0.
419.248 427.007 0.
11.7256 -29.6357 0.
-341.432 -855.177 0.
-167.042 -449.679 0.
435.92 380.425 0.
381.822 254.381 0.
304.425 72.8857 0.
144.136 -289.29 0.
194.935 -171.617 0.
-298.101 -545.719 0.
-293.392 -585.292 0.
-325.96 -659.943 0.
-114.354 -608.214 0.
-96.9264 -567.332 0.
-79.499 -526.45 0.
56.9087 -423.094 0.
88.3079 -350.926 0.
119.707 -278.759 0.
-36.8906 -383.057 0.
-80.5103 -486.398 0.
-124.13 -589.739 0.
-509.241 -790.514 0.
-524.497 -825.381 0.
-164.315 -684.306 0.
-110.541 -557.994 0.
-56.7667 -431.682 0.
-321.703 -478.107 0.
-324.014 -484.062 0.
-326.325 -490.018 0.
6.48878 -290.604 0.
60.5582 -161.579 0.
114.627 -32.5543 0.
-154.237 -169.387 0.
-183.631 -238.85 0.
-493.352 -429.22 0.
-85.6857 -318.04 0.
-117.504 -395.974 0.
-243.365 -487.193 0.
-210.004 -410.682 0.
-176.643 -334.172 0.
-214.284 -353.29 0.
-258.517 -458.347 0.
-302.75 -563.405 0.
-51.5183 -409.505 0.
7.986 -271.45 0.
67.4904 -133.394 0.
19.8475 -100.745 0.
45.0786 -42.4512 0.
-122.601 -76.062 0.
-140.016 -116.631 0.
-157.431 -157.201 0.
109.721 -42.0533 0.
145.166 40.8724 0.
180.612 123.798 0.
-452.14 -165.128 0.
-496.546 -268.281 0.
-540.951 -371.433 0.
40.3026 -85.0885 0.
77.8713 3.18234 0.
439.862 231.755 0.
-34.1067 20.6934 0.
-38.3501 10.9812 0.
85.743 51.3273 0.
66.5353 7.367 0.
47.3275 -36.5933 0.
-132.696 -85.1114 0.
-74.1766 52.2163 0.
-15.6576 189.544 0.
-68.5097 55.9204 0.
-185.764 -217.021 0.
-303.017 -489.962 0.
-62.3527 -363.125 0.
-33.8644 -298.892 0.
-136.096 -306.421 0.
-181.145 -411.063 0.
-226.193 -515.703 0.
-301.516 -542.722 0.
-206.089 -320.777 0.
-110.662 -98.8328 0.
-26.7419 -115.998 0.
-149.844 -402.794 0.
-272.947 -689.59 0.
-278.096 -519.771 0.
-128.324 -172.973 0.
-143.988 97.2782 0.
-323.686 -232.187 0.
-454.676 -540.419 0.
-405.72 -684.937 0.
-350.652 -557.245 0.
-295.585 -429.554 0.
-164.002 -327.785 0.
-174.634 -350.799 0.
-185.266 -373.813 0.
-72.2688 -393.229 0.
-121.286 -506.455 0.
-170.304 -619.68 0.
-351.691 -716.646 0.
-357.727 -730.707 0.
4.78329 -575.407 0.
54.2256 -462.475 0.
103.667 -349.543 0.
-193.873 -437.185 0.
-228.942 -519.156 0.
-264.01 -601.126 0.
40.4529 -453.892 0.
87.1661 -346.705 0.
133.879 -239.518 0.
130.058 -256.664 0.
106.35 -314.24 0.
-356.934 -540.289 0.
-320.532 -565.374 0.
-352.987 -640.134 0.
-264.744 -641.341 0.
-247.434 -600.349 0.
-230.123 -559.356 0.
165.187 -345.123 0.
196.817 -273.196 0.
228.447 -201.269 0.
-151.787 -401.714 0.
-195.584 -504.855 0.
-239.381 -607.995 0.
-665.501 -825.37 0.
-680.477 -860.625 0.
20.7527 -573.655 0.
74.6044 -447.403 0.
128.456 -321.151 0.
-366.164 -465.929 0.
-368.474 -471.831 0.
-370.784 -477.733 0.
-131.925 -318.398 0.
-77.6072 -189.579 0.
-23.2893 -60.7596 0.
-199.15 -157.832 0.
-228.343 -227.395 0.
217.288 -94.0322 0.
-170.92 -322.824 0.
-202.707 -400.565 0.
-98.3991 -394.232 0.
-65.2198 -317.481 0.
-32.0402 -240.73 0.
-201.534 -316.919 0.
-245.562 -422.171 0.
-289.59 -527.424 0.
-103.982 -400.043 0.
-44.1023 -262.483 0.
15.7781 -124.924 0.
57.6249 -52.7703 0.
82.7755 5.36316 0.
-22.8214 -1.26246 0.
-40.1076 -41.8884 0.
-57.3935 -82.5147 0.
102.086 -14.4046 0.
137.354 68.6173 0.
172.621 151.639 0.
-391.795 -107.455 0.
-436.076 -210.864 0.
-480.357 -314.273 0.
11.2873 -65.7518 0.
48.907 22.3714 0.
174.798 150.264 0.
-108.389 21.0433 0.
-112.694 11.4889 0.
-3.58617 43.5134 0.
-22.8169 -0.358906 0.
-42.0478 -44.2312 0.
188.054 83.6116 0.
246.757 221.018 0.
305.46 358.424 0.
-197.041 32.5352 0.
-314.355 -240.402 0.
-431.669 -513.339 0.
-11.4637 -309.983 0.
16.754 -245.378 0.
25.5634 -205.269 0.
-19.6079 -309.9 0.
-64.779 -414.531 0.
-515.429 -603.752 0.
-420.103 -381.845 0.
-324.778 -159.938 0.
-148.636 -136.687 0.
-271.527 -423.592 0.
-394.419 -710.496 0.
-109.104 -416.12 0.
40.544 -69.1349 0.
-140.973 129.712 0.
-443.92 -251.496 0.
-574.882 -559.553 0.
-375.304 -641.739 0.
-320.391 -513.671 0.
-265.478 -385.603 0.
-214.735 -318.641 0.
-225.182 -341.706 0.
-235.629 -364.772 0.
61.0191 -305.119 0.
11.948 -418.32 0.
-37.1232 -531.521 0.
-349.262 -683.349 0.
-355.364 -697.385 0.
40.4766 -528.788 0.
89.3581 -415.467 0.
138.239 -302.146 0.
-214.206 -416.086 0.
-249.723 -497.804 0.
-285.241 -579.522 0.
8.96595 -435.479 0.
55.6549 -328.251 0.
102.344 -221.023 0.
114.621 -232.749 0.
90.9899 -289.999 0.
924.364 291.943 0.
-141.469 -54.7259 0.
-87.0052 71.6615 0.
-19.5079 141.935 0.
-108.203 -64.4208 0.
-196.898 -270.777 0.
156.714 -270.802 0.
90.0454 -424.602 0.
23.3765 -578.402 0.
-275.144 -650.982 0.
-199.939 -475.714 0.
-124.734 -300.445 0.
-533.331 -387.415 0.
-490.687 -287.336 0.
237.517 75.3103 0.
141.335 -149.006 0.
45.153 -373.323 0.
-418.451 -640.429 0.
-336.182 -445.905 0.
-253.914 -251.382 0.
-187.147 -184.691 0.
-217.982 -257.351 0.
-248.818 -330.011 0.
-287.563 -345.812 0.
-278.797 -324.166 0.
414.457 -9.11488 0.
-168.069 -227.119 0.
-151.648 -187.166 0.
26.9106 -99.376 0.
-12.665 -191.758 0.
-52.2407 -284.139 0.
-249.097 -392.816 0.
-225.417 -336.937 0.
-201.737 -281.058 0.
-94.4811 -246.716 0.
-115.14 -294.829 0.
-135.799 -342.943 0.
16.654 -284.255 0.
15.9842 -285.149 0.
-100.656 -330.314 0.
-70.1302 -258.613 0.
-39.6047 -186.911 0.
-28.3383 -132.925 0.
-14.8648 -100.492 0.
-1.39146 -68.0601 0.
-408.933 -264.749 0.
-438.473 -333.479 0.
-468.013 -402.209 0.
8.14825 -320.462 0.
-65.9307 -493.252 0.
-469.142 -806.674 0.
-424.431 -601.107 0.
-326.445 -372.846 0.
-102.913 -140.15 0.
-117.771 -174.491 0.
-132.63 -208.833 0.
189.126 -64.8806 0.
213.218 -8.95793 0.
237.31 46.9648 0.
-218.841 -99.4738 0.
-190.519 -34.2942 0.
-162.197 30.8854 0.
57.4755 71.3193 0.
23.1657 -9.96771 0.
132.76 -17.6375 0.
147.013 15.0574 0.
161.265 47.7522 0.
-314.92 -138.377 0.
-311.922 -131.177 0.
-308.924 -123.977 0.
-190.04 -45.639 0.
-166.594 10.1055 0.
-143.148 65.8498 0.
44.8807 -11.169 0.
-67.7231 -272.023 0.
-524.686 -675.706 0.
-471.259 -338.555 0.
-306.75 46.8224 0.
127.625 437.63 0.
45.4952 246.64 0.
-36.6349 55.6497 0.
-239.373 -120.645 0.
-247.879 -140.862 0.
-256.386 -161.079 0.
173.503 -52.2686 0.
117.134 -183.536 0.
60.7645 -314.804 0.
-345.236 -562.875 0.
-380.305 -643.99 0.
11.3666 -521.118 0.
77.3562 -366.875 0.
143.346 -212.633 0.
-136.731 -216.542 0.
-84.0551 -95.921 0.
-31.3785 24.7003 0.
96.9421 -0.402853 0.
-20.5677 -273.927 0.
-138.077 -547.451 0.
115.311 -308.373 0.
238.988 -19.4492 0.
64.1203 -47.7162 0.
-189.943 -44.9044 0.
-135.495 81.4327 0.
-57.501 157.118 0.
-146.046 -49.323 0.
-234.59 -255.764 0.
-24.9725 -316.867 0.
-91.3516 -470.867 0.
-157.731 -624.866 0.
-161.736 -570.579 0.
-86.3893 -395.241 0.
-11.0424 -219.903 0.
-474.841 -330.762 0.
-431.882 -230.81 0.
-77.4334 -28.7938 0.
-173.525 -253.124 0.
-269.616 -477.454 0.
-287.302 -551.702 0.
-204.897 -357.458 0.
-122.491 -163.213 0.
-285.538 -195.631 0.
-316.534 -268.172 0.
-347.53 -340.713 0.
-230.199 -290.267 0.
-221.309 -268.741 0.
162.429 -86.1982 0.
-140.106 -183.362 0.
-123.94 -143.122 0.
-97.1665 -121.84 0.
-136.754 -214.085 0.
-176.341 -306.331 0.
-265.036 -367.297 0.
-241.072 -311.676 0.
-217.107 -256.054 0.
-145.877 -237.843 0.
-166.402 -286.042 0.
-186.927 -334.241 0.
157.492 -192.491 0.
157.083 -193.647 0.
-15.6209 -261.792 0.
15.054 -190.136 0.
45.729 -118.48 0.
-185.138 -169.152 0.
-171.556 -136.807 0.
-157.975 -104.462 0.
-313.524 -192.173 0.
-342.941 -261.059 0.
-372.359 -329.946 0.
333.022 -149.413 0.
259.165 -322.426 0.
-250.014 -680.562 0.
-435.415 -574.116 0.
-337.394 -345.863 0.
-31.4111 -78.4936 0.
-46.2974 -112.729 0.
-61.1838 -146.964 0.
52.5542 -91.6363 0.
76.9428 -35.8876 0.
101.331 19.8612 0.
40.2715 43.0125 0.
68.4919 108.308 0.
96.7123 173.603 0.
-199.739 -6.86274 0.
-234.091 -88.1594 0.
69.5049 -13.691 0.
83.7278 18.887 0.
97.9505 51.465 0.
-52.2358 6.07597 0.
-49.1224 12.9641 0.
-46.0089 19.8524 0.
-232.371 -32.0447 0.
-208.877 23.4522 0.
-185.384 78.9491 0.
-150.278 -62.5309 0.
-262.481 -323.896 0.
232.948 -319.495 0.
-281.191 -225.809 0.
-116.466 159.354 0.
221.985 509.811 0.
140.082 318.756 0.
58.1798 127.7 0.
-431.194 -171.584 0.
-439.614 -191.847 0.
-448.034 -212.11 0.
82.7796 -60.0363 0.
26.3721 -191.219 0.
-30.0354 -322.402 0.
-432.82 -568.554 0.
-467.671 -649.892 0.
-71.7824 -524.614 0.
-5.34765 -370.784 0.
61.0876 -216.954 0.
-97.2675 -168.071 0.
-44.4694 -47.4299 0.
8.32888 73.2117 0.
-82.1215 -45.5446 0.
-199.377 -319.125 0.
-316.632 -592.705 0.
245.121 -220.419 0.
368.75 68.9846 0.
-360.692 75.3693 0.
-421.937 -453.044 0.
-339.296 -261.16 0.
-55.0026 268.198 0.
63.2998 543.658 0.
72.4548 564.526 0.
-109.812 -140.637 0.
-154.066 -241.706 0.
-147.373 -224.78 0.
125.468 -83.3736 0.
49.1146 -259.489 0.
-79.89 -558.639 0.
-485.917 -441.139 0.
-337.599 -93.2384 0.
-330.433 6.52231 0.
-167.444 387.98 0.
-255.811 183.15 0.
-238.619 -659.263 0.
-263.96 -717.85 0.
-220.406 -616.202 0.
-249.569 108.355 0.
-344.26 -112.678 0.
-537.099 -562.941 0.
46.1556 273.599 0.
-69.5017 3.28411 0.
302.624 80.4627 0.
134.568 434.276 0.
-287.122 -547.879 0.
-241.45 -189.947 0.
33.9592 452.456 0.
-84.8034 175.222 0.
9.1423 333.122 0.
163.154 691.793 0.
73.2108 481.338 0.
168.421 622.178 0.
-90.3045 18.5014 0.
-330.239 -541.57 0.
298.576 -97.825 0.
312.38 -67.0323 0.
94.3737 -129.021 0.
21.9542 -299.951 0.
-80.446 -540.847 0.
-529.624 -643.394 0.
-180.653 168.406 0.
-26.0041 527.033 0.
-79.2668 204.602 0.
-261.26 -219.833 0.
-413.86 -575.524 0.
580.208 -157.533 0.
551.81 -225.149 0.
-301.983 466.644 0.
-42.2635 395.384 0.
-258.528 -110.451 0.
83.6533 87.8774 0.
35.0793 -25.1583 0.
-15.0008 -141.794 0.
-64.1632 -72.2466 0.
329.07 844.08 0.
441.629 1105.51 0.
279.051 140.216 0.
-230.094 -1047.27 0.
-58.558 -646.53 0.
-721.261 -699.333 0.
-473.977 -119.857 0.
326.274 734.618 0.
153.704 332.579 0.
32.0197 49.5974 0.
149.098 6.08906 0.
301.792 362.901 0.
248.055 238.206 0.
-333.817 -161.857 0.
-545.789 -657.907 0.
-681.347 -975.186 0.
-279.095 44.684 0.
-139.105 370.025 0.
-412.68 135.129 0.
159.769 468.077 0.
-358.672 -738.463 0.
-196.443 -622.83 0.
558.67 1141.75 0.
-90.14 -369.622 0.
-656.249 -300.89 0.
-500.679 61.3625 0.
-640.672 -266.074 0.
-134.971 -362.79 0.
8.96871 -27.7893 0.
346.702 759.366 0.
-255.544 42.2965 0.
-453.652 -420.772 0.
-265.8 -785.601 0.
-150.745 -515.986 0.
-108.156 -415.832 0.
-3.04822 2.57437 0.
10.2992 34.3717 0.
-14.1973 -21.5693 0.
-446.816 -519.791 0.
-394.116 -396.094 0.
-328.406 -242.26 0.
553.104 273.207 0.
482.721 109.397 0.
324.232 439.679 0.
-115.792 97.7268 0.
-187.644 -70.0176 0.
-155.193 -116.041 0.
-45.0624 140.997 0.
65.068 398.036 0.
4.51621 406.064 0.
-92.453 179.854 0.
-189.422 -46.3554 0.
-157.043 -89.667 0.
-155.483 -84.1678 0.
-153.923 -78.6691 0.
-336.877 -82.3401 0.
-293.498 21.4362 0.
-263.157 101.703 0.
-320.078 -30.2414 0.
-376.998 -162.186 0.
-232.89 -126.081 0.
-162.755 38.706 0.
-92.6196 203.493 0.
-16.3412 279.149 0.
-30.9903 244.575 0.
-45.6394 210.002 0.
-17.8775 182.318 0.
-41.3654 128.538 0.
349.618 250.88 0.
-213.073 -18.9399 0.
-229.133 -56.6377 0.
-135.828 -69.1677 0.
-204.599 -229.216 0.
-273.371 -389.265 0.
-172.659 -363.551 0.
-110.966 -218.203 0.
-49.2735 -72.8549 0.
-291.352 -209.335 0.
-348.541 -342.82 0.
-405.729 -476.305 0.
183.206 -266.189 0.
165.061 -308.299 0.
-167.437 -448.239 0.
-5.39147 -71.2072 0.
156.654 305.825 0.
87.3939 431.092 0.
10.9066 249.795 0.
-65.5813 68.4964 0.
-99.8371 -23.9152 0.
-109.996 -48.7854 0.
-120.155 -73.6553 0.
364.38 87.8882 0.
337.539 24.5961 0.
-1333.61 -742.681 0.
269.074 88.8379 0.
344.589 265.324 0.
126.386 281.693 0.
112.269 248.262 0.
98.1516 214.832 0.
22.7254 122.975 0.
-26.5721 9.48591 0.
-75.8693 -104.003 0.
259.192 43 0.
283.144 99.139 0.
307.097 155.278 0.
-226.904 -4.8955 0.
-188.354 87.4082 0.
6.36668 247.592 0.
33.6994 314.23 0.
61.0321 380.868 0.
156.877 392.209 0.
56.7608 160.263 0.
-43.3555 -71.6829 0.
-351.827 -260.844 0.
-328.763 -208.69 0.
-305.699 -156.535 0.
-76.7782 19.8701 0.
-30.8954 128.539 0.
-28.4953 218.171 0.
-218.771 -111.306 0.
-348.496 -413.144 0.
-425.859 -606.067 0.
-360.158 -452.612 0.
-294.456 -299.156 0.
-307.965 -197.36 0.
-259.687 -84.0011 0.
-211.41 29.3579 0.
-214.757 37.5789 0.
-230.795 0.145135 0.
-246.833 -37.2889 0.
-402.159 -31.1754 0.
-360.66 66.3239 0.
70.0461 301.542 0.
-12.7337 110.384 0.
-95.5137 -80.7734 0.
-182.857 -183.92 0.
-120.372 -36.0694 0.
-57.8882 111.781 0.
43.3179 179.284 0.
14.1641 111.88 0.
-14.9903 44.4759 0.
322.139 190.272 0.
329.831 210.794 0.
211.378 422.077 0.
-8.12466 175.41 0.
-79.9817 7.56312 0.
-60.3992 -44.1173 0.
49.8485 213.087 0.
160.096 470.292 0.
-121.692 383.367 0.
-218.528 157.156 0.
-315.365 -69.0542 0.
-489.789 -200.978 0.
-488.201 -195.367 0.
-486.614 -189.756 0.
-327.007 -46.9528 0.
-283.759 56.9676 0.
-208.566 156.499 0.
-265.584 24.3786 0.
-322.603 -107.741 0.
-494.045 -206.305 0.
-424.055 -41.2953 0.
-354.064 123.714 0.
199.487 402.776 0.
184.607 368.39 0.
169.726 334.005 0.
-33.9104 206.086 0.
-57.449 152.523 0.
1425.78 743.102 0.
-386.293 -60.4111 0.
-402.798 -97.5028 0.
-47.8503 -2.00759 0.
-117.324 -161.373 0.
-186.797 -320.738 0.
-13.842 -265.127 0.
48.0132 -119.947 0.
109.869 25.2333 0.
-404.682 -226.102 0.
-461.651 -360.025 0.
-518.62 -493.948 0.
143.366 -250.477 0.
125.523 -292.604 0.
-308.329 -477.81 0.
-146.215 -100.508 0.
15.8991 276.794 0.
299.595 553.848 0.
223.086 372.664 0.
146.576 191.48 0.
12.0934 54.8246 0.
1.80749 30.4025 0.
-8.47801 5.98072 0.
-12.0731 -42.1065 0.
-38.7084 -105.38 0.
890.067 242.36 0.
828.541 360.617 0.
904.106 537.293 0.
93.2509 298.568 0.
79.3301 265.21 0.
65.4094 231.853 0.
41.0891 161.848 0.
-8.09685 48.5957 0.
-57.2825 -64.6564 0.
302.061 92.0414 0.
325.898 148.356 0.
349.735 204.672 0.
35.4458 140.202 0.
74.249 232.105 0.
-112.265 229.235 0.
-85.0111 295.74 0.
-57.7572 362.246 0.
-27.7715 343.981 0.
-128.168 111.862 0.
-228.565 -120.257 0.
-299.759 -207.113 0.
-276.884 -155.328 0.
-254.009 -103.543 0.
204.893 173.624 0.
250.655 282.42 0.
-321.637 124.815 0.
-366.225 -144.355 0.
-495.926 -446.479 0.
-697.924 -690.918 0.
-631.769 -537.787 0.
-565.614 -384.655 0.
86.0645 3.65174 0.
134.061 117.35 0.
182.055 231.048 0.
-513.814 -60.387 0.
-530.059 -97.6151 0.
-546.305 -134.843 0.
-525.673 -51.8169 0.
-484.378 45.8312 0.
-76.2639 270.2 0.
-159.012 79.1337 0.
-241.761 -111.933 0.
-291.786 -200.045 0.
-229.159 -52.2931 0.
-166.531 95.4586 0.
294.224 319.396 0.
265.124 252.232 0.
236.023 185.068 0.
102.41 125.99 0.
109.406 147.929 0.
