# vtk DataFile Version 2.0
test grain
ASCII
DATASET UNSTRUCTURED_GRID
POINTS 5000 float
0.499922 0.00100022 0.
0.501924 0.00100025 0.
0.503926 0.00100027 0.
0.505927 0.00100027 0.
0.507929 0.00100017 0.
0.50993 0.00100007 0.
0.511931 0.00100001 0.
0.513933 0.00100001 0.
0.515935 0.001 0.
0.517937 0.001 0.
0.519938 0.001 0.
0.521939 0.00100001 0.
0.523941 0.001 0.
0.525943 0.001 0.
0.527945 0.001 0.
0.529947 0.00100003 0.
0.531948 0.00100005 0.
0.53395 0.00100006 0.
0.535951 0.00100003 0.
0.537953 0.00100001 0.
0.539955 0.001 0.
0.541956 0.001 0.
0.543958 0.001 0.
0.545959 0.001 0.
0.547961 0.001 0.
0.549962 0.001 0.
0.551963 0.001 0.
0.553965 0.00100001 0.
0.555966 0.00100001 0.
0.557967 0.00100001 0.
0.559969 0.00100001 0.
0.56197 0.00100001 0.
0.563972 0.00100001 0.
0.565973 0.00100001 0.
0.567974 0.00100001 0.
0.569976 0.001 0.
0.571977 0.000999997 0.
0.573978 0.000999998 0.
0.575979 0.000999998 0.
0.57798 0.000999998 0.
0.579982 0.001 0.
0.581983 0.001 0.
0.583985 0.001 0.
0.585987 0.001 0.
0.587988 0.001 0.
0.589989 0.001 0.
0.591989 0.001 0.
0.593989 0.001 0.
0.595992 0.001 0.
0.597996 0.001 0.
0.6 0.00100001 0.
0.602006 0.00100001 0.
0.604011 0.001 0.
0.606015 0.001 0.
0.608016 0.001 0.
0.610017 0.001 0.
0.612018 0.00100001 0.
0.614019 0.00100001 0.
0.61602 0.00100001 0.
0.618021 0.00100001 0.
0.620022 0.00100001 0.
0.622023 0.001 0.
0.624025 0.001 0.
0.626027 0.001 0.
0.628029 0.001 0.
0.63003 0.001 0.
0.632031 0.001 0.
0.634032 0.001 0.
0.636034 0.001 0.
0.638037 0.001 0.
0.640038 0.001 0.
0.642039 0.001 0.
0.64404 0.00100001 0.
0.646041 0.00100001 0.
0.648042 0.00100002 0.
0.650043 0.00100003 0.
0.652044 0.00100002 0.
0.654046 0.00100001 0.
0.656047 0.001 0.
0.658048 0.001 0.
0.66005 0.001 0.
0.662052 0.001 0.
0.664053 0.001 0.
0.666055 0.001 0.
0.668057 0.00100001 0.
0.670058 0.001 0.
0.67206 0.000999998 0.
0.674061 0.00100001 0.
0.676062 0.00100003 0.
0.678063 0.00100004 0.
0.680064 0.00100004 0.
0.682066 0.00100004 0.
0.684068 0.00100005 0.
0.686069 0.00100006 0.
0.688071 0.00100008 0.
0.690072 0.00100012 0.
0.692073 0.00100018 0.
0.694074 0.00100024 0.
0.696075 0.00100042 0.
0.698076 0.00100063 0.
0.499923 0.00300066 0.
0.501925 0.00300076 0.
0.503926 0.00300082 0.
0.505927 0.00300081 0.
0.507929 0.00300052 0.
0.50993 0.00300022 0.
0.511932 0.00300004 0.
0.513933 0.00300002 0.
0.515935 0.003 0.
0.517937 0.003 0.
0.519938 0.00300001 0.
0.521939 0.00300002 0.
0.523941 0.00300001 0.
0.525942 0.003 0.
0.527944 0.003 0.
0.529946 0.00300007 0.
0.531947 0.00300015 0.
0.533949 0.00300018 0.
0.535951 0.0030001 0.
0.537953 0.00300003 0.
0.539955 0.003 0.
0.541957 0.00300001 0.
0.543958 0.00300001 0.
0.54596 0.00300001 0.
0.547961 0.00300001 0.
0.549962 0.00300001 0.
0.551964 0.00300001 0.
0.553965 0.00300002 0.
0.555966 0.00300004 0.
0.557967 0.00300003 0.
0.559968 0.00300003 0.
0.56197 0.00300003 0.
0.563971 0.00300003 0.
0.565973 0.00300003 0.
0.567974 0.00300002 0.
0.569976 0.003 0.
0.571978 0.00299999 0.
0.573979 0.00299999 0.
0.57598 0.00299999 0.
0.577981 0.00299999 0.
0.579982 0.003 0.
0.581984 0.00300001 0.
0.583985 0.00300001 0.
0.585986 0.00300001 0.
0.587988 0.00300001 0.
0.589989 0.00300001 0.
0.591989 0.003 0.
0.59399 0.003 0.
0.595993 0.00300001 0.
0.597997 0.00300001 0.
0.6 0.00300002 0.
0.602005 0.00300002 0.
0.60401 0.00300001 0.
0.606014 0.00300001 0.
0.608016 0.00300001 0.
0.610017 0.00300001 0.
0.612018 0.00300002 0.
0.61402 0.00300002 0.
0.616021 0.00300003 0.
0.618022 0.00300002 0.
0.620023 0.00300001 0.
0.622024 0.00300001 0.
0.624025 0.003 0.
0.626027 0.003 0.
0.628028 0.00300001 0.
0.630029 0.00300001 0.
0.632031 0.00300001 0.
0.634033 0.00300001 0.
0.636035 0.00300001 0.
0.638037 0.00300001 0.
0.640038 0.00300001 0.
0.642039 0.00300001 0.
0.64404 0.00300001 0.
0.646041 0.00300004 0.
0.648042 0.00300007 0.
0.650043 0.00300009 0.
0.652044 0.00300006 0.
0.654045 0.00300003 0.
0.656047 0.00300001 0.
0.658048 0.00300001 0.
0.66005 0.00300001 0.
0.662052 0.00300001 0.
0.664054 0.00300001 0.
0.666056 0.00300002 0.
0.668058 0.00300001 0.
0.670059 0.00300001 0.
0.67206 0.003 0.
0.674062 0.00300004 0.
0.676063 0.00300009 0.
0.678064 0.00300013 0.
0.680065 0.00300013 0.
0.682066 0.00300012 0.
0.684068 0.00300014 0.
0.686069 0.00300019 0.
0.688071 0.00300025 0.
0.690072 0.00300037 0.
0.692073 0.00300054 0.
0.694073 0.00300071 0.
0.696075 0.00300126 0.
0.698076 0.00300188 0.
0.499924 0.0050011 0.
0.501925 0.00500126 0.
0.503926 0.00500136 0.
0.505927 0.00500136 0.
0.507929 0.00500087 0.
0.50993 0.00500037 0.
0.511932 0.00500007 0.
0.513934 0.00500004 0.
0.515935 0.005 0.
0.517937 0.005 0.
0.519939 0.00500002 0.
0.52194 0.00500003 0.
0.523941 0.00500002 0.
0.525942 0.005 0.
0.527942 0.005 0.
0.529944 0.00500012 0.
0.531946 0.00500024 0.
0.533948 0.0050003 0.
0.535951 0.00500017 0.
0.537953 0.00500005 0.
0.539955 0.00500001 0.
0.541957 0.00500001 0.
0.543959 0.00500002 0.
0.54596 0.00500001 0.
0.547961 0.00500001 0.
0.549963 0.00500001 0.
0.551964 0.00500002 0.
0.553965 0.00500004 0.
0.555966 0.00500006 0.
0.557967 0.00500005 0.
0.559968 0.00500005 0.
0.561969 0.00500005 0.
0.563971 0.00500005 0.
0.565972 0.00500004 0.
0.567974 0.00500002 0.
0.569976 0.00500001 0.
0.571979 0.00499999 0.
0.57398 0.00499999 0.
0.575981 0.00499998 0.
0.577982 0.00499999 0.
0.579983 0.005 0.
0.581984 0.00500001 0.
0.583986 0.00500001 0.
0.585986 0.00500002 0.
0.587987 0.00500002 0.
0.589988 0.005 0.
0.591989 0.00499999 0.
0.593991 0.00499999 0.
0.595994 0.00500001 0.
0.597997 0.00500002 0.
0.6 0.00500004 0.
0.602005 0.00500002 0.
0.604009 0.00500001 0.
0.606013 0.00500001 0.
0.608015 0.00500001 0.
0.610017 0.00500001 0.
0.612019 0.00500002 0.
0.61402 0.00500003 0.
0.616021 0.00500005 0.
0.618022 0.00500003 0.
0.620024 0.00500002 0.
0.622025 0.00500001 0.
0.624025 0.00500001 0.
0.626026 0.00500001 0.
0.628027 0.00500001 0.
0.630029 0.00500001 0.
0.632031 0.00500001 0.
0.634033 0.00500002 0.
0.636035 0.00500002 0.
0.638037 0.00500001 0.
0.640038 0.00500001 0.
0.642039 0.00500002 0.
0.644041 0.00500002 0.
0.646041 0.00500006 0.
0.648042 0.00500011 0.
0.650042 0.00500015 0.
0.652044 0.0050001 0.
0.654045 0.00500005 0.
0.656046 0.00500002 0.
0.658048 0.00500002 0.
0.66005 0.00500002 0.
0.662052 0.00500002 0.
0.664054 0.00500002 0.
0.666057 0.00500003 0.
0.668058 0.00500002 0.
0.67006 0.00500001 0.
0.672061 0.005 0.
0.674062 0.00500005 0.
0.676064 0.00500014 0.
0.678065 0.00500022 0.
0.680066 0.00500021 0.
0.682067 0.0050002 0.
0.684068 0.00500023 0.
0.686069 0.00500032 0.
0.68807 0.00500041 0.
0.690071 0.00500061 0.
0.692072 0.00500089 0.
0.694073 0.00500118 0.
0.696074 0.0050021 0.
0.698076 0.00500314 0.
0.499925 0.0070028 0.
0.501926 0.0070028 0.
0.503927 0.00700275 0.
0.505929 0.00700269 0.
0.50793 0.00700248 0.
0.509932 0.00700228 0.
0.511933 0.00700219 0.
0.513934 0.00700226 0.
0.515936 0.00700233 0.
0.517937 0.0070025 0.
0.519939 0.00700272 0.
0.52194 0.00700294 0.
0.523942 0.00700308 0.
0.525943 0.00700322 0.
0.527944 0.00700334 0.
0.529946 0.00700339 0.
0.531947 0.00700344 0.
0.533949 0.00700354 0.
0.535951 0.00700376 0.
0.537954 0.00700399 0.
0.539955 0.00700399 0.
0.541957 0.00700379 0.
0.543958 0.0070036 0.
0.54596 0.00700328 0.
0.547961 0.00700294 0.
0.549962 0.00700259 0.
0.551964 0.00700257 0.
0.553965 0.00700255 0.
0.555966 0.00700261 0.
0.557967 0.00700293 0.
0.559969 0.00700325 0.
0.56197 0.00700335 0.
0.563971 0.00700315 0.
0.565973 0.00700296 0.
0.567975 0.00700299 0.
0.569976 0.00700315 0.
0.571978 0.00700331 0.
0.573979 0.0070036 0.
0.57598 0.00700391 0.
0.577982 0.00700412 0.
0.579983 0.00700346 0.
0.581984 0.0070028 0.
0.583986 0.00700233 0.
0.585987 0.00700226 0.
0.587988 0.00700219 0.
0.589989 0.00700207 0.
0.59199 0.00700195 0.
0.593992 0.00700183 0.
0.595994 0.00700216 0.
0.597997 0.00700261 0.
0.600001 0.00700305 0.
0.602004 0.00700266 0.
0.604008 0.00700228 0.
0.606012 0.00700205 0.
0.608014 0.00700232 0.
0.610016 0.00700258 0.
0.612017 0.00700269 0.
0.614019 0.00700259 0.
0.61602 0.00700249 0.
0.618022 0.00700237 0.
0.620023 0.00700227 0.
0.622024 0.00700217 0.
0.624025 0.00700237 0.
0.626026 0.00700261 0.
0.628027 0.00700287 0.
0.630029 0.00700329 0.
0.63203 0.00700371 0.
0.634032 0.00700398 0.
0.636034 0.00700395 0.
0.638036 0.00700392 0.
0.640038 0.00700387 0.
0.642039 0.00700382 0.
0.64404 0.00700377 0.
0.646041 0.00700345 0.
0.648041 0.00700306 0.
0.650042 0.00700269 0.
0.652043 0.00700306 0.
0.654045 0.00700342 0.
0.656046 0.00700373 0.
0.658048 0.0070038 0.
0.66005 0.00700388 0.
0.662052 0.00700385 0.
0.664054 0.00700368 0.
0.666056 0.00700352 0.
0.668057 0.00700322 0.
0.670059 0.00700286 0.
0.67206 0.0070025 0.
0.674062 0.00700241 0.
0.676063 0.00700235 0.
0.678065 0.00700231 0.
0.680066 0.00700234 0.
0.682067 0.00700237 0.
0.684068 0.00700235 0.
0.686069 0.00700224 0.
0.68807 0.00700214 0.
0.690071 0.00700222 0.
0.692071 0.00700245 0.
0.694072 0.00700268 0.
0.696074 0.0070039 0.
0.698075 0.00700536 0.
0.499925 0.00900447 0.
0.501927 0.00900433 0.
0.503929 0.00900414 0.
0.50593 0.00900401 0.
0.507932 0.0090041 0.
0.509933 0.00900418 0.
0.511934 0.00900431 0.
0.513935 0.00900449 0.
0.515937 0.00900466 0.
0.517938 0.00900499 0.
0.519939 0.00900541 0.
0.521941 0.00900584 0.
0.523942 0.00900615 0.
0.525943 0.00900643 0.
0.527945 0.00900669 0.
0.529947 0.00900666 0.
0.531948 0.00900663 0.
0.53395 0.00900679 0.
0.535952 0.00900735 0.
0.537954 0.00900792 0.
0.539955 0.00900797 0.
0.541957 0.00900757 0.
0.543958 0.00900717 0.
0.545959 0.00900656 0.
0.54796 0.00900587 0.
0.549962 0.00900517 0.
0.551963 0.00900511 0.
0.553965 0.00900507 0.
0.555967 0.00900517 0.
0.557968 0.00900581 0.
0.55997 0.00900645 0.
0.561971 0.00900665 0.
0.563972 0.00900626 0.
0.565973 0.00900588 0.
0.567975 0.00900596 0.
0.569976 0.00900629 0.
0.571977 0.00900662 0.
0.573979 0.00900721 0.
0.57598 0.00900783 0.
0.577981 0.00900825 0.
0.579983 0.00900692 0.
0.581984 0.00900559 0.
0.583986 0.00900464 0.
0.585987 0.00900449 0.
0.587989 0.00900435 0.
0.58999 0.00900413 0.
0.591991 0.0090039 0.
0.593993 0.00900367 0.
0.595995 0.00900431 0.
0.597998 0.00900519 0.
0.600001 0.00900606 0.
0.602004 0.0090053 0.
0.604007 0.00900455 0.
0.60601 0.0090041 0.
0.608012 0.00900463 0.
0.610014 0.00900515 0.
0.612016 0.00900535 0.
0.614018 0.00900514 0.
0.61602 0.00900493 0.
0.618021 0.00900472 0.
0.620022 0.00900453 0.
0.622024 0.00900434 0.
0.624025 0.00900474 0.
0.626026 0.00900522 0.
0.628027 0.00900573 0.
0.630029 0.00900656 0.
0.63203 0.0090074 0.
0.634031 0.00900794 0.
0.636033 0.00900788 0.
0.638035 0.00900782 0.
0.640037 0.00900773 0.
0.642038 0.00900762 0.
0.644039 0.00900751 0.
0.64604 0.00900684 0.
0.648041 0.00900602 0.
0.650042 0.00900523 0.
0.652043 0.00900601 0.
0.654044 0.0090068 0.
0.656046 0.00900743 0.
0.658048 0.00900759 0.
0.66005 0.00900775 0.
0.662052 0.00900767 0.
0.664054 0.00900734 0.
0.666055 0.00900701 0.
0.668057 0.00900642 0.
0.670058 0.00900571 0.
0.672059 0.009005 0.
0.674061 0.00900476 0.
0.676063 0.00900456 0.
0.678064 0.00900439 0.
0.680065 0.00900446 0.
0.682066 0.00900453 0.
0.684067 0.00900448 0.
0.686068 0.00900418 0.
0.688069 0.00900387 0.
0.69007 0.00900383 0.
0.692071 0.009004 0.
0.694072 0.00900417 0.
0.696073 0.00900571 0.
0.698074 0.00900757 0.
0.499926 0.0110055 0.
0.501927 0.0110053 0.
0.503929 0.0110051 0.
0.505931 0.0110049 0.
0.507932 0.0110051 0.
0.509934 0.0110052 0.
0.511935 0.0110054 0.
0.513936 0.0110057 0.
0.515937 0.0110059 0.
0.517938 0.0110062 0.
0.51994 0.0110066 0.
0.521941 0.011007 0.
0.523942 0.0110074 0.
0.525944 0.0110077 0.
0.527945 0.011008 0.
0.529947 0.0110079 0.
0.531949 0.0110078 0.
0.533951 0.0110079 0.
0.535953 0.0110086 0.
0.537954 0.0110093 0.
0.539956 0.0110094 0.
0.541957 0.011009 0.
0.543958 0.0110086 0.
0.545959 0.0110077 0.
0.547961 0.0110066 0.
0.549962 0.0110055 0.
0.551964 0.0110056 0.
0.553966 0.0110057 0.
0.555967 0.011006 0.
0.557969 0.0110068 0.
0.55997 0.0110076 0.
0.561972 0.0110078 0.
0.563973 0.0110073 0.
0.565974 0.0110069 0.
0.567975 0.0110069 0.
0.569976 0.0110071 0.
0.571977 0.0110073 0.
0.573979 0.0110081 0.
0.57598 0.0110089 0.
0.577982 0.0110096 0.
0.579983 0.011008 0.
0.581985 0.0110065 0.
0.583986 0.0110053 0.
0.585988 0.0110052 0.
0.58799 0.011005 0.
0.589991 0.0110047 0.
0.591992 0.0110042 0.
0.593994 0.0110038 0.
0.595996 0.0110045 0.
0.597998 0.0110056 0.
0.6 0.0110067 0.
0.602003 0.0110058 0.
0.604006 0.0110049 0.
0.606009 0.0110043 0.
0.608011 0.0110048 0.
0.610013 0.0110054 0.
0.612015 0.0110056 0.
0.614017 0.0110054 0.
0.616018 0.0110053 0.
0.61802 0.0110051 0.
0.620021 0.011005 0.
0.622023 0.0110049 0.
0.624024 0.0110054 0.
0.626026 0.0110061 0.
0.628027 0.0110067 0.
0.630028 0.0110076 0.
0.632029 0.0110085 0.
0.634031 0.0110091 0.
0.636033 0.0110091 0.
0.638035 0.011009 0.
0.640036 0.011009 0.
0.642037 0.011009 0.
0.644038 0.0110089 0.
0.646039 0.0110081 0.
0.64804 0.0110072 0.
0.650041 0.0110063 0.
0.652043 0.0110071 0.
0.654044 0.011008 0.
0.656045 0.0110087 0.
0.658048 0.0110088 0.
0.66005 0.011009 0.
0.662052 0.0110089 0.
0.664053 0.0110085 0.
0.666055 0.0110081 0.
0.668056 0.0110074 0.
0.670057 0.0110067 0.
0.672058 0.0110059 0.
0.67406 0.0110056 0.
0.676062 0.0110054 0.
0.678064 0.0110052 0.
0.680065 0.0110055 0.
0.682066 0.0110057 0.
0.684067 0.0110057 0.
0.686068 0.0110053 0.
0.688069 0.0110049 0.
0.690069 0.0110048 0.
0.69207 0.0110048 0.
0.694071 0.0110049 0.
0.696072 0.0110066 0.
0.698073 0.0110088 0.
0.499927 0.0130059 0.
0.501928 0.0130057 0.
0.50393 0.0130055 0.
0.505932 0.0130053 0.
0.507933 0.0130054 0.
0.509934 0.0130054 0.
0.511935 0.0130056 0.
0.513936 0.0130058 0.
0.515937 0.0130061 0.
0.517938 0.0130062 0.
0.51994 0.0130064 0.
0.521941 0.0130065 0.
0.523943 0.0130068 0.
0.525944 0.0130071 0.
0.527945 0.0130074 0.
0.529947 0.0130072 0.
0.531949 0.013007 0.
0.533951 0.013007 0.
0.535953 0.0130075 0.
0.537955 0.013008 0.
0.539956 0.0130082 0.
0.541958 0.013008 0.
0.543959 0.0130078 0.
0.54596 0.0130066 0.
0.547962 0.0130051 0.
0.549963 0.0130035 0.
0.551964 0.013004 0.
0.553966 0.0130045 0.
0.555968 0.013005 0.
0.557969 0.0130058 0.
0.559971 0.0130066 0.
0.561972 0.0130068 0.
0.563973 0.0130064 0.
0.565974 0.013006 0.
0.567976 0.0130057 0.
0.569977 0.0130055 0.
0.571978 0.0130053 0.
0.573979 0.0130062 0.
0.575981 0.0130072 0.
0.577983 0.013008 0.
0.579984 0.0130067 0.
0.581985 0.0130054 0.
0.583987 0.0130045 0.
0.585989 0.0130043 0.
0.587991 0.0130041 0.
0.589992 0.0130037 0.
0.591993 0.0130029 0.
0.593995 0.0130022 0.
0.595997 0.0130029 0.
0.597998 0.0130039 0.
0.6 0.0130049 0.
0.602003 0.0130041 0.
0.604005 0.0130033 0.
0.606007 0.0130027 0.
0.60801 0.013003 0.
0.610012 0.0130032 0.
0.612014 0.0130034 0.
0.614015 0.0130035 0.
0.616016 0.0130036 0.
0.618018 0.0130036 0.
0.620019 0.0130037 0.
0.622021 0.0130038 0.
0.624023 0.0130045 0.
0.626025 0.0130052 0.
0.628027 0.0130059 0.
0.630028 0.0130065 0.
0.632029 0.013007 0.
0.63403 0.0130074 0.
0.636032 0.0130075 0.
0.638034 0.0130076 0.
0.640035 0.0130077 0.
0.642036 0.0130078 0.
0.644037 0.013008 0.
0.646038 0.0130074 0.
0.64804 0.0130066 0.
0.650041 0.0130058 0.
0.652042 0.0130064 0.
0.654043 0.013007 0.
0.656045 0.0130075 0.
0.658047 0.0130076 0.
0.660049 0.0130077 0.
0.662051 0.0130075 0.
0.664052 0.0130072 0.
0.666054 0.0130068 0.
0.668055 0.0130063 0.
0.670057 0.0130058 0.
0.672058 0.0130052 0.
0.67406 0.013005 0.
0.676061 0.0130049 0.
0.678063 0.0130048 0.
0.680064 0.0130053 0.
0.682064 0.0130058 0.
0.684065 0.013006 0.
0.686066 0.0130057 0.
0.688067 0.0130053 0.
0.690068 0.0130051 0.
0.692069 0.013005 0.
0.69407 0.0130048 0.
0.696071 0.0130066 0.
0.698072 0.0130089 0.
0.499928 0.0150064 0.
0.501929 0.0150061 0.
0.503931 0.0150059 0.
0.505932 0.0150057 0.
0.507933 0.0150057 0.
0.509934 0.0150057 0.
0.511935 0.0150057 0.
0.513936 0.015006 0.
0.515937 0.0150062 0.
0.517938 0.0150062 0.
0.51994 0.0150061 0.
0.521941 0.0150061 0.
0.523943 0.0150063 0.
0.525944 0.0150065 0.
0.527946 0.0150067 0.
0.529948 0.0150064 0.
0.53195 0.0150061 0.
0.533952 0.015006 0.
0.535953 0.0150064 0.
0.537955 0.0150068 0.
0.539957 0.015007 0.
0.541958 0.015007 0.
0.54396 0.0150071 0.
0.545961 0.0150056 0.
0.547963 0.0150036 0.
0.549964 0.0150016 0.
0.551965 0.0150024 0.
0.553967 0.0150033 0.
0.555968 0.0150041 0.
0.55797 0.0150048 0.
0.559971 0.0150056 0.
0.561973 0.0150059 0.
0.563974 0.0150055 0.
0.565975 0.0150051 0.
0.567976 0.0150045 0.
0.569977 0.0150039 0.
0.571978 0.0150033 0.
0.57398 0.0150043 0.
0.575982 0.0150055 0.
0.577984 0.0150065 0.
0.579985 0.0150054 0.
0.581986 0.0150043 0.
0.583988 0.0150036 0.
0.58599 0.0150034 0.
0.587992 0.0150033 0.
0.589993 0.0150026 0.
0.591994 0.0150016 0.
0.593996 0.0150006 0.
0.595997 0.0150012 0.
0.597998 0.0150022 0.
0.6 0.0150032 0.
0.602002 0.0150024 0.
0.604004 0.0150017 0.
0.606006 0.0150011 0.
0.608009 0.0150011 0.
0.610011 0.015001 0.
0.612013 0.0150011 0.
0.614014 0.0150015 0.
0.616014 0.0150018 0.
0.618016 0.0150021 0.
0.620018 0.0150024 0.
0.62202 0.0150027 0.
0.624022 0.0150035 0.
0.626024 0.0150043 0.
0.628026 0.0150051 0.
0.630027 0.0150053 0.
0.632029 0.0150055 0.
0.63403 0.0150057 0.
0.636032 0.0150059 0.
0.638033 0.0150062 0.
0.640035 0.0150064 0.
0.642035 0.0150067 0.
0.644036 0.015007 0.
0.646037 0.0150066 0.
0.648039 0.0150059 0.
0.65004 0.0150053 0.
0.652041 0.0150056 0.
0.654043 0.015006 0.
0.656044 0.0150063 0.
0.658046 0.0150063 0.
0.660048 0.0150063 0.
0.662049 0.0150062 0.
0.664051 0.0150058 0.
0.666053 0.0150054 0.
0.668055 0.0150051 0.
0.670057 0.0150048 0.
0.672058 0.0150045 0.
0.674059 0.0150044 0.
0.676061 0.0150044 0.
0.678062 0.0150044 0.
0.680063 0.0150052 0.
0.682063 0.0150059 0.
0.684064 0.0150063 0.
0.686065 0.015006 0.
0.688066 0.0150057 0.
0.690067 0.0150054 0.
0.692068 0.0150051 0.
0.694068 0.0150047 0.
0.696069 0.0150066 0.
0.698071 0.015009 0.
0.499929 0.0170077 0.
0.50193 0.0170074 0.
0.503931 0.0170072 0.
0.505932 0.017007 0.
0.507933 0.0170068 0.
0.509934 0.0170066 0.
0.511935 0.0170064 0.
0.513936 0.0170064 0.
0.515937 0.0170063 0.
0.517939 0.0170061 0.
0.51994 0.0170058 0.
0.521942 0.0170055 0.
0.523944 0.0170058 0.
0.525945 0.0170062 0.
0.527946 0.0170066 0.
0.529948 0.0170063 0.
0.53195 0.0170061 0.
0.533952 0.017006 0.
0.535954 0.0170062 0.
0.537955 0.0170065 0.
0.539957 0.0170065 0.
0.541959 0.0170063 0.
0.543961 0.0170061 0.
0.545962 0.017005 0.
0.547963 0.0170037 0.
0.549965 0.0170023 0.
0.551966 0.0170026 0.
0.553968 0.0170028 0.
0.555969 0.0170032 0.
0.55797 0.0170039 0.
0.559972 0.0170047 0.
0.561973 0.017005 0.
0.563974 0.0170045 0.
0.565976 0.0170041 0.
0.567977 0.017004 0.
0.569978 0.0170041 0.
0.571979 0.0170042 0.
0.573981 0.0170048 0.
0.575983 0.0170055 0.
0.577985 0.0170061 0.
0.579986 0.0170049 0.
0.581988 0.0170038 0.
0.583989 0.0170029 0.
0.58599 0.0170027 0.
0.587992 0.0170024 0.
0.589994 0.017002 0.
0.591995 0.0170013 0.
0.593996 0.0170006 0.
0.595998 0.0170009 0.
0.597999 0.0170015 0.
0.6 0.0170021 0.
0.602002 0.0170017 0.
0.604004 0.0170013 0.
0.606007 0.0170009 0.
0.608009 0.0170007 0.
0.610011 0.0170006 0.
0.612012 0.0170005 0.
0.614013 0.0170007 0.
0.616014 0.0170008 0.
0.618016 0.0170011 0.
0.620017 0.0170016 0.
0.622019 0.0170021 0.
0.624021 0.017003 0.
0.626023 0.017004 0.
0.628024 0.0170048 0.
0.630026 0.0170047 0.
0.632028 0.0170046 0.
0.634029 0.0170047 0.
0.636031 0.0170053 0.
0.638032 0.0170059 0.
0.640033 0.0170062 0.
0.642034 0.0170062 0.
0.644035 0.0170062 0.
0.646037 0.0170059 0.
0.648038 0.0170056 0.
0.65004 0.0170052 0.
0.652041 0.0170056 0.
0.654042 0.017006 0.
0.656043 0.0170063 0.
0.658045 0.0170059 0.
0.660046 0.0170055 0.
0.662048 0.0170053 0.
0.66405 0.0170052 0.
0.666052 0.0170051 0.
0.668054 0.0170049 0.
0.670055 0.0170048 0.
0.672057 0.0170046 0.
0.674058 0.0170045 0.
0.676059 0.0170045 0.
0.67806 0.0170045 0.
0.680061 0.017005 0.
0.682062 0.0170056 0.
0.684063 0.0170059 0.
0.686064 0.0170059 0.
0.688066 0.0170058 0.
0.690067 0.0170058 0.
0.692067 0.0170059 0.
0.694068 0.017006 0.
0.696069 0.0170075 0.
0.69807 0.0170093 0.
0.49993 0.0190091 0.
0.501931 0.0190087 0.
0.503932 0.0190085 0.
0.505933 0.0190082 0.
0.507934 0.0190079 0.
0.509935 0.0190075 0.
0.511936 0.0190071 0.
0.513937 0.0190068 0.
0.515938 0.0190065 0.
0.517939 0.019006 0.
0.519941 0.0190055 0.
0.521943 0.019005 0.
0.523944 0.0190054 0.
0.525946 0.019006 0.
0.527947 0.0190065 0.
0.529949 0.0190063 0.
0.531951 0.019006 0.
0.533952 0.0190059 0.
0.535954 0.0190061 0.
0.537956 0.0190063 0.
0.539957 0.0190061 0.
0.541959 0.0190056 0.
0.543961 0.019005 0.
0.545963 0.0190044 0.
0.547964 0.0190037 0.
0.549965 0.019003 0.
0.551967 0.0190027 0.
0.553968 0.0190024 0.
0.55597 0.0190023 0.
0.557971 0.019003 0.
0.559972 0.0190038 0.
0.561973 0.019004 0.
0.563975 0.0190036 0.
0.565976 0.0190032 0.
0.567978 0.0190035 0.
0.569979 0.0190043 0.
0.57198 0.0190051 0.
0.573982 0.0190054 0.
0.575984 0.0190056 0.
0.577985 0.0190056 0.
0.579987 0.0190044 0.
0.581989 0.0190032 0.
0.58399 0.0190023 0.
0.585991 0.019002 0.
0.587993 0.0190016 0.
0.589994 0.0190013 0.
0.591995 0.0190009 0.
0.593997 0.0190006 0.
0.595998 0.0190007 0.
0.597999 0.0190009 0.
0.6 0.0190011 0.
0.602003 0.0190009 0.
0.604005 0.0190008 0.
0.606007 0.0190006 0.
0.608009 0.0190004 0.
0.61001 0.0190001 0.
0.612012 0.0189999 0.
0.614013 0.0189998 0.
0.616014 0.0189997 0.
0.618016 0.0190001 0.
0.620017 0.0190008 0.
0.622019 0.0190014 0.
0.62402 0.0190025 0.
0.626022 0.0190036 0.
0.628023 0.0190045 0.
0.630025 0.0190041 0.
0.632027 0.0190037 0.
0.634029 0.0190038 0.
0.63603 0.0190047 0.
0.638031 0.0190057 0.
0.640032 0.0190059 0.
0.642034 0.0190056 0.
0.644035 0.0190053 0.
0.646037 0.0190052 0.
0.648038 0.0190052 0.
0.65004 0.0190052 0.
0.652041 0.0190056 0.
0.654042 0.0190061 0.
0.656043 0.0190062 0.
0.658044 0.0190055 0.
0.660045 0.0190047 0.
0.662047 0.0190044 0.
0.664049 0.0190046 0.
0.666051 0.0190047 0.
0.668053 0.0190048 0.
0.670054 0.0190048 0.
0.672055 0.0190047 0.
0.674056 0.0190047 0.
0.676057 0.0190046 0.
0.678058 0.0190045 0.
0.680059 0.0190049 0.
0.682061 0.0190052 0.
0.684063 0.0190055 0.
0.686064 0.0190057 0.
0.688065 0.0190059 0.
0.690066 0.0190063 0.
0.692067 0.0190067 0.
0.694068 0.0190072 0.
0.696068 0.0190083 0.
0.698069 0.0190097 0.
0.499931 0.0210102 0.
0.501932 0.0210097 0.
0.503933 0.0210093 0.
0.505934 0.0210088 0.
0.507935 0.0210084 0.
0.509936 0.0210079 0.
0.511937 0.0210074 0.
0.513938 0.0210069 0.
0.515939 0.0210065 0.
0.51794 0.0210059 0.
0.519942 0.0210052 0.
0.521944 0.0210046 0.
0.523945 0.021005 0.
0.525947 0.0210056 0.
0.527949 0.0210061 0.
0.52995 0.0210059 0.
0.531951 0.0210057 0.
0.533953 0.0210056 0.
0.535954 0.0210056 0.
0.537956 0.0210055 0.
0.539958 0.0210052 0.
0.54196 0.0210045 0.
0.543962 0.0210039 0.
0.545963 0.0210035 0.
0.547965 0.0210031 0.
0.549966 0.0210028 0.
0.551967 0.0210023 0.
0.553969 0.0210019 0.
0.55597 0.0210016 0.
0.557971 0.0210022 0.
0.559972 0.0210027 0.
0.561974 0.0210029 0.
0.563975 0.0210027 0.
0.565977 0.0210024 0.
0.567978 0.0210029 0.
0.56998 0.0210038 0.
0.571981 0.0210047 0.
0.573982 0.0210048 0.
0.575984 0.0210048 0.
0.577986 0.0210046 0.
0.579987 0.0210035 0.
0.581989 0.0210023 0.
0.583991 0.0210014 0.
0.585992 0.021001 0.
0.587993 0.0210007 0.
0.589994 0.0210004 0.
0.591996 0.0210003 0.
0.593997 0.0210002 0.
0.595998 0.0210002 0.
0.597999 0.0210002 0.
0.6 0.0210002 0.
0.602003 0.0210001 0.
0.604005 0.021 0.
0.606007 0.0209999 0.
0.608009 0.0209996 0.
0.61001 0.0209993 0.
0.612011 0.0209991 0.
0.614012 0.020999 0.
0.616014 0.0209988 0.
0.618015 0.0209993 0.
0.620016 0.021 0.
0.622018 0.0210007 0.
0.624019 0.0210018 0.
0.626021 0.0210028 0.
0.628022 0.0210037 0.
0.630024 0.0210032 0.
0.632026 0.0210028 0.
0.634028 0.0210028 0.
0.636029 0.0210037 0.
0.63803 0.0210046 0.
0.640032 0.0210049 0.
0.642033 0.0210046 0.
0.644034 0.0210044 0.
0.646036 0.0210044 0.
0.648037 0.0210045 0.
0.650039 0.0210046 0.
0.65204 0.0210051 0.
0.654041 0.0210055 0.
0.656042 0.0210056 0.
0.658044 0.0210047 0.
0.660045 0.0210038 0.
0.662047 0.0210035 0.
0.664048 0.0210038 0.
0.66605 0.0210041 0.
0.668051 0.0210043 0.
0.670053 0.0210045 0.
0.672054 0.0210048 0.
0.674055 0.0210047 0.
0.676056 0.0210047 0.
0.678057 0.0210046 0.
0.680059 0.0210047 0.
0.68206 0.0210047 0.
0.684062 0.0210049 0.
0.686063 0.0210054 0.
0.688064 0.0210058 0.
0.690065 0.0210065 0.
0.692066 0.0210074 0.
0.694067 0.0210082 0.
0.696067 0.0210091 0.
0.698068 0.0210101 0.
0.499933 0.023011 0.
0.501934 0.0230103 0.
0.503935 0.0230095 0.
0.505936 0.0230088 0.
0.507937 0.0230083 0.
0.509938 0.0230078 0.
0.511939 0.0230073 0.
0.51394 0.0230068 0.
0.515941 0.0230063 0.
0.517942 0.0230057 0.
0.519943 0.023005 0.
0.521944 0.0230043 0.
0.523946 0.0230046 0.
0.525948 0.023005 0.
0.52795 0.0230053 0.
0.529951 0.0230052 0.
0.531952 0.023005 0.
0.533953 0.0230048 0.
0.535955 0.0230046 0.
0.537957 0.0230043 0.
0.539959 0.0230039 0.
0.541961 0.0230032 0.
0.543962 0.0230026 0.
0.545964 0.0230022 0.
0.547965 0.0230018 0.
0.549967 0.0230014 0.
0.551968 0.0230013 0.
0.553969 0.0230012 0.
0.555971 0.0230011 0.
0.557972 0.0230013 0.
0.559973 0.0230014 0.
0.561975 0.0230016 0.
0.563976 0.0230018 0.
0.565978 0.0230019 0.
0.567979 0.0230023 0.
0.56998 0.0230027 0.
0.571982 0.0230031 0.
0.573983 0.0230031 0.
0.575984 0.0230031 0.
0.577986 0.023003 0.
0.579987 0.023002 0.
0.581989 0.023001 0.
0.58399 0.0230002 0.
0.585992 0.0229999 0.
0.587993 0.0229996 0.
0.589994 0.0229994 0.
0.591996 0.0229994 0.
0.593997 0.0229994 0.
0.595998 0.0229994 0.
0.597999 0.0229994 0.
0.600001 0.0229994 0.
0.602003 0.0229991 0.
0.604005 0.0229988 0.
0.606007 0.0229986 0.
0.608008 0.0229983 0.
0.61001 0.0229981 0.
0.612011 0.022998 0.
0.614012 0.0229981 0.
0.616012 0.0229981 0.
0.618014 0.0229986 0.
0.620015 0.0229993 0.
0.622017 0.023 0.
0.624018 0.0230008 0.
0.62602 0.0230017 0.
0.628021 0.0230024 0.
0.630023 0.0230021 0.
0.632025 0.0230018 0.
0.634027 0.0230017 0.
0.636028 0.0230023 0.
0.63803 0.0230029 0.
0.640031 0.0230032 0.
0.642032 0.0230033 0.
0.644034 0.0230034 0.
0.646035 0.0230035 0.
0.648036 0.0230036 0.
0.650038 0.0230037 0.
0.652039 0.0230039 0.
0.65404 0.0230042 0.
0.656042 0.0230043 0.
0.658044 0.0230036 0.
0.660045 0.0230029 0.
0.662047 0.0230027 0.
0.664048 0.0230029 0.
0.666049 0.0230031 0.
0.668051 0.0230036 0.
0.670052 0.0230042 0.
0.672053 0.0230047 0.
0.674054 0.0230048 0.
0.676056 0.0230048 0.
0.678057 0.0230047 0.
0.680058 0.0230044 0.
0.682059 0.0230041 0.
0.68406 0.0230042 0.
0.686062 0.0230049 0.
0.688063 0.0230056 0.
0.690064 0.0230066 0.
0.692064 0.0230078 0.
0.694065 0.023009 0.
0.696065 0.0230099 0.
0.698066 0.0230107 0.
0.499935 0.0250118 0.
0.501936 0.025011 0.
0.503937 0.0250098 0.
0.505937 0.0250088 0.
0.507939 0.0250082 0.
0.50994 0.0250077 0.
0.511941 0.0250071 0.
0.513942 0.0250066 0.
0.515943 0.0250061 0.
0.517944 0.0250055 0.
0.519945 0.0250047 0.
0.521945 0.025004 0.
0.523947 0.0250041 0.
0.525949 0.0250044 0.
0.527951 0.0250046 0.
0.529952 0.0250045 0.
0.531953 0.0250044 0.
0.533954 0.0250041 0.
0.535956 0.0250036 0.
0.537958 0.0250031 0.
0.53996 0.0250025 0.
0.541961 0.0250019 0.
0.543963 0.0250013 0.
0.545964 0.0250009 0.
0.547966 0.0250005 0.
0.549967 0.0250001 0.
0.551969 0.0250003 0.
0.55397 0.0250005 0.
0.555972 0.0250006 0.
0.557973 0.0250004 0.
0.559974 0.0250002 0.
0.561976 0.0250003 0.
0.563977 0.0250009 0.
0.565979 0.0250014 0.
0.56798 0.0250016 0.
0.569981 0.0250015 0.
0.571982 0.0250014 0.
0.573983 0.0250014 0.
0.575984 0.0250015 0.
0.577986 0.0250014 0.
0.579987 0.0250006 0.
0.581989 0.0249997 0.
0.58399 0.0249991 0.
0.585991 0.0249988 0.
0.587993 0.0249985 0.
0.589994 0.0249984 0.
0.591995 0.0249985 0.
0.593997 0.0249986 0.
0.595998 0.0249987 0.
0.597999 0.0249987 0.
0.600001 0.0249987 0.
0.602003 0.0249982 0.
0.604005 0.0249977 0.
0.606007 0.0249973 0.
0.608008 0.0249971 0.
0.610009 0.024997 0.
0.61201 0.024997 0.
0.614011 0.0249972 0.
0.616011 0.0249974 0.
0.618012 0.0249979 0.
0.620014 0.0249986 0.
0.622015 0.0249992 0.
0.624017 0.0249999 0.
0.626019 0.0250005 0.
0.628021 0.0250011 0.
0.630022 0.0250009 0.
0.632024 0.0250007 0.
0.634026 0.0250007 0.
0.636027 0.0250009 0.
0.638029 0.0250011 0.
0.640031 0.0250015 0.
0.642032 0.0250019 0.
0.644033 0.0250023 0.
0.646034 0.0250025 0.
0.648035 0.0250026 0.
0.650037 0.0250027 0.
0.652038 0.0250028 0.
0.65404 0.025003 0.
0.656042 0.0250029 0.
0.658044 0.0250025 0.
0.660046 0.025002 0.
0.662047 0.0250018 0.
0.664048 0.025002 0.
0.666049 0.0250022 0.
0.66805 0.0250029 0.
0.670051 0.0250038 0.
0.672052 0.0250047 0.
0.674053 0.0250048 0.
0.676055 0.0250048 0.
0.678057 0.0250048 0.
0.680058 0.0250042 0.
0.682059 0.0250035 0.
0.684059 0.0250035 0.
0.68606 0.0250044 0.
0.688061 0.0250053 0.
0.690062 0.0250066 0.
0.692063 0.0250082 0.
0.694063 0.0250098 0.
0.696063 0.0250106 0.
0.698064 0.0250112 0.
0.499937 0.0270127 0.
0.501938 0.0270118 0.
0.503938 0.0270105 0.
0.505939 0.0270094 0.
0.50794 0.0270087 0.
0.509941 0.027008 0.
0.511942 0.0270073 0.
0.513943 0.0270065 0.
0.515944 0.0270058 0.
0.517945 0.027005 0.
0.519946 0.0270043 0.
0.521947 0.0270036 0.
0.523949 0.0270037 0.
0.525951 0.0270039 0.
0.527952 0.0270041 0.
0.529954 0.0270037 0.
0.531955 0.0270034 0.
0.533956 0.027003 0.
0.535958 0.0270024 0.
0.53796 0.0270019 0.
0.539961 0.0270015 0.
0.541963 0.0270013 0.
0.543964 0.0270011 0.
0.545966 0.0270005 0.
0.547967 0.0269998 0.
0.549969 0.0269991 0.
0.55197 0.0269996 0.
0.553971 0.0270001 0.
0.555972 0.0270004 0.
0.557973 0.0269998 0.
0.559975 0.0269991 0.
0.561976 0.026999 0.
0.563978 0.0269996 0.
0.565979 0.0270001 0.
0.567981 0.0270002 0.
0.569982 0.0269999 0.
0.571983 0.0269997 0.
0.573984 0.027 0.
0.575985 0.0270003 0.
0.577986 0.0270006 0.
0.579987 0.0269995 0.
0.581989 0.0269985 0.
0.58399 0.0269977 0.
0.585992 0.0269975 0.
0.587993 0.0269973 0.
0.589994 0.0269973 0.
0.591996 0.0269974 0.
0.593997 0.0269975 0.
0.595998 0.0269974 0.
0.597999 0.0269972 0.
0.600001 0.026997 0.
0.602003 0.0269968 0.
0.604005 0.0269967 0.
0.606006 0.0269965 0.
0.608008 0.0269963 0.
0.610009 0.0269961 0.
0.61201 0.0269961 0.
0.61401 0.0269963 0.
0.616011 0.0269965 0.
0.618012 0.0269969 0.
0.620013 0.0269973 0.
0.622015 0.0269977 0.
0.624016 0.0269986 0.
0.626018 0.0269995 0.
0.62802 0.0270002 0.
0.630021 0.0269998 0.
0.632023 0.0269993 0.
0.634025 0.0269992 0.
0.636026 0.0269996 0.
0.638028 0.027 0.
0.640029 0.0270004 0.
0.64203 0.0270007 0.
0.644032 0.027001 0.
0.646033 0.0270011 0.
0.648034 0.027001 0.
0.650036 0.027001 0.
0.652037 0.0270012 0.
0.654039 0.0270014 0.
0.65604 0.0270015 0.
0.658042 0.0270014 0.
0.660044 0.0270013 0.
0.662045 0.0270013 0.
0.664046 0.0270014 0.
0.666047 0.0270015 0.
0.668048 0.0270022 0.
0.67005 0.027003 0.
0.672051 0.0270039 0.
0.674052 0.027004 0.
0.676054 0.0270039 0.
0.678055 0.0270038 0.
0.680056 0.0270036 0.
0.682057 0.0270035 0.
0.684058 0.0270038 0.
0.686059 0.0270049 0.
0.68806 0.0270061 0.
0.690061 0.0270074 0.
0.692062 0.0270089 0.
0.694062 0.0270104 0.
0.696063 0.0270116 0.
0.698063 0.0270128 0.
0.499939 0.0290137 0.
0.50194 0.0290125 0.
0.50394 0.0290112 0.
0.505941 0.02901 0.
0.507942 0.0290092 0.
0.509942 0.0290083 0.
0.511943 0.0290074 0.
0.513945 0.0290064 0.
0.515946 0.0290054 0.
0.517947 0.0290046 0.
0.519948 0.0290039 0.
0.521949 0.0290031 0.
0.523951 0.0290033 0.
0.525952 0.0290035 0.
0.527954 0.0290036 0.
0.529956 0.029003 0.
0.531957 0.0290024 0.
0.533959 0.0290018 0.
0.53596 0.0290012 0.
0.537962 0.0290006 0.
0.539963 0.0290005 0.
0.541964 0.0290007 0.
0.543965 0.0290009 0.
0.545967 0.0290001 0.
0.547969 0.028999 0.
0.54997 0.028998 0.
0.551971 0.0289988 0.
0.553971 0.0289997 0.
0.555972 0.0290002 0.
0.557974 0.0289992 0.
0.559975 0.0289981 0.
0.561977 0.0289978 0.
0.563978 0.0289983 0.
0.56598 0.0289988 0.
0.567981 0.0289988 0.
0.569983 0.0289984 0.
0.571984 0.028998 0.
0.573984 0.0289985 0.
0.575985 0.0289992 0.
0.577986 0.0289997 0.
0.579987 0.0289985 0.
0.581989 0.0289972 0.
0.58399 0.0289964 0.
0.585992 0.0289962 0.
0.587993 0.0289961 0.
0.589995 0.0289961 0.
0.591996 0.0289963 0.
0.593997 0.0289965 0.
0.595998 0.0289962 0.
0.597999 0.0289958 0.
0.600001 0.0289953 0.
0.602002 0.0289955 0.
0.604004 0.0289957 0.
0.606006 0.0289957 0.
0.608007 0.0289955 0.
0.610008 0.0289952 0.
0.612009 0.0289952 0.
0.614009 0.0289954 0.
0.61601 0.0289956 0.
0.618011 0.0289958 0.
0.620013 0.028996 0.
0.622014 0.0289961 0.
0.624016 0.0289972 0.
0.626018 0.0289984 0.
0.628019 0.0289994 0.
0.630021 0.0289987 0.
0.632022 0.0289979 0.
0.634024 0.0289976 0.
0.636025 0.0289983 0.
0.638027 0.0289989 0.
0.640028 0.0289993 0.
0.642029 0.0289995 0.
0.644031 0.0289997 0.
0.646032 0.0289996 0.
0.648034 0.0289995 0.
0.650035 0.0289994 0.
0.652037 0.0289996 0.
0.654038 0.0289999 0.
0.656039 0.0290001 0.
0.65804 0.0290004 0.
0.660042 0.0290007 0.
0.662043 0.0290008 0.
0.664045 0.0290008 0.
0.666046 0.0290008 0.
0.668047 0.0290014 0.
0.670048 0.0290023 0.
0.67205 0.0290032 0.
0.674051 0.0290031 0.
0.676052 0.0290029 0.
0.678054 0.0290028 0.
0.680055 0.0290031 0.
0.682056 0.0290034 0.
0.684057 0.029004 0.
0.686058 0.0290054 0.
0.688059 0.0290068 0.
0.69006 0.0290082 0.
0.692061 0.0290096 0.
0.694061 0.0290109 0.
0.696062 0.0290126 0.
0.698063 0.0290144 0.
0.499941 0.0310142 0.
0.501941 0.0310129 0.
0.503942 0.0310115 0.
0.505942 0.0310102 0.
0.507943 0.0310093 0.
0.509944 0.0310084 0.
0.511945 0.0310074 0.
0.513946 0.0310062 0.
0.515947 0.031005 0.
0.517948 0.0310041 0.
0.51995 0.0310035 0.
0.521951 0.0310029 0.
0.523952 0.0310029 0.
0.525954 0.031003 0.
0.527955 0.0310029 0.
0.529957 0.0310022 0.
0.531959 0.0310015 0.
0.53396 0.0310008 0.
0.535962 0.0310004 0.
0.537963 0.031 0.
0.539964 0.0309998 0.
0.541966 0.031 0.
0.543967 0.0310001 0.
0.545968 0.0309994 0.
0.54797 0.0309984 0.
0.549971 0.0309974 0.
0.551972 0.0309981 0.
0.553972 0.0309989 0.
0.555973 0.0309993 0.
0.557974 0.0309983 0.
0.559976 0.0309972 0.
0.561978 0.0309968 0.
0.563979 0.0309972 0.
0.56598 0.0309976 0.
0.567982 0.0309974 0.
0.569983 0.030997 0.
0.571984 0.0309966 0.
0.573985 0.0309972 0.
0.575986 0.030998 0.
0.577986 0.0309986 0.
0.579988 0.0309973 0.
0.581989 0.0309959 0.
0.583991 0.030995 0.
0.585992 0.0309951 0.
0.587993 0.0309952 0.
0.589995 0.0309952 0.
0.591996 0.0309952 0.
0.593997 0.0309951 0.
0.595998 0.0309949 0.
0.597999 0.0309945 0.
0.6 0.0309942 0.
0.602002 0.0309945 0.
0.604004 0.0309948 0.
0.606006 0.030995 0.
0.608007 0.0309946 0.
0.610007 0.0309942 0.
0.612008 0.0309941 0.
0.614009 0.0309944 0.
0.61601 0.0309946 0.
0.618011 0.0309948 0.
0.620013 0.0309948 0.
0.622014 0.0309949 0.
0.624016 0.030996 0.
0.626017 0.0309971 0.
0.628019 0.0309981 0.
0.63002 0.0309974 0.
0.632021 0.0309968 0.
0.634023 0.0309966 0.
0.636024 0.0309973 0.
0.638025 0.0309979 0.
0.640027 0.0309983 0.
0.642028 0.0309985 0.
0.64403 0.0309986 0.
0.646031 0.0309985 0.
0.648033 0.0309983 0.
0.650034 0.0309981 0.
0.652035 0.0309985 0.
0.654037 0.0309989 0.
0.656038 0.0309993 0.
0.658039 0.0309996 0.
0.66004 0.031 0.
0.662041 0.0310001 0.
0.664043 0.0310002 0.
0.666045 0.0310002 0.
0.668046 0.0310007 0.
0.670047 0.0310015 0.
0.672048 0.0310023 0.
0.674049 0.0310023 0.
0.676051 0.0310023 0.
0.678052 0.0310023 0.
0.680053 0.0310029 0.
0.682055 0.0310034 0.
0.684056 0.0310043 0.
0.686057 0.0310058 0.
0.688058 0.0310073 0.
0.690058 0.0310087 0.
0.692059 0.03101 0.
0.69406 0.0310113 0.
0.69606 0.0310131 0.
0.698061 0.0310151 0.
0.499941 0.0330144 0.
0.501942 0.0330128 0.
0.503943 0.0330113 0.
0.505944 0.03301 0.
0.507945 0.0330092 0.
0.509946 0.0330083 0.
0.511947 0.0330072 0.
0.513948 0.0330058 0.
0.515949 0.0330043 0.
0.51795 0.0330036 0.
0.519951 0.0330032 0.
0.521952 0.0330028 0.
0.523954 0.0330026 0.
0.525955 0.0330023 0.
0.527956 0.033002 0.
0.529958 0.0330013 0.
0.53196 0.0330006 0.
0.533961 0.0330001 0.
0.535962 0.033 0.
0.537964 0.0329999 0.
0.539965 0.0329996 0.
0.541966 0.0329992 0.
0.543968 0.0329988 0.
0.545969 0.0329983 0.
0.54797 0.0329978 0.
0.549972 0.0329973 0.
0.551973 0.0329974 0.
0.553973 0.0329976 0.
0.555974 0.0329976 0.
0.557976 0.032997 0.
0.559977 0.0329964 0.
0.561978 0.0329961 0.
0.56398 0.0329962 0.
0.565981 0.0329963 0.
0.567982 0.0329961 0.
0.569983 0.0329958 0.
0.571984 0.0329956 0.
0.573985 0.0329961 0.
0.575986 0.0329968 0.
0.577988 0.0329973 0.
0.579989 0.0329959 0.
0.58199 0.0329945 0.
0.583992 0.0329938 0.
0.585993 0.0329942 0.
0.587994 0.0329947 0.
0.589995 0.0329946 0.
0.591996 0.0329941 0.
0.593997 0.0329936 0.
0.595998 0.0329935 0.
0.597999 0.0329935 0.
0.6 0.0329936 0.
0.602002 0.0329939 0.
0.604004 0.0329942 0.
0.606006 0.0329942 0.
0.608006 0.0329936 0.
0.610007 0.0329929 0.
0.612008 0.0329928 0.
0.614009 0.0329931 0.
0.61601 0.0329935 0.
0.618012 0.0329937 0.
0.620013 0.0329939 0.
0.622014 0.032994 0.
0.624016 0.0329947 0.
0.626017 0.0329955 0.
0.628018 0.0329962 0.
0.63002 0.0329961 0.
0.632021 0.0329961 0.
0.634022 0.0329962 0.
0.636023 0.0329967 0.
0.638024 0.0329971 0.
0.640026 0.0329974 0.
0.642027 0.0329976 0.
0.644029 0.0329978 0.
0.64603 0.0329976 0.
0.648031 0.0329974 0.
0.650033 0.0329971 0.
0.652034 0.0329978 0.
0.654035 0.0329986 0.
0.656036 0.0329991 0.
0.658038 0.0329992 0.
0.660039 0.0329992 0.
0.66204 0.0329993 0.
0.664041 0.0329995 0.
0.666043 0.0329997 0.
0.668044 0.0330001 0.
0.670045 0.0330007 0.
0.672046 0.0330012 0.
0.674048 0.0330016 0.
0.676049 0.0330019 0.
0.67805 0.0330023 0.
0.680052 0.033003 0.
0.682053 0.0330037 0.
0.684054 0.0330046 0.
0.686055 0.0330061 0.
0.688056 0.0330076 0.
0.690056 0.033009 0.
0.692057 0.0330102 0.
0.694058 0.0330114 0.
0.696058 0.0330132 0.
0.698059 0.033015 0.
0.499942 0.0350146 0.
0.501943 0.0350127 0.
0.503944 0.0350112 0.
0.505946 0.0350098 0.
0.507947 0.035009 0.
0.509947 0.0350082 0.
0.511948 0.0350071 0.
0.51395 0.0350054 0.
0.515951 0.0350037 0.
0.517952 0.035003 0.
0.519953 0.0350029 0.
0.521954 0.0350027 0.
0.523955 0.0350022 0.
0.525956 0.0350017 0.
0.527958 0.0350011 0.
0.529959 0.0350004 0.
0.531961 0.0349998 0.
0.533962 0.0349993 0.
0.535963 0.0349996 0.
0.537964 0.0349998 0.
0.539966 0.0349993 0.
0.541967 0.0349984 0.
0.543969 0.0349974 0.
0.54597 0.0349972 0.
0.547971 0.0349972 0.
0.549972 0.0349972 0.
0.551974 0.0349967 0.
0.553975 0.0349963 0.
0.555976 0.0349958 0.
0.557977 0.0349957 0.
0.559978 0.0349955 0.
0.561979 0.0349954 0.
0.56398 0.0349952 0.
0.565981 0.034995 0.
0.567982 0.0349948 0.
0.569983 0.0349947 0.
0.571984 0.0349946 0.
0.573986 0.034995 0.
0.575987 0.0349956 0.
0.577989 0.0349959 0.
0.57999 0.0349945 0.
0.581991 0.0349932 0.
0.583992 0.0349925 0.
0.585993 0.0349933 0.
0.587994 0.0349941 0.
0.589995 0.0349939 0.
0.591996 0.034993 0.
0.593997 0.034992 0.
0.595998 0.0349921 0.
0.597999 0.0349925 0.
0.6 0.0349929 0.
0.602002 0.0349932 0.
0.604004 0.0349935 0.
0.606005 0.0349935 0.
0.608006 0.0349926 0.
0.610007 0.0349917 0.
0.612008 0.0349914 0.
0.61401 0.0349919 0.
0.616011 0.0349924 0.
0.618012 0.0349927 0.
0.620014 0.0349929 0.
0.622015 0.0349931 0.
0.624016 0.0349935 0.
0.626017 0.0349939 0.
0.628018 0.0349943 0.
0.630019 0.0349948 0.
0.632021 0.0349953 0.
0.634022 0.0349958 0.
0.636023 0.034996 0.
0.638023 0.0349963 0.
0.640025 0.0349966 0.
0.642026 0.0349968 0.
0.644027 0.034997 0.
0.646029 0.0349968 0.
0.64803 0.0349965 0.
0.650032 0.0349962 0.
0.652033 0.0349972 0.
0.654034 0.0349982 0.
0.656035 0.0349989 0.
0.658036 0.0349987 0.
0.660037 0.0349984 0.
0.662039 0.0349985 0.
0.66404 0.0349988 0.
0.666041 0.0349992 0.
0.668042 0.0349995 0.
0.670043 0.0349998 0.
0.672044 0.0350001 0.
0.674046 0.0350008 0.
0.676047 0.0350015 0.
0.678049 0.0350023 0.
0.68005 0.0350031 0.
0.682051 0.0350039 0.
0.684052 0.0350049 0.
0.686053 0.0350064 0.
0.688054 0.0350079 0.
0.690055 0.0350092 0.
0.692055 0.0350104 0.
0.694055 0.0350116 0.
0.696056 0.0350132 0.
0.698056 0.0350148 0.
0.499945 0.0370148 0.
0.501945 0.0370129 0.
0.503946 0.0370112 0.
0.505947 0.0370097 0.
0.507948 0.0370084 0.
0.509949 0.0370071 0.
0.51195 0.0370059 0.
0.513952 0.0370048 0.
0.515953 0.0370037 0.
0.517954 0.0370029 0.
0.519955 0.0370023 0.
0.521956 0.0370016 0.
0.523957 0.0370012 0.
0.525958 0.0370008 0.
0.527959 0.0370003 0.
0.529961 0.0369996 0.
0.531962 0.0369989 0.
0.533964 0.0369984 0.
0.535965 0.0369985 0.
0.537966 0.0369985 0.
0.539967 0.0369981 0.
0.541968 0.0369973 0.
0.54397 0.0369965 0.
0.545971 0.0369963 0.
0.547973 0.0369961 0.
0.549974 0.036996 0.
0.551975 0.0369957 0.
0.553977 0.0369953 0.
0.555978 0.036995 0.
0.557979 0.0369949 0.
0.559979 0.0369948 0.
0.56198 0.0369946 0.
0.563982 0.0369943 0.
0.565983 0.0369941 0.
0.567984 0.0369939 0.
0.569985 0.0369937 0.
0.571986 0.0369935 0.
0.573987 0.0369937 0.
0.575988 0.0369939 0.
0.577989 0.0369939 0.
0.57999 0.0369932 0.
0.581991 0.0369926 0.
0.583992 0.0369922 0.
0.585993 0.0369926 0.
0.587994 0.036993 0.
0.589995 0.0369928 0.
0.591996 0.0369921 0.
0.593997 0.0369913 0.
0.595998 0.0369913 0.
0.597999 0.0369914 0.
0.6 0.0369915 0.
0.602002 0.0369918 0.
0.604004 0.0369921 0.
0.606005 0.0369922 0.
0.608006 0.0369916 0.
0.610007 0.0369909 0.
0.612008 0.0369907 0.
0.614009 0.036991 0.
0.616011 0.0369914 0.
0.618012 0.0369917 0.
0.620013 0.0369921 0.
0.622014 0.0369924 0.
0.624015 0.0369927 0.
0.626016 0.036993 0.
0.628017 0.0369933 0.
0.630018 0.0369939 0.
0.632019 0.0369944 0.
0.63402 0.0369948 0.
0.636021 0.0369948 0.
0.638022 0.0369949 0.
0.640023 0.0369952 0.
0.642024 0.0369956 0.
0.644026 0.0369961 0.
0.646027 0.0369957 0.
0.648029 0.0369951 0.
0.65003 0.0369946 0.
0.652031 0.0369956 0.
0.654032 0.0369966 0.
0.656033 0.0369974 0.
0.658035 0.0369977 0.
0.660036 0.036998 0.
0.662037 0.0369982 0.
0.664038 0.0369985 0.
0.666039 0.0369987 0.
0.668041 0.036999 0.
0.670042 0.0369993 0.
0.672043 0.0369995 0.
0.674044 0.0370001 0.
0.676046 0.0370008 0.
0.678047 0.0370015 0.
0.680048 0.0370027 0.
0.682049 0.0370039 0.
0.68405 0.0370051 0.
0.686051 0.0370063 0.
0.688052 0.0370076 0.
0.690053 0.037009 0.
0.692053 0.0370105 0.
0.694054 0.037012 0.
0.696054 0.0370134 0.
0.698055 0.0370147 0.
0.499947 0.039015 0.
0.501948 0.0390131 0.
0.503948 0.0390113 0.
0.505949 0.0390096 0.
0.50795 0.0390078 0.
0.509951 0.0390061 0.
0.511952 0.0390048 0.
0.513954 0.0390043 0.
0.515955 0.0390038 0.
0.517956 0.0390028 0.
0.519956 0.0390016 0.
0.521957 0.0390004 0.
0.523958 0.0390001 0.
0.52596 0.0389999 0.
0.527961 0.0389996 0.
0.529962 0.0389988 0.
0.531964 0.038998 0.
0.533965 0.0389974 0.
0.535966 0.0389974 0.
0.537967 0.0389973 0.
0.539968 0.038997 0.
0.54197 0.0389963 0.
0.543971 0.0389956 0.
0.545973 0.0389953 0.
0.547974 0.0389951 0.
0.549976 0.0389949 0.
0.551977 0.0389946 0.
0.553978 0.0389944 0.
0.555979 0.0389942 0.
0.55798 0.0389941 0.
0.559981 0.038994 0.
0.561982 0.0389938 0.
0.563983 0.0389935 0.
0.565984 0.0389932 0.
0.567985 0.0389929 0.
0.569986 0.0389927 0.
0.571987 0.0389925 0.
0.573988 0.0389923 0.
0.575988 0.0389921 0.
0.577989 0.038992 0.
0.57999 0.0389919 0.
0.581991 0.0389919 0.
0.583992 0.0389919 0.
0.585993 0.0389919 0.
0.587995 0.0389919 0.
0.589996 0.0389917 0.
0.591996 0.0389912 0.
0.593997 0.0389907 0.
0.595998 0.0389904 0.
0.597999 0.0389902 0.
0.6 0.03899 0.
0.602002 0.0389904 0.
0.604004 0.0389908 0.
0.606005 0.038991 0.
0.608006 0.0389906 0.
0.610007 0.0389902 0.
0.612008 0.03899 0.
0.614009 0.0389902 0.
0.61601 0.0389903 0.
0.618011 0.0389907 0.
0.620012 0.0389912 0.
0.622013 0.0389918 0.
0.624014 0.0389919 0.
0.626015 0.0389921 0.
0.628015 0.0389922 0.
0.630016 0.0389929 0.
0.632017 0.0389935 0.
0.634018 0.0389939 0.
0.636019 0.0389937 0.
0.63802 0.0389935 0.
0.640021 0.0389938 0.
0.642023 0.0389945 0.
0.644024 0.0389952 0.
0.646026 0.0389946 0.
0.648027 0.0389938 0.
0.650029 0.0389929 0.
0.65203 0.038994 0.
0.654031 0.038995 0.
0.656032 0.0389959 0.
0.658034 0.0389967 0.
0.660035 0.0389975 0.
0.662036 0.038998 0.
0.664037 0.0389981 0.
0.666038 0.0389983 0.
0.668039 0.0389984 0.
0.67004 0.0389987 0.
0.672041 0.0389989 0.
0.674043 0.0389995 0.
0.676045 0.039 0.
0.678046 0.0390007 0.
0.680047 0.0390023 0.
0.682048 0.0390039 0.
0.684049 0.0390052 0.
0.68605 0.0390063 0.
0.68805 0.0390073 0.
0.690051 0.0390088 0.
0.692051 0.0390106 0.
0.694052 0.0390124 0.
0.696053 0.0390135 0.
0.698054 0.0390145 0.
0.499949 0.0410152 0.
0.50195 0.0410131 0.
0.50395 0.0410111 0.
0.505951 0.0410092 0.
0.507952 0.0410073 0.
0.509953 0.0410055 0.
0.511954 0.0410043 0.
0.513955 0.0410039 0.
0.515956 0.0410035 0.
0.517957 0.0410025 0.
0.519958 0.0410011 0.
0.521959 0.0409997 0.
0.52396 0.0409992 0.
0.525961 0.0409989 0.
0.527963 0.0409986 0.
0.529964 0.0409979 0.
0.531965 0.0409973 0.
0.533966 0.0409968 0.
0.535967 0.0409966 0.
0.537968 0.0409965 0.
0.539969 0.040996 0.
0.541971 0.0409954 0.
0.543972 0.0409947 0.
0.545973 0.0409944 0.
0.547975 0.0409942 0.
0.549976 0.040994 0.
0.551978 0.0409938 0.
0.553979 0.0409935 0.
0.55598 0.0409933 0.
0.557981 0.0409933 0.
0.559982 0.0409932 0.
0.561983 0.040993 0.
0.563984 0.0409927 0.
0.565985 0.0409924 0.
0.567986 0.0409921 0.
0.569987 0.0409918 0.
0.571988 0.0409915 0.
0.573988 0.0409912 0.
0.575989 0.040991 0.
0.577989 0.0409908 0.
0.57999 0.0409911 0.
0.581991 0.0409913 0.
0.583992 0.0409914 0.
0.585993 0.0409913 0.
0.587995 0.0409911 0.
0.589996 0.0409909 0.
0.591996 0.0409905 0.
0.593997 0.0409902 0.
0.595998 0.0409898 0.
0.597999 0.0409895 0.
0.6 0.0409891 0.
0.602002 0.0409893 0.
0.604004 0.0409896 0.
0.606005 0.0409897 0.
0.608006 0.0409895 0.
0.610007 0.0409892 0.
0.612008 0.0409892 0.
0.614009 0.0409893 0.
0.61601 0.0409894 0.
0.61801 0.0409899 0.
0.620011 0.0409906 0.
0.622012 0.0409912 0.
0.624013 0.0409913 0.
0.626014 0.0409913 0.
0.628014 0.0409914 0.
0.630015 0.040992 0.
0.632016 0.0409927 0.
0.634017 0.0409929 0.
0.636018 0.0409926 0.
0.638019 0.0409923 0.
0.64002 0.0409926 0.
0.642022 0.0409934 0.
0.644023 0.0409942 0.
0.646024 0.0409937 0.
0.648026 0.0409928 0.
0.650028 0.040992 0.
0.652029 0.0409929 0.
0.65403 0.0409938 0.
0.656031 0.0409947 0.
0.658032 0.0409957 0.
0.660034 0.0409968 0.
0.662035 0.0409974 0.
0.664036 0.0409976 0.
0.666036 0.0409978 0.
0.668038 0.0409981 0.
0.670039 0.0409983 0.
0.67204 0.0409985 0.
0.674042 0.040999 0.
0.676043 0.0409995 0.
0.678045 0.0410001 0.
0.680045 0.0410018 0.
0.682046 0.0410036 0.
0.684047 0.0410051 0.
0.686048 0.0410061 0.
0.688049 0.0410071 0.
0.690049 0.0410086 0.
0.69205 0.0410104 0.
0.694051 0.0410122 0.
0.696052 0.0410135 0.
0.698053 0.0410145 0.
0.499951 0.0430153 0.
0.501952 0.0430129 0.
0.503952 0.0430106 0.
0.505953 0.0430085 0.
0.507954 0.043007 0.
0.509955 0.0430055 0.
0.511956 0.0430043 0.
0.513957 0.0430036 0.
0.515958 0.043003 0.
0.517959 0.0430019 0.
0.51996 0.0430005 0.
0.52196 0.0429992 0.
0.523961 0.0429985 0.
0.525963 0.0429979 0.
0.527964 0.0429973 0.
0.529965 0.042997 0.
0.531966 0.0429967 0.
0.533967 0.0429964 0.
0.535968 0.0429962 0.
0.537969 0.042996 0.
0.53997 0.0429954 0.
0.541971 0.0429946 0.
0.543973 0.0429937 0.
0.545974 0.0429935 0.
0.547975 0.0429934 0.
0.549976 0.0429934 0.
0.551978 0.0429931 0.
0.553979 0.0429928 0.
0.55598 0.0429925 0.
0.557981 0.0429924 0.
0.559982 0.0429924 0.
0.561983 0.0429922 0.
0.563984 0.0429921 0.
0.565985 0.0429919 0.
0.567986 0.0429915 0.
0.569987 0.0429909 0.
0.571988 0.0429904 0.
0.573988 0.0429904 0.
0.575989 0.0429905 0.
0.57799 0.0429906 0.
0.57999 0.0429906 0.
0.581991 0.0429906 0.
0.583992 0.0429907 0.
0.585993 0.0429906 0.
0.587995 0.0429906 0.
0.589996 0.0429904 0.
0.591997 0.0429901 0.
0.593997 0.0429898 0.
0.595998 0.0429895 0.
0.597999 0.0429892 0.
0.6 0.0429888 0.
0.602002 0.0429887 0.
0.604004 0.0429886 0.
0.606006 0.0429885 0.
0.608006 0.0429883 0.
0.610007 0.0429881 0.
0.612007 0.0429881 0.
0.614008 0.0429884 0.
0.616009 0.0429888 0.
0.618009 0.0429893 0.
0.62001 0.04299 0.
0.622011 0.0429907 0.
0.624012 0.0429908 0.
0.626013 0.0429908 0.
0.628014 0.0429908 0.
0.630015 0.0429913 0.
0.632016 0.0429918 0.
0.634016 0.042992 0.
0.636017 0.0429917 0.
0.638018 0.0429914 0.
0.640019 0.0429917 0.
0.64202 0.0429924 0.
0.644022 0.0429931 0.
0.646023 0.0429929 0.
0.648025 0.0429923 0.
0.650027 0.0429918 0.
0.652028 0.0429923 0.
0.654029 0.0429929 0.
0.65603 0.0429936 0.
0.658031 0.0429947 0.
0.660032 0.0429958 0.
0.662033 0.0429965 0.
0.664034 0.042997 0.
0.666035 0.0429975 0.
0.668036 0.0429978 0.
0.670037 0.042998 0.
0.672038 0.0429983 0.
0.67404 0.0429987 0.
0.676041 0.0429991 0.
0.678043 0.0429997 0.
0.680044 0.0430014 0.
0.682045 0.0430031 0.
0.684046 0.0430046 0.
0.686046 0.0430058 0.
0.688047 0.043007 0.
0.690048 0.0430084 0.
0.692049 0.04301 0.
0.69405 0.0430115 0.
0.696051 0.0430131 0.
0.698051 0.0430147 0.
0.499953 0.0450154 0.
0.501954 0.0450127 0.
0.503954 0.0450101 0.
0.505954 0.0450078 0.
0.507955 0.0450066 0.
0.509956 0.0450054 0.
0.511957 0.0450043 0.
0.513958 0.0450034 0.
0.515959 0.0450024 0.
0.51796 0.0450012 0.
0.519961 0.045 0.
0.521962 0.0449988 0.
0.523963 0.0449978 0.
0.525964 0.0449969 0.
0.527965 0.044996 0.
0.529966 0.0449961 0.
0.531967 0.0449962 0.
0.533968 0.0449961 0.
0.535969 0.0449958 0.
0.53797 0.0449954 0.
0.539971 0.0449948 0.
0.541972 0.0449938 0.
0.543973 0.0449928 0.
0.545974 0.0449926 0.
0.547975 0.0449926 0.
0.549976 0.0449927 0.
0.551978 0.0449924 0.
0.553979 0.044992 0.
0.55598 0.0449917 0.
0.557981 0.0449916 0.
0.559982 0.0449915 0.
0.561983 0.0449915 0.
0.563984 0.0449914 0.
0.565985 0.0449913 0.
0.567986 0.0449908 0.
0.569987 0.0449901 0.
0.571987 0.0449894 0.
0.573988 0.0449896 0.
0.575989 0.04499 0.
0.57799 0.0449903 0.
0.579991 0.0449901 0.
0.581991 0.04499 0.
0.583992 0.0449899 0.
0.585993 0.04499 0.
0.587995 0.04499 0.
0.589996 0.0449899 0.
0.591997 0.0449897 0.
0.593998 0.0449895 0.
0.595999 0.0449892 0.
0.598 0.0449888 0.
0.6 0.0449885 0.
0.602002 0.044988 0.
0.604004 0.0449876 0.
0.606006 0.0449872 0.
0.608006 0.0449871 0.
0.610007 0.044987 0.
0.612007 0.0449871 0.
0.614008 0.0449876 0.
0.616008 0.0449881 0.
0.618009 0.0449888 0.
0.620009 0.0449895 0.
0.62201 0.0449902 0.
0.624011 0.0449902 0.
0.626012 0.0449902 0.
0.628013 0.0449902 0.
0.630014 0.0449906 0.
0.632015 0.044991 0.
0.634016 0.0449911 0.
0.636017 0.0449908 0.
0.638017 0.0449906 0.
0.640018 0.0449908 0.
0.642019 0.0449914 0.
0.64402 0.044992 0.
0.646022 0.044992 0.
0.648024 0.0449918 0.
0.650025 0.0449915 0.
0.652026 0.0449918 0.
0.654027 0.0449921 0.
0.656028 0.0449926 0.
0.658029 0.0449937 0.
0.660031 0.0449947 0.
0.662032 0.0449956 0.
0.664033 0.0449964 0.
0.666034 0.0449971 0.
0.668035 0.0449975 0.
0.670036 0.0449978 0.
0.672037 0.044998 0.
0.674038 0.0449984 0.
0.676039 0.0449988 0.
0.678041 0.0449993 0.
0.680042 0.045001 0.
0.682043 0.0450026 0.
0.684044 0.0450042 0.
0.686045 0.0450055 0.
0.688046 0.0450069 0.
0.690047 0.0450082 0.
0.692048 0.0450095 0.
0.694049 0.0450108 0.
0.696049 0.0450128 0.
0.69805 0.0450149 0.
0.499955 0.0470149 0.
0.501955 0.0470123 0.
0.503956 0.0470098 0.
0.505956 0.0470076 0.
0.507957 0.0470063 0.
0.509958 0.047005 0.
0.511959 0.0470038 0.
0.51396 0.0470028 0.
0.515961 0.0470019 0.
0.517962 0.0470008 0.
0.519963 0.0469996 0.
0.521964 0.0469985 0.
0.523965 0.0469975 0.
0.525966 0.0469964 0.
0.527967 0.0469954 0.
0.529968 0.0469954 0.
0.531969 0.0469953 0.
0.53397 0.0469951 0.
0.53597 0.046995 0.
0.537971 0.0469948 0.
0.539972 0.0469941 0.
0.541973 0.0469929 0.
0.543975 0.0469917 0.
0.545976 0.0469915 0.
0.547977 0.0469917 0.
0.549978 0.0469919 0.
0.551979 0.0469915 0.
0.55398 0.0469911 0.
0.555981 0.0469907 0.
0.557982 0.0469907 0.
0.559983 0.0469906 0.
0.561984 0.0469904 0.
0.563985 0.0469902 0.
0.565986 0.0469899 0.
0.567987 0.0469895 0.
0.569988 0.046989 0.
0.571988 0.0469886 0.
0.573989 0.0469887 0.
0.57599 0.046989 0.
0.577991 0.0469892 0.
0.579991 0.046989 0.
0.581992 0.0469889 0.
0.583993 0.0469888 0.
0.585994 0.0469887 0.
0.587995 0.0469887 0.
0.589996 0.0469887 0.
0.591997 0.0469888 0.
0.593998 0.0469888 0.
0.595999 0.0469884 0.
0.598 0.0469879 0.
0.600001 0.0469874 0.
0.602002 0.0469871 0.
0.604003 0.0469868 0.
0.606005 0.0469865 0.
0.608005 0.0469864 0.
0.610006 0.0469862 0.
0.612006 0.0469863 0.
0.614007 0.0469866 0.
0.616008 0.046987 0.
0.618008 0.0469878 0.
0.620009 0.0469887 0.
0.62201 0.0469897 0.
0.624011 0.0469897 0.
0.626012 0.0469896 0.
0.628013 0.0469896 0.
0.630013 0.0469895 0.
0.632014 0.0469895 0.
0.634015 0.0469894 0.
0.636016 0.0469895 0.
0.638017 0.0469895 0.
0.640018 0.0469899 0.
0.642019 0.0469904 0.
0.64402 0.046991 0.
0.646022 0.046991 0.
0.648023 0.046991 0.
0.650025 0.0469909 0.
0.652026 0.0469914 0.
0.654027 0.0469918 0.
0.656028 0.0469923 0.
0.658029 0.0469931 0.
0.66003 0.0469938 0.
0.662031 0.0469946 0.
0.664032 0.0469954 0.
0.666033 0.0469962 0.
0.668034 0.0469968 0.
0.670035 0.0469973 0.
0.672035 0.0469978 0.
0.674037 0.0469982 0.
0.676038 0.0469985 0.
0.678039 0.046999 0.
0.68004 0.0470007 0.
0.682041 0.0470023 0.
0.684042 0.0470039 0.
0.686042 0.0470054 0.
0.688043 0.0470068 0.
0.690044 0.0470083 0.
0.692045 0.0470097 0.
0.694046 0.0470111 0.
0.696047 0.0470131 0.
0.698048 0.0470153 0.
0.499956 0.0490145 0.
0.501957 0.049012 0.
0.503958 0.0490096 0.
0.505958 0.0490074 0.
0.507959 0.049006 0.
0.50996 0.0490045 0.
0.511961 0.0490032 0.
0.513962 0.0490023 0.
0.515963 0.0490014 0.
0.517963 0.0490004 0.
0.519964 0.0489993 0.
0.521965 0.0489982 0.
0.523966 0.0489971 0.
0.525968 0.0489959 0.
0.527969 0.0489949 0.
0.52997 0.0489946 0.
0.53197 0.0489944 0.
0.533971 0.0489942 0.
0.535972 0.0489942 0.
0.537973 0.0489942 0.
0.539974 0.0489934 0.
0.541975 0.048992 0.
0.543976 0.0489906 0.
0.545977 0.0489905 0.
0.547978 0.0489908 0.
0.549979 0.0489911 0.
0.55198 0.0489906 0.
0.55398 0.0489901 0.
0.555981 0.0489897 0.
0.557982 0.0489897 0.
0.559983 0.0489897 0.
0.561984 0.0489894 0.
0.563985 0.0489889 0.
0.565987 0.0489884 0.
0.567988 0.0489881 0.
0.569989 0.048988 0.
0.57199 0.0489878 0.
0.57399 0.0489878 0.
0.57599 0.048988 0.
0.577991 0.048988 0.
0.579992 0.0489879 0.
0.581993 0.0489877 0.
0.583994 0.0489876 0.
0.585995 0.0489875 0.
0.587996 0.0489874 0.
0.589997 0.0489875 0.
0.591998 0.0489878 0.
0.593999 0.0489881 0.
0.596 0.0489876 0.
0.598 0.0489869 0.
0.600001 0.0489863 0.
0.602002 0.0489862 0.
0.604003 0.0489861 0.
0.606004 0.0489859 0.
0.608004 0.0489857 0.
0.610005 0.0489854 0.
0.612006 0.0489854 0.
0.614006 0.0489856 0.
0.616007 0.0489859 0.
0.618008 0.0489868 0.
0.620009 0.0489879 0.
0.62201 0.0489891 0.
0.62401 0.0489892 0.
0.626011 0.0489891 0.
0.628012 0.048989 0.
0.630013 0.0489885 0.
0.632013 0.048988 0.
0.634014 0.0489878 0.
0.636015 0.0489881 0.
0.638016 0.0489884 0.
0.640017 0.0489889 0.
0.642019 0.0489894 0.
0.64402 0.0489899 0.
0.646021 0.0489901 0.
0.648023 0.0489902 0.
0.650024 0.0489903 0.
0.652025 0.0489909 0.
0.654026 0.0489915 0.
0.656027 0.048992 0.
0.658028 0.0489925 0.
0.660029 0.0489929 0.
0.66203 0.0489935 0.
0.664031 0.0489944 0.
0.666032 0.0489953 0.
0.668032 0.0489961 0.
0.670033 0.0489968 0.
0.672034 0.0489976 0.
0.674035 0.0489979 0.
0.676036 0.0489982 0.
0.678037 0.0489987 0.
0.680038 0.0490004 0.
0.682039 0.049002 0.
0.684039 0.0490036 0.
0.68604 0.0490052 0.
0.688041 0.0490067 0.
0.690042 0.0490083 0.
0.692043 0.0490098 0.
0.694044 0.0490114 0.
0.696045 0.0490135 0.
0.698046 0.0490157 0.
0.499958 0.0510144 0.
0.501959 0.0510117 0.
0.50396 0.0510093 0.
0.50596 0.0510071 0.
0.507961 0.0510056 0.
0.509962 0.0510042 0.
0.511963 0.0510029 0.
0.513964 0.0510018 0.
0.515964 0.0510008 0.
0.517965 0.0509997 0.
0.519966 0.0509987 0.
0.521967 0.0509977 0.
0.523968 0.0509965 0.
0.525969 0.0509954 0.
0.527971 0.0509943 0.
0.529971 0.050994 0.
0.531972 0.0509937 0.
0.533973 0.0509935 0.
0.535974 0.0509933 0.
0.537975 0.0509932 0.
0.539975 0.0509924 0.
0.541976 0.0509912 0.
0.543977 0.0509899 0.
0.545978 0.0509898 0.
0.547979 0.0509901 0.
0.54998 0.0509903 0.
0.551981 0.0509898 0.
0.553981 0.0509894 0.
0.555982 0.050989 0.
0.557983 0.0509889 0.
0.559984 0.0509887 0.
0.561985 0.0509884 0.
0.563986 0.050988 0.
0.565988 0.0509875 0.
0.567989 0.0509873 0.
0.56999 0.0509874 0.
0.57199 0.0509874 0.
0.573991 0.0509873 0.
0.575991 0.0509873 0.
0.577992 0.0509872 0.
0.579993 0.0509869 0.
0.581994 0.0509867 0.
0.583995 0.0509865 0.
0.585995 0.0509865 0.
0.587996 0.0509865 0.
0.589997 0.0509866 0.
0.591998 0.050987 0.
0.593999 0.0509873 0.
0.596 0.0509869 0.
0.598001 0.0509862 0.
0.600001 0.0509855 0.
0.602002 0.0509853 0.
0.604003 0.0509852 0.
0.606004 0.050985 0.
0.608004 0.0509849 0.
0.610005 0.0509847 0.
0.612005 0.0509848 0.
0.614006 0.050985 0.
0.616007 0.0509853 0.
0.618008 0.0509861 0.
0.620009 0.0509871 0.
0.622009 0.0509882 0.
0.62401 0.0509882 0.
0.626011 0.0509881 0.
0.628012 0.050988 0.
0.630012 0.0509874 0.
0.632013 0.0509869 0.
0.634014 0.0509867 0.
0.636015 0.0509871 0.
0.638016 0.0509875 0.
0.640017 0.050988 0.
0.642018 0.0509885 0.
0.644019 0.050989 0.
0.646021 0.0509894 0.
0.648022 0.0509896 0.
0.650023 0.0509899 0.
0.652024 0.0509905 0.
0.654025 0.0509911 0.
0.656025 0.0509916 0.
0.658026 0.0509919 0.
0.660027 0.0509922 0.
0.662028 0.0509928 0.
0.664029 0.0509937 0.
0.66603 0.0509945 0.
0.668031 0.0509955 0.
0.670032 0.0509965 0.
0.672032 0.0509974 0.
0.674033 0.0509978 0.
0.676034 0.0509981 0.
0.678036 0.0509985 0.
0.680036 0.0510001 0.
0.682037 0.0510017 0.
0.684037 0.0510033 0.
0.686038 0.051005 0.
0.688038 0.0510067 0.
0.690039 0.0510082 0.
0.69204 0.0510096 0.
0.694041 0.0510111 0.
0.696042 0.0510133 0.
0.698043 0.0510156 0.
0.499961 0.0530147 0.
0.501962 0.0530116 0.
0.503962 0.053009 0.
0.505963 0.0530066 0.
0.507963 0.0530054 0.
0.509964 0.0530041 0.
0.511965 0.0530028 0.
0.513965 0.0530015 0.
0.515966 0.0530001 0.
0.517967 0.0529989 0.
0.519968 0.0529978 0.
0.521968 0.0529968 0.
0.52397 0.0529958 0.
0.525971 0.0529948 0.
0.527972 0.0529939 0.
0.529973 0.0529936 0.
0.531974 0.0529933 0.
0.533975 0.0529929 0.
0.535975 0.0529923 0.
0.537976 0.0529916 0.
0.539977 0.052991 0.
0.541977 0.0529903 0.
0.543978 0.0529896 0.
0.545979 0.0529895 0.
0.54798 0.0529896 0.
0.549981 0.0529896 0.
0.551981 0.0529893 0.
0.553982 0.0529889 0.
0.555983 0.0529885 0.
0.557984 0.0529881 0.
0.559985 0.0529877 0.
0.561986 0.0529874 0.
0.563988 0.0529872 0.
0.565989 0.052987 0.
0.567989 0.0529871 0.
0.56999 0.0529872 0.
0.571991 0.0529874 0.
0.573992 0.0529872 0.
0.575992 0.0529869 0.
0.577992 0.0529866 0.
0.579993 0.0529862 0.
0.581994 0.0529858 0.
0.583995 0.0529855 0.
0.585996 0.0529857 0.
0.587997 0.0529859 0.
0.589997 0.0529861 0.
0.591998 0.0529864 0.
0.593999 0.0529866 0.
0.596 0.0529862 0.
0.598001 0.0529856 0.
0.600002 0.052985 0.
0.602002 0.0529846 0.
0.604003 0.0529843 0.
0.606004 0.052984 0.
0.608005 0.052984 0.
0.610005 0.052984 0.
0.612006 0.0529843 0.
0.614006 0.0529848 0.
0.616007 0.0529853 0.
0.618008 0.0529858 0.
0.620008 0.0529863 0.
0.622009 0.0529868 0.
0.62401 0.0529868 0.
0.626011 0.0529867 0.
0.628011 0.0529866 0.
0.630012 0.0529864 0.
0.632013 0.0529862 0.
0.634014 0.0529862 0.
0.636015 0.0529865 0.
0.638015 0.0529868 0.
0.640016 0.0529873 0.
0.642018 0.0529879 0.
0.644019 0.0529884 0.
0.64602 0.0529889 0.
0.648021 0.0529893 0.
0.650022 0.0529898 0.
0.652023 0.0529902 0.
0.654023 0.0529907 0.
0.656024 0.0529911 0.
0.658025 0.0529915 0.
0.660026 0.0529918 0.
0.662027 0.0529923 0.
0.664028 0.0529931 0.
0.666028 0.0529938 0.
0.668029 0.0529949 0.
0.67003 0.0529962 0.
0.67203 0.0529974 0.
0.674031 0.0529978 0.
0.676032 0.0529981 0.
0.678034 0.0529985 0.
0.680034 0.0529999 0.
0.682035 0.0530013 0.
0.684036 0.0530028 0.
0.686036 0.0530047 0.
0.688036 0.0530066 0.
0.690037 0.053008 0.
0.692038 0.0530091 0.
0.694039 0.0530102 0.
0.69604 0.0530125 0.
0.69804 0.0530151 0.
0.499964 0.0550149 0.
0.501964 0.0550115 0.
0.503964 0.0550086 0.
0.505965 0.0550061 0.
0.507965 0.0550051 0.
0.509966 0.055004 0.
0.511966 0.0550027 0.
0.513967 0.0550011 0.
0.515968 0.0549994 0.
0.517969 0.0549981 0.
0.51997 0.054997 0.
0.52197 0.0549959 0.
0.523971 0.0549951 0.
0.525973 0.0549943 0.
0.527974 0.0549935 0.
0.529975 0.0549932 0.
0.531975 0.0549929 0.
0.533976 0.0549923 0.
0.535977 0.0549912 0.
0.537978 0.0549901 0.
0.539978 0.0549895 0.
0.541979 0.0549894 0.
0.543979 0.0549894 0.
0.54598 0.0549892 0.
0.54798 0.0549891 0.
0.549981 0.0549889 0.
0.551982 0.0549887 0.
0.553983 0.0549884 0.
0.555984 0.054988 0.
0.557986 0.0549874 0.
0.559987 0.0549867 0.
0.561988 0.0549863 0.
0.563989 0.0549864 0.
0.565989 0.0549865 0.
0.56799 0.0549868 0.
0.569991 0.0549871 0.
0.571992 0.0549875 0.
0.573992 0.0549871 0.
0.575993 0.0549866 0.
0.577993 0.0549861 0.
0.579994 0.0549855 0.
0.581995 0.0549848 0.
0.583996 0.0549845 0.
0.585997 0.054985 0.
0.587997 0.0549854 0.
0.589998 0.0549857 0.
0.591999 0.0549858 0.
0.594 0.0549859 0.
0.596 0.0549855 0.
0.598001 0.054985 0.
0.600002 0.0549845 0.
0.602003 0.0549839 0.
0.604004 0.0549833 0.
0.606005 0.0549829 0.
0.608005 0.0549832 0.
0.610005 0.0549834 0.
0.612006 0.0549839 0.
0.614006 0.0549846 0.
0.616007 0.0549853 0.
0.618007 0.0549856 0.
0.620008 0.0549856 0.
0.622009 0.0549855 0.
0.62401 0.0549854 0.
0.62601 0.0549854 0.
0.628011 0.0549853 0.
0.630012 0.0549854 0.
0.632013 0.0549855 0.
0.634014 0.0549857 0.
0.636014 0.0549859 0.
0.638015 0.0549861 0.
0.640016 0.0549866 0.
0.642017 0.0549872 0.
0.644018 0.0549878 0.
0.646019 0.0549884 0.
0.64802 0.054989 0.
0.650021 0.0549896 0.
0.652021 0.0549899 0.
0.654022 0.0549902 0.
0.656023 0.0549906 0.
0.658024 0.054991 0.
0.660025 0.0549914 0.
0.662025 0.0549919 0.
0.664026 0.0549925 0.
0.666027 0.0549932 0.
0.668027 0.0549944 0.
0.670028 0.0549959 0.
0.672028 0.0549973 0.
0.674029 0.0549978 0.
0.676031 0.0549981 0.
0.678032 0.0549985 0.
0.680033 0.0549997 0.
0.682033 0.0550009 0.
0.684034 0.0550024 0.
0.686034 0.0550044 0.
0.688034 0.0550065 0.
0.690035 0.0550079 0.
0.692036 0.0550086 0.
0.694037 0.0550094 0.
0.696037 0.0550117 0.
0.698038 0.0550146 0.
0.499966 0.0570139 0.
0.501966 0.0570114 0.
0.503966 0.057009 0.
0.505967 0.0570069 0.
0.507967 0.0570055 0.
0.509968 0.0570042 0.
0.511969 0.0570026 0.
0.51397 0.0570007 0.
0.51597 0.0569988 0.
0.517971 0.0569975 0.
0.519972 0.0569963 0.
0.521972 0.0569952 0.
0.523973 0.0569944 0.
0.525974 0.0569937 0.
0.527975 0.056993 0.
0.529976 0.0569925 0.
0.531977 0.056992 0.
0.533978 0.0569914 0.
0.535979 0.0569905 0.
0.537979 0.0569895 0.
0.53998 0.056989 0.
0.54198 0.0569888 0.
0.543981 0.0569886 0.
0.545981 0.0569883 0.
0.547982 0.056988 0.
0.549983 0.0569877 0.
0.551984 0.0569874 0.
0.553984 0.0569871 0.
0.555985 0.0569867 0.
0.557986 0.0569862 0.
0.559987 0.0569857 0.
0.561988 0.0569855 0.
0.563989 0.0569857 0.
0.56599 0.0569859 0.
0.567991 0.0569861 0.
0.569992 0.0569862 0.
0.571993 0.0569863 0.
0.573993 0.056986 0.
0.575994 0.0569856 0.
0.577994 0.0569852 0.
0.579995 0.0569846 0.
0.581995 0.056984 0.
0.583996 0.0569837 0.
0.585997 0.0569842 0.
0.587997 0.0569847 0.
0.589998 0.056985 0.
0.591999 0.0569851 0.
0.594 0.0569853 0.
0.596 0.0569848 0.
0.598001 0.0569842 0.
0.600002 0.0569836 0.
0.602003 0.0569833 0.
0.604003 0.056983 0.
0.606004 0.0569828 0.
0.608004 0.0569828 0.
0.610005 0.0569828 0.
0.612005 0.0569831 0.
0.614006 0.0569839 0.
0.616006 0.0569847 0.
0.618007 0.056985 0.
0.620008 0.056985 0.
0.622008 0.056985 0.
0.624009 0.0569849 0.
0.626009 0.0569847 0.
0.62801 0.0569846 0.
0.63001 0.0569846 0.
0.632011 0.0569846 0.
0.634012 0.0569848 0.
0.636013 0.0569853 0.
0.638014 0.0569858 0.
0.640014 0.0569863 0.
0.642015 0.0569868 0.
0.644016 0.0569873 0.
0.646017 0.0569877 0.
0.648018 0.0569882 0.
0.65002 0.0569886 0.
0.65202 0.056989 0.
0.654021 0.0569893 0.
0.656022 0.0569897 0.
0.658022 0.0569902 0.
0.660023 0.0569907 0.
0.662024 0.0569912 0.
0.664025 0.0569918 0.
0.666025 0.0569925 0.
0.668026 0.0569935 0.
0.670027 0.0569948 0.
0.672027 0.056996 0.
0.674028 0.0569966 0.
0.676029 0.0569972 0.
0.67803 0.0569978 0.
0.680031 0.0569991 0.
0.682032 0.0570004 0.
0.684032 0.0570021 0.
0.686033 0.0570042 0.
0.688033 0.0570063 0.
0.690034 0.0570078 0.
0.692034 0.0570088 0.
0.694035 0.0570098 0.
0.696036 0.0570123 0.
0.698036 0.057015 0.
0.499967 0.0590131 0.
0.501968 0.0590113 0.
0.503968 0.0590095 0.
0.505969 0.0590077 0.
0.50797 0.059006 0.
0.509971 0.0590043 0.
0.511971 0.0590025 0.
0.513972 0.0590004 0.
0.515972 0.0589983 0.
0.517973 0.0589968 0.
0.519973 0.0589957 0.
0.521974 0.0589945 0.
0.523975 0.0589938 0.
0.525976 0.0589931 0.
0.527977 0.0589924 0.
0.529978 0.0589918 0.
0.531979 0.0589912 0.
0.533979 0.0589905 0.
0.53598 0.0589898 0.
0.537981 0.058989 0.
0.539982 0.0589884 0.
0.541982 0.0589881 0.
0.543983 0.0589878 0.
0.545983 0.0589874 0.
0.547984 0.0589869 0.
0.549985 0.0589865 0.
0.551985 0.0589862 0.
0.553985 0.0589858 0.
0.555986 0.0589854 0.
0.557987 0.0589851 0.
0.559988 0.0589848 0.
0.561989 0.0589847 0.
0.563989 0.058985 0.
0.56599 0.0589854 0.
0.567991 0.0589854 0.
0.569992 0.0589853 0.
0.571993 0.0589851 0.
0.573994 0.0589849 0.
0.575995 0.0589846 0.
0.577995 0.0589842 0.
0.579995 0.0589837 0.
0.581996 0.0589831 0.
0.583996 0.0589829 0.
0.585997 0.0589835 0.
0.587997 0.058984 0.
0.589998 0.0589843 0.
0.591999 0.0589845 0.
0.594 0.0589847 0.
0.596001 0.0589841 0.
0.598001 0.0589834 0.
0.600002 0.0589826 0.
0.602002 0.0589827 0.
0.604003 0.0589827 0.
0.606003 0.0589827 0.
0.608004 0.0589824 0.
0.610004 0.0589822 0.
0.612004 0.0589824 0.
0.614005 0.0589832 0.
0.616006 0.058984 0.
0.618006 0.0589843 0.
0.620007 0.0589844 0.
0.622008 0.0589845 0.
0.624008 0.0589843 0.
0.626008 0.0589841 0.
0.628008 0.0589839 0.
0.630009 0.0589838 0.
0.632009 0.0589836 0.
0.63401 0.0589838 0.
0.636011 0.0589846 0.
0.638012 0.0589854 0.
0.640013 0.058986 0.
0.642014 0.0589864 0.
0.644014 0.0589868 0.
0.646016 0.0589871 0.
0.648017 0.0589873 0.
0.650019 0.0589876 0.
0.652019 0.058988 0.
0.65402 0.0589884 0.
0.65602 0.0589888 0.
0.658021 0.0589894 0.
0.660022 0.05899 0.
0.662023 0.0589905 0.
0.664023 0.0589911 0.
0.666024 0.0589917 0.
0.668025 0.0589926 0.
0.670025 0.0589937 0.
0.672026 0.0589947 0.
0.674027 0.0589955 0.
0.676027 0.0589962 0.
0.678028 0.0589971 0.
0.680029 0.0589985 0.
0.68203 0.059 0.
0.68403 0.0590018 0.
0.686031 0.0590039 0.
0.688032 0.0590061 0.
0.690032 0.0590078 0.
0.692033 0.0590091 0.
0.694034 0.0590103 0.
0.696034 0.0590128 0.
0.698034 0.0590155 0.
0.499969 0.0610128 0.
0.50197 0.061011 0.
0.50397 0.0610093 0.
0.505971 0.0610077 0.
0.507972 0.0610058 0.
0.509973 0.061004 0.
0.511973 0.0610021 0.
0.513974 0.061 0.
0.515974 0.0609979 0.
0.517974 0.0609963 0.
0.519975 0.0609951 0.
0.521976 0.0609938 0.
0.523977 0.0609931 0.
0.525978 0.0609925 0.
0.527978 0.0609919 0.
0.529979 0.0609914 0.
0.53198 0.0609909 0.
0.533981 0.0609903 0.
0.535981 0.0609895 0.
0.537982 0.0609887 0.
0.539983 0.060988 0.
0.541983 0.0609876 0.
0.543984 0.0609871 0.
0.545984 0.0609866 0.
0.547985 0.0609861 0.
0.549986 0.0609857 0.
0.551986 0.0609853 0.
0.553986 0.060985 0.
0.555987 0.0609846 0.
0.557988 0.0609843 0.
0.559989 0.060984 0.
0.56199 0.060984 0.
0.56399 0.0609844 0.
0.565991 0.0609848 0.
0.567991 0.0609848 0.
0.569992 0.0609844 0.
0.571994 0.0609841 0.
0.573994 0.0609839 0.
0.575995 0.0609836 0.
0.577995 0.0609833 0.
0.579996 0.060983 0.
0.581996 0.0609826 0.
0.583996 0.0609826 0.
0.585997 0.060983 0.
0.587997 0.0609835 0.
0.589998 0.0609837 0.
0.591999 0.0609837 0.
0.594 0.0609837 0.
0.596 0.0609833 0.
0.598001 0.0609828 0.
0.600002 0.0609823 0.
0.602002 0.0609824 0.
0.604003 0.0609825 0.
0.606003 0.0609825 0.
0.608003 0.0609822 0.
0.610003 0.060982 0.
0.612004 0.0609822 0.
0.614005 0.0609829 0.
0.616005 0.0609836 0.
0.618006 0.0609838 0.
0.620006 0.0609839 0.
0.622007 0.0609839 0.
0.624007 0.0609837 0.
0.626007 0.0609834 0.
0.628008 0.0609831 0.
0.630008 0.0609831 0.
0.632009 0.0609831 0.
0.634009 0.0609833 0.
0.63601 0.0609842 0.
0.638011 0.060985 0.
0.640012 0.0609855 0.
0.642012 0.0609858 0.
0.644013 0.0609861 0.
0.646014 0.0609864 0.
0.648016 0.0609867 0.
0.650017 0.060987 0.
0.652018 0.0609873 0.
0.654018 0.0609875 0.
0.656019 0.0609879 0.
0.65802 0.0609886 0.
0.66002 0.0609893 0.
0.662021 0.06099 0.
0.664022 0.0609906 0.
0.666022 0.0609911 0.
0.668023 0.0609919 0.
0.670024 0.0609928 0.
0.672025 0.0609937 0.
0.674025 0.0609946 0.
0.676026 0.0609955 0.
0.678026 0.0609965 0.
0.680027 0.0609981 0.
0.682027 0.0609998 0.
0.684028 0.0610016 0.
0.686029 0.0610037 0.
0.68803 0.0610058 0.
0.69003 0.0610076 0.
0.692031 0.061009 0.
0.694032 0.0610105 0.
0.696032 0.0610129 0.
0.698032 0.0610156 0.
0.499971 0.0630127 0.
0.501972 0.0630105 0.
0.503973 0.0630087 0.
0.505973 0.0630069 0.
0.507974 0.0630051 0.
0.509975 0.0630033 0.
0.511975 0.0630015 0.
0.513975 0.0629995 0.
0.515976 0.0629976 0.
0.517976 0.062996 0.
0.519977 0.0629945 0.
0.521978 0.062993 0.
0.523978 0.0629924 0.
0.525979 0.062992 0.
0.52798 0.0629915 0.
0.52998 0.0629914 0.
0.531981 0.0629913 0.
0.533981 0.0629908 0.
0.535982 0.0629897 0.
0.537983 0.0629886 0.
0.539983 0.0629877 0.
0.541983 0.0629871 0.
0.543984 0.0629865 0.
0.545985 0.0629861 0.
0.547986 0.0629856 0.
0.549987 0.0629852 0.
0.551987 0.0629849 0.
0.553988 0.0629847 0.
0.555988 0.0629844 0.
0.557989 0.0629839 0.
0.55999 0.0629834 0.
0.56199 0.0629834 0.
0.563991 0.0629839 0.
0.565991 0.0629844 0.
0.567992 0.0629843 0.
0.569992 0.0629838 0.
0.571993 0.0629833 0.
0.573994 0.062983 0.
0.575994 0.0629827 0.
0.577995 0.0629824 0.
0.579995 0.0629825 0.
0.581996 0.0629825 0.
0.583996 0.0629827 0.
0.585997 0.0629829 0.
0.587997 0.0629832 0.
0.589998 0.0629831 0.
0.591999 0.0629828 0.
0.593999 0.0629824 0.
0.596 0.0629824 0.
0.598001 0.0629826 0.
0.600001 0.0629827 0.
0.602002 0.0629825 0.
0.604002 0.0629824 0.
0.606003 0.0629823 0.
0.608003 0.0629822 0.
0.610003 0.0629822 0.
0.612004 0.0629824 0.
0.614004 0.0629829 0.
0.616005 0.0629833 0.
0.618005 0.0629834 0.
0.620005 0.0629834 0.
0.622006 0.0629833 0.
0.624006 0.062983 0.
0.626007 0.0629826 0.
0.628008 0.0629823 0.
0.630008 0.0629826 0.
0.632009 0.0629829 0.
0.634009 0.0629832 0.
0.63601 0.0629839 0.
0.638011 0.0629845 0.
0.640011 0.0629849 0.
0.642012 0.0629851 0.
0.644012 0.0629852 0.
0.646014 0.0629857 0.
0.648015 0.0629862 0.
0.650016 0.0629868 0.
0.652017 0.0629868 0.
0.654017 0.0629868 0.
0.656018 0.0629869 0.
0.658018 0.0629879 0.
0.660019 0.0629889 0.
0.66202 0.0629896 0.
0.66402 0.0629901 0.
0.666021 0.0629907 0.
0.668022 0.0629914 0.
0.670022 0.0629922 0.
0.672023 0.0629931 0.
0.674024 0.062994 0.
0.676024 0.0629949 0.
0.678024 0.062996 0.
0.680025 0.0629978 0.
0.682025 0.0629997 0.
0.684025 0.0630016 0.
0.686026 0.0630035 0.
0.688027 0.0630054 0.
0.690028 0.0630071 0.
0.692028 0.0630087 0.
0.694029 0.0630103 0.
0.69603 0.0630127 0.
0.69803 0.0630153 0.
0.499974 0.0650122 0.
0.501974 0.06501 0.
0.503975 0.065008 0.
0.505976 0.0650061 0.
0.507976 0.0650044 0.
0.509976 0.0650026 0.
0.511977 0.0650009 0.
0.513977 0.0649991 0.
0.515978 0.0649973 0.
0.517978 0.0649956 0.
0.519979 0.0649939 0.
0.521979 0.0649923 0.
0.52398 0.0649918 0.
0.525981 0.0649914 0.
0.527981 0.0649911 0.
0.529982 0.0649914 0.
0.531982 0.0649916 0.
0.533982 0.0649913 0.
0.535983 0.0649899 0.
0.537983 0.0649885 0.
0.539983 0.0649875 0.
0.541984 0.0649867 0.
0.543984 0.064986 0.
0.545985 0.0649855 0.
0.547986 0.0649851 0.
0.549987 0.0649847 0.
0.551988 0.0649845 0.
0.553989 0.0649844 0.
0.55599 0.0649841 0.
0.55799 0.0649835 0.
0.559991 0.0649828 0.
0.561991 0.0649828 0.
0.563991 0.0649834 0.
0.565992 0.064984 0.
0.567992 0.0649838 0.
0.569992 0.0649831 0.
0.571993 0.0649824 0.
0.573993 0.0649821 0.
0.575994 0.0649818 0.
0.577994 0.0649816 0.
0.579995 0.064982 0.
0.581996 0.0649824 0.
0.583996 0.0649828 0.
0.585997 0.0649828 0.
0.587998 0.0649829 0.
0.589998 0.0649826 0.
0.591999 0.0649818 0.
0.593999 0.0649811 0.
0.596 0.0649815 0.
0.598 0.0649823 0.
0.6 0.064983 0.
0.602001 0.0649827 0.
0.604002 0.0649823 0.
0.606002 0.064982 0.
0.608003 0.0649823 0.
0.610003 0.0649825 0.
0.612003 0.0649827 0.
0.614004 0.0649829 0.
0.616004 0.064983 0.
0.618004 0.064983 0.
0.620004 0.0649829 0.
0.622004 0.0649827 0.
0.624006 0.0649823 0.
0.626007 0.0649819 0.
0.628008 0.0649816 0.
0.630008 0.0649821 0.
0.632009 0.0649826 0.
0.63401 0.0649832 0.
0.63601 0.0649836 0.
0.63801 0.0649841 0.
0.640011 0.0649843 0.
0.642011 0.0649843 0.
0.644012 0.0649844 0.
0.646013 0.064985 0.
0.648014 0.0649858 0.
0.650015 0.0649866 0.
0.652016 0.0649863 0.
0.654016 0.064986 0.
0.656017 0.064986 0.
0.658017 0.0649872 0.
0.660017 0.0649884 0.
0.662018 0.0649893 0.
0.664019 0.0649897 0.
0.66602 0.0649902 0.
0.66802 0.0649909 0.
0.670021 0.0649917 0.
0.672021 0.0649925 0.
0.674022 0.0649934 0.
0.676022 0.0649944 0.
0.678023 0.0649955 0.
0.680023 0.0649976 0.
0.682023 0.0649996 0.
0.684023 0.0650016 0.
0.686023 0.0650033 0.
0.688024 0.065005 0.
0.690025 0.0650067 0.
0.692026 0.0650084 0.
0.694026 0.0650101 0.
0.696027 0.0650124 0.
0.698027 0.065015 0.
0.499976 0.067012 0.
0.501976 0.0670099 0.
0.503977 0.067008 0.
0.505977 0.0670061 0.
0.507978 0.0670042 0.
0.509978 0.0670023 0.
0.511979 0.0670004 0.
0.513979 0.0669985 0.
0.51598 0.0669966 0.
0.51798 0.0669951 0.
0.51998 0.0669937 0.
0.521981 0.0669924 0.
0.523982 0.0669918 0.
0.525982 0.0669913 0.
0.527983 0.0669909 0.
0.529983 0.066991 0.
0.531983 0.066991 0.
0.533983 0.0669907 0.
0.535984 0.0669896 0.
0.537985 0.0669885 0.
0.539985 0.0669876 0.
0.541985 0.0669867 0.
0.543986 0.0669859 0.
0.545987 0.0669853 0.
0.547988 0.0669847 0.
0.549988 0.0669842 0.
0.551989 0.0669837 0.
0.55399 0.0669833 0.
0.555991 0.0669828 0.
0.557991 0.0669825 0.
0.559992 0.0669822 0.
0.561992 0.0669823 0.
0.563993 0.0669828 0.
0.565993 0.0669833 0.
0.567994 0.0669831 0.
0.569994 0.0669825 0.
0.571994 0.0669819 0.
0.573995 0.0669819 0.
0.575995 0.066982 0.
0.577995 0.066982 0.
0.579995 0.066982 0.
0.581996 0.0669821 0.
0.583996 0.0669821 0.
0.585997 0.0669822 0.
0.587998 0.0669823 0.
0.589998 0.0669821 0.
0.591998 0.0669815 0.
0.593999 0.066981 0.
0.595999 0.0669812 0.
0.598 0.0669816 0.
0.600001 0.066982 0.
0.602001 0.066982 0.
0.604001 0.066982 0.
0.606001 0.066982 0.
0.608002 0.066982 0.
0.610002 0.066982 0.
0.612003 0.066982 0.
0.614003 0.0669822 0.
0.616003 0.0669823 0.
0.618004 0.0669823 0.
0.620004 0.0669822 0.
0.622004 0.0669821 0.
0.624005 0.0669819 0.
0.626006 0.0669816 0.
0.628007 0.0669814 0.
0.630008 0.0669819 0.
0.632008 0.0669825 0.
0.634009 0.0669829 0.
0.636009 0.0669832 0.
0.63801 0.0669834 0.
0.64001 0.0669837 0.
0.64201 0.0669839 0.
0.644011 0.0669842 0.
0.646012 0.0669847 0.
0.648012 0.0669852 0.
0.650013 0.0669857 0.
0.652014 0.0669856 0.
0.654014 0.0669855 0.
0.656015 0.0669856 0.
0.658016 0.0669867 0.
0.660016 0.0669877 0.
0.662017 0.0669886 0.
0.664018 0.0669893 0.
0.666019 0.06699 0.
0.668019 0.0669907 0.
0.670019 0.0669913 0.
0.67202 0.066992 0.
0.67402 0.0669931 0.
0.67602 0.0669943 0.
0.67802 0.0669956 0.
0.680021 0.0669975 0.
0.682021 0.0669995 0.
0.684021 0.0670013 0.
0.686022 0.067003 0.
0.688023 0.0670047 0.
0.690023 0.0670065 0.
0.692024 0.0670082 0.
0.694024 0.06701 0.
0.696025 0.0670122 0.
0.698026 0.0670145 0.
0.499978 0.0690113 0.
0.501979 0.0690098 0.
0.503979 0.069008 0.
0.505979 0.0690062 0.
0.507979 0.0690041 0.
0.50998 0.0690021 0.
0.511981 0.069 0.
0.513981 0.068998 0.
0.515981 0.068996 0.
0.517982 0.0689946 0.
0.519982 0.0689935 0.
0.521983 0.0689925 0.
0.523983 0.0689918 0.
0.525984 0.0689912 0.
0.527984 0.0689907 0.
0.529984 0.0689906 0.
0.531984 0.0689905 0.
0.533985 0.0689901 0.
0.535986 0.0689893 0.
0.537986 0.0689885 0.
0.539987 0.0689876 0.
0.541987 0.0689868 0.
0.543987 0.0689859 0.
0.545988 0.0689851 0.
0.547989 0.0689844 0.
0.54999 0.0689837 0.
0.55199 0.0689829 0.
0.553991 0.0689821 0.
0.555992 0.0689815 0.
0.557992 0.0689816 0.
0.559993 0.0689816 0.
0.561993 0.0689819 0.
0.563994 0.0689823 0.
0.565995 0.0689827 0.
0.567996 0.0689825 0.
0.569996 0.0689819 0.
0.571996 0.0689814 0.
0.573996 0.0689817 0.
0.575996 0.0689821 0.
0.577996 0.0689825 0.
0.579996 0.0689821 0.
0.581996 0.0689817 0.
0.583997 0.0689815 0.
0.585997 0.0689816 0.
0.587998 0.0689817 0.
0.589998 0.0689816 0.
0.591998 0.0689812 0.
0.593998 0.0689809 0.
0.595999 0.0689809 0.
0.598 0.068981 0.
0.600001 0.068981 0.
0.602001 0.0689814 0.
0.604001 0.0689817 0.
0.606001 0.0689819 0.
0.608001 0.0689817 0.
0.610002 0.0689815 0.
0.612002 0.0689814 0.
0.614002 0.0689815 0.
0.616003 0.0689815 0.
0.618003 0.0689815 0.
0.620004 0.0689815 0.
0.622004 0.0689815 0.
0.624005 0.0689814 0.
0.626006 0.0689813 0.
0.628007 0.0689812 0.
0.630007 0.0689817 0.
0.632008 0.0689823 0.
0.634008 0.0689827 0.
0.636008 0.0689827 0.
0.638009 0.0689828 0.
0.640009 0.0689831 0.
0.64201 0.0689835 0.
0.64401 0.068984 0.
0.64601 0.0689843 0.
0.648011 0.0689846 0.
0.650012 0.0689848 0.
0.652012 0.0689849 0.
0.654012 0.068985 0.
0.656013 0.0689853 0.
0.658014 0.0689862 0.
0.660015 0.0689871 0.
0.662015 0.068988 0.
0.664016 0.0689889 0.
0.666017 0.0689899 0.
0.668018 0.0689905 0.
0.670018 0.068991 0.
0.672018 0.0689915 0.
0.674018 0.0689928 0.
0.676018 0.0689942 0.
0.678018 0.0689957 0.
0.680019 0.0689975 0.
0.682019 0.0689993 0.
0.68402 0.0690011 0.
0.686021 0.0690028 0.
0.688022 0.0690045 0.
0.690022 0.0690062 0.
0.692022 0.069008 0.
0.694022 0.0690098 0.
0.696023 0.0690119 0.
0.698024 0.069014 0.
0.49998 0.071011 0.
0.50198 0.0710096 0.
0.50398 0.0710077 0.
0.50598 0.0710058 0.
0.507981 0.0710038 0.
0.509982 0.0710017 0.
0.511982 0.0709996 0.
0.513983 0.0709977 0.
0.515983 0.0709957 0.
0.517983 0.0709944 0.
0.519984 0.0709935 0.
0.521984 0.0709926 0.
0.523985 0.0709918 0.
0.525985 0.0709911 0.
0.527985 0.0709905 0.
0.529986 0.0709903 0.
0.531986 0.0709901 0.
0.533986 0.0709898 0.
0.535987 0.070989 0.
0.537988 0.0709881 0.
0.539988 0.0709873 0.
0.541988 0.0709864 0.
0.543989 0.0709856 0.
0.545989 0.0709847 0.
0.54799 0.0709838 0.
0.549991 0.0709829 0.
0.551992 0.0709821 0.
0.553993 0.0709813 0.
0.555993 0.0709808 0.
0.557993 0.0709809 0.
0.559994 0.070981 0.
0.561994 0.0709812 0.
0.563995 0.0709816 0.
0.565996 0.070982 0.
0.567996 0.0709819 0.
0.569996 0.0709815 0.
0.571996 0.0709811 0.
0.573996 0.0709815 0.
0.575996 0.070982 0.
0.577996 0.0709824 0.
0.579996 0.0709819 0.
0.581997 0.0709815 0.
0.583997 0.0709812 0.
0.585997 0.0709812 0.
0.587998 0.0709813 0.
0.589998 0.0709812 0.
0.591998 0.0709809 0.
0.593998 0.0709807 0.
0.595999 0.0709805 0.
0.598 0.0709804 0.
0.6 0.0709803 0.
0.602 0.0709808 0.
0.604 0.0709813 0.
0.606 0.0709817 0.
0.608001 0.0709815 0.
0.610001 0.0709813 0.
0.612002 0.0709812 0.
0.614002 0.070981 0.
0.616002 0.0709808 0.
0.618003 0.0709809 0.
0.620003 0.070981 0.
0.622004 0.0709811 0.
0.624005 0.0709811 0.
0.626005 0.070981 0.
0.628006 0.070981 0.
0.630006 0.0709815 0.
0.632007 0.070982 0.
0.634007 0.0709823 0.
0.636008 0.0709823 0.
0.638008 0.0709823 0.
0.640009 0.0709826 0.
0.642009 0.0709832 0.
0.644009 0.0709838 0.
0.646009 0.0709839 0.
0.64801 0.0709839 0.
0.65001 0.070984 0.
0.652011 0.0709843 0.
0.654011 0.0709846 0.
0.656012 0.070985 0.
0.658013 0.0709858 0.
0.660013 0.0709866 0.
0.662014 0.0709875 0.
0.664015 0.0709886 0.
0.666016 0.0709896 0.
0.668016 0.0709904 0.
0.670016 0.0709909 0.
0.672017 0.0709915 0.
0.674016 0.0709928 0.
0.676016 0.0709943 0.
0.678016 0.0709957 0.
0.680017 0.0709975 0.
0.682018 0.0709992 0.
0.684019 0.0710009 0.
0.686019 0.0710027 0.
0.68802 0.0710044 0.
0.690021 0.0710063 0.
0.692021 0.0710081 0.
0.694021 0.07101 0.
0.696022 0.071012 0.
0.698023 0.0710141 0.
0.499982 0.0730114 0.
0.501982 0.0730094 0.
0.503982 0.0730072 0.
0.505982 0.0730051 0.
0.507983 0.0730031 0.
0.509983 0.0730012 0.
0.511984 0.0729993 0.
0.513984 0.0729975 0.
0.515985 0.0729956 0.
0.517985 0.0729944 0.
0.519985 0.0729936 0.
0.521985 0.0729927 0.
0.523986 0.0729919 0.
0.525986 0.072991 0.
0.527987 0.0729903 0.
0.529987 0.0729902 0.
0.531987 0.0729901 0.
0.533987 0.0729897 0.
0.535988 0.0729886 0.
0.537989 0.0729875 0.
0.539989 0.0729866 0.
0.541989 0.0729858 0.
0.543989 0.072985 0.
0.54599 0.072984 0.
0.547991 0.0729829 0.
0.549992 0.0729817 0.
0.551993 0.0729813 0.
0.553994 0.072981 0.
0.555994 0.0729806 0.
0.557994 0.0729804 0.
0.559995 0.0729802 0.
0.561995 0.0729803 0.
0.563996 0.0729809 0.
0.565996 0.0729815 0.
0.567996 0.0729815 0.
0.569996 0.0729813 0.
0.571996 0.0729811 0.
0.573996 0.0729813 0.
0.575996 0.0729816 0.
0.577996 0.0729819 0.
0.579997 0.0729816 0.
0.581997 0.0729814 0.
0.583998 0.0729813 0.
0.585998 0.0729812 0.
0.587998 0.0729811 0.
0.589998 0.0729809 0.
0.591998 0.0729806 0.
0.593999 0.0729804 0.
0.595999 0.0729801 0.
0.598 0.0729799 0.
0.6 0.0729797 0.
0.602 0.0729803 0.
0.604 0.0729809 0.
0.606 0.0729813 0.
0.608 0.0729814 0.
0.610001 0.0729815 0.
0.612001 0.0729813 0.
0.614002 0.0729808 0.
0.616002 0.0729802 0.
0.618003 0.0729802 0.
0.620004 0.0729805 0.
0.622004 0.0729808 0.
0.624005 0.0729808 0.
0.626005 0.0729809 0.
0.628005 0.0729809 0.
0.630006 0.0729813 0.
0.632006 0.0729816 0.
0.634006 0.0729819 0.
0.636007 0.0729819 0.
0.638007 0.0729819 0.
0.640008 0.0729823 0.
0.642008 0.0729828 0.
0.644008 0.0729834 0.
0.646008 0.0729834 0.
0.648009 0.0729833 0.
0.650009 0.0729831 0.
0.65201 0.0729837 0.
0.654011 0.0729842 0.
0.656011 0.0729848 0.
0.658012 0.0729856 0.
0.660013 0.0729864 0.
0.662013 0.0729873 0.
0.664014 0.0729883 0.
0.666014 0.0729893 0.
0.668014 0.0729902 0.
0.670015 0.0729912 0.
0.672015 0.0729921 0.
0.674015 0.0729932 0.
0.676015 0.0729944 0.
0.678015 0.0729957 0.
0.680016 0.0729974 0.
0.682017 0.0729991 0.
0.684018 0.0730008 0.
0.686018 0.0730027 0.
0.688019 0.0730046 0.
0.690019 0.0730065 0.
0.692019 0.0730085 0.
0.694019 0.0730105 0.
0.69602 0.0730125 0.
0.698021 0.0730146 0.
0.499983 0.0750118 0.
0.501983 0.0750092 0.
0.503984 0.0750067 0.
0.505984 0.0750044 0.
0.507985 0.0750025 0.
0.509985 0.0750007 0.
0.511986 0.0749989 0.
0.513986 0.0749973 0.
0.515986 0.0749956 0.
0.517986 0.0749945 0.
0.519986 0.0749937 0.
0.521986 0.0749928 0.
0.523987 0.0749919 0.
0.525987 0.0749909 0.
0.527988 0.0749901 0.
0.529988 0.0749901 0.
0.531989 0.0749901 0.
0.533989 0.0749896 0.
0.535989 0.0749882 0.
0.53799 0.0749868 0.
0.53999 0.0749858 0.
0.54199 0.0749851 0.
0.54399 0.0749845 0.
0.545991 0.0749833 0.
0.547993 0.0749819 0.
0.549994 0.0749806 0.
0.551994 0.0749806 0.
0.553995 0.0749806 0.
0.555995 0.0749805 0.
0.557996 0.0749799 0.
0.559996 0.0749794 0.
0.561996 0.0749794 0.
0.563996 0.0749802 0.
0.565996 0.0749809 0.
0.567996 0.0749811 0.
0.569996 0.0749811 0.
0.571996 0.074981 0.
0.573996 0.0749811 0.
0.575996 0.0749812 0.
0.577996 0.0749813 0.
0.579997 0.0749813 0.
0.581998 0.0749814 0.
0.583998 0.0749813 0.
0.585998 0.0749811 0.
0.587998 0.0749809 0.
0.589998 0.0749807 0.
0.591999 0.0749804 0.
0.593999 0.07498 0.
0.596 0.0749797 0.
0.598 0.0749795 0.
0.6 0.0749792 0.
0.602 0.0749798 0.
0.603999 0.0749804 0.
0.605999 0.074981 0.
0.608 0.0749814 0.
0.61 0.0749817 0.
0.612001 0.0749815 0.
0.614002 0.0749806 0.
0.616002 0.0749796 0.
0.618003 0.0749796 0.
0.620004 0.07498 0.
0.622004 0.0749805 0.
0.624004 0.0749806 0.
0.626005 0.0749807 0.
0.628005 0.0749808 0.
0.630005 0.074981 0.
0.632005 0.0749813 0.
0.634005 0.0749814 0.
0.636006 0.0749815 0.
0.638007 0.0749816 0.
0.640007 0.074982 0.
0.642007 0.0749825 0.
0.644007 0.074983 0.
0.646007 0.0749829 0.
0.648007 0.0749826 0.
0.650008 0.0749823 0.
0.652009 0.0749831 0.
0.65401 0.0749838 0.
0.656011 0.0749846 0.
0.658011 0.0749853 0.
0.660012 0.0749861 0.
0.662012 0.074987 0.
0.664012 0.074988 0.
0.666012 0.0749889 0.
0.668013 0.0749901 0.
0.670013 0.0749914 0.
0.672014 0.0749927 0.
0.674014 0.0749937 0.
0.676014 0.0749946 0.
0.678014 0.0749956 0.
0.680015 0.0749973 0.
0.682016 0.0749989 0.
0.684016 0.0750007 0.
0.686017 0.0750027 0.
0.688017 0.0750048 0.
0.690018 0.0750068 0.
0.692018 0.0750089 0.
0.694018 0.0750109 0.
0.696018 0.075013 0.
0.698019 0.0750151 0.
0.499984 0.0770109 0.
0.501985 0.0770086 0.
0.503985 0.0770064 0.
0.505985 0.0770042 0.
0.507986 0.0770022 0.
0.509986 0.0770002 0.
0.511987 0.0769983 0.
0.513987 0.0769967 0.
0.515987 0.076995 0.
0.517987 0.0769939 0.
0.519987 0.0769932 0.
0.521987 0.0769924 0.
0.523988 0.0769914 0.
0.525988 0.0769904 0.
0.527989 0.0769894 0.
0.529989 0.0769893 0.
0.531989 0.0769891 0.
0.53399 0.0769887 0.
0.53599 0.0769877 0.
0.537991 0.0769867 0.
0.539991 0.0769857 0.
0.541991 0.0769848 0.
0.543991 0.0769839 0.
0.545992 0.0769826 0.
0.547993 0.0769812 0.
0.549994 0.0769798 0.
0.551994 0.0769798 0.
0.553995 0.0769798 0.
0.555995 0.0769798 0.
0.557996 0.0769796 0.
0.559996 0.0769794 0.
0.561996 0.0769795 0.
0.563996 0.0769799 0.
0.565996 0.0769803 0.
0.567996 0.0769804 0.
0.569997 0.0769803 0.
0.571997 0.0769803 0.
0.573997 0.0769805 0.
0.575997 0.0769808 0.
0.577997 0.0769811 0.
0.579997 0.0769811 0.
0.581997 0.0769812 0.
0.583998 0.076981 0.
0.585998 0.0769806 0.
0.587998 0.0769801 0.
0.589998 0.0769799 0.
0.591998 0.0769798 0.
0.593999 0.0769797 0.
0.595999 0.0769796 0.
0.597999 0.0769796 0.
0.6 0.0769795 0.
0.602 0.0769798 0.
0.603999 0.0769801 0.
0.605999 0.0769805 0.
0.608 0.0769808 0.
0.61 0.0769812 0.
0.612001 0.0769811 0.
0.614002 0.0769803 0.
0.616002 0.0769796 0.
0.618003 0.0769795 0.
0.620003 0.0769797 0.
0.622003 0.0769799 0.
0.624003 0.0769802 0.
0.626004 0.0769805 0.
0.628004 0.0769808 0.
0.630004 0.0769808 0.
0.632004 0.0769808 0.
0.634004 0.0769808 0.
0.636005 0.076981 0.
0.638005 0.0769811 0.
0.640006 0.0769814 0.
0.642006 0.0769819 0.
0.644006 0.0769823 0.
0.646006 0.0769822 0.
0.648007 0.0769819 0.
0.650007 0.0769817 0.
0.652008 0.0769826 0.
0.654009 0.0769835 0.
0.656009 0.0769845 0.
0.65801 0.0769854 0.
0.66001 0.0769863 0.
0.66201 0.0769872 0.
0.66401 0.0769879 0.
0.66601 0.0769887 0.
0.668011 0.0769898 0.
0.670011 0.076991 0.
0.672012 0.0769923 0.
0.674012 0.0769933 0.
0.676012 0.0769942 0.
0.678013 0.0769952 0.
0.680014 0.0769968 0.
0.682014 0.0769984 0.
0.684015 0.0770001 0.
0.686015 0.0770021 0.
0.688015 0.0770041 0.
0.690015 0.0770062 0.
0.692015 0.0770082 0.
0.694016 0.0770103 0.
0.696016 0.0770126 0.
0.698016 0.0770148 0.
0.499986 0.0790099 0.
0.501986 0.0790081 0.
0.503986 0.0790061 0.
0.505987 0.0790041 0.
0.507987 0.0790019 0.
0.509987 0.0789997 0.
0.511988 0.0789978 0.
0.513988 0.0789961 0.
0.515988 0.0789943 0.
0.517988 0.0789933 0.
0.519988 0.0789927 0.
0.521988 0.078992 0.
0.523988 0.0789909 0.
0.525989 0.0789898 0.
0.527989 0.0789887 0.
0.52999 0.0789884 0.
0.53199 0.0789882 0.
0.53399 0.0789878 0.
0.535991 0.0789872 0.
0.537991 0.0789866 0.
0.539992 0.0789857 0.
0.541992 0.0789844 0.
0.543992 0.0789832 0.
0.545993 0.0789819 0.
0.547994 0.0789805 0.
0.549994 0.0789791 0.
0.551995 0.0789791 0.
0.553995 0.0789791 0.
0.555995 0.0789791 0.
0.557996 0.0789793 0.
0.559996 0.0789794 0.
0.561996 0.0789796 0.
0.563996 0.0789796 0.
0.565996 0.0789797 0.
0.567997 0.0789797 0.
0.569997 0.0789796 0.
0.571998 0.0789795 0.
0.573997 0.0789799 0.
0.575997 0.0789805 0.
0.577997 0.0789809 0.
0.579997 0.0789809 0.
0.581997 0.0789809 0.
0.583997 0.0789807 0.
0.585997 0.07898 0.
0.587998 0.0789793 0.
0.589998 0.0789791 0.
0.591998 0.0789793 0.
0.593999 0.0789794 0.
0.595999 0.0789796 0.
0.597999 0.0789797 0.
0.599999 0.0789798 0.
0.601999 0.0789798 0.
0.603999 0.0789798 0.
0.606 0.07898 0.
0.608 0.0789803 0.
0.61 0.0789807 0.
0.612001 0.0789806 0.
0.614001 0.0789801 0.
0.616002 0.0789795 0.
0.618002 0.0789793 0.
0.620002 0.0789793 0.
0.622002 0.0789793 0.
0.624002 0.0789797 0.
0.626003 0.0789803 0.
0.628003 0.0789807 0.
0.630003 0.0789805 0.
0.632003 0.0789803 0.
0.634003 0.0789802 0.
0.636004 0.0789805 0.
0.638004 0.0789807 0.
0.640004 0.0789809 0.
0.642005 0.0789812 0.
0.644005 0.0789815 0.
0.646005 0.0789814 0.
0.648006 0.0789812 0.
0.650006 0.078981 0.
0.652007 0.0789821 0.
0.654008 0.0789833 0.
0.656008 0.0789844 0.
0.658008 0.0789854 0.
0.660008 0.0789865 0.
0.662008 0.0789873 0.
0.664008 0.0789879 0.
0.666008 0.0789884 0.
0.668009 0.0789894 0.
0.670009 0.0789907 0.
0.67201 0.0789919 0.
0.674011 0.0789929 0.
0.676011 0.0789938 0.
0.678012 0.0789947 0.
0.680012 0.0789963 0.
0.682013 0.0789978 0.
0.684013 0.0789995 0.
0.686013 0.0790015 0.
0.688013 0.0790034 0.
0.690013 0.0790055 0.
0.692013 0.0790076 0.
0.694014 0.0790097 0.
0.696014 0.0790121 0.
0.698014 0.0790146 0.
0.499987 0.0810092 0.
0.501988 0.0810075 0.
0.503988 0.0810058 0.
0.505988 0.081004 0.
0.507988 0.0810017 0.
0.509989 0.0809994 0.
0.511989 0.0809974 0.
0.513989 0.0809957 0.
0.515989 0.0809941 0.
0.517989 0.080993 0.
0.519989 0.0809923 0.
0.521989 0.0809916 0.
0.52399 0.0809905 0.
0.52599 0.0809895 0.
0.527991 0.0809885 0.
0.529991 0.080988 0.
0.531991 0.0809876 0.
0.533991 0.0809871 0.
0.535992 0.0809867 0.
0.537993 0.0809862 0.
0.539993 0.0809853 0.
0.541993 0.080984 0.
0.543994 0.0809827 0.
0.545994 0.0809814 0.
0.547994 0.0809801 0.
0.549995 0.0809789 0.
0.551995 0.0809788 0.
0.553995 0.0809787 0.
0.555996 0.0809787 0.
0.557996 0.0809789 0.
0.559996 0.0809792 0.
0.561996 0.0809793 0.
0.563996 0.0809793 0.
0.565997 0.0809793 0.
0.567997 0.0809792 0.
0.569997 0.0809791 0.
0.571998 0.0809789 0.
0.573998 0.0809796 0.
0.575997 0.0809803 0.
0.577997 0.0809809 0.
0.579997 0.0809808 0.
0.581997 0.0809807 0.
0.583997 0.0809804 0.
0.585997 0.0809797 0.
0.587998 0.080979 0.
0.589998 0.0809788 0.
0.591998 0.080979 0.
0.593998 0.0809793 0.
0.595998 0.0809795 0.
0.597998 0.0809797 0.
0.599998 0.0809799 0.
0.601999 0.0809797 0.
0.603999 0.0809796 0.
0.606 0.0809796 0.
0.608 0.0809799 0.
0.61 0.0809803 0.
0.612001 0.0809803 0.
0.614001 0.0809798 0.
0.616002 0.0809793 0.
0.618002 0.0809792 0.
0.620002 0.0809792 0.
0.622001 0.0809792 0.
0.624002 0.0809797 0.
0.626002 0.0809802 0.
0.628002 0.0809806 0.
0.630002 0.0809803 0.
0.632002 0.0809799 0.
0.634003 0.0809798 0.
0.636003 0.08098 0.
0.638003 0.0809803 0.
0.640004 0.0809805 0.
0.642004 0.0809807 0.
0.644004 0.080981 0.
0.646005 0.0809809 0.
0.648005 0.0809808 0.
0.650006 0.0809806 0.
0.652006 0.0809818 0.
0.654006 0.0809831 0.
0.656006 0.0809843 0.
0.658006 0.0809854 0.
0.660006 0.0809864 0.
0.662006 0.0809872 0.
0.664006 0.0809877 0.
0.666007 0.0809882 0.
0.668007 0.0809892 0.
0.670008 0.0809903 0.
0.672008 0.0809915 0.
0.674009 0.0809925 0.
0.67601 0.0809934 0.
0.67801 0.0809944 0.
0.680011 0.0809959 0.
0.682011 0.0809974 0.
0.684011 0.0809991 0.
0.686011 0.081001 0.
0.688011 0.0810029 0.
0.690011 0.081005 0.
0.692012 0.0810072 0.
0.694012 0.0810095 0.
0.696012 0.0810119 0.
0.698012 0.0810143 0.
0.499989 0.0830082 0.
0.501989 0.0830067 0.
0.50399 0.0830054 0.
0.50599 0.0830039 0.
0.50799 0.0830016 0.
0.50999 0.0829993 0.
0.51199 0.0829973 0.
0.51399 0.0829957 0.
0.51599 0.0829942 0.
0.517991 0.082993 0.
0.519991 0.082992 0.
0.521991 0.0829911 0.
0.523992 0.0829902 0.
0.525992 0.0829894 0.
0.527993 0.0829886 0.
0.529993 0.082988 0.
0.531993 0.0829874 0.
0.533993 0.0829868 0.
0.535994 0.0829862 0.
0.537994 0.0829856 0.
0.539995 0.0829846 0.
0.541995 0.0829834 0.
0.543995 0.0829822 0.
0.545995 0.0829812 0.
0.547995 0.0829802 0.
0.549995 0.0829792 0.
0.551996 0.0829789 0.
0.553996 0.0829787 0.
0.555996 0.0829785 0.
0.557996 0.0829785 0.
0.559996 0.0829785 0.
0.561996 0.0829786 0.
0.563996 0.0829788 0.
0.565997 0.082979 0.
0.567997 0.0829789 0.
0.569997 0.0829788 0.
0.571997 0.0829787 0.
0.573997 0.0829794 0.
0.575997 0.0829803 0.
0.577997 0.082981 0.
0.579997 0.0829807 0.
0.581997 0.0829804 0.
0.583997 0.08298 0.
0.585997 0.0829795 0.
0.587997 0.0829791 0.
0.589997 0.082979 0.
0.591998 0.0829791 0.
0.593998 0.0829793 0.
0.595998 0.0829795 0.
0.597998 0.0829796 0.
0.599998 0.0829797 0.
0.601998 0.0829795 0.
0.603999 0.0829794 0.
0.605999 0.0829793 0.
0.608 0.0829797 0.
0.61 0.08298 0.
0.612001 0.0829799 0.
0.614001 0.0829795 0.
0.616001 0.082979 0.
0.618002 0.0829791 0.
0.620002 0.0829794 0.
0.622002 0.0829797 0.
0.624002 0.08298 0.
0.626002 0.0829802 0.
0.628002 0.0829804 0.
0.630002 0.08298 0.
0.632002 0.0829796 0.
0.634003 0.0829795 0.
0.636003 0.0829797 0.
0.638003 0.0829799 0.
0.640004 0.0829802 0.
0.642004 0.0829804 0.
0.644005 0.0829807 0.
0.646005 0.0829807 0.
0.648005 0.0829806 0.
0.650005 0.0829804 0.
0.652005 0.0829817 0.
0.654005 0.082983 0.
0.656004 0.0829842 0.
0.658004 0.0829851 0.
0.660005 0.0829861 0.
0.662005 0.0829869 0.
0.664005 0.0829875 0.
0.666006 0.0829881 0.
0.668006 0.082989 0.
0.670007 0.08299 0.
0.672007 0.0829911 0.
0.674008 0.0829921 0.
0.676008 0.0829932 0.
0.678008 0.0829943 0.
0.680009 0.0829957 0.
0.682009 0.0829971 0.
0.684009 0.0829987 0.
0.68601 0.0830006 0.
0.68801 0.0830025 0.
0.69001 0.0830047 0.
0.692011 0.0830072 0.
0.694011 0.0830096 0.
0.696011 0.0830118 0.
0.698011 0.083014 0.
0.499991 0.0850074 0.
0.501991 0.085006 0.
0.503991 0.085005 0.
0.505991 0.0850037 0.
0.507991 0.0850015 0.
0.509991 0.0849992 0.
0.511991 0.0849973 0.
0.513992 0.0849958 0.
0.515992 0.0849942 0.
0.517992 0.0849929 0.
0.519993 0.0849917 0.
0.521993 0.0849906 0.
0.523994 0.0849899 0.
0.525995 0.0849894 0.
0.527995 0.0849888 0.
0.529995 0.084988 0.
0.531994 0.0849872 0.
0.533994 0.0849864 0.
0.535995 0.0849857 0.
0.537996 0.0849849 0.
0.539996 0.084984 0.
0.541996 0.0849829 0.
0.543997 0.0849818 0.
0.545996 0.0849809 0.
0.547996 0.0849802 0.
0.549996 0.0849795 0.
0.551996 0.0849791 0.
0.553996 0.0849787 0.
0.555997 0.0849783 0.
0.557996 0.0849781 0.
0.559996 0.0849779 0.
0.561996 0.084978 0.
0.563996 0.0849783 0.
0.565997 0.0849787 0.
0.567997 0.0849787 0.
0.569997 0.0849785 0.
0.571997 0.0849784 0.
0.573997 0.0849793 0.
0.575996 0.0849803 0.
0.577996 0.0849812 0.
0.579997 0.0849806 0.
0.581997 0.0849801 0.
0.583998 0.0849796 0.
0.585997 0.0849794 0.
0.587997 0.0849792 0.
0.589997 0.0849791 0.
0.591997 0.0849792 0.
0.593997 0.0849793 0.
0.595997 0.0849794 0.
0.597997 0.0849795 0.
0.599997 0.0849795 0.
0.601998 0.0849794 0.
0.603998 0.0849792 0.
0.605999 0.0849791 0.
0.608 0.0849794 0.
0.61 0.0849797 0.
0.612001 0.0849796 0.
0.614001 0.0849792 0.
0.616001 0.0849787 0.
0.618001 0.0849789 0.
0.620002 0.0849796 0.
0.622002 0.0849802 0.
0.624002 0.0849803 0.
0.626002 0.0849802 0.
0.628002 0.0849801 0.
0.630002 0.0849797 0.
0.632003 0.0849793 0.
0.634003 0.0849792 0.
0.636003 0.0849793 0.
0.638003 0.0849795 0.
0.640004 0.0849798 0.
0.642004 0.0849802 0.
0.644005 0.0849805 0.
0.646005 0.0849805 0.
0.648005 0.0849804 0.
0.650005 0.0849803 0.
0.652004 0.0849816 0.
0.654003 0.0849829 0.
0.656002 0.0849841 0.
0.658003 0.0849849 0.
0.660003 0.0849857 0.
0.662004 0.0849865 0.
0.664004 0.0849872 0.
0.666004 0.084988 0.
0.668005 0.0849889 0.
0.670006 0.0849897 0.
0.672006 0.0849906 0.
0.674006 0.0849918 0.
0.676006 0.0849929 0.
0.678006 0.0849941 0.
0.680007 0.0849955 0.
0.682007 0.0849968 0.
0.684007 0.0849983 0.
0.686008 0.0850002 0.
0.688009 0.0850021 0.
0.690009 0.0850044 0.
0.69201 0.0850071 0.
0.69401 0.0850098 0.
0.69601 0.0850118 0.
0.69801 0.0850137 0.
0.499993 0.087007 0.
0.501993 0.0870057 0.
0.503993 0.0870044 0.
0.505993 0.087003 0.
0.507993 0.0870008 0.
0.509993 0.0869986 0.
0.511993 0.0869969 0.
0.513993 0.0869956 0.
0.515993 0.0869944 0.
0.517994 0.086993 0.
0.519994 0.0869916 0.
0.521994 0.0869902 0.
0.523995 0.0869895 0.
0.525995 0.0869889 0.
0.527996 0.0869883 0.
0.529995 0.0869874 0.
0.531995 0.0869865 0.
0.533996 0.0869857 0.
0.535996 0.0869851 0.
0.537997 0.0869844 0.
0.539997 0.0869835 0.
0.541997 0.0869824 0.
0.543997 0.0869813 0.
0.545997 0.0869806 0.
0.547997 0.08698 0.
0.549997 0.0869795 0.
0.551997 0.0869788 0.
0.553997 0.0869782 0.
0.555997 0.0869777 0.
0.557997 0.0869775 0.
0.559997 0.0869774 0.
0.561997 0.0869774 0.
0.563997 0.0869778 0.
0.565997 0.0869782 0.
0.567997 0.0869783 0.
0.569997 0.0869783 0.
0.571997 0.0869783 0.
0.573997 0.086979 0.
0.575997 0.0869798 0.
0.577997 0.0869805 0.
0.579997 0.0869802 0.
0.581998 0.08698 0.
0.583998 0.0869797 0.
0.585998 0.0869794 0.
0.587998 0.0869791 0.
0.589998 0.086979 0.
0.591998 0.0869791 0.
0.593998 0.0869791 0.
0.595998 0.0869791 0.
0.597998 0.0869789 0.
0.599998 0.0869788 0.
0.601999 0.0869788 0.
0.603999 0.0869788 0.
0.606 0.0869788 0.
0.608 0.086979 0.
0.610001 0.0869791 0.
0.612001 0.0869792 0.
0.614001 0.0869791 0.
0.616001 0.086979 0.
0.618001 0.0869791 0.
0.620001 0.0869794 0.
0.622002 0.0869797 0.
0.624002 0.0869797 0.
0.626002 0.0869797 0.
0.628002 0.0869797 0.
0.630002 0.0869795 0.
0.632003 0.0869793 0.
0.634003 0.0869792 0.
0.636003 0.0869793 0.
0.638003 0.0869794 0.
0.640003 0.0869796 0.
0.642004 0.0869799 0.
0.644004 0.0869802 0.
0.646004 0.0869804 0.
0.648004 0.0869806 0.
0.650004 0.0869807 0.
0.652004 0.086982 0.
0.654003 0.0869833 0.
0.656003 0.0869844 0.
0.658003 0.0869852 0.
0.660003 0.0869859 0.
0.662003 0.0869865 0.
0.664003 0.0869869 0.
0.666003 0.0869873 0.
0.668004 0.0869882 0.
0.670004 0.0869894 0.
0.672005 0.0869906 0.
0.674005 0.0869917 0.
0.676005 0.0869928 0.
0.678005 0.0869939 0.
0.680005 0.0869952 0.
0.682006 0.0869965 0.
0.684006 0.086998 0.
0.686006 0.0869999 0.
0.688007 0.0870018 0.
0.690007 0.0870041 0.
0.692007 0.0870068 0.
0.694008 0.0870095 0.
0.696008 0.0870117 0.
0.698008 0.0870138 0.
0.499994 0.089007 0.
0.501994 0.0890053 0.
0.503994 0.0890039 0.
0.505994 0.0890023 0.
0.507995 0.0890002 0.
0.509996 0.0889981 0.
0.511996 0.0889965 0.
0.513995 0.0889955 0.
0.515995 0.0889945 0.
0.517995 0.0889931 0.
0.519995 0.0889915 0.
0.521996 0.0889899 0.
0.523996 0.0889892 0.
0.525996 0.0889885 0.
0.527996 0.0889878 0.
0.529996 0.0889868 0.
0.531996 0.0889857 0.
0.533997 0.0889849 0.
0.535998 0.0889844 0.
0.537998 0.088984 0.
0.539999 0.0889831 0.
0.541998 0.088982 0.
0.543998 0.0889808 0.
0.545998 0.0889802 0.
0.547998 0.0889798 0.
0.549998 0.0889794 0.
0.551998 0.0889786 0.
0.553998 0.0889777 0.
0.555998 0.088977 0.
0.557998 0.0889769 0.
0.559997 0.0889768 0.
0.561997 0.0889769 0.
0.563997 0.0889773 0.
0.565998 0.0889776 0.
0.567997 0.0889779 0.
0.569997 0.088978 0.
0.571997 0.0889781 0.
0.573997 0.0889787 0.
0.575997 0.0889793 0.
0.577997 0.0889798 0.
0.579998 0.0889799 0.
0.581998 0.0889799 0.
0.583998 0.0889798 0.
0.585998 0.0889795 0.
0.587998 0.0889791 0.
0.589998 0.0889789 0.
0.591998 0.0889789 0.
0.593998 0.0889789 0.
0.595998 0.0889787 0.
0.597999 0.0889784 0.
0.599999 0.088978 0.
0.601999 0.0889782 0.
0.604 0.0889784 0.
0.606 0.0889786 0.
0.608 0.0889786 0.
0.610001 0.0889786 0.
0.612001 0.0889788 0.
0.614001 0.088979 0.
0.616001 0.0889793 0.
0.618001 0.0889793 0.
0.620001 0.0889792 0.
0.622001 0.0889791 0.
0.624001 0.0889791 0.
0.626002 0.0889792 0.
0.628002 0.0889793 0.
0.630002 0.0889792 0.
0.632003 0.0889792 0.
0.634003 0.0889792 0.
0.636003 0.0889792 0.
0.638003 0.0889793 0.
0.640003 0.0889795 0.
0.642003 0.0889797 0.
0.644003 0.0889799 0.
0.646003 0.0889803 0.
0.648003 0.0889807 0.
0.650004 0.0889812 0.
0.652003 0.0889824 0.
0.654003 0.0889836 0.
0.656003 0.0889848 0.
0.658003 0.0889855 0.
0.660003 0.0889862 0.
0.662003 0.0889865 0.
0.664003 0.0889866 0.
0.666002 0.0889866 0.
0.668003 0.0889876 0.
0.670003 0.088989 0.
0.672003 0.0889905 0.
0.674003 0.0889916 0.
0.676003 0.0889927 0.
0.678003 0.0889938 0.
0.680004 0.088995 0.
0.682004 0.0889962 0.
0.684004 0.0889976 0.
0.686005 0.0889995 0.
0.688005 0.0890015 0.
0.690005 0.0890038 0.
0.692005 0.0890065 0.
0.694005 0.0890092 0.
0.696006 0.0890116 0.
0.698006 0.0890139 0.
0.499996 0.0910068 0.
0.501996 0.0910051 0.
0.503996 0.0910034 0.
0.505996 0.0910017 0.
0.507997 0.0909996 0.
0.509997 0.0909976 0.
0.511997 0.090996 0.
0.513997 0.0909951 0.
0.515997 0.0909942 0.
0.517997 0.0909929 0.
0.519997 0.0909915 0.
0.521997 0.09099 0.
0.523997 0.0909891 0.
0.525997 0.0909883 0.
0.527997 0.0909875 0.
0.529997 0.0909864 0.
0.531998 0.0909853 0.
0.533998 0.0909844 0.
0.535999 0.0909839 0.
0.537999 0.0909835 0.
0.539999 0.0909827 0.
0.541999 0.0909816 0.
0.543999 0.0909806 0.
0.545999 0.0909801 0.
0.547998 0.0909798 0.
0.549998 0.0909795 0.
0.551999 0.0909784 0.
0.553999 0.0909773 0.
0.555999 0.0909765 0.
0.557998 0.0909765 0.
0.559998 0.0909766 0.
0.561998 0.0909767 0.
0.563998 0.090977 0.
0.565998 0.0909773 0.
0.567997 0.0909776 0.
0.569997 0.0909779 0.
0.571997 0.0909781 0.
0.573997 0.0909786 0.
0.575997 0.0909791 0.
0.577998 0.0909795 0.
0.579998 0.0909797 0.
0.581998 0.0909799 0.
0.583998 0.0909799 0.
0.585998 0.0909793 0.
0.587998 0.0909788 0.
0.589998 0.0909786 0.
0.591998 0.0909787 0.
0.593998 0.0909788 0.
0.595999 0.0909784 0.
0.597999 0.0909779 0.
0.6 0.0909774 0.
0.602 0.0909777 0.
0.604 0.090978 0.
0.606001 0.0909783 0.
0.608001 0.0909784 0.
0.610001 0.0909785 0.
0.612001 0.0909786 0.
0.614001 0.090979 0.
0.616001 0.0909793 0.
0.618001 0.0909792 0.
0.620001 0.0909789 0.
0.622001 0.0909787 0.
0.624001 0.0909788 0.
0.626001 0.090979 0.
0.628002 0.0909792 0.
0.630002 0.0909791 0.
0.632002 0.0909791 0.
0.634003 0.0909791 0.
0.636003 0.0909792 0.
0.638003 0.0909793 0.
0.640003 0.0909795 0.
0.642003 0.0909796 0.
0.644002 0.0909798 0.
0.646003 0.0909804 0.
0.648003 0.0909811 0.
0.650003 0.0909817 0.
0.652003 0.0909827 0.
0.654003 0.0909838 0.
0.656003 0.0909847 0.
0.658003 0.0909853 0.
0.660003 0.0909859 0.
0.662002 0.0909863 0.
0.664002 0.0909864 0.
0.666002 0.0909865 0.
0.668002 0.0909874 0.
0.670002 0.0909889 0.
0.672002 0.0909903 0.
0.674002 0.0909913 0.
0.676002 0.0909922 0.
0.678002 0.0909932 0.
0.680002 0.0909946 0.
0.682003 0.0909961 0.
0.684003 0.0909976 0.
0.686003 0.0909994 0.
0.688003 0.0910012 0.
0.690003 0.0910035 0.
0.692003 0.0910062 0.
0.694003 0.0910089 0.
0.696004 0.0910114 0.
0.698004 0.0910139 0.
0.499998 0.0930065 0.
0.501998 0.0930048 0.
0.503998 0.0930031 0.
0.505998 0.0930013 0.
0.507998 0.0929992 0.
0.509998 0.0929971 0.
0.511998 0.0929955 0.
0.513999 0.0929945 0.
0.515999 0.0929935 0.
0.517999 0.0929925 0.
0.519999 0.0929915 0.
0.521999 0.0929906 0.
0.523999 0.0929895 0.
0.525998 0.0929884 0.
0.527998 0.0929873 0.
0.529999 0.0929862 0.
0.531999 0.0929851 0.
0.534 0.0929841 0.
0.536 0.0929836 0.
0.538 0.0929831 0.
0.54 0.0929823 0.
0.542 0.0929814 0.
0.544 0.0929805 0.
0.546 0.0929801 0.
0.548 0.0929799 0.
0.549999 0.0929797 0.
0.551999 0.0929784 0.
0.553999 0.0929771 0.
0.555999 0.0929761 0.
0.557998 0.0929764 0.
0.559998 0.0929766 0.
0.561998 0.0929769 0.
0.563997 0.0929771 0.
0.565997 0.0929773 0.
0.567997 0.0929776 0.
0.569997 0.0929779 0.
0.571997 0.0929783 0.
0.573997 0.0929787 0.
0.575997 0.0929792 0.
0.577998 0.0929797 0.
0.579998 0.0929798 0.
0.581998 0.09298 0.
0.583998 0.0929798 0.
0.585998 0.092979 0.
0.587998 0.0929782 0.
0.589998 0.0929779 0.
0.591999 0.0929783 0.
0.593999 0.0929786 0.
0.595999 0.0929781 0.
0.597999 0.0929775 0.
0.6 0.0929769 0.
0.602 0.0929773 0.
0.604001 0.0929777 0.
0.606001 0.0929781 0.
0.608001 0.0929784 0.
0.610001 0.0929787 0.
0.612001 0.0929789 0.
0.614001 0.0929789 0.
0.616001 0.092979 0.
0.618001 0.0929789 0.
0.620001 0.0929786 0.
0.622 0.0929784 0.
0.624001 0.0929787 0.
0.626001 0.092979 0.
0.628002 0.0929793 0.
0.630002 0.0929792 0.
0.632002 0.092979 0.
0.634002 0.092979 0.
0.636002 0.0929792 0.
0.638003 0.0929794 0.
0.640003 0.0929796 0.
0.642002 0.0929797 0.
0.644002 0.0929799 0.
0.646002 0.0929806 0.
0.648002 0.0929815 0.
0.650002 0.0929824 0.
0.652002 0.092983 0.
0.654002 0.0929836 0.
0.656002 0.0929842 0.
0.658002 0.0929847 0.
0.660002 0.0929853 0.
0.662002 0.0929858 0.
0.664002 0.0929864 0.
0.666002 0.0929869 0.
0.668001 0.0929878 0.
0.670001 0.0929889 0.
0.672001 0.09299 0.
0.674 0.0929907 0.
0.676 0.0929914 0.
0.677999 0.0929922 0.
0.68 0.0929942 0.
0.682001 0.0929961 0.
0.684001 0.0929979 0.
0.686001 0.0929995 0.
0.688001 0.093001 0.
0.690001 0.0930032 0.
0.692001 0.0930059 0.
0.694001 0.0930087 0.
0.696001 0.0930112 0.
0.698002 0.0930137 0.
0.5 0.0950063 0.
0.502 0.0950045 0.
0.504 0.0950027 0.
0.506 0.0950009 0.
0.508 0.0949987 0.
0.509999 0.0949966 0.
0.512 0.0949949 0.
0.514 0.0949938 0.
0.516001 0.0949927 0.
0.518001 0.094992 0.
0.520001 0.0949916 0.
0.522001 0.0949911 0.
0.524 0.0949899 0.
0.526 0.0949885 0.
0.528 0.0949871 0.
0.53 0.094986 0.
0.532001 0.0949848 0.
0.534001 0.0949839 0.
0.536001 0.0949833 0.
0.538001 0.0949827 0.
0.540001 0.094982 0.
0.542001 0.0949812 0.
0.544002 0.0949804 0.
0.546001 0.0949801 0.
0.548001 0.09498 0.
0.55 0.0949799 0.
0.552 0.0949783 0.
0.554 0.0949768 0.
0.555999 0.0949758 0.
0.557999 0.0949762 0.
0.559998 0.0949767 0.
0.561998 0.094977 0.
0.563997 0.0949771 0.
0.565997 0.0949772 0.
0.567997 0.0949775 0.
0.569997 0.094978 0.
0.571996 0.0949784 0.
0.573997 0.0949789 0.
0.575997 0.0949794 0.
0.577998 0.0949799 0.
0.579997 0.0949799 0.
0.581997 0.09498 0.
0.583997 0.0949797 0.
0.585998 0.0949786 0.
0.587998 0.0949775 0.
0.589998 0.0949773 0.
0.591999 0.0949778 0.
0.593999 0.0949784 0.
0.595999 0.0949779 0.
0.598 0.0949771 0.
0.6 0.0949763 0.
0.602001 0.0949768 0.
0.604001 0.0949773 0.
0.606001 0.0949778 0.
0.608001 0.0949784 0.
0.610001 0.0949789 0.
0.612001 0.0949791 0.
0.614001 0.0949789 0.
0.616001 0.0949786 0.
0.618001 0.0949785 0.
0.620001 0.0949783 0.
0.622 0.0949782 0.
0.624001 0.0949786 0.
0.626001 0.0949791 0.
0.628001 0.0949795 0.
0.630001 0.0949792 0.
0.632001 0.0949789 0.
0.634001 0.0949788 0.
0.636002 0.0949792 0.
0.638002 0.0949795 0.
0.640002 0.0949797 0.
0.642002 0.0949799 0.
0.644002 0.09498 0.
0.646002 0.0949809 0.
0.648002 0.094982 0.
0.650002 0.094983 0.
0.652001 0.0949832 0.
0.654001 0.0949834 0.
0.656001 0.0949837 0.
0.658001 0.0949841 0.
0.660001 0.0949846 0.
0.662001 0.0949853 0.
0.664001 0.0949863 0.
0.666001 0.0949873 0.
0.668001 0.0949881 0.
0.67 0.0949889 0.
0.672 0.0949897 0.
0.673999 0.0949901 0.
0.675998 0.0949906 0.
0.677997 0.0949912 0.
0.679998 0.0949937 0.
0.681999 0.0949962 0.
0.684 0.0949983 0.
0.685999 0.0949995 0.
0.687999 0.0950008 0.
0.689999 0.0950029 0.
0.691998 0.0950057 0.
0.693998 0.0950084 0.
0.695999 0.095011 0.
0.697999 0.0950135 0.
0.500002 0.0970063 0.
0.502002 0.0970047 0.
0.504002 0.0970032 0.
0.506002 0.0970015 0.
0.508002 0.0969992 0.
0.510002 0.0969969 0.
0.512002 0.096995 0.
0.514002 0.0969937 0.
0.516002 0.0969925 0.
0.518002 0.0969916 0.
0.520002 0.096991 0.
0.522001 0.0969904 0.
0.524001 0.0969893 0.
0.526001 0.0969882 0.
0.528001 0.096987 0.
0.530002 0.0969858 0.
0.532002 0.0969845 0.
0.534002 0.0969835 0.
0.536002 0.0969832 0.
0.538001 0.0969828 0.
0.540001 0.0969821 0.
0.542002 0.0969811 0.
0.544002 0.0969801 0.
0.546002 0.0969799 0.
0.548001 0.0969799 0.
0.550001 0.0969799 0.
0.552 0.0969786 0.
0.554 0.0969773 0.
0.555999 0.0969764 0.
0.557999 0.0969768 0.
0.559998 0.0969772 0.
0.561998 0.0969773 0.
0.563998 0.0969771 0.
0.565998 0.0969769 0.
0.567997 0.0969772 0.
0.569997 0.0969779 0.
0.571997 0.0969785 0.
0.573997 0.0969791 0.
0.575997 0.0969797 0.
0.577997 0.0969801 0.
0.579997 0.0969797 0.
0.581997 0.0969792 0.
0.583997 0.0969788 0.
0.585997 0.0969786 0.
0.587997 0.0969783 0.
0.589998 0.096978 0.
0.591998 0.0969778 0.
0.593998 0.0969775 0.
0.595999 0.0969771 0.
0.597999 0.0969766 0.
0.599999 0.0969761 0.
0.602 0.0969766 0.
0.604 0.096977 0.
0.606 0.0969775 0.
0.608 0.0969783 0.
0.61 0.0969791 0.
0.612 0.0969794 0.
0.614 0.0969792 0.
0.616001 0.0969791 0.
0.618001 0.0969787 0.
0.620001 0.0969783 0.
0.622001 0.0969779 0.
0.624001 0.0969784 0.
0.626001 0.0969789 0.
0.628001 0.0969794 0.
0.630001 0.0969792 0.
0.632001 0.096979 0.
0.634001 0.0969789 0.
0.636001 0.0969792 0.
0.638001 0.0969795 0.
0.640001 0.0969798 0.
0.642001 0.0969802 0.
0.644001 0.0969805 0.
0.646001 0.0969814 0.
0.648001 0.0969824 0.
0.650001 0.0969835 0.
0.652 0.0969835 0.
0.654 0.0969836 0.
0.656 0.0969837 0.
0.658 0.096984 0.
0.659999 0.0969843 0.
0.661999 0.0969849 0.
0.663999 0.0969859 0.
0.665999 0.0969869 0.
0.667999 0.0969878 0.
0.669998 0.0969886 0.
0.671998 0.0969894 0.
0.673997 0.0969902 0.
0.675997 0.096991 0.
0.677996 0.096992 0.
0.679997 0.0969941 0.
0.681997 0.0969962 0.
0.683997 0.0969981 0.
0.685997 0.0969995 0.
0.687997 0.097001 0.
0.689997 0.0970033 0.
0.691997 0.0970062 0.
0.693997 0.0970091 0.
0.695997 0.0970114 0.
0.697997 0.0970135 0.
0.500004 0.0990061 0.
0.502004 0.0990049 0.
0.504004 0.0990036 0.
0.506003 0.0990021 0.
0.508004 0.0989996 0.
0.510004 0.0989971 0.
0.512004 0.0989951 0.
0.514003 0.0989936 0.
0.516003 0.0989922 0.
0.518002 0.0989912 0.
0.520002 0.0989904 0.
0.522002 0.0989896 0.
0.524002 0.0989887 0.
0.526003 0.0989878 0.
0.528003 0.0989869 0.
0.530003 0.0989855 0.
0.532003 0.0989842 0.
0.534003 0.0989832 0.
0.536002 0.0989831 0.
0.538002 0.098983 0.
0.540002 0.0989822 0.
0.542002 0.098981 0.
0.544002 0.0989798 0.
0.546002 0.0989797 0.
0.548002 0.0989799 0.
0.550002 0.09898 0.
0.552001 0.0989789 0.
0.554 0.0989778 0.
0.555999 0.098977 0.
0.557999 0.0989773 0.
0.559998 0.0989776 0.
0.561998 0.0989776 0.
0.563998 0.0989771 0.
0.565998 0.0989766 0.
0.567998 0.098977 0.
0.569998 0.0989778 0.
0.571997 0.0989786 0.
0.573997 0.0989793 0.
0.575997 0.0989799 0.
0.577997 0.0989804 0.
0.579997 0.0989794 0.
0.581998 0.0989784 0.
0.583997 0.0989779 0.
0.585997 0.0989785 0.
0.587997 0.0989791 0.
0.589997 0.0989788 0.
0.591997 0.0989777 0.
0.593998 0.0989766 0.
0.595998 0.0989763 0.
0.597998 0.0989761 0.
0.599999 0.0989759 0.
0.601999 0.0989763 0.
0.603999 0.0989767 0.
0.605999 0.0989772 0.
0.607999 0.0989782 0.
0.609999 0.0989792 0.
0.611999 0.0989797 0.
0.614 0.0989796 0.
0.616 0.0989795 0.
0.618001 0.098979 0.
0.620001 0.0989784 0.
0.622002 0.0989777 0.
0.624002 0.0989781 0.
0.626002 0.0989787 0.
0.628001 0.0989792 0.
0.630001 0.0989791 0.
0.632001 0.098979 0.
0.634001 0.0989791 0.
0.636001 0.0989793 0.
0.638 0.0989795 0.
0.64 0.0989799 0.
0.642 0.0989805 0.
0.644 0.098981 0.
0.646 0.0989819 0.
0.648 0.0989829 0.
0.65 0.0989839 0.
0.651999 0.0989838 0.
0.653999 0.0989838 0.
0.655999 0.0989837 0.
0.657998 0.0989838 0.
0.659998 0.098984 0.
0.661998 0.0989845 0.
0.663997 0.0989855 0.
0.665997 0.0989866 0.
0.667997 0.0989875 0.
0.669996 0.0989883 0.
0.671996 0.0989891 0.
0.673996 0.0989903 0.
0.675996 0.0989915 0.
0.677995 0.0989928 0.
0.679995 0.0989945 0.
0.681995 0.0989962 0.
0.683995 0.0989978 0.
0.685995 0.0989995 0.
0.687995 0.0990011 0.
0.689996 0.0990036 0.
0.691996 0.0990068 0.
0.693996 0.0990099 0.
0.695996 0.0990118 0.
0.697995 0.0990135 0.
CELLS 5000 10000
1 0
1 1
1 2
1 3
1 4
1 5
1 6
1 7
1 8
1 9
1 10
1 11
1 12
1 13
1 14
1 15
1 16
1 17
1 18
1 19
1 20
1 21
1 22
1 23
1 24
1 25
1 26
1 27
1 28
1 29
1 30
1 31
1 32
1 33
1 34
1 35
1 36
1 37
1 38
1 39
1 40
1 41
1 42
1 43
1 44
1 45
1 46
1 47
1 48
1 49
1 50
1 51
1 52
1 53
1 54
1 55
1 56
1 57
1 58
1 59
1 60
1 61
1 62
1 63
1 64
1 65
1 66
1 67
1 68
1 69
1 70
1 71
1 72
1 73
1 74
1 75
1 76
1 77
1 78
1 79
1 80
1 81
1 82
1 83
1 84
1 85
1 86
1 87
1 88
1 89
1 90
1 91
1 92
1 93
1 94
1 95
1 96
1 97
1 98
1 99
1 100
1 101
1 102
1 103
1 104
1 105
1 106
1 107
1 108
1 109
1 110
1 111
1 112
1 113
1 114
1 115
1 116
1 117
1 118
1 119
1 120
1 121
1 122
1 123
1 124
1 125
1 126
1 127
1 128
1 129
1 130
1 131
1 132
1 133
1 134
1 135
1 136
1 137
1 138
1 139
1 140
1 141
1 142
1 143
1 144
1 145
1 146
1 147
1 148
1 149
1 150
1 151
1 152
1 153
1 154
1 155
1 156
1 157
1 158
1 159
1 160
1 161
1 162
1 163
1 164
1 165
1 166
1 167
1 168
1 169
1 170
1 171
1 172
1 173
1 174
1 175
1 176
1 177
1 178
1 179
1 180
1 181
1 182
1 183
1 184
1 185
1 186
1 187
1 188
1 189
1 190
1 191
1 192
1 193
1 194
1 195
1 196
1 197
1 198
1 199
1 200
1 201
1 202
1 203
1 204
1 205
1 206
1 207
1 208
1 209
1 210
1 211
1 212
1 213
1 214
1 215
1 216
1 217
1 218
1 219
1 220
1 221
1 222
1 223
1 224
1 225
1 226
1 227
1 228
1 229
1 230
1 231
1 232
1 233
1 234
1 235
1 236
1 237
1 238
1 239
1 240
1 241
1 242
1 243
1 244
1 245
1 246
1 247
1 248
1 249
1 250
1 251
1 252
1 253
1 254
1 255
1 256
1 257
1 258
1 259
1 260
1 261
1 262
1 263
1 264
1 265
1 266
1 267
1 268
1 269
1 270
1 271
1 272
1 273
1 274
1 275
1 276
1 277
1 278
1 279
1 280
1 281
1 282
1 283
1 284
1 285
1 286
1 287
1 288
1 289
1 290
1 291
1 292
1 293
1 294
1 295
1 296
1 297
1 298
1 299
1 300
1 301
1 302
1 303
1 304
1 305
1 306
1 307
1 308
1 309
1 310
1 311
1 312
1 313
1 314
1 315
1 316
1 317
1 318
1 319
1 320
1 321
1 322
1 323
1 324
1 325
1 326
1 327
1 328
1 329
1 330
1 331
1 332
1 333
1 334
1 335
1 336
1 337
1 338
1 339
1 340
1 341
1 342
1 343
1 344
1 345
1 346
1 347
1 348
1 349
1 350
1 351
1 352
1 353
1 354
1 355
1 356
1 357
1 358
1 359
1 360
1 361
1 362
1 363
1 364
1 365
1 366
1 367
1 368
1 369
1 370
1 371
1 372
1 373
1 374
1 375
1 376
1 377
1 378
1 379
1 380
1 381
1 382
1 383
1 384
1 385
1 386
1 387
1 388
1 389
1 390
1 391
1 392
1 393
1 394
1 395
1 396
1 397
1 398
1 399
1 400
1 401
1 402
1 403
1 404
1 405
1 406
1 407
1 408
1 409
1 410
1 411
1 412
1 413
1 414
1 415
1 416
1 417
1 418
1 419
1 420
1 421
1 422
1 423
1 424
1 425
1 426
1 427
1 428
1 429
1 430
1 431
1 432
1 433
1 434
1 435
1 436
1 437
1 438
1 439
1 440
1 441
1 442
1 443
1 444
1 445
1 446
1 447
1 448
1 449
1 450
1 451
1 452
1 453
1 454
1 455
1 456
1 457
1 458
1 459
1 460
1 461
1 462
1 463
1 464
1 465
1 466
1 467
1 468
1 469
1 470
1 471
1 472
1 473
1 474
1 475
1 476
1 477
1 478
1 479
1 480
1 481
1 482
1 483
1 484
1 485
1 486
1 487
1 488
1 489
1 490
1 491
1 492
1 493
1 494
1 495
1 496
1 497
1 498
1 499
1 500
1 501
1 502
1 503
1 504
1 505
1 506
1 507
1 508
1 509
1 510
1 511
1 512
1 513
1 514
1 515
1 516
1 517
1 518
1 519
1 520
1 521
1 522
1 523
1 524
1 525
1 526
1 527
1 528
1 529
1 530
1 531
1 532
1 533
1 534
1 535
1 536
1 537
1 538
1 539
1 540
1 541
1 542
1 543
1 544
1 545
1 546
1 547
1 548
1 549
1 550
1 551
1 552
1 553
1 554
1 555
1 556
1 557
1 558
1 559
1 560
1 561
1 562
1 563
1 564
1 565
1 566
1 567
1 568
1 569
1 570
1 571
1 572
1 573
1 574
1 575
1 576
1 577
1 578
1 579
1 580
1 581
1 582
1 583
1 584
1 585
1 586
1 587
1 588
1 589
1 590
1 591
1 592
1 593
1 594
1 595
1 596
1 597
1 598
1 599
1 600
1 601
1 602
1 603
1 604
1 605
1 606
1 607
1 608
1 609
1 610
1 611
1 612
1 613
1 614
1 615
1 616
1 617
1 618
1 619
1 620
1 621
1 622
1 623
1 624
1 625
1 626
1 627
1 628
1 629
1 630
1 631
1 632
1 633
1 634
1 635
1 636
1 637
1 638
1 639
1 640
1 641
1 642
1 643
1 644
1 645
1 646
1 647
1 648
1 649
1 650
1 651
1 652
1 653
1 654
1 655
1 656
1 657
1 658
1 659
1 660
1 661
1 662
1 663
1 664
1 665
1 666
1 667
1 668
1 669
1 670
1 671
1 672
1 673
1 674
1 675
1 676
1 677
1 678
1 679
1 680
1 681
1 682
1 683
1 684
1 685
1 686
1 687
1 688
1 689
1 690
1 691
1 692
1 693
1 694
1 695
1 696
1 697
1 698
1 699
1 700
1 701
1 702
1 703
1 704
1 705
1 706
1 707
1 708
1 709
1 710
1 711
1 712
1 713
1 714
1 715
1 716
1 717
1 718
1 719
1 720
1 721
1 722
1 723
1 724
1 725
1 726
1 727
1 728
1 729
1 730
1 731
1 732
1 733
1 734
1 735
1 736
1 737
1 738
1 739
1 740
1 741
1 742
1 743
1 744
1 745
1 746
1 747
1 748
1 749
1 750
1 751
1 752
1 753
1 754
1 755
1 756
1 757
1 758
1 759
1 760
1 761
1 762
1 763
1 764
1 765
1 766
1 767
1 768
1 769
1 770
1 771
1 772
1 773
1 774
1 775
1 776
1 777
1 778
1 779
1 780
1 781
1 782
1 783
1 784
1 785
1 786
1 787
1 788
1 789
1 790
1 791
1 792
1 793
1 794
1 795
1 796
1 797
1 798
1 799
1 800
1 801
1 802
1 803
1 804
1 805
1 806
1 807
1 808
1 809
1 810
1 811
1 812
1 813
1 814
1 815
1 816
1 817
1 818
1 819
1 820
1 821
1 822
1 823
1 824
1 825
1 826
1 827
1 828
1 829
1 830
1 831
1 832
1 833
1 834
1 835
1 836
1 837
1 838
1 839
1 840
1 841
1 842
1 843
1 844
1 845
1 846
1 847
1 848
1 849
1 850
1 851
1 852
1 853
1 854
1 855
1 856
1 857
1 858
1 859
1 860
1 861
1 862
1 863
1 864
1 865
1 866
1 867
1 868
1 869
1 870
1 871
1 872
1 873
1 874
1 875
1 876
1 877
1 878
1 879
1 880
1 881
1 882
1 883
1 884
1 885
1 886
1 887
1 888
1 889
1 890
1 891
1 892
1 893
1 894
1 895
1 896
1 897
1 898
1 899
1 900
1 901
1 902
1 903
1 904
1 905
1 906
1 907
1 908
1 909
1 910
1 911
1 912
1 913
1 914
1 915
1 916
1 917
1 918
1 919
1 920
1 921
1 922
1 923
1 924
1 925
1 926
1 927
1 928
1 929
1 930
1 931
1 932
1 933
1 934
1 935
1 936
1 937
1 938
1 939
1 940
1 941
1 942
1 943
1 944
1 945
1 946
1 947
1 948
1 949
1 950
1 951
1 952
1 953
1 954
1 955
1 956
1 957
1 958
1 959
1 960
1 961
1 962
1 963
1 964
1 965
1 966
1 967
1 968
1 969
1 970
1 971
1 972
1 973
1 974
1 975
1 976
1 977
1 978
1 979
1 980
1 981
1 982
1 983
1 984
1 985
1 986
1 987
1 988
1 989
1 990
1 991
1 992
1 993
1 994
1 995
1 996
1 997
1 998
1 999
1 1000
1 1001
1 1002
1 1003
1 1004
1 1005
1 1006
1 1007
1 1008
1 1009
1 1010
1 1011
1 1012
1 1013
1 1014
1 1015
1 1016
1 1017
1 1018
1 1019
1 1020
1 1021
1 1022
1 1023
1 1024
1 1025
1 1026
1 1027
1 1028
1 1029
1 1030
1 1031
1 1032
1 1033
1 1034
1 1035
1 1036
1 1037
1 1038
1 1039
1 1040
1 1041
1 1042
1 1043
1 1044
1 1045
1 1046
1 1047
1 1048
1 1049
1 1050
1 1051
1 1052
1 1053
1 1054
1 1055
1 1056
1 1057
1 1058
1 1059
1 1060
1 1061
1 1062
1 1063
1 1064
1 1065
1 1066
1 1067
1 1068
1 1069
1 1070
1 1071
1 1072
1 1073
1 1074
1 1075
1 1076
1 1077
1 1078
1 1079
1 1080
1 1081
1 1082
1 1083
1 1084
1 1085
1 1086
1 1087
1 1088
1 1089
1 1090
1 1091
1 1092
1 1093
1 1094
1 1095
1 1096
1 1097
1 1098
1 1099
1 1100
1 1101
1 1102
1 1103
1 1104
1 1105
1 1106
1 1107
1 1108
1 1109
1 1110
1 1111
1 1112
1 1113
1 1114
1 1115
1 1116
1 1117
1 1118
1 1119
1 1120
1 1121
1 1122
1 1123
1 1124
1 1125
1 1126
1 1127
1 1128
1 1129
1 1130
1 1131
1 1132
1 1133
1 1134
1 1135
1 1136
1 1137
1 1138
1 1139
1 1140
1 1141
1 1142
1 1143
1 1144
1 1145
1 1146
1 1147
1 1148
1 1149
1 1150
1 1151
1 1152
1 1153
1 1154
1 1155
1 1156
1 1157
1 1158
1 1159
1 1160
1 1161
1 1162
1 1163
1 1164
1 1165
1 1166
1 1167
1 1168
1 1169
1 1170
1 1171
1 1172
1 1173
1 1174
1 1175
1 1176
1 1177
1 1178
1 1179
1 1180
1 1181
1 1182
1 1183
1 1184
1 1185
1 1186
1 1187
1 1188
1 1189
1 1190
1 1191
1 1192
1 1193
1 1194
1 1195
1 1196
1 1197
1 1198
1 1199
1 1200
1 1201
1 1202
1 1203
1 1204
1 1205
1 1206
1 1207
1 1208
1 1209
1 1210
1 1211
1 1212
1 1213
1 1214
1 1215
1 1216
1 1217
1 1218
1 1219
1 1220
1 1221
1 1222
1 1223
1 1224
1 1225
1 1226
1 1227
1 1228
1 1229
1 1230
1 1231
1 1232
1 1233
1 1234
1 1235
1 1236
1 1237
1 1238
1 1239
1 1240
1 1241
1 1242
1 1243
1 1244
1 1245
1 1246
1 1247
1 1248
1 1249
1 1250
1 1251
1 1252
1 1253
1 1254
1 1255
1 1256
1 1257
1 1258
1 1259
1 1260
1 1261
1 1262
1 1263
1 1264
1 1265
1 1266
1 1267
1 1268
1 1269
1 1270
1 1271
1 1272
1 1273
1 1274
1 1275
1 1276
1 1277
1 1278
1 1279
1 1280
1 1281
1 1282
1 1283
1 1284
1 1285
1 1286
1 1287
1 1288
1 1289
1 1290
1 1291
1 1292
1 1293
1 1294
1 1295
1 1296
1 1297
1 1298
1 1299
1 1300
1 1301
1 1302
1 1303
1 1304
1 1305
1 1306
1 1307
1 1308
1 1309
1 1310
1 1311
1 1312
1 1313
1 1314
1 1315
1 1316
1 1317
1 1318
1 1319
1 1320
1 1321
1 1322
1 1323
1 1324
1 1325
1 1326
1 1327
1 1328
1 1329
1 1330
1 1331
1 1332
1 1333
1 1334
1 1335
1 1336
1 1337
1 1338
1 1339
1 1340
1 1341
1 1342
1 1343
1 1344
1 1345
1 1346
1 1347
1 1348
1 1349
1 1350
1 1351
1 1352
1 1353
1 1354
1 1355
1 1356
1 1357
1 1358
1 1359
1 1360
1 1361
1 1362
1 1363
1 1364
1 1365
1 1366
1 1367
1 1368
1 1369
1 1370
1 1371
1 1372
1 1373
1 1374
1 1375
1 1376
1 1377
1 1378
1 1379
1 1380
1 1381
1 1382
1 1383
1 1384
1 1385
1 1386
1 1387
1 1388
1 1389
1 1390
1 1391
1 1392
1 1393
1 1394
1 1395
1 1396
1 1397
1 1398
1 1399
1 1400
1 1401
1 1402
1 1403
1 1404
1 1405
1 1406
1 1407
1 1408
1 1409
1 1410
1 1411
1 1412
1 1413
1 1414
1 1415
1 1416
1 1417
1 1418
1 1419
1 1420
1 1421
1 1422
1 1423
1 1424
1 1425
1 1426
1 1427
1 1428
1 1429
1 1430
1 1431
1 1432
1 1433
1 1434
1 1435
1 1436
1 1437
1 1438
1 1439
1 1440
1 1441
1 1442
1 1443
1 1444
1 1445
1 1446
1 1447
1 1448
1 1449
1 1450
1 1451
1 1452
1 1453
1 1454
1 1455
1 1456
1 1457
1 1458
1 1459
1 1460
1 1461
1 1462
1 1463
1 1464
1 1465
1 1466
1 1467
1 1468
1 1469
1 1470
1 1471
1 1472
1 1473
1 1474
1 1475
1 1476
1 1477
1 1478
1 1479
1 1480
1 1481
1 1482
1 1483
1 1484
1 1485
1 1486
1 1487
1 1488
1 1489
1 1490
1 1491
1 1492
1 1493
1 1494
1 1495
1 1496
1 1497
1 1498
1 1499
1 1500
1 1501
1 1502
1 1503
1 1504
1 1505
1 1506
1 1507
1 1508
1 1509
1 1510
1 1511
1 1512
1 1513
1 1514
1 1515
1 1516
1 1517
1 1518
1 1519
1 1520
1 1521
1 1522
1 1523
1 1524
1 1525
1 1526
1 1527
1 1528
1 1529
1 1530
1 1531
1 1532
1 1533
1 1534
1 1535
1 1536
1 1537
1 1538
1 1539
1 1540
1 1541
1 1542
1 1543
1 1544
1 1545
1 1546
1 1547
1 1548
1 1549
1 1550
1 1551
1 1552
1 1553
1 1554
1 1555
1 1556
1 1557
1 1558
1 1559
1 1560
1 1561
1 1562
1 1563
1 1564
1 1565
1 1566
1 1567
1 1568
1 1569
1 1570
1 1571
1 1572
1 1573
1 1574
1 1575
1 1576
1 1577
1 1578
1 1579
1 1580
1 1581
1 1582
1 1583
1 1584
1 1585
1 1586
1 1587
1 1588
1 1589
1 1590
1 1591
1 1592
1 1593
1 1594
1 1595
1 1596
1 1597
1 1598
1 1599
1 1600
1 1601
1 1602
1 1603
1 1604
1 1605
1 1606
1 1607
1 1608
1 1609
1 1610
1 1611
1 1612
1 1613
1 1614
1 1615
1 1616
1 1617
1 1618
1 1619
1 1620
1 1621
1 1622
1 1623
1 1624
1 1625
1 1626
1 1627
1 1628
1 1629
1 1630
1 1631
1 1632
1 1633
1 1634
1 1635
1 1636
1 1637
1 1638
1 1639
1 1640
1 1641
1 1642
1 1643
1 1644
1 1645
1 1646
1 1647
1 1648
1 1649
1 1650
1 1651
1 1652
1 1653
1 1654
1 1655
1 1656
1 1657
1 1658
1 1659
1 1660
1 1661
1 1662
1 1663
1 1664
1 1665
1 1666
1 1667
1 1668
1 1669
1 1670
1 1671
1 1672
1 1673
1 1674
1 1675
1 1676
1 1677
1 1678
1 1679
1 1680
1 1681
1 1682
1 1683
1 1684
1 1685
1 1686
1 1687
1 1688
1 1689
1 1690
1 1691
1 1692
1 1693
1 1694
1 1695
1 1696
1 1697
1 1698
1 1699
1 1700
1 1701
1 1702
1 1703
1 1704
1 1705
1 1706
1 1707
1 1708
1 1709
1 1710
1 1711
1 1712
1 1713
1 1714
1 1715
1 1716
1 1717
1 1718
1 1719
1 1720
1 1721
1 1722
1 1723
1 1724
1 1725
1 1726
1 1727
1 1728
1 1729
1 1730
1 1731
1 1732
1 1733
1 1734
1 1735
1 1736
1 1737
1 1738
1 1739
1 1740
1 1741
1 1742
1 1743
1 1744
1 1745
1 1746
1 1747
1 1748
1 1749
1 1750
1 1751
1 1752
1 1753
1 1754
1 1755
1 1756
1 1757
1 1758
1 1759
1 1760
1 1761
1 1762
1 1763
1 1764
1 1765
1 1766
1 1767
1 1768
1 1769
1 1770
1 1771
1 1772
1 1773
1 1774
1 1775
1 1776
1 1777
1 1778
1 1779
1 1780
1 1781
1 1782
1 1783
1 1784
1 1785
1 1786
1 1787
1 1788
1 1789
1 1790
1 1791
1 1792
1 1793
1 1794
1 1795
1 1796
1 1797
1 1798
1 1799
1 1800
1 1801
1 1802
1 1803
1 1804
1 1805
1 1806
1 1807
1 1808
1 1809
1 1810
1 1811
1 1812
1 1813
1 1814
1 1815
1 1816
1 1817
1 1818
1 1819
1 1820
1 1821
1 1822
1 1823
1 1824
1 1825
1 1826
1 1827
1 1828
1 1829
1 1830
1 1831
1 1832
1 1833
1 1834
1 1835
1 1836
1 1837
1 1838
1 1839
1 1840
1 1841
1 1842
1 1843
1 1844
1 1845
1 1846
1 1847
1 1848
1 1849
1 1850
1 1851
1 1852
1 1853
1 1854
1 1855
1 1856
1 1857
1 1858
1 1859
1 1860
1 1861
1 1862
1 1863
1 1864
1 1865
1 1866
1 1867
1 1868
1 1869
1 1870
1 1871
1 1872
1 1873
1 1874
1 1875
1 1876
1 1877
1 1878
1 1879
1 1880
1 1881
1 1882
1 1883
1 1884
1 1885
1 1886
1 1887
1 1888
1 1889
1 1890
1 1891
1 1892
1 1893
1 1894
1 1895
1 1896
1 1897
1 1898
1 1899
1 1900
1 1901
1 1902
1 1903
1 1904
1 1905
1 1906
1 1907
1 1908
1 1909
1 1910
1 1911
1 1912
1 1913
1 1914
1 1915
1 1916
1 1917
1 1918
1 1919
1 1920
1 1921
1 1922
1 1923
1 1924
1 1925
1 1926
1 1927
1 1928
1 1929
1 1930
1 1931
1 1932
1 1933
1 1934
1 1935
1 1936
1 1937
1 1938
1 1939
1 1940
1 1941
1 1942
1 1943
1 1944
1 1945
1 1946
1 1947
1 1948
1 1949
1 1950
1 1951
1 1952
1 1953
1 1954
1 1955
1 1956
1 1957
1 1958
1 1959
1 1960
1 1961
1 1962
1 1963
1 1964
1 1965
1 1966
1 1967
1 1968
1 1969
1 1970
1 1971
1 1972
1 1973
1 1974
1 1975
1 1976
1 1977
1 1978
1 1979
1 1980
1 1981
1 1982
1 1983
1 1984
1 1985
1 1986
1 1987
1 1988
1 1989
1 1990
1 1991
1 1992
1 1993
1 1994
1 1995
1 1996
1 1997
1 1998
1 1999
1 2000
1 2001
1 2002
1 2003
1 2004
1 2005
1 2006
1 2007
1 2008
1 2009
1 2010
1 2011
1 2012
1 2013
1 2014
1 2015
1 2016
1 2017
1 2018
1 2019
1 2020
1 2021
1 2022
1 2023
1 2024
1 2025
1 2026
1 2027
1 2028
1 2029
1 2030
1 2031
1 2032
1 2033
1 2034
1 2035
1 2036
1 2037
1 2038
1 2039
1 2040
1 2041
1 2042
1 2043
1 2044
1 2045
1 2046
1 2047
1 2048
1 2049
1 2050
1 2051
1 2052
1 2053
1 2054
1 2055
1 2056
1 2057
1 2058
1 2059
1 2060
1 2061
1 2062
1 2063
1 2064
1 2065
1 2066
1 2067
1 2068
1 2069
1 2070
1 2071
1 2072
1 2073
1 2074
1 2075
1 2076
1 2077
1 2078
1 2079
1 2080
1 2081
1 2082
1 2083
1 2084
1 2085
1 2086
1 2087
1 2088
1 2089
1 2090
1 2091
1 2092
1 2093
1 2094
1 2095
1 2096
1 2097
1 2098
1 2099
1 2100
1 2101
1 2102
1 2103
1 2104
1 2105
1 2106
1 2107
1 2108
1 2109
1 2110
1 2111
1 2112
1 2113
1 2114
1 2115
1 2116
1 2117
1 2118
1 2119
1 2120
1 2121
1 2122
1 2123
1 2124
1 2125
1 2126
1 2127
1 2128
1 2129
1 2130
1 2131
1 2132
1 2133
1 2134
1 2135
1 2136
1 2137
1 2138
1 2139
1 2140
1 2141
1 2142
1 2143
1 2144
1 2145
1 2146
1 2147
1 2148
1 2149
1 2150
1 2151
1 2152
1 2153
1 2154
1 2155
1 2156
1 2157
1 2158
1 2159
1 2160
1 2161
1 2162
1 2163
1 2164
1 2165
1 2166
1 2167
1 2168
1 2169
1 2170
1 2171
1 2172
1 2173
1 2174
1 2175
1 2176
1 2177
1 2178
1 2179
1 2180
1 2181
1 2182
1 2183
1 2184
1 2185
1 2186
1 2187
1 2188
1 2189
1 2190
1 2191
1 2192
1 2193
1 2194
1 2195
1 2196
1 2197
1 2198
1 2199
1 2200
1 2201
1 2202
1 2203
1 2204
1 2205
1 2206
1 2207
1 2208
1 2209
1 2210
1 2211
1 2212
1 2213
1 2214
1 2215
1 2216
1 2217
1 2218
1 2219
1 2220
1 2221
1 2222
1 2223
1 2224
1 2225
1 2226
1 2227
1 2228
1 2229
1 2230
1 2231
1 2232
1 2233
1 2234
1 2235
1 2236
1 2237
1 2238
1 2239
1 2240
1 2241
1 2242
1 2243
1 2244
1 2245
1 2246
1 2247
1 2248
1 2249
1 2250
1 2251
1 2252
1 2253
1 2254
1 2255
1 2256
1 2257
1 2258
1 2259
1 2260
1 2261
1 2262
1 2263
1 2264
1 2265
1 2266
1 2267
1 2268
1 2269
1 2270
1 2271
1 2272
1 2273
1 2274
1 2275
1 2276
1 2277
1 2278
1 2279
1 2280
1 2281
1 2282
1 2283
1 2284
1 2285
1 2286
1 2287
1 2288
1 2289
1 2290
1 2291
1 2292
1 2293
1 2294
1 2295
1 2296
1 2297
1 2298
1 2299
1 2300
1 2301
1 2302
1 2303
1 2304
1 2305
1 2306
1 2307
1 2308
1 2309
1 2310
1 2311
1 2312
1 2313
1 2314
1 2315
1 2316
1 2317
1 2318
1 2319
1 2320
1 2321
1 2322
1 2323
1 2324
1 2325
1 2326
1 2327
1 2328
1 2329
1 2330
1 2331
1 2332
1 2333
1 2334
1 2335
1 2336
1 2337
1 2338
1 2339
1 2340
1 2341
1 2342
1 2343
1 2344
1 2345
1 2346
1 2347
1 2348
1 2349
1 2350
1 2351
1 2352
1 2353
1 2354
1 2355
1 2356
1 2357
1 2358
1 2359
1 2360
1 2361
1 2362
1 2363
1 2364
1 2365
1 2366
1 2367
1 2368
1 2369
1 2370
1 2371
1 2372
1 2373
1 2374
1 2375
1 2376
1 2377
1 2378
1 2379
1 2380
1 2381
1 2382
1 2383
1 2384
1 2385
1 2386
1 2387
1 2388
1 2389
1 2390
1 2391
1 2392
1 2393
1 2394
1 2395
1 2396
1 2397
1 2398
1 2399
1 2400
1 2401
1 2402
1 2403
1 2404
1 2405
1 2406
1 2407
1 2408
1 2409
1 2410
1 2411
1 2412
1 2413
1 2414
1 2415
1 2416
1 2417
1 2418
1 2419
1 2420
1 2421
1 2422
1 2423
1 2424
1 2425
1 2426
1 2427
1 2428
1 2429
1 2430
1 2431
1 2432
1 2433
1 2434
1 2435
1 2436
1 2437
1 2438
1 2439
1 2440
1 2441
1 2442
1 2443
1 2444
1 2445
1 2446
1 2447
1 2448
1 2449
1 2450
1 2451
1 2452
1 2453
1 2454
1 2455
1 2456
1 2457
1 2458
1 2459
1 2460
1 2461
1 2462
1 2463
1 2464
1 2465
1 2466
1 2467
1 2468
1 2469
1 2470
1 2471
1 2472
1 2473
1 2474
1 2475
1 2476
1 2477
1 2478
1 2479
1 2480
1 2481
1 2482
1 2483
1 2484
1 2485
1 2486
1 2487
1 2488
1 2489
1 2490
1 2491
1 2492
1 2493
1 2494
1 2495
1 2496
1 2497
1 2498
1 2499
1 2500
1 2501
1 2502
1 2503
1 2504
1 2505
1 2506
1 2507
1 2508
1 2509
1 2510
1 2511
1 2512
1 2513
1 2514
1 2515
1 2516
1 2517
1 2518
1 2519
1 2520
1 2521
1 2522
1 2523
1 2524
1 2525
1 2526
1 2527
1 2528
1 2529
1 2530
1 2531
1 2532
1 2533
1 2534
1 2535
1 2536
1 2537
1 2538
1 2539
1 2540
1 2541
1 2542
1 2543
1 2544
1 2545
1 2546
1 2547
1 2548
1 2549
1 2550
1 2551
1 2552
1 2553
1 2554
1 2555
1 2556
1 2557
1 2558
1 2559
1 2560
1 2561
1 2562
1 2563
1 2564
1 2565
1 2566
1 2567
1 2568
1 2569
1 2570
1 2571
1 2572
1 2573
1 2574
1 2575
1 2576
1 2577
1 2578
1 2579
1 2580
1 2581
1 2582
1 2583
1 2584
1 2585
1 2586
1 2587
1 2588
1 2589
1 2590
1 2591
1 2592
1 2593
1 2594
1 2595
1 2596
1 2597
1 2598
1 2599
1 2600
1 2601
1 2602
1 2603
1 2604
1 2605
1 2606
1 2607
1 2608
1 2609
1 2610
1 2611
1 2612
1 2613
1 2614
1 2615
1 2616
1 2617
1 2618
1 2619
1 2620
1 2621
1 2622
1 2623
1 2624
1 2625
1 2626
1 2627
1 2628
1 2629
1 2630
1 2631
1 2632
1 2633
1 2634
1 2635
1 2636
1 2637
1 2638
1 2639
1 2640
1 2641
1 2642
1 2643
1 2644
1 2645
1 2646
1 2647
1 2648
1 2649
1 2650
1 2651
1 2652
1 2653
1 2654
1 2655
1 2656
1 2657
1 2658
1 2659
1 2660
1 2661
1 2662
1 2663
1 2664
1 2665
1 2666
1 2667
1 2668
1 2669
1 2670
1 2671
1 2672
1 2673
1 2674
1 2675
1 2676
1 2677
1 2678
1 2679
1 2680
1 2681
1 2682
1 2683
1 2684
1 2685
1 2686
1 2687
1 2688
1 2689
1 2690
1 2691
1 2692
1 2693
1 2694
1 2695
1 2696
1 2697
1 2698
1 2699
1 2700
1 2701
1 2702
1 2703
1 2704
1 2705
1 2706
1 2707
1 2708
1 2709
1 2710
1 2711
1 2712
1 2713
1 2714
1 2715
1 2716
1 2717
1 2718
1 2719
1 2720
1 2721
1 2722
1 2723
1 2724
1 2725
1 2726
1 2727
1 2728
1 2729
1 2730
1 2731
1 2732
1 2733
1 2734
1 2735
1 2736
1 2737
1 2738
1 2739
1 2740
1 2741
1 2742
1 2743
1 2744
1 2745
1 2746
1 2747
1 2748
1 2749
1 2750
1 2751
1 2752
1 2753
1 2754
1 2755
1 2756
1 2757
1 2758
1 2759
1 2760
1 2761
1 2762
1 2763
1 2764
1 2765
1 2766
1 2767
1 2768
1 2769
1 2770
1 2771
1 2772
1 2773
1 2774
1 2775
1 2776
1 2777
1 2778
1 2779
1 2780
1 2781
1 2782
1 2783
1 2784
1 2785
1 2786
1 2787
1 2788
1 2789
1 2790
1 2791
1 2792
1 2793
1 2794
1 2795
1 2796
1 2797
1 2798
1 2799
1 2800
1 2801
1 2802
1 2803
1 2804
1 2805
1 2806
1 2807
1 2808
1 2809
1 2810
1 2811
1 2812
1 2813
1 2814
1 2815
1 2816
1 2817
1 2818
1 2819
1 2820
1 2821
1 2822
1 2823
1 2824
1 2825
1 2826
1 2827
1 2828
1 2829
1 2830
1 2831
1 2832
1 2833
1 2834
1 2835
1 2836
1 2837
1 2838
1 2839
1 2840
1 2841
1 2842
1 2843
1 2844
1 2845
1 2846
1 2847
1 2848
1 2849
1 2850
1 2851
1 2852
1 2853
1 2854
1 2855
1 2856
1 2857
1 2858
1 2859
1 2860
1 2861
1 2862
1 2863
1 2864
1 2865
1 2866
1 2867
1 2868
1 2869
1 2870
1 2871
1 2872
1 2873
1 2874
1 2875
1 2876
1 2877
1 2878
1 2879
1 2880
1 2881
1 2882
1 2883
1 2884
1 2885
1 2886
1 2887
1 2888
1 2889
1 2890
1 2891
1 2892
1 2893
1 2894
1 2895
1 2896
1 2897
1 2898
1 2899
1 2900
1 2901
1 2902
1 2903
1 2904
1 2905
1 2906
1 2907
1 2908
1 2909
1 2910
1 2911
1 2912
1 2913
1 2914
1 2915
1 2916
1 2917
1 2918
1 2919
1 2920
1 2921
1 2922
1 2923
1 2924
1 2925
1 2926
1 2927
1 2928
1 2929
1 2930
1 2931
1 2932
1 2933
1 2934
1 2935
1 2936
1 2937
1 2938
1 2939
1 2940
1 2941
1 2942
1 2943
1 2944
1 2945
1 2946
1 2947
1 2948
1 2949
1 2950
1 2951
1 2952
1 2953
1 2954
1 2955
1 2956
1 2957
1 2958
1 2959
1 2960
1 2961
1 2962
1 2963
1 2964
1 2965
1 2966
1 2967
1 2968
1 2969
1 2970
1 2971
1 2972
1 2973
1 2974
1 2975
1 2976
1 2977
1 2978
1 2979
1 2980
1 2981
1 2982
1 2983
1 2984
1 2985
1 2986
1 2987
1 2988
1 2989
1 2990
1 2991
1 2992
1 2993
1 2994
1 2995
1 2996
1 2997
1 2998
1 2999
1 3000
1 3001
1 3002
1 3003
1 3004
1 3005
1 3006
1 3007
1 3008
1 3009
1 3010
1 3011
1 3012
1 3013
1 3014
1 3015
1 3016
1 3017
1 3018
1 3019
1 3020
1 3021
1 3022
1 3023
1 3024
1 3025
1 3026
1 3027
1 3028
1 3029
1 3030
1 3031
1 3032
1 3033
1 3034
1 3035
1 3036
1 3037
1 3038
1 3039
1 3040
1 3041
1 3042
1 3043
1 3044
1 3045
1 3046
1 3047
1 3048
1 3049
1 3050
1 3051
1 3052
1 3053
1 3054
1 3055
1 3056
1 3057
1 3058
1 3059
1 3060
1 3061
1 3062
1 3063
1 3064
1 3065
1 3066
1 3067
1 3068
1 3069
1 3070
1 3071
1 3072
1 3073
1 3074
1 3075
1 3076
1 3077
1 3078
1 3079
1 3080
1 3081
1 3082
1 3083
1 3084
1 3085
1 3086
1 3087
1 3088
1 3089
1 3090
1 3091
1 3092
1 3093
1 3094
1 3095
1 3096
1 3097
1 3098
1 3099
1 3100
1 3101
1 3102
1 3103
1 3104
1 3105
1 3106
1 3107
1 3108
1 3109
1 3110
1 3111
1 3112
1 3113
1 3114
1 3115
1 3116
1 3117
1 3118
1 3119
1 3120
1 3121
1 3122
1 3123
1 3124
1 3125
1 3126
1 3127
1 3128
1 3129
1 3130
1 3131
1 3132
1 3133
1 3134
1 3135
1 3136
1 3137
1 3138
1 3139
1 3140
1 3141
1 3142
1 3143
1 3144
1 3145
1 3146
1 3147
1 3148
1 3149
1 3150
1 3151
1 3152
1 3153
1 3154
1 3155
1 3156
1 3157
1 3158
1 3159
1 3160
1 3161
1 3162
1 3163
1 3164
1 3165
1 3166
1 3167
1 3168
1 3169
1 3170
1 3171
1 3172
1 3173
1 3174
1 3175
1 3176
1 3177
1 3178
1 3179
1 3180
1 3181
1 3182
1 3183
1 3184
1 3185
1 3186
1 3187
1 3188
1 3189
1 3190
1 3191
1 3192
1 3193
1 3194
1 3195
1 3196
1 3197
1 3198
1 3199
1 3200
1 3201
1 3202
1 3203
1 3204
1 3205
1 3206
1 3207
1 3208
1 3209
1 3210
1 3211
1 3212
1 3213
1 3214
1 3215
1 3216
1 3217
1 3218
1 3219
1 3220
1 3221
1 3222
1 3223
1 3224
1 3225
1 3226
1 3227
1 3228
1 3229
1 3230
1 3231
1 3232
1 3233
1 3234
1 3235
1 3236
1 3237
1 3238
1 3239
1 3240
1 3241
1 3242
1 3243
1 3244
1 3245
1 3246
1 3247
1 3248
1 3249
1 3250
1 3251
1 3252
1 3253
1 3254
1 3255
1 3256
1 3257
1 3258
1 3259
1 3260
1 3261
1 3262
1 3263
1 3264
1 3265
1 3266
1 3267
1 3268
1 3269
1 3270
1 3271
1 3272
1 3273
1 3274
1 3275
1 3276
1 3277
1 3278
1 3279
1 3280
1 3281
1 3282
1 3283
1 3284
1 3285
1 3286
1 3287
1 3288
1 3289
1 3290
1 3291
1 3292
1 3293
1 3294
1 3295
1 3296
1 3297
1 3298
1 3299
1 3300
1 3301
1 3302
1 3303
1 3304
1 3305
1 3306
1 3307
1 3308
1 3309
1 3310
1 3311
1 3312
1 3313
1 3314
1 3315
1 3316
1 3317
1 3318
1 3319
1 3320
1 3321
1 3322
1 3323
1 3324
1 3325
1 3326
1 3327
1 3328
1 3329
1 3330
1 3331
1 3332
1 3333
1 3334
1 3335
1 3336
1 3337
1 3338
1 3339
1 3340
1 3341
1 3342
1 3343
1 3344
1 3345
1 3346
1 3347
1 3348
1 3349
1 3350
1 3351
1 3352
1 3353
1 3354
1 3355
1 3356
1 3357
1 3358
1 3359
1 3360
1 3361
1 3362
1 3363
1 3364
1 3365
1 3366
1 3367
1 3368
1 3369
1 3370
1 3371
1 3372
1 3373
1 3374
1 3375
1 3376
1 3377
1 3378
1 3379
1 3380
1 3381
1 3382
1 3383
1 3384
1 3385
1 3386
1 3387
1 3388
1 3389
1 3390
1 3391
1 3392
1 3393
1 3394
1 3395
1 3396
1 3397
1 3398
1 3399
1 3400
1 3401
1 3402
1 3403
1 3404
1 3405
1 3406
1 3407
1 3408
1 3409
1 3410
1 3411
1 3412
1 3413
1 3414
1 3415
1 3416
1 3417
1 3418
1 3419
1 3420
1 3421
1 3422
1 3423
1 3424
1 3425
1 3426
1 3427
1 3428
1 3429
1 3430
1 3431
1 3432
1 3433
1 3434
1 3435
1 3436
1 3437
1 3438
1 3439
1 3440
1 3441
1 3442
1 3443
1 3444
1 3445
1 3446
1 3447
1 3448
1 3449
1 3450
1 3451
1 3452
1 3453
1 3454
1 3455
1 3456
1 3457
1 3458
1 3459
1 3460
1 3461
1 3462
1 3463
1 3464
1 3465
1 3466
1 3467
1 3468
1 3469
1 3470
1 3471
1 3472
1 3473
1 3474
1 3475
1 3476
1 3477
1 3478
1 3479
1 3480
1 3481
1 3482
1 3483
1 3484
1 3485
1 3486
1 3487
1 3488
1 3489
1 3490
1 3491
1 3492
1 3493
1 3494
1 3495
1 3496
1 3497
1 3498
1 3499
1 3500
1 3501
1 3502
1 3503
1 3504
1 3505
1 3506
1 3507
1 3508
1 3509
1 3510
1 3511
1 3512
1 3513
1 3514
1 3515
1 3516
1 3517
1 3518
1 3519
1 3520
1 3521
1 3522
1 3523
1 3524
1 3525
1 3526
1 3527
1 3528
1 3529
1 3530
1 3531
1 3532
1 3533
1 3534
1 3535
1 3536
1 3537
1 3538
1 3539
1 3540
1 3541
1 3542
1 3543
1 3544
1 3545
1 3546
1 3547
1 3548
1 3549
1 3550
1 3551
1 3552
1 3553
1 3554
1 3555
1 3556
1 3557
1 3558
1 3559
1 3560
1 3561
1 3562
1 3563
1 3564
1 3565
1 3566
1 3567
1 3568
1 3569
1 3570
1 3571
1 3572
1 3573
1 3574
1 3575
1 3576
1 3577
1 3578
1 3579
1 3580
1 3581
1 3582
1 3583
1 3584
1 3585
1 3586
1 3587
1 3588
1 3589
1 3590
1 3591
1 3592
1 3593
1 3594
1 3595
1 3596
1 3597
1 3598
1 3599
1 3600
1 3601
1 3602
1 3603
1 3604
1 3605
1 3606
1 3607
1 3608
1 3609
1 3610
1 3611
1 3612
1 3613
1 3614
1 3615
1 3616
1 3617
1 3618
1 3619
1 3620
1 3621
1 3622
1 3623
1 3624
1 3625
1 3626
1 3627
1 3628
1 3629
1 3630
1 3631
1 3632
1 3633
1 3634
1 3635
1 3636
1 3637
1 3638
1 3639
1 3640
1 3641
1 3642
1 3643
1 3644
1 3645
1 3646
1 3647
1 3648
1 3649
1 3650
1 3651
1 3652
1 3653
1 3654
1 3655
1 3656
1 3657
1 3658
1 3659
1 3660
1 3661
1 3662
1 3663
1 3664
1 3665
1 3666
1 3667
1 3668
1 3669
1 3670
1 3671
1 3672
1 3673
1 3674
1 3675
1 3676
1 3677
1 3678
1 3679
1 3680
1 3681
1 3682
1 3683
1 3684
1 3685
1 3686
1 3687
1 3688
1 3689
1 3690
1 3691
1 3692
1 3693
1 3694
1 3695
1 3696
1 3697
1 3698
1 3699
1 3700
1 3701
1 3702
1 3703
1 3704
1 3705
1 3706
1 3707
1 3708
1 3709
1 3710
1 3711
1 3712
1 3713
1 3714
1 3715
1 3716
1 3717
1 3718
1 3719
1 3720
1 3721
1 3722
1 3723
1 3724
1 3725
1 3726
1 3727
1 3728
1 3729
1 3730
1 3731
1 3732
1 3733
1 3734
1 3735
1 3736
1 3737
1 3738
1 3739
1 3740
1 3741
1 3742
1 3743
1 3744
1 3745
1 3746
1 3747
1 3748
1 3749
1 3750
1 3751
1 3752
1 3753
1 3754
1 3755
1 3756
1 3757
1 3758
1 3759
1 3760
1 3761
1 3762
1 3763
1 3764
1 3765
1 3766
1 3767
1 3768
1 3769
1 3770
1 3771
1 3772
1 3773
1 3774
1 3775
1 3776
1 3777
1 3778
1 3779
1 3780
1 3781
1 3782
1 3783
1 3784
1 3785
1 3786
1 3787
1 3788
1 3789
1 3790
1 3791
1 3792
1 3793
1 3794
1 3795
1 3796
1 3797
1 3798
1 3799
1 3800
1 3801
1 3802
1 3803
1 3804
1 3805
1 3806
1 3807
1 3808
1 3809
1 3810
1 3811
1 3812
1 3813
1 3814
1 3815
1 3816
1 3817
1 3818
1 3819
1 3820
1 3821
1 3822
1 3823
1 3824
1 3825
1 3826
1 3827
1 3828
1 3829
1 3830
1 3831
1 3832
1 3833
1 3834
1 3835
1 3836
1 3837
1 3838
1 3839
1 3840
1 3841
1 3842
1 3843
1 3844
1 3845
1 3846
1 3847
1 3848
1 3849
1 3850
1 3851
1 3852
1 3853
1 3854
1 3855
1 3856
1 3857
1 3858
1 3859
1 3860
1 3861
1 3862
1 3863
1 3864
1 3865
1 3866
1 3867
1 3868
1 3869
1 3870
1 3871
1 3872
1 3873
1 3874
1 3875
1 3876
1 3877
1 3878
1 3879
1 3880
1 3881
1 3882
1 3883
1 3884
1 3885
1 3886
1 3887
1 3888
1 3889
1 3890
1 3891
1 3892
1 3893
1 3894
1 3895
1 3896
1 3897
1 3898
1 3899
1 3900
1 3901
1 3902
1 3903
1 3904
1 3905
1 3906
1 3907
1 3908
1 3909
1 3910
1 3911
1 3912
1 3913
1 3914
1 3915
1 3916
1 3917
1 3918
1 3919
1 3920
1 3921
1 3922
1 3923
1 3924
1 3925
1 3926
1 3927
1 3928
1 3929
1 3930
1 3931
1 3932
1 3933
1 3934
1 3935
1 3936
1 3937
1 3938
1 3939
1 3940
1 3941
1 3942
1 3943
1 3944
1 3945
1 3946
1 3947
1 3948
1 3949
1 3950
1 3951
1 3952
1 3953
1 3954
1 3955
1 3956
1 3957
1 3958
1 3959
1 3960
1 3961
1 3962
1 3963
1 3964
1 3965
1 3966
1 3967
1 3968
1 3969
1 3970
1 3971
1 3972
1 3973
1 3974
1 3975
1 3976
1 3977
1 3978
1 3979
1 3980
1 3981
1 3982
1 3983
1 3984
1 3985
1 3986
1 3987
1 3988
1 3989
1 3990
1 3991
1 3992
1 3993
1 3994
1 3995
1 3996
1 3997
1 3998
1 3999
1 4000
1 4001
1 4002
1 4003
1 4004
1 4005
1 4006
1 4007
1 4008
1 4009
1 4010
1 4011
1 4012
1 4013
1 4014
1 4015
1 4016
1 4017
1 4018
1 4019
1 4020
1 4021
1 4022
1 4023
1 4024
1 4025
1 4026
1 4027
1 4028
1 4029
1 4030
1 4031
1 4032
1 4033
1 4034
1 4035
1 4036
1 4037
1 4038
1 4039
1 4040
1 4041
1 4042
1 4043
1 4044
1 4045
1 4046
1 4047
1 4048
1 4049
1 4050
1 4051
1 4052
1 4053
1 4054
1 4055
1 4056
1 4057
1 4058
1 4059
1 4060
1 4061
1 4062
1 4063
1 4064
1 4065
1 4066
1 4067
1 4068
1 4069
1 4070
1 4071
1 4072
1 4073
1 4074
1 4075
1 4076
1 4077
1 4078
1 4079
1 4080
1 4081
1 4082
1 4083
1 4084
1 4085
1 4086
1 4087
1 4088
1 4089
1 4090
1 4091
1 4092
1 4093
1 4094
1 4095
1 4096
1 4097
1 4098
1 4099
1 4100
1 4101
1 4102
1 4103
1 4104
1 4105
1 4106
1 4107
1 4108
1 4109
1 4110
1 4111
1 4112
1 4113
1 4114
1 4115
1 4116
1 4117
1 4118
1 4119
1 4120
1 4121
1 4122
1 4123
1 4124
1 4125
1 4126
1 4127
1 4128
1 4129
1 4130
1 4131
1 4132
1 4133
1 4134
1 4135
1 4136
1 4137
1 4138
1 4139
1 4140
1 4141
1 4142
1 4143
1 4144
1 4145
1 4146
1 4147
1 4148
1 4149
1 4150
1 4151
1 4152
1 4153
1 4154
1 4155
1 4156
1 4157
1 4158
1 4159
1 4160
1 4161
1 4162
1 4163
1 4164
1 4165
1 4166
1 4167
1 4168
1 4169
1 4170
1 4171
1 4172
1 4173
1 4174
1 4175
1 4176
1 4177
1 4178
1 4179
1 4180
1 4181
1 4182
1 4183
1 4184
1 4185
1 4186
1 4187
1 4188
1 4189
1 4190
1 4191
1 4192
1 4193
1 4194
1 4195
1 4196
1 4197
1 4198
1 4199
1 4200
1 4201
1 4202
1 4203
1 4204
1 4205
1 4206
1 4207
1 4208
1 4209
1 4210
1 4211
1 4212
1 4213
1 4214
1 4215
1 4216
1 4217
1 4218
1 4219
1 4220
1 4221
1 4222
1 4223
1 4224
1 4225
1 4226
1 4227
1 4228
1 4229
1 4230
1 4231
1 4232
1 4233
1 4234
1 4235
1 4236
1 4237
1 4238
1 4239
1 4240
1 4241
1 4242
1 4243
1 4244
1 4245
1 4246
1 4247
1 4248
1 4249
1 4250
1 4251
1 4252
1 4253
1 4254
1 4255
1 4256
1 4257
1 4258
1 4259
1 4260
1 4261
1 4262
1 4263
1 4264
1 4265
1 4266
1 4267
1 4268
1 4269
1 4270
1 4271
1 4272
1 4273
1 4274
1 4275
1 4276
1 4277
1 4278
1 4279
1 4280
1 4281
1 4282
1 4283
1 4284
1 4285
1 4286
1 4287
1 4288
1 4289
1 4290
1 4291
1 4292
1 4293
1 4294
1 4295
1 4296
1 4297
1 4298
1 4299
1 4300
1 4301
1 4302
1 4303
1 4304
1 4305
1 4306
1 4307
1 4308
1 4309
1 4310
1 4311
1 4312
1 4313
1 4314
1 4315
1 4316
1 4317
1 4318
1 4319
1 4320
1 4321
1 4322
1 4323
1 4324
1 4325
1 4326
1 4327
1 4328
1 4329
1 4330
1 4331
1 4332
1 4333
1 4334
1 4335
1 4336
1 4337
1 4338
1 4339
1 4340
1 4341
1 4342
1 4343
1 4344
1 4345
1 4346
1 4347
1 4348
1 4349
1 4350
1 4351
1 4352
1 4353
1 4354
1 4355
1 4356
1 4357
1 4358
1 4359
1 4360
1 4361
1 4362
1 4363
1 4364
1 4365
1 4366
1 4367
1 4368
1 4369
1 4370
1 4371
1 4372
1 4373
1 4374
1 4375
1 4376
1 4377
1 4378
1 4379
1 4380
1 4381
1 4382
1 4383
1 4384
1 4385
1 4386
1 4387
1 4388
1 4389
1 4390
1 4391
1 4392
1 4393
1 4394
1 4395
1 4396
1 4397
1 4398
1 4399
1 4400
1 4401
1 4402
1 4403
1 4404
1 4405
1 4406
1 4407
1 4408
1 4409
1 4410
1 4411
1 4412
1 4413
1 4414
1 4415
1 4416
1 4417
1 4418
1 4419
1 4420
1 4421
1 4422
1 4423
1 4424
1 4425
1 4426
1 4427
1 4428
1 4429
1 4430
1 4431
1 4432
1 4433
1 4434
1 4435
1 4436
1 4437
1 4438
1 4439
1 4440
1 4441
1 4442
1 4443
1 4444
1 4445
1 4446
1 4447
1 4448
1 4449
1 4450
1 4451
1 4452
1 4453
1 4454
1 4455
1 4456
1 4457
1 4458
1 4459
1 4460
1 4461
1 4462
1 4463
1 4464
1 4465
1 4466
1 4467
1 4468
1 4469
1 4470
1 4471
1 4472
1 4473
1 4474
1 4475
1 4476
1 4477
1 4478
1 4479
1 4480
1 4481
1 4482
1 4483
1 4484
1 4485
1 4486
1 4487
1 4488
1 4489
1 4490
1 4491
1 4492
1 4493
1 4494
1 4495
1 4496
1 4497
1 4498
1 4499
1 4500
1 4501
1 4502
1 4503
1 4504
1 4505
1 4506
1 4507
1 4508
1 4509
1 4510
1 4511
1 4512
1 4513
1 4514
1 4515
1 4516
1 4517
1 4518
1 4519
1 4520
1 4521
1 4522
1 4523
1 4524
1 4525
1 4526
1 4527
1 4528
1 4529
1 4530
1 4531
1 4532
1 4533
1 4534
1 4535
1 4536
1 4537
1 4538
1 4539
1 4540
1 4541
1 4542
1 4543
1 4544
1 4545
1 4546
1 4547
1 4548
1 4549
1 4550
1 4551
1 4552
1 4553
1 4554
1 4555
1 4556
1 4557
1 4558
1 4559
1 4560
1 4561
1 4562
1 4563
1 4564
1 4565
1 4566
1 4567
1 4568
1 4569
1 4570
1 4571
1 4572
1 4573
1 4574
1 4575
1 4576
1 4577
1 4578
1 4579
1 4580
1 4581
1 4582
1 4583
1 4584
1 4585
1 4586
1 4587
1 4588
1 4589
1 4590
1 4591
1 4592
1 4593
1 4594
1 4595
1 4596
1 4597
1 4598
1 4599
1 4600
1 4601
1 4602
1 4603
1 4604
1 4605
1 4606
1 4607
1 4608
1 4609
1 4610
1 4611
1 4612
1 4613
1 4614
1 4615
1 4616
1 4617
1 4618
1 4619
1 4620
1 4621
1 4622
1 4623
1 4624
1 4625
1 4626
1 4627
1 4628
1 4629
1 4630
1 4631
1 4632
1 4633
1 4634
1 4635
1 4636
1 4637
1 4638
1 4639
1 4640
1 4641
1 4642
1 4643
1 4644
1 4645
1 4646
1 4647
1 4648
1 4649
1 4650
1 4651
1 4652
1 4653
1 4654
1 4655
1 4656
1 4657
1 4658
1 4659
1 4660
1 4661
1 4662
1 4663
1 4664
1 4665
1 4666
1 4667
1 4668
1 4669
1 4670
1 4671
1 4672
1 4673
1 4674
1 4675
1 4676
1 4677
1 4678
1 4679
1 4680
1 4681
1 4682
1 4683
1 4684
1 4685
1 4686
1 4687
1 4688
1 4689
1 4690
1 4691
1 4692
1 4693
1 4694
1 4695
1 4696
1 4697
1 4698
1 4699
1 4700
1 4701
1 4702
1 4703
1 4704
1 4705
1 4706
1 4707
1 4708
1 4709
1 4710
1 4711
1 4712
1 4713
1 4714
1 4715
1 4716
1 4717
1 4718
1 4719
1 4720
1 4721
1 4722
1 4723
1 4724
1 4725
1 4726
1 4727
1 4728
1 4729
1 4730
1 4731
1 4732
1 4733
1 4734
1 4735
1 4736
1 4737
1 4738
1 4739
1 4740
1 4741
1 4742
1 4743
1 4744
1 4745
1 4746
1 4747
1 4748
1 4749
1 4750
1 4751
1 4752
1 4753
1 4754
1 4755
1 4756
1 4757
1 4758
1 4759
1 4760
1 4761
1 4762
1 4763
1 4764
1 4765
1 4766
1 4767
1 4768
1 4769
1 4770
1 4771
1 4772
1 4773
1 4774
1 4775
1 4776
1 4777
1 4778
1 4779
1 4780
1 4781
1 4782
1 4783
1 4784
1 4785
1 4786
1 4787
1 4788
1 4789
1 4790
1 4791
1 4792
1 4793
1 4794
1 4795
1 4796
1 4797
1 4798
1 4799
1 4800
1 4801
1 4802
1 4803
1 4804
1 4805
1 4806
1 4807
1 4808
1 4809
1 4810
1 4811
1 4812
1 4813
1 4814
1 4815
1 4816
1 4817
1 4818
1 4819
1 4820
1 4821
1 4822
1 4823
1 4824
1 4825
1 4826
1 4827
1 4828
1 4829
1 4830
1 4831
1 4832
1 4833
1 4834
1 4835
1 4836
1 4837
1 4838
1 4839
1 4840
1 4841
1 4842
1 4843
1 4844
1 4845
1 4846
1 4847
1 4848
1 4849
1 4850
1 4851
1 4852
1 4853
1 4854
1 4855
1 4856
1 4857
1 4858
1 4859
1 4860
1 4861
1 4862
1 4863
1 4864
1 4865
1 4866
1 4867
1 4868
1 4869
1 4870
1 4871
1 4872
1 4873
1 4874
1 4875
1 4876
1 4877
1 4878
1 4879
1 4880
1 4881
1 4882
1 4883
1 4884
1 4885
1 4886
1 4887
1 4888
1 4889
1 4890
1 4891
1 4892
1 4893
1 4894
1 4895
1 4896
1 4897
1 4898
1 4899
1 4900
1 4901
1 4902
1 4903
1 4904
1 4905
1 4906
1 4907
1 4908
1 4909
1 4910
1 4911
1 4912
1 4913
1 4914
1 4915
1 4916
1 4917
1 4918
1 4919
1 4920
1 4921
1 4922
1 4923
1 4924
1 4925
1 4926
1 4927
1 4928
1 4929
1 4930
1 4931
1 4932
1 4933
1 4934
1 4935
1 4936
1 4937
1 4938
1 4939
1 4940
1 4941
1 4942
1 4943
1 4944
1 4945
1 4946
1 4947
1 4948
1 4949
1 4950
1 4951
1 4952
1 4953
1 4954
1 4955
1 4956
1 4957
1 4958
1 4959
1 4960
1 4961
1 4962
1 4963
1 4964
1 4965
1 4966
1 4967
1 4968
1 4969
1 4970
1 4971
1 4972
1 4973
1 4974
1 4975
1 4976
1 4977
1 4978
1 4979
1 4980
1 4981
1 4982
1 4983
1 4984
1 4985
1 4986
1 4987
1 4988
1 4989
1 4990
1 4991
1 4992
1 4993
1 4994
1 4995
1 4996
1 4997
1 4998
1 4999
CELL_TYPES 5000
1 
1 
1 
1 
1 
1 
1 
1 
1 
1 
1 
1 
1 
1 
1 
1 
1 
1 
1 
1 
1 
1 
1 
1 
1 
1 
1 
1 
1 
1 
1 
1 
1 
1 
1 
1 
1 
1 
1 
1 
1 
1 
1 
1 
1 
1 
1 
1 
1 
1 
1 
1 
1 
1 
1 
1 
1 
1 
1 
1 
1 
1 
1 
1 
1 
1 
1 
1 
1 
1 
1 
1 
1 
1 
1 
1 
1 
1 
1 
1 
1 
1 
1 
1 
1 
1 
1 
1 
1 
1 
1 
1 
1 
1 
1 
1 
1 
1 
1 
1 
1 
1 
1 
1 
1 
1 
1 
1 
1 
1 
1 
1 
1 
1 
1 
1 
1 
1 
1 
1 
1 
1 
1 
1 
1 
1 
1 
1 
1 
1 
1 
1 
1 
1 
1 
1 
1 
1 
1 
1 
1 
1 
1 
1 
1 
1 
1 
1 
1 
1 
1 
1 
1 
1 
1 
1 
1 
1 
1 
1 
1 
1 
1 
1 
1 
1 
1 
1 
1 
1 
1 
1 
1 
1 
1 
1 
1 
1 
1 
1 
1 
1 
1 
1 
1 
1 
1 
1 
1 
1 
1 
1 
1 
1 
1 
1 
1 
1 
1 
1 
1 
1 
1 
1 
1 
1 
1 
1 
1 
1 
1 
1 
1 
1 
1 
1 
1 
1 
1 
1 
1 
1 
1 
1 
1 
1 
1 
1 
1 
1 
1 
1 
1 
1 
1 
1 
1 
1 
1 
1 
1 
1 
1 
1 
1 
1 
1 
1 
1 
1 
1 
1 
1 
1 
1 
1 
1 
1 
1 
1 
1 
1 
1 
1 
1 
1 
1 
1 
1 
1 
1 
1 
1 
1 
1 
1 
1 
1 
1 
1 
1 
1 
1 
1 
1 
1 
1 
1 
1 
1 
1 
1 
1 
1 
1 
1 
1 
1 
1 
1 
1 
1 
1 
1 
1 
1 
1 
1 
1 
1 
1 
1 
1 
1 
1 
1 
1 
1 
1 
1 
1 
1 
1 
1 
1 
1 
1 
1 
1 
1 
1 
1 
1 
1 
1 
1 
1 
1 
1 
1 
1 
1 
1 
1 
1 
1 
1 
1 
1 
1 
1 
1 
1 
1 
1 
1 
1 
1 
1 
1 
1 
1 
1 
1 
1 
1 
1 
1 
1 
1 
1 
1 
1 
1 
1 
1 
1 
1 
1 
1 
1 
1 
1 
1 
1 
1 
1 
1 
1 
1 
1 
1 
1 
1 
1 
1 
1 
1 
1 
1 
1 
1 
1 
1 
1 
1 
1 
1 
1 
1 
1 
1 
1 
1 
1 
1 
1 
1 
1 
1 
1 
1 
1 
1 
1 
1 
1 
1 
1 
1 
1 
1 
1 
1 
1 
1 
1 
1 
1 
1 
1 
1 
1 
1 
1 
1 
1 
1 
1 
1 
1 
1 
1 
1 
1 
1 
1 
1 
1 
1 
1 
1 
1 
1 
1 
1 
1 
1 
1 
1 
1 
1 
1 
1 
1 
1 
1 
1 
1 
1 
1 
1 
1 
1 
1 
1 
1 
1 
1 
1 
1 
1 
1 
1 
1 
1 
1 
1 
1 
1 
1 
1 
1 
1 
1 
1 
1 
1 
1 
1 
1 
1 
1 
1 
1 
1 
1 
1 
1 
1 
1 
1 
1 
1 
1 
1 
1 
1 
1 
1 
1 
1 
1 
1 
1 
1 
1 
1 
1 
1 
1 
1 
1 
1 
1 
1 
1 
1 
1 
1 
1 
1 
1 
1 
1 
1 
1 
1 
1 
1 
1 
1 
1 
1 
1 
1 
1 
1 
1 
1 
1 
1 
1 
1 
1 
1 
1 
1 
1 
1 
1 
1 
1 
1 
1 
1 
1 
1 
1 
1 
1 
1 
1 
1 
1 
1 
1 
1 
1 
1 
1 
1 
1 
1 
1 
1 
1 
1 
1 
1 
1 
1 
1 
1 
1 
1 
1 
1 
1 
1 
1 
1 
1 
1 
1 
1 
1 
1 
1 
1 
1 
1 
1 
1 
1 
1 
1 
1 
1 
1 
1 
1 
1 
1 
1 
1 
1 
1 
1 
1 
1 
1 
1 
1 
1 
1 
1 
1 
1 
1 
1 
1 
1 
1 
1 
1 
1 
1 
1 
1 
1 
1 
1 
1 
1 
1 
1 
1 
1 
1 
1 
1 
1 
1 
1 
1 
1 
1 
1 
1 
1 
1 
1 
1 
1 
1 
1 
1 
1 
1 
1 
1 
1 
1 
1 
1 
1 
1 
1 
1 
1 
1 
1 
1 
1 
1 
1 
1 
1 
1 
1 
1 
1 
1 
1 
1 
1 
1 
1 
1 
1 
1 
1 
1 
1 
1 
1 
1 
1 
1 
1 
1 
1 
1 
1 
1 
1 
1 
1 
1 
1 
1 
1 
1 
1 
1 
1 
1 
1 
1 
1 
1 
1 
1 
1 
1 
1 
1 
1 
1 
1 
1 
1 
1 
1 
1 
1 
1 
1 
1 
1 
1 
1 
1 
1 
1 
1 
1 
1 
1 
1 
1 
1 
1 
1 
1 
1 
1 
1 
1 
1 
1 
1 
1 
1 
1 
1 
1 
1 
1 
1 
1 
1 
1 
1 
1 
1 
1 
1 
1 
1 
1 
1 
1 
1 
1 
1 
1 
1 
1 
1 
1 
1 
1 
1 
1 
1 
1 
1 
1 
1 
1 
1 
1 
1 
1 
1 
1 
1 
1 
1 
1 
1 
1 
1 
1 
1 
1 
1 
1 
1 
1 
1 
1 
1 
1 
1 
1 
1 
1 
1 
1 
1 
1 
1 
1 
1 
1 
1 
1 
1 
1 
1 
1 
1 
1 
1 
1 
1 
1 
1 
1 
1 
1 
1 
1 
1 
1 
1 
1 
1 
1 
1 
1 
1 
1 
1 
1 
1 
1 
1 
1 
1 
1 
1 
1 
1 
1 
1 
1 
1 
1 
1 
1 
1 
1 
1 
1 
1 
1 
1 
1 
1 
1 
1 
1 
1 
1 
1 
1 
1 
1 
1 
1 
1 
1 
1 
1 
1 
1 
1 
1 
1 
1 
1 
1 
1 
1 
1 
1 
1 
1 
1 
1 
1 
1 
1 
1 
1 
1 
1 
1 
1 
1 
1 
1 
1 
1 
1 
1 
1 
1 
1 
1 
1 
1 
1 
1 
1 
1 
1 
1 
1 
1 
1 
1 
1 
1 
1 
1 
1 
1 
1 
1 
1 
1 
1 
1 
1 
1 
1 
1 
1 
1 
1 
1 
1 
1 
1 
1 
1 
1 
1 
1 
1 
1 
1 
1 
1 
1 
1 
1 
1 
1 
1 
1 
1 
1 
1 
1 
1 
1 
1 
1 
1 
1 
1 
1 
1 
1 
1 
1 
1 
1 
1 
1 
1 
1 
1 
1 
1 
1 
1 
1 
1 
1 
1 
1 
1 
1 
1 
1 
1 
1 
1 
1 
1 
1 
1 
1 
1 
1 
1 
1 
1 
1 
1 
1 
1 
1 
1 
1 
1 
1 
1 
1 
1 
1 
1 
1 
1 
1 
1 
1 
1 
1 
1 
1 
1 
1 
1 
1 
1 
1 
1 
1 
1 
1 
1 
1 
1 
1 
1 
1 
1 
1 
1 
1 
1 
1 
1 
1 
1 
1 
1 
1 
1 
1 
1 
1 
1 
1 
1 
1 
1 
1 
1 
1 
1 
1 
1 
1 
1 
1 
1 
1 
1 
1 
1 
1 
1 
1 
1 
1 
1 
1 
1 
1 
1 
1 
1 
1 
1 
1 
1 
1 
1 
1 
1 
1 
1 
1 
1 
1 
1 
1 
1 
1 
1 
1 
1 
1 
1 
1 
1 
1 
1 
1 
1 
1 
1 
1 
1 
1 
1 
1 
1 
1 
1 
1 
1 
1 
1 
1 
1 
1 
1 
1 
1 
1 
1 
1 
1 
1 
1 
1 
1 
1 
1 
1 
1 
1 
1 
1 
1 
1 
1 
1 
1 
1 
1 
1 
1 
1 
1 
1 
1 
1 
1 
1 
1 
1 
1 
1 
1 
1 
1 
1 
1 
1 
1 
1 
1 
1 
1 
1 
1 
1 
1 
1 
1 
1 
1 
1 
1 
1 
1 
1 
1 
1 
1 
1 
1 
1 
1 
1 
1 
1 
1 
1 
1 
1 
1 
1 
1 
1 
1 
1 
1 
1 
1 
1 
1 
1 
1 
1 
1 
1 
1 
1 
1 
1 
1 
1 
1 
1 
1 
1 
1 
1 
1 
1 
1 
1 
1 
1 
1 
1 
1 
1 
1 
1 
1 
1 
1 
1 
1 
1 
1 
1 
1 
1 
1 
1 
1 
1 
1 
1 
1 
1 
1 
1 
1 
1 
1 
1 
1 
1 
1 
1 
1 
1 
1 
1 
1 
1 
1 
1 
1 
1 
1 
1 
1 
1 
1 
1 
1 
1 
1 
1 
1 
1 
1 
1 
1 
1 
1 
1 
1 
1 
1 
1 
1 
1 
1 
1 
1 
1 
1 
1 
1 
1 
1 
1 
1 
1 
1 
1 
1 
1 
1 
1 
1 
1 
1 
1 
1 
1 
1 
1 
1 
1 
1 
1 
1 
1 
1 
1 
1 
1 
1 
1 
1 
1 
1 
1 
1 
1 
1 
1 
1 
1 
1 
1 
1 
1 
1 
1 
1 
1 
1 
1 
1 
1 
1 
1 
1 
1 
1 
1 
1 
1 
1 
1 
1 
1 
1 
1 
1 
1 
1 
1 
1 
1 
1 
1 
1 
1 
1 
1 
1 
1 
1 
1 
1 
1 
1 
1 
1 
1 
1 
1 
1 
1 
1 
1 
1 
1 
1 
1 
1 
1 
1 
1 
1 
1 
1 
1 
1 
1 
1 
1 
1 
1 
1 
1 
1 
1 
1 
1 
1 
1 
1 
1 
1 
1 
1 
1 
1 
1 
1 
1 
1 
1 
1 
1 
1 
1 
1 
1 
1 
1 
1 
1 
1 
1 
1 
1 
1 
1 
1 
1 
1 
1 
1 
1 
1 
1 
1 
1 
1 
1 
1 
1 
1 
1 
1 
1 
1 
1 
1 
1 
1 
1 
1 
1 
1 
1 
1 
1 
1 
1 
1 
1 
1 
1 
1 
1 
1 
1 
1 
1 
1 
1 
1 
1 
1 
1 
1 
1 
1 
1 
1 
1 
1 
1 
1 
1 
1 
1 
1 
1 
1 
1 
1 
1 
1 
1 
1 
1 
1 
1 
1 
1 
1 
1 
1 
1 
1 
1 
1 
1 
1 
1 
1 
1 
1 
1 
1 
1 
1 
1 
1 
1 
1 
1 
1 
1 
1 
1 
1 
1 
1 
1 
1 
1 
1 
1 
1 
1 
1 
1 
1 
1 
1 
1 
1 
1 
1 
1 
1 
1 
1 
1 
1 
1 
1 
1 
1 
1 
1 
1 
1 
1 
1 
1 
1 
1 
1 
1 
1 
1 
1 
1 
1 
1 
1 
1 
1 
1 
1 
1 
1 
1 
1 
1 
1 
1 
1 
1 
1 
1 
1 
1 
1 
1 
1 
1 
1 
1 
1 
1 
1 
1 
1 
1 
1 
1 
1 
1 
1 
1 
1 
1 
1 
1 
1 
1 
1 
1 
1 
1 
1 
1 
1 
1 
1 
1 
1 
1 
1 
1 
1 
1 
1 
1 
1 
1 
1 
1 
1 
1 
1 
1 
1 
1 
1 
1 
1 
1 
1 
1 
1 
1 
1 
1 
1 
1 
1 
1 
1 
1 
1 
1 
1 
1 
1 
1 
1 
1 
1 
1 
1 
1 
1 
1 
1 
1 
1 
1 
1 
1 
1 
1 
1 
1 
1 
1 
1 
1 
1 
1 
1 
1 
1 
1 
1 
1 
1 
1 
1 
1 
1 
1 
1 
1 
1 
1 
1 
1 
1 
1 
1 
1 
1 
1 
1 
1 
1 
1 
1 
1 
1 
1 
1 
1 
1 
1 
1 
1 
1 
1 
1 
1 
1 
1 
1 
1 
1 
1 
1 
1 
1 
1 
1 
1 
1 
1 
1 
1 
1 
1 
1 
1 
1 
1 
1 
1 
1 
1 
1 
1 
1 
1 
1 
1 
1 
1 
1 
1 
1 
1 
1 
1 
1 
1 
1 
1 
1 
1 
1 
1 
1 
1 
1 
1 
1 
1 
1 
1 
1 
1 
1 
1 
1 
1 
1 
1 
1 
1 
1 
1 
1 
1 
1 
1 
1 
1 
1 
1 
1 
1 
1 
1 
1 
1 
1 
1 
1 
1 
1 
1 
1 
1 
1 
1 
1 
1 
1 
1 
1 
1 
1 
1 
1 
1 
1 
1 
1 
1 
1 
1 
1 
1 
1 
1 
1 
1 
1 
1 
1 
1 
1 
1 
1 
1 
1 
1 
1 
1 
1 
1 
1 
1 
1 
1 
1 
1 
1 
1 
1 
1 
1 
1 
1 
1 
1 
1 
1 
1 
1 
1 
1 
1 
1 
1 
1 
1 
1 
1 
1 
1 
1 
1 
1 
1 
1 
1 
1 
1 
1 
1 
1 
1 
1 
1 
1 
1 
1 
1 
1 
1 
1 
1 
1 
1 
1 
1 
1 
1 
1 
1 
1 
1 
1 
1 
1 
1 
1 
1 
1 
1 
1 
1 
1 
1 
1 
1 
1 
1 
1 
1 
1 
1 
1 
1 
1 
1 
1 
1 
1 
1 
1 
1 
1 
1 
1 
1 
1 
1 
1 
1 
1 
1 
1 
1 
1 
1 
1 
1 
1 
1 
1 
1 
1 
1 
1 
1 
1 
1 
1 
1 
1 
1 
1 
1 
1 
1 
1 
1 
1 
1 
1 
1 
1 
1 
1 
1 
1 
1 
1 
1 
1 
1 
1 
1 
1 
1 
1 
1 
1 
1 
1 
1 
1 
1 
1 
1 
1 
1 
1 
1 
1 
1 
1 
1 
1 
1 
1 
1 
1 
1 
1 
1 
1 
1 
1 
1 
1 
1 
1 
1 
1 
1 
1 
1 
1 
1 
1 
1 
1 
1 
1 
1 
1 
1 
1 
1 
1 
1 
1 
1 
1 
1 
1 
1 
1 
1 
1 
1 
1 
1 
1 
1 
1 
1 
1 
1 
1 
1 
1 
1 
1 
1 
1 
1 
1 
1 
1 
1 
1 
1 
1 
1 
1 
1 
1 
1 
1 
1 
1 
1 
1 
1 
1 
1 
1 
1 
1 
1 
1 
1 
1 
1 
1 
1 
1 
1 
1 
1 
1 
1 
1 
1 
1 
1 
1 
1 
1 
1 
1 
1 
1 
1 
1 
1 
1 
1 
1 
1 
1 
1 
1 
1 
1 
1 
1 
1 
1 
1 
1 
1 
1 
1 
1 
1 
1 
1 
1 
1 
1 
1 
1 
1 
1 
1 
1 
1 
1 
1 
1 
1 
1 
1 
1 
1 
1 
1 
1 
1 
1 
1 
1 
1 
1 
1 
1 
1 
1 
1 
1 
1 
1 
1 
1 
1 
1 
1 
1 
1 
1 
1 
1 
1 
1 
1 
1 
1 
1 
1 
1 
1 
1 
1 
1 
1 
1 
1 
1 
1 
1 
1 
1 
1 
1 
1 
1 
1 
1 
1 
1 
1 
1 
1 
1 
1 
1 
1 
1 
1 
1 
1 
1 
1 
1 
1 
1 
1 
1 
1 
1 
1 
1 
1 
1 
1 
1 
1 
1 
1 
1 
1 
1 
1 
1 
1 
1 
1 
1 
1 
1 
1 
1 
1 
1 
1 
1 
1 
1 
1 
1 
1 
1 
1 
1 
1 
1 
1 
1 
1 
1 
1 
1 
1 
1 
1 
1 
1 
1 
1 
1 
1 
1 
1 
1 
1 
1 
1 
1 
1 
1 
1 
1 
1 
1 
1 
1 
1 
1 
1 
1 
1 
1 
1 
1 
1 
1 
1 
1 
1 
1 
1 
1 
1 
1 
1 
1 
1 
1 
1 
1 
1 
1 
1 
1 
1 
1 
1 
1 
1 
1 
1 
1 
1 
1 
1 
1 
1 
1 
1 
1 
1 
1 
1 
1 
1 
1 
1 
1 
1 
1 
1 
1 
1 
1 
1 
1 
1 
1 
1 
1 
1 
1 
1 
1 
1 
1 
1 
1 
1 
1 
1 
1 
1 
1 
1 
1 
1 
1 
1 
1 
1 
1 
1 
1 
1 
1 
1 
1 
1 
1 
1 
1 
1 
1 
1 
1 
1 
1 
1 
1 
1 
1 
1 
1 
1 
1 
1 
1 
1 
1 
1 
1 
1 
1 
1 
1 
1 
1 
1 
1 
1 
1 
1 
1 
1 
1 
1 
1 
1 
1 
1 
1 
1 
1 
1 
1 
1 
1 
1 
1 
1 
1 
1 
1 
1 
1 
1 
1 
1 
1 
1 
1 
1 
1 
1 
1 
1 
1 
1 
1 
1 
1 
1 
1 
1 
1 
1 
1 
1 
1 
1 
1 
1 
1 
1 
1 
1 
1 
1 
1 
1 
1 
1 
1 
1 
1 
1 
1 
1 
1 
1 
1 
1 
1 
1 
1 
1 
1 
1 
1 
1 
1 
1 
1 
1 
1 
1 
1 
1 
1 
1 
1 
1 
1 
1 
1 
1 
1 
1 
1 
1 
1 
1 
1 
1 
1 
1 
1 
1 
1 
1 
1 
1 
1 
1 
1 
1 
1 
1 
1 
1 
1 
1 
1 
1 
1 
1 
1 
1 
1 
1 
1 
1 
1 
1 
1 
1 
1 
1 
1 
1 
1 
1 
1 
1 
1 
1 
1 
1 
1 
1 
1 
1 
1 
1 
1 
1 
1 
1 
1 
1 
1 
1 
1 
1 
1 
1 
1 
1 
1 
1 
1 
1 
1 
1 
1 
1 
1 
1 
1 
1 
1 
1 
1 
1 
1 
1 
1 
1 
1 
1 
1 
1 
1 
1 
1 
1 
1 
1 
1 
1 
1 
1 
1 
1 
1 
1 
1 
1 
1 
1 
1 
1 
1 
1 
1 
1 
1 
1 
1 
1 
1 
1 
1 
1 
1 
1 
1 
1 
1 
1 
1 
1 
1 
1 
1 
1 
1 
1 
1 
1 
1 
1 
1 
1 
1 
1 
1 
1 
1 
1 
1 
1 
1 
1 
1 
1 
1 
1 
1 
1 
1 
1 
1 
1 
1 
1 
1 
1 
1 
1 
1 
1 
1 
1 
1 
1 
1 
1 
1 
1 
1 
1 
1 
1 
1 
1 
1 
1 
1 
1 
1 
1 
1 
1 
1 
1 
1 
1 
1 
1 
1 
1 
1 
1 
1 
1 
1 
1 
1 
1 
1 
1 
1 
1 
1 
1 
1 
1 
1 
1 
1 
1 
1 
1 
1 
1 
1 
1 
1 
1 
1 
1 
1 
1 
1 
1 
1 
1 
1 
1 
1 
1 
1 
1 
1 
1 
1 
1 
1 
1 
1 
1 
1 
1 
1 
1 
1 
1 
1 
1 
1 
1 
1 
1 
1 
1 
1 
1 
1 
1 
1 
1 
1 
1 
1 
1 
1 
1 
1 
1 
1 
1 
1 
1 
1 
1 
1 
1 
1 
1 
1 
1 
1 
1 
1 
1 
1 
1 
1 
1 
1 
1 
1 
1 
1 
1 
1 
1 
1 
1 
1 
1 
1 
1 
1 
1 
1 
1 
1 
1 
1 
1 
1 
1 
1 
1 
1 
1 
1 
1 
1 
1 
1 
1 
1 
1 
1 
1 
1 
1 
1 
1 
1 
1 
1 
1 
1 
1 
1 
1 
1 
1 
1 
1 
1 
1 
1 
1 
1 
1 
1 
1 
1 
1 
1 
1 
1 
1 
1 
1 
1 
1 
1 
1 
1 
1 
1 
1 
1 
1 
1 
1 
1 
1 
1 
1 
1 
1 
1 
1 
1 
1 
1 
1 
1 
1 
1 
1 
1 
1 
1 
1 
1 
1 
1 
1 
1 
1 
1 
1 
1 
1 
1 
1 
1 
1 
1 
1 
1 
1 
1 
1 
1 
1 
1 
1 
1 
1 
1 
1 
1 
1 
1 
1 
1 
1 
1 
1 
1 
1 
1 
1 
1 
1 
1 
1 
1 
1 
1 
1 
1 
1 
1 
1 
1 
1 
1 
1 
1 
1 
1 
1 
1 
1 
1 
1 
1 
1 
1 
1 
1 
1 
1 
1 
1 
1 
1 
1 
1 
1 
1 
1 
1 
1 
1 
1 
1 
1 
1 
1 
1 
1 
1 
1 
1 
1 
1 
1 
1 
1 
1 
1 
1 
1 
1 
1 
1 
1 
1 
1 
1 
1 
1 
1 
1 
1 
1 
1 
1 
1 
1 
1 
1 
1 
1 
1 
1 
1 
1 
1 
1 
1 
1 
1 
1 
1 
1 
1 
1 
1 
1 
1 
1 
1 
1 
1 
1 
1 
1 
1 
1 
1 
1 
1 
1 
1 
1 
1 
1 
1 
1 
1 
1 
1 
1 
1 
1 
1 
1 
1 
1 
1 
1 
1 
1 
1 
1 
1 
1 
1 
1 
1 
1 
1 
1 
1 
1 
1 
1 
1 
1 
1 
1 
1 
1 
1 
1 
1 
1 
1 
1 
1 
1 
1 
1 
1 
1 
1 
1 
1 
1 
1 
1 
1 
1 
1 
1 
1 
1 
1 
1 
1 
1 
1 
1 
1 
1 
1 
1 
1 
1 
1 
1 
1 
1 
1 
1 
1 
1 
1 
1 
1 
1 
1 
1 
1 
1 
1 
1 
1 
1 
1 
1 
1 
1 
1 
1 
1 
1 
1 
1 
1 
1 
1 
1 
1 
1 
1 
1 
1 
1 
1 
1 
1 
1 
1 
1 
1 
1 
1 
1 
1 
1 
1 
1 
1 
1 
1 
1 
1 
1 
1 
1 
1 
1 
1 
1 
1 
1 
1 
1 
1 
1 
1 
1 
1 
1 
1 
1 
1 
1 
1 
1 
1 
1 
1 
1 
1 
1 
1 
1 
1 
1 
1 
1 
1 
1 
1 
1 
1 
1 
1 
1 
1 
1 
1 
1 
1 
1 
1 
1 
1 
1 
1 
1 
1 
1 
1 
1 
1 
1 
1 
1 
1 
1 
1 
1 
1 
1 
1 
1 
1 
1 
1 
1 
1 
1 
1 
1 
1 
1 
1 
1 
1 
1 
1 
1 
1 
1 
1 
1 
1 
1 
1 
1 
1 
1 
1 
1 
1 
1 
1 
1 
1 
1 
1 
1 
1 
1 
1 
1 
1 
1 
1 
1 
1 
1 
1 
1 
1 
1 
1 
1 
1 
1 
1 
1 
1 
1 
1 
1 
1 
1 
1 
1 
1 
1 
1 
1 
1 
1 
1 
1 
1 
1 
1 
1 
1 
1 
1 
1 
1 
1 
1 
1 
1 
1 
1 
1 
1 
1 
1 
1 
1 
1 
1 
1 
1 
1 
1 
1 
1 
1 
1 
1 
1 
1 
1 
1 
1 
1 
1 
1 
1 
1 
1 
1 
1 
1 
1 
1 
1 
1 
1 
1 
1 
1 
1 
1 
1 
1 
1 
1 
1 
1 
1 
1 
1 
1 
1 
1 
1 
1 
1 
1 
1 
1 
1 
1 
1 
1 
1 
1 
1 
1 
1 
1 
1 
1 
1 
1 
1 
1 
1 
1 
1 
1 
1 
1 
1 
1 
1 
1 
1 
1 
1 
1 
1 
1 
1 
1 
1 
1 
1 
1 
1 
1 
1 
1 
1 
1 
1 
1 
1 
1 
1 
1 
1 
1 
1 
1 
1 
1 
1 
1 
1 
1 
1 
1 
1 
1 
1 
1 
1 
1 
1 
1 
1 
1 
1 
1 
1 
1 
1 
1 
1 
1 
1 
1 
1 
1 
1 
1 
1 
1 
1 
1 
1 
1 
1 
1 
1 
1 
1 
1 
1 
1 
1 
1 
1 
1 
1 
1 
1 
1 
1 
1 
1 
1 
1 
1 
1 
1 
1 
1 
1 
1 
1 
1 
1 
1 
1 
1 
1 
1 
1 
1 
1 
1 
1 
1 
1 
1 
1 
1 
1 
1 
1 
1 
1 
1 
1 
1 
1 
1 
1 
1 
1 
1 
1 
1 
1 
1 
1 
1 
1 
1 
1 
1 
1 
1 
1 
1 
1 
1 
1 
1 
1 
1 
1 
1 
1 
1 
1 
1 
1 
1 
1 
1 
1 
1 
1 
1 
1 
1 
1 
1 
1 
1 
1 
1 
1 
1 
1 
1 
1 
1 
1 
1 
1 
1 
1 
1 
1 
1 
1 
1 
1 
1 
1 
1 
1 
1 
1 
1 
1 
1 
1 
1 
1 
1 
1 
1 
1 
1 
1 
1 
1 
1 
1 
1 
1 
1 
1 
1 
1 
1 
1 
1 
1 
1 
1 
1 
1 
1 
1 
1 
1 
1 
1 
1 
1 
1 
1 
1 
1 
1 
1 
1 
1 
1 
1 
1 
1 
1 
1 
1 
1 
1 
1 
1 
1 
1 
1 
1 
1 
1 
1 
1 
1 
1 
1 
1 
1 
1 
1 
1 
1 
1 
1 
1 
1 
1 
1 
1 
1 
1 
1 
1 
1 
1 
1 
1 
1 
1 
1 
1 
1 
1 
1 
1 
1 
1 
1 
1 
1 
1 
1 
1 
1 
1 
1 
1 
1 
1 
1 
1 
1 
1 
1 
1 
1 
1 
1 
1 
1 
1 
1 
1 
1 
1 
1 
1 
1 
1 
1 
1 
1 
1 
1 
1 
1 
1 
1 
1 
1 
1 
1 
1 
1 
1 
1 
1 
1 
1 
1 
1 
1 
1 
1 
1 
1 
1 
1 
1 
1 
1 
1 
1 
1 
1 
1 
1 
1 
1 
1 
1 
1 
1 
1 
1 
1 
1 
1 
1 
1 
1 
1 
1 
1 
1 
1 
1 
1 
1 
1 
1 
1 
1 
1 
1 
1 
1 
1 
1 
1 
1 
1 
1 
1 
1 
1 
1 
1 
1 
1 
1 
1 
1 
1 
1 
1 
1 
1 
1 
1 
1 
1 
1 
1 
1 
1 
1 
1 
1 
1 
1 
1 
1 
1 
1 
1 
1 
1 
1 
1 
1 
1 
1 
1 
1 
1 
1 
1 
1 
1 
1 
1 
1 
1 
1 
1 
1 
1 
1 
1 
1 
1 
1 
1 
1 
1 
1 
1 
1 
1 
1 
1 
1 
1 
1 
1 
1 
1 
1 
1 
1 
1 
1 
1 
1 
1 
1 
1 
1 
1 
1 
1 
1 
1 
1 
1 
1 
1 
1 
1 
1 
1 
1 
1 
1 
1 
1 
1 
1 
1 
1 
1 
1 
1 
1 
1 
1 
1 
1 
1 
1 
1 
1 
1 
1 
1 
1 
1 
1 
1 
1 
1 
1 
1 
1 
1 
1 
1 
1 
1 
1 
1 
1 
1 
1 
1 
1 
1 
1 
1 
1 
1 
1 
1 
1 
1 
1 
1 
1 
1 
1 
1 
1 
1 
1 
1 
1 
1 
1 
1 
1 
1 
1 
1 
1 
1 
1 
1 
1 
1 
1 
1 
1 
1 
1 
1 
1 
1 
1 
1 
1 
1 
1 
1 
1 
1 
1 
1 
1 
1 
1 
1 
1 
1 
1 
1 
1 
1 
1 
1 
1 
1 
1 
1 
1 
1 
1 
1 
1 
1 
1 
1 
1 
1 
1 
1 
1 
1 
1 
1 
1 
1 
1 
1 
1 
1 
1 
1 
1 
1 
1 
1 
1 
1 
1 
1 
1 
1 
1 
1 
1 
1 
1 
1 
1 
1 
1 
1 
1 
1 
1 
1 
1 
1 
1 
1 
1 
1 
1 
1 
1 
1 
1 
1 
1 
1 
1 
1 
1 
1 
1 
1 
1 
1 
1 
1 
1 
1 
1 
1 
1 
1 
1 
1 
1 
1 
1 
1 
1 
1 
1 
1 
1 
1 
1 
1 
1 
1 
1 
1 
1 
1 
1 
1 
1 
1 
1 
1 
1 
1 
1 
1 
1 
1 
1 
1 
1 
1 
1 
1 
1 
1 
1 
1 
1 
1 
1 
1 
1 
1 
1 
1 
1 
1 
1 
1 
1 
1 
1 
1 
1 
1 
1 
1 
1 
1 
1 
1 
1 
1 
1 
1 
1 
1 
1 
1 
1 
1 
1 
1 
1 
1 
1 
1 
1 
1 
1 
1 
1 
1 
1 
1 
1 
1 
1 
1 
1 
1 
1 
1 
1 
1 
1 
1 
1 
1 
1 
1 
1 
1 
1 
1 
1 
1 
1 
1 
1 
1 
1 
1 
1 
1 
1 
1 
1 
1 
1 
1 
1 
1 
1 
1 
1 
1 
1 
1 
1 
1 
1 
1 
1 
1 
1 
1 
1 
1 
1 
1 
1 
1 
1 
1 
1 
1 
1 
1 
1 
1 
1 
1 
1 
1 
1 
1 
1 
1 
1 
1 
1 
1 
1 
1 
1 
1 
1 
1 
1 
1 
1 
1 
1 
1 
1 
1 
1 
1 
1 
1 
1 
1 
1 
1 
1 
1 
1 
1 
1 
1 
1 
1 
1 
1 
1 
1 
1 
1 
1 
1 
1 
1 
1 
1 
1 
1 
1 
1 
1 
1 
1 
1 
1 
1 
1 
1 
1 
1 
1 
1 
1 
1 
1 
1 
1 
1 
1 
1 
1 
1 
1 
1 
1 
1 
1 
1 
1 
1 
1 
1 
1 
1 
1 
1 
1 
1 
1 
1 
1 
1 
1 
1 
1 
1 
1 
1 
1 
1 
1 
1 
1 
1 
1 
1 
1 
1 
1 
1 
1 
1 
1 
1 
1 
1 
1 
1 
1 
1 
1 
1 
1 
1 
1 
1 
1 
1 
1 
1 
1 
1 
1 
1 
1 
1 
1 
1 
1 
1 
1 
1 
1 
1 
1 
1 
1 
1 
1 
1 
1 
1 
1 
1 
1 
1 
1 
1 
1 
1 
1 
1 
1 
1 
1 
1 
1 
1 
1 
1 
1 
1 
1 
1 
1 
1 
1 
1 
1 
1 
1 
1 
1 
1 
1 
1 
1 
1 
1 
1 
1 
1 
1 
1 
1 
1 
1 
1 
1 
1 
1 
1 
1 
1 
1 
1 
1 
1 
1 
1 
1 
1 
1 
1 
1 
1 
1 
1 
1 
1 
1 
1 
1 
1 
1 
1 
1 
1 
1 
1 
1 
1 
1 
1 
1 
1 
1 
1 
1 
1 
1 
1 
1 
1 
1 
1 
1 
1 
1 
1 
1 
1 
1 
1 
1 
1 
1 
1 
1 
1 
1 
1 
1 
1 
1 
1 
1 
1 
1 
1 
1 
1 
1 
1 
1 
1 
1 
1 
1 
1 
1 
1 
1 
1 
1 
1 
1 
1 
1 
1 
1 
1 
1 
1 
1 
1 
1 
1 
1 
1 
1 
1 
1 
1 
1 
1 
1 
1 
1 
1 
1 
1 
1 
1 
1 
1 
1 
1 
1 
1 
1 
1 
1 
1 
1 
1 
1 
1 
1 
1 
1 
1 
1 
1 
1 
1 
1 
1 
1 
1 
1 
1 
1 
1 
1 
1 
1 
1 
1 
1 
1 
1 
1 
1 
1 
1 
1 
1 
1 
1 
1 
1 
1 
1 
1 
1 
1 
1 
1 
1 
1 
1 
1 
1 
1 
1 
1 
1 
1 
1 
1 
1 
1 
1 
1 
1 
1 
1 
1 
1 
1 
1 
1 
1 
1 
1 
1 
1 
1 
1 
1 
1 
1 
1 
1 
1 
1 
1 
1 
1 
1 
1 
1 
1 
1 
1 
1 
1 
1 
1 
1 
1 
1 
1 
1 
1 
1 
1 
1 
1 
1 
1 
1 
1 
1 
1 
1 
1 
1 
1 
1 
1 
1 
1 
1 
1 
1 
1 
1 
1 
1 
1 
1 
1 
1 
1 
1 
1 
1 
1 
1 
1 
1 
1 
1 
1 
1 
1 
1 
1 
1 
1 
1 
1 
1 
1 
1 
1 
1 
1 
1 
1 
1 
1 
1 
1 
1 
1 
1 
1 
1 
1 
1 
1 
1 
1 
1 
1 
1 
1 
1 
1 
1 
1 
1 
1 
1 
1 
1 
1 
1 
1 
1 
1 
1 
1 
1 
1 
1 
1 
1 
1 
1 
1 
1 
1 
1 
1 
1 
1 
1 
1 
1 
1 
1 
1 
1 
1 
1 
1 
1 
1 
1 
1 
1 
1 
1 
1 
1 
1 
1 
1 
1 
1 
1 
1 
POINT_DATA 5000
VECTORS Stress float
-176.002 -1363.26 0.
214.398 -1194.86 0.
232.512 -1153.12 0.
25.8585 -1236.03 0.
-33.0619 -1373.76 0.
-91.9824 -1511.5 0.
360.058 -1383.53 0.
360.118 -1383.46 0.
360.178 -1383.4 0.
-270.418 -1653.32 0.
-269.53 -1651.32 0.
-268.641 -1649.32 0.
522.632 -1312.15 0.
522.028 -1313.56 0.
37.4319 -1519.52 0.
52.1658 -1485.33 0.
66.8997 -1451.14 0.
171.539 -1397.3 0.
156.605 -1432.59 0.
141.672 -1467.89 0.
115.284 -1491.46 0.
116.093 -1489.62 0.
116.902 -1487.78 0.
-78.016 -1569.18 0.
-76.0215 -1564.54 0.
54.4415 -1504.85 0.
-96.4705 -1573.09 0.
-97.2464 -1574.86 0.
-18.7121 -1538.62 0.
-16.4017 -1533.54 0.
-14.0913 -1528.46 0.
-63.9161 -1549.46 0.
-65.4635 -1553.03 0.
-67.0108 -1556.59 0.
-67.1142 -1559.7 0.
-68.5905 -1562.82 0.
-70.0668 -1565.94 0.
-314.908 -1670.34 0.
-314.727 -1670.05 0.
98.2718 -1493.14 0.
96.3444 -1497.6 0.
94.417 -1502.06 0.
69.7139 -1513.74 0.
70.6691 -1511.17 0.
71.6242 -1508.61 0.
-882.499 -1915.62 0.
-882.616 -1915.94 0.
-882.732 -1916.25 0.
1790.71 -765.789 0.
1794.36 -757.439 0.
-14404 -7693.05 0.
2388.61 -506.798 0.
2383.45 -519.487 0.
-159.106 -1619.15 0.
-156.581 -1613.52 0.
-154.056 -1607.89 0.
-361.481 -1694.04 0.
-361.927 -1695.24 0.
-362.374 -1696.43 0.
-360.634 -1695.21 0.
-359.842 -1693.28 0.
-359.05 -1691.35 0.
516.512 -1318.66 0.
516.531 -1318.4 0.
-371.819 -1694.7 0.
-369.456 -1689 0.
-367.092 -1683.3 0.
443.142 -1336.69 0.
441.401 -1340.85 0.
439.66 -1345.01 0.
-303.113 -1664.67 0.
-304.213 -1667.38 0.
-305.313 -1670.08 0.
-345.676 -1675.81 0.
-337.471 -1656.89 0.
-40.6476 -1518.57 0.
-13.7119 -1524.61 0.
-22.7812 -1546.07 0.
-30.1974 -1559.91 0.
-27.7516 -1554.16 0.
-25.3057 -1548.42 0.
280.176 -1416.09 0.
278.849 -1418.78 0.
277.522 -1421.47 0.
-26.7844 -1547.6 0.
-26.8248 -1546.61 0.
-26.8652 -1545.63 0.
-248.15 -1623.67 0.
-237.996 -1600.38 0.
58.9994 -1458.5 0.
53.6711 -1470.6 0.
48.3429 -1482.7 0.
197.481 -1417.3 0.
206.892 -1395.07 0.
216.303 -1372.83 0.
-219.473 -1516.22 0.
-187.723 -1441.75 0.
-155.973 -1367.27 0.
-102.6 -1118.25 0.
33.4046 -800.33 0.
330.414 -1115.2 0.
23.5211 -1245.94 0.
41.9046 -1204.61 0.
150.151 -1150.28 0.
91.3528 -1288.24 0.
32.5545 -1426.19 0.
226.255 -1409.75 0.
226.364 -1409.73 0.
226.472 -1409.7 0.
-5.88328 -1508.51 0.
-4.92959 -1506.51 0.
-3.97591 -1504.51 0.
0.231001 -1504.81 0.
-0.343556 -1506.17 0.
203.353 -1417.56 0.
218.216 -1383.46 0.
233.08 -1349.35 0.
391.389 -1271.04 0.
376.719 -1306.62 0.
362.049 -1342.19 0.
202.434 -1422.72 0.
203.291 -1420.87 0.
204.148 -1419.02 0.
-55.4402 -1528.29 0.
-53.4763 -1523.75 0.
-382.211 -1660.94 0.
-189.436 -1581.09 0.
-190.25 -1582.88 0.
-154.197 -1565.47 0.
-151.678 -1560.52 0.
-149.16 -1555.57 0.
95.7896 -1449.76 0.
94.2301 -1453.27 0.
92.6706 -1456.78 0.
198.138 -1414.91 0.
196.455 -1417.88 0.
194.772 -1420.84 0.
-284.944 -1626.36 0.
-284.668 -1626.11 0.
37.4709 -1487.77 0.
35.522 -1492.21 0.
33.5732 -1496.65 0.
-147.182 -1575.54 0.
-146.335 -1572.56 0.
-145.489 -1569.57 0.
-549.658 -1743.36 0.
-549.655 -1743.5 0.
-549.652 -1743.64 0.
1605.35 -813.58 0.
1609.09 -805.335 0.
-10840.5 -6134.39 0.
2208.04 -553.228 0.
2203.27 -566.307 0.
113.515 -1470.37 0.
116.178 -1464.94 0.
118.841 -1459.51 0.
-222.237 -1602.46 0.
-222.61 -1603.78 0.
-222.983 -1605.1 0.
-284.522 -1632 0.
-283.75 -1629.95 0.
-282.977 -1627.9 0.
-29.6259 -1520.65 0.
-29.7576 -1520.29 0.
44.1455 -1486.06 0.
46.3947 -1480.25 0.
48.6439 -1474.45 0.
425.029 -1312.48 0.
423.367 -1316.65 0.
421.706 -1320.81 0.
-232.385 -1603.34 0.
-233.395 -1606.1 0.
-234.405 -1608.87 0.
-469.728 -1697.8 0.
-461.363 -1678.94 0.
-116.59 -1518.89 0.
-14.6143 -1493.04 0.
-23.517 -1514.71 0.
99.2365 -1473.05 0.
101.642 -1467.31 0.
104.048 -1461.58 0.
478.269 -1299.77 0.
476.7 -1302.22 0.
475.13 -1304.67 0.
-43.6376 -1524.11 0.
-44.3732 -1522.6 0.
-45.1089 -1521.09 0.
-84.3456 -1523.09 0.
-73.981 -1500.11 0.
-175.891 -1528.32 0.
-181.429 -1540.25 0.
-186.967 -1552.18 0.
42.2915 -1452.9 0.
51.4719 -1430.66 0.
60.6524 -1408.41 0.
-301.674 -1520.89 0.
-270.097 -1446.03 0.
-238.519 -1371.17 0.
252.15 -934.965 0.
388.033 -616.174 0.
721.361 -1136.81 0.
-244.224 -1480.86 0.
-223.911 -1431.73 0.
-259.341 -2309.27 0.
127.661 -1406.29 0.
-72.383 -1873.13 0.
-1007.62 -4005.17 0.
-1041.51 -4084.94 0.
-2205.81 -6802.32 0.
-2022.44 -6685.72 0.
-1537.84 -5556.12 0.
-1439.28 -5327.28 0.
-2142.09 -5477.6 0.
-1878.09 -4859.93 0.
-2075.21 -7023.22 0.
-789.911 -4022.71 0.
-965.505 -4430.95 0.
-789.196 -4422.98 0.
-1254.35 -5507.08 0.
-3020.4 -9626.63 0.
-4926.13 -13523.6 0.
-2620.55 -8143.38 0.
-2342.1 -7493.13 0.
-1801.68 -5612.94 0.
-1477.51 -4857.4 0.
-2273.8 -6772.52 0.
-1921.4 -5415.74 0.
-1718.15 -4940.45 0.
-1298.08 -3951.46 0.
-1530.74 -4492.82 0.
-2647.22 -7096.41 0.
-3155.54 -9310.84 0.
-2320.31 -7362.73 0.
-2258.84 -7220.08 0.
-1876.48 -6726.05 0.
-2525.58 -8242.63 0.
-4737.91 -13406.8 0.
-4760.22 -12095.9 0.
-3699.08 -9620.55 0.
-4349.58 -11580.3 0.
-3161.58 -8808.36 0.
-3228.24 -8963.95 0.
-2521.91 -6673.3 0.
-1357.29 -3955.38 0.
-1209.84 -3610.86 0.
-1687.33 -4999.06 0.
-2327.69 -6494.27 0.
-3914 -10196.7 0.
-974.432 -6451.57 0.
-853.055 -6168.8 0.
-12331.1 -13722.9 0.
-376.377 -6210.36 0.
-817.025 -7237.31 0.
-3265.98 -9848.25 0.
-1934.32 -6739.47 0.
-2631.6 -8364.9 0.
-2752.33 -7738.2 0.
-2200.3 -6450.14 0.
-2790.72 -7827.79 0.
-2918.71 -7897.5 0.
-1953.33 -5646.05 0.
-1974.83 -5697.33 0.
-1917.08 -4851.17 0.
-2024.18 -5102.03 0.
-2437.5 -8036.13 0.
-2499.81 -8181.74 0.
-3930.55 -11520.4 0.
-4285.43 -12238.6 0.
-2403.78 -7848.06 0.
-2523.21 -8126.73 0.
-2880.64 -7885.76 0.
-2568.41 -7157.62 0.
-3664.08 -9714.58 0.
-2036.48 -5086.28 0.
-1475.82 -3777.14 0.
-1282.95 -4205.66 0.
-1064.42 -3912.7 0.
-2225.92 -6622.18 0.
-4280.08 -11906.4 0.
-2975.67 -8862 0.
-3512.94 -10114.9 0.
-3068.42 -9920.15 0.
-2382.07 -8319.24 0.
-2881 -9484.01 0.
-1854.43 -5683.13 0.
-767.445 -3148.93 0.
-1093.64 -3912.14 0.
-1198.45 -4404.66 0.
-1587.26 -5311.46 0.
-1948.09 -5188.33 0.
-1127.52 -3274.05 0.
-1048.55 -3090.25 0.
-591.177 -2601.86 0.
-395.307 -2145.16 0.
-1249.4 -4138.33 0.
-904.477 -2743.1 0.
-353.84 -1458.79 0.
-256.259 -1231.68 0.
163.717 -1789.59 0.
-305.156 -2884.48 0.
877.436 -162.409 0.
498.19 -354.809 0.
436.527 -496.568 0.
385.496 -579.402 0.
489.504 -336.771 0.
593.513 -94.1391 0.
667.115 68.0126 0.
682.109 102.537 0.
697.103 137.061 0.
858.295 282.201 0.
917.311 418.62 0.
976.327 555.039 0.
617.875 492.474 0.
661.897 596.832 0.
1331.89 957.982 0.
1300.34 885.365 0.
1268.8 812.747 0.
1348.37 870.262 0.
1457.38 1125.4 0.
1566.38 1380.54 0.
1240.81 1276.62 0.
1184.41 1144.18 0.
1128.02 1011.73 0.
938.177 752.142 0.
831.324 501.762 0.
1274.39 487.003 0.
683.695 228.549 0.
684.177 230.016 0.
653.356 249.992 0.
735.001 442.143 0.
816.646 634.294 0.
998.838 760.236 0.
951.049 648.523 0.
903.259 536.81 0.
1076.68 643.871 0.
1128.44 763.06 0.
1180.19 882.249 0.
906.848 919.162 0.
992.459 1118.35 0.
1206.42 1317.61 0.
1021.26 885.771 0.
836.105 453.928 0.
560.233 87.6394 0.
538.072 36.2891 0.
515.91 -15.0614 0.
473.641 -88.5907 0.
438.618 -172.001 0.
403.595 -255.411 0.
1805.23 493.609 0.
1919.68 759.089 0.
932.468 552.484 0.
2395.69 1022.18 0.
2312.22 828.791 0.
1054.13 196.116 0.
1113.94 336.983 0.
1173.74 477.85 0.
881.842 393.728 0.
855.457 332.38 0.
829.071 271.033 0.
564.583 102.394 0.
536.527 36.3164 0.
508.471 -29.7607 0.
362.415 21.2765 0.
431.911 182.869 0.
1031.61 579.929 0.
1140.9 834.076 0.
1250.18 1088.22 0.
1534.78 1347.73 0.
1535.04 1347.17 0.
1535.31 1346.6 0.
976.045 1094.24 0.
966.196 1069.92 0.
956.348 1045.6 0.
495.607 638.135 0.
359.943 323.36 0.
840.128 284.997 0.
888.325 557.954 0.
1020.13 866.743 0.
1445.89 1246.35 0.
1458.7 1276.61 0.
1471.52 1306.87 0.
1532.65 1311.68 0.
1491.7 1215.53 0.
1450.75 1119.38 0.
833.456 680.471 0.
721.749 417.865 0.
610.041 155.259 0.
873.975 183.658 0.
832.005 86.9157 0.
252.17 -226.154 0.
281.005 -158.75 0.
309.839 -91.3465 0.
444.53 -40.577 0.
378.011 -195.341 0.
311.491 -350.104 0.
95.3981 -509.772 0.
81.9409 -541.012 0.
68.4836 -572.253 0.
611.823 -201.364 0.
706.066 18.5156 0.
573.701 -260.914 0.
832.438 -181.078 0.
770.602 -322.879 0.
284.214 -590.561 0.
388.145 -348.085 0.
492.076 -105.61 0.
596.993 69.8768 0.
611.922 104.477 0.
626.851 139.076 0.
745.697 265.693 0.
804.783 402.114 0.
863.868 538.536 0.
880.705 635.879 0.
924.782 740.344 0.
1331.9 989.318 0.
1300.54 916.626 0.
1269.18 843.935 0.
1204.54 840.282 0.
1313.66 1095.21 0.
1422.78 1350.14 0.
1042.39 1224.35 0.
986.453 1091.57 0.
930.516 958.788 0.
969.834 798.094 0.
863.009 547.583 0.
1452.13 595.247 0.
928.368 365.187 0.
929.083 366.486 0.
854.822 368.203 0.
936.373 560.247 0.
1017.93 752.291 0.
816.982 713.427 0.
769.048 601.948 0.
721.115 490.47 0.
841.017 573.167 0.
892.614 692.44 0.
944.211 811.713 0.
1032.94 1005.31 0.
1118.57 1204.57 0.
1258.17 1372.27 0.
1072.99 940.637 0.
887.82 509.009 0.
802.739 222.759 0.
780.617 171.392 0.
758.495 120.024 0.
558.268 -22.9312 0.
523.498 -106.413 0.
488.727 -189.895 0.
1580.98 429.698 0.
1695.69 694.663 0.
-36.9858 168.234 0.
2010.75 888.347 0.
1927.35 695.299 0.
1089.36 242.421 0.
1149.27 383.275 0.
1209.18 524.129 0.
1080.93 510.442 0.
1054.44 449.093 0.
1027.95 387.744 0.
648.19 169.677 0.
620.015 103.803 0.
591.84 37.9289 0.
613.849 161.59 0.
683.269 323.402 0.
774.001 500.292 0.
883.502 754.321 0.
993.004 1008.35 0.
1548.54 1385.68 0.
1549.13 1384.67 0.
1549.71 1383.66 0.
1002.93 1138.04 0.
993.37 1113.44 0.
983.808 1088.85 0.
609.21 719.425 0.
473.254 404.801 0.
874.113 330.32 0.
949.623 615.218 0.
1081.25 924.167 0.
1571.74 1332.11 0.
1584.79 1362.56 0.
1597.84 1393 0.
1288.73 1238.54 0.
1247.78 1142.4 0.
1206.84 1046.26 0.
801.932 698.786 0.
690.148 436.149 0.
578.363 173.512 0.
1020.2 277.503 0.
977.914 180.826 0.
358.039 -150.97 0.
386.665 -83.4461 0.
415.291 -15.9227 0.
385.841 -32.8653 0.
319.108 -187.382 0.
252.376 -341.899 0.
164.023 -449.323 0.
150.347 -480.376 0.
136.67 -511.428 0.
343.447 -284.753 0.
437.575 -64.3741 0.
11.6633 -1136.84 0.
556.271 -930.627 0.
581.357 -875.232 0.
6.45798 -1105.3 0.
-41.0989 -1217 0.
-88.6559 -1328.7 0.
-89.0017 -1373.91 0.
-78.6843 -1351.47 0.
-68.3669 -1329.04 0.
46.9894 -1353.88 0.
-16.7956 -1503.69 0.
-80.5808 -1653.5 0.
-35.9519 -1685.26 0.
-58.9342 -1740.17 0.
201.134 -1675.21 0.
192.082 -1697.95 0.
183.031 -1720.69 0.
5.33193 -1840.56 0.
-44.4627 -1956.76 0.
-94.2576 -2072.95 0.
-442.103 -2206.33 0.
-382.323 -2068.6 0.
-322.543 -1930.87 0.
-278.287 -2056.22 0.
-394.176 -2329.09 0.
5.81024 -2380.78 0.
-126.406 -2273.03 0.
-35.406 -2062.18 0.
-84.1605 -1946.8 0.
-78.061 -1933.46 0.
-71.9616 -1920.12 0.
-438.86 -2067.1 0.
-434.084 -2058.78 0.
-429.307 -2050.46 0.
-456.959 -2218.88 0.
-580.832 -2509.43 0.
-704.705 -2799.99 0.
-399.511 -2600.08 0.
-342.168 -2465.66 0.
-373.471 -2369 0.
-309.552 -2220.67 0.
-245.633 -2072.34 0.
32.0357 -1870.19 0.
32.2985 -1870.53 0.
32.5612 -1870.86 0.
-293.461 -2090.2 0.
-369.808 -2271.02 0.
-446.155 -2451.83 0.
217.241 -2212.74 0.
215.678 -2218.57 0.
-2230.27 -3273.64 0.
473.619 -2094.03 0.
485.678 -2068.04 0.
88.6297 -2253.09 0.
10.7533 -2431.3 0.
-67.1231 -2609.52 0.
-374.46 -2764.09 0.
-304.716 -2604.38 0.
-234.971 -2444.66 0.
-351.761 -2371.56 0.
-292.375 -2232 0.
-232.988 -2092.43 0.
-128.082 -1979 0.
-94.2738 -1901.29 0.
-371.794 -1987.37 0.
-465.807 -2206.2 0.
-559.82 -2425.04 0.
-64.7276 -2314.67 0.
-38.1191 -2251.33 0.
-11.5107 -2187.98 0.
-540.413 -2344.52 0.
-496.671 -2239.22 0.
-452.929 -2133.93 0.
-434.073 -2020.22 0.
-374.777 -1885.15 0.
-27.8025 -1632.18 0.
-150.908 -1845.29 0.
-235.751 -2042 0.
175.049 -1991.35 0.
159.497 -2025.27 0.
143.945 -2059.2 0.
-239.178 -2228.76 0.
-231.133 -2209.59 0.
-223.087 -2190.42 0.
-422.648 -2188.41 0.
-359.047 -2039.56 0.
-295.445 -1890.72 0.
214.469 -1604.1 0.
247.492 -1526.54 0.
-331.24 -1703.64 0.
-274.654 -1571.05 0.
-218.068 -1438.45 0.
-161.263 -1327.13 0.
-133.773 -1260.96 0.
-106.283 -1194.79 0.
-209.689 -1281.79 0.
-268.725 -1420.95 0.
-327.76 -1560.11 0.
-230.106 -1473.32 0.
-189.179 -1376.56 0.
-118.761 -1164.29 0.
376.811 -976.177 0.
401.326 -920.457 0.
-4.58757 -1079.59 0.
-52.2423 -1191.29 0.
-99.897 -1302.99 0.
-150 -1368.44 0.
-139.772 -1346.13 0.
-129.545 -1323.81 0.
178.226 -1266.22 0.
114.407 -1415.96 0.
50.5869 -1565.7 0.
-76.2017 -1672.35 0.
-99.3327 -1726.95 0.
265.43 -1615.28 0.
256.229 -1637.87 0.
247.028 -1660.45 0.
60.4602 -1786.2 0.
10.4048 -1902.37 0.
-39.6508 -2018.53 0.
-251.935 -2093.42 0.
-192.172 -1955.47 0.
-132.409 -1817.52 0.
-329.751 -2046.75 0.
-445.443 -2319.5 0.
-1086.11 -2817.28 0.
-147.676 -2250.96 0.
-57.0738 -2040 0.
-116.544 -1929.31 0.
-110.576 -1916.14 0.
-104.608 -1902.97 0.
-386.284 -2013.41 0.
-381.591 -2005.29 0.
-376.899 -1997.18 0.
-445.145 -2182.94 0.
-568.75 -2473.6 0.
-692.354 -2764.26 0.
-214.918 -2489.58 0.
-157.315 -2355.09 0.
-459.381 -2374.84 0.
-395.568 -2226.56 0.
-331.754 -2078.27 0.
126.118 -1797.7 0.
126.39 -1798.21 0.
126.661 -1798.73 0.
-268.484 -2051.58 0.
-344.655 -2232.66 0.
-420.826 -2413.74 0.
-116.181 -2323.1 0.
-117.192 -2329.34 0.
-523.503 -2511.73 0.
260.853 -2154.85 0.
273.2 -2128.98 0.
240.068 -2156.71 0.
162.358 -2334.92 0.
84.6485 -2513.14 0.
-664.442 -2858.01 0.
-594.885 -2698.25 0.
-525.327 -2538.49 0.
-181.406 -2267.95 0.
-122.083 -2128.25 0.
-62.7592 -1988.55 0.
84.8806 -1856.21 0.
118.956 -1778.67 0.
-275.975 -1914.94 0.
-370.06 -2133.79 0.
-464.145 -2352.65 0.
-119.121 -2305.74 0.
-92.0489 -2242.85 0.
-64.9767 -2179.97 0.
-661.461 -2364.96 0.
-617.742 -2259.62 0.
-574.024 -2154.28 0.
-194.962 -1886.25 0.
-135.623 -1750.98 0.
-153.439 -1654.99 0.
-288.968 -1873.23 0.
-374.016 -2069.83 0.
144.991 -1973.96 0.
129.191 -2007.31 0.
113.391 -2040.66 0.
-69.6872 -2125.68 0.
-61.7016 -2106.55 0.
-53.716 -2087.43 0.
-332.086 -2119.23 0.
-268.901 -1970.18 0.
-205.716 -1821.13 0.
91.8741 -1626.81 0.
125.149 -1549.46 0.
-461.246 -1726.96 0.
-404.367 -1594.76 0.
-347.488 -1462.55 0.
-56.9143 -1251.51 0.
-29.303 -1185.19 0.
-1.69189 -1118.88 0.
-273.872 -1278.7 0.
-333.286 -1417.54 0.
-392.699 -1556.38 0.
-89.7534 -1382.39 0.
-49.1852 -1285.54 0.
64.5844 -437.602 0.
644.731 19.455 0.
548.008 -204.262 0.
2.45389 -1012.65 0.
167.08 -627.142 0.
240.345 -454.792 0.
-512.205 -2065.21 0.
389.509 38.7116 0.
301.4 -167.367 0.
426.203 -916.927 0.
1.69166 -1908.29 0.
391.638 -999.278 0.
340.143 -585.733 0.
305.751 -669.555 0.
532.974 -1077.72 0.
803.45 -449.55 0.
396.811 -1401.33 0.
-175.752 -2400.56 0.
118.463 -1716.42 0.
640.218 -501.37 0.
613.708 -396.576 0.
539.907 -569.398 0.
479.286 -711.509 0.
251.424 -567.802 0.
19.5094 -1108.13 0.
204.715 -624.598 0.
541.021 -565.902 0.
78.1926 -1649.43 0.
8.56031 -1544.37 0.
484.201 -436.197 0.
872.643 468.532 0.
-611.973 -2607.35 0.
-183.942 -1609.23 0.
292.485 -498.103 0.
516.964 68.3176 0.
-265.297 -1755.07 0.
-871.995 -3168.9 0.
31.0648 -2237.29 0.
505.257 -1133 0.
-163.368 -1486.68 0.
-136.945 -1425.8 0.
93.7283 -888.429 0.
457.086 -1171.28 0.
267.402 -1613.66 0.
917.181 -97.4245 0.
376.009 -573.498 0.
80.1906 -1258.66 0.
343.163 -640.022 0.
-255.314 -1986.8 0.
394.201 -466.671 0.
1116.83 -969.381 0.
701.536 -701.821 0.
427.595 -1337.31 0.
755.662 -1200.11 0.
323.949 -2208.07 0.
-94.0454 -3184 0.
-176.227 -1142.25 0.
485.818 403.095 0.
508.048 455.554 0.
634.194 -663.933 0.
106.413 -1894.95 0.
1148.5 537.157 0.
954.037 -203.218 0.
170.19 -2029.01 0.
-271.072 -2048.15 0.
827.287 513.012 0.
387.989 -513.716 0.
477.592 -776.795 0.
309.836 -1168.25 0.
449.116 -843.26 0.
-519.835 -1766.85 0.
254.202 36.0782 0.
42.2355 -461.61 0.
-66.5712 -2010.27 0.
-240.281 -2414.15 0.
308.565 -744.659 0.
-92.8675 -1122.65 0.
-268.506 -1533.69 0.
1135.08 435.372 0.
576.32 -869.02 0.
508.608 -1027.56 0.
486.327 -1120.43 0.
566.327 -934.981 0.
608.555 -837.606 0.
-301.969 -2190.97 0.
-319.46 -2232.96 0.
-761.824 -3266.36 0.
146.362 -1236.29 0.
689.276 30.4472 0.
338.262 408.527 0.
129.228 -79.3272 0.
-98.3036 -610.501 0.
228.447 -755.381 0.
281.765 -630.593 0.
819.656 624.868 0.
40.0588 -396.038 0.
-60.5094 -631.132 0.
-53.199 -614.474 0.
727.367 290.052 0.
196.039 -949.483 0.
48.8158 -501.849 0.
331.526 -426.781 0.
322.1 -447.182 0.
230.846 -512.448 0.
185.824 -616.865 0.
140.802 -721.281 0.
2.94715 -903.609 0.
-84.8334 -1107.33 0.
-172.614 -1311.05 0.
301.513 -1238.16 0.
239.911 -1383.13 0.
178.31 -1528.1 0.
6.60415 -1516.76 0.
72.8942 -1365.4 0.
422.022 -1106.07 0.
410.762 -1134.61 0.
399.503 -1163.15 0.
285.721 -1239.66 0.
263.505 -1293.47 0.
241.288 -1347.28 0.
259.439 -1440.74 0.
178.843 -1629.18 0.
98.2463 -1817.62 0.
-211.096 -1734.09 0.
-35.9087 -1325.15 0.
134.574 -918.051 0.
219.077 -1166.03 0.
66.6109 -1523.99 0.
-236.097 -1885.8 0.
-238.059 -1892.56 0.
-240.021 -1899.32 0.
-137.189 -1862.47 0.
-136.088 -1861.61 0.
-134.987 -1860.75 0.
-184.852 -1626.49 0.
19.0361 -1148.99 0.
222.924 -671.496 0.
616.67 -720.84 0.
459.164 -1089.54 0.
-32.4337 -1567.5 0.
-37.6441 -1580.82 0.
-42.8549 -1594.13 0.
75.0687 -1575.13 0.
40.4892 -1656.15 0.
5.90876 -1737.17 0.
-69.4195 -1688.01 0.
33.2435 -1445.83 0.
135.907 -1203.66 0.
-54.3252 -1422.05 0.
-175.648 -1700.29 0.
912.236 -1458.21 0.
420.15 -1514.8 0.
499.073 -1326.74 0.
534.055 -1211.01 0.
504.281 -1281.25 0.
474.506 -1351.49 0.
-352.35 -1781.64 0.
-416.166 -1930.57 0.
-479.981 -2079.49 0.
26.6134 -1829.03 0.
84.3877 -1692.88 0.
142.162 -1556.73 0.
241.7 -1457.09 0.
265.827 -1397.93 0.
217.652 -1397.2 0.
146.336 -1564.81 0.
75.0199 -1732.43 0.
-132.278 -1845.79 0.
-33.5704 -1614.92 0.
65.1373 -1384.06 0.
-224.567 -1515.22 0.
-304.72 -1703.43 0.
-384.873 -1891.64 0.
58.9231 -1611.04 0.
137.918 -1424.35 0.
-126.78 -1386.16 0.
-141.12 -1359.07 0.
-123.639 -1318.35 0.
265.115 -1180.14 0.
149.641 -1450.08 0.
34.1676 -1720.02 0.
227.536 -1696.91 0.
295.331 -1538.67 0.
363.127 -1380.44 0.
48.2668 -1393.91 0.
112.686 -1244.7 0.
177.106 -1095.49 0.
-0.480242 -1191.6 0.
-20.8656 -1238.35 0.
-118.661 -1333.3 0.
-165.309 -1440.91 0.
-211.958 -1548.52 0.
-20.2446 -1479.75 0.
37.5336 -1343.69 0.
95.312 -1207.64 0.
-302.899 -1209.72 0.
-190.959 -949.245 0.
-79.0189 -688.769 0.
112.342 -784.918 0.
-27.795 -1112.92 0.
78.666 -459.642 0.
198.514 -452.663 0.
189.191 -473.154 0.
264.611 -466.35 0.
219.797 -571.067 0.
174.984 -675.784 0.
40.9103 -855.452 0.
-47.156 -1058.77 0.
-135.222 -1262.08 0.
334.361 -1192.54 0.
272.849 -1337.64 0.
211.337 -1482.74 0.
103.75 -1443.24 0.
169.945 -1291.64 0.
317.95 -1118.62 0.
306.551 -1147.16 0.
295.151 -1175.7 0.
257.979 -1220.35 0.
235.691 -1274.11 0.
213.403 -1327.87 0.
390.211 -1353.19 0.
309.461 -1541.49 0.
228.712 -1729.78 0.
-148.662 -1675.61 0.
26.9059 -1266.84 0.
184.188 -865.692 0.
156.433 -1162.37 0.
3.6117 -1519.82 0.
-340.779 -1899.64 0.
-342.766 -1906.53 0.
-344.753 -1913.42 0.
70.8934 -1741.07 0.
72.1135 -1740.56 0.
73.3338 -1740.05 0.
-138.314 -1574.83 0.
65.6243 -1097.38 0.
269.563 -619.93 0.
554.832 -715.606 0.
397.132 -1084.16 0.
186.981 -1441.09 0.
181.862 -1454.77 0.
176.744 -1468.44 0.
-164.35 -1646.97 0.
-198.766 -1727.87 0.
-233.182 -1808.77 0.
-13.0327 -1631.71 0.
90.3247 -1389.78 0.
193.682 -1147.85 0.
-87.1619 -1404.55 0.
-208.508 -1682.57 0.
308.232 -1686.66 0.
517.116 -1443.06 0.
596.084 -1255.02 0.
285.355 -1285.59 0.
255.541 -1355.9 0.
225.728 -1426.2 0.
-215.648 -1691.27 0.
-279.328 -1840.56 0.
-343.007 -1989.84 0.
-89.7869 -1848.14 0.
-32.3855 -1711.48 0.
25.0161 -1574.81 0.
43.6518 -1511.51 0.
68.0508 -1452.51 0.
491.578 -1246.82 0.
420.381 -1414.49 0.
349.183 -1582.16 0.
-301.044 -1885.85 0.
-202.556 -1654.81 0.
-104.069 -1423.78 0.
21.0574 -1380.21 0.
-59.7919 -1567.87 0.
-140.641 -1755.54 0.
19.2543 -1596.99 0.
98.0134 -1410.08 0.
37.4437 -1285.7 0.
-60.6388 -1294.16 0.
-43.3722 -1253.16 0.
64.7142 -1233.96 0.
-50.6999 -1503.63 0.
-166.114 -1773.29 0.
228.932 -1665.55 0.
296.527 -1506.99 0.
364.122 -1348.42 0.
75.8186 -1349.78 0.
140.302 -1200.49 0.
204.785 -1051.19 0.
-187.156 -1239.83 0.
-207.947 -1286.36 0.
251.861 -1143.45 0.
204.81 -1250.83 0.
157.758 -1358.22 0.
70.8158 -1410.96 0.
128.302 -1274.85 0.
185.788 -1138.74 0.
-279.323 -1168.3 0.
-167.306 -907.868 0.
-55.2893 -647.434 0.
-60.1673 -827.365 0.
-199.914 -1155.74 0.
0.667043 -739.378 0.
-85.675 -916.69 0.
-185.2 -1151.64 0.
-35.7677 -1249.75 0.
-54.8578 -1295.33 0.
-73.9478 -1340.92 0.
-185.264 -1398.78 0.
-174.117 -1374.16 0.
-162.969 -1349.53 0.
232.042 -1198.37 0.
212.559 -1243.76 0.
193.077 -1289.15 0.
189.573 -1385.14 0.
134.002 -1512.82 0.
-31.3172 -1678.84 0.
-7.32606 -1622.44 0.
16.6651 -1566.04 0.
141.701 -1529.79 0.
61.4239 -1716.88 0.
-18.8528 -1903.98 0.
173.096 -1883.15 0.
181.565 -1862.65 0.
190.034 -1842.16 0.
-278.643 -2036.41 0.
-278.017 -2033.1 0.
7.70512 -1907.55 0.
-116.625 -1795.44 0.
-29.3356 -1592.5 0.
-211.962 -1586.16 0.
-326.053 -1848.64 0.
-440.143 -2111.13 0.
25.2417 -1944.07 0.
137.378 -1684.73 0.
249.515 -1425.39 0.
-190.742 -1709.2 0.
-322.436 -2016.63 0.
-454.13 -2324.07 0.
-176.056 -2203.79 0.
-157.674 -2160.98 0.
-19.025 -2067.08 0.
2.42591 -2013.33 0.
23.8765 -1959.58 0.
-440.602 -2106.47 0.
-408.302 -2028.38 0.
-376.001 -1950.3 0.
-63.6282 -1771.14 0.
-48.3964 -1736.19 0.
-33.1645 -1701.25 0.
-248.149 -1773.77 0.
-237.893 -1755.37 0.
-1205.61 -2155.61 0.
477.478 -1550.1 0.
416.83 -1691.95 0.
-144.188 -2004.49 0.
-121.036 -1947.51 0.
-97.8837 -1890.52 0.
-356.642 -1942.43 0.
-311.688 -1834.9 0.
-266.733 -1727.37 0.
-30.8942 -1615.59 0.
-44.1118 -1647.39 0.
-57.3292 -1679.2 0.
-119.353 -1794.78 0.
-171.414 -1917.35 0.
299.648 -1793.38 0.
328.572 -1723.99 0.
357.495 -1654.6 0.
-321.714 -1967.06 0.
-412.236 -2178.71 0.
-502.758 -2390.36 0.
-314.364 -2279.59 0.
-224.078 -2071.04 0.
-133.791 -1862.48 0.
-118.773 -1824.71 0.
-115.947 -1821.45 0.
-96.3081 -1812.12 0.
-258.757 -1953.32 0.
-296.804 -2041.24 0.
-287.965 -2063.81 0.
-229.514 -1925.32 0.
-171.063 -1786.84 0.
142.785 -1601.96 0.
131.18 -1630.68 0.
119.576 -1659.41 0.
-95.7711 -1654.75 0.
-18.1195 -1474.1 0.
59.5322 -1293.44 0.
-181.263 -1329.19 0.
-150.247 -1259.4 0.
324.976 -1037.33 0.
218.942 -1286.94 0.
112.908 -1536.55 0.
-89.9711 -1698.33 0.
-15.7532 -1528.01 0.
58.465 -1357.69 0.
-347.951 -1338.49 0.
-225.619 -1052.76 0.
-103.286 -767.025 0.
-188.414 -867.436 0.
-257.463 -1029.76 0.
87.341 -667.55 0.
-126.627 -902.303 0.
-226.321 -1137.38 0.
51.2286 -1181.29 0.
31.9711 -1226.44 0.
12.7136 -1271.59 0.
-167.998 -1359.23 0.
-156.812 -1334.37 0.
-145.626 -1309.5 0.
-1.82928 -1268.51 0.
-21.3615 -1313.74 0.
-40.8937 -1358.98 0.
275.4 -1317.01 0.
219.798 -1444.68 0.
-162.612 -1703.11 0.
-138.521 -1646.78 0.
-114.429 -1590.45 0.
240.273 -1456.27 0.
159.983 -1643.44 0.
79.6925 -1830.61 0.
96.0201 -1883.65 0.
104.558 -1863.19 0.
113.096 -1842.73 0.
-253.771 -1996.16 0.
-253.365 -1992.87 0.
359.083 -1727.22 0.
-32.8907 -1728.52 0.
54.6039 -1525.79 0.
-96.7702 -1504.56 0.
-210.904 -1767.32 0.
-325.038 -2030.08 0.
-55.7505 -1948.83 0.
56.2765 -1689.62 0.
168.304 -1430.4 0.
-186.903 -1675.62 0.
-319.226 -1982.93 0.
-451.55 -2290.23 0.
-310.884 -2229.73 0.
-292.709 -2186.95 0.
-56.6906 -2052.56 0.
-35.4634 -1999.17 0.
-14.2365 -1945.79 0.
-373.448 -2046.69 0.
-340.899 -1969.06 0.
-308.35 -1891.43 0.
-68.9411 -1741.09 0.
-53.68 -1706.2 0.
-38.4188 -1671.32 0.
-179.436 -1713.86 0.
-169.645 -1695.15 0.
-374.611 -1768.85 0.
423.946 -1541.81 0.
362.787 -1683.19 0.
-166.194 -1983.23 0.
-142.963 -1926.43 0.
-119.733 -1869.64 0.
-544.824 -1989.9 0.
-499.503 -1883.18 0.
-454.181 -1776.46 0.
16.6536 -1563.36 0.
2.95522 -1594.84 0.
-10.743 -1626.33 0.
17.4678 -1705.39 0.
-34.8957 -1827.83 0.
154.561 -1825.12 0.
183.23 -1755.35 0.
211.899 -1685.59 0.
-93.3187 -1838.52 0.
-183.896 -2049.77 0.
-274.474 -2261.03 0.
-407.744 -2290.12 0.
-317.461 -2081.29 0.
-227.178 -1872.45 0.
-137.932 -1800.61 0.
-134.727 -1797.68 0.
-553.927 -1976.97 0.
-98.489 -1853.56 0.
-136.287 -1941.55 0.
-59.0728 -1933.83 0.
-0.508136 -1795.21 0.
58.0567 -1656.59 0.
-91.3447 -1671.98 0.
-102.987 -1700.65 0.
-114.63 -1729.32 0.
-185.098 -1659.72 0.
-107.646 -1478.73 0.
-30.1944 -1297.74 0.
153.309 -1155.73 0.
184.085 -1085.41 0.
64.824 -1117.37 0.
-41.4458 -1366.73 0.
-147.716 -1616.09 0.
-233.411 -1728.85 0.
-160.046 -1558.02 0.
-86.6813 -1387.18 0.
-328.457 -1299.11 0.
-206.197 -1013.21 0.
-83.9376 -727.311 0.
-260.34 -867.477 0.
-328.968 -1029.38 0.
297.224 -306.43 0.
-29.8668 -567.815 0.
541.229 765.595 0.
781.447 389.664 0.
524.324 -210.675 0.
604.416 -24.0429 0.
459.659 98.3425 0.
415.548 -4.56433 0.
388.547 -68.6234 0.
262.191 -176.012 0.
552.259 499.821 0.
478.885 327.727 0.
799.313 -228.359 0.
548.953 -814.061 0.
669.487 526.149 0.
583.509 322.402 0.
352.864 -218.92 0.
1081.34 354.198 0.
950.23 47.7055 0.
852.843 -180.15 0.
879.72 122.535 0.
887.766 140.372 0.
140.59 -1603.82 0.
193.16 -968.57 0.
606.931 -5.93835 0.
740.548 -88.6041 0.
755.392 -19.5639 0.
251.458 -1198.97 0.
372.699 -593.033 0.
786.553 370.745 0.
990.53 844.766 0.
833.778 313.854 0.
573.697 -292.617 0.
674.151 -57.6977 0.
600.533 183.132 0.
772.032 584.936 0.
407.597 -263.15 0.
838.992 746.822 0.
185.827 -777.461 0.
460.87 -739.777 0.
636.866 -332.087 0.
491.075 -674.912 0.
165.389 -882.632 0.
578.11 78.2845 0.
357.814 -438.137 0.
152.582 -1181.3 0.
393.584 -619.402 0.
711.58 122.227 0.
743.16 330.615 0.
742.771 329.496 0.
-2737.92 -1691.38 0.
908.859 -263.661 0.
936.684 -201.593 0.
884.213 545.071 0.
813.165 377.454 0.
491.385 -374.561 0.
114.154 -63.5264 0.
-45.2066 -434.983 0.
237.945 226.148 0.
302.043 -953.841 0.
614.254 -225.13 0.
912.063 469.34 0.
838.456 -25.5803 0.
930.097 194.139 0.
962.762 373.486 0.
848.65 106.873 0.
819.801 39.4389 0.
510.416 -833.032 0.
1205.1 788.199 0.
1183.34 737.673 0.
603.65 279.494 0.
505.112 49.1017 0.
293.844 -444.565 0.
394.764 -500.956 0.
943.14 779.76 0.
-26.5771 -35.1591 0.
601.62 -491.639 0.
914.492 237.294 0.
746.102 -452.93 0.
823.592 -274.867 0.
901.473 -95.933 0.
286.717 -321.094 0.
195.822 -529.15 0.
329.049 -214.159 0.
247.536 -448.501 0.
70.0413 -862.714 0.
633.002 450.336 0.
918.605 35.2379 0.
983.295 189.888 0.
108.219 -493.825 0.
285.204 -79.7646 0.
671.323 821.902 0.
348.988 -63.6732 0.
500.336 289.275 0.
556.757 420.119 0.
-140.118 -868.559 0.
136.335 -224.004 0.
-115.77 -812.574 0.
-360.651 -931.183 0.
-293.217 -770.476 0.
135.057 -632.588 0.
-128.851 -771.293 0.
-148.878 -816.549 0.
184.32 -714.249 0.
146.894 -800.626 0.
109.468 -887.002 0.
57.891 -1012.67 0.
-19.5774 -1193.71 0.
-97.046 -1374.75 0.
-249.081 -1489.65 0.
-244.428 -1478.81 0.
-239.776 -1467.97 0.
368.426 -1215.63 0.
359.38 -1235.94 0.
-12.5883 -1420.81 0.
-77.5031 -1573.56 0.
-142.418 -1726.3 0.
127.333 -1705.37 0.
114.448 -1736.48 0.
101.564 -1767.6 0.
-86.1368 -1736.81 0.
35.0652 -1455.08 0.
156.267 -1173.35 0.
159.725 -1262.47 0.
62.5132 -1492.17 0.
325.84 -1567.56 0.
-222.931 -1619.67 0.
-121.17 -1383.95 0.
241.281 -1121.3 0.
125.039 -1395.48 0.
8.7976 -1669.66 0.
-65.8382 -1826.68 0.
-64.1283 -1822.53 0.
-62.4184 -1818.37 0.
-300.846 -1996.89 0.
-364.788 -2145.48 0.
-428.73 -2294.08 0.
-553.711 -2198.98 0.
-455.805 -1969.21 0.
55.4869 -1591.6 0.
8.54395 -1702.2 0.
-38.3989 -1812.8 0.
-193.1 -1933.26 0.
-182.311 -1908.53 0.
-171.523 -1883.79 0.
-160.066 -1855.63 0.
-146.215 -1825.14 0.
-132.363 -1794.65 0.
-293.229 -1948.69 0.
-352.1 -2086.73 0.
-865.738 -2419.66 0.
278.258 -1739.06 0.
378.643 -1506.05 0.
-225.445 -1627.73 0.
-248.297 -1680.72 0.
-271.149 -1733.71 0.
-574.251 -1879.01 0.
-561.8 -1850.47 0.
-549.349 -1821.94 0.
-30.5776 -1696.56 0.
-112.437 -1889.47 0.
-194.298 -2082.38 0.
63.4961 -1833.98 0.
149.966 -1628.81 0.
104.53 -1520.22 0.
24.1518 -1708.7 0.
-56.2266 -1897.18 0.
-61.5255 -1968.46 0.
-19.5793 -1869.13 0.
22.3671 -1769.79 0.
-225.504 -1857.97 0.
-240.705 -1892.48 0.
-255.906 -1926.99 0.
-176.593 -1968.02 0.
-221.489 -2071.36 0.
-237.401 -2161.24 0.
-145.971 -2080.17 0.
-122.825 -2028.32 0.
-76.8811 -1930.88 0.
26.5879 -1690.42 0.
130.058 -1449.97 0.
-45.7179 -1439.94 0.
-76.5338 -1507.43 0.
-107.35 -1574.93 0.
-227.793 -1627.98 0.
-214.178 -1596.2 0.
-200.564 -1564.42 0.
170.351 -1485.61 0.
121.614 -1596.75 0.
-341.145 -1832.03 0.
-202.233 -1507.94 0.
-63.3222 -1183.84 0.
-35.5422 -964.963 0.
32.0626 -809.837 0.
99.6676 -654.711 0.
-34.6593 -704.545 0.
-74.9635 -800.339 0.
-115.267 -896.133 0.
-146.493 -657.22 0.
24.8931 -254.847 0.
122.784 -609.004 0.
-127.307 -740.424 0.
-147.381 -785.8 0.
48.6419 -741.608 0.
10.7582 -827.562 0.
-27.125 -913.517 0.
165.62 -934.532 0.
88.3081 -1115.57 0.
10.9961 -1296.6 0.
-169.772 -1424.91 0.
-165.214 -1413.77 0.
-160.655 -1402.62 0.
373.583 -1182.43 0.
364.135 -1202.8 0.
189.429 -1302.65 0.
124.278 -1455.35 0.
59.1286 -1608.06 0.
56.1014 -1704.42 0.
43.1634 -1735.62 0.
30.2252 -1766.81 0.
-273.996 -1784.43 0.
-152.378 -1502.92 0.
-30.7605 -1221.41 0.
290.23 -1175.65 0.
192.6 -1404.87 0.
272.849 -1558.18 0.
-564.154 -1734.96 0.
-462.244 -1499.54 0.
376.176 -1031.39 0.
260.209 -1305.95 0.
144.242 -1580.51 0.
-27.1667 -1776.77 0.
-25.2418 -1773.17 0.
-23.3169 -1769.57 0.
-243.332 -1940.58 0.
-307.124 -2089.2 0.
-370.916 -2237.83 0.
-695.81 -2227.89 0.
-598.161 -1998.05 0.
22.8773 -1574.22 0.
-24.6218 -1684.17 0.
-72.1207 -1794.11 0.
-64.7198 -1848.38 0.
-54.2287 -1823.31 0.
-43.7375 -1798.23 0.
-173.819 -1830.9 0.
-159.549 -1800.73 0.
-145.279 -1770.55 0.
-348.112 -1939.67 0.
-406.754 -2078.15 0.
-2395.8 -3043.06 0.
297.33 -1698.9 0.
397.574 -1466.19 0.
-428.73 -1683.13 0.
-451.56 -1736.19 0.
-474.391 -1789.26 0.
-446.392 -1792.12 0.
-433.408 -1763.81 0.
-420.425 -1735.5 0.
-32.4331 -1667.39 0.
-114.344 -1860.14 0.
-196.254 -2052.89 0.
80.8666 -1794.92 0.
167.586 -1589.96 0.
66.6697 -1503.58 0.
-14.0127 -1692.14 0.
-94.6951 -1880.71 0.
-150.946 -1975.97 0.
-108.921 -1876.79 0.
-66.8953 -1777.61 0.
-104.716 -1774.83 0.
-119.556 -1809.39 0.
-134.395 -1843.96 0.
-89.6342 -1897.93 0.
-134.413 -2001.21 0.
87.0174 -1992.06 0.
-212.26 -2078.1 0.
-189.406 -2026.15 0.
-290.714 -1992 0.
-187.919 -1750.98 0.
-85.1236 -1509.96 0.
149.323 -1325.7 0.
118.582 -1393.18 0.
87.8412 -1460.66 0.
-174.071 -1573.47 0.
-160.481 -1541.7 0.
-146.891 -1509.94 0.
69.5024 -1497.23 0.
20.96 -1608.24 0.
-171.943 -1728.34 0.
-32.9842 -1404.33 0.
105.975 -1080.31 0.
-16.5247 -925.291 0.
51.535 -770.764 0.
119.595 -616.237 0.
25.2419 -646.905 0.
-14.6395 -742.988 0.
-54.5208 -839.071 0.
-11.409 -567.865 0.
160.376 -165.53 0.
-284.779 -1058.39 0.
-250.524 -1164.93 0.
-288.669 -1254.45 0.
-223.766 -1281.62 0.
-207.878 -1247.39 0.
-191.991 -1213.16 0.
118.893 -1114.72 0.
55.5856 -1261.38 0.
-7.72188 -1408.03 0.
-133.511 -1417.1 0.
-63.1319 -1252.44 0.
7.24682 -1087.78 0.
345.891 -1069.85 0.
256.433 -1279.48 0.
186.586 -1467.02 0.
183.733 -1472.33 0.
180.881 -1477.63 0.
76.456 -1466.77 0.
173.391 -1238.87 0.
270.326 -1010.97 0.
-43.97 -1223.08 0.
-203.906 -1596 0.
-363.842 -1968.92 0.
73.1662 -1651.52 0.
215.078 -1320.75 0.
393.879 -973.998 0.
-593.307 -1711.68 0.
-763.699 -2110.57 0.
-71.7631 -2035.15 0.
44.5659 -1760.75 0.
160.894 -1486.35 0.
48.4577 -1473.52 0.
-33.6284 -1664.2 0.
-115.714 -1854.88 0.
-217.591 -1894.22 0.
-169.356 -1782.07 0.
-121.12 -1669.92 0.
-514.353 -1883.18 0.
-548.634 -1964.45 0.
-130.942 -1848.94 0.
-133.193 -1857.39 0.
-135.445 -1865.84 0.
-93.3583 -1785.36 0.
7.1637 -1549.83 0.
107.686 -1314.31 0.
-22.3323 -1421.64 0.
-150.958 -1720.44 0.
-279.584 -2019.23 0.
-359.859 -1962.5 0.
-259.176 -1726.58 0.
-3724.35 -3019.41 0.
446.015 -1252.33 0.
436.204 -1276.25 0.
-478.041 -1706.38 0.
-537.002 -1846.48 0.
-595.963 -1986.58 0.
-429.62 -1959.39 0.
-413.575 -1917.7 0.
-397.53 -1876.01 0.
-26.3238 -1665.12 0.
0.962125 -1598.02 0.
28.2479 -1530.93 0.
24.0194 -1735.57 0.
-98.1772 -2019.66 0.
-301.198 -2271.3 0.
-138.547 -1889.49 0.
24.1027 -1507.69 0.
31.326 -1324.45 0.
-6.6302 -1411.52 0.
-44.5862 -1498.59 0.
51.8332 -1496.8 0.
40.4673 -1523.86 0.
29.1013 -1550.91 0.
98.467 -1521.31 0.
104.573 -1511.81 0.
274.331 -1434.12 0.
-8.27519 -1416.2 0.
64.9095 -1245.83 0.
-13.9175 -1201.48 0.
-87.2112 -1369.9 0.
-160.505 -1538.32 0.
118.187 -1457.01 0.
160.503 -1361.16 0.
202.819 -1265.31 0.
-118.53 -1470.85 0.
-190.004 -1639.11 0.
-261.479 -1807.37 0.
43.706 -1478.99 0.
168.176 -1191.68 0.
185.189 -966.524 0.
216.733 -895.415 0.
248.277 -824.306 0.
28.9419 -883.732 0.
31.9094 -878.126 0.
34.8772 -872.52 0.
-146.39 -971.322 0.
-167.487 -1017.08 0.
-188.583 -1062.84 0.
-228.098 -1150.39 0.
-269.785 -1249.49 0.
-756.392 -1231.74 0.
-80.5188 -1061.03 0.
-118.932 -1150.56 0.
-148.954 -1218.79 0.
-133.636 -1184.22 0.
-118.317 -1149.66 0.
117.727 -1083.01 0.
54.5355 -1229.96 0.
-8.65604 -1376.91 0.
-93.8964 -1369.16 0.
-23.7503 -1204.38 0.
46.3957 -1039.6 0.
186.493 -1107.77 0.
96.8131 -1317.04 0.
179.752 -1438.52 0.
176.641 -1443.66 0.
173.53 -1448.79 0.
-19.7615 -1476.64 0.
77.3211 -1248.99 0.
174.404 -1021.34 0.
143.845 -1112.38 0.
-16.3707 -1485.07 0.
-176.586 -1857.76 0.
-55.9133 -1675.37 0.
85.832 -1344.61 0.
-53.9513 -1134.42 0.
-311.627 -1560.14 0.
-481.659 -1959.58 0.
-226.075 -2069.07 0.
-109.843 -1794.88 0.
6.38858 -1520.7 0.
-93.3882 -1501 0.
-175.63 -1691.77 0.
-257.872 -1882.54 0.
-222.781 -1865.28 0.
-174.969 -1753.17 0.
-127.157 -1641.05 0.
-255.599 -1741.38 0.
-289.434 -1822.64 0.
-146.27 -1824.58 0.
-148.963 -1832.47 0.
-151.655 -1840.37 0.
-323.192 -1853.28 0.
-222.706 -1617.96 0.
-122.22 -1382.64 0.
-38.2511 -1396.58 0.
-166.633 -1695.8 0.
-295.015 -1995.01 0.
-282.549 -1896.69 0.
-181.298 -1661.35 0.
670.248 -1104.33 0.
355.823 -1258.92 0.
346.076 -1282.96 0.
-327.421 -1611.17 0.
-386.884 -1750.7 0.
-446.347 -1890.24 0.
-321.862 -1882.64 0.
-305.977 -1840.67 0.
-290.093 -1798.7 0.
10.197 -1619.89 0.
37.2561 -1552.42 0.
64.3149 -1484.96 0.
-161.52 -1782.6 0.
-283.936 -2066.59 0.
-327.436 -2251.77 0.
-164.305 -1870.31 0.
-1.17473 -1488.86 0.
-84.2213 -1341.35 0.
-121.99 -1428.68 0.
-159.758 -1516 0.
55.5022 -1464.98 0.
44.1667 -1492.02 0.
32.831 -1519.06 0.
114.07 -1482.99 0.
119.752 -1473.14 0.
202.766 -1432.67 0.
-102.539 -1425.13 0.
-29.3043 -1255.3 0.
73.1023 -1133.35 0.
0.133629 -1301.86 0.
-72.8349 -1470.38 0.
20.985 -1467.01 0.
63.0743 -1371.07 0.
105.164 -1275.14 0.
-105.947 -1434.83 0.
-177.666 -1603.05 0.
-249.385 -1771.28 0.
88.8232 -1428.86 0.
213.007 -1141.14 0.
125.926 -961.942 0.
157.735 -890.927 0.
189.544 -819.912 0.
105.529 -819.061 0.
109.099 -814.078 0.
112.669 -809.096 0.
-263.067 -990.201 0.
-284.055 -1036.12 0.
-305.044 -1082.04 0.
-251.751 -1128.76 0.
-293.679 -1228.46 0.
-453.948 391.553 0.
402.929 -215.732 0.
235.794 -608.324 0.
334.937 -205.132 0.
97.8019 -759.107 0.
656.849 545.531 0.
604.473 89.9114 0.
571.63 11.6437 0.
1062.95 1155.95 0.
137.325 -872.56 0.
261.047 -585.851 0.
495.501 -40.2577 0.
171.576 -805.875 0.
461.935 -127.586 0.
1033.26 600.974 0.
619.618 -365.359 0.
861.541 198.2 0.
485.804 -81.8879 0.
600.584 184.836 0.
329.409 -448.869 0.
637.16 -290.036 0.
651.838 -255.976 0.
772.85 26.3978 0.
56.8301 -1145.94 0.
291.932 -598.726 0.
519.798 -230.224 0.
127.258 -1045.36 0.
587.761 26.5039 0.
450.288 -158.334 0.
321.753 -458.012 0.
3.40676 -1200.42 0.
381.282 -84.4532 0.
221.337 -460.958 0.
340.511 -186.117 0.
518.976 -85.4853 0.
219.934 -784.091 0.
445.148 -259.687 0.
488.898 -462.622 0.
530.419 -365.641 0.
484.946 -302.433 0.
435.261 -418.737 0.
-34.6226 -1515.78 0.
-35.4205 -708.839 0.
35.2731 -545.508 0.
493.75 522.605 0.
804.025 637.731 0.
283.688 -577.761 0.
627.457 222.78 0.
597.343 45.5748 0.
872.899 690.764 0.
-4336.27 -1843.8 0.
702.753 -249.066 0.
738.1 -165.838 0.
217.461 -596.682 0.
633.352 371.692 0.
370.518 -243.301 0.
340.821 -507.391 0.
681.65 285.61 0.
342.401 -507.767 0.
468.489 -576.263 0.
738.914 51.8615 0.
654.953 -147.21 0.
158.744 -646.661 0.
177.868 -603.911 0.
420.952 -424.942 0.
620.709 39.7277 0.
401.223 -473.661 0.
54.7124 -764.648 0.
72.612 -722.547 0.
172.389 -489.402 0.
466.085 -486.983 0.
353.512 -748.274 0.
536.655 -319.299 0.
583.464 -392.907 0.
319.736 -1007.56 0.
509.523 -272.206 0.
143.362 -643.476 0.
705.432 672.182 0.
587.121 -65.6843 0.
248.669 -855.301 0.
135.158 -1120.36 0.
614.228 119.68 0.
607.754 105.913 0.
416.624 -338.205 0.
377.603 -297.469 0.
363.724 -328.867 0.
497.676 -15.5949 0.
171.95 -1291.79 0.
159.742 -1317.85 0.
828.138 810.987 0.
581.479 239.721 0.
45.5835 -1006.66 0.
537.602 53.949 0.
793.102 653.251 0.
606.649 222.096 0.
-310.062 -843.148 0.
-109.365 -376.423 0.
502.957 1051.66 0.
468.277 621.434 0.
446.203 573.127 0.
-867.646 -1255.43 0.
48.4422 -869.482 0.
20.7558 -935.17 0.
-9.12638 -1043.71 0.
-144.446 -1359.47 0.
-279.765 -1675.22 0.
-135.165 -1632.54 0.
25.3938 -1259.11 0.
185.953 -885.676 0.
-41.4461 -1055.45 0.
-187.631 -1398 0.
-333.816 -1740.54 0.
-105.607 -1616.39 0.
-66.1805 -1524.75 0.
113.677 -1377.74 0.
107.198 -1394.42 0.
100.719 -1411.1 0.
-152.869 -1553.09 0.
-192.314 -1646.73 0.
-231.759 -1740.38 0.
21.8333 -1624.78 0.
61.7032 -1533.54 0.
101.573 -1442.3 0.
-1.71325 -1497.47 0.
-21.134 -1544.87 0.
500.178 -1360.68 0.
-55.761 -1576.35 0.
-40.0791 -1540.48 0.
-282.304 -1605.04 0.
-251.371 -1534.12 0.
-220.438 -1463.21 0.
-86.1966 -1397.11 0.
-115.336 -1468.24 0.
-144.475 -1539.37 0.
-205.154 -1597.62 0.
-214.718 -1622.42 0.
-224.281 -1647.23 0.
-342.237 -1888.75 0.
-451.923 -2144.63 0.
-463.031 -2300.45 0.
-269.296 -1849.63 0.
-75.56 -1398.82 0.
-29.5074 -1199.24 0.
-135.892 -1448.24 0.
-242.277 -1697.24 0.
-420.05 -1791.97 0.
-350.689 -1632.75 0.
-281.328 -1473.53 0.
-4.4302 -1454.16 0.
-92.0723 -1658.15 0.
-1155.12 -2281.28 0.
82.6824 -1715.93 0.
100.381 -1673.86 0.
-350.023 -1809.61 0.
-281.482 -1649.46 0.
-212.941 -1489.31 0.
-51.4721 -1387.06 0.
-92.4975 -1482.45 0.
-133.523 -1577.83 0.
-105.709 -1544.63 0.
-70.1227 -1463.98 0.
-34.5353 -1383.33 0.
-232.363 -1506.67 0.
-257.648 -1567 0.
-172.737 -1569.96 0.
-161.93 -1545.81 0.
-151.123 -1521.67 0.
-251.304 -1600.97 0.
-325.667 -1772.87 0.
-400.031 -1944.76 0.
-74.1638 -1783 0.
4.16272 -1598.98 0.
82.4895 -1414.96 0.
110.946 -1507.51 0.
19.9115 -1718.11 0.
-106.531 -1937.58 0.
-419.862 -2043.19 0.
-407.239 -2009.12 0.
-141.221 -1812.48 0.
-4.88131 -1495.6 0.
131.458 -1178.71 0.
20.5861 -1110.48 0.
-5.30859 -1168.08 0.
-31.2031 -1225.68 0.
18.9664 -1232.55 0.
7.89645 -1257.29 0.
-3.17342 -1282.04 0.
215.776 -1231.01 0.
186.934 -1295.09 0.
-143.471 -1461.88 0.
-41.6543 -1220.48 0.
60.1629 -979.08 0.
-8.12925 -928.147 0.
-81.3101 -1095.68 0.
-154.49 -1263.21 0.
-423.495 -1321.93 0.
-317.79 -1075.99 0.
-212.085 -830.055 0.
-73.3246 -915.735 0.
-191.401 -1189.89 0.
-493.307 -1063.91 0.
-26.2658 -870.722 0.
-54.3296 -936.318 0.
26.2777 -996.977 0.
-109.329 -1312.47 0.
-244.935 -1627.96 0.
-121.029 -1595.35 0.
39.386 -1221.85 0.
199.801 -848.356 0.
-148.2 -1070.23 0.
-294.452 -1412.9 0.
-440.704 -1755.56 0.
-3.46532 -1541.21 0.
35.9618 -1449.78 0.
43.3853 -1375.5 0.
36.8244 -1392.08 0.
30.2637 -1408.66 0.
-146.149 -1518.62 0.
-185.719 -1611.84 0.
-225.289 -1705.06 0.
-14.7214 -1610.05 0.
24.999 -1518.94 0.
64.7192 -1427.83 0.
129.89 -1409.44 0.
110.291 -1457.17 0.
-472.682 -1746.67 0.
15.5751 -1513.56 0.
31.1508 -1478.11 0.
-401.329 -1625.92 0.
-370.499 -1555.1 0.
-339.668 -1484.28 0.
49.3365 -1305.98 0.
20.6372 -1377.49 0.
-8.06199 -1449.01 0.
-280.555 -1596.71 0.
-290.403 -1621.35 0.
-300.251 -1646 0.
-595.611 -1967.52 0.
-705.371 -2223.19 0.
-559.406 -2310.24 0.
-365.284 -1859.68 0.
-171.163 -1409.13 0.
250.283 -1047.02 0.
143.8 -1296.1 0.
37.3158 -1545.18 0.
-628.831 -1850.85 0.
-559.817 -1691.3 0.
-490.802 -1531.76 0.
64.2332 -1393.17 0.
-23.3274 -1597.15 0.
-30.575 -1767.31 0.
110.914 -1672.29 0.
129.031 -1630.41 0.
-393.18 -1796.48 0.
-324.709 -1636.73 0.
-256.238 -1476.99 0.
-53.583 -1355.51 0.
-94.5219 -1451.23 0.
-135.461 -1546.95 0.
-285.737 -1590.21 0.
-250.148 -1509.56 0.
-214.558 -1428.91 0.
-244.526 -1480.57 0.
-269.866 -1541.11 0.
-281.211 -1584.44 0.
-269.857 -1560.81 0.
-258.501 -1537.19 0.
-174.306 -1536.08 0.
-248.671 -1708.08 0.
-323.035 -1880.08 0.
-38.9984 -1737.61 0.
39.7084 -1553.83 0.
118.415 -1370.05 0.
132.673 -1467.01 0.
41.9437 -1678.02 0.
-49.3148 -1880.06 0.
-359.495 -1985.29 0.
-346.317 -1951.92 0.
-99.9002 -1763.9 0.
36.4447 -1446.85 0.
172.79 -1129.79 0.
-46.0405 -1107.72 0.
-71.6652 -1165.46 0.
-97.2897 -1223.2 0.
86.7736 -1172.19 0.
75.8244 -1197.05 0.
64.8752 -1221.91 0.
253.269 -1183.88 0.
224.632 -1248.12 0.
-124.816 -1422.93 0.
-22.6021 -1181.66 0.
79.612 -940.381 0.
-143.469 -953.319 0.
-216.39 -1121.11 0.
-289.31 -1288.89 0.
-295.877 -1236.5 0.
-190.159 -990.807 0.
-84.4415 -745.109 0.
87.4283 -814.625 0.
-30.3375 -1089.83 0.
-114.445 -847.091 0.
-214.149 -1109.89 0.
-296.908 -1302.43 0.
-93.5305 -1307.11 0.
-9.33535 -1110.36 0.
74.8597 -913.612 0.
182.725 -836.761 0.
107.556 -1011.15 0.
32.3861 -1185.53 0.
-296.415 -1363.37 0.
-284.038 -1333.74 0.
-271.661 -1304.11 0.
124.886 -1254.57 0.
51.2093 -1426.33 0.
-114.66 -1604.14 0.
-29.2577 -1401.77 0.
56.1449 -1199.41 0.
-30.4113 -1135.26 0.
-47.706 -1173.39 0.
-65.0008 -1211.52 0.
157.108 -1180.07 0.
108.871 -1291.41 0.
60.633 -1402.75 0.
117.35 -1352.13 0.
152.033 -1271.1 0.
63.6712 -1242.42 0.
175.449 -1201.28 0.
164.805 -1224.02 0.
-339.961 -1470.52 0.
-360.534 -1518.15 0.
-381.106 -1565.77 0.
3.00429 -1388.12 0.
46.6063 -1283.75 0.
90.2086 -1179.39 0.
-197.644 -1347.6 0.
-254.718 -1481.56 0.
-311.792 -1615.52 0.
-454.411 -1539.61 0.
-368.115 -1337.66 0.
-145.037 -1104.57 0.
-196.938 -1225.35 0.
-248.839 -1346.13 0.
293.496 -1164.15 0.
320.902 -1100.34 0.
348.308 -1036.53 0.
-421.183 -1337.43 0.
-412.887 -1317.3 0.
-404.591 -1297.18 0.
185.836 -1020.83 0.
202.101 -983.506 0.
-2331.66 -2038.23 0.
384.097 -1085.51 0.
272.748 -1344.42 0.
-432.624 -1798.87 0.
-409.302 -1745.96 0.
-385.979 -1693.06 0.
-245.491 -1581.31 0.
-211.797 -1501.8 0.
-178.104 -1422.29 0.
-288.667 -1403.84 0.
-255.719 -1326.87 0.
-222.771 -1249.9 0.
-122.72 -1243.28 0.
-147.973 -1299.28 0.
-217.283 -1376.91 0.
-247.667 -1446.17 0.
-278.051 -1515.44 0.
-183.523 -1509.83 0.
-175.882 -1492.54 0.
-168.242 -1475.25 0.
80.3734 -1377.26 0.
59.9222 -1423.95 0.
39.471 -1470.64 0.
258.021 -1250.29 0.
344.31 -1048.57 0.
156.408 -981.083 0.
-26.8811 -1220.76 0.
-110.392 -1417.76 0.
-1.10079 -1483.27 0.
4.02319 -1469.27 0.
9.14708 -1455.26 0.
-183.374 -1468.08 0.
-104.099 -1281.96 0.
-24.8238 -1095.85 0.
135.433 -976.807 0.
132.78 -983.472 0.
130.126 -990.137 0.
337.872 -930.695 0.
326.351 -959.494 0.
20.4819 -1110.5 0.
7.46163 -1142.67 0.
-5.55826 -1174.85 0.
-293.863 -1280.21 0.
-233.869 -1143.24 0.
-173.876 -1006.27 0.
-123.442 -1025.74 0.
-204.55 -1214.93 0.
-285.658 -1404.11 0.
-60.4084 -1092.18 0.
102.96 -714.961 0.
234.142 -670.5 0.
-315.402 -1122.59 0.
-398.303 -1314.84 0.
-54.7717 -1259.11 0.
29.5215 -1062.31 0.
113.815 -865.51 0.
151.847 -817.175 0.
77.1657 -991.96 0.
2.48395 -1166.75 0.
-215.883 -1298.4 0.
-203.38 -1268.92 0.
-190.877 -1239.45 0.
70.1374 -1244.75 0.
-3.40435 -1416.87 0.
-156.011 -1590.1 0.
-71.0713 -1387.58 0.
13.8683 -1185.06 0.
-124.191 -1144.39 0.
-141.121 -1182.75 0.
-158.051 -1221.11 0.
197.831 -1130.71 0.
149.656 -1242.09 0.
101.48 -1353.47 0.
-61.5414 -1396.27 0.
-26.6686 -1315.6 0.
86.7214 -1201.15 0.
202.538 -1158.45 0.
192.037 -1181.21 0.
-203.619 -1380.45 0.
-223.991 -1428.14 0.
-244.363 -1475.82 0.
-139.533 -1418.55 0.
-95.8132 -1314.31 0.
-52.0936 -1210.07 0.
-150.003 -1294.53 0.
-206.935 -1428.49 0.
-263.867 -1562.45 0.
-276.095 -1432.93 0.
-189.83 -1230.58 0.
-263.05 -1124.39 0.
-315.036 -1244.81 0.
-367.022 -1365.24 0.
274.434 -1141.78 0.
301.869 -1077.8 0.
329.305 -1013.81 0.
-205.051 -1212.04 0.
-196.055 -1192.45 0.
-187.058 -1172.86 0.
47.3753 -1048.28 0.
63.7932 -1011.05 0.
-1832.77 -1792.67 0.
445.319 -1027.11 0.
333.582 -1285.8 0.
-450.901 -1776.09 0.
-427.457 -1722.96 0.
-404.012 -1669.82 0.
-442.341 -1635.58 0.
-408.54 -1555.99 0.
-374.74 -1476.4 0.
-277.022 -1367.66 0.
-243.61 -1291.14 0.
-210.198 -1214.63 0.
-28.9914 -1171.11 0.
-54.385 -1227.18 0.
-146.922 -1314.09 0.
-176.845 -1383.76 0.
-206.768 -1453.42 0.
-281.894 -1520.2 0.
-274.132 -1503.19 0.
-266.369 -1486.18 0.
-6.25705 -1382.93 0.
-26.5853 -1429.56 0.
-46.9134 -1476.18 0.
344.541 -1182.96 0.
430.686 -981.086 0.
-186.277 -1094.96 0.
-34.7885 -1191.07 0.
-118.639 -1388.1 0.
-63.7863 -1479.39 0.
-58.6534 -1465.53 0.
-53.5207 -1451.66 0.
-35.0659 -1373.01 0.
44.2025 -1187.04 0.
123.471 -1001.06 0.
11.5924 -997.813 0.
9.31174 -1004.92 0.
7.03108 -1012.02 0.
276.46 -926.511 0.
265.145 -955.57 0.
66.3378 -1058.91 0.
53.8003 -1091.11 0.
41.2633 -1123.31 0.
-141.682 -1183.24 0.
-81.6313 -1046.22 0.
-21.5801 -909.192 0.
-18.2579 -949.452 0.
-99.4537 -1138.64 0.
-180.65 -1327.83 0.
-244.05 -1140.82 0.
-80.9234 -764.366 0.
840.567 134.138 0.
144.013 172.576 0.
-315.485 -900.109 0.
576.504 168.947 0.
160.492 -802.06 0.
366.307 -321.672 0.
388 -176.001 0.
810.282 810.839 0.
528.441 154.54 0.
310.764 -197.356 0.
671.167 643.554 0.
340.287 -127.749 0.
463.502 -191.411 0.
790.868 573.597 0.
855.528 891.447 0.
408.365 -155.388 0.
287.806 -439.581 0.
-119.684 -927.242 0.
100.582 -412.734 0.
93.6772 -428.256 0.
400.162 -697.493 0.
684.739 -32.4707 0.
962.068 615.556 0.
259.953 -288.374 0.
730.975 809.911 0.
751.481 -92.6974 0.
557.261 -352.929 0.
815.103 250.018 0.
171.954 -745.141 0.
862.071 867.149 0.
831.46 798.04 0.
171.114 -382.592 0.
504.065 394.68 0.
476.428 330.808 0.
215.453 -504.229 0.
239.001 -448.421 0.
464.769 79.054 0.
412.741 -128.394 0.
225.032 -567.883 0.
-242.074 -822.403 0.
-106.95 -503.524 0.
-94.692 -471.183 0.
554.652 -423.869 0.
724.265 -28.0014 0.
658.929 -180.422 0.
414.073 -150.421 0.
378.802 -232.081 0.
709.249 539.317 0.
477.476 250.276 0.
365.87 -10.6934 0.
-2189.82 -1908.62 0.
1019.93 226.888 0.
740.738 -425.101 0.
-191.474 -1106.25 0.
46.3267 -551.448 0.
66.7733 -503.9 0.
-68.9888 -361.647 0.
348.022 612.575 0.
94.8885 23.1986 0.
353.687 105.045 0.
114.485 -454.006 0.
561.8 588.722 0.
475.78 -136.418 0.
461.583 -171.899 0.
461.937 -4.493 0.
298.346 -381.68 0.
551.029 212.34 0.
282.599 9.81639 0.
578.506 702.254 0.
75.7868 -468.572 0.
-25.7934 -1239.66 0.
394.822 -253.798 0.
805.572 709.115 0.
731.969 -422.201 0.
428.324 -1132.4 0.
-251.478 84.2714 0.
496.253 94.5527 0.
547.969 213.891 0.
772.602 629.873 0.
114.267 -909.668 0.
336.965 -393.773 0.
167.654 -1154.73 0.
672.816 23.2513 0.
882.951 512.96 0.
196.79 -299.319 0.
222.025 -241.054 0.
110.704 -500.834 0.
705.611 215.473 0.
436.701 -412.509 0.
535.859 -28.3608 0.
630.076 193.699 0.
336.513 -489.403 0.
516.142 84.732 0.
791.648 728.206 0.
257.318 -518.31 0.
177.277 -656.314 0.
103.528 -827.503 0.
632.163 405.807 0.
47.1739 -104.384 0.
-144.112 -548.364 0.
160.584 -1015.93 0.
-260.995 -1118.38 0.
-240.547 -1071.26 0.
26.8926 -937.493 0.
-6.45416 -1016.92 0.
-39.8014 -1096.35 0.
-25.9447 -1129.57 0.
-28.164 -1133.37 0.
-30.3835 -1137.17 0.
-109.491 -1122.82 0.
-69.998 -1032.18 0.
-30.5052 -941.533 0.
188.803 -921.728 0.
141.253 -1032.22 0.
-91.786 -1220.13 0.
-111.952 -1272.43 0.
-132.117 -1324.72 0.
-263.052 -1387.35 0.
-232.094 -1314.84 0.
-201.135 -1242.33 0.
90.1018 -1149.39 0.
32.3699 -1283.69 0.
-25.3622 -1418 0.
-186.206 -1469.21 0.
-159.463 -1404.63 0.
281.377 -1162.7 0.
-34.8385 -1332.94 0.
-48.2978 -1365.07 0.
-177.489 -1428.44 0.
-159.107 -1386.37 0.
-140.726 -1344.3 0.
-70.7591 -1351.39 0.
-141.514 -1515.79 0.
-212.268 -1680.19 0.
-302.907 -1664.84 0.
-222.61 -1477.06 0.
-142.313 -1289.27 0.
-259.583 -1392.3 0.
-301.011 -1490.84 0.
-425.371 -1619.84 0.
-428.4 -1629.19 0.
-431.428 -1638.55 0.
-46.2871 -1497.04 0.
-74.8965 -1565.36 0.
-103.506 -1633.68 0.
-167.602 -1587.71 0.
-73.4529 -1369.45 0.
20.6964 -1151.2 0.
-247.128 -1335.96 0.
-319.43 -1505.33 0.
264.311 -1394.29 0.
105.113 -1333.42 0.
172.692 -1175.84 0.
-251.287 -1267.93 0.
-274.635 -1323.46 0.
-297.984 -1378.99 0.
-428.851 -1477.47 0.
-451.878 -1531.21 0.
-474.904 -1584.95 0.
-258.503 -1438.8 0.
-204.917 -1310.84 0.
-151.331 -1182.88 0.
-37.6522 -1126.13 0.
-40.0333 -1133.88 0.
-112.914 -1198.23 0.
-237.187 -1485.2 0.
-361.461 -1772.17 0.
-486.968 -1920.14 0.
-400.645 -1717 0.
-314.322 -1513.85 0.
9.034 -1328.49 0.
-13.0339 -1380.41 0.
-35.1017 -1432.33 0.
288.683 -1221.9 0.
345.96 -1090.18 0.
-382.448 -1287.74 0.
-46.8017 -1077.91 0.
-11.7325 -996.847 0.
92.8813 -948.164 0.
0.152192 -1169.45 0.
-92.5774 -1390.74 0.
-43.4724 -1442.88 0.
-18.026 -1384.7 0.
7.42095 -1326.53 0.
-251.524 -1334.5 0.
-180.203 -1167.65 0.
-108.881 -1000.8 0.
231.388 -855.618 0.
222.018 -877.347 0.
-14.7031 -994.789 0.
-13.3661 -989.661 0.
-12.0293 -984.534 0.
8.57313 -953.872 0.
37.1444 -885.896 0.
65.7156 -817.921 0.
152.435 -735.468 0.
172.356 -688.314 0.
192.278 -641.16 0.
-34.5777 -679.447 0.
-3.59557 -606.329 0.
-53.8785 -1080.09 0.
-62.8735 -1003.27 0.
-42.3156 -956 0.
-47.8993 -937.324 0.
-80.7717 -1017.09 0.
-113.645 -1096.85 0.
-16.5293 -1093.78 0.
-18.5107 -1097.63 0.
-20.4922 -1101.49 0.
-120.79 -1096.21 0.
-81.0683 -1005.82 0.
-41.3467 -915.427 0.
251.371 -862.998 0.
203.798 -973.765 0.
-120.84 -1200.86 0.
-141.66 -1252.54 0.
-162.48 -1304.22 0.
-179.455 -1320.74 0.
-148.565 -1248.1 0.
-117.675 -1175.45 0.
-36.8179 -1173.65 0.
-94.5688 -1307.89 0.
-152.32 -1442.12 0.
-96.1365 -1399.44 0.
-69.8331 -1334.43 0.
69.8763 -1220.92 0.
-230.481 -1387.77 0.
-243.726 -1420.31 0.
-228.586 -1417.44 0.
-209.66 -1376 0.
-190.735 -1334.55 0.
157.322 -1221.65 0.
86.7541 -1386.28 0.
16.1861 -1550.91 0.
-311.19 -1635.47 0.
-230.756 -1447.72 0.
-150.323 -1259.97 0.
-406.528 -1424.45 0.
-448.18 -1522.49 0.
-208.362 -1496.06 0.
-211.739 -1504.85 0.
-215.115 -1513.65 0.
-205.376 -1534.41 0.
-233.657 -1603.02 0.
-261.939 -1671.63 0.
-109.221 -1531.9 0.
-15.2208 -1313.55 0.
78.7796 -1095.21 0.
-281.594 -1320.29 0.
-354.088 -1489.47 0.
-700.079 -1775.41 0.
-181.324 -1424.42 0.
-113.512 -1267.08 0.
-223.646 -1224.67 0.
-246.589 -1280.68 0.
-269.533 -1336.69 0.
-266.853 -1376.88 0.
-290.029 -1430.35 0.
-313.205 -1483.81 0.
-183.362 -1375.71 0.
-129.644 -1247.94 0.
-75.9256 -1120.18 0.
-129.98 -1134.3 0.
-132.215 -1141.77 0.
-172.459 -1191.82 0.
-296.359 -1479.01 0.
-420.258 -1766.21 0.
-398.928 -1851.67 0.
-312.442 -1648.68 0.
-225.955 -1445.7 0.
116.582 -1250.26 0.
95.1442 -1302.79 0.
73.7064 -1355.31 0.
184.065 -1236.01 0.
241.461 -1104.76 0.
53.3955 -1069.13 0.
-80.8062 -1060.8 0.
-45.8117 -979.947 0.
103.381 -912.683 0.
10.521 -1133.94 0.
-82.3398 -1355.21 0.
-136.518 -1452.04 0.
-110.748 -1394.19 0.
-84.9778 -1336.33 0.
-242.645 -1299.42 0.
-170.837 -1133.23 0.
-99.028 -967.034 0.
228.356 -825.789 0.
218.861 -847.447 0.
-168.45 -1028.83 0.
-166.984 -1023.59 0.
-165.518 -1018.35 0.
-51.3969 -948.906 0.
-22.9889 -880.607 0.
5.41904 -812.308 0.
177.992 -694.336 0.
197.736 -647.22 0.
217.479 -600.103 0.
185.234 -552.58 0.
216.773 -480.004 0.
-9.07536 -658.894 0.
-7.93756 -825.965 0.
-62.5821 -951.603 0.
-149.635 -1050.61 0.
-102.266 -937.164 0.
-54.8969 -823.719 0.
133.05 -751.724 0.
55.1807 -933.377 0.
-22.6886 -1115.03 0.
-245.168 -1286.28 0.
-265.158 -1331.85 0.
-285.148 -1377.43 0.
186.207 -1091.39 0.
240.78 -964.117 0.
-57.1265 -1001.64 0.
-73.0263 -1036.33 0.
-88.9259 -1071.01 0.
-99.9098 -1166.66 0.
-219.413 -1444.17 0.
-338.917 -1721.67 0.
-363.777 -1669.88 0.
-204.196 -1298.47 0.
-44.6146 -927.065 0.
139.264 -856.175 0.
90.1951 -972.307 0.
144.436 -1043.11 0.
-167.966 -1134.84 0.
-152.294 -1094.03 0.
-42.4384 -1057.82 0.
-127.722 -1253.16 0.
-213.007 -1448.5 0.
123.593 -1317.12 0.
213.743 -1104.14 0.
303.892 -891.168 0.
-16.7536 -922.384 0.
24.5899 -827.11 0.
65.9335 -731.835 0.
-266.391 -962.709 0.
-326.135 -1102.09 0.
59.4483 -1047.14 0.
14.5306 -1151.13 0.
-30.3871 -1255.12 0.
-232.985 -1360.69 0.
-177.092 -1227.48 0.
-121.199 -1094.27 0.
114.971 -987.164 0.
78.6304 -1071.03 0.
42.2897 -1154.9 0.
-232.198 -1213.83 0.
-183.975 -1100.97 0.
-671.185 -1219.48 0.
-177.271 -1177.62 0.
-266.308 -1385.5 0.
-378.231 -1535.55 0.
-312.46 -1381.14 0.
-246.689 -1226.73 0.
-95.9118 -1042.27 0.
-31.9309 -895.7 0.
32.0502 -749.127 0.
21.0862 -910.129 0.
-132.353 -1268.15 0.
-285.792 -1626.16 0.
-418.302 -1704.98 0.
-412.453 -1691.17 0.
-374.535 -1643.54 0.
-277.311 -1416.03 0.
-180.088 -1188.51 0.
-17.277 -1019.83 0.
-54.984 -1108.8 0.
-92.6909 -1197.76 0.
172.558 -1094.67 0.
190.387 -1049.23 0.
208.216 -1003.79 0.
207.937 -932.164 0.
251.536 -831.515 0.
892.593 -477.845 0.
-35.2787 -952.773 0.
-76.5547 -1048.48 0.
16.1412 -1050.45 0.
41.2033 -986.198 0.
66.2655 -921.945 0.
7.42807 -957.55 0.
-35.8001 -1055.1 0.
-79.0283 -1152.65 0.
-185.95 -1123.48 0.
-107.291 -940.149 0.
-28.6314 -756.813 0.
309.338 -604.885 0.
306.093 -612.154 0.
-95.313 -802.647 0.
-145.42 -921.071 0.
-195.528 -1039.5 0.
-199.566 -1066.49 0.
-150.708 -952.784 0.
-101.851 -839.083 0.
111.778 -803.409 0.
24.3132 -1010.2 0.
-63.1523 -1216.99 0.
-42.8383 -1168.52 0.
10.4334 -1044.48 0.
-120.425 -674.37 0.
-226.447 -890.8 0.
-281.347 -1015.83 0.
-183.092 -1031.52 0.
-135.2 -918.36 0.
-87.3087 -805.2 0.
163.056 -708.364 0.
85.2438 -890.062 0.
7.43147 -1071.76 0.
-307.879 -1280.86 0.
-327.516 -1326.67 0.
-347.153 -1372.48 0.
245.08 -1035.11 0.
299.76 -908.133 0.
-56.7908 -968.571 0.
-72.6095 -1003.34 0.
-88.4281 -1038.11 0.
-118.566 -1144.06 0.
-238.278 -1421.34 0.
-357.99 -1698.61 0.
-496.888 -1695.44 0.
-337.152 -1324.29 0.
-177.415 -953.148 0.
96.8763 -841.435 0.
47.7569 -957.496 0.
-211.385 -1162.81 0.
-53.137 -1055.98 0.
-37.3045 -1015.18 0.
115.187 -957.582 0.
30.1785 -1153.29 0.
-54.8307 -1349 0.
-59.6008 -1363.72 0.
30.91 -1151.04 0.
121.42 -938.361 0.
3.20442 -881.546 0.
44.6758 -786.455 0.
86.1471 -691.364 0.
-225.166 -914.417 0.
-284.664 -1053.8 0.
52.3962 -1017.44 0.
7.79043 -1121.88 0.
-36.8154 -1226.31 0.
-298.89 -1358.64 0.
-242.642 -1225.88 0.
-186.393 -1093.12 0.
56.8877 -978.946 0.
20.8783 -1063.53 0.
-15.1312 -1148.11 0.
-162.738 -1152.51 0.
-114.49 -1039.84 0.
-432.882 -1085.71 0.
-94.6517 -1110.04 0.
-184.392 -1317.62 0.
-431.488 -1526.84 0.
-365.927 -1372.37 0.
-300.366 -1217.9 0.
-163.258 -1040.08 0.
-99.2752 -893.527 0.
-35.2925 -746.97 0.
-2.95532 -888.453 0.
-156.278 -1246.49 0.
-309.6 -1604.53 0.
-398.13 -1664.8 0.
-392.062 -1650.76 0.
-305.893 -1583.39 0.
-208.566 -1355.74 0.
-111.24 -1128.1 0.
-14.8389 -989.124 0.
-52.4551 -1078.04 0.
-90.0712 -1166.95 0.
61.4569 -1109.64 0.
79.5532 -1064.55 0.
97.6495 -1019.47 0.
92.0925 -950.454 0.
135.449 -849.748 0.
689.133 -532.255 0.
29.2788 -892.893 0.
-11.7373 -988.578 0.
-38.6188 -1043.6 0.
-12.8462 -980.182 0.
12.9266 -916.769 0.
-44.694 -948.147 0.
-87.8267 -1045.82 0.
-130.96 -1143.5 0.
-219.212 -1105.6 0.
-140.126 -922.693 0.
-61.0412 -739.783 0.
317.997 -569.247 0.
314.741 -576.343 0.
40.3673 -713.565 0.
-10.094 -831.136 0.
-60.5556 -948.706 0.
-344.156 -1098.42 0.
-295.772 -984.369 0.
-247.389 -870.314 0.
75.5617 -787.052 0.
-11.9975 -993.882 0.
-99.5571 -1200.71 0.
-125.991 -1173.55 0.
-72.7984 -1049.66 0.
-523.384 -1357.5 0.
-32.6811 15.6766 0.
-159.951 -283.386 0.
-65.5455 -668.408 0.
11.8702 -484.435 0.
83.5621 -314.142 0.
-94.1954 -1329.87 0.
409.259 -158.57 0.
194.181 -663.816 0.
109.155 -153.04 0.
-258.771 -1011.61 0.
-577.05 -1754.46 0.
474.904 -584.937 0.
714.561 -27.3311 0.
600.631 604.552 0.
519.552 415.326 0.
274.733 -156.066 0.
236.127 -243.909 0.
53.3275 -669.665 0.
262.267 -181.699 0.
72.9944 -74.3449 0.
78.8345 -61.8079 0.
-45.5598 -353.094 0.
301.087 -252.261 0.
357.444 -121.832 0.
120.501 -95.4043 0.
79.0321 -937.089 0.
444.795 -84.3984 0.
814.977 414.149 0.
440.177 -459.274 0.
468.389 -392.184 0.
189.506 -401.04 0.
386.232 57.0745 0.
847.61 1132.68 0.
620.563 550.125 0.
100.891 -662.179 0.
656.975 635.166 0.
-13.2927 -466.833 0.
-359.233 -1272.99 0.
225.254 -570.975 0.
216.82 -592.984 0.
335.488 -318.314 0.
138.958 -185.397 0.
306.502 205.36 0.
346.353 298.453 0.
513.434 231.694 0.
269.187 -339.307 0.
9.79512 -945.356 0.
238.897 -311.715 0.
423.365 118.463 0.
-395.859 -1181.27 0.
96.3399 -794.306 0.
198.208 -557.16 0.
150.017 -34.1 0.
59.117 -243.812 0.
349.518 436.393 0.
74.9294 -328.564 0.
222.541 17.9369 0.
486.462 635.978 0.
204.518 -322.731 0.
90.5533 -586.302 0.
213.678 -296.892 0.
79.2039 -565.19 0.
-90.0649 -958.9 0.
382.888 -75.4361 0.
120.888 -684.009 0.
22.2023 -911.761 0.
188.487 -492.056 0.
348.633 -118.453 0.
19.8773 -885.866 0.
131.244 -701.384 0.
70.7823 -839.531 0.
18.351 -959.747 0.
414.688 49.8621 0.
218.699 -405.453 0.
121.669 -760.663 0.
530.861 175.826 0.
336.836 -271.995 0.
880.294 1233.13 0.
468.608 274.282 0.
412.421 144.983 0.
69.4366 -546.349 0.
490.239 432.606 0.
238.906 -156.937 0.
104.116 -254.113 0.
183.334 -68.2639 0.
378.432 388.112 0.
505.828 -120.3 0.
229.94 -763.345 0.
421.484 -47.0164 0.
557.219 269.729 0.
471.663 69.5975 0.
-222.992 -510.44 0.
88.3065 218.034 0.
173.573 419.011 0.
386.856 35.0231 0.
2.30917 -863.102 0.
439.321 157.83 0.
45.8924 -580.136 0.
254.587 -94.1677 0.
-410.089 -1258.6 0.
-286.207 -843.863 0.
-136.378 -494.904 0.
304.361 -117.207 0.
217.649 -316.749 0.
130.938 -516.29 0.
-25.9843 -726.033 0.
-88.9629 -876.034 0.
-151.942 -1026.04 0.
-149.828 -1087.12 0.
-158.693 -1107.34 0.
-167.559 -1127.56 0.
132.164 -954.425 0.
154.497 -901.254 0.
-25.2532 -952.228 0.
-61.6007 -1039.05 0.
-97.948 -1125.88 0.
-147.202 -1169.07 0.
-112.333 -1087.56 0.
-77.4639 -1006.05 0.
-302.141 -1102.58 0.
-333.469 -1175.49 0.
-364.798 -1248.4 0.
-172.705 -1249.98 0.
-219.086 -1359.93 0.
17.4223 -1348.28 0.
-349.915 -1510.65 0.
-351.057 -1512.92 0.
21.327 -1335.24 0.
67.4005 -1228.88 0.
113.474 -1122.52 0.
-187.761 -1180.99 0.
-157.807 -1112.64 0.
-127.855 -1044.3 0.
32.9575 -1032.36 0.
-33.8852 -1184.87 0.
-100.728 -1337.38 0.
-382.249 -1423.18 0.
-352.813 -1354.38 0.
-246.423 -1260.83 0.
-244.53 -1258.29 0.
-242.638 -1255.76 0.
-307.024 -1259 0.
-269.095 -1171.51 0.
-231.166 -1084.03 0.
8.07718 -959.57 0.
-1.27306 -983.837 0.
-10.6234 -1008.1 0.
-136.707 -1129.1 0.
-178.542 -1225.65 0.
686.629 -933.144 0.
-95.3276 -1059.93 0.
13.8075 -805.359 0.
-213.622 -774.506 0.
-291.888 -956.003 0.
-370.154 -1137.5 0.
-228.87 -1151.1 0.
-220.874 -1132.11 0.
-212.878 -1113.12 0.
-126.225 -1051.89 0.
-110.617 -1014 0.
-95.0104 -976.122 0.
-272.37 -1094.27 0.
-300.378 -1159.83 0.
-212.576 -1176.93 0.
-240.855 -1242.7 0.
-269.135 -1308.47 0.
-58.8173 -1197.91 0.
27.3969 -995.164 0.
113.611 -792.418 0.
54.5295 -782.189 0.
20.3945 -859.819 0.
-13.7406 -937.449 0.
165.972 -940.712 0.
120.317 -1045.94 0.
578.426 -935.563 0.
-197.448 -1244.38 0.
-186.935 -1216.6 0.
-111.686 -1162.38 0.
-100.883 -1136.38 0.
-90.0799 -1110.37 0.
-218.213 -1157.26 0.
-220.078 -1162.68 0.
-221.943 -1168.11 0.
-233.636 -1258.7 0.
-299.209 -1412.12 0.
-364.782 -1565.53 0.
-164.174 -1385.32 0.
-100.935 -1238.26 0.
-93.8165 -1116.18 0.
-46.6797 -1007.07 0.
0.457199 -897.965 0.
-237.549 -931.059 0.
-220.691 -893.353 0.
-203.834 -855.647 0.
113.356 -630.477 0.
187.282 -456.643 0.
261.208 -282.809 0.
-19.1624 -393.369 0.
-38.5358 -436.768 0.
-307.243 -1186.17 0.
-129.581 -744.896 0.
20.1481 -395.831 0.
485.893 -8.06147 0.
399.282 -207.663 0.
312.671 -407.265 0.
-244.154 -787.137 0.
-307.007 -937.456 0.
-369.86 -1087.78 0.
39.0347 -975.282 0.
29.7951 -994.997 0.
20.5555 -1014.71 0.
-80.4282 -1015.16 0.
-58.177 -961.962 0.
41.9976 -892.42 0.
5.19336 -979.032 0.
-31.6106 -1065.64 0.
-113.09 -1123.43 0.
-78.3598 -1042.01 0.
-43.6293 -960.594 0.
-204.676 -1029.38 0.
-235.93 -1102.51 0.
-267.183 -1175.63 0.
-212.077 -1234.9 0.
-257.959 -1345.33 0.
416.868 -1146.29 0.
-559.248 -1568.24 0.
-559.975 -1570.73 0.
-15.7296 -1319.91 0.
30.1119 -1213.26 0.
75.9533 -1106.62 0.
-223.369 -1163.83 0.
-193.077 -1095.79 0.
-162.785 -1027.75 0.
159.454 -946.637 0.
93.0266 -1099.75 0.
26.5992 -1252.87 0.
-315.708 -1363.07 0.
-286.359 -1293.92 0.
-447.407 -1317.02 0.
-445.732 -1314.24 0.
-444.057 -1311.46 0.
-270.177 -1213.27 0.
-231.992 -1125.96 0.
-193.808 -1038.66 0.
27.6249 -919.519 0.
18.5329 -944.334 0.
9.44077 -969.148 0.
-149.774 -1101.73 0.
-191.39 -1198.63 0.
-484.156 -1402.41 0.
-172.553 -1060.92 0.
-63.7588 -806.176 0.
-253.964 -761.709 0.
-332.52 -943.116 0.
-411.077 -1124.52 0.
-148.399 -1085 0.
-140.503 -1066.05 0.
-132.606 -1047.1 0.
-133.417 -1023.92 0.
-117.915 -985.747 0.
-102.413 -947.577 0.
-409.845 -1122.4 0.
-438.042 -1187.62 0.
-347.279 -1203.34 0.
-375.174 -1269.25 0.
-403.069 -1335.15 0.
25.4462 -1130.53 0.
112 -928.134 0.
198.554 -725.74 0.
22.3516 -763.764 0.
-11.9208 -841.325 0.
-46.1934 -918.886 0.
400.71 -808.601 0.
355.417 -913.927 0.
1121.16 -671.092 0.
-327.649 -1268.91 0.
-316.464 -1241.64 0.
-51.9687 -1103.72 0.
-40.9277 -1077.93 0.
-29.887 -1052.14 0.
-233.369 -1133.47 0.
-235.687 -1138.38 0.
-238.006 -1143.29 0.
-100.005 -1169.32 0.
-165.463 -1322.77 0.
-230.92 -1476.23 0.
-302.019 -1412.57 0.
-238.523 -1265.51 0.
-150.379 -1108.38 0.
-103.182 -999.376 0.
-55.9857 -890.368 0.
-14.7035 -804.503 0.
1.91821 -766.694 0.
18.5396 -728.885 0.
143.96 -586.441 0.
217.683 -412.504 0.
291.406 -238.568 0.
-181.445 -431.019 0.
-201.592 -473.581 0.
-139.994 -751.161 0.
-105.185 -892.436 0.
-163.442 -1026.05 0.
28.0216 -1020.96 0.
41.586 -991.751 0.
55.1506 -962.542 0.
-424.332 -1123.37 0.
-377.217 -1013 0.
-330.102 -902.629 0.
126.961 -733.096 0.
75.9748 -853.741 0.
24.9878 -974.387 0.
-147.587 -1019.31 0.
-118.336 -951.442 0.
28.1261 -815.779 0.
129.681 -577.167 0.
231.236 -338.556 0.
227.618 -254.883 0.
154.133 -429.727 0.
80.6477 -604.571 0.
-89.4553 -784.46 0.
-127.887 -875.401 0.
-166.319 -966.343 0.
-42.4706 -921.805 0.
-38.2828 -908.606 0.
527.547 -653.96 0.
-324.513 -968.286 0.
-297.623 -908.148 0.
174.919 -687.255 0.
144.072 -759.628 0.
113.225 -832.001 0.
-193.271 -973.17 0.
-177.511 -933.334 0.
-161.751 -893.499 0.
188.581 -801.104 0.
140.414 -914.125 0.
92.2473 -1027.15 0.
-224.719 -1175.52 0.
-228.1 -1184.04 0.
-481.327 -1275.81 0.
-367.966 -1009.94 0.
-254.604 -744.063 0.
62.5997 -508.669 0.
-6.20729 -668.826 0.
-75.0142 -828.984 0.
-27.962 -969.173 0.
-122.965 -1188.82 0.
-217.968 -1408.47 0.
-216.77 -1178.64 0.
-33.8497 -750.032 0.
181.054 -307.892 0.
30.2809 -515.326 0.
-43.6797 -690.428 0.
-304.093 -884.533 0.
-228.406 -711.051 0.
-152.719 -537.568 0.
141.456 -399.938 0.
62.8589 -584.747 0.
-15.7382 -769.555 0.
-165.379 -908.641 0.
-185.872 -958.792 0.
-206.364 -1008.94 0.
-348.624 -1104.05 0.
-364.535 -1142.21 0.
-343.985 -1144.8 0.
-275.295 -981.957 0.
-206.604 -819.111 0.
215.36 -578.671 0.
164.722 -695.648 0.
114.085 -812.625 0.
-119.238 -996.02 0.
-156.295 -1084.53 0.
-193.351 -1173.05 0.
440.293 -809.349 0.
512.906 -639.106 0.
-237.098 -817.957 0.
-230.237 -989.103 0.
-321.918 -1201.99 0.
-157.102 -1231.37 0.
-70.6029 -1029.94 0.
15.8962 -828.506 0.
-78.3326 -798.114 0.
-106.571 -867.885 0.
-134.81 -937.656 0.
31.9828 -894.285 0.
27.0759 -903.406 0.
22.1689 -912.528 0.
-199.909 -983.087 0.
-189.528 -958.904 0.
-164.77 -921.161 0.
-106.707 -785.061 0.
-48.6447 -648.961 0.
161.695 -525.951 0.
101.965 -665.072 0.
42.2349 -804.193 0.
51.5588 -811.025 0.
81.984 -740.953 0.
112.409 -670.881 0.
-404.947 -885.305 0.
-401.232 -880.133 0.
-411.06 -838.913 0.
-27.4844 -827.858 0.
-85.1725 -961.991 0.
-168.581 -1073.38 0.
-154.957 -1044.33 0.
-141.333 -1015.27 0.
-261.378 -1019.61 0.
-213.852 -909.961 0.
-166.327 -800.314 0.
-73.865 -788.818 0.
-125.099 -909.453 0.
-176.333 -1030.09 0.
-52.567 -947.153 0.
-22.9077 -879.425 0.
-127.499 -851.307 0.
-26.5101 -612.477 0.
74.4786 -373.647 0.
146.964 -258.84 0.
72.9792 -433.251 0.
-1.00531 -607.661 0.
-128.388 -770.885 0.
-166.88 -861.959 0.
-205.372 -953.033 0.
113.115 -823.241 0.
117.248 -810.132 0.
64.7792 -820.252 0.
-124.685 -850.794 0.
-97.9451 -790.405 0.
41.7369 -712.809 0.
11.1919 -785.335 0.
-19.3533 -857.86 0.
-252.5 -968.157 0.
-236.686 -928.61 0.
-220.872 -889.064 0.
8.53266 -845.748 0.
-39.7175 -958.696 0.
-87.9677 -1071.64 0.
-237.484 -1151.2 0.
-241.102 -1159.18 0.
-375.206 -1198.75 0.
-261.015 -933.448 0.
-146.823 -668.146 0.
126.341 -450.103 0.
57.667 -610.543 0.
-11.007 -770.984 0.
-96.749 -966.703 0.
-191.191 -1187.09 0.
-285.632 -1407.47 0.
-256.434 -1163.78 0.
-73.4665 -735.15 0.
180.357 -276.233 0.
62.8625 -470 0.
-10.9703 -645.047 0.
-218.669 -816.937 0.
-143.575 -642.912 0.
-68.4804 -468.887 0.
79.6355 -395.578 0.
0.864069 -580.438 0.
-77.9075 -765.299 0.
-327.034 -947.684 0.
-347.75 -997.563 0.
-368.466 -1047.44 0.
-37.2101 -938.684 0.
-53.1308 -977.046 0.
-234.742 -1067.3 0.
-166.223 -904.187 0.
-97.7033 -741.069 0.
33.9049 -625.896 0.
-16.9121 -742.448 0.
-67.7293 -859 0.
-155.149 -980.59 0.
-192.227 -1068.83 0.
-229.306 -1157.06 0.
336.295 -822.461 0.
408.674 -652.136 0.
-440.091 -873.694 0.
-114.305 -908.156 0.
-205.814 -1121.21 0.
-310.099 -1266.2 0.
-224.146 -1064.04 0.
-138.192 -861.892 0.
6.41666 -730.378 0.
-22.0279 -799.872 0.
-50.4725 -869.366 0.
-34.2981 -890.81 0.
-39.5019 -899.694 0.
-44.7059 -908.579 0.
-225.664 -964.09 0.
-215.632 -939.628 0.
-302.29 -948.061 0.
-243.839 -812.405 0.
-185.388 -676.75 0.
108.71 -517.354 0.
48.4867 -655.893 0.
-11.7364 -794.432 0.
64.5654 -775.317 0.
95.0515 -705.123 0.
125.538 -634.929 0.
-282.453 -800.617 0.
-278.796 -795.04 0.
334.425 29.2949 0.
249.981 -282.598 0.
-278.861 -1516.49 0.
-291.34 -961.254 0.
259.436 324.021 0.
144.899 56.8464 0.
93.8549 -470.213 0.
-78.394 -871.764 0.
235.285 -139.545 0.
188.267 239.624 0.
155.564 163.866 0.
-60.4695 -339.819 0.
168.517 -595.746 0.
-1.72938 -994.331 0.
137.958 101.957 0.
98.7923 11.3329 0.
-108.543 -470.962 0.
144.521 -79.9773 0.
485.755 717.719 0.
112.921 -150.648 0.
-105.78 -618.962 0.
161.928 4.11596 0.
272.82 261.155 0.
221.424 -838.076 0.
574.974 -11.2192 0.
1089.77 363.951 0.
608.999 516.267 0.
220.37 -388.646 0.
141.548 -200.471 0.
348.817 282.247 0.
281.883 125.322 0.
56.6349 -100.19 0.
-121.793 -517.328 0.
-142.116 -565.404 0.
106.368 -246.282 0.
74.2752 -319.731 0.
-116.29 -763.035 0.
156.04 -183.782 0.
179.637 -130.54 0.
181.195 -78.6834 0.
-156.864 -867.758 0.
-248.725 -1082.45 0.
114.698 -572.152 0.
436.373 179.099 0.
343.686 -36.4065 0.
309.907 149.296 0.
224.705 -47.6688 0.
275.93 73.6395 0.
299.924 232.985 0.
338.821 324.41 0.
-2007.29 -1158.11 0.
150.598 -287.357 0.
182.379 -216.172 0.
72.6397 -255.586 0.
258.245 175.438 0.
442.066 601.994 0.
156.709 -72.6 0.
-13.9769 -470.368 0.
194.168 16.0215 0.
136.399 471.689 0.
50.5854 271.722 0.
-239.614 -405.042 0.
380.906 -531.666 0.
605.099 -9.442 0.
-45.1161 -795.019 0.
71.3021 -522.895 0.
196.242 -230.975 0.
-107.479 -576.831 0.
-16.8018 -363.973 0.
70.3415 -159.113 0.
101.137 -284.984 0.
348.832 292.598 0.
218.657 -12.1299 0.
457.769 -315.043 0.
439.745 -356.213 0.
-26.9867 -777.723 0.
508.137 354.118 0.
382.05 60.4859 0.
-138.365 -542.048 0.
51.9656 -98.1708 0.
-29.3989 -288.248 0.
205.108 -398.28 0.
185.397 -439.314 0.
340.884 -70.7063 0.
147.455 -311.657 0.
115.084 -386.884 0.
-135.645 -971.585 0.
4.02192 -347.679 0.
408.378 598.959 0.
-240.672 -515.876 0.
392.714 962.882 0.
-76.2423 -131.905 0.
184.946 -204.497 0.
198.906 -172.248 0.
483.856 491.649 0.
424.497 69.7174 0.
402.239 19.1147 0.
211.889 -424.528 0.
665.41 1205.14 0.
48.928 -236.94 0.
-269.966 -861.189 0.
-100.387 -648.936 0.
-38.6198 -505.127 0.
5.42123 -426.881 0.
-49.9077 -557.184 0.
-105.237 -687.487 0.
-65.7409 -754.52 0.
-101.019 -834.503 0.
-136.297 -914.486 0.
-201.673 -867.38 0.
-117.589 -671.847 0.
-33.5044 -476.314 0.
97.2995 -450.177 0.
69.2843 -518.084 0.
-225.628 -706.684 0.
-276.454 -829.374 0.
-327.279 -952.064 0.
-131.515 -887.808 0.
-51.4698 -699.996 0.
28.5753 -512.184 0.
-42.0427 -486.938 0.
-60.4399 -530.452 0.
-78.837 -573.966 0.
249.993 -505.904 0.
211.66 -596.232 0.
192.327 -678.47 0.
34.8764 -923.371 0.
-58.1973 -1139.7 0.
-433.896 -1396.96 0.
-348.087 -1194.54 0.
-262.278 -992.121 0.
-46.4324 -830.826 0.
-65.1052 -876.479 0.
-83.7771 -922.131 0.
-359.415 -1011.36 0.
-330.753 -945.462 0.
-302.092 -879.563 0.
-167.705 -658.904 0.
-71.5745 -436.854 0.
38.4511 -255.31 0.
-81.7669 -534.101 0.
-201.985 -812.891 0.
-46.3782 -890.306 0.
-33.0645 -859.488 0.
-19.7508 -828.67 0.
-242.66 -855.888 0.
-189.802 -731.739 0.
-136.943 -607.591 0.
8.80408 -675.774 0.
-92.5845 -915.017 0.
1484.57 -436.32 0.
-325.839 -1012.31 0.
-221.308 -767.313 0.
-19.0011 -551.088 0.
-83.0428 -699.443 0.
-147.085 -847.797 0.
-257.919 -975.06 0.
-271.006 -1004.72 0.
-284.092 -1034.37 0.
-396.069 -1072.41 0.
-379.256 -1034.12 0.
-362.443 -995.838 0.
249.651 -658.954 0.
290.38 -563.966 0.
-4.65135 -615.265 0.
8.32645 -586.053 0.
21.3044 -556.842 0.
-107.125 -642.678 0.
-177.931 -807.669 0.
-248.738 -972.661 0.
-226.192 -944.546 0.
-157.825 -781.313 0.
-89.4582 -618.08 0.
217.451 -581.777 0.
130.995 -781.618 0.
155.585 -933.495 0.
-161.669 -943.314 0.
-95.3351 -787.43 0.
-53.5188 -695.317 0.
-109.615 -827.828 0.
-165.711 -960.339 0.
84.2444 -838.346 0.
172.713 -629.759 0.
261.181 -421.174 0.
-85.9817 -584.989 0.
-142.921 -721.388 0.
-199.86 -857.787 0.
-322.488 -813.972 0.
-257.55 -661.492 0.
-37.5602 -463.305 0.
-70.9972 -540.489 0.
-104.434 -617.673 0.
60.4897 -596.848 0.
52.3738 -617.897 0.
44.2578 -638.946 0.
-55.4018 -664.397 0.
-30.482 -607.31 0.
-5.56218 -550.224 0.
99.6334 -597.686 0.
31.186 -760.86 0.
-473.408 -919.428 0.
-320.988 -713.609 0.
-259.302 -569.819 0.
107.032 -351.067 0.
52.2241 -481.909 0.
-2.58463 -612.75 0.
-97.7315 -736.233 0.
-132.698 -816.324 0.
-167.665 -896.414 0.
-80.5298 -783.595 0.
3.5453 -587.965 0.
87.6207 -392.335 0.
-46.4968 -480.218 0.
-74.1754 -548.555 0.
-226.42 -674.351 0.
-277.181 -797.243 0.
-327.941 -920.136 0.
-25.4458 -810.175 0.
54.6187 -622.533 0.
134.683 -434.892 0.
-19.5057 -445.879 0.
-37.6997 -489.637 0.
-55.8936 -533.394 0.
127.704 -527.771 0.
89.3649 -617.782 0.
-372.019 -889.365 0.
100.021 -863.524 0.
7.38494 -1080.23 0.
-493.565 -1391.7 0.
-407.694 -1189.44 0.
-321.823 -987.186 0.
227.021 -682.082 0.
208.451 -727.549 0.
189.881 -773.015 0.
-509.92 -1044.6 0.
-481.001 -979.062 0.
-452.082 -913.52 0.
-296.213 -682.167 0.
-200.108 -460.124 0.
-30.6767 -253.002 0.
-150.331 -532.405 0.
-269.985 -811.807 0.
-60.0708 -864.438 0.
-46.3643 -834.093 0.
-32.6576 -803.748 0.
-381.608 -883.633 0.
-328.41 -759.991 0.
-275.213 -636.349 0.
147.171 -585.579 0.
45.9065 -824.814 0.
-611.369 -1301.84 0.
-513.414 -1060.08 0.
-408.485 -815.412 0.
34.4516 -497.903 0.
-29.6714 -646.214 0.
-93.7946 -794.524 0.
-271.503 -949.464 0.
-284.141 -979.402 0.
-296.778 -1009.34 0.
-219.669 -965.057 0.
-202.65 -926.808 0.
-185.631 -888.559 0.
168.21 -661.737 0.
209.21 -567 0.
-33.2463 -596.181 0.
-20.6555 -566.908 0.
-8.06457 -537.636 0.
-50.3148 -587.604 0.
-121.262 -752.422 0.
-192.209 -917.239 0.
-266.257 -930.687 0.
-198.31 -767.46 0.
-130.362 -604.234 0.
76.2997 -612.141 0.
-10.3585 -811.798 0.
635.533 -696.403 0.
-285.83 -963.587 0.
-219.692 -807.368 0.
148.264 -579.87 0.
92.0681 -711.877 0.
35.8723 -843.883 0.
182.931 -764.703 0.
272.155 -556.439 0.
361.379 -348.174 0.
-211.154 -608.094 0.
-268.07 -744.499 0.
-324.987 -880.904 0.
-458.71 -840.253 0.
-393.255 -688.236 0.
195.768 -330.372 0.
162.717 -407.867 0.
129.666 -485.362 0.
131.365 -535.936 0.
123.242 -556.96 0.
115.118 -577.984 0.
-239.556 -711.292 0.
-214.488 -654.575 0.
-189.42 -597.858 0.
368.898 -452.827 0.
300.954 -616.191 0.
-856.641 -690.909 0.
-352.734 -688.439 0.
-461.005 -941.636 0.
-99.8966 -931.626 0.
-54.4765 -823.372 0.
-9.05666 -715.117 0.
-96.0529 -661.619 0.
-45.5293 -545.827 0.
4.99438 -430.035 0.
69.5119 -362.506 0.
75.1759 -349.776 0.
80.8398 -337.046 0.
-69.0468 -457.198 0.
-102.895 -535.611 0.
-184.857 -622.971 0.
-162.91 -572.004 0.
-140.963 -521.036 0.
130.748 -424.765 0.
58.6652 -594.604 0.
-13.418 -764.444 0.
-263.493 -924.764 0.
-245.887 -885.567 0.
-228.28 -846.369 0.
50.1951 -802.725 0.
-9.13962 -943.642 0.
255.936 -944.291 0.
60.0305 -835.303 0.
162.034 -593.592 0.
-139.71 -598.784 0.
-217.333 -781.602 0.
-294.956 -964.419 0.
106.063 -848.696 0.
140.405 -767.805 0.
174.747 -686.915 0.
-475.019 -884.156 0.
-427.382 -772.321 0.
-379.745 -660.486 0.
-363.137 -728.183 0.
-413.085 -844.425 0.
-265.928 -846.566 0.
-186.093 -660.911 0.
-106.257 -475.256 0.
82.8847 -327.059 0.
32.003 -445.501 0.
-18.879 -563.944 0.
-312.371 -737.908 0.
-316.169 -746.335 0.
-319.967 -754.762 0.
123.381 -606.812 0.
98.9616 -664.95 0.
-1746.63 -1503.93 0.
-562.438 -952.445 0.
-539.842 -898.805 0.
5.21567 -596.307 0.
80.5618 -423.368 0.
155.908 -250.429 0.
33.5027 -319.252 0.
-78.5684 -581.07 0.
-190.639 -842.888 0.
-76.4196 -804.921 0.
-29.2651 -694.004 0.
17.8892 -583.088 0.
115.799 -509.584 0.
129.548 -475.645 0.
-57.1623 -541.702 0.
-94.441 -627.39 0.
-131.72 -713.078 0.
-65.5858 -721.337 0.
-49.0476 -682.551 0.
-32.5093 -643.766 0.
-220.816 -708.051 0.
-223.8 -719.565 0.
-226.783 -731.079 0.
-78.353 -746.261 0.
-126.989 -862.283 0.
532.179 -674.896 0.
-208.495 -863.301 0.
-138.746 -703.52 0.
225.267 -447.08 0.
220.27 -458.752 0.
215.274 -470.424 0.
234.236 -491.259 0.
205.749 -557.452 0.
177.262 -623.646 0.
-234.974 -661.891 0.
-114.955 -378.161 0.
5.06467 -94.4319 0.
-273.378 -313.909 0.
-346.126 -484.218 0.
285.027 -341.061 0.
265.385 -388.88 0.
245.742 -436.699 0.
153.912 -466.121 0.
206.637 -343.005 0.
259.363 -219.89 0.
-148.966 -327.481 0.
-125.607 -272.513 0.
-102.246 -217.544 0.
656.226 128.297 0.
664.769 149.921 0.
298.169 -164.579 0.
-210.151 -596.072 0.
-318.352 -849.543 0.
-79.7566 -891.232 0.
-34.1031 -783.164 0.
11.5501 -675.096 0.
-102.276 -632.358 0.
-51.8138 -516.418 0.
-1.35184 -400.479 0.
-90.4497 -399.89 0.
-84.6535 -387.35 0.
-78.8573 -374.809 0.
31.3457 -382.728 0.
-2.47312 -461.288 0.
-111.063 -559.543 0.
-89.1833 -508.557 0.
-67.3041 -457.57 0.
40.565 -431.73 0.
-31.2646 -601.921 0.
-103.094 -772.113 0.
-343.008 -925.296 0.
-325.173 -886.433 0.
-307.338 -847.569 0.
310.402 -659.7 0.
251.115 -800.658 0.
1062.61 -566.412 0.
-100.915 -872.909 0.
1.47202 -631.599 0.
-8.8955 -510.423 0.
-86.4616 -693.343 0.
-164.028 -876.263 0.
-266.886 -977.777 0.
-232.686 -896.961 0.
-198.486 -816.145 0.
-375.879 -810.587 0.
-328.08 -699.091 0.
-280.281 -587.596 0.
-315.114 -675.363 0.
-364.941 -791.811 0.
-111.466 -749.382 0.
-31.6528 -563.697 0.
48.1608 -378.012 0.
-97.4903 -372.904 0.
-147.979 -491.755 0.
-198.467 -610.606 0.
-119.953 -623.453 0.
-123.905 -631.784 0.
-127.857 -640.116 0.
-11.9082 -634.157 0.
-36.5305 -691.958 0.
-1489.5 -1361.9 0.
-598.475 -935.906 0.
-576.15 -882.347 0.
25.6557 -557.879 0.
100.451 -384.827 0.
175.246 -211.775 0.
162.736 -231.842 0.
50.8564 -493.824 0.
-61.0233 -755.806 0.
-41.0715 -757.664 0.
6.73329 -647.079 0.
54.5381 -536.494 0.
-51.5451 -549.398 0.
-37.1176 -515.988 0.
-119.947 -536.046 0.
-157.246 -621.793 0.
-194.544 -707.54 0.
15.2817 -655.809 0.
31.0374 -616.415 0.
46.7929 -577.022 0.
-263.051 -694.728 0.
-266.507 -706.011 0.
-269.963 -717.295 0.
-130.429 -738.106 0.
-179.148 -854.017 0.
-72.4892 -902.914 0.
36.7414 -726.578 0.
106.54 -566.93 0.
96.6973 -471.372 0.
91.8621 -483.147 0.
87.0269 -494.921 0.
3.05523 -557.728 0.
-24.9956 -624.015 0.
-53.046 -690.303 0.
-84.8793 -566.632 0.
35.4586 -282.859 0.
155.796 0.913685 0.
-204.328 -252.014 0.
-277.418 -421.857 0.
320.542 -294.455 0.
301.214 -342.194 0.
281.886 -389.934 0.
96.9271 -460.727 0.
149.875 -337.632 0.
202.824 -214.537 0.
-128.221 -287.156 0.
-104.333 -232.661 0.
-80.4447 -178.167 0.
520.709 100.788 0.
530.79 121 0.
650.691 -98.6243 0.
-107.454 -600.757 0.
264.796 267.934 0.
481.238 412.861 0.
366.669 148.249 0.
223.626 -182.961 0.
69.7671 -192.026 0.
190.839 91.8935 0.
-107.93 -603.794 0.
-64.0582 -0.867792 0.
-132.889 -163.969 0.
-224.697 -380.216 0.
88.8598 -402.685 0.
-32.4722 -684.75 0.
103.655 -169.546 0.
220.249 102.291 0.
-32.6238 -487.669 0.
134.914 -7.12353 0.
-31.7107 -395.378 0.
178.022 93.5861 0.
6.52366 73.3806 0.
-10.7129 31.4822 0.
-177.415 -359.077 0.
523.67 -622.826 0.
526.108 -616.754 0.
241.432 523.11 0.
130.611 1.3068 0.
-134.482 -616.001 0.
-271.442 -1343.1 0.
-71.226 -877.188 0.
169.722 -315.746 0.
-549.575 -898.24 0.
-312.574 -344.405 0.
-380.025 -500.295 0.
29.8912 -25.9506 0.
73.101 75.9637 0.
-352.876 -916.555 0.
37.7979 81.124 0.
-95.5552 -228.231 0.
126.057 -456.388 0.
308.088 -30.5366 0.
543.443 519.842 0.
-97.6374 -1.59401 0.
-255.412 -369.093 0.
-168.352 -165.127 0.
483.383 451.35 0.
549.292 605.79 0.
-0.302561 -675.95 0.
14.5856 -290.786 0.
-15.0763 -358.392 0.
-119.576 -819.831 0.
-392.665 -342.393 0.
-376.003 -303.523 0.
137.229 -309.077 0.
206.054 -147.89 0.
310.877 97.7828 0.
409.533 125.232 0.
387.379 72.8822 0.
364.75 19.4912 0.
48.2625 -583.287 0.
55.7075 -567.513 0.
387.862 205.549 0.
-335.727 -867.395 0.
-125.175 -377.137 0.
49.7527 18.5404 0.
-65.9244 -252.845 0.
-67.7509 -258.478 0.
243.418 -244.047 0.
162.265 -432.12 0.
141.006 -480.25 0.
-193.041 -417.167 0.
-92.4464 -183.643 0.
-99.5851 -200.837 0.
-54.3168 -431.639 0.
-176.24 -711.056 0.
788.096 -645.748 0.
606.913 164.25 0.
357.545 -418.033 0.
108.028 -162.154 0.
129.162 -115.492 0.
-160.388 -793.588 0.
-183.939 -521.661 0.
307.743 624.07 0.
42.8135 4.26803 0.
10.8189 -595.642 0.
374.903 252.158 0.
334.41 155.865 0.
184.97 559.639 0.
-5.99991 116.04 0.
415.006 -109.614 0.
436.938 -58.4907 0.
104.93 -833.281 0.
-444.889 -1599.73 0.
226.636 -31.9576 0.
486.512 575.532 0.
80.0637 192.939 0.
-158.199 -363.536 0.
323.803 760.078 0.
353.792 -6.45326 0.
497.677 332.394 0.
-606.399 -1057.44 0.
-81.6581 -672.554 0.
-13.0051 -509.645 0.
11.2698 -411.295 0.
-35.7997 -519.461 0.
-82.8687 -627.627 0.
-178.026 -726.027 0.
-191.169 -756.047 0.
-204.313 -786.068 0.
-415.79 -844.718 0.
-385.682 -773.576 0.
-355.574 -702.435 0.
-44.1343 -616.959 0.
-77.6289 -693.642 0.
-183.247 -804.655 0.
-213.649 -877.112 0.
-244.051 -949.568 0.
-150.675 -888.517 0.
-54.8746 -663.963 0.
40.9262 -439.409 0.
-199.631 -520.913 0.
-258.826 -658.203 0.
-318.022 -795.492 0.
323.362 -573.172 0.
311.477 -601.835 0.
437.381 -570.816 0.
-184.865 -835.071 0.
-188.876 -844.043 0.
-174.141 -809.478 0.
-78.8413 -585.866 0.
16.4579 -362.255 0.
-207.336 -423.567 0.
-290.108 -617.888 0.
-372.879 -812.209 0.
-239.197 -824.035 0.
-251.984 -852.561 0.
-264.772 -881.087 0.
-411.555 -849.347 0.
-355.853 -717.06 0.
-50.3602 -491.825 0.
-59.8105 -509.99 0.
-69.2608 -528.154 0.
-314.476 -680.382 0.
-375.923 -822.304 0.
-437.37 -964.227 0.
-136.938 -822.356 0.
-72.2608 -673.438 0.
-7.58308 -524.52 0.
-74.0391 -429.55 0.
-11.1929 -283.305 0.
-1905.4 -976.004 0.
-312.54 -476.831 0.
-407.487 -700.958 0.
-46.3716 -687.866 0.
-42.686 -678.903 0.
-39.0003 -669.939 0.
54.3748 -576.221 0.
113.488 -437.219 0.
172.601 -298.217 0.
-87.1761 -464.614 0.
-162.062 -635.736 0.
-236.948 -806.858 0.
-155.56 -660.578 0.
-79.1851 -483.568 0.
-191.67 -419.074 0.
-266.795 -598.335 0.
-341.921 -777.596 0.
4.82221 -705.103 0.
37.4597 -629.556 0.
70.0971 -554.01 0.
-288.358 -736.65 0.
-334.586 -845.762 0.
-380.814 -954.876 0.
-137.861 -833.795 0.
-116.542 -781.707 0.
172.306 -616.074 0.
165.996 -507.13 0.
223.717 -372.135 0.
-125.159 -425.877 0.
-95.195 -356.765 0.
-65.2314 -287.652 0.
-43.3788 -288.914 0.
-92.181 -400.254 0.
-140.983 -511.593 0.
71.8587 -465.077 0.
57.3057 -499.849 0.
42.7527 -534.62 0.
-130.735 -624.333 0.
-138.714 -642.79 0.
142.55 -536.714 0.
135.24 -552.468 0.
127.93 -568.221 0.
-303.793 -770.888 0.
-322.693 -813.934 0.
-341.593 -856.979 0.
-225.173 -805.629 0.
-209.227 -768.304 0.
-193.281 -730.98 0.
-82.021 -614.18 0.
-41.2824 -514.045 0.
-523.934 -990.783 0.
1.73958 -604.229 0.
70.4597 -441.437 0.
-114.006 -434.163 0.
-161.315 -542.205 0.
-208.623 -650.246 0.
-183.432 -697.239 0.
-196.597 -727.414 0.
-209.763 -757.589 0.
-386.951 -800.507 0.
-356.941 -729.585 0.
-326.931 -658.662 0.
-80.8216 -601.454 0.
-114.448 -678.089 0.
-182.286 -772.428 0.
-212.311 -845.389 0.
-242.337 -918.351 0.
-19.2305 -799.248 0.
76.8647 -574.92 0.
172.96 -350.593 0.
-124.944 -457.163 0.
-183.506 -595.075 0.
-242.069 -732.987 0.
66.8886 -651.316 0.
55.8053 -680.249 0.
60.3238 -701.667 0.
-116.174 -774.094 0.
-119.808 -782.957 0.
-319.508 -839.639 0.
-224.293 -615.873 0.
-129.078 -392.108 0.
-16.2294 -310.055 0.
-98.9036 -504.428 0.
-181.578 -698.8 0.
-134.117 -748.617 0.
-147.286 -776.819 0.
-160.455 -805.022 0.
-454.168 -835.634 0.
-398.701 -703.224 0.
-239.053 -541.769 0.
-248.72 -559.907 0.
-258.387 -578.044 0.
-204.803 -601.763 0.
-266.273 -743.798 0.
-327.743 -885.833 0.
-212.049 -822.763 0.
-147.561 -673.63 0.
-83.0737 -524.497 0.
-90.3884 -405.655 0.
-27.5917 -259.283 0.
-1614.96 -819.838 0.
-120.86 -363.337 0.
-215.868 -587.842 0.
-59.3628 -660.893 0.
-55.1687 -652.662 0.
-50.9745 -644.431 0.
6.9258 -565.289 0.
66.2424 -426.511 0.
125.559 -287.734 0.
-305.503 -525.998 0.
-379.719 -697.385 0.
-453.934 -868.771 0.
-25.5119 -573.145 0.
51.4785 -396.811 0.
-237.131 -405.148 0.
-312.345 -584.675 0.
-387.559 -764.203 0.
-25.0877 -685.923 0.
7.51272 -610.552 0.
40.1131 -535.181 0.
-220.659 -675.656 0.
-266.99 -784.671 0.
-313.321 -893.686 0.
-12.7333 -749.663 0.
8.52473 -697.433 0.
-358.707 -813.099 0.
-6.85766 -550.28 0.
51.0088 -415.411 0.
-258.074 -450.143 0.
-227.648 -381.364 0.
-197.221 -312.585 0.
23.0712 -227.421 0.
-26.056 -338.356 0.
-75.1833 -449.29 0.
94.4004 -425.558 0.
79.3825 -459.545 0.
64.3645 -493.531 0.
123.565 -483.741 0.
116.121 -502.477 0.
43.6406 -547.988 0.
36.6064 -564.088 0.
29.5718 -580.188 0.
-548.351 -843.119 0.
-567.297 -886.229 0.
-586.244 -929.34 0.
-58.5964 -702.804 0.
-42.6225 -665.436 0.
-26.6485 -628.068 0.
-280.69 -669.282 0.
-240.343 -569.08 0.
-53.7211 -752.09 0.
-40.0537 -642.809 0.
41.9804 -454.642 0.
-189.609 -437.621 0.
-193.387 -445.792 0.
-197.166 -453.963 0.
-54.6771 -372.907 0.
-30.9913 -313.868 0.
-7.30573 -254.83 0.
-146.519 -381.419 0.
-211.929 -535.389 0.
-277.338 -689.359 0.
21.3044 -445.543 0.
97.9389 -267.667 0.
-28.0723 -203.904 0.
-87.4623 -341.832 0.
-146.852 -479.759 0.
206.043 -422.703 0.
181.617 -480.377 0.
157.19 -538.051 0.
-219.779 -707.624 0.
-207.14 -679.746 0.
-194.501 -651.869 0.
-37.5024 -458.068 0.
42.2435 -268.515 0.
590.668 121.548 0.
150.605 -139.692 0.
113.104 -224.313 0.
-255.016 -452.958 0.
-314.617 -592.936 0.
-374.218 -732.914 0.
-65.5976 -636.759 0.
-28.8931 -549.116 0.
7.81121 -461.474 0.
-22.8083 -458.089 0.
-27.8864 -469.431 0.
-32.9646 -480.772 0.
-388.056 -540.953 0.
-332.183 -414.377 0.
-116.871 -245.687 0.
-175.788 -387.682 0.
-234.705 -529.677 0.
-177.875 -544.229 0.
-121.019 -412.091 0.
-64.1624 -279.954 0.
-24.4328 -223.522 0.
-34.123 -245.415 0.
-43.8134 -267.308 0.
-77.9039 -320.534 0.
-101.089 -373.316 0.
-116.541 -425 0.
-11.7929 -381.682 0.
-13.0959 -384.002 0.
90.9553 -347.346 0.
80.3025 -372.396 0.
69.6499 -397.446 0.
6.18128 -436.891 0.
6.38324 -437.729 0.
6.58523 -438.566 0.
-316.818 -467.42 0.
-230.685 -268.918 0.
-144.552 -70.417 0.
176.412 -43.5796 0.
98.7357 -220.434 0.
-251.09 -500.033 0.
-260.354 -518.913 0.
-269.618 -537.793 0.
31.5429 -430.012 0.
22.5292 -453.443 0.
13.5157 -476.874 0.
-62.925 -492.673 0.
-42.2926 -445.216 0.
-21.6604 -397.759 0.
128.679 -332.053 0.
128.001 -332.568 0.
467.419 -181.115 0.
-189.005 -456.995 0.
-187.121 -449.651 0.
-257.025 -484.146 0.
-280.132 -533.411 0.
-303.238 -582.675 0.
-64.0411 -479.399 0.
-37.7736 -416.168 0.
-11.5062 -352.938 0.
157.381 -320.097 0.
109.801 -430.039 0.
62.2217 -539.982 0.
161.267 -429.419 0.
207.609 -320.128 0.
81.9847 -300.606 0.
54.2481 -362.912 0.
26.5116 -425.217 0.
-449.106 -671.814 0.
-458.489 -694.618 0.
-467.873 -717.422 0.
90.144 -424.421 0.
147.134 -290.26 0.
204.123 -156.099 0.
-268.03 -419.223 0.
-326.057 -557.465 0.
-10.9434 -703.753 0.
-148.77 -658.053 0.
-66.6774 -469.562 0.
-209.415 -414.398 0.
-213.338 -422.68 0.
-217.262 -430.963 0.
-44.9047 -336.655 0.
-21.3306 -277.757 0.
2.24329 -218.858 0.
3.92549 -286.545 0.
-61.7551 -440.218 0.
-127.435 -593.89 0.
175.625 -348.239 0.
252.282 -170.367 0.
-219.827 -256.233 0.
-279.309 -394.004 0.
-338.791 -531.775 0.
253.925 -370.056 0.
229.549 -427.661 0.
205.173 -485.265 0.
-232.372 -682.579 0.
-219.504 -654.861 0.
-206.636 -627.143 0.
-213.723 -503.188 0.
-133.733 -313.503 0.
289.887 23.892 0.
102.54 -127.134 0.
65.5171 -211.988 0.
-314.247 -448.571 0.
-374.186 -588.032 0.
-434.126 -727.493 0.
-4.45344 -579.015 0.
32.4895 -491.538 0.
69.4323 -404.062 0.
-130.26 -473.147 0.
-135.225 -484.631 0.
-140.191 -496.114 0.
-457.31 -538.745 0.
-401.38 -412.619 0.
121.582 -111.44 0.
62.3603 -253.292 0.
3.13854 -395.144 0.
-247.196 -542.767 0.
-190.86 -410.224 0.
-134.525 -277.68 0.
-91.6806 -221.828 0.
-101.14 -243.885 0.
-110.6 -265.942 0.
-96.2011 -296.691 0.
-119.084 -349.811 0.
-1496.27 -983.787 0.
115.939 -294.846 0.
115.061 -297.434 0.
171.851 -279.606 0.
161.498 -304.952 0.
151.145 -330.299 0.
-48.032 -428.773 0.
-48.086 -429.348 0.
-48.14 -429.922 0.
-135.1 -357.575 0.
-49.1652 -158.724 0.
36.77 40.1272 0.
19.8674 -79.6408 0.
-57.9539 -256.667 0.
-112.952 -408.745 0.
-122.107 -428.289 0.
-131.262 -447.833 0.
-23.2891 -421.274 0.
-32.1993 -444.879 0.
-41.1093 -468.484 0.
99.1655 -392.189 0.
120.353 -345.161 0.
141.541 -298.132 0.
-61.9001 -381.454 0.
-62.2384 -382.182 0.
128.159 -296.149 0.
-536.714 -575.327 0.
-534.976 -567.526 0.
-58.5678 -367.242 0.
-81.3179 -416.655 0.
-104.068 -466.067 0.
-42.741 -439.554 0.
-16.3741 -376.392 0.
9.99282 -313.23 0.
208.905 -266.696 0.
161.077 -376.693 0.
113.248 -486.689 0.
-33.9017 -481.514 0.
12.5468 -372.498 0.
45.4414 -284.388 0.
17.7932 -346.769 0.
-9.85501 -409.149 0.
-104.403 -493.049 0.
-113.879 -515.633 0.
-123.356 -538.217 0.
26.8226 -420.121 0.
83.5484 -285.683 0.
140.274 -151.245 0.
-276.817 -392.955 0.
-335.441 -530.651 0.
1077.47 193.291 0.
-189.049 -501.688 0.
186.91 376.878 0.
68.6803 308.164 0.
-349.051 -665.946 0.
-103.234 -93.1192 0.
-108.343 -475.38 0.
23.3751 -168.694 0.
190.789 221.824 0.
629.73 915.6 0.
540.975 706.926 0.
161.085 -180.876 0.
231.26 -486.918 0.
238.077 -468.437 0.
-576.697 -702.925 0.
-13.0865 615.048 0.
-138.385 325.869 0.
369.03 -155.08 0.
466.431 68.6013 0.
396.159 -97.9199 0.
183.324 339.004 0.
-321.419 -840.097 0.
-68.6526 -252.945 0.
-41.7721 266.346 0.
-102.031 126.426 0.
-6.89113 -760.832 0.
17.1058 -206.957 0.
154.12 111.696 0.
-119.925 146.953 0.
-114.818 158.967 0.
-417.135 -546.015 0.
27.1178 -587.215 0.
171.375 -252.509 0.
297.562 39.7616 0.
-64.6782 -89.7133 0.
-265.535 -556.72 0.
-329.008 -703.081 0.
-312.208 -37.5632 0.
-32.3325 614.957 0.
239.606 -264.68 0.
236.497 -271.64 0.
412.088 138.312 0.
28.8326 270.48 0.
-242.979 -361.882 0.
-304.326 -503.163 0.
-106.296 -95.976 0.
-227.989 -381.055 0.
-351.183 -669.526 0.
-432.062 -1024.37 0.
-135.283 -333.955 0.
646.944 77.6973 0.
61.1324 -614.377 0.
246.417 -182.18 0.
355.685 27.2461 0.
-57.7465 -936.886 0.
286.541 -133.159 0.
269.325 445.567 0.
100.695 52.9993 0.
82.7267 11.9823 0.
236.674 193.912 0.
262.475 253.095 0.
293.626 324.831 0.
273.039 845.697 0.
14.0971 239.937 0.
120.814 -92.6439 0.
-0.252688 -374.548 0.
-27.6747 -437.658 0.
28.257 -168.947 0.
-110.249 -494.925 0.
100.573 -5.58523 0.
360.332 -73.1167 0.
348.057 -100.817 0.
231.759 -371.319 0.
-144.508 -171.575 0.
-219.384 -347.958 0.
-1220.15 -890.506 0.
-558.541 60.773 0.
-627.599 -100.243 0.
155.789 -201.485 0.
140.301 -239.131 0.
7.6391 -549.933 0.
403.703 588.903 0.
148.199 -5.46728 0.
152.962 6.90035 0.
658.084 720.291 0.
561.774 493.869 0.
273.627 -180.369 0.
95.1741 221.462 0.
160.501 374.457 0.
74.0502 -112.45 0.
-58.9036 -423.075 0.
60.0088 -145.993 0.
43.625 -774.395 0.
101.591 -640.114 0.
247.306 -301.029 0.
204.948 150.656 0.
158.759 44.1334 0.
526.778 902.035 0.
129.584 595.1 0.
144.659 625.746 0.
580.86 -124.289 0.
-195.495 -524.29 0.
-236.759 -619.057 0.
-178.168 -642.058 0.
-154.757 -587.776 0.
-131.345 -533.494 0.
-245.914 -492.564 0.
-166.087 -309.173 0.
-86.2603 -125.782 0.
174.667 -49.4252 0.
105.511 -211.964 0.
36.3549 -374.502 0.
21.1012 -414.981 0.
11.71 -435.496 0.
-304.085 -588.33 0.
-339.543 -669.156 0.
-375.001 -749.982 0.
205.33 -519.997 0.
248.319 -421.358 0.
291.308 -322.72 0.
-349.883 -565.496 0.
-354.531 -573.715 0.
-359.178 -581.934 0.
-288.838 -476.03 0.
-234.92 -351.949 0.
-15.7752 -157.534 0.
-13.2395 -314.889 0.
-95.8608 -509.529 0.
-577.793 -833.894 0.
-556.405 -786.907 0.
-535.016 -739.921 0.
-31.8494 -503.383 0.
-28.8545 -500.968 0.
-25.8603 -498.554 0.
-315.017 -550.242 0.
-256.656 -417.268 0.
-198.295 -284.295 0.
-345.651 -462.765 0.
-418.985 -633.389 0.
47.932 -541.248 0.
129.878 -348.317 0.
211.824 -155.386 0.
-181.336 -228.24 0.
-196.677 -263.976 0.
-212.018 -299.712 0.
-147.046 -309.07 0.
-171.097 -364.36 0.
-195.148 -419.65 0.
-122.469 -473.177 0.
-171.047 -586.926 0.
-186.418 -686.761 0.
61.0076 -493.307 0.
106.026 -386.095 0.
100.68 -328.996 0.
71.8013 -393.032 0.
42.9222 -457.069 0.
-197.74 -508.682 0.
-104.055 -288.931 0.
-10.37 -69.1798 0.
79.1726 -89.3833 0.
-13.7267 -304.923 0.
-106.626 -520.463 0.
-249.504 -594.423 0.
-244.659 -586.389 0.
-16.6776 -470.997 0.
42.8146 -331.663 0.
102.307 -192.328 0.
-11.3054 -178.161 0.
-34.9347 -233.706 0.
-58.5637 -289.25 0.
88.9447 -271.678 0.
66.6039 -321 0.
44.263 -370.321 0.
-154.408 -322.659 0.
-61.1086 -107.218 0.
-547.899 -142.433 0.
-398.408 -115.055 0.
-414.499 -157.754 0.
148.878 54.7708 0.
137.198 25.2153 0.
125.518 -4.34039 0.
-82.2917 -196.467 0.
-188.149 -444.088 0.
-294.007 -691.709 0.
-5.40952 -526.815 0.
80.8008 -324.778 0.
167.011 -122.742 0.
-73.9412 -245.804 0.
-98.5206 -302.887 0.
22.2813 -298.698 0.
1.59053 -350.023 0.
-19.1009 -401.347 0.
51.066 -388.896 0.
63.6865 -358.973 0.
76.3067 -329.049 0.
-37.5882 -364.968 0.
-33.8978 -358.244 0.
-30.2076 -351.52 0.
16.9957 -240.992 0.
76.3555 -106.158 0.
-287.829 -464.264 0.
-177.259 -484.386 0.
-218.161 -579.246 0.
34.3693 -520.067 0.
57.2734 -465.285 0.
80.1777 -410.504 0.
-385.731 -521.754 0.
-306.038 -338.401 0.
-226.346 -155.048 0.
139.846 -33.764 0.
70.4109 -196.345 0.
0.976102 -358.926 0.
-258.568 -502.712 0.
-267.724 -523.707 0.
-7.87291 -428.877 0.
-43.1359 -509.912 0.
-78.3995 -590.947 0.
212.243 -487.416 0.
254.764 -388.24 0.
297.285 -289.064 0.
-517.057 -605.465 0.
-521.477 -613.733 0.
-525.897 -622.001 0.
-184.35 -400.784 0.
-130.338 -276.638 0.
-282.032 -240.659 0.
28.168 -265.203 0.
-54.6181 -459.486 0.
-607.931 -816.775 0.
-586.732 -769.609 0.
-565.533 -722.443 0.
-136.134 -516.183 0.
-132.589 -514.329 0.
-129.044 -512.477 0.
-358.362 -537.62 0.
-299.316 -405.375 0.
-240.269 -273.13 0.
-145.008 -344.709 0.
-217.669 -515.891 0.
-30.4939 -542.272 0.
51.821 -349.368 0.
134.136 -156.464 0.
-158.677 -187.566 0.
-174.214 -223.278 0.
-189.751 -258.989 0.
-66.2555 -242.638 0.
-90.4275 -298.073 0.
-114.6 -353.508 0.
-8.30631 -392.698 0.
-56.8948 -506.494 0.
-514.958 -795.039 0.
4.46162 -484.947 0.
49.6715 -377.879 0.
-10.7466 -345.133 0.
-39.4411 -409.227 0.
-68.1356 -473.321 0.
-251.278 -500.245 0.
-157.541 -280.236 0.
-63.8039 -60.2273 0.
48.2827 -70.8727 0.
-44.9796 -286.098 0.
-138.242 -501.324 0.
-115.293 -505.447 0.
-111.106 -496.575 0.
29.212 -420.151 0.
88.5134 -280.744 0.
147.815 -141.336 0.
-41.4316 -160.962 0.
-65.2564 -216.429 0.
-89.081 -271.896 0.
-127.995 -333.631 0.
-150.04 -382.977 0.
-172.085 -432.324 0.
-73.1843 -256.31 0.
20.2005 -40.6988 0.
-230.076 24.4106 0.
-82.7964 52.6412 0.
-99.1743 10.4303 0.
19.2632 28.5213 0.
7.48447 -0.613989 0.
-4.2942 -29.7494 0.
-248.315 -236.372 0.
-354.017 -483.98 0.
-459.72 -731.588 0.
-150.757 -558.911 0.
-64.5843 -357.06 0.
21.5885 -155.209 0.
-19.0978 -189.52 0.
-43.693 -246.906 0.
76.6705 -244.258 0.
55.4465 -295.162 0.
34.2218 -346.065 0.
-125.116 -433.973 0.
-112.877 -403.738 0.
-100.639 -373.502 0.
-47.9062 -337.637 0.
-44.5823 -330.791 0.
-41.2587 -323.945 0.
339.307 -71.6346 0.
397.948 63.7352 0.
-204.259 -263.889 0.
-67.3717 -268.583 0.
-107.671 -361.508 0.
77.0458 -344.856 0.
75.7196 -347.735 0.
74.3939 -350.615 0.
-308.276 -543.847 0.
-341.691 -620.282 0.
-375.106 -696.717 0.
-121.524 -413.617 0.
34.1397 -50.4758 0.
189.803 312.665 0.
-155.137 34.043 0.
-250.385 -187.657 0.
237.83 -136.972 0.
248.666 -111.913 0.
259.501 -86.8544 0.
255.308 -102.157 0.
210.744 -205.119 0.
166.179 -308.08 0.
-441.86 -550.959 0.
-387.182 -424.026 0.
-332.504 -297.093 0.
-123.075 -167.509 0.
-114.884 -146.053 0.
30.1975 -67.7291 0.
19.6379 -152.206 0.
-22.3618 -250.564 0.
-485.107 -488.04 0.
-430.827 -361.523 0.
-376.547 -235.007 0.
-24.906 -53.4541 0.
-55.0559 -122.32 0.
-85.2056 -191.186 0.
-272.193 -272.075 0.
-256.523 -236.666 0.
-240.853 -201.256 0.
95.8163 -35.7678 0.
108.833 -5.84715 0.
119.342 18.0144 0.
104.674 -15.3922 0.
90.0066 -48.7989 0.
-93.4458 -194.287 0.
-174.915 -384.06 0.
-256.384 -573.833 0.
-145.023 -528.19 0.
-78.3216 -373.331 0.
-11.6202 -218.473 0.
113.152 -196.964 0.
72.5718 -291.233 0.
-592.489 -651.505 0.
72.2096 -304.288 0.
105.016 -228.237 0.
-67.5741 -233.924 0.
-19.3024 -121.363 0.
28.9693 -8.80274 0.
-67.2815 -55.2136 0.
-134.881 -213.277 0.
-202.48 -371.34 0.
-149.292 -376.096 0.
-136.862 -348.75 0.
-124.431 -321.404 0.
100.571 -147.73 0.
145.478 -45.1045 0.
192.293 43.8805 0.
159.159 -33.9217 0.
126.025 -111.724 0.
-29.6734 -210.188 0.
-5.9073 -154.741 0.
17.8589 -99.2946 0.
-173.315 -152.855 0.
-166.273 -135.302 0.
-159.232 -117.749 0.
79.06 62.5904 0.
127.79 180.475 0.
-83.2498 189.062 0.
-30.7355 1.48141 0.
-141.935 -254.589 0.
-226.747 -471.99 0.
-269.901 -569.071 0.
-313.055 -666.152 0.
-433.12 -636.447 0.
-290.1 -301.926 0.
-147.081 32.5952 0.
-29.913 40.6877 0.
-135.004 -203.779 0.
-240.095 -448.247 0.
-295.328 -595.89 0.
-354.61 -733.147 0.
-14.46 -653.256 0.
137.363 -299.429 0.
289.186 54.3973 0.
-40.0273 52.5737 0.
-120.971 -136.65 0.
-201.914 -325.874 0.
-82.07 -328.926 0.
-68.8122 -297.804 0.
-55.5546 -266.683 0.
387.641 -67.4095 0.
396.176 -48.4697 0.
-526.959 -372.745 0.
-17.0404 -215.663 0.
-57.0531 -308.688 0.
-179.298 -423.954 0.
-180.918 -426.378 0.
-182.537 -428.802 0.
78.7985 -346.499 0.
45.118 -422.906 0.
11.4377 -499.312 0.
-295.9 -457.206 0.
-140.069 -94.5462 0.
15.7619 268.114 0.
-146.634 71.1089 0.
-241.119 -151.248 0.
266.179 -94.0552 0.
277.259 -69.1926 0.
288.339 -44.3303 0.
-24.7592 -189.086 0.
-68.9001 -292.197 0.
-113.042 -395.308 0.
-102.866 -374.936 0.
-48.3556 -247.643 0.
6.15501 -120.35 0.
-306.306 -215.88 0.
-297.938 -194.55 0.
-596.464 -305.771 0.
-139.26 -188.388 0.
-181.291 -286.758 0.
-462.571 -447.721 0.
-408.462 -320.967 0.
-354.353 -194.214 0.
-107.323 -56.3785 0.
-136.994 -125.693 0.
-166.665 -195.008 0.
-263.96 -237.347 0.
-247.979 -202.279 0.
-231.998 -167.21 0.
188.575 35.6366 0.
202.05 65.246 0.
8.52495 2.55007 0.
-6.02746 -30.7644 0.
-20.5799 -64.079 0.
86.3338 -86.6012 0.
4.77671 -276.221 0.
-76.7801 -465.841 0.
-87.8673 -472.846 0.
-21.0569 -318.174 0.
45.7535 -163.501 0.
132.414 -156.656 0.
91.9801 -250.961 0.
-588.992 -618.532 0.
132.967 -246.564 0.
165.656 -170.23 0.
-171.754 -247.429 0.
-123.435 -134.775 0.
-75.1149 -22.1204 0.
9.7031 9.71161 0.
-57.6349 -148.464 0.
-124.973 -306.639 0.
-245.846 -385.685 0.
-233.616 -358.037 0.
-221.387 -330.389 0.
154.097 -92.9621 0.
198.803 9.74653 0.
91.1309 31.5918 0.
58.2503 -46.6113 0.
25.3696 -124.814 0.
117.57 -114.001 0.
141.82 -59.1517 0.
166.07 -4.3018 0.
-218.25 -139.96 0.
-211.244 -122.786 0.
-204.238 -105.613 0.
68.7849 90.3982 0.
117.721 207.885 0.
637.487 528.435 0.
-135.407 -12.1824 0.
-246.87 -267.935 0.
-154.279 -409.094 0.
-197.339 -506.347 0.
-240.398 -603.6 0.
-271.092 -536.594 0.
-127.979 -202.088 0.
15.1355 132.418 0.
-183.787 5.98492 0.
-288.65 -238.546 0.
-393.513 -483.077 0.
-573.687 -683.151 0.
-633.027 -820.505 0.
172.524 -541.46 0.
324.853 -188.003 0.
477.182 165.454 0.
-128.082 46.1496 0.
-208.673 -143.195 0.
-289.263 -332.539 0.
-130.855 -317.635 0.
-117.568 -286.476 0.
-104.281 -255.316 0.
214.165 -109.499 0.
222.309 -90.0679 0.
365.626 679.676 0.
-18.4796 -279.871 0.
-214.809 -739.797 0.
-321.477 -232.677 0.
-323.894 -240.786 0.
-164.885 127.713 0.
647.444 270.483 0.
709.495 414.048 0.
803.24 631.193 0.
-309.561 -122.813 0.
-498.72 -563.488 0.
-443.673 -434.322 0.
-75.9302 239.535 0.
42.3773 521.576 0.
51.2955 -622.907 0.
461.159 334.959 0.
439.377 285.635 0.
-542.215 -835.07 0.
-396.293 -495.175 0.
-304.745 -282.883 0.
102.907 -510.399 0.
249.157 -169.839 0.
84.6982 -554.38 0.
-489.696 -260.221 0.
-377.659 0.796019 0.
-753.221 -282.927 0.
-366.08 -385.185 0.
-411.428 -487.989 0.
123.137 902.075 0.
155.875 979.575 0.
-234.17 70.947 0.
-329.194 -388.463 0.
-219.646 -130.734 0.
-406.383 -564.522 0.
-168.144 -5.25225 0.
-117.761 109.709 0.
-186.6 -53.4684 0.
17.7067 -504.939 0.
21.3118 -500.468 0.
-284.008 -432.021 0.
-87.6326 24.846 0.
-186.802 -208.145 0.
114.594 -325.974 0.
384.49 301.213 0.
177.444 -184.244 0.
63.4522 -205.72 0.
220.98 163.419 0.
82.5864 -157.602 0.
9.88261 -449.88 0.
-15.3882 -512.015 0.
-1502.81 -367.517 0.
347.044 175.827 0.
236.063 -84.9002 0.
-93.6661 167.819 0.
-321.522 -363.417 0.
-277.214 -259.71 0.
145.931 204.542 0.
422.271 849.16 0.
301.413 567.129 0.
-580.324 -940.688 0.
-1057.62 -2054.06 0.
-440.603 -614.426 0.
58.0324 -385.025 0.
231.078 22.7447 0.
235.164 589.054 0.
-73.2484 -129.866 0.
-174.12 -364.276 0.
191.145 -193.776 0.
287.099 28.5437 0.
246.187 -68.1394 0.
-377.27 -397.541 0.
-497.693 -680.775 0.
-317.858 -263.003 0.
151.226 342.319 0.
7.63052 9.26217 0.
-208.905 -181.795 0.
10.0025 552.284 0.
-360.483 -306.278 0.
-140.205 -489.427 0.
121.572 125.124 0.
-567.85 -1479.07 0.
-60.0692 -322.906 0.
337.288 602.672 0.
-27.0481 -248.898 0.
-798.688 -1101.73 0.
-485.771 -373.044 0.
7.50913 776.477 0.
-446.847 173.931 0.
-483.414 87.4673 0.
580.913 83.4327 0.
465.357 -184.729 0.
490.026 -125.79 0.
-287.453 -133.004 0.
-76.105 360.293 0.
-98.9695 307.511 0.
78.8212 300.429 0.
79.7049 301.672 0.
-125.33 -177.156 0.
191.331 203.713 0.
107.715 11.2095 0.
984.074 269.839 0.
-51.1735 2.5424 0.
43.2369 222.344 0.
141.655 383.283 0.
86.4082 252.727 0.
31.1614 122.17 0.
108.044 45.5116 0.
48.5813 -95.0264 0.
-10.8813 -235.565 0.
-345.474 -464.886 0.
-382.622 -547.562 0.
-419.768 -630.238 0.
-215.028 -436.425 0.
-154.571 -288.717 0.
119.079 -71.4524 0.
79.4291 -163.08 0.
39.7798 -254.708 0.
-306.312 -405.367 0.
-231 -227.731 0.
-155.688 -50.0956 0.
173.308 87.8756 0.
107.641 -67.693 0.
41.9749 -223.262 0.
-286.195 -306.352 0.
-228.302 -170.564 0.
936.885 439.877 0.
-428.802 -45.8431 0.
-380.038 71.2233 0.
-141.336 238.27 0.
-165.001 185.063 0.
-188.665 131.856 0.
-16.3259 110.665 0.
-102.742 -87.7117 0.
-189.158 -286.088 0.
-268.125 -293.868 0.
-206.594 -148.159 0.
-145.064 -2.45091 0.
174.002 156.62 0.
178.388 168.411 0.
4.1395 71.2629 0.
-152.925 -296.379 0.
-309.99 -664.022 0.
-275.615 -690.812 0.
-18.1197 -92.268 0.
239.377 506.277 0.
438.09 569.794 0.
211.493 42.1493 0.
-15.1036 -485.495 0.
-1.05752 -466.599 0.
73.9345 -292.728 0.
-1218.96 -703.531 0.
84.758 -183.828 0.
63.5121 -232.575 0.
-184.981 -332.93 0.
-99.5736 -134.361 0.
-14.166 64.208 0.
258.137 277.095 0.
265.964 296 0.
273.791 314.905 0.
112.196 147.935 0.
30.9845 -40.3067 0.
-50.2277 -228.549 0.
2.54691 -173.194 0.
29.9674 -105.4 0.
-120.632 -115.971 0.
-105.588 -78.0458 0.
-90.5437 -40.1204 0.
72.5913 50.4023 0.
73.3728 55.362 0.
74.1543 60.3214 0.
-61.6056 45.13 0.
-22.7423 134.43 0.
16.121 223.729 0.
53.7908 240.653 0.
44.7716 221.005 0.
90.276 229.082 0.
-193.726 21.1152 0.
-237.094 -81.8902 0.
-120.409 -113.601 0.
-161.244 -211.325 0.
-202.078 -309.05 0.
-233.455 -367.588 0.
-229.729 -358.562 0.
-226.002 -349.537 0.
-403.208 -404.047 0.
-390.247 -373.895 0.
-377.285 -343.742 0.
-386.772 -158.62 0.
-276.84 96.6887 0.
557.77 615.267 0.
446.248 357.367 0.
334.724 99.4676 0.
-222.363 -242.768 0.
-158.844 -94.3873 0.
-95.3254 53.9935 0.
148.312 255.879 0.
189.274 350.305 0.
230.236 444.732 0.
-25.7622 164.91 0.
-155.145 -134.79 0.
144.623 -61.5729 0.
-217.912 -37.1602 0.
-123.586 182.747 0.
401.256 525.161 0.
345.441 395.505 0.
289.626 265.848 0.
-413.602 -147.718 0.
-473.795 -287.386 0.
-533.987 -427.054 0.
-193.579 -370.212 0.
-231.343 -452.603 0.
-269.106 -534.993 0.
-12.6763 -318.539 0.
47.9497 -170.993 0.
-72.3243 -120.543 0.
-111.487 -212.745 0.
-150.649 -304.946 0.
-225.795 -339.802 0.
-150.382 -161.783 0.
-74.9682 16.2364 0.
-44.851 25.3587 0.
-110.363 -129.725 0.
-175.875 -284.809 0.
7.2143 -149.055 0.
65.006 -13.1141 0.
-147.187 6.61395 0.
-664.264 -114.909 0.
-616.349 2.60744 0.
-100.869 285.152 0.
-125.344 232.548 0.
-149.818 179.945 0.
122.571 199.74 0.
36.5035 0.958525 0.
-49.5632 -197.822 0.
-224.004 -241.72 0.
-161.474 -97.4341 0.
-98.9437 46.8513 0.
28.3123 127.294 0.
33.5435 138.494 0.
109.919 148.362 0.
-46.875 -219.168 0.
-203.669 -586.698 0.
-550.314 -776.845 0.
-293.251 -178.063 0.
-36.186 420.721 0.
509.668 630.966 0.
282.664 104.262 0.
55.6606 -422.44 0.
11.3076 -429.967 0.
86.4483 -255.908 0.
-41.069 -166.39 0.
-29.8691 -200.27 0.
-51.1109 -248.762 0.
-17.153 -229.993 0.
68.7185 -31.5978 0.
154.59 166.798 0.
375.021 358.875 0.
383.202 377.877 0.
391.383 396.879 0.
409.094 306.299 0.
327.5 118.371 0.
245.906 -69.5568 0.
-162.508 -212.938 0.
-135.451 -144.971 0.
-167.439 -103.245 0.
-152.809 -65.158 0.
-138.18 -27.0709 0.
-189.25 -31.1518 0.
-188.918 -26.0862 0.
-188.586 -21.0211 0.
116.043 152.73 0.
154.286 242.135 0.
192.528 331.541 0.
2.13918 251.011 0.
-7.84574 231.887 0.
243.139 326.716 0.
-143.337 72.2549 0.
-187.09 -31.0714 0.
-272.153 -146.153 0.
-312.277 -244.495 0.
-352.401 -342.836 0.
-408.345 -410.509 0.
-405.081 -401.119 0.
-401.816 -391.73 0.
-269.916 -316.472 0.
-257.159 -286.169 0.
-244.402 -255.865 0.
-115.8 -10.5563 0.
-6.09956 244.935 0.
262.599 520.384 0.
151.455 262.665 0.
40.3102 4.94589 0.
-70.9693 -147.851 0.
-7.14222 0.550546 0.
56.6853 148.952 0.
271.712 341.416 0.
312.641 436.368 0.
353.569 531.32 0.
-248.254 98.454 0.
-377.78 -200.163 0.
