# vtk DataFile Version 2.0
test grain
ASCII
DATASET UNSTRUCTURED_GRID
POINTS 5000 float
0.499903 0.00100085 0.
0.501905 0.00100078 0.
0.503906 0.00100077 0.
0.505906 0.00100076 0.
0.507907 0.00100077 0.
0.509907 0.00100078 0.
0.511908 0.00100066 0.
0.51391 0.00100035 0.
0.515911 0.00100004 0.
0.517912 0.00100001 0.
0.519913 0.00100014 0.
0.521913 0.00100027 0.
0.523915 0.00100028 0.
0.525916 0.00100029 0.
0.527917 0.00100032 0.
0.529918 0.00100064 0.
0.531918 0.00100095 0.
0.533919 0.00100104 0.
0.53592 0.00100061 0.
0.537922 0.00100017 0.
0.539923 0.001 0.
0.541924 0.00100006 0.
0.543925 0.00100012 0.
0.545926 0.00100027 0.
0.547927 0.00100044 0.
0.549928 0.00100061 0.
0.551927 0.00100094 0.
0.553926 0.00100127 0.
0.555926 0.00100147 0.
0.557925 0.0010011 0.
0.559925 0.00100073 0.
0.561924 0.00100064 0.
0.563924 0.00100091 0.
0.565924 0.00100118 0.
0.567924 0.00100097 0.
0.569923 0.00100049 0.
0.571923 0.00100001 0.
0.573921 0.0010002 0.
0.575919 0.0010005 0.
0.577917 0.00100083 0.
0.579914 0.00100137 0.
0.581911 0.00100192 0.
0.583906 0.00100237 0.
0.5859 0.0010026 0.
0.587893 0.00100283 0.
0.589884 0.00100232 0.
0.591874 0.00100116 0.
0.593864 0.00100001 0.
0.595899 0.00100114 0.
0.59795 0.00100303 0.
0.600001 0.00100493 0.
0.602051 0.00100305 0.
0.604102 0.00100118 0.
0.606137 0.000999996 0.
0.608127 0.00100084 0.
0.610117 0.00100169 0.
0.612109 0.00100208 0.
0.614103 0.00100195 0.
0.616097 0.00100183 0.
0.618093 0.00100188 0.
0.620089 0.00100202 0.
0.622085 0.00100215 0.
0.624081 0.00100198 0.
0.626078 0.00100177 0.
0.628075 0.00100151 0.
0.630074 0.00100091 0.
0.632074 0.00100031 0.
0.634074 0.000999988 0.
0.636076 0.00100017 0.
0.638077 0.00100035 0.
0.640078 0.00100049 0.
0.642078 0.00100062 0.
0.644079 0.00100074 0.
0.646078 0.00100104 0.
0.648077 0.00100139 0.
0.650076 0.00100171 0.
0.652077 0.00100112 0.
0.654077 0.00100053 0.
0.656078 0.00100008 0.
0.658079 0.00100004 0.
0.660081 0.001 0.
0.662082 0.00100005 0.
0.664083 0.00100018 0.
0.666084 0.00100032 0.
0.668085 0.00100062 0.
0.670086 0.00100098 0.
0.672086 0.00100135 0.
0.674087 0.00100107 0.
0.676087 0.00100074 0.
0.678088 0.00100049 0.
0.680088 0.00100073 0.
0.682088 0.00100097 0.
0.684088 0.00100106 0.
0.686089 0.0010009 0.
0.68809 0.00100075 0.
0.690091 0.00100068 0.
0.692091 0.00100067 0.
0.694091 0.00100067 0.
0.696093 0.00100077 0.
0.698094 0.00100089 0.
0.499904 0.00300255 0.
0.501905 0.00300234 0.
0.503906 0.0030023 0.
0.505907 0.00300228 0.
0.507907 0.00300231 0.
0.509908 0.00300234 0.
0.511908 0.00300199 0.
0.513909 0.00300106 0.
0.51591 0.00300013 0.
0.517912 0.00300003 0.
0.519913 0.00300041 0.
0.521914 0.0030008 0.
0.523915 0.00300085 0.
0.525916 0.00300086 0.
0.527916 0.00300096 0.
0.529917 0.00300191 0.
0.531918 0.00300286 0.
0.533918 0.00300311 0.
0.535919 0.00300182 0.
0.537919 0.00300052 0.
0.539921 0.00300001 0.
0.541924 0.00300019 0.
0.543927 0.00300037 0.
0.545927 0.0030008 0.
0.547927 0.00300132 0.
0.549928 0.00300183 0.
0.551927 0.00300282 0.
0.553927 0.00300382 0.
0.555926 0.0030044 0.
0.557925 0.0030033 0.
0.559925 0.0030022 0.
0.561924 0.00300192 0.
0.563924 0.00300273 0.
0.565925 0.00300355 0.
0.567924 0.0030029 0.
0.569924 0.00300146 0.
0.571923 0.00300002 0.
0.573922 0.0030006 0.
0.575921 0.0030015 0.
0.57792 0.00300248 0.
0.579917 0.00300412 0.
0.581914 0.00300576 0.
0.58391 0.0030071 0.
0.585904 0.0030078 0.
0.587898 0.00300849 0.
0.589892 0.00300695 0.
0.591886 0.00300347 0.
0.593879 0.00300001 0.
0.595911 0.00300344 0.
0.597956 0.00300911 0.
0.600001 0.00301479 0.
0.602045 0.00300917 0.
0.60409 0.00300356 0.
0.606121 0.00299998 0.
0.608115 0.00300253 0.
0.610109 0.00300507 0.
0.612103 0.00300625 0.
0.614099 0.00300586 0.
0.616094 0.00300548 0.
0.61809 0.00300564 0.
0.620087 0.00300605 0.
0.622084 0.00300646 0.
0.62408 0.00300594 0.
0.626077 0.00300531 0.
0.628074 0.00300452 0.
0.630073 0.00300272 0.
0.632073 0.00300093 0.
0.634073 0.00299997 0.
0.636075 0.0030005 0.
0.638077 0.00300104 0.
0.640079 0.00300148 0.
0.642079 0.00300185 0.
0.64408 0.00300222 0.
0.646079 0.00300311 0.
0.648077 0.00300415 0.
0.650076 0.00300513 0.
0.652075 0.00300335 0.
0.654074 0.00300158 0.
0.656074 0.00300023 0.
0.658078 0.00300011 0.
0.660081 0.003 0.
0.662084 0.00300014 0.
0.664085 0.00300055 0.
0.666086 0.00300095 0.
0.668086 0.00300185 0.
0.670086 0.00300295 0.
0.672086 0.00300404 0.
0.674086 0.00300321 0.
0.676086 0.00300221 0.
0.678086 0.00300146 0.
0.680087 0.00300218 0.
0.682088 0.00300289 0.
0.684088 0.00300317 0.
0.686089 0.0030027 0.
0.688089 0.00300223 0.
0.69009 0.00300203 0.
0.69209 0.00300202 0.
0.694091 0.00300201 0.
0.696092 0.00300232 0.
0.698093 0.00300268 0.
0.499905 0.00500423 0.
0.501906 0.00500388 0.
0.503907 0.00500383 0.
0.505907 0.00500382 0.
0.507908 0.00500386 0.
0.509908 0.00500391 0.
0.511909 0.00500332 0.
0.513909 0.00500177 0.
0.51591 0.00500021 0.
0.517911 0.00500004 0.
0.519913 0.00500068 0.
0.521915 0.00500133 0.
0.523915 0.00500142 0.
0.525915 0.00500143 0.
0.527916 0.00500159 0.
0.529916 0.00500317 0.
0.531917 0.00500476 0.
0.533918 0.00500518 0.
0.535917 0.00500302 0.
0.537917 0.00500087 0.
0.539919 0.00500001 0.
0.541924 0.00500031 0.
0.543928 0.00500061 0.
0.545929 0.00500134 0.
0.547928 0.0050022 0.
0.549927 0.00500306 0.
0.551927 0.00500469 0.
0.553927 0.00500636 0.
0.555926 0.00500732 0.
0.557926 0.00500549 0.
0.559925 0.00500365 0.
0.561925 0.0050032 0.
0.563925 0.00500456 0.
0.565925 0.00500592 0.
0.567925 0.00500483 0.
0.569924 0.00500244 0.
0.571924 0.00500004 0.
0.573924 0.00500101 0.
0.575923 0.0050025 0.
0.577923 0.00500414 0.
0.57992 0.00500687 0.
0.581918 0.0050096 0.
0.583914 0.00501182 0.
0.585909 0.00501298 0.
0.587903 0.00501414 0.
0.5899 0.00501154 0.
0.591897 0.00500576 0.
0.593895 0.00499998 0.
0.595923 0.00500575 0.
0.597962 0.00501519 0.
0.600001 0.00502465 0.
0.602039 0.00501528 0.
0.604077 0.00500595 0.
0.606105 0.00499995 0.
0.608103 0.00500419 0.
0.610101 0.00500843 0.
0.612098 0.0050104 0.
0.614094 0.00500977 0.
0.61609 0.00500913 0.
0.618087 0.00500939 0.
0.620085 0.00501007 0.
0.622083 0.00501077 0.
0.62408 0.00500988 0.
0.626076 0.00500885 0.
0.628074 0.00500753 0.
0.630072 0.00500454 0.
0.632071 0.00500154 0.
0.634071 0.00499995 0.
0.636074 0.00500084 0.
0.638078 0.00500174 0.
0.640079 0.00500246 0.
0.64208 0.00500308 0.
0.644081 0.0050037 0.
0.64608 0.00500518 0.
0.648078 0.00500691 0.
0.650076 0.00500854 0.
0.652073 0.00500559 0.
0.654071 0.00500265 0.
0.65607 0.00500037 0.
0.658076 0.00500019 0.
0.660081 0.005 0.
0.662085 0.00500023 0.
0.664087 0.00500092 0.
0.666088 0.0050016 0.
0.668088 0.00500307 0.
0.670087 0.0050049 0.
0.672085 0.00500674 0.
0.674085 0.00500534 0.
0.676085 0.00500368 0.
0.678085 0.00500243 0.
0.680086 0.00500362 0.
0.682087 0.00500481 0.
0.684088 0.0050053 0.
0.686089 0.0050045 0.
0.688089 0.00500371 0.
0.690089 0.00500339 0.
0.69209 0.00500338 0.
0.694091 0.00500336 0.
0.696092 0.00500387 0.
0.698093 0.00500446 0.
0.499906 0.00700629 0.
0.501907 0.00700636 0.
0.503908 0.00700663 0.
0.505908 0.00700683 0.
0.507908 0.00700667 0.
0.509909 0.00700652 0.
0.511909 0.00700638 0.
0.51391 0.00700619 0.
0.515911 0.007006 0.
0.517912 0.0070061 0.
0.519913 0.0070064 0.
0.521914 0.0070067 0.
0.523915 0.00700688 0.
0.525915 0.00700704 0.
0.527916 0.00700726 0.
0.529917 0.00700832 0.
0.531918 0.00700939 0.
0.533918 0.0070101 0.
0.535919 0.00700995 0.
0.537919 0.00700981 0.
0.539921 0.00700936 0.
0.541924 0.00700867 0.
0.543926 0.00700799 0.
0.545927 0.00700792 0.
0.547927 0.00700804 0.
0.549926 0.00700817 0.
0.551927 0.0070092 0.
0.553927 0.00701026 0.
0.555927 0.00701102 0.
0.557927 0.00701058 0.
0.559927 0.00701015 0.
0.561927 0.00701026 0.
0.563927 0.00701111 0.
0.565927 0.00701197 0.
0.567927 0.00701218 0.
0.569927 0.00701204 0.
0.571927 0.00701191 0.
0.573926 0.00701278 0.
0.575926 0.00701381 0.
0.577925 0.00701486 0.
0.579924 0.00701583 0.
0.581922 0.00701681 0.
0.58392 0.00701746 0.
0.585918 0.00701737 0.
0.587916 0.0070173 0.
0.589915 0.00701407 0.
0.591915 0.00700817 0.
0.593915 0.00700228 0.
0.595939 0.00701021 0.
0.597969 0.00702251 0.
0.6 0.00703483 0.
0.602031 0.00702236 0.
0.604063 0.00700992 0.
0.606086 0.00700188 0.
0.608086 0.00700742 0.
0.610087 0.00701297 0.
0.612086 0.00701586 0.
0.614084 0.00701568 0.
0.616083 0.00701551 0.
0.618081 0.00701553 0.
0.62008 0.00701566 0.
0.622078 0.0070158 0.
0.624077 0.00701507 0.
0.626075 0.00701424 0.
0.628074 0.00701345 0.
0.630073 0.00701304 0.
0.632072 0.00701262 0.
0.634072 0.00701204 0.
0.636074 0.00701109 0.
0.638076 0.00701014 0.
0.640077 0.00700994 0.
0.642077 0.0070103 0.
0.644078 0.00701067 0.
0.646078 0.00701116 0.
0.648077 0.00701171 0.
0.650077 0.00701225 0.
0.652076 0.00701208 0.
0.654075 0.00701191 0.
0.656075 0.00701201 0.
0.658078 0.00701294 0.
0.660081 0.00701388 0.
0.662083 0.00701373 0.
0.664084 0.00701233 0.
0.666085 0.00701094 0.
0.668085 0.00701047 0.
0.670085 0.00701042 0.
0.672084 0.00701039 0.
0.674084 0.00700941 0.
0.676085 0.00700833 0.
0.678085 0.00700745 0.
0.680086 0.00700772 0.
0.682087 0.00700799 0.
0.684088 0.00700804 0.
0.686088 0.00700765 0.
0.688089 0.00700726 0.
0.690089 0.00700682 0.
0.69209 0.00700634 0.
0.69409 0.00700587 0.
0.696091 0.00700655 0.
0.698092 0.00700749 0.
0.499908 0.00900824 0.
0.501908 0.00900884 0.
0.503909 0.00900942 0.
0.505909 0.00900983 0.
0.507909 0.00900949 0.
0.509909 0.00900915 0.
0.51191 0.00900944 0.
0.513911 0.00901061 0.
0.515912 0.00901178 0.
0.517913 0.00901216 0.
0.519913 0.00901211 0.
0.521913 0.00901207 0.
0.523914 0.00901235 0.
0.525915 0.00901264 0.
0.527916 0.00901292 0.
0.529917 0.00901347 0.
0.531918 0.00901401 0.
0.533919 0.00901502 0.
0.53592 0.00901689 0.
0.537921 0.00901876 0.
0.539922 0.00901872 0.
0.541923 0.00901704 0.
0.543924 0.00901537 0.
0.545925 0.0090145 0.
0.547925 0.0090139 0.
0.549925 0.00901329 0.
0.551926 0.0090137 0.
0.553927 0.00901415 0.
0.555928 0.00901471 0.
0.557928 0.00901568 0.
0.559929 0.00901664 0.
0.56193 0.00901731 0.
0.56393 0.00901767 0.
0.56593 0.00901803 0.
0.56793 0.00901953 0.
0.56993 0.00902165 0.
0.571929 0.00902377 0.
0.573929 0.00902455 0.
0.575928 0.00902513 0.
0.577928 0.00902557 0.
0.579927 0.0090248 0.
0.581926 0.00902403 0.
0.583926 0.00902309 0.
0.585927 0.00902177 0.
0.587929 0.00902045 0.
0.589931 0.00901657 0.
0.591933 0.00901055 0.
0.593935 0.00900455 0.
0.595954 0.00901471 0.
0.597977 0.00902984 0.
0.6 0.009045 0.
0.602024 0.00902944 0.
0.604048 0.00901392 0.
0.606067 0.00900379 0.
0.60807 0.00901064 0.
0.610073 0.00901749 0.
0.612074 0.00902131 0.
0.614075 0.0090216 0.
0.616076 0.00902188 0.
0.618075 0.00902166 0.
0.620075 0.00902125 0.
0.622074 0.00902084 0.
0.624074 0.00902026 0.
0.626074 0.00901965 0.
0.628075 0.00901938 0.
0.630074 0.00902153 0.
0.632074 0.00902369 0.
0.634074 0.00902413 0.
0.636074 0.00902134 0.
0.638074 0.00901855 0.
0.640074 0.00901743 0.
0.642075 0.00901753 0.
0.644075 0.00901763 0.
0.646076 0.00901715 0.
0.648076 0.00901653 0.
0.650077 0.00901595 0.
0.652078 0.00901856 0.
0.654079 0.00902117 0.
0.65608 0.00902365 0.
0.65808 0.0090257 0.
0.66008 0.00902775 0.
0.662081 0.00902723 0.
0.664081 0.00902375 0.
0.666082 0.00902029 0.
0.668082 0.00901786 0.
0.670083 0.00901594 0.
0.672083 0.00901403 0.
0.674084 0.00901347 0.
0.676085 0.00901299 0.
0.678086 0.00901246 0.
0.680086 0.00901181 0.
0.682087 0.00901117 0.
0.684088 0.00901079 0.
0.686088 0.00901079 0.
0.688089 0.0090108 0.
0.690089 0.00901024 0.
0.69209 0.00900931 0.
0.69409 0.00900837 0.
0.696091 0.00900924 0.
0.698092 0.00901052 0.
0.499908 0.0110102 0.
0.501909 0.0110108 0.
0.503909 0.0110114 0.
0.50591 0.0110118 0.
0.50791 0.0110114 0.
0.50991 0.0110111 0.
0.511911 0.0110115 0.
0.513912 0.0110131 0.
0.515913 0.0110147 0.
0.517913 0.0110152 0.
0.519913 0.0110151 0.
0.521914 0.011015 0.
0.523915 0.0110153 0.
0.525916 0.0110157 0.
0.527917 0.011016 0.
0.529918 0.0110163 0.
0.531918 0.0110166 0.
0.533919 0.0110176 0.
0.535921 0.0110202 0.
0.537923 0.0110228 0.
0.539923 0.011023 0.
0.541923 0.0110211 0.
0.543924 0.0110192 0.
0.545924 0.011018 0.
0.547925 0.0110171 0.
0.549925 0.0110162 0.
0.551926 0.0110163 0.
0.553927 0.0110165 0.
0.555928 0.0110169 0.
0.557929 0.0110184 0.
0.55993 0.0110199 0.
0.561931 0.0110209 0.
0.563932 0.0110212 0.
0.565932 0.0110215 0.
0.567932 0.0110233 0.
0.569932 0.0110259 0.
0.571932 0.0110285 0.
0.573933 0.0110294 0.
0.575933 0.0110299 0.
0.577933 0.0110303 0.
0.579933 0.0110286 0.
0.581933 0.0110269 0.
0.583934 0.011025 0.
0.585937 0.0110229 0.
0.587941 0.0110207 0.
0.589944 0.0110168 0.
0.591948 0.0110115 0.
0.593951 0.0110063 0.
0.595966 0.0110156 0.
0.597983 0.0110293 0.
0.600001 0.0110429 0.
0.602019 0.0110287 0.
0.604036 0.0110145 0.
0.606051 0.0110052 0.
0.608055 0.0110118 0.
0.61006 0.0110184 0.
0.612063 0.0110224 0.
0.614065 0.0110233 0.
0.616067 0.0110243 0.
0.618068 0.0110242 0.
0.620068 0.0110237 0.
0.622069 0.0110232 0.
0.62407 0.0110228 0.
0.626071 0.0110223 0.
0.628072 0.0110223 0.
0.630072 0.0110254 0.
0.632073 0.0110285 0.
0.634073 0.0110294 0.
0.636073 0.0110263 0.
0.638072 0.0110231 0.
0.640072 0.0110217 0.
0.642073 0.0110216 0.
0.644073 0.0110214 0.
0.646074 0.0110206 0.
0.648075 0.0110195 0.
0.650077 0.0110186 0.
0.652078 0.0110222 0.
0.65408 0.0110258 0.
0.656081 0.0110291 0.
0.65808 0.0110313 0.
0.66008 0.0110335 0.
0.66208 0.0110328 0.
0.66408 0.0110289 0.
0.666081 0.0110249 0.
0.668081 0.0110219 0.
0.670082 0.0110193 0.
0.672082 0.0110167 0.
0.674084 0.0110163 0.
0.676085 0.0110161 0.
0.678086 0.0110157 0.
0.680086 0.0110147 0.
0.682087 0.0110136 0.
0.684087 0.011013 0.
0.686088 0.0110132 0.
0.688088 0.0110133 0.
0.690089 0.0110128 0.
0.692089 0.0110117 0.
0.69409 0.0110106 0.
0.69609 0.0110115 0.
0.698091 0.0110127 0.
0.499908 0.0130121 0.
0.501908 0.0130123 0.
0.503909 0.0130125 0.
0.50591 0.0130126 0.
0.507911 0.0130124 0.
0.509911 0.0130122 0.
0.511912 0.0130126 0.
0.513912 0.0130137 0.
0.515913 0.0130148 0.
0.517914 0.0130152 0.
0.519914 0.0130153 0.
0.521915 0.0130154 0.
0.523915 0.0130158 0.
0.525916 0.0130161 0.
0.527917 0.0130164 0.
0.529918 0.0130167 0.
0.531919 0.013017 0.
0.53392 0.0130179 0.
0.535921 0.01302 0.
0.537923 0.0130221 0.
0.539924 0.0130223 0.
0.541924 0.0130208 0.
0.543924 0.0130194 0.
0.545925 0.0130184 0.
0.547926 0.0130176 0.
0.549926 0.0130168 0.
0.551927 0.013017 0.
0.553928 0.0130172 0.
0.555929 0.0130176 0.
0.55793 0.0130188 0.
0.55993 0.01302 0.
0.561931 0.013021 0.
0.563932 0.0130217 0.
0.565933 0.0130224 0.
0.567934 0.0130236 0.
0.569935 0.013025 0.
0.571936 0.0130263 0.
0.573937 0.0130274 0.
0.575939 0.0130284 0.
0.57794 0.0130291 0.
0.579942 0.0130273 0.
0.581943 0.0130255 0.
0.583944 0.0130234 0.
0.585948 0.0130207 0.
0.587951 0.0130181 0.
0.589955 0.0130149 0.
0.591959 0.0130111 0.
0.593964 0.0130074 0.
0.595975 0.0130128 0.
0.597988 0.013021 0.
0.600002 0.0130292 0.
0.602015 0.0130204 0.
0.604027 0.0130117 0.
0.606038 0.0130061 0.
0.608043 0.0130109 0.
0.610048 0.0130157 0.
0.612052 0.0130191 0.
0.614055 0.0130209 0.
0.616058 0.0130227 0.
0.618059 0.0130232 0.
0.620061 0.0130231 0.
0.622062 0.013023 0.
0.624064 0.0130227 0.
0.626065 0.0130223 0.
0.628067 0.0130224 0.
0.630068 0.0130248 0.
0.632069 0.0130273 0.
0.63407 0.0130281 0.
0.63607 0.013026 0.
0.638071 0.0130239 0.
0.640072 0.0130228 0.
0.642072 0.0130224 0.
0.644072 0.0130221 0.
0.646073 0.0130215 0.
0.648074 0.0130207 0.
0.650075 0.01302 0.
0.652076 0.0130229 0.
0.654077 0.0130258 0.
0.656078 0.0130284 0.
0.658078 0.0130299 0.
0.660079 0.0130314 0.
0.662079 0.0130308 0.
0.664081 0.0130278 0.
0.666082 0.0130248 0.
0.668082 0.0130225 0.
0.670083 0.0130204 0.
0.672083 0.0130184 0.
0.674084 0.013018 0.
0.676084 0.0130177 0.
0.678085 0.0130173 0.
0.680085 0.0130162 0.
0.682086 0.0130152 0.
0.684086 0.0130145 0.
0.686087 0.0130147 0.
0.688087 0.0130149 0.
0.690088 0.0130144 0.
0.692088 0.0130136 0.
0.694089 0.0130127 0.
0.696089 0.0130132 0.
0.69809 0.0130141 0.
0.499907 0.0150141 0.
0.501908 0.0150139 0.
0.503909 0.0150137 0.
0.50591 0.0150135 0.
0.507911 0.0150135 0.
0.509912 0.0150134 0.
0.511913 0.0150137 0.
0.513913 0.0150143 0.
0.515914 0.0150149 0.
0.517914 0.0150152 0.
0.519915 0.0150155 0.
0.521916 0.0150159 0.
0.523916 0.0150162 0.
0.525917 0.0150165 0.
0.527917 0.0150169 0.
0.529918 0.0150172 0.
0.531919 0.0150175 0.
0.53392 0.0150182 0.
0.535921 0.0150198 0.
0.537923 0.0150213 0.
0.539924 0.0150216 0.
0.541924 0.0150206 0.
0.543925 0.0150196 0.
0.545926 0.0150188 0.
0.547927 0.0150181 0.
0.549927 0.0150175 0.
0.551928 0.0150177 0.
0.553929 0.0150179 0.
0.55593 0.0150182 0.
0.55793 0.0150192 0.
0.55993 0.0150201 0.
0.561931 0.0150211 0.
0.563933 0.0150222 0.
0.565934 0.0150234 0.
0.567936 0.0150238 0.
0.569938 0.015024 0.
0.571939 0.0150241 0.
0.573942 0.0150254 0.
0.575945 0.0150268 0.
0.577948 0.0150279 0.
0.57995 0.015026 0.
0.581952 0.015024 0.
0.583955 0.0150217 0.
0.585958 0.0150186 0.
0.587962 0.0150155 0.
0.589966 0.0150129 0.
0.591971 0.0150107 0.
0.593976 0.0150085 0.
0.595984 0.0150101 0.
0.597993 0.0150128 0.
0.600002 0.0150156 0.
0.602011 0.0150122 0.
0.604019 0.0150088 0.
0.606026 0.0150069 0.
0.608031 0.01501 0.
0.610036 0.0150131 0.
0.612041 0.0150159 0.
0.614044 0.0150185 0.
0.616048 0.0150212 0.
0.618051 0.0150222 0.
0.620053 0.0150225 0.
0.622056 0.0150228 0.
0.624058 0.0150226 0.
0.62606 0.0150223 0.
0.628062 0.0150224 0.
0.630063 0.0150242 0.
0.632065 0.015026 0.
0.634067 0.0150268 0.
0.636068 0.0150257 0.
0.63807 0.0150246 0.
0.640071 0.0150238 0.
0.642071 0.0150233 0.
0.644071 0.0150228 0.
0.646071 0.0150223 0.
0.648072 0.0150219 0.
0.650073 0.0150215 0.
0.652074 0.0150237 0.
0.654074 0.0150259 0.
0.656075 0.0150277 0.
0.658076 0.0150285 0.
0.660078 0.0150292 0.
0.662079 0.0150287 0.
0.664081 0.0150267 0.
0.666082 0.0150247 0.
0.668083 0.0150231 0.
0.670083 0.0150216 0.
0.672084 0.0150201 0.
0.674084 0.0150197 0.
0.676084 0.0150193 0.
0.678085 0.0150188 0.
0.680085 0.0150178 0.
0.682085 0.0150167 0.
0.684085 0.0150161 0.
0.686086 0.0150163 0.
0.688086 0.0150164 0.
0.690087 0.0150161 0.
0.692088 0.0150154 0.
0.694088 0.0150147 0.
0.696088 0.015015 0.
0.698089 0.0150155 0.
0.499908 0.0170158 0.
0.501909 0.0170155 0.
0.50391 0.017015 0.
0.505911 0.0170147 0.
0.507911 0.0170147 0.
0.509912 0.0170147 0.
0.511913 0.0170149 0.
0.513913 0.0170153 0.
0.515914 0.0170156 0.
0.517914 0.017016 0.
0.519915 0.0170163 0.
0.521915 0.0170167 0.
0.523916 0.017017 0.
0.525916 0.0170173 0.
0.527917 0.0170175 0.
0.529918 0.017018 0.
0.531919 0.0170184 0.
0.53392 0.017019 0.
0.535922 0.01702 0.
0.537923 0.017021 0.
0.539924 0.0170211 0.
0.541925 0.0170204 0.
0.543926 0.0170197 0.
0.545927 0.0170192 0.
0.547928 0.0170188 0.
0.549928 0.0170184 0.
0.551929 0.0170185 0.
0.55393 0.0170185 0.
0.55593 0.0170187 0.
0.557931 0.0170195 0.
0.559932 0.0170203 0.
0.561933 0.0170212 0.
0.563935 0.0170221 0.
0.565936 0.017023 0.
0.567938 0.0170234 0.
0.56994 0.0170235 0.
0.571942 0.0170236 0.
0.573944 0.0170246 0.
0.575947 0.0170256 0.
0.57795 0.0170264 0.
0.579953 0.0170246 0.
0.581956 0.0170228 0.
0.583959 0.0170205 0.
0.585963 0.0170173 0.
0.587966 0.0170141 0.
0.58997 0.0170117 0.
0.591974 0.0170098 0.
0.593979 0.0170079 0.
0.595986 0.0170088 0.
0.597994 0.0170105 0.
0.600002 0.0170123 0.
0.602009 0.01701 0.
0.604016 0.0170076 0.
0.606023 0.0170064 0.
0.608027 0.0170092 0.
0.610032 0.0170121 0.
0.612036 0.0170146 0.
0.61404 0.017017 0.
0.616044 0.0170193 0.
0.618047 0.0170205 0.
0.620049 0.0170211 0.
0.622052 0.0170218 0.
0.624054 0.017022 0.
0.626057 0.0170222 0.
0.628059 0.0170226 0.
0.630061 0.0170237 0.
0.632062 0.0170249 0.
0.634064 0.0170254 0.
0.636066 0.017025 0.
0.638068 0.0170245 0.
0.640069 0.0170241 0.
0.64207 0.0170238 0.
0.64407 0.0170234 0.
0.646071 0.0170231 0.
0.648072 0.0170227 0.
0.650073 0.0170224 0.
0.652073 0.0170242 0.
0.654074 0.017026 0.
0.656075 0.0170275 0.
0.658076 0.017028 0.
0.660077 0.0170285 0.
0.662079 0.0170282 0.
0.66408 0.0170269 0.
0.666081 0.0170257 0.
0.668082 0.0170243 0.
0.670083 0.017023 0.
0.672084 0.0170217 0.
0.674084 0.0170209 0.
0.676084 0.0170201 0.
0.678084 0.0170192 0.
0.680084 0.0170183 0.
0.682085 0.0170173 0.
0.684085 0.0170168 0.
0.686086 0.017017 0.
0.688086 0.0170173 0.
0.690087 0.0170172 0.
0.692087 0.0170169 0.
0.694088 0.0170165 0.
0.696088 0.0170166 0.
0.698088 0.0170168 0.
0.499909 0.0190176 0.
0.50191 0.0190171 0.
0.50391 0.0190164 0.
0.505911 0.0190158 0.
0.507912 0.0190159 0.
0.509912 0.019016 0.
0.511913 0.0190161 0.
0.513913 0.0190163 0.
0.515914 0.0190164 0.
0.517915 0.0190167 0.
0.519915 0.0190171 0.
0.521915 0.0190175 0.
0.523915 0.0190178 0.
0.525916 0.019018 0.
0.527917 0.0190182 0.
0.529918 0.0190188 0.
0.531919 0.0190193 0.
0.53392 0.0190198 0.
0.535922 0.0190203 0.
0.537924 0.0190207 0.
0.539925 0.0190206 0.
0.541926 0.0190202 0.
0.543927 0.0190198 0.
0.545928 0.0190196 0.
0.547928 0.0190195 0.
0.549929 0.0190193 0.
0.55193 0.0190193 0.
0.553931 0.0190192 0.
0.555931 0.0190192 0.
0.557933 0.0190199 0.
0.559934 0.0190205 0.
0.561936 0.0190213 0.
0.563937 0.019022 0.
0.565938 0.0190227 0.
0.56794 0.019023 0.
0.569942 0.0190231 0.
0.571944 0.0190231 0.
0.573946 0.0190237 0.
0.575949 0.0190244 0.
0.577952 0.0190249 0.
0.579956 0.0190232 0.
0.58196 0.0190215 0.
0.583963 0.0190193 0.
0.585967 0.019016 0.
0.58797 0.0190127 0.
0.589974 0.0190104 0.
0.591978 0.0190088 0.
0.593981 0.0190072 0.
0.595988 0.0190075 0.
0.597995 0.0190083 0.
0.600002 0.0190091 0.
0.602008 0.0190078 0.
0.604014 0.0190064 0.
0.606019 0.0190059 0.
0.608023 0.0190085 0.
0.610028 0.0190111 0.
0.612032 0.0190134 0.
0.614036 0.0190154 0.
0.61604 0.0190174 0.
0.618043 0.0190188 0.
0.620045 0.0190198 0.
0.622048 0.0190208 0.
0.624051 0.0190215 0.
0.626054 0.0190221 0.
0.628056 0.0190227 0.
0.630058 0.0190232 0.
0.63206 0.0190237 0.
0.634061 0.0190241 0.
0.636063 0.0190243 0.
0.638065 0.0190244 0.
0.640067 0.0190244 0.
0.642068 0.0190243 0.
0.64407 0.0190241 0.
0.64607 0.0190238 0.
0.648071 0.0190235 0.
0.650072 0.0190232 0.
0.652072 0.0190247 0.
0.654073 0.0190262 0.
0.656074 0.0190273 0.
0.658075 0.0190276 0.
0.660077 0.0190278 0.
0.662078 0.0190277 0.
0.664079 0.0190272 0.
0.666081 0.0190266 0.
0.668082 0.0190256 0.
0.670083 0.0190245 0.
0.672084 0.0190233 0.
0.674084 0.0190221 0.
0.676084 0.0190209 0.
0.678084 0.0190197 0.
0.680084 0.0190188 0.
0.682085 0.0190179 0.
0.684086 0.0190174 0.
0.686086 0.0190178 0.
0.688086 0.0190182 0.
0.690087 0.0190183 0.
0.692087 0.0190183 0.
0.694088 0.0190184 0.
0.696088 0.0190183 0.
0.698088 0.0190182 0.
0.49991 0.0210189 0.
0.50191 0.0210183 0.
0.503911 0.0210176 0.
0.505911 0.0210171 0.
0.507912 0.0210172 0.
0.509912 0.0210173 0.
0.511913 0.0210174 0.
0.513914 0.0210174 0.
0.515915 0.0210174 0.
0.517915 0.0210176 0.
0.519915 0.0210179 0.
0.521915 0.0210182 0.
0.523916 0.0210184 0.
0.525916 0.0210186 0.
0.527917 0.0210188 0.
0.529918 0.0210193 0.
0.531919 0.0210198 0.
0.533921 0.0210202 0.
0.535922 0.0210204 0.
0.537924 0.0210205 0.
0.539925 0.0210203 0.
0.541926 0.0210199 0.
0.543927 0.0210194 0.
0.545928 0.0210194 0.
0.547929 0.0210195 0.
0.54993 0.0210196 0.
0.551931 0.0210195 0.
0.553932 0.0210193 0.
0.555933 0.0210193 0.
0.557935 0.0210199 0.
0.559936 0.0210205 0.
0.561938 0.0210211 0.
0.563939 0.0210216 0.
0.56594 0.0210221 0.
0.567942 0.0210222 0.
0.569944 0.0210222 0.
0.571946 0.0210222 0.
0.573949 0.0210225 0.
0.575952 0.0210229 0.
0.577955 0.021023 0.
0.579959 0.0210213 0.
0.581963 0.0210197 0.
0.583966 0.0210175 0.
0.58597 0.0210145 0.
0.587973 0.0210115 0.
0.589977 0.0210093 0.
0.59198 0.021008 0.
0.593984 0.0210066 0.
0.595989 0.0210064 0.
0.597995 0.0210065 0.
0.600001 0.0210067 0.
0.602006 0.0210061 0.
0.604012 0.0210054 0.
0.606017 0.0210054 0.
0.60802 0.0210076 0.
0.610024 0.0210098 0.
0.612028 0.0210119 0.
0.614032 0.0210138 0.
0.616036 0.0210157 0.
0.618039 0.0210171 0.
0.620042 0.0210183 0.
0.622044 0.0210195 0.
0.624048 0.0210204 0.
0.626051 0.0210214 0.
0.628053 0.0210222 0.
0.630055 0.0210224 0.
0.632057 0.0210225 0.
0.634059 0.0210229 0.
0.636061 0.0210235 0.
0.638063 0.0210241 0.
0.640065 0.0210243 0.
0.642067 0.0210242 0.
0.644068 0.0210241 0.
0.646069 0.0210241 0.
0.64807 0.0210241 0.
0.65007 0.0210241 0.
0.652071 0.021025 0.
0.654072 0.0210259 0.
0.656073 0.0210266 0.
0.658075 0.0210269 0.
0.660076 0.0210273 0.
0.662077 0.0210274 0.
0.664079 0.0210272 0.
0.66608 0.021027 0.
0.668081 0.0210263 0.
0.670082 0.0210254 0.
0.672083 0.0210245 0.
0.674083 0.0210231 0.
0.676083 0.0210216 0.
0.678083 0.0210202 0.
0.680084 0.0210194 0.
0.682085 0.0210187 0.
0.684085 0.0210184 0.
0.686086 0.0210189 0.
0.688086 0.0210193 0.
0.690087 0.0210195 0.
0.692087 0.0210196 0.
0.694088 0.0210196 0.
0.696088 0.0210194 0.
0.698088 0.0210192 0.
0.49991 0.0230195 0.
0.501911 0.0230191 0.
0.503911 0.0230188 0.
0.505912 0.0230185 0.
0.507912 0.0230186 0.
0.509913 0.0230187 0.
0.511914 0.0230188 0.
0.513915 0.0230187 0.
0.515915 0.0230186 0.
0.517916 0.0230186 0.
0.519916 0.0230187 0.
0.521916 0.0230187 0.
0.523917 0.0230189 0.
0.525918 0.0230191 0.
0.527918 0.0230193 0.
0.52992 0.0230196 0.
0.531921 0.0230199 0.
0.533922 0.0230201 0.
0.535923 0.0230203 0.
0.537924 0.0230205 0.
0.539925 0.0230202 0.
0.541926 0.0230193 0.
0.543927 0.0230185 0.
0.545928 0.0230185 0.
0.547929 0.0230189 0.
0.54993 0.0230192 0.
0.551932 0.0230192 0.
0.553934 0.0230191 0.
0.555936 0.0230192 0.
0.557937 0.0230197 0.
0.559939 0.0230203 0.
0.56194 0.0230207 0.
0.563942 0.0230209 0.
0.565943 0.0230211 0.
0.567945 0.0230211 0.
0.569947 0.0230209 0.
0.571949 0.0230208 0.
0.573952 0.0230209 0.
0.575955 0.023021 0.
0.577958 0.0230209 0.
0.579962 0.023019 0.
0.581965 0.0230172 0.
0.583969 0.0230151 0.
0.585972 0.0230127 0.
0.587975 0.0230103 0.
0.589979 0.0230085 0.
0.591982 0.0230072 0.
0.593986 0.0230058 0.
0.59599 0.0230054 0.
0.597996 0.0230053 0.
0.600001 0.0230051 0.
0.602006 0.0230048 0.
0.60401 0.0230046 0.
0.606015 0.0230048 0.
0.608018 0.0230065 0.
0.610022 0.0230083 0.
0.612026 0.0230102 0.
0.614029 0.0230122 0.
0.616032 0.0230143 0.
0.618035 0.0230157 0.
0.620038 0.0230168 0.
0.622041 0.0230178 0.
0.624045 0.0230189 0.
0.626048 0.0230199 0.
0.628051 0.0230208 0.
0.630053 0.0230211 0.
0.632055 0.0230213 0.
0.634057 0.0230218 0.
0.636059 0.0230227 0.
0.638061 0.0230235 0.
0.640063 0.0230238 0.
0.642064 0.0230236 0.
0.644066 0.0230235 0.
0.646067 0.0230239 0.
0.648068 0.0230244 0.
0.650068 0.0230248 0.
0.652069 0.0230249 0.
0.654071 0.023025 0.
0.656072 0.0230253 0.
0.658073 0.0230261 0.
0.660075 0.0230269 0.
0.662077 0.0230272 0.
0.664078 0.023027 0.
0.666079 0.0230268 0.
0.66808 0.0230264 0.
0.670081 0.0230259 0.
0.672082 0.0230254 0.
0.674083 0.0230239 0.
0.676083 0.0230223 0.
0.678083 0.0230208 0.
0.680084 0.0230203 0.
0.682084 0.0230199 0.
0.684085 0.0230198 0.
0.686085 0.0230203 0.
0.688086 0.0230208 0.
0.690086 0.0230208 0.
0.692087 0.0230206 0.
0.694088 0.0230203 0.
0.696088 0.02302 0.
0.698088 0.0230197 0.
0.49991 0.0250202 0.
0.501911 0.02502 0.
0.503911 0.0250199 0.
0.505912 0.0250198 0.
0.507913 0.0250199 0.
0.509914 0.0250201 0.
0.511915 0.0250201 0.
0.513915 0.02502 0.
0.515916 0.0250199 0.
0.517916 0.0250197 0.
0.519917 0.0250194 0.
0.521917 0.0250192 0.
0.523918 0.0250194 0.
0.525919 0.0250196 0.
0.52792 0.0250197 0.
0.529921 0.0250198 0.
0.531923 0.0250199 0.
0.533924 0.02502 0.
0.535924 0.0250203 0.
0.537925 0.0250205 0.
0.539926 0.02502 0.
0.541927 0.0250188 0.
0.543928 0.0250175 0.
0.545929 0.0250177 0.
0.54793 0.0250182 0.
0.549931 0.0250188 0.
0.551933 0.0250189 0.
0.553936 0.0250189 0.
0.555938 0.025019 0.
0.55794 0.0250195 0.
0.559941 0.02502 0.
0.561942 0.0250203 0.
0.563944 0.0250202 0.
0.565946 0.0250201 0.
0.567948 0.0250199 0.
0.56995 0.0250196 0.
0.571952 0.0250194 0.
0.573955 0.0250192 0.
0.575958 0.0250191 0.
0.577962 0.0250187 0.
0.579965 0.0250167 0.
0.581968 0.0250148 0.
0.583971 0.0250128 0.
0.585974 0.0250109 0.
0.587977 0.0250091 0.
0.589981 0.0250076 0.
0.591984 0.0250064 0.
0.593987 0.0250051 0.
0.595992 0.0250045 0.
0.597996 0.025004 0.
0.600001 0.0250035 0.
0.602005 0.0250036 0.
0.604009 0.0250038 0.
0.606013 0.0250041 0.
0.608016 0.0250055 0.
0.61002 0.0250068 0.
0.612023 0.0250085 0.
0.614026 0.0250107 0.
0.616029 0.0250129 0.
0.618032 0.0250142 0.
0.620035 0.0250152 0.
0.622038 0.0250162 0.
0.624042 0.0250173 0.
0.626045 0.0250185 0.
0.628048 0.0250195 0.
0.630051 0.0250198 0.
0.632053 0.0250202 0.
0.634055 0.0250208 0.
0.636057 0.0250218 0.
0.638059 0.0250229 0.
0.64006 0.0250232 0.
0.642062 0.025023 0.
0.644064 0.0250228 0.
0.646065 0.0250236 0.
0.648065 0.0250246 0.
0.650066 0.0250255 0.
0.652068 0.0250249 0.
0.654069 0.0250242 0.
0.65607 0.025024 0.
0.658072 0.0250253 0.
0.660074 0.0250265 0.
0.662076 0.0250271 0.
0.664077 0.0250268 0.
0.666078 0.0250265 0.
0.668079 0.0250264 0.
0.67008 0.0250263 0.
0.672081 0.0250262 0.
0.674082 0.0250246 0.
0.676083 0.0250229 0.
0.678083 0.0250214 0.
0.680083 0.0250212 0.
0.682083 0.025021 0.
0.684084 0.0250211 0.
0.686085 0.0250217 0.
0.688086 0.0250223 0.
0.690086 0.0250221 0.
0.692087 0.0250215 0.
0.694087 0.0250209 0.
0.696088 0.0250206 0.
0.698088 0.0250203 0.
0.49991 0.0270212 0.
0.501911 0.0270208 0.
0.503912 0.0270205 0.
0.505912 0.0270202 0.
0.507913 0.0270202 0.
0.509914 0.0270203 0.
0.511914 0.0270203 0.
0.513915 0.0270202 0.
0.515915 0.02702 0.
0.517916 0.0270199 0.
0.519917 0.0270198 0.
0.521918 0.0270197 0.
0.523919 0.0270199 0.
0.52592 0.0270203 0.
0.527921 0.0270205 0.
0.529922 0.0270204 0.
0.531924 0.0270202 0.
0.533925 0.0270201 0.
0.535925 0.0270201 0.
0.537926 0.0270201 0.
0.539927 0.0270197 0.
0.541928 0.0270189 0.
0.543929 0.027018 0.
0.54593 0.027018 0.
0.547932 0.0270182 0.
0.549933 0.0270184 0.
0.551935 0.0270184 0.
0.553938 0.0270185 0.
0.55594 0.0270186 0.
0.557941 0.027019 0.
0.559943 0.0270193 0.
0.561944 0.0270194 0.
0.563946 0.0270192 0.
0.565948 0.027019 0.
0.56795 0.0270185 0.
0.569952 0.027018 0.
0.571953 0.0270174 0.
0.573957 0.0270172 0.
0.57596 0.027017 0.
0.577964 0.0270167 0.
0.579967 0.027015 0.
0.58197 0.0270133 0.
0.583973 0.0270115 0.
0.585976 0.0270095 0.
0.587979 0.0270076 0.
0.589982 0.0270061 0.
0.591985 0.0270048 0.
0.593988 0.0270036 0.
0.595992 0.0270031 0.
0.597996 0.0270029 0.
0.6 0.0270027 0.
0.602004 0.0270024 0.
0.604008 0.0270022 0.
0.606012 0.0270024 0.
0.608015 0.0270039 0.
0.610019 0.0270054 0.
0.612022 0.0270072 0.
0.614025 0.0270093 0.
0.616028 0.0270114 0.
0.618031 0.0270128 0.
0.620033 0.0270137 0.
0.622036 0.0270147 0.
0.624039 0.0270158 0.
0.626043 0.0270169 0.
0.628046 0.0270179 0.
0.630048 0.0270185 0.
0.63205 0.0270191 0.
0.634052 0.0270198 0.
0.636054 0.0270205 0.
0.638056 0.0270213 0.
0.640058 0.0270217 0.
0.64206 0.027022 0.
0.644062 0.0270222 0.
0.646063 0.0270229 0.
0.648064 0.0270238 0.
0.650066 0.0270245 0.
0.652067 0.027024 0.
0.654069 0.0270234 0.
0.65607 0.0270234 0.
0.658072 0.0270249 0.
0.660073 0.0270265 0.
0.662075 0.027027 0.
0.664076 0.0270265 0.
0.666077 0.027026 0.
0.668079 0.0270258 0.
0.67008 0.0270258 0.
0.672081 0.0270257 0.
0.674081 0.0270247 0.
0.676082 0.0270235 0.
0.678082 0.0270225 0.
0.680082 0.0270224 0.
0.682083 0.0270224 0.
0.684083 0.0270224 0.
0.686084 0.0270228 0.
0.688085 0.0270232 0.
0.690085 0.0270231 0.
0.692086 0.0270228 0.
0.694086 0.0270225 0.
0.696087 0.0270227 0.
0.698088 0.0270231 0.
0.49991 0.0290222 0.
0.501911 0.0290217 0.
0.503912 0.0290211 0.
0.505913 0.0290206 0.
0.507913 0.0290206 0.
0.509914 0.0290206 0.
0.511914 0.0290205 0.
0.513915 0.0290204 0.
0.515915 0.0290202 0.
0.517916 0.0290201 0.
0.519917 0.0290201 0.
0.521918 0.0290201 0.
0.523919 0.0290205 0.
0.52592 0.0290209 0.
0.527922 0.0290213 0.
0.529923 0.0290209 0.
0.531925 0.0290205 0.
0.533926 0.0290202 0.
0.535927 0.02902 0.
0.537927 0.0290197 0.
0.539928 0.0290194 0.
0.54193 0.0290189 0.
0.543931 0.0290185 0.
0.545932 0.0290183 0.
0.547933 0.0290181 0.
0.549935 0.029018 0.
0.551937 0.029018 0.
0.55394 0.0290181 0.
0.555942 0.0290181 0.
0.557943 0.0290184 0.
0.559945 0.0290186 0.
0.561946 0.0290186 0.
0.563948 0.0290183 0.
0.56595 0.0290179 0.
0.567952 0.0290172 0.
0.569953 0.0290163 0.
0.571955 0.0290155 0.
0.573959 0.0290152 0.
0.575962 0.029015 0.
0.577966 0.0290147 0.
0.579969 0.0290133 0.
0.581972 0.0290118 0.
0.583974 0.0290102 0.
0.585977 0.0290081 0.
0.58798 0.0290061 0.
0.589983 0.0290045 0.
0.591986 0.0290033 0.
0.593989 0.0290021 0.
0.595993 0.0290018 0.
0.597997 0.0290018 0.
0.6 0.0290018 0.
0.602004 0.0290013 0.
0.604008 0.0290007 0.
0.606012 0.0290007 0.
0.608015 0.0290023 0.
0.610017 0.029004 0.
0.61202 0.0290059 0.
0.614023 0.0290079 0.
0.616027 0.02901 0.
0.618029 0.0290113 0.
0.620032 0.0290123 0.
0.622034 0.0290132 0.
0.624037 0.0290143 0.
0.62604 0.0290153 0.
0.628044 0.0290163 0.
0.630045 0.0290171 0.
0.632047 0.029018 0.
0.634049 0.0290187 0.
0.636051 0.0290192 0.
0.638053 0.0290197 0.
0.640055 0.0290203 0.
0.642058 0.0290209 0.
0.64406 0.0290215 0.
0.646062 0.0290222 0.
0.648063 0.0290229 0.
0.650065 0.0290235 0.
0.652067 0.0290231 0.
0.654069 0.0290227 0.
0.65607 0.0290229 0.
0.658071 0.0290246 0.
0.660072 0.0290264 0.
0.662073 0.029027 0.
0.664075 0.0290262 0.
0.666076 0.0290255 0.
0.668078 0.0290252 0.
0.670079 0.0290252 0.
0.67208 0.0290252 0.
0.674081 0.0290247 0.
0.676081 0.0290241 0.
0.678081 0.0290236 0.
0.680082 0.0290237 0.
0.682082 0.0290237 0.
0.684083 0.0290238 0.
0.686083 0.0290239 0.
0.688084 0.0290241 0.
0.690085 0.0290241 0.
0.692085 0.029024 0.
0.694085 0.029024 0.
0.696086 0.0290248 0.
0.698088 0.0290259 0.
0.499911 0.0310235 0.
0.501912 0.0310228 0.
0.503913 0.031022 0.
0.505914 0.0310214 0.
0.507914 0.0310213 0.
0.509914 0.0310212 0.
0.511915 0.0310211 0.
0.513915 0.0310209 0.
0.515915 0.0310208 0.
0.517916 0.0310206 0.
0.519918 0.0310205 0.
0.521919 0.0310204 0.
0.52392 0.0310208 0.
0.525921 0.0310212 0.
0.527923 0.0310216 0.
0.529924 0.0310211 0.
0.531925 0.0310207 0.
0.533927 0.0310203 0.
0.535927 0.0310199 0.
0.537928 0.0310195 0.
0.539929 0.0310191 0.
0.541931 0.0310188 0.
0.543932 0.0310184 0.
0.545933 0.0310181 0.
0.547935 0.0310177 0.
0.549936 0.0310174 0.
0.551938 0.0310174 0.
0.553941 0.0310175 0.
0.555943 0.0310176 0.
0.557944 0.0310178 0.
0.559946 0.0310179 0.
0.561948 0.0310178 0.
0.563949 0.0310173 0.
0.565951 0.0310168 0.
0.567953 0.0310159 0.
0.569955 0.0310149 0.
0.571957 0.0310139 0.
0.57396 0.0310136 0.
0.575964 0.0310133 0.
0.577967 0.0310129 0.
0.57997 0.0310116 0.
0.581973 0.0310103 0.
0.583976 0.0310088 0.
0.585979 0.0310068 0.
0.587981 0.0310048 0.
0.589984 0.0310034 0.
0.591987 0.0310024 0.
0.593989 0.0310014 0.
0.595993 0.031001 0.
0.597997 0.0310009 0.
0.6 0.0310007 0.
0.602004 0.0310002 0.
0.604008 0.0309997 0.
0.606011 0.0309997 0.
0.608014 0.0310013 0.
0.610016 0.0310029 0.
0.612019 0.0310047 0.
0.614022 0.0310067 0.
0.616026 0.0310086 0.
0.618028 0.0310099 0.
0.62003 0.031011 0.
0.622033 0.031012 0.
0.624036 0.031013 0.
0.626039 0.0310139 0.
0.628042 0.0310148 0.
0.630044 0.0310158 0.
0.632046 0.0310168 0.
0.634048 0.0310177 0.
0.63605 0.0310181 0.
0.638052 0.0310186 0.
0.640054 0.0310192 0.
0.642056 0.03102 0.
0.644058 0.0310207 0.
0.64606 0.0310213 0.
0.648062 0.0310218 0.
0.650065 0.0310223 0.
0.652066 0.0310223 0.
0.654068 0.0310222 0.
0.656069 0.0310227 0.
0.65807 0.0310245 0.
0.660071 0.0310263 0.
0.662072 0.0310268 0.
0.664074 0.031026 0.
0.666075 0.0310252 0.
0.668077 0.0310249 0.
0.670078 0.0310249 0.
0.672079 0.031025 0.
0.67408 0.0310248 0.
0.67608 0.0310247 0.
0.67808 0.0310245 0.
0.680081 0.0310247 0.
0.682081 0.0310249 0.
0.684082 0.031025 0.
0.686083 0.031025 0.
0.688083 0.031025 0.
0.690084 0.0310251 0.
0.692084 0.0310251 0.
0.694084 0.0310251 0.
0.696085 0.0310262 0.
0.698087 0.0310274 0.
0.499913 0.033025 0.
0.501913 0.0330241 0.
0.503914 0.0330232 0.
0.505915 0.0330224 0.
0.507915 0.0330223 0.
0.509916 0.0330222 0.
0.511916 0.0330221 0.
0.513917 0.0330219 0.
0.515917 0.0330217 0.
0.517918 0.0330214 0.
0.51992 0.033021 0.
0.521921 0.0330206 0.
0.523922 0.0330208 0.
0.525923 0.0330212 0.
0.527924 0.0330214 0.
0.529925 0.033021 0.
0.531926 0.0330207 0.
0.533927 0.0330203 0.
0.535928 0.0330199 0.
0.537929 0.0330194 0.
0.53993 0.0330189 0.
0.541931 0.0330183 0.
0.543933 0.0330178 0.
0.545934 0.0330174 0.
0.547936 0.0330169 0.
0.549937 0.0330165 0.
0.551939 0.0330166 0.
0.553941 0.0330167 0.
0.555943 0.0330169 0.
0.557945 0.033017 0.
0.559946 0.0330172 0.
0.561948 0.033017 0.
0.56395 0.0330163 0.
0.565952 0.0330156 0.
0.567954 0.0330148 0.
0.569957 0.0330138 0.
0.571959 0.0330129 0.
0.573962 0.0330123 0.
0.575965 0.0330117 0.
0.577968 0.0330111 0.
0.579971 0.0330099 0.
0.581974 0.0330087 0.
0.583977 0.0330074 0.
0.585979 0.0330056 0.
0.587982 0.0330038 0.
0.589985 0.0330027 0.
0.591987 0.0330022 0.
0.59399 0.0330016 0.
0.595993 0.0330009 0.
0.597997 0.0330001 0.
0.6 0.0329994 0.
0.602004 0.0329993 0.
0.604007 0.0329992 0.
0.60601 0.0329994 0.
0.608013 0.0330007 0.
0.610016 0.0330021 0.
0.612019 0.0330037 0.
0.614022 0.0330055 0.
0.616025 0.0330074 0.
0.618028 0.0330087 0.
0.62003 0.0330099 0.
0.622032 0.0330111 0.
0.624035 0.0330119 0.
0.626038 0.0330126 0.
0.628041 0.0330134 0.
0.630043 0.0330145 0.
0.632045 0.0330156 0.
0.634047 0.0330166 0.
0.636049 0.0330173 0.
0.638051 0.033018 0.
0.640053 0.0330186 0.
0.642055 0.0330191 0.
0.644057 0.0330196 0.
0.646059 0.0330201 0.
0.648061 0.0330205 0.
0.650064 0.0330209 0.
0.652065 0.0330215 0.
0.654067 0.033022 0.
0.656068 0.0330229 0.
0.658069 0.0330245 0.
0.66007 0.0330262 0.
0.662071 0.0330266 0.
0.664072 0.0330258 0.
0.666074 0.033025 0.
0.668075 0.0330249 0.
0.670076 0.033025 0.
0.672077 0.0330251 0.
0.674078 0.0330252 0.
0.676079 0.0330252 0.
0.67808 0.0330252 0.
0.68008 0.0330255 0.
0.682081 0.0330258 0.
0.684081 0.033026 0.
0.686082 0.033026 0.
0.688083 0.033026 0.
0.690083 0.033026 0.
0.692083 0.033026 0.
0.694083 0.0330259 0.
0.696084 0.0330267 0.
0.698085 0.0330277 0.
0.499915 0.0350266 0.
0.501915 0.0350253 0.
0.503916 0.0350243 0.
0.505916 0.0350235 0.
0.507916 0.0350234 0.
0.509917 0.0350233 0.
0.511917 0.0350231 0.
0.513918 0.0350228 0.
0.515919 0.0350226 0.
0.51792 0.0350221 0.
0.519922 0.0350215 0.
0.521923 0.0350208 0.
0.523924 0.0350209 0.
0.525924 0.0350211 0.
0.527925 0.0350212 0.
0.529926 0.0350209 0.
0.531927 0.0350207 0.
0.533928 0.0350204 0.
0.535929 0.0350198 0.
0.537929 0.0350193 0.
0.53993 0.0350186 0.
0.541932 0.0350179 0.
0.543934 0.0350172 0.
0.545935 0.0350167 0.
0.547937 0.0350161 0.
0.549938 0.0350156 0.
0.55194 0.0350158 0.
0.553942 0.035016 0.
0.555944 0.0350162 0.
0.557945 0.0350163 0.
0.559947 0.0350165 0.
0.561949 0.0350162 0.
0.563951 0.0350154 0.
0.565953 0.0350145 0.
0.567955 0.0350136 0.
0.569958 0.0350127 0.
0.571961 0.0350118 0.
0.573963 0.035011 0.
0.575966 0.0350102 0.
0.577969 0.0350093 0.
0.579972 0.0350083 0.
0.581975 0.0350072 0.
0.583977 0.0350059 0.
0.58598 0.0350044 0.
0.587983 0.0350028 0.
0.589985 0.0350021 0.
0.591988 0.0350019 0.
0.59399 0.0350018 0.
0.595993 0.0350007 0.
0.597997 0.0349994 0.
0.6 0.0349981 0.
0.602003 0.0349984 0.
0.604006 0.0349987 0.
0.606009 0.0349991 0.
0.608012 0.0350002 0.
0.610015 0.0350012 0.
0.612018 0.0350026 0.
0.614021 0.0350043 0.
0.616024 0.0350061 0.
0.618027 0.0350075 0.
0.62003 0.0350088 0.
0.622032 0.0350101 0.
0.624035 0.0350108 0.
0.626037 0.0350114 0.
0.628039 0.035012 0.
0.630042 0.0350132 0.
0.632044 0.0350144 0.
0.634047 0.0350155 0.
0.636049 0.0350164 0.
0.638051 0.0350174 0.
0.640053 0.035018 0.
0.642054 0.0350183 0.
0.644055 0.0350186 0.
0.646058 0.0350189 0.
0.64806 0.0350192 0.
0.650063 0.0350195 0.
0.652064 0.0350206 0.
0.654065 0.0350218 0.
0.656067 0.0350231 0.
0.658068 0.0350246 0.
0.660069 0.035026 0.
0.66207 0.0350264 0.
0.664071 0.0350257 0.
0.666072 0.0350249 0.
0.668073 0.0350248 0.
0.670074 0.035025 0.
0.672075 0.0350252 0.
0.674076 0.0350255 0.
0.676078 0.0350256 0.
0.678079 0.0350259 0.
0.68008 0.0350263 0.
0.68208 0.0350268 0.
0.684081 0.035027 0.
0.686081 0.035027 0.
0.688082 0.0350269 0.
0.690082 0.0350269 0.
0.692082 0.0350268 0.
0.694082 0.0350268 0.
0.696083 0.0350274 0.
0.698083 0.0350281 0.
0.499916 0.0370273 0.
0.501916 0.0370265 0.
0.503917 0.0370256 0.
0.505917 0.0370249 0.
0.507918 0.0370244 0.
0.509918 0.0370239 0.
0.511918 0.0370236 0.
0.513919 0.0370233 0.
0.51592 0.037023 0.
0.517921 0.0370226 0.
0.519922 0.0370219 0.
0.521924 0.0370212 0.
0.523924 0.0370211 0.
0.525925 0.0370212 0.
0.527926 0.0370211 0.
0.529927 0.0370211 0.
0.531928 0.037021 0.
0.533929 0.0370206 0.
0.53593 0.0370197 0.
0.537931 0.0370187 0.
0.539932 0.037018 0.
0.541934 0.0370174 0.
0.543935 0.0370168 0.
0.545936 0.0370162 0.
0.547938 0.0370157 0.
0.549939 0.0370152 0.
0.551941 0.0370153 0.
0.553943 0.0370154 0.
0.555945 0.0370154 0.
0.557946 0.0370154 0.
0.559948 0.0370154 0.
0.56195 0.0370149 0.
0.563952 0.0370138 0.
0.565954 0.0370126 0.
0.567957 0.0370119 0.
0.569959 0.0370114 0.
0.571962 0.0370108 0.
0.573965 0.03701 0.
0.575967 0.0370091 0.
0.57797 0.0370081 0.
0.579973 0.0370069 0.
0.581976 0.0370056 0.
0.583978 0.0370044 0.
0.585981 0.0370033 0.
0.587984 0.0370021 0.
0.589986 0.0370013 0.
0.591988 0.0370007 0.
0.593991 0.0370001 0.
0.595994 0.0369993 0.
0.597997 0.0369985 0.
0.600001 0.0369977 0.
0.602004 0.0369978 0.
0.604007 0.036998 0.
0.60601 0.0369983 0.
0.608012 0.0369991 0.
0.610015 0.0369999 0.
0.612017 0.0370012 0.
0.61402 0.0370031 0.
0.616023 0.0370051 0.
0.618026 0.0370065 0.
0.620029 0.0370077 0.
0.622031 0.0370089 0.
0.624034 0.0370094 0.
0.626036 0.0370099 0.
0.628039 0.0370104 0.
0.630041 0.0370118 0.
0.632043 0.0370131 0.
0.634045 0.0370143 0.
0.636048 0.0370155 0.
0.63805 0.0370167 0.
0.640052 0.0370173 0.
0.642053 0.0370176 0.
0.644055 0.0370178 0.
0.646057 0.0370182 0.
0.64806 0.0370186 0.
0.650062 0.0370189 0.
0.652063 0.0370201 0.
0.654064 0.0370212 0.
0.656065 0.0370224 0.
0.658066 0.0370237 0.
0.660068 0.037025 0.
0.662069 0.0370255 0.
0.66407 0.0370252 0.
0.666071 0.0370249 0.
0.668072 0.0370249 0.
0.670073 0.037025 0.
0.672074 0.0370251 0.
0.674076 0.0370255 0.
0.676077 0.0370259 0.
0.678078 0.0370263 0.
0.680078 0.0370267 0.
0.682079 0.0370271 0.
0.684079 0.0370274 0.
0.68608 0.0370274 0.
0.688081 0.0370274 0.
0.690081 0.0370275 0.
0.692081 0.0370275 0.
0.694081 0.0370276 0.
0.696082 0.0370281 0.
0.698082 0.0370288 0.
0.499917 0.039028 0.
0.501918 0.0390276 0.
0.503918 0.039027 0.
0.505919 0.0390263 0.
0.507919 0.0390254 0.
0.509919 0.0390246 0.
0.51192 0.039024 0.
0.51392 0.0390238 0.
0.515921 0.0390235 0.
0.517922 0.039023 0.
0.519923 0.0390223 0.
0.521924 0.0390216 0.
0.523925 0.0390214 0.
0.525926 0.0390213 0.
0.527927 0.0390211 0.
0.529928 0.0390212 0.
0.531929 0.0390212 0.
0.53393 0.0390209 0.
0.535932 0.0390195 0.
0.537933 0.0390182 0.
0.539934 0.0390173 0.
0.541935 0.0390168 0.
0.543936 0.0390163 0.
0.545937 0.0390158 0.
0.547939 0.0390153 0.
0.54994 0.0390147 0.
0.551942 0.0390147 0.
0.553944 0.0390147 0.
0.555946 0.0390147 0.
0.557948 0.0390145 0.
0.559949 0.0390142 0.
0.561951 0.0390135 0.
0.563953 0.0390122 0.
0.565956 0.0390108 0.
0.567958 0.0390102 0.
0.56996 0.03901 0.
0.571963 0.0390098 0.
0.573966 0.039009 0.
0.575969 0.039008 0.
0.577972 0.0390069 0.
0.579974 0.0390055 0.
0.581977 0.0390041 0.
0.583979 0.0390029 0.
0.585982 0.0390022 0.
0.587985 0.0390014 0.
0.589987 0.0390005 0.
0.591989 0.0389994 0.
0.593991 0.0389984 0.
0.595995 0.0389979 0.
0.597998 0.0389976 0.
0.600002 0.0389973 0.
0.602004 0.0389973 0.
0.604007 0.0389974 0.
0.60601 0.0389976 0.
0.608012 0.0389981 0.
0.610014 0.0389985 0.
0.612017 0.0389998 0.
0.61402 0.0390019 0.
0.616022 0.039004 0.
0.618025 0.0390055 0.
0.620028 0.0390066 0.
0.622031 0.0390077 0.
0.624033 0.0390081 0.
0.626036 0.0390084 0.
0.628039 0.0390088 0.
0.63004 0.0390103 0.
0.632042 0.0390118 0.
0.634044 0.0390132 0.
0.636046 0.0390146 0.
0.638048 0.039016 0.
0.640051 0.0390167 0.
0.642053 0.0390169 0.
0.644055 0.0390171 0.
0.646057 0.0390175 0.
0.648059 0.0390179 0.
0.650061 0.0390184 0.
0.652061 0.0390195 0.
0.654062 0.0390206 0.
0.656063 0.0390217 0.
0.658065 0.0390229 0.
0.660067 0.039024 0.
0.662068 0.0390246 0.
0.664069 0.0390247 0.
0.666071 0.0390248 0.
0.668072 0.0390249 0.
0.670073 0.0390249 0.
0.672074 0.039025 0.
0.674075 0.0390256 0.
0.676076 0.0390262 0.
0.678077 0.0390268 0.
0.680077 0.0390271 0.
0.682078 0.0390275 0.
0.684078 0.0390277 0.
0.686079 0.0390278 0.
0.688079 0.039028 0.
0.69008 0.0390281 0.
0.69208 0.0390282 0.
0.694081 0.0390284 0.
0.696081 0.0390289 0.
0.698081 0.0390295 0.
0.499918 0.0410292 0.
0.501919 0.0410289 0.
0.50392 0.0410283 0.
0.50592 0.0410276 0.
0.50792 0.0410265 0.
0.50992 0.0410254 0.
0.511921 0.0410246 0.
0.513922 0.0410243 0.
0.515922 0.041024 0.
0.517923 0.0410235 0.
0.519924 0.041023 0.
0.521925 0.0410225 0.
0.523926 0.041022 0.
0.525927 0.0410215 0.
0.527928 0.0410211 0.
0.529929 0.0410211 0.
0.531931 0.0410211 0.
0.533932 0.0410207 0.
0.535933 0.0410194 0.
0.537934 0.0410181 0.
0.539935 0.0410172 0.
0.541936 0.0410168 0.
0.543937 0.0410165 0.
0.545938 0.0410159 0.
0.54794 0.0410151 0.
0.549941 0.0410144 0.
0.551943 0.0410143 0.
0.553945 0.0410141 0.
0.555947 0.0410139 0.
0.557949 0.0410135 0.
0.55995 0.0410131 0.
0.561952 0.0410123 0.
0.563954 0.0410109 0.
0.565957 0.0410094 0.
0.567959 0.0410088 0.
0.569961 0.0410088 0.
0.571963 0.0410087 0.
0.573966 0.0410078 0.
0.575969 0.0410067 0.
0.577973 0.0410055 0.
0.579975 0.0410041 0.
0.581977 0.0410027 0.
0.58398 0.0410016 0.
0.585982 0.0410011 0.
0.587985 0.0410006 0.
0.589988 0.0409997 0.
0.59199 0.0409985 0.
0.593992 0.0409974 0.
0.595995 0.040997 0.
0.597998 0.040997 0.
0.600002 0.0409969 0.
0.602004 0.0409968 0.
0.604007 0.0409968 0.
0.60601 0.0409968 0.
0.608012 0.0409972 0.
0.610014 0.0409975 0.
0.612016 0.0409986 0.
0.614019 0.0410006 0.
0.616021 0.0410026 0.
0.618024 0.041004 0.
0.620027 0.0410052 0.
0.62203 0.0410063 0.
0.624033 0.0410068 0.
0.626035 0.0410071 0.
0.628038 0.0410077 0.
0.630039 0.0410093 0.
0.632041 0.041011 0.
0.634043 0.0410124 0.
0.636045 0.0410135 0.
0.638047 0.0410146 0.
0.640049 0.0410154 0.
0.642052 0.0410158 0.
0.644054 0.0410163 0.
0.646056 0.0410168 0.
0.648058 0.0410173 0.
0.650059 0.0410178 0.
0.65206 0.0410189 0.
0.654061 0.0410199 0.
0.656062 0.041021 0.
0.658064 0.0410221 0.
0.660065 0.0410232 0.
0.662067 0.0410239 0.
0.664068 0.0410241 0.
0.66607 0.0410243 0.
0.668071 0.0410246 0.
0.670072 0.041025 0.
0.672073 0.0410253 0.
0.674074 0.0410259 0.
0.676075 0.0410264 0.
0.678076 0.0410269 0.
0.680076 0.0410273 0.
0.682077 0.0410276 0.
0.684077 0.0410279 0.
0.686078 0.0410282 0.
0.688079 0.0410285 0.
0.690079 0.0410288 0.
0.69208 0.0410291 0.
0.69408 0.0410293 0.
0.69608 0.0410299 0.
0.698081 0.0410305 0.
0.499919 0.0430308 0.
0.50192 0.0430302 0.
0.503921 0.0430295 0.
0.505921 0.0430287 0.
0.507922 0.0430275 0.
0.509922 0.0430263 0.
0.511922 0.0430254 0.
0.513923 0.0430249 0.
0.515924 0.0430243 0.
0.517925 0.043024 0.
0.519926 0.0430238 0.
0.521927 0.0430237 0.
0.523928 0.0430229 0.
0.525929 0.0430219 0.
0.52793 0.043021 0.
0.529931 0.0430208 0.
0.531932 0.0430206 0.
0.533933 0.0430201 0.
0.535934 0.0430192 0.
0.537935 0.0430183 0.
0.539936 0.0430177 0.
0.541937 0.0430174 0.
0.543938 0.0430171 0.
0.545939 0.0430163 0.
0.54794 0.0430153 0.
0.549941 0.0430143 0.
0.551944 0.0430139 0.
0.553946 0.0430135 0.
0.555949 0.043013 0.
0.55795 0.0430126 0.
0.559952 0.0430121 0.
0.561953 0.0430112 0.
0.563955 0.0430098 0.
0.565957 0.0430084 0.
0.567959 0.0430078 0.
0.569961 0.0430076 0.
0.571963 0.0430075 0.
0.573966 0.0430064 0.
0.57597 0.0430051 0.
0.577973 0.0430039 0.
0.579975 0.0430027 0.
0.581978 0.0430015 0.
0.58398 0.0430005 0.
0.585983 0.043 0.
0.587986 0.0429995 0.
0.589988 0.0429989 0.
0.59199 0.042998 0.
0.593993 0.0429971 0.
0.595995 0.0429968 0.
0.597998 0.0429966 0.
0.600001 0.0429965 0.
0.602004 0.0429963 0.
0.604007 0.0429962 0.
0.606009 0.0429962 0.
0.608011 0.0429965 0.
0.610013 0.0429969 0.
0.612015 0.0429977 0.
0.614018 0.0429993 0.
0.616021 0.0430008 0.
0.618023 0.0430022 0.
0.620026 0.0430035 0.
0.622029 0.0430048 0.
0.624031 0.0430055 0.
0.626034 0.0430061 0.
0.628036 0.0430068 0.
0.630038 0.0430088 0.
0.63204 0.0430107 0.
0.634041 0.043012 0.
0.636043 0.0430124 0.
0.638045 0.0430127 0.
0.640048 0.0430134 0.
0.64205 0.0430144 0.
0.644052 0.0430153 0.
0.646054 0.043016 0.
0.648056 0.0430166 0.
0.650058 0.0430171 0.
0.652059 0.0430181 0.
0.65406 0.0430191 0.
0.656061 0.0430201 0.
0.658062 0.0430213 0.
0.660064 0.0430226 0.
0.662066 0.0430233 0.
0.664067 0.0430234 0.
0.666068 0.0430235 0.
0.668069 0.0430242 0.
0.670071 0.0430251 0.
0.672072 0.0430261 0.
0.674073 0.0430264 0.
0.676074 0.0430266 0.
0.678074 0.0430269 0.
0.680075 0.0430272 0.
0.682076 0.0430275 0.
0.684077 0.0430279 0.
0.686078 0.0430285 0.
0.688079 0.043029 0.
0.690079 0.0430295 0.
0.692079 0.04303 0.
0.69408 0.0430304 0.
0.69608 0.043031 0.
0.69808 0.0430317 0.
0.499921 0.0450325 0.
0.501921 0.0450316 0.
0.503922 0.0450308 0.
0.505923 0.0450299 0.
0.507923 0.0450286 0.
0.509923 0.0450273 0.
0.511924 0.0450262 0.
0.513925 0.0450254 0.
0.515926 0.0450247 0.
0.517927 0.0450245 0.
0.519928 0.0450247 0.
0.521929 0.0450249 0.
0.52393 0.0450237 0.
0.525931 0.0450223 0.
0.527932 0.045021 0.
0.529933 0.0450206 0.
0.531934 0.0450201 0.
0.533935 0.0450196 0.
0.535935 0.045019 0.
0.537935 0.0450185 0.
0.539936 0.0450181 0.
0.541938 0.045018 0.
0.543939 0.0450178 0.
0.54594 0.0450168 0.
0.547941 0.0450155 0.
0.549941 0.0450142 0.
0.551944 0.0450135 0.
0.553947 0.0450128 0.
0.55595 0.0450122 0.
0.557951 0.0450116 0.
0.559953 0.0450111 0.
0.561955 0.0450101 0.
0.563956 0.0450088 0.
0.565957 0.0450074 0.
0.567959 0.0450068 0.
0.569961 0.0450065 0.
0.571963 0.0450062 0.
0.573966 0.045005 0.
0.57597 0.0450036 0.
0.577974 0.0450023 0.
0.579976 0.0450013 0.
0.581978 0.0450003 0.
0.58398 0.0449994 0.
0.585983 0.044999 0.
0.587986 0.0449985 0.
0.589989 0.044998 0.
0.591991 0.0449975 0.
0.593993 0.0449969 0.
0.595996 0.0449966 0.
0.597998 0.0449963 0.
0.6 0.0449961 0.
0.602003 0.0449958 0.
0.604006 0.0449956 0.
0.606009 0.0449955 0.
0.608011 0.0449958 0.
0.610013 0.0449962 0.
0.612015 0.0449969 0.
0.614017 0.0449979 0.
0.61602 0.044999 0.
0.618023 0.0450003 0.
0.620025 0.0450018 0.
0.622028 0.0450033 0.
0.62403 0.0450042 0.
0.626032 0.045005 0.
0.628035 0.045006 0.
0.630036 0.0450082 0.
0.632038 0.0450104 0.
0.63404 0.0450116 0.
0.636042 0.0450112 0.
0.638044 0.0450107 0.
0.640046 0.0450114 0.
0.642048 0.0450129 0.
0.64405 0.0450145 0.
0.646052 0.0450152 0.
0.648054 0.0450158 0.
0.650056 0.0450164 0.
0.652057 0.0450174 0.
0.654058 0.0450183 0.
0.656059 0.0450193 0.
0.658061 0.0450206 0.
0.660063 0.045022 0.
0.662064 0.0450226 0.
0.664065 0.0450226 0.
0.666067 0.0450226 0.
0.668068 0.0450237 0.
0.670069 0.0450252 0.
0.672071 0.0450268 0.
0.674072 0.0450269 0.
0.676072 0.0450268 0.
0.678073 0.0450268 0.
0.680074 0.0450271 0.
0.682075 0.0450274 0.
0.684076 0.0450279 0.
0.686077 0.0450288 0.
0.688078 0.0450296 0.
0.690079 0.0450303 0.
0.692079 0.0450309 0.
0.694079 0.0450315 0.
0.69608 0.0450322 0.
0.69808 0.0450329 0.
0.499922 0.0470334 0.
0.501923 0.0470323 0.
0.503923 0.047031 0.
0.505924 0.0470299 0.
0.507924 0.0470287 0.
0.509924 0.0470276 0.
0.511925 0.0470265 0.
0.513926 0.0470256 0.
0.515927 0.0470247 0.
0.517928 0.0470243 0.
0.519929 0.0470242 0.
0.521929 0.0470242 0.
0.523931 0.0470233 0.
0.525932 0.0470222 0.
0.527933 0.0470212 0.
0.529934 0.0470208 0.
0.531935 0.0470203 0.
0.533936 0.0470198 0.
0.535937 0.0470192 0.
0.537937 0.0470186 0.
0.539938 0.047018 0.
0.54194 0.0470174 0.
0.543941 0.0470168 0.
0.545942 0.0470159 0.
0.547943 0.047015 0.
0.549944 0.047014 0.
0.551946 0.0470131 0.
0.553949 0.0470121 0.
0.555951 0.0470111 0.
0.557953 0.0470104 0.
0.559954 0.0470097 0.
0.561956 0.0470088 0.
0.563958 0.0470079 0.
0.565959 0.0470069 0.
0.567961 0.0470062 0.
0.569963 0.0470057 0.
0.571965 0.0470051 0.
0.573968 0.0470038 0.
0.575972 0.0470024 0.
0.577975 0.047001 0.
0.579977 0.0469999 0.
0.581979 0.0469988 0.
0.583981 0.0469979 0.
0.585983 0.0469974 0.
0.587986 0.046997 0.
0.589988 0.0469964 0.
0.59199 0.0469958 0.
0.593993 0.0469952 0.
0.595995 0.0469951 0.
0.597998 0.0469951 0.
0.600001 0.0469951 0.
0.602003 0.0469949 0.
0.604006 0.0469947 0.
0.606009 0.0469946 0.
0.60801 0.0469948 0.
0.610012 0.046995 0.
0.612014 0.0469957 0.
0.614017 0.0469969 0.
0.616019 0.0469981 0.
0.618022 0.0469996 0.
0.620024 0.047001 0.
0.622026 0.0470025 0.
0.624029 0.0470033 0.
0.626032 0.0470041 0.
0.628034 0.0470049 0.
0.630036 0.0470068 0.
0.632038 0.0470087 0.
0.63404 0.0470099 0.
0.636042 0.0470099 0.
0.638044 0.0470099 0.
0.640046 0.0470107 0.
0.642048 0.0470121 0.
0.644049 0.0470134 0.
0.646051 0.0470144 0.
0.648053 0.0470153 0.
0.650055 0.0470162 0.
0.652056 0.047017 0.
0.654057 0.0470178 0.
0.656058 0.0470187 0.
0.658059 0.0470201 0.
0.660061 0.0470215 0.
0.662062 0.0470221 0.
0.664064 0.047022 0.
0.666065 0.0470218 0.
0.668067 0.047023 0.
0.670068 0.0470246 0.
0.672069 0.0470263 0.
0.67407 0.0470265 0.
0.676071 0.0470266 0.
0.678072 0.0470268 0.
0.680073 0.0470272 0.
0.682074 0.0470277 0.
0.684075 0.0470284 0.
0.686076 0.0470296 0.
0.688077 0.0470308 0.
0.690077 0.0470316 0.
0.692078 0.0470321 0.
0.694078 0.0470326 0.
0.696078 0.0470333 0.
0.698078 0.0470342 0.
0.499923 0.0490345 0.
0.501924 0.0490329 0.
0.503924 0.0490313 0.
0.505925 0.0490298 0.
0.507925 0.0490288 0.
0.509926 0.0490279 0.
0.511926 0.0490269 0.
0.513927 0.0490258 0.
0.515928 0.0490247 0.
0.517929 0.0490241 0.
0.51993 0.0490238 0.
0.52193 0.0490234 0.
0.523932 0.0490228 0.
0.525933 0.0490221 0.
0.527935 0.0490214 0.
0.529936 0.049021 0.
0.531937 0.0490206 0.
0.533938 0.0490201 0.
0.535939 0.0490194 0.
0.537939 0.0490187 0.
0.53994 0.0490179 0.
0.541942 0.0490168 0.
0.543943 0.0490157 0.
0.545944 0.049015 0.
0.547945 0.0490144 0.
0.549946 0.0490139 0.
0.551948 0.0490126 0.
0.55395 0.0490113 0.
0.555952 0.0490101 0.
0.557954 0.0490092 0.
0.559956 0.0490083 0.
0.561958 0.0490075 0.
0.563959 0.0490069 0.
0.565961 0.0490063 0.
0.567963 0.0490056 0.
0.569965 0.0490048 0.
0.571968 0.0490041 0.
0.57397 0.0490027 0.
0.575973 0.0490011 0.
0.577976 0.0489997 0.
0.579977 0.0489985 0.
0.581979 0.0489973 0.
0.583981 0.0489964 0.
0.585983 0.0489959 0.
0.587985 0.0489954 0.
0.589988 0.0489948 0.
0.59199 0.0489941 0.
0.593992 0.0489935 0.
0.595995 0.0489935 0.
0.597998 0.0489938 0.
0.600001 0.0489941 0.
0.602004 0.0489939 0.
0.604006 0.0489938 0.
0.606008 0.0489936 0.
0.60801 0.0489937 0.
0.610012 0.0489938 0.
0.612014 0.0489945 0.
0.614016 0.0489959 0.
0.616019 0.0489973 0.
0.618021 0.0489988 0.
0.620023 0.0490002 0.
0.622025 0.0490017 0.
0.624028 0.0490025 0.
0.626031 0.0490031 0.
0.628033 0.0490039 0.
0.630035 0.0490055 0.
0.632038 0.0490071 0.
0.63404 0.0490083 0.
0.636042 0.0490087 0.
0.638044 0.0490091 0.
0.640046 0.04901 0.
0.642047 0.0490112 0.
0.644048 0.0490124 0.
0.64605 0.0490135 0.
0.648052 0.0490147 0.
0.650054 0.0490159 0.
0.652055 0.0490166 0.
0.654056 0.0490173 0.
0.656057 0.0490182 0.
0.658058 0.0490196 0.
0.660058 0.049021 0.
0.66206 0.0490216 0.
0.664062 0.0490213 0.
0.666064 0.049021 0.
0.668065 0.0490222 0.
0.670066 0.049024 0.
0.672067 0.0490258 0.
0.674068 0.0490262 0.
0.67607 0.0490264 0.
0.678071 0.0490267 0.
0.680072 0.0490273 0.
0.682073 0.0490279 0.
0.684074 0.0490289 0.
0.686075 0.0490304 0.
0.688075 0.049032 0.
0.690076 0.0490328 0.
0.692076 0.0490332 0.
0.694076 0.0490336 0.
0.696077 0.0490345 0.
0.698077 0.0490355 0.
0.499925 0.0510358 0.
0.501925 0.0510338 0.
0.503925 0.0510318 0.
0.505926 0.0510301 0.
0.507927 0.0510293 0.
0.509927 0.0510284 0.
0.511928 0.0510275 0.
0.513929 0.0510263 0.
0.515929 0.0510251 0.
0.51793 0.0510242 0.
0.519931 0.0510235 0.
0.521931 0.0510228 0.
0.523933 0.0510224 0.
0.525934 0.051022 0.
0.527936 0.0510217 0.
0.529937 0.0510211 0.
0.531938 0.0510205 0.
0.533939 0.0510199 0.
0.53594 0.0510192 0.
0.537941 0.0510185 0.
0.539942 0.0510175 0.
0.541943 0.0510164 0.
0.543944 0.0510152 0.
0.545945 0.0510146 0.
0.547946 0.0510141 0.
0.549948 0.0510136 0.
0.55195 0.0510121 0.
0.553952 0.0510105 0.
0.555953 0.0510091 0.
0.557955 0.0510082 0.
0.559957 0.0510074 0.
0.561959 0.0510067 0.
0.563961 0.0510061 0.
0.565962 0.0510054 0.
0.567964 0.0510046 0.
0.569967 0.0510036 0.
0.571969 0.0510027 0.
0.573972 0.0510014 0.
0.575974 0.051 0.
0.577976 0.0509986 0.
0.579978 0.0509976 0.
0.58198 0.0509966 0.
0.583982 0.0509957 0.
0.585984 0.050995 0.
0.587986 0.0509943 0.
0.589988 0.0509937 0.
0.59199 0.050993 0.
0.593992 0.0509924 0.
0.595995 0.0509925 0.
0.597998 0.0509927 0.
0.600001 0.0509929 0.
0.602004 0.0509928 0.
0.604006 0.0509927 0.
0.606008 0.0509926 0.
0.60801 0.0509928 0.
0.610012 0.050993 0.
0.612013 0.0509938 0.
0.614016 0.0509951 0.
0.616018 0.0509965 0.
0.61802 0.0509978 0.
0.620022 0.0509992 0.
0.622024 0.0510007 0.
0.624027 0.0510015 0.
0.62603 0.0510022 0.
0.628033 0.0510031 0.
0.630035 0.0510042 0.
0.632037 0.0510054 0.
0.634039 0.0510065 0.
0.636041 0.0510074 0.
0.638043 0.0510083 0.
0.640045 0.0510094 0.
0.642046 0.0510105 0.
0.644047 0.0510116 0.
0.646049 0.0510128 0.
0.648051 0.0510141 0.
0.650053 0.0510154 0.
0.652054 0.0510161 0.
0.654055 0.0510169 0.
0.656056 0.0510178 0.
0.658057 0.0510192 0.
0.660057 0.0510205 0.
0.662059 0.0510211 0.
0.66406 0.0510209 0.
0.666062 0.0510208 0.
0.668063 0.0510218 0.
0.670064 0.0510235 0.
0.672065 0.0510251 0.
0.674067 0.0510257 0.
0.676068 0.0510262 0.
0.67807 0.0510267 0.
0.680071 0.0510274 0.
0.682072 0.0510282 0.
0.684073 0.0510292 0.
0.686073 0.0510309 0.
0.688074 0.0510325 0.
0.690074 0.0510335 0.
0.692075 0.0510341 0.
0.694075 0.0510347 0.
0.696075 0.0510359 0.
0.698076 0.0510373 0.
0.499926 0.0530372 0.
0.501927 0.0530349 0.
0.503927 0.0530327 0.
0.505928 0.0530307 0.
0.507928 0.05303 0.
0.509929 0.0530292 0.
0.51193 0.0530282 0.
0.51393 0.053027 0.
0.515931 0.0530258 0.
0.517931 0.0530246 0.
0.519932 0.0530234 0.
0.521933 0.0530222 0.
0.523934 0.0530221 0.
0.525935 0.0530221 0.
0.527937 0.053022 0.
0.529937 0.0530211 0.
0.531938 0.0530201 0.
0.533939 0.0530193 0.
0.535941 0.0530185 0.
0.537943 0.0530178 0.
0.539944 0.053017 0.
0.541945 0.0530161 0.
0.543945 0.0530153 0.
0.545946 0.0530145 0.
0.547948 0.0530139 0.
0.549949 0.0530132 0.
0.551951 0.0530114 0.
0.553953 0.0530096 0.
0.555954 0.0530081 0.
0.557956 0.0530075 0.
0.559957 0.053007 0.
0.561959 0.0530062 0.
0.563961 0.0530052 0.
0.565963 0.0530042 0.
0.567965 0.0530031 0.
0.569968 0.0530021 0.
0.57197 0.053001 0.
0.573972 0.0529999 0.
0.575975 0.0529988 0.
0.577977 0.0529978 0.
0.579979 0.0529971 0.
0.581981 0.0529965 0.
0.583982 0.0529957 0.
0.585984 0.0529947 0.
0.587986 0.0529937 0.
0.589988 0.052993 0.
0.591991 0.0529926 0.
0.593993 0.0529921 0.
0.595996 0.0529918 0.
0.597998 0.0529916 0.
0.600001 0.0529914 0.
0.602004 0.0529914 0.
0.604006 0.0529914 0.
0.606009 0.0529915 0.
0.60801 0.0529922 0.
0.610012 0.0529928 0.
0.612013 0.0529936 0.
0.614016 0.0529946 0.
0.616018 0.0529956 0.
0.61802 0.0529968 0.
0.620022 0.0529981 0.
0.622025 0.0529993 0.
0.624027 0.0530004 0.
0.62603 0.0530015 0.
0.628032 0.0530025 0.
0.630034 0.0530031 0.
0.632036 0.0530037 0.
0.634038 0.0530046 0.
0.63604 0.0530061 0.
0.638041 0.0530075 0.
0.640043 0.0530088 0.
0.642044 0.0530099 0.
0.644046 0.0530111 0.
0.646048 0.0530123 0.
0.64805 0.0530135 0.
0.650052 0.0530147 0.
0.652053 0.0530156 0.
0.654055 0.0530166 0.
0.656056 0.0530176 0.
0.658057 0.0530188 0.
0.660058 0.05302 0.
0.662059 0.0530207 0.
0.66406 0.0530209 0.
0.666061 0.053021 0.
0.668062 0.0530219 0.
0.670063 0.0530231 0.
0.672064 0.0530243 0.
0.674066 0.0530252 0.
0.676067 0.053026 0.
0.678069 0.0530268 0.
0.68007 0.0530276 0.
0.682071 0.0530284 0.
0.684072 0.0530294 0.
0.686072 0.0530309 0.
0.688072 0.0530323 0.
0.690073 0.0530335 0.
0.692073 0.0530347 0.
0.694074 0.0530358 0.
0.696074 0.0530376 0.
0.698074 0.0530397 0.
0.499927 0.0550385 0.
0.501928 0.0550359 0.
0.503929 0.0550335 0.
0.505929 0.0550314 0.
0.50793 0.0550307 0.
0.509931 0.0550299 0.
0.511931 0.055029 0.
0.513932 0.0550277 0.
0.515932 0.0550264 0.
0.517933 0.055025 0.
0.519933 0.0550233 0.
0.521934 0.0550217 0.
0.523935 0.0550218 0.
0.525936 0.0550222 0.
0.527937 0.0550224 0.
0.529938 0.0550211 0.
0.531939 0.0550198 0.
0.53394 0.0550186 0.
0.535942 0.0550179 0.
0.537944 0.0550172 0.
0.539945 0.0550165 0.
0.541946 0.0550159 0.
0.543946 0.0550153 0.
0.545948 0.0550145 0.
0.547949 0.0550136 0.
0.54995 0.0550127 0.
0.551952 0.0550108 0.
0.553954 0.0550088 0.
0.555955 0.0550072 0.
0.557957 0.0550069 0.
0.559958 0.0550065 0.
0.561959 0.0550058 0.
0.563962 0.0550044 0.
0.565964 0.055003 0.
0.567966 0.0550017 0.
0.569968 0.0550005 0.
0.57197 0.0549993 0.
0.573973 0.0549984 0.
0.575975 0.0549976 0.
0.577977 0.0549969 0.
0.579979 0.0549967 0.
0.581981 0.0549964 0.
0.583983 0.0549958 0.
0.585985 0.0549944 0.
0.587987 0.0549931 0.
0.589989 0.0549924 0.
0.591991 0.0549921 0.
0.593994 0.0549918 0.
0.595996 0.0549912 0.
0.597998 0.0549906 0.
0.600001 0.0549899 0.
0.602004 0.05499 0.
0.604007 0.0549901 0.
0.606009 0.0549904 0.
0.60801 0.0549915 0.
0.610011 0.0549925 0.
0.612013 0.0549934 0.
0.614016 0.0549941 0.
0.616018 0.0549948 0.
0.61802 0.0549957 0.
0.620023 0.0549969 0.
0.622025 0.054998 0.
0.624027 0.0549994 0.
0.626029 0.0550008 0.
0.628031 0.055002 0.
0.630033 0.055002 0.
0.632035 0.055002 0.
0.634037 0.0550027 0.
0.636038 0.0550047 0.
0.63804 0.0550068 0.
0.640041 0.0550083 0.
0.642043 0.0550094 0.
0.644044 0.0550105 0.
0.646047 0.0550117 0.
0.648049 0.0550128 0.
0.650052 0.055014 0.
0.652053 0.0550151 0.
0.654054 0.0550162 0.
0.656055 0.0550173 0.
0.658057 0.0550184 0.
0.660058 0.0550195 0.
0.662058 0.0550203 0.
0.664059 0.0550208 0.
0.666059 0.0550212 0.
0.66806 0.0550219 0.
0.670061 0.0550227 0.
0.672063 0.0550235 0.
0.674064 0.0550247 0.
0.676066 0.0550259 0.
0.678067 0.055027 0.
0.680068 0.0550278 0.
0.68207 0.0550286 0.
0.68407 0.0550296 0.
0.686071 0.0550309 0.
0.688071 0.0550321 0.
0.690072 0.0550336 0.
0.692072 0.0550352 0.
0.694073 0.0550369 0.
0.696073 0.0550393 0.
0.698073 0.055042 0.
0.499929 0.0570385 0.
0.50193 0.0570363 0.
0.50393 0.057034 0.
0.505931 0.0570321 0.
0.507932 0.0570311 0.
0.509932 0.0570302 0.
0.511932 0.0570291 0.
0.513933 0.0570277 0.
0.515934 0.0570263 0.
0.517934 0.0570248 0.
0.519935 0.0570232 0.
0.521935 0.0570216 0.
0.523936 0.0570215 0.
0.525938 0.0570217 0.
0.527939 0.0570217 0.
0.52994 0.0570207 0.
0.531941 0.0570197 0.
0.533942 0.0570187 0.
0.535943 0.0570178 0.
0.537945 0.0570169 0.
0.539946 0.057016 0.
0.541947 0.0570152 0.
0.543948 0.0570144 0.
0.54595 0.0570135 0.
0.547951 0.0570125 0.
0.549952 0.0570115 0.
0.551954 0.0570098 0.
0.553956 0.0570081 0.
0.555957 0.0570067 0.
0.557958 0.0570061 0.
0.55996 0.0570056 0.
0.561961 0.0570046 0.
0.563963 0.0570032 0.
0.565965 0.0570018 0.
0.567967 0.0570006 0.
0.569969 0.0569994 0.
0.57197 0.0569983 0.
0.573973 0.0569975 0.
0.575975 0.0569967 0.
0.577977 0.056996 0.
0.579979 0.0569958 0.
0.581981 0.0569955 0.
0.583983 0.056995 0.
0.585985 0.056994 0.
0.587987 0.056993 0.
0.589989 0.0569923 0.
0.591991 0.0569917 0.
0.593993 0.0569912 0.
0.595995 0.0569907 0.
0.597998 0.0569901 0.
0.6 0.0569896 0.
0.602003 0.0569899 0.
0.604006 0.0569902 0.
0.606008 0.0569906 0.
0.60801 0.0569914 0.
0.610011 0.0569923 0.
0.612013 0.056993 0.
0.614015 0.0569936 0.
0.616018 0.0569942 0.
0.61802 0.0569952 0.
0.620022 0.0569962 0.
0.622025 0.0569973 0.
0.624027 0.0569987 0.
0.626029 0.0570001 0.
0.628031 0.0570014 0.
0.630032 0.0570016 0.
0.632034 0.0570018 0.
0.634036 0.0570026 0.
0.636037 0.0570045 0.
0.638039 0.0570065 0.
0.64004 0.057008 0.
0.642042 0.0570092 0.
0.644043 0.0570104 0.
0.646045 0.0570112 0.
0.648048 0.0570118 0.
0.65005 0.0570124 0.
0.652051 0.0570141 0.
0.654053 0.0570158 0.
0.656054 0.0570173 0.
0.658055 0.0570184 0.
0.660056 0.0570194 0.
0.662057 0.0570202 0.
0.664058 0.0570206 0.
0.666059 0.0570211 0.
0.66806 0.0570218 0.
0.670061 0.0570225 0.
0.672061 0.0570232 0.
0.674063 0.0570245 0.
0.676064 0.0570258 0.
0.678066 0.0570271 0.
0.680067 0.057028 0.
0.682067 0.057029 0.
0.684068 0.0570301 0.
0.686069 0.0570314 0.
0.688069 0.0570327 0.
0.69007 0.0570342 0.
0.69207 0.057036 0.
0.694071 0.0570377 0.
0.696071 0.0570401 0.
0.698071 0.0570427 0.
0.49993 0.0590385 0.
0.501931 0.0590367 0.
0.503932 0.0590346 0.
0.505933 0.0590327 0.
0.507933 0.0590316 0.
0.509933 0.0590304 0.
0.511933 0.0590292 0.
0.513934 0.0590277 0.
0.515935 0.0590262 0.
0.517935 0.0590247 0.
0.519936 0.0590231 0.
0.521937 0.0590215 0.
0.523938 0.0590213 0.
0.525939 0.0590211 0.
0.52794 0.059021 0.
0.529941 0.0590202 0.
0.531943 0.0590195 0.
0.533944 0.0590187 0.
0.535945 0.0590176 0.
0.537946 0.0590166 0.
0.539947 0.0590156 0.
0.541949 0.0590145 0.
0.54395 0.0590135 0.
0.545952 0.0590125 0.
0.547953 0.0590114 0.
0.549954 0.0590103 0.
0.551956 0.0590089 0.
0.553957 0.0590075 0.
0.555959 0.0590062 0.
0.55796 0.0590054 0.
0.559962 0.0590046 0.
0.561963 0.0590035 0.
0.563965 0.0590021 0.
0.565967 0.0590006 0.
0.567968 0.0589994 0.
0.569969 0.0589984 0.
0.57197 0.0589974 0.
0.573973 0.0589966 0.
0.575975 0.0589958 0.
0.577977 0.0589951 0.
0.57998 0.0589949 0.
0.581982 0.0589947 0.
0.583984 0.0589943 0.
0.585985 0.0589936 0.
0.587987 0.0589928 0.
0.589988 0.0589921 0.
0.59199 0.0589914 0.
0.593993 0.0589907 0.
0.595995 0.0589902 0.
0.597998 0.0589897 0.
0.6 0.0589893 0.
0.602003 0.0589897 0.
0.604005 0.0589902 0.
0.606007 0.0589907 0.
0.608009 0.0589914 0.
0.610011 0.058992 0.
0.612013 0.0589926 0.
0.614015 0.0589932 0.
0.616017 0.0589937 0.
0.61802 0.0589946 0.
0.620022 0.0589956 0.
0.622024 0.0589966 0.
0.624026 0.058998 0.
0.626028 0.0589994 0.
0.62803 0.0590007 0.
0.630032 0.0590011 0.
0.632033 0.0590015 0.
0.634035 0.0590024 0.
0.636036 0.0590043 0.
0.638038 0.0590062 0.
0.640039 0.0590077 0.
0.642041 0.059009 0.
0.644042 0.0590103 0.
0.646044 0.0590106 0.
0.648046 0.0590107 0.
0.650048 0.0590109 0.
0.65205 0.0590131 0.
0.654051 0.0590154 0.
0.656052 0.0590173 0.
0.658054 0.0590183 0.
0.660055 0.0590193 0.
0.662056 0.05902 0.
0.664058 0.0590205 0.
0.666059 0.0590209 0.
0.66806 0.0590216 0.
0.67006 0.0590222 0.
0.67206 0.0590229 0.
0.674062 0.0590243 0.
0.676063 0.0590258 0.
0.678064 0.0590272 0.
0.680065 0.0590283 0.
0.682065 0.0590294 0.
0.684066 0.0590305 0.
0.686067 0.0590319 0.
0.688067 0.0590333 0.
0.690068 0.0590349 0.
0.692068 0.0590367 0.
0.694069 0.0590385 0.
0.696069 0.0590409 0.
0.698069 0.0590434 0.
0.499932 0.061039 0.
0.501933 0.0610371 0.
0.503934 0.061035 0.
0.505935 0.0610331 0.
0.507935 0.061032 0.
0.509935 0.0610308 0.
0.511935 0.0610295 0.
0.513936 0.0610279 0.
0.515936 0.0610264 0.
0.517937 0.0610248 0.
0.519938 0.0610232 0.
0.521938 0.0610215 0.
0.523939 0.0610211 0.
0.52594 0.0610208 0.
0.527941 0.0610205 0.
0.529943 0.0610199 0.
0.531944 0.0610193 0.
0.533945 0.0610185 0.
0.535946 0.0610174 0.
0.537947 0.0610162 0.
0.539948 0.0610151 0.
0.54195 0.0610139 0.
0.543951 0.0610127 0.
0.545953 0.0610115 0.
0.547954 0.0610103 0.
0.549955 0.0610091 0.
0.551957 0.061008 0.
0.553959 0.0610069 0.
0.55596 0.0610058 0.
0.557962 0.0610046 0.
0.559963 0.0610035 0.
0.561964 0.0610023 0.
0.563966 0.061001 0.
0.565968 0.0609997 0.
0.567969 0.0609986 0.
0.56997 0.0609976 0.
0.571971 0.0609965 0.
0.573973 0.0609957 0.
0.575976 0.060995 0.
0.577978 0.0609943 0.
0.57998 0.0609941 0.
0.581982 0.0609939 0.
0.583984 0.0609936 0.
0.585985 0.060993 0.
0.587987 0.0609923 0.
0.589988 0.0609916 0.
0.59199 0.0609908 0.
0.593992 0.06099 0.
0.595995 0.0609894 0.
0.597997 0.0609889 0.
0.6 0.0609883 0.
0.602002 0.0609891 0.
0.604005 0.0609898 0.
0.606007 0.0609905 0.
0.608009 0.0609911 0.
0.610011 0.0609918 0.
0.612013 0.0609923 0.
0.614015 0.0609927 0.
0.616017 0.060993 0.
0.618019 0.0609939 0.
0.620022 0.0609951 0.
0.622024 0.0609962 0.
0.624026 0.0609974 0.
0.626027 0.0609986 0.
0.628029 0.0609998 0.
0.630031 0.0610005 0.
0.632032 0.0610012 0.
0.634034 0.0610022 0.
0.636035 0.0610039 0.
0.638037 0.0610056 0.
0.640038 0.061007 0.
0.64204 0.0610083 0.
0.644042 0.0610096 0.
0.646044 0.06101 0.
0.648046 0.0610102 0.
0.650047 0.0610104 0.
0.652049 0.0610127 0.
0.65405 0.0610149 0.
0.656051 0.0610169 0.
0.658052 0.0610181 0.
0.660054 0.0610192 0.
0.662055 0.06102 0.
0.664056 0.0610204 0.
0.666058 0.0610209 0.
0.668059 0.0610216 0.
0.670059 0.0610223 0.
0.672059 0.061023 0.
0.67406 0.0610245 0.
0.676061 0.061026 0.
0.678062 0.0610274 0.
0.680063 0.0610286 0.
0.682063 0.0610298 0.
0.684064 0.061031 0.
0.686065 0.0610323 0.
0.688066 0.0610337 0.
0.690066 0.0610353 0.
0.692066 0.0610372 0.
0.694067 0.061039 0.
0.696067 0.0610413 0.
0.698068 0.0610436 0.
0.499935 0.06304 0.
0.501936 0.0630376 0.
0.503936 0.0630353 0.
0.505936 0.0630334 0.
0.507936 0.0630324 0.
0.509936 0.0630314 0.
0.511937 0.0630301 0.
0.513938 0.0630284 0.
0.515938 0.0630268 0.
0.517939 0.0630251 0.
0.51994 0.0630233 0.
0.521941 0.0630216 0.
0.523941 0.063021 0.
0.525942 0.0630206 0.
0.527943 0.0630202 0.
0.529944 0.0630195 0.
0.531945 0.0630189 0.
0.533946 0.0630181 0.
0.535947 0.0630169 0.
0.537948 0.0630158 0.
0.539949 0.0630146 0.
0.54195 0.0630133 0.
0.543951 0.0630121 0.
0.545953 0.0630107 0.
0.547954 0.0630094 0.
0.549955 0.063008 0.
0.551957 0.0630072 0.
0.553959 0.0630063 0.
0.555961 0.0630053 0.
0.557962 0.0630038 0.
0.559963 0.0630023 0.
0.561965 0.063001 0.
0.563967 0.0630001 0.
0.565969 0.0629991 0.
0.56797 0.0629981 0.
0.569972 0.0629969 0.
0.571973 0.0629958 0.
0.573975 0.0629951 0.
0.575977 0.0629944 0.
0.577978 0.0629938 0.
0.57998 0.0629936 0.
0.581982 0.0629933 0.
0.583984 0.0629929 0.
0.585985 0.0629922 0.
0.587987 0.0629914 0.
0.589989 0.0629907 0.
0.59199 0.06299 0.
0.593992 0.0629892 0.
0.595995 0.0629884 0.
0.597998 0.0629877 0.
0.6 0.0629869 0.
0.602003 0.0629879 0.
0.604005 0.0629889 0.
0.606007 0.0629898 0.
0.608009 0.0629906 0.
0.610011 0.0629915 0.
0.612013 0.062992 0.
0.614015 0.0629921 0.
0.616017 0.0629922 0.
0.618019 0.0629932 0.
0.620021 0.0629947 0.
0.622023 0.0629961 0.
0.624025 0.062997 0.
0.626027 0.0629978 0.
0.628029 0.0629987 0.
0.63003 0.0629998 0.
0.632032 0.0630008 0.
0.634033 0.063002 0.
0.636035 0.0630033 0.
0.638036 0.0630047 0.
0.640038 0.063006 0.
0.64204 0.0630072 0.
0.644042 0.0630085 0.
0.646044 0.0630093 0.
0.648045 0.0630101 0.
0.650047 0.0630108 0.
0.652048 0.0630127 0.
0.65405 0.0630145 0.
0.656051 0.0630162 0.
0.658051 0.0630176 0.
0.660052 0.063019 0.
0.662053 0.06302 0.
0.664055 0.0630205 0.
0.666056 0.0630209 0.
0.668057 0.0630217 0.
0.670058 0.0630226 0.
0.672059 0.0630236 0.
0.674059 0.063025 0.
0.67606 0.0630264 0.
0.678061 0.0630278 0.
0.680061 0.063029 0.
0.682062 0.0630302 0.
0.684062 0.0630314 0.
0.686063 0.0630327 0.
0.688063 0.063034 0.
0.690064 0.0630356 0.
0.692064 0.0630374 0.
0.694065 0.0630393 0.
0.696065 0.0630414 0.
0.698066 0.0630435 0.
0.499939 0.0650406 0.
0.501938 0.0650381 0.
0.503938 0.0650356 0.
0.505937 0.0650336 0.
0.507938 0.0650327 0.
0.509938 0.0650319 0.
0.511939 0.0650306 0.
0.513939 0.0650289 0.
0.51594 0.0650271 0.
0.517941 0.0650253 0.
0.519942 0.0650235 0.
0.521943 0.0650217 0.
0.523943 0.065021 0.
0.525944 0.0650205 0.
0.527944 0.0650199 0.
0.529945 0.0650192 0.
0.531946 0.0650186 0.
0.533947 0.0650177 0.
0.535948 0.0650165 0.
0.537949 0.0650153 0.
0.539949 0.0650141 0.
0.54195 0.0650127 0.
0.543951 0.0650114 0.
0.545953 0.0650099 0.
0.547954 0.0650084 0.
0.549956 0.065007 0.
0.551958 0.0650064 0.
0.55396 0.0650058 0.
0.555961 0.0650049 0.
0.557963 0.0650029 0.
0.559964 0.065001 0.
0.561966 0.0649997 0.
0.563968 0.0649991 0.
0.56597 0.0649986 0.
0.567972 0.0649976 0.
0.569973 0.0649963 0.
0.571975 0.064995 0.
0.573976 0.0649944 0.
0.575978 0.0649938 0.
0.577979 0.0649932 0.
0.579981 0.064993 0.
0.581982 0.0649927 0.
0.583984 0.0649923 0.
0.585986 0.0649914 0.
0.587987 0.0649906 0.
0.589989 0.0649898 0.
0.591991 0.0649891 0.
0.593992 0.0649884 0.
0.595995 0.0649875 0.
0.597998 0.0649864 0.
0.600001 0.0649854 0.
0.602003 0.0649867 0.
0.604005 0.064988 0.
0.606008 0.0649892 0.
0.608009 0.0649902 0.
0.610011 0.0649912 0.
0.612013 0.0649916 0.
0.614016 0.0649915 0.
0.616018 0.0649914 0.
0.618019 0.0649925 0.
0.620021 0.0649943 0.
0.622022 0.064996 0.
0.624024 0.0649966 0.
0.626027 0.064997 0.
0.628029 0.0649976 0.
0.63003 0.064999 0.
0.632031 0.0650004 0.
0.634032 0.0650017 0.
0.636034 0.0650027 0.
0.638036 0.0650038 0.
0.640038 0.0650049 0.
0.64204 0.0650061 0.
0.644042 0.0650073 0.
0.646044 0.0650086 0.
0.648045 0.06501 0.
0.650047 0.0650113 0.
0.652048 0.0650127 0.
0.654049 0.065014 0.
0.65605 0.0650155 0.
0.658051 0.0650172 0.
0.660051 0.0650189 0.
0.662052 0.06502 0.
0.664053 0.0650205 0.
0.666054 0.065021 0.
0.668055 0.0650219 0.
0.670056 0.065023 0.
0.672058 0.0650241 0.
0.674058 0.0650254 0.
0.676059 0.0650268 0.
0.678059 0.0650281 0.
0.68006 0.0650294 0.
0.68206 0.0650306 0.
0.684061 0.0650319 0.
0.686061 0.065033 0.
0.688061 0.0650342 0.
0.690062 0.0650358 0.
0.692062 0.0650377 0.
0.694063 0.0650396 0.
0.696063 0.0650415 0.
0.698064 0.0650433 0.
0.49994 0.0670408 0.
0.501939 0.0670384 0.
0.503939 0.0670361 0.
0.505939 0.0670341 0.
0.50794 0.0670328 0.
0.50994 0.0670314 0.
0.511941 0.0670299 0.
0.513941 0.0670283 0.
0.515942 0.0670267 0.
0.517943 0.0670252 0.
0.519943 0.0670235 0.
0.521944 0.0670219 0.
0.523945 0.0670211 0.
0.525945 0.0670204 0.
0.527946 0.0670197 0.
0.529947 0.0670189 0.
0.531948 0.0670181 0.
0.533948 0.0670172 0.
0.535949 0.0670161 0.
0.53795 0.0670149 0.
0.539951 0.0670137 0.
0.541952 0.0670124 0.
0.543953 0.0670111 0.
0.545955 0.0670097 0.
0.547956 0.0670084 0.
0.549957 0.067007 0.
0.551959 0.067006 0.
0.553961 0.067005 0.
0.555963 0.0670038 0.
0.557964 0.0670025 0.
0.559966 0.0670011 0.
0.561967 0.0669998 0.
0.563969 0.0669986 0.
0.565971 0.0669975 0.
0.567972 0.0669966 0.
0.569974 0.0669957 0.
0.571975 0.0669949 0.
0.573976 0.0669942 0.
0.575978 0.0669935 0.
0.577979 0.0669928 0.
0.579981 0.0669922 0.
0.581982 0.0669916 0.
0.583984 0.0669909 0.
0.585986 0.0669902 0.
0.587988 0.0669894 0.
0.589989 0.0669888 0.
0.591991 0.0669883 0.
0.593992 0.0669877 0.
0.595995 0.0669871 0.
0.597998 0.0669864 0.
0.6 0.0669857 0.
0.602003 0.0669864 0.
0.604005 0.0669871 0.
0.606007 0.0669879 0.
0.608009 0.0669891 0.
0.610011 0.0669902 0.
0.612013 0.0669909 0.
0.614015 0.0669911 0.
0.616017 0.0669913 0.
0.618018 0.0669922 0.
0.62002 0.0669932 0.
0.622022 0.0669943 0.
0.624024 0.0669953 0.
0.626026 0.0669963 0.
0.628028 0.0669973 0.
0.630029 0.0669986 0.
0.63203 0.0669998 0.
0.634032 0.067001 0.
0.636033 0.0670021 0.
0.638035 0.0670032 0.
0.640037 0.0670043 0.
0.642039 0.0670054 0.
0.64404 0.0670066 0.
0.646042 0.0670079 0.
0.648044 0.0670094 0.
0.650045 0.0670108 0.
0.652046 0.0670121 0.
0.654047 0.0670134 0.
0.656048 0.0670148 0.
0.658049 0.0670167 0.
0.66005 0.0670186 0.
0.66205 0.0670199 0.
0.664051 0.0670203 0.
0.666052 0.0670207 0.
0.668053 0.0670217 0.
0.670055 0.0670229 0.
0.672056 0.0670241 0.
0.674056 0.0670253 0.
0.676057 0.0670265 0.
0.678057 0.0670277 0.
0.680058 0.0670289 0.
0.682058 0.0670301 0.
0.684059 0.0670314 0.
0.686059 0.0670329 0.
0.688059 0.0670343 0.
0.69006 0.0670359 0.
0.692061 0.0670377 0.
0.694061 0.0670395 0.
0.696062 0.0670414 0.
0.698062 0.0670435 0.
0.49994 0.0690407 0.
0.50194 0.0690387 0.
0.503941 0.0690366 0.
0.505941 0.0690347 0.
0.507941 0.0690328 0.
0.509942 0.0690309 0.
0.511943 0.0690292 0.
0.513943 0.0690278 0.
0.515944 0.0690264 0.
0.517944 0.069025 0.
0.519945 0.0690236 0.
0.521945 0.0690221 0.
0.523946 0.0690212 0.
0.525947 0.0690203 0.
0.527948 0.0690194 0.
0.529949 0.0690185 0.
0.531949 0.0690176 0.
0.533949 0.0690166 0.
0.53595 0.0690156 0.
0.537951 0.0690145 0.
0.539952 0.0690134 0.
0.541954 0.0690121 0.
0.543956 0.0690108 0.
0.545957 0.0690095 0.
0.547958 0.0690083 0.
0.549959 0.069007 0.
0.551961 0.0690056 0.
0.553963 0.0690041 0.
0.555964 0.0690028 0.
0.557966 0.069002 0.
0.559967 0.0690012 0.
0.561969 0.0689999 0.
0.56397 0.0689982 0.
0.565972 0.0689964 0.
0.567973 0.0689956 0.
0.569974 0.0689952 0.
0.571975 0.0689948 0.
0.573976 0.068994 0.
0.575978 0.0689932 0.
0.577979 0.0689924 0.
0.579981 0.0689914 0.
0.581983 0.0689904 0.
0.583984 0.0689895 0.
0.585986 0.0689889 0.
0.587988 0.0689882 0.
0.589989 0.0689878 0.
0.591991 0.0689874 0.
0.593993 0.0689871 0.
0.595995 0.0689867 0.
0.597998 0.0689863 0.
0.6 0.0689859 0.
0.602003 0.0689861 0.
0.604005 0.0689862 0.
0.606007 0.0689866 0.
0.608009 0.0689879 0.
0.610011 0.0689892 0.
0.612012 0.0689902 0.
0.614014 0.0689907 0.
0.616016 0.0689913 0.
0.618018 0.0689918 0.
0.62002 0.0689922 0.
0.622022 0.0689926 0.
0.624024 0.068994 0.
0.626025 0.0689955 0.
0.628027 0.068997 0.
0.630028 0.0689981 0.
0.632029 0.0689992 0.
0.634031 0.0690004 0.
0.636033 0.0690015 0.
0.638034 0.0690026 0.
0.640036 0.0690036 0.
0.642037 0.0690047 0.
0.644039 0.0690058 0.
0.64604 0.0690072 0.
0.648042 0.0690087 0.
0.650044 0.0690102 0.
0.652044 0.0690115 0.
0.654045 0.0690127 0.
0.656046 0.0690142 0.
0.658047 0.0690163 0.
0.660048 0.0690184 0.
0.662049 0.0690197 0.
0.66405 0.0690201 0.
0.666051 0.0690205 0.
0.668052 0.0690215 0.
0.670053 0.0690228 0.
0.672054 0.0690241 0.
0.674054 0.0690252 0.
0.676055 0.0690262 0.
0.678055 0.0690273 0.
0.680056 0.0690285 0.
0.682056 0.0690296 0.
0.684056 0.069031 0.
0.686057 0.0690327 0.
0.688058 0.0690344 0.
0.690058 0.0690361 0.
0.692059 0.0690377 0.
0.69406 0.0690393 0.
0.69606 0.0690414 0.
0.69806 0.0690436 0.
0.499942 0.0710408 0.
0.501942 0.071039 0.
0.503942 0.0710372 0.
0.505943 0.0710353 0.
0.507943 0.0710331 0.
0.509944 0.0710309 0.
0.511944 0.0710291 0.
0.513945 0.0710277 0.
0.515945 0.0710263 0.
0.517946 0.0710249 0.
0.519946 0.0710236 0.
0.521946 0.0710224 0.
0.523947 0.0710213 0.
0.525949 0.0710202 0.
0.52795 0.0710192 0.
0.52995 0.0710182 0.
0.53195 0.0710173 0.
0.533951 0.0710163 0.
0.535952 0.0710152 0.
0.537952 0.0710142 0.
0.539954 0.071013 0.
0.541955 0.0710116 0.
0.543957 0.0710101 0.
0.545958 0.0710089 0.
0.547959 0.0710077 0.
0.54996 0.0710066 0.
0.551962 0.071005 0.
0.553964 0.0710034 0.
0.555966 0.071002 0.
0.557967 0.0710014 0.
0.559969 0.0710008 0.
0.56197 0.0709996 0.
0.563971 0.0709977 0.
0.565973 0.0709958 0.
0.567974 0.070995 0.
0.569975 0.0709947 0.
0.571976 0.0709944 0.
0.573977 0.0709935 0.
0.575978 0.0709926 0.
0.57798 0.0709916 0.
0.579981 0.0709906 0.
0.581983 0.0709895 0.
0.583985 0.0709886 0.
0.585987 0.070988 0.
0.587988 0.0709873 0.
0.58999 0.0709869 0.
0.591991 0.0709866 0.
0.593993 0.0709862 0.
0.595995 0.070986 0.
0.597998 0.0709857 0.
0.6 0.0709855 0.
0.602002 0.0709855 0.
0.604005 0.0709855 0.
0.606007 0.0709858 0.
0.608009 0.0709872 0.
0.61001 0.0709885 0.
0.612012 0.0709896 0.
0.614013 0.0709902 0.
0.616015 0.0709908 0.
0.618017 0.0709911 0.
0.620019 0.0709912 0.
0.622022 0.0709914 0.
0.624023 0.0709929 0.
0.626025 0.0709945 0.
0.628026 0.0709961 0.
0.630028 0.0709974 0.
0.632029 0.0709986 0.
0.634031 0.0709998 0.
0.636032 0.071001 0.
0.638033 0.0710021 0.
0.640035 0.0710032 0.
0.642036 0.0710043 0.
0.644037 0.0710054 0.
0.646039 0.0710068 0.
0.64804 0.0710082 0.
0.650042 0.0710096 0.
0.652043 0.071011 0.
0.654044 0.0710124 0.
0.656045 0.071014 0.
0.658045 0.0710161 0.
0.660046 0.0710182 0.
0.662047 0.0710195 0.
0.664048 0.0710199 0.
0.666049 0.0710202 0.
0.66805 0.0710213 0.
0.670051 0.0710227 0.
0.672052 0.0710242 0.
0.674052 0.0710251 0.
0.676053 0.071026 0.
0.678053 0.0710269 0.
0.680054 0.0710281 0.
0.682054 0.0710293 0.
0.684055 0.0710308 0.
0.686055 0.0710327 0.
0.688056 0.0710346 0.
0.690057 0.0710363 0.
0.692057 0.0710378 0.
0.694058 0.0710394 0.
0.696058 0.0710413 0.
0.698058 0.0710434 0.
0.499943 0.0730413 0.
0.501944 0.0730395 0.
0.503944 0.0730377 0.
0.505945 0.0730359 0.
0.507945 0.0730337 0.
0.509945 0.0730315 0.
0.511946 0.0730296 0.
0.513946 0.0730279 0.
0.515947 0.0730263 0.
0.517948 0.073025 0.
0.519948 0.0730238 0.
0.521948 0.0730226 0.
0.523949 0.0730214 0.
0.52595 0.0730201 0.
0.527951 0.073019 0.
0.529951 0.073018 0.
0.531952 0.0730171 0.
0.533953 0.0730161 0.
0.535953 0.073015 0.
0.537954 0.073014 0.
0.539955 0.0730126 0.
0.541957 0.0730109 0.
0.543958 0.0730091 0.
0.545959 0.0730079 0.
0.54796 0.0730067 0.
0.549961 0.0730056 0.
0.551963 0.0730042 0.
0.553965 0.0730029 0.
0.555967 0.0730016 0.
0.557968 0.0730008 0.
0.55997 0.0729999 0.
0.561971 0.0729987 0.
0.563972 0.0729972 0.
0.565973 0.0729956 0.
0.567974 0.0729948 0.
0.569975 0.0729942 0.
0.571976 0.0729937 0.
0.573978 0.0729927 0.
0.575979 0.0729916 0.
0.577981 0.0729905 0.
0.579982 0.0729897 0.
0.581984 0.0729889 0.
0.583986 0.0729882 0.
0.585987 0.0729874 0.
0.587988 0.0729867 0.
0.58999 0.0729861 0.
0.591991 0.0729856 0.
0.593993 0.0729852 0.
0.595995 0.0729848 0.
0.597998 0.0729846 0.
0.6 0.0729843 0.
0.602002 0.0729846 0.
0.604005 0.0729848 0.
0.606007 0.0729854 0.
0.608008 0.0729867 0.
0.61001 0.0729881 0.
0.612012 0.072989 0.
0.614013 0.0729894 0.
0.616015 0.0729897 0.
0.618016 0.07299 0.
0.620018 0.0729903 0.
0.62202 0.0729906 0.
0.624022 0.0729919 0.
0.626024 0.0729933 0.
0.628026 0.0729948 0.
0.630028 0.0729964 0.
0.632029 0.072998 0.
0.634031 0.0729994 0.
0.636032 0.0730007 0.
0.638032 0.0730019 0.
0.640033 0.0730031 0.
0.642035 0.0730043 0.
0.644036 0.0730055 0.
0.646037 0.0730067 0.
0.648039 0.0730078 0.
0.650041 0.073009 0.
0.652042 0.0730107 0.
0.654042 0.0730124 0.
0.656043 0.0730142 0.
0.658044 0.0730161 0.
0.660045 0.0730181 0.
0.662045 0.0730193 0.
0.664046 0.0730195 0.
0.666048 0.0730198 0.
0.668048 0.073021 0.
0.670049 0.0730227 0.
0.672049 0.0730243 0.
0.67405 0.0730251 0.
0.676051 0.0730257 0.
0.678051 0.0730264 0.
0.680052 0.0730278 0.
0.682053 0.0730292 0.
0.684053 0.0730308 0.
0.686054 0.0730328 0.
0.688054 0.0730347 0.
0.690054 0.0730364 0.
0.692055 0.073038 0.
0.694055 0.0730396 0.
0.696055 0.0730413 0.
0.698055 0.073043 0.
0.499945 0.0750414 0.
0.501946 0.0750399 0.
0.503947 0.0750382 0.
0.505947 0.0750364 0.
0.507947 0.0750343 0.
0.509947 0.0750321 0.
0.511947 0.0750301 0.
0.513948 0.0750282 0.
0.515949 0.0750264 0.
0.517949 0.075025 0.
0.519949 0.0750239 0.
0.521949 0.0750228 0.
0.52395 0.0750215 0.
0.525951 0.0750201 0.
0.527952 0.0750188 0.
0.529953 0.0750178 0.
0.531953 0.0750168 0.
0.533954 0.0750158 0.
0.535955 0.0750148 0.
0.537956 0.0750137 0.
0.539957 0.0750122 0.
0.541958 0.0750102 0.
0.543959 0.0750082 0.
0.54596 0.0750069 0.
0.547961 0.0750058 0.
0.549962 0.0750047 0.
0.551964 0.0750035 0.
0.553966 0.0750023 0.
0.555968 0.0750012 0.
0.55797 0.0750001 0.
0.559971 0.074999 0.
0.561973 0.0749979 0.
0.563973 0.0749967 0.
0.565974 0.0749955 0.
0.567975 0.0749946 0.
0.569976 0.0749938 0.
0.571977 0.074993 0.
0.573978 0.0749918 0.
0.57598 0.0749906 0.
0.577982 0.0749894 0.
0.579983 0.0749888 0.
0.581985 0.0749883 0.
0.583986 0.0749877 0.
0.585987 0.0749869 0.
0.587988 0.0749861 0.
0.58999 0.0749854 0.
0.591992 0.0749847 0.
0.593993 0.0749841 0.
0.595996 0.0749837 0.
0.597998 0.0749834 0.
0.6 0.0749831 0.
0.602002 0.0749837 0.
0.604005 0.0749842 0.
0.606007 0.074985 0.
0.608008 0.0749863 0.
0.61001 0.0749877 0.
0.612011 0.0749885 0.
0.614013 0.0749886 0.
0.616015 0.0749887 0.
0.618016 0.074989 0.
0.620018 0.0749894 0.
0.622019 0.0749898 0.
0.624021 0.0749909 0.
0.626023 0.0749921 0.
0.628026 0.0749934 0.
0.630027 0.0749954 0.
0.632029 0.0749973 0.
0.634031 0.0749991 0.
0.636031 0.0750003 0.
0.638032 0.0750016 0.
0.640032 0.075003 0.
0.642033 0.0750043 0.
0.644034 0.0750056 0.
0.646036 0.0750066 0.
0.648038 0.0750074 0.
0.65004 0.0750083 0.
0.65204 0.0750103 0.
0.654041 0.0750124 0.
0.656042 0.0750144 0.
0.658042 0.0750162 0.
0.660043 0.075018 0.
0.662043 0.075019 0.
0.664045 0.0750192 0.
0.666046 0.0750194 0.
0.668047 0.0750208 0.
0.670047 0.0750226 0.
0.672047 0.0750244 0.
0.674048 0.075025 0.
0.676049 0.0750254 0.
0.67805 0.075026 0.
0.68005 0.0750275 0.
0.682051 0.0750291 0.
0.684052 0.0750308 0.
0.686052 0.0750328 0.
0.688053 0.0750348 0.
0.690052 0.0750366 0.
0.692052 0.0750382 0.
0.694052 0.0750397 0.
0.696052 0.0750412 0.
0.698052 0.0750426 0.
0.499947 0.0770413 0.
0.501947 0.0770396 0.
0.503948 0.0770379 0.
0.505949 0.0770362 0.
0.507949 0.0770342 0.
0.509949 0.0770323 0.
0.511949 0.0770304 0.
0.51395 0.0770286 0.
0.51595 0.0770268 0.
0.51795 0.0770251 0.
0.519951 0.0770236 0.
0.521951 0.077022 0.
0.523952 0.0770208 0.
0.525952 0.0770196 0.
0.527953 0.0770184 0.
0.529954 0.0770176 0.
0.531955 0.0770169 0.
0.533956 0.077016 0.
0.535957 0.0770149 0.
0.537957 0.0770138 0.
0.539958 0.0770122 0.
0.541959 0.0770101 0.
0.543961 0.0770081 0.
0.545962 0.0770067 0.
0.547963 0.0770054 0.
0.549964 0.0770041 0.
0.551965 0.0770027 0.
0.553967 0.0770014 0.
0.555969 0.0770002 0.
0.55797 0.0769993 0.
0.559971 0.0769985 0.
0.561972 0.0769975 0.
0.563973 0.0769962 0.
0.565974 0.076995 0.
0.567975 0.0769939 0.
0.569976 0.0769927 0.
0.571977 0.0769916 0.
0.573979 0.0769906 0.
0.575981 0.0769896 0.
0.577983 0.0769887 0.
0.579984 0.0769881 0.
0.581986 0.0769876 0.
0.583987 0.076987 0.
0.585988 0.0769862 0.
0.587989 0.0769855 0.
0.589991 0.0769848 0.
0.591992 0.0769841 0.
0.593994 0.0769835 0.
0.595996 0.0769831 0.
0.597998 0.0769827 0.
0.6 0.0769824 0.
0.602002 0.076983 0.
0.604005 0.0769836 0.
0.606007 0.0769844 0.
0.608008 0.0769858 0.
0.61001 0.0769872 0.
0.612011 0.076988 0.
0.614013 0.0769881 0.
0.616014 0.0769882 0.
0.618016 0.0769885 0.
0.620017 0.0769889 0.
0.622019 0.0769892 0.
0.624021 0.0769903 0.
0.626022 0.0769916 0.
0.628024 0.0769929 0.
0.630026 0.0769948 0.
0.632027 0.0769966 0.
0.634029 0.0769984 0.
0.636029 0.0769999 0.
0.63803 0.0770014 0.
0.640031 0.0770028 0.
0.642032 0.077004 0.
0.644033 0.0770052 0.
0.646034 0.0770062 0.
0.648036 0.0770072 0.
0.650038 0.0770082 0.
0.652038 0.07701 0.
0.654039 0.0770118 0.
0.65604 0.0770136 0.
0.658041 0.0770155 0.
0.660041 0.0770174 0.
0.662042 0.0770186 0.
0.664043 0.0770189 0.
0.666045 0.0770193 0.
0.668045 0.0770207 0.
0.670045 0.0770224 0.
0.672046 0.0770242 0.
0.674047 0.077025 0.
0.676047 0.0770256 0.
0.678048 0.0770264 0.
0.680049 0.0770278 0.
0.682049 0.0770292 0.
0.68405 0.0770308 0.
0.68605 0.0770326 0.
0.68805 0.0770345 0.
0.69005 0.0770361 0.
0.69205 0.0770376 0.
0.69405 0.0770391 0.
0.69605 0.0770405 0.
0.69805 0.077042 0.
0.499948 0.0790411 0.
0.501949 0.0790392 0.
0.50395 0.0790375 0.
0.505951 0.0790359 0.
0.507951 0.0790342 0.
0.509951 0.0790325 0.
0.511951 0.0790308 0.
0.513951 0.079029 0.
0.515951 0.0790272 0.
0.517952 0.0790253 0.
0.519952 0.0790233 0.
0.521953 0.0790213 0.
0.523953 0.0790201 0.
0.525954 0.0790191 0.
0.527955 0.0790181 0.
0.529956 0.0790175 0.
0.531957 0.0790169 0.
0.533958 0.0790161 0.
0.535958 0.0790149 0.
0.537959 0.0790138 0.
0.53996 0.0790121 0.
0.541961 0.0790101 0.
0.543962 0.079008 0.
0.545963 0.0790064 0.
0.547964 0.079005 0.
0.549965 0.0790035 0.
0.551967 0.079002 0.
0.553968 0.0790005 0.
0.555969 0.0789991 0.
0.55797 0.0789985 0.
0.559971 0.0789979 0.
0.561972 0.078997 0.
0.563973 0.0789958 0.
0.565974 0.0789945 0.
0.567975 0.0789931 0.
0.569977 0.0789916 0.
0.571978 0.0789901 0.
0.57398 0.0789894 0.
0.575982 0.0789887 0.
0.577984 0.078988 0.
0.579985 0.0789875 0.
0.581986 0.0789869 0.
0.583987 0.0789863 0.
0.585989 0.0789856 0.
0.58799 0.0789848 0.
0.589991 0.0789842 0.
0.591993 0.0789835 0.
0.593994 0.0789829 0.
0.595996 0.0789824 0.
0.597998 0.0789821 0.
0.599999 0.0789817 0.
0.602002 0.0789824 0.
0.604005 0.0789831 0.
0.606007 0.0789839 0.
0.608008 0.0789853 0.
0.61001 0.0789867 0.
0.612011 0.0789875 0.
0.614012 0.0789877 0.
0.616014 0.0789878 0.
0.618015 0.078988 0.
0.620017 0.0789883 0.
0.622018 0.0789886 0.
0.62402 0.0789897 0.
0.626022 0.0789911 0.
0.628023 0.0789924 0.
0.630024 0.0789942 0.
0.632025 0.0789959 0.
0.634027 0.0789977 0.
0.636028 0.0789995 0.
0.638029 0.0790012 0.
0.640029 0.0790026 0.
0.64203 0.0790036 0.
0.644031 0.0790047 0.
0.646032 0.0790058 0.
0.648034 0.079007 0.
0.650036 0.0790081 0.
0.652036 0.0790096 0.
0.654037 0.0790112 0.
0.656038 0.0790128 0.
0.658039 0.0790148 0.
0.66004 0.0790168 0.
0.662041 0.0790181 0.
0.664042 0.0790187 0.
0.666043 0.0790192 0.
0.668044 0.0790205 0.
0.670044 0.0790223 0.
0.672044 0.079024 0.
0.674045 0.0790249 0.
0.676046 0.0790258 0.
0.678047 0.0790267 0.
0.680047 0.079028 0.
0.682048 0.0790293 0.
0.684048 0.0790307 0.
0.686048 0.0790324 0.
0.688048 0.0790342 0.
0.690048 0.0790357 0.
0.692048 0.0790371 0.
0.694048 0.0790384 0.
0.696048 0.0790399 0.
0.698048 0.0790413 0.
0.49995 0.081041 0.
0.501951 0.0810391 0.
0.503952 0.0810374 0.
0.505953 0.0810357 0.
0.507953 0.0810341 0.
0.509953 0.0810325 0.
0.511953 0.0810308 0.
0.513953 0.081029 0.
0.515953 0.0810272 0.
0.517954 0.0810252 0.
0.519954 0.0810231 0.
0.521955 0.081021 0.
0.523955 0.0810198 0.
0.525956 0.0810188 0.
0.527957 0.0810178 0.
0.529958 0.0810173 0.
0.531959 0.0810168 0.
0.53396 0.081016 0.
0.53596 0.0810148 0.
0.537961 0.0810136 0.
0.539962 0.0810118 0.
0.541963 0.0810097 0.
0.543964 0.0810075 0.
0.545965 0.0810059 0.
0.547966 0.0810045 0.
0.549967 0.0810031 0.
0.551968 0.0810016 0.
0.553969 0.081 0.
0.55597 0.0809987 0.
0.557971 0.0809981 0.
0.559972 0.0809975 0.
0.561973 0.0809966 0.
0.563974 0.0809953 0.
0.565975 0.0809939 0.
0.567976 0.0809924 0.
0.569978 0.0809909 0.
0.571979 0.0809893 0.
0.573981 0.0809886 0.
0.575983 0.0809879 0.
0.577985 0.0809873 0.
0.579986 0.0809866 0.
0.581987 0.080986 0.
0.583988 0.0809854 0.
0.585989 0.0809847 0.
0.587991 0.0809841 0.
0.589992 0.0809835 0.
0.591994 0.0809829 0.
0.593995 0.0809824 0.
0.595996 0.080982 0.
0.597998 0.0809816 0.
0.599999 0.0809812 0.
0.602002 0.0809819 0.
0.604004 0.0809826 0.
0.606006 0.0809834 0.
0.608008 0.0809846 0.
0.610009 0.0809858 0.
0.61201 0.0809865 0.
0.614012 0.0809867 0.
0.616013 0.0809869 0.
0.618014 0.0809873 0.
0.620016 0.0809878 0.
0.622017 0.0809882 0.
0.624019 0.0809894 0.
0.62602 0.0809907 0.
0.628022 0.080992 0.
0.630023 0.0809937 0.
0.632024 0.0809953 0.
0.634025 0.080997 0.
0.636026 0.0809989 0.
0.638027 0.0810008 0.
0.640028 0.0810022 0.
0.642029 0.0810031 0.
0.644029 0.0810041 0.
0.646031 0.0810053 0.
0.648032 0.0810066 0.
0.650034 0.0810079 0.
0.652035 0.0810093 0.
0.654036 0.0810107 0.
0.656037 0.0810122 0.
0.658038 0.081014 0.
0.660039 0.0810158 0.
0.66204 0.0810172 0.
0.664041 0.0810181 0.
0.666042 0.0810191 0.
0.668042 0.0810204 0.
0.670043 0.081022 0.
0.672043 0.0810236 0.
0.674044 0.0810246 0.
0.676045 0.0810256 0.
0.678045 0.0810266 0.
0.680046 0.081028 0.
0.682046 0.0810293 0.
0.684046 0.0810308 0.
0.686046 0.0810325 0.
0.688046 0.0810342 0.
0.690046 0.0810356 0.
0.692046 0.0810369 0.
0.694047 0.0810382 0.
0.696047 0.0810395 0.
0.698047 0.0810407 0.
0.499953 0.083041 0.
0.501954 0.0830392 0.
0.503954 0.0830374 0.
0.505954 0.0830357 0.
0.507955 0.083034 0.
0.509955 0.0830323 0.
0.511955 0.0830305 0.
0.513955 0.0830287 0.
0.515955 0.0830269 0.
0.517956 0.083025 0.
0.519956 0.0830231 0.
0.521957 0.0830212 0.
0.523958 0.0830199 0.
0.525959 0.0830187 0.
0.52796 0.0830176 0.
0.52996 0.083017 0.
0.531961 0.0830165 0.
0.533961 0.0830157 0.
0.535962 0.0830144 0.
0.537963 0.0830131 0.
0.539964 0.0830113 0.
0.541965 0.083009 0.
0.543965 0.0830067 0.
0.545966 0.0830052 0.
0.547968 0.083004 0.
0.549969 0.0830028 0.
0.55197 0.0830015 0.
0.553971 0.0830001 0.
0.555971 0.0829989 0.
0.557972 0.0829982 0.
0.559973 0.0829974 0.
0.561974 0.0829963 0.
0.563975 0.0829947 0.
0.565976 0.0829931 0.
0.567977 0.0829917 0.
0.569979 0.0829905 0.
0.57198 0.0829892 0.
0.573982 0.0829882 0.
0.575983 0.0829873 0.
0.577985 0.0829863 0.
0.579986 0.0829856 0.
0.581988 0.0829849 0.
0.583989 0.0829842 0.
0.585991 0.0829837 0.
0.587992 0.0829832 0.
0.589993 0.0829828 0.
0.591995 0.0829824 0.
0.593996 0.082982 0.
0.595997 0.0829817 0.
0.597998 0.0829813 0.
0.599999 0.0829809 0.
0.602001 0.0829815 0.
0.604003 0.0829821 0.
0.606005 0.0829828 0.
0.608006 0.0829836 0.
0.610008 0.0829844 0.
0.612009 0.082985 0.
0.614011 0.0829853 0.
0.616012 0.0829857 0.
0.618013 0.0829864 0.
0.620015 0.0829872 0.
0.622016 0.0829881 0.
0.624018 0.0829892 0.
0.626019 0.0829904 0.
0.628021 0.0829917 0.
0.630021 0.0829932 0.
0.632022 0.0829947 0.
0.634023 0.0829963 0.
0.636024 0.0829983 0.
0.638025 0.0830002 0.
0.640026 0.0830016 0.
0.642027 0.0830024 0.
0.644028 0.0830033 0.
0.646029 0.0830046 0.
0.648031 0.083006 0.
0.650032 0.0830074 0.
0.652033 0.0830089 0.
0.654034 0.0830104 0.
0.656036 0.0830118 0.
0.658037 0.083013 0.
0.660038 0.0830143 0.
0.662038 0.0830157 0.
0.664039 0.0830173 0.
0.66604 0.083019 0.
0.66804 0.0830204 0.
0.670041 0.0830217 0.
0.672041 0.083023 0.
0.674042 0.083024 0.
0.676043 0.083025 0.
0.678043 0.083026 0.
0.680044 0.0830277 0.
0.682044 0.0830293 0.
0.684044 0.083031 0.
0.686044 0.0830328 0.
0.688044 0.0830346 0.
0.690045 0.0830361 0.
0.692045 0.0830373 0.
0.694045 0.0830385 0.
0.696045 0.0830394 0.
0.698045 0.0830402 0.
0.499956 0.0850413 0.
0.501956 0.0850392 0.
0.503956 0.0850374 0.
0.505956 0.0850357 0.
0.507956 0.0850339 0.
0.509957 0.0850321 0.
0.511957 0.0850303 0.
0.513957 0.0850284 0.
0.515958 0.0850265 0.
0.517958 0.0850247 0.
0.519958 0.085023 0.
0.521958 0.0850214 0.
0.52396 0.08502 0.
0.525961 0.0850187 0.
0.527962 0.0850174 0.
0.529962 0.0850168 0.
0.531962 0.0850162 0.
0.533963 0.0850154 0.
0.535964 0.085014 0.
0.537965 0.0850127 0.
0.539966 0.0850107 0.
0.541966 0.0850083 0.
0.543967 0.0850058 0.
0.545968 0.0850044 0.
0.547969 0.0850034 0.
0.54997 0.0850024 0.
0.551971 0.0850013 0.
0.553972 0.0850002 0.
0.555973 0.0849992 0.
0.557974 0.0849982 0.
0.559974 0.0849973 0.
0.561975 0.0849959 0.
0.563976 0.0849941 0.
0.565977 0.0849923 0.
0.567978 0.084991 0.
0.56998 0.0849901 0.
0.571981 0.0849891 0.
0.573983 0.0849879 0.
0.575984 0.0849866 0.
0.577985 0.0849854 0.
0.579987 0.0849846 0.
0.581989 0.0849838 0.
0.58399 0.0849831 0.
0.585992 0.0849828 0.
0.587993 0.0849824 0.
0.589995 0.0849821 0.
0.591996 0.0849819 0.
0.593997 0.0849817 0.
0.595997 0.0849813 0.
0.597998 0.084981 0.
0.599998 0.0849806 0.
0.602 0.0849811 0.
0.604002 0.0849817 0.
0.606003 0.0849822 0.
0.608005 0.0849826 0.
0.610007 0.084983 0.
0.612008 0.0849835 0.
0.61401 0.0849839 0.
0.616011 0.0849844 0.
0.618012 0.0849854 0.
0.620013 0.0849867 0.
0.622015 0.084988 0.
0.624016 0.0849891 0.
0.626018 0.0849902 0.
0.628019 0.0849913 0.
0.63002 0.0849927 0.
0.632021 0.0849941 0.
0.634022 0.0849957 0.
0.636023 0.0849976 0.
0.638024 0.0849996 0.
0.640025 0.0850009 0.
0.642026 0.0850017 0.
0.644027 0.0850026 0.
0.646028 0.0850039 0.
0.648029 0.0850054 0.
0.650031 0.0850069 0.
0.652032 0.0850084 0.
0.654033 0.08501 0.
0.656034 0.0850114 0.
0.658035 0.0850121 0.
0.660036 0.0850128 0.
0.662037 0.0850143 0.
0.664038 0.0850165 0.
0.666038 0.0850188 0.
0.668039 0.0850203 0.
0.670039 0.0850214 0.
0.67204 0.0850225 0.
0.67404 0.0850234 0.
0.676041 0.0850244 0.
0.678041 0.0850255 0.
0.680042 0.0850274 0.
0.682042 0.0850293 0.
0.684043 0.0850312 0.
0.686043 0.0850331 0.
0.688043 0.085035 0.
0.690043 0.0850365 0.
0.692043 0.0850376 0.
0.694044 0.0850387 0.
0.696044 0.0850392 0.
0.698044 0.0850397 0.
0.499958 0.0870415 0.
0.501958 0.0870393 0.
0.503958 0.0870373 0.
0.505958 0.0870354 0.
0.507958 0.0870338 0.
0.509959 0.0870321 0.
0.511959 0.0870304 0.
0.513959 0.0870284 0.
0.51596 0.0870264 0.
0.51796 0.0870246 0.
0.51996 0.0870228 0.
0.521961 0.0870211 0.
0.523961 0.0870198 0.
0.525962 0.0870185 0.
0.527963 0.0870172 0.
0.529964 0.0870166 0.
0.531964 0.0870159 0.
0.533965 0.0870151 0.
0.535966 0.0870137 0.
0.537967 0.0870123 0.
0.539968 0.0870103 0.
0.541968 0.0870079 0.
0.543969 0.0870054 0.
0.54597 0.087004 0.
0.547971 0.087003 0.
0.549971 0.087002 0.
0.551972 0.0870009 0.
0.553973 0.0869997 0.
0.555974 0.0869986 0.
0.557975 0.0869977 0.
0.559975 0.0869968 0.
0.561976 0.0869957 0.
0.563977 0.0869942 0.
0.565978 0.0869928 0.
0.56798 0.0869913 0.
0.569981 0.0869898 0.
0.571982 0.0869883 0.
0.573983 0.0869871 0.
0.575985 0.086986 0.
0.577986 0.0869848 0.
0.579988 0.0869838 0.
0.581989 0.0869828 0.
0.58399 0.0869821 0.
0.585992 0.086982 0.
0.587993 0.0869819 0.
0.589994 0.0869818 0.
0.591995 0.0869817 0.
0.593996 0.0869816 0.
0.595997 0.0869813 0.
0.597998 0.0869808 0.
0.599999 0.0869804 0.
0.602 0.0869808 0.
0.604002 0.0869812 0.
0.606003 0.0869816 0.
0.608005 0.0869821 0.
0.610006 0.0869825 0.
0.612008 0.086983 0.
0.614009 0.0869834 0.
0.61601 0.0869839 0.
0.618012 0.086985 0.
0.620013 0.0869864 0.
0.622014 0.0869878 0.
0.624015 0.0869888 0.
0.626017 0.0869899 0.
0.628018 0.0869909 0.
0.630019 0.0869922 0.
0.63202 0.0869935 0.
0.634021 0.0869951 0.
0.636022 0.0869972 0.
0.638023 0.0869993 0.
0.640024 0.0870006 0.
0.642025 0.0870013 0.
0.644026 0.087002 0.
0.646027 0.0870034 0.
0.648028 0.087005 0.
0.65003 0.0870066 0.
0.652031 0.0870081 0.
0.654032 0.0870097 0.
0.656033 0.087011 0.
0.658034 0.0870119 0.
0.660034 0.0870127 0.
0.662035 0.087014 0.
0.664036 0.087016 0.
0.666036 0.0870179 0.
0.668037 0.0870193 0.
0.670038 0.0870205 0.
0.672038 0.0870217 0.
0.674039 0.087023 0.
0.676039 0.0870242 0.
0.67804 0.0870256 0.
0.68004 0.0870274 0.
0.68204 0.0870292 0.
0.684041 0.0870311 0.
0.686041 0.087033 0.
0.688041 0.087035 0.
0.690041 0.0870365 0.
0.692042 0.0870376 0.
0.694042 0.0870387 0.
0.696042 0.0870393 0.
0.698043 0.0870397 0.
0.49996 0.0890421 0.
0.50196 0.0890394 0.
0.50396 0.0890371 0.
0.50596 0.0890351 0.
0.507961 0.0890336 0.
0.509961 0.0890322 0.
0.511961 0.0890305 0.
0.513961 0.0890284 0.
0.515962 0.0890263 0.
0.517962 0.0890244 0.
0.519962 0.0890226 0.
0.521963 0.0890209 0.
0.523963 0.0890195 0.
0.525964 0.0890182 0.
0.527964 0.089017 0.
0.529965 0.0890163 0.
0.531966 0.0890157 0.
0.533966 0.0890148 0.
0.535967 0.0890134 0.
0.537968 0.089012 0.
0.539969 0.08901 0.
0.54197 0.0890075 0.
0.543971 0.089005 0.
0.545972 0.0890037 0.
0.547972 0.0890026 0.
0.549973 0.0890015 0.
0.551974 0.0890004 0.
0.553974 0.0889992 0.
0.555975 0.0889981 0.
0.557976 0.0889972 0.
0.559976 0.0889963 0.
0.561977 0.0889954 0.
0.563978 0.0889943 0.
0.56598 0.0889933 0.
0.567981 0.0889916 0.
0.569982 0.0889896 0.
0.571982 0.0889875 0.
0.573984 0.0889864 0.
0.575986 0.0889854 0.
0.577987 0.0889843 0.
0.579988 0.0889831 0.
0.581989 0.0889819 0.
0.58399 0.0889811 0.
0.585992 0.0889812 0.
0.587993 0.0889813 0.
0.589994 0.0889814 0.
0.591995 0.0889815 0.
0.593996 0.0889815 0.
0.595997 0.0889812 0.
0.597999 0.0889807 0.
0.6 0.0889802 0.
0.602001 0.0889804 0.
0.604002 0.0889807 0.
0.606003 0.088981 0.
0.608004 0.0889815 0.
0.610006 0.088982 0.
0.612007 0.0889825 0.
0.614008 0.0889829 0.
0.61601 0.0889834 0.
0.618011 0.0889845 0.
0.620012 0.088986 0.
0.622013 0.0889875 0.
0.624014 0.0889886 0.
0.626015 0.0889895 0.
0.628016 0.0889906 0.
0.630017 0.0889918 0.
0.632018 0.088993 0.
0.634019 0.0889945 0.
0.636021 0.0889968 0.
0.638022 0.088999 0.
0.640023 0.0890003 0.
0.642024 0.0890008 0.
0.644024 0.0890014 0.
0.646026 0.0890029 0.
0.648027 0.0890046 0.
0.650029 0.0890063 0.
0.652029 0.0890078 0.
0.65403 0.0890093 0.
0.656031 0.0890107 0.
0.658032 0.0890116 0.
0.660033 0.0890126 0.
0.662033 0.0890138 0.
0.664034 0.0890154 0.
0.666034 0.089017 0.
0.668035 0.0890183 0.
0.670036 0.0890196 0.
0.672037 0.0890209 0.
0.674038 0.0890225 0.
0.676038 0.0890241 0.
0.678038 0.0890257 0.
0.680038 0.0890274 0.
0.682038 0.0890291 0.
0.684038 0.0890309 0.
0.686039 0.0890329 0.
0.688039 0.0890349 0.
0.69004 0.0890365 0.
0.69204 0.0890376 0.
0.69404 0.0890388 0.
0.696041 0.0890393 0.
0.698041 0.0890398 0.
0.499962 0.0910419 0.
0.501962 0.0910396 0.
0.503963 0.0910372 0.
0.505963 0.091035 0.
0.507963 0.0910336 0.
0.509963 0.0910321 0.
0.511963 0.0910304 0.
0.513963 0.0910284 0.
0.515964 0.0910263 0.
0.517964 0.0910244 0.
0.519964 0.0910225 0.
0.521964 0.0910207 0.
0.523965 0.0910193 0.
0.525965 0.0910181 0.
0.527966 0.0910168 0.
0.529967 0.091016 0.
0.531967 0.0910152 0.
0.533968 0.0910142 0.
0.535969 0.0910128 0.
0.53797 0.0910114 0.
0.539971 0.0910096 0.
0.541972 0.0910073 0.
0.543972 0.0910051 0.
0.545973 0.0910036 0.
0.547973 0.0910024 0.
0.549974 0.0910011 0.
0.551975 0.091 0.
0.553976 0.0909989 0.
0.555977 0.0909978 0.
0.557977 0.0909969 0.
0.559977 0.090996 0.
0.561978 0.090995 0.
0.563979 0.0909941 0.
0.565981 0.0909932 0.
0.567982 0.0909915 0.
0.569983 0.0909894 0.
0.571983 0.0909873 0.
0.573985 0.0909861 0.
0.575987 0.090985 0.
0.577988 0.0909839 0.
0.579989 0.0909827 0.
0.58199 0.0909815 0.
0.58399 0.0909807 0.
0.585991 0.0909808 0.
0.587993 0.0909809 0.
0.589994 0.090981 0.
0.591995 0.090981 0.
0.593995 0.0909811 0.
0.595997 0.0909808 0.
0.597999 0.0909804 0.
0.6 0.09098 0.
0.602001 0.0909802 0.
0.604002 0.0909803 0.
0.606003 0.0909805 0.
0.608004 0.0909809 0.
0.610005 0.0909813 0.
0.612006 0.0909817 0.
0.614008 0.0909823 0.
0.616009 0.0909829 0.
0.61801 0.0909841 0.
0.620011 0.0909856 0.
0.622012 0.0909872 0.
0.624013 0.0909881 0.
0.626014 0.090989 0.
0.628015 0.0909899 0.
0.630016 0.0909912 0.
0.632017 0.0909924 0.
0.634018 0.090994 0.
0.636019 0.0909963 0.
0.63802 0.0909986 0.
0.640021 0.091 0.
0.642022 0.0910006 0.
0.644023 0.0910013 0.
0.646024 0.0910027 0.
0.648026 0.0910043 0.
0.650027 0.0910059 0.
0.652028 0.0910073 0.
0.654028 0.0910087 0.
0.656029 0.09101 0.
0.65803 0.0910111 0.
0.660031 0.0910122 0.
0.662032 0.0910134 0.
0.664032 0.0910148 0.
0.666033 0.0910162 0.
0.668034 0.0910175 0.
0.670035 0.0910189 0.
0.672036 0.0910202 0.
0.674036 0.0910222 0.
0.676036 0.0910242 0.
0.678037 0.0910261 0.
0.680036 0.0910277 0.
0.682036 0.0910293 0.
0.684036 0.0910309 0.
0.686037 0.0910328 0.
0.688038 0.0910348 0.
0.690038 0.0910363 0.
0.692039 0.0910374 0.
0.694039 0.0910386 0.
0.696039 0.0910394 0.
0.698039 0.0910401 0.
0.499964 0.0930423 0.
0.501964 0.0930399 0.
0.503965 0.0930375 0.
0.505966 0.0930352 0.
0.507966 0.0930336 0.
0.509965 0.093032 0.
0.511966 0.0930303 0.
0.513966 0.0930283 0.
0.515966 0.0930264 0.
0.517966 0.0930244 0.
0.519966 0.0930225 0.
0.521966 0.0930205 0.
0.523967 0.0930192 0.
0.525967 0.0930179 0.
0.527968 0.0930166 0.
0.529969 0.0930156 0.
0.531969 0.0930145 0.
0.53397 0.0930133 0.
0.535971 0.093012 0.
0.537972 0.0930107 0.
0.539973 0.0930091 0.
0.541973 0.0930074 0.
0.543973 0.0930056 0.
0.545974 0.0930039 0.
0.547974 0.0930023 0.
0.549975 0.0930007 0.
0.551976 0.0929997 0.
0.553977 0.0929988 0.
0.555978 0.0929978 0.
0.557978 0.0929967 0.
0.559979 0.0929957 0.
0.56198 0.0929946 0.
0.563981 0.0929935 0.
0.565982 0.0929923 0.
0.567983 0.0929909 0.
0.569984 0.0929893 0.
0.571985 0.0929876 0.
0.573986 0.0929863 0.
0.575988 0.0929849 0.
0.577989 0.0929836 0.
0.57999 0.0929826 0.
0.58199 0.0929815 0.
0.583991 0.0929808 0.
0.585992 0.0929807 0.
0.587992 0.0929806 0.
0.589993 0.0929805 0.
0.591994 0.0929803 0.
0.593995 0.0929802 0.
0.595996 0.0929801 0.
0.597998 0.0929799 0.
0.6 0.0929798 0.
0.602001 0.0929799 0.
0.604001 0.0929801 0.
0.606002 0.0929802 0.
0.608003 0.0929803 0.
0.610005 0.0929804 0.
0.612006 0.0929808 0.
0.614007 0.0929816 0.
0.616008 0.0929825 0.
0.618009 0.0929837 0.
0.62001 0.0929852 0.
0.622011 0.0929866 0.
0.624012 0.0929875 0.
0.626012 0.0929882 0.
0.628013 0.0929891 0.
0.630014 0.0929905 0.
0.632016 0.0929918 0.
0.634017 0.0929935 0.
0.636018 0.0929959 0.
0.638019 0.0929982 0.
0.64002 0.0929997 0.
0.64202 0.0930007 0.
0.644021 0.0930016 0.
0.646022 0.0930028 0.
0.648023 0.093004 0.
0.650024 0.0930052 0.
0.652025 0.0930065 0.
0.654026 0.0930078 0.
0.656028 0.0930091 0.
0.658029 0.0930103 0.
0.66003 0.0930116 0.
0.662031 0.0930129 0.
0.664031 0.0930142 0.
0.666032 0.0930155 0.
0.668033 0.0930168 0.
0.670034 0.0930182 0.
0.672034 0.0930197 0.
0.674035 0.093022 0.
0.676035 0.0930245 0.
0.678035 0.0930268 0.
0.680035 0.0930283 0.
0.682035 0.0930297 0.
0.684035 0.0930312 0.
0.686036 0.0930329 0.
0.688037 0.0930345 0.
0.690037 0.0930359 0.
0.692037 0.0930371 0.
0.694037 0.0930383 0.
0.696037 0.0930395 0.
0.698037 0.0930407 0.
0.499965 0.0950422 0.
0.501966 0.0950401 0.
0.503967 0.0950377 0.
0.505968 0.0950354 0.
0.507968 0.0950337 0.
0.509968 0.0950319 0.
0.511968 0.0950301 0.
0.513968 0.0950283 0.
0.515968 0.0950265 0.
0.517968 0.0950245 0.
0.519968 0.0950224 0.
0.521967 0.0950204 0.
0.523968 0.095019 0.
0.525969 0.0950177 0.
0.52797 0.0950165 0.
0.529971 0.0950151 0.
0.531972 0.0950138 0.
0.533972 0.0950125 0.
0.535973 0.0950112 0.
0.537974 0.0950099 0.
0.539974 0.0950087 0.
0.541974 0.0950074 0.
0.543974 0.0950061 0.
0.545975 0.0950042 0.
0.547975 0.0950022 0.
0.549976 0.0950002 0.
0.551977 0.0949995 0.
0.553978 0.0949987 0.
0.55598 0.0949978 0.
0.55798 0.0949966 0.
0.55998 0.0949954 0.
0.561981 0.0949942 0.
0.563982 0.0949929 0.
0.565983 0.0949915 0.
0.567984 0.0949903 0.
0.569985 0.0949891 0.
0.571986 0.0949879 0.
0.573988 0.0949864 0.
0.575989 0.0949849 0.
0.57799 0.0949834 0.
0.57999 0.0949825 0.
0.581991 0.0949816 0.
0.583991 0.0949808 0.
0.585992 0.0949805 0.
0.587992 0.0949802 0.
0.589993 0.0949799 0.
0.591993 0.0949796 0.
0.593994 0.0949794 0.
0.595996 0.0949794 0.
0.597997 0.0949795 0.
0.599999 0.0949796 0.
0.602 0.0949797 0.
0.604001 0.0949798 0.
0.606002 0.0949798 0.
0.608003 0.0949796 0.
0.610004 0.0949795 0.
0.612005 0.0949799 0.
0.614006 0.094981 0.
0.616006 0.094982 0.
0.618007 0.0949833 0.
0.620009 0.0949847 0.
0.62201 0.0949861 0.
0.62401 0.0949868 0.
0.626011 0.0949875 0.
0.628012 0.0949883 0.
0.630013 0.0949898 0.
0.632014 0.0949913 0.
0.634015 0.094993 0.
0.636016 0.0949954 0.
0.638017 0.0949978 0.
0.640018 0.0949995 0.
0.642018 0.0950008 0.
0.644019 0.095002 0.
0.64602 0.0950029 0.
0.648021 0.0950038 0.
0.650021 0.0950046 0.
0.652023 0.0950057 0.
0.654025 0.0950069 0.
0.656026 0.0950081 0.
0.658027 0.0950095 0.
0.660029 0.095011 0.
0.66203 0.0950123 0.
0.66403 0.0950135 0.
0.666031 0.0950147 0.
0.668031 0.0950161 0.
0.670032 0.0950176 0.
0.672033 0.0950191 0.
0.674033 0.0950219 0.
0.676033 0.0950248 0.
0.678033 0.0950276 0.
0.680033 0.0950289 0.
0.682033 0.0950302 0.
0.684033 0.0950315 0.
0.686035 0.0950329 0.
0.688036 0.0950342 0.
0.690036 0.0950355 0.
0.692036 0.0950368 0.
0.694036 0.095038 0.
0.696036 0.0950396 0.
0.698036 0.0950413 0.
0.499969 0.0970431 0.
0.50197 0.0970405 0.
0.50397 0.0970377 0.
0.50597 0.0970351 0.
0.50797 0.0970333 0.
0.50997 0.0970314 0.
0.51197 0.0970296 0.
0.51397 0.0970279 0.
0.51597 0.0970263 0.
0.51797 0.0970244 0.
0.51997 0.0970225 0.
0.52197 0.0970205 0.
0.523971 0.097019 0.
0.525971 0.0970174 0.
0.527972 0.0970159 0.
0.529972 0.0970148 0.
0.531973 0.0970137 0.
0.533973 0.0970124 0.
0.535974 0.0970108 0.
0.537975 0.0970093 0.
0.539975 0.0970081 0.
0.541976 0.0970072 0.
0.543976 0.0970063 0.
0.545976 0.0970044 0.
0.547977 0.0970022 0.
0.549978 0.0969999 0.
0.551979 0.0969988 0.
0.553979 0.0969977 0.
0.55598 0.0969966 0.
0.557981 0.0969959 0.
0.559982 0.0969951 0.
0.561983 0.096994 0.
0.563983 0.0969925 0.
0.565984 0.0969911 0.
0.567985 0.0969896 0.
0.569986 0.0969881 0.
0.571987 0.0969866 0.
0.573989 0.0969856 0.
0.57599 0.0969847 0.
0.577991 0.0969838 0.
0.579992 0.0969826 0.
0.581992 0.0969815 0.
0.583992 0.0969806 0.
0.585993 0.0969804 0.
0.587993 0.0969802 0.
0.589994 0.0969797 0.
0.591994 0.0969788 0.
0.593995 0.096978 0.
0.595996 0.0969786 0.
0.597998 0.0969795 0.
0.6 0.0969805 0.
0.602 0.0969801 0.
0.604001 0.0969798 0.
0.606002 0.0969794 0.
0.608003 0.0969791 0.
0.610004 0.0969789 0.
0.612004 0.0969793 0.
0.614005 0.0969805 0.
0.616005 0.0969818 0.
0.618006 0.0969831 0.
0.620008 0.0969844 0.
0.622009 0.0969857 0.
0.62401 0.0969867 0.
0.62601 0.0969876 0.
0.628011 0.0969886 0.
0.630012 0.0969898 0.
0.632012 0.096991 0.
0.634013 0.0969926 0.
0.636014 0.0969949 0.
0.638015 0.0969971 0.
0.640017 0.0969988 0.
0.642018 0.0970001 0.
0.644019 0.0970014 0.
0.64602 0.0970025 0.
0.648021 0.0970036 0.
0.650022 0.0970047 0.
0.652023 0.0970055 0.
0.654024 0.0970063 0.
0.656025 0.0970073 0.
0.658027 0.0970091 0.
0.660028 0.0970109 0.
0.662028 0.0970123 0.
0.664029 0.0970132 0.
0.666029 0.0970142 0.
0.66803 0.0970156 0.
0.670031 0.0970173 0.
0.672032 0.0970189 0.
0.674032 0.0970218 0.
0.676031 0.0970249 0.
0.678031 0.0970277 0.
0.680032 0.097029 0.
0.682032 0.0970302 0.
0.684033 0.0970315 0.
0.686034 0.0970328 0.
0.688035 0.0970341 0.
0.690035 0.0970355 0.
0.692035 0.0970369 0.
0.694034 0.0970382 0.
0.696034 0.0970395 0.
0.698035 0.0970407 0.
0.499974 0.099044 0.
0.501973 0.0990409 0.
0.503972 0.0990377 0.
0.505972 0.0990348 0.
0.507972 0.0990328 0.
0.509972 0.0990309 0.
0.511972 0.0990291 0.
0.513972 0.0990276 0.
0.515972 0.0990261 0.
0.517972 0.0990244 0.
0.519973 0.0990225 0.
0.521973 0.0990207 0.
0.523973 0.0990189 0.
0.525974 0.0990171 0.
0.527974 0.0990153 0.
0.529974 0.0990144 0.
0.531974 0.0990135 0.
0.533974 0.0990123 0.
0.535975 0.0990105 0.
0.537976 0.0990086 0.
0.539977 0.0990075 0.
0.541977 0.099007 0.
0.543977 0.0990065 0.
0.545978 0.0990045 0.
0.547979 0.0990021 0.
0.54998 0.0989996 0.
0.55198 0.0989982 0.
0.55398 0.0989967 0.
0.555981 0.0989954 0.
0.557982 0.0989951 0.
0.559984 0.0989947 0.
0.561984 0.0989938 0.
0.563985 0.0989922 0.
0.565985 0.0989906 0.
0.567986 0.0989889 0.
0.569987 0.0989871 0.
0.571989 0.0989852 0.
0.57399 0.0989848 0.
0.575991 0.0989846 0.
0.577992 0.0989842 0.
0.579993 0.0989828 0.
0.581993 0.0989814 0.
0.583993 0.0989804 0.
0.585994 0.0989803 0.
0.587995 0.0989802 0.
0.589995 0.0989794 0.
0.591996 0.098978 0.
0.593996 0.0989767 0.
0.595997 0.0989778 0.
0.597998 0.0989796 0.
0.6 0.0989814 0.
0.602001 0.0989806 0.
0.604002 0.0989798 0.
0.606002 0.098979 0.
0.608003 0.0989786 0.
0.610003 0.0989782 0.
0.612004 0.0989787 0.
0.614004 0.0989801 0.
0.616004 0.0989816 0.
0.618005 0.0989829 0.
0.620007 0.0989842 0.
0.622008 0.0989854 0.
0.624009 0.0989866 0.
0.62601 0.0989878 0.
0.62801 0.098989 0.
0.63001 0.0989899 0.
0.63201 0.0989908 0.
0.63401 0.0989922 0.
0.636012 0.0989943 0.
0.638014 0.0989965 0.
0.640015 0.0989982 0.
0.642017 0.0989995 0.
0.644018 0.0990008 0.
0.646019 0.0990021 0.
0.648021 0.0990034 0.
0.650022 0.0990047 0.
0.652023 0.0990052 0.
0.654024 0.0990057 0.
0.656025 0.0990066 0.
0.658026 0.0990087 0.
0.660026 0.0990108 0.
0.662027 0.0990122 0.
0.664028 0.099013 0.
0.666028 0.0990137 0.
0.668029 0.0990151 0.
0.670029 0.0990169 0.
0.67203 0.0990187 0.
0.67403 0.0990217 0.
0.67603 0.0990249 0.
0.67803 0.0990278 0.
0.680031 0.0990291 0.
0.682031 0.0990303 0.
0.684032 0.0990315 0.
0.686033 0.0990328 0.
0.688034 0.0990341 0.
0.690034 0.0990355 0.
0.692033 0.099037 0.
0.694033 0.0990385 0.
0.696033 0.0990393 0.
0.698034 0.0990401 0.
CELLS 5000 10000
1 0
1 1
1 2
1 3
1 4
1 5
1 6
1 7
1 8
1 9
1 10
1 11
1 12
1 13
1 14
1 15
1 16
1 17
1 18
1 19
1 20
1 21
1 22
1 23
1 24
1 25
1 26
1 27
1 28
1 29
1 30
1 31
1 32
1 33
1 34
1 35
1 36
1 37
1 38
1 39
1 40
1 41
1 42
1 43
1 44
1 45
1 46
1 47
1 48
1 49
1 50
1 51
1 52
1 53
1 54
1 55
1 56
1 57
1 58
1 59
1 60
1 61
1 62
1 63
1 64
1 65
1 66
1 67
1 68
1 69
1 70
1 71
1 72
1 73
1 74
1 75
1 76
1 77
1 78
1 79
1 80
1 81
1 82
1 83
1 84
1 85
1 86
1 87
1 88
1 89
1 90
1 91
1 92
1 93
1 94
1 95
1 96
1 97
1 98
1 99
1 100
1 101
1 102
1 103
1 104
1 105
1 106
1 107
1 108
1 109
1 110
1 111
1 112
1 113
1 114
1 115
1 116
1 117
1 118
1 119
1 120
1 121
1 122
1 123
1 124
1 125
1 126
1 127
1 128
1 129
1 130
1 131
1 132
1 133
1 134
1 135
1 136
1 137
1 138
1 139
1 140
1 141
1 142
1 143
1 144
1 145
1 146
1 147
1 148
1 149
1 150
1 151
1 152
1 153
1 154
1 155
1 156
1 157
1 158
1 159
1 160
1 161
1 162
1 163
1 164
1 165
1 166
1 167
1 168
1 169
1 170
1 171
1 172
1 173
1 174
1 175
1 176
1 177
1 178
1 179
1 180
1 181
1 182
1 183
1 184
1 185
1 186
1 187
1 188
1 189
1 190
1 191
1 192
1 193
1 194
1 195
1 196
1 197
1 198
1 199
1 200
1 201
1 202
1 203
1 204
1 205
1 206
1 207
1 208
1 209
1 210
1 211
1 212
1 213
1 214
1 215
1 216
1 217
1 218
1 219
1 220
1 221
1 222
1 223
1 224
1 225
1 226
1 227
1 228
1 229
1 230
1 231
1 232
1 233
1 234
1 235
1 236
1 237
1 238
1 239
1 240
1 241
1 242
1 243
1 244
1 245
1 246
1 247
1 248
1 249
1 250
1 251
1 252
1 253
1 254
1 255
1 256
1 257
1 258
1 259
1 260
1 261
1 262
1 263
1 264
1 265
1 266
1 267
1 268
1 269
1 270
1 271
1 272
1 273
1 274
1 275
1 276
1 277
1 278
1 279
1 280
1 281
1 282
1 283
1 284
1 285
1 286
1 287
1 288
1 289
1 290
1 291
1 292
1 293
1 294
1 295
1 296
1 297
1 298
1 299
1 300
1 301
1 302
1 303
1 304
1 305
1 306
1 307
1 308
1 309
1 310
1 311
1 312
1 313
1 314
1 315
1 316
1 317
1 318
1 319
1 320
1 321
1 322
1 323
1 324
1 325
1 326
1 327
1 328
1 329
1 330
1 331
1 332
1 333
1 334
1 335
1 336
1 337
1 338
1 339
1 340
1 341
1 342
1 343
1 344
1 345
1 346
1 347
1 348
1 349
1 350
1 351
1 352
1 353
1 354
1 355
1 356
1 357
1 358
1 359
1 360
1 361
1 362
1 363
1 364
1 365
1 366
1 367
1 368
1 369
1 370
1 371
1 372
1 373
1 374
1 375
1 376
1 377
1 378
1 379
1 380
1 381
1 382
1 383
1 384
1 385
1 386
1 387
1 388
1 389
1 390
1 391
1 392
1 393
1 394
1 395
1 396
1 397
1 398
1 399
1 400
1 401
1 402
1 403
1 404
1 405
1 406
1 407
1 408
1 409
1 410
1 411
1 412
1 413
1 414
1 415
1 416
1 417
1 418
1 419
1 420
1 421
1 422
1 423
1 424
1 425
1 426
1 427
1 428
1 429
1 430
1 431
1 432
1 433
1 434
1 435
1 436
1 437
1 438
1 439
1 440
1 441
1 442
1 443
1 444
1 445
1 446
1 447
1 448
1 449
1 450
1 451
1 452
1 453
1 454
1 455
1 456
1 457
1 458
1 459
1 460
1 461
1 462
1 463
1 464
1 465
1 466
1 467
1 468
1 469
1 470
1 471
1 472
1 473
1 474
1 475
1 476
1 477
1 478
1 479
1 480
1 481
1 482
1 483
1 484
1 485
1 486
1 487
1 488
1 489
1 490
1 491
1 492
1 493
1 494
1 495
1 496
1 497
1 498
1 499
1 500
1 501
1 502
1 503
1 504
1 505
1 506
1 507
1 508
1 509
1 510
1 511
1 512
1 513
1 514
1 515
1 516
1 517
1 518
1 519
1 520
1 521
1 522
1 523
1 524
1 525
1 526
1 527
1 528
1 529
1 530
1 531
1 532
1 533
1 534
1 535
1 536
1 537
1 538
1 539
1 540
1 541
1 542
1 543
1 544
1 545
1 546
1 547
1 548
1 549
1 550
1 551
1 552
1 553
1 554
1 555
1 556
1 557
1 558
1 559
1 560
1 561
1 562
1 563
1 564
1 565
1 566
1 567
1 568
1 569
1 570
1 571
1 572
1 573
1 574
1 575
1 576
1 577
1 578
1 579
1 580
1 581
1 582
1 583
1 584
1 585
1 586
1 587
1 588
1 589
1 590
1 591
1 592
1 593
1 594
1 595
1 596
1 597
1 598
1 599
1 600
1 601
1 602
1 603
1 604
1 605
1 606
1 607
1 608
1 609
1 610
1 611
1 612
1 613
1 614
1 615
1 616
1 617
1 618
1 619
1 620
1 621
1 622
1 623
1 624
1 625
1 626
1 627
1 628
1 629
1 630
1 631
1 632
1 633
1 634
1 635
1 636
1 637
1 638
1 639
1 640
1 641
1 642
1 643
1 644
1 645
1 646
1 647
1 648
1 649
1 650
1 651
1 652
1 653
1 654
1 655
1 656
1 657
1 658
1 659
1 660
1 661
1 662
1 663
1 664
1 665
1 666
1 667
1 668
1 669
1 670
1 671
1 672
1 673
1 674
1 675
1 676
1 677
1 678
1 679
1 680
1 681
1 682
1 683
1 684
1 685
1 686
1 687
1 688
1 689
1 690
1 691
1 692
1 693
1 694
1 695
1 696
1 697
1 698
1 699
1 700
1 701
1 702
1 703
1 704
1 705
1 706
1 707
1 708
1 709
1 710
1 711
1 712
1 713
1 714
1 715
1 716
1 717
1 718
1 719
1 720
1 721
1 722
1 723
1 724
1 725
1 726
1 727
1 728
1 729
1 730
1 731
1 732
1 733
1 734
1 735
1 736
1 737
1 738
1 739
1 740
1 741
1 742
1 743
1 744
1 745
1 746
1 747
1 748
1 749
1 750
1 751
1 752
1 753
1 754
1 755
1 756
1 757
1 758
1 759
1 760
1 761
1 762
1 763
1 764
1 765
1 766
1 767
1 768
1 769
1 770
1 771
1 772
1 773
1 774
1 775
1 776
1 777
1 778
1 779
1 780
1 781
1 782
1 783
1 784
1 785
1 786
1 787
1 788
1 789
1 790
1 791
1 792
1 793
1 794
1 795
1 796
1 797
1 798
1 799
1 800
1 801
1 802
1 803
1 804
1 805
1 806
1 807
1 808
1 809
1 810
1 811
1 812
1 813
1 814
1 815
1 816
1 817
1 818
1 819
1 820
1 821
1 822
1 823
1 824
1 825
1 826
1 827
1 828
1 829
1 830
1 831
1 832
1 833
1 834
1 835
1 836
1 837
1 838
1 839
1 840
1 841
1 842
1 843
1 844
1 845
1 846
1 847
1 848
1 849
1 850
1 851
1 852
1 853
1 854
1 855
1 856
1 857
1 858
1 859
1 860
1 861
1 862
1 863
1 864
1 865
1 866
1 867
1 868
1 869
1 870
1 871
1 872
1 873
1 874
1 875
1 876
1 877
1 878
1 879
1 880
1 881
1 882
1 883
1 884
1 885
1 886
1 887
1 888
1 889
1 890
1 891
1 892
1 893
1 894
1 895
1 896
1 897
1 898
1 899
1 900
1 901
1 902
1 903
1 904
1 905
1 906
1 907
1 908
1 909
1 910
1 911
1 912
1 913
1 914
1 915
1 916
1 917
1 918
1 919
1 920
1 921
1 922
1 923
1 924
1 925
1 926
1 927
1 928
1 929
1 930
1 931
1 932
1 933
1 934
1 935
1 936
1 937
1 938
1 939
1 940
1 941
1 942
1 943
1 944
1 945
1 946
1 947
1 948
1 949
1 950
1 951
1 952
1 953
1 954
1 955
1 956
1 957
1 958
1 959
1 960
1 961
1 962
1 963
1 964
1 965
1 966
1 967
1 968
1 969
1 970
1 971
1 972
1 973
1 974
1 975
1 976
1 977
1 978
1 979
1 980
1 981
1 982
1 983
1 984
1 985
1 986
1 987
1 988
1 989
1 990
1 991
1 992
1 993
1 994
1 995
1 996
1 997
1 998
1 999
1 1000
1 1001
1 1002
1 1003
1 1004
1 1005
1 1006
1 1007
1 1008
1 1009
1 1010
1 1011
1 1012
1 1013
1 1014
1 1015
1 1016
1 1017
1 1018
1 1019
1 1020
1 1021
1 1022
1 1023
1 1024
1 1025
1 1026
1 1027
1 1028
1 1029
1 1030
1 1031
1 1032
1 1033
1 1034
1 1035
1 1036
1 1037
1 1038
1 1039
1 1040
1 1041
1 1042
1 1043
1 1044
1 1045
1 1046
1 1047
1 1048
1 1049
1 1050
1 1051
1 1052
1 1053
1 1054
1 1055
1 1056
1 1057
1 1058
1 1059
1 1060
1 1061
1 1062
1 1063
1 1064
1 1065
1 1066
1 1067
1 1068
1 1069
1 1070
1 1071
1 1072
1 1073
1 1074
1 1075
1 1076
1 1077
1 1078
1 1079
1 1080
1 1081
1 1082
1 1083
1 1084
1 1085
1 1086
1 1087
1 1088
1 1089
1 1090
1 1091
1 1092
1 1093
1 1094
1 1095
1 1096
1 1097
1 1098
1 1099
1 1100
1 1101
1 1102
1 1103
1 1104
1 1105
1 1106
1 1107
1 1108
1 1109
1 1110
1 1111
1 1112
1 1113
1 1114
1 1115
1 1116
1 1117
1 1118
1 1119
1 1120
1 1121
1 1122
1 1123
1 1124
1 1125
1 1126
1 1127
1 1128
1 1129
1 1130
1 1131
1 1132
1 1133
1 1134
1 1135
1 1136
1 1137
1 1138
1 1139
1 1140
1 1141
1 1142
1 1143
1 1144
1 1145
1 1146
1 1147
1 1148
1 1149
1 1150
1 1151
1 1152
1 1153
1 1154
1 1155
1 1156
1 1157
1 1158
1 1159
1 1160
1 1161
1 1162
1 1163
1 1164
1 1165
1 1166
1 1167
1 1168
1 1169
1 1170
1 1171
1 1172
1 1173
1 1174
1 1175
1 1176
1 1177
1 1178
1 1179
1 1180
1 1181
1 1182
1 1183
1 1184
1 1185
1 1186
1 1187
1 1188
1 1189
1 1190
1 1191
1 1192
1 1193
1 1194
1 1195
1 1196
1 1197
1 1198
1 1199
1 1200
1 1201
1 1202
1 1203
1 1204
1 1205
1 1206
1 1207
1 1208
1 1209
1 1210
1 1211
1 1212
1 1213
1 1214
1 1215
1 1216
1 1217
1 1218
1 1219
1 1220
1 1221
1 1222
1 1223
1 1224
1 1225
1 1226
1 1227
1 1228
1 1229
1 1230
1 1231
1 1232
1 1233
1 1234
1 1235
1 1236
1 1237
1 1238
1 1239
1 1240
1 1241
1 1242
1 1243
1 1244
1 1245
1 1246
1 1247
1 1248
1 1249
1 1250
1 1251
1 1252
1 1253
1 1254
1 1255
1 1256
1 1257
1 1258
1 1259
1 1260
1 1261
1 1262
1 1263
1 1264
1 1265
1 1266
1 1267
1 1268
1 1269
1 1270
1 1271
1 1272
1 1273
1 1274
1 1275
1 1276
1 1277
1 1278
1 1279
1 1280
1 1281
1 1282
1 1283
1 1284
1 1285
1 1286
1 1287
1 1288
1 1289
1 1290
1 1291
1 1292
1 1293
1 1294
1 1295
1 1296
1 1297
1 1298
1 1299
1 1300
1 1301
1 1302
1 1303
1 1304
1 1305
1 1306
1 1307
1 1308
1 1309
1 1310
1 1311
1 1312
1 1313
1 1314
1 1315
1 1316
1 1317
1 1318
1 1319
1 1320
1 1321
1 1322
1 1323
1 1324
1 1325
1 1326
1 1327
1 1328
1 1329
1 1330
1 1331
1 1332
1 1333
1 1334
1 1335
1 1336
1 1337
1 1338
1 1339
1 1340
1 1341
1 1342
1 1343
1 1344
1 1345
1 1346
1 1347
1 1348
1 1349
1 1350
1 1351
1 1352
1 1353
1 1354
1 1355
1 1356
1 1357
1 1358
1 1359
1 1360
1 1361
1 1362
1 1363
1 1364
1 1365
1 1366
1 1367
1 1368
1 1369
1 1370
1 1371
1 1372
1 1373
1 1374
1 1375
1 1376
1 1377
1 1378
1 1379
1 1380
1 1381
1 1382
1 1383
1 1384
1 1385
1 1386
1 1387
1 1388
1 1389
1 1390
1 1391
1 1392
1 1393
1 1394
1 1395
1 1396
1 1397
1 1398
1 1399
1 1400
1 1401
1 1402
1 1403
1 1404
1 1405
1 1406
1 1407
1 1408
1 1409
1 1410
1 1411
1 1412
1 1413
1 1414
1 1415
1 1416
1 1417
1 1418
1 1419
1 1420
1 1421
1 1422
1 1423
1 1424
1 1425
1 1426
1 1427
1 1428
1 1429
1 1430
1 1431
1 1432
1 1433
1 1434
1 1435
1 1436
1 1437
1 1438
1 1439
1 1440
1 1441
1 1442
1 1443
1 1444
1 1445
1 1446
1 1447
1 1448
1 1449
1 1450
1 1451
1 1452
1 1453
1 1454
1 1455
1 1456
1 1457
1 1458
1 1459
1 1460
1 1461
1 1462
1 1463
1 1464
1 1465
1 1466
1 1467
1 1468
1 1469
1 1470
1 1471
1 1472
1 1473
1 1474
1 1475
1 1476
1 1477
1 1478
1 1479
1 1480
1 1481
1 1482
1 1483
1 1484
1 1485
1 1486
1 1487
1 1488
1 1489
1 1490
1 1491
1 1492
1 1493
1 1494
1 1495
1 1496
1 1497
1 1498
1 1499
1 1500
1 1501
1 1502
1 1503
1 1504
1 1505
1 1506
1 1507
1 1508
1 1509
1 1510
1 1511
1 1512
1 1513
1 1514
1 1515
1 1516
1 1517
1 1518
1 1519
1 1520
1 1521
1 1522
1 1523
1 1524
1 1525
1 1526
1 1527
1 1528
1 1529
1 1530
1 1531
1 1532
1 1533
1 1534
1 1535
1 1536
1 1537
1 1538
1 1539
1 1540
1 1541
1 1542
1 1543
1 1544
1 1545
1 1546
1 1547
1 1548
1 1549
1 1550
1 1551
1 1552
1 1553
1 1554
1 1555
1 1556
1 1557
1 1558
1 1559
1 1560
1 1561
1 1562
1 1563
1 1564
1 1565
1 1566
1 1567
1 1568
1 1569
1 1570
1 1571
1 1572
1 1573
1 1574
1 1575
1 1576
1 1577
1 1578
1 1579
1 1580
1 1581
1 1582
1 1583
1 1584
1 1585
1 1586
1 1587
1 1588
1 1589
1 1590
1 1591
1 1592
1 1593
1 1594
1 1595
1 1596
1 1597
1 1598
1 1599
1 1600
1 1601
1 1602
1 1603
1 1604
1 1605
1 1606
1 1607
1 1608
1 1609
1 1610
1 1611
1 1612
1 1613
1 1614
1 1615
1 1616
1 1617
1 1618
1 1619
1 1620
1 1621
1 1622
1 1623
1 1624
1 1625
1 1626
1 1627
1 1628
1 1629
1 1630
1 1631
1 1632
1 1633
1 1634
1 1635
1 1636
1 1637
1 1638
1 1639
1 1640
1 1641
1 1642
1 1643
1 1644
1 1645
1 1646
1 1647
1 1648
1 1649
1 1650
1 1651
1 1652
1 1653
1 1654
1 1655
1 1656
1 1657
1 1658
1 1659
1 1660
1 1661
1 1662
1 1663
1 1664
1 1665
1 1666
1 1667
1 1668
1 1669
1 1670
1 1671
1 1672
1 1673
1 1674
1 1675
1 1676
1 1677
1 1678
1 1679
1 1680
1 1681
1 1682
1 1683
1 1684
1 1685
1 1686
1 1687
1 1688
1 1689
1 1690
1 1691
1 1692
1 1693
1 1694
1 1695
1 1696
1 1697
1 1698
1 1699
1 1700
1 1701
1 1702
1 1703
1 1704
1 1705
1 1706
1 1707
1 1708
1 1709
1 1710
1 1711
1 1712
1 1713
1 1714
1 1715
1 1716
1 1717
1 1718
1 1719
1 1720
1 1721
1 1722
1 1723
1 1724
1 1725
1 1726
1 1727
1 1728
1 1729
1 1730
1 1731
1 1732
1 1733
1 1734
1 1735
1 1736
1 1737
1 1738
1 1739
1 1740
1 1741
1 1742
1 1743
1 1744
1 1745
1 1746
1 1747
1 1748
1 1749
1 1750
1 1751
1 1752
1 1753
1 1754
1 1755
1 1756
1 1757
1 1758
1 1759
1 1760
1 1761
1 1762
1 1763
1 1764
1 1765
1 1766
1 1767
1 1768
1 1769
1 1770
1 1771
1 1772
1 1773
1 1774
1 1775
1 1776
1 1777
1 1778
1 1779
1 1780
1 1781
1 1782
1 1783
1 1784
1 1785
1 1786
1 1787
1 1788
1 1789
1 1790
1 1791
1 1792
1 1793
1 1794
1 1795
1 1796
1 1797
1 1798
1 1799
1 1800
1 1801
1 1802
1 1803
1 1804
1 1805
1 1806
1 1807
1 1808
1 1809
1 1810
1 1811
1 1812
1 1813
1 1814
1 1815
1 1816
1 1817
1 1818
1 1819
1 1820
1 1821
1 1822
1 1823
1 1824
1 1825
1 1826
1 1827
1 1828
1 1829
1 1830
1 1831
1 1832
1 1833
1 1834
1 1835
1 1836
1 1837
1 1838
1 1839
1 1840
1 1841
1 1842
1 1843
1 1844
1 1845
1 1846
1 1847
1 1848
1 1849
1 1850
1 1851
1 1852
1 1853
1 1854
1 1855
1 1856
1 1857
1 1858
1 1859
1 1860
1 1861
1 1862
1 1863
1 1864
1 1865
1 1866
1 1867
1 1868
1 1869
1 1870
1 1871
1 1872
1 1873
1 1874
1 1875
1 1876
1 1877
1 1878
1 1879
1 1880
1 1881
1 1882
1 1883
1 1884
1 1885
1 1886
1 1887
1 1888
1 1889
1 1890
1 1891
1 1892
1 1893
1 1894
1 1895
1 1896
1 1897
1 1898
1 1899
1 1900
1 1901
1 1902
1 1903
1 1904
1 1905
1 1906
1 1907
1 1908
1 1909
1 1910
1 1911
1 1912
1 1913
1 1914
1 1915
1 1916
1 1917
1 1918
1 1919
1 1920
1 1921
1 1922
1 1923
1 1924
1 1925
1 1926
1 1927
1 1928
1 1929
1 1930
1 1931
1 1932
1 1933
1 1934
1 1935
1 1936
1 1937
1 1938
1 1939
1 1940
1 1941
1 1942
1 1943
1 1944
1 1945
1 1946
1 1947
1 1948
1 1949
1 1950
1 1951
1 1952
1 1953
1 1954
1 1955
1 1956
1 1957
1 1958
1 1959
1 1960
1 1961
1 1962
1 1963
1 1964
1 1965
1 1966
1 1967
1 1968
1 1969
1 1970
1 1971
1 1972
1 1973
1 1974
1 1975
1 1976
1 1977
1 1978
1 1979
1 1980
1 1981
1 1982
1 1983
1 1984
1 1985
1 1986
1 1987
1 1988
1 1989
1 1990
1 1991
1 1992
1 1993
1 1994
1 1995
1 1996
1 1997
1 1998
1 1999
1 2000
1 2001
1 2002
1 2003
1 2004
1 2005
1 2006
1 2007
1 2008
1 2009
1 2010
1 2011
1 2012
1 2013
1 2014
1 2015
1 2016
1 2017
1 2018
1 2019
1 2020
1 2021
1 2022
1 2023
1 2024
1 2025
1 2026
1 2027
1 2028
1 2029
1 2030
1 2031
1 2032
1 2033
1 2034
1 2035
1 2036
1 2037
1 2038
1 2039
1 2040
1 2041
1 2042
1 2043
1 2044
1 2045
1 2046
1 2047
1 2048
1 2049
1 2050
1 2051
1 2052
1 2053
1 2054
1 2055
1 2056
1 2057
1 2058
1 2059
1 2060
1 2061
1 2062
1 2063
1 2064
1 2065
1 2066
1 2067
1 2068
1 2069
1 2070
1 2071
1 2072
1 2073
1 2074
1 2075
1 2076
1 2077
1 2078
1 2079
1 2080
1 2081
1 2082
1 2083
1 2084
1 2085
1 2086
1 2087
1 2088
1 2089
1 2090
1 2091
1 2092
1 2093
1 2094
1 2095
1 2096
1 2097
1 2098
1 2099
1 2100
1 2101
1 2102
1 2103
1 2104
1 2105
1 2106
1 2107
1 2108
1 2109
1 2110
1 2111
1 2112
1 2113
1 2114
1 2115
1 2116
1 2117
1 2118
1 2119
1 2120
1 2121
1 2122
1 2123
1 2124
1 2125
1 2126
1 2127
1 2128
1 2129
1 2130
1 2131
1 2132
1 2133
1 2134
1 2135
1 2136
1 2137
1 2138
1 2139
1 2140
1 2141
1 2142
1 2143
1 2144
1 2145
1 2146
1 2147
1 2148
1 2149
1 2150
1 2151
1 2152
1 2153
1 2154
1 2155
1 2156
1 2157
1 2158
1 2159
1 2160
1 2161
1 2162
1 2163
1 2164
1 2165
1 2166
1 2167
1 2168
1 2169
1 2170
1 2171
1 2172
1 2173
1 2174
1 2175
1 2176
1 2177
1 2178
1 2179
1 2180
1 2181
1 2182
1 2183
1 2184
1 2185
1 2186
1 2187
1 2188
1 2189
1 2190
1 2191
1 2192
1 2193
1 2194
1 2195
1 2196
1 2197
1 2198
1 2199
1 2200
1 2201
1 2202
1 2203
1 2204
1 2205
1 2206
1 2207
1 2208
1 2209
1 2210
1 2211
1 2212
1 2213
1 2214
1 2215
1 2216
1 2217
1 2218
1 2219
1 2220
1 2221
1 2222
1 2223
1 2224
1 2225
1 2226
1 2227
1 2228
1 2229
1 2230
1 2231
1 2232
1 2233
1 2234
1 2235
1 2236
1 2237
1 2238
1 2239
1 2240
1 2241
1 2242
1 2243
1 2244
1 2245
1 2246
1 2247
1 2248
1 2249
1 2250
1 2251
1 2252
1 2253
1 2254
1 2255
1 2256
1 2257
1 2258
1 2259
1 2260
1 2261
1 2262
1 2263
1 2264
1 2265
1 2266
1 2267
1 2268
1 2269
1 2270
1 2271
1 2272
1 2273
1 2274
1 2275
1 2276
1 2277
1 2278
1 2279
1 2280
1 2281
1 2282
1 2283
1 2284
1 2285
1 2286
1 2287
1 2288
1 2289
1 2290
1 2291
1 2292
1 2293
1 2294
1 2295
1 2296
1 2297
1 2298
1 2299
1 2300
1 2301
1 2302
1 2303
1 2304
1 2305
1 2306
1 2307
1 2308
1 2309
1 2310
1 2311
1 2312
1 2313
1 2314
1 2315
1 2316
1 2317
1 2318
1 2319
1 2320
1 2321
1 2322
1 2323
1 2324
1 2325
1 2326
1 2327
1 2328
1 2329
1 2330
1 2331
1 2332
1 2333
1 2334
1 2335
1 2336
1 2337
1 2338
1 2339
1 2340
1 2341
1 2342
1 2343
1 2344
1 2345
1 2346
1 2347
1 2348
1 2349
1 2350
1 2351
1 2352
1 2353
1 2354
1 2355
1 2356
1 2357
1 2358
1 2359
1 2360
1 2361
1 2362
1 2363
1 2364
1 2365
1 2366
1 2367
1 2368
1 2369
1 2370
1 2371
1 2372
1 2373
1 2374
1 2375
1 2376
1 2377
1 2378
1 2379
1 2380
1 2381
1 2382
1 2383
1 2384
1 2385
1 2386
1 2387
1 2388
1 2389
1 2390
1 2391
1 2392
1 2393
1 2394
1 2395
1 2396
1 2397
1 2398
1 2399
1 2400
1 2401
1 2402
1 2403
1 2404
1 2405
1 2406
1 2407
1 2408
1 2409
1 2410
1 2411
1 2412
1 2413
1 2414
1 2415
1 2416
1 2417
1 2418
1 2419
1 2420
1 2421
1 2422
1 2423
1 2424
1 2425
1 2426
1 2427
1 2428
1 2429
1 2430
1 2431
1 2432
1 2433
1 2434
1 2435
1 2436
1 2437
1 2438
1 2439
1 2440
1 2441
1 2442
1 2443
1 2444
1 2445
1 2446
1 2447
1 2448
1 2449
1 2450
1 2451
1 2452
1 2453
1 2454
1 2455
1 2456
1 2457
1 2458
1 2459
1 2460
1 2461
1 2462
1 2463
1 2464
1 2465
1 2466
1 2467
1 2468
1 2469
1 2470
1 2471
1 2472
1 2473
1 2474
1 2475
1 2476
1 2477
1 2478
1 2479
1 2480
1 2481
1 2482
1 2483
1 2484
1 2485
1 2486
1 2487
1 2488
1 2489
1 2490
1 2491
1 2492
1 2493
1 2494
1 2495
1 2496
1 2497
1 2498
1 2499
1 2500
1 2501
1 2502
1 2503
1 2504
1 2505
1 2506
1 2507
1 2508
1 2509
1 2510
1 2511
1 2512
1 2513
1 2514
1 2515
1 2516
1 2517
1 2518
1 2519
1 2520
1 2521
1 2522
1 2523
1 2524
1 2525
1 2526
1 2527
1 2528
1 2529
1 2530
1 2531
1 2532
1 2533
1 2534
1 2535
1 2536
1 2537
1 2538
1 2539
1 2540
1 2541
1 2542
1 2543
1 2544
1 2545
1 2546
1 2547
1 2548
1 2549
1 2550
1 2551
1 2552
1 2553
1 2554
1 2555
1 2556
1 2557
1 2558
1 2559
1 2560
1 2561
1 2562
1 2563
1 2564
1 2565
1 2566
1 2567
1 2568
1 2569
1 2570
1 2571
1 2572
1 2573
1 2574
1 2575
1 2576
1 2577
1 2578
1 2579
1 2580
1 2581
1 2582
1 2583
1 2584
1 2585
1 2586
1 2587
1 2588
1 2589
1 2590
1 2591
1 2592
1 2593
1 2594
1 2595
1 2596
1 2597
1 2598
1 2599
1 2600
1 2601
1 2602
1 2603
1 2604
1 2605
1 2606
1 2607
1 2608
1 2609
1 2610
1 2611
1 2612
1 2613
1 2614
1 2615
1 2616
1 2617
1 2618
1 2619
1 2620
1 2621
1 2622
1 2623
1 2624
1 2625
1 2626
1 2627
1 2628
1 2629
1 2630
1 2631
1 2632
1 2633
1 2634
1 2635
1 2636
1 2637
1 2638
1 2639
1 2640
1 2641
1 2642
1 2643
1 2644
1 2645
1 2646
1 2647
1 2648
1 2649
1 2650
1 2651
1 2652
1 2653
1 2654
1 2655
1 2656
1 2657
1 2658
1 2659
1 2660
1 2661
1 2662
1 2663
1 2664
1 2665
1 2666
1 2667
1 2668
1 2669
1 2670
1 2671
1 2672
1 2673
1 2674
1 2675
1 2676
1 2677
1 2678
1 2679
1 2680
1 2681
1 2682
1 2683
1 2684
1 2685
1 2686
1 2687
1 2688
1 2689
1 2690
1 2691
1 2692
1 2693
1 2694
1 2695
1 2696
1 2697
1 2698
1 2699
1 2700
1 2701
1 2702
1 2703
1 2704
1 2705
1 2706
1 2707
1 2708
1 2709
1 2710
1 2711
1 2712
1 2713
1 2714
1 2715
1 2716
1 2717
1 2718
1 2719
1 2720
1 2721
1 2722
1 2723
1 2724
1 2725
1 2726
1 2727
1 2728
1 2729
1 2730
1 2731
1 2732
1 2733
1 2734
1 2735
1 2736
1 2737
1 2738
1 2739
1 2740
1 2741
1 2742
1 2743
1 2744
1 2745
1 2746
1 2747
1 2748
1 2749
1 2750
1 2751
1 2752
1 2753
1 2754
1 2755
1 2756
1 2757
1 2758
1 2759
1 2760
1 2761
1 2762
1 2763
1 2764
1 2765
1 2766
1 2767
1 2768
1 2769
1 2770
1 2771
1 2772
1 2773
1 2774
1 2775
1 2776
1 2777
1 2778
1 2779
1 2780
1 2781
1 2782
1 2783
1 2784
1 2785
1 2786
1 2787
1 2788
1 2789
1 2790
1 2791
1 2792
1 2793
1 2794
1 2795
1 2796
1 2797
1 2798
1 2799
1 2800
1 2801
1 2802
1 2803
1 2804
1 2805
1 2806
1 2807
1 2808
1 2809
1 2810
1 2811
1 2812
1 2813
1 2814
1 2815
1 2816
1 2817
1 2818
1 2819
1 2820
1 2821
1 2822
1 2823
1 2824
1 2825
1 2826
1 2827
1 2828
1 2829
1 2830
1 2831
1 2832
1 2833
1 2834
1 2835
1 2836
1 2837
1 2838
1 2839
1 2840
1 2841
1 2842
1 2843
1 2844
1 2845
1 2846
1 2847
1 2848
1 2849
1 2850
1 2851
1 2852
1 2853
1 2854
1 2855
1 2856
1 2857
1 2858
1 2859
1 2860
1 2861
1 2862
1 2863
1 2864
1 2865
1 2866
1 2867
1 2868
1 2869
1 2870
1 2871
1 2872
1 2873
1 2874
1 2875
1 2876
1 2877
1 2878
1 2879
1 2880
1 2881
1 2882
1 2883
1 2884
1 2885
1 2886
1 2887
1 2888
1 2889
1 2890
1 2891
1 2892
1 2893
1 2894
1 2895
1 2896
1 2897
1 2898
1 2899
1 2900
1 2901
1 2902
1 2903
1 2904
1 2905
1 2906
1 2907
1 2908
1 2909
1 2910
1 2911
1 2912
1 2913
1 2914
1 2915
1 2916
1 2917
1 2918
1 2919
1 2920
1 2921
1 2922
1 2923
1 2924
1 2925
1 2926
1 2927
1 2928
1 2929
1 2930
1 2931
1 2932
1 2933
1 2934
1 2935
1 2936
1 2937
1 2938
1 2939
1 2940
1 2941
1 2942
1 2943
1 2944
1 2945
1 2946
1 2947
1 2948
1 2949
1 2950
1 2951
1 2952
1 2953
1 2954
1 2955
1 2956
1 2957
1 2958
1 2959
1 2960
1 2961
1 2962
1 2963
1 2964
1 2965
1 2966
1 2967
1 2968
1 2969
1 2970
1 2971
1 2972
1 2973
1 2974
1 2975
1 2976
1 2977
1 2978
1 2979
1 2980
1 2981
1 2982
1 2983
1 2984
1 2985
1 2986
1 2987
1 2988
1 2989
1 2990
1 2991
1 2992
1 2993
1 2994
1 2995
1 2996
1 2997
1 2998
1 2999
1 3000
1 3001
1 3002
1 3003
1 3004
1 3005
1 3006
1 3007
1 3008
1 3009
1 3010
1 3011
1 3012
1 3013
1 3014
1 3015
1 3016
1 3017
1 3018
1 3019
1 3020
1 3021
1 3022
1 3023
1 3024
1 3025
1 3026
1 3027
1 3028
1 3029
1 3030
1 3031
1 3032
1 3033
1 3034
1 3035
1 3036
1 3037
1 3038
1 3039
1 3040
1 3041
1 3042
1 3043
1 3044
1 3045
1 3046
1 3047
1 3048
1 3049
1 3050
1 3051
1 3052
1 3053
1 3054
1 3055
1 3056
1 3057
1 3058
1 3059
1 3060
1 3061
1 3062
1 3063
1 3064
1 3065
1 3066
1 3067
1 3068
1 3069
1 3070
1 3071
1 3072
1 3073
1 3074
1 3075
1 3076
1 3077
1 3078
1 3079
1 3080
1 3081
1 3082
1 3083
1 3084
1 3085
1 3086
1 3087
1 3088
1 3089
1 3090
1 3091
1 3092
1 3093
1 3094
1 3095
1 3096
1 3097
1 3098
1 3099
1 3100
1 3101
1 3102
1 3103
1 3104
1 3105
1 3106
1 3107
1 3108
1 3109
1 3110
1 3111
1 3112
1 3113
1 3114
1 3115
1 3116
1 3117
1 3118
1 3119
1 3120
1 3121
1 3122
1 3123
1 3124
1 3125
1 3126
1 3127
1 3128
1 3129
1 3130
1 3131
1 3132
1 3133
1 3134
1 3135
1 3136
1 3137
1 3138
1 3139
1 3140
1 3141
1 3142
1 3143
1 3144
1 3145
1 3146
1 3147
1 3148
1 3149
1 3150
1 3151
1 3152
1 3153
1 3154
1 3155
1 3156
1 3157
1 3158
1 3159
1 3160
1 3161
1 3162
1 3163
1 3164
1 3165
1 3166
1 3167
1 3168
1 3169
1 3170
1 3171
1 3172
1 3173
1 3174
1 3175
1 3176
1 3177
1 3178
1 3179
1 3180
1 3181
1 3182
1 3183
1 3184
1 3185
1 3186
1 3187
1 3188
1 3189
1 3190
1 3191
1 3192
1 3193
1 3194
1 3195
1 3196
1 3197
1 3198
1 3199
1 3200
1 3201
1 3202
1 3203
1 3204
1 3205
1 3206
1 3207
1 3208
1 3209
1 3210
1 3211
1 3212
1 3213
1 3214
1 3215
1 3216
1 3217
1 3218
1 3219
1 3220
1 3221
1 3222
1 3223
1 3224
1 3225
1 3226
1 3227
1 3228
1 3229
1 3230
1 3231
1 3232
1 3233
1 3234
1 3235
1 3236
1 3237
1 3238
1 3239
1 3240
1 3241
1 3242
1 3243
1 3244
1 3245
1 3246
1 3247
1 3248
1 3249
1 3250
1 3251
1 3252
1 3253
1 3254
1 3255
1 3256
1 3257
1 3258
1 3259
1 3260
1 3261
1 3262
1 3263
1 3264
1 3265
1 3266
1 3267
1 3268
1 3269
1 3270
1 3271
1 3272
1 3273
1 3274
1 3275
1 3276
1 3277
1 3278
1 3279
1 3280
1 3281
1 3282
1 3283
1 3284
1 3285
1 3286
1 3287
1 3288
1 3289
1 3290
1 3291
1 3292
1 3293
1 3294
1 3295
1 3296
1 3297
1 3298
1 3299
1 3300
1 3301
1 3302
1 3303
1 3304
1 3305
1 3306
1 3307
1 3308
1 3309
1 3310
1 3311
1 3312
1 3313
1 3314
1 3315
1 3316
1 3317
1 3318
1 3319
1 3320
1 3321
1 3322
1 3323
1 3324
1 3325
1 3326
1 3327
1 3328
1 3329
1 3330
1 3331
1 3332
1 3333
1 3334
1 3335
1 3336
1 3337
1 3338
1 3339
1 3340
1 3341
1 3342
1 3343
1 3344
1 3345
1 3346
1 3347
1 3348
1 3349
1 3350
1 3351
1 3352
1 3353
1 3354
1 3355
1 3356
1 3357
1 3358
1 3359
1 3360
1 3361
1 3362
1 3363
1 3364
1 3365
1 3366
1 3367
1 3368
1 3369
1 3370
1 3371
1 3372
1 3373
1 3374
1 3375
1 3376
1 3377
1 3378
1 3379
1 3380
1 3381
1 3382
1 3383
1 3384
1 3385
1 3386
1 3387
1 3388
1 3389
1 3390
1 3391
1 3392
1 3393
1 3394
1 3395
1 3396
1 3397
1 3398
1 3399
1 3400
1 3401
1 3402
1 3403
1 3404
1 3405
1 3406
1 3407
1 3408
1 3409
1 3410
1 3411
1 3412
1 3413
1 3414
1 3415
1 3416
1 3417
1 3418
1 3419
1 3420
1 3421
1 3422
1 3423
1 3424
1 3425
1 3426
1 3427
1 3428
1 3429
1 3430
1 3431
1 3432
1 3433
1 3434
1 3435
1 3436
1 3437
1 3438
1 3439
1 3440
1 3441
1 3442
1 3443
1 3444
1 3445
1 3446
1 3447
1 3448
1 3449
1 3450
1 3451
1 3452
1 3453
1 3454
1 3455
1 3456
1 3457
1 3458
1 3459
1 3460
1 3461
1 3462
1 3463
1 3464
1 3465
1 3466
1 3467
1 3468
1 3469
1 3470
1 3471
1 3472
1 3473
1 3474
1 3475
1 3476
1 3477
1 3478
1 3479
1 3480
1 3481
1 3482
1 3483
1 3484
1 3485
1 3486
1 3487
1 3488
1 3489
1 3490
1 3491
1 3492
1 3493
1 3494
1 3495
1 3496
1 3497
1 3498
1 3499
1 3500
1 3501
1 3502
1 3503
1 3504
1 3505
1 3506
1 3507
1 3508
1 3509
1 3510
1 3511
1 3512
1 3513
1 3514
1 3515
1 3516
1 3517
1 3518
1 3519
1 3520
1 3521
1 3522
1 3523
1 3524
1 3525
1 3526
1 3527
1 3528
1 3529
1 3530
1 3531
1 3532
1 3533
1 3534
1 3535
1 3536
1 3537
1 3538
1 3539
1 3540
1 3541
1 3542
1 3543
1 3544
1 3545
1 3546
1 3547
1 3548
1 3549
1 3550
1 3551
1 3552
1 3553
1 3554
1 3555
1 3556
1 3557
1 3558
1 3559
1 3560
1 3561
1 3562
1 3563
1 3564
1 3565
1 3566
1 3567
1 3568
1 3569
1 3570
1 3571
1 3572
1 3573
1 3574
1 3575
1 3576
1 3577
1 3578
1 3579
1 3580
1 3581
1 3582
1 3583
1 3584
1 3585
1 3586
1 3587
1 3588
1 3589
1 3590
1 3591
1 3592
1 3593
1 3594
1 3595
1 3596
1 3597
1 3598
1 3599
1 3600
1 3601
1 3602
1 3603
1 3604
1 3605
1 3606
1 3607
1 3608
1 3609
1 3610
1 3611
1 3612
1 3613
1 3614
1 3615
1 3616
1 3617
1 3618
1 3619
1 3620
1 3621
1 3622
1 3623
1 3624
1 3625
1 3626
1 3627
1 3628
1 3629
1 3630
1 3631
1 3632
1 3633
1 3634
1 3635
1 3636
1 3637
1 3638
1 3639
1 3640
1 3641
1 3642
1 3643
1 3644
1 3645
1 3646
1 3647
1 3648
1 3649
1 3650
1 3651
1 3652
1 3653
1 3654
1 3655
1 3656
1 3657
1 3658
1 3659
1 3660
1 3661
1 3662
1 3663
1 3664
1 3665
1 3666
1 3667
1 3668
1 3669
1 3670
1 3671
1 3672
1 3673
1 3674
1 3675
1 3676
1 3677
1 3678
1 3679
1 3680
1 3681
1 3682
1 3683
1 3684
1 3685
1 3686
1 3687
1 3688
1 3689
1 3690
1 3691
1 3692
1 3693
1 3694
1 3695
1 3696
1 3697
1 3698
1 3699
1 3700
1 3701
1 3702
1 3703
1 3704
1 3705
1 3706
1 3707
1 3708
1 3709
1 3710
1 3711
1 3712
1 3713
1 3714
1 3715
1 3716
1 3717
1 3718
1 3719
1 3720
1 3721
1 3722
1 3723
1 3724
1 3725
1 3726
1 3727
1 3728
1 3729
1 3730
1 3731
1 3732
1 3733
1 3734
1 3735
1 3736
1 3737
1 3738
1 3739
1 3740
1 3741
1 3742
1 3743
1 3744
1 3745
1 3746
1 3747
1 3748
1 3749
1 3750
1 3751
1 3752
1 3753
1 3754
1 3755
1 3756
1 3757
1 3758
1 3759
1 3760
1 3761
1 3762
1 3763
1 3764
1 3765
1 3766
1 3767
1 3768
1 3769
1 3770
1 3771
1 3772
1 3773
1 3774
1 3775
1 3776
1 3777
1 3778
1 3779
1 3780
1 3781
1 3782
1 3783
1 3784
1 3785
1 3786
1 3787
1 3788
1 3789
1 3790
1 3791
1 3792
1 3793
1 3794
1 3795
1 3796
1 3797
1 3798
1 3799
1 3800
1 3801
1 3802
1 3803
1 3804
1 3805
1 3806
1 3807
1 3808
1 3809
1 3810
1 3811
1 3812
1 3813
1 3814
1 3815
1 3816
1 3817
1 3818
1 3819
1 3820
1 3821
1 3822
1 3823
1 3824
1 3825
1 3826
1 3827
1 3828
1 3829
1 3830
1 3831
1 3832
1 3833
1 3834
1 3835
1 3836
1 3837
1 3838
1 3839
1 3840
1 3841
1 3842
1 3843
1 3844
1 3845
1 3846
1 3847
1 3848
1 3849
1 3850
1 3851
1 3852
1 3853
1 3854
1 3855
1 3856
1 3857
1 3858
1 3859
1 3860
1 3861
1 3862
1 3863
1 3864
1 3865
1 3866
1 3867
1 3868
1 3869
1 3870
1 3871
1 3872
1 3873
1 3874
1 3875
1 3876
1 3877
1 3878
1 3879
1 3880
1 3881
1 3882
1 3883
1 3884
1 3885
1 3886
1 3887
1 3888
1 3889
1 3890
1 3891
1 3892
1 3893
1 3894
1 3895
1 3896
1 3897
1 3898
1 3899
1 3900
1 3901
1 3902
1 3903
1 3904
1 3905
1 3906
1 3907
1 3908
1 3909
1 3910
1 3911
1 3912
1 3913
1 3914
1 3915
1 3916
1 3917
1 3918
1 3919
1 3920
1 3921
1 3922
1 3923
1 3924
1 3925
1 3926
1 3927
1 3928
1 3929
1 3930
1 3931
1 3932
1 3933
1 3934
1 3935
1 3936
1 3937
1 3938
1 3939
1 3940
1 3941
1 3942
1 3943
1 3944
1 3945
1 3946
1 3947
1 3948
1 3949
1 3950
1 3951
1 3952
1 3953
1 3954
1 3955
1 3956
1 3957
1 3958
1 3959
1 3960
1 3961
1 3962
1 3963
1 3964
1 3965
1 3966
1 3967
1 3968
1 3969
1 3970
1 3971
1 3972
1 3973
1 3974
1 3975
1 3976
1 3977
1 3978
1 3979
1 3980
1 3981
1 3982
1 3983
1 3984
1 3985
1 3986
1 3987
1 3988
1 3989
1 3990
1 3991
1 3992
1 3993
1 3994
1 3995
1 3996
1 3997
1 3998
1 3999
1 4000
1 4001
1 4002
1 4003
1 4004
1 4005
1 4006
1 4007
1 4008
1 4009
1 4010
1 4011
1 4012
1 4013
1 4014
1 4015
1 4016
1 4017
1 4018
1 4019
1 4020
1 4021
1 4022
1 4023
1 4024
1 4025
1 4026
1 4027
1 4028
1 4029
1 4030
1 4031
1 4032
1 4033
1 4034
1 4035
1 4036
1 4037
1 4038
1 4039
1 4040
1 4041
1 4042
1 4043
1 4044
1 4045
1 4046
1 4047
1 4048
1 4049
1 4050
1 4051
1 4052
1 4053
1 4054
1 4055
1 4056
1 4057
1 4058
1 4059
1 4060
1 4061
1 4062
1 4063
1 4064
1 4065
1 4066
1 4067
1 4068
1 4069
1 4070
1 4071
1 4072
1 4073
1 4074
1 4075
1 4076
1 4077
1 4078
1 4079
1 4080
1 4081
1 4082
1 4083
1 4084
1 4085
1 4086
1 4087
1 4088
1 4089
1 4090
1 4091
1 4092
1 4093
1 4094
1 4095
1 4096
1 4097
1 4098
1 4099
1 4100
1 4101
1 4102
1 4103
1 4104
1 4105
1 4106
1 4107
1 4108
1 4109
1 4110
1 4111
1 4112
1 4113
1 4114
1 4115
1 4116
1 4117
1 4118
1 4119
1 4120
1 4121
1 4122
1 4123
1 4124
1 4125
1 4126
1 4127
1 4128
1 4129
1 4130
1 4131
1 4132
1 4133
1 4134
1 4135
1 4136
1 4137
1 4138
1 4139
1 4140
1 4141
1 4142
1 4143
1 4144
1 4145
1 4146
1 4147
1 4148
1 4149
1 4150
1 4151
1 4152
1 4153
1 4154
1 4155
1 4156
1 4157
1 4158
1 4159
1 4160
1 4161
1 4162
1 4163
1 4164
1 4165
1 4166
1 4167
1 4168
1 4169
1 4170
1 4171
1 4172
1 4173
1 4174
1 4175
1 4176
1 4177
1 4178
1 4179
1 4180
1 4181
1 4182
1 4183
1 4184
1 4185
1 4186
1 4187
1 4188
1 4189
1 4190
1 4191
1 4192
1 4193
1 4194
1 4195
1 4196
1 4197
1 4198
1 4199
1 4200
1 4201
1 4202
1 4203
1 4204
1 4205
1 4206
1 4207
1 4208
1 4209
1 4210
1 4211
1 4212
1 4213
1 4214
1 4215
1 4216
1 4217
1 4218
1 4219
1 4220
1 4221
1 4222
1 4223
1 4224
1 4225
1 4226
1 4227
1 4228
1 4229
1 4230
1 4231
1 4232
1 4233
1 4234
1 4235
1 4236
1 4237
1 4238
1 4239
1 4240
1 4241
1 4242
1 4243
1 4244
1 4245
1 4246
1 4247
1 4248
1 4249
1 4250
1 4251
1 4252
1 4253
1 4254
1 4255
1 4256
1 4257
1 4258
1 4259
1 4260
1 4261
1 4262
1 4263
1 4264
1 4265
1 4266
1 4267
1 4268
1 4269
1 4270
1 4271
1 4272
1 4273
1 4274
1 4275
1 4276
1 4277
1 4278
1 4279
1 4280
1 4281
1 4282
1 4283
1 4284
1 4285
1 4286
1 4287
1 4288
1 4289
1 4290
1 4291
1 4292
1 4293
1 4294
1 4295
1 4296
1 4297
1 4298
1 4299
1 4300
1 4301
1 4302
1 4303
1 4304
1 4305
1 4306
1 4307
1 4308
1 4309
1 4310
1 4311
1 4312
1 4313
1 4314
1 4315
1 4316
1 4317
1 4318
1 4319
1 4320
1 4321
1 4322
1 4323
1 4324
1 4325
1 4326
1 4327
1 4328
1 4329
1 4330
1 4331
1 4332
1 4333
1 4334
1 4335
1 4336
1 4337
1 4338
1 4339
1 4340
1 4341
1 4342
1 4343
1 4344
1 4345
1 4346
1 4347
1 4348
1 4349
1 4350
1 4351
1 4352
1 4353
1 4354
1 4355
1 4356
1 4357
1 4358
1 4359
1 4360
1 4361
1 4362
1 4363
1 4364
1 4365
1 4366
1 4367
1 4368
1 4369
1 4370
1 4371
1 4372
1 4373
1 4374
1 4375
1 4376
1 4377
1 4378
1 4379
1 4380
1 4381
1 4382
1 4383
1 4384
1 4385
1 4386
1 4387
1 4388
1 4389
1 4390
1 4391
1 4392
1 4393
1 4394
1 4395
1 4396
1 4397
1 4398
1 4399
1 4400
1 4401
1 4402
1 4403
1 4404
1 4405
1 4406
1 4407
1 4408
1 4409
1 4410
1 4411
1 4412
1 4413
1 4414
1 4415
1 4416
1 4417
1 4418
1 4419
1 4420
1 4421
1 4422
1 4423
1 4424
1 4425
1 4426
1 4427
1 4428
1 4429
1 4430
1 4431
1 4432
1 4433
1 4434
1 4435
1 4436
1 4437
1 4438
1 4439
1 4440
1 4441
1 4442
1 4443
1 4444
1 4445
1 4446
1 4447
1 4448
1 4449
1 4450
1 4451
1 4452
1 4453
1 4454
1 4455
1 4456
1 4457
1 4458
1 4459
1 4460
1 4461
1 4462
1 4463
1 4464
1 4465
1 4466
1 4467
1 4468
1 4469
1 4470
1 4471
1 4472
1 4473
1 4474
1 4475
1 4476
1 4477
1 4478
1 4479
1 4480
1 4481
1 4482
1 4483
1 4484
1 4485
1 4486
1 4487
1 4488
1 4489
1 4490
1 4491
1 4492
1 4493
1 4494
1 4495
1 4496
1 4497
1 4498
1 4499
1 4500
1 4501
1 4502
1 4503
1 4504
1 4505
1 4506
1 4507
1 4508
1 4509
1 4510
1 4511
1 4512
1 4513
1 4514
1 4515
1 4516
1 4517
1 4518
1 4519
1 4520
1 4521
1 4522
1 4523
1 4524
1 4525
1 4526
1 4527
1 4528
1 4529
1 4530
1 4531
1 4532
1 4533
1 4534
1 4535
1 4536
1 4537
1 4538
1 4539
1 4540
1 4541
1 4542
1 4543
1 4544
1 4545
1 4546
1 4547
1 4548
1 4549
1 4550
1 4551
1 4552
1 4553
1 4554
1 4555
1 4556
1 4557
1 4558
1 4559
1 4560
1 4561
1 4562
1 4563
1 4564
1 4565
1 4566
1 4567
1 4568
1 4569
1 4570
1 4571
1 4572
1 4573
1 4574
1 4575
1 4576
1 4577
1 4578
1 4579
1 4580
1 4581
1 4582
1 4583
1 4584
1 4585
1 4586
1 4587
1 4588
1 4589
1 4590
1 4591
1 4592
1 4593
1 4594
1 4595
1 4596
1 4597
1 4598
1 4599
1 4600
1 4601
1 4602
1 4603
1 4604
1 4605
1 4606
1 4607
1 4608
1 4609
1 4610
1 4611
1 4612
1 4613
1 4614
1 4615
1 4616
1 4617
1 4618
1 4619
1 4620
1 4621
1 4622
1 4623
1 4624
1 4625
1 4626
1 4627
1 4628
1 4629
1 4630
1 4631
1 4632
1 4633
1 4634
1 4635
1 4636
1 4637
1 4638
1 4639
1 4640
1 4641
1 4642
1 4643
1 4644
1 4645
1 4646
1 4647
1 4648
1 4649
1 4650
1 4651
1 4652
1 4653
1 4654
1 4655
1 4656
1 4657
1 4658
1 4659
1 4660
1 4661
1 4662
1 4663
1 4664
1 4665
1 4666
1 4667
1 4668
1 4669
1 4670
1 4671
1 4672
1 4673
1 4674
1 4675
1 4676
1 4677
1 4678
1 4679
1 4680
1 4681
1 4682
1 4683
1 4684
1 4685
1 4686
1 4687
1 4688
1 4689
1 4690
1 4691
1 4692
1 4693
1 4694
1 4695
1 4696
1 4697
1 4698
1 4699
1 4700
1 4701
1 4702
1 4703
1 4704
1 4705
1 4706
1 4707
1 4708
1 4709
1 4710
1 4711
1 4712
1 4713
1 4714
1 4715
1 4716
1 4717
1 4718
1 4719
1 4720
1 4721
1 4722
1 4723
1 4724
1 4725
1 4726
1 4727
1 4728
1 4729
1 4730
1 4731
1 4732
1 4733
1 4734
1 4735
1 4736
1 4737
1 4738
1 4739
1 4740
1 4741
1 4742
1 4743
1 4744
1 4745
1 4746
1 4747
1 4748
1 4749
1 4750
1 4751
1 4752
1 4753
1 4754
1 4755
1 4756
1 4757
1 4758
1 4759
1 4760
1 4761
1 4762
1 4763
1 4764
1 4765
1 4766
1 4767
1 4768
1 4769
1 4770
1 4771
1 4772
1 4773
1 4774
1 4775
1 4776
1 4777
1 4778
1 4779
1 4780
1 4781
1 4782
1 4783
1 4784
1 4785
1 4786
1 4787
1 4788
1 4789
1 4790
1 4791
1 4792
1 4793
1 4794
1 4795
1 4796
1 4797
1 4798
1 4799
1 4800
1 4801
1 4802
1 4803
1 4804
1 4805
1 4806
1 4807
1 4808
1 4809
1 4810
1 4811
1 4812
1 4813
1 4814
1 4815
1 4816
1 4817
1 4818
1 4819
1 4820
1 4821
1 4822
1 4823
1 4824
1 4825
1 4826
1 4827
1 4828
1 4829
1 4830
1 4831
1 4832
1 4833
1 4834
1 4835
1 4836
1 4837
1 4838
1 4839
1 4840
1 4841
1 4842
1 4843
1 4844
1 4845
1 4846
1 4847
1 4848
1 4849
1 4850
1 4851
1 4852
1 4853
1 4854
1 4855
1 4856
1 4857
1 4858
1 4859
1 4860
1 4861
1 4862
1 4863
1 4864
1 4865
1 4866
1 4867
1 4868
1 4869
1 4870
1 4871
1 4872
1 4873
1 4874
1 4875
1 4876
1 4877
1 4878
1 4879
1 4880
1 4881
1 4882
1 4883
1 4884
1 4885
1 4886
1 4887
1 4888
1 4889
1 4890
1 4891
1 4892
1 4893
1 4894
1 4895
1 4896
1 4897
1 4898
1 4899
1 4900
1 4901
1 4902
1 4903
1 4904
1 4905
1 4906
1 4907
1 4908
1 4909
1 4910
1 4911
1 4912
1 4913
1 4914
1 4915
1 4916
1 4917
1 4918
1 4919
1 4920
1 4921
1 4922
1 4923
1 4924
1 4925
1 4926
1 4927
1 4928
1 4929
1 4930
1 4931
1 4932
1 4933
1 4934
1 4935
1 4936
1 4937
1 4938
1 4939
1 4940
1 4941
1 4942
1 4943
1 4944
1 4945
1 4946
1 4947
1 4948
1 4949
1 4950
1 4951
1 4952
1 4953
1 4954
1 4955
1 4956
1 4957
1 4958
1 4959
1 4960
1 4961
1 4962
1 4963
1 4964
1 4965
1 4966
1 4967
1 4968
1 4969
1 4970
1 4971
1 4972
1 4973
1 4974
1 4975
1 4976
1 4977
1 4978
1 4979
1 4980
1 4981
1 4982
1 4983
1 4984
1 4985
1 4986
1 4987
1 4988
1 4989
1 4990
1 4991
1 4992
1 4993
1 4994
1 4995
1 4996
1 4997
1 4998
1 4999
CELL_TYPES 5000
1 
1 
1 
1 
1 
1 
1 
1 
1 
1 
1 
1 
1 
1 
1 
1 
1 
1 
1 
1 
1 
1 
1 
1 
1 
1 
1 
1 
1 
1 
1 
1 
1 
1 
1 
1 
1 
1 
1 
1 
1 
1 
1 
1 
1 
1 
1 
1 
1 
1 
1 
1 
1 
1 
1 
1 
1 
1 
1 
1 
1 
1 
1 
1 
1 
1 
1 
1 
1 
1 
1 
1 
1 
1 
1 
1 
1 
1 
1 
1 
1 
1 
1 
1 
1 
1 
1 
1 
1 
1 
1 
1 
1 
1 
1 
1 
1 
1 
1 
1 
1 
1 
1 
1 
1 
1 
1 
1 
1 
1 
1 
1 
1 
1 
1 
1 
1 
1 
1 
1 
1 
1 
1 
1 
1 
1 
1 
1 
1 
1 
1 
1 
1 
1 
1 
1 
1 
1 
1 
1 
1 
1 
1 
1 
1 
1 
1 
1 
1 
1 
1 
1 
1 
1 
1 
1 
1 
1 
1 
1 
1 
1 
1 
1 
1 
1 
1 
1 
1 
1 
1 
1 
1 
1 
1 
1 
1 
1 
1 
1 
1 
1 
1 
1 
1 
1 
1 
1 
1 
1 
1 
1 
1 
1 
1 
1 
1 
1 
1 
1 
1 
1 
1 
1 
1 
1 
1 
1 
1 
1 
1 
1 
1 
1 
1 
1 
1 
1 
1 
1 
1 
1 
1 
1 
1 
1 
1 
1 
1 
1 
1 
1 
1 
1 
1 
1 
1 
1 
1 
1 
1 
1 
1 
1 
1 
1 
1 
1 
1 
1 
1 
1 
1 
1 
1 
1 
1 
1 
1 
1 
1 
1 
1 
1 
1 
1 
1 
1 
1 
1 
1 
1 
1 
1 
1 
1 
1 
1 
1 
1 
1 
1 
1 
1 
1 
1 
1 
1 
1 
1 
1 
1 
1 
1 
1 
1 
1 
1 
1 
1 
1 
1 
1 
1 
1 
1 
1 
1 
1 
1 
1 
1 
1 
1 
1 
1 
1 
1 
1 
1 
1 
1 
1 
1 
1 
1 
1 
1 
1 
1 
1 
1 
1 
1 
1 
1 
1 
1 
1 
1 
1 
1 
1 
1 
1 
1 
1 
1 
1 
1 
1 
1 
1 
1 
1 
1 
1 
1 
1 
1 
1 
1 
1 
1 
1 
1 
1 
1 
1 
1 
1 
1 
1 
1 
1 
1 
1 
1 
1 
1 
1 
1 
1 
1 
1 
1 
1 
1 
1 
1 
1 
1 
1 
1 
1 
1 
1 
1 
1 
1 
1 
1 
1 
1 
1 
1 
1 
1 
1 
1 
1 
1 
1 
1 
1 
1 
1 
1 
1 
1 
1 
1 
1 
1 
1 
1 
1 
1 
1 
1 
1 
1 
1 
1 
1 
1 
1 
1 
1 
1 
1 
1 
1 
1 
1 
1 
1 
1 
1 
1 
1 
1 
1 
1 
1 
1 
1 
1 
1 
1 
1 
1 
1 
1 
1 
1 
1 
1 
1 
1 
1 
1 
1 
1 
1 
1 
1 
1 
1 
1 
1 
1 
1 
1 
1 
1 
1 
1 
1 
1 
1 
1 
1 
1 
1 
1 
1 
1 
1 
1 
1 
1 
1 
1 
1 
1 
1 
1 
1 
1 
1 
1 
1 
1 
1 
1 
1 
1 
1 
1 
1 
1 
1 
1 
1 
1 
1 
1 
1 
1 
1 
1 
1 
1 
1 
1 
1 
1 
1 
1 
1 
1 
1 
1 
1 
1 
1 
1 
1 
1 
1 
1 
1 
1 
1 
1 
1 
1 
1 
1 
1 
1 
1 
1 
1 
1 
1 
1 
1 
1 
1 
1 
1 
1 
1 
1 
1 
1 
1 
1 
1 
1 
1 
1 
1 
1 
1 
1 
1 
1 
1 
1 
1 
1 
1 
1 
1 
1 
1 
1 
1 
1 
1 
1 
1 
1 
1 
1 
1 
1 
1 
1 
1 
1 
1 
1 
1 
1 
1 
1 
1 
1 
1 
1 
1 
1 
1 
1 
1 
1 
1 
1 
1 
1 
1 
1 
1 
1 
1 
1 
1 
1 
1 
1 
1 
1 
1 
1 
1 
1 
1 
1 
1 
1 
1 
1 
1 
1 
1 
1 
1 
1 
1 
1 
1 
1 
1 
1 
1 
1 
1 
1 
1 
1 
1 
1 
1 
1 
1 
1 
1 
1 
1 
1 
1 
1 
1 
1 
1 
1 
1 
1 
1 
1 
1 
1 
1 
1 
1 
1 
1 
1 
1 
1 
1 
1 
1 
1 
1 
1 
1 
1 
1 
1 
1 
1 
1 
1 
1 
1 
1 
1 
1 
1 
1 
1 
1 
1 
1 
1 
1 
1 
1 
1 
1 
1 
1 
1 
1 
1 
1 
1 
1 
1 
1 
1 
1 
1 
1 
1 
1 
1 
1 
1 
1 
1 
1 
1 
1 
1 
1 
1 
1 
1 
1 
1 
1 
1 
1 
1 
1 
1 
1 
1 
1 
1 
1 
1 
1 
1 
1 
1 
1 
1 
1 
1 
1 
1 
1 
1 
1 
1 
1 
1 
1 
1 
1 
1 
1 
1 
1 
1 
1 
1 
1 
1 
1 
1 
1 
1 
1 
1 
1 
1 
1 
1 
1 
1 
1 
1 
1 
1 
1 
1 
1 
1 
1 
1 
1 
1 
1 
1 
1 
1 
1 
1 
1 
1 
1 
1 
1 
1 
1 
1 
1 
1 
1 
1 
1 
1 
1 
1 
1 
1 
1 
1 
1 
1 
1 
1 
1 
1 
1 
1 
1 
1 
1 
1 
1 
1 
1 
1 
1 
1 
1 
1 
1 
1 
1 
1 
1 
1 
1 
1 
1 
1 
1 
1 
1 
1 
1 
1 
1 
1 
1 
1 
1 
1 
1 
1 
1 
1 
1 
1 
1 
1 
1 
1 
1 
1 
1 
1 
1 
1 
1 
1 
1 
1 
1 
1 
1 
1 
1 
1 
1 
1 
1 
1 
1 
1 
1 
1 
1 
1 
1 
1 
1 
1 
1 
1 
1 
1 
1 
1 
1 
1 
1 
1 
1 
1 
1 
1 
1 
1 
1 
1 
1 
1 
1 
1 
1 
1 
1 
1 
1 
1 
1 
1 
1 
1 
1 
1 
1 
1 
1 
1 
1 
1 
1 
1 
1 
1 
1 
1 
1 
1 
1 
1 
1 
1 
1 
1 
1 
1 
1 
1 
1 
1 
1 
1 
1 
1 
1 
1 
1 
1 
1 
1 
1 
1 
1 
1 
1 
1 
1 
1 
1 
1 
1 
1 
1 
1 
1 
1 
1 
1 
1 
1 
1 
1 
1 
1 
1 
1 
1 
1 
1 
1 
1 
1 
1 
1 
1 
1 
1 
1 
1 
1 
1 
1 
1 
1 
1 
1 
1 
1 
1 
1 
1 
1 
1 
1 
1 
1 
1 
1 
1 
1 
1 
1 
1 
1 
1 
1 
1 
1 
1 
1 
1 
1 
1 
1 
1 
1 
1 
1 
1 
1 
1 
1 
1 
1 
1 
1 
1 
1 
1 
1 
1 
1 
1 
1 
1 
1 
1 
1 
1 
1 
1 
1 
1 
1 
1 
1 
1 
1 
1 
1 
1 
1 
1 
1 
1 
1 
1 
1 
1 
1 
1 
1 
1 
1 
1 
1 
1 
1 
1 
1 
1 
1 
1 
1 
1 
1 
1 
1 
1 
1 
1 
1 
1 
1 
1 
1 
1 
1 
1 
1 
1 
1 
1 
1 
1 
1 
1 
1 
1 
1 
1 
1 
1 
1 
1 
1 
1 
1 
1 
1 
1 
1 
1 
1 
1 
1 
1 
1 
1 
1 
1 
1 
1 
1 
1 
1 
1 
1 
1 
1 
1 
1 
1 
1 
1 
1 
1 
1 
1 
1 
1 
1 
1 
1 
1 
1 
1 
1 
1 
1 
1 
1 
1 
1 
1 
1 
1 
1 
1 
1 
1 
1 
1 
1 
1 
1 
1 
1 
1 
1 
1 
1 
1 
1 
1 
1 
1 
1 
1 
1 
1 
1 
1 
1 
1 
1 
1 
1 
1 
1 
1 
1 
1 
1 
1 
1 
1 
1 
1 
1 
1 
1 
1 
1 
1 
1 
1 
1 
1 
1 
1 
1 
1 
1 
1 
1 
1 
1 
1 
1 
1 
1 
1 
1 
1 
1 
1 
1 
1 
1 
1 
1 
1 
1 
1 
1 
1 
1 
1 
1 
1 
1 
1 
1 
1 
1 
1 
1 
1 
1 
1 
1 
1 
1 
1 
1 
1 
1 
1 
1 
1 
1 
1 
1 
1 
1 
1 
1 
1 
1 
1 
1 
1 
1 
1 
1 
1 
1 
1 
1 
1 
1 
1 
1 
1 
1 
1 
1 
1 
1 
1 
1 
1 
1 
1 
1 
1 
1 
1 
1 
1 
1 
1 
1 
1 
1 
1 
1 
1 
1 
1 
1 
1 
1 
1 
1 
1 
1 
1 
1 
1 
1 
1 
1 
1 
1 
1 
1 
1 
1 
1 
1 
1 
1 
1 
1 
1 
1 
1 
1 
1 
1 
1 
1 
1 
1 
1 
1 
1 
1 
1 
1 
1 
1 
1 
1 
1 
1 
1 
1 
1 
1 
1 
1 
1 
1 
1 
1 
1 
1 
1 
1 
1 
1 
1 
1 
1 
1 
1 
1 
1 
1 
1 
1 
1 
1 
1 
1 
1 
1 
1 
1 
1 
1 
1 
1 
1 
1 
1 
1 
1 
1 
1 
1 
1 
1 
1 
1 
1 
1 
1 
1 
1 
1 
1 
1 
1 
1 
1 
1 
1 
1 
1 
1 
1 
1 
1 
1 
1 
1 
1 
1 
1 
1 
1 
1 
1 
1 
1 
1 
1 
1 
1 
1 
1 
1 
1 
1 
1 
1 
1 
1 
1 
1 
1 
1 
1 
1 
1 
1 
1 
1 
1 
1 
1 
1 
1 
1 
1 
1 
1 
1 
1 
1 
1 
1 
1 
1 
1 
1 
1 
1 
1 
1 
1 
1 
1 
1 
1 
1 
1 
1 
1 
1 
1 
1 
1 
1 
1 
1 
1 
1 
1 
1 
1 
1 
1 
1 
1 
1 
1 
1 
1 
1 
1 
1 
1 
1 
1 
1 
1 
1 
1 
1 
1 
1 
1 
1 
1 
1 
1 
1 
1 
1 
1 
1 
1 
1 
1 
1 
1 
1 
1 
1 
1 
1 
1 
1 
1 
1 
1 
1 
1 
1 
1 
1 
1 
1 
1 
1 
1 
1 
1 
1 
1 
1 
1 
1 
1 
1 
1 
1 
1 
1 
1 
1 
1 
1 
1 
1 
1 
1 
1 
1 
1 
1 
1 
1 
1 
1 
1 
1 
1 
1 
1 
1 
1 
1 
1 
1 
1 
1 
1 
1 
1 
1 
1 
1 
1 
1 
1 
1 
1 
1 
1 
1 
1 
1 
1 
1 
1 
1 
1 
1 
1 
1 
1 
1 
1 
1 
1 
1 
1 
1 
1 
1 
1 
1 
1 
1 
1 
1 
1 
1 
1 
1 
1 
1 
1 
1 
1 
1 
1 
1 
1 
1 
1 
1 
1 
1 
1 
1 
1 
1 
1 
1 
1 
1 
1 
1 
1 
1 
1 
1 
1 
1 
1 
1 
1 
1 
1 
1 
1 
1 
1 
1 
1 
1 
1 
1 
1 
1 
1 
1 
1 
1 
1 
1 
1 
1 
1 
1 
1 
1 
1 
1 
1 
1 
1 
1 
1 
1 
1 
1 
1 
1 
1 
1 
1 
1 
1 
1 
1 
1 
1 
1 
1 
1 
1 
1 
1 
1 
1 
1 
1 
1 
1 
1 
1 
1 
1 
1 
1 
1 
1 
1 
1 
1 
1 
1 
1 
1 
1 
1 
1 
1 
1 
1 
1 
1 
1 
1 
1 
1 
1 
1 
1 
1 
1 
1 
1 
1 
1 
1 
1 
1 
1 
1 
1 
1 
1 
1 
1 
1 
1 
1 
1 
1 
1 
1 
1 
1 
1 
1 
1 
1 
1 
1 
1 
1 
1 
1 
1 
1 
1 
1 
1 
1 
1 
1 
1 
1 
1 
1 
1 
1 
1 
1 
1 
1 
1 
1 
1 
1 
1 
1 
1 
1 
1 
1 
1 
1 
1 
1 
1 
1 
1 
1 
1 
1 
1 
1 
1 
1 
1 
1 
1 
1 
1 
1 
1 
1 
1 
1 
1 
1 
1 
1 
1 
1 
1 
1 
1 
1 
1 
1 
1 
1 
1 
1 
1 
1 
1 
1 
1 
1 
1 
1 
1 
1 
1 
1 
1 
1 
1 
1 
1 
1 
1 
1 
1 
1 
1 
1 
1 
1 
1 
1 
1 
1 
1 
1 
1 
1 
1 
1 
1 
1 
1 
1 
1 
1 
1 
1 
1 
1 
1 
1 
1 
1 
1 
1 
1 
1 
1 
1 
1 
1 
1 
1 
1 
1 
1 
1 
1 
1 
1 
1 
1 
1 
1 
1 
1 
1 
1 
1 
1 
1 
1 
1 
1 
1 
1 
1 
1 
1 
1 
1 
1 
1 
1 
1 
1 
1 
1 
1 
1 
1 
1 
1 
1 
1 
1 
1 
1 
1 
1 
1 
1 
1 
1 
1 
1 
1 
1 
1 
1 
1 
1 
1 
1 
1 
1 
1 
1 
1 
1 
1 
1 
1 
1 
1 
1 
1 
1 
1 
1 
1 
1 
1 
1 
1 
1 
1 
1 
1 
1 
1 
1 
1 
1 
1 
1 
1 
1 
1 
1 
1 
1 
1 
1 
1 
1 
1 
1 
1 
1 
1 
1 
1 
1 
1 
1 
1 
1 
1 
1 
1 
1 
1 
1 
1 
1 
1 
1 
1 
1 
1 
1 
1 
1 
1 
1 
1 
1 
1 
1 
1 
1 
1 
1 
1 
1 
1 
1 
1 
1 
1 
1 
1 
1 
1 
1 
1 
1 
1 
1 
1 
1 
1 
1 
1 
1 
1 
1 
1 
1 
1 
1 
1 
1 
1 
1 
1 
1 
1 
1 
1 
1 
1 
1 
1 
1 
1 
1 
1 
1 
1 
1 
1 
1 
1 
1 
1 
1 
1 
1 
1 
1 
1 
1 
1 
1 
1 
1 
1 
1 
1 
1 
1 
1 
1 
1 
1 
1 
1 
1 
1 
1 
1 
1 
1 
1 
1 
1 
1 
1 
1 
1 
1 
1 
1 
1 
1 
1 
1 
1 
1 
1 
1 
1 
1 
1 
1 
1 
1 
1 
1 
1 
1 
1 
1 
1 
1 
1 
1 
1 
1 
1 
1 
1 
1 
1 
1 
1 
1 
1 
1 
1 
1 
1 
1 
1 
1 
1 
1 
1 
1 
1 
1 
1 
1 
1 
1 
1 
1 
1 
1 
1 
1 
1 
1 
1 
1 
1 
1 
1 
1 
1 
1 
1 
1 
1 
1 
1 
1 
1 
1 
1 
1 
1 
1 
1 
1 
1 
1 
1 
1 
1 
1 
1 
1 
1 
1 
1 
1 
1 
1 
1 
1 
1 
1 
1 
1 
1 
1 
1 
1 
1 
1 
1 
1 
1 
1 
1 
1 
1 
1 
1 
1 
1 
1 
1 
1 
1 
1 
1 
1 
1 
1 
1 
1 
1 
1 
1 
1 
1 
1 
1 
1 
1 
1 
1 
1 
1 
1 
1 
1 
1 
1 
1 
1 
1 
1 
1 
1 
1 
1 
1 
1 
1 
1 
1 
1 
1 
1 
1 
1 
1 
1 
1 
1 
1 
1 
1 
1 
1 
1 
1 
1 
1 
1 
1 
1 
1 
1 
1 
1 
1 
1 
1 
1 
1 
1 
1 
1 
1 
1 
1 
1 
1 
1 
1 
1 
1 
1 
1 
1 
1 
1 
1 
1 
1 
1 
1 
1 
1 
1 
1 
1 
1 
1 
1 
1 
1 
1 
1 
1 
1 
1 
1 
1 
1 
1 
1 
1 
1 
1 
1 
1 
1 
1 
1 
1 
1 
1 
1 
1 
1 
1 
1 
1 
1 
1 
1 
1 
1 
1 
1 
1 
1 
1 
1 
1 
1 
1 
1 
1 
1 
1 
1 
1 
1 
1 
1 
1 
1 
1 
1 
1 
1 
1 
1 
1 
1 
1 
1 
1 
1 
1 
1 
1 
1 
1 
1 
1 
1 
1 
1 
1 
1 
1 
1 
1 
1 
1 
1 
1 
1 
1 
1 
1 
1 
1 
1 
1 
1 
1 
1 
1 
1 
1 
1 
1 
1 
1 
1 
1 
1 
1 
1 
1 
1 
1 
1 
1 
1 
1 
1 
1 
1 
1 
1 
1 
1 
1 
1 
1 
1 
1 
1 
1 
1 
1 
1 
1 
1 
1 
1 
1 
1 
1 
1 
1 
1 
1 
1 
1 
1 
1 
1 
1 
1 
1 
1 
1 
1 
1 
1 
1 
1 
1 
1 
1 
1 
1 
1 
1 
1 
1 
1 
1 
1 
1 
1 
1 
1 
1 
1 
1 
1 
1 
1 
1 
1 
1 
1 
1 
1 
1 
1 
1 
1 
1 
1 
1 
1 
1 
1 
1 
1 
1 
1 
1 
1 
1 
1 
1 
1 
1 
1 
1 
1 
1 
1 
1 
1 
1 
1 
1 
1 
1 
1 
1 
1 
1 
1 
1 
1 
1 
1 
1 
1 
1 
1 
1 
1 
1 
1 
1 
1 
1 
1 
1 
1 
1 
1 
1 
1 
1 
1 
1 
1 
1 
1 
1 
1 
1 
1 
1 
1 
1 
1 
1 
1 
1 
1 
1 
1 
1 
1 
1 
1 
1 
1 
1 
1 
1 
1 
1 
1 
1 
1 
1 
1 
1 
1 
1 
1 
1 
1 
1 
1 
1 
1 
1 
1 
1 
1 
1 
1 
1 
1 
1 
1 
1 
1 
1 
1 
1 
1 
1 
1 
1 
1 
1 
1 
1 
1 
1 
1 
1 
1 
1 
1 
1 
1 
1 
1 
1 
1 
1 
1 
1 
1 
1 
1 
1 
1 
1 
1 
1 
1 
1 
1 
1 
1 
1 
1 
1 
1 
1 
1 
1 
1 
1 
1 
1 
1 
1 
1 
1 
1 
1 
1 
1 
1 
1 
1 
1 
1 
1 
1 
1 
1 
1 
1 
1 
1 
1 
1 
1 
1 
1 
1 
1 
1 
1 
1 
1 
1 
1 
1 
1 
1 
1 
1 
1 
1 
1 
1 
1 
1 
1 
1 
1 
1 
1 
1 
1 
1 
1 
1 
1 
1 
1 
1 
1 
1 
1 
1 
1 
1 
1 
1 
1 
1 
1 
1 
1 
1 
1 
1 
1 
1 
1 
1 
1 
1 
1 
1 
1 
1 
1 
1 
1 
1 
1 
1 
1 
1 
1 
1 
1 
1 
1 
1 
1 
1 
1 
1 
1 
1 
1 
1 
1 
1 
1 
1 
1 
1 
1 
1 
1 
1 
1 
1 
1 
1 
1 
1 
1 
1 
1 
1 
1 
1 
1 
1 
1 
1 
1 
1 
1 
1 
1 
1 
1 
1 
1 
1 
1 
1 
1 
1 
1 
1 
1 
1 
1 
1 
1 
1 
1 
1 
1 
1 
1 
1 
1 
1 
1 
1 
1 
1 
1 
1 
1 
1 
1 
1 
1 
1 
1 
1 
1 
1 
1 
1 
1 
1 
1 
1 
1 
1 
1 
1 
1 
1 
1 
1 
1 
1 
1 
1 
1 
1 
1 
1 
1 
1 
1 
1 
1 
1 
1 
1 
1 
1 
1 
1 
1 
1 
1 
1 
1 
1 
1 
1 
1 
1 
1 
1 
1 
1 
1 
1 
1 
1 
1 
1 
1 
1 
1 
1 
1 
1 
1 
1 
1 
1 
1 
1 
1 
1 
1 
1 
1 
1 
1 
1 
1 
1 
1 
1 
1 
1 
1 
1 
1 
1 
1 
1 
1 
1 
1 
1 
1 
1 
1 
1 
1 
1 
1 
1 
1 
1 
1 
1 
1 
1 
1 
1 
1 
1 
1 
1 
1 
1 
1 
1 
1 
1 
1 
1 
1 
1 
1 
1 
1 
1 
1 
1 
1 
1 
1 
1 
1 
1 
1 
1 
1 
1 
1 
1 
1 
1 
1 
1 
1 
1 
1 
1 
1 
1 
1 
1 
1 
1 
1 
1 
1 
1 
1 
1 
1 
1 
1 
1 
1 
1 
1 
1 
1 
1 
1 
1 
1 
1 
1 
1 
1 
1 
1 
1 
1 
1 
1 
1 
1 
1 
1 
1 
1 
1 
1 
1 
1 
1 
1 
1 
1 
1 
1 
1 
1 
1 
1 
1 
1 
1 
1 
1 
1 
1 
1 
1 
1 
1 
1 
1 
1 
1 
1 
1 
1 
1 
1 
1 
1 
1 
1 
1 
1 
1 
1 
1 
1 
1 
1 
1 
1 
1 
1 
1 
1 
1 
1 
1 
1 
1 
1 
1 
1 
1 
1 
1 
1 
1 
1 
1 
1 
1 
1 
1 
1 
1 
1 
1 
1 
1 
1 
1 
1 
1 
1 
1 
1 
1 
1 
1 
1 
1 
1 
1 
1 
1 
1 
1 
1 
1 
1 
1 
1 
1 
1 
1 
1 
1 
1 
1 
1 
1 
1 
1 
1 
1 
1 
1 
1 
1 
1 
1 
1 
1 
1 
1 
1 
1 
1 
1 
1 
1 
1 
1 
1 
1 
1 
1 
1 
1 
1 
1 
1 
1 
1 
1 
1 
1 
1 
1 
1 
1 
1 
1 
1 
1 
1 
1 
1 
1 
1 
1 
1 
1 
1 
1 
1 
1 
1 
1 
1 
1 
1 
1 
1 
1 
1 
1 
1 
1 
1 
1 
1 
1 
1 
1 
1 
1 
1 
1 
1 
1 
1 
1 
1 
1 
1 
1 
1 
1 
1 
1 
1 
1 
1 
1 
1 
1 
1 
1 
1 
1 
1 
1 
1 
1 
1 
1 
1 
1 
1 
1 
1 
1 
1 
1 
1 
1 
1 
1 
1 
1 
1 
1 
1 
1 
1 
1 
1 
1 
1 
1 
1 
1 
1 
1 
1 
1 
1 
1 
1 
1 
1 
1 
1 
1 
1 
1 
1 
1 
1 
1 
1 
1 
1 
1 
1 
1 
1 
1 
1 
1 
1 
1 
1 
1 
1 
1 
1 
1 
1 
1 
1 
1 
1 
1 
1 
1 
1 
1 
1 
1 
1 
1 
1 
1 
1 
1 
1 
1 
1 
1 
1 
1 
1 
1 
1 
1 
1 
1 
1 
1 
1 
1 
1 
1 
1 
1 
1 
1 
1 
1 
1 
1 
1 
1 
1 
1 
1 
1 
1 
1 
1 
1 
1 
1 
1 
1 
1 
1 
1 
1 
1 
1 
1 
1 
1 
1 
1 
1 
1 
1 
1 
1 
1 
1 
1 
1 
1 
1 
1 
1 
1 
1 
1 
1 
1 
1 
1 
1 
1 
1 
1 
1 
1 
1 
1 
1 
1 
1 
1 
1 
1 
1 
1 
1 
1 
1 
1 
1 
1 
1 
1 
1 
1 
1 
1 
1 
1 
1 
1 
1 
1 
1 
1 
1 
1 
1 
1 
1 
1 
1 
1 
1 
1 
1 
1 
1 
1 
1 
1 
1 
1 
1 
1 
1 
1 
1 
1 
1 
1 
1 
1 
1 
1 
1 
1 
1 
1 
1 
1 
1 
1 
1 
1 
1 
1 
1 
1 
1 
1 
1 
1 
1 
1 
1 
1 
1 
1 
1 
1 
1 
1 
1 
1 
1 
1 
1 
1 
1 
1 
1 
1 
1 
1 
1 
1 
1 
1 
1 
1 
1 
1 
1 
1 
1 
1 
1 
1 
1 
1 
1 
1 
1 
1 
1 
1 
1 
1 
1 
1 
1 
1 
1 
1 
1 
1 
1 
1 
1 
1 
1 
1 
1 
1 
1 
1 
1 
1 
1 
1 
1 
1 
1 
1 
1 
1 
1 
1 
1 
1 
1 
1 
1 
1 
1 
1 
1 
1 
1 
1 
1 
1 
1 
1 
1 
1 
1 
1 
1 
1 
1 
1 
1 
1 
1 
1 
1 
1 
1 
1 
1 
1 
1 
1 
1 
1 
1 
1 
1 
1 
1 
1 
1 
1 
1 
1 
1 
1 
1 
1 
1 
1 
1 
1 
1 
1 
1 
1 
1 
1 
1 
1 
1 
1 
1 
1 
1 
1 
1 
1 
1 
1 
1 
1 
1 
1 
1 
1 
1 
1 
1 
1 
1 
1 
1 
1 
1 
1 
1 
1 
1 
1 
1 
1 
1 
1 
1 
1 
1 
1 
1 
1 
1 
1 
1 
1 
1 
1 
1 
1 
1 
1 
1 
1 
1 
1 
1 
1 
1 
1 
1 
1 
1 
1 
1 
1 
1 
1 
1 
1 
1 
1 
1 
1 
1 
1 
1 
1 
1 
1 
1 
1 
1 
1 
1 
1 
1 
1 
1 
1 
1 
1 
1 
1 
1 
1 
1 
1 
1 
1 
1 
1 
1 
1 
1 
1 
1 
1 
1 
1 
1 
1 
1 
1 
1 
1 
1 
1 
1 
1 
1 
1 
1 
1 
1 
1 
1 
1 
1 
1 
1 
1 
1 
1 
1 
1 
1 
1 
1 
1 
1 
1 
1 
1 
1 
1 
1 
1 
1 
1 
1 
1 
1 
1 
1 
1 
1 
1 
1 
1 
1 
1 
1 
1 
1 
1 
1 
1 
1 
1 
1 
1 
1 
1 
1 
1 
1 
1 
1 
1 
1 
1 
1 
1 
1 
1 
1 
1 
1 
1 
1 
1 
1 
1 
1 
1 
1 
1 
1 
1 
1 
1 
1 
1 
1 
1 
1 
1 
1 
1 
1 
1 
1 
1 
1 
1 
1 
1 
1 
1 
1 
1 
1 
1 
1 
1 
1 
1 
1 
1 
1 
1 
1 
1 
1 
1 
1 
1 
1 
1 
1 
1 
1 
1 
1 
1 
1 
1 
1 
1 
1 
1 
1 
1 
1 
1 
1 
1 
1 
1 
1 
1 
1 
1 
1 
1 
1 
1 
1 
1 
1 
1 
1 
1 
1 
1 
1 
1 
1 
1 
1 
1 
1 
1 
1 
1 
1 
1 
1 
1 
1 
1 
1 
1 
1 
1 
1 
1 
1 
1 
1 
1 
1 
1 
1 
1 
1 
1 
1 
1 
1 
1 
1 
1 
1 
1 
1 
1 
1 
1 
1 
1 
1 
1 
1 
1 
1 
1 
1 
1 
1 
1 
1 
1 
1 
1 
1 
1 
1 
1 
1 
1 
1 
1 
1 
1 
1 
1 
1 
1 
1 
1 
1 
1 
1 
1 
1 
1 
1 
1 
1 
1 
1 
1 
1 
1 
1 
1 
1 
1 
1 
1 
1 
1 
1 
1 
1 
1 
1 
1 
1 
1 
1 
1 
1 
1 
1 
1 
1 
1 
1 
1 
1 
1 
1 
1 
1 
1 
1 
1 
1 
1 
1 
1 
1 
1 
1 
1 
1 
1 
1 
1 
1 
1 
1 
1 
1 
1 
1 
1 
1 
1 
1 
1 
1 
1 
1 
1 
1 
1 
1 
1 
1 
1 
1 
1 
1 
1 
1 
1 
1 
1 
1 
1 
1 
1 
1 
1 
1 
1 
1 
1 
1 
1 
1 
1 
1 
1 
1 
1 
1 
1 
1 
1 
1 
1 
1 
1 
1 
1 
1 
1 
1 
1 
1 
1 
1 
1 
1 
1 
1 
1 
1 
1 
1 
1 
1 
1 
1 
1 
1 
1 
1 
1 
1 
1 
1 
1 
1 
1 
1 
1 
1 
1 
1 
1 
1 
1 
1 
1 
1 
1 
1 
1 
1 
1 
1 
1 
1 
1 
1 
1 
1 
1 
1 
1 
1 
1 
1 
1 
1 
1 
1 
1 
1 
1 
1 
1 
1 
1 
1 
1 
1 
1 
1 
1 
1 
1 
1 
1 
1 
1 
1 
1 
1 
1 
1 
1 
1 
1 
1 
1 
1 
1 
1 
1 
1 
1 
1 
1 
1 
1 
1 
1 
1 
1 
1 
1 
1 
1 
1 
1 
1 
1 
1 
1 
1 
1 
1 
1 
1 
1 
1 
1 
1 
1 
1 
1 
1 
1 
1 
1 
1 
1 
1 
1 
1 
1 
1 
1 
1 
1 
1 
1 
1 
1 
1 
1 
1 
1 
1 
1 
1 
1 
1 
1 
1 
1 
1 
1 
1 
1 
1 
1 
1 
1 
1 
1 
1 
1 
1 
1 
1 
1 
1 
1 
1 
1 
1 
1 
1 
1 
1 
1 
1 
1 
1 
1 
1 
1 
1 
1 
1 
1 
1 
1 
1 
1 
1 
1 
1 
1 
1 
1 
1 
1 
1 
1 
1 
1 
1 
1 
1 
1 
1 
1 
1 
1 
1 
1 
1 
1 
1 
1 
1 
1 
1 
1 
1 
1 
1 
1 
1 
1 
1 
1 
1 
1 
1 
1 
1 
1 
1 
1 
1 
1 
1 
1 
1 
1 
1 
1 
1 
1 
1 
1 
1 
1 
1 
1 
1 
1 
1 
1 
1 
1 
1 
1 
1 
1 
1 
1 
1 
1 
1 
1 
1 
1 
1 
1 
1 
1 
1 
1 
1 
1 
1 
1 
1 
1 
1 
1 
1 
1 
1 
1 
1 
1 
1 
1 
1 
1 
1 
1 
1 
1 
1 
1 
1 
1 
1 
1 
1 
1 
1 
1 
1 
1 
1 
1 
1 
1 
1 
1 
1 
1 
1 
1 
1 
1 
1 
1 
1 
1 
1 
1 
1 
1 
1 
1 
1 
1 
1 
1 
1 
1 
1 
1 
1 
1 
1 
1 
1 
1 
1 
1 
1 
1 
1 
1 
1 
1 
1 
1 
1 
1 
1 
1 
1 
1 
1 
1 
1 
1 
1 
1 
1 
1 
1 
1 
1 
1 
1 
1 
1 
1 
1 
1 
1 
1 
1 
1 
1 
1 
1 
1 
1 
1 
1 
1 
1 
1 
1 
1 
1 
1 
1 
1 
1 
1 
1 
1 
1 
1 
1 
1 
1 
1 
1 
1 
1 
1 
1 
1 
1 
1 
1 
1 
1 
1 
1 
1 
1 
1 
1 
1 
1 
1 
1 
1 
1 
1 
1 
1 
1 
1 
1 
1 
1 
1 
1 
1 
1 
1 
1 
1 
1 
1 
1 
1 
1 
1 
1 
1 
1 
1 
1 
1 
1 
1 
1 
1 
1 
1 
1 
1 
1 
1 
1 
1 
1 
1 
1 
1 
1 
1 
1 
1 
1 
1 
1 
1 
1 
1 
1 
1 
1 
1 
1 
1 
1 
1 
1 
1 
1 
1 
1 
1 
1 
1 
1 
1 
1 
1 
1 
1 
1 
1 
1 
1 
1 
1 
1 
1 
1 
1 
1 
1 
1 
1 
1 
1 
1 
1 
1 
1 
1 
1 
1 
1 
1 
1 
1 
1 
1 
1 
1 
1 
1 
1 
1 
1 
1 
1 
1 
1 
1 
1 
1 
1 
1 
1 
1 
1 
1 
1 
1 
1 
1 
1 
1 
1 
1 
1 
1 
1 
1 
1 
1 
1 
1 
1 
1 
1 
1 
1 
1 
1 
1 
1 
1 
1 
1 
1 
1 
1 
1 
1 
1 
1 
1 
1 
1 
1 
1 
1 
1 
1 
1 
1 
1 
1 
1 
1 
1 
1 
1 
1 
1 
1 
1 
1 
1 
1 
1 
1 
1 
1 
1 
1 
1 
1 
1 
1 
1 
1 
1 
1 
1 
1 
1 
1 
1 
1 
1 
1 
1 
1 
1 
1 
1 
1 
1 
1 
1 
1 
1 
1 
1 
1 
1 
1 
1 
1 
1 
1 
1 
1 
1 
1 
1 
1 
1 
1 
1 
1 
1 
1 
1 
1 
1 
1 
1 
1 
1 
1 
1 
1 
1 
1 
1 
1 
1 
1 
1 
1 
1 
1 
1 
1 
1 
1 
1 
1 
1 
1 
1 
1 
1 
1 
1 
1 
1 
1 
1 
1 
1 
1 
1 
1 
1 
1 
1 
1 
1 
1 
1 
1 
1 
1 
1 
1 
1 
1 
1 
1 
1 
1 
1 
1 
1 
1 
1 
1 
1 
1 
1 
1 
1 
1 
1 
1 
1 
1 
1 
1 
1 
1 
1 
1 
1 
1 
1 
1 
1 
1 
1 
1 
1 
1 
POINT_DATA 5000
VECTORS Stress float
1031.05 -183.798 0.
233.57 -549.924 0.
218.706 -584.778 0.
-228.016 -806.551 0.
-227.391 -805.94 0.
-226.767 -805.328 0.
281.488 -717.162 0.
108.804 -1120.17 0.
-63.8806 -1523.18 0.
-424.333 -1705.09 0.
-346.793 -1524.19 0.
-269.253 -1343.28 0.
-1.29441 -1219.13 0.
-6.57811 -1231.58 0.
-402.909 -1375.15 0.
-218.832 -945.292 0.
-34.7551 -515.432 0.
524.521 -177.917 0.
276.781 -756.241 0.
29.0411 -1334.56 0.
-260.823 -1644.6 0.
-225.568 -1562.15 0.
-190.313 -1479.7 0.
-272.744 -1360 0.
-176.299 -1135.12 0.
48.6144 -855.199 0.
-867.013 -880.137 0.
-671.536 -423.394 0.
-486.422 -127.619 0.
-697.147 -619.742 0.
-907.873 -1111.87 0.
-619.576 -1089.82 0.
-464.582 -727.63 0.
-309.589 -365.44 0.
-772.103 -803.203 0.
-1052.28 -1456.43 0.
-1332.45 -2109.66 0.
-2156.31 -2248 0.
-1982.82 -1843.27 0.
-2665.37 -1776.03 0.
-2348.84 -1038.13 0.
-2032.31 -300.237 0.
-4127.43 -704.05 0.
-3994.61 -393.261 0.
-3861.79 -82.4712 0.
-6460.17 -1756.07 0.
-7126.44 -3309.01 0.
-7792.72 -4861.95 0.
33292.1 13987.6 0.
34376.4 16521.8 0.
-246396 -101741 0.
34575.7 16635.8 0.
33507.2 14138.1 0.
-7671.79 -4811 0.
-7193.02 -3694.96 0.
-6714.24 -2578.93 0.
-3918.49 -954.626 0.
-3981.71 -1102.21 0.
-4044.94 -1249.8 0.
-2540.82 -550.913 0.
-2470.83 -387.196 0.
-2400.84 -223.479 0.
-2173.37 -330.23 0.
-2298.11 -620.961 0.
-292.101 -53.3483 0.
-621.266 -821.832 0.
-950.431 -1590.32 0.
-137.769 -1581.69 0.
-43.4104 -1361.73 0.
50.9481 -1141.77 0.
-340.431 -1149.37 0.
-264.789 -972.728 0.
-189.148 -796.087 0.
-1000.96 -820.212 0.
-805.885 -364.89 0.
341.585 471.926 0.
39.6005 -301.633 0.
-298.389 -1090.61 0.
-110.117 -1502.78 0.
-133.418 -1557.11 0.
-156.72 -1611.44 0.
-108.374 -1534.19 0.
-21.3211 -1330.36 0.
65.7319 -1126.52 0.
-305.836 -968.988 0.
-108.924 -508.422 0.
87.9882 -47.8567 0.
105.15 -337.205 0.
-78.9455 -767.972 0.
-629.703 -1267.92 0.
-493.925 -951.343 0.
-358.147 -634.771 0.
132.979 -325.947 0.
46.2323 -529.401 0.
-40.5143 -732.856 0.
-325.431 -930.661 0.
-329.655 -940.312 0.
-333.88 -949.963 0.
434.163 -512.589 0.
498.769 -360.659 0.
178.94 -519.072 0.
102.461 -577.34 0.
87.5384 -612.676 0.
-199.039 -760.594 0.
-197.977 -760.651 0.
-196.915 -760.708 0.
40.6869 -788.84 0.
-131.819 -1191.59 0.
-304.325 -1594.33 0.
-55.6473 -1516.49 0.
21.9068 -1335.6 0.
99.4609 -1154.71 0.
-331.616 -1328.82 0.
-336.841 -1341.37 0.
-343.958 -1319.31 0.
-160.049 -889.15 0.
23.861 -458.986 0.
54.5555 -348.717 0.
-192.922 -926.957 0.
-440.4 -1505.2 0.
868.617 -1130.01 0.
903.798 -1047.36 0.
938.979 -964.699 0.
-765.824 -1539.39 0.
-669.398 -1314.89 0.
-903.67 -1232.12 0.
-728.755 -789.934 0.
-533.743 -333.017 0.
-511.565 -107.539 0.
-721.977 -599.791 0.
-932.389 -1092.04 0.
-569.371 -1037.42 0.
-414.613 -674.706 0.
-259.856 -311.989 0.
-661.067 -725.008 0.
-941.552 -1377.92 0.
-1222.04 -2030.83 0.
-1629.99 -1991.64 0.
-1456.34 -1586.68 0.
-2445.95 -1648.67 0.
-2128.97 -911.057 0.
-1811.99 -173.44 0.
-3635.17 -462.828 0.
-3502.77 -151.272 0.
-3370.37 160.285 0.
-3867.21 -617.992 0.
-4535.82 -2172.97 0.
-5204.42 -3727.94 0.
29407.6 12359.3 0.
30486.2 14888.5 0.
-211090 -86577.9 0.
30477.4 14913.2 0.
29415 12420.5 0.
-5121.66 -3690.19 0.
-4641.36 -2572.79 0.
-4161.06 -1455.38 0.
-3089.5 -567.338 0.
-3152.79 -715.208 0.
-3216.08 -863.079 0.
-2015.45 -295.73 0.
-1945.59 -131.47 0.
-1875.73 32.7889 0.
-2005.39 -225.992 0.
-2130.38 -516.696 0.
-655.592 -177.961 0.
-984.38 -946.427 0.
-1313.17 -1714.89 0.
551.852 -1254 0.
646.383 -1034.04 0.
740.914 -814.082 0.
-268.057 -1087.01 0.
-192.551 -910.397 0.
-117.045 -733.782 0.
-1241.14 -892.962 0.
-1046.21 -437.656 0.
-832.48 1.33175 0.
-1059.11 -739.677 0.
-1396.61 -1528.21 0.
1461.27 -798.255 0.
1437.91 -852.618 0.
1414.56 -906.981 0.
-80.2887 -1490.62 0.
6.33242 -1286.38 0.
92.9534 -1082.13 0.
-783.607 -1144.34 0.
-587.567 -683.602 0.
-391.527 -222.864 0.
-209.545 -440.777 0.
-392.93 -872.305 0.
-185.476 -1047.81 0.
-49.5519 -731.378 0.
86.3721 -414.947 0.
-30.569 -363.425 0.
-116.787 -567.74 0.
-203.006 -772.054 0.
-213.772 -850.357 0.
-218.166 -859.992 0.
-222.56 -869.626 0.
278.88 -547.448 0.
342.869 -394.593 0.
-946.217 -1495.52 0.
-224.367 -1060.77 0.
-31.5029 -611.344 0.
-477.589 -1442.5 0.
-258.385 -929.614 0.
-657.6 -1859.71 0.
-1698.84 -4360.31 0.
-1380.43 -3617.99 0.
-3127.93 -7696.12 0.
-4613.84 -12822.4 0.
-1353.21 -5215.2 0.
-1459.85 -5464.99 0.
-2476.99 -5675.14 0.
-2847.4 -6535.93 0.
-4102.28 -10177.3 0.
-1223.54 -3457.97 0.
-1492.75 -4083.82 0.
-2085.22 -4422.06 0.
-2291.77 -4903.93 0.
-5203.04 -11696.8 0.
-15570.4 -41608.2 0.
-2604.77 -11353.3 0.
-1462.4 -8685.93 0.
-3431.7 -6790.83 0.
-2778.52 -5267 0.
-3681.03 -7429.35 0.
-2351.6 -4805.01 0.
-2307.67 -4703.29 0.
-2253.52 -4105.7 0.
-2224.7 -4035.66 0.
-3386.95 -6744.78 0.
-6308.67 -14498.4 0.
-3038.76 -6869.6 0.
-2905.49 -6559.62 0.
-3249 -6934.13 0.
-3955.68 -8587.6 0.
-13389.7 -30604.9 0.
-11587.4 -26197.8 0.
-7475.25 -16603.9 0.
-7444.67 -13703.5 0.
-5401.41 -8936.53 0.
-5487.35 -9137.66 0.
-5882.02 -6622.44 0.
-4895.44 -4324.24 0.
-5079.12 -4756.63 0.
-3963.91 -5744.12 0.
-4645.98 -7332.74 0.
-15004.5 -31499.8 0.
22868.6 4540.1 0.
23899.6 6972.07 0.
-166608 -75973.8 0.
23365.8 6168.75 0.
21945.8 2830.58 0.
-14655 -30769.1 0.
-5363.81 -9093.57 0.
-5656.96 -9781.46 0.
-5767.99 -8368.32 0.
-5026.33 -6636.54 0.
-5964.1 -8823.38 0.
-4747.79 -7648.28 0.
-3597.43 -4965.68 0.
-3764.13 -5356.25 0.
-3657.28 -4362.5 0.
-3781.77 -4654.32 0.
-4551.04 -8551.36 0.
-4438.54 -8287.98 0.
-6860.63 -13938.7 0.
-16197.9 -41619.8 0.
-2956.52 -10722.9 0.
-2557.42 -9791.24 0.
-3478.67 -8684.07 0.
-2986.72 -7537.38 0.
-4886.88 -11972.3 0.
-2883.23 -4235.98 0.
-2460.1 -3247.9 0.
-3734.26 -4654.8 0.
-2893.26 -2906.04 0.
-3644.81 -4655.6 0.
-6694.88 -22791.3 0.
-7147.17 -23846 0.
-17716.4 -48507 0.
-11829.9 -28927.6 0.
-5298.9 -13687.7 0.
-4753.42 -12413.9 0.
-2611.21 -4467.85 0.
-1705.86 -2358.79 0.
-2542.23 -4313.75 0.
-1976.24 -3930.69 0.
-2080.24 -4172.46 0.
-2660.13 -7650.79 0.
-350.852 -2259.55 0.
-282.713 -2097.99 0.
-1224.06 -2814.26 0.
-1032.17 -2364.53 0.
-1935.84 -4471.09 0.
-944.126 -2740.73 0.
-175.906 -946.72 0.
-51.1553 -654.167 0.
-190.495 -1312.28 0.
-1216.13 -3706.56 0.
-359.406 -474.955 0.
170.433 -32.1545 0.
257.599 171.608 0.
138.129 242.933 0.
93.2928 141.946 0.
48.4567 40.9602 0.
510.57 490.591 0.
894.793 1387.05 0.
1279.02 2283.52 0.
1606.18 2551.21 0.
1493.74 2286.76 0.
1381.29 2022.31 0.
1030.22 1946.65 0.
1090.46 2089.11 0.
1220.7 2218.59 0.
1064.05 1855.85 0.
907.392 1493.11 0.
905.787 1644.22 0.
1486.34 2997.71 0.
2066.89 4351.2 0.
3525.86 5191.28 0.
3235.52 4512.37 0.
2945.18 3833.46 0.
809.587 2492.61 0.
606.227 2017.6 0.
952.782 1778.21 0.
588.955 1274.4 0.
408.609 852.951 0.
144.893 624.805 0.
545.315 1561.59 0.
945.736 2498.37 0.
1249.38 2947.88 0.
1115.49 2635.49 0.
981.604 2323.11 0.
969.609 3026.4 0.
1613.54 4525.04 0.
2257.47 6023.68 0.
2142.56 5917.51 0.
2012.8 5614.1 0.
1004.03 4853.71 0.
496.915 3671.07 0.
-10.197 2488.43 0.
-571.655 1382.61 0.
-926.066 554.433 0.
-1280.47 -273.745 0.
-292.556 -189.77 0.
-325.962 -266.444 0.
-359.36 -343.113 0.
21069.2 10004.9 0.
21887.5 11941.9 0.
-95650.8 -36845.4 0.
21856.6 11793.6 0.
20967.6 9691.38 0.
-237.473 -495.622 0.
147.127 396.023 0.
531.728 1287.67 0.
-372.356 1399.47 0.
-245.758 1696.02 0.
-119.16 1992.56 0.
-220.621 1825.66 0.
-371.578 1472.38 0.
-522.534 1119.11 0.
-330.522 1287.44 0.
-264.013 1440.63 0.
208.912 1936.61 0.
931.241 3621.1 0.
1653.57 5305.59 0.
3698.84 6722.98 0.
3183.66 5519.74 0.
2668.49 4316.51 0.
1556.58 3332.95 0.
1475.56 3141.35 0.
1394.54 2949.75 0.
543.454 2061.11 0.
216.017 1300.06 0.
-412.379 454.868 0.
286.019 2245.86 0.
1068.02 4072.68 0.
4502.37 6827.96 0.
4836.57 7607.66 0.
5170.77 8387.36 0.
3569.08 7492.06 0.
2954.72 6058.66 0.
2340.36 4625.26 0.
954.398 2981.16 0.
434.025 1764.69 0.
-86.3485 548.216 0.
457.732 985.187 0.
617.589 1359.83 0.
1248.14 1821.8 0.
996.163 1236.53 0.
744.183 651.265 0.
80.8412 134.261 0.
173.372 353.522 0.
265.904 572.782 0.
486.721 608.445 0.
368.827 336.002 0.
250.934 63.5587 0.
418.622 252.761 0.
524.049 498.499 0.
-159.655 -357.63 0.
130.591 -17.6631 0.
217.353 186.128 0.
23.8234 224.946 0.
-21.859 124.216 0.
-67.5414 23.4864 0.
686.547 596.832 0.
1070.59 1493.46 0.
1454.64 2390.09 0.
1171.19 2396.48 0.
1059.24 2132.02 0.
947.278 1867.55 0.
1341.75 2111.82 0.
1402.46 2253.82 0.
1250.03 2262.66 0.
1093.23 1900.07 0.
936.427 1537.48 0.
1401.46 1888.08 0.
1982.65 3241.83 0.
2563.84 4595.58 0.
2366.36 4727.35 0.
2077.22 4047.97 0.
1788.08 3368.6 0.
1148.34 2670.14 0.
944.918 2194.74 0.
1437.45 2017.52 0.
1016.11 1489.21 0.
835.636 1067.6 0.
615.896 858.043 0.
1016.53 1794.96 0.
1417.16 2731.88 0.
1364.8 3028.02 0.
1230.64 2716.01 0.
1096.48 2404 0.
923.961 3036.99 0.
1567.6 4535.64 0.
2211.24 6034.29 0.
2118.49 5940.18 0.
1988.58 5636.81 0.
1627.59 5152.26 0.
1119.95 3969.66 0.
612.326 2787.07 0.
1746.53 2405.92 0.
1390.77 1577.17 0.
1035.01 748.427 0.
1302.83 520.68 0.
1269.78 443.216 0.
1236.73 365.755 0.
16018.1 7882.39 0.
16832.8 9812.16 0.
-41431.1 -13577 0.
17073.8 9780.01 0.
16189.1 7684.88 0.
1543.69 293.093 0.
1929.52 1185.7 0.
2315.35 2078.32 0.
1125.23 2071.81 0.
1251.95 2368.54 0.
1378.67 2665.28 0.
367.794 2109.15 0.
216.613 1755.89 0.
65.434 1402.63 0.
796.071 1803.67 0.
862.898 1956.95 0.
549.733 2113.26 0.
1272.86 3797.8 0.
1995.99 5482.35 0.
2709.04 6330.58 0.
2194.69 5127.69 0.
1680.35 3924.8 0.
1433.04 3312.8 0.
1352.37 3120.67 0.
1271.7 2928.53 0.
1452.75 2484.28 0.
1124.42 1723.36 0.
764.65 989.096 0.
1491.9 2793.16 0.
2275.28 4621.28 0.
2686.24 6082.68 0.
3020.43 6861.63 0.
3354.61 7640.58 0.
3330.34 7423.79 0.
2716.31 5990.3 0.
2102.29 4556.8 0.
1427.18 3213.56 0.
906.228 1996.92 0.
385.28 780.284 0.
875.442 1196.44 0.
1034.98 1571.15 0.
1078.5 1778.89 0.
826.457 1193.61 0.
574.41 608.331 0.
148.215 195.234 0.
240.346 414.89 0.
332.478 634.545 0.
497.501 644.213 0.
379.201 371.973 0.
260.901 99.734 0.
360.236 260.486 0.
465.493 506.65 0.
-59.8103 -322.373 0.
-53.6504 -564.913 0.
-154.248 -800.097 0.
-511.079 -1099.48 0.
-477.587 -1022.02 0.
-444.094 -944.559 0.
116.238 -773.156 0.
-18.5211 -1086.47 0.
-153.28 -1399.79 0.
-700.211 -1646.34 0.
-630.289 -1482.3 0.
-560.368 -1318.26 0.
2.2569 -1090.86 0.
-19.4222 -1141.44 0.
-222.264 -1262.55 0.
-211.084 -1235.94 0.
-199.903 -1209.32 0.
286.223 -1086.4 0.
125.999 -1451.4 0.
-34.2232 -1816.4 0.
-997.798 -2213.3 0.
-848.932 -1867.84 0.
-700.066 -1522.38 0.
-382.274 -1292.26 0.
-358.408 -1240.62 0.
181.334 -967.799 0.
69.4483 -984.011 0.
84.5346 -950.306 0.
-64.7473 -1032.19 0.
-144.967 -1218.62 0.
-225.186 -1405.04 0.
-419.168 -1487.85 0.
-315.523 -1252.99 0.
-211.876 -1018.13 0.
-831.778 -1638.25 0.
-1168.99 -2426.17 0.
-1506.21 -3214.09 0.
-1358.06 -3026.29 0.
-1235.98 -2743.92 0.
-1134.54 -2496.82 0.
-1164.58 -2570.17 0.
-1194.63 -2643.51 0.
896.267 -1871.03 0.
762.822 -2185.65 0.
629.377 -2500.27 0.
1019.13 -1995.8 0.
1458.65 -969.794 0.
1898.17 56.2101 0.
10084.9 1430.12 0.
8488.1 -2275.86 0.
-1578.12 -9610.84 0.
8620.62 -2258.57 0.
10198.1 1398.97 0.
2312.88 76.6368 0.
1804.11 -1097.76 0.
1295.34 -2272.16 0.
-382.749 -3300.09 0.
-143.633 -2743.55 0.
95.4841 -2187 0.
-992.941 -2367.73 0.
-889.835 -2121.63 0.
-786.727 -1875.53 0.
-67.7277 -1482.35 0.
-30.7308 -1395.26 0.
-745.4 -1683.17 0.
-931.358 -2114.59 0.
-1117.32 -2546.01 0.
-1290.51 -2651.58 0.
-990.605 -1950.27 0.
-690.701 -1248.95 0.
-483.257 -985.878 0.
-543.22 -1124 0.
-603.184 -1262.13 0.
371.776 -744.309 0.
454.507 -557.74 0.
497.805 -395.07 0.
263.928 -864.021 0.
68.3146 -1316.57 0.
-1379.39 -2320.26 0.
-1603.51 -2840.08 0.
-1827.63 -3359.9 0.
-1098.28 -3009.52 0.
-801.183 -2316.42 0.
-504.089 -1623.31 0.
-303.735 -1165.56 0.
-154.458 -819.989 0.
-5.18132 -474.417 0.
294.016 -347.185 0.
279.797 -375.603 0.
-47.7906 -535.996 0.
-57.943 -557.195 0.
-68.0955 -578.393 0.
-132.357 -603.73 0.
-118.326 -566.418 0.
-104.294 -529.105 0.
12.8809 -431.162 0.
44.4548 -360.662 0.
76.0289 -290.163 0.
-34.5904 -487.525 0.
-141.46 -732.227 0.
-36.3858 -283.766 0.
142.209 -449.355 0.
40.78 -684.156 0.
-285.215 -973.876 0.
-251.388 -896.833 0.
-217.56 -819.789 0.
5.14856 -788.981 0.
-129.966 -1102.76 0.
-265.081 -1416.54 0.
-580.227 -1564.76 0.
-509.992 -1401.27 0.
-439.758 -1237.78 0.
-204.476 -1149.13 0.
-226.296 -1199.91 0.
-119.545 -1187.56 0.
-108.563 -1160.9 0.
-97.5798 -1134.23 0.
205.019 -1089.61 0.
45.5606 -1455.74 0.
-113.898 -1821.87 0.
-786.49 -2090.2 0.
-637.193 -1744.99 0.
-487.896 -1399.78 0.
-276.124 -1217.33 0.
-252.312 -1165.48 0.
-753.476 -1338.65 0.
-56.7541 -1008.38 0.
-42.4583 -974.386 0.
-176.914 -1049.5 0.
-257.398 -1235.58 0.
-337.882 -1421.65 0.
-134.996 -1337.08 0.
-32.3116 -1101.26 0.
70.3737 -865.429 0.
-183.532 -1332.07 0.
-521.217 -2119.72 0.
-858.901 -2907.37 0.
-433.102 -2600.64 0.
-310.987 -2318.21 0.
-454.588 -2174.81 0.
-484.669 -2248.54 0.
-514.75 -2322.27 0.
1046.21 -1777.01 0.
912.7 -2092.22 0.
779.191 -2407.43 0.
1394.51 -1803.77 0.
1834.88 -778.52 0.
2275.25 246.732 0.
7346.37 282.669 0.
5755.75 -3418.42 0.
-890.301 -9285.63 0.
5344.2 -3635.72 0.
6915.37 15.3907 0.
2657.22 259.615 0.
2148.7 -915.052 0.
1640.18 -2089.71 0.
105.751 -3062.89 0.
344.438 -2505.5 0.
583.125 -1948.11 0.
-187.375 -1993.43 0.
-84.3814 -1747.02 0.
18.6141 -1500.62 0.
171.887 -1349.24 0.
208.916 -1262.52 0.
-247.55 -1439.45 0.
-433.842 -1870.98 0.
-620.134 -2302.52 0.
-675.867 -2356.51 0.
-375.437 -1655.23 0.
-75.0068 -953.946 0.
-512.954 -968.079 0.
-572.619 -1106.41 0.
-632.285 -1244.75 0.
246.622 -766.857 0.
328.79 -579.37 0.
206.439 -488.891 0.
-39.1227 -963.193 0.
-234.202 -1415.86 0.
-737.712 -2014.86 0.
-961.418 -2534.79 0.
-1185.12 -3054.72 0.
-745.216 -2827.96 0.
-447.695 -2134.82 0.
-150.173 -1441.68 0.
-385.165 -1169.93 0.
-235.69 -824.468 0.
-86.2163 -479.007 0.
76.3616 -409.462 0.
62.9579 -438.631 0.
-169.528 -557.571 0.
-179.529 -579.224 0.
-189.53 -600.877 0.
-21.7456 -524.938 0.
-7.37095 -487.95 0.
7.00362 -450.962 0.
-12.1424 -412.429 0.
18.6466 -341.312 0.
49.4359 -270.195 0.
-130.187 -495.548 0.
-238.197 -740.004 0.
-57.9529 -302.939 0.
526.589 102.292 0.
378.477 -241.822 0.
-170.647 -1108.53 0.
64.0152 -561.385 0.
207.316 -227.394 0.
-500.75 -1724.82 0.
417.195 417.374 0.
345.316 249.567 0.
-92.678 -641.678 0.
-444.517 -1459.58 0.
18.1006 -377.106 0.
97.7667 -15.7003 0.
-18.4192 -289.728 0.
74.7164 -893.621 0.
391.225 -160.387 0.
30.6177 -1007.1 0.
-218.068 -1883.25 0.
-65.897 -1530.16 0.
313.813 -646.159 0.
-3.83719 -642.882 0.
75.0686 -458.399 0.
167.154 -243.205 0.
329.501 19.0909 0.
15.0688 -713.525 0.
86.914 -435.492 0.
121.426 -321.76 0.
-235.969 -1165.48 0.
-212.113 -884.674 0.
231.905 145.102 0.
588.725 971.434 0.
-139.2 -1850.96 0.
236.656 -977.217 0.
660.909 9.53539 0.
1039.76 330.816 0.
31.5286 -2018.25 0.
-801.142 -3957.76 0.
139.592 -2979.6 0.
660.412 -1759.63 0.
201.299 -1928.26 0.
270.824 -1761.38 0.
544.601 -1118 0.
1446.23 -1104.62 0.
1262.07 -1533.76 0.
1917.38 -4.28317 0.
2445.27 -27.8783 0.
2141.71 -733.074 0.
2396.93 -134.474 0.
4808.31 -429.739 0.
5299.29 720.711 0.
-1577.31 -3340.26 0.
4241.55 17.4533 0.
4189.79 -105.19 0.
2589.71 -491.33 0.
2109.04 -1619.11 0.
1642.08 -2714.85 0.
1461.38 -793.709 0.
2097.52 687.247 0.
2093.86 675.321 0.
897.972 -950.994 0.
431.372 -2044.79 0.
1534.64 524.536 0.
828.145 -253.289 0.
139.634 -1854.45 0.
71.4723 -1591.3 0.
1046.03 679.249 0.
482.94 -638.1 0.
354.84 -1083.02 0.
270.304 -1278.88 0.
492.802 -758.287 0.
-823.362 -1612.1 0.
91.1499 522.086 0.
19.658 355.649 0.
-71.0564 -1239.32 0.
-315.152 -1806.15 0.
252.224 -256.178 0.
-264.964 -904.478 0.
-556.358 -1585.82 0.
697.562 165.408 0.
173.709 -1054.38 0.
140.904 -1128.32 0.
323.572 -961.32 0.
552.594 -424.083 0.
743.842 25.0785 0.
-573.144 -1438.56 0.
-609.122 -1520.23 0.
-1069.97 -2593.31 0.
-297.041 -822.667 0.
135.161 182.963 0.
211.064 582.372 0.
77.9393 265.37 0.
-73.6814 -94.9531 0.
185.035 -209.435 0.
198.229 -179.239 0.
695.995 981.63 0.
149.459 42.2854 0.
60.3245 -167.814 0.
79.0685 -126.16 0.
231.75 556.866 0.
-266.614 -611.096 0.
-260.153 -446.431 0.
225.78 -338.433 0.
165.161 -479.543 0.
4.88993 -630.479 0.
29.6007 -573.188 0.
54.3112 -515.897 0.
11.9427 -565.815 0.
-59.7836 -731.082 0.
-131.51 -896.349 0.
-394.546 -1037.8 0.
-383.308 -1009.63 0.
-372.072 -981.469 0.
-224.479 -943.45 0.
-240.096 -982.303 0.
86.7318 -868.975 0.
120.932 -792.393 0.
155.132 -715.81 0.
451.031 -633.912 0.
286.621 -1018.95 0.
122.21 -1403.98 0.
-388.552 -1700.23 0.
-315.997 -1531.58 0.
-243.442 -1362.93 0.
-153.029 -1156.3 0.
-60.1748 -939.884 0.
27.9753 -725.316 0.
-136.534 -892.378 0.
-183.373 -1010.71 0.
-32.1567 -1044.39 0.
-66.5521 -1129.27 0.
-100.948 -1214.16 0.
86.7702 -1214.48 0.
35.2771 -1337.63 0.
-16.2164 -1460.78 0.
348.325 -1360.62 0.
325.622 -1408.57 0.
302.92 -1456.52 0.
850.734 -1408.86 0.
740.09 -1662.43 0.
649.534 -1872.65 0.
687.223 -1780 0.
724.914 -1687.34 0.
1269.46 -1420.91 0.
1240.54 -1488.74 0.
1211.63 -1556.57 0.
1644.44 -1295.46 0.
1739.51 -1073.48 0.
1834.58 -851.507 0.
4274.6 -179.402 0.
3995.4 -827.255 0.
280.061 -2945.78 0.
3249.84 -1100.32 0.
3550.07 -399.315 0.
2232.84 -561.247 0.
2153.86 -750.879 0.
2074.87 -940.511 0.
1351.26 -1405.28 0.
1261.23 -1618.21 0.
1171.19 -1831.14 0.
419.422 -2061.83 0.
537.708 -1787.56 0.
655.993 -1513.29 0.
629.308 -1288 0.
748.813 -1004 0.
353.294 -1029.47 0.
158.438 -1487.67 0.
-36.4171 -1945.87 0.
32.7381 -2028.01 0.
215.311 -1601.94 0.
397.884 -1175.88 0.
-304.601 -1264.36 0.
-243.82 -1121.62 0.
-183.037 -978.883 0.
-15.978 -869.945 0.
-7.88898 -846.053 0.
-143.241 -881.058 0.
-273.446 -1124.16 0.
-371.83 -1353.63 0.
13.6432 -1371.37 0.
-66.7387 -1556.72 0.
-147.121 -1742.06 0.
14.0172 -1559.33 0.
231.149 -1049.48 0.
448.28 -539.643 0.
4.30869 -543.002 0.
50.1671 -433.576 0.
96.0256 -324.149 0.
-390.877 -754.86 0.
-522.188 -1062.56 0.
-386.934 -1220.37 0.
-357.847 -1156.53 0.
-328.76 -1092.68 0.
-259.502 -1018.44 0.
-241.803 -977.131 0.
-224.104 -935.824 0.
-150.084 -752.429 0.
-26.7412 -466.93 0.
96.6022 -181.431 0.
-266.668 -469.165 0.
-375.027 -724.714 0.
-416.738 -483.465 0.
105.166 -358.805 0.
44.8421 -500.317 0.
-14.2014 -606.527 0.
10.4146 -549.47 0.
35.0305 -492.413 0.
47.446 -520.255 0.
-24.7423 -684.937 0.
-96.9304 -849.619 0.
-538.874 -1067.06 0.
-527.382 -1039.36 0.
-515.89 -1011.65 0.
-116.04 -866.658 0.
-131.865 -905.276 0.
105.627 -828.532 0.
139.116 -751.889 0.
172.604 -675.246 0.
630.915 -526.169 0.
466.283 -911.331 0.
301.651 -1296.49 0.
-288.225 -1625.86 0.
-215.379 -1457.28 0.
-142.533 -1288.7 0.
-110.605 -1106.93 0.
-17.1851 -890.915 0.
57.9483 -682.533 0.
-135.194 -859.199 0.
-182.193 -977.202 0.
287.773 -876.506 0.
252.543 -961.25 0.
217.312 -1046 0.
46.0399 -1201.5 0.
-5.75447 -1324.63 0.
-57.5491 -1447.76 0.
405.242 -1305.57 0.
381.971 -1353.35 0.
358.701 -1401.12 0.
914.432 -1349.34 0.
803.829 -1603.32 0.
1186.25 -1609.81 0.
1223.83 -1517.55 0.
1261.41 -1425.3 0.
1235.28 -1405.2 0.
1206.67 -1472.96 0.
1178.06 -1540.72 0.
1345.43 -1392.23 0.
1441.35 -1170.66 0.
1537.27 -949.098 0.
3507.07 -476.308 0.
3228.5 -1123.88 0.
-699.008 -3335.39 0.
2636.48 -1333.37 0.
2935.88 -632.287 0.
1848.88 -694.851 0.
1769.61 -884.118 0.
1690.34 -1073.38 0.
1553.98 -1287.08 0.
1463.75 -1500 0.
1373.52 -1712.91 0.
432.054 -2026.7 0.
549.297 -1751 0.
666.538 -1475.3 0.
944.757 -1123.26 0.
1064.58 -839.225 0.
420.316 -968.211 0.
225.837 -1426.44 0.
31.3574 -1884.66 0.
151.741 -1944.06 0.
334.738 -1518.23 0.
517.736 -1092.4 0.
164.516 -1033.24 0.
225.061 -890.263 0.
285.607 -747.284 0.
-126.062 -885.745 0.
-118.728 -861.489 0.
60.8639 -763.975 0.
-153.194 -1042.52 0.
-251.903 -1271.6 0.
-0.712218 -1346.46 0.
-80.8492 -1531.54 0.
-160.986 -1716.62 0.
-35.3499 -1549.5 0.
181.895 -1039.5 0.
399.14 -529.508 0.
259.078 -400.374 0.
304.926 -290.962 0.
350.775 -181.549 0.
-524.547 -779.977 0.
-656.476 -1087.29 0.
-157.487 -1091.42 0.
-128.978 -1026.76 0.
-100.468 -962.095 0.
-364.286 -1034.3 0.
-346.834 -993.087 0.
-329.382 -951.878 0.
-83.0942 -692.043 0.
40.2956 -406.558 0.
163.686 -121.072 0.
-322.569 -462.675 0.
-431.725 -717.705 0.
-685.231 -1167.59 0.
-158.88 -798.786 0.
-81.3324 -620.613 0.
92.2753 -429.135 0.
88.5963 -439.07 0.
84.9176 -449.005 0.
35.0141 -485.64 0.
16.5075 -532.388 0.
-1.99919 -579.136 0.
-451.785 -877.809 0.
-527.323 -1054.45 0.
-602.86 -1231.1 0.
-138.041 -1043.64 0.
-135.73 -1032.74 0.
99.933 -931.507 0.
38.6977 -1072.49 0.
-22.5376 -1213.47 0.
279.552 -1165.01 0.
287.027 -1146.38 0.
294.501 -1127.75 0.
-158.91 -1400.49 0.
-246.357 -1606.06 0.
-333.803 -1811.62 0.
-362.752 -1793.2 0.
-313.029 -1675.64 0.
21.7898 -1435.83 0.
-185.553 -1483.75 0.
-160.831 -1426.73 0.
221.855 -1237.36 0.
209.063 -1265.8 0.
196.272 -1294.24 0.
-31.2593 -1468.16 0.
-105.55 -1645.35 0.
-179.841 -1822.53 0.
211.8 -1754.52 0.
174.582 -1841.13 0.
137.362 -1927.74 0.
825.83 -1746.45 0.
756.94 -1903.76 0.
1189.13 -1843.27 0.
1132.05 -1972.97 0.
1074.97 -2102.67 0.
872.125 -2158.53 0.
1039.16 -1758.89 0.
1206.18 -1359.25 0.
1316.55 -1135.39 0.
1342.06 -1076.04 0.
1367.58 -1016.68 0.
2983.24 -457.359 0.
2886.44 -686.983 0.
-945.311 -2517.51 0.
2413.37 -858.257 0.
2530.18 -587.871 0.
1588.37 -875.171 0.
1448.66 -1198.19 0.
1308.95 -1521.2 0.
1349.89 -1604.33 0.
1401.88 -1481.13 0.
1453.87 -1357.93 0.
639.798 -1732.37 0.
597.923 -1831.47 0.
556.047 -1930.57 0.
826.799 -1753.05 0.
864.778 -1667.38 0.
90.6766 -1926.71 0.
122.137 -1849.07 0.
153.597 -1771.44 0.
311.166 -1624.78 0.
358.139 -1511.38 0.
405.112 -1397.98 0.
156.307 -1470.74 0.
149.355 -1488.99 0.
142.403 -1507.23 0.
-415.071 -1510.93 0.
-257.206 -1146.91 0.
214.233 -668.545 0.
-150.721 -1284.09 0.
-391.274 -1846.35 0.
-242.238 -2056.29 0.
-104.58 -1736.84 0.
33.0793 -1417.39 0.
24.7853 -1310.18 0.
-0.0974576 -1366.96 0.
-24.9802 -1423.74 0.
-29.9439 -1263.58 0.
95.2046 -972.66 0.
220.353 -681.737 0.
-619.984 -1081.86 0.
-652.006 -1158.19 0.
-94.0867 -951.341 0.
-21.1968 -782.294 0.
51.6927 -613.247 0.
-159.856 -595.741 0.
-126.737 -524.01 0.
-93.6179 -452.278 0.
8.05134 -497.454 0.
-92.4948 -728.317 0.
-193.04 -959.18 0.
-568.231 -1152.71 0.
-565.705 -1149.44 0.
-453.99 -1035.15 0.
-182.947 -777.251 0.
-105.476 -599.307 0.
213.272 -345.924 0.
209.858 -356.004 0.
206.445 -366.083 0.
-27.3396 -480.526 0.
-45.9269 -527.143 0.
-64.5142 -573.76 0.
-261.98 -767.873 0.
-337.573 -944.512 0.
-413.165 -1121.15 0.
-85.6508 -989.895 0.
-83.1806 -979.293 0.
202.117 -856.84 0.
140.886 -997.965 0.
79.6545 -1139.09 0.
-43.5723 -1272.04 0.
-36.2121 -1253.54 0.
-28.8521 -1235.04 0.
-151.734 -1365.31 0.
-238.84 -1571.13 0.
-325.945 -1776.94 0.
-278.821 -1728.38 0.
-228.866 -1611.26 0.
433.133 -1231.77 0.
372.718 -1210.51 0.
398.16 -1154.31 0.
157.781 -1232.02 0.
144.643 -1260.61 0.
131.506 -1289.21 0.
130.124 -1369.82 0.
55.0177 -1546.73 0.
-20.0897 -1723.64 0.
191.35 -1732.36 0.
152.977 -1818.43 0.
114.604 -1904.5 0.
991.783 -1643.99 0.
922.66 -1801.11 0.
967.603 -1907.67 0.
910.524 -2037.57 0.
853.444 -2167.47 0.
819.788 -2149.78 0.
987.823 -1751.02 0.
1155.86 -1352.26 0.
1292.53 -1112.36 0.
1318.08 -1053.06 0.
1343.62 -993.757 0.
2485.84 -641.277 0.
2388.26 -870.315 0.
318.668 -1945.7 0.
2003.99 -1001.96 0.
2119.83 -731.045 0.
1548.79 -860.531 0.
1408.79 -1183.9 0.
1268.79 -1507.26 0.
1014.91 -1716.51 0.
1066.7 -1593.98 0.
1118.49 -1471.44 0.
850.815 -1608.64 0.
808.555 -1707.63 0.
766.295 -1806.62 0.
945.401 -1670.98 0.
982.946 -1584.74 0.
233.908 -1835.72 0.
265.652 -1757.55 0.
297.395 -1679.37 0.
272.386 -1610.97 0.
319.376 -1497.11 0.
366.366 -1383.25 0.
162.569 -1438.92 0.
155.867 -1457.36 0.
149.165 -1475.8 0.
-315.126 -1433.77 0.
-157.176 -1069.79 0.
48.8169 -709.075 0.
27.193 -1177.23 0.
-213.489 -1739.27 0.
-59.1482 -1947.78 0.
78.4313 -1627.74 0.
216.011 -1307.69 0.
-1.56469 -1291.66 0.
-26.5613 -1348.36 0.
-51.5579 -1405.07 0.
-25.0136 -1228.28 0.
100.027 -937.221 0.
225.067 -646.162 0.
-370.594 -945.116 0.
-403.096 -1020.62 0.
-280.101 -999.223 0.
-206.965 -830.424 0.
-133.829 -661.625 0.
17.3089 -489.722 0.
49.4392 -416.845 0.
81.5694 -343.968 0.
-15.6027 -477.298 0.
-116.016 -708.065 0.
-216.428 -938.832 0.
-360.214 -1033.7 0.
-357.052 -1030 0.
41.7291 -304.157 0.
-138.441 -602.03 0.
378.971 608.781 0.
492.886 102.255 0.
259.133 -440.097 0.
362.594 -195.479 0.
102.334 -37.0812 0.
135.248 40.2197 0.
384.976 622.164 0.
572.208 845.502 0.
571.446 845.062 0.
399.865 446.1 0.
429.007 133.891 0.
224.074 -345.875 0.
673.569 89.2851 0.
1180.78 1271.07 0.
932.404 689.824 0.
469.55 562.399 0.
308.44 186.956 0.
107.603 -281.455 0.
578.633 345.448 0.
593.547 379.154 0.
-32.3816 -1082.3 0.
442.166 -174.714 0.
868.953 818.424 0.
834.862 344.792 0.
1592.83 602.589 0.
1143.24 -452.189 0.
291.382 -760.62 0.
680.183 141.811 0.
809.578 438.898 0.
935.854 235.858 0.
721.985 -263.237 0.
698.354 -318.042 0.
874.77 -60.3871 0.
1043.65 334.486 0.
747.262 -355.67 0.
2332.81 1208.02 0.
1718.8 -228.345 0.
1437.94 -355.309 0.
1370.3 -520.187 0.
1557.03 -91.2411 0.
1608.77 -166.889 0.
1837.12 358.718 0.
1666.17 -47.0185 0.
1402.85 -773.255 0.
1648.73 -201.12 0.
1775.66 93.2501 0.
2613.11 624.404 0.
2731.54 898.909 0.
504.07 1661.25 0.
2755.07 1586.62 0.
2036.31 -90.6356 0.
2295.44 982.438 0.
2023.82 351.071 0.
1587.01 -665.063 0.
1504.55 97.1637 0.
1437.03 -59.5235 0.
1518.3 130.466 0.
1558.06 -319.076 0.
1718.95 57.533 0.
2021.96 765.218 0.
1750.99 9.61366 0.
1740.72 -9.4328 0.
1058.48 -145.59 0.
1079.4 -96.0179 0.
1242.4 285.434 0.
921.088 7.34 0.
1143.18 522.806 0.
546.415 -872.459 0.
355.036 -974.502 0.
754.214 -43.0146 0.
1016.37 568.498 0.
438.418 148.859 0.
831.508 1068.04 0.
-205.162 -373.635 0.
502.921 -379.458 0.
869.45 475.462 0.
804.711 -233.792 0.
827.025 -182.102 0.
991.68 201.49 0.
415.411 -255.4 0.
243.932 -648.112 0.
423.554 -221.493 0.
370.281 -293.138 0.
171.079 -752.792 0.
719.574 531.718 0.
350.287 307.337 0.
683.756 1086.94 0.
38.727 120.2 0.
198.175 492.843 0.
209.637 520.056 0.
214.584 -338.003 0.
657.361 694.179 0.
581.343 515.275 0.
-182.351 -779.655 0.
208.177 128.664 0.
70.1471 -196.14 0.
214.041 -70.085 0.
302.982 141.365 0.
138.966 -518.433 0.
-22.3103 -713.879 0.
-95.463 -881.928 0.
-89.3275 -993.135 0.
-103.221 -1022.04 0.
-117.114 -1050.94 0.
-425.219 -1201.97 0.
-425.743 -1203.17 0.
-426.267 -1204.37 0.
-51.4579 -1004.52 0.
-17.9342 -925.482 0.
15.5901 -846.44 0.
163.044 -728.93 0.
187.336 -670.816 0.
439.379 -531.189 0.
371.904 -689.228 0.
304.429 -847.266 0.
-243.18 -1203.68 0.
-302.517 -1341.78 0.
-361.852 -1479.87 0.
-62.9296 -1317.39 0.
26.8561 -1109.45 0.
116.642 -901.512 0.
162.824 -973.439 0.
74.1107 -1182.04 0.
345.936 -1236.32 0.
812.286 -1014.36 0.
827.688 -982.019 0.
157.285 -1267.32 0.
116.355 -1368.19 0.
75.424 -1469.06 0.
176.774 -1504.17 0.
138.535 -1595.13 0.
100.296 -1686.09 0.
171.931 -1789.97 0.
82.8058 -1997.61 0.
-6.31933 -2205.24 0.
1046.25 -1795.69 0.
1031.47 -1829.44 0.
694.518 -1982.41 0.
789.92 -1764.01 0.
885.323 -1545.61 0.
1002.18 -1391.12 0.
972.017 -1466.39 0.
941.852 -1541.67 0.
911.63 -1584.57 0.
912.808 -1585.39 0.
913.985 -1586.22 0.
1720.69 -1140.17 0.
1791.9 -976.185 0.
27.514 -1599.32 0.
1565.38 -1129.39 0.
1466.01 -1361.12 0.
899.74 -1725.98 0.
955.836 -1593.2 0.
1011.93 -1460.42 0.
920.738 -1462.45 0.
893.272 -1527.58 0.
865.807 -1592.72 0.
741.229 -1636.49 0.
760.956 -1591.08 0.
780.684 -1545.68 0.
1110.85 -1451.6 0.
1078.43 -1524.94 0.
217.519 -1928.88 0.
286.92 -1766.9 0.
356.32 -1604.91 0.
275.937 -1602.6 0.
203.009 -1773.18 0.
130.082 -1943.76 0.
101.34 -1898.48 0.
204.639 -1656.95 0.
307.938 -1415.41 0.
-32.2441 -1593.49 0.
-75.1097 -1692.03 0.
-158.674 -1802.67 0.
30.6312 -1620.4 0.
84.6224 -1496.05 0.
90.7672 -1385.38 0.
161.295 -1221.51 0.
231.823 -1057.64 0.
202.209 -1053.1 0.
133.066 -1205.79 0.
63.9231 -1358.48 0.
-87.654 -1466.49 0.
-94.7392 -1479.55 0.
-101.824 -1492.62 0.
-436.817 -1321.27 0.
-259.407 -907.502 0.
-208.864 -586.939 0.
-168.759 -494.039 0.
-128.653 -401.138 0.
232.399 -258.223 0.
168.208 -412.854 0.
104.016 -567.487 0.
-172.675 -658.008 0.
-98.9959 -489.99 0.
-25.3168 -321.973 0.
539.065 252.206 0.
732.12 705.877 0.
386.094 -382.998 0.
194.349 -591.382 0.
121.706 -759.746 0.
-210.093 -1011.97 0.
-224.28 -1040.96 0.
-238.467 -1069.95 0.
-443.275 -1177.71 0.
-443.722 -1179.28 0.
-444.169 -1180.85 0.
172.201 -876.862 0.
206.177 -797.896 0.
240.152 -718.929 0.
305.032 -636.876 0.
328.76 -578.34 0.
493.249 -477.307 0.
425.824 -635.367 0.
358.4 -793.426 0.
-172.924 -1142.03 0.
-232.563 -1280.31 0.
-292.201 -1418.59 0.
43.0894 -1239.52 0.
133.479 -1031.58 0.
223.87 -823.634 0.
257.333 -901.699 0.
167.976 -1109.78 0.
473.052 -1149.19 0.
721.028 -1024.5 0.
736.593 -992.331 0.
277.25 -1184.44 0.
236.433 -1285.64 0.
195.616 -1386.84 0.
178.582 -1467.6 0.
141.035 -1559.48 0.
103.488 -1651.35 0.
236.213 -1730.84 0.
147.147 -1938.1 0.
58.0808 -2145.36 0.
1064.06 -1757.03 0.
1048.19 -1789.76 0.
654.571 -1968.62 0.
749.06 -1749.56 0.
843.549 -1530.49 0.
917.256 -1398.68 0.
886.546 -1473.47 0.
855.836 -1548.26 0.
751.8 -1621.91 0.
753.53 -1623.01 0.
755.26 -1624.1 0.
1572.34 -1171.11 0.
1643.68 -1007.67 0.
-2421.66 -2616.47 0.
1550.57 -1103.71 0.
1451.15 -1336.09 0.
630.162 -1807.27 0.
686.81 -1675.04 0.
743.459 -1542.81 0.
1041.75 -1379.23 0.
1014.91 -1444.48 0.
988.072 -1509.73 0.
447.862 -1732.43 0.
467.523 -1686.71 0.
487.184 -1640.99 0.
1111.85 -1418.51 0.
1079.78 -1491.74 0.
142.61 -1929.22 0.
211.778 -1767.07 0.
280.947 -1604.91 0.
345.354 -1541.96 0.
272.376 -1712.41 0.
199.398 -1882.86 0.
290.03 -1786.6 0.
394.071 -1545.42 0.
498.111 -1304.24 0.
322.533 -1408.5 0.
280.034 -1507.17 0.
655.562 -1423.34 0.
119.127 -1551.71 0.
172.687 -1427.23 0.
-159.151 -1460.14 0.
-88.9451 -1296.31 0.
-18.7392 -1132.48 0.
374.352 -949.358 0.
304.937 -1101.97 0.
235.522 -1254.57 0.
-15.9781 -1404.53 0.
-22.6415 -1418.32 0.
-29.3049 -1432.11 0.
-528.908 -1329.92 0.
-351.001 -916.324 0.
-124.11 -519.478 0.
-83.7576 -426.77 0.
-43.4046 -334.062 0.
229.895 -226.461 0.
166.8 -381.702 0.
103.706 -536.945 0.
-208.556 -642.735 0.
-134.546 -474.959 0.
-60.5359 -307.184 0.
785.015 389.887 0.
978.631 844.077 0.
354.371 -44.9062 0.
401.292 -147.939 0.
362.14 -239.508 0.
-65.3456 -488.43 0.
-77.7753 -519.245 0.
-90.2045 -550.061 0.
-153.204 -603.883 0.
-166.066 -637.12 0.
-178.928 -670.357 0.
450.17 -500.14 0.
375.662 -674.511 0.
301.155 -848.882 0.
100.315 -998.512 0.
70.6756 -1067.22 0.
221.114 -1053.68 0.
249.732 -985.146 0.
278.35 -916.608 0.
-143.212 -1069.38 0.
-171.806 -1136.62 0.
-200.4 -1203.87 0.
205.39 -1099.07 0.
164.166 -1191.28 0.
122.943 -1283.5 0.
87.1061 -1362.21 0.
61.1566 -1425.07 0.
698.349 -1203.59 0.
548.421 -1246.58 0.
561.618 -1216.06 0.
252.313 -1336.57 0.
244.093 -1352.29 0.
235.872 -1368.01 0.
251.673 -1407.96 0.
206.607 -1514.15 0.
161.54 -1620.35 0.
403.252 -1536.32 0.
416.016 -1506.17 0.
428.779 -1476.02 0.
1207.47 -1254.18 0.
1134.99 -1423.77 0.
727.169 -1723.47 0.
748.53 -1674.72 0.
769.891 -1625.97 0.
786.09 -1548.76 0.
848.224 -1398.68 0.
910.357 -1248.6 0.
908.196 -1058.11 0.
1041.6 -743.435 0.
1175 -428.758 0.
1819.91 -344.92 0.
1653 -733.367 0.
-5022.81 -3912.23 0.
1558.53 -883.934 0.
1669 -628.48 0.
973.866 -796.233 0.
894.956 -978.467 0.
816.047 -1160.7 0.
1210.46 -1093.91 0.
1176.58 -1169.84 0.
1142.69 -1245.77 0.
455.553 -1524.73 0.
481.995 -1460.22 0.
508.436 -1395.71 0.
1094.79 -1216.82 0.
1049.71 -1321.06 0.
265.024 -1721.58 0.
289.915 -1662.55 0.
314.806 -1603.51 0.
394.195 -1490.77 0.
463.107 -1326.23 0.
532.019 -1161.69 0.
542.323 -1154.39 0.
489.788 -1275.76 0.
437.254 -1397.12 0.
480.524 -1469.87 0.
436.879 -1576.42 0.
1063.46 -1388.25 0.
148.742 -1451.37 0.
321.415 -1048.41 0.
-35.1399 -974.169 0.
-91.8512 -1100.11 0.
-148.562 -1226.06 0.
331.932 -1052.85 0.
353.596 -1005.76 0.
375.259 -958.657 0.
138.259 -1009.12 0.
167.494 -943.788 0.
196.73 -878.458 0.
-285.518 -1002.13 0.
-236.189 -890.161 0.
-196.956 -776.848 0.
-163.31 -698.883 0.
-129.663 -620.919 0.
105.986 -489.058 0.
100.449 -501.848 0.
94.9126 -514.638 0.
-264.929 -688.652 0.
-281.711 -724.173 0.
-298.492 -759.695 0.
304.383 -598.374 0.
246.026 -736.161 0.
-278.496 -286.291 0.
267.046 -174.581 0.
227.249 -265.755 0.
-96.0993 -470.603 0.
-109.396 -501.076 0.
-122.693 -531.55 0.
9.39657 -501.508 0.
-3.33965 -535.135 0.
-16.0759 -568.762 0.
552.132 -425.346 0.
477.359 -599.706 0.
402.585 -774.066 0.
-128.266 -1066.39 0.
-158.298 -1134.17 0.
126.129 -1063.97 0.
155.026 -995.4 0.
183.923 -926.835 0.
-180.631 -1054.08 0.
-209.049 -1121.52 0.
-237.467 -1188.97 0.
373.575 -996.865 0.
332.345 -1089.27 0.
291.116 -1181.67 0.
90.1705 -1328.52 0.
64.3008 -1391.44 0.
238.989 -1368.35 0.
493.587 -1239.59 0.
507.251 -1209.68 0.
250.662 -1305.96 0.
242.552 -1321.57 0.
234.441 -1337.17 0.
394.077 -1313.09 0.
349.685 -1420.1 0.
305.294 -1527.1 0.
574.494 -1430.27 0.
587.302 -1400.48 0.
600.109 -1370.68 0.
1055.63 -1287.51 0.
983.438 -1456.71 0.
724.452 -1694.04 0.
745.416 -1644.99 0.
766.38 -1595.95 0.
733.598 -1540.87 0.
795.719 -1391.43 0.
857.84 -1241.99 0.
877.838 -1038.17 0.
1011.36 -724.356 0.
1144.88 -410.543 0.
1739.24 -346.194 0.
1572.99 -735.489 0.
5274.68 532.524 0.
1393.87 -922.393 0.
1504.28 -666.951 0.
1061.68 -726.136 0.
982.416 -908.044 0.
903.156 -1089.95 0.
1224.12 -1059.14 0.
1189.64 -1134.64 0.
1155.17 -1210.15 0.
567.686 -1445.45 0.
593.874 -1380.77 0.
620.063 -1316.1 0.
875.789 -1278.37 0.
830.038 -1382.3 0.
442.846 -1615.78 0.
468.079 -1557.12 0.
493.311 -1498.45 0.
426.87 -1444.34 0.
496.014 -1279.93 0.
565.159 -1115.52 0.
345.669 -1208.43 0.
293.498 -1329.79 0.
241.327 -1451.15 0.
620.844 -1376.51 0.
576.661 -1482.53 0.
963.58 -1399.86 0.
72.7387 -1453.45 0.
245.452 -1050.95 0.
17.4896 -920.14 0.
-38.6756 -1046.9 0.
-94.8405 -1173.66 0.
213.654 -1072.7 0.
234.187 -1025.14 0.
254.721 -977.59 0.
72.2833 -1006.75 0.
101.158 -941.912 0.
130.032 -877.073 0.
73.1374 -816.989 0.
122.252 -704.827 0.
-161.844 -730.917 0.
-127.852 -652.942 0.
-93.8599 -574.968 0.
102.165 -459.598 0.
96.8852 -472.758 0.
91.6055 -485.919 0.
-300.85 -672.461 0.
-317.444 -708.255 0.
-334.038 -744.05 0.
-30.161 -709.891 0.
-89.3332 -848.405 0.
-363.435 754.259 0.
335.255 269.554 0.
264.649 98.128 0.
312.058 578.967 0.
123.105 134.393 0.
366.426 699.749 0.
-52.498 -922.006 0.
67.683 -641.999 0.
175.745 -390.95 0.
476.027 -757.277 0.
783.439 -40.9674 0.
902.649 236.672 0.
40.1041 -212.098 0.
229.231 230.82 0.
824.078 776.537 0.
190.671 -704.362 0.
433.362 -140.557 0.
345.062 271.986 0.
546.59 742.206 0.
450.145 517.052 0.
1429.53 1187.37 0.
1242.07 747.036 0.
1315.31 915.445 0.
686.782 76.5306 0.
1099.43 1038.23 0.
965.861 214.786 0.
913.057 -132.36 0.
1312.5 797.855 0.
1189.52 920.22 0.
1143.92 816.377 0.
757.395 -82.8819 0.
1308.27 574.258 0.
824.509 -549.615 0.
824.484 -544.904 0.
1663.1 830.729 0.
1423.78 271.042 0.
1406.91 229.816 0.
2005.96 1255.1 0.
1559.42 214.003 0.
1335.3 -242.355 0.
1859.63 978.237 0.
1434.79 -16.2486 0.
1628.69 687.51 0.
1207.17 -297.66 0.
1275.01 -140.977 0.
1759.05 1120.75 0.
1232.18 -113.92 0.
1201.01 -191.838 0.
1612.32 -451.597 0.
2350.56 1273.25 0.
-5607.68 -1063.42 0.
2023.79 892.912 0.
1607.92 -74.882 0.
1195.06 -553.009 0.
1713.93 658.328 0.
1406.4 -58.6512 0.
1511.77 -375.504 0.
1993.92 747.007 0.
1740.23 153.019 0.
1175.15 -200.751 0.
1545.54 658.451 0.
962.622 -706.977 0.
1367.1 321.845 0.
1579.52 812.171 0.
1562.5 698.609 0.
1189.68 -170.901 0.
1163.38 -232.184 0.
1065.29 8.52181 0.
946.126 -269.995 0.
933.137 -301.134 0.
1012.41 753.106 0.
714.185 54.1836 0.
654.424 -88.1538 0.
1240.93 -163.995 0.
1174.03 -319.866 0.
1465.48 391.863 0.
622.476 3.7864 0.
968.981 816.359 0.
614.736 402.42 0.
373.151 -161.691 0.
-174.431 -1440.65 0.
410.896 -365.698 0.
686.781 275.969 0.
731.332 378.143 0.
495.016 138.11 0.
348.303 -201.108 0.
493.036 139.565 0.
837.384 321.102 0.
730.864 78.6361 0.
711.447 1268.51 0.
424.26 604.036 0.
20.3199 -333.456 0.
651.558 843.021 0.
855.936 1322 0.
594.735 714.622 0.
-181.53 -296.966 0.
-52.9468 1.26866 0.
487.26 1260.87 0.
382.328 899.511 0.
442.991 1041.06 0.
-667.572 -846.036 0.
110.151 -327.446 0.
178.231 -171.502 0.
-19.9813 -184.741 0.
-123.047 -425.641 0.
-226.112 -666.541 0.
-19.4263 -697.795 0.
-25.1252 -711.42 0.
-30.8244 -725.046 0.
395.67 -564.694 0.
382.555 -594.631 0.
369.439 -624.568 0.
-81.1056 -883.385 0.
-117.951 -970.569 0.
163.368 -899.529 0.
191.768 -836.812 0.
220.168 -774.096 0.
31.8674 -881.677 0.
-60.7504 -1098.49 0.
-153.369 -1315.29 0.
159.585 -1240.6 0.
177.699 -1201.99 0.
195.813 -1163.38 0.
177.959 -1169.33 0.
175.099 -1179.22 0.
441.362 -1073.69 0.
535.188 -1085.47 0.
510.699 -1142.98 0.
214.743 -1322.34 0.
168.649 -1428.1 0.
122.555 -1533.87 0.
470.131 -1500.88 0.
383.441 -1699.23 0.
296.752 -1897.58 0.
521.535 -1715.56 0.
637.91 -1444.54 0.
754.286 -1173.52 0.
1064.93 -1063.73 0.
1037.09 -1129.15 0.
826.417 -1278.91 0.
777.091 -1397.84 0.
727.765 -1516.78 0.
678.139 -1522.52 0.
807.555 -1222.63 0.
936.97 -922.734 0.
790.591 -1024.15 0.
646.442 -1367.77 0.
502.291 -1711.4 0.
1283.81 -1231.82 0.
1427.52 -895.637 0.
-1053.11 -1685.42 0.
1211.39 -763.13 0.
1185.36 -822.843 0.
863.748 -1027.02 0.
780.995 -1220.56 0.
698.242 -1414.09 0.
933.395 -1369.69 0.
981.022 -1259.15 0.
1028.65 -1148.61 0.
868.232 -1200.05 0.
855.796 -1231.36 0.
843.359 -1262.68 0.
708.761 -1389.12 0.
674.4 -1474.5 0.
382.534 -1650.09 0.
421.808 -1560.22 0.
461.082 -1470.34 0.
471.334 -1385.15 0.
523.706 -1264.17 0.
576.079 -1143.19 0.
362.762 -1199.61 0.
361.054 -1207.16 0.
359.345 -1214.7 0.
719.871 -1039.89 0.
734.794 -1003.16 0.
324.113 -1141.97 0.
-107.49 -1336.32 0.
-115.044 -1349.31 0.
96.0761 -1294.93 0.
47.8038 -1408.14 0.
-0.469624 -1521.34 0.
-31.1124 -1479.17 0.
84.3705 -1208.86 0.
199.854 -938.558 0.
41.7635 -974.197 0.
14.1485 -1035.17 0.
-13.4665 -1096.15 0.
207.7 -873.699 0.
277.063 -706.921 0.
-165.916 -790.344 0.
-182.606 -824.341 0.
-199.296 -858.338 0.
-100.777 -813.364 0.
-83.3174 -769.977 0.
-65.8575 -726.589 0.
-309.146 -783.306 0.
-275.792 -705.71 0.
-242.438 -628.113 0.
-190.148 -651.93 0.
-226.331 -735.52 0.
-183.678 -607.83 0.
164.824 -271.936 0.
231.765 -115.433 0.
-10.7372 -152.277 0.
-114.875 -392.292 0.
-219.013 -632.306 0.
-80.7915 -693.087 0.
-86.4359 -706.711 0.
-92.0806 -720.336 0.
210.952 -613.256 0.
197.529 -643.176 0.
184.106 -673.095 0.
139.452 -758.013 0.
102.414 -845.316 0.
252.5 -829.487 0.
280.445 -766.623 0.
308.39 -703.758 0.
271.01 -745.412 0.
178.225 -961.776 0.
85.4393 -1178.14 0.
-106.087 -1327.84 0.
-88.9336 -1288.89 0.
-71.7795 -1249.94 0.
228.433 -1113.96 0.
225.678 -1124.57 0.
-206.335 -1319.33 0.
588.76 -1031.28 0.
564.168 -1088.94 0.
216.439 -1292.61 0.
170.176 -1398.05 0.
123.912 -1503.5 0.
552.493 -1432.32 0.
466.287 -1630.94 0.
380.083 -1829.56 0.
477.786 -1700.36 0.
593.503 -1428.63 0.
709.221 -1156.89 0.
1146.87 -998.279 0.
1118.89 -1063.25 0.
764.264 -1274.43 0.
715.312 -1393.4 0.
666.36 -1512.36 0.
688.262 -1485.42 0.
817.63 -1185.8 0.
946.997 -886.182 0.
748.999 -1010.96 0.
604.609 -1354.29 0.
460.218 -1697.61 0.
1308.87 -1189.86 0.
1452.36 -853.631 0.
93.9402 -1161.92 0.
1101.32 -778.527 0.
1075.41 -838.158 0.
723.8 -1056.51 0.
640.932 -1250.4 0.
558.064 -1444.3 0.
764.992 -1408.88 0.
812.476 -1298.76 0.
859.959 -1188.64 0.
1031.55 -1100.25 0.
1018.84 -1131.11 0.
1006.13 -1161.97 0.
814.369 -1312.21 0.
779.661 -1397.75 0.
192.864 -1698.16 0.
232.558 -1608.84 0.
272.253 -1519.51 0.
487.305 -1347.64 0.
540 -1226.54 0.
592.695 -1105.43 0.
609.103 -1062.8 0.
608.127 -1070.72 0.
607.151 -1078.65 0.
556.652 -1078.06 0.
571.771 -1041.13 0.
-195.643 -1332.73 0.
-282.679 -1380.31 0.
-289.607 -1393.94 0.
368.946 -1146.38 0.
320.233 -1259.2 0.
271.518 -1372.03 0.
26.3733 -1423.54 0.
141.538 -1153.3 0.
256.704 -883.06 0.
86.0607 -923.616 0.
58.7998 -985.261 0.
31.5388 -1046.91 0.
79.705 -897.112 0.
149.691 -731.186 0.
-143.278 -750.001 0.
-159.926 -784.014 0.
-176.574 -818.026 0.
-134.678 -794.983 0.
-117.405 -751.582 0.
-100.131 -708.181 0.
-195.71 -705.431 0.
-162.581 -627.929 0.
-129.452 -550.427 0.
-60.2677 -565.093 0.
-96.9846 -649.024 0.
69.3719 15.3041 0.
296.527 -8.65558 0.
261.714 -87.4314 0.
-95.7818 -307.473 0.
-139.402 -408.914 0.
-183.023 -510.356 0.
58.9356 -494.37 0.
8.75863 -608.612 0.
-41.4183 -722.854 0.
146.115 -546.882 0.
256.582 -290.379 0.
367.05 -33.8761 0.
463.479 -214.149 0.
305.951 -577.881 0.
224.281 -891.11 0.
170.728 -1012.07 0.
117.174 -1133.02 0.
39.9167 -1183.59 0.
135.382 -958.014 0.
230.847 -732.441 0.
156.133 -633.765 0.
198.848 -535.433 0.
241.562 -437.102 0.
432.141 -452.992 0.
345.181 -654.501 0.
361.033 -811.486 0.
808.578 -761.459 0.
735.017 -935.462 0.
239.703 -1270 0.
210.684 -1338.47 0.
181.665 -1406.94 0.
555.918 -1261.64 0.
581.555 -1204.04 0.
607.193 -1146.44 0.
625.465 -1180 0.
580.894 -1287.57 0.
536.323 -1395.13 0.
1165.81 -1190.2 0.
1130.72 -1270.75 0.
574.939 -1557.17 0.
641.998 -1396.94 0.
709.056 -1236.71 0.
897.896 -1074.04 0.
880.94 -1107.95 0.
863.985 -1141.87 0.
697.999 -1121.32 0.
798.824 -884.699 0.
899.647 -648.083 0.
1543.03 -366.15 0.
1522.25 -417.314 0.
71.0328 -1081.03 0.
1116.53 -698.037 0.
1081.84 -777.973 0.
629.243 -1016.96 0.
639.95 -992.338 0.
650.657 -967.719 0.
894.111 -968.209 0.
759.015 -1283.13 0.
623.919 -1598.06 0.
856.434 -1540.32 0.
888.694 -1464.02 0.
920.953 -1387.73 0.
809.224 -1306.6 0.
878.627 -1138.74 0.
316.804 -1243.79 0.
387.999 -1077.02 0.
459.194 -910.243 0.
674.36 -871.132 0.
467.041 -1352.72 0.
259.723 -1834.3 0.
414.52 -1776.4 0.
550.856 -1454.4 0.
687.19 -1132.41 0.
467.812 -1131.38 0.
489.158 -1079.97 0.
30.037 -1251.41 0.
-359.371 -1480.23 0.
-391.239 -1555.36 0.
408.963 -1232.13 0.
451.294 -1130.49 0.
493.624 -1028.85 0.
134.843 -1175.34 0.
96.9759 -1263.99 0.
59.1082 -1352.64 0.
46.3423 -1132.58 0.
228.638 -708.54 0.
410.934 -284.504 0.
166.382 -548.418 0.
65.6184 -782.268 0.
-224.595 -1056.9 0.
-220.878 -1052.84 0.
-217.16 -1048.79 0.
-167.509 -978.987 0.
-89.5249 -801.624 0.
-11.5405 -624.261 0.
-113.233 -548.177 0.
-60.256 -425.642 0.
-7.27939 -303.107 0.
74.6066 -233.913 0.
90.9518 -203.768 0.
-422.8 -167.053 0.
325.5 33.7564 0.
291.009 -45.3857 0.
-107.192 -280.513 0.
-151.021 -381.779 0.
-194.85 -483.046 0.
276.302 -368.659 0.
226.793 -483.506 0.
177.285 -598.352 0.
123.782 -526.423 0.
233.921 -269.798 0.
344.06 -13.1739 0.
503.285 -164.392 0.
345.754 -528.571 0.
171.693 -882.411 0.
117.394 -1003.32 0.
63.096 -1124.22 0.
-270.098 -1284.43 0.
-174.04 -1059.55 0.
-77.9827 -834.672 0.
367.621 -510.903 0.
409.993 -412.165 0.
452.363 -313.427 0.
230.106 -508.939 0.
142.968 -710.498 0.
80.0137 -901.656 0.
1048.36 -627.113 0.
974.348 -800.34 0.
301.072 -1213.47 0.
271.72 -1281.34 0.
242.368 -1349.21 0.
337.464 -1325.95 0.
362.349 -1267.53 0.
387.237 -1209.1 0.
530.668 -1187.03 0.
486.464 -1294.77 0.
442.26 -1402.52 0.
1370.44 -1072.79 0.
1335.59 -1153.06 0.
498.204 -1557.29 0.
564.793 -1396.45 0.
631.382 -1235.62 0.
998.21 -1002.2 0.
980.809 -1035.4 0.
963.407 -1068.6 0.
762.328 -1060.26 0.
864.055 -824.473 0.
965.781 -588.689 0.
1249.67 -461.025 0.
1228.57 -511.959 0.
1307.85 -519.401 0.
1227.61 -618.463 0.
1192.46 -698.271 0.
532.127 -1025.78 0.
542.884 -1001.41 0.
553.641 -977.036 0.
939.71 -919.65 0.
804.261 -1234.5 0.
668.811 -1549.36 0.
762.499 -1549.36 0.
795.43 -1473.85 0.
828.362 -1398.34 0.
717.945 -1314.37 0.
787.35 -1146.91 0.
346.853 -1198.07 0.
418.447 -1031.62 0.
490.04 -865.172 0.
642.871 -853.859 0.
435.698 -1335.69 0.
228.526 -1817.53 0.
458.396 -1725.19 0.
594.675 -1402.8 0.
730.953 -1080.41 0.
499.201 -1089.86 0.
520.128 -1038.26 0.
498.849 -1015.96 0.
-233.706 -1392.51 0.
-265.493 -1468.2 0.
370.984 -1217.25 0.
412.943 -1115.47 0.
454.902 -1013.68 0.
123.237 -1149.52 0.
85.4265 -1238.44 0.
47.6153 -1327.36 0.
152.17 -1056.33 0.
334.978 -632.583 0.
517.786 -208.831 0.
168.978 -515.429 0.
68.1835 -749.756 0.
-83.8467 -966.532 0.
-80.0699 -962.088 0.
-76.2925 -957.644 0.
23.8344 -865.498 0.
101.663 -688.065 0.
179.492 -510.632 0.
-152.183 -532.418 0.
-99.3069 -410.169 0.
-46.4314 -287.921 0.
-29.4995 -248.323 0.
-13.7071 -218.992 0.
-628.805 317.107 0.
740.435 978.084 0.
400.806 182.736 0.
288.166 699.446 0.
-103.137 -218.208 0.
128.222 317.666 0.
609.467 28.886 0.
685.658 210.27 0.
743.867 349.635 0.
656.323 779.404 0.
463.635 332.454 0.
394.435 174.353 0.
917.627 761.91 0.
1153.6 1313.68 0.
898.398 954.522 0.
445.076 -104.276 0.
697.69 484.658 0.
211.464 446.813 0.
516.055 1158.94 0.
392.286 871.328 0.
762.395 43.7428 0.
788.114 110.283 0.
719.528 -43.2624 0.
49.7286 -537.983 0.
610.593 773.304 0.
624.715 21.3187 0.
1589.05 203.537 0.
2197.03 1627.25 0.
936.579 176.329 0.
1279.61 979.064 0.
992.071 311.188 0.
383.167 -763.345 0.
1345.64 1479.77 0.
1229.51 1205.57 0.
1115.37 386.415 0.
1064.18 269.068 0.
1270.32 751.628 0.
2130.21 345.616 0.
1806.58 -410.477 0.
825.622 -599.786 0.
1500.59 978.12 0.
1369.99 675.99 0.
1391.41 -241.926 0.
1391.82 -244.462 0.
1798.48 701.749 0.
1573.57 737.234 0.
1218.15 -93.0359 0.
1278.24 46.0245 0.
1293.82 231.862 0.
1371.52 413.366 0.
-1409.83 -769.09 0.
1843.08 631.776 0.
1173.67 -926.829 0.
797.683 -182.639 0.
957.02 188.914 0.
793.349 -193.33 0.
1268.4 -214.542 0.
1506.6 342.992 0.
1321.05 -88.0521 0.
1466.37 289.541 0.
987.024 -828.855 0.
1409.32 156.283 0.
1177.57 -37.8043 0.
1564.73 861.526 0.
1072.34 458.526 0.
823.54 -115.902 0.
847.051 -54.1159 0.
857.883 -262.604 0.
1198.73 535.793 0.
887.445 -187.327 0.
1036.57 -425.804 0.
1261.92 105.713 0.
1572.26 836.076 0.
941.829 -97.0485 0.
847.994 -316.93 0.
1180.3 1207.31 0.
756.053 706.641 0.
597.128 333.717 0.
1081.94 559.684 0.
625.078 -512.633 0.
1275.29 998.002 0.
661.867 153.943 0.
787.723 446.693 0.
1102.84 1180.92 0.
802.395 288.217 0.
749.733 165.3 0.
248.766 -1002.28 0.
382.971 -0.995795 0.
-40.8998 -988.077 0.
227.509 -488.936 0.
717.778 658.189 0.
557.127 286.332 0.
189.514 -813.48 0.
751.593 498.482 0.
880.996 800.811 0.
40.5215 30.9185 0.
-122.564 -347.665 0.
336.043 723.229 0.
155.882 402.06 0.
-10.4536 15.6685 0.
-645.883 -550.17 0.
27.6164 -445.889 0.
-93.4697 -731.082 0.
-331.083 -1004.47 0.
-265.63 -856.167 0.
-200.175 -707.865 0.
326.176 -458.66 0.
266.355 -596.041 0.
206.533 -733.421 0.
-119.164 -1001.28 0.
-192.751 -1174.33 0.
-266.338 -1347.38 0.
259.995 -965.805 0.
369.686 -709.911 0.
191.495 -597.266 0.
190.313 -604.663 0.
189.131 -612.059 0.
-46.4475 -716.941 0.
-53.956 -733.905 0.
-61.4652 -750.87 0.
312.442 -727.25 0.
178.973 -1037.29 0.
45.5033 -1347.33 0.
-192.837 -1371.07 0.
-97.2293 -1143.57 0.
-179.591 -992.535 0.
1071.44 -608.938 0.
989.861 -798.168 0.
359.978 -1209.96 0.
306.499 -1335.37 0.
253.02 -1460.78 0.
136.209 -1479.92 0.
240.153 -1239.26 0.
344.098 -998.6 0.
719.624 -836.863 0.
667.563 -957.465 0.
615.502 -1078.07 0.
1327.44 -831.452 0.
1297.62 -904.383 0.
463.98 -1325.11 0.
438.155 -1389.33 0.
412.33 -1453.54 0.
691.395 -1362.32 0.
697.787 -1351.97 0.
704.178 -1341.61 0.
636.982 -1392.79 0.
613.794 -1448.19 0.
590.606 -1503.6 0.
781.822 -1315.52 0.
862.068 -1131.08 0.
135.083 -1293.44 0.
1099.03 -863.151 0.
1106.75 -842.806 0.
372.187 -1163.27 0.
323.374 -1278.3 0.
274.561 -1393.33 0.
785.88 -1177.25 0.
845.508 -1040.05 0.
905.135 -902.863 0.
833.334 -892.149 0.
837.082 -881.96 0.
840.829 -871.771 0.
986.172 -850.878 0.
963.479 -910.115 0.
462.504 -1189.5 0.
370.267 -1397.61 0.
278.031 -1605.71 0.
335.007 -1600.93 0.
457.935 -1311.18 0.
580.863 -1021.43 0.
538.521 -987.917 0.
494.556 -1090.16 0.
450.592 -1192.41 0.
514.165 -1061.22 0.
596.891 -869.492 0.
1201.65 -458.299 0.
17.5434 -1007.77 0.
-3.91777 -1059.31 0.
207.329 -997.751 0.
212.09 -995.05 0.
216.85 -992.349 0.
396.375 -954.404 0.
356.182 -1049.76 0.
315.988 -1145.11 0.
36.4468 -1238.26 0.
79.8002 -1136.4 0.
123.154 -1034.54 0.
132.499 -939.474 0.
177.218 -835.275 0.
189.555 -748.813 0.
228.683 -654.293 0.
267.81 -559.774 0.
125.89 -492.518 0.
237.394 -230.836 0.
348.898 30.8456 0.
49.2455 -70.5359 0.
-0.849499 -186.07 0.
-50.9447 -301.604 0.
-28.4208 -217.379 0.
26.6608 -87.2711 0.
-197.405 -331.529 0.
-82.0717 -463.781 0.
-203.178 -748.526 0.
-176.957 -905.711 0.
-111.463 -757.76 0.
-45.9688 -609.808 0.
250.006 -460.512 0.
190.625 -598.068 0.
131.244 -735.623 0.
-114.719 -967.331 0.
-187.651 -1141 0.
-260.582 -1314.67 0.
374.429 -885.764 0.
484.344 -630.219 0.
162.872 -576.634 0.
160.686 -583.129 0.
158.5 -589.624 0.
265.873 -553.441 0.
258.188 -570.057 0.
250.502 -586.672 0.
181.167 -754.014 0.
47.9987 -1064.53 0.
-85.1693 -1375.04 0.
-34.494 -1271.5 0.
60.9227 -1043.79 0.
946.974 -477.546 0.
879.066 -661.786 0.
797.995 -851.355 0.
401.918 -1159.67 0.
349.012 -1285.62 0.
296.106 -1411.56 0.
223.618 -1411.76 0.
327.631 -1171.19 0.
431.644 -930.628 0.
895.129 -728.259 0.
843.64 -849.336 0.
792.152 -970.413 0.
977.892 -949.49 0.
948.332 -1022.25 0.
424.494 -1309.7 0.
398.19 -1373.6 0.
371.886 -1437.51 0.
440.335 -1439.92 0.
446.72 -1429.49 0.
453.104 -1419.06 0.
623.313 -1368.76 0.
600.424 -1424.28 0.
577.534 -1479.8 0.
988.868 -1195.61 0.
1069.32 -1011.08 0.
-1137.46 -1806.62 0.
986.113 -880.42 0.
994.314 -860.817 0.
380.845 -1127.42 0.
332.115 -1243.27 0.
283.384 -1359.12 0.
721.467 -1172.86 0.
780.764 -1035.86 0.
840.061 -898.851 0.
694.372 -921.85 0.
698.22 -911.908 0.
702.067 -901.966 0.
1196.78 -728.846 0.
1174.87 -788.385 0.
599.138 -1097.34 0.
507.644 -1305.69 0.
416.149 -1514.03 0.
411.798 -1537.75 0.
534.754 -1247.76 0.
657.709 -957.766 0.
243.491 -1081.85 0.
200.14 -1184.46 0.
156.789 -1287.08 0.
514.897 -1031.89 0.
597.788 -840.508 0.
874.898 -565.334 0.
28.726 -970.126 0.
7.13633 -1021.78 0.
-33.1284 -1070.44 0.
-28.5681 -1067.72 0.
-24.0086 -1065 0.
667.067 -806.666 0.
627.246 -902.595 0.
587.425 -998.524 0.
-85.6555 -1259.67 0.
-41.4889 -1158.82 0.
2.67798 -1057.97 0.
333.942 -822.488 0.
378.578 -718.369 0.
292.399 -672.217 0.
331.794 -577.571 0.
371.189 -482.925 0.
-103.763 -560.17 0.
7.43159 -298.081 0.
118.625 -35.9913 0.
127.676 -6.72657 0.
77.4155 -122.57 0.
27.1546 -238.413 0.
88.8405 -134.886 0.
143.628 -5.92013 0.
296.838 143.555 0.
40.0902 -172.26 0.
-15.1036 -299.993 0.
147.941 -316.556 0.
147.014 -316.65 0.
146.086 -316.744 0.
269.182 -257.422 0.
272.76 -247.321 0.
276.337 -237.221 0.
63.9126 -496.445 0.
-79.4716 -830.542 0.
-222.856 -1164.64 0.
435.8 -734.657 0.
549.627 -469.795 0.
192.541 -445.928 0.
94.4134 -673.846 0.
-3.71433 -901.765 0.
295.528 -916.822 0.
265.656 -986.536 0.
235.784 -1056.25 0.
-45.6116 -1111.56 0.
50.0495 -890.661 0.
145.711 -669.767 0.
309.839 -640.15 0.
254.135 -770.076 0.
1187.47 -475.895 0.
696.234 -797.351 0.
629.853 -949.823 0.
378.257 -1127.92 0.
453.989 -947.747 0.
529.72 -767.573 0.
599.774 -743.157 0.
491.256 -992.31 0.
382.739 -1241.46 0.
714.877 -1235.18 0.
666.162 -1347.88 0.
617.447 -1460.57 0.
667.356 -1307.13 0.
749.773 -1109.04 0.
529.97 -1029.25 0.
644.85 -761.41 0.
759.73 -493.573 0.
777.728 -395.794 0.
683.655 -614.484 0.
589.582 -833.173 0.
890.625 -746.293 0.
934.162 -641.311 0.
977.698 -536.328 0.
1285.98 -557.184 0.
1169.48 -825.159 0.
804.757 -1201.56 0.
861.25 -1141.39 0.
879.965 -1097.52 0.
266.743 -1268.2 0.
400.412 -956.695 0.
534.08 -645.193 0.
1029.22 -384.097 0.
929.427 -622.21 0.
829.636 -860.323 0.
604.181 -1076.81 0.
561.487 -1172.77 0.
518.793 -1268.74 0.
1133.3 -866.323 0.
1216.44 -668.783 0.
747.453 -765.148 0.
597.368 -1116.78 0.
447.282 -1468.42 0.
337.86 -1598.72 0.
484.503 -1258.44 0.
631.147 -918.151 0.
214.804 -978.792 0.
212.021 -982.174 0.
209.239 -985.557 0.
678.761 -809.954 0.
665.214 -849.699 0.
960.993 -750.663 0.
23.3998 -1054.92 0.
73.9177 -936.069 0.
-19.0434 -915.811 0.
-55.2572 -994.519 0.
-91.4708 -1073.23 0.
594.913 -727.47 0.
694.909 -494.607 0.
794.904 -261.745 0.
187.804 -633.964 0.
59.2663 -932.902 0.
-69.2716 -1231.84 0.
389.717 -896.985 0.
482.558 -679.088 0.
350.326 -579.274 0.
371.466 -531.804 0.
392.606 -484.333 0.
-299.506 -790.833 0.
-357.529 -927.327 0.
-415.553 -1063.82 0.
-115.686 -789.758 0.
53.611 -396.934 0.
222.909 -4.10819 0.
224.953 327.083 0.
407.441 749.969 0.
574.099 294.943 0.
152.928 -96.1236 0.
97.0379 -222.722 0.
193.447 -263.918 0.
192.854 -264.119 0.
192.261 -264.32 0.
208.99 -253.401 0.
212.459 -243.39 0.
215.928 -233.378 0.
24.0897 -480.659 0.
-118.933 -815.12 0.
-261.955 -1149.58 0.
363.659 -737.001 0.
477.493 -472.228 0.
187.629 -412.372 0.
90.0405 -640.387 0.
-7.5482 -868.402 0.
473.674 -810.079 0.
443.653 -879.154 0.
413.632 -948.23 0.
-74.8963 -1093.58 0.
21.2928 -872.996 0.
117.482 -652.413 0.
379.093 -576.211 0.
323.405 -706.171 0.
404.964 -777.572 0.
613.914 -802.632 0.
547.449 -955.067 0.
270.353 -1141.31 0.
346.687 -961.959 0.
423.02 -782.604 0.
756.313 -643.409 0.
648.41 -893.171 0.
540.506 -1142.93 0.
662.99 -1226.99 0.
614.223 -1339.92 0.
565.456 -1452.84 0.
651.72 -1282.52 0.
735.194 -1084.77 0.
563.674 -981.279 0.
679.25 -714.423 0.
794.825 -447.566 0.
786.14 -362.689 0.
692.988 -582.576 0.
599.837 -802.463 0.
921.71 -698.85 0.
966.372 -595 0.
1011.03 -491.15 0.
1145.3 -584.927 0.
1029.88 -854.287 0.
-951.911 -1922.39 0.
992.534 -1051.92 0.
1010.45 -1007.87 0.
149.101 -1288.51 0.
281.384 -976.478 0.
413.667 -664.449 0.
1048.07 -346.388 0.
947.681 -584.61 0.
847.294 -822.832 0.
719.001 -995.166 0.
676.961 -1091.72 0.
634.921 -1188.27 0.
939.599 -917.601 0.
1023.14 -720.294 0.
660.686 -771.557 0.
509.946 -1122.56 0.
359.206 -1473.56 0.
181.149 -1637.35 0.
326.724 -1296.16 0.
472.299 -954.964 0.
341.723 -892.682 0.
337.995 -895.546 0.
334.267 -898.409 0.
893.871 -687.732 0.
878.815 -726.651 0.
668.339 -842.698 0.
123.085 -979.759 0.
174.101 -861.179 0.
115.371 -827.479 0.
80.0013 -906.977 0.
44.6312 -986.476 0.
96.3515 -909.431 0.
196.345 -676.864 0.
296.337 -444.298 0.
338.962 -536.559 0.
211.044 -836.378 0.
83.1252 -1136.2 0.
443.989 -841.544 0.
537.285 -623.748 0.
343.897 -550.773 0.
364.699 -502.301 0.
385.501 -453.827 0.
-278.649 -751.421 0.
-337.037 -887.728 0.
-395.425 -1024.04 0.
56.7682 -684.078 0.
226.064 -291.742 0.
395.361 100.595 0.
-3.87074 260.568 0.
177.736 682.557 0.
441.858 -469.714 0.
742.992 1116.02 0.
586.183 747.731 0.
540.96 497.299 0.
49.4973 -650.281 0.
704.879 877.881 0.
647.819 920.436 0.
27.872 -531.37 0.
148.389 -254.454 0.
353.856 400.617 0.
363.868 423.221 0.
304.365 283.233 0.
832.83 512.924 0.
567.01 -107.073 0.
859.501 1204.58 0.
1074.03 1703.5 0.
292.021 -123.313 0.
821.332 -300.154 0.
1151.14 471.7 0.
1165.63 507.809 0.
330.27 -64.1854 0.
520.702 379.902 0.
567.552 488.931 0.
902.502 540.881 0.
909.688 554.204 0.
438.998 -50.4524 0.
585.355 -681.173 0.
1048.02 398.6 0.
617.958 -85.293 0.
331.479 -751 0.
568.143 -195.554 0.
1350.2 466.694 0.
847.267 -707.409 0.
964.84 -433.37 0.
919.662 -494.372 0.
765.758 -853.74 0.
1313.77 424.715 0.
1405.7 536.541 0.
1056.5 -273.234 0.
1257.16 593.042 0.
1157.92 363.44 0.
947.134 -126.345 0.
919.982 -58.2659 0.
1115.2 397.86 0.
814.293 -303.122 0.
648.139 -1361.63 0.
922.6 -725.325 0.
1238.4 7.8566 0.
1232.22 -74.9538 0.
1464.46 467.53 0.
4.30647 -620.971 0.
1505.84 -77.8576 0.
1481.29 -130.694 0.
496.738 -226.263 0.
30.1819 -1308.67 0.
437.762 -351.065 0.
1110.85 -215.686 0.
1367.41 383.734 0.
1272.06 161.784 0.
831.598 -914.029 0.
1008.23 -498.671 0.
1198.99 -51.1007 0.
1226.34 145.233 0.
1263.97 239.585 0.
933.654 54.7148 0.
572.65 -782.475 0.
521.699 -895.892 0.
681.987 -142.641 0.
930.229 437.421 0.
1002.75 607.404 0.
1160.93 831.843 0.
1174.77 867.393 0.
724.289 -181.541 0.
1901.96 1283.42 0.
1496.13 342.149 0.
555.283 302.036 0.
756.51 331.41 0.
72.4814 -1259.75 0.
787.959 513.93 0.
424.921 -332.945 0.
747.415 420.107 0.
41.9349 -71.6492 0.
249.112 407.4 0.
-161.2 -553.878 0.
708.266 87.431 0.
740.2 163.524 0.
651.474 -41.6466 0.
1238.56 938.359 0.
739.002 -227.957 0.
392.407 -387.255 0.
888.939 775.993 0.
665.923 259.478 0.
87.5966 94.0963 0.
114.745 159.106 0.
126.157 186.806 0.
593.883 288.336 0.
331.053 -325.324 0.
409.166 -141.133 0.
-624.846 -740.829 0.
-416.008 -253.163 0.
97.4887 -566.304 0.
313.849 -322.726 0.
351.276 -236.237 0.
-72.2756 -380.631 0.
-112.33 -473.866 0.
-152.386 -567.101 0.
72.4288 -536.386 0.
47.2015 -600.182 0.
21.9741 -663.978 0.
-97.8839 -742.74 0.
-93.4469 -732.891 0.
-89.0103 -723.042 0.
313.63 -671.495 0.
230.918 -862.132 0.
59.1998 -1069.52 0.
143.702 -873.474 0.
228.204 -677.429 0.
491.431 -469.819 0.
460.886 -541.913 0.
430.341 -614.008 0.
274.752 -778.171 0.
197.771 -954.225 0.
120.791 -1130.28 0.
108.93 -1190.36 0.
100.596 -1212.07 0.
502.589 -1056.87 0.
475.802 -953.234 0.
535.013 -814.461 0.
279.959 -855.003 0.
225.445 -981.04 0.
170.932 -1107.08 0.
630.435 -990.587 0.
607.232 -1046.16 0.
584.03 -1101.73 0.
336.234 -1177.79 0.
365.913 -1106.06 0.
395.593 -1034.34 0.
918.477 -773.439 0.
932.682 -733.965 0.
693.614 -809.739 0.
689.341 -817.066 0.
685.069 -824.394 0.
482.434 -864.674 0.
562.918 -675.482 0.
643.401 -486.29 0.
1020.04 -315.767 0.
967.326 -444.207 0.
914.613 -572.648 0.
1109.45 -488.483 0.
1124.08 -450.356 0.
-729.328 -1212.82 0.
1313.93 -202.695 0.
1382.94 -39.3402 0.
720.161 -248.343 0.
655.801 -397.46 0.
591.44 -546.576 0.
869.475 -507.147 0.
853.956 -539.603 0.
838.437 -572.058 0.
1063.75 -514.202 0.
1035.93 -575.979 0.
1008.12 -637.757 0.
694.179 -752.549 0.
712.532 -712.62 0.
615.415 -712.317 0.
663.25 -599.575 0.
711.086 -486.835 0.
465.961 -551.003 0.
438.928 -614.491 0.
411.896 -677.98 0.
575.513 -590.301 0.
610.497 -508.375 0.
645.481 -426.449 0.
1007.33 -483.342 0.
859.084 -827.209 0.
705.571 -1161.7 0.
158.697 -1091.15 0.
317.018 -718.312 0.
420.73 -451.373 0.
405.369 -484.82 0.
390.009 -518.267 0.
75.0215 -680.113 0.
63.1706 -709.35 0.
51.3203 -738.586 0.
101.324 -738.033 0.
93.0278 -760.029 0.
84.7305 -782.027 0.
531.176 -522.578 0.
574.497 -422.479 0.
159.928 -513.756 0.
205.186 -405.609 0.
250.442 -297.461 0.
117.614 -295.268 0.
119.733 -292.592 0.
121.852 -289.915 0.
173.98 -249.525 0.
193.719 -202.254 0.
213.458 -154.983 0.
-184.331 -337.658 0.
-202.976 -380.387 0.
-257.326 -689.31 0.
558.641 -187.021 0.
595.794 -100.018 0.
-343.737 -464.668 0.
-384.008 -557.383 0.
-424.28 -650.099 0.
148.949 -471.437 0.
123.698 -535.483 0.
98.4473 -599.528 0.
-35.4463 -686.428 0.
-31.1696 -676.224 0.
-26.8932 -666.019 0.
311.526 -641.005 0.
229.282 -831.819 0.
285.188 -943.394 0.
369.117 -746.672 0.
453.047 -549.951 0.
198.228 -562.843 0.
167.764 -635.262 0.
137.302 -707.68 0.
599.349 -607.456 0.
522.588 -783.833 0.
445.827 -960.208 0.
63.69 -1176.86 0.
54.9278 -1198.43 0.
721.725 -929.385 0.
499.236 -911.408 0.
559.029 -772.714 0.
288.186 -821.05 0.
233.117 -946.147 0.
178.048 -1071.24 0.
531.032 -1001.82 0.
507.699 -1057.2 0.
484.365 -1112.58 0.
-0.466774 -1290.4 0.
29.5695 -1219.15 0.
59.6058 -1147.9 0.
1025.27 -695.806 0.
1039.14 -655.652 0.
754.128 -753.932 0.
750.072 -761.34 0.
746.016 -768.748 0.
387.974 -875.675 0.
469.002 -686.718 0.
550.031 -497.761 0.
938.577 -318.416 0.
886.118 -447.496 0.
833.659 -576.576 0.
1194.64 -419.409 0.
1209.57 -381.75 0.
-2229.47 -1823.11 0.
1160 -235.982 0.
1228.29 -72.3631 0.
1028.13 -85.9129 0.
963.538 -235.573 0.
898.944 -385.232 0.
742.16 -530.003 0.
726.244 -562.683 0.
710.329 -595.362 0.
1152.67 -445.958 0.
1124.64 -507.478 0.
1096.62 -568.998 0.
530.898 -791.203 0.
549.787 -751.822 0.
650.142 -664.502 0.
698.671 -552.411 0.
747.199 -440.319 0.
430.863 -533.077 0.
404.63 -597.221 0.
378.397 -661.364 0.
624.522 -538.812 0.
658.952 -456.382 0.
693.381 -373.953 0.
863.384 -512.196 0.
715.817 -856.498 0.
1320.61 -866.512 0.
191.107 -1046.61 0.
350.146 -674.644 0.
492.351 -387.452 0.
477.492 -421.302 0.
462.634 -455.151 0.
451.424 -488.694 0.
439.612 -517.99 0.
427.801 -547.285 0.
-187.398 -828.026 0.
-195.313 -850.404 0.
-203.229 -872.782 0.
450.758 -523.971 0.
494.029 -423.471 0.
-45.6983 -571.846 0.
-0.537837 -463.632 0.
44.6216 -355.418 0.
379.625 -150.957 0.
381.28 -148.255 0.
382.935 -145.553 0.
-42.0742 -311.749 0.
-22.4676 -264.935 0.
-2.86163 -218.122 0.
158.958 -158.903 0.
140.123 -201.825 0.
-113.4 -209.316 0.
481.986 -77.667 0.
426.546 -206.739 0.
-441.083 -637.559 0.
-400.873 -546.508 0.
-360.663 -455.456 0.
299.092 -167.023 0.
263.297 -250.019 0.
227.502 -333.013 0.
127.317 -424.61 0.
102.692 -483.576 0.
78.0689 -542.542 0.
276.85 -506.117 0.
256.983 -552.663 0.
518.562 -470.969 0.
492.089 -530.36 0.
465.615 -589.75 0.
-30.9223 -833.588 0.
-32.9239 -833.764 0.
-34.9252 -833.941 0.
636.93 -566.658 0.
614.2 -620.335 0.
591.471 -674.012 0.
196.625 -933.719 0.
141.64 -1061 0.
635.842 -952.837 0.
568.204 -813.038 0.
656.999 -604.445 0.
357.898 -657.407 0.
225.848 -968.556 0.
93.796 -1279.71 0.
450.38 -1163.42 0.
573.142 -876.161 0.
695.905 -588.9 0.
138.852 -808.055 0.
97.0178 -905.449 0.
55.1839 -1002.84 0.
991.156 -578.099 0.
1009.15 -539.378 0.
772.527 -613.892 0.
768.323 -622.923 0.
764.119 -631.955 0.
422.73 -789.635 0.
411.829 -815.549 0.
400.929 -841.462 0.
681.73 -736.939 0.
677.852 -741.943 0.
673.973 -746.947 0.
1159.2 -632.025 0.
1097.01 -776.938 0.
-830.485 -1722.04 0.
837.499 -863.9 0.
915.229 -687.352 0.
889.775 -574.468 0.
932.936 -481.134 0.
976.097 -387.8 0.
752.643 -491.574 0.
690.296 -640.659 0.
627.948 -789.744 0.
980.532 -558.778 0.
1074.39 -342.77 0.
1168.24 -126.761 0.
663.961 -527.754 0.
539.2 -814.1 0.
412.893 -1052.05 0.
510.269 -822.963 0.
607.645 -593.879 0.
463.93 -577.662 0.
393.914 -742.335 0.
323.898 -907.007 0.
531.273 -905.039 0.
506.535 -966.356 0.
481.796 -1027.67 0.
656.28 -722.13 0.
817.884 -348.981 0.
514.216 -180.006 0.
428.464 -444.541 0.
307.792 -724.421 0.
216.451 -903.874 0.
295.862 -717.479 0.
375.272 -531.083 0.
596.698 -337.106 0.
608.439 -310.065 0.
620.18 -283.023 0.
-45.2014 -519.2 0.
-7.17967 -426.328 0.
30.8422 -333.456 0.
464.1 -161.55 0.
451.883 -193.31 0.
-14.0383 -409.931 0.
-10.8803 -404.801 0.
-7.72261 -399.67 0.
341.191 -250.474 0.
338.435 -256.035 0.
335.677 -261.596 0.
-151.209 -473.774 0.
-152.437 -478.376 0.
-153.664 -482.979 0.
92.1483 -494.084 0.
21.9449 -656.726 0.
168.724 -60.3902 0.
-24.9943 -264.614 0.
-79.9667 -393.807 0.
-203.242 -502.904 0.
-162.679 -411.908 0.
-122.115 -320.911 0.
307.953 -128.942 0.
273.022 -212.786 0.
238.089 -296.629 0.
213.779 -357.615 0.
188.57 -416.094 0.
163.363 -474.572 0.
101.542 -549.189 0.
81.9558 -595.525 0.
406.022 -488.498 0.
378.946 -547.319 0.
351.871 -606.139 0.
2.18975 -790.071 0.
-0.43196 -789.373 0.
-3.05338 -788.675 0.
402.764 -635.791 0.
380.111 -689.669 0.
357.457 -743.547 0.
349.973 -837.189 0.
294.933 -964.848 0.
350.945 -1044.28 0.
648.438 -746.692 0.
737.421 -538.092 0.
381.223 -616.115 0.
249.886 -927.629 0.
118.548 -1239.14 0.
564.296 -1083.67 0.
687.241 -796.843 0.
810.187 -510.015 0.
331.875 -693.551 0.
290.343 -791.377 0.
248.811 -889.204 0.
712.731 -666.099 0.
730.372 -626.743 0.
642.197 -639.109 0.
638.037 -647.549 0.
633.877 -655.988 0.
540.898 -710.258 0.
529.553 -735.835 0.
518.207 -761.412 0.
603.153 -738.782 0.
600.681 -745.398 0.
598.21 -752.015 0.
1244.94 -562.34 0.
1182.99 -707.373 0.
-1731.51 -2075.84 0.
892.926 -808.469 0.
970.455 -631.707 0.
799.76 -581.973 0.
841.588 -487.705 0.
883.417 -393.436 0.
909.044 -396.139 0.
846.11 -544.887 0.
783.176 -693.635 0.
625.39 -680.645 0.
718.028 -463.803 0.
810.666 -246.96 0.
911.573 -392.222 0.
786.747 -678.789 0.
229.418 -1098.61 0.
326.344 -869.024 0.
423.27 -639.442 0.
651.513 -468.471 0.
580.484 -632.227 0.
509.455 -795.982 0.
664.569 -816.411 0.
639.849 -877.523 0.
615.13 -938.636 0.
550.624 -736.327 0.
711.517 -362.477 0.
560.672 -130.825 0.
380.249 -435.487 0.
259.302 -715.133 0.
39.1496 -949.234 0.
118.196 -762.285 0.
197.241 -575.335 0.
468.39 -362.84 0.
480.552 -335.878 0.
492.714 -308.917 0.
278.55 -345.579 0.
316.813 -253.291 0.
355.075 -161.003 0.
240.17 -227.013 0.
227.037 -258.181 0.
137.67 -315.402 0.
140.56 -309.919 0.
143.45 -304.436 0.
122.039 -312.291 0.
118.978 -317.689 0.
115.917 -323.086 0.
-19.8455 -387.351 0.
-20.4636 -392.531 0.
-21.0807 -397.712 0.
-5.84566 -504.453 0.
-75.675 -667.721 0.
506.139 -58.9637 0.
-381.814 -104.619 0.
-904.911 -1322.71 0.
-339.811 -1250.23 0.
532.462 789.938 0.
379.555 437.902 0.
572.903 500.408 0.
176.467 -423.56 0.
38.5279 -744.488 0.
539.837 284.49 0.
556.561 323.099 0.
613.619 455.897 0.
226.232 92.4614 0.
-207.713 -919.523 0.
639.509 313.457 0.
576.382 164.473 0.
400.23 -247.154 0.
378.258 57.577 0.
647.164 685.27 0.
431.722 182.137 0.
288.495 -434.251 0.
626.254 350.168 0.
794.139 737.974 0.
1091.49 625.66 0.
801.124 -47.5299 0.
1329.29 -418.595 0.
703.452 -734.213 0.
1107.4 208.944 0.
835.23 415.838 0.
678.66 46.8259 0.
650.575 -21.57 0.
1487.63 888.94 0.
1467.6 843.922 0.
1069.55 -82.9435 0.
481.053 -694.328 0.
644.268 -311.558 0.
493.958 -660.444 0.
737.9 -47.7517 0.
574.366 -436.102 0.
834.543 86.6251 0.
480.589 -742.675 0.
656.601 -335.531 0.
901.497 -68.8989 0.
839.693 -211.348 0.
510.554 -977.455 0.
787.217 -136.16 0.
905.552 144.419 0.
1060.47 510.411 0.
1855.93 718.515 0.
1708.2 371.7 0.
-2736.15 -1115.69 0.
1499.92 549.721 0.
1547.32 656.813 0.
1037.73 180.11 0.
1060.71 230.762 0.
903.731 -138.798 0.
1080.46 -260.586 0.
923.602 -628.299 0.
1127.03 -155.116 0.
873.969 600.074 0.
794.954 414.961 0.
113.436 -1175.95 0.
885.691 -899.167 0.
1096.5 -401.409 0.
171.693 -847.238 0.
191.293 -798.49 0.
878.785 808.687 0.
841.094 -347.711 0.
682.024 -718.247 0.
991.431 4.67345 0.
1246 312.419 0.
1466.88 829.166 0.
1159.69 112.54 0.
836.471 154.636 0.
1407.21 1492.66 0.
742.404 1138.29 0.
906.084 909.016 0.
317.063 -465.432 0.
170.387 -275.511 0.
248.771 -95.7195 0.
-149.849 -1028.7 0.
1.5197 -1189.3 0.
298.558 -488.379 0.
557.515 124.734 0.
938.032 617.176 0.
541.361 -311.699 0.
17.3644 -1537.1 0.
56.1934 -196.585 0.
643.339 1177.55 0.
477.032 222.641 0.
778.436 925.706 0.
408.922 62.1577 0.
-177.655 -567.496 0.
-47.944 -264.39 0.
-156.356 -518.087 0.
42.7698 -470.147 0.
382.995 328.839 0.
194.894 -105.485 0.
693.818 1335.42 0.
188.835 153.326 0.
-221.24 -613.487 0.
-399.692 -551.94 0.
-333.834 -394.954 0.
188.092 -137.574 0.
39.4303 -482.784 0.
-109.233 -827.994 0.
-68.6973 -922.366 0.
-17.3561 -802.27 0.
33.9842 -682.175 0.
68.9646 -564.927 0.
131.701 -420.009 0.
194.437 -275.091 0.
203.134 -371.993 0.
132.064 -539.024 0.
23.6511 -715.826 0.
20.0175 -729.428 0.
16.3843 -743.03 0.
45.9221 -733.632 0.
46.2981 -736.134 0.
46.6744 -738.637 0.
430.194 -558.611 0.
445.181 -525.951 0.
460.169 -493.291 0.
477.868 -438.933 0.
509.953 -364.168 0.
887.958 -141.352 0.
842.043 -385.698 0.
726.15 -656.844 0.
322.02 -930.316 0.
490.627 -535.872 0.
659.235 -141.427 0.
943.222 0.0989627 0.
757.165 -434.866 0.
571.107 -869.833 0.
266.764 -953.701 0.
394.822 -651.624 0.
522.88 -349.547 0.
540.373 -363.712 0.
513.41 -430.889 0.
711.943 -416.953 0.
605.017 -668.703 0.
498.091 -920.454 0.
429.488 -1078.44 0.
443.921 -1046.2 0.
458.353 -1013.96 0.
446.94 -932.444 0.
515.8 -767.264 0.
584.66 -602.085 0.
1442.51 -85.9752 0.
1524.26 104.366 0.
-2991.62 -1677.38 0.
1126.46 -218.805 0.
966.603 -592.93 0.
568.296 -976.585 0.
619.364 -858.5 0.
670.432 -740.415 0.
743.507 -579.121 0.
837.287 -361.614 0.
931.066 -144.106 0.
735.104 -415.626 0.
546.716 -858.087 0.
358.327 -1300.55 0.
621.851 -953.467 0.
777.449 -589.639 0.
414.511 -492.155 0.
383.766 -563.774 0.
353.021 -635.393 0.
682.189 -534.272 0.
674.508 -553.561 0.
666.827 -572.851 0.
705.166 -585.685 0.
682.095 -634.512 0.
659.025 -683.338 0.
532.982 -674.499 0.
573.366 -575.212 0.
517.817 -521.93 0.
142.973 -740.301 0.
113.619 -809.233 0.
14.9597 -868.429 0.
78.0891 -726.518 0.
141.219 -584.607 0.
262.778 -482.271 0.
252.155 -504.849 0.
241.533 -527.427 0.
442.26 -389.879 0.
485.117 -294.137 0.
527.974 -198.394 0.
-68.385 -548.827 0.
-127.057 -684.073 0.
-55.6271 -752.112 0.
-64.362 -772.594 0.
-73.0962 -793.077 0.
-144.747 -793.843 0.
-79.5376 -644.133 0.
-14.3281 -494.423 0.
135.215 -408.771 0.
105.683 -475.598 0.
76.1516 -542.425 0.
-203.372 -609.629 0.
-161.391 -512.021 0.
-146.156 -555.041 0.
-170.781 -425.389 0.
-104.885 -268.131 0.
268.813 -70.3643 0.
121.504 -416.598 0.
-25.8075 -762.831 0.
-91.156 -898.649 0.
-38.8528 -778.981 0.
13.4498 -659.313 0.
-46.0058 -582.112 0.
16.8296 -436.935 0.
79.6652 -291.758 0.
436.81 -239.047 0.
366.012 -406.4 0.
-173.45 -769.815 0.
-177.782 -782.848 0.
-182.113 -795.882 0.
75.304 -690.532 0.
75.0739 -692.754 0.
74.844 -694.975 0.
684.715 -418.326 0.
700.054 -385.933 0.
715.394 -353.539 0.
305.4 -481.944 0.
337.895 -407.128 0.
-136.667 -549.962 0.
839.749 -356.469 0.
724.418 -627.993 0.
415.611 -858.793 0.
584.688 -464.585 0.
753.766 -70.3773 0.
752.372 -51.1814 0.
566.245 -485.572 0.
380.118 -919.963 0.
161.956 -968.065 0.
290.288 -666.832 0.
418.62 -365.598 0.
480.797 -357.215 0.
453.383 -424.344 0.
841.187 -330.484 0.
734.338 -582.629 0.
627.489 -834.775 0.
402.443 -1059.54 0.
416.708 -1027.68 0.
430.973 -995.823 0.
460.675 -894.391 0.
530.064 -730.264 0.
599.452 -566.138 0.
1370.69 -85.3118 0.
1452.57 104.921 0.
-2801.42 -1563.45 0.
1090.48 -201.419 0.
930.805 -575.605 0.
615.213 -926.536 0.
666.137 -808.374 0.
717.062 -690.211 0.
515.655 -644.995 0.
609.231 -427.777 0.
702.806 -210.558 0.
1115.19 -220.734 0.
927.095 -663.598 0.
739 -1106.46 0.
342.907 -1041.58 0.
498.783 -678.337 0.
539.159 -406.755 0.
508.477 -478.737 0.
477.795 -550.719 0.
605.429 -535.635 0.
597.686 -555.49 0.
589.943 -575.346 0.
529.677 -630.015 0.
506.451 -679.416 0.
483.225 -728.815 0.
610.425 -610.6 0.
650.79 -511.641 0.
394.037 -544.018 0.
88.6588 -730.968 0.
59.2138 -799.362 0.
150.43 -782.199 0.
213.672 -639.599 0.
276.915 -496.998 0.
231.323 -464.246 0.
221.281 -486.694 0.
211.239 -509.142 0.
379.922 -386.253 0.
422.774 -290.363 0.
465.626 -194.472 0.
-16.9094 -494.177 0.
-74.646 -630.148 0.
-185.613 -774.854 0.
-193.874 -796.048 0.
-202.134 -817.242 0.
32.9467 -686.864 0.
98.0668 -537.326 0.
163.187 -387.788 0.
235.257 -333.545 0.
206.001 -400.909 0.
176.747 -468.274 0.
-265.519 -606.999 0.
-224.105 -508.778 0.
-566.64 -494.302 0.
113.318 -126.747 0.
147.911 -46.9279 0.
252.183 46.959 0.
241.05 26.5207 0.
229.917 6.08313 0.
308.095 -23.5387 0.
241.829 -174.58 0.
175.564 -325.621 0.
-86.6084 -454.167 0.
-67.9326 -408.699 0.
-49.2573 -363.23 0.
521.671 -163.971 0.
497.308 -224.757 0.
-78.4306 -514.087 0.
-93.9653 -551.619 0.
-109.5 -589.15 0.
166.92 -492.348 0.
180.589 -461.521 0.
194.257 -430.694 0.
775.417 -272.991 0.
676.192 -503.853 0.
576.967 -734.715 0.
37.5091 -974.894 0.
57.2639 -928.319 0.
303.145 -783.235 0.
804.15 -477.569 0.
849.727 -368.717 0.
650.995 -401.875 0.
590.514 -542.648 0.
530.033 -683.42 0.
281.334 -775.579 0.
385.498 -531.976 0.
489.661 -288.375 0.
358.117 -367.438 0.
286.451 -535.948 0.
214.784 -704.459 0.
353.582 -742.981 0.
303.995 -857.11 0.
662.656 -775.786 0.
734.623 -605.119 0.
806.59 -434.452 0.
589.865 -445.76 0.
575.498 -481.759 0.
561.132 -517.758 0.
623.814 -561.516 0.
572.761 -678.604 0.
521.708 -795.692 0.
1091.45 -588.913 0.
1086.52 -603.208 0.
912.187 -688.94 0.
935.607 -524.465 0.
1015.36 -336.144 0.
855.605 -282.816 0.
858.6 -274.406 0.
861.596 -265.996 0.
532.01 -465.624 0.
457.994 -637.833 0.
383.979 -810.041 0.
1019.23 -543.054 0.
1049.78 -470.014 0.
1080.32 -396.975 0.
418.944 -789.429 0.
353.874 -939.447 0.
379.146 -1012.6 0.
477.746 -782.629 0.
576.346 -552.659 0.
476.941 -465.242 0.
499.144 -412.534 0.
521.347 -359.826 0.
561.743 -272.487 0.
601.276 -184.548 0.
640.81 -96.609 0.
854.311 -120.401 0.
773.255 -312.3 0.
8.23579 -792.23 0.
142.184 -561.895 0.
234.786 -348.807 0.
394.931 -161.947 0.
356.106 -251.927 0.
317.281 -341.907 0.
290.084 -424.834 0.
261.217 -493.059 0.
232.35 -561.284 0.
183.191 -532.896 0.
230.883 -417.499 0.
278.576 -302.103 0.
78.4242 -460.508 0.
31.7404 -568.581 0.
-157.006 -711.811 0.
-116.264 -620.374 0.
-75.5235 -528.935 0.
189.944 -360.858 0.
207.932 -318.659 0.
225.921 -276.461 0.
153.482 -277.477 0.
165.042 -252.064 0.
176.602 -226.651 0.
-265.166 -579.922 0.
-372.643 -834.407 0.
212.998 -132.933 0.
292.646 -21.3045 0.
326.886 59.1514 0.
26.3536 -18.371 0.
15.6455 -39.0182 0.
4.93828 -59.6646 0.
413.04 54.5467 0.
347.156 -96.8255 0.
281.273 -248.197 0.
-177.101 -462.422 0.
-157.575 -417.93 0.
-138.05 -373.437 0.
466.88 -154.749 0.
442.841 -215.977 0.
104.365 -404.691 0.
89.1321 -442.261 0.
73.8988 -479.831 0.
194.179 -447.137 0.
208.04 -416.797 0.
221.901 -386.458 0.
626.969 -305.759 0.
527.755 -536.404 0.
428.542 -767.048 0.
94.5892 -917.685 0.
114.281 -870.798 0.
1154.18 -384.681 0.
881.651 -413.357 0.
927.48 -304.598 0.
674.698 -360.778 0.
614.464 -501.633 0.
554.23 -642.487 0.
112.453 -816.387 0.
216.597 -573.045 0.
320.741 -329.704 0.
345.017 -343.765 0.
272.918 -512.014 0.
200.82 -680.264 0.
542.948 -629.791 0.
493.901 -744.598 0.
583.921 -776.386 0.
656.269 -606.231 0.
728.616 -436.077 0.
458.329 -470.417 0.
443.981 -507.398 0.
429.634 -544.38 0.
697.571 -497.543 0.
646.033 -614.573 0.
594.496 -731.603 0.
1054 -574.129 0.
1048.64 -588.071 0.
-605.866 -1308.01 0.
936.373 -492.458 0.
1015.86 -304.188 0.
763.586 -292.477 0.
766.327 -284.193 0.
769.068 -275.91 0.
640.97 -385.888 0.
567.319 -558.597 0.
493.668 -731.306 0.
766.172 -619.474 0.
797.52 -546.706 0.
828.87 -473.939 0.
663.853 -653.096 0.
599.367 -804.162 0.
523.121 -917.71 0.
622.144 -688.461 0.
721.167 -459.211 0.
193.138 -554.337 0.
214.79 -501.552 0.
236.443 -448.767 0.
474.084 -279.97 0.
512.832 -191.935 0.
551.58 -103.899 0.
904.515 -69.0323 0.
822.791 -260.825 0.
646.328 -486.81 0.
182.825 -512.189 0.
275.38 -299.202 0.
238.407 -198.548 0.
199.559 -288.538 0.
160.713 -378.529 0.
455.527 -319.843 0.
426.956 -388.225 0.
398.385 -456.607 0.
-46.8772 -599.506 0.
1.57466 -484.548 0.
50.0275 -369.591 0.
247.13 -354.811 0.
200.259 -462.551 0.
10.5072 -609.185 0.
50.6849 -517.207 0.
90.8621 -425.228 0.
89.919 -374.643 0.
107.549 -332.046 0.
125.179 -289.448 0.
-164.655 -382.771 0.
-153.028 -357.429 0.
-141.401 -332.088 0.
-208.557 -525.089 0.
-315.772 -780.353 0.
-407.391 186.659 0.
125.092 -719.246 0.
743.696 719.255 0.
-122.465 95.5002 0.
-322.705 -369.246 0.
-106.115 138.931 0.
49.6778 -955.622 0.
616.76 370.824 0.
236.486 -513.164 0.
-224.98 -376.209 0.
-130.801 -155.484 0.
-279.276 -501.018 0.
459.081 -43.2265 0.
553.652 181.02 0.
398.564 -32.0266 0.
802.894 910.82 0.
516.645 242.519 0.
367.552 -72.6313 0.
389.992 -18.1655 0.
569.163 401.22 0.
918.291 691.749 0.
869.072 573.646 0.
607.496 -39.6215 0.
169.963 -801.971 0.
460.899 -121.135 0.
561.385 483.108 0.
1281.58 396.988 0.
1009.08 -238.25 0.
618.194 -503.504 0.
716.844 -276.143 0.
545.237 -678.605 0.
167.404 -338.464 0.
-23.0979 -783.498 0.
-100.88 -965.366 0.
848.344 874.48 0.
782.362 718.133 0.
285.718 -442.296 0.
1198.92 572.07 0.
996.731 99.013 0.
791.697 -97.5688 0.
711.713 -287.631 0.
734.787 -236.992 0.
241.367 -695.666 0.
277.348 -615.822 0.
171.092 -867.503 0.
928.797 -61.3353 0.
1286.79 771.07 0.
883.51 -172.802 0.
1455.09 471.871 0.
1398.86 334.759 0.
-505.096 -1162.48 0.
1174.44 107.07 0.
1045.49 -195.621 0.
468.036 -784.3 0.
609.951 -452.987 0.
743.728 -139.828 0.
939.523 142.61 0.
1121.98 565.69 0.
962.071 190.114 0.
595.023 -503.806 0.
897.432 199.196 0.
958.91 339.34 0.
1159.16 57.6028 0.
1189.59 125.628 0.
1076.65 137.03 0.
933.129 -201.855 0.
1033.73 30.3826 0.
158.049 -64.3489 0.
176.713 -16.6861 0.
-44.3379 -528.257 0.
234.477 -647.106 0.
818.393 715.137 0.
1381.1 2028.82 0.
793.516 -396.404 0.
953.678 -16.6708 0.
397.729 53.3825 0.
737.718 730.644 0.
394.714 -70.5596 0.
462.884 667.335 0.
356.082 412.166 0.
122.551 -138.233 0.
790.865 193.619 0.
1096.1 906.74 0.
818.133 259.017 0.
229.349 506.652 0.
227.441 502.543 0.
-138.866 -351.988 0.
647.241 291.783 0.
715.722 453.478 0.
471.377 190.24 0.
802.227 963.213 0.
786.494 927.423 0.
-23.0227 -424.279 0.
-28.2207 -435.013 0.
289.479 307.638 0.
43.0398 727.693 0.
-358.374 -205.811 0.
-300.962 -69.7642 0.
-66.3702 -275.515 0.
197.095 338.436 0.
-369.905 -615.725 0.
263.627 -433.386 0.
256.129 -451.908 0.
-365.504 -701.18 0.
-295.676 -536.876 0.
-225.847 -372.574 0.
203.178 -100.8 0.
215.397 -70.994 0.
227.616 -41.1884 0.
-30.8551 -282.141 0.
-146.353 -548.84 0.
-261.85 -815.538 0.
153.293 -627.732 0.
173.922 -575.19 0.
260.016 -497.072 0.
321.706 -352.305 0.
383.396 -207.538 0.
259.218 -190.194 0.
231.869 -248.556 0.
204.521 -306.918 0.
547.339 -170.732 0.
556.002 -150.315 0.
564.665 -129.898 0.
397.112 -288.63 0.
340.846 -419.72 0.
149.933 -608.59 0.
715.551 -438.599 0.
672.504 -539.048 0.
406.339 -704.597 0.
456.434 -589.729 0.
506.527 -474.86 0.
137.609 -573.553 0.
146.888 -554.343 0.
156.166 -535.132 0.
379.68 -569.518 0.
269.022 -828.397 0.
158.364 -1087.28 0.
651.723 -742.796 0.
747.199 -518.844 0.
523.544 -450.881 0.
509.689 -481.038 0.
495.834 -511.196 0.
349.846 -587.334 0.
355.948 -572.849 0.
362.05 -558.364 0.
720.817 -401.797 0.
722.433 -405.686 0.
724.05 -409.576 0.
951.207 -310.128 0.
952.126 -311.287 0.
-1321.15 -1289.13 0.
1166.22 -191.909 0.
1185.36 -151.795 0.
617.387 -370.539 0.
617.51 -370.266 0.
617.633 -369.993 0.
612.179 -374.468 0.
612.116 -372.184 0.
612.054 -369.9 0.
695.703 -345.135 0.
683.528 -371.605 0.
671.354 -398.075 0.
880.442 -279.215 0.
900.479 -233.295 0.
680.695 -301.841 0.
646.618 -384.265 0.
612.541 -466.689 0.
68.157 -695.199 0.
145.057 -517.765 0.
221.956 -340.33 0.
308.215 -295.019 0.
266.186 -397.361 0.
224.157 -499.704 0.
818.907 -200.125 0.
859.993 -104.574 0.
656.299 -114.672 0.
243.017 -445.841 0.
160.832 -637.219 0.
9.65241 -809.92 0.
46.3307 -726.971 0.
83.0094 -644.022 0.
450.081 -410.885 0.
493.709 -304.423 0.
537.336 -197.961 0.
-122.603 -462.472 0.
-133.616 -486.655 0.
-144.629 -510.837 0.
405.151 -182.914 0.
458.83 -56.3344 0.
255.4 -64.1981 0.
221.018 -144.806 0.
186.636 -225.414 0.
-54.2005 -386.669 0.
-83.8599 -457.605 0.
-113.519 -528.542 0.
-518.12 -790.731 0.
-572.086 -913.996 0.
-626.051 -1037.26 0.
-365.671 -907.815 0.
-344.692 -856.036 0.
902.178 -37.8253 0.
296.244 -388.17 0.
288.392 -406.159 0.
-227.008 -612.216 0.
-157.766 -447.474 0.
-88.5233 -282.733 0.
-38.797 -172.802 0.
-26.2169 -143.47 0.
-13.6376 -114.139 0.
172.95 -163.815 0.
57.9605 -431.543 0.
-57.029 -699.269 0.
98.9625 -618.354 0.
120.348 -566.888 0.
351.833 -424.062 0.
414.073 -279.84 0.
476.313 -135.617 0.
206.195 -179.573 0.
178.91 -237.908 0.
151.626 -296.242 0.
559.661 -135.752 0.
568.898 -115.968 0.
578.136 -96.1837 0.
422.141 -245.595 0.
367.399 -377.279 0.
-390.189 -809.826 0.
474.423 -509.206 0.
432.089 -609.908 0.
271.249 -730.647 0.
321.662 -615.834 0.
372.074 -501.02 0.
238.057 -499.299 0.
247.229 -480.158 0.
256.402 -461.018 0.
580.428 -453.706 0.
469.594 -712.644 0.
358.761 -971.581 0.
687.962 -693.783 0.
783.387 -470.38 0.
392.371 -475.881 0.
377.947 -506.227 0.
363.522 -536.574 0.
443.115 -516.15 0.
448.977 -502.17 0.
454.839 -488.191 0.
661.521 -396.591 0.
662.349 -400.055 0.
663.178 -403.519 0.
762.037 -359.452 0.
762.624 -360.853 0.
-107.665 -738.081 0.
1329.54 -91.6462 0.
1348.44 -51.7377 0.
601.256 -343.082 0.
602.019 -343.765 0.
602.782 -344.449 0.
497.58 -392.714 0.
497.895 -390.815 0.
498.21 -388.917 0.
748.589 -290.165 0.
736.625 -316.746 0.
724.661 -343.328 0.
731.486 -311.196 0.
751.699 -265.875 0.
442.72 -370.913 0.
408.802 -454.239 0.
374.883 -537.565 0.
308.62 -559.827 0.
385.577 -382.976 0.
462.533 -206.126 0.
233.821 -295.541 0.
191.993 -397.926 0.
150.166 -500.311 0.
759.571 -195.335 0.
800.689 -99.9714 0.
529.667 -136.846 0.
274.823 -399.734 0.
192.488 -591.197 0.
244.994 -676.194 0.
282.48 -593.937 0.
319.966 -511.679 0.
364.07 -414.771 0.
407.763 -308.366 0.
451.456 -201.961 0.
-27.2859 -389.917 0.
-38.1711 -414.015 0.
-49.0558 -438.113 0.
375.607 -164.024 0.
429.916 -37.7736 0.
137.193 -82.6433 0.
103.435 -163.721 0.
69.677 -244.799 0.
-93.2521 -371.029 0.
-122.686 -441.638 0.
-152.121 -512.247 0.
-391.352 -704.627 0.
-445.3 -827.852 0.
-499.249 -951.077 0.
-385.159 -886.385 0.
-365.065 -834.418 0.
-333.929 -353.781 0.
325.912 -48.0966 0.
290.889 -132.923 0.
-8.68394 -323.043 0.
-17.8042 -347.118 0.
-26.9247 -371.193 0.
-252.023 -488.084 0.
-269.652 -525.793 0.
-287.281 -563.502 0.
146.19 -330.609 0.
195.999 -216.596 0.
245.808 -102.584 0.
370.852 -87.3374 0.
335.314 -169.233 0.
353.571 -221.898 0.
354.503 -219.462 0.
355.435 -217.025 0.
196.696 -305.488 0.
167.349 -377.48 0.
138.002 -449.472 0.
370.119 -425.806 0.
326.33 -527.963 0.
282.54 -630.119 0.
309.213 -543.006 0.
369.98 -397.215 0.
1070.04 22.8627 0.
514.101 -123.982 0.
559.379 -11.6831 0.
506.497 30.8598 0.
462.772 -70.3731 0.
419.046 -171.606 0.
355.025 -314.764 0.
278.489 -489.352 0.
201.954 -663.941 0.
662.019 -404.599 0.
749.168 -198.294 0.
836.316 8.00994 0.
908.54 -109.044 0.
810.429 -340.427 0.
265.247 -745.465 0.
258.711 -768.171 0.
252.175 -790.878 0.
418.336 -706.247 0.
455.572 -619.013 0.
492.808 -531.779 0.
579.09 -405.518 0.
635.064 -272.92 0.
691.038 -140.322 0.
663.821 -145.357 0.
652.903 -168.695 0.
915.519 -76.184 0.
1360.06 90.1842 0.
1346.78 58.8207 0.
656.041 -307.452 0.
541.401 -574.855 0.
426.762 -842.258 0.
178.627 -1036.88 0.
217.03 -949.526 0.
255.433 -862.168 0.
610.779 -534.409 0.
733.604 -248.939 0.
856.429 36.5317 0.
788.551 -34.8732 0.
744.063 -133.618 0.
323.469 -386.98 0.
292.144 -454.794 0.
260.819 -522.609 0.
400.187 -500.641 0.
407.299 -481.129 0.
414.41 -461.616 0.
111.15 -600.739 0.
92.1924 -641.19 0.
73.2344 -681.64 0.
622.292 -414.568 0.
649.611 -349.289 0.
978.515 -152.664 0.
342.331 -353.489 0.
380.525 -264.008 0.
506.967 -226.697 0.
333.267 -627.352 0.
159.567 -1028 0.
-19.7355 -1106.68 0.
184.153 -631.907 0.
388.042 -157.132 0.
80.5482 -266.003 0.
4.54191 -443.315 0.
-71.4644 -620.627 0.
157.751 -531.735 0.
159.722 -527.486 0.
-113.539 -623.315 0.
-35.5868 -441.392 0.
42.3649 -259.468 0.
-55.4452 -191.676 0.
-36.4346 -148.107 0.
-17.4239 -104.538 0.
-32.1066 -99.4924 0.
-35.1955 -106.827 0.
-38.285 -114.161 0.
-160.863 -377.778 0.
-300.711 -706.715 0.
932.469 222.076 0.
60.8051 -130.685 0.
25.7153 -215.377 0.
109.691 -242.49 0.
100.625 -266.654 0.
91.5588 -290.817 0.
-175.449 -422.641 0.
-193.216 -460.42 0.
-210.984 -498.198 0.
83.2821 -328.416 0.
132.362 -213.54 0.
181.443 -98.6639 0.
563.08 27.0135 0.
527.581 -54.496 0.
89.2938 -306.409 0.
90.0277 -303.842 0.
90.7618 -301.275 0.
394.616 -187.508 0.
365.592 -259.674 0.
336.568 -331.84 0.
229.199 -455.29 0.
185.69 -557.592 0.
142.182 -659.894 0.
347.798 -496.208 0.
407.892 -349.332 0.
763.799 -74.6958 0.
486.506 -104.45 0.
532.036 7.66101 0.
445.538 34.296 0.
401.782 -66.8842 0.
358.026 -168.065 0.
369.856 -275.949 0.
293.523 -451.167 0.
217.19 -626.384 0.
642.242 -381.106 0.
729.662 -175.17 0.
817.082 30.7658 0.
826.101 -111.388 0.
727.971 -343.18 0.
427.225 -643.302 0.
420.297 -666.226 0.
413.37 -689.15 0.
502.657 -638.316 0.
539.461 -550.872 0.
576.264 -463.429 0.
472.133 -420.961 0.
528.278 -288.528 0.
584.422 -156.096 0.
384.106 -233.59 0.
373.35 -257.345 0.
682.197 -144.11 0.
1120.71 19.138 0.
1107.68 -12.2851 0.
799.668 -211.139 0.
685.698 -479.243 0.
571.728 -747.347 0.
227.848 -984.717 0.
265.896 -897.444 0.
303.944 -810.171 0.
515.447 -542.433 0.
637.924 -256.469 0.
760.401 29.4946 0.
833.309 13.95 0.
788.839 -84.6991 0.
301.161 -365.27 0.
269.819 -433.383 0.
238.477 -501.495 0.
356.039 -487.023 0.
363.108 -467.893 0.
370.176 -448.763 0.
227.04 -519.774 0.
208.953 -560.741 0.
190.866 -601.708 0.
610.863 -387.727 0.
638.341 -322.509 0.
1102.78 -69.7558 0.
456.214 -273.814 0.
493.92 -183.12 0.
463.051 -214.726 0.
290.092 -615.605 0.
117.134 -1016.48 0.
-115.766 -1117.47 0.
88.7351 -643.104 0.
293.237 -168.738 0.
156.489 -200.123 0.
80.3531 -377.355 0.
4.21719 -554.586 0.
73.639 -536.108 0.
75.7659 -532.038 0.
-14.4368 -550.652 0.
63.3416 -368.132 0.
141.12 -185.612 0.
-81.1338 -171.742 0.
-62.3555 -127.62 0.
-43.577 -83.4976 0.
111.553 -6.28203 0.
108.174 -13.2928 0.
104.794 -20.3034 0.
-93.3662 -319.806 0.
-232.997 -649.4 0.
-177.42 765.822 0.
-327.788 -521.052 0.
-237.475 -310.397 0.
61.4029 -555.296 0.
262.597 -80.6311 0.
488.117 448.205 0.
-40.7196 -238.392 0.
148.182 204.263 0.
260.126 466.672 0.
527.484 860.347 0.
241.302 189.486 0.
-212.971 -872.845 0.
621.714 -168.69 0.
715.243 50.8232 0.
-342.585 -799.127 0.
20.0733 51.2602 0.
92.4714 224.962 0.
819.125 454.943 0.
848.759 521.84 0.
632.964 16.7145 0.
57.5816 -566.263 0.
377.453 179.132 0.
298.582 -6.77919 0.
848.216 630.636 0.
1110.23 1243.95 0.
17.386 -470.91 0.
646.43 350.137 0.
632.672 315.438 0.
48.2511 -762.156 0.
578.387 482.334 0.
497.617 301.491 0.
175.955 -717.823 0.
683.774 467.326 0.
190.166 -684.414 0.
487.483 -682.654 0.
447.345 -776.619 0.
299.392 -1122 0.
682.446 -246.3 0.
859.042 161.888 0.
686.282 -320.578 0.
712.375 -257.9 0.
811.347 -25.1099 0.
898.123 156.818 0.
763.723 -155.661 0.
576.345 -591.768 0.
694.219 334.501 0.
414.382 -320.143 0.
241.5 -725.049 0.
-308.44 -1293.5 0.
122.354 -288.951 0.
609.679 -154.551 0.
798.306 -223.883 0.
834.052 -140.66 0.
940.429 -133.62 0.
469.508 -1229.8 0.
795.82 -465.788 0.
899.92 516.451 0.
840.021 376.902 0.
609.373 -161.116 0.
585.365 -166.9 0.
615.367 -96.9951 0.
546.895 -256.652 0.
966.662 271.505 0.
920.094 163.664 0.
202.894 -520.286 0.
403.474 -51.7137 0.
736.903 727.376 0.
919.149 938.17 0.
350.242 -393.373 0.
491.179 -68.2953 0.
907.532 874.972 0.
814.779 658.133 0.
612.598 186.198 0.
449.783 -710.505 0.
961.25 486.664 0.
583.19 10.808 0.
704.656 118.127 0.
651.614 -7.94739 0.
263.264 -568.759 0.
178.448 -765.895 0.
154.005 -821.69 0.
469.96 460.619 0.
71.9965 -465.312 0.
265.926 -10.9043 0.
311.88 52.5794 0.
247.658 -97.583 0.
334.195 103.647 0.
213.482 -24.6783 0.
37.3519 -433.777 0.
-91.3183 -875.987 0.
292.977 23.0169 0.
524.109 562.293 0.
62.8452 235.185 0.
113.875 357.179 0.
-582.448 -1264.84 0.
210.208 -10.3038 0.
266.304 120.73 0.
407.841 448.94 0.
-40.2544 -294.768 0.
-114.167 -469.781 0.
40.8827 11.3073 0.
-174.259 -220.647 0.
-219.87 -325.439 0.
84.6278 -247.544 0.
108.316 -190.818 0.
132.004 -134.091 0.
73.8668 -152.29 0.
54.5683 -200.598 0.
35.2687 -248.906 0.
16.5042 -287.562 0.
1.41061 -325.615 0.
-13.6828 -363.666 0.
392.657 -165.722 0.
411.928 -120.711 0.
124.55 -210.226 0.
95.8549 -275.634 0.
67.1583 -341.043 0.
453.836 -208.088 0.
464.263 -183.841 0.
474.689 -159.593 0.
295.604 -237.55 0.
283.351 -263.967 0.
271.097 -290.383 0.
301.92 -305.77 0.
289.043 -341.7 0.
101.169 -453.047 0.
331.832 -347.82 0.
337.884 -338.88 0.
119.921 -424.572 0.
123.429 -416.644 0.
126.937 -408.718 0.
553.743 -128.888 0.
676.067 153.357 0.
798.39 435.603 0.
751.745 309.107 0.
603.232 -40.2575 0.
454.718 -389.623 0.
757.819 -239.96 0.
793.02 -157.965 0.
544.471 -219.313 0.
483.106 -359.741 0.
421.742 -500.17 0.
579.593 -468.651 0.
650.016 -304.951 0.
720.439 -141.252 0.
466.969 -152.338 0.
497.832 -81.4712 0.
528.694 -10.604 0.
472.138 -44.6651 0.
454.937 -83.2021 0.
718.63 -2.01095 0.
708.266 -88.4952 0.
663.419 -190.217 0.
729.316 -217.589 0.
739.1 -188.294 0.
748.883 -159 0.
675.126 -177.602 0.
674.421 -182.334 0.
673.715 -187.067 0.
496.513 -227.873 0.
526.182 -157.976 0.
555.85 -88.0795 0.
687.931 -45.1915 0.
674.454 -77.3477 0.
398.558 -224.629 0.
375.036 -278.891 0.
351.513 -333.152 0.
438.207 -295.411 0.
477.539 -207.534 0.
516.87 -119.657 0.
424.432 -168.792 0.
387.629 -251.627 0.
350.826 -334.462 0.
727.804 -133.104 0.
762.207 -53.5559 0.
179.27 -237.841 0.
409.744 -170.012 0.
397.227 -205.239 0.
419.084 -198.243 0.
452.501 -121.583 0.
485.918 -44.924 0.
157.864 -242.093 0.
60.0722 -471.776 0.
-37.7189 -701.46 0.
119.067 -660.095 0.
150.099 -586.773 0.
181.132 -513.451 0.
35.0599 -426.383 0.
116.693 -233.297 0.
67.9425 -119.837 0.
41.9229 -183.492 0.
15.9031 -247.147 0.
-11.1966 -285.996 0.
3.69209 -251.149 0.
18.5816 -216.301 0.
145.924 -140.351 0.
151.388 -132.228 0.
156.851 -124.105 0.
48.2699 -138.339 0.
74.6731 -81.5406 0.
-182.212 -48.0401 0.
-129.648 -170.37 0.
-175.117 -274.771 0.
-35.6314 -268.165 0.
-11.0307 -211.677 0.
13.5692 -155.189 0.
188.998 -70.1556 0.
170.614 -118.83 0.
152.23 -167.505 0.
10.3213 -260.228 0.
-5.25802 -298.407 0.
-20.8372 -336.585 0.
128.513 -246.365 0.
147.665 -202.186 0.
408.521 -56.5079 0.
380.15 -122.431 0.
351.777 -188.355 0.
372.447 -211.699 0.
382.698 -187.239 0.
392.95 -162.778 0.
428.235 -149.999 0.
415.921 -175.912 0.
403.607 -201.825 0.
142.167 -344.069 0.
128.993 -379.608 0.
618.233 -201.061 0.
332.481 -316.619 0.
338.542 -307.574 0.
49.5955 -422.965 0.
53.1897 -415.375 0.
56.7841 -407.787 0.
723.995 -23.6226 0.
846.381 258.154 0.
968.768 539.933 0.
578.13 266.244 0.
430.519 -84.0511 0.
282.908 -434.348 0.
865.202 -161.688 0.
901.518 -80.6594 0.
327.551 -279.202 0.
267.069 -420.422 0.
206.588 -561.643 0.
537.451 -452.825 0.
608.225 -289.456 0.
678.999 -126.086 0.
460.442 -124.085 0.
491.639 -53.173 0.
522.836 17.7394 0.
802.096 128.914 0.
785.137 90.184 0.
-1232.81 -807.636 0.
534.429 -131.284 0.
489.5 -232.762 0.
527.85 -271.743 0.
537.724 -242.499 0.
547.598 -213.255 0.
784.413 -99.7272 0.
783.395 -104.161 0.
782.377 -108.594 0.
438.542 -220.01 0.
467.628 -149.714 0.
496.714 -79.4176 0.
528.768 -82.5007 0.
514.323 -113.324 0.
502.688 -149.999 0.
478.233 -203.484 0.
453.777 -256.968 0.
514.889 -232.598 0.
553.564 -144.447 0.
592.24 -56.2961 0.
394.038 -152.002 0.
357.009 -234.494 0.
319.98 -316.985 0.
781.135 -78.5236 0.
815.886 1.13343 0.
601.547 -27.1784 0.
218.362 -220.739 0.
206.163 -255.883 0.
431.26 -162.774 0.
465.511 -86.6357 0.
499.763 -10.4974 0.
161.548 -207.627 0.
64.6229 -437.846 0.
-32.3021 -668.066 0.
272.817 -562.553 0.
304.178 -489.616 0.
335.539 -416.68 0.
43.9568 -390.399 0.
125.758 -197.672 0.
-117.248 -168.122 0.
-144.004 -231.186 0.
-170.76 -294.25 0.
190.086 -169.635 0.
205.001 -134.484 0.
219.917 -99.3315 0.
151.932 -105.42 0.
157.081 -97.3498 0.
162.231 -89.2795 0.
93.6645 -89.586 0.
119.568 -32.8976 0.
-432.5 -257.492 0.
73.3246 -31.4454 0.
73.8638 -29.2498 0.
-22.4372 -84.5119 0.
-50.2785 -143.59 0.
-78.12 -202.668 0.
160.574 -107.939 0.
184.426 -47.9577 0.
208.279 12.0242 0.
32.6144 -74.5788 0.
6.19781 -135.057 0.
-20.2192 -195.535 0.
141.529 -153.777 0.
130.879 -176.205 0.
479.963 -52.2504 0.
414.155 -204.54 0.
348.348 -356.83 0.
219.01 -492.776 0.
230.009 -465.841 0.
241.008 -438.906 0.
321.434 -250.344 0.
461.427 74.0939 0.
601.42 398.532 0.
337.602 214.544 0.
245.286 0.928062 0.
1486.12 357.607 0.
490.521 -27.903 0.
513.208 26.9227 0.
158.924 -95.0022 0.
146.415 -124.247 0.
133.906 -153.493 0.
773.201 45.0723 0.
696.599 -137.437 0.
619.997 -319.948 0.
257.894 -354.491 0.
392.523 -40.567 0.
527.152 273.357 0.
1119.96 434.017 0.
1049.76 270.248 0.
232.028 -195.716 0.
265.544 -114.519 0.
299.06 -33.3217 0.
689.059 154.748 0.
642.915 52.8304 0.
596.771 -49.0875 0.
370.488 -246.365 0.
310.028 -384.255 0.
249.569 -522.144 0.
837.641 -165.373 0.
926.587 41.7724 0.
-1785.29 -950.52 0.
479.752 -16.4655 0.
461.896 -60.1928 0.
526.512 -91.1213 0.
451.218 -267.296 0.
375.923 -443.472 0.
611.378 -362.335 0.
683.205 -191.219 0.
755.031 -20.1031 0.
483.951 -125.992 0.
454.363 -195.439 0.
424.776 -264.886 0.
280.729 -386.863 0.
249.641 -461.222 0.
454.711 -417.822 0.
499.351 -315.811 0.
543.99 -213.8 0.
505.129 -175.655 0.
509.935 -164.592 0.
514.74 -153.528 0.
404.931 -101.122 0.
497.237 113.347 0.
589.544 327.817 0.
866.791 313.868 0.
752.759 53.7383 0.
107.813 -434.865 0.
159.08 -484.348 0.
119.948 -572.488 0.
321.336 -518.291 0.
374.462 -390.734 0.
427.589 -263.179 0.
91.8766 -374.058 0.
60.0602 -447.315 0.
28.244 -520.571 0.
399.049 -355.408 0.
417.567 -311.331 0.
436.085 -267.254 0.
70.2916 -180.77 0.
211.123 147.37 0.
36.4036 296.844 0.
-1.42429 209.512 0.
-39.2516 122.18 0.
500.333 256.968 0.
424.081 78.7526 0.
347.829 -99.4617 0.
19.0946 -305.582 0.
17.6101 -307.434 0.
16.1254 -309.287 0.
42.1945 -88.6846 0.
181.128 237.441 0.
-257.389 -151.763 0.
426.028 151.049 0.
427.128 153.377 0.
-36.2844 -59.7668 0.
-63.2922 -118.265 0.
-90.3003 -176.763 0.
46.0446 -125.38 0.
70.6562 -65.4765 0.
95.2677 -5.57265 0.
-71.7067 -89.2736 0.
-97.9106 -150.161 0.
-124.115 -211.048 0.
364.61 -23.1543 0.
354.766 -46.8289 0.
400.473 -55.7898 0.
334.699 -208.29 0.
268.926 -360.79 0.
250.845 -445.237 0.
262.608 -419.24 0.
274.37 -393.242 0.
79.36 -322.895 0.
218.985 1.90404 0.
358.61 326.704 0.
409.13 273.184 0.
316.777 59.3457 0.
350.52 -99.5609 0.
599.971 53.4454 0.
622.5 108.166 0.
189.508 -51.7218 0.
176.346 -80.6338 0.
163.185 -109.546 0.
686.359 39.6192 0.
609.581 -142.918 0.
532.803 -325.455 0.
340.878 -288.196 0.
475.677 25.3697 0.
610.477 338.935 0.
1030.11 426.524 0.
960.455 262.468 0.
160.091 -194.288 0.
193.584 -113.09 0.
227.076 -31.8923 0.
478.574 96.4034 0.
432.369 -5.49849 0.
386.164 -107.4 0.
315.876 -240.596 0.
255.538 -378.518 0.
195.2 -516.439 0.
939.159 -87.4094 0.
1028.65 119.468 0.
93.8084 -113.047 0.
428.279 -6.74175 0.
410.223 -49.8728 0.
592.169 -31.6807 0.
517.42 -208.36 0.
442.671 -385.039 0.
380.373 -427.265 0.
453.362 -257.092 0.
526.351 -86.9197 0.
595.25 -46.7266 0.
566.32 -116.142 0.
537.389 -185.557 0.
188.009 -394.07 0.
157.463 -468.766 0.
558.693 -341.227 0.
603.75 -239.501 0.
648.808 -137.776 0.
381.609 -194.334 0.
387.377 -184.201 0.
393.145 -174.067 0.
442.951 -53.0251 0.
535.513 160.857 0.
628.074 374.739 0.
645.391 251.383 0.
532.091 -9.20489 0.
523.215 -225.21 0.
515.676 -299.407 0.
476.515 -387.261 0.
428.096 -441.158 0.
481.326 -313.598 0.
534.558 -186.039 0.
108.79 -336.744 0.
77.2941 -410.086 0.
45.7983 -483.429 0.
372.977 -334.204 0.
391.939 -290.458 0.
410.901 -246.713 0.
-59.9548 -205.423 0.
80.7231 122.737 0.
134.222 371.715 0.
96.9306 283.712 0.
59.6397 195.708 0.
648.58 350.648 0.
572.228 172.777 0.
495.876 -5.09319 0.
-66.2012 -310.398 0.
-67.4487 -312.37 0.
-68.6963 -314.342 0.
-105.763 -119.467 0.
32.9285 206.718 0.
-1374.26 -349.618 0.
686.418 137.931 0.
768.566 328.36 0.
334.599 852.935 0.
-101.122 -158.056 0.
171.036 482.609 0.
89.8172 202.961 0.
-290.549 -681.899 0.
6.00502 12.2417 0.
-445.729 -730.151 0.
-521.061 -903.996 0.
-399.319 -617.899 0.
806.079 606.735 0.
673.965 305.343 0.
-134.522 -1121.24 0.
320.47 -58.1997 0.
432.93 205.961 0.
723.999 618.882 0.
394.007 -146.857 0.
393.317 -145.746 0.
-51.2623 -155.225 0.
-241.7 -599.562 0.
-531.634 -1276.5 0.
219.351 -271.892 0.
167.936 -393.527 0.
105.331 -189.167 0.
266.095 -902.154 0.
609.324 -94.566 0.
52.5646 -399.795 0.
367.867 341.332 0.
287.601 159.879 0.
739.433 361.421 0.
1070.75 1137.64 0.
878.44 691.796 0.
585.047 136.994 0.
214.426 -728.556 0.
442.876 -196.179 0.
446.9 -723.122 0.
630.062 -300.407 0.
382.648 495.894 0.
369.248 463.395 0.
-6.64711 -414.901 0.
2.16556 -566.573 0.
405.456 372.735 0.
318.341 167.966 0.
581.691 502.002 0.
545.145 423.618 0.
357.531 -6.959 0.
1016.29 -62.2655 0.
1163.84 277.441 0.
-1155.35 360.927 0.
298.429 -178.657 0.
64.6731 -725.49 0.
737.467 214.738 0.
875.913 539.017 0.
867.437 520.016 0.
399.232 70.9867 0.
644.601 648.796 0.
323.035 -95.9086 0.
344.501 -814.37 0.
355.136 -785.736 0.
851.156 375.743 0.
130.232 -331.021 0.
41.5476 -535.857 0.
813.172 87.8704 0.
800.074 55.5361 0.
727.736 -114.637 0.
283.11 -151.324 0.
214.22 -315.785 0.
395.22 102.368 0.
309.806 -408.673 0.
-183.346 -1567.22 0.
353.853 -320.754 0.
571.685 543.143 0.
614.609 645.029 0.
669.257 152.397 0.
923.262 -7.38511 0.
389.347 -1242.51 0.
713.534 47.4377 0.
1410.28 1680.11 0.
530.431 -365.389 0.
240.26 -37.1638 0.
797.23 1264.27 0.
535.442 655.992 0.
259.976 -513.137 0.
133.184 -810.043 0.
485.738 11.5666 0.
-301.483 -491.806 0.
-136.961 -110.834 0.
79.9477 91.3385 0.
93.4883 124.823 0.
-142.586 -424.879 0.
311.812 -690.595 0.
913.17 712.968 0.
536.839 -164.779 0.
-226.919 -485.417 0.
-98.2243 -187.948 0.
29.1939 108.147 0.
-97.076 206.752 0.
-543.519 -837.749 0.
-394.107 259.557 0.
279.335 356.978 0.
161.278 79.2492 0.
-108.291 -217.568 0.
-142.734 -298.75 0.
-177.177 -379.932 0.
-159.039 -379.755 0.
-120.059 -290.407 0.
-81.0795 -201.058 0.
3.76512 -91.5111 0.
38.6048 -5.85968 0.
73.4448 79.7904 0.
397.081 139.056 0.
335.877 6.6906 0.
122.404 -177.166 0.
149.653 -111.073 0.
176.903 -44.9807 0.
520.014 96.8937 0.
444.767 -72.5648 0.
369.521 -242.023 0.
-28.6396 -346.094 0.
97.9902 -54.7302 0.
224.62 236.634 0.
536.973 290.864 0.
445.481 75.2958 0.
263.793 -178.046 0.
257.122 -320.521 0.
183.739 -489.936 0.
249.785 -526.661 0.
346.258 -298.218 0.
442.731 -69.7764 0.
354.5 -23.9246 0.
326.065 -83.1587 0.
297.63 -142.393 0.
566.333 -172.282 0.
466.318 -406.984 0.
366.302 -641.687 0.
659.73 -191.615 0.
861.227 278.277 0.
298.893 366.849 0.
231.101 206.627 0.
163.309 46.4042 0.
353.747 47.8759 0.
377.548 96.9469 0.
401.35 146.018 0.
208.621 -77.0478 0.
56.1351 -435.676 0.
-96.3519 -794.305 0.
884.811 -93.4543 0.
1121.23 456.051 0.
-1066.85 -32.7345 0.
602.861 438.914 0.
474.12 140.75 0.
409.87 -81.6158 0.
384.64 -138.736 0.
359.411 -195.855 0.
183.856 -264.442 0.
227.013 -160.066 0.
270.171 -55.6903 0.
747.172 166.086 0.
733.867 139.546 0.
720.561 113.006 0.
441.043 142.331 0.
530.42 352.794 0.
539.926 480.924 0.
432.364 229.071 0.
324.801 -22.7828 0.
630.403 -34.1103 0.
622.758 -53.937 0.
615.114 -73.7648 0.
535.991 -134.101 0.
522.824 -168.219 0.
509.657 -202.338 0.
505.462 -80.9132 0.
591.328 119.684 0.
164.463 102.427 0.
771.922 183.556 0.
680.426 -31.9476 0.
535.512 -188.256 0.
622.129 14.0448 0.
708.746 216.346 0.
307.533 64.9937 0.
235.322 -99.7664 0.
163.111 -264.526 0.
310.532 -176.773 0.
363.87 -50.8879 0.
417.209 74.998 0.
-70.4961 -83.2856 0.
-47.1241 -29.8781 0.
197.3 105.501 0.
185.718 81.7106 0.
174.136 57.9207 0.
700.356 263.023 0.
688.486 232.319 0.
676.615 201.616 0.
-271.359 -165.46 0.
-226.481 -60.057 0.
-181.602 45.346 0.
127.77 -21.1069 0.
-14.4913 -352.58 0.
-219.366 363.91 0.
-315.151 133.377 0.
-432.458 -144.618 0.
-71.6579 -171.138 0.
-105.198 -251.955 0.
-138.738 -332.773 0.
-131.104 -334.813 0.
-90.4104 -245.732 0.
-49.7181 -156.65 0.
229.674 36.7278 0.
264.493 122.733 0.
299.311 208.736 0.
161.887 67.6752 0.
100.335 -64.2808 0.
-46.0425 -217.464 0.
-18.4206 -151.595 0.
9.20205 -85.7264 0.
558.375 143.036 0.
482.894 -26.2199 0.
407.414 -195.474 0.
114.077 -250.483 0.
242.033 40.5489 0.
369.99 331.582 0.
650.953 370.219 0.
559.949 154.604 0.
-1902.83 -1076.49 0.
-44.3089 -417.417 0.
-118.268 -586.694 0.
580.321 -356.428 0.
675.381 -126.89 0.
770.441 102.647 0.
90.1991 -108.237 0.
61.5322 -167.324 0.
32.8654 -226.412 0.
725.252 -71.3451 0.
625.728 -306.943 0.
526.205 -542.542 0.
654.016 -159.26 0.
856.79 309.428 0.
277.404 387.809 0.
209.399 227.682 0.
141.393 67.5542 0.
484.266 134.553 0.
507.861 183.643 0.
531.456 232.733 0.
76.3821 -102.346 0.
-76.3431 -460.226 0.
-229.069 -818.107 0.
763.015 -112.716 0.
1000.22 436.039 0.
-2001.63 -402.007 0.
670.759 500.694 0.
541.901 202.941 0.
176.807 -150.26 0.
151.797 -207.512 0.
126.788 -264.764 0.
124.033 -257.943 0.
167.951 -153.742 0.
211.871 -49.5413 0.
741.351 195.321 0.
727.197 169.845 0.
713.041 144.369 0.
592.633 236.354 0.
681.796 447.396 0.
17.3627 289.887 0.
-90.1928 38.1102 0.
-197.749 -213.667 0.
1008.78 160.952 0.
1001.79 140.718 0.
994.799 120.483 0.
693.806 -33.3316 0.
680.281 -67.0632 0.
666.755 -100.795 0.
764.415 60.726 0.
849.359 262.028 0.
601.851 321.168 0.
505.71 100.181 0.
413.616 -114.906 0.
463.955 -188.344 0.
550.938 13.5746 0.
637.921 215.494 0.
351.649 115.251 0.
279.727 -49.1789 0.
207.806 -213.608 0.
211.675 -187.956 0.
264.732 -61.4351 0.
317.789 65.0863 0.
16.0157 -15.5401 0.
39.0857 37.7192 0.
345.227 200.034 0.
333.818 176.367 0.
322.408 152.7 0.
693.36 290.764 0.
682.007 259.754 0.
670.654 228.744 0.
-481.108 -222.339 0.
-436.13 -116.699 0.
-391.151 -11.0579 0.
542.199 185.616 0.
399.145 -144.612 0.
