# vtk DataFile Version 2.0
test grain
ASCII
DATASET UNSTRUCTURED_GRID
POINTS 5000 float
0.49992 0.00100061 0.
0.501921 0.00100062 0.
0.503923 0.00100063 0.
0.505924 0.00100062 0.
0.507925 0.00100056 0.
0.509926 0.0010005 0.
0.511927 0.00100038 0.
0.513928 0.00100018 0.
0.515929 0.000999987 0.
0.51793 0.00100005 0.
0.519932 0.00100025 0.
0.521933 0.00100046 0.
0.523935 0.00100042 0.
0.525937 0.00100035 0.
0.527938 0.0010003 0.
0.529939 0.00100041 0.
0.53194 0.00100053 0.
0.533941 0.00100054 0.
0.535943 0.00100032 0.
0.537944 0.0010001 0.
0.539946 0.000999998 0.
0.541948 0.001 0.
0.54395 0.00100001 0.
0.545951 0.00100004 0.
0.547953 0.00100009 0.
0.549955 0.00100014 0.
0.551956 0.00100018 0.
0.553958 0.00100022 0.
0.555959 0.00100023 0.
0.557961 0.00100013 0.
0.559962 0.00100003 0.
0.561964 0.00100003 0.
0.563965 0.00100015 0.
0.565966 0.00100028 0.
0.567968 0.00100025 0.
0.56997 0.00100013 0.
0.571971 0.00100002 0.
0.573973 0.001 0.
0.575975 0.00100001 0.
0.577977 0.00100002 0.
0.579978 0.00100018 0.
0.581979 0.00100034 0.
0.58398 0.00100054 0.
0.585981 0.00100079 0.
0.587981 0.00100105 0.
0.589981 0.00100092 0.
0.591981 0.00100046 0.
0.593981 0.00100001 0.
0.595987 0.00100013 0.
0.597994 0.00100041 0.
0.6 0.00100069 0.
0.602007 0.00100043 0.
0.604013 0.00100018 0.
0.606018 0.00100001 0.
0.608019 0.00100015 0.
0.610021 0.00100029 0.
0.612021 0.00100037 0.
0.614022 0.00100037 0.
0.616023 0.00100037 0.
0.618024 0.00100048 0.
0.620026 0.00100066 0.
0.622027 0.00100083 0.
0.624028 0.00100063 0.
0.626029 0.00100039 0.
0.628029 0.00100017 0.
0.630031 0.0010001 0.
0.632033 0.00100003 0.
0.634035 0.000999996 0.
0.636037 0.00100003 0.
0.638038 0.00100007 0.
0.64004 0.00100008 0.
0.642043 0.00100006 0.
0.644045 0.00100004 0.
0.646046 0.00100024 0.
0.648047 0.00100049 0.
0.650047 0.00100073 0.
0.652049 0.00100046 0.
0.65405 0.0010002 0.
0.656051 0.000999998 0.
0.658053 0.000999999 0.
0.660055 0.001 0.
0.662057 0.001 0.
0.664059 0.00100001 0.
0.66606 0.00100001 0.
0.668062 0.00100016 0.
0.670063 0.00100035 0.
0.672065 0.00100055 0.
0.674066 0.00100045 0.
0.676066 0.00100034 0.
0.678067 0.00100025 0.
0.680069 0.00100035 0.
0.682071 0.00100045 0.
0.684072 0.0010005 0.
0.686073 0.00100045 0.
0.688074 0.00100039 0.
0.690075 0.00100044 0.
0.692076 0.00100057 0.
0.694077 0.0010007 0.
0.696078 0.00100066 0.
0.698078 0.00100059 0.
0.49992 0.00300182 0.
0.501922 0.00300186 0.
0.503923 0.00300187 0.
0.505924 0.00300186 0.
0.507925 0.00300167 0.
0.509926 0.00300149 0.
0.511926 0.00300114 0.
0.513928 0.00300055 0.
0.515929 0.00299996 0.
0.517931 0.00300014 0.
0.519933 0.00300075 0.
0.521934 0.00300137 0.
0.523936 0.00300127 0.
0.525937 0.00300105 0.
0.527939 0.00300089 0.
0.52994 0.00300124 0.
0.531941 0.00300158 0.
0.533942 0.00300161 0.
0.535943 0.00300095 0.
0.537945 0.00300029 0.
0.539946 0.003 0.
0.541948 0.00300001 0.
0.54395 0.00300002 0.
0.545952 0.00300013 0.
0.547954 0.00300028 0.
0.549955 0.00300043 0.
0.551957 0.00300055 0.
0.553958 0.00300066 0.
0.55596 0.0030007 0.
0.557961 0.0030004 0.
0.559962 0.0030001 0.
0.561964 0.00300008 0.
0.563965 0.00300046 0.
0.565967 0.00300084 0.
0.567968 0.00300075 0.
0.56997 0.0030004 0.
0.571972 0.00300005 0.
0.573974 0.00300001 0.
0.575975 0.00300002 0.
0.577976 0.00300007 0.
0.579978 0.00300055 0.
0.58198 0.00300103 0.
0.583981 0.0030016 0.
0.585981 0.00300238 0.
0.587982 0.00300315 0.
0.589982 0.00300275 0.
0.591984 0.00300139 0.
0.593985 0.00300003 0.
0.595989 0.00300038 0.
0.597995 0.00300122 0.
0.6 0.00300207 0.
0.602006 0.0030013 0.
0.604011 0.00300052 0.
0.606016 0.00300002 0.
0.608017 0.00300045 0.
0.610019 0.00300088 0.
0.61202 0.00300112 0.
0.614021 0.00300111 0.
0.616022 0.0030011 0.
0.618024 0.00300145 0.
0.620025 0.00300198 0.
0.622027 0.0030025 0.
0.624027 0.0030019 0.
0.626028 0.00300118 0.
0.628028 0.00300052 0.
0.63003 0.00300031 0.
0.632032 0.00300009 0.
0.634034 0.00299999 0.
0.636036 0.0030001 0.
0.638038 0.00300021 0.
0.640041 0.00300023 0.
0.642043 0.00300017 0.
0.644045 0.00300012 0.
0.646046 0.00300071 0.
0.648047 0.00300147 0.
0.650047 0.00300218 0.
0.652048 0.00300139 0.
0.65405 0.00300059 0.
0.656051 0.00299999 0.
0.658053 0.003 0.
0.660055 0.003 0.
0.662057 0.00300001 0.
0.664059 0.00300003 0.
0.666061 0.00300004 0.
0.668063 0.00300047 0.
0.670064 0.00300106 0.
0.672065 0.00300164 0.
0.674066 0.00300136 0.
0.676067 0.003001 0.
0.678068 0.00300074 0.
0.680069 0.00300105 0.
0.68207 0.00300136 0.
0.684072 0.0030015 0.
0.686073 0.00300134 0.
0.688074 0.00300117 0.
0.690075 0.00300133 0.
0.692076 0.00300172 0.
0.694077 0.0030021 0.
0.696078 0.00300199 0.
0.698079 0.00300177 0.
0.499921 0.00500304 0.
0.501922 0.00500309 0.
0.503923 0.00500312 0.
0.505924 0.0050031 0.
0.507925 0.00500279 0.
0.509925 0.00500249 0.
0.511926 0.0050019 0.
0.513928 0.00500091 0.
0.51593 0.00499993 0.
0.517931 0.00500022 0.
0.519934 0.00500125 0.
0.521936 0.00500228 0.
0.523937 0.00500211 0.
0.525938 0.00500175 0.
0.527939 0.00500148 0.
0.52994 0.00500206 0.
0.531941 0.00500263 0.
0.533942 0.00500269 0.
0.535944 0.00500159 0.
0.537945 0.00500048 0.
0.539947 0.00499999 0.
0.541949 0.00500001 0.
0.543951 0.00500003 0.
0.545953 0.00500021 0.
0.547954 0.00500046 0.
0.549956 0.00500071 0.
0.551957 0.00500091 0.
0.553959 0.00500111 0.
0.55596 0.00500116 0.
0.557961 0.00500066 0.
0.559963 0.00500016 0.
0.561964 0.00500014 0.
0.563966 0.00500077 0.
0.565967 0.00500141 0.
0.567969 0.00500124 0.
0.569971 0.00500066 0.
0.571973 0.00500009 0.
0.573974 0.00500002 0.
0.575975 0.00500002 0.
0.577976 0.00500011 0.
0.579978 0.00500091 0.
0.58198 0.00500171 0.
0.583981 0.00500267 0.
0.585982 0.00500396 0.
0.587982 0.00500524 0.
0.589984 0.00500457 0.
0.591986 0.0050023 0.
0.593988 0.00500004 0.
0.595992 0.00500063 0.
0.597996 0.00500204 0.
0.6 0.00500345 0.
0.602005 0.00500216 0.
0.60401 0.00500086 0.
0.606014 0.00500004 0.
0.608015 0.00500076 0.
0.610017 0.00500147 0.
0.612019 0.00500186 0.
0.61402 0.00500184 0.
0.616021 0.00500183 0.
0.618023 0.00500241 0.
0.620025 0.00500329 0.
0.622026 0.00500417 0.
0.624026 0.00500316 0.
0.626026 0.00500196 0.
0.628027 0.00500086 0.
0.630029 0.00500051 0.
0.632031 0.00500015 0.
0.634034 0.00499999 0.
0.636036 0.00500017 0.
0.638038 0.00500035 0.
0.640041 0.00500037 0.
0.642043 0.00500029 0.
0.644045 0.0050002 0.
0.646046 0.00500118 0.
0.648047 0.00500244 0.
0.650047 0.00500364 0.
0.652048 0.00500231 0.
0.654049 0.00500098 0.
0.656051 0.00499999 0.
0.658053 0.00499999 0.
0.660055 0.005 0.
0.662058 0.00500001 0.
0.66406 0.00500004 0.
0.666062 0.00500007 0.
0.668063 0.00500077 0.
0.670064 0.00500176 0.
0.672065 0.00500274 0.
0.674066 0.00500226 0.
0.676068 0.00500166 0.
0.678069 0.00500123 0.
0.68007 0.00500175 0.
0.68207 0.00500226 0.
0.684071 0.00500249 0.
0.686073 0.00500222 0.
0.688074 0.00500196 0.
0.690075 0.00500222 0.
0.692076 0.00500286 0.
0.694077 0.0050035 0.
0.696078 0.00500332 0.
0.698079 0.00500295 0.
0.499923 0.00700591 0.
0.501924 0.00700552 0.
0.503925 0.00700515 0.
0.505926 0.00700485 0.
0.507927 0.00700479 0.
0.509927 0.00700474 0.
0.511928 0.0070046 0.
0.51393 0.00700431 0.
0.515931 0.00700402 0.
0.517933 0.00700438 0.
0.519934 0.00700513 0.
0.521936 0.00700588 0.
0.523937 0.00700616 0.
0.525938 0.00700636 0.
0.527939 0.00700653 0.
0.52994 0.00700646 0.
0.531942 0.00700639 0.
0.533943 0.00700627 0.
0.535944 0.00700603 0.
0.537945 0.0070058 0.
0.539947 0.00700555 0.
0.541949 0.00700529 0.
0.543951 0.00700502 0.
0.545952 0.00700479 0.
0.547954 0.00700456 0.
0.549955 0.00700434 0.
0.551957 0.00700451 0.
0.553959 0.0070047 0.
0.55596 0.0070049 0.
0.557962 0.00700511 0.
0.559963 0.00700532 0.
0.561964 0.00700559 0.
0.563966 0.00700596 0.
0.565968 0.00700633 0.
0.56797 0.00700653 0.
0.569972 0.00700665 0.
0.571973 0.00700677 0.
0.573974 0.00700685 0.
0.575976 0.00700693 0.
0.577977 0.00700701 0.
0.579979 0.00700705 0.
0.58198 0.0070071 0.
0.583981 0.00700731 0.
0.585983 0.00700785 0.
0.587984 0.0070084 0.
0.589986 0.00700782 0.
0.591988 0.00700634 0.
0.59399 0.00700487 0.
0.595994 0.00700573 0.
0.597997 0.00700726 0.
0.600001 0.00700879 0.
0.602005 0.00700758 0.
0.604009 0.00700638 0.
0.606013 0.00700558 0.
0.608014 0.0070061 0.
0.610016 0.00700662 0.
0.612017 0.00700688 0.
0.614019 0.00700682 0.
0.616021 0.00700676 0.
0.618022 0.00700708 0.
0.620024 0.0070076 0.
0.622025 0.00700813 0.
0.624026 0.00700748 0.
0.626027 0.0070067 0.
0.628028 0.00700604 0.
0.63003 0.00700625 0.
0.632032 0.00700647 0.
0.634034 0.00700659 0.
0.636036 0.00700653 0.
0.638038 0.00700646 0.
0.64004 0.00700618 0.
0.642041 0.00700573 0.
0.644043 0.00700528 0.
0.646045 0.00700558 0.
0.648047 0.00700607 0.
0.650048 0.00700655 0.
0.652049 0.00700662 0.
0.654051 0.0070067 0.
0.656052 0.0070067 0.
0.658053 0.00700649 0.
0.660055 0.00700629 0.
0.662057 0.00700608 0.
0.664059 0.00700588 0.
0.666061 0.00700567 0.
0.668062 0.00700564 0.
0.670063 0.00700567 0.
0.672064 0.00700571 0.
0.674065 0.00700541 0.
0.676067 0.00700509 0.
0.678068 0.00700483 0.
0.680069 0.00700497 0.
0.68207 0.00700512 0.
0.684071 0.00700516 0.
0.686072 0.00700499 0.
0.688073 0.00700482 0.
0.690075 0.00700494 0.
0.692076 0.00700526 0.
0.694077 0.00700558 0.
0.696078 0.00700566 0.
0.698079 0.00700571 0.
0.499924 0.00900876 0.
0.501925 0.00900794 0.
0.503926 0.00900717 0.
0.505927 0.00900659 0.
0.507928 0.0090068 0.
0.509929 0.009007 0.
0.51193 0.00900731 0.
0.513932 0.00900771 0.
0.515933 0.00900811 0.
0.517934 0.00900854 0.
0.519934 0.00900901 0.
0.521935 0.00900948 0.
0.523937 0.0090102 0.
0.525938 0.00901096 0.
0.52794 0.00901158 0.
0.529941 0.00901086 0.
0.531942 0.00901014 0.
0.533944 0.00900986 0.
0.535945 0.00901048 0.
0.537946 0.00901111 0.
0.539947 0.00901111 0.
0.541949 0.00901056 0.
0.543951 0.00901002 0.
0.545952 0.00900936 0.
0.547953 0.00900867 0.
0.549954 0.00900797 0.
0.551956 0.00900812 0.
0.553959 0.0090083 0.
0.555961 0.00900863 0.
0.557962 0.00900955 0.
0.559963 0.00901047 0.
0.561965 0.00901104 0.
0.563967 0.00901114 0.
0.565969 0.00901124 0.
0.567971 0.00901181 0.
0.569972 0.00901263 0.
0.571974 0.00901345 0.
0.573975 0.00901369 0.
0.575977 0.00901385 0.
0.577978 0.0090139 0.
0.579979 0.0090132 0.
0.58198 0.00901249 0.
0.583981 0.00901195 0.
0.585983 0.00901175 0.
0.587985 0.00901155 0.
0.589988 0.00901105 0.
0.59199 0.00901036 0.
0.593993 0.00900968 0.
0.595995 0.00901083 0.
0.597998 0.00901248 0.
0.600001 0.00901413 0.
0.602005 0.00901301 0.
0.604009 0.00901189 0.
0.606012 0.00901111 0.
0.608013 0.00901144 0.
0.610015 0.00901176 0.
0.612016 0.00901189 0.
0.614018 0.00901179 0.
0.61602 0.00901168 0.
0.618021 0.00901175 0.
0.620023 0.00901192 0.
0.622024 0.00901209 0.
0.624026 0.00901179 0.
0.626028 0.00901144 0.
0.628029 0.00901122 0.
0.630031 0.009012 0.
0.632032 0.00901277 0.
0.634034 0.00901319 0.
0.636035 0.00901288 0.
0.638037 0.00901257 0.
0.640038 0.00901198 0.
0.64204 0.00901117 0.
0.644042 0.00901036 0.
0.646044 0.00900997 0.
0.648047 0.0090097 0.
0.650049 0.00900946 0.
0.652051 0.00901093 0.
0.654052 0.00901241 0.
0.656053 0.00901342 0.
0.658054 0.009013 0.
0.660055 0.00901258 0.
0.662056 0.00901215 0.
0.664057 0.00901172 0.
0.666059 0.00901128 0.
0.66806 0.0090105 0.
0.670062 0.00900959 0.
0.672063 0.00900867 0.
0.674064 0.00900856 0.
0.676066 0.00900851 0.
0.678067 0.00900843 0.
0.680068 0.0090082 0.
0.682069 0.00900797 0.
0.68407 0.00900783 0.
0.686071 0.00900776 0.
0.688073 0.00900769 0.
0.690074 0.00900766 0.
0.692075 0.00900765 0.
0.694077 0.00900765 0.
0.696077 0.00900801 0.
0.698078 0.00900848 0.
0.499925 0.0110104 0.
0.501926 0.0110095 0.
0.503927 0.0110086 0.
0.505928 0.011008 0.
0.507929 0.0110084 0.
0.50993 0.0110087 0.
0.511932 0.0110092 0.
0.513932 0.0110099 0.
0.515933 0.0110106 0.
0.517934 0.011011 0.
0.519935 0.0110114 0.
0.521935 0.0110117 0.
0.523937 0.0110125 0.
0.525938 0.0110133 0.
0.52794 0.011014 0.
0.529941 0.0110131 0.
0.531943 0.0110122 0.
0.533944 0.0110118 0.
0.535945 0.0110128 0.
0.537947 0.0110137 0.
0.539948 0.0110138 0.
0.541949 0.0110132 0.
0.543951 0.0110126 0.
0.545952 0.0110117 0.
0.547953 0.0110108 0.
0.549954 0.0110099 0.
0.551956 0.0110101 0.
0.553959 0.0110103 0.
0.555961 0.0110107 0.
0.557962 0.0110119 0.
0.559964 0.0110131 0.
0.561965 0.0110138 0.
0.563967 0.0110139 0.
0.565969 0.011014 0.
0.567971 0.0110147 0.
0.569972 0.0110156 0.
0.571973 0.0110165 0.
0.573975 0.011017 0.
0.575977 0.0110173 0.
0.577979 0.0110175 0.
0.57998 0.0110164 0.
0.581981 0.0110152 0.
0.583982 0.0110143 0.
0.585985 0.0110137 0.
0.587987 0.0110131 0.
0.589989 0.0110127 0.
0.591991 0.0110126 0.
0.593994 0.0110124 0.
0.595996 0.0110136 0.
0.597999 0.0110151 0.
0.600001 0.0110166 0.
0.602005 0.0110156 0.
0.604008 0.0110147 0.
0.606011 0.011014 0.
0.608013 0.0110142 0.
0.610014 0.0110143 0.
0.612016 0.0110144 0.
0.614018 0.0110143 0.
0.616019 0.0110142 0.
0.618021 0.0110142 0.
0.620022 0.0110142 0.
0.622024 0.0110143 0.
0.624026 0.0110141 0.
0.626028 0.011014 0.
0.62803 0.011014 0.
0.630031 0.011015 0.
0.632033 0.011016 0.
0.634034 0.0110165 0.
0.636036 0.011016 0.
0.638037 0.0110155 0.
0.640038 0.0110147 0.
0.64204 0.0110139 0.
0.644042 0.011013 0.
0.646044 0.0110123 0.
0.648047 0.0110117 0.
0.65005 0.0110112 0.
0.652051 0.0110132 0.
0.654052 0.0110153 0.
0.656053 0.0110167 0.
0.658054 0.0110161 0.
0.660055 0.0110155 0.
0.662056 0.0110149 0.
0.664057 0.0110143 0.
0.666059 0.0110137 0.
0.66806 0.0110128 0.
0.670061 0.0110117 0.
0.672063 0.0110106 0.
0.674064 0.0110105 0.
0.676066 0.0110105 0.
0.678067 0.0110104 0.
0.680068 0.0110101 0.
0.682069 0.0110097 0.
0.68407 0.0110096 0.
0.686071 0.0110096 0.
0.688072 0.0110097 0.
0.690074 0.0110096 0.
0.692075 0.0110093 0.
0.694076 0.0110091 0.
0.696077 0.0110096 0.
0.698077 0.0110102 0.
0.499926 0.0130108 0.
0.501927 0.0130101 0.
0.503928 0.0130095 0.
0.505929 0.0130091 0.
0.50793 0.0130095 0.
0.509931 0.0130098 0.
0.511932 0.0130103 0.
0.513932 0.0130109 0.
0.515933 0.0130115 0.
0.517934 0.0130119 0.
0.519935 0.0130122 0.
0.521936 0.0130126 0.
0.523937 0.013013 0.
0.525938 0.0130135 0.
0.52794 0.0130138 0.
0.529941 0.0130131 0.
0.531943 0.0130124 0.
0.533944 0.0130122 0.
0.535946 0.0130129 0.
0.537947 0.0130136 0.
0.539949 0.0130136 0.
0.54195 0.0130132 0.
0.543952 0.0130128 0.
0.545953 0.0130119 0.
0.547954 0.013011 0.
0.549955 0.01301 0.
0.551957 0.0130104 0.
0.553959 0.0130107 0.
0.555961 0.0130112 0.
0.557963 0.0130122 0.
0.559964 0.0130132 0.
0.561966 0.0130139 0.
0.563967 0.0130143 0.
0.565969 0.0130146 0.
0.56797 0.0130151 0.
0.569971 0.0130156 0.
0.571972 0.0130161 0.
0.573975 0.0130167 0.
0.575977 0.0130174 0.
0.57798 0.0130179 0.
0.579981 0.0130166 0.
0.581983 0.0130153 0.
0.583984 0.0130143 0.
0.585986 0.0130137 0.
0.587988 0.0130131 0.
0.58999 0.0130129 0.
0.591992 0.013013 0.
0.593994 0.0130131 0.
0.595996 0.013014 0.
0.597999 0.0130151 0.
0.600001 0.0130162 0.
0.602004 0.0130155 0.
0.604007 0.0130148 0.
0.60601 0.0130143 0.
0.608012 0.0130143 0.
0.610014 0.0130144 0.
0.612016 0.0130144 0.
0.614018 0.0130144 0.
0.616019 0.0130144 0.
0.618021 0.0130145 0.
0.620022 0.0130146 0.
0.622024 0.0130147 0.
0.624026 0.0130145 0.
0.626028 0.0130143 0.
0.62803 0.0130142 0.
0.630031 0.0130152 0.
0.632033 0.0130162 0.
0.634034 0.0130166 0.
0.636036 0.0130159 0.
0.638038 0.0130152 0.
0.640039 0.0130145 0.
0.642041 0.0130139 0.
0.644042 0.0130132 0.
0.646044 0.0130127 0.
0.648046 0.0130122 0.
0.650049 0.0130117 0.
0.65205 0.0130135 0.
0.654052 0.0130154 0.
0.656053 0.0130165 0.
0.658054 0.0130158 0.
0.660055 0.0130151 0.
0.662057 0.0130144 0.
0.664058 0.0130137 0.
0.66606 0.013013 0.
0.668061 0.0130124 0.
0.670062 0.0130119 0.
0.672064 0.0130114 0.
0.674065 0.0130112 0.
0.676067 0.013011 0.
0.678068 0.0130108 0.
0.680069 0.0130106 0.
0.68207 0.0130104 0.
0.684071 0.0130104 0.
0.686072 0.0130105 0.
0.688073 0.0130107 0.
0.690074 0.0130106 0.
0.692075 0.0130103 0.
0.694075 0.01301 0.
0.696076 0.0130103 0.
0.698077 0.0130107 0.
0.499927 0.0150112 0.
0.501928 0.0150107 0.
0.503929 0.0150104 0.
0.505929 0.0150101 0.
0.50793 0.0150106 0.
0.509931 0.015011 0.
0.511932 0.0150114 0.
0.513932 0.0150119 0.
0.515933 0.0150123 0.
0.517934 0.0150127 0.
0.519935 0.0150131 0.
0.521936 0.0150134 0.
0.523937 0.0150136 0.
0.525939 0.0150136 0.
0.52794 0.0150136 0.
0.529941 0.0150132 0.
0.531943 0.0150127 0.
0.533945 0.0150125 0.
0.535946 0.015013 0.
0.537948 0.0150134 0.
0.539949 0.0150135 0.
0.541951 0.0150132 0.
0.543953 0.0150129 0.
0.545954 0.0150121 0.
0.547954 0.0150112 0.
0.549955 0.0150102 0.
0.551957 0.0150107 0.
0.553959 0.0150112 0.
0.555961 0.0150117 0.
0.557963 0.0150125 0.
0.559964 0.0150133 0.
0.561966 0.015014 0.
0.563967 0.0150146 0.
0.565968 0.0150152 0.
0.567969 0.0150155 0.
0.56997 0.0150155 0.
0.571971 0.0150156 0.
0.573974 0.0150165 0.
0.575977 0.0150174 0.
0.57798 0.0150182 0.
0.579982 0.0150168 0.
0.581984 0.0150154 0.
0.583986 0.0150143 0.
0.585988 0.0150137 0.
0.587989 0.0150131 0.
0.589991 0.015013 0.
0.591992 0.0150134 0.
0.593994 0.0150138 0.
0.595996 0.0150144 0.
0.597998 0.0150151 0.
0.600001 0.0150158 0.
0.602003 0.0150153 0.
0.604006 0.0150149 0.
0.606009 0.0150145 0.
0.608012 0.0150145 0.
0.610014 0.0150144 0.
0.612016 0.0150144 0.
0.614018 0.0150144 0.
0.616019 0.0150145 0.
0.61802 0.0150147 0.
0.620022 0.0150149 0.
0.622023 0.0150152 0.
0.624025 0.0150149 0.
0.626027 0.0150146 0.
0.628029 0.0150145 0.
0.630031 0.0150154 0.
0.632033 0.0150164 0.
0.634035 0.0150166 0.
0.636037 0.0150157 0.
0.638039 0.0150148 0.
0.64004 0.0150142 0.
0.642042 0.0150138 0.
0.644043 0.0150134 0.
0.646044 0.015013 0.
0.648046 0.0150126 0.
0.650048 0.0150122 0.
0.652049 0.0150138 0.
0.654051 0.0150154 0.
0.656052 0.0150164 0.
0.658054 0.0150156 0.
0.660056 0.0150147 0.
0.662057 0.0150139 0.
0.664059 0.0150131 0.
0.666061 0.0150123 0.
0.668062 0.0150121 0.
0.670063 0.0150122 0.
0.672064 0.0150123 0.
0.674066 0.0150119 0.
0.676067 0.0150115 0.
0.678069 0.0150112 0.
0.68007 0.0150111 0.
0.682071 0.0150111 0.
0.684072 0.0150111 0.
0.686073 0.0150115 0.
0.688074 0.0150118 0.
0.690074 0.0150117 0.
0.692074 0.0150113 0.
0.694075 0.0150109 0.
0.696075 0.015011 0.
0.698076 0.0150113 0.
0.499927 0.0170122 0.
0.501928 0.017012 0.
0.503929 0.0170119 0.
0.50593 0.0170118 0.
0.50793 0.0170119 0.
0.509931 0.017012 0.
0.511932 0.0170122 0.
0.513932 0.0170127 0.
0.515933 0.0170132 0.
0.517934 0.0170135 0.
0.519935 0.0170137 0.
0.521936 0.0170139 0.
0.523937 0.0170141 0.
0.525939 0.0170144 0.
0.52794 0.0170145 0.
0.529942 0.0170141 0.
0.531943 0.0170137 0.
0.533945 0.0170134 0.
0.535946 0.0170134 0.
0.537947 0.0170134 0.
0.539949 0.0170132 0.
0.541951 0.0170127 0.
0.543953 0.0170123 0.
0.545954 0.0170121 0.
0.547955 0.0170119 0.
0.549956 0.0170117 0.
0.551958 0.0170117 0.
0.55396 0.0170117 0.
0.555962 0.0170119 0.
0.557963 0.0170126 0.
0.559965 0.0170133 0.
0.561966 0.017014 0.
0.563967 0.0170146 0.
0.565968 0.0170152 0.
0.56797 0.0170156 0.
0.569971 0.017016 0.
0.571972 0.0170164 0.
0.573975 0.0170169 0.
0.575977 0.0170174 0.
0.57798 0.0170177 0.
0.579982 0.0170167 0.
0.581984 0.0170157 0.
0.583986 0.0170149 0.
0.585987 0.0170145 0.
0.587989 0.017014 0.
0.589991 0.0170139 0.
0.591992 0.017014 0.
0.593994 0.0170141 0.
0.595996 0.0170145 0.
0.597998 0.0170151 0.
0.600001 0.0170156 0.
0.602004 0.0170154 0.
0.604007 0.0170152 0.
0.606009 0.017015 0.
0.608012 0.0170149 0.
0.610014 0.0170148 0.
0.612016 0.0170147 0.
0.614017 0.0170146 0.
0.616019 0.0170145 0.
0.618021 0.0170147 0.
0.620022 0.0170149 0.
0.622024 0.0170152 0.
0.624025 0.0170153 0.
0.626027 0.0170153 0.
0.628029 0.0170154 0.
0.630031 0.0170157 0.
0.632033 0.017016 0.
0.634035 0.017016 0.
0.636037 0.0170156 0.
0.638038 0.0170152 0.
0.64004 0.0170148 0.
0.642041 0.0170144 0.
0.644043 0.017014 0.
0.646044 0.0170135 0.
0.648046 0.0170131 0.
0.650047 0.0170126 0.
0.652049 0.017014 0.
0.654051 0.0170154 0.
0.656052 0.0170162 0.
0.658054 0.0170155 0.
0.660055 0.0170147 0.
0.662057 0.017014 0.
0.664058 0.0170135 0.
0.66606 0.017013 0.
0.668061 0.017013 0.
0.670062 0.0170131 0.
0.672063 0.0170133 0.
0.674065 0.0170126 0.
0.676066 0.017012 0.
0.678068 0.0170114 0.
0.680069 0.0170114 0.
0.68207 0.0170115 0.
0.684071 0.0170116 0.
0.686072 0.0170122 0.
0.688073 0.0170127 0.
0.690074 0.0170128 0.
0.692074 0.0170128 0.
0.694075 0.0170127 0.
0.696075 0.0170125 0.
0.698076 0.0170123 0.
0.499927 0.0190132 0.
0.501928 0.0190133 0.
0.503929 0.0190135 0.
0.50593 0.0190136 0.
0.507931 0.0190133 0.
0.509931 0.0190129 0.
0.511932 0.019013 0.
0.513933 0.0190135 0.
0.515933 0.0190141 0.
0.517934 0.0190143 0.
0.519935 0.0190143 0.
0.521936 0.0190143 0.
0.523937 0.0190147 0.
0.525939 0.0190151 0.
0.52794 0.0190154 0.
0.529942 0.0190151 0.
0.531943 0.0190147 0.
0.533945 0.0190142 0.
0.535946 0.0190138 0.
0.537947 0.0190134 0.
0.539949 0.0190129 0.
0.541951 0.0190123 0.
0.543953 0.0190117 0.
0.545955 0.0190121 0.
0.547956 0.0190126 0.
0.549958 0.0190132 0.
0.551959 0.0190128 0.
0.553961 0.0190123 0.
0.555962 0.019012 0.
0.557964 0.0190127 0.
0.559965 0.0190134 0.
0.561966 0.019014 0.
0.563967 0.0190145 0.
0.565969 0.0190151 0.
0.56797 0.0190158 0.
0.569972 0.0190166 0.
0.571973 0.0190173 0.
0.573975 0.0190174 0.
0.575977 0.0190174 0.
0.57798 0.0190173 0.
0.579982 0.0190167 0.
0.581984 0.019016 0.
0.583986 0.0190155 0.
0.585987 0.0190152 0.
0.587989 0.0190149 0.
0.589991 0.0190147 0.
0.591993 0.0190146 0.
0.593995 0.0190144 0.
0.595997 0.0190147 0.
0.597999 0.019015 0.
0.600001 0.0190154 0.
0.602004 0.0190155 0.
0.604007 0.0190155 0.
0.60601 0.0190155 0.
0.608012 0.0190153 0.
0.610014 0.0190152 0.
0.612016 0.019015 0.
0.614017 0.0190148 0.
0.616019 0.0190146 0.
0.618021 0.0190147 0.
0.620022 0.0190149 0.
0.622024 0.0190152 0.
0.624026 0.0190156 0.
0.626027 0.019016 0.
0.628029 0.0190163 0.
0.630031 0.019016 0.
0.632033 0.0190156 0.
0.634035 0.0190154 0.
0.636037 0.0190155 0.
0.638038 0.0190156 0.
0.64004 0.0190154 0.
0.642041 0.019015 0.
0.644043 0.0190145 0.
0.646044 0.0190141 0.
0.648046 0.0190136 0.
0.650047 0.0190131 0.
0.652049 0.0190142 0.
0.65405 0.0190154 0.
0.656052 0.0190161 0.
0.658053 0.0190154 0.
0.660055 0.0190146 0.
0.662056 0.0190141 0.
0.664057 0.019014 0.
0.666059 0.0190138 0.
0.66806 0.0190138 0.
0.670061 0.0190141 0.
0.672062 0.0190143 0.
0.674064 0.0190134 0.
0.676065 0.0190124 0.
0.678067 0.0190116 0.
0.680068 0.0190117 0.
0.682069 0.0190118 0.
0.68407 0.0190121 0.
0.686071 0.0190128 0.
0.688073 0.0190135 0.
0.690073 0.0190139 0.
0.692074 0.0190143 0.
0.694075 0.0190146 0.
0.696075 0.0190141 0.
0.698076 0.0190134 0.
0.499928 0.0210142 0.
0.501929 0.0210144 0.
0.50393 0.0210146 0.
0.505931 0.0210147 0.
0.507931 0.0210143 0.
0.509932 0.0210138 0.
0.511932 0.0210138 0.
0.513933 0.0210142 0.
0.515934 0.0210146 0.
0.517935 0.0210148 0.
0.519935 0.0210148 0.
0.521936 0.0210148 0.
0.523938 0.0210151 0.
0.525939 0.0210154 0.
0.527941 0.0210156 0.
0.529942 0.0210153 0.
0.531944 0.0210151 0.
0.533945 0.0210147 0.
0.535946 0.021014 0.
0.537947 0.0210134 0.
0.539949 0.0210127 0.
0.541951 0.0210121 0.
0.543953 0.0210115 0.
0.545955 0.021012 0.
0.547956 0.0210128 0.
0.549958 0.0210137 0.
0.55196 0.0210132 0.
0.553961 0.0210128 0.
0.555963 0.0210125 0.
0.557964 0.021013 0.
0.559965 0.0210134 0.
0.561966 0.0210139 0.
0.563968 0.0210145 0.
0.565969 0.021015 0.
0.567971 0.0210157 0.
0.569973 0.0210166 0.
0.571974 0.0210174 0.
0.573976 0.0210173 0.
0.575978 0.021017 0.
0.57798 0.0210168 0.
0.579982 0.0210165 0.
0.581984 0.0210162 0.
0.583986 0.0210159 0.
0.585987 0.0210158 0.
0.587989 0.0210157 0.
0.589991 0.0210154 0.
0.591993 0.021015 0.
0.593995 0.0210146 0.
0.595997 0.0210148 0.
0.597999 0.0210151 0.
0.600001 0.0210154 0.
0.602004 0.0210156 0.
0.604007 0.0210158 0.
0.60601 0.0210158 0.
0.608012 0.0210155 0.
0.610013 0.0210153 0.
0.612015 0.0210151 0.
0.614017 0.0210149 0.
0.616019 0.0210148 0.
0.618021 0.0210148 0.
0.620022 0.021015 0.
0.622024 0.0210152 0.
0.624025 0.0210158 0.
0.626027 0.0210164 0.
0.628028 0.0210169 0.
0.630031 0.0210162 0.
0.632033 0.0210154 0.
0.634035 0.0210151 0.
0.636036 0.0210155 0.
0.638038 0.0210159 0.
0.640039 0.0210159 0.
0.642041 0.0210155 0.
0.644042 0.0210152 0.
0.646044 0.0210147 0.
0.648045 0.0210143 0.
0.650047 0.0210138 0.
0.652049 0.0210146 0.
0.65405 0.0210154 0.
0.656052 0.0210158 0.
0.658053 0.0210152 0.
0.660054 0.0210147 0.
0.662056 0.0210144 0.
0.664057 0.0210144 0.
0.666058 0.0210144 0.
0.66806 0.0210144 0.
0.670061 0.0210144 0.
0.672062 0.0210145 0.
0.674063 0.0210137 0.
0.676065 0.0210129 0.
0.678066 0.0210122 0.
0.680067 0.0210123 0.
0.682068 0.0210125 0.
0.684069 0.0210129 0.
0.68607 0.0210135 0.
0.688072 0.0210142 0.
0.690072 0.0210148 0.
0.692073 0.0210153 0.
0.694074 0.0210158 0.
0.696075 0.0210154 0.
0.698075 0.0210148 0.
0.499929 0.0230153 0.
0.50193 0.0230152 0.
0.50393 0.0230152 0.
0.505931 0.0230152 0.
0.507932 0.0230149 0.
0.509933 0.0230146 0.
0.511933 0.0230145 0.
0.513934 0.0230146 0.
0.515935 0.0230148 0.
0.517935 0.0230149 0.
0.519936 0.0230152 0.
0.521936 0.0230154 0.
0.523938 0.0230153 0.
0.52594 0.0230152 0.
0.527942 0.023015 0.
0.529943 0.0230149 0.
0.531944 0.0230149 0.
0.533946 0.0230146 0.
0.535947 0.023014 0.
0.537949 0.0230133 0.
0.53995 0.0230127 0.
0.541952 0.0230121 0.
0.543954 0.0230115 0.
0.545955 0.0230118 0.
0.547956 0.0230125 0.
0.549957 0.0230131 0.
0.551959 0.0230131 0.
0.553961 0.0230132 0.
0.555963 0.0230132 0.
0.557964 0.0230134 0.
0.559966 0.0230135 0.
0.561967 0.0230138 0.
0.563968 0.0230144 0.
0.56597 0.023015 0.
0.567972 0.0230155 0.
0.569973 0.023016 0.
0.571975 0.0230166 0.
0.573977 0.0230165 0.
0.575979 0.0230164 0.
0.57798 0.0230163 0.
0.579982 0.0230162 0.
0.581985 0.0230161 0.
0.583986 0.0230161 0.
0.585988 0.0230162 0.
0.587989 0.0230162 0.
0.589991 0.0230159 0.
0.591993 0.0230154 0.
0.593995 0.0230148 0.
0.595997 0.0230149 0.
0.597999 0.0230152 0.
0.600001 0.0230155 0.
0.602004 0.0230157 0.
0.604007 0.0230159 0.
0.60601 0.023016 0.
0.608012 0.0230155 0.
0.610013 0.0230151 0.
0.612015 0.0230149 0.
0.614017 0.023015 0.
0.616018 0.0230151 0.
0.61802 0.0230152 0.
0.620021 0.0230151 0.
0.622022 0.0230151 0.
0.624024 0.0230158 0.
0.626026 0.0230165 0.
0.628028 0.0230171 0.
0.630031 0.0230163 0.
0.632033 0.0230155 0.
0.634034 0.0230151 0.
0.636036 0.0230157 0.
0.638037 0.0230162 0.
0.640039 0.0230163 0.
0.64204 0.0230161 0.
0.644042 0.0230158 0.
0.646043 0.0230155 0.
0.648045 0.0230152 0.
0.650047 0.0230149 0.
0.652048 0.0230151 0.
0.65405 0.0230153 0.
0.656052 0.0230154 0.
0.658053 0.0230151 0.
0.660054 0.0230147 0.
0.662056 0.0230146 0.
0.664057 0.0230147 0.
0.666058 0.0230148 0.
0.66806 0.0230146 0.
0.670061 0.0230143 0.
0.672061 0.0230139 0.
0.674063 0.0230136 0.
0.676064 0.0230134 0.
0.678066 0.0230131 0.
0.680067 0.0230133 0.
0.682068 0.0230135 0.
0.684069 0.0230137 0.
0.68607 0.0230143 0.
0.68807 0.0230148 0.
0.690071 0.0230153 0.
0.692072 0.0230158 0.
0.694072 0.0230163 0.
0.696073 0.0230164 0.
0.698073 0.0230165 0.
0.49993 0.0250165 0.
0.501931 0.0250161 0.
0.503931 0.0250159 0.
0.505932 0.0250156 0.
0.507933 0.0250155 0.
0.509934 0.0250154 0.
0.511934 0.0250153 0.
0.513935 0.0250151 0.
0.515936 0.0250149 0.
0.517936 0.0250151 0.
0.519936 0.0250155 0.
0.521937 0.0250159 0.
0.523938 0.0250155 0.
0.52594 0.025015 0.
0.527942 0.0250145 0.
0.529944 0.0250146 0.
0.531945 0.0250147 0.
0.533946 0.0250146 0.
0.535948 0.0250139 0.
0.53795 0.0250133 0.
0.539951 0.0250127 0.
0.541953 0.0250121 0.
0.543954 0.0250115 0.
0.545955 0.0250117 0.
0.547956 0.0250121 0.
0.549957 0.0250125 0.
0.551959 0.0250131 0.
0.553961 0.0250136 0.
0.555963 0.025014 0.
0.557965 0.0250138 0.
0.559966 0.0250136 0.
0.561968 0.0250137 0.
0.563969 0.0250143 0.
0.565971 0.0250149 0.
0.567972 0.0250153 0.
0.569974 0.0250155 0.
0.571976 0.0250158 0.
0.573978 0.0250158 0.
0.575979 0.0250158 0.
0.577981 0.0250158 0.
0.579983 0.0250159 0.
0.581985 0.0250161 0.
0.583987 0.0250162 0.
0.585988 0.0250165 0.
0.58799 0.0250168 0.
0.589991 0.0250165 0.
0.591993 0.0250157 0.
0.593995 0.0250149 0.
0.595997 0.025015 0.
0.597999 0.0250153 0.
0.600001 0.0250157 0.
0.602004 0.0250159 0.
0.604007 0.0250161 0.
0.60601 0.0250161 0.
0.608012 0.0250155 0.
0.610013 0.0250149 0.
0.612015 0.0250148 0.
0.614016 0.0250151 0.
0.616018 0.0250155 0.
0.618019 0.0250155 0.
0.62002 0.0250152 0.
0.622021 0.025015 0.
0.624024 0.0250158 0.
0.626026 0.0250166 0.
0.628028 0.0250173 0.
0.63003 0.0250164 0.
0.632032 0.0250155 0.
0.634034 0.0250151 0.
0.636035 0.0250158 0.
0.638037 0.0250165 0.
0.640038 0.0250167 0.
0.64204 0.0250166 0.
0.644041 0.0250164 0.
0.646043 0.0250163 0.
0.648045 0.0250162 0.
0.650047 0.025016 0.
0.652048 0.0250156 0.
0.65405 0.0250152 0.
0.656051 0.0250149 0.
0.658053 0.0250149 0.
0.660054 0.0250148 0.
0.662056 0.0250149 0.
0.664057 0.0250151 0.
0.666058 0.0250153 0.
0.66806 0.0250148 0.
0.67006 0.0250141 0.
0.672061 0.0250133 0.
0.674063 0.0250135 0.
0.676064 0.0250138 0.
0.678066 0.0250141 0.
0.680067 0.0250142 0.
0.682067 0.0250144 0.
0.684068 0.0250146 0.
0.686069 0.025015 0.
0.688069 0.0250154 0.
0.69007 0.0250158 0.
0.69207 0.0250164 0.
0.694071 0.0250169 0.
0.696071 0.0250175 0.
0.698072 0.0250182 0.
0.499931 0.0270174 0.
0.501931 0.0270169 0.
0.503932 0.0270164 0.
0.505932 0.027016 0.
0.507933 0.0270158 0.
0.509934 0.0270156 0.
0.511935 0.0270155 0.
0.513936 0.0270153 0.
0.515936 0.0270152 0.
0.517937 0.0270152 0.
0.519938 0.0270154 0.
0.521938 0.0270157 0.
0.52394 0.0270153 0.
0.525942 0.0270148 0.
0.527943 0.0270144 0.
0.529945 0.0270144 0.
0.531946 0.0270145 0.
0.533947 0.0270144 0.
0.535949 0.0270138 0.
0.537951 0.0270133 0.
0.539952 0.0270129 0.
0.541953 0.0270126 0.
0.543954 0.0270123 0.
0.545956 0.0270123 0.
0.547957 0.0270123 0.
0.549958 0.0270122 0.
0.55196 0.0270128 0.
0.553962 0.0270134 0.
0.555964 0.0270139 0.
0.557965 0.0270136 0.
0.559967 0.0270133 0.
0.561968 0.0270134 0.
0.56397 0.027014 0.
0.565971 0.0270147 0.
0.567973 0.0270148 0.
0.569975 0.0270147 0.
0.571977 0.0270146 0.
0.573978 0.0270147 0.
0.57598 0.0270149 0.
0.577981 0.027015 0.
0.579983 0.0270152 0.
0.581986 0.0270153 0.
0.583988 0.0270155 0.
0.585989 0.027016 0.
0.587991 0.0270164 0.
0.589992 0.0270163 0.
0.591994 0.0270157 0.
0.593995 0.0270152 0.
0.595997 0.027015 0.
0.598 0.0270149 0.
0.600002 0.0270148 0.
0.602004 0.0270153 0.
0.604007 0.0270158 0.
0.60601 0.0270161 0.
0.608011 0.0270154 0.
0.610013 0.0270148 0.
0.612015 0.0270146 0.
0.614016 0.0270149 0.
0.616018 0.0270152 0.
0.618019 0.0270152 0.
0.620021 0.0270151 0.
0.622022 0.0270149 0.
0.624024 0.0270156 0.
0.626026 0.0270164 0.
0.628028 0.0270169 0.
0.63003 0.0270162 0.
0.632032 0.0270154 0.
0.634033 0.0270151 0.
0.636035 0.0270157 0.
0.638036 0.0270163 0.
0.640037 0.0270164 0.
0.642039 0.0270162 0.
0.644041 0.027016 0.
0.646043 0.0270158 0.
0.648044 0.0270156 0.
0.650046 0.0270154 0.
0.652048 0.0270152 0.
0.654049 0.0270151 0.
0.656051 0.027015 0.
0.658052 0.0270152 0.
0.660053 0.0270154 0.
0.662055 0.0270155 0.
0.664056 0.0270154 0.
0.666057 0.0270154 0.
0.668059 0.0270148 0.
0.67006 0.027014 0.
0.672061 0.0270133 0.
0.674062 0.0270135 0.
0.676063 0.0270139 0.
0.678064 0.0270142 0.
0.680065 0.0270146 0.
0.682065 0.0270151 0.
0.684066 0.0270155 0.
0.686067 0.0270159 0.
0.688068 0.0270163 0.
0.690069 0.0270169 0.
0.69207 0.0270175 0.
0.694071 0.0270182 0.
0.696071 0.027019 0.
0.698071 0.0270198 0.
0.499932 0.0290184 0.
0.501932 0.0290176 0.
0.503932 0.029017 0.
0.505933 0.0290165 0.
0.507934 0.0290162 0.
0.509935 0.0290159 0.
0.511936 0.0290156 0.
0.513936 0.0290155 0.
0.515937 0.0290154 0.
0.517938 0.0290154 0.
0.519939 0.0290154 0.
0.52194 0.0290154 0.
0.523941 0.0290151 0.
0.525943 0.0290147 0.
0.527945 0.0290143 0.
0.529946 0.0290143 0.
0.531947 0.0290144 0.
0.533949 0.0290142 0.
0.53595 0.0290137 0.
0.537951 0.0290132 0.
0.539953 0.029013 0.
0.541954 0.0290131 0.
0.543955 0.0290131 0.
0.545956 0.0290128 0.
0.547958 0.0290124 0.
0.549959 0.0290119 0.
0.551961 0.0290126 0.
0.553963 0.0290133 0.
0.555964 0.0290138 0.
0.557966 0.0290134 0.
0.559968 0.029013 0.
0.561969 0.0290131 0.
0.563971 0.0290138 0.
0.565972 0.0290145 0.
0.567974 0.0290144 0.
0.569976 0.0290139 0.
0.571978 0.0290134 0.
0.573979 0.0290136 0.
0.57598 0.029014 0.
0.577981 0.0290143 0.
0.579984 0.0290144 0.
0.581986 0.0290145 0.
0.583989 0.0290148 0.
0.58599 0.0290154 0.
0.587992 0.0290161 0.
0.589993 0.0290162 0.
0.591994 0.0290158 0.
0.593995 0.0290154 0.
0.595997 0.029015 0.
0.598 0.0290144 0.
0.600002 0.0290139 0.
0.602005 0.0290147 0.
0.604007 0.0290156 0.
0.606009 0.0290161 0.
0.608011 0.0290154 0.
0.610013 0.0290147 0.
0.612014 0.0290144 0.
0.614016 0.0290147 0.
0.616018 0.0290149 0.
0.61802 0.029015 0.
0.620021 0.0290149 0.
0.622023 0.0290149 0.
0.624024 0.0290154 0.
0.626026 0.0290161 0.
0.628028 0.0290165 0.
0.63003 0.0290159 0.
0.632031 0.0290153 0.
0.634033 0.0290151 0.
0.636034 0.0290156 0.
0.638035 0.0290161 0.
0.640036 0.0290162 0.
0.642038 0.0290159 0.
0.64404 0.0290156 0.
0.646042 0.0290153 0.
0.648044 0.029015 0.
0.650046 0.0290148 0.
0.652048 0.0290148 0.
0.654049 0.0290149 0.
0.656051 0.0290151 0.
0.658052 0.0290155 0.
0.660053 0.0290159 0.
0.662054 0.029016 0.
0.664055 0.0290157 0.
0.666056 0.0290154 0.
0.668058 0.0290148 0.
0.670059 0.029014 0.
0.67206 0.0290132 0.
0.674061 0.0290135 0.
0.676061 0.0290139 0.
0.678062 0.0290143 0.
0.680063 0.029015 0.
0.682063 0.0290158 0.
0.684064 0.0290164 0.
0.686066 0.0290168 0.
0.688067 0.0290173 0.
0.690068 0.0290179 0.
0.692069 0.0290187 0.
0.69407 0.0290195 0.
0.69607 0.0290204 0.
0.69807 0.0290214 0.
0.499933 0.0310194 0.
0.501933 0.0310185 0.
0.503933 0.0310178 0.
0.505934 0.0310171 0.
0.507935 0.0310167 0.
0.509935 0.0310163 0.
0.511936 0.031016 0.
0.513937 0.0310158 0.
0.515938 0.0310155 0.
0.517939 0.0310154 0.
0.51994 0.0310154 0.
0.521941 0.0310153 0.
0.523942 0.031015 0.
0.525944 0.0310146 0.
0.527945 0.0310143 0.
0.529947 0.0310142 0.
0.531948 0.0310141 0.
0.533949 0.0310139 0.
0.535951 0.0310135 0.
0.537952 0.0310131 0.
0.539953 0.0310131 0.
0.541954 0.0310133 0.
0.543955 0.0310135 0.
0.545957 0.0310131 0.
0.547958 0.0310127 0.
0.54996 0.0310122 0.
0.551962 0.0310127 0.
0.553963 0.0310133 0.
0.555965 0.0310137 0.
0.557967 0.0310133 0.
0.559968 0.0310129 0.
0.56197 0.031013 0.
0.563971 0.0310137 0.
0.565973 0.0310144 0.
0.567974 0.0310142 0.
0.569976 0.0310135 0.
0.571978 0.0310128 0.
0.573979 0.0310132 0.
0.575981 0.0310138 0.
0.577982 0.0310144 0.
0.579984 0.0310144 0.
0.581987 0.0310145 0.
0.583989 0.0310147 0.
0.58599 0.0310154 0.
0.587992 0.031016 0.
0.589993 0.0310161 0.
0.591994 0.0310158 0.
0.593996 0.0310155 0.
0.595998 0.031015 0.
0.598 0.0310145 0.
0.600003 0.031014 0.
0.602005 0.0310148 0.
0.604007 0.0310156 0.
0.60601 0.031016 0.
0.608011 0.0310154 0.
0.610013 0.0310148 0.
0.612014 0.0310145 0.
0.614016 0.0310146 0.
0.616018 0.0310148 0.
0.61802 0.0310149 0.
0.620021 0.0310149 0.
0.622023 0.031015 0.
0.624024 0.0310155 0.
0.626026 0.031016 0.
0.628028 0.0310164 0.
0.630029 0.0310158 0.
0.632031 0.0310153 0.
0.634032 0.0310151 0.
0.636033 0.0310154 0.
0.638034 0.0310158 0.
0.640036 0.0310158 0.
0.642038 0.0310155 0.
0.64404 0.0310152 0.
0.646042 0.0310149 0.
0.648044 0.0310146 0.
0.650046 0.0310143 0.
0.652047 0.0310147 0.
0.654049 0.0310151 0.
0.65605 0.0310155 0.
0.658051 0.0310159 0.
0.660052 0.0310163 0.
0.662053 0.0310164 0.
0.664054 0.0310161 0.
0.666055 0.0310158 0.
0.668056 0.031015 0.
0.670058 0.0310141 0.
0.672059 0.0310132 0.
0.67406 0.0310137 0.
0.67606 0.0310142 0.
0.678061 0.0310148 0.
0.680062 0.0310154 0.
0.682062 0.0310161 0.
0.684063 0.0310168 0.
0.686065 0.0310174 0.
0.688066 0.031018 0.
0.690067 0.0310187 0.
0.692068 0.0310195 0.
0.694069 0.0310204 0.
0.696069 0.0310214 0.
0.698069 0.0310226 0.
0.499933 0.0330204 0.
0.501934 0.0330195 0.
0.503934 0.0330187 0.
0.505935 0.033018 0.
0.507936 0.0330175 0.
0.509936 0.0330171 0.
0.511937 0.0330166 0.
0.513938 0.033016 0.
0.515938 0.0330155 0.
0.517939 0.0330153 0.
0.51994 0.0330154 0.
0.521941 0.0330154 0.
0.523942 0.0330152 0.
0.525944 0.0330148 0.
0.527946 0.0330144 0.
0.529947 0.0330141 0.
0.531948 0.0330138 0.
0.53395 0.0330136 0.
0.535951 0.0330133 0.
0.537952 0.0330131 0.
0.539953 0.0330131 0.
0.541955 0.0330132 0.
0.543956 0.0330134 0.
0.545957 0.0330133 0.
0.547959 0.0330131 0.
0.54996 0.0330129 0.
0.551962 0.0330132 0.
0.553964 0.0330135 0.
0.555966 0.0330136 0.
0.557967 0.0330134 0.
0.559969 0.0330131 0.
0.56197 0.0330132 0.
0.563972 0.0330139 0.
0.565973 0.0330146 0.
0.567975 0.0330143 0.
0.569976 0.0330136 0.
0.571978 0.0330129 0.
0.573979 0.0330135 0.
0.575981 0.0330144 0.
0.577982 0.0330152 0.
0.579984 0.0330151 0.
0.581986 0.0330151 0.
0.583988 0.0330152 0.
0.58599 0.0330157 0.
0.587991 0.0330162 0.
0.589993 0.0330161 0.
0.591995 0.0330157 0.
0.593996 0.0330153 0.
0.595998 0.0330152 0.
0.598001 0.0330152 0.
0.600003 0.0330152 0.
0.602006 0.0330155 0.
0.604008 0.0330157 0.
0.606011 0.0330158 0.
0.608012 0.0330154 0.
0.610013 0.033015 0.
0.612015 0.0330148 0.
0.614016 0.0330148 0.
0.616018 0.0330148 0.
0.618019 0.0330149 0.
0.620021 0.0330151 0.
0.622022 0.0330153 0.
0.624024 0.0330157 0.
0.626026 0.0330162 0.
0.628028 0.0330165 0.
0.630029 0.0330159 0.
0.63203 0.0330152 0.
0.634031 0.0330149 0.
0.636033 0.0330152 0.
0.638035 0.0330155 0.
0.640036 0.0330154 0.
0.642038 0.0330151 0.
0.644039 0.0330148 0.
0.646041 0.0330145 0.
0.648043 0.0330142 0.
0.650045 0.0330139 0.
0.652046 0.0330147 0.
0.654048 0.0330156 0.
0.656049 0.0330162 0.
0.65805 0.0330164 0.
0.660051 0.0330166 0.
0.662052 0.0330166 0.
0.664053 0.0330165 0.
0.666054 0.0330163 0.
0.668055 0.0330155 0.
0.670057 0.0330144 0.
0.672058 0.0330133 0.
0.674059 0.033014 0.
0.67606 0.0330148 0.
0.678061 0.0330155 0.
0.680061 0.0330158 0.
0.682062 0.0330162 0.
0.684063 0.0330167 0.
0.686064 0.0330175 0.
0.688065 0.0330184 0.
0.690066 0.0330192 0.
0.692066 0.0330199 0.
0.694067 0.0330207 0.
0.696067 0.033022 0.
0.698068 0.0330233 0.
0.499934 0.0350215 0.
0.501935 0.0350205 0.
0.503936 0.0350196 0.
0.505937 0.0350189 0.
0.507937 0.0350184 0.
0.509938 0.0350178 0.
0.511938 0.0350172 0.
0.513938 0.0350163 0.
0.515938 0.0350154 0.
0.517939 0.0350152 0.
0.51994 0.0350154 0.
0.521941 0.0350155 0.
0.523943 0.0350153 0.
0.525944 0.0350149 0.
0.527946 0.0350146 0.
0.529947 0.0350141 0.
0.531949 0.0350136 0.
0.53395 0.0350132 0.
0.535951 0.0350131 0.
0.537953 0.0350131 0.
0.539954 0.0350131 0.
0.541955 0.0350132 0.
0.543956 0.0350133 0.
0.545958 0.0350134 0.
0.547959 0.0350135 0.
0.549961 0.0350136 0.
0.551963 0.0350136 0.
0.553965 0.0350136 0.
0.555967 0.0350136 0.
0.557968 0.0350134 0.
0.55997 0.0350132 0.
0.561971 0.0350134 0.
0.563972 0.0350141 0.
0.565974 0.0350148 0.
0.567975 0.0350145 0.
0.569976 0.0350137 0.
0.571977 0.0350129 0.
0.573979 0.0350138 0.
0.575981 0.035015 0.
0.577982 0.035016 0.
0.579984 0.0350159 0.
0.581985 0.0350157 0.
0.583987 0.0350157 0.
0.585989 0.035016 0.
0.587991 0.0350163 0.
0.589993 0.0350162 0.
0.591995 0.0350157 0.
0.593997 0.0350151 0.
0.595999 0.0350154 0.
0.598001 0.0350159 0.
0.600003 0.0350164 0.
0.602006 0.0350161 0.
0.604009 0.0350159 0.
0.606012 0.0350157 0.
0.608013 0.0350155 0.
0.610014 0.0350153 0.
0.612015 0.0350151 0.
0.614016 0.035015 0.
0.616017 0.0350148 0.
0.618019 0.035015 0.
0.62002 0.0350153 0.
0.622021 0.0350156 0.
0.624023 0.035016 0.
0.626026 0.0350163 0.
0.628027 0.0350166 0.
0.630028 0.0350159 0.
0.632029 0.0350152 0.
0.634031 0.0350148 0.
0.636033 0.0350149 0.
0.638035 0.0350151 0.
0.640036 0.035015 0.
0.642038 0.0350147 0.
0.644039 0.0350144 0.
0.646041 0.0350141 0.
0.648043 0.0350138 0.
0.650045 0.0350135 0.
0.652046 0.0350148 0.
0.654046 0.035016 0.
0.656047 0.035017 0.
0.658049 0.0350169 0.
0.66005 0.0350168 0.
0.662051 0.0350168 0.
0.664052 0.0350169 0.
0.666053 0.0350169 0.
0.668054 0.035016 0.
0.670055 0.0350147 0.
0.672056 0.0350135 0.
0.674058 0.0350143 0.
0.676059 0.0350153 0.
0.67806 0.0350162 0.
0.680061 0.0350162 0.
0.682062 0.0350162 0.
0.684063 0.0350166 0.
0.686064 0.0350177 0.
0.688065 0.0350188 0.
0.690065 0.0350196 0.
0.692065 0.0350204 0.
0.694065 0.0350211 0.
0.696065 0.0350225 0.
0.698066 0.035024 0.
0.499935 0.0370216 0.
0.501936 0.0370209 0.
0.503937 0.0370203 0.
0.505937 0.0370196 0.
0.507938 0.037019 0.
0.509939 0.0370183 0.
0.511939 0.0370176 0.
0.513939 0.0370168 0.
0.51594 0.037016 0.
0.51794 0.0370157 0.
0.519941 0.0370155 0.
0.521942 0.0370153 0.
0.523944 0.0370151 0.
0.525945 0.0370148 0.
0.527946 0.0370145 0.
0.529947 0.0370138 0.
0.531949 0.0370131 0.
0.53395 0.0370127 0.
0.535951 0.0370128 0.
0.537953 0.0370129 0.
0.539954 0.0370131 0.
0.541955 0.0370131 0.
0.543957 0.0370132 0.
0.545958 0.0370133 0.
0.54796 0.0370133 0.
0.549962 0.0370134 0.
0.551963 0.0370135 0.
0.553965 0.0370136 0.
0.555967 0.0370136 0.
0.557968 0.0370134 0.
0.559969 0.0370132 0.
0.561971 0.0370132 0.
0.563972 0.0370137 0.
0.565974 0.0370141 0.
0.567975 0.0370139 0.
0.569976 0.0370133 0.
0.571977 0.0370128 0.
0.573979 0.0370136 0.
0.575981 0.0370146 0.
0.577982 0.0370154 0.
0.579984 0.0370155 0.
0.581985 0.0370155 0.
0.583987 0.0370155 0.
0.585989 0.0370155 0.
0.587991 0.0370155 0.
0.589993 0.0370155 0.
0.591994 0.0370155 0.
0.593996 0.0370155 0.
0.595999 0.0370156 0.
0.598001 0.0370157 0.
0.600003 0.0370158 0.
0.602006 0.0370156 0.
0.604009 0.0370154 0.
0.606011 0.0370153 0.
0.608012 0.0370152 0.
0.610014 0.0370151 0.
0.612015 0.037015 0.
0.614016 0.0370149 0.
0.616018 0.0370148 0.
0.618019 0.037015 0.
0.62002 0.0370154 0.
0.622022 0.0370158 0.
0.624024 0.0370159 0.
0.626025 0.0370159 0.
0.628027 0.0370159 0.
0.630029 0.0370154 0.
0.63203 0.0370149 0.
0.634031 0.0370145 0.
0.636033 0.0370144 0.
0.638035 0.0370143 0.
0.640036 0.0370143 0.
0.642037 0.0370144 0.
0.644039 0.0370144 0.
0.64604 0.0370141 0.
0.648042 0.0370137 0.
0.650044 0.0370133 0.
0.652045 0.0370146 0.
0.654046 0.0370158 0.
0.656047 0.0370168 0.
0.658048 0.0370169 0.
0.660049 0.037017 0.
0.66205 0.0370169 0.
0.664051 0.0370167 0.
0.666053 0.0370165 0.
0.668053 0.0370158 0.
0.670054 0.0370149 0.
0.672055 0.037014 0.
0.674057 0.0370146 0.
0.676058 0.0370154 0.
0.67806 0.0370161 0.
0.68006 0.0370163 0.
0.682061 0.0370166 0.
0.684062 0.0370172 0.
0.686063 0.0370184 0.
0.688063 0.0370196 0.
0.690064 0.0370205 0.
0.692064 0.0370211 0.
0.694064 0.0370217 0.
0.696065 0.0370229 0.
0.698065 0.0370243 0.
0.499937 0.0390216 0.
0.501937 0.0390213 0.
0.503938 0.0390209 0.
0.505938 0.0390204 0.
0.507939 0.0390195 0.
0.509939 0.0390187 0.
0.51194 0.039018 0.
0.51394 0.0390173 0.
0.515941 0.0390167 0.
0.517941 0.0390161 0.
0.519942 0.0390156 0.
0.521943 0.039015 0.
0.523944 0.0390148 0.
0.525946 0.0390147 0.
0.527947 0.0390145 0.
0.529948 0.0390136 0.
0.531949 0.0390127 0.
0.53395 0.0390121 0.
0.535951 0.0390125 0.
0.537953 0.0390128 0.
0.539955 0.039013 0.
0.541956 0.0390131 0.
0.543957 0.0390132 0.
0.545959 0.0390132 0.
0.54796 0.0390132 0.
0.549962 0.0390131 0.
0.551964 0.0390133 0.
0.553966 0.0390136 0.
0.555967 0.0390137 0.
0.557968 0.0390134 0.
0.559969 0.0390131 0.
0.56197 0.039013 0.
0.563972 0.0390132 0.
0.565973 0.0390134 0.
0.567975 0.0390133 0.
0.569976 0.039013 0.
0.571977 0.0390127 0.
0.573979 0.0390134 0.
0.575981 0.0390141 0.
0.577983 0.0390148 0.
0.579984 0.0390151 0.
0.581985 0.0390153 0.
0.583986 0.0390153 0.
0.585988 0.039015 0.
0.58799 0.0390147 0.
0.589992 0.0390148 0.
0.591994 0.0390153 0.
0.593996 0.0390159 0.
0.595998 0.0390157 0.
0.598 0.0390155 0.
0.600003 0.0390152 0.
0.602005 0.0390151 0.
0.604008 0.039015 0.
0.60601 0.0390149 0.
0.608012 0.0390149 0.
0.610013 0.0390149 0.
0.612015 0.0390148 0.
0.614016 0.0390147 0.
0.616018 0.0390147 0.
0.618019 0.039015 0.
0.620021 0.0390154 0.
0.622022 0.0390159 0.
0.624024 0.0390158 0.
0.626025 0.0390155 0.
0.628027 0.0390153 0.
0.630029 0.039015 0.
0.632031 0.0390147 0.
0.634032 0.0390143 0.
0.636033 0.0390139 0.
0.638035 0.0390136 0.
0.640036 0.0390136 0.
0.642037 0.039014 0.
0.644038 0.0390143 0.
0.64604 0.039014 0.
0.648041 0.0390136 0.
0.650043 0.0390131 0.
0.652044 0.0390144 0.
0.654045 0.0390156 0.
0.656046 0.0390166 0.
0.658047 0.0390169 0.
0.660048 0.0390171 0.
0.662049 0.0390171 0.
0.66405 0.0390166 0.
0.666052 0.0390161 0.
0.668053 0.0390156 0.
0.670053 0.0390151 0.
0.672054 0.0390146 0.
0.674056 0.039015 0.
0.676058 0.0390155 0.
0.678059 0.039016 0.
0.68006 0.0390165 0.
0.68206 0.039017 0.
0.684061 0.0390178 0.
0.686061 0.0390191 0.
0.688062 0.0390205 0.
0.690062 0.0390213 0.
0.692063 0.0390218 0.
0.694064 0.0390223 0.
0.696064 0.0390234 0.
0.698064 0.0390246 0.
0.499938 0.0410221 0.
0.501938 0.0410219 0.
0.503939 0.0410215 0.
0.505939 0.041021 0.
0.50794 0.0410201 0.
0.509941 0.0410191 0.
0.511941 0.0410184 0.
0.513942 0.0410177 0.
0.515942 0.0410171 0.
0.517943 0.0410165 0.
0.519944 0.0410159 0.
0.521944 0.0410154 0.
0.523946 0.041015 0.
0.525947 0.0410147 0.
0.527948 0.0410143 0.
0.529949 0.0410134 0.
0.531949 0.0410125 0.
0.53395 0.0410119 0.
0.535952 0.0410122 0.
0.537954 0.0410125 0.
0.539955 0.0410128 0.
0.541956 0.041013 0.
0.543958 0.0410132 0.
0.545959 0.0410132 0.
0.547961 0.0410132 0.
0.549962 0.0410132 0.
0.551964 0.0410134 0.
0.553966 0.0410136 0.
0.555968 0.0410137 0.
0.557969 0.0410134 0.
0.559969 0.0410132 0.
0.561971 0.041013 0.
0.563972 0.041013 0.
0.565974 0.0410129 0.
0.567975 0.0410129 0.
0.569976 0.0410129 0.
0.571978 0.0410128 0.
0.573979 0.0410133 0.
0.575981 0.0410139 0.
0.577983 0.0410145 0.
0.579984 0.0410147 0.
0.581985 0.041015 0.
0.583987 0.0410151 0.
0.585988 0.0410147 0.
0.58799 0.0410144 0.
0.589992 0.0410146 0.
0.591994 0.0410152 0.
0.593996 0.0410158 0.
0.595998 0.0410157 0.
0.598 0.0410152 0.
0.600002 0.0410148 0.
0.602005 0.0410148 0.
0.604007 0.0410148 0.
0.60601 0.0410148 0.
0.608011 0.0410149 0.
0.610013 0.0410149 0.
0.612014 0.0410149 0.
0.614016 0.0410148 0.
0.616017 0.0410148 0.
0.618019 0.0410151 0.
0.620021 0.0410155 0.
0.622022 0.041016 0.
0.624024 0.0410156 0.
0.626025 0.0410151 0.
0.628027 0.0410147 0.
0.630029 0.0410146 0.
0.63203 0.0410145 0.
0.634032 0.0410143 0.
0.636033 0.0410137 0.
0.638034 0.0410132 0.
0.640036 0.0410133 0.
0.642037 0.0410139 0.
0.644038 0.0410144 0.
0.646039 0.0410142 0.
0.64804 0.0410138 0.
0.650042 0.0410133 0.
0.652043 0.0410145 0.
0.654044 0.0410156 0.
0.656045 0.0410165 0.
0.658046 0.0410168 0.
0.660047 0.0410171 0.
0.662048 0.041017 0.
0.66405 0.0410165 0.
0.666051 0.041016 0.
0.668052 0.0410157 0.
0.670053 0.0410154 0.
0.672053 0.0410151 0.
0.674055 0.0410153 0.
0.676056 0.0410155 0.
0.678058 0.0410158 0.
0.680058 0.0410167 0.
0.682059 0.0410176 0.
0.68406 0.0410186 0.
0.68606 0.0410198 0.
0.68806 0.041021 0.
0.690061 0.0410218 0.
0.692062 0.0410223 0.
0.694063 0.0410228 0.
0.696063 0.0410239 0.
0.698063 0.0410251 0.
0.499939 0.043023 0.
0.501939 0.0430225 0.
0.503939 0.043022 0.
0.50594 0.0430214 0.
0.507941 0.0430205 0.
0.509942 0.0430196 0.
0.511943 0.0430187 0.
0.513943 0.043018 0.
0.515943 0.0430172 0.
0.517944 0.0430168 0.
0.519945 0.0430166 0.
0.521946 0.0430163 0.
0.523947 0.0430156 0.
0.525948 0.0430148 0.
0.527949 0.0430139 0.
0.52995 0.0430132 0.
0.531951 0.0430125 0.
0.533952 0.043012 0.
0.535953 0.0430121 0.
0.537955 0.0430122 0.
0.539956 0.0430124 0.
0.541957 0.0430128 0.
0.543959 0.0430131 0.
0.54596 0.0430133 0.
0.547961 0.0430134 0.
0.549961 0.0430136 0.
0.551964 0.0430136 0.
0.553966 0.0430136 0.
0.555968 0.0430136 0.
0.557969 0.0430134 0.
0.55997 0.0430133 0.
0.561971 0.0430131 0.
0.563973 0.0430129 0.
0.565974 0.0430126 0.
0.567976 0.0430127 0.
0.569977 0.0430129 0.
0.571979 0.0430131 0.
0.57398 0.0430135 0.
0.575981 0.0430139 0.
0.577983 0.0430143 0.
0.579984 0.0430145 0.
0.581986 0.0430147 0.
0.583987 0.0430148 0.
0.585989 0.0430147 0.
0.587991 0.0430146 0.
0.589993 0.0430147 0.
0.591994 0.0430151 0.
0.593996 0.0430154 0.
0.595998 0.0430153 0.
0.598 0.043015 0.
0.600002 0.0430147 0.
0.602004 0.0430149 0.
0.604007 0.0430151 0.
0.606009 0.0430152 0.
0.60801 0.0430152 0.
0.610012 0.0430152 0.
0.612013 0.0430152 0.
0.614015 0.0430151 0.
0.616017 0.0430151 0.
0.618019 0.0430153 0.
0.62002 0.0430156 0.
0.622022 0.0430159 0.
0.624023 0.0430154 0.
0.626024 0.0430147 0.
0.628026 0.0430141 0.
0.630028 0.0430143 0.
0.632029 0.0430145 0.
0.634031 0.0430144 0.
0.636032 0.0430137 0.
0.638034 0.0430131 0.
0.640035 0.0430132 0.
0.642036 0.043014 0.
0.644037 0.0430147 0.
0.646039 0.0430146 0.
0.64804 0.0430142 0.
0.650041 0.0430138 0.
0.652042 0.0430148 0.
0.654043 0.0430157 0.
0.656044 0.0430164 0.
0.658045 0.0430167 0.
0.660047 0.0430169 0.
0.662048 0.0430169 0.
0.664049 0.0430166 0.
0.66605 0.0430163 0.
0.668051 0.043016 0.
0.670052 0.0430158 0.
0.672053 0.0430155 0.
0.674054 0.0430155 0.
0.676055 0.0430154 0.
0.678056 0.0430155 0.
0.680057 0.043017 0.
0.682057 0.0430185 0.
0.684058 0.0430198 0.
0.686059 0.0430204 0.
0.688059 0.0430211 0.
0.69006 0.0430218 0.
0.692061 0.0430226 0.
0.694062 0.0430233 0.
0.696062 0.0430245 0.
0.698062 0.0430258 0.
0.49994 0.0450239 0.
0.50194 0.0450232 0.
0.50394 0.0450225 0.
0.505941 0.0450219 0.
0.507942 0.0450209 0.
0.509943 0.04502 0.
0.511944 0.0450191 0.
0.513944 0.0450182 0.
0.515945 0.0450174 0.
0.517945 0.0450171 0.
0.519946 0.0450172 0.
0.521947 0.0450173 0.
0.523948 0.0450162 0.
0.525949 0.0450148 0.
0.527951 0.0450136 0.
0.529952 0.0450131 0.
0.531953 0.0450126 0.
0.533954 0.0450121 0.
0.535955 0.0450119 0.
0.537956 0.0450118 0.
0.539957 0.045012 0.
0.541959 0.0450125 0.
0.54396 0.0450131 0.
0.54596 0.0450134 0.
0.547961 0.0450137 0.
0.549961 0.0450139 0.
0.551963 0.0450138 0.
0.553966 0.0450136 0.
0.555969 0.0450135 0.
0.55797 0.0450135 0.
0.559971 0.0450134 0.
0.561972 0.0450132 0.
0.563974 0.0450128 0.
0.565975 0.0450123 0.
0.567976 0.0450125 0.
0.569978 0.0450129 0.
0.571979 0.0450134 0.
0.573981 0.0450137 0.
0.575982 0.045014 0.
0.577983 0.0450142 0.
0.579984 0.0450143 0.
0.581986 0.0450144 0.
0.583988 0.0450145 0.
0.585989 0.0450146 0.
0.587991 0.0450148 0.
0.589993 0.0450149 0.
0.591995 0.045015 0.
0.593997 0.0450151 0.
0.595998 0.045015 0.
0.598 0.0450148 0.
0.600001 0.0450147 0.
0.602003 0.045015 0.
0.604006 0.0450153 0.
0.606008 0.0450156 0.
0.608009 0.0450156 0.
0.610011 0.0450155 0.
0.612012 0.0450155 0.
0.614014 0.0450154 0.
0.616016 0.0450153 0.
0.618018 0.0450155 0.
0.62002 0.0450157 0.
0.622021 0.0450159 0.
0.624022 0.0450151 0.
0.626024 0.0450143 0.
0.628025 0.0450136 0.
0.630027 0.045014 0.
0.632029 0.0450145 0.
0.63403 0.0450145 0.
0.636032 0.0450138 0.
0.638033 0.045013 0.
0.640034 0.0450132 0.
0.642035 0.045014 0.
0.644037 0.0450149 0.
0.646038 0.0450149 0.
0.648039 0.0450146 0.
0.650041 0.0450144 0.
0.652041 0.0450151 0.
0.654042 0.0450158 0.
0.656043 0.0450164 0.
0.658044 0.0450166 0.
0.660046 0.0450168 0.
0.662047 0.0450168 0.
0.664048 0.0450167 0.
0.666049 0.0450166 0.
0.66805 0.0450164 0.
0.670051 0.0450162 0.
0.672052 0.045016 0.
0.674053 0.0450156 0.
0.676053 0.0450153 0.
0.678054 0.0450153 0.
0.680055 0.0450174 0.
0.682055 0.0450195 0.
0.684056 0.0450209 0.
0.686057 0.0450211 0.
0.688058 0.0450212 0.
0.690059 0.0450219 0.
0.69206 0.0450229 0.
0.69406 0.0450238 0.
0.69606 0.0450251 0.
0.69806 0.0450266 0.
0.49994 0.0470243 0.
0.501941 0.0470234 0.
0.503941 0.0470225 0.
0.505942 0.0470217 0.
0.507943 0.0470209 0.
0.509944 0.0470201 0.
0.511945 0.0470193 0.
0.513946 0.0470183 0.
0.515946 0.0470174 0.
0.517947 0.047017 0.
0.519948 0.0470169 0.
0.521949 0.0470168 0.
0.52395 0.0470159 0.
0.525951 0.0470148 0.
0.527952 0.0470139 0.
0.529953 0.0470134 0.
0.531954 0.047013 0.
0.533955 0.0470126 0.
0.535956 0.0470123 0.
0.537957 0.047012 0.
0.539958 0.047012 0.
0.541959 0.0470124 0.
0.54396 0.0470127 0.
0.545961 0.047013 0.
0.547962 0.0470133 0.
0.549962 0.0470137 0.
0.551965 0.0470135 0.
0.553967 0.0470132 0.
0.555969 0.047013 0.
0.55797 0.0470131 0.
0.559971 0.0470132 0.
0.561972 0.0470131 0.
0.563974 0.0470127 0.
0.565975 0.0470123 0.
0.567977 0.0470123 0.
0.569978 0.0470125 0.
0.57198 0.0470126 0.
0.573981 0.0470131 0.
0.575982 0.0470136 0.
0.577983 0.047014 0.
0.579985 0.0470141 0.
0.581986 0.0470143 0.
0.583988 0.0470144 0.
0.585989 0.0470145 0.
0.587991 0.0470146 0.
0.589993 0.0470146 0.
0.591994 0.0470145 0.
0.593996 0.0470144 0.
0.595998 0.0470142 0.
0.598 0.0470141 0.
0.600001 0.047014 0.
0.602003 0.0470145 0.
0.604005 0.0470149 0.
0.606007 0.0470152 0.
0.608009 0.047015 0.
0.610011 0.0470148 0.
0.612012 0.0470147 0.
0.614014 0.0470147 0.
0.616016 0.0470146 0.
0.618018 0.0470148 0.
0.620019 0.0470152 0.
0.62202 0.0470155 0.
0.624022 0.0470147 0.
0.626024 0.0470138 0.
0.628025 0.0470131 0.
0.630027 0.0470135 0.
0.632028 0.047014 0.
0.634029 0.047014 0.
0.636031 0.0470134 0.
0.638032 0.0470128 0.
0.640033 0.0470131 0.
0.642035 0.0470141 0.
0.644036 0.047015 0.
0.646037 0.047015 0.
0.648039 0.0470147 0.
0.650041 0.0470143 0.
0.652041 0.0470149 0.
0.654042 0.0470155 0.
0.656042 0.0470161 0.
0.658044 0.0470163 0.
0.660045 0.0470166 0.
0.662046 0.0470166 0.
0.664047 0.0470165 0.
0.666048 0.0470165 0.
0.668049 0.0470162 0.
0.67005 0.0470159 0.
0.67205 0.0470156 0.
0.674051 0.0470156 0.
0.676052 0.0470157 0.
0.678053 0.0470159 0.
0.680054 0.0470176 0.
0.682055 0.0470194 0.
0.684055 0.0470207 0.
0.686056 0.0470211 0.
0.688057 0.0470216 0.
0.690057 0.0470222 0.
0.692058 0.047023 0.
0.694059 0.0470238 0.
0.696059 0.0470255 0.
0.698059 0.0470274 0.
0.499941 0.0490247 0.
0.501941 0.0490237 0.
0.503942 0.0490225 0.
0.505943 0.0490215 0.
0.507944 0.0490208 0.
0.509945 0.0490202 0.
0.511946 0.0490194 0.
0.513947 0.0490184 0.
0.515948 0.0490174 0.
0.517949 0.0490169 0.
0.51995 0.0490165 0.
0.521951 0.0490162 0.
0.523951 0.0490156 0.
0.525952 0.0490148 0.
0.527953 0.0490141 0.
0.529954 0.0490138 0.
0.531955 0.0490135 0.
0.533956 0.0490131 0.
0.535957 0.0490127 0.
0.537958 0.0490123 0.
0.539959 0.0490121 0.
0.54196 0.0490122 0.
0.54396 0.0490122 0.
0.545962 0.0490126 0.
0.547963 0.049013 0.
0.549964 0.0490134 0.
0.551966 0.0490131 0.
0.553968 0.0490128 0.
0.555969 0.0490126 0.
0.55797 0.0490128 0.
0.559971 0.049013 0.
0.561972 0.0490129 0.
0.563974 0.0490125 0.
0.565976 0.0490122 0.
0.567977 0.049012 0.
0.569978 0.049012 0.
0.57198 0.0490119 0.
0.573981 0.0490125 0.
0.575983 0.0490132 0.
0.577984 0.0490138 0.
0.579985 0.049014 0.
0.581987 0.0490142 0.
0.583988 0.0490144 0.
0.58599 0.0490144 0.
0.587991 0.0490144 0.
0.589992 0.0490143 0.
0.591994 0.049014 0.
0.593996 0.0490137 0.
0.595998 0.0490135 0.
0.598 0.0490134 0.
0.600002 0.0490134 0.
0.602003 0.0490139 0.
0.604005 0.0490145 0.
0.606007 0.0490148 0.
0.608009 0.0490145 0.
0.61001 0.0490141 0.
0.612012 0.0490139 0.
0.614014 0.0490139 0.
0.616016 0.0490139 0.
0.618017 0.0490142 0.
0.620018 0.0490147 0.
0.62202 0.0490151 0.
0.624021 0.0490143 0.
0.626023 0.0490133 0.
0.628025 0.0490125 0.
0.630026 0.049013 0.
0.632027 0.0490134 0.
0.634028 0.0490135 0.
0.63603 0.0490131 0.
0.638031 0.0490126 0.
0.640033 0.049013 0.
0.642034 0.0490141 0.
0.644035 0.0490151 0.
0.646037 0.0490151 0.
0.648039 0.0490147 0.
0.65004 0.0490143 0.
0.652041 0.0490148 0.
0.654041 0.0490153 0.
0.656042 0.0490157 0.
0.658043 0.049016 0.
0.660044 0.0490163 0.
0.662045 0.0490165 0.
0.664046 0.0490164 0.
0.666047 0.0490163 0.
0.668048 0.049016 0.
0.670048 0.0490157 0.
0.672049 0.0490153 0.
0.67405 0.0490156 0.
0.676051 0.049016 0.
0.678052 0.0490165 0.
0.680053 0.0490179 0.
0.682054 0.0490193 0.
0.684054 0.0490204 0.
0.686055 0.0490212 0.
0.688055 0.049022 0.
0.690056 0.0490226 0.
0.692057 0.0490232 0.
0.694057 0.0490237 0.
0.696058 0.0490258 0.
0.698058 0.0490283 0.
0.499942 0.0510249 0.
0.501943 0.0510237 0.
0.503943 0.0510225 0.
0.505944 0.0510215 0.
0.507945 0.051021 0.
0.509946 0.0510205 0.
0.511947 0.0510197 0.
0.513948 0.0510186 0.
0.515949 0.0510174 0.
0.51795 0.0510168 0.
0.519951 0.0510163 0.
0.521952 0.0510159 0.
0.523953 0.0510153 0.
0.525953 0.0510147 0.
0.527954 0.0510141 0.
0.529955 0.051014 0.
0.531956 0.0510138 0.
0.533957 0.0510136 0.
0.535958 0.051013 0.
0.537959 0.0510124 0.
0.53996 0.051012 0.
0.541961 0.0510119 0.
0.543961 0.0510118 0.
0.545963 0.0510122 0.
0.547964 0.0510126 0.
0.549966 0.051013 0.
0.551967 0.0510128 0.
0.553968 0.0510127 0.
0.55597 0.0510126 0.
0.557971 0.0510126 0.
0.559972 0.0510127 0.
0.561973 0.0510127 0.
0.563975 0.0510125 0.
0.565976 0.0510122 0.
0.567977 0.051012 0.
0.569979 0.0510117 0.
0.57198 0.0510114 0.
0.573981 0.051012 0.
0.575983 0.0510128 0.
0.577985 0.0510135 0.
0.579986 0.0510137 0.
0.581987 0.051014 0.
0.583989 0.0510142 0.
0.58599 0.0510143 0.
0.587991 0.0510145 0.
0.589993 0.0510143 0.
0.591994 0.0510139 0.
0.593996 0.0510134 0.
0.595997 0.0510134 0.
0.597999 0.0510134 0.
0.600001 0.0510135 0.
0.602003 0.0510139 0.
0.604005 0.0510143 0.
0.606006 0.0510145 0.
0.608008 0.051014 0.
0.61001 0.0510136 0.
0.612012 0.0510134 0.
0.614013 0.0510136 0.
0.616015 0.0510137 0.
0.618016 0.051014 0.
0.620018 0.0510144 0.
0.622019 0.0510148 0.
0.624021 0.0510141 0.
0.626023 0.0510132 0.
0.628025 0.0510124 0.
0.630026 0.0510127 0.
0.632027 0.0510131 0.
0.634028 0.0510132 0.
0.636029 0.0510129 0.
0.638031 0.0510126 0.
0.640032 0.051013 0.
0.642033 0.051014 0.
0.644035 0.051015 0.
0.646036 0.0510149 0.
0.648038 0.0510145 0.
0.65004 0.0510142 0.
0.65204 0.0510147 0.
0.654041 0.0510152 0.
0.656041 0.0510156 0.
0.658042 0.0510158 0.
0.660043 0.0510161 0.
0.662044 0.0510162 0.
0.664045 0.0510163 0.
0.666046 0.0510163 0.
0.668047 0.0510161 0.
0.670048 0.0510158 0.
0.672048 0.0510156 0.
0.674049 0.051016 0.
0.67605 0.0510166 0.
0.678052 0.0510172 0.
0.680052 0.0510184 0.
0.682053 0.0510195 0.
0.684053 0.0510206 0.
0.686053 0.0510215 0.
0.688054 0.0510224 0.
0.690054 0.0510231 0.
0.692055 0.0510236 0.
0.694056 0.0510241 0.
0.696056 0.0510263 0.
0.698057 0.0510289 0.
0.499944 0.0530248 0.
0.501945 0.0530236 0.
0.503945 0.0530226 0.
0.505946 0.0530218 0.
0.507947 0.0530213 0.
0.509947 0.0530208 0.
0.511948 0.05302 0.
0.513949 0.0530187 0.
0.515951 0.0530175 0.
0.517951 0.0530167 0.
0.519952 0.0530161 0.
0.521953 0.0530156 0.
0.523954 0.053015 0.
0.525954 0.0530144 0.
0.527955 0.0530138 0.
0.529956 0.053014 0.
0.531957 0.0530141 0.
0.533958 0.0530139 0.
0.535959 0.0530131 0.
0.53796 0.0530123 0.
0.539961 0.0530118 0.
0.541962 0.0530117 0.
0.543963 0.0530115 0.
0.545964 0.0530118 0.
0.547966 0.0530121 0.
0.549967 0.0530125 0.
0.551968 0.0530127 0.
0.553969 0.0530128 0.
0.55597 0.0530129 0.
0.557972 0.0530127 0.
0.559973 0.0530125 0.
0.561974 0.0530124 0.
0.563975 0.0530125 0.
0.565976 0.0530125 0.
0.567977 0.0530121 0.
0.569979 0.0530116 0.
0.57198 0.053011 0.
0.573981 0.0530117 0.
0.575983 0.0530125 0.
0.577985 0.0530132 0.
0.579987 0.0530134 0.
0.581988 0.0530135 0.
0.583989 0.0530138 0.
0.585991 0.0530143 0.
0.587992 0.0530148 0.
0.589993 0.0530147 0.
0.591995 0.0530142 0.
0.593996 0.0530137 0.
0.595997 0.0530138 0.
0.597999 0.053014 0.
0.6 0.0530143 0.
0.602002 0.0530143 0.
0.604004 0.0530142 0.
0.606006 0.0530141 0.
0.608008 0.0530137 0.
0.61001 0.0530133 0.
0.612011 0.0530132 0.
0.614013 0.0530136 0.
0.616014 0.0530139 0.
0.618015 0.0530142 0.
0.620017 0.0530144 0.
0.622018 0.0530146 0.
0.62402 0.053014 0.
0.626022 0.0530133 0.
0.628024 0.0530126 0.
0.630025 0.0530128 0.
0.632027 0.0530129 0.
0.634028 0.053013 0.
0.636029 0.0530128 0.
0.638031 0.0530126 0.
0.640032 0.053013 0.
0.642033 0.0530138 0.
0.644034 0.0530146 0.
0.646036 0.0530145 0.
0.648037 0.0530142 0.
0.650038 0.0530139 0.
0.652039 0.0530145 0.
0.65404 0.0530151 0.
0.656041 0.0530156 0.
0.658042 0.0530157 0.
0.660042 0.0530158 0.
0.662043 0.0530159 0.
0.664044 0.0530162 0.
0.666045 0.0530165 0.
0.668046 0.0530165 0.
0.670047 0.0530164 0.
0.672048 0.0530163 0.
0.674049 0.0530168 0.
0.67605 0.0530173 0.
0.678051 0.0530179 0.
0.680051 0.053019 0.
0.682051 0.0530201 0.
0.684052 0.0530212 0.
0.686052 0.0530221 0.
0.688052 0.053023 0.
0.690053 0.0530237 0.
0.692053 0.0530243 0.
0.694054 0.0530249 0.
0.696054 0.0530269 0.
0.698055 0.0530292 0.
0.499946 0.0550246 0.
0.501947 0.0550234 0.
0.503947 0.0550227 0.
0.505948 0.0550221 0.
0.507948 0.0550216 0.
0.509949 0.0550211 0.
0.51195 0.0550203 0.
0.513951 0.0550189 0.
0.515952 0.0550175 0.
0.517953 0.0550166 0.
0.519953 0.055016 0.
0.521953 0.0550154 0.
0.523955 0.0550147 0.
0.525956 0.0550141 0.
0.527957 0.0550135 0.
0.529957 0.055014 0.
0.531958 0.0550144 0.
0.533958 0.0550143 0.
0.53596 0.0550132 0.
0.537961 0.0550121 0.
0.539962 0.0550115 0.
0.541964 0.0550114 0.
0.543965 0.0550112 0.
0.545966 0.0550114 0.
0.547967 0.0550117 0.
0.549968 0.055012 0.
0.551969 0.0550125 0.
0.55397 0.055013 0.
0.555971 0.0550133 0.
0.557973 0.0550128 0.
0.559974 0.0550123 0.
0.561975 0.0550122 0.
0.563976 0.0550124 0.
0.565977 0.0550127 0.
0.567978 0.0550122 0.
0.569979 0.0550114 0.
0.57198 0.0550107 0.
0.573982 0.0550113 0.
0.575984 0.0550122 0.
0.577986 0.0550129 0.
0.579987 0.055013 0.
0.581988 0.0550131 0.
0.583989 0.0550134 0.
0.585991 0.0550142 0.
0.587993 0.055015 0.
0.589994 0.0550151 0.
0.591995 0.0550145 0.
0.593996 0.0550139 0.
0.595997 0.0550142 0.
0.597998 0.0550147 0.
0.599999 0.0550151 0.
0.602001 0.0550147 0.
0.604003 0.0550142 0.
0.606005 0.0550137 0.
0.608007 0.0550134 0.
0.610009 0.055013 0.
0.612011 0.0550131 0.
0.614012 0.0550136 0.
0.616013 0.0550142 0.
0.618014 0.0550144 0.
0.620016 0.0550144 0.
0.622017 0.0550145 0.
0.624019 0.0550139 0.
0.626021 0.0550133 0.
0.628023 0.0550128 0.
0.630025 0.0550128 0.
0.632026 0.0550128 0.
0.634028 0.0550128 0.
0.636029 0.0550127 0.
0.638031 0.0550127 0.
0.640032 0.055013 0.
0.642033 0.0550137 0.
0.644034 0.0550143 0.
0.646035 0.0550142 0.
0.648036 0.0550139 0.
0.650037 0.0550136 0.
0.652038 0.0550144 0.
0.65404 0.0550151 0.
0.656041 0.0550156 0.
0.658041 0.0550155 0.
0.660041 0.0550154 0.
0.662042 0.0550156 0.
0.664043 0.0550161 0.
0.666044 0.0550166 0.
0.668045 0.0550168 0.
0.670047 0.0550169 0.
0.672048 0.055017 0.
0.674049 0.0550175 0.
0.676049 0.055018 0.
0.67805 0.0550186 0.
0.68005 0.0550196 0.
0.68205 0.0550207 0.
0.68405 0.0550217 0.
0.686051 0.0550226 0.
0.688051 0.0550236 0.
0.690051 0.0550244 0.
0.692051 0.055025 0.
0.694052 0.0550257 0.
0.696052 0.0550275 0.
0.698053 0.0550296 0.
0.499947 0.0570244 0.
0.501947 0.0570237 0.
0.503948 0.0570231 0.
0.505949 0.0570225 0.
0.507949 0.0570219 0.
0.50995 0.0570212 0.
0.511951 0.0570203 0.
0.513952 0.057019 0.
0.515953 0.0570178 0.
0.517953 0.0570169 0.
0.519954 0.0570162 0.
0.521955 0.0570156 0.
0.523956 0.0570149 0.
0.525957 0.0570142 0.
0.527958 0.0570137 0.
0.529958 0.0570139 0.
0.531959 0.057014 0.
0.53396 0.0570139 0.
0.535961 0.0570131 0.
0.537962 0.0570123 0.
0.539963 0.0570118 0.
0.541964 0.0570115 0.
0.543966 0.0570112 0.
0.545967 0.0570114 0.
0.547968 0.0570116 0.
0.549969 0.0570119 0.
0.55197 0.0570123 0.
0.553971 0.0570128 0.
0.555972 0.0570131 0.
0.557973 0.0570127 0.
0.559974 0.0570123 0.
0.561975 0.0570122 0.
0.563976 0.0570123 0.
0.565977 0.0570125 0.
0.567978 0.0570121 0.
0.569979 0.0570114 0.
0.571979 0.0570107 0.
0.573981 0.0570113 0.
0.575983 0.057012 0.
0.577985 0.0570127 0.
0.579986 0.0570127 0.
0.581988 0.0570127 0.
0.583989 0.057013 0.
0.585991 0.0570137 0.
0.587992 0.0570143 0.
0.589994 0.0570145 0.
0.591995 0.0570143 0.
0.593996 0.0570141 0.
0.595997 0.0570143 0.
0.597999 0.0570147 0.
0.6 0.057015 0.
0.602002 0.0570144 0.
0.604004 0.0570138 0.
0.606006 0.0570133 0.
0.608008 0.0570132 0.
0.610009 0.057013 0.
0.612011 0.0570131 0.
0.614012 0.0570135 0.
0.616013 0.0570139 0.
0.618015 0.057014 0.
0.620016 0.057014 0.
0.622018 0.0570139 0.
0.62402 0.0570134 0.
0.626021 0.0570127 0.
0.628023 0.0570122 0.
0.630024 0.0570123 0.
0.632026 0.0570123 0.
0.634027 0.0570124 0.
0.636028 0.0570124 0.
0.638029 0.0570125 0.
0.640031 0.0570128 0.
0.642032 0.0570134 0.
0.644033 0.057014 0.
0.646034 0.0570141 0.
0.648035 0.0570141 0.
0.650036 0.0570141 0.
0.652037 0.0570145 0.
0.654038 0.0570149 0.
0.656039 0.0570152 0.
0.65804 0.0570152 0.
0.660041 0.0570152 0.
0.662041 0.0570153 0.
0.664042 0.0570158 0.
0.666043 0.0570163 0.
0.668044 0.0570165 0.
0.670045 0.0570167 0.
0.672046 0.0570169 0.
0.674047 0.0570175 0.
0.676048 0.0570182 0.
0.678048 0.0570189 0.
0.680049 0.0570198 0.
0.682049 0.0570207 0.
0.684049 0.0570216 0.
0.68605 0.0570226 0.
0.68805 0.0570236 0.
0.690051 0.0570245 0.
0.692051 0.0570255 0.
0.694051 0.0570265 0.
0.696051 0.0570279 0.
0.698052 0.0570295 0.
0.499947 0.0590243 0.
0.501948 0.0590239 0.
0.503949 0.0590235 0.
0.50595 0.059023 0.
0.507951 0.0590221 0.
0.509951 0.0590212 0.
0.511952 0.0590203 0.
0.513953 0.0590192 0.
0.515953 0.0590181 0.
0.517954 0.0590173 0.
0.519955 0.0590165 0.
0.521956 0.0590157 0.
0.523957 0.0590151 0.
0.525958 0.0590144 0.
0.527958 0.0590138 0.
0.529959 0.0590137 0.
0.53196 0.0590137 0.
0.533961 0.0590135 0.
0.535962 0.059013 0.
0.537963 0.0590124 0.
0.539964 0.059012 0.
0.541965 0.0590116 0.
0.543966 0.0590113 0.
0.545967 0.0590114 0.
0.547968 0.0590116 0.
0.549969 0.0590118 0.
0.55197 0.0590122 0.
0.553971 0.0590127 0.
0.555972 0.0590129 0.
0.557973 0.0590126 0.
0.559974 0.0590124 0.
0.561975 0.0590122 0.
0.563977 0.0590123 0.
0.565978 0.0590123 0.
0.567979 0.059012 0.
0.569979 0.0590113 0.
0.571979 0.0590107 0.
0.573981 0.0590112 0.
0.575983 0.0590119 0.
0.577984 0.0590125 0.
0.579986 0.0590124 0.
0.581987 0.0590124 0.
0.583988 0.0590125 0.
0.58599 0.0590131 0.
0.587992 0.0590137 0.
0.589993 0.059014 0.
0.591994 0.0590141 0.
0.593995 0.0590143 0.
0.595997 0.0590145 0.
0.597999 0.0590146 0.
0.600001 0.0590148 0.
0.602003 0.0590141 0.
0.604004 0.0590134 0.
0.606006 0.0590128 0.
0.608008 0.0590129 0.
0.610009 0.059013 0.
0.612011 0.0590131 0.
0.614012 0.0590134 0.
0.616013 0.0590136 0.
0.618015 0.0590136 0.
0.620017 0.0590135 0.
0.622018 0.0590134 0.
0.62402 0.0590128 0.
0.626021 0.0590121 0.
0.628022 0.0590116 0.
0.630024 0.0590117 0.
0.632025 0.0590119 0.
0.634026 0.059012 0.
0.636027 0.0590121 0.
0.638028 0.0590122 0.
0.64003 0.0590126 0.
0.642031 0.0590131 0.
0.644033 0.0590136 0.
0.646034 0.059014 0.
0.648034 0.0590143 0.
0.650035 0.0590146 0.
0.652036 0.0590147 0.
0.654037 0.0590147 0.
0.656038 0.0590148 0.
0.658039 0.0590149 0.
0.66004 0.0590149 0.
0.662041 0.0590151 0.
0.664041 0.0590155 0.
0.666042 0.0590159 0.
0.668043 0.0590162 0.
0.670044 0.0590165 0.
0.672045 0.0590168 0.
0.674046 0.0590176 0.
0.676046 0.0590184 0.
0.678047 0.0590192 0.
0.680048 0.05902 0.
0.682048 0.0590208 0.
0.684049 0.0590216 0.
0.686049 0.0590226 0.
0.68805 0.0590235 0.
0.69005 0.0590247 0.
0.69205 0.059026 0.
0.69405 0.0590273 0.
0.696051 0.0590284 0.
0.698051 0.0590294 0.
0.499949 0.0610246 0.
0.50195 0.0610241 0.
0.503951 0.0610236 0.
0.505951 0.0610231 0.
0.507952 0.0610221 0.
0.509953 0.0610212 0.
0.511953 0.0610202 0.
0.513954 0.0610192 0.
0.515954 0.0610182 0.
0.517955 0.0610174 0.
0.519956 0.0610167 0.
0.521957 0.0610159 0.
0.523958 0.0610152 0.
0.525958 0.0610145 0.
0.527959 0.0610138 0.
0.52996 0.0610136 0.
0.531961 0.0610135 0.
0.533962 0.0610133 0.
0.535963 0.061013 0.
0.537964 0.0610126 0.
0.539965 0.0610122 0.
0.541966 0.0610118 0.
0.543967 0.0610113 0.
0.545968 0.0610114 0.
0.547969 0.0610116 0.
0.549969 0.0610118 0.
0.55197 0.0610122 0.
0.553971 0.0610126 0.
0.555972 0.0610128 0.
0.557973 0.0610125 0.
0.559974 0.0610121 0.
0.561975 0.061012 0.
0.563977 0.0610123 0.
0.565978 0.0610125 0.
0.567979 0.0610122 0.
0.569979 0.0610115 0.
0.57198 0.0610109 0.
0.573981 0.0610113 0.
0.575983 0.0610118 0.
0.577984 0.0610122 0.
0.579985 0.0610122 0.
0.581987 0.0610123 0.
0.583988 0.0610125 0.
0.58599 0.0610129 0.
0.587991 0.0610133 0.
0.589992 0.0610137 0.
0.591994 0.061014 0.
0.593995 0.0610143 0.
0.595996 0.0610145 0.
0.597998 0.0610147 0.
0.6 0.0610148 0.
0.602002 0.061014 0.
0.604004 0.0610132 0.
0.606006 0.0610126 0.
0.608008 0.0610128 0.
0.610009 0.061013 0.
0.61201 0.0610132 0.
0.614012 0.0610132 0.
0.616013 0.0610133 0.
0.618015 0.0610133 0.
0.620016 0.0610132 0.
0.622018 0.0610132 0.
0.624019 0.0610126 0.
0.626021 0.061012 0.
0.628022 0.0610115 0.
0.630023 0.0610116 0.
0.632024 0.0610117 0.
0.634025 0.0610118 0.
0.636026 0.0610119 0.
0.638027 0.061012 0.
0.640029 0.0610124 0.
0.64203 0.0610129 0.
0.644032 0.0610134 0.
0.646033 0.0610139 0.
0.648033 0.0610144 0.
0.650034 0.0610148 0.
0.652035 0.0610146 0.
0.654036 0.0610144 0.
0.656036 0.0610143 0.
0.658038 0.0610145 0.
0.660039 0.0610147 0.
0.66204 0.061015 0.
0.66404 0.0610153 0.
0.666041 0.0610156 0.
0.668042 0.061016 0.
0.670042 0.0610164 0.
0.672043 0.0610169 0.
0.674044 0.0610176 0.
0.676045 0.0610184 0.
0.678046 0.0610191 0.
0.680047 0.0610199 0.
0.682047 0.0610207 0.
0.684048 0.0610215 0.
0.686048 0.0610225 0.
0.688049 0.0610234 0.
0.690049 0.0610247 0.
0.692049 0.0610264 0.
0.69405 0.061028 0.
0.69605 0.061029 0.
0.69805 0.0610299 0.
0.499951 0.063025 0.
0.501952 0.0630242 0.
0.503952 0.0630235 0.
0.505953 0.0630228 0.
0.507953 0.0630219 0.
0.509954 0.063021 0.
0.511955 0.0630201 0.
0.513955 0.063019 0.
0.515955 0.0630179 0.
0.517956 0.0630172 0.
0.519957 0.0630167 0.
0.521958 0.0630162 0.
0.523959 0.0630153 0.
0.52596 0.0630144 0.
0.52796 0.0630136 0.
0.529961 0.0630135 0.
0.531962 0.0630135 0.
0.533963 0.0630133 0.
0.535964 0.0630131 0.
0.537965 0.0630128 0.
0.539965 0.0630124 0.
0.541966 0.0630118 0.
0.543967 0.0630113 0.
0.545968 0.0630113 0.
0.547969 0.0630116 0.
0.54997 0.0630118 0.
0.551971 0.0630122 0.
0.553972 0.0630125 0.
0.555973 0.0630127 0.
0.557974 0.0630122 0.
0.559975 0.0630117 0.
0.561976 0.0630117 0.
0.563977 0.0630124 0.
0.565978 0.0630131 0.
0.567978 0.0630128 0.
0.569979 0.063012 0.
0.57198 0.0630112 0.
0.573981 0.0630114 0.
0.575983 0.0630116 0.
0.577984 0.0630119 0.
0.579986 0.0630122 0.
0.581987 0.0630125 0.
0.583989 0.0630127 0.
0.58599 0.063013 0.
0.587991 0.0630134 0.
0.589992 0.0630137 0.
0.591993 0.063014 0.
0.593994 0.0630142 0.
0.595996 0.0630145 0.
0.597997 0.0630147 0.
0.599998 0.063015 0.
0.602001 0.063014 0.
0.604004 0.0630131 0.
0.606006 0.0630125 0.
0.608007 0.0630128 0.
0.610008 0.0630131 0.
0.612009 0.0630131 0.
0.614011 0.063013 0.
0.616012 0.0630128 0.
0.618014 0.0630129 0.
0.620015 0.0630132 0.
0.622017 0.0630135 0.
0.624018 0.0630129 0.
0.62602 0.0630123 0.
0.628021 0.0630118 0.
0.630022 0.0630118 0.
0.632023 0.0630118 0.
0.634024 0.0630118 0.
0.636026 0.0630119 0.
0.638027 0.0630119 0.
0.640028 0.0630122 0.
0.642029 0.0630127 0.
0.64403 0.0630133 0.
0.646031 0.0630138 0.
0.648032 0.0630143 0.
0.650033 0.0630149 0.
0.652034 0.0630144 0.
0.654034 0.0630139 0.
0.656035 0.0630136 0.
0.658037 0.0630141 0.
0.660038 0.0630146 0.
0.662039 0.063015 0.
0.664039 0.0630152 0.
0.66604 0.0630153 0.
0.668041 0.0630158 0.
0.670041 0.0630164 0.
0.672042 0.063017 0.
0.674043 0.0630175 0.
0.676044 0.063018 0.
0.678045 0.0630186 0.
0.680046 0.0630195 0.
0.682046 0.0630205 0.
0.684047 0.0630215 0.
0.686047 0.0630223 0.
0.688047 0.0630232 0.
0.690048 0.0630247 0.
0.692048 0.0630267 0.
0.694049 0.0630287 0.
0.696049 0.0630299 0.
0.69805 0.0630309 0.
0.499954 0.065025 0.
0.501954 0.0650243 0.
0.503954 0.0650233 0.
0.505954 0.0650225 0.
0.507955 0.0650217 0.
0.509956 0.0650209 0.
0.511956 0.0650199 0.
0.513956 0.0650188 0.
0.515957 0.0650176 0.
0.517958 0.065017 0.
0.519959 0.0650167 0.
0.52196 0.0650164 0.
0.52396 0.0650154 0.
0.525961 0.0650144 0.
0.527961 0.0650135 0.
0.529962 0.0650134 0.
0.531963 0.0650134 0.
0.533964 0.0650133 0.
0.535965 0.0650132 0.
0.537965 0.0650131 0.
0.539966 0.0650127 0.
0.541967 0.0650119 0.
0.543967 0.0650112 0.
0.545968 0.0650113 0.
0.547969 0.0650116 0.
0.54997 0.0650119 0.
0.551971 0.0650122 0.
0.553972 0.0650125 0.
0.555973 0.0650125 0.
0.557974 0.0650119 0.
0.559975 0.0650113 0.
0.561976 0.0650114 0.
0.563977 0.0650125 0.
0.565977 0.0650137 0.
0.567978 0.0650134 0.
0.569979 0.0650125 0.
0.57198 0.0650115 0.
0.573981 0.0650114 0.
0.575983 0.0650115 0.
0.577984 0.0650116 0.
0.579986 0.0650121 0.
0.581988 0.0650126 0.
0.583989 0.065013 0.
0.58599 0.0650132 0.
0.587991 0.0650134 0.
0.589992 0.0650136 0.
0.591993 0.0650139 0.
0.593994 0.0650142 0.
0.595995 0.0650145 0.
0.597996 0.0650148 0.
0.599997 0.0650151 0.
0.602 0.0650141 0.
0.604003 0.0650131 0.
0.606006 0.0650123 0.
0.608007 0.0650127 0.
0.610008 0.0650131 0.
0.612009 0.0650131 0.
0.61401 0.0650127 0.
0.616012 0.0650123 0.
0.618013 0.0650126 0.
0.620014 0.0650132 0.
0.622015 0.0650137 0.
0.624017 0.0650132 0.
0.626019 0.0650126 0.
0.628021 0.0650121 0.
0.630022 0.065012 0.
0.632023 0.0650119 0.
0.634024 0.0650119 0.
0.636025 0.0650118 0.
0.638026 0.0650118 0.
0.640027 0.065012 0.
0.642028 0.0650126 0.
0.644029 0.0650131 0.
0.64603 0.0650137 0.
0.648031 0.0650143 0.
0.650032 0.0650149 0.
0.652033 0.0650141 0.
0.654033 0.0650134 0.
0.656034 0.065013 0.
0.658035 0.0650138 0.
0.660036 0.0650145 0.
0.662037 0.065015 0.
0.664038 0.065015 0.
0.666039 0.065015 0.
0.66804 0.0650156 0.
0.670041 0.0650163 0.
0.672041 0.0650171 0.
0.674042 0.0650174 0.
0.676043 0.0650176 0.
0.678044 0.065018 0.
0.680044 0.0650192 0.
0.682045 0.0650204 0.
0.684045 0.0650214 0.
0.686045 0.0650222 0.
0.688045 0.0650229 0.
0.690046 0.0650246 0.
0.692047 0.065027 0.
0.694048 0.0650293 0.
0.696049 0.0650307 0.
0.698049 0.0650318 0.
0.499954 0.0670259 0.
0.501954 0.0670249 0.
0.503954 0.0670241 0.
0.505954 0.0670232 0.
0.507955 0.067022 0.
0.509956 0.0670208 0.
0.511957 0.0670197 0.
0.513957 0.0670187 0.
0.515958 0.0670177 0.
0.517958 0.0670172 0.
0.519959 0.0670169 0.
0.52196 0.0670166 0.
0.52396 0.0670156 0.
0.525961 0.0670145 0.
0.527962 0.0670135 0.
0.529963 0.0670135 0.
0.531963 0.0670135 0.
0.533964 0.0670134 0.
0.535964 0.0670131 0.
0.537965 0.0670129 0.
0.539966 0.0670125 0.
0.541967 0.0670119 0.
0.543967 0.0670114 0.
0.545968 0.0670113 0.
0.547969 0.0670113 0.
0.549971 0.0670114 0.
0.551972 0.0670118 0.
0.553973 0.0670123 0.
0.555974 0.0670124 0.
0.557974 0.0670118 0.
0.559975 0.0670111 0.
0.561976 0.0670112 0.
0.563976 0.0670121 0.
0.565977 0.0670131 0.
0.567978 0.0670128 0.
0.569979 0.0670119 0.
0.57198 0.0670109 0.
0.573982 0.0670111 0.
0.575983 0.0670114 0.
0.577984 0.0670117 0.
0.579986 0.0670121 0.
0.581987 0.0670125 0.
0.583989 0.0670129 0.
0.58599 0.0670131 0.
0.587991 0.0670134 0.
0.589992 0.0670137 0.
0.591993 0.067014 0.
0.593994 0.0670143 0.
0.595995 0.0670146 0.
0.597997 0.0670149 0.
0.599998 0.0670152 0.
0.602 0.067014 0.
0.604003 0.0670128 0.
0.606005 0.067012 0.
0.608006 0.0670125 0.
0.610008 0.0670131 0.
0.612009 0.0670132 0.
0.61401 0.0670129 0.
0.616011 0.0670126 0.
0.618013 0.0670127 0.
0.620014 0.0670131 0.
0.622015 0.0670136 0.
0.624017 0.0670132 0.
0.626018 0.0670127 0.
0.62802 0.0670123 0.
0.630021 0.0670121 0.
0.632022 0.0670119 0.
0.634024 0.0670118 0.
0.636025 0.0670118 0.
0.638026 0.0670119 0.
0.640027 0.0670123 0.
0.642027 0.0670129 0.
0.644028 0.0670135 0.
0.646029 0.0670138 0.
0.64803 0.0670142 0.
0.650031 0.0670145 0.
0.652032 0.067014 0.
0.654033 0.0670134 0.
0.656033 0.0670131 0.
0.658034 0.0670136 0.
0.660035 0.0670141 0.
0.662036 0.0670145 0.
0.664037 0.0670147 0.
0.666038 0.067015 0.
0.668039 0.0670156 0.
0.670039 0.0670165 0.
0.67204 0.0670173 0.
0.674041 0.0670176 0.
0.676041 0.0670178 0.
0.678042 0.0670181 0.
0.680042 0.0670192 0.
0.682043 0.0670203 0.
0.684043 0.0670213 0.
0.686044 0.0670222 0.
0.688044 0.0670231 0.
0.690045 0.0670246 0.
0.692046 0.0670265 0.
0.694047 0.0670285 0.
0.696047 0.0670304 0.
0.698048 0.0670322 0.
0.499955 0.0690263 0.
0.501955 0.0690255 0.
0.503954 0.0690248 0.
0.505954 0.069024 0.
0.507955 0.0690224 0.
0.509956 0.0690207 0.
0.511957 0.0690195 0.
0.513958 0.0690186 0.
0.515958 0.0690177 0.
0.517959 0.0690173 0.
0.519959 0.0690171 0.
0.52196 0.0690169 0.
0.523961 0.0690158 0.
0.525962 0.0690146 0.
0.527963 0.0690136 0.
0.529963 0.0690136 0.
0.531963 0.0690136 0.
0.533964 0.0690135 0.
0.535964 0.0690131 0.
0.537965 0.0690127 0.
0.539966 0.0690124 0.
0.541966 0.069012 0.
0.543967 0.0690115 0.
0.545968 0.0690113 0.
0.54797 0.0690111 0.
0.549971 0.0690109 0.
0.551972 0.0690115 0.
0.553973 0.0690121 0.
0.555974 0.0690124 0.
0.557974 0.0690117 0.
0.559975 0.069011 0.
0.561976 0.0690109 0.
0.563976 0.0690117 0.
0.565977 0.0690125 0.
0.567978 0.0690122 0.
0.569979 0.0690113 0.
0.57198 0.0690104 0.
0.573982 0.0690108 0.
0.575983 0.0690113 0.
0.577984 0.0690118 0.
0.579986 0.0690121 0.
0.581987 0.0690124 0.
0.583988 0.0690127 0.
0.58599 0.0690131 0.
0.587991 0.0690134 0.
0.589992 0.0690137 0.
0.591993 0.069014 0.
0.593994 0.0690143 0.
0.595996 0.0690146 0.
0.597997 0.0690149 0.
0.599999 0.0690152 0.
0.602001 0.0690138 0.
0.604002 0.0690125 0.
0.606004 0.0690116 0.
0.608006 0.0690123 0.
0.610008 0.069013 0.
0.612009 0.0690133 0.
0.61401 0.069013 0.
0.616011 0.0690128 0.
0.618012 0.0690129 0.
0.620013 0.0690131 0.
0.622015 0.0690134 0.
0.624016 0.0690131 0.
0.626018 0.0690128 0.
0.62802 0.0690125 0.
0.630021 0.0690122 0.
0.632022 0.0690118 0.
0.634023 0.0690117 0.
0.636025 0.0690119 0.
0.638026 0.0690121 0.
0.640026 0.0690125 0.
0.642027 0.0690132 0.
0.644027 0.0690138 0.
0.646028 0.069014 0.
0.64803 0.0690141 0.
0.650031 0.0690141 0.
0.652031 0.0690138 0.
0.654032 0.0690135 0.
0.656032 0.0690133 0.
0.658033 0.0690135 0.
0.660034 0.0690137 0.
0.662035 0.0690141 0.
0.664036 0.0690145 0.
0.666037 0.0690149 0.
0.668038 0.0690157 0.
0.670038 0.0690166 0.
0.672039 0.0690175 0.
0.67404 0.0690178 0.
0.67604 0.069018 0.
0.67804 0.0690183 0.
0.680041 0.0690193 0.
0.682041 0.0690203 0.
0.684042 0.0690212 0.
0.686042 0.0690223 0.
0.688042 0.0690233 0.
0.690043 0.0690246 0.
0.692044 0.0690261 0.
0.694046 0.0690276 0.
0.696046 0.06903 0.
0.698047 0.0690326 0.
0.499955 0.0710263 0.
0.501955 0.0710259 0.
0.503955 0.0710254 0.
0.505955 0.0710246 0.
0.507956 0.0710227 0.
0.509957 0.0710209 0.
0.511958 0.0710195 0.
0.513958 0.0710187 0.
0.515959 0.0710179 0.
0.517959 0.0710175 0.
0.51996 0.0710172 0.
0.52196 0.0710169 0.
0.523961 0.0710159 0.
0.525962 0.0710147 0.
0.527963 0.0710137 0.
0.529963 0.0710137 0.
0.531963 0.0710137 0.
0.533964 0.0710136 0.
0.535964 0.0710132 0.
0.537965 0.0710129 0.
0.539966 0.0710125 0.
0.541967 0.0710121 0.
0.543967 0.0710118 0.
0.545969 0.0710114 0.
0.54797 0.0710111 0.
0.549971 0.0710107 0.
0.551972 0.0710113 0.
0.553973 0.0710118 0.
0.555974 0.0710122 0.
0.557975 0.0710116 0.
0.559975 0.0710111 0.
0.561976 0.0710111 0.
0.563977 0.0710117 0.
0.565977 0.0710123 0.
0.567978 0.0710119 0.
0.56998 0.0710111 0.
0.571981 0.0710102 0.
0.573982 0.0710107 0.
0.575983 0.0710115 0.
0.577985 0.0710121 0.
0.579986 0.0710123 0.
0.581987 0.0710125 0.
0.583988 0.0710127 0.
0.585989 0.071013 0.
0.587991 0.0710133 0.
0.589992 0.0710137 0.
0.591993 0.0710142 0.
0.593994 0.0710147 0.
0.595996 0.0710148 0.
0.597998 0.0710149 0.
0.6 0.0710149 0.
0.602001 0.0710136 0.
0.604002 0.0710124 0.
0.606003 0.0710116 0.
0.608006 0.0710123 0.
0.610008 0.0710129 0.
0.612009 0.0710132 0.
0.61401 0.0710131 0.
0.616011 0.0710129 0.
0.618012 0.071013 0.
0.620013 0.0710131 0.
0.622014 0.0710133 0.
0.624016 0.0710132 0.
0.626018 0.071013 0.
0.628019 0.0710127 0.
0.630021 0.0710123 0.
0.632022 0.0710119 0.
0.634023 0.0710117 0.
0.636024 0.071012 0.
0.638025 0.0710123 0.
0.640026 0.0710129 0.
0.642026 0.0710135 0.
0.644026 0.0710142 0.
0.646028 0.0710141 0.
0.648029 0.0710139 0.
0.65003 0.0710136 0.
0.652031 0.0710135 0.
0.654031 0.0710135 0.
0.656032 0.0710134 0.
0.658032 0.0710135 0.
0.660033 0.0710136 0.
0.662034 0.0710139 0.
0.664035 0.0710144 0.
0.666035 0.0710149 0.
0.668036 0.0710157 0.
0.670037 0.0710166 0.
0.672038 0.0710175 0.
0.674038 0.0710178 0.
0.676039 0.0710181 0.
0.678039 0.0710184 0.
0.680039 0.0710193 0.
0.68204 0.0710201 0.
0.68404 0.0710211 0.
0.686041 0.0710223 0.
0.688042 0.0710235 0.
0.690042 0.0710247 0.
0.692043 0.0710259 0.
0.694044 0.0710272 0.
0.696045 0.0710296 0.
0.698045 0.0710324 0.
0.499955 0.0730265 0.
0.501955 0.0730261 0.
0.503956 0.0730257 0.
0.505956 0.073025 0.
0.507957 0.0730231 0.
0.509958 0.0730212 0.
0.511958 0.0730198 0.
0.513958 0.073019 0.
0.515959 0.0730183 0.
0.517959 0.0730177 0.
0.51996 0.0730172 0.
0.52196 0.0730167 0.
0.523961 0.0730157 0.
0.525962 0.0730147 0.
0.527963 0.0730138 0.
0.529963 0.0730138 0.
0.531964 0.0730139 0.
0.533964 0.0730138 0.
0.535965 0.0730136 0.
0.537965 0.0730133 0.
0.539966 0.073013 0.
0.541967 0.0730125 0.
0.543968 0.073012 0.
0.545969 0.0730116 0.
0.54797 0.0730112 0.
0.549972 0.0730109 0.
0.551972 0.0730112 0.
0.553973 0.0730116 0.
0.555974 0.0730119 0.
0.557975 0.0730118 0.
0.559975 0.0730116 0.
0.561976 0.0730116 0.
0.563977 0.073012 0.
0.565978 0.0730123 0.
0.567979 0.073012 0.
0.56998 0.0730112 0.
0.571981 0.0730104 0.
0.573983 0.073011 0.
0.575984 0.0730118 0.
0.577985 0.0730126 0.
0.579986 0.0730126 0.
0.581988 0.0730127 0.
0.583989 0.0730128 0.
0.58599 0.073013 0.
0.587991 0.0730132 0.
0.589992 0.0730137 0.
0.591993 0.0730145 0.
0.593994 0.0730152 0.
0.595996 0.073015 0.
0.597998 0.0730146 0.
0.599999 0.0730142 0.
0.602001 0.0730134 0.
0.604003 0.0730126 0.
0.606004 0.073012 0.
0.608005 0.0730124 0.
0.610007 0.0730128 0.
0.612008 0.073013 0.
0.614009 0.0730129 0.
0.61601 0.0730129 0.
0.618012 0.073013 0.
0.620013 0.0730132 0.
0.622014 0.0730134 0.
0.624016 0.0730133 0.
0.626017 0.0730131 0.
0.628019 0.0730129 0.
0.63002 0.0730124 0.
0.632022 0.0730119 0.
0.634023 0.0730118 0.
0.636024 0.0730122 0.
0.638024 0.0730126 0.
0.640024 0.0730133 0.
0.642025 0.073014 0.
0.644026 0.0730147 0.
0.646027 0.0730143 0.
0.648028 0.0730136 0.
0.650029 0.0730129 0.
0.65203 0.0730131 0.
0.654031 0.0730134 0.
0.656031 0.0730136 0.
0.658032 0.0730137 0.
0.660032 0.0730139 0.
0.662033 0.0730141 0.
0.664034 0.0730145 0.
0.666034 0.073015 0.
0.668035 0.0730157 0.
0.670036 0.0730165 0.
0.672036 0.0730173 0.
0.674037 0.0730177 0.
0.676038 0.0730181 0.
0.678039 0.0730185 0.
0.680039 0.0730192 0.
0.682039 0.0730199 0.
0.68404 0.0730209 0.
0.686041 0.0730223 0.
0.688041 0.0730238 0.
0.690042 0.073025 0.
0.692042 0.073026 0.
0.694042 0.0730271 0.
0.696043 0.0730292 0.
0.698043 0.0730317 0.
0.499955 0.0750267 0.
0.501956 0.0750263 0.
0.503956 0.0750261 0.
0.505957 0.0750254 0.
0.507958 0.0750235 0.
0.509958 0.0750216 0.
0.511959 0.0750202 0.
0.513959 0.0750194 0.
0.515959 0.0750186 0.
0.517959 0.0750179 0.
0.51996 0.0750172 0.
0.521961 0.0750165 0.
0.523961 0.0750156 0.
0.525962 0.0750147 0.
0.527962 0.075014 0.
0.529963 0.075014 0.
0.531964 0.075014 0.
0.533965 0.075014 0.
0.535965 0.0750139 0.
0.537966 0.0750138 0.
0.539966 0.0750134 0.
0.541967 0.0750129 0.
0.543968 0.0750123 0.
0.545969 0.0750119 0.
0.547971 0.0750114 0.
0.549972 0.075011 0.
0.551973 0.0750112 0.
0.553974 0.0750114 0.
0.555974 0.0750117 0.
0.557975 0.0750119 0.
0.559976 0.0750121 0.
0.561977 0.0750122 0.
0.563978 0.0750123 0.
0.565979 0.0750124 0.
0.56798 0.075012 0.
0.569981 0.0750113 0.
0.571982 0.0750105 0.
0.573984 0.0750113 0.
0.575985 0.0750122 0.
0.577986 0.075013 0.
0.579987 0.075013 0.
0.581988 0.0750129 0.
0.583989 0.0750129 0.
0.58599 0.075013 0.
0.587991 0.0750131 0.
0.589992 0.0750137 0.
0.591993 0.0750147 0.
0.593994 0.0750157 0.
0.595996 0.0750153 0.
0.597998 0.0750144 0.
0.599999 0.0750136 0.
0.602001 0.0750131 0.
0.604003 0.0750127 0.
0.606005 0.0750124 0.
0.608005 0.0750125 0.
0.610006 0.0750126 0.
0.612007 0.0750127 0.
0.614009 0.0750128 0.
0.61601 0.0750129 0.
0.618011 0.0750131 0.
0.620013 0.0750133 0.
0.622014 0.0750135 0.
0.624016 0.0750134 0.
0.626017 0.0750133 0.
0.628019 0.0750131 0.
0.63002 0.0750126 0.
0.632022 0.075012 0.
0.634023 0.0750118 0.
0.636023 0.0750124 0.
0.638023 0.0750129 0.
0.640023 0.0750136 0.
0.642024 0.0750144 0.
0.644025 0.0750152 0.
0.646026 0.0750145 0.
0.648027 0.0750133 0.
0.650029 0.0750122 0.
0.652029 0.0750127 0.
0.65403 0.0750133 0.
0.656031 0.0750137 0.
0.658031 0.0750139 0.
0.660032 0.0750141 0.
0.662032 0.0750143 0.
0.664033 0.0750147 0.
0.666033 0.075015 0.
0.668034 0.0750156 0.
0.670034 0.0750164 0.
0.672035 0.0750171 0.
0.674036 0.0750176 0.
0.676037 0.0750181 0.
0.678038 0.0750186 0.
0.680038 0.0750192 0.
0.682039 0.0750197 0.
0.684039 0.0750207 0.
0.68604 0.0750223 0.
0.688041 0.075024 0.
0.690041 0.0750252 0.
0.692041 0.0750261 0.
0.694041 0.075027 0.
0.696041 0.0750288 0.
0.698042 0.0750309 0.
0.499957 0.0770267 0.
0.501957 0.0770261 0.
0.503958 0.0770255 0.
0.505959 0.0770248 0.
0.507959 0.0770233 0.
0.50996 0.0770219 0.
0.51196 0.0770207 0.
0.51396 0.0770197 0.
0.51596 0.0770188 0.
0.517961 0.0770179 0.
0.519961 0.077017 0.
0.521962 0.0770161 0.
0.523962 0.0770156 0.
0.525963 0.0770152 0.
0.527963 0.0770148 0.
0.529964 0.0770145 0.
0.531965 0.0770142 0.
0.533966 0.077014 0.
0.535966 0.0770136 0.
0.537967 0.0770132 0.
0.539968 0.0770129 0.
0.541969 0.0770126 0.
0.54397 0.0770123 0.
0.54597 0.0770119 0.
0.547971 0.0770113 0.
0.549972 0.0770108 0.
0.551973 0.0770112 0.
0.553974 0.0770117 0.
0.555974 0.077012 0.
0.557975 0.0770118 0.
0.559976 0.0770117 0.
0.561977 0.0770117 0.
0.563978 0.0770118 0.
0.56598 0.077012 0.
0.567981 0.0770118 0.
0.569982 0.0770114 0.
0.571982 0.077011 0.
0.573984 0.0770116 0.
0.575985 0.0770123 0.
0.577987 0.0770129 0.
0.579988 0.0770128 0.
0.581988 0.0770126 0.
0.583989 0.0770126 0.
0.58599 0.0770129 0.
0.587991 0.0770132 0.
0.589992 0.0770136 0.
0.591993 0.0770141 0.
0.593995 0.0770147 0.
0.595996 0.0770145 0.
0.597998 0.0770141 0.
0.6 0.0770137 0.
0.602002 0.0770132 0.
0.604003 0.0770128 0.
0.606004 0.0770124 0.
0.608005 0.0770125 0.
0.610006 0.0770127 0.
0.612008 0.0770127 0.
0.614009 0.0770127 0.
0.61601 0.0770126 0.
0.618011 0.0770128 0.
0.620012 0.0770131 0.
0.622013 0.0770133 0.
0.624015 0.0770132 0.
0.626016 0.0770131 0.
0.628018 0.0770129 0.
0.63002 0.0770124 0.
0.632021 0.0770119 0.
0.634023 0.0770118 0.
0.636023 0.0770123 0.
0.638024 0.0770129 0.
0.640024 0.0770134 0.
0.642025 0.0770139 0.
0.644025 0.0770144 0.
0.646026 0.077014 0.
0.648027 0.0770133 0.
0.650029 0.0770127 0.
0.652029 0.077013 0.
0.65403 0.0770134 0.
0.656031 0.0770136 0.
0.658031 0.0770137 0.
0.660032 0.0770137 0.
0.662032 0.077014 0.
0.664033 0.0770146 0.
0.666033 0.0770152 0.
0.668034 0.0770157 0.
0.670034 0.077016 0.
0.672034 0.0770164 0.
0.674035 0.0770171 0.
0.676036 0.0770179 0.
0.678037 0.0770186 0.
0.680038 0.0770194 0.
0.682038 0.0770201 0.
0.684039 0.077021 0.
0.686039 0.0770222 0.
0.688039 0.0770234 0.
0.69004 0.0770246 0.
0.69204 0.0770257 0.
0.69404 0.0770268 0.
0.69604 0.0770285 0.
0.698041 0.0770303 0.
0.499958 0.0790268 0.
0.501959 0.0790259 0.
0.50396 0.079025 0.
0.50596 0.0790241 0.
0.507961 0.0790231 0.
0.509961 0.0790222 0.
0.511962 0.0790212 0.
0.513962 0.0790201 0.
0.515962 0.079019 0.
0.517962 0.0790179 0.
0.519962 0.0790169 0.
0.521962 0.0790158 0.
0.523963 0.0790157 0.
0.525963 0.0790156 0.
0.527964 0.0790155 0.
0.529965 0.079015 0.
0.531966 0.0790145 0.
0.533967 0.0790139 0.
0.535967 0.0790133 0.
0.537968 0.0790127 0.
0.539969 0.0790123 0.
0.54197 0.0790123 0.
0.543971 0.0790123 0.
0.545971 0.0790118 0.
0.547972 0.0790113 0.
0.549972 0.0790107 0.
0.551973 0.0790113 0.
0.553974 0.0790119 0.
0.555974 0.0790123 0.
0.557976 0.0790118 0.
0.559977 0.0790113 0.
0.561978 0.0790112 0.
0.563979 0.0790114 0.
0.56598 0.0790116 0.
0.567981 0.0790116 0.
0.569982 0.0790116 0.
0.571982 0.0790115 0.
0.573984 0.079012 0.
0.575986 0.0790125 0.
0.577987 0.0790129 0.
0.579988 0.0790126 0.
0.581989 0.0790124 0.
0.58399 0.0790124 0.
0.585991 0.0790128 0.
0.587992 0.0790133 0.
0.589993 0.0790135 0.
0.591994 0.0790135 0.
0.593995 0.0790136 0.
0.595997 0.0790137 0.
0.597999 0.0790138 0.
0.600001 0.0790139 0.
0.602002 0.0790133 0.
0.604003 0.0790128 0.
0.606004 0.0790124 0.
0.608006 0.0790126 0.
0.610007 0.0790127 0.
0.612008 0.0790127 0.
0.614009 0.0790126 0.
0.61601 0.0790124 0.
0.618011 0.0790125 0.
0.620012 0.0790128 0.
0.622013 0.0790132 0.
0.624014 0.079013 0.
0.626016 0.0790128 0.
0.628018 0.0790126 0.
0.630019 0.0790122 0.
0.632021 0.0790117 0.
0.634022 0.0790117 0.
0.636023 0.0790123 0.
0.638024 0.0790129 0.
0.640025 0.0790132 0.
0.642025 0.0790134 0.
0.644025 0.0790135 0.
0.646026 0.0790135 0.
0.648027 0.0790133 0.
0.650029 0.0790131 0.
0.652029 0.0790133 0.
0.65403 0.0790135 0.
0.65603 0.0790136 0.
0.658031 0.0790134 0.
0.660031 0.0790133 0.
0.662032 0.0790137 0.
0.664032 0.0790145 0.
0.666033 0.0790154 0.
0.668034 0.0790157 0.
0.670034 0.0790157 0.
0.672034 0.0790157 0.
0.674035 0.0790166 0.
0.676036 0.0790176 0.
0.678037 0.0790185 0.
0.680037 0.0790195 0.
0.682038 0.0790205 0.
0.684038 0.0790214 0.
0.686038 0.0790221 0.
0.688038 0.0790228 0.
0.690038 0.0790239 0.
0.692039 0.0790252 0.
0.694039 0.0790266 0.
0.69604 0.0790281 0.
0.69804 0.0790297 0.
0.49996 0.0810267 0.
0.50196 0.0810257 0.
0.503961 0.0810247 0.
0.505961 0.0810238 0.
0.507962 0.0810231 0.
0.509962 0.0810223 0.
0.511963 0.0810213 0.
0.513963 0.0810201 0.
0.515964 0.0810189 0.
0.517964 0.0810178 0.
0.519963 0.0810168 0.
0.521963 0.0810158 0.
0.523964 0.0810157 0.
0.525964 0.0810158 0.
0.527965 0.0810158 0.
0.529966 0.081015 0.
0.531967 0.0810143 0.
0.533967 0.0810136 0.
0.535968 0.0810129 0.
0.537969 0.0810123 0.
0.53997 0.081012 0.
0.541971 0.081012 0.
0.543971 0.0810121 0.
0.545972 0.0810117 0.
0.547972 0.0810113 0.
0.549972 0.0810109 0.
0.551973 0.0810114 0.
0.553974 0.0810119 0.
0.555975 0.0810122 0.
0.557976 0.0810117 0.
0.559978 0.0810111 0.
0.561979 0.0810109 0.
0.56398 0.0810112 0.
0.565981 0.0810114 0.
0.567982 0.0810116 0.
0.569982 0.0810116 0.
0.571983 0.0810117 0.
0.573985 0.0810121 0.
0.575986 0.0810125 0.
0.577987 0.0810128 0.
0.579988 0.0810126 0.
0.581989 0.0810123 0.
0.58399 0.0810123 0.
0.585991 0.0810128 0.
0.587992 0.0810133 0.
0.589993 0.0810134 0.
0.591994 0.0810132 0.
0.593995 0.081013 0.
0.595997 0.0810133 0.
0.597999 0.0810137 0.
0.600001 0.0810141 0.
0.602002 0.0810136 0.
0.604003 0.0810131 0.
0.606004 0.0810127 0.
0.608006 0.0810127 0.
0.610007 0.0810126 0.
0.612008 0.0810125 0.
0.614009 0.0810123 0.
0.61601 0.0810121 0.
0.618011 0.0810122 0.
0.620012 0.0810125 0.
0.622012 0.0810129 0.
0.624014 0.0810127 0.
0.626015 0.0810125 0.
0.628017 0.0810123 0.
0.630019 0.0810119 0.
0.63202 0.0810115 0.
0.634021 0.0810115 0.
0.636023 0.0810122 0.
0.638024 0.0810129 0.
0.640025 0.0810131 0.
0.642025 0.0810131 0.
0.644025 0.081013 0.
0.646026 0.081013 0.
0.648027 0.081013 0.
0.650028 0.0810129 0.
0.652029 0.0810132 0.
0.654029 0.0810134 0.
0.65603 0.0810136 0.
0.65803 0.0810135 0.
0.660031 0.0810133 0.
0.662031 0.0810137 0.
0.664032 0.0810147 0.
0.666033 0.0810156 0.
0.668033 0.0810158 0.
0.670033 0.0810157 0.
0.672033 0.0810155 0.
0.674034 0.0810164 0.
0.676035 0.0810174 0.
0.678036 0.0810184 0.
0.680036 0.0810194 0.
0.682037 0.0810204 0.
0.684037 0.0810213 0.
0.686037 0.0810219 0.
0.688037 0.0810225 0.
0.690037 0.0810237 0.
0.692038 0.0810252 0.
0.694038 0.0810267 0.
0.696039 0.0810279 0.
0.698039 0.0810291 0.
0.499961 0.0830263 0.
0.501962 0.0830256 0.
0.503962 0.0830248 0.
0.505962 0.083024 0.
0.507962 0.0830231 0.
0.509963 0.0830223 0.
0.511963 0.0830212 0.
0.513964 0.0830199 0.
0.515964 0.0830186 0.
0.517965 0.0830176 0.
0.519965 0.0830168 0.
0.521964 0.083016 0.
0.523965 0.0830158 0.
0.525965 0.0830157 0.
0.527966 0.0830155 0.
0.529967 0.0830146 0.
0.531967 0.0830137 0.
0.533968 0.083013 0.
0.535969 0.0830126 0.
0.537969 0.0830121 0.
0.53997 0.0830119 0.
0.541971 0.0830118 0.
0.543972 0.0830117 0.
0.545972 0.0830116 0.
0.547973 0.0830115 0.
0.549973 0.0830114 0.
0.551974 0.0830116 0.
0.553976 0.0830118 0.
0.555977 0.0830118 0.
0.557978 0.0830114 0.
0.559979 0.0830111 0.
0.56198 0.083011 0.
0.563981 0.0830112 0.
0.565982 0.0830115 0.
0.567983 0.0830116 0.
0.569984 0.0830117 0.
0.571984 0.0830117 0.
0.573985 0.083012 0.
0.575987 0.0830124 0.
0.577988 0.0830126 0.
0.579989 0.0830125 0.
0.58199 0.0830124 0.
0.583991 0.0830124 0.
0.585992 0.0830129 0.
0.587993 0.0830133 0.
0.589994 0.0830134 0.
0.591995 0.0830132 0.
0.593996 0.083013 0.
0.595997 0.0830133 0.
0.597998 0.0830138 0.
0.6 0.0830143 0.
0.602001 0.0830139 0.
0.604003 0.0830135 0.
0.606004 0.0830131 0.
0.608006 0.0830128 0.
0.610007 0.0830124 0.
0.612008 0.0830122 0.
0.614009 0.083012 0.
0.61601 0.0830119 0.
0.618011 0.083012 0.
0.620011 0.0830122 0.
0.622012 0.0830125 0.
0.624013 0.0830123 0.
0.626015 0.0830121 0.
0.628016 0.0830119 0.
0.630018 0.0830115 0.
0.632019 0.0830112 0.
0.63402 0.0830113 0.
0.636021 0.0830121 0.
0.638022 0.0830128 0.
0.640023 0.0830131 0.
0.642023 0.083013 0.
0.644024 0.0830129 0.
0.646025 0.0830126 0.
0.648026 0.0830124 0.
0.650027 0.0830121 0.
0.652028 0.0830127 0.
0.654028 0.0830133 0.
0.656029 0.0830138 0.
0.65803 0.0830138 0.
0.66003 0.0830137 0.
0.662031 0.0830141 0.
0.664031 0.0830149 0.
0.666032 0.0830158 0.
0.668032 0.083016 0.
0.670032 0.0830159 0.
0.672033 0.0830159 0.
0.674033 0.0830165 0.
0.676034 0.0830173 0.
0.678034 0.0830181 0.
0.680035 0.0830189 0.
0.682035 0.0830198 0.
0.684035 0.0830207 0.
0.686035 0.0830216 0.
0.688035 0.0830225 0.
0.690036 0.0830238 0.
0.692036 0.0830254 0.
0.694037 0.0830271 0.
0.696038 0.0830279 0.
0.698038 0.0830286 0.
0.499963 0.0850262 0.
0.501963 0.0850254 0.
0.503963 0.0850248 0.
0.505963 0.0850241 0.
0.507963 0.0850232 0.
0.509963 0.0850222 0.
0.511963 0.0850211 0.
0.513964 0.0850197 0.
0.515965 0.0850184 0.
0.517966 0.0850175 0.
0.519966 0.0850168 0.
0.521965 0.0850162 0.
0.523966 0.0850159 0.
0.525966 0.0850156 0.
0.527967 0.0850153 0.
0.529967 0.0850142 0.
0.531968 0.0850131 0.
0.533969 0.0850124 0.
0.535969 0.0850122 0.
0.53797 0.085012 0.
0.53997 0.0850118 0.
0.541971 0.0850115 0.
0.543972 0.0850113 0.
0.545972 0.0850114 0.
0.547973 0.0850117 0.
0.549974 0.0850119 0.
0.551976 0.0850118 0.
0.553977 0.0850116 0.
0.555979 0.0850114 0.
0.55798 0.0850112 0.
0.55998 0.085011 0.
0.561981 0.085011 0.
0.563982 0.0850113 0.
0.565983 0.0850116 0.
0.567984 0.0850117 0.
0.569985 0.0850117 0.
0.571985 0.0850117 0.
0.573986 0.0850119 0.
0.575987 0.0850122 0.
0.577988 0.0850125 0.
0.579989 0.0850125 0.
0.58199 0.0850124 0.
0.583991 0.0850125 0.
0.585992 0.085013 0.
0.587993 0.0850134 0.
0.589994 0.0850134 0.
0.591995 0.0850132 0.
0.593996 0.085013 0.
0.595997 0.0850134 0.
0.597998 0.0850139 0.
0.599999 0.0850145 0.
0.602001 0.0850142 0.
0.604003 0.0850139 0.
0.606004 0.0850136 0.
0.608005 0.0850129 0.
0.610007 0.0850122 0.
0.612008 0.0850118 0.
0.614009 0.0850117 0.
0.61601 0.0850116 0.
0.618011 0.0850117 0.
0.620011 0.0850119 0.
0.622012 0.0850121 0.
0.624013 0.0850119 0.
0.626015 0.0850117 0.
0.628016 0.0850115 0.
0.630017 0.0850112 0.
0.632018 0.0850109 0.
0.634018 0.085011 0.
0.636019 0.0850119 0.
0.63802 0.0850128 0.
0.640021 0.0850131 0.
0.642022 0.0850129 0.
0.644023 0.0850127 0.
0.646024 0.0850123 0.
0.648025 0.0850118 0.
0.650026 0.0850112 0.
0.652027 0.0850122 0.
0.654027 0.0850132 0.
0.656028 0.0850139 0.
0.658029 0.085014 0.
0.66003 0.0850142 0.
0.66203 0.0850145 0.
0.66403 0.0850152 0.
0.666031 0.0850159 0.
0.668031 0.0850162 0.
0.670031 0.0850162 0.
0.672032 0.0850162 0.
0.674032 0.0850167 0.
0.676033 0.0850172 0.
0.678033 0.0850178 0.
0.680033 0.0850185 0.
0.682034 0.0850193 0.
0.684034 0.0850202 0.
0.686034 0.0850213 0.
0.688034 0.0850224 0.
0.690034 0.0850239 0.
0.692035 0.0850257 0.
0.694036 0.0850275 0.
0.696036 0.0850279 0.
0.698037 0.085028 0.
0.499963 0.0870261 0.
0.501964 0.0870254 0.
0.503964 0.0870244 0.
0.505964 0.0870235 0.
0.507964 0.0870226 0.
0.509964 0.0870218 0.
0.511964 0.0870209 0.
0.513965 0.0870197 0.
0.515966 0.0870186 0.
0.517966 0.0870177 0.
0.519966 0.0870168 0.
0.521966 0.087016 0.
0.523967 0.0870156 0.
0.525967 0.0870152 0.
0.527968 0.0870148 0.
0.529968 0.0870139 0.
0.531969 0.087013 0.
0.53397 0.0870122 0.
0.53597 0.0870118 0.
0.537971 0.0870115 0.
0.539971 0.0870111 0.
0.541972 0.0870109 0.
0.543973 0.0870106 0.
0.545974 0.0870108 0.
0.547974 0.0870112 0.
0.549975 0.0870116 0.
0.551976 0.0870112 0.
0.553978 0.0870108 0.
0.555979 0.0870105 0.
0.55798 0.0870105 0.
0.55998 0.0870106 0.
0.561981 0.0870107 0.
0.563982 0.087011 0.
0.565983 0.0870113 0.
0.567984 0.0870115 0.
0.569985 0.0870117 0.
0.571985 0.0870118 0.
0.573986 0.0870119 0.
0.575987 0.087012 0.
0.577988 0.0870121 0.
0.579989 0.087012 0.
0.58199 0.0870119 0.
0.583991 0.087012 0.
0.585992 0.0870126 0.
0.587993 0.0870132 0.
0.589994 0.0870133 0.
0.591995 0.0870131 0.
0.593996 0.0870129 0.
0.595997 0.0870131 0.
0.597998 0.0870135 0.
0.599999 0.0870139 0.
0.602001 0.0870137 0.
0.604003 0.0870135 0.
0.606004 0.0870132 0.
0.608006 0.0870126 0.
0.610007 0.087012 0.
0.612008 0.0870117 0.
0.614009 0.0870115 0.
0.61601 0.0870113 0.
0.61801 0.0870114 0.
0.620011 0.0870116 0.
0.622012 0.0870119 0.
0.624013 0.0870116 0.
0.626014 0.0870114 0.
0.628015 0.0870111 0.
0.630016 0.0870112 0.
0.632017 0.0870112 0.
0.634018 0.0870115 0.
0.636019 0.087012 0.
0.63802 0.0870125 0.
0.640021 0.0870125 0.
0.642022 0.0870121 0.
0.644023 0.0870117 0.
0.646024 0.0870114 0.
0.648025 0.0870112 0.
0.650026 0.087011 0.
0.652026 0.087012 0.
0.654027 0.0870129 0.
0.656027 0.0870137 0.
0.658028 0.087014 0.
0.660029 0.0870142 0.
0.662029 0.0870145 0.
0.664029 0.087015 0.
0.66603 0.0870155 0.
0.66803 0.0870158 0.
0.670031 0.0870161 0.
0.672031 0.0870163 0.
0.674032 0.0870169 0.
0.676032 0.0870174 0.
0.678033 0.087018 0.
0.680033 0.0870185 0.
0.682033 0.087019 0.
0.684033 0.0870198 0.
0.686033 0.0870213 0.
0.688033 0.0870227 0.
0.690033 0.087024 0.
0.692034 0.0870253 0.
0.694034 0.0870266 0.
0.696035 0.0870273 0.
0.698035 0.0870279 0.
0.499964 0.0890265 0.
0.501964 0.0890253 0.
0.503964 0.089024 0.
0.505964 0.0890229 0.
0.507965 0.0890221 0.
0.509965 0.0890214 0.
0.511965 0.0890206 0.
0.513966 0.0890197 0.
0.515966 0.0890189 0.
0.517966 0.0890179 0.
0.519966 0.0890168 0.
0.521967 0.0890157 0.
0.523967 0.0890152 0.
0.525968 0.0890147 0.
0.527969 0.0890143 0.
0.529969 0.0890135 0.
0.53197 0.0890128 0.
0.533971 0.0890121 0.
0.535971 0.0890115 0.
0.537972 0.0890109 0.
0.539973 0.0890105 0.
0.541973 0.0890102 0.
0.543974 0.0890099 0.
0.545975 0.0890102 0.
0.547976 0.0890107 0.
0.549977 0.0890112 0.
0.551977 0.0890106 0.
0.553978 0.08901 0.
0.555979 0.0890096 0.
0.55798 0.0890099 0.
0.55998 0.0890102 0.
0.561981 0.0890105 0.
0.563982 0.0890107 0.
0.565982 0.089011 0.
0.567983 0.0890113 0.
0.569984 0.0890117 0.
0.571985 0.089012 0.
0.573986 0.0890119 0.
0.575987 0.0890118 0.
0.577988 0.0890116 0.
0.579988 0.0890115 0.
0.581989 0.0890113 0.
0.58399 0.0890115 0.
0.585991 0.0890122 0.
0.587992 0.0890129 0.
0.589993 0.0890132 0.
0.591994 0.089013 0.
0.593995 0.0890128 0.
0.595996 0.0890129 0.
0.597998 0.0890131 0.
0.599999 0.0890132 0.
0.602001 0.0890131 0.
0.604003 0.089013 0.
0.606005 0.0890128 0.
0.608006 0.0890123 0.
0.610007 0.0890119 0.
0.612008 0.0890115 0.
0.614009 0.0890112 0.
0.61601 0.0890109 0.
0.61801 0.0890111 0.
0.620011 0.0890114 0.
0.622012 0.0890117 0.
0.624013 0.0890114 0.
0.626014 0.089011 0.
0.628015 0.0890108 0.
0.630016 0.0890112 0.
0.632017 0.0890116 0.
0.634018 0.0890119 0.
0.636019 0.089012 0.
0.63802 0.0890122 0.
0.640021 0.0890119 0.
0.642022 0.0890112 0.
0.644023 0.0890106 0.
0.646024 0.0890106 0.
0.648024 0.0890107 0.
0.650025 0.0890108 0.
0.652026 0.0890117 0.
0.654026 0.0890127 0.
0.656027 0.0890135 0.
0.658027 0.0890139 0.
0.660027 0.0890142 0.
0.662028 0.0890146 0.
0.664028 0.0890148 0.
0.666029 0.089015 0.
0.668029 0.0890155 0.
0.67003 0.089016 0.
0.67203 0.0890165 0.
0.674031 0.0890171 0.
0.676032 0.0890177 0.
0.678032 0.0890182 0.
0.680032 0.0890185 0.
0.682032 0.0890187 0.
0.684032 0.0890195 0.
0.686032 0.0890212 0.
0.688032 0.0890229 0.
0.690032 0.0890241 0.
0.692032 0.0890249 0.
0.694032 0.0890257 0.
0.696033 0.0890267 0.
0.698033 0.0890278 0.
0.499965 0.0910263 0.
0.501965 0.091025 0.
0.503965 0.0910237 0.
0.505965 0.0910225 0.
0.507966 0.0910218 0.
0.509966 0.091021 0.
0.511966 0.0910203 0.
0.513967 0.0910197 0.
0.515967 0.0910191 0.
0.517967 0.0910181 0.
0.519967 0.0910169 0.
0.521968 0.0910156 0.
0.523968 0.091015 0.
0.525969 0.0910144 0.
0.52797 0.0910137 0.
0.52997 0.0910132 0.
0.531971 0.0910126 0.
0.533972 0.091012 0.
0.535972 0.0910113 0.
0.537973 0.0910105 0.
0.539973 0.09101 0.
0.541974 0.0910097 0.
0.543975 0.0910093 0.
0.545976 0.0910097 0.
0.547976 0.0910103 0.
0.549977 0.0910109 0.
0.551978 0.0910103 0.
0.553979 0.0910097 0.
0.555979 0.0910093 0.
0.55798 0.0910096 0.
0.55998 0.0910099 0.
0.561981 0.0910102 0.
0.563982 0.0910105 0.
0.565982 0.0910107 0.
0.567983 0.0910112 0.
0.569984 0.0910117 0.
0.571985 0.0910122 0.
0.573986 0.091012 0.
0.575987 0.0910117 0.
0.577988 0.0910114 0.
0.579988 0.0910112 0.
0.581989 0.091011 0.
0.58399 0.0910111 0.
0.585991 0.0910118 0.
0.587992 0.0910126 0.
0.589993 0.0910129 0.
0.591994 0.0910129 0.
0.593995 0.0910129 0.
0.595996 0.0910128 0.
0.597997 0.0910126 0.
0.599999 0.0910125 0.
0.602001 0.0910124 0.
0.604003 0.0910123 0.
0.606005 0.0910122 0.
0.608006 0.091012 0.
0.610007 0.0910117 0.
0.612008 0.0910115 0.
0.614009 0.0910111 0.
0.61601 0.0910108 0.
0.61801 0.0910109 0.
0.620011 0.0910111 0.
0.622012 0.0910113 0.
0.624013 0.0910111 0.
0.626014 0.0910107 0.
0.628015 0.0910105 0.
0.630016 0.0910112 0.
0.632017 0.0910118 0.
0.634018 0.0910121 0.
0.636019 0.0910119 0.
0.63802 0.0910117 0.
0.640021 0.0910113 0.
0.642022 0.0910107 0.
0.644022 0.0910101 0.
0.646023 0.0910101 0.
0.648024 0.0910103 0.
0.650024 0.0910104 0.
0.652025 0.0910114 0.
0.654025 0.0910125 0.
0.656026 0.0910133 0.
0.658026 0.0910138 0.
0.660027 0.0910142 0.
0.662027 0.0910146 0.
0.664028 0.0910148 0.
0.666028 0.0910151 0.
0.668029 0.0910155 0.
0.670029 0.091016 0.
0.672029 0.0910165 0.
0.67403 0.091017 0.
0.676031 0.0910175 0.
0.678031 0.091018 0.
0.680031 0.0910183 0.
0.682031 0.0910186 0.
0.684031 0.0910195 0.
0.686031 0.0910212 0.
0.688031 0.091023 0.
0.690031 0.091024 0.
0.692031 0.0910246 0.
0.694031 0.0910252 0.
0.696031 0.0910264 0.
0.698032 0.0910278 0.
0.499965 0.0930258 0.
0.501966 0.0930245 0.
0.503966 0.0930233 0.
0.505967 0.0930223 0.
0.507967 0.0930215 0.
0.509967 0.0930207 0.
0.511968 0.0930201 0.
0.513968 0.0930196 0.
0.515968 0.0930192 0.
0.517969 0.0930182 0.
0.519969 0.0930171 0.
0.521969 0.0930159 0.
0.52397 0.0930149 0.
0.52597 0.093014 0.
0.527971 0.0930132 0.
0.529971 0.0930128 0.
0.531972 0.0930124 0.
0.533972 0.0930119 0.
0.535973 0.0930111 0.
0.537973 0.0930103 0.
0.539973 0.0930097 0.
0.541974 0.0930092 0.
0.543975 0.0930088 0.
0.545976 0.0930093 0.
0.547976 0.09301 0.
0.549977 0.0930107 0.
0.551978 0.0930103 0.
0.553979 0.0930099 0.
0.55598 0.0930096 0.
0.55798 0.0930097 0.
0.559981 0.0930097 0.
0.561981 0.0930099 0.
0.563982 0.0930102 0.
0.565983 0.0930105 0.
0.567984 0.093011 0.
0.569984 0.0930117 0.
0.571985 0.0930123 0.
0.573986 0.0930121 0.
0.575987 0.0930118 0.
0.577988 0.0930115 0.
0.579988 0.0930112 0.
0.581989 0.0930109 0.
0.58399 0.0930109 0.
0.585991 0.0930115 0.
0.587992 0.093012 0.
0.589993 0.0930124 0.
0.591994 0.0930127 0.
0.593995 0.093013 0.
0.595996 0.0930127 0.
0.597997 0.0930121 0.
0.599999 0.0930116 0.
0.602001 0.0930115 0.
0.604003 0.0930114 0.
0.606005 0.0930114 0.
0.608006 0.0930114 0.
0.610007 0.0930115 0.
0.612008 0.0930114 0.
0.614009 0.0930111 0.
0.61601 0.0930109 0.
0.61801 0.0930108 0.
0.620011 0.0930108 0.
0.622012 0.0930108 0.
0.624013 0.0930106 0.
0.626014 0.0930105 0.
0.628015 0.0930104 0.
0.630016 0.0930112 0.
0.632017 0.0930119 0.
0.634018 0.0930122 0.
0.636019 0.0930117 0.
0.63802 0.0930112 0.
0.64002 0.0930108 0.
0.642021 0.0930105 0.
0.644022 0.0930102 0.
0.646022 0.0930101 0.
0.648023 0.09301 0.
0.650023 0.0930099 0.
0.652024 0.0930111 0.
0.654025 0.0930123 0.
0.656025 0.0930133 0.
0.658026 0.0930137 0.
0.660026 0.0930141 0.
0.662027 0.0930145 0.
0.664027 0.0930151 0.
0.666028 0.0930156 0.
0.668028 0.093016 0.
0.670028 0.0930162 0.
0.672029 0.0930165 0.
0.674029 0.0930168 0.
0.676029 0.093017 0.
0.67803 0.0930172 0.
0.68003 0.093018 0.
0.68203 0.0930188 0.
0.684029 0.0930198 0.
0.68603 0.0930212 0.
0.68803 0.0930227 0.
0.69003 0.0930237 0.
0.69203 0.0930244 0.
0.694031 0.0930251 0.
0.696031 0.0930265 0.
0.69803 0.093028 0.
0.499966 0.0950253 0.
0.501967 0.095024 0.
0.503968 0.095023 0.
0.505968 0.0950221 0.
0.507968 0.0950212 0.
0.509968 0.0950204 0.
0.511969 0.0950198 0.
0.51397 0.0950195 0.
0.51597 0.0950193 0.
0.517971 0.0950184 0.
0.519971 0.0950172 0.
0.521971 0.0950161 0.
0.523971 0.0950149 0.
0.525972 0.0950137 0.
0.527972 0.0950126 0.
0.529973 0.0950124 0.
0.531973 0.0950123 0.
0.533973 0.0950118 0.
0.535973 0.0950109 0.
0.537973 0.09501 0.
0.539974 0.0950093 0.
0.541974 0.0950088 0.
0.543975 0.0950083 0.
0.545976 0.0950088 0.
0.547977 0.0950097 0.
0.549977 0.0950105 0.
0.551978 0.0950103 0.
0.553979 0.0950101 0.
0.55598 0.0950099 0.
0.55798 0.0950097 0.
0.559981 0.0950095 0.
0.561981 0.0950096 0.
0.563982 0.0950099 0.
0.565984 0.0950102 0.
0.567984 0.0950109 0.
0.569984 0.0950117 0.
0.571985 0.0950125 0.
0.573986 0.0950122 0.
0.575987 0.0950119 0.
0.577988 0.0950115 0.
0.579988 0.0950112 0.
0.581989 0.0950108 0.
0.58399 0.0950107 0.
0.585991 0.0950111 0.
0.587992 0.0950115 0.
0.589993 0.095012 0.
0.591994 0.0950126 0.
0.593995 0.0950131 0.
0.595996 0.0950126 0.
0.597997 0.0950117 0.
0.599999 0.0950108 0.
0.602001 0.0950107 0.
0.604004 0.0950106 0.
0.606006 0.0950106 0.
0.608007 0.0950109 0.
0.610008 0.0950113 0.
0.612008 0.0950114 0.
0.614009 0.0950111 0.
0.61601 0.0950109 0.
0.618011 0.0950107 0.
0.620011 0.0950105 0.
0.622012 0.0950102 0.
0.624013 0.0950102 0.
0.626014 0.0950102 0.
0.628015 0.0950103 0.
0.630016 0.0950112 0.
0.632017 0.095012 0.
0.634018 0.0950123 0.
0.636019 0.0950115 0.
0.638019 0.0950107 0.
0.64002 0.0950103 0.
0.642021 0.0950103 0.
0.644022 0.0950103 0.
0.646022 0.0950101 0.
0.648022 0.0950097 0.
0.650022 0.0950094 0.
0.652023 0.0950108 0.
0.654024 0.0950121 0.
0.656024 0.0950133 0.
0.658025 0.0950136 0.
0.660026 0.0950139 0.
0.662026 0.0950145 0.
0.664027 0.0950153 0.
0.666027 0.0950161 0.
0.668028 0.0950164 0.
0.670028 0.0950165 0.
0.672028 0.0950165 0.
0.674028 0.0950165 0.
0.676028 0.0950164 0.
0.678028 0.0950165 0.
0.680028 0.0950177 0.
0.682028 0.0950189 0.
0.684028 0.0950201 0.
0.686028 0.0950213 0.
0.688029 0.0950225 0.
0.690029 0.0950234 0.
0.69203 0.0950242 0.
0.69403 0.095025 0.
0.69603 0.0950265 0.
0.698029 0.0950281 0.
0.499968 0.0970255 0.
0.501969 0.0970243 0.
0.503969 0.0970232 0.
0.505969 0.0970221 0.
0.507969 0.0970214 0.
0.509969 0.0970206 0.
0.511969 0.09702 0.
0.51397 0.0970194 0.
0.515971 0.0970187 0.
0.517971 0.097018 0.
0.519971 0.0970172 0.
0.521972 0.0970164 0.
0.523972 0.097015 0.
0.525973 0.0970135 0.
0.527973 0.0970121 0.
0.529973 0.0970122 0.
0.531974 0.0970123 0.
0.533974 0.097012 0.
0.535974 0.0970109 0.
0.537975 0.0970099 0.
0.539975 0.0970093 0.
0.541975 0.0970091 0.
0.543976 0.0970088 0.
0.545976 0.0970091 0.
0.547976 0.0970096 0.
0.549977 0.09701 0.
0.551977 0.0970097 0.
0.553978 0.0970094 0.
0.555979 0.0970092 0.
0.55798 0.0970095 0.
0.55998 0.0970097 0.
0.561981 0.0970099 0.
0.563982 0.09701 0.
0.565983 0.0970102 0.
0.567983 0.0970107 0.
0.569984 0.0970114 0.
0.571985 0.0970122 0.
0.573986 0.0970119 0.
0.575987 0.0970114 0.
0.577988 0.097011 0.
0.579989 0.0970108 0.
0.58199 0.0970106 0.
0.583991 0.0970106 0.
0.585991 0.097011 0.
0.587992 0.0970115 0.
0.589993 0.0970119 0.
0.591994 0.0970122 0.
0.593994 0.0970125 0.
0.595996 0.0970119 0.
0.597998 0.0970111 0.
0.6 0.0970104 0.
0.602001 0.0970102 0.
0.604003 0.09701 0.
0.606005 0.09701 0.
0.608006 0.0970104 0.
0.610007 0.0970108 0.
0.612008 0.0970111 0.
0.614009 0.097011 0.
0.61601 0.097011 0.
0.618011 0.0970107 0.
0.620011 0.0970101 0.
0.622012 0.0970096 0.
0.624013 0.0970096 0.
0.626014 0.0970097 0.
0.628015 0.0970099 0.
0.630016 0.0970107 0.
0.632017 0.0970114 0.
0.634018 0.0970117 0.
0.636019 0.0970111 0.
0.63802 0.0970105 0.
0.64002 0.0970101 0.
0.642021 0.09701 0.
0.644022 0.09701 0.
0.646022 0.0970097 0.
0.648023 0.0970095 0.
0.650024 0.0970092 0.
0.652024 0.0970107 0.
0.654024 0.0970122 0.
0.656024 0.0970134 0.
0.658024 0.0970135 0.
0.660025 0.0970137 0.
0.662025 0.0970141 0.
0.664026 0.0970149 0.
0.666026 0.0970156 0.
0.668026 0.0970161 0.
0.670027 0.0970165 0.
0.672027 0.0970168 0.
0.674027 0.0970166 0.
0.676027 0.0970164 0.
0.678028 0.0970163 0.
0.680028 0.0970178 0.
0.682028 0.0970193 0.
0.684028 0.0970205 0.
0.686028 0.0970213 0.
0.688028 0.097022 0.
0.690028 0.0970229 0.
0.692028 0.0970238 0.
0.694029 0.0970247 0.
0.696028 0.0970267 0.
0.698028 0.0970289 0.
0.499971 0.0990256 0.
0.501971 0.0990246 0.
0.50397 0.0990233 0.
0.50597 0.0990222 0.
0.50797 0.0990216 0.
0.50997 0.0990209 0.
0.51197 0.0990201 0.
0.513971 0.0990192 0.
0.515971 0.0990182 0.
0.517972 0.0990176 0.
0.519972 0.0990171 0.
0.521972 0.0990167 0.
0.523973 0.0990151 0.
0.525973 0.0990133 0.
0.527974 0.0990117 0.
0.529974 0.099012 0.
0.531974 0.0990123 0.
0.533974 0.0990121 0.
0.535975 0.099011 0.
0.537976 0.0990098 0.
0.539976 0.0990093 0.
0.541976 0.0990093 0.
0.543976 0.0990094 0.
0.545976 0.0990094 0.
0.547976 0.0990094 0.
0.549976 0.0990095 0.
0.551977 0.0990091 0.
0.553977 0.0990087 0.
0.555978 0.0990085 0.
0.557979 0.0990092 0.
0.55998 0.0990099 0.
0.56198 0.0990103 0.
0.563981 0.0990102 0.
0.565981 0.0990101 0.
0.567983 0.0990105 0.
0.569984 0.0990112 0.
0.571985 0.0990119 0.
0.573987 0.0990115 0.
0.575988 0.099011 0.
0.577989 0.0990105 0.
0.57999 0.0990104 0.
0.581991 0.0990103 0.
0.583991 0.0990104 0.
0.585992 0.099011 0.
0.587992 0.0990115 0.
0.589992 0.0990117 0.
0.591993 0.0990118 0.
0.593993 0.0990118 0.
0.595996 0.0990113 0.
0.597998 0.0990106 0.
0.600001 0.09901 0.
0.602002 0.0990097 0.
0.604002 0.0990094 0.
0.606003 0.0990093 0.
0.608004 0.0990099 0.
0.610006 0.0990104 0.
0.612007 0.0990108 0.
0.614009 0.0990109 0.
0.616011 0.0990111 0.
0.618011 0.0990106 0.
0.620011 0.0990098 0.
0.622011 0.0990089 0.
0.624012 0.099009 0.
0.626014 0.0990092 0.
0.628015 0.0990095 0.
0.630016 0.0990102 0.
0.632017 0.0990108 0.
0.634018 0.0990111 0.
0.636019 0.0990107 0.
0.63802 0.0990102 0.
0.640021 0.0990099 0.
0.642021 0.0990097 0.
0.644022 0.0990096 0.
0.646023 0.0990094 0.
0.648024 0.0990092 0.
0.650025 0.099009 0.
0.652024 0.0990107 0.
0.654024 0.0990123 0.
0.656024 0.0990135 0.
0.658024 0.0990135 0.
0.660024 0.0990134 0.
0.662024 0.0990137 0.
0.664025 0.0990145 0.
0.666025 0.0990152 0.
0.668025 0.0990159 0.
0.670025 0.0990165 0.
0.672026 0.0990171 0.
0.674026 0.0990167 0.
0.676027 0.0990163 0.
0.678027 0.0990161 0.
0.680027 0.0990179 0.
0.682028 0.0990197 0.
0.684028 0.0990209 0.
0.686027 0.0990213 0.
0.688027 0.0990216 0.
0.690027 0.0990223 0.
0.692027 0.0990234 0.
0.694027 0.0990244 0.
0.696027 0.0990268 0.
0.698027 0.0990297 0.
CELLS 5000 10000
1 0
1 1
1 2
1 3
1 4
1 5
1 6
1 7
1 8
1 9
1 10
1 11
1 12
1 13
1 14
1 15
1 16
1 17
1 18
1 19
1 20
1 21
1 22
1 23
1 24
1 25
1 26
1 27
1 28
1 29
1 30
1 31
1 32
1 33
1 34
1 35
1 36
1 37
1 38
1 39
1 40
1 41
1 42
1 43
1 44
1 45
1 46
1 47
1 48
1 49
1 50
1 51
1 52
1 53
1 54
1 55
1 56
1 57
1 58
1 59
1 60
1 61
1 62
1 63
1 64
1 65
1 66
1 67
1 68
1 69
1 70
1 71
1 72
1 73
1 74
1 75
1 76
1 77
1 78
1 79
1 80
1 81
1 82
1 83
1 84
1 85
1 86
1 87
1 88
1 89
1 90
1 91
1 92
1 93
1 94
1 95
1 96
1 97
1 98
1 99
1 100
1 101
1 102
1 103
1 104
1 105
1 106
1 107
1 108
1 109
1 110
1 111
1 112
1 113
1 114
1 115
1 116
1 117
1 118
1 119
1 120
1 121
1 122
1 123
1 124
1 125
1 126
1 127
1 128
1 129
1 130
1 131
1 132
1 133
1 134
1 135
1 136
1 137
1 138
1 139
1 140
1 141
1 142
1 143
1 144
1 145
1 146
1 147
1 148
1 149
1 150
1 151
1 152
1 153
1 154
1 155
1 156
1 157
1 158
1 159
1 160
1 161
1 162
1 163
1 164
1 165
1 166
1 167
1 168
1 169
1 170
1 171
1 172
1 173
1 174
1 175
1 176
1 177
1 178
1 179
1 180
1 181
1 182
1 183
1 184
1 185
1 186
1 187
1 188
1 189
1 190
1 191
1 192
1 193
1 194
1 195
1 196
1 197
1 198
1 199
1 200
1 201
1 202
1 203
1 204
1 205
1 206
1 207
1 208
1 209
1 210
1 211
1 212
1 213
1 214
1 215
1 216
1 217
1 218
1 219
1 220
1 221
1 222
1 223
1 224
1 225
1 226
1 227
1 228
1 229
1 230
1 231
1 232
1 233
1 234
1 235
1 236
1 237
1 238
1 239
1 240
1 241
1 242
1 243
1 244
1 245
1 246
1 247
1 248
1 249
1 250
1 251
1 252
1 253
1 254
1 255
1 256
1 257
1 258
1 259
1 260
1 261
1 262
1 263
1 264
1 265
1 266
1 267
1 268
1 269
1 270
1 271
1 272
1 273
1 274
1 275
1 276
1 277
1 278
1 279
1 280
1 281
1 282
1 283
1 284
1 285
1 286
1 287
1 288
1 289
1 290
1 291
1 292
1 293
1 294
1 295
1 296
1 297
1 298
1 299
1 300
1 301
1 302
1 303
1 304
1 305
1 306
1 307
1 308
1 309
1 310
1 311
1 312
1 313
1 314
1 315
1 316
1 317
1 318
1 319
1 320
1 321
1 322
1 323
1 324
1 325
1 326
1 327
1 328
1 329
1 330
1 331
1 332
1 333
1 334
1 335
1 336
1 337
1 338
1 339
1 340
1 341
1 342
1 343
1 344
1 345
1 346
1 347
1 348
1 349
1 350
1 351
1 352
1 353
1 354
1 355
1 356
1 357
1 358
1 359
1 360
1 361
1 362
1 363
1 364
1 365
1 366
1 367
1 368
1 369
1 370
1 371
1 372
1 373
1 374
1 375
1 376
1 377
1 378
1 379
1 380
1 381
1 382
1 383
1 384
1 385
1 386
1 387
1 388
1 389
1 390
1 391
1 392
1 393
1 394
1 395
1 396
1 397
1 398
1 399
1 400
1 401
1 402
1 403
1 404
1 405
1 406
1 407
1 408
1 409
1 410
1 411
1 412
1 413
1 414
1 415
1 416
1 417
1 418
1 419
1 420
1 421
1 422
1 423
1 424
1 425
1 426
1 427
1 428
1 429
1 430
1 431
1 432
1 433
1 434
1 435
1 436
1 437
1 438
1 439
1 440
1 441
1 442
1 443
1 444
1 445
1 446
1 447
1 448
1 449
1 450
1 451
1 452
1 453
1 454
1 455
1 456
1 457
1 458
1 459
1 460
1 461
1 462
1 463
1 464
1 465
1 466
1 467
1 468
1 469
1 470
1 471
1 472
1 473
1 474
1 475
1 476
1 477
1 478
1 479
1 480
1 481
1 482
1 483
1 484
1 485
1 486
1 487
1 488
1 489
1 490
1 491
1 492
1 493
1 494
1 495
1 496
1 497
1 498
1 499
1 500
1 501
1 502
1 503
1 504
1 505
1 506
1 507
1 508
1 509
1 510
1 511
1 512
1 513
1 514
1 515
1 516
1 517
1 518
1 519
1 520
1 521
1 522
1 523
1 524
1 525
1 526
1 527
1 528
1 529
1 530
1 531
1 532
1 533
1 534
1 535
1 536
1 537
1 538
1 539
1 540
1 541
1 542
1 543
1 544
1 545
1 546
1 547
1 548
1 549
1 550
1 551
1 552
1 553
1 554
1 555
1 556
1 557
1 558
1 559
1 560
1 561
1 562
1 563
1 564
1 565
1 566
1 567
1 568
1 569
1 570
1 571
1 572
1 573
1 574
1 575
1 576
1 577
1 578
1 579
1 580
1 581
1 582
1 583
1 584
1 585
1 586
1 587
1 588
1 589
1 590
1 591
1 592
1 593
1 594
1 595
1 596
1 597
1 598
1 599
1 600
1 601
1 602
1 603
1 604
1 605
1 606
1 607
1 608
1 609
1 610
1 611
1 612
1 613
1 614
1 615
1 616
1 617
1 618
1 619
1 620
1 621
1 622
1 623
1 624
1 625
1 626
1 627
1 628
1 629
1 630
1 631
1 632
1 633
1 634
1 635
1 636
1 637
1 638
1 639
1 640
1 641
1 642
1 643
1 644
1 645
1 646
1 647
1 648
1 649
1 650
1 651
1 652
1 653
1 654
1 655
1 656
1 657
1 658
1 659
1 660
1 661
1 662
1 663
1 664
1 665
1 666
1 667
1 668
1 669
1 670
1 671
1 672
1 673
1 674
1 675
1 676
1 677
1 678
1 679
1 680
1 681
1 682
1 683
1 684
1 685
1 686
1 687
1 688
1 689
1 690
1 691
1 692
1 693
1 694
1 695
1 696
1 697
1 698
1 699
1 700
1 701
1 702
1 703
1 704
1 705
1 706
1 707
1 708
1 709
1 710
1 711
1 712
1 713
1 714
1 715
1 716
1 717
1 718
1 719
1 720
1 721
1 722
1 723
1 724
1 725
1 726
1 727
1 728
1 729
1 730
1 731
1 732
1 733
1 734
1 735
1 736
1 737
1 738
1 739
1 740
1 741
1 742
1 743
1 744
1 745
1 746
1 747
1 748
1 749
1 750
1 751
1 752
1 753
1 754
1 755
1 756
1 757
1 758
1 759
1 760
1 761
1 762
1 763
1 764
1 765
1 766
1 767
1 768
1 769
1 770
1 771
1 772
1 773
1 774
1 775
1 776
1 777
1 778
1 779
1 780
1 781
1 782
1 783
1 784
1 785
1 786
1 787
1 788
1 789
1 790
1 791
1 792
1 793
1 794
1 795
1 796
1 797
1 798
1 799
1 800
1 801
1 802
1 803
1 804
1 805
1 806
1 807
1 808
1 809
1 810
1 811
1 812
1 813
1 814
1 815
1 816
1 817
1 818
1 819
1 820
1 821
1 822
1 823
1 824
1 825
1 826
1 827
1 828
1 829
1 830
1 831
1 832
1 833
1 834
1 835
1 836
1 837
1 838
1 839
1 840
1 841
1 842
1 843
1 844
1 845
1 846
1 847
1 848
1 849
1 850
1 851
1 852
1 853
1 854
1 855
1 856
1 857
1 858
1 859
1 860
1 861
1 862
1 863
1 864
1 865
1 866
1 867
1 868
1 869
1 870
1 871
1 872
1 873
1 874
1 875
1 876
1 877
1 878
1 879
1 880
1 881
1 882
1 883
1 884
1 885
1 886
1 887
1 888
1 889
1 890
1 891
1 892
1 893
1 894
1 895
1 896
1 897
1 898
1 899
1 900
1 901
1 902
1 903
1 904
1 905
1 906
1 907
1 908
1 909
1 910
1 911
1 912
1 913
1 914
1 915
1 916
1 917
1 918
1 919
1 920
1 921
1 922
1 923
1 924
1 925
1 926
1 927
1 928
1 929
1 930
1 931
1 932
1 933
1 934
1 935
1 936
1 937
1 938
1 939
1 940
1 941
1 942
1 943
1 944
1 945
1 946
1 947
1 948
1 949
1 950
1 951
1 952
1 953
1 954
1 955
1 956
1 957
1 958
1 959
1 960
1 961
1 962
1 963
1 964
1 965
1 966
1 967
1 968
1 969
1 970
1 971
1 972
1 973
1 974
1 975
1 976
1 977
1 978
1 979
1 980
1 981
1 982
1 983
1 984
1 985
1 986
1 987
1 988
1 989
1 990
1 991
1 992
1 993
1 994
1 995
1 996
1 997
1 998
1 999
1 1000
1 1001
1 1002
1 1003
1 1004
1 1005
1 1006
1 1007
1 1008
1 1009
1 1010
1 1011
1 1012
1 1013
1 1014
1 1015
1 1016
1 1017
1 1018
1 1019
1 1020
1 1021
1 1022
1 1023
1 1024
1 1025
1 1026
1 1027
1 1028
1 1029
1 1030
1 1031
1 1032
1 1033
1 1034
1 1035
1 1036
1 1037
1 1038
1 1039
1 1040
1 1041
1 1042
1 1043
1 1044
1 1045
1 1046
1 1047
1 1048
1 1049
1 1050
1 1051
1 1052
1 1053
1 1054
1 1055
1 1056
1 1057
1 1058
1 1059
1 1060
1 1061
1 1062
1 1063
1 1064
1 1065
1 1066
1 1067
1 1068
1 1069
1 1070
1 1071
1 1072
1 1073
1 1074
1 1075
1 1076
1 1077
1 1078
1 1079
1 1080
1 1081
1 1082
1 1083
1 1084
1 1085
1 1086
1 1087
1 1088
1 1089
1 1090
1 1091
1 1092
1 1093
1 1094
1 1095
1 1096
1 1097
1 1098
1 1099
1 1100
1 1101
1 1102
1 1103
1 1104
1 1105
1 1106
1 1107
1 1108
1 1109
1 1110
1 1111
1 1112
1 1113
1 1114
1 1115
1 1116
1 1117
1 1118
1 1119
1 1120
1 1121
1 1122
1 1123
1 1124
1 1125
1 1126
1 1127
1 1128
1 1129
1 1130
1 1131
1 1132
1 1133
1 1134
1 1135
1 1136
1 1137
1 1138
1 1139
1 1140
1 1141
1 1142
1 1143
1 1144
1 1145
1 1146
1 1147
1 1148
1 1149
1 1150
1 1151
1 1152
1 1153
1 1154
1 1155
1 1156
1 1157
1 1158
1 1159
1 1160
1 1161
1 1162
1 1163
1 1164
1 1165
1 1166
1 1167
1 1168
1 1169
1 1170
1 1171
1 1172
1 1173
1 1174
1 1175
1 1176
1 1177
1 1178
1 1179
1 1180
1 1181
1 1182
1 1183
1 1184
1 1185
1 1186
1 1187
1 1188
1 1189
1 1190
1 1191
1 1192
1 1193
1 1194
1 1195
1 1196
1 1197
1 1198
1 1199
1 1200
1 1201
1 1202
1 1203
1 1204
1 1205
1 1206
1 1207
1 1208
1 1209
1 1210
1 1211
1 1212
1 1213
1 1214
1 1215
1 1216
1 1217
1 1218
1 1219
1 1220
1 1221
1 1222
1 1223
1 1224
1 1225
1 1226
1 1227
1 1228
1 1229
1 1230
1 1231
1 1232
1 1233
1 1234
1 1235
1 1236
1 1237
1 1238
1 1239
1 1240
1 1241
1 1242
1 1243
1 1244
1 1245
1 1246
1 1247
1 1248
1 1249
1 1250
1 1251
1 1252
1 1253
1 1254
1 1255
1 1256
1 1257
1 1258
1 1259
1 1260
1 1261
1 1262
1 1263
1 1264
1 1265
1 1266
1 1267
1 1268
1 1269
1 1270
1 1271
1 1272
1 1273
1 1274
1 1275
1 1276
1 1277
1 1278
1 1279
1 1280
1 1281
1 1282
1 1283
1 1284
1 1285
1 1286
1 1287
1 1288
1 1289
1 1290
1 1291
1 1292
1 1293
1 1294
1 1295
1 1296
1 1297
1 1298
1 1299
1 1300
1 1301
1 1302
1 1303
1 1304
1 1305
1 1306
1 1307
1 1308
1 1309
1 1310
1 1311
1 1312
1 1313
1 1314
1 1315
1 1316
1 1317
1 1318
1 1319
1 1320
1 1321
1 1322
1 1323
1 1324
1 1325
1 1326
1 1327
1 1328
1 1329
1 1330
1 1331
1 1332
1 1333
1 1334
1 1335
1 1336
1 1337
1 1338
1 1339
1 1340
1 1341
1 1342
1 1343
1 1344
1 1345
1 1346
1 1347
1 1348
1 1349
1 1350
1 1351
1 1352
1 1353
1 1354
1 1355
1 1356
1 1357
1 1358
1 1359
1 1360
1 1361
1 1362
1 1363
1 1364
1 1365
1 1366
1 1367
1 1368
1 1369
1 1370
1 1371
1 1372
1 1373
1 1374
1 1375
1 1376
1 1377
1 1378
1 1379
1 1380
1 1381
1 1382
1 1383
1 1384
1 1385
1 1386
1 1387
1 1388
1 1389
1 1390
1 1391
1 1392
1 1393
1 1394
1 1395
1 1396
1 1397
1 1398
1 1399
1 1400
1 1401
1 1402
1 1403
1 1404
1 1405
1 1406
1 1407
1 1408
1 1409
1 1410
1 1411
1 1412
1 1413
1 1414
1 1415
1 1416
1 1417
1 1418
1 1419
1 1420
1 1421
1 1422
1 1423
1 1424
1 1425
1 1426
1 1427
1 1428
1 1429
1 1430
1 1431
1 1432
1 1433
1 1434
1 1435
1 1436
1 1437
1 1438
1 1439
1 1440
1 1441
1 1442
1 1443
1 1444
1 1445
1 1446
1 1447
1 1448
1 1449
1 1450
1 1451
1 1452
1 1453
1 1454
1 1455
1 1456
1 1457
1 1458
1 1459
1 1460
1 1461
1 1462
1 1463
1 1464
1 1465
1 1466
1 1467
1 1468
1 1469
1 1470
1 1471
1 1472
1 1473
1 1474
1 1475
1 1476
1 1477
1 1478
1 1479
1 1480
1 1481
1 1482
1 1483
1 1484
1 1485
1 1486
1 1487
1 1488
1 1489
1 1490
1 1491
1 1492
1 1493
1 1494
1 1495
1 1496
1 1497
1 1498
1 1499
1 1500
1 1501
1 1502
1 1503
1 1504
1 1505
1 1506
1 1507
1 1508
1 1509
1 1510
1 1511
1 1512
1 1513
1 1514
1 1515
1 1516
1 1517
1 1518
1 1519
1 1520
1 1521
1 1522
1 1523
1 1524
1 1525
1 1526
1 1527
1 1528
1 1529
1 1530
1 1531
1 1532
1 1533
1 1534
1 1535
1 1536
1 1537
1 1538
1 1539
1 1540
1 1541
1 1542
1 1543
1 1544
1 1545
1 1546
1 1547
1 1548
1 1549
1 1550
1 1551
1 1552
1 1553
1 1554
1 1555
1 1556
1 1557
1 1558
1 1559
1 1560
1 1561
1 1562
1 1563
1 1564
1 1565
1 1566
1 1567
1 1568
1 1569
1 1570
1 1571
1 1572
1 1573
1 1574
1 1575
1 1576
1 1577
1 1578
1 1579
1 1580
1 1581
1 1582
1 1583
1 1584
1 1585
1 1586
1 1587
1 1588
1 1589
1 1590
1 1591
1 1592
1 1593
1 1594
1 1595
1 1596
1 1597
1 1598
1 1599
1 1600
1 1601
1 1602
1 1603
1 1604
1 1605
1 1606
1 1607
1 1608
1 1609
1 1610
1 1611
1 1612
1 1613
1 1614
1 1615
1 1616
1 1617
1 1618
1 1619
1 1620
1 1621
1 1622
1 1623
1 1624
1 1625
1 1626
1 1627
1 1628
1 1629
1 1630
1 1631
1 1632
1 1633
1 1634
1 1635
1 1636
1 1637
1 1638
1 1639
1 1640
1 1641
1 1642
1 1643
1 1644
1 1645
1 1646
1 1647
1 1648
1 1649
1 1650
1 1651
1 1652
1 1653
1 1654
1 1655
1 1656
1 1657
1 1658
1 1659
1 1660
1 1661
1 1662
1 1663
1 1664
1 1665
1 1666
1 1667
1 1668
1 1669
1 1670
1 1671
1 1672
1 1673
1 1674
1 1675
1 1676
1 1677
1 1678
1 1679
1 1680
1 1681
1 1682
1 1683
1 1684
1 1685
1 1686
1 1687
1 1688
1 1689
1 1690
1 1691
1 1692
1 1693
1 1694
1 1695
1 1696
1 1697
1 1698
1 1699
1 1700
1 1701
1 1702
1 1703
1 1704
1 1705
1 1706
1 1707
1 1708
1 1709
1 1710
1 1711
1 1712
1 1713
1 1714
1 1715
1 1716
1 1717
1 1718
1 1719
1 1720
1 1721
1 1722
1 1723
1 1724
1 1725
1 1726
1 1727
1 1728
1 1729
1 1730
1 1731
1 1732
1 1733
1 1734
1 1735
1 1736
1 1737
1 1738
1 1739
1 1740
1 1741
1 1742
1 1743
1 1744
1 1745
1 1746
1 1747
1 1748
1 1749
1 1750
1 1751
1 1752
1 1753
1 1754
1 1755
1 1756
1 1757
1 1758
1 1759
1 1760
1 1761
1 1762
1 1763
1 1764
1 1765
1 1766
1 1767
1 1768
1 1769
1 1770
1 1771
1 1772
1 1773
1 1774
1 1775
1 1776
1 1777
1 1778
1 1779
1 1780
1 1781
1 1782
1 1783
1 1784
1 1785
1 1786
1 1787
1 1788
1 1789
1 1790
1 1791
1 1792
1 1793
1 1794
1 1795
1 1796
1 1797
1 1798
1 1799
1 1800
1 1801
1 1802
1 1803
1 1804
1 1805
1 1806
1 1807
1 1808
1 1809
1 1810
1 1811
1 1812
1 1813
1 1814
1 1815
1 1816
1 1817
1 1818
1 1819
1 1820
1 1821
1 1822
1 1823
1 1824
1 1825
1 1826
1 1827
1 1828
1 1829
1 1830
1 1831
1 1832
1 1833
1 1834
1 1835
1 1836
1 1837
1 1838
1 1839
1 1840
1 1841
1 1842
1 1843
1 1844
1 1845
1 1846
1 1847
1 1848
1 1849
1 1850
1 1851
1 1852
1 1853
1 1854
1 1855
1 1856
1 1857
1 1858
1 1859
1 1860
1 1861
1 1862
1 1863
1 1864
1 1865
1 1866
1 1867
1 1868
1 1869
1 1870
1 1871
1 1872
1 1873
1 1874
1 1875
1 1876
1 1877
1 1878
1 1879
1 1880
1 1881
1 1882
1 1883
1 1884
1 1885
1 1886
1 1887
1 1888
1 1889
1 1890
1 1891
1 1892
1 1893
1 1894
1 1895
1 1896
1 1897
1 1898
1 1899
1 1900
1 1901
1 1902
1 1903
1 1904
1 1905
1 1906
1 1907
1 1908
1 1909
1 1910
1 1911
1 1912
1 1913
1 1914
1 1915
1 1916
1 1917
1 1918
1 1919
1 1920
1 1921
1 1922
1 1923
1 1924
1 1925
1 1926
1 1927
1 1928
1 1929
1 1930
1 1931
1 1932
1 1933
1 1934
1 1935
1 1936
1 1937
1 1938
1 1939
1 1940
1 1941
1 1942
1 1943
1 1944
1 1945
1 1946
1 1947
1 1948
1 1949
1 1950
1 1951
1 1952
1 1953
1 1954
1 1955
1 1956
1 1957
1 1958
1 1959
1 1960
1 1961
1 1962
1 1963
1 1964
1 1965
1 1966
1 1967
1 1968
1 1969
1 1970
1 1971
1 1972
1 1973
1 1974
1 1975
1 1976
1 1977
1 1978
1 1979
1 1980
1 1981
1 1982
1 1983
1 1984
1 1985
1 1986
1 1987
1 1988
1 1989
1 1990
1 1991
1 1992
1 1993
1 1994
1 1995
1 1996
1 1997
1 1998
1 1999
1 2000
1 2001
1 2002
1 2003
1 2004
1 2005
1 2006
1 2007
1 2008
1 2009
1 2010
1 2011
1 2012
1 2013
1 2014
1 2015
1 2016
1 2017
1 2018
1 2019
1 2020
1 2021
1 2022
1 2023
1 2024
1 2025
1 2026
1 2027
1 2028
1 2029
1 2030
1 2031
1 2032
1 2033
1 2034
1 2035
1 2036
1 2037
1 2038
1 2039
1 2040
1 2041
1 2042
1 2043
1 2044
1 2045
1 2046
1 2047
1 2048
1 2049
1 2050
1 2051
1 2052
1 2053
1 2054
1 2055
1 2056
1 2057
1 2058
1 2059
1 2060
1 2061
1 2062
1 2063
1 2064
1 2065
1 2066
1 2067
1 2068
1 2069
1 2070
1 2071
1 2072
1 2073
1 2074
1 2075
1 2076
1 2077
1 2078
1 2079
1 2080
1 2081
1 2082
1 2083
1 2084
1 2085
1 2086
1 2087
1 2088
1 2089
1 2090
1 2091
1 2092
1 2093
1 2094
1 2095
1 2096
1 2097
1 2098
1 2099
1 2100
1 2101
1 2102
1 2103
1 2104
1 2105
1 2106
1 2107
1 2108
1 2109
1 2110
1 2111
1 2112
1 2113
1 2114
1 2115
1 2116
1 2117
1 2118
1 2119
1 2120
1 2121
1 2122
1 2123
1 2124
1 2125
1 2126
1 2127
1 2128
1 2129
1 2130
1 2131
1 2132
1 2133
1 2134
1 2135
1 2136
1 2137
1 2138
1 2139
1 2140
1 2141
1 2142
1 2143
1 2144
1 2145
1 2146
1 2147
1 2148
1 2149
1 2150
1 2151
1 2152
1 2153
1 2154
1 2155
1 2156
1 2157
1 2158
1 2159
1 2160
1 2161
1 2162
1 2163
1 2164
1 2165
1 2166
1 2167
1 2168
1 2169
1 2170
1 2171
1 2172
1 2173
1 2174
1 2175
1 2176
1 2177
1 2178
1 2179
1 2180
1 2181
1 2182
1 2183
1 2184
1 2185
1 2186
1 2187
1 2188
1 2189
1 2190
1 2191
1 2192
1 2193
1 2194
1 2195
1 2196
1 2197
1 2198
1 2199
1 2200
1 2201
1 2202
1 2203
1 2204
1 2205
1 2206
1 2207
1 2208
1 2209
1 2210
1 2211
1 2212
1 2213
1 2214
1 2215
1 2216
1 2217
1 2218
1 2219
1 2220
1 2221
1 2222
1 2223
1 2224
1 2225
1 2226
1 2227
1 2228
1 2229
1 2230
1 2231
1 2232
1 2233
1 2234
1 2235
1 2236
1 2237
1 2238
1 2239
1 2240
1 2241
1 2242
1 2243
1 2244
1 2245
1 2246
1 2247
1 2248
1 2249
1 2250
1 2251
1 2252
1 2253
1 2254
1 2255
1 2256
1 2257
1 2258
1 2259
1 2260
1 2261
1 2262
1 2263
1 2264
1 2265
1 2266
1 2267
1 2268
1 2269
1 2270
1 2271
1 2272
1 2273
1 2274
1 2275
1 2276
1 2277
1 2278
1 2279
1 2280
1 2281
1 2282
1 2283
1 2284
1 2285
1 2286
1 2287
1 2288
1 2289
1 2290
1 2291
1 2292
1 2293
1 2294
1 2295
1 2296
1 2297
1 2298
1 2299
1 2300
1 2301
1 2302
1 2303
1 2304
1 2305
1 2306
1 2307
1 2308
1 2309
1 2310
1 2311
1 2312
1 2313
1 2314
1 2315
1 2316
1 2317
1 2318
1 2319
1 2320
1 2321
1 2322
1 2323
1 2324
1 2325
1 2326
1 2327
1 2328
1 2329
1 2330
1 2331
1 2332
1 2333
1 2334
1 2335
1 2336
1 2337
1 2338
1 2339
1 2340
1 2341
1 2342
1 2343
1 2344
1 2345
1 2346
1 2347
1 2348
1 2349
1 2350
1 2351
1 2352
1 2353
1 2354
1 2355
1 2356
1 2357
1 2358
1 2359
1 2360
1 2361
1 2362
1 2363
1 2364
1 2365
1 2366
1 2367
1 2368
1 2369
1 2370
1 2371
1 2372
1 2373
1 2374
1 2375
1 2376
1 2377
1 2378
1 2379
1 2380
1 2381
1 2382
1 2383
1 2384
1 2385
1 2386
1 2387
1 2388
1 2389
1 2390
1 2391
1 2392
1 2393
1 2394
1 2395
1 2396
1 2397
1 2398
1 2399
1 2400
1 2401
1 2402
1 2403
1 2404
1 2405
1 2406
1 2407
1 2408
1 2409
1 2410
1 2411
1 2412
1 2413
1 2414
1 2415
1 2416
1 2417
1 2418
1 2419
1 2420
1 2421
1 2422
1 2423
1 2424
1 2425
1 2426
1 2427
1 2428
1 2429
1 2430
1 2431
1 2432
1 2433
1 2434
1 2435
1 2436
1 2437
1 2438
1 2439
1 2440
1 2441
1 2442
1 2443
1 2444
1 2445
1 2446
1 2447
1 2448
1 2449
1 2450
1 2451
1 2452
1 2453
1 2454
1 2455
1 2456
1 2457
1 2458
1 2459
1 2460
1 2461
1 2462
1 2463
1 2464
1 2465
1 2466
1 2467
1 2468
1 2469
1 2470
1 2471
1 2472
1 2473
1 2474
1 2475
1 2476
1 2477
1 2478
1 2479
1 2480
1 2481
1 2482
1 2483
1 2484
1 2485
1 2486
1 2487
1 2488
1 2489
1 2490
1 2491
1 2492
1 2493
1 2494
1 2495
1 2496
1 2497
1 2498
1 2499
1 2500
1 2501
1 2502
1 2503
1 2504
1 2505
1 2506
1 2507
1 2508
1 2509
1 2510
1 2511
1 2512
1 2513
1 2514
1 2515
1 2516
1 2517
1 2518
1 2519
1 2520
1 2521
1 2522
1 2523
1 2524
1 2525
1 2526
1 2527
1 2528
1 2529
1 2530
1 2531
1 2532
1 2533
1 2534
1 2535
1 2536
1 2537
1 2538
1 2539
1 2540
1 2541
1 2542
1 2543
1 2544
1 2545
1 2546
1 2547
1 2548
1 2549
1 2550
1 2551
1 2552
1 2553
1 2554
1 2555
1 2556
1 2557
1 2558
1 2559
1 2560
1 2561
1 2562
1 2563
1 2564
1 2565
1 2566
1 2567
1 2568
1 2569
1 2570
1 2571
1 2572
1 2573
1 2574
1 2575
1 2576
1 2577
1 2578
1 2579
1 2580
1 2581
1 2582
1 2583
1 2584
1 2585
1 2586
1 2587
1 2588
1 2589
1 2590
1 2591
1 2592
1 2593
1 2594
1 2595
1 2596
1 2597
1 2598
1 2599
1 2600
1 2601
1 2602
1 2603
1 2604
1 2605
1 2606
1 2607
1 2608
1 2609
1 2610
1 2611
1 2612
1 2613
1 2614
1 2615
1 2616
1 2617
1 2618
1 2619
1 2620
1 2621
1 2622
1 2623
1 2624
1 2625
1 2626
1 2627
1 2628
1 2629
1 2630
1 2631
1 2632
1 2633
1 2634
1 2635
1 2636
1 2637
1 2638
1 2639
1 2640
1 2641
1 2642
1 2643
1 2644
1 2645
1 2646
1 2647
1 2648
1 2649
1 2650
1 2651
1 2652
1 2653
1 2654
1 2655
1 2656
1 2657
1 2658
1 2659
1 2660
1 2661
1 2662
1 2663
1 2664
1 2665
1 2666
1 2667
1 2668
1 2669
1 2670
1 2671
1 2672
1 2673
1 2674
1 2675
1 2676
1 2677
1 2678
1 2679
1 2680
1 2681
1 2682
1 2683
1 2684
1 2685
1 2686
1 2687
1 2688
1 2689
1 2690
1 2691
1 2692
1 2693
1 2694
1 2695
1 2696
1 2697
1 2698
1 2699
1 2700
1 2701
1 2702
1 2703
1 2704
1 2705
1 2706
1 2707
1 2708
1 2709
1 2710
1 2711
1 2712
1 2713
1 2714
1 2715
1 2716
1 2717
1 2718
1 2719
1 2720
1 2721
1 2722
1 2723
1 2724
1 2725
1 2726
1 2727
1 2728
1 2729
1 2730
1 2731
1 2732
1 2733
1 2734
1 2735
1 2736
1 2737
1 2738
1 2739
1 2740
1 2741
1 2742
1 2743
1 2744
1 2745
1 2746
1 2747
1 2748
1 2749
1 2750
1 2751
1 2752
1 2753
1 2754
1 2755
1 2756
1 2757
1 2758
1 2759
1 2760
1 2761
1 2762
1 2763
1 2764
1 2765
1 2766
1 2767
1 2768
1 2769
1 2770
1 2771
1 2772
1 2773
1 2774
1 2775
1 2776
1 2777
1 2778
1 2779
1 2780
1 2781
1 2782
1 2783
1 2784
1 2785
1 2786
1 2787
1 2788
1 2789
1 2790
1 2791
1 2792
1 2793
1 2794
1 2795
1 2796
1 2797
1 2798
1 2799
1 2800
1 2801
1 2802
1 2803
1 2804
1 2805
1 2806
1 2807
1 2808
1 2809
1 2810
1 2811
1 2812
1 2813
1 2814
1 2815
1 2816
1 2817
1 2818
1 2819
1 2820
1 2821
1 2822
1 2823
1 2824
1 2825
1 2826
1 2827
1 2828
1 2829
1 2830
1 2831
1 2832
1 2833
1 2834
1 2835
1 2836
1 2837
1 2838
1 2839
1 2840
1 2841
1 2842
1 2843
1 2844
1 2845
1 2846
1 2847
1 2848
1 2849
1 2850
1 2851
1 2852
1 2853
1 2854
1 2855
1 2856
1 2857
1 2858
1 2859
1 2860
1 2861
1 2862
1 2863
1 2864
1 2865
1 2866
1 2867
1 2868
1 2869
1 2870
1 2871
1 2872
1 2873
1 2874
1 2875
1 2876
1 2877
1 2878
1 2879
1 2880
1 2881
1 2882
1 2883
1 2884
1 2885
1 2886
1 2887
1 2888
1 2889
1 2890
1 2891
1 2892
1 2893
1 2894
1 2895
1 2896
1 2897
1 2898
1 2899
1 2900
1 2901
1 2902
1 2903
1 2904
1 2905
1 2906
1 2907
1 2908
1 2909
1 2910
1 2911
1 2912
1 2913
1 2914
1 2915
1 2916
1 2917
1 2918
1 2919
1 2920
1 2921
1 2922
1 2923
1 2924
1 2925
1 2926
1 2927
1 2928
1 2929
1 2930
1 2931
1 2932
1 2933
1 2934
1 2935
1 2936
1 2937
1 2938
1 2939
1 2940
1 2941
1 2942
1 2943
1 2944
1 2945
1 2946
1 2947
1 2948
1 2949
1 2950
1 2951
1 2952
1 2953
1 2954
1 2955
1 2956
1 2957
1 2958
1 2959
1 2960
1 2961
1 2962
1 2963
1 2964
1 2965
1 2966
1 2967
1 2968
1 2969
1 2970
1 2971
1 2972
1 2973
1 2974
1 2975
1 2976
1 2977
1 2978
1 2979
1 2980
1 2981
1 2982
1 2983
1 2984
1 2985
1 2986
1 2987
1 2988
1 2989
1 2990
1 2991
1 2992
1 2993
1 2994
1 2995
1 2996
1 2997
1 2998
1 2999
1 3000
1 3001
1 3002
1 3003
1 3004
1 3005
1 3006
1 3007
1 3008
1 3009
1 3010
1 3011
1 3012
1 3013
1 3014
1 3015
1 3016
1 3017
1 3018
1 3019
1 3020
1 3021
1 3022
1 3023
1 3024
1 3025
1 3026
1 3027
1 3028
1 3029
1 3030
1 3031
1 3032
1 3033
1 3034
1 3035
1 3036
1 3037
1 3038
1 3039
1 3040
1 3041
1 3042
1 3043
1 3044
1 3045
1 3046
1 3047
1 3048
1 3049
1 3050
1 3051
1 3052
1 3053
1 3054
1 3055
1 3056
1 3057
1 3058
1 3059
1 3060
1 3061
1 3062
1 3063
1 3064
1 3065
1 3066
1 3067
1 3068
1 3069
1 3070
1 3071
1 3072
1 3073
1 3074
1 3075
1 3076
1 3077
1 3078
1 3079
1 3080
1 3081
1 3082
1 3083
1 3084
1 3085
1 3086
1 3087
1 3088
1 3089
1 3090
1 3091
1 3092
1 3093
1 3094
1 3095
1 3096
1 3097
1 3098
1 3099
1 3100
1 3101
1 3102
1 3103
1 3104
1 3105
1 3106
1 3107
1 3108
1 3109
1 3110
1 3111
1 3112
1 3113
1 3114
1 3115
1 3116
1 3117
1 3118
1 3119
1 3120
1 3121
1 3122
1 3123
1 3124
1 3125
1 3126
1 3127
1 3128
1 3129
1 3130
1 3131
1 3132
1 3133
1 3134
1 3135
1 3136
1 3137
1 3138
1 3139
1 3140
1 3141
1 3142
1 3143
1 3144
1 3145
1 3146
1 3147
1 3148
1 3149
1 3150
1 3151
1 3152
1 3153
1 3154
1 3155
1 3156
1 3157
1 3158
1 3159
1 3160
1 3161
1 3162
1 3163
1 3164
1 3165
1 3166
1 3167
1 3168
1 3169
1 3170
1 3171
1 3172
1 3173
1 3174
1 3175
1 3176
1 3177
1 3178
1 3179
1 3180
1 3181
1 3182
1 3183
1 3184
1 3185
1 3186
1 3187
1 3188
1 3189
1 3190
1 3191
1 3192
1 3193
1 3194
1 3195
1 3196
1 3197
1 3198
1 3199
1 3200
1 3201
1 3202
1 3203
1 3204
1 3205
1 3206
1 3207
1 3208
1 3209
1 3210
1 3211
1 3212
1 3213
1 3214
1 3215
1 3216
1 3217
1 3218
1 3219
1 3220
1 3221
1 3222
1 3223
1 3224
1 3225
1 3226
1 3227
1 3228
1 3229
1 3230
1 3231
1 3232
1 3233
1 3234
1 3235
1 3236
1 3237
1 3238
1 3239
1 3240
1 3241
1 3242
1 3243
1 3244
1 3245
1 3246
1 3247
1 3248
1 3249
1 3250
1 3251
1 3252
1 3253
1 3254
1 3255
1 3256
1 3257
1 3258
1 3259
1 3260
1 3261
1 3262
1 3263
1 3264
1 3265
1 3266
1 3267
1 3268
1 3269
1 3270
1 3271
1 3272
1 3273
1 3274
1 3275
1 3276
1 3277
1 3278
1 3279
1 3280
1 3281
1 3282
1 3283
1 3284
1 3285
1 3286
1 3287
1 3288
1 3289
1 3290
1 3291
1 3292
1 3293
1 3294
1 3295
1 3296
1 3297
1 3298
1 3299
1 3300
1 3301
1 3302
1 3303
1 3304
1 3305
1 3306
1 3307
1 3308
1 3309
1 3310
1 3311
1 3312
1 3313
1 3314
1 3315
1 3316
1 3317
1 3318
1 3319
1 3320
1 3321
1 3322
1 3323
1 3324
1 3325
1 3326
1 3327
1 3328
1 3329
1 3330
1 3331
1 3332
1 3333
1 3334
1 3335
1 3336
1 3337
1 3338
1 3339
1 3340
1 3341
1 3342
1 3343
1 3344
1 3345
1 3346
1 3347
1 3348
1 3349
1 3350
1 3351
1 3352
1 3353
1 3354
1 3355
1 3356
1 3357
1 3358
1 3359
1 3360
1 3361
1 3362
1 3363
1 3364
1 3365
1 3366
1 3367
1 3368
1 3369
1 3370
1 3371
1 3372
1 3373
1 3374
1 3375
1 3376
1 3377
1 3378
1 3379
1 3380
1 3381
1 3382
1 3383
1 3384
1 3385
1 3386
1 3387
1 3388
1 3389
1 3390
1 3391
1 3392
1 3393
1 3394
1 3395
1 3396
1 3397
1 3398
1 3399
1 3400
1 3401
1 3402
1 3403
1 3404
1 3405
1 3406
1 3407
1 3408
1 3409
1 3410
1 3411
1 3412
1 3413
1 3414
1 3415
1 3416
1 3417
1 3418
1 3419
1 3420
1 3421
1 3422
1 3423
1 3424
1 3425
1 3426
1 3427
1 3428
1 3429
1 3430
1 3431
1 3432
1 3433
1 3434
1 3435
1 3436
1 3437
1 3438
1 3439
1 3440
1 3441
1 3442
1 3443
1 3444
1 3445
1 3446
1 3447
1 3448
1 3449
1 3450
1 3451
1 3452
1 3453
1 3454
1 3455
1 3456
1 3457
1 3458
1 3459
1 3460
1 3461
1 3462
1 3463
1 3464
1 3465
1 3466
1 3467
1 3468
1 3469
1 3470
1 3471
1 3472
1 3473
1 3474
1 3475
1 3476
1 3477
1 3478
1 3479
1 3480
1 3481
1 3482
1 3483
1 3484
1 3485
1 3486
1 3487
1 3488
1 3489
1 3490
1 3491
1 3492
1 3493
1 3494
1 3495
1 3496
1 3497
1 3498
1 3499
1 3500
1 3501
1 3502
1 3503
1 3504
1 3505
1 3506
1 3507
1 3508
1 3509
1 3510
1 3511
1 3512
1 3513
1 3514
1 3515
1 3516
1 3517
1 3518
1 3519
1 3520
1 3521
1 3522
1 3523
1 3524
1 3525
1 3526
1 3527
1 3528
1 3529
1 3530
1 3531
1 3532
1 3533
1 3534
1 3535
1 3536
1 3537
1 3538
1 3539
1 3540
1 3541
1 3542
1 3543
1 3544
1 3545
1 3546
1 3547
1 3548
1 3549
1 3550
1 3551
1 3552
1 3553
1 3554
1 3555
1 3556
1 3557
1 3558
1 3559
1 3560
1 3561
1 3562
1 3563
1 3564
1 3565
1 3566
1 3567
1 3568
1 3569
1 3570
1 3571
1 3572
1 3573
1 3574
1 3575
1 3576
1 3577
1 3578
1 3579
1 3580
1 3581
1 3582
1 3583
1 3584
1 3585
1 3586
1 3587
1 3588
1 3589
1 3590
1 3591
1 3592
1 3593
1 3594
1 3595
1 3596
1 3597
1 3598
1 3599
1 3600
1 3601
1 3602
1 3603
1 3604
1 3605
1 3606
1 3607
1 3608
1 3609
1 3610
1 3611
1 3612
1 3613
1 3614
1 3615
1 3616
1 3617
1 3618
1 3619
1 3620
1 3621
1 3622
1 3623
1 3624
1 3625
1 3626
1 3627
1 3628
1 3629
1 3630
1 3631
1 3632
1 3633
1 3634
1 3635
1 3636
1 3637
1 3638
1 3639
1 3640
1 3641
1 3642
1 3643
1 3644
1 3645
1 3646
1 3647
1 3648
1 3649
1 3650
1 3651
1 3652
1 3653
1 3654
1 3655
1 3656
1 3657
1 3658
1 3659
1 3660
1 3661
1 3662
1 3663
1 3664
1 3665
1 3666
1 3667
1 3668
1 3669
1 3670
1 3671
1 3672
1 3673
1 3674
1 3675
1 3676
1 3677
1 3678
1 3679
1 3680
1 3681
1 3682
1 3683
1 3684
1 3685
1 3686
1 3687
1 3688
1 3689
1 3690
1 3691
1 3692
1 3693
1 3694
1 3695
1 3696
1 3697
1 3698
1 3699
1 3700
1 3701
1 3702
1 3703
1 3704
1 3705
1 3706
1 3707
1 3708
1 3709
1 3710
1 3711
1 3712
1 3713
1 3714
1 3715
1 3716
1 3717
1 3718
1 3719
1 3720
1 3721
1 3722
1 3723
1 3724
1 3725
1 3726
1 3727
1 3728
1 3729
1 3730
1 3731
1 3732
1 3733
1 3734
1 3735
1 3736
1 3737
1 3738
1 3739
1 3740
1 3741
1 3742
1 3743
1 3744
1 3745
1 3746
1 3747
1 3748
1 3749
1 3750
1 3751
1 3752
1 3753
1 3754
1 3755
1 3756
1 3757
1 3758
1 3759
1 3760
1 3761
1 3762
1 3763
1 3764
1 3765
1 3766
1 3767
1 3768
1 3769
1 3770
1 3771
1 3772
1 3773
1 3774
1 3775
1 3776
1 3777
1 3778
1 3779
1 3780
1 3781
1 3782
1 3783
1 3784
1 3785
1 3786
1 3787
1 3788
1 3789
1 3790
1 3791
1 3792
1 3793
1 3794
1 3795
1 3796
1 3797
1 3798
1 3799
1 3800
1 3801
1 3802
1 3803
1 3804
1 3805
1 3806
1 3807
1 3808
1 3809
1 3810
1 3811
1 3812
1 3813
1 3814
1 3815
1 3816
1 3817
1 3818
1 3819
1 3820
1 3821
1 3822
1 3823
1 3824
1 3825
1 3826
1 3827
1 3828
1 3829
1 3830
1 3831
1 3832
1 3833
1 3834
1 3835
1 3836
1 3837
1 3838
1 3839
1 3840
1 3841
1 3842
1 3843
1 3844
1 3845
1 3846
1 3847
1 3848
1 3849
1 3850
1 3851
1 3852
1 3853
1 3854
1 3855
1 3856
1 3857
1 3858
1 3859
1 3860
1 3861
1 3862
1 3863
1 3864
1 3865
1 3866
1 3867
1 3868
1 3869
1 3870
1 3871
1 3872
1 3873
1 3874
1 3875
1 3876
1 3877
1 3878
1 3879
1 3880
1 3881
1 3882
1 3883
1 3884
1 3885
1 3886
1 3887
1 3888
1 3889
1 3890
1 3891
1 3892
1 3893
1 3894
1 3895
1 3896
1 3897
1 3898
1 3899
1 3900
1 3901
1 3902
1 3903
1 3904
1 3905
1 3906
1 3907
1 3908
1 3909
1 3910
1 3911
1 3912
1 3913
1 3914
1 3915
1 3916
1 3917
1 3918
1 3919
1 3920
1 3921
1 3922
1 3923
1 3924
1 3925
1 3926
1 3927
1 3928
1 3929
1 3930
1 3931
1 3932
1 3933
1 3934
1 3935
1 3936
1 3937
1 3938
1 3939
1 3940
1 3941
1 3942
1 3943
1 3944
1 3945
1 3946
1 3947
1 3948
1 3949
1 3950
1 3951
1 3952
1 3953
1 3954
1 3955
1 3956
1 3957
1 3958
1 3959
1 3960
1 3961
1 3962
1 3963
1 3964
1 3965
1 3966
1 3967
1 3968
1 3969
1 3970
1 3971
1 3972
1 3973
1 3974
1 3975
1 3976
1 3977
1 3978
1 3979
1 3980
1 3981
1 3982
1 3983
1 3984
1 3985
1 3986
1 3987
1 3988
1 3989
1 3990
1 3991
1 3992
1 3993
1 3994
1 3995
1 3996
1 3997
1 3998
1 3999
1 4000
1 4001
1 4002
1 4003
1 4004
1 4005
1 4006
1 4007
1 4008
1 4009
1 4010
1 4011
1 4012
1 4013
1 4014
1 4015
1 4016
1 4017
1 4018
1 4019
1 4020
1 4021
1 4022
1 4023
1 4024
1 4025
1 4026
1 4027
1 4028
1 4029
1 4030
1 4031
1 4032
1 4033
1 4034
1 4035
1 4036
1 4037
1 4038
1 4039
1 4040
1 4041
1 4042
1 4043
1 4044
1 4045
1 4046
1 4047
1 4048
1 4049
1 4050
1 4051
1 4052
1 4053
1 4054
1 4055
1 4056
1 4057
1 4058
1 4059
1 4060
1 4061
1 4062
1 4063
1 4064
1 4065
1 4066
1 4067
1 4068
1 4069
1 4070
1 4071
1 4072
1 4073
1 4074
1 4075
1 4076
1 4077
1 4078
1 4079
1 4080
1 4081
1 4082
1 4083
1 4084
1 4085
1 4086
1 4087
1 4088
1 4089
1 4090
1 4091
1 4092
1 4093
1 4094
1 4095
1 4096
1 4097
1 4098
1 4099
1 4100
1 4101
1 4102
1 4103
1 4104
1 4105
1 4106
1 4107
1 4108
1 4109
1 4110
1 4111
1 4112
1 4113
1 4114
1 4115
1 4116
1 4117
1 4118
1 4119
1 4120
1 4121
1 4122
1 4123
1 4124
1 4125
1 4126
1 4127
1 4128
1 4129
1 4130
1 4131
1 4132
1 4133
1 4134
1 4135
1 4136
1 4137
1 4138
1 4139
1 4140
1 4141
1 4142
1 4143
1 4144
1 4145
1 4146
1 4147
1 4148
1 4149
1 4150
1 4151
1 4152
1 4153
1 4154
1 4155
1 4156
1 4157
1 4158
1 4159
1 4160
1 4161
1 4162
1 4163
1 4164
1 4165
1 4166
1 4167
1 4168
1 4169
1 4170
1 4171
1 4172
1 4173
1 4174
1 4175
1 4176
1 4177
1 4178
1 4179
1 4180
1 4181
1 4182
1 4183
1 4184
1 4185
1 4186
1 4187
1 4188
1 4189
1 4190
1 4191
1 4192
1 4193
1 4194
1 4195
1 4196
1 4197
1 4198
1 4199
1 4200
1 4201
1 4202
1 4203
1 4204
1 4205
1 4206
1 4207
1 4208
1 4209
1 4210
1 4211
1 4212
1 4213
1 4214
1 4215
1 4216
1 4217
1 4218
1 4219
1 4220
1 4221
1 4222
1 4223
1 4224
1 4225
1 4226
1 4227
1 4228
1 4229
1 4230
1 4231
1 4232
1 4233
1 4234
1 4235
1 4236
1 4237
1 4238
1 4239
1 4240
1 4241
1 4242
1 4243
1 4244
1 4245
1 4246
1 4247
1 4248
1 4249
1 4250
1 4251
1 4252
1 4253
1 4254
1 4255
1 4256
1 4257
1 4258
1 4259
1 4260
1 4261
1 4262
1 4263
1 4264
1 4265
1 4266
1 4267
1 4268
1 4269
1 4270
1 4271
1 4272
1 4273
1 4274
1 4275
1 4276
1 4277
1 4278
1 4279
1 4280
1 4281
1 4282
1 4283
1 4284
1 4285
1 4286
1 4287
1 4288
1 4289
1 4290
1 4291
1 4292
1 4293
1 4294
1 4295
1 4296
1 4297
1 4298
1 4299
1 4300
1 4301
1 4302
1 4303
1 4304
1 4305
1 4306
1 4307
1 4308
1 4309
1 4310
1 4311
1 4312
1 4313
1 4314
1 4315
1 4316
1 4317
1 4318
1 4319
1 4320
1 4321
1 4322
1 4323
1 4324
1 4325
1 4326
1 4327
1 4328
1 4329
1 4330
1 4331
1 4332
1 4333
1 4334
1 4335
1 4336
1 4337
1 4338
1 4339
1 4340
1 4341
1 4342
1 4343
1 4344
1 4345
1 4346
1 4347
1 4348
1 4349
1 4350
1 4351
1 4352
1 4353
1 4354
1 4355
1 4356
1 4357
1 4358
1 4359
1 4360
1 4361
1 4362
1 4363
1 4364
1 4365
1 4366
1 4367
1 4368
1 4369
1 4370
1 4371
1 4372
1 4373
1 4374
1 4375
1 4376
1 4377
1 4378
1 4379
1 4380
1 4381
1 4382
1 4383
1 4384
1 4385
1 4386
1 4387
1 4388
1 4389
1 4390
1 4391
1 4392
1 4393
1 4394
1 4395
1 4396
1 4397
1 4398
1 4399
1 4400
1 4401
1 4402
1 4403
1 4404
1 4405
1 4406
1 4407
1 4408
1 4409
1 4410
1 4411
1 4412
1 4413
1 4414
1 4415
1 4416
1 4417
1 4418
1 4419
1 4420
1 4421
1 4422
1 4423
1 4424
1 4425
1 4426
1 4427
1 4428
1 4429
1 4430
1 4431
1 4432
1 4433
1 4434
1 4435
1 4436
1 4437
1 4438
1 4439
1 4440
1 4441
1 4442
1 4443
1 4444
1 4445
1 4446
1 4447
1 4448
1 4449
1 4450
1 4451
1 4452
1 4453
1 4454
1 4455
1 4456
1 4457
1 4458
1 4459
1 4460
1 4461
1 4462
1 4463
1 4464
1 4465
1 4466
1 4467
1 4468
1 4469
1 4470
1 4471
1 4472
1 4473
1 4474
1 4475
1 4476
1 4477
1 4478
1 4479
1 4480
1 4481
1 4482
1 4483
1 4484
1 4485
1 4486
1 4487
1 4488
1 4489
1 4490
1 4491
1 4492
1 4493
1 4494
1 4495
1 4496
1 4497
1 4498
1 4499
1 4500
1 4501
1 4502
1 4503
1 4504
1 4505
1 4506
1 4507
1 4508
1 4509
1 4510
1 4511
1 4512
1 4513
1 4514
1 4515
1 4516
1 4517
1 4518
1 4519
1 4520
1 4521
1 4522
1 4523
1 4524
1 4525
1 4526
1 4527
1 4528
1 4529
1 4530
1 4531
1 4532
1 4533
1 4534
1 4535
1 4536
1 4537
1 4538
1 4539
1 4540
1 4541
1 4542
1 4543
1 4544
1 4545
1 4546
1 4547
1 4548
1 4549
1 4550
1 4551
1 4552
1 4553
1 4554
1 4555
1 4556
1 4557
1 4558
1 4559
1 4560
1 4561
1 4562
1 4563
1 4564
1 4565
1 4566
1 4567
1 4568
1 4569
1 4570
1 4571
1 4572
1 4573
1 4574
1 4575
1 4576
1 4577
1 4578
1 4579
1 4580
1 4581
1 4582
1 4583
1 4584
1 4585
1 4586
1 4587
1 4588
1 4589
1 4590
1 4591
1 4592
1 4593
1 4594
1 4595
1 4596
1 4597
1 4598
1 4599
1 4600
1 4601
1 4602
1 4603
1 4604
1 4605
1 4606
1 4607
1 4608
1 4609
1 4610
1 4611
1 4612
1 4613
1 4614
1 4615
1 4616
1 4617
1 4618
1 4619
1 4620
1 4621
1 4622
1 4623
1 4624
1 4625
1 4626
1 4627
1 4628
1 4629
1 4630
1 4631
1 4632
1 4633
1 4634
1 4635
1 4636
1 4637
1 4638
1 4639
1 4640
1 4641
1 4642
1 4643
1 4644
1 4645
1 4646
1 4647
1 4648
1 4649
1 4650
1 4651
1 4652
1 4653
1 4654
1 4655
1 4656
1 4657
1 4658
1 4659
1 4660
1 4661
1 4662
1 4663
1 4664
1 4665
1 4666
1 4667
1 4668
1 4669
1 4670
1 4671
1 4672
1 4673
1 4674
1 4675
1 4676
1 4677
1 4678
1 4679
1 4680
1 4681
1 4682
1 4683
1 4684
1 4685
1 4686
1 4687
1 4688
1 4689
1 4690
1 4691
1 4692
1 4693
1 4694
1 4695
1 4696
1 4697
1 4698
1 4699
1 4700
1 4701
1 4702
1 4703
1 4704
1 4705
1 4706
1 4707
1 4708
1 4709
1 4710
1 4711
1 4712
1 4713
1 4714
1 4715
1 4716
1 4717
1 4718
1 4719
1 4720
1 4721
1 4722
1 4723
1 4724
1 4725
1 4726
1 4727
1 4728
1 4729
1 4730
1 4731
1 4732
1 4733
1 4734
1 4735
1 4736
1 4737
1 4738
1 4739
1 4740
1 4741
1 4742
1 4743
1 4744
1 4745
1 4746
1 4747
1 4748
1 4749
1 4750
1 4751
1 4752
1 4753
1 4754
1 4755
1 4756
1 4757
1 4758
1 4759
1 4760
1 4761
1 4762
1 4763
1 4764
1 4765
1 4766
1 4767
1 4768
1 4769
1 4770
1 4771
1 4772
1 4773
1 4774
1 4775
1 4776
1 4777
1 4778
1 4779
1 4780
1 4781
1 4782
1 4783
1 4784
1 4785
1 4786
1 4787
1 4788
1 4789
1 4790
1 4791
1 4792
1 4793
1 4794
1 4795
1 4796
1 4797
1 4798
1 4799
1 4800
1 4801
1 4802
1 4803
1 4804
1 4805
1 4806
1 4807
1 4808
1 4809
1 4810
1 4811
1 4812
1 4813
1 4814
1 4815
1 4816
1 4817
1 4818
1 4819
1 4820
1 4821
1 4822
1 4823
1 4824
1 4825
1 4826
1 4827
1 4828
1 4829
1 4830
1 4831
1 4832
1 4833
1 4834
1 4835
1 4836
1 4837
1 4838
1 4839
1 4840
1 4841
1 4842
1 4843
1 4844
1 4845
1 4846
1 4847
1 4848
1 4849
1 4850
1 4851
1 4852
1 4853
1 4854
1 4855
1 4856
1 4857
1 4858
1 4859
1 4860
1 4861
1 4862
1 4863
1 4864
1 4865
1 4866
1 4867
1 4868
1 4869
1 4870
1 4871
1 4872
1 4873
1 4874
1 4875
1 4876
1 4877
1 4878
1 4879
1 4880
1 4881
1 4882
1 4883
1 4884
1 4885
1 4886
1 4887
1 4888
1 4889
1 4890
1 4891
1 4892
1 4893
1 4894
1 4895
1 4896
1 4897
1 4898
1 4899
1 4900
1 4901
1 4902
1 4903
1 4904
1 4905
1 4906
1 4907
1 4908
1 4909
1 4910
1 4911
1 4912
1 4913
1 4914
1 4915
1 4916
1 4917
1 4918
1 4919
1 4920
1 4921
1 4922
1 4923
1 4924
1 4925
1 4926
1 4927
1 4928
1 4929
1 4930
1 4931
1 4932
1 4933
1 4934
1 4935
1 4936
1 4937
1 4938
1 4939
1 4940
1 4941
1 4942
1 4943
1 4944
1 4945
1 4946
1 4947
1 4948
1 4949
1 4950
1 4951
1 4952
1 4953
1 4954
1 4955
1 4956
1 4957
1 4958
1 4959
1 4960
1 4961
1 4962
1 4963
1 4964
1 4965
1 4966
1 4967
1 4968
1 4969
1 4970
1 4971
1 4972
1 4973
1 4974
1 4975
1 4976
1 4977
1 4978
1 4979
1 4980
1 4981
1 4982
1 4983
1 4984
1 4985
1 4986
1 4987
1 4988
1 4989
1 4990
1 4991
1 4992
1 4993
1 4994
1 4995
1 4996
1 4997
1 4998
1 4999
CELL_TYPES 5000
1 
1 
1 
1 
1 
1 
1 
1 
1 
1 
1 
1 
1 
1 
1 
1 
1 
1 
1 
1 
1 
1 
1 
1 
1 
1 
1 
1 
1 
1 
1 
1 
1 
1 
1 
1 
1 
1 
1 
1 
1 
1 
1 
1 
1 
1 
1 
1 
1 
1 
1 
1 
1 
1 
1 
1 
1 
1 
1 
1 
1 
1 
1 
1 
1 
1 
1 
1 
1 
1 
1 
1 
1 
1 
1 
1 
1 
1 
1 
1 
1 
1 
1 
1 
1 
1 
1 
1 
1 
1 
1 
1 
1 
1 
1 
1 
1 
1 
1 
1 
1 
1 
1 
1 
1 
1 
1 
1 
1 
1 
1 
1 
1 
1 
1 
1 
1 
1 
1 
1 
1 
1 
1 
1 
1 
1 
1 
1 
1 
1 
1 
1 
1 
1 
1 
1 
1 
1 
1 
1 
1 
1 
1 
1 
1 
1 
1 
1 
1 
1 
1 
1 
1 
1 
1 
1 
1 
1 
1 
1 
1 
1 
1 
1 
1 
1 
1 
1 
1 
1 
1 
1 
1 
1 
1 
1 
1 
1 
1 
1 
1 
1 
1 
1 
1 
1 
1 
1 
1 
1 
1 
1 
1 
1 
1 
1 
1 
1 
1 
1 
1 
1 
1 
1 
1 
1 
1 
1 
1 
1 
1 
1 
1 
1 
1 
1 
1 
1 
1 
1 
1 
1 
1 
1 
1 
1 
1 
1 
1 
1 
1 
1 
1 
1 
1 
1 
1 
1 
1 
1 
1 
1 
1 
1 
1 
1 
1 
1 
1 
1 
1 
1 
1 
1 
1 
1 
1 
1 
1 
1 
1 
1 
1 
1 
1 
1 
1 
1 
1 
1 
1 
1 
1 
1 
1 
1 
1 
1 
1 
1 
1 
1 
1 
1 
1 
1 
1 
1 
1 
1 
1 
1 
1 
1 
1 
1 
1 
1 
1 
1 
1 
1 
1 
1 
1 
1 
1 
1 
1 
1 
1 
1 
1 
1 
1 
1 
1 
1 
1 
1 
1 
1 
1 
1 
1 
1 
1 
1 
1 
1 
1 
1 
1 
1 
1 
1 
1 
1 
1 
1 
1 
1 
1 
1 
1 
1 
1 
1 
1 
1 
1 
1 
1 
1 
1 
1 
1 
1 
1 
1 
1 
1 
1 
1 
1 
1 
1 
1 
1 
1 
1 
1 
1 
1 
1 
1 
1 
1 
1 
1 
1 
1 
1 
1 
1 
1 
1 
1 
1 
1 
1 
1 
1 
1 
1 
1 
1 
1 
1 
1 
1 
1 
1 
1 
1 
1 
1 
1 
1 
1 
1 
1 
1 
1 
1 
1 
1 
1 
1 
1 
1 
1 
1 
1 
1 
1 
1 
1 
1 
1 
1 
1 
1 
1 
1 
1 
1 
1 
1 
1 
1 
1 
1 
1 
1 
1 
1 
1 
1 
1 
1 
1 
1 
1 
1 
1 
1 
1 
1 
1 
1 
1 
1 
1 
1 
1 
1 
1 
1 
1 
1 
1 
1 
1 
1 
1 
1 
1 
1 
1 
1 
1 
1 
1 
1 
1 
1 
1 
1 
1 
1 
1 
1 
1 
1 
1 
1 
1 
1 
1 
1 
1 
1 
1 
1 
1 
1 
1 
1 
1 
1 
1 
1 
1 
1 
1 
1 
1 
1 
1 
1 
1 
1 
1 
1 
1 
1 
1 
1 
1 
1 
1 
1 
1 
1 
1 
1 
1 
1 
1 
1 
1 
1 
1 
1 
1 
1 
1 
1 
1 
1 
1 
1 
1 
1 
1 
1 
1 
1 
1 
1 
1 
1 
1 
1 
1 
1 
1 
1 
1 
1 
1 
1 
1 
1 
1 
1 
1 
1 
1 
1 
1 
1 
1 
1 
1 
1 
1 
1 
1 
1 
1 
1 
1 
1 
1 
1 
1 
1 
1 
1 
1 
1 
1 
1 
1 
1 
1 
1 
1 
1 
1 
1 
1 
1 
1 
1 
1 
1 
1 
1 
1 
1 
1 
1 
1 
1 
1 
1 
1 
1 
1 
1 
1 
1 
1 
1 
1 
1 
1 
1 
1 
1 
1 
1 
1 
1 
1 
1 
1 
1 
1 
1 
1 
1 
1 
1 
1 
1 
1 
1 
1 
1 
1 
1 
1 
1 
1 
1 
1 
1 
1 
1 
1 
1 
1 
1 
1 
1 
1 
1 
1 
1 
1 
1 
1 
1 
1 
1 
1 
1 
1 
1 
1 
1 
1 
1 
1 
1 
1 
1 
1 
1 
1 
1 
1 
1 
1 
1 
1 
1 
1 
1 
1 
1 
1 
1 
1 
1 
1 
1 
1 
1 
1 
1 
1 
1 
1 
1 
1 
1 
1 
1 
1 
1 
1 
1 
1 
1 
1 
1 
1 
1 
1 
1 
1 
1 
1 
1 
1 
1 
1 
1 
1 
1 
1 
1 
1 
1 
1 
1 
1 
1 
1 
1 
1 
1 
1 
1 
1 
1 
1 
1 
1 
1 
1 
1 
1 
1 
1 
1 
1 
1 
1 
1 
1 
1 
1 
1 
1 
1 
1 
1 
1 
1 
1 
1 
1 
1 
1 
1 
1 
1 
1 
1 
1 
1 
1 
1 
1 
1 
1 
1 
1 
1 
1 
1 
1 
1 
1 
1 
1 
1 
1 
1 
1 
1 
1 
1 
1 
1 
1 
1 
1 
1 
1 
1 
1 
1 
1 
1 
1 
1 
1 
1 
1 
1 
1 
1 
1 
1 
1 
1 
1 
1 
1 
1 
1 
1 
1 
1 
1 
1 
1 
1 
1 
1 
1 
1 
1 
1 
1 
1 
1 
1 
1 
1 
1 
1 
1 
1 
1 
1 
1 
1 
1 
1 
1 
1 
1 
1 
1 
1 
1 
1 
1 
1 
1 
1 
1 
1 
1 
1 
1 
1 
1 
1 
1 
1 
1 
1 
1 
1 
1 
1 
1 
1 
1 
1 
1 
1 
1 
1 
1 
1 
1 
1 
1 
1 
1 
1 
1 
1 
1 
1 
1 
1 
1 
1 
1 
1 
1 
1 
1 
1 
1 
1 
1 
1 
1 
1 
1 
1 
1 
1 
1 
1 
1 
1 
1 
1 
1 
1 
1 
1 
1 
1 
1 
1 
1 
1 
1 
1 
1 
1 
1 
1 
1 
1 
1 
1 
1 
1 
1 
1 
1 
1 
1 
1 
1 
1 
1 
1 
1 
1 
1 
1 
1 
1 
1 
1 
1 
1 
1 
1 
1 
1 
1 
1 
1 
1 
1 
1 
1 
1 
1 
1 
1 
1 
1 
1 
1 
1 
1 
1 
1 
1 
1 
1 
1 
1 
1 
1 
1 
1 
1 
1 
1 
1 
1 
1 
1 
1 
1 
1 
1 
1 
1 
1 
1 
1 
1 
1 
1 
1 
1 
1 
1 
1 
1 
1 
1 
1 
1 
1 
1 
1 
1 
1 
1 
1 
1 
1 
1 
1 
1 
1 
1 
1 
1 
1 
1 
1 
1 
1 
1 
1 
1 
1 
1 
1 
1 
1 
1 
1 
1 
1 
1 
1 
1 
1 
1 
1 
1 
1 
1 
1 
1 
1 
1 
1 
1 
1 
1 
1 
1 
1 
1 
1 
1 
1 
1 
1 
1 
1 
1 
1 
1 
1 
1 
1 
1 
1 
1 
1 
1 
1 
1 
1 
1 
1 
1 
1 
1 
1 
1 
1 
1 
1 
1 
1 
1 
1 
1 
1 
1 
1 
1 
1 
1 
1 
1 
1 
1 
1 
1 
1 
1 
1 
1 
1 
1 
1 
1 
1 
1 
1 
1 
1 
1 
1 
1 
1 
1 
1 
1 
1 
1 
1 
1 
1 
1 
1 
1 
1 
1 
1 
1 
1 
1 
1 
1 
1 
1 
1 
1 
1 
1 
1 
1 
1 
1 
1 
1 
1 
1 
1 
1 
1 
1 
1 
1 
1 
1 
1 
1 
1 
1 
1 
1 
1 
1 
1 
1 
1 
1 
1 
1 
1 
1 
1 
1 
1 
1 
1 
1 
1 
1 
1 
1 
1 
1 
1 
1 
1 
1 
1 
1 
1 
1 
1 
1 
1 
1 
1 
1 
1 
1 
1 
1 
1 
1 
1 
1 
1 
1 
1 
1 
1 
1 
1 
1 
1 
1 
1 
1 
1 
1 
1 
1 
1 
1 
1 
1 
1 
1 
1 
1 
1 
1 
1 
1 
1 
1 
1 
1 
1 
1 
1 
1 
1 
1 
1 
1 
1 
1 
1 
1 
1 
1 
1 
1 
1 
1 
1 
1 
1 
1 
1 
1 
1 
1 
1 
1 
1 
1 
1 
1 
1 
1 
1 
1 
1 
1 
1 
1 
1 
1 
1 
1 
1 
1 
1 
1 
1 
1 
1 
1 
1 
1 
1 
1 
1 
1 
1 
1 
1 
1 
1 
1 
1 
1 
1 
1 
1 
1 
1 
1 
1 
1 
1 
1 
1 
1 
1 
1 
1 
1 
1 
1 
1 
1 
1 
1 
1 
1 
1 
1 
1 
1 
1 
1 
1 
1 
1 
1 
1 
1 
1 
1 
1 
1 
1 
1 
1 
1 
1 
1 
1 
1 
1 
1 
1 
1 
1 
1 
1 
1 
1 
1 
1 
1 
1 
1 
1 
1 
1 
1 
1 
1 
1 
1 
1 
1 
1 
1 
1 
1 
1 
1 
1 
1 
1 
1 
1 
1 
1 
1 
1 
1 
1 
1 
1 
1 
1 
1 
1 
1 
1 
1 
1 
1 
1 
1 
1 
1 
1 
1 
1 
1 
1 
1 
1 
1 
1 
1 
1 
1 
1 
1 
1 
1 
1 
1 
1 
1 
1 
1 
1 
1 
1 
1 
1 
1 
1 
1 
1 
1 
1 
1 
1 
1 
1 
1 
1 
1 
1 
1 
1 
1 
1 
1 
1 
1 
1 
1 
1 
1 
1 
1 
1 
1 
1 
1 
1 
1 
1 
1 
1 
1 
1 
1 
1 
1 
1 
1 
1 
1 
1 
1 
1 
1 
1 
1 
1 
1 
1 
1 
1 
1 
1 
1 
1 
1 
1 
1 
1 
1 
1 
1 
1 
1 
1 
1 
1 
1 
1 
1 
1 
1 
1 
1 
1 
1 
1 
1 
1 
1 
1 
1 
1 
1 
1 
1 
1 
1 
1 
1 
1 
1 
1 
1 
1 
1 
1 
1 
1 
1 
1 
1 
1 
1 
1 
1 
1 
1 
1 
1 
1 
1 
1 
1 
1 
1 
1 
1 
1 
1 
1 
1 
1 
1 
1 
1 
1 
1 
1 
1 
1 
1 
1 
1 
1 
1 
1 
1 
1 
1 
1 
1 
1 
1 
1 
1 
1 
1 
1 
1 
1 
1 
1 
1 
1 
1 
1 
1 
1 
1 
1 
1 
1 
1 
1 
1 
1 
1 
1 
1 
1 
1 
1 
1 
1 
1 
1 
1 
1 
1 
1 
1 
1 
1 
1 
1 
1 
1 
1 
1 
1 
1 
1 
1 
1 
1 
1 
1 
1 
1 
1 
1 
1 
1 
1 
1 
1 
1 
1 
1 
1 
1 
1 
1 
1 
1 
1 
1 
1 
1 
1 
1 
1 
1 
1 
1 
1 
1 
1 
1 
1 
1 
1 
1 
1 
1 
1 
1 
1 
1 
1 
1 
1 
1 
1 
1 
1 
1 
1 
1 
1 
1 
1 
1 
1 
1 
1 
1 
1 
1 
1 
1 
1 
1 
1 
1 
1 
1 
1 
1 
1 
1 
1 
1 
1 
1 
1 
1 
1 
1 
1 
1 
1 
1 
1 
1 
1 
1 
1 
1 
1 
1 
1 
1 
1 
1 
1 
1 
1 
1 
1 
1 
1 
1 
1 
1 
1 
1 
1 
1 
1 
1 
1 
1 
1 
1 
1 
1 
1 
1 
1 
1 
1 
1 
1 
1 
1 
1 
1 
1 
1 
1 
1 
1 
1 
1 
1 
1 
1 
1 
1 
1 
1 
1 
1 
1 
1 
1 
1 
1 
1 
1 
1 
1 
1 
1 
1 
1 
1 
1 
1 
1 
1 
1 
1 
1 
1 
1 
1 
1 
1 
1 
1 
1 
1 
1 
1 
1 
1 
1 
1 
1 
1 
1 
1 
1 
1 
1 
1 
1 
1 
1 
1 
1 
1 
1 
1 
1 
1 
1 
1 
1 
1 
1 
1 
1 
1 
1 
1 
1 
1 
1 
1 
1 
1 
1 
1 
1 
1 
1 
1 
1 
1 
1 
1 
1 
1 
1 
1 
1 
1 
1 
1 
1 
1 
1 
1 
1 
1 
1 
1 
1 
1 
1 
1 
1 
1 
1 
1 
1 
1 
1 
1 
1 
1 
1 
1 
1 
1 
1 
1 
1 
1 
1 
1 
1 
1 
1 
1 
1 
1 
1 
1 
1 
1 
1 
1 
1 
1 
1 
1 
1 
1 
1 
1 
1 
1 
1 
1 
1 
1 
1 
1 
1 
1 
1 
1 
1 
1 
1 
1 
1 
1 
1 
1 
1 
1 
1 
1 
1 
1 
1 
1 
1 
1 
1 
1 
1 
1 
1 
1 
1 
1 
1 
1 
1 
1 
1 
1 
1 
1 
1 
1 
1 
1 
1 
1 
1 
1 
1 
1 
1 
1 
1 
1 
1 
1 
1 
1 
1 
1 
1 
1 
1 
1 
1 
1 
1 
1 
1 
1 
1 
1 
1 
1 
1 
1 
1 
1 
1 
1 
1 
1 
1 
1 
1 
1 
1 
1 
1 
1 
1 
1 
1 
1 
1 
1 
1 
1 
1 
1 
1 
1 
1 
1 
1 
1 
1 
1 
1 
1 
1 
1 
1 
1 
1 
1 
1 
1 
1 
1 
1 
1 
1 
1 
1 
1 
1 
1 
1 
1 
1 
1 
1 
1 
1 
1 
1 
1 
1 
1 
1 
1 
1 
1 
1 
1 
1 
1 
1 
1 
1 
1 
1 
1 
1 
1 
1 
1 
1 
1 
1 
1 
1 
1 
1 
1 
1 
1 
1 
1 
1 
1 
1 
1 
1 
1 
1 
1 
1 
1 
1 
1 
1 
1 
1 
1 
1 
1 
1 
1 
1 
1 
1 
1 
1 
1 
1 
1 
1 
1 
1 
1 
1 
1 
1 
1 
1 
1 
1 
1 
1 
1 
1 
1 
1 
1 
1 
1 
1 
1 
1 
1 
1 
1 
1 
1 
1 
1 
1 
1 
1 
1 
1 
1 
1 
1 
1 
1 
1 
1 
1 
1 
1 
1 
1 
1 
1 
1 
1 
1 
1 
1 
1 
1 
1 
1 
1 
1 
1 
1 
1 
1 
1 
1 
1 
1 
1 
1 
1 
1 
1 
1 
1 
1 
1 
1 
1 
1 
1 
1 
1 
1 
1 
1 
1 
1 
1 
1 
1 
1 
1 
1 
1 
1 
1 
1 
1 
1 
1 
1 
1 
1 
1 
1 
1 
1 
1 
1 
1 
1 
1 
1 
1 
1 
1 
1 
1 
1 
1 
1 
1 
1 
1 
1 
1 
1 
1 
1 
1 
1 
1 
1 
1 
1 
1 
1 
1 
1 
1 
1 
1 
1 
1 
1 
1 
1 
1 
1 
1 
1 
1 
1 
1 
1 
1 
1 
1 
1 
1 
1 
1 
1 
1 
1 
1 
1 
1 
1 
1 
1 
1 
1 
1 
1 
1 
1 
1 
1 
1 
1 
1 
1 
1 
1 
1 
1 
1 
1 
1 
1 
1 
1 
1 
1 
1 
1 
1 
1 
1 
1 
1 
1 
1 
1 
1 
1 
1 
1 
1 
1 
1 
1 
1 
1 
1 
1 
1 
1 
1 
1 
1 
1 
1 
1 
1 
1 
1 
1 
1 
1 
1 
1 
1 
1 
1 
1 
1 
1 
1 
1 
1 
1 
1 
1 
1 
1 
1 
1 
1 
1 
1 
1 
1 
1 
1 
1 
1 
1 
1 
1 
1 
1 
1 
1 
1 
1 
1 
1 
1 
1 
1 
1 
1 
1 
1 
1 
1 
1 
1 
1 
1 
1 
1 
1 
1 
1 
1 
1 
1 
1 
1 
1 
1 
1 
1 
1 
1 
1 
1 
1 
1 
1 
1 
1 
1 
1 
1 
1 
1 
1 
1 
1 
1 
1 
1 
1 
1 
1 
1 
1 
1 
1 
1 
1 
1 
1 
1 
1 
1 
1 
1 
1 
1 
1 
1 
1 
1 
1 
1 
1 
1 
1 
1 
1 
1 
1 
1 
1 
1 
1 
1 
1 
1 
1 
1 
1 
1 
1 
1 
1 
1 
1 
1 
1 
1 
1 
1 
1 
1 
1 
1 
1 
1 
1 
1 
1 
1 
1 
1 
1 
1 
1 
1 
1 
1 
1 
1 
1 
1 
1 
1 
1 
1 
1 
1 
1 
1 
1 
1 
1 
1 
1 
1 
1 
1 
1 
1 
1 
1 
1 
1 
1 
1 
1 
1 
1 
1 
1 
1 
1 
1 
1 
1 
1 
1 
1 
1 
1 
1 
1 
1 
1 
1 
1 
1 
1 
1 
1 
1 
1 
1 
1 
1 
1 
1 
1 
1 
1 
1 
1 
1 
1 
1 
1 
1 
1 
1 
1 
1 
1 
1 
1 
1 
1 
1 
1 
1 
1 
1 
1 
1 
1 
1 
1 
1 
1 
1 
1 
1 
1 
1 
1 
1 
1 
1 
1 
1 
1 
1 
1 
1 
1 
1 
1 
1 
1 
1 
1 
1 
1 
1 
1 
1 
1 
1 
1 
1 
1 
1 
1 
1 
1 
1 
1 
1 
1 
1 
1 
1 
1 
1 
1 
1 
1 
1 
1 
1 
1 
1 
1 
1 
1 
1 
1 
1 
1 
1 
1 
1 
1 
1 
1 
1 
1 
1 
1 
1 
1 
1 
1 
1 
1 
1 
1 
1 
1 
1 
1 
1 
1 
1 
1 
1 
1 
1 
1 
1 
1 
1 
1 
1 
1 
1 
1 
1 
1 
1 
1 
1 
1 
1 
1 
1 
1 
1 
1 
1 
1 
1 
1 
1 
1 
1 
1 
1 
1 
1 
1 
1 
1 
1 
1 
1 
1 
1 
1 
1 
1 
1 
1 
1 
1 
1 
1 
1 
1 
1 
1 
1 
1 
1 
1 
1 
1 
1 
1 
1 
1 
1 
1 
1 
1 
1 
1 
1 
1 
1 
1 
1 
1 
1 
1 
1 
1 
1 
1 
1 
1 
1 
1 
1 
1 
1 
1 
1 
1 
1 
1 
1 
1 
1 
1 
1 
1 
1 
1 
1 
1 
1 
1 
1 
1 
1 
1 
1 
1 
1 
1 
1 
1 
1 
1 
1 
1 
1 
1 
1 
1 
1 
1 
1 
1 
1 
1 
1 
1 
1 
1 
1 
1 
1 
1 
1 
1 
1 
1 
1 
1 
1 
1 
1 
1 
1 
1 
1 
1 
1 
1 
1 
1 
1 
1 
1 
1 
1 
1 
1 
1 
1 
1 
1 
1 
1 
1 
1 
1 
1 
1 
1 
1 
1 
1 
1 
1 
1 
1 
1 
1 
1 
1 
1 
1 
1 
1 
1 
1 
1 
1 
1 
1 
1 
1 
1 
1 
1 
1 
1 
1 
1 
1 
1 
1 
1 
1 
1 
1 
1 
1 
1 
1 
1 
1 
1 
1 
1 
1 
1 
1 
1 
1 
1 
1 
1 
1 
1 
1 
1 
1 
1 
1 
1 
1 
1 
1 
1 
1 
1 
1 
1 
1 
1 
1 
1 
1 
1 
1 
1 
1 
1 
1 
1 
1 
1 
1 
1 
1 
1 
1 
1 
1 
1 
1 
1 
1 
1 
1 
1 
1 
1 
1 
1 
1 
1 
1 
1 
1 
1 
1 
1 
1 
1 
1 
1 
1 
1 
1 
1 
1 
1 
1 
1 
1 
1 
1 
1 
1 
1 
1 
1 
1 
1 
1 
1 
1 
1 
1 
1 
1 
1 
1 
1 
1 
1 
1 
1 
1 
1 
1 
1 
1 
1 
1 
1 
1 
1 
1 
1 
1 
1 
1 
1 
1 
1 
1 
1 
1 
1 
1 
1 
1 
1 
1 
1 
1 
1 
1 
1 
1 
1 
1 
1 
1 
1 
1 
1 
1 
1 
1 
1 
1 
1 
1 
1 
1 
1 
1 
1 
1 
1 
1 
1 
1 
1 
1 
1 
1 
1 
1 
1 
1 
1 
1 
1 
1 
1 
1 
1 
1 
1 
1 
1 
1 
1 
1 
1 
1 
1 
1 
1 
1 
1 
1 
1 
1 
1 
1 
1 
1 
1 
1 
1 
1 
1 
1 
1 
1 
1 
1 
1 
1 
1 
1 
1 
1 
1 
1 
1 
1 
1 
1 
1 
1 
1 
1 
1 
1 
1 
1 
1 
1 
1 
1 
1 
1 
1 
1 
1 
1 
1 
1 
1 
1 
1 
1 
1 
1 
1 
1 
1 
1 
1 
1 
1 
1 
1 
1 
1 
1 
1 
1 
1 
1 
1 
1 
1 
1 
1 
1 
1 
1 
1 
1 
1 
1 
1 
1 
1 
1 
1 
1 
1 
1 
1 
1 
1 
1 
1 
1 
1 
1 
1 
1 
1 
1 
1 
1 
1 
1 
1 
1 
1 
1 
1 
1 
1 
1 
1 
1 
1 
1 
1 
1 
1 
1 
1 
1 
1 
1 
1 
1 
1 
1 
1 
1 
1 
1 
1 
1 
1 
1 
1 
1 
1 
1 
1 
1 
1 
1 
1 
1 
1 
1 
1 
1 
1 
1 
1 
1 
1 
1 
1 
1 
1 
1 
1 
1 
1 
1 
1 
1 
1 
1 
1 
1 
1 
1 
1 
1 
1 
1 
1 
1 
1 
1 
1 
1 
1 
1 
1 
1 
1 
1 
1 
1 
1 
1 
1 
1 
1 
1 
1 
1 
1 
1 
1 
1 
1 
1 
1 
1 
1 
1 
1 
1 
1 
1 
1 
1 
1 
1 
1 
1 
1 
1 
1 
1 
1 
1 
1 
1 
1 
1 
1 
1 
1 
1 
1 
1 
1 
1 
1 
1 
1 
1 
1 
1 
1 
1 
1 
1 
1 
1 
1 
1 
1 
1 
1 
1 
1 
1 
1 
1 
1 
1 
1 
1 
1 
1 
1 
1 
1 
1 
1 
1 
1 
1 
1 
1 
1 
1 
1 
1 
1 
1 
1 
1 
1 
1 
1 
1 
1 
1 
1 
1 
1 
1 
1 
1 
1 
1 
1 
1 
1 
1 
1 
1 
1 
1 
1 
1 
1 
1 
1 
1 
1 
1 
1 
1 
1 
1 
1 
1 
1 
1 
1 
1 
1 
1 
1 
1 
1 
1 
1 
1 
1 
1 
1 
1 
1 
1 
1 
1 
1 
1 
1 
1 
1 
1 
1 
1 
1 
1 
1 
1 
1 
1 
1 
1 
1 
1 
1 
1 
1 
1 
1 
1 
1 
1 
1 
1 
1 
1 
1 
1 
1 
1 
1 
1 
1 
1 
1 
1 
1 
1 
1 
1 
1 
1 
1 
1 
1 
1 
1 
1 
1 
1 
1 
1 
1 
1 
1 
1 
1 
1 
1 
1 
1 
1 
1 
1 
1 
1 
1 
1 
1 
1 
1 
1 
1 
1 
1 
1 
1 
1 
1 
1 
1 
1 
1 
1 
1 
1 
1 
1 
1 
1 
1 
1 
1 
1 
1 
1 
1 
1 
1 
1 
1 
1 
1 
1 
1 
1 
1 
1 
1 
1 
1 
1 
1 
1 
1 
1 
1 
1 
1 
1 
1 
1 
1 
1 
1 
1 
1 
1 
1 
1 
1 
1 
1 
1 
1 
1 
1 
1 
1 
1 
1 
1 
1 
1 
1 
1 
1 
1 
1 
1 
1 
1 
1 
1 
1 
1 
1 
1 
1 
1 
1 
1 
1 
1 
1 
1 
1 
1 
1 
1 
1 
1 
1 
1 
1 
1 
1 
1 
1 
1 
1 
1 
1 
1 
1 
1 
1 
1 
1 
1 
1 
1 
1 
1 
1 
1 
1 
1 
1 
1 
1 
1 
1 
1 
1 
1 
1 
1 
1 
1 
1 
1 
1 
1 
1 
1 
1 
1 
1 
1 
1 
1 
1 
1 
1 
1 
1 
1 
1 
1 
1 
1 
1 
1 
1 
1 
1 
1 
1 
1 
1 
1 
1 
1 
1 
1 
1 
1 
1 
1 
1 
1 
1 
1 
1 
1 
1 
1 
1 
1 
1 
1 
1 
1 
1 
1 
1 
1 
1 
1 
1 
1 
1 
1 
1 
1 
1 
1 
1 
1 
1 
1 
1 
1 
1 
1 
1 
1 
1 
1 
1 
1 
1 
1 
1 
1 
1 
1 
1 
1 
1 
1 
1 
1 
1 
1 
1 
1 
1 
1 
1 
1 
1 
1 
1 
1 
1 
1 
1 
1 
1 
1 
1 
1 
1 
1 
1 
1 
1 
1 
1 
1 
1 
1 
1 
1 
1 
1 
1 
1 
1 
1 
1 
1 
1 
1 
1 
1 
1 
1 
1 
1 
1 
1 
1 
1 
1 
1 
1 
1 
1 
1 
1 
1 
1 
1 
1 
1 
1 
1 
1 
1 
1 
1 
1 
1 
1 
1 
1 
1 
1 
1 
1 
1 
1 
1 
1 
1 
1 
1 
1 
1 
1 
1 
1 
1 
1 
1 
1 
1 
1 
1 
1 
1 
1 
1 
1 
1 
1 
1 
1 
1 
1 
1 
1 
1 
1 
1 
1 
1 
1 
1 
1 
1 
1 
1 
1 
1 
1 
1 
1 
1 
1 
1 
1 
1 
1 
1 
1 
1 
1 
1 
1 
1 
1 
1 
1 
1 
1 
1 
1 
1 
1 
1 
1 
1 
1 
1 
1 
1 
1 
1 
1 
1 
1 
1 
1 
1 
1 
1 
1 
1 
1 
1 
1 
1 
1 
1 
1 
1 
1 
1 
1 
1 
1 
1 
1 
1 
1 
1 
1 
1 
1 
1 
1 
1 
1 
1 
1 
1 
1 
1 
1 
1 
1 
1 
1 
1 
1 
1 
1 
1 
1 
1 
1 
1 
1 
1 
1 
1 
1 
1 
1 
1 
1 
1 
1 
1 
1 
1 
1 
1 
1 
1 
1 
1 
1 
1 
1 
1 
1 
1 
1 
1 
1 
1 
1 
1 
1 
1 
1 
1 
1 
1 
1 
1 
1 
1 
1 
1 
1 
1 
1 
1 
1 
1 
1 
1 
1 
1 
1 
1 
1 
1 
1 
1 
1 
1 
1 
1 
1 
1 
1 
1 
1 
1 
1 
1 
1 
1 
1 
1 
1 
1 
1 
1 
1 
1 
1 
1 
1 
1 
1 
1 
1 
1 
1 
1 
1 
1 
1 
1 
1 
1 
1 
1 
1 
1 
1 
1 
1 
1 
1 
1 
1 
1 
1 
1 
1 
1 
1 
1 
1 
1 
1 
1 
1 
1 
1 
1 
1 
1 
1 
1 
1 
1 
1 
1 
1 
1 
1 
1 
1 
1 
1 
1 
1 
1 
1 
1 
1 
1 
1 
1 
1 
1 
1 
1 
1 
1 
1 
1 
1 
1 
1 
1 
1 
1 
1 
1 
1 
1 
1 
1 
1 
1 
1 
1 
1 
1 
1 
1 
1 
1 
1 
1 
1 
1 
1 
1 
1 
1 
1 
1 
1 
1 
1 
1 
1 
1 
1 
1 
1 
1 
1 
1 
1 
1 
1 
1 
1 
1 
1 
1 
1 
1 
1 
1 
1 
1 
1 
1 
1 
1 
1 
1 
1 
1 
1 
1 
1 
1 
1 
1 
1 
1 
1 
1 
1 
1 
1 
1 
1 
1 
1 
1 
1 
1 
1 
1 
1 
1 
1 
1 
1 
1 
1 
1 
1 
1 
1 
1 
1 
1 
1 
1 
1 
1 
1 
1 
1 
1 
1 
1 
1 
1 
1 
1 
1 
1 
1 
1 
1 
1 
1 
1 
1 
1 
1 
1 
1 
1 
1 
1 
1 
1 
1 
1 
1 
1 
1 
1 
1 
1 
1 
1 
1 
1 
1 
1 
1 
1 
1 
1 
1 
1 
1 
1 
1 
1 
1 
1 
1 
1 
1 
1 
1 
1 
1 
1 
1 
1 
1 
1 
1 
1 
1 
1 
1 
1 
1 
1 
1 
1 
1 
1 
1 
1 
1 
1 
1 
1 
1 
1 
1 
1 
1 
1 
1 
1 
1 
1 
1 
1 
1 
1 
1 
1 
1 
1 
1 
1 
1 
1 
1 
1 
1 
1 
1 
1 
1 
1 
1 
1 
1 
1 
1 
1 
1 
1 
1 
1 
1 
1 
1 
1 
1 
1 
1 
1 
1 
1 
1 
1 
1 
1 
1 
1 
1 
1 
1 
1 
1 
1 
1 
1 
1 
1 
1 
1 
1 
1 
1 
1 
1 
1 
1 
1 
1 
1 
1 
1 
1 
1 
1 
1 
1 
1 
1 
1 
1 
1 
1 
1 
1 
1 
1 
1 
1 
1 
1 
1 
1 
1 
1 
1 
1 
1 
1 
1 
1 
1 
1 
1 
1 
1 
1 
1 
1 
1 
1 
1 
1 
1 
1 
1 
1 
1 
1 
1 
1 
1 
1 
1 
1 
1 
1 
1 
1 
1 
1 
1 
1 
1 
1 
1 
1 
1 
1 
1 
1 
1 
1 
1 
1 
1 
1 
1 
1 
1 
1 
1 
1 
1 
1 
1 
1 
1 
1 
1 
1 
1 
1 
1 
1 
1 
1 
1 
1 
1 
1 
1 
1 
1 
1 
1 
1 
1 
1 
1 
1 
1 
1 
1 
1 
1 
1 
1 
1 
1 
1 
1 
1 
1 
1 
1 
1 
1 
1 
1 
1 
1 
1 
1 
1 
1 
1 
1 
1 
1 
1 
1 
1 
1 
1 
1 
1 
1 
1 
1 
1 
1 
1 
1 
1 
1 
1 
1 
1 
1 
1 
1 
1 
1 
1 
1 
1 
1 
1 
1 
1 
1 
1 
1 
1 
1 
1 
1 
1 
1 
1 
1 
1 
1 
1 
1 
1 
1 
1 
1 
1 
1 
1 
1 
1 
1 
1 
1 
1 
1 
1 
1 
1 
1 
1 
1 
1 
1 
1 
1 
1 
1 
1 
1 
1 
1 
1 
1 
1 
1 
1 
1 
1 
1 
1 
1 
1 
1 
1 
1 
1 
1 
1 
1 
1 
1 
1 
1 
1 
1 
1 
1 
1 
1 
1 
1 
1 
1 
1 
1 
1 
1 
1 
1 
1 
1 
1 
1 
1 
1 
1 
1 
1 
1 
1 
1 
1 
1 
1 
1 
1 
1 
1 
1 
1 
1 
1 
1 
1 
1 
1 
1 
1 
1 
1 
1 
1 
1 
1 
1 
1 
1 
1 
1 
1 
1 
1 
1 
1 
1 
1 
1 
1 
1 
1 
1 
1 
1 
1 
1 
1 
1 
1 
1 
1 
1 
1 
1 
1 
1 
1 
1 
1 
1 
1 
1 
1 
1 
1 
1 
1 
1 
1 
1 
1 
1 
1 
1 
1 
1 
1 
1 
1 
1 
1 
1 
1 
1 
1 
1 
1 
1 
1 
1 
1 
1 
1 
1 
1 
1 
1 
1 
1 
1 
1 
1 
1 
1 
1 
1 
1 
1 
1 
1 
1 
1 
1 
1 
1 
1 
1 
1 
1 
1 
1 
1 
1 
1 
1 
1 
1 
1 
1 
1 
1 
1 
1 
1 
1 
1 
1 
1 
1 
1 
1 
1 
1 
1 
1 
1 
1 
1 
1 
1 
1 
1 
1 
1 
1 
1 
1 
1 
1 
1 
1 
1 
1 
1 
1 
1 
1 
1 
1 
1 
1 
1 
1 
1 
1 
1 
1 
1 
1 
1 
1 
1 
1 
1 
1 
1 
1 
1 
1 
1 
1 
1 
1 
1 
1 
1 
1 
1 
1 
1 
1 
1 
1 
1 
1 
1 
1 
1 
1 
1 
1 
1 
1 
1 
1 
1 
1 
1 
1 
1 
1 
1 
1 
1 
1 
1 
1 
1 
1 
1 
1 
1 
1 
1 
1 
1 
1 
1 
1 
1 
1 
1 
1 
1 
1 
1 
1 
1 
1 
1 
1 
1 
1 
1 
1 
1 
1 
1 
1 
1 
1 
1 
1 
1 
1 
1 
1 
1 
1 
1 
1 
1 
1 
1 
1 
1 
1 
1 
1 
1 
1 
POINT_DATA 5000
VECTORS Stress float
-261.033 -975.234 0.
286.371 -754.824 0.
291.907 -742.324 0.
-62.2187 -898.549 0.
-93.7103 -972.151 0.
-125.202 -1045.75 0.
-4.94167 -1115.88 0.
-115.59 -1374.07 0.
-226.238 -1632.25 0.
35.5604 -1465.5 0.
144.088 -1212.35 0.
252.616 -959.196 0.
485.737 -887.169 0.
451.941 -966.076 0.
-163.911 -1277.96 0.
-98.9978 -1126.68 0.
-34.0847 -975.408 0.
317.487 -814.663 0.
193.185 -1105.06 0.
68.8832 -1395.46 0.
212.045 -1444.51 0.
211.258 -1446.51 0.
210.472 -1448.5 0.
319.358 -1354.39 0.
353.368 -1274.97 0.
515.847 -1140.49 0.
-74.4648 -1364.74 0.
-59.0369 -1328.61 0.
299.755 -1170.06 0.
245.966 -1295.78 0.
192.178 -1421.5 0.
-100.597 -1548.46 0.
-30.4008 -1384.31 0.
39.7953 -1220.16 0.
350.625 -1120.38 0.
285.096 -1272.86 0.
219.568 -1425.35 0.
189.75 -1453.58 0.
189.023 -1455.18 0.
-45.9723 -1539.74 0.
46.2488 -1324.54 0.
138.47 -1109.34 0.
-463.471 -1153.77 0.
-312.305 -800.81 0.
-161.138 -447.846 0.
-429.114 -707.282 0.
-693.262 -1323.58 0.
-957.41 -1939.89 0.
3795.2 223.449 0.
3959.18 606.282 0.
-21010.9 -9782.98 0.
3498.85 431.864 0.
3347.45 77.7698 0.
-216.543 -1636.67 0.
-127.97 -1430.25 0.
-39.3967 -1223.83 0.
-249.793 -1228.02 0.
-258.377 -1248.03 0.
-266.962 -1268.04 0.
238.928 -920.526 0.
344.839 -673.168 0.
450.75 -425.811 0.
-73.3272 -868.696 0.
-210.99 -1189.75 0.
304.905 -1205.75 0.
263.281 -1302.85 0.
221.656 -1399.95 0.
232.071 -1437.55 0.
249.586 -1396.86 0.
267.102 -1356.17 0.
553.197 -1229.88 0.
541.971 -1255.9 0.
530.744 -1281.92 0.
-348.676 -1431.23 0.
-196.06 -1075.46 0.
283.798 -596.305 0.
162.169 -948.897 0.
4.53558 -1316.91 0.
228.91 -1444.49 0.
230.718 -1440.17 0.
232.525 -1435.85 0.
208.693 -1441.11 0.
212.652 -1431.5 0.
216.612 -1421.89 0.
132.473 -1305.13 0.
242.245 -1048.23 0.
352.016 -791.331 0.
-259.981 -1159.39 0.
-328.616 -1320.31 0.
376.898 -1115.89 0.
437.718 -973.62 0.
498.538 -831.352 0.
-67.1004 -1021.51 0.
-98.0653 -1093.75 0.
-129.03 -1165.98 0.
-12.7167 -1065.97 0.
54.2294 -909.429 0.
121.175 -752.891 0.
-237.248 -939.024 0.
-276.453 -1029.59 0.
-86.0412 -869.223 0.
225.735 -750.064 0.
231.455 -737.969 0.
-156.061 -906.386 0.
-187.527 -980.171 0.
-218.992 -1053.96 0.
192.831 -1000.03 0.
82.1583 -1258.29 0.
-28.5145 -1516.56 0.
275.884 -1331.15 0.
384.489 -1077.97 0.
493.094 -824.789 0.
215.5 -971.809 0.
181.771 -1050.66 0.
-100.215 -1219.64 0.
-35.1576 -1068.4 0.
29.9 -917.168 0.
291.725 -793.978 0.
167.651 -1084.57 0.
43.5765 -1375.16 0.
397.989 -1333.26 0.
397.316 -1335.31 0.
396.643 -1337.37 0.
168.241 -1388.04 0.
202.16 -1308.69 0.
-94.6183 -1371.07 0.
64.3751 -1273.3 0.
79.7136 -1237.13 0.
157.903 -1199.68 0.
104.269 -1325.47 0.
50.6354 -1451.25 0.
32.0062 -1460.57 0.
102.031 -1296.1 0.
172.055 -1131.63 0.
394.041 -1071.02 0.
328.25 -1223.28 0.
262.459 -1375.55 0.
-5.7564 -1506.42 0.
-6.50598 -1507.87 0.
129.947 -1432.93 0.
222.181 -1217.67 0.
314.415 -1002.4 0.
-373.649 -1084.16 0.
-222.532 -730.821 0.
-71.4154 -377.485 0.
339.62 -348.295 0.
75.3806 -964.724 0.
-188.859 -1581.15 0.
2892 -132.167 0.
3055.72 250.502 0.
-16668.5 -7890.49 0.
2945.91 225.817 0.
2795.06 -128.63 0.
11.5292 -1506.8 0.
100.234 -1300.58 0.
188.939 -1094.35 0.
-20.8288 -1098.39 0.
-29.4505 -1118.45 0.
-38.0722 -1138.51 0.
343.601 -844.751 0.
449.395 -597.203 0.
555.189 -349.656 0.
-311.984 -939.446 0.
-449.741 -1260.4 0.
536.66 -1075.6 0.
495.01 -1172.71 0.
453.36 -1269.82 0.
414.18 -1327.39 0.
431.821 -1286.77 0.
449.463 -1246.15 0.
552.948 -1198.92 0.
541.626 -1224.8 0.
530.304 -1250.69 0.
-356.29 -1403.42 0.
-203.446 -1047.8 0.
116.754 -635.55 0.
70.137 -956.124 0.
-87.3585 -1324.22 0.
447.364 -1319.61 0.
449.102 -1315.25 0.
450.84 -1310.89 0.
399.81 -1327.85 0.
403.545 -1318.03 0.
407.28 -1308.21 0.
-85.2425 -1367.56 0.
23.9844 -1110.41 0.
133.211 -853.252 0.
2.19801 -1016.44 0.
-66.0134 -1177.92 0.
-28.7298 -1259.11 0.
31.8328 -1116.73 0.
92.3954 -974.355 0.
166.93 -890.033 0.
135.855 -962.48 0.
104.78 -1034.93 0.
-22.4501 -1039.15 0.
44.37 -882.247 0.
111.19 -725.341 0.
-169.934 -878.819 0.
-209.471 -968.323 0.
44.5559 -866.603 0.
122.959 -848.828 0.
128.585 -834.4 0.
-769.666 -2123.94 0.
-474.597 -1435.98 0.
-744.394 -2066.1 0.
-803.893 -3673.32 0.
-751.251 -3551.1 0.
-2043.17 -6566.18 0.
-1948.89 -6947.91 0.
-1230.44 -5272.74 0.
-1247.54 -5313.85 0.
-1827.96 -5196.22 0.
-1463.22 -4343.56 0.
-2758.88 -7516.55 0.
-1167.22 -3801.09 0.
-1393.2 -4326.81 0.
-1314.15 -4468.96 0.
-1831.02 -5674.04 0.
-4084.71 -10931.6 0.
-5646.66 -15759.8 0.
-2625.61 -8709.97 0.
-2225.12 -7774.79 0.
-1886.8 -5863.57 0.
-1438.25 -4817.23 0.
-2249.12 -6765.81 0.
-1384.78 -4888.28 0.
-1138.87 -4313.61 0.
-884.525 -3335.24 0.
-1070.05 -3766.79 0.
-2340.6 -6730.09 0.
-3396.37 -9682.47 0.
-2159.32 -6797.71 0.
-2028.68 -6494.56 0.
-1934.84 -6551.75 0.
-2700.69 -8341.11 0.
-5331.73 -14482.6 0.
-5143.21 -13091.7 0.
-3916.61 -10230.1 0.
-4342.78 -12176.8 0.
-2830.55 -8647.58 0.
-2781.52 -8532.51 0.
-2249.34 -5599.34 0.
-1127.59 -2982.34 0.
-1176.1 -3095.93 0.
-571.663 -3907.75 0.
-988.357 -4880.42 0.
-3230.35 -10112.1 0.
113.095 -4866.43 0.
367.995 -4272.33 0.
-16497.5 -14334.9 0.
436.544 -4548.19 0.
-50.1488 -5682.23 0.
-3614.12 -10374.3 0.
-1682.96 -5866.45 0.
-2509.62 -7793.55 0.
-2367.9 -6977.98 0.
-1792.19 -5634.51 0.
-2493.98 -7271.85 0.
-2301.66 -7190.04 0.
-1135.04 -4469.18 0.
-1222.43 -4674.35 0.
-1831.04 -3996.11 0.
-1923.65 -4213.23 0.
-2099.81 -7636.41 0.
-2271.62 -8037.53 0.
-4177.01 -12483.6 0.
-5068.62 -14437.1 0.
-2490.5 -8420.51 0.
-2451.17 -8327.79 0.
-2160.03 -7495.73 0.
-1876.44 -6834.69 0.
-3260.72 -10065.4 0.
-1740.59 -4587.14 0.
-1224.27 -3382.39 0.
-1505.43 -4209.48 0.
-1042.63 -3347.08 0.
-2118.65 -5857.64 0.
-4399.6 -13013.3 0.
-3017.77 -9788.51 0.
-3756.93 -11512.7 0.
-3868.03 -11617.8 0.
-2793.72 -9111.36 0.
-3184.39 -10023.2 0.
-1973.57 -5325.51 0.
-876.585 -2767.28 0.
-1385.32 -3955.73 0.
-1006.23 -3838.68 0.
-1301.7 -4527.8 0.
-2087.68 -5266.67 0.
-954.189 -2621.93 0.
-940.618 -2590.67 0.
-299.531 -2389.66 0.
-126.692 -1986.88 0.
-880.847 -3747.07 0.
-546.175 -2213.95 0.
8.83269 -919.76 0.
102.634 -701.831 0.
-488.832 -1724.6 0.
-1113.31 -3182.42 0.
393.426 231.415 0.
476.574 122.981 0.
367.143 -130.828 0.
178.23 -362.222 0.
241.438 -214.924 0.
304.645 -67.6246 0.
766.382 359.111 0.
962.539 816.295 0.
1158.7 1273.48 0.
1312.4 1394.71 0.
1251.3 1251 0.
1190.2 1107.28 0.
1088.69 1289.3 0.
1233.42 1628.78 0.
1351.96 1904.04 0.
1173.65 1488.56 0.
995.333 1073.08 0.
960.868 965.427 0.
1191.48 1504.02 0.
1422.1 2042.61 0.
1953.43 2403.92 0.
1891.16 2257.68 0.
1828.9 2111.43 0.
1298.49 1635.68 0.
1143.85 1274.31 0.
1539.12 1148.56 0.
1332.93 1068.45 0.
1342.96 1091.31 0.
1018.89 1047.57 0.
1221.63 1522.31 0.
1424.37 1997.06 0.
1914.23 2360.38 0.
1835.57 2175.62 0.
1756.91 1990.85 0.
1680.49 2156.05 0.
1882.92 2626.43 0.
2085.35 3096.81 0.
1925.23 3119.48 0.
1952.3 3182.6 0.
2022.08 3214.08 0.
1801.37 2700.2 0.
1580.66 2186.32 0.
1284.33 1645.6 0.
1066.24 1136.81 0.
848.159 628.021 0.
1564.07 990.121 0.
1795.92 1530.18 0.
2027.76 2070.24 0.
2978.39 2617.95 0.
3008.85 2686.7 0.
1053.55 1905.38 0.
3418.83 2996.94 0.
3458.83 3091.94 0.
1773.14 2398.26 0.
1695.28 2218.36 0.
1617.43 2038.47 0.
1557.99 1939.42 0.
1564.39 1954.82 0.
1570.79 1970.22 0.
1522.98 1801.54 0.
1408.14 1532.9 0.
1293.31 1264.26 0.
862.769 1273.2 0.
987.473 1563.3 0.
1909.53 2203.63 0.
2071.01 2579.19 0.
2232.5 2954.76 0.
2221.04 3107.88 0.
2155.45 2954.02 0.
2089.86 2800.17 0.
2043.21 2619.12 0.
1945.37 2389.3 0.
1847.52 2159.47 0.
1447.71 1593.19 0.
1212.8 1046.62 0.
726.116 420.461 0.
1055.07 1347.95 0.
1467.62 2311.28 0.
2093.74 3141.21 0.
2025.44 2982.27 0.
1957.14 2823.32 0.
2104.58 2759.2 0.
2034.34 2594.77 0.
1964.1 2430.34 0.
1161.17 1689.08 0.
895.159 1066.9 0.
629.152 444.727 0.
991.957 719.061 0.
1080.06 925.864 0.
615.445 837.944 0.
498.567 565.331 0.
381.69 292.718 0.
779.446 342.601 0.
803.919 399.802 0.
828.391 457.003 0.
634.461 307.623 0.
557.965 129.047 0.
481.469 -49.5286 0.
267.255 -4.10294 0.
376.492 250.262 0.
260.96 206.303 0.
415.661 127.623 0.
306.107 -126.263 0.
431.22 -222.057 0.
494.237 -74.7792 0.
557.255 72.4991 0.
589.843 315.645 0.
785.952 772.82 0.
982.061 1230 0.
944.211 1268.59 0.
883.14 1124.97 0.
822.069 981.36 0.
1272.79 1398.87 0.
1417.51 1738.48 0.
1458.29 1980.81 0.
1280.31 1565.08 0.
1102.32 1149.36 0.
911.559 976.42 0.
1142.35 1514.93 0.
1373.15 2053.44 0.
1744.85 2347.41 0.
1683.14 2200.79 0.
1621.43 2054.17 0.
1280.19 1659.89 0.
1125.6 1298.4 0.
1666.96 1235.08 0.
1551.73 1194.4 0.
1562.21 1216.86 0.
1066.22 1099.51 0.
1268.79 1574.22 0.
1471.36 2048.92 0.
2113.69 2477.24 0.
2034.89 2292.61 0.
1956.09 2107.99 0.
1553.73 2132.3 0.
1755.98 2602.71 0.
1958.23 3073.11 0.
2089.95 3221.93 0.
2116.88 3285.22 0.
1755.92 3132.56 0.
1535.17 2619.05 0.
1314.42 2105.53 0.
1825.81 1908.81 0.
1607.53 1400.03 0.
1389.25 891.26 0.
1623.85 1044.1 0.
1855.92 1584.16 0.
2087.99 2124.21 0.
2576.15 2478.08 0.
2607 2546.11 0.
237.417 1587.23 0.
3127.48 2903.58 0.
3167.55 2998.84 0.
1683.27 2390.86 0.
1605.45 2211.01 0.
1527.62 2031.15 0.
1701.99 2032.42 0.
1708.24 2047.79 0.
1714.5 2063.17 0.
1504.03 1824.73 0.
1389.07 1556.35 0.
1274.11 1287.97 0.
1413.4 1541.75 0.
1538.17 1832.15 0.
1671.11 2132.25 0.
1832.93 2507.58 0.
1994.75 2882.9 0.
1956.55 3026.49 0.
1891.48 2872.08 0.
1826.42 2717.67 0.
1899.38 2590.8 0.
1801.77 2360.68 0.
1704.17 2130.55 0.
2125.66 1916.04 0.
1890.14 1369.59 0.
819.786 491.252 0.
1176.12 1430.82 0.
1588.58 2394.45 0.
1583.78 2954.7 0.
1515.72 2796.22 0.
1447.66 2637.74 0.
1889.64 2698.64 0.
1819.48 2534.13 0.
1749.31 2369.63 0.
1335.12 1795.19 0.
1069.06 1172.8 0.
803 550.409 0.
1063.16 780.483 0.
1150.85 987.331 0.
738.063 921.032 0.
620.959 648.428 0.
503.856 375.825 0.
683.668 333.785 0.
708.012 391.242 0.
732.356 448.699 0.
773.158 398.053 0.
696.414 219.657 0.
619.669 41.2605 0.
306.858 44.7853 0.
416.235 299.59 0.
-345.451 -1243.21 0.
-161.729 -1082.74 0.
-99.7474 -940.469 0.
276.35 -686.73 0.
276.337 -686.845 0.
276.324 -686.961 0.
-14.1773 -828.009 0.
-34.3331 -875.128 0.
-54.489 -922.247 0.
-108.021 -966.7 0.
-112.182 -976.885 0.
-116.342 -987.071 0.
276.516 -989.878 0.
170.494 -1238.65 0.
26.1225 -1480.69 0.
73.9911 -1367.77 0.
121.86 -1254.86 0.
-10.0438 -1273.67 0.
-47.9595 -1360.7 0.
-85.8751 -1447.74 0.
66.4304 -1392.99 0.
86.8761 -1346.93 0.
107.322 -1300.86 0.
-74.5481 -1349.09 0.
-55.2985 -1308.22 0.
479.826 -1046.17 0.
728.491 -864.189 0.
768.345 -771.466 0.
232.489 -970.811 0.
166.87 -1125.26 0.
101.252 -1279.72 0.
515.383 -1107.14 0.
598.493 -917.669 0.
681.603 -728.198 0.
111.251 -1080.48 0.
-15.026 -1376.54 0.
-141.303 -1672.6 0.
330.518 -1363.95 0.
411.27 -1176.5 0.
-89.657 -1258.65 0.
-109.797 -1307.29 0.
-129.936 -1355.93 0.
664.019 -1052.71 0.
646.26 -1095.09 0.
628.501 -1137.46 0.
648.02 -1051.73 0.
736.039 -848.671 0.
824.057 -645.612 0.
1030.62 -700.262 0.
914.158 -971.971 0.
-2198.04 -2529.64 0.
1289.62 -919.963 0.
1350.92 -778.71 0.
272.886 -1157.57 0.
253.553 -1198.74 0.
234.22 -1239.91 0.
294.503 -1223.66 0.
309.421 -1193.04 0.
324.339 -1162.42 0.
208.652 -1164.23 0.
236.236 -1098.11 0.
263.82 -1031.99 0.
573.399 -921.907 0.
556.277 -960.925 0.
210.062 -1139.09 0.
201.378 -1157.88 0.
192.694 -1176.68 0.
85.7987 -1280.68 0.
19.6297 -1433.12 0.
-46.5389 -1585.57 0.
57.8341 -1516.02 0.
128.472 -1348.11 0.
199.111 -1180.2 0.
1087.86 -725.491 0.
1120.58 -653.331 0.
255.55 -970.084 0.
138.951 -1168.38 0.
60.6159 -1350.28 0.
-498.89 -1709.27 0.
-520.194 -1755.9 0.
-541.499 -1802.54 0.
6.67901 -1608.37 0.
-18.9133 -1667.32 0.
-44.5054 -1726.26 0.
-67.6673 -1546.72 0.
86.511 -1186.55 0.
240.69 -826.38 0.
379.458 -845.636 0.
319.993 -982.557 0.
-135.098 -1256.73 0.
-82.9754 -1133.2 0.
-30.8532 -1009.68 0.
126.422 -850.779 0.
166.368 -754.195 0.
206.315 -657.611 0.
219.615 -670.819 0.
175.068 -775.738 0.
130.521 -880.656 0.
-195.252 -1093.08 0.
-234.636 -1183.08 0.
-160.869 -1134.87 0.
-201.804 -1068.65 0.
-140.48 -926.038 0.
159.304 -706.725 0.
159.216 -706.858 0.
159.127 -706.992 0.
-86.99 -827.478 0.
-107.273 -874.709 0.
-127.556 -921.941 0.
55.9032 -864.816 0.
51.6761 -874.956 0.
47.4488 -885.095 0.
189.551 -997.482 0.
83.0717 -1245.77 0.
77.2615 -1426.55 0.
124.982 -1313.56 0.
172.702 -1200.57 0.
176.483 -1162.81 0.
138.505 -1250.01 0.
100.528 -1337.21 0.
117.209 -1339.35 0.
137.655 -1293.05 0.
158.101 -1246.75 0.
-173.566 -1360.87 0.
-154.32 -1319.6 0.
-660.051 -1503.36 0.
687.45 -850.81 0.
727.021 -758.251 0.
353.439 -887.623 0.
287.602 -1042.24 0.
221.765 -1196.87 0.
203.15 -1209.94 0.
285.953 -1020.54 0.
368.755 -831.138 0.
99.2664 -1055.1 0.
-26.4221 -1351.54 0.
-152.111 -1647.98 0.
700.678 -1174.64 0.
781.578 -987.068 0.
295.533 -1062.26 0.
275.465 -1111.17 0.
255.397 -1160.08 0.
414.024 -1127.75 0.
396.394 -1170.57 0.
378.764 -1213.39 0.
423.408 -1120.49 0.
511.488 -917.689 0.
599.566 -714.886 0.
981.064 -689.036 0.
865.075 -961.183 0.
-511.632 -1776.66 0.
1132.29 -957.513 0.
1193.99 -816.642 0.
643.608 -966.709 0.
624.711 -1008.12 0.
605.814 -1049.54 0.
160.287 -1251.04 0.
174.862 -1220.26 0.
189.437 -1189.49 0.
226.67 -1126.1 0.
254.071 -1059.81 0.
281.472 -993.512 0.
587.438 -884.436 0.
570.704 -923.864 0.
331.799 -1055.53 0.
323.074 -1074.36 0.
314.348 -1093.18 0.
306.304 -1154.03 0.
240.599 -1307.05 0.
174.894 -1460.08 0.
29.7442 -1496.56 0.
100.352 -1328.56 0.
170.96 -1160.57 0.
687.165 -865.653 0.
719.983 -793.34 0.
371.165 -889.097 0.
242.248 -1092.65 0.
163.813 -1274.58 0.
-178.867 -1541.88 0.
-200.368 -1587.85 0.
-221.868 -1633.83 0.
155.708 -1513.79 0.
130.108 -1572.9 0.
104.508 -1632.02 0.
-141.522 -1548.11 0.
12.2676 -1187.74 0.
166.058 -827.376 0.
353.106 -827.206 0.
293.948 -964.4 0.
-75.7253 -1199.31 0.
-23.2207 -1076.28 0.
29.2838 -953.248 0.
124.703 -821.055 0.
164.975 -724.49 0.
205.247 -627.925 0.
-108.429 -780.472 0.
-153.189 -885.164 0.
-197.949 -989.857 0.
-238.442 -1080.73 0.
-278.134 -1170.56 0.
209.334 -556.733 0.
119.667 -218.583 0.
98.1991 -266.912 0.
22.4331 -772.391 0.
146.264 -483.078 0.
178.734 -406.921 0.
-680.46 -2037.53 0.
313.47 280.597 0.
317.576 288.726 0.
373.336 -412.227 0.
-38.6702 -1374.19 0.
363.781 -435.777 0.
553.518 55.4282 0.
500.665 -71.8984 0.
444.534 -629.222 0.
755.74 92.1353 0.
389.831 -766.458 0.
91.9436 -1668.58 0.
258.191 -1283.35 0.
651.977 -367.222 0.
568.322 -345.62 0.
549.489 -390.291 0.
543.835 -404.252 0.
227.178 -217.193 0.
33.2075 -668.27 0.
256.356 -95.4967 0.
1081.93 184.577 0.
624.008 -887.219 0.
470.086 -812.223 0.
945.138 293.63 0.
1332.99 1196.04 0.
-401.101 -1999.59 0.
9.78217 -1040.41 0.
469.063 31.7744 0.
738.367 481.074 0.
-143.551 -1574.19 0.
-849.905 -3219.89 0.
612.148 -2048.72 0.
1099.26 -913.239 0.
546.069 -1174.29 0.
684.801 -850.521 0.
1027.78 -50.2605 0.
453.755 -531.388 0.
358.699 -752.478 0.
1103.11 985.056 0.
950.299 554.036 0.
461.321 -582.558 0.
531.135 -415.355 0.
609.507 -1434.49 0.
1339.24 271.926 0.
936.843 -560.745 0.
1441.46 80.5414 0.
1156.26 -580.783 0.
1068.76 -634.898 0.
646.455 -1622.21 0.
237.872 -2577.49 0.
408.286 -398.255 0.
1094.53 1202.84 0.
1140.95 1311.05 0.
661.524 -119.657 0.
84.7674 -1467.93 0.
1077.88 846.914 0.
1098.15 311.863 0.
384.707 -1350.1 0.
401.271 -1086.35 0.
1387.41 1212.85 0.
835.886 -75.8485 0.
739.998 -522.347 0.
620.761 -800.509 0.
808.558 -362.22 0.
198.062 -1011.72 0.
1044.79 961.67 0.
905.509 634.444 0.
167.244 -1292.82 0.
-97.0007 -1907.24 0.
934.325 -202.313 0.
460.06 -749.137 0.
211.589 -1329.01 0.
832.774 257.088 0.
392.724 -770.172 0.
443.723 -651.582 0.
700.727 -489.932 0.
795.344 -269.539 0.
852.189 -137.223 0.
-235.225 -1598.04 0.
-283.254 -1710.15 0.
-756.156 -2813.67 0.
314.253 -835.746 0.
790.851 275.769 0.
779.717 708.611 0.
635.148 369.535 0.
472.082 -12.8614 0.
343.835 -280.615 0.
388.808 -174.813 0.
918.355 1061.66 0.
-74.7283 -52.2033 0.
-171.684 -278.999 0.
-160.762 -254.041 0.
424.402 575.722 0.
-100.841 -649.817 0.
-43.1385 -722.536 0.
92.4912 -542.436 0.
158.297 -387.451 0.
148.1 -316.18 0.
62.2583 -516.76 0.
-23.5833 -717.341 0.
-126.47 -859.383 0.
-122.048 -848.863 0.
-117.627 -838.342 0.
136.341 -781.213 0.
87.4472 -896.919 0.
38.5536 -1012.63 0.
217.504 -877.288 0.
265.361 -769.425 0.
467.351 -599.896 0.
496.762 -535.297 0.
526.172 -470.698 0.
419.253 -565.203 0.
269.002 -917.847 0.
118.751 -1270.49 0.
289.012 -1357.65 0.
263.341 -1417.92 0.
237.67 -1478.2 0.
-34.6339 -1297.65 0.
178.643 -799.337 0.
387.215 -302.871 0.
707.223 -438.045 0.
559.726 -784.292 0.
181.001 -1173.06 0.
178.309 -1182.05 0.
175.618 -1191.03 0.
-14.575 -1293.04 0.
-30.5151 -1331.3 0.
-46.4548 -1369.57 0.
134.936 -1170.85 0.
239.204 -925.344 0.
343.472 -679.833 0.
1005.21 -614.829 0.
860.782 -952.411 0.
456.785 -1348.9 0.
563.953 -1099.46 0.
671.121 -850.011 0.
402.986 -792.914 0.
463.063 -652.668 0.
523.141 -512.422 0.
578.191 -529.335 0.
487.57 -738.412 0.
396.95 -947.488 0.
755.381 -893.778 0.
714.084 -985.568 0.
420.922 -1182.95 0.
1187.07 -721.345 0.
1254.61 -559.303 0.
847.54 -645.868 0.
827.051 -695.299 0.
806.562 -744.729 0.
353.822 -986.023 0.
314.241 -1079.15 0.
274.66 -1172.27 0.
198.879 -1222.48 0.
207.72 -1203.38 0.
216.561 -1184.28 0.
428.819 -923.857 0.
523.26 -700.816 0.
775.852 -483.913 0.
592.43 -913.431 0.
409.008 -1342.95 0.
181.223 -1569.71 0.
328.41 -1225.46 0.
475.597 -881.206 0.
315.416 -836.476 0.
308.083 -854.243 0.
300.75 -872.01 0.
324.117 -879.883 0.
312.675 -903.953 0.
472.437 -855.317 0.
385.216 -996.958 0.
329.816 -1124.96 0.
78.7497 -1308.75 0.
81.8562 -1301.48 0.
84.9623 -1294.2 0.
349.905 -1106.22 0.
432.359 -913.099 0.
514.813 -719.975 0.
123.347 -797.533 0.
157.237 -718.448 0.
191.128 -639.364 0.
376.939 -701.037 0.
290.304 -903.038 0.
-8.04501 -1175.58 0.
9.80007 -1134.18 0.
27.6452 -1092.77 0.
78.8866 -1012.29 0.
128.238 -895.108 0.
177.589 -777.926 0.
-263.409 -799.808 0.
-147.824 -531.011 0.
-32.2391 -262.214 0.
72.6648 -386.607 0.
-61.5357 -700.637 0.
-249.988 -781.867 0.
245.51 -445.935 0.
311.393 -291.042 0.
79.1383 -314.072 0.
-6.51884 -514.922 0.
-92.1761 -715.773 0.
-49.6697 -794.68 0.
-45.5466 -783.722 0.
-41.4236 -772.763 0.
56.8844 -783.338 0.
8.2826 -899.316 0.
-40.3194 -1015.29 0.
312.174 -805.462 0.
359.964 -697.35 0.
497.049 -554.773 0.
526.26 -490.219 0.
555.471 -425.665 0.
257.348 -603.429 0.
106.958 -955.938 0.
-43.4313 -1308.45 0.
494.743 -1237.96 0.
468.877 -1298.07 0.
443.01 -1358.19 0.
228.508 -1153.35 0.
442.311 -655.075 0.
637.828 -164.433 0.
591.811 -456.869 0.
444.026 -802.632 0.
31.8904 -1206.3 0.
29.0338 -1215.32 0.
26.1769 -1224.34 0.
105.251 -1209.97 0.
89.5351 -1248.78 0.
73.8199 -1287.58 0.
279.86 -1076.3 0.
384.214 -830.956 0.
488.568 -585.607 0.
750.828 -692.155 0.
606.364 -1029.66 0.
455.981 -1316.28 0.
563.31 -1067.33 0.
670.639 -818.375 0.
494.814 -722.433 0.
555.085 -582.095 0.
615.357 -441.757 0.
707.898 -441.899 0.
617.847 -651.039 0.
527.796 -860.178 0.
667.429 -900.312 0.
625.917 -991.725 0.
-1189.82 -1843.13 0.
1311.04 -638.519 0.
1378.49 -476.67 0.
599.23 -720.525 0.
578.577 -769.855 0.
557.923 -819.185 0.
612.182 -844.023 0.
572.776 -937.46 0.
533.369 -1030.9 0.
227.413 -1179.33 0.
235.925 -1159.49 0.
244.437 -1139.65 0.
273.777 -960.133 0.
368.399 -737.2 0.
935.635 -382.057 0.
752.448 -811.561 0.
569.26 -1241.07 0.
63.5541 -1588.14 0.
210.481 -1243.63 0.
357.408 -899.12 0.
383.128 -777.845 0.
375.23 -795.089 0.
367.332 -812.333 0.
315.826 -852.12 0.
304.249 -876.202 0.
610.117 -766.359 0.
439.105 -943.447 0.
383.443 -1071.08 0.
-5.71113 -1312.91 0.
-2.67521 -1305.27 0.
0.360396 -1297.62 0.
259.27 -1114.68 0.
341.565 -921.277 0.
423.86 -727.872 0.
159.235 -749.965 0.
193.198 -670.791 0.
227.162 -591.618 0.
399.791 -659.251 0.
312.818 -861.059 0.
31.638 -1128.09 0.
49.1088 -1086.23 0.
66.5795 -1044.36 0.
153.69 -950.819 0.
202.667 -833.467 0.
251.644 -716.115 0.
-85.556 -692.313 0.
30.1385 -423.535 0.
145.833 -154.757 0.
163.443 -316.415 0.
29.4847 -630.831 0.
-347.917 -809.834 0.
98.2539 -728.041 0.
42.031 -862.078 0.
-210.057 -1045 0.
-166.921 -945.121 0.
-123.784 -845.24 0.
-67.8448 -838.455 0.
-155.695 -1044.5 0.
-243.545 -1250.55 0.
-243.092 -1259.75 0.
-198.636 -1155.46 0.
-154.18 -1051.16 0.
309.931 -1013.83 0.
203.101 -1260.52 0.
70.8515 -1496.74 0.
121.521 -1376.92 0.
172.191 -1257.1 0.
-9.49935 -1264.93 0.
-0.712474 -1244.6 0.
8.07458 -1224.28 0.
592.911 -965.897 0.
591.836 -967.385 0.
590.761 -968.874 0.
210.532 -1220.25 0.
149.011 -1362.97 0.
372.585 -1383.43 0.
333.106 -1128.85 0.
479.272 -788.541 0.
220.135 -718.531 0.
120.606 -946.896 0.
21.0768 -1175.26 0.
135.725 -1224.19 0.
151.647 -1189.36 0.
167.568 -1154.53 0.
317.356 -1196.42 0.
227.738 -1405.2 0.
138.12 -1613.98 0.
242.815 -1531.13 0.
278.006 -1449.83 0.
475.801 -1294.83 0.
532.912 -1157.35 0.
590.022 -1019.87 0.
354.379 -1011.33 0.
405.549 -888.651 0.
456.719 -765.969 0.
663.188 -692.094 0.
605.559 -827.597 0.
547.93 -963.1 0.
594.323 -948.058 0.
608.341 -921.166 0.
-1288.17 -1712.19 0.
1386.59 -555.709 0.
1392.16 -543.188 0.
358.31 -992.996 0.
308.259 -1106.51 0.
258.208 -1220.03 0.
547.09 -1084.17 0.
625.089 -899.673 0.
703.088 -715.176 0.
303.258 -912.965 0.
244.564 -1048.89 0.
185.871 -1184.81 0.
278.703 -1085.19 0.
317.51 -995.346 0.
797.561 -732.202 0.
756.788 -824.616 0.
716.015 -917.03 0.
185.434 -1157.2 0.
234.972 -1040.09 0.
284.511 -922.968 0.
399.44 -801.103 0.
424.842 -744.436 0.
450.244 -687.77 0.
451.913 -614.84 0.
497.769 -510.333 0.
796.877 -305.025 0.
512.506 -732.423 0.
352.534 -1106.53 0.
-65.1275 -1479.44 0.
10.2887 -1301.51 0.
85.7051 -1123.58 0.
278.95 -933.689 0.
311.43 -858.396 0.
343.909 -783.104 0.
1.33536 -1082.56 0.
-129.076 -1389.55 0.
-259.487 -1696.54 0.
166.168 -1233.98 0.
336.822 -838.295 0.
217.47 -615.981 0.
218.431 -615.687 0.
219.391 -615.393 0.
237.119 -628.033 0.
204.854 -708.397 0.
172.59 -788.761 0.
-146.801 -966.954 0.
-159.708 -996.078 0.
-172.614 -1025.2 0.
-10.0805 -677.761 0.
173.935 -251.099 0.
-345.099 -774.746 0.
-77.5142 -771.536 0.
-133.93 -905.75 0.
-52.4827 -946.201 0.
-9.42032 -845.986 0.
33.6422 -745.772 0.
-104.917 -822.23 0.
-192.691 -1028.04 0.
-280.467 -1233.85 0.
-359.774 -1279.54 0.
-315.278 -1175.18 0.
-270.782 -1070.82 0.
462.004 -917.519 0.
355.27 -1164.28 0.
16.2916 -1487.5 0.
67.2253 -1367.9 0.
118.159 -1248.29 0.
223.902 -1133.51 0.
232.656 -1113.27 0.
241.411 -1093.03 0.
373.576 -1027.29 0.
372.632 -1028.93 0.
371.688 -1030.57 0.
3.73092 -1278.87 0.
-57.9388 -1421.7 0.
492.434 -1302.16 0.
547.518 -1005.76 0.
694.018 -665.675 0.
339.328 -635.334 0.
239.842 -864.109 0.
140.355 -1092.88 0.
132.573 -1195.25 0.
148.374 -1160.66 0.
164.175 -1126.07 0.
427.951 -1116.6 0.
337.714 -1325.37 0.
247.476 -1534.14 0.
164.083 -1533.49 0.
198.98 -1452.11 0.
529.899 -1240.85 0.
586.916 -1103.86 0.
643.933 -966.875 0.
244.894 -1026.55 0.
296.49 -904.482 0.
348.086 -782.416 0.
716.986 -636.411 0.
659.205 -771.668 0.
601.423 -906.926 0.
599.508 -916.078 0.
612.729 -888.575 0.
756.627 -805.238 0.
1387.74 -524.01 0.
1392.84 -511.029 0.
327.369 -975.4 0.
277.505 -1089.17 0.
227.64 -1202.93 0.
412.491 -1109.33 0.
490.697 -925.415 0.
568.902 -741.497 0.
208.735 -921.387 0.
149.636 -1057 0.
90.5376 -1192.61 0.
612.493 -911.126 0.
650.956 -820.961 0.
692.985 -747.046 0.
652.054 -838.93 0.
611.123 -930.814 0.
173.121 -1132.1 0.
222.72 -1014.45 0.
272.32 -896.791 0.
423.479 -761.427 0.
448.918 -704.554 0.
474.359 -647.68 0.
583.533 -525.883 0.
629.826 -421.755 0.
120.476 -563.954 0.
453.795 -726.499 0.
293.878 -1100.44 0.
69.3829 -1390.08 0.
144.98 -1211.92 0.
220.576 -1033.77 0.
264.303 -909.905 0.
296.631 -834.436 0.
328.959 -758.966 0.
-30.0076 -1062.82 0.
-160.751 -1369.28 0.
-291.494 -1675.74 0.
217.922 -1182.05 0.
388.432 -785.915 0.
132.824 -619.682 0.
133.891 -619.428 0.
134.959 -619.173 0.
71.0579 -668.559 0.
37.8685 -748.266 0.
4.67903 -827.972 0.
-151.781 -938.044 0.
-164.753 -966.95 0.
-177.726 -995.855 0.
-114.412 -692.328 0.
69.822 -264.905 0.
-227.048 -470.198 0.
-172.979 -629.098 0.
369.21 636.423 0.
550.655 193.868 0.
304.841 -379.972 0.
396.241 -166.842 0.
211.473 10.0331 0.
241.642 80.1924 0.
194.655 -30.7506 0.
165.38 197.752 0.
353.24 635.649 0.
320.31 558.476 0.
1009.64 101.19 0.
716.988 -582.942 0.
800.467 486.956 0.
936.286 800.975 0.
747.603 357.804 0.
1203.96 745.889 0.
1120.39 550.6 0.
997.087 262.342 0.
811.744 441.342 0.
873.13 584.036 0.
310.436 -729.312 0.
344.588 -59.8882 0.
781.144 955.648 0.
762.184 516.9 0.
1419.83 650.139 0.
978.633 -382.825 0.
469.173 -522.998 0.
866.267 401.639 0.
1102.9 951.802 0.
816.956 441.418 0.
656.459 67.0286 0.
686.201 136.928 0.
1225.89 564.661 0.
1378.66 922.434 0.
1066.17 195.178 0.
1292.42 1285.4 0.
748.625 16.1644 0.
1229 319.211 0.
1066.72 -62.6486 0.
1158.83 149.315 0.
468.788 -259.747 0.
821.258 560.402 0.
727.774 339.698 0.
1081.62 149.064 0.
752.972 -619.451 0.
1077.64 136.711 0.
1325.49 790.7 0.
1421.63 1014.07 0.
-684.196 -769.25 0.
1833.54 563.944 0.
1795.93 472.658 0.
1501.53 1856.22 0.
1163.44 1065.51 0.
653.296 -126.039 0.
942.632 414.913 0.
904.546 325.376 0.
1110.97 806.436 0.
443.562 -159.391 0.
626.645 268.868 0.
951.84 1028.2 0.
1517.91 598.76 0.
1484.22 527.872 0.
1122.37 490.683 0.
1145.37 542.43 0.
1310.48 926.058 0.
904.557 636.35 0.
1155.7 1220.16 0.
588 -106.759 0.
677.235 -188.015 0.
968.191 490.665 0.
1122.12 849.37 0.
1205.46 698.419 0.
1611.66 1647.89 0.
-154.266 -84.729 0.
702.763 -5.90729 0.
1079.95 874.395 0.
795.33 89.4492 0.
823.686 152.878 0.
994.383 548.21 0.
718.198 205.99 0.
524.753 -242.906 0.
682.407 127.529 0.
373.428 -35.5137 0.
203.66 -430.418 0.
781.589 918.842 0.
1021.5 638.479 0.
1173.15 996.992 0.
356.634 89.2628 0.
348.243 71.7576 0.
406.433 209.503 0.
-115.331 -762.554 0.
392.645 422.353 0.
381.826 396.175 0.
-80.9215 -734.887 0.
295.015 141.625 0.
142.394 -214.987 0.
-139.793 -520.979 0.
-207.7 -676.409 0.
-347.897 -779.002 0.
-313.195 -850.418 0.
-362.108 -963.582 0.
69.0689 -860.255 0.
42.957 -920.129 0.
16.8454 -980.003 0.
-161.035 -1088.69 0.
-164.331 -1096.57 0.
-167.628 -1104.44 0.
-305.039 -1208.13 0.
-337.709 -1284.12 0.
-370.38 -1360.11 0.
472.757 -998.388 0.
473.891 -994.591 0.
107.07 -1150.82 0.
99.039 -1170.73 0.
91.0085 -1190.64 0.
298.74 -1102.86 0.
317.19 -1060.72 0.
335.639 -1018.57 0.
162.89 -980.971 0.
256.662 -763.414 0.
350.434 -545.856 0.
192.277 -745.587 0.
75.8862 -1019.58 0.
320.034 -1139.26 0.
586.622 -987.543 0.
610.42 -933.477 0.
295.332 -1045.9 0.
262.888 -1124.66 0.
230.445 -1203.43 0.
100.827 -1282.55 0.
115.458 -1248.48 0.
130.088 -1214.4 0.
517.31 -1167.51 0.
412.145 -1412.68 0.
306.98 -1657.84 0.
-164.099 -1790.83 0.
-107.764 -1658.41 0.
674.438 -1226.13 0.
675.653 -1224.82 0.
676.867 -1223.5 0.
-10.6468 -1488.22 0.
38.329 -1374.65 0.
87.305 -1261.07 0.
365.643 -1036.35 0.
428.584 -892.52 0.
491.526 -748.688 0.
722.782 -812.963 0.
596.968 -1107.98 0.
497.983 -1391.36 0.
1007.83 -1011.34 0.
1093.26 -813.515 0.
304.727 -1026.66 0.
305.201 -1025.3 0.
305.675 -1023.93 0.
423.535 -1010.49 0.
383.538 -1105.51 0.
343.541 -1200.52 0.
65.8128 -1288.47 0.
107.688 -1191.44 0.
149.563 -1094.41 0.
611.45 -977.298 0.
555.711 -1102.81 0.
402.529 -1239.86 0.
473.837 -1075.66 0.
545.146 -911.462 0.
36.729 -1069.72 0.
-7.03641 -1172.05 0.
-50.8014 -1274.37 0.
421.072 -1112.1 0.
415.873 -1123.2 0.
410.673 -1134.3 0.
403.066 -1187.07 0.
373.125 -1255.27 0.
65.4402 -1439.29 0.
198.566 -1260.49 0.
263.409 -1110.91 0.
169.134 -1026.09 0.
245.396 -849.809 0.
321.658 -673.526 0.
307.639 -675.93 0.
216.703 -884.697 0.
125.767 -1093.46 0.
-14.9783 -1179.05 0.
7.15845 -1127 0.
29.2952 -1074.95 0.
51.6123 -1067.47 0.
47.3387 -1074.93 0.
-202.557 -1159.12 0.
-115.781 -955.728 0.
-29.0044 -752.337 0.
154.86 -575.826 0.
155.252 -577.61 0.
155.645 -579.395 0.
133.982 -524.396 0.
193.201 -388.17 0.
252.421 -251.944 0.
-166.284 -350.004 0.
-130.298 -263.499 0.
-318.864 -738.093 0.
-352.882 -837.392 0.
-401.823 -950.695 0.
48.931 -837.823 0.
22.3683 -897.271 0.
-4.1941 -956.719 0.
-24.0463 -998.274 0.
-27.293 -1006.04 0.
-30.5399 -1013.81 0.
-127.136 -1101.02 0.
-159.779 -1176.84 0.
-192.422 -1252.65 0.
407.032 -995.39 0.
407.738 -991.649 0.
132.813 -1108.39 0.
124.586 -1128.28 0.
116.36 -1148.16 0.
176.507 -1123.88 0.
194.903 -1081.83 0.
213.298 -1039.79 0.
134.239 -959.795 0.
228.587 -742.54 0.
322.935 -525.285 0.
382.869 -633.073 0.
266.007 -906.605 0.
327.024 -1104.23 0.
442.701 -1018.42 0.
466.662 -964.611 0.
375.551 -979.228 0.
343.417 -1058.42 0.
311.283 -1137.62 0.
145.586 -1229.93 0.
160.406 -1196.44 0.
175.226 -1162.95 0.
575.85 -1110.96 0.
470.813 -1356.19 0.
365.776 -1601.41 0.
-316.26 -1824.69 0.
-260.094 -1692.21 0.
823.354 -1130.59 0.
824.101 -1128.72 0.
824.847 -1126.84 0.
63.2054 -1426.2 0.
111.835 -1312.34 0.
160.464 -1198.47 0.
126.578 -1108.11 0.
189.822 -964.523 0.
253.067 -820.936 0.
844.735 -728.443 0.
719.058 -1023.78 0.
-1969.69 -2416.61 0.
840.218 -1050.93 0.
925.268 -853.289 0.
367.925 -968.259 0.
368.433 -966.955 0.
368.942 -965.65 0.
553.373 -922.798 0.
513.936 -1017.86 0.
474.499 -1112.93 0.
211.526 -1196.07 0.
253.293 -1098.75 0.
295.059 -1001.43 0.
346.133 -1059.05 0.
290.843 -1184.78 0.
448.746 -1187.45 0.
519.636 -1023.04 0.
590.526 -858.633 0.
-116.531 -1105.21 0.
-160.242 -1207.5 0.
-203.953 -1309.78 0.
607.297 -1000.33 0.
602.562 -1011.61 0.
597.826 -1022.89 0.
426.108 -1145.22 0.
396.355 -1213.5 0.
512.685 -1217.02 0.
255.155 -1205.44 0.
319.757 -1055.89 0.
6.96462 -1064.8 0.
82.5956 -887.884 0.
158.227 -710.964 0.
282.425 -656.403 0.
191.391 -864.985 0.
100.358 -1073.57 0.
126.226 -1087.29 0.
148.573 -1035.59 0.
170.919 -983.892 0.
-223.267 -1153.46 0.
-226.9 -1161.23 0.
-214.836 -1132.22 0.
-127.87 -929.064 0.
-40.9034 -725.906 0.
404.731 -437.117 0.
405.606 -439.388 0.
406.48 -441.661 0.
303.329 -420.278 0.
363.01 -284.279 0.
422.692 -148.28 0.
-271.848 -363.638 0.
-235.522 -276.899 0.
-64.6369 -483.054 0.
-169.186 -590.881 0.
-188.952 -637.774 0.
113.847 -546.884 0.
100.279 -582.664 0.
86.7108 -618.444 0.
60.9996 -711.275 0.
-20.225 -900.909 0.
-101.45 -1090.54 0.
-58.4295 -1115.43 0.
-49.6093 -1094.18 0.
-40.789 -1072.93 0.
440.33 -831.332 0.
460.054 -786.433 0.
262.419 -849.526 0.
193.081 -1010.11 0.
123.744 -1170.69 0.
61.1077 -1255.9 0.
112.692 -1133.7 0.
164.277 -1011.51 0.
111.062 -1004.37 0.
96.4033 -1037.64 0.
81.7448 -1070.91 0.
391.41 -824.847 0.
475.632 -628.754 0.
596.744 -416.685 0.
606.177 -567.549 0.
521.977 -765.376 0.
375.485 -951.74 0.
408.087 -872.483 0.
440.69 -793.227 0.
360.759 -789.442 0.
360.504 -789.034 0.
360.249 -788.625 0.
647.189 -692.367 0.
627.073 -739.302 0.
606.957 -786.236 0.
135.92 -853.848 0.
216.588 -665.656 0.
1178.09 -128.622 0.
1136.61 -227.616 0.
1095.12 -326.611 0.
457.162 -671.34 0.
423.702 -749.351 0.
390.242 -827.363 0.
202.802 -966.4 0.
176.111 -1026.99 0.
149.42 -1087.58 0.
930.651 -576.887 0.
1059.53 -275.103 0.
-3360.2 -1923.69 0.
1189.28 -203.569 0.
1069.59 -483.946 0.
330.954 -959.573 0.
367.921 -875.087 0.
404.888 -790.601 0.
622.199 -673.188 0.
600.013 -719.948 0.
577.828 -766.707 0.
404.365 -820.858 0.
425.884 -768.144 0.
447.402 -715.43 0.
445.132 -729.776 0.
435.343 -753.482 0.
537.649 -735.338 0.
492.768 -837.917 0.
447.887 -940.495 0.
-83.3237 -1231.16 0.
-96.9741 -1261.33 0.
-110.625 -1291.49 0.
559.873 -1028.61 0.
545.97 -1061.58 0.
532.067 -1094.55 0.
491.095 -1097.62 0.
505.774 -1067.67 0.
526.607 -1037.09 0.
292.726 -905.441 0.
414.636 -621.332 0.
198.961 -572.164 0.
115.624 -762.99 0.
32.2873 -953.816 0.
126.86 -934.28 0.
197.834 -771.083 0.
268.808 -607.885 0.
350.463 -623.767 0.
279.366 -790.58 0.
208.27 -957.393 0.
-182.315 -998.649 0.
-98.316 -804.611 0.
24.5103 -636.514 0.
-80.5144 -883.299 0.
-185.539 -1130.08 0.
150.716 -1064.28 0.
228.294 -883.517 0.
305.872 -702.757 0.
111.178 -751.981 0.
85.3644 -808.647 0.
59.55 -865.313 0.
-542.587 -1030.86 0.
-478.251 -880.906 0.
289.989 -300.144 0.
82.7781 -452.199 0.
62.4344 -498.914 0.
30.3113 -552.004 0.
15.9979 -587.221 0.
1.68483 -622.439 0.
-131.789 -762.146 0.
-212.932 -951.984 0.
-294.075 -1141.82 0.
-13.9452 -1065.6 0.
-5.31499 -1044.24 0.
3.31521 -1022.88 0.
446.552 -797.658 0.
466.123 -752.468 0.
308.985 -798.568 0.
239.372 -958.917 0.
169.761 -1119.27 0.
69.3045 -1221.39 0.
121.038 -1099.48 0.
172.772 -977.575 0.
154.373 -954.988 0.
139.475 -988.079 0.
124.576 -1021.17 0.
457.569 -765.35 0.
541.6 -569.266 0.
344.102 -493.753 0.
712.907 -490.734 0.
629.054 -689.116 0.
292.779 -955.25 0.
325.247 -876.163 0.
357.715 -797.077 0.
408.158 -735.555 0.
407.768 -735.256 0.
407.378 -734.957 0.
364.119 -782.596 0.
343.729 -829.68 0.
323.34 -876.764 0.
404.938 -707.791 0.
486.047 -519.482 0.
889.655 -221.317 0.
847.816 -319.858 0.
805.976 -418.399 0.
590.861 -583.153 0.
557.287 -661.324 0.
523.714 -739.494 0.
500.838 -806.887 0.
474.415 -867.921 0.
447.992 -928.955 0.
890.804 -561.022 0.
1020.27 -259.905 0.
1748.4 297.283 0.
1349.37 -102.936 0.
1229.64 -383.439 0.
210.153 -980.395 0.
246.694 -895.427 0.
283.235 -810.46 0.
421.706 -728.841 0.
399.481 -775.385 0.
377.256 -821.928 0.
360.134 -809.903 0.
381.43 -756.898 0.
402.726 -703.893 0.
641.735 -612.913 0.
631.527 -636.372 0.
265.807 -821.449 0.
221.367 -924.283 0.
176.927 -1027.12 0.
310.488 -1029.43 0.
297.177 -1059.97 0.
283.865 -1090.51 0.
326.46 -1098.31 0.
312.72 -1131.44 0.
298.982 -1164.58 0.
609.414 -1014.75 0.
623.9 -984.546 0.
307.784 -1098.87 0.
51.2186 -977.685 0.
173.192 -694.217 0.
333.247 -483.36 0.
250.454 -674.674 0.
167.661 -865.987 0.
97.9742 -915.033 0.
168.704 -751.927 0.
239.434 -588.82 0.
309.442 -610.243 0.
238.253 -777.325 0.
167.065 -944.407 0.
47.5236 -869.27 0.
131.499 -675.158 0.
135.725 -558.028 0.
30.9651 -804.863 0.
-73.7949 -1051.7 0.
-28.0529 -1109.52 0.
49.9121 -929.138 0.
127.877 -748.752 0.
-149.285 -832.765 0.
-174.982 -889.55 0.
-200.68 -946.336 0.
-373.957 -927.155 0.
-310.069 -777.563 0.
1104.57 974.04 0.
420.094 -96.5691 0.
353.239 -256.031 0.
265.124 182.496 0.
127.914 -138.865 0.
728.512 1262.22 0.
174.896 351.731 0.
-148.716 -405.945 0.
152.588 294.095 0.
342.195 -284.813 0.
475.316 23.1643 0.
595.586 301.61 0.
678.515 -235.258 0.
974.49 456.572 0.
1108.77 1018.26 0.
530.594 -331.873 0.
833.613 374.331 0.
724.446 321.463 0.
824.654 554.323 0.
503.663 -195.498 0.
716.682 304.458 0.
823.136 552.839 0.
1035.55 1048.68 0.
913.296 194.986 0.
1074.8 570.443 0.
1036.98 318.991 0.
1119.61 280.272 0.
1365.39 850.75 0.
858.463 557.683 0.
703.117 196.334 0.
309.781 -720.154 0.
970.125 527.622 0.
1070.32 757.905 0.
1050.09 707.237 0.
752.271 696.227 0.
677.418 521.421 0.
745.204 679.166 0.
1305.55 918.122 0.
1020.25 252.367 0.
711.401 -70.8218 0.
1017.5 643.097 0.
695.717 -108.235 0.
1339.24 944.759 0.
1241.95 715.934 0.
1638.3 1638.85 0.
1745.56 1576.68 0.
1140.33 162 0.
1399.72 764.539 0.
1318.33 547.312 0.
1671.84 1374.42 0.
-4139.97 -1222.5 0.
1798.85 670.831 0.
1891.99 889.114 0.
536.181 39.3443 0.
856.705 785.326 0.
534.287 31.4252 0.
407.894 -349.611 0.
706.686 345.99 0.
464.823 -219.472 0.
717.934 150.937 0.
946.833 682.45 0.
786.59 305.688 0.
1155.99 251.469 0.
1072.36 54.0489 0.
335.719 -113.43 0.
675.077 677.299 0.
576.699 446.818 0.
1195.77 324.81 0.
1024.01 -75.9017 0.
1109.13 122.799 0.
634.308 87.9371 0.
363.528 -542.836 0.
550.174 -105.919 0.
1188.31 139.937 0.
1190.18 145.928 0.
975.41 1178.35 0.
272.728 21.0138 0.
606.941 804.162 0.
637.98 5.34549 0.
437.16 -463.116 0.
268.376 -857.504 0.
590.254 303.925 0.
600.372 328.238 0.
300.509 -370.297 0.
474.073 -110.152 0.
648.221 297.073 0.
893.468 869.805 0.
556.203 -88.5093 0.
333.431 -606.725 0.
787.735 778.943 0.
612.49 374.357 0.
366.349 -196.313 0.
602.594 711.578 0.
957.759 1543.91 0.
717.486 986.864 0.
-53.9333 -91.1198 0.
0.60046 33.9794 0.
466.758 1120.44 0.
477.788 770.235 0.
530.769 894.694 0.
366.372 -812.443 0.
-44.1172 -797.063 0.
28.364 -629.584 0.
1.38037 -548.986 0.
-49.0856 -667.294 0.
-99.5514 -785.601 0.
-318.884 -912.649 0.
-292.028 -852.222 0.
-265.171 -791.796 0.
137.103 -704.281 0.
54.6585 -897.434 0.
-27.786 -1090.59 0.
228.315 -978.059 0.
245.214 -938.472 0.
172.981 -942.889 0.
117.625 -1074.09 0.
62.2689 -1205.29 0.
187.491 -1196.14 0.
240.127 -1075.52 0.
292.764 -954.901 0.
177.828 -950.414 0.
184.509 -936.894 0.
191.189 -923.375 0.
513.303 -812.844 0.
492.768 -862.537 0.
1012.97 -680.634 0.
592.186 -815.732 0.
620.035 -751.738 0.
107.635 -931.133 0.
96.9522 -956.921 0.
86.2697 -982.71 0.
364.395 -935.698 0.
291.412 -1108.95 0.
218.428 -1282.2 0.
-41.6483 -1338.41 0.
42.1072 -1144.62 0.
125.863 -950.843 0.
530.68 -859.735 0.
473.035 -994.646 0.
145.537 -1224.53 0.
206.192 -1084.17 0.
266.848 -943.811 0.
629.457 -769.889 0.
537.32 -985.972 0.
445.183 -1202.05 0.
508.61 -1106.68 0.
649.946 -780.661 0.
791.281 -454.646 0.
935.529 -483.222 0.
834.002 -719.703 0.
-259.881 -1382.42 0.
1110.3 -787.955 0.
1113.81 -779.582 0.
99.5107 -1190.64 0.
139.567 -1096.75 0.
179.623 -1002.86 0.
224.02 -943.011 0.
227.083 -934.783 0.
230.146 -926.556 0.
361.329 -830.519 0.
388.463 -768.778 0.
415.597 -707.037 0.
580.992 -782.369 0.
494.319 -986.227 0.
58.9456 -1302.6 0.
123.865 -1152.8 0.
188.784 -1003 0.
481.061 -859.602 0.
387.816 -1076.09 0.
294.571 -1292.58 0.
-9.55742 -1392.89 0.
89.5653 -1160.7 0.
188.688 -928.496 0.
593.41 -740.611 0.
576.478 -777.155 0.
320.562 -909.717 0.
-17.565 -1073.68 0.
-29.737 -1097.97 0.
90.6147 -1040.88 0.
136.325 -935.287 0.
182.036 -829.693 0.
161.567 -851.251 0.
97.0577 -1000.02 0.
32.5483 -1148.78 0.
-26.5708 -1069.19 0.
80.8258 -817.351 0.
188.222 -565.511 0.
475.716 -561.785 0.
392.366 -754.165 0.
-84.681 -1079.01 0.
-11.4347 -904.288 0.
61.8115 -729.566 0.
-85.7171 -670.461 0.
-46.9093 -576.999 0.
-8.10106 -483.536 0.
-64.5104 -525.525 0.
-104.995 -621.211 0.
-145.479 -716.897 0.
-282.519 -861.528 0.
-325.436 -962.788 0.
416.216 -760.422 0.
-228.549 -845.049 0.
-156.558 -677.437 0.
78.9212 -484.297 0.
28.2395 -602.341 0.
-22.4419 -720.385 0.
-243.839 -849.014 0.
-217.024 -788.631 0.
-190.209 -728.247 0.
121.745 -679.803 0.
39.0936 -872.898 0.
-43.5578 -1065.99 0.
82.8717 -1009.6 0.
99.7977 -970.14 0.
74.1742 -952.72 0.
18.9077 -1083.95 0.
-36.3586 -1215.18 0.
342.653 -1097.5 0.
395.334 -976.53 0.
448.015 -855.563 0.
193.792 -913.211 0.
200.315 -899.851 0.
206.838 -886.49 0.
570.941 -756.339 0.
550.166 -806.409 0.
-33.9841 -1098.25 0.
537.852 -806.755 0.
565.435 -743.156 0.
-10.8738 -951.751 0.
-21.7032 -977.64 0.
-32.5328 -1003.53 0.
409.358 -883.517 0.
336.645 -1056.91 0.
263.933 -1230.31 0.
71.6631 -1256.85 0.
155.201 -1062.83 0.
238.739 -868.803 0.
531.723 -829.255 0.
474.009 -963.983 0.
74.5592 -1223.41 0.
135.576 -1083.23 0.
196.593 -943.057 0.
674.308 -718.295 0.
582.151 -934.434 0.
489.995 -1150.57 0.
418.396 -1114.55 0.
559.435 -788.364 0.
700.473 -462.183 0.
1026 -412.643 0.
924.587 -649.2 0.
374.595 -1078.66 0.
1050 -782.048 0.
1053.78 -773.64 0.
227.072 -1104.91 0.
266.967 -1011.27 0.
306.862 -917.621 0.
327.522 -865.866 0.
330.573 -857.801 0.
333.624 -849.736 0.
455.87 -758.712 0.
482.992 -696.794 0.
510.113 -634.876 0.
432.95 -814.699 0.
346.3 -1018.81 0.
363.822 -1139.16 0.
429.52 -990.109 0.
495.218 -841.054 0.
238.727 -931.589 0.
145.761 -1148.32 0.
52.7956 -1365.06 0.
-4.02144 -1359.35 0.
95.655 -1127.52 0.
195.332 -895.69 0.
342.521 -816.933 0.
325.761 -853.653 0.
552.518 -777.981 0.
217.477 -941.535 0.
205.793 -966.492 0.
-13.6999 -1054.43 0.
32.0587 -948.724 0.
77.8177 -843.021 0.
257.721 -778.318 0.
193.586 -927.288 0.
129.451 -1076.26 0.
-120.36 -1078.56 0.
-12.8231 -826.788 0.
94.7134 -575.016 0.
641.637 -459.311 0.
558.549 -651.979 0.
-162.003 -1081.15 0.
-88.5322 -906.496 0.
-15.0617 -731.846 0.
-185.454 -680.761 0.
-146.412 -587.539 0.
-107.369 -494.317 0.
165.964 -395.716 0.
125.466 -491.643 0.
84.9676 -587.569 0.
-340.471 -855.012 0.
-382.972 -957.195 0.
458.28 -177.055 0.
-226.416 -627.446 0.
-271.978 -730.911 0.
100.549 -639.852 0.
91.3636 -658.992 0.
82.1785 -678.132 0.
-221.641 -826.426 0.
-230.13 -843.749 0.
-238.62 -861.071 0.
126.496 -622.139 0.
200.049 -450.829 0.
273.603 -279.519 0.
284.539 -489.37 0.
141.495 -823.194 0.
-42.8174 -1138.68 0.
15.894 -997.484 0.
74.6052 -856.293 0.
516.204 -627.636 0.
451.122 -776.713 0.
386.039 -925.789 0.
179.724 -1027.7 0.
221.192 -929.918 0.
262.661 -832.135 0.
427.183 -681.356 0.
471.052 -579.717 0.
391.877 -530.428 0.
790.231 -434.644 0.
743.515 -542.152 0.
-31.1231 -940.342 0.
-3.11088 -875.306 0.
24.9013 -810.271 0.
524.018 -620.34 0.
459.952 -767.721 0.
395.887 -915.102 0.
275.819 -925.475 0.
344.073 -767.41 0.
412.327 -609.345 0.
550.314 -587.726 0.
515.72 -668.82 0.
253.07 -848.57 0.
217.804 -931.915 0.
182.538 -1015.26 0.
601.613 -837.986 0.
672.117 -673.495 0.
742.622 -509.004 0.
631.799 -568.937 0.
566.717 -720.304 0.
501.634 -871.67 0.
835.217 -718.703 0.
864.078 -652.015 0.
-2042.27 -1842.35 0.
1143.86 -387.885 0.
1190.19 -279.066 0.
524.339 -496.765 0.
517.554 -514.521 0.
510.769 -532.276 0.
573.729 -511.545 0.
578.58 -500.239 0.
583.432 -488.934 0.
559.396 -544.313 0.
519.255 -637.265 0.
479.115 -730.217 0.
348.619 -880.313 0.
297.797 -995.611 0.
521.059 -965.998 0.
592.888 -796.02 0.
664.717 -626.041 0.
256.263 -729.089 0.
230.437 -788.454 0.
204.611 -847.819 0.
229.641 -807.517 0.
269.541 -712.749 0.
309.44 -617.981 0.
373.808 -547.716 0.
388.262 -513.719 0.
509.999 -447.063 0.
353.557 -622.307 0.
296.893 -754.874 0.
58.1284 -933.303 0.
52.5146 -944.161 0.
46.9004 -955.02 0.
204.552 -865.018 0.
243.695 -771.025 0.
282.837 -677.032 0.
29.4293 -732.678 0.
49.0068 -687.728 0.
68.5846 -642.778 0.
522.673 -587.027 0.
445.382 -767.182 0.
-213.35 -1129.24 0.
-47.175 -743.814 0.
119.001 -358.383 0.
-3.02182 -313.53 0.
-146.678 -651.651 0.
-290.335 -989.772 0.
27.8148 -882.394 0.
102.629 -707.983 0.
177.442 -533.571 0.
-333.715 -695.525 0.
-311.052 -646.102 0.
-76.3671 -378.747 0.
-238.612 -601.891 0.
-284.164 -705.247 0.
273.679 -533.96 0.
264.72 -553.123 0.
255.76 -572.286 0.
-233.474 -798.71 0.
-241.366 -816.557 0.
-249.258 -834.403 0.
121.629 -593.671 0.
195.239 -422.434 0.
268.848 -251.198 0.
411.205 -402.19 0.
268.167 -736.265 0.
-7.05086 -1091.5 0.
51.2587 -950.281 0.
109.568 -809.062 0.
330.443 -675.772 0.
265.9 -825.245 0.
201.358 -974.718 0.
280.985 -952.325 0.
322.361 -854.485 0.
363.738 -756.646 0.
-14.2797 -838.108 0.
29.758 -736.898 0.
152.313 -601.914 0.
1109.36 -266.563 0.
1062.86 -374.141 0.
56.149 -871.49 0.
84.3787 -806.504 0.
112.608 -741.518 0.
505.432 -596.981 0.
441.506 -744.42 0.
377.58 -891.86 0.
343.678 -864.257 0.
412.128 -706.184 0.
480.579 -548.111 0.
370.678 -634.702 0.
336.107 -715.413 0.
405.301 -752.792 0.
369.888 -835.709 0.
334.475 -918.626 0.
540.247 -833.563 0.
610.718 -668.913 0.
681.19 -504.262 0.
702.796 -505.859 0.
638.371 -657.816 0.
573.946 -809.772 0.
626.473 -776.111 0.
655.52 -709.637 0.
-1153.55 -1429.79 0.
1062.23 -390.686 0.
1108.09 -281.64 0.
521.435 -467.085 0.
514.743 -484.695 0.
508.051 -502.305 0.
737.513 -410.641 0.
742.446 -399.331 0.
747.378 -388.021 0.
528.044 -526.791 0.
488.362 -620.216 0.
448.681 -713.64 0.
390.709 -830.077 0.
339.728 -945.445 0.
440.669 -967.915 0.
512.972 -798.323 0.
585.275 -628.731 0.
353.219 -655.776 0.
327.61 -715.485 0.
302 -775.195 0.
249.201 -767.441 0.
289.216 -672.578 0.
329.232 -577.715 0.
447.628 -486.083 0.
461.678 -451.748 0.
-18.9506 -640.948 0.
159.47 -672.747 0.
102.551 -805.465 0.
239.004 -825.463 0.
233.529 -836.572 0.
228.053 -847.682 0.
107.692 -874.795 0.
147.255 -781.391 0.
186.819 -687.987 0.
151.541 -647.889 0.
171.768 -603.589 0.
191.994 -559.291 0.
236.207 -678.985 0.
159.356 -859.655 0.
-176.443 -1081.57 0.
-9.8504 -696.168 0.
156.743 -310.767 0.
197.996 -195.772 0.
54.2989 -533.833 0.
-89.3983 -871.895 0.
5.99804 -860.544 0.
80.6813 -686.125 0.
155.364 -511.706 0.
-385.807 -688.188 0.
-363.326 -639.646 0.
-308.745 137.47 0.
220.334 524.415 0.
-68.9844 -151.134 0.
1063.77 1016.61 0.
571.618 -132.617 0.
709.741 189.356 0.
42.3843 -105.862 0.
388.976 705.699 0.
84.8194 -1.56418 0.
303.692 -137.025 0.
626.725 618.277 0.
605.552 571.182 0.
805.593 312.692 0.
669.386 -5.05563 0.
270.103 -469.864 0.
317.09 -363.319 0.
693.08 511.363 0.
799.709 796.64 0.
899.154 1030.03 0.
608.329 352.702 0.
684.224 -160.918 0.
988.946 552.061 0.
1194.72 1034.09 0.
46.4547 155.01 0.
503.459 1219.63 0.
540.816 355.595 0.
1763.62 684.64 0.
1940.85 1100.92 0.
261.209 -541.227 0.
901.406 955.983 0.
787.537 693.86 0.
602.34 -296.807 0.
1045.05 736.261 0.
1182.15 1056.5 0.
855.378 229.748 0.
929.105 402.906 0.
1280.49 1223.78 0.
690.735 483.921 0.
406.497 -180.614 0.
867.375 65.4465 0.
972.734 315.702 0.
841.279 13.2756 0.
704.976 -306.807 0.
867.722 73.6545 0.
781.632 -126.549 0.
961.609 -8.61695 0.
832.726 -307.976 0.
1053.12 207.359 0.
827.07 116.356 0.
982.64 479.079 0.
-1193.42 -615.194 0.
1743.19 1380.17 0.
1419.92 625.74 0.
669.856 -84.67 0.
762.301 130.739 0.
645.58 -142.006 0.
1080.97 108.191 0.
1314.11 652.643 0.
863.875 -397.195 0.
556.028 -379.558 0.
482.744 -552.258 0.
1055.97 783.476 0.
855.966 208.657 0.
964.551 459.02 0.
1110.39 773.506 0.
792.183 37.3546 0.
858.04 197.16 0.
629.026 -169.33 0.
1304.73 1411.57 0.
1200.94 1173.74 0.
632.726 112.591 0.
780.363 462.428 0.
992.691 963.37 0.
417.245 -678.583 0.
293.481 -968.25 0.
-279.804 432.538 0.
449.564 400.386 0.
303.331 58.264 0.
756.99 78.1896 0.
281.484 -1034.91 0.
964.072 553.94 0.
255.138 -321.052 0.
627.327 546.562 0.
687.076 685.282 0.
360.996 -360.019 0.
318.664 -458.857 0.
486.423 -66.5468 0.
623.864 789.653 0.
542.223 598.844 0.
869.062 1310.8 0.
387.439 188.946 0.
87.8701 -508.529 0.
187.888 -576.029 0.
726.742 681.993 0.
440.837 15.4272 0.
139.844 -468.181 0.
-38.6627 -882.953 0.
404.523 151.752 0.
-233.393 -223.941 0.
-303.137 -384.36 0.
-511.342 -807.536 0.
-189.169 -768.489 0.
-259.668 -934.254 0.
197.941 -822.578 0.
257.883 -684.218 0.
317.825 -545.858 0.
28.8502 -649.843 0.
-29.8346 -784.784 0.
-88.5198 -919.725 0.
-26.8479 -978.189 0.
-64.8491 -1067.29 0.
-102.85 -1156.39 0.
75.9254 -938.044 0.
170.878 -716.596 0.
339.056 -480.134 0.
359.449 -437.973 0.
379.841 -395.811 0.
267.611 -440.575 0.
227.822 -533.089 0.
188.033 -625.602 0.
213.932 -714.301 0.
150.661 -861.745 0.
87.389 -1009.19 0.
-129.193 -1104.32 0.
-113.437 -1065.3 0.
316.414 -848.937 0.
862.328 -653.785 0.
845.828 -691.877 0.
51.8258 -1038.38 0.
82.2535 -968.38 0.
112.681 -898.377 0.
476.435 -699.935 0.
487.915 -673.493 0.
499.394 -647.051 0.
346.808 -795.684 0.
273.609 -966.201 0.
200.41 -1136.72 0.
143.891 -1091.25 0.
196.267 -970.96 0.
450.577 -772.668 0.
474.07 -718.963 0.
497.562 -665.259 0.
468.919 -652.997 0.
461.79 -670.213 0.
454.662 -687.429 0.
560.373 -723.191 0.
488.917 -891.92 0.
417.461 -1060.65 0.
478.902 -1039.1 0.
497.932 -994.735 0.
1310.78 -610.555 0.
658.41 -838.503 0.
685.364 -775.646 0.
432.412 -859.187 0.
396.94 -943.094 0.
361.467 -1027 0.
552.569 -982.241 0.
552.557 -983.539 0.
552.545 -984.837 0.
174.904 -1105.61 0.
207.843 -1026.44 0.
240.782 -947.274 0.
534.098 -830.299 0.
524.692 -855.117 0.
211.721 -1009.55 0.
198.746 -1035.54 0.
185.771 -1061.52 0.
283.741 -1000.09 0.
323.988 -903.515 0.
364.235 -806.94 0.
279.227 -771.064 0.
315.429 -686.931 0.
351.631 -602.798 0.
540.472 -541.638 0.
521.668 -586.816 0.
-437.855 -1027.27 0.
-163.362 -960.66 0.
-189.445 -1022.82 0.
213.544 -889.796 0.
223.502 -872.085 0.
233.461 -854.374 0.
80.2306 -893.017 0.
100.699 -846.731 0.
121.169 -800.445 0.
-1.73738 -883.655 0.
-30.5585 -949.856 0.
-59.3794 -1016.06 0.
95.5458 -780.365 0.
194.861 -549.224 0.
120.469 -445.357 0.
23.9401 -668.542 0.
-72.588 -891.728 0.
-140.555 -983.423 0.
-62.1377 -799.291 0.
16.2795 -615.159 0.
122.431 -580.554 0.
56.9289 -732.138 0.
-8.5735 -883.723 0.
-333.229 -806.893 0.
-180.619 -450.413 0.
-248.408 -666.642 0.
4.45783 -655.313 0.
-65.7849 -821.001 0.
120.86 -823.331 0.
181.219 -685.215 0.
241.577 -547.097 0.
313.523 -496.192 0.
255.19 -631.211 0.
196.856 -766.229 0.
28.8017 -922.915 0.
-8.87801 -1012.24 0.
-46.5577 -1101.57 0.
-146.205 -1001.36 0.
-51.609 -779.835 0.
452.072 -400.65 0.
471.558 -357.658 0.
491.043 -314.667 0.
282.438 -403.356 0.
242.643 -495.835 0.
202.848 -588.314 0.
-55.4501 -799.969 0.
-118.7 -947.397 0.
-181.949 -1094.82 0.
334.039 -874.456 0.
349.403 -835.098 0.
478.172 -747.248 0.
475.613 -790.379 0.
459.409 -828.923 0.
75.8735 -995.137 0.
106.836 -925.744 0.
137.798 -856.351 0.
548.617 -637.034 0.
560.362 -610.776 0.
572.107 -584.518 0.
279.619 -791.524 0.
206.556 -962.154 0.
133.492 -1132.78 0.
314.644 -987.493 0.
366.728 -866.648 0.
400.603 -763.147 0.
423.912 -709.001 0.
447.22 -654.855 0.
377.023 -661.002 0.
370.268 -678.568 0.
363.514 -696.134 0.
462.786 -734.52 0.
391.228 -903.194 0.
319.669 -1071.87 0.
678.97 -923.008 0.
697.831 -878.515 0.
825.402 -786.327 0.
509.047 -870.455 0.
536.224 -807.699 0.
564.343 -771.411 0.
529.164 -855.762 0.
493.984 -940.113 0.
495.346 -975.424 0.
495.103 -976.417 0.
494.861 -977.41 0.
104.847 -1105.19 0.
137.771 -1026.11 0.
170.694 -947.022 0.
701.319 -726.832 0.
692.063 -751.354 0.
66.267 -1040.22 0.
53.689 -1066.31 0.
41.1107 -1092.4 0.
314.524 -955.954 0.
355.159 -859.57 0.
395.793 -763.187 0.
328.571 -717.118 0.
365.47 -633.693 0.
402.368 -550.268 0.
639.236 -468.662 0.
620.495 -514.209 0.
11.3142 -803.111 0.
-184.085 -937.891 0.
-210.288 -1000.15 0.
71.3159 -920.428 0.
81.1665 -902.674 0.
91.0167 -884.92 0.
180.081 -819.519 0.
201.013 -773.681 0.
221.944 -727.842 0.
-156.761 -918.504 0.
-185.012 -985.401 0.
-213.263 -1052.3 0.
288.995 -666.528 0.
388.166 -435.242 0.
138.463 -405.528 0.
42.02 -628.573 0.
-54.423 -851.618 0.
-312.127 -1026.21 0.
-233.889 -841.814 0.
-155.651 -657.415 0.
174.726 -527.663 0.
109.071 -679.418 0.
43.4166 -831.173 0.
-131.501 -687.914 0.
21.7515 -332.175 0.
-186.695 -931.335 0.
-37.3743 -822.726 0.
18.4857 -689.899 0.
192.271 -529.05 0.
185.218 -543.156 0.
178.163 -557.261 0.
405.114 -474.129 0.
392.739 -502.69 0.
380.364 -531.25 0.
92.2477 -709.374 0.
54.0453 -797.978 0.
15.8427 -886.581 0.
-166.676 -991.256 0.
-175.51 -1013.61 0.
200.576 -858.218 0.
280.199 -671.513 0.
359.823 -484.808 0.
313.824 -432.981 0.
256.194 -566.195 0.
198.564 -699.409 0.
-120.639 -903.937 0.
-138.414 -946.491 0.
-156.189 -989.046 0.
503.973 -743.797 0.
488.289 -780.648 0.
575.915 -772.166 0.
315.313 -704.545 0.
403.949 -493.007 0.
388.949 -396.681 0.
306.884 -584.004 0.
224.819 -771.326 0.
429.942 -715.528 0.
493.397 -564.569 0.
556.852 -413.611 0.
318.951 -554.367 0.
258.204 -696.026 0.
197.457 -837.684 0.
582.048 -682.421 0.
582.176 -680.975 0.
321.464 -792.583 0.
312.14 -813.691 0.
302.816 -834.798 0.
345.491 -775.925 0.
422.68 -593.667 0.
499.87 -411.409 0.
558.999 -330.097 0.
554.656 -338.218 0.
550.312 -346.338 0.
956.51 -89.0369 0.
1012.44 41.7291 0.
1012.39 146.012 0.
794.06 -185.22 0.
669.12 -476.426 0.
675.073 -655.641 0.
675.566 -654.263 0.
676.058 -652.885 0.
531.179 -659.118 0.
601.902 -496.106 0.
672.626 -333.093 0.
379.893 -480.332 0.
329.087 -599.359 0.
278.28 -718.385 0.
889.515 -422.146 0.
915.696 -359.47 0.
244.43 -609.194 0.
216.919 -672.896 0.
189.407 -736.599 0.
452.982 -628.907 0.
491.663 -538.375 0.
530.344 -447.844 0.
400.941 -546.142 0.
331.533 -703.913 0.
262.124 -861.683 0.
466.475 -769.409 0.
489.2 -719.497 0.
781.544 -551.143 0.
-73.6679 -856.252 0.
-42.2847 -782.136 0.
40.6184 -717.917 0.
-7.3419 -824.62 0.
-55.3015 -931.323 0.
194.14 -827.002 0.
245.42 -704.005 0.
296.699 -581.008 0.
29.7068 -582.217 0.
93.592 -433.736 0.
157.477 -285.254 0.
497.978 -143.427 0.
489.652 -161.613 0.
111.609 -340.065 0.
101.611 -364.543 0.
91.6137 -389.021 0.
-146.166 -497.708 0.
-144.196 -493.136 0.
-142.227 -488.565 0.
224.23 -287.608 0.
260.601 -205.109 0.
296.973 -122.61 0.
96.3526 -335.578 0.
10.8416 -534.107 0.
-18.9232 -826.522 0.
-129.186 -833.235 0.
-73.5367 -699.831 0.
156.448 -510.859 0.
149.812 -525.168 0.
143.175 -539.477 0.
358.793 -463.764 0.
346.281 -492.242 0.
333.769 -520.72 0.
-1.40421 -717.088 0.
-39.4065 -805.776 0.
-77.409 -894.464 0.
31.0985 -876.62 0.
22.2871 -899.285 0.
-16.4991 -917.325 0.
63.1521 -730.73 0.
142.804 -544.135 0.
436.321 -350.659 0.
378.498 -483.63 0.
320.675 -616.6 0.
111.461 -773.527 0.
93.9166 -816.41 0.
76.3722 -859.294 0.
361.37 -771.405 0.
345.777 -808.467 0.
120.162 -934.78 0.
249.516 -703.476 0.
338.173 -491.978 0.
528.672 -303.152 0.
446.997 -491.11 0.
365.32 -679.069 0.
184.878 -789.047 0.
248.515 -638.34 0.
312.152 -487.633 0.
267.753 -543.793 0.
207.308 -685.96 0.
146.863 -828.128 0.
779.119 -567.179 0.
779.59 -565.914 0.
235.466 -796.527 0.
226.56 -818.179 0.
217.654 -839.831 0.
504.995 -677.607 0.
582.642 -495.864 0.
660.288 -314.121 0.
490.099 -326.033 0.
486.272 -335.069 0.
482.445 -344.105 0.
589.289 -214.717 0.
645.462 -84.384 0.
16.9774 -248.46 0.
969.92 -77.0657 0.
844.361 -367.912 0.
721.41 -604.452 0.
721.709 -602.987 0.
722.008 -601.521 0.
373.678 -695.495 0.
444.39 -532.572 0.
515.102 -369.649 0.
504.712 -395.024 0.
454.037 -514.135 0.
403.361 -633.246 0.
901.878 -385.112 0.
928.364 -322.395 0.
395.591 -513.816 0.
368.012 -577.336 0.
340.434 -640.857 0.
446.934 -602.204 0.
485.58 -511.509 0.
524.226 -420.815 0.
371.023 -526.189 0.
301.796 -684.324 0.
232.57 -842.458 0.
306.059 -806.417 0.
328.331 -756.195 0.
751.771 -531.499 0.
164.619 -722.351 0.
196.304 -648.248 0.
-84.8202 -741.084 0.
-131.857 -848.71 0.
-178.893 -956.336 0.
157.033 -811.513 0.
208.364 -688.599 0.
259.695 -565.685 0.
307.172 -430.976 0.
371.389 -282.801 0.
435.607 -134.624 0.
308.724 -192.79 0.
300.363 -210.87 0.
1.43753 -356.352 0.
-8.88636 -379.994 0.
-19.2103 -403.637 0.
-91.8525 -444.079 0.
-90.2557 -439.305 0.
-88.6591 -434.532 0.
80.684 -317.617 0.
116.817 -235.144 0.
152.95 -152.672 0.
130.761 -289.887 0.
44.9778 -488.668 0.
156.588 -681.979 0.
323.849 437.441 0.
279.639 333.303 0.
200.798 -313.499 0.
2.7849 -773.224 0.
367.449 79.6424 0.
374.987 -299.23 0.
486.779 -43.5497 0.
324.826 -426.468 0.
273.46 138.546 0.
44.2493 -398.076 0.
-154.94 -865.188 0.
527.289 -65.5939 0.
604.218 110.961 0.
372.231 436.734 0.
263.1 181.8 0.
-5.62926 -445.639 0.
584.311 -199.781 0.
585.987 -195.506 0.
674.294 10.6609 0.
716.533 235.892 0.
860.801 571.701 0.
776.288 373.662 0.
700.342 323.085 0.
813.494 585.037 0.
608.118 684.205 0.
273.183 -498.589 0.
444.077 -99.8898 0.
853.675 228.738 0.
706.825 -110.528 0.
838.338 200.079 0.
311.584 -1.21078 0.
376.915 152.69 0.
717.465 948.75 0.
593.302 343.5 0.
77.5398 -859.679 0.
625.606 419.129 0.
1348 417.223 0.
1300.45 308.358 0.
900.201 944.236 0.
589.932 218.397 0.
423.942 -170.624 0.
929.97 36.079 0.
1225.68 725.743 0.
1327.6 963.528 0.
877.014 739.886 0.
717.649 366.485 0.
534.458 -62.2262 0.
590.761 514.826 0.
756.574 900.291 0.
516.459 -322.068 0.
1085.99 -111.75 0.
1098.27 -83.5067 0.
1168.31 384.048 0.
1142.92 327.973 0.
1501 1166.86 0.
635.351 237.539 0.
755.37 520.321 0.
899.241 858.806 0.
743.944 -39.1332 0.
711.107 -113.341 0.
889.234 304.475 0.
1207.9 332.375 0.
1108.25 100.161 0.
1115.91 915.035 0.
738.038 36.194 0.
531.96 -442.003 0.
640.438 -109.768 0.
949.362 611.618 0.
769.123 191.375 0.
638.638 192.389 0.
443.836 -260.522 0.
266.2 -674.102 0.
564.159 128.725 0.
402.487 -246.049 0.
754.769 243.092 0.
978.694 748.047 0.
584.299 -166.538 0.
507.977 900.857 0.
244.429 287.381 0.
229.285 253.606 0.
320.362 -322.532 0.
723.394 615.569 0.
495.501 81.4156 0.
674.494 -65.3283 0.
572.177 -302.989 0.
629.23 -168.597 0.
280.004 127.201 0.
1.23986 -522.379 0.
115.513 152.641 0.
233.816 429.889 0.
152.716 241.101 0.
14.2509 -269.485 0.
192.507 149.122 0.
371.655 569.51 0.
393.529 711.66 0.
-353.851 -1034.44 0.
147.366 135.367 0.
-21.4694 -676.47 0.
73.0946 -459.022 0.
251.464 -590.369 0.
70.1377 -509.874 0.
116.917 -401.261 0.
164.671 -334.638 0.
110.494 -459.298 0.
56.3173 -583.958 0.
169.516 -561.635 0.
209.845 -472.187 0.
250.174 -382.738 0.
130.083 -446.52 0.
107.507 -499.917 0.
84.9311 -553.314 0.
302.518 -445.557 0.
306.708 -433.703 0.
97.221 -534.397 0.
39.1109 -671.512 0.
-18.9989 -808.628 0.
256.453 -726.396 0.
313.33 -593.531 0.
370.207 -460.667 0.
374.086 -415.253 0.
364.686 -436.342 0.
355.286 -457.43 0.
289.13 -520.557 0.
269.074 -568.463 0.
531.908 -494.779 0.
184.983 -646.964 0.
183.463 -649.479 0.
419.107 -545.139 0.
429.91 -519.736 0.
440.713 -494.333 0.
239.255 -577.428 0.
230.984 -597.59 0.
222.714 -617.752 0.
30.4879 -684.382 0.
40.9368 -656.068 0.
51.3852 -627.754 0.
885.93 -303.2 0.
864.302 -353.683 0.
316.213 -633.392 0.
290.452 -694.748 0.
264.692 -756.103 0.
542.994 -687.848 0.
514.988 -753.765 0.
486.982 -819.682 0.
229.22 -850.097 0.
328.795 -620.506 0.
428.37 -390.915 0.
489.561 -379.285 0.
452.299 -465.428 0.
1499.53 -86.6661 0.
881.148 -425.431 0.
842.026 -516.155 0.
604.704 -646.908 0.
668.696 -496.073 0.
732.688 -345.239 0.
417.306 -452.2 0.
370.247 -561.824 0.
323.187 -671.448 0.
549.02 -642.773 0.
519.078 -709.922 0.
489.137 -777.071 0.
558.965 -728.599 0.
572.704 -699.067 0.
351.123 -774.249 0.
352.384 -771.216 0.
353.645 -768.183 0.
246.039 -799.509 0.
267.855 -747.017 0.
289.67 -694.524 0.
447.837 -614.251 0.
440.964 -629.057 0.
434.09 -643.864 0.
139.435 -652.615 0.
217.68 -468.768 0.
1183.08 86.6726 0.
304.336 -461.905 0.
211.98 -673.887 0.
-15.8933 -891.045 0.
8.7283 -832.614 0.
33.349 -774.185 0.
26.134 -764.501 0.
13.4746 -794.905 0.
0.815111 -825.309 0.
280.112 -684.147 0.
302.608 -632.094 0.
325.104 -580.041 0.
89.5382 -582.413 0.
145.156 -453.954 0.
-74.3648 -468.961 0.
-133.958 -608.903 0.
-193.551 -748.845 0.
-163.458 -802.065 0.
-153.285 -779.312 0.
-143.114 -756.56 0.
-256.651 -714.407 0.
-174.954 -523.163 0.
-93.2573 -331.92 0.
-27.9759 -465.277 0.
-161.914 -777.171 0.
335.904 -525.192 0.
272.21 -391.779 0.
319.028 -283.271 0.
149.632 -309.471 0.
95.6068 -434.188 0.
41.582 -558.904 0.
71.7867 -570.719 0.
112.121 -481.575 0.
152.456 -392.431 0.
277.36 -352.814 0.
254.169 -405.603 0.
230.979 -458.392 0.
238.88 -442.439 0.
242.782 -430.506 0.
286.81 -422.382 0.
228.153 -559.273 0.
169.496 -696.163 0.
149.825 -740.415 0.
206.653 -607.776 0.
263.48 -475.138 0.
311.837 -410.675 0.
302.515 -431.976 0.
293.194 -453.277 0.
244.779 -507.962 0.
224.863 -556.082 0.
925.654 -294.734 0.
171.639 -621.024 0.
170.365 -623.669 0.
311.641 -560.032 0.
322.334 -534.486 0.
333.026 -508.939 0.
468.781 -447.39 0.
460.781 -467.875 0.
452.781 -488.36 0.
-102.133 -709.184 0.
-91.2035 -681.608 0.
-80.2748 -654.031 0.
714.371 -344.93 0.
692.738 -395.155 0.
445.867 -547.946 0.
419.793 -608.961 0.
393.72 -669.975 0.
466.939 -690.834 0.
439.18 -756.863 0.
411.421 -822.891 0.
283.351 -795.396 0.
383.083 -566.246 0.
482.814 -337.095 0.
854.112 -190.13 0.
817.092 -276.673 0.
1028.85 -256.105 0.
812.711 -422.333 0.
773.064 -512.588 0.
473.126 -673.828 0.
536.94 -523.038 0.
600.753 -372.249 0.
531.155 -371.506 0.
484.031 -481.204 0.
436.906 -590.902 0.
642.31 -571.355 0.
612.315 -638.309 0.
582.32 -705.262 0.
336.705 -793.38 0.
350.247 -763.484 0.
320.798 -755.748 0.
322.544 -752.936 0.
324.289 -750.123 0.
141.318 -812.217 0.
163.496 -760.046 0.
185.675 -707.876 0.
657.199 -492.304 0.
650.17 -506.983 0.
643.14 -521.661 0.
48.3208 -660.4 0.
126.978 -476.773 0.
1681.17 332.08 0.
129.541 -505.468 0.
37.8999 -717.917 0.
300.528 -722.135 0.
325.508 -663.919 0.
350.487 -605.703 0.
-85.95 -782.168 0.
-99.0187 -811.995 0.
-112.087 -841.821 0.
141.234 -711.817 0.
163.782 -659.716 0.
186.329 -607.615 0.
248.096 -482.701 0.
304.074 -354.31 0.
32.9752 -390.369 0.
-26.5397 -530.496 0.
-86.0546 -670.623 0.
-81.259 -736.062 0.
-71.4884 -713.07 0.
-61.7185 -690.077 0.
-288.369 -696.956 0.
-206.969 -505.641 0.
-125.569 -314.327 0.
-131.709 -478.5 0.
-266.855 -789.533 0.
228.498 -260.213 0.
212.327 -450.58 0.
143.239 -610.092 0.
-47.1032 -784.488 0.
-29.8333 -745.678 0.
-12.5634 -706.868 0.
-78.3041 -734.205 0.
-89.253 -759.196 0.
-100.202 -784.187 0.
251.245 -569.724 0.
302.492 -451.053 0.
353.74 -332.382 0.
131.192 -496.53 0.
88.5774 -596.804 0.
306.269 -569.808 0.
319.027 -538.317 0.
331.786 -506.827 0.
154.542 -537.194 0.
202.62 -426.803 0.
250.698 -316.413 0.
302.161 -307.816 0.
249.907 -430.616 0.
197.653 -553.415 0.
214.161 -546.004 0.
231.037 -503.568 0.
809.555 -219.684 0.
228.087 -508.068 0.
205.16 -564.407 0.
244.411 -605.027 0.
218.26 -667.692 0.
192.109 -730.358 0.
395.081 -570.007 0.
504.851 -310.477 0.
614.619 -50.9477 0.
120.497 -244.547 0.
81.6985 -335.143 0.
42.8997 -425.74 0.
664.974 -262.396 0.
606.502 -399.053 0.
530.463 -517.619 0.
596.241 -361.986 0.
662.02 -206.353 0.
623.413 -166.48 0.
579.948 -266.312 0.
536.483 -366.145 0.
371.997 -471.211 0.
375.048 -461.804 0.
378.1 -452.397 0.
871.958 -228.969 0.
879.758 -208.497 0.
627.777 -297.761 0.
1051.77 -134.371 0.
1043.02 -157.06 0.
467.201 -416.049 0.
479.6 -390.261 0.
491.999 -364.473 0.
591.793 -359.234 0.
535.443 -491.687 0.
479.093 -624.14 0.
636.017 -481.483 0.
720.538 -286.721 0.
805.059 -91.959 0.
566.083 -200.267 0.
552.163 -230.64 0.
489.275 -278.42 0.
478.552 -301.114 0.
467.829 -323.807 0.
315.4 -416.687 0.
285.803 -485.091 0.
256.206 -553.495 0.
640.245 -406.579 0.
647.377 -391.789 0.
654.508 -376.998 0.
103.427 -571.831 0.
131.313 -506.363 0.
-13.5048 -512.751 0.
-14.5639 -701.778 0.
-114.166 -932.547 0.
329.7 -850.625 0.
414.967 -651.691 0.
500.234 -452.757 0.
-18.372 -623.927 0.
-66.6428 -740.051 0.
-114.914 -856.174 0.
39.1163 -742.758 0.
101.997 -593.506 0.
164.878 -444.253 0.
266.063 -531.603 0.
178.835 -734.399 0.
-174.448 -1014.22 0.
-104.66 -850.414 0.
-34.8724 -686.605 0.
-90.1515 -641.77 0.
-116.035 -702.375 0.
-141.918 -762.979 0.
-171.671 -674.105 0.
-63.5526 -423.707 0.
44.5659 -173.308 0.
-19.5869 -119.466 0.
13.6914 -45.3297 0.
-511.177 -549.172 0.
-46.6407 -530.9 0.
-115.239 -690.815 0.
20.8434 -723.336 0.
38.268 -684.705 0.
55.6926 -646.074 0.
-144.178 -728.663 0.
-154.838 -754.313 0.
-165.498 -779.962 0.
292.069 -522.277 0.
342.976 -403.563 0.
393.884 -284.849 0.
31.1119 -507.528 0.
-11.3609 -607.779 0.
351.479 -520.071 0.
363.79 -488.409 0.
376.101 -456.747 0.
88.972 -534.507 0.
136.565 -423.818 0.
184.159 -313.129 0.
264.564 -293.301 0.
212.32 -416.418 0.
160.077 -539.534 0.
249.53 -498.949 0.
266.277 -456.627 0.
226.422 -437.535 0.
301.796 -444.826 0.
278.84 -501.039 0.
257.199 -567.703 0.
231.22 -630.457 0.
205.24 -693.211 0.
154.337 -643.488 0.
263.937 -384.187 0.
373.536 -124.886 0.
336.571 -119.614 0.
297.613 -210.212 0.
258.655 -300.81 0.
659.362 -234.463 0.
600.763 -370.803 0.
604.822 -454.839 0.
671.414 -299.695 0.
738.006 -144.551 0.
553.862 -165.082 0.
510.508 -265.131 0.
467.154 -365.179 0.
232.665 -498.966 0.
236.423 -490.266 0.
240.181 -481.567 0.
626.618 -301.913 0.
634.383 -281.3 0.
387.204 -369.22 0.
1436.98 61.8865 0.
1428.31 39.2714 0.
347.355 -436.689 0.
359.212 -410.361 0.
371.07 -384.032 0.
645.876 -305.312 0.
589.323 -437.727 0.
532.769 -570.141 0.
472.514 -521.325 0.
556.558 -326.091 0.
640.601 -130.856 0.
759.765 -85.5677 0.
745.652 -116.072 0.
452.325 -264.107 0.
441.198 -286.289 0.
430.071 -308.471 0.
453.733 -326.946 0.
423.852 -394.841 0.
393.972 -462.735 0.
338.458 -504.85 0.
345.477 -489.805 0.
352.496 -474.76 0.
267.106 -470.203 0.
294.694 -404.533 0.
-265.348 -589.969 0.
52.4651 -642.209 0.
-47.0163 -873.044 0.
255.397 -851.602 0.
340.137 -651.94 0.
424.877 -452.278 0.
129.413 -529.793 0.
80.9057 -645.502 0.
32.3988 -761.21 0.
-4.91851 -729.755 0.
57.6687 -580.245 0.
120.256 -430.736 0.
238.815 -513.103 0.
151.123 -715.519 0.
-96.19 -948.723 0.
-25.9755 -785.313 0.
44.2393 -621.904 0.
-258.303 -682.608 0.
-284.709 -742.596 0.
-311.115 -802.584 0.
144.237 -508.599 0.
252.579 -258.181 0.
360.921 -7.76315 0.
15.9045 -72.3848 0.
49.1309 1.94994 0.
-299.212 -58.4232 0.
-100.864 -127.582 0.
-601.244 -1294.23 0.
345.827 -68.6536 0.
602.436 530.156 0.
406.582 73.448 0.
287.378 434.139 0.
114.496 31.0619 0.
138.313 87.1642 0.
909.686 883.53 0.
692.866 377.824 0.
648.951 275.381 0.
159.639 -3.98059 0.
-110.397 -635.65 0.
700.062 246.303 0.
644.679 117.886 0.
522.02 -166.782 0.
338.493 198.877 0.
717.036 1083.25 0.
250.775 -3.38419 0.
70.2739 -647.063 0.
549.789 468.615 0.
872.209 1217.61 0.
447.443 -76.3984 0.
303.498 -410.498 0.
808.202 -58.7743 0.
738.377 469.753 0.
437.074 -231.898 0.
549.696 118.47 0.
726.011 528.273 0.
548.663 113.197 0.
186.296 -81.1525 0.
201.778 -45.8636 0.
253.731 74.6349 0.
750.673 466.44 0.
724.522 406.248 0.
509.229 -95.2648 0.
1009.45 619.456 0.
1089.65 805.135 0.
1301.35 1049.3 0.
870.064 43.7269 0.
713.557 -320.722 0.
479.452 -179.227 0.
803.372 577.498 0.
718.291 379.982 0.
521.695 469.158 0.
460.178 327.68 0.
675.379 831.908 0.
904.062 832.129 0.
853.565 715.552 0.
-935.116 -538.462 0.
2025.15 747.991 0.
2017.06 727.08 0.
353.707 -157.185 0.
517.487 223.322 0.
663.588 562.288 0.
784.276 -56.9256 0.
526.64 -656.53 0.
640.048 -390.143 0.
623.362 167.881 0.
675.87 292.049 0.
545.143 -11.2319 0.
971.839 65.0772 0.
1279.42 784.936 0.
484.138 -80.2185 0.
462.163 -130.085 0.
421.871 -222.798 0.
465.053 -527.985 0.
771.747 189.676 0.
1084.4 921.536 0.
612.413 733.689 0.
678.517 888.432 0.
385.237 203.947 0.
780.016 441.127 0.
804.418 499.648 0.
205.578 -265.47 0.
610.318 561.552 0.
114.194 -596.122 0.
488.398 -131.202 0.
670.36 292.412 0.
615.193 162.694 0.
316.086 -342.911 0.
98.9836 -845.54 0.
372.725 -202.02 0.
426.268 385.976 0.
196.674 -150.383 0.
261.922 1.2442 0.
687.921 622.586 0.
920.033 1168.56 0.
154.68 -484.201 0.
728.226 854.857 0.
358.718 -7.76297 0.
-37.4164 183.61 0.
69.8763 433.015 0.
-164.734 -115.923 0.
771.329 390.686 0.
739.014 316.308 0.
403.297 -465.654 0.
513.483 1047.57 0.
185.548 279.154 0.
-80.6834 -320.816 0.
-181.628 -246.373 0.
-141.952 -153.236 0.
467.904 112.133 0.
353.051 -156.719 0.
238.197 -425.57 0.
-89.3818 -654.934 0.
-51.6466 -564.811 0.
-13.9116 -474.688 0.
189.295 -336.926 0.
215.764 -276.179 0.
242.233 -215.432 0.
240.415 -261.291 0.
209.623 -336.119 0.
207.609 -393.348 0.
221.219 -365.462 0.
234.829 -337.575 0.
67.545 -420.34 0.
23.5018 -522.168 0.
-20.5414 -623.996 0.
169.474 -525.994 0.
218.904 -410.884 0.
268.334 -295.774 0.
424.909 -317.505 0.
352.324 -488.04 0.
298.729 -650.511 0.
289.202 -574.511 0.
335.545 -465.145 0.
197.301 -447.826 0.
186.757 -470.328 0.
176.213 -492.831 0.
9.57644 -626.072 0.
-41.8961 -748.748 0.
-93.3686 -871.424 0.
230.952 -747.202 0.
242.176 -721.706 0.
253.399 -696.21 0.
532.351 -461.464 0.
603.396 -297.441 0.
746.507 -124.023 0.
715.195 -195.515 0.
683.883 -267.006 0.
385.007 -420.166 0.
407.344 -369.039 0.
429.682 -317.912 0.
289.292 -362.08 0.
286.187 -368.61 0.
283.082 -375.14 0.
629.704 -203.857 0.
647.782 -164.733 0.
1675.45 305.035 0.
1237.35 -16.7285 0.
1167.2 -180.34 0.
547.287 -519.745 0.
611.884 -367.845 0.
676.479 -215.946 0.
520.785 -215.74 0.
520.515 -215.46 0.
520.244 -215.18 0.
455.106 -279.663 0.
428.763 -341.608 0.
402.421 -403.553 0.
888.29 -111.234 0.
939.092 6.70506 0.
543.829 -90.1072 0.
480.284 -238.945 0.
416.739 -387.783 0.
439.017 -417.732 0.
499.662 -275.175 0.
560.306 -132.619 0.
147.489 -261.525 0.
140.302 -274.181 0.
133.115 -286.837 0.
537.743 -224.001 0.
462.603 -398.707 0.
337.478 -591.864 0.
25.9206 -589.204 0.
97.9518 -420.841 0.
382.738 -234.834 0.
296.227 -438.554 0.
209.716 -642.275 0.
153.239 -697.735 0.
223.037 -533.559 0.
292.835 -369.383 0.
204.631 -345.961 0.
217.059 -321.739 0.
229.487 -297.517 0.
112.927 -352.052 0.
111.228 -354.485 0.
123.979 -356.553 0.
85.7842 -443.886 0.
47.5893 -531.218 0.
-230.621 -666.675 0.
-179.975 -550.797 0.
-129.329 -434.92 0.
472.083 -289.558 0.
334.238 -611.561 0.
196.394 -933.565 0.
-228.12 -830.591 0.
-8.32681 -319.588 0.
394.613 -87.3555 0.
-201.476 -225.249 0.
-161.896 -132.121 0.
540.868 175.455 0.
426.694 -93.9834 0.
312.519 -363.422 0.
36.1027 -568.362 0.
74.3722 -478.471 0.
112.641 -388.58 0.
-35.6706 -401.555 0.
-9.3647 -340.571 0.
16.941 -279.588 0.
494.037 -121.438 0.
463.373 -196.47 0.
-41.2937 -467.558 0.
-27.5498 -439.941 0.
-13.8058 -412.325 0.
81.2873 -382.405 0.
37.2083 -484.396 0.
-6.8706 -586.386 0.
240.502 -463.824 0.
290.111 -349.074 0.
339.72 -234.324 0.
541.868 -236.914 0.
469.347 -407.166 0.
-126.382 -802.151 0.
300.395 -538.16 0.
347.35 -429.19 0.
78.2875 -468.088 0.
67.7297 -490.735 0.
57.1718 -513.381 0.
91.9682 -559.424 0.
40.5655 -681.978 0.
-10.8372 -804.532 0.
250.658 -708.168 0.
262.055 -683.032 0.
273.451 -657.896 0.
532.753 -429.075 0.
603.801 -265.193 0.
698.514 -112.492 0.
667.752 -184.618 0.
636.989 -256.744 0.
412.824 -376.888 0.
435.421 -326.089 0.
458.019 -275.289 0.
454.215 -259.577 0.
451.535 -266.595 0.
448.856 -273.612 0.
854.551 -76.5333 0.
872.795 -37.4029 0.
366.325 -223.058 0.
689.395 -218.82 0.
619.861 -382.76 0.
987.437 -300.669 0.
1052.12 -148.709 0.
1116.8 3.2502 0.
301.072 -278.393 0.
301.23 -278.361 0.
301.388 -278.33 0.
500.452 -228.499 0.
474.336 -290.522 0.
448.221 -352.545 0.
895.281 -76.1976 0.
946.292 41.656 0.
638.656 -18.473 0.
574.583 -166.94 0.
510.509 -315.408 0.
367.866 -418.135 0.
428.28 -275.372 0.
488.694 -132.608 0.
116.97 -243.117 0.
109.492 -256.018 0.
102.013 -268.92 0.
605.582 -164.628 0.
529.998 -339.161 0.
592.723 -451.807 0.
-70.5325 -598.067 0.
1.08439 -429.196 0.
322.107 -231.502 0.
235.408 -434.65 0.
148.709 -637.797 0.
157.142 -664.826 0.
227.574 -500.797 0.
298.006 -336.767 0.
334.601 -259.992 0.
347.127 -235.792 0.
359.653 -211.592 0.
-60.4173 -394.241 0.
-61.4152 -397.221 0.
29.7358 -363.934 0.
-8.00039 -451.584 0.
-45.7363 -539.233 0.
-3.89743 -539.013 0.
46.8067 -423.112 0.
97.5109 -307.21 0.
481.147 -253.299 0.
343.415 -575.552 0.
205.683 -897.807 0.
-134.681 -761.07 0.
85.3083 -249.741 0.
-198.642 -467.329 0.
-190.787 -400.823 0.
-159.768 -329.512 0.
425.364 -35.0533 0.
419.518 -47.0928 0.
413.673 -59.132 0.
188.965 -165.378 0.
184 -177.37 0.
179.034 -189.363 0.
-22.8485 -351.294 0.
-82.2901 -489.846 0.
-141.732 -628.398 0.
399.828 -339.88 0.
443.391 -237.24 0.
-19.0161 -356.662 0.
-24.7361 -370.319 0.
-30.4565 -383.975 0.
106.697 -312.037 0.
150.474 -211.004 0.
194.251 -109.971 0.
465.713 4.00085 0.
432.885 -73.2438 0.
400.057 -150.488 0.
648.555 -54.0269 0.
648.686 -55.7959 0.
609.767 -73.1352 0.
386.973 -279.933 0.
325.681 -419.189 0.
-24.9225 -617.211 0.
81.3751 -370.47 0.
187.673 -123.729 0.
461.632 57.9703 0.
401.681 -80.2774 0.
341.73 -218.525 0.
460.721 -191.43 0.
474.75 -158.489 0.
488.78 -125.549 0.
710.839 12.3851 0.
734.186 66.8769 0.
711.845 92.678 0.
680.626 19.1773 0.
649.405 -54.3235 0.
479.327 -185.302 0.
453.697 -243.943 0.
428.068 -302.583 0.
546.784 -199.398 0.
617.511 -33.6068 0.
688.239 132.184 0.
991.46 84.9125 0.
853.867 -237.363 0.
-1083.13 -1330.3 0.
471.166 -404.067 0.
606.892 -85.8023 0.
1257.44 355.549 0.
1163.07 132.637 0.
1068.7 -90.2768 0.
177.465 -521.736 0.
236.961 -383.614 0.
296.458 -245.492 0.
592.856 -102.157 0.
576.142 -141.858 0.
559.428 -181.561 0.
878.573 -27.1637 0.
892.379 6.05885 0.
705.689 -52.5458 0.
703.816 -55.7934 0.
701.942 -59.0409 0.
301.709 -223.039 0.
317.119 -186.541 0.
332.53 -150.042 0.
156.985 -180.568 0.
178.751 -134.469 0.
200.517 -88.3714 0.
665.032 -72.1101 0.
541.022 -363.26 0.
69.7937 -799.748 0.
-141.09 -724.189 0.
-51.687 -519.058 0.
266.59 -246.157 0.
280.991 -213.57 0.
295.392 -180.983 0.
322.169 -182.592 0.
291.822 -254.067 0.
261.477 -325.543 0.
271.975 -363.667 0.
253.17 -403.572 0.
234.365 -443.476 0.
-52.0424 -517.139 0.
-22.8581 -449.257 0.
-35.089 -413.1 0.
-59.6845 -472.64 0.
-84.2801 -532.179 0.
127.904 -443.573 0.
170.51 -344.001 0.
213.117 -244.43 0.
369.36 -177.435 0.
337.864 -250.77 0.
306.367 -324.105 0.
-44.96 -642.735 0.
-143.671 -873.182 0.
425.512 -169.551 0.
59.0889 -263 0.
90.1669 -191.799 0.
312.63 -51.073 0.
307.236 -63.5337 0.
301.841 -75.9941 0.
50.3341 -192.921 0.
45.3378 -204.777 0.
40.3412 -216.634 0.
208.867 -220.862 0.
149.577 -359.76 0.
90.2876 -498.658 0.
187.194 -399.347 0.
230.691 -296.745 0.
187.26 -236.355 0.
181.53 -250.046 0.
175.799 -263.737 0.
121.623 -274.085 0.
165.651 -173.46 0.
209.679 -72.8354 0.
492.665 48.9733 0.
460.08 -28.5456 0.
427.495 -106.064 0.
633.501 -28.91 0.
633.518 -30.4048 0.
913.686 89.8943 0.
347.685 -266.254 0.
286.847 -405.911 0.
30.354 -560.796 0.
136.793 -314.421 0.
243.232 -68.045 0.
665.634 176.363 0.
605.662 37.8741 0.
545.691 -100.615 0.
440.916 -169.273 0.
455.059 -136.79 0.
469.203 -104.307 0.
714.28 46.3918 0.
737.667 100.673 0.
612.441 81.4507 0.
581.272 7.88793 0.
550.103 -65.675 0.
439.6 -170.791 0.
414.3 -229.896 0.
389 -289 0.
575.944 -154.926 0.
646.539 11.0588 0.
717.135 177.043 0.
981.324 111.125 0.
843.629 -210.774 0.
-1412.29 -1439.86 0.
678.388 -283.594 0.
813.914 34.6944 0.
840.444 207.055 0.
745.979 -16.0111 0.
651.515 -239.078 0.
372.088 -405.763 0.
431.795 -267.746 0.
491.502 -129.729 0.
673.265 -36.0138 0.
656.91 -75.6582 0.
640.554 -115.303 0.
820.988 -20.3248 0.
835.344 12.5463 0.
834.579 34.4768 0.
832.808 31.1218 0.
831.037 27.7669 0.
45.0249 -301.249 0.
59.7017 -264.361 0.
74.3787 -227.473 0.
257.722 -106.429 0.
278.764 -60.0856 0.
299.806 -13.7425 0.
687.917 -32.1654 0.
563.778 -323.258 0.
105.069 -753.412 0.
-54.3893 -655.449 0.
35.155 -450.59 0.
237.836 -227.681 0.
252.385 -195.142 0.
266.933 -162.603 0.
247.458 -182.139 0.
217.577 -253.63 0.
187.696 -325.121 0.
126.253 -394.569 0.
108.1 -434.79 0.
89.9481 -475.011 0.
289.372 -338.665 0.
318.304 -270.464 0.
-8.15288 -370.282 0.
-32.4823 -429.701 0.
-56.8117 -489.12 0.
154.727 -402.159 0.
197.641 -302.671 0.
240.556 -203.182 0.
33.6054 -289.99 0.
2.6148 -363.726 0.
-28.3757 -437.464 0.
-9.06165 -596.432 0.
-106.339 -828.262 0.
252.1 -321.822 0.
506.646 339.936 0.
478.631 274.575 0.
71.4529 -373.647 0.
220.417 -20.879 0.
375.827 346.354 0.
120.898 256.885 0.
240.659 538.864 0.
-198.071 -482.355 0.
699.024 523.814 0.
628.38 356.45 0.
485.213 20.315 0.
149.214 -49.7587 0.
154.991 -34.3605 0.
285.165 -369.491 0.
560.214 271.786 0.
423.964 -46.3037 0.
393.263 361.442 0.
193.61 -103.62 0.
329.475 213.264 0.
678.391 465.401 0.
793.629 731.548 0.
1041.41 1307.2 0.
785.946 394.231 0.
651.127 80.1065 0.
-314.967 593.993 0.
682.397 617.562 0.
469.016 120.729 0.
12.798 -679.477 0.
283.01 -49.3278 0.
503.119 464.399 0.
736.388 -15.7221 0.
815.336 169.616 0.
616.474 -292.619 0.
430.564 -135.031 0.
478.066 -22.5042 0.
103.831 -893.602 0.
963.185 647.671 0.
877.923 451.328 0.
357.314 -294.316 0.
525.069 96.9588 0.
726.413 566.732 0.
604.035 319.03 0.
506.467 90.3023 0.
627.764 372.442 0.
1064.28 963.897 0.
1151.44 1168.34 0.
640.379 -23.1155 0.
1131.63 501.99 0.
1020.69 243.554 0.
1424.51 -256.673 0.
992.914 105.444 0.
927.039 -47.8625 0.
127.638 -644.188 0.
220.974 -426.79 0.
282.823 -282.245 0.
630.143 -144.119 0.
677.021 -35.8065 0.
560.948 -307.644 0.
558.598 -419.871 0.
900.77 376.662 0.
1444.6 1643.34 0.
832.456 140.711 0.
853.766 189.781 0.
1120.2 495.319 0.
1059.36 351.849 0.
1171.94 613.188 0.
47.2397 216.929 0.
-3.88557 99.3977 0.
-30.1477 40.0138 0.
549.417 416.087 0.
621.054 582.296 0.
566.622 455.037 0.
761.711 126.422 0.
593.478 -260.887 0.
141.328 -940.321 0.
524.242 557.029 0.
209.482 -178.437 0.
260.957 -79.4712 0.
377.4 188.801 0.
214.467 -194.668 0.
364.73 264.505 0.
826.701 1339.84 0.
456.914 474.32 0.
261.603 229.137 0.
278.633 266.531 0.
-171.661 -786.538 0.
777.195 191.71 0.
852.475 369.806 0.
217.959 135.24 0.
196.949 85.7216 0.
-123.215 -662.118 0.
9.63883 -769.343 0.
567.567 534.976 0.
499.042 376.738 0.
-3.54356 288.054 0.
-98.1459 66.7455 0.
52.9149 417.655 0.
186.841 -171.935 0.
458.181 464.756 0.
-490.677 -547.18 0.
155.299 -419.63 0.
77.252 -599.941 0.
-66.8387 -726.302 0.
64.8697 -416.35 0.
196.578 -106.399 0.
38.8346 -60.2431 0.
-2.62314 -156.121 0.
-44.0806 -252 0.
113.609 -272.916 0.
61.9742 -392.722 0.
10.339 -512.528 0.
83.6827 -292.886 0.
201.287 -16.9096 0.
625.562 348.614 0.
545.547 160.679 0.
465.532 -27.2555 0.
153.114 -310.206 0.
75.8538 -488.881 0.
-1.4065 -667.556 0.
251.775 -538.334 0.
336.251 -341.212 0.
420.728 -144.089 0.
296.3 -202.442 0.
272.813 -258.41 0.
-214.849 -512.836 0.
357.633 -171.836 0.
403.331 -64.7453 0.
427.479 -24.632 0.
344.33 -217.801 0.
261.181 -410.97 0.
499.347 -400.128 0.
495.362 -410.543 0.
491.378 -420.958 0.
289.12 -369.995 0.
400.218 -108.919 0.
511.316 152.155 0.
851.478 221.984 0.
790 81.1843 0.
401.743 -192.295 0.
374.87 -250.722 0.
347.997 -309.149 0.
322.737 -326.656 0.
362.545 -233.351 0.
402.352 -140.047 0.
556.044 -173.084 0.
431.699 -465.381 0.
307.353 -757.678 0.
868.609 -370.381 0.
1002.31 -58.4698 0.
-458.563 -430.307 0.
775.699 58.3969 0.
756.127 9.91489 0.
459.105 -144.203 0.
470.177 -117.171 0.
481.25 -90.1378 0.
608.009 -75.9128 0.
548.196 -214.046 0.
488.382 -352.179 0.
385.225 -390.837 0.
416.675 -313.922 0.
448.126 -237.006 0.
822.584 -95.4968 0.
809.586 -126.629 0.
824.559 -135.649 0.
841.281 -99.581 0.
858.002 -63.5128 0.
84.9335 -373.371 0.
88.4624 -364.942 0.
91.9909 -356.514 0.
32.7299 -468.705 0.
-43.4157 -647.655 0.
-119.562 -826.606 0.
472.229 -402.767 0.
603.149 -95.4076 0.
166.981 -35.9747 0.
285.834 -75.5787 0.
237.317 -188.751 0.
74.4499 -354.383 0.
27.1847 -466.978 0.
-20.0807 -579.573 0.
94.5207 -501.097 0.
184.024 -289.003 0.
273.528 -76.9082 0.
-5.9638 -297.991 0.
-129.379 -586.162 0.
-252.794 -874.332 0.
414.085 -479.425 0.
489.163 -303.421 0.
28.6109 -365.288 0.
76.3207 -253.375 0.
124.03 -141.461 0.
113.731 -163.026 0.
-6.7094 -443.348 0.
-127.15 -723.671 0.
-339.628 -849.817 0.
-280.088 -711.207 0.
-220.549 -572.596 0.
-29.61 -572.76 0.
-102.934 -738.151 0.
-163.557 -375.949 0.
137.185 -394.941 0.
59.2492 -575.355 0.
-32.8709 -680.712 0.
98.7798 -370.857 0.
230.43 -61.0022 0.
123.377 7.87784 0.
82.0184 -88.3457 0.
40.6597 -184.569 0.
-168.84 -362.135 0.
-220.491 -482.203 0.
-272.141 -602.271 0.
144.776 -236.351 0.
262.486 39.3679 0.
684.649 407.168 0.
605.155 218.56 0.
525.66 29.9516 0.
230.086 -244.186 0.
153.065 -423.176 0.
76.0446 -602.164 0.
269.531 -500.565 0.
354.42 -303.931 0.
439.309 -107.296 0.
26.8954 -285.174 0.
4.50124 -341.646 0.
295.404 -263.35 0.
390.713 -126.266 0.
436.778 -19.1304 0.
607.27 84.7944 0.
524.132 -108.387 0.
440.994 -301.568 0.
426.595 -400.311 0.
422.65 -410.774 0.
418.705 -421.237 0.
255.508 -353.73 0.
366.364 -92.4568 0.
477.22 168.816 0.
958.275 300.082 0.
896.589 159.341 0.
414.917 -155.754 0.
387.903 -214.216 0.
360.889 -272.679 0.
332.039 -291.473 0.
371.733 -198.157 0.
411.428 -104.841 0.
549.653 -144.106 0.
425.233 -436.166 0.
300.811 -728.226 0.
1020.44 -274.283 0.
1154.16 37.7515 0.
-440.646 -391.305 0.
554.058 -5.52777 0.
534.35 -54.2433 0.
615.721 -44.593 0.
627.417 -18.3262 0.
639.113 7.9404 0.
566.19 -62.3421 0.
506.681 -200.667 0.
447.173 -338.992 0.
170.17 -450.834 0.
202.292 -374.244 0.
234.415 -297.654 0.
949.734 -9.11613 0.
937.466 -41.0475 0.
814.604 -106.062 0.
831.291 -70.4748 0.
847.977 -34.8872 0.
460.437 -180.857 0.
463.822 -172.796 0.
467.207 -164.735 0.
-118.785 -500.837 0.
-194.921 -679.85 0.
-271.057 -858.864 0.
409.464 -399.221 0.
540.306 -91.633 0.
-839.645 -436.666 0.
343.815 -19.7382 0.
295.318 -132.863 0.
5.28175 -351.466 0.
-41.4495 -464.324 0.
-88.1809 -577.183 0.
181.018 -430.883 0.
270.295 -218.457 0.
359.571 -6.03193 0.
-40.2144 -282.545 0.
-164.107 -569.969 0.
-288 -857.394 0.
339.421 -480.286 0.
414.952 -304.501 0.
69.2337 -316.65 0.
117.399 -205.316 0.
165.564 -93.982 0.
-58.9315 -203.877 0.
-179.234 -484.319 0.
-299.537 -764.761 0.
-137.952 -731.824 0.
-78.3607 -593.199 0.
-18.7691 -454.573 0.
-67.0751 -557.826 0.
-141.061 -722.847 0.
-54.5826 -428.858 0.
109.757 -309.37 0.
165.692 -181.013 0.
145.356 -122.085 0.
112.919 -198.349 0.
80.4806 -274.613 0.
76.7729 -328.322 0.
52.7315 -379.871 0.
28.6901 -431.42 0.
-336.386 -532.125 0.
-278.43 -398.066 0.
-220.474 -264.006 0.
193.14 -147.642 0.
146.051 -257.197 0.
366.991 -253.71 0.
319.919 -362.494 0.
272.848 -471.278 0.
117.626 -561.63 0.
183.224 -409.246 0.
248.822 -256.861 0.
379.761 -187.648 0.
337.675 -286.649 0.
295.589 -385.65 0.
-79.816 -423.764 0.
14.2408 -201.23 0.
1169.99 475.903 0.
569.211 52.2828 0.
481.687 -148.365 0.
486.327 -252.43 0.
520.67 -171.924 0.
555.013 -91.4192 0.
538.649 -42.7335 0.
567.182 25.4182 0.
595.715 93.5697 0.
359.562 -33.9399 0.
322.148 -120.29 0.
284.734 -206.641 0.
789.651 -4.63082 0.
787.772 -13.4431 0.
379.62 -193.102 0.
401.461 -146.915 0.
423.303 -100.728 0.
481.329 -46.1442 0.
484.759 -38.4226 0.
488.19 -30.7011 0.
558.461 -11.3043 0.
544.455 -43.2727 0.
530.449 -75.2412 0.
1150.45 229.396 0.
1180.23 300.37 0.
1042.54 297.184 0.
657.898 179.783 0.
682.261 237.283 0.
801.077 286.575 0.
712.986 81.4676 0.
624.895 -123.639 0.
445.829 -275.588 0.
468.869 -223.255 0.
491.908 -170.921 0.
137.686 -343.254 0.
110.097 -409.778 0.
82.5072 -476.301 0.
878.198 -132.422 0.
880.753 -121.901 0.
686.826 -195.729 0.
692.683 -179.082 0.
698.539 -162.437 0.
574.412 -182.164 0.
617.117 -85.5956 0.
659.821 10.9731 0.
-26.4345 -291.128 0.
-66.7618 -385.374 0.
-107.09 -479.62 0.
390.299 -371.871 0.
333.279 -502.553 0.
284.136 -619.118 0.
139.806 -495.03 0.
236.278 -266.969 0.
144.714 -149.117 0.
180.509 -59.5059 0.
216.304 30.1053 0.
372.608 94.465 0.
323.536 -18.6542 0.
274.465 -131.774 0.
-5.57466 -231.597 0.
30.1126 -147.241 0.
65.7998 -62.8837 0.
440.056 -6.4035 0.
377.087 -152.386 0.
42.0722 -407.704 0.
3.98148 -493.934 0.
-34.1091 -580.164 0.
-361.168 -722.843 0.
-292.651 -562.191 0.
-224.135 -401.539 0.
228.373 -110.648 0.
264.55 -24.5891 0.
300.727 61.4703 0.
114.437 -217.566 0.
-29.2456 -556.086 0.
-55.5814 -397.824 0.
13.0219 -319.417 0.
69.1962 -190.938 0.
4.52103 -150.487 0.
-27.7421 -227.075 0.
-60.0058 -303.663 0.
260.007 -217.74 0.
236.015 -269.508 0.
212.023 -321.275 0.
-266.094 -471.446 0.
-208.46 -337.06 0.
-150.827 -202.674 0.
186.745 -119.41 0.
139.654 -228.973 0.
254.023 -272.437 0.
206.897 -381.06 0.
159.772 -489.683 0.
119.289 -528.11 0.
184.975 -375.727 0.
250.661 -223.343 0.
335.833 -175.983 0.
293.887 -275.157 0.
251.94 -374.331 0.
98.685 -316.854 0.
192.929 -94.0798 0.
1092.34 474.22 0.
811.078 188.43 0.
724.065 -12.6502 0.
405.535 -256.53 0.
439.643 -175.635 0.
473.751 -94.7392 0.
544.118 -8.93007 0.
572.761 59.2167 0.
601.404 127.363 0.
347.568 -8.27406 0.
310.203 -94.6428 0.
272.837 -181.011 0.
626.954 -42.2825 0.
625.195 -51.5966 0.
373.167 -163.902 0.
394.722 -117.614 0.
416.277 -71.3272 0.
617.755 43.3036 0.
620.658 51.4717 0.
623.561 59.6396 0.
475.47 -16.3371 0.
461.707 -48.3315 0.
447.944 -80.3261 0.
817.921 118.234 0.
847.946 188.847 0.
-1074.5 -577.74 0.
967.391 344.63 0.
992.166 401.873 0.
780.285 310.645 0.
692.559 105.245 0.
604.834 -100.155 0.
450.658 -242.042 0.
473.425 -189.431 0.
496.193 -136.819 0.
202.791 -283.329 0.
174.981 -349.583 0.
147.172 -415.838 0.
745.741 -158.056 0.
748.091 -147.711 0.
499.925 -243.91 0.
505.789 -227.839 0.
511.654 -211.768 0.
536.739 -166.397 0.
579.49 -70.0505 0.
622.243 26.2957 0.
160.054 -179.693 0.
120.21 -274.294 0.
80.3646 -368.895 0.
413.655 -329.991 0.
356.784 -460.708 0.
837.239 -352.194 0.
107.632 -478.704 0.
204.184 -250.266 0.
357.353 -25.325 0.
393.874 63.8238 0.
430.395 152.972 0.
240.652 69.0847 0.
191.768 -44.1431 0.
142.884 -157.371 0.
92.3748 -158.03 0.
127.877 -73.8441 0.
163.379 10.3422 0.
288.92 -39.595 0.
225.883 -185.589 0.
62.8875 -367.169 0.
24.9047 -453.459 0.
-13.078 -539.75 0.
-352.57 -688.233 0.
-284.217 -527.168 0.
-215.864 -366.103 0.
304.84 -46.0275 0.
340.866 40.2147 0.
376.892 126.457 0.
250.728 -128.965 0.
106.535 -467.128 0.
295.821 433.702 0.
-117.564 -401.146 0.
194.146 327.686 0.
-114.047 -135.633 0.
-551.792 -1154.4 0.
-285.125 -531.198 0.
38.2947 -1055.51 0.
259.667 -539.951 0.
519.142 65.2257 0.
241.139 611.607 0.
-8.2529 27.8216 0.
-216.953 -460.735 0.
11.2087 -491.115 0.
7.7539 -497.137 0.
-113.99 -891.767 0.
343.08 176.973 0.
623.345 833.395 0.
352.243 49.2678 0.
405.893 170.027 0.
477.204 333.07 0.
599.532 553.381 0.
126.865 -550.55 0.
540.27 411.639 0.
845.454 1119.14 0.
702.849 787.998 0.
556.157 -771.053 0.
763.252 -350.523 0.
855.816 -134.896 0.
344.671 -216.554 0.
534.874 227.462 0.
466.431 68.3313 0.
553.65 40.6711 0.
528.537 -19.406 0.
413.312 -290.021 0.
216.958 -271.006 0.
226.737 -246.19 0.
327.408 -9.1491 0.
689.311 442.767 0.
834.828 782.051 0.
226.632 -472.233 0.
259.583 -395.239 0.
449.343 47.5868 0.
928.372 547.486 0.
650.157 -101.513 0.
575.998 -274.383 0.
512.811 260.48 0.
646.517 570.729 0.
800.208 927.716 0.
741.389 586.026 0.
945.377 1060.28 0.
728.789 864.623 0.
1356.37 719.128 0.
1310.77 613.191 0.
748.521 308.639 0.
259.085 -832.537 0.
610.847 -11.0509 0.
828.24 661.415 0.
594.179 116.093 0.
359.426 -430.846 0.
55.8533 -722.5 0.
98.6427 -623.059 0.
136.547 -534.938 0.
966.79 646.162 0.
937.226 576.69 0.
568.293 301.909 0.
390.781 -111.083 0.
201.592 -550.908 0.
369.602 -463.766 0.
334.429 -548.257 0.
670.606 233.993 0.
580.106 469.755 0.
589.744 492.71 0.
346.93 -73.469 0.
622.161 152.883 0.
368.232 -440.677 0.
-59.2703 -930.952 0.
332.574 131.942 0.
439.801 380.983 0.
502.318 -44.8508 0.
431.69 -212.119 0.
231.882 -680.392 0.
139.622 110.954 0.
-5.52881 -226.223 0.
253.171 378.373 0.
592.463 859.765 0.
444.625 511.883 0.
54.8022 -400.84 0.
307.891 318.278 0.
505.727 780.573 0.
489.215 628.852 0.
247.321 64.8738 0.
494.588 642.289 0.
-105.703 -97.1267 0.
-132.074 -158.406 0.
-112.905 -113.37 0.
832.378 1078.22 0.
472.14 239.462 0.
499.52 302.722 0.
474.767 170.007 0.
610.334 483.003 0.
-84.2466 -108.938 0.
-59.5636 -253.642 0.
-161.773 -490.358 0.
-207.656 -644.677 0.
-169.83 -554.833 0.
-132.004 -464.989 0.
173.314 -243.538 0.
237.826 -96.286 0.
302.338 50.9671 0.
26.5225 -91.3286 0.
-28.0608 -219.548 0.
-82.6442 -347.768 0.
158.871 -327.779 0.
118.234 -421.35 0.
98.4412 -483.303 0.
159.106 -340.135 0.
219.77 -196.967 0.
271.593 -134.533 0.
209.38 -281.458 0.
147.167 -428.382 0.
187.886 -467.12 0.
184.716 -472.757 0.
181.546 -478.393 0.
214.789 -420.749 0.
248.214 -344.593 0.
137.623 -330.768 0.
572.748 -264.128 0.
508.737 -416.04 0.
108.247 -661.699 0.
180.678 -496.506 0.
253.11 -331.313 0.
334.207 -224.213 0.
332.368 -233.286 0.
330.528 -242.359 0.
411.297 -135.334 0.
472.328 3.3774 0.
533.359 142.089 0.
450.369 6.84848 0.
385.344 -143.818 0.
303.674 -294.134 0.
291.666 -322.032 0.
279.658 -349.93 0.
503.718 -246.851 0.
539.752 -163.954 0.
575.785 -81.0572 0.
454.402 -83.801 0.
470.937 -44.788 0.
487.472 -5.77494 0.
480.921 -104.324 0.
413.049 -262.858 0.
101.442 -526.891 0.
1083.1 -37.9755 0.
1117.85 45.0871 0.
542.862 -136.97 0.
564.419 -83.0203 0.
585.976 -29.0705 0.
475.06 -75.5193 0.
445.31 -144.473 0.
415.56 -213.427 0.
294.556 -253.9 0.
318.796 -196.188 0.
343.035 -138.476 0.
563.673 -85.0752 0.
537.03 -149.541 0.
359.952 -247.131 0.
465.883 0.276095 0.
571.814 247.684 0.
770.835 395.766 0.
659.254 135.589 0.
547.674 -124.588 0.
218.812 -421.475 0.
160.884 -553.924 0.
102.957 -686.372 0.
291.026 -494.06 0.
377.328 -294.78 0.
320.77 -160.82 0.
161.897 -241.404 0.
158.033 -254.792 0.
304.908 -177.37 0.
345.868 -84.5998 0.
386.828 8.16998 0.
97.2005 -119.639 0.
48.652 -235.404 0.
0.103393 -351.168 0.
112.082 -271.477 0.
162.081 -155.48 0.
212.081 -39.484 0.
324.718 44.0127 0.
338.1 74.1135 0.
48.9164 -48.6267 0.
-27.0269 -228.524 0.
-102.971 -408.421 0.
-295.71 -530.139 0.
-212.626 -337.725 0.
-129.542 -145.311 0.
202.76 -80.5099 0.
69.9858 -392.492 0.
-62.7887 -704.475 0.
58.5782 -498.722 0.
196.089 -181.806 0.
164.47 31.4567 0.
-51.5353 -218.3 0.
-153.215 -455.254 0.
-40.4258 -541.671 0.
-2.87647 -451.397 0.
34.6729 -361.124 0.
-67.145 -315.485 0.
-2.51773 -168.372 0.
62.1097 -21.2583 0.
149.145 -8.74475 0.
94.1074 -136.888 0.
39.0697 -265.032 0.
270.956 -247.469 0.
230.566 -341.628 0.
163.838 -422.162 0.
224.679 -279.173 0.
285.52 -136.184 0.
286.355 -98.6604 0.
223.601 -244.966 0.
160.848 -391.273 0.
230.974 -417.744 0.
227.807 -423.311 0.
224.639 -428.878 0.
267.675 -367.273 0.
301.323 -291.18 0.
704.018 -57.2953 0.
314.682 -342.885 0.
250.537 -494.446 0.
70.1401 -647.697 0.
142.473 -482.466 0.
214.806 -317.235 0.
218.088 -242.135 0.
216.762 -251.728 0.
215.436 -261.321 0.
600.777 -22.8653 0.
662.487 115.256 0.
724.199 253.377 0.
402.134 17.8054 0.
337.87 -133.481 0.
319.832 -254.078 0.
308.319 -282.222 0.
296.806 -310.366 0.
418.31 -252.116 0.
454.065 -169.151 0.
489.82 -86.1847 0.
578.051 0.659544 0.
594.466 39.5947 0.
610.88 78.5299 0.
550.002 -43.337 0.
482.264 -201.992 0.
195.752 -453.825 0.
1153.34 24.7732 0.
1188.42 107.593 0.
539.921 -106.467 0.
561.76 -52.575 0.
583.599 1.31669 0.
446.719 -56.1627 0.
417.11 -124.894 0.
387.502 -193.625 0.
359.213 -194.059 0.
383.004 -136.056 0.
406.796 -78.054 0.
468.931 -94.1851 0.
441.637 -157.811 0.
410.942 -194.858 0.
516.644 52.7941 0.
622.347 300.447 0.
824.801 449.037 0.
713.063 189.01 0.
601.325 -71.0179 0.
258.189 -373.574 0.
200.541 -506.092 0.
142.893 -638.611 0.
235.38 -486.555 0.
321.632 -287.058 0.
495.575 -55.4911 0.
170.882 -205.3 0.
166.985 -218.423 0.
147.736 -215.104 0.
188.751 -122.08 0.
229.766 -29.0563 0.
184.861 -50.5861 0.
136.607 -166.49 0.
88.3531 -282.395 0.
131.677 -232.598 0.
181.937 -116.935 0.
232.198 -1.27306 0.
505.661 154.373 0.
519.127 184.025 0.
-115.518 -87.3943 0.
-191.983 -266.907 0.
-268.449 -446.42 0.
-282.881 -494.042 0.
-200.044 -301.331 0.
-117.207 -108.62 0.
55.8927 -111.398 0.
-77.2381 -423.243 0.
-210.369 -735.089 0.
-78.7748 -526.547 0.
58.1164 -209.224 0.
31.8409 -482.252 0.
-62.1414 -427.037 0.
-4.56842 -291.223 0.
138.224 -156.723 0.
115.794 -208.551 0.
93.3638 -260.38 0.
-78.3267 -301.502 0.
-9.82446 -139.73 0.
58.6778 22.0419 0.
226.882 122.845 0.
213.909 92.5573 0.
200.935 62.27 0.
378.267 18.2727 0.
309.944 -140.206 0.
228.408 -281.401 0.
270.759 -182.827 0.
313.109 -84.2528 0.
217.897 -84.393 0.
196.579 -133.374 0.
175.26 -182.355 0.
352.326 -147.924 0.
332.539 -194.87 0.
312.753 -241.816 0.
344.466 -206.947 0.
362.391 -162.613 0.
1180.78 223.406 0.
391.919 24.0997 0.
464.974 195.833 0.
408.838 254.817 0.
331.99 76.0885 0.
255.141 -102.64 0.
263.076 -183.64 0.
263.437 -182.057 0.
263.797 -180.474 0.
578.609 20.353 0.
632.128 144.394 0.
685.648 268.436 0.
466.983 142.3 0.
442.287 83.2461 0.
438.278 35.5993 0.
423.579 3.22224 0.
408.88 -29.1548 0.
526.987 -20.9107 0.
483.84 -119.44 0.
440.693 -217.97 0.
503.335 -153.746 0.
576.551 16.523 0.
649.767 186.792 0.
630.082 62.1192 0.
530.896 -169.88 0.
67.2803 -556.105 0.
1166.41 -107.708 0.
1154.59 -135.347 0.
368.981 -446.493 0.
469.26 -213.51 0.
569.54 19.474 0.
475.542 93.8698 0.
486.299 119.546 0.
497.056 145.222 0.
479.17 49.0161 0.
403.433 -128.594 0.
327.696 -306.205 0.
368.391 -209.323 0.
424.633 -80.4166 0.
605.579 94.9289 0.
625.185 140.151 0.
644.791 185.373 0.
607.445 131.648 0.
517.949 -76.7248 0.
428.452 -285.097 0.
290.202 -309.397 0.
390.699 -73.0585 0.
491.195 163.28 0.
366.181 24.1344 0.
279.272 -174.327 0.
183.895 -373.014 0.
161.931 -264.313 0.
222.087 -119.522 0.
188.577 -50.7987 0.
167.743 -94.0462 0.
146.909 -137.294 0.
223.63 -64.2056 0.
287.767 89.7192 0.
351.903 243.643 0.
308.083 205.7 0.
259.165 95.3839 0.
210.247 -14.9321 0.
343.338 -112.955 0.
259.149 -306.569 0.
-412.776 -701.139 0.
-289.61 -413.802 0.
-166.443 -126.466 0.
-18.8693 40.9329 0.
-91.2161 -127.093 0.
-163.562 -295.118 0.
-10.5996 -257.903 0.
17.7922 -191.862 0.
46.1843 -125.82 0.
-40.3509 -103.954 0.
-2.91539 -16.3739 0.
-420.159 -646.526 0.
137.33 -310.373 0.
195.412 -174.802 0.
48.4254 -163.811 0.
26.0239 -215.349 0.
3.62243 -266.887 0.
143.318 -175.298 0.
211.779 -13.4476 0.
280.239 148.403 0.
189.284 137.598 0.
176.509 106.852 0.
163.733 76.1059 0.
289.402 14.0537 0.
221.831 -145.138 0.
204.446 -261.336 0.
246.84 -162.888 0.
289.234 -64.4404 0.
56.4012 -120.429 0.
35.5417 -169.642 0.
14.6816 -218.856 0.
358.375 -114.826 0.
338.393 -161.434 0.
318.41 -208.042 0.
329.526 -183.349 0.
347.658 -139.099 0.
198.21 -167.287 0.
478.737 93.3139 0.
551.51 265.207 0.
356.454 262.636 0.
279.38 84.1619 0.
202.307 -94.3121 0.
449.39 -71.6734 0.
450.134 -70.4724 0.
450.877 -69.2714 0.
328.209 -55.7379 0.
381.855 68.1148 0.
435.5 191.968 0.
570.637 217.8 0.
546.193 158.577 0.
441.504 69.2507 0.
427.089 36.6368 0.
412.674 4.02279 0.
660.877 67.592 0.
617.683 -30.9307 0.
574.49 -129.453 0.
393.823 -169.913 0.
467.034 0.248432 0.
540.246 170.41 0.
685.551 118.089 0.
586.415 -113.797 0.
921.775 -158.597 0.
1291.3 -22.6996 0.
1279.45 -50.1447 0.
354.239 -421.432 0.
454.658 -188.324 0.
555.077 44.7834 0.
451.424 115.25 0.
462.39 140.874 0.
473.356 166.499 0.
492.978 86.7366 0.
417.09 -90.5829 0.
341.201 -267.902 0.
372.579 -175.857 0.
428.48 -46.6862 0.
761.422 192.842 0.
781.338 237.64 0.
801.253 282.437 0.
393.494 72.851 0.
304.457 -136.057 0.
215.421 -344.966 0.
292.908 -276.146 0.
393.358 -40.1579 0.
493.807 195.83 0.
239.255 2.28982 0.
152.601 -196.558 0.
230.232 -322.088 0.
228.458 -204.612 0.
288.137 -59.3058 0.
286.287 22.4554 0.
265.592 -21.0355 0.
244.898 -64.5268 0.
268.237 -14.0114 0.
332.935 139.462 0.
397.633 292.935 0.
291.715 230.963 0.
243.224 120.453 0.
194.734 9.94325 0.
80.7218 -193.84 0.
-3.45407 -387.57 0.
-303.184 -621.94 0.
-179.639 -334.862 0.
-56.0941 -47.7835 0.
89.0626 117.852 0.
16.8823 -50.1838 0.
-55.2975 -218.219 0.
156.05 -153.969 0.
184.692 -88.0113 0.
213.334 -22.0537 0.
-221.841 -148.873 0.
-184.689 -60.8227 0.
-621.453 -369.202 0.
143.357 -621.383 0.
111.168 -697.502 0.
214.8 427.212 0.
224.561 448.63 0.
257.152 523.17 0.
287.534 -236.36 0.
417.169 64.0597 0.
647.501 599.211 0.
168.403 196.511 0.
-72.8836 -366.207 0.
-131.121 -501.957 0.
512.647 726.855 0.
427.421 533.081 0.
48.8377 -553.385 0.
460.762 409.783 0.
242.903 -95.8567 0.
-256.657 -522.65 0.
-407.388 -874.503 0.
-297.378 -619.117 0.
384.55 -32.149 0.
305.308 -218.301 0.
260.016 -325.726 0.
546.857 388.194 0.
588.924 485.652 0.
121.925 -31.6965 0.
482.999 -30.6217 0.
425.092 -160.765 0.
626.575 1015.28 0.
679.097 1139.62 0.
235.069 105.713 0.
525.425 -214.24 0.
788.56 401.966 0.
780.157 384.337 0.
377.666 552.521 0.
286.612 338.037 0.
84.8116 -134.767 0.
376.884 -399.505 0.
426.269 -287.232 0.
538.676 323.3 0.
651.335 585.764 0.
159.752 -561.695 0.
270.408 -1056.36 0.
781.728 132.844 0.
770.16 102.204 0.
448.923 197.232 0.
536.405 401.252 0.
187.09 -413.707 0.
410.244 -607.371 0.
440.967 -539.354 0.
-155.54 117.545 0.
1534.32 352.082 0.
1475.8 213.834 0.
735.196 530.226 0.
512.712 11.1526 0.
306.51 -470.137 0.
77.6912 -701.269 0.
432.43 127.397 0.
410.915 78.449 0.
42.1657 -947.951 0.
-276.641 -1693.74 0.
487.36 86.6274 0.
633.029 462.92 0.
628.899 455.212 0.
1021.5 531.519 0.
887.57 219.315 0.
692.451 -235.428 0.
-39.5635 -506.401 0.
155.856 -51.8247 0.
143.638 -81.3723 0.
293.184 -248.173 0.
36.3551 -849.786 0.
106.713 -687.591 0.
10.1642 -252.807 0.
160.505 100.934 0.
222.635 -390.919 0.
436.142 181.193 0.
195.979 -371.261 0.
416.021 165.707 0.
953.016 1424.85 0.
198.345 -329.089 0.
462.529 385.477 0.
685.521 905.158 0.
163.288 -313.505 0.
-299.793 -1082.59 0.
18.1321 -342.344 0.
503.337 787.922 0.
23.3096 200.096 0.
-14.1203 112.027 0.
-219.926 -609.683 0.
-111.613 -355.385 0.
97.176 133.084 0.
192.323 186.519 0.
310.579 463.335 0.
192.226 188.019 0.
349.489 20.1048 0.
107.496 -545.209 0.
-14.9584 -830.654 0.
-372.494 -124.412 0.
-541.201 -517.131 0.
95.7938 218.823 0.
247.187 225.384 0.
212.837 144.594 0.
-9.35745 7.84516 0.
9.19401 46.8278 0.
27.7457 85.8102 0.
419.142 192.944 0.
326.14 -27.5476 0.
233.139 -248.04 0.
19.4262 -268.649 0.
124.403 -20.5265 0.
229.38 227.595 0.
333.734 152.405 0.
241.81 -55.5278 0.
53.4308 -272.906 0.
134.781 -82.894 0.
216.132 107.118 0.
270.117 201.602 0.
212.089 68.9911 0.
154.061 -63.6197 0.
151.66 -32.5127 0.
227.742 141.592 0.
303.823 315.697 0.
307.665 218.325 0.
219.154 10.891 0.
562.467 -10.8982 0.
299.262 -207.102 0.
253.123 -313.662 0.
195.669 -353.563 0.
333.162 -30.6321 0.
470.654 292.299 0.
692.849 492.932 0.
634.72 363.487 0.
576.592 234.043 0.
436.76 97.5238 0.
402.58 20.4944 0.
368.4 -56.5347 0.
745.943 88.9776 0.
738.51 74.047 0.
312.196 -110.107 0.
344.502 -34.6527 0.
376.808 40.802 0.
530.378 147.185 0.
538.014 160.874 0.
545.651 174.563 0.
337.63 16.9086 0.
267.649 -146.359 0.
197.669 -309.626 0.
1111.62 94.9739 0.
1141.8 165.332 0.
-867.137 -636.69 0.
942.198 115.089 0.
929.153 85.3832 0.
513.879 -107.295 0.
521.151 -89.4408 0.
528.423 -71.5867 0.
752.573 77.5121 0.
806.689 203.104 0.
860.804 328.696 0.
231.172 12.9309 0.
169.771 -131.099 0.
108.37 -275.128 0.
483.851 -113.782 0.
491.182 -94.5908 0.
624.32 -24.681 0.
610.073 -55.1213 0.
595.826 -85.5616 0.
325.823 -182.717 0.
379.974 -54.7716 0.
434.125 73.1738 0.
385.825 56.6604 0.
348.914 -30.7273 0.
312.004 -118.115 0.
305.758 -87.6711 0.
338.726 -9.46508 0.
26.4751 -74.7854 0.
39.8595 -10.0611 0.
72.718 63.8846 0.
342.562 200.938 0.
284.719 63.6111 0.
226.876 -73.7159 0.
110.62 -190.853 0.
107.121 -198.252 0.
103.622 -205.651 0.
148.037 -83.7333 0.
226.7 99.297 0.
305.364 282.328 0.
130.64 103.527 0.
62.3644 -57.2219 0.
10.354 -173.504 0.
107.115 52.9593 0.
203.877 279.422 0.
88.7407 268.593 0.
-30.6073 -11.5534 0.
-149.955 -291.701 0.
57.5094 -285.181 0.
72.5563 -248.666 0.
87.6036 -212.15 0.
-228.945 -101.014 0.
-71.66 266.102 0.
-557.073 -32.3437 0.
-49.6862 129.844 0.
-83.8645 49.0786 0.
-48.0975 22.4172 0.
-29.7184 62.0392 0.
-11.339 101.661 0.
381.613 207.501 0.
288.278 -12.5806 0.
194.942 -232.662 0.
94.5301 -205.661 0.
199 42.5519 0.
303.471 290.764 0.
432.532 225.15 0.
340.586 17.1169 0.
-69.6565 -292.499 0.
12.2654 -103.042 0.
94.1877 86.4156 0.
548.315 351.506 0.
490.276 219.204 0.
432.237 86.903 0.
-120.037 -117.371 0.
-43.4977 56.97 0.
33.0414 231.311 0.
120.052 169.841 0.
31.6333 -37.2937 0.
-402.876 -393.883 0.
186.635 -224.141 0.
139.665 -330.015 0.
406.057 -234.041 0.
542.751 89.666 0.
679.444 413.372 0.
538.108 455.712 0.
479.966 326.234 0.
421.824 196.756 0.
763.01 269.68 0.
729.536 191.48 0.
696.062 113.28 0.
954.801 211.899 0.
948.33 196.218 0.
275.694 -94.1664 0.
308.264 -18.7746 0.
340.835 56.6175 0.
233.939 52.552 0.
241.393 66.1137 0.
248.849 79.6761 0.
315.125 38.2366 0.
244.4 -123.851 0.
173.675 -285.939 0.
1619.27 342.897 0.
1649.25 413.856 0.
-877.604 -608.915 0.
362.299 -100.438 0.
349.26 -129.789 0.
587.71 -44.8872 0.
595.409 -27.1698 0.
603.109 -9.4524 0.
1192.67 297.785 0.
1247.31 423.536 0.
1301.95 549.286 0.
-26.0394 -66.099 0.
-87.9643 -209.583 0.
-149.889 -353.068 0.
618.098 -25.8792 0.
625.002 -6.28679 0.
449.507 -67.5833 0.
434.856 -97.6463 0.
420.206 -127.709 0.
619.587 -25.6868 0.
673.426 102.54 0.
727.264 230.765 0.
362.304 77.8626 0.
324.718 -9.32569 0.
287.133 -96.5138 0.
597.832 69.874 0.
629.928 148.501 0.
395.37 115.583 0.
-325.714 -136.759 0.
-293.552 -62.7964 0.
257.758 196.115 0.
200.571 58.1654 0.
143.384 -79.7846 0.
-4.38501 -207.975 0.
-7.83843 -215.236 0.
-11.2921 -222.498 0.
187.883 -35.5944 0.
266.171 147.87 0.
344.46 331.334 0.
331.588 220.567 0.
263.051 60.027 0.
77.8636 -113.064 0.
175.371 113.482 0.
272.88 340.029 0.
-65.5486 233.242 0.
-184.145 -47.038 0.
-302.741 -327.32 0.
-127.026 -331.75 0.
-111.93 -294.738 0.
-96.8333 -257.725 0.
-44.5549 6.31758 0.
112.857 374.527 0.
