# vtk DataFile Version 2.0
test grain
ASCII
DATASET UNSTRUCTURED_GRID
POINTS 5000 float
0.499931 0.00100004 0.
0.501932 0.000999999 0.
0.503934 0.001 0.
0.505935 0.001 0.
0.507937 0.000999999 0.
0.509939 0.000999999 0.
0.51194 0.000999999 0.
0.513941 0.000999999 0.
0.515943 0.000999999 0.
0.517944 0.000999999 0.
0.519946 0.000999998 0.
0.521948 0.000999998 0.
0.523949 0.000999998 0.
0.525951 0.000999999 0.
0.527952 0.000999999 0.
0.529954 0.001 0.
0.531956 0.001 0.
0.533957 0.001 0.
0.535959 0.001 0.
0.53796 0.001 0.
0.539961 0.001 0.
0.541963 0.001 0.
0.543964 0.001 0.
0.545965 0.001 0.
0.547967 0.000999999 0.
0.549969 0.000999999 0.
0.55197 0.000999998 0.
0.553971 0.000999998 0.
0.555972 0.000999998 0.
0.557973 0.000999999 0.
0.559974 0.000999999 0.
0.561975 0.000999999 0.
0.563977 0.000999998 0.
0.565979 0.000999997 0.
0.56798 0.000999998 0.
0.569982 0.000999998 0.
0.571983 0.000999998 0.
0.573984 0.000999998 0.
0.575986 0.000999998 0.
0.577987 0.000999998 0.
0.579988 0.000999998 0.
0.581989 0.000999998 0.
0.58399 0.000999998 0.
0.585991 0.000999999 0.
0.587993 0.001 0.
0.589994 0.001 0.
0.591995 0.001 0.
0.593997 0.000999999 0.
0.595998 0.001 0.
0.597999 0.001 0.
0.6 0.001 0.
0.602001 0.001 0.
0.604002 0.001 0.
0.606004 0.000999999 0.
0.608005 0.000999999 0.
0.610006 0.000999998 0.
0.612008 0.000999999 0.
0.614009 0.000999999 0.
0.616011 0.000999999 0.
0.618013 0.000999999 0.
0.620014 0.001 0.
0.622016 0.001 0.
0.624017 0.001 0.
0.626018 0.001 0.
0.62802 0.001 0.
0.630021 0.001 0.
0.632021 0.000999999 0.
0.634023 0.001 0.
0.636025 0.001 0.
0.638027 0.001 0.
0.640029 0.001 0.
0.64203 0.001 0.
0.644032 0.001 0.
0.646033 0.001 0.
0.648033 0.001 0.
0.650034 0.001 0.
0.652035 0.001 0.
0.654036 0.001 0.
0.656037 0.001 0.
0.658039 0.001 0.
0.660041 0.001 0.
0.662043 0.000999999 0.
0.664044 0.000999998 0.
0.666046 0.000999998 0.
0.668047 0.000999997 0.
0.670049 0.000999997 0.
0.67205 0.000999997 0.
0.674051 0.000999999 0.
0.676053 0.001 0.
0.678054 0.001 0.
0.680055 0.001 0.
0.682057 0.001 0.
0.684059 0.001 0.
0.686061 0.001 0.
0.688063 0.001 0.
0.690065 0.001 0.
0.692066 0.000999998 0.
0.694068 0.000999996 0.
0.69607 0.00100005 0.
0.698072 0.00100012 0.
0.499931 0.0030001 0.
0.501933 0.003 0.
0.503934 0.003 0.
0.505936 0.003 0.
0.507937 0.003 0.
0.509939 0.003 0.
0.511941 0.003 0.
0.513942 0.003 0.
0.515943 0.003 0.
0.517945 0.003 0.
0.519946 0.003 0.
0.521948 0.00299999 0.
0.523949 0.00299999 0.
0.52595 0.003 0.
0.527952 0.003 0.
0.529953 0.003 0.
0.531955 0.003 0.
0.533956 0.003 0.
0.535958 0.003 0.
0.53796 0.003 0.
0.539961 0.003 0.
0.541963 0.003 0.
0.543964 0.003 0.
0.545966 0.003 0.
0.547967 0.003 0.
0.549969 0.003 0.
0.55197 0.00299999 0.
0.553971 0.00299999 0.
0.555971 0.003 0.
0.557973 0.003 0.
0.559974 0.003 0.
0.561975 0.003 0.
0.563977 0.00299999 0.
0.565979 0.00299999 0.
0.56798 0.00299999 0.
0.569981 0.00299999 0.
0.571983 0.00299999 0.
0.573984 0.00299999 0.
0.575985 0.003 0.
0.577986 0.003 0.
0.579987 0.00299999 0.
0.581989 0.00299999 0.
0.58399 0.00299999 0.
0.585991 0.003 0.
0.587993 0.003 0.
0.589994 0.003 0.
0.591995 0.003 0.
0.593997 0.003 0.
0.595998 0.003 0.
0.597999 0.003 0.
0.6 0.003 0.
0.602001 0.003 0.
0.604002 0.003 0.
0.606003 0.003 0.
0.608005 0.003 0.
0.610006 0.003 0.
0.612008 0.003 0.
0.61401 0.003 0.
0.616011 0.003 0.
0.618013 0.003 0.
0.620014 0.003 0.
0.622015 0.003 0.
0.624017 0.003 0.
0.626019 0.003 0.
0.62802 0.003 0.
0.630021 0.003 0.
0.632022 0.003 0.
0.634023 0.003 0.
0.636025 0.003 0.
0.638027 0.003 0.
0.640029 0.003 0.
0.64203 0.003 0.
0.644031 0.003 0.
0.646033 0.003 0.
0.648034 0.003 0.
0.650035 0.00300001 0.
0.652036 0.00300001 0.
0.654037 0.003 0.
0.656038 0.003 0.
0.65804 0.003 0.
0.660041 0.003 0.
0.662043 0.003 0.
0.664044 0.00299999 0.
0.666046 0.00299999 0.
0.668048 0.00299999 0.
0.670049 0.00299999 0.
0.672051 0.00299999 0.
0.674052 0.003 0.
0.676053 0.003 0.
0.678054 0.003 0.
0.680056 0.003 0.
0.682058 0.003 0.
0.684059 0.003 0.
0.686061 0.003 0.
0.688063 0.003 0.
0.690064 0.003 0.
0.692066 0.00299999 0.
0.694067 0.00299999 0.
0.696069 0.00300016 0.
0.698071 0.00300037 0.
0.499932 0.00500016 0.
0.501933 0.005 0.
0.503934 0.005 0.
0.505936 0.005 0.
0.507937 0.005 0.
0.509939 0.00499999 0.
0.511941 0.00499999 0.
0.513942 0.00499999 0.
0.515944 0.00499999 0.
0.517945 0.00499999 0.
0.519947 0.00499999 0.
0.521948 0.00499999 0.
0.523949 0.00499999 0.
0.52595 0.00499999 0.
0.527951 0.005 0.
0.529953 0.005 0.
0.531954 0.005 0.
0.533955 0.005 0.
0.535957 0.005 0.
0.537959 0.005 0.
0.539961 0.005 0.
0.541963 0.005 0.
0.543965 0.005 0.
0.545966 0.005 0.
0.547968 0.005 0.
0.549969 0.00499999 0.
0.55197 0.00499999 0.
0.55397 0.00499999 0.
0.555971 0.00499999 0.
0.557972 0.00499999 0.
0.559973 0.00499999 0.
0.561975 0.005 0.
0.563977 0.00499999 0.
0.565979 0.00499999 0.
0.56798 0.00499999 0.
0.569981 0.00499999 0.
0.571982 0.00499999 0.
0.573983 0.00499999 0.
0.575985 0.00499999 0.
0.577986 0.00499999 0.
0.579987 0.00499999 0.
0.581989 0.00499999 0.
0.58399 0.00499999 0.
0.585992 0.005 0.
0.587993 0.005 0.
0.589994 0.005 0.
0.591995 0.005 0.
0.593996 0.005 0.
0.595998 0.005 0.
0.597999 0.005 0.
0.6 0.005 0.
0.602001 0.005 0.
0.604002 0.005 0.
0.606003 0.005 0.
0.608005 0.00499999 0.
0.610006 0.00499999 0.
0.612008 0.00499999 0.
0.61401 0.00499999 0.
0.616011 0.00499999 0.
0.618013 0.00499999 0.
0.620014 0.005 0.
0.622015 0.005 0.
0.624017 0.005 0.
0.626019 0.005 0.
0.62802 0.005 0.
0.630021 0.005 0.
0.632022 0.005 0.
0.634024 0.005 0.
0.636025 0.005 0.
0.638027 0.00500001 0.
0.640028 0.00500001 0.
0.64203 0.005 0.
0.644031 0.005 0.
0.646033 0.005 0.
0.648034 0.00500001 0.
0.650035 0.00500001 0.
0.652036 0.00500001 0.
0.654037 0.00500001 0.
0.656039 0.00500001 0.
0.65804 0.005 0.
0.660041 0.005 0.
0.662043 0.00499999 0.
0.664045 0.00499999 0.
0.666046 0.00499999 0.
0.668048 0.00499999 0.
0.670049 0.00499998 0.
0.672051 0.00499998 0.
0.674052 0.00499999 0.
0.676053 0.005 0.
0.678055 0.005 0.
0.680057 0.005 0.
0.682058 0.005 0.
0.68406 0.005 0.
0.686061 0.005 0.
0.688062 0.00500001 0.
0.690064 0.005 0.
0.692065 0.00499999 0.
0.694066 0.00499998 0.
0.696068 0.00500026 0.
0.69807 0.00500062 0.
0.499932 0.00700069 0.
0.501934 0.00700028 0.
0.503935 0.00700002 0.
0.505937 0.00699979 0.
0.507938 0.0069997 0.
0.50994 0.00699962 0.
0.511941 0.00699965 0.
0.513943 0.00699985 0.
0.515944 0.00700005 0.
0.517945 0.00700001 0.
0.519947 0.00699982 0.
0.521948 0.00699964 0.
0.52395 0.00699956 0.
0.525951 0.0069995 0.
0.527952 0.00699943 0.
0.529953 0.00699936 0.
0.531954 0.00699929 0.
0.533956 0.00699928 0.
0.535958 0.00699941 0.
0.53796 0.00699954 0.
0.539962 0.00699949 0.
0.541963 0.00699928 0.
0.543965 0.00699907 0.
0.545967 0.00699914 0.
0.547968 0.00699929 0.
0.549969 0.00699945 0.
0.55197 0.00699966 0.
0.55397 0.00699987 0.
0.555971 0.00699999 0.
0.557972 0.00699975 0.
0.559973 0.00699951 0.
0.561975 0.00699946 0.
0.563977 0.00699965 0.
0.565978 0.00699984 0.
0.56798 0.00699982 0.
0.569981 0.00699968 0.
0.571982 0.00699954 0.
0.573983 0.00699959 0.
0.575984 0.00699966 0.
0.577986 0.00699971 0.
0.579987 0.00699951 0.
0.581988 0.00699931 0.
0.58399 0.00699927 0.
0.585991 0.00699958 0.
0.587993 0.00699988 0.
0.589994 0.007 0.
0.591995 0.00699997 0.
0.593996 0.00699994 0.
0.595997 0.00699992 0.
0.597999 0.00699991 0.
0.6 0.0069999 0.
0.602001 0.00699989 0.
0.604002 0.00699989 0.
0.606003 0.00699989 0.
0.608004 0.00699988 0.
0.610006 0.00699987 0.
0.612008 0.00699983 0.
0.614009 0.00699975 0.
0.616011 0.00699967 0.
0.618013 0.0069997 0.
0.620014 0.00699979 0.
0.622016 0.00699987 0.
0.624017 0.00699967 0.
0.626019 0.00699944 0.
0.628021 0.00699927 0.
0.630022 0.0069996 0.
0.632023 0.00699992 0.
0.634024 0.0070001 0.
0.636025 0.00699999 0.
0.638027 0.00699988 0.
0.640028 0.00699986 0.
0.64203 0.00699993 0.
0.644031 0.007 0.
0.646032 0.00699985 0.
0.648033 0.00699964 0.
0.650034 0.00699943 0.
0.652036 0.00699938 0.
0.654037 0.00699934 0.
0.656039 0.00699939 0.
0.65804 0.00699978 0.
0.660042 0.00700017 0.
0.662043 0.00700028 0.
0.664045 0.00700006 0.
0.666046 0.00699985 0.
0.668048 0.00699964 0.
0.670049 0.00699944 0.
0.67205 0.00699924 0.
0.674051 0.00699933 0.
0.676053 0.00699943 0.
0.678054 0.00699952 0.
0.680056 0.00699949 0.
0.682058 0.00699947 0.
0.684059 0.00699948 0.
0.686061 0.00699956 0.
0.688062 0.00699963 0.
0.690063 0.00699972 0.
0.692064 0.00699984 0.
0.694066 0.00699995 0.
0.696067 0.00700053 0.
0.698069 0.00700123 0.
0.499932 0.00900122 0.
0.501934 0.00900056 0.
0.503936 0.00900004 0.
0.505938 0.00899959 0.
0.507939 0.00899941 0.
0.50994 0.00899924 0.
0.511941 0.0089993 0.
0.513943 0.00899971 0.
0.515944 0.00900011 0.
0.517946 0.00900003 0.
0.519947 0.00899965 0.
0.521949 0.00899928 0.
0.52395 0.00899913 0.
0.525951 0.008999 0.
0.527952 0.00899887 0.
0.529953 0.00899872 0.
0.531955 0.00899858 0.
0.533956 0.00899856 0.
0.535958 0.00899882 0.
0.53796 0.00899909 0.
0.539962 0.00899898 0.
0.541964 0.00899857 0.
0.543966 0.00899815 0.
0.545967 0.00899829 0.
0.547968 0.00899859 0.
0.549969 0.0089989 0.
0.55197 0.00899933 0.
0.55397 0.00899976 0.
0.555971 0.00899999 0.
0.557972 0.00899951 0.
0.559974 0.00899902 0.
0.561975 0.00899892 0.
0.563976 0.00899931 0.
0.565978 0.0089997 0.
0.567979 0.00899965 0.
0.56998 0.00899936 0.
0.571982 0.00899908 0.
0.573983 0.00899918 0.
0.575984 0.00899933 0.
0.577986 0.00899943 0.
0.579987 0.00899903 0.
0.581988 0.00899863 0.
0.58399 0.00899856 0.
0.585991 0.00899916 0.
0.587993 0.00899977 0.
0.589994 0.00900001 0.
0.591995 0.00899995 0.
0.593996 0.00899989 0.
0.595997 0.00899985 0.
0.597999 0.00899982 0.
0.6 0.00899979 0.
0.602001 0.00899979 0.
0.604002 0.00899978 0.
0.606003 0.00899978 0.
0.608004 0.00899976 0.
0.610006 0.00899974 0.
0.612008 0.00899966 0.
0.614009 0.0089995 0.
0.616011 0.00899934 0.
0.618013 0.0089994 0.
0.620014 0.00899957 0.
0.622016 0.00899975 0.
0.624018 0.00899934 0.
0.626019 0.00899887 0.
0.628021 0.00899853 0.
0.630022 0.00899919 0.
0.632023 0.00899985 0.
0.634024 0.0090002 0.
0.636025 0.00899997 0.
0.638027 0.00899974 0.
0.640028 0.00899972 0.
0.642029 0.00899986 0.
0.644031 0.00899999 0.
0.646032 0.00899969 0.
0.648033 0.00899927 0.
0.650034 0.00899885 0.
0.652035 0.00899876 0.
0.654037 0.00899866 0.
0.656038 0.00899878 0.
0.65804 0.00899956 0.
0.660042 0.00900034 0.
0.662043 0.00900056 0.
0.664045 0.00900014 0.
0.666046 0.00899971 0.
0.668047 0.0089993 0.
0.670048 0.0089989 0.
0.672049 0.0089985 0.
0.674051 0.00899866 0.
0.676052 0.00899887 0.
0.678054 0.00899903 0.
0.680055 0.00899899 0.
0.682057 0.00899894 0.
0.684058 0.00899897 0.
0.68606 0.00899912 0.
0.688061 0.00899926 0.
0.690063 0.00899945 0.
0.692064 0.00899968 0.
0.694065 0.00899991 0.
0.696066 0.00900079 0.
0.698067 0.00900184 0.
0.499933 0.0110012 0.
0.501935 0.0110005 0.
0.503936 0.011 0.
0.505938 0.0109996 0.
0.507939 0.0109994 0.
0.50994 0.0109993 0.
0.511942 0.0109993 0.
0.513943 0.0109996 0.
0.515945 0.0109999 0.
0.517946 0.0109998 0.
0.519947 0.0109994 0.
0.521949 0.010999 0.
0.52395 0.0109988 0.
0.525951 0.0109986 0.
0.527953 0.0109985 0.
0.529954 0.0109983 0.
0.531955 0.0109982 0.
0.533957 0.0109981 0.
0.535959 0.0109984 0.
0.537961 0.0109986 0.
0.539962 0.0109985 0.
0.541964 0.0109981 0.
0.543966 0.0109977 0.
0.545967 0.0109979 0.
0.547968 0.0109982 0.
0.549969 0.0109986 0.
0.55197 0.0109989 0.
0.55397 0.0109993 0.
0.555971 0.0109995 0.
0.557972 0.0109991 0.
0.559974 0.0109988 0.
0.561975 0.0109987 0.
0.563977 0.010999 0.
0.565978 0.0109993 0.
0.567979 0.0109993 0.
0.56998 0.0109991 0.
0.571982 0.0109988 0.
0.573983 0.0109989 0.
0.575984 0.010999 0.
0.577985 0.0109991 0.
0.579987 0.0109987 0.
0.581988 0.0109984 0.
0.58399 0.0109983 0.
0.585991 0.0109989 0.
0.587993 0.0109995 0.
0.589994 0.0109997 0.
0.591995 0.0109998 0.
0.593996 0.0109998 0.
0.595997 0.0109997 0.
0.597999 0.0109997 0.
0.6 0.0109996 0.
0.602001 0.0109997 0.
0.604002 0.0109997 0.
0.606003 0.0109997 0.
0.608005 0.0109997 0.
0.610006 0.0109997 0.
0.612008 0.0109996 0.
0.61401 0.0109994 0.
0.616011 0.0109992 0.
0.618013 0.0109991 0.
0.620014 0.0109992 0.
0.622016 0.0109992 0.
0.624018 0.0109989 0.
0.626019 0.0109986 0.
0.628021 0.0109983 0.
0.630022 0.010999 0.
0.632022 0.0109997 0.
0.634024 0.011 0.
0.636025 0.0109997 0.
0.638027 0.0109995 0.
0.640028 0.0109995 0.
0.642029 0.0109996 0.
0.64403 0.0109998 0.
0.646032 0.0109995 0.
0.648033 0.010999 0.
0.650034 0.0109986 0.
0.652035 0.0109985 0.
0.654037 0.0109985 0.
0.656038 0.0109986 0.
0.65804 0.0109994 0.
0.660041 0.0110001 0.
0.662043 0.0110003 0.
0.664044 0.011 0.
0.666046 0.0109996 0.
0.668047 0.0109992 0.
0.670048 0.0109988 0.
0.672049 0.0109983 0.
0.67405 0.0109984 0.
0.676052 0.0109986 0.
0.678054 0.0109987 0.
0.680055 0.0109986 0.
0.682056 0.0109986 0.
0.684058 0.0109987 0.
0.686059 0.0109989 0.
0.688061 0.0109991 0.
0.690062 0.0109993 0.
0.692063 0.0109996 0.
0.694065 0.0109998 0.
0.696066 0.0110008 0.
0.698067 0.0110019 0.
0.499933 0.0130005 0.
0.501935 0.0130001 0.
0.503937 0.0129999 0.
0.505938 0.0129998 0.
0.507939 0.0129997 0.
0.509941 0.0129997 0.
0.511942 0.0129996 0.
0.513943 0.0129996 0.
0.515944 0.0129995 0.
0.517946 0.0129993 0.
0.519948 0.012999 0.
0.521949 0.0129986 0.
0.523951 0.0129985 0.
0.525952 0.0129983 0.
0.527953 0.0129982 0.
0.529955 0.0129981 0.
0.531956 0.0129981 0.
0.533958 0.012998 0.
0.535959 0.0129981 0.
0.537961 0.0129982 0.
0.539963 0.0129981 0.
0.541964 0.0129979 0.
0.543965 0.0129977 0.
0.545967 0.0129979 0.
0.547968 0.0129982 0.
0.549969 0.0129985 0.
0.55197 0.0129985 0.
0.553971 0.0129985 0.
0.555972 0.0129985 0.
0.557973 0.0129986 0.
0.559974 0.0129988 0.
0.561976 0.0129989 0.
0.563977 0.0129988 0.
0.565978 0.0129987 0.
0.567979 0.0129987 0.
0.569981 0.0129988 0.
0.571982 0.0129988 0.
0.573983 0.0129988 0.
0.575984 0.0129987 0.
0.577985 0.0129987 0.
0.579987 0.0129986 0.
0.581988 0.0129985 0.
0.583989 0.0129985 0.
0.585991 0.0129988 0.
0.587992 0.012999 0.
0.589993 0.0129992 0.
0.591994 0.0129994 0.
0.593995 0.0129996 0.
0.595997 0.0129996 0.
0.597998 0.0129995 0.
0.6 0.0129995 0.
0.602001 0.0129995 0.
0.604002 0.0129996 0.
0.606004 0.0129996 0.
0.608005 0.0129997 0.
0.610007 0.0129997 0.
0.612009 0.0129996 0.
0.61401 0.0129994 0.
0.616012 0.0129992 0.
0.618013 0.0129989 0.
0.620014 0.0129986 0.
0.622016 0.0129983 0.
0.624017 0.0129984 0.
0.626018 0.0129985 0.
0.628019 0.0129987 0.
0.630021 0.012999 0.
0.632022 0.0129993 0.
0.634023 0.0129995 0.
0.636025 0.0129993 0.
0.638026 0.012999 0.
0.640028 0.0129991 0.
0.642029 0.0129993 0.
0.64403 0.0129995 0.
0.646031 0.0129992 0.
0.648033 0.0129989 0.
0.650034 0.0129986 0.
0.652036 0.0129986 0.
0.654037 0.0129987 0.
0.656038 0.0129989 0.
0.658039 0.0129992 0.
0.660041 0.0129995 0.
0.662042 0.0129996 0.
0.664044 0.0129996 0.
0.666045 0.0129996 0.
0.668047 0.0129993 0.
0.670048 0.0129991 0.
0.672049 0.0129988 0.
0.674051 0.0129986 0.
0.676052 0.0129985 0.
0.678054 0.0129984 0.
0.680055 0.0129985 0.
0.682056 0.0129985 0.
0.684057 0.0129986 0.
0.686059 0.0129989 0.
0.68806 0.0129991 0.
0.690062 0.0129993 0.
0.692063 0.0129995 0.
0.694064 0.0129997 0.
0.696065 0.0130005 0.
0.698066 0.0130015 0.
0.499934 0.0149998 0.
0.501935 0.0149996 0.
0.503937 0.0149999 0.
0.505938 0.015 0.
0.507939 0.0150001 0.
0.509941 0.0150001 0.
0.511942 0.015 0.
0.513943 0.0149995 0.
0.515944 0.0149991 0.
0.517946 0.0149988 0.
0.519948 0.0149986 0.
0.52195 0.0149983 0.
0.523951 0.0149982 0.
0.525953 0.0149981 0.
0.527954 0.014998 0.
0.529956 0.014998 0.
0.531957 0.014998 0.
0.533958 0.0149979 0.
0.53596 0.0149978 0.
0.537961 0.0149977 0.
0.539963 0.0149977 0.
0.541964 0.0149977 0.
0.543965 0.0149977 0.
0.545967 0.0149979 0.
0.547968 0.0149982 0.
0.549969 0.0149985 0.
0.551971 0.0149981 0.
0.553972 0.0149976 0.
0.555973 0.0149974 0.
0.557974 0.0149982 0.
0.559975 0.0149989 0.
0.561976 0.0149991 0.
0.563977 0.0149985 0.
0.565979 0.014998 0.
0.56798 0.0149981 0.
0.569981 0.0149984 0.
0.571982 0.0149988 0.
0.573983 0.0149986 0.
0.575984 0.0149984 0.
0.577985 0.0149982 0.
0.579986 0.0149984 0.
0.581988 0.0149987 0.
0.583989 0.0149988 0.
0.58599 0.0149987 0.
0.587991 0.0149985 0.
0.589993 0.0149987 0.
0.591994 0.014999 0.
0.593995 0.0149994 0.
0.595997 0.0149994 0.
0.597998 0.0149993 0.
0.6 0.0149993 0.
0.602001 0.0149994 0.
0.604003 0.0149994 0.
0.606004 0.0149995 0.
0.608006 0.0149996 0.
0.610008 0.0149997 0.
0.61201 0.0149996 0.
0.614011 0.0149994 0.
0.616012 0.0149991 0.
0.618013 0.0149986 0.
0.620015 0.014998 0.
0.622016 0.0149974 0.
0.624017 0.0149979 0.
0.626017 0.0149985 0.
0.628018 0.014999 0.
0.63002 0.014999 0.
0.632021 0.014999 0.
0.634023 0.0149989 0.
0.636024 0.0149988 0.
0.638026 0.0149986 0.
0.640027 0.0149987 0.
0.642028 0.0149989 0.
0.64403 0.0149991 0.
0.646031 0.014999 0.
0.648033 0.0149988 0.
0.650035 0.0149986 0.
0.652036 0.0149988 0.
0.654037 0.014999 0.
0.656038 0.0149991 0.
0.658039 0.014999 0.
0.66004 0.0149988 0.
0.662041 0.0149989 0.
0.664043 0.0149992 0.
0.666045 0.0149995 0.
0.668047 0.0149995 0.
0.670048 0.0149994 0.
0.67205 0.0149992 0.
0.674051 0.0149989 0.
0.676052 0.0149985 0.
0.678054 0.0149982 0.
0.680055 0.0149983 0.
0.682056 0.0149984 0.
0.684057 0.0149986 0.
0.686058 0.0149989 0.
0.68806 0.0149991 0.
0.690061 0.0149993 0.
0.692062 0.0149994 0.
0.694064 0.0149996 0.
0.696065 0.0150002 0.
0.698066 0.0150011 0.
0.499935 0.0170004 0.
0.501936 0.017 0.
0.503938 0.0169998 0.
0.505939 0.0169996 0.
0.50794 0.0169994 0.
0.509942 0.0169991 0.
0.511943 0.0169989 0.
0.513944 0.0169987 0.
0.515945 0.0169985 0.
0.517947 0.0169982 0.
0.519948 0.0169978 0.
0.52195 0.0169974 0.
0.523952 0.0169971 0.
0.525953 0.0169968 0.
0.527954 0.0169966 0.
0.529956 0.0169966 0.
0.531957 0.0169967 0.
0.533959 0.0169967 0.
0.53596 0.0169966 0.
0.537962 0.0169964 0.
0.539963 0.0169964 0.
0.541964 0.0169965 0.
0.543966 0.0169966 0.
0.545967 0.0169968 0.
0.547968 0.016997 0.
0.549969 0.0169973 0.
0.551971 0.0169971 0.
0.553972 0.016997 0.
0.555973 0.016997 0.
0.557974 0.0169972 0.
0.559975 0.0169974 0.
0.561976 0.0169975 0.
0.563978 0.0169973 0.
0.565979 0.0169972 0.
0.56798 0.0169972 0.
0.569981 0.0169972 0.
0.571982 0.0169973 0.
0.573983 0.0169971 0.
0.575984 0.0169969 0.
0.577985 0.0169968 0.
0.579986 0.0169972 0.
0.581987 0.0169977 0.
0.583989 0.0169979 0.
0.58599 0.0169977 0.
0.587992 0.0169975 0.
0.589993 0.0169975 0.
0.591994 0.0169977 0.
0.593996 0.0169979 0.
0.595997 0.0169979 0.
0.597999 0.0169979 0.
0.6 0.0169979 0.
0.602002 0.0169979 0.
0.604003 0.0169979 0.
0.606005 0.0169979 0.
0.608007 0.0169981 0.
0.610009 0.0169982 0.
0.61201 0.0169982 0.
0.614012 0.0169978 0.
0.616013 0.0169975 0.
0.618014 0.0169972 0.
0.620015 0.016997 0.
0.622016 0.0169967 0.
0.624017 0.0169971 0.
0.626018 0.0169975 0.
0.628019 0.0169979 0.
0.63002 0.0169978 0.
0.632021 0.0169978 0.
0.634023 0.0169978 0.
0.636024 0.0169976 0.
0.638025 0.0169975 0.
0.640027 0.0169974 0.
0.642028 0.0169974 0.
0.644029 0.0169974 0.
0.646031 0.0169974 0.
0.648032 0.0169972 0.
0.650034 0.0169972 0.
0.652035 0.0169974 0.
0.654036 0.0169977 0.
0.656037 0.0169979 0.
0.658038 0.016998 0.
0.66004 0.0169981 0.
0.662041 0.0169981 0.
0.664043 0.016998 0.
0.666044 0.016998 0.
0.668046 0.016998 0.
0.670048 0.0169981 0.
0.672049 0.0169982 0.
0.674051 0.016998 0.
0.676052 0.0169978 0.
0.678053 0.0169976 0.
0.680054 0.0169978 0.
0.682056 0.016998 0.
0.684057 0.0169982 0.
0.686058 0.0169986 0.
0.688059 0.0169989 0.
0.690061 0.0169993 0.
0.692062 0.0169997 0.
0.694063 0.0170002 0.
0.696064 0.0170012 0.
0.698065 0.0170023 0.
0.499935 0.019001 0.
0.501937 0.0190003 0.
0.503938 0.0189997 0.
0.50594 0.0189992 0.
0.507941 0.0189987 0.
0.509942 0.0189982 0.
0.511944 0.0189979 0.
0.513945 0.0189979 0.
0.515946 0.0189979 0.
0.517947 0.0189976 0.
0.519949 0.018997 0.
0.521951 0.0189964 0.
0.523952 0.018996 0.
0.525953 0.0189956 0.
0.527954 0.0189952 0.
0.529956 0.0189953 0.
0.531958 0.0189955 0.
0.533959 0.0189955 0.
0.535961 0.0189953 0.
0.537962 0.0189951 0.
0.539964 0.0189951 0.
0.541965 0.0189953 0.
0.543966 0.0189954 0.
0.545967 0.0189956 0.
0.547968 0.0189958 0.
0.549969 0.018996 0.
0.551971 0.0189962 0.
0.553972 0.0189964 0.
0.555973 0.0189965 0.
0.557975 0.0189962 0.
0.559976 0.0189959 0.
0.561977 0.0189959 0.
0.563978 0.0189961 0.
0.565979 0.0189963 0.
0.56798 0.0189962 0.
0.569981 0.018996 0.
0.571982 0.0189957 0.
0.573983 0.0189956 0.
0.575984 0.0189954 0.
0.577985 0.0189953 0.
0.579986 0.018996 0.
0.581987 0.0189967 0.
0.583988 0.018997 0.
0.58599 0.0189967 0.
0.587992 0.0189965 0.
0.589994 0.0189964 0.
0.591995 0.0189963 0.
0.593997 0.0189963 0.
0.595998 0.0189964 0.
0.597999 0.0189965 0.
0.600001 0.0189966 0.
0.602002 0.0189965 0.
0.604004 0.0189963 0.
0.606006 0.0189963 0.
0.608007 0.0189965 0.
0.610009 0.0189967 0.
0.61201 0.0189967 0.
0.614012 0.0189963 0.
0.616014 0.0189959 0.
0.618015 0.0189958 0.
0.620016 0.0189959 0.
0.622017 0.0189961 0.
0.624018 0.0189963 0.
0.626018 0.0189965 0.
0.628019 0.0189967 0.
0.63002 0.0189967 0.
0.632022 0.0189966 0.
0.634023 0.0189966 0.
0.636024 0.0189964 0.
0.638025 0.0189963 0.
0.640026 0.0189962 0.
0.642028 0.018996 0.
0.644029 0.0189958 0.
0.64603 0.0189957 0.
0.648032 0.0189957 0.
0.650033 0.0189957 0.
0.652034 0.0189961 0.
0.654035 0.0189964 0.
0.656037 0.0189967 0.
0.658038 0.018997 0.
0.660039 0.0189973 0.
0.662041 0.0189973 0.
0.664042 0.0189969 0.
0.666044 0.0189965 0.
0.668045 0.0189965 0.
0.670047 0.0189968 0.
0.672049 0.0189971 0.
0.67405 0.0189971 0.
0.676051 0.0189971 0.
0.678052 0.0189971 0.
0.680054 0.0189973 0.
0.682055 0.0189976 0.
0.684057 0.0189979 0.
0.686058 0.0189983 0.
0.688059 0.0189987 0.
0.69006 0.0189993 0.
0.692061 0.019 0.
0.694062 0.0190008 0.
0.696063 0.0190021 0.
0.698064 0.0190035 0.
0.499936 0.0210013 0.
0.501938 0.0210005 0.
0.503939 0.0209997 0.
0.505941 0.0209989 0.
0.507942 0.0209983 0.
0.509943 0.0209977 0.
0.511945 0.0209973 0.
0.513946 0.0209973 0.
0.515947 0.0209973 0.
0.517948 0.0209968 0.
0.51995 0.0209962 0.
0.521951 0.0209955 0.
0.523953 0.0209951 0.
0.525954 0.0209948 0.
0.527955 0.0209945 0.
0.529957 0.0209944 0.
0.531958 0.0209943 0.
0.53396 0.0209942 0.
0.535961 0.0209941 0.
0.537963 0.0209939 0.
0.539964 0.0209939 0.
0.541965 0.0209941 0.
0.543966 0.0209942 0.
0.545967 0.0209944 0.
0.547969 0.0209946 0.
0.54997 0.0209948 0.
0.551971 0.0209951 0.
0.553972 0.0209954 0.
0.555973 0.0209956 0.
0.557975 0.0209952 0.
0.559976 0.0209949 0.
0.561978 0.0209948 0.
0.563978 0.0209952 0.
0.565979 0.0209955 0.
0.56798 0.0209954 0.
0.569981 0.0209949 0.
0.571982 0.0209944 0.
0.573983 0.0209943 0.
0.575984 0.0209943 0.
0.577985 0.0209943 0.
0.579986 0.0209949 0.
0.581987 0.0209956 0.
0.583989 0.0209959 0.
0.585991 0.0209957 0.
0.587993 0.0209954 0.
0.589994 0.0209952 0.
0.591996 0.0209951 0.
0.593997 0.0209949 0.
0.595998 0.020995 0.
0.597999 0.0209952 0.
0.600001 0.0209954 0.
0.602003 0.0209952 0.
0.604004 0.020995 0.
0.606006 0.020995 0.
0.608007 0.0209951 0.
0.610009 0.0209953 0.
0.61201 0.0209953 0.
0.614012 0.020995 0.
0.616013 0.0209946 0.
0.618015 0.0209947 0.
0.620016 0.020995 0.
0.622017 0.0209953 0.
0.624018 0.0209954 0.
0.626019 0.0209955 0.
0.628019 0.0209955 0.
0.63002 0.0209956 0.
0.632022 0.0209956 0.
0.634023 0.0209957 0.
0.636024 0.0209956 0.
0.638025 0.0209956 0.
0.640026 0.0209953 0.
0.642027 0.0209949 0.
0.644029 0.0209944 0.
0.64603 0.0209943 0.
0.648031 0.0209944 0.
0.650032 0.0209945 0.
0.652034 0.0209948 0.
0.654035 0.0209952 0.
0.656036 0.0209956 0.
0.658037 0.0209959 0.
0.660039 0.0209963 0.
0.66204 0.0209963 0.
0.664042 0.0209959 0.
0.666043 0.0209955 0.
0.668045 0.0209955 0.
0.670046 0.0209958 0.
0.672048 0.0209961 0.
0.674049 0.0209962 0.
0.67605 0.0209964 0.
0.678052 0.0209965 0.
0.680053 0.0209968 0.
0.682054 0.0209971 0.
0.684056 0.0209975 0.
0.686057 0.020998 0.
0.688058 0.0209985 0.
0.690059 0.0209992 0.
0.69206 0.021 0.
0.694061 0.0210009 0.
0.696063 0.0210022 0.
0.698064 0.0210038 0.
0.499938 0.0230014 0.
0.50194 0.0230005 0.
0.503941 0.0229995 0.
0.505942 0.0229987 0.
0.507943 0.0229982 0.
0.509944 0.0229977 0.
0.511946 0.0229973 0.
0.513947 0.0229969 0.
0.515948 0.0229965 0.
0.517949 0.0229959 0.
0.519951 0.0229952 0.
0.521952 0.0229945 0.
0.523954 0.0229945 0.
0.525955 0.0229946 0.
0.527956 0.0229946 0.
0.529958 0.0229939 0.
0.531959 0.0229932 0.
0.533961 0.0229928 0.
0.535962 0.0229928 0.
0.537963 0.0229928 0.
0.539964 0.0229929 0.
0.541965 0.0229929 0.
0.543966 0.022993 0.
0.545967 0.0229931 0.
0.547969 0.0229933 0.
0.54997 0.0229934 0.
0.551971 0.0229937 0.
0.553972 0.0229941 0.
0.555973 0.0229943 0.
0.557975 0.0229942 0.
0.559976 0.0229942 0.
0.561977 0.0229942 0.
0.563978 0.0229945 0.
0.565979 0.0229948 0.
0.567981 0.0229945 0.
0.569982 0.0229939 0.
0.571983 0.0229934 0.
0.573984 0.0229934 0.
0.575985 0.0229934 0.
0.577987 0.0229935 0.
0.579988 0.022994 0.
0.581989 0.0229944 0.
0.58399 0.0229947 0.
0.585991 0.0229944 0.
0.587993 0.0229942 0.
0.589994 0.022994 0.
0.591995 0.0229939 0.
0.593997 0.0229937 0.
0.595998 0.0229938 0.
0.597999 0.022994 0.
0.600001 0.0229942 0.
0.602002 0.0229941 0.
0.604004 0.0229941 0.
0.606006 0.022994 0.
0.608007 0.022994 0.
0.610009 0.022994 0.
0.61201 0.0229939 0.
0.614011 0.0229939 0.
0.616012 0.0229938 0.
0.618013 0.0229939 0.
0.620015 0.0229942 0.
0.622016 0.0229944 0.
0.624017 0.0229944 0.
0.626018 0.0229944 0.
0.62802 0.0229944 0.
0.63002 0.0229946 0.
0.632021 0.0229948 0.
0.634022 0.0229951 0.
0.636023 0.0229952 0.
0.638025 0.0229954 0.
0.640026 0.022995 0.
0.642027 0.0229941 0.
0.644028 0.0229932 0.
0.64603 0.0229931 0.
0.648031 0.0229932 0.
0.650032 0.0229933 0.
0.652033 0.0229938 0.
0.654034 0.0229942 0.
0.656036 0.0229947 0.
0.658037 0.0229948 0.
0.660038 0.022995 0.
0.662039 0.0229951 0.
0.664041 0.022995 0.
0.666042 0.022995 0.
0.668043 0.022995 0.
0.670045 0.0229951 0.
0.672046 0.0229952 0.
0.674048 0.0229954 0.
0.676049 0.0229956 0.
0.67805 0.0229958 0.
0.680052 0.0229962 0.
0.682053 0.0229966 0.
0.684054 0.0229971 0.
0.686056 0.0229978 0.
0.688057 0.0229984 0.
0.690058 0.022999 0.
0.692059 0.0229996 0.
0.694061 0.0230003 0.
0.696062 0.0230016 0.
0.698064 0.0230032 0.
0.499941 0.0250015 0.
0.501941 0.0250005 0.
0.503942 0.0249994 0.
0.505943 0.0249985 0.
0.507944 0.0249981 0.
0.509945 0.0249977 0.
0.511947 0.0249972 0.
0.513948 0.0249965 0.
0.515949 0.0249958 0.
0.517951 0.024995 0.
0.519952 0.0249943 0.
0.521953 0.0249935 0.
0.523955 0.0249939 0.
0.525956 0.0249944 0.
0.527958 0.0249947 0.
0.529959 0.0249934 0.
0.53196 0.0249922 0.
0.533961 0.0249914 0.
0.535962 0.0249916 0.
0.537963 0.0249917 0.
0.539964 0.0249918 0.
0.541965 0.0249918 0.
0.543966 0.0249917 0.
0.545967 0.0249918 0.
0.547969 0.0249919 0.
0.549971 0.0249921 0.
0.551972 0.0249924 0.
0.553973 0.0249927 0.
0.555973 0.024993 0.
0.557975 0.0249932 0.
0.559976 0.0249935 0.
0.561977 0.0249937 0.
0.563979 0.0249939 0.
0.56598 0.024994 0.
0.567981 0.0249937 0.
0.569983 0.024993 0.
0.571984 0.0249923 0.
0.573985 0.0249924 0.
0.575987 0.0249926 0.
0.577988 0.0249928 0.
0.579989 0.0249931 0.
0.58199 0.0249933 0.
0.583991 0.0249934 0.
0.585992 0.0249932 0.
0.587993 0.024993 0.
0.589994 0.0249928 0.
0.591995 0.0249927 0.
0.593996 0.0249925 0.
0.595998 0.0249926 0.
0.597999 0.0249928 0.
0.6 0.0249931 0.
0.602002 0.0249931 0.
0.604004 0.0249931 0.
0.606006 0.0249931 0.
0.608007 0.0249928 0.
0.610008 0.0249926 0.
0.612009 0.0249926 0.
0.61401 0.0249928 0.
0.616011 0.024993 0.
0.618012 0.0249931 0.
0.620014 0.0249933 0.
0.622015 0.0249935 0.
0.624016 0.0249934 0.
0.626018 0.0249933 0.
0.62802 0.0249933 0.
0.63002 0.0249937 0.
0.632021 0.0249941 0.
0.634022 0.0249944 0.
0.636023 0.0249948 0.
0.638025 0.0249951 0.
0.640026 0.0249946 0.
0.642027 0.0249934 0.
0.644028 0.0249921 0.
0.646029 0.0249919 0.
0.64803 0.024992 0.
0.650031 0.0249921 0.
0.652033 0.0249927 0.
0.654034 0.0249933 0.
0.656035 0.0249937 0.
0.658036 0.0249937 0.
0.660037 0.0249937 0.
0.662038 0.0249939 0.
0.66404 0.0249942 0.
0.666041 0.0249945 0.
0.668042 0.0249945 0.
0.670043 0.0249944 0.
0.672044 0.0249944 0.
0.674046 0.0249946 0.
0.676048 0.0249948 0.
0.678049 0.0249951 0.
0.680051 0.0249956 0.
0.682052 0.0249962 0.
0.684053 0.0249968 0.
0.686054 0.0249975 0.
0.688056 0.0249983 0.
0.690057 0.0249988 0.
0.692058 0.0249993 0.
0.69406 0.0249997 0.
0.696061 0.0250011 0.
0.698063 0.0250026 0.
0.499941 0.0270017 0.
0.501942 0.0270005 0.
0.503943 0.0269991 0.
0.505944 0.0269979 0.
0.507945 0.0269975 0.
0.509947 0.026997 0.
0.511948 0.0269964 0.
0.513949 0.0269956 0.
0.515951 0.0269948 0.
0.517952 0.0269941 0.
0.519953 0.0269934 0.
0.521955 0.0269928 0.
0.523956 0.0269929 0.
0.525957 0.0269932 0.
0.527958 0.0269933 0.
0.52996 0.0269921 0.
0.531961 0.0269909 0.
0.533962 0.0269902 0.
0.535963 0.0269902 0.
0.537964 0.0269903 0.
0.539965 0.0269904 0.
0.541966 0.0269905 0.
0.543967 0.0269906 0.
0.545968 0.0269908 0.
0.54797 0.0269911 0.
0.549971 0.0269913 0.
0.551972 0.0269917 0.
0.553973 0.026992 0.
0.555974 0.0269923 0.
0.557975 0.0269922 0.
0.559976 0.0269921 0.
0.561978 0.0269921 0.
0.563979 0.0269922 0.
0.56598 0.0269923 0.
0.567981 0.0269919 0.
0.569983 0.0269914 0.
0.571985 0.0269908 0.
0.573986 0.026991 0.
0.575987 0.0269913 0.
0.577988 0.0269915 0.
0.579989 0.0269916 0.
0.581991 0.0269916 0.
0.583992 0.0269916 0.
0.585993 0.0269917 0.
0.587994 0.0269918 0.
0.589995 0.0269918 0.
0.591996 0.0269916 0.
0.593997 0.0269914 0.
0.595998 0.0269917 0.
0.597999 0.0269921 0.
0.6 0.0269925 0.
0.602002 0.0269921 0.
0.604004 0.0269918 0.
0.606005 0.0269915 0.
0.608006 0.0269914 0.
0.610008 0.0269913 0.
0.612009 0.0269913 0.
0.61401 0.0269916 0.
0.616011 0.0269919 0.
0.618012 0.026992 0.
0.620014 0.0269921 0.
0.622015 0.0269923 0.
0.624016 0.0269923 0.
0.626017 0.0269923 0.
0.628019 0.0269923 0.
0.63002 0.0269927 0.
0.63202 0.026993 0.
0.634021 0.0269932 0.
0.636023 0.0269934 0.
0.638024 0.0269935 0.
0.640025 0.0269931 0.
0.642026 0.0269922 0.
0.644027 0.0269914 0.
0.646028 0.0269911 0.
0.648029 0.026991 0.
0.65003 0.026991 0.
0.652031 0.0269916 0.
0.654032 0.0269922 0.
0.656034 0.0269927 0.
0.658035 0.0269926 0.
0.660036 0.0269924 0.
0.662037 0.0269925 0.
0.664039 0.0269928 0.
0.66604 0.0269931 0.
0.668041 0.0269932 0.
0.670042 0.0269933 0.
0.672044 0.0269934 0.
0.674045 0.0269937 0.
0.676047 0.0269939 0.
0.678048 0.0269942 0.
0.680049 0.026995 0.
0.682051 0.0269958 0.
0.684052 0.0269966 0.
0.686054 0.0269972 0.
0.688055 0.0269979 0.
0.690056 0.0269986 0.
0.692057 0.0269993 0.
0.694059 0.0270001 0.
0.69606 0.0270015 0.
0.698061 0.027003 0.
0.499942 0.029002 0.
0.501943 0.0290005 0.
0.503944 0.0289988 0.
0.505946 0.0289973 0.
0.507947 0.0289968 0.
0.509948 0.0289963 0.
0.511949 0.0289957 0.
0.513951 0.0289948 0.
0.515952 0.0289939 0.
0.517954 0.0289932 0.
0.519955 0.0289926 0.
0.521956 0.028992 0.
0.523957 0.028992 0.
0.525958 0.028992 0.
0.527959 0.028992 0.
0.52996 0.0289908 0.
0.531961 0.0289897 0.
0.533963 0.0289889 0.
0.535964 0.0289889 0.
0.537966 0.0289889 0.
0.539967 0.0289891 0.
0.541968 0.0289893 0.
0.543968 0.0289895 0.
0.545969 0.0289898 0.
0.54797 0.0289902 0.
0.549971 0.0289905 0.
0.551972 0.0289909 0.
0.553973 0.0289913 0.
0.555974 0.0289916 0.
0.557975 0.0289911 0.
0.559977 0.0289907 0.
0.561978 0.0289905 0.
0.563979 0.0289905 0.
0.56598 0.0289905 0.
0.567981 0.0289902 0.
0.569983 0.0289898 0.
0.571985 0.0289893 0.
0.573986 0.0289896 0.
0.575987 0.02899 0.
0.577988 0.0289903 0.
0.57999 0.0289901 0.
0.581991 0.0289899 0.
0.583992 0.0289898 0.
0.585994 0.0289902 0.
0.587995 0.0289906 0.
0.589996 0.0289907 0.
0.591997 0.0289905 0.
0.593997 0.0289903 0.
0.595998 0.0289907 0.
0.597999 0.0289913 0.
0.600001 0.0289919 0.
0.602002 0.0289912 0.
0.604003 0.0289904 0.
0.606005 0.0289899 0.
0.608006 0.0289899 0.
0.610007 0.0289899 0.
0.612008 0.0289901 0.
0.61401 0.0289904 0.
0.616011 0.0289908 0.
0.618012 0.0289909 0.
0.620013 0.0289909 0.
0.622015 0.028991 0.
0.624016 0.0289911 0.
0.626017 0.0289912 0.
0.628018 0.0289914 0.
0.630019 0.0289916 0.
0.63202 0.0289919 0.
0.634021 0.0289921 0.
0.636022 0.028992 0.
0.638023 0.0289919 0.
0.640024 0.0289916 0.
0.642025 0.0289911 0.
0.644026 0.0289906 0.
0.646027 0.0289903 0.
0.648029 0.0289901 0.
0.65003 0.0289898 0.
0.65203 0.0289905 0.
0.654031 0.0289912 0.
0.656032 0.0289917 0.
0.658033 0.0289914 0.
0.660035 0.0289911 0.
0.662036 0.0289911 0.
0.664038 0.0289914 0.
0.666039 0.0289917 0.
0.66804 0.028992 0.
0.670042 0.0289922 0.
0.672043 0.0289925 0.
0.674044 0.0289927 0.
0.676045 0.028993 0.
0.678046 0.0289934 0.
0.680048 0.0289944 0.
0.68205 0.0289955 0.
0.684052 0.0289964 0.
0.686053 0.0289969 0.
0.688054 0.0289975 0.
0.690055 0.0289984 0.
0.692056 0.0289994 0.
0.694057 0.0290005 0.
0.696058 0.0290019 0.
0.698059 0.0290033 0.
0.499943 0.0310022 0.
0.501945 0.0310005 0.
0.503946 0.0309986 0.
0.505947 0.030997 0.
0.507948 0.0309964 0.
0.50995 0.0309958 0.
0.511951 0.030995 0.
0.513952 0.030994 0.
0.515954 0.030993 0.
0.517955 0.0309923 0.
0.519956 0.0309917 0.
0.521958 0.0309912 0.
0.523958 0.0309911 0.
0.525959 0.030991 0.
0.52796 0.0309909 0.
0.529961 0.0309899 0.
0.531962 0.030989 0.
0.533964 0.0309883 0.
0.535965 0.0309881 0.
0.537967 0.030988 0.
0.539968 0.0309881 0.
0.541969 0.0309883 0.
0.543969 0.0309886 0.
0.54597 0.0309889 0.
0.547971 0.0309893 0.
0.549972 0.0309896 0.
0.551973 0.0309901 0.
0.553974 0.0309906 0.
0.555975 0.0309909 0.
0.557976 0.0309903 0.
0.559977 0.0309898 0.
0.561978 0.0309894 0.
0.563979 0.0309893 0.
0.56598 0.0309892 0.
0.567982 0.0309889 0.
0.569984 0.0309886 0.
0.571985 0.0309882 0.
0.573987 0.0309885 0.
0.575988 0.0309888 0.
0.577989 0.0309891 0.
0.57999 0.0309888 0.
0.581991 0.0309886 0.
0.583993 0.0309886 0.
0.585994 0.030989 0.
0.587995 0.0309894 0.
0.589996 0.0309896 0.
0.591997 0.0309894 0.
0.593998 0.0309893 0.
0.595999 0.0309897 0.
0.597999 0.0309903 0.
0.6 0.0309909 0.
0.602002 0.0309901 0.
0.604003 0.0309892 0.
0.606005 0.0309886 0.
0.608006 0.0309885 0.
0.610007 0.0309885 0.
0.612008 0.0309887 0.
0.61401 0.0309891 0.
0.616011 0.0309895 0.
0.618012 0.0309897 0.
0.620013 0.0309898 0.
0.622014 0.0309899 0.
0.624015 0.0309901 0.
0.626016 0.0309903 0.
0.628017 0.0309904 0.
0.630019 0.0309906 0.
0.63202 0.0309909 0.
0.634021 0.0309909 0.
0.636022 0.0309907 0.
0.638022 0.0309905 0.
0.640023 0.0309903 0.
0.642024 0.03099 0.
0.644025 0.0309898 0.
0.646027 0.0309896 0.
0.648028 0.0309893 0.
0.650029 0.030989 0.
0.652029 0.0309895 0.
0.65403 0.03099 0.
0.656031 0.0309903 0.
0.658032 0.0309901 0.
0.660034 0.0309899 0.
0.662035 0.0309899 0.
0.664036 0.0309903 0.
0.666038 0.0309906 0.
0.668039 0.0309911 0.
0.670041 0.0309915 0.
0.672042 0.030992 0.
0.674043 0.0309922 0.
0.676044 0.0309924 0.
0.678045 0.0309927 0.
0.680047 0.0309939 0.
0.682049 0.030995 0.
0.68405 0.030996 0.
0.686051 0.0309966 0.
0.688053 0.0309972 0.
0.690054 0.0309981 0.
0.692055 0.0309994 0.
0.694056 0.0310007 0.
0.696057 0.031002 0.
0.698057 0.0310034 0.
0.499945 0.0330023 0.
0.501946 0.0330005 0.
0.503948 0.0329986 0.
0.505949 0.0329969 0.
0.50795 0.0329962 0.
0.509951 0.0329954 0.
0.511952 0.0329945 0.
0.513954 0.0329934 0.
0.515955 0.0329922 0.
0.517956 0.0329915 0.
0.519957 0.0329908 0.
0.521958 0.0329902 0.
0.523959 0.0329902 0.
0.52596 0.0329902 0.
0.527961 0.0329902 0.
0.529962 0.0329895 0.
0.531963 0.0329887 0.
0.533965 0.0329881 0.
0.535966 0.0329878 0.
0.537968 0.0329875 0.
0.539969 0.0329875 0.
0.541969 0.0329876 0.
0.54397 0.0329878 0.
0.545971 0.0329881 0.
0.547972 0.0329883 0.
0.549973 0.0329886 0.
0.551974 0.0329892 0.
0.553975 0.0329898 0.
0.555976 0.0329901 0.
0.557977 0.0329897 0.
0.559978 0.0329893 0.
0.561979 0.0329889 0.
0.563981 0.0329886 0.
0.565982 0.0329883 0.
0.567983 0.032988 0.
0.569984 0.0329877 0.
0.571985 0.0329874 0.
0.573987 0.0329876 0.
0.575988 0.0329878 0.
0.57799 0.0329879 0.
0.579991 0.0329879 0.
0.581992 0.0329878 0.
0.583993 0.0329879 0.
0.585994 0.0329881 0.
0.587995 0.0329882 0.
0.589996 0.0329884 0.
0.591997 0.0329884 0.
0.593997 0.0329884 0.
0.595998 0.0329887 0.
0.597999 0.0329891 0.
0.6 0.0329895 0.
0.602002 0.0329888 0.
0.604004 0.0329881 0.
0.606005 0.0329875 0.
0.608006 0.0329874 0.
0.610007 0.0329872 0.
0.612008 0.0329873 0.
0.61401 0.0329877 0.
0.616011 0.0329881 0.
0.618012 0.0329884 0.
0.620013 0.0329887 0.
0.622014 0.032989 0.
0.624015 0.0329892 0.
0.626016 0.0329894 0.
0.628017 0.0329896 0.
0.630018 0.0329897 0.
0.632019 0.0329898 0.
0.63402 0.0329898 0.
0.636021 0.0329896 0.
0.638022 0.0329893 0.
0.640023 0.0329892 0.
0.642024 0.032989 0.
0.644025 0.0329889 0.
0.646026 0.0329888 0.
0.648027 0.0329886 0.
0.650028 0.0329885 0.
0.652029 0.0329886 0.
0.654029 0.0329886 0.
0.65603 0.0329887 0.
0.658031 0.0329887 0.
0.660033 0.0329888 0.
0.662034 0.032989 0.
0.664035 0.0329895 0.
0.666037 0.0329899 0.
0.668038 0.0329906 0.
0.670039 0.0329913 0.
0.67204 0.032992 0.
0.674042 0.0329921 0.
0.676043 0.0329921 0.
0.678044 0.0329922 0.
0.680045 0.0329933 0.
0.682047 0.0329944 0.
0.684048 0.0329954 0.
0.68605 0.0329961 0.
0.688051 0.0329968 0.
0.690052 0.032998 0.
0.692053 0.0329994 0.
0.694054 0.0330008 0.
0.696055 0.0330019 0.
0.698056 0.0330031 0.
0.499947 0.0350024 0.
0.501948 0.0350005 0.
0.503949 0.0349986 0.
0.50595 0.0349969 0.
0.507951 0.034996 0.
0.509953 0.034995 0.
0.511954 0.034994 0.
0.513955 0.0349927 0.
0.515956 0.0349914 0.
0.517957 0.0349906 0.
0.519958 0.0349899 0.
0.521959 0.0349893 0.
0.52396 0.0349893 0.
0.525962 0.0349894 0.
0.527963 0.0349895 0.
0.529964 0.034989 0.
0.531965 0.0349885 0.
0.533966 0.0349879 0.
0.535967 0.0349875 0.
0.537968 0.034987 0.
0.539969 0.0349868 0.
0.54197 0.0349869 0.
0.543971 0.034987 0.
0.545972 0.0349872 0.
0.547973 0.0349874 0.
0.549975 0.0349876 0.
0.551975 0.0349883 0.
0.553976 0.034989 0.
0.555977 0.0349894 0.
0.557978 0.0349891 0.
0.559979 0.0349888 0.
0.561981 0.0349884 0.
0.563982 0.0349879 0.
0.565983 0.0349874 0.
0.567984 0.0349871 0.
0.569985 0.0349869 0.
0.571986 0.0349867 0.
0.573987 0.0349867 0.
0.575989 0.0349867 0.
0.57799 0.0349868 0.
0.579991 0.0349869 0.
0.581992 0.0349871 0.
0.583993 0.0349871 0.
0.585994 0.0349871 0.
0.587995 0.0349871 0.
0.589996 0.0349872 0.
0.591996 0.0349873 0.
0.593997 0.0349875 0.
0.595998 0.0349877 0.
0.597999 0.0349879 0.
0.6 0.0349881 0.
0.602002 0.0349876 0.
0.604004 0.034987 0.
0.606006 0.0349865 0.
0.608007 0.0349862 0.
0.610007 0.0349859 0.
0.612008 0.0349859 0.
0.61401 0.0349863 0.
0.616011 0.0349867 0.
0.618012 0.0349871 0.
0.620012 0.0349876 0.
0.622013 0.0349881 0.
0.624014 0.0349883 0.
0.626015 0.0349885 0.
0.628017 0.0349887 0.
0.630018 0.0349888 0.
0.632019 0.0349888 0.
0.63402 0.0349887 0.
0.63602 0.0349885 0.
0.638021 0.0349882 0.
0.640022 0.0349881 0.
0.642023 0.034988 0.
0.644024 0.034988 0.
0.646025 0.034988 0.
0.648026 0.034988 0.
0.650027 0.034988 0.
0.652028 0.0349876 0.
0.654029 0.0349872 0.
0.656029 0.034987 0.
0.65803 0.0349873 0.
0.660031 0.0349876 0.
0.662033 0.0349881 0.
0.664034 0.0349887 0.
0.666036 0.0349892 0.
0.668037 0.0349901 0.
0.670038 0.0349911 0.
0.672039 0.0349921 0.
0.67404 0.034992 0.
0.676042 0.0349918 0.
0.678043 0.0349918 0.
0.680044 0.0349928 0.
0.682045 0.0349938 0.
0.684046 0.0349948 0.
0.686048 0.0349957 0.
0.688049 0.0349965 0.
0.69005 0.0349978 0.
0.692052 0.0349993 0.
0.694053 0.0350008 0.
0.696054 0.0350019 0.
0.698055 0.0350028 0.
0.499949 0.0370019 0.
0.50195 0.037 0.
0.503951 0.0369981 0.
0.505953 0.0369964 0.
0.507954 0.0369954 0.
0.509955 0.0369944 0.
0.511956 0.0369933 0.
0.513957 0.036992 0.
0.515959 0.0369907 0.
0.517959 0.0369898 0.
0.51996 0.0369893 0.
0.521961 0.0369888 0.
0.523962 0.0369887 0.
0.525963 0.0369888 0.
0.527964 0.0369887 0.
0.529965 0.036988 0.
0.531966 0.0369872 0.
0.533967 0.0369866 0.
0.535968 0.0369862 0.
0.537969 0.0369859 0.
0.53997 0.0369858 0.
0.541971 0.036986 0.
0.543972 0.0369861 0.
0.545973 0.0369863 0.
0.547974 0.0369864 0.
0.549976 0.0369866 0.
0.551976 0.0369872 0.
0.553977 0.0369877 0.
0.555978 0.0369881 0.
0.557979 0.0369878 0.
0.55998 0.0369875 0.
0.561982 0.0369871 0.
0.563983 0.0369865 0.
0.565984 0.0369859 0.
0.567985 0.0369857 0.
0.569986 0.0369856 0.
0.571986 0.0369856 0.
0.573988 0.0369857 0.
0.575989 0.0369857 0.
0.577991 0.0369858 0.
0.579992 0.036986 0.
0.581993 0.0369862 0.
0.583994 0.0369863 0.
0.585994 0.0369862 0.
0.587995 0.0369862 0.
0.589996 0.0369862 0.
0.591997 0.0369862 0.
0.593998 0.0369863 0.
0.595999 0.0369866 0.
0.598 0.0369869 0.
0.600001 0.0369872 0.
0.602002 0.0369866 0.
0.604004 0.0369859 0.
0.606006 0.0369853 0.
0.608006 0.036985 0.
0.610007 0.0369847 0.
0.612008 0.0369847 0.
0.614009 0.0369851 0.
0.61601 0.0369855 0.
0.618011 0.036986 0.
0.620012 0.0369866 0.
0.622013 0.0369872 0.
0.624014 0.0369873 0.
0.626015 0.0369874 0.
0.628016 0.0369875 0.
0.630017 0.0369876 0.
0.632018 0.0369877 0.
0.634019 0.0369877 0.
0.63602 0.0369875 0.
0.638021 0.0369873 0.
0.640021 0.0369872 0.
0.642022 0.036987 0.
0.644023 0.0369868 0.
0.646024 0.0369867 0.
0.648026 0.0369865 0.
0.650027 0.0369863 0.
0.652027 0.0369865 0.
0.654028 0.0369866 0.
0.656029 0.0369867 0.
0.65803 0.0369865 0.
0.660031 0.0369864 0.
0.662032 0.0369866 0.
0.664033 0.0369873 0.
0.666035 0.0369879 0.
0.668036 0.0369888 0.
0.670037 0.0369898 0.
0.672038 0.0369909 0.
0.674039 0.0369909 0.
0.67604 0.0369909 0.
0.678041 0.036991 0.
0.680042 0.0369922 0.
0.682043 0.0369933 0.
0.684044 0.0369944 0.
0.686046 0.0369953 0.
0.688047 0.0369961 0.
0.690048 0.0369974 0.
0.69205 0.0369989 0.
0.694051 0.0370005 0.
0.696052 0.0370019 0.
0.698053 0.0370034 0.
0.499951 0.0390015 0.
0.501952 0.0389996 0.
0.503954 0.0389977 0.
0.505955 0.0389959 0.
0.507956 0.0389949 0.
0.509957 0.0389939 0.
0.511958 0.0389927 0.
0.51396 0.0389913 0.
0.515961 0.0389899 0.
0.517962 0.0389891 0.
0.519962 0.0389887 0.
0.521963 0.0389882 0.
0.523964 0.0389882 0.
0.525964 0.0389881 0.
0.527965 0.038988 0.
0.529966 0.038987 0.
0.531967 0.0389859 0.
0.533968 0.0389852 0.
0.535969 0.038985 0.
0.53797 0.0389848 0.
0.539971 0.0389848 0.
0.541972 0.038985 0.
0.543974 0.0389853 0.
0.545975 0.0389854 0.
0.547975 0.0389855 0.
0.549976 0.0389855 0.
0.551977 0.038986 0.
0.553978 0.0389865 0.
0.555979 0.0389868 0.
0.55798 0.0389865 0.
0.559981 0.0389863 0.
0.561983 0.0389858 0.
0.563984 0.0389851 0.
0.565985 0.0389843 0.
0.567986 0.0389842 0.
0.569986 0.0389844 0.
0.571987 0.0389846 0.
0.573988 0.0389847 0.
0.57599 0.0389847 0.
0.577991 0.0389848 0.
0.579992 0.038985 0.
0.581994 0.0389853 0.
0.583995 0.0389854 0.
0.585995 0.0389853 0.
0.587995 0.0389853 0.
0.589996 0.0389852 0.
0.591997 0.0389851 0.
0.593998 0.0389851 0.
0.595999 0.0389854 0.
0.598 0.0389859 0.
0.600001 0.0389864 0.
0.602003 0.0389856 0.
0.604004 0.0389848 0.
0.606005 0.0389842 0.
0.608006 0.0389839 0.
0.610006 0.0389836 0.
0.612007 0.0389836 0.
0.614008 0.038984 0.
0.616009 0.0389844 0.
0.61801 0.0389849 0.
0.620011 0.0389856 0.
0.622013 0.0389863 0.
0.624014 0.0389863 0.
0.626015 0.0389863 0.
0.628016 0.0389863 0.
0.630016 0.0389865 0.
0.632017 0.0389866 0.
0.634018 0.0389867 0.
0.636019 0.0389866 0.
0.63802 0.0389864 0.
0.640021 0.0389862 0.
0.642021 0.0389859 0.
0.644022 0.0389856 0.
0.646024 0.0389853 0.
0.648025 0.038985 0.
0.650026 0.0389846 0.
0.652027 0.0389853 0.
0.654028 0.0389859 0.
0.656029 0.0389863 0.
0.65803 0.0389858 0.
0.66003 0.0389852 0.
0.662031 0.0389852 0.
0.664032 0.0389859 0.
0.666033 0.0389865 0.
0.668034 0.0389874 0.
0.670035 0.0389885 0.
0.672036 0.0389896 0.
0.674037 0.0389898 0.
0.676038 0.0389899 0.
0.678039 0.0389902 0.
0.68004 0.0389915 0.
0.682042 0.0389929 0.
0.684043 0.038994 0.
0.686044 0.0389949 0.
0.688045 0.0389957 0.
0.690046 0.0389969 0.
0.692048 0.0389985 0.
0.69405 0.0390001 0.
0.696051 0.039002 0.
0.698052 0.0390039 0.
0.499953 0.041001 0.
0.501954 0.0409992 0.
0.503956 0.0409972 0.
0.505957 0.0409954 0.
0.507958 0.0409944 0.
0.509959 0.0409934 0.
0.51196 0.0409922 0.
0.513961 0.0409908 0.
0.515962 0.0409894 0.
0.517963 0.0409886 0.
0.519964 0.0409882 0.
0.521965 0.0409877 0.
0.523965 0.0409876 0.
0.525966 0.0409876 0.
0.527966 0.0409875 0.
0.529967 0.0409864 0.
0.531968 0.0409852 0.
0.533969 0.0409844 0.
0.53597 0.0409842 0.
0.537971 0.040984 0.
0.539973 0.040984 0.
0.541974 0.0409842 0.
0.543975 0.0409843 0.
0.545976 0.0409844 0.
0.547977 0.0409846 0.
0.549978 0.0409847 0.
0.551978 0.040985 0.
0.553979 0.0409853 0.
0.55598 0.0409855 0.
0.557981 0.0409851 0.
0.559982 0.0409848 0.
0.561984 0.0409844 0.
0.563985 0.0409838 0.
0.565986 0.0409832 0.
0.567987 0.0409832 0.
0.569987 0.0409834 0.
0.571988 0.0409836 0.
0.573989 0.0409836 0.
0.57599 0.0409837 0.
0.577992 0.0409837 0.
0.579993 0.0409842 0.
0.581994 0.0409846 0.
0.583995 0.0409849 0.
0.585995 0.0409848 0.
0.587996 0.0409847 0.
0.589997 0.0409845 0.
0.591998 0.0409844 0.
0.593999 0.0409843 0.
0.596 0.0409847 0.
0.598 0.0409851 0.
0.600001 0.0409856 0.
0.602003 0.0409849 0.
0.604004 0.0409842 0.
0.606005 0.0409836 0.
0.608006 0.0409833 0.
0.610006 0.0409829 0.
0.612007 0.0409829 0.
0.614007 0.0409832 0.
0.616008 0.0409835 0.
0.61801 0.040984 0.
0.620011 0.0409847 0.
0.622013 0.0409854 0.
0.624014 0.0409855 0.
0.626014 0.0409854 0.
0.628015 0.0409854 0.
0.630016 0.0409855 0.
0.632017 0.0409857 0.
0.634018 0.0409857 0.
0.636018 0.0409857 0.
0.638019 0.0409857 0.
0.64002 0.0409855 0.
0.642021 0.0409852 0.
0.644021 0.0409848 0.
0.646023 0.0409844 0.
0.648024 0.040984 0.
0.650025 0.0409835 0.
0.652026 0.0409843 0.
0.654027 0.0409851 0.
0.656028 0.0409856 0.
0.658029 0.040985 0.
0.660029 0.0409844 0.
0.66203 0.0409845 0.
0.664031 0.0409851 0.
0.666032 0.0409858 0.
0.668033 0.0409867 0.
0.670034 0.0409878 0.
0.672035 0.0409888 0.
0.674036 0.0409891 0.
0.676037 0.0409893 0.
0.678038 0.0409896 0.
0.680039 0.040991 0.
0.68204 0.0409924 0.
0.684041 0.0409936 0.
0.686042 0.0409945 0.
0.688043 0.0409954 0.
0.690044 0.0409966 0.
0.692046 0.0409982 0.
0.694048 0.0409997 0.
0.696049 0.0410016 0.
0.69805 0.0410037 0.
0.499956 0.0430005 0.
0.501956 0.0429987 0.
0.503957 0.0429967 0.
0.505958 0.042995 0.
0.507959 0.0429941 0.
0.50996 0.0429932 0.
0.511961 0.042992 0.
0.513963 0.0429907 0.
0.515964 0.0429893 0.
0.517965 0.0429884 0.
0.519965 0.0429878 0.
0.521966 0.0429871 0.
0.523967 0.0429872 0.
0.525967 0.0429873 0.
0.527968 0.0429873 0.
0.529969 0.0429862 0.
0.53197 0.0429851 0.
0.533971 0.0429842 0.
0.535972 0.0429839 0.
0.537973 0.0429835 0.
0.539974 0.0429833 0.
0.541975 0.0429833 0.
0.543976 0.0429833 0.
0.545977 0.0429835 0.
0.547978 0.0429837 0.
0.549979 0.0429839 0.
0.55198 0.0429841 0.
0.553981 0.0429842 0.
0.555981 0.0429841 0.
0.557982 0.0429836 0.
0.559983 0.0429832 0.
0.561984 0.0429829 0.
0.563985 0.0429827 0.
0.565986 0.0429826 0.
0.567987 0.0429826 0.
0.569987 0.0429825 0.
0.571988 0.0429825 0.
0.573989 0.0429825 0.
0.575991 0.0429826 0.
0.577992 0.0429826 0.
0.579993 0.0429834 0.
0.581994 0.0429841 0.
0.583995 0.0429846 0.
0.585996 0.0429845 0.
0.587996 0.0429844 0.
0.589997 0.0429842 0.
0.591998 0.0429841 0.
0.593999 0.0429839 0.
0.596 0.0429842 0.
0.598001 0.0429847 0.
0.600001 0.0429851 0.
0.602003 0.0429845 0.
0.604004 0.042984 0.
0.606005 0.0429835 0.
0.608006 0.0429832 0.
0.610006 0.0429828 0.
0.612007 0.0429827 0.
0.614008 0.0429828 0.
0.616008 0.0429829 0.
0.618009 0.0429834 0.
0.620011 0.042984 0.
0.622012 0.0429847 0.
0.624013 0.0429848 0.
0.626014 0.0429848 0.
0.628015 0.0429849 0.
0.630016 0.0429849 0.
0.632017 0.0429848 0.
0.634017 0.0429849 0.
0.636018 0.042985 0.
0.638019 0.0429852 0.
0.640019 0.0429851 0.
0.64202 0.0429846 0.
0.644021 0.0429842 0.
0.646022 0.0429839 0.
0.648023 0.0429835 0.
0.650023 0.0429831 0.
0.652024 0.0429836 0.
0.654025 0.0429841 0.
0.656026 0.0429844 0.
0.658027 0.0429843 0.
0.660028 0.0429842 0.
0.662029 0.0429844 0.
0.66403 0.0429851 0.
0.666031 0.0429858 0.
0.668032 0.0429866 0.
0.670033 0.0429875 0.
0.672034 0.0429884 0.
0.674035 0.0429887 0.
0.676036 0.0429889 0.
0.678036 0.0429893 0.
0.680037 0.0429907 0.
0.682038 0.042992 0.
0.684039 0.0429932 0.
0.686041 0.0429942 0.
0.688042 0.0429951 0.
0.690043 0.0429964 0.
0.692044 0.0429979 0.
0.694045 0.0429994 0.
0.696046 0.0430009 0.
0.698048 0.0430026 0.
0.499958 0.0449999 0.
0.501959 0.0449981 0.
0.503959 0.0449963 0.
0.50596 0.0449946 0.
0.507961 0.0449937 0.
0.509962 0.0449929 0.
0.511963 0.0449918 0.
0.513964 0.0449905 0.
0.515965 0.0449892 0.
0.517966 0.0449882 0.
0.519966 0.0449874 0.
0.521967 0.0449866 0.
0.523968 0.0449867 0.
0.525969 0.044987 0.
0.52797 0.0449871 0.
0.529971 0.044986 0.
0.531971 0.044985 0.
0.533972 0.0449841 0.
0.535974 0.0449836 0.
0.537975 0.044983 0.
0.539976 0.0449827 0.
0.541977 0.0449825 0.
0.543978 0.0449823 0.
0.545979 0.0449825 0.
0.54798 0.0449828 0.
0.549981 0.0449832 0.
0.551981 0.0449831 0.
0.553982 0.044983 0.
0.555983 0.0449828 0.
0.557983 0.0449822 0.
0.559984 0.0449815 0.
0.561985 0.0449813 0.
0.563986 0.0449817 0.
0.565986 0.044982 0.
0.567987 0.0449819 0.
0.569988 0.0449817 0.
0.571989 0.0449815 0.
0.57399 0.0449815 0.
0.575991 0.0449814 0.
0.577992 0.0449815 0.
0.579993 0.0449826 0.
0.581994 0.0449836 0.
0.583995 0.0449843 0.
0.585996 0.0449842 0.
0.587997 0.0449841 0.
0.589998 0.0449839 0.
0.591999 0.0449837 0.
0.594 0.0449836 0.
0.596 0.0449838 0.
0.598001 0.0449842 0.
0.600001 0.0449845 0.
0.602002 0.0449842 0.
0.604004 0.0449838 0.
0.606005 0.0449835 0.
0.608006 0.0449831 0.
0.610007 0.0449827 0.
0.612007 0.0449825 0.
0.614008 0.0449824 0.
0.616008 0.0449823 0.
0.618009 0.0449827 0.
0.62001 0.0449833 0.
0.622011 0.0449839 0.
0.624013 0.0449841 0.
0.626014 0.0449842 0.
0.628015 0.0449843 0.
0.630016 0.0449842 0.
0.632017 0.044984 0.
0.634017 0.044984 0.
0.636018 0.0449844 0.
0.638018 0.0449847 0.
0.640019 0.0449846 0.
0.642019 0.0449841 0.
0.64402 0.0449837 0.
0.646021 0.0449833 0.
0.648021 0.044983 0.
0.650022 0.0449827 0.
0.652023 0.0449828 0.
0.654024 0.044983 0.
0.656025 0.0449832 0.
0.658026 0.0449836 0.
0.660026 0.0449839 0.
0.662027 0.0449844 0.
0.664028 0.044985 0.
0.666029 0.0449857 0.
0.66803 0.0449865 0.
0.670032 0.0449872 0.
0.672033 0.044988 0.
0.674033 0.0449883 0.
0.676034 0.0449885 0.
0.678035 0.044989 0.
0.680036 0.0449903 0.
0.682036 0.0449916 0.
0.684037 0.0449929 0.
0.686039 0.0449939 0.
0.688041 0.0449949 0.
0.690042 0.0449961 0.
0.692042 0.0449976 0.
0.694043 0.044999 0.
0.696044 0.0450003 0.
0.698045 0.0450015 0.
0.49996 0.0469994 0.
0.501961 0.0469979 0.
0.503961 0.0469961 0.
0.505962 0.0469946 0.
0.507963 0.0469937 0.
0.509964 0.0469928 0.
0.511965 0.0469917 0.
0.513966 0.0469903 0.
0.515967 0.0469888 0.
0.517968 0.0469877 0.
0.519969 0.0469868 0.
0.521969 0.0469858 0.
0.52397 0.0469858 0.
0.525971 0.0469859 0.
0.527972 0.0469859 0.
0.529973 0.0469849 0.
0.531974 0.046984 0.
0.533975 0.0469831 0.
0.535976 0.0469826 0.
0.537977 0.0469821 0.
0.539978 0.0469817 0.
0.541979 0.0469816 0.
0.54398 0.0469815 0.
0.54598 0.0469816 0.
0.547981 0.0469818 0.
0.549982 0.046982 0.
0.551983 0.046982 0.
0.553984 0.0469821 0.
0.555984 0.046982 0.
0.557985 0.0469815 0.
0.559986 0.046981 0.
0.561987 0.0469807 0.
0.563987 0.0469809 0.
0.565988 0.046981 0.
0.567989 0.0469811 0.
0.569989 0.046981 0.
0.57199 0.046981 0.
0.573991 0.046981 0.
0.575992 0.0469809 0.
0.577992 0.0469809 0.
0.579993 0.0469817 0.
0.581994 0.0469825 0.
0.583995 0.0469831 0.
0.585996 0.0469832 0.
0.587997 0.0469833 0.
0.589998 0.0469833 0.
0.591999 0.0469832 0.
0.594 0.0469832 0.
0.596 0.0469833 0.
0.598001 0.0469834 0.
0.600001 0.0469835 0.
0.602002 0.0469832 0.
0.604003 0.046983 0.
0.606004 0.0469828 0.
0.608005 0.0469827 0.
0.610006 0.0469825 0.
0.612006 0.0469824 0.
0.614007 0.0469822 0.
0.616007 0.046982 0.
0.618008 0.0469822 0.
0.62001 0.0469827 0.
0.622011 0.0469832 0.
0.624012 0.0469834 0.
0.626013 0.0469835 0.
0.628014 0.0469835 0.
0.630015 0.0469834 0.
0.632015 0.0469833 0.
0.634016 0.0469833 0.
0.636016 0.0469838 0.
0.638017 0.0469842 0.
0.640017 0.0469842 0.
0.642018 0.0469838 0.
0.644019 0.0469835 0.
0.646019 0.046983 0.
0.64802 0.0469825 0.
0.65002 0.046982 0.
0.652021 0.0469821 0.
0.654022 0.0469822 0.
0.656023 0.0469824 0.
0.658023 0.0469826 0.
0.660024 0.0469828 0.
0.662025 0.0469832 0.
0.664026 0.0469839 0.
0.666027 0.0469847 0.
0.668028 0.0469854 0.
0.670029 0.0469861 0.
0.67203 0.0469869 0.
0.674031 0.0469874 0.
0.676032 0.0469878 0.
0.678033 0.0469884 0.
0.680033 0.0469896 0.
0.682034 0.0469908 0.
0.684035 0.0469919 0.
0.686036 0.0469931 0.
0.688038 0.0469943 0.
0.690039 0.0469956 0.
0.69204 0.046997 0.
0.69404 0.0469984 0.
0.696041 0.047 0.
0.698042 0.0470015 0.
0.499961 0.048999 0.
0.501963 0.0489977 0.
0.503964 0.048996 0.
0.505965 0.0489945 0.
0.507965 0.0489937 0.
0.509966 0.0489928 0.
0.511967 0.0489916 0.
0.513968 0.04899 0.
0.515969 0.0489883 0.
0.51797 0.0489871 0.
0.519971 0.0489861 0.
0.521972 0.0489851 0.
0.523973 0.0489849 0.
0.525974 0.0489849 0.
0.527974 0.0489847 0.
0.529975 0.0489838 0.
0.531976 0.048983 0.
0.533977 0.0489822 0.
0.535979 0.0489816 0.
0.53798 0.0489811 0.
0.539981 0.0489808 0.
0.541981 0.0489807 0.
0.543982 0.0489807 0.
0.545982 0.0489807 0.
0.547983 0.0489807 0.
0.549984 0.0489808 0.
0.551984 0.048981 0.
0.553985 0.0489812 0.
0.555986 0.0489812 0.
0.557987 0.0489808 0.
0.559987 0.0489804 0.
0.561988 0.0489802 0.
0.563989 0.0489801 0.
0.565989 0.04898 0.
0.56799 0.0489802 0.
0.56999 0.0489804 0.
0.571991 0.0489806 0.
0.573991 0.0489805 0.
0.575992 0.0489804 0.
0.577992 0.0489803 0.
0.579993 0.0489808 0.
0.581994 0.0489814 0.
0.583995 0.0489818 0.
0.585996 0.0489822 0.
0.587998 0.0489825 0.
0.589999 0.0489827 0.
0.591999 0.0489827 0.
0.594 0.0489828 0.
0.596 0.0489827 0.
0.598 0.0489825 0.
0.600001 0.0489824 0.
0.602002 0.0489823 0.
0.604003 0.0489822 0.
0.606003 0.0489821 0.
0.608004 0.0489822 0.
0.610005 0.0489824 0.
0.612005 0.0489823 0.
0.614006 0.048982 0.
0.616007 0.0489817 0.
0.618008 0.0489818 0.
0.620009 0.0489821 0.
0.62201 0.0489825 0.
0.624011 0.0489826 0.
0.626012 0.0489827 0.
0.628012 0.0489827 0.
0.630013 0.0489826 0.
0.632014 0.0489825 0.
0.634015 0.0489826 0.
0.636015 0.0489832 0.
0.638016 0.0489838 0.
0.640016 0.0489838 0.
0.642017 0.0489836 0.
0.644017 0.0489833 0.
0.646018 0.0489827 0.
0.648018 0.048982 0.
0.650019 0.0489813 0.
0.652019 0.0489814 0.
0.65402 0.0489814 0.
0.656021 0.0489815 0.
0.658021 0.0489816 0.
0.660022 0.0489816 0.
0.662023 0.048982 0.
0.664024 0.0489828 0.
0.666025 0.0489836 0.
0.668026 0.0489844 0.
0.670027 0.048985 0.
0.672028 0.0489857 0.
0.674029 0.0489864 0.
0.67603 0.0489871 0.
0.67803 0.0489878 0.
0.680031 0.0489889 0.
0.682032 0.0489899 0.
0.684033 0.048991 0.
0.686034 0.0489923 0.
0.688035 0.0489936 0.
0.690036 0.048995 0.
0.692037 0.0489964 0.
0.694038 0.0489978 0.
0.696039 0.0489996 0.
0.69804 0.0490016 0.
0.499963 0.0509989 0.
0.501965 0.0509975 0.
0.503966 0.0509957 0.
0.505967 0.0509941 0.
0.507967 0.0509933 0.
0.509968 0.0509925 0.
0.511969 0.0509914 0.
0.51397 0.0509896 0.
0.515971 0.0509879 0.
0.517972 0.0509866 0.
0.519973 0.0509855 0.
0.521974 0.0509845 0.
0.523975 0.0509842 0.
0.525976 0.0509841 0.
0.527977 0.0509838 0.
0.529978 0.050983 0.
0.531978 0.0509822 0.
0.533979 0.0509815 0.
0.535981 0.050981 0.
0.537982 0.0509805 0.
0.539983 0.0509803 0.
0.541983 0.0509802 0.
0.543983 0.0509802 0.
0.545984 0.0509801 0.
0.547984 0.05098 0.
0.549985 0.05098 0.
0.551986 0.0509802 0.
0.553986 0.0509805 0.
0.555987 0.0509807 0.
0.557988 0.0509804 0.
0.559989 0.0509801 0.
0.561989 0.0509798 0.
0.56399 0.0509797 0.
0.56599 0.0509795 0.
0.567991 0.0509796 0.
0.569991 0.0509799 0.
0.571992 0.0509801 0.
0.573992 0.05098 0.
0.575992 0.0509799 0.
0.577993 0.0509799 0.
0.579994 0.0509802 0.
0.581994 0.0509806 0.
0.583995 0.0509809 0.
0.585997 0.0509814 0.
0.587998 0.0509819 0.
0.589999 0.0509821 0.
0.591999 0.0509821 0.
0.594 0.0509822 0.
0.596 0.050982 0.
0.598 0.0509819 0.
0.600001 0.0509817 0.
0.602002 0.0509816 0.
0.604002 0.0509816 0.
0.606003 0.0509816 0.
0.608004 0.0509819 0.
0.610004 0.0509822 0.
0.612005 0.0509822 0.
0.614006 0.0509818 0.
0.616006 0.0509815 0.
0.618007 0.0509815 0.
0.620008 0.0509817 0.
0.622009 0.0509819 0.
0.62401 0.050982 0.
0.626011 0.050982 0.
0.628011 0.0509821 0.
0.630012 0.0509821 0.
0.632013 0.050982 0.
0.634014 0.0509822 0.
0.636014 0.0509828 0.
0.638014 0.0509833 0.
0.640015 0.0509834 0.
0.642015 0.0509832 0.
0.644016 0.050983 0.
0.646016 0.0509824 0.
0.648017 0.0509816 0.
0.650017 0.0509807 0.
0.652018 0.0509807 0.
0.654018 0.0509807 0.
0.656019 0.0509807 0.
0.65802 0.0509808 0.
0.66002 0.0509809 0.
0.662021 0.0509813 0.
0.664022 0.050982 0.
0.666023 0.0509827 0.
0.668024 0.0509834 0.
0.670025 0.0509841 0.
0.672026 0.0509848 0.
0.674027 0.0509856 0.
0.676028 0.0509864 0.
0.678028 0.0509872 0.
0.680029 0.0509882 0.
0.68203 0.0509892 0.
0.684031 0.0509904 0.
0.686032 0.0509917 0.
0.688033 0.0509931 0.
0.690034 0.0509945 0.
0.692035 0.0509959 0.
0.694036 0.0509972 0.
0.696037 0.0509993 0.
0.698038 0.0510016 0.
0.499966 0.0529992 0.
0.501967 0.0529974 0.
0.503967 0.0529952 0.
0.505968 0.0529933 0.
0.507969 0.0529927 0.
0.50997 0.052992 0.
0.511971 0.0529909 0.
0.513972 0.0529892 0.
0.515973 0.0529875 0.
0.517974 0.0529862 0.
0.519975 0.0529851 0.
0.521976 0.0529839 0.
0.523977 0.0529837 0.
0.525978 0.0529835 0.
0.527979 0.0529833 0.
0.52998 0.0529825 0.
0.531981 0.0529818 0.
0.533982 0.0529812 0.
0.535983 0.0529808 0.
0.537984 0.0529804 0.
0.539984 0.0529801 0.
0.541984 0.0529801 0.
0.543985 0.05298 0.
0.545985 0.0529799 0.
0.547986 0.0529797 0.
0.549987 0.0529795 0.
0.551987 0.0529798 0.
0.553987 0.0529802 0.
0.555988 0.0529804 0.
0.557989 0.0529802 0.
0.559989 0.05298 0.
0.56199 0.0529798 0.
0.56399 0.0529796 0.
0.565991 0.0529795 0.
0.567991 0.0529795 0.
0.569992 0.0529795 0.
0.571992 0.0529796 0.
0.573993 0.0529796 0.
0.575993 0.0529796 0.
0.577994 0.0529797 0.
0.579994 0.0529799 0.
0.581995 0.0529801 0.
0.583996 0.0529804 0.
0.585997 0.0529809 0.
0.587998 0.0529815 0.
0.589998 0.0529816 0.
0.591999 0.0529815 0.
0.593999 0.0529813 0.
0.596 0.0529813 0.
0.598 0.0529813 0.
0.600001 0.0529813 0.
0.602002 0.0529813 0.
0.604003 0.0529812 0.
0.606004 0.0529813 0.
0.608004 0.0529816 0.
0.610005 0.052982 0.
0.612005 0.0529821 0.
0.614006 0.0529817 0.
0.616007 0.0529814 0.
0.618007 0.0529813 0.
0.620008 0.0529813 0.
0.622009 0.0529813 0.
0.62401 0.0529814 0.
0.62601 0.0529815 0.
0.628011 0.0529816 0.
0.630011 0.0529817 0.
0.632012 0.0529818 0.
0.634012 0.052982 0.
0.636013 0.0529824 0.
0.638013 0.0529829 0.
0.640013 0.052983 0.
0.642014 0.0529828 0.
0.644014 0.0529827 0.
0.646015 0.052982 0.
0.648015 0.0529812 0.
0.650015 0.0529804 0.
0.652016 0.0529802 0.
0.654017 0.0529801 0.
0.656018 0.05298 0.
0.658018 0.0529803 0.
0.660019 0.0529806 0.
0.66202 0.0529809 0.
0.66402 0.0529814 0.
0.666021 0.0529819 0.
0.668022 0.0529826 0.
0.670023 0.0529834 0.
0.672023 0.0529842 0.
0.674025 0.0529849 0.
0.676026 0.0529856 0.
0.678027 0.0529864 0.
0.680028 0.0529875 0.
0.682028 0.0529887 0.
0.684029 0.0529899 0.
0.68603 0.0529913 0.
0.688031 0.0529927 0.
0.690032 0.052994 0.
0.692033 0.0529953 0.
0.694034 0.0529967 0.
0.696035 0.052999 0.
0.698036 0.0530016 0.
0.499968 0.0549994 0.
0.501969 0.0549973 0.
0.503969 0.0549947 0.
0.50597 0.0549926 0.
0.507971 0.0549921 0.
0.509972 0.0549915 0.
0.511973 0.0549905 0.
0.513974 0.0549888 0.
0.515975 0.0549871 0.
0.517976 0.0549858 0.
0.519977 0.0549846 0.
0.521978 0.0549834 0.
0.523979 0.0549831 0.
0.52598 0.0549829 0.
0.527982 0.0549827 0.
0.529982 0.0549821 0.
0.531983 0.0549814 0.
0.533984 0.0549808 0.
0.535984 0.0549805 0.
0.537985 0.0549802 0.
0.539986 0.05498 0.
0.541986 0.0549799 0.
0.543986 0.0549799 0.
0.545987 0.0549796 0.
0.547987 0.0549793 0.
0.549988 0.054979 0.
0.551988 0.0549795 0.
0.553988 0.0549799 0.
0.555989 0.0549801 0.
0.557989 0.05498 0.
0.55999 0.0549799 0.
0.561991 0.0549798 0.
0.563991 0.0549796 0.
0.565991 0.0549794 0.
0.567992 0.0549793 0.
0.569992 0.0549792 0.
0.571993 0.0549792 0.
0.573993 0.0549792 0.
0.575994 0.0549793 0.
0.577994 0.0549794 0.
0.579995 0.0549795 0.
0.581995 0.0549796 0.
0.583996 0.0549798 0.
0.585997 0.0549804 0.
0.587997 0.054981 0.
0.589998 0.0549811 0.
0.591999 0.0549808 0.
0.593999 0.0549804 0.
0.596 0.0549805 0.
0.598001 0.0549807 0.
0.600001 0.0549809 0.
0.602002 0.0549809 0.
0.604003 0.0549808 0.
0.606004 0.0549809 0.
0.608004 0.0549814 0.
0.610005 0.0549819 0.
0.612005 0.054982 0.
0.614006 0.0549816 0.
0.616007 0.0549813 0.
0.618007 0.0549811 0.
0.620008 0.0549809 0.
0.622009 0.0549808 0.
0.624009 0.0549809 0.
0.62601 0.054981 0.
0.62801 0.0549812 0.
0.63001 0.0549814 0.
0.632011 0.0549815 0.
0.634011 0.0549818 0.
0.636011 0.0549821 0.
0.638011 0.0549824 0.
0.640011 0.0549825 0.
0.642012 0.0549824 0.
0.644013 0.0549824 0.
0.646013 0.0549817 0.
0.648013 0.0549809 0.
0.650014 0.05498 0.
0.652015 0.0549797 0.
0.654015 0.0549795 0.
0.656016 0.0549793 0.
0.658017 0.0549798 0.
0.660017 0.0549802 0.
0.662018 0.0549806 0.
0.664019 0.0549809 0.
0.66602 0.0549812 0.
0.66802 0.0549818 0.
0.670021 0.0549827 0.
0.672021 0.0549835 0.
0.674023 0.0549842 0.
0.676024 0.0549849 0.
0.678025 0.0549856 0.
0.680026 0.0549869 0.
0.682027 0.0549882 0.
0.684028 0.0549895 0.
0.686028 0.0549909 0.
0.688029 0.0549922 0.
0.69003 0.0549936 0.
0.692031 0.0549948 0.
0.694032 0.0549961 0.
0.696034 0.0549986 0.
0.698035 0.0550015 0.
0.49997 0.0569982 0.
0.50197 0.0569963 0.
0.503971 0.056994 0.
0.505972 0.056992 0.
0.507973 0.0569912 0.
0.509974 0.0569905 0.
0.511975 0.0569894 0.
0.513976 0.056988 0.
0.515977 0.0569865 0.
0.517978 0.0569851 0.
0.519979 0.0569838 0.
0.52198 0.0569824 0.
0.523981 0.0569821 0.
0.525982 0.056982 0.
0.527983 0.0569818 0.
0.529984 0.0569811 0.
0.531984 0.0569803 0.
0.533985 0.0569798 0.
0.535986 0.0569796 0.
0.537987 0.0569794 0.
0.539988 0.0569794 0.
0.541988 0.0569794 0.
0.543988 0.0569794 0.
0.545989 0.0569793 0.
0.547989 0.0569792 0.
0.54999 0.056979 0.
0.55199 0.0569794 0.
0.55399 0.0569798 0.
0.555991 0.0569801 0.
0.557991 0.0569798 0.
0.559992 0.0569796 0.
0.561992 0.0569794 0.
0.563993 0.0569791 0.
0.565993 0.0569789 0.
0.567993 0.0569788 0.
0.569994 0.0569789 0.
0.571994 0.0569789 0.
0.573994 0.0569791 0.
0.575995 0.0569793 0.
0.577996 0.0569795 0.
0.579996 0.0569795 0.
0.581996 0.0569794 0.
0.583997 0.0569795 0.
0.585997 0.0569801 0.
0.587998 0.0569808 0.
0.589998 0.0569809 0.
0.591999 0.0569807 0.
0.594 0.0569804 0.
0.596 0.0569806 0.
0.598 0.0569809 0.
0.600001 0.0569812 0.
0.602002 0.0569811 0.
0.604003 0.056981 0.
0.606004 0.056981 0.
0.608004 0.0569814 0.
0.610004 0.0569818 0.
0.612004 0.0569818 0.
0.614005 0.0569814 0.
0.616006 0.056981 0.
0.618006 0.0569809 0.
0.620007 0.0569809 0.
0.622007 0.0569809 0.
0.624008 0.0569807 0.
0.626008 0.0569805 0.
0.628008 0.0569804 0.
0.630009 0.0569807 0.
0.632009 0.0569809 0.
0.634009 0.0569812 0.
0.636009 0.0569817 0.
0.638009 0.0569821 0.
0.64001 0.0569821 0.
0.642011 0.0569818 0.
0.644011 0.0569815 0.
0.646012 0.056981 0.
0.648013 0.0569803 0.
0.650013 0.0569797 0.
0.652014 0.0569793 0.
0.654014 0.056979 0.
0.656014 0.0569787 0.
0.658015 0.0569788 0.
0.660015 0.0569789 0.
0.662016 0.0569792 0.
0.664017 0.0569798 0.
0.666018 0.0569803 0.
0.668019 0.056981 0.
0.670019 0.0569817 0.
0.672019 0.0569824 0.
0.674021 0.0569831 0.
0.676022 0.0569839 0.
0.678023 0.0569847 0.
0.680024 0.056986 0.
0.682025 0.0569873 0.
0.684026 0.0569887 0.
0.686027 0.05699 0.
0.688028 0.0569913 0.
0.690029 0.0569926 0.
0.69203 0.0569938 0.
0.694031 0.056995 0.
0.696032 0.0569974 0.
0.698033 0.0570001 0.
0.499971 0.0589971 0.
0.501972 0.0589954 0.
0.503973 0.0589932 0.
0.505974 0.0589914 0.
0.507975 0.0589904 0.
0.509975 0.0589894 0.
0.511976 0.0589883 0.
0.513977 0.0589871 0.
0.515978 0.0589859 0.
0.517979 0.0589845 0.
0.51998 0.0589829 0.
0.521981 0.0589814 0.
0.523982 0.0589812 0.
0.525984 0.0589811 0.
0.527985 0.0589809 0.
0.529985 0.0589801 0.
0.531986 0.0589793 0.
0.533986 0.0589787 0.
0.535987 0.0589787 0.
0.537988 0.0589786 0.
0.539989 0.0589787 0.
0.54199 0.0589788 0.
0.54399 0.058979 0.
0.545991 0.058979 0.
0.547991 0.058979 0.
0.549991 0.058979 0.
0.551992 0.0589794 0.
0.553992 0.0589797 0.
0.555992 0.05898 0.
0.557993 0.0589797 0.
0.559993 0.0589793 0.
0.561993 0.058979 0.
0.563994 0.0589787 0.
0.565995 0.0589784 0.
0.567995 0.0589784 0.
0.569995 0.0589785 0.
0.571995 0.0589787 0.
0.573995 0.058979 0.
0.575996 0.0589794 0.
0.577997 0.0589797 0.
0.579997 0.0589794 0.
0.581997 0.0589791 0.
0.583998 0.0589792 0.
0.585998 0.0589798 0.
0.587998 0.0589805 0.
0.589999 0.0589807 0.
0.591999 0.0589806 0.
0.594 0.0589805 0.
0.596 0.0589807 0.
0.598 0.0589811 0.
0.6 0.0589815 0.
0.602001 0.0589813 0.
0.604002 0.0589812 0.
0.606003 0.0589811 0.
0.608003 0.0589814 0.
0.610003 0.0589817 0.
0.612003 0.0589816 0.
0.614004 0.0589812 0.
0.616004 0.0589807 0.
0.618005 0.0589807 0.
0.620005 0.0589809 0.
0.622006 0.058981 0.
0.624006 0.0589806 0.
0.626006 0.05898 0.
0.628007 0.0589796 0.
0.630007 0.0589799 0.
0.632007 0.0589803 0.
0.634008 0.0589807 0.
0.636008 0.0589812 0.
0.638008 0.0589817 0.
0.640008 0.0589817 0.
0.642009 0.0589811 0.
0.64401 0.0589806 0.
0.646011 0.0589802 0.
0.648012 0.0589798 0.
0.650013 0.0589794 0.
0.652013 0.058979 0.
0.654012 0.0589785 0.
0.656012 0.0589781 0.
0.658013 0.0589778 0.
0.660013 0.0589775 0.
0.662014 0.0589777 0.
0.664015 0.0589786 0.
0.666016 0.0589795 0.
0.668017 0.0589802 0.
0.670017 0.0589807 0.
0.672018 0.0589813 0.
0.674019 0.058982 0.
0.67602 0.0589829 0.
0.678021 0.0589837 0.
0.680022 0.0589851 0.
0.682023 0.0589865 0.
0.684024 0.0589878 0.
0.686025 0.0589891 0.
0.688026 0.0589904 0.
0.690027 0.0589916 0.
0.692028 0.0589927 0.
0.694029 0.0589938 0.
0.69603 0.0589961 0.
0.69803 0.0589986 0.
0.499973 0.0609968 0.
0.501974 0.0609948 0.
0.503975 0.0609926 0.
0.505976 0.0609907 0.
0.507977 0.0609897 0.
0.509977 0.0609886 0.
0.511978 0.0609875 0.
0.513979 0.0609862 0.
0.51598 0.0609849 0.
0.517981 0.0609836 0.
0.519982 0.0609821 0.
0.521983 0.0609807 0.
0.523984 0.0609805 0.
0.525985 0.0609805 0.
0.527986 0.0609804 0.
0.529987 0.0609796 0.
0.531987 0.0609787 0.
0.533988 0.0609782 0.
0.535989 0.0609781 0.
0.53799 0.060978 0.
0.539991 0.0609781 0.
0.541991 0.0609783 0.
0.543992 0.0609785 0.
0.545992 0.0609786 0.
0.547992 0.0609786 0.
0.549993 0.0609787 0.
0.551993 0.0609792 0.
0.553994 0.0609796 0.
0.555994 0.0609799 0.
0.557994 0.0609796 0.
0.559994 0.0609793 0.
0.561994 0.060979 0.
0.563995 0.0609786 0.
0.565996 0.0609783 0.
0.567996 0.0609782 0.
0.569996 0.0609783 0.
0.571996 0.0609784 0.
0.573996 0.0609788 0.
0.575997 0.0609791 0.
0.577997 0.0609795 0.
0.579998 0.0609793 0.
0.581998 0.0609792 0.
0.583998 0.0609793 0.
0.585998 0.0609798 0.
0.587998 0.0609803 0.
0.589999 0.0609805 0.
0.591999 0.0609805 0.
0.594 0.0609805 0.
0.596 0.0609809 0.
0.598 0.0609814 0.
0.6 0.0609819 0.
0.602001 0.0609815 0.
0.604002 0.0609812 0.
0.606002 0.060981 0.
0.608002 0.0609812 0.
0.610002 0.0609814 0.
0.612002 0.0609814 0.
0.614003 0.0609809 0.
0.616003 0.0609805 0.
0.618004 0.0609805 0.
0.620004 0.0609808 0.
0.622005 0.060981 0.
0.624005 0.0609804 0.
0.626005 0.0609797 0.
0.628005 0.0609791 0.
0.630006 0.0609795 0.
0.632006 0.0609799 0.
0.634006 0.0609803 0.
0.636006 0.0609809 0.
0.638007 0.0609815 0.
0.640007 0.0609814 0.
0.642008 0.0609807 0.
0.644009 0.06098 0.
0.64601 0.0609796 0.
0.648011 0.0609794 0.
0.650011 0.0609791 0.
0.652011 0.0609786 0.
0.654011 0.060978 0.
0.656011 0.0609775 0.
0.658011 0.0609771 0.
0.660012 0.0609766 0.
0.662012 0.0609768 0.
0.664013 0.0609778 0.
0.666014 0.0609788 0.
0.668015 0.0609795 0.
0.670016 0.06098 0.
0.672016 0.0609805 0.
0.674017 0.0609813 0.
0.676018 0.0609821 0.
0.678019 0.0609829 0.
0.68002 0.0609843 0.
0.682021 0.0609856 0.
0.684022 0.0609869 0.
0.686023 0.0609882 0.
0.688024 0.0609896 0.
0.690025 0.0609908 0.
0.692026 0.0609921 0.
0.694027 0.0609933 0.
0.696027 0.0609955 0.
0.698028 0.0609979 0.
0.499976 0.0629971 0.
0.501976 0.0629947 0.
0.503977 0.0629922 0.
0.505978 0.06299 0.
0.507979 0.062989 0.
0.50998 0.062988 0.
0.51198 0.0629868 0.
0.513981 0.0629852 0.
0.515982 0.0629837 0.
0.517983 0.0629824 0.
0.519984 0.0629813 0.
0.521984 0.0629802 0.
0.523985 0.0629801 0.
0.525986 0.0629802 0.
0.527987 0.0629802 0.
0.529988 0.0629795 0.
0.531989 0.0629788 0.
0.53399 0.0629783 0.
0.53599 0.0629779 0.
0.537991 0.0629775 0.
0.539992 0.0629774 0.
0.541992 0.0629777 0.
0.543993 0.0629779 0.
0.545993 0.062978 0.
0.547994 0.0629781 0.
0.549994 0.0629782 0.
0.551995 0.0629788 0.
0.553995 0.0629794 0.
0.555995 0.0629799 0.
0.557995 0.0629797 0.
0.559995 0.0629796 0.
0.561995 0.0629793 0.
0.563995 0.062979 0.
0.565996 0.0629787 0.
0.567996 0.0629784 0.
0.569996 0.0629783 0.
0.571996 0.0629781 0.
0.573997 0.0629783 0.
0.575997 0.0629786 0.
0.577998 0.0629789 0.
0.579998 0.0629792 0.
0.581998 0.0629795 0.
0.583998 0.0629797 0.
0.585998 0.0629799 0.
0.587998 0.0629801 0.
0.589999 0.0629802 0.
0.591999 0.0629804 0.
0.593999 0.0629806 0.
0.595999 0.0629811 0.
0.597999 0.0629817 0.
0.6 0.0629824 0.
0.602 0.0629817 0.
0.604001 0.0629811 0.
0.606001 0.0629807 0.
0.608002 0.0629808 0.
0.610002 0.062981 0.
0.612002 0.062981 0.
0.614002 0.0629807 0.
0.616003 0.0629804 0.
0.618003 0.0629804 0.
0.620004 0.0629806 0.
0.622004 0.0629808 0.
0.624004 0.0629802 0.
0.626004 0.0629796 0.
0.628005 0.062979 0.
0.630005 0.0629794 0.
0.632005 0.0629797 0.
0.634005 0.0629801 0.
0.636005 0.0629808 0.
0.638006 0.0629814 0.
0.640006 0.0629812 0.
0.642007 0.0629804 0.
0.644008 0.0629795 0.
0.646008 0.0629792 0.
0.648009 0.062979 0.
0.650009 0.0629789 0.
0.652009 0.0629781 0.
0.654009 0.0629774 0.
0.65601 0.0629768 0.
0.65801 0.0629765 0.
0.66001 0.0629763 0.
0.662011 0.0629765 0.
0.664012 0.0629774 0.
0.666013 0.0629782 0.
0.668013 0.0629789 0.
0.670014 0.0629796 0.
0.672015 0.0629802 0.
0.674016 0.0629809 0.
0.676017 0.0629816 0.
0.678018 0.0629824 0.
0.680018 0.0629834 0.
0.682019 0.0629845 0.
0.68402 0.0629857 0.
0.686021 0.0629873 0.
0.688022 0.0629888 0.
0.690023 0.0629903 0.
0.692024 0.0629919 0.
0.694024 0.0629934 0.
0.696025 0.0629956 0.
0.698026 0.0629979 0.
0.499978 0.0649971 0.
0.501979 0.0649945 0.
0.50398 0.0649917 0.
0.50598 0.0649893 0.
0.507981 0.0649884 0.
0.509982 0.0649874 0.
0.511982 0.0649861 0.
0.513983 0.0649843 0.
0.515984 0.0649824 0.
0.517984 0.0649813 0.
0.519985 0.0649805 0.
0.521986 0.0649797 0.
0.523987 0.0649798 0.
0.525988 0.0649799 0.
0.527989 0.06498 0.
0.529989 0.0649795 0.
0.53199 0.0649789 0.
0.533991 0.0649784 0.
0.535992 0.0649777 0.
0.537993 0.064977 0.
0.539993 0.0649768 0.
0.541993 0.0649771 0.
0.543994 0.0649773 0.
0.545994 0.0649775 0.
0.547995 0.0649776 0.
0.549996 0.0649777 0.
0.551996 0.0649785 0.
0.553997 0.0649793 0.
0.555997 0.0649799 0.
0.557996 0.0649798 0.
0.559996 0.0649798 0.
0.561996 0.0649797 0.
0.563996 0.0649794 0.
0.565996 0.064979 0.
0.567996 0.0649786 0.
0.569996 0.0649782 0.
0.571996 0.0649778 0.
0.573997 0.0649779 0.
0.575997 0.064978 0.
0.577998 0.0649783 0.
0.579998 0.064979 0.
0.581998 0.0649797 0.
0.583998 0.0649802 0.
0.585998 0.06498 0.
0.587998 0.0649799 0.
0.589998 0.06498 0.
0.591998 0.0649803 0.
0.593998 0.0649806 0.
0.595999 0.0649813 0.
0.597999 0.0649821 0.
0.599999 0.0649828 0.
0.602 0.0649819 0.
0.604 0.064981 0.
0.606 0.0649803 0.
0.608001 0.0649805 0.
0.610002 0.0649806 0.
0.612002 0.0649806 0.
0.614002 0.0649805 0.
0.616002 0.0649803 0.
0.618003 0.0649803 0.
0.620003 0.0649805 0.
0.622003 0.0649806 0.
0.624004 0.0649801 0.
0.626004 0.0649795 0.
0.628004 0.064979 0.
0.630004 0.0649792 0.
0.632004 0.0649795 0.
0.634004 0.06498 0.
0.636005 0.0649806 0.
0.638005 0.0649813 0.
0.640005 0.0649811 0.
0.642006 0.0649801 0.
0.644006 0.0649791 0.
0.646007 0.0649788 0.
0.648007 0.0649787 0.
0.650007 0.0649786 0.
0.652008 0.0649777 0.
0.654008 0.0649768 0.
0.656008 0.0649761 0.
0.658008 0.064976 0.
0.660008 0.0649759 0.
0.662009 0.0649762 0.
0.66401 0.0649769 0.
0.666011 0.0649777 0.
0.668012 0.0649784 0.
0.670013 0.0649792 0.
0.672014 0.0649799 0.
0.674015 0.0649805 0.
0.676016 0.0649811 0.
0.678016 0.0649818 0.
0.680017 0.0649826 0.
0.682017 0.0649835 0.
0.684018 0.0649846 0.
0.686019 0.0649863 0.
0.68802 0.0649881 0.
0.690021 0.0649898 0.
0.692021 0.0649917 0.
0.694022 0.0649935 0.
0.696023 0.0649957 0.
0.698024 0.064998 0.
0.49998 0.0669956 0.
0.501981 0.0669935 0.
0.503982 0.0669911 0.
0.505982 0.066989 0.
0.507983 0.0669879 0.
0.509984 0.0669868 0.
0.511984 0.0669855 0.
0.513985 0.0669839 0.
0.515985 0.0669824 0.
0.517986 0.0669811 0.
0.519987 0.0669801 0.
0.521987 0.0669791 0.
0.523988 0.066979 0.
0.525989 0.066979 0.
0.52799 0.066979 0.
0.529991 0.0669784 0.
0.531991 0.0669777 0.
0.533992 0.0669772 0.
0.535993 0.0669768 0.
0.537993 0.0669765 0.
0.539994 0.0669764 0.
0.541994 0.0669766 0.
0.543995 0.0669768 0.
0.545995 0.0669769 0.
0.547996 0.0669768 0.
0.549997 0.0669768 0.
0.551997 0.0669778 0.
0.553997 0.0669788 0.
0.555998 0.0669796 0.
0.557997 0.0669794 0.
0.559997 0.0669792 0.
0.561997 0.0669791 0.
0.563997 0.0669789 0.
0.565998 0.0669787 0.
0.567998 0.0669785 0.
0.569998 0.0669784 0.
0.571998 0.0669783 0.
0.573998 0.0669784 0.
0.575998 0.0669786 0.
0.577998 0.0669788 0.
0.579998 0.0669794 0.
0.581998 0.06698 0.
0.583998 0.0669803 0.
0.585998 0.0669802 0.
0.587999 0.0669801 0.
0.589998 0.0669801 0.
0.591998 0.0669804 0.
0.593998 0.0669806 0.
0.595999 0.066981 0.
0.597999 0.0669813 0.
0.599999 0.0669817 0.
0.602 0.0669812 0.
0.604 0.0669808 0.
0.606001 0.0669804 0.
0.608001 0.0669805 0.
0.610002 0.0669806 0.
0.612002 0.0669805 0.
0.614002 0.0669803 0.
0.616002 0.0669801 0.
0.618002 0.0669801 0.
0.620002 0.0669802 0.
0.622003 0.0669803 0.
0.624003 0.0669799 0.
0.626003 0.0669794 0.
0.628003 0.0669789 0.
0.630002 0.066979 0.
0.632002 0.066979 0.
0.634003 0.0669792 0.
0.636003 0.0669796 0.
0.638004 0.0669801 0.
0.640005 0.0669799 0.
0.642005 0.0669792 0.
0.644006 0.0669785 0.
0.646006 0.0669781 0.
0.648006 0.0669777 0.
0.650006 0.0669773 0.
0.652006 0.0669766 0.
0.654007 0.0669759 0.
0.656007 0.0669753 0.
0.658007 0.0669752 0.
0.660007 0.066975 0.
0.662008 0.0669751 0.
0.664009 0.0669756 0.
0.66601 0.066976 0.
0.66801 0.0669768 0.
0.670011 0.0669776 0.
0.672012 0.0669785 0.
0.674013 0.0669794 0.
0.676014 0.0669802 0.
0.678015 0.0669811 0.
0.680015 0.0669821 0.
0.682016 0.0669831 0.
0.684017 0.0669843 0.
0.686018 0.066986 0.
0.688018 0.0669877 0.
0.690019 0.0669893 0.
0.692019 0.066991 0.
0.69402 0.0669927 0.
0.696021 0.0669947 0.
0.698021 0.0669968 0.
0.499982 0.0689941 0.
0.501983 0.0689924 0.
0.503984 0.0689905 0.
0.505984 0.0689887 0.
0.507985 0.0689874 0.
0.509985 0.0689861 0.
0.511986 0.0689848 0.
0.513986 0.0689835 0.
0.515987 0.0689823 0.
0.517988 0.068981 0.
0.519988 0.0689797 0.
0.521989 0.0689785 0.
0.52399 0.0689782 0.
0.52599 0.0689781 0.
0.527991 0.068978 0.
0.529992 0.0689772 0.
0.531992 0.0689765 0.
0.533993 0.068976 0.
0.535994 0.068976 0.
0.537994 0.068976 0.
0.539995 0.068976 0.
0.541995 0.0689762 0.
0.543996 0.0689763 0.
0.545996 0.0689762 0.
0.547997 0.0689761 0.
0.549997 0.0689759 0.
0.551998 0.0689771 0.
0.553998 0.0689784 0.
0.555998 0.0689793 0.
0.557998 0.068979 0.
0.559999 0.0689786 0.
0.561999 0.0689784 0.
0.563999 0.0689784 0.
0.565999 0.0689783 0.
0.567999 0.0689784 0.
0.569999 0.0689786 0.
0.571999 0.0689787 0.
0.573999 0.0689789 0.
0.575999 0.0689791 0.
0.577999 0.0689794 0.
0.579999 0.0689798 0.
0.581999 0.0689802 0.
0.583998 0.0689805 0.
0.585999 0.0689803 0.
0.587999 0.0689802 0.
0.589999 0.0689803 0.
0.591998 0.0689805 0.
0.593998 0.0689807 0.
0.595999 0.0689807 0.
0.597999 0.0689806 0.
0.6 0.0689805 0.
0.602 0.0689805 0.
0.604 0.0689805 0.
0.606001 0.0689805 0.
0.608001 0.0689806 0.
0.610002 0.0689806 0.
0.612002 0.0689805 0.
0.614002 0.0689802 0.
0.616002 0.0689799 0.
0.618002 0.0689799 0.
0.620002 0.0689799 0.
0.622002 0.06898 0.
0.624002 0.0689797 0.
0.626001 0.0689792 0.
0.628001 0.0689789 0.
0.630001 0.0689787 0.
0.632001 0.0689785 0.
0.634001 0.0689785 0.
0.636002 0.0689786 0.
0.638003 0.0689788 0.
0.640004 0.0689787 0.
0.642004 0.0689783 0.
0.644005 0.068978 0.
0.646005 0.0689773 0.
0.648005 0.0689766 0.
0.650005 0.0689759 0.
0.652005 0.0689755 0.
0.654005 0.068975 0.
0.656006 0.0689746 0.
0.658006 0.0689744 0.
0.660006 0.0689741 0.
0.662007 0.0689741 0.
0.664008 0.0689742 0.
0.666008 0.0689744 0.
0.668009 0.0689751 0.
0.67001 0.0689761 0.
0.67201 0.0689771 0.
0.674011 0.0689782 0.
0.676012 0.0689793 0.
0.678013 0.0689804 0.
0.680014 0.0689815 0.
0.682015 0.0689826 0.
0.684015 0.0689839 0.
0.686016 0.0689856 0.
0.688017 0.0689873 0.
0.690017 0.0689888 0.
0.692017 0.0689903 0.
0.694018 0.0689918 0.
0.696018 0.0689937 0.
0.698019 0.0689956 0.
0.499984 0.0709932 0.
0.501985 0.0709917 0.
0.503985 0.07099 0.
0.505986 0.0709883 0.
0.507987 0.070987 0.
0.509987 0.0709857 0.
0.511988 0.0709844 0.
0.513988 0.0709832 0.
0.515989 0.0709819 0.
0.517989 0.0709806 0.
0.51999 0.0709793 0.
0.52199 0.0709779 0.
0.523991 0.0709776 0.
0.525992 0.0709774 0.
0.527993 0.0709772 0.
0.529993 0.0709764 0.
0.531994 0.0709756 0.
0.533994 0.0709751 0.
0.535995 0.0709752 0.
0.537995 0.0709753 0.
0.539996 0.0709754 0.
0.541996 0.0709756 0.
0.543997 0.0709757 0.
0.545997 0.0709756 0.
0.547997 0.0709755 0.
0.549998 0.0709753 0.
0.551998 0.0709767 0.
0.553999 0.070978 0.
0.555999 0.0709789 0.
0.557999 0.0709786 0.
0.56 0.0709784 0.
0.562 0.0709782 0.
0.564 0.0709783 0.
0.566 0.0709784 0.
0.568 0.0709786 0.
0.57 0.0709789 0.
0.571999 0.0709793 0.
0.573999 0.0709795 0.
0.576 0.0709798 0.
0.578 0.07098 0.
0.579999 0.0709803 0.
0.581999 0.0709806 0.
0.583998 0.0709807 0.
0.585998 0.0709806 0.
0.587998 0.0709805 0.
0.589998 0.0709805 0.
0.591998 0.0709806 0.
0.593998 0.0709807 0.
0.595999 0.0709806 0.
0.597999 0.0709803 0.
0.6 0.07098 0.
0.602 0.0709802 0.
0.604 0.0709804 0.
0.606001 0.0709806 0.
0.608001 0.0709805 0.
0.610002 0.0709805 0.
0.612002 0.0709803 0.
0.614001 0.0709801 0.
0.616001 0.0709799 0.
0.618001 0.07098 0.
0.620001 0.0709801 0.
0.622001 0.0709802 0.
0.624001 0.0709799 0.
0.626001 0.0709795 0.
0.628 0.0709791 0.
0.63 0.0709788 0.
0.632 0.0709785 0.
0.634 0.0709782 0.
0.636001 0.0709782 0.
0.638002 0.0709781 0.
0.640003 0.070978 0.
0.642003 0.0709777 0.
0.644004 0.0709775 0.
0.646004 0.0709768 0.
0.648004 0.070976 0.
0.650003 0.0709751 0.
0.652004 0.0709748 0.
0.654004 0.0709745 0.
0.656004 0.0709741 0.
0.658005 0.0709738 0.
0.660005 0.0709734 0.
0.662006 0.0709732 0.
0.664007 0.0709732 0.
0.666007 0.0709733 0.
0.668008 0.070974 0.
0.670008 0.0709751 0.
0.672008 0.0709762 0.
0.674009 0.0709774 0.
0.67601 0.0709785 0.
0.678011 0.0709797 0.
0.680012 0.0709809 0.
0.682013 0.0709821 0.
0.684014 0.0709835 0.
0.686014 0.0709852 0.
0.688015 0.0709868 0.
0.690015 0.0709884 0.
0.692015 0.0709897 0.
0.694016 0.0709911 0.
0.696017 0.0709929 0.
0.698017 0.0709947 0.
0.499985 0.0729931 0.
0.501986 0.0729915 0.
0.503987 0.0729896 0.
0.505988 0.0729878 0.
0.507989 0.0729867 0.
0.509989 0.0729855 0.
0.51199 0.0729842 0.
0.51399 0.0729827 0.
0.51599 0.0729813 0.
0.517991 0.07298 0.
0.519991 0.0729787 0.
0.521992 0.0729774 0.
0.523992 0.0729771 0.
0.525993 0.0729769 0.
0.527994 0.0729766 0.
0.529994 0.0729757 0.
0.531995 0.0729748 0.
0.533995 0.0729743 0.
0.535996 0.0729744 0.
0.537996 0.0729744 0.
0.539997 0.0729746 0.
0.541997 0.0729748 0.
0.543998 0.072975 0.
0.545998 0.0729751 0.
0.547998 0.0729751 0.
0.549998 0.0729751 0.
0.551999 0.0729763 0.
0.554 0.0729776 0.
0.556 0.0729785 0.
0.558 0.0729784 0.
0.560001 0.0729784 0.
0.562001 0.0729784 0.
0.564001 0.0729786 0.
0.566001 0.0729788 0.
0.568001 0.0729792 0.
0.57 0.0729795 0.
0.572 0.0729799 0.
0.574 0.0729802 0.
0.576 0.0729804 0.
0.578 0.0729807 0.
0.579999 0.0729809 0.
0.581998 0.072981 0.
0.583998 0.0729811 0.
0.585998 0.0729809 0.
0.587998 0.0729808 0.
0.589998 0.0729808 0.
0.591998 0.0729808 0.
0.593998 0.0729809 0.
0.595999 0.0729807 0.
0.597999 0.0729804 0.
0.599999 0.0729802 0.
0.602 0.0729803 0.
0.604 0.0729805 0.
0.606 0.0729806 0.
0.608001 0.0729804 0.
0.610001 0.0729801 0.
0.612001 0.07298 0.
0.614001 0.0729801 0.
0.616001 0.0729802 0.
0.618001 0.0729804 0.
0.620001 0.0729807 0.
0.622 0.0729809 0.
0.624 0.0729806 0.
0.626 0.0729802 0.
0.628 0.0729797 0.
0.63 0.0729793 0.
0.632 0.0729789 0.
0.634 0.0729785 0.
0.636001 0.0729782 0.
0.638001 0.072978 0.
0.640002 0.0729777 0.
0.642002 0.0729775 0.
0.644002 0.0729772 0.
0.646002 0.0729765 0.
0.648002 0.0729757 0.
0.650003 0.0729748 0.
0.652003 0.0729745 0.
0.654003 0.0729742 0.
0.656003 0.0729738 0.
0.658004 0.0729733 0.
0.660005 0.0729728 0.
0.662005 0.0729726 0.
0.664006 0.0729726 0.
0.666006 0.0729727 0.
0.668007 0.0729735 0.
0.670007 0.0729746 0.
0.672007 0.0729757 0.
0.674008 0.0729768 0.
0.676009 0.0729779 0.
0.678009 0.072979 0.
0.68001 0.0729802 0.
0.682011 0.0729815 0.
0.684012 0.0729829 0.
0.686012 0.0729846 0.
0.688013 0.0729864 0.
0.690013 0.0729879 0.
0.692014 0.0729892 0.
0.694014 0.0729905 0.
0.696015 0.0729923 0.
0.698016 0.0729942 0.
0.499986 0.074993 0.
0.501987 0.0749913 0.
0.503988 0.0749892 0.
0.505989 0.0749873 0.
0.50799 0.0749863 0.
0.509991 0.0749852 0.
0.511992 0.0749839 0.
0.513992 0.0749823 0.
0.515992 0.0749807 0.
0.517992 0.0749793 0.
0.519993 0.0749781 0.
0.521993 0.0749769 0.
0.523994 0.0749766 0.
0.525994 0.0749763 0.
0.527995 0.074976 0.
0.529996 0.074975 0.
0.531996 0.0749741 0.
0.533997 0.0749735 0.
0.535997 0.0749736 0.
0.537998 0.0749736 0.
0.539998 0.0749738 0.
0.541999 0.074974 0.
0.543999 0.0749742 0.
0.545999 0.0749745 0.
0.547999 0.0749747 0.
0.549999 0.0749749 0.
0.552 0.074976 0.
0.554 0.0749772 0.
0.556001 0.0749781 0.
0.558001 0.0749783 0.
0.560002 0.0749784 0.
0.562002 0.0749787 0.
0.564002 0.074979 0.
0.566002 0.0749793 0.
0.568001 0.0749797 0.
0.570001 0.0749801 0.
0.572 0.0749805 0.
0.574 0.0749808 0.
0.576 0.0749811 0.
0.578 0.0749814 0.
0.579999 0.0749814 0.
0.581998 0.0749814 0.
0.583998 0.0749814 0.
0.585998 0.0749813 0.
0.587998 0.0749812 0.
0.589998 0.0749811 0.
0.591998 0.074981 0.
0.593999 0.074981 0.
0.595999 0.0749808 0.
0.597999 0.0749806 0.
0.599999 0.0749803 0.
0.601999 0.0749805 0.
0.604 0.0749806 0.
0.606 0.0749806 0.
0.608 0.0749802 0.
0.610001 0.0749798 0.
0.612001 0.0749797 0.
0.614001 0.0749801 0.
0.616001 0.0749805 0.
0.618001 0.0749809 0.
0.62 0.0749812 0.
0.622 0.0749816 0.
0.624 0.0749813 0.
0.626 0.0749808 0.
0.628 0.0749803 0.
0.63 0.0749798 0.
0.632 0.0749793 0.
0.634 0.0749788 0.
0.636 0.0749783 0.
0.638 0.0749778 0.
0.640001 0.0749774 0.
0.642001 0.0749772 0.
0.644001 0.0749769 0.
0.646001 0.0749762 0.
0.648001 0.0749754 0.
0.650002 0.0749746 0.
0.652002 0.0749742 0.
0.654002 0.0749739 0.
0.656002 0.0749735 0.
0.658003 0.0749729 0.
0.660004 0.0749722 0.
0.662005 0.0749719 0.
0.664005 0.074972 0.
0.666005 0.0749722 0.
0.668006 0.074973 0.
0.670006 0.0749741 0.
0.672006 0.0749753 0.
0.674007 0.0749763 0.
0.676007 0.0749773 0.
0.678008 0.0749783 0.
0.680008 0.0749796 0.
0.682009 0.0749808 0.
0.684009 0.0749823 0.
0.68601 0.0749841 0.
0.688011 0.074986 0.
0.690011 0.0749875 0.
0.692012 0.0749887 0.
0.694013 0.0749899 0.
0.696013 0.0749917 0.
0.698014 0.0749937 0.
0.499989 0.0769919 0.
0.501989 0.0769903 0.
0.50399 0.0769883 0.
0.505991 0.0769866 0.
0.507992 0.0769855 0.
0.509992 0.0769844 0.
0.511993 0.0769831 0.
0.513993 0.0769816 0.
0.515994 0.07698 0.
0.517994 0.0769787 0.
0.519994 0.0769773 0.
0.521995 0.076976 0.
0.523995 0.0769757 0.
0.525996 0.0769756 0.
0.527996 0.0769753 0.
0.529997 0.0769744 0.
0.531997 0.0769735 0.
0.533998 0.0769729 0.
0.535998 0.0769731 0.
0.537998 0.0769732 0.
0.539999 0.0769734 0.
0.541999 0.0769736 0.
0.543999 0.0769739 0.
0.545999 0.0769742 0.
0.547999 0.0769745 0.
0.55 0.0769748 0.
0.552 0.0769758 0.
0.554001 0.0769768 0.
0.556001 0.0769776 0.
0.558001 0.0769779 0.
0.560001 0.0769782 0.
0.562001 0.0769784 0.
0.564001 0.0769787 0.
0.566001 0.076979 0.
0.568001 0.0769794 0.
0.570001 0.07698 0.
0.572001 0.0769805 0.
0.574001 0.0769809 0.
0.576 0.0769813 0.
0.578 0.0769816 0.
0.58 0.0769816 0.
0.581999 0.0769815 0.
0.583999 0.0769815 0.
0.585999 0.0769814 0.
0.587999 0.0769814 0.
0.589999 0.0769813 0.
0.591999 0.0769812 0.
0.593999 0.0769811 0.
0.595999 0.0769809 0.
0.597999 0.0769807 0.
0.6 0.0769805 0.
0.602 0.0769805 0.
0.604 0.0769805 0.
0.606 0.0769804 0.
0.608 0.0769802 0.
0.61 0.07698 0.
0.612 0.07698 0.
0.614 0.0769802 0.
0.616 0.0769804 0.
0.618 0.0769808 0.
0.62 0.0769812 0.
0.622 0.0769816 0.
0.624 0.0769811 0.
0.626 0.0769805 0.
0.628 0.0769799 0.
0.63 0.0769793 0.
0.632 0.0769786 0.
0.634 0.0769781 0.
0.636001 0.0769777 0.
0.638001 0.0769773 0.
0.640001 0.076977 0.
0.642001 0.0769769 0.
0.644001 0.0769767 0.
0.646001 0.076976 0.
0.648001 0.0769752 0.
0.650001 0.0769744 0.
0.652001 0.0769739 0.
0.654002 0.0769734 0.
0.656002 0.0769728 0.
0.658002 0.0769723 0.
0.660003 0.0769718 0.
0.662004 0.0769715 0.
0.664004 0.0769715 0.
0.666004 0.0769716 0.
0.668004 0.0769724 0.
0.670005 0.0769737 0.
0.672005 0.0769749 0.
0.674005 0.0769758 0.
0.676006 0.0769765 0.
0.678006 0.0769773 0.
0.680007 0.0769789 0.
0.682007 0.0769804 0.
0.684008 0.076982 0.
0.686008 0.0769837 0.
0.688009 0.0769854 0.
0.69001 0.0769868 0.
0.69201 0.0769878 0.
0.694011 0.0769889 0.
0.696012 0.0769906 0.
0.698013 0.0769925 0.
0.499992 0.0789907 0.
0.501992 0.0789892 0.
0.503992 0.0789874 0.
0.505992 0.0789858 0.
0.507993 0.0789847 0.
0.509994 0.0789836 0.
0.511994 0.0789823 0.
0.513995 0.0789809 0.
0.515995 0.0789794 0.
0.517995 0.078978 0.
0.519996 0.0789766 0.
0.521997 0.0789751 0.
0.523997 0.0789749 0.
0.525997 0.0789749 0.
0.527998 0.0789747 0.
0.529998 0.0789737 0.
0.531998 0.0789728 0.
0.533999 0.0789723 0.
0.535999 0.0789725 0.
0.537999 0.0789728 0.
0.539999 0.0789731 0.
0.541999 0.0789733 0.
0.543999 0.0789735 0.
0.545999 0.0789739 0.
0.548 0.0789743 0.
0.55 0.0789747 0.
0.552 0.0789755 0.
0.554001 0.0789764 0.
0.556001 0.0789772 0.
0.558001 0.0789775 0.
0.560001 0.0789779 0.
0.562001 0.0789782 0.
0.564001 0.0789784 0.
0.566001 0.0789786 0.
0.568001 0.0789792 0.
0.570001 0.0789799 0.
0.572001 0.0789806 0.
0.574001 0.0789811 0.
0.576001 0.0789815 0.
0.578001 0.0789818 0.
0.580001 0.0789817 0.
0.582 0.0789816 0.
0.584 0.0789815 0.
0.586 0.0789815 0.
0.588 0.0789816 0.
0.59 0.0789815 0.
0.592 0.0789814 0.
0.593999 0.0789813 0.
0.596 0.0789811 0.
0.598 0.0789808 0.
0.6 0.0789806 0.
0.602 0.0789805 0.
0.604 0.0789803 0.
0.606 0.0789802 0.
0.608 0.0789802 0.
0.61 0.0789802 0.
0.612 0.0789802 0.
0.613999 0.0789803 0.
0.615999 0.0789804 0.
0.617999 0.0789807 0.
0.619999 0.0789811 0.
0.621999 0.0789816 0.
0.623999 0.078981 0.
0.626 0.0789802 0.
0.628 0.0789794 0.
0.63 0.0789787 0.
0.632 0.078978 0.
0.634001 0.0789774 0.
0.636001 0.0789771 0.
0.638001 0.0789768 0.
0.640001 0.0789767 0.
0.642001 0.0789765 0.
0.644001 0.0789764 0.
0.646001 0.0789758 0.
0.648001 0.078975 0.
0.650001 0.0789741 0.
0.652001 0.0789735 0.
0.654001 0.0789728 0.
0.656001 0.0789722 0.
0.658002 0.0789717 0.
0.660002 0.0789713 0.
0.662002 0.078971 0.
0.664002 0.078971 0.
0.666003 0.078971 0.
0.668003 0.0789719 0.
0.670003 0.0789732 0.
0.672004 0.0789746 0.
0.674004 0.0789752 0.
0.676004 0.0789757 0.
0.678004 0.0789763 0.
0.680005 0.0789782 0.
0.682005 0.07898 0.
0.684006 0.0789817 0.
0.686007 0.0789833 0.
0.688007 0.0789848 0.
0.690008 0.078986 0.
0.692009 0.078987 0.
0.69401 0.0789879 0.
0.696011 0.0789895 0.
0.698012 0.0789914 0.
0.499994 0.0809902 0.
0.501994 0.0809885 0.
0.503994 0.0809867 0.
0.505994 0.0809851 0.
0.507994 0.0809839 0.
0.509995 0.0809827 0.
0.511995 0.0809815 0.
0.513996 0.0809801 0.
0.515996 0.0809787 0.
0.517997 0.0809774 0.
0.519997 0.0809761 0.
0.521998 0.0809748 0.
0.523998 0.0809745 0.
0.525998 0.0809744 0.
0.527998 0.0809741 0.
0.529999 0.0809732 0.
0.531999 0.0809722 0.
0.533999 0.0809717 0.
0.535999 0.080972 0.
0.538 0.0809723 0.
0.54 0.0809726 0.
0.542 0.0809729 0.
0.543999 0.0809732 0.
0.546 0.0809736 0.
0.548 0.080974 0.
0.550001 0.0809744 0.
0.552001 0.0809752 0.
0.554001 0.0809761 0.
0.556001 0.0809769 0.
0.558001 0.0809773 0.
0.560001 0.0809778 0.
0.562001 0.0809781 0.
0.564001 0.0809783 0.
0.566001 0.0809785 0.
0.568001 0.0809791 0.
0.570001 0.0809799 0.
0.572001 0.0809808 0.
0.574001 0.0809812 0.
0.576001 0.0809816 0.
0.578001 0.080982 0.
0.580001 0.0809818 0.
0.582001 0.0809817 0.
0.584001 0.0809816 0.
0.586 0.0809816 0.
0.588 0.0809816 0.
0.59 0.0809816 0.
0.592 0.0809815 0.
0.594 0.0809815 0.
0.596 0.0809814 0.
0.598 0.0809812 0.
0.6 0.080981 0.
0.602 0.0809807 0.
0.604 0.0809804 0.
0.605999 0.0809802 0.
0.607999 0.0809803 0.
0.609999 0.0809804 0.
0.611999 0.0809805 0.
0.613999 0.0809805 0.
0.615999 0.0809805 0.
0.617999 0.0809808 0.
0.619999 0.0809811 0.
0.621999 0.0809815 0.
0.623999 0.0809808 0.
0.626 0.08098 0.
0.628 0.0809792 0.
0.63 0.0809784 0.
0.632 0.0809776 0.
0.634 0.0809769 0.
0.636001 0.0809766 0.
0.638001 0.0809764 0.
0.640001 0.0809762 0.
0.642001 0.0809761 0.
0.644001 0.080976 0.
0.646001 0.0809754 0.
0.648 0.0809747 0.
0.65 0.080974 0.
0.652 0.0809732 0.
0.654001 0.0809724 0.
0.656001 0.0809717 0.
0.658001 0.0809713 0.
0.660001 0.0809709 0.
0.662001 0.0809707 0.
0.664001 0.0809707 0.
0.666002 0.0809707 0.
0.668002 0.0809716 0.
0.670002 0.0809728 0.
0.672002 0.0809741 0.
0.674003 0.0809746 0.
0.676003 0.080975 0.
0.678003 0.0809755 0.
0.680004 0.0809774 0.
0.682004 0.0809793 0.
0.684005 0.0809811 0.
0.686005 0.0809826 0.
0.688006 0.0809841 0.
0.690007 0.0809853 0.
0.692007 0.0809861 0.
0.694008 0.080987 0.
0.696009 0.0809887 0.
0.69801 0.0809906 0.
0.499994 0.0829901 0.
0.501995 0.0829882 0.
0.503995 0.0829862 0.
0.505995 0.0829844 0.
0.507996 0.0829831 0.
0.509996 0.0829818 0.
0.511997 0.0829805 0.
0.513997 0.0829793 0.
0.515997 0.082978 0.
0.517998 0.0829769 0.
0.519998 0.082976 0.
0.521998 0.082975 0.
0.523999 0.0829745 0.
0.525999 0.0829741 0.
0.527999 0.0829736 0.
0.529999 0.0829727 0.
0.531999 0.0829717 0.
0.533999 0.0829712 0.
0.536 0.0829714 0.
0.538 0.0829717 0.
0.54 0.082972 0.
0.542 0.0829725 0.
0.544 0.0829729 0.
0.546001 0.0829733 0.
0.548001 0.0829736 0.
0.550002 0.0829739 0.
0.552002 0.0829748 0.
0.554002 0.0829758 0.
0.556002 0.0829766 0.
0.558002 0.0829772 0.
0.560001 0.0829778 0.
0.562001 0.0829782 0.
0.564001 0.0829784 0.
0.566001 0.0829785 0.
0.568001 0.0829792 0.
0.570001 0.0829801 0.
0.572001 0.082981 0.
0.574001 0.0829814 0.
0.576001 0.0829818 0.
0.578001 0.0829821 0.
0.58 0.0829819 0.
0.582 0.0829818 0.
0.584 0.0829816 0.
0.586 0.0829815 0.
0.588 0.0829814 0.
0.59 0.0829815 0.
0.592 0.0829817 0.
0.594 0.0829819 0.
0.596 0.0829818 0.
0.598 0.0829817 0.
0.6 0.0829815 0.
0.602 0.0829812 0.
0.603999 0.0829808 0.
0.605999 0.0829805 0.
0.607999 0.0829806 0.
0.609999 0.0829807 0.
0.611999 0.0829808 0.
0.613999 0.0829809 0.
0.615999 0.082981 0.
0.617999 0.0829811 0.
0.619999 0.0829811 0.
0.621999 0.0829812 0.
0.623999 0.0829806 0.
0.625999 0.0829799 0.
0.628 0.0829792 0.
0.63 0.0829783 0.
0.631999 0.0829775 0.
0.633999 0.0829768 0.
0.636 0.0829763 0.
0.638 0.0829759 0.
0.64 0.0829756 0.
0.642 0.0829755 0.
0.644 0.0829754 0.
0.646 0.0829749 0.
0.648 0.0829744 0.
0.65 0.0829739 0.
0.652 0.082973 0.
0.654 0.0829722 0.
0.656 0.0829714 0.
0.658 0.082971 0.
0.66 0.0829706 0.
0.662 0.0829705 0.
0.664001 0.0829706 0.
0.666001 0.0829708 0.
0.668001 0.0829715 0.
0.670001 0.0829725 0.
0.672002 0.0829735 0.
0.674002 0.082974 0.
0.676002 0.0829744 0.
0.678002 0.082975 0.
0.680003 0.0829767 0.
0.682003 0.0829785 0.
0.684003 0.0829802 0.
0.686004 0.0829817 0.
0.688004 0.0829832 0.
0.690005 0.0829844 0.
0.692005 0.0829854 0.
0.694006 0.0829863 0.
0.696007 0.0829882 0.
0.698007 0.0829903 0.
0.499995 0.08499 0.
0.501996 0.0849879 0.
0.503996 0.0849857 0.
0.505997 0.0849837 0.
0.507997 0.0849823 0.
0.509998 0.0849809 0.
0.511998 0.0849796 0.
0.513998 0.0849784 0.
0.515998 0.0849772 0.
0.517999 0.0849765 0.
0.519999 0.0849758 0.
0.521999 0.0849752 0.
0.523999 0.0849746 0.
0.525999 0.0849739 0.
0.527999 0.0849732 0.
0.529999 0.0849722 0.
0.531999 0.0849713 0.
0.534 0.0849707 0.
0.536 0.0849709 0.
0.538 0.084971 0.
0.540001 0.0849715 0.
0.542001 0.084972 0.
0.544001 0.0849726 0.
0.546002 0.0849729 0.
0.548002 0.0849732 0.
0.550003 0.0849734 0.
0.552003 0.0849744 0.
0.554003 0.0849754 0.
0.556002 0.0849764 0.
0.558002 0.0849771 0.
0.560002 0.0849778 0.
0.562002 0.0849783 0.
0.564002 0.0849784 0.
0.566002 0.0849786 0.
0.568001 0.0849793 0.
0.570001 0.0849803 0.
0.572001 0.0849812 0.
0.574001 0.0849816 0.
0.576001 0.0849819 0.
0.578 0.0849822 0.
0.58 0.084982 0.
0.582 0.0849818 0.
0.584 0.0849816 0.
0.586 0.0849814 0.
0.588 0.0849812 0.
0.59 0.0849813 0.
0.592 0.0849818 0.
0.593999 0.0849823 0.
0.595999 0.0849823 0.
0.597999 0.0849822 0.
0.599999 0.0849821 0.
0.601999 0.0849816 0.
0.603999 0.0849812 0.
0.605999 0.0849808 0.
0.607999 0.0849809 0.
0.609999 0.084981 0.
0.611999 0.0849811 0.
0.613999 0.0849813 0.
0.615999 0.0849815 0.
0.617999 0.0849814 0.
0.619999 0.0849812 0.
0.621999 0.084981 0.
0.623999 0.0849804 0.
0.625999 0.0849798 0.
0.627999 0.0849792 0.
0.629999 0.0849783 0.
0.631999 0.0849774 0.
0.633999 0.0849766 0.
0.635999 0.084976 0.
0.637999 0.0849754 0.
0.639999 0.0849751 0.
0.641999 0.0849749 0.
0.643999 0.0849747 0.
0.645999 0.0849745 0.
0.647999 0.0849742 0.
0.649999 0.0849738 0.
0.652 0.0849729 0.
0.654 0.0849719 0.
0.656 0.0849711 0.
0.657999 0.0849707 0.
0.659999 0.0849703 0.
0.661999 0.0849702 0.
0.664 0.0849706 0.
0.666 0.084971 0.
0.668001 0.0849715 0.
0.670001 0.0849722 0.
0.672001 0.0849728 0.
0.674001 0.0849733 0.
0.676002 0.0849738 0.
0.678002 0.0849744 0.
0.680002 0.0849761 0.
0.682002 0.0849777 0.
0.684002 0.0849793 0.
0.686003 0.0849808 0.
0.688003 0.0849823 0.
0.690003 0.0849835 0.
0.692004 0.0849846 0.
0.694004 0.0849856 0.
0.696004 0.0849876 0.
0.698005 0.0849899 0.
0.499997 0.0869891 0.
0.501997 0.0869871 0.
0.503997 0.0869851 0.
0.505998 0.0869832 0.
0.507998 0.0869817 0.
0.509998 0.0869802 0.
0.511999 0.0869789 0.
0.513999 0.0869777 0.
0.515999 0.0869766 0.
0.518 0.0869758 0.
0.52 0.0869752 0.
0.522 0.0869746 0.
0.524 0.0869739 0.
0.526 0.0869733 0.
0.528 0.0869726 0.
0.53 0.0869718 0.
0.532 0.086971 0.
0.534 0.0869706 0.
0.536 0.0869709 0.
0.538 0.0869713 0.
0.540001 0.0869716 0.
0.542001 0.086972 0.
0.544001 0.0869724 0.
0.546002 0.0869727 0.
0.548002 0.086973 0.
0.550002 0.0869733 0.
0.552002 0.0869743 0.
0.554002 0.0869753 0.
0.556002 0.0869762 0.
0.558002 0.0869768 0.
0.560002 0.0869775 0.
0.562001 0.086978 0.
0.564001 0.0869782 0.
0.566001 0.0869784 0.
0.568001 0.0869791 0.
0.570001 0.08698 0.
0.572001 0.0869809 0.
0.574001 0.0869814 0.
0.576 0.086982 0.
0.578 0.0869824 0.
0.58 0.0869821 0.
0.582 0.0869819 0.
0.584 0.0869816 0.
0.586 0.0869815 0.
0.588 0.0869814 0.
0.59 0.0869816 0.
0.592 0.086982 0.
0.594 0.0869823 0.
0.596 0.0869823 0.
0.598 0.0869821 0.
0.599999 0.0869819 0.
0.601999 0.0869816 0.
0.603999 0.0869812 0.
0.605999 0.086981 0.
0.607999 0.086981 0.
0.609999 0.086981 0.
0.612 0.0869811 0.
0.613999 0.0869813 0.
0.615999 0.0869816 0.
0.617999 0.0869814 0.
0.619999 0.0869811 0.
0.621999 0.0869807 0.
0.623999 0.0869803 0.
0.625999 0.0869799 0.
0.627999 0.0869795 0.
0.629999 0.0869786 0.
0.631999 0.0869778 0.
0.633999 0.086977 0.
0.635999 0.0869763 0.
0.637999 0.0869757 0.
0.639999 0.0869752 0.
0.641999 0.0869748 0.
0.643999 0.0869745 0.
0.645999 0.0869741 0.
0.647999 0.0869736 0.
0.649999 0.0869731 0.
0.651999 0.0869723 0.
0.653999 0.0869714 0.
0.655999 0.0869706 0.
0.657999 0.0869703 0.
0.659999 0.08697 0.
0.662 0.0869699 0.
0.664 0.0869702 0.
0.666 0.0869704 0.
0.668 0.0869708 0.
0.67 0.0869713 0.
0.672 0.0869718 0.
0.674001 0.0869726 0.
0.676001 0.0869733 0.
0.678001 0.0869742 0.
0.680001 0.0869757 0.
0.682001 0.0869773 0.
0.684001 0.0869788 0.
0.686001 0.0869803 0.
0.688002 0.0869817 0.
0.690002 0.086983 0.
0.692002 0.0869841 0.
0.694003 0.0869853 0.
0.696003 0.0869875 0.
0.698003 0.0869901 0.
0.499998 0.0889882 0.
0.501998 0.0889864 0.
0.503998 0.0889845 0.
0.505998 0.0889827 0.
0.507999 0.0889811 0.
0.509999 0.0889795 0.
0.511999 0.0889782 0.
0.514 0.0889771 0.
0.516 0.088976 0.
0.518001 0.0889752 0.
0.520001 0.0889745 0.
0.522001 0.0889739 0.
0.524001 0.0889733 0.
0.526001 0.0889727 0.
0.528001 0.088972 0.
0.530001 0.0889714 0.
0.532001 0.0889707 0.
0.534 0.0889704 0.
0.536 0.088971 0.
0.538 0.0889715 0.
0.54 0.0889718 0.
0.542001 0.088972 0.
0.544001 0.0889722 0.
0.546001 0.0889725 0.
0.548001 0.0889728 0.
0.550001 0.0889731 0.
0.552001 0.0889741 0.
0.554001 0.0889751 0.
0.556001 0.088976 0.
0.558001 0.0889766 0.
0.560001 0.0889772 0.
0.562001 0.0889777 0.
0.564001 0.0889779 0.
0.566001 0.0889782 0.
0.568001 0.0889788 0.
0.570001 0.0889797 0.
0.572001 0.0889805 0.
0.574001 0.0889813 0.
0.576 0.088982 0.
0.578 0.0889826 0.
0.58 0.0889823 0.
0.582 0.0889819 0.
0.584 0.0889816 0.
0.586001 0.0889817 0.
0.588001 0.0889817 0.
0.590001 0.0889819 0.
0.592001 0.0889821 0.
0.594001 0.0889823 0.
0.596 0.0889822 0.
0.598 0.088982 0.
0.599999 0.0889818 0.
0.601999 0.0889815 0.
0.603999 0.0889813 0.
0.605999 0.0889811 0.
0.607999 0.088981 0.
0.61 0.088981 0.
0.612 0.0889811 0.
0.614 0.0889814 0.
0.615999 0.0889817 0.
0.617999 0.0889815 0.
0.619999 0.0889809 0.
0.621999 0.0889804 0.
0.623999 0.0889802 0.
0.625999 0.08898 0.
0.627999 0.0889797 0.
0.629999 0.088979 0.
0.631999 0.0889782 0.
0.633999 0.0889775 0.
0.635999 0.0889767 0.
0.637999 0.088976 0.
0.639999 0.0889753 0.
0.641999 0.0889748 0.
0.643998 0.0889742 0.
0.645999 0.0889736 0.
0.647999 0.088973 0.
0.649999 0.0889724 0.
0.651999 0.0889716 0.
0.653999 0.0889709 0.
0.655999 0.0889702 0.
0.657999 0.08897 0.
0.66 0.0889697 0.
0.662 0.0889696 0.
0.664 0.0889698 0.
0.666 0.0889699 0.
0.668 0.0889702 0.
0.67 0.0889705 0.
0.672 0.0889708 0.
0.674 0.0889718 0.
0.676 0.0889728 0.
0.678 0.0889739 0.
0.68 0.0889755 0.
0.682 0.088977 0.
0.684 0.0889784 0.
0.686 0.0889798 0.
0.688 0.0889812 0.
0.690001 0.0889825 0.
0.692001 0.0889837 0.
0.694001 0.0889849 0.
0.696001 0.0889875 0.
0.698001 0.0889904 0.
0.5 0.0909877 0.
0.502 0.0909859 0.
0.504 0.0909841 0.
0.506 0.0909824 0.
0.508 0.0909807 0.
0.51 0.090979 0.
0.512001 0.0909775 0.
0.514001 0.0909765 0.
0.516001 0.0909754 0.
0.518002 0.0909746 0.
0.520002 0.0909739 0.
0.522002 0.0909733 0.
0.524001 0.0909727 0.
0.526001 0.0909722 0.
0.528001 0.0909716 0.
0.530001 0.090971 0.
0.532001 0.0909705 0.
0.534001 0.0909702 0.
0.536001 0.0909707 0.
0.538001 0.0909712 0.
0.540001 0.0909714 0.
0.542001 0.0909715 0.
0.544001 0.0909716 0.
0.546001 0.090972 0.
0.548001 0.0909724 0.
0.550001 0.0909729 0.
0.552001 0.0909739 0.
0.554001 0.0909749 0.
0.556 0.0909759 0.
0.558001 0.0909765 0.
0.560001 0.0909771 0.
0.562001 0.0909775 0.
0.564001 0.0909779 0.
0.566001 0.0909783 0.
0.568001 0.0909788 0.
0.570001 0.0909795 0.
0.572001 0.0909802 0.
0.574001 0.090981 0.
0.576001 0.0909819 0.
0.578 0.0909827 0.
0.58 0.0909823 0.
0.582 0.0909819 0.
0.584001 0.0909817 0.
0.586001 0.0909817 0.
0.588001 0.0909817 0.
0.590001 0.0909819 0.
0.592001 0.0909822 0.
0.594001 0.0909824 0.
0.596001 0.0909824 0.
0.598 0.0909822 0.
0.599999 0.090982 0.
0.601999 0.0909818 0.
0.603999 0.0909815 0.
0.605999 0.0909812 0.
0.607999 0.090981 0.
0.61 0.0909807 0.
0.612 0.0909808 0.
0.613999 0.0909811 0.
0.615999 0.0909815 0.
0.617999 0.0909813 0.
0.619999 0.0909808 0.
0.621999 0.0909804 0.
0.623999 0.0909801 0.
0.625999 0.0909799 0.
0.627999 0.0909797 0.
0.629999 0.090979 0.
0.631999 0.0909784 0.
0.633999 0.0909777 0.
0.635999 0.090977 0.
0.637999 0.0909763 0.
0.639999 0.0909756 0.
0.641999 0.090975 0.
0.643999 0.0909744 0.
0.645999 0.0909736 0.
0.647999 0.0909727 0.
0.649999 0.0909719 0.
0.651999 0.0909712 0.
0.653999 0.0909705 0.
0.655999 0.0909699 0.
0.657999 0.0909696 0.
0.659999 0.0909693 0.
0.661999 0.0909692 0.
0.663999 0.0909693 0.
0.665999 0.0909694 0.
0.667999 0.0909696 0.
0.669999 0.0909698 0.
0.671999 0.09097 0.
0.673999 0.0909711 0.
0.675999 0.0909724 0.
0.677999 0.0909736 0.
0.679999 0.0909752 0.
0.681999 0.0909767 0.
0.683999 0.0909782 0.
0.685999 0.0909795 0.
0.687999 0.0909808 0.
0.689999 0.0909821 0.
0.691999 0.0909834 0.
0.693999 0.0909847 0.
0.695999 0.0909873 0.
0.697999 0.0909903 0.
0.500002 0.0929875 0.
0.502002 0.0929857 0.
0.504002 0.0929839 0.
0.506002 0.0929821 0.
0.508002 0.0929803 0.
0.510002 0.0929785 0.
0.512002 0.092977 0.
0.514002 0.092976 0.
0.516002 0.0929749 0.
0.518002 0.0929741 0.
0.520002 0.0929734 0.
0.522002 0.0929727 0.
0.524002 0.0929722 0.
0.526002 0.0929718 0.
0.528002 0.0929713 0.
0.530002 0.0929708 0.
0.532001 0.0929703 0.
0.534001 0.09297 0.
0.536001 0.0929701 0.
0.538001 0.0929702 0.
0.540001 0.0929704 0.
0.542002 0.0929705 0.
0.544002 0.0929707 0.
0.546001 0.0929712 0.
0.548001 0.0929719 0.
0.550001 0.0929726 0.
0.552001 0.0929737 0.
0.554 0.0929749 0.
0.556 0.0929759 0.
0.558 0.0929765 0.
0.560001 0.092977 0.
0.562001 0.0929776 0.
0.564001 0.0929781 0.
0.566001 0.0929786 0.
0.568001 0.0929791 0.
0.570001 0.0929795 0.
0.572002 0.0929799 0.
0.574001 0.0929808 0.
0.576001 0.0929817 0.
0.578001 0.0929825 0.
0.580001 0.0929822 0.
0.582001 0.0929819 0.
0.584001 0.0929817 0.
0.586001 0.0929816 0.
0.588001 0.0929815 0.
0.590001 0.0929817 0.
0.592001 0.0929822 0.
0.594001 0.0929826 0.
0.596001 0.0929827 0.
0.598 0.0929827 0.
0.6 0.0929827 0.
0.602 0.0929822 0.
0.604 0.0929818 0.
0.606 0.0929813 0.
0.608 0.0929808 0.
0.61 0.0929803 0.
0.611999 0.0929801 0.
0.613999 0.0929805 0.
0.615999 0.0929808 0.
0.617998 0.0929808 0.
0.619998 0.0929807 0.
0.621999 0.0929805 0.
0.623999 0.0929802 0.
0.625999 0.0929798 0.
0.627999 0.0929794 0.
0.629999 0.0929788 0.
0.631999 0.0929782 0.
0.634 0.0929776 0.
0.636 0.0929771 0.
0.638 0.0929766 0.
0.64 0.0929761 0.
0.642 0.0929755 0.
0.644 0.0929749 0.
0.645999 0.0929739 0.
0.647999 0.0929727 0.
0.649999 0.0929715 0.
0.651999 0.0929709 0.
0.653999 0.0929702 0.
0.655998 0.0929696 0.
0.657999 0.0929692 0.
0.659999 0.0929687 0.
0.661999 0.0929685 0.
0.663999 0.0929687 0.
0.665998 0.0929689 0.
0.667998 0.0929691 0.
0.669998 0.0929692 0.
0.671998 0.0929694 0.
0.673998 0.0929706 0.
0.675998 0.0929719 0.
0.677998 0.0929732 0.
0.679998 0.0929749 0.
0.681998 0.0929765 0.
0.683998 0.092978 0.
0.685997 0.0929793 0.
0.687997 0.0929805 0.
0.689997 0.0929818 0.
0.691997 0.0929832 0.
0.693997 0.0929846 0.
0.695997 0.0929871 0.
0.697997 0.0929898 0.
0.500004 0.0949873 0.
0.502004 0.0949855 0.
0.504004 0.0949837 0.
0.506004 0.0949819 0.
0.508004 0.09498 0.
0.510004 0.094978 0.
0.512004 0.0949765 0.
0.514004 0.0949755 0.
0.516004 0.0949744 0.
0.518003 0.0949736 0.
0.520003 0.0949729 0.
0.522003 0.0949721 0.
0.524003 0.0949717 0.
0.526003 0.0949714 0.
0.528002 0.094971 0.
0.530002 0.0949705 0.
0.532002 0.09497 0.
0.534002 0.0949697 0.
0.536002 0.0949695 0.
0.538002 0.0949693 0.
0.540002 0.0949693 0.
0.542002 0.0949695 0.
0.544002 0.0949697 0.
0.546002 0.0949705 0.
0.548001 0.0949714 0.
0.550001 0.0949722 0.
0.552 0.0949735 0.
0.554 0.0949748 0.
0.556 0.0949759 0.
0.558 0.0949765 0.
0.56 0.094977 0.
0.562 0.0949776 0.
0.564001 0.0949783 0.
0.566001 0.094979 0.
0.568001 0.0949794 0.
0.570002 0.0949795 0.
0.572002 0.0949796 0.
0.574002 0.0949805 0.
0.576001 0.0949815 0.
0.578001 0.0949823 0.
0.580002 0.0949821 0.
0.582002 0.0949819 0.
0.584002 0.0949817 0.
0.586001 0.0949815 0.
0.588001 0.0949813 0.
0.59 0.0949815 0.
0.592001 0.0949822 0.
0.594001 0.0949828 0.
0.596001 0.0949831 0.
0.598001 0.0949832 0.
0.6 0.0949834 0.
0.602 0.0949827 0.
0.604 0.0949821 0.
0.606 0.0949814 0.
0.608 0.0949806 0.
0.61 0.0949798 0.
0.611999 0.0949795 0.
0.613999 0.0949799 0.
0.615998 0.0949802 0.
0.617998 0.0949804 0.
0.619998 0.0949806 0.
0.621998 0.0949807 0.
0.623998 0.0949802 0.
0.625999 0.0949796 0.
0.627999 0.094979 0.
0.629999 0.0949785 0.
0.632 0.094978 0.
0.634 0.0949776 0.
0.636 0.0949773 0.
0.638001 0.0949769 0.
0.640001 0.0949765 0.
0.642001 0.094976 0.
0.644 0.0949755 0.
0.646 0.0949742 0.
0.648 0.0949727 0.
0.649999 0.0949711 0.
0.651999 0.0949705 0.
0.653999 0.0949699 0.
0.655998 0.0949693 0.
0.657998 0.0949687 0.
0.659998 0.0949681 0.
0.661998 0.0949679 0.
0.663998 0.0949682 0.
0.665998 0.0949684 0.
0.667998 0.0949686 0.
0.669997 0.0949687 0.
0.671997 0.0949688 0.
0.673997 0.0949701 0.
0.675997 0.0949714 0.
0.677997 0.0949728 0.
0.679996 0.0949746 0.
0.681996 0.0949764 0.
0.683996 0.0949779 0.
0.685996 0.0949791 0.
0.687995 0.0949802 0.
0.689995 0.0949816 0.
0.691995 0.0949831 0.
0.693995 0.0949846 0.
0.695995 0.0949868 0.
0.697995 0.0949893 0.
0.500005 0.0969869 0.
0.502005 0.0969851 0.
0.504005 0.0969831 0.
0.506005 0.0969813 0.
0.508005 0.0969797 0.
0.510005 0.0969782 0.
0.512005 0.0969767 0.
0.514005 0.0969755 0.
0.516005 0.0969742 0.
0.518005 0.0969733 0.
0.520004 0.0969725 0.
0.522004 0.0969717 0.
0.524004 0.0969715 0.
0.526003 0.0969713 0.
0.528003 0.096971 0.
0.530003 0.0969704 0.
0.532002 0.0969697 0.
0.534002 0.0969693 0.
0.536002 0.0969693 0.
0.538002 0.0969693 0.
0.540002 0.0969694 0.
0.542002 0.0969696 0.
0.544002 0.0969698 0.
0.546001 0.0969707 0.
0.548001 0.0969716 0.
0.55 0.0969726 0.
0.552 0.0969736 0.
0.554 0.0969746 0.
0.556 0.0969755 0.
0.558 0.0969761 0.
0.56 0.0969766 0.
0.562 0.0969773 0.
0.564001 0.0969783 0.
0.566001 0.0969792 0.
0.568001 0.0969794 0.
0.570001 0.0969793 0.
0.572001 0.0969793 0.
0.574001 0.0969797 0.
0.576001 0.0969803 0.
0.578001 0.0969808 0.
0.580001 0.0969812 0.
0.582001 0.0969815 0.
0.584001 0.0969817 0.
0.586001 0.0969818 0.
0.588001 0.0969818 0.
0.590001 0.096982 0.
0.592001 0.0969823 0.
0.594001 0.0969827 0.
0.596001 0.0969829 0.
0.598001 0.0969831 0.
0.6 0.0969833 0.
0.602 0.0969829 0.
0.604001 0.0969826 0.
0.606001 0.0969821 0.
0.608001 0.0969812 0.
0.61 0.0969802 0.
0.612 0.0969798 0.
0.613999 0.09698 0.
0.615999 0.0969801 0.
0.617999 0.0969802 0.
0.619998 0.0969802 0.
0.621998 0.0969802 0.
0.623998 0.0969797 0.
0.625999 0.0969792 0.
0.627999 0.0969788 0.
0.63 0.0969784 0.
0.632 0.0969781 0.
0.634001 0.0969778 0.
0.636001 0.0969774 0.
0.638002 0.0969771 0.
0.640002 0.0969765 0.
0.642002 0.0969758 0.
0.644001 0.0969751 0.
0.646001 0.0969741 0.
0.648001 0.0969731 0.
0.650001 0.0969721 0.
0.652 0.0969713 0.
0.653999 0.0969706 0.
0.655998 0.0969699 0.
0.657998 0.0969691 0.
0.659998 0.0969684 0.
0.661998 0.096968 0.
0.663997 0.0969682 0.
0.665997 0.0969684 0.
0.667997 0.0969685 0.
0.669996 0.0969687 0.
0.671996 0.0969689 0.
0.673996 0.09697 0.
0.675995 0.0969712 0.
0.677995 0.0969724 0.
0.679995 0.0969741 0.
0.681994 0.0969758 0.
0.683994 0.0969775 0.
0.685994 0.096979 0.
0.687993 0.0969805 0.
0.689993 0.096982 0.
0.691993 0.0969834 0.
0.693992 0.0969849 0.
0.695992 0.096987 0.
0.697992 0.0969894 0.
0.500007 0.0989865 0.
0.502007 0.0989846 0.
0.504006 0.0989826 0.
0.506006 0.0989807 0.
0.508006 0.0989795 0.
0.510007 0.0989783 0.
0.512007 0.098977 0.
0.514006 0.0989755 0.
0.516006 0.098974 0.
0.518006 0.0989729 0.
0.520005 0.0989721 0.
0.522005 0.0989713 0.
0.524004 0.0989712 0.
0.526004 0.0989712 0.
0.528004 0.0989711 0.
0.530003 0.0989702 0.
0.532003 0.0989694 0.
0.534002 0.0989689 0.
0.536002 0.0989691 0.
0.538002 0.0989693 0.
0.540002 0.0989695 0.
0.542002 0.0989697 0.
0.544002 0.09897 0.
0.546001 0.0989709 0.
0.548001 0.0989719 0.
0.55 0.098973 0.
0.552 0.0989737 0.
0.553999 0.0989745 0.
0.555999 0.0989751 0.
0.558 0.0989757 0.
0.56 0.0989763 0.
0.562001 0.0989771 0.
0.564001 0.0989782 0.
0.566001 0.0989793 0.
0.568001 0.0989795 0.
0.570001 0.0989792 0.
0.572001 0.0989789 0.
0.574001 0.098979 0.
0.576 0.0989791 0.
0.578 0.0989793 0.
0.58 0.0989802 0.
0.582001 0.0989811 0.
0.584001 0.0989818 0.
0.586001 0.098982 0.
0.588001 0.0989823 0.
0.590001 0.0989824 0.
0.592001 0.0989825 0.
0.594001 0.0989826 0.
0.596001 0.0989828 0.
0.598 0.098983 0.
0.6 0.0989832 0.
0.602001 0.0989831 0.
0.604001 0.0989831 0.
0.606001 0.0989828 0.
0.608001 0.0989817 0.
0.610001 0.0989807 0.
0.612001 0.0989801 0.
0.614 0.0989801 0.
0.616 0.09898 0.
0.618 0.0989799 0.
0.619999 0.0989798 0.
0.621998 0.0989797 0.
0.623999 0.0989793 0.
0.625999 0.0989789 0.
0.627999 0.0989785 0.
0.63 0.0989784 0.
0.632001 0.0989782 0.
0.634002 0.098978 0.
0.636002 0.0989776 0.
0.638002 0.0989772 0.
0.640003 0.0989765 0.
0.642003 0.0989756 0.
0.644003 0.0989747 0.
0.646002 0.0989741 0.
0.648002 0.0989736 0.
0.650002 0.098973 0.
0.652001 0.0989721 0.
0.653999 0.0989713 0.
0.655998 0.0989704 0.
0.657998 0.0989695 0.
0.659998 0.0989686 0.
0.661997 0.0989681 0.
0.663997 0.0989682 0.
0.665997 0.0989683 0.
0.667996 0.0989685 0.
0.669996 0.0989688 0.
0.671995 0.098969 0.
0.673994 0.09897 0.
0.675994 0.0989709 0.
0.677993 0.098972 0.
0.679993 0.0989737 0.
0.681993 0.0989753 0.
0.683992 0.098977 0.
0.685992 0.0989789 0.
0.687992 0.0989808 0.
0.689991 0.0989824 0.
0.69199 0.0989838 0.
0.69399 0.0989852 0.
0.69599 0.0989872 0.
0.69799 0.0989894 0.
CELLS 5000 10000
1 0
1 1
1 2
1 3
1 4
1 5
1 6
1 7
1 8
1 9
1 10
1 11
1 12
1 13
1 14
1 15
1 16
1 17
1 18
1 19
1 20
1 21
1 22
1 23
1 24
1 25
1 26
1 27
1 28
1 29
1 30
1 31
1 32
1 33
1 34
1 35
1 36
1 37
1 38
1 39
1 40
1 41
1 42
1 43
1 44
1 45
1 46
1 47
1 48
1 49
1 50
1 51
1 52
1 53
1 54
1 55
1 56
1 57
1 58
1 59
1 60
1 61
1 62
1 63
1 64
1 65
1 66
1 67
1 68
1 69
1 70
1 71
1 72
1 73
1 74
1 75
1 76
1 77
1 78
1 79
1 80
1 81
1 82
1 83
1 84
1 85
1 86
1 87
1 88
1 89
1 90
1 91
1 92
1 93
1 94
1 95
1 96
1 97
1 98
1 99
1 100
1 101
1 102
1 103
1 104
1 105
1 106
1 107
1 108
1 109
1 110
1 111
1 112
1 113
1 114
1 115
1 116
1 117
1 118
1 119
1 120
1 121
1 122
1 123
1 124
1 125
1 126
1 127
1 128
1 129
1 130
1 131
1 132
1 133
1 134
1 135
1 136
1 137
1 138
1 139
1 140
1 141
1 142
1 143
1 144
1 145
1 146
1 147
1 148
1 149
1 150
1 151
1 152
1 153
1 154
1 155
1 156
1 157
1 158
1 159
1 160
1 161
1 162
1 163
1 164
1 165
1 166
1 167
1 168
1 169
1 170
1 171
1 172
1 173
1 174
1 175
1 176
1 177
1 178
1 179
1 180
1 181
1 182
1 183
1 184
1 185
1 186
1 187
1 188
1 189
1 190
1 191
1 192
1 193
1 194
1 195
1 196
1 197
1 198
1 199
1 200
1 201
1 202
1 203
1 204
1 205
1 206
1 207
1 208
1 209
1 210
1 211
1 212
1 213
1 214
1 215
1 216
1 217
1 218
1 219
1 220
1 221
1 222
1 223
1 224
1 225
1 226
1 227
1 228
1 229
1 230
1 231
1 232
1 233
1 234
1 235
1 236
1 237
1 238
1 239
1 240
1 241
1 242
1 243
1 244
1 245
1 246
1 247
1 248
1 249
1 250
1 251
1 252
1 253
1 254
1 255
1 256
1 257
1 258
1 259
1 260
1 261
1 262
1 263
1 264
1 265
1 266
1 267
1 268
1 269
1 270
1 271
1 272
1 273
1 274
1 275
1 276
1 277
1 278
1 279
1 280
1 281
1 282
1 283
1 284
1 285
1 286
1 287
1 288
1 289
1 290
1 291
1 292
1 293
1 294
1 295
1 296
1 297
1 298
1 299
1 300
1 301
1 302
1 303
1 304
1 305
1 306
1 307
1 308
1 309
1 310
1 311
1 312
1 313
1 314
1 315
1 316
1 317
1 318
1 319
1 320
1 321
1 322
1 323
1 324
1 325
1 326
1 327
1 328
1 329
1 330
1 331
1 332
1 333
1 334
1 335
1 336
1 337
1 338
1 339
1 340
1 341
1 342
1 343
1 344
1 345
1 346
1 347
1 348
1 349
1 350
1 351
1 352
1 353
1 354
1 355
1 356
1 357
1 358
1 359
1 360
1 361
1 362
1 363
1 364
1 365
1 366
1 367
1 368
1 369
1 370
1 371
1 372
1 373
1 374
1 375
1 376
1 377
1 378
1 379
1 380
1 381
1 382
1 383
1 384
1 385
1 386
1 387
1 388
1 389
1 390
1 391
1 392
1 393
1 394
1 395
1 396
1 397
1 398
1 399
1 400
1 401
1 402
1 403
1 404
1 405
1 406
1 407
1 408
1 409
1 410
1 411
1 412
1 413
1 414
1 415
1 416
1 417
1 418
1 419
1 420
1 421
1 422
1 423
1 424
1 425
1 426
1 427
1 428
1 429
1 430
1 431
1 432
1 433
1 434
1 435
1 436
1 437
1 438
1 439
1 440
1 441
1 442
1 443
1 444
1 445
1 446
1 447
1 448
1 449
1 450
1 451
1 452
1 453
1 454
1 455
1 456
1 457
1 458
1 459
1 460
1 461
1 462
1 463
1 464
1 465
1 466
1 467
1 468
1 469
1 470
1 471
1 472
1 473
1 474
1 475
1 476
1 477
1 478
1 479
1 480
1 481
1 482
1 483
1 484
1 485
1 486
1 487
1 488
1 489
1 490
1 491
1 492
1 493
1 494
1 495
1 496
1 497
1 498
1 499
1 500
1 501
1 502
1 503
1 504
1 505
1 506
1 507
1 508
1 509
1 510
1 511
1 512
1 513
1 514
1 515
1 516
1 517
1 518
1 519
1 520
1 521
1 522
1 523
1 524
1 525
1 526
1 527
1 528
1 529
1 530
1 531
1 532
1 533
1 534
1 535
1 536
1 537
1 538
1 539
1 540
1 541
1 542
1 543
1 544
1 545
1 546
1 547
1 548
1 549
1 550
1 551
1 552
1 553
1 554
1 555
1 556
1 557
1 558
1 559
1 560
1 561
1 562
1 563
1 564
1 565
1 566
1 567
1 568
1 569
1 570
1 571
1 572
1 573
1 574
1 575
1 576
1 577
1 578
1 579
1 580
1 581
1 582
1 583
1 584
1 585
1 586
1 587
1 588
1 589
1 590
1 591
1 592
1 593
1 594
1 595
1 596
1 597
1 598
1 599
1 600
1 601
1 602
1 603
1 604
1 605
1 606
1 607
1 608
1 609
1 610
1 611
1 612
1 613
1 614
1 615
1 616
1 617
1 618
1 619
1 620
1 621
1 622
1 623
1 624
1 625
1 626
1 627
1 628
1 629
1 630
1 631
1 632
1 633
1 634
1 635
1 636
1 637
1 638
1 639
1 640
1 641
1 642
1 643
1 644
1 645
1 646
1 647
1 648
1 649
1 650
1 651
1 652
1 653
1 654
1 655
1 656
1 657
1 658
1 659
1 660
1 661
1 662
1 663
1 664
1 665
1 666
1 667
1 668
1 669
1 670
1 671
1 672
1 673
1 674
1 675
1 676
1 677
1 678
1 679
1 680
1 681
1 682
1 683
1 684
1 685
1 686
1 687
1 688
1 689
1 690
1 691
1 692
1 693
1 694
1 695
1 696
1 697
1 698
1 699
1 700
1 701
1 702
1 703
1 704
1 705
1 706
1 707
1 708
1 709
1 710
1 711
1 712
1 713
1 714
1 715
1 716
1 717
1 718
1 719
1 720
1 721
1 722
1 723
1 724
1 725
1 726
1 727
1 728
1 729
1 730
1 731
1 732
1 733
1 734
1 735
1 736
1 737
1 738
1 739
1 740
1 741
1 742
1 743
1 744
1 745
1 746
1 747
1 748
1 749
1 750
1 751
1 752
1 753
1 754
1 755
1 756
1 757
1 758
1 759
1 760
1 761
1 762
1 763
1 764
1 765
1 766
1 767
1 768
1 769
1 770
1 771
1 772
1 773
1 774
1 775
1 776
1 777
1 778
1 779
1 780
1 781
1 782
1 783
1 784
1 785
1 786
1 787
1 788
1 789
1 790
1 791
1 792
1 793
1 794
1 795
1 796
1 797
1 798
1 799
1 800
1 801
1 802
1 803
1 804
1 805
1 806
1 807
1 808
1 809
1 810
1 811
1 812
1 813
1 814
1 815
1 816
1 817
1 818
1 819
1 820
1 821
1 822
1 823
1 824
1 825
1 826
1 827
1 828
1 829
1 830
1 831
1 832
1 833
1 834
1 835
1 836
1 837
1 838
1 839
1 840
1 841
1 842
1 843
1 844
1 845
1 846
1 847
1 848
1 849
1 850
1 851
1 852
1 853
1 854
1 855
1 856
1 857
1 858
1 859
1 860
1 861
1 862
1 863
1 864
1 865
1 866
1 867
1 868
1 869
1 870
1 871
1 872
1 873
1 874
1 875
1 876
1 877
1 878
1 879
1 880
1 881
1 882
1 883
1 884
1 885
1 886
1 887
1 888
1 889
1 890
1 891
1 892
1 893
1 894
1 895
1 896
1 897
1 898
1 899
1 900
1 901
1 902
1 903
1 904
1 905
1 906
1 907
1 908
1 909
1 910
1 911
1 912
1 913
1 914
1 915
1 916
1 917
1 918
1 919
1 920
1 921
1 922
1 923
1 924
1 925
1 926
1 927
1 928
1 929
1 930
1 931
1 932
1 933
1 934
1 935
1 936
1 937
1 938
1 939
1 940
1 941
1 942
1 943
1 944
1 945
1 946
1 947
1 948
1 949
1 950
1 951
1 952
1 953
1 954
1 955
1 956
1 957
1 958
1 959
1 960
1 961
1 962
1 963
1 964
1 965
1 966
1 967
1 968
1 969
1 970
1 971
1 972
1 973
1 974
1 975
1 976
1 977
1 978
1 979
1 980
1 981
1 982
1 983
1 984
1 985
1 986
1 987
1 988
1 989
1 990
1 991
1 992
1 993
1 994
1 995
1 996
1 997
1 998
1 999
1 1000
1 1001
1 1002
1 1003
1 1004
1 1005
1 1006
1 1007
1 1008
1 1009
1 1010
1 1011
1 1012
1 1013
1 1014
1 1015
1 1016
1 1017
1 1018
1 1019
1 1020
1 1021
1 1022
1 1023
1 1024
1 1025
1 1026
1 1027
1 1028
1 1029
1 1030
1 1031
1 1032
1 1033
1 1034
1 1035
1 1036
1 1037
1 1038
1 1039
1 1040
1 1041
1 1042
1 1043
1 1044
1 1045
1 1046
1 1047
1 1048
1 1049
1 1050
1 1051
1 1052
1 1053
1 1054
1 1055
1 1056
1 1057
1 1058
1 1059
1 1060
1 1061
1 1062
1 1063
1 1064
1 1065
1 1066
1 1067
1 1068
1 1069
1 1070
1 1071
1 1072
1 1073
1 1074
1 1075
1 1076
1 1077
1 1078
1 1079
1 1080
1 1081
1 1082
1 1083
1 1084
1 1085
1 1086
1 1087
1 1088
1 1089
1 1090
1 1091
1 1092
1 1093
1 1094
1 1095
1 1096
1 1097
1 1098
1 1099
1 1100
1 1101
1 1102
1 1103
1 1104
1 1105
1 1106
1 1107
1 1108
1 1109
1 1110
1 1111
1 1112
1 1113
1 1114
1 1115
1 1116
1 1117
1 1118
1 1119
1 1120
1 1121
1 1122
1 1123
1 1124
1 1125
1 1126
1 1127
1 1128
1 1129
1 1130
1 1131
1 1132
1 1133
1 1134
1 1135
1 1136
1 1137
1 1138
1 1139
1 1140
1 1141
1 1142
1 1143
1 1144
1 1145
1 1146
1 1147
1 1148
1 1149
1 1150
1 1151
1 1152
1 1153
1 1154
1 1155
1 1156
1 1157
1 1158
1 1159
1 1160
1 1161
1 1162
1 1163
1 1164
1 1165
1 1166
1 1167
1 1168
1 1169
1 1170
1 1171
1 1172
1 1173
1 1174
1 1175
1 1176
1 1177
1 1178
1 1179
1 1180
1 1181
1 1182
1 1183
1 1184
1 1185
1 1186
1 1187
1 1188
1 1189
1 1190
1 1191
1 1192
1 1193
1 1194
1 1195
1 1196
1 1197
1 1198
1 1199
1 1200
1 1201
1 1202
1 1203
1 1204
1 1205
1 1206
1 1207
1 1208
1 1209
1 1210
1 1211
1 1212
1 1213
1 1214
1 1215
1 1216
1 1217
1 1218
1 1219
1 1220
1 1221
1 1222
1 1223
1 1224
1 1225
1 1226
1 1227
1 1228
1 1229
1 1230
1 1231
1 1232
1 1233
1 1234
1 1235
1 1236
1 1237
1 1238
1 1239
1 1240
1 1241
1 1242
1 1243
1 1244
1 1245
1 1246
1 1247
1 1248
1 1249
1 1250
1 1251
1 1252
1 1253
1 1254
1 1255
1 1256
1 1257
1 1258
1 1259
1 1260
1 1261
1 1262
1 1263
1 1264
1 1265
1 1266
1 1267
1 1268
1 1269
1 1270
1 1271
1 1272
1 1273
1 1274
1 1275
1 1276
1 1277
1 1278
1 1279
1 1280
1 1281
1 1282
1 1283
1 1284
1 1285
1 1286
1 1287
1 1288
1 1289
1 1290
1 1291
1 1292
1 1293
1 1294
1 1295
1 1296
1 1297
1 1298
1 1299
1 1300
1 1301
1 1302
1 1303
1 1304
1 1305
1 1306
1 1307
1 1308
1 1309
1 1310
1 1311
1 1312
1 1313
1 1314
1 1315
1 1316
1 1317
1 1318
1 1319
1 1320
1 1321
1 1322
1 1323
1 1324
1 1325
1 1326
1 1327
1 1328
1 1329
1 1330
1 1331
1 1332
1 1333
1 1334
1 1335
1 1336
1 1337
1 1338
1 1339
1 1340
1 1341
1 1342
1 1343
1 1344
1 1345
1 1346
1 1347
1 1348
1 1349
1 1350
1 1351
1 1352
1 1353
1 1354
1 1355
1 1356
1 1357
1 1358
1 1359
1 1360
1 1361
1 1362
1 1363
1 1364
1 1365
1 1366
1 1367
1 1368
1 1369
1 1370
1 1371
1 1372
1 1373
1 1374
1 1375
1 1376
1 1377
1 1378
1 1379
1 1380
1 1381
1 1382
1 1383
1 1384
1 1385
1 1386
1 1387
1 1388
1 1389
1 1390
1 1391
1 1392
1 1393
1 1394
1 1395
1 1396
1 1397
1 1398
1 1399
1 1400
1 1401
1 1402
1 1403
1 1404
1 1405
1 1406
1 1407
1 1408
1 1409
1 1410
1 1411
1 1412
1 1413
1 1414
1 1415
1 1416
1 1417
1 1418
1 1419
1 1420
1 1421
1 1422
1 1423
1 1424
1 1425
1 1426
1 1427
1 1428
1 1429
1 1430
1 1431
1 1432
1 1433
1 1434
1 1435
1 1436
1 1437
1 1438
1 1439
1 1440
1 1441
1 1442
1 1443
1 1444
1 1445
1 1446
1 1447
1 1448
1 1449
1 1450
1 1451
1 1452
1 1453
1 1454
1 1455
1 1456
1 1457
1 1458
1 1459
1 1460
1 1461
1 1462
1 1463
1 1464
1 1465
1 1466
1 1467
1 1468
1 1469
1 1470
1 1471
1 1472
1 1473
1 1474
1 1475
1 1476
1 1477
1 1478
1 1479
1 1480
1 1481
1 1482
1 1483
1 1484
1 1485
1 1486
1 1487
1 1488
1 1489
1 1490
1 1491
1 1492
1 1493
1 1494
1 1495
1 1496
1 1497
1 1498
1 1499
1 1500
1 1501
1 1502
1 1503
1 1504
1 1505
1 1506
1 1507
1 1508
1 1509
1 1510
1 1511
1 1512
1 1513
1 1514
1 1515
1 1516
1 1517
1 1518
1 1519
1 1520
1 1521
1 1522
1 1523
1 1524
1 1525
1 1526
1 1527
1 1528
1 1529
1 1530
1 1531
1 1532
1 1533
1 1534
1 1535
1 1536
1 1537
1 1538
1 1539
1 1540
1 1541
1 1542
1 1543
1 1544
1 1545
1 1546
1 1547
1 1548
1 1549
1 1550
1 1551
1 1552
1 1553
1 1554
1 1555
1 1556
1 1557
1 1558
1 1559
1 1560
1 1561
1 1562
1 1563
1 1564
1 1565
1 1566
1 1567
1 1568
1 1569
1 1570
1 1571
1 1572
1 1573
1 1574
1 1575
1 1576
1 1577
1 1578
1 1579
1 1580
1 1581
1 1582
1 1583
1 1584
1 1585
1 1586
1 1587
1 1588
1 1589
1 1590
1 1591
1 1592
1 1593
1 1594
1 1595
1 1596
1 1597
1 1598
1 1599
1 1600
1 1601
1 1602
1 1603
1 1604
1 1605
1 1606
1 1607
1 1608
1 1609
1 1610
1 1611
1 1612
1 1613
1 1614
1 1615
1 1616
1 1617
1 1618
1 1619
1 1620
1 1621
1 1622
1 1623
1 1624
1 1625
1 1626
1 1627
1 1628
1 1629
1 1630
1 1631
1 1632
1 1633
1 1634
1 1635
1 1636
1 1637
1 1638
1 1639
1 1640
1 1641
1 1642
1 1643
1 1644
1 1645
1 1646
1 1647
1 1648
1 1649
1 1650
1 1651
1 1652
1 1653
1 1654
1 1655
1 1656
1 1657
1 1658
1 1659
1 1660
1 1661
1 1662
1 1663
1 1664
1 1665
1 1666
1 1667
1 1668
1 1669
1 1670
1 1671
1 1672
1 1673
1 1674
1 1675
1 1676
1 1677
1 1678
1 1679
1 1680
1 1681
1 1682
1 1683
1 1684
1 1685
1 1686
1 1687
1 1688
1 1689
1 1690
1 1691
1 1692
1 1693
1 1694
1 1695
1 1696
1 1697
1 1698
1 1699
1 1700
1 1701
1 1702
1 1703
1 1704
1 1705
1 1706
1 1707
1 1708
1 1709
1 1710
1 1711
1 1712
1 1713
1 1714
1 1715
1 1716
1 1717
1 1718
1 1719
1 1720
1 1721
1 1722
1 1723
1 1724
1 1725
1 1726
1 1727
1 1728
1 1729
1 1730
1 1731
1 1732
1 1733
1 1734
1 1735
1 1736
1 1737
1 1738
1 1739
1 1740
1 1741
1 1742
1 1743
1 1744
1 1745
1 1746
1 1747
1 1748
1 1749
1 1750
1 1751
1 1752
1 1753
1 1754
1 1755
1 1756
1 1757
1 1758
1 1759
1 1760
1 1761
1 1762
1 1763
1 1764
1 1765
1 1766
1 1767
1 1768
1 1769
1 1770
1 1771
1 1772
1 1773
1 1774
1 1775
1 1776
1 1777
1 1778
1 1779
1 1780
1 1781
1 1782
1 1783
1 1784
1 1785
1 1786
1 1787
1 1788
1 1789
1 1790
1 1791
1 1792
1 1793
1 1794
1 1795
1 1796
1 1797
1 1798
1 1799
1 1800
1 1801
1 1802
1 1803
1 1804
1 1805
1 1806
1 1807
1 1808
1 1809
1 1810
1 1811
1 1812
1 1813
1 1814
1 1815
1 1816
1 1817
1 1818
1 1819
1 1820
1 1821
1 1822
1 1823
1 1824
1 1825
1 1826
1 1827
1 1828
1 1829
1 1830
1 1831
1 1832
1 1833
1 1834
1 1835
1 1836
1 1837
1 1838
1 1839
1 1840
1 1841
1 1842
1 1843
1 1844
1 1845
1 1846
1 1847
1 1848
1 1849
1 1850
1 1851
1 1852
1 1853
1 1854
1 1855
1 1856
1 1857
1 1858
1 1859
1 1860
1 1861
1 1862
1 1863
1 1864
1 1865
1 1866
1 1867
1 1868
1 1869
1 1870
1 1871
1 1872
1 1873
1 1874
1 1875
1 1876
1 1877
1 1878
1 1879
1 1880
1 1881
1 1882
1 1883
1 1884
1 1885
1 1886
1 1887
1 1888
1 1889
1 1890
1 1891
1 1892
1 1893
1 1894
1 1895
1 1896
1 1897
1 1898
1 1899
1 1900
1 1901
1 1902
1 1903
1 1904
1 1905
1 1906
1 1907
1 1908
1 1909
1 1910
1 1911
1 1912
1 1913
1 1914
1 1915
1 1916
1 1917
1 1918
1 1919
1 1920
1 1921
1 1922
1 1923
1 1924
1 1925
1 1926
1 1927
1 1928
1 1929
1 1930
1 1931
1 1932
1 1933
1 1934
1 1935
1 1936
1 1937
1 1938
1 1939
1 1940
1 1941
1 1942
1 1943
1 1944
1 1945
1 1946
1 1947
1 1948
1 1949
1 1950
1 1951
1 1952
1 1953
1 1954
1 1955
1 1956
1 1957
1 1958
1 1959
1 1960
1 1961
1 1962
1 1963
1 1964
1 1965
1 1966
1 1967
1 1968
1 1969
1 1970
1 1971
1 1972
1 1973
1 1974
1 1975
1 1976
1 1977
1 1978
1 1979
1 1980
1 1981
1 1982
1 1983
1 1984
1 1985
1 1986
1 1987
1 1988
1 1989
1 1990
1 1991
1 1992
1 1993
1 1994
1 1995
1 1996
1 1997
1 1998
1 1999
1 2000
1 2001
1 2002
1 2003
1 2004
1 2005
1 2006
1 2007
1 2008
1 2009
1 2010
1 2011
1 2012
1 2013
1 2014
1 2015
1 2016
1 2017
1 2018
1 2019
1 2020
1 2021
1 2022
1 2023
1 2024
1 2025
1 2026
1 2027
1 2028
1 2029
1 2030
1 2031
1 2032
1 2033
1 2034
1 2035
1 2036
1 2037
1 2038
1 2039
1 2040
1 2041
1 2042
1 2043
1 2044
1 2045
1 2046
1 2047
1 2048
1 2049
1 2050
1 2051
1 2052
1 2053
1 2054
1 2055
1 2056
1 2057
1 2058
1 2059
1 2060
1 2061
1 2062
1 2063
1 2064
1 2065
1 2066
1 2067
1 2068
1 2069
1 2070
1 2071
1 2072
1 2073
1 2074
1 2075
1 2076
1 2077
1 2078
1 2079
1 2080
1 2081
1 2082
1 2083
1 2084
1 2085
1 2086
1 2087
1 2088
1 2089
1 2090
1 2091
1 2092
1 2093
1 2094
1 2095
1 2096
1 2097
1 2098
1 2099
1 2100
1 2101
1 2102
1 2103
1 2104
1 2105
1 2106
1 2107
1 2108
1 2109
1 2110
1 2111
1 2112
1 2113
1 2114
1 2115
1 2116
1 2117
1 2118
1 2119
1 2120
1 2121
1 2122
1 2123
1 2124
1 2125
1 2126
1 2127
1 2128
1 2129
1 2130
1 2131
1 2132
1 2133
1 2134
1 2135
1 2136
1 2137
1 2138
1 2139
1 2140
1 2141
1 2142
1 2143
1 2144
1 2145
1 2146
1 2147
1 2148
1 2149
1 2150
1 2151
1 2152
1 2153
1 2154
1 2155
1 2156
1 2157
1 2158
1 2159
1 2160
1 2161
1 2162
1 2163
1 2164
1 2165
1 2166
1 2167
1 2168
1 2169
1 2170
1 2171
1 2172
1 2173
1 2174
1 2175
1 2176
1 2177
1 2178
1 2179
1 2180
1 2181
1 2182
1 2183
1 2184
1 2185
1 2186
1 2187
1 2188
1 2189
1 2190
1 2191
1 2192
1 2193
1 2194
1 2195
1 2196
1 2197
1 2198
1 2199
1 2200
1 2201
1 2202
1 2203
1 2204
1 2205
1 2206
1 2207
1 2208
1 2209
1 2210
1 2211
1 2212
1 2213
1 2214
1 2215
1 2216
1 2217
1 2218
1 2219
1 2220
1 2221
1 2222
1 2223
1 2224
1 2225
1 2226
1 2227
1 2228
1 2229
1 2230
1 2231
1 2232
1 2233
1 2234
1 2235
1 2236
1 2237
1 2238
1 2239
1 2240
1 2241
1 2242
1 2243
1 2244
1 2245
1 2246
1 2247
1 2248
1 2249
1 2250
1 2251
1 2252
1 2253
1 2254
1 2255
1 2256
1 2257
1 2258
1 2259
1 2260
1 2261
1 2262
1 2263
1 2264
1 2265
1 2266
1 2267
1 2268
1 2269
1 2270
1 2271
1 2272
1 2273
1 2274
1 2275
1 2276
1 2277
1 2278
1 2279
1 2280
1 2281
1 2282
1 2283
1 2284
1 2285
1 2286
1 2287
1 2288
1 2289
1 2290
1 2291
1 2292
1 2293
1 2294
1 2295
1 2296
1 2297
1 2298
1 2299
1 2300
1 2301
1 2302
1 2303
1 2304
1 2305
1 2306
1 2307
1 2308
1 2309
1 2310
1 2311
1 2312
1 2313
1 2314
1 2315
1 2316
1 2317
1 2318
1 2319
1 2320
1 2321
1 2322
1 2323
1 2324
1 2325
1 2326
1 2327
1 2328
1 2329
1 2330
1 2331
1 2332
1 2333
1 2334
1 2335
1 2336
1 2337
1 2338
1 2339
1 2340
1 2341
1 2342
1 2343
1 2344
1 2345
1 2346
1 2347
1 2348
1 2349
1 2350
1 2351
1 2352
1 2353
1 2354
1 2355
1 2356
1 2357
1 2358
1 2359
1 2360
1 2361
1 2362
1 2363
1 2364
1 2365
1 2366
1 2367
1 2368
1 2369
1 2370
1 2371
1 2372
1 2373
1 2374
1 2375
1 2376
1 2377
1 2378
1 2379
1 2380
1 2381
1 2382
1 2383
1 2384
1 2385
1 2386
1 2387
1 2388
1 2389
1 2390
1 2391
1 2392
1 2393
1 2394
1 2395
1 2396
1 2397
1 2398
1 2399
1 2400
1 2401
1 2402
1 2403
1 2404
1 2405
1 2406
1 2407
1 2408
1 2409
1 2410
1 2411
1 2412
1 2413
1 2414
1 2415
1 2416
1 2417
1 2418
1 2419
1 2420
1 2421
1 2422
1 2423
1 2424
1 2425
1 2426
1 2427
1 2428
1 2429
1 2430
1 2431
1 2432
1 2433
1 2434
1 2435
1 2436
1 2437
1 2438
1 2439
1 2440
1 2441
1 2442
1 2443
1 2444
1 2445
1 2446
1 2447
1 2448
1 2449
1 2450
1 2451
1 2452
1 2453
1 2454
1 2455
1 2456
1 2457
1 2458
1 2459
1 2460
1 2461
1 2462
1 2463
1 2464
1 2465
1 2466
1 2467
1 2468
1 2469
1 2470
1 2471
1 2472
1 2473
1 2474
1 2475
1 2476
1 2477
1 2478
1 2479
1 2480
1 2481
1 2482
1 2483
1 2484
1 2485
1 2486
1 2487
1 2488
1 2489
1 2490
1 2491
1 2492
1 2493
1 2494
1 2495
1 2496
1 2497
1 2498
1 2499
1 2500
1 2501
1 2502
1 2503
1 2504
1 2505
1 2506
1 2507
1 2508
1 2509
1 2510
1 2511
1 2512
1 2513
1 2514
1 2515
1 2516
1 2517
1 2518
1 2519
1 2520
1 2521
1 2522
1 2523
1 2524
1 2525
1 2526
1 2527
1 2528
1 2529
1 2530
1 2531
1 2532
1 2533
1 2534
1 2535
1 2536
1 2537
1 2538
1 2539
1 2540
1 2541
1 2542
1 2543
1 2544
1 2545
1 2546
1 2547
1 2548
1 2549
1 2550
1 2551
1 2552
1 2553
1 2554
1 2555
1 2556
1 2557
1 2558
1 2559
1 2560
1 2561
1 2562
1 2563
1 2564
1 2565
1 2566
1 2567
1 2568
1 2569
1 2570
1 2571
1 2572
1 2573
1 2574
1 2575
1 2576
1 2577
1 2578
1 2579
1 2580
1 2581
1 2582
1 2583
1 2584
1 2585
1 2586
1 2587
1 2588
1 2589
1 2590
1 2591
1 2592
1 2593
1 2594
1 2595
1 2596
1 2597
1 2598
1 2599
1 2600
1 2601
1 2602
1 2603
1 2604
1 2605
1 2606
1 2607
1 2608
1 2609
1 2610
1 2611
1 2612
1 2613
1 2614
1 2615
1 2616
1 2617
1 2618
1 2619
1 2620
1 2621
1 2622
1 2623
1 2624
1 2625
1 2626
1 2627
1 2628
1 2629
1 2630
1 2631
1 2632
1 2633
1 2634
1 2635
1 2636
1 2637
1 2638
1 2639
1 2640
1 2641
1 2642
1 2643
1 2644
1 2645
1 2646
1 2647
1 2648
1 2649
1 2650
1 2651
1 2652
1 2653
1 2654
1 2655
1 2656
1 2657
1 2658
1 2659
1 2660
1 2661
1 2662
1 2663
1 2664
1 2665
1 2666
1 2667
1 2668
1 2669
1 2670
1 2671
1 2672
1 2673
1 2674
1 2675
1 2676
1 2677
1 2678
1 2679
1 2680
1 2681
1 2682
1 2683
1 2684
1 2685
1 2686
1 2687
1 2688
1 2689
1 2690
1 2691
1 2692
1 2693
1 2694
1 2695
1 2696
1 2697
1 2698
1 2699
1 2700
1 2701
1 2702
1 2703
1 2704
1 2705
1 2706
1 2707
1 2708
1 2709
1 2710
1 2711
1 2712
1 2713
1 2714
1 2715
1 2716
1 2717
1 2718
1 2719
1 2720
1 2721
1 2722
1 2723
1 2724
1 2725
1 2726
1 2727
1 2728
1 2729
1 2730
1 2731
1 2732
1 2733
1 2734
1 2735
1 2736
1 2737
1 2738
1 2739
1 2740
1 2741
1 2742
1 2743
1 2744
1 2745
1 2746
1 2747
1 2748
1 2749
1 2750
1 2751
1 2752
1 2753
1 2754
1 2755
1 2756
1 2757
1 2758
1 2759
1 2760
1 2761
1 2762
1 2763
1 2764
1 2765
1 2766
1 2767
1 2768
1 2769
1 2770
1 2771
1 2772
1 2773
1 2774
1 2775
1 2776
1 2777
1 2778
1 2779
1 2780
1 2781
1 2782
1 2783
1 2784
1 2785
1 2786
1 2787
1 2788
1 2789
1 2790
1 2791
1 2792
1 2793
1 2794
1 2795
1 2796
1 2797
1 2798
1 2799
1 2800
1 2801
1 2802
1 2803
1 2804
1 2805
1 2806
1 2807
1 2808
1 2809
1 2810
1 2811
1 2812
1 2813
1 2814
1 2815
1 2816
1 2817
1 2818
1 2819
1 2820
1 2821
1 2822
1 2823
1 2824
1 2825
1 2826
1 2827
1 2828
1 2829
1 2830
1 2831
1 2832
1 2833
1 2834
1 2835
1 2836
1 2837
1 2838
1 2839
1 2840
1 2841
1 2842
1 2843
1 2844
1 2845
1 2846
1 2847
1 2848
1 2849
1 2850
1 2851
1 2852
1 2853
1 2854
1 2855
1 2856
1 2857
1 2858
1 2859
1 2860
1 2861
1 2862
1 2863
1 2864
1 2865
1 2866
1 2867
1 2868
1 2869
1 2870
1 2871
1 2872
1 2873
1 2874
1 2875
1 2876
1 2877
1 2878
1 2879
1 2880
1 2881
1 2882
1 2883
1 2884
1 2885
1 2886
1 2887
1 2888
1 2889
1 2890
1 2891
1 2892
1 2893
1 2894
1 2895
1 2896
1 2897
1 2898
1 2899
1 2900
1 2901
1 2902
1 2903
1 2904
1 2905
1 2906
1 2907
1 2908
1 2909
1 2910
1 2911
1 2912
1 2913
1 2914
1 2915
1 2916
1 2917
1 2918
1 2919
1 2920
1 2921
1 2922
1 2923
1 2924
1 2925
1 2926
1 2927
1 2928
1 2929
1 2930
1 2931
1 2932
1 2933
1 2934
1 2935
1 2936
1 2937
1 2938
1 2939
1 2940
1 2941
1 2942
1 2943
1 2944
1 2945
1 2946
1 2947
1 2948
1 2949
1 2950
1 2951
1 2952
1 2953
1 2954
1 2955
1 2956
1 2957
1 2958
1 2959
1 2960
1 2961
1 2962
1 2963
1 2964
1 2965
1 2966
1 2967
1 2968
1 2969
1 2970
1 2971
1 2972
1 2973
1 2974
1 2975
1 2976
1 2977
1 2978
1 2979
1 2980
1 2981
1 2982
1 2983
1 2984
1 2985
1 2986
1 2987
1 2988
1 2989
1 2990
1 2991
1 2992
1 2993
1 2994
1 2995
1 2996
1 2997
1 2998
1 2999
1 3000
1 3001
1 3002
1 3003
1 3004
1 3005
1 3006
1 3007
1 3008
1 3009
1 3010
1 3011
1 3012
1 3013
1 3014
1 3015
1 3016
1 3017
1 3018
1 3019
1 3020
1 3021
1 3022
1 3023
1 3024
1 3025
1 3026
1 3027
1 3028
1 3029
1 3030
1 3031
1 3032
1 3033
1 3034
1 3035
1 3036
1 3037
1 3038
1 3039
1 3040
1 3041
1 3042
1 3043
1 3044
1 3045
1 3046
1 3047
1 3048
1 3049
1 3050
1 3051
1 3052
1 3053
1 3054
1 3055
1 3056
1 3057
1 3058
1 3059
1 3060
1 3061
1 3062
1 3063
1 3064
1 3065
1 3066
1 3067
1 3068
1 3069
1 3070
1 3071
1 3072
1 3073
1 3074
1 3075
1 3076
1 3077
1 3078
1 3079
1 3080
1 3081
1 3082
1 3083
1 3084
1 3085
1 3086
1 3087
1 3088
1 3089
1 3090
1 3091
1 3092
1 3093
1 3094
1 3095
1 3096
1 3097
1 3098
1 3099
1 3100
1 3101
1 3102
1 3103
1 3104
1 3105
1 3106
1 3107
1 3108
1 3109
1 3110
1 3111
1 3112
1 3113
1 3114
1 3115
1 3116
1 3117
1 3118
1 3119
1 3120
1 3121
1 3122
1 3123
1 3124
1 3125
1 3126
1 3127
1 3128
1 3129
1 3130
1 3131
1 3132
1 3133
1 3134
1 3135
1 3136
1 3137
1 3138
1 3139
1 3140
1 3141
1 3142
1 3143
1 3144
1 3145
1 3146
1 3147
1 3148
1 3149
1 3150
1 3151
1 3152
1 3153
1 3154
1 3155
1 3156
1 3157
1 3158
1 3159
1 3160
1 3161
1 3162
1 3163
1 3164
1 3165
1 3166
1 3167
1 3168
1 3169
1 3170
1 3171
1 3172
1 3173
1 3174
1 3175
1 3176
1 3177
1 3178
1 3179
1 3180
1 3181
1 3182
1 3183
1 3184
1 3185
1 3186
1 3187
1 3188
1 3189
1 3190
1 3191
1 3192
1 3193
1 3194
1 3195
1 3196
1 3197
1 3198
1 3199
1 3200
1 3201
1 3202
1 3203
1 3204
1 3205
1 3206
1 3207
1 3208
1 3209
1 3210
1 3211
1 3212
1 3213
1 3214
1 3215
1 3216
1 3217
1 3218
1 3219
1 3220
1 3221
1 3222
1 3223
1 3224
1 3225
1 3226
1 3227
1 3228
1 3229
1 3230
1 3231
1 3232
1 3233
1 3234
1 3235
1 3236
1 3237
1 3238
1 3239
1 3240
1 3241
1 3242
1 3243
1 3244
1 3245
1 3246
1 3247
1 3248
1 3249
1 3250
1 3251
1 3252
1 3253
1 3254
1 3255
1 3256
1 3257
1 3258
1 3259
1 3260
1 3261
1 3262
1 3263
1 3264
1 3265
1 3266
1 3267
1 3268
1 3269
1 3270
1 3271
1 3272
1 3273
1 3274
1 3275
1 3276
1 3277
1 3278
1 3279
1 3280
1 3281
1 3282
1 3283
1 3284
1 3285
1 3286
1 3287
1 3288
1 3289
1 3290
1 3291
1 3292
1 3293
1 3294
1 3295
1 3296
1 3297
1 3298
1 3299
1 3300
1 3301
1 3302
1 3303
1 3304
1 3305
1 3306
1 3307
1 3308
1 3309
1 3310
1 3311
1 3312
1 3313
1 3314
1 3315
1 3316
1 3317
1 3318
1 3319
1 3320
1 3321
1 3322
1 3323
1 3324
1 3325
1 3326
1 3327
1 3328
1 3329
1 3330
1 3331
1 3332
1 3333
1 3334
1 3335
1 3336
1 3337
1 3338
1 3339
1 3340
1 3341
1 3342
1 3343
1 3344
1 3345
1 3346
1 3347
1 3348
1 3349
1 3350
1 3351
1 3352
1 3353
1 3354
1 3355
1 3356
1 3357
1 3358
1 3359
1 3360
1 3361
1 3362
1 3363
1 3364
1 3365
1 3366
1 3367
1 3368
1 3369
1 3370
1 3371
1 3372
1 3373
1 3374
1 3375
1 3376
1 3377
1 3378
1 3379
1 3380
1 3381
1 3382
1 3383
1 3384
1 3385
1 3386
1 3387
1 3388
1 3389
1 3390
1 3391
1 3392
1 3393
1 3394
1 3395
1 3396
1 3397
1 3398
1 3399
1 3400
1 3401
1 3402
1 3403
1 3404
1 3405
1 3406
1 3407
1 3408
1 3409
1 3410
1 3411
1 3412
1 3413
1 3414
1 3415
1 3416
1 3417
1 3418
1 3419
1 3420
1 3421
1 3422
1 3423
1 3424
1 3425
1 3426
1 3427
1 3428
1 3429
1 3430
1 3431
1 3432
1 3433
1 3434
1 3435
1 3436
1 3437
1 3438
1 3439
1 3440
1 3441
1 3442
1 3443
1 3444
1 3445
1 3446
1 3447
1 3448
1 3449
1 3450
1 3451
1 3452
1 3453
1 3454
1 3455
1 3456
1 3457
1 3458
1 3459
1 3460
1 3461
1 3462
1 3463
1 3464
1 3465
1 3466
1 3467
1 3468
1 3469
1 3470
1 3471
1 3472
1 3473
1 3474
1 3475
1 3476
1 3477
1 3478
1 3479
1 3480
1 3481
1 3482
1 3483
1 3484
1 3485
1 3486
1 3487
1 3488
1 3489
1 3490
1 3491
1 3492
1 3493
1 3494
1 3495
1 3496
1 3497
1 3498
1 3499
1 3500
1 3501
1 3502
1 3503
1 3504
1 3505
1 3506
1 3507
1 3508
1 3509
1 3510
1 3511
1 3512
1 3513
1 3514
1 3515
1 3516
1 3517
1 3518
1 3519
1 3520
1 3521
1 3522
1 3523
1 3524
1 3525
1 3526
1 3527
1 3528
1 3529
1 3530
1 3531
1 3532
1 3533
1 3534
1 3535
1 3536
1 3537
1 3538
1 3539
1 3540
1 3541
1 3542
1 3543
1 3544
1 3545
1 3546
1 3547
1 3548
1 3549
1 3550
1 3551
1 3552
1 3553
1 3554
1 3555
1 3556
1 3557
1 3558
1 3559
1 3560
1 3561
1 3562
1 3563
1 3564
1 3565
1 3566
1 3567
1 3568
1 3569
1 3570
1 3571
1 3572
1 3573
1 3574
1 3575
1 3576
1 3577
1 3578
1 3579
1 3580
1 3581
1 3582
1 3583
1 3584
1 3585
1 3586
1 3587
1 3588
1 3589
1 3590
1 3591
1 3592
1 3593
1 3594
1 3595
1 3596
1 3597
1 3598
1 3599
1 3600
1 3601
1 3602
1 3603
1 3604
1 3605
1 3606
1 3607
1 3608
1 3609
1 3610
1 3611
1 3612
1 3613
1 3614
1 3615
1 3616
1 3617
1 3618
1 3619
1 3620
1 3621
1 3622
1 3623
1 3624
1 3625
1 3626
1 3627
1 3628
1 3629
1 3630
1 3631
1 3632
1 3633
1 3634
1 3635
1 3636
1 3637
1 3638
1 3639
1 3640
1 3641
1 3642
1 3643
1 3644
1 3645
1 3646
1 3647
1 3648
1 3649
1 3650
1 3651
1 3652
1 3653
1 3654
1 3655
1 3656
1 3657
1 3658
1 3659
1 3660
1 3661
1 3662
1 3663
1 3664
1 3665
1 3666
1 3667
1 3668
1 3669
1 3670
1 3671
1 3672
1 3673
1 3674
1 3675
1 3676
1 3677
1 3678
1 3679
1 3680
1 3681
1 3682
1 3683
1 3684
1 3685
1 3686
1 3687
1 3688
1 3689
1 3690
1 3691
1 3692
1 3693
1 3694
1 3695
1 3696
1 3697
1 3698
1 3699
1 3700
1 3701
1 3702
1 3703
1 3704
1 3705
1 3706
1 3707
1 3708
1 3709
1 3710
1 3711
1 3712
1 3713
1 3714
1 3715
1 3716
1 3717
1 3718
1 3719
1 3720
1 3721
1 3722
1 3723
1 3724
1 3725
1 3726
1 3727
1 3728
1 3729
1 3730
1 3731
1 3732
1 3733
1 3734
1 3735
1 3736
1 3737
1 3738
1 3739
1 3740
1 3741
1 3742
1 3743
1 3744
1 3745
1 3746
1 3747
1 3748
1 3749
1 3750
1 3751
1 3752
1 3753
1 3754
1 3755
1 3756
1 3757
1 3758
1 3759
1 3760
1 3761
1 3762
1 3763
1 3764
1 3765
1 3766
1 3767
1 3768
1 3769
1 3770
1 3771
1 3772
1 3773
1 3774
1 3775
1 3776
1 3777
1 3778
1 3779
1 3780
1 3781
1 3782
1 3783
1 3784
1 3785
1 3786
1 3787
1 3788
1 3789
1 3790
1 3791
1 3792
1 3793
1 3794
1 3795
1 3796
1 3797
1 3798
1 3799
1 3800
1 3801
1 3802
1 3803
1 3804
1 3805
1 3806
1 3807
1 3808
1 3809
1 3810
1 3811
1 3812
1 3813
1 3814
1 3815
1 3816
1 3817
1 3818
1 3819
1 3820
1 3821
1 3822
1 3823
1 3824
1 3825
1 3826
1 3827
1 3828
1 3829
1 3830
1 3831
1 3832
1 3833
1 3834
1 3835
1 3836
1 3837
1 3838
1 3839
1 3840
1 3841
1 3842
1 3843
1 3844
1 3845
1 3846
1 3847
1 3848
1 3849
1 3850
1 3851
1 3852
1 3853
1 3854
1 3855
1 3856
1 3857
1 3858
1 3859
1 3860
1 3861
1 3862
1 3863
1 3864
1 3865
1 3866
1 3867
1 3868
1 3869
1 3870
1 3871
1 3872
1 3873
1 3874
1 3875
1 3876
1 3877
1 3878
1 3879
1 3880
1 3881
1 3882
1 3883
1 3884
1 3885
1 3886
1 3887
1 3888
1 3889
1 3890
1 3891
1 3892
1 3893
1 3894
1 3895
1 3896
1 3897
1 3898
1 3899
1 3900
1 3901
1 3902
1 3903
1 3904
1 3905
1 3906
1 3907
1 3908
1 3909
1 3910
1 3911
1 3912
1 3913
1 3914
1 3915
1 3916
1 3917
1 3918
1 3919
1 3920
1 3921
1 3922
1 3923
1 3924
1 3925
1 3926
1 3927
1 3928
1 3929
1 3930
1 3931
1 3932
1 3933
1 3934
1 3935
1 3936
1 3937
1 3938
1 3939
1 3940
1 3941
1 3942
1 3943
1 3944
1 3945
1 3946
1 3947
1 3948
1 3949
1 3950
1 3951
1 3952
1 3953
1 3954
1 3955
1 3956
1 3957
1 3958
1 3959
1 3960
1 3961
1 3962
1 3963
1 3964
1 3965
1 3966
1 3967
1 3968
1 3969
1 3970
1 3971
1 3972
1 3973
1 3974
1 3975
1 3976
1 3977
1 3978
1 3979
1 3980
1 3981
1 3982
1 3983
1 3984
1 3985
1 3986
1 3987
1 3988
1 3989
1 3990
1 3991
1 3992
1 3993
1 3994
1 3995
1 3996
1 3997
1 3998
1 3999
1 4000
1 4001
1 4002
1 4003
1 4004
1 4005
1 4006
1 4007
1 4008
1 4009
1 4010
1 4011
1 4012
1 4013
1 4014
1 4015
1 4016
1 4017
1 4018
1 4019
1 4020
1 4021
1 4022
1 4023
1 4024
1 4025
1 4026
1 4027
1 4028
1 4029
1 4030
1 4031
1 4032
1 4033
1 4034
1 4035
1 4036
1 4037
1 4038
1 4039
1 4040
1 4041
1 4042
1 4043
1 4044
1 4045
1 4046
1 4047
1 4048
1 4049
1 4050
1 4051
1 4052
1 4053
1 4054
1 4055
1 4056
1 4057
1 4058
1 4059
1 4060
1 4061
1 4062
1 4063
1 4064
1 4065
1 4066
1 4067
1 4068
1 4069
1 4070
1 4071
1 4072
1 4073
1 4074
1 4075
1 4076
1 4077
1 4078
1 4079
1 4080
1 4081
1 4082
1 4083
1 4084
1 4085
1 4086
1 4087
1 4088
1 4089
1 4090
1 4091
1 4092
1 4093
1 4094
1 4095
1 4096
1 4097
1 4098
1 4099
1 4100
1 4101
1 4102
1 4103
1 4104
1 4105
1 4106
1 4107
1 4108
1 4109
1 4110
1 4111
1 4112
1 4113
1 4114
1 4115
1 4116
1 4117
1 4118
1 4119
1 4120
1 4121
1 4122
1 4123
1 4124
1 4125
1 4126
1 4127
1 4128
1 4129
1 4130
1 4131
1 4132
1 4133
1 4134
1 4135
1 4136
1 4137
1 4138
1 4139
1 4140
1 4141
1 4142
1 4143
1 4144
1 4145
1 4146
1 4147
1 4148
1 4149
1 4150
1 4151
1 4152
1 4153
1 4154
1 4155
1 4156
1 4157
1 4158
1 4159
1 4160
1 4161
1 4162
1 4163
1 4164
1 4165
1 4166
1 4167
1 4168
1 4169
1 4170
1 4171
1 4172
1 4173
1 4174
1 4175
1 4176
1 4177
1 4178
1 4179
1 4180
1 4181
1 4182
1 4183
1 4184
1 4185
1 4186
1 4187
1 4188
1 4189
1 4190
1 4191
1 4192
1 4193
1 4194
1 4195
1 4196
1 4197
1 4198
1 4199
1 4200
1 4201
1 4202
1 4203
1 4204
1 4205
1 4206
1 4207
1 4208
1 4209
1 4210
1 4211
1 4212
1 4213
1 4214
1 4215
1 4216
1 4217
1 4218
1 4219
1 4220
1 4221
1 4222
1 4223
1 4224
1 4225
1 4226
1 4227
1 4228
1 4229
1 4230
1 4231
1 4232
1 4233
1 4234
1 4235
1 4236
1 4237
1 4238
1 4239
1 4240
1 4241
1 4242
1 4243
1 4244
1 4245
1 4246
1 4247
1 4248
1 4249
1 4250
1 4251
1 4252
1 4253
1 4254
1 4255
1 4256
1 4257
1 4258
1 4259
1 4260
1 4261
1 4262
1 4263
1 4264
1 4265
1 4266
1 4267
1 4268
1 4269
1 4270
1 4271
1 4272
1 4273
1 4274
1 4275
1 4276
1 4277
1 4278
1 4279
1 4280
1 4281
1 4282
1 4283
1 4284
1 4285
1 4286
1 4287
1 4288
1 4289
1 4290
1 4291
1 4292
1 4293
1 4294
1 4295
1 4296
1 4297
1 4298
1 4299
1 4300
1 4301
1 4302
1 4303
1 4304
1 4305
1 4306
1 4307
1 4308
1 4309
1 4310
1 4311
1 4312
1 4313
1 4314
1 4315
1 4316
1 4317
1 4318
1 4319
1 4320
1 4321
1 4322
1 4323
1 4324
1 4325
1 4326
1 4327
1 4328
1 4329
1 4330
1 4331
1 4332
1 4333
1 4334
1 4335
1 4336
1 4337
1 4338
1 4339
1 4340
1 4341
1 4342
1 4343
1 4344
1 4345
1 4346
1 4347
1 4348
1 4349
1 4350
1 4351
1 4352
1 4353
1 4354
1 4355
1 4356
1 4357
1 4358
1 4359
1 4360
1 4361
1 4362
1 4363
1 4364
1 4365
1 4366
1 4367
1 4368
1 4369
1 4370
1 4371
1 4372
1 4373
1 4374
1 4375
1 4376
1 4377
1 4378
1 4379
1 4380
1 4381
1 4382
1 4383
1 4384
1 4385
1 4386
1 4387
1 4388
1 4389
1 4390
1 4391
1 4392
1 4393
1 4394
1 4395
1 4396
1 4397
1 4398
1 4399
1 4400
1 4401
1 4402
1 4403
1 4404
1 4405
1 4406
1 4407
1 4408
1 4409
1 4410
1 4411
1 4412
1 4413
1 4414
1 4415
1 4416
1 4417
1 4418
1 4419
1 4420
1 4421
1 4422
1 4423
1 4424
1 4425
1 4426
1 4427
1 4428
1 4429
1 4430
1 4431
1 4432
1 4433
1 4434
1 4435
1 4436
1 4437
1 4438
1 4439
1 4440
1 4441
1 4442
1 4443
1 4444
1 4445
1 4446
1 4447
1 4448
1 4449
1 4450
1 4451
1 4452
1 4453
1 4454
1 4455
1 4456
1 4457
1 4458
1 4459
1 4460
1 4461
1 4462
1 4463
1 4464
1 4465
1 4466
1 4467
1 4468
1 4469
1 4470
1 4471
1 4472
1 4473
1 4474
1 4475
1 4476
1 4477
1 4478
1 4479
1 4480
1 4481
1 4482
1 4483
1 4484
1 4485
1 4486
1 4487
1 4488
1 4489
1 4490
1 4491
1 4492
1 4493
1 4494
1 4495
1 4496
1 4497
1 4498
1 4499
1 4500
1 4501
1 4502
1 4503
1 4504
1 4505
1 4506
1 4507
1 4508
1 4509
1 4510
1 4511
1 4512
1 4513
1 4514
1 4515
1 4516
1 4517
1 4518
1 4519
1 4520
1 4521
1 4522
1 4523
1 4524
1 4525
1 4526
1 4527
1 4528
1 4529
1 4530
1 4531
1 4532
1 4533
1 4534
1 4535
1 4536
1 4537
1 4538
1 4539
1 4540
1 4541
1 4542
1 4543
1 4544
1 4545
1 4546
1 4547
1 4548
1 4549
1 4550
1 4551
1 4552
1 4553
1 4554
1 4555
1 4556
1 4557
1 4558
1 4559
1 4560
1 4561
1 4562
1 4563
1 4564
1 4565
1 4566
1 4567
1 4568
1 4569
1 4570
1 4571
1 4572
1 4573
1 4574
1 4575
1 4576
1 4577
1 4578
1 4579
1 4580
1 4581
1 4582
1 4583
1 4584
1 4585
1 4586
1 4587
1 4588
1 4589
1 4590
1 4591
1 4592
1 4593
1 4594
1 4595
1 4596
1 4597
1 4598
1 4599
1 4600
1 4601
1 4602
1 4603
1 4604
1 4605
1 4606
1 4607
1 4608
1 4609
1 4610
1 4611
1 4612
1 4613
1 4614
1 4615
1 4616
1 4617
1 4618
1 4619
1 4620
1 4621
1 4622
1 4623
1 4624
1 4625
1 4626
1 4627
1 4628
1 4629
1 4630
1 4631
1 4632
1 4633
1 4634
1 4635
1 4636
1 4637
1 4638
1 4639
1 4640
1 4641
1 4642
1 4643
1 4644
1 4645
1 4646
1 4647
1 4648
1 4649
1 4650
1 4651
1 4652
1 4653
1 4654
1 4655
1 4656
1 4657
1 4658
1 4659
1 4660
1 4661
1 4662
1 4663
1 4664
1 4665
1 4666
1 4667
1 4668
1 4669
1 4670
1 4671
1 4672
1 4673
1 4674
1 4675
1 4676
1 4677
1 4678
1 4679
1 4680
1 4681
1 4682
1 4683
1 4684
1 4685
1 4686
1 4687
1 4688
1 4689
1 4690
1 4691
1 4692
1 4693
1 4694
1 4695
1 4696
1 4697
1 4698
1 4699
1 4700
1 4701
1 4702
1 4703
1 4704
1 4705
1 4706
1 4707
1 4708
1 4709
1 4710
1 4711
1 4712
1 4713
1 4714
1 4715
1 4716
1 4717
1 4718
1 4719
1 4720
1 4721
1 4722
1 4723
1 4724
1 4725
1 4726
1 4727
1 4728
1 4729
1 4730
1 4731
1 4732
1 4733
1 4734
1 4735
1 4736
1 4737
1 4738
1 4739
1 4740
1 4741
1 4742
1 4743
1 4744
1 4745
1 4746
1 4747
1 4748
1 4749
1 4750
1 4751
1 4752
1 4753
1 4754
1 4755
1 4756
1 4757
1 4758
1 4759
1 4760
1 4761
1 4762
1 4763
1 4764
1 4765
1 4766
1 4767
1 4768
1 4769
1 4770
1 4771
1 4772
1 4773
1 4774
1 4775
1 4776
1 4777
1 4778
1 4779
1 4780
1 4781
1 4782
1 4783
1 4784
1 4785
1 4786
1 4787
1 4788
1 4789
1 4790
1 4791
1 4792
1 4793
1 4794
1 4795
1 4796
1 4797
1 4798
1 4799
1 4800
1 4801
1 4802
1 4803
1 4804
1 4805
1 4806
1 4807
1 4808
1 4809
1 4810
1 4811
1 4812
1 4813
1 4814
1 4815
1 4816
1 4817
1 4818
1 4819
1 4820
1 4821
1 4822
1 4823
1 4824
1 4825
1 4826
1 4827
1 4828
1 4829
1 4830
1 4831
1 4832
1 4833
1 4834
1 4835
1 4836
1 4837
1 4838
1 4839
1 4840
1 4841
1 4842
1 4843
1 4844
1 4845
1 4846
1 4847
1 4848
1 4849
1 4850
1 4851
1 4852
1 4853
1 4854
1 4855
1 4856
1 4857
1 4858
1 4859
1 4860
1 4861
1 4862
1 4863
1 4864
1 4865
1 4866
1 4867
1 4868
1 4869
1 4870
1 4871
1 4872
1 4873
1 4874
1 4875
1 4876
1 4877
1 4878
1 4879
1 4880
1 4881
1 4882
1 4883
1 4884
1 4885
1 4886
1 4887
1 4888
1 4889
1 4890
1 4891
1 4892
1 4893
1 4894
1 4895
1 4896
1 4897
1 4898
1 4899
1 4900
1 4901
1 4902
1 4903
1 4904
1 4905
1 4906
1 4907
1 4908
1 4909
1 4910
1 4911
1 4912
1 4913
1 4914
1 4915
1 4916
1 4917
1 4918
1 4919
1 4920
1 4921
1 4922
1 4923
1 4924
1 4925
1 4926
1 4927
1 4928
1 4929
1 4930
1 4931
1 4932
1 4933
1 4934
1 4935
1 4936
1 4937
1 4938
1 4939
1 4940
1 4941
1 4942
1 4943
1 4944
1 4945
1 4946
1 4947
1 4948
1 4949
1 4950
1 4951
1 4952
1 4953
1 4954
1 4955
1 4956
1 4957
1 4958
1 4959
1 4960
1 4961
1 4962
1 4963
1 4964
1 4965
1 4966
1 4967
1 4968
1 4969
1 4970
1 4971
1 4972
1 4973
1 4974
1 4975
1 4976
1 4977
1 4978
1 4979
1 4980
1 4981
1 4982
1 4983
1 4984
1 4985
1 4986
1 4987
1 4988
1 4989
1 4990
1 4991
1 4992
1 4993
1 4994
1 4995
1 4996
1 4997
1 4998
1 4999
CELL_TYPES 5000
1 
1 
1 
1 
1 
1 
1 
1 
1 
1 
1 
1 
1 
1 
1 
1 
1 
1 
1 
1 
1 
1 
1 
1 
1 
1 
1 
1 
1 
1 
1 
1 
1 
1 
1 
1 
1 
1 
1 
1 
1 
1 
1 
1 
1 
1 
1 
1 
1 
1 
1 
1 
1 
1 
1 
1 
1 
1 
1 
1 
1 
1 
1 
1 
1 
1 
1 
1 
1 
1 
1 
1 
1 
1 
1 
1 
1 
1 
1 
1 
1 
1 
1 
1 
1 
1 
1 
1 
1 
1 
1 
1 
1 
1 
1 
1 
1 
1 
1 
1 
1 
1 
1 
1 
1 
1 
1 
1 
1 
1 
1 
1 
1 
1 
1 
1 
1 
1 
1 
1 
1 
1 
1 
1 
1 
1 
1 
1 
1 
1 
1 
1 
1 
1 
1 
1 
1 
1 
1 
1 
1 
1 
1 
1 
1 
1 
1 
1 
1 
1 
1 
1 
1 
1 
1 
1 
1 
1 
1 
1 
1 
1 
1 
1 
1 
1 
1 
1 
1 
1 
1 
1 
1 
1 
1 
1 
1 
1 
1 
1 
1 
1 
1 
1 
1 
1 
1 
1 
1 
1 
1 
1 
1 
1 
1 
1 
1 
1 
1 
1 
1 
1 
1 
1 
1 
1 
1 
1 
1 
1 
1 
1 
1 
1 
1 
1 
1 
1 
1 
1 
1 
1 
1 
1 
1 
1 
1 
1 
1 
1 
1 
1 
1 
1 
1 
1 
1 
1 
1 
1 
1 
1 
1 
1 
1 
1 
1 
1 
1 
1 
1 
1 
1 
1 
1 
1 
1 
1 
1 
1 
1 
1 
1 
1 
1 
1 
1 
1 
1 
1 
1 
1 
1 
1 
1 
1 
1 
1 
1 
1 
1 
1 
1 
1 
1 
1 
1 
1 
1 
1 
1 
1 
1 
1 
1 
1 
1 
1 
1 
1 
1 
1 
1 
1 
1 
1 
1 
1 
1 
1 
1 
1 
1 
1 
1 
1 
1 
1 
1 
1 
1 
1 
1 
1 
1 
1 
1 
1 
1 
1 
1 
1 
1 
1 
1 
1 
1 
1 
1 
1 
1 
1 
1 
1 
1 
1 
1 
1 
1 
1 
1 
1 
1 
1 
1 
1 
1 
1 
1 
1 
1 
1 
1 
1 
1 
1 
1 
1 
1 
1 
1 
1 
1 
1 
1 
1 
1 
1 
1 
1 
1 
1 
1 
1 
1 
1 
1 
1 
1 
1 
1 
1 
1 
1 
1 
1 
1 
1 
1 
1 
1 
1 
1 
1 
1 
1 
1 
1 
1 
1 
1 
1 
1 
1 
1 
1 
1 
1 
1 
1 
1 
1 
1 
1 
1 
1 
1 
1 
1 
1 
1 
1 
1 
1 
1 
1 
1 
1 
1 
1 
1 
1 
1 
1 
1 
1 
1 
1 
1 
1 
1 
1 
1 
1 
1 
1 
1 
1 
1 
1 
1 
1 
1 
1 
1 
1 
1 
1 
1 
1 
1 
1 
1 
1 
1 
1 
1 
1 
1 
1 
1 
1 
1 
1 
1 
1 
1 
1 
1 
1 
1 
1 
1 
1 
1 
1 
1 
1 
1 
1 
1 
1 
1 
1 
1 
1 
1 
1 
1 
1 
1 
1 
1 
1 
1 
1 
1 
1 
1 
1 
1 
1 
1 
1 
1 
1 
1 
1 
1 
1 
1 
1 
1 
1 
1 
1 
1 
1 
1 
1 
1 
1 
1 
1 
1 
1 
1 
1 
1 
1 
1 
1 
1 
1 
1 
1 
1 
1 
1 
1 
1 
1 
1 
1 
1 
1 
1 
1 
1 
1 
1 
1 
1 
1 
1 
1 
1 
1 
1 
1 
1 
1 
1 
1 
1 
1 
1 
1 
1 
1 
1 
1 
1 
1 
1 
1 
1 
1 
1 
1 
1 
1 
1 
1 
1 
1 
1 
1 
1 
1 
1 
1 
1 
1 
1 
1 
1 
1 
1 
1 
1 
1 
1 
1 
1 
1 
1 
1 
1 
1 
1 
1 
1 
1 
1 
1 
1 
1 
1 
1 
1 
1 
1 
1 
1 
1 
1 
1 
1 
1 
1 
1 
1 
1 
1 
1 
1 
1 
1 
1 
1 
1 
1 
1 
1 
1 
1 
1 
1 
1 
1 
1 
1 
1 
1 
1 
1 
1 
1 
1 
1 
1 
1 
1 
1 
1 
1 
1 
1 
1 
1 
1 
1 
1 
1 
1 
1 
1 
1 
1 
1 
1 
1 
1 
1 
1 
1 
1 
1 
1 
1 
1 
1 
1 
1 
1 
1 
1 
1 
1 
1 
1 
1 
1 
1 
1 
1 
1 
1 
1 
1 
1 
1 
1 
1 
1 
1 
1 
1 
1 
1 
1 
1 
1 
1 
1 
1 
1 
1 
1 
1 
1 
1 
1 
1 
1 
1 
1 
1 
1 
1 
1 
1 
1 
1 
1 
1 
1 
1 
1 
1 
1 
1 
1 
1 
1 
1 
1 
1 
1 
1 
1 
1 
1 
1 
1 
1 
1 
1 
1 
1 
1 
1 
1 
1 
1 
1 
1 
1 
1 
1 
1 
1 
1 
1 
1 
1 
1 
1 
1 
1 
1 
1 
1 
1 
1 
1 
1 
1 
1 
1 
1 
1 
1 
1 
1 
1 
1 
1 
1 
1 
1 
1 
1 
1 
1 
1 
1 
1 
1 
1 
1 
1 
1 
1 
1 
1 
1 
1 
1 
1 
1 
1 
1 
1 
1 
1 
1 
1 
1 
1 
1 
1 
1 
1 
1 
1 
1 
1 
1 
1 
1 
1 
1 
1 
1 
1 
1 
1 
1 
1 
1 
1 
1 
1 
1 
1 
1 
1 
1 
1 
1 
1 
1 
1 
1 
1 
1 
1 
1 
1 
1 
1 
1 
1 
1 
1 
1 
1 
1 
1 
1 
1 
1 
1 
1 
1 
1 
1 
1 
1 
1 
1 
1 
1 
1 
1 
1 
1 
1 
1 
1 
1 
1 
1 
1 
1 
1 
1 
1 
1 
1 
1 
1 
1 
1 
1 
1 
1 
1 
1 
1 
1 
1 
1 
1 
1 
1 
1 
1 
1 
1 
1 
1 
1 
1 
1 
1 
1 
1 
1 
1 
1 
1 
1 
1 
1 
1 
1 
1 
1 
1 
1 
1 
1 
1 
1 
1 
1 
1 
1 
1 
1 
1 
1 
1 
1 
1 
1 
1 
1 
1 
1 
1 
1 
1 
1 
1 
1 
1 
1 
1 
1 
1 
1 
1 
1 
1 
1 
1 
1 
1 
1 
1 
1 
1 
1 
1 
1 
1 
1 
1 
1 
1 
1 
1 
1 
1 
1 
1 
1 
1 
1 
1 
1 
1 
1 
1 
1 
1 
1 
1 
1 
1 
1 
1 
1 
1 
1 
1 
1 
1 
1 
1 
1 
1 
1 
1 
1 
1 
1 
1 
1 
1 
1 
1 
1 
1 
1 
1 
1 
1 
1 
1 
1 
1 
1 
1 
1 
1 
1 
1 
1 
1 
1 
1 
1 
1 
1 
1 
1 
1 
1 
1 
1 
1 
1 
1 
1 
1 
1 
1 
1 
1 
1 
1 
1 
1 
1 
1 
1 
1 
1 
1 
1 
1 
1 
1 
1 
1 
1 
1 
1 
1 
1 
1 
1 
1 
1 
1 
1 
1 
1 
1 
1 
1 
1 
1 
1 
1 
1 
1 
1 
1 
1 
1 
1 
1 
1 
1 
1 
1 
1 
1 
1 
1 
1 
1 
1 
1 
1 
1 
1 
1 
1 
1 
1 
1 
1 
1 
1 
1 
1 
1 
1 
1 
1 
1 
1 
1 
1 
1 
1 
1 
1 
1 
1 
1 
1 
1 
1 
1 
1 
1 
1 
1 
1 
1 
1 
1 
1 
1 
1 
1 
1 
1 
1 
1 
1 
1 
1 
1 
1 
1 
1 
1 
1 
1 
1 
1 
1 
1 
1 
1 
1 
1 
1 
1 
1 
1 
1 
1 
1 
1 
1 
1 
1 
1 
1 
1 
1 
1 
1 
1 
1 
1 
1 
1 
1 
1 
1 
1 
1 
1 
1 
1 
1 
1 
1 
1 
1 
1 
1 
1 
1 
1 
1 
1 
1 
1 
1 
1 
1 
1 
1 
1 
1 
1 
1 
1 
1 
1 
1 
1 
1 
1 
1 
1 
1 
1 
1 
1 
1 
1 
1 
1 
1 
1 
1 
1 
1 
1 
1 
1 
1 
1 
1 
1 
1 
1 
1 
1 
1 
1 
1 
1 
1 
1 
1 
1 
1 
1 
1 
1 
1 
1 
1 
1 
1 
1 
1 
1 
1 
1 
1 
1 
1 
1 
1 
1 
1 
1 
1 
1 
1 
1 
1 
1 
1 
1 
1 
1 
1 
1 
1 
1 
1 
1 
1 
1 
1 
1 
1 
1 
1 
1 
1 
1 
1 
1 
1 
1 
1 
1 
1 
1 
1 
1 
1 
1 
1 
1 
1 
1 
1 
1 
1 
1 
1 
1 
1 
1 
1 
1 
1 
1 
1 
1 
1 
1 
1 
1 
1 
1 
1 
1 
1 
1 
1 
1 
1 
1 
1 
1 
1 
1 
1 
1 
1 
1 
1 
1 
1 
1 
1 
1 
1 
1 
1 
1 
1 
1 
1 
1 
1 
1 
1 
1 
1 
1 
1 
1 
1 
1 
1 
1 
1 
1 
1 
1 
1 
1 
1 
1 
1 
1 
1 
1 
1 
1 
1 
1 
1 
1 
1 
1 
1 
1 
1 
1 
1 
1 
1 
1 
1 
1 
1 
1 
1 
1 
1 
1 
1 
1 
1 
1 
1 
1 
1 
1 
1 
1 
1 
1 
1 
1 
1 
1 
1 
1 
1 
1 
1 
1 
1 
1 
1 
1 
1 
1 
1 
1 
1 
1 
1 
1 
1 
1 
1 
1 
1 
1 
1 
1 
1 
1 
1 
1 
1 
1 
1 
1 
1 
1 
1 
1 
1 
1 
1 
1 
1 
1 
1 
1 
1 
1 
1 
1 
1 
1 
1 
1 
1 
1 
1 
1 
1 
1 
1 
1 
1 
1 
1 
1 
1 
1 
1 
1 
1 
1 
1 
1 
1 
1 
1 
1 
1 
1 
1 
1 
1 
1 
1 
1 
1 
1 
1 
1 
1 
1 
1 
1 
1 
1 
1 
1 
1 
1 
1 
1 
1 
1 
1 
1 
1 
1 
1 
1 
1 
1 
1 
1 
1 
1 
1 
1 
1 
1 
1 
1 
1 
1 
1 
1 
1 
1 
1 
1 
1 
1 
1 
1 
1 
1 
1 
1 
1 
1 
1 
1 
1 
1 
1 
1 
1 
1 
1 
1 
1 
1 
1 
1 
1 
1 
1 
1 
1 
1 
1 
1 
1 
1 
1 
1 
1 
1 
1 
1 
1 
1 
1 
1 
1 
1 
1 
1 
1 
1 
1 
1 
1 
1 
1 
1 
1 
1 
1 
1 
1 
1 
1 
1 
1 
1 
1 
1 
1 
1 
1 
1 
1 
1 
1 
1 
1 
1 
1 
1 
1 
1 
1 
1 
1 
1 
1 
1 
1 
1 
1 
1 
1 
1 
1 
1 
1 
1 
1 
1 
1 
1 
1 
1 
1 
1 
1 
1 
1 
1 
1 
1 
1 
1 
1 
1 
1 
1 
1 
1 
1 
1 
1 
1 
1 
1 
1 
1 
1 
1 
1 
1 
1 
1 
1 
1 
1 
1 
1 
1 
1 
1 
1 
1 
1 
1 
1 
1 
1 
1 
1 
1 
1 
1 
1 
1 
1 
1 
1 
1 
1 
1 
1 
1 
1 
1 
1 
1 
1 
1 
1 
1 
1 
1 
1 
1 
1 
1 
1 
1 
1 
1 
1 
1 
1 
1 
1 
1 
1 
1 
1 
1 
1 
1 
1 
1 
1 
1 
1 
1 
1 
1 
1 
1 
1 
1 
1 
1 
1 
1 
1 
1 
1 
1 
1 
1 
1 
1 
1 
1 
1 
1 
1 
1 
1 
1 
1 
1 
1 
1 
1 
1 
1 
1 
1 
1 
1 
1 
1 
1 
1 
1 
1 
1 
1 
1 
1 
1 
1 
1 
1 
1 
1 
1 
1 
1 
1 
1 
1 
1 
1 
1 
1 
1 
1 
1 
1 
1 
1 
1 
1 
1 
1 
1 
1 
1 
1 
1 
1 
1 
1 
1 
1 
1 
1 
1 
1 
1 
1 
1 
1 
1 
1 
1 
1 
1 
1 
1 
1 
1 
1 
1 
1 
1 
1 
1 
1 
1 
1 
1 
1 
1 
1 
1 
1 
1 
1 
1 
1 
1 
1 
1 
1 
1 
1 
1 
1 
1 
1 
1 
1 
1 
1 
1 
1 
1 
1 
1 
1 
1 
1 
1 
1 
1 
1 
1 
1 
1 
1 
1 
1 
1 
1 
1 
1 
1 
1 
1 
1 
1 
1 
1 
1 
1 
1 
1 
1 
1 
1 
1 
1 
1 
1 
1 
1 
1 
1 
1 
1 
1 
1 
1 
1 
1 
1 
1 
1 
1 
1 
1 
1 
1 
1 
1 
1 
1 
1 
1 
1 
1 
1 
1 
1 
1 
1 
1 
1 
1 
1 
1 
1 
1 
1 
1 
1 
1 
1 
1 
1 
1 
1 
1 
1 
1 
1 
1 
1 
1 
1 
1 
1 
1 
1 
1 
1 
1 
1 
1 
1 
1 
1 
1 
1 
1 
1 
1 
1 
1 
1 
1 
1 
1 
1 
1 
1 
1 
1 
1 
1 
1 
1 
1 
1 
1 
1 
1 
1 
1 
1 
1 
1 
1 
1 
1 
1 
1 
1 
1 
1 
1 
1 
1 
1 
1 
1 
1 
1 
1 
1 
1 
1 
1 
1 
1 
1 
1 
1 
1 
1 
1 
1 
1 
1 
1 
1 
1 
1 
1 
1 
1 
1 
1 
1 
1 
1 
1 
1 
1 
1 
1 
1 
1 
1 
1 
1 
1 
1 
1 
1 
1 
1 
1 
1 
1 
1 
1 
1 
1 
1 
1 
1 
1 
1 
1 
1 
1 
1 
1 
1 
1 
1 
1 
1 
1 
1 
1 
1 
1 
1 
1 
1 
1 
1 
1 
1 
1 
1 
1 
1 
1 
1 
1 
1 
1 
1 
1 
1 
1 
1 
1 
1 
1 
1 
1 
1 
1 
1 
1 
1 
1 
1 
1 
1 
1 
1 
1 
1 
1 
1 
1 
1 
1 
1 
1 
1 
1 
1 
1 
1 
1 
1 
1 
1 
1 
1 
1 
1 
1 
1 
1 
1 
1 
1 
1 
1 
1 
1 
1 
1 
1 
1 
1 
1 
1 
1 
1 
1 
1 
1 
1 
1 
1 
1 
1 
1 
1 
1 
1 
1 
1 
1 
1 
1 
1 
1 
1 
1 
1 
1 
1 
1 
1 
1 
1 
1 
1 
1 
1 
1 
1 
1 
1 
1 
1 
1 
1 
1 
1 
1 
1 
1 
1 
1 
1 
1 
1 
1 
1 
1 
1 
1 
1 
1 
1 
1 
1 
1 
1 
1 
1 
1 
1 
1 
1 
1 
1 
1 
1 
1 
1 
1 
1 
1 
1 
1 
1 
1 
1 
1 
1 
1 
1 
1 
1 
1 
1 
1 
1 
1 
1 
1 
1 
1 
1 
1 
1 
1 
1 
1 
1 
1 
1 
1 
1 
1 
1 
1 
1 
1 
1 
1 
1 
1 
1 
1 
1 
1 
1 
1 
1 
1 
1 
1 
1 
1 
1 
1 
1 
1 
1 
1 
1 
1 
1 
1 
1 
1 
1 
1 
1 
1 
1 
1 
1 
1 
1 
1 
1 
1 
1 
1 
1 
1 
1 
1 
1 
1 
1 
1 
1 
1 
1 
1 
1 
1 
1 
1 
1 
1 
1 
1 
1 
1 
1 
1 
1 
1 
1 
1 
1 
1 
1 
1 
1 
1 
1 
1 
1 
1 
1 
1 
1 
1 
1 
1 
1 
1 
1 
1 
1 
1 
1 
1 
1 
1 
1 
1 
1 
1 
1 
1 
1 
1 
1 
1 
1 
1 
1 
1 
1 
1 
1 
1 
1 
1 
1 
1 
1 
1 
1 
1 
1 
1 
1 
1 
1 
1 
1 
1 
1 
1 
1 
1 
1 
1 
1 
1 
1 
1 
1 
1 
1 
1 
1 
1 
1 
1 
1 
1 
1 
1 
1 
1 
1 
1 
1 
1 
1 
1 
1 
1 
1 
1 
1 
1 
1 
1 
1 
1 
1 
1 
1 
1 
1 
1 
1 
1 
1 
1 
1 
1 
1 
1 
1 
1 
1 
1 
1 
1 
1 
1 
1 
1 
1 
1 
1 
1 
1 
1 
1 
1 
1 
1 
1 
1 
1 
1 
1 
1 
1 
1 
1 
1 
1 
1 
1 
1 
1 
1 
1 
1 
1 
1 
1 
1 
1 
1 
1 
1 
1 
1 
1 
1 
1 
1 
1 
1 
1 
1 
1 
1 
1 
1 
1 
1 
1 
1 
1 
1 
1 
1 
1 
1 
1 
1 
1 
1 
1 
1 
1 
1 
1 
1 
1 
1 
1 
1 
1 
1 
1 
1 
1 
1 
1 
1 
1 
1 
1 
1 
1 
1 
1 
1 
1 
1 
1 
1 
1 
1 
1 
1 
1 
1 
1 
1 
1 
1 
1 
1 
1 
1 
1 
1 
1 
1 
1 
1 
1 
1 
1 
1 
1 
1 
1 
1 
1 
1 
1 
1 
1 
1 
1 
1 
1 
1 
1 
1 
1 
1 
1 
1 
1 
1 
1 
1 
1 
1 
1 
1 
1 
1 
1 
1 
1 
1 
1 
1 
1 
1 
1 
1 
1 
1 
1 
1 
1 
1 
1 
1 
1 
1 
1 
1 
1 
1 
1 
1 
1 
1 
1 
1 
1 
1 
1 
1 
1 
1 
1 
1 
1 
1 
1 
1 
1 
1 
1 
1 
1 
1 
1 
1 
1 
1 
1 
1 
1 
1 
1 
1 
1 
1 
1 
1 
1 
1 
1 
1 
1 
1 
1 
1 
1 
1 
1 
1 
1 
1 
1 
1 
1 
1 
1 
1 
1 
1 
1 
1 
1 
1 
1 
1 
1 
1 
1 
1 
1 
1 
1 
1 
1 
1 
1 
1 
1 
1 
1 
1 
1 
1 
1 
1 
1 
1 
1 
1 
1 
1 
1 
1 
1 
1 
1 
1 
1 
1 
1 
1 
1 
1 
1 
1 
1 
1 
1 
1 
1 
1 
1 
1 
1 
1 
1 
1 
1 
1 
1 
1 
1 
1 
1 
1 
1 
1 
1 
1 
1 
1 
1 
1 
1 
1 
1 
1 
1 
1 
1 
1 
1 
1 
1 
1 
1 
1 
1 
1 
1 
1 
1 
1 
1 
1 
1 
1 
1 
1 
1 
1 
1 
1 
1 
1 
1 
1 
1 
1 
1 
1 
1 
1 
1 
1 
1 
1 
1 
1 
1 
1 
1 
1 
1 
1 
1 
1 
1 
1 
1 
1 
1 
1 
1 
1 
1 
1 
1 
1 
1 
1 
1 
1 
1 
1 
1 
1 
1 
1 
1 
1 
1 
1 
1 
1 
1 
1 
1 
1 
1 
1 
1 
1 
1 
1 
1 
1 
1 
1 
1 
1 
1 
1 
1 
1 
1 
1 
1 
1 
1 
1 
1 
1 
1 
1 
1 
1 
1 
1 
1 
1 
1 
1 
1 
1 
1 
1 
1 
1 
1 
1 
1 
1 
1 
1 
1 
1 
1 
1 
1 
1 
1 
1 
1 
1 
1 
1 
1 
1 
1 
1 
1 
1 
1 
1 
1 
1 
1 
1 
1 
1 
1 
1 
1 
1 
1 
1 
1 
1 
1 
1 
1 
1 
1 
1 
1 
1 
1 
1 
1 
1 
1 
1 
1 
1 
1 
1 
1 
1 
1 
1 
1 
1 
1 
1 
1 
1 
1 
1 
1 
1 
1 
1 
1 
1 
1 
1 
1 
1 
1 
1 
1 
1 
1 
1 
1 
1 
1 
1 
1 
1 
1 
1 
1 
1 
1 
1 
1 
1 
1 
1 
1 
1 
1 
1 
1 
1 
1 
1 
1 
1 
1 
1 
1 
1 
1 
1 
1 
1 
1 
1 
1 
1 
1 
1 
1 
1 
1 
1 
1 
1 
1 
1 
1 
1 
1 
1 
1 
1 
1 
1 
1 
1 
1 
1 
1 
1 
1 
1 
1 
1 
1 
1 
1 
1 
1 
1 
1 
1 
1 
1 
1 
1 
1 
1 
1 
1 
1 
1 
1 
1 
1 
1 
1 
1 
1 
1 
1 
1 
1 
1 
1 
1 
1 
1 
1 
1 
1 
1 
1 
1 
1 
1 
1 
1 
1 
1 
1 
1 
1 
1 
1 
1 
1 
1 
1 
1 
1 
1 
1 
1 
1 
1 
1 
1 
1 
1 
1 
1 
1 
1 
1 
1 
1 
1 
1 
1 
1 
1 
1 
1 
1 
1 
1 
1 
1 
1 
1 
1 
1 
1 
1 
1 
1 
1 
1 
1 
1 
1 
1 
1 
1 
1 
1 
1 
1 
1 
1 
1 
1 
1 
1 
1 
1 
1 
1 
1 
1 
1 
1 
1 
1 
1 
1 
1 
1 
1 
1 
1 
1 
1 
1 
1 
1 
1 
1 
1 
1 
1 
1 
1 
1 
1 
1 
1 
1 
1 
1 
1 
1 
1 
1 
1 
1 
1 
1 
1 
1 
1 
1 
1 
1 
1 
1 
1 
1 
1 
1 
1 
1 
1 
1 
1 
1 
1 
1 
1 
1 
1 
1 
1 
1 
1 
1 
1 
1 
1 
1 
1 
1 
1 
1 
1 
1 
1 
1 
1 
1 
1 
1 
1 
1 
1 
1 
1 
1 
1 
1 
1 
1 
1 
1 
1 
1 
1 
1 
1 
1 
1 
1 
1 
1 
1 
1 
1 
1 
1 
1 
1 
1 
1 
1 
1 
1 
1 
1 
1 
1 
1 
1 
1 
1 
1 
1 
1 
1 
1 
1 
1 
1 
1 
1 
1 
1 
1 
1 
1 
1 
1 
1 
1 
1 
1 
1 
1 
1 
1 
1 
1 
1 
1 
1 
1 
1 
1 
1 
1 
1 
1 
1 
1 
1 
1 
1 
1 
1 
1 
1 
1 
1 
1 
1 
1 
1 
1 
1 
1 
1 
1 
1 
1 
1 
1 
1 
1 
1 
1 
1 
1 
1 
1 
1 
1 
1 
1 
1 
1 
1 
1 
1 
1 
1 
1 
1 
1 
1 
1 
1 
1 
1 
1 
1 
1 
1 
1 
1 
1 
1 
1 
1 
1 
1 
1 
1 
1 
1 
1 
1 
1 
1 
1 
1 
1 
1 
1 
1 
1 
1 
1 
1 
1 
1 
1 
1 
1 
1 
1 
1 
1 
1 
1 
1 
1 
1 
1 
1 
1 
1 
1 
1 
1 
1 
1 
1 
1 
1 
1 
1 
1 
1 
1 
1 
1 
1 
1 
1 
1 
1 
1 
1 
1 
1 
1 
1 
1 
1 
1 
1 
1 
1 
1 
1 
1 
1 
1 
1 
1 
1 
1 
1 
1 
1 
1 
1 
1 
1 
1 
1 
1 
1 
1 
1 
1 
1 
1 
1 
1 
1 
1 
1 
1 
1 
1 
1 
1 
1 
1 
1 
1 
1 
1 
1 
1 
1 
1 
1 
1 
1 
1 
1 
1 
1 
1 
1 
1 
1 
1 
1 
1 
1 
1 
1 
1 
1 
1 
1 
1 
1 
1 
1 
1 
1 
1 
1 
1 
1 
1 
1 
1 
1 
1 
1 
1 
1 
1 
1 
1 
1 
1 
1 
1 
1 
1 
1 
1 
1 
1 
1 
1 
1 
1 
1 
1 
1 
1 
1 
1 
1 
1 
1 
1 
1 
1 
1 
1 
1 
1 
1 
1 
1 
1 
1 
1 
1 
1 
1 
1 
1 
1 
1 
1 
1 
1 
1 
1 
1 
1 
1 
1 
1 
1 
1 
1 
1 
1 
1 
1 
1 
1 
1 
1 
1 
1 
1 
1 
1 
1 
1 
1 
1 
1 
1 
1 
1 
1 
1 
1 
1 
1 
1 
1 
1 
1 
1 
1 
1 
1 
1 
1 
1 
1 
1 
1 
1 
1 
1 
1 
1 
1 
1 
1 
1 
1 
1 
1 
1 
1 
1 
1 
1 
1 
1 
1 
1 
1 
1 
1 
1 
1 
1 
1 
1 
1 
1 
1 
1 
1 
1 
1 
1 
1 
1 
1 
1 
1 
1 
1 
1 
1 
1 
1 
1 
1 
1 
1 
1 
1 
1 
1 
1 
1 
1 
1 
1 
1 
1 
1 
1 
1 
1 
1 
1 
1 
1 
1 
1 
1 
1 
1 
1 
1 
1 
1 
1 
1 
1 
1 
1 
1 
1 
1 
1 
1 
1 
1 
1 
1 
1 
1 
1 
1 
1 
1 
1 
1 
1 
1 
1 
1 
1 
1 
1 
1 
1 
1 
1 
1 
1 
1 
1 
1 
1 
1 
1 
1 
1 
1 
1 
1 
1 
1 
1 
1 
1 
1 
1 
1 
1 
1 
1 
1 
1 
1 
1 
1 
1 
1 
1 
1 
1 
1 
1 
1 
1 
1 
1 
1 
1 
1 
1 
1 
1 
1 
1 
1 
1 
1 
1 
1 
1 
1 
1 
1 
1 
1 
1 
1 
1 
1 
1 
1 
1 
1 
1 
1 
1 
1 
1 
1 
1 
1 
1 
1 
1 
1 
1 
1 
1 
1 
1 
1 
1 
1 
1 
1 
1 
1 
1 
1 
1 
1 
1 
1 
1 
1 
1 
1 
1 
1 
1 
1 
1 
1 
1 
1 
1 
1 
1 
1 
1 
1 
1 
1 
1 
1 
1 
1 
1 
1 
1 
1 
1 
1 
1 
1 
1 
1 
1 
1 
1 
1 
1 
1 
1 
1 
1 
1 
1 
1 
1 
1 
1 
1 
1 
1 
1 
1 
1 
1 
1 
1 
1 
1 
1 
1 
1 
1 
1 
1 
1 
1 
1 
1 
1 
1 
1 
1 
1 
1 
1 
1 
1 
1 
1 
1 
1 
1 
1 
1 
1 
1 
1 
1 
1 
1 
1 
1 
1 
1 
1 
1 
1 
1 
1 
1 
1 
1 
1 
1 
1 
1 
1 
1 
1 
1 
1 
1 
1 
1 
1 
1 
1 
1 
1 
1 
1 
1 
1 
1 
1 
1 
1 
1 
1 
1 
1 
1 
1 
1 
1 
1 
1 
1 
1 
1 
1 
1 
1 
1 
1 
1 
1 
1 
1 
1 
1 
1 
1 
1 
1 
1 
1 
1 
1 
1 
1 
1 
1 
1 
1 
1 
1 
1 
1 
1 
1 
1 
1 
1 
1 
1 
1 
1 
1 
1 
1 
1 
1 
1 
1 
1 
1 
1 
1 
1 
1 
1 
1 
1 
1 
1 
1 
1 
1 
1 
1 
1 
1 
1 
1 
1 
1 
1 
1 
1 
1 
1 
1 
1 
1 
1 
1 
1 
1 
1 
1 
1 
1 
1 
1 
1 
1 
1 
1 
1 
1 
1 
1 
1 
1 
1 
1 
1 
1 
1 
1 
1 
1 
1 
1 
1 
1 
1 
1 
1 
1 
1 
1 
1 
1 
1 
1 
1 
1 
1 
1 
1 
1 
1 
1 
1 
1 
1 
1 
1 
1 
1 
1 
1 
1 
1 
1 
1 
1 
1 
1 
1 
1 
1 
1 
1 
1 
1 
1 
1 
1 
1 
1 
1 
1 
1 
1 
1 
1 
1 
1 
1 
1 
1 
1 
1 
1 
1 
1 
1 
1 
1 
1 
1 
1 
1 
1 
1 
1 
1 
1 
1 
1 
1 
1 
1 
1 
1 
1 
1 
1 
1 
1 
1 
1 
1 
1 
1 
1 
1 
1 
1 
1 
1 
1 
1 
1 
1 
1 
1 
1 
1 
1 
1 
1 
1 
1 
1 
1 
1 
1 
1 
1 
1 
1 
1 
1 
1 
1 
1 
1 
1 
1 
1 
1 
1 
1 
1 
1 
1 
1 
1 
1 
1 
1 
1 
1 
1 
1 
1 
1 
1 
1 
1 
1 
1 
1 
1 
1 
1 
1 
1 
1 
1 
1 
1 
1 
1 
1 
1 
1 
1 
1 
1 
1 
1 
1 
1 
1 
1 
1 
1 
1 
1 
1 
1 
1 
1 
1 
1 
1 
1 
1 
1 
1 
1 
1 
1 
1 
1 
1 
1 
1 
1 
1 
1 
1 
1 
1 
1 
1 
1 
1 
1 
1 
1 
1 
1 
1 
1 
1 
1 
1 
1 
1 
1 
1 
1 
1 
1 
1 
1 
1 
1 
1 
1 
1 
1 
1 
1 
1 
1 
1 
1 
1 
1 
1 
1 
1 
1 
1 
1 
1 
1 
1 
1 
1 
1 
1 
1 
1 
1 
1 
1 
1 
1 
1 
1 
1 
1 
1 
1 
1 
1 
1 
1 
1 
1 
1 
1 
1 
1 
1 
1 
1 
1 
1 
1 
1 
1 
1 
1 
1 
1 
1 
1 
1 
1 
1 
1 
1 
1 
1 
1 
1 
1 
1 
1 
1 
1 
1 
1 
1 
1 
1 
1 
1 
1 
1 
1 
1 
1 
1 
1 
1 
1 
1 
1 
1 
1 
1 
1 
1 
1 
1 
1 
1 
1 
1 
1 
1 
1 
1 
1 
1 
1 
1 
1 
1 
1 
1 
1 
1 
1 
1 
1 
1 
1 
1 
1 
1 
1 
1 
1 
1 
1 
1 
1 
1 
1 
1 
1 
1 
1 
1 
1 
1 
1 
1 
1 
1 
1 
1 
1 
1 
1 
1 
1 
1 
1 
1 
1 
1 
1 
1 
1 
1 
1 
1 
1 
1 
1 
1 
1 
1 
1 
1 
1 
1 
1 
1 
1 
1 
1 
1 
1 
1 
1 
1 
1 
1 
1 
1 
1 
1 
1 
1 
1 
1 
1 
1 
1 
1 
1 
1 
1 
1 
1 
1 
1 
1 
1 
1 
1 
1 
1 
1 
1 
1 
1 
1 
1 
1 
1 
1 
1 
1 
1 
1 
1 
1 
1 
1 
1 
1 
1 
1 
1 
1 
1 
1 
1 
1 
1 
1 
1 
1 
1 
1 
1 
1 
1 
1 
1 
1 
1 
1 
1 
1 
1 
1 
1 
1 
1 
1 
1 
1 
1 
1 
1 
1 
1 
1 
1 
1 
1 
1 
1 
1 
1 
1 
1 
1 
1 
1 
1 
1 
1 
1 
1 
1 
1 
1 
1 
1 
1 
1 
1 
1 
1 
1 
1 
1 
1 
1 
1 
1 
1 
1 
1 
1 
1 
1 
1 
1 
1 
1 
1 
1 
1 
1 
1 
1 
1 
1 
1 
1 
1 
1 
1 
1 
1 
1 
1 
1 
1 
1 
1 
1 
1 
1 
1 
1 
1 
1 
1 
1 
1 
1 
1 
1 
1 
1 
1 
1 
1 
1 
1 
1 
1 
1 
1 
1 
1 
1 
1 
1 
1 
1 
1 
1 
1 
1 
1 
1 
1 
1 
1 
1 
1 
1 
1 
1 
1 
1 
1 
1 
1 
1 
1 
1 
1 
1 
1 
1 
1 
1 
1 
1 
1 
1 
1 
1 
1 
1 
1 
1 
1 
1 
1 
1 
1 
1 
1 
1 
1 
1 
1 
1 
1 
1 
1 
1 
1 
1 
1 
1 
1 
1 
1 
1 
1 
1 
1 
1 
1 
1 
1 
1 
1 
1 
1 
1 
1 
1 
1 
1 
1 
1 
1 
1 
1 
1 
1 
1 
1 
1 
1 
1 
1 
1 
1 
1 
1 
1 
1 
1 
1 
1 
1 
1 
1 
1 
1 
1 
1 
1 
1 
1 
1 
1 
1 
1 
1 
1 
1 
1 
1 
1 
1 
1 
1 
1 
1 
1 
1 
1 
1 
1 
1 
1 
1 
1 
1 
1 
1 
1 
1 
1 
1 
1 
1 
1 
1 
1 
1 
1 
1 
1 
1 
1 
1 
1 
1 
1 
1 
1 
1 
1 
1 
1 
1 
1 
1 
1 
1 
1 
1 
1 
1 
1 
1 
1 
1 
1 
1 
1 
1 
1 
1 
1 
1 
1 
1 
1 
1 
1 
1 
1 
1 
1 
POINT_DATA 5000
VECTORS Stress float
61.2581 -1486.72 0.
82.6497 -1496.8 0.
78.0647 -1507.54 0.
112.367 -1499.09 0.
114.405 -1494.42 0.
116.442 -1489.74 0.
-95.2364 -1578.15 0.
-95.5819 -1578.95 0.
-95.9273 -1579.75 0.
183.374 -1460.97 0.
182.383 -1463.29 0.
181.393 -1465.61 0.
-32.487 -1557.39 0.
-32.2759 -1556.89 0.
164.359 -1472.24 0.
164.043 -1473.01 0.
163.726 -1473.79 0.
20.9814 -1534.62 0.
22.3763 -1531.4 0.
23.7712 -1528.19 0.
-172.202 -1612.28 0.
-173.265 -1614.73 0.
-174.328 -1617.19 0.
158.595 -1474.24 0.
158.864 -1473.59 0.
287.603 -1417.89 0.
-216.874 -1634.43 0.
-216.566 -1633.75 0.
-388.112 -1706.9 0.
-388.396 -1707.62 0.
-388.679 -1708.34 0.
181.63 -1463.71 0.
181.818 -1463.25 0.
182.006 -1462.78 0.
52.6585 -1517.67 0.
52.4614 -1518.03 0.
52.2643 -1518.38 0.
-256.469 -1651.92 0.
-257.179 -1653.48 0.
-281.174 -1664.68 0.
-280.249 -1662.49 0.
-279.325 -1660.29 0.
-23.9818 -1548.99 0.
-23.4354 -1547.72 0.
-22.889 -1546.45 0.
-105.037 -1583.41 0.
-106.364 -1586.44 0.
-107.69 -1589.46 0.
-233.225 -1640.51 0.
-231.419 -1636.29 0.
-492.792 -1745.11 0.
-193.502 -1619.97 0.
-195.024 -1623.58 0.
-40.2092 -1559.64 0.
-39.7877 -1558.63 0.
-39.3662 -1557.63 0.
119.368 -1488.1 0.
119.2 -1488.47 0.
119.033 -1488.84 0.
10.5851 -1535.97 0.
10.3426 -1536.49 0.
10.1001 -1537 0.
-46.7959 -1560.76 0.
-46.0973 -1559.17 0.
-409.087 -1713.82 0.
-409.586 -1714.89 0.
-410.086 -1715.97 0.
441.855 -1350.53 0.
442.501 -1349.07 0.
443.147 -1347.6 0.
6.90669 -1535.08 0.
6.17346 -1536.82 0.
5.44023 -1538.56 0.
-367.953 -1699.13 0.
-368.203 -1699.73 0.
-570.976 -1787.36 0.
-429.345 -1727.27 0.
-429.667 -1728.01 0.
382.102 -1379.45 0.
382.906 -1377.49 0.
383.709 -1375.54 0.
-86.1628 -1575.15 0.
-85.1021 -1572.64 0.
-84.0414 -1570.13 0.
117.047 -1485.74 0.
114.878 -1490.81 0.
112.708 -1495.89 0.
-247.284 -1648 0.
-245.692 -1644.31 0.
158.156 -1469.95 0.
157.188 -1472.22 0.
156.22 -1474.48 0.
389.317 -1374.38 0.
389.721 -1373.35 0.
390.125 -1372.31 0.
126.375 -1488 0.
124.075 -1493.24 0.
121.775 -1498.48 0.
278.368 -1360.09 0.
326.014 -1248.73 0.
183.724 -1402.88 0.
4.59127 -1498.86 0.
0.0241976 -1509.65 0.
190.515 -1434.1 0.
192.598 -1429.47 0.
194.681 -1424.85 0.
-48.2146 -1526.51 0.
-48.5634 -1527.31 0.
-48.9121 -1528.12 0.
150.247 -1443.79 0.
149.266 -1446.11 0.
148.285 -1448.42 0.
-169.831 -1584.77 0.
-169.622 -1584.28 0.
53.3331 -1488.44 0.
53.0439 -1489.22 0.
52.7548 -1490.01 0.
183.916 -1433.31 0.
185.338 -1430.11 0.
186.76 -1426.91 0.
65.5273 -1478.92 0.
64.4543 -1481.35 0.
63.3814 -1483.77 0.
82.323 -1475.53 0.
82.5828 -1474.87 0.
-247.856 -1615.93 0.
-428.315 -1693.69 0.
-427.977 -1693.04 0.
-216.987 -1602.03 0.
-217.234 -1602.79 0.
-217.482 -1603.54 0.
249.614 -1403.1 0.
249.788 -1402.6 0.
249.962 -1402.1 0.
-66.345 -1537.38 0.
-66.6036 -1537.68 0.
-66.8622 -1537.97 0.
-197.879 -1595.44 0.
-198.646 -1596.96 0.
-151.823 -1577.95 0.
-150.925 -1575.73 0.
-150.026 -1573.51 0.
34.3873 -1492.63 0.
34.9379 -1491.36 0.
35.4885 -1490.09 0.
-167.085 -1578.53 0.
-168.443 -1581.5 0.
-169.802 -1584.47 0.
-163.584 -1579.32 0.
-161.79 -1575.1 0.
-156.808 -1569.69 0.
-208.461 -1594.92 0.
-209.953 -1598.58 0.
-37.1137 -1526.73 0.
-36.7162 -1525.74 0.
-36.3187 -1524.75 0.
224.264 -1411.87 0.
224.08 -1412.24 0.
223.897 -1412.6 0.
-41.8914 -1527.23 0.
-42.1566 -1527.68 0.
-42.4219 -1528.13 0.
81.7021 -1474.14 0.
82.4223 -1472.55 0.
-323.103 -1645.68 0.
-323.665 -1646.71 0.
-324.226 -1647.75 0.
269.489 -1393 0.
270.162 -1391.55 0.
270.835 -1390.1 0.
62.9932 -1479.66 0.
62.279 -1481.42 0.
61.5649 -1483.17 0.
-310.004 -1642.83 0.
-310.24 -1643.43 0.
-351.063 -1661.57 0.
-240.508 -1614.8 0.
-240.832 -1615.54 0.
169.515 -1439.1 0.
170.269 -1437.1 0.
171.023 -1435.11 0.
77.0229 -1473.84 0.
78.061 -1471.32 0.
79.0991 -1468.79 0.
76.9737 -1471.55 0.
74.81 -1476.64 0.
72.6464 -1481.72 0.
-170.434 -1583.57 0.
-168.835 -1579.93 0.
241.912 -1402.58 0.
240.941 -1404.86 0.
239.97 -1407.15 0.
120.656 -1458.21 0.
121.004 -1457.12 0.
121.352 -1456.03 0.
14.2395 -1504.79 0.
11.8762 -1509.92 0.
9.51288 -1515.06 0.
323.33 -1309.41 0.
370.842 -1197.99 0.
243.889 -1464.38 0.
-46.3741 -1439.06 0.
-141.859 -1661.56 0.
-23.8921 -2052.06 0.
27.5318 -1932.05 0.
-209.751 -2485.7 0.
-536.019 -2723.3 0.
-461.813 -2550.32 0.
-620.628 -2921.04 0.
-604.676 -3109.75 0.
-626.812 -3161.3 0.
-571.308 -3031.7 0.
-964.927 -3147.01 0.
-868.286 -2921.57 0.
-861.011 -3379.51 0.
-737.661 -3091.46 0.
-674.086 -2942.88 0.
-492.499 -3291.02 0.
-533.084 -3385.55 0.
-687.475 -3745.63 0.
-789.326 -3894.19 0.
-560.562 -3360.68 0.
-530.339 -3290.41 0.
-715.92 -3161.71 0.
-719.286 -3169.54 0.
-892.058 -3628.91 0.
-1345.55 -3400.13 0.
-1315.31 -3329.47 0.
-770.434 -3189.3 0.
-830.745 -3329.88 0.
-992.334 -3706.79 0.
-592.718 -3466.81 0.
-547.903 -3362.21 0.
-558.226 -3386.26 0.
-925.339 -3282.81 0.
-1079.49 -3642.99 0.
-1302.2 -4163.18 0.
-1156.11 -3911.52 0.
-1027.53 -3611.68 0.
-1090.56 -3983.43 0.
-932.315 -3614.26 0.
-874.691 -3479.89 0.
-719.065 -3330.54 0.
-556.307 -2950.79 0.
-435.14 -2668.1 0.
-878.628 -3088.4 0.
-1022.84 -3424.89 0.
-1025.76 -3431.74 0.
-800.895 -3167.69 0.
-720.329 -2979.51 0.
-1381.01 -4187.78 0.
-1028.22 -3448.47 0.
-956.62 -3280.95 0.
-757.936 -3183.12 0.
-688.546 -3021.05 0.
-873.136 -3451.62 0.
-241.964 -2668.34 0.
-386.232 -3004.99 0.
-586.296 -3471.84 0.
-942.727 -3499.15 0.
-776.875 -3112.21 0.
-839.144 -3257.55 0.
-453.087 -2934.94 0.
-589.813 -3254 0.
-1249.21 -3938.89 0.
-1269 -3985.03 0.
-1215.96 -3861.2 0.
-851.215 -3648.82 0.
-633.226 -3140.07 0.
-803.767 -3537.88 0.
-753.278 -3459.76 0.
-673.217 -3273.03 0.
-911.751 -3829.69 0.
-960.49 -3240.16 0.
-808.507 -2885.19 0.
-887.877 -3235.78 0.
-607.332 -2798.98 0.
-887.725 -3453.42 0.
-1004.3 -3740.65 0.
-737.612 -3118.27 0.
-790.518 -3241.62 0.
-644.162 -3435.17 0.
-569.016 -3260.07 0.
-633.388 -3410.5 0.
-716.504 -3215.95 0.
-543.595 -2812.34 0.
-629.373 -3012.36 0.
-788.272 -3139.07 0.
-899.136 -3397.94 0.
-551.364 -3383.51 0.
-258.738 -2700.41 0.
-138.692 -2420 0.
-725.733 -2889.71 0.
-446.316 -2237.65 0.
-603.627 -2604.6 0.
-419.797 -2272.36 0.
-144.966 -1631.27 0.
-197.041 -1752.95 0.
150.603 -1767.35 0.
264.859 -1500.66 0.
415.524 -967.757 0.
200.1 -1182.04 0.
123.433 -1360.71 0.
69.4911 -1513.33 0.
39.2318 -1583.88 0.
8.97255 -1654.44 0.
-68.2952 -1674.56 0.
-8.81442 -1536.07 0.
50.6664 -1397.59 0.
94.1748 -1398.05 0.
45.4828 -1511.7 0.
-3.20925 -1625.34 0.
-359.154 -1821.24 0.
-378.329 -1865.97 0.
-163.437 -1810.8 0.
-183.538 -1857.34 0.
-203.639 -1903.87 0.
192.114 -1742.65 0.
222.619 -1671.32 0.
253.124 -1599.99 0.
128.688 -1681.81 0.
73.8128 -1809.96 0.
18.9382 -1938.11 0.
-284.326 -2030 0.
-241.012 -1929.12 0.
352.217 -1592.63 0.
-753.541 -1946.47 0.
-691.003 -1800.52 0.
59.9249 -1413.33 0.
-10.4698 -1577.44 0.
-80.8646 -1741.56 0.
7.53741 -1734.86 0.
62.1472 -1607.49 0.
116.757 -1480.13 0.
-158.462 -1613.02 0.
-198.254 -1706.33 0.
-238.046 -1799.64 0.
-208.375 -1750.72 0.
-181.711 -1688.8 0.
-64.1536 -1605.4 0.
-128.668 -1756.2 0.
-193.182 -1907.01 0.
-89.1813 -1891.01 0.
-2.97949 -1689.93 0.
83.2223 -1488.85 0.
-252.537 -1559.53 0.
-254.131 -1563.19 0.
-255.726 -1566.84 0.
-34.3732 -1495 0.
-49.271 -1529.74 0.
-570.337 -1781.11 0.
-335.884 -1664.4 0.
-327.578 -1644.69 0.
56.0696 -1469.6 0.
51.1711 -1480.78 0.
46.2726 -1491.96 0.
221.786 -1441.61 0.
198.856 -1495.23 0.
175.927 -1548.84 0.
-7.60625 -1609.1 0.
17.9886 -1549.51 0.
43.5835 -1489.92 0.
159.003 -1558.84 0.
86.8431 -1727.18 0.
-541.034 -2094.02 0.
-443.798 -1866.97 0.
-346.562 -1639.91 0.
154.92 -1327.48 0.
119.45 -1410.31 0.
83.9802 -1493.14 0.
-12.1237 -1538.05 0.
11.6102 -1482.62 0.
35.3441 -1427.2 0.
-274.711 -1640.52 0.
-334.882 -1780.67 0.
-38.3098 -1766.79 0.
-134.439 -1831.58 0.
-146.963 -1860.54 0.
-73.6735 -1797.73 0.
35.921 -1541.82 0.
145.516 -1285.92 0.
201.057 -1209.65 0.
132.649 -1369.55 0.
64.242 -1529.45 0.
-196.765 -1744.17 0.
-242.984 -1851.91 0.
-289.202 -1959.65 0.
-174.57 -1879.24 0.
-153.284 -1829.44 0.
75.8653 -1697.29 0.
74.3902 -1700.35 0.
72.9151 -1703.41 0.
-123.795 -1775.46 0.
-104.546 -1730.23 0.
-85.2979 -1684.99 0.
-181.899 -1666.04 0.
-141.253 -1571.19 0.
-100.606 -1476.34 0.
178.386 -1220.01 0.
256.879 -1036.88 0.
381.729 -950.473 0.
383.517 -1072.14 0.
306.852 -1250.9 0.
-82.3379 -1546.76 0.
-112.602 -1617.3 0.
-142.866 -1687.84 0.
-29.3587 -1626.32 0.
30.1674 -1487.86 0.
89.6935 -1349.4 0.
68.1638 -1377.68 0.
19.5272 -1491.34 0.
-29.1094 -1604.99 0.
-296.578 -1762.94 0.
-315.77 -1807.64 0.
-116.041 -1759.17 0.
-136.198 -1805.71 0.
-156.354 -1852.24 0.
234.443 -1692.94 0.
264.946 -1621.63 0.
295.448 -1550.32 0.
108.224 -1659.21 0.
53.2989 -1787.33 0.
-1.62625 -1915.44 0.
-333.127 -2019.21 0.
-289.749 -1918.4 0.
449.577 -1519.41 0.
-775.009 -1924.26 0.
-712.463 -1778.35 0.
161.152 -1338.68 0.
90.7495 -1502.81 0.
20.3473 -1666.94 0.
-149.84 -1770.72 0.
-95.2153 -1643.4 0.
-40.5907 -1516.08 0.
-79.1424 -1547.53 0.
-118.963 -1640.86 0.
-158.784 -1734.2 0.
-165.341 -1700.91 0.
-138.645 -1639.01 0.
-38.5135 -1562.5 0.
-102.936 -1713.28 0.
-167.359 -1864.06 0.
-56.8584 -1845.8 0.
29.3539 -1644.72 0.
115.566 -1443.65 0.
-271.75 -1536.37 0.
-273.388 -1540.06 0.
-275.025 -1543.74 0.
42.9252 -1430.48 0.
28.0687 -1465.29 0.
-354.769 -1657.14 0.
-407.927 -1663.89 0.
-399.588 -1644.23 0.
170.119 -1389.32 0.
165.173 -1400.51 0.
160.227 -1411.71 0.
162.215 -1435.96 0.
139.306 -1489.61 0.
116.397 -1543.27 0.
162.304 -1504.56 0.
187.923 -1445 0.
213.541 -1385.45 0.
203.004 -1508.27 0.
130.826 -1676.59 0.
-625.665 -2099.04 0.
-528.467 -1871.95 0.
-431.269 -1644.85 0.
185.28 -1282.93 0.
149.878 -1365.79 0.
114.476 -1448.64 0.
-96.6962 -1543.03 0.
-73.014 -1487.6 0.
-49.3318 -1432.17 0.
-257.778 -1601.51 0.
-317.929 -1741.72 0.
22.3892 -1709.28 0.
-46.3789 -1762.13 0.
-59.0277 -1790.93 0.
62.7307 -1708 0.
172.313 -1452.04 0.
281.894 -1196.07 0.
84.4499 -1228.35 0.
16.0725 -1388.23 0.
-52.3049 -1548.11 0.
-316.15 -1763.69 0.
-362.351 -1871.43 0.
-408.552 -1979.17 0.
-67.7282 -1802.1 0.
-46.5546 -1752.23 0.
-24.5796 -1708.96 0.
-26.0781 -1712.01 0.
-27.5767 -1715.06 0.
45.2311 -1671.33 0.
64.4419 -1625.97 0.
83.6526 -1580.6 0.
-192.416 -1639.35 0.
-151.83 -1544.43 0.
-111.244 -1449.51 0.
-58.3966 -1289.97 0.
20.1264 -1106.92 0.
-34.39 -1793.85 0.
200.693 -1535.11 0.
291.081 -1324.73 0.
-20.8174 -1307.49 0.
14.6903 -1225.22 0.
50.1981 -1142.96 0.
145.649 -1145.14 0.
38.6483 -1395.21 0.
-68.3521 -1645.28 0.
-20.7368 -1670.16 0.
3.541 -1613.88 0.
27.8188 -1557.6 0.
-169.439 -1630.05 0.
-166.378 -1622.63 0.
-33.4485 -1556.57 0.
-14.5901 -1513.47 0.
4.26825 -1470.37 0.
368.728 -1314.29 0.
328.56 -1407.87 0.
288.393 -1501.45 0.
71.3798 -1571.66 0.
128.597 -1438.21 0.
185.815 -1304.77 0.
-62.2129 -1400.15 0.
-72.0563 -1423.03 0.
433.976 -1224.73 0.
-664.623 -1908.88 0.
-778.352 -2173.96 0.
-201.691 -2036.76 0.
-47.8973 -1677.73 0.
105.897 -1318.7 0.
5.12282 -1289.16 0.
-109.555 -1556.45 0.
-224.234 -1823.73 0.
-165.223 -1771.72 0.
-83.3635 -1580.97 0.
-1.50425 -1390.22 0.
-106.799 -1512.99 0.
-164.597 -1647.35 0.
-99.4155 -1701.83 0.
-8.4237 -1488.98 0.
82.5681 -1276.13 0.
195.485 -1170.31 0.
98.0653 -1397.58 0.
0.645153 -1624.85 0.
-384.17 -1831.35 0.
-342.412 -1734.62 0.
-300.655 -1637.89 0.
106.641 -1432.73 0.
115.419 -1412.19 0.
-745.485 -1765.09 0.
-343.964 -1593.14 0.
-344.255 -1593.36 0.
285.238 -1313.9 0.
301.554 -1275.39 0.
317.87 -1236.89 0.
126.387 -1309.46 0.
118.103 -1328.72 0.
109.819 -1347.97 0.
183.662 -1449.98 0.
83.2961 -1683.75 0.
-17.0697 -1917.52 0.
29.8485 -1671.63 0.
173.296 -1337.4 0.
-222.377 -1289.08 0.
-314.499 -1505.06 0.
-406.621 -1721.04 0.
42.1789 -1632.96 0.
57.5678 -1596.19 0.
72.9566 -1559.42 0.
-186.637 -1662.23 0.
-190.985 -1671.99 0.
-195.332 -1681.75 0.
-170.774 -1612.96 0.
-130.706 -1519.39 0.
124.568 -1333.62 0.
121.748 -1267.43 0.
157.19 -1184.85 0.
282.273 -1133.88 0.
161.501 -1415.28 0.
40.7289 -1696.68 0.
-159.804 -1818.92 0.
-63.0679 -1592.71 0.
33.6677 -1366.51 0.
-115.227 -1333.81 0.
-85.8084 -1265.2 0.
-56.3893 -1196.6 0.
217.51 -1175.04 0.
161.2 -1306.37 0.
-13.3991 -1469.62 0.
-5.2144 -1450.26 0.
2.97032 -1430.9 0.
214.153 -1322.6 0.
226.244 -1294.42 0.
238.336 -1266.23 0.
-87.2498 -1423.99 0.
-113.149 -1484.41 0.
-139.049 -1544.84 0.
-314.137 -1658.55 0.
-331.958 -1699.66 0.
-102.083 -1791.56 0.
92.2303 -1550.17 0.
182.591 -1339.85 0.
64.329 -1239.2 0.
99.8579 -1156.96 0.
135.387 -1074.73 0.
64.3399 -1148.55 0.
-42.5476 -1398.68 0.
-149.435 -1648.8 0.
127.014 -1575.39 0.
151.336 -1519.08 0.
175.657 -1462.77 0.
-27.7496 -1537.77 0.
-24.7061 -1530.38 0.
-55.4349 -1534.52 0.
-36.6732 -1491.37 0.
-17.9116 -1448.21 0.
290.719 -1316.38 0.
250.521 -1410.02 0.
210.323 -1503.65 0.
-56.2216 -1594.86 0.
0.934111 -1461.42 0.
58.0898 -1327.97 0.
33.676 -1327.42 0.
23.9298 -1350.37 0.
-510.793 -1598.35 0.
-357.393 -1745.71 0.
-471.21 -2010.85 0.
-425.731 -2101.32 0.
-272.026 -1742.4 0.
-118.321 -1383.49 0.
68.2249 -1230.66 0.
-46.5057 -1497.95 0.
-161.236 -1765.23 0.
-187.245 -1749.7 0.
-105.392 -1558.94 0.
-23.5384 -1368.18 0.
-168.711 -1508.05 0.
-226.488 -1642.38 0.
-96.3171 -1668.83 0.
-5.14542 -1456.06 0.
86.0263 -1243.28 0.
104.832 -1177.72 0.
7.41726 -1404.99 0.
-89.9971 -1632.26 0.
-297.151 -1762.61 0.
-255.336 -1665.93 0.
-213.521 -1569.26 0.
218.744 -1353.36 0.
227.513 -1332.81 0.
-190.327 -1495.73 0.
-157.027 -1481.76 0.
-157.17 -1482.08 0.
404.098 -1231.41 0.
420.404 -1192.92 0.
436.71 -1154.43 0.
-2.4453 -1333.22 0.
-10.6524 -1352.58 0.
-18.8594 -1371.94 0.
43.3504 -1478.6 0.
-57.0276 -1712.36 0.
-157.406 -1946.13 0.
-234.311 -1753.16 0.
-90.8797 -1418.96 0.
36.5433 -1147 0.
-55.7137 -1362.84 0.
-147.971 -1578.68 0.
60.0463 -1593.77 0.
75.4936 -1557.04 0.
90.9409 -1520.3 0.
-165.221 -1621.45 0.
-169.574 -1631.26 0.
-173.927 -1641.07 0.
70.3976 -1478.37 0.
110.525 -1384.86 0.
-24.645 -1365.59 0.
-39.6662 -1304.71 0.
-4.20605 -1222.19 0.
114.191 -1174.53 0.
-6.50344 -1455.95 0.
-127.198 -1737.36 0.
10.6793 -1714.23 0.
107.5 -1488.04 0.
204.32 -1261.86 0.
78.9484 -1219.14 0.
108.309 -1150.49 0.
137.67 -1081.85 0.
183.658 -1158.19 0.
127.325 -1289.49 0.
-102.587 -1476.37 0.
-94.3895 -1456.97 0.
-86.1918 -1437.58 0.
128.421 -1327.6 0.
140.501 -1299.34 0.
152.58 -1271.08 0.
-10.0092 -1359.76 0.
-36.0104 -1420.1 0.
-62.0117 -1480.43 0.
-283.558 -1613.63 0.
-301.242 -1654.84 0.
251.641 -805.204 0.
249.768 -946.065 0.
132.969 -1218.08 0.
38.1132 -1432.64 0.
189.007 -1079.81 0.
270.114 -889.796 0.
-490.743 -2258.57 0.
389.613 -203.819 0.
595.893 278.04 0.
741.623 -392.71 0.
189.213 -1681.03 0.
875.076 -79.9011 0.
549.902 -427.119 0.
169.433 -1315.31 0.
-321.419 -2080.77 0.
75.963 -1153.3 0.
54.6633 -1202.73 0.
-58.9605 -1952.28 0.
-7.56541 -1832.63 0.
189.694 -1372.63 0.
-77.6776 -1370.86 0.
108.872 -935.685 0.
-94.7864 -1410.98 0.
39.0694 -1466.31 0.
5.47508 -1544.64 0.
-121.291 -1328.12 0.
-221.046 -1980.61 0.
0.0944379 -1464.48 0.
-489.192 -1791.18 0.
-121.225 -932.309 0.
-233.998 -1195.16 0.
-671.121 -3044.21 0.
114.864 -1209.51 0.
193.417 -1025.45 0.
231.559 -699.04 0.
-246.062 -1812.73 0.
-898.148 -3333.54 0.
-745.084 -2704.09 0.
-495.283 -2121.79 0.
-13.4478 -1449.79 0.
-67.2419 -1574.83 0.
-117.316 -1691.21 0.
-304.652 -1929.52 0.
-103.527 -1460.24 0.
200.421 -751.057 0.
-14.9432 -1238.77 0.
-310.457 -1927.74 0.
-162.801 -1582.64 0.
238.436 -1491.21 0.
708.19 -394.964 0.
-1116.64 -2737.88 0.
-0.123652 -1441.42 0.
171.867 -1039.92 0.
368.522 -1508.17 0.
61.4274 -2224.52 0.
-373.278 -3238.66 0.
-177.504 -1464.5 0.
358.791 -212.842 0.
148.606 -702.977 0.
-186.106 -1715.14 0.
91.745 -1067.12 0.
671.816 286.119 0.
456.843 394.66 0.
-40.7534 -765.343 0.
-782.59 -3521.07 0.
322.189 -942.832 0.
301.205 -991.36 0.
378.636 -850.739 0.
-61.9125 -1879.36 0.
260.328 -1128.11 0.
-301.248 -1947.6 0.
47.6391 -1134.16 0.
251.604 -658.861 0.
175.175 -1661.24 0.
44.9731 -1964.35 0.
-756.969 -2725.47 0.
-481.099 -1997 0.
-421.691 -1858.25 0.
-305.354 -1801.68 0.
75.4832 -912.782 0.
-126.483 -1383.75 0.
346.792 -1221.79 0.
419.019 -1053.92 0.
288.981 -1357.97 0.
0.972256 -1739.2 0.
69.6833 -1579.12 0.
-604.859 -3153.31 0.
-121.417 -1773.91 0.
314.65 -756.218 0.
375.755 -160.059 0.
369.565 -174.421 0.
293.664 -351.5 0.
474.574 -324.523 0.
344.268 -628.992 0.
839.93 527.131 0.
362.576 -603.809 0.
146.616 -1108.16 0.
-229.245 -1985.62 0.
236.831 -425.919 0.
279.871 -325.6 0.
347.479 -791.492 0.
241.759 -1026.27 0.
143.444 -1255.5 0.
-23.3316 -1507.38 0.
-105.968 -1699.83 0.
-188.604 -1892.29 0.
-321.941 -1990.63 0.
-255.033 -1833.63 0.
-188.125 -1676.64 0.
145.464 -1549.65 0.
91.1943 -1676.11 0.
36.9241 -1802.57 0.
-170.184 -1978.14 0.
-213.838 -2080.48 0.
-284.411 -2182.57 0.
-256.06 -2115.93 0.
-227.709 -2049.3 0.
-74.1714 -1955.41 0.
-92.2264 -1997.51 0.
-110.281 -2039.6 0.
-399.194 -2158.55 0.
-379.726 -2113.27 0.
-360.258 -2067.99 0.
-303.431 -2052.89 0.
-316.044 -2082.3 0.
-393.861 -2139.58 0.
-211.4 -1890.59 0.
-119.711 -1676.73 0.
-233.066 -1644.7 0.
-376.763 -1979.98 0.
-520.46 -2315.26 0.
-546.042 -2394.23 0.
-438.814 -2143.6 0.
-331.586 -1892.98 0.
-334.763 -1942.94 0.
-431.579 -2168.37 0.
-528.395 -2393.8 0.
-647.751 -2420.28 0.
-619.815 -2354.8 0.
-364.102 -2184.14 0.
-313.564 -2065.89 0.
-263.027 -1947.64 0.
-25.9213 -1797.41 0.
-48.0116 -1848.68 0.
-70.1017 -1899.94 0.
-320.465 -2072.46 0.
-365.929 -2178.16 0.
-411.393 -2283.86 0.
-158.078 -2165.43 0.
-137.868 -2118.17 0.
-1065.79 -2477.24 0.
-232.22 -2180.77 0.
-264.307 -2255.37 0.
-70.346 -2212.18 0.
-47.0585 -2157.99 0.
-23.7711 -2103.79 0.
-362.129 -2246.02 0.
-389.651 -2309.45 0.
-417.172 -2372.89 0.
-441.922 -2250.38 0.
-324.47 -1976.5 0.
-207.018 -1702.61 0.
-561.113 -1945.37 0.
-628.257 -2100.95 0.
-233.583 -2045.93 0.
-239.677 -2059.62 0.
-245.772 -2073.3 0.
-246.508 -2074.94 0.
-236.948 -2052.83 0.
-227.387 -2030.72 0.
-374.15 -2136.91 0.
-421.369 -2247.32 0.
-468.589 -2357.74 0.
-160.311 -2213.87 0.
-141.366 -2169.31 0.
-504.284 -2287.79 0.
-518.079 -2259.1 0.
-500.054 -2216.78 0.
-382.592 -2117.64 0.
-329.57 -1994.09 0.
-276.548 -1870.55 0.
79.0813 -1748.9 0.
-14.9548 -1968.52 0.
-108.991 -2188.14 0.
-177.526 -2190.18 0.
-113.094 -2039.89 0.
-48.6621 -1889.6 0.
-224.237 -1882.88 0.
-186.284 -1794.38 0.
-173.45 -1722.38 0.
-147.37 -1661.52 0.
-121.29 -1600.67 0.
-91.1461 -1542.68 0.
-70.0247 -1493.52 0.
-48.9033 -1444.36 0.
-5.35121 -1306.08 0.
86.8534 -1090.95 0.
179.058 -875.822 0.
132.018 -764.959 0.
194.877 -618.431 0.
474.138 -705.851 0.
290.6 -973.895 0.
192.369 -1203.25 0.
-42.8373 -1484.23 0.
-125.349 -1676.82 0.
-207.86 -1869.41 0.
-239.057 -1923.21 0.
-172.159 -1766.2 0.
-105.261 -1609.18 0.
39.2233 -1563.73 0.
-14.9604 -1690.26 0.
-69.144 -1816.8 0.
-221.381 -1968.5 0.
-265.06 -2070.78 0.
-168.815 -2101.46 0.
-140.438 -2034.8 0.
-112.06 -1968.14 0.
-74.6583 -1924.39 0.
-92.7715 -1966.51 0.
-110.885 -2008.62 0.
-362.716 -2111.63 0.
-343.293 -2066.35 0.
-323.87 -2021.06 0.
-398.748 -2062.37 0.
-411.335 -2091.88 0.
-313.553 -2074.01 0.
-230.209 -1866.99 0.
-138.462 -1653.16 0.
20.4749 -1504.58 0.
-123.22 -1839.95 0.
-266.915 -2175.32 0.
-717.332 -2436.06 0.
-610.102 -2185.49 0.
-502.871 -1934.92 0.
-358.896 -1921.86 0.
-455.66 -2147.32 0.
-552.424 -2372.78 0.
-660.727 -2394.44 0.
-632.968 -2328.79 0.
-391.92 -2164.6 0.
-341.302 -2046.47 0.
-290.684 -1928.35 0.
263.09 -1642.24 0.
240.831 -1693.42 0.
218.572 -1744.6 0.
-240.305 -2006.39 0.
-285.733 -2112.22 0.
-331.161 -2218.05 0.
-272.887 -2183.22 0.
-252.604 -2135.96 0.
-1327.15 -2557.66 0.
-112.313 -2097.89 0.
-144.297 -2172.48 0.
-221.419 -2245.25 0.
-198.14 -2191.02 0.
-174.861 -2136.79 0.
-161.524 -2128.91 0.
-189.149 -2192.28 0.
-216.774 -2255.64 0.
-457.339 -2225.29 0.
-339.988 -1951.31 0.
-222.637 -1677.32 0.
-562.735 -1915.05 0.
-629.921 -2070.67 0.
-319.003 -2050.76 0.
-325.077 -2064.43 0.
-331.152 -2078.11 0.
-353.164 -2089.29 0.
-343.711 -2067.06 0.
-334.259 -2044.82 0.
-347.527 -2094.09 0.
-394.858 -2204.43 0.
-442.189 -2314.77 0.
-265.019 -2227.59 0.
-245.936 -2183.12 0.
-312.143 -2174.04 0.
-409.449 -2181.22 0.
-391.405 -2138.94 0.
-294.339 -2048.28 0.
-241.233 -1924.84 0.
-188.126 -1801.39 0.
44.0599 -1732.3 0.
-49.9897 -1951.93 0.
-144.039 -2171.56 0.
-142.799 -2143.69 0.
-78.4153 -1993.4 0.
-14.0312 -1843.12 0.
-276.734 -1874.35 0.
-238.836 -1785.88 0.
-9.53108 -1620.39 0.
16.6203 -1559.58 0.
42.7717 -1498.77 0.
-128.225 -1526.96 0.
-107.154 -1477.73 0.
-86.0827 -1428.5 0.
-71.0421 -1303.17 0.
21.032 -1087.9 0.
113.106 -872.636 0.
197.98 -705.545 0.
260.834 -559.114 0.
318.819 -1006.82 0.
127.034 -1158.42 0.
88.7735 -1247.91 0.
45.5505 -1311.23 0.
83.7336 -1221.99 0.
121.917 -1132.74 0.
90.3471 -1190.17 0.
-20.1903 -1448.61 0.
-130.728 -1707.05 0.
-118.504 -1790.96 0.
-128.744 -1814.55 0.
-138.983 -1838.14 0.
-70.5267 -1603.34 0.
54.8816 -1310.1 0.
310.255 -1014.19 0.
130.084 -1434.47 0.
-50.0874 -1854.75 0.
-276.057 -2157.54 0.
-226.609 -2042.29 0.
-177.16 -1927.04 0.
-300.75 -1958.83 0.
-321.326 -2007.02 0.
-341.902 -2055.22 0.
-363.023 -2085.55 0.
-371.82 -2105.28 0.
-156.712 -2028.98 0.
-413.688 -2150.14 0.
-420.75 -2165.96 0.
-124.372 -2012.09 0.
-32.1854 -1796.61 0.
60.0014 -1581.12 0.
-417.446 -1709.5 0.
-445.506 -1775.78 0.
-473.565 -1842.06 0.
-287.107 -1808.45 0.
-309.226 -1860.12 0.
-331.345 -1911.79 0.
-425.601 -1920 0.
-404.375 -1870.79 0.
-249.712 -1777.42 0.
-292.138 -1876.38 0.
-334.564 -1975.34 0.
184.469 -1800.18 0.
194.028 -1778.54 0.
203.587 -1756.89 0.
-224.033 -1946.68 0.
-237.81 -1979.36 0.
-251.586 -2012.03 0.
-237.228 -1996.4 0.
-226.658 -1972.02 0.
-726.653 -2166.7 0.
86.1776 -1771.14 0.
110.589 -1713.57 0.
-109.434 -1794.92 0.
-169.131 -1934.12 0.
-228.828 -2073.32 0.
-134.523 -2030.08 0.
-58.3028 -1852.9 0.
17.9177 -1675.71 0.
-254.736 -1760.04 0.
-266.445 -1787.38 0.
-278.154 -1814.73 0.
-463.538 -1933.28 0.
-485.215 -1984.53 0.
-393.449 -1972.31 0.
-348.334 -1867.51 0.
-303.22 -1762.72 0.
-154.068 -1611.4 0.
-108.895 -1506.45 0.
-63.7211 -1401.51 0.
-81.2173 -1488.51 0.
-190.107 -1742.59 0.
-298.996 -1996.68 0.
-271.048 -2015.31 0.
-262.766 -1995.9 0.
-14.9551 -1875.88 0.
-243.698 -1919.83 0.
-215.358 -1853.62 0.
-207.039 -1827.17 0.
-251.496 -1930.62 0.
-295.952 -2034.06 0.
-80.1784 -1893.52 0.
24.6467 -1648.83 0.
129.472 -1404.15 0.
133.907 -1411.3 0.
78.6722 -1539.83 0.
23.4379 -1668.36 0.
-174.839 -1731.88 0.
-157.036 -1689.59 0.
30.9963 -1572.51 0.
62.5422 -1498.39 0.
94.0881 -1424.27 0.
-85.7494 -1439.36 0.
-53.5333 -1364.06 0.
-21.3172 -1288.76 0.
-95.8018 -1356.94 0.
-151.807 -1487.88 0.
-207.812 -1618.82 0.
-78.6884 -1557.7 0.
-61.095 -1517.32 0.
160.76 -1042.63 0.
-96.1129 -1222.08 0.
-134.292 -1311.6 0.
132.738 -1242.8 0.
170.861 -1153.43 0.
208.985 -1064.06 0.
78.8472 -1163.87 0.
-31.8189 -1422.2 0.
-142.485 -1680.54 0.
-126.045 -1762.76 0.
-136.258 -1786.36 0.
-146.472 -1809.96 0.
0.166737 -1541.46 0.
125.581 -1248.22 0.
256.513 -1006.14 0.
76.3861 -1426.39 0.
-103.741 -1846.65 0.
-492.467 -2218.45 0.
-442.971 -2103.31 0.
-393.474 -1988.18 0.
-313.143 -1932.62 0.
-333.821 -1980.76 0.
-354.498 -2028.9 0.
-121.57 -1951 0.
-130.438 -1970.72 0.
-1.89044 -1931.46 0.
-515.788 -2162.47 0.
-522.757 -2178.29 0.
-168.27 -1999.32 0.
-76.055 -1783.78 0.
16.1595 -1568.24 0.
-239.475 -1602.23 0.
-267.775 -1668.34 0.
-296.074 -1734.44 0.
-171.423 -1727.53 0.
-193.719 -1779.09 0.
-216.015 -1830.66 0.
-303.789 -1836.44 0.
-282.675 -1787.11 0.
-244.723 -1744.17 0.
-287.292 -1843.1 0.
-329.861 -1942.02 0.
-99.4136 -1890.66 0.
-90.1065 -1868.89 0.
-80.7993 -1847.13 0.
-294.79 -1945.89 0.
-308.699 -1978.48 0.
-322.608 -2011.07 0.
-193.524 -1946.19 0.
-183.02 -1921.81 0.
-1711.76 -2557.26 0.
140.658 -1716.23 0.
165.084 -1658.59 0.
-124.891 -1770.29 0.
-184.643 -1909.32 0.
-244.396 -2048.35 0.
-338.394 -2085.99 0.
-262.326 -1908.78 0.
-186.258 -1731.57 0.
-199.562 -1705.28 0.
-211.434 -1732.51 0.
-223.306 -1759.74 0.
-166.937 -1774.92 0.
-188.588 -1826.33 0.
-538.957 -2003.29 0.
-493.88 -1898.46 0.
-448.803 -1793.62 0.
-26.2944 -1525.21 0.
18.8153 -1420.23 0.
63.9249 -1315.26 0.
-58.1328 -1447.31 0.
-167.125 -1701.27 0.
-276.116 -1955.22 0.
-372.376 -2027.28 0.
-364.189 -2007.81 0.
-496.185 -2050.76 0.
-188.619 -1864.88 0.
-160.271 -1798.67 0.
-281.972 -1827.83 0.
-326.368 -1931.27 0.
-370.765 -2034.71 0.
-146.086 -1890.23 0.
-41.2513 -1645.62 0.
63.5832 -1401.01 0.
37.7865 -1421.04 0.
-17.4172 -1549.59 0.
-72.6208 -1678.14 0.
11.8208 -1620.55 0.
29.6229 -1578.29 0.
-52.2729 -1576.86 0.
-20.774 -1502.8 0.
10.7249 -1428.75 0.
-3.19424 -1372.42 0.
29.0391 -1297.14 0.
61.2723 -1221.87 0.
-3.57495 -1286.02 0.
-59.6034 -1416.97 0.
-115.632 -1547.92 0.
108.275 -1446.29 0.
125.716 -1405.91 0.
99.1361 -851.085 0.
-252.498 -1130.28 0.
310.458 182.754 0.
662.162 -140.631 0.
363.74 -836.708 0.
653.193 -160.907 0.
697.272 331.59 0.
356.967 -462.754 0.
402.977 -355.678 0.
440.293 -393.821 0.
338.869 -631.197 0.
636.271 62.0901 0.
668.955 -83.5712 0.
354.149 -818.962 0.
269.756 -839.621 0.
625.211 -11.2268 0.
420.005 -491.071 0.
-103.392 -867.2 0.
-268.502 -1252.87 0.
-335.196 -1408.85 0.
-35.384 -1230.03 0.
123.199 -859.245 0.
172.223 -744.075 0.
892.817 -11.5658 0.
894.331 -9.25006 0.
269.135 -664.779 0.
27.755 -667.984 0.
-239.889 -1293.33 0.
380.598 -603.485 0.
429.727 -489.189 0.
488.14 -353.235 0.
505.552 -171.854 0.
105.701 -1104.75 0.
47.5466 -1240.38 0.
463.146 -436.252 0.
546.29 -241.735 0.
-26.3381 -1577.29 0.
504.161 -151.306 0.
209.318 -841.01 0.
174.978 -741.154 0.
136.465 -832.668 0.
505.848 27.6155 0.
564.906 233.359 0.
134.793 -770.176 0.
502.637 88.0308 0.
248.152 -511.993 0.
327.721 -326.441 0.
304.209 -381.408 0.
509.825 -356.866 0.
454.126 -487.747 0.
-529.646 -887.535 0.
471.699 -1013.83 0.
326.545 -1352.59 0.
449.571 -368.343 0.
560.603 -109.241 0.
358.459 -580.438 0.
203.311 -402.158 0.
70.1704 -712.76 0.
587.996 495.54 0.
123.154 -1024.98 0.
52.8036 -1188.86 0.
249.962 -728.505 0.
383.333 -1026.28 0.
528.888 -685.582 0.
-25.7705 -497.112 0.
57.7862 -302.487 0.
148.137 -92.0177 0.
458.305 -608.083 0.
720.523 4.17191 0.
721.9 7.82216 0.
628.845 142.997 0.
560.943 -14.5551 0.
484.616 -191.849 0.
147.428 -590.585 0.
299.634 -234.997 0.
-180.144 -465.862 0.
528.55 -265.886 0.
565.575 -178.441 0.
2.69602 -990.553 0.
-11.7523 -1024.3 0.
136.297 -678.889 0.
422.731 -407.509 0.
465.533 -307.178 0.
457.337 -325.84 0.
346.041 -486.753 0.
12.1126 -1266.05 0.
400.14 -360.861 0.
591.029 -594.303 0.
640.046 -480.099 0.
304.337 -552.435 0.
582.038 94.746 0.
605.58 148.951 0.
504.421 -314.546 0.
557.357 -190.422 0.
729.996 213.047 0.
105.559 -1174.47 0.
343.258 -619.603 0.
-107.191 -1670.1 0.
719.838 -351.25 0.
615.57 -594.497 0.
140.943 -989.187 0.
-137.923 -1252.07 0.
-211.591 -1424.31 0.
11.4504 -1449.21 0.
-14.1192 -1508.63 0.
-39.6888 -1568.06 0.
-80.2669 -1623.14 0.
-91.2317 -1648.88 0.
-102.196 -1674.61 0.
-56.9774 -1633.11 0.
-32.2383 -1575.26 0.
-7.49924 -1517.42 0.
-212.511 -1728.91 0.
-292.172 -1914.69 0.
-278.963 -2041.54 0.
-248.746 -1970.94 0.
-218.529 -1900.34 0.
-317.394 -1921.51 0.
-345.094 -1986.41 0.
-372.793 -2051.31 0.
-523.147 -2100.77 0.
-485.563 -2012.85 0.
-447.978 -1924.93 0.
-12.5659 -1673.95 0.
19.6201 -1599.91 0.
324.001 -1409.36 0.
-333.262 -1663.46 0.
-318.208 -1628.59 0.
-90.2574 -1546.06 0.
-186.587 -1770.48 0.
-282.916 -1994.9 0.
-396.237 -2173.63 0.
-428.717 -2249.11 0.
-461.196 -2324.59 0.
-154.389 -2168.35 0.
-118.152 -2083.82 0.
-81.9144 -1999.29 0.
-341.711 -2049.41 0.
-308.671 -1972.94 0.
-262.271 -1912.96 0.
-338.243 -2090.82 0.
-414.214 -2268.67 0.
-522.627 -2360.07 0.
-438.096 -2162.48 0.
-353.565 -1964.9 0.
-365.473 -1900.6 0.
-369.3 -1909.81 0.
-373.127 -1919.02 0.
-205.311 -1765.5 0.
-148.171 -1632.38 0.
-677.52 -1749.73 0.
87.097 -1619.11 0.
-16.2707 -1860.54 0.
-311.776 -2128.51 0.
-283.168 -2061.89 0.
-254.559 -1995.27 0.
-357.352 -1987.82 0.
-329.776 -1924.26 0.
-302.199 -1860.71 0.
-223.398 -1846.46 0.
-252.276 -1914.11 0.
-281.154 -1981.76 0.
-148.12 -1870.62 0.
-113.421 -1789.39 0.
-455.399 -1879.71 0.
-472.123 -1918.9 0.
-488.846 -1958.08 0.
-250.024 -1911.77 0.
-300.448 -2029.09 0.
-350.871 -2146.41 0.
-356.564 -2083.86 0.
-258.8 -1855.03 0.
-161.035 -1626.21 0.
-281.925 -1704 0.
-325.349 -1805.14 0.
-242.793 -1848.21 0.
-329.581 -1870.76 0.
-322.185 -1852.9 0.
-221.135 -1815.3 0.
-254.219 -1892.01 0.
-287.302 -1968.73 0.
-231.316 -1988.97 0.
-242.159 -2013.92 0.
-253.002 -2038.88 0.
-247.722 -1980.86 0.
-201.145 -1872.23 0.
-154.567 -1763.6 0.
-35.9021 -1678.72 0.
-20.6372 -1643.65 0.
47.6675 -1569.49 0.
120.332 -1400.32 0.
192.996 -1231.15 0.
42.7959 -1227.05 0.
16.6854 -1287.76 0.
-9.42498 -1348.46 0.
34.1484 -1250.94 0.
123.394 -1042.4 0.
212.64 -833.868 0.
251.83 -831.012 0.
221.649 -901.445 0.
281.212 -897.574 0.
83.0868 -1125.74 0.
9.55163 -1298.09 0.
-82.439 -1458.11 0.
-108.111 -1517.4 0.
-133.782 -1576.69 0.
10.475 -1552.69 0.
-0.46257 -1578.42 0.
-11.4002 -1604.15 0.
0.325681 -1577.39 0.
25.0133 -1519.46 0.
49.7009 -1461.53 0.
-412.866 -1782.92 0.
-492.588 -1968.64 0.
-303.966 -2021.33 0.
-273.864 -1950.65 0.
-243.762 -1879.97 0.
-6.46774 -1756.64 0.
-34.1966 -1821.51 0.
-61.9254 -1886.38 0.
-647.011 -2122 0.
-609.252 -2034.19 0.
-571.494 -1946.39 0.
-233.79 -1737.46 0.
-201.666 -1663.38 0.
455.391 -1321.71 0.
-235.042 -1589.92 0.
-219.931 -1555 0.
-156.444 -1543.34 0.
-252.838 -1767.64 0.
-349.231 -1991.93 0.
-434.338 -2158.8 0.
-466.849 -2234.3 0.
-499.361 -2309.8 0.
15.1542 -2064.06 0.
51.3341 -1979.59 0.
87.5141 -1895.12 0.
-364.308 -2027.9 0.
-331.313 -1951.41 0.
-167.165 -1840.72 0.
-243.129 -2018.55 0.
-319.093 -2196.38 0.
-475.291 -2308.69 0.
-390.84 -2111.08 0.
-306.388 -1913.48 0.
-371.551 -1871.26 0.
-375.314 -1880.61 0.
-379.077 -1889.97 0.
-325.994 -1785.67 0.
-268.878 -1652.63 0.
-1519.66 -2079.19 0.
-49.941 -1646.2 0.
-153.246 -1887.58 0.
-303.845 -2093.93 0.
-275.179 -2027.33 0.
-246.513 -1960.72 0.
-193.779 -1885.75 0.
-166.114 -1822.22 0.
-138.448 -1758.69 0.
-199.771 -1805.11 0.
-228.76 -1872.74 0.
-257.749 -1940.36 0.
-339.632 -1921.18 0.
-304.876 -1840.1 0.
-238.926 -1755.07 0.
-255.593 -1794.36 0.
-272.26 -1833.66 0.
-418.458 -1952.33 0.
-468.735 -2069.87 0.
-519.012 -2187.42 0.
-378.524 -2061.9 0.
-280.706 -1833.12 0.
-182.889 -1604.34 0.
-205.776 -1639.74 0.
-249.261 -1740.82 0.
-87.3704 -1750.71 0.
-522.197 -1922.31 0.
-514.795 -1904.47 0.
-45.4032 -1708.6 0.
-78.4297 -1785.29 0.
-111.456 -1861.99 0.
-185.091 -1937.67 0.
-195.972 -1962.53 0.
-206.854 -1987.39 0.
-173.327 -1917.59 0.
-126.85 -1808.83 0.
-80.3723 -1700.06 0.
-218.433 -1725.76 0.
-203.174 -1690.62 0.
284.257 -1437.05 0.
356.97 -1267.85 0.
429.682 -1098.66 0.
-27.3675 -1225.32 0.
-53.2936 -1286.18 0.
-79.2196 -1347.04 0.
3.20485 -1232.78 0.
92.527 -1024.29 0.
181.849 -815.804 0.
-53.1045 -930.263 0.
-83.2711 -1000.73 0.
234.329 -886.006 0.
252.951 -917.802 0.
238.528 -949.252 0.
45.7972 -1068.46 0.
2.37715 -1170.46 0.
-41.0426 -1272.47 0.
140.606 -1277.66 0.
94.7732 -1383.92 0.
48.9406 -1490.19 0.
-64.0977 -1585.16 0.
-76.5358 -1614.34 0.
-88.974 -1643.52 0.
-385.819 -1723.64 0.
-355.904 -1653.99 0.
-128.999 -1494.69 0.
-66.2465 -1348.52 0.
-3.49444 -1202.36 0.
409.695 -973.108 0.
360.173 -1088.55 0.
310.651 -1203.99 0.
-481.921 -1617.13 0.
-510.481 -1683.86 0.
-539.042 -1750.58 0.
-240.814 -1662.91 0.
-258.23 -1703.47 0.
354.356 -1473.96 0.
-286.975 -1696.63 0.
-261.769 -1637.75 0.
-169.754 -1553.11 0.
-143.478 -1492.14 0.
-117.203 -1431.17 0.
-139.505 -1444.04 0.
-177.832 -1533.88 0.
-216.158 -1623.73 0.
231.808 -1437.23 0.
248.596 -1398.01 0.
265.384 -1358.79 0.
-146.178 -1604.86 0.
-191.762 -1710.68 0.
-150.798 -1759.95 0.
-96.6344 -1633.35 0.
-42.4708 -1506.75 0.
-129.283 -1510.39 0.
-189.248 -1650.29 0.
-249.212 -1790.19 0.
-416.261 -1872.88 0.
-376.306 -1779.61 0.
-336.351 -1686.34 0.
-332.389 -1755.57 0.
-391.594 -1893.95 0.
-2107.91 -2743.6 0.
-92.5772 -1803.43 0.
-52.5794 -1709.52 0.
-210.677 -1735.3 0.
-253.281 -1834.38 0.
-295.885 -1933.46 0.
-173.168 -1920.16 0.
-168.022 -1908.04 0.
-162.876 -1895.91 0.
-295.717 -1883.94 0.
-244.471 -1764.16 0.
-193.225 -1644.38 0.
-265.646 -1659.49 0.
-262.292 -1651.15 0.
-119.506 -1589.73 0.
-137.926 -1632.55 0.
-156.347 -1675.38 0.
-435.574 -1830.86 0.
-459.357 -1886.14 0.
-483.14 -1941.42 0.
-326.157 -1846.86 0.
-284.057 -1748.75 0.
-241.957 -1650.65 0.
-116.713 -1524.66 0.
-79.2206 -1437.37 0.
3.87688 -1337.99 0.
-561.563 -1821.12 0.
-688.045 -2116.14 0.
-177.363 -2045.04 0.
-108.409 -1884.25 0.
-39.4555 -1723.47 0.
-20.2692 -1614.85 0.
15.8175 -1531.13 0.
51.9042 -1447.41 0.
66.7718 -1304.33 0.
153.241 -1102.76 0.
239.71 -901.18 0.
15.0388 -1112.99 0.
-59.1598 -1286.24 0.
348.067 -1233.61 0.
342.102 -1247.06 0.
336.137 -1260.5 0.
-83.7608 -1421.14 0.
-44.75 -1329.97 0.
-5.73919 -1238.81 0.
20.459 -1156.87 0.
56.348 -1072.95 0.
92.237 -989.038 0.
-225.245 -1185.43 0.
-274.611 -1300.82 0.
-5.31703 -957.448 0.
261.444 -882.278 0.
247.12 -913.833 0.
79.4334 -1023.16 0.
35.7277 -1124.9 0.
-7.97762 -1226.65 0.
111.489 -1258.86 0.
65.5928 -1365.07 0.
19.6967 -1471.28 0.
-239.638 -1629.69 0.
-252.17 -1658.82 0.
-264.701 -1687.94 0.
-144.266 -1588.68 0.
-114.365 -1518.85 0.
-193.595 -1490.67 0.
-130.893 -1344.43 0.
-68.1922 -1198.19 0.
323.345 -978.979 0.
273.751 -1094.32 0.
224.156 -1209.67 0.
-447.841 -1570.75 0.
-476.465 -1637.44 0.
-505.09 -1704.14 0.
-79.3441 -1562.63 0.
-96.702 -1603.17 0.
-159.491 -1663.24 0.
-369.869 -1700.51 0.
-344.713 -1641.58 0.
-89.9481 -1488.01 0.
-63.7404 -1426.93 0.
-37.5328 -1365.84 0.
-95.2401 -1393.86 0.
-133.686 -1483.64 0.
-172.132 -1573.42 0.
-37.8278 -1521.4 0.
-21.0729 -1482.3 0.
-4.31807 -1443.2 0.
-2.85664 -1512.01 0.
-48.3573 -1617.95 0.
-262.02 -1776.07 0.
-207.843 -1649.49 0.
-153.666 -1522.91 0.
-135.847 -1482.17 0.
-195.938 -1622.08 0.
-256.029 -1761.99 0.
-485.341 -1870.93 0.
-445.352 -1777.86 0.
-405.364 -1684.79 0.
-224.337 -1678.03 0.
-283.47 -1816.55 0.
-675.745 -2098.32 0.
142.191 -1671.18 0.
182.384 -1577.39 0.
-336.959 -1758.29 0.
-379.602 -1857.28 0.
-422.245 -1956.28 0.
-221.674 -1909.38 0.
-216.585 -1897.11 0.
-211.496 -1884.85 0.
-438.26 -1913.7 0.
-387.01 -1793.87 0.
-335.76 -1674.03 0.
-131.944 -1570.48 0.
-128.59 -1562.12 0.
-185.003 -1586.12 0.
-203.379 -1629.01 0.
-221.754 -1671.89 0.
-401.97 -1784.93 0.
-425.811 -1840.17 0.
-449.651 -1895.41 0.
-367.754 -1833.43 0.
-325.638 -1735.37 0.
-283.521 -1637.31 0.
-62.1898 -1469.82 0.
-24.5999 -1382.6 0.
-115.008 -1357.61 0.
-536.513 -1778.98 0.
-663.05 -2074.04 0.
-292.022 -2062.78 0.
-222.954 -1902.05 0.
-153.886 -1741.32 0.
31.815 -1561.38 0.
67.8526 -1477.56 0.
103.89 -1393.75 0.
-30.4275 -1314.04 0.
56.0094 -1112.46 0.
142.446 -910.872 0.
162.296 -1018.82 0.
88.0309 -1192.03 0.
80.2593 -1317.63 0.
74.2322 -1330.94 0.
68.2052 -1344.25 0.
87.5944 -1316.17 0.
126.735 -1225.01 0.
165.876 -1133.85 0.
43.9378 -1115.51 0.
79.9114 -1031.65 0.
115.885 -947.799 0.
-32.3322 -1071.65 0.
-81.4265 -1187.19 0.
8.87228 -431.944 0.
170.922 -1077.98 0.
181.145 -1055.9 0.
519.246 -28.3126 0.
503.105 -67.0861 0.
355.859 -411.576 0.
368.56 -570.328 0.
356.922 -598.773 0.
502.215 -261.099 0.
-81.7313 -896.341 0.
118.932 -428.953 0.
256.722 -108.017 0.
419.362 -700.948 0.
425.806 -685.692 0.
191.908 -437.944 0.
245.692 -312.458 0.
75.5617 -709.395 0.
376.025 -658.277 0.
204.066 -1059.49 0.
393.849 -616.617 0.
-14.7353 -593.828 0.
-165.471 -945.53 0.
125.118 -267.529 0.
419.469 -676.222 0.
419.478 -676.296 0.
-669.076 -1112.17 0.
-211.409 -1141.91 0.
51.1772 -530.574 0.
490.814 -253.644 0.
679.591 185.764 0.
819.574 511.332 0.
457.525 -156.618 0.
125.452 -931.131 0.
216.158 -719.189 0.
278.78 -239.894 0.
-5.5348 -902.577 0.
-427.284 -1886.05 0.
309.54 -1023.86 0.
570.958 -413.412 0.
-103.454 -1163.24 0.
112.936 -658.056 0.
279.422 -269.373 0.
404.044 -177.732 0.
385.375 -221.473 0.
398.947 -189.948 0.
103.483 -335.767 0.
-37.9756 -666.592 0.
37.0514 -492.152 0.
421.677 -341.082 0.
488.697 -185.264 0.
193.769 -220.115 0.
1138.59 233.933 0.
1104.47 153.802 0.
174.473 -289.18 0.
52.4781 -574.805 0.
-98.9729 -929.144 0.
244.951 -696.362 0.
729.146 433.36 0.
548.645 12.2841 0.
31.7957 -510.397 0.
55.5518 -455.699 0.
328.289 179.936 0.
62.676 -1339.74 0.
34.7521 -1405.67 0.
454.404 62.3091 0.
475.149 110.554 0.
500.757 170.16 0.
435.804 138.912 0.
235.701 -327.191 0.
161.645 -499.196 0.
399.327 68.5231 0.
397.204 63.3177 0.
334.802 -82.5506 0.
384.727 -503.578 0.
220.647 -886.416 0.
68.8429 -635.475 0.
-60.2389 -683.645 0.
206.736 -60.5697 0.
560.685 174.176 0.
343.64 -331.835 0.
203.973 -657.569 0.
503.765 -530.057 0.
525.96 -477.967 0.
597.665 -310.241 0.
156.211 -660.784 0.
130.128 -720.889 0.
267.552 -399.463 0.
286.084 -980.243 0.
246.848 -1071.04 0.
368.608 -103.504 0.
-35.8251 -1046.57 0.
160.394 -588.158 0.
890.755 258.198 0.
400.749 -883.807 0.
622.442 -365.593 0.
250.75 -647.059 0.
262.323 -620.237 0.
236.022 -681.273 0.
264.371 -725.386 0.
310.076 -617.109 0.
-257.062 -1325.57 0.
112.322 -1170.01 0.
106.029 -1186.06 0.
23.8752 -1236.35 0.
5.64891 -1279.61 0.
-12.5772 -1322.87 0.
12.2044 -1344.72 0.
-0.261924 -1374.62 0.
-12.7282 -1404.52 0.
-330.559 -1505.29 0.
-296.161 -1425.41 0.
-261.763 -1345.53 0.
-120.654 -1332.29 0.
-152.555 -1407 0.
-224.995 -1504.94 0.
-298.469 -1676.72 0.
-371.943 -1848.51 0.
-181.4 -1831.95 0.
-132.783 -1718.71 0.
-84.1673 -1605.47 0.
-302.826 -1642.39 0.
-288.351 -1609.19 0.
-273.875 -1576 0.
-90.9175 -1521.39 0.
-113.299 -1573.71 0.
-736.294 -1883.42 0.
-412.487 -1795.86 0.
-436.47 -1851.94 0.
-190.532 -1773.2 0.
-175.508 -1738.16 0.
-160.485 -1703.13 0.
-168.543 -1724.88 0.
-212.044 -1826.34 0.
-255.544 -1927.8 0.
-585.624 -2024.88 0.
-528.097 -1890.46 0.
-470.57 -1756.04 0.
89.4763 -1503.96 0.
90.8874 -1500.83 0.
-216.137 -1623.69 0.
-191.17 -1565.67 0.
-166.204 -1507.65 0.
-354.701 -1570.7 0.
-373.551 -1614.84 0.
-392.401 -1658.98 0.
-391.849 -1705.66 0.
-422.679 -1777.58 0.
-453.509 -1849.5 0.
-204.568 -1684.29 0.
-155.171 -1569.67 0.
-1134.33 -1896.1 0.
308.69 -1359.19 0.
265.97 -1458.99 0.
-563.072 -1871.58 0.
-548.028 -1837.14 0.
-532.985 -1802.7 0.
-251.865 -1678.14 0.
-263.763 -1705.5 0.
-275.66 -1732.86 0.
-250.754 -1696.12 0.
-224.419 -1635.09 0.
-198.085 -1574.05 0.
-179.892 -1610.4 0.
-208.924 -1679.05 0.
-322.295 -1772.3 0.
-308.159 -1739.1 0.
-294.023 -1705.91 0.
-389.455 -1708.23 0.
-355.73 -1629.53 0.
-322.005 -1550.83 0.
-296.915 -1570.45 0.
-348.373 -1690.54 0.
-399.832 -1810.64 0.
-131.418 -1791.48 0.
-182.65 -1910.05 0.
-429.595 -2103.19 0.
-509.416 -1844.51 0.
-355.775 -1485.82 0.
-60.7626 -1194.95 0.
-181.246 -1475.92 0.
-301.729 -1756.88 0.
-165.348 -1809.45 0.
-154.163 -1782.7 0.
-142.978 -1755.95 0.
-326.699 -1829.55 0.
-325.472 -1826.32 0.
-324.246 -1823.09 0.
-154.31 -1642.27 0.
-94.3711 -1502.16 0.
-106.535 -1401.22 0.
-72.8542 -1322.44 0.
-39.1736 -1243.66 0.
149.435 -1122.79 0.
146.866 -1128.34 0.
144.297 -1133.89 0.
209.069 -1102.8 0.
213.833 -1091.78 0.
218.598 -1080.76 0.
184.52 -866.394 0.
334.291 -516.562 0.
-96.6783 -1224.53 0.
105.397 -1141.67 0.
99.1026 -1157.68 0.
67.3837 -1186.38 0.
48.9763 -1229.5 0.
30.569 -1272.62 0.
-1.98285 -1319.48 0.
-14.5428 -1349.3 0.
-27.1028 -1379.12 0.
-298.317 -1460.88 0.
-264.105 -1380.81 0.
-229.893 -1300.73 0.
-437.173 -1436.29 0.
-469.077 -1510.85 0.
-157.681 -1444.79 0.
-231.178 -1616.56 0.
-304.676 -1788.32 0.
-231.108 -1822.2 0.
-182.408 -1709.03 0.
-133.709 -1595.87 0.
-88.0043 -1518.27 0.
-73.5044 -1485.17 0.
-59.0046 -1452.07 0.
-257.827 -1561.81 0.
-280.158 -1614.18 0.
73.8096 -1505.33 0.
-298.01 -1715.28 0.
-322.278 -1771.21 0.
-212.538 -1751.85 0.
-197.635 -1716.69 0.
-182.732 -1681.54 0.
-95.8708 -1662.61 0.
-139.335 -1764.15 0.
-182.799 -1865.69 0.
-688.967 -2036.77 0.
-631.379 -1902.57 0.
-573.792 -1768.37 0.
88.6668 -1472.93 0.
90.1011 -1469.79 0.
-94.1727 -1540.28 0.
-68.9968 -1482.39 0.
-43.8208 -1424.5 0.
-537.889 -1618.08 0.
-556.755 -1662.18 0.
-575.622 -1706.27 0.
-263.118 -1619.2 0.
-293.972 -1691.12 0.
-324.826 -1763.05 0.
-250.381 -1672.74 0.
-201.013 -1558.19 0.
-551.004 -1614.51 0.
142.798 -1398.41 0.
100.062 -1498.08 0.
-617.692 -1863.9 0.
-602.74 -1829.37 0.
-587.787 -1794.84 0.
-328.565 -1679.57 0.
-340.512 -1706.85 0.
-352.459 -1734.12 0.
43.6901 -1538.86 0.
70.0039 -1477.82 0.
96.3177 -1416.79 0.
-318.533 -1637.88 0.
-347.595 -1706.52 0.
-294.39 -1728.89 0.
-280.121 -1695.77 0.
-265.851 -1662.65 0.
-414.221 -1687.56 0.
-380.481 -1608.85 0.
-346.741 -1530.15 0.
-272.985 -1528.59 0.
-324.508 -1648.6 0.
-376.032 -1768.62 0.
-70.6665 -1734.2 0.
-121.85 -1852.81 0.
-251.131 -1995.18 0.
-434.597 -1781.09 0.
-280.925 -1422.54 0.
-86.5389 -1174.59 0.
-206.933 -1455.64 0.
-327.327 -1736.68 0.
-297.901 -1835.45 0.
-286.747 -1808.65 0.
-275.592 -1781.85 0.
-287.607 -1780.38 0.
-286.267 -1777.23 0.
-284.928 -1774.08 0.
-331.286 -1687.24 0.
-271.453 -1547.03 0.
10.5188 -1320.11 0.
44.2008 -1241.23 0.
77.883 -1162.36 0.
-17.6652 -1162.85 0.
-20.1402 -1168.45 0.
-22.6151 -1174.04 0.
413.944 -983.75 0.
418.746 -972.834 0.
423.548 -961.919 0.
176.855 -838.928 0.
326.969 -489.604 0.
-55.5639 -1228.24 0.
11.8174 -1183.26 0.
22.3824 -1157.81 0.
81.8769 -1108.59 0.
102.563 -1060.61 0.
123.249 -1012.62 0.
139.721 -971.077 0.
152.764 -939.703 0.
165.807 -908.329 0.
-163.98 -1105.08 0.
-215.833 -1226.38 0.
-267.685 -1347.68 0.
-445.505 -1361.71 0.
-401.521 -1258.2 0.
17.5741 -999.318 0.
31.462 -966.215 0.
45.3499 -933.113 0.
162.516 -900.982 0.
103.421 -1038.46 0.
44.3265 -1175.93 0.
54.9035 -1268.17 0.
9.2364 -1374.3 0.
-36.4306 -1480.43 0.
-310.712 -1572.91 0.
-276.325 -1491.78 0.
7.80071 -1303.44 0.
-210.299 -1506.35 0.
-272.867 -1652.87 0.
-274.107 -1770.74 0.
-322.01 -1882.82 0.
-369.914 -1994.91 0.
-228.63 -1874.52 0.
-94.2504 -1560.79 0.
40.1287 -1247.05 0.
-448.396 -1441.11 0.
-504.302 -1571.23 0.
-560.208 -1701.34 0.
70.1865 -1461.79 0.
57.6283 -1490.22 0.
-85.944 -1555.45 0.
-3.6587 -1363.05 0.
78.6264 -1170.65 0.
-417.347 -1273.17 0.
-411.06 -1258.83 0.
-404.772 -1244.48 0.
38.3312 -1052.18 0.
36.2291 -1057.12 0.
34.127 -1062.05 0.
-128.338 -1185.36 0.
-164.259 -1269.36 0.
-900.518 -1653.15 0.
203.553 -1050.11 0.
271.57 -890.979 0.
-234.113 -1012.68 0.
-253.619 -1058.12 0.
-273.125 -1103.56 0.
-144.912 -1114.53 0.
-198.074 -1238.59 0.
-251.236 -1362.65 0.
253.391 -1179.92 0.
253.673 -1179.64 0.
253.955 -1179.35 0.
-192.386 -1343.56 0.
-176.027 -1304.73 0.
-134.884 -1268.19 0.
-175.626 -1362.97 0.
-216.368 -1457.76 0.
-389.61 -1556.35 0.
-347.015 -1456.92 0.
-304.42 -1357.48 0.
-192.084 -1277.02 0.
-199.207 -1293.56 0.
-206.331 -1310.09 0.
114.57 -1158.82 0.
126.688 -1130.81 0.
160.611 -1102.58 0.
-234.078 -1430.04 0.
-317.167 -1624.04 0.
-349.472 -1695.97 0.
-224.993 -1405.52 0.
-100.514 -1115.07 0.
52.81 -924.348 0.
53.9227 -922.161 0.
55.0354 -919.974 0.
88.2068 -951.539 0.
50.0485 -1040.82 0.
11.8903 -1130.1 0.
-203.543 -1226.33 0.
-198.077 -1213.71 0.
90.0113 -1080.63 0.
79.2878 -1105.88 0.
68.5643 -1131.14 0.
-22.0258 -1167.14 0.
2.60788 -1110.01 0.
27.2415 -1052.88 0.
413.689 -882.433 0.
400.947 -912.027 0.
388.206 -941.62 0.
-22.0459 -1305.8 0.
-144.35 -1589.91 0.
-82.3108 -1208.71 0.
-134.374 -1214.65 0.
-123.718 -1189.21 0.
27.5178 -1100.46 0.
48.086 -1052.4 0.
68.6542 -1004.35 0.
167.266 -927.638 0.
180.378 -896.278 0.
193.49 -864.917 0.
-207.952 -1093.15 0.
-259.812 -1214.35 0.
-311.673 -1335.55 0.
-188.914 -1219.9 0.
-144.957 -1116.39 0.
-58.4303 -1000.24 0.
-44.5656 -967.228 0.
-30.701 -934.215 0.
239.924 -837.137 0.
180.895 -974.67 0.
121.867 -1112.2 0.
-43.7739 -1278.75 0.
-89.3583 -1384.92 0.
-134.943 -1491.08 0.
-225.655 -1504.6 0.
-191.175 -1423.5 0.
-389.36 -1442 0.
-297.004 -1512.36 0.
-359.659 -1658.78 0.
-349.033 -1771.77 0.
-397.021 -1883.66 0.
-445.009 -1995.55 0.
-372.547 -1904.77 0.
-238.237 -1591 0.
-103.928 -1277.24 0.
-341.669 -1363.76 0.
-397.679 -1493.87 0.
-453.689 -1623.98 0.
43.4421 -1442.18 0.
30.9487 -1470.64 0.
-147.2 -1550.33 0.
-64.9024 -1357.93 0.
17.3951 -1165.53 0.
-265.595 -1176.76 0.
-259.226 -1162.31 0.
-252.856 -1147.85 0.
86.552 -1000.18 0.
84.3416 -1004.88 0.
82.1312 -1009.59 0.
-269.185 -1214.33 0.
-305.15 -1298.35 0.
-1215.81 -1756.65 0.
191.262 -1023.53 0.
259.078 -864.403 0.
-101.031 -924.738 0.
-120.674 -970.099 0.
-140.318 -1015.46 0.
-180.628 -1098.71 0.
-233.802 -1222.75 0.
-286.976 -1346.79 0.
121.98 -1205.23 0.
122.341 -1205.1 0.
122.701 -1204.97 0.
-17.0052 -1236.47 0.
-0.612481 -1197.71 0.
-221.156 -1273.37 0.
-261.838 -1368.16 0.
-302.521 -1462.95 0.
-410.491 -1533.79 0.
-367.898 -1434.43 0.
-325.305 -1335.07 0.
-247.411 -1269.21 0.
-254.526 -1285.73 0.
-261.642 -1302.25 0.
-67.6344 -1205.95 0.
-55.4806 -1177.95 0.
127.903 -1084.78 0.
-154.139 -1364.17 0.
-237.166 -1558.32 0.
-387.379 -1680.76 0.
-262.863 -1390.39 0.
-138.348 -1100.03 0.
124.143 -862.503 0.
125.281 -860.411 0.
126.418 -858.319 0.
135.431 -899.176 0.
97.3529 -988.583 0.
59.2749 -1077.99 0.
-162.382 -1177.85 0.
-156.786 -1165.25 0.
-52.7656 -1110.71 0.
-63.4672 -1135.9 0.
-74.1687 -1161.09 0.
175.739 -1050.53 0.
200.366 -993.473 0.
224.992 -936.422 0.
132.98 -971.739 0.
120.262 -1001.44 0.
107.543 -1031.14 0.
26.8472 -1253.32 0.
-95.3652 -1537.94 0.
152.084 -581.401 0.
70.1897 -427.523 0.
-168.455 -984.61 0.
254.553 -438.785 0.
184.015 -602.685 0.
300.585 -330.224 0.
227.484 -806.052 0.
378.116 -455.435 0.
426.093 -344.52 0.
165.968 -108.91 0.
110.417 -238.309 0.
-79.3656 -680.838 0.
316.072 -495.97 0.
344.588 -429.861 0.
6.26917 -673.887 0.
85.8569 -488.629 0.
255.944 -92.0282 0.
610.512 -88.4853 0.
428.439 -513.239 0.
212.719 -1016.31 0.
-1.84246 -959.376 0.
284.44 -291.079 0.
199.897 -487.933 0.
160.441 -734.24 0.
350.585 -291.672 0.
-273.744 -899.002 0.
69.8377 -461.3 0.
454.431 435.282 0.
406.237 163.554 0.
533.868 461.355 0.
618.017 657.796 0.
420.973 253.082 0.
478.273 387.193 0.
401.581 208.696 0.
255.664 -143.91 0.
255.846 -143.217 0.
474.672 367.719 0.
585.847 -95.7666 0.
529.561 -226.952 0.
-29.8723 -1128.91 0.
329.931 -287.503 0.
430.027 -52.1271 0.
201.52 -346.354 0.
209.068 -328.4 0.
183.097 -388.662 0.
509.952 -73.7862 0.
313.837 -530.464 0.
385.992 -361.164 0.
-8.30218 -304.238 0.
122.585 -0.00613279 0.
207.907 -626.185 0.
633.149 60.6571 0.
370.393 -552 0.
-57.6378 -1045.58 0.
-4.65412 -921.878 0.
39.9546 -817.771 0.
-19.5942 -621.263 0.
-10.146 -600.486 0.
-43.6729 -680.016 0.
387.723 -305.99 0.
545.769 62.0993 0.
829.088 722.487 0.
360.102 -659.947 0.
494.594 -346.043 0.
338.574 229.296 0.
243.411 7.76813 0.
127.723 -261.655 0.
45.3571 -399.295 0.
339.476 287.407 0.
97.823 -276.13 0.
-40.9903 -652.067 0.
139.309 -231.425 0.
-39.3273 -648.152 0.
-402.131 -1610.51 0.
-314.483 -1406.99 0.
466.287 -26.6357 0.
157.63 -756.586 0.
515.654 78.7677 0.
564.384 645.236 0.
303.579 36.9395 0.
387.5 232.925 0.
334.604 -480.525 0.
388.361 -354.34 0.
595.709 130.207 0.
644.636 232.17 0.
594.578 115.221 0.
121.811 -987.944 0.
-108.727 -1102.03 0.
-40.1819 -941.528 0.
322.732 66.3811 0.
110.692 -428.669 0.
291.842 -6.42193 0.
995.98 516.851 0.
407.223 -857.821 0.
409.693 -852.656 0.
157.327 -349.223 0.
-0.817261 -717.567 0.
-97.2714 -942.299 0.
-194.18 -1833.29 0.
433.616 -368.808 0.
-103.321 -1089.39 0.
-35.598 -988.262 0.
1.10876 -901.984 0.
64.6802 -815.867 0.
67.81 -808.299 0.
70.9397 -800.732 0.
175.826 -790.477 0.
130.09 -898.103 0.
84.3535 -1005.73 0.
-181.055 -1185.2 0.
-210.004 -1252.47 0.
-238.953 -1319.75 0.
-106.134 -1355.35 0.
-156.917 -1474.86 0.
-358.539 -1643.91 0.
-329.352 -1576.43 0.
-300.166 -1508.95 0.
89.0903 -1303.12 0.
88.8129 -1304.19 0.
88.5355 -1305.26 0.
-357.48 -1478.69 0.
-336.577 -1429.92 0.
-315.674 -1381.15 0.
-175.696 -1375.56 0.
-222.437 -1485.79 0.
-424.736 -1662.65 0.
-366.829 -1562.11 0.
-321.942 -1456.86 0.
-250.83 -1339.85 0.
-217.096 -1261.2 0.
-183.362 -1182.54 0.
-203.117 -1203.95 0.
-262.688 -1342.52 0.
-322.259 -1481.09 0.
-362.158 -1462.22 0.
-303.433 -1325.61 0.
-244.709 -1189.01 0.
-78.6172 -1128.29 0.
-91.5316 -1158.94 0.
-103.438 -1200.97 0.
-174.5 -1367.17 0.
-245.562 -1533.38 0.
-173.27 -1554.93 0.
-109.817 -1406.65 0.
-46.3639 -1258.37 0.
-99.9064 -1191.54 0.
-67.1615 -1115.36 0.
-34.4166 -1039.19 0.
-478.088 -1329.53 0.
-554.765 -1508.7 0.
-390.133 -1585.23 0.
-65.6407 -1369.14 0.
-25.3773 -1275 0.
-181.791 -1253 0.
-110.502 -1086.3 0.
-39.2125 -919.602 0.
-151.686 -919.328 0.
-182.691 -991.784 0.
-213.695 -1064.24 0.
144.318 -992.838 0.
94.4701 -1108.36 0.
44.6226 -1223.87 0.
-69.6851 -1281.04 0.
-68.7026 -1278.81 0.
-239.081 -1350.46 0.
-237.958 -1347.6 0.
-236.834 -1344.73 0.
-408.18 -1389.75 0.
-369.621 -1300.29 0.
-331.062 -1210.83 0.
-279.236 -1138.09 0.
-257.652 -1088.17 0.
-236.068 -1038.25 0.
-221.051 -1099.76 0.
-273.341 -1222.76 0.
-52.6638 -1223.92 0.
-158.366 -1286.31 0.
-167.691 -1307.26 0.
-290.181 -1396.86 0.
-327.985 -1484.99 0.
-365.788 -1573.11 0.
-166.545 -1513.08 0.
-155.702 -1487.06 0.
-144.858 -1461.03 0.
-107.828 -1458.22 0.
-120.631 -1487.73 0.
-133.434 -1517.24 0.
-225.846 -1433.59 0.
-155.444 -1269.27 0.
-225.736 -1195.63 0.
-270.594 -1300.34 0.
-315.452 -1405.05 0.
205.829 -1214.07 0.
241.282 -1131.66 0.
276.735 -1049.26 0.
-193.749 -1219.37 0.
-191.53 -1214.32 0.
-189.312 -1209.28 0.
108.428 -924.879 0.
212.467 -682.787 0.
-133.336 -1071.62 0.
145.75 -879.637 0.
182.434 -793.308 0.
46.4208 -792.286 0.
49.6203 -784.809 0.
52.8196 -777.331 0.
120.287 -782.759 0.
74.5667 -890.38 0.
28.8462 -998.002 0.
-23.7912 -1086.95 0.
-52.5999 -1154.4 0.
-81.4086 -1221.85 0.
-158.704 -1346.04 0.
-209.488 -1465.59 0.
-278.101 -1578.02 0.
-248.962 -1510.53 0.
-219.823 -1443.04 0.
105.31 -1265.33 0.
105.151 -1266.42 0.
104.991 -1267.51 0.
-505.27 -1510.17 0.
-484.345 -1461.46 0.
-463.42 -1412.75 0.
-233.755 -1368.95 0.
-280.742 -1478.93 0.
380.605 -1285.5 0.
-307.93 -1505.6 0.
-263.112 -1400.27 0.
-248.956 -1307.56 0.
-215.172 -1228.95 0.
-181.387 -1150.33 0.
-185.393 -1165.08 0.
-245.033 -1303.53 0.
-304.673 -1441.99 0.
-411.951 -1452.04 0.
-353.353 -1315.35 0.
-294.754 -1178.67 0.
-335.661 -1207.96 0.
-348.58 -1238.63 0.
-137.117 -1183.83 0.
-208.062 -1350.01 0.
-279.008 -1516.2 0.
19.1229 -1440.94 0.
82.7415 -1292.68 0.
146.36 -1144.41 0.
-245.296 -1222.32 0.
-212.552 -1146.09 0.
-179.808 -1069.87 0.
-494.793 -1305.5 0.
-571.5 -1484.63 0.
372.25 -1226.87 0.
-156.6 -1376.38 0.
-116.383 -1282.34 0.
-208.093 -1233.33 0.
-136.928 -1066.67 0.
-65.7634 -900.02 0.
-139.896 -882.721 0.
-171.008 -955.115 0.
-202.119 -1027.51 0.
223.479 -928.097 0.
173.65 -1043.75 0.
123.821 -1159.39 0.
-254.655 -1328.45 0.
-253.542 -1326.22 0.
-100.136 -1259.26 0.
-98.9166 -1256.46 0.
-97.6976 -1253.65 0.
-427.382 -1366.9 0.
-388.863 -1277.42 0.
-350.344 -1187.94 0.
-299.608 -1115.42 0.
-277.943 -1065.5 0.
-256.277 -1015.57 0.
-249.025 -1080.31 0.
-301.313 -1203.34 0.
-55.6921 -1193.54 0.
-252.369 -1295.04 0.
-261.622 -1316.09 0.
-248.879 -1347.73 0.
-286.631 -1435.93 0.
-324.382 -1524.13 0.
-220.809 -1504.6 0.
-209.837 -1478.66 0.
-198.865 -1452.71 0.
-127.974 -1435.05 0.
-140.754 -1464.68 0.
-153.535 -1494.32 0.
-178.509 -1382.52 0.
-108.091 -1218.17 0.
-218.907 -1161.38 0.
-263.76 -1266.05 0.
-308.615 -1370.71 0.
161.888 -1201.58 0.
197.309 -1119.04 0.
232.73 -1036.51 0.
-150.206 -1169.43 0.
-147.961 -1164.45 0.
-145.717 -1159.48 0.
18.5295 -932.392 0.
122.611 -690.454 0.
61.8562 -591.84 0.
203.042 -735.244 0.
100.724 -975.019 0.
-120.948 -1210.55 0.
-85.0029 -1126.59 0.
-49.0574 -1042.62 0.
49.758 -965.29 0.
43.4773 -979.108 0.
37.1966 -992.926 0.
57.9265 -1001.94 0.
47.1122 -1027.11 0.
36.298 -1052.29 0.
-19.3894 -1068.75 0.
-13.1476 -1053.75 0.
-65.0698 -1062.8 0.
-57.2433 -1044.32 0.
-49.4169 -1025.83 0.
229.409 -877.299 0.
261.091 -802.215 0.
292.774 -727.131 0.
-354.093 -981.469 0.
-359.218 -993.326 0.
-364.343 -1005.18 0.
-64.0631 -919.702 0.
-90.7677 -980.984 0.
610.813 -730.044 0.
-161.896 -1025.61 0.
-145.428 -988.131 0.
-80.603 -929.605 0.
-56.9122 -873.719 0.
-33.2216 -817.833 0.
-76.5678 -814.297 0.
-78.7292 -820.146 0.
-80.8907 -825.995 0.
-231.591 -943.862 0.
-272.198 -1038.94 0.
-312.806 -1134.03 0.
-367.567 -1109.02 0.
-334.222 -1030.94 0.
-53.8481 -863.683 0.
-105.574 -983.936 0.
-157.3 -1104.19 0.
229.985 -987.332 0.
253.559 -931.496 0.
277.133 -875.659 0.
-280.511 -1154.09 0.
-337.672 -1287.25 0.
-394.834 -1420.41 0.
-479.559 -1378.71 0.
-410.149 -1217.21 0.
593.152 -655.454 0.
4.41386 -928.283 0.
-5.94098 -952.959 0.
-176.923 -1028.13 0.
-149.848 -966.059 0.
-122.773 -903.986 0.
-108.15 -865.199 0.
-102.468 -852.472 0.
-96.7856 -839.745 0.
246.003 -743.949 0.
203.508 -843.852 0.
161.014 -943.754 0.
-256.98 -1135.28 0.
-258.257 -1138.22 0.
-33.6426 -1033.31 0.
10.7636 -929.672 0.
55.1697 -826.035 0.
-292.357 -945.806 0.
-333.528 -1041.35 0.
-374.699 -1136.9 0.
-299.272 -1121.05 0.
-283.876 -1083.86 0.
-268.48 -1046.68 0.
-247.277 -1025.37 0.
-244.289 -1017.15 0.
-48.8528 -927.346 0.
-188.292 -1083.13 0.
-238.477 -1200.73 0.
-215.541 -1243.25 0.
-169.476 -1135.25 0.
-123.411 -1027.25 0.
-12.3027 -978.206 0.
-64.9326 -1101.61 0.
-117.563 -1225.02 0.
-119.786 -1228.81 0.
-98.0383 -1177.79 0.
-76.2908 -1126.78 0.
15.6205 -1112.19 0.
-0.308531 -1149.86 0.
-257.106 -1281.45 0.
-230.417 -1220.11 0.
-203.727 -1158.78 0.
180.54 -951.447 0.
194.256 -918.635 0.
207.971 -885.823 0.
-28.0781 -1004.41 0.
-54.9263 -1067.71 0.
-81.7746 -1131 0.
6.6858 -955.094 0.
104.511 -726.3 0.
100.221 -544.402 0.
39.8834 -774.178 0.
-62.4709 -1013.82 0.
-39.0774 -1144.06 0.
-3.12991 -1060.11 0.
32.8177 -976.15 0.
153.363 -889.467 0.
147.089 -903.259 0.
140.814 -917.051 0.
42.5075 -977.313 0.
31.6114 -1002.42 0.
20.7154 -1027.53 0.
119.09 -977.713 0.
125.328 -962.711 0.
-132.532 -1060.7 0.
-124.721 -1042.22 0.
-116.911 -1023.73 0.
133.767 -887.032 0.
165.486 -811.961 0.
197.206 -736.89 0.
-356.948 -950.93 0.
-362.119 -962.797 0.
-367.291 -974.664 0.
-31.0356 -874.035 0.
-57.7388 -935.347 0.
236.509 -859.285 0.
-332.055 -1067.76 0.
-315.611 -1030.27 0.
-35.6759 -878.572 0.
-11.789 -822.722 0.
12.0977 -766.871 0.
-164.465 -820.976 0.
-166.507 -826.822 0.
-168.549 -832.668 0.
-236.005 -913.806 0.
-276.557 -1008.89 0.
-317.11 -1103.97 0.
-253.453 -1028.69 0.
-220.087 -950.513 0.
-125.143 -863.036 0.
-176.999 -983.134 0.
-228.856 -1103.23 0.
103.853 -1010.66 0.
127.331 -954.74 0.
150.808 -898.816 0.
-254.083 -1111.35 0.
-311.371 -1244.52 0.
-368.659 -1377.68 0.
-320.144 -1279.02 0.
-250.533 -1117.6 0.
64.7092 -850.446 0.
60.9508 -872.095 0.
50.3612 -896.447 0.
-254.407 -1030.53 0.
-227.574 -968.235 0.
-200.741 -905.938 0.
-29.9331 -800.187 0.
-24.372 -787.355 0.
-18.811 -774.523 0.
61.6509 -792.062 0.
19.0615 -891.877 0.
-23.5279 -991.693 0.
-245.899 -1098.63 0.
-247.107 -1101.48 0.
-217.336 -1081.31 0.
-172.907 -977.567 0.
-128.479 -873.828 0.
-351.936 -940.423 0.
-393.205 -1035.95 0.
-434.474 -1131.47 0.
-239.894 -1064.05 0.
-224.487 -1026.98 0.
-209.08 -989.91 0.
-238.278 -990.154 0.
-235.398 -981.909 0.
-191.324 -956.453 0.
-123.402 -1023.56 0.
-173.416 -1141.27 0.
-256.045 -1229.58 0.
-209.982 -1121.6 0.
-163.919 -1013.61 0.
34.4002 -927.177 0.
-18.2928 -1050.47 0.
-70.9859 -1173.76 0.
-264.366 -1259.39 0.
-242.687 -1208.36 0.
-221.009 -1157.32 0.
194.553 -1004.01 0.
178.678 -1041.7 0.
-195.759 -1223.76 0.
-169.11 -1162.33 0.
-142.462 -1100.91 0.
38.0126 -981.584 0.
51.7116 -948.693 0.
65.4104 -915.801 0.
87.8852 -923.362 0.
61.0689 -986.665 0.
34.2524 -1049.97 0.
122.479 -874.72 0.
220.499 -646.113 0.
123.978 -530.168 0.
25.8395 -464.885 0.
170.913 -126.725 0.
432.486 -170.001 0.
282.533 -518.94 0.
549.462 104.793 0.
427.963 -415.826 0.
364.065 -564.996 0.
715.749 255.578 0.
634.283 465.962 0.
414.219 -47.7417 0.
124.581 -723.714 0.
378.244 -607.429 0.
558.894 -185.646 0.
314.703 144.249 0.
259.013 14.1467 0.
171.596 -190.017 0.
389.908 -76.0902 0.
179.178 -567.81 0.
231.637 -445.392 0.
-124.498 -367.409 0.
-182.835 -503.528 0.
-198.809 -540.737 0.
117.826 -559.2 0.
62.5045 -689.387 0.
16.5017 -308.739 0.
-476.278 -1050.7 0.
-402.837 -880.007 0.
275.734 -205.788 0.
339.72 -56.7292 0.
446.863 193.193 0.
23.6657 -184.568 0.
-101.259 -476.109 0.
-162.68 -619.457 0.
-182.565 -751.161 0.
-56.057 -456.456 0.
350.236 491.122 0.
596.062 764.421 0.
87.3619 -421.458 0.
-106.648 -649.294 0.
56.7267 -267.793 0.
58.996 -262.292 0.
262.051 -371.524 0.
292.168 -301.55 0.
387.79 -78.6697 0.
134.82 -222.871 0.
-146.6 -879.202 0.
-167.441 -927.413 0.
309.831 -77.9955 0.
411.133 158.822 0.
-182.596 -107.605 0.
349.019 -281.073 0.
72.4008 -926.371 0.
-291.542 -939.118 0.
-120.72 -540.556 0.
174.833 149.082 0.
523.512 374.91 0.
443.826 188.913 0.
444.423 190.252 0.
-249.523 -1135.02 0.
-48.6569 -666.315 0.
217.486 -45.2961 0.
226.603 12.9534 0.
22.1207 -465.031 0.
287.727 477.891 0.
234.855 354.389 0.
214.362 306.473 0.
70.8999 189.982 0.
-143.702 -310.83 0.
-309.639 -698.074 0.
-64.7101 -734.745 0.
-67.7537 -742.073 0.
-88.281 -790.269 0.
-377.028 -1300.23 0.
-247.833 -999.027 0.
168.835 272.584 0.
315.521 -94.1119 0.
3.18693 -821.239 0.
96.2958 -297.991 0.
143.558 -188.226 0.
63.4565 -375.519 0.
3.06105 -1060.34 0.
283.316 -406.403 0.
506.652 114.775 0.
108.703 -79.4715 0.
-27.8151 -399.359 0.
-77.6138 -516.902 0.
564.106 -451.759 0.
514.162 -569.071 0.
139.909 -527.515 0.
362.398 -8.71819 0.
409.314 100.47 0.
171.848 -365.956 0.
270.697 -134.85 0.
414.422 200.821 0.
279.447 -668.521 0.
461.463 -243.852 0.
479.495 -201.659 0.
-25.1673 -1408.26 0.
542.494 -84.048 0.
-130.772 -1308.08 0.
-261.696 -1270.94 0.
-215.404 -1162.77 0.
33.5757 -1010.74 0.
-28.1244 -1155.16 0.
-89.8248 -1299.57 0.
20.1731 -1259.28 0.
95.2071 -1083.91 0.
170.241 -908.535 0.
45.4591 -968.807 0.
-1.0146 -1077.72 0.
-47.4884 -1186.63 0.
114.918 -1124.59 0.
116.473 -1119.89 0.
-307.265 -1300.73 0.
-324.961 -1342.23 0.
-342.658 -1383.73 0.
-96.9067 -1276.37 0.
-56.2372 -1181.91 0.
-15.5676 -1087.45 0.
-369.688 -1166.76 0.
-334.877 -1085.75 0.
-300.066 -1004.74 0.
-131.492 -871.958 0.
-101.874 -803.688 0.
440.061 -515.717 0.
-298.158 -836.595 0.
-297.963 -835.615 0.
-94.6985 -756.458 0.
-119.221 -814.102 0.
-143.744 -871.747 0.
-218.665 -949.33 0.
-240.72 -1000.45 0.
-262.774 -1051.56 0.
-419.356 -1106.15 0.
-398.872 -1057.79 0.
-378.389 -1009.42 0.
-48.779 -783.695 0.
-1.28102 -673.408 0.
-148.952 -665.556 0.
-187.645 -756.402 0.
-226.338 -847.247 0.
-83.4402 -836.609 0.
-85.9834 -842.676 0.
-88.5266 -848.743 0.
-107.569 -824.846 0.
-74.6312 -748.442 0.
-41.6934 -672.038 0.
-106.947 -651.135 0.
-83.9802 -596.298 0.
73.761 -484.317 0.
305.888 -413.043 0.
291.309 -447.415 0.
-342.898 -753.153 0.
-372.243 -821.705 0.
-401.589 -890.257 0.
-7.46797 -764.476 0.
-22.0111 -798.545 0.
-36.5542 -832.614 0.
-109.378 -819.307 0.
-66.5733 -719.319 0.
-23.7688 -619.331 0.
-226.09 -863.802 0.
-324.286 -1093.8 0.
-442.84 -1307.19 0.
-420.046 -1253.45 0.
-397.253 -1199.71 0.
-528.473 -1204.9 0.
-493.806 -1124.34 0.
-459.139 -1043.78 0.
-26.4334 -894.32 0.
-88.7272 -1039.72 0.
-151.021 -1185.13 0.
-220.856 -1166.24 0.
-169.496 -1046.96 0.
-351.067 -1025.98 0.
-343.093 -1049.62 0.
-357.976 -1082.75 0.
-254.447 -1102.76 0.
-355.166 -1338.14 0.
-455.885 -1573.51 0.
-146.466 -1486.08 0.
-74.221 -1317.24 0.
-1.97615 -1148.39 0.
-435.016 -1343.58 0.
-477.223 -1443.11 0.
-519.43 -1542.64 0.
98.8602 -1247.05 0.
121.684 -1193.39 0.
-69.4082 -1227.83 0.
-35.5865 -1148.2 0.
-1.76468 -1068.56 0.
5.78715 -1046.67 0.
-29.935 -1130.67 0.
-65.6573 -1214.68 0.
-63.5307 -1252.58 0.
-71.0099 -1269.73 0.
-78.4891 -1286.89 0.
-71.507 -1378.15 0.
-133.294 -1522.33 0.
-18.0017 -1228.87 0.
-174.12 -1202.27 0.
-127.827 -1094.11 0.
2.42799 -992.659 0.
-59.094 -1137.18 0.
-120.616 -1281.7 0.
-20.7554 -1245.33 0.
54.2568 -1069.95 0.
129.269 -894.566 0.
94.0686 -917.003 0.
47.6282 -1025.94 0.
1.1878 -1134.88 0.
79.2361 -1108.1 0.
80.7739 -1103.39 0.
-294.505 -1264.08 0.
-312.262 -1305.55 0.
-330.018 -1347.02 0.
-42.9449 -1221.78 0.
-2.27046 -1127.32 0.
38.404 -1032.86 0.
-234.122 -1077.33 0.
-199.384 -996.242 0.
-164.645 -915.149 0.
-255.258 -893.018 0.
-225.702 -824.63 0.
192.52 -589.791 0.
-175.373 -753.265 0.
-175.1 -752.308 0.
-244.407 -789.032 0.
-268.808 -846.703 0.
-293.21 -904.375 0.
-95.5789 -864.688 0.
-117.461 -915.935 0.
-139.343 -967.183 0.
-507.847 -1112.24 0.
-487.19 -1064.05 0.
-466.533 -1015.87 0.
-8.37257 -734.541 0.
39.1932 -624.195 0.
-175.767 -646.102 0.
-214.558 -736.885 0.
-253.35 -827.669 0.
-245.294 -875.273 0.
-248.007 -881.183 0.
-250.72 -887.093 0.
-73.7685 -779.187 0.
-40.8457 -702.818 0.
-7.92288 -626.45 0.
-300.707 -702.684 0.
-277.606 -647.992 0.
-395.876 -654.25 0.
338.347 -367.526 0.
323.661 -401.763 0.
-486.467 -783.451 0.
-515.928 -851.95 0.
-545.39 -920.448 0.
-45.149 -749.791 0.
-59.7358 -783.846 0.
-74.3227 -817.901 0.
-84.7376 -777.527 0.
-41.8514 -677.654 0.
1.03473 -577.781 0.
-304.41 -865.377 0.
-402.526 -1095.4 0.
-383.924 -1250.62 0.
-361.157 -1196.81 0.
-338.39 -1143 0.
-514.493 -1167.88 0.
-480.068 -1087.14 0.
-445.644 -1006.41 0.
122.237 -799.239 0.
59.869 -944.597 0.
-2.49853 -1089.95 0.
-82.8743 -1076.19 0.
-31.5642 -956.89 0.
53.2664 -820.84 0.
-634.943 -1142.72 0.
-649.66 -1175.98 0.
-245.502 -1067.7 0.
-346.297 -1303.04 0.
-447.092 -1538.38 0.
-88.3707 -1430.2 0.
-16.2236 -1261.27 0.
55.9234 -1092.34 0.
-420.8 -1305.86 0.
-463.213 -1405.22 0.
-505.626 -1504.58 0.
-38.3254 -1275.08 0.
-15.6452 -1221.34 0.
56.9752 -1141.87 0.
90.8786 -1062.34 0.
124.782 -982.806 0.
178.745 -941.146 0.
143.041 -1025.11 0.
107.337 -1109.08 0.
-161.91 -1263.37 0.
-169.331 -1280.59 0.
-176.752 -1297.81 0.
-127 -1370.09 0.
-188.821 -1514.27 0.
250.766 -424.629 0.
120.355 -633.415 0.
43.4032 -812.831 0.
-18.2705 -952.151 0.
-7.9483 -927.22 0.
2.37385 -902.29 0.
44.319 -944.251 0.
-44.5812 -1151.82 0.
-133.482 -1359.4 0.
-71.0725 -1281.16 0.
18.7423 -1070.35 0.
108.557 -859.532 0.
199.642 -736.67 0.
237.301 -649.651 0.
-8.40576 -684.918 0.
27.1412 -601.813 0.
62.6884 -518.708 0.
286.831 -431.063 0.
200.228 -632.874 0.
113.624 -834.685 0.
-212.858 -1046.29 0.
-211.859 -1044.19 0.
-210.86 -1042.09 0.
-319.23 -1057.12 0.
-296.697 -1004.13 0.
626.748 -564.676 0.
-182.021 -830.853 0.
-141.321 -736.188 0.
-361.339 -756.088 0.
-323.016 -666.41 0.
-284.692 -576.732 0.
122.467 -351.896 0.
131.567 -330.834 0.
140.666 -309.773 0.
-312.192 -578.233 0.
-374.959 -724.94 0.
-437.725 -871.646 0.
-47.308 -794.56 0.
-92.3082 -899.476 0.
-381.375 -1071.95 0.
-263.439 -796.53 0.
-145.502 -521.111 0.
-138.347 -420.422 0.
-220.123 -611.905 0.
-301.899 -803.389 0.
-114.437 -752.147 0.
-76.8585 -663.917 0.
-39.2801 -575.687 0.
-312.378 -623.418 0.
-276.535 -539.708 0.
-1261.16 -893.922 0.
268.625 -388.492 0.
189.716 -572.593 0.
-560.223 -1016.62 0.
-574.974 -1050.97 0.
-589.724 -1085.33 0.
-167.766 -886.723 0.
-127.506 -792.881 0.
-87.2465 -699.038 0.
-55.6303 -681.735 0.
-72.5101 -720.984 0.
-89.3898 -760.232 0.
-329.25 -831.89 0.
-308.437 -782.733 0.
-173.915 -691.62 0.
-191.298 -732.076 0.
-208.681 -772.531 0.
-320.473 -837.421 0.
-314.717 -824.156 0.
-308.962 -810.89 0.
164.317 -647.89 0.
124.479 -741.563 0.
84.6407 -835.235 0.
20.6636 -828.175 0.
55.7915 -745.861 0.
-469.32 -903.608 0.
-658.841 -1090.85 0.
-714.177 -1220.48 0.
-316.952 -1113.25 0.
-278.203 -1022.49 0.
-239.453 -931.728 0.
232.66 -707.142 0.
209.732 -761.123 0.
186.804 -815.103 0.
-191.398 -941.906 0.
-151.636 -848.782 0.
-111.875 -755.659 0.
129.311 -714.669 0.
87.713 -812.623 0.
146.95 -873.907 0.
73.4935 -1045.97 0.
0.0368015 -1218.04 0.
95.602 -1221.14 0.
166.491 -1055.22 0.
237.379 -889.3 0.
-62.898 -883.337 0.
6.53083 -721.272 0.
75.9597 -559.208 0.
228.015 -482.281 0.
218.888 -502.866 0.
-23.1772 -511.436 0.
188.996 -573.071 0.
112.087 -752.431 0.
-51.1647 -934.625 0.
-40.7778 -909.757 0.
-30.3909 -884.889 0.
-38.5513 -948.339 0.
-127.461 -1155.91 0.
-216.371 -1363.47 0.
-113.552 -1268.04 0.
-23.6851 -1057.29 0.
66.1812 -846.538 0.
176.788 -714.862 0.
214.547 -627.88 0.
107.343 -603.499 0.
142.775 -520.318 0.
178.208 -437.137 0.
239.276 -420.135 0.
152.571 -621.791 0.
65.8667 -823.447 0.
-297.994 -1052.17 0.
-297.13 -1049.91 0.
-296.265 -1047.65 0.
-144.112 -950.566 0.
-121.532 -897.545 0.
88.28 -763.821 0.
-201.852 -807.453 0.
-161.137 -712.706 0.
-499.42 -783.797 0.
-460.918 -694.218 0.
-422.416 -604.64 0.
25.8161 -362.092 0.
34.8388 -340.988 0.
43.8615 -319.885 0.
-267.098 -526.936 0.
-329.923 -673.722 0.
-392.748 -820.508 0.
-89.7625 -782.163 0.
-134.94 -886.777 0.
-380.09 -1039.7 0.
-262.047 -764.327 0.
-144.003 -488.95 0.
-154.099 -395.916 0.
-236.004 -587.258 0.
-317.91 -778.599 0.
-247.129 -777.876 0.
-209.546 -689.696 0.
-171.963 -601.517 0.
-201.103 -544.212 0.
-165.24 -460.531 0.
-12.2143 -327.148 0.
123.174 -419.561 0.
44.3302 -603.694 0.
-313.371 -879.286 0.
-328.138 -913.664 0.
-342.905 -948.043 0.
-252.714 -891.727 0.
-212.386 -797.983 0.
-172.058 -704.238 0.
-82.6341 -661.75 0.
-99.469 -701.058 0.
-116.304 -740.365 0.
-311.62 -792.715 0.
-290.708 -743.632 0.
-270.546 -701.583 0.
-287.972 -741.934 0.
-305.398 -782.285 0.
-165.513 -739.85 0.
-159.782 -726.555 0.
-154.05 -713.259 0.
-14.4091 -693.169 0.
-54.2242 -786.826 0.
-94.0391 -880.483 0.
-93.3232 -844.731 0.
-58.2067 -762.472 0.
-190.418 -753.127 0.
-435.314 -964.022 0.
-490.7 -1093.58 0.
-422.109 -1126.6 0.
-383.352 -1035.79 0.
-344.596 -944.992 0.
234.567 -674.661 0.
211.553 -728.588 0.
188.539 -782.514 0.
10.3526 -824.255 0.
50.0962 -731.104 0.
89.8397 -637.954 0.
122.281 -686.416 0.
80.5131 -784.221 0.
-7.1804 -908.371 0.
-80.6024 -1080.46 0.
-154.024 -1252.56 0.
40.7798 -1213.4 0.
111.575 -1047.36 0.
182.371 -881.314 0.
-87.7289 -862.651 0.
-18.1943 -700.647 0.
51.3403 -538.643 0.
254.872 -439.251 0.
245.82 -459.905 0.
-14.1193 62.6271 0.
265.076 -496.428 0.
123.087 -827.097 0.
211.112 -229.427 0.
-34.9405 -803.419 0.
-286.209 -1389.26 0.
-93.7222 -887.562 0.
107.42 -418.434 0.
229.085 -134.863 0.
308.312 -170.877 0.
130.161 -586.695 0.
37.6848 -802.617 0.
101.401 -818.713 0.
170.432 -656.689 0.
301.643 -335.501 0.
273.562 -400.754 0.
269.624 -409.699 0.
248.542 -274.566 0.
456.159 209.163 0.
115.42 -586.513 0.
-105.642 -409.718 0.
-115.992 -433.472 0.
-70.0534 -325.884 0.
131.684 -611.985 0.
106.328 -671.259 0.
260.546 -609.781 0.
8.62405 -246.547 0.
185.113 164.355 0.
-195.939 217.508 0.
-403.588 -266.969 0.
-492.929 -475.267 0.
-2.50975 -212.913 0.
-83.1179 -401.006 0.
-168.526 -600.274 0.
-302.398 -663.563 0.
-277.491 -606.651 0.
-91.5964 -174.067 0.
397.926 465.376 0.
187.399 -23.9895 0.
-241.713 -686.435 0.
-280.985 -777.948 0.
-73.8767 -294.728 0.
51.3178 143.54 0.
46.6625 133.199 0.
14.8337 59.4557 0.
-18.5003 40.43 0.
-374.138 -788.8 0.
-390.906 -827.32 0.
-0.218947 -253.259 0.
132.896 58.389 0.
-165.953 -271.104 0.
159.419 -25.7796 0.
0.803332 -396.104 0.
95.9584 -362.474 0.
161.001 -210.953 0.
212.197 -91.7215 0.
3.1292 -103.225 0.
-18.6233 -154.146 0.
-175.498 -520.32 0.
-96.2489 -609.666 0.
-64.5671 -535.695 0.
-54.4032 -511.979 0.
-40.5503 -164.986 0.
101.62 166.987 0.
34.3385 225.149 0.
30.8951 216.905 0.
73.7138 316.574 0.
453.655 441.116 0.
233.219 -73.7754 0.
28.7753 -551.366 0.
-253.915 -878.572 0.
-33.7748 -366.013 0.
97.6257 -60.3637 0.
18.5599 -335.175 0.
46.7236 -269.806 0.
506.422 -447.672 0.
-141.655 -673.715 0.
-119.697 -622.235 0.
-77.0822 -90.2537 0.
-93.2565 -128.25 0.
-75.1253 -86.166 0.
684.186 401.286 0.
485.292 -63.2365 0.
388.596 -289.217 0.
403.952 -255.689 0.
371.779 -331.509 0.
292.82 -516.585 0.
158.167 -557.866 0.
226 -399.114 0.
-99.9159 -801.431 0.
213.147 -69.9102 0.
194.495 -112.369 0.
347.283 -361.27 0.
242.84 -605.065 0.
258.938 -567.672 0.
62.0523 -434.082 0.
93.8744 -358.877 0.
-22.2487 -629.011 0.
495.75 99.5255 0.
16.1113 -1019.85 0.
-568.301 -1561.24 0.
-54.2116 -1101.91 0.
69.2902 -813.496 0.
-44.8001 -698.83 0.
-97.633 -822.76 0.
-150.466 -946.69 0.
-101.906 -913.212 0.
-15.7689 -711.965 0.
70.3683 -510.718 0.
117.279 -513.081 0.
52.7624 -663.812 0.
-11.7538 -814.544 0.
47.3391 -890.828 0.
-4.52381 -1010.63 0.
-143.163 -1159.78 0.
-162.746 -1205.58 0.
-182.33 -1251.39 0.
-186.396 -1217.8 0.
-89.4621 -992.333 0.
7.47182 -766.862 0.
-178.222 -780.196 0.
-195.354 -820.637 0.
-212.486 -861.077 0.
-85.4709 -886.551 0.
-134.529 -1001.34 0.
304.594 -906.448 0.
-296.752 -1032.89 0.
-225.899 -868.094 0.
-519.911 -905.843 0.
-564.222 -1008.47 0.
-608.533 -1111.1 0.
-358.581 -1021.32 0.
-322.179 -936.756 0.
-285.778 -852.193 0.
-426.702 -789.489 0.
-348.983 -607.945 0.
-271.264 -426.401 0.
30.1249 -259.363 0.
41.5205 -231.525 0.
-211.387 -327.861 0.
-244.327 -403.612 0.
-277.266 -479.362 0.
-231.31 -506.832 0.
-241.353 -530.149 0.
-251.397 -553.467 0.
-355.284 -613.06 0.
-361.908 -628.43 0.
-368.533 -643.801 0.
-115.873 -713.284 0.
-234.695 -990.015 0.
-234.763 -1215.72 0.
-260.691 -990.481 0.
-136.669 -700.887 0.
31.807 -446.739 0.
27.9601 -455.11 0.
24.1131 -463.482 0.
-291.013 -624.354 0.
-317.738 -686.986 0.
-344.462 -749.617 0.
-259.673 -749.41 0.
-274.327 -784.305 0.
-288.982 -819.199 0.
-415.06 -817.353 0.
-380.421 -736.994 0.
-370.717 -688.843 0.
-439.118 -848.808 0.
-507.52 -1008.77 0.
-70.1474 -953.452 0.
-138.484 -1113.08 0.
-206.82 -1272.71 0.
-304.122 -1272.66 0.
-210.921 -1054.38 0.
-117.719 -836.114 0.
-488.198 -1103.07 0.
-588.786 -1337.54 0.
187.747 -1194.9 0.
-397.784 -1307.68 0.
-324.901 -1137.71 0.
-393.031 -1069.23 0.
-407.807 -1103.69 0.
-422.583 -1138.15 0.
-3.83361 -1052.02 0.
-95.4533 -1265.53 0.
-187.073 -1479.05 0.
-292.778 -1549.39 0.
-268.653 -1493.27 0.
-244.528 -1437.15 0.
-82.4072 -1219.03 0.
2.23092 -1020.79 0.
-46.7563 -889.91 0.
-7.07763 -796.372 0.
32.6012 -702.834 0.
127.054 -620.842 0.
114.793 -649.439 0.
102.532 -678.036 0.
-168.699 -848.423 0.
-209.694 -943.815 0.
-250.69 -1039.21 0.
24.1162 -1024.63 0.
-34.8526 -1162.53 0.
-109.211 -1332.28 0.
-111.553 -1095.16 0.
11.9649 -806.762 0.
-94.1852 -688.481 0.
-146.926 -812.454 0.
-199.667 -936.427 0.
-81.8285 -873.149 0.
4.20753 -671.828 0.
90.2435 -470.507 0.
79.4615 -497.979 0.
14.9429 -648.585 0.
-49.5758 -799.19 0.
35.9419 -864.828 0.
-15.8932 -984.638 0.
-240.745 -1169.99 0.
-260.367 -1215.8 0.
-279.989 -1261.61 0.
-205.867 -1194.59 0.
-108.996 -968.934 0.
-12.1245 -743.274 0.
-55.8917 -696.866 0.
-73.0431 -737.219 0.
-90.1945 -777.572 0.
-191.006 -899.989 0.
-239.954 -1014.79 0.
-216.512 -1098.35 0.
-243.874 -979.144 0.
-172.93 -814.449 0.
-307.925 -783.648 0.
-352.205 -886.246 0.
-396.484 -988.844 0.
-353.117 -987.517 0.
-316.741 -902.962 0.
-280.364 -818.407 0.
-496.898 -787.841 0.
-419.219 -606.336 0.
-341.541 -424.831 0.
-23.0904 -250.816 0.
-11.5906 -223.07 0.
-348.881 -355.162 0.
-381.725 -430.924 0.
-414.569 -506.687 0.
-219.658 -470.517 0.
-229.658 -493.802 0.
-239.658 -517.087 0.
-405.673 -603.236 0.
-412.351 -618.598 0.
-419.03 -633.96 0.
1.26355 -631.711 0.
-117.612 -908.477 0.
-530.813 -1311.13 0.
-252.622 -955.408 0.
-128.678 -665.767 0.
11.8008 -424.123 0.
7.9178 -432.45 0.
4.03479 -440.776 0.
-361.837 -623.398 0.
-388.53 -685.989 0.
-415.223 -748.581 0.
-370.432 -765.638 0.
-384.965 -800.553 0.
-399.499 -835.468 0.
-514.914 -828.756 0.
-480.245 -748.439 0.
-369.615 -657.074 0.
-438.036 -817.01 0.
-506.457 -976.947 0.
35.2736 -876.876 0.
-33.0872 -1036.52 0.
-101.448 -1196.16 0.
-139.797 -1171.16 0.
-46.5062 -953.006 0.
46.7843 -734.852 0.
-690.709 -1158.46 0.
-791.22 -1392.88 0.
78.3785 -1210.43 0.
-363.898 -1261.57 0.
-291.059 -1091.55 0.
-246.461 -974.936 0.
-261.271 -1009.29 0.
-276.081 -1043.64 0.
-67.6151 -1048.08 0.
-159.339 -1261.51 0.
-251.064 -1474.94 0.
-455.761 -1588.6 0.
-431.67 -1532.44 0.
-407.579 -1476.27 0.
-11.9579 -1157.16 0.
72.7371 -958.889 0.
82.7384 -802.711 0.
122.55 -709.33 0.
162.362 -615.949 0.
9.79357 -640.054 0.
-2.58815 -668.504 0.
-14.97 -696.954 0.
-216.927 -837.423 0.
-257.824 -932.9 0.
-298.721 -1028.38 0.
52.7752 -981.065 0.
-6.00921 -1119.04 0.
62.9313 -497.582 0.
170.617 -528.477 0.
127.761 -628.571 0.
-100.488 -771.05 0.
-51.8092 -656.205 0.
-3.13013 -541.36 0.
16.7399 -535.646 0.
-51.2261 -695.204 0.
-119.192 -854.762 0.
-130.575 -876.231 0.
-107.095 -821.615 0.
-83.6147 -766.998 0.
95.9937 -693.944 0.
89.3322 -709.812 0.
-135.367 -823.533 0.
-157.322 -874.494 0.
-179.276 -925.454 0.
-116.713 -932.257 0.
-125.235 -951.682 0.
-133.757 -971.108 0.
-143.673 -964.283 0.
-124.661 -919.862 0.
-105.648 -875.441 0.
-260.743 -842.503 0.
-199.949 -700.211 0.
90.9611 -458.819 0.
-20.5 -581.735 0.
-59.9414 -672.095 0.
-223.347 -767.688 0.
-154.133 -606.514 0.
-84.9188 -445.34 0.
-115.378 -356.734 0.
-79.6999 -273.5 0.
-44.0215 -190.267 0.
-337.628 -277.264 0.
-322.694 -242.956 0.
-307.76 -208.648 0.
14.9891 -52.3165 0.
22.4642 -34.8619 0.
-413.772 -217.422 0.
-458.379 -321.667 0.
-502.986 -425.912 0.
-140.457 -324.281 0.
-135.307 -312.312 0.
-130.158 -300.342 0.
-284.715 -389.76 0.
-311.317 -451.699 0.
-337.919 -513.637 0.
120.323 -324.21 0.
123.461 -316.977 0.
-222.073 -459.723 0.
-14.0229 -385.764 0.
-21.696 -404.24 0.
-4.77077 -430.242 0.
-58.5347 -556.38 0.
-112.299 -682.518 0.
-460.441 -820.257 0.
-378.33 -628.105 0.
-296.22 -435.954 0.
-262.082 -300.97 0.
-209.69 -177.949 0.
-157.297 -54.9277 0.
-242.374 -129.221 0.
-269.89 -193.429 0.
-134.453 -187.988 0.
-159.659 -246.039 0.
-184.865 -304.089 0.
290.477 -170.279 0.
229.161 -313.352 0.
167.845 -456.425 0.
109.481 -537.031 0.
104.83 -548.424 0.
100.179 -559.817 0.
-549.049 -822.056 0.
-535.671 -790.705 0.
469.808 -334.822 0.
-92.9151 -594.705 0.
-102.082 -616.683 0.
-1.17785 -606.202 0.
-47.7577 -714.785 0.
-94.3375 -823.369 0.
-58.6355 -843.175 0.
-41.7087 -804.191 0.
-24.7817 -765.206 0.
-188.741 -795.845 0.
-167.928 -747.345 0.
-147.114 -698.844 0.
193.832 -617.109 0.
154.397 -709.758 0.
88.4256 -804.305 0.
98.0864 -781.872 0.
107.747 -759.439 0.
-107.354 -821.674 0.
-83.6087 -766.38 0.
-59.8629 -711.086 0.
-168.074 -759.759 0.
-188.837 -807.723 0.
-209.599 -855.686 0.
170.519 -694.6 0.
175.063 -683.563 0.
-429.099 -677.718 0.
362.524 -415.521 0.
319.397 -515.38 0.
52.0884 -673.867 0.
100.875 -559.117 0.
149.662 -444.367 0.
-83.5218 -547.584 0.
-151.594 -707.008 0.
-219.666 -866.432 0.
-178.728 -865.52 0.
-155.275 -810.892 0.
-131.823 -756.263 0.
110.714 -656.344 0.
104.077 -672.184 0.
-110.998 -781.719 0.
-132.964 -832.7 0.
-154.931 -883.682 0.
-122.85 -903.602 0.
-131.3 -923.024 0.
-139.751 -942.445 0.
-168.785 -943.355 0.
-149.697 -898.956 0.
-130.608 -854.557 0.
-352.352 -850.075 0.
-291.498 -707.836 0.
-245.82 -571.745 0.
93.0468 -501.98 0.
53.5695 -592.342 0.
-215.881 -732.737 0.
-146.68 -571.532 0.
-77.4792 -410.328 0.
-164.131 -346.737 0.
-128.56 -263.392 0.
-92.9883 -180.047 0.
-380.389 -264.047 0.
-365.495 -229.714 0.
-350.601 -195.38 0.
-12.1327 -32.3925 0.
-4.60546 -14.9255 0.
-544.526 -241.559 0.
-589.038 -345.873 0.
-633.549 -450.186 0.
-78.1172 -266.432 0.
-72.9739 -254.476 0.
-67.8305 -242.521 0.
-129.167 -291.74 0.
-155.776 -353.678 0.
-182.385 -415.616 0.
1.68431 -343.733 0.
4.83685 -336.559 0.
-205.914 -421.33 0.
-3.47948 -349.661 0.
-11.1576 -368.133 0.
16.7147 -389.962 0.
-37.126 -515.997 0.
-90.9668 -642.033 0.
-390.092 -758.696 0.
-307.941 -566.473 0.
-225.79 -374.251 0.
-344.716 -305.027 0.
-292.239 -182.004 0.
-239.762 -58.9801 0.
-172.679 -68.1095 0.
-200.143 -132.348 0.
-18.4674 -106.946 0.
-43.6347 -165.011 0.
-68.802 -223.076 0.
95.9865 -222.016 0.
34.7116 -365.148 0.
-26.5632 -508.28 0.
-82.8561 -587.99 0.
-87.5196 -599.394 0.
-92.183 -610.799 0.
-309.941 -688.229 0.
-296.473 -656.886 0.
180.196 -427.73 0.
-132.844 -580.568 0.
-142.049 -602.445 0.
99.92 -531.212 0.
53.2733 -639.741 0.
6.62654 -748.269 0.
-154.499 -853.183 0.
-137.542 -814.148 0.
-120.584 -775.114 0.
-168.947 -755.872 0.
-148.027 -707.406 0.
-127.107 -658.94 0.
88.8455 -630.718 0.
49.3344 -723.169 0.
6.74476 -807.954 0.
16.4692 -785.539 0.
26.1938 -763.123 0.
-51.3587 -766.699 0.
-27.6512 -711.405 0.
-3.94363 -656.111 0.
-51.4451 -678.244 0.
-72.065 -726.35 0.
-92.6846 -774.457 0.
167.7 -664.484 0.
172.541 -653.587 0.
230.686 34.2725 0.
449.388 -552.549 0.
606.569 -186.555 0.
454.967 6.31136 0.
363.779 -206.149 0.
374.047 -181.648 0.
-34.3475 -212.201 0.
-13.1611 -162.435 0.
17.6124 -90.2515 0.
71.0584 -158.837 0.
-13.8474 -358.63 0.
-45.6459 -434.252 0.
214.658 -409.757 0.
282.946 -250.482 0.
375.797 342.779 0.
261.755 76.054 0.
154.6 -174.6 0.
145.599 -234.688 0.
97.971 -346.512 0.
27.4824 -511.5 0.
-184.673 -900.768 0.
-93.8615 -688.907 0.
-15.7802 -506.757 0.
-504.892 -1001.89 0.
-213.687 -323.016 0.
413.07 524.085 0.
428.857 97.497 0.
69.6398 -740.137 0.
-214.232 -712.659 0.
-125.249 -504.733 0.
94.9679 9.40232 0.
18.6397 203.683 0.
-19.3119 115.262 0.
-14.4586 126.746 0.
-392.854 -179.858 0.
-469.941 -359.705 0.
-567.494 -587.33 0.
-124.489 -211.555 0.
-23.6167 24.392 0.
-690.306 -300.524 0.
-739.324 -415.65 0.
-619.915 -137.768 0.
161.892 206.8 0.
32.3937 -94.9495 0.
-77.8117 -351.679 0.
-22.7137 -306.053 0.
81.6989 -62.464 0.
-159.731 -625.851 0.
-361.966 -935.109 0.
-244.998 -661.973 0.
-653.387 -553.715 0.
-19.0975 -373.41 0.
-23.3173 -383.225 0.
-32.021 -513.544 0.
-83.7419 -634.527 0.
59.4932 -300.511 0.
-165.638 -339.06 0.
-100.505 -188.187 0.
10.0047 68.5802 0.
-390.113 -220.617 0.
-502.067 -482.009 0.
-523.619 -532.425 0.
-502.24 -938.76 0.
-238.134 -322.316 0.
215.059 247.941 0.
239.366 305.508 0.
262.094 359.451 0.
217.511 463.699 0.
159.39 327.692 0.
-26.6346 -106.748 0.
-160.734 -371.917 0.
-132.65 -306.845 0.
-192.636 -447.272 0.
44.4336 -286.259 0.
-103.398 -631.168 0.
6.08552 -687.601 0.
-268.386 -790.512 0.
-225.945 -691.712 0.
175.951 -516.054 0.
61.9445 -782.161 0.
248.132 -347.584 0.
98.7663 -48.0157 0.
257.674 322.569 0.
234.601 268.493 0.
316.854 373.436 0.
231.495 174.619 0.
181.521 58.2969 0.
84.9997 -406.503 0.
-83.3803 -799.567 0.
-199.166 -1102.53 0.
82.1657 -445.662 0.
153.495 -278.705 0.
55.109 -594.776 0.
-65.6326 -876.82 0.
-59.558 -862.971 0.
86.8246 -547.625 0.
-48.0691 -862.751 0.
248.432 -171.021 0.
261.733 -407.484 0.
353.189 -192.749 0.
-586.656 -1200.57 0.
30.861 -861.018 0.
65.3409 -781.226 0.
45.4304 -745.305 0.
31.6216 -777.948 0.
17.8127 -810.591 0.
-246.151 -909.224 0.
-211.304 -827.373 0.
-176.458 -745.521 0.
-104.798 -739.844 0.
-143.435 -830.558 0.
-182.073 -921.272 0.
-93.1528 -837.842 0.
-60.3213 -761.27 0.
-98.6886 -722.573 0.
-102.307 -731.479 0.
-105.925 -740.385 0.
-178.162 -753.474 0.
-142.861 -671.438 0.
-107.56 -589.401 0.
-169.011 -599.361 0.
-182.742 -631.419 0.
-196.473 -663.478 0.
-222.293 -644.181 0.
-196.772 -584.572 0.
273.07 -334.346 0.
68.7231 -473.539 0.
40.7092 -539.027 0.
-262.879 -702.778 0.
-240.893 -651.02 0.
-218.906 -599.261 0.
-374.91 -650.073 0.
-385.891 -675.9 0.
-396.872 -701.728 0.
-392.448 -649.579 0.
-349.246 -547.797 0.
-306.043 -446.015 0.
-254.325 -390.484 0.
-238.629 -353.688 0.
-514.028 -450.612 0.
-536.959 -503.644 0.
-559.89 -556.676 0.
-233.213 -429.567 0.
-210.288 -376.067 0.
-187.363 -322.567 0.
-103.615 -279.869 0.
-114.689 -305.579 0.
-125.762 -331.288 0.
-73.8643 -308.541 0.
-70.652 -301.297 0.
-287.424 -388.539 0.
-185.959 -428.548 0.
-229.945 -531.112 0.
-128.038 -526.89 0.
-66.3179 -383.279 0.
-4.59772 -239.668 0.
-187.584 -290.853 0.
-232.067 -395.262 0.
-276.55 -499.67 0.
-399.978 -574.769 0.
-394.455 -562.392 0.
-388.933 -550.015 0.
-242.856 -534.018 0.
-271.257 -600.004 0.
-165.067 -609.854 0.
-206.893 -708.396 0.
-248.72 -806.939 0.
-276.152 -853.766 0.
-245.538 -782.274 0.
-214.924 -710.782 0.
-351.238 -722.287 0.
-329.712 -672.787 0.
-308.187 -623.288 0.
-237.39 -592.007 0.
-243.007 -605.228 0.
193.103 -428.833 0.
-214.917 -681.663 0.
-255.854 -777.29 0.
-16.6833 -721.189 0.
16.1115 -645.103 0.
48.9064 -569.017 0.
-194.025 -656.011 0.
-214.076 -702.77 0.
-234.126 -749.529 0.
-151.886 -702.429 0.
-130.691 -652.544 0.
-109.497 -602.658 0.
-111.743 -705.326 0.
-175.416 -854.39 0.
-123.863 -921.46 0.
-43.1235 -732.785 0.
37.616 -544.111 0.
156.495 -426.999 0.
104.537 -548.396 0.
52.5784 -669.793 0.
15.8248 -762.7 0.
-17.066 -839.07 0.
-49.9567 -915.439 0.
126.52 -873.622 0.
112.542 -904.341 0.
-289.954 -1042.85 0.
-306.759 -974.528 0.
-272.396 -894.722 0.
-46.6944 -753.499 0.
-60.4535 -786.158 0.
-74.2127 -818.817 0.
-120.454 -823.916 0.
-85.4107 -742.242 0.
-50.3672 -660.567 0.
2.82546 -661.964 0.
-35.8028 -752.759 0.
-74.4311 -843.554 0.
-231.751 -865.702 0.
-198.926 -789.104 0.
-105.13 -694.143 0.
-108.77 -703.035 0.
-112.409 -711.927 0.
-286.68 -768.296 0.
-251.356 -686.267 0.
-216.031 -604.238 0.
-293.959 -622.203 0.
-307.571 -654.358 0.
-321.184 -686.514 0.
-45.4725 -536.822 0.
-19.866 -477.343 0.
114.898 -370.723 0.
-60.2277 -497.15 0.
-88.2085 -562.641 0.
-311.614 -691.967 0.
-289.65 -640.218 0.
-267.687 -588.469 0.
-393.656 -626.801 0.
-404.634 -652.596 0.
-415.611 -678.391 0.
-125.377 -503.869 0.
-82.2189 -402.044 0.
-39.0604 -300.218 0.
-302.978 -379.886 0.
-287.27 -342.987 0.
-199.923 -284.953 0.
-222.87 -337.917 0.
-245.818 -390.882 0.
-367.663 -455.626 0.
-344.693 -402.154 0.
-321.724 -348.683 0.
-202.102 -290.596 0.
-213.226 -316.267 0.
-224.349 -341.939 0.
-31.2138 -259.068 0.
-28.1367 -251.739 0.
-524.081 -458.573 0.
-346.847 -466.141 0.
-390.76 -568.743 0.
-223.258 -536.302 0.
-161.469 -392.794 0.
-99.6792 -249.286 0.
-223.624 -274.836 0.
-268.059 -379.306 0.
-312.495 -483.776 0.
-207.479 -460.861 0.
-201.841 -448.545 0.
-196.203 -436.228 0.
-120.742 -450.202 0.
-149.08 -516.311 0.
-163.533 -577.378 0.
-205.305 -675.98 0.
-247.076 -774.582 0.
-169.609 -776.698 0.
-139.098 -705.144 0.
-108.587 -633.59 0.
-382.9 -704.116 0.
-361.405 -654.578 0.
-339.909 -605.041 0.
-411.316 -634.959 0.
-417.013 -648.066 0.
165.668 -409.614 0.
-187.69 -639.083 0.
-228.535 -734.676 0.
-131.735 -738.983 0.
-98.901 -662.925 0.
-66.067 -586.867 0.
-216.217 -633.527 0.
-236.171 -680.351 0.
-256.124 -727.174 0.
-145.341 -668.17 0.
-124.203 -618.157 0.
-103.065 -568.144 0.
-178.646 -702.511 0.
-242.29 -851.537 0.
-111.009 -884.829 0.
-30.2553 -696.131 0.
50.4978 -507.434 0.
209.075 -372.715 0.
157.034 -493.983 0.
104.993 -615.252 0.
58.7858 -712.919 0.
25.9271 -789.268 0.
-6.93158 -865.616 0.
219.513 -802.534 0.
205.608 -833.185 0.
62.4075 -346.384 0.
-214.223 -596.436 0.
-266.08 -717.9 0.
-101.42 -731.989 0.
-122.193 -779.956 0.
-142.966 -827.923 0.
-98.3177 -812.865 0.
-74.7553 -757.506 0.
-51.193 -702.146 0.
43.857 -518.621 0.
144.438 -283.906 0.
245.018 -49.1903 0.
-43.2501 -289.213 0.
-124.882 -479.433 0.
-110.299 -611.087 0.
-109.923 -610.278 0.
-109.547 -609.469 0.
-267.695 -690.559 0.
-288.241 -738.606 0.
-308.787 -786.654 0.
-379.269 -776.625 0.
-325.377 -650.7 0.
-271.484 -524.774 0.
94.0407 -380.78 0.
71.0734 -434.386 0.
110.871 -460.753 0.
-184.972 -552.473 0.
-167.151 -510.479 0.
-294.83 -524.106 0.
-261.459 -446.114 0.
-228.088 -368.122 0.
-272.743 -357.002 0.
-278.195 -369.305 0.
-283.646 -381.608 0.
21.0784 -226.288 0.
43.7295 -174.302 0.
66.3807 -122.317 0.
-269.256 -290.003 0.
-286.185 -329.766 0.
-128.53 -291.277 0.
-130.01 -294.392 0.
-131.49 -297.507 0.
-361.433 -416.024 0.
-388.963 -480.129 0.
-416.492 -544.234 0.
-312.253 -449.714 0.
-243.619 -289.582 0.
-174.985 -129.451 0.
88.6995 26.5191 0.
97.7512 47.6499 0.
-1049.95 -427.256 0.
-250.599 -120.359 0.
-269.232 -163.776 0.
-77.3823 -113.957 0.
-85.5865 -132.793 0.
-93.7907 -151.629 0.
-186.079 -184.966 0.
-169.111 -145.203 0.
-152.143 -105.441 0.
-37.0242 -137.624 0.
-110.464 -308.595 0.
-183.904 -479.566 0.
-58.8801 -407.992 0.
-39.4419 -362.185 0.
-133.804 -369.992 0.
-137.337 -378.233 0.
-140.87 -386.474 0.
49.3977 -337.719 0.
4.715 -442.08 0.
-39.9677 -546.442 0.
-422.742 -760.064 0.
-434.276 -786.87 0.
-445.811 -813.676 0.
-487.704 -746.351 0.
-426.181 -602.858 0.
243.193 -196.814 0.
-100.852 -409.055 0.
-134.924 -487.907 0.
-158.305 -549.341 0.
-160.221 -553.693 0.
-162.136 -558.044 0.
-137.083 -504.935 0.
-84.9044 -383.369 0.
-32.7259 -261.802 0.
-4.46744 -317.425 0.
-84.5598 -503.665 0.
-164.652 -689.906 0.
-210.488 -714.106 0.
-203.314 -696.519 0.
-41.5187 -622.787 0.
-80.5846 -713.698 0.
-119.65 -804.609 0.
-6.54499 -795.74 0.
5.51314 -768.145 0.
17.5711 -740.549 0.
37.5958 -719.114 0.
41.7982 -709.279 0.
46.0005 -699.443 0.
285.243 -502.103 0.
346.74 -359.945 0.
-217.073 -433.83 0.
-2.4931 -474.496 0.
-54.3056 -596.08 0.
-133.559 -714.229 0.
-154.265 -762.281 0.
-174.971 -810.334 0.
-152.352 -804.601 0.
-128.676 -749.332 0.
-105 -694.063 0.
-85.6939 -542.558 0.
14.9416 -307.924 0.
115.577 -73.2897 0.
-9.50988 -243.228 0.
-91.1787 -433.413 0.
-174.074 -607.126 0.
-173.779 -606.249 0.
-173.483 -605.371 0.
-156.624 -611.593 0.
-177.149 -659.635 0.
-197.674 -707.678 0.
-264.088 -696.215 0.
-210.121 -570.343 0.
-156.153 -444.471 0.
123.23 -336.828 0.
100.257 -390.434 0.
325.933 -337.253 0.
-266.642 -556.063 0.
-248.765 -514.155 0.
-347.198 -514.979 0.
-313.866 -436.88 0.
-280.534 -358.782 0.
-204.624 -296.347 0.
-210.025 -308.729 0.
-215.426 -321.111 0.
-154.78 -270.378 0.
-132.266 -218.327 0.
-109.753 -166.275 0.
-195.459 -227.045 0.
-212.438 -266.783 0.
-233.163 -304.671 0.
-234.654 -307.781 0.
-236.146 -310.891 0.
-217.459 -322.871 0.
-244.974 -387.006 0.
-272.488 -451.142 0.
-282.282 -405.33 0.
-213.629 -245.184 0.
-144.976 -85.039 0.
64.2261 47.0949 0.
73.2055 68.2559 0.
-409.382 -121.633 0.
-178.729 -58.1874 0.
-197.386 -101.505 0.
-36.09 -64.9339 0.
-44.1865 -83.9085 0.
-52.2829 -102.883 0.
-115.314 -123.016 0.
-98.3549 -83.3021 0.
-81.3955 -43.588 0.
-123.449 -143.228 0.
-196.906 -314.221 0.
-270.363 -485.214 0.
-41.3079 -369.015 0.
-21.8351 -323.265 0.
-249.554 -388.369 0.
-253.119 -396.565 0.
-256.684 -404.761 0.
50.284 -305.681 0.
5.56664 -410.063 0.
-39.1508 -514.446 0.
-394.583 -716.714 0.
-406.086 -743.549 0.
-417.589 -770.384 0.
-340.159 -651.537 0.
-278.645 -507.964 0.
253.665 -161.433 0.
-130.347 -390.638 0.
-164.411 -469.391 0.
-270.345 -565.834 0.
-272.244 -570.177 0.
-274.143 -574.52 0.
-18.8222 -422.787 0.
33.3908 -301.236 0.
85.6037 -179.684 0.
-3.25353 -285.77 0.
-83.3478 -472.002 0.
-163.442 -658.233 0.
-175.653 -667.269 0.
-168.387 -649.777 0.
-124.562 -626.735 0.
-163.647 -717.635 0.
-202.733 -808.535 0.
-110.478 -808.967 0.
-98.5037 -781.174 0.
-86.5291 -753.38 0.
-19.1455 -711.932 0.
-14.9034 -702.062 0.
-10.6613 -692.192 0.
68.2538 -563.841 0.
129.578 -421.337 0.
531.863 256.883 0.
359.089 -3.75091 0.
373.377 30.7846 0.
-52.2335 -429.581 0.
-163.372 -688.764 0.
18.3714 -264.639 0.
188.544 121.229 0.
248.682 261.922 0.
59.7306 -178.839 0.
-185.171 -498.347 0.
-185.684 -500.116 0.
-78.894 -251.418 0.
35.4502 -170.79 0.
30.8398 -181.009 0.
57.1151 86.6786 0.
-273.736 -685.418 0.
-150.346 -397.62 0.
112.378 -164.987 0.
169.276 -32.1827 0.
111.463 -166.903 0.
-74.1375 -442.138 0.
-238.277 -825.045 0.
131.216 37.0807 0.
242.648 -82.9753 0.
174.236 -243.229 0.
161.917 -534.488 0.
-258.424 -351.947 0.
-102.992 10.6082 0.
-160.438 54.065 0.
-317.805 -313.525 0.
-373.015 -442.791 0.
-209.762 -406.972 0.
-195.462 -373.6 0.
-135.962 -234.708 0.
-294.266 -230.193 0.
-308.921 -263.705 0.
-336.182 -326.603 0.
-32.9975 42.9561 0.
129.183 421.814 0.
109.34 725.668 0.
-20.5142 422.812 0.
-69.0011 309.899 0.
136.055 261.38 0.
-78.5489 -239.13 0.
-186.378 -490.528 0.
-240.184 -332.295 0.
-47.3855 117.708 0.
119.43 507.088 0.
276.454 620.565 0.
268.689 602.281 0.
-731.798 -188.411 0.
-53.3572 129.013 0.
-108.46 0.972904 0.
-57.9001 -162.305 0.
-14.4766 -61.3301 0.
50.6004 90.1793 0.
52.9191 164.705 0.
76.0934 219.851 0.
23.1526 97.4004 0.
-149.552 -8.13084 0.
-216.662 -164.152 0.
-262.161 -269.735 0.
81.9324 -80.2284 0.
121.282 11.1348 0.
-190.333 1.13577 0.
-153.058 88.2716 0.
-271.021 -186.927 0.
89.0909 -186.299 0.
-58.7887 -531.263 0.
-150.248 -744.56 0.
-414.254 -785.395 0.
-321.197 -568.117 0.
-209.797 -308.052 0.
-95.2856 -330.37 0.
-310.838 -834.097 0.
-274.348 -927.171 0.
-305.166 -711.341 0.
-186.128 -433.586 0.
-296.634 -380.823 0.
-220.899 -204.257 0.
-116.946 38.145 0.
163.788 -190.412 0.
169.169 -177.769 0.
222.337 -53.6393 0.
125.855 46.6486 0.
97.9208 -18.8046 0.
43.5619 -145.925 0.
11.9335 -264.703 0.
51.2194 -172.595 0.
-21.8469 -196.537 0.
-95.5889 -368.437 0.
-20.2293 -192.426 0.
44.7438 -216.933 0.
-142.904 -654.084 0.
-320.113 -1067.01 0.
-144.89 -867.627 0.
44.0592 -427.09 0.
269.066 97.5608 0.
64.4486 -121.062 0.
38.9769 -180.828 0.
-839.428 -991.767 0.
-130.365 -589.695 0.
-93.5705 -502.969 0.
-3.4938 -428.704 0.
-45.9812 -527.822 0.
-88.4686 -626.94 0.
-95.338 -655.957 0.
-76.0165 -610.537 0.
-56.695 -565.118 0.
-258.684 -651.35 0.
-267.183 -671.174 0.
-275.682 -690.999 0.
-209.786 -624.956 0.
-186.201 -569.967 0.
-258.884 -554.007 0.
-226.263 -477.94 0.
-193.642 -401.873 0.
-69.1324 -275.597 0.
-22.1262 -165.488 0.
24.8798 -55.3794 0.
138.122 -35.233 0.
73.7395 -185.087 0.
9.35698 -334.941 0.
10.1495 -347.018 0.
19.8266 -324.267 0.
258.468 -203.485 0.
-303.231 -447.807 0.
-304.569 -451.082 0.
-229.752 -423.672 0.
-235.958 -438.711 0.
-242.165 -453.75 0.
-262.876 -459.602 0.
-251.378 -432.823 0.
-239.881 -406.045 0.
-317.899 -459.488 0.
-339.49 -510.137 0.
-361.08 -560.786 0.
-303.284 -421.293 0.
-232.725 -256.443 0.
-152.056 -107.361 0.
-175.495 -161.991 0.
-198.934 -216.62 0.
72.9382 -114.177 0.
96.3111 -59.8369 0.
119.684 -5.49657 0.
-148.701 -133.248 0.
-178.059 -202.383 0.
-207.418 -271.518 0.
-321.028 -348.239 0.
-331.345 -372.583 0.
-185.127 -329.815 0.
-261.357 -329.041 0.
-243.732 -288.257 0.
58.8827 -134.539 0.
51.1809 -152.525 0.
43.4791 -170.51 0.
-151.03 -243.675 0.
-127.537 -188.163 0.
-104.044 -132.65 0.
-235.655 -244.527 0.
-292.417 -376.818 0.
-349.18 -509.109 0.
-114.253 -317.824 0.
-52.9782 -175.167 0.
-121.96 -95.1414 0.
-99.1723 -41.257 0.
-76.3851 12.6274 0.
154.232 123.157 0.
127.517 60.9142 0.
100.801 -1.32889 0.
-205.522 -206.85 0.
-254.825 -321.612 0.
-304.128 -436.374 0.
-129.917 -455.585 0.
-179.37 -571.235 0.
-173.324 -663.442 0.
-295.933 -651.647 0.
-261.734 -572.21 0.
-171.268 -473.311 0.
-151.371 -426.647 0.
-131.473 -379.982 0.
-57.5689 -359.398 0.
-95.2105 -447.058 0.
-132.852 -534.718 0.
-207.093 -652.107 0.
-254.967 -764.195 0.
-302.84 -876.284 0.
-217.525 -712.301 0.
-136.199 -522.486 0.
-147.389 -391.821 0.
-161.623 -425.246 0.
-175.857 -458.67 0.
-129.565 -471.325 0.
-151.673 -522.579 0.
-173.781 -573.833 0.
-37.9463 -494.081 0.
-0.731591 -407.361 0.
36.4833 -320.641 0.
-50.9952 -206.119 0.
41.3828 9.62072 0.
-509.683 -819.738 0.
-409.629 -677.978 0.
-372.824 -591.263 0.
72.7482 -364.594 0.
30.2492 -463.718 0.
-12.2498 -562.842 0.
-16.5163 -590.67 0.
2.87838 -545.298 0.
22.2731 -499.925 0.
-250.958 -616.726 0.
-259.511 -636.536 0.
-268.064 -656.346 0.
-257.325 -613.936 0.
-233.824 -558.977 0.
-292.066 -536.961 0.
-259.495 -460.841 0.
-226.925 -384.721 0.
-220.335 -309.064 0.
-173.39 -198.913 0.
-126.444 -88.7622 0.
200.567 22.9238 0.
136.193 -126.952 0.
71.8191 -276.828 0.
-121.044 -371.797 0.
-111.547 -348.844 0.
196.199 -198.321 0.
-291.397 -411.637 0.
-292.821 -414.84 0.
-44.9835 -313.153 0.
-51.3098 -328.071 0.
-57.6362 -342.989 0.
-284.89 -437.728 0.
-273.417 -410.93 0.
-261.944 -384.132 0.
-206.714 -380.512 0.
-228.188 -431.264 0.
-249.662 -482.016 0.
-375.805 -420.762 0.
-305.137 -256.033 0.
-16.6571 -17.4066 0.
-40.0334 -72.1134 0.
-63.4097 -126.82 0.
209.026 -24.6665 0.
232.369 29.6933 0.
255.712 84.0532 0.
-124.296 -91.2501 0.
-153.619 -160.424 0.
-182.941 -229.599 0.
-526.422 -404.803 0.
-536.836 -429.096 0.
-630.733 -489.298 0.
-260.103 -296.937 0.
-242.577 -255.98 0.
204.794 -41.0381 0.
197.048 -58.9975 0.
189.302 -76.957 0.
-172.061 -221.756 0.
-148.519 -166.165 0.
-124.978 -110.574 0.
-199.762 -197.348 0.
-256.34 -329.808 0.
-312.919 -462.269 0.
-215.021 -329.408 0.
-153.675 -186.824 0.
30.5453 1.52367 0.
53.334 55.3729 0.
76.1227 109.222 0.
88.2306 126.19 0.
61.4679 63.9793 0.
34.7053 1.76842 0.
-237.524 -189.022 0.
-286.778 -303.801 0.
-336.032 -418.58 0.
-92.7299 -408.096 0.
-142.295 -523.672 0.
221.503 -463.174 0.
-297.958 -621.219 0.
-263.888 -541.644 0.
50.7472 -346.774 0.
70.6294 -300.053 0.
90.5115 -253.332 0.
-227.827 -401.015 0.
-265.42 -488.659 0.
-303.012 -576.304 0.
-232.01 -631.589 0.
-279.839 -743.677 0.
-327.668 -855.766 0.
-247.24 -692.903 0.
-165.881 -503.09 0.
-182.144 -375.508 0.
-196.428 -408.905 0.
-210.712 -442.301 0.
-193.193 -467.413 0.
-215.308 -518.673 0.
-237.424 -569.932 0.
-87.3806 -483.709 0.
-50.0344 -397.046 0.
-12.688 -310.383 0.
-133.277 -210.389 0.
-40.6832 5.31948 0.
45.1588 -230.369 0.
-356.761 -410.838 0.
-354.277 -405.258 0.
91.002 -218.707 0.
67.8423 -272.791 0.
44.6826 -326.876 0.
59.693 -352.615 0.
52.1295 -370.406 0.
44.5661 -388.196 0.
-230.198 -515.223 0.
-235.978 -528.934 0.
-241.757 -542.645 0.
-287.669 -544.979 0.
-274.21 -514.143 0.
-300.907 -496.435 0.
-270.021 -424.534 0.
-239.136 -352.634 0.
-270.512 -389.165 0.
-369.114 -618.807 0.
-467.716 -848.45 0.
-173.349 -783.437 0.
-154.046 -738.421 0.
-134.742 -693.405 0.
-382.713 -697.078 0.
-317.05 -544.38 0.
63.755 -256.213 0.
-238.097 -315.996 0.
-201.692 -230.967 0.
89.6313 -55.632 0.
75.5685 -88.5214 0.
61.5056 -121.411 0.
-126.147 -177.127 0.
-77.6294 -64.6008 0.
-29.1114 47.9252 0.
32.1696 15.2552 0.
-38.2264 -148.401 0.
-108.622 -312.056 0.
-401.257 -441.383 0.
-394.534 -425.546 0.
-44.4597 -257.022 0.
-18.346 -195.779 0.
7.76762 -134.537 0.
103.178 -82.5014 0.
69.8763 -160.147 0.
36.5745 -237.792 0.
-158.576 -296.668 0.
-108.003 -178.223 0.
-57.4302 -59.7771 0.
-445.327 -139.648 0.
-401.39 -37.5745 0.
-506.44 1.00364 0.
-67.4957 108.223 0.
-109.802 9.27296 0.
198.218 37.5315 0.
105.127 -179.926 0.
12.0352 -397.383 0.
-429.899 -681.845 0.
-426.991 -675.135 0.
-424.084 -668.425 0.
-289.933 -496.794 0.
-201.446 -289.682 0.
-112.959 -82.5696 0.
-141.839 -179.712 0.
-202.684 -322.14 0.
-46.7122 -354.21 0.
-23.6429 -300.64 0.
-0.573535 -247.071 0.
-40.6818 -194.157 0.
22.521 -46.6762 0.
85.7238 100.804 0.
-145.327 61.0563 0.
-139.313 75.0041 0.
-133.299 88.9519 0.
37.2396 23.6536 0.
-57.2927 -197.484 0.
428.237 -168.301 0.
-244.799 -416.617 0.
-223.787 -367.94 0.
109.108 -215.948 0.
62.929 -323.532 0.
16.7497 -431.117 0.
-367.841 -625.513 0.
-346.402 -575.304 0.
-324.963 -525.096 0.
-233.003 -492.171 0.
-249.692 -530.946 0.
-266.381 -569.72 0.
-216.223 -518.328 0.
-195.382 -469.119 0.
-230.552 -438.436 0.
-197.082 -360.29 0.
-163.611 -282.143 0.
-176.833 -260.931 0.
-198.191 -311.278 0.
-219.549 -361.625 0.
-69.2085 -302.002 0.
-57.2327 -273.499 0.
-45.2568 -244.995 0.
-198.147 -370.96 0.
-241.541 -471.829 0.
-62.2412 -245.967 0.
-192.557 -309.131 0.
-190.104 -303.474 0.
-68.0254 -255.56 0.
-91.2579 -309.617 0.
-114.49 -363.674 0.
-53.6054 -369.767 0.
-61.1885 -387.607 0.
-68.7715 -405.447 0.
-258.357 -495.796 0.
-264.099 -509.572 0.
-269.841 -523.348 0.
-353.691 -541.609 0.
-340.191 -510.77 0.
-299.723 -464.825 0.
-268.84 -392.855 0.
-237.957 -320.885 0.
-117.497 -292.119 0.
-216.196 -521.772 0.
-314.896 -751.424 0.
-276.968 -796.626 0.
-257.656 -751.66 0.
-238.344 -706.695 0.
-520.577 -724.516 0.
-454.861 -571.916 0.
-181.676 -329.873 0.
-180.29 -259.536 0.
-143.974 -174.428 0.
-10.1557 -67.2148 0.
-24.2697 -99.9698 0.
-38.3838 -132.725 0.
50.3809 -69.7831 0.
98.9609 42.6786 0.
147.541 155.14 0.
124.025 86.0655 0.
53.798 -77.753 0.
-16.4288 -241.572 0.
-332.021 -380.19 0.
-325.307 -364.386 0.
33.2536 -191.975 0.
59.4228 -130.789 0.
85.5918 -69.6034 0.
-206.2 -184.243 0.
-239.539 -261.844 0.
-272.879 -339.445 0.
-19.5025 -205.553 0.
31.096 -87.1112 0.
81.6946 31.3307 0.
-282.799 -38.3518 0.
-238.714 63.7128 0.
464.36 448.777 0.
11.7233 173.568 0.
-30.6427 74.6692 0.
-22.0266 -25.6407 0.
-115.1 -243.13 0.
-208.174 -460.62 0.
-522.56 -690.474 0.
-519.604 -683.789 0.
-516.649 -677.105 0.
-197.803 -425.368 0.
-109.232 -218.294 0.
-20.6617 -11.219 0.
17.0415 -80.2512 0.
-43.883 -222.61 0.
17.5711 -295.524 0.
40.5419 -241.949 0.
63.5127 -188.375 0.
84.1051 -109.202 0.
147.352 38.262 0.
210.599 185.727 0.
-117.013 104.901 0.
-111.079 118.911 0.
-105.144 132.922 0.
-104.199 -5.60165 0.
-198.71 -226.703 0.
-2.81462 -321.875 0.
-294.287 -406.711 0.
-273.32 -357.992 0.
-88.8718 -269.131 0.
-134.941 -376.679 0.
-181.01 -484.227 0.
-262.957 -548.972 0.
-241.448 -498.799 0.
-219.94 -448.625 0.
-325.749 -500.829 0.
-342.403 -539.638 0.
-359.057 -578.447 0.
-260.984 -505.589 0.
-239.98 -456.523 0.
-212.086 -399.144 0.
-178.553 -321.042 0.
-145.02 -242.939 0.
-255.003 -262.995 0.
-276.368 -313.35 0.
-297.733 -363.705 0.
-131.759 -297.371 0.
-119.704 -268.912 0.
-107.65 -240.453 0.
-75.4516 -286.352 0.
-118.782 -387.142 0.
16.339 -5.27581 0.
-30.6914 -207.383 0.
-91.0013 -348.333 0.
-216.171 -264.194 0.
-102.433 1.31047 0.
-175.501 -169.069 0.
-222.693 -519.545 0.
-247.061 -576.454 0.
-257.419 -600.772 0.
-217.314 -316.746 0.
-29.5757 121.733 0.
33.1972 268.638 0.
-151.593 87.3908 0.
-364.974 -411.119 0.
-515.162 -938.792 0.
-315.434 -472.863 0.
-261.754 -347.851 0.
-71.9312 -444.509 0.
40.1039 -182.337 0.
-243.721 -844.12 0.
-372.402 -792.265 0.
-77.1965 -103.384 0.
124.269 366.696 0.
-371.739 -84.4344 0.
-459.195 -289.131 0.
-411.842 -281.417 0.
163.552 462.624 0.
-183.08 -345.974 0.
-109.072 -73.6166 0.
-66.602 25.0011 0.
-218.25 -329.252 0.
132.453 -184.285 0.
311.934 233.94 0.
255.659 102.075 0.
160.495 28.3207 0.
108.379 -93.5023 0.
84.3853 -149.611 0.
-127.354 -2.49131 0.
-204.685 -183.402 0.
-8.55284 -402.057 0.
95.2651 -160.291 0.
201.707 87.6115 0.
-372.943 46.6414 0.
-311.926 188.849 0.
-481.582 -207.224 0.
-20.2021 -439.414 0.
-48.6424 -505.427 0.
186.377 43.2832 0.
34.2121 417.644 0.
44.5533 440.897 0.
-333.291 269.824 0.
-26.8978 -32.0407 0.
-99.7967 -202.608 0.
-367.177 -377.823 0.
-366.4 -376.286 0.
-335.947 -305.567 0.
-373.094 -133.867 0.
-299.039 39.1891 0.
-288.005 65.2056 0.
105.008 139.4 0.
84.229 90.9067 0.
249.636 476.859 0.
241.847 175.041 0.
69.3629 -226.67 0.
-15.3344 -466.221 0.
-32.3506 -505.539 0.
203.836 45.9971 0.
436.921 508.567 0.
340.171 282.564 0.
49.5387 -395.763 0.
-415.88 -615.5 0.
-339.102 -436.687 0.
-220.888 -161.077 0.
-203.207 64.5055 0.
-376.631 -340.397 0.
-359.29 -307.947 0.
-45.7441 298.612 0.
-136.418 87.9374 0.
-180.095 -78.1891 0.
-250.104 -240.318 0.
-557.828 -957.238 0.
-224.055 -624.47 0.
-223.165 -622.536 0.
115.489 167.213 0.
-382.115 -425.965 0.
-387.128 -437.046 0.
-231.134 -72.4288 0.
-56.5003 88.1159 0.
-108.322 -32.7861 0.
-183.198 -334.975 0.
-171.29 -307.141 0.
-273.685 -546.021 0.
-375.703 -364.795 0.
-224.962 -12.7444 0.
-230.342 -25.0106 0.
-161.096 -216.088 0.
-103.273 -81.1694 0.
-88.4765 -46.6435 0.
138.645 15.8965 0.
264.121 308.249 0.
3.11031 -247.631 0.
-226.835 -398.178 0.
-253.75 -462.145 0.
-193.997 -436.959 0.
-96.9664 -210.373 0.
0.0646089 16.2118 0.
-52.3992 44.4467 0.
-114.962 -100.902 0.
-177.524 -246.252 0.
-293.918 -342.553 0.
-296.908 -349.213 0.
-299.897 -355.874 0.
-325.36 -268.834 0.
-269.885 -138.678 0.
-200.394 -29.1165 0.
-272.74 -197.728 0.
-345.086 -366.339 0.
-151.048 -333.2 0.
-83.962 -177.027 0.
-16.876 -20.8537 0.
-28.3484 28.428 0.
-29.5088 26.0719 0.
-30.6692 23.7157 0.
-303.518 -63.9756 0.
-284.794 -19.0868 0.
-517.496 -82.9014 0.
-162.736 -56.4998 0.
-229.457 -211.891 0.
29.4129 -203.993 0.
22.758 -219.144 0.
16.1032 -234.295 0.
37.5028 -175.57 0.
100.804 -27.2554 0.
164.105 121.059 0.
109.424 59.3344 0.
48.8543 -82.3897 0.
-11.7153 -224.114 0.
-386.012 -620.111 0.
-517.122 -926.204 0.
-332.578 -1037.88 0.
-179.769 -681.317 0.
-26.9588 -324.753 0.
-216.998 -156.34 0.
-128.974 48.4757 0.
-40.9495 253.291 0.
185.92 321.151 0.
87.8465 92.0005 0.
-10.2273 -137.15 0.
-232.782 -244.226 0.
-212.65 -197.04 0.
-885.35 -446.739 0.
172.235 164.441 0.
254.917 357.4 0.
34.7848 369.04 0.
-8.28218 268.529 0.
-51.3491 168.018 0.
-270.417 -14.9745 0.
-321.435 -133.952 0.
-372.452 -252.93 0.
-252.574 -273.139 0.
-283.533 -345.231 0.
-314.492 -417.323 0.
87.9193 -213.98 0.
109.761 -161.789 0.
305.334 -27.9835 0.
358.044 94.8958 0.
410.754 217.775 0.
304.612 227.976 0.
288.221 189.528 0.
271.83 151.079 0.
-134.422 -90.9005 0.
-186.679 -213.099 0.
-238.936 -335.297 0.
-219.701 -136.022 0.
-76.7175 198.293 0.
274.895 620.849 0.
-357.838 258.232 0.
-405.831 146.703 0.
-33.9703 218.818 0.
-79.7323 112.479 0.
-125.494 6.14003 0.
-68.1046 -29.7733 0.
-80.5859 -58.7109 0.
-93.0674 -87.6484 0.
-373.799 -194.592 0.
-356.771 -154.545 0.
-339.743 -114.497 0.
-292.565 -176.482 0.
-345.813 -300.127 0.
-225.246 -345.907 0.
-246.319 -394.307 0.
-267.393 -442.707 0.
-422.675 -467.988 0.
-315.737 -217.673 0.
-208.799 32.6424 0.
-144.147 151.015 0.
-144.446 151.022 0.
-144.745 151.03 0.
95.5756 127.231 0.
8.42425 -75.7362 0.
115.762 -167.314 0.
-350.271 -419.409 0.
-377.005 -483.47 0.
-57.4745 -346.817 0.
39.5505 -120.232 0.
136.575 106.353 0.
-121.375 45.9424 0.
-184.095 -99.3241 0.
-246.816 -244.591 0.
-359.108 -339.093 0.
-362.034 -345.808 0.
-364.959 -352.523 0.
-333.824 -241.043 0.
-278.368 -110.839 0.
-277.293 -30.7806 0.
-349.702 -199.314 0.
-422.111 -367.848 0.
-294.597 -363.442 0.
-227.593 -207.223 0.
-160.588 -51.0038 0.
-18.4424 63.9534 0.
-19.6499 61.5427 0.
-20.8574 59.1319 0.
-211.924 6.28053 0.
-193.198 51.2137 0.
-684.241 -123.49 0.
-276.198 -72.8787 0.
-342.997 -228.152 0.
289.178 -61.7479 0.
282.402 -76.8125 0.
275.627 -91.8771 0.
-70.6796 -190.969 0.
-7.50378 -42.4831 0.
55.672 106.002 0.
45.0406 63.1523 0.
-15.5128 -78.5765 0.
-76.0663 -220.305 0.
-361.852 -577.953 0.
-493.141 -883.885 0.
-381.336 -1027.54 0.
-228.601 -670.943 0.
-75.8665 -314.346 0.
102.183 11.461 0.
190.209 216.363 0.
278.234 421.265 0.
53.8675 295.827 0.
-44.1713 66.7485 0.
-142.21 -162.33 0.
-196.791 -197.164 0.
-176.529 -150.03 0.
-561.677 -276.492 0.
330.94 264.141 0.
413.558 457.252 0.
153.55 451.05 0.
110.445 350.452 0.
67.3397 249.855 0.
-190.766 50.4806 0.
-241.785 -68.4416 0.
-292.804 -187.364 0.
-459.896 -330.132 0.
-490.868 -402.208 0.
-521.84 -474.284 0.
118.734 -169.201 0.
140.704 -117.182 0.
487.281 81.4291 0.
540.148 204.265 0.
593.015 327.1 0.
303.543 259.127 0.
287.273 220.575 0.
271.002 182.023 0.
-45.864 -21.287 0.
-98.0389 -143.565 0.
-150.214 -265.843 0.
-116.045 -59.6224 0.
27.0173 274.708 0.
-435.263 348.263 0.
-708.586 139.171 0.
-756.526 27.7212 0.
12.8371 270.249 0.
-32.8451 164.012 0.
-78.5274 57.7743 0.
-178.547 -45.7556 0.
-191.014 -74.6493 0.
-203.481 -103.543 0.
-468.19 -203.81 0.
-451.173 -163.819 0.
-434.156 -123.829 0.
-426.819 -201.684 0.
-480.079 -325.338 0.
-257.18 -328.336 0.
-278.337 -376.71 0.
-299.493 -425.083 0.
-410.438 -431.919 0.
-303.563 -181.55 0.
-196.687 68.8191 0.
-300.53 115.306 0.
-300.906 115.457 0.
-301.283 115.608 0.
-0.250015 117.584 0.
-87.2695 -85.183 0.
