# vtk DataFile Version 2.0
test grain
ASCII
DATASET UNSTRUCTURED_GRID
POINTS 5000 float
0.499905 0.00100166 0.
0.501904 0.0010015 0.
0.503903 0.0010014 0.
0.505902 0.00100132 0.
0.507903 0.00100134 0.
0.509905 0.00100137 0.
0.511905 0.00100122 0.
0.513905 0.00100081 0.
0.515905 0.0010004 0.
0.517906 0.00100041 0.
0.519906 0.00100064 0.
0.521906 0.00100088 0.
0.523906 0.00100091 0.
0.525907 0.00100091 0.
0.527908 0.00100094 0.
0.529907 0.00100141 0.
0.531906 0.00100189 0.
0.533905 0.00100194 0.
0.535905 0.00100106 0.
0.537906 0.00100018 0.
0.539907 0.001 0.
0.541907 0.00100046 0.
0.543908 0.00100092 0.
0.545907 0.00100125 0.
0.547905 0.00100154 0.
0.549904 0.00100183 0.
0.551901 0.00100213 0.
0.553899 0.00100244 0.
0.555896 0.00100262 0.
0.557892 0.00100234 0.
0.559889 0.00100207 0.
0.561886 0.00100204 0.
0.563882 0.00100232 0.
0.565878 0.00100261 0.
0.567875 0.00100213 0.
0.569872 0.00100122 0.
0.57187 0.00100031 0.
0.573863 0.00100119 0.
0.575855 0.00100239 0.
0.577846 0.00100357 0.
0.579835 0.0010043 0.
0.581824 0.00100503 0.
0.583812 0.00100556 0.
0.585795 0.00100553 0.
0.587779 0.00100551 0.
0.58976 0.00100439 0.
0.59174 0.00100221 0.
0.593719 0.00100004 0.
0.595788 0.00100163 0.
0.597893 0.00100468 0.
0.6 0.00100774 0.
0.602107 0.00100471 0.
0.604214 0.00100169 0.
0.606284 0.00100005 0.
0.608264 0.00100187 0.
0.610243 0.0010037 0.
0.612225 0.0010047 0.
0.614209 0.00100483 0.
0.616194 0.00100496 0.
0.618181 0.00100493 0.
0.62017 0.00100487 0.
0.622159 0.00100481 0.
0.624148 0.00100434 0.
0.626137 0.00100383 0.
0.628127 0.00100319 0.
0.630123 0.00100187 0.
0.63212 0.00100055 0.
0.634117 0.00100002 0.
0.636115 0.00100082 0.
0.638113 0.00100163 0.
0.64011 0.00100201 0.
0.642107 0.0010021 0.
0.644105 0.00100218 0.
0.646101 0.00100247 0.
0.648096 0.00100281 0.
0.650092 0.00100313 0.
0.652091 0.0010024 0.
0.65409 0.00100168 0.
0.65609 0.001001 0.
0.658092 0.00100051 0.
0.660093 0.00100001 0.
0.662095 0.00100005 0.
0.664096 0.00100066 0.
0.666097 0.00100127 0.
0.668097 0.00100167 0.
0.670096 0.001002 0.
0.672096 0.00100232 0.
0.674095 0.00100191 0.
0.676093 0.00100145 0.
0.678092 0.00100108 0.
0.680092 0.0010012 0.
0.682093 0.00100132 0.
0.684093 0.00100135 0.
0.686093 0.0010012 0.
0.688094 0.00100105 0.
0.690094 0.00100106 0.
0.692095 0.0010012 0.
0.694095 0.00100133 0.
0.696095 0.00100142 0.
0.698094 0.00100148 0.
0.499904 0.00300499 0.
0.501904 0.00300449 0.
0.503904 0.00300419 0.
0.505903 0.00300395 0.
0.507904 0.00300402 0.
0.509904 0.0030041 0.
0.511905 0.00300365 0.
0.513905 0.00300243 0.
0.515905 0.0030012 0.
0.517906 0.00300121 0.
0.519906 0.00300193 0.
0.521907 0.00300265 0.
0.523907 0.00300273 0.
0.525907 0.00300272 0.
0.527907 0.00300283 0.
0.529907 0.00300424 0.
0.531906 0.00300566 0.
0.533906 0.00300583 0.
0.535905 0.00300319 0.
0.537904 0.00300054 0.
0.539905 0.00300001 0.
0.541907 0.00300139 0.
0.54391 0.00300277 0.
0.545909 0.00300377 0.
0.547908 0.00300463 0.
0.549906 0.00300549 0.
0.551903 0.0030064 0.
0.5539 0.00300731 0.
0.555897 0.00300786 0.
0.557894 0.00300703 0.
0.55989 0.0030062 0.
0.561887 0.00300611 0.
0.563884 0.00300697 0.
0.565881 0.00300783 0.
0.567878 0.0030064 0.
0.569876 0.00300367 0.
0.571873 0.00300093 0.
0.573867 0.00300358 0.
0.575859 0.00300717 0.
0.577851 0.00301072 0.
0.579841 0.00301291 0.
0.581831 0.00301511 0.
0.58382 0.00301666 0.
0.585805 0.00301659 0.
0.587789 0.00301653 0.
0.589774 0.00301312 0.
0.591759 0.00300659 0.
0.593744 0.00300006 0.
0.595808 0.00300492 0.
0.597903 0.00301406 0.
0.6 0.00302322 0.
0.602097 0.00301416 0.
0.604193 0.00300512 0.
0.606258 0.0030001 0.
0.608243 0.00300559 0.
0.610229 0.00301109 0.
0.612214 0.00301408 0.
0.6142 0.00301447 0.
0.616186 0.00301486 0.
0.618174 0.00301479 0.
0.620165 0.00301461 0.
0.622155 0.00301444 0.
0.624144 0.00301302 0.
0.626133 0.00301149 0.
0.628124 0.00300957 0.
0.63012 0.0030056 0.
0.632116 0.00300164 0.
0.634113 0.00300005 0.
0.636113 0.00300247 0.
0.638112 0.00300488 0.
0.64011 0.00300602 0.
0.642108 0.00300629 0.
0.644105 0.00300655 0.
0.646101 0.00300742 0.
0.648096 0.00300844 0.
0.650092 0.00300939 0.
0.652089 0.00300722 0.
0.654086 0.00300504 0.
0.656085 0.00300302 0.
0.65809 0.00300153 0.
0.660094 0.00300004 0.
0.662096 0.00300015 0.
0.664097 0.00300197 0.
0.666097 0.0030038 0.
0.668096 0.00300502 0.
0.670095 0.00300598 0.
0.672094 0.00300695 0.
0.674093 0.00300574 0.
0.676091 0.00300436 0.
0.67809 0.00300322 0.
0.680091 0.00300359 0.
0.682091 0.00300396 0.
0.684092 0.00300404 0.
0.686092 0.00300359 0.
0.688093 0.00300314 0.
0.690093 0.00300319 0.
0.692094 0.0030036 0.
0.694094 0.003004 0.
0.696094 0.00300425 0.
0.698094 0.00300443 0.
0.499904 0.00500831 0.
0.501904 0.00500748 0.
0.503904 0.00500697 0.
0.505904 0.00500659 0.
0.507904 0.0050067 0.
0.509904 0.00500682 0.
0.511904 0.00500608 0.
0.513905 0.00500404 0.
0.515905 0.00500201 0.
0.517906 0.00500202 0.
0.519907 0.00500321 0.
0.521908 0.00500442 0.
0.523908 0.00500456 0.
0.525907 0.00500452 0.
0.527907 0.0050047 0.
0.529907 0.00500706 0.
0.531907 0.00500941 0.
0.533906 0.00500972 0.
0.535904 0.00500532 0.
0.537902 0.00500092 0.
0.539903 0.00500001 0.
0.541908 0.00500231 0.
0.543913 0.00500462 0.
0.545912 0.00500629 0.
0.54791 0.00500771 0.
0.549907 0.00500914 0.
0.551904 0.00501065 0.
0.553901 0.00501216 0.
0.555898 0.00501308 0.
0.557895 0.00501171 0.
0.559892 0.00501034 0.
0.561889 0.00501017 0.
0.563886 0.00501161 0.
0.565883 0.00501306 0.
0.567881 0.00501066 0.
0.569879 0.00500611 0.
0.571876 0.00500155 0.
0.57387 0.00500597 0.
0.575863 0.00501195 0.
0.577856 0.00501787 0.
0.579847 0.00502151 0.
0.581838 0.00502516 0.
0.583828 0.00502772 0.
0.585814 0.00502761 0.
0.587801 0.00502752 0.
0.589789 0.0050218 0.
0.591779 0.00501089 0.
0.593768 0.00500002 0.
0.595828 0.00500828 0.
0.597914 0.00502358 0.
0.6 0.00503905 0.
0.602086 0.00502375 0.
0.604173 0.00500861 0.
0.606232 0.00500009 0.
0.608223 0.00500924 0.
0.610214 0.00501841 0.
0.612203 0.00502343 0.
0.61419 0.00502408 0.
0.616178 0.00502473 0.
0.618168 0.00502463 0.
0.620159 0.00502434 0.
0.62215 0.00502407 0.
0.62414 0.00502168 0.
0.62613 0.00501914 0.
0.628121 0.00501595 0.
0.630116 0.00500935 0.
0.632112 0.00500274 0.
0.63411 0.00500009 0.
0.636111 0.00500412 0.
0.638112 0.00500814 0.
0.640111 0.00501003 0.
0.642108 0.00501047 0.
0.644105 0.00501091 0.
0.6461 0.00501235 0.
0.648096 0.00501407 0.
0.650091 0.00501564 0.
0.652087 0.00501202 0.
0.654082 0.0050084 0.
0.656081 0.00500504 0.
0.658088 0.00500255 0.
0.660094 0.00500006 0.
0.662098 0.00500026 0.
0.664097 0.0050033 0.
0.666097 0.00500634 0.
0.668096 0.00500835 0.
0.670094 0.00500996 0.
0.672092 0.00501157 0.
0.674091 0.00500956 0.
0.67609 0.00500726 0.
0.678089 0.00500538 0.
0.68009 0.00500599 0.
0.68209 0.0050066 0.
0.684091 0.00500673 0.
0.686091 0.00500597 0.
0.688091 0.00500521 0.
0.690092 0.00500531 0.
0.692092 0.005006 0.
0.694093 0.00500669 0.
0.696093 0.00500708 0.
0.698093 0.00500738 0.
0.499906 0.00701123 0.
0.501906 0.00701061 0.
0.503906 0.00701015 0.
0.505906 0.00700981 0.
0.507906 0.00701001 0.
0.509906 0.00701021 0.
0.511907 0.00701022 0.
0.513907 0.00700986 0.
0.515908 0.00700951 0.
0.517908 0.00700969 0.
0.519909 0.00701021 0.
0.521909 0.00701073 0.
0.523909 0.00701112 0.
0.525909 0.00701147 0.
0.527908 0.00701187 0.
0.529909 0.007013 0.
0.531909 0.00701413 0.
0.533909 0.00701491 0.
0.535907 0.00701478 0.
0.537906 0.00701466 0.
0.539906 0.00701441 0.
0.541908 0.00701406 0.
0.54391 0.00701372 0.
0.54591 0.0070142 0.
0.547908 0.00701496 0.
0.549907 0.00701572 0.
0.551905 0.00701697 0.
0.553903 0.00701825 0.
0.5559 0.00701928 0.
0.557898 0.00701928 0.
0.559895 0.00701928 0.
0.561893 0.00701953 0.
0.563891 0.00702009 0.
0.565888 0.00702066 0.
0.567886 0.00702074 0.
0.569883 0.00702058 0.
0.57188 0.00702042 0.
0.573875 0.00702395 0.
0.575868 0.00702815 0.
0.577862 0.00703221 0.
0.579856 0.00703388 0.
0.581849 0.00703555 0.
0.583842 0.00703654 0.
0.585834 0.00703588 0.
0.587825 0.00703522 0.
0.589819 0.00702768 0.
0.591814 0.00701365 0.
0.593809 0.00699966 0.
0.595859 0.00701657 0.
0.597929 0.00704494 0.
0.6 0.00707357 0.
0.602071 0.00704537 0.
0.604142 0.00701741 0.
0.606193 0.00700052 0.
0.608188 0.00701314 0.
0.610184 0.00702578 0.
0.612177 0.00703267 0.
0.614169 0.00703349 0.
0.616161 0.00703431 0.
0.618154 0.00703398 0.
0.620147 0.00703328 0.
0.622141 0.00703259 0.
0.624134 0.00702999 0.
0.626126 0.00702725 0.
0.62812 0.00702453 0.
0.630116 0.00702235 0.
0.632112 0.00702018 0.
0.634109 0.00701893 0.
0.636108 0.00701909 0.
0.638107 0.00701925 0.
0.640105 0.00701958 0.
0.642103 0.00702005 0.
0.644101 0.00702053 0.
0.646098 0.00702071 0.
0.648095 0.00702085 0.
0.650092 0.00702096 0.
0.65209 0.00702007 0.
0.654087 0.0070192 0.
0.656086 0.00701868 0.
0.658089 0.00701924 0.
0.660092 0.0070198 0.
0.662093 0.00701944 0.
0.664092 0.00701799 0.
0.666092 0.00701656 0.
0.668091 0.00701609 0.
0.67009 0.00701606 0.
0.67209 0.00701604 0.
0.674089 0.00701448 0.
0.676089 0.00701277 0.
0.678089 0.00701123 0.
0.680089 0.00701069 0.
0.68209 0.00701015 0.
0.68409 0.00700979 0.
0.68609 0.00700969 0.
0.688091 0.00700959 0.
0.690091 0.00700962 0.
0.692091 0.00700973 0.
0.694092 0.00700984 0.
0.696092 0.00701064 0.
0.698092 0.00701159 0.
0.499908 0.00901404 0.
0.501908 0.00901375 0.
0.503908 0.00901332 0.
0.505908 0.00901302 0.
0.507908 0.00901331 0.
0.509908 0.00901361 0.
0.511909 0.00901436 0.
0.513909 0.00901568 0.
0.51591 0.009017 0.
0.51791 0.00901736 0.
0.51991 0.0090172 0.
0.52191 0.00901704 0.
0.52391 0.00901768 0.
0.52591 0.00901841 0.
0.52791 0.00901905 0.
0.52991 0.00901895 0.
0.531911 0.00901885 0.
0.533911 0.0090201 0.
0.535911 0.00902425 0.
0.53791 0.00902842 0.
0.53991 0.00902881 0.
0.541909 0.00902581 0.
0.543908 0.00902283 0.
0.545907 0.00902213 0.
0.547907 0.00902221 0.
0.549906 0.0090223 0.
0.551905 0.00902329 0.
0.553904 0.00902434 0.
0.555903 0.00902547 0.
0.557901 0.00902685 0.
0.559899 0.00902824 0.
0.561897 0.00902888 0.
0.563895 0.00902857 0.
0.565893 0.00902827 0.
0.56789 0.00903083 0.
0.569887 0.00903505 0.
0.571884 0.00903928 0.
0.573879 0.00904194 0.
0.575873 0.00904435 0.
0.577868 0.00904655 0.
0.579864 0.00904624 0.
0.58186 0.00904594 0.
0.583856 0.00904537 0.
0.585853 0.00904414 0.
0.58785 0.00904292 0.
0.589849 0.00903348 0.
0.591849 0.00901631 0.
0.593849 0.00899918 0.
0.59589 0.00902514 0.
0.597945 0.00906645 0.
0.6 0.00910808 0.
0.602056 0.00906712 0.
0.604112 0.00902648 0.
0.606153 0.00900086 0.
0.608153 0.00901696 0.
0.610153 0.00903308 0.
0.612151 0.00904191 0.
0.614148 0.0090429 0.
0.616144 0.00904389 0.
0.61814 0.00904332 0.
0.620136 0.00904221 0.
0.622133 0.00904111 0.
0.624128 0.00903831 0.
0.626123 0.00903536 0.
0.628118 0.0090331 0.
0.630115 0.00903534 0.
0.632111 0.0090376 0.
0.634108 0.00903778 0.
0.636105 0.00903407 0.
0.638102 0.00903037 0.
0.6401 0.00902914 0.
0.642099 0.00902965 0.
0.644097 0.00903016 0.
0.646096 0.00902908 0.
0.648094 0.00902764 0.
0.650093 0.00902627 0.
0.652093 0.00902812 0.
0.654092 0.00902999 0.
0.656092 0.00903234 0.
0.658091 0.00903593 0.
0.66009 0.00903953 0.
0.662088 0.00903863 0.
0.664087 0.0090327 0.
0.666086 0.00902679 0.
0.668086 0.00902383 0.
0.670087 0.00902217 0.
0.672087 0.00902052 0.
0.674088 0.00901939 0.
0.676089 0.00901829 0.
0.678089 0.00901707 0.
0.680089 0.00901538 0.
0.682089 0.00901369 0.
0.68409 0.00901285 0.
0.68609 0.00901342 0.
0.68809 0.00901399 0.
0.69009 0.00901392 0.
0.69209 0.00901345 0.
0.69409 0.00901299 0.
0.696091 0.00901421 0.
0.698091 0.0090158 0.
0.499909 0.0110168 0.
0.501909 0.0110167 0.
0.503909 0.0110162 0.
0.505909 0.0110159 0.
0.507909 0.0110162 0.
0.509909 0.0110165 0.
0.51191 0.0110174 0.
0.51391 0.0110192 0.
0.515911 0.0110211 0.
0.517911 0.0110215 0.
0.519911 0.0110213 0.
0.521911 0.0110211 0.
0.523911 0.0110219 0.
0.525911 0.0110228 0.
0.527911 0.0110236 0.
0.529912 0.0110231 0.
0.531912 0.0110227 0.
0.533912 0.0110241 0.
0.535912 0.0110295 0.
0.537913 0.0110348 0.
0.539912 0.0110355 0.
0.54191 0.0110319 0.
0.543909 0.0110284 0.
0.545908 0.0110271 0.
0.547908 0.0110266 0.
0.549907 0.0110262 0.
0.551907 0.0110273 0.
0.553906 0.0110286 0.
0.555905 0.01103 0.
0.557904 0.0110318 0.
0.559903 0.0110335 0.
0.561901 0.0110344 0.
0.5639 0.011034 0.
0.565898 0.0110336 0.
0.567896 0.011037 0.
0.569893 0.0110425 0.
0.571891 0.011048 0.
0.573887 0.0110503 0.
0.575883 0.0110521 0.
0.577879 0.0110536 0.
0.579877 0.0110522 0.
0.581875 0.0110507 0.
0.583875 0.0110491 0.
0.585876 0.0110468 0.
0.587877 0.0110446 0.
0.589879 0.011035 0.
0.591883 0.0110186 0.
0.593886 0.0110022 0.
0.595919 0.0110274 0.
0.597961 0.0110663 0.
0.600002 0.0111048 0.
0.602043 0.0110671 0.
0.604084 0.011029 0.
0.606116 0.0110043 0.
0.60812 0.0110197 0.
0.610123 0.011035 0.
0.612125 0.011044 0.
0.614125 0.0110461 0.
0.616125 0.0110481 0.
0.618124 0.011048 0.
0.620123 0.0110471 0.
0.622121 0.0110461 0.
0.624118 0.0110434 0.
0.626115 0.0110405 0.
0.628112 0.0110385 0.
0.63011 0.0110422 0.
0.632107 0.0110459 0.
0.634104 0.0110466 0.
0.636101 0.0110419 0.
0.638098 0.0110372 0.
0.640096 0.0110354 0.
0.642095 0.0110357 0.
0.644094 0.0110359 0.
0.646093 0.0110344 0.
0.648092 0.0110324 0.
0.650091 0.0110305 0.
0.652092 0.0110335 0.
0.654093 0.0110364 0.
0.656093 0.0110398 0.
0.65809 0.011044 0.
0.660088 0.0110481 0.
0.662086 0.011047 0.
0.664085 0.0110399 0.
0.666084 0.0110329 0.
0.668085 0.0110289 0.
0.670085 0.0110263 0.
0.672086 0.0110236 0.
0.674087 0.0110228 0.
0.676088 0.011022 0.
0.678089 0.011021 0.
0.680089 0.0110189 0.
0.682089 0.0110167 0.
0.684089 0.0110156 0.
0.686089 0.0110164 0.
0.68809 0.0110172 0.
0.69009 0.0110171 0.
0.69209 0.0110165 0.
0.69409 0.0110159 0.
0.69609 0.0110171 0.
0.69809 0.0110187 0.
0.499909 0.0130197 0.
0.501909 0.0130194 0.
0.503909 0.0130189 0.
0.505909 0.0130186 0.
0.507909 0.0130187 0.
0.509909 0.0130188 0.
0.51191 0.0130193 0.
0.513911 0.0130205 0.
0.515912 0.0130217 0.
0.517912 0.0130223 0.
0.519912 0.0130225 0.
0.521913 0.0130228 0.
0.523913 0.0130236 0.
0.525913 0.0130246 0.
0.527912 0.0130254 0.
0.529912 0.0130255 0.
0.531912 0.0130256 0.
0.533912 0.0130267 0.
0.535913 0.0130304 0.
0.537913 0.0130341 0.
0.539913 0.0130347 0.
0.541912 0.0130325 0.
0.543911 0.0130303 0.
0.545911 0.0130291 0.
0.547911 0.0130282 0.
0.549911 0.0130273 0.
0.55191 0.0130291 0.
0.553909 0.013031 0.
0.555908 0.0130328 0.
0.557908 0.013034 0.
0.559907 0.0130353 0.
0.561906 0.0130361 0.
0.563904 0.0130364 0.
0.565903 0.0130367 0.
0.567902 0.0130392 0.
0.5699 0.013043 0.
0.571899 0.0130469 0.
0.573898 0.0130494 0.
0.575896 0.0130517 0.
0.577895 0.0130536 0.
0.579895 0.0130518 0.
0.581896 0.0130501 0.
0.583897 0.0130477 0.
0.585901 0.0130441 0.
0.587905 0.0130404 0.
0.589909 0.0130325 0.
0.591915 0.0130206 0.
0.593921 0.0130087 0.
0.595945 0.0130233 0.
0.597976 0.013046 0.
0.600006 0.0130686 0.
0.602033 0.0130469 0.
0.60406 0.0130249 0.
0.606083 0.0130108 0.
0.608089 0.0130213 0.
0.610095 0.0130318 0.
0.612099 0.0130392 0.
0.614102 0.0130432 0.
0.616105 0.0130472 0.
0.618106 0.0130482 0.
0.620107 0.013048 0.
0.622107 0.0130477 0.
0.624105 0.0130454 0.
0.626104 0.0130428 0.
0.628102 0.0130409 0.
0.630101 0.0130432 0.
0.632099 0.0130455 0.
0.634097 0.0130459 0.
0.636096 0.0130429 0.
0.638095 0.0130399 0.
0.640094 0.0130385 0.
0.642092 0.0130382 0.
0.644091 0.0130379 0.
0.64609 0.0130367 0.
0.648089 0.0130351 0.
0.650088 0.0130337 0.
0.652089 0.0130362 0.
0.654089 0.0130386 0.
0.656089 0.0130411 0.
0.658088 0.0130436 0.
0.660087 0.0130461 0.
0.662087 0.013045 0.
0.664086 0.0130399 0.
0.666085 0.0130348 0.
0.668086 0.0130312 0.
0.670086 0.0130283 0.
0.672086 0.0130254 0.
0.674087 0.0130246 0.
0.676087 0.013024 0.
0.678088 0.0130231 0.
0.680088 0.0130211 0.
0.682088 0.0130191 0.
0.684088 0.0130181 0.
0.686089 0.0130186 0.
0.688089 0.0130191 0.
0.690089 0.0130191 0.
0.69209 0.0130188 0.
0.694091 0.0130185 0.
0.696091 0.0130192 0.
0.69809 0.0130203 0.
0.49991 0.0150226 0.
0.501909 0.0150221 0.
0.503909 0.0150216 0.
0.505909 0.0150212 0.
0.507909 0.0150211 0.
0.509909 0.015021 0.
0.51191 0.0150212 0.
0.513911 0.0150218 0.
0.515912 0.0150224 0.
0.517913 0.015023 0.
0.519913 0.0150237 0.
0.521914 0.0150244 0.
0.523914 0.0150254 0.
0.525914 0.0150264 0.
0.527914 0.0150273 0.
0.529913 0.0150279 0.
0.531912 0.0150285 0.
0.533912 0.0150294 0.
0.535913 0.0150314 0.
0.537914 0.0150335 0.
0.539914 0.015034 0.
0.541914 0.0150331 0.
0.543914 0.0150323 0.
0.545914 0.0150311 0.
0.547914 0.0150298 0.
0.549914 0.0150284 0.
0.551913 0.0150309 0.
0.553912 0.0150334 0.
0.555911 0.0150356 0.
0.557911 0.0150363 0.
0.559911 0.015037 0.
0.56191 0.0150377 0.
0.563909 0.0150387 0.
0.565908 0.0150397 0.
0.567907 0.0150414 0.
0.569908 0.0150436 0.
0.571908 0.0150457 0.
0.573909 0.0150485 0.
0.575909 0.0150512 0.
0.57791 0.0150536 0.
0.579913 0.0150515 0.
0.581916 0.0150494 0.
0.58392 0.0150464 0.
0.585926 0.0150413 0.
0.587932 0.0150363 0.
0.589939 0.01503 0.
0.591948 0.0150226 0.
0.593956 0.0150153 0.
0.595972 0.0150189 0.
0.59799 0.0150258 0.
0.600009 0.0150326 0.
0.602023 0.0150267 0.
0.604036 0.0150207 0.
0.606049 0.0150173 0.
0.608058 0.015023 0.
0.610066 0.0150286 0.
0.612074 0.0150343 0.
0.614079 0.0150402 0.
0.616085 0.0150462 0.
0.618088 0.0150483 0.
0.62009 0.0150488 0.
0.622093 0.0150493 0.
0.624093 0.0150473 0.
0.626092 0.015045 0.
0.628092 0.0150432 0.
0.630092 0.0150441 0.
0.632091 0.015045 0.
0.634091 0.0150452 0.
0.636092 0.0150438 0.
0.638092 0.0150425 0.
0.640091 0.0150415 0.
0.64209 0.0150407 0.
0.644088 0.0150399 0.
0.646087 0.0150389 0.
0.648086 0.0150379 0.
0.650085 0.0150369 0.
0.652085 0.0150388 0.
0.654085 0.0150408 0.
0.656085 0.0150424 0.
0.658085 0.0150433 0.
0.660086 0.0150441 0.
0.662087 0.0150431 0.
0.664087 0.0150399 0.
0.666087 0.0150367 0.
0.668086 0.0150336 0.
0.670086 0.0150303 0.
0.672086 0.0150271 0.
0.674087 0.0150264 0.
0.676087 0.0150259 0.
0.678087 0.0150253 0.
0.680087 0.0150234 0.
0.682087 0.0150216 0.
0.684088 0.0150205 0.
0.686088 0.0150208 0.
0.688088 0.0150211 0.
0.690089 0.0150212 0.
0.69209 0.0150211 0.
0.694091 0.0150211 0.
0.696091 0.0150214 0.
0.69809 0.0150218 0.
0.49991 0.0170252 0.
0.50191 0.0170245 0.
0.50391 0.0170239 0.
0.505911 0.0170234 0.
0.507911 0.0170231 0.
0.509911 0.0170229 0.
0.511912 0.0170229 0.
0.513913 0.0170232 0.
0.515913 0.0170235 0.
0.517914 0.0170241 0.
0.519915 0.017025 0.
0.521915 0.0170259 0.
0.523915 0.0170269 0.
0.525915 0.017028 0.
0.527915 0.0170291 0.
0.529914 0.0170298 0.
0.531914 0.0170306 0.
0.533914 0.0170316 0.
0.535914 0.0170329 0.
0.537915 0.0170343 0.
0.539915 0.0170345 0.
0.541916 0.0170338 0.
0.543916 0.0170332 0.
0.545916 0.0170323 0.
0.547917 0.0170314 0.
0.549917 0.0170304 0.
0.551916 0.0170328 0.
0.553915 0.0170353 0.
0.555914 0.0170375 0.
0.557914 0.0170379 0.
0.559913 0.0170384 0.
0.561913 0.017039 0.
0.563912 0.0170398 0.
0.565912 0.0170406 0.
0.567912 0.0170422 0.
0.569912 0.0170443 0.
0.571913 0.0170464 0.
0.573915 0.0170488 0.
0.575916 0.0170512 0.
0.577918 0.0170531 0.
0.579922 0.0170499 0.
0.581925 0.0170468 0.
0.58393 0.0170431 0.
0.585936 0.0170384 0.
0.587942 0.0170337 0.
0.589949 0.0170281 0.
0.591956 0.0170216 0.
0.593964 0.0170151 0.
0.595977 0.017017 0.
0.597992 0.0170214 0.
0.600007 0.0170259 0.
0.602019 0.0170222 0.
0.604031 0.0170185 0.
0.606042 0.0170169 0.
0.608049 0.017022 0.
0.610057 0.0170272 0.
0.612063 0.0170324 0.
0.614069 0.0170378 0.
0.616074 0.0170431 0.
0.618078 0.0170457 0.
0.620081 0.017047 0.
0.622084 0.0170483 0.
0.624085 0.0170469 0.
0.626086 0.0170453 0.
0.628086 0.0170439 0.
0.630087 0.0170443 0.
0.632087 0.0170448 0.
0.634087 0.0170449 0.
0.636087 0.0170444 0.
0.638088 0.0170439 0.
0.640087 0.0170432 0.
0.642086 0.0170424 0.
0.644086 0.0170416 0.
0.646085 0.0170407 0.
0.648084 0.0170397 0.
0.650083 0.0170389 0.
0.652083 0.0170405 0.
0.654083 0.0170422 0.
0.656083 0.0170435 0.
0.658084 0.0170436 0.
0.660084 0.0170438 0.
0.662085 0.0170429 0.
0.664085 0.0170407 0.
0.666086 0.0170384 0.
0.668086 0.0170358 0.
0.670086 0.017033 0.
0.672085 0.0170302 0.
0.674086 0.0170289 0.
0.676086 0.0170277 0.
0.678087 0.0170265 0.
0.680087 0.0170253 0.
0.682087 0.0170241 0.
0.684087 0.0170232 0.
0.686087 0.0170231 0.
0.688088 0.0170229 0.
0.690088 0.017023 0.
0.692089 0.0170233 0.
0.69409 0.0170236 0.
0.69609 0.0170239 0.
0.69809 0.0170242 0.
0.499911 0.0190279 0.
0.501911 0.0190269 0.
0.503912 0.0190262 0.
0.505912 0.0190256 0.
0.507913 0.0190252 0.
0.509913 0.0190248 0.
0.511914 0.0190246 0.
0.513914 0.0190247 0.
0.515915 0.0190247 0.
0.517915 0.0190253 0.
0.519916 0.0190263 0.
0.521916 0.0190273 0.
0.523916 0.0190285 0.
0.525916 0.0190296 0.
0.527916 0.0190308 0.
0.529916 0.0190318 0.
0.531916 0.0190328 0.
0.533915 0.0190337 0.
0.535916 0.0190344 0.
0.537916 0.0190351 0.
0.539916 0.0190351 0.
0.541917 0.0190346 0.
0.543918 0.019034 0.
0.545919 0.0190335 0.
0.547919 0.0190329 0.
0.549919 0.0190324 0.
0.551918 0.0190348 0.
0.553917 0.0190372 0.
0.555916 0.0190393 0.
0.557916 0.0190396 0.
0.559916 0.0190398 0.
0.561916 0.0190402 0.
0.563916 0.0190408 0.
0.565916 0.0190414 0.
0.567916 0.0190429 0.
0.569917 0.019045 0.
0.571918 0.0190471 0.
0.573921 0.0190491 0.
0.575923 0.0190511 0.
0.577927 0.0190526 0.
0.579931 0.0190484 0.
0.581935 0.0190441 0.
0.58394 0.0190399 0.
0.585945 0.0190355 0.
0.587951 0.0190312 0.
0.589958 0.0190262 0.
0.591965 0.0190206 0.
0.593972 0.0190149 0.
0.595982 0.0190151 0.
0.597993 0.0190171 0.
0.600005 0.0190191 0.
0.602015 0.0190178 0.
0.604026 0.0190164 0.
0.606035 0.0190164 0.
0.608041 0.0190211 0.
0.610047 0.0190258 0.
0.612053 0.0190305 0.
0.614058 0.0190353 0.
0.616064 0.0190401 0.
0.618068 0.0190431 0.
0.620072 0.0190452 0.
0.622076 0.0190474 0.
0.624078 0.0190466 0.
0.626079 0.0190455 0.
0.628081 0.0190446 0.
0.630081 0.0190445 0.
0.632082 0.0190445 0.
0.634083 0.0190447 0.
0.636083 0.019045 0.
0.638083 0.0190454 0.
0.640083 0.019045 0.
0.642083 0.0190441 0.
0.644083 0.0190432 0.
0.646082 0.0190424 0.
0.648081 0.0190416 0.
0.65008 0.0190408 0.
0.652081 0.0190422 0.
0.654081 0.0190436 0.
0.656081 0.0190445 0.
0.658082 0.019044 0.
0.660082 0.0190435 0.
0.662083 0.0190427 0.
0.664084 0.0190414 0.
0.666085 0.0190402 0.
0.668085 0.019038 0.
0.670085 0.0190356 0.
0.672084 0.0190332 0.
0.674085 0.0190313 0.
0.676085 0.0190294 0.
0.678086 0.0190277 0.
0.680086 0.0190272 0.
0.682086 0.0190266 0.
0.684086 0.019026 0.
0.686087 0.0190253 0.
0.688087 0.0190247 0.
0.690088 0.0190248 0.
0.692088 0.0190255 0.
0.694089 0.0190262 0.
0.696089 0.0190264 0.
0.698089 0.0190265 0.
0.499912 0.02103 0.
0.501913 0.0210289 0.
0.503913 0.0210282 0.
0.505914 0.0210274 0.
0.507914 0.021027 0.
0.509915 0.0210265 0.
0.511915 0.0210262 0.
0.513916 0.0210262 0.
0.515916 0.0210262 0.
0.517917 0.0210267 0.
0.519917 0.0210276 0.
0.521917 0.0210285 0.
0.523918 0.0210297 0.
0.525918 0.0210308 0.
0.527918 0.021032 0.
0.529918 0.0210332 0.
0.531918 0.0210345 0.
0.533918 0.0210355 0.
0.535918 0.0210357 0.
0.537918 0.0210358 0.
0.539918 0.0210357 0.
0.541919 0.0210353 0.
0.54392 0.021035 0.
0.545921 0.0210346 0.
0.547921 0.0210343 0.
0.549922 0.0210339 0.
0.551921 0.0210363 0.
0.55392 0.0210387 0.
0.55592 0.0210407 0.
0.55792 0.0210408 0.
0.55992 0.021041 0.
0.56192 0.0210413 0.
0.563921 0.0210418 0.
0.565921 0.0210424 0.
0.567922 0.0210436 0.
0.569923 0.0210452 0.
0.571924 0.0210469 0.
0.573927 0.0210484 0.
0.575931 0.0210498 0.
0.577935 0.0210507 0.
0.579939 0.0210462 0.
0.581944 0.0210417 0.
0.583948 0.0210373 0.
0.585954 0.0210334 0.
0.587959 0.0210295 0.
0.589965 0.0210249 0.
0.591971 0.0210197 0.
0.593977 0.0210146 0.
0.595986 0.0210139 0.
0.597995 0.0210145 0.
0.600004 0.0210151 0.
0.602013 0.0210152 0.
0.604022 0.0210153 0.
0.60603 0.0210163 0.
0.608035 0.0210205 0.
0.61004 0.0210246 0.
0.612045 0.0210288 0.
0.61405 0.0210332 0.
0.616055 0.0210376 0.
0.618059 0.0210409 0.
0.620063 0.0210436 0.
0.622067 0.0210464 0.
0.62407 0.0210459 0.
0.626072 0.0210452 0.
0.628074 0.0210445 0.
0.630075 0.0210445 0.
0.632077 0.0210444 0.
0.634078 0.0210446 0.
0.636078 0.0210453 0.
0.638078 0.021046 0.
0.640079 0.0210458 0.
0.642079 0.0210451 0.
0.64408 0.0210443 0.
0.646079 0.0210436 0.
0.648078 0.0210429 0.
0.650078 0.0210422 0.
0.652078 0.0210433 0.
0.654078 0.0210443 0.
0.656079 0.0210449 0.
0.658079 0.0210441 0.
0.66008 0.0210434 0.
0.662081 0.0210426 0.
0.664082 0.0210419 0.
0.666083 0.0210412 0.
0.668083 0.0210395 0.
0.670083 0.0210374 0.
0.672083 0.0210353 0.
0.674083 0.0210332 0.
0.676084 0.0210311 0.
0.678084 0.0210293 0.
0.680084 0.0210289 0.
0.682084 0.0210286 0.
0.684085 0.0210281 0.
0.686085 0.0210274 0.
0.688086 0.0210266 0.
0.690087 0.0210268 0.
0.692087 0.0210276 0.
0.694087 0.0210284 0.
0.696088 0.0210288 0.
0.698088 0.0210292 0.
0.499914 0.0230314 0.
0.501915 0.0230306 0.
0.503915 0.0230298 0.
0.505915 0.023029 0.
0.507916 0.0230285 0.
0.509916 0.023028 0.
0.511917 0.0230278 0.
0.513917 0.0230278 0.
0.515917 0.0230279 0.
0.517918 0.0230283 0.
0.519918 0.023029 0.
0.521919 0.0230296 0.
0.523919 0.0230306 0.
0.52592 0.0230315 0.
0.52792 0.0230325 0.
0.52992 0.0230341 0.
0.531921 0.0230357 0.
0.533921 0.0230368 0.
0.535921 0.0230367 0.
0.537921 0.0230366 0.
0.539921 0.0230364 0.
0.541922 0.0230362 0.
0.543923 0.0230359 0.
0.545923 0.0230357 0.
0.547923 0.0230354 0.
0.549923 0.0230351 0.
0.551924 0.0230373 0.
0.553924 0.0230396 0.
0.555924 0.0230415 0.
0.557925 0.0230417 0.
0.559925 0.0230418 0.
0.561926 0.0230422 0.
0.563927 0.0230428 0.
0.565928 0.0230434 0.
0.567929 0.0230441 0.
0.56993 0.023045 0.
0.571932 0.0230459 0.
0.573935 0.0230466 0.
0.575939 0.0230473 0.
0.577943 0.0230476 0.
0.579947 0.0230435 0.
0.581951 0.0230394 0.
0.583956 0.0230354 0.
0.585961 0.0230319 0.
0.587966 0.0230284 0.
0.58997 0.0230241 0.
0.591975 0.0230191 0.
0.59398 0.0230141 0.
0.595987 0.0230131 0.
0.597995 0.0230134 0.
0.600003 0.0230136 0.
0.602011 0.0230144 0.
0.604018 0.0230151 0.
0.606025 0.0230165 0.
0.60803 0.0230201 0.
0.610034 0.0230236 0.
0.612039 0.0230273 0.
0.614043 0.0230314 0.
0.616048 0.0230356 0.
0.618051 0.023039 0.
0.620055 0.0230421 0.
0.622059 0.0230452 0.
0.624062 0.0230449 0.
0.626064 0.0230442 0.
0.628067 0.0230437 0.
0.630068 0.023044 0.
0.63207 0.0230444 0.
0.634072 0.0230448 0.
0.636072 0.0230453 0.
0.638073 0.0230459 0.
0.640074 0.0230458 0.
0.642075 0.0230454 0.
0.644076 0.0230449 0.
0.646076 0.0230443 0.
0.648075 0.0230437 0.
0.650074 0.023043 0.
0.652075 0.0230437 0.
0.654075 0.0230444 0.
0.656076 0.0230447 0.
0.658076 0.023044 0.
0.660077 0.0230433 0.
0.662078 0.0230427 0.
0.664079 0.0230421 0.
0.66608 0.0230416 0.
0.66808 0.0230402 0.
0.67008 0.0230383 0.
0.672081 0.0230364 0.
0.674081 0.0230346 0.
0.676082 0.0230328 0.
0.678082 0.0230311 0.
0.680082 0.0230306 0.
0.682083 0.0230301 0.
0.684083 0.0230297 0.
0.686084 0.0230292 0.
0.688085 0.0230287 0.
0.690085 0.0230289 0.
0.692086 0.0230297 0.
0.694086 0.0230304 0.
0.696086 0.0230312 0.
0.698087 0.0230321 0.
0.499916 0.0250329 0.
0.501916 0.0250322 0.
0.503916 0.0250314 0.
0.505916 0.0250306 0.
0.507917 0.02503 0.
0.509917 0.0250295 0.
0.511918 0.0250293 0.
0.513918 0.0250294 0.
0.515919 0.0250296 0.
0.517919 0.0250299 0.
0.51992 0.0250303 0.
0.52192 0.0250307 0.
0.523921 0.0250315 0.
0.525922 0.0250323 0.
0.527922 0.0250331 0.
0.529923 0.025035 0.
0.531924 0.0250369 0.
0.533924 0.0250381 0.
0.535924 0.0250377 0.
0.537924 0.0250373 0.
0.539924 0.0250371 0.
0.541925 0.025037 0.
0.543925 0.0250369 0.
0.545925 0.0250367 0.
0.547925 0.0250365 0.
0.549925 0.0250362 0.
0.551927 0.0250384 0.
0.553928 0.0250406 0.
0.555929 0.0250424 0.
0.55793 0.0250426 0.
0.559931 0.0250427 0.
0.561932 0.0250431 0.
0.563933 0.0250437 0.
0.565934 0.0250444 0.
0.567936 0.0250447 0.
0.569937 0.0250448 0.
0.571939 0.0250449 0.
0.573943 0.0250448 0.
0.575947 0.0250448 0.
0.577951 0.0250444 0.
0.579955 0.0250407 0.
0.581959 0.0250371 0.
0.583963 0.0250335 0.
0.585968 0.0250304 0.
0.587972 0.0250273 0.
0.589976 0.0250233 0.
0.59198 0.0250184 0.
0.593983 0.0250136 0.
0.595989 0.0250124 0.
0.597996 0.0250123 0.
0.600003 0.0250121 0.
0.602009 0.0250136 0.
0.604015 0.025015 0.
0.606021 0.0250168 0.
0.608025 0.0250197 0.
0.610029 0.0250225 0.
0.612033 0.0250259 0.
0.614036 0.0250297 0.
0.61604 0.0250335 0.
0.618044 0.0250371 0.
0.620047 0.0250406 0.
0.622051 0.0250441 0.
0.624054 0.0250438 0.
0.626056 0.0250432 0.
0.628059 0.0250428 0.
0.630062 0.0250435 0.
0.632064 0.0250443 0.
0.634066 0.0250449 0.
0.636067 0.0250454 0.
0.638068 0.0250458 0.
0.640069 0.0250458 0.
0.642071 0.0250457 0.
0.644072 0.0250455 0.
0.646072 0.025045 0.
0.648072 0.0250444 0.
0.650071 0.0250438 0.
0.652072 0.0250442 0.
0.654072 0.0250445 0.
0.656073 0.0250446 0.
0.658074 0.0250439 0.
0.660074 0.0250432 0.
0.662075 0.0250426 0.
0.664076 0.0250423 0.
0.666076 0.025042 0.
0.668077 0.0250408 0.
0.670078 0.0250392 0.
0.672078 0.0250375 0.
0.674079 0.025036 0.
0.67608 0.0250344 0.
0.67808 0.0250329 0.
0.680081 0.0250323 0.
0.682081 0.0250317 0.
0.684081 0.0250312 0.
0.686082 0.025031 0.
0.688083 0.0250307 0.
0.690084 0.025031 0.
0.692084 0.0250317 0.
0.694085 0.0250324 0.
0.696085 0.0250336 0.
0.698085 0.0250349 0.
0.499917 0.0270344 0.
0.501917 0.0270337 0.
0.503917 0.0270329 0.
0.505917 0.0270321 0.
0.507918 0.0270316 0.
0.509918 0.0270311 0.
0.511919 0.0270308 0.
0.513919 0.0270306 0.
0.51592 0.0270304 0.
0.51792 0.0270305 0.
0.519921 0.0270307 0.
0.521922 0.027031 0.
0.523923 0.0270321 0.
0.525923 0.0270333 0.
0.527924 0.0270345 0.
0.529924 0.0270356 0.
0.531925 0.0270368 0.
0.533925 0.0270376 0.
0.535926 0.0270376 0.
0.537926 0.0270376 0.
0.539927 0.0270375 0.
0.541927 0.0270375 0.
0.543927 0.0270374 0.
0.545928 0.0270371 0.
0.547928 0.0270368 0.
0.549929 0.0270365 0.
0.55193 0.0270386 0.
0.553931 0.0270408 0.
0.555932 0.0270426 0.
0.557933 0.027043 0.
0.559934 0.0270433 0.
0.561935 0.0270436 0.
0.563937 0.0270438 0.
0.565938 0.027044 0.
0.56794 0.0270438 0.
0.569942 0.0270432 0.
0.571944 0.0270427 0.
0.573948 0.0270425 0.
0.575952 0.0270423 0.
0.577956 0.0270418 0.
0.57996 0.0270386 0.
0.581964 0.0270354 0.
0.583968 0.0270322 0.
0.585971 0.0270291 0.
0.587975 0.027026 0.
0.589979 0.0270225 0.
0.591982 0.0270185 0.
0.593986 0.0270145 0.
0.595991 0.0270133 0.
0.597997 0.027013 0.
0.600002 0.0270127 0.
0.602008 0.0270138 0.
0.604013 0.0270149 0.
0.606018 0.0270164 0.
0.608022 0.0270193 0.
0.610026 0.0270222 0.
0.612029 0.0270253 0.
0.614033 0.0270288 0.
0.616036 0.0270322 0.
0.618039 0.0270355 0.
0.620042 0.0270387 0.
0.622046 0.0270419 0.
0.624049 0.0270419 0.
0.626053 0.0270416 0.
0.628056 0.0270414 0.
0.630058 0.0270425 0.
0.63206 0.0270435 0.
0.634062 0.0270443 0.
0.636063 0.0270446 0.
0.638064 0.0270449 0.
0.640065 0.0270452 0.
0.642066 0.0270454 0.
0.644068 0.0270457 0.
0.646068 0.027045 0.
0.648068 0.027044 0.
0.650069 0.027043 0.
0.652069 0.0270437 0.
0.65407 0.0270444 0.
0.65607 0.0270447 0.
0.658072 0.0270439 0.
0.660073 0.0270431 0.
0.662074 0.0270426 0.
0.664074 0.0270422 0.
0.666075 0.0270419 0.
0.668075 0.0270409 0.
0.670076 0.0270395 0.
0.672076 0.0270381 0.
0.674077 0.0270366 0.
0.676078 0.027035 0.
0.678078 0.0270335 0.
0.680079 0.027033 0.
0.68208 0.0270325 0.
0.684081 0.0270322 0.
0.686081 0.0270322 0.
0.688082 0.0270323 0.
0.690082 0.0270328 0.
0.692083 0.0270336 0.
0.694084 0.0270344 0.
0.696084 0.0270358 0.
0.698084 0.0270374 0.
0.499917 0.0290359 0.
0.501918 0.0290351 0.
0.503918 0.0290343 0.
0.505919 0.0290336 0.
0.507919 0.0290331 0.
0.509919 0.0290327 0.
0.51192 0.0290323 0.
0.51392 0.0290317 0.
0.515921 0.0290312 0.
0.517921 0.0290311 0.
0.519923 0.0290312 0.
0.521924 0.0290313 0.
0.523924 0.0290327 0.
0.525925 0.0290343 0.
0.527925 0.0290359 0.
0.529925 0.0290363 0.
0.531926 0.0290367 0.
0.533926 0.0290371 0.
0.535927 0.0290375 0.
0.537928 0.0290379 0.
0.539929 0.029038 0.
0.541929 0.0290379 0.
0.543929 0.0290379 0.
0.54593 0.0290375 0.
0.547931 0.0290371 0.
0.549932 0.0290367 0.
0.551933 0.0290388 0.
0.553934 0.029041 0.
0.555934 0.0290428 0.
0.557936 0.0290433 0.
0.559937 0.0290439 0.
0.561938 0.0290442 0.
0.56394 0.0290439 0.
0.565942 0.0290437 0.
0.567945 0.0290429 0.
0.569947 0.0290417 0.
0.571949 0.0290405 0.
0.573953 0.0290401 0.
0.575956 0.0290398 0.
0.57796 0.0290393 0.
0.579964 0.0290365 0.
0.581968 0.0290337 0.
0.583972 0.0290308 0.
0.585975 0.0290278 0.
0.587979 0.0290248 0.
0.589982 0.0290217 0.
0.591985 0.0290185 0.
0.593988 0.0290154 0.
0.595993 0.0290143 0.
0.597997 0.0290138 0.
0.600002 0.0290132 0.
0.602007 0.029014 0.
0.604011 0.0290148 0.
0.606016 0.029016 0.
0.608019 0.0290189 0.
0.610023 0.0290218 0.
0.612026 0.0290248 0.
0.614029 0.0290278 0.
0.616031 0.0290309 0.
0.618035 0.0290339 0.
0.620038 0.0290368 0.
0.622041 0.0290398 0.
0.624045 0.02904 0.
0.626049 0.0290399 0.
0.628052 0.02904 0.
0.630054 0.0290414 0.
0.632056 0.0290427 0.
0.634058 0.0290436 0.
0.636059 0.0290438 0.
0.63806 0.029044 0.
0.640061 0.0290445 0.
0.642062 0.0290452 0.
0.644064 0.0290459 0.
0.646065 0.0290449 0.
0.648065 0.0290435 0.
0.650066 0.0290422 0.
0.652067 0.0290432 0.
0.654067 0.0290443 0.
0.656068 0.0290449 0.
0.658069 0.029044 0.
0.660071 0.0290431 0.
0.662072 0.0290425 0.
0.664073 0.0290422 0.
0.666073 0.0290418 0.
0.668074 0.0290409 0.
0.670074 0.0290398 0.
0.672074 0.0290387 0.
0.674075 0.0290372 0.
0.676076 0.0290356 0.
0.678076 0.0290342 0.
0.680078 0.0290337 0.
0.682079 0.0290333 0.
0.68408 0.0290332 0.
0.68608 0.0290335 0.
0.688081 0.0290338 0.
0.690081 0.0290345 0.
0.692082 0.0290355 0.
0.694082 0.0290364 0.
0.696083 0.029038 0.
0.698083 0.0290398 0.
0.499919 0.0310379 0.
0.50192 0.0310369 0.
0.50392 0.0310359 0.
0.505921 0.031035 0.
0.507921 0.0310344 0.
0.509921 0.0310337 0.
0.511921 0.0310331 0.
0.513922 0.0310326 0.
0.515923 0.031032 0.
0.517923 0.0310319 0.
0.519925 0.0310319 0.
0.521926 0.0310319 0.
0.523926 0.0310335 0.
0.525926 0.0310352 0.
0.527927 0.0310368 0.
0.529927 0.0310368 0.
0.531927 0.0310367 0.
0.533928 0.0310369 0.
0.535929 0.0310375 0.
0.537931 0.0310382 0.
0.539932 0.0310385 0.
0.541932 0.0310384 0.
0.543932 0.0310383 0.
0.545933 0.0310381 0.
0.547934 0.0310378 0.
0.549935 0.0310375 0.
0.551936 0.0310392 0.
0.553937 0.031041 0.
0.555938 0.0310426 0.
0.557939 0.0310431 0.
0.55994 0.0310437 0.
0.561942 0.0310438 0.
0.563944 0.0310434 0.
0.565946 0.0310429 0.
0.567949 0.0310418 0.
0.569951 0.0310402 0.
0.571953 0.0310387 0.
0.573957 0.0310383 0.
0.575961 0.0310379 0.
0.577964 0.0310374 0.
0.579968 0.0310349 0.
0.581972 0.0310324 0.
0.583975 0.0310298 0.
0.585978 0.0310269 0.
0.587981 0.0310239 0.
0.589984 0.0310213 0.
0.591987 0.0310188 0.
0.59399 0.0310163 0.
0.595994 0.0310152 0.
0.597997 0.0310145 0.
0.600001 0.0310138 0.
0.602006 0.0310144 0.
0.60401 0.031015 0.
0.606014 0.031016 0.
0.608017 0.0310189 0.
0.61002 0.0310218 0.
0.612023 0.0310246 0.
0.614026 0.0310273 0.
0.616029 0.03103 0.
0.618031 0.0310327 0.
0.620034 0.0310354 0.
0.622037 0.0310381 0.
0.624041 0.0310386 0.
0.626044 0.0310389 0.
0.628048 0.0310393 0.
0.63005 0.0310408 0.
0.632052 0.0310423 0.
0.634054 0.0310433 0.
0.636055 0.0310434 0.
0.638056 0.0310434 0.
0.640057 0.0310439 0.
0.642059 0.0310448 0.
0.64406 0.0310456 0.
0.646061 0.0310447 0.
0.648062 0.0310434 0.
0.650063 0.0310421 0.
0.652064 0.0310431 0.
0.654064 0.0310441 0.
0.656065 0.0310447 0.
0.658067 0.031044 0.
0.660068 0.0310433 0.
0.66207 0.0310427 0.
0.66407 0.0310422 0.
0.666071 0.0310417 0.
0.668072 0.031041 0.
0.670072 0.0310403 0.
0.672072 0.0310396 0.
0.674073 0.031038 0.
0.676074 0.0310364 0.
0.678075 0.0310349 0.
0.680076 0.0310346 0.
0.682077 0.0310343 0.
0.684078 0.0310343 0.
0.686079 0.0310348 0.
0.688079 0.0310354 0.
0.690079 0.0310362 0.
0.69208 0.0310373 0.
0.694081 0.0310384 0.
0.696081 0.03104 0.
0.698081 0.0310419 0.
0.499922 0.0330401 0.
0.501923 0.0330388 0.
0.503923 0.0330376 0.
0.505923 0.0330364 0.
0.507923 0.0330353 0.
0.509924 0.0330342 0.
0.511924 0.0330335 0.
0.513925 0.0330331 0.
0.515925 0.0330328 0.
0.517926 0.0330328 0.
0.519927 0.0330328 0.
0.521927 0.0330328 0.
0.523928 0.0330343 0.
0.525928 0.033036 0.
0.527928 0.0330375 0.
0.529929 0.0330372 0.
0.531929 0.0330369 0.
0.53393 0.0330369 0.
0.535932 0.0330378 0.
0.537933 0.0330386 0.
0.539934 0.0330389 0.
0.541935 0.0330389 0.
0.543936 0.0330388 0.
0.545936 0.0330388 0.
0.547937 0.0330387 0.
0.549938 0.0330387 0.
0.551939 0.0330398 0.
0.55394 0.0330409 0.
0.555941 0.0330419 0.
0.557943 0.0330423 0.
0.559944 0.0330426 0.
0.561946 0.0330427 0.
0.563948 0.0330422 0.
0.56595 0.0330417 0.
0.567953 0.0330405 0.
0.569955 0.0330389 0.
0.571958 0.0330373 0.
0.573961 0.0330369 0.
0.575964 0.0330366 0.
0.577968 0.0330361 0.
0.579971 0.0330338 0.
0.581975 0.0330316 0.
0.583978 0.0330292 0.
0.58598 0.0330264 0.
0.587983 0.0330236 0.
0.589986 0.0330212 0.
0.591988 0.0330193 0.
0.593991 0.0330173 0.
0.595994 0.0330162 0.
0.597998 0.0330153 0.
0.600001 0.0330144 0.
0.602005 0.0330149 0.
0.604009 0.0330154 0.
0.606013 0.0330164 0.
0.608016 0.0330193 0.
0.610018 0.0330221 0.
0.612021 0.0330248 0.
0.614024 0.0330272 0.
0.616027 0.0330296 0.
0.61803 0.033032 0.
0.620032 0.0330344 0.
0.622035 0.0330368 0.
0.624037 0.0330377 0.
0.62604 0.0330384 0.
0.628043 0.0330391 0.
0.630045 0.0330407 0.
0.632047 0.0330423 0.
0.634049 0.0330433 0.
0.636051 0.0330431 0.
0.638053 0.0330429 0.
0.640054 0.0330434 0.
0.642056 0.0330442 0.
0.644057 0.033045 0.
0.646058 0.0330445 0.
0.648059 0.0330437 0.
0.65006 0.0330429 0.
0.652061 0.0330434 0.
0.654061 0.0330438 0.
0.656062 0.0330441 0.
0.658063 0.0330439 0.
0.660065 0.0330436 0.
0.662066 0.0330431 0.
0.664068 0.0330423 0.
0.666069 0.0330415 0.
0.66807 0.0330411 0.
0.67007 0.0330409 0.
0.672071 0.0330407 0.
0.674072 0.0330391 0.
0.676073 0.0330374 0.
0.678074 0.0330358 0.
0.680074 0.0330356 0.
0.682075 0.0330355 0.
0.684075 0.0330356 0.
0.686076 0.0330362 0.
0.688077 0.0330369 0.
0.690077 0.0330378 0.
0.692078 0.033039 0.
0.694079 0.0330402 0.
0.696079 0.0330419 0.
0.698078 0.0330436 0.
0.499925 0.0350425 0.
0.501925 0.0350408 0.
0.503926 0.0350393 0.
0.505926 0.0350377 0.
0.507926 0.0350362 0.
0.509926 0.0350347 0.
0.511927 0.0350338 0.
0.513927 0.0350337 0.
0.515928 0.0350336 0.
0.517929 0.0350336 0.
0.519929 0.0350337 0.
0.521929 0.0350337 0.
0.52393 0.0350351 0.
0.52593 0.0350367 0.
0.52793 0.0350381 0.
0.529931 0.0350376 0.
0.531932 0.0350371 0.
0.533932 0.035037 0.
0.535934 0.035038 0.
0.537936 0.035039 0.
0.539937 0.0350394 0.
0.541938 0.0350393 0.
0.543939 0.0350392 0.
0.54594 0.0350394 0.
0.547941 0.0350397 0.
0.549941 0.0350399 0.
0.551943 0.0350404 0.
0.553944 0.0350408 0.
0.555945 0.0350412 0.
0.557947 0.0350414 0.
0.559948 0.0350417 0.
0.56195 0.0350416 0.
0.563952 0.0350411 0.
0.565954 0.0350405 0.
0.567956 0.0350393 0.
0.569959 0.0350376 0.
0.571962 0.0350359 0.
0.573965 0.0350355 0.
0.575968 0.0350353 0.
0.577971 0.0350348 0.
0.579974 0.0350328 0.
0.581977 0.0350307 0.
0.58398 0.0350285 0.
0.585983 0.0350258 0.
0.587985 0.0350232 0.
0.589987 0.0350212 0.
0.591989 0.0350197 0.
0.593991 0.0350183 0.
0.595994 0.0350171 0.
0.597998 0.0350161 0.
0.600001 0.0350151 0.
0.602005 0.0350155 0.
0.604009 0.0350159 0.
0.606012 0.0350168 0.
0.608014 0.0350196 0.
0.610016 0.0350225 0.
0.612019 0.035025 0.
0.614022 0.0350271 0.
0.616026 0.0350292 0.
0.618028 0.0350313 0.
0.62003 0.0350335 0.
0.622032 0.0350356 0.
0.624034 0.0350368 0.
0.626036 0.0350379 0.
0.628038 0.035039 0.
0.63004 0.0350407 0.
0.632042 0.0350423 0.
0.634045 0.0350432 0.
0.636047 0.0350429 0.
0.63805 0.0350425 0.
0.640051 0.0350428 0.
0.642053 0.0350436 0.
0.644054 0.0350443 0.
0.646055 0.0350443 0.
0.648056 0.035044 0.
0.650058 0.0350436 0.
0.652058 0.0350436 0.
0.654058 0.0350435 0.
0.656059 0.0350435 0.
0.65806 0.0350437 0.
0.660062 0.0350439 0.
0.662063 0.0350435 0.
0.664065 0.0350425 0.
0.666066 0.0350414 0.
0.668067 0.0350413 0.
0.670068 0.0350416 0.
0.672069 0.0350419 0.
0.67407 0.0350402 0.
0.676072 0.0350383 0.
0.678073 0.0350368 0.
0.680072 0.0350367 0.
0.682072 0.0350366 0.
0.684072 0.0350369 0.
0.686073 0.0350376 0.
0.688075 0.0350384 0.
0.690075 0.0350395 0.
0.692076 0.0350408 0.
0.694077 0.0350421 0.
0.696076 0.0350437 0.
0.698075 0.0350454 0.
0.499927 0.0370428 0.
0.501927 0.0370414 0.
0.503927 0.0370399 0.
0.505928 0.0370384 0.
0.507928 0.0370374 0.
0.509928 0.0370364 0.
0.511928 0.0370355 0.
0.513929 0.0370349 0.
0.51593 0.0370343 0.
0.51793 0.0370344 0.
0.51993 0.0370347 0.
0.521931 0.037035 0.
0.523931 0.0370361 0.
0.525932 0.0370372 0.
0.527933 0.0370382 0.
0.529933 0.0370378 0.
0.531934 0.0370375 0.
0.533935 0.0370374 0.
0.535936 0.0370378 0.
0.537937 0.0370383 0.
0.539939 0.0370386 0.
0.54194 0.0370387 0.
0.543941 0.0370389 0.
0.545942 0.0370391 0.
0.547943 0.0370393 0.
0.549943 0.0370395 0.
0.551945 0.03704 0.
0.553947 0.0370404 0.
0.555948 0.0370407 0.
0.55795 0.0370407 0.
0.559951 0.0370408 0.
0.561953 0.0370406 0.
0.563955 0.0370399 0.
0.565957 0.0370393 0.
0.567959 0.037038 0.
0.569962 0.0370363 0.
0.571964 0.0370347 0.
0.573967 0.0370343 0.
0.57597 0.0370341 0.
0.577973 0.0370336 0.
0.579976 0.0370316 0.
0.581979 0.0370297 0.
0.583982 0.0370277 0.
0.585984 0.0370256 0.
0.587987 0.0370235 0.
0.589988 0.0370216 0.
0.59199 0.0370199 0.
0.593992 0.0370182 0.
0.595995 0.0370172 0.
0.597998 0.0370165 0.
0.600001 0.0370157 0.
0.602004 0.0370161 0.
0.604008 0.0370165 0.
0.606011 0.0370174 0.
0.608013 0.0370198 0.
0.610015 0.0370221 0.
0.612017 0.0370243 0.
0.61402 0.0370264 0.
0.616022 0.0370285 0.
0.618024 0.0370307 0.
0.620026 0.037033 0.
0.622028 0.0370353 0.
0.624031 0.0370363 0.
0.626034 0.0370371 0.
0.628036 0.037038 0.
0.630038 0.0370396 0.
0.63204 0.0370412 0.
0.634042 0.0370421 0.
0.636045 0.037042 0.
0.638047 0.0370418 0.
0.640049 0.0370423 0.
0.64205 0.0370432 0.
0.644051 0.0370441 0.
0.646052 0.037044 0.
0.648053 0.0370436 0.
0.650055 0.0370432 0.
0.652056 0.0370431 0.
0.654056 0.037043 0.
0.656057 0.037043 0.
0.658059 0.0370433 0.
0.66006 0.0370436 0.
0.662062 0.0370432 0.
0.664063 0.0370421 0.
0.666064 0.037041 0.
0.668065 0.0370409 0.
0.670066 0.0370412 0.
0.672067 0.0370416 0.
0.674068 0.0370402 0.
0.676069 0.0370388 0.
0.67807 0.0370374 0.
0.68007 0.0370373 0.
0.68207 0.0370372 0.
0.68407 0.0370375 0.
0.686071 0.0370383 0.
0.688073 0.037039 0.
0.690073 0.0370401 0.
0.692073 0.0370412 0.
0.694074 0.0370424 0.
0.696074 0.0370445 0.
0.698074 0.0370467 0.
0.499928 0.0390433 0.
0.501929 0.0390421 0.
0.503929 0.0390405 0.
0.505929 0.0390391 0.
0.50793 0.0390386 0.
0.50993 0.039038 0.
0.51193 0.0390372 0.
0.51393 0.0390361 0.
0.515931 0.039035 0.
0.517931 0.0390351 0.
0.519932 0.0390357 0.
0.521933 0.0390364 0.
0.523933 0.039037 0.
0.525934 0.0390376 0.
0.527935 0.0390382 0.
0.529936 0.039038 0.
0.531937 0.0390379 0.
0.533937 0.0390377 0.
0.535938 0.0390377 0.
0.537939 0.0390376 0.
0.53994 0.0390378 0.
0.541941 0.0390382 0.
0.543943 0.0390386 0.
0.545944 0.0390388 0.
0.547945 0.039039 0.
0.549945 0.0390392 0.
0.551947 0.0390396 0.
0.553949 0.0390399 0.
0.555951 0.0390402 0.
0.557953 0.03904 0.
0.559954 0.0390399 0.
0.561956 0.0390396 0.
0.563958 0.0390388 0.
0.56596 0.0390381 0.
0.567962 0.0390368 0.
0.569964 0.0390351 0.
0.571966 0.0390335 0.
0.573969 0.0390331 0.
0.575972 0.0390328 0.
0.577975 0.0390324 0.
0.579978 0.0390305 0.
0.581981 0.0390286 0.
0.583984 0.0390268 0.
0.585986 0.0390253 0.
0.587988 0.0390238 0.
0.58999 0.0390221 0.
0.591991 0.0390201 0.
0.593993 0.0390181 0.
0.595995 0.0390173 0.
0.597998 0.0390168 0.
0.600001 0.0390163 0.
0.602004 0.0390168 0.
0.604007 0.0390172 0.
0.606009 0.039018 0.
0.608011 0.0390199 0.
0.610013 0.0390218 0.
0.612015 0.0390237 0.
0.614017 0.0390257 0.
0.616019 0.0390277 0.
0.618021 0.03903 0.
0.620023 0.0390325 0.
0.622025 0.0390349 0.
0.624028 0.0390357 0.
0.626031 0.0390363 0.
0.628034 0.0390371 0.
0.630036 0.0390386 0.
0.632038 0.03904 0.
0.63404 0.039041 0.
0.636042 0.0390411 0.
0.638045 0.0390411 0.
0.640046 0.0390418 0.
0.642047 0.0390429 0.
0.644048 0.0390439 0.
0.646049 0.0390438 0.
0.648051 0.0390433 0.
0.650052 0.0390427 0.
0.652053 0.0390426 0.
0.654054 0.0390424 0.
0.656056 0.0390424 0.
0.658057 0.0390428 0.
0.660059 0.0390432 0.
0.66206 0.0390429 0.
0.664061 0.0390418 0.
0.666062 0.0390407 0.
0.668063 0.0390406 0.
0.670064 0.0390409 0.
0.672065 0.0390413 0.
0.674066 0.0390403 0.
0.676067 0.0390392 0.
0.678068 0.0390381 0.
0.680068 0.039038 0.
0.682068 0.0390378 0.
0.684068 0.0390381 0.
0.686069 0.0390389 0.
0.68807 0.0390397 0.
0.690071 0.0390407 0.
0.692071 0.0390417 0.
0.694071 0.0390428 0.
0.696071 0.0390452 0.
0.698072 0.039048 0.
0.49993 0.041044 0.
0.501931 0.0410428 0.
0.503931 0.0410413 0.
0.505931 0.04104 0.
0.507932 0.0410396 0.
0.509932 0.0410392 0.
0.511932 0.0410384 0.
0.513932 0.0410371 0.
0.515933 0.0410358 0.
0.517933 0.0410358 0.
0.519934 0.0410364 0.
0.521935 0.041037 0.
0.523936 0.0410374 0.
0.525936 0.0410377 0.
0.527937 0.0410381 0.
0.529938 0.0410381 0.
0.531939 0.0410382 0.
0.53394 0.0410381 0.
0.53594 0.0410379 0.
0.537941 0.0410377 0.
0.539942 0.0410378 0.
0.541943 0.0410383 0.
0.543944 0.0410387 0.
0.545946 0.0410388 0.
0.547947 0.0410388 0.
0.549948 0.0410387 0.
0.55195 0.0410392 0.
0.553952 0.0410397 0.
0.555954 0.04104 0.
0.557955 0.0410397 0.
0.559957 0.0410394 0.
0.561959 0.0410388 0.
0.563961 0.0410379 0.
0.565962 0.0410369 0.
0.567964 0.0410356 0.
0.569967 0.0410342 0.
0.571969 0.0410328 0.
0.573972 0.0410322 0.
0.575975 0.0410318 0.
0.577978 0.0410313 0.
0.57998 0.0410297 0.
0.581983 0.0410281 0.
0.583985 0.0410266 0.
0.585987 0.0410254 0.
0.587989 0.0410241 0.
0.58999 0.0410225 0.
0.591992 0.0410206 0.
0.593993 0.0410186 0.
0.595996 0.0410179 0.
0.597999 0.0410175 0.
0.600001 0.041017 0.
0.602004 0.0410176 0.
0.604006 0.0410182 0.
0.606008 0.041019 0.
0.60801 0.0410205 0.
0.610012 0.041022 0.
0.612013 0.0410236 0.
0.614015 0.0410254 0.
0.616017 0.0410273 0.
0.618019 0.0410295 0.
0.620021 0.0410318 0.
0.622023 0.0410342 0.
0.624026 0.041035 0.
0.626029 0.0410356 0.
0.628032 0.0410363 0.
0.630034 0.0410378 0.
0.632036 0.0410392 0.
0.634037 0.0410403 0.
0.63604 0.0410406 0.
0.638042 0.0410409 0.
0.640043 0.0410417 0.
0.642044 0.0410429 0.
0.644045 0.0410441 0.
0.646047 0.0410439 0.
0.648048 0.0410432 0.
0.65005 0.0410426 0.
0.652051 0.0410424 0.
0.654053 0.0410421 0.
0.656054 0.0410421 0.
0.658056 0.0410425 0.
0.660057 0.0410429 0.
0.662058 0.0410427 0.
0.664059 0.0410418 0.
0.66606 0.0410409 0.
0.668061 0.0410408 0.
0.670062 0.0410411 0.
0.672063 0.0410413 0.
0.674064 0.0410406 0.
0.676065 0.0410397 0.
0.678065 0.0410389 0.
0.680066 0.0410388 0.
0.682066 0.0410387 0.
0.684067 0.0410389 0.
0.686068 0.0410397 0.
0.688068 0.0410404 0.
0.690069 0.0410414 0.
0.692069 0.0410425 0.
0.694069 0.0410437 0.
0.69607 0.0410461 0.
0.69807 0.0410489 0.
0.499933 0.043045 0.
0.501933 0.0430436 0.
0.503933 0.0430422 0.
0.505933 0.043041 0.
0.507934 0.0430405 0.
0.509934 0.0430399 0.
0.511935 0.0430391 0.
0.513935 0.0430379 0.
0.515935 0.0430367 0.
0.517936 0.0430364 0.
0.519936 0.0430367 0.
0.521937 0.0430369 0.
0.523938 0.0430372 0.
0.525939 0.0430376 0.
0.52794 0.0430379 0.
0.529941 0.0430381 0.
0.531942 0.0430383 0.
0.533942 0.0430384 0.
0.535943 0.0430384 0.
0.537943 0.0430385 0.
0.539944 0.0430387 0.
0.541945 0.043039 0.
0.543947 0.0430393 0.
0.545948 0.0430391 0.
0.547949 0.0430386 0.
0.54995 0.0430382 0.
0.551952 0.0430388 0.
0.553954 0.0430395 0.
0.555957 0.04304 0.
0.557958 0.0430395 0.
0.55996 0.0430391 0.
0.561961 0.0430383 0.
0.563963 0.0430371 0.
0.565965 0.0430358 0.
0.567966 0.0430347 0.
0.569968 0.0430337 0.
0.571971 0.0430326 0.
0.573974 0.0430318 0.
0.575977 0.0430311 0.
0.57798 0.0430303 0.
0.579982 0.0430292 0.
0.581984 0.0430281 0.
0.583986 0.0430269 0.
0.585987 0.0430256 0.
0.587989 0.0430244 0.
0.589991 0.0430229 0.
0.591993 0.0430213 0.
0.593994 0.0430197 0.
0.595997 0.0430189 0.
0.597999 0.0430184 0.
0.600002 0.0430178 0.
0.602004 0.0430186 0.
0.604005 0.0430194 0.
0.606007 0.0430203 0.
0.608009 0.0430215 0.
0.610011 0.0430227 0.
0.612012 0.043024 0.
0.614014 0.0430256 0.
0.616015 0.0430272 0.
0.618017 0.0430291 0.
0.620019 0.0430311 0.
0.622021 0.0430331 0.
0.624024 0.043034 0.
0.626027 0.0430348 0.
0.62803 0.0430357 0.
0.630032 0.0430372 0.
0.632033 0.0430387 0.
0.634035 0.0430398 0.
0.636037 0.0430405 0.
0.638039 0.0430411 0.
0.64004 0.0430421 0.
0.642042 0.0430434 0.
0.644043 0.0430446 0.
0.646045 0.0430442 0.
0.648046 0.0430435 0.
0.650048 0.0430428 0.
0.652049 0.0430424 0.
0.654051 0.0430421 0.
0.656052 0.043042 0.
0.658053 0.0430423 0.
0.660055 0.0430426 0.
0.662056 0.0430425 0.
0.664057 0.043042 0.
0.666059 0.0430415 0.
0.668059 0.0430414 0.
0.67006 0.0430415 0.
0.672061 0.0430417 0.
0.674062 0.0430411 0.
0.676062 0.0430405 0.
0.678063 0.0430399 0.
0.680064 0.0430398 0.
0.682065 0.0430398 0.
0.684065 0.04304 0.
0.686066 0.0430405 0.
0.688066 0.0430411 0.
0.690067 0.0430422 0.
0.692067 0.0430436 0.
0.694068 0.0430451 0.
0.696068 0.0430472 0.
0.698069 0.0430495 0.
0.499936 0.045046 0.
0.501936 0.0450444 0.
0.503936 0.0450431 0.
0.505936 0.0450419 0.
0.507936 0.0450413 0.
0.509937 0.0450407 0.
0.511937 0.0450399 0.
0.513937 0.0450387 0.
0.515938 0.0450376 0.
0.517938 0.0450371 0.
0.519939 0.045037 0.
0.52194 0.0450368 0.
0.523941 0.0450371 0.
0.525941 0.0450374 0.
0.527942 0.0450378 0.
0.529943 0.0450381 0.
0.531944 0.0450384 0.
0.533945 0.0450387 0.
0.535945 0.045039 0.
0.537945 0.0450393 0.
0.539946 0.0450396 0.
0.541947 0.0450397 0.
0.543949 0.0450399 0.
0.54595 0.0450394 0.
0.547951 0.0450385 0.
0.549953 0.0450376 0.
0.551955 0.0450385 0.
0.553957 0.0450394 0.
0.555959 0.04504 0.
0.557961 0.0450394 0.
0.559963 0.0450388 0.
0.561964 0.0450378 0.
0.563965 0.0450363 0.
0.565967 0.0450347 0.
0.567968 0.0450338 0.
0.56997 0.0450331 0.
0.571972 0.0450324 0.
0.573976 0.0450314 0.
0.575979 0.0450304 0.
0.577982 0.0450293 0.
0.579984 0.0450287 0.
0.581985 0.0450281 0.
0.583987 0.0450272 0.
0.585988 0.0450259 0.
0.58799 0.0450246 0.
0.589991 0.0450234 0.
0.591993 0.0450221 0.
0.593995 0.0450208 0.
0.595997 0.04502 0.
0.598 0.0450193 0.
0.600002 0.0450186 0.
0.602003 0.0450196 0.
0.604005 0.0450206 0.
0.606006 0.0450216 0.
0.608008 0.0450225 0.
0.61001 0.0450234 0.
0.612011 0.0450245 0.
0.614013 0.0450258 0.
0.616014 0.0450271 0.
0.618016 0.0450286 0.
0.620018 0.0450303 0.
0.62202 0.045032 0.
0.624023 0.0450331 0.
0.626026 0.0450341 0.
0.628028 0.0450351 0.
0.63003 0.0450366 0.
0.632031 0.0450381 0.
0.634032 0.0450394 0.
0.636034 0.0450404 0.
0.638035 0.0450414 0.
0.640037 0.0450425 0.
0.642039 0.0450438 0.
0.644041 0.045045 0.
0.646043 0.0450446 0.
0.648045 0.0450438 0.
0.650046 0.0450429 0.
0.652048 0.0450425 0.
0.654049 0.0450421 0.
0.65605 0.0450419 0.
0.658051 0.0450421 0.
0.660052 0.0450423 0.
0.662053 0.0450423 0.
0.664055 0.0450421 0.
0.666057 0.045042 0.
0.668058 0.045042 0.
0.670058 0.045042 0.
0.672058 0.045042 0.
0.674059 0.0450416 0.
0.67606 0.0450412 0.
0.678061 0.0450408 0.
0.680062 0.0450409 0.
0.682063 0.0450409 0.
0.684064 0.045041 0.
0.686064 0.0450414 0.
0.688064 0.0450418 0.
0.690065 0.045043 0.
0.692066 0.0450447 0.
0.694066 0.0450464 0.
0.696067 0.0450482 0.
0.698067 0.04505 0.
0.499937 0.0470468 0.
0.501937 0.047045 0.
0.503937 0.0470433 0.
0.505937 0.0470418 0.
0.507938 0.0470414 0.
0.509938 0.047041 0.
0.511939 0.0470403 0.
0.513939 0.0470392 0.
0.51594 0.0470382 0.
0.51794 0.0470375 0.
0.519941 0.047037 0.
0.521942 0.0470365 0.
0.523943 0.0470367 0.
0.525943 0.0470371 0.
0.527944 0.0470375 0.
0.529945 0.047038 0.
0.531946 0.0470386 0.
0.533947 0.0470389 0.
0.535947 0.0470388 0.
0.537948 0.0470386 0.
0.539949 0.0470386 0.
0.54195 0.0470387 0.
0.543951 0.0470388 0.
0.545953 0.0470385 0.
0.547954 0.047038 0.
0.549955 0.0470376 0.
0.551957 0.0470381 0.
0.553959 0.0470386 0.
0.555961 0.0470388 0.
0.557963 0.0470381 0.
0.559964 0.0470374 0.
0.561966 0.0470365 0.
0.563967 0.0470355 0.
0.565969 0.0470344 0.
0.56797 0.0470336 0.
0.569972 0.0470328 0.
0.571974 0.0470321 0.
0.573977 0.0470308 0.
0.57598 0.0470296 0.
0.577983 0.0470284 0.
0.579984 0.0470282 0.
0.581986 0.0470281 0.
0.583987 0.0470275 0.
0.585989 0.0470259 0.
0.58799 0.0470244 0.
0.589992 0.0470231 0.
0.591994 0.0470219 0.
0.593996 0.0470207 0.
0.595997 0.0470201 0.
0.597999 0.0470198 0.
0.600001 0.0470195 0.
0.602003 0.0470202 0.
0.604004 0.0470209 0.
0.606006 0.0470218 0.
0.608007 0.0470228 0.
0.610009 0.0470238 0.
0.61201 0.0470249 0.
0.614012 0.0470259 0.
0.616014 0.047027 0.
0.618015 0.0470285 0.
0.620017 0.0470302 0.
0.622018 0.0470319 0.
0.624021 0.0470328 0.
0.626023 0.0470337 0.
0.628026 0.0470346 0.
0.630027 0.047036 0.
0.632029 0.0470374 0.
0.634031 0.0470387 0.
0.636032 0.0470398 0.
0.638034 0.047041 0.
0.640035 0.047042 0.
0.642037 0.047043 0.
0.644039 0.047044 0.
0.646041 0.0470437 0.
0.648042 0.0470431 0.
0.650044 0.0470425 0.
0.652045 0.0470421 0.
0.654046 0.0470417 0.
0.656047 0.0470414 0.
0.658048 0.0470415 0.
0.66005 0.0470416 0.
0.662051 0.0470415 0.
0.664053 0.0470413 0.
0.666054 0.0470411 0.
0.668056 0.0470414 0.
0.670056 0.0470419 0.
0.672057 0.0470425 0.
0.674058 0.0470421 0.
0.676059 0.0470415 0.
0.67806 0.0470411 0.
0.68006 0.0470416 0.
0.682061 0.047042 0.
0.684061 0.0470424 0.
0.686062 0.0470428 0.
0.688062 0.0470432 0.
0.690063 0.0470441 0.
0.692063 0.0470453 0.
0.694064 0.0470464 0.
0.696064 0.0470488 0.
0.698065 0.0470514 0.
0.499938 0.0490476 0.
0.501938 0.0490456 0.
0.503938 0.0490435 0.
0.505938 0.0490417 0.
0.507939 0.0490415 0.
0.50994 0.0490413 0.
0.51194 0.0490408 0.
0.513941 0.0490397 0.
0.515942 0.0490387 0.
0.517943 0.0490378 0.
0.519944 0.049037 0.
0.521945 0.0490361 0.
0.523945 0.0490363 0.
0.525946 0.0490368 0.
0.527946 0.0490372 0.
0.529947 0.049038 0.
0.531948 0.0490388 0.
0.533949 0.0490391 0.
0.53595 0.0490385 0.
0.537951 0.0490379 0.
0.539952 0.0490376 0.
0.541953 0.0490376 0.
0.543954 0.0490376 0.
0.545956 0.0490376 0.
0.547957 0.0490376 0.
0.549958 0.0490375 0.
0.55196 0.0490376 0.
0.553961 0.0490377 0.
0.555963 0.0490376 0.
0.557964 0.0490368 0.
0.559966 0.0490359 0.
0.561968 0.0490352 0.
0.563969 0.0490347 0.
0.56597 0.0490342 0.
0.567972 0.0490334 0.
0.569973 0.0490325 0.
0.571975 0.0490316 0.
0.573978 0.0490303 0.
0.57598 0.0490288 0.
0.577983 0.0490274 0.
0.579985 0.0490278 0.
0.581986 0.0490281 0.
0.583988 0.0490278 0.
0.585989 0.049026 0.
0.587991 0.0490243 0.
0.589993 0.0490228 0.
0.591994 0.0490217 0.
0.593996 0.0490205 0.
0.595997 0.0490203 0.
0.597999 0.0490203 0.
0.6 0.0490203 0.
0.602002 0.0490208 0.
0.604004 0.0490213 0.
0.606005 0.0490219 0.
0.608007 0.0490231 0.
0.610008 0.0490243 0.
0.612009 0.0490253 0.
0.614011 0.0490261 0.
0.616013 0.0490269 0.
0.618014 0.0490283 0.
0.620016 0.04903 0.
0.622017 0.0490317 0.
0.624019 0.0490325 0.
0.626021 0.0490333 0.
0.628023 0.0490341 0.
0.630025 0.0490354 0.
0.632027 0.0490367 0.
0.634029 0.049038 0.
0.63603 0.0490393 0.
0.638032 0.0490406 0.
0.640033 0.0490416 0.
0.642035 0.0490422 0.
0.644037 0.0490429 0.
0.646039 0.0490428 0.
0.64804 0.0490424 0.
0.650042 0.0490421 0.
0.652042 0.0490416 0.
0.654043 0.0490412 0.
0.656044 0.0490408 0.
0.658045 0.0490409 0.
0.660047 0.0490409 0.
0.662049 0.0490408 0.
0.66405 0.0490405 0.
0.666052 0.0490401 0.
0.668053 0.0490408 0.
0.670055 0.0490419 0.
0.672056 0.049043 0.
0.674057 0.0490425 0.
0.676058 0.0490418 0.
0.678058 0.0490414 0.
0.680059 0.0490423 0.
0.682059 0.0490431 0.
0.684059 0.0490438 0.
0.686059 0.0490442 0.
0.68806 0.0490446 0.
0.69006 0.0490451 0.
0.692061 0.0490458 0.
0.694061 0.0490464 0.
0.696062 0.0490494 0.
0.698062 0.0490528 0.
0.49994 0.0510485 0.
0.50194 0.0510464 0.
0.50394 0.0510442 0.
0.50594 0.0510425 0.
0.507941 0.051042 0.
0.509942 0.0510416 0.
0.511942 0.051041 0.
0.513943 0.05104 0.
0.515944 0.0510391 0.
0.517945 0.0510382 0.
0.519945 0.0510372 0.
0.521946 0.0510363 0.
0.523947 0.0510364 0.
0.525948 0.0510366 0.
0.527948 0.0510369 0.
0.529949 0.0510378 0.
0.531951 0.0510387 0.
0.533952 0.051039 0.
0.535952 0.0510383 0.
0.537953 0.0510375 0.
0.539954 0.0510372 0.
0.541955 0.0510372 0.
0.543957 0.0510372 0.
0.545958 0.0510373 0.
0.547959 0.0510374 0.
0.549961 0.0510375 0.
0.551962 0.0510373 0.
0.553963 0.0510371 0.
0.555965 0.0510368 0.
0.557966 0.0510361 0.
0.559968 0.0510353 0.
0.561969 0.0510346 0.
0.563971 0.0510341 0.
0.565972 0.0510336 0.
0.567974 0.0510328 0.
0.569975 0.0510319 0.
0.571977 0.051031 0.
0.573979 0.0510299 0.
0.575981 0.0510286 0.
0.577984 0.0510276 0.
0.579985 0.0510278 0.
0.581987 0.0510281 0.
0.583988 0.0510278 0.
0.58599 0.0510262 0.
0.587992 0.0510246 0.
0.589993 0.0510234 0.
0.591995 0.0510223 0.
0.593996 0.0510213 0.
0.595997 0.0510211 0.
0.597998 0.0510211 0.
0.6 0.051021 0.
0.602002 0.0510214 0.
0.604003 0.0510217 0.
0.606005 0.0510223 0.
0.608006 0.0510235 0.
0.610007 0.0510248 0.
0.612008 0.0510258 0.
0.61401 0.0510265 0.
0.616012 0.0510271 0.
0.618013 0.0510285 0.
0.620014 0.0510301 0.
0.622016 0.0510317 0.
0.624018 0.0510325 0.
0.62602 0.0510333 0.
0.628022 0.051034 0.
0.630024 0.0510353 0.
0.632026 0.0510365 0.
0.634027 0.0510377 0.
0.636029 0.051039 0.
0.63803 0.0510403 0.
0.640032 0.0510412 0.
0.642033 0.0510417 0.
0.644035 0.0510421 0.
0.646036 0.0510422 0.
0.648038 0.0510422 0.
0.650039 0.0510422 0.
0.65204 0.0510417 0.
0.654041 0.0510411 0.
0.656041 0.0510406 0.
0.658043 0.0510404 0.
0.660045 0.0510402 0.
0.662046 0.05104 0.
0.664048 0.0510399 0.
0.66605 0.0510398 0.
0.668051 0.0510406 0.
0.670053 0.0510419 0.
0.672054 0.0510432 0.
0.674055 0.0510429 0.
0.676056 0.0510424 0.
0.678057 0.0510421 0.
0.680057 0.0510431 0.
0.682057 0.0510441 0.
0.684057 0.0510447 0.
0.686058 0.051045 0.
0.688058 0.0510452 0.
0.690059 0.0510457 0.
0.692059 0.0510464 0.
0.694059 0.0510472 0.
0.696059 0.0510503 0.
0.69806 0.0510539 0.
0.499942 0.0530493 0.
0.501943 0.0530473 0.
0.503943 0.0530456 0.
0.505943 0.053044 0.
0.507944 0.0530429 0.
0.509944 0.0530419 0.
0.511945 0.0530409 0.
0.513945 0.0530401 0.
0.515946 0.0530393 0.
0.517946 0.0530385 0.
0.519947 0.0530377 0.
0.521947 0.053037 0.
0.523948 0.0530368 0.
0.52595 0.0530367 0.
0.527951 0.0530367 0.
0.529952 0.0530375 0.
0.531953 0.0530383 0.
0.533954 0.0530386 0.
0.535955 0.053038 0.
0.537956 0.0530374 0.
0.539956 0.0530372 0.
0.541957 0.0530374 0.
0.543958 0.0530376 0.
0.54596 0.0530376 0.
0.547961 0.0530375 0.
0.549962 0.0530374 0.
0.551964 0.0530371 0.
0.553966 0.0530368 0.
0.555967 0.0530365 0.
0.557969 0.0530359 0.
0.55997 0.0530354 0.
0.561971 0.0530347 0.
0.563973 0.0530338 0.
0.565974 0.0530329 0.
0.567975 0.053032 0.
0.569977 0.0530311 0.
0.571978 0.0530301 0.
0.57398 0.0530296 0.
0.575982 0.0530291 0.
0.577984 0.0530287 0.
0.579986 0.0530284 0.
0.581987 0.0530281 0.
0.583989 0.0530276 0.
0.585991 0.0530265 0.
0.587993 0.0530255 0.
0.589994 0.0530246 0.
0.591995 0.0530238 0.
0.593996 0.053023 0.
0.595997 0.0530225 0.
0.597999 0.053022 0.
0.6 0.0530216 0.
0.602002 0.0530219 0.
0.604004 0.0530223 0.
0.606005 0.0530229 0.
0.608006 0.0530241 0.
0.610007 0.0530253 0.
0.612007 0.0530263 0.
0.614009 0.053027 0.
0.61601 0.0530277 0.
0.618011 0.0530289 0.
0.620013 0.0530304 0.
0.622015 0.0530319 0.
0.624017 0.0530328 0.
0.626019 0.0530335 0.
0.628021 0.0530343 0.
0.630023 0.0530355 0.
0.632024 0.0530367 0.
0.634026 0.0530379 0.
0.636027 0.0530391 0.
0.638028 0.0530402 0.
0.640029 0.0530409 0.
0.642031 0.0530412 0.
0.644032 0.0530415 0.
0.646034 0.053042 0.
0.648036 0.0530425 0.
0.650038 0.0530429 0.
0.652038 0.0530422 0.
0.654039 0.0530414 0.
0.65604 0.0530407 0.
0.658042 0.0530401 0.
0.660043 0.0530394 0.
0.662044 0.0530392 0.
0.664046 0.0530396 0.
0.666048 0.0530399 0.
0.668049 0.0530408 0.
0.67005 0.0530421 0.
0.672051 0.0530433 0.
0.674052 0.0530433 0.
0.676053 0.0530432 0.
0.678054 0.0530432 0.
0.680055 0.0530441 0.
0.682056 0.0530449 0.
0.684056 0.0530453 0.
0.686057 0.0530452 0.
0.688057 0.053045 0.
0.690057 0.0530457 0.
0.692057 0.0530472 0.
0.694057 0.0530486 0.
0.696057 0.0530515 0.
0.698057 0.0530547 0.
0.499944 0.0550501 0.
0.501945 0.0550483 0.
0.503945 0.0550468 0.
0.505945 0.0550454 0.
0.507946 0.0550438 0.
0.509947 0.0550422 0.
0.511947 0.0550409 0.
0.513947 0.0550402 0.
0.515948 0.0550394 0.
0.517948 0.0550388 0.
0.519948 0.0550382 0.
0.521948 0.0550376 0.
0.52395 0.0550372 0.
0.525952 0.0550367 0.
0.527953 0.0550364 0.
0.529954 0.0550372 0.
0.531956 0.0550379 0.
0.533957 0.0550383 0.
0.535957 0.0550377 0.
0.537958 0.0550372 0.
0.539958 0.0550372 0.
0.541959 0.0550376 0.
0.54396 0.055038 0.
0.545961 0.0550379 0.
0.547963 0.0550377 0.
0.549964 0.0550374 0.
0.551966 0.0550369 0.
0.553968 0.0550365 0.
0.55597 0.0550361 0.
0.557971 0.0550358 0.
0.559972 0.0550355 0.
0.561973 0.0550348 0.
0.563974 0.0550335 0.
0.565976 0.0550322 0.
0.567977 0.0550311 0.
0.569979 0.0550302 0.
0.57198 0.0550293 0.
0.573982 0.0550294 0.
0.575983 0.0550296 0.
0.577985 0.0550297 0.
0.579986 0.0550289 0.
0.581988 0.0550282 0.
0.58399 0.0550274 0.
0.585991 0.0550269 0.
0.587993 0.0550263 0.
0.589995 0.0550258 0.
0.591995 0.0550253 0.
0.593996 0.0550247 0.
0.595997 0.0550239 0.
0.597999 0.055023 0.
0.600001 0.0550221 0.
0.602003 0.0550225 0.
0.604004 0.0550229 0.
0.606006 0.0550235 0.
0.608006 0.0550246 0.
0.610006 0.0550258 0.
0.612006 0.0550267 0.
0.614007 0.0550275 0.
0.616008 0.0550282 0.
0.618009 0.0550294 0.
0.620011 0.0550307 0.
0.622013 0.0550321 0.
0.624016 0.055033 0.
0.626018 0.0550338 0.
0.62802 0.0550346 0.
0.630022 0.0550358 0.
0.632023 0.055037 0.
0.634025 0.0550381 0.
0.636025 0.0550391 0.
0.638026 0.05504 0.
0.640027 0.0550406 0.
0.642029 0.0550408 0.
0.64403 0.055041 0.
0.646032 0.0550418 0.
0.648034 0.0550427 0.
0.650036 0.0550436 0.
0.652037 0.0550427 0.
0.654038 0.0550418 0.
0.656039 0.0550408 0.
0.65804 0.0550398 0.
0.660041 0.0550387 0.
0.662042 0.0550384 0.
0.664044 0.0550392 0.
0.666046 0.05504 0.
0.668047 0.0550411 0.
0.670048 0.0550422 0.
0.672049 0.0550433 0.
0.67405 0.0550437 0.
0.676051 0.055044 0.
0.678052 0.0550444 0.
0.680053 0.055045 0.
0.682054 0.0550457 0.
0.684055 0.0550459 0.
0.686055 0.0550454 0.
0.688056 0.0550448 0.
0.690056 0.0550458 0.
0.692056 0.0550479 0.
0.694055 0.05505 0.
0.696055 0.0550527 0.
0.698055 0.0550555 0.
0.499946 0.0570502 0.
0.501947 0.0570486 0.
0.503947 0.0570471 0.
0.505947 0.0570456 0.
0.507948 0.0570443 0.
0.509948 0.057043 0.
0.511948 0.0570418 0.
0.513949 0.0570409 0.
0.515949 0.05704 0.
0.51795 0.0570391 0.
0.51995 0.0570382 0.
0.521951 0.0570373 0.
0.523952 0.0570371 0.
0.525953 0.057037 0.
0.527954 0.0570369 0.
0.529955 0.0570373 0.
0.531956 0.0570377 0.
0.533957 0.0570379 0.
0.535958 0.0570375 0.
0.537959 0.0570372 0.
0.53996 0.0570371 0.
0.541961 0.0570372 0.
0.543962 0.0570374 0.
0.545963 0.0570372 0.
0.547964 0.0570369 0.
0.549966 0.0570366 0.
0.551967 0.0570364 0.
0.553969 0.0570363 0.
0.55597 0.0570361 0.
0.557972 0.0570358 0.
0.559973 0.0570355 0.
0.561975 0.0570347 0.
0.563976 0.0570334 0.
0.565977 0.0570321 0.
0.567978 0.0570312 0.
0.56998 0.0570305 0.
0.571981 0.0570298 0.
0.573982 0.0570296 0.
0.575984 0.0570295 0.
0.577985 0.0570294 0.
0.579987 0.0570286 0.
0.581988 0.0570279 0.
0.583989 0.0570273 0.
0.585991 0.057027 0.
0.587993 0.0570266 0.
0.589994 0.0570263 0.
0.591995 0.0570261 0.
0.593995 0.0570258 0.
0.595997 0.057025 0.
0.597999 0.057024 0.
0.6 0.057023 0.
0.602002 0.0570235 0.
0.604003 0.057024 0.
0.606004 0.0570245 0.
0.608005 0.0570253 0.
0.610006 0.0570261 0.
0.612007 0.0570268 0.
0.614008 0.0570274 0.
0.616008 0.0570279 0.
0.61801 0.0570289 0.
0.620012 0.0570301 0.
0.622013 0.0570314 0.
0.624015 0.0570322 0.
0.626017 0.057033 0.
0.628019 0.0570339 0.
0.63002 0.0570354 0.
0.632021 0.057037 0.
0.634022 0.0570383 0.
0.636024 0.0570391 0.
0.638025 0.0570399 0.
0.640026 0.0570403 0.
0.642028 0.0570405 0.
0.644029 0.0570407 0.
0.646031 0.0570412 0.
0.648032 0.0570418 0.
0.650034 0.0570425 0.
0.652035 0.057042 0.
0.654036 0.0570415 0.
0.656038 0.0570408 0.
0.658039 0.0570396 0.
0.66004 0.0570384 0.
0.662041 0.0570382 0.
0.664042 0.0570392 0.
0.666044 0.0570403 0.
0.668045 0.0570412 0.
0.670046 0.057042 0.
0.672047 0.0570429 0.
0.674048 0.0570434 0.
0.676049 0.0570439 0.
0.67805 0.0570444 0.
0.680051 0.0570449 0.
0.682052 0.0570454 0.
0.684052 0.0570458 0.
0.686053 0.057046 0.
0.688053 0.0570462 0.
0.690054 0.0570474 0.
0.692053 0.0570493 0.
0.694053 0.0570512 0.
0.696053 0.0570534 0.
0.698053 0.0570555 0.
0.499948 0.0590502 0.
0.501949 0.0590489 0.
0.503949 0.0590473 0.
0.505949 0.0590458 0.
0.507949 0.0590448 0.
0.50995 0.0590438 0.
0.51195 0.0590427 0.
0.51395 0.0590416 0.
0.515951 0.0590405 0.
0.517952 0.0590394 0.
0.519953 0.0590382 0.
0.521954 0.059037 0.
0.523955 0.059037 0.
0.525955 0.0590372 0.
0.527956 0.0590374 0.
0.529956 0.0590374 0.
0.531957 0.0590375 0.
0.533958 0.0590375 0.
0.535959 0.0590373 0.
0.53796 0.0590372 0.
0.539961 0.059037 0.
0.541962 0.0590369 0.
0.543963 0.0590367 0.
0.545965 0.0590364 0.
0.547966 0.0590361 0.
0.549967 0.0590357 0.
0.551968 0.0590359 0.
0.55397 0.0590361 0.
0.555971 0.0590362 0.
0.557973 0.0590358 0.
0.559975 0.0590354 0.
0.561976 0.0590346 0.
0.563977 0.0590333 0.
0.565979 0.059032 0.
0.56798 0.0590312 0.
0.56998 0.0590308 0.
0.571981 0.0590303 0.
0.573983 0.0590299 0.
0.575985 0.0590294 0.
0.577986 0.059029 0.
0.579987 0.0590283 0.
0.581988 0.0590276 0.
0.583989 0.0590271 0.
0.585991 0.059027 0.
0.587992 0.0590269 0.
0.589993 0.0590269 0.
0.591994 0.0590269 0.
0.593995 0.0590269 0.
0.595996 0.059026 0.
0.597998 0.059025 0.
0.6 0.0590239 0.
0.602001 0.0590245 0.
0.604002 0.0590251 0.
0.606003 0.0590256 0.
0.608004 0.059026 0.
0.610006 0.0590265 0.
0.612007 0.0590268 0.
0.614008 0.0590273 0.
0.616009 0.0590277 0.
0.61801 0.0590285 0.
0.620012 0.0590296 0.
0.622013 0.0590306 0.
0.624015 0.0590314 0.
0.626017 0.0590322 0.
0.628018 0.0590331 0.
0.630019 0.0590351 0.
0.632019 0.059037 0.
0.63402 0.0590385 0.
0.636022 0.0590391 0.
0.638023 0.0590397 0.
0.640025 0.0590401 0.
0.642027 0.0590402 0.
0.644028 0.0590403 0.
0.64603 0.0590406 0.
0.648031 0.059041 0.
0.650032 0.0590414 0.
0.652034 0.0590413 0.
0.654035 0.0590413 0.
0.656036 0.0590409 0.
0.658037 0.0590395 0.
0.660038 0.0590382 0.
0.662039 0.059038 0.
0.66404 0.0590392 0.
0.666042 0.0590405 0.
0.668043 0.0590413 0.
0.670044 0.0590418 0.
0.672044 0.0590424 0.
0.674046 0.0590431 0.
0.676047 0.0590438 0.
0.678048 0.0590444 0.
0.680048 0.0590448 0.
0.682049 0.0590451 0.
0.68405 0.0590457 0.
0.68605 0.0590466 0.
0.688051 0.0590475 0.
0.690051 0.0590489 0.
0.692051 0.0590506 0.
0.694051 0.0590524 0.
0.696051 0.059054 0.
0.698052 0.0590556 0.
0.49995 0.0610503 0.
0.501951 0.0610491 0.
0.503951 0.0610476 0.
0.505951 0.0610462 0.
0.507951 0.0610454 0.
0.509951 0.0610445 0.
0.511952 0.0610435 0.
0.513952 0.0610421 0.
0.515953 0.0610408 0.
0.517954 0.0610395 0.
0.519955 0.0610383 0.
0.521956 0.0610371 0.
0.523957 0.0610371 0.
0.525957 0.0610373 0.
0.527957 0.0610375 0.
0.529958 0.0610374 0.
0.531959 0.0610373 0.
0.53396 0.0610373 0.
0.535961 0.0610371 0.
0.537962 0.0610369 0.
0.539963 0.0610367 0.
0.541964 0.0610363 0.
0.543965 0.0610359 0.
0.545966 0.0610357 0.
0.547967 0.0610356 0.
0.549968 0.0610354 0.
0.551969 0.0610355 0.
0.553971 0.0610356 0.
0.555972 0.0610356 0.
0.557974 0.0610353 0.
0.559976 0.061035 0.
0.561977 0.0610342 0.
0.563978 0.0610329 0.
0.565979 0.0610316 0.
0.56798 0.061031 0.
0.569981 0.0610307 0.
0.571982 0.0610305 0.
0.573984 0.06103 0.
0.575985 0.0610296 0.
0.577987 0.0610291 0.
0.579987 0.0610283 0.
0.581988 0.0610276 0.
0.583989 0.0610271 0.
0.58599 0.0610271 0.
0.587992 0.0610271 0.
0.589993 0.0610272 0.
0.591994 0.0610274 0.
0.593995 0.0610275 0.
0.595996 0.0610269 0.
0.597998 0.061026 0.
0.6 0.0610252 0.
0.602001 0.0610257 0.
0.604002 0.0610263 0.
0.606003 0.0610267 0.
0.608004 0.0610268 0.
0.610006 0.0610268 0.
0.612007 0.061027 0.
0.614008 0.0610274 0.
0.616009 0.0610278 0.
0.618011 0.0610285 0.
0.620012 0.0610295 0.
0.622013 0.0610304 0.
0.624014 0.0610313 0.
0.626016 0.0610321 0.
0.628017 0.0610331 0.
0.630017 0.061035 0.
0.632018 0.0610369 0.
0.634019 0.0610383 0.
0.636021 0.0610387 0.
0.638022 0.0610391 0.
0.640024 0.0610395 0.
0.642026 0.0610399 0.
0.644027 0.0610402 0.
0.646029 0.0610404 0.
0.64803 0.0610404 0.
0.650031 0.0610405 0.
0.652032 0.0610406 0.
0.654034 0.0610407 0.
0.656035 0.0610405 0.
0.658036 0.0610394 0.
0.660037 0.0610383 0.
0.662038 0.0610383 0.
0.664039 0.0610394 0.
0.66604 0.0610406 0.
0.668041 0.0610413 0.
0.670042 0.0610418 0.
0.672043 0.0610422 0.
0.674044 0.0610431 0.
0.676045 0.061044 0.
0.678046 0.0610448 0.
0.680046 0.0610451 0.
0.682047 0.0610453 0.
0.684047 0.0610459 0.
0.686048 0.0610471 0.
0.688049 0.0610482 0.
0.690049 0.0610497 0.
0.692049 0.0610514 0.
0.694049 0.0610531 0.
0.696049 0.0610545 0.
0.69805 0.0610559 0.
0.499952 0.0630505 0.
0.501952 0.0630491 0.
0.503953 0.0630479 0.
0.505953 0.0630468 0.
0.507953 0.063046 0.
0.509953 0.0630452 0.
0.511954 0.063044 0.
0.513954 0.0630424 0.
0.515955 0.0630408 0.
0.517956 0.0630396 0.
0.519957 0.0630386 0.
0.521958 0.0630375 0.
0.523958 0.0630374 0.
0.525959 0.0630374 0.
0.52796 0.0630373 0.
0.52996 0.0630373 0.
0.531961 0.0630374 0.
0.533962 0.0630373 0.
0.535963 0.0630369 0.
0.537963 0.0630365 0.
0.539964 0.0630361 0.
0.541966 0.0630355 0.
0.543967 0.063035 0.
0.545968 0.0630351 0.
0.547969 0.0630354 0.
0.549969 0.0630356 0.
0.55197 0.0630353 0.
0.553971 0.0630349 0.
0.555972 0.0630346 0.
0.557974 0.0630343 0.
0.559976 0.0630341 0.
0.561978 0.0630334 0.
0.563979 0.0630322 0.
0.56598 0.063031 0.
0.567981 0.0630305 0.
0.569982 0.0630304 0.
0.571983 0.0630303 0.
0.573985 0.0630301 0.
0.575986 0.0630299 0.
0.577987 0.0630296 0.
0.579988 0.0630287 0.
0.581989 0.0630278 0.
0.583989 0.0630272 0.
0.58599 0.0630272 0.
0.587991 0.0630271 0.
0.589992 0.0630273 0.
0.591993 0.0630275 0.
0.593995 0.0630278 0.
0.595996 0.0630276 0.
0.597998 0.0630272 0.
0.6 0.0630268 0.
0.602002 0.0630272 0.
0.604003 0.0630276 0.
0.606005 0.0630279 0.
0.608005 0.0630276 0.
0.610006 0.0630273 0.
0.612007 0.0630273 0.
0.614008 0.0630278 0.
0.616009 0.0630283 0.
0.61801 0.063029 0.
0.620012 0.0630299 0.
0.622013 0.0630307 0.
0.624014 0.0630317 0.
0.626015 0.0630328 0.
0.628016 0.0630339 0.
0.630017 0.0630353 0.
0.632018 0.0630368 0.
0.634019 0.0630377 0.
0.63602 0.0630378 0.
0.638022 0.0630379 0.
0.640023 0.0630385 0.
0.642024 0.0630395 0.
0.644026 0.0630404 0.
0.646027 0.0630404 0.
0.648028 0.0630401 0.
0.65003 0.0630398 0.
0.652031 0.0630398 0.
0.654033 0.0630399 0.
0.656034 0.0630398 0.
0.658035 0.0630393 0.
0.660036 0.0630387 0.
0.662037 0.0630389 0.
0.664037 0.0630397 0.
0.666038 0.0630406 0.
0.668039 0.0630412 0.
0.67004 0.0630418 0.
0.672041 0.0630423 0.
0.674042 0.0630434 0.
0.676043 0.0630446 0.
0.678044 0.0630456 0.
0.680044 0.0630458 0.
0.682044 0.063046 0.
0.684045 0.0630465 0.
0.686046 0.0630475 0.
0.688046 0.0630485 0.
0.690046 0.0630499 0.
0.692046 0.0630517 0.
0.694046 0.0630535 0.
0.696047 0.0630549 0.
0.698047 0.0630563 0.
0.499954 0.0650504 0.
0.501954 0.0650492 0.
0.503954 0.0650481 0.
0.505954 0.0650473 0.
0.507955 0.0650465 0.
0.509955 0.0650458 0.
0.511956 0.0650445 0.
0.513956 0.0650427 0.
0.515957 0.0650408 0.
0.517958 0.0650397 0.
0.519958 0.0650388 0.
0.521959 0.065038 0.
0.52396 0.0650376 0.
0.525961 0.0650374 0.
0.527962 0.0650371 0.
0.529963 0.0650373 0.
0.531964 0.0650374 0.
0.533965 0.0650373 0.
0.535965 0.0650367 0.
0.537965 0.0650361 0.
0.539966 0.0650355 0.
0.541967 0.0650348 0.
0.543969 0.0650342 0.
0.545969 0.0650345 0.
0.54797 0.0650351 0.
0.54997 0.0650358 0.
0.551971 0.065035 0.
0.553972 0.0650343 0.
0.555973 0.0650336 0.
0.557975 0.0650334 0.
0.559977 0.0650332 0.
0.561978 0.0650327 0.
0.563979 0.0650315 0.
0.56598 0.0650304 0.
0.567982 0.0650301 0.
0.569983 0.0650301 0.
0.571985 0.0650302 0.
0.573986 0.0650302 0.
0.575987 0.0650303 0.
0.577988 0.0650302 0.
0.579988 0.0650291 0.
0.581989 0.0650281 0.
0.58399 0.0650274 0.
0.58599 0.0650273 0.
0.587991 0.0650272 0.
0.589992 0.0650273 0.
0.591993 0.0650277 0.
0.593995 0.065028 0.
0.595997 0.0650282 0.
0.597999 0.0650284 0.
0.600001 0.0650285 0.
0.602003 0.0650287 0.
0.604005 0.065029 0.
0.606006 0.065029 0.
0.608006 0.0650284 0.
0.610007 0.0650278 0.
0.612007 0.0650277 0.
0.614008 0.0650282 0.
0.616009 0.0650288 0.
0.61801 0.0650295 0.
0.620011 0.0650303 0.
0.622012 0.065031 0.
0.624013 0.0650322 0.
0.626014 0.0650334 0.
0.628015 0.0650346 0.
0.630016 0.0650356 0.
0.632017 0.0650366 0.
0.634018 0.0650372 0.
0.63602 0.065037 0.
0.638021 0.0650368 0.
0.640022 0.0650376 0.
0.642023 0.0650391 0.
0.644024 0.0650406 0.
0.646026 0.0650404 0.
0.648027 0.0650397 0.
0.650029 0.0650391 0.
0.65203 0.0650391 0.
0.654032 0.0650391 0.
0.656033 0.0650391 0.
0.658034 0.0650391 0.
0.660035 0.0650392 0.
0.662035 0.0650394 0.
0.664036 0.06504 0.
0.666036 0.0650406 0.
0.668037 0.0650411 0.
0.670038 0.0650418 0.
0.672039 0.0650424 0.
0.67404 0.0650437 0.
0.676041 0.0650451 0.
0.678041 0.0650463 0.
0.680042 0.0650465 0.
0.682042 0.0650467 0.
0.684043 0.0650471 0.
0.686043 0.0650479 0.
0.688044 0.0650487 0.
0.690044 0.0650501 0.
0.692044 0.0650519 0.
0.694044 0.0650538 0.
0.696044 0.0650553 0.
0.698045 0.0650568 0.
0.499954 0.0670509 0.
0.501955 0.0670495 0.
0.503955 0.0670484 0.
0.505955 0.0670473 0.
0.507956 0.0670463 0.
0.509957 0.0670453 0.
0.511957 0.067044 0.
0.513958 0.0670424 0.
0.515959 0.0670408 0.
0.51796 0.0670397 0.
0.51996 0.0670388 0.
0.521961 0.0670379 0.
0.523962 0.0670376 0.
0.525962 0.0670373 0.
0.527963 0.067037 0.
0.529964 0.0670369 0.
0.531965 0.0670369 0.
0.533965 0.0670367 0.
0.535966 0.0670363 0.
0.537967 0.0670358 0.
0.539967 0.0670353 0.
0.541968 0.0670347 0.
0.543969 0.0670341 0.
0.54597 0.0670343 0.
0.547971 0.0670347 0.
0.549971 0.0670351 0.
0.551972 0.0670346 0.
0.553974 0.0670341 0.
0.555975 0.0670336 0.
0.557977 0.0670333 0.
0.559978 0.0670331 0.
0.561979 0.0670325 0.
0.56398 0.0670315 0.
0.565981 0.0670304 0.
0.567982 0.0670298 0.
0.569983 0.0670293 0.
0.571984 0.0670289 0.
0.573985 0.0670294 0.
0.575987 0.06703 0.
0.577988 0.0670305 0.
0.579989 0.0670296 0.
0.581989 0.0670287 0.
0.58399 0.067028 0.
0.585991 0.0670277 0.
0.587991 0.0670275 0.
0.589992 0.0670275 0.
0.591993 0.0670277 0.
0.593994 0.0670279 0.
0.595996 0.0670282 0.
0.597998 0.0670285 0.
0.6 0.0670288 0.
0.602002 0.0670285 0.
0.604004 0.0670283 0.
0.606006 0.0670281 0.
0.608007 0.0670282 0.
0.610007 0.0670283 0.
0.612007 0.0670285 0.
0.614008 0.0670289 0.
0.616009 0.0670293 0.
0.61801 0.0670299 0.
0.620011 0.0670306 0.
0.622011 0.0670312 0.
0.624013 0.0670321 0.
0.626014 0.067033 0.
0.628015 0.0670339 0.
0.630016 0.067035 0.
0.632017 0.0670362 0.
0.634018 0.0670369 0.
0.636019 0.0670368 0.
0.63802 0.0670368 0.
0.640021 0.0670374 0.
0.642022 0.0670385 0.
0.644023 0.0670396 0.
0.646024 0.0670395 0.
0.648026 0.0670392 0.
0.650028 0.0670388 0.
0.65203 0.0670388 0.
0.654031 0.0670387 0.
0.656032 0.0670387 0.
0.658033 0.0670391 0.
0.660034 0.0670395 0.
0.662034 0.0670398 0.
0.664035 0.0670401 0.
0.666035 0.0670403 0.
0.668036 0.067041 0.
0.670037 0.0670419 0.
0.672038 0.0670427 0.
0.674038 0.0670437 0.
0.676039 0.0670447 0.
0.678039 0.0670456 0.
0.68004 0.0670463 0.
0.682041 0.067047 0.
0.684041 0.0670476 0.
0.686042 0.0670483 0.
0.688042 0.067049 0.
0.690042 0.0670502 0.
0.692042 0.0670519 0.
0.694042 0.0670536 0.
0.696043 0.0670551 0.
0.698044 0.0670564 0.
0.499955 0.069051 0.
0.501955 0.0690498 0.
0.503956 0.0690486 0.
0.505956 0.0690474 0.
0.507957 0.0690461 0.
0.509958 0.0690447 0.
0.511959 0.0690435 0.
0.51396 0.0690422 0.
0.515961 0.0690409 0.
0.517961 0.0690398 0.
0.519962 0.0690389 0.
0.521963 0.0690379 0.
0.523963 0.0690375 0.
0.525964 0.0690371 0.
0.527965 0.0690368 0.
0.529965 0.0690366 0.
0.531966 0.0690364 0.
0.533966 0.0690361 0.
0.535967 0.0690358 0.
0.537968 0.0690355 0.
0.539969 0.0690351 0.
0.541969 0.0690346 0.
0.54397 0.069034 0.
0.545971 0.069034 0.
0.547971 0.0690342 0.
0.549972 0.0690344 0.
0.551974 0.0690341 0.
0.553976 0.0690338 0.
0.555978 0.0690336 0.
0.557978 0.0690332 0.
0.559979 0.0690329 0.
0.56198 0.0690324 0.
0.563981 0.0690314 0.
0.565981 0.0690304 0.
0.567982 0.0690295 0.
0.569982 0.0690285 0.
0.571983 0.0690276 0.
0.573985 0.0690285 0.
0.575986 0.0690298 0.
0.577988 0.0690308 0.
0.579989 0.06903 0.
0.581989 0.0690292 0.
0.58399 0.0690286 0.
0.585991 0.0690282 0.
0.587992 0.0690278 0.
0.589993 0.0690277 0.
0.591994 0.0690278 0.
0.593994 0.0690279 0.
0.595996 0.0690282 0.
0.597998 0.0690286 0.
0.6 0.069029 0.
0.602002 0.0690283 0.
0.604004 0.0690276 0.
0.606006 0.0690272 0.
0.608007 0.069028 0.
0.610007 0.0690288 0.
0.612007 0.0690293 0.
0.614008 0.0690296 0.
0.616008 0.0690298 0.
0.618009 0.0690303 0.
0.62001 0.0690308 0.
0.622011 0.0690314 0.
0.624012 0.069032 0.
0.626014 0.0690326 0.
0.628015 0.0690332 0.
0.630016 0.0690345 0.
0.632016 0.0690358 0.
0.634017 0.0690366 0.
0.636018 0.0690367 0.
0.638019 0.0690367 0.
0.64002 0.0690372 0.
0.642021 0.0690379 0.
0.644022 0.0690386 0.
0.646023 0.0690387 0.
0.648025 0.0690387 0.
0.650027 0.0690386 0.
0.652029 0.0690385 0.
0.65403 0.0690383 0.
0.656031 0.0690383 0.
0.658032 0.069039 0.
0.660033 0.0690397 0.
0.662033 0.0690401 0.
0.664034 0.0690401 0.
0.666034 0.0690401 0.
0.668035 0.0690409 0.
0.670035 0.0690419 0.
0.672036 0.069043 0.
0.674037 0.0690436 0.
0.676037 0.0690442 0.
0.678037 0.0690449 0.
0.680038 0.0690461 0.
0.682039 0.0690472 0.
0.68404 0.0690481 0.
0.68604 0.0690487 0.
0.688041 0.0690493 0.
0.690041 0.0690504 0.
0.692041 0.0690519 0.
0.694041 0.0690535 0.
0.696042 0.0690548 0.
0.698043 0.069056 0.
0.499956 0.0710507 0.
0.501957 0.0710498 0.
0.503957 0.0710486 0.
0.505958 0.0710474 0.
0.507959 0.0710459 0.
0.50996 0.0710444 0.
0.511961 0.0710431 0.
0.513962 0.0710421 0.
0.515962 0.0710411 0.
0.517963 0.0710401 0.
0.519963 0.0710391 0.
0.521964 0.0710382 0.
0.523965 0.0710377 0.
0.525965 0.0710373 0.
0.527966 0.071037 0.
0.529967 0.0710367 0.
0.531967 0.0710364 0.
0.533967 0.0710362 0.
0.535968 0.0710358 0.
0.537969 0.0710355 0.
0.53997 0.0710352 0.
0.54197 0.0710347 0.
0.543971 0.0710343 0.
0.545972 0.0710341 0.
0.547973 0.071034 0.
0.549973 0.0710339 0.
0.551975 0.0710337 0.
0.553977 0.0710336 0.
0.555979 0.0710335 0.
0.557979 0.071033 0.
0.55998 0.0710326 0.
0.561981 0.0710321 0.
0.563981 0.0710314 0.
0.565982 0.0710308 0.
0.567983 0.0710298 0.
0.569983 0.0710286 0.
0.571984 0.0710274 0.
0.573985 0.0710284 0.
0.575987 0.0710297 0.
0.577988 0.0710308 0.
0.579989 0.0710302 0.
0.58199 0.0710296 0.
0.583991 0.0710291 0.
0.585992 0.0710287 0.
0.587993 0.0710283 0.
0.589994 0.0710281 0.
0.591994 0.0710281 0.
0.593994 0.0710281 0.
0.595996 0.0710283 0.
0.597998 0.0710285 0.
0.6 0.0710287 0.
0.602002 0.0710281 0.
0.604004 0.0710274 0.
0.606006 0.0710272 0.
0.608006 0.0710283 0.
0.610007 0.0710294 0.
0.612007 0.0710301 0.
0.614008 0.0710301 0.
0.616008 0.0710302 0.
0.618009 0.0710306 0.
0.62001 0.0710311 0.
0.622011 0.0710316 0.
0.624012 0.0710321 0.
0.626014 0.0710324 0.
0.628015 0.0710329 0.
0.630015 0.0710343 0.
0.632016 0.0710357 0.
0.634017 0.0710366 0.
0.636018 0.0710366 0.
0.638019 0.0710366 0.
0.64002 0.0710369 0.
0.642021 0.0710374 0.
0.644021 0.0710379 0.
0.646023 0.0710381 0.
0.648025 0.0710383 0.
0.650026 0.0710385 0.
0.652028 0.0710384 0.
0.654029 0.0710383 0.
0.65603 0.0710384 0.
0.658031 0.0710391 0.
0.660031 0.0710399 0.
0.662032 0.0710403 0.
0.664032 0.0710402 0.
0.666033 0.0710402 0.
0.668033 0.071041 0.
0.670034 0.0710422 0.
0.672034 0.0710433 0.
0.674035 0.0710438 0.
0.676035 0.0710443 0.
0.678036 0.0710448 0.
0.680037 0.0710462 0.
0.682038 0.0710475 0.
0.684038 0.0710486 0.
0.686039 0.0710492 0.
0.688039 0.0710499 0.
0.690039 0.0710509 0.
0.692039 0.0710522 0.
0.694039 0.0710536 0.
0.69604 0.0710548 0.
0.698041 0.071056 0.
0.499959 0.0730503 0.
0.501959 0.0730493 0.
0.50396 0.0730484 0.
0.50596 0.0730473 0.
0.507961 0.0730458 0.
0.509962 0.0730442 0.
0.511962 0.073043 0.
0.513963 0.0730422 0.
0.515964 0.0730414 0.
0.517964 0.0730406 0.
0.519964 0.0730396 0.
0.521964 0.0730387 0.
0.523965 0.0730382 0.
0.525966 0.0730378 0.
0.527967 0.0730374 0.
0.529968 0.0730372 0.
0.531968 0.073037 0.
0.533969 0.0730367 0.
0.535969 0.0730362 0.
0.53797 0.0730357 0.
0.539971 0.0730353 0.
0.541971 0.0730351 0.
0.543972 0.0730348 0.
0.545973 0.0730343 0.
0.547974 0.0730339 0.
0.549975 0.0730334 0.
0.551976 0.0730334 0.
0.553977 0.0730335 0.
0.555978 0.0730334 0.
0.557979 0.0730327 0.
0.55998 0.073032 0.
0.561981 0.0730317 0.
0.563982 0.0730317 0.
0.565983 0.0730317 0.
0.567984 0.0730309 0.
0.569985 0.0730296 0.
0.571985 0.0730282 0.
0.573987 0.0730289 0.
0.575988 0.0730297 0.
0.577989 0.0730305 0.
0.57999 0.0730302 0.
0.581991 0.0730298 0.
0.583992 0.0730295 0.
0.585993 0.0730293 0.
0.587993 0.073029 0.
0.589994 0.0730288 0.
0.591995 0.0730287 0.
0.593995 0.0730285 0.
0.595997 0.0730284 0.
0.597999 0.0730282 0.
0.6 0.073028 0.
0.602002 0.0730278 0.
0.604003 0.0730277 0.
0.606005 0.0730279 0.
0.608005 0.073029 0.
0.610006 0.0730301 0.
0.612007 0.0730306 0.
0.614008 0.0730306 0.
0.616008 0.0730305 0.
0.618009 0.0730309 0.
0.62001 0.0730314 0.
0.622011 0.0730319 0.
0.624012 0.0730322 0.
0.626013 0.0730325 0.
0.628014 0.0730329 0.
0.630015 0.0730344 0.
0.632016 0.0730359 0.
0.634017 0.0730368 0.
0.636018 0.0730366 0.
0.638019 0.0730363 0.
0.640019 0.0730365 0.
0.64202 0.073037 0.
0.644021 0.0730375 0.
0.646023 0.0730378 0.
0.648024 0.0730382 0.
0.650026 0.0730385 0.
0.652027 0.0730386 0.
0.654028 0.0730388 0.
0.656029 0.073039 0.
0.658029 0.0730394 0.
0.66003 0.0730399 0.
0.66203 0.0730402 0.
0.664031 0.0730403 0.
0.666032 0.0730405 0.
0.668032 0.0730413 0.
0.670032 0.0730425 0.
0.672032 0.0730437 0.
0.674033 0.0730442 0.
0.676034 0.0730447 0.
0.678035 0.0730452 0.
0.680035 0.0730465 0.
0.682036 0.0730478 0.
0.684036 0.073049 0.
0.686037 0.0730498 0.
0.688038 0.0730507 0.
0.690038 0.0730517 0.
0.692038 0.0730528 0.
0.694038 0.073054 0.
0.696039 0.0730552 0.
0.698039 0.0730564 0.
0.499961 0.0750497 0.
0.501962 0.0750489 0.
0.503962 0.0750482 0.
0.505962 0.0750473 0.
0.507963 0.0750456 0.
0.509964 0.075044 0.
0.511964 0.0750429 0.
0.513964 0.0750423 0.
0.515965 0.0750418 0.
0.517965 0.075041 0.
0.519965 0.0750401 0.
0.521965 0.0750392 0.
0.523966 0.0750387 0.
0.525967 0.0750382 0.
0.527968 0.0750378 0.
0.529969 0.0750377 0.
0.531969 0.0750375 0.
0.53397 0.0750372 0.
0.535971 0.0750366 0.
0.537971 0.0750359 0.
0.539972 0.0750356 0.
0.541972 0.0750354 0.
0.543973 0.0750353 0.
0.545974 0.0750346 0.
0.547975 0.0750338 0.
0.549976 0.0750329 0.
0.551977 0.0750331 0.
0.553978 0.0750333 0.
0.555978 0.0750333 0.
0.557979 0.0750324 0.
0.55998 0.0750315 0.
0.561982 0.0750312 0.
0.563983 0.0750319 0.
0.565985 0.0750326 0.
0.567986 0.0750319 0.
0.569986 0.0750305 0.
0.571987 0.0750291 0.
0.573988 0.0750293 0.
0.57599 0.0750298 0.
0.577991 0.0750302 0.
0.579991 0.0750301 0.
0.581992 0.0750301 0.
0.583992 0.07503 0.
0.585993 0.0750298 0.
0.587994 0.0750297 0.
0.589994 0.0750295 0.
0.591996 0.0750293 0.
0.593997 0.075029 0.
0.595998 0.0750284 0.
0.597999 0.0750278 0.
0.600001 0.0750272 0.
0.602002 0.0750276 0.
0.604003 0.075028 0.
0.606004 0.0750286 0.
0.608004 0.0750297 0.
0.610005 0.0750308 0.
0.612006 0.0750313 0.
0.614007 0.075031 0.
0.616009 0.0750308 0.
0.61801 0.0750311 0.
0.620011 0.0750317 0.
0.622012 0.0750322 0.
0.624012 0.0750324 0.
0.626013 0.0750326 0.
0.628014 0.0750329 0.
0.630015 0.0750345 0.
0.632016 0.0750361 0.
0.634017 0.075037 0.
0.636017 0.0750366 0.
0.638018 0.0750361 0.
0.640019 0.0750362 0.
0.64202 0.0750366 0.
0.644021 0.075037 0.
0.646022 0.0750375 0.
0.648024 0.075038 0.
0.650025 0.0750386 0.
0.652026 0.0750389 0.
0.654026 0.0750392 0.
0.656027 0.0750395 0.
0.658028 0.0750397 0.
0.660028 0.0750399 0.
0.662029 0.0750402 0.
0.66403 0.0750405 0.
0.66603 0.0750407 0.
0.66803 0.0750416 0.
0.670031 0.0750429 0.
0.672031 0.0750441 0.
0.674032 0.0750446 0.
0.676033 0.0750451 0.
0.678034 0.0750456 0.
0.680034 0.0750469 0.
0.682034 0.0750482 0.
0.684034 0.0750494 0.
0.686035 0.0750504 0.
0.688036 0.0750514 0.
0.690037 0.0750525 0.
0.692037 0.0750534 0.
0.694037 0.0750544 0.
0.696037 0.0750556 0.
0.698036 0.0750568 0.
0.499962 0.0770495 0.
0.501963 0.0770486 0.
0.503963 0.0770477 0.
0.505964 0.0770468 0.
0.507964 0.0770457 0.
0.509965 0.0770447 0.
0.511965 0.0770437 0.
0.513965 0.077043 0.
0.515965 0.0770423 0.
0.517965 0.0770414 0.
0.519966 0.0770402 0.
0.521966 0.0770391 0.
0.523967 0.0770385 0.
0.525968 0.0770379 0.
0.527969 0.0770374 0.
0.529969 0.0770375 0.
0.53197 0.0770375 0.
0.533971 0.0770373 0.
0.535971 0.0770367 0.
0.537972 0.0770362 0.
0.539973 0.0770357 0.
0.541973 0.0770354 0.
0.543974 0.0770351 0.
0.545975 0.0770345 0.
0.547976 0.0770337 0.
0.549977 0.0770329 0.
0.551978 0.0770331 0.
0.553978 0.0770334 0.
0.555979 0.0770333 0.
0.55798 0.0770324 0.
0.559982 0.0770315 0.
0.561983 0.077031 0.
0.563984 0.0770311 0.
0.565985 0.0770312 0.
0.567986 0.0770307 0.
0.569987 0.0770299 0.
0.571987 0.0770291 0.
0.573988 0.0770295 0.
0.575989 0.07703 0.
0.57799 0.0770304 0.
0.579991 0.0770302 0.
0.581991 0.07703 0.
0.583992 0.0770298 0.
0.585993 0.0770295 0.
0.587994 0.0770293 0.
0.589995 0.0770291 0.
0.591996 0.0770288 0.
0.593997 0.0770285 0.
0.595998 0.0770282 0.
0.597999 0.0770279 0.
0.6 0.0770276 0.
0.602002 0.0770282 0.
0.604003 0.0770287 0.
0.606004 0.0770294 0.
0.608005 0.0770302 0.
0.610005 0.0770311 0.
0.612006 0.0770315 0.
0.614007 0.0770314 0.
0.616008 0.0770312 0.
0.618009 0.0770316 0.
0.62001 0.0770321 0.
0.62201 0.0770326 0.
0.624011 0.0770325 0.
0.626012 0.0770323 0.
0.628013 0.0770324 0.
0.630014 0.0770339 0.
0.632015 0.0770354 0.
0.634016 0.0770363 0.
0.636016 0.077036 0.
0.638017 0.0770357 0.
0.640018 0.0770359 0.
0.642019 0.0770363 0.
0.64402 0.0770367 0.
0.646021 0.0770375 0.
0.648022 0.0770384 0.
0.650023 0.0770392 0.
0.652024 0.0770393 0.
0.654025 0.0770394 0.
0.656025 0.0770395 0.
0.658026 0.0770396 0.
0.660027 0.0770396 0.
0.662027 0.07704 0.
0.664028 0.0770405 0.
0.666029 0.077041 0.
0.668029 0.0770418 0.
0.67003 0.0770428 0.
0.67203 0.0770437 0.
0.674031 0.0770444 0.
0.676032 0.0770451 0.
0.678033 0.0770458 0.
0.680033 0.0770472 0.
0.682033 0.0770485 0.
0.684033 0.0770496 0.
0.686034 0.0770505 0.
0.688034 0.0770513 0.
0.690035 0.0770524 0.
0.692035 0.0770537 0.
0.694035 0.077055 0.
0.696036 0.077056 0.
0.698036 0.0770568 0.
0.499963 0.0790493 0.
0.501963 0.0790483 0.
0.503964 0.0790473 0.
0.505965 0.0790463 0.
0.507965 0.0790458 0.
0.509965 0.0790453 0.
0.511966 0.0790446 0.
0.513966 0.0790437 0.
0.515966 0.0790429 0.
0.517966 0.0790417 0.
0.519967 0.0790403 0.
0.521967 0.0790389 0.
0.523968 0.0790382 0.
0.525969 0.0790376 0.
0.527969 0.0790371 0.
0.52997 0.0790373 0.
0.531971 0.0790374 0.
0.533971 0.0790374 0.
0.535972 0.0790369 0.
0.537973 0.0790364 0.
0.539974 0.0790359 0.
0.541974 0.0790354 0.
0.543975 0.079035 0.
0.545976 0.0790343 0.
0.547976 0.0790336 0.
0.549977 0.079033 0.
0.551978 0.0790332 0.
0.553979 0.0790334 0.
0.55598 0.0790334 0.
0.557982 0.0790325 0.
0.559983 0.0790315 0.
0.561984 0.0790308 0.
0.563985 0.0790303 0.
0.565986 0.0790297 0.
0.567986 0.0790295 0.
0.569987 0.0790293 0.
0.571988 0.0790292 0.
0.573988 0.0790297 0.
0.575989 0.0790303 0.
0.577989 0.0790307 0.
0.57999 0.0790303 0.
0.581991 0.0790299 0.
0.583992 0.0790296 0.
0.585993 0.0790293 0.
0.587994 0.079029 0.
0.589995 0.0790286 0.
0.591996 0.0790283 0.
0.593997 0.079028 0.
0.595998 0.0790279 0.
0.597999 0.0790279 0.
0.6 0.079028 0.
0.602002 0.0790287 0.
0.604004 0.0790294 0.
0.606005 0.0790302 0.
0.608005 0.0790308 0.
0.610006 0.0790315 0.
0.612006 0.0790318 0.
0.614007 0.0790317 0.
0.616007 0.0790317 0.
0.618008 0.079032 0.
0.620009 0.0790325 0.
0.622009 0.0790331 0.
0.62401 0.0790326 0.
0.626011 0.0790321 0.
0.628012 0.0790318 0.
0.630013 0.0790332 0.
0.632014 0.0790346 0.
0.634015 0.0790355 0.
0.636015 0.0790354 0.
0.638016 0.0790353 0.
0.640017 0.0790355 0.
0.642018 0.0790359 0.
0.644018 0.0790363 0.
0.64602 0.0790374 0.
0.648021 0.0790387 0.
0.650022 0.0790399 0.
0.652022 0.0790398 0.
0.654023 0.0790397 0.
0.656023 0.0790395 0.
0.658024 0.0790395 0.
0.660025 0.0790394 0.
0.662026 0.0790398 0.
0.664026 0.0790405 0.
0.666027 0.0790413 0.
0.668028 0.079042 0.
0.670029 0.0790427 0.
0.672029 0.0790434 0.
0.67403 0.0790443 0.
0.676031 0.0790451 0.
0.678031 0.0790461 0.
0.680032 0.0790474 0.
0.682032 0.0790488 0.
0.684032 0.07905 0.
0.686032 0.0790505 0.
0.688033 0.0790511 0.
0.690033 0.0790523 0.
0.692033 0.079054 0.
0.694034 0.0790557 0.
0.696034 0.0790564 0.
0.698035 0.0790569 0.
0.499964 0.0810492 0.
0.501964 0.0810483 0.
0.503965 0.0810472 0.
0.505966 0.0810463 0.
0.507966 0.0810459 0.
0.509966 0.0810456 0.
0.511966 0.081045 0.
0.513966 0.0810441 0.
0.515966 0.0810431 0.
0.517967 0.0810419 0.
0.519967 0.0810404 0.
0.521968 0.081039 0.
0.523969 0.0810384 0.
0.525969 0.0810379 0.
0.52797 0.0810374 0.
0.52997 0.0810374 0.
0.531971 0.0810374 0.
0.533972 0.0810373 0.
0.535973 0.0810368 0.
0.537974 0.0810363 0.
0.539974 0.0810358 0.
0.541975 0.0810352 0.
0.543976 0.0810346 0.
0.545976 0.0810341 0.
0.547977 0.0810335 0.
0.549978 0.0810329 0.
0.551979 0.0810329 0.
0.55398 0.081033 0.
0.555981 0.0810329 0.
0.557982 0.0810322 0.
0.559984 0.0810315 0.
0.561985 0.0810307 0.
0.563985 0.0810301 0.
0.565986 0.0810294 0.
0.567987 0.0810292 0.
0.569987 0.0810293 0.
0.571988 0.0810294 0.
0.573988 0.08103 0.
0.575989 0.0810305 0.
0.577989 0.0810309 0.
0.57999 0.0810304 0.
0.581991 0.0810299 0.
0.583992 0.0810295 0.
0.585993 0.0810292 0.
0.587994 0.0810288 0.
0.589995 0.0810285 0.
0.591996 0.0810282 0.
0.593997 0.0810279 0.
0.595998 0.0810279 0.
0.597999 0.0810281 0.
0.6 0.0810282 0.
0.602002 0.0810288 0.
0.604004 0.0810294 0.
0.606005 0.0810301 0.
0.608005 0.0810307 0.
0.610006 0.0810314 0.
0.612006 0.0810318 0.
0.614006 0.0810319 0.
0.616007 0.0810319 0.
0.618008 0.0810323 0.
0.620008 0.0810328 0.
0.622009 0.0810333 0.
0.62401 0.0810328 0.
0.626011 0.0810322 0.
0.628012 0.0810318 0.
0.630012 0.081033 0.
0.632013 0.0810342 0.
0.634014 0.081035 0.
0.636015 0.081035 0.
0.638015 0.081035 0.
0.640016 0.0810352 0.
0.642017 0.0810357 0.
0.644018 0.0810361 0.
0.646018 0.0810374 0.
0.64802 0.0810388 0.
0.650021 0.0810403 0.
0.652021 0.0810399 0.
0.654021 0.0810394 0.
0.656022 0.0810391 0.
0.658023 0.0810391 0.
0.660024 0.0810391 0.
0.662024 0.0810395 0.
0.664025 0.0810404 0.
0.666026 0.0810412 0.
0.668026 0.081042 0.
0.670027 0.0810426 0.
0.672028 0.0810433 0.
0.674029 0.0810442 0.
0.67603 0.0810451 0.
0.67803 0.0810461 0.
0.68003 0.0810476 0.
0.682031 0.0810491 0.
0.684031 0.0810503 0.
0.686031 0.0810507 0.
0.688032 0.0810511 0.
0.690032 0.0810524 0.
0.692032 0.0810544 0.
0.694032 0.0810564 0.
0.696033 0.081057 0.
0.698034 0.0810571 0.
0.499965 0.0830494 0.
0.501966 0.0830485 0.
0.503966 0.0830475 0.
0.505967 0.0830465 0.
0.507967 0.0830461 0.
0.509967 0.0830456 0.
0.511967 0.0830449 0.
0.513967 0.083044 0.
0.515967 0.0830431 0.
0.517968 0.0830419 0.
0.519968 0.0830406 0.
0.521969 0.0830392 0.
0.523969 0.0830389 0.
0.52597 0.0830386 0.
0.52797 0.0830383 0.
0.529971 0.0830379 0.
0.531972 0.0830375 0.
0.533973 0.083037 0.
0.535973 0.0830364 0.
0.537974 0.0830359 0.
0.539975 0.0830353 0.
0.541976 0.0830347 0.
0.543977 0.0830342 0.
0.545977 0.0830336 0.
0.547978 0.0830331 0.
0.549978 0.0830326 0.
0.551979 0.0830324 0.
0.55398 0.0830321 0.
0.555981 0.0830318 0.
0.557983 0.0830316 0.
0.559984 0.0830313 0.
0.561985 0.0830309 0.
0.563986 0.0830305 0.
0.565986 0.08303 0.
0.567987 0.0830298 0.
0.569987 0.0830299 0.
0.571988 0.0830299 0.
0.573988 0.0830303 0.
0.575989 0.0830307 0.
0.577989 0.083031 0.
0.57999 0.0830305 0.
0.581991 0.08303 0.
0.583992 0.0830296 0.
0.585993 0.0830293 0.
0.587994 0.0830289 0.
0.589995 0.0830286 0.
0.591996 0.0830284 0.
0.593997 0.0830282 0.
0.595998 0.0830282 0.
0.597999 0.0830282 0.
0.6 0.0830282 0.
0.602001 0.0830285 0.
0.604003 0.0830287 0.
0.606004 0.0830291 0.
0.608005 0.0830301 0.
0.610005 0.0830311 0.
0.612006 0.0830317 0.
0.614006 0.0830319 0.
0.616007 0.0830321 0.
0.618008 0.0830325 0.
0.620008 0.083033 0.
0.622009 0.0830335 0.
0.62401 0.0830331 0.
0.626011 0.0830326 0.
0.628012 0.0830323 0.
0.630012 0.0830332 0.
0.632013 0.083034 0.
0.634013 0.0830346 0.
0.636014 0.0830346 0.
0.638015 0.0830346 0.
0.640016 0.083035 0.
0.642016 0.0830356 0.
0.644017 0.0830362 0.
0.646018 0.0830374 0.
0.648019 0.0830388 0.
0.65002 0.0830403 0.
0.65202 0.0830395 0.
0.654021 0.0830388 0.
0.656021 0.0830383 0.
0.658022 0.0830385 0.
0.660023 0.0830388 0.
0.662023 0.0830393 0.
0.664024 0.0830401 0.
0.666025 0.0830409 0.
0.668025 0.0830418 0.
0.670026 0.0830426 0.
0.672027 0.0830435 0.
0.674028 0.0830443 0.
0.676028 0.083045 0.
0.678029 0.0830459 0.
0.680029 0.0830476 0.
0.68203 0.0830493 0.
0.68403 0.0830505 0.
0.686031 0.0830508 0.
0.688031 0.0830512 0.
0.690031 0.0830526 0.
0.692031 0.083055 0.
0.694031 0.0830574 0.
0.696031 0.0830577 0.
0.698032 0.0830574 0.
0.499967 0.0850498 0.
0.501967 0.0850487 0.
0.503967 0.0850477 0.
0.505967 0.0850468 0.
0.507967 0.0850462 0.
0.509968 0.0850456 0.
0.511968 0.0850449 0.
0.513968 0.085044 0.
0.515968 0.0850431 0.
0.517968 0.0850419 0.
0.519969 0.0850407 0.
0.52197 0.0850395 0.
0.52397 0.0850393 0.
0.525971 0.0850393 0.
0.527971 0.0850391 0.
0.529972 0.0850383 0.
0.531972 0.0850375 0.
0.533973 0.0850367 0.
0.535974 0.0850361 0.
0.537975 0.0850354 0.
0.539976 0.0850348 0.
0.541977 0.0850343 0.
0.543978 0.0850337 0.
0.545978 0.0850332 0.
0.547978 0.0850328 0.
0.549979 0.0850324 0.
0.55198 0.0850318 0.
0.553981 0.0850312 0.
0.555982 0.0850308 0.
0.557983 0.0850309 0.
0.559985 0.0850311 0.
0.561986 0.0850311 0.
0.563986 0.0850308 0.
0.565986 0.0850306 0.
0.567987 0.0850305 0.
0.569987 0.0850304 0.
0.571988 0.0850303 0.
0.573989 0.0850306 0.
0.575989 0.0850308 0.
0.57799 0.085031 0.
0.579991 0.0850306 0.
0.581992 0.0850301 0.
0.583993 0.0850297 0.
0.585993 0.0850294 0.
0.587994 0.085029 0.
0.589995 0.0850287 0.
0.591996 0.0850286 0.
0.593997 0.0850284 0.
0.595998 0.0850284 0.
0.597999 0.0850283 0.
0.6 0.0850283 0.
0.602001 0.0850282 0.
0.604002 0.085028 0.
0.606003 0.0850282 0.
0.608004 0.0850295 0.
0.610005 0.0850307 0.
0.612005 0.0850316 0.
0.614006 0.0850319 0.
0.616007 0.0850322 0.
0.618008 0.0850326 0.
0.620009 0.0850332 0.
0.62201 0.0850337 0.
0.62401 0.0850334 0.
0.626011 0.085033 0.
0.628012 0.0850328 0.
0.630012 0.0850333 0.
0.632012 0.0850339 0.
0.634012 0.0850342 0.
0.636014 0.0850343 0.
0.638015 0.0850343 0.
0.640015 0.0850347 0.
0.642016 0.0850354 0.
0.644016 0.0850362 0.
0.646017 0.0850374 0.
0.648018 0.0850388 0.
0.650018 0.0850402 0.
0.652019 0.0850392 0.
0.65402 0.0850382 0.
0.65602 0.0850374 0.
0.658021 0.0850379 0.
0.660021 0.0850384 0.
0.662022 0.085039 0.
0.664023 0.0850398 0.
0.666024 0.0850405 0.
0.668024 0.0850416 0.
0.670025 0.0850427 0.
0.672026 0.0850437 0.
0.674026 0.0850444 0.
0.676027 0.0850449 0.
0.678027 0.0850457 0.
0.680028 0.0850476 0.
0.682029 0.0850495 0.
0.684029 0.0850508 0.
0.68603 0.085051 0.
0.68803 0.0850512 0.
0.69003 0.0850529 0.
0.69203 0.0850556 0.
0.69403 0.0850584 0.
0.69603 0.0850584 0.
0.698031 0.0850577 0.
0.499969 0.0870491 0.
0.501969 0.0870486 0.
0.503969 0.0870479 0.
0.505969 0.0870472 0.
0.507969 0.0870464 0.
0.509969 0.0870456 0.
0.511969 0.0870447 0.
0.513969 0.0870436 0.
0.515969 0.0870426 0.
0.51797 0.0870416 0.
0.51997 0.0870406 0.
0.521971 0.0870395 0.
0.523971 0.0870393 0.
0.525972 0.0870392 0.
0.527972 0.0870389 0.
0.529973 0.087038 0.
0.531974 0.0870371 0.
0.533974 0.0870363 0.
0.535975 0.0870358 0.
0.537975 0.0870352 0.
0.539976 0.0870347 0.
0.541977 0.0870341 0.
0.543978 0.0870336 0.
0.545979 0.0870332 0.
0.547979 0.0870329 0.
0.549979 0.0870327 0.
0.55198 0.0870319 0.
0.553981 0.0870311 0.
0.555982 0.0870305 0.
0.557984 0.0870305 0.
0.559985 0.0870306 0.
0.561986 0.0870306 0.
0.563986 0.0870306 0.
0.565987 0.0870306 0.
0.567987 0.0870307 0.
0.569988 0.0870307 0.
0.571988 0.0870308 0.
0.573989 0.0870307 0.
0.575989 0.0870307 0.
0.57799 0.0870305 0.
0.579991 0.0870301 0.
0.581992 0.0870297 0.
0.583992 0.0870293 0.
0.585993 0.0870291 0.
0.587994 0.0870289 0.
0.589995 0.0870286 0.
0.591996 0.0870284 0.
0.593997 0.0870281 0.
0.595998 0.0870279 0.
0.597999 0.0870277 0.
0.6 0.0870275 0.
0.602001 0.0870278 0.
0.604002 0.0870281 0.
0.606002 0.0870286 0.
0.608003 0.0870296 0.
0.610004 0.0870306 0.
0.612005 0.0870314 0.
0.614005 0.0870321 0.
0.616006 0.0870327 0.
0.618007 0.087033 0.
0.620008 0.0870332 0.
0.622009 0.0870334 0.
0.62401 0.0870332 0.
0.626011 0.087033 0.
0.628012 0.0870328 0.
0.630012 0.087033 0.
0.632012 0.0870332 0.
0.634013 0.0870335 0.
0.636013 0.087034 0.
0.638014 0.0870345 0.
0.640015 0.087035 0.
0.642015 0.0870354 0.
0.644015 0.0870358 0.
0.646016 0.0870369 0.
0.648017 0.0870381 0.
0.650018 0.0870393 0.
0.652019 0.0870386 0.
0.654019 0.0870379 0.
0.65602 0.0870375 0.
0.65802 0.0870381 0.
0.66002 0.0870387 0.
0.662021 0.0870393 0.
0.664022 0.0870398 0.
0.666023 0.0870403 0.
0.668023 0.0870413 0.
0.670024 0.0870425 0.
0.672025 0.0870436 0.
0.674025 0.0870444 0.
0.676026 0.0870452 0.
0.678026 0.0870461 0.
0.680027 0.0870475 0.
0.682027 0.0870489 0.
0.684028 0.0870502 0.
0.686028 0.0870511 0.
0.688028 0.0870521 0.
0.690028 0.0870536 0.
0.692028 0.0870556 0.
0.694028 0.0870575 0.
0.696029 0.0870582 0.
0.698029 0.0870586 0.
0.499971 0.0890489 0.
0.501971 0.0890486 0.
0.50397 0.0890481 0.
0.50597 0.0890475 0.
0.50797 0.0890465 0.
0.50997 0.0890455 0.
0.511971 0.0890445 0.
0.513971 0.0890433 0.
0.515971 0.0890421 0.
0.517971 0.0890412 0.
0.519971 0.0890404 0.
0.521971 0.0890396 0.
0.523972 0.0890394 0.
0.525973 0.0890391 0.
0.527974 0.0890387 0.
0.529974 0.0890377 0.
0.531975 0.0890367 0.
0.533975 0.0890359 0.
0.535975 0.0890354 0.
0.537976 0.089035 0.
0.539977 0.0890345 0.
0.541978 0.089034 0.
0.543979 0.0890335 0.
0.545979 0.0890332 0.
0.547979 0.089033 0.
0.549979 0.0890329 0.
0.55198 0.089032 0.
0.553982 0.089031 0.
0.555983 0.0890303 0.
0.557984 0.0890302 0.
0.559985 0.0890301 0.
0.561985 0.0890302 0.
0.563986 0.0890304 0.
0.565987 0.0890307 0.
0.567987 0.0890309 0.
0.569988 0.0890311 0.
0.571988 0.0890313 0.
0.573989 0.0890309 0.
0.575989 0.0890305 0.
0.577989 0.08903 0.
0.57999 0.0890296 0.
0.581991 0.0890293 0.
0.583992 0.089029 0.
0.585993 0.0890289 0.
0.587994 0.0890288 0.
0.589995 0.0890286 0.
0.591996 0.0890282 0.
0.593998 0.0890278 0.
0.595999 0.0890274 0.
0.598 0.0890271 0.
0.600001 0.0890267 0.
0.602001 0.0890275 0.
0.604001 0.0890282 0.
0.606001 0.0890289 0.
0.608002 0.0890297 0.
0.610003 0.0890305 0.
0.612004 0.0890314 0.
0.614004 0.0890323 0.
0.616005 0.0890332 0.
0.618006 0.0890335 0.
0.620007 0.0890333 0.
0.622008 0.0890332 0.
0.624009 0.089033 0.
0.62601 0.0890329 0.
0.628011 0.0890328 0.
0.630012 0.0890326 0.
0.632012 0.0890325 0.
0.634013 0.0890328 0.
0.636013 0.0890338 0.
0.638013 0.0890347 0.
0.640014 0.0890352 0.
0.642014 0.0890354 0.
0.644015 0.0890355 0.
0.646016 0.0890363 0.
0.648017 0.0890373 0.
0.650018 0.0890383 0.
0.652019 0.089038 0.
0.654019 0.0890377 0.
0.656019 0.0890376 0.
0.658019 0.0890383 0.
0.66002 0.089039 0.
0.66202 0.0890395 0.
0.664021 0.0890398 0.
0.666022 0.0890401 0.
0.668022 0.089041 0.
0.670023 0.0890422 0.
0.672024 0.0890435 0.
0.674024 0.0890445 0.
0.676024 0.0890455 0.
0.678025 0.0890465 0.
0.680025 0.0890474 0.
0.682026 0.0890484 0.
0.684026 0.0890496 0.
0.686026 0.0890513 0.
0.688026 0.089053 0.
0.690027 0.0890544 0.
0.692027 0.0890555 0.
0.694027 0.0890567 0.
0.696027 0.089058 0.
0.698027 0.0890595 0.
0.499972 0.0910488 0.
0.501972 0.0910486 0.
0.503972 0.0910482 0.
0.505972 0.0910477 0.
0.507972 0.0910467 0.
0.509972 0.0910456 0.
0.511972 0.0910445 0.
0.513972 0.0910432 0.
0.515972 0.091042 0.
0.517972 0.091041 0.
0.519972 0.0910402 0.
0.521972 0.0910393 0.
0.523973 0.0910391 0.
0.525974 0.0910388 0.
0.527975 0.0910386 0.
0.529975 0.0910375 0.
0.531975 0.0910364 0.
0.533976 0.0910356 0.
0.535976 0.0910352 0.
0.537976 0.0910348 0.
0.539977 0.0910343 0.
0.541978 0.0910338 0.
0.543979 0.0910333 0.
0.545979 0.091033 0.
0.54798 0.0910328 0.
0.54998 0.0910325 0.
0.551981 0.0910316 0.
0.553982 0.0910306 0.
0.555983 0.0910298 0.
0.557984 0.0910296 0.
0.559985 0.0910294 0.
0.561985 0.0910295 0.
0.563986 0.09103 0.
0.565987 0.0910306 0.
0.567987 0.0910308 0.
0.569988 0.091031 0.
0.571988 0.0910312 0.
0.573989 0.0910306 0.
0.575989 0.0910301 0.
0.57799 0.0910295 0.
0.579991 0.0910292 0.
0.581992 0.0910289 0.
0.583992 0.0910287 0.
0.585993 0.0910287 0.
0.587994 0.0910286 0.
0.589995 0.0910284 0.
0.591996 0.0910279 0.
0.593997 0.0910274 0.
0.595999 0.091027 0.
0.598 0.0910267 0.
0.600001 0.0910263 0.
0.602001 0.0910273 0.
0.604001 0.0910283 0.
0.606001 0.0910291 0.
0.608002 0.0910298 0.
0.610002 0.0910304 0.
0.612003 0.0910311 0.
0.614004 0.091032 0.
0.616004 0.091033 0.
0.618006 0.0910332 0.
0.620007 0.0910332 0.
0.622008 0.0910331 0.
0.624009 0.091033 0.
0.62601 0.091033 0.
0.628011 0.0910329 0.
0.630011 0.0910327 0.
0.632012 0.0910325 0.
0.634013 0.0910327 0.
0.636013 0.0910337 0.
0.638013 0.0910347 0.
0.640013 0.0910352 0.
0.642014 0.0910352 0.
0.644015 0.0910352 0.
0.646016 0.0910361 0.
0.648017 0.0910372 0.
0.650018 0.0910383 0.
0.652018 0.091038 0.
0.654018 0.0910378 0.
0.656019 0.0910378 0.
0.658019 0.0910385 0.
0.660019 0.0910391 0.
0.662019 0.0910396 0.
0.66402 0.0910397 0.
0.666021 0.0910398 0.
0.668021 0.0910406 0.
0.670022 0.0910419 0.
0.672022 0.0910432 0.
0.674023 0.0910445 0.
0.676023 0.0910457 0.
0.678024 0.0910469 0.
0.680024 0.0910476 0.
0.682024 0.0910484 0.
0.684025 0.0910496 0.
0.686025 0.0910514 0.
0.688025 0.0910532 0.
0.690025 0.0910546 0.
0.692025 0.0910556 0.
0.694025 0.0910566 0.
0.696025 0.091058 0.
0.698025 0.0910595 0.
0.499973 0.0930497 0.
0.501973 0.0930489 0.
0.503973 0.0930484 0.
0.505973 0.0930477 0.
0.507973 0.0930467 0.
0.509973 0.0930457 0.
0.511973 0.0930447 0.
0.513973 0.0930435 0.
0.515974 0.0930423 0.
0.517974 0.0930411 0.
0.519974 0.0930398 0.
0.521974 0.0930386 0.
0.523974 0.0930384 0.
0.525975 0.0930384 0.
0.527975 0.0930384 0.
0.529975 0.0930373 0.
0.531976 0.0930362 0.
0.533976 0.0930354 0.
0.535976 0.0930349 0.
0.537976 0.0930345 0.
0.539977 0.093034 0.
0.541978 0.0930336 0.
0.543978 0.0930331 0.
0.545979 0.0930326 0.
0.54798 0.0930321 0.
0.549981 0.0930316 0.
0.551982 0.0930307 0.
0.553983 0.0930299 0.
0.555983 0.0930291 0.
0.557984 0.0930288 0.
0.559984 0.0930285 0.
0.561985 0.0930287 0.
0.563986 0.0930295 0.
0.565986 0.0930303 0.
0.567987 0.0930306 0.
0.569988 0.0930305 0.
0.571988 0.0930304 0.
0.573989 0.09303 0.
0.57599 0.0930295 0.
0.577991 0.093029 0.
0.579992 0.0930289 0.
0.581992 0.0930287 0.
0.583993 0.0930286 0.
0.585993 0.0930285 0.
0.587994 0.0930284 0.
0.589995 0.0930281 0.
0.591996 0.0930275 0.
0.593996 0.0930269 0.
0.595997 0.0930267 0.
0.597998 0.0930265 0.
0.599999 0.0930264 0.
0.602 0.0930273 0.
0.604 0.0930283 0.
0.606001 0.0930292 0.
0.608001 0.0930298 0.
0.610002 0.0930303 0.
0.612002 0.0930308 0.
0.614003 0.0930314 0.
0.616004 0.0930319 0.
0.618005 0.0930323 0.
0.620006 0.0930327 0.
0.622008 0.0930331 0.
0.624008 0.0930331 0.
0.626009 0.0930331 0.
0.62801 0.0930332 0.
0.630011 0.0930331 0.
0.632012 0.093033 0.
0.634012 0.0930332 0.
0.636012 0.0930339 0.
0.638012 0.0930345 0.
0.640013 0.0930349 0.
0.642014 0.093035 0.
0.644015 0.093035 0.
0.646015 0.0930361 0.
0.648016 0.0930376 0.
0.650017 0.093039 0.
0.652017 0.0930386 0.
0.654018 0.0930383 0.
0.656018 0.0930381 0.
0.658018 0.0930386 0.
0.660018 0.0930391 0.
0.662019 0.0930394 0.
0.664019 0.0930393 0.
0.66602 0.0930392 0.
0.66802 0.0930401 0.
0.670021 0.0930415 0.
0.672021 0.0930429 0.
0.674022 0.0930443 0.
0.676022 0.0930458 0.
0.678023 0.0930472 0.
0.680023 0.0930481 0.
0.682023 0.0930491 0.
0.684023 0.0930501 0.
0.686023 0.0930516 0.
0.688023 0.093053 0.
0.690023 0.0930544 0.
0.692023 0.0930557 0.
0.694023 0.0930571 0.
0.696023 0.093058 0.
0.698023 0.0930587 0.
0.499973 0.0950499 0.
0.501974 0.0950491 0.
0.503974 0.0950485 0.
0.505974 0.0950477 0.
0.507974 0.0950468 0.
0.509975 0.0950459 0.
0.511975 0.0950449 0.
0.513975 0.0950437 0.
0.515975 0.0950426 0.
0.517975 0.0950411 0.
0.519975 0.0950395 0.
0.521975 0.0950379 0.
0.523975 0.0950378 0.
0.525975 0.095038 0.
0.527975 0.0950381 0.
0.529976 0.0950371 0.
0.531976 0.0950361 0.
0.533976 0.0950352 0.
0.535976 0.0950347 0.
0.537977 0.0950342 0.
0.539977 0.0950338 0.
0.541977 0.0950333 0.
0.543978 0.0950329 0.
0.545979 0.0950322 0.
0.54798 0.0950314 0.
0.549982 0.0950307 0.
0.551982 0.0950299 0.
0.553983 0.0950292 0.
0.555984 0.0950285 0.
0.557984 0.0950281 0.
0.559984 0.0950277 0.
0.561985 0.0950279 0.
0.563985 0.095029 0.
0.565986 0.0950301 0.
0.567986 0.0950303 0.
0.569987 0.09503 0.
0.571988 0.0950297 0.
0.57399 0.0950293 0.
0.575991 0.0950289 0.
0.577992 0.0950286 0.
0.579993 0.0950285 0.
0.581993 0.0950285 0.
0.583993 0.0950284 0.
0.585993 0.0950283 0.
0.587994 0.0950282 0.
0.589994 0.0950277 0.
0.591995 0.0950271 0.
0.593995 0.0950264 0.
0.595996 0.0950263 0.
0.597997 0.0950263 0.
0.599998 0.0950264 0.
0.601999 0.0950274 0.
0.604 0.0950284 0.
0.606001 0.0950293 0.
0.608001 0.0950298 0.
0.610001 0.0950302 0.
0.612001 0.0950306 0.
0.614002 0.0950307 0.
0.616003 0.0950308 0.
0.618004 0.0950314 0.
0.620006 0.0950323 0.
0.622007 0.0950332 0.
0.624008 0.0950333 0.
0.626008 0.0950333 0.
0.628009 0.0950334 0.
0.63001 0.0950335 0.
0.632011 0.0950335 0.
0.634012 0.0950337 0.
0.636012 0.095034 0.
0.638012 0.0950343 0.
0.640013 0.0950346 0.
0.642014 0.0950347 0.
0.644015 0.0950348 0.
0.646015 0.0950362 0.
0.648016 0.095038 0.
0.650016 0.0950398 0.
0.652016 0.0950393 0.
0.654017 0.0950387 0.
0.656017 0.0950383 0.
0.658018 0.0950387 0.
0.660018 0.0950391 0.
0.662018 0.0950392 0.
0.664018 0.095039 0.
0.666018 0.0950387 0.
0.668019 0.0950396 0.
0.670019 0.0950411 0.
0.67202 0.0950425 0.
0.67402 0.0950442 0.
0.676021 0.0950459 0.
0.678021 0.0950475 0.
0.680022 0.0950486 0.
0.682022 0.0950497 0.
0.684022 0.0950507 0.
0.686022 0.0950517 0.
0.688021 0.0950527 0.
0.690021 0.0950542 0.
0.692021 0.0950559 0.
0.694021 0.0950576 0.
0.696021 0.095058 0.
0.698021 0.095058 0.
0.499975 0.0970495 0.
0.501975 0.0970488 0.
0.503976 0.0970479 0.
0.505976 0.0970471 0.
0.507977 0.0970463 0.
0.509977 0.0970456 0.
0.511977 0.0970447 0.
0.513977 0.0970438 0.
0.515976 0.0970429 0.
0.517976 0.0970416 0.
0.519977 0.09704 0.
0.521977 0.0970385 0.
0.523977 0.0970383 0.
0.525976 0.0970382 0.
0.527976 0.0970381 0.
0.529977 0.0970372 0.
0.531977 0.0970363 0.
0.533978 0.0970355 0.
0.535978 0.0970351 0.
0.537979 0.0970347 0.
0.539979 0.097034 0.
0.54198 0.097033 0.
0.54398 0.097032 0.
0.545981 0.0970314 0.
0.547981 0.0970309 0.
0.549982 0.0970304 0.
0.551983 0.09703 0.
0.553983 0.0970296 0.
0.555984 0.0970291 0.
0.557984 0.0970283 0.
0.559984 0.0970275 0.
0.561985 0.0970275 0.
0.563985 0.0970283 0.
0.565986 0.0970291 0.
0.567987 0.0970293 0.
0.569987 0.0970291 0.
0.571988 0.097029 0.
0.573989 0.0970287 0.
0.57599 0.0970283 0.
0.577992 0.0970281 0.
0.579992 0.0970283 0.
0.581993 0.0970284 0.
0.583993 0.0970285 0.
0.585994 0.0970282 0.
0.587994 0.097028 0.
0.589995 0.0970275 0.
0.591995 0.0970268 0.
0.593995 0.097026 0.
0.595996 0.0970262 0.
0.597996 0.0970266 0.
0.599997 0.097027 0.
0.601998 0.0970276 0.
0.603999 0.0970281 0.
0.606 0.0970287 0.
0.608 0.0970293 0.
0.610001 0.0970298 0.
0.612001 0.0970302 0.
0.614002 0.0970303 0.
0.616002 0.0970305 0.
0.618003 0.0970313 0.
0.620004 0.0970324 0.
0.622006 0.0970335 0.
0.624007 0.0970334 0.
0.626008 0.0970332 0.
0.628009 0.097033 0.
0.63001 0.0970328 0.
0.63201 0.0970327 0.
0.634011 0.0970327 0.
0.636012 0.0970332 0.
0.638012 0.0970337 0.
0.640013 0.0970342 0.
0.642013 0.0970345 0.
0.644014 0.0970349 0.
0.646014 0.0970361 0.
0.648015 0.0970375 0.
0.650015 0.0970389 0.
0.652016 0.0970388 0.
0.654016 0.0970387 0.
0.656016 0.0970387 0.
0.658017 0.0970389 0.
0.660018 0.0970392 0.
0.662018 0.0970392 0.
0.664019 0.0970389 0.
0.666019 0.0970387 0.
0.668019 0.0970395 0.
0.67002 0.0970408 0.
0.67202 0.0970422 0.
0.67402 0.0970439 0.
0.67602 0.0970457 0.
0.67802 0.0970474 0.
0.68002 0.0970487 0.
0.68202 0.0970499 0.
0.68402 0.0970509 0.
0.68602 0.0970518 0.
0.68802 0.0970526 0.
0.69002 0.097054 0.
0.69202 0.0970559 0.
0.69402 0.0970577 0.
0.69602 0.0970584 0.
0.698021 0.0970587 0.
0.499976 0.0990494 0.
0.501977 0.0990484 0.
0.503978 0.0990474 0.
0.505979 0.0990465 0.
0.507979 0.0990458 0.
0.509979 0.0990452 0.
0.511978 0.0990446 0.
0.513978 0.0990439 0.
0.515978 0.0990432 0.
0.517978 0.099042 0.
0.519978 0.0990405 0.
0.521978 0.099039 0.
0.523978 0.0990387 0.
0.525977 0.0990384 0.
0.527977 0.0990381 0.
0.529978 0.0990373 0.
0.531979 0.0990365 0.
0.533979 0.0990358 0.
0.53598 0.0990355 0.
0.537981 0.0990352 0.
0.539981 0.0990342 0.
0.541982 0.0990327 0.
0.543982 0.0990312 0.
0.545982 0.0990306 0.
0.547982 0.0990304 0.
0.549982 0.0990302 0.
0.551983 0.0990301 0.
0.553984 0.09903 0.
0.555984 0.0990297 0.
0.557984 0.0990285 0.
0.559984 0.0990274 0.
0.561984 0.099027 0.
0.563985 0.0990276 0.
0.565986 0.0990281 0.
0.567987 0.0990283 0.
0.569987 0.0990282 0.
0.571988 0.0990282 0.
0.573989 0.099028 0.
0.57599 0.0990277 0.
0.577991 0.0990276 0.
0.579992 0.099028 0.
0.581993 0.0990284 0.
0.583993 0.0990285 0.
0.585994 0.0990281 0.
0.587995 0.0990278 0.
0.589995 0.0990272 0.
0.591995 0.0990264 0.
0.593995 0.0990257 0.
0.595995 0.0990261 0.
0.597996 0.0990268 0.
0.599997 0.0990276 0.
0.601998 0.0990277 0.
0.603998 0.0990279 0.
0.605999 0.0990282 0.
0.608 0.0990288 0.
0.610001 0.0990295 0.
0.612001 0.0990299 0.
0.614001 0.09903 0.
0.616001 0.0990301 0.
0.618002 0.0990311 0.
0.620003 0.0990325 0.
0.622004 0.0990339 0.
0.624006 0.0990336 0.
0.626008 0.099033 0.
0.628009 0.0990325 0.
0.630009 0.0990322 0.
0.63201 0.0990318 0.
0.63401 0.0990318 0.
0.636011 0.0990324 0.
0.638013 0.0990331 0.
0.640013 0.0990337 0.
0.642013 0.0990344 0.
0.644013 0.099035 0.
0.646013 0.0990359 0.
0.648014 0.0990369 0.
0.650014 0.0990379 0.
0.652015 0.0990383 0.
0.654015 0.0990388 0.
0.656016 0.0990391 0.
0.658017 0.0990392 0.
0.660018 0.0990393 0.
0.662019 0.0990391 0.
0.664019 0.0990389 0.
0.66602 0.0990386 0.
0.66802 0.0990393 0.
0.67002 0.0990406 0.
0.67202 0.0990419 0.
0.674019 0.0990437 0.
0.676019 0.0990455 0.
0.678019 0.0990474 0.
0.680019 0.0990487 0.
0.682019 0.0990501 0.
0.684019 0.0990512 0.
0.686018 0.0990518 0.
0.688018 0.0990524 0.
0.690018 0.0990539 0.
0.692019 0.0990559 0.
0.694019 0.0990578 0.
0.69602 0.0990588 0.
0.69802 0.0990594 0.
CELLS 5000 10000
1 0
1 1
1 2
1 3
1 4
1 5
1 6
1 7
1 8
1 9
1 10
1 11
1 12
1 13
1 14
1 15
1 16
1 17
1 18
1 19
1 20
1 21
1 22
1 23
1 24
1 25
1 26
1 27
1 28
1 29
1 30
1 31
1 32
1 33
1 34
1 35
1 36
1 37
1 38
1 39
1 40
1 41
1 42
1 43
1 44
1 45
1 46
1 47
1 48
1 49
1 50
1 51
1 52
1 53
1 54
1 55
1 56
1 57
1 58
1 59
1 60
1 61
1 62
1 63
1 64
1 65
1 66
1 67
1 68
1 69
1 70
1 71
1 72
1 73
1 74
1 75
1 76
1 77
1 78
1 79
1 80
1 81
1 82
1 83
1 84
1 85
1 86
1 87
1 88
1 89
1 90
1 91
1 92
1 93
1 94
1 95
1 96
1 97
1 98
1 99
1 100
1 101
1 102
1 103
1 104
1 105
1 106
1 107
1 108
1 109
1 110
1 111
1 112
1 113
1 114
1 115
1 116
1 117
1 118
1 119
1 120
1 121
1 122
1 123
1 124
1 125
1 126
1 127
1 128
1 129
1 130
1 131
1 132
1 133
1 134
1 135
1 136
1 137
1 138
1 139
1 140
1 141
1 142
1 143
1 144
1 145
1 146
1 147
1 148
1 149
1 150
1 151
1 152
1 153
1 154
1 155
1 156
1 157
1 158
1 159
1 160
1 161
1 162
1 163
1 164
1 165
1 166
1 167
1 168
1 169
1 170
1 171
1 172
1 173
1 174
1 175
1 176
1 177
1 178
1 179
1 180
1 181
1 182
1 183
1 184
1 185
1 186
1 187
1 188
1 189
1 190
1 191
1 192
1 193
1 194
1 195
1 196
1 197
1 198
1 199
1 200
1 201
1 202
1 203
1 204
1 205
1 206
1 207
1 208
1 209
1 210
1 211
1 212
1 213
1 214
1 215
1 216
1 217
1 218
1 219
1 220
1 221
1 222
1 223
1 224
1 225
1 226
1 227
1 228
1 229
1 230
1 231
1 232
1 233
1 234
1 235
1 236
1 237
1 238
1 239
1 240
1 241
1 242
1 243
1 244
1 245
1 246
1 247
1 248
1 249
1 250
1 251
1 252
1 253
1 254
1 255
1 256
1 257
1 258
1 259
1 260
1 261
1 262
1 263
1 264
1 265
1 266
1 267
1 268
1 269
1 270
1 271
1 272
1 273
1 274
1 275
1 276
1 277
1 278
1 279
1 280
1 281
1 282
1 283
1 284
1 285
1 286
1 287
1 288
1 289
1 290
1 291
1 292
1 293
1 294
1 295
1 296
1 297
1 298
1 299
1 300
1 301
1 302
1 303
1 304
1 305
1 306
1 307
1 308
1 309
1 310
1 311
1 312
1 313
1 314
1 315
1 316
1 317
1 318
1 319
1 320
1 321
1 322
1 323
1 324
1 325
1 326
1 327
1 328
1 329
1 330
1 331
1 332
1 333
1 334
1 335
1 336
1 337
1 338
1 339
1 340
1 341
1 342
1 343
1 344
1 345
1 346
1 347
1 348
1 349
1 350
1 351
1 352
1 353
1 354
1 355
1 356
1 357
1 358
1 359
1 360
1 361
1 362
1 363
1 364
1 365
1 366
1 367
1 368
1 369
1 370
1 371
1 372
1 373
1 374
1 375
1 376
1 377
1 378
1 379
1 380
1 381
1 382
1 383
1 384
1 385
1 386
1 387
1 388
1 389
1 390
1 391
1 392
1 393
1 394
1 395
1 396
1 397
1 398
1 399
1 400
1 401
1 402
1 403
1 404
1 405
1 406
1 407
1 408
1 409
1 410
1 411
1 412
1 413
1 414
1 415
1 416
1 417
1 418
1 419
1 420
1 421
1 422
1 423
1 424
1 425
1 426
1 427
1 428
1 429
1 430
1 431
1 432
1 433
1 434
1 435
1 436
1 437
1 438
1 439
1 440
1 441
1 442
1 443
1 444
1 445
1 446
1 447
1 448
1 449
1 450
1 451
1 452
1 453
1 454
1 455
1 456
1 457
1 458
1 459
1 460
1 461
1 462
1 463
1 464
1 465
1 466
1 467
1 468
1 469
1 470
1 471
1 472
1 473
1 474
1 475
1 476
1 477
1 478
1 479
1 480
1 481
1 482
1 483
1 484
1 485
1 486
1 487
1 488
1 489
1 490
1 491
1 492
1 493
1 494
1 495
1 496
1 497
1 498
1 499
1 500
1 501
1 502
1 503
1 504
1 505
1 506
1 507
1 508
1 509
1 510
1 511
1 512
1 513
1 514
1 515
1 516
1 517
1 518
1 519
1 520
1 521
1 522
1 523
1 524
1 525
1 526
1 527
1 528
1 529
1 530
1 531
1 532
1 533
1 534
1 535
1 536
1 537
1 538
1 539
1 540
1 541
1 542
1 543
1 544
1 545
1 546
1 547
1 548
1 549
1 550
1 551
1 552
1 553
1 554
1 555
1 556
1 557
1 558
1 559
1 560
1 561
1 562
1 563
1 564
1 565
1 566
1 567
1 568
1 569
1 570
1 571
1 572
1 573
1 574
1 575
1 576
1 577
1 578
1 579
1 580
1 581
1 582
1 583
1 584
1 585
1 586
1 587
1 588
1 589
1 590
1 591
1 592
1 593
1 594
1 595
1 596
1 597
1 598
1 599
1 600
1 601
1 602
1 603
1 604
1 605
1 606
1 607
1 608
1 609
1 610
1 611
1 612
1 613
1 614
1 615
1 616
1 617
1 618
1 619
1 620
1 621
1 622
1 623
1 624
1 625
1 626
1 627
1 628
1 629
1 630
1 631
1 632
1 633
1 634
1 635
1 636
1 637
1 638
1 639
1 640
1 641
1 642
1 643
1 644
1 645
1 646
1 647
1 648
1 649
1 650
1 651
1 652
1 653
1 654
1 655
1 656
1 657
1 658
1 659
1 660
1 661
1 662
1 663
1 664
1 665
1 666
1 667
1 668
1 669
1 670
1 671
1 672
1 673
1 674
1 675
1 676
1 677
1 678
1 679
1 680
1 681
1 682
1 683
1 684
1 685
1 686
1 687
1 688
1 689
1 690
1 691
1 692
1 693
1 694
1 695
1 696
1 697
1 698
1 699
1 700
1 701
1 702
1 703
1 704
1 705
1 706
1 707
1 708
1 709
1 710
1 711
1 712
1 713
1 714
1 715
1 716
1 717
1 718
1 719
1 720
1 721
1 722
1 723
1 724
1 725
1 726
1 727
1 728
1 729
1 730
1 731
1 732
1 733
1 734
1 735
1 736
1 737
1 738
1 739
1 740
1 741
1 742
1 743
1 744
1 745
1 746
1 747
1 748
1 749
1 750
1 751
1 752
1 753
1 754
1 755
1 756
1 757
1 758
1 759
1 760
1 761
1 762
1 763
1 764
1 765
1 766
1 767
1 768
1 769
1 770
1 771
1 772
1 773
1 774
1 775
1 776
1 777
1 778
1 779
1 780
1 781
1 782
1 783
1 784
1 785
1 786
1 787
1 788
1 789
1 790
1 791
1 792
1 793
1 794
1 795
1 796
1 797
1 798
1 799
1 800
1 801
1 802
1 803
1 804
1 805
1 806
1 807
1 808
1 809
1 810
1 811
1 812
1 813
1 814
1 815
1 816
1 817
1 818
1 819
1 820
1 821
1 822
1 823
1 824
1 825
1 826
1 827
1 828
1 829
1 830
1 831
1 832
1 833
1 834
1 835
1 836
1 837
1 838
1 839
1 840
1 841
1 842
1 843
1 844
1 845
1 846
1 847
1 848
1 849
1 850
1 851
1 852
1 853
1 854
1 855
1 856
1 857
1 858
1 859
1 860
1 861
1 862
1 863
1 864
1 865
1 866
1 867
1 868
1 869
1 870
1 871
1 872
1 873
1 874
1 875
1 876
1 877
1 878
1 879
1 880
1 881
1 882
1 883
1 884
1 885
1 886
1 887
1 888
1 889
1 890
1 891
1 892
1 893
1 894
1 895
1 896
1 897
1 898
1 899
1 900
1 901
1 902
1 903
1 904
1 905
1 906
1 907
1 908
1 909
1 910
1 911
1 912
1 913
1 914
1 915
1 916
1 917
1 918
1 919
1 920
1 921
1 922
1 923
1 924
1 925
1 926
1 927
1 928
1 929
1 930
1 931
1 932
1 933
1 934
1 935
1 936
1 937
1 938
1 939
1 940
1 941
1 942
1 943
1 944
1 945
1 946
1 947
1 948
1 949
1 950
1 951
1 952
1 953
1 954
1 955
1 956
1 957
1 958
1 959
1 960
1 961
1 962
1 963
1 964
1 965
1 966
1 967
1 968
1 969
1 970
1 971
1 972
1 973
1 974
1 975
1 976
1 977
1 978
1 979
1 980
1 981
1 982
1 983
1 984
1 985
1 986
1 987
1 988
1 989
1 990
1 991
1 992
1 993
1 994
1 995
1 996
1 997
1 998
1 999
1 1000
1 1001
1 1002
1 1003
1 1004
1 1005
1 1006
1 1007
1 1008
1 1009
1 1010
1 1011
1 1012
1 1013
1 1014
1 1015
1 1016
1 1017
1 1018
1 1019
1 1020
1 1021
1 1022
1 1023
1 1024
1 1025
1 1026
1 1027
1 1028
1 1029
1 1030
1 1031
1 1032
1 1033
1 1034
1 1035
1 1036
1 1037
1 1038
1 1039
1 1040
1 1041
1 1042
1 1043
1 1044
1 1045
1 1046
1 1047
1 1048
1 1049
1 1050
1 1051
1 1052
1 1053
1 1054
1 1055
1 1056
1 1057
1 1058
1 1059
1 1060
1 1061
1 1062
1 1063
1 1064
1 1065
1 1066
1 1067
1 1068
1 1069
1 1070
1 1071
1 1072
1 1073
1 1074
1 1075
1 1076
1 1077
1 1078
1 1079
1 1080
1 1081
1 1082
1 1083
1 1084
1 1085
1 1086
1 1087
1 1088
1 1089
1 1090
1 1091
1 1092
1 1093
1 1094
1 1095
1 1096
1 1097
1 1098
1 1099
1 1100
1 1101
1 1102
1 1103
1 1104
1 1105
1 1106
1 1107
1 1108
1 1109
1 1110
1 1111
1 1112
1 1113
1 1114
1 1115
1 1116
1 1117
1 1118
1 1119
1 1120
1 1121
1 1122
1 1123
1 1124
1 1125
1 1126
1 1127
1 1128
1 1129
1 1130
1 1131
1 1132
1 1133
1 1134
1 1135
1 1136
1 1137
1 1138
1 1139
1 1140
1 1141
1 1142
1 1143
1 1144
1 1145
1 1146
1 1147
1 1148
1 1149
1 1150
1 1151
1 1152
1 1153
1 1154
1 1155
1 1156
1 1157
1 1158
1 1159
1 1160
1 1161
1 1162
1 1163
1 1164
1 1165
1 1166
1 1167
1 1168
1 1169
1 1170
1 1171
1 1172
1 1173
1 1174
1 1175
1 1176
1 1177
1 1178
1 1179
1 1180
1 1181
1 1182
1 1183
1 1184
1 1185
1 1186
1 1187
1 1188
1 1189
1 1190
1 1191
1 1192
1 1193
1 1194
1 1195
1 1196
1 1197
1 1198
1 1199
1 1200
1 1201
1 1202
1 1203
1 1204
1 1205
1 1206
1 1207
1 1208
1 1209
1 1210
1 1211
1 1212
1 1213
1 1214
1 1215
1 1216
1 1217
1 1218
1 1219
1 1220
1 1221
1 1222
1 1223
1 1224
1 1225
1 1226
1 1227
1 1228
1 1229
1 1230
1 1231
1 1232
1 1233
1 1234
1 1235
1 1236
1 1237
1 1238
1 1239
1 1240
1 1241
1 1242
1 1243
1 1244
1 1245
1 1246
1 1247
1 1248
1 1249
1 1250
1 1251
1 1252
1 1253
1 1254
1 1255
1 1256
1 1257
1 1258
1 1259
1 1260
1 1261
1 1262
1 1263
1 1264
1 1265
1 1266
1 1267
1 1268
1 1269
1 1270
1 1271
1 1272
1 1273
1 1274
1 1275
1 1276
1 1277
1 1278
1 1279
1 1280
1 1281
1 1282
1 1283
1 1284
1 1285
1 1286
1 1287
1 1288
1 1289
1 1290
1 1291
1 1292
1 1293
1 1294
1 1295
1 1296
1 1297
1 1298
1 1299
1 1300
1 1301
1 1302
1 1303
1 1304
1 1305
1 1306
1 1307
1 1308
1 1309
1 1310
1 1311
1 1312
1 1313
1 1314
1 1315
1 1316
1 1317
1 1318
1 1319
1 1320
1 1321
1 1322
1 1323
1 1324
1 1325
1 1326
1 1327
1 1328
1 1329
1 1330
1 1331
1 1332
1 1333
1 1334
1 1335
1 1336
1 1337
1 1338
1 1339
1 1340
1 1341
1 1342
1 1343
1 1344
1 1345
1 1346
1 1347
1 1348
1 1349
1 1350
1 1351
1 1352
1 1353
1 1354
1 1355
1 1356
1 1357
1 1358
1 1359
1 1360
1 1361
1 1362
1 1363
1 1364
1 1365
1 1366
1 1367
1 1368
1 1369
1 1370
1 1371
1 1372
1 1373
1 1374
1 1375
1 1376
1 1377
1 1378
1 1379
1 1380
1 1381
1 1382
1 1383
1 1384
1 1385
1 1386
1 1387
1 1388
1 1389
1 1390
1 1391
1 1392
1 1393
1 1394
1 1395
1 1396
1 1397
1 1398
1 1399
1 1400
1 1401
1 1402
1 1403
1 1404
1 1405
1 1406
1 1407
1 1408
1 1409
1 1410
1 1411
1 1412
1 1413
1 1414
1 1415
1 1416
1 1417
1 1418
1 1419
1 1420
1 1421
1 1422
1 1423
1 1424
1 1425
1 1426
1 1427
1 1428
1 1429
1 1430
1 1431
1 1432
1 1433
1 1434
1 1435
1 1436
1 1437
1 1438
1 1439
1 1440
1 1441
1 1442
1 1443
1 1444
1 1445
1 1446
1 1447
1 1448
1 1449
1 1450
1 1451
1 1452
1 1453
1 1454
1 1455
1 1456
1 1457
1 1458
1 1459
1 1460
1 1461
1 1462
1 1463
1 1464
1 1465
1 1466
1 1467
1 1468
1 1469
1 1470
1 1471
1 1472
1 1473
1 1474
1 1475
1 1476
1 1477
1 1478
1 1479
1 1480
1 1481
1 1482
1 1483
1 1484
1 1485
1 1486
1 1487
1 1488
1 1489
1 1490
1 1491
1 1492
1 1493
1 1494
1 1495
1 1496
1 1497
1 1498
1 1499
1 1500
1 1501
1 1502
1 1503
1 1504
1 1505
1 1506
1 1507
1 1508
1 1509
1 1510
1 1511
1 1512
1 1513
1 1514
1 1515
1 1516
1 1517
1 1518
1 1519
1 1520
1 1521
1 1522
1 1523
1 1524
1 1525
1 1526
1 1527
1 1528
1 1529
1 1530
1 1531
1 1532
1 1533
1 1534
1 1535
1 1536
1 1537
1 1538
1 1539
1 1540
1 1541
1 1542
1 1543
1 1544
1 1545
1 1546
1 1547
1 1548
1 1549
1 1550
1 1551
1 1552
1 1553
1 1554
1 1555
1 1556
1 1557
1 1558
1 1559
1 1560
1 1561
1 1562
1 1563
1 1564
1 1565
1 1566
1 1567
1 1568
1 1569
1 1570
1 1571
1 1572
1 1573
1 1574
1 1575
1 1576
1 1577
1 1578
1 1579
1 1580
1 1581
1 1582
1 1583
1 1584
1 1585
1 1586
1 1587
1 1588
1 1589
1 1590
1 1591
1 1592
1 1593
1 1594
1 1595
1 1596
1 1597
1 1598
1 1599
1 1600
1 1601
1 1602
1 1603
1 1604
1 1605
1 1606
1 1607
1 1608
1 1609
1 1610
1 1611
1 1612
1 1613
1 1614
1 1615
1 1616
1 1617
1 1618
1 1619
1 1620
1 1621
1 1622
1 1623
1 1624
1 1625
1 1626
1 1627
1 1628
1 1629
1 1630
1 1631
1 1632
1 1633
1 1634
1 1635
1 1636
1 1637
1 1638
1 1639
1 1640
1 1641
1 1642
1 1643
1 1644
1 1645
1 1646
1 1647
1 1648
1 1649
1 1650
1 1651
1 1652
1 1653
1 1654
1 1655
1 1656
1 1657
1 1658
1 1659
1 1660
1 1661
1 1662
1 1663
1 1664
1 1665
1 1666
1 1667
1 1668
1 1669
1 1670
1 1671
1 1672
1 1673
1 1674
1 1675
1 1676
1 1677
1 1678
1 1679
1 1680
1 1681
1 1682
1 1683
1 1684
1 1685
1 1686
1 1687
1 1688
1 1689
1 1690
1 1691
1 1692
1 1693
1 1694
1 1695
1 1696
1 1697
1 1698
1 1699
1 1700
1 1701
1 1702
1 1703
1 1704
1 1705
1 1706
1 1707
1 1708
1 1709
1 1710
1 1711
1 1712
1 1713
1 1714
1 1715
1 1716
1 1717
1 1718
1 1719
1 1720
1 1721
1 1722
1 1723
1 1724
1 1725
1 1726
1 1727
1 1728
1 1729
1 1730
1 1731
1 1732
1 1733
1 1734
1 1735
1 1736
1 1737
1 1738
1 1739
1 1740
1 1741
1 1742
1 1743
1 1744
1 1745
1 1746
1 1747
1 1748
1 1749
1 1750
1 1751
1 1752
1 1753
1 1754
1 1755
1 1756
1 1757
1 1758
1 1759
1 1760
1 1761
1 1762
1 1763
1 1764
1 1765
1 1766
1 1767
1 1768
1 1769
1 1770
1 1771
1 1772
1 1773
1 1774
1 1775
1 1776
1 1777
1 1778
1 1779
1 1780
1 1781
1 1782
1 1783
1 1784
1 1785
1 1786
1 1787
1 1788
1 1789
1 1790
1 1791
1 1792
1 1793
1 1794
1 1795
1 1796
1 1797
1 1798
1 1799
1 1800
1 1801
1 1802
1 1803
1 1804
1 1805
1 1806
1 1807
1 1808
1 1809
1 1810
1 1811
1 1812
1 1813
1 1814
1 1815
1 1816
1 1817
1 1818
1 1819
1 1820
1 1821
1 1822
1 1823
1 1824
1 1825
1 1826
1 1827
1 1828
1 1829
1 1830
1 1831
1 1832
1 1833
1 1834
1 1835
1 1836
1 1837
1 1838
1 1839
1 1840
1 1841
1 1842
1 1843
1 1844
1 1845
1 1846
1 1847
1 1848
1 1849
1 1850
1 1851
1 1852
1 1853
1 1854
1 1855
1 1856
1 1857
1 1858
1 1859
1 1860
1 1861
1 1862
1 1863
1 1864
1 1865
1 1866
1 1867
1 1868
1 1869
1 1870
1 1871
1 1872
1 1873
1 1874
1 1875
1 1876
1 1877
1 1878
1 1879
1 1880
1 1881
1 1882
1 1883
1 1884
1 1885
1 1886
1 1887
1 1888
1 1889
1 1890
1 1891
1 1892
1 1893
1 1894
1 1895
1 1896
1 1897
1 1898
1 1899
1 1900
1 1901
1 1902
1 1903
1 1904
1 1905
1 1906
1 1907
1 1908
1 1909
1 1910
1 1911
1 1912
1 1913
1 1914
1 1915
1 1916
1 1917
1 1918
1 1919
1 1920
1 1921
1 1922
1 1923
1 1924
1 1925
1 1926
1 1927
1 1928
1 1929
1 1930
1 1931
1 1932
1 1933
1 1934
1 1935
1 1936
1 1937
1 1938
1 1939
1 1940
1 1941
1 1942
1 1943
1 1944
1 1945
1 1946
1 1947
1 1948
1 1949
1 1950
1 1951
1 1952
1 1953
1 1954
1 1955
1 1956
1 1957
1 1958
1 1959
1 1960
1 1961
1 1962
1 1963
1 1964
1 1965
1 1966
1 1967
1 1968
1 1969
1 1970
1 1971
1 1972
1 1973
1 1974
1 1975
1 1976
1 1977
1 1978
1 1979
1 1980
1 1981
1 1982
1 1983
1 1984
1 1985
1 1986
1 1987
1 1988
1 1989
1 1990
1 1991
1 1992
1 1993
1 1994
1 1995
1 1996
1 1997
1 1998
1 1999
1 2000
1 2001
1 2002
1 2003
1 2004
1 2005
1 2006
1 2007
1 2008
1 2009
1 2010
1 2011
1 2012
1 2013
1 2014
1 2015
1 2016
1 2017
1 2018
1 2019
1 2020
1 2021
1 2022
1 2023
1 2024
1 2025
1 2026
1 2027
1 2028
1 2029
1 2030
1 2031
1 2032
1 2033
1 2034
1 2035
1 2036
1 2037
1 2038
1 2039
1 2040
1 2041
1 2042
1 2043
1 2044
1 2045
1 2046
1 2047
1 2048
1 2049
1 2050
1 2051
1 2052
1 2053
1 2054
1 2055
1 2056
1 2057
1 2058
1 2059
1 2060
1 2061
1 2062
1 2063
1 2064
1 2065
1 2066
1 2067
1 2068
1 2069
1 2070
1 2071
1 2072
1 2073
1 2074
1 2075
1 2076
1 2077
1 2078
1 2079
1 2080
1 2081
1 2082
1 2083
1 2084
1 2085
1 2086
1 2087
1 2088
1 2089
1 2090
1 2091
1 2092
1 2093
1 2094
1 2095
1 2096
1 2097
1 2098
1 2099
1 2100
1 2101
1 2102
1 2103
1 2104
1 2105
1 2106
1 2107
1 2108
1 2109
1 2110
1 2111
1 2112
1 2113
1 2114
1 2115
1 2116
1 2117
1 2118
1 2119
1 2120
1 2121
1 2122
1 2123
1 2124
1 2125
1 2126
1 2127
1 2128
1 2129
1 2130
1 2131
1 2132
1 2133
1 2134
1 2135
1 2136
1 2137
1 2138
1 2139
1 2140
1 2141
1 2142
1 2143
1 2144
1 2145
1 2146
1 2147
1 2148
1 2149
1 2150
1 2151
1 2152
1 2153
1 2154
1 2155
1 2156
1 2157
1 2158
1 2159
1 2160
1 2161
1 2162
1 2163
1 2164
1 2165
1 2166
1 2167
1 2168
1 2169
1 2170
1 2171
1 2172
1 2173
1 2174
1 2175
1 2176
1 2177
1 2178
1 2179
1 2180
1 2181
1 2182
1 2183
1 2184
1 2185
1 2186
1 2187
1 2188
1 2189
1 2190
1 2191
1 2192
1 2193
1 2194
1 2195
1 2196
1 2197
1 2198
1 2199
1 2200
1 2201
1 2202
1 2203
1 2204
1 2205
1 2206
1 2207
1 2208
1 2209
1 2210
1 2211
1 2212
1 2213
1 2214
1 2215
1 2216
1 2217
1 2218
1 2219
1 2220
1 2221
1 2222
1 2223
1 2224
1 2225
1 2226
1 2227
1 2228
1 2229
1 2230
1 2231
1 2232
1 2233
1 2234
1 2235
1 2236
1 2237
1 2238
1 2239
1 2240
1 2241
1 2242
1 2243
1 2244
1 2245
1 2246
1 2247
1 2248
1 2249
1 2250
1 2251
1 2252
1 2253
1 2254
1 2255
1 2256
1 2257
1 2258
1 2259
1 2260
1 2261
1 2262
1 2263
1 2264
1 2265
1 2266
1 2267
1 2268
1 2269
1 2270
1 2271
1 2272
1 2273
1 2274
1 2275
1 2276
1 2277
1 2278
1 2279
1 2280
1 2281
1 2282
1 2283
1 2284
1 2285
1 2286
1 2287
1 2288
1 2289
1 2290
1 2291
1 2292
1 2293
1 2294
1 2295
1 2296
1 2297
1 2298
1 2299
1 2300
1 2301
1 2302
1 2303
1 2304
1 2305
1 2306
1 2307
1 2308
1 2309
1 2310
1 2311
1 2312
1 2313
1 2314
1 2315
1 2316
1 2317
1 2318
1 2319
1 2320
1 2321
1 2322
1 2323
1 2324
1 2325
1 2326
1 2327
1 2328
1 2329
1 2330
1 2331
1 2332
1 2333
1 2334
1 2335
1 2336
1 2337
1 2338
1 2339
1 2340
1 2341
1 2342
1 2343
1 2344
1 2345
1 2346
1 2347
1 2348
1 2349
1 2350
1 2351
1 2352
1 2353
1 2354
1 2355
1 2356
1 2357
1 2358
1 2359
1 2360
1 2361
1 2362
1 2363
1 2364
1 2365
1 2366
1 2367
1 2368
1 2369
1 2370
1 2371
1 2372
1 2373
1 2374
1 2375
1 2376
1 2377
1 2378
1 2379
1 2380
1 2381
1 2382
1 2383
1 2384
1 2385
1 2386
1 2387
1 2388
1 2389
1 2390
1 2391
1 2392
1 2393
1 2394
1 2395
1 2396
1 2397
1 2398
1 2399
1 2400
1 2401
1 2402
1 2403
1 2404
1 2405
1 2406
1 2407
1 2408
1 2409
1 2410
1 2411
1 2412
1 2413
1 2414
1 2415
1 2416
1 2417
1 2418
1 2419
1 2420
1 2421
1 2422
1 2423
1 2424
1 2425
1 2426
1 2427
1 2428
1 2429
1 2430
1 2431
1 2432
1 2433
1 2434
1 2435
1 2436
1 2437
1 2438
1 2439
1 2440
1 2441
1 2442
1 2443
1 2444
1 2445
1 2446
1 2447
1 2448
1 2449
1 2450
1 2451
1 2452
1 2453
1 2454
1 2455
1 2456
1 2457
1 2458
1 2459
1 2460
1 2461
1 2462
1 2463
1 2464
1 2465
1 2466
1 2467
1 2468
1 2469
1 2470
1 2471
1 2472
1 2473
1 2474
1 2475
1 2476
1 2477
1 2478
1 2479
1 2480
1 2481
1 2482
1 2483
1 2484
1 2485
1 2486
1 2487
1 2488
1 2489
1 2490
1 2491
1 2492
1 2493
1 2494
1 2495
1 2496
1 2497
1 2498
1 2499
1 2500
1 2501
1 2502
1 2503
1 2504
1 2505
1 2506
1 2507
1 2508
1 2509
1 2510
1 2511
1 2512
1 2513
1 2514
1 2515
1 2516
1 2517
1 2518
1 2519
1 2520
1 2521
1 2522
1 2523
1 2524
1 2525
1 2526
1 2527
1 2528
1 2529
1 2530
1 2531
1 2532
1 2533
1 2534
1 2535
1 2536
1 2537
1 2538
1 2539
1 2540
1 2541
1 2542
1 2543
1 2544
1 2545
1 2546
1 2547
1 2548
1 2549
1 2550
1 2551
1 2552
1 2553
1 2554
1 2555
1 2556
1 2557
1 2558
1 2559
1 2560
1 2561
1 2562
1 2563
1 2564
1 2565
1 2566
1 2567
1 2568
1 2569
1 2570
1 2571
1 2572
1 2573
1 2574
1 2575
1 2576
1 2577
1 2578
1 2579
1 2580
1 2581
1 2582
1 2583
1 2584
1 2585
1 2586
1 2587
1 2588
1 2589
1 2590
1 2591
1 2592
1 2593
1 2594
1 2595
1 2596
1 2597
1 2598
1 2599
1 2600
1 2601
1 2602
1 2603
1 2604
1 2605
1 2606
1 2607
1 2608
1 2609
1 2610
1 2611
1 2612
1 2613
1 2614
1 2615
1 2616
1 2617
1 2618
1 2619
1 2620
1 2621
1 2622
1 2623
1 2624
1 2625
1 2626
1 2627
1 2628
1 2629
1 2630
1 2631
1 2632
1 2633
1 2634
1 2635
1 2636
1 2637
1 2638
1 2639
1 2640
1 2641
1 2642
1 2643
1 2644
1 2645
1 2646
1 2647
1 2648
1 2649
1 2650
1 2651
1 2652
1 2653
1 2654
1 2655
1 2656
1 2657
1 2658
1 2659
1 2660
1 2661
1 2662
1 2663
1 2664
1 2665
1 2666
1 2667
1 2668
1 2669
1 2670
1 2671
1 2672
1 2673
1 2674
1 2675
1 2676
1 2677
1 2678
1 2679
1 2680
1 2681
1 2682
1 2683
1 2684
1 2685
1 2686
1 2687
1 2688
1 2689
1 2690
1 2691
1 2692
1 2693
1 2694
1 2695
1 2696
1 2697
1 2698
1 2699
1 2700
1 2701
1 2702
1 2703
1 2704
1 2705
1 2706
1 2707
1 2708
1 2709
1 2710
1 2711
1 2712
1 2713
1 2714
1 2715
1 2716
1 2717
1 2718
1 2719
1 2720
1 2721
1 2722
1 2723
1 2724
1 2725
1 2726
1 2727
1 2728
1 2729
1 2730
1 2731
1 2732
1 2733
1 2734
1 2735
1 2736
1 2737
1 2738
1 2739
1 2740
1 2741
1 2742
1 2743
1 2744
1 2745
1 2746
1 2747
1 2748
1 2749
1 2750
1 2751
1 2752
1 2753
1 2754
1 2755
1 2756
1 2757
1 2758
1 2759
1 2760
1 2761
1 2762
1 2763
1 2764
1 2765
1 2766
1 2767
1 2768
1 2769
1 2770
1 2771
1 2772
1 2773
1 2774
1 2775
1 2776
1 2777
1 2778
1 2779
1 2780
1 2781
1 2782
1 2783
1 2784
1 2785
1 2786
1 2787
1 2788
1 2789
1 2790
1 2791
1 2792
1 2793
1 2794
1 2795
1 2796
1 2797
1 2798
1 2799
1 2800
1 2801
1 2802
1 2803
1 2804
1 2805
1 2806
1 2807
1 2808
1 2809
1 2810
1 2811
1 2812
1 2813
1 2814
1 2815
1 2816
1 2817
1 2818
1 2819
1 2820
1 2821
1 2822
1 2823
1 2824
1 2825
1 2826
1 2827
1 2828
1 2829
1 2830
1 2831
1 2832
1 2833
1 2834
1 2835
1 2836
1 2837
1 2838
1 2839
1 2840
1 2841
1 2842
1 2843
1 2844
1 2845
1 2846
1 2847
1 2848
1 2849
1 2850
1 2851
1 2852
1 2853
1 2854
1 2855
1 2856
1 2857
1 2858
1 2859
1 2860
1 2861
1 2862
1 2863
1 2864
1 2865
1 2866
1 2867
1 2868
1 2869
1 2870
1 2871
1 2872
1 2873
1 2874
1 2875
1 2876
1 2877
1 2878
1 2879
1 2880
1 2881
1 2882
1 2883
1 2884
1 2885
1 2886
1 2887
1 2888
1 2889
1 2890
1 2891
1 2892
1 2893
1 2894
1 2895
1 2896
1 2897
1 2898
1 2899
1 2900
1 2901
1 2902
1 2903
1 2904
1 2905
1 2906
1 2907
1 2908
1 2909
1 2910
1 2911
1 2912
1 2913
1 2914
1 2915
1 2916
1 2917
1 2918
1 2919
1 2920
1 2921
1 2922
1 2923
1 2924
1 2925
1 2926
1 2927
1 2928
1 2929
1 2930
1 2931
1 2932
1 2933
1 2934
1 2935
1 2936
1 2937
1 2938
1 2939
1 2940
1 2941
1 2942
1 2943
1 2944
1 2945
1 2946
1 2947
1 2948
1 2949
1 2950
1 2951
1 2952
1 2953
1 2954
1 2955
1 2956
1 2957
1 2958
1 2959
1 2960
1 2961
1 2962
1 2963
1 2964
1 2965
1 2966
1 2967
1 2968
1 2969
1 2970
1 2971
1 2972
1 2973
1 2974
1 2975
1 2976
1 2977
1 2978
1 2979
1 2980
1 2981
1 2982
1 2983
1 2984
1 2985
1 2986
1 2987
1 2988
1 2989
1 2990
1 2991
1 2992
1 2993
1 2994
1 2995
1 2996
1 2997
1 2998
1 2999
1 3000
1 3001
1 3002
1 3003
1 3004
1 3005
1 3006
1 3007
1 3008
1 3009
1 3010
1 3011
1 3012
1 3013
1 3014
1 3015
1 3016
1 3017
1 3018
1 3019
1 3020
1 3021
1 3022
1 3023
1 3024
1 3025
1 3026
1 3027
1 3028
1 3029
1 3030
1 3031
1 3032
1 3033
1 3034
1 3035
1 3036
1 3037
1 3038
1 3039
1 3040
1 3041
1 3042
1 3043
1 3044
1 3045
1 3046
1 3047
1 3048
1 3049
1 3050
1 3051
1 3052
1 3053
1 3054
1 3055
1 3056
1 3057
1 3058
1 3059
1 3060
1 3061
1 3062
1 3063
1 3064
1 3065
1 3066
1 3067
1 3068
1 3069
1 3070
1 3071
1 3072
1 3073
1 3074
1 3075
1 3076
1 3077
1 3078
1 3079
1 3080
1 3081
1 3082
1 3083
1 3084
1 3085
1 3086
1 3087
1 3088
1 3089
1 3090
1 3091
1 3092
1 3093
1 3094
1 3095
1 3096
1 3097
1 3098
1 3099
1 3100
1 3101
1 3102
1 3103
1 3104
1 3105
1 3106
1 3107
1 3108
1 3109
1 3110
1 3111
1 3112
1 3113
1 3114
1 3115
1 3116
1 3117
1 3118
1 3119
1 3120
1 3121
1 3122
1 3123
1 3124
1 3125
1 3126
1 3127
1 3128
1 3129
1 3130
1 3131
1 3132
1 3133
1 3134
1 3135
1 3136
1 3137
1 3138
1 3139
1 3140
1 3141
1 3142
1 3143
1 3144
1 3145
1 3146
1 3147
1 3148
1 3149
1 3150
1 3151
1 3152
1 3153
1 3154
1 3155
1 3156
1 3157
1 3158
1 3159
1 3160
1 3161
1 3162
1 3163
1 3164
1 3165
1 3166
1 3167
1 3168
1 3169
1 3170
1 3171
1 3172
1 3173
1 3174
1 3175
1 3176
1 3177
1 3178
1 3179
1 3180
1 3181
1 3182
1 3183
1 3184
1 3185
1 3186
1 3187
1 3188
1 3189
1 3190
1 3191
1 3192
1 3193
1 3194
1 3195
1 3196
1 3197
1 3198
1 3199
1 3200
1 3201
1 3202
1 3203
1 3204
1 3205
1 3206
1 3207
1 3208
1 3209
1 3210
1 3211
1 3212
1 3213
1 3214
1 3215
1 3216
1 3217
1 3218
1 3219
1 3220
1 3221
1 3222
1 3223
1 3224
1 3225
1 3226
1 3227
1 3228
1 3229
1 3230
1 3231
1 3232
1 3233
1 3234
1 3235
1 3236
1 3237
1 3238
1 3239
1 3240
1 3241
1 3242
1 3243
1 3244
1 3245
1 3246
1 3247
1 3248
1 3249
1 3250
1 3251
1 3252
1 3253
1 3254
1 3255
1 3256
1 3257
1 3258
1 3259
1 3260
1 3261
1 3262
1 3263
1 3264
1 3265
1 3266
1 3267
1 3268
1 3269
1 3270
1 3271
1 3272
1 3273
1 3274
1 3275
1 3276
1 3277
1 3278
1 3279
1 3280
1 3281
1 3282
1 3283
1 3284
1 3285
1 3286
1 3287
1 3288
1 3289
1 3290
1 3291
1 3292
1 3293
1 3294
1 3295
1 3296
1 3297
1 3298
1 3299
1 3300
1 3301
1 3302
1 3303
1 3304
1 3305
1 3306
1 3307
1 3308
1 3309
1 3310
1 3311
1 3312
1 3313
1 3314
1 3315
1 3316
1 3317
1 3318
1 3319
1 3320
1 3321
1 3322
1 3323
1 3324
1 3325
1 3326
1 3327
1 3328
1 3329
1 3330
1 3331
1 3332
1 3333
1 3334
1 3335
1 3336
1 3337
1 3338
1 3339
1 3340
1 3341
1 3342
1 3343
1 3344
1 3345
1 3346
1 3347
1 3348
1 3349
1 3350
1 3351
1 3352
1 3353
1 3354
1 3355
1 3356
1 3357
1 3358
1 3359
1 3360
1 3361
1 3362
1 3363
1 3364
1 3365
1 3366
1 3367
1 3368
1 3369
1 3370
1 3371
1 3372
1 3373
1 3374
1 3375
1 3376
1 3377
1 3378
1 3379
1 3380
1 3381
1 3382
1 3383
1 3384
1 3385
1 3386
1 3387
1 3388
1 3389
1 3390
1 3391
1 3392
1 3393
1 3394
1 3395
1 3396
1 3397
1 3398
1 3399
1 3400
1 3401
1 3402
1 3403
1 3404
1 3405
1 3406
1 3407
1 3408
1 3409
1 3410
1 3411
1 3412
1 3413
1 3414
1 3415
1 3416
1 3417
1 3418
1 3419
1 3420
1 3421
1 3422
1 3423
1 3424
1 3425
1 3426
1 3427
1 3428
1 3429
1 3430
1 3431
1 3432
1 3433
1 3434
1 3435
1 3436
1 3437
1 3438
1 3439
1 3440
1 3441
1 3442
1 3443
1 3444
1 3445
1 3446
1 3447
1 3448
1 3449
1 3450
1 3451
1 3452
1 3453
1 3454
1 3455
1 3456
1 3457
1 3458
1 3459
1 3460
1 3461
1 3462
1 3463
1 3464
1 3465
1 3466
1 3467
1 3468
1 3469
1 3470
1 3471
1 3472
1 3473
1 3474
1 3475
1 3476
1 3477
1 3478
1 3479
1 3480
1 3481
1 3482
1 3483
1 3484
1 3485
1 3486
1 3487
1 3488
1 3489
1 3490
1 3491
1 3492
1 3493
1 3494
1 3495
1 3496
1 3497
1 3498
1 3499
1 3500
1 3501
1 3502
1 3503
1 3504
1 3505
1 3506
1 3507
1 3508
1 3509
1 3510
1 3511
1 3512
1 3513
1 3514
1 3515
1 3516
1 3517
1 3518
1 3519
1 3520
1 3521
1 3522
1 3523
1 3524
1 3525
1 3526
1 3527
1 3528
1 3529
1 3530
1 3531
1 3532
1 3533
1 3534
1 3535
1 3536
1 3537
1 3538
1 3539
1 3540
1 3541
1 3542
1 3543
1 3544
1 3545
1 3546
1 3547
1 3548
1 3549
1 3550
1 3551
1 3552
1 3553
1 3554
1 3555
1 3556
1 3557
1 3558
1 3559
1 3560
1 3561
1 3562
1 3563
1 3564
1 3565
1 3566
1 3567
1 3568
1 3569
1 3570
1 3571
1 3572
1 3573
1 3574
1 3575
1 3576
1 3577
1 3578
1 3579
1 3580
1 3581
1 3582
1 3583
1 3584
1 3585
1 3586
1 3587
1 3588
1 3589
1 3590
1 3591
1 3592
1 3593
1 3594
1 3595
1 3596
1 3597
1 3598
1 3599
1 3600
1 3601
1 3602
1 3603
1 3604
1 3605
1 3606
1 3607
1 3608
1 3609
1 3610
1 3611
1 3612
1 3613
1 3614
1 3615
1 3616
1 3617
1 3618
1 3619
1 3620
1 3621
1 3622
1 3623
1 3624
1 3625
1 3626
1 3627
1 3628
1 3629
1 3630
1 3631
1 3632
1 3633
1 3634
1 3635
1 3636
1 3637
1 3638
1 3639
1 3640
1 3641
1 3642
1 3643
1 3644
1 3645
1 3646
1 3647
1 3648
1 3649
1 3650
1 3651
1 3652
1 3653
1 3654
1 3655
1 3656
1 3657
1 3658
1 3659
1 3660
1 3661
1 3662
1 3663
1 3664
1 3665
1 3666
1 3667
1 3668
1 3669
1 3670
1 3671
1 3672
1 3673
1 3674
1 3675
1 3676
1 3677
1 3678
1 3679
1 3680
1 3681
1 3682
1 3683
1 3684
1 3685
1 3686
1 3687
1 3688
1 3689
1 3690
1 3691
1 3692
1 3693
1 3694
1 3695
1 3696
1 3697
1 3698
1 3699
1 3700
1 3701
1 3702
1 3703
1 3704
1 3705
1 3706
1 3707
1 3708
1 3709
1 3710
1 3711
1 3712
1 3713
1 3714
1 3715
1 3716
1 3717
1 3718
1 3719
1 3720
1 3721
1 3722
1 3723
1 3724
1 3725
1 3726
1 3727
1 3728
1 3729
1 3730
1 3731
1 3732
1 3733
1 3734
1 3735
1 3736
1 3737
1 3738
1 3739
1 3740
1 3741
1 3742
1 3743
1 3744
1 3745
1 3746
1 3747
1 3748
1 3749
1 3750
1 3751
1 3752
1 3753
1 3754
1 3755
1 3756
1 3757
1 3758
1 3759
1 3760
1 3761
1 3762
1 3763
1 3764
1 3765
1 3766
1 3767
1 3768
1 3769
1 3770
1 3771
1 3772
1 3773
1 3774
1 3775
1 3776
1 3777
1 3778
1 3779
1 3780
1 3781
1 3782
1 3783
1 3784
1 3785
1 3786
1 3787
1 3788
1 3789
1 3790
1 3791
1 3792
1 3793
1 3794
1 3795
1 3796
1 3797
1 3798
1 3799
1 3800
1 3801
1 3802
1 3803
1 3804
1 3805
1 3806
1 3807
1 3808
1 3809
1 3810
1 3811
1 3812
1 3813
1 3814
1 3815
1 3816
1 3817
1 3818
1 3819
1 3820
1 3821
1 3822
1 3823
1 3824
1 3825
1 3826
1 3827
1 3828
1 3829
1 3830
1 3831
1 3832
1 3833
1 3834
1 3835
1 3836
1 3837
1 3838
1 3839
1 3840
1 3841
1 3842
1 3843
1 3844
1 3845
1 3846
1 3847
1 3848
1 3849
1 3850
1 3851
1 3852
1 3853
1 3854
1 3855
1 3856
1 3857
1 3858
1 3859
1 3860
1 3861
1 3862
1 3863
1 3864
1 3865
1 3866
1 3867
1 3868
1 3869
1 3870
1 3871
1 3872
1 3873
1 3874
1 3875
1 3876
1 3877
1 3878
1 3879
1 3880
1 3881
1 3882
1 3883
1 3884
1 3885
1 3886
1 3887
1 3888
1 3889
1 3890
1 3891
1 3892
1 3893
1 3894
1 3895
1 3896
1 3897
1 3898
1 3899
1 3900
1 3901
1 3902
1 3903
1 3904
1 3905
1 3906
1 3907
1 3908
1 3909
1 3910
1 3911
1 3912
1 3913
1 3914
1 3915
1 3916
1 3917
1 3918
1 3919
1 3920
1 3921
1 3922
1 3923
1 3924
1 3925
1 3926
1 3927
1 3928
1 3929
1 3930
1 3931
1 3932
1 3933
1 3934
1 3935
1 3936
1 3937
1 3938
1 3939
1 3940
1 3941
1 3942
1 3943
1 3944
1 3945
1 3946
1 3947
1 3948
1 3949
1 3950
1 3951
1 3952
1 3953
1 3954
1 3955
1 3956
1 3957
1 3958
1 3959
1 3960
1 3961
1 3962
1 3963
1 3964
1 3965
1 3966
1 3967
1 3968
1 3969
1 3970
1 3971
1 3972
1 3973
1 3974
1 3975
1 3976
1 3977
1 3978
1 3979
1 3980
1 3981
1 3982
1 3983
1 3984
1 3985
1 3986
1 3987
1 3988
1 3989
1 3990
1 3991
1 3992
1 3993
1 3994
1 3995
1 3996
1 3997
1 3998
1 3999
1 4000
1 4001
1 4002
1 4003
1 4004
1 4005
1 4006
1 4007
1 4008
1 4009
1 4010
1 4011
1 4012
1 4013
1 4014
1 4015
1 4016
1 4017
1 4018
1 4019
1 4020
1 4021
1 4022
1 4023
1 4024
1 4025
1 4026
1 4027
1 4028
1 4029
1 4030
1 4031
1 4032
1 4033
1 4034
1 4035
1 4036
1 4037
1 4038
1 4039
1 4040
1 4041
1 4042
1 4043
1 4044
1 4045
1 4046
1 4047
1 4048
1 4049
1 4050
1 4051
1 4052
1 4053
1 4054
1 4055
1 4056
1 4057
1 4058
1 4059
1 4060
1 4061
1 4062
1 4063
1 4064
1 4065
1 4066
1 4067
1 4068
1 4069
1 4070
1 4071
1 4072
1 4073
1 4074
1 4075
1 4076
1 4077
1 4078
1 4079
1 4080
1 4081
1 4082
1 4083
1 4084
1 4085
1 4086
1 4087
1 4088
1 4089
1 4090
1 4091
1 4092
1 4093
1 4094
1 4095
1 4096
1 4097
1 4098
1 4099
1 4100
1 4101
1 4102
1 4103
1 4104
1 4105
1 4106
1 4107
1 4108
1 4109
1 4110
1 4111
1 4112
1 4113
1 4114
1 4115
1 4116
1 4117
1 4118
1 4119
1 4120
1 4121
1 4122
1 4123
1 4124
1 4125
1 4126
1 4127
1 4128
1 4129
1 4130
1 4131
1 4132
1 4133
1 4134
1 4135
1 4136
1 4137
1 4138
1 4139
1 4140
1 4141
1 4142
1 4143
1 4144
1 4145
1 4146
1 4147
1 4148
1 4149
1 4150
1 4151
1 4152
1 4153
1 4154
1 4155
1 4156
1 4157
1 4158
1 4159
1 4160
1 4161
1 4162
1 4163
1 4164
1 4165
1 4166
1 4167
1 4168
1 4169
1 4170
1 4171
1 4172
1 4173
1 4174
1 4175
1 4176
1 4177
1 4178
1 4179
1 4180
1 4181
1 4182
1 4183
1 4184
1 4185
1 4186
1 4187
1 4188
1 4189
1 4190
1 4191
1 4192
1 4193
1 4194
1 4195
1 4196
1 4197
1 4198
1 4199
1 4200
1 4201
1 4202
1 4203
1 4204
1 4205
1 4206
1 4207
1 4208
1 4209
1 4210
1 4211
1 4212
1 4213
1 4214
1 4215
1 4216
1 4217
1 4218
1 4219
1 4220
1 4221
1 4222
1 4223
1 4224
1 4225
1 4226
1 4227
1 4228
1 4229
1 4230
1 4231
1 4232
1 4233
1 4234
1 4235
1 4236
1 4237
1 4238
1 4239
1 4240
1 4241
1 4242
1 4243
1 4244
1 4245
1 4246
1 4247
1 4248
1 4249
1 4250
1 4251
1 4252
1 4253
1 4254
1 4255
1 4256
1 4257
1 4258
1 4259
1 4260
1 4261
1 4262
1 4263
1 4264
1 4265
1 4266
1 4267
1 4268
1 4269
1 4270
1 4271
1 4272
1 4273
1 4274
1 4275
1 4276
1 4277
1 4278
1 4279
1 4280
1 4281
1 4282
1 4283
1 4284
1 4285
1 4286
1 4287
1 4288
1 4289
1 4290
1 4291
1 4292
1 4293
1 4294
1 4295
1 4296
1 4297
1 4298
1 4299
1 4300
1 4301
1 4302
1 4303
1 4304
1 4305
1 4306
1 4307
1 4308
1 4309
1 4310
1 4311
1 4312
1 4313
1 4314
1 4315
1 4316
1 4317
1 4318
1 4319
1 4320
1 4321
1 4322
1 4323
1 4324
1 4325
1 4326
1 4327
1 4328
1 4329
1 4330
1 4331
1 4332
1 4333
1 4334
1 4335
1 4336
1 4337
1 4338
1 4339
1 4340
1 4341
1 4342
1 4343
1 4344
1 4345
1 4346
1 4347
1 4348
1 4349
1 4350
1 4351
1 4352
1 4353
1 4354
1 4355
1 4356
1 4357
1 4358
1 4359
1 4360
1 4361
1 4362
1 4363
1 4364
1 4365
1 4366
1 4367
1 4368
1 4369
1 4370
1 4371
1 4372
1 4373
1 4374
1 4375
1 4376
1 4377
1 4378
1 4379
1 4380
1 4381
1 4382
1 4383
1 4384
1 4385
1 4386
1 4387
1 4388
1 4389
1 4390
1 4391
1 4392
1 4393
1 4394
1 4395
1 4396
1 4397
1 4398
1 4399
1 4400
1 4401
1 4402
1 4403
1 4404
1 4405
1 4406
1 4407
1 4408
1 4409
1 4410
1 4411
1 4412
1 4413
1 4414
1 4415
1 4416
1 4417
1 4418
1 4419
1 4420
1 4421
1 4422
1 4423
1 4424
1 4425
1 4426
1 4427
1 4428
1 4429
1 4430
1 4431
1 4432
1 4433
1 4434
1 4435
1 4436
1 4437
1 4438
1 4439
1 4440
1 4441
1 4442
1 4443
1 4444
1 4445
1 4446
1 4447
1 4448
1 4449
1 4450
1 4451
1 4452
1 4453
1 4454
1 4455
1 4456
1 4457
1 4458
1 4459
1 4460
1 4461
1 4462
1 4463
1 4464
1 4465
1 4466
1 4467
1 4468
1 4469
1 4470
1 4471
1 4472
1 4473
1 4474
1 4475
1 4476
1 4477
1 4478
1 4479
1 4480
1 4481
1 4482
1 4483
1 4484
1 4485
1 4486
1 4487
1 4488
1 4489
1 4490
1 4491
1 4492
1 4493
1 4494
1 4495
1 4496
1 4497
1 4498
1 4499
1 4500
1 4501
1 4502
1 4503
1 4504
1 4505
1 4506
1 4507
1 4508
1 4509
1 4510
1 4511
1 4512
1 4513
1 4514
1 4515
1 4516
1 4517
1 4518
1 4519
1 4520
1 4521
1 4522
1 4523
1 4524
1 4525
1 4526
1 4527
1 4528
1 4529
1 4530
1 4531
1 4532
1 4533
1 4534
1 4535
1 4536
1 4537
1 4538
1 4539
1 4540
1 4541
1 4542
1 4543
1 4544
1 4545
1 4546
1 4547
1 4548
1 4549
1 4550
1 4551
1 4552
1 4553
1 4554
1 4555
1 4556
1 4557
1 4558
1 4559
1 4560
1 4561
1 4562
1 4563
1 4564
1 4565
1 4566
1 4567
1 4568
1 4569
1 4570
1 4571
1 4572
1 4573
1 4574
1 4575
1 4576
1 4577
1 4578
1 4579
1 4580
1 4581
1 4582
1 4583
1 4584
1 4585
1 4586
1 4587
1 4588
1 4589
1 4590
1 4591
1 4592
1 4593
1 4594
1 4595
1 4596
1 4597
1 4598
1 4599
1 4600
1 4601
1 4602
1 4603
1 4604
1 4605
1 4606
1 4607
1 4608
1 4609
1 4610
1 4611
1 4612
1 4613
1 4614
1 4615
1 4616
1 4617
1 4618
1 4619
1 4620
1 4621
1 4622
1 4623
1 4624
1 4625
1 4626
1 4627
1 4628
1 4629
1 4630
1 4631
1 4632
1 4633
1 4634
1 4635
1 4636
1 4637
1 4638
1 4639
1 4640
1 4641
1 4642
1 4643
1 4644
1 4645
1 4646
1 4647
1 4648
1 4649
1 4650
1 4651
1 4652
1 4653
1 4654
1 4655
1 4656
1 4657
1 4658
1 4659
1 4660
1 4661
1 4662
1 4663
1 4664
1 4665
1 4666
1 4667
1 4668
1 4669
1 4670
1 4671
1 4672
1 4673
1 4674
1 4675
1 4676
1 4677
1 4678
1 4679
1 4680
1 4681
1 4682
1 4683
1 4684
1 4685
1 4686
1 4687
1 4688
1 4689
1 4690
1 4691
1 4692
1 4693
1 4694
1 4695
1 4696
1 4697
1 4698
1 4699
1 4700
1 4701
1 4702
1 4703
1 4704
1 4705
1 4706
1 4707
1 4708
1 4709
1 4710
1 4711
1 4712
1 4713
1 4714
1 4715
1 4716
1 4717
1 4718
1 4719
1 4720
1 4721
1 4722
1 4723
1 4724
1 4725
1 4726
1 4727
1 4728
1 4729
1 4730
1 4731
1 4732
1 4733
1 4734
1 4735
1 4736
1 4737
1 4738
1 4739
1 4740
1 4741
1 4742
1 4743
1 4744
1 4745
1 4746
1 4747
1 4748
1 4749
1 4750
1 4751
1 4752
1 4753
1 4754
1 4755
1 4756
1 4757
1 4758
1 4759
1 4760
1 4761
1 4762
1 4763
1 4764
1 4765
1 4766
1 4767
1 4768
1 4769
1 4770
1 4771
1 4772
1 4773
1 4774
1 4775
1 4776
1 4777
1 4778
1 4779
1 4780
1 4781
1 4782
1 4783
1 4784
1 4785
1 4786
1 4787
1 4788
1 4789
1 4790
1 4791
1 4792
1 4793
1 4794
1 4795
1 4796
1 4797
1 4798
1 4799
1 4800
1 4801
1 4802
1 4803
1 4804
1 4805
1 4806
1 4807
1 4808
1 4809
1 4810
1 4811
1 4812
1 4813
1 4814
1 4815
1 4816
1 4817
1 4818
1 4819
1 4820
1 4821
1 4822
1 4823
1 4824
1 4825
1 4826
1 4827
1 4828
1 4829
1 4830
1 4831
1 4832
1 4833
1 4834
1 4835
1 4836
1 4837
1 4838
1 4839
1 4840
1 4841
1 4842
1 4843
1 4844
1 4845
1 4846
1 4847
1 4848
1 4849
1 4850
1 4851
1 4852
1 4853
1 4854
1 4855
1 4856
1 4857
1 4858
1 4859
1 4860
1 4861
1 4862
1 4863
1 4864
1 4865
1 4866
1 4867
1 4868
1 4869
1 4870
1 4871
1 4872
1 4873
1 4874
1 4875
1 4876
1 4877
1 4878
1 4879
1 4880
1 4881
1 4882
1 4883
1 4884
1 4885
1 4886
1 4887
1 4888
1 4889
1 4890
1 4891
1 4892
1 4893
1 4894
1 4895
1 4896
1 4897
1 4898
1 4899
1 4900
1 4901
1 4902
1 4903
1 4904
1 4905
1 4906
1 4907
1 4908
1 4909
1 4910
1 4911
1 4912
1 4913
1 4914
1 4915
1 4916
1 4917
1 4918
1 4919
1 4920
1 4921
1 4922
1 4923
1 4924
1 4925
1 4926
1 4927
1 4928
1 4929
1 4930
1 4931
1 4932
1 4933
1 4934
1 4935
1 4936
1 4937
1 4938
1 4939
1 4940
1 4941
1 4942
1 4943
1 4944
1 4945
1 4946
1 4947
1 4948
1 4949
1 4950
1 4951
1 4952
1 4953
1 4954
1 4955
1 4956
1 4957
1 4958
1 4959
1 4960
1 4961
1 4962
1 4963
1 4964
1 4965
1 4966
1 4967
1 4968
1 4969
1 4970
1 4971
1 4972
1 4973
1 4974
1 4975
1 4976
1 4977
1 4978
1 4979
1 4980
1 4981
1 4982
1 4983
1 4984
1 4985
1 4986
1 4987
1 4988
1 4989
1 4990
1 4991
1 4992
1 4993
1 4994
1 4995
1 4996
1 4997
1 4998
1 4999
CELL_TYPES 5000
1 
1 
1 
1 
1 
1 
1 
1 
1 
1 
1 
1 
1 
1 
1 
1 
1 
1 
1 
1 
1 
1 
1 
1 
1 
1 
1 
1 
1 
1 
1 
1 
1 
1 
1 
1 
1 
1 
1 
1 
1 
1 
1 
1 
1 
1 
1 
1 
1 
1 
1 
1 
1 
1 
1 
1 
1 
1 
1 
1 
1 
1 
1 
1 
1 
1 
1 
1 
1 
1 
1 
1 
1 
1 
1 
1 
1 
1 
1 
1 
1 
1 
1 
1 
1 
1 
1 
1 
1 
1 
1 
1 
1 
1 
1 
1 
1 
1 
1 
1 
1 
1 
1 
1 
1 
1 
1 
1 
1 
1 
1 
1 
1 
1 
1 
1 
1 
1 
1 
1 
1 
1 
1 
1 
1 
1 
1 
1 
1 
1 
1 
1 
1 
1 
1 
1 
1 
1 
1 
1 
1 
1 
1 
1 
1 
1 
1 
1 
1 
1 
1 
1 
1 
1 
1 
1 
1 
1 
1 
1 
1 
1 
1 
1 
1 
1 
1 
1 
1 
1 
1 
1 
1 
1 
1 
1 
1 
1 
1 
1 
1 
1 
1 
1 
1 
1 
1 
1 
1 
1 
1 
1 
1 
1 
1 
1 
1 
1 
1 
1 
1 
1 
1 
1 
1 
1 
1 
1 
1 
1 
1 
1 
1 
1 
1 
1 
1 
1 
1 
1 
1 
1 
1 
1 
1 
1 
1 
1 
1 
1 
1 
1 
1 
1 
1 
1 
1 
1 
1 
1 
1 
1 
1 
1 
1 
1 
1 
1 
1 
1 
1 
1 
1 
1 
1 
1 
1 
1 
1 
1 
1 
1 
1 
1 
1 
1 
1 
1 
1 
1 
1 
1 
1 
1 
1 
1 
1 
1 
1 
1 
1 
1 
1 
1 
1 
1 
1 
1 
1 
1 
1 
1 
1 
1 
1 
1 
1 
1 
1 
1 
1 
1 
1 
1 
1 
1 
1 
1 
1 
1 
1 
1 
1 
1 
1 
1 
1 
1 
1 
1 
1 
1 
1 
1 
1 
1 
1 
1 
1 
1 
1 
1 
1 
1 
1 
1 
1 
1 
1 
1 
1 
1 
1 
1 
1 
1 
1 
1 
1 
1 
1 
1 
1 
1 
1 
1 
1 
1 
1 
1 
1 
1 
1 
1 
1 
1 
1 
1 
1 
1 
1 
1 
1 
1 
1 
1 
1 
1 
1 
1 
1 
1 
1 
1 
1 
1 
1 
1 
1 
1 
1 
1 
1 
1 
1 
1 
1 
1 
1 
1 
1 
1 
1 
1 
1 
1 
1 
1 
1 
1 
1 
1 
1 
1 
1 
1 
1 
1 
1 
1 
1 
1 
1 
1 
1 
1 
1 
1 
1 
1 
1 
1 
1 
1 
1 
1 
1 
1 
1 
1 
1 
1 
1 
1 
1 
1 
1 
1 
1 
1 
1 
1 
1 
1 
1 
1 
1 
1 
1 
1 
1 
1 
1 
1 
1 
1 
1 
1 
1 
1 
1 
1 
1 
1 
1 
1 
1 
1 
1 
1 
1 
1 
1 
1 
1 
1 
1 
1 
1 
1 
1 
1 
1 
1 
1 
1 
1 
1 
1 
1 
1 
1 
1 
1 
1 
1 
1 
1 
1 
1 
1 
1 
1 
1 
1 
1 
1 
1 
1 
1 
1 
1 
1 
1 
1 
1 
1 
1 
1 
1 
1 
1 
1 
1 
1 
1 
1 
1 
1 
1 
1 
1 
1 
1 
1 
1 
1 
1 
1 
1 
1 
1 
1 
1 
1 
1 
1 
1 
1 
1 
1 
1 
1 
1 
1 
1 
1 
1 
1 
1 
1 
1 
1 
1 
1 
1 
1 
1 
1 
1 
1 
1 
1 
1 
1 
1 
1 
1 
1 
1 
1 
1 
1 
1 
1 
1 
1 
1 
1 
1 
1 
1 
1 
1 
1 
1 
1 
1 
1 
1 
1 
1 
1 
1 
1 
1 
1 
1 
1 
1 
1 
1 
1 
1 
1 
1 
1 
1 
1 
1 
1 
1 
1 
1 
1 
1 
1 
1 
1 
1 
1 
1 
1 
1 
1 
1 
1 
1 
1 
1 
1 
1 
1 
1 
1 
1 
1 
1 
1 
1 
1 
1 
1 
1 
1 
1 
1 
1 
1 
1 
1 
1 
1 
1 
1 
1 
1 
1 
1 
1 
1 
1 
1 
1 
1 
1 
1 
1 
1 
1 
1 
1 
1 
1 
1 
1 
1 
1 
1 
1 
1 
1 
1 
1 
1 
1 
1 
1 
1 
1 
1 
1 
1 
1 
1 
1 
1 
1 
1 
1 
1 
1 
1 
1 
1 
1 
1 
1 
1 
1 
1 
1 
1 
1 
1 
1 
1 
1 
1 
1 
1 
1 
1 
1 
1 
1 
1 
1 
1 
1 
1 
1 
1 
1 
1 
1 
1 
1 
1 
1 
1 
1 
1 
1 
1 
1 
1 
1 
1 
1 
1 
1 
1 
1 
1 
1 
1 
1 
1 
1 
1 
1 
1 
1 
1 
1 
1 
1 
1 
1 
1 
1 
1 
1 
1 
1 
1 
1 
1 
1 
1 
1 
1 
1 
1 
1 
1 
1 
1 
1 
1 
1 
1 
1 
1 
1 
1 
1 
1 
1 
1 
1 
1 
1 
1 
1 
1 
1 
1 
1 
1 
1 
1 
1 
1 
1 
1 
1 
1 
1 
1 
1 
1 
1 
1 
1 
1 
1 
1 
1 
1 
1 
1 
1 
1 
1 
1 
1 
1 
1 
1 
1 
1 
1 
1 
1 
1 
1 
1 
1 
1 
1 
1 
1 
1 
1 
1 
1 
1 
1 
1 
1 
1 
1 
1 
1 
1 
1 
1 
1 
1 
1 
1 
1 
1 
1 
1 
1 
1 
1 
1 
1 
1 
1 
1 
1 
1 
1 
1 
1 
1 
1 
1 
1 
1 
1 
1 
1 
1 
1 
1 
1 
1 
1 
1 
1 
1 
1 
1 
1 
1 
1 
1 
1 
1 
1 
1 
1 
1 
1 
1 
1 
1 
1 
1 
1 
1 
1 
1 
1 
1 
1 
1 
1 
1 
1 
1 
1 
1 
1 
1 
1 
1 
1 
1 
1 
1 
1 
1 
1 
1 
1 
1 
1 
1 
1 
1 
1 
1 
1 
1 
1 
1 
1 
1 
1 
1 
1 
1 
1 
1 
1 
1 
1 
1 
1 
1 
1 
1 
1 
1 
1 
1 
1 
1 
1 
1 
1 
1 
1 
1 
1 
1 
1 
1 
1 
1 
1 
1 
1 
1 
1 
1 
1 
1 
1 
1 
1 
1 
1 
1 
1 
1 
1 
1 
1 
1 
1 
1 
1 
1 
1 
1 
1 
1 
1 
1 
1 
1 
1 
1 
1 
1 
1 
1 
1 
1 
1 
1 
1 
1 
1 
1 
1 
1 
1 
1 
1 
1 
1 
1 
1 
1 
1 
1 
1 
1 
1 
1 
1 
1 
1 
1 
1 
1 
1 
1 
1 
1 
1 
1 
1 
1 
1 
1 
1 
1 
1 
1 
1 
1 
1 
1 
1 
1 
1 
1 
1 
1 
1 
1 
1 
1 
1 
1 
1 
1 
1 
1 
1 
1 
1 
1 
1 
1 
1 
1 
1 
1 
1 
1 
1 
1 
1 
1 
1 
1 
1 
1 
1 
1 
1 
1 
1 
1 
1 
1 
1 
1 
1 
1 
1 
1 
1 
1 
1 
1 
1 
1 
1 
1 
1 
1 
1 
1 
1 
1 
1 
1 
1 
1 
1 
1 
1 
1 
1 
1 
1 
1 
1 
1 
1 
1 
1 
1 
1 
1 
1 
1 
1 
1 
1 
1 
1 
1 
1 
1 
1 
1 
1 
1 
1 
1 
1 
1 
1 
1 
1 
1 
1 
1 
1 
1 
1 
1 
1 
1 
1 
1 
1 
1 
1 
1 
1 
1 
1 
1 
1 
1 
1 
1 
1 
1 
1 
1 
1 
1 
1 
1 
1 
1 
1 
1 
1 
1 
1 
1 
1 
1 
1 
1 
1 
1 
1 
1 
1 
1 
1 
1 
1 
1 
1 
1 
1 
1 
1 
1 
1 
1 
1 
1 
1 
1 
1 
1 
1 
1 
1 
1 
1 
1 
1 
1 
1 
1 
1 
1 
1 
1 
1 
1 
1 
1 
1 
1 
1 
1 
1 
1 
1 
1 
1 
1 
1 
1 
1 
1 
1 
1 
1 
1 
1 
1 
1 
1 
1 
1 
1 
1 
1 
1 
1 
1 
1 
1 
1 
1 
1 
1 
1 
1 
1 
1 
1 
1 
1 
1 
1 
1 
1 
1 
1 
1 
1 
1 
1 
1 
1 
1 
1 
1 
1 
1 
1 
1 
1 
1 
1 
1 
1 
1 
1 
1 
1 
1 
1 
1 
1 
1 
1 
1 
1 
1 
1 
1 
1 
1 
1 
1 
1 
1 
1 
1 
1 
1 
1 
1 
1 
1 
1 
1 
1 
1 
1 
1 
1 
1 
1 
1 
1 
1 
1 
1 
1 
1 
1 
1 
1 
1 
1 
1 
1 
1 
1 
1 
1 
1 
1 
1 
1 
1 
1 
1 
1 
1 
1 
1 
1 
1 
1 
1 
1 
1 
1 
1 
1 
1 
1 
1 
1 
1 
1 
1 
1 
1 
1 
1 
1 
1 
1 
1 
1 
1 
1 
1 
1 
1 
1 
1 
1 
1 
1 
1 
1 
1 
1 
1 
1 
1 
1 
1 
1 
1 
1 
1 
1 
1 
1 
1 
1 
1 
1 
1 
1 
1 
1 
1 
1 
1 
1 
1 
1 
1 
1 
1 
1 
1 
1 
1 
1 
1 
1 
1 
1 
1 
1 
1 
1 
1 
1 
1 
1 
1 
1 
1 
1 
1 
1 
1 
1 
1 
1 
1 
1 
1 
1 
1 
1 
1 
1 
1 
1 
1 
1 
1 
1 
1 
1 
1 
1 
1 
1 
1 
1 
1 
1 
1 
1 
1 
1 
1 
1 
1 
1 
1 
1 
1 
1 
1 
1 
1 
1 
1 
1 
1 
1 
1 
1 
1 
1 
1 
1 
1 
1 
1 
1 
1 
1 
1 
1 
1 
1 
1 
1 
1 
1 
1 
1 
1 
1 
1 
1 
1 
1 
1 
1 
1 
1 
1 
1 
1 
1 
1 
1 
1 
1 
1 
1 
1 
1 
1 
1 
1 
1 
1 
1 
1 
1 
1 
1 
1 
1 
1 
1 
1 
1 
1 
1 
1 
1 
1 
1 
1 
1 
1 
1 
1 
1 
1 
1 
1 
1 
1 
1 
1 
1 
1 
1 
1 
1 
1 
1 
1 
1 
1 
1 
1 
1 
1 
1 
1 
1 
1 
1 
1 
1 
1 
1 
1 
1 
1 
1 
1 
1 
1 
1 
1 
1 
1 
1 
1 
1 
1 
1 
1 
1 
1 
1 
1 
1 
1 
1 
1 
1 
1 
1 
1 
1 
1 
1 
1 
1 
1 
1 
1 
1 
1 
1 
1 
1 
1 
1 
1 
1 
1 
1 
1 
1 
1 
1 
1 
1 
1 
1 
1 
1 
1 
1 
1 
1 
1 
1 
1 
1 
1 
1 
1 
1 
1 
1 
1 
1 
1 
1 
1 
1 
1 
1 
1 
1 
1 
1 
1 
1 
1 
1 
1 
1 
1 
1 
1 
1 
1 
1 
1 
1 
1 
1 
1 
1 
1 
1 
1 
1 
1 
1 
1 
1 
1 
1 
1 
1 
1 
1 
1 
1 
1 
1 
1 
1 
1 
1 
1 
1 
1 
1 
1 
1 
1 
1 
1 
1 
1 
1 
1 
1 
1 
1 
1 
1 
1 
1 
1 
1 
1 
1 
1 
1 
1 
1 
1 
1 
1 
1 
1 
1 
1 
1 
1 
1 
1 
1 
1 
1 
1 
1 
1 
1 
1 
1 
1 
1 
1 
1 
1 
1 
1 
1 
1 
1 
1 
1 
1 
1 
1 
1 
1 
1 
1 
1 
1 
1 
1 
1 
1 
1 
1 
1 
1 
1 
1 
1 
1 
1 
1 
1 
1 
1 
1 
1 
1 
1 
1 
1 
1 
1 
1 
1 
1 
1 
1 
1 
1 
1 
1 
1 
1 
1 
1 
1 
1 
1 
1 
1 
1 
1 
1 
1 
1 
1 
1 
1 
1 
1 
1 
1 
1 
1 
1 
1 
1 
1 
1 
1 
1 
1 
1 
1 
1 
1 
1 
1 
1 
1 
1 
1 
1 
1 
1 
1 
1 
1 
1 
1 
1 
1 
1 
1 
1 
1 
1 
1 
1 
1 
1 
1 
1 
1 
1 
1 
1 
1 
1 
1 
1 
1 
1 
1 
1 
1 
1 
1 
1 
1 
1 
1 
1 
1 
1 
1 
1 
1 
1 
1 
1 
1 
1 
1 
1 
1 
1 
1 
1 
1 
1 
1 
1 
1 
1 
1 
1 
1 
1 
1 
1 
1 
1 
1 
1 
1 
1 
1 
1 
1 
1 
1 
1 
1 
1 
1 
1 
1 
1 
1 
1 
1 
1 
1 
1 
1 
1 
1 
1 
1 
1 
1 
1 
1 
1 
1 
1 
1 
1 
1 
1 
1 
1 
1 
1 
1 
1 
1 
1 
1 
1 
1 
1 
1 
1 
1 
1 
1 
1 
1 
1 
1 
1 
1 
1 
1 
1 
1 
1 
1 
1 
1 
1 
1 
1 
1 
1 
1 
1 
1 
1 
1 
1 
1 
1 
1 
1 
1 
1 
1 
1 
1 
1 
1 
1 
1 
1 
1 
1 
1 
1 
1 
1 
1 
1 
1 
1 
1 
1 
1 
1 
1 
1 
1 
1 
1 
1 
1 
1 
1 
1 
1 
1 
1 
1 
1 
1 
1 
1 
1 
1 
1 
1 
1 
1 
1 
1 
1 
1 
1 
1 
1 
1 
1 
1 
1 
1 
1 
1 
1 
1 
1 
1 
1 
1 
1 
1 
1 
1 
1 
1 
1 
1 
1 
1 
1 
1 
1 
1 
1 
1 
1 
1 
1 
1 
1 
1 
1 
1 
1 
1 
1 
1 
1 
1 
1 
1 
1 
1 
1 
1 
1 
1 
1 
1 
1 
1 
1 
1 
1 
1 
1 
1 
1 
1 
1 
1 
1 
1 
1 
1 
1 
1 
1 
1 
1 
1 
1 
1 
1 
1 
1 
1 
1 
1 
1 
1 
1 
1 
1 
1 
1 
1 
1 
1 
1 
1 
1 
1 
1 
1 
1 
1 
1 
1 
1 
1 
1 
1 
1 
1 
1 
1 
1 
1 
1 
1 
1 
1 
1 
1 
1 
1 
1 
1 
1 
1 
1 
1 
1 
1 
1 
1 
1 
1 
1 
1 
1 
1 
1 
1 
1 
1 
1 
1 
1 
1 
1 
1 
1 
1 
1 
1 
1 
1 
1 
1 
1 
1 
1 
1 
1 
1 
1 
1 
1 
1 
1 
1 
1 
1 
1 
1 
1 
1 
1 
1 
1 
1 
1 
1 
1 
1 
1 
1 
1 
1 
1 
1 
1 
1 
1 
1 
1 
1 
1 
1 
1 
1 
1 
1 
1 
1 
1 
1 
1 
1 
1 
1 
1 
1 
1 
1 
1 
1 
1 
1 
1 
1 
1 
1 
1 
1 
1 
1 
1 
1 
1 
1 
1 
1 
1 
1 
1 
1 
1 
1 
1 
1 
1 
1 
1 
1 
1 
1 
1 
1 
1 
1 
1 
1 
1 
1 
1 
1 
1 
1 
1 
1 
1 
1 
1 
1 
1 
1 
1 
1 
1 
1 
1 
1 
1 
1 
1 
1 
1 
1 
1 
1 
1 
1 
1 
1 
1 
1 
1 
1 
1 
1 
1 
1 
1 
1 
1 
1 
1 
1 
1 
1 
1 
1 
1 
1 
1 
1 
1 
1 
1 
1 
1 
1 
1 
1 
1 
1 
1 
1 
1 
1 
1 
1 
1 
1 
1 
1 
1 
1 
1 
1 
1 
1 
1 
1 
1 
1 
1 
1 
1 
1 
1 
1 
1 
1 
1 
1 
1 
1 
1 
1 
1 
1 
1 
1 
1 
1 
1 
1 
1 
1 
1 
1 
1 
1 
1 
1 
1 
1 
1 
1 
1 
1 
1 
1 
1 
1 
1 
1 
1 
1 
1 
1 
1 
1 
1 
1 
1 
1 
1 
1 
1 
1 
1 
1 
1 
1 
1 
1 
1 
1 
1 
1 
1 
1 
1 
1 
1 
1 
1 
1 
1 
1 
1 
1 
1 
1 
1 
1 
1 
1 
1 
1 
1 
1 
1 
1 
1 
1 
1 
1 
1 
1 
1 
1 
1 
1 
1 
1 
1 
1 
1 
1 
1 
1 
1 
1 
1 
1 
1 
1 
1 
1 
1 
1 
1 
1 
1 
1 
1 
1 
1 
1 
1 
1 
1 
1 
1 
1 
1 
1 
1 
1 
1 
1 
1 
1 
1 
1 
1 
1 
1 
1 
1 
1 
1 
1 
1 
1 
1 
1 
1 
1 
1 
1 
1 
1 
1 
1 
1 
1 
1 
1 
1 
1 
1 
1 
1 
1 
1 
1 
1 
1 
1 
1 
1 
1 
1 
1 
1 
1 
1 
1 
1 
1 
1 
1 
1 
1 
1 
1 
1 
1 
1 
1 
1 
1 
1 
1 
1 
1 
1 
1 
1 
1 
1 
1 
1 
1 
1 
1 
1 
1 
1 
1 
1 
1 
1 
1 
1 
1 
1 
1 
1 
1 
1 
1 
1 
1 
1 
1 
1 
1 
1 
1 
1 
1 
1 
1 
1 
1 
1 
1 
1 
1 
1 
1 
1 
1 
1 
1 
1 
1 
1 
1 
1 
1 
1 
1 
1 
1 
1 
1 
1 
1 
1 
1 
1 
1 
1 
1 
1 
1 
1 
1 
1 
1 
1 
1 
1 
1 
1 
1 
1 
1 
1 
1 
1 
1 
1 
1 
1 
1 
1 
1 
1 
1 
1 
1 
1 
1 
1 
1 
1 
1 
1 
1 
1 
1 
1 
1 
1 
1 
1 
1 
1 
1 
1 
1 
1 
1 
1 
1 
1 
1 
1 
1 
1 
1 
1 
1 
1 
1 
1 
1 
1 
1 
1 
1 
1 
1 
1 
1 
1 
1 
1 
1 
1 
1 
1 
1 
1 
1 
1 
1 
1 
1 
1 
1 
1 
1 
1 
1 
1 
1 
1 
1 
1 
1 
1 
1 
1 
1 
1 
1 
1 
1 
1 
1 
1 
1 
1 
1 
1 
1 
1 
1 
1 
1 
1 
1 
1 
1 
1 
1 
1 
1 
1 
1 
1 
1 
1 
1 
1 
1 
1 
1 
1 
1 
1 
1 
1 
1 
1 
1 
1 
1 
1 
1 
1 
1 
1 
1 
1 
1 
1 
1 
1 
1 
1 
1 
1 
1 
1 
1 
1 
1 
1 
1 
1 
1 
1 
1 
1 
1 
1 
1 
1 
1 
1 
1 
1 
1 
1 
1 
1 
1 
1 
1 
1 
1 
1 
1 
1 
1 
1 
1 
1 
1 
1 
1 
1 
1 
1 
1 
1 
1 
1 
1 
1 
1 
1 
1 
1 
1 
1 
1 
1 
1 
1 
1 
1 
1 
1 
1 
1 
1 
1 
1 
1 
1 
1 
1 
1 
1 
1 
1 
1 
1 
1 
1 
1 
1 
1 
1 
1 
1 
1 
1 
1 
1 
1 
1 
1 
1 
1 
1 
1 
1 
1 
1 
1 
1 
1 
1 
1 
1 
1 
1 
1 
1 
1 
1 
1 
1 
1 
1 
1 
1 
1 
1 
1 
1 
1 
1 
1 
1 
1 
1 
1 
1 
1 
1 
1 
1 
1 
1 
1 
1 
1 
1 
1 
1 
1 
1 
1 
1 
1 
1 
1 
1 
1 
1 
1 
1 
1 
1 
1 
1 
1 
1 
1 
1 
1 
1 
1 
1 
1 
1 
1 
1 
1 
1 
1 
1 
1 
1 
1 
1 
1 
1 
1 
1 
1 
1 
1 
1 
1 
1 
1 
1 
1 
1 
1 
1 
1 
1 
1 
1 
1 
1 
1 
1 
1 
1 
1 
1 
1 
1 
1 
1 
1 
1 
1 
1 
1 
1 
1 
1 
1 
1 
1 
1 
1 
1 
1 
1 
1 
1 
1 
1 
1 
1 
1 
1 
1 
1 
1 
1 
1 
1 
1 
1 
1 
1 
1 
1 
1 
1 
1 
1 
1 
1 
1 
1 
1 
1 
1 
1 
1 
1 
1 
1 
1 
1 
1 
1 
1 
1 
1 
1 
1 
1 
1 
1 
1 
1 
1 
1 
1 
1 
1 
1 
1 
1 
1 
1 
1 
1 
1 
1 
1 
1 
1 
1 
1 
1 
1 
1 
1 
1 
1 
1 
1 
1 
1 
1 
1 
1 
1 
1 
1 
1 
1 
1 
1 
1 
1 
1 
1 
1 
1 
1 
1 
1 
1 
1 
1 
1 
1 
1 
1 
1 
1 
1 
1 
1 
1 
1 
1 
1 
1 
1 
1 
1 
1 
1 
1 
1 
1 
1 
1 
1 
1 
1 
1 
1 
1 
1 
1 
1 
1 
1 
1 
1 
1 
1 
1 
1 
1 
1 
1 
1 
1 
1 
1 
1 
1 
1 
1 
1 
1 
1 
1 
1 
1 
1 
1 
1 
1 
1 
1 
1 
1 
1 
1 
1 
1 
1 
1 
1 
1 
1 
1 
1 
1 
1 
1 
1 
1 
1 
1 
1 
1 
1 
1 
1 
1 
1 
1 
1 
1 
1 
1 
1 
1 
1 
1 
1 
1 
1 
1 
1 
1 
1 
1 
1 
1 
1 
1 
1 
1 
1 
1 
1 
1 
1 
1 
1 
1 
1 
1 
1 
1 
1 
1 
1 
1 
1 
1 
1 
1 
1 
1 
1 
1 
1 
1 
1 
1 
1 
1 
1 
1 
1 
1 
1 
1 
1 
1 
1 
1 
1 
1 
1 
1 
1 
1 
1 
1 
1 
1 
1 
1 
1 
1 
1 
1 
1 
1 
1 
1 
1 
1 
1 
1 
1 
1 
1 
1 
1 
1 
1 
1 
1 
1 
1 
1 
1 
1 
1 
1 
1 
1 
1 
1 
1 
1 
1 
1 
1 
1 
1 
1 
1 
1 
1 
1 
1 
1 
1 
1 
1 
1 
1 
1 
1 
1 
1 
1 
1 
1 
1 
1 
1 
1 
1 
1 
1 
1 
1 
1 
1 
1 
1 
1 
1 
1 
1 
1 
1 
1 
1 
1 
1 
1 
1 
1 
1 
1 
1 
1 
1 
1 
1 
1 
1 
1 
1 
1 
1 
1 
1 
1 
1 
1 
1 
1 
1 
1 
1 
1 
1 
1 
1 
1 
1 
1 
1 
1 
1 
1 
1 
1 
1 
1 
1 
1 
1 
1 
1 
1 
1 
1 
1 
1 
1 
1 
1 
1 
1 
1 
1 
1 
1 
1 
1 
1 
1 
1 
1 
1 
1 
1 
1 
1 
1 
1 
1 
1 
1 
1 
1 
1 
1 
1 
1 
1 
1 
1 
1 
1 
1 
1 
1 
1 
1 
1 
1 
1 
1 
1 
1 
1 
1 
1 
1 
1 
1 
1 
1 
1 
1 
1 
1 
1 
1 
1 
1 
1 
1 
1 
1 
1 
1 
1 
1 
1 
1 
1 
1 
1 
1 
1 
1 
1 
1 
1 
1 
1 
1 
1 
1 
1 
1 
1 
1 
1 
1 
1 
1 
1 
1 
1 
1 
1 
1 
1 
1 
1 
1 
1 
1 
1 
1 
1 
1 
1 
1 
1 
1 
1 
1 
1 
1 
1 
1 
1 
1 
1 
1 
1 
1 
1 
1 
1 
1 
1 
1 
1 
1 
1 
1 
1 
1 
1 
1 
1 
1 
1 
1 
1 
1 
1 
1 
1 
1 
1 
1 
1 
1 
1 
1 
1 
1 
1 
1 
1 
1 
1 
1 
1 
1 
1 
1 
1 
1 
1 
1 
1 
1 
1 
1 
1 
1 
1 
1 
1 
1 
1 
1 
1 
1 
1 
1 
1 
1 
1 
1 
1 
1 
1 
1 
1 
1 
1 
1 
1 
1 
1 
1 
1 
1 
1 
1 
1 
1 
1 
1 
1 
1 
1 
1 
1 
1 
1 
1 
1 
1 
1 
1 
1 
1 
1 
1 
1 
1 
1 
1 
1 
1 
1 
1 
1 
1 
1 
1 
1 
1 
1 
1 
1 
1 
1 
1 
1 
1 
1 
1 
1 
1 
1 
1 
1 
1 
1 
1 
1 
1 
1 
1 
1 
1 
1 
1 
1 
1 
1 
1 
1 
1 
1 
1 
1 
1 
1 
1 
1 
1 
1 
1 
1 
1 
1 
1 
1 
1 
1 
1 
1 
1 
1 
1 
1 
1 
1 
1 
1 
1 
1 
1 
1 
1 
1 
1 
1 
1 
1 
1 
1 
1 
1 
1 
1 
1 
1 
1 
1 
1 
1 
1 
1 
1 
1 
1 
1 
1 
1 
1 
1 
1 
1 
1 
1 
1 
1 
1 
1 
1 
1 
1 
1 
1 
1 
1 
1 
1 
1 
1 
1 
1 
1 
1 
1 
1 
1 
1 
1 
1 
1 
1 
1 
1 
1 
1 
1 
1 
1 
1 
1 
1 
1 
1 
1 
1 
1 
1 
1 
1 
1 
1 
1 
1 
1 
1 
1 
1 
1 
1 
1 
1 
1 
1 
1 
1 
1 
1 
1 
1 
1 
1 
1 
1 
1 
1 
1 
1 
1 
1 
1 
1 
1 
1 
1 
1 
1 
1 
1 
1 
1 
1 
1 
1 
1 
1 
1 
1 
1 
1 
1 
1 
1 
1 
1 
1 
1 
1 
1 
1 
1 
1 
1 
1 
1 
1 
1 
1 
1 
1 
1 
1 
1 
1 
1 
1 
1 
1 
1 
1 
1 
1 
1 
1 
1 
1 
1 
1 
1 
1 
1 
1 
1 
1 
1 
1 
1 
1 
1 
1 
1 
1 
1 
1 
1 
1 
1 
1 
1 
1 
1 
1 
1 
1 
1 
1 
1 
1 
1 
1 
1 
1 
1 
1 
1 
1 
1 
1 
1 
1 
1 
1 
1 
1 
1 
1 
1 
1 
1 
1 
1 
1 
1 
1 
1 
1 
1 
1 
1 
1 
1 
1 
1 
1 
1 
1 
1 
1 
1 
1 
1 
1 
1 
1 
1 
1 
1 
1 
1 
1 
1 
1 
1 
1 
1 
1 
1 
1 
1 
1 
1 
1 
1 
1 
1 
1 
1 
1 
1 
1 
1 
1 
1 
1 
1 
1 
1 
1 
1 
1 
1 
1 
1 
1 
1 
1 
1 
1 
1 
1 
1 
1 
1 
1 
1 
1 
1 
1 
1 
1 
1 
1 
1 
1 
1 
1 
1 
1 
1 
1 
1 
1 
1 
1 
1 
1 
1 
1 
1 
1 
1 
1 
1 
1 
1 
1 
1 
1 
1 
1 
1 
1 
1 
1 
1 
1 
1 
1 
1 
1 
1 
1 
1 
1 
1 
1 
1 
1 
1 
1 
1 
1 
1 
1 
1 
1 
1 
1 
1 
1 
1 
1 
1 
1 
1 
1 
1 
1 
1 
1 
1 
1 
1 
1 
1 
1 
1 
1 
1 
1 
1 
1 
1 
1 
1 
1 
1 
1 
1 
1 
1 
1 
1 
1 
1 
1 
1 
1 
1 
1 
1 
1 
1 
1 
1 
1 
1 
1 
1 
1 
1 
1 
1 
1 
1 
1 
1 
1 
1 
1 
1 
1 
1 
1 
1 
1 
1 
1 
1 
1 
1 
1 
1 
1 
1 
1 
1 
1 
1 
1 
1 
1 
1 
1 
1 
1 
1 
1 
1 
1 
1 
1 
1 
1 
1 
1 
1 
1 
1 
1 
1 
1 
1 
1 
1 
1 
1 
1 
1 
1 
1 
1 
1 
1 
1 
1 
1 
1 
1 
1 
1 
1 
1 
1 
1 
1 
1 
1 
1 
1 
1 
1 
1 
1 
1 
1 
1 
1 
1 
1 
1 
1 
1 
1 
1 
1 
1 
1 
1 
1 
1 
1 
1 
1 
1 
1 
1 
1 
1 
1 
1 
1 
1 
1 
1 
1 
1 
1 
1 
1 
1 
1 
1 
1 
1 
1 
1 
1 
1 
1 
1 
1 
1 
1 
1 
1 
1 
1 
1 
1 
1 
1 
1 
1 
1 
1 
1 
1 
1 
1 
1 
1 
1 
1 
1 
1 
1 
1 
1 
1 
1 
1 
1 
1 
1 
1 
1 
1 
1 
1 
1 
1 
1 
1 
1 
1 
1 
1 
1 
1 
1 
1 
1 
1 
1 
1 
1 
1 
1 
1 
1 
1 
1 
1 
1 
1 
1 
1 
1 
1 
1 
1 
1 
1 
1 
1 
1 
1 
1 
1 
1 
1 
1 
1 
1 
1 
1 
1 
1 
1 
1 
1 
1 
1 
1 
1 
1 
1 
1 
1 
1 
1 
1 
1 
1 
1 
1 
1 
1 
1 
1 
1 
1 
1 
1 
1 
1 
1 
1 
1 
1 
1 
1 
1 
1 
1 
1 
1 
1 
1 
1 
1 
1 
1 
1 
1 
1 
1 
1 
1 
1 
1 
1 
1 
1 
1 
1 
1 
1 
1 
1 
1 
1 
1 
1 
1 
1 
1 
1 
1 
1 
1 
1 
1 
1 
1 
1 
1 
1 
1 
1 
1 
1 
1 
1 
1 
1 
1 
1 
1 
1 
1 
1 
1 
1 
1 
1 
1 
1 
1 
1 
1 
1 
1 
1 
1 
1 
1 
1 
1 
1 
1 
1 
1 
1 
1 
1 
1 
1 
1 
1 
1 
1 
1 
1 
1 
1 
1 
1 
1 
1 
1 
1 
1 
1 
1 
1 
1 
1 
1 
1 
1 
1 
1 
1 
1 
1 
1 
1 
1 
1 
1 
1 
1 
1 
1 
1 
1 
1 
1 
1 
1 
1 
1 
1 
1 
1 
1 
1 
1 
1 
1 
1 
1 
1 
1 
1 
1 
1 
1 
1 
1 
1 
1 
1 
1 
1 
1 
1 
1 
1 
1 
1 
1 
1 
1 
1 
1 
1 
1 
1 
1 
1 
1 
1 
1 
1 
1 
1 
1 
1 
1 
1 
1 
1 
1 
1 
1 
1 
1 
1 
1 
1 
1 
1 
1 
1 
1 
1 
1 
1 
1 
1 
1 
1 
1 
1 
1 
1 
1 
1 
1 
1 
1 
1 
1 
1 
1 
1 
1 
1 
1 
1 
1 
1 
1 
1 
1 
1 
1 
1 
1 
1 
1 
1 
1 
1 
1 
1 
1 
1 
1 
1 
1 
1 
1 
1 
1 
1 
1 
1 
1 
1 
1 
1 
1 
1 
1 
1 
1 
1 
1 
1 
1 
1 
1 
1 
1 
1 
1 
1 
1 
1 
1 
1 
1 
1 
1 
1 
1 
1 
1 
1 
1 
1 
1 
1 
1 
1 
1 
1 
1 
1 
1 
1 
1 
1 
1 
1 
1 
1 
1 
1 
1 
1 
1 
1 
1 
1 
1 
1 
1 
1 
1 
1 
1 
1 
1 
1 
1 
1 
1 
1 
1 
1 
1 
1 
1 
1 
1 
1 
1 
1 
1 
1 
1 
1 
1 
1 
1 
1 
1 
1 
1 
1 
1 
1 
1 
1 
1 
1 
1 
1 
1 
1 
1 
1 
1 
1 
1 
1 
1 
1 
1 
1 
1 
1 
1 
1 
1 
1 
1 
1 
1 
1 
1 
1 
1 
1 
1 
1 
1 
1 
1 
1 
1 
1 
1 
1 
1 
1 
1 
1 
1 
1 
1 
1 
1 
1 
1 
1 
1 
1 
1 
1 
1 
1 
1 
1 
1 
1 
1 
1 
1 
1 
1 
1 
1 
1 
1 
1 
1 
1 
1 
1 
1 
1 
1 
1 
1 
1 
1 
1 
1 
1 
1 
1 
1 
1 
1 
1 
1 
1 
1 
1 
1 
1 
1 
1 
1 
1 
1 
1 
1 
1 
1 
1 
1 
1 
1 
1 
1 
1 
1 
1 
1 
1 
1 
1 
1 
1 
1 
1 
1 
1 
1 
1 
1 
1 
1 
1 
1 
1 
1 
1 
1 
1 
1 
1 
1 
1 
1 
1 
1 
1 
1 
1 
1 
1 
POINT_DATA 5000
VECTORS Stress float
584.16 518.448 0.
-681.711 -168.939 0.
-745.737 -318.593 0.
436.605 87.4569 0.
449.573 117.203 0.
462.541 146.949 0.
-221.808 -310.899 0.
-454.904 -854.669 0.
-688 -1398.44 0.
-586.277 -1346.06 0.
-446.106 -1018.81 0.
-305.935 -691.558 0.
99.365 -494.253 0.
92.5562 -510.276 0.
-1240.4 -1044.4 0.
-964.653 -401.344 0.
-688.905 241.714 0.
453.824 797.261 0.
-57.3174 -395.656 0.
-568.459 -1588.57 0.
-594.001 -1793.24 0.
-326.291 -1168.68 0.
-58.5811 -544.134 0.
-1162.06 -651.539 0.
-995.915 -264.405 0.
-701.298 177.781 0.
-1618.86 114.65 0.
-1446.66 517.312 0.
-1711.95 602.719 0.
-1866.26 242.401 0.
-2020.58 -117.918 0.
-2373.79 -307.022 0.
-2218.43 56.637 0.
-2063.08 420.296 0.
-1409.22 185.785 0.
-1927.78 -1023.75 0.
-2446.34 -2233.29 0.
-5720.89 -2662.95 0.
-5027.48 -1044.86 0.
-6341.53 -303.624 0.
-5929.5 657.156 0.
-5517.47 1617.94 0.
-9008.59 683.494 0.
-9017.21 665.336 0.
-9025.83 647.179 0.
-12283 -1974.09 0.
-13539.8 -4903.45 0.
-14796.5 -7832.8 0.
69608.9 30082.4 0.
71360.3 34179 0.
-695473 -291119 0.
71777.6 34388.7 0.
70043.5 30331.8 0.
-14624.3 -7766.85 0.
-13570.1 -5309.18 0.
-12515.9 -2851.52 0.
-8892.24 -210.237 0.
-8814.14 -29.0772 0.
-8736.03 152.083 0.
-5567.76 1469.53 0.
-5604.5 1382.91 0.
-5641.25 1296.3 0.
-6153.61 586.709 0.
-6434.32 -66.2038 0.
-1382 1420.05 0.
-2155.98 -386.201 0.
-2929.97 -2192.45 0.
-2355.78 -2536.36 0.
-1882.07 -1431.49 0.
-1408.35 -326.623 0.
-1716.45 -46.4884 0.
-1673.32 53.53 0.
-1630.19 153.548 0.
-2526.54 76.0488 0.
-2332.99 528.146 0.
172.381 1942.72 0.
-209.124 984.268 0.
-626.634 10.3986 0.
819.634 -104.241 0.
536.328 -765.26 0.
253.023 -1426.28 0.
-329.339 -1631.64 0.
24.3936 -805.603 0.
378.126 20.4284 0.
-222.598 213.117 0.
-38.5018 644.184 0.
145.594 1075.25 0.
-929.072 166.102 0.
-1198.94 -463.941 0.
-65.98 -394.468 0.
14.1945 -207.039 0.
94.3689 -19.6099 0.
55.6893 -2.37457 0.
-38.5694 -223.691 0.
-132.828 -445.007 0.
-130.065 -436.749 0.
-50.7346 -251.465 0.
28.5956 -66.1821 0.
-328.414 -112.242 0.
-282.491 -4.77301 0.
264.399 412.062 0.
-270.358 36.6949 0.
-334.386 -113.489 0.
109.532 -20.4847 0.
122.783 8.89681 0.
136.034 38.2784 0.
-87.1635 -221.166 0.
-320.233 -764.636 0.
-553.302 -1308.11 0.
-262.623 -1177.1 0.
-122.568 -849.743 0.
17.4877 -522.39 0.
-391.153 -672.508 0.
-397.862 -688.57 0.
-790.16 -821.513 0.
-514.089 -178.414 0.
-238.018 464.685 0.
-443.428 444.811 0.
-954.122 -747.568 0.
-1464.82 -1939.95 0.
827.806 -1153.64 0.
1095.8 -528.643 0.
1363.79 96.3543 0.
-1458.74 -745.768 0.
-1292.54 -359.599 0.
-1457.03 -115.159 0.
-1727.52 98.3824 0.
-1555.98 501.177 0.
-1628.25 669.763 0.
-1782.38 309.358 0.
-1936.52 -51.0479 0.
-2015.65 -121.96 0.
-1860.76 242.975 0.
-1705.86 607.911 0.
-1282.99 268.593 0.
-1801.73 -940.493 0.
-2320.47 -2149.58 0.
-5285.8 -2444.74 0.
-4592.2 -826.011 0.
-5693.51 7.84827 0.
-5280.89 968.767 0.
-4868.26 1929.69 0.
-7949.33 1165.68 0.
-7959.11 1148.73 0.
-7968.89 1131.77 0.
-8799.82 -462.288 0.
-10061.6 -3397.38 0.
-11323.5 -6332.46 0.
63275.8 27414.2 0.
65012.9 31497.4 0.
-613934 -256142 0.
65186.7 31602.9 0.
63467.4 27559.7 0.
-10856 -6136.92 0.
-9797.62 -3673.74 0.
-8739.25 -1210.55 0.
-7870.95 256.491 0.
-7792.39 436.549 0.
-7713.82 616.608 0.
-4860 1807.19 0.
-4896.19 1720.11 0.
-4932.37 1633.04 0.
-5617.14 849.355 0.
-5899.15 197.518 0.
-1734.02 1299.44 0.
-2507.57 -506.353 0.
-3281.12 -2312.15 0.
-1280.59 -2044.66 0.
-806.282 -939.354 0.
-331.978 165.956 0.
-1698.59 -6.96916 0.
-1655.14 92.579 0.
-1611.69 192.127 0.
-2590.52 80.583 0.
-2397.26 532.926 0.
-1066.33 1443.6 0.
-1372.8 518.289 0.
-1790.14 -454.546 0.
2511.71 653.221 0.
2228.03 -8.616 0.
1944.35 -670.454 0.
-744.448 -1777.08 0.
-391.271 -951.027 0.
-38.0945 -124.979 0.
-666.133 52.9567 0.
-483.187 484.358 0.
-300.242 915.759 0.
-790.822 256.973 0.
-1060.49 -373.313 0.
34.8013 -320.961 0.
114.73 -133.394 0.
194.659 54.174 0.
44.174 23.2325 0.
-49.5103 -199.503 0.
-143.195 -422.239 0.
-40.694 -365.745 0.
38.4929 -180.439 0.
117.68 4.86843 0.
-314.484 -74.4411 0.
-268.668 33.4113 0.
-555.796 -875.038 0.
-278.129 -733.213 0.
-149.824 -434.538 0.
-767.623 -1420.13 0.
-478.583 -745.451 0.
-807.961 -1513.76 0.
-1479.82 -3695.47 0.
-1061.95 -2721.51 0.
-3415.35 -8213.85 0.
-5466.51 -13903.7 0.
-1495.75 -4640.45 0.
-1683.59 -5080.64 0.
-2762.71 -5236.38 0.
-3143.75 -6121.82 0.
-4286.75 -9818.88 0.
-1420.2 -3129.2 0.
-1895.54 -4237.26 0.
-3480.5 -4904.84 0.
-3022.74 -3838 0.
-5298.15 -9148.52 0.
-24334.4 -62543.2 0.
-1527.5 -9323.66 0.
-743.572 -7491.16 0.
-4110.62 -6343.1 0.
-3436.16 -4769.47 0.
-4319.42 -6886.78 0.
-3748.93 -4375.09 0.
-3591.5 -4010.29 0.
-3180.85 -3091.77 0.
-3166.28 -3056.07 0.
-4342.79 -5799.53 0.
-7608.42 -13820.4 0.
-4442.86 -6435.57 0.
-4423.13 -6391.04 0.
-3743.83 -5674.75 0.
-3832.1 -5885.8 0.
-18049.5 -39064.8 0.
-14142 -23907.3 0.
-10413.7 -15208.9 0.
-10825 -13187.3 0.
-8838.81 -8556.41 0.
-8981.8 -8893.6 0.
-10525 -6847.59 0.
-9346.82 -4102.21 0.
-9338.9 -4087.43 0.
-8191.94 -5664.71 0.
-9740.58 -9260.18 0.
-31508.7 -60034.4 0.
55041.4 20333 0.
58978.3 29609.7 0.
-494157 -203150 0.
58740.4 29219 0.
54564.8 19386.8 0.
-29521.2 -56856.8 0.
-9651.44 -10507.9 0.
-9331.47 -9774.99 0.
-10769.4 -8445.76 0.
-10105 -6894.47 0.
-11119.9 -9261.81 0.
-8207.62 -7352.78 0.
-7016.41 -4572.57 0.
-7142.26 -4865.54 0.
-7396.76 -4285.3 0.
-7667.72 -4922.95 0.
-5938.77 -7812.57 0.
-5255.04 -6218.15 0.
-7105.9 -10537.8 0.
-23292.2 -55423.6 0.
-3063.69 -8220.09 0.
-3275.12 -8709.67 0.
-5282.53 -8379.87 0.
-4674.79 -6960.56 0.
-6495.77 -11208.2 0.
-4164.41 -3430.24 0.
-3870.97 -2745.95 0.
-4393.59 -4068.94 0.
-3540.62 -2292.6 0.
-4280.19 -4014.57 0.
-5894.84 -22147.8 0.
-6701.24 -24031.3 0.
-31328.5 -81497 0.
-12111.6 -27477.1 0.
-5490.04 -12026.1 0.
-5611.38 -12308.6 0.
-2962.37 -4421.6 0.
-1996.43 -2172.59 0.
-2772.22 -3987.58 0.
-2361.33 -3636.45 0.
-2453.61 -3849.27 0.
-3027.47 -7643.28 0.
-638.562 -2065.38 0.
-656.12 -2102.93 0.
-1115.54 -2642.94 0.
-825.599 -1963.43 0.
-1633.46 -3845.43 0.
-738.114 -2132.63 0.
-16.273 -449.031 0.
62.0982 -266.89 0.
-784.298 -1155.74 0.
-1753.43 -3417.23 0.
124.922 186.239 0.
60.3166 270.535 0.
83.0662 323.621 0.
18.1357 338.738 0.
43.0129 399.916 0.
67.8901 461.094 0.
646.182 1119.85 0.
1130 2247.97 0.
1613.81 3376.09 0.
1668.68 3481.25 0.
1463.02 2999.96 0.
1257.36 2518.66 0.
676.403 2417.61 0.
794.941 2695.99 0.
1373.68 3090.14 0.
1010.69 2245.26 0.
647.689 1400.37 0.
-356.002 1219.95 0.
889.524 4122.71 0.
2135.05 7025.47 0.
4585.74 8427 0.
3812.78 6623.89 0.
3039.82 4820.77 0.
341.171 3030.92 0.
158.676 2606.07 0.
526.099 2416.85 0.
-508.483 1831.68 0.
-575.465 1673.41 0.
-790.093 1635.77 0.
-404.064 2538.31 0.
-18.036 3440.84 0.
122.094 3715.85 0.
-125.322 3138.11 0.
-372.737 2560.37 0.
220.539 4178.43 0.
1482.9 7118.62 0.
2745.27 10058.8 0.
42.4957 8403.69 0.
-470.836 7204.11 0.
-1258.4 5848.16 0.
-1823.88 4529.25 0.
-2389.37 3210.35 0.
-3918.67 1713.33 0.
-4080.83 1332.49 0.
-4242.97 951.649 0.
-2608.64 693.387 0.
-3511.62 -1394.85 0.
-4414.57 -3483.05 0.
48219 23712 0.
51907.9 32445.6 0.
-340015 -128370 0.
52083.6 32668.9 0.
48473.2 24118.5 0.
-3791.49 -2772.21 0.
-2791.89 -455.539 0.
-1792.29 1861.16 0.
-3797.39 1997.95 0.
-3748.75 2114.12 0.
-3700.11 2230.3 0.
-2534.55 2610.95 0.
-2644.81 2354.95 0.
-2755.06 2098.94 0.
-3458.83 1627.32 0.
-3539.27 1434.76 0.
-1238.45 2649.34 0.
56.0073 5664.83 0.
1350.46 8680.34 0.
3866.03 10535.1 0.
2739.17 7906.11 0.
1612.31 5277.11 0.
429.133 3928.41 0.
464.243 4009.01 0.
499.352 4089.62 0.
-561.709 2942.92 0.
-1019.14 1877.81 0.
-810.257 1152.81 0.
-99.3528 2971.76 0.
695.159 4826.53 0.
4901.6 8191.71 0.
5757.37 10187.8 0.
6613.13 12183.9 0.
4101.64 10788.2 0.
2813.29 7781.05 0.
1524.94 4773.9 0.
847.531 3133.2 0.
387.489 2056.71 0.
-72.5516 980.225 0.
338.914 1392.39 0.
510.201 1796.42 0.
1009.67 2199.09 0.
672.28 1414.74 0.
334.893 630.395 0.
173.931 299.385 0.
364.157 748.595 0.
554.382 1197.8 0.
542.602 1151.56 0.
378.3 768.808 0.
213.998 386.056 0.
39.9765 501.417 0.
201.652 880.241 0.
418.569 344.262 0.
-35.8799 260.158 0.
-13.3904 313.35 0.
73.8707 394.188 0.
97.7788 455.993 0.
121.687 517.799 0.
738.757 1190.51 0.
1222.52 2318.81 0.
1706.28 3447.11 0.
1298.21 3352.98 0.
1092.48 2872.01 0.
886.763 2391.03 0.
887.583 2539.76 0.
1006.63 2817.43 0.
1546.52 3194.78 0.
1183.17 2350.11 0.
819.816 1505.43 0.
273.158 1522.32 0.
1519.99 4425.89 0.
2766.83 7329.48 0.
2770.37 7680.9 0.
1999.2 5879.09 0.
1228.02 4077.27 0.
890.429 3299.03 0.
707.453 2874.15 0.
1220.43 2747.46 0.
218.568 2173.85 0.
151.311 2015.5 0.
-326.748 1866.05 0.
59.3524 2768.81 0.
445.452 3671.57 0.
400.789 3864.49 0.
153.112 3287.22 0.
-94.5646 2709.95 0.
-79.3503 4081.67 0.
1182.74 7020.99 0.
2444.83 9960.31 0.
473.018 8621.98 0.
-40.2315 7421.74 0.
483.07 6624.97 0.
-84.2508 5305.92 0.
-651.568 3986.87 0.
-304.518 3292.5 0.
-467.363 2911.25 0.
-630.196 2530 0.
898.639 2207.51 0.
-7.01789 113.768 0.
-912.642 -1979.94 0.
38144.3 19503 0.
41794.5 28181.4 0.
-195967 -66604.4 0.
42152.8 28479.9 0.
38580.8 19982.3 0.
-663.611 -1425.1 0.
339.092 896.816 0.
1341.8 3218.76 0.
-723.42 3346.2 0.
-675.408 3462.69 0.
-627.398 3579.16 0.
-800.244 3384.24 0.
-910.873 3127.91 0.
-1021.49 2871.59 0.
-1721.06 2406.23 0.
-1801.67 2213.84 0.
-957.254 2799.93 0.
338.892 5815.45 0.
1635.04 8830.97 0.
2523.11 9991.29 0.
1398.36 7363.77 0.
273.601 4736.24 0.
982.004 4199.51 0.
1017.81 4279.16 0.
1053.61 4358.82 0.
523.605 3442.15 0.
64.9795 2376.9 0.
628.215 1799.11 0.
1368.51 3631.51 0.
2164.93 5487.96 0.
2217.15 7075.85 0.
3071.11 9068.97 0.
3925.06 11062.1 0.
3892.88 10735.5 0.
2605.14 7728.12 0.
1317.41 4720.72 0.
1564.6 3471.39 0.
1103.73 2394.76 0.
642.864 1318.13 0.
1022.9 1716.6 0.
1193.56 2121.13 0.
803.566 2140.2 0.
466.401 1355.87 0.
129.236 571.527 0.
225.868 354.157 0.
415.345 803.938 0.
604.821 1253.72 0.
403.252 1122.34 0.
238.514 739.897 0.
73.7766 357.451 0.
196.75 601.253 0.
357.994 980.803 0.
349.339 325.488 0.
-174.396 32.5708 0.
-182.016 16.2214 0.
-54.7011 37.7981 0.
-113.902 -100.925 0.
-173.103 -239.649 0.
167.489 -296.999 0.
-8.1434 -704.294 0.
-183.775 -1111.59 0.
-723.606 -1283.81 0.
-568.911 -924.886 0.
-414.214 -565.961 0.
-365.345 -521.833 0.
-378.833 -550.79 0.
-76.5353 -413.637 0.
84.2407 -36.3241 0.
245.016 340.988 0.
16.6173 155.244 0.
-505.329 -1050.31 0.
-1027.27 -2255.86 0.
-2200.07 -2805.37 0.
-1777.55 -1823.22 0.
-1355.03 -841.069 0.
-490.346 -470.173 0.
-629.28 -799.152 0.
-252.34 -906.944 0.
-805.381 -796.852 0.
-609.197 -343.322 0.
-926.894 -245.655 0.
-1083.99 -611.985 0.
-1241.09 -978.314 0.
-1542.24 -1107.39 0.
-1328.37 -615.447 0.
-1114.5 -123.502 0.
-1954.72 -951.661 0.
-2452.35 -2115.64 0.
-2949.98 -3279.62 0.
-3889.63 -3560.46 0.
-3740.69 -3215.34 0.
-1990.29 -2226 0.
-2083.33 -2444.82 0.
-2176.37 -2663.63 0.
-513.639 -2309.67 0.
-934.899 -3282.83 0.
-1356.15 -4255.99 0.
955.675 -2328.76 0.
2264.89 739.487 0.
3574.09 3807.73 0.
25659.5 7253.15 0.
20935.7 -3626.94 0.
2476.37 -20385.2 0.
20553.5 -3780.92 0.
25293.6 7107.89 0.
3498.19 3720.06 0.
2104 463.618 0.
709.787 -2792.81 0.
-2275.9 -4966.73 0.
-1728.42 -3697.8 0.
-1180.93 -2428.86 0.
-1910 -2141.38 0.
-1695.86 -1639.81 0.
-1481.71 -1138.24 0.
-2254.7 -1269.52 0.
-2161.07 -1050.06 0.
-2110.2 -980.3 0.
-2519.46 -1930.85 0.
-2928.71 -2881.39 0.
-3136.07 -3122.15 0.
-2634.85 -1952.41 0.
-2133.63 -782.671 0.
-676.396 35.6362 0.
-853.037 -375.132 0.
-1029.68 -785.9 0.
-766.68 -518.371 0.
-621.157 -190.839 0.
537.174 561.65 0.
353.115 211.101 0.
207.321 -123.049 0.
-2098.32 -1553.72 0.
-2586.57 -2688.1 0.
-3074.82 -3822.47 0.
-2089.09 -3354.99 0.
-1502.1 -1986.9 0.
-915.101 -618.821 0.
273.121 71.8049 0.
162.069 -191.073 0.
51.0157 -453.953 0.
377.982 -226.193 0.
433.947 -94.7161 0.
-318.654 -319.107 0.
-293.393 -255.773 0.
-268.131 -192.44 0.
57.2145 -56.1245 0.
-1.2622 -192.175 0.
-59.7391 -328.226 0.
-143.104 -314.456 0.
-62.3171 -127.397 0.
18.4701 59.6615 0.
-231.407 -268.974 0.
-395.57 -643.594 0.
-59.0288 177.91 0.
-148.079 74.3037 0.
-156.839 59.2003 0.
-18.6583 81.1269 0.
-77.3928 -57.8733 0.
-136.127 -196.874 0.
251.26 -228.931 0.
75.6211 -636.804 0.
-100.017 -1044.68 0.
-408.743 -1119.3 0.
-253.832 -760.593 0.
-98.9187 -401.883 0.
-420.788 -514.779 0.
-434.493 -543.909 0.
-388.258 -518.716 0.
-228.013 -141.161 0.
-67.769 236.393 0.
200.004 266.647 0.
-321.175 -940.288 0.
-842.351 -2147.22 0.
-1569.64 -2502.44 0.
-1146.63 -1520.26 0.
-723.616 -538.074 0.
-421.254 -410.856 0.
-559.881 -739.781 0.
-1223.48 -1293.74 0.
-890.415 -803.697 0.
-695.303 -349.987 0.
-614.975 -81.3304 0.
-772.385 -447.414 0.
-929.795 -813.498 0.
-1335.81 -990.741 0.
-1123.06 -497.679 0.
-910.296 -4.6159 0.
-987.082 -510.776 0.
-1486.09 -1674.21 0.
-1985.09 -2837.64 0.
-2234.16 -2821.34 0.
-2084.81 -2476.15 0.
-444.546 -1536.59 0.
-538.722 -1754.89 0.
-632.893 -1973.2 0.
1268.24 -1521.52 0.
845.197 -2495.7 0.
422.166 -3469.87 0.
2391.87 -1666.96 0.
3704.13 1402.32 0.
5016.39 4471.61 0.
17991.3 3944.17 0.
13311.9 -6892.1 0.
2008.51 -20550.9 0.
11516.7 -7647.57 0.
16204.1 3189.68 0.
5184.29 4495.76 0.
3787.21 1236.88 0.
2390.11 -2021.98 0.
-386.296 -4135.86 0.
161.301 -2864.03 0.
708.902 -1592.2 0.
-518.464 -1519.28 0.
-304.441 -1017.13 0.
-90.4128 -514.986 0.
-1399.21 -873.045 0.
-1305.75 -653.755 0.
-1255.2 -583.268 0.
-1664.64 -1534.12 0.
-2074.08 -2484.98 0.
-1936.15 -2579.22 0.
-1434.02 -1408.73 0.
-931.884 -238.249 0.
-868.446 -15.0566 0.
-1044.52 -426.126 0.
-1220.59 -837.196 0.
-806.628 -505.175 0.
-662.003 -176.404 0.
253.457 471.003 0.
57.8629 114.862 0.
-87.2482 -219.643 0.
-1014.49 -1058.28 0.
-1502.93 -2193 0.
-1991.37 -3327.73 0.
-1733.44 -3173.83 0.
-1146.09 -1805.21 0.
-558.741 -436.596 0.
5.95797 -11.8392 0.
-104.854 -274.495 0.
-215.669 -537.152 0.
168.244 -286.418 0.
224.461 -155.123 0.
-253.704 -260.181 0.
-228.422 -196.96 0.
-203.14 -133.739 0.
63.3705 -22.8162 0.
4.8488 -158.684 0.
-53.673 -294.551 0.
201.838 -137.811 0.
282.194 49.5501 0.
362.55 236.911 0.
-501.533 -352.767 0.
-666.954 -726.56 0.
-466.942 57.6227 0.
-0.909591 391.77 0.
-132.645 81.8859 0.
-299.683 -621.697 0.
-123.297 -209.56 0.
-38.2723 -10.5792 0.
-175.18 -1346.16 0.
724.008 756.021 0.
633.372 548.202 0.
178.303 -338.293 0.
-152.71 -1107 0.
330.734 24.6798 0.
-146.531 267.947 0.
-190.871 159.715 0.
-676.761 -564.322 0.
-357.125 174.395 0.
-714.605 -666.837 0.
-335.242 -1271.49 0.
-190.255 -937.006 0.
182.27 -71.6251 0.
-24.3476 -65.1062 0.
17.3801 29.8257 0.
72.2883 155.468 0.
-66.2396 307.24 0.
-355.293 -367.165 0.
-258.069 -30.9207 0.
-640.358 -29.7062 0.
-957.802 -781.045 0.
-450.7 -240.938 0.
-21.9303 752.768 0.
319.641 1543.03 0.
-1515.19 -1781.94 0.
-1152.85 -941.875 0.
-742.111 11.2024 0.
257.369 603.061 0.
-737.541 -1715.55 0.
-1556.89 -3624.61 0.
-881.505 -2773.48 0.
-370.419 -1576.88 0.
1031.94 -1001.22 0.
754.285 -1645.21 0.
680.889 -1812.71 0.
2586.85 -1745.89 0.
2552.85 -1829.28 0.
3358.31 45.9503 0.
4484.5 553.963 0.
4317.94 170.528 0.
4933.38 1611.62 0.
10863.6 1831.74 0.
10915.8 1967.09 0.
1405.38 -4047.83 0.
7557.5 195.885 0.
7897.9 984.465 0.
4801.09 498.569 0.
4244.37 -809.724 0.
3706.19 -2074.71 0.
2619.95 -657.38 0.
3211.98 716.23 0.
3164.2 596.956 0.
607.671 -1498.98 0.
245.677 -2345.7 0.
1453.55 470.711 0.
-678.772 -809.931 0.
-1315.54 -2288.33 0.
-1099.47 -1806.37 0.
-74.699 586.056 0.
-587.581 -609.41 0.
-188.998 -720.067 0.
-212.127 -771.861 0.
71.7776 -107.203 0.
-1495.14 -1105.68 0.
-655.093 855.732 0.
-801.049 516.526 0.
-1133.43 -1159.8 0.
-1344.03 -1650.1 0.
154.829 356.701 0.
-361.533 -290.532 0.
-652.102 -970.809 0.
607.384 739.097 0.
-10.234 -701.966 0.
-136.805 -997.179 0.
-599.543 -1173.02 0.
-340.92 -566.326 0.
-120.069 -47.7121 0.
-650.339 -1020.82 0.
-582.835 -860.635 0.
-940.203 -1691.87 0.
124.408 47.0487 0.
458.525 823.122 0.
335.858 1027.53 0.
372.796 1104.53 0.
391.239 1138.22 0.
511.065 1052.34 0.
369.297 720.301 0.
712.101 1518.93 0.
841.941 731.049 0.
733.338 476.444 0.
732.613 473.591 0.
-244.866 776.896 0.
-668.724 -221.24 0.
-117.785 149.648 0.
-5.84747 76.37 0.
-50.0678 -30.3761 0.
33.9035 -74.7462 0.
0.472385 -152.655 0.
-32.9585 -230.563 0.
204.474 -243.318 0.
114.061 -448.833 0.
23.6468 -654.349 0.
-103.859 -725.901 0.
-72.1558 -648.221 0.
-40.4532 -570.541 0.
-439.935 -648.255 0.
-383.931 -521.182 0.
-615.654 -518.802 0.
-578.828 -436.283 0.
-542.002 -353.763 0.
70.7356 -136.367 0.
-101.308 -539.424 0.
-273.353 -942.48 0.
-302.86 -1078.25 0.
-267.71 -998.98 0.
-232.56 -919.712 0.
-388.913 -799.848 0.
-270.601 -525.191 0.
-156.994 -252.382 0.
-927.951 -612.561 0.
-934.244 -639.187 0.
-490.656 -494.35 0.
-540.51 -615.265 0.
-590.364 -736.18 0.
-866.134 -963.941 0.
-931.149 -1120.78 0.
-996.163 -1277.63 0.
-268.569 -1018.14 0.
-277.753 -1035.58 0.
-286.935 -1053.01 0.
533.89 -900.144 0.
413.286 -1176.91 0.
1423.6 -974.703 0.
1113.43 -1692.69 0.
803.266 -2410.67 0.
2271.57 -2120.94 0.
2392.41 -1842.54 0.
2513.25 -1564.14 0.
3708.14 -702.179 0.
3940.95 -158.767 0.
4173.75 384.647 0.
8627.48 1351.95 0.
7911.63 -309.208 0.
2662.71 -3911.44 0.
6125.45 -1111.58 0.
6816.6 500.08 0.
3930.02 198.486 0.
3779.27 -159.759 0.
3628.52 -518.004 0.
2364.76 -1332.03 0.
2230.7 -1652.26 0.
2096.63 -1972.49 0.
535.902 -2435.76 0.
759.439 -1914.55 0.
982.977 -1393.34 0.
-505.283 -1685.5 0.
-333.737 -1278.72 0.
-463.747 -1092.24 0.
-608.309 -1428.86 0.
-752.869 -1765.48 0.
-684.513 -1738.78 0.
-440.825 -1168.73 0.
-197.138 -598.686 0.
-877.757 -715.379 0.
-891.764 -745.297 0.
-905.769 -775.214 0.
-972.57 -744.816 0.
-930.837 -644.389 0.
-193.534 -247.977 0.
-323.362 -489.796 0.
-421.372 -717.979 0.
-101.189 -809.666 0.
-276.127 -1215.65 0.
-451.066 -1621.64 0.
-486.969 -1590.15 0.
-240.421 -1010.49 0.
6.12705 -430.838 0.
-409.093 -269.588 0.
-259.855 81.8106 0.
-110.617 433.209 0.
223.792 197.925 0.
-5.98906 -339.039 0.
-467.267 -864.137 0.
-268.396 -406.196 0.
-69.5251 51.7457 0.
274.38 332.709 0.
137.024 11.7927 0.
-0.33139 -309.124 0.
276.11 -178.435 0.
379.9 62.5015 0.
483.689 303.438 0.
-341.789 -76.6464 0.
-375.998 -162.086 0.
277.003 348.14 0.
169.408 181.324 0.
125.507 74.3104 0.
172.862 18.1017 0.
139.471 -60.2291 0.
106.08 -138.56 0.
106.94 -253.919 0.
16.1333 -459.087 0.
-74.6729 -664.255 0.
-228.483 -746.649 0.
-196.884 -669.115 0.
-165.286 -591.581 0.
-302.655 -559.914 0.
-247.084 -432.476 0.
-547.668 -457.484 0.
-512.054 -374.451 0.
-476.441 -291.417 0.
-12.502 -142.844 0.
-185.217 -545.433 0.
-357.933 -948.021 0.
-96.3305 -959.677 0.
-61.1169 -880.305 0.
-25.9032 -800.933 0.
-186.632 -682.168 0.
-67.6765 -407.888 0.
32.993 -141.238 0.
-956.243 -591.62 0.
-962.103 -618.596 0.
-390.638 -420.163 0.
-441.538 -540.899 0.
-492.438 -661.636 0.
-483.78 -769.426 0.
-549.102 -926.271 0.
-614.423 -1083.12 0.
-46.1526 -892.86 0.
-55.7078 -910.057 0.
-65.262 -927.253 0.
1301.84 -538.027 0.
1181.05 -815.02 0.
1903.74 -740.948 0.
1592.78 -1459.1 0.
1281.82 -2177.24 0.
2098.89 -2163.98 0.
2219.63 -1885.03 0.
2340.37 -1606.08 0.
3433.61 -787.516 0.
3667.99 -244.835 0.
3902.37 297.847 0.
6157.55 324.922 0.
5444.43 -1334.16 0.
-363.972 -5179.16 0.
5071.77 -1534.32 0.
5760.84 76.8489 0.
3036.71 -154.011 0.
2885.11 -511.265 0.
2733.52 -868.518 0.
2422.4 -1276.91 0.
2288.23 -1597.07 0.
2154.06 -1917.23 0.
955.309 -2226.55 0.
1178.45 -1704.06 0.
1401.59 -1181.56 0.
182.491 -1361.63 0.
354.646 -954.78 0.
-42.8187 -878.682 0.
-186.923 -1215.63 0.
-331.027 -1552.57 0.
-738.923 -1728.55 0.
-495.102 -1158.82 0.
-251.282 -589.095 0.
-310.017 -441.694 0.
-324.584 -471.259 0.
-339.149 -500.824 0.
-976.872 -715.006 0.
-935.748 -614.211 0.
57.6723 -110.693 0.
-156.459 -387.73 0.
-255.241 -615.309 0.
-140.197 -796.74 0.
-315.682 -1201.83 0.
-491.168 -1606.91 0.
-114.208 -1399.45 0.
132.27 -819.279 0.
378.747 -239.108 0.
-490.531 -271.294 0.
-341.406 80.2159 0.
-192.282 431.726 0.
283.342 255.878 0.
52.558 -280.415 0.
-442.945 -824.119 0.
-244.932 -365.263 0.
-46.9183 93.5932 0.
377.445 406.219 0.
239.75 85.2202 0.
102.056 -235.779 0.
76.8132 -232.818 0.
180.565 8.04813 0.
284.315 248.914 0.
3.80449 102.332 0.
-31.5562 17.6933 0.
49.2637 -411.643 0.
-89.0768 -406.095 0.
-91.8459 -413.772 0.
62.3776 -355.02 0.
60.5963 -364.431 0.
58.8153 -373.842 0.
-20.0119 -373.726 0.
24.9144 -278.139 0.
69.841 -182.551 0.
-59.2458 -313.411 0.
-142.185 -511.552 0.
-225.125 -709.693 0.
-336.387 -888.085 0.
-406.927 -1045.08 0.
-772.814 -1306.43 0.
-657.411 -1037.4 0.
-542.007 -768.374 0.
-240.26 -538.132 0.
-334.582 -758.034 0.
-428.904 -977.937 0.
-20.0795 -857.586 0.
10.8577 -785.301 0.
41.7947 -713.016 0.
-197.009 -756.637 0.
-167.32 -686.66 0.
147.464 -494.43 0.
-891.007 -1012.08 0.
-926.383 -1097.56 0.
-498.92 -981.157 0.
-498.731 -981.793 0.
-498.541 -982.429 0.
-235.003 -844.728 0.
-195.609 -757.938 0.
-156.217 -671.147 0.
150.588 -799.572 0.
-86.955 -1350.76 0.
-324.498 -1901.95 0.
1180.73 -1667.6 0.
963.444 -2169.21 0.
1315.18 -2372.5 0.
1436.46 -2085.21 0.
1557.73 -1797.93 0.
2312.34 -1247.42 0.
2413.63 -1000.22 0.
2514.92 -753.023 0.
3128.47 -330.381 0.
3190.24 -186.996 0.
3252 -43.6102 0.
5015.16 569.805 0.
4900.49 300.591 0.
-248.732 -2129.63 0.
5071.91 498.226 0.
5256.76 925.546 0.
2632.58 -2.07498 0.
2456.34 -411.725 0.
2280.11 -821.377 0.
2280.75 -1087 0.
2189.56 -1294.43 0.
2098.37 -1501.85 0.
1276.26 -1757.82 0.
1389.05 -1494.06 0.
1501.84 -1230.3 0.
426.414 -1626.38 0.
453.689 -1568.02 0.
-142.07 -1747.39 0.
-26.6244 -1475.62 0.
88.8218 -1203.86 0.
-448.305 -1319.13 0.
-492.898 -1420.82 0.
-537.49 -1522.52 0.
-403.001 -1387.79 0.
-309.742 -1173.5 0.
-216.483 -959.212 0.
-1158.04 -1315.77 0.
-1142.39 -1286.15 0.
-185.304 -857.947 0.
-408.852 -1147.85 0.
-507.999 -1384.46 0.
-426.163 -1488.01 0.
-407.234 -1453.58 0.
-388.306 -1419.16 0.
39.0942 -1175.46 0.
94.0702 -1050.73 0.
149.045 -926.002 0.
-807.066 -1227.2 0.
-751.945 -1102.07 0.
-696.824 -976.945 0.
-16.0181 -518.4 0.
73.73 -312.212 0.
-200.53 -300.292 0.
-236.736 -385.713 0.
-272.943 -471.134 0.
149.955 -279.143 0.
227.998 -102.581 0.
306.04 73.981 0.
116.316 14.5236 0.
82.024 -61.9883 0.
47.7321 -138.5 0.
123.779 115.902 0.
272.948 465.036 0.
-67.0046 -426.213 0.
-228.576 -432.957 0.
-232.009 -440.322 0.
85.0068 -314.811 0.
82.9038 -323.99 0.
80.8012 -333.169 0.
-57.9671 -358.421 0.
-13.2526 -262.89 0.
31.4622 -167.358 0.
63.0936 -231.058 0.
-20.3073 -429.168 0.
-103.708 -627.278 0.
-188.789 -793.506 0.
-258.7 -951.427 0.
-483.453 -1152.09 0.
-368.539 -882.752 0.
-253.627 -613.42 0.
-263.818 -517.545 0.
-358.474 -737.354 0.
-453.131 -957.164 0.
-119.485 -869.071 0.
-88.1421 -797.099 0.
-56.7994 -725.127 0.
-318.121 -779.342 0.
-288.536 -709.48 0.
353.091 -377.247 0.
-243.768 -702.676 0.
-278.267 -788.937 0.
-250.718 -842.364 0.
-250.967 -842.999 0.
-251.217 -843.634 0.
108.281 -668.834 0.
146.681 -581.23 0.
185.079 -493.625 0.
346.741 -685.324 0.
108.256 -1236.27 0.
-130.229 -1787.22 0.
1353.73 -1562.61 0.
1136.39 -2064.24 0.
1173.02 -2401.65 0.
1294.64 -2114.77 0.
1416.26 -1827.88 0.
2050.74 -1329.27 0.
2152.83 -1082.63 0.
2254.92 -836.003 0.
2205.99 -693.169 0.
2268.1 -550.231 0.
2330.2 -407.292 0.
4438.58 351.558 0.
4323.4 82.6353 0.
1607.87 -1303.21 0.
4020.36 79.4489 0.
4204 506.658 0.
2400.78 -67.7899 0.
2224.63 -478.452 0.
2048.48 -889.116 0.
1719.93 -1295.12 0.
1628.37 -1503.28 0.
1536.82 -1711.45 0.
1184.19 -1764.27 0.
1296.7 -1500.62 0.
1409.21 -1236.96 0.
690.923 -1481.1 0.
717.543 -1422.06 0.
133.985 -1600.64 0.
249.625 -1328.09 0.
365.265 -1055.55 0.
-105.004 -1140.37 0.
-149.791 -1241.85 0.
-194.58 -1343.33 0.
-164.54 -1258.05 0.
-71.3516 -1043.66 0.
21.8376 -829.275 0.
-929.426 -1183.37 0.
-913.424 -1153.67 0.
-473.102 -950.56 0.
-353.404 -1092.73 0.
-452.765 -1328.77 0.
-330.558 -1419.11 0.
-312.55 -1383.21 0.
-294.542 -1347.32 0.
-138.614 -1222.25 0.
-83.7736 -1097.2 0.
-28.9343 -972.144 0.
-448.041 -1040.4 0.
-393.082 -914.834 0.
-338.123 -789.273 0.
50.7414 -460.183 0.
139.738 -252.764 0.
-155.886 -248.515 0.
-191.759 -334.391 0.
-227.632 -420.266 0.
240.927 -209.581 0.
317.927 -31.8276 0.
394.927 145.926 0.
171.653 68.0919 0.
137.501 -8.49243 0.
103.349 -85.0768 0.
91.7695 132.171 0.
241.079 481.493 0.
34.5266 41.7814 0.
-266.611 -235.531 0.
312.168 1119.69 0.
567.452 783.644 0.
364.137 315.036 0.
498.034 633.399 0.
397.096 799.465 0.
312.977 603.219 0.
445.671 911.617 0.
678.166 1001 0.
623.998 875.705 0.
399.01 351.893 0.
308.806 121.239 0.
195.359 -145.89 0.
353.691 305.766 0.
705.71 1125.89 0.
302.146 182.979 0.
-76.128 -18.4635 0.
-66.2829 3.04052 0.
-96.1641 -68.4239 0.
458.493 692.763 0.
410.3 579.085 0.
-278.736 -1029.76 0.
-196.952 -254.388 0.
276.303 845.902 0.
288.681 479.424 0.
844.078 631.226 0.
382.046 -449.765 0.
73.0048 -517.28 0.
560.34 617.17 0.
788.269 1146.28 0.
1116.49 1061.61 0.
796.884 312.651 0.
667.518 7.98445 0.
817.337 81.171 0.
908.449 290.652 0.
534.299 -584.895 0.
2637.69 1145.98 0.
2000.41 -346.719 0.
1880.82 -445.313 0.
1857.95 -510.173 0.
2089.46 18.7935 0.
2447.19 152.34 0.
2716.61 770.435 0.
2586.74 457.188 0.
1502.26 -571.175 0.
2047.77 701.196 0.
1560.93 -436.264 0.
4107.4 715.747 0.
4452.1 1519.9 0.
-1435.5 122.743 0.
3501.9 922.433 0.
3208.78 238.905 0.
2614.95 885.622 0.
2137.68 -225.139 0.
2089.77 -332.074 0.
2228.79 995.652 0.
2016.1 501.291 0.
2026.39 526.508 0.
1745.53 -243.966 0.
1796.08 -121.058 0.
1988.75 332.925 0.
1357.92 -411.627 0.
1453.4 -185.571 0.
1006.16 -46.4548 0.
1040.94 33.6181 0.
1217.82 445.572 0.
694.619 129.733 0.
963.761 751.411 0.
414.055 -537.644 0.
317.547 -546.18 0.
730.085 415.754 0.
1005.6 1057.71 0.
-105.015 313.152 0.
224.169 1081.09 0.
-755.688 -454.663 0.
6.75719 -336.857 0.
427.648 641.692 0.
316.792 -63.5184 0.
238.876 -247.876 0.
303.301 -100.332 0.
43.3984 -456.778 0.
-53.919 -680.535 0.
199.864 -84.9609 0.
293.607 45.6023 0.
171.111 -236.917 0.
796.31 1224.73 0.
608.037 758.452 0.
758.036 1108.98 0.
-131.84 -258.71 0.
24.9998 108.66 0.
33.854 130.601 0.
134.804 -590.927 0.
715.157 763.329 0.
776.715 906.5 0.
51.8172 -280.38 0.
427.784 594.499 0.
275.193 236.254 0.
-27.1596 -66.4856 0.
-88.3939 -206.941 0.
-26.2206 -242.394 0.
-145.812 -346.552 0.
-157.787 -370.39 0.
-3.48971 -306.025 0.
13.3896 -261.965 0.
30.2681 -217.905 0.
-22.6783 -319.354 0.
-140.358 -594.222 0.
-258.038 -869.089 0.
16.6146 -863.454 0.
-2.97379 -909.791 0.
-22.5619 -956.128 0.
-165.825 -830.86 0.
-50.3257 -559.958 0.
8.16254 -362.454 0.
-214.433 -881.992 0.
-437.028 -1401.53 0.
-523.461 -1670.53 0.
-412.007 -1410.97 0.
-300.551 -1151.41 0.
-379.899 -1056.21 0.
-353.356 -995.625 0.
-326.813 -935.039 0.
-244.204 -955.167 0.
-286.437 -1056.39 0.
31.869 -1003.3 0.
16.8013 -1006.23 0.
20.4125 -1000.73 0.
-10.3717 -999.8 0.
47.3627 -868.71 0.
105.097 -737.619 0.
601.072 -574.153 0.
456.703 -914.72 0.
312.334 -1255.29 0.
260.462 -1586.02 0.
93.4759 -1978.84 0.
-73.5106 -2371.66 0.
1293.65 -1883.42 0.
1255.91 -1973.78 0.
1162.2 -2060.48 0.
1302.67 -1742.58 0.
1443.14 -1424.68 0.
1562.09 -1190.69 0.
1573.39 -1173.75 0.
1584.7 -1156.81 0.
1252.55 -1048.79 0.
1494.07 -489.845 0.
1735.6 69.1018 0.
3459 850.859 0.
3421.63 762.666 0.
-180.605 -853.116 0.
3013.16 337.806 0.
2918.86 119.631 0.
1768.53 -515.978 0.
1754.69 -543.489 0.
1740.85 -571 0.
1224.57 -886.494 0.
1126.33 -1116.39 0.
1028.09 -1346.29 0.
1126.49 -1475.08 0.
1035.92 -1683.51 0.
945.347 -1891.94 0.
1036.83 -1736.68 0.
1110.04 -1564.96 0.
239.33 -1797.71 0.
322.055 -1604.74 0.
404.779 -1411.78 0.
-141.926 -1562.84 0.
-168.042 -1627.09 0.
-194.159 -1691.35 0.
-24.7478 -1508.61 0.
91.6449 -1236.45 0.
208.038 -964.287 0.
-624.336 -1450.79 0.
-731.034 -1700.76 0.
-694.459 -1877.58 0.
-451.111 -1571.56 0.
-343.077 -1323.46 0.
60.3472 -1018.02 0.
31.0237 -1090.63 0.
1.69928 -1163.24 0.
-273.959 -1299.55 0.
-269.134 -1283.15 0.
-264.31 -1266.75 0.
-378.591 -1220.57 0.
-308.683 -1056.67 0.
-238.775 -892.772 0.
-83.096 -827.957 0.
-88.9835 -843.559 0.
-41.2844 -820.412 0.
-3.40459 -733.109 0.
34.4755 -645.806 0.
-19.5711 -584.169 0.
53.4524 -416.607 0.
126.476 -249.046 0.
164.831 -114.531 0.
223.82 20.2303 0.
282.81 154.992 0.
117.775 177.998 0.
160.027 280.579 0.
62.9038 -176.897 0.
75.5151 -223.227 0.
63.86 -247.581 0.
-112.984 -319.141 0.
-96.0623 -275.954 0.
-79.1417 -232.766 0.
67.0436 -249.03 0.
-50.6819 -524.384 0.
-168.407 -799.738 0.
202.389 -750.216 0.
183.546 -797.158 0.
164.704 -844.099 0.
-232.504 -828.083 0.
-117.849 -556.61 0.
-49.3063 -356.317 0.
-271.781 -875.712 0.
-494.256 -1395.11 0.
-187.808 -1494.86 0.
-76.8198 -1234.77 0.
34.1686 -974.69 0.
-470.709 -1064.47 0.
-443.697 -1003.85 0.
-416.686 -943.232 0.
82.3946 -785.481 0.
39.5301 -885.973 0.
391.1 -817.788 0.
-121.187 -1036.88 0.
-116.764 -1032.17 0.
160.314 -892.743 0.
218.292 -762.042 0.
276.271 -631.34 0.
846.545 -433.318 0.
702.474 -774.546 0.
558.401 -1115.78 0.
470.709 -1464.5 0.
303.685 -1856.73 0.
136.662 -2248.96 0.
1253.96 -1870.45 0.
1215.47 -1960.06 0.
1147.06 -2034.75 0.
1286.91 -1716.71 0.
1426.76 -1398.67 0.
1198.65 -1317.04 0.
1209.8 -1299.89 0.
1220.95 -1282.74 0.
1213.58 -1033.89 0.
1455.98 -475.575 0.
1698.38 82.7457 0.
2613.46 522.111 0.
2576.5 433.278 0.
-2812.76 -1949.06 0.
2736.91 251.474 0.
2642.38 32.8266 0.
1485.17 -602.044 0.
1471.71 -630.035 0.
1458.25 -658.027 0.
999.358 -952.914 0.
901.954 -1182.92 0.
804.552 -1412.92 0.
1030.91 -1484.72 0.
940.312 -1692.97 0.
849.715 -1901.22 0.
1356.89 -1567.43 0.
1430.33 -1395.64 0.
238.558 -1766 0.
320.506 -1572.39 0.
402.453 -1378.79 0.
-263.902 -1584.83 0.
-290.313 -1648.84 0.
-316.724 -1712.85 0.
75.3452 -1435.18 0.
192.212 -1163.2 0.
309.079 -891.215 0.
-318.219 -1287.4 0.
-424.476 -1537.68 0.
134.519 -1492.13 0.
-348.193 -1496.63 0.
-240.911 -1248.29 0.
267.928 -895.69 0.
238.661 -968.77 0.
209.393 -1041.85 0.
-205.971 -1240.87 0.
-201.611 -1224.26 0.
-197.252 -1207.65 0.
-521.179 -1251.45 0.
-450.56 -1088.44 0.
-379.941 -925.431 0.
-79.2158 -794.4 0.
-84.435 -810.473 0.
381.616 -607.512 0.
420.125 -520.727 0.
458.634 -433.941 0.
-194.267 -625.429 0.
-120.507 -458.359 0.
-46.7461 -291.288 0.
232.288 -55.0556 0.
291.48 79.6475 0.
350.671 214.351 0.
183.636 237.871 0.
225.821 341.786 0.
114.974 175.894 0.
230.064 68.5623 0.
178.995 -52.3681 0.
-169.984 -334.165 0.
-311.987 -668.298 0.
-453.989 -1002.43 0.
-187.836 -980.34 0.
-100.755 -780.961 0.
-13.6741 -581.58 0.
307.403 -405.807 0.
290.077 -444.737 0.
272.75 -483.667 0.
-223.376 -720.076 0.
-239.563 -757.327 0.
-205.726 -782.948 0.
-274.964 -943.513 0.
-344.202 -1104.08 0.
234.799 -913.609 0.
287.976 -789.828 0.
341.152 -666.047 0.
-363.048 -936.451 0.
-379.484 -970.096 0.
-395.92 -1003.74 0.
236.476 -629.903 0.
317.861 -442.187 0.
1062.39 29.8639 0.
-14.4434 -776.31 0.
-202.161 -1215.3 0.
45.8226 -1422.17 0.
-12.9658 -1557.4 0.
-71.7534 -1692.62 0.
425.63 -1539.99 0.
435.579 -1517.72 0.
445.528 -1495.44 0.
601.631 -1453.25 0.
576.453 -1508.06 0.
551.275 -1562.86 0.
1456.95 -1169.09 0.
1461.01 -1156.38 0.
1431.18 -1153.55 0.
1497.36 -999.982 0.
1563.54 -846.417 0.
1157.19 -911.453 0.
1194.85 -818.399 0.
1232.51 -725.345 0.
1290.82 -521.017 0.
1439.1 -174.011 0.
1587.39 172.995 0.
2131.73 384.734 0.
2076.9 258.65 0.
-5044.91 -2896.86 0.
2539.25 288.265 0.
2507.64 209.686 0.
1353.06 -326.487 0.
1357.22 -311.125 0.
1361.38 -295.764 0.
1218.69 -432.284 0.
1111.1 -679.882 0.
1003.5 -927.479 0.
1046.79 -1049.74 0.
986.196 -1187.8 0.
925.606 -1325.86 0.
1526.26 -892.404 0.
1631.79 -640.971 0.
644.915 -877.257 0.
674.435 -807.701 0.
703.956 -738.145 0.
118.149 -1006.05 0.
44.1864 -1173.1 0.
-29.7748 -1340.15 0.
146.113 -1313.3 0.
151.607 -1301.66 0.
157.102 -1290.02 0.
-123.195 -1204.51 0.
13.5752 -887.303 0.
1056.54 -205.125 0.
-179.351 -1017.69 0.
-327.85 -1364.17 0.
185.64 -1287.87 0.
309.885 -989.538 0.
434.13 -691.205 0.
91.2658 -790.045 0.
2.83747 -1000.84 0.
-85.5914 -1211.64 0.
-480.809 -1230.74 0.
-331.682 -883.111 0.
-182.555 -535.482 0.
148.262 -425.997 0.
123.571 -484.572 0.
414.067 -383.812 0.
445.336 -309.609 0.
476.604 -235.406 0.
-42.6015 -400.468 0.
-8.32319 -321.197 0.
25.9552 -241.925 0.
218.169 -97.7784 0.
244.321 -33.0482 0.
270.472 31.6817 0.
-54.6989 -131.094 0.
-74.0625 -180.966 0.
-187.14 74.6131 0.
124.329 52.4115 0.
71.645 -67.95 0.
-140.987 -290.319 0.
-283.919 -624.486 0.
-426.849 -958.653 0.
-95.5228 -908.846 0.
-8.49685 -709.837 0.
78.5296 -510.827 0.
67.3216 -476.4 0.
50.3521 -515.887 0.
33.3823 -555.373 0.
-227.217 -692.57 0.
-243.543 -729.194 0.
-74.4498 -695.774 0.
-143.18 -856.438 0.
-211.91 -1017.1 0.
362.75 -828.327 0.
416.251 -704.627 0.
469.752 -580.927 0.
-130.04 -807.392 0.
-146.502 -840.826 0.
-162.964 -874.26 0.
161.293 -630.693 0.
242.508 -442.685 0.
524.282 -168.67 0.
139.678 -680.655 0.
-48.0755 -1119.78 0.
169.281 -1340.35 0.
109.98 -1474.76 0.
50.6793 -1609.18 0.
362.954 -1532.87 0.
373.522 -1511.45 0.
384.089 -1490.03 0.
728.144 -1367.56 0.
703.151 -1422.82 0.
678.157 -1478.08 0.
1294.64 -1205.05 0.
1299.13 -1192.14 0.
1254.88 -1198.53 0.
1320.76 -1045.01 0.
1386.65 -891.491 0.
1005.67 -945.829 0.
1043.45 -853.653 0.
1081.22 -761.476 0.
1008.99 -606.498 0.
1157.27 -260.722 0.
1305.56 85.0536 0.
1966.07 346.956 0.
1911.6 220.14 0.
6739.43 2184.94 0.
2339.61 235.649 0.
2307.19 157.884 0.
1073.02 -414.795 0.
1076.58 -398.871 0.
1080.14 -382.948 0.
1446.51 -305.299 0.
1338.26 -552.252 0.
1230 -799.204 0.
748.48 -1148.17 0.
687.401 -1286.03 0.
626.323 -1423.88 0.
983.538 -1092.11 0.
1088.7 -841.181 0.
732.114 -809.483 0.
762.209 -740.813 0.
792.305 -672.143 0.
570.955 -778.945 0.
497.651 -946.686 0.
424.348 -1114.43 0.
117.794 -1295.76 0.
123.743 -1284.3 0.
129.692 -1272.83 0.
1.45723 -1117.72 0.
138.359 -800.43 0.
893.876 -244.032 0.
-318.229 -1046.61 0.
-466.779 -1393.09 0.
211.66 -1245.2 0.
336.453 -947.55 0.
461.246 -649.902 0.
310.55 -664.789 0.
220.824 -875.145 0.
131.097 -1085.5 0.
-238.359 -1096.56 0.
-89.3079 -749.871 0.
59.7433 -403.187 0.
325.191 -317.675 0.
300.361 -376.036 0.
-115.757 -580.166 0.
-83.8339 -506.484 0.
-51.9116 -432.801 0.
275.199 -233.401 0.
309.391 -154.024 0.
343.584 -74.6479 0.
189.558 -78.8587 0.
215.757 -14.0792 0.
241.956 50.7001 0.
-270.181 -191.13 0.
-290.207 -241.53 0.
-181.511 689.228 0.
-55.5183 -142.564 0.
-196.807 -478.747 0.
14.596 47.2535 0.
69.4365 175.432 0.
556.552 1313.54 0.
325.431 -70.6298 0.
290.274 -150.09 0.
242.997 -258.509 0.
-357.772 -997.09 0.
50.6093 -42.5689 0.
270.788 473.282 0.
143.919 209.708 0.
234.71 426.079 0.
626.936 716.335 0.
19.3859 -700.429 0.
236.234 -193.132 0.
1119.57 732.709 0.
1258.36 1057.31 0.
1098.01 683.801 0.
714.835 754.231 0.
572.239 417.833 0.
690.335 690.182 0.
376.512 30.173 0.
805.345 1030.07 0.
837.122 592.852 0.
484.785 -156.067 0.
886.978 781.297 0.
1317.91 1146.44 0.
1273.49 1045.38 0.
888.158 148.896 0.
1296.86 775.332 0.
852.128 -256.878 0.
891.134 -160.506 0.
1893.44 1167.06 0.
1727.93 777.489 0.
1663.5 622.984 0.
2441.99 1822.31 0.
1909.09 579.661 0.
1685.44 159.8 0.
1982.16 848.625 0.
2078.15 1069.06 0.
1395.83 295.981 0.
1448.04 415.22 0.
1746.36 1109.74 0.
1245.22 525.691 0.
995.561 -62.2398 0.
1508.26 1129.28 0.
1707.11 89.7456 0.
2118.7 1053.38 0.
-6893.58 -495.314 0.
2764.1 1645.09 0.
2304.3 573.946 0.
1019.08 23.9391 0.
1101.9 217.666 0.
1378.09 861.295 0.
2023.72 660.367 0.
2234.27 1148.51 0.
1118.92 -1456.24 0.
1333.59 825.054 0.
1284.69 705.004 0.
1103.09 274.358 0.
1408.83 936.363 0.
1328.04 741.097 0.
1654.34 1226.42 0.
998.307 -308.213 0.
1038.02 -219.827 0.
1302.99 109.227 0.
1203.56 -125.578 0.
1210.31 -113.005 0.
998.826 861.585 0.
730.356 233.112 0.
700.352 161.224 0.
440.599 -315.118 0.
342.429 -543.051 0.
762.107 168.738 0.
-94.0309 -250.437 0.
239.342 531.037 0.
1018.04 619.398 0.
850.727 231.79 0.
377.417 -870.66 0.
800.934 104.284 0.
961.892 478.025 0.
891.516 312.272 0.
390.876 -50.7882 0.
286.416 -292.975 0.
473.403 144.73 0.
730.829 333.455 0.
646.658 142.082 0.
207.211 1188.59 0.
-85.0985 511.453 0.
-494.16 -438.696 0.
1113.81 1148.94 0.
1316.04 1622.3 0.
1052.68 1009.29 0.
121.804 -145.985 0.
181.379 -10.0144 0.
652.578 1087.32 0.
-43.8367 753.701 0.
212.967 1351.99 0.
-363.7 -858.006 0.
-241.504 -722.139 0.
-244.484 -731.078 0.
-294.493 -707.265 0.
-154.115 -375.543 0.
-13.7363 -43.8232 0.
298.005 127.618 0.
137.313 -245.832 0.
-23.3805 -619.281 0.
-105.276 -662.53 0.
-17.1761 -454.442 0.
70.923 -246.354 0.
2.24626 -470.091 0.
-132.545 -784.304 0.
-95.3329 -986.324 0.
-41.2648 -859.469 0.
12.8039 -732.614 0.
342.223 -618.213 0.
186.261 -983.439 0.
30.2988 -1348.66 0.
-178.377 -1511.75 0.
-115.371 -1368.95 0.
-52.3646 -1226.15 0.
-119.698 -1210.41 0.
-106.191 -1182.06 0.
176.438 -1038.28 0.
337.283 -1010.5 0.
315.579 -1060.56 0.
307.509 -1112.55 0.
262.406 -1215.48 0.
217.302 -1318.41 0.
434.025 -1309.79 0.
386.776 -1416.68 0.
339.528 -1523.58 0.
637.229 -1428.33 0.
636.065 -1433.88 0.
634.901 -1439.42 0.
1096.06 -1223.67 0.
1111.88 -1187.15 0.
1051.72 -1184.47 0.
1071.79 -1141.12 0.
1091.86 -1097.77 0.
643.152 -1167.05 0.
800.94 -801.915 0.
958.728 -436.777 0.
690.697 -472.885 0.
640.271 -598.421 0.
589.846 -723.959 0.
1484.44 -276.799 0.
1546.32 -133.498 0.
-585.803 -932.988 0.
1778.4 129.747 0.
1803.93 189.806 0.
887.403 -220.782 0.
745.092 -556.147 0.
602.78 -891.513 0.
1014.73 -881.874 0.
1008.2 -896.883 0.
1001.67 -911.893 0.
521.38 -1083.4 0.
545.347 -1030.68 0.
569.314 -977.953 0.
969.929 -894.693 0.
920.136 -1016.93 0.
456.914 -1305.16 0.
433.452 -1365.85 0.
409.99 -1426.53 0.
650.638 -1309.14 0.
722.895 -1144.58 0.
795.153 -980.025 0.
-0.0736397 -1240.64 0.
28.2441 -1177.97 0.
56.5624 -1115.3 0.
144.949 -1093.09 0.
128.573 -1127.88 0.
207.793 -1115.25 0.
-237.203 -1340.27 0.
-258.153 -1383.94 0.
232.615 -1191.49 0.
259.096 -1128.62 0.
285.577 -1065.76 0.
89.8251 -1123.99 0.
90.1967 -1121.47 0.
90.5684 -1118.96 0.
18.8587 -1128.22 0.
33.3227 -1091.89 0.
47.787 -1055.57 0.
101.883 -860.825 0.
193.581 -642.767 0.
-489.046 -793.274 0.
-510.841 -839.829 0.
-532.635 -886.383 0.
296.264 -535.034 0.
311.461 -496.969 0.
326.657 -458.904 0.
-240.312 -733.409 0.
-276.125 -817.838 0.
-311.939 -902.266 0.
-371.248 -693.484 0.
-211.397 -320.015 0.
242.122 -566.777 0.
-147.712 -649.204 0.
-152.209 -657.71 0.
-262.3 -665.611 0.
-123.344 -333.137 0.
15.6117 -0.666246 0.
176.144 106.362 0.
15.8504 -267.443 0.
-144.444 -641.248 0.
42.8574 -569.114 0.
130.896 -361.196 0.
218.933 -153.278 0.
202.341 -353.231 0.
67.7483 -668.047 0.
-67.7609 -942.874 0.
-14.3361 -815.868 0.
39.0892 -688.862 0.
116.043 -681.942 0.
-39.5265 -1046.79 0.
-195.096 -1411.63 0.
-67.3199 -1436.99 0.
-5.24228 -1293.61 0.
56.8353 -1150.22 0.
-56.6102 -1149.76 0.
-42.8168 -1122.08 0.
-458.283 -1278.54 0.
621.222 -857.631 0.
599.446 -907.556 0.
273.582 -1099.27 0.
228.114 -1201.82 0.
182.645 -1304.36 0.
491.695 -1251.22 0.
445.34 -1358.58 0.
398.985 -1465.95 0.
478.826 -1462.25 0.
477.083 -1467.07 0.
475.339 -1471.89 0.
1063.39 -1207.68 0.
1079.05 -1170.72 0.
997.624 -1177.54 0.
1017.87 -1134.07 0.
1038.12 -1090.6 0.
503.603 -1194.12 0.
661.32 -829.281 0.
819.039 -464.445 0.
556.559 -498.555 0.
505.808 -623.762 0.
455.056 -748.97 0.
1422.04 -272.852 0.
1483.64 -129.401 0.
-185.302 -730.484 0.
1380.01 -9.36124 0.
1404.95 51.4055 0.
873.024 -197.402 0.
730.416 -532.656 0.
587.807 -867.911 0.
606.473 -1023.68 0.
600.094 -1039.31 0.
593.713 -1054.94 0.
542.39 -1044.77 0.
566.181 -991.683 0.
589.972 -938.596 0.
1407.71 -675.272 0.
1357.34 -797.566 0.
341.368 -1321.8 0.
318.403 -1383.03 0.
295.437 -1444.25 0.
608.216 -1296.33 0.
680.943 -1131.78 0.
753.67 -967.239 0.
-102.984 -1253.35 0.
-73.6632 -1191.28 0.
-44.3415 -1129.22 0.
207.135 -1033.34 0.
190.934 -1067.39 0.
275.093 -1056.15 0.
174.401 -1133.98 0.
153.812 -1177.87 0.
238.717 -1156.47 0.
265.24 -1093.66 0.
291.763 -1030.85 0.
-121.789 -1183.18 0.
-121.919 -1180.58 0.
-122.049 -1177.99 0.
144.392 -1042.76 0.
159.035 -1006.83 0.
173.679 -970.912 0.
-25.3747 -883.717 0.
66.9345 -666.324 0.
-285.303 -675.936 0.
-307.039 -722.406 0.
-328.774 -768.876 0.
197.154 -544.247 0.
212.052 -505.863 0.
226.951 -467.479 0.
-361.376 -756.618 0.
-397.572 -840.902 0.
-433.769 -925.185 0.
3.69463 -502.394 0.
162.906 -128.942 0.
422.907 -213.752 0.
-116.956 -486.316 0.
-99.9405 -446.734 0.
-122.855 -441.847 0.
-166.31 -545.522 0.
-209.765 -649.198 0.
-206.136 -663.874 0.
-163.773 -561.398 0.
-121.411 -458.922 0.
155.444 -433.41 0.
55.2963 -668.398 0.
-44.8516 -903.386 0.
14.3148 -944.688 0.
-11.7362 -999.963 0.
-104.946 -1070.34 0.
-50.4761 -944.274 0.
3.99402 -818.212 0.
-75.1146 -747.661 0.
-11.5114 -597.55 0.
52.0917 -447.439 0.
510.409 -220.196 0.
486.511 -280.854 0.
462.613 -341.513 0.
216.419 -648.568 0.
77.9911 -969.887 0.
42.3738 -1246.68 0.
754.346 -810.865 0.
831.556 -634.469 0.
459.161 -690.248 0.
414.45 -797.732 0.
369.739 -905.216 0.
545.938 -947.326 0.
467.599 -1132.07 0.
389.262 -1316.82 0.
534.796 -1168.1 0.
653.334 -897.217 0.
771.872 -626.33 0.
1387.25 -500.065 0.
1286.19 -736.967 0.
874.435 -1063.36 0.
1006.23 -755.289 0.
1138.02 -447.216 0.
721.484 -443.593 0.
738.583 -401.552 0.
755.683 -359.513 0.
625.224 -338.362 0.
687.24 -194.738 0.
749.256 -51.1146 0.
1561.21 292.221 0.
1544.93 250.923 0.
422.664 -266.946 0.
1179.94 154.826 0.
1233.81 275.442 0.
1013.21 223.957 0.
935.47 41.9705 0.
857.731 -140.016 0.
712.946 -353.487 0.
633.081 -539.968 0.
553.217 -726.448 0.
603.995 -870.927 0.
513.587 -1078.25 0.
423.18 -1285.57 0.
1460.69 -781.968 0.
1502.18 -675.399 0.
363.347 -1083.09 0.
374.394 -1049.91 0.
385.441 -1016.73 0.
737.519 -797.138 0.
820.164 -601.127 0.
902.81 -405.116 0.
271.84 -582.42 0.
288.129 -542.668 0.
304.415 -502.916 0.
504.399 -465.583 0.
464.916 -559.583 0.
866.754 -472.303 0.
491.916 -670.05 0.
474.618 -714.102 0.
316.462 -818.698 0.
280.506 -902.095 0.
244.549 -985.492 0.
-43.31 -1036.1 0.
83.1316 -742.831 0.
209.573 -449.561 0.
373.799 -369.548 0.
324.437 -486.124 0.
275.074 -602.701 0.
73.1787 -594.017 0.
135.515 -446.953 0.
-27.4601 -391.125 0.
0.72663 -326.325 0.
28.9145 -261.526 0.
258.98 -179.577 0.
204.668 -309.31 0.
150.357 -439.043 0.
-258.989 -571.684 0.
-183.02 -396.029 0.
-107.05 -220.373 0.
237.752 -240.8 0.
118.425 -529.579 0.
-50.127 -387.362 0.
-267.294 -519.766 0.
-250.032 -481.021 0.
3.91821 -355.814 0.
-40.1022 -459.045 0.
-84.122 -562.276 0.
-194.829 -627.103 0.
-151.765 -525.335 0.
-108.701 -423.566 0.
171.904 -397.235 0.
71.4816 -632.243 0.
-28.9408 -867.251 0.
3.92191 -915.599 0.
-21.6212 -971.818 0.
-42.4623 -1011.85 0.
11.4545 -885.872 0.
65.3713 -759.894 0.
-227.208 -781.323 0.
-162.791 -632.045 0.
-98.3751 -482.766 0.
576.048 -159.175 0.
552.035 -219.818 0.
528.022 -280.46 0.
328.06 -570.791 0.
189.928 -892.57 0.
75.9794 -1203.95 0.
801.107 -758.461 0.
877.938 -581.017 0.
553.288 -620.851 0.
507.807 -727.187 0.
462.326 -833.524 0.
347.13 -1004.08 0.
267.668 -1187.77 0.
188.209 -1371.45 0.
551.993 -1127.53 0.
670.703 -856.62 0.
789.415 -585.708 0.
1500.73 -422.171 0.
1399.74 -658.535 0.
538.838 -1174.26 0.
669.701 -865.327 0.
800.565 -556.399 0.
639.004 -451.435 0.
655.683 -408.499 0.
672.362 -365.563 0.
786.612 -235.154 0.
849.422 -92.1981 0.
912.23 50.7575 0.
1402.54 255.027 0.
1386.2 213.481 0.
1627.86 281.029 0.
961.839 93.6032 0.
1015.21 214.482 0.
968.452 236.914 0.
890.763 54.863 0.
813.074 -127.188 0.
688.372 -334.165 0.
608.997 -521.023 0.
529.623 -707.88 0.
577.733 -851.925 0.
488.669 -1060.48 0.
399.605 -1269.03 0.
1308.55 -815.109 0.
1350.19 -709.075 0.
276.334 -1087.68 0.
288.49 -1055.51 0.
300.647 -1023.35 0.
596.053 -827.086 0.
678.778 -631.394 0.
761.504 -435.702 0.
576.849 -419.657 0.
593.011 -379.442 0.
609.172 -339.229 0.
619.428 -387.202 0.
579.133 -480.661 0.
1146.97 -319.359 0.
428.768 -664.334 0.
411.338 -708.446 0.
191.643 -841.499 0.
156.057 -924.832 0.
120.471 -1008.16 0.
227.853 -889.324 0.
355.669 -596.697 0.
483.485 -304.071 0.
151.738 -432.141 0.
103.544 -549.331 0.
55.3496 -666.523 0.
164.211 -522.676 0.
226.121 -375.621 0.
143.993 -287.719 0.
172.326 -222.432 0.
200.661 -157.144 0.
169.938 -186.166 0.
115.394 -315.5 0.
60.8493 -444.833 0.
-55.3917 -452.011 0.
20.3888 -276.716 0.
96.1688 -101.42 0.
199.994 -226.663 0.
79.64 -515.801 0.
-66.3248 506.574 0.
116.889 686.701 0.
-225.91 -116.477 0.
580.126 791.158 0.
195.703 -111.928 0.
433.944 438.513 0.
-0.16503 -176.552 0.
150.106 177.625 0.
282.395 489.783 0.
863.865 1208.07 0.
628.55 661.15 0.
693.708 815.604 0.
666.914 687.744 0.
544.444 406.294 0.
649.974 517.879 0.
380.517 -110.189 0.
753.238 760.712 0.
297.353 738.667 0.
175.498 460.789 0.
106.204 305.239 0.
485.562 -466.369 0.
673.391 -19.2415 0.
1047.49 862.457 0.
893.725 543.391 0.
971.981 729.345 0.
1137.61 331.701 0.
1192.06 89.809 0.
1819.95 1557.55 0.
916.498 71.1689 0.
1209.55 754.731 0.
989.992 242.96 0.
363.369 -554.113 0.
1177.76 1338.74 0.
1186.03 1351.35 0.
1323 672.961 0.
1128.74 221.117 0.
1345.31 727.396 0.
2088.61 773.648 0.
1361.07 -925.606 0.
406.475 -801.128 0.
981.764 544.825 0.
1131.54 896.799 0.
804.866 121.402 0.
833.318 185.123 0.
1182.88 999.231 0.
1340.36 780.514 0.
877.274 -300.672 0.
1271.57 618.402 0.
1644.4 1152.8 0.
1694.69 1272.3 0.
-1160.98 -26.7087 0.
1178.11 1031.69 0.
669.708 -153.794 0.
1021.61 487.425 0.
1366.42 1290.78 0.
962.735 347.931 0.
451.779 -818.716 0.
705.048 -230.015 0.
660.032 -337.09 0.
870.831 -95.5114 0.
799.25 -261.771 0.
1355.58 1037.24 0.
2065.41 1268.25 0.
1738.52 500.475 0.
485.732 -415.045 0.
753.212 212.753 0.
813.151 357.323 0.
623.216 -472.224 0.
1251.09 998.172 0.
1185.28 850.125 0.
1052.52 158.532 0.
1032.23 116.879 0.
1276.69 693.543 0.
827.457 -101.449 0.
741.81 -300.482 0.
1694.22 1954.21 0.
1155.7 1185.57 0.
907.667 603.331 0.
577.826 320.778 0.
206.641 -548.167 0.
597.858 361.314 0.
807.417 -26.2588 0.
976.98 374.19 0.
1364.19 1282.32 0.
328.441 405.214 0.
303.202 348.301 0.
-123.968 -644.891 0.
686.575 547.243 0.
198.094 -592.696 0.
273.63 -265.677 0.
825.456 1020.71 0.
726.361 788.125 0.
-35.8105 -475.771 0.
430.168 608.697 0.
463.471 683.531 0.
290.394 19.3439 0.
35.8473 -573.746 0.
402.993 282.642 0.
341.646 207.286 0.
323.394 165.445 0.
-752.132 -648.684 0.
-425.563 -664.892 0.
-550.101 -957.719 0.
-159.973 -964.461 0.
-87.8361 -801.633 0.
-15.6979 -638.805 0.
-55.7436 -567.211 0.
-41.7409 -531.537 0.
-27.7386 -495.864 0.
186.655 -530.98 0.
71.2683 -801.689 0.
-44.1182 -1072.4 0.
-203.703 -1139.6 0.
-184.406 -1091.66 0.
65.018 -944.548 0.
120.217 -818.443 0.
175.417 -692.338 0.
-166.279 -830.696 0.
-283.919 -1100.44 0.
-401.56 -1370.19 0.
76.3359 -1303.6 0.
37.8625 -1388.66 0.
-0.610971 -1473.72 0.
126.092 -1245.22 0.
255.305 -939.41 0.
206.55 -710.067 0.
596.406 -782.117 0.
470.383 -1078.52 0.
273.163 -1370.64 0.
232.942 -1467.05 0.
192.722 -1563.45 0.
-6.6446 -1571.67 0.
138.874 -1237.7 0.
284.393 -903.73 0.
590.903 -713.604 0.
568.296 -768.065 0.
545.689 -822.527 0.
1377.13 -568.582 0.
1319.52 -708.051 0.
198.431 -1271.12 0.
346.541 -929.928 0.
494.652 -588.734 0.
647.522 -380.642 0.
569.148 -566.834 0.
490.775 -753.026 0.
557.721 -766.113 0.
586.874 -699.617 0.
616.028 -633.122 0.
713.452 -427.143 0.
817.202 -186.977 0.
1488.08 294.386 0.
783.561 -161.941 0.
702.339 -351.162 0.
467.016 -553.136 0.
513.504 -448.003 0.
559.992 -342.87 0.
747.2 -283.242 0.
669.5 -466.784 0.
591.8 -650.327 0.
479.331 -744.14 0.
481.194 -738.274 0.
483.057 -732.408 0.
1095.2 -502.229 0.
1079.27 -545.669 0.
447.244 -859.606 0.
389.197 -988.48 0.
331.149 -1117.35 0.
283.921 -1153.66 0.
351.208 -991.683 0.
418.495 -829.711 0.
586.438 -803.544 0.
493.886 -1019.48 0.
401.334 -1235.42 0.
284.111 -1213.6 0.
356.893 -1044.1 0.
1179.74 -554.477 0.
12.1435 -1066.51 0.
7.19288 -1080.61 0.
205.086 -1017.15 0.
181.68 -1078.36 0.
158.276 -1139.57 0.
365.088 -1107.33 0.
332.514 -1181.86 0.
299.942 -1256.4 0.
-174.597 -1271.48 0.
-11.3299 -888.425 0.
151.938 -505.373 0.
239.941 -473.799 0.
220.025 -522.265 0.
-97.6558 -669.759 0.
2.5763 -435.493 0.
102.807 -201.227 0.
169.706 -39.6125 0.
185.41 -5.76825 0.
201.114 28.0757 0.
122.898 -156.848 0.
-18.4985 -487.004 0.
-159.895 -817.16 0.
137.383 -421.353 0.
340.115 53.6617 0.
-972.367 -717.968 0.
-364.887 -610.403 0.
-489.726 -902.586 0.
-126.696 -917.411 0.
-54.7169 -754.973 0.
17.2636 -592.534 0.
95.7985 -472.174 0.
109.985 -436.415 0.
124.171 -400.657 0.
289.375 -455.401 0.
174.507 -726.739 0.
59.6389 -998.077 0.
-298.008 -1148.77 0.
-278.358 -1101.06 0.
139.076 -879.956 0.
193.335 -752.813 0.
247.594 -625.671 0.
107.137 -684.048 0.
-10.4569 -953.763 0.
-128.05 -1223.48 0.
29.3079 -1294.93 0.
-9.01384 -1380.34 0.
-47.3356 -1465.75 0.
143.684 -1205.15 0.
273.026 -899.492 0.
1193 -255.305 0.
340.194 -862.24 0.
215.335 -1159.19 0.
262.115 -1343.72 0.
222.429 -1440.58 0.
182.744 -1537.44 0.
88.169 -1500.26 0.
233.682 -1166.35 0.
379.195 -832.434 0.
438.44 -746.824 0.
417.081 -802.216 0.
395.721 -857.608 0.
1227.64 -599.874 0.
1170.29 -738.999 0.
214.912 -1229.96 0.
362.951 -889.026 0.
510.991 -548.094 0.
736.671 -312.114 0.
658.6 -498.408 0.
580.529 -684.703 0.
425.611 -791.523 0.
455.7 -725.576 0.
485.789 -659.629 0.
429.039 -517.247 0.
533.407 -277.505 0.
-2164.73 -1239.01 0.
939.819 -63.9951 0.
858.74 -253.63 0.
351.293 -570.298 0.
398.016 -466.007 0.
444.739 -361.716 0.
847.284 -207.968 0.
769.025 -391.458 0.
690.766 -574.948 0.
354.298 -767.923 0.
356.26 -762.46 0.
358.221 -756.999 0.
855.103 -573.318 0.
839.424 -616.753 0.
649.891 -741.081 0.
592.289 -869.904 0.
534.687 -998.727 0.
240.965 -1141.54 0.
308.51 -979.726 0.
376.053 -817.913 0.
540.212 -790.206 0.
448.769 -1006.88 0.
357.327 -1223.55 0.
221.392 -1210.85 0.
294.408 -1041.64 0.
639.092 -753.605 0.
-190.496 -1120.99 0.
-195.501 -1135.24 0.
464.233 -875.65 0.
440.917 -937.19 0.
417.602 -998.729 0.
405.528 -1057.05 0.
374.318 -1132.42 0.
343.109 -1207.78 0.
104.004 -1121.35 0.
268.491 -739.184 0.
432.978 -357.018 0.
245.223 -439.378 0.
225.2 -487.73 0.
-328.143 -737.369 0.
-228.097 -502.498 0.
-128.052 -267.627 0.
209.194 7.9335 0.
224.887 41.8417 0.
240.58 75.7496 0.
25.1083 -167.776 0.
-116.294 -498.356 0.
-257.696 -828.936 0.
234.684 -348.061 0.
436.69 126.168 0.
-748.798 -618.914 0.
-179.754 -325.284 0.
-71.2729 -70.4295 0.
365.428 221.525 0.
189.254 -185.427 0.
13.0796 -592.377 0.
-28.2517 -784.888 0.
-10.1235 -742.387 0.
8.00511 -699.886 0.
188.837 -528.37 0.
254.312 -375.877 0.
319.786 -223.383 0.
107.751 -457.461 0.
10.2977 -688.61 0.
208.105 -784.309 0.
189.938 -825.913 0.
171.77 -867.517 0.
57.4519 -918.972 0.
85.9737 -854.443 0.
114.496 -789.915 0.
245.002 -637.838 0.
316.221 -475.297 0.
387.44 -312.755 0.
526.168 -326.139 0.
456.76 -484.959 0.
1376.4 -219.67 0.
392.579 -688.254 0.
360.55 -758.082 0.
457.536 -735.725 0.
525.508 -573.598 0.
593.479 -411.471 0.
549.956 -453.457 0.
437.788 -711.661 0.
325.62 -969.864 0.
257.147 -1078.39 0.
253.784 -1085.3 0.
250.422 -1092.22 0.
1109.19 -392.746 0.
1304.93 71.3808 0.
839.678 190.851 0.
688.755 -162.754 0.
537.832 -516.359 0.
682.533 -551.427 0.
839.966 -182.978 0.
997.399 185.471 0.
742.008 274.051 0.
811.073 439.667 0.
880.137 605.281 0.
797.558 397.677 0.
659.784 80.174 0.
500.019 -249.411 0.
962.025 -29.2748 0.
972.634 -2.68826 0.
333.657 -262.373 0.
310.701 -313.529 0.
287.744 -364.685 0.
770.107 -167.195 0.
794.428 -115.22 0.
818.75 -63.2445 0.
614.17 -197.153 0.
570.258 -295.568 0.
526.347 -393.983 0.
981.972 -194.605 0.
989.314 -176.706 0.
875.566 -215.251 0.
880.339 -208.448 0.
885.113 -201.645 0.
479.052 -406.528 0.
415.464 -555.773 0.
351.875 -705.017 0.
515.433 -713.216 0.
488.729 -769.184 0.
462.026 -825.153 0.
493.079 -631.238 0.
618.448 -345.468 0.
1119.26 95.4741 0.
76.5687 -451.691 0.
21.9851 -575.739 0.
672.264 -422.071 0.
557.612 -682.728 0.
442.961 -943.383 0.
501.476 -919.212 0.
630.657 -615.98 0.
759.838 -312.749 0.
444.767 -411.671 0.
413.445 -484.305 0.
382.122 -556.938 0.
243.839 -448.747 0.
346.51 -209.177 0.
-69.6609 -230.828 0.
-90.1024 -281.212 0.
-110.545 -331.597 0.
38.7959 -372.557 0.
-84.001 -658.622 0.
-206.798 -944.686 0.
-374.671 -903.991 0.
-185.732 -462.216 0.
3.20743 -20.4415 0.
276.821 10.6475 0.
183.512 -210.313 0.
-118.44 -317.469 0.
-71.6904 -251.53 0.
36.2064 4.86193 0.
359.011 252.428 0.
183.403 -154.718 0.
7.79573 -561.862 0.
-111.173 -790.37 0.
-93.3366 -747.819 0.
-75.4997 -705.269 0.
-56.5382 -601.04 0.
9.19075 -448.955 0.
74.9195 -296.869 0.
504.152 -258.942 0.
406.44 -490.003 0.
241.738 -734.347 0.
224.111 -775.836 0.
206.484 -817.325 0.
-44.1103 -934.029 0.
-16.3361 -868.023 0.
11.4386 -802.018 0.
158.551 -645.311 0.
230.399 -482.6 0.
302.248 -319.888 0.
568.763 -275.288 0.
499.778 -434.628 0.
568.04 -535.408 0.
604.999 -565.99 0.
573.599 -636.537 0.
336.214 -754.953 0.
404.753 -593.821 0.
473.292 -432.689 0.
509.592 -437.722 0.
398.024 -696.863 0.
286.456 -956.002 0.
334.322 -1014.83 0.
331.032 -1022.28 0.
327.741 -1029.73 0.
779.384 -502.129 0.
976.537 -38.7878 0.
891.936 246.471 0.
741.232 -107.65 0.
590.527 -461.772 0.
738.536 -498.161 0.
897.219 -130.972 0.
1055.9 236.219 0.
547.778 224.599 0.
618.134 388.939 0.
688.49 553.279 0.
1012.59 522.265 0.
876.31 203.153 0.
-1113.51 -909.807 0.
885.559 -29.7518 0.
895.52 -2.80673 0.
95.2365 -334.44 0.
71.3263 -385.06 0.
47.4153 -435.681 0.
485.521 -258.95 0.
509.796 -207.547 0.
534.071 -156.143 0.
797.406 -85.104 0.
754.506 -184.431 0.
711.607 -283.759 0.
1158.35 -86.9344 0.
1166.23 -69.5222 0.
726.406 -248.966 0.
730.2 -241.722 0.
733.995 -234.477 0.
371.27 -423.408 0.
306.746 -571.844 0.
242.221 -720.279 0.
427.753 -718.294 0.
400.334 -773.75 0.
372.915 -829.206 0.
656.394 -531.958 0.
780.27 -245.191 0.
898.699 35.4471 0.
248.553 -344.698 0.
194.678 -469.2 0.
490.064 -469.247 0.
376.194 -730.485 0.
262.326 -991.722 0.
555.876 -864.43 0.
685.607 -561.723 0.
815.338 -259.016 0.
296.859 -442.654 0.
266.064 -515.875 0.
235.269 -589.096 0.
283.977 -401.21 0.
387.017 -161.534 0.
286.821 -45.424 0.
266.02 -94.9982 0.
245.218 -144.572 0.
11.8572 -353.008 0.
-110.813 -639.403 0.
-233.483 -925.798 0.
-460.188 -908.189 0.
-271.03 -467.272 0.
-81.8717 -26.3535 0.
-53.2522 -99.3128 0.
-147.326 -320.986 0.
246.919 -571.388 0.
515.796 973.607 0.
302.084 470.36 0.
314.216 199.578 0.
-49.4146 -649.854 0.
733.801 1176.46 0.
735.809 1374.13 0.
98.2009 -116.75 0.
198.096 114.187 0.
-32.0177 -62.3958 0.
-369.732 -849.881 0.
176.477 425.551 0.
1247.88 773.226 0.
957.251 96.4293 0.
1076.15 1187.88 0.
1085.62 1210.17 0.
173.929 -917.303 0.
-250.677 -1198.58 0.
113.741 -345.621 0.
415.339 360.45 0.
493.357 320.403 0.
613.415 598.788 0.
732.444 875.143 0.
995.904 665.389 0.
840.423 299.88 0.
252.989 -576.527 0.
784.978 -517.837 0.
1467.52 1077.82 0.
763.906 504.068 0.
668.821 284.491 0.
545.335 -1.02552 0.
1060.5 947.434 0.
590.429 -149.486 0.
987.031 775.981 0.
1423.69 1420.53 0.
1225.63 959.972 0.
1073.92 607.555 0.
1029.93 731.311 0.
711.097 -8.21508 0.
446.21 -865.289 0.
877.762 143.693 0.
1034.09 510.66 0.
1366.71 874.674 0.
1385.16 915.921 0.
1296.7 708.55 0.
54.6759 -531.334 0.
140.124 -334.942 0.
101.951 -426.693 0.
716.437 -531.154 0.
941.114 -7.07063 0.
-1250.05 -1236.21 0.
703.586 -289.764 0.
837.058 29.7509 0.
217.591 422.118 0.
196.596 379.867 0.
435.649 945.324 0.
362.328 1.00499 0.
523.763 378.968 0.
766.066 946.192 0.
1193.4 535.901 0.
1145.01 426.047 0.
1425.35 1082.42 0.
1594.97 627.024 0.
1851.52 1232.6 0.
1042.82 792.927 0.
619.835 -186.703 0.
1015.99 745.025 0.
351.612 -251.806 0.
552.187 214.827 0.
307.31 -357.959 0.
552.735 -208.219 0.
960.446 748.291 0.
853.236 501.944 0.
1584.04 1356.45 0.
927.883 -171.498 0.
330.65 -14.3025 0.
959.68 1012.09 0.
585.984 144.123 0.
1209.5 1589.67 0.
369.932 -370.933 0.
502.298 -63.5081 0.
1087.69 318.343 0.
1165.54 495.462 0.
1104.77 349.503 0.
434.094 181.301 0.
243.592 -261.718 0.
124.593 -537.664 0.
784.532 713.73 0.
672.321 449.71 0.
410.325 -379.08 0.
793.429 517.903 0.
456.986 -264.876 0.
-42.2166 -391.516 0.
196.276 167.442 0.
419.029 689.091 0.
86.6156 556.916 0.
-231.5 -185.225 0.
-208.671 -129.516 0.
-601.892 -742.019 0.
-565.914 -659.139 0.
301.233 -497.999 0.
-142.971 -563.593 0.
-162.462 -612.025 0.
-149.458 -614.319 0.
-61.765 -409.277 0.
25.9282 -204.235 0.
138.163 -92.5126 0.
95.5808 -195.629 0.
52.9978 -298.744 0.
80.295 -446.081 0.
-14.4966 -667.092 0.
-109.289 -888.103 0.
336.343 -573.667 0.
417.416 -380.188 0.
357.397 -282.153 0.
264.885 -497.248 0.
172.373 -712.343 0.
-1.5068 -866.546 0.
63.5636 -717.475 0.
128.635 -568.403 0.
221.382 -570.725 0.
114.977 -814.769 0.
8.5724 -1058.81 0.
231.366 -1018.94 0.
232.908 -1018.29 0.
644.777 -840.723 0.
528.242 -726.479 0.
611.289 -529.796 0.
566.496 -422.237 0.
571.533 -410.456 0.
576.57 -398.675 0.
405.274 -487.264 0.
383.291 -539.627 0.
361.308 -591.99 0.
386.084 -510.136 0.
446.682 -364.376 0.
507.278 -218.615 0.
665.191 -256.771 0.
590.141 -424.272 0.
346.726 -651.668 0.
351.915 -639.248 0.
357.102 -626.829 0.
762.631 -413.054 0.
817.642 -285.472 0.
872.653 -157.89 0.
170.401 -327.528 0.
258.042 -129.124 0.
345.684 69.2804 0.
1076.42 388.883 0.
1052.36 339.73 0.
-1817.98 -927.971 0.
763.273 227.222 0.
787.377 286.029 0.
427.693 122.939 0.
321.307 -123.493 0.
214.923 -369.925 0.
191.848 -535.224 0.
136.895 -657.21 0.
81.9429 -779.196 0.
584.766 -650.69 0.
539.511 -753.875 0.
494.256 -857.06 0.
785.835 -763.435 0.
777.257 -787.799 0.
-31.5583 -1120.96 0.
88.9016 -837.55 0.
209.362 -554.141 0.
543.157 -305.097 0.
482.255 -448.449 0.
421.353 -591.801 0.
474.336 -623.223 0.
464.48 -645.022 0.
454.623 -666.82 0.
449.557 -773.779 0.
384.343 -926.26 0.
851.756 -848.779 0.
250.678 -904.285 0.
354.794 -657.507 0.
268.233 -555.719 0.
236.64 -626.577 0.
205.048 -697.435 0.
553.77 -522.76 0.
614.883 -381.392 0.
675.996 -240.024 0.
151.334 -539.578 0.
69.4586 -733.664 0.
-12.4169 -927.751 0.
209.605 -726.346 0.
282.202 -560.585 0.
255.099 -472.603 0.
187.061 -630.718 0.
119.023 -788.833 0.
-133.978 -832.201 0.
79.3818 -335.342 0.
292.741 161.518 0.
-93.3133 121.529 0.
-128.758 40.1805 0.
-164.203 -41.1687 0.
-210.212 -360.672 0.
-401.943 -807.979 0.
345.027 -451.199 0.
-127.802 -526.337 0.
-147.583 -574.224 0.
-271.357 -634.321 0.
-183.965 -428.632 0.
-96.5727 -222.943 0.
192.428 -37.3848 0.
150.129 -140.996 0.
107.829 -244.607 0.
435.232 -264.411 0.
340.482 -485.508 0.
245.732 -706.604 0.
-60.5359 -711.776 0.
20.8526 -518.506 0.
259.87 -295.161 0.
166.907 -509.681 0.
73.9434 -724.202 0.
150.599 -768.725 0.
215.847 -620.039 0.
281.096 -471.352 0.
373.273 -473.988 0.
267.192 -718.297 0.
161.11 -962.605 0.
196.036 -1001.35 0.
197.277 -1000.68 0.
874.078 -709.401 0.
338.616 -775.429 0.
422.134 -579.071 0.
828.143 -279.444 0.
832.576 -266.748 0.
837.009 -254.053 0.
373.198 -469.439 0.
351.363 -521.646 0.
329.528 -573.852 0.
146.835 -581.648 0.
208.222 -436.506 0.
269.607 -291.365 0.
751.169 -187.7 0.
675.433 -354.023 0.
129.015 -715.969 0.
134.482 -703.778 0.
139.948 -691.587 0.
716.712 -403.212 0.
772.168 -276.161 0.
827.625 -149.109 0.
216.754 -274.604 0.
304.916 -77.0825 0.
393.078 120.441 0.
1052.19 411.219 0.
1028.52 361.642 0.
-939.229 -519.554 0.
580.328 181.197 0.
603.623 240.595 0.
864.021 339.787 0.
757.208 93.2439 0.
650.396 -153.298 0.
280.155 -465.364 0.
224.862 -587.764 0.
169.569 -710.164 0.
478.291 -666.723 0.
432.777 -769.142 0.
387.264 -871.562 0.
541.359 -836.386 0.
533.163 -861.258 0.
-321.122 -1211.42 0.
-199.748 -929.259 0.
-78.3732 -647.099 0.
820.292 -153.704 0.
759.877 -297.669 0.
699.462 -441.635 0.
615.919 -531.863 0.
605.319 -553.11 0.
594.718 -574.356 0.
202.541 -845.842 0.
138.108 -998.804 0.
1589.91 -502.277 0.
406.088 -808.07 0.
510.806 -561.807 0.
254.08 -529.099 0.
222.543 -599.643 0.
191.006 -670.187 0.
357.148 -578.023 0.
418.417 -436.669 0.
479.686 -295.315 0.
204.656 -482.501 0.
123.377 -677.209 0.
42.0981 -871.919 0.
281.468 -661.955 0.
354.142 -495.61 0.
126.724 -497.713 0.
58.7231 -655.757 0.
-9.279 -813.803 0.
6.25068 -739.218 0.
219.046 -242.096 0.
431.841 255.026 0.
-69.3947 161.78 0.
-104.871 79.8352 0.
-140.347 -2.11012 0.
84.2388 -203.743 0.
-107.906 -651.034 0.
273.948 -442.438 0.
-163.554 -613.882 0.
-103.443 -470.059 0.
-183.542 -389.471 0.
-163.816 -346.261 0.
-144.09 -303.05 0.
143.255 -239.673 0.
58.8208 -437.049 0.
-25.614 -634.425 0.
435.043 -409.375 0.
497.623 -263.376 0.
560.204 -117.377 0.
-56.5142 -486.782 0.
-123.189 -643.45 0.
100.406 -652.992 0.
115.224 -617.621 0.
130.043 -582.252 0.
217.093 -550.361 0.
163.104 -670.248 0.
109.116 -790.134 0.
298.2 -791.907 0.
262.154 -874.573 0.
226.107 -957.239 0.
162.92 -832.964 0.
276.212 -566.502 0.
938.692 -64.595 0.
286.215 -585.605 0.
155.654 -888.822 0.
665.395 -871.77 0.
673.971 -855.379 0.
682.546 -838.988 0.
103.613 -1036.11 0.
148.525 -929.767 0.
193.436 -823.423 0.
52.2876 -796.039 0.
104.507 -673.68 0.
156.727 -551.321 0.
704.015 -220.722 0.
753.639 -109.398 0.
213.21 -268.716 0.
174.781 -357.237 0.
136.353 -445.758 0.
603.211 -293.979 0.
606.271 -285.702 0.
609.331 -277.424 0.
278.911 -405.47 0.
291.107 -373.693 0.
303.303 -341.916 0.
947.255 147.109 0.
1089.52 477.779 0.
-1546.86 -383.034 0.
796.599 541.472 0.
757.779 445.032 0.
881.454 391.339 0.
789.375 166.56 0.
697.297 -58.2202 0.
398.995 -264.453 0.
425.042 -209.821 0.
451.088 -155.189 0.
614.931 -89.4645 0.
596.542 -137.152 0.
578.152 -184.84 0.
709.794 -33.4652 0.
764.114 100.777 0.
127.874 -105.144 0.
-7.46211 -419.914 0.
-142.798 -734.684 0.
668.595 -609.837 0.
586.224 -804.066 0.
503.854 -998.294 0.
403.511 -933.332 0.
566.558 -553.891 0.
729.605 -174.448 0.
362.029 -441.465 0.
248.389 -707.543 0.
406.2 -843.193 0.
441.738 -827.719 0.
442.357 -827.591 0.
51.7985 -929.13 0.
207.912 -565.035 0.
364.025 -200.941 0.
414.434 -94.0446 0.
319.431 -311.999 0.
224.427 -529.954 0.
201.034 -564.357 0.
228.703 -493.53 0.
256.372 -422.703 0.
443.88 -236.521 0.
500.658 -107.178 0.
188.48 -146.077 0.
199.891 -122.034 0.
211.303 -97.9898 0.
306.42 -85.7046 0.
246.502 -222.586 0.
186.583 -359.466 0.
-391.613 -642.125 0.
-383.594 -625.657 0.
-375.574 -609.189 0.
138.717 -351.316 0.
165.144 -288.523 0.
139.574 -472.1 0.
-167.66 -584.234 0.
-106.913 -440.751 0.
-80.3515 -313.154 0.
-60.1708 -270.253 0.
-39.9905 -227.352 0.
216.049 -173.728 0.
132.617 -372.249 0.
49.1845 -570.77 0.
275.659 -446.614 0.
337.937 -300.612 0.
400.215 -154.61 0.
133.427 -373.437 0.
66.7088 -529.81 0.
213.616 -573.826 0.
227.464 -537.495 0.
241.313 -501.164 0.
24.3776 -604.994 0.
-30.0146 -724.291 0.
-84.4055 -843.587 0.
331.16 -745.973 0.
295.201 -828.863 0.
259.24 -911.752 0.
-8.36248 -875.346 0.
105.346 -609.587 0.
330.106 -295.607 0.
194.425 -592.937 0.
64.0867 -896.097 0.
672.453 -837.536 0.
681.967 -821.56 0.
691.479 -805.583 0.
106.788 -1003.05 0.
152 -897.129 0.
197.212 -791.205 0.
289.965 -663.023 0.
342.506 -541.037 0.
395.048 -419.05 0.
577.145 -244.048 0.
626.633 -132.295 0.
196.053 -245.166 0.
158.051 -333.45 0.
120.049 -421.734 0.
279.896 -402.638 0.
282.58 -394.351 0.
285.263 -386.064 0.
545.226 -259.086 0.
558.899 -229.146 0.
572.573 -199.206 0.
1025.3 213.657 0.
1167.89 544.213 0.
-1733.83 -430.717 0.
1154.32 726.754 0.
1115.17 630.754 0.
499.307 257.59 0.
406.199 33.942 0.
313.093 -189.707 0.
434.029 -221.119 0.
459.158 -165.567 0.
484.287 -110.015 0.
488.969 -114.362 0.
469.377 -160.914 0.
449.785 -207.465 0.
567.514 -64.2131 0.
622.309 69.5161 0.
370.39 31.9232 0.
234.643 -282.384 0.
98.8959 -596.69 0.
551.415 -629.837 0.
467.955 -823.242 0.
384.495 -1016.65 0.
209.523 -985.614 0.
372.568 -606.013 0.
535.613 -226.41 0.
591.56 -310.908 0.
477.201 -576.095 0.
491.576 -778.816 0.
432.386 -803.391 0.
432.673 -802.95 0.
20.0198 -912.106 0.
175.737 -547.344 0.
331.454 -182.582 0.
271.615 -125.654 0.
176.949 -343.397 0.
82.2839 -561.14 0.
255.472 -506.549 0.
283.337 -436.224 0.
311.202 -365.899 0.
366.344 -239.826 0.
422.741 -110.023 0.
143.673 -135.559 0.
154.574 -111.017 0.
165.476 -86.4746 0.
239.871 -80.8876 0.
179.5 -217.428 0.
119.128 -353.967 0.
-335.598 -588.714 0.
-327.031 -572.719 0.
-318.462 -556.724 0.
180.309 -302.045 0.
207.249 -239.576 0.
364.936 39.515 0.
115.579 143.6 0.
-495.441 -1278.66 0.
-548.325 -1583.97 0.
380.566 587.794 0.
284.277 367.348 0.
585.119 573.733 0.
228.46 -255.03 0.
200.551 -316.45 0.
536.968 499.424 0.
282.12 -95.4473 0.
298.533 -57.9025 0.
375.968 -133.212 0.
-27.0126 -1075.34 0.
411.215 -276.714 0.
679.449 347.623 0.
762.263 539.894 0.
317.228 464.385 0.
320.67 474.723 0.
460.282 802.178 0.
922.906 617.827 0.
966.632 714.792 0.
793.264 304.812 0.
233.822 24.1626 0.
117.353 -244.752 0.
818.083 -215.108 0.
136.164 -531.57 0.
497.841 312.21 0.
1336.98 724.358 0.
972.296 -129.448 0.
1030.2 3.95244 0.
913.115 908.836 0.
1043.34 1214.38 0.
448.893 -169.388 0.
1041.42 673.722 0.
1232.25 1122.97 0.
690.988 -136.26 0.
959.27 909.746 0.
763.602 442.938 0.
487.838 487.48 0.
223.771 -131.022 0.
529.887 580.777 0.
760.733 1357.95 0.
577.35 932.235 0.
236.43 138.987 0.
1083.82 532.199 0.
1125.79 632.727 0.
953.271 232.911 0.
957.026 -87.7237 0.
1213.39 508.145 0.
-6119.94 -1524.16 0.
1756.93 1505.92 0.
1544.18 1005.72 0.
9.79863 -126.972 0.
101.474 81.4742 0.
344.904 643.802 0.
1000.92 1073.71 0.
689.624 347.183 0.
920.634 886.136 0.
1019.05 1380.37 0.
720.283 679.64 0.
-123.002 -1291.32 0.
-88.4224 -1306.02 0.
593.319 289.981 0.
580.965 115.784 0.
294.873 -548.22 0.
791.497 615.735 0.
784.955 169.468 0.
578.085 -312.149 0.
834.394 286.68 0.
373.029 -214.038 0.
890.58 993.014 0.
396.824 -160.805 0.
826.812 -160.391 0.
1140.63 578.919 0.
381.558 -47.2158 0.
1116.83 833.988 0.
929.597 401.175 0.
584.724 493.204 0.
313.416 -143.094 0.
-16.616 -916.32 0.
64.6893 -311.97 0.
260.726 151.865 0.
-96.8546 -675.613 0.
757.893 606.52 0.
621.273 281.739 0.
-56.0025 -1304.02 0.
256.093 -311.238 0.
669.87 660.222 0.
-47.0967 -474.378 0.
575.558 976.215 0.
335.233 413.193 0.
245.677 96.3452 0.
290.846 202.603 0.
97.8929 -247.943 0.
-283.11 -544.754 0.
32.8138 197.471 0.
-179.588 -293.614 0.
895.982 1300.73 0.
337.026 -8.08438 0.
-136.644 -418.323 0.
-50.6793 -365.851 0.
-72.7869 -413.208 0.
130.437 -407.597 0.
38.0125 -621.139 0.
-54.4123 -834.681 0.
66.1643 -797.195 0.
157.185 -581.899 0.
248.205 -366.603 0.
123.025 -385.428 0.
107.201 -423.004 0.
91.3771 -460.579 0.
231.655 -418.074 0.
224.053 -437.502 0.
165.479 -486.397 0.
123.969 -588.562 0.
82.4591 -690.729 0.
-97.6279 -809.433 0.
-77.0422 -763.668 0.
-56.4561 -717.903 0.
273.961 -522.125 0.
303.654 -456.667 0.
333.347 -391.209 0.
11.319 -630.107 0.
-60.2098 -796.697 0.
214.183 -815.237 0.
427.567 -587.067 0.
503.623 -410.754 0.
619.704 -238.171 0.
612.465 -253.565 0.
605.225 -268.96 0.
228.6 -443.577 0.
235.252 -429.871 0.
241.902 -416.166 0.
281.258 -573.378 0.
132.046 -919.261 0.
-17.1655 -1265.14 0.
347.581 -829.93 0.
537.276 -392.153 0.
291.891 -172.739 0.
326.84 -92.2168 0.
361.789 -11.6943 0.
338.345 -7.4034 0.
285.405 -131.588 0.
232.465 -255.774 0.
387.693 -270.16 0.
352.548 -347.497 0.
317.403 -424.834 0.
1053.93 -55.3735 0.
1100.27 53.0277 0.
-2756.8 -1513.13 0.
1068.06 -158.956 0.
919.119 -507.363 0.
-411.222 -1201.66 0.
-190.616 -688.205 0.
29.9902 -174.749 0.
480.928 202.893 0.
429.342 82.4466 0.
377.755 -37.9995 0.
380.873 -113.94 0.
351.142 -187.053 0.
321.41 -260.166 0.
485.725 -351.494 0.
390.423 -573.276 0.
13.7776 -889.9 0.
43.7289 -820.027 0.
73.6807 -750.154 0.
436.726 -516.908 0.
495.876 -380.905 0.
555.025 -244.901 0.
193.627 -497.004 0.
59.9429 -808.585 0.
-73.7409 -1120.17 0.
677.45 -695.795 0.
773.939 -465.54 0.
1192.05 -99.8185 0.
511.876 -451.534 0.
479.577 -524.044 0.
100.143 -694.277 0.
196.939 -472.837 0.
293.735 -251.395 0.
33.6201 -325.607 0.
-33.8676 -480.691 0.
-101.356 -635.774 0.
207.03 -479.334 0.
254.912 -372.555 0.
302.793 -265.775 0.
74.77 -515.844 0.
-17.0466 -727.128 0.
-83.4491 -872.343 0.
36.4768 -591.638 0.
156.401 -310.933 0.
84.0116 -213.839 0.
64.5248 -260.754 0.
45.0377 -307.67 0.
-272.116 -518.5 0.
-326.072 -641.615 0.
-380.027 -764.73 0.
279.067 -523.938 0.
267.645 -553.085 0.
164.16 -263.291 0.
29.854 -301.428 0.
7.73988 -348.688 0.
362.016 -276.677 0.
270.563 -491.165 0.
179.11 -705.652 0.
166.351 -721.632 0.
258.236 -506.767 0.
350.12 -291.901 0.
96.838 -363.457 0.
81.0431 -400.857 0.
65.2484 -438.256 0.
221.627 -389.806 0.
213.719 -409.094 0.
-8.91036 -531.545 0.
-51.2749 -633.201 0.
-93.6391 -734.858 0.
82.9206 -701.462 0.
103.174 -655.764 0.
123.427 -610.066 0.
92.6078 -568.422 0.
121.971 -502.687 0.
151.334 -436.953 0.
101.815 -560.59 0.
30.4912 -726.822 0.
-547.889 -1110.7 0.
823.001 -387.705 0.
899.454 -211.531 0.
262.498 -360.364 0.
255.716 -376.001 0.
248.933 -391.639 0.
109.368 -464.75 0.
115.862 -450.418 0.
122.354 -436.087 0.
28.1544 -650.263 0.
-120.497 -997.108 0.
-269.149 -1343.95 0.
525.723 -721.866 0.
714.793 -283.617 0.
413.476 -89.6238 0.
448.511 -9.39429 0.
483.547 70.8353 0.
558.432 117.616 0.
505.134 -6.77744 0.
451.836 -131.171 0.
-29.5204 -417.88 0.
-64.6176 -495.815 0.
-99.715 -573.751 0.
1166.39 24.4161 0.
1213.06 132.638 0.
-3586.74 -1836.28 0.
1117.02 -105.531 0.
968.507 -454.337 0.
-349.361 -1143.82 0.
-128.74 -630.575 0.
91.8809 -117.332 0.
320.59 166.285 0.
269.282 44.8712 0.
217.975 -76.5437 0.
399.616 -72.7192 0.
370.237 -146.408 0.
340.858 -220.097 0.
704.67 -225.443 0.
609.727 -447.86 0.
-137.403 -922.272 0.
-107.225 -852.964 0.
-77.0474 -783.657 0.
390.027 -505.903 0.
448.939 -370.228 0.
507.851 -234.552 0.
139.588 -488.643 0.
5.90601 -801.114 0.
-127.776 -1113.59 0.
789.596 -616.327 0.
885.925 -386.279 0.
1127.22 -97.6424 0.
459.019 -443.151 0.
426.808 -515.317 0.
141.846 -647.008 0.
238.627 -424.729 0.
335.408 -202.449 0.
23.0486 -300.021 0.
-44.9098 -454.131 0.
-112.869 -608.239 0.
117.464 -487.978 0.
165.106 -380.992 0.
212.748 -274.007 0.
-20.7066 -523.883 0.
-111.398 -736.118 0.
90.8141 -765.298 0.
210.683 -484.645 0.
330.551 -203.991 0.
67.1321 -190.698 0.
47.4017 -237.562 0.
27.6709 -284.426 0.
-253.527 -478.396 0.
-307.328 -601.575 0.
-361.129 -724.754 0.
497.192 -400.926 0.
485.773 -429.496 0.
-703.937 -1025.54 0.
-93.9111 -659.162 0.
-39.1156 -534.513 0.
387.356 -275.431 0.
364.584 -323.756 0.
341.811 -372.081 0.
286.956 -371.63 0.
345.062 -233.282 0.
403.169 -94.9342 0.
112.595 -157.611 0.
126.386 -121.987 0.
140.177 -86.3622 0.
420.659 1.27892 0.
404.938 -40.7415 0.
94.8572 -196.083 0.
122.021 -133.436 0.
149.185 -70.7885 0.
425.985 51.1194 0.
382.629 -49.4934 0.
339.273 -150.107 0.
174.649 -225.206 0.
210.856 -138.234 0.
247.062 -51.2618 0.
374.706 -133.483 0.
259.78 -399.696 0.
301.573 -597.127 0.
840.638 -292.261 0.
877.766 -198.427 0.
119.215 -480.129 0.
58.3961 -619.561 0.
-2.42213 -758.994 0.
97.024 -626.786 0.
288.686 -179.277 0.
480.35 268.232 0.
373.931 316.78 0.
350.067 261.316 0.
326.204 205.851 0.
958.133 245.265 0.
822.623 -68.2442 0.
202.296 -545.752 0.
282.54 -355.508 0.
362.784 -165.265 0.
569.906 48.6415 0.
610.454 139.684 0.
651.002 230.727 0.
73.0072 -22.5116 0.
38.2998 -102.75 0.
3.59322 -182.989 0.
1129.31 87.6949 0.
1002.76 -209.727 0.
843.455 -519.869 0.
1002.04 -120.584 0.
1174.13 283.829 0.
270.863 138.849 0.
236.592 60.7376 0.
202.321 -17.3745 0.
254.277 -59.5492 0.
221.493 -133.51 0.
188.709 -207.472 0.
380.583 -137.432 0.
384.795 -124.884 0.
389.007 -112.338 0.
763.971 -12.3975 0.
732.054 -85.8004 0.
81.135 -404.876 0.
120.553 -316.16 0.
159.971 -227.445 0.
515.378 -83.4689 0.
445.575 -247.545 0.
375.771 -411.621 0.
115.363 -577.958 0.
110.032 -592.278 0.
104.7 -606.597 0.
923.495 -200.573 0.
970.59 -93.7045 0.
669.12 -136.216 0.
527.324 -87.3345 0.
587.181 48.3271 0.
404.187 28.1757 0.
336.182 -130.2 0.
268.177 -288.576 0.
-4.47803 -446.189 0.
31.6584 -364.732 0.
67.7951 -283.276 0.
131.745 -210.199 0.
148.353 -168.802 0.
164.96 -127.406 0.
205.537 -127.098 0.
193.028 -155.611 0.
316.072 -120.838 0.
322.453 -113.763 0.
328.835 -106.687 0.
123.902 -162.414 0.
180.672 -37.9209 0.
237.442 86.5729 0.
-8.19224 -25.8493 0.
-53.4745 -135.584 0.
-98.7555 -245.319 0.
502.383 -16.4939 0.
496.199 -32.1884 0.
-347.22 -844.122 0.
-76.9158 -620.789 0.
-22.2191 -495.351 0.
243.593 -306.122 0.
221.319 -354.577 0.
199.045 -403.033 0.
152.559 -397.141 0.
210.763 -258.838 0.
268.967 -120.536 0.
-6.07208 -177.345 0.
8.84788 -143.075 0.
23.7674 -108.803 0.
550.402 90.0119 0.
534.887 47.379 0.
192.058 -123.854 0.
219.234 -61.0423 0.
246.409 1.76976 0.
334.599 43.7371 0.
291.27 -57.1693 0.
247.94 -158.076 0.
212.597 -178.185 0.
249.049 -91.1298 0.
285.501 -4.07424 0.
534.192 -32.8666 0.
419.115 -298.543 0.
1057.84 -239.146 0.
447.288 -430.352 0.
485.189 -337.101 0.
249.505 -392.697 0.
189.157 -532.146 0.
128.808 -671.595 0.
375.15 -477.915 0.
566.492 -30.1569 0.
757.837 417.602 0.
474.203 389.942 0.
449.848 334.62 0.
425.494 279.297 0.
875.441 241.664 0.
740.055 -71.9826 0.
70.9171 -570.099 0.
151.315 -380.111 0.
231.713 -190.123 0.
480.244 40.7515 0.
520.65 131.069 0.
561.056 221.386 0.
347.546 128.091 0.
312.446 47.822 0.
277.348 -32.4468 0.
921.703 29.9568 0.
794.887 -267.337 0.
-113.318 -898.23 0.
696.257 -220.238 0.
868.257 183.849 0.
421.188 232.314 0.
386.857 153.875 0.
352.527 75.4357 0.
493.579 77.5189 0.
461.574 2.17318 0.
429.57 -73.173 0.
414.042 -90.062 0.
419.251 -78.1221 0.
424.461 -66.1829 0.
526.117 -82.4547 0.
494.541 -156.294 0.
238.834 -304.746 0.
278.419 -216.247 0.
318.004 -127.748 0.
455.653 -78.0792 0.
385.426 -241.816 0.
315.199 -405.553 0.
221.433 -501.662 0.
215.722 -516.445 0.
210.01 -531.229 0.
759.832 -241.351 0.
806.339 -134.454 0.
1033.17 53.7634 0.
418.786 -99.9024 0.
478.614 35.5049 0.
328.703 25.631 0.
260.503 -132.745 0.
192.303 -291.122 0.
127.761 -355.882 0.
163.85 -274.251 0.
199.94 -192.619 0.
-2.44094 -236.055 0.
14.6864 -194.915 0.
31.8141 -153.775 0.
454.151 12.8247 0.
441.524 -15.5667 0.
83.3541 -189.794 0.
89.4197 -182.483 0.
95.4863 -175.172 0.
282.937 -66.0697 0.
339.185 59.1566 0.
395.432 184.384 0.
120.543 61.2056 0.
75.9124 -48.8873 0.
31.2828 -158.981 0.
-41.4687 -218.919 0.
-47.2313 -235.219 0.
-779.383 28.3736 0.
-182.531 -874.312 0.
404.947 491.693 0.
322.215 191.329 0.
223.532 -36.6945 0.
541.676 708.206 0.
-79.4704 -653.175 0.
430.649 539.617 0.
-23.7806 -517.416 0.
109.375 339.083 0.
44.2936 188.489 0.
111.304 346.304 0.
1016.02 960.895 0.
826.539 522.497 0.
1.49974 -725.491 0.
547.507 546.945 0.
272.364 -96.4132 0.
156.496 -176.091 0.
335.725 242.307 0.
253.815 50.1448 0.
489.526 438.225 0.
571.612 626.048 0.
633.74 767.355 0.
323 -779.875 0.
723.901 155.678 0.
637.531 374.286 0.
543.53 556.004 0.
734.307 1003.37 0.
643.416 305.703 0.
424.535 -205.949 0.
436.147 -179.396 0.
886.88 225.011 0.
323.399 -1088.88 0.
127.061 -1546.24 0.
630.19 586.575 0.
268.139 -260.888 0.
-137.707 -1209.69 0.
703.618 34.8275 0.
627.315 -142.993 0.
292.169 229.95 0.
304.668 258.141 0.
88.6511 -246.502 0.
295.515 -190.737 0.
234.712 -336.949 0.
65.2183 -736.468 0.
475.32 -64.1011 0.
735.023 539.99 0.
123.942 -887.708 0.
813.864 220.915 0.
1032.12 726.135 0.
649.356 245.077 0.
693.009 378.132 0.
423.248 -252.665 0.
212.797 -507.743 0.
663.847 542.943 0.
906.484 1108.06 0.
1303.17 1563.86 0.
1107.2 1104.18 0.
634.361 -1.12578 0.
133.856 -774.058 0.
525.46 138.579 0.
898.991 1007.92 0.
543.924 420.278 0.
349.463 -36.0099 0.
318.109 -376.333 0.
373.123 -254.084 0.
867.552 895.468 0.
1109.22 1590.83 0.
398.654 -63.8058 0.
-115.032 -1258.73 0.
-42.5045 -1283.63 0.
798.403 678.835 0.
1089.6 1359.23 0.
344.632 -885.784 0.
645.531 -179.101 0.
287.246 331.847 0.
742.093 891.29 0.
127.56 -541.643 0.
142.27 -228.046 0.
254.43 28.5776 0.
309.935 152.9 0.
573.059 481.101 0.
561.095 448.985 0.
86.7845 -662.035 0.
177.297 460.677 0.
350.48 862.02 0.
-105.613 -206.003 0.
622.923 -24.1116 0.
543.644 -203.984 0.
-200.23 -397.674 0.
141.489 403.024 0.
339.952 869.343 0.
389.585 -88.9476 0.
350.125 -178.838 0.
633.562 484.657 0.
689.938 1177.71 0.
444.262 610.326 0.
657.411 1112.49 0.
-261.429 285.966 0.
-118.754 615.191 0.
-549.842 -692.444 0.
106.294 -523.186 0.
67.8564 -614.549 0.
-136.461 -696.419 0.
35.2047 -295.652 0.
206.871 105.115 0.
164.987 240.532 0.
120.173 136.85 0.
75.3584 33.1681 0.
101.964 -89.4274 0.
14.6568 -290.085 0.
-72.6505 -490.741 0.
329.483 -356.674 0.
314.717 -386.092 0.
124.958 -488.041 0.
172.424 -377.819 0.
219.889 -267.597 0.
215.766 -192.941 0.
232.502 -150.818 0.
249.239 -108.694 0.
274.759 -134.234 0.
218.851 -264.701 0.
162.944 -395.168 0.
416.564 -251.915 0.
464.87 -139.745 0.
251.54 -139.455 0.
414.507 -72.005 0.
404.905 -94.5563 0.
548 -62.4443 0.
528.693 -108.835 0.
509.386 -155.226 0.
485.783 -317.889 0.
327.885 -688.397 0.
169.987 -1058.91 0.
-93.3951 -1052.75 0.
81.4984 -645.127 0.
256.392 -237.509 0.
415.706 -93.6689 0.
437.707 -44.2073 0.
257.189 -93.3117 0.
206.074 -209.968 0.
154.959 -326.625 0.
345.117 -317.935 0.
324.848 -364.006 0.
304.579 -410.077 0.
290.886 -447.84 0.
280.91 -474.622 0.
270.935 -501.404 0.
588.707 -232.784 0.
679.65 -22.2793 0.
-1081.17 -607.929 0.
861.026 297.755 0.
901.257 388.334 0.
342.501 184.795 0.
296.274 76.7802 0.
250.047 -31.2344 0.
493.052 37.7117 0.
513.622 87.4344 0.
534.193 137.157 0.
453.466 104.796 0.
439.078 75.9893 0.
424.69 47.182 0.
368.957 -131.675 0.
280.922 -339.094 0.
240.668 -514.239 0.
212.348 -584.123 0.
184.027 -654.008 0.
97.3356 -702.25 0.
133.566 -618.549 0.
169.797 -534.847 0.
252.417 -470.525 0.
265.845 -444.907 0.
279.273 -419.29 0.
641.488 -110.653 0.
739.84 116.24 0.
865.959 352.492 0.
242.382 -18.1494 0.
186.699 -147.485 0.
292.129 -203.253 0.
253.685 -294.809 0.
215.241 -386.366 0.
154.849 -394.168 0.
226.771 -225.247 0.
298.691 -56.3274 0.
104.7 -190.341 0.
27.9251 -370.027 0.
-48.8494 -549.713 0.
394.008 -271.259 0.
453.556 -128.828 0.
-120.783 -268.147 0.
-109.51 -241.68 0.
-98.2354 -215.213 0.
320.424 -66.5438 0.
256.638 -216.906 0.
192.852 -367.27 0.
-50.0794 -416.63 0.
52.0619 -174.114 0.
154.203 68.4011 0.
-106.914 -152.142 0.
-206.659 -385.09 0.
1130.66 59.8989 0.
289.202 -412.704 0.
250.597 -503.879 0.
-213.602 -698.527 0.
-42.2403 -297.578 0.
129.121 103.37 0.
13.9695 207.416 0.
-30.5547 103.425 0.
-75.0796 -0.565952 0.
333.551 40.8167 0.
246.759 -161.004 0.
159.967 -362.823 0.
194.01 -381.502 0.
180.056 -411.976 0.
168.622 -435.695 0.
216.513 -325.969 0.
264.403 -216.242 0.
314.787 -118.232 0.
331.651 -75.945 0.
348.515 -33.6582 0.
325.44 -83.0875 0.
270.072 -214.063 0.
214.705 -345.039 0.
270.547 -282.591 0.
320.075 -171.043 0.
-416.12 -395.46 0.
598.776 39.2486 0.
589.905 16.2058 0.
642.466 10.4342 0.
623.807 -36.0333 0.
605.147 -82.5006 0.
291.373 -371.023 0.
133.357 -741.443 0.
-24.6585 -1111.86 0.
-102.682 -1027.08 0.
72.3042 -619.811 0.
247.291 -212.539 0.
144.868 -175.402 0.
167.135 -126.941 0.
399.136 -0.599164 0.
347.228 -117.53 0.
295.319 -234.46 0.
488.04 -225.808 0.
467.092 -272.114 0.
446.144 -318.42 0.
284.931 -420.564 0.
273.859 -446.478 0.
262.788 -472.391 0.
569.106 -209.506 0.
659.805 0.740558 0.
-2469.19 -1171.76 0.
1125.53 441.032 0.
1165.73 531.216 0.
150.355 137.72 0.
104.771 28.7936 0.
59.1865 -80.133 0.
320.641 -6.06692 0.
341.812 42.9187 0.
362.984 91.9043 0.
394.084 112.43 0.
380.227 83.2774 0.
366.371 54.1243 0.
461.858 -60.6842 0.
374.064 -268.55 0.
235.625 -482.794 0.
207.878 -553.902 0.
180.132 -625.011 0.
78.6283 -677.283 0.
115.287 -594.537 0.
151.946 -511.791 0.
207.552 -456.853 0.
221.006 -431.41 0.
234.46 -405.966 0.
611.071 -94.5336 0.
708.953 132.469 0.
585.876 264.902 0.
128.003 -34.4102 0.
72.2637 -163.995 0.
478.676 -90.6934 0.
440.65 -182.974 0.
402.624 -275.255 0.
115.909 -377.376 0.
187.678 -208.458 0.
259.446 -39.5404 0.
373.102 -44.2295 0.
296.361 -223.742 0.
219.621 -403.255 0.
260.854 -297.296 0.
321.319 -155.12 0.
-78.4475 -217.576 0.
-65.9862 -191.947 0.
-53.5239 -166.318 0.
243.388 -66.1098 0.
179.964 -216.415 0.
116.54 -366.72 0.
-102.168 -406.441 0.
0.358895 -164.225 0.
102.886 77.991 0.
327.413 63.4784 0.
226.849 -169.282 0.
-78.2471 -244.469 0.
397.078 11.9179 0.
414.435 50.4435 0.
29.2922 -104.229 0.
-11.5136 -203.041 0.
-52.3199 -301.853 0.
-296.674 -454.852 0.
-304.072 -466.602 0.
-311.472 -478.351 0.
313.271 -162.175 0.
359.219 -57.4302 0.
405.167 47.315 0.
350.244 159.524 0.
419.096 323.723 0.
571.034 487.866 0.
433.792 169.428 0.
296.549 -149.008 0.
271.982 -354.463 0.
250.085 -405.126 0.
228.187 -455.79 0.
185.736 -479.97 0.
203.378 -440.317 0.
221.02 -400.664 0.
111.27 -428.734 0.
113.288 -420.567 0.
177.78 -385.612 0.
417.137 -453.741 0.
324.818 -661.094 0.
394.145 -697.789 0.
529.335 -379.533 0.
664.524 -61.2784 0.
334.51 -12.3066 0.
391.731 125.912 0.
448.951 264.13 0.
410.895 252.266 0.
378.437 181.984 0.
345.979 111.702 0.
156.034 -24.1458 0.
127.783 -89.3666 0.
442.17 -2.37867 0.
436.944 -20.5148 0.
431.718 -38.6515 0.
581.309 15.8709 0.
581.831 14.4452 0.
582.355 13.0193 0.
456.46 -15.0627 0.
482.957 45.3757 0.
509.453 105.814 0.
727.141 174.531 0.
703.466 122.208 0.
-1008.19 -654.54 0.
920.433 -41.2561 0.
806.691 -306.114 0.
-307.185 -916.978 0.
-226.661 -728.702 0.
-146.136 -540.426 0.
139.32 -309.182 0.
165.186 -250.316 0.
191.051 -191.45 0.
317.574 -106.681 0.
334.988 -67.7909 0.
352.403 -28.8996 0.
519.672 112.386 0.
551.969 192.569 0.
451.463 185.762 0.
353.022 -34.5905 0.
254.582 -254.942 0.
246.227 -373.366 0.
255.543 -349.608 0.
264.86 -325.848 0.
203.839 -306.613 0.
237.172 -225.592 0.
270.506 -144.571 0.
583.806 -8.89022 0.
577.161 -23.9403 0.
515.216 -60.375 0.
-57.8012 -481.12 0.
-148.604 -692.691 0.
257.489 -613.533 0.
328.397 -444.724 0.
399.305 -275.916 0.
160.94 -332.604 0.
136.922 -388.339 0.
112.905 -444.074 0.
334.13 -283.634 0.
397.567 -134.356 0.
461.004 14.9217 0.
262.786 -127.038 0.
222.81 -222.115 0.
-98.2625 -412.611 0.
-35.5916 -265.023 0.
27.0785 -117.434 0.
275.208 40.1739 0.
238.633 -46.3432 0.
202.058 -132.86 0.
-84.9262 -173.83 0.
12.6692 57.7708 0.
110.265 289.371 0.
595.182 363.221 0.
477.606 92.2507 0.
763.223 148.587 0.
99.9927 -84.1984 0.
116.767 -45.2096 0.
95.2013 -46.8483 0.
54.4196 -145.785 0.
13.6375 -244.722 0.
-185.265 -373.45 0.
-192.482 -385.557 0.
-199.699 -397.663 0.
276.832 -148.972 0.
322.139 -43.5413 0.
367.446 61.8892 0.
330.821 184.075 0.
400.156 348.304 0.
575.701 519.539 0.
438.775 200.839 0.
301.849 -117.86 0.
345.968 -289.445 0.
324.8 -340.34 0.
303.632 -391.235 0.
235.827 -427.158 0.
254.021 -387.569 0.
272.214 -347.981 0.
45.7524 -426.988 0.
46.9693 -417.67 0.
476.493 -223.969 0.
350.358 -449.781 0.
258.367 -657.282 0.
468.702 -637.433 0.
603.442 -318.375 0.
738.183 0.68184 0.
279.876 -3.18864 0.
336.982 134.814 0.
394.087 272.815 0.
371.853 267.428 0.
339.572 196.86 0.
307.291 126.293 0.
318.765 79.2258 0.
290.307 13.7342 0.
462.668 38.8016 0.
456.781 20.6225 0.
450.896 2.4428 0.
462.415 -2.74387 0.
461.983 -3.86615 0.
461.552 -4.98858 0.
497.55 32.7459 0.
523.895 93.2413 0.
550.241 153.736 0.
707.291 197.337 0.
683.68 144.735 0.
-174.87 -265.38 0.
727.864 -92.1316 0.
614.41 -356.878 0.
-105.2 -795.558 0.
-23.88 -608.083 0.
57.4404 -420.607 0.
207.448 -249.229 0.
232.788 -190.334 0.
258.127 -131.438 0.
456.833 -14.1559 0.
473.88 25.4094 0.
490.927 64.9752 0.
437.428 105.089 0.
470.042 185.136 0.
291.16 150.022 0.
192.854 -70.8819 0.
94.5483 -291.785 0.
386.465 -280.945 0.
395.548 -257.443 0.
404.631 -233.942 0.
103.244 -318.981 0.
137.346 -238.344 0.
171.448 -157.706 0.
511.124 -7.97987 0.
504.877 -23.4785 0.
1028.93 189.891 0.
84.1916 -388.566 0.
-7.2926 -598.852 0.
118.646 -643.764 0.
190.112 -475.23 0.
261.577 -306.697 0.
278.39 -250.925 0.
255.437 -307.439 0.
232.484 -363.954 0.
266.225 -279.381 0.
329.724 -130.155 0.
393.221 19.0722 0.
248.273 -100.983 0.
208.191 -196.316 0.
44.7265 -321.665 0.
107.26 -173.85 0.
169.792 -26.0356 0.
340.145 98.6689 0.
303.218 12.6343 0.
266.29 -73.4 0.
-202.133 -192.735 0.
-104.632 38.9453 0.
-7.13068 270.626 0.
552.435 373.858 0.
435.78 101.731 0.
-700.363 145.234 0.
-391.155 -647.535 0.
-170.995 -134.026 0.
55.034 -250.61 0.
159.4 2.48045 0.
288.091 309.745 0.
-129.938 -436.354 0.
66.8956 27.7288 0.
263.678 491.511 0.
793.123 1159.81 0.
543.346 576.017 0.
111.326 -431.849 0.
227.624 10.1294 0.
440.184 505.639 0.
-168.191 -1208.4 0.
186.555 -375.605 0.
193.168 -354.472 0.
290.436 -529.914 0.
540.343 49.1984 0.
540.714 46.7493 0.
419.086 -71.8481 0.
349.271 -234.032 0.
134.436 -735.47 0.
-46.2979 -484.496 0.
371.422 494.191 0.
274.19 274.011 0.
782.785 702.471 0.
134.667 -812.466 0.
240.191 -1278.59 0.
1083.47 693.482 0.
863.285 184.72 0.
-292.538 -1201.89 0.
267.949 108.444 0.
112.637 -251.833 0.
61.6149 -359.227 0.
-45.8561 -608.256 0.
37.4516 -412.003 0.
589.626 447.592 0.
666.595 627.084 0.
501.131 121.944 0.
388.478 -138.786 0.
615.241 392.504 0.
603.065 578.919 0.
472.917 275.25 0.
215.672 -325.024 0.
766.221 610.885 0.
417.679 -204.211 0.
235.648 -630.67 0.
245.006 -803.106 0.
694.369 243.262 0.
89.2848 -104.889 0.
683.814 222.671 0.
879.118 677.992 0.
731.941 797.259 0.
151.652 -554.334 0.
352.91 -82.3711 0.
789.452 1002.7 0.
629.5 631.062 0.
245.449 -263.538 0.
308.436 -586.959 0.
522.172 -90.1306 0.
691.933 303.674 0.
489.683 401.745 0.
665.011 811.954 0.
297.909 495.876 0.
-10.451 -223.625 0.
-165.212 -584.636 0.
470.448 -306.567 0.
487.967 -272.335 0.
853.176 573.629 0.
548.988 938.681 0.
247.19 233.614 0.
265.839 276.618 0.
-108.545 -1295.77 0.
431.786 -27.6822 0.
260.041 -588.803 0.
352.896 -2.03984 0.
498.761 337.216 0.
293.207 49.7349 0.
71.468 -466.825 0.
176.6 -220.944 0.
1110.77 1510.8 0.
625.016 379.025 0.
572.307 256.578 0.
433.633 267.171 0.
392.412 168.624 0.
351.001 68.629 0.
415.814 341.074 0.
417.144 347.946 0.
400.362 274.932 0.
-8.92429 -677.152 0.
384.238 240.941 0.
375.459 94.2284 0.
623.367 676.856 0.
123.922 -484.528 0.
-115.058 249.572 0.
-275.986 -127.241 0.
-351.475 -306.88 0.
208.643 -319.549 0.
389.35 97.858 0.
-501.141 -617.714 0.
-334.772 -389.543 0.
-250.551 -191.558 0.
149.97 88.621 0.
77.1763 -76.9205 0.
4.38163 -242.46 0.
-123.288 -394.841 0.
-141.908 -440.19 0.
-160.528 -485.539 0.
57.7845 -328.109 0.
116.33 -193.955 0.
174.875 -59.7998 0.
329.46 -48.299 0.
292.095 -137.285 0.
157.614 -259.352 0.
140.295 -298.186 0.
122.976 -337.019 0.
242.561 -288.96 0.
276.712 -210.438 0.
310.862 -131.916 0.
518.743 -25.0871 0.
503.029 -55.3897 0.
487.314 -85.6921 0.
-33.8266 -252.398 0.
15.454 -143.115 0.
471.72 140.382 0.
635.044 121.656 0.
589.767 10.3941 0.
586.482 -70.1165 0.
563.552 -125.423 0.
540.623 -180.731 0.
167.538 -330.234 0.
218.22 -215.11 0.
268.902 -99.9859 0.
192.038 -30.8347 0.
246.014 91.4152 0.
299.991 213.665 0.
328.475 36.3099 0.
214.069 -231.045 0.
288.296 -390.417 0.
310.111 -338.974 0.
331.926 -287.531 0.
308.005 -250.008 0.
341.547 -172.595 0.
375.09 -95.1813 0.
618.381 16.6905 0.
593.761 -43.1064 0.
569.14 -102.903 0.
484.174 -233.195 0.
427.258 -366.848 0.
174.581 -584.81 0.
163.896 -319.467 0.
304.46 11.0162 0.
551.437 297.184 0.
469.501 113.849 0.
387.566 -69.4858 0.
284.403 -115.095 0.
382.331 109.688 0.
480.259 334.47 0.
771.803 404.17 0.
680.799 192.379 0.
589.794 -19.4128 0.
386.199 -92.3517 0.
403.422 -51.511 0.
105.54 -173.422 0.
0.0154611 -420.189 0.
-105.509 -666.955 0.
107.728 -607.424 0.
260.606 -254.899 0.
413.485 97.6268 0.
268.115 64.5818 0.
179.066 -140.264 0.
90.0168 -345.109 0.
348.704 -347.862 0.
293.907 -473.258 0.
170.204 -622.35 0.
89.2528 -452.529 0.
201.02 -198.716 0.
162.374 -47.3002 0.
179.845 -9.5788 0.
197.315 28.1423 0.
489.358 125.058 0.
440.828 10.5076 0.
392.298 -104.044 0.
246.57 -188.512 0.
258.895 -160.291 0.
271.219 -132.069 0.
228.78 -42.8503 0.
288.158 99.0701 0.
360.292 198.034 0.
214.795 -143.813 0.
69.2957 -485.66 0.
-74.5836 -588.068 0.
137.311 -92.8276 0.
349.205 402.413 0.
3.01195 198.417 0.
-208.708 -301.428 0.
-420.429 -801.275 0.
147.572 -228.499 0.
428.391 420.432 0.
-141.651 -428.014 0.
-387.305 -381.678 0.
-302.959 -183.38 0.
101.422 99.4768 0.
29.8875 -66.9955 0.
-41.6486 -233.466 0.
-116.094 -357.297 0.
-133.306 -403.409 0.
-150.52 -449.52 0.
-44.0047 -341.778 0.
14.2723 -207.71 0.
72.5499 -73.6418 0.
503.185 58.5951 0.
465.792 -31.0984 0.
80.2031 -260.04 0.
63.4009 -299.438 0.
46.5991 -338.837 0.
75.1961 -330.217 0.
109.252 -251.078 0.
143.307 -171.938 0.
627.505 52.164 0.
612.198 22.3269 0.
596.891 -7.51017 0.
-121.24 -259.662 0.
-72.1224 -150.111 0.
853.361 334.217 0.
778.86 215.319 0.
733.436 104.087 0.
398.766 -118.439 0.
375.491 -173.589 0.
352.216 -228.741 0.
293.664 -244.606 0.
343.77 -129.366 0.
393.876 -14.1258 0.
204.148 5.89529 0.
259.215 127.131 0.
314.283 248.366 0.
244.896 32.6161 0.
131.71 -235.636 0.
312.809 -347.407 0.
334.991 -296.371 0.
357.174 -245.335 0.
404.849 -174.207 0.
438.548 -96.8291 0.
472.247 -19.4507 0.
768.854 111.868 0.
744.344 52.1014 0.
719.833 -7.66517 0.
503.415 -193.632 0.
446.681 -327.417 0.
-311.196 -762.43 0.
-182.354 -436.207 0.
-41.7158 -105.872 0.
607.763 353.689 0.
525.996 170.346 0.
444.228 -12.9962 0.
273.369 -88.3694 0.
371.17 136.507 0.
468.971 361.383 0.
835.921 464.47 0.
744.25 253.367 0.
652.578 42.2632 0.
535.654 2.50341 0.
551.674 44.9275 0.
241.313 -86.2886 0.
134.586 -332.216 0.
27.8588 -578.143 0.
-163.012 -694.604 0.
-10.8537 -341.764 0.
141.305 11.0779 0.
394.954 148.481 0.
306.043 -56.2379 0.
217.133 -260.957 0.
424.198 -283.691 0.
370.189 -409.43 0.
822.089 -312.686 0.
22.942 -448.993 0.
135.069 -195.279 0.
70.747 -55.5925 0.
89.0007 -18.43 0.
107.254 18.7323 0.
471.435 149.536 0.
423.352 34.9483 0.
375.269 -79.6402 0.
271.276 -148.006 0.
283.718 -119.951 0.
296.16 -91.8959 0.
218.307 -14.6159 0.
278.283 126.582 0.
368.288 232.846 0.
222.093 -108.54 0.
75.8973 -449.925 0.
-249.304 -632.827 0.
-37.2542 -137.519 0.
174.795 357.788 0.
191.373 312.24 0.
-20.8183 -187.777 0.
-233.011 -687.795 0.
43.3731 -245.124 0.
323.49 403.413 0.
905.201 568.193 0.
-186.242 -53.3707 0.
-245.943 -192.131 0.
-47.879 -186.22 0.
-10.6078 -94.6438 0.
26.6628 -3.06858 0.
72.8786 57.6175 0.
69.7858 53.9161 0.
66.6926 50.215 0.
13.9072 -102.477 0.
-94.8861 -353.931 0.
-203.679 -605.384 0.
300.352 -319.176 0.
360.025 -175.928 0.
65.2739 -197.795 0.
59.7532 -210.536 0.
54.2337 -223.278 0.
32.6688 -245.821 0.
24.7629 -263.568 0.
16.8568 -281.316 0.
508.358 -60.7811 0.
523.81 -29.5254 0.
539.262 1.72929 0.
-12.4209 -337.109 0.
-90.4738 -517.988 0.
1135.07 -141.576 0.
488.248 -360.019 0.
521.739 -279.908 0.
173.83 -398.46 0.
125.985 -510.485 0.
78.1407 -622.51 0.
166.653 -548.139 0.
272.326 -306.124 0.
378 -64.1092 0.
167.148 -179.914 0.
89.8054 -358.331 0.
12.463 -536.747 0.
131.17 -446.406 0.
165.943 -365.48 0.
291.718 -252.247 0.
324.772 -171.203 0.
357.825 -90.1596 0.
443.999 -11.7138 0.
430.326 -37.3827 0.
416.652 -63.0516 0.
685.637 2.95491 0.
647.12 -83.9205 0.
608.602 -170.796 0.
497.916 -139.07 0.
562.252 12.3091 0.
-544.593 -338.399 0.
-52.1456 -145.887 0.
-60.6435 -166.599 0.
377.899 6.84196 0.
372.102 -7.19845 0.
366.305 -21.2388 0.
283.418 -156.608 0.
173.115 -411.162 0.
62.8127 -665.715 0.
502.321 -402.676 0.
617.217 -137.831 0.
732.113 127.016 0.
562.419 138.284 0.
598.538 219.164 0.
500.494 248.598 0.
555.586 373.325 0.
610.679 498.052 0.
136.226 278.737 0.
11.1903 -13.1956 0.
-113.846 -305.129 0.
332.499 -194.058 0.
358.968 -133.951 0.
385.438 -73.8432 0.
579.519 173.337 0.
680.742 417.14 0.
913.272 711.525 0.
342.038 354.465 0.
281.124 215.153 0.
77.4699 24.4026 0.
40.3568 -57.1821 0.
3.24461 -138.767 0.
312.551 -79.347 0.
266.839 -187.472 0.
221.127 -295.597 0.
186.794 -320.362 0.
204.777 -278.787 0.
222.761 -237.212 0.
173.993 -129.538 0.
249.345 44.635 0.
330.094 213.363 0.
363.793 293.495 0.
397.494 373.626 0.
-40.4325 159.616 0.
-144.485 -83.7085 0.
-248.539 -327.032 0.
15.6599 -199.685 0.
108.994 20.9841 0.
202.328 241.652 0.
35.3994 -88.5275 0.
-159.791 -543.394 0.
-382.938 47.9741 0.
49.2148 79.1641 0.
-10.0396 -59.8394 0.
-33.9497 -148.868 0.
4.0988 -57.0037 0.
42.1468 34.8605 0.
117.683 108.83 0.
115.455 105.042 0.
113.227 101.253 0.
26.1976 -67.8824 0.
-82.4131 -319.61 0.
-191.024 -571.337 0.
65.8293 -385.698 0.
126.519 -243.852 0.
67.7115 -166.159 0.
61.9073 -178.938 0.
56.1042 -191.717 0.
39.1345 -210.316 0.
31.3875 -228.123 0.
23.6405 -245.93 0.
285.571 -126.467 0.
300.283 -93.7827 0.
314.995 -61.0988 0.
426.816 -120.958 0.
348.957 -302.317 0.
304.031 -469.202 0.
281.799 -414.178 0.
315.087 -334.302 0.
131.59 -385.962 0.
83.0669 -497.904 0.
34.5444 -609.846 0.
91.6821 -548.11 0.
197.055 -306.146 0.
302.428 -64.1822 0.
300.355 -91.3372 0.
223.73 -270.65 0.
147.106 -449.961 0.
447.931 -279.051 0.
483.259 -198.361 0.
141.533 -283.978 0.
174.681 -203.124 0.
207.828 -122.269 0.
301.03 -40.9253 0.
287.127 -66.6928 0.
273.223 -92.46 0.
477.285 -57.6993 0.
438.829 -144.699 0.
400.373 -231.699 0.
432.203 -132.892 0.
497.468 17.9658 0.
65.4188 -45.0037 0.
325.027 47.7973 0.
316.288 27.8217 0.
187.093 -42.8099 0.
181.762 -57.3954 0.
176.43 -71.9808 0.
419.779 -63.7927 0.
310.812 -319.488 0.
201.846 -575.184 0.
571.217 -341.675 0.
686.471 -76.2356 0.
801.726 189.205 0.
388.237 95.6683 0.
425.206 176.177 0.
684.564 358.666 0.
739.899 483.606 0.
795.234 608.546 0.
142.51 315.066 0.
18.7245 21.9111 0.
-105.061 -271.245 0.
443.087 -114.389 0.
469.73 -54.6173 0.
496.373 5.15504 0.
439.878 145.85 0.
542.084 388.942 0.
-556.032 113.746 0.
390.756 407.735 0.
329.679 268.995 0.
115.711 72.554 0.
78.9268 -9.35519 0.
42.1439 -91.2646 0.
201.254 -96.2532 0.
156.235 -204.906 0.
111.217 -313.559 0.
178.996 -289.719 0.
197.758 -248.744 0.
216.519 -207.769 0.
224.382 -77.016 0.
299.65 97.1294 0.
289.707 229.648 0.
324.105 309.158 0.
358.504 388.668 0.
-153.941 140.591 0.
-258.314 -102.209 0.
-362.688 -345.007 0.
-21.5518 -183.902 0.
72.3075 36.3499 0.
166.167 256.601 0.
-29.5583 -84.5827 0.
-225.186 -539.628 0.
-417.072 -555.364 0.
-55.2402 -593.842 0.
94.4586 -243.936 0.
332.406 692.739 0.
-46.1346 -182.702 0.
283.203 593.511 0.
291.87 445.493 0.
-51.9148 -350.921 0.
134.188 88.2597 0.
124.255 175.519 0.
14.9678 -79.141 0.
69.284 47.7315 0.
349.294 738.875 0.
153.805 287.481 0.
-317.129 -1046.74 0.
324.755 450.006 0.
-16.4428 -346.452 0.
-105.287 -546.55 0.
-114.006 -564.183 0.
85.9187 -96.5147 0.
169.284 33.2037 0.
42.6482 -262.33 0.
-348.043 -1174.57 0.
698.865 -261.59 0.
647.908 -380.253 0.
-1040.51 -1017.64 0.
43.4784 -552.849 0.
299.165 51.0984 0.
419.464 402.121 0.
674.546 1001.71 0.
-50.546 -684.22 0.
-153.274 -949.508 0.
318.181 154.929 0.
129.98 -279.689 0.
656.404 505.787 0.
604.739 388.332 0.
829.128 914.923 0.
884.266 184.554 0.
1125.62 743.191 0.
282.982 363.805 0.
271.978 336.5 0.
92.948 -82.8132 0.
225.403 92.9917 0.
357.908 399.269 0.
58.5242 -301.92 0.
335.557 27.6477 0.
480.868 375.692 0.
567.542 587.192 0.
561.495 335.639 0.
603.912 429.224 0.
-1780.71 327.612 0.
636.617 93.3315 0.
363.231 -543.875 0.
-45.3832 -198.331 0.
32.0475 -17.8304 0.
109.951 163.307 0.
649.748 246.845 0.
830.595 674.238 0.
478.926 -140.531 0.
469.293 -676.259 0.
604.277 -355.799 0.
1105.41 819.058 0.
68.2061 -331.438 0.
74.9951 -309.157 0.
447.687 -497.65 0.
405.716 -597.681 0.
415.237 -577.26 0.
-228.059 -529.555 0.
-110.546 -254.493 0.
389.765 913.068 0.
536.074 -72.0701 0.
186.577 -892.447 0.
749.263 416.547 0.
490.981 587.595 0.
800.488 1311.93 0.
689.618 224.336 0.
249.042 -1.49527 0.
-131.219 -876.72 0.
193.207 183.972 0.
442.44 772.64 0.
-356.446 -1083.61 0.
251.775 256.48 0.
665.319 1223.9 0.
194.93 129.868 0.
19.4013 -613.619 0.
-50.4008 -777.929 0.
413.622 304.838 0.
240.273 -95.9236 0.
193.878 -204.478 0.
156.751 38.6964 0.
180.043 94.8039 0.
33.4859 -246.01 0.
-733.052 -986.341 0.
-182.622 296.103 0.
-609.883 -702.765 0.
-228.739 -573.713 0.
-96.2508 -266.967 0.
34.9598 38.4032 0.
186.914 571.825 0.
-53.2716 9.07865 0.
1317.75 384.211 0.
338.048 -32.0448 0.
287.24 -150.198 0.
-133.816 -387.653 0.
-110.827 -333.668 0.
-87.8376 -279.684 0.
-134.048 -212.533 0.
-57.8964 -34.987 0.
18.2529 142.561 0.
148.885 268.808 0.
161.634 301.095 0.
174.383 333.381 0.
0.764787 166.074 0.
-65.6423 21.6958 0.
314.513 86.8776 0.
351.68 175.526 0.
388.847 264.173 0.
401.104 328.688 0.
420.017 377.689 0.
438.931 426.69 0.
291.999 230.275 0.
142.311 -124.147 0.
-7.37856 -478.57 0.
285.075 -326.882 0.
351.895 -171.096 0.
619.566 72.1911 0.
319.077 120.675 0.
412.901 341.271 0.
339.747 419.376 0.
247.444 205.227 0.
155.142 -8.92053 0.
302.258 -126.107 0.
202.123 -350.56 0.
101.989 -575.013 0.
111.861 -559.687 0.
169.157 -423.365 0.
226.452 -287.043 0.
699.429 -60.833 0.
701.355 -55.4774 0.
142.019 -279.801 0.
210.103 -125.173 0.
278.188 29.4546 0.
353.26 129.746 0.
339.061 87.3658 0.
324.863 44.9856 0.
102.455 -91.8728 0.
74.3759 -159.988 0.
46.2955 -228.105 0.
444.458 77.4444 0.
545.269 310.672 0.
-843.866 -93.4741 0.
590.392 296.669 0.
473.369 20.9979 0.
196.626 -259.713 0.
220.522 -202.352 0.
244.417 -144.991 0.
126.318 -177.445 0.
117.617 -190.596 0.
108.918 -203.746 0.
808.717 208.202 0.
895.997 416.43 0.
983.276 624.657 0.
791.575 390.549 0.
689.163 155.208 0.
247.163 -220.387 0.
188.744 -358.287 0.
130.324 -496.187 0.
114.772 -545.161 0.
167.554 -420.311 0.
220.335 -295.462 0.
143.997 -192.874 0.
229.813 7.73713 0.
315.631 208.35 0.
329.25 64.0317 0.
202.33 -228.254 0.
-212.112 -635.202 0.
133.744 -235.566 0.
267.129 74.7214 0.
485.364 348.107 0.
449.535 265.378 0.
413.706 182.652 0.
265.721 56.8892 0.
242.036 9.18089 0.
218.351 -38.5268 0.
35.3286 -148.05 0.
19.0771 -183.79 0.
2.82568 -219.531 0.
10.7133 -192.955 0.
28.1466 -151.503 0.
-46.3363 -145.423 0.
7.28368 -16.3451 0.
60.9033 112.732 0.
-179.347 38.8783 0.
-242.226 -113.203 0.
-305.105 -265.285 0.
53.9171 -113.712 0.
102.68 0.959249 0.
151.443 115.63 0.
307.497 298.849 0.
371.138 449.6 0.
777.624 184.883 0.
543.935 87.1031 0.
493.572 -31.2166 0.
-120.514 -351.113 0.
-96.3701 -297.147 0.
-72.2265 -243.18 0.
-283.174 -242.903 0.
-204.719 -65.8716 0.
-126.267 111.162 0.
139.763 295.777 0.
152.747 328.471 0.
165.731 361.163 0.
-104.675 151.174 0.
-172.06 7.60297 0.
504.915 200.026 0.
542.052 288.694 0.
579.189 377.36 0.
573.481 430.462 0.
591.887 480.186 0.
610.294 529.91 0.
354.707 290.651 0.
206.798 -63.9515 0.
58.8881 -418.556 0.
-170.319 -490.063 0.
-103.135 -334.118 0.
223.667 -66.066 0.
320.286 151.765 0.
412.866 373.336 0.
256.846 412.347 0.
162.846 199.035 0.
68.8468 -14.2746 0.
435.955 -41.1103 0.
335.199 -265.461 0.
234.444 -489.811 0.
21.1809 -565.681 0.
78.8937 -430.472 0.
136.606 -295.265 0.
613.212 -62.8747 0.
616.536 -58.7319 0.
326.215 -170.436 0.
394.31 -15.5498 0.
462.405 139.337 0.
510.294 226.783 0.
495.243 185.096 0.
480.194 143.409 0.
-96.6524 -145.932 0.
-124.3 -213.611 0.
-151.949 -281.29 0.
459.332 119.438 0.
561.59 351.728 0.
-345.696 153.493 0.
446.362 266.269 0.
329.237 -9.0416 0.
539.103 -81.9612 0.
563.185 -24.5419 0.
587.267 32.8771 0.
-267.835 -313.505 0.
-276.005 -326.814 0.
-284.172 -340.123 0.
776.661 225.596 0.
862.842 435.085 0.
949.022 644.573 0.
1319.29 646.071 0.
1217.02 411.053 0.
-122.652 -347.411 0.
-180.707 -485.291 0.
-238.762 -623.172 0.
553.277 -322.628 0.
607.244 -198.336 0.
661.212 -74.0466 0.
-248.967 -327.766 0.
-163.551 -126.701 0.
-78.1313 74.3644 0.
416.618 131.068 0.
288.426 -160.092 0.
-352.609 -663.989 0.
132.704 -205.033 0.
265.297 105.815 0.
781.664 504.973 0.
745.858 422.561 0.
710.051 340.15 0.
400.904 145.387 0.
377.442 98.0158 0.
353.979 50.6447 0.
-174.324 -206.335 0.
-190.425 -241.856 0.
-206.526 -277.377 0.
-201.244 -252.454 0.
-183.882 -211.3 0.
-187.154 -175.016 0.
-133.641 -45.7803 0.
-80.1285 83.4557 0.
-21.1846 138.222 0.
-83.6246 -14.4246 0.
-146.065 -167.072 0.
171.266 -30.5472 0.
220.221 84.3543 0.
269.175 199.255 0.
617.665 460.454 0.
680.157 612.924 0.
