# vtk DataFile Version 2.0
test grain
ASCII
DATASET UNSTRUCTURED_GRID
POINTS 5000 float
0.499971 0.00100006 0.
0.501972 0.00100007 0.
0.503974 0.00100011 0.
0.505975 0.00100014 0.
0.507976 0.00100009 0.
0.509977 0.00100004 0.
0.511979 0.00100001 0.
0.51398 0.00100001 0.
0.515981 0.001 0.
0.517982 0.001 0.
0.519983 0.001 0.
0.521984 0.001 0.
0.523986 0.001 0.
0.525987 0.001 0.
0.527989 0.001 0.
0.52999 0.001 0.
0.531991 0.000999999 0.
0.533993 0.000999999 0.
0.535994 0.001 0.
0.537995 0.001 0.
0.539996 0.001 0.
0.541996 0.001 0.
0.543996 0.001 0.
0.545996 0.00100002 0.
0.547996 0.00100003 0.
0.549995 0.00100005 0.
0.551996 0.00100007 0.
0.553996 0.00100009 0.
0.555996 0.0010001 0.
0.557996 0.00100006 0.
0.559995 0.00100002 0.
0.561996 0.001 0.
0.563996 0.001 0.
0.565997 0.001 0.
0.567998 0.001 0.
0.569998 0.001 0.
0.571998 0.000999999 0.
0.573998 0.001 0.
0.575998 0.001 0.
0.577998 0.00100001 0.
0.579999 0.001 0.
0.581999 0.000999996 0.
0.584 0.001 0.
0.586 0.00100003 0.
0.588 0.00100006 0.
0.59 0.00100007 0.
0.592 0.00100006 0.
0.594001 0.00100005 0.
0.596001 0.00100005 0.
0.598001 0.00100006 0.
0.6 0.00100006 0.
0.602 0.00100005 0.
0.604 0.00100003 0.
0.605999 0.00100002 0.
0.608 0.00100003 0.
0.61 0.00100004 0.
0.612 0.00100004 0.
0.614 0.00100002 0.
0.615999 0.001 0.
0.618 0.000999998 0.
0.620001 0.001 0.
0.622002 0.001 0.
0.624002 0.001 0.
0.626002 0.001 0.
0.628002 0.000999999 0.
0.630003 0.000999999 0.
0.632004 0.000999999 0.
0.634004 0.001 0.
0.636005 0.001 0.
0.638005 0.001 0.
0.640005 0.001 0.
0.642005 0.000999999 0.
0.644005 0.000999999 0.
0.646005 0.000999999 0.
0.648005 0.001 0.
0.650005 0.001 0.
0.652005 0.001 0.
0.654005 0.001 0.
0.656006 0.001 0.
0.658007 0.00100001 0.
0.660007 0.00100001 0.
0.662008 0.00100001 0.
0.66401 0.001 0.
0.666011 0.001 0.
0.668012 0.001 0.
0.670013 0.001 0.
0.672014 0.000999999 0.
0.674015 0.000999999 0.
0.676016 0.001 0.
0.678017 0.001 0.
0.680019 0.000999998 0.
0.68202 0.000999997 0.
0.684021 0.001 0.
0.686022 0.00100001 0.
0.688023 0.00100002 0.
0.690024 0.00100002 0.
0.692025 0.00100001 0.
0.694027 0.00100001 0.
0.696028 0.000999937 0.
0.698029 0.000999849 0.
0.499971 0.00300017 0.
0.501972 0.00300021 0.
0.503974 0.00300034 0.
0.505975 0.00300041 0.
0.507976 0.00300027 0.
0.509978 0.00300013 0.
0.511979 0.00300004 0.
0.51398 0.00300002 0.
0.515981 0.00300001 0.
0.517982 0.003 0.
0.519983 0.003 0.
0.521984 0.003 0.
0.523986 0.003 0.
0.525987 0.003 0.
0.527989 0.003 0.
0.52999 0.003 0.
0.531991 0.003 0.
0.533992 0.003 0.
0.535994 0.003 0.
0.537995 0.003 0.
0.539995 0.003 0.
0.541995 0.00300001 0.
0.543996 0.00300001 0.
0.545996 0.00300005 0.
0.547996 0.0030001 0.
0.549996 0.00300015 0.
0.551996 0.00300021 0.
0.553995 0.00300027 0.
0.555995 0.0030003 0.
0.557995 0.00300018 0.
0.559995 0.00300007 0.
0.561996 0.00300001 0.
0.563997 0.00300001 0.
0.565997 0.00300001 0.
0.567998 0.00300001 0.
0.569998 0.003 0.
0.571999 0.003 0.
0.573998 0.003 0.
0.575998 0.00300001 0.
0.577998 0.00300002 0.
0.579999 0.003 0.
0.581999 0.00299999 0.
0.584 0.00300001 0.
0.586 0.00300009 0.
0.588 0.00300018 0.
0.59 0.0030002 0.
0.592 0.00300018 0.
0.594001 0.00300015 0.
0.596001 0.00300016 0.
0.598 0.00300017 0.
0.6 0.00300018 0.
0.602 0.00300014 0.
0.604 0.00300009 0.
0.606 0.00300006 0.
0.608 0.00300009 0.
0.61 0.00300011 0.
0.612 0.00300011 0.
0.614 0.00300006 0.
0.616 0.00300001 0.
0.618 0.00299999 0.
0.620001 0.003 0.
0.622002 0.00300001 0.
0.624002 0.003 0.
0.626002 0.003 0.
0.628002 0.003 0.
0.630003 0.003 0.
0.632004 0.003 0.
0.634004 0.003 0.
0.636005 0.003 0.
0.638005 0.003 0.
0.640006 0.003 0.
0.642006 0.003 0.
0.644006 0.003 0.
0.646006 0.003 0.
0.648006 0.003 0.
0.650006 0.003 0.
0.652005 0.003 0.
0.654005 0.00300001 0.
0.656006 0.00300001 0.
0.658007 0.00300002 0.
0.660008 0.00300002 0.
0.662009 0.00300002 0.
0.66401 0.00300001 0.
0.666011 0.00300001 0.
0.668012 0.003 0.
0.670013 0.003 0.
0.672014 0.003 0.
0.674015 0.003 0.
0.676016 0.003 0.
0.678017 0.003 0.
0.680018 0.003 0.
0.682019 0.00299999 0.
0.68402 0.003 0.
0.686021 0.00300003 0.
0.688022 0.00300006 0.
0.690023 0.00300006 0.
0.692025 0.00300004 0.
0.694026 0.00300002 0.
0.696027 0.00299981 0.
0.698028 0.00299955 0.
0.49997 0.00500027 0.
0.501972 0.00500035 0.
0.503974 0.00500056 0.
0.505975 0.00500069 0.
0.507977 0.00500045 0.
0.509978 0.00500022 0.
0.511979 0.00500007 0.
0.51398 0.00500004 0.
0.515981 0.00500001 0.
0.517982 0.005 0.
0.519983 0.005 0.
0.521984 0.00500001 0.
0.523986 0.00500001 0.
0.525987 0.00500001 0.
0.527989 0.00500001 0.
0.52999 0.005 0.
0.531991 0.005 0.
0.533992 0.005 0.
0.535993 0.005 0.
0.537994 0.00500001 0.
0.539995 0.00500001 0.
0.541995 0.00500001 0.
0.543996 0.00500001 0.
0.545996 0.00500008 0.
0.547996 0.00500016 0.
0.549996 0.00500024 0.
0.551996 0.00500034 0.
0.553995 0.00500044 0.
0.555995 0.00500049 0.
0.557995 0.00500031 0.
0.559995 0.00500012 0.
0.561996 0.00500002 0.
0.563997 0.00500002 0.
0.565997 0.00500002 0.
0.567998 0.00500001 0.
0.569998 0.005 0.
0.571999 0.005 0.
0.573998 0.005 0.
0.575998 0.00500002 0.
0.577998 0.00500003 0.
0.579999 0.005 0.
0.581999 0.00499998 0.
0.584 0.00500001 0.
0.586 0.00500015 0.
0.588 0.00500029 0.
0.59 0.00500033 0.
0.592 0.00500029 0.
0.594 0.00500026 0.
0.596 0.00500026 0.
0.598 0.00500029 0.
0.6 0.00500031 0.
0.602001 0.00500023 0.
0.604001 0.00500016 0.
0.606 0.00500011 0.
0.608 0.00500015 0.
0.61 0.00500019 0.
0.612 0.00500018 0.
0.614 0.00500009 0.
0.616 0.00500001 0.
0.618001 0.00499999 0.
0.620001 0.005 0.
0.622001 0.00500002 0.
0.624001 0.00500001 0.
0.626001 0.005 0.
0.628001 0.00499999 0.
0.630002 0.00499999 0.
0.632003 0.005 0.
0.634005 0.005 0.
0.636005 0.005 0.
0.638006 0.005 0.
0.640006 0.005 0.
0.642006 0.00499999 0.
0.644007 0.00499999 0.
0.646007 0.005 0.
0.648006 0.005 0.
0.650006 0.005 0.
0.652006 0.00500001 0.
0.654005 0.00500001 0.
0.656005 0.00500002 0.
0.658007 0.00500003 0.
0.660008 0.00500003 0.
0.662009 0.00500003 0.
0.664011 0.00500002 0.
0.666012 0.00500001 0.
0.668013 0.00500001 0.
0.670014 0.005 0.
0.672015 0.00499999 0.
0.674015 0.00499999 0.
0.676016 0.005 0.
0.678017 0.005 0.
0.680018 0.00499999 0.
0.682019 0.00499998 0.
0.68402 0.005 0.
0.686021 0.00500005 0.
0.688022 0.0050001 0.
0.690023 0.0050001 0.
0.692024 0.00500007 0.
0.694026 0.00500004 0.
0.696026 0.00499968 0.
0.698027 0.00499925 0.
0.499971 0.00700109 0.
0.501973 0.00700134 0.
0.503974 0.00700162 0.
0.505975 0.00700179 0.
0.507977 0.00700153 0.
0.509978 0.00700127 0.
0.511979 0.00700117 0.
0.51398 0.00700126 0.
0.515981 0.00700135 0.
0.517982 0.00700144 0.
0.519983 0.00700152 0.
0.521984 0.00700161 0.
0.523986 0.00700143 0.
0.525987 0.00700122 0.
0.527989 0.00700105 0.
0.52999 0.00700123 0.
0.531991 0.00700142 0.
0.533992 0.00700149 0.
0.535993 0.00700134 0.
0.537994 0.00700118 0.
0.539995 0.00700119 0.
0.541995 0.00700132 0.
0.543996 0.00700144 0.
0.545996 0.00700164 0.
0.547996 0.00700186 0.
0.549996 0.00700209 0.
0.551996 0.00700221 0.
0.553995 0.00700234 0.
0.555995 0.00700238 0.
0.557995 0.00700206 0.
0.559996 0.00700175 0.
0.561996 0.00700163 0.
0.563997 0.00700176 0.
0.565997 0.0070019 0.
0.567998 0.00700183 0.
0.569998 0.00700165 0.
0.571999 0.00700148 0.
0.573999 0.00700157 0.
0.575999 0.00700168 0.
0.577999 0.00700177 0.
0.579999 0.00700173 0.
0.582 0.00700169 0.
0.584 0.00700173 0.
0.586 0.0070019 0.
0.588 0.00700207 0.
0.59 0.00700216 0.
0.592 0.00700216 0.
0.594 0.00700217 0.
0.596 0.00700211 0.
0.598 0.00700202 0.
0.6 0.00700194 0.
0.602 0.00700198 0.
0.604 0.00700202 0.
0.606 0.00700204 0.
0.608 0.00700198 0.
0.61 0.00700192 0.
0.612 0.00700184 0.
0.614 0.00700173 0.
0.616001 0.00700161 0.
0.618001 0.00700156 0.
0.620001 0.00700155 0.
0.622002 0.00700154 0.
0.624002 0.00700139 0.
0.626002 0.00700122 0.
0.628002 0.00700109 0.
0.630003 0.00700119 0.
0.632004 0.0070013 0.
0.634004 0.00700143 0.
0.636005 0.0070016 0.
0.638005 0.00700176 0.
0.640006 0.00700182 0.
0.642006 0.00700179 0.
0.644006 0.00700175 0.
0.646006 0.00700173 0.
0.648005 0.00700171 0.
0.650005 0.00700169 0.
0.652005 0.00700156 0.
0.654005 0.00700143 0.
0.656006 0.00700137 0.
0.658007 0.00700153 0.
0.660008 0.00700169 0.
0.662009 0.00700168 0.
0.66401 0.00700147 0.
0.666012 0.00700126 0.
0.668013 0.00700113 0.
0.670014 0.00700103 0.
0.672015 0.00700094 0.
0.674015 0.00700108 0.
0.676016 0.00700125 0.
0.678017 0.00700138 0.
0.680018 0.00700125 0.
0.682019 0.00700112 0.
0.68402 0.00700102 0.
0.686021 0.00700096 0.
0.688022 0.00700091 0.
0.690023 0.00700093 0.
0.692024 0.007001 0.
0.694025 0.00700108 0.
0.696026 0.0070009 0.
0.698027 0.00700066 0.
0.499972 0.00900193 0.
0.501974 0.00900233 0.
0.503975 0.00900268 0.
0.505976 0.0090029 0.
0.507977 0.00900261 0.
0.509978 0.00900233 0.
0.511979 0.00900226 0.
0.51398 0.00900247 0.
0.515981 0.00900269 0.
0.517982 0.00900287 0.
0.519983 0.00900304 0.
0.521984 0.0090032 0.
0.523986 0.00900285 0.
0.525987 0.00900243 0.
0.527989 0.00900209 0.
0.52999 0.00900246 0.
0.531991 0.00900283 0.
0.533992 0.00900298 0.
0.535993 0.00900267 0.
0.537994 0.00900236 0.
0.539995 0.00900237 0.
0.541995 0.00900262 0.
0.543996 0.00900287 0.
0.545996 0.00900321 0.
0.547996 0.00900357 0.
0.549996 0.00900393 0.
0.551996 0.00900409 0.
0.553996 0.00900424 0.
0.555995 0.00900426 0.
0.557996 0.00900382 0.
0.559996 0.00900337 0.
0.561996 0.00900325 0.
0.563997 0.00900351 0.
0.565997 0.00900378 0.
0.567998 0.00900364 0.
0.569999 0.0090033 0.
0.571999 0.00900297 0.
0.573999 0.00900313 0.
0.575999 0.00900334 0.
0.577999 0.00900352 0.
0.579999 0.00900347 0.
0.582 0.00900341 0.
0.584 0.00900344 0.
0.586 0.00900365 0.
0.588 0.00900386 0.
0.59 0.00900398 0.
0.592 0.00900403 0.
0.594 0.00900408 0.
0.596 0.00900395 0.
0.598 0.00900376 0.
0.6 0.00900357 0.
0.602 0.00900373 0.
0.604 0.00900389 0.
0.606 0.00900398 0.
0.608 0.00900382 0.
0.61 0.00900366 0.
0.612 0.0090035 0.
0.614001 0.00900336 0.
0.616001 0.00900321 0.
0.618001 0.00900314 0.
0.620002 0.0090031 0.
0.622002 0.00900306 0.
0.624003 0.00900276 0.
0.626002 0.00900244 0.
0.628003 0.00900218 0.
0.630003 0.0090024 0.
0.632004 0.00900261 0.
0.634004 0.00900286 0.
0.636005 0.0090032 0.
0.638005 0.00900353 0.
0.640005 0.00900364 0.
0.642005 0.00900358 0.
0.644005 0.00900351 0.
0.646005 0.00900347 0.
0.648004 0.00900343 0.
0.650004 0.00900339 0.
0.652005 0.00900312 0.
0.654005 0.00900286 0.
0.656006 0.00900272 0.
0.658007 0.00900303 0.
0.660008 0.00900335 0.
0.662009 0.00900334 0.
0.66401 0.00900292 0.
0.666011 0.00900251 0.
0.668012 0.00900225 0.
0.670014 0.00900207 0.
0.672015 0.00900188 0.
0.674016 0.00900217 0.
0.676016 0.00900251 0.
0.678017 0.00900276 0.
0.680018 0.00900251 0.
0.682019 0.00900226 0.
0.68402 0.00900204 0.
0.68602 0.00900188 0.
0.688021 0.00900172 0.
0.690022 0.00900175 0.
0.692024 0.00900193 0.
0.694025 0.00900211 0.
0.696026 0.00900212 0.
0.698027 0.00900207 0.
0.499973 0.0110026 0.
0.501974 0.011003 0.
0.503975 0.0110032 0.
0.505976 0.0110034 0.
0.507977 0.0110032 0.
0.509978 0.011003 0.
0.511979 0.011003 0.
0.51398 0.0110031 0.
0.515981 0.0110033 0.
0.517982 0.0110034 0.
0.519983 0.0110034 0.
0.521984 0.0110035 0.
0.523986 0.0110032 0.
0.525987 0.0110027 0.
0.527989 0.0110024 0.
0.52999 0.0110028 0.
0.531991 0.0110032 0.
0.533992 0.0110034 0.
0.535993 0.0110031 0.
0.537994 0.0110028 0.
0.539995 0.0110028 0.
0.541996 0.0110031 0.
0.543996 0.0110034 0.
0.545996 0.0110038 0.
0.547996 0.0110042 0.
0.549996 0.0110046 0.
0.551996 0.0110049 0.
0.553996 0.0110052 0.
0.555996 0.0110053 0.
0.557996 0.0110048 0.
0.559996 0.0110042 0.
0.561996 0.011004 0.
0.563997 0.0110043 0.
0.565998 0.0110046 0.
0.567998 0.0110044 0.
0.569999 0.0110039 0.
0.572 0.0110034 0.
0.574 0.0110036 0.
0.575999 0.011004 0.
0.577999 0.0110043 0.
0.58 0.0110042 0.
0.582 0.0110042 0.
0.584 0.0110042 0.
0.586 0.0110045 0.
0.588 0.0110048 0.
0.59 0.0110049 0.
0.592 0.011005 0.
0.594 0.011005 0.
0.596 0.0110048 0.
0.598 0.0110045 0.
0.6 0.0110042 0.
0.602 0.0110044 0.
0.604 0.0110046 0.
0.606 0.0110047 0.
0.608 0.0110044 0.
0.61 0.0110042 0.
0.612001 0.0110041 0.
0.614001 0.011004 0.
0.616001 0.0110039 0.
0.618002 0.0110039 0.
0.620002 0.0110038 0.
0.622003 0.0110037 0.
0.624003 0.0110033 0.
0.626003 0.0110029 0.
0.628003 0.0110026 0.
0.630003 0.0110028 0.
0.632004 0.0110031 0.
0.634004 0.0110034 0.
0.636004 0.0110038 0.
0.638005 0.0110042 0.
0.640005 0.0110043 0.
0.642005 0.0110043 0.
0.644004 0.0110043 0.
0.646004 0.0110042 0.
0.648004 0.011004 0.
0.650004 0.0110038 0.
0.652004 0.0110035 0.
0.654005 0.0110032 0.
0.656006 0.011003 0.
0.658007 0.0110034 0.
0.660008 0.0110038 0.
0.662009 0.0110038 0.
0.66401 0.0110034 0.
0.666011 0.0110029 0.
0.668012 0.0110026 0.
0.670014 0.0110023 0.
0.672015 0.011002 0.
0.674016 0.0110025 0.
0.676016 0.011003 0.
0.678017 0.0110034 0.
0.680018 0.011003 0.
0.682019 0.0110027 0.
0.68402 0.0110024 0.
0.68602 0.0110023 0.
0.688021 0.0110021 0.
0.690022 0.0110021 0.
0.692023 0.0110022 0.
0.694025 0.0110024 0.
0.696026 0.0110026 0.
0.698027 0.0110028 0.
0.499973 0.013003 0.
0.501974 0.0130032 0.
0.503975 0.0130032 0.
0.505976 0.0130033 0.
0.507977 0.0130033 0.
0.509978 0.0130034 0.
0.511979 0.0130034 0.
0.51398 0.0130032 0.
0.515981 0.0130031 0.
0.517982 0.0130029 0.
0.519984 0.0130027 0.
0.521985 0.0130026 0.
0.523986 0.0130023 0.
0.525988 0.0130021 0.
0.527989 0.0130019 0.
0.52999 0.0130023 0.
0.531991 0.0130027 0.
0.533992 0.0130029 0.
0.535993 0.0130027 0.
0.537994 0.0130025 0.
0.539995 0.0130026 0.
0.541996 0.0130028 0.
0.543997 0.0130031 0.
0.545997 0.0130034 0.
0.547997 0.0130038 0.
0.549997 0.0130042 0.
0.551997 0.0130048 0.
0.553997 0.0130053 0.
0.555997 0.0130056 0.
0.557997 0.0130049 0.
0.559997 0.0130042 0.
0.561997 0.0130039 0.
0.563998 0.0130041 0.
0.565998 0.0130044 0.
0.567999 0.013004 0.
0.57 0.0130034 0.
0.572001 0.0130027 0.
0.574 0.0130031 0.
0.576 0.0130036 0.
0.578 0.013004 0.
0.58 0.013004 0.
0.582 0.0130039 0.
0.584 0.013004 0.
0.586 0.0130045 0.
0.588 0.0130049 0.
0.59 0.0130051 0.
0.592 0.013005 0.
0.594 0.0130049 0.
0.596 0.0130046 0.
0.598 0.0130041 0.
0.6 0.0130037 0.
0.602 0.0130039 0.
0.604 0.013004 0.
0.606 0.0130041 0.
0.608 0.0130038 0.
0.610001 0.0130036 0.
0.612001 0.0130035 0.
0.614001 0.0130037 0.
0.616001 0.0130038 0.
0.618001 0.0130038 0.
0.620002 0.0130037 0.
0.622002 0.0130036 0.
0.624002 0.0130031 0.
0.626002 0.0130026 0.
0.628002 0.0130022 0.
0.630002 0.0130025 0.
0.632003 0.0130028 0.
0.634003 0.0130031 0.
0.636004 0.0130034 0.
0.638004 0.0130037 0.
0.640004 0.0130039 0.
0.642004 0.013004 0.
0.644004 0.0130042 0.
0.646004 0.0130039 0.
0.648004 0.0130034 0.
0.650004 0.013003 0.
0.652005 0.0130027 0.
0.654005 0.0130024 0.
0.656006 0.0130023 0.
0.658007 0.0130027 0.
0.660008 0.0130031 0.
0.662008 0.0130032 0.
0.66401 0.0130029 0.
0.666011 0.0130026 0.
0.668012 0.0130022 0.
0.670014 0.0130018 0.
0.672015 0.0130014 0.
0.674015 0.013002 0.
0.676016 0.0130027 0.
0.678017 0.0130032 0.
0.680017 0.0130029 0.
0.682018 0.0130025 0.
0.684019 0.0130022 0.
0.68602 0.0130021 0.
0.688021 0.0130019 0.
0.690022 0.0130019 0.
0.692023 0.0130019 0.
0.694024 0.0130019 0.
0.696025 0.0130023 0.
0.698026 0.0130027 0.
0.499974 0.0150034 0.
0.501975 0.0150034 0.
0.503976 0.0150032 0.
0.505977 0.0150032 0.
0.507978 0.0150035 0.
0.509978 0.0150037 0.
0.511979 0.0150037 0.
0.51398 0.0150033 0.
0.515981 0.0150029 0.
0.517983 0.0150025 0.
0.519984 0.015002 0.
0.521985 0.0150016 0.
0.523987 0.0150015 0.
0.525988 0.0150014 0.
0.527989 0.0150014 0.
0.52999 0.0150017 0.
0.531991 0.0150021 0.
0.533992 0.0150023 0.
0.535993 0.0150022 0.
0.537995 0.0150022 0.
0.539996 0.0150023 0.
0.541996 0.0150025 0.
0.543997 0.0150027 0.
0.545997 0.015003 0.
0.547998 0.0150034 0.
0.549998 0.0150038 0.
0.551998 0.0150046 0.
0.553998 0.0150054 0.
0.555997 0.0150059 0.
0.557997 0.015005 0.
0.559998 0.0150042 0.
0.561998 0.0150038 0.
0.563998 0.015004 0.
0.565999 0.0150041 0.
0.568 0.0150036 0.
0.57 0.0150029 0.
0.572001 0.0150021 0.
0.574001 0.0150026 0.
0.576 0.0150032 0.
0.578 0.0150038 0.
0.58 0.0150037 0.
0.582 0.0150037 0.
0.584 0.0150039 0.
0.586 0.0150044 0.
0.588 0.015005 0.
0.59 0.0150052 0.
0.592 0.015005 0.
0.594 0.0150048 0.
0.596 0.0150044 0.
0.598 0.0150038 0.
0.6 0.0150032 0.
0.602 0.0150034 0.
0.603999 0.0150035 0.
0.605999 0.0150035 0.
0.608 0.0150032 0.
0.610001 0.0150029 0.
0.612001 0.0150029 0.
0.614001 0.0150033 0.
0.616001 0.0150037 0.
0.618001 0.0150037 0.
0.620002 0.0150036 0.
0.622002 0.0150034 0.
0.624002 0.0150029 0.
0.626001 0.0150023 0.
0.628001 0.0150018 0.
0.630002 0.0150022 0.
0.632002 0.0150025 0.
0.634003 0.0150028 0.
0.636003 0.015003 0.
0.638003 0.0150032 0.
0.640003 0.0150035 0.
0.642003 0.0150038 0.
0.644003 0.0150041 0.
0.646004 0.0150036 0.
0.648005 0.0150028 0.
0.650005 0.0150021 0.
0.652005 0.0150019 0.
0.654006 0.0150017 0.
0.656006 0.0150016 0.
0.658007 0.015002 0.
0.660007 0.0150024 0.
0.662008 0.0150026 0.
0.664009 0.0150024 0.
0.666011 0.0150022 0.
0.668012 0.0150018 0.
0.670013 0.0150013 0.
0.672015 0.0150008 0.
0.674015 0.0150015 0.
0.676016 0.0150023 0.
0.678016 0.015003 0.
0.680017 0.0150027 0.
0.682018 0.0150023 0.
0.684019 0.015002 0.
0.68602 0.0150019 0.
0.688021 0.0150018 0.
0.690022 0.0150017 0.
0.692023 0.0150016 0.
0.694023 0.0150015 0.
0.696025 0.015002 0.
0.698026 0.0150027 0.
0.499974 0.0170041 0.
0.501975 0.0170041 0.
0.503976 0.0170038 0.
0.505977 0.0170035 0.
0.507978 0.0170037 0.
0.509979 0.0170038 0.
0.51198 0.0170037 0.
0.513981 0.0170033 0.
0.515982 0.0170029 0.
0.517983 0.0170026 0.
0.519984 0.0170024 0.
0.521985 0.0170021 0.
0.523987 0.0170019 0.
0.525988 0.0170017 0.
0.527989 0.0170015 0.
0.52999 0.017002 0.
0.531991 0.0170024 0.
0.533992 0.0170026 0.
0.535994 0.0170023 0.
0.537995 0.0170021 0.
0.539996 0.0170022 0.
0.541997 0.0170026 0.
0.543997 0.017003 0.
0.545998 0.0170035 0.
0.547998 0.0170041 0.
0.549998 0.0170046 0.
0.551998 0.0170053 0.
0.553998 0.017006 0.
0.555998 0.0170063 0.
0.557998 0.0170057 0.
0.559998 0.0170051 0.
0.561998 0.0170046 0.
0.563999 0.0170044 0.
0.565999 0.0170042 0.
0.568 0.017004 0.
0.57 0.0170038 0.
0.572001 0.0170035 0.
0.574001 0.0170036 0.
0.576 0.0170037 0.
0.578 0.0170038 0.
0.58 0.0170043 0.
0.582 0.0170047 0.
0.584 0.0170051 0.
0.586 0.0170053 0.
0.587999 0.0170054 0.
0.589999 0.0170055 0.
0.591999 0.0170055 0.
0.593999 0.0170055 0.
0.596 0.0170052 0.
0.598 0.0170047 0.
0.6 0.0170042 0.
0.602 0.0170043 0.
0.604 0.0170044 0.
0.606 0.0170044 0.
0.608 0.0170041 0.
0.610001 0.0170038 0.
0.612001 0.0170037 0.
0.614001 0.0170038 0.
0.616001 0.017004 0.
0.618001 0.0170037 0.
0.620002 0.0170033 0.
0.622002 0.0170029 0.
0.624002 0.017003 0.
0.626001 0.0170031 0.
0.628001 0.0170032 0.
0.630001 0.0170032 0.
0.632002 0.0170032 0.
0.634002 0.0170032 0.
0.636002 0.0170035 0.
0.638002 0.0170038 0.
0.640002 0.017004 0.
0.642003 0.0170042 0.
0.644003 0.0170043 0.
0.646004 0.0170041 0.
0.648004 0.0170037 0.
0.650005 0.0170034 0.
0.652005 0.017003 0.
0.654005 0.0170027 0.
0.656006 0.0170024 0.
0.658006 0.0170023 0.
0.660007 0.0170023 0.
0.662008 0.0170023 0.
0.664009 0.0170025 0.
0.666011 0.0170026 0.
0.668012 0.0170026 0.
0.670013 0.0170023 0.
0.672014 0.0170021 0.
0.674015 0.0170023 0.
0.676015 0.0170025 0.
0.678016 0.0170026 0.
0.680017 0.0170024 0.
0.682018 0.0170022 0.
0.684019 0.017002 0.
0.68602 0.0170019 0.
0.68802 0.0170017 0.
0.690021 0.0170018 0.
0.692022 0.017002 0.
0.694023 0.0170022 0.
0.696024 0.0170026 0.
0.698026 0.0170031 0.
0.499974 0.0190049 0.
0.501975 0.0190048 0.
0.503976 0.0190043 0.
0.505977 0.0190039 0.
0.507979 0.0190039 0.
0.50998 0.0190038 0.
0.511981 0.0190036 0.
0.513982 0.0190033 0.
0.515982 0.019003 0.
0.517983 0.0190028 0.
0.519984 0.0190027 0.
0.521985 0.0190026 0.
0.523987 0.0190023 0.
0.525988 0.019002 0.
0.527989 0.0190017 0.
0.52999 0.0190022 0.
0.531992 0.0190027 0.
0.533993 0.0190029 0.
0.535994 0.0190024 0.
0.537995 0.019002 0.
0.539996 0.0190021 0.
0.541997 0.0190027 0.
0.543998 0.0190034 0.
0.545998 0.019004 0.
0.547998 0.0190047 0.
0.549998 0.0190054 0.
0.551998 0.019006 0.
0.553998 0.0190065 0.
0.555998 0.0190068 0.
0.557999 0.0190063 0.
0.559999 0.0190059 0.
0.561999 0.0190054 0.
0.563999 0.0190048 0.
0.565999 0.0190042 0.
0.568 0.0190043 0.
0.57 0.0190046 0.
0.572001 0.019005 0.
0.574 0.0190046 0.
0.576 0.0190042 0.
0.578 0.0190038 0.
0.58 0.0190048 0.
0.582 0.0190058 0.
0.583999 0.0190063 0.
0.585999 0.0190061 0.
0.587999 0.0190059 0.
0.589999 0.0190059 0.
0.591999 0.0190061 0.
0.593999 0.0190062 0.
0.595999 0.0190059 0.
0.598 0.0190055 0.
0.6 0.0190051 0.
0.602 0.0190052 0.
0.604 0.0190053 0.
0.606 0.0190053 0.
0.608 0.019005 0.
0.61 0.0190047 0.
0.612001 0.0190044 0.
0.614001 0.0190043 0.
0.616001 0.0190042 0.
0.618001 0.0190037 0.
0.620001 0.0190031 0.
0.622002 0.0190024 0.
0.624001 0.019003 0.
0.626001 0.0190038 0.
0.628 0.0190045 0.
0.63 0.0190041 0.
0.632001 0.0190038 0.
0.634001 0.0190037 0.
0.636001 0.019004 0.
0.638001 0.0190044 0.
0.640002 0.0190046 0.
0.642002 0.0190046 0.
0.644003 0.0190045 0.
0.646004 0.0190046 0.
0.648004 0.0190046 0.
0.650005 0.0190046 0.
0.652005 0.0190042 0.
0.654005 0.0190037 0.
0.656005 0.0190032 0.
0.658006 0.0190027 0.
0.660007 0.0190021 0.
0.662008 0.019002 0.
0.664009 0.0190026 0.
0.66601 0.0190031 0.
0.668012 0.0190033 0.
0.670012 0.0190034 0.
0.672013 0.0190035 0.
0.674014 0.0190031 0.
0.676015 0.0190026 0.
0.678016 0.0190022 0.
0.680017 0.0190022 0.
0.682018 0.0190021 0.
0.684019 0.019002 0.
0.686019 0.0190018 0.
0.68802 0.0190017 0.
0.690021 0.0190019 0.
0.692022 0.0190023 0.
0.694023 0.0190028 0.
0.696024 0.0190032 0.
0.698025 0.0190035 0.
0.499974 0.0210053 0.
0.501976 0.0210051 0.
0.503977 0.0210045 0.
0.505978 0.021004 0.
0.507979 0.0210038 0.
0.50998 0.0210037 0.
0.511981 0.0210035 0.
0.513982 0.0210032 0.
0.515983 0.0210028 0.
0.517984 0.0210027 0.
0.519985 0.0210026 0.
0.521986 0.0210025 0.
0.523987 0.0210022 0.
0.525988 0.0210019 0.
0.527989 0.0210017 0.
0.529991 0.021002 0.
0.531992 0.0210023 0.
0.533994 0.0210024 0.
0.535995 0.021002 0.
0.537996 0.0210016 0.
0.539996 0.0210019 0.
0.541997 0.0210026 0.
0.543998 0.0210033 0.
0.545998 0.0210041 0.
0.547998 0.0210049 0.
0.549998 0.0210058 0.
0.551999 0.0210061 0.
0.553999 0.0210065 0.
0.555999 0.0210067 0.
0.557999 0.0210064 0.
0.559999 0.0210061 0.
0.561999 0.0210056 0.
0.563999 0.0210049 0.
0.565999 0.0210041 0.
0.568 0.0210042 0.
0.57 0.0210047 0.
0.572001 0.0210053 0.
0.574 0.0210048 0.
0.576 0.0210043 0.
0.577999 0.0210039 0.
0.579999 0.021005 0.
0.581999 0.021006 0.
0.583999 0.0210066 0.
0.585999 0.0210063 0.
0.587999 0.0210059 0.
0.589999 0.0210059 0.
0.591999 0.0210063 0.
0.593999 0.0210066 0.
0.595999 0.0210063 0.
0.598 0.0210058 0.
0.6 0.0210054 0.
0.602 0.0210055 0.
0.604 0.0210055 0.
0.606 0.0210056 0.
0.608 0.0210054 0.
0.61 0.0210052 0.
0.612 0.0210049 0.
0.614 0.0210046 0.
0.616001 0.0210043 0.
0.618001 0.0210038 0.
0.620001 0.021003 0.
0.622002 0.0210023 0.
0.624001 0.0210031 0.
0.626001 0.0210041 0.
0.628 0.0210049 0.
0.63 0.0210044 0.
0.632 0.021004 0.
0.634001 0.0210038 0.
0.636001 0.0210042 0.
0.638001 0.0210046 0.
0.640001 0.0210047 0.
0.642002 0.0210046 0.
0.644003 0.0210046 0.
0.646003 0.0210046 0.
0.648004 0.0210046 0.
0.650004 0.0210047 0.
0.652004 0.0210042 0.
0.654005 0.0210038 0.
0.656005 0.0210033 0.
0.658006 0.0210026 0.
0.660007 0.0210019 0.
0.662008 0.0210017 0.
0.664009 0.0210023 0.
0.66601 0.0210029 0.
0.668011 0.0210032 0.
0.670012 0.0210034 0.
0.672013 0.0210037 0.
0.674014 0.0210031 0.
0.676015 0.0210024 0.
0.678016 0.0210019 0.
0.680017 0.0210019 0.
0.682018 0.0210019 0.
0.684019 0.0210018 0.
0.686019 0.0210016 0.
0.688019 0.0210014 0.
0.69002 0.0210017 0.
0.692021 0.0210022 0.
0.694023 0.0210027 0.
0.696024 0.0210031 0.
0.698025 0.0210033 0.
0.499975 0.0230054 0.
0.501976 0.023005 0.
0.503978 0.0230043 0.
0.505979 0.0230037 0.
0.50798 0.0230036 0.
0.509981 0.0230035 0.
0.511982 0.0230033 0.
0.513983 0.0230029 0.
0.515983 0.0230025 0.
0.517984 0.0230022 0.
0.519985 0.023002 0.
0.521987 0.0230017 0.
0.523988 0.0230017 0.
0.525989 0.0230016 0.
0.52799 0.0230015 0.
0.529992 0.0230014 0.
0.531993 0.0230012 0.
0.533994 0.0230011 0.
0.535995 0.023001 0.
0.537996 0.023001 0.
0.539996 0.0230014 0.
0.541997 0.0230022 0.
0.543998 0.0230029 0.
0.545998 0.0230038 0.
0.547999 0.0230047 0.
0.549999 0.0230056 0.
0.551999 0.0230058 0.
0.553999 0.0230061 0.
0.555999 0.0230062 0.
0.557999 0.0230058 0.
0.559999 0.0230055 0.
0.561999 0.0230051 0.
0.563999 0.0230045 0.
0.565999 0.0230039 0.
0.568 0.0230038 0.
0.57 0.023004 0.
0.572 0.0230043 0.
0.574 0.0230042 0.
0.575999 0.0230041 0.
0.577999 0.0230041 0.
0.579999 0.0230048 0.
0.581999 0.0230055 0.
0.583999 0.0230059 0.
0.585999 0.0230057 0.
0.587999 0.0230055 0.
0.589999 0.0230057 0.
0.591999 0.0230061 0.
0.593999 0.0230065 0.
0.595999 0.0230062 0.
0.598 0.0230055 0.
0.6 0.0230049 0.
0.602 0.0230051 0.
0.604 0.0230052 0.
0.606 0.0230053 0.
0.608 0.0230053 0.
0.61 0.0230054 0.
0.612 0.0230052 0.
0.614 0.0230047 0.
0.616 0.0230043 0.
0.618001 0.0230038 0.
0.620001 0.0230032 0.
0.622001 0.0230027 0.
0.624001 0.0230032 0.
0.626 0.0230038 0.
0.628 0.0230043 0.
0.63 0.0230041 0.
0.632 0.0230038 0.
0.634 0.0230037 0.
0.636001 0.023004 0.
0.638001 0.0230042 0.
0.640002 0.0230044 0.
0.642002 0.0230044 0.
0.644003 0.0230044 0.
0.646003 0.0230042 0.
0.648003 0.0230039 0.
0.650003 0.0230036 0.
0.652004 0.0230033 0.
0.654004 0.0230029 0.
0.656005 0.0230025 0.
0.658006 0.023002 0.
0.660007 0.0230015 0.
0.662008 0.0230014 0.
0.664008 0.0230017 0.
0.666009 0.023002 0.
0.66801 0.0230022 0.
0.670012 0.0230024 0.
0.672013 0.0230027 0.
0.674014 0.0230023 0.
0.676015 0.0230019 0.
0.678016 0.0230016 0.
0.680017 0.0230015 0.
0.682018 0.0230014 0.
0.684018 0.0230013 0.
0.686019 0.0230012 0.
0.688019 0.0230011 0.
0.69002 0.0230013 0.
0.692021 0.0230015 0.
0.694022 0.0230018 0.
0.696023 0.0230022 0.
0.698024 0.0230026 0.
0.499976 0.0250054 0.
0.501977 0.0250049 0.
0.503978 0.0250041 0.
0.50598 0.0250034 0.
0.50798 0.0250034 0.
0.509981 0.0250034 0.
0.511982 0.0250031 0.
0.513983 0.0250026 0.
0.515984 0.0250021 0.
0.517985 0.0250017 0.
0.519986 0.0250013 0.
0.521987 0.025001 0.
0.523989 0.0250011 0.
0.52599 0.0250013 0.
0.527991 0.0250013 0.
0.529992 0.0250007 0.
0.531993 0.0250001 0.
0.533994 0.0249998 0.
0.535995 0.0250001 0.
0.537996 0.0250003 0.
0.539997 0.0250009 0.
0.541997 0.0250017 0.
0.543998 0.0250026 0.
0.545998 0.0250035 0.
0.547999 0.0250044 0.
0.549999 0.0250054 0.
0.551999 0.0250055 0.
0.553999 0.0250056 0.
0.555999 0.0250056 0.
0.557999 0.0250053 0.
0.559999 0.0250049 0.
0.561999 0.0250046 0.
0.563999 0.0250041 0.
0.566 0.0250037 0.
0.568 0.0250035 0.
0.57 0.0250034 0.
0.572 0.0250033 0.
0.573999 0.0250035 0.
0.575999 0.0250039 0.
0.577998 0.0250042 0.
0.579999 0.0250046 0.
0.581999 0.025005 0.
0.584 0.0250053 0.
0.585999 0.0250052 0.
0.587999 0.0250051 0.
0.589999 0.0250054 0.
0.591999 0.025006 0.
0.593999 0.0250065 0.
0.595999 0.025006 0.
0.598 0.0250053 0.
0.600001 0.0250045 0.
0.602 0.0250047 0.
0.604 0.0250048 0.
0.606 0.0250049 0.
0.608 0.0250052 0.
0.61 0.0250055 0.
0.612 0.0250054 0.
0.614 0.0250048 0.
0.616 0.0250042 0.
0.618 0.0250038 0.
0.620001 0.0250034 0.
0.622001 0.025003 0.
0.624001 0.0250033 0.
0.626 0.0250035 0.
0.628 0.0250038 0.
0.63 0.0250037 0.
0.632 0.0250036 0.
0.634 0.0250036 0.
0.636001 0.0250038 0.
0.638001 0.0250039 0.
0.640002 0.025004 0.
0.642002 0.0250041 0.
0.644002 0.0250042 0.
0.646002 0.0250038 0.
0.648003 0.0250032 0.
0.650003 0.0250026 0.
0.652003 0.0250023 0.
0.654004 0.0250021 0.
0.656005 0.0250018 0.
0.658006 0.0250015 0.
0.660007 0.0250012 0.
0.662008 0.025001 0.
0.664008 0.025001 0.
0.666009 0.0250011 0.
0.66801 0.0250012 0.
0.670011 0.0250015 0.
0.672012 0.0250017 0.
0.674013 0.0250016 0.
0.676015 0.0250014 0.
0.678016 0.0250013 0.
0.680017 0.0250011 0.
0.682017 0.025001 0.
0.684018 0.0250008 0.
0.686018 0.0250008 0.
0.688019 0.0250008 0.
0.690019 0.0250009 0.
0.69202 0.0250009 0.
0.694021 0.0250009 0.
0.696022 0.0250014 0.
0.698023 0.0250019 0.
0.499976 0.0270059 0.
0.501978 0.0270052 0.
0.503979 0.0270043 0.
0.50598 0.0270035 0.
0.507981 0.0270034 0.
0.509982 0.0270032 0.
0.511983 0.0270029 0.
0.513984 0.0270023 0.
0.515985 0.0270017 0.
0.517986 0.0270012 0.
0.519987 0.0270008 0.
0.521988 0.0270004 0.
0.523989 0.0270007 0.
0.52599 0.027001 0.
0.527992 0.0270012 0.
0.529993 0.0270007 0.
0.531994 0.0270001 0.
0.533995 0.0269999 0.
0.535996 0.0270002 0.
0.537996 0.0270005 0.
0.539997 0.027001 0.
0.541998 0.0270018 0.
0.543998 0.0270026 0.
0.545998 0.0270035 0.
0.547999 0.0270044 0.
0.549999 0.0270053 0.
0.551999 0.0270053 0.
0.553999 0.0270053 0.
0.555999 0.0270053 0.
0.557999 0.0270049 0.
0.56 0.0270044 0.
0.562 0.0270041 0.
0.564 0.027004 0.
0.566 0.0270039 0.
0.568 0.0270037 0.
0.570001 0.0270036 0.
0.572001 0.0270034 0.
0.574 0.0270037 0.
0.575999 0.027004 0.
0.577999 0.0270044 0.
0.579999 0.0270048 0.
0.582 0.0270051 0.
0.584 0.0270054 0.
0.586 0.0270054 0.
0.587999 0.0270053 0.
0.589999 0.0270055 0.
0.591999 0.0270057 0.
0.593999 0.0270059 0.
0.596 0.0270056 0.
0.598 0.027005 0.
0.600001 0.0270045 0.
0.602 0.0270047 0.
0.604 0.0270048 0.
0.606 0.027005 0.
0.608 0.027005 0.
0.61 0.0270049 0.
0.612 0.0270047 0.
0.614 0.0270044 0.
0.616 0.027004 0.
0.618 0.0270037 0.
0.62 0.0270035 0.
0.622 0.0270032 0.
0.624 0.0270033 0.
0.626 0.0270035 0.
0.627999 0.0270037 0.
0.63 0.0270036 0.
0.632 0.0270035 0.
0.634 0.0270034 0.
0.636 0.0270036 0.
0.638001 0.0270038 0.
0.640001 0.0270039 0.
0.642001 0.0270038 0.
0.644002 0.0270038 0.
0.646002 0.0270034 0.
0.648002 0.0270028 0.
0.650002 0.0270022 0.
0.652003 0.0270021 0.
0.654003 0.027002 0.
0.656004 0.0270018 0.
0.658005 0.0270012 0.
0.660006 0.0270007 0.
0.662007 0.0270004 0.
0.664007 0.0270006 0.
0.666008 0.0270008 0.
0.668009 0.0270009 0.
0.67001 0.0270011 0.
0.672012 0.0270013 0.
0.674013 0.0270012 0.
0.676014 0.027001 0.
0.678015 0.0270009 0.
0.680015 0.0270008 0.
0.682016 0.0270008 0.
0.684017 0.0270007 0.
0.686018 0.0270008 0.
0.688018 0.0270009 0.
0.690019 0.027001 0.
0.69202 0.0270012 0.
0.694021 0.0270014 0.
0.696022 0.0270022 0.
0.698023 0.0270031 0.
0.499977 0.0290064 0.
0.501978 0.0290055 0.
0.503979 0.0290045 0.
0.505981 0.0290037 0.
0.507982 0.0290034 0.
0.509983 0.0290031 0.
0.511984 0.0290026 0.
0.513985 0.029002 0.
0.515985 0.0290013 0.
0.517986 0.0290008 0.
0.519988 0.0290004 0.
0.521989 0.0289999 0.
0.52399 0.0290002 0.
0.525991 0.0290007 0.
0.527992 0.029001 0.
0.529993 0.0290006 0.
0.531994 0.0290002 0.
0.533995 0.029 0.
0.535996 0.0290003 0.
0.537997 0.0290006 0.
0.539997 0.0290012 0.
0.541998 0.0290019 0.
0.543999 0.0290026 0.
0.545999 0.0290034 0.
0.547999 0.0290043 0.
0.549999 0.0290051 0.
0.551999 0.0290051 0.
0.553999 0.0290051 0.
0.556 0.0290049 0.
0.558 0.0290044 0.
0.56 0.0290039 0.
0.562001 0.0290037 0.
0.564001 0.0290039 0.
0.566001 0.029004 0.
0.568001 0.029004 0.
0.570001 0.0290038 0.
0.572001 0.0290036 0.
0.574001 0.0290039 0.
0.576 0.0290042 0.
0.578 0.0290046 0.
0.58 0.0290049 0.
0.582 0.0290053 0.
0.584 0.0290055 0.
0.586 0.0290055 0.
0.587999 0.0290055 0.
0.589999 0.0290055 0.
0.592 0.0290054 0.
0.594 0.0290054 0.
0.596 0.0290051 0.
0.598 0.0290048 0.
0.6 0.0290044 0.
0.602 0.0290047 0.
0.604 0.0290049 0.
0.605999 0.029005 0.
0.607999 0.0290047 0.
0.61 0.0290043 0.
0.612 0.0290041 0.
0.613999 0.0290039 0.
0.615999 0.0290038 0.
0.617999 0.0290036 0.
0.619999 0.0290035 0.
0.621999 0.0290033 0.
0.623999 0.0290034 0.
0.625999 0.0290035 0.
0.627999 0.0290036 0.
0.629999 0.0290034 0.
0.631999 0.0290033 0.
0.633999 0.0290033 0.
0.636 0.0290035 0.
0.638 0.0290037 0.
0.64 0.0290037 0.
0.642001 0.0290035 0.
0.644001 0.0290034 0.
0.646001 0.0290029 0.
0.648002 0.0290024 0.
0.650002 0.0290018 0.
0.652002 0.0290019 0.
0.654003 0.0290019 0.
0.656003 0.0290018 0.
0.658004 0.029001 0.
0.660005 0.0290002 0.
0.662006 0.0289999 0.
0.664007 0.0290002 0.
0.666007 0.0290005 0.
0.668008 0.0290007 0.
0.67001 0.0290007 0.
0.672011 0.0290008 0.
0.674012 0.0290007 0.
0.676013 0.0290006 0.
0.678013 0.0290005 0.
0.680014 0.0290005 0.
0.682015 0.0290005 0.
0.684016 0.0290006 0.
0.686017 0.0290008 0.
0.688018 0.029001 0.
0.690019 0.0290012 0.
0.69202 0.0290016 0.
0.69402 0.0290019 0.
0.696021 0.029003 0.
0.698022 0.0290042 0.
0.499978 0.0310063 0.
0.501979 0.0310054 0.
0.50398 0.0310044 0.
0.505981 0.0310036 0.
0.507983 0.0310032 0.
0.509984 0.0310028 0.
0.511985 0.0310023 0.
0.513985 0.0310016 0.
0.515986 0.031001 0.
0.517987 0.0310004 0.
0.519988 0.031 0.
0.52199 0.0309996 0.
0.523991 0.0309999 0.
0.525991 0.0310004 0.
0.527992 0.0310007 0.
0.529994 0.0310004 0.
0.531995 0.0310002 0.
0.533996 0.031 0.
0.535996 0.0310002 0.
0.537997 0.0310005 0.
0.539998 0.031001 0.
0.541998 0.0310017 0.
0.543998 0.0310025 0.
0.545999 0.0310033 0.
0.547999 0.031004 0.
0.549999 0.0310047 0.
0.551999 0.0310047 0.
0.554 0.0310047 0.
0.556 0.0310045 0.
0.558 0.0310041 0.
0.560001 0.0310037 0.
0.562001 0.0310035 0.
0.564001 0.0310038 0.
0.566002 0.0310041 0.
0.568002 0.031004 0.
0.570002 0.0310038 0.
0.572002 0.0310036 0.
0.574001 0.031004 0.
0.576001 0.0310045 0.
0.578001 0.0310049 0.
0.580001 0.0310051 0.
0.582 0.0310054 0.
0.584 0.0310055 0.
0.586 0.0310056 0.
0.588 0.0310057 0.
0.59 0.0310055 0.
0.592 0.0310053 0.
0.594 0.031005 0.
0.596 0.0310048 0.
0.598 0.0310047 0.
0.6 0.0310045 0.
0.602 0.0310047 0.
0.603999 0.0310049 0.
0.605999 0.031005 0.
0.607999 0.0310045 0.
0.609999 0.0310041 0.
0.611999 0.0310039 0.
0.613999 0.0310039 0.
0.615998 0.0310039 0.
0.617998 0.0310037 0.
0.619998 0.0310036 0.
0.621999 0.0310034 0.
0.623998 0.0310034 0.
0.625998 0.0310035 0.
0.627998 0.0310035 0.
0.629999 0.0310034 0.
0.631999 0.0310034 0.
0.633999 0.0310033 0.
0.635999 0.0310033 0.
0.637999 0.0310034 0.
0.64 0.0310033 0.
0.642 0.0310031 0.
0.644001 0.0310029 0.
0.646001 0.0310025 0.
0.648001 0.0310021 0.
0.650002 0.0310017 0.
0.652002 0.0310017 0.
0.654002 0.0310017 0.
0.656003 0.0310015 0.
0.658004 0.0310007 0.
0.660004 0.0309999 0.
0.662005 0.0309996 0.
0.664006 0.0309999 0.
0.666007 0.0310001 0.
0.668008 0.0310003 0.
0.670009 0.0310003 0.
0.67201 0.0310003 0.
0.674011 0.0310003 0.
0.676012 0.0310002 0.
0.678013 0.0310001 0.
0.680014 0.0310002 0.
0.682015 0.0310002 0.
0.684016 0.0310003 0.
0.686017 0.0310007 0.
0.688018 0.0310011 0.
0.690018 0.0310015 0.
0.692019 0.0310019 0.
0.694019 0.0310024 0.
0.69602 0.0310035 0.
0.698021 0.0310047 0.
0.49998 0.0330059 0.
0.50198 0.033005 0.
0.503981 0.0330041 0.
0.505982 0.0330033 0.
0.507983 0.0330029 0.
0.509984 0.0330026 0.
0.511985 0.0330021 0.
0.513986 0.0330013 0.
0.515987 0.0330005 0.
0.517988 0.0330001 0.
0.519989 0.0329997 0.
0.52199 0.0329994 0.
0.523991 0.0329997 0.
0.525992 0.033 0.
0.527993 0.0330004 0.
0.529994 0.0330003 0.
0.531995 0.0330002 0.
0.533996 0.0330001 0.
0.535996 0.033 0.
0.537997 0.033 0.
0.539997 0.0330005 0.
0.541998 0.0330014 0.
0.543998 0.0330023 0.
0.545999 0.033003 0.
0.547999 0.0330035 0.
0.55 0.033004 0.
0.552 0.0330041 0.
0.554 0.0330041 0.
0.556 0.0330041 0.
0.558 0.0330039 0.
0.560001 0.0330037 0.
0.562001 0.0330036 0.
0.564001 0.0330038 0.
0.566002 0.033004 0.
0.568002 0.033004 0.
0.570002 0.0330037 0.
0.572002 0.0330035 0.
0.574001 0.0330041 0.
0.576001 0.0330048 0.
0.578001 0.0330054 0.
0.580001 0.0330054 0.
0.582001 0.0330054 0.
0.584 0.0330055 0.
0.586 0.0330056 0.
0.588 0.0330058 0.
0.59 0.0330056 0.
0.592 0.0330052 0.
0.594 0.0330048 0.
0.596 0.0330047 0.
0.598 0.0330047 0.
0.6 0.0330047 0.
0.602 0.0330048 0.
0.603999 0.0330049 0.
0.605999 0.0330049 0.
0.607999 0.0330046 0.
0.609999 0.0330043 0.
0.611999 0.0330042 0.
0.613999 0.0330042 0.
0.615998 0.0330043 0.
0.617998 0.0330041 0.
0.619998 0.0330037 0.
0.621998 0.0330034 0.
0.623998 0.0330034 0.
0.625998 0.0330034 0.
0.627998 0.0330035 0.
0.629998 0.0330035 0.
0.631998 0.0330035 0.
0.633999 0.0330035 0.
0.635999 0.0330032 0.
0.637999 0.0330029 0.
0.639999 0.0330026 0.
0.642 0.0330024 0.
0.644001 0.0330022 0.
0.646001 0.033002 0.
0.648001 0.0330019 0.
0.650002 0.0330017 0.
0.652002 0.0330015 0.
0.654003 0.0330012 0.
0.656003 0.0330009 0.
0.658004 0.0330004 0.
0.660004 0.0329998 0.
0.662005 0.0329996 0.
0.664006 0.0329997 0.
0.666006 0.0329997 0.
0.668007 0.0329998 0.
0.670008 0.0329997 0.
0.672009 0.0329997 0.
0.67401 0.0329997 0.
0.676011 0.0329998 0.
0.678012 0.0329998 0.
0.680013 0.0329998 0.
0.682014 0.0329997 0.
0.684015 0.0329999 0.
0.686016 0.0330005 0.
0.688016 0.0330012 0.
0.690017 0.0330018 0.
0.692018 0.0330023 0.
0.694018 0.0330029 0.
0.696019 0.0330037 0.
0.69802 0.0330045 0.
0.499981 0.0350055 0.
0.501982 0.0350045 0.
0.503982 0.0350037 0.
0.505983 0.035003 0.
0.507984 0.0350026 0.
0.509985 0.0350023 0.
0.511986 0.0350018 0.
0.513987 0.035001 0.
0.515987 0.0350001 0.
0.517988 0.0349997 0.
0.51999 0.0349995 0.
0.521991 0.0349992 0.
0.523992 0.0349995 0.
0.525993 0.0349997 0.
0.527993 0.035 0.
0.529994 0.0350001 0.
0.531995 0.0350002 0.
0.533995 0.0350001 0.
0.535996 0.0349998 0.
0.537996 0.0349995 0.
0.539997 0.0349999 0.
0.541997 0.0350011 0.
0.543997 0.0350022 0.
0.545998 0.0350027 0.
0.547999 0.035003 0.
0.55 0.0350033 0.
0.552 0.0350035 0.
0.554 0.0350036 0.
0.556 0.0350037 0.
0.558 0.0350037 0.
0.560001 0.0350037 0.
0.562001 0.0350037 0.
0.564001 0.0350039 0.
0.566002 0.035004 0.
0.568002 0.0350039 0.
0.570002 0.0350036 0.
0.572002 0.0350034 0.
0.574002 0.0350042 0.
0.576001 0.0350051 0.
0.578001 0.0350059 0.
0.580001 0.0350057 0.
0.582001 0.0350055 0.
0.584001 0.0350055 0.
0.586001 0.0350057 0.
0.588 0.0350059 0.
0.59 0.0350057 0.
0.592 0.0350052 0.
0.594 0.0350046 0.
0.596 0.0350046 0.
0.598 0.0350047 0.
0.6 0.0350049 0.
0.602 0.0350049 0.
0.603999 0.0350049 0.
0.605999 0.0350048 0.
0.607999 0.0350047 0.
0.609999 0.0350045 0.
0.611999 0.0350045 0.
0.613999 0.0350046 0.
0.615998 0.0350047 0.
0.617998 0.0350044 0.
0.619998 0.0350039 0.
0.621997 0.0350033 0.
0.623997 0.0350033 0.
0.625997 0.0350034 0.
0.627997 0.0350034 0.
0.629998 0.0350036 0.
0.631998 0.0350037 0.
0.633998 0.0350036 0.
0.635998 0.035003 0.
0.637998 0.0350024 0.
0.639999 0.035002 0.
0.642 0.0350018 0.
0.644001 0.0350016 0.
0.646001 0.0350016 0.
0.648002 0.0350016 0.
0.650002 0.0350017 0.
0.652002 0.0350012 0.
0.654003 0.0350008 0.
0.656003 0.0350004 0.
0.658004 0.0350001 0.
0.660004 0.0349998 0.
0.662005 0.0349995 0.
0.664005 0.0349994 0.
0.666006 0.0349993 0.
0.668006 0.0349993 0.
0.670007 0.0349992 0.
0.672009 0.0349991 0.
0.67401 0.0349992 0.
0.676011 0.0349994 0.
0.678012 0.0349995 0.
0.680013 0.0349993 0.
0.682014 0.0349992 0.
0.684015 0.0349994 0.
0.686015 0.0350004 0.
0.688015 0.0350013 0.
0.690016 0.0350021 0.
0.692016 0.0350027 0.
0.694017 0.0350034 0.
0.696018 0.0350038 0.
0.698019 0.0350043 0.
0.499982 0.0370055 0.
0.501982 0.0370046 0.
0.503983 0.0370038 0.
0.505984 0.037003 0.
0.507985 0.0370023 0.
0.509986 0.0370015 0.
0.511987 0.0370008 0.
0.513987 0.0370002 0.
0.515988 0.0369997 0.
0.517989 0.0369993 0.
0.51999 0.0369991 0.
0.521992 0.0369989 0.
0.523992 0.0369991 0.
0.525993 0.0369995 0.
0.527994 0.0369997 0.
0.529994 0.0369998 0.
0.531995 0.0369999 0.
0.533996 0.0369999 0.
0.535996 0.0369999 0.
0.537997 0.0369999 0.
0.539997 0.0370003 0.
0.541998 0.037001 0.
0.543998 0.0370017 0.
0.545999 0.0370022 0.
0.547999 0.0370027 0.
0.55 0.0370033 0.
0.552 0.0370034 0.
0.554 0.0370035 0.
0.556 0.0370036 0.
0.558001 0.0370036 0.
0.560001 0.0370036 0.
0.562001 0.0370037 0.
0.564001 0.0370039 0.
0.566002 0.037004 0.
0.568002 0.0370041 0.
0.570002 0.0370042 0.
0.572002 0.0370042 0.
0.574002 0.0370048 0.
0.576002 0.0370054 0.
0.578001 0.0370059 0.
0.580001 0.0370059 0.
0.582001 0.0370058 0.
0.584001 0.0370057 0.
0.586001 0.0370056 0.
0.588001 0.0370055 0.
0.590001 0.0370053 0.
0.592001 0.037005 0.
0.594001 0.0370047 0.
0.596001 0.0370046 0.
0.598001 0.0370047 0.
0.6 0.0370048 0.
0.602 0.0370048 0.
0.604 0.0370049 0.
0.606 0.0370049 0.
0.608 0.0370048 0.
0.61 0.0370048 0.
0.612 0.0370048 0.
0.613999 0.0370048 0.
0.615999 0.0370048 0.
0.617999 0.0370045 0.
0.619998 0.0370042 0.
0.621998 0.0370038 0.
0.623998 0.0370036 0.
0.625998 0.0370035 0.
0.627998 0.0370034 0.
0.629998 0.0370033 0.
0.631998 0.0370033 0.
0.633998 0.0370031 0.
0.635999 0.0370028 0.
0.637999 0.0370024 0.
0.639999 0.037002 0.
0.642 0.0370017 0.
0.644 0.0370013 0.
0.646001 0.0370014 0.
0.648001 0.0370016 0.
0.650002 0.0370017 0.
0.652002 0.0370012 0.
0.654002 0.0370008 0.
0.656003 0.0370002 0.
0.658004 0.0369997 0.
0.660004 0.0369992 0.
0.662005 0.0369989 0.
0.664005 0.0369989 0.
0.666005 0.0369988 0.
0.668006 0.0369989 0.
0.670007 0.0369989 0.
0.672008 0.036999 0.
0.674009 0.0369989 0.
0.67601 0.0369988 0.
0.678011 0.0369987 0.
0.680012 0.0369987 0.
0.682013 0.0369988 0.
0.684014 0.0369992 0.
0.686014 0.0370003 0.
0.688015 0.0370013 0.
0.690015 0.0370021 0.
0.692016 0.0370026 0.
0.694016 0.0370031 0.
0.696017 0.0370037 0.
0.698019 0.0370043 0.
0.499983 0.0390055 0.
0.501983 0.0390047 0.
0.503984 0.0390039 0.
0.505985 0.0390031 0.
0.507986 0.0390019 0.
0.509987 0.0390006 0.
0.511988 0.0389998 0.
0.513988 0.0389995 0.
0.515989 0.0389992 0.
0.51799 0.038999 0.
0.519991 0.0389988 0.
0.521992 0.0389986 0.
0.523993 0.0389988 0.
0.525993 0.0389992 0.
0.527994 0.0389995 0.
0.529995 0.0389995 0.
0.531996 0.0389996 0.
0.533996 0.0389997 0.
0.535997 0.0390001 0.
0.537997 0.0390004 0.
0.539998 0.0390007 0.
0.541998 0.0390009 0.
0.543999 0.0390012 0.
0.545999 0.0390018 0.
0.548 0.0390025 0.
0.550001 0.0390032 0.
0.552001 0.0390033 0.
0.554001 0.0390034 0.
0.556001 0.0390034 0.
0.558001 0.0390035 0.
0.560001 0.0390035 0.
0.562002 0.0390037 0.
0.564002 0.0390039 0.
0.566002 0.0390041 0.
0.568002 0.0390043 0.
0.570002 0.0390047 0.
0.572003 0.039005 0.
0.574002 0.0390053 0.
0.576002 0.0390057 0.
0.578002 0.039006 0.
0.580001 0.039006 0.
0.582001 0.0390061 0.
0.584001 0.039006 0.
0.586001 0.0390056 0.
0.588002 0.0390051 0.
0.590002 0.0390049 0.
0.592001 0.0390048 0.
0.594001 0.0390047 0.
0.596001 0.0390047 0.
0.598001 0.0390046 0.
0.6 0.0390046 0.
0.602 0.0390047 0.
0.604 0.0390049 0.
0.606 0.039005 0.
0.608 0.039005 0.
0.61 0.0390051 0.
0.612 0.0390051 0.
0.614 0.0390049 0.
0.616 0.0390048 0.
0.618 0.0390046 0.
0.619999 0.0390045 0.
0.621999 0.0390043 0.
0.623999 0.039004 0.
0.625998 0.0390036 0.
0.627998 0.0390033 0.
0.629998 0.0390031 0.
0.631998 0.0390029 0.
0.633998 0.0390027 0.
0.635999 0.0390025 0.
0.637999 0.0390024 0.
0.64 0.0390021 0.
0.642 0.0390016 0.
0.644 0.0390011 0.
0.646 0.0390012 0.
0.648001 0.0390015 0.
0.650001 0.0390018 0.
0.652002 0.0390012 0.
0.654002 0.0390007 0.
0.656003 0.0390001 0.
0.658003 0.0389994 0.
0.660004 0.0389986 0.
0.662004 0.0389982 0.
0.664005 0.0389983 0.
0.666005 0.0389984 0.
0.668005 0.0389985 0.
0.670006 0.0389987 0.
0.672007 0.0389989 0.
0.674008 0.0389986 0.
0.676009 0.0389982 0.
0.678009 0.0389979 0.
0.680011 0.0389981 0.
0.682012 0.0389984 0.
0.684013 0.038999 0.
0.686013 0.0390001 0.
0.688014 0.0390013 0.
0.690014 0.0390021 0.
0.692015 0.0390024 0.
0.694015 0.0390028 0.
0.696017 0.0390035 0.
0.698018 0.0390044 0.
0.499983 0.0410055 0.
0.501984 0.0410045 0.
0.503985 0.0410037 0.
0.505985 0.0410028 0.
0.507986 0.0410015 0.
0.509987 0.0410002 0.
0.511988 0.0409993 0.
0.513989 0.0409992 0.
0.51599 0.040999 0.
0.517991 0.0409988 0.
0.519992 0.0409986 0.
0.521993 0.0409985 0.
0.523993 0.0409987 0.
0.525994 0.040999 0.
0.527994 0.0409993 0.
0.529995 0.0409994 0.
0.531996 0.0409995 0.
0.533996 0.0409997 0.
0.535997 0.0410001 0.
0.537997 0.0410006 0.
0.539998 0.0410008 0.
0.541998 0.0410009 0.
0.543999 0.0410009 0.
0.545999 0.0410014 0.
0.548 0.0410021 0.
0.550001 0.0410027 0.
0.552001 0.0410029 0.
0.554001 0.041003 0.
0.556001 0.0410031 0.
0.558001 0.0410032 0.
0.560002 0.0410033 0.
0.562002 0.0410035 0.
0.564002 0.0410039 0.
0.566002 0.0410042 0.
0.568002 0.0410046 0.
0.570003 0.041005 0.
0.572003 0.0410054 0.
0.574003 0.0410057 0.
0.576002 0.0410059 0.
0.578002 0.0410061 0.
0.580002 0.0410062 0.
0.582001 0.0410062 0.
0.584001 0.041006 0.
0.586001 0.0410055 0.
0.588002 0.041005 0.
0.590002 0.0410048 0.
0.592001 0.0410048 0.
0.594001 0.0410048 0.
0.596001 0.0410047 0.
0.598001 0.0410046 0.
0.6 0.0410045 0.
0.602001 0.0410047 0.
0.604001 0.0410049 0.
0.606001 0.041005 0.
0.608001 0.0410051 0.
0.610001 0.0410052 0.
0.612 0.0410052 0.
0.614 0.041005 0.
0.616 0.0410048 0.
0.618 0.0410048 0.
0.62 0.0410047 0.
0.621999 0.0410047 0.
0.623999 0.0410044 0.
0.625999 0.041004 0.
0.627998 0.0410035 0.
0.629998 0.0410031 0.
0.631998 0.0410026 0.
0.633998 0.0410023 0.
0.635999 0.0410022 0.
0.637999 0.0410022 0.
0.64 0.0410019 0.
0.642 0.0410013 0.
0.644 0.0410008 0.
0.646 0.0410009 0.
0.648001 0.0410012 0.
0.650001 0.0410014 0.
0.652001 0.041001 0.
0.654002 0.0410005 0.
0.656002 0.041 0.
0.658003 0.0409992 0.
0.660004 0.0409985 0.
0.662004 0.0409981 0.
0.664004 0.0409982 0.
0.666004 0.0409984 0.
0.668005 0.0409985 0.
0.670006 0.0409987 0.
0.672006 0.0409989 0.
0.674007 0.0409985 0.
0.676008 0.040998 0.
0.678009 0.0409976 0.
0.68001 0.0409979 0.
0.682011 0.0409982 0.
0.684011 0.0409988 0.
0.686012 0.0409999 0.
0.688013 0.0410009 0.
0.690013 0.0410017 0.
0.692014 0.0410022 0.
0.694014 0.0410027 0.
0.696016 0.0410034 0.
0.698018 0.0410043 0.
0.499984 0.0430053 0.
0.501985 0.0430041 0.
0.503986 0.0430031 0.
0.505987 0.0430021 0.
0.507987 0.0430011 0.
0.509988 0.0430001 0.
0.511989 0.0429994 0.
0.51399 0.0429993 0.
0.515991 0.0429991 0.
0.517992 0.0429989 0.
0.519993 0.0429988 0.
0.521994 0.0429986 0.
0.523994 0.0429987 0.
0.525994 0.042999 0.
0.527995 0.0429992 0.
0.529995 0.0429994 0.
0.531996 0.0429995 0.
0.533996 0.0429998 0.
0.535997 0.0430002 0.
0.537997 0.0430005 0.
0.539997 0.0430008 0.
0.541998 0.0430008 0.
0.543998 0.0430009 0.
0.545999 0.0430011 0.
0.548 0.0430014 0.
0.55 0.0430017 0.
0.552001 0.043002 0.
0.554001 0.0430023 0.
0.556001 0.0430025 0.
0.558001 0.0430028 0.
0.560002 0.043003 0.
0.562002 0.0430034 0.
0.564002 0.0430039 0.
0.566002 0.0430044 0.
0.568003 0.0430048 0.
0.570003 0.0430051 0.
0.572003 0.0430055 0.
0.574003 0.0430059 0.
0.576003 0.0430062 0.
0.578002 0.0430065 0.
0.580002 0.0430062 0.
0.582001 0.0430059 0.
0.584001 0.0430057 0.
0.586001 0.0430054 0.
0.588001 0.0430052 0.
0.590001 0.0430051 0.
0.592001 0.043005 0.
0.594001 0.043005 0.
0.596001 0.0430048 0.
0.598001 0.0430047 0.
0.6 0.0430045 0.
0.602 0.0430047 0.
0.604001 0.0430049 0.
0.606001 0.0430051 0.
0.608 0.0430051 0.
0.61 0.0430051 0.
0.612 0.0430051 0.
0.614 0.0430049 0.
0.616 0.0430048 0.
0.618 0.0430049 0.
0.619999 0.043005 0.
0.621999 0.0430052 0.
0.623999 0.0430048 0.
0.625999 0.0430044 0.
0.627998 0.043004 0.
0.629998 0.0430033 0.
0.631998 0.0430026 0.
0.633998 0.043002 0.
0.635998 0.0430019 0.
0.637999 0.0430017 0.
0.639999 0.0430014 0.
0.642 0.043001 0.
0.644 0.0430005 0.
0.646 0.0430005 0.
0.648001 0.0430006 0.
0.650001 0.0430007 0.
0.652001 0.0430005 0.
0.654002 0.0430002 0.
0.656002 0.0429998 0.
0.658003 0.0429993 0.
0.660003 0.0429987 0.
0.662004 0.0429985 0.
0.664004 0.0429987 0.
0.666004 0.0429988 0.
0.668005 0.0429989 0.
0.670005 0.042999 0.
0.672005 0.0429991 0.
0.674006 0.0429986 0.
0.676007 0.0429981 0.
0.678008 0.0429977 0.
0.680009 0.042998 0.
0.682009 0.0429982 0.
0.68401 0.0429986 0.
0.686011 0.0429994 0.
0.688011 0.0430001 0.
0.690012 0.043001 0.
0.692013 0.0430018 0.
0.694014 0.0430027 0.
0.696015 0.0430034 0.
0.698017 0.043004 0.
0.499985 0.0450052 0.
0.501986 0.0450037 0.
0.503987 0.0450025 0.
0.505988 0.0450014 0.
0.507988 0.0450007 0.
0.509989 0.045 0.
0.51199 0.0449995 0.
0.513991 0.0449994 0.
0.515992 0.0449992 0.
0.517993 0.044999 0.
0.519994 0.0449989 0.
0.521994 0.0449987 0.
0.523995 0.0449988 0.
0.525995 0.0449989 0.
0.527995 0.0449991 0.
0.529995 0.0449993 0.
0.531996 0.0449996 0.
0.533996 0.0449999 0.
0.535996 0.0450002 0.
0.537997 0.0450005 0.
0.539997 0.0450007 0.
0.541997 0.0450008 0.
0.543998 0.0450008 0.
0.545999 0.0450008 0.
0.547999 0.0450008 0.
0.55 0.0450007 0.
0.552 0.0450011 0.
0.554 0.0450015 0.
0.556001 0.0450019 0.
0.558001 0.0450023 0.
0.560002 0.0450027 0.
0.562002 0.0450032 0.
0.564003 0.0450039 0.
0.566003 0.0450046 0.
0.568003 0.045005 0.
0.570004 0.0450053 0.
0.572004 0.0450055 0.
0.574004 0.045006 0.
0.576003 0.0450065 0.
0.578003 0.0450069 0.
0.580002 0.0450063 0.
0.582002 0.0450057 0.
0.584001 0.0450053 0.
0.586001 0.0450054 0.
0.588001 0.0450054 0.
0.590001 0.0450054 0.
0.592001 0.0450052 0.
0.594001 0.0450051 0.
0.596001 0.0450049 0.
0.598 0.0450047 0.
0.6 0.0450045 0.
0.602 0.0450047 0.
0.604 0.045005 0.
0.606001 0.0450052 0.
0.608 0.0450051 0.
0.61 0.0450051 0.
0.612 0.045005 0.
0.614 0.0450049 0.
0.616 0.0450048 0.
0.618 0.045005 0.
0.619999 0.0450053 0.
0.621999 0.0450056 0.
0.623999 0.0450053 0.
0.625998 0.0450049 0.
0.627998 0.0450044 0.
0.629998 0.0450035 0.
0.631998 0.0450025 0.
0.633998 0.0450018 0.
0.635998 0.0450015 0.
0.637998 0.0450013 0.
0.639999 0.045001 0.
0.641999 0.0450006 0.
0.644 0.0450002 0.
0.646 0.0450001 0.
0.648001 0.0450001 0.
0.650001 0.045 0.
0.652001 0.0449999 0.
0.654002 0.0449998 0.
0.656002 0.0449997 0.
0.658003 0.0449994 0.
0.660003 0.044999 0.
0.662004 0.0449989 0.
0.664004 0.0449991 0.
0.666004 0.0449993 0.
0.668004 0.0449994 0.
0.670004 0.0449993 0.
0.672005 0.0449993 0.
0.674005 0.0449988 0.
0.676006 0.0449983 0.
0.678007 0.0449979 0.
0.680008 0.0449981 0.
0.682008 0.0449983 0.
0.684009 0.0449985 0.
0.686009 0.0449989 0.
0.688009 0.0449993 0.
0.69001 0.0450002 0.
0.692012 0.0450014 0.
0.694013 0.0450026 0.
0.696014 0.0450033 0.
0.698016 0.0450037 0.
0.499986 0.0470047 0.
0.501987 0.0470035 0.
0.503988 0.0470026 0.
0.505989 0.0470017 0.
0.507989 0.0470007 0.
0.50999 0.0469998 0.
0.511991 0.0469992 0.
0.513992 0.046999 0.
0.515993 0.0469988 0.
0.517993 0.0469986 0.
0.519994 0.0469984 0.
0.521995 0.0469981 0.
0.523995 0.0469983 0.
0.525995 0.0469985 0.
0.527996 0.0469988 0.
0.529996 0.0469991 0.
0.531997 0.0469995 0.
0.533998 0.0469998 0.
0.535998 0.047 0.
0.537998 0.0470002 0.
0.539998 0.0470004 0.
0.541999 0.0470005 0.
0.543999 0.0470005 0.
0.545999 0.0470006 0.
0.548 0.0470007 0.
0.55 0.0470009 0.
0.552 0.0470011 0.
0.554 0.0470013 0.
0.556 0.0470015 0.
0.558001 0.0470018 0.
0.560001 0.0470022 0.
0.562001 0.0470027 0.
0.564002 0.0470035 0.
0.566002 0.0470043 0.
0.568002 0.0470047 0.
0.570003 0.047005 0.
0.572003 0.0470052 0.
0.574003 0.0470058 0.
0.576003 0.0470064 0.
0.578002 0.0470069 0.
0.580002 0.0470065 0.
0.582002 0.047006 0.
0.584002 0.0470057 0.
0.586002 0.0470056 0.
0.588001 0.0470055 0.
0.590001 0.0470054 0.
0.592001 0.0470053 0.
0.594001 0.0470053 0.
0.596001 0.0470051 0.
0.598001 0.0470049 0.
0.6 0.0470048 0.
0.602 0.0470051 0.
0.604001 0.0470054 0.
0.606 0.0470056 0.
0.608 0.0470055 0.
0.61 0.0470054 0.
0.612 0.0470053 0.
0.614 0.0470051 0.
0.616 0.0470049 0.
0.617999 0.047005 0.
0.619999 0.0470051 0.
0.621999 0.0470052 0.
0.623999 0.0470049 0.
0.625999 0.0470045 0.
0.627999 0.047004 0.
0.629999 0.0470031 0.
0.631999 0.0470023 0.
0.633999 0.0470016 0.
0.635999 0.0470014 0.
0.637999 0.0470012 0.
0.639999 0.0470009 0.
0.641999 0.0470005 0.
0.644 0.0470001 0.
0.646 0.047 0.
0.648 0.0469998 0.
0.65 0.0469997 0.
0.652001 0.0469997 0.
0.654001 0.0469996 0.
0.656001 0.0469995 0.
0.658002 0.0469991 0.
0.660002 0.0469987 0.
0.662003 0.0469985 0.
0.664003 0.0469986 0.
0.666003 0.0469987 0.
0.668004 0.0469988 0.
0.670004 0.0469989 0.
0.672005 0.046999 0.
0.674005 0.0469986 0.
0.676006 0.0469981 0.
0.678006 0.0469978 0.
0.680007 0.0469979 0.
0.682008 0.0469981 0.
0.684008 0.0469984 0.
0.686009 0.046999 0.
0.688009 0.0469997 0.
0.69001 0.0470005 0.
0.692011 0.0470015 0.
0.694012 0.0470024 0.
0.696013 0.0470031 0.
0.698015 0.0470036 0.
0.499986 0.0490042 0.
0.501987 0.0490033 0.
0.503989 0.0490026 0.
0.50599 0.0490019 0.
0.50799 0.0490007 0.
0.509991 0.0489996 0.
0.511992 0.0489989 0.
0.513993 0.0489986 0.
0.515993 0.0489984 0.
0.517994 0.0489981 0.
0.519995 0.0489978 0.
0.521995 0.0489976 0.
0.523996 0.0489978 0.
0.525996 0.0489981 0.
0.527997 0.0489985 0.
0.529997 0.0489989 0.
0.531998 0.0489993 0.
0.533999 0.0489997 0.
0.535999 0.0489998 0.
0.538 0.0489999 0.
0.54 0.0490001 0.
0.542 0.0490002 0.
0.544 0.0490002 0.
0.546 0.0490005 0.
0.548 0.0490007 0.
0.55 0.049001 0.
0.552 0.049001 0.
0.554 0.0490011 0.
0.556 0.0490011 0.
0.558 0.0490014 0.
0.560001 0.0490016 0.
0.562001 0.0490022 0.
0.564001 0.049003 0.
0.566001 0.0490039 0.
0.568001 0.0490044 0.
0.570002 0.0490047 0.
0.572003 0.0490049 0.
0.574003 0.0490056 0.
0.576002 0.0490063 0.
0.578002 0.0490069 0.
0.580002 0.0490066 0.
0.582002 0.0490063 0.
0.584002 0.049006 0.
0.586002 0.0490058 0.
0.588002 0.0490056 0.
0.590002 0.0490055 0.
0.592002 0.0490054 0.
0.594002 0.0490054 0.
0.596002 0.0490053 0.
0.598001 0.0490052 0.
0.600001 0.0490051 0.
0.602001 0.0490055 0.
0.604001 0.0490058 0.
0.606 0.049006 0.
0.608 0.0490059 0.
0.61 0.0490058 0.
0.612 0.0490057 0.
0.614 0.0490054 0.
0.615999 0.0490051 0.
0.617999 0.0490049 0.
0.619999 0.0490049 0.
0.621999 0.0490048 0.
0.623999 0.0490044 0.
0.625999 0.049004 0.
0.627999 0.0490036 0.
0.63 0.0490028 0.
0.632 0.0490021 0.
0.634 0.0490015 0.
0.636 0.0490013 0.
0.637999 0.049001 0.
0.639999 0.0490008 0.
0.642 0.0490004 0.
0.644 0.0490001 0.
0.646 0.0489998 0.
0.648 0.0489996 0.
0.65 0.0489994 0.
0.652 0.0489994 0.
0.654 0.0489994 0.
0.656 0.0489993 0.
0.658001 0.0489988 0.
0.660001 0.0489983 0.
0.662002 0.0489981 0.
0.664002 0.0489981 0.
0.666002 0.0489981 0.
0.668003 0.0489983 0.
0.670004 0.0489985 0.
0.672004 0.0489987 0.
0.674005 0.0489983 0.
0.676005 0.048998 0.
0.678006 0.0489977 0.
0.680007 0.0489978 0.
0.682007 0.0489979 0.
0.684008 0.0489982 0.
0.686009 0.0489991 0.
0.688009 0.049 0.
0.69001 0.0490008 0.
0.69201 0.0490015 0.
0.694011 0.0490022 0.
0.696012 0.0490029 0.
0.698013 0.0490034 0.
0.499988 0.051004 0.
0.501989 0.051003 0.
0.50399 0.0510024 0.
0.505991 0.0510017 0.
0.507991 0.0510005 0.
0.509992 0.0509993 0.
0.511993 0.0509985 0.
0.513993 0.0509984 0.
0.515994 0.0509982 0.
0.517995 0.0509979 0.
0.519995 0.0509977 0.
0.521996 0.0509974 0.
0.523996 0.0509977 0.
0.525997 0.0509982 0.
0.527997 0.0509986 0.
0.529998 0.0509989 0.
0.531999 0.0509991 0.
0.534 0.0509994 0.
0.536 0.0509996 0.
0.538 0.0509998 0.
0.54 0.051 0.
0.542 0.0510001 0.
0.544 0.0510003 0.
0.546 0.0510005 0.
0.548 0.0510008 0.
0.55 0.051001 0.
0.552 0.0510009 0.
0.554 0.0510009 0.
0.556 0.0510009 0.
0.558 0.0510012 0.
0.56 0.0510016 0.
0.562001 0.0510022 0.
0.564001 0.051003 0.
0.566001 0.0510038 0.
0.568001 0.0510043 0.
0.570002 0.0510046 0.
0.572002 0.0510048 0.
0.574002 0.0510055 0.
0.576002 0.0510062 0.
0.578002 0.0510068 0.
0.580002 0.0510065 0.
0.582002 0.0510062 0.
0.584002 0.051006 0.
0.586002 0.0510057 0.
0.588002 0.0510055 0.
0.590002 0.0510055 0.
0.592002 0.0510056 0.
0.594002 0.0510056 0.
0.596002 0.0510056 0.
0.598001 0.0510056 0.
0.600001 0.0510055 0.
0.602001 0.0510058 0.
0.604001 0.051006 0.
0.606001 0.0510061 0.
0.608 0.0510059 0.
0.61 0.0510057 0.
0.612 0.0510055 0.
0.614 0.0510053 0.
0.615999 0.0510051 0.
0.617999 0.0510049 0.
0.619999 0.0510047 0.
0.621999 0.0510044 0.
0.623999 0.0510041 0.
0.625999 0.0510037 0.
0.628 0.0510034 0.
0.63 0.0510028 0.
0.632 0.0510022 0.
0.634 0.0510018 0.
0.636 0.0510015 0.
0.637999 0.0510012 0.
0.64 0.0510008 0.
0.642 0.0510004 0.
0.644 0.0509999 0.
0.646 0.0509997 0.
0.648 0.0509994 0.
0.65 0.0509992 0.
0.652 0.0509991 0.
0.654 0.050999 0.
0.656 0.0509989 0.
0.658 0.0509985 0.
0.660001 0.0509982 0.
0.662001 0.050998 0.
0.664002 0.050998 0.
0.666002 0.050998 0.
0.668003 0.0509981 0.
0.670003 0.0509984 0.
0.672004 0.0509986 0.
0.674004 0.0509983 0.
0.676005 0.0509979 0.
0.678005 0.0509976 0.
0.680006 0.0509977 0.
0.682007 0.0509978 0.
0.684007 0.0509982 0.
0.686008 0.0509991 0.
0.688008 0.051 0.
0.690009 0.0510007 0.
0.69201 0.0510013 0.
0.69401 0.0510019 0.
0.696011 0.0510027 0.
0.698012 0.0510034 0.
0.49999 0.053004 0.
0.501991 0.0530026 0.
0.503991 0.0530019 0.
0.505992 0.0530011 0.
0.507992 0.0529999 0.
0.509993 0.0529988 0.
0.511993 0.0529982 0.
0.513994 0.0529982 0.
0.515995 0.0529981 0.
0.517996 0.052998 0.
0.519996 0.0529978 0.
0.521997 0.0529976 0.
0.523997 0.0529981 0.
0.525998 0.0529987 0.
0.527998 0.0529992 0.
0.529999 0.052999 0.
0.531999 0.0529989 0.
0.533999 0.0529989 0.
0.536 0.0529994 0.
0.538 0.0529999 0.
0.54 0.0530002 0.
0.542001 0.0530005 0.
0.544001 0.0530007 0.
0.546001 0.0530008 0.
0.548001 0.0530008 0.
0.550001 0.0530008 0.
0.552001 0.0530008 0.
0.554001 0.0530007 0.
0.556 0.0530008 0.
0.558001 0.0530014 0.
0.560001 0.053002 0.
0.562001 0.0530027 0.
0.564001 0.0530033 0.
0.566001 0.0530039 0.
0.568002 0.0530043 0.
0.570002 0.0530046 0.
0.572003 0.053005 0.
0.574003 0.0530055 0.
0.576002 0.0530061 0.
0.578002 0.0530066 0.
0.580002 0.0530062 0.
0.582002 0.0530058 0.
0.584002 0.0530055 0.
0.586002 0.0530055 0.
0.588002 0.0530054 0.
0.590002 0.0530055 0.
0.592002 0.0530058 0.
0.594002 0.0530061 0.
0.596002 0.0530061 0.
0.598001 0.0530061 0.
0.600001 0.0530061 0.
0.602001 0.0530061 0.
0.604001 0.0530061 0.
0.606001 0.053006 0.
0.608001 0.0530056 0.
0.610001 0.0530052 0.
0.612001 0.053005 0.
0.614 0.053005 0.
0.616 0.053005 0.
0.617999 0.0530048 0.
0.619999 0.0530045 0.
0.621999 0.0530041 0.
0.623999 0.0530038 0.
0.625999 0.0530035 0.
0.627999 0.0530032 0.
0.629999 0.053003 0.
0.631999 0.0530028 0.
0.633999 0.0530025 0.
0.635999 0.0530021 0.
0.637999 0.0530017 0.
0.64 0.0530011 0.
0.642 0.0530004 0.
0.644 0.0529997 0.
0.646 0.0529995 0.
0.648 0.0529993 0.
0.65 0.0529991 0.
0.652 0.0529988 0.
0.654 0.0529986 0.
0.656 0.0529984 0.
0.658 0.0529983 0.
0.660001 0.0529983 0.
0.662001 0.0529983 0.
0.664001 0.0529983 0.
0.666002 0.0529983 0.
0.668002 0.0529984 0.
0.670003 0.0529986 0.
0.672003 0.0529988 0.
0.674004 0.0529984 0.
0.676004 0.052998 0.
0.678005 0.0529976 0.
0.680005 0.0529978 0.
0.682006 0.0529979 0.
0.684006 0.0529983 0.
0.686007 0.052999 0.
0.688007 0.0529997 0.
0.690008 0.0530003 0.
0.692008 0.0530009 0.
0.694009 0.0530015 0.
0.69601 0.0530025 0.
0.698011 0.0530036 0.
0.499992 0.0550038 0.
0.501992 0.0550023 0.
0.503993 0.0550014 0.
0.505993 0.0550005 0.
0.507993 0.0549994 0.
0.509994 0.0549983 0.
0.511994 0.0549978 0.
0.513995 0.054998 0.
0.515996 0.0549981 0.
0.517997 0.054998 0.
0.519997 0.0549979 0.
0.521998 0.0549978 0.
0.523998 0.0549985 0.
0.525999 0.0549992 0.
0.527999 0.0549999 0.
0.529999 0.0549992 0.
0.531999 0.0549986 0.
0.533999 0.0549984 0.
0.535999 0.0549991 0.
0.538 0.0549999 0.
0.54 0.0550004 0.
0.542001 0.0550008 0.
0.544001 0.0550011 0.
0.546001 0.055001 0.
0.548001 0.0550008 0.
0.550001 0.0550006 0.
0.552001 0.0550006 0.
0.554001 0.0550005 0.
0.556001 0.0550007 0.
0.558001 0.0550016 0.
0.560001 0.0550025 0.
0.562001 0.0550031 0.
0.564002 0.0550036 0.
0.566002 0.055004 0.
0.568002 0.0550044 0.
0.570003 0.0550047 0.
0.572003 0.0550051 0.
0.574003 0.0550056 0.
0.576003 0.055006 0.
0.578002 0.0550064 0.
0.580002 0.0550059 0.
0.582001 0.0550054 0.
0.584001 0.0550051 0.
0.586002 0.0550052 0.
0.588002 0.0550053 0.
0.590002 0.0550056 0.
0.592002 0.055006 0.
0.594002 0.0550065 0.
0.596002 0.0550066 0.
0.598001 0.0550066 0.
0.6 0.0550066 0.
0.602001 0.0550064 0.
0.604001 0.0550061 0.
0.606002 0.0550058 0.
0.608002 0.0550052 0.
0.610001 0.0550046 0.
0.612001 0.0550044 0.
0.614 0.0550046 0.
0.616 0.0550049 0.
0.617999 0.0550047 0.
0.619999 0.0550043 0.
0.621999 0.0550038 0.
0.623999 0.0550036 0.
0.625999 0.0550033 0.
0.627999 0.0550031 0.
0.629998 0.0550032 0.
0.631998 0.0550033 0.
0.633998 0.0550032 0.
0.635999 0.0550027 0.
0.637999 0.0550021 0.
0.64 0.0550014 0.
0.642 0.0550005 0.
0.644001 0.0549995 0.
0.646001 0.0549992 0.
0.648001 0.0549991 0.
0.650001 0.0549989 0.
0.652001 0.0549985 0.
0.654001 0.0549981 0.
0.656 0.0549978 0.
0.658 0.0549981 0.
0.66 0.0549984 0.
0.662001 0.0549985 0.
0.664001 0.0549986 0.
0.666002 0.0549986 0.
0.668002 0.0549987 0.
0.670002 0.0549988 0.
0.672002 0.0549989 0.
0.674003 0.0549985 0.
0.676004 0.054998 0.
0.678004 0.0549976 0.
0.680005 0.0549978 0.
0.682005 0.0549981 0.
0.684005 0.0549984 0.
0.686006 0.0549989 0.
0.688006 0.0549994 0.
0.690006 0.0549999 0.
0.692007 0.0550005 0.
0.694007 0.0550011 0.
0.696009 0.0550023 0.
0.69801 0.0550037 0.
0.499992 0.0570035 0.
0.501993 0.0570021 0.
0.503993 0.0570012 0.
0.505994 0.0570003 0.
0.507994 0.0569993 0.
0.509995 0.0569984 0.
0.511995 0.0569979 0.
0.513996 0.0569979 0.
0.515997 0.056998 0.
0.517997 0.0569979 0.
0.519998 0.0569978 0.
0.521998 0.0569976 0.
0.523999 0.0569981 0.
0.525999 0.0569987 0.
0.528 0.0569992 0.
0.53 0.0569989 0.
0.532 0.0569987 0.
0.534 0.0569987 0.
0.536 0.0569991 0.
0.538 0.0569996 0.
0.540001 0.057 0.
0.542001 0.0570004 0.
0.544002 0.0570007 0.
0.546002 0.0570007 0.
0.548002 0.0570005 0.
0.550001 0.0570004 0.
0.552001 0.0570005 0.
0.554001 0.0570006 0.
0.556001 0.0570008 0.
0.558001 0.0570016 0.
0.560002 0.0570025 0.
0.562002 0.0570031 0.
0.564002 0.0570036 0.
0.566002 0.057004 0.
0.568002 0.0570043 0.
0.570002 0.0570045 0.
0.572003 0.0570046 0.
0.574003 0.0570052 0.
0.576002 0.0570058 0.
0.578002 0.0570063 0.
0.580002 0.0570059 0.
0.582001 0.0570055 0.
0.584001 0.0570052 0.
0.586001 0.0570052 0.
0.588002 0.0570053 0.
0.590002 0.0570056 0.
0.592002 0.0570061 0.
0.594001 0.0570067 0.
0.596001 0.0570067 0.
0.598001 0.0570066 0.
0.600001 0.0570065 0.
0.602001 0.0570063 0.
0.604002 0.0570062 0.
0.606002 0.057006 0.
0.608002 0.0570054 0.
0.610001 0.0570048 0.
0.612001 0.0570046 0.
0.614001 0.0570048 0.
0.616 0.0570051 0.
0.618 0.0570049 0.
0.62 0.0570046 0.
0.622 0.0570042 0.
0.623999 0.0570038 0.
0.625999 0.0570033 0.
0.627999 0.0570029 0.
0.629999 0.0570029 0.
0.631999 0.0570029 0.
0.633999 0.0570027 0.
0.635999 0.0570022 0.
0.637999 0.0570016 0.
0.639999 0.057001 0.
0.641999 0.0570005 0.
0.644 0.0569999 0.
0.646 0.0569994 0.
0.648 0.056999 0.
0.65 0.0569986 0.
0.652 0.0569986 0.
0.654 0.0569986 0.
0.656 0.0569986 0.
0.658 0.0569986 0.
0.66 0.0569986 0.
0.662 0.0569986 0.
0.664 0.0569986 0.
0.666001 0.0569986 0.
0.668001 0.0569987 0.
0.670001 0.056999 0.
0.672001 0.0569992 0.
0.674002 0.0569985 0.
0.676003 0.0569977 0.
0.678003 0.056997 0.
0.680004 0.0569974 0.
0.682004 0.0569978 0.
0.684004 0.0569983 0.
0.686005 0.0569987 0.
0.688005 0.0569991 0.
0.690006 0.0569998 0.
0.692006 0.0570006 0.
0.694007 0.0570014 0.
0.696008 0.0570023 0.
0.69801 0.0570032 0.
0.499993 0.0590033 0.
0.501993 0.0590018 0.
0.503993 0.059001 0.
0.505994 0.0590001 0.
0.507995 0.0589993 0.
0.509996 0.0589984 0.
0.511997 0.0589979 0.
0.513997 0.0589979 0.
0.515998 0.0589979 0.
0.517998 0.0589978 0.
0.519998 0.0589976 0.
0.521998 0.0589974 0.
0.523999 0.0589978 0.
0.525999 0.0589981 0.
0.528 0.0589985 0.
0.53 0.0589986 0.
0.532 0.0589988 0.
0.534001 0.0589989 0.
0.536001 0.0589991 0.
0.538001 0.0589993 0.
0.540001 0.0589996 0.
0.542002 0.0589999 0.
0.544002 0.0590003 0.
0.546002 0.0590003 0.
0.548002 0.0590002 0.
0.550002 0.0590002 0.
0.552002 0.0590004 0.
0.554002 0.0590006 0.
0.556002 0.059001 0.
0.558002 0.0590017 0.
0.560002 0.0590025 0.
0.562002 0.0590031 0.
0.564002 0.0590036 0.
0.566002 0.0590041 0.
0.568002 0.0590042 0.
0.570002 0.0590042 0.
0.572002 0.0590041 0.
0.574002 0.0590048 0.
0.576002 0.0590055 0.
0.578002 0.0590062 0.
0.580002 0.0590059 0.
0.582001 0.0590056 0.
0.584001 0.0590053 0.
0.586001 0.0590053 0.
0.588001 0.0590053 0.
0.590001 0.0590056 0.
0.592001 0.0590062 0.
0.594001 0.0590069 0.
0.596001 0.0590068 0.
0.598001 0.0590065 0.
0.600001 0.0590063 0.
0.602001 0.0590063 0.
0.604002 0.0590063 0.
0.606002 0.0590061 0.
0.608002 0.0590055 0.
0.610001 0.0590049 0.
0.612001 0.0590047 0.
0.614001 0.059005 0.
0.616001 0.0590053 0.
0.618001 0.0590052 0.
0.62 0.0590049 0.
0.622 0.0590046 0.
0.624 0.059004 0.
0.626 0.0590033 0.
0.627999 0.0590028 0.
0.629999 0.0590026 0.
0.631999 0.0590025 0.
0.633999 0.0590023 0.
0.635999 0.0590017 0.
0.637999 0.0590011 0.
0.639999 0.0590007 0.
0.641999 0.0590005 0.
0.643999 0.0590002 0.
0.645999 0.0589996 0.
0.647999 0.058999 0.
0.649999 0.0589983 0.
0.651999 0.0589987 0.
0.653999 0.0589992 0.
0.655999 0.0589994 0.
0.657999 0.0589991 0.
0.659999 0.0589988 0.
0.661999 0.0589986 0.
0.663999 0.0589986 0.
0.665999 0.0589985 0.
0.668 0.0589988 0.
0.67 0.0589991 0.
0.672001 0.0589995 0.
0.674001 0.0589985 0.
0.676002 0.0589973 0.
0.678003 0.0589963 0.
0.680003 0.058997 0.
0.682003 0.0589976 0.
0.684003 0.0589982 0.
0.686004 0.0589985 0.
0.688004 0.0589989 0.
0.690005 0.0589997 0.
0.692006 0.0590007 0.
0.694007 0.0590018 0.
0.696008 0.0590023 0.
0.69801 0.0590027 0.
0.499994 0.0610032 0.
0.501994 0.0610017 0.
0.503994 0.0610008 0.
0.505995 0.061 0.
0.507996 0.0609992 0.
0.509997 0.0609984 0.
0.511998 0.060998 0.
0.513998 0.0609979 0.
0.515998 0.0609978 0.
0.517998 0.0609976 0.
0.519999 0.0609974 0.
0.521999 0.0609973 0.
0.523999 0.0609976 0.
0.526 0.060998 0.
0.528 0.0609983 0.
0.530001 0.0609986 0.
0.532001 0.0609988 0.
0.534001 0.060999 0.
0.536001 0.0609991 0.
0.538001 0.0609993 0.
0.540002 0.0609995 0.
0.542002 0.0609998 0.
0.544002 0.0610001 0.
0.546002 0.0610002 0.
0.548002 0.0610002 0.
0.550002 0.0610003 0.
0.552002 0.0610004 0.
0.554002 0.0610006 0.
0.556002 0.0610009 0.
0.558002 0.0610018 0.
0.560002 0.0610027 0.
0.562002 0.0610033 0.
0.564002 0.0610038 0.
0.566002 0.0610042 0.
0.568002 0.0610043 0.
0.570002 0.0610041 0.
0.572002 0.0610039 0.
0.574002 0.0610046 0.
0.576002 0.0610054 0.
0.578002 0.0610061 0.
0.580001 0.0610058 0.
0.582001 0.0610055 0.
0.584001 0.0610053 0.
0.586001 0.0610053 0.
0.588001 0.0610053 0.
0.590001 0.0610057 0.
0.592001 0.0610063 0.
0.594001 0.0610069 0.
0.596001 0.0610069 0.
0.598001 0.0610066 0.
0.600001 0.0610063 0.
0.602001 0.0610064 0.
0.604002 0.0610064 0.
0.606002 0.0610064 0.
0.608001 0.0610058 0.
0.610001 0.0610051 0.
0.612001 0.0610049 0.
0.614001 0.061005 0.
0.616001 0.0610052 0.
0.618001 0.0610052 0.
0.620001 0.0610051 0.
0.622 0.061005 0.
0.624 0.0610042 0.
0.626 0.0610034 0.
0.628 0.0610026 0.
0.629999 0.0610025 0.
0.631999 0.0610024 0.
0.633999 0.0610021 0.
0.635999 0.0610016 0.
0.637998 0.0610011 0.
0.639998 0.0610008 0.
0.641999 0.0610005 0.
0.643999 0.0610002 0.
0.645999 0.0609996 0.
0.647999 0.0609989 0.
0.649998 0.0609982 0.
0.651999 0.0609988 0.
0.653999 0.0609994 0.
0.655999 0.0609998 0.
0.657999 0.0609995 0.
0.659999 0.0609992 0.
0.661999 0.060999 0.
0.663999 0.0609989 0.
0.665999 0.0609987 0.
0.667999 0.0609989 0.
0.67 0.0609992 0.
0.672 0.0609995 0.
0.674001 0.0609983 0.
0.676001 0.060997 0.
0.678002 0.0609958 0.
0.680002 0.0609966 0.
0.682002 0.0609973 0.
0.684002 0.0609979 0.
0.686003 0.0609983 0.
0.688004 0.0609986 0.
0.690004 0.0609994 0.
0.692005 0.0610005 0.
0.694006 0.0610016 0.
0.696007 0.0610019 0.
0.698009 0.061002 0.
0.499996 0.0630032 0.
0.501996 0.0630017 0.
0.503996 0.0630008 0.
0.505996 0.0629999 0.
0.507997 0.0629992 0.
0.509997 0.0629984 0.
0.511998 0.0629979 0.
0.513998 0.0629978 0.
0.515998 0.0629976 0.
0.517999 0.0629974 0.
0.519999 0.0629973 0.
0.522 0.0629971 0.
0.524 0.0629976 0.
0.526001 0.0629982 0.
0.528001 0.0629988 0.
0.530001 0.0629988 0.
0.532001 0.0629988 0.
0.534001 0.0629989 0.
0.536002 0.0629992 0.
0.538002 0.0629995 0.
0.540002 0.0629997 0.
0.542002 0.063 0.
0.544003 0.0630002 0.
0.546003 0.0630004 0.
0.548003 0.0630006 0.
0.550003 0.0630008 0.
0.552002 0.0630007 0.
0.554002 0.0630006 0.
0.556002 0.0630008 0.
0.558002 0.0630019 0.
0.560002 0.063003 0.
0.562002 0.0630038 0.
0.564002 0.0630041 0.
0.566001 0.0630044 0.
0.568001 0.0630044 0.
0.570002 0.0630042 0.
0.572002 0.0630041 0.
0.574002 0.0630047 0.
0.576001 0.0630054 0.
0.578001 0.063006 0.
0.580001 0.0630057 0.
0.582001 0.0630053 0.
0.584001 0.0630052 0.
0.586001 0.0630053 0.
0.588 0.0630055 0.
0.59 0.0630059 0.
0.592001 0.0630064 0.
0.594001 0.0630069 0.
0.596001 0.0630069 0.
0.598001 0.0630067 0.
0.600001 0.0630065 0.
0.602001 0.0630066 0.
0.604001 0.0630067 0.
0.606001 0.0630067 0.
0.608001 0.063006 0.
0.610001 0.0630054 0.
0.612 0.063005 0.
0.614 0.0630049 0.
0.616 0.0630048 0.
0.618 0.0630049 0.
0.62 0.0630052 0.
0.622 0.0630054 0.
0.624 0.0630045 0.
0.626 0.0630035 0.
0.627999 0.0630026 0.
0.629999 0.0630025 0.
0.631999 0.0630025 0.
0.633999 0.0630023 0.
0.635999 0.063002 0.
0.637998 0.0630017 0.
0.639999 0.0630012 0.
0.641999 0.0630006 0.
0.643999 0.063 0.
0.645999 0.0629994 0.
0.647998 0.0629989 0.
0.649998 0.0629983 0.
0.651998 0.0629989 0.
0.653998 0.0629994 0.
0.655999 0.0629998 0.
0.657999 0.0629998 0.
0.659999 0.0629997 0.
0.661999 0.0629996 0.
0.663999 0.0629993 0.
0.665999 0.0629991 0.
0.667999 0.0629991 0.
0.67 0.0629992 0.
0.672 0.0629994 0.
0.674 0.0629981 0.
0.676001 0.0629967 0.
0.678001 0.0629955 0.
0.680001 0.0629962 0.
0.682001 0.062997 0.
0.684002 0.0629976 0.
0.686002 0.0629979 0.
0.688003 0.0629983 0.
0.690003 0.062999 0.
0.692004 0.0629999 0.
0.694005 0.0630009 0.
0.696006 0.0630011 0.
0.698007 0.063001 0.
0.499998 0.0650031 0.
0.501998 0.0650017 0.
0.503998 0.0650007 0.
0.505998 0.0649998 0.
0.507998 0.0649991 0.
0.509998 0.0649984 0.
0.511998 0.0649979 0.
0.513998 0.0649977 0.
0.515998 0.0649974 0.
0.517999 0.0649972 0.
0.52 0.0649971 0.
0.522001 0.064997 0.
0.524001 0.0649977 0.
0.526001 0.0649985 0.
0.528002 0.0649992 0.
0.530002 0.064999 0.
0.532001 0.0649988 0.
0.534001 0.0649988 0.
0.536002 0.0649992 0.
0.538002 0.0649996 0.
0.540002 0.065 0.
0.542002 0.0650002 0.
0.544003 0.0650004 0.
0.546003 0.0650006 0.
0.548003 0.0650009 0.
0.550003 0.0650012 0.
0.552002 0.0650009 0.
0.554002 0.0650006 0.
0.556002 0.0650006 0.
0.558002 0.065002 0.
0.560002 0.0650033 0.
0.562002 0.0650042 0.
0.564002 0.0650044 0.
0.566001 0.0650046 0.
0.568001 0.0650045 0.
0.570002 0.0650044 0.
0.572002 0.0650042 0.
0.574001 0.0650048 0.
0.576001 0.0650054 0.
0.578001 0.0650059 0.
0.580001 0.0650056 0.
0.582001 0.0650052 0.
0.584001 0.065005 0.
0.586 0.0650053 0.
0.588 0.0650056 0.
0.59 0.065006 0.
0.592 0.0650064 0.
0.594001 0.0650069 0.
0.596001 0.0650069 0.
0.598001 0.0650068 0.
0.600001 0.0650067 0.
0.602001 0.0650068 0.
0.604001 0.065007 0.
0.606001 0.0650069 0.
0.608001 0.0650063 0.
0.610001 0.0650056 0.
0.612 0.0650051 0.
0.614 0.0650048 0.
0.616 0.0650044 0.
0.618 0.0650047 0.
0.62 0.0650053 0.
0.622 0.0650059 0.
0.624 0.0650049 0.
0.626 0.0650037 0.
0.627999 0.0650026 0.
0.629999 0.0650026 0.
0.631998 0.0650026 0.
0.633998 0.0650025 0.
0.635998 0.0650024 0.
0.637999 0.0650022 0.
0.639999 0.0650016 0.
0.641999 0.0650006 0.
0.644 0.0649997 0.
0.645999 0.0649992 0.
0.647998 0.0649988 0.
0.649998 0.0649984 0.
0.651998 0.0649989 0.
0.653998 0.0649994 0.
0.655999 0.0649998 0.
0.657999 0.065 0.
0.66 0.0650003 0.
0.662 0.0650002 0.
0.664 0.0649998 0.
0.666 0.0649995 0.
0.668 0.0649993 0.
0.67 0.0649993 0.
0.672 0.0649992 0.
0.674 0.0649979 0.
0.676 0.0649964 0.
0.678 0.0649951 0.
0.68 0.0649959 0.
0.682001 0.0649966 0.
0.684001 0.0649972 0.
0.686002 0.0649976 0.
0.688002 0.0649979 0.
0.690002 0.0649985 0.
0.692003 0.0649994 0.
0.694004 0.0650002 0.
0.696005 0.0650002 0.
0.698005 0.065 0.
0.499998 0.0670032 0.
0.501998 0.0670016 0.
0.503998 0.0670005 0.
0.505998 0.0669995 0.
0.507998 0.066999 0.
0.509998 0.0669985 0.
0.511998 0.066998 0.
0.513999 0.0669975 0.
0.515999 0.066997 0.
0.518 0.066997 0.
0.52 0.0669971 0.
0.522001 0.0669972 0.
0.524001 0.0669977 0.
0.526001 0.0669983 0.
0.528002 0.0669989 0.
0.530002 0.0669988 0.
0.532002 0.0669988 0.
0.534002 0.0669989 0.
0.536003 0.0669991 0.
0.538003 0.0669994 0.
0.540003 0.0669996 0.
0.542003 0.067 0.
0.544004 0.0670003 0.
0.546003 0.0670007 0.
0.548003 0.0670011 0.
0.550003 0.0670015 0.
0.552003 0.0670015 0.
0.554003 0.0670014 0.
0.556002 0.0670016 0.
0.558002 0.0670027 0.
0.560002 0.0670037 0.
0.562002 0.0670044 0.
0.564002 0.0670046 0.
0.566002 0.0670048 0.
0.568002 0.0670047 0.
0.570002 0.0670043 0.
0.572002 0.067004 0.
0.574002 0.0670046 0.
0.576001 0.0670053 0.
0.578001 0.0670059 0.
0.580001 0.0670057 0.
0.582001 0.0670055 0.
0.584001 0.0670054 0.
0.586 0.0670056 0.
0.588 0.0670059 0.
0.59 0.0670062 0.
0.592 0.0670065 0.
0.594001 0.0670069 0.
0.596001 0.0670071 0.
0.598001 0.0670071 0.
0.600001 0.0670072 0.
0.602001 0.067007 0.
0.604001 0.0670069 0.
0.606001 0.0670067 0.
0.608 0.0670062 0.
0.61 0.0670058 0.
0.612 0.0670054 0.
0.614 0.0670051 0.
0.616 0.0670047 0.
0.618 0.0670049 0.
0.62 0.0670052 0.
0.621999 0.0670055 0.
0.623999 0.0670048 0.
0.625999 0.0670039 0.
0.627999 0.0670031 0.
0.629999 0.0670028 0.
0.631999 0.0670026 0.
0.633998 0.0670023 0.
0.635998 0.0670021 0.
0.637998 0.0670018 0.
0.639999 0.0670013 0.
0.641999 0.0670007 0.
0.643999 0.0670001 0.
0.645998 0.0669997 0.
0.647998 0.0669994 0.
0.649997 0.066999 0.
0.651997 0.0669993 0.
0.653998 0.0669995 0.
0.655998 0.0669997 0.
0.657998 0.0669997 0.
0.659998 0.0669997 0.
0.661999 0.0669996 0.
0.663999 0.0669995 0.
0.665999 0.0669994 0.
0.667999 0.0669992 0.
0.669999 0.066999 0.
0.672 0.0669988 0.
0.674 0.0669978 0.
0.676 0.0669966 0.
0.678 0.0669956 0.
0.68 0.0669961 0.
0.682001 0.0669966 0.
0.684001 0.0669971 0.
0.686001 0.0669973 0.
0.688002 0.0669976 0.
0.690002 0.0669981 0.
0.692003 0.0669989 0.
0.694003 0.0669998 0.
0.696004 0.0669999 0.
0.698004 0.0669999 0.
0.499999 0.0690032 0.
0.501999 0.0690015 0.
0.503998 0.0690002 0.
0.505998 0.0689991 0.
0.507998 0.0689988 0.
0.509998 0.0689986 0.
0.511999 0.0689981 0.
0.513999 0.0689974 0.
0.516 0.0689967 0.
0.518 0.0689967 0.
0.52 0.068997 0.
0.522001 0.0689974 0.
0.524001 0.0689978 0.
0.526002 0.0689982 0.
0.528002 0.0689985 0.
0.530002 0.0689987 0.
0.532003 0.0689989 0.
0.534003 0.068999 0.
0.536004 0.068999 0.
0.538004 0.0689991 0.
0.540004 0.0689993 0.
0.542004 0.0689998 0.
0.544004 0.0690002 0.
0.546004 0.0690007 0.
0.548004 0.0690012 0.
0.550004 0.0690017 0.
0.552004 0.069002 0.
0.554003 0.0690023 0.
0.556003 0.0690027 0.
0.558003 0.0690034 0.
0.560002 0.0690041 0.
0.562002 0.0690046 0.
0.564002 0.0690048 0.
0.566002 0.0690051 0.
0.568002 0.0690048 0.
0.570002 0.0690043 0.
0.572002 0.0690038 0.
0.574002 0.0690044 0.
0.576001 0.0690052 0.
0.578001 0.0690059 0.
0.580001 0.0690058 0.
0.582001 0.0690058 0.
0.584001 0.0690058 0.
0.586001 0.0690059 0.
0.588001 0.0690061 0.
0.590001 0.0690063 0.
0.592 0.0690067 0.
0.594 0.069007 0.
0.596 0.0690072 0.
0.598001 0.0690074 0.
0.600001 0.0690077 0.
0.602001 0.0690072 0.
0.604001 0.0690068 0.
0.606 0.0690064 0.
0.608 0.0690062 0.
0.61 0.0690059 0.
0.612 0.0690056 0.
0.614 0.0690053 0.
0.616 0.0690051 0.
0.617999 0.069005 0.
0.619999 0.0690051 0.
0.621999 0.0690052 0.
0.623999 0.0690047 0.
0.625999 0.0690041 0.
0.627999 0.0690036 0.
0.629999 0.0690031 0.
0.631999 0.0690025 0.
0.633998 0.0690021 0.
0.635998 0.0690018 0.
0.637998 0.0690014 0.
0.639998 0.0690011 0.
0.641998 0.0690008 0.
0.643998 0.0690005 0.
0.645998 0.0690002 0.
0.647997 0.0689999 0.
0.649997 0.0689997 0.
0.651997 0.0689997 0.
0.653997 0.0689997 0.
0.655997 0.0689997 0.
0.657997 0.0689994 0.
0.659997 0.0689992 0.
0.661997 0.0689991 0.
0.663997 0.0689991 0.
0.665998 0.0689992 0.
0.667998 0.068999 0.
0.669999 0.0689987 0.
0.672 0.0689984 0.
0.674 0.0689976 0.
0.676 0.0689968 0.
0.678 0.0689961 0.
0.68 0.0689964 0.
0.682001 0.0689967 0.
0.684001 0.0689969 0.
0.686001 0.0689971 0.
0.688001 0.0689972 0.
0.690002 0.0689977 0.
0.692002 0.0689985 0.
0.694002 0.0689993 0.
0.696003 0.0689996 0.
0.698003 0.0689998 0.
0.499999 0.0710027 0.
0.501999 0.0710012 0.
0.503999 0.071 0.
0.505999 0.070999 0.
0.507999 0.0709987 0.
0.509999 0.0709985 0.
0.511999 0.070998 0.
0.514 0.0709972 0.
0.516 0.0709964 0.
0.518001 0.0709964 0.
0.520001 0.0709969 0.
0.522001 0.0709974 0.
0.524002 0.0709977 0.
0.526002 0.070998 0.
0.528002 0.0709982 0.
0.530003 0.0709984 0.
0.532003 0.0709986 0.
0.534004 0.0709987 0.
0.536004 0.0709989 0.
0.538004 0.0709991 0.
0.540005 0.0709994 0.
0.542005 0.0709999 0.
0.544005 0.0710003 0.
0.546005 0.0710009 0.
0.548004 0.0710014 0.
0.550004 0.071002 0.
0.552004 0.0710023 0.
0.554004 0.0710027 0.
0.556003 0.0710031 0.
0.558003 0.0710037 0.
0.560002 0.0710043 0.
0.562002 0.0710048 0.
0.564002 0.071005 0.
0.566002 0.0710052 0.
0.568002 0.0710049 0.
0.570002 0.0710043 0.
0.572002 0.0710038 0.
0.574002 0.0710044 0.
0.576001 0.0710052 0.
0.578001 0.0710059 0.
0.580001 0.0710059 0.
0.582001 0.0710059 0.
0.584001 0.0710059 0.
0.586001 0.0710062 0.
0.588001 0.0710064 0.
0.590001 0.0710066 0.
0.592001 0.0710068 0.
0.594 0.0710069 0.
0.596 0.0710072 0.
0.598001 0.0710075 0.
0.600001 0.0710078 0.
0.602001 0.0710074 0.
0.604 0.071007 0.
0.606 0.0710066 0.
0.608 0.0710063 0.
0.61 0.071006 0.
0.612 0.0710058 0.
0.614 0.0710055 0.
0.616 0.0710052 0.
0.617999 0.0710051 0.
0.619999 0.0710051 0.
0.621998 0.071005 0.
0.623999 0.0710046 0.
0.625999 0.0710041 0.
0.627999 0.0710036 0.
0.629999 0.0710032 0.
0.631999 0.0710027 0.
0.633999 0.0710022 0.
0.635999 0.0710018 0.
0.637999 0.0710014 0.
0.639998 0.0710011 0.
0.641998 0.071001 0.
0.643998 0.0710008 0.
0.645997 0.0710006 0.
0.647997 0.0710005 0.
0.649997 0.0710004 0.
0.651997 0.0710002 0.
0.653997 0.071 0.
0.655997 0.0709997 0.
0.657997 0.0709994 0.
0.659997 0.0709991 0.
0.661997 0.070999 0.
0.663997 0.070999 0.
0.665997 0.070999 0.
0.667998 0.0709988 0.
0.669999 0.0709985 0.
0.671999 0.0709981 0.
0.674 0.0709976 0.
0.676 0.070997 0.
0.678 0.0709965 0.
0.68 0.0709966 0.
0.682 0.0709967 0.
0.684 0.0709968 0.
0.686001 0.070997 0.
0.688001 0.0709972 0.
0.690001 0.0709977 0.
0.692002 0.0709984 0.
0.694002 0.0709991 0.
0.696002 0.0709995 0.
0.698002 0.0709997 0.
0.499999 0.0730022 0.
0.501999 0.0730009 0.
0.503999 0.0729999 0.
0.505999 0.072999 0.
0.508 0.0729986 0.
0.51 0.0729982 0.
0.512001 0.0729976 0.
0.514001 0.0729969 0.
0.516001 0.0729962 0.
0.518002 0.0729963 0.
0.520002 0.0729967 0.
0.522002 0.0729971 0.
0.524002 0.0729974 0.
0.526003 0.0729977 0.
0.528003 0.072998 0.
0.530003 0.0729979 0.
0.532004 0.0729979 0.
0.534004 0.0729981 0.
0.536004 0.0729988 0.
0.538004 0.0729995 0.
0.540004 0.073 0.
0.542004 0.0730003 0.
0.544004 0.0730006 0.
0.546004 0.0730012 0.
0.548004 0.0730017 0.
0.550004 0.0730023 0.
0.552004 0.0730024 0.
0.554003 0.0730026 0.
0.556003 0.0730029 0.
0.558003 0.0730036 0.
0.560003 0.0730043 0.
0.562002 0.0730048 0.
0.564002 0.073005 0.
0.566002 0.0730052 0.
0.568002 0.0730049 0.
0.570002 0.0730045 0.
0.572002 0.073004 0.
0.574002 0.0730046 0.
0.576001 0.0730054 0.
0.578001 0.073006 0.
0.580001 0.0730059 0.
0.582001 0.0730058 0.
0.584001 0.0730058 0.
0.586001 0.0730063 0.
0.588001 0.0730068 0.
0.590001 0.073007 0.
0.592001 0.0730069 0.
0.594 0.0730068 0.
0.596 0.073007 0.
0.598 0.0730073 0.
0.6 0.0730076 0.
0.602 0.0730074 0.
0.604 0.0730073 0.
0.606 0.073007 0.
0.608 0.0730066 0.
0.61 0.0730062 0.
0.612 0.0730058 0.
0.614 0.0730055 0.
0.616 0.0730052 0.
0.618 0.0730051 0.
0.619999 0.0730051 0.
0.621999 0.0730051 0.
0.623999 0.0730045 0.
0.625999 0.0730039 0.
0.628 0.0730033 0.
0.629999 0.0730031 0.
0.631999 0.0730029 0.
0.633999 0.0730026 0.
0.635999 0.0730022 0.
0.637999 0.0730018 0.
0.639998 0.0730015 0.
0.641998 0.0730012 0.
0.643998 0.073001 0.
0.645997 0.073001 0.
0.647997 0.0730011 0.
0.649997 0.0730011 0.
0.651997 0.0730007 0.
0.653997 0.0730003 0.
0.655997 0.073 0.
0.657997 0.0729998 0.
0.659997 0.0729997 0.
0.661997 0.0729994 0.
0.663997 0.0729991 0.
0.665998 0.0729988 0.
0.667998 0.0729985 0.
0.669998 0.0729982 0.
0.671999 0.072998 0.
0.673999 0.0729976 0.
0.675999 0.0729972 0.
0.678 0.0729969 0.
0.68 0.0729968 0.
0.682 0.0729967 0.
0.684 0.0729968 0.
0.686 0.0729971 0.
0.688001 0.0729975 0.
0.690001 0.0729979 0.
0.692001 0.0729986 0.
0.694002 0.0729992 0.
0.696002 0.0729994 0.
0.698002 0.0729996 0.
0.5 0.0750015 0.
0.502 0.0750005 0.
0.504 0.0749997 0.
0.506 0.074999 0.
0.508001 0.0749984 0.
0.510001 0.0749978 0.
0.512002 0.0749973 0.
0.514002 0.0749966 0.
0.516002 0.074996 0.
0.518002 0.0749961 0.
0.520003 0.0749965 0.
0.522003 0.0749969 0.
0.524003 0.0749972 0.
0.526003 0.0749975 0.
0.528003 0.0749977 0.
0.530004 0.0749975 0.
0.532004 0.0749973 0.
0.534004 0.0749975 0.
0.536004 0.0749987 0.
0.538003 0.0749999 0.
0.540003 0.0750005 0.
0.542004 0.0750007 0.
0.544004 0.0750009 0.
0.546004 0.0750014 0.
0.548004 0.075002 0.
0.550004 0.0750026 0.
0.552004 0.0750026 0.
0.554003 0.0750025 0.
0.556003 0.0750026 0.
0.558003 0.0750035 0.
0.560003 0.0750043 0.
0.562003 0.0750049 0.
0.564002 0.075005 0.
0.566002 0.0750052 0.
0.568002 0.075005 0.
0.570002 0.0750046 0.
0.572003 0.0750041 0.
0.574002 0.0750048 0.
0.576001 0.0750055 0.
0.578001 0.0750061 0.
0.580001 0.0750059 0.
0.582002 0.0750056 0.
0.584002 0.0750057 0.
0.586002 0.0750065 0.
0.588002 0.0750072 0.
0.590001 0.0750074 0.
0.592001 0.075007 0.
0.594 0.0750067 0.
0.596 0.0750068 0.
0.598 0.0750071 0.
0.6 0.0750074 0.
0.602 0.0750075 0.
0.604 0.0750076 0.
0.606 0.0750075 0.
0.608 0.075007 0.
0.61 0.0750064 0.
0.612 0.0750059 0.
0.614 0.0750055 0.
0.616 0.0750051 0.
0.618 0.075005 0.
0.619999 0.0750051 0.
0.621999 0.0750052 0.
0.623999 0.0750044 0.
0.626 0.0750036 0.
0.628 0.0750029 0.
0.63 0.075003 0.
0.632 0.0750032 0.
0.633999 0.0750031 0.
0.635999 0.0750026 0.
0.637999 0.0750022 0.
0.639999 0.0750018 0.
0.641998 0.0750015 0.
0.643998 0.0750012 0.
0.645997 0.0750013 0.
0.647997 0.0750016 0.
0.649997 0.0750019 0.
0.651997 0.0750013 0.
0.653997 0.0750007 0.
0.655998 0.0750002 0.
0.657998 0.0750002 0.
0.659998 0.0750002 0.
0.661998 0.0749999 0.
0.663998 0.0749992 0.
0.665998 0.0749985 0.
0.667998 0.0749981 0.
0.669998 0.074998 0.
0.671999 0.0749978 0.
0.673999 0.0749976 0.
0.675999 0.0749974 0.
0.677999 0.0749972 0.
0.679999 0.074997 0.
0.681999 0.0749967 0.
0.683999 0.0749967 0.
0.686 0.0749972 0.
0.688 0.0749977 0.
0.690001 0.0749982 0.
0.692001 0.0749987 0.
0.694001 0.0749992 0.
0.696002 0.0749994 0.
0.698002 0.0749995 0.
0.5 0.0770017 0.
0.502 0.0770008 0.
0.504 0.077 0.
0.506001 0.0769992 0.
0.508001 0.0769987 0.
0.510002 0.0769982 0.
0.512002 0.0769976 0.
0.514002 0.076997 0.
0.516002 0.0769963 0.
0.518003 0.0769963 0.
0.520003 0.0769967 0.
0.522003 0.0769971 0.
0.524003 0.0769972 0.
0.526003 0.0769974 0.
0.528003 0.0769975 0.
0.530004 0.0769975 0.
0.532004 0.0769974 0.
0.534004 0.0769977 0.
0.536004 0.0769986 0.
0.538004 0.0769995 0.
0.540004 0.0770002 0.
0.542004 0.0770005 0.
0.544005 0.0770009 0.
0.546004 0.0770013 0.
0.548004 0.0770017 0.
0.550004 0.0770022 0.
0.552004 0.0770025 0.
0.554004 0.0770028 0.
0.556003 0.0770031 0.
0.558003 0.0770037 0.
0.560003 0.0770043 0.
0.562003 0.0770047 0.
0.564003 0.0770048 0.
0.566003 0.0770049 0.
0.568003 0.0770048 0.
0.570003 0.0770044 0.
0.572003 0.0770041 0.
0.574003 0.0770047 0.
0.576002 0.0770054 0.
0.578001 0.077006 0.
0.580002 0.077006 0.
0.582002 0.0770059 0.
0.584002 0.0770061 0.
0.586002 0.0770068 0.
0.588002 0.0770075 0.
0.590001 0.0770077 0.
0.592001 0.0770074 0.
0.594001 0.0770071 0.
0.596001 0.0770072 0.
0.598 0.0770073 0.
0.6 0.0770074 0.
0.602 0.0770075 0.
0.604 0.0770076 0.
0.606 0.0770076 0.
0.608 0.0770073 0.
0.61 0.0770069 0.
0.612 0.0770065 0.
0.614 0.077006 0.
0.616 0.0770055 0.
0.617999 0.0770054 0.
0.619999 0.0770055 0.
0.621999 0.0770056 0.
0.623999 0.077005 0.
0.625999 0.0770043 0.
0.627999 0.0770036 0.
0.629999 0.0770034 0.
0.631999 0.0770032 0.
0.633999 0.077003 0.
0.635999 0.0770027 0.
0.637999 0.0770024 0.
0.639998 0.0770022 0.
0.641998 0.077002 0.
0.643997 0.0770019 0.
0.645997 0.0770019 0.
0.647997 0.0770018 0.
0.649997 0.0770018 0.
0.651997 0.0770014 0.
0.653997 0.0770009 0.
0.655997 0.0770006 0.
0.657997 0.0770006 0.
0.659997 0.0770006 0.
0.661997 0.0770002 0.
0.663998 0.0769994 0.
0.665998 0.0769985 0.
0.667998 0.076998 0.
0.669998 0.0769977 0.
0.671999 0.0769974 0.
0.673999 0.0769974 0.
0.675999 0.0769974 0.
0.678 0.0769974 0.
0.68 0.0769972 0.
0.682 0.0769971 0.
0.684 0.0769971 0.
0.686 0.0769974 0.
0.688 0.0769977 0.
0.69 0.0769982 0.
0.692001 0.0769987 0.
0.694001 0.0769992 0.
0.696001 0.0769993 0.
0.698002 0.0769992 0.
0.5 0.0790019 0.
0.502 0.0790011 0.
0.504001 0.0790002 0.
0.506002 0.0789995 0.
0.508002 0.078999 0.
0.510002 0.0789986 0.
0.512003 0.078998 0.
0.514002 0.0789973 0.
0.516002 0.0789966 0.
0.518003 0.0789966 0.
0.520003 0.0789969 0.
0.522003 0.0789972 0.
0.524003 0.0789973 0.
0.526003 0.0789973 0.
0.528003 0.0789973 0.
0.530004 0.0789974 0.
0.532005 0.0789975 0.
0.534005 0.0789979 0.
0.536005 0.0789985 0.
0.538005 0.0789992 0.
0.540005 0.0789998 0.
0.542005 0.0790003 0.
0.544005 0.0790009 0.
0.546005 0.0790012 0.
0.548004 0.0790014 0.
0.550004 0.0790017 0.
0.552004 0.0790024 0.
0.554004 0.079003 0.
0.556004 0.0790036 0.
0.558004 0.079004 0.
0.560004 0.0790044 0.
0.562004 0.0790046 0.
0.564003 0.0790046 0.
0.566003 0.0790047 0.
0.568003 0.0790045 0.
0.570004 0.0790043 0.
0.572004 0.0790041 0.
0.574003 0.0790046 0.
0.576003 0.0790053 0.
0.578002 0.0790059 0.
0.580002 0.0790061 0.
0.582002 0.0790063 0.
0.584002 0.0790066 0.
0.586002 0.0790072 0.
0.588001 0.0790078 0.
0.590001 0.0790079 0.
0.592001 0.0790077 0.
0.594001 0.0790075 0.
0.596001 0.0790075 0.
0.598001 0.0790075 0.
0.600001 0.0790075 0.
0.602001 0.0790076 0.
0.604001 0.0790077 0.
0.606001 0.0790077 0.
0.608001 0.0790076 0.
0.610001 0.0790074 0.
0.612 0.0790071 0.
0.614 0.0790064 0.
0.615999 0.0790058 0.
0.617999 0.0790057 0.
0.619999 0.0790059 0.
0.621999 0.0790061 0.
0.623999 0.0790056 0.
0.625999 0.0790049 0.
0.627999 0.0790043 0.
0.629998 0.0790038 0.
0.631998 0.0790033 0.
0.633998 0.0790029 0.
0.635998 0.0790027 0.
0.637999 0.0790026 0.
0.639998 0.0790025 0.
0.641998 0.0790026 0.
0.643997 0.0790026 0.
0.645997 0.0790024 0.
0.647997 0.079002 0.
0.649997 0.0790017 0.
0.651997 0.0790014 0.
0.653997 0.0790011 0.
0.655997 0.0790009 0.
0.657997 0.079001 0.
0.659997 0.079001 0.
0.661997 0.0790006 0.
0.663997 0.0789996 0.
0.665997 0.0789986 0.
0.667998 0.0789979 0.
0.669999 0.0789975 0.
0.671999 0.078997 0.
0.673999 0.0789972 0.
0.676 0.0789974 0.
0.678 0.0789975 0.
0.68 0.0789975 0.
0.682 0.0789974 0.
0.684 0.0789974 0.
0.686 0.0789976 0.
0.688 0.0789977 0.
0.69 0.0789981 0.
0.692 0.0789986 0.
0.694001 0.0789991 0.
0.696001 0.0789991 0.
0.698001 0.0789989 0.
0.5 0.0810017 0.
0.502001 0.0810009 0.
0.504002 0.081 0.
0.506002 0.0809993 0.
0.508003 0.080999 0.
0.510003 0.0809986 0.
0.512003 0.0809982 0.
0.514003 0.0809975 0.
0.516002 0.0809969 0.
0.518003 0.0809968 0.
0.520003 0.080997 0.
0.522003 0.0809972 0.
0.524003 0.0809971 0.
0.526003 0.080997 0.
0.528003 0.0809968 0.
0.530004 0.0809972 0.
0.532004 0.0809975 0.
0.534005 0.0809979 0.
0.536005 0.0809984 0.
0.538005 0.080999 0.
0.540005 0.0809996 0.
0.542005 0.0810001 0.
0.544005 0.0810007 0.
0.546005 0.0810011 0.
0.548004 0.0810013 0.
0.550004 0.0810016 0.
0.552004 0.0810024 0.
0.554004 0.0810031 0.
0.556004 0.0810038 0.
0.558004 0.081004 0.
0.560004 0.0810042 0.
0.562004 0.0810044 0.
0.564004 0.0810045 0.
0.566004 0.0810046 0.
0.568004 0.0810045 0.
0.570004 0.0810044 0.
0.572004 0.0810043 0.
0.574003 0.0810048 0.
0.576003 0.0810054 0.
0.578002 0.0810059 0.
0.580002 0.0810062 0.
0.582002 0.0810065 0.
0.584001 0.0810069 0.
0.586001 0.0810073 0.
0.588001 0.0810078 0.
0.590001 0.081008 0.
0.592001 0.0810079 0.
0.594001 0.0810079 0.
0.596001 0.0810079 0.
0.598001 0.0810079 0.
0.600001 0.0810079 0.
0.602001 0.0810078 0.
0.604001 0.0810077 0.
0.606001 0.0810077 0.
0.608001 0.0810077 0.
0.610001 0.0810077 0.
0.612 0.0810074 0.
0.614 0.0810067 0.
0.615999 0.0810061 0.
0.617999 0.081006 0.
0.619999 0.0810061 0.
0.621999 0.0810061 0.
0.623999 0.0810057 0.
0.625999 0.0810052 0.
0.627999 0.0810047 0.
0.629998 0.0810041 0.
0.631998 0.0810034 0.
0.633998 0.0810029 0.
0.635998 0.0810029 0.
0.637998 0.0810028 0.
0.639998 0.0810028 0.
0.641997 0.0810029 0.
0.643997 0.0810029 0.
0.645997 0.0810025 0.
0.647997 0.081002 0.
0.649997 0.0810014 0.
0.651997 0.0810014 0.
0.653997 0.0810013 0.
0.655997 0.0810013 0.
0.657997 0.0810012 0.
0.659997 0.081001 0.
0.661997 0.0810006 0.
0.663997 0.0809996 0.
0.665997 0.0809986 0.
0.667998 0.0809979 0.
0.669999 0.0809973 0.
0.671999 0.0809967 0.
0.674 0.0809969 0.
0.676 0.0809972 0.
0.678 0.0809975 0.
0.68 0.0809976 0.
0.682 0.0809977 0.
0.684 0.0809978 0.
0.686 0.0809979 0.
0.688 0.080998 0.
0.69 0.0809983 0.
0.692 0.0809987 0.
0.694 0.0809992 0.
0.696 0.080999 0.
0.698 0.0809987 0.
0.500001 0.083001 0.
0.502001 0.0830002 0.
0.504002 0.0829994 0.
0.506003 0.0829988 0.
0.508003 0.0829986 0.
0.510003 0.0829984 0.
0.512003 0.0829981 0.
0.514003 0.0829976 0.
0.516002 0.0829971 0.
0.518002 0.0829969 0.
0.520003 0.082997 0.
0.522003 0.082997 0.
0.524003 0.0829968 0.
0.526003 0.0829965 0.
0.528003 0.0829963 0.
0.530003 0.0829968 0.
0.532003 0.0829973 0.
0.534004 0.0829978 0.
0.536004 0.0829984 0.
0.538004 0.082999 0.
0.540005 0.0829995 0.
0.542005 0.083 0.
0.544005 0.0830006 0.
0.546005 0.083001 0.
0.548005 0.0830014 0.
0.550005 0.0830018 0.
0.552004 0.0830024 0.
0.554004 0.083003 0.
0.556004 0.0830035 0.
0.558004 0.0830037 0.
0.560004 0.0830039 0.
0.562004 0.0830041 0.
0.564004 0.0830043 0.
0.566004 0.0830046 0.
0.568004 0.0830047 0.
0.570004 0.0830048 0.
0.572004 0.0830048 0.
0.574003 0.0830052 0.
0.576002 0.0830056 0.
0.578002 0.083006 0.
0.580001 0.0830064 0.
0.582001 0.0830067 0.
0.584001 0.083007 0.
0.586001 0.0830073 0.
0.588001 0.0830076 0.
0.590001 0.0830079 0.
0.592002 0.083008 0.
0.594002 0.0830082 0.
0.596002 0.0830084 0.
0.598001 0.0830085 0.
0.600001 0.0830087 0.
0.602001 0.0830083 0.
0.604001 0.0830079 0.
0.606001 0.0830076 0.
0.608001 0.0830076 0.
0.610001 0.0830076 0.
0.612001 0.0830074 0.
0.614 0.0830069 0.
0.616 0.0830064 0.
0.618 0.0830061 0.
0.62 0.0830059 0.
0.622 0.0830058 0.
0.624 0.0830055 0.
0.626 0.0830053 0.
0.627999 0.083005 0.
0.629999 0.0830043 0.
0.631998 0.0830036 0.
0.633998 0.0830031 0.
0.635998 0.0830031 0.
0.637998 0.0830031 0.
0.639998 0.0830031 0.
0.641997 0.083003 0.
0.643997 0.0830029 0.
0.645997 0.0830024 0.
0.647997 0.0830017 0.
0.649997 0.083001 0.
0.651997 0.0830013 0.
0.653997 0.0830015 0.
0.655997 0.0830016 0.
0.657997 0.0830012 0.
0.659997 0.0830008 0.
0.661997 0.0830002 0.
0.663998 0.0829995 0.
0.665998 0.0829987 0.
0.667998 0.082998 0.
0.669999 0.0829972 0.
0.671999 0.0829964 0.
0.674 0.0829966 0.
0.676 0.0829969 0.
0.678 0.0829973 0.
0.68 0.0829976 0.
0.682 0.0829979 0.
0.683999 0.0829981 0.
0.685999 0.0829983 0.
0.687999 0.0829984 0.
0.689999 0.0829987 0.
0.691999 0.0829989 0.
0.694 0.0829992 0.
0.696 0.082999 0.
0.697999 0.0829986 0.
0.500002 0.0850004 0.
0.502002 0.0849996 0.
0.504002 0.0849988 0.
0.506003 0.0849982 0.
0.508003 0.0849982 0.
0.510003 0.0849983 0.
0.512003 0.0849981 0.
0.514003 0.0849977 0.
0.516002 0.0849973 0.
0.518002 0.0849971 0.
0.520002 0.0849969 0.
0.522002 0.0849968 0.
0.524002 0.0849964 0.
0.526002 0.084996 0.
0.528002 0.0849957 0.
0.530002 0.0849964 0.
0.532002 0.0849971 0.
0.534003 0.0849977 0.
0.536003 0.0849983 0.
0.538004 0.084999 0.
0.540004 0.0849995 0.
0.542005 0.0849999 0.
0.544005 0.0850004 0.
0.546005 0.0850009 0.
0.548005 0.0850015 0.
0.550005 0.085002 0.
0.552005 0.0850025 0.
0.554004 0.0850029 0.
0.556004 0.0850033 0.
0.558004 0.0850034 0.
0.560004 0.0850035 0.
0.562004 0.0850038 0.
0.564004 0.0850042 0.
0.566004 0.0850046 0.
0.568004 0.0850049 0.
0.570004 0.0850051 0.
0.572003 0.0850053 0.
0.574003 0.0850056 0.
0.576002 0.0850058 0.
0.578001 0.0850061 0.
0.580001 0.0850065 0.
0.582001 0.0850069 0.
0.584001 0.0850072 0.
0.586001 0.0850073 0.
0.588001 0.0850075 0.
0.590002 0.0850078 0.
0.592002 0.0850081 0.
0.594002 0.0850085 0.
0.596002 0.0850089 0.
0.598001 0.0850092 0.
0.600001 0.0850095 0.
0.602001 0.0850088 0.
0.604001 0.085008 0.
0.606001 0.0850075 0.
0.608001 0.0850075 0.
0.610001 0.0850075 0.
0.612001 0.0850074 0.
0.614001 0.085007 0.
0.616001 0.0850067 0.
0.618001 0.0850062 0.
0.62 0.0850058 0.
0.622 0.0850054 0.
0.624 0.0850053 0.
0.626 0.0850053 0.
0.628 0.0850052 0.
0.629999 0.0850045 0.
0.631999 0.0850038 0.
0.633998 0.0850034 0.
0.635998 0.0850034 0.
0.637998 0.0850034 0.
0.639998 0.0850033 0.
0.641997 0.0850031 0.
0.643996 0.0850029 0.
0.645996 0.0850022 0.
0.647996 0.0850014 0.
0.649996 0.0850006 0.
0.651996 0.0850012 0.
0.653997 0.0850017 0.
0.655997 0.085002 0.
0.657997 0.0850012 0.
0.659997 0.0850005 0.
0.661998 0.0849998 0.
0.663998 0.0849993 0.
0.665998 0.0849989 0.
0.667998 0.0849981 0.
0.669999 0.0849971 0.
0.671999 0.0849961 0.
0.674 0.0849963 0.
0.676 0.0849967 0.
0.678 0.0849971 0.
0.68 0.0849975 0.
0.681999 0.084998 0.
0.683999 0.0849984 0.
0.685999 0.0849987 0.
0.687999 0.0849989 0.
0.689999 0.0849991 0.
0.691999 0.0849992 0.
0.693999 0.0849993 0.
0.695999 0.0849989 0.
0.697998 0.0849985 0.
0.500002 0.0870003 0.
0.502002 0.0869996 0.
0.504003 0.0869991 0.
0.506003 0.0869986 0.
0.508003 0.0869986 0.
0.510004 0.0869986 0.
0.512004 0.0869983 0.
0.514003 0.0869978 0.
0.516003 0.0869972 0.
0.518003 0.0869971 0.
0.520003 0.0869972 0.
0.522003 0.0869973 0.
0.524003 0.0869969 0.
0.526003 0.0869963 0.
0.528003 0.0869959 0.
0.530003 0.0869964 0.
0.532003 0.086997 0.
0.534003 0.0869975 0.
0.536004 0.0869979 0.
0.538004 0.0869984 0.
0.540004 0.0869989 0.
0.542005 0.0869995 0.
0.544005 0.0870001 0.
0.546005 0.0870008 0.
0.548005 0.0870015 0.
0.550004 0.0870022 0.
0.552004 0.0870025 0.
0.554004 0.0870028 0.
0.556004 0.0870031 0.
0.558005 0.0870034 0.
0.560005 0.0870037 0.
0.562005 0.087004 0.
0.564004 0.0870044 0.
0.566004 0.0870048 0.
0.568004 0.087005 0.
0.570004 0.0870052 0.
0.572003 0.0870053 0.
0.574003 0.0870055 0.
0.576002 0.0870058 0.
0.578001 0.0870061 0.
0.580001 0.0870064 0.
0.582001 0.0870068 0.
0.584001 0.0870071 0.
0.586001 0.0870075 0.
0.588001 0.0870079 0.
0.590001 0.0870082 0.
0.592002 0.0870084 0.
0.594002 0.0870086 0.
0.596002 0.0870087 0.
0.598001 0.0870088 0.
0.600001 0.0870089 0.
0.602001 0.0870084 0.
0.604001 0.0870079 0.
0.606001 0.0870075 0.
0.608001 0.0870075 0.
0.610001 0.0870075 0.
0.612001 0.0870073 0.
0.614001 0.0870069 0.
0.616001 0.0870066 0.
0.618001 0.0870063 0.
0.620001 0.0870059 0.
0.622001 0.0870056 0.
0.624 0.0870054 0.
0.626 0.0870053 0.
0.628 0.0870051 0.
0.629999 0.0870045 0.
0.631999 0.0870039 0.
0.633999 0.0870035 0.
0.635998 0.0870033 0.
0.637998 0.0870032 0.
0.639998 0.0870031 0.
0.641998 0.087003 0.
0.643997 0.087003 0.
0.645997 0.0870026 0.
0.647997 0.087002 0.
0.649997 0.0870015 0.
0.651997 0.0870015 0.
0.653997 0.0870015 0.
0.655997 0.0870014 0.
0.657997 0.0870009 0.
0.659997 0.0870003 0.
0.661998 0.0869998 0.
0.663998 0.0869993 0.
0.665998 0.0869988 0.
0.667998 0.0869981 0.
0.669999 0.0869972 0.
0.671999 0.0869964 0.
0.673999 0.0869966 0.
0.675999 0.0869968 0.
0.678 0.0869971 0.
0.679999 0.0869976 0.
0.681999 0.0869982 0.
0.683999 0.0869986 0.
0.685999 0.0869989 0.
0.687998 0.0869991 0.
0.689998 0.0869993 0.
0.691999 0.0869992 0.
0.693999 0.0869992 0.
0.695999 0.0869988 0.
0.697998 0.0869981 0.
0.500002 0.089 0.
0.502003 0.0889996 0.
0.504003 0.0889993 0.
0.506003 0.088999 0.
0.508004 0.0889989 0.
0.510004 0.0889989 0.
0.512004 0.0889985 0.
0.514004 0.0889978 0.
0.516004 0.0889971 0.
0.518004 0.0889971 0.
0.520004 0.0889975 0.
0.522004 0.0889978 0.
0.524004 0.0889973 0.
0.526004 0.0889966 0.
0.528004 0.088996 0.
0.530004 0.0889964 0.
0.532004 0.0889968 0.
0.534004 0.0889972 0.
0.536004 0.0889975 0.
0.538004 0.0889978 0.
0.540004 0.0889984 0.
0.542005 0.0889991 0.
0.544005 0.0889999 0.
0.546004 0.0890007 0.
0.548004 0.0890016 0.
0.550004 0.0890024 0.
0.552004 0.0890026 0.
0.554004 0.0890028 0.
0.556005 0.089003 0.
0.558005 0.0890034 0.
0.560005 0.0890038 0.
0.562005 0.0890042 0.
0.564005 0.0890046 0.
0.566004 0.089005 0.
0.568004 0.0890051 0.
0.570004 0.0890052 0.
0.572003 0.0890053 0.
0.574002 0.0890055 0.
0.576002 0.0890058 0.
0.578001 0.089006 0.
0.580001 0.0890063 0.
0.582001 0.0890066 0.
0.584001 0.0890071 0.
0.586001 0.0890077 0.
0.588001 0.0890084 0.
0.590001 0.0890087 0.
0.592002 0.0890087 0.
0.594002 0.0890087 0.
0.596001 0.0890086 0.
0.598001 0.0890084 0.
0.6 0.0890083 0.
0.602001 0.089008 0.
0.604001 0.0890077 0.
0.606002 0.0890075 0.
0.608001 0.0890075 0.
0.610001 0.0890074 0.
0.612001 0.0890072 0.
0.614001 0.0890069 0.
0.616001 0.0890065 0.
0.618001 0.0890063 0.
0.620001 0.0890061 0.
0.622001 0.0890059 0.
0.624 0.0890056 0.
0.626 0.0890053 0.
0.628 0.0890049 0.
0.63 0.0890045 0.
0.631999 0.089004 0.
0.633999 0.0890036 0.
0.635999 0.0890033 0.
0.637998 0.0890029 0.
0.639998 0.0890029 0.
0.641998 0.089003 0.
0.643998 0.0890031 0.
0.645998 0.0890029 0.
0.647997 0.0890026 0.
0.649997 0.0890023 0.
0.651997 0.0890018 0.
0.653997 0.0890013 0.
0.655997 0.0890009 0.
0.657997 0.0890006 0.
0.659997 0.0890002 0.
0.661997 0.0889998 0.
0.663997 0.0889993 0.
0.665998 0.0889988 0.
0.667998 0.0889981 0.
0.669998 0.0889974 0.
0.671999 0.0889967 0.
0.673999 0.0889968 0.
0.675999 0.088997 0.
0.677999 0.0889972 0.
0.679999 0.0889977 0.
0.681999 0.0889983 0.
0.683999 0.0889987 0.
0.685999 0.0889991 0.
0.687998 0.0889994 0.
0.689998 0.0889994 0.
0.691998 0.0889993 0.
0.693999 0.0889992 0.
0.695999 0.0889986 0.
0.697999 0.0889978 0.
0.500003 0.0909998 0.
0.502003 0.0909995 0.
0.504003 0.0909994 0.
0.506004 0.0909992 0.
0.508004 0.090999 0.
0.510004 0.0909988 0.
0.512004 0.0909984 0.
0.514004 0.0909978 0.
0.516004 0.0909972 0.
0.518004 0.0909971 0.
0.520004 0.0909973 0.
0.522004 0.0909975 0.
0.524004 0.0909971 0.
0.526004 0.0909967 0.
0.528004 0.0909963 0.
0.530004 0.0909966 0.
0.532004 0.0909969 0.
0.534004 0.0909972 0.
0.536004 0.0909975 0.
0.538004 0.0909979 0.
0.540004 0.0909984 0.
0.542004 0.0909992 0.
0.544004 0.091 0.
0.546004 0.0910008 0.
0.548003 0.0910017 0.
0.550003 0.0910025 0.
0.552004 0.0910027 0.
0.554004 0.0910028 0.
0.556005 0.091003 0.
0.558005 0.0910034 0.
0.560005 0.0910039 0.
0.562005 0.0910043 0.
0.564005 0.0910047 0.
0.566004 0.0910052 0.
0.568004 0.0910053 0.
0.570003 0.0910053 0.
0.572003 0.0910053 0.
0.574002 0.0910056 0.
0.576002 0.0910058 0.
0.578001 0.0910061 0.
0.580001 0.0910064 0.
0.582001 0.0910066 0.
0.584001 0.091007 0.
0.586001 0.0910078 0.
0.588001 0.0910086 0.
0.590001 0.0910089 0.
0.592002 0.0910088 0.
0.594002 0.0910087 0.
0.596001 0.0910085 0.
0.598001 0.0910081 0.
0.6 0.0910078 0.
0.602001 0.0910077 0.
0.604001 0.0910076 0.
0.606002 0.0910075 0.
0.608001 0.0910075 0.
0.610001 0.0910074 0.
0.612001 0.0910073 0.
0.614001 0.0910069 0.
0.616001 0.0910066 0.
0.618001 0.0910064 0.
0.620001 0.0910062 0.
0.622001 0.091006 0.
0.624 0.0910056 0.
0.626 0.0910052 0.
0.628 0.0910047 0.
0.63 0.0910043 0.
0.632 0.0910039 0.
0.634 0.0910035 0.
0.635999 0.0910033 0.
0.637999 0.091003 0.
0.639999 0.0910029 0.
0.641999 0.0910031 0.
0.643999 0.0910033 0.
0.645998 0.0910032 0.
0.647998 0.0910031 0.
0.649997 0.0910029 0.
0.651997 0.0910021 0.
0.653997 0.0910013 0.
0.655997 0.0910006 0.
0.657997 0.0910002 0.
0.659997 0.0909998 0.
0.661998 0.0909994 0.
0.663998 0.0909991 0.
0.665998 0.0909987 0.
0.667998 0.0909981 0.
0.669998 0.0909974 0.
0.671998 0.0909967 0.
0.673999 0.0909968 0.
0.675999 0.090997 0.
0.677999 0.0909973 0.
0.679999 0.0909978 0.
0.681999 0.0909983 0.
0.683999 0.0909988 0.
0.685999 0.0909992 0.
0.687998 0.0909995 0.
0.689998 0.0909996 0.
0.691998 0.0909994 0.
0.693998 0.0909992 0.
0.695998 0.0909986 0.
0.697999 0.090998 0.
0.500004 0.0929994 0.
0.502004 0.0929993 0.
0.504004 0.0929992 0.
0.506004 0.0929991 0.
0.508004 0.0929988 0.
0.510004 0.0929984 0.
0.512004 0.0929981 0.
0.514004 0.0929977 0.
0.516004 0.0929973 0.
0.518004 0.092997 0.
0.520004 0.0929967 0.
0.522004 0.0929964 0.
0.524004 0.0929964 0.
0.526004 0.0929965 0.
0.528004 0.0929966 0.
0.530004 0.0929969 0.
0.532004 0.0929972 0.
0.534004 0.0929975 0.
0.536004 0.092998 0.
0.538004 0.0929985 0.
0.540004 0.0929991 0.
0.542004 0.0929997 0.
0.544004 0.0930004 0.
0.546003 0.0930011 0.
0.548003 0.0930018 0.
0.550003 0.0930025 0.
0.552003 0.0930027 0.
0.554004 0.0930029 0.
0.556004 0.0930032 0.
0.558004 0.0930035 0.
0.560004 0.0930039 0.
0.562004 0.0930043 0.
0.564004 0.0930049 0.
0.566004 0.0930054 0.
0.568004 0.0930056 0.
0.570003 0.0930055 0.
0.572003 0.0930055 0.
0.574003 0.0930057 0.
0.576002 0.093006 0.
0.578002 0.0930063 0.
0.580002 0.0930065 0.
0.582002 0.0930066 0.
0.584002 0.093007 0.
0.586002 0.0930078 0.
0.588001 0.0930086 0.
0.590001 0.0930089 0.
0.592002 0.0930088 0.
0.594002 0.0930088 0.
0.596001 0.0930084 0.
0.598001 0.093008 0.
0.600001 0.0930075 0.
0.602001 0.0930075 0.
0.604002 0.0930074 0.
0.606002 0.0930074 0.
0.608001 0.0930075 0.
0.610001 0.0930076 0.
0.612001 0.0930075 0.
0.614001 0.0930071 0.
0.616001 0.0930068 0.
0.618001 0.0930065 0.
0.620001 0.0930062 0.
0.622001 0.093006 0.
0.624 0.0930055 0.
0.626 0.093005 0.
0.628 0.0930045 0.
0.63 0.0930041 0.
0.632 0.0930036 0.
0.634 0.0930033 0.
0.636 0.0930033 0.
0.638 0.0930033 0.
0.64 0.0930033 0.
0.641999 0.0930034 0.
0.643999 0.0930034 0.
0.645999 0.0930034 0.
0.647998 0.0930033 0.
0.649998 0.0930032 0.
0.651998 0.0930023 0.
0.653998 0.0930014 0.
0.655997 0.0930006 0.
0.657998 0.0929999 0.
0.659998 0.0929992 0.
0.661998 0.0929987 0.
0.663998 0.0929986 0.
0.665998 0.0929985 0.
0.667998 0.092998 0.
0.669998 0.0929972 0.
0.671998 0.0929965 0.
0.673998 0.0929967 0.
0.675998 0.092997 0.
0.677998 0.0929974 0.
0.679998 0.0929978 0.
0.681999 0.0929983 0.
0.683999 0.0929988 0.
0.685998 0.0929992 0.
0.687998 0.0929997 0.
0.689998 0.0929997 0.
0.691998 0.0929994 0.
0.693998 0.0929991 0.
0.695999 0.0929989 0.
0.697999 0.0929986 0.
0.500004 0.094999 0.
0.502004 0.0949991 0.
0.504004 0.0949991 0.
0.506004 0.094999 0.
0.508004 0.0949985 0.
0.510004 0.094998 0.
0.512004 0.0949977 0.
0.514004 0.0949976 0.
0.516005 0.0949974 0.
0.518005 0.0949969 0.
0.520004 0.0949961 0.
0.522004 0.0949953 0.
0.524004 0.0949958 0.
0.526004 0.0949964 0.
0.528003 0.0949969 0.
0.530003 0.0949972 0.
0.532004 0.0949974 0.
0.534004 0.0949978 0.
0.536004 0.0949984 0.
0.538004 0.0949991 0.
0.540004 0.0949997 0.
0.542003 0.0950003 0.
0.544003 0.0950009 0.
0.546003 0.0950015 0.
0.548003 0.095002 0.
0.550003 0.0950026 0.
0.552003 0.0950028 0.
0.554003 0.0950031 0.
0.556003 0.0950034 0.
0.558003 0.0950036 0.
0.560004 0.0950039 0.
0.562004 0.0950044 0.
0.564004 0.095005 0.
0.566003 0.0950056 0.
0.568003 0.0950058 0.
0.570003 0.0950057 0.
0.572003 0.0950056 0.
0.574003 0.0950059 0.
0.576003 0.0950062 0.
0.578003 0.0950065 0.
0.580002 0.0950066 0.
0.582002 0.0950066 0.
0.584002 0.0950069 0.
0.586002 0.0950078 0.
0.588002 0.0950086 0.
0.590002 0.0950089 0.
0.592002 0.0950089 0.
0.594001 0.0950088 0.
0.596001 0.0950084 0.
0.598001 0.0950078 0.
0.600001 0.0950073 0.
0.602002 0.0950072 0.
0.604002 0.0950072 0.
0.606002 0.0950073 0.
0.608001 0.0950075 0.
0.610001 0.0950077 0.
0.612001 0.0950077 0.
0.614001 0.0950074 0.
0.616001 0.0950071 0.
0.618001 0.0950067 0.
0.62 0.0950063 0.
0.622 0.0950059 0.
0.624 0.0950054 0.
0.626 0.0950048 0.
0.628 0.0950043 0.
0.63 0.0950038 0.
0.632001 0.0950034 0.
0.634001 0.0950032 0.
0.636001 0.0950034 0.
0.638001 0.0950036 0.
0.64 0.0950037 0.
0.642 0.0950036 0.
0.644 0.0950036 0.
0.645999 0.0950036 0.
0.647999 0.0950035 0.
0.649998 0.0950035 0.
0.651998 0.0950025 0.
0.653998 0.0950015 0.
0.655998 0.0950005 0.
0.657998 0.0949995 0.
0.659998 0.0949985 0.
0.661999 0.094998 0.
0.663999 0.0949982 0.
0.665999 0.0949983 0.
0.667999 0.0949978 0.
0.669999 0.0949971 0.
0.671998 0.0949963 0.
0.673998 0.0949966 0.
0.675997 0.094997 0.
0.677997 0.0949975 0.
0.679997 0.0949979 0.
0.681998 0.0949983 0.
0.683998 0.0949987 0.
0.685998 0.0949992 0.
0.687998 0.0949998 0.
0.689998 0.0949998 0.
0.691998 0.0949995 0.
0.693998 0.0949991 0.
0.695999 0.0949991 0.
0.697999 0.0949992 0.
0.500004 0.0969991 0.
0.502004 0.096999 0.
0.504004 0.0969989 0.
0.506004 0.0969988 0.
0.508004 0.0969982 0.
0.510004 0.0969977 0.
0.512004 0.0969974 0.
0.514004 0.0969973 0.
0.516005 0.0969973 0.
0.518005 0.0969968 0.
0.520004 0.0969963 0.
0.522004 0.0969957 0.
0.524004 0.096996 0.
0.526004 0.0969964 0.
0.528004 0.0969968 0.
0.530004 0.0969971 0.
0.532003 0.0969974 0.
0.534003 0.0969978 0.
0.536003 0.0969985 0.
0.538003 0.0969991 0.
0.540003 0.0969996 0.
0.542003 0.097 0.
0.544003 0.0970004 0.
0.546003 0.097001 0.
0.548003 0.0970017 0.
0.550003 0.0970025 0.
0.552003 0.0970029 0.
0.554003 0.0970034 0.
0.556004 0.0970038 0.
0.558004 0.0970039 0.
0.560004 0.097004 0.
0.562004 0.0970043 0.
0.564004 0.0970049 0.
0.566004 0.0970055 0.
0.568004 0.0970057 0.
0.570003 0.0970056 0.
0.572003 0.0970055 0.
0.574003 0.0970057 0.
0.576003 0.0970059 0.
0.578002 0.0970061 0.
0.580002 0.0970065 0.
0.582002 0.0970068 0.
0.584002 0.0970072 0.
0.586002 0.0970079 0.
0.588002 0.0970085 0.
0.590002 0.0970088 0.
0.592002 0.0970087 0.
0.594002 0.0970087 0.
0.596002 0.0970086 0.
0.598002 0.0970084 0.
0.600002 0.0970082 0.
0.602002 0.0970078 0.
0.604002 0.0970074 0.
0.606002 0.0970071 0.
0.608002 0.0970073 0.
0.610001 0.0970076 0.
0.612001 0.0970075 0.
0.614001 0.097007 0.
0.616001 0.0970065 0.
0.618001 0.0970061 0.
0.620001 0.0970057 0.
0.622001 0.0970053 0.
0.624001 0.097005 0.
0.626 0.0970047 0.
0.628 0.0970044 0.
0.63 0.0970038 0.
0.632001 0.0970032 0.
0.634001 0.097003 0.
0.636001 0.0970035 0.
0.638001 0.0970039 0.
0.64 0.0970042 0.
0.642 0.0970042 0.
0.643999 0.0970042 0.
0.645999 0.0970041 0.
0.647999 0.0970039 0.
0.649999 0.0970037 0.
0.651999 0.0970026 0.
0.653999 0.0970014 0.
0.655999 0.0970004 0.
0.657999 0.0969997 0.
0.659999 0.096999 0.
0.661999 0.0969985 0.
0.663999 0.0969983 0.
0.665999 0.0969981 0.
0.667999 0.0969977 0.
0.669999 0.0969973 0.
0.671999 0.0969969 0.
0.673998 0.0969971 0.
0.675998 0.0969974 0.
0.677997 0.0969977 0.
0.679997 0.096998 0.
0.681998 0.0969983 0.
0.683998 0.0969987 0.
0.685998 0.0969993 0.
0.687998 0.0969998 0.
0.689998 0.0969998 0.
0.691998 0.0969992 0.
0.693998 0.0969986 0.
0.695998 0.0969986 0.
0.697999 0.0969987 0.
0.500003 0.098999 0.
0.502003 0.0989989 0.
0.504004 0.0989988 0.
0.506004 0.0989986 0.
0.508004 0.098998 0.
0.510004 0.0989974 0.
0.512004 0.0989971 0.
0.514004 0.0989971 0.
0.516005 0.0989971 0.
0.518005 0.0989968 0.
0.520005 0.0989964 0.
0.522004 0.098996 0.
0.524004 0.0989962 0.
0.526004 0.0989965 0.
0.528004 0.0989968 0.
0.530004 0.0989971 0.
0.532003 0.0989974 0.
0.534003 0.0989978 0.
0.536003 0.0989985 0.
0.538003 0.0989992 0.
0.540003 0.0989996 0.
0.542003 0.0989997 0.
0.544003 0.0989998 0.
0.546003 0.0990006 0.
0.548003 0.0990015 0.
0.550003 0.0990024 0.
0.552004 0.0990031 0.
0.554004 0.0990038 0.
0.556004 0.0990043 0.
0.558004 0.0990041 0.
0.560004 0.099004 0.
0.562004 0.0990042 0.
0.564004 0.0990048 0.
0.566004 0.0990054 0.
0.568004 0.0990056 0.
0.570004 0.0990054 0.
0.572003 0.0990053 0.
0.574003 0.0990054 0.
0.576003 0.0990056 0.
0.578002 0.0990057 0.
0.580002 0.0990063 0.
0.582002 0.0990069 0.
0.584002 0.0990075 0.
0.586002 0.099008 0.
0.588002 0.0990084 0.
0.590002 0.0990086 0.
0.592002 0.0990086 0.
0.594002 0.0990086 0.
0.596002 0.0990088 0.
0.598003 0.099009 0.
0.600003 0.0990092 0.
0.602003 0.0990084 0.
0.604002 0.0990076 0.
0.606002 0.099007 0.
0.608002 0.0990072 0.
0.610002 0.0990074 0.
0.612002 0.0990073 0.
0.614002 0.0990066 0.
0.616002 0.0990059 0.
0.618002 0.0990055 0.
0.620002 0.0990051 0.
0.622002 0.0990048 0.
0.624001 0.0990047 0.
0.626 0.0990046 0.
0.628 0.0990045 0.
0.63 0.0990038 0.
0.632001 0.0990031 0.
0.634001 0.0990029 0.
0.636001 0.0990036 0.
0.638001 0.0990043 0.
0.64 0.0990047 0.
0.641999 0.0990048 0.
0.643998 0.0990049 0.
0.645998 0.0990047 0.
0.647999 0.0990043 0.
0.649999 0.099004 0.
0.652 0.0990027 0.
0.654 0.0990013 0.
0.656 0.0990002 0.
0.658 0.0989998 0.
0.66 0.0989995 0.
0.662 0.098999 0.
0.664 0.0989985 0.
0.666 0.0989979 0.
0.667999 0.0989977 0.
0.669999 0.0989976 0.
0.671999 0.0989975 0.
0.673998 0.0989977 0.
0.675998 0.0989978 0.
0.677997 0.098998 0.
0.679997 0.0989981 0.
0.681997 0.0989983 0.
0.683998 0.0989986 0.
0.685998 0.0989993 0.
0.687998 0.0989999 0.
0.689998 0.0989998 0.
0.691998 0.098999 0.
0.693998 0.0989982 0.
0.695998 0.098998 0.
0.697999 0.0989981 0.
CELLS 5000 10000
1 0
1 1
1 2
1 3
1 4
1 5
1 6
1 7
1 8
1 9
1 10
1 11
1 12
1 13
1 14
1 15
1 16
1 17
1 18
1 19
1 20
1 21
1 22
1 23
1 24
1 25
1 26
1 27
1 28
1 29
1 30
1 31
1 32
1 33
1 34
1 35
1 36
1 37
1 38
1 39
1 40
1 41
1 42
1 43
1 44
1 45
1 46
1 47
1 48
1 49
1 50
1 51
1 52
1 53
1 54
1 55
1 56
1 57
1 58
1 59
1 60
1 61
1 62
1 63
1 64
1 65
1 66
1 67
1 68
1 69
1 70
1 71
1 72
1 73
1 74
1 75
1 76
1 77
1 78
1 79
1 80
1 81
1 82
1 83
1 84
1 85
1 86
1 87
1 88
1 89
1 90
1 91
1 92
1 93
1 94
1 95
1 96
1 97
1 98
1 99
1 100
1 101
1 102
1 103
1 104
1 105
1 106
1 107
1 108
1 109
1 110
1 111
1 112
1 113
1 114
1 115
1 116
1 117
1 118
1 119
1 120
1 121
1 122
1 123
1 124
1 125
1 126
1 127
1 128
1 129
1 130
1 131
1 132
1 133
1 134
1 135
1 136
1 137
1 138
1 139
1 140
1 141
1 142
1 143
1 144
1 145
1 146
1 147
1 148
1 149
1 150
1 151
1 152
1 153
1 154
1 155
1 156
1 157
1 158
1 159
1 160
1 161
1 162
1 163
1 164
1 165
1 166
1 167
1 168
1 169
1 170
1 171
1 172
1 173
1 174
1 175
1 176
1 177
1 178
1 179
1 180
1 181
1 182
1 183
1 184
1 185
1 186
1 187
1 188
1 189
1 190
1 191
1 192
1 193
1 194
1 195
1 196
1 197
1 198
1 199
1 200
1 201
1 202
1 203
1 204
1 205
1 206
1 207
1 208
1 209
1 210
1 211
1 212
1 213
1 214
1 215
1 216
1 217
1 218
1 219
1 220
1 221
1 222
1 223
1 224
1 225
1 226
1 227
1 228
1 229
1 230
1 231
1 232
1 233
1 234
1 235
1 236
1 237
1 238
1 239
1 240
1 241
1 242
1 243
1 244
1 245
1 246
1 247
1 248
1 249
1 250
1 251
1 252
1 253
1 254
1 255
1 256
1 257
1 258
1 259
1 260
1 261
1 262
1 263
1 264
1 265
1 266
1 267
1 268
1 269
1 270
1 271
1 272
1 273
1 274
1 275
1 276
1 277
1 278
1 279
1 280
1 281
1 282
1 283
1 284
1 285
1 286
1 287
1 288
1 289
1 290
1 291
1 292
1 293
1 294
1 295
1 296
1 297
1 298
1 299
1 300
1 301
1 302
1 303
1 304
1 305
1 306
1 307
1 308
1 309
1 310
1 311
1 312
1 313
1 314
1 315
1 316
1 317
1 318
1 319
1 320
1 321
1 322
1 323
1 324
1 325
1 326
1 327
1 328
1 329
1 330
1 331
1 332
1 333
1 334
1 335
1 336
1 337
1 338
1 339
1 340
1 341
1 342
1 343
1 344
1 345
1 346
1 347
1 348
1 349
1 350
1 351
1 352
1 353
1 354
1 355
1 356
1 357
1 358
1 359
1 360
1 361
1 362
1 363
1 364
1 365
1 366
1 367
1 368
1 369
1 370
1 371
1 372
1 373
1 374
1 375
1 376
1 377
1 378
1 379
1 380
1 381
1 382
1 383
1 384
1 385
1 386
1 387
1 388
1 389
1 390
1 391
1 392
1 393
1 394
1 395
1 396
1 397
1 398
1 399
1 400
1 401
1 402
1 403
1 404
1 405
1 406
1 407
1 408
1 409
1 410
1 411
1 412
1 413
1 414
1 415
1 416
1 417
1 418
1 419
1 420
1 421
1 422
1 423
1 424
1 425
1 426
1 427
1 428
1 429
1 430
1 431
1 432
1 433
1 434
1 435
1 436
1 437
1 438
1 439
1 440
1 441
1 442
1 443
1 444
1 445
1 446
1 447
1 448
1 449
1 450
1 451
1 452
1 453
1 454
1 455
1 456
1 457
1 458
1 459
1 460
1 461
1 462
1 463
1 464
1 465
1 466
1 467
1 468
1 469
1 470
1 471
1 472
1 473
1 474
1 475
1 476
1 477
1 478
1 479
1 480
1 481
1 482
1 483
1 484
1 485
1 486
1 487
1 488
1 489
1 490
1 491
1 492
1 493
1 494
1 495
1 496
1 497
1 498
1 499
1 500
1 501
1 502
1 503
1 504
1 505
1 506
1 507
1 508
1 509
1 510
1 511
1 512
1 513
1 514
1 515
1 516
1 517
1 518
1 519
1 520
1 521
1 522
1 523
1 524
1 525
1 526
1 527
1 528
1 529
1 530
1 531
1 532
1 533
1 534
1 535
1 536
1 537
1 538
1 539
1 540
1 541
1 542
1 543
1 544
1 545
1 546
1 547
1 548
1 549
1 550
1 551
1 552
1 553
1 554
1 555
1 556
1 557
1 558
1 559
1 560
1 561
1 562
1 563
1 564
1 565
1 566
1 567
1 568
1 569
1 570
1 571
1 572
1 573
1 574
1 575
1 576
1 577
1 578
1 579
1 580
1 581
1 582
1 583
1 584
1 585
1 586
1 587
1 588
1 589
1 590
1 591
1 592
1 593
1 594
1 595
1 596
1 597
1 598
1 599
1 600
1 601
1 602
1 603
1 604
1 605
1 606
1 607
1 608
1 609
1 610
1 611
1 612
1 613
1 614
1 615
1 616
1 617
1 618
1 619
1 620
1 621
1 622
1 623
1 624
1 625
1 626
1 627
1 628
1 629
1 630
1 631
1 632
1 633
1 634
1 635
1 636
1 637
1 638
1 639
1 640
1 641
1 642
1 643
1 644
1 645
1 646
1 647
1 648
1 649
1 650
1 651
1 652
1 653
1 654
1 655
1 656
1 657
1 658
1 659
1 660
1 661
1 662
1 663
1 664
1 665
1 666
1 667
1 668
1 669
1 670
1 671
1 672
1 673
1 674
1 675
1 676
1 677
1 678
1 679
1 680
1 681
1 682
1 683
1 684
1 685
1 686
1 687
1 688
1 689
1 690
1 691
1 692
1 693
1 694
1 695
1 696
1 697
1 698
1 699
1 700
1 701
1 702
1 703
1 704
1 705
1 706
1 707
1 708
1 709
1 710
1 711
1 712
1 713
1 714
1 715
1 716
1 717
1 718
1 719
1 720
1 721
1 722
1 723
1 724
1 725
1 726
1 727
1 728
1 729
1 730
1 731
1 732
1 733
1 734
1 735
1 736
1 737
1 738
1 739
1 740
1 741
1 742
1 743
1 744
1 745
1 746
1 747
1 748
1 749
1 750
1 751
1 752
1 753
1 754
1 755
1 756
1 757
1 758
1 759
1 760
1 761
1 762
1 763
1 764
1 765
1 766
1 767
1 768
1 769
1 770
1 771
1 772
1 773
1 774
1 775
1 776
1 777
1 778
1 779
1 780
1 781
1 782
1 783
1 784
1 785
1 786
1 787
1 788
1 789
1 790
1 791
1 792
1 793
1 794
1 795
1 796
1 797
1 798
1 799
1 800
1 801
1 802
1 803
1 804
1 805
1 806
1 807
1 808
1 809
1 810
1 811
1 812
1 813
1 814
1 815
1 816
1 817
1 818
1 819
1 820
1 821
1 822
1 823
1 824
1 825
1 826
1 827
1 828
1 829
1 830
1 831
1 832
1 833
1 834
1 835
1 836
1 837
1 838
1 839
1 840
1 841
1 842
1 843
1 844
1 845
1 846
1 847
1 848
1 849
1 850
1 851
1 852
1 853
1 854
1 855
1 856
1 857
1 858
1 859
1 860
1 861
1 862
1 863
1 864
1 865
1 866
1 867
1 868
1 869
1 870
1 871
1 872
1 873
1 874
1 875
1 876
1 877
1 878
1 879
1 880
1 881
1 882
1 883
1 884
1 885
1 886
1 887
1 888
1 889
1 890
1 891
1 892
1 893
1 894
1 895
1 896
1 897
1 898
1 899
1 900
1 901
1 902
1 903
1 904
1 905
1 906
1 907
1 908
1 909
1 910
1 911
1 912
1 913
1 914
1 915
1 916
1 917
1 918
1 919
1 920
1 921
1 922
1 923
1 924
1 925
1 926
1 927
1 928
1 929
1 930
1 931
1 932
1 933
1 934
1 935
1 936
1 937
1 938
1 939
1 940
1 941
1 942
1 943
1 944
1 945
1 946
1 947
1 948
1 949
1 950
1 951
1 952
1 953
1 954
1 955
1 956
1 957
1 958
1 959
1 960
1 961
1 962
1 963
1 964
1 965
1 966
1 967
1 968
1 969
1 970
1 971
1 972
1 973
1 974
1 975
1 976
1 977
1 978
1 979
1 980
1 981
1 982
1 983
1 984
1 985
1 986
1 987
1 988
1 989
1 990
1 991
1 992
1 993
1 994
1 995
1 996
1 997
1 998
1 999
1 1000
1 1001
1 1002
1 1003
1 1004
1 1005
1 1006
1 1007
1 1008
1 1009
1 1010
1 1011
1 1012
1 1013
1 1014
1 1015
1 1016
1 1017
1 1018
1 1019
1 1020
1 1021
1 1022
1 1023
1 1024
1 1025
1 1026
1 1027
1 1028
1 1029
1 1030
1 1031
1 1032
1 1033
1 1034
1 1035
1 1036
1 1037
1 1038
1 1039
1 1040
1 1041
1 1042
1 1043
1 1044
1 1045
1 1046
1 1047
1 1048
1 1049
1 1050
1 1051
1 1052
1 1053
1 1054
1 1055
1 1056
1 1057
1 1058
1 1059
1 1060
1 1061
1 1062
1 1063
1 1064
1 1065
1 1066
1 1067
1 1068
1 1069
1 1070
1 1071
1 1072
1 1073
1 1074
1 1075
1 1076
1 1077
1 1078
1 1079
1 1080
1 1081
1 1082
1 1083
1 1084
1 1085
1 1086
1 1087
1 1088
1 1089
1 1090
1 1091
1 1092
1 1093
1 1094
1 1095
1 1096
1 1097
1 1098
1 1099
1 1100
1 1101
1 1102
1 1103
1 1104
1 1105
1 1106
1 1107
1 1108
1 1109
1 1110
1 1111
1 1112
1 1113
1 1114
1 1115
1 1116
1 1117
1 1118
1 1119
1 1120
1 1121
1 1122
1 1123
1 1124
1 1125
1 1126
1 1127
1 1128
1 1129
1 1130
1 1131
1 1132
1 1133
1 1134
1 1135
1 1136
1 1137
1 1138
1 1139
1 1140
1 1141
1 1142
1 1143
1 1144
1 1145
1 1146
1 1147
1 1148
1 1149
1 1150
1 1151
1 1152
1 1153
1 1154
1 1155
1 1156
1 1157
1 1158
1 1159
1 1160
1 1161
1 1162
1 1163
1 1164
1 1165
1 1166
1 1167
1 1168
1 1169
1 1170
1 1171
1 1172
1 1173
1 1174
1 1175
1 1176
1 1177
1 1178
1 1179
1 1180
1 1181
1 1182
1 1183
1 1184
1 1185
1 1186
1 1187
1 1188
1 1189
1 1190
1 1191
1 1192
1 1193
1 1194
1 1195
1 1196
1 1197
1 1198
1 1199
1 1200
1 1201
1 1202
1 1203
1 1204
1 1205
1 1206
1 1207
1 1208
1 1209
1 1210
1 1211
1 1212
1 1213
1 1214
1 1215
1 1216
1 1217
1 1218
1 1219
1 1220
1 1221
1 1222
1 1223
1 1224
1 1225
1 1226
1 1227
1 1228
1 1229
1 1230
1 1231
1 1232
1 1233
1 1234
1 1235
1 1236
1 1237
1 1238
1 1239
1 1240
1 1241
1 1242
1 1243
1 1244
1 1245
1 1246
1 1247
1 1248
1 1249
1 1250
1 1251
1 1252
1 1253
1 1254
1 1255
1 1256
1 1257
1 1258
1 1259
1 1260
1 1261
1 1262
1 1263
1 1264
1 1265
1 1266
1 1267
1 1268
1 1269
1 1270
1 1271
1 1272
1 1273
1 1274
1 1275
1 1276
1 1277
1 1278
1 1279
1 1280
1 1281
1 1282
1 1283
1 1284
1 1285
1 1286
1 1287
1 1288
1 1289
1 1290
1 1291
1 1292
1 1293
1 1294
1 1295
1 1296
1 1297
1 1298
1 1299
1 1300
1 1301
1 1302
1 1303
1 1304
1 1305
1 1306
1 1307
1 1308
1 1309
1 1310
1 1311
1 1312
1 1313
1 1314
1 1315
1 1316
1 1317
1 1318
1 1319
1 1320
1 1321
1 1322
1 1323
1 1324
1 1325
1 1326
1 1327
1 1328
1 1329
1 1330
1 1331
1 1332
1 1333
1 1334
1 1335
1 1336
1 1337
1 1338
1 1339
1 1340
1 1341
1 1342
1 1343
1 1344
1 1345
1 1346
1 1347
1 1348
1 1349
1 1350
1 1351
1 1352
1 1353
1 1354
1 1355
1 1356
1 1357
1 1358
1 1359
1 1360
1 1361
1 1362
1 1363
1 1364
1 1365
1 1366
1 1367
1 1368
1 1369
1 1370
1 1371
1 1372
1 1373
1 1374
1 1375
1 1376
1 1377
1 1378
1 1379
1 1380
1 1381
1 1382
1 1383
1 1384
1 1385
1 1386
1 1387
1 1388
1 1389
1 1390
1 1391
1 1392
1 1393
1 1394
1 1395
1 1396
1 1397
1 1398
1 1399
1 1400
1 1401
1 1402
1 1403
1 1404
1 1405
1 1406
1 1407
1 1408
1 1409
1 1410
1 1411
1 1412
1 1413
1 1414
1 1415
1 1416
1 1417
1 1418
1 1419
1 1420
1 1421
1 1422
1 1423
1 1424
1 1425
1 1426
1 1427
1 1428
1 1429
1 1430
1 1431
1 1432
1 1433
1 1434
1 1435
1 1436
1 1437
1 1438
1 1439
1 1440
1 1441
1 1442
1 1443
1 1444
1 1445
1 1446
1 1447
1 1448
1 1449
1 1450
1 1451
1 1452
1 1453
1 1454
1 1455
1 1456
1 1457
1 1458
1 1459
1 1460
1 1461
1 1462
1 1463
1 1464
1 1465
1 1466
1 1467
1 1468
1 1469
1 1470
1 1471
1 1472
1 1473
1 1474
1 1475
1 1476
1 1477
1 1478
1 1479
1 1480
1 1481
1 1482
1 1483
1 1484
1 1485
1 1486
1 1487
1 1488
1 1489
1 1490
1 1491
1 1492
1 1493
1 1494
1 1495
1 1496
1 1497
1 1498
1 1499
1 1500
1 1501
1 1502
1 1503
1 1504
1 1505
1 1506
1 1507
1 1508
1 1509
1 1510
1 1511
1 1512
1 1513
1 1514
1 1515
1 1516
1 1517
1 1518
1 1519
1 1520
1 1521
1 1522
1 1523
1 1524
1 1525
1 1526
1 1527
1 1528
1 1529
1 1530
1 1531
1 1532
1 1533
1 1534
1 1535
1 1536
1 1537
1 1538
1 1539
1 1540
1 1541
1 1542
1 1543
1 1544
1 1545
1 1546
1 1547
1 1548
1 1549
1 1550
1 1551
1 1552
1 1553
1 1554
1 1555
1 1556
1 1557
1 1558
1 1559
1 1560
1 1561
1 1562
1 1563
1 1564
1 1565
1 1566
1 1567
1 1568
1 1569
1 1570
1 1571
1 1572
1 1573
1 1574
1 1575
1 1576
1 1577
1 1578
1 1579
1 1580
1 1581
1 1582
1 1583
1 1584
1 1585
1 1586
1 1587
1 1588
1 1589
1 1590
1 1591
1 1592
1 1593
1 1594
1 1595
1 1596
1 1597
1 1598
1 1599
1 1600
1 1601
1 1602
1 1603
1 1604
1 1605
1 1606
1 1607
1 1608
1 1609
1 1610
1 1611
1 1612
1 1613
1 1614
1 1615
1 1616
1 1617
1 1618
1 1619
1 1620
1 1621
1 1622
1 1623
1 1624
1 1625
1 1626
1 1627
1 1628
1 1629
1 1630
1 1631
1 1632
1 1633
1 1634
1 1635
1 1636
1 1637
1 1638
1 1639
1 1640
1 1641
1 1642
1 1643
1 1644
1 1645
1 1646
1 1647
1 1648
1 1649
1 1650
1 1651
1 1652
1 1653
1 1654
1 1655
1 1656
1 1657
1 1658
1 1659
1 1660
1 1661
1 1662
1 1663
1 1664
1 1665
1 1666
1 1667
1 1668
1 1669
1 1670
1 1671
1 1672
1 1673
1 1674
1 1675
1 1676
1 1677
1 1678
1 1679
1 1680
1 1681
1 1682
1 1683
1 1684
1 1685
1 1686
1 1687
1 1688
1 1689
1 1690
1 1691
1 1692
1 1693
1 1694
1 1695
1 1696
1 1697
1 1698
1 1699
1 1700
1 1701
1 1702
1 1703
1 1704
1 1705
1 1706
1 1707
1 1708
1 1709
1 1710
1 1711
1 1712
1 1713
1 1714
1 1715
1 1716
1 1717
1 1718
1 1719
1 1720
1 1721
1 1722
1 1723
1 1724
1 1725
1 1726
1 1727
1 1728
1 1729
1 1730
1 1731
1 1732
1 1733
1 1734
1 1735
1 1736
1 1737
1 1738
1 1739
1 1740
1 1741
1 1742
1 1743
1 1744
1 1745
1 1746
1 1747
1 1748
1 1749
1 1750
1 1751
1 1752
1 1753
1 1754
1 1755
1 1756
1 1757
1 1758
1 1759
1 1760
1 1761
1 1762
1 1763
1 1764
1 1765
1 1766
1 1767
1 1768
1 1769
1 1770
1 1771
1 1772
1 1773
1 1774
1 1775
1 1776
1 1777
1 1778
1 1779
1 1780
1 1781
1 1782
1 1783
1 1784
1 1785
1 1786
1 1787
1 1788
1 1789
1 1790
1 1791
1 1792
1 1793
1 1794
1 1795
1 1796
1 1797
1 1798
1 1799
1 1800
1 1801
1 1802
1 1803
1 1804
1 1805
1 1806
1 1807
1 1808
1 1809
1 1810
1 1811
1 1812
1 1813
1 1814
1 1815
1 1816
1 1817
1 1818
1 1819
1 1820
1 1821
1 1822
1 1823
1 1824
1 1825
1 1826
1 1827
1 1828
1 1829
1 1830
1 1831
1 1832
1 1833
1 1834
1 1835
1 1836
1 1837
1 1838
1 1839
1 1840
1 1841
1 1842
1 1843
1 1844
1 1845
1 1846
1 1847
1 1848
1 1849
1 1850
1 1851
1 1852
1 1853
1 1854
1 1855
1 1856
1 1857
1 1858
1 1859
1 1860
1 1861
1 1862
1 1863
1 1864
1 1865
1 1866
1 1867
1 1868
1 1869
1 1870
1 1871
1 1872
1 1873
1 1874
1 1875
1 1876
1 1877
1 1878
1 1879
1 1880
1 1881
1 1882
1 1883
1 1884
1 1885
1 1886
1 1887
1 1888
1 1889
1 1890
1 1891
1 1892
1 1893
1 1894
1 1895
1 1896
1 1897
1 1898
1 1899
1 1900
1 1901
1 1902
1 1903
1 1904
1 1905
1 1906
1 1907
1 1908
1 1909
1 1910
1 1911
1 1912
1 1913
1 1914
1 1915
1 1916
1 1917
1 1918
1 1919
1 1920
1 1921
1 1922
1 1923
1 1924
1 1925
1 1926
1 1927
1 1928
1 1929
1 1930
1 1931
1 1932
1 1933
1 1934
1 1935
1 1936
1 1937
1 1938
1 1939
1 1940
1 1941
1 1942
1 1943
1 1944
1 1945
1 1946
1 1947
1 1948
1 1949
1 1950
1 1951
1 1952
1 1953
1 1954
1 1955
1 1956
1 1957
1 1958
1 1959
1 1960
1 1961
1 1962
1 1963
1 1964
1 1965
1 1966
1 1967
1 1968
1 1969
1 1970
1 1971
1 1972
1 1973
1 1974
1 1975
1 1976
1 1977
1 1978
1 1979
1 1980
1 1981
1 1982
1 1983
1 1984
1 1985
1 1986
1 1987
1 1988
1 1989
1 1990
1 1991
1 1992
1 1993
1 1994
1 1995
1 1996
1 1997
1 1998
1 1999
1 2000
1 2001
1 2002
1 2003
1 2004
1 2005
1 2006
1 2007
1 2008
1 2009
1 2010
1 2011
1 2012
1 2013
1 2014
1 2015
1 2016
1 2017
1 2018
1 2019
1 2020
1 2021
1 2022
1 2023
1 2024
1 2025
1 2026
1 2027
1 2028
1 2029
1 2030
1 2031
1 2032
1 2033
1 2034
1 2035
1 2036
1 2037
1 2038
1 2039
1 2040
1 2041
1 2042
1 2043
1 2044
1 2045
1 2046
1 2047
1 2048
1 2049
1 2050
1 2051
1 2052
1 2053
1 2054
1 2055
1 2056
1 2057
1 2058
1 2059
1 2060
1 2061
1 2062
1 2063
1 2064
1 2065
1 2066
1 2067
1 2068
1 2069
1 2070
1 2071
1 2072
1 2073
1 2074
1 2075
1 2076
1 2077
1 2078
1 2079
1 2080
1 2081
1 2082
1 2083
1 2084
1 2085
1 2086
1 2087
1 2088
1 2089
1 2090
1 2091
1 2092
1 2093
1 2094
1 2095
1 2096
1 2097
1 2098
1 2099
1 2100
1 2101
1 2102
1 2103
1 2104
1 2105
1 2106
1 2107
1 2108
1 2109
1 2110
1 2111
1 2112
1 2113
1 2114
1 2115
1 2116
1 2117
1 2118
1 2119
1 2120
1 2121
1 2122
1 2123
1 2124
1 2125
1 2126
1 2127
1 2128
1 2129
1 2130
1 2131
1 2132
1 2133
1 2134
1 2135
1 2136
1 2137
1 2138
1 2139
1 2140
1 2141
1 2142
1 2143
1 2144
1 2145
1 2146
1 2147
1 2148
1 2149
1 2150
1 2151
1 2152
1 2153
1 2154
1 2155
1 2156
1 2157
1 2158
1 2159
1 2160
1 2161
1 2162
1 2163
1 2164
1 2165
1 2166
1 2167
1 2168
1 2169
1 2170
1 2171
1 2172
1 2173
1 2174
1 2175
1 2176
1 2177
1 2178
1 2179
1 2180
1 2181
1 2182
1 2183
1 2184
1 2185
1 2186
1 2187
1 2188
1 2189
1 2190
1 2191
1 2192
1 2193
1 2194
1 2195
1 2196
1 2197
1 2198
1 2199
1 2200
1 2201
1 2202
1 2203
1 2204
1 2205
1 2206
1 2207
1 2208
1 2209
1 2210
1 2211
1 2212
1 2213
1 2214
1 2215
1 2216
1 2217
1 2218
1 2219
1 2220
1 2221
1 2222
1 2223
1 2224
1 2225
1 2226
1 2227
1 2228
1 2229
1 2230
1 2231
1 2232
1 2233
1 2234
1 2235
1 2236
1 2237
1 2238
1 2239
1 2240
1 2241
1 2242
1 2243
1 2244
1 2245
1 2246
1 2247
1 2248
1 2249
1 2250
1 2251
1 2252
1 2253
1 2254
1 2255
1 2256
1 2257
1 2258
1 2259
1 2260
1 2261
1 2262
1 2263
1 2264
1 2265
1 2266
1 2267
1 2268
1 2269
1 2270
1 2271
1 2272
1 2273
1 2274
1 2275
1 2276
1 2277
1 2278
1 2279
1 2280
1 2281
1 2282
1 2283
1 2284
1 2285
1 2286
1 2287
1 2288
1 2289
1 2290
1 2291
1 2292
1 2293
1 2294
1 2295
1 2296
1 2297
1 2298
1 2299
1 2300
1 2301
1 2302
1 2303
1 2304
1 2305
1 2306
1 2307
1 2308
1 2309
1 2310
1 2311
1 2312
1 2313
1 2314
1 2315
1 2316
1 2317
1 2318
1 2319
1 2320
1 2321
1 2322
1 2323
1 2324
1 2325
1 2326
1 2327
1 2328
1 2329
1 2330
1 2331
1 2332
1 2333
1 2334
1 2335
1 2336
1 2337
1 2338
1 2339
1 2340
1 2341
1 2342
1 2343
1 2344
1 2345
1 2346
1 2347
1 2348
1 2349
1 2350
1 2351
1 2352
1 2353
1 2354
1 2355
1 2356
1 2357
1 2358
1 2359
1 2360
1 2361
1 2362
1 2363
1 2364
1 2365
1 2366
1 2367
1 2368
1 2369
1 2370
1 2371
1 2372
1 2373
1 2374
1 2375
1 2376
1 2377
1 2378
1 2379
1 2380
1 2381
1 2382
1 2383
1 2384
1 2385
1 2386
1 2387
1 2388
1 2389
1 2390
1 2391
1 2392
1 2393
1 2394
1 2395
1 2396
1 2397
1 2398
1 2399
1 2400
1 2401
1 2402
1 2403
1 2404
1 2405
1 2406
1 2407
1 2408
1 2409
1 2410
1 2411
1 2412
1 2413
1 2414
1 2415
1 2416
1 2417
1 2418
1 2419
1 2420
1 2421
1 2422
1 2423
1 2424
1 2425
1 2426
1 2427
1 2428
1 2429
1 2430
1 2431
1 2432
1 2433
1 2434
1 2435
1 2436
1 2437
1 2438
1 2439
1 2440
1 2441
1 2442
1 2443
1 2444
1 2445
1 2446
1 2447
1 2448
1 2449
1 2450
1 2451
1 2452
1 2453
1 2454
1 2455
1 2456
1 2457
1 2458
1 2459
1 2460
1 2461
1 2462
1 2463
1 2464
1 2465
1 2466
1 2467
1 2468
1 2469
1 2470
1 2471
1 2472
1 2473
1 2474
1 2475
1 2476
1 2477
1 2478
1 2479
1 2480
1 2481
1 2482
1 2483
1 2484
1 2485
1 2486
1 2487
1 2488
1 2489
1 2490
1 2491
1 2492
1 2493
1 2494
1 2495
1 2496
1 2497
1 2498
1 2499
1 2500
1 2501
1 2502
1 2503
1 2504
1 2505
1 2506
1 2507
1 2508
1 2509
1 2510
1 2511
1 2512
1 2513
1 2514
1 2515
1 2516
1 2517
1 2518
1 2519
1 2520
1 2521
1 2522
1 2523
1 2524
1 2525
1 2526
1 2527
1 2528
1 2529
1 2530
1 2531
1 2532
1 2533
1 2534
1 2535
1 2536
1 2537
1 2538
1 2539
1 2540
1 2541
1 2542
1 2543
1 2544
1 2545
1 2546
1 2547
1 2548
1 2549
1 2550
1 2551
1 2552
1 2553
1 2554
1 2555
1 2556
1 2557
1 2558
1 2559
1 2560
1 2561
1 2562
1 2563
1 2564
1 2565
1 2566
1 2567
1 2568
1 2569
1 2570
1 2571
1 2572
1 2573
1 2574
1 2575
1 2576
1 2577
1 2578
1 2579
1 2580
1 2581
1 2582
1 2583
1 2584
1 2585
1 2586
1 2587
1 2588
1 2589
1 2590
1 2591
1 2592
1 2593
1 2594
1 2595
1 2596
1 2597
1 2598
1 2599
1 2600
1 2601
1 2602
1 2603
1 2604
1 2605
1 2606
1 2607
1 2608
1 2609
1 2610
1 2611
1 2612
1 2613
1 2614
1 2615
1 2616
1 2617
1 2618
1 2619
1 2620
1 2621
1 2622
1 2623
1 2624
1 2625
1 2626
1 2627
1 2628
1 2629
1 2630
1 2631
1 2632
1 2633
1 2634
1 2635
1 2636
1 2637
1 2638
1 2639
1 2640
1 2641
1 2642
1 2643
1 2644
1 2645
1 2646
1 2647
1 2648
1 2649
1 2650
1 2651
1 2652
1 2653
1 2654
1 2655
1 2656
1 2657
1 2658
1 2659
1 2660
1 2661
1 2662
1 2663
1 2664
1 2665
1 2666
1 2667
1 2668
1 2669
1 2670
1 2671
1 2672
1 2673
1 2674
1 2675
1 2676
1 2677
1 2678
1 2679
1 2680
1 2681
1 2682
1 2683
1 2684
1 2685
1 2686
1 2687
1 2688
1 2689
1 2690
1 2691
1 2692
1 2693
1 2694
1 2695
1 2696
1 2697
1 2698
1 2699
1 2700
1 2701
1 2702
1 2703
1 2704
1 2705
1 2706
1 2707
1 2708
1 2709
1 2710
1 2711
1 2712
1 2713
1 2714
1 2715
1 2716
1 2717
1 2718
1 2719
1 2720
1 2721
1 2722
1 2723
1 2724
1 2725
1 2726
1 2727
1 2728
1 2729
1 2730
1 2731
1 2732
1 2733
1 2734
1 2735
1 2736
1 2737
1 2738
1 2739
1 2740
1 2741
1 2742
1 2743
1 2744
1 2745
1 2746
1 2747
1 2748
1 2749
1 2750
1 2751
1 2752
1 2753
1 2754
1 2755
1 2756
1 2757
1 2758
1 2759
1 2760
1 2761
1 2762
1 2763
1 2764
1 2765
1 2766
1 2767
1 2768
1 2769
1 2770
1 2771
1 2772
1 2773
1 2774
1 2775
1 2776
1 2777
1 2778
1 2779
1 2780
1 2781
1 2782
1 2783
1 2784
1 2785
1 2786
1 2787
1 2788
1 2789
1 2790
1 2791
1 2792
1 2793
1 2794
1 2795
1 2796
1 2797
1 2798
1 2799
1 2800
1 2801
1 2802
1 2803
1 2804
1 2805
1 2806
1 2807
1 2808
1 2809
1 2810
1 2811
1 2812
1 2813
1 2814
1 2815
1 2816
1 2817
1 2818
1 2819
1 2820
1 2821
1 2822
1 2823
1 2824
1 2825
1 2826
1 2827
1 2828
1 2829
1 2830
1 2831
1 2832
1 2833
1 2834
1 2835
1 2836
1 2837
1 2838
1 2839
1 2840
1 2841
1 2842
1 2843
1 2844
1 2845
1 2846
1 2847
1 2848
1 2849
1 2850
1 2851
1 2852
1 2853
1 2854
1 2855
1 2856
1 2857
1 2858
1 2859
1 2860
1 2861
1 2862
1 2863
1 2864
1 2865
1 2866
1 2867
1 2868
1 2869
1 2870
1 2871
1 2872
1 2873
1 2874
1 2875
1 2876
1 2877
1 2878
1 2879
1 2880
1 2881
1 2882
1 2883
1 2884
1 2885
1 2886
1 2887
1 2888
1 2889
1 2890
1 2891
1 2892
1 2893
1 2894
1 2895
1 2896
1 2897
1 2898
1 2899
1 2900
1 2901
1 2902
1 2903
1 2904
1 2905
1 2906
1 2907
1 2908
1 2909
1 2910
1 2911
1 2912
1 2913
1 2914
1 2915
1 2916
1 2917
1 2918
1 2919
1 2920
1 2921
1 2922
1 2923
1 2924
1 2925
1 2926
1 2927
1 2928
1 2929
1 2930
1 2931
1 2932
1 2933
1 2934
1 2935
1 2936
1 2937
1 2938
1 2939
1 2940
1 2941
1 2942
1 2943
1 2944
1 2945
1 2946
1 2947
1 2948
1 2949
1 2950
1 2951
1 2952
1 2953
1 2954
1 2955
1 2956
1 2957
1 2958
1 2959
1 2960
1 2961
1 2962
1 2963
1 2964
1 2965
1 2966
1 2967
1 2968
1 2969
1 2970
1 2971
1 2972
1 2973
1 2974
1 2975
1 2976
1 2977
1 2978
1 2979
1 2980
1 2981
1 2982
1 2983
1 2984
1 2985
1 2986
1 2987
1 2988
1 2989
1 2990
1 2991
1 2992
1 2993
1 2994
1 2995
1 2996
1 2997
1 2998
1 2999
1 3000
1 3001
1 3002
1 3003
1 3004
1 3005
1 3006
1 3007
1 3008
1 3009
1 3010
1 3011
1 3012
1 3013
1 3014
1 3015
1 3016
1 3017
1 3018
1 3019
1 3020
1 3021
1 3022
1 3023
1 3024
1 3025
1 3026
1 3027
1 3028
1 3029
1 3030
1 3031
1 3032
1 3033
1 3034
1 3035
1 3036
1 3037
1 3038
1 3039
1 3040
1 3041
1 3042
1 3043
1 3044
1 3045
1 3046
1 3047
1 3048
1 3049
1 3050
1 3051
1 3052
1 3053
1 3054
1 3055
1 3056
1 3057
1 3058
1 3059
1 3060
1 3061
1 3062
1 3063
1 3064
1 3065
1 3066
1 3067
1 3068
1 3069
1 3070
1 3071
1 3072
1 3073
1 3074
1 3075
1 3076
1 3077
1 3078
1 3079
1 3080
1 3081
1 3082
1 3083
1 3084
1 3085
1 3086
1 3087
1 3088
1 3089
1 3090
1 3091
1 3092
1 3093
1 3094
1 3095
1 3096
1 3097
1 3098
1 3099
1 3100
1 3101
1 3102
1 3103
1 3104
1 3105
1 3106
1 3107
1 3108
1 3109
1 3110
1 3111
1 3112
1 3113
1 3114
1 3115
1 3116
1 3117
1 3118
1 3119
1 3120
1 3121
1 3122
1 3123
1 3124
1 3125
1 3126
1 3127
1 3128
1 3129
1 3130
1 3131
1 3132
1 3133
1 3134
1 3135
1 3136
1 3137
1 3138
1 3139
1 3140
1 3141
1 3142
1 3143
1 3144
1 3145
1 3146
1 3147
1 3148
1 3149
1 3150
1 3151
1 3152
1 3153
1 3154
1 3155
1 3156
1 3157
1 3158
1 3159
1 3160
1 3161
1 3162
1 3163
1 3164
1 3165
1 3166
1 3167
1 3168
1 3169
1 3170
1 3171
1 3172
1 3173
1 3174
1 3175
1 3176
1 3177
1 3178
1 3179
1 3180
1 3181
1 3182
1 3183
1 3184
1 3185
1 3186
1 3187
1 3188
1 3189
1 3190
1 3191
1 3192
1 3193
1 3194
1 3195
1 3196
1 3197
1 3198
1 3199
1 3200
1 3201
1 3202
1 3203
1 3204
1 3205
1 3206
1 3207
1 3208
1 3209
1 3210
1 3211
1 3212
1 3213
1 3214
1 3215
1 3216
1 3217
1 3218
1 3219
1 3220
1 3221
1 3222
1 3223
1 3224
1 3225
1 3226
1 3227
1 3228
1 3229
1 3230
1 3231
1 3232
1 3233
1 3234
1 3235
1 3236
1 3237
1 3238
1 3239
1 3240
1 3241
1 3242
1 3243
1 3244
1 3245
1 3246
1 3247
1 3248
1 3249
1 3250
1 3251
1 3252
1 3253
1 3254
1 3255
1 3256
1 3257
1 3258
1 3259
1 3260
1 3261
1 3262
1 3263
1 3264
1 3265
1 3266
1 3267
1 3268
1 3269
1 3270
1 3271
1 3272
1 3273
1 3274
1 3275
1 3276
1 3277
1 3278
1 3279
1 3280
1 3281
1 3282
1 3283
1 3284
1 3285
1 3286
1 3287
1 3288
1 3289
1 3290
1 3291
1 3292
1 3293
1 3294
1 3295
1 3296
1 3297
1 3298
1 3299
1 3300
1 3301
1 3302
1 3303
1 3304
1 3305
1 3306
1 3307
1 3308
1 3309
1 3310
1 3311
1 3312
1 3313
1 3314
1 3315
1 3316
1 3317
1 3318
1 3319
1 3320
1 3321
1 3322
1 3323
1 3324
1 3325
1 3326
1 3327
1 3328
1 3329
1 3330
1 3331
1 3332
1 3333
1 3334
1 3335
1 3336
1 3337
1 3338
1 3339
1 3340
1 3341
1 3342
1 3343
1 3344
1 3345
1 3346
1 3347
1 3348
1 3349
1 3350
1 3351
1 3352
1 3353
1 3354
1 3355
1 3356
1 3357
1 3358
1 3359
1 3360
1 3361
1 3362
1 3363
1 3364
1 3365
1 3366
1 3367
1 3368
1 3369
1 3370
1 3371
1 3372
1 3373
1 3374
1 3375
1 3376
1 3377
1 3378
1 3379
1 3380
1 3381
1 3382
1 3383
1 3384
1 3385
1 3386
1 3387
1 3388
1 3389
1 3390
1 3391
1 3392
1 3393
1 3394
1 3395
1 3396
1 3397
1 3398
1 3399
1 3400
1 3401
1 3402
1 3403
1 3404
1 3405
1 3406
1 3407
1 3408
1 3409
1 3410
1 3411
1 3412
1 3413
1 3414
1 3415
1 3416
1 3417
1 3418
1 3419
1 3420
1 3421
1 3422
1 3423
1 3424
1 3425
1 3426
1 3427
1 3428
1 3429
1 3430
1 3431
1 3432
1 3433
1 3434
1 3435
1 3436
1 3437
1 3438
1 3439
1 3440
1 3441
1 3442
1 3443
1 3444
1 3445
1 3446
1 3447
1 3448
1 3449
1 3450
1 3451
1 3452
1 3453
1 3454
1 3455
1 3456
1 3457
1 3458
1 3459
1 3460
1 3461
1 3462
1 3463
1 3464
1 3465
1 3466
1 3467
1 3468
1 3469
1 3470
1 3471
1 3472
1 3473
1 3474
1 3475
1 3476
1 3477
1 3478
1 3479
1 3480
1 3481
1 3482
1 3483
1 3484
1 3485
1 3486
1 3487
1 3488
1 3489
1 3490
1 3491
1 3492
1 3493
1 3494
1 3495
1 3496
1 3497
1 3498
1 3499
1 3500
1 3501
1 3502
1 3503
1 3504
1 3505
1 3506
1 3507
1 3508
1 3509
1 3510
1 3511
1 3512
1 3513
1 3514
1 3515
1 3516
1 3517
1 3518
1 3519
1 3520
1 3521
1 3522
1 3523
1 3524
1 3525
1 3526
1 3527
1 3528
1 3529
1 3530
1 3531
1 3532
1 3533
1 3534
1 3535
1 3536
1 3537
1 3538
1 3539
1 3540
1 3541
1 3542
1 3543
1 3544
1 3545
1 3546
1 3547
1 3548
1 3549
1 3550
1 3551
1 3552
1 3553
1 3554
1 3555
1 3556
1 3557
1 3558
1 3559
1 3560
1 3561
1 3562
1 3563
1 3564
1 3565
1 3566
1 3567
1 3568
1 3569
1 3570
1 3571
1 3572
1 3573
1 3574
1 3575
1 3576
1 3577
1 3578
1 3579
1 3580
1 3581
1 3582
1 3583
1 3584
1 3585
1 3586
1 3587
1 3588
1 3589
1 3590
1 3591
1 3592
1 3593
1 3594
1 3595
1 3596
1 3597
1 3598
1 3599
1 3600
1 3601
1 3602
1 3603
1 3604
1 3605
1 3606
1 3607
1 3608
1 3609
1 3610
1 3611
1 3612
1 3613
1 3614
1 3615
1 3616
1 3617
1 3618
1 3619
1 3620
1 3621
1 3622
1 3623
1 3624
1 3625
1 3626
1 3627
1 3628
1 3629
1 3630
1 3631
1 3632
1 3633
1 3634
1 3635
1 3636
1 3637
1 3638
1 3639
1 3640
1 3641
1 3642
1 3643
1 3644
1 3645
1 3646
1 3647
1 3648
1 3649
1 3650
1 3651
1 3652
1 3653
1 3654
1 3655
1 3656
1 3657
1 3658
1 3659
1 3660
1 3661
1 3662
1 3663
1 3664
1 3665
1 3666
1 3667
1 3668
1 3669
1 3670
1 3671
1 3672
1 3673
1 3674
1 3675
1 3676
1 3677
1 3678
1 3679
1 3680
1 3681
1 3682
1 3683
1 3684
1 3685
1 3686
1 3687
1 3688
1 3689
1 3690
1 3691
1 3692
1 3693
1 3694
1 3695
1 3696
1 3697
1 3698
1 3699
1 3700
1 3701
1 3702
1 3703
1 3704
1 3705
1 3706
1 3707
1 3708
1 3709
1 3710
1 3711
1 3712
1 3713
1 3714
1 3715
1 3716
1 3717
1 3718
1 3719
1 3720
1 3721
1 3722
1 3723
1 3724
1 3725
1 3726
1 3727
1 3728
1 3729
1 3730
1 3731
1 3732
1 3733
1 3734
1 3735
1 3736
1 3737
1 3738
1 3739
1 3740
1 3741
1 3742
1 3743
1 3744
1 3745
1 3746
1 3747
1 3748
1 3749
1 3750
1 3751
1 3752
1 3753
1 3754
1 3755
1 3756
1 3757
1 3758
1 3759
1 3760
1 3761
1 3762
1 3763
1 3764
1 3765
1 3766
1 3767
1 3768
1 3769
1 3770
1 3771
1 3772
1 3773
1 3774
1 3775
1 3776
1 3777
1 3778
1 3779
1 3780
1 3781
1 3782
1 3783
1 3784
1 3785
1 3786
1 3787
1 3788
1 3789
1 3790
1 3791
1 3792
1 3793
1 3794
1 3795
1 3796
1 3797
1 3798
1 3799
1 3800
1 3801
1 3802
1 3803
1 3804
1 3805
1 3806
1 3807
1 3808
1 3809
1 3810
1 3811
1 3812
1 3813
1 3814
1 3815
1 3816
1 3817
1 3818
1 3819
1 3820
1 3821
1 3822
1 3823
1 3824
1 3825
1 3826
1 3827
1 3828
1 3829
1 3830
1 3831
1 3832
1 3833
1 3834
1 3835
1 3836
1 3837
1 3838
1 3839
1 3840
1 3841
1 3842
1 3843
1 3844
1 3845
1 3846
1 3847
1 3848
1 3849
1 3850
1 3851
1 3852
1 3853
1 3854
1 3855
1 3856
1 3857
1 3858
1 3859
1 3860
1 3861
1 3862
1 3863
1 3864
1 3865
1 3866
1 3867
1 3868
1 3869
1 3870
1 3871
1 3872
1 3873
1 3874
1 3875
1 3876
1 3877
1 3878
1 3879
1 3880
1 3881
1 3882
1 3883
1 3884
1 3885
1 3886
1 3887
1 3888
1 3889
1 3890
1 3891
1 3892
1 3893
1 3894
1 3895
1 3896
1 3897
1 3898
1 3899
1 3900
1 3901
1 3902
1 3903
1 3904
1 3905
1 3906
1 3907
1 3908
1 3909
1 3910
1 3911
1 3912
1 3913
1 3914
1 3915
1 3916
1 3917
1 3918
1 3919
1 3920
1 3921
1 3922
1 3923
1 3924
1 3925
1 3926
1 3927
1 3928
1 3929
1 3930
1 3931
1 3932
1 3933
1 3934
1 3935
1 3936
1 3937
1 3938
1 3939
1 3940
1 3941
1 3942
1 3943
1 3944
1 3945
1 3946
1 3947
1 3948
1 3949
1 3950
1 3951
1 3952
1 3953
1 3954
1 3955
1 3956
1 3957
1 3958
1 3959
1 3960
1 3961
1 3962
1 3963
1 3964
1 3965
1 3966
1 3967
1 3968
1 3969
1 3970
1 3971
1 3972
1 3973
1 3974
1 3975
1 3976
1 3977
1 3978
1 3979
1 3980
1 3981
1 3982
1 3983
1 3984
1 3985
1 3986
1 3987
1 3988
1 3989
1 3990
1 3991
1 3992
1 3993
1 3994
1 3995
1 3996
1 3997
1 3998
1 3999
1 4000
1 4001
1 4002
1 4003
1 4004
1 4005
1 4006
1 4007
1 4008
1 4009
1 4010
1 4011
1 4012
1 4013
1 4014
1 4015
1 4016
1 4017
1 4018
1 4019
1 4020
1 4021
1 4022
1 4023
1 4024
1 4025
1 4026
1 4027
1 4028
1 4029
1 4030
1 4031
1 4032
1 4033
1 4034
1 4035
1 4036
1 4037
1 4038
1 4039
1 4040
1 4041
1 4042
1 4043
1 4044
1 4045
1 4046
1 4047
1 4048
1 4049
1 4050
1 4051
1 4052
1 4053
1 4054
1 4055
1 4056
1 4057
1 4058
1 4059
1 4060
1 4061
1 4062
1 4063
1 4064
1 4065
1 4066
1 4067
1 4068
1 4069
1 4070
1 4071
1 4072
1 4073
1 4074
1 4075
1 4076
1 4077
1 4078
1 4079
1 4080
1 4081
1 4082
1 4083
1 4084
1 4085
1 4086
1 4087
1 4088
1 4089
1 4090
1 4091
1 4092
1 4093
1 4094
1 4095
1 4096
1 4097
1 4098
1 4099
1 4100
1 4101
1 4102
1 4103
1 4104
1 4105
1 4106
1 4107
1 4108
1 4109
1 4110
1 4111
1 4112
1 4113
1 4114
1 4115
1 4116
1 4117
1 4118
1 4119
1 4120
1 4121
1 4122
1 4123
1 4124
1 4125
1 4126
1 4127
1 4128
1 4129
1 4130
1 4131
1 4132
1 4133
1 4134
1 4135
1 4136
1 4137
1 4138
1 4139
1 4140
1 4141
1 4142
1 4143
1 4144
1 4145
1 4146
1 4147
1 4148
1 4149
1 4150
1 4151
1 4152
1 4153
1 4154
1 4155
1 4156
1 4157
1 4158
1 4159
1 4160
1 4161
1 4162
1 4163
1 4164
1 4165
1 4166
1 4167
1 4168
1 4169
1 4170
1 4171
1 4172
1 4173
1 4174
1 4175
1 4176
1 4177
1 4178
1 4179
1 4180
1 4181
1 4182
1 4183
1 4184
1 4185
1 4186
1 4187
1 4188
1 4189
1 4190
1 4191
1 4192
1 4193
1 4194
1 4195
1 4196
1 4197
1 4198
1 4199
1 4200
1 4201
1 4202
1 4203
1 4204
1 4205
1 4206
1 4207
1 4208
1 4209
1 4210
1 4211
1 4212
1 4213
1 4214
1 4215
1 4216
1 4217
1 4218
1 4219
1 4220
1 4221
1 4222
1 4223
1 4224
1 4225
1 4226
1 4227
1 4228
1 4229
1 4230
1 4231
1 4232
1 4233
1 4234
1 4235
1 4236
1 4237
1 4238
1 4239
1 4240
1 4241
1 4242
1 4243
1 4244
1 4245
1 4246
1 4247
1 4248
1 4249
1 4250
1 4251
1 4252
1 4253
1 4254
1 4255
1 4256
1 4257
1 4258
1 4259
1 4260
1 4261
1 4262
1 4263
1 4264
1 4265
1 4266
1 4267
1 4268
1 4269
1 4270
1 4271
1 4272
1 4273
1 4274
1 4275
1 4276
1 4277
1 4278
1 4279
1 4280
1 4281
1 4282
1 4283
1 4284
1 4285
1 4286
1 4287
1 4288
1 4289
1 4290
1 4291
1 4292
1 4293
1 4294
1 4295
1 4296
1 4297
1 4298
1 4299
1 4300
1 4301
1 4302
1 4303
1 4304
1 4305
1 4306
1 4307
1 4308
1 4309
1 4310
1 4311
1 4312
1 4313
1 4314
1 4315
1 4316
1 4317
1 4318
1 4319
1 4320
1 4321
1 4322
1 4323
1 4324
1 4325
1 4326
1 4327
1 4328
1 4329
1 4330
1 4331
1 4332
1 4333
1 4334
1 4335
1 4336
1 4337
1 4338
1 4339
1 4340
1 4341
1 4342
1 4343
1 4344
1 4345
1 4346
1 4347
1 4348
1 4349
1 4350
1 4351
1 4352
1 4353
1 4354
1 4355
1 4356
1 4357
1 4358
1 4359
1 4360
1 4361
1 4362
1 4363
1 4364
1 4365
1 4366
1 4367
1 4368
1 4369
1 4370
1 4371
1 4372
1 4373
1 4374
1 4375
1 4376
1 4377
1 4378
1 4379
1 4380
1 4381
1 4382
1 4383
1 4384
1 4385
1 4386
1 4387
1 4388
1 4389
1 4390
1 4391
1 4392
1 4393
1 4394
1 4395
1 4396
1 4397
1 4398
1 4399
1 4400
1 4401
1 4402
1 4403
1 4404
1 4405
1 4406
1 4407
1 4408
1 4409
1 4410
1 4411
1 4412
1 4413
1 4414
1 4415
1 4416
1 4417
1 4418
1 4419
1 4420
1 4421
1 4422
1 4423
1 4424
1 4425
1 4426
1 4427
1 4428
1 4429
1 4430
1 4431
1 4432
1 4433
1 4434
1 4435
1 4436
1 4437
1 4438
1 4439
1 4440
1 4441
1 4442
1 4443
1 4444
1 4445
1 4446
1 4447
1 4448
1 4449
1 4450
1 4451
1 4452
1 4453
1 4454
1 4455
1 4456
1 4457
1 4458
1 4459
1 4460
1 4461
1 4462
1 4463
1 4464
1 4465
1 4466
1 4467
1 4468
1 4469
1 4470
1 4471
1 4472
1 4473
1 4474
1 4475
1 4476
1 4477
1 4478
1 4479
1 4480
1 4481
1 4482
1 4483
1 4484
1 4485
1 4486
1 4487
1 4488
1 4489
1 4490
1 4491
1 4492
1 4493
1 4494
1 4495
1 4496
1 4497
1 4498
1 4499
1 4500
1 4501
1 4502
1 4503
1 4504
1 4505
1 4506
1 4507
1 4508
1 4509
1 4510
1 4511
1 4512
1 4513
1 4514
1 4515
1 4516
1 4517
1 4518
1 4519
1 4520
1 4521
1 4522
1 4523
1 4524
1 4525
1 4526
1 4527
1 4528
1 4529
1 4530
1 4531
1 4532
1 4533
1 4534
1 4535
1 4536
1 4537
1 4538
1 4539
1 4540
1 4541
1 4542
1 4543
1 4544
1 4545
1 4546
1 4547
1 4548
1 4549
1 4550
1 4551
1 4552
1 4553
1 4554
1 4555
1 4556
1 4557
1 4558
1 4559
1 4560
1 4561
1 4562
1 4563
1 4564
1 4565
1 4566
1 4567
1 4568
1 4569
1 4570
1 4571
1 4572
1 4573
1 4574
1 4575
1 4576
1 4577
1 4578
1 4579
1 4580
1 4581
1 4582
1 4583
1 4584
1 4585
1 4586
1 4587
1 4588
1 4589
1 4590
1 4591
1 4592
1 4593
1 4594
1 4595
1 4596
1 4597
1 4598
1 4599
1 4600
1 4601
1 4602
1 4603
1 4604
1 4605
1 4606
1 4607
1 4608
1 4609
1 4610
1 4611
1 4612
1 4613
1 4614
1 4615
1 4616
1 4617
1 4618
1 4619
1 4620
1 4621
1 4622
1 4623
1 4624
1 4625
1 4626
1 4627
1 4628
1 4629
1 4630
1 4631
1 4632
1 4633
1 4634
1 4635
1 4636
1 4637
1 4638
1 4639
1 4640
1 4641
1 4642
1 4643
1 4644
1 4645
1 4646
1 4647
1 4648
1 4649
1 4650
1 4651
1 4652
1 4653
1 4654
1 4655
1 4656
1 4657
1 4658
1 4659
1 4660
1 4661
1 4662
1 4663
1 4664
1 4665
1 4666
1 4667
1 4668
1 4669
1 4670
1 4671
1 4672
1 4673
1 4674
1 4675
1 4676
1 4677
1 4678
1 4679
1 4680
1 4681
1 4682
1 4683
1 4684
1 4685
1 4686
1 4687
1 4688
1 4689
1 4690
1 4691
1 4692
1 4693
1 4694
1 4695
1 4696
1 4697
1 4698
1 4699
1 4700
1 4701
1 4702
1 4703
1 4704
1 4705
1 4706
1 4707
1 4708
1 4709
1 4710
1 4711
1 4712
1 4713
1 4714
1 4715
1 4716
1 4717
1 4718
1 4719
1 4720
1 4721
1 4722
1 4723
1 4724
1 4725
1 4726
1 4727
1 4728
1 4729
1 4730
1 4731
1 4732
1 4733
1 4734
1 4735
1 4736
1 4737
1 4738
1 4739
1 4740
1 4741
1 4742
1 4743
1 4744
1 4745
1 4746
1 4747
1 4748
1 4749
1 4750
1 4751
1 4752
1 4753
1 4754
1 4755
1 4756
1 4757
1 4758
1 4759
1 4760
1 4761
1 4762
1 4763
1 4764
1 4765
1 4766
1 4767
1 4768
1 4769
1 4770
1 4771
1 4772
1 4773
1 4774
1 4775
1 4776
1 4777
1 4778
1 4779
1 4780
1 4781
1 4782
1 4783
1 4784
1 4785
1 4786
1 4787
1 4788
1 4789
1 4790
1 4791
1 4792
1 4793
1 4794
1 4795
1 4796
1 4797
1 4798
1 4799
1 4800
1 4801
1 4802
1 4803
1 4804
1 4805
1 4806
1 4807
1 4808
1 4809
1 4810
1 4811
1 4812
1 4813
1 4814
1 4815
1 4816
1 4817
1 4818
1 4819
1 4820
1 4821
1 4822
1 4823
1 4824
1 4825
1 4826
1 4827
1 4828
1 4829
1 4830
1 4831
1 4832
1 4833
1 4834
1 4835
1 4836
1 4837
1 4838
1 4839
1 4840
1 4841
1 4842
1 4843
1 4844
1 4845
1 4846
1 4847
1 4848
1 4849
1 4850
1 4851
1 4852
1 4853
1 4854
1 4855
1 4856
1 4857
1 4858
1 4859
1 4860
1 4861
1 4862
1 4863
1 4864
1 4865
1 4866
1 4867
1 4868
1 4869
1 4870
1 4871
1 4872
1 4873
1 4874
1 4875
1 4876
1 4877
1 4878
1 4879
1 4880
1 4881
1 4882
1 4883
1 4884
1 4885
1 4886
1 4887
1 4888
1 4889
1 4890
1 4891
1 4892
1 4893
1 4894
1 4895
1 4896
1 4897
1 4898
1 4899
1 4900
1 4901
1 4902
1 4903
1 4904
1 4905
1 4906
1 4907
1 4908
1 4909
1 4910
1 4911
1 4912
1 4913
1 4914
1 4915
1 4916
1 4917
1 4918
1 4919
1 4920
1 4921
1 4922
1 4923
1 4924
1 4925
1 4926
1 4927
1 4928
1 4929
1 4930
1 4931
1 4932
1 4933
1 4934
1 4935
1 4936
1 4937
1 4938
1 4939
1 4940
1 4941
1 4942
1 4943
1 4944
1 4945
1 4946
1 4947
1 4948
1 4949
1 4950
1 4951
1 4952
1 4953
1 4954
1 4955
1 4956
1 4957
1 4958
1 4959
1 4960
1 4961
1 4962
1 4963
1 4964
1 4965
1 4966
1 4967
1 4968
1 4969
1 4970
1 4971
1 4972
1 4973
1 4974
1 4975
1 4976
1 4977
1 4978
1 4979
1 4980
1 4981
1 4982
1 4983
1 4984
1 4985
1 4986
1 4987
1 4988
1 4989
1 4990
1 4991
1 4992
1 4993
1 4994
1 4995
1 4996
1 4997
1 4998
1 4999
CELL_TYPES 5000
1 
1 
1 
1 
1 
1 
1 
1 
1 
1 
1 
1 
1 
1 
1 
1 
1 
1 
1 
1 
1 
1 
1 
1 
1 
1 
1 
1 
1 
1 
1 
1 
1 
1 
1 
1 
1 
1 
1 
1 
1 
1 
1 
1 
1 
1 
1 
1 
1 
1 
1 
1 
1 
1 
1 
1 
1 
1 
1 
1 
1 
1 
1 
1 
1 
1 
1 
1 
1 
1 
1 
1 
1 
1 
1 
1 
1 
1 
1 
1 
1 
1 
1 
1 
1 
1 
1 
1 
1 
1 
1 
1 
1 
1 
1 
1 
1 
1 
1 
1 
1 
1 
1 
1 
1 
1 
1 
1 
1 
1 
1 
1 
1 
1 
1 
1 
1 
1 
1 
1 
1 
1 
1 
1 
1 
1 
1 
1 
1 
1 
1 
1 
1 
1 
1 
1 
1 
1 
1 
1 
1 
1 
1 
1 
1 
1 
1 
1 
1 
1 
1 
1 
1 
1 
1 
1 
1 
1 
1 
1 
1 
1 
1 
1 
1 
1 
1 
1 
1 
1 
1 
1 
1 
1 
1 
1 
1 
1 
1 
1 
1 
1 
1 
1 
1 
1 
1 
1 
1 
1 
1 
1 
1 
1 
1 
1 
1 
1 
1 
1 
1 
1 
1 
1 
1 
1 
1 
1 
1 
1 
1 
1 
1 
1 
1 
1 
1 
1 
1 
1 
1 
1 
1 
1 
1 
1 
1 
1 
1 
1 
1 
1 
1 
1 
1 
1 
1 
1 
1 
1 
1 
1 
1 
1 
1 
1 
1 
1 
1 
1 
1 
1 
1 
1 
1 
1 
1 
1 
1 
1 
1 
1 
1 
1 
1 
1 
1 
1 
1 
1 
1 
1 
1 
1 
1 
1 
1 
1 
1 
1 
1 
1 
1 
1 
1 
1 
1 
1 
1 
1 
1 
1 
1 
1 
1 
1 
1 
1 
1 
1 
1 
1 
1 
1 
1 
1 
1 
1 
1 
1 
1 
1 
1 
1 
1 
1 
1 
1 
1 
1 
1 
1 
1 
1 
1 
1 
1 
1 
1 
1 
1 
1 
1 
1 
1 
1 
1 
1 
1 
1 
1 
1 
1 
1 
1 
1 
1 
1 
1 
1 
1 
1 
1 
1 
1 
1 
1 
1 
1 
1 
1 
1 
1 
1 
1 
1 
1 
1 
1 
1 
1 
1 
1 
1 
1 
1 
1 
1 
1 
1 
1 
1 
1 
1 
1 
1 
1 
1 
1 
1 
1 
1 
1 
1 
1 
1 
1 
1 
1 
1 
1 
1 
1 
1 
1 
1 
1 
1 
1 
1 
1 
1 
1 
1 
1 
1 
1 
1 
1 
1 
1 
1 
1 
1 
1 
1 
1 
1 
1 
1 
1 
1 
1 
1 
1 
1 
1 
1 
1 
1 
1 
1 
1 
1 
1 
1 
1 
1 
1 
1 
1 
1 
1 
1 
1 
1 
1 
1 
1 
1 
1 
1 
1 
1 
1 
1 
1 
1 
1 
1 
1 
1 
1 
1 
1 
1 
1 
1 
1 
1 
1 
1 
1 
1 
1 
1 
1 
1 
1 
1 
1 
1 
1 
1 
1 
1 
1 
1 
1 
1 
1 
1 
1 
1 
1 
1 
1 
1 
1 
1 
1 
1 
1 
1 
1 
1 
1 
1 
1 
1 
1 
1 
1 
1 
1 
1 
1 
1 
1 
1 
1 
1 
1 
1 
1 
1 
1 
1 
1 
1 
1 
1 
1 
1 
1 
1 
1 
1 
1 
1 
1 
1 
1 
1 
1 
1 
1 
1 
1 
1 
1 
1 
1 
1 
1 
1 
1 
1 
1 
1 
1 
1 
1 
1 
1 
1 
1 
1 
1 
1 
1 
1 
1 
1 
1 
1 
1 
1 
1 
1 
1 
1 
1 
1 
1 
1 
1 
1 
1 
1 
1 
1 
1 
1 
1 
1 
1 
1 
1 
1 
1 
1 
1 
1 
1 
1 
1 
1 
1 
1 
1 
1 
1 
1 
1 
1 
1 
1 
1 
1 
1 
1 
1 
1 
1 
1 
1 
1 
1 
1 
1 
1 
1 
1 
1 
1 
1 
1 
1 
1 
1 
1 
1 
1 
1 
1 
1 
1 
1 
1 
1 
1 
1 
1 
1 
1 
1 
1 
1 
1 
1 
1 
1 
1 
1 
1 
1 
1 
1 
1 
1 
1 
1 
1 
1 
1 
1 
1 
1 
1 
1 
1 
1 
1 
1 
1 
1 
1 
1 
1 
1 
1 
1 
1 
1 
1 
1 
1 
1 
1 
1 
1 
1 
1 
1 
1 
1 
1 
1 
1 
1 
1 
1 
1 
1 
1 
1 
1 
1 
1 
1 
1 
1 
1 
1 
1 
1 
1 
1 
1 
1 
1 
1 
1 
1 
1 
1 
1 
1 
1 
1 
1 
1 
1 
1 
1 
1 
1 
1 
1 
1 
1 
1 
1 
1 
1 
1 
1 
1 
1 
1 
1 
1 
1 
1 
1 
1 
1 
1 
1 
1 
1 
1 
1 
1 
1 
1 
1 
1 
1 
1 
1 
1 
1 
1 
1 
1 
1 
1 
1 
1 
1 
1 
1 
1 
1 
1 
1 
1 
1 
1 
1 
1 
1 
1 
1 
1 
1 
1 
1 
1 
1 
1 
1 
1 
1 
1 
1 
1 
1 
1 
1 
1 
1 
1 
1 
1 
1 
1 
1 
1 
1 
1 
1 
1 
1 
1 
1 
1 
1 
1 
1 
1 
1 
1 
1 
1 
1 
1 
1 
1 
1 
1 
1 
1 
1 
1 
1 
1 
1 
1 
1 
1 
1 
1 
1 
1 
1 
1 
1 
1 
1 
1 
1 
1 
1 
1 
1 
1 
1 
1 
1 
1 
1 
1 
1 
1 
1 
1 
1 
1 
1 
1 
1 
1 
1 
1 
1 
1 
1 
1 
1 
1 
1 
1 
1 
1 
1 
1 
1 
1 
1 
1 
1 
1 
1 
1 
1 
1 
1 
1 
1 
1 
1 
1 
1 
1 
1 
1 
1 
1 
1 
1 
1 
1 
1 
1 
1 
1 
1 
1 
1 
1 
1 
1 
1 
1 
1 
1 
1 
1 
1 
1 
1 
1 
1 
1 
1 
1 
1 
1 
1 
1 
1 
1 
1 
1 
1 
1 
1 
1 
1 
1 
1 
1 
1 
1 
1 
1 
1 
1 
1 
1 
1 
1 
1 
1 
1 
1 
1 
1 
1 
1 
1 
1 
1 
1 
1 
1 
1 
1 
1 
1 
1 
1 
1 
1 
1 
1 
1 
1 
1 
1 
1 
1 
1 
1 
1 
1 
1 
1 
1 
1 
1 
1 
1 
1 
1 
1 
1 
1 
1 
1 
1 
1 
1 
1 
1 
1 
1 
1 
1 
1 
1 
1 
1 
1 
1 
1 
1 
1 
1 
1 
1 
1 
1 
1 
1 
1 
1 
1 
1 
1 
1 
1 
1 
1 
1 
1 
1 
1 
1 
1 
1 
1 
1 
1 
1 
1 
1 
1 
1 
1 
1 
1 
1 
1 
1 
1 
1 
1 
1 
1 
1 
1 
1 
1 
1 
1 
1 
1 
1 
1 
1 
1 
1 
1 
1 
1 
1 
1 
1 
1 
1 
1 
1 
1 
1 
1 
1 
1 
1 
1 
1 
1 
1 
1 
1 
1 
1 
1 
1 
1 
1 
1 
1 
1 
1 
1 
1 
1 
1 
1 
1 
1 
1 
1 
1 
1 
1 
1 
1 
1 
1 
1 
1 
1 
1 
1 
1 
1 
1 
1 
1 
1 
1 
1 
1 
1 
1 
1 
1 
1 
1 
1 
1 
1 
1 
1 
1 
1 
1 
1 
1 
1 
1 
1 
1 
1 
1 
1 
1 
1 
1 
1 
1 
1 
1 
1 
1 
1 
1 
1 
1 
1 
1 
1 
1 
1 
1 
1 
1 
1 
1 
1 
1 
1 
1 
1 
1 
1 
1 
1 
1 
1 
1 
1 
1 
1 
1 
1 
1 
1 
1 
1 
1 
1 
1 
1 
1 
1 
1 
1 
1 
1 
1 
1 
1 
1 
1 
1 
1 
1 
1 
1 
1 
1 
1 
1 
1 
1 
1 
1 
1 
1 
1 
1 
1 
1 
1 
1 
1 
1 
1 
1 
1 
1 
1 
1 
1 
1 
1 
1 
1 
1 
1 
1 
1 
1 
1 
1 
1 
1 
1 
1 
1 
1 
1 
1 
1 
1 
1 
1 
1 
1 
1 
1 
1 
1 
1 
1 
1 
1 
1 
1 
1 
1 
1 
1 
1 
1 
1 
1 
1 
1 
1 
1 
1 
1 
1 
1 
1 
1 
1 
1 
1 
1 
1 
1 
1 
1 
1 
1 
1 
1 
1 
1 
1 
1 
1 
1 
1 
1 
1 
1 
1 
1 
1 
1 
1 
1 
1 
1 
1 
1 
1 
1 
1 
1 
1 
1 
1 
1 
1 
1 
1 
1 
1 
1 
1 
1 
1 
1 
1 
1 
1 
1 
1 
1 
1 
1 
1 
1 
1 
1 
1 
1 
1 
1 
1 
1 
1 
1 
1 
1 
1 
1 
1 
1 
1 
1 
1 
1 
1 
1 
1 
1 
1 
1 
1 
1 
1 
1 
1 
1 
1 
1 
1 
1 
1 
1 
1 
1 
1 
1 
1 
1 
1 
1 
1 
1 
1 
1 
1 
1 
1 
1 
1 
1 
1 
1 
1 
1 
1 
1 
1 
1 
1 
1 
1 
1 
1 
1 
1 
1 
1 
1 
1 
1 
1 
1 
1 
1 
1 
1 
1 
1 
1 
1 
1 
1 
1 
1 
1 
1 
1 
1 
1 
1 
1 
1 
1 
1 
1 
1 
1 
1 
1 
1 
1 
1 
1 
1 
1 
1 
1 
1 
1 
1 
1 
1 
1 
1 
1 
1 
1 
1 
1 
1 
1 
1 
1 
1 
1 
1 
1 
1 
1 
1 
1 
1 
1 
1 
1 
1 
1 
1 
1 
1 
1 
1 
1 
1 
1 
1 
1 
1 
1 
1 
1 
1 
1 
1 
1 
1 
1 
1 
1 
1 
1 
1 
1 
1 
1 
1 
1 
1 
1 
1 
1 
1 
1 
1 
1 
1 
1 
1 
1 
1 
1 
1 
1 
1 
1 
1 
1 
1 
1 
1 
1 
1 
1 
1 
1 
1 
1 
1 
1 
1 
1 
1 
1 
1 
1 
1 
1 
1 
1 
1 
1 
1 
1 
1 
1 
1 
1 
1 
1 
1 
1 
1 
1 
1 
1 
1 
1 
1 
1 
1 
1 
1 
1 
1 
1 
1 
1 
1 
1 
1 
1 
1 
1 
1 
1 
1 
1 
1 
1 
1 
1 
1 
1 
1 
1 
1 
1 
1 
1 
1 
1 
1 
1 
1 
1 
1 
1 
1 
1 
1 
1 
1 
1 
1 
1 
1 
1 
1 
1 
1 
1 
1 
1 
1 
1 
1 
1 
1 
1 
1 
1 
1 
1 
1 
1 
1 
1 
1 
1 
1 
1 
1 
1 
1 
1 
1 
1 
1 
1 
1 
1 
1 
1 
1 
1 
1 
1 
1 
1 
1 
1 
1 
1 
1 
1 
1 
1 
1 
1 
1 
1 
1 
1 
1 
1 
1 
1 
1 
1 
1 
1 
1 
1 
1 
1 
1 
1 
1 
1 
1 
1 
1 
1 
1 
1 
1 
1 
1 
1 
1 
1 
1 
1 
1 
1 
1 
1 
1 
1 
1 
1 
1 
1 
1 
1 
1 
1 
1 
1 
1 
1 
1 
1 
1 
1 
1 
1 
1 
1 
1 
1 
1 
1 
1 
1 
1 
1 
1 
1 
1 
1 
1 
1 
1 
1 
1 
1 
1 
1 
1 
1 
1 
1 
1 
1 
1 
1 
1 
1 
1 
1 
1 
1 
1 
1 
1 
1 
1 
1 
1 
1 
1 
1 
1 
1 
1 
1 
1 
1 
1 
1 
1 
1 
1 
1 
1 
1 
1 
1 
1 
1 
1 
1 
1 
1 
1 
1 
1 
1 
1 
1 
1 
1 
1 
1 
1 
1 
1 
1 
1 
1 
1 
1 
1 
1 
1 
1 
1 
1 
1 
1 
1 
1 
1 
1 
1 
1 
1 
1 
1 
1 
1 
1 
1 
1 
1 
1 
1 
1 
1 
1 
1 
1 
1 
1 
1 
1 
1 
1 
1 
1 
1 
1 
1 
1 
1 
1 
1 
1 
1 
1 
1 
1 
1 
1 
1 
1 
1 
1 
1 
1 
1 
1 
1 
1 
1 
1 
1 
1 
1 
1 
1 
1 
1 
1 
1 
1 
1 
1 
1 
1 
1 
1 
1 
1 
1 
1 
1 
1 
1 
1 
1 
1 
1 
1 
1 
1 
1 
1 
1 
1 
1 
1 
1 
1 
1 
1 
1 
1 
1 
1 
1 
1 
1 
1 
1 
1 
1 
1 
1 
1 
1 
1 
1 
1 
1 
1 
1 
1 
1 
1 
1 
1 
1 
1 
1 
1 
1 
1 
1 
1 
1 
1 
1 
1 
1 
1 
1 
1 
1 
1 
1 
1 
1 
1 
1 
1 
1 
1 
1 
1 
1 
1 
1 
1 
1 
1 
1 
1 
1 
1 
1 
1 
1 
1 
1 
1 
1 
1 
1 
1 
1 
1 
1 
1 
1 
1 
1 
1 
1 
1 
1 
1 
1 
1 
1 
1 
1 
1 
1 
1 
1 
1 
1 
1 
1 
1 
1 
1 
1 
1 
1 
1 
1 
1 
1 
1 
1 
1 
1 
1 
1 
1 
1 
1 
1 
1 
1 
1 
1 
1 
1 
1 
1 
1 
1 
1 
1 
1 
1 
1 
1 
1 
1 
1 
1 
1 
1 
1 
1 
1 
1 
1 
1 
1 
1 
1 
1 
1 
1 
1 
1 
1 
1 
1 
1 
1 
1 
1 
1 
1 
1 
1 
1 
1 
1 
1 
1 
1 
1 
1 
1 
1 
1 
1 
1 
1 
1 
1 
1 
1 
1 
1 
1 
1 
1 
1 
1 
1 
1 
1 
1 
1 
1 
1 
1 
1 
1 
1 
1 
1 
1 
1 
1 
1 
1 
1 
1 
1 
1 
1 
1 
1 
1 
1 
1 
1 
1 
1 
1 
1 
1 
1 
1 
1 
1 
1 
1 
1 
1 
1 
1 
1 
1 
1 
1 
1 
1 
1 
1 
1 
1 
1 
1 
1 
1 
1 
1 
1 
1 
1 
1 
1 
1 
1 
1 
1 
1 
1 
1 
1 
1 
1 
1 
1 
1 
1 
1 
1 
1 
1 
1 
1 
1 
1 
1 
1 
1 
1 
1 
1 
1 
1 
1 
1 
1 
1 
1 
1 
1 
1 
1 
1 
1 
1 
1 
1 
1 
1 
1 
1 
1 
1 
1 
1 
1 
1 
1 
1 
1 
1 
1 
1 
1 
1 
1 
1 
1 
1 
1 
1 
1 
1 
1 
1 
1 
1 
1 
1 
1 
1 
1 
1 
1 
1 
1 
1 
1 
1 
1 
1 
1 
1 
1 
1 
1 
1 
1 
1 
1 
1 
1 
1 
1 
1 
1 
1 
1 
1 
1 
1 
1 
1 
1 
1 
1 
1 
1 
1 
1 
1 
1 
1 
1 
1 
1 
1 
1 
1 
1 
1 
1 
1 
1 
1 
1 
1 
1 
1 
1 
1 
1 
1 
1 
1 
1 
1 
1 
1 
1 
1 
1 
1 
1 
1 
1 
1 
1 
1 
1 
1 
1 
1 
1 
1 
1 
1 
1 
1 
1 
1 
1 
1 
1 
1 
1 
1 
1 
1 
1 
1 
1 
1 
1 
1 
1 
1 
1 
1 
1 
1 
1 
1 
1 
1 
1 
1 
1 
1 
1 
1 
1 
1 
1 
1 
1 
1 
1 
1 
1 
1 
1 
1 
1 
1 
1 
1 
1 
1 
1 
1 
1 
1 
1 
1 
1 
1 
1 
1 
1 
1 
1 
1 
1 
1 
1 
1 
1 
1 
1 
1 
1 
1 
1 
1 
1 
1 
1 
1 
1 
1 
1 
1 
1 
1 
1 
1 
1 
1 
1 
1 
1 
1 
1 
1 
1 
1 
1 
1 
1 
1 
1 
1 
1 
1 
1 
1 
1 
1 
1 
1 
1 
1 
1 
1 
1 
1 
1 
1 
1 
1 
1 
1 
1 
1 
1 
1 
1 
1 
1 
1 
1 
1 
1 
1 
1 
1 
1 
1 
1 
1 
1 
1 
1 
1 
1 
1 
1 
1 
1 
1 
1 
1 
1 
1 
1 
1 
1 
1 
1 
1 
1 
1 
1 
1 
1 
1 
1 
1 
1 
1 
1 
1 
1 
1 
1 
1 
1 
1 
1 
1 
1 
1 
1 
1 
1 
1 
1 
1 
1 
1 
1 
1 
1 
1 
1 
1 
1 
1 
1 
1 
1 
1 
1 
1 
1 
1 
1 
1 
1 
1 
1 
1 
1 
1 
1 
1 
1 
1 
1 
1 
1 
1 
1 
1 
1 
1 
1 
1 
1 
1 
1 
1 
1 
1 
1 
1 
1 
1 
1 
1 
1 
1 
1 
1 
1 
1 
1 
1 
1 
1 
1 
1 
1 
1 
1 
1 
1 
1 
1 
1 
1 
1 
1 
1 
1 
1 
1 
1 
1 
1 
1 
1 
1 
1 
1 
1 
1 
1 
1 
1 
1 
1 
1 
1 
1 
1 
1 
1 
1 
1 
1 
1 
1 
1 
1 
1 
1 
1 
1 
1 
1 
1 
1 
1 
1 
1 
1 
1 
1 
1 
1 
1 
1 
1 
1 
1 
1 
1 
1 
1 
1 
1 
1 
1 
1 
1 
1 
1 
1 
1 
1 
1 
1 
1 
1 
1 
1 
1 
1 
1 
1 
1 
1 
1 
1 
1 
1 
1 
1 
1 
1 
1 
1 
1 
1 
1 
1 
1 
1 
1 
1 
1 
1 
1 
1 
1 
1 
1 
1 
1 
1 
1 
1 
1 
1 
1 
1 
1 
1 
1 
1 
1 
1 
1 
1 
1 
1 
1 
1 
1 
1 
1 
1 
1 
1 
1 
1 
1 
1 
1 
1 
1 
1 
1 
1 
1 
1 
1 
1 
1 
1 
1 
1 
1 
1 
1 
1 
1 
1 
1 
1 
1 
1 
1 
1 
1 
1 
1 
1 
1 
1 
1 
1 
1 
1 
1 
1 
1 
1 
1 
1 
1 
1 
1 
1 
1 
1 
1 
1 
1 
1 
1 
1 
1 
1 
1 
1 
1 
1 
1 
1 
1 
1 
1 
1 
1 
1 
1 
1 
1 
1 
1 
1 
1 
1 
1 
1 
1 
1 
1 
1 
1 
1 
1 
1 
1 
1 
1 
1 
1 
1 
1 
1 
1 
1 
1 
1 
1 
1 
1 
1 
1 
1 
1 
1 
1 
1 
1 
1 
1 
1 
1 
1 
1 
1 
1 
1 
1 
1 
1 
1 
1 
1 
1 
1 
1 
1 
1 
1 
1 
1 
1 
1 
1 
1 
1 
1 
1 
1 
1 
1 
1 
1 
1 
1 
1 
1 
1 
1 
1 
1 
1 
1 
1 
1 
1 
1 
1 
1 
1 
1 
1 
1 
1 
1 
1 
1 
1 
1 
1 
1 
1 
1 
1 
1 
1 
1 
1 
1 
1 
1 
1 
1 
1 
1 
1 
1 
1 
1 
1 
1 
1 
1 
1 
1 
1 
1 
1 
1 
1 
1 
1 
1 
1 
1 
1 
1 
1 
1 
1 
1 
1 
1 
1 
1 
1 
1 
1 
1 
1 
1 
1 
1 
1 
1 
1 
1 
1 
1 
1 
1 
1 
1 
1 
1 
1 
1 
1 
1 
1 
1 
1 
1 
1 
1 
1 
1 
1 
1 
1 
1 
1 
1 
1 
1 
1 
1 
1 
1 
1 
1 
1 
1 
1 
1 
1 
1 
1 
1 
1 
1 
1 
1 
1 
1 
1 
1 
1 
1 
1 
1 
1 
1 
1 
1 
1 
1 
1 
1 
1 
1 
1 
1 
1 
1 
1 
1 
1 
1 
1 
1 
1 
1 
1 
1 
1 
1 
1 
1 
1 
1 
1 
1 
1 
1 
1 
1 
1 
1 
1 
1 
1 
1 
1 
1 
1 
1 
1 
1 
1 
1 
1 
1 
1 
1 
1 
1 
1 
1 
1 
1 
1 
1 
1 
1 
1 
1 
1 
1 
1 
1 
1 
1 
1 
1 
1 
1 
1 
1 
1 
1 
1 
1 
1 
1 
1 
1 
1 
1 
1 
1 
1 
1 
1 
1 
1 
1 
1 
1 
1 
1 
1 
1 
1 
1 
1 
1 
1 
1 
1 
1 
1 
1 
1 
1 
1 
1 
1 
1 
1 
1 
1 
1 
1 
1 
1 
1 
1 
1 
1 
1 
1 
1 
1 
1 
1 
1 
1 
1 
1 
1 
1 
1 
1 
1 
1 
1 
1 
1 
1 
1 
1 
1 
1 
1 
1 
1 
1 
1 
1 
1 
1 
1 
1 
1 
1 
1 
1 
1 
1 
1 
1 
1 
1 
1 
1 
1 
1 
1 
1 
1 
1 
1 
1 
1 
1 
1 
1 
1 
1 
1 
1 
1 
1 
1 
1 
1 
1 
1 
1 
1 
1 
1 
1 
1 
1 
1 
1 
1 
1 
1 
1 
1 
1 
1 
1 
1 
1 
1 
1 
1 
1 
1 
1 
1 
1 
1 
1 
1 
1 
1 
1 
1 
1 
1 
1 
1 
1 
1 
1 
1 
1 
1 
1 
1 
1 
1 
1 
1 
1 
1 
1 
1 
1 
1 
1 
1 
1 
1 
1 
1 
1 
1 
1 
1 
1 
1 
1 
1 
1 
1 
1 
1 
1 
1 
1 
1 
1 
1 
1 
1 
1 
1 
1 
1 
1 
1 
1 
1 
1 
1 
1 
1 
1 
1 
1 
1 
1 
1 
1 
1 
1 
1 
1 
1 
1 
1 
1 
1 
1 
1 
1 
1 
1 
1 
1 
1 
1 
1 
1 
1 
1 
1 
1 
1 
1 
1 
1 
1 
1 
1 
1 
1 
1 
1 
1 
1 
1 
1 
1 
1 
1 
1 
1 
1 
1 
1 
1 
1 
1 
1 
1 
1 
1 
1 
1 
1 
1 
1 
1 
1 
1 
1 
1 
1 
1 
1 
1 
1 
1 
1 
1 
1 
1 
1 
1 
1 
1 
1 
1 
1 
1 
1 
1 
1 
1 
1 
1 
1 
1 
1 
1 
1 
1 
1 
1 
1 
1 
1 
1 
1 
1 
1 
1 
1 
1 
1 
1 
1 
1 
1 
1 
1 
1 
1 
1 
1 
1 
1 
1 
1 
1 
1 
1 
1 
1 
1 
1 
1 
1 
1 
1 
1 
1 
1 
1 
1 
1 
1 
1 
1 
1 
1 
1 
1 
1 
1 
1 
1 
1 
1 
1 
1 
1 
1 
1 
1 
1 
1 
1 
1 
1 
1 
1 
1 
1 
1 
1 
1 
1 
1 
1 
1 
1 
1 
1 
1 
1 
1 
1 
1 
1 
1 
1 
1 
1 
1 
1 
1 
1 
1 
1 
1 
1 
1 
1 
1 
1 
1 
1 
1 
1 
1 
1 
1 
1 
1 
1 
1 
1 
1 
1 
1 
1 
1 
1 
1 
1 
1 
1 
1 
1 
1 
1 
1 
1 
1 
1 
1 
1 
1 
1 
1 
1 
1 
1 
1 
1 
1 
1 
1 
1 
1 
1 
1 
1 
1 
1 
1 
1 
1 
1 
1 
1 
1 
1 
1 
1 
1 
1 
1 
1 
1 
1 
1 
1 
1 
1 
1 
1 
1 
1 
1 
1 
1 
1 
1 
1 
1 
1 
1 
1 
1 
1 
1 
1 
1 
1 
1 
1 
1 
1 
1 
1 
1 
1 
1 
1 
1 
1 
1 
1 
1 
1 
1 
1 
1 
1 
1 
1 
1 
1 
1 
1 
1 
1 
1 
1 
1 
1 
1 
1 
1 
1 
1 
1 
1 
1 
1 
1 
1 
1 
1 
1 
1 
1 
1 
1 
1 
1 
1 
1 
1 
1 
1 
1 
1 
1 
1 
1 
1 
1 
1 
1 
1 
1 
1 
1 
1 
1 
1 
1 
1 
1 
1 
1 
1 
1 
1 
1 
1 
1 
1 
1 
1 
1 
1 
1 
1 
1 
1 
1 
1 
1 
1 
1 
1 
1 
1 
1 
1 
1 
1 
1 
1 
1 
1 
1 
1 
1 
1 
1 
1 
1 
1 
1 
1 
1 
1 
1 
1 
1 
1 
1 
1 
1 
1 
1 
1 
1 
1 
1 
1 
1 
1 
1 
1 
1 
1 
1 
1 
1 
1 
1 
1 
1 
1 
1 
1 
1 
1 
1 
1 
1 
1 
1 
1 
1 
1 
1 
1 
1 
1 
1 
1 
1 
1 
1 
1 
1 
1 
1 
1 
1 
1 
1 
1 
1 
1 
1 
1 
1 
1 
1 
1 
1 
1 
1 
1 
1 
1 
1 
1 
1 
1 
1 
1 
1 
1 
1 
1 
1 
1 
1 
1 
1 
1 
1 
1 
1 
1 
1 
1 
1 
1 
1 
1 
1 
1 
1 
1 
1 
1 
1 
1 
1 
1 
1 
1 
1 
1 
1 
1 
1 
1 
1 
1 
1 
1 
1 
1 
1 
1 
1 
1 
1 
1 
1 
1 
1 
1 
1 
1 
1 
1 
1 
1 
1 
1 
1 
1 
1 
1 
1 
1 
1 
1 
1 
1 
1 
1 
1 
1 
1 
1 
1 
1 
1 
1 
1 
1 
1 
1 
1 
1 
1 
1 
1 
1 
1 
1 
1 
1 
1 
1 
1 
1 
1 
1 
1 
1 
1 
1 
1 
1 
1 
1 
1 
1 
1 
1 
1 
1 
1 
1 
1 
1 
1 
1 
1 
1 
1 
1 
1 
1 
1 
1 
1 
1 
1 
1 
1 
1 
1 
1 
1 
1 
1 
1 
1 
1 
1 
1 
1 
1 
1 
1 
1 
1 
1 
1 
1 
1 
1 
1 
1 
1 
1 
1 
1 
1 
1 
1 
1 
1 
1 
1 
1 
1 
1 
1 
1 
1 
1 
1 
1 
1 
1 
1 
1 
1 
1 
1 
1 
1 
1 
1 
1 
1 
1 
1 
1 
1 
1 
1 
1 
1 
1 
1 
1 
1 
1 
1 
1 
1 
1 
1 
1 
1 
1 
1 
1 
1 
1 
1 
1 
1 
1 
1 
1 
1 
1 
1 
1 
1 
1 
1 
1 
1 
1 
1 
1 
1 
1 
1 
1 
1 
1 
1 
1 
1 
1 
1 
1 
1 
1 
1 
1 
1 
1 
1 
1 
1 
1 
1 
1 
1 
1 
1 
1 
1 
1 
1 
1 
1 
1 
1 
1 
1 
1 
1 
1 
1 
1 
1 
1 
1 
1 
1 
1 
1 
1 
1 
1 
1 
1 
1 
1 
1 
1 
1 
1 
1 
1 
1 
1 
1 
1 
1 
1 
1 
1 
1 
1 
1 
1 
1 
1 
1 
1 
1 
1 
1 
1 
1 
1 
1 
1 
1 
1 
1 
1 
1 
1 
1 
1 
1 
1 
1 
1 
1 
1 
1 
1 
1 
1 
1 
1 
1 
1 
1 
1 
1 
1 
1 
1 
1 
1 
1 
1 
1 
1 
1 
1 
1 
1 
1 
1 
1 
1 
1 
1 
1 
1 
1 
1 
1 
1 
1 
1 
1 
1 
1 
1 
1 
1 
1 
1 
1 
1 
1 
1 
1 
1 
1 
1 
1 
1 
1 
1 
1 
1 
1 
1 
1 
1 
1 
1 
1 
1 
1 
1 
1 
1 
1 
1 
1 
1 
1 
1 
1 
1 
1 
1 
1 
1 
1 
1 
1 
1 
1 
1 
1 
1 
1 
1 
1 
1 
1 
1 
1 
1 
1 
1 
1 
1 
1 
1 
1 
1 
1 
1 
1 
1 
1 
1 
1 
1 
1 
1 
1 
1 
1 
1 
1 
1 
1 
1 
1 
1 
1 
1 
1 
1 
1 
1 
1 
1 
1 
1 
1 
1 
1 
1 
1 
1 
1 
1 
1 
1 
1 
1 
1 
1 
1 
1 
1 
1 
1 
1 
1 
1 
1 
1 
1 
1 
1 
1 
1 
1 
1 
1 
1 
1 
1 
1 
1 
1 
1 
1 
1 
1 
1 
1 
1 
1 
1 
1 
1 
1 
1 
1 
1 
1 
1 
1 
1 
1 
1 
1 
1 
1 
1 
1 
1 
1 
1 
1 
1 
1 
1 
1 
1 
1 
1 
1 
1 
1 
1 
1 
1 
1 
1 
1 
1 
1 
1 
1 
1 
1 
1 
1 
1 
1 
1 
1 
1 
1 
1 
1 
1 
1 
1 
1 
1 
1 
1 
1 
1 
1 
1 
1 
1 
1 
1 
1 
1 
1 
1 
1 
1 
1 
1 
1 
1 
1 
1 
1 
1 
1 
1 
1 
1 
1 
1 
1 
1 
1 
1 
1 
1 
1 
1 
1 
1 
1 
1 
1 
1 
1 
1 
1 
1 
1 
1 
1 
1 
1 
1 
1 
1 
1 
1 
1 
1 
1 
1 
1 
1 
1 
1 
1 
1 
1 
1 
1 
1 
1 
1 
1 
1 
1 
1 
1 
1 
1 
1 
1 
1 
1 
1 
1 
1 
1 
1 
1 
1 
1 
1 
1 
1 
1 
1 
1 
1 
1 
1 
1 
1 
1 
1 
1 
1 
1 
1 
1 
1 
1 
1 
1 
1 
1 
1 
1 
1 
1 
1 
1 
1 
1 
1 
1 
1 
1 
1 
1 
1 
1 
1 
1 
1 
1 
1 
1 
1 
1 
1 
1 
1 
1 
1 
1 
1 
1 
1 
1 
1 
1 
1 
1 
1 
1 
1 
1 
1 
1 
1 
1 
1 
1 
1 
1 
1 
1 
1 
1 
1 
1 
1 
1 
1 
1 
1 
1 
1 
1 
1 
1 
1 
1 
1 
1 
1 
1 
1 
1 
1 
1 
1 
1 
1 
1 
1 
1 
1 
1 
1 
1 
1 
1 
1 
1 
1 
1 
1 
1 
1 
1 
1 
1 
1 
1 
1 
1 
1 
1 
1 
1 
1 
1 
1 
1 
1 
1 
1 
1 
1 
1 
1 
1 
1 
1 
1 
1 
1 
1 
1 
1 
1 
1 
1 
1 
1 
1 
1 
1 
1 
1 
1 
1 
1 
1 
1 
1 
1 
1 
1 
1 
1 
1 
1 
1 
1 
1 
1 
1 
1 
1 
1 
1 
1 
1 
1 
1 
1 
1 
1 
1 
1 
1 
1 
1 
1 
1 
1 
1 
1 
1 
1 
1 
1 
1 
1 
1 
1 
1 
1 
1 
1 
1 
1 
1 
1 
1 
1 
1 
1 
1 
1 
1 
1 
1 
1 
1 
1 
1 
1 
1 
1 
1 
1 
1 
1 
1 
1 
1 
1 
1 
1 
1 
1 
1 
1 
1 
1 
1 
1 
1 
1 
1 
1 
1 
1 
1 
1 
1 
1 
1 
1 
1 
1 
1 
1 
1 
1 
1 
1 
1 
1 
1 
1 
1 
1 
1 
1 
1 
1 
1 
1 
1 
1 
1 
1 
1 
1 
1 
1 
1 
1 
1 
1 
1 
1 
1 
1 
1 
1 
1 
1 
1 
1 
1 
1 
1 
1 
1 
1 
1 
1 
1 
1 
1 
1 
1 
1 
1 
1 
1 
1 
1 
1 
1 
1 
1 
1 
1 
1 
1 
1 
1 
1 
1 
1 
1 
1 
1 
1 
1 
1 
1 
1 
1 
1 
1 
1 
1 
1 
1 
1 
1 
1 
1 
1 
1 
1 
1 
1 
1 
1 
1 
1 
1 
1 
1 
1 
1 
1 
1 
1 
1 
1 
1 
1 
1 
1 
1 
1 
1 
1 
1 
1 
1 
1 
1 
1 
1 
1 
1 
1 
1 
1 
1 
1 
1 
1 
1 
1 
1 
1 
1 
1 
1 
1 
1 
1 
1 
1 
1 
1 
1 
1 
1 
1 
1 
1 
1 
1 
1 
1 
1 
1 
1 
1 
1 
1 
1 
1 
1 
1 
1 
1 
1 
1 
1 
1 
1 
1 
1 
1 
1 
1 
1 
1 
1 
1 
1 
1 
1 
1 
1 
POINT_DATA 5000
VECTORS Stress float
-213.434 -1583.61 0.
-51.0033 -1484.32 0.
-33.0303 -1442.43 0.
-50.8977 -1430.42 0.
-71.2517 -1477.9 0.
-91.6057 -1525.37 0.
-50.222 -1535.86 0.
-57.3041 -1552.38 0.
-64.3862 -1568.9 0.
-367.552 -1701.06 0.
-365.686 -1696.72 0.
-363.819 -1692.38 0.
119.392 -1486.11 0.
118.793 -1487.49 0.
-201.41 -1625.36 0.
-200.694 -1623.73 0.
-199.978 -1622.1 0.
-211.785 -1626.8 0.
-212.647 -1628.87 0.
-213.509 -1630.94 0.
-845.74 -1903.58 0.
-846.032 -1904.24 0.
-846.325 -1904.89 0.
-1068.39 -1983.22 0.
-1057.24 -1957.16 0.
-917.628 -1876.05 0.
-927.845 -1861.37 0.
-916.983 -1836.14 0.
-959.426 -1846.55 0.
-981.419 -1898 0.
-1003.41 -1949.45 0.
-470.323 -1743.62 0.
-468.323 -1738.99 0.
-466.323 -1734.36 0.
-728.912 -1847.53 0.
-731.241 -1852.86 0.
-733.57 -1858.19 0.
-1054.17 -1993.38 0.
-1052.32 -1988.99 0.
-634.462 -1807.11 0.
-637.091 -1813.18 0.
-639.72 -1819.24 0.
-843.247 -1898.72 0.
-826.071 -1858.63 0.
-808.896 -1818.55 0.
-813.419 -1812.64 0.
-819.323 -1826.35 0.
-825.226 -1840.07 0.
-990.293 -1905.1 0.
-985.208 -1893.2 0.
-2683.26 -2611.4 0.
-1251.55 -2013.29 0.
-1259.55 -2032.05 0.
-767.393 -1834.8 0.
-770.379 -1841.76 0.
-773.364 -1848.72 0.
-1107.77 -1995.16 0.
-1109.23 -1998.52 0.
-1110.69 -2001.88 0.
-358.666 -1683.75 0.
-361.093 -1689.34 0.
-363.52 -1694.93 0.
-925.199 -1937.78 0.
-925.392 -1938.21 0.
-491.909 -1752.18 0.
-491.19 -1750.43 0.
-490.471 -1748.69 0.
-784.345 -1874.56 0.
-786.291 -1879.17 0.
-788.237 -1883.78 0.
-960.068 -1956.67 0.
-957.537 -1950.77 0.
-955.005 -1944.88 0.
-978.973 -1953.55 0.
-978.734 -1952.98 0.
-1012.86 -1968.03 0.
-870.257 -1905.69 0.
-869.603 -1904.18 0.
-354.151 -1680.84 0.
-353.789 -1679.92 0.
-353.428 -1679 0.
-272.405 -1645.73 0.
-274.322 -1650.15 0.
-276.239 -1654.58 0.
-114.369 -1585 0.
-113.921 -1583.93 0.
-113.473 -1582.86 0.
-397.724 -1707.04 0.
-398.637 -1709.27 0.
2.35034 -1539.3 0.
1.8387 -1540.51 0.
1.32707 -1541.73 0.
-482.449 -1745.24 0.
-477.18 -1732.82 0.
-471.911 -1720.4 0.
-15.8014 -1528.34 0.
-22.7346 -1544.36 0.
-29.6678 -1560.39 0.
-119.106 -1675.29 0.
-168.039 -1789.09 0.
-214.555 -1552.65 0.
117.009 -1380.89 0.
134.991 -1339.07 0.
-75.4546 -1409.49 0.
-95.8302 -1456.98 0.
-116.206 -1504.47 0.
-183.709 -1561.63 0.
-190.799 -1578.15 0.
-197.889 -1594.66 0.
-229.257 -1610.35 0.
-227.377 -1606.02 0.
-225.496 -1601.68 0.
105.043 -1460.77 0.
104.438 -1462.15 0.
-139.999 -1567.59 0.
-139.252 -1565.98 0.
-138.506 -1564.36 0.
-282.549 -1625.64 0.
-283.377 -1627.74 0.
-284.206 -1629.84 0.
-748.828 -1830.55 0.
-749.133 -1831.19 0.
-749.438 -1831.83 0.
-968.344 -1909.09 0.
-957.231 -1883 0.
-1276.82 -1998.64 0.
-1026.89 -1872.48 0.
-1015.96 -1847.33 0.
-851.853 -1768.88 0.
-873.771 -1820.42 0.
-895.689 -1871.96 0.
-460.722 -1707.87 0.
-458.692 -1703.24 0.
-456.663 -1698.61 0.
-714.269 -1809.98 0.
-716.661 -1815.24 0.
-719.053 -1820.51 0.
-1044.54 -1957.91 0.
-1042.72 -1953.49 0.
-599.9 -1761.19 0.
-602.572 -1767.21 0.
-605.245 -1773.24 0.
-778.841 -1839.84 0.
-761.668 -1799.75 0.
-744.496 -1759.65 0.
-915.473 -1824.89 0.
-921.406 -1838.55 0.
-927.339 -1852.21 0.
-909.84 -1839.28 0.
-904.785 -1827.39 0.
-1658.11 -2140.59 0.
-1085.27 -1910.6 0.
-1093.23 -1929.43 0.
-946.059 -1879.79 0.
-949.062 -1886.78 0.
-952.064 -1893.76 0.
-931.831 -1888.49 0.
-933.322 -1891.83 0.
-934.814 -1895.17 0.
-520.884 -1722.04 0.
-523.344 -1727.56 0.
-525.804 -1733.09 0.
-992.032 -1934.86 0.
-992.232 -1935.3 0.
-312.538 -1644.01 0.
-311.87 -1642.24 0.
-311.202 -1640.48 0.
-649.814 -1785.48 0.
-651.716 -1790.12 0.
-653.618 -1794.76 0.
-854.216 -1879.94 0.
-851.678 -1874.05 0.
-849.141 -1868.16 0.
-1068.05 -1960.32 0.
-1067.82 -1959.74 0.
-1107.41 -1976.89 0.
-995.862 -1927.87 0.
-995.196 -1926.37 0.
-200.179 -1583.45 0.
-199.864 -1582.48 0.
-199.549 -1581.51 0.
-135.994 -1555.9 0.
-137.943 -1560.31 0.
-139.893 -1564.71 0.
-270.157 -1620.45 0.
-269.725 -1619.37 0.
-269.294 -1618.3 0.
-433.027 -1690.72 0.
-433.891 -1693.04 0.
-160.019 -1577.35 0.
-160.529 -1578.61 0.
-161.038 -1579.88 0.
-295.216 -1633.76 0.
-290.029 -1621.28 0.
-284.842 -1608.81 0.
-60.4462 -1516.06 0.
-67.4626 -1531.98 0.
-74.479 -1547.9 0.
-463.972 -1791.78 0.
-513.138 -1905.36 0.
-197.643 -1479.8 0.
385.452 -1044.29 0.
385.515 -1043.85 0.
-174.784 -1562.85 0.
-204.812 -1633.12 0.
-508.737 -2342.5 0.
-698.941 -2478.26 0.
-667.006 -2403.95 0.
-840.022 -2807.85 0.
-659.577 -2844.89 0.
-630.989 -2778.11 0.
-559.099 -2610.29 0.
-322.095 -2398.1 0.
-215.602 -2149.52 0.
-720.46 -3008.21 0.
-554.127 -2619.76 0.
-499.494 -2491.95 0.
-868.33 -2826.89 0.
-1004.65 -3144.94 0.
-1266.81 -3756.63 0.
-1641.54 -4066.36 0.
-1363.48 -3417.84 0.
-1265.38 -3189.18 0.
-1254.3 -2735.69 0.
-1247.66 -2720.56 0.
-1522.28 -3417.97 0.
-1617.78 -3031.62 0.
-1532.49 -2832.41 0.
-1153 -2647.74 0.
-1274.41 -2930.78 0.
-1582.5 -3649.43 0.
-1163.12 -3333.39 0.
-1038.05 -3041.57 0.
-994.962 -2941.01 0.
-1207.82 -2957.41 0.
-1368.8 -3333.6 0.
-1652.46 -3996.06 0.
-1897.37 -3935.34 0.
-1687.02 -3444.69 0.
-1386.92 -3632.22 0.
-1184.92 -3161.08 0.
-1138.26 -3052.4 0.
-1247.56 -3025.45 0.
-1001.98 -2452.45 0.
-924.472 -2271.63 0.
-1474.08 -2902.77 0.
-1603.54 -3204.73 0.
-1609.55 -3218.67 0.
-1298.64 -2867.81 0.
-1238.41 -2727.06 0.
-3109.7 -4622.46 0.
-1490.97 -3143.59 0.
-1374.99 -2872.41 0.
-1561.7 -2945.17 0.
-1516.85 -2840.32 0.
-1786.73 -3469.86 0.
-1140.57 -2679.51 0.
-1239.66 -2910.87 0.
-1416.4 -3323.4 0.
-1320.52 -3248.3 0.
-1177 -2913.62 0.
-1253.93 -3093.32 0.
-1484.79 -2925.42 0.
-1614.4 -3227.98 0.
-1085.81 -3758.61 0.
-1041.04 -3654.18 0.
-1081.62 -3748.88 0.
-1343.9 -3630.48 0.
-1032.74 -2904.26 0.
-1190.37 -3271.88 0.
-1410.34 -3347.44 0.
-1303.76 -3098.84 0.
-1641.27 -3886.47 0.
-1592.09 -2983.1 0.
-1364.49 -2451.81 0.
-1616.93 -2888.13 0.
-1390.84 -2578.49 0.
-1834.58 -3614.17 0.
-849.651 -3359.88 0.
-553.886 -2669.85 0.
-663.234 -2925.09 0.
-783.755 -3294.98 0.
-697.867 -3094.88 0.
-671.292 -3033.19 0.
-1030.13 -3066.1 0.
-890.455 -2739.98 0.
-976.616 -2940.84 0.
-932.33 -2756.51 0.
-1013.95 -2946.87 0.
-1103.64 -3441.03 0.
-639.326 -2357.17 0.
-535.576 -2114.62 0.
-419.175 -2248.21 0.
-264.824 -1887.74 0.
-470.602 -2367.54 0.
-281.088 -1914.04 0.
75.9899 -1080.97 0.
31.9203 -1183.9 0.
-761.857 -1800.48 0.
-706.609 -1671.95 0.
-97.4274 -1014.6 0.
323.631 -759.285 0.
353.792 -688.742 0.
203.061 -716.702 0.
185.799 -757.278 0.
168.536 -797.854 0.
12.6103 -849.5 0.
53.1045 -755.331 0.
93.5987 -661.162 0.
251.715 -541.447 0.
272.719 -492.757 0.
293.723 -444.067 0.
590.715 -412.459 0.
530.754 -552.246 0.
147.744 -808.962 0.
197.481 -692.717 0.
247.218 -576.473 0.
119.683 -593.844 0.
79.9509 -686.489 0.
40.2192 -779.134 0.
-203.162 -876.027 0.
-165.955 -789.518 0.
-128.748 -703.008 0.
-478.412 -780.698 0.
-439.44 -690.248 0.
149.449 -364.175 0.
-521.318 -633.107 0.
-512.891 -613.17 0.
-275.749 -515.181 0.
-310.029 -594.905 0.
-344.309 -674.628 0.
55.1194 -515.263 0.
82.8577 -450.474 0.
110.596 -385.686 0.
-84.8721 -499.476 0.
-121.387 -585.168 0.
-157.903 -670.86 0.
-572.063 -815.969 0.
-548.796 -762.041 0.
-112.535 -535.885 0.
-114.286 -540.3 0.
-116.036 -544.714 0.
-301.285 -620.786 0.
-293.626 -602.987 0.
-285.967 -585.188 0.
-445.281 -629.811 0.
-429.708 -593.281 0.
-414.136 -556.751 0.
-340.285 -574.006 0.
-377.605 -660.789 0.
-851.329 -934.353 0.
-396.056 -668.974 0.
-359.527 -583.152 0.
-473.127 -584.865 0.
-491.978 -628.532 0.
-510.829 -672.199 0.
-239.893 -598.344 0.
-266.305 -660.134 0.
-292.717 -721.925 0.
-174.794 -690.218 0.
-176.01 -693.331 0.
-177.227 -696.444 0.
-578.676 -935.524 0.
-618.327 -1028.14 0.
15.2616 -818.379 0.
38.2759 -764.505 0.
61.2901 -710.63 0.
-145.966 -732.128 0.
-84.9227 -589.738 0.
-23.8792 -447.347 0.
-309.131 -543.383 0.
-332.891 -598.954 0.
-356.651 -654.525 0.
-707.256 -825.209 0.
-714.157 -841.076 0.
-212.643 -637.975 0.
-335.597 -765.452 0.
-374.945 -857.098 0.
237.957 -634.446 0.
283.065 -529.466 0.
328.172 -424.486 0.
381.3 -397.846 0.
329.791 -518.457 0.
278.282 -639.067 0.
56.1271 -808.71 0.
24.4984 -882.371 0.
-7.13034 -956.031 0.
-148.989 -932.015 0.
-97.6734 -811.805 0.
109.11 -645.613 0.
79.1509 -715.011 0.
49.1919 -784.409 0.
60.7074 -839.97 0.
23.9575 -925.443 0.
-12.7924 -1010.92 0.
161.511 -922.798 0.
202.347 -827.534 0.
243.182 -732.269 0.
-144.743 -802.972 0.
-94.1402 -685.49 0.
-202.22 -1027.74 0.
114.749 -817.417 0.
144.917 -746.99 0.
238.369 -669.807 0.
221.126 -710.43 0.
203.882 -751.054 0.
45.7487 -803.702 0.
86.2846 -709.541 0.
126.821 -615.38 0.
175.396 -542.419 0.
196.53 -493.825 0.
217.665 -445.231 0.
682.997 -341.393 0.
623.035 -481.164 0.
73.177 -809.516 0.
122.951 -693.328 0.
172.726 -577.14 0.
174.219 -538.893 0.
134.471 -631.547 0.
94.7228 -724.201 0.
-99.607 -800.276 0.
-62.3938 -713.796 0.
-25.1806 -627.316 0.
-537.595 -774.198 0.
-498.591 -683.79 0.
236.361 -295.206 0.
-420.892 -558.671 0.
-412.491 -538.734 0.
-304.223 -495.994 0.
-338.517 -575.723 0.
-372.81 -655.451 0.
84.461 -471.22 0.
112.168 -406.444 0.
139.876 -341.669 0.
16.8442 -424.432 0.
-19.7179 -510.134 0.
-56.28 -595.837 0.
-569.734 -783.564 0.
-546.408 -729.667 0.
-160.24 -524.426 0.
-161.905 -528.774 0.
-163.569 -533.123 0.
-388.044 -626.544 0.
-380.369 -608.751 0.
-372.695 -590.959 0.
-361.8 -562.598 0.
-346.278 -526.097 0.
-330.756 -489.595 0.
-354.123 -548.65 0.
-391.502 -635.475 0.
-614.396 -801.192 0.
-337.46 -612.434 0.
-300.954 -526.636 0.
-362.25 -505.857 0.
-381.145 -549.507 0.
-400.041 -593.157 0.
-212.861 -555.697 0.
-239.251 -617.43 0.
-265.64 -679.163 0.
-97.6222 -625.439 0.
-98.806 -628.557 0.
-99.9897 -631.675 0.
-496.677 -868.553 0.
-536.341 -961.165 0.
-163.172 -863.652 0.
-140.223 -809.733 0.
-117.275 -755.813 0.
-183.562 -716.678 0.
-122.438 -574.321 0.
-61.3131 -431.963 0.
-415.861 -557.837 0.
-439.627 -613.469 0.
-463.394 -669.102 0.
-739.522 -807.233 0.
-746.448 -823.128 0.
117.443 -465.073 0.
21.8247 -580.68 0.
-17.6743 -672.236 0.
155.937 -638.152 0.
201.114 -533.185 0.
246.292 -428.218 0.
303.956 -399.608 0.
252.486 -520.245 0.
201.016 -640.882 0.
218.295 -707.533 0.
186.685 -781.209 0.
155.075 -854.885 0.
-130.827 -892.959 0.
-79.6503 -772.669 0.
143.623 -599.419 0.
113.636 -668.837 0.
83.6496 -738.254 0.
-74.0769 -865.929 0.
-110.78 -951.354 0.
-147.484 -1036.78 0.
199.777 -874.983 0.
240.573 -779.7 0.
281.368 -684.418 0.
103.999 -664.891 0.
154.629 -547.511 0.
-377.146 -1293.79 0.
-180.928 -1337.63 0.
-242.574 -1481.74 0.
-156.748 -1512.52 0.
-88.835 -1354.33 0.
-20.9218 -1196.13 0.
-125.76 -1235.06 0.
-208.547 -1429.04 0.
-291.334 -1623.02 0.
-347.697 -1791.16 0.
-418.413 -1956.86 0.
-489.129 -2122.55 0.
10.8589 -1838.71 0.
61.4468 -1720.73 0.
-402.949 -1836.13 0.
-411.744 -1857.1 0.
-420.539 -1878.07 0.
-317.659 -1825.27 0.
-286.37 -1752.04 0.
-255.081 -1678.8 0.
-490.48 -1760.41 0.
-495.569 -1771.99 0.
-500.658 -1783.56 0.
-1032.21 -2026.59 0.
-1041.28 -2047.68 0.
-534.48 -1847.59 0.
-983.982 -1896.19 0.
-907.59 -1717.69 0.
-773.169 -1564.79 0.
-822.881 -1680.41 0.
-872.592 -1796.02 0.
-444.779 -1672.22 0.
-451.558 -1687.85 0.
-458.337 -1703.48 0.
-526.32 -1798.57 0.
-576.596 -1915.91 0.
-626.871 -2033.25 0.
-1212.31 -2203.19 0.
-1157.41 -2074.61 0.
-746.552 -1807.28 0.
-751.321 -1818.13 0.
-756.09 -1828.99 0.
-999.126 -1910.98 0.
-956.107 -1810.42 0.
-913.087 -1709.86 0.
-813.831 -1662.66 0.
-842.141 -1729.83 0.
-870.451 -1796.99 0.
-895.136 -1862.16 0.
-923.706 -1929.06 0.
-2179.13 -2522.41 0.
-1015.52 -2071.38 0.
-1040.7 -2129.82 0.
-924.137 -2116.85 0.
-930.335 -2130.98 0.
-936.532 -2145.1 0.
-890.124 -2072.39 0.
-820.692 -1910.28 0.
-751.26 -1748.16 0.
-542.242 -1627.37 0.
-552.074 -1649.85 0.
-561.906 -1672.33 0.
-963.396 -1909.99 0.
-1000.43 -1996.59 0.
-661.623 -1907.43 0.
-636.935 -1850.79 0.
-612.247 -1794.15 0.
-725.109 -1842.29 0.
-771.225 -1949.25 0.
-817.341 -2056.2 0.
-1116.65 -2158.58 0.
-1056.17 -2017.05 0.
-995.692 -1875.53 0.
-1151.6 -2025.66 0.
-1223.54 -2193.97 0.
-507.057 -2022.86 0.
-532.857 -2010.51 0.
-520.394 -1981.76 0.
-475.746 -1944.31 0.
-477.275 -1946.87 0.
-478.804 -1949.43 0.
-333.355 -1861.12 0.
-301.559 -1786.33 0.
-269.762 -1711.55 0.
-106.134 -1653.85 0.
-131.809 -1713.97 0.
-157.483 -1774.09 0.
-580.877 -1880.45 0.
-533.316 -1769.7 0.
-286.756 -1586.24 0.
-302.678 -1623.01 0.
-318.601 -1659.77 0.
-444.057 -1718.29 0.
-418.804 -1659.15 0.
-393.551 -1600.01 0.
-140.994 -1524.63 0.
-191.9 -1643.48 0.
-242.806 -1762.34 0.
-179.788 -1634.35 0.
-98.0796 -1443.07 0.
-387.866 -1267.21 0.
-116.069 -1278.33 0.
-177.681 -1422.58 0.
-240.577 -1516.48 0.
-172.626 -1358.39 0.
-104.676 -1200.3 0.
-91.0903 -1188.62 0.
-173.789 -1382.68 0.
-256.487 -1576.73 0.
-209.108 -1700.29 0.
-279.826 -1865.96 0.
-350.543 -2031.63 0.
-122.985 -1864.53 0.
-72.4947 -1746.48 0.
-382.114 -1795.69 0.
-390.935 -1816.64 0.
-399.756 -1837.6 0.
-194.474 -1741.12 0.
-163.255 -1667.91 0.
-132.036 -1594.7 0.
-509.563 -1737.23 0.
-514.786 -1748.78 0.
-520.01 -1760.34 0.
-837.214 -1911.32 0.
-846.18 -1932.5 0.
-1380.12 -2178.71 0.
-1026.19 -1882.66 0.
-949.869 -1704.2 0.
-737.81 -1518.12 0.
-787.576 -1633.84 0.
-837.342 -1749.57 0.
-477.768 -1654.98 0.
-484.673 -1670.56 0.
-491.578 -1686.14 0.
-483.046 -1748.54 0.
-533.358 -1865.83 0.
-583.67 -1983.13 0.
-1263.03 -2193.65 0.
-1208.15 -2064.98 0.
-756.483 -1780.1 0.
-761.085 -1790.97 0.
-765.688 -1801.84 0.
-1028.84 -1892.17 0.
-985.796 -1791.61 0.
-942.749 -1691.04 0.
-814.389 -1631.76 0.
-842.632 -1698.95 0.
-870.876 -1766.14 0.
-798.956 -1789.5 0.
-827.522 -1856.41 0.
-1353.05 -2136.89 0.
-1168.24 -2105.55 0.
-1193.34 -2164.09 0.
-689.764 -1984.91 0.
-696.02 -1999.01 0.
-702.276 -2013.11 0.
-951.599 -2067.34 0.
-882.061 -1905.32 0.
-812.523 -1743.3 0.
-621.262 -1629.67 0.
-631.11 -1652.14 0.
-640.958 -1674.62 0.
-1062.21 -1920.68 0.
-1099.1 -2007.35 0.
-571.639 -1837.29 0.
-547.039 -1780.56 0.
-522.439 -1723.84 0.
-799.745 -1842.84 0.
-845.767 -1949.84 0.
-891.788 -2056.85 0.
-1015.42 -2083.47 0.
-954.881 -1942.02 0.
-894.339 -1800.57 0.
-819.048 -1851.91 0.
-890.993 -2020.31 0.
-673.41 -2062.23 0.
-711.373 -2055.27 0.
-698.855 -2026.68 0.
-538.607 -1939.61 0.
-540.058 -1942.26 0.
-541.51 -1944.9 0.
-251.727 -1794.57 0.
-219.852 -1719.83 0.
-187.978 -1645.08 0.
-35.2011 -1591.97 0.
-60.9517 -1652.05 0.
-86.7023 -1712.14 0.
-632.452 -1871.27 0.
-584.952 -1760.47 0.
-305.053 -1562.53 0.
-320.969 -1599.24 0.
-336.885 -1635.94 0.
-284.941 -1618.41 0.
-259.62 -1559.22 0.
-234.299 -1500.04 0.
-295.584 -1559.6 0.
-346.565 -1678.42 0.
-397.546 -1797.25 0.
-73.8255 -1556.74 0.
8.1748 -1365.86 0.
-215.508 -812.857 0.
239.953 -539.527 0.
125.346 -805.976 0.
-368.882 -1626.62 0.
-215.563 -1268.2 0.
-153.606 -1122.93 0.
-660.268 -2552.46 0.
351.102 -191.948 0.
810.479 880.551 0.
777.178 367.502 0.
167.643 -1054.3 0.
752.857 311.793 0.
511.882 -95.3068 0.
171.148 -890.737 0.
-299.846 -1610.78 0.
37.4643 -823.748 0.
-78.4042 -1094.11 0.
-9.73742 -1512.77 0.
-62.8055 -1637.05 0.
88.4983 -1284.46 0.
-360.975 -1321.5 0.
-99.542 -712.268 0.
-217.061 -987.281 0.
-273.763 -934.791 0.
-335.153 -1078.1 0.
-360.924 -626.052 0.
-801.118 -1246.37 0.
-502.311 -549.003 0.
-294.361 -518.649 0.
-17.978 126.326 0.
-231.904 -372.746 0.
-1037.7 -2866.08 0.
-226.088 -971.282 0.
-49.9341 -559.23 0.
327.485 91.8555 0.
-73.9153 -843.946 0.
-840.301 -2631.42 0.
-1644.89 -2957.9 0.
-1117.07 -1727.12 0.
-440.507 -991.413 0.
-528.432 -1196.38 0.
-677.486 -1544.02 0.
-876.302 -1449 0.
-707.496 -1055.16 0.
-383.037 -298.133 0.
-464.769 -785.465 0.
-777.172 -1513.74 0.
-463.806 -781.874 0.
-303.141 -785.263 0.
-56.2493 -208.97 0.
-2094.16 -2545.61 0.
-839.833 -1018.69 0.
-788.852 -899.344 0.
-68.2778 -947.614 0.
-416.523 -1760.01 0.
-917.839 -2929.59 0.
-692.082 -1313.45 0.
-166.909 -87.7614 0.
-412.589 -660.737 0.
-597.845 -1394.2 0.
-594.263 -1385.52 0.
25.4258 60.7469 0.
-324.809 20.3459 0.
-874.81 -1262.16 0.
-909.23 -2765.08 0.
155.447 -280.206 0.
67.956 -483.709 0.
-311.461 -528.136 0.
-595.566 -1191.53 0.
-517.619 -1010.1 0.
-773.925 -1681.08 0.
-440.45 -903.884 0.
-346.106 -684.64 0.
-435.585 -1557.14 0.
-631.926 -2015.1 0.
-907.643 -2228.35 0.
-588.546 -1399.2 0.
-700.523 -1660.53 0.
-491.672 -1678.41 0.
-90.83 -742.752 0.
-107.335 -780.896 0.
449.954 -279.829 0.
334.222 -550.483 0.
90.397 -1120.01 0.
27.5738 -1548.15 0.
117.346 -1338.94 0.
-450.744 -2664.76 0.
-413.74 -1231.71 0.
-202.028 -737.675 0.
188.382 -345.593 0.
198.496 -322.183 0.
180.958 -363.353 0.
427.645 -226.07 0.
271.7 -590.014 0.
734.406 489.564 0.
-0.950213 -545.343 0.
-160.555 -917.68 0.
-570.521 -1874.22 0.
462.087 -473.752 0.
371.86 -682.08 0.
-5.51022 -897.993 0.
113.988 -905.087 0.
86.6711 -968.299 0.
-30.7282 -1079.48 0.
-87.1828 -1210.81 0.
-143.637 -1342.14 0.
-249.299 -1432.02 0.
-229.04 -1383.8 0.
-208.781 -1335.58 0.
47.73 -1153.59 0.
93.768 -1045.93 0.
139.806 -938.259 0.
108.604 -1014.07 0.
66.1305 -1113.57 0.
-11.4525 -1213.61 0.
11.1096 -1160.82 0.
33.6717 -1108.02 0.
113.72 -1076.45 0.
61.5048 -1198.26 0.
9.28922 -1320.07 0.
-344.592 -1463.93 0.
-296.426 -1351.96 0.
-248.259 -1239.99 0.
-540.957 -1273.21 0.
-491.915 -1158.7 0.
-508.077 -1072.07 0.
-687.932 -1234.94 0.
-733.467 -1341.27 0.
-623.286 -1333.29 0.
-547.453 -1156.71 0.
-471.62 -980.122 0.
-318.368 -932.371 0.
-437.464 -1209.85 0.
-556.56 -1487.33 0.
-282.561 -1236.15 0.
-116.399 -848.08 0.
49.7624 -460.008 0.
-838.533 -1083.49 0.
-1004.57 -1470.65 0.
-751.234 -1609.95 0.
-599.894 -1256.54 0.
-448.553 -903.119 0.
-660.821 -879.023 0.
-780.799 -1158.67 0.
-900.776 -1438.33 0.
-646.196 -1377.08 0.
-596.438 -1260.67 0.
-546.679 -1144.27 0.
-391.42 -1035.98 0.
-376.64 -1001.48 0.
-797.266 -1153.44 0.
-758.252 -1119.71 0.
-749.541 -1099.06 0.
-203.561 -858.332 0.
-212.599 -879.542 0.
-221.637 -900.752 0.
-561.773 -1112.03 0.
-629.337 -1268.98 0.
-696.902 -1425.93 0.
-613.136 -1537.8 0.
-695.929 -1730.67 0.
-778.721 -1923.53 0.
-1132.74 -1736.72 0.
-924.616 -1249.93 0.
-97.4411 -570.614 0.
-206.122 -823.392 0.
-314.804 -1076.17 0.
-602.168 -1312.5 0.
-569.154 -1235.42 0.
-536.14 -1158.34 0.
-403.093 -1124.39 0.
-450.003 -1234.1 0.
-496.914 -1343.81 0.
-276.086 -1122.94 0.
-179.4 -897.124 0.
-279.739 -759.005 0.
-343.399 -846.534 0.
-375.239 -920.428 0.
-172.498 -938.779 0.
-305.335 -1248.93 0.
-438.171 -1559.08 0.
8.95755 -1416.29 0.
112.656 -1174.51 0.
216.354 -932.739 0.
225.229 -761.932 0.
305.931 -573.537 0.
386.632 -385.143 0.
-214.523 -947.624 0.
-402.099 -1385.41 0.
-305.42 -1646.91 0.
-256.654 -1533.27 0.
-207.889 -1419.63 0.
-252.507 -1389.03 0.
-269.603 -1428.92 0.
-286.7 -1468.81 0.
-195.043 -1339.37 0.
-100.376 -1118.44 0.
-5.70832 -897.51 0.
223.394 -869.792 0.
153.385 -1032.31 0.
312.826 -730.328 0.
168.216 -850.293 0.
140.995 -913.675 0.
112.797 -986.444 0.
56.4263 -1117.91 0.
0.0553336 -1249.37 0.
-317.361 -1429.31 0.
-297.161 -1381.05 0.
-276.962 -1332.79 0.
-30.3178 -1155.53 0.
15.7415 -1047.92 0.
61.8009 -940.297 0.
113.695 -980.321 0.
71.1899 -1079.75 0.
150.115 -1112.64 0.
172.728 -1059.87 0.
195.34 -1007.11 0.
52.444 -1071.42 0.
0.101756 -1193.19 0.
-52.2405 -1314.96 0.
-233.381 -1385.2 0.
-185.418 -1273.11 0.
-137.455 -1161.02 0.
-674.289 -1299.05 0.
-625.265 -1184.59 0.
-465.872 -1022.77 0.
-538.339 -1139.25 0.
-583.813 -1245.66 0.
-582.057 -1284 0.
-506.187 -1107.5 0.
-430.317 -930.991 0.
-435.458 -951.018 0.
-554.521 -1228.48 0.
-673.584 -1505.94 0.
-315.966 -1219.02 0.
-149.767 -830.951 0.
16.4326 -442.885 0.
-818.126 -1043.49 0.
-984.382 -1430.43 0.
-791.115 -1595.56 0.
-639.718 -1242.25 0.
-488.32 -888.948 0.
-679.375 -855.759 0.
-799.532 -1135.27 0.
-919.69 -1414.77 0.
-541.164 -1300.52 0.
-491.294 -1184.28 0.
-441.424 -1068.04 0.
-350.653 -986.8 0.
-335.757 -952.352 0.
35.0827 -765.116 0.
-589.804 -1016.05 0.
-580.989 -995.394 0.
-399.294 -910.435 0.
-408.313 -931.619 0.
-417.331 -952.804 0.
-491.462 -1050.72 0.
-559.125 -1207.62 0.
-626.787 -1364.51 0.
-539.685 -1474.84 0.
-622.627 -1667.6 0.
-705.569 -1860.36 0.
-1183.44 -1727.37 0.
-975.324 -1240.72 0.
-238.458 -598.843 0.
-347.061 -851.613 0.
-455.664 -1104.38 0.
-529.959 -1250.2 0.
-497.059 -1172.96 0.
-464.158 -1095.71 0.
-224.479 -1016.47 0.
-271.591 -1126 0.
-318.703 -1235.53 0.
-292.462 -1099.05 0.
-195.681 -873.23 0.
-170.298 -681.022 0.
-317.493 -804.359 0.
-349.338 -878.239 0.
-152.831 -898.575 0.
-285.567 -1208.88 0.
-418.303 -1519.18 0.
81.7419 -1353.55 0.
185.41 -1111.75 0.
289.078 -869.956 0.
71.1652 -796.381 0.
151.788 -607.962 0.
232.411 -419.543 0.
-103.265 -868.758 0.
-290.926 -1306.58 0.
-211.045 -1574.74 0.
-162.205 -1461.16 0.
-113.365 -1347.59 0.
-458.828 -1446 0.
-475.906 -1485.89 0.
-492.985 -1525.79 0.
0.567279 -1224.23 0.
95.22 -1003.31 0.
189.873 -782.391 0.
155.477 -867.377 0.
85.8613 -1030.38 0.
131.472 -1090.66 0.
47.2082 -1218.35 0.
-4.3564 -1338.8 0.
-78.6205 -1438.51 0.
-52.7712 -1378.02 0.
-26.9217 -1317.53 0.
-340.531 -1454.51 0.
-379.23 -1545.14 0.
-417.929 -1635.76 0.
-248.961 -1632.94 0.
-284.158 -1714.7 0.
-319.354 -1796.46 0.
-148.323 -1608.37 0.
-76.396 -1440.25 0.
107.332 -1267.43 0.
-21.7206 -1568.24 0.
-150.773 -1869.06 0.
-452.294 -2104.02 0.
-358.258 -1885.11 0.
-264.221 -1666.2 0.
-336.192 -1604.48 0.
-322.827 -1573.66 0.
-309.462 -1542.83 0.
-836.382 -1736.28 0.
-819.716 -1696.79 0.
-579.146 -1561.25 0.
-763.825 -1709.62 0.
-801.59 -1796.79 0.
-846.236 -1874.19 0.
-855.175 -1894.39 0.
-864.114 -1914.6 0.
-863.091 -1888.04 0.
-820.212 -1788.84 0.
-777.334 -1689.64 0.
-589.05 -1698.35 0.
-680.948 -1912.87 0.
-772.846 -2127.39 0.
-1325.11 -2157.14 0.
-1191.74 -1846.3 0.
-666.839 -1416.95 0.
-770.322 -1658.65 0.
-873.806 -1900.36 0.
-1204.18 -2143.11 0.
-1157.31 -2034.43 0.
-1110.44 -1925.74 0.
-729.61 -1680.15 0.
-689.459 -1586.38 0.
-649.308 -1492.62 0.
-515.774 -1486.43 0.
-561.32 -1592.83 0.
159.229 -1371.44 0.
-917.864 -1831.38 0.
-917.27 -1829.51 0.
-819.536 -1755.02 0.
-749.987 -1592.62 0.
-680.437 -1430.23 0.
-634.67 -1374.2 0.
-678.512 -1477.22 0.
-722.354 -1580.24 0.
-526.33 -1457.43 0.
-474.37 -1336.61 0.
-422.41 -1215.8 0.
-1156.7 -1679.85 0.
-1251.12 -1901.52 0.
-847.561 -1880.52 0.
-807.409 -1787.38 0.
-767.257 -1694.25 0.
-638.677 -1602.91 0.
-663.606 -1661.69 0.
-688.536 -1720.47 0.
-467.211 -1625.25 0.
-447.716 -1580.25 0.
-428.22 -1535.25 0.
-608.856 -1724.3 0.
-689.325 -1912.37 0.
-584.379 -2023.27 0.
-821.747 -2087.46 0.
-802.033 -2041.49 0.
-514.436 -1861.79 0.
-457.086 -1727.16 0.
-399.737 -1592.54 0.
-36.3897 -1447.13 0.
-119.114 -1640.22 0.
-201.839 -1833.31 0.
-451.545 -1980.73 0.
-444.027 -1963.14 0.
-436.51 -1945.56 0.
-439.542 -1828.51 0.
-371.523 -1669.09 0.
-149.199 -1465.3 0.
-165.002 -1501.66 0.
-180.805 -1538.01 0.
-694.23 -1765.78 0.
-678.225 -1728.28 0.
-662.219 -1690.79 0.
-78.2618 -1499.79 0.
-144.89 -1655.29 0.
-211.518 -1810.8 0.
-275.663 -1784.45 0.
-224.076 -1664.01 0.
-221.05 -1209.56 0.
114.829 -1157.04 0.
63.3784 -1277.56 0.
-182.401 -1452.03 0.
-156.7 -1391.33 0.
-131 -1330.63 0.
-268.211 -1392.21 0.
-307.053 -1482.68 0.
-345.895 -1573.15 0.
-171.947 -1568.71 0.
-207.185 -1650.47 0.
-242.422 -1732.23 0.
-102.713 -1557.46 0.
-30.8024 -1389.4 0.
34.7743 -1267.01 0.
-94.1788 -1567.91 0.
-223.132 -1868.81 0.
-508.381 -2096.28 0.
-414.405 -1877.42 0.
-320.429 -1658.55 0.
-435.08 -1614.98 0.
-421.958 -1583.98 0.
-408.836 -1552.98 0.
-612.004 -1609.54 0.
-595.538 -1569.89 0.
-441.656 -1471.26 0.
-833.412 -1708.11 0.
-871.119 -1795.23 0.
-883.776 -1858.62 0.
-892.662 -1878.78 0.
-901.547 -1898.95 0.
-778.291 -1820.77 0.
-735.649 -1721.36 0.
-693.006 -1621.96 0.
-687.433 -1709.22 0.
-779.486 -1923.59 0.
-871.54 -2137.95 0.
-1385.03 -2151.37 0.
-1251.87 -1840.38 0.
-476.745 -1304.6 0.
-580.472 -1546.26 0.
-684.199 -1787.91 0.
-1085.58 -2061.21 0.
-1038.96 -1952.37 0.
-992.327 -1843.53 0.
-863.313 -1706.24 0.
-823.181 -1612.47 0.
-783.048 -1518.7 0.
-402.193 -1406.2 0.
-447.775 -1512.65 0.
-2301.27 -2394.27 0.
-999.052 -1834.57 0.
-998.411 -1832.65 0.
-736.469 -1688.35 0.
-666.948 -1525.81 0.
-597.427 -1363.27 0.
-680.099 -1362.14 0.
-724.086 -1465.1 0.
-768.072 -1568.06 0.
-552.611 -1437.62 0.
-500.911 -1316.59 0.
-449.212 -1195.55 0.
-1058.98 -1606.94 0.
-1153.4 -1828.72 0.
-819.152 -1837.06 0.
-779.072 -1743.83 0.
-738.993 -1650.59 0.
-571.639 -1542.67 0.
-596.638 -1601.41 0.
-621.637 -1660.15 0.
-567.244 -1636.91 0.
-547.863 -1591.84 0.
-528.483 -1546.77 0.
-678.802 -1722.9 0.
-759.34 -1910.88 0.
-1001.81 -2170.68 0.
-702.901 -2005 0.
-683.213 -1958.99 0.
-378.13 -1772.11 0.
-320.744 -1637.45 0.
-263.358 -1502.8 0.
-266.15 -1514.01 0.
-348.852 -1707.13 0.
-431.554 -1900.25 0.
-304.238 -1885.9 0.
-296.73 -1868.31 0.
-289.223 -1850.72 0.
-332.283 -1751.58 0.
-264.34 -1592.07 0.
-175.402 -1445.17 0.
-191.228 -1481.62 0.
-207.054 -1518.07 0.
-695.806 -1734.73 0.
-679.829 -1697.26 0.
-663.852 -1659.78 0.
-146.444 -1497.62 0.
-213.097 -1653.14 0.
-279.75 -1808.66 0.
-267.187 -1749.69 0.
-215.62 -1629.43 0.
-390.474 -901.789 0.
279.69 -868.572 0.
877.981 526.775 0.
407.78 156.065 0.
49.3076 -680.522 0.
115.423 -526.18 0.
378.596 10.2923 0.
175.032 -465.401 0.
398.617 55.4638 0.
587.643 91.072 0.
400.168 -347.223 0.
682.8 311.499 0.
557.562 -72.7512 0.
133.156 -1063.44 0.
322.512 -424.107 0.
482.281 -52.547 0.
458.329 -109.729 0.
226.097 -244.151 0.
128.74 -471.495 0.
87.3994 -568.077 0.
-84.7578 -577.446 0.
1.73457 -375.577 0.
-66.6062 -534.93 0.
351.923 247.047 0.
442.217 456.264 0.
-147.106 -115.804 0.
-195.12 -55.0034 0.
-508.18 -786.368 0.
-300.813 -395.907 0.
-293.203 -378.425 0.
-289.948 -371.102 0.
61.1607 7.93238 0.
-214.035 -633.937 0.
-278.698 -784.596 0.
-124.225 -177.018 0.
-1.30808 110.231 0.
-524.481 -1110 0.
-471.603 124.594 0.
-791.628 -624.416 0.
141.662 -189.248 0.
98.8035 -290.907 0.
467.747 568.345 0.
132.219 588.184 0.
-312.416 -449.142 0.
48.9813 394.115 0.
-406.983 -356.985 0.
-349.484 -223.326 0.
-295.915 -98.9077 0.
366.243 203.86 0.
443.195 382.209 0.
-457.968 41.647 0.
-474.705 -423.607 0.
-642.825 -816.056 0.
190.343 347.416 0.
188.144 342.534 0.
-133.191 -406.553 0.
-279.368 -308.7 0.
-374.816 -531.555 0.
165.674 729.42 0.
-262.838 -678.573 0.
-266.137 -685.94 0.
1.55859 -60.955 0.
-631.128 -766.184 0.
-531.361 -531.06 0.
-19.7643 4.08209 0.
-8.38811 30.7319 0.
24.9311 108.575 0.
-129.748 -608.686 0.
222.84 214.155 0.
354.951 522.582 0.
320.929 656.194 0.
176.46 319.828 0.
62.4285 54.3441 0.
-106.137 -224.2 0.
-23.4211 -30.7232 0.
-596.402 -498.27 0.
209.136 -72.4932 0.
603.546 848.51 0.
676.598 462.281 0.
453.8 -58.1294 0.
402.99 -177.094 0.
42.139 -327.289 0.
11.8988 -397.052 0.
-69.3921 -585.932 0.
376.022 -545.503 0.
207.381 -939.488 0.
878.086 624.825 0.
457.134 -82.6023 0.
306.399 -434.479 0.
248.532 -372.196 0.
568.853 374.696 0.
645.886 553.925 0.
-75.7264 -254.992 0.
-97.1615 -303.956 0.
-0.464448 -77.2482 0.
-98.8039 -1224.03 0.
322.777 -239.536 0.
-307.843 -1709.97 0.
360.045 -277.806 0.
368.623 -257.927 0.
-138.287 -949.666 0.
245.466 -837.788 0.
220.235 -897.219 0.
-5.32402 -1048.37 0.
-52.891 -1159.11 0.
-100.458 -1269.84 0.
-298.618 -1413.99 0.
-306.285 -1432.28 0.
-313.953 -1450.58 0.
9.72989 -1338.46 0.
-7.40718 -1378.48 0.
-24.5443 -1418.5 0.
-90.0501 -1393.52 0.
-56.6026 -1314.87 0.
37.7278 -1210.37 0.
58.096 -1162.68 0.
78.4642 -1114.99 0.
-217.822 -1214.84 0.
-211.693 -1200.87 0.
-205.565 -1186.91 0.
-360.51 -1256.24 0.
-369.178 -1276.55 0.
-377.846 -1296.85 0.
-436.516 -1347.85 0.
-451.802 -1384.89 0.
-194.892 -1305.42 0.
-809.072 -1601.71 0.
-824.819 -1638.62 0.
-698.889 -1618.44 0.
-727.469 -1684.58 0.
-756.05 -1750.73 0.
-663.714 -1663.92 0.
-571.483 -1448.45 0.
-479.253 -1232.98 0.
-596.767 -1232.39 0.
-604.43 -1250.49 0.
-612.094 -1268.58 0.
-1062.44 -1478.93 0.
-1069.85 -1497.15 0.
-476.963 -1256.62 0.
-478.066 -1259.81 0.
-479.17 -1263.01 0.
-790.016 -1391.49 0.
-777.997 -1363.11 0.
-765.977 -1334.74 0.
-729.122 -1403.23 0.
-819.381 -1614.74 0.
-909.64 -1826.24 0.
-533.355 -1622.8 0.
-477.994 -1494.39 0.
-670.139 -1471.15 0.
-1011.75 -1572.85 0.
-988.263 -1518.17 0.
-534.932 -1327.12 0.
-624.4 -1535.84 0.
-713.868 -1744.55 0.
-1054.69 -1936.81 0.
-994.321 -1796.68 0.
-933.948 -1656.54 0.
-594.143 -1425.45 0.
-557.43 -1340.14 0.
-520.718 -1254.82 0.
-850.629 -1457.14 0.
-891.425 -1551.15 0.
-661.55 -1516.02 0.
-652.551 -1494.77 0.
-643.551 -1473.52 0.
-517.563 -1411.76 0.
-518.479 -1413.48 0.
-519.395 -1415.21 0.
-535.767 -1450.36 0.
-564.266 -1515.62 0.
-592.765 -1580.89 0.
-725.647 -1653.41 0.
-727.685 -1657.92 0.
-387.077 -1513.08 0.
-431.808 -1438.13 0.
-382.357 -1322.79 0.
-20.0003 -1127.41 0.
-96.5726 -1306.19 0.
-173.145 -1484.97 0.
-465.716 -1650.07 0.
-416.329 -1534.66 0.
-366.942 -1419.24 0.
37.0919 -1252.62 0.
8.76976 -1318.77 0.
-19.5524 -1384.92 0.
-172.644 -1432.87 0.
-160.674 -1405.53 0.
-183.312 -1392.09 0.
-168.214 -1357.31 0.
-153.117 -1322.53 0.
-339.287 -1360.22 0.
-301.447 -1271.82 0.
-263.607 -1183.43 0.
-153.681 -1062.39 0.
-115.003 -971.653 0.
-76.3248 -880.912 0.
195.161 -627.61 0.
277.804 -435.127 0.
212.364 -767.826 0.
204.14 -823.821 0.
179.094 -883.389 0.
137.417 -955.913 0.
89.7171 -1066.49 0.
42.0173 -1177.06 0.
-363.928 -1410.41 0.
-371.583 -1428.69 0.
-379.238 -1446.97 0.
68.198 -1282.43 0.
50.9709 -1322.35 0.
33.7438 -1362.27 0.
-173.951 -1397.63 0.
-140.563 -1319 0.
117.234 -1145.25 0.
137.501 -1097.5 0.
157.767 -1049.75 0.
-234.73 -1190.4 0.
-228.616 -1176.39 0.
-222.503 -1162.39 0.
-324.555 -1208.97 0.
-333.104 -1229.32 0.
-341.653 -1249.67 0.
-547.605 -1364.36 0.
-563.041 -1401.22 0.
46.4559 -1170.49 0.
-732.485 -1537.49 0.
-748.137 -1574.34 0.
-528.553 -1514.32 0.
-557.186 -1580.36 0.
-585.82 -1646.4 0.
-657.246 -1629.92 0.
-565.036 -1414.47 0.
-472.825 -1199.02 0.
-605.122 -1204.26 0.
-612.777 -1222.5 0.
-620.432 -1240.74 0.
-927.418 -1389.87 0.
-934.914 -1408.03 0.
-659.049 -1303.11 0.
-660.088 -1306.33 0.
-661.128 -1309.55 0.
-863.55 -1391.89 0.
-851.607 -1363.5 0.
-839.665 -1335.1 0.
-558.253 -1298.08 0.
-648.419 -1509.74 0.
-738.584 -1721.4 0.
-659.655 -1645.35 0.
-604.303 -1517.04 0.
-2827.1 -2364.04 0.
-1050.14 -1557.66 0.
-1026.65 -1502.94 0.
-527.749 -1293 0.
-617.142 -1501.73 0.
-706.535 -1710.46 0.
-1132.79 -1938.15 0.
-1072.3 -1798.05 0.
-1011.82 -1657.96 0.
-591.054 -1393.01 0.
-554.454 -1307.69 0.
-517.854 -1222.36 0.
-739.26 -1377.9 0.
-779.998 -1472.01 0.
-633.554 -1472.26 0.
-624.507 -1451.08 0.
-615.461 -1429.89 0.
-555.174 -1396.22 0.
-555.957 -1398.15 0.
-556.74 -1400.09 0.
-463.061 -1387.78 0.
-491.427 -1453.16 0.
-519.793 -1518.55 0.
-717.738 -1618.3 0.
-719.824 -1622.74 0.
-90.8811 -1355.31 0.
-483.667 -1429.38 0.
-434.224 -1314.01 0.
-21.6478 -1096.84 0.
-98.1905 -1275.5 0.
-174.733 -1454.16 0.
-376.216 -1580.41 0.
-326.798 -1464.94 0.
-277.38 -1349.46 0.
9.81705 -1232.41 0.
-18.6135 -1298.42 0.
-47.044 -1364.44 0.
-218.392 -1421.68 0.
-206.465 -1394.16 0.
-160.267 -1350.94 0.
-145.055 -1316.2 0.
-129.844 -1281.46 0.
-65.3342 -1211.11 0.
-27.2093 -1122.92 0.
10.916 -1034.72 0.
-289.166 -1088.88 0.
-250.35 -998.245 0.
-211.535 -907.613 0.
193.353 -596.901 0.
275.985 -404.66 0.
-10.9014 -1363.69 0.
-124.298 -1377.46 0.
-101.729 -1322.8 0.
59.3335 -1215.51 0.
66.4701 -1199.79 0.
73.6071 -1184.06 0.
-366.892 -1378.21 0.
-384.718 -1419.22 0.
-402.544 -1460.24 0.
102.861 -1224.42 0.
127.823 -1166.29 0.
152.784 -1108.15 0.
-153.869 -1260.91 0.
-170.444 -1299.8 0.
23.9217 -1234.89 0.
78.4998 -1107.63 0.
133.078 -980.36 0.
-239.285 -1118.55 0.
-317.765 -1301.45 0.
-396.245 -1484.35 0.
-478.255 -1543.76 0.
-435.97 -1445.08 0.
-393.685 -1346.4 0.
-570.589 -1485.83 0.
-624.671 -1611.97 0.
-48.7518 -1468.04 0.
-814.788 -1761.24 0.
-799.454 -1725.92 0.
-491.59 -1544.9 0.
-420.799 -1379.91 0.
-350.008 -1214.92 0.
-472.916 -1213.11 0.
-496.846 -1269.57 0.
-520.777 -1326.03 0.
-708.667 -1431.47 0.
-715.574 -1447.42 0.
-722.48 -1463.37 0.
-866.594 -1405.11 0.
-795.935 -1239.87 0.
-644.072 -1068.08 0.
-705.771 -1211.86 0.
-767.471 -1355.63 0.
-910.636 -1479.7 0.
-888.771 -1428.48 0.
-866.907 -1377.26 0.
-495.784 -1246.88 0.
-539.031 -1347.71 0.
-582.277 -1448.54 0.
-647.148 -1418.58 0.
-595.135 -1296.85 0.
-2378.96 -1963 0.
-1005.68 -1446.8 0.
-1043.47 -1534.98 0.
-590.168 -1379.39 0.
-549.631 -1284.34 0.
-509.095 -1189.29 0.
-888.958 -1289.81 0.
-868.194 -1241.66 0.
-847.429 -1193.51 0.
-518.579 -1104.18 0.
-569.109 -1221.41 0.
-619.638 -1338.64 0.
-685.023 -1369.84 0.
-680.915 -1359.76 0.
-551.173 -1291.58 0.
-521.991 -1223.69 0.
-492.81 -1155.8 0.
-485.556 -1171.4 0.
-577.684 -1386.15 0.
-669.812 -1600.91 0.
-488.544 -1613.3 0.
-501.198 -1643.53 0.
-513.853 -1673.77 0.
-704.825 -1648.65 0.
-627.945 -1469.75 0.
22.0467 -1046.73 0.
-484.292 -1391.97 0.
-551.673 -1549.11 0.
-251.943 -1486.12 0.
-179.73 -1316.89 0.
-107.516 -1147.67 0.
-197.548 -1159.66 0.
-255.005 -1294.13 0.
-312.463 -1428.6 0.
-84.4798 -1384.42 0.
-99.9809 -1420.85 0.
-115.482 -1457.28 0.
-226.582 -1458.9 0.
-196.918 -1389.4 0.
-126.58 -1310.08 0.
-142.745 -1347.24 0.
-158.91 -1384.4 0.
-131.945 -1344.67 0.
-56.1958 -1167.49 0.
19.5535 -990.303 0.
-284.603 -1038.29 0.
-266.295 -995.403 0.
-247.987 -952.518 0.
22.7871 -954.04 0.
-61.7461 -1151.56 0.
-250.179 -1434.72 0.
-274.008 -1409.73 0.
-251.42 -1355.14 0.
31.8945 -1196.29 0.
38.761 -1180.31 0.
45.6277 -1164.33 0.
-309.384 -1322.21 0.
-327.256 -1363.21 0.
-345.128 -1404.21 0.
99.2551 -1195.18 0.
124.13 -1136.99 0.
149.004 -1078.8 0.
-129.37 -1219.14 0.
-145.936 -1257.92 0.
-155.06 -1279.53 0.
-100.507 -1152.23 0.
-45.9542 -1024.93 0.
-276.75 -1103.75 0.
-355.211 -1286.61 0.
-433.672 -1469.47 0.
-506.594 -1524.08 0.
-464.291 -1425.48 0.
-421.988 -1326.87 0.
-356.25 -1362.3 0.
-410.348 -1488.43 0.
-509.876 -1634.08 0.
-824.433 -1734.15 0.
-809.28 -1698.61 0.
-506.052 -1520.06 0.
-435.315 -1354.96 0.
-364.577 -1189.86 0.
-431.629 -1164.64 0.
-455.818 -1220.96 0.
-480.008 -1277.28 0.
-683.64 -1389.22 0.
-690.496 -1405.34 0.
-697.352 -1421.47 0.
-805.182 -1347.31 0.
-734.459 -1182.16 0.
-641.321 -1035.62 0.
-703.099 -1179.36 0.
-764.877 -1323.1 0.
-829.903 -1413.98 0.
-808.148 -1362.79 0.
-786.392 -1311.59 0.
-533.233 -1231.56 0.
-576.432 -1332.62 0.
-619.631 -1433.67 0.
-696.247 -1408.14 0.
-644.057 -1286.62 0.
-786.322 -1248.89 0.
-941.67 -1387.58 0.
-979.344 -1475.82 0.
-626.87 -1364.19 0.
-586.358 -1269.07 0.
-545.846 -1173.96 0.
-864.853 -1247.67 0.
-844.134 -1199.46 0.
-823.416 -1151.26 0.
-612.33 -1112.98 0.
-662.795 -1230.12 0.
-713.26 -1347.26 0.
-636.387 -1317.21 0.
-632.298 -1307.06 0.
-532.022 -1251.68 0.
-502.863 -1183.78 0.
-473.703 -1115.87 0.
-480.983 -1137.99 0.
-573.159 -1352.65 0.
-665.335 -1567.31 0.
-354.031 -1524.61 0.
-366.745 -1554.77 0.
-379.46 -1584.93 0.
-613.901 -1578.32 0.
-536.926 -1399.46 0.
-76.7913 -1057.84 0.
-439.258 -1341.29 0.
-506.759 -1498.43 0.
-378.28 -1509.02 0.
-305.959 -1339.83 0.
-233.639 -1170.63 0.
-258.259 -1154.55 0.
-315.761 -1288.91 0.
-373.263 -1423.27 0.
-95.3609 -1357.12 0.
-110.886 -1393.52 0.
-126.412 -1429.92 0.
-127.791 -1385.57 0.
-98.1429 -1316 0.
-82.5153 -1260.29 0.
-98.7022 -1297.31 0.
-114.889 -1334.33 0.
-396.698 -1426.72 0.
-320.803 -1249.61 0.
-244.908 -1072.5 0.
-163.414 -954.968 0.
-145.1 -912.091 0.
-126.786 -869.214 0.
25.8628 -921.72 0.
-58.5977 -1119.34 0.
114.002 -94.1441 0.
-216.652 -959.379 0.
-186.624 -892.051 0.
624.181 270.931 0.
396.509 -261.149 0.
350.497 -369.116 0.
136.031 -359.182 0.
197.764 -216.189 0.
78.3141 -496.161 0.
392.999 -470.842 0.
727.921 310.106 0.
999.926 944.505 0.
446.761 109.729 0.
471.583 168.184 0.
374.841 328.745 0.
219.854 -33.1139 0.
26.9246 -483.48 0.
-87.7999 -560.343 0.
-294.258 -1041.23 0.
-99.4809 -585.943 0.
17.6383 -216.253 0.
-136.276 -575.52 0.
61.0924 -115.172 0.
251.989 -320.768 0.
351.416 -88.7309 0.
-698.238 -433.715 0.
-359.13 -599.846 0.
-283.678 -424.823 0.
-151.508 -634.664 0.
55.868 -151.959 0.
222.128 234.827 0.
7.36531 -185.946 0.
-149.378 -551.393 0.
117.267 71.0323 0.
248.668 767.007 0.
-34.0872 108.444 0.
-451.793 -865.221 0.
-326.72 -315.951 0.
-130.451 142.538 0.
-349.124 -328.312 0.
-255.584 -109.676 0.
-198.395 24.0854 0.
-181.084 -22.1067 0.
-157.817 31.8239 0.
-86.4316 198.073 0.
67.2538 271.494 0.
-96.4877 -111.03 0.
-19.8902 67.3582 0.
-168.607 -48.4067 0.
-133.52 33.0596 0.
-407.996 -76.6758 0.
-250.612 131.316 0.
-249.424 132.911 0.
24.416 259.71 0.
-17.0309 162.154 0.
-98.3642 -28.4523 0.
-341.207 -40.2435 0.
72.7926 925.381 0.
-111.478 495.221 0.
-121.902 244.915 0.
-110.026 271.538 0.
123.364 815.016 0.
-483.721 -1021.85 0.
-602.541 -1299.74 0.
57.6309 118.604 0.
119.342 262.582 0.
137.979 306.157 0.
87.5005 212.979 0.
-14.4739 -24.1863 0.
27.4078 74.2984 0.
743.008 811.205 0.
603.261 484.82 0.
397.976 5.50549 0.
-147.972 -639.673 0.
-236.788 -846.617 0.
147.156 -279.314 0.
136.552 -50.9542 0.
413.248 594.851 0.
329.716 415.918 0.
257.514 247.563 0.
288.211 319.048 0.
330.593 364.165 0.
160.761 -31.8768 0.
-227.506 -937.458 0.
-18.3598 -1123.44 0.
-29.6976 -1149.14 0.
516.991 127.184 0.
279.357 -594.162 0.
182.609 -818.475 0.
528.663 113.873 0.
104.904 -873.445 0.
371.801 -249.405 0.
212.98 524.461 0.
-244.69 -541.416 0.
-31.7247 -42.8705 0.
174.659 -365.174 0.
-57.7272 -907.889 0.
48.6633 -659.543 0.
21.7618 -917.276 0.
-49.3178 -1081.84 0.
-119.985 -974.089 0.
-224.206 -1016.18 0.
-222.336 -1013.93 0.
95.8587 -922.074 0.
-25.596 -1205.96 0.
-147.051 -1489.84 0.
-384.868 -1666.17 0.
-312.83 -1498.64 0.
-240.792 -1331.1 0.
66.518 -1143.58 0.
71.3777 -1132.63 0.
76.2376 -1121.69 0.
-270.348 -1271.16 0.
-269.63 -1269.6 0.
-213.05 -1243.81 0.
-214.952 -1248.79 0.
-216.855 -1253.77 0.
-376.605 -1263.4 0.
-281.499 -1041.39 0.
-186.392 -819.389 0.
-245.002 -890.277 0.
-365.458 -1172.05 0.
-485.915 -1453.82 0.
-226.558 -1305.58 0.
-166.985 -1166.78 0.
-708.027 -1285.37 0.
-639.861 -1280.43 0.
-650.277 -1304.53 0.
-376.148 -1194.9 0.
-368.067 -1176.24 0.
-359.985 -1157.58 0.
-538.01 -1214.37 0.
-527.178 -1189.5 0.
-516.345 -1164.64 0.
-428.063 -1018.4 0.
-346.88 -828.654 0.
-265.698 -638.911 0.
-612.363 -923.997 0.
-702.035 -1133.25 0.
-790.186 -1312.93 0.
-746.883 -1212.27 0.
-703.58 -1111.62 0.
-506.118 -1035.04 0.
-602.663 -1260.69 0.
-699.207 -1486.34 0.
-773.568 -1535.72 0.
-714.084 -1396.89 0.
-654.601 -1258.06 0.
-707.975 -1274.21 0.
-719.198 -1300.96 0.
-1690.12 -1739.15 0.
-785.359 -1329.97 0.
-773.779 -1303.53 0.
-616.392 -1207.33 0.
-586.916 -1138.99 0.
-557.439 -1070.66 0.
-779.568 -1167.68 0.
-815.017 -1249.68 0.
-850.465 -1331.69 0.
-732.772 -1240.47 0.
-684.275 -1127.47 0.
-635.777 -1014.47 0.
-594.85 -1070.02 0.
-643.74 -1185.33 0.
-596.003 -1259.46 0.
-651.481 -1388.24 0.
-706.959 -1517.02 0.
-542.879 -1478.25 0.
-482.181 -1336.57 0.
-421.483 -1194.89 0.
-230.645 -1085.29 0.
-251.039 -1132.56 0.
-271.433 -1179.82 0.
-420.57 -1223.2 0.
-402.063 -1179.2 0.
-61.0743 -994.424 0.
-302.755 -1113.32 0.
-310.974 -1132.2 0.
-312.112 -1174.03 0.
-372.299 -1314.68 0.
-432.485 -1455.34 0.
-559.607 -1557.37 0.
-542.291 -1516.46 0.
-524.975 -1475.55 0.
-117.226 -1237.55 0.
-73.9521 -1135.98 0.
-30.678 -1034.42 0.
-43.8006 -1163.62 0.
-124.241 -1350.66 0.
-149.824 -1486.16 0.
-96.9188 -1362.37 0.
-44.0132 -1238.57 0.
-433.295 -1314.15 0.
-397.514 -1230.28 0.
-361.732 -1146.4 0.
-225.666 -1082.82 0.
-248.282 -1135.64 0.
-270.899 -1188.46 0.
234.154 -932.883 0.
267.091 -855.836 0.
72.3508 -859.365 0.
-187.169 -969.137 0.
-185.281 -966.85 0.
91.386 -892.582 0.
-30.172 -1176.42 0.
-151.73 -1460.25 0.
-321.273 -1607.53 0.
-249.34 -1439.89 0.
-177.407 -1272.25 0.
36.1435 -1126.05 0.
40.8046 -1114.91 0.
45.4659 -1103.76 0.
-407.833 -1298.56 0.
-407.121 -1296.93 0.
-90.3349 -1159.82 0.
-92.2705 -1164.79 0.
-94.2062 -1169.76 0.
-345.044 -1218.58 0.
-249.709 -996.723 0.
-154.373 -774.868 0.
-196.082 -837.438 0.
-316.472 -1119.34 0.
-436.863 -1401.25 0.
-280.081 -1296.89 0.
-220.403 -1158.22 0.
204.833 -862.928 0.
-609.629 -1235.79 0.
-620.347 -1259.7 0.
-341.011 -1149.3 0.
-333.034 -1130.52 0.
-325.057 -1111.73 0.
-650.513 -1231.62 0.
-639.666 -1206.81 0.
-628.819 -1182 0.
-302.621 -932.269 0.
-221.249 -742.836 0.
-139.877 -553.403 0.
-626.641 -898.72 0.
-716.258 -1107.98 0.
-796.783 -1284.53 0.
-753.291 -1184.01 0.
-709.799 -1083.48 0.
-356.076 -939.728 0.
-452.684 -1165.39 0.
-549.292 -1391.05 0.
-839.128 -1532.52 0.
-779.698 -1393.71 0.
-720.268 -1254.89 0.
-708.305 -1243.23 0.
-719.539 -1270.02 0.
-1136.93 -1470.58 0.
-656.534 -1242.99 0.
-644.907 -1216.46 0.
-613.821 -1174.97 0.
-584.453 -1106.59 0.
-555.084 -1038.21 0.
-707.872 -1104.77 0.
-743.246 -1186.86 0.
-778.62 -1268.95 0.
-685.472 -1189.29 0.
-637.118 -1076.22 0.
-588.764 -963.158 0.
-689.113 -1078.75 0.
-738.055 -1194.04 0.
-656.692 -1254.06 0.
-712.049 -1382.86 0.
-767.406 -1511.67 0.
-410.447 -1390.16 0.
-349.822 -1248.36 0.
-289.197 -1106.57 0.
-410.982 -1131.56 0.
-431.501 -1178.62 0.
-452.02 -1225.68 0.
-431.894 -1197.01 0.
-413.259 -1153.08 0.
77.4358 -903.516 0.
-267.858 -1067.05 0.
-276.012 -1086.13 0.
-246.789 -1114.57 0.
-306.886 -1255.33 0.
-366.982 -1396.08 0.
-625.227 -1554.5 0.
-607.937 -1513.61 0.
-590.647 -1472.72 0.
-161.829 -1224.33 0.
-118.441 -1122.84 0.
-75.0528 -1021.36 0.
-124.607 -1167.13 0.
-205.11 -1354.05 0.
-124.177 -1444.22 0.
-71.257 -1320.33 0.
-18.337 -1196.43 0.
-242.078 -1200.77 0.
-206.213 -1116.91 0.
-170.349 -1033.05 0.
-322.799 -1093.27 0.
-345.443 -1146.16 0.
-368.087 -1199.05 0.
518.731 -780.016 0.
551.962 -703.421 0.
50.4691 -976.955 0.
-235.731 -1206.68 0.
-289.087 -1329.15 0.
-115.433 -1305.38 0.
-44.6166 -1140.39 0.
26.1999 -975.393 0.
28.5863 -888.567 0.
38.819 -863.857 0.
49.0517 -839.147 0.
113.699 -797.989 0.
119.938 -783.744 0.
126.177 -769.5 0.
-366.419 -1020.67 0.
-392.424 -1080.38 0.
-25.7574 -961.555 0.
-4.08429 -910.009 0.
17.5887 -858.462 0.
-247.383 -955.542 0.
-264 -993.524 0.
-280.618 -1031.51 0.
-274.481 -1039.88 0.
-272.721 -1035.09 0.
-270.962 -1030.3 0.
-223.966 -1170.62 0.
-330.503 -1418.2 0.
-188.296 -1559 0.
-809.272 -1729.47 0.
-761.975 -1620.19 0.
-427.347 -1396.89 0.
-394.505 -1320.74 0.
-361.662 -1244.6 0.
-662.098 -1292.99 0.
-608.321 -1167.36 0.
-554.543 -1041.72 0.
-256.042 -907.369 0.
-276.426 -954.634 0.
-296.81 -1001.9 0.
-763.282 -1135.52 0.
-723.373 -1041.59 0.
-688.2 -977.556 0.
-781.082 -1193.56 0.
-873.964 -1409.56 0.
-503.389 -1319.04 0.
-427.254 -1141.87 0.
-351.118 -964.698 0.
-650.143 -1035.28 0.
-655.601 -1048.36 0.
-661.059 -1061.44 0.
-660.467 -1115.16 0.
-695.336 -1196.79 0.
-1719.44 -1702.11 0.
-545.901 -1152.37 0.
-521.627 -1095.06 0.
-631.282 -1114.74 0.
-658.143 -1177.9 0.
-685.004 -1241.07 0.
-708.137 -1265 0.
-691.457 -1226.43 0.
-674.777 -1187.85 0.
-675.525 -1123.21 0.
-631.619 -1021.04 0.
-587.712 -918.86 0.
-662.148 -939.698 0.
-661.116 -935.731 0.
-543.511 -898.764 0.
-623.253 -1084.76 0.
-702.996 -1270.75 0.
-302.294 -1207.17 0.
-309.838 -1224.58 0.
-317.382 -1241.98 0.
-565.443 -1354.66 0.
-569.812 -1365.32 0.
-574.18 -1375.97 0.
-498.136 -1399.82 0.
-534.522 -1484.86 0.
-177.008 -1407 0.
-426.665 -1396.34 0.
-364.72 -1252.21 0.
-209.155 -1067.19 0.
-158.768 -950.185 0.
-108.381 -833.178 0.
-360.748 -875.024 0.
-340.88 -829.132 0.
-321.012 -783.24 0.
-18.9526 -685.2 0.
-56.314 -772.224 0.
-93.6754 -859.249 0.
-9.52545 -826.155 0.
-3.04989 -811.692 0.
122.122 -749.389 0.
97.0647 -808.366 0.
72.0074 -867.344 0.
-151.615 -1054.13 0.
-241.064 -1263.48 0.
-330.514 -1472.82 0.
-421.097 -1487.56 0.
-328.475 -1271.8 0.
-235.854 -1056.04 0.
584.167 -714.852 0.
550.887 -791.104 0.
-43.1842 -986.704 0.
-110.795 -1122.2 0.
-164.043 -1244.71 0.
-150.876 -1288.92 0.
-80.1392 -1123.91 0.
-9.40216 -958.9 0.
99.43 -826.548 0.
109.716 -801.853 0.
120.002 -777.157 0.
20.9845 -807.089 0.
27.2059 -792.75 0.
33.4273 -778.41 0.
-386.248 -997.37 0.
-412.285 -1057.13 0.
-166.802 -990.344 0.
-145.217 -938.85 0.
-123.632 -887.357 0.
-285.733 -941.124 0.
-302.218 -979.22 0.
-318.703 -1017.32 0.
-270.006 -1006.21 0.
-268.121 -1001.45 0.
-266.236 -996.687 0.
-131.168 -1098.63 0.
-237.547 -1346.31 0.
-576.593 -1693.58 0.
-775.091 -1683.98 0.
-727.856 -1574.52 0.
-380.94 -1345.93 0.
-348.114 -1269.62 0.
-315.288 -1193.32 0.
-481.996 -1184.46 0.
-428.248 -1058.77 0.
-374.501 -933.08 0.
-259.077 -877.011 0.
-279.53 -924.297 0.
-299.984 -971.584 0.
-801.848 -1120.89 0.
-761.863 -1026.98 0.
-708.568 -954.981 0.
-801.549 -1170.79 0.
-894.53 -1386.59 0.
-585.956 -1323.39 0.
-509.898 -1145.98 0.
-433.84 -968.575 0.
-609.371 -986.384 0.
-614.925 -999.241 0.
-620.478 -1012.1 0.
-652.671 -1080.51 0.
-687.577 -1162.15 0.
-2331.56 -1932.76 0.
-460.976 -1084.04 0.
-436.864 -1026.73 0.
-707.094 -1116.14 0.
-734.179 -1179.14 0.
-761.264 -1242.13 0.
-578.647 -1178.5 0.
-561.948 -1139.95 0.
-545.248 -1101.4 0.
-736.036 -1117.68 0.
-691.969 -1015.72 0.
-647.901 -913.762 0.
-614.661 -887.63 0.
-613.582 -883.721 0.
-544.016 -867.33 0.
-623.729 -1053.33 0.
-703.442 -1239.32 0.
-331.589 -1188.1 0.
-339.11 -1205.63 0.
-346.63 -1223.16 0.
-494.437 -1292.95 0.
-498.811 -1303.52 0.
-503.185 -1314.08 0.
-403.355 -1328.1 0.
-439.657 -1413.16 0.
-336.806 -1443.49 0.
-473.798 -1384.78 0.
-411.774 -1240.84 0.
-199.184 -1031.44 0.
-148.855 -914.429 0.
-98.5259 -797.417 0.
-324.329 -828.083 0.
-304.417 -782.303 0.
-284.506 -736.523 0.
-155.896 -711.661 0.
-193.129 -798.852 0.
-230.362 -886.044 0.
30.27 -778.23 0.
36.7338 -763.693 0.
2.80218 -769.425 0.
-22.3017 -828.286 0.
-47.4055 -887.146 0.
-239.992 -1060.32 0.
-329.591 -1269.64 0.
-419.19 -1478.97 0.
-119.365 -1327.29 0.
-26.6385 -1111.65 0.
66.0879 -896.003 0.
432.619 -748.391 0.
399.155 -825.009 0.
0.725973 -676.716 0.
543.812 197.631 0.
262.818 -458.68 0.
321.231 -91.0242 0.
70.4195 -676.131 0.
194.773 -386.01 0.
601.932 243.25 0.
693.894 457.503 0.
565.888 158.41 0.
398.756 279.907 0.
378.184 232.069 0.
269.941 -20.2592 0.
30.4542 46.8046 0.
132.736 285.816 0.
285.014 364.25 0.
162.98 78.7282 0.
74.7384 -127.599 0.
-142.851 -504.322 0.
-266.119 -791.711 0.
-366.281 -1024.97 0.
-124.665 -641.07 0.
164.142 33.2921 0.
82.5363 -156.543 0.
258.84 -333.157 0.
427.101 58.1756 0.
-222.321 -607.878 0.
-175.103 -320.388 0.
121.153 370.259 0.
246.808 57.0839 0.
474.17 588.585 0.
616.896 922.703 0.
396.925 555.647 0.
490.914 775.7 0.
390.885 543.126 0.
95.7534 -13.5699 0.
57.3562 -102.607 0.
236.597 316.254 0.
-520.814 -362.978 0.
-493.388 -298.632 0.
-733.536 -945.012 0.
-460.6 -304.618 0.
-525.279 -451.922 0.
-409.669 -725.457 0.
-351.07 -587.755 0.
-315.688 -504.233 0.
-227.184 -142.085 0.
-377.234 -491.563 0.
-490.889 -756.103 0.
-479.482 -657.203 0.
-282.923 -199.939 0.
-1232.01 -1104.55 0.
7.44315 -122.907 0.
-279.208 -791.166 0.
-885.842 -1358.44 0.
-735.944 -1008.42 0.
-612.756 -720.791 0.
-70.8232 -206.129 0.
-62.1307 -187.449 0.
-119.231 -322.308 0.
-457.146 -323.064 0.
-361.412 -100.319 0.
-188.637 302.188 0.
-670.309 -1078.52 0.
-513.491 -712.745 0.
-128.55 134.521 0.
-108.708 181.762 0.
-146.73 93.9657 0.
197.521 131.751 0.
429.576 672.929 0.
190.012 113.676 0.
-13.2091 -276.348 0.
187.832 193.421 0.
65.6356 -90.9073 0.
-148.016 -887.336 0.
-201.375 -1012.31 0.
-39.6132 -238.194 0.
-368.211 -1014.68 0.
-9.40624 -177.546 0.
662.456 991.913 0.
439.842 472.861 0.
474.927 555.049 0.
-198.937 -577.535 0.
-269.911 -741.726 0.
-186.941 -546.717 0.
-76.8957 -233.497 0.
103.697 188.067 0.
-185.248 -485.816 0.
249.671 -312.65 0.
294.025 -208.637 0.
542.922 747.621 0.
372.814 350.426 0.
520.373 694.252 0.
379.747 584.313 0.
-365.833 -1155.89 0.
-314.045 -1035.23 0.
956.789 640.572 0.
720.65 90.2149 0.
381.215 -701.522 0.
-139.063 -1764.39 0.
386.825 -539.363 0.
-168.161 -1170.03 0.
113.496 -916.051 0.
184.387 -750.957 0.
35.2229 -722.528 0.
0.00494463 -804.937 0.
-35.2132 -887.346 0.
32.2629 -915.952 0.
8.87138 -970.874 0.
-14.5203 -1025.8 0.
-247.778 -1168.73 0.
-270.669 -1221.94 0.
-293.561 -1275.15 0.
-447.898 -1284.51 0.
-410.353 -1197.87 0.
-172.456 -1028.43 0.
-149.597 -976.155 0.
-126.739 -923.88 0.
-345.645 -1006.8 0.
-376.982 -1080.42 0.
-408.319 -1154.05 0.
-482.616 -1211.45 0.
-479.105 -1202.98 0.
-475.594 -1194.51 0.
-220.751 -1012.53 0.
-175.115 -907.035 0.
-285.037 -868.171 0.
-566.708 -1103.83 0.
-623.783 -1236.36 0.
-355.207 -1205.79 0.
-368.094 -1235.12 0.
-380.982 -1264.46 0.
-502.92 -1310.88 0.
-479.4 -1255.59 0.
-455.88 -1200.31 0.
-283.982 -1106.92 0.
-281.365 -1101.14 0.
-278.748 -1095.36 0.
-779.202 -1262.52 0.
-750.122 -1195.11 0.
-701.151 -1115.56 0.
-657.419 -1014.5 0.
-613.686 -913.446 0.
-474.195 -823.341 0.
-510.891 -909.382 0.
-547.587 -995.423 0.
-561.497 -1027.78 0.
-557.926 -1019.68 0.
-554.356 -1011.58 0.
-683.505 -1035.28 0.
-662.736 -987.397 0.
-1281.23 -1214.06 0.
-386.896 -804.753 0.
-373.683 -773.279 0.
-604.688 -855.738 0.
-607.689 -862.264 0.
-610.689 -868.79 0.
-397.482 -799.839 0.
-421.284 -855.616 0.
-445.086 -911.393 0.
-773.778 -1144.59 0.
-834.828 -1286.44 0.
-895.877 -1428.3 0.
-625.604 -1314.98 0.
-619.567 -1301.56 0.
-655.401 -1300.88 0.
-622.814 -1224.09 0.
-590.227 -1147.29 0.
-481.539 -1065.54 0.
-495.143 -1097.99 0.
-508.747 -1130.44 0.
-339.013 -1044.3 0.
-311.762 -980.85 0.
-284.512 -917.401 0.
-412.927 -1003.39 0.
-441.813 -1071.69 0.
-256.354 -1044.81 0.
-387.486 -1114.14 0.
-394.953 -1130.36 0.
-256.148 -1086.43 0.
-258.562 -1092.02 0.
-260.975 -1097.62 0.
-458.289 -1212.94 0.
-494.929 -1297.3 0.
-531.569 -1381.66 0.
-361.426 -1283.89 0.
-321.706 -1190.79 0.
-281.986 -1097.69 0.
-180.993 -1026.13 0.
-171.03 -1003.37 0.
-114.599 -965.289 0.
-114.518 -965.331 0.
-114.436 -965.372 0.
-238.674 -978.831 0.
-177.625 -837.091 0.
-116.577 -695.352 0.
258.401 -551.949 0.
195.789 -697.87 0.
133.177 -843.792 0.
253.639 -816.912 0.
255.673 -814.326 0.
-99.9826 -1110.37 0.
187.696 -853.296 0.
258.682 -688.169 0.
32.9825 -692.169 0.
-2.12473 -774.67 0.
-37.2321 -857.171 0.
-40.6279 -915.408 0.
-63.988 -970.375 0.
-87.3483 -1025.34 0.
-263.275 -1144.56 0.
-285.996 -1197.96 0.
-308.717 -1251.36 0.
-319.665 -1197.69 0.
-282.069 -1111.15 0.
16.2866 -916.014 0.
39.0474 -863.618 0.
61.8083 -811.223 0.
-313.581 -962.589 0.
-344.771 -1036.26 0.
-375.961 -1109.94 0.
-605.124 -1232.15 0.
-601.575 -1223.73 0.
-598.026 -1215.32 0.
-434.824 -1072.39 0.
-389.506 -966.644 0.
364.147 -557.486 0.
-619.392 -1095.77 0.
-676.489 -1228.21 0.
-412.087 -1198.43 0.
-424.893 -1227.83 0.
-437.7 -1257.24 0.
-608.991 -1324.9 0.
-585.473 -1269.56 0.
-561.955 -1214.23 0.
-157.948 -1021.14 0.
-155.405 -1015.32 0.
-152.861 -1009.5 0.
-607.707 -1158.51 0.
-578.622 -1091.15 0.
-553.06 -1020.69 0.
-509.363 -919.449 0.
-465.666 -818.21 0.
-483.754 -796.113 0.
-520.258 -882.166 0.
-556.763 -968.219 0.
-489.822 -965.838 0.
-486.293 -957.622 0.
-482.764 -949.406 0.
-714.183 -1017.2 0.
-693.491 -969.231 0.
-1327.84 -1202.19 0.
-497.16 -820.159 0.
-484.024 -788.775 0.
-506.127 -782.728 0.
-509.356 -789.218 0.
-512.585 -795.708 0.
-469.315 -799.08 0.
-493.263 -854.75 0.
-517.21 -910.419 0.
-714.699 -1088.27 0.
-775.752 -1230.23 0.
-836.805 -1372.18 0.
-429.222 -1199.14 0.
-423.197 -1185.54 0.
-530.835 -1215.93 0.
-498.132 -1139.22 0.
-465.43 -1062.51 0.
-667.959 -1114.17 0.
-681.56 -1146.66 0.
-695.161 -1179.16 0.
-318.585 -1004.24 0.
-291.241 -940.783 0.
-263.897 -877.33 0.
-658.987 -1077.33 0.
-687.741 -1145.73 0.
-54.181 -926.509 0.
-343.424 -1063.8 0.
-350.791 -1080.15 0.
-274.402 -1062.89 0.
-276.741 -1068.57 0.
-279.081 -1074.26 0.
-425.036 -1166.85 0.
-461.487 -1251.35 0.
-497.937 -1335.85 0.
-142.59 -1158.26 0.
-102.854 -1065.26 0.
-63.1194 -972.251 0.
-318.17 -1054.31 0.
-308.093 -1031.59 0.
-5.35133 -887.067 0.
-5.27359 -887.066 0.
-5.19582 -887.066 0.
-158.764 -913.041 0.
-97.7118 -771.209 0.
-36.6597 -629.377 0.
45.0894 -612.183 0.
-17.4563 -758.168 0.
-80.0022 -904.154 0.
253.834 -785.358 0.
255.813 -782.976 0.
64.3571 -762.421 0.
136.777 -834.018 0.
86.2063 -952.218 0.
-219.436 -1156.76 0.
-217.935 -1152.86 0.
-216.435 -1148.95 0.
-115.04 -1057.08 0.
-60.1204 -928.618 0.
-5.20091 -800.158 0.
-114.547 -773.641 0.
-84.0575 -702.446 0.
-53.5676 -631.251 0.
11.9115 -536.241 0.
47.6918 -451.705 0.
195.213 -351.873 0.
67.1936 -650.481 0.
-60.8258 -949.088 0.
-396.647 -1208.63 0.
-320.748 -1030.12 0.
-244.849 -851.617 0.
-428.301 -837.094 0.
-401.341 -774.151 0.
-374.38 -711.208 0.
-410.783 -791.718 0.
-460.973 -908.393 0.
217.129 -712.83 0.
-622.563 -1070.57 0.
-624.16 -1075.08 0.
-333.32 -927.549 0.
-262.505 -761.984 0.
-191.69 -596.419 0.
-325.303 -626.598 0.
-381.523 -758.397 0.
-437.743 -890.195 0.
-28.5482 -740.307 0.
-18.4783 -717.362 0.
-8.40836 -694.416 0.
-492.967 -951.545 0.
-525.06 -1026.2 0.
-584.488 -1113.25 0.
-612.455 -1178.73 0.
-640.422 -1244.2 0.
-638.595 -1258.26 0.
-609.859 -1189.83 0.
-581.123 -1121.4 0.
-472.274 -976.164 0.
-402.052 -812.276 0.
-331.829 -648.387 0.
-627.017 -733.273 0.
-619.096 -714.946 0.
-1245.61 -968.818 0.
-456.49 -787.962 0.
-538.349 -980.061 0.
-643.007 -1164.39 0.
-689.137 -1273.72 0.
-735.267 -1383.04 0.
-815.337 -1415.17 0.
-753.04 -1270.34 0.
-690.743 -1125.51 0.
-700.36 -1119.83 0.
-723.149 -1173.38 0.
-745.937 -1226.93 0.
-350.604 -1048.95 0.
-341.39 -1027.96 0.
-466.597 -1045.61 0.
-369.771 -820.274 0.
-272.945 -594.938 0.
-395.688 -543.856 0.
-425.09 -611.877 0.
-454.492 -679.899 0.
-163.613 -663.709 0.
-243.893 -850.646 0.
-324.172 -1037.58 0.
-760.306 -1237.96 0.
-748.268 -1208.39 0.
-217.232 -957.376 0.
-415.29 -1097.29 0.
-443.922 -1164.67 0.
-367.654 -1142.83 0.
-293.821 -969.759 0.
-219.988 -796.694 0.
-179.154 -691.083 0.
-167.957 -665.703 0.
-156.759 -640.324 0.
91.3162 -553.79 0.
70.1287 -603.185 0.
48.9412 -652.581 0.
-194.068 -775.587 0.
-202.298 -794.452 0.
51.2725 -698.981 0.
60.9751 -677.155 0.
70.6778 -655.328 0.
-97.7233 -752.46 0.
-156.95 -889.762 0.
-216.177 -1027.06 0.
-239.866 -1089.87 0.
-243.021 -1097.9 0.
-246.176 -1105.93 0.
299.182 -732.77 0.
393.098 -512.394 0.
65.6462 -730.456 0.
-51.3789 -883.727 0.
-101.936 -1001.78 0.
-316.628 -1167.23 0.
-315.09 -1163.34 0.
-313.553 -1159.44 0.
-46.9029 -996.307 0.
8.05073 -867.86 0.
63.0043 -739.414 0.
-91.427 -732.596 0.
-61.0114 -661.344 0.
-30.5957 -590.092 0.
33.8978 -495.188 0.
69.76 -410.728 0.
-116.23 -454.156 0.
-244.116 -752.681 0.
-372.001 -1051.21 0.
-345.934 -1156.08 0.
-270.004 -977.582 0.
-194.073 -799.087 0.
-260.976 -733.788 0.
-234.099 -670.838 0.
-207.223 -607.887 0.
-398.706 -754.64 0.
-448.859 -871.354 0.
122.75 -721.728 0.
-567.171 -1016.17 0.
-568.782 -1020.7 0.
-335.415 -896.613 0.
-264.366 -731.121 0.
-193.317 -565.63 0.
-223.27 -551.789 0.
-279.357 -683.592 0.
-335.444 -815.394 0.
-98.8024 -738.462 0.
-88.6685 -715.526 0.
-78.5346 -692.59 0.
-565.528 -951.428 0.
-597.549 -1026.03 0.
-680.919 -1122.81 0.
-709 -1188.09 0.
-737.082 -1253.38 0.
-493.125 -1165.82 0.
-464.588 -1097.26 0.
-436.051 -1028.69 0.
-454.826 -936.872 0.
-384.822 -772.93 0.
-314.819 -608.989 0.
-657.839 -715.225 0.
-649.806 -696.965 0.
-53.5067 -426.579 0.
-240.002 -663.382 0.
-322.16 -855.134 0.
-637.355 -1130.7 0.
-683.614 -1239.88 0.
-729.873 -1349.06 0.
-915.744 -1427 0.
-853.431 -1282.28 0.
-791.118 -1137.56 0.
-653.884 -1068.65 0.
-676.659 -1122.23 0.
-699.434 -1175.82 0.
-476.435 -1070.88 0.
-467.075 -1049.88 0.
-578.668 -1062.81 0.
-481.915 -837.346 0.
-385.161 -611.878 0.
-108.933 -389.998 0.
-138.422 -458.02 0.
-167.911 -526.042 0.
-128.353 -617.031 0.
-208.692 -804.05 0.
-289.031 -991.069 0.
-557.911 -1119.64 0.
-545.856 -1090.15 0.
-652.949 -1112.31 0.
-566.416 -1130.43 0.
-594.881 -1197.9 0.
-464.021 -1153.02 0.
-390.177 -979.989 0.
-316.332 -806.96 0.
-76.4189 -616.04 0.
-65.3043 -590.525 0.
-54.1897 -565.01 0.
-159.487 -629.921 0.
-180.659 -679.328 0.
-201.83 -728.735 0.
-11.1832 -665.796 0.
-19.3275 -684.721 0.
-82.1511 -724.531 0.
-72.5039 -702.597 0.
-62.8566 -680.664 0.
-166.082 -750.687 0.
-225.354 -887.886 0.
-284.625 -1025.08 0.
-191.531 -1037.87 0.
-194.661 -1045.94 0.
-197.791 -1054.01 0.
385.234 -664.87 0.
479.457 -444.91 0.
-2.8294 -859.143 0.
-69.0252 -535.174 0.
81.238 -185.267 0.
-43.7955 -315.986 0.
-72.3261 -380.904 0.
278.378 438.8 0.
421.149 -5.97705 0.
314.52 -254.829 0.
591.135 390.617 0.
480.829 592.638 0.
336.318 255.108 0.
161.337 -153.473 0.
258.002 14.0424 0.
182.528 -161.812 0.
-189.878 -0.859984 0.
-39.8839 349.134 0.
-211.066 -50.4351 0.
147.355 -71.7554 0.
10.9286 -390.273 0.
105.509 -169.701 0.
77.1756 -226.887 0.
133.24 -96.5267 0.
228.105 124.431 0.
-96.135 -40.6943 0.
-89.9998 -27.689 0.
414.181 714.777 0.
-565.109 -1088.81 0.
-384.514 -667.272 0.
91.058 132.983 0.
-113.315 -343.991 0.
33.55 -1.29221 0.
88.2989 10.9885 0.
17.911 -153.077 0.
0.632112 -193.205 0.
-33.0175 -421.556 0.
-22.198 -397.036 0.
255.856 251.072 0.
-125.48 241.107 0.
-604.511 -875.659 0.
-707.002 -966.229 0.
-406.33 -264.533 0.
-282.921 23.4689 0.
170.981 136.382 0.
134.708 52.0418 0.
174.19 144.551 0.
-22.2763 72.7508 0.
-224.617 -399.942 0.
-159 -247.31 0.
-283.017 249.798 0.
-324.048 154.526 0.
-560.287 -363.211 0.
147.915 -142.99 0.
87.6594 -283.731 0.
-194.749 -76.1167 0.
-304.529 -333.268 0.
-214.738 -124.745 0.
-530.94 -309.378 0.
-529.746 -306.283 0.
-442.532 -102.327 0.
-596.008 -989.986 0.
-260.942 -207.886 0.
131.752 708.677 0.
107.059 559.148 0.
-203.963 -167.818 0.
73.9685 702.076 0.
-74.3073 356.112 0.
-219.412 17.5861 0.
262.838 -37.2217 0.
3.42114 -643.1 0.
167.352 -261.107 0.
112.402 -88.3237 0.
112.716 -88.5352 0.
191.568 94.4442 0.
-181.34 -597.075 0.
-196.696 -633.841 0.
-404.488 274.693 0.
-254.014 -83.4514 0.
-494.109 -642.331 0.
58.19 281.573 0.
88.6412 352.018 0.
24.1503 201.072 0.
81.0395 -413.586 0.
318.26 139.883 0.
486.94 533.473 0.
48.8378 366.473 0.
-64.5583 101.057 0.
-146.362 -90.5797 0.
429.973 45.4242 0.
464.111 125.239 0.
322.622 503.172 0.
433.308 761.306 0.
331.926 524.688 0.
-3.34513 -208.182 0.
83.8749 -4.16253 0.
328.759 567.621 0.
185.868 -219.279 0.
408.498 300.682 0.
550.818 633.851 0.
263.679 -1083.04 0.
1010.6 660.167 0.
-122.232 -873.655 0.
-205.975 -893.827 0.
-199.021 -878.074 0.
-64.3028 -792.676 0.
-21.4652 -692.495 0.
21.3724 -592.314 0.
96.8828 -543.548 0.
63.2362 -621.585 0.
29.5896 -699.622 0.
-227.061 -841.879 0.
-235.64 -862.439 0.
-244.219 -882.999 0.
-187.529 -950.357 0.
-242.732 -1077.95 0.
-590.715 -1296.19 0.
-473.989 -1023.6 0.
-357.264 -751.005 0.
-123.179 -550.733 0.
-199.255 -729.178 0.
-275.331 -907.622 0.
-253.628 -957.764 0.
-250.555 -951.075 0.
-247.481 -944.386 0.
-549.971 -1070.54 0.
-549.655 -1070.24 0.
139.433 -774.757 0.
-481.415 -957.675 0.
-434.783 -848.373 0.
-356.616 -750.489 0.
-374.557 -792.544 0.
-392.497 -834.6 0.
-327.102 -818.416 0.
-316.943 -794.463 0.
-306.785 -770.509 0.
-229.713 -800.453 0.
-286.134 -931.326 0.
-342.555 -1062.2 0.
-673.543 -1148.89 0.
-633.314 -1055.43 0.
-768.662 -1040.08 0.
-742.802 -980.737 0.
-716.941 -921.398 0.
-177.359 -661.715 0.
-182.703 -675.33 0.
-188.047 -688.946 0.
-440.282 -794.091 0.
-432.278 -777.215 0.
-424.274 -760.339 0.
-648.406 -903.33 0.
-682.462 -982.151 0.
-306.827 -885.413 0.
-16.6971 -670.945 0.
30.779 -560.425 0.
-633.129 -780.757 0.
-644.559 -807.794 0.
-655.989 -834.831 0.
-500.217 -779.111 0.
-500.428 -779.197 0.
-500.64 -779.283 0.
-595.908 -792.248 0.
-573.046 -738.471 0.
-550.183 -684.694 0.
-451.548 -729.645 0.
-506.425 -857.893 0.
-605.138 -1001.82 0.
-641.533 -1086.07 0.
-677.927 -1170.31 0.
-398.924 -1097.33 0.
-401.18 -1102.23 0.
-403.435 -1107.13 0.
-318.676 -966.988 0.
-220.169 -736.104 0.
-121.663 -505.22 0.
-266.028 -640.602 0.
-341.683 -817.777 0.
-636.589 -1086.3 0.
-465.19 -794.726 0.
-351.398 -527.548 0.
-198.246 -326.38 0.
-278.792 -514.844 0.
-359.338 -703.308 0.
-230.786 -746.93 0.
-242.946 -774.776 0.
-255.106 -802.622 0.
-219.122 -735.725 0.
-173.81 -630.823 0.
-128.498 -525.922 0.
37.7299 -640.388 0.
-77.4171 -908.359 0.
-434.55 -1239.45 0.
-368.178 -1083.43 0.
-301.806 -927.413 0.
-159.307 -788.987 0.
-168.873 -812.082 0.
-178.439 -835.178 0.
24.4256 -693.256 0.
84.4047 -552.949 0.
144.384 -412.641 0.
579.268 -407.996 0.
439.85 -733.276 0.
-244.535 -895.349 0.
-169.082 -847.14 0.
-162.175 -831.402 0.
177.99 -657.222 0.
221.043 -557.157 0.
264.096 -457.092 0.
-1.77193 -554.349 0.
-35.4104 -632.384 0.
-69.0489 -710.419 0.
-325.139 -852.891 0.
-333.741 -873.435 0.
-342.343 -893.978 0.
-210.813 -928.554 0.
-266.09 -1056.07 0.
-385.83 -1177.24 0.
-269.221 -904.492 0.
-152.612 -631.742 0.
-185.434 -546.439 0.
-261.571 -724.881 0.
-337.707 -903.324 0.
-259.093 -928.8 0.
-256.144 -922.009 0.
-253.194 -915.218 0.
-547.721 -1037.56 0.
-547.438 -1037.09 0.
-311.248 -935.826 0.
-432.402 -905.937 0.
-385.625 -796.689 0.
-423.804 -747.698 0.
-441.635 -789.774 0.
-459.466 -831.851 0.
-384.86 -811.238 0.
-374.523 -787.417 0.
-364.185 -763.595 0.
-254.404 -779.13 0.
-310.599 -910.203 0.
-366.793 -1041.28 0.
-596.982 -1084.2 0.
-556.689 -990.652 0.
-789.825 -1018.2 0.
-764.041 -958.873 0.
-738.257 -899.544 0.
-166.223 -626.25 0.
-171.696 -639.722 0.
-177.17 -653.193 0.
-483.492 -781.431 0.
-475.514 -764.645 0.
-467.536 -747.859 0.
-470.261 -795.461 0.
-504.19 -874.47 0.
-705.458 -1024.7 0.
75.8282 -599.512 0.
123.22 -488.888 0.
-783.262 -813.816 0.
-794.843 -840.755 0.
-806.425 -867.695 0.
-199.471 -619.409 0.
-199.705 -619.5 0.
-199.939 -619.591 0.
-683.546 -798.685 0.
-660.6 -745.019 0.
-637.655 -691.353 0.
-442.247 -693.503 0.
-497.146 -821.71 0.
-526.361 -936.917 0.
-562.837 -1021.05 0.
-599.312 -1105.18 0.
-636.777 -1168.15 0.
-639.195 -1172.99 0.
-641.613 -1177.82 0.
-369.415 -957.485 0.
-271.086 -726.478 0.
-172.757 -495.473 0.
-330.65 -637.384 0.
-406.417 -814.399 0.
61.4763 -755.357 0.
-334.71 -706.85 0.
-220.759 -439.727 0.
-177.127 -286.116 0.
-257.748 -474.538 0.
-338.37 -662.96 0.
-421.247 -797.741 0.
-433.574 -825.421 0.
-445.9 -853.101 0.
48.011 -590.009 0.
93.2177 -484.988 0.
138.424 -379.966 0.
-65.8728 -653.142 0.
-181.125 -921.025 0.
-432.206 -1207.13 0.
-365.78 -1051.13 0.
-299.355 -895.124 0.
-27.1605 -701.033 0.
-36.7749 -724.019 0.
-46.3894 -747.005 0.
92.015 -633.016 0.
152.036 -492.766 0.
212.057 -352.516 0.
628.584 -354.944 0.
489.362 -680.383 0.
-169.208 -641.603 0.
-120.19 -641.491 0.
-131.574 -667.653 0.
212.049 -535.718 0.
216.154 -526.01 0.
220.259 -516.302 0.
-125.621 -677.904 0.
-146.251 -726.355 0.
-166.88 -774.806 0.
-286.917 -835.742 0.
-283.969 -827.268 0.
-281.022 -818.794 0.
-94.2945 -627.367 0.
-28.1911 -473.705 0.
-35.711 -379.388 0.
-104.978 -541.184 0.
-174.245 -702.979 0.
-317.485 -823.554 0.
-270.376 -713.036 0.
-223.267 -602.519 0.
-105.364 -526.011 0.
-120.218 -560.728 0.
-135.072 -595.445 0.
-369.003 -637.259 0.
-324.712 -533.277 0.
291.221 -183.988 0.
-333.598 -597.383 0.
-411.066 -778.325 0.
-491.601 -895.729 0.
-413.106 -711.979 0.
-334.611 -528.228 0.
-296.733 -458.742 0.
-335.079 -547.928 0.
-373.425 -637.115 0.
-188.186 -587.599 0.
-191.149 -594.58 0.
-194.112 -601.561 0.
-469.427 -765.035 0.
-496.284 -827.281 0.
-708.513 -961.569 0.
-713.055 -971.726 0.
-717.598 -981.883 0.
-311.825 -792.916 0.
-276.952 -712.084 0.
-242.08 -631.252 0.
-387.625 -681.7 0.
-404.212 -719.007 0.
-420.798 -756.313 0.
-368.286 -710.118 0.
-347.559 -661.607 0.
-1415.93 -1080.58 0.
95.3957 -420.005 0.
101.876 -404.455 0.
-749.817 -762.415 0.
-758.143 -781.641 0.
-766.47 -800.867 0.
-151.995 -599.214 0.
-214.027 -743.848 0.
-276.058 -888.481 0.
-722.016 -1014.52 0.
-640.593 -823.837 0.
-559.169 -633.156 0.
-452.742 -647.766 0.
-497.919 -753.539 0.
-471.865 -813.334 0.
-446.521 -754.46 0.
-421.176 -695.585 0.
-482.298 -666.209 0.
-446.41 -582.81 0.
-410.522 -499.411 0.
-154.506 -461.281 0.
-249.294 -684.214 0.
-344.082 -907.148 0.
-576.169 -970.2 0.
-522.788 -846.227 0.
-438.223 -707.08 0.
-252.903 -671.849 0.
-275.379 -725.481 0.
-302.021 -734.272 0.
-218.637 -539.017 0.
-135.253 -343.762 0.
-309.146 -357.57 0.
-343.044 -436.868 0.
-376.942 -516.165 0.
149.564 -399.177 0.
81.858 -556.455 0.
14.152 -713.733 0.
-222.453 -831.697 0.
-223.74 -837.042 0.
-287.651 -869.183 0.
-293.993 -885.354 0.
-300.334 -901.524 0.
-61.088 -813.238 0.
-71.2802 -836.326 0.
-81.4724 -859.414 0.
18.664 -853.126 0.
-9.40605 -918.808 0.
-37.4759 -984.489 0.
294.217 -924.953 0.
247.225 -1033.28 0.
-104.144 -583.336 0.
-223.469 -654.688 0.
-234.716 -680.875 0.
-46.7362 -615.003 0.
-42.5473 -605.345 0.
-38.3586 -595.686 0.
-165.998 -663.596 0.
-186.655 -712.037 0.
-207.312 -760.477 0.
-81.8728 -716.73 0.
-78.8588 -708.32 0.
-75.8448 -699.91 0.
-63.9547 -582.724 0.
2.30404 -429.145 0.
-184.738 -411.539 0.
-254.103 -573.264 0.
-323.468 -734.99 0.
-254.258 -764.76 0.
-207.221 -654.163 0.
-160.184 -543.566 0.
-113.876 -499.233 0.
-128.856 -533.822 0.
-143.836 -568.412 0.
-320.954 -584.947 0.
-276.615 -480.968 0.
-347.95 -426.282 0.
-424.896 -604.733 0.
-502.327 -785.578 0.
-404.317 -826.795 0.
-325.586 -643.166 0.
-246.856 -459.537 0.
-357.876 -453.702 0.
-396.303 -542.848 0.
-434.73 -631.993 0.
-169.18 -547.39 0.
-172.148 -554.444 0.
-175.115 -561.497 0.
-537.128 -763.585 0.
-564.192 -825.485 0.
-519.612 -849.043 0.
-523.987 -859.272 0.
-528.362 -869.5 0.
-470.83 -829.792 0.
-436.079 -748.929 0.
-401.329 -668.065 0.
-185.5 -563.475 0.
-201.937 -601.026 0.
-218.374 -638.576 0.
-357.612 -674.136 0.
-336.843 -625.706 0.
-127.884 -496.946 0.
-99.4069 -472.16 0.
-92.8175 -456.652 0.
-543.471 -642.553 0.
-551.854 -661.713 0.
-560.237 -680.874 0.
-320.936 -640.489 0.
-382.827 -785.168 0.
-444.719 -929.847 0.
-474.905 -876.983 0.
-393.455 -686.278 0.
-312.005 -495.573 0.
-499.099 -636.066 0.
-544.243 -741.809 0.
-508.094 -797.487 0.
-482.843 -738.488 0.
-457.592 -679.489 0.
-360.018 -582.777 0.
-324.186 -499.299 0.
-288.354 -415.82 0.
-65.0579 -391.906 0.
-159.806 -614.806 0.
-254.554 -837.707 0.
-726.415 -1002.27 0.
-673.055 -878.257 0.
-413.272 -665.347 0.
-186.156 -612.266 0.
-208.604 -665.833 0.
-126.782 -627.685 0.
-43.3225 -432.368 0.
40.1372 -237.051 0.
-272.625 -310.141 0.
-306.485 -389.528 0.
-340.344 -468.914 0.
-37.068 -447.618 0.
-104.733 -604.914 0.
-172.399 -762.209 0.
-280.425 -824.857 0.
-281.99 -829.977 0.
-251.22 -822.451 0.
-257.611 -838.55 0.
-264.003 -854.65 0.
-128.896 -810.855 0.
-139.244 -833.728 0.
-149.591 -856.601 0.
33.5091 -815.461 0.
5.55855 -881.162 0.
-22.3918 -946.863 0.
64.3008 -991.981 0.
17.5585 -1100.41 0.
34.4279 -355.127 0.
-317.824 -649.73 0.
-245.27 -479.658 0.
-137.181 -303.403 0.
-430.505 -987.686 0.
-599.74 -1382.2 0.
-226.051 -695.958 0.
27.1599 -104.91 0.
163.641 213.668 0.
484.314 244.575 0.
334.292 -105.347 0.
304.781 -174.074 0.
110.478 -204.691 0.
191.362 -15.0074 0.
-153.925 -21.9649 0.
-320.38 -409.739 0.
-402.646 -601.131 0.
-12.8981 -288.234 0.
279.867 394.204 0.
-44.3266 -362.817 0.
151.157 166.557 0.
241.492 377.952 0.
340.336 609.209 0.
-76.6565 -77.6478 0.
-166.261 -286.465 0.
209.146 -69.2608 0.
-296.158 -100.011 0.
-234.318 43.4532 0.
156.754 345.835 0.
3.68665 -11.038 0.
-1.83851 -23.4982 0.
-204.991 52.2064 0.
-259.153 -74.1998 0.
-325.985 -230.159 0.
-31.0466 -230.148 0.
-135.688 -475.516 0.
-89.2776 -368.448 0.
-284.551 -16.0578 0.
-448.198 -396.964 0.
-336.04 -748.744 0.
-406.745 -913.155 0.
-190.554 -408.28 0.
-234.479 51.2907 0.
-190.371 154.722 0.
-181.381 176.212 0.
382.105 411.61 0.
-31.337 -552.496 0.
-110.855 -737.438 0.
-285.63 -494.774 0.
-202.939 -300.902 0.
-282.154 -641.716 0.
-179.49 -256.108 0.
-238.021 -392.866 0.
-228.367 -266.119 0.
-117.724 -8.31282 0.
-11.0448 240.251 0.
-95.6562 234.181 0.
-262.043 -153.804 0.
-555.671 -838.637 0.
-241.208 -769.2 0.
-92.0418 -421.654 0.
34.5555 -126.801 0.
-196.49 184.069 0.
-72.1342 474.545 0.
-4.22925 478.889 0.
-160.441 113.968 0.
-247.484 -89.6166 0.
-75.8089 -120.684 0.
-165.882 -331.909 0.
-113.716 -211.11 0.
1.38987 -375.2 0.
215.413 123.457 0.
286.837 289.522 0.
-440.584 -21.2114 0.
-403.976 63.6319 0.
719.693 -206.785 0.
-24.4032 -330.551 0.
148.256 72.8925 0.
657.513 898.307 0.
451.498 417.273 0.
258.025 -34.4564 0.
-175.259 -123.556 0.
-251.269 -300.747 0.
-316.798 -453.295 0.
52.1583 150.938 0.
-80.3674 -159.268 0.
-324.752 -730.584 0.
-113.512 -292.913 0.
124.765 264.245 0.
239.871 283.907 0.
406.073 672.623 0.
241.239 288.958 0.
37.3716 -259.469 0.
-27.1049 -410.764 0.
95.4152 -125.794 0.
534.441 357.976 0.
572.065 447.296 0.
198.147 -423.888 0.
98.1873 -452.803 0.
4.80355 -670.527 0.
-13.882 -513.579 0.
-419.651 -770.239 0.
-463.064 -871.366 0.
-385.397 -876.522 0.
-320.563 -725.572 0.
-255.729 -574.622 0.
-20.8196 -456.281 0.
-81.8878 -598.398 0.
-142.956 -740.515 0.
-44.5552 -644.386 0.
27.9435 -475.229 0.
100.442 -306.071 0.
11.4899 -447.572 0.
-59.3346 -611.653 0.
-308.033 -823.535 0.
-246.678 -680.277 0.
-185.324 -537.018 0.
-55.8952 -440.932 0.
-115.161 -580.168 0.
-174.427 -719.405 0.
-315.869 -800.526 0.
-289.105 -738.321 0.
-262.341 -676.115 0.
-392.317 -665.005 0.
-353.61 -574.932 0.
289.942 -224.686 0.
-369.822 -344.54 0.
-283.394 -143.294 0.
-95.7796 25.2701 0.
-193.674 -202.52 0.
-291.568 -430.311 0.
-410.2 -576.306 0.
-397.701 -547.891 0.
-385.202 -519.476 0.
-184.699 -493.577 0.
-240.307 -623.015 0.
-295.915 -752.453 0.
-610.748 -865.962 0.
-591.751 -821.453 0.
-403.858 -700.503 0.
-360.222 -597.568 0.
-316.585 -494.634 0.
-294.044 -438.574 0.
-311.009 -477.939 0.
-327.973 -517.304 0.
-208.427 -508.649 0.
-234.636 -569.498 0.
-260.846 -630.346 0.
-186.812 -528.653 0.
-132.94 -402.654 0.
-81.7032 -277.599 0.
-372.335 -547.644 0.
-448.684 -725.811 0.
-452.982 -818.755 0.
-399.808 -694.507 0.
-346.634 -570.259 0.
-376.449 -528.466 0.
-379.472 -535.693 0.
-382.494 -542.919 0.
-342.694 -600.076 0.
-398.136 -730.817 0.
-453.578 -861.559 0.
-393.213 -698.885 0.
-305.845 -495.433 0.
-384.097 -397.298 0.
-461.252 -578.1 0.
-538.408 -758.902 0.
-365.306 -790.694 0.
-376.132 -816.233 0.
-386.958 -841.773 0.
-285.824 -717.096 0.
-200.041 -514.943 0.
-114.258 -312.791 0.
-548.516 -442.886 0.
-538.046 -418.078 0.
248.32 -62.6589 0.
-119.976 -339.485 0.
-182.89 -485.265 0.
-86.1976 -569.913 0.
-159.937 -742.022 0.
-233.676 -914.132 0.
-496.946 -1054.02 0.
-438.425 -916.67 0.
-379.904 -779.323 0.
-100.415 -657.95 0.
-130.045 -727.523 0.
-159.676 -797.096 0.
-272.826 -694.49 0.
-178.815 -473.954 0.
-19.5726 -259.686 0.
-88.5868 -419.526 0.
-157.601 -579.365 0.
-165.842 -676.158 0.
-175.92 -699.916 0.
-185.999 -723.674 0.
2.53034 -679.754 0.
-24.0767 -741.336 0.
-50.6837 -802.919 0.
-143.213 -746.899 0.
-72.8331 -582.586 0.
295.417 -349.277 0.
-465.164 -758.7 0.
-508.487 -859.876 0.
-370.554 -838.481 0.
-305.616 -687.57 0.
-240.678 -536.658 0.
120.601 -364.415 0.
59.4772 -506.528 0.
-1.64658 -648.642 0.
-209.679 -683.462 0.
-137.218 -514.179 0.
-64.757 -344.897 0.
34.5407 -407.041 0.
-36.3077 -571.064 0.
-59.4089 -685.212 0.
2.03331 -542.026 0.
63.4755 -398.841 0.
-11.7496 -390.524 0.
-71.02 -529.588 0.
-130.29 -668.651 0.
-364.782 -790.441 0.
-338.017 -728.136 0.
-311.251 -665.831 0.
-451.914 -658.778 0.
-413.163 -568.631 0.
-325.667 -456.843 0.
-317.261 -291.157 0.
-230.8 -89.9449 0.
-220.595 3.33454 0.
-318.441 -224.431 0.
-416.287 -452.196 0.
-315.675 -504.513 0.
-303.23 -476.049 0.
-290.785 -447.585 0.
-218.099 -476.346 0.
-273.781 -605.76 0.
-329.463 -735.174 0.
-546.822 -807.424 0.
-527.725 -763.05 0.
-496.526 -708.24 0.
-452.733 -605.426 0.
-408.941 -502.613 0.
-93.0056 -321.261 0.
-109.948 -360.582 0.
-126.89 -399.904 0.
-431.094 -572.566 0.
-457.352 -633.369 0.
-483.61 -694.173 0.
-30.5887 -430.598 0.
23.3102 -304.678 0.
-253.644 -319.45 0.
-440.876 -545.034 0.
-517.203 -723.148 0.
-421.395 -774.518 0.
-368.273 -650.119 0.
-315.151 -525.72 0.
-303.165 -465.996 0.
-306.106 -473.231 0.
-309.046 -480.465 0.
-539.424 -653.003 0.
-594.726 -783.71 0.
-650.028 -914.418 0.
-153.027 -564.646 0.
-65.6032 -361.196 0.
-372.905 -361.272 0.
-449.992 -542.164 0.
-527.078 -723.055 0.
-352.035 -753.615 0.
-362.86 -779.169 0.
-373.685 -804.723 0.
-442.518 -752.956 0.
-356.618 -550.986 0.
-270.718 -349.015 0.
-443.829 -366.649 0.
-433.274 -341.81 0.
-172.739 -211.498 0.
-215.06 -348.279 0.
-278.049 -493.974 0.
-209.904 -591.7 0.
-283.631 -763.647 0.
-357.359 -935.595 0.
-385.345 -975.317 0.
-326.946 -837.853 0.
-268.547 -700.388 0.
152.426 -518.844 0.
122.771 -588.425 0.
93.1165 -658.007 0.
-239.661 -648.304 0.
-145.501 -427.854 0.
-35.9572 -234.62 0.
-104.9 -394.604 0.
-173.843 -554.588 0.
-179.698 -651.286 0.
-189.999 -674.812 0.
-200.299 -698.338 0.
-87.4045 -686.662 0.
-113.893 -748.343 0.
-140.382 -810.024 0.
-268.446 -769.528 0.
-197.883 -605.245 0.
-148.05 -845.552 0.
-485.432 -838.218 0.
-406.066 -653.067 0.
-125.68 -439.645 0.
-181.639 -568.926 0.
-237.597 -698.207 0.
-4.55772 -638.962 0.
15.9005 -591.988 0.
36.3588 -545.014 0.
-246.612 -667.232 0.
-256.948 -691.333 0.
-267.284 -715.434 0.
-87.9552 -618.543 0.
-75.4312 -589.564 0.
41.1025 -532.682 0.
-25.5069 -687.658 0.
-92.1164 -842.633 0.
-291.106 -920.376 0.
-147.125 -583.644 0.
-3.1432 -246.911 0.
-98.2869 -195.844 0.
-123.527 -254.736 0.
-148.766 -313.627 0.
-337.082 -407.497 0.
-339.61 -413.11 0.
-290.026 -396.045 0.
-431.598 -553.835 0.
-483.805 -674.284 0.
-564.905 -774.126 0.
-535.803 -706.63 0.
-506.701 -639.134 0.
-342.137 -548.287 0.
-353.886 -575.67 0.
-365.635 -603.054 0.
-226.247 -522.898 0.
-201.905 -466.893 0.
-177.562 -410.888 0.
-457.696 -530.309 0.
-461.826 -539.251 0.
-360.765 -509.742 0.
-398.345 -597.157 0.
-435.926 -684.573 0.
-170.664 -570.829 0.
-94.9127 -394.432 0.
-19.161 -218.034 0.
-468.661 -420.432 0.
-539.025 -584.553 0.
-609.389 -748.675 0.
-97.6636 -557.165 0.
-96.653 -554.093 0.
-569.611 -754.863 0.
-441.25 -587.336 0.
-382.074 -449.413 0.
-193.861 -294.642 0.
-228.254 -375.677 0.
-262.646 -456.712 0.
-285.922 -506.58 0.
-288.785 -512.703 0.
-291.647 -518.826 0.
-616.098 -661.195 0.
-617.888 -664.492 0.
-619.679 -667.79 0.
-47.1927 -503.881 0.
-94.4126 -614.089 0.
-568.527 -878.325 0.
-478.676 -667.63 0.
-388.824 -456.934 0.
-164.588 -259.024 0.
-182.038 -299.238 0.
-199.488 -339.452 0.
-414.657 -460.688 0.
-430.37 -498.635 0.
-446.082 -536.582 0.
-415.505 -438.886 0.
-351.818 -290.245 0.
-81.6327 -52.4659 0.
-156.416 -191.438 0.
-211.669 -321.843 0.
-164.538 -365.822 0.
-126.686 -277.517 0.
-88.8333 -189.212 0.
-26.0191 -202.903 0.
-121.909 -427.274 0.
-217.8 -651.645 0.
171.951 -524.19 0.
188.875 -484.331 0.
205.8 -444.473 0.
-156.959 -500.384 0.
-100.041 -368.126 0.
-89.6569 -277.092 0.
-132.054 -375.817 0.
-174.451 -474.542 0.
-91.8948 -469.999 0.
-58.5632 -392.423 0.
-25.2317 -314.847 0.
52.5646 -277.459 0.
28.8688 -332.455 0.
5.17324 -387.451 0.
-202.597 -540.649 0.
-238.812 -624.962 0.
-599.631 -1008.22 0.
-367.159 -756.568 0.
-288.171 -571.023 0.
70.2745 -324.351 0.
14.4063 -453.745 0.
-41.4621 -583.139 0.
-129.177 -661.107 0.
-108.842 -614.038 0.
-88.5065 -566.969 0.
-155.364 -596.727 0.
-165.695 -620.854 0.
-176.026 -644.982 0.
-154.807 -616.028 0.
-142.284 -586.975 0.
-93.2473 -558.917 0.
-159.828 -713.87 0.
-226.408 -868.822 0.
-431.973 -949.593 0.
-287.906 -612.879 0.
-143.839 -276.165 0.
13.8108 -115.941 0.
-11.3717 -174.748 0.
-36.5542 -233.556 0.
-228.763 -329.575 0.
-231.225 -335.21 0.
-531.639 -468.306 0.
-452.717 -531.78 0.
-504.92 -652.214 0.
-434.452 -686.311 0.
-405.347 -618.784 0.
-376.242 -551.258 0.
-419.105 -550.449 0.
-430.98 -577.708 0.
-442.854 -604.968 0.
-129.358 -449.82 0.
-105.102 -393.757 0.
-80.8459 -337.695 0.
-560.992 -543.119 0.
-564.987 -552.167 0.
-111.937 -371.046 0.
-149.429 -458.596 0.
-186.921 -546.147 0.
-265.101 -580.066 0.
-189.341 -403.733 0.
-113.581 -227.399 0.
-468.967 -389.226 0.
-539.363 -553.314 0.
-609.76 -717.402 0.
-252.592 -592.331 0.
-251.508 -589.347 0.
-846.388 -842.002 0.
-299.277 -494.983 0.
-240.094 -357.057 0.
-138.653 -239.911 0.
-173.114 -320.851 0.
-207.576 -401.791 0.
-245.9 -458.059 0.
-248.717 -464.094 0.
-251.534 -470.129 0.
-570.054 -610.212 0.
-571.766 -613.395 0.
-573.478 -616.578 0.
-56.3617 -476.691 0.
-103.504 -586.943 0.
-488.413 -812.668 0.
-398.488 -602.019 0.
-308.563 -391.371 0.
-205.959 -244.862 0.
-223.334 -285.157 0.
-240.709 -325.453 0.
-461.504 -449.539 0.
-477.349 -487.403 0.
-493.193 -525.267 0.
-337.257 -373.666 0.
-273.373 -225.116 0.
-198.692 -71.5193 0.
-49.3816 -113.94 0.
-104.978 -243.969 0.
-132.067 -320.985 0.
-94.2043 -232.545 0.
-56.3411 -144.104 0.
-35.5932 -176.18 0.
-131.387 -400.517 0.
-227.181 -624.854 0.
1.92822 -565.085 0.
19.1615 -525.397 0.
36.395 -485.709 0.
-110.308 -448.886 0.
-53.4988 -316.38 0.
-124.836 -260.925 0.
-167.142 -359.686 0.
-209.449 -458.448 0.
-19.7567 -407.925 0.
13.525 -330.321 0.
46.8067 -252.717 0.
84.0911 -232.564 0.
60.558 -287.706 0.
37.0251 -342.848 0.
-115.849 -472.27 0.
-151.766 -556.726 0.
442.563 517.818 0.
-223.493 -618.557 0.
-205.62 -578.399 0.
200.996 -361.368 0.
117.99 -554.989 0.
145.838 -489.704 0.
-100.963 -328.18 0.
44.9858 12.9474 0.
147.116 251.886 0.
223.109 144.295 0.
130.637 -73.3618 0.
145.396 -40.5493 0.
-80.9813 -284.664 0.
-57.1205 -228.238 0.
189.648 390.836 0.
182.164 373.217 0.
-10.3269 -75.962 0.
-285.479 -308.387 0.
-212.282 -138.214 0.
-400.756 -578.572 0.
-113.841 -594.589 0.
106.329 -80.8243 0.
276.86 317.136 0.
-201.39 -439.051 0.
-67.3253 -126.867 0.
107.472 387.82 0.
-170.901 197.109 0.
-443.497 -437.971 0.
-126.032 -184.29 0.
-234.988 -438.38 0.
-168.792 -283.811 0.
-348.692 -209.644 0.
-391.578 -309.672 0.
-419.295 -374.266 0.
17.5554 -259.196 0.
19.0975 -255.753 0.
-15.9803 -337.787 0.
-680.162 -596.336 0.
-689.459 -616.914 0.
26.8807 -486.271 0.
49.466 -434.578 0.
315.944 186.221 0.
2.42202 253.506 0.
-195.971 -208.68 0.
-386.349 -652.127 0.
-604.578 -672.641 0.
-379.11 -146.527 0.
-498.819 -425.836 0.
-391.063 -588.383 0.
-299.695 -374.908 0.
-1011.54 -445.273 0.
-32.1154 -110.167 0.
-39.644 -127.879 0.
-119.787 -270.258 0.
-121.583 -274.678 0.
62.1429 153.904 0.
11.6496 98.7397 0.
-12.1629 42.269 0.
64.6601 220.642 0.
-243.443 95.174 0.
-265.293 44.3852 0.
-219.251 152.029 0.
-105.955 -545.107 0.
-85.4968 -497.108 0.
-397.045 -718.2 0.
-202.079 -262.53 0.
-47.1409 99.676 0.
-10.4773 319.528 0.
63.1692 491.262 0.
-77.5866 162.79 0.
-418.743 -229.729 0.
-380.499 -141.106 0.
-290.201 68.9774 0.
60.5109 437.182 0.
-120.383 14.3698 0.
-231.372 -491.13 0.
-205.466 -651.214 0.
-159.694 -544.073 0.
6.48905 -31.5768 0.
-54.514 -173.075 0.
18.0251 -2.64824 0.
76.1957 134.259 0.
139.048 281.017 0.
-10.0721 -66.9754 0.
115.342 55.7408 0.
110.878 46.2289 0.
107.649 39.5697 0.
16.8352 -207.618 0.
-19.9852 -293.55 0.
-246.569 -445.708 0.
-97.0799 -96.5569 0.
-109.536 -125.253 0.
48.2636 -356.935 0.
-60.1465 -610.006 0.
-54.1218 -596.081 0.
86.4457 -257.235 0.
-32.3439 -534.351 0.
272.861 178.057 0.
25.7323 -278.976 0.
69.507 -174.726 0.
-164.578 -321.358 0.
111.665 -185.915 0.
110.121 -190.302 0.
194.982 -150.154 0.
210.685 -114.239 0.
226.388 -78.3233 0.
-100.191 -206.556 0.
-104.86 -217.013 0.
-109.53 -227.47 0.
123.026 -134.953 0.
119.305 -144.738 0.
115.583 -154.523 0.
-175.926 -380.464 0.
-234.729 -517.817 0.
-76.4912 -536.926 0.
-9.54269 -380.667 0.
57.4058 -224.408 0.
-253.619 -324.692 0.
-336.422 -518.15 0.
-419.224 -711.608 0.
-176.702 -631.348 0.
-134.918 -533.975 0.
-93.1341 -436.601 0.
-432.17 -628.651 0.
-475.103 -728.594 0.
-71.8234 -636.795 0.
-406.582 -583.856 0.
-303.11 -342.71 0.
-95.7491 -129.82 0.
-164.257 -289.282 0.
-232.764 -448.743 0.
-448.191 -622.693 0.
-460.658 -652.354 0.
-473.126 -682.015 0.
-69.726 -474.983 0.
-38.1646 -400.192 0.
-6.60334 -325.402 0.
-708.895 -660.001 0.
-731.486 -712.682 0.
-122.172 -477.086 0.
-60.1975 -331.973 0.
1.77721 -186.861 0.
-184.889 -201.566 0.
-208.597 -256.665 0.
-232.305 -311.764 0.
-346.622 -352.761 0.
-319.556 -289.577 0.
-292.49 -226.392 0.
-246.848 -272.313 0.
-299.24 -394.817 0.
-686.644 -661.376 0.
-173.307 -419.305 0.
-161.759 -392.499 0.
-223.089 -379.079 0.
-169.294 -253.892 0.
-115.5 -128.706 0.
-231.517 -158.233 0.
-274.043 -257.834 0.
-316.568 -357.436 0.
-302.6 -335.952 0.
-269.055 -257.741 0.
-235.51 -179.53 0.
7.54578 -33.2448 0.
27.8815 14.7849 0.
-148.24 -46.146 0.
-241.126 -263.773 0.
-334.012 -481.4 0.
-263.786 -534.841 0.
-211.539 -413.282 0.
-159.292 -291.723 0.
-478.773 -336.036 0.
-429.946 -222.982 0.
-381.119 -109.928 0.
-94.3093 -93.8986 0.
-181.24 -296.343 0.
-50.6133 -405.73 0.
-161.898 -380.035 0.
-123.032 -289.298 0.
-114.431 -222.068 0.
-102.129 -192.437 0.
-89.8273 -162.806 0.
-0.189536 -148.553 0.
-44.4388 -251.488 0.
-88.6881 -354.424 0.
35.3664 -377.356 0.
-1.88951 -463.308 0.
-39.1453 -549.26 0.
-115.311 -496.505 0.
-61.4954 -371.34 0.
-160.515 -318.169 0.
-139.389 -268.707 0.
-118.264 -219.245 0.
-6.15027 -177.594 0.
-56.0302 -293.905 0.
-105.91 -410.216 0.
11.7209 -396.309 0.
16.1942 -385.403 0.
20.6676 -374.497 0.
-136.411 -496.699 0.
-175.067 -585.068 0.
182.295 -141.998 0.
309.461 -70.0989 0.
307.786 -74.4288 0.
93.5422 -162.287 0.
109.278 -126.422 0.
125.013 -90.5562 0.
-146.222 -194.868 0.
-150.725 -205.501 0.
-155.228 -216.135 0.
163.686 -85.6406 0.
159.981 -95.5291 0.
156.277 -105.418 0.
-226.18 -370.606 0.
-284.94 -507.955 0.
100.814 -429.794 0.
167.8 -273.558 0.
234.786 -117.323 0.
-189.809 -265.43 0.
-272.549 -458.901 0.
-355.289 -652.371 0.
-218.709 -618.654 0.
-176.754 -521.382 0.
-134.798 -424.11 0.
-598.7 -668.395 0.
-641.513 -768.464 0.
-304.916 -705.299 0.
-270.522 -493.907 0.
-166.965 -252.768 0.
-70.9633 -87.6757 0.
-139.496 -247.133 0.
-208.028 -406.589 0.
-338.2 -544.114 0.
-350.614 -573.783 0.
-363.028 -603.452 0.
-48.2579 -434.62 0.
-16.809 -359.786 0.
14.6398 -284.952 0.
-693.992 -622.166 0.
-716.51 -674.819 0.
-293.452 -519.577 0.
-231.571 -374.382 0.
-169.69 -229.188 0.
-158.464 -158.734 0.
-182.107 -213.891 0.
-205.749 -269.047 0.
-182.079 -250.681 0.
-155.052 -187.447 0.
-128.026 -124.214 0.
-218.492 -229.124 0.
-271.084 -351.462 0.
-744.191 -654.713 0.
-168.415 -385.83 0.
-156.868 -359.015 0.
-275.93 -370.393 0.
-222.017 -245.353 0.
-168.104 -120.313 0.
-376.782 -189.334 0.
-419.294 -288.945 0.
-461.807 -388.556 0.
-133.084 -231.928 0.
-99.4271 -153.722 0.
-65.7698 -75.5152 0.
-106.251 -50.5554 0.
-85.7787 -2.72724 0.
-178.736 -27.2514 0.
-271.614 -244.895 0.
-364.492 -462.539 0.
-108.345 -436.689 0.
-56.1422 -315.078 0.
-3.93891 -193.468 0.
-479.572 -305.016 0.
-430.782 -191.931 0.
-381.993 -78.8446 0.
9.06867 -18.0491 0.
-77.8745 -220.456 0.
-13.763 -358.896 0.
-233.062 -379.452 0.
-194.079 -288.673 0.
-146.168 -204.293 0.
-133.846 -174.557 0.
-121.525 -144.822 0.
71.6278 -85.6598 0.
27.4662 -188.69 0.
-16.6953 -291.719 0.
180.918 -283.53 0.
143.642 -369.406 0.
106.365 -455.282 0.
-108.33 -461.914 0.
-54.4236 -336.788 0.
-107.084 -263.967 0.
-85.9134 -214.546 0.
-64.7425 -165.124 0.
-150.751 -207.91 0.
-200.7 -324.056 0.
-250.649 -440.201 0.
10.2472 -365.686 0.
14.8166 -354.861 0.
19.3861 -344.035 0.
-205.459 -495.286 0.
-244.028 -583.59 0.
42.9298 -590.568 0.
121.52 -580.176 0.
131.634 -557.228 0.
-146.239 -638.762 0.
-91.4521 -510.461 0.
-36.665 -382.16 0.
-320.544 -416.435 0.
-284.868 -332.78 0.
-249.193 -249.125 0.
109.79 -156.003 0.
43.6432 -309.641 0.
-22.5038 -463.279 0.
-367.367 -670.612 0.
-393.651 -731.511 0.
36.886 -579.196 0.
86.7136 -463.422 0.
136.541 -347.648 0.
-169.28 -411.214 0.
-160.364 -390.387 0.
-151.449 -369.56 0.
-80.0697 -346.53 0.
-94.4125 -379.744 0.
-108.755 -412.958 0.
-553.489 -554.958 0.
-515.567 -467.117 0.
-156.515 -241.571 0.
-206.708 -333.503 0.
-244.19 -420.436 0.
-233.928 -477.606 0.
-251.812 -519.544 0.
-269.697 -561.482 0.
-301.429 -558.284 0.
-257.234 -454.69 0.
-213.039 -351.096 0.
10.5983 -183.859 0.
45.2543 -104.298 0.
79.9101 -24.7372 0.
-589.139 -362.131 0.
-622.482 -440.275 0.
-282.56 -345.977 0.
-258.775 -290.255 0.
-234.989 -234.532 0.
-125.798 -194.02 0.
-182.348 -325.784 0.
-238.898 -457.548 0.
-190.22 -428.877 0.
-137.633 -306.224 0.
-85.0461 -183.57 0.
-170.827 -122.028 0.
-119.853 -3.30794 0.
-1069.11 -313.235 0.
-44.6415 -65.2914 0.
-144.794 -299.062 0.
-350.493 -525.919 0.
-324.048 -464.042 0.
-297.603 -402.164 0.
-480.799 -425.273 0.
-448.366 -349.847 0.
-415.933 -274.42 0.
-106.556 -224.514 0.
-188.856 -416.762 0.
-271.155 -609.01 0.
-348.41 -547.914 0.
-282.667 -394.197 0.
-352.418 -311.732 0.
-349.44 -304.853 0.
-346.462 -297.973 0.
33.589 -129.908 0.
36.258 -123.058 0.
38.927 -116.209 0.
-520.721 -385.215 0.
-552.68 -459.584 0.
-584.638 -533.953 0.
-147.861 -421.754 0.
-186.751 -512.672 0.
-91.1785 -541.183 0.
-262.604 -450.927 0.
-176.571 -249.649 0.
-90.4724 -125.963 0.
-185.64 -348.915 0.
-280.808 -571.867 0.
-103.778 -538.432 0.
-34.3111 -376.499 0.
35.156 -214.566 0.
268.419 -139.307 0.
212.657 -268.662 0.
156.896 -398.017 0.
-136.155 -519.812 0.
-126.513 -496.733 0.
-247.04 -518.137 0.
-184.782 -372.764 0.
-122.523 -227.391 0.
-192.41 -166.094 0.
-173.729 -123.348 0.
-155.049 -80.6012 0.
161.787 22.9724 0.
117.301 -80.7172 0.
72.815 -184.407 0.
-252.647 -379.149 0.
-277.702 -439.144 0.
34.0198 -562.675 0.
38.6065 -584.536 0.
48.7209 -561.678 0.
-101.333 -587.709 0.
-46.4731 -459.572 0.
8.38627 -331.434 0.
-435.338 -434.215 0.
-399.601 -350.654 0.
-363.865 -267.093 0.
43.0665 -152.932 0.
-22.8763 -306.816 0.
-88.8193 -460.699 0.
-314.866 -616.15 0.
-341.16 -677.08 0.
-107.835 -609.92 0.
-58.0956 -494.112 0.
-8.35623 -378.304 0.
2.525 -306.355 0.
11.4638 -285.509 0.
20.4027 -264.664 0.
46.2049 -261.263 0.
31.9925 -294.603 0.
17.78 -327.944 0.
-367.084 -443.512 0.
-329.169 -355.634 0.
-122.921 -195.753 0.
-318.232 -350.269 0.
-355.711 -437.225 0.
-213.358 -437.325 0.
-231.289 -479.163 0.
-249.22 -521.001 0.
-271.239 -513.867 0.
-227.03 -410.344 0.
-182.821 -306.821 0.
-94.1669 -197.318 0.
-59.6735 -117.707 0.
-25.1803 -38.0954 0.
-582.759 -327.888 0.
-616.074 -406.126 0.
-235.122 -293.859 0.
-211.351 -238.077 0.
-187.58 -182.295 0.
-4.78425 -110.743 0.
-61.3684 -242.508 0.
-117.952 -374.273 0.
-155.202 -382.535 0.
-102.618 -259.832 0.
-50.0351 -137.128 0.
-169.869 -90.5964 0.
-118.953 28.2199 0.
-366.953 18.6874 0.
-47.7641 -35.3127 0.
-147.958 -268.948 0.
-288.548 -468.015 0.
-261.916 -406.342 0.
-235.284 -344.67 0.
-311.984 -321.304 0.
-279.591 -245.881 0.
-247.198 -170.458 0.
-180.378 -224.475 0.
-262.795 -416.557 0.
-345.212 -608.639 0.
-272.273 -484.374 0.
-206.568 -330.62 0.
-416.482 -307.879 0.
-413.551 -300.956 0.
-410.62 -294.032 0.
-60.9185 -138.72 0.
-58.2262 -131.964 0.
-55.5339 -125.208 0.
-504.941 -347.422 0.
-536.873 -421.803 0.
-568.805 -496.183 0.
-176.517 -402.259 0.
-215.382 -493.106 0.
-164.464 -541.889 0.
-158.645 -375.377 0.
-72.6514 -173.895 0.
32.6789 -41.9087 0.
-62.5667 -264.707 0.
-157.812 -487.506 0.
-94.7611 -503.119 0.
-25.2605 -341.21 0.
44.2402 -179.301 0.
219.641 -128.954 0.
163.892 -258.416 0.
108.143 -387.878 0.
-119.679 -480.709 0.
-109.979 -457.737 0.
-342.506 -527.553 0.
-280.268 -382.245 0.
-218.029 -236.938 0.
-158.31 -120.246 0.
-139.743 -77.2329 0.
-121.176 -34.2192 0.
158.261 52.9688 0.
113.817 -50.6546 0.
69.3726 -154.278 0.
-388.451 -406.125 0.
-413.61 -465.774 0.
951.48 717.386 0.
490.836 659.187 0.
324.733 272.799 0.
-60.8462 -544.007 0.
-124.149 -691.532 0.
182.478 24.0193 0.
-207.047 345.284 0.
-199.51 363.4 0.
-490.604 -315.558 0.
-90.198 -307.496 0.
-21.5237 -147.762 0.
101.226 138.244 0.
-48.2911 -60.711 0.
-111.657 -207.956 0.
122.704 236.422 0.
-51.3208 -169.37 0.
84.9694 148.948 0.
134.222 -293.086 0.
103.922 -365.09 0.
171.994 -207.382 0.
146.515 -236.79 0.
12.6927 -548.734 0.
364.858 273.132 0.
-18.3618 45.5599 0.
33.9815 167.482 0.
-321.971 87.8723 0.
-133.992 317.54 0.
-121.067 346.406 0.
97.8753 280.28 0.
-103.13 -188.784 0.
-169.584 -343.905 0.
-174.882 -314.705 0.
-132.855 -216.529 0.
-84.8354 -104.305 0.
-129.815 -49.9955 0.
-118.176 -22.3204 0.
-109.483 -1.49243 0.
-537.103 -202.75 0.
-485.121 -81.5052 0.
86.6281 398.453 0.
92.4623 411.578 0.
162.99 575.739 0.
380.865 593.452 0.
92.4438 -79.2164 0.
-42.9241 -394.749 0.
-79.1825 -240.33 0.
122.31 230.009 0.
298.561 641.454 0.
97.7347 564.632 0.
40.4785 430.856 0.
-1078.34 -541.172 0.
-56.1693 -17.9128 0.
-62.6567 -32.2214 0.
-140.553 -208.766 0.
-152.214 -236.612 0.
-104.456 -125.8 0.
-36.0609 31.204 0.
-11.0337 90.4598 0.
-68.5179 -42.8071 0.
-90.7365 151.72 0.
-71.2818 197.426 0.
-85.7988 163.889 0.
-15.0125 8.30712 0.
-128.191 -256.852 0.
-597.465 -576.769 0.
-505.986 -362.97 0.
-560.379 -489.694 0.
-254.747 -382.589 0.
-293.451 -472.502 0.
-206.62 -269.388 0.
-370.141 -31.8064 0.
-222.913 311.724 0.
-74.09 658.84 0.
211.559 589.608 0.
8.32709 114.236 0.
-222.927 139.755 0.
167.832 219.449 0.
232.934 372.027 0.
299.777 379.959 0.
239.75 239.921 0.
214.987 182.214 0.
-87.3857 -471.993 0.
-142.442 -600.463 0.
71.8369 -100.558 0.
515.09 686.011 0.
505.893 664.973 0.
394.653 405.746 0.
108.013 50.5325 0.
107.477 50.3883 0.
-252.905 -104.409 0.
-297.917 -209.233 0.
-194.049 33.2804 0.
-34.2273 135.348 0.
-154.555 -144.835 0.
-179.744 -203.103 0.
220.847 235.924 0.
343.427 521.589 0.
428.254 719.138 0.
-480.933 -326.94 0.
-860.989 -1214.23 0.
-428.894 -492.814 0.
202.488 -85.4569 0.
255.786 40.4115 0.
124.784 60.0909 0.
117.684 43.2555 0.
110.584 26.4202 0.
-251.969 -176.368 0.
-300.523 -289.287 0.
-349.077 -402.207 0.
-65.4149 -212.955 0.
12.0507 -31.8666 0.
89.5164 149.222 0.
-7.64192 56.7478 0.
-46.9843 -34.9827 0.
-87.3575 -128.562 0.
-133.659 -236.043 0.
-179.96 -343.524 0.
107.921 -302.285 0.
68.8351 -393.626 0.
29.7496 -484.967 0.
-113.566 -534.956 0.
-72.0975 -437.649 0.
-30.6286 -340.342 0.
-268.701 -351.046 0.
-219.21 -235.094 0.
-29.5104 -59.6829 0.
-99.1658 -193.947 0.
-153.122 -320.995 0.
-96.8887 -357.104 0.
-46.3158 -239.272 0.
4.25713 -121.441 0.
-254.891 -186.364 0.
-265.012 -210.429 0.
-275.132 -234.495 0.
-264.227 -252.156 0.
-276.088 -280.214 0.
-287.949 -308.272 0.
-678.155 -476.227 0.
-677.148 -473.825 0.
-94.4678 -227.838 0.
-116.303 -279.537 0.
-138.139 -331.237 0.
-63.7684 -278.461 0.
13.3412 -98.6901 0.
90.4507 81.0807 0.
121.885 114.966 0.
80.3954 17.3683 0.
38.9058 -80.2297 0.
-431.052 -402.838 0.
-500.473 -565.144 0.
-378.631 -644.979 0.
-39.0374 -372.221 0.
27.7104 -216.568 0.
-165.894 -211.66 0.
-194.517 -278.793 0.
-223.141 -345.926 0.
-171.233 -346.491 0.
-160.438 -320.639 0.
-149.644 -294.787 0.
-243.162 -288.522 0.
-213.122 -218.382 0.
-183.082 -148.242 0.
-210.442 -208.904 0.
-242.411 -284.179 0.
-421.457 -409.308 0.
-394.471 -345.648 0.
-367.484 -281.988 0.
-269.13 -232.593 0.
-311.666 -331.899 0.
-354.202 -431.204 0.
-355.692 -437.502 0.
-326.453 -369.077 0.
-297.213 -300.652 0.
-202.287 -125.38 0.
-121.183 63.4631 0.
-265.664 153.446 0.
-7.5784 -5.02336 0.
-148.593 -334.464 0.
-66.5003 -481.248 0.
-8.20489 -344.916 0.
50.0905 -208.583 0.
-9.94017 -184.375 0.
-22.4769 -213.457 0.
-35.0135 -242.538 0.
152.659 -116.177 0.
195.876 -15.1972 0.
239.092 85.7824 0.
97.3494 -10.9553 0.
70.2727 -73.6915 0.
-188.51 -229.385 0.
-188.981 -230.615 0.
-189.453 -231.845 0.
-323.548 -276.441 0.
-302.055 -226.185 0.
-280.563 -175.93 0.
100.798 -37.0669 0.
60.9524 -130.532 0.
21.1068 -223.997 0.
-405.32 -484.758 0.
-446.511 -580.895 0.
37.4352 -261.731 0.
255.77 -31.3147 0.
309.102 94.5306 0.
50.742 59.851 0.
43.6496 42.9417 0.
36.5573 26.0324 0.
-15.3048 -43.3151 0.
-63.7988 -156.319 0.
-112.293 -269.322 0.
-68.3519 -182.875 0.
9.01199 -1.74598 0.
86.3759 179.383 0.
-3.47709 89.9312 0.
-42.9016 -1.8279 0.
-136.019 -118.163 0.
-182.383 -225.581 0.
-228.746 -332.998 0.
96.326 -275.752 0.
57.2047 -367.066 0.
18.0834 -458.379 0.
-260.083 -566.299 0.
-218.559 -469.095 0.
-177.034 -371.892 0.
-349.215 -354.152 0.
-299.815 -238.078 0.
338.265 129.641 0.
228.304 -22.5048 0.
174.234 -149.425 0.
15.1124 -277.983 0.
65.5013 -159.998 0.
115.89 -42.0138 0.
-403.837 -218.794 0.
-413.973 -242.921 0.
-424.109 -267.049 0.
-305.853 -238.52 0.
-317.561 -266.815 0.
-329.268 -295.11 0.
-691.236 -450.175 0.
-690.117 -447.925 0.
29.4862 -142.584 0.
7.73343 -194.339 0.
-14.0193 -246.094 0.
-133.672 -277.394 0.
-56.6403 -97.5514 0.
20.3913 82.2909 0.
197.935 179.245 0.
156.483 81.6077 0.
115.031 -16.0297 0.
-551.786 -423.088 0.
-621.224 -585.371 0.
-498.202 -664.571 0.
182.373 -245.498 0.
249.002 -89.629 0.
-179.097 -186.465 0.
-207.716 -253.623 0.
-236.334 -320.78 0.
-121.796 -294.469 0.
-111.011 -268.505 0.
-100.226 -242.541 0.
-182.562 -230.637 0.
-152.368 -160.657 0.
-122.173 -90.6759 0.
-319.849 -224.145 0.
-351.774 -299.444 0.
-278.714 -316.8 0.
-251.721 -253.208 0.
-224.729 -189.616 0.
-347.909 -234.872 0.
-390.5 -334.118 0.
-433.09 -433.364 0.
-108.79 -300.238 0.
-79.5666 -231.752 0.
-50.3431 -163.266 0.
-318.027 -143.646 0.
-237.123 45.3056 0.
102.895 342.718 0.
-88.3981 -8.20011 0.
-229.432 -337.521 0.
-46.4377 -441.411 0.
11.8316 -305.059 0.
70.1008 -168.707 0.
-50.4813 -170.64 0.
-62.9567 -199.695 0.
-75.432 -228.75 0.
145.896 -87.6793 0.
189.19 13.2313 0.
232.483 114.142 0.
134.088 36.9471 0.
107.023 -25.7707 0.
-27.4073 -129.089 0.
-27.9599 -130.275 0.
-28.5126 -131.46 0.
-445.082 -297.601 0.
-423.616 -247.327 0.
-402.151 -197.054 0.
113.053 -0.170923 0.
73.3904 -93.691 0.
33.728 -187.211 0.
-215.234 -372.169 0.
-256.181 -468.318 0.
471.134 -97.6397 0.
138.029 -201.954 0.
167.912 -132.693 0.
-110.745 -225.421 0.
-155.228 -328.969 0.
-199.71 -432.516 0.
-62.1592 -359.81 0.
10.5085 -190.108 0.
83.1762 -20.4062 0.
-123.57 -235.633 0.
-260.779 -556.075 0.
-397.987 -876.516 0.
-341.788 -632.994 0.
-194.314 -289.453 0.
-66.291 13.4532 0.
-69.8517 4.17333 0.
-73.4123 -5.10652 0.
230.794 150.187 0.
277.702 260.694 0.
324.609 371.201 0.
11.1755 245.606 0.
-19.2077 174.628 0.
-49.5908 103.65 0.
-247.92 -68.4655 0.
-296.578 -182.214 0.
300.514 -18.6262 0.
330.572 56.9147 0.
363.067 133.683 0.
221.074 111.201 0.
190.828 40.3511 0.
160.582 -30.4986 0.
-454.795 -299.402 0.
-421.09 -221.026 0.
-387.385 -142.65 0.
-220.162 -71.107 0.
-236.664 -108.834 0.
-253.165 -146.56 0.
-554.137 -279.294 0.
-554.132 -279.043 0.
77.3707 -12.2273 0.
54.2109 -65.3161 0.
31.0512 -118.405 0.
-139.961 -213.829 0.
-129.688 -190.177 0.
-119.414 -166.524 0.
70.1455 -85.2678 0.
63.5555 -100.065 0.
56.9655 -114.863 0.
-504.338 -401.006 0.
-533.181 -468.775 0.
-59.3055 -321.05 0.
224.781 -169.997 0.
240.387 -134.005 0.
-270.018 -315.296 0.
-233.124 -228.535 0.
-196.23 -141.774 0.
20.6192 -3.17644 0.
28.3358 14.7754 0.
36.0524 32.7273 0.
-103.784 -60.9268 0.
-133.936 -130.592 0.
-164.087 -200.257 0.
-386.905 -340.215 0.
-408.498 -391.595 0.
-151.416 -318.686 0.
-156.783 -331.456 0.
-162.15 -344.226 0.
-439.907 -431.241 0.
-377.348 -285.393 0.
-314.788 -139.544 0.
78.0269 71.8113 0.
67.7809 47.9793 0.
57.5348 24.1472 0.
-357.908 -150.502 0.
-351.971 -137.311 0.
130.54 82.3415 0.
-166.665 -101.644 0.
-196.605 -171.616 0.
86.9459 -134.934 0.
-1.88209 -341.431 0.
-90.7101 -547.927 0.
-262.629 -641.505 0.
-178.755 -445.349 0.
-94.8821 -249.193 0.
58.0931 -149.609 0.
42.735 -185.492 0.
27.3769 -221.375 0.
-55.2554 -211.443 0.
-25.6863 -141.714 0.
106.713 -33.7365 0.
95.7485 -59.5276 0.
84.7839 -85.3188 0.
-438.19 -317.124 0.
-425.082 -288.068 0.
-411.974 -259.011 0.
70.3135 -55.695 0.
56.5859 -87.3749 0.
42.8584 -119.055 0.
40.0462 36.7963 0.
150.694 296.031 0.
-208.184 -359.195 0.
3.25614 -228.304 0.
33.1531 -159.005 0.
-102.732 -190.535 0.
-147.243 -294.087 0.
-191.753 -397.639 0.
-49.0251 -322.729 0.
23.6381 -153.109 0.
96.3015 16.5107 0.
-165.682 -222.03 0.
-302.861 -542.529 0.
-440.04 -863.027 0.
-383.082 -619.135 0.
-235.623 -275.559 0.
49.5283 93.8607 0.
45.895 84.6889 0.
42.2617 75.5171 0.
156.405 149.964 0.
203.298 260.367 0.
250.19 370.769 0.
3.75821 273.44 0.
-26.62 202.377 0.
-56.9981 131.314 0.
-190.498 -12.0238 0.
-239.057 -125.914 0.
-119.564 -167.121 0.
207.861 35.8616 0.
240.309 112.671 0.
241.004 151.176 0.
210.721 80.4634 0.
180.438 9.75137 0.
-311.873 -206.353 0.
-278.096 -128.066 0.
-244.32 -49.778 0.
-110.341 7.37931 0.
-126.674 -30.5518 0.
-143.007 -68.4829 0.
-351.685 -160.914 0.
-351.72 -160.694 0.
-32.5101 -27.0251 0.
-55.5678 -80.1851 0.
-78.6256 -133.345 0.
-121.36 -175.24 0.
-111.142 -151.481 0.
-100.924 -127.722 0.
-8.96753 -87.5795 0.
-15.5588 -102.368 0.
-22.1501 -117.156 0.
-265.762 -267.234 0.
-294.52 -335.016 0.
722.446 45.7968 0.
69.8189 -204.966 0.
85.3585 -168.901 0.
-315.555 -303.514 0.
-278.575 -216.884 0.
-241.596 -130.253 0.
47.688 39.8025 0.
55.5057 57.6574 0.
63.3234 75.5123 0.
-110.344 -31.5772 0.
-140.416 -101.307 0.
-170.488 -171.036 0.
-289.638 -266.502 0.
-311.323 -317.806 0.
53.864 -199.945 0.
48.3242 -212.658 0.
42.7844 -225.372 0.
-347.241 -359.99 0.
-284.671 -214.13 0.
-222.101 -68.2696 0.
-66.8939 41.378 0.
-77.2276 17.6265 0.
-87.5613 -6.12504 0.
-299.066 -94.0194 0.
-293.19 -80.7899 0.
-153.18 -8.15569 0.
-144.582 -61.2052 0.
-174.532 -131.16 0.
102.295 -96.617 0.
13.5826 -303.102 0.
-75.1304 -509.588 0.
-214.359 -589.253 0.
-130.383 -393.178 0.
-46.408 -197.102 0.
-52.4783 -165.867 0.
-67.8075 -201.783 0.
-83.1367 -237.699 0.
-262.065 -268.155 0.
-232.328 -198.616 0.
208.803 41.4876 0.
197.885 15.675 0.
186.967 -10.1376 0.
-244.251 -202.637 0.
-231.191 -173.54 0.
-218.132 -144.444 0.
45.4649 -34.8996 0.
31.8227 -66.6122 0.
18.1806 -98.3248 0.
76.9448 84.5568 0.
187.74 343.901 0.
-283.137 210.384 0.
-17.8736 18.5034 0.
-204.143 -416.676 0.
-206.584 -412.662 0.
-102.05 -168.159 0.
-177.125 -342.786 0.
-147.464 -548.727 0.
-91.8773 -418.489 0.
-12.7339 -233.383 0.
-126.111 -20.7477 0.
9.36718 295.792 0.
28.7379 341.461 0.
73.1585 555.452 0.
19.5786 429.809 0.
177.531 201.248 0.
289.329 461.7 0.
162.169 164.439 0.
-146.836 -383.801 0.
-9.29787 -61.6686 0.
-68.7118 -199.395 0.
-36.0203 224.019 0.
63.388 456.683 0.
-23.152 255.449 0.
-141.456 20.7834 0.
-66.9212 194.028 0.
-298.506 407.369 0.
549.513 1097.21 0.
63.6715 -36.2562 0.
209.347 73.994 0.
272.289 220.176 0.
146.429 -74.1324 0.
-243.667 -290.025 0.
-166.908 -111.577 0.
-327.809 -487.615 0.
-180.738 -332.978 0.
-86.7399 -114.09 0.
38.3115 177.356 0.
-13.1991 276.314 0.
-184.834 -124.24 0.
-406.99 -657.413 0.
-280.255 -362.156 0.
-150.667 -60.2612 0.
93.1084 322.625 0.
187.616 542.199 0.
51.4503 223.491 0.
-194.841 -340.108 0.
-343.811 -687.14 0.
-311.933 -612.258 0.
-104.845 -318.562 0.
-186.851 -510.765 0.
-975.159 -981.849 0.
-383.239 -933.335 0.
-333.667 -818.284 0.
-561.981 -759.015 0.
-469.744 -544.663 0.
-364.585 -300.226 0.
92.9686 126.403 0.
185.077 340.918 0.
243.363 476.529 0.
-50.8878 152.532 0.
-171.937 -129.892 0.
-92.5883 55.2219 0.
-104.862 13.3857 0.
-91.0238 46.269 0.
459.371 386.66 0.
354.386 141.813 0.
517.992 523.792 0.
111.741 568.232 0.
-27.4235 243.319 0.
-290.205 -369.94 0.
-344.979 -301.695 0.
-258.516 -100.367 0.
-127.007 206.205 0.
56.8949 653.291 0.
-48.6817 406.768 0.
-275.12 387.789 0.
188.291 701.696 0.
-103.315 22.9404 0.
195.842 120.397 0.
269.637 293.058 0.
-146.611 -677.905 0.
-276.203 -790.906 0.
-211.36 -640.053 0.
163.971 234.904 0.
-167.846 -193.746 0.
-117.739 -76.3201 0.
67.0681 355.439 0.
-345.793 -38.5808 0.
-517.825 -440.074 0.
30.0872 -538.184 0.
111.738 -347.789 0.
42.8258 -508.551 0.
-158.723 -342.908 0.
38.1826 117.056 0.
26.3987 90.0179 0.
-71.7898 -230.533 0.
38.6456 26.6116 0.
166.985 325.525 0.
114.755 135.839 0.
54.218 -5.9631 0.
-106.202 -83.623 0.
130.043 -3.539 0.
119.857 -28.1119 0.
-80.4809 -142.186 0.
-105.613 -200.57 0.
-130.746 -258.955 0.
6.87811 -204.096 0.
30.7372 -147.699 0.
54.5963 -91.3016 0.
-114.667 -89.551 0.
-66.2301 23.8384 0.
-17.7934 137.228 0.
-95.512 42.0236 0.
-139.889 -60.4726 0.
-150.159 -134.383 0.
-138.598 -106.185 0.
-127.037 -77.9865 0.
36.5807 5.5905 0.
33.9 -0.656848 0.
31.2194 -6.9042 0.
-161.643 -164.514 0.
-229.483 -322.124 0.
-297.323 -479.735 0.
-183.136 -363.149 0.
-119.571 -213.87 0.
-363.159 -196.865 0.
180.256 105.624 0.
216.788 190.821 0.
167.064 207.505 0.
127.208 115.722 0.
87.3522 23.9393 0.
-124.617 -113.647 0.
-133.18 -133.419 0.
-141.742 -153.191 0.
-154.204 -175.992 0.
-163.043 -197.412 0.
-171.883 -218.832 0.
-296.835 -302.542 0.
-312.675 -339.73 0.
-276.08 -335.557 0.
-204.694 -169.223 0.
-133.309 -2.89039 0.
57.714 141.891 0.
15.6855 42.7321 0.
-26.3429 -56.4265 0.
-31.1153 -81.5712 0.
-18.6947 -53.4739 0.
-6.27393 -25.3766 0.
219.903 221.838 0.
318.029 450.603 0.
-1658.01 -209.823 0.
12.397 289.915 0.
-101.154 24.6422 0.
-176.62 -175.292 0.
-179.193 -182.035 0.
-181.766 -188.778 0.
-73.6796 -192.612 0.
-128.051 -319.79 0.
-182.422 -446.968 0.
-322.5 -523.348 0.
-309.058 -492.533 0.
-295.616 -461.719 0.
-391.833 -387.833 0.
-324.724 -230.278 0.
395.927 186.056 0.
360.293 102.866 0.
324.66 19.6757 0.
-257.215 -221.594 0.
-173.475 -26.3426 0.
-89.7355 168.909 0.
-302.487 154.673 0.
-297.187 166.846 0.
-291.888 179.02 0.
172.846 329.241 0.
137.605 247.635 0.
440.798 310.735 0.
43.284 40.9531 0.
-9.33159 -80.5266 0.
-68.825 -143.509 0.
17.2537 56.831 0.
103.332 257.171 0.
197.553 307.841 0.
105.212 92.1893 0.
12.8706 -123.462 0.
-236.98 -162.709 0.
-137.565 69.4044 0.
-38.1515 301.518 0.
-204.71 178.166 0.
-250.478 71.9056 0.
242.317 196.415 0.
212.995 128.851 0.
183.673 61.2859 0.
-10.0772 -51.6625 0.
0.878019 -24.9992 0.
11.8332 1.6641 0.
10.0791 -49.7851 0.
-46.9711 -182.685 0.
-104.021 -315.584 0.
65.7782 -293.02 0.
48.0846 -334.596 0.
40.0692 11.1717 0.
341.398 118.852 0.
331.37 94.1801 0.
-52.7852 -98.822 0.
-77.9151 -157.199 0.
-103.045 -215.575 0.
33.7365 -161.398 0.
57.4694 -104.968 0.
81.2024 -48.5378 0.
-47.6175 -29.2868 0.
0.902275 84.0328 0.
49.4219 197.352 0.
-15.493 107.794 0.
-60.0416 5.49704 0.
-360.076 -193.51 0.
-348.739 -165.121 0.
-337.401 -136.733 0.
72.2072 52.1033 0.
69.4615 45.8463 0.
66.7159 39.5894 0.
-93.6762 -104.111 0.
-161.581 -261.815 0.
-229.486 -419.52 0.
-15.6963 -260.343 0.
47.9479 -111.05 0.
-246.741 -116.09 0.
265.247 174.597 0.
301.684 259.943 0.
61.1358 192.658 0.
21.0286 101.061 0.
-19.0786 9.46488 0.
-55.3185 -52.9908 0.
-63.9834 -72.6789 0.
-72.6483 -92.367 0.
-188.63 -159.222 0.
-197.443 -180.702 0.
-206.257 -202.182 0.
-322.283 -281.348 0.
-338.185 -318.497 0.
-269.598 -301.358 0.
-198.295 -134.96 0.
-126.992 31.4382 0.
126.25 202.722 0.
84.3266 103.435 0.
42.4035 4.1479 0.
49.2126 -15.759 0.
61.7255 12.3597 0.
74.2385 40.4786 0.
354.725 311.332 0.
453.078 539.917 0.
-721.581 223.395 0.
-131.586 260.029 0.
-245.058 -5.16225 0.
5.07447 -66.3804 0.
2.48635 -73.1574 0.
-0.101623 -79.9344 0.
-95.019 -170.396 0.
-149.35 -297.548 0.
-203.68 -424.7 0.
-283.314 -474.92 0.
-269.777 -444.149 0.
-256.239 -413.377 0.
-515.908 -409.066 0.
-448.708 -251.745 0.
441.648 237.32 0.
406.178 154.001 0.
370.708 70.6808 0.
-278.463 -199.122 0.
-194.631 -3.95974 0.
-110.799 191.203 0.
-472.698 113.238 0.
-467.31 125.265 0.
-461.922 137.291 0.
500.685 501.571 0.
465.486 419.971 0.
363.698 309.391 0.
228.561 151.427 0.
176.017 29.9105 0.
-235.609 -183.507 0.
-149.476 16.9018 0.
-63.3438 217.311 0.
215.976 347.337 0.
123.675 131.713 0.
31.3747 -83.9115 0.
-320.956 -167.668 0.
-221.514 64.3727 0.
-122.071 296.414 0.
-128.904 243.13 0.
-174.731 136.838 0.
131.729 180.13 0.
102.344 112.591 0.
72.9595 45.0517 0.
34.3681 -1.51628 0.
45.3339 25.046 0.
56.2997 51.6082 0.
31.6574 -8.94576 0.
-25.43 -141.723 0.
-82.5175 -274.5 0.
247.359 -184.114 0.
229.842 -225.633 0.
