# vtk DataFile Version 2.0
test grain
ASCII
DATASET UNSTRUCTURED_GRID
POINTS 5000 float
0.499964 0.00100012 0.
0.501965 0.00100013 0.
0.503967 0.00100014 0.
0.505968 0.00100015 0.
0.507969 0.00100016 0.
0.50997 0.00100017 0.
0.511971 0.00100016 0.
0.513972 0.00100015 0.
0.515973 0.00100013 0.
0.517974 0.00100017 0.
0.519974 0.00100023 0.
0.521975 0.0010003 0.
0.523975 0.0010004 0.
0.525975 0.00100049 0.
0.527975 0.00100057 0.
0.529975 0.00100049 0.
0.531975 0.00100041 0.
0.533976 0.00100034 0.
0.535976 0.00100031 0.
0.537976 0.00100029 0.
0.539977 0.00100032 0.
0.541977 0.00100041 0.
0.543978 0.0010005 0.
0.545978 0.0010005 0.
0.547978 0.00100046 0.
0.549979 0.00100042 0.
0.551979 0.00100045 0.
0.553979 0.00100047 0.
0.555979 0.00100046 0.
0.55798 0.00100031 0.
0.559981 0.00100017 0.
0.561982 0.00100012 0.
0.563983 0.00100022 0.
0.565984 0.00100032 0.
0.567985 0.0010003 0.
0.569986 0.00100022 0.
0.571986 0.00100015 0.
0.573986 0.00100012 0.
0.575987 0.0010001 0.
0.577987 0.00100009 0.
0.579988 0.00100016 0.
0.581988 0.00100023 0.
0.583989 0.00100026 0.
0.58599 0.00100019 0.
0.587992 0.00100012 0.
0.589993 0.00100007 0.
0.591995 0.00100005 0.
0.593996 0.00100002 0.
0.595998 0.00100002 0.
0.597999 0.00100001 0.
0.600001 0.00100001 0.
0.602003 0.00100002 0.
0.604006 0.00100004 0.
0.606008 0.00100006 0.
0.608009 0.00100013 0.
0.61001 0.00100019 0.
0.612011 0.00100024 0.
0.614012 0.00100025 0.
0.616012 0.00100026 0.
0.618013 0.0010003 0.
0.620014 0.00100035 0.
0.622014 0.00100041 0.
0.624015 0.00100033 0.
0.626015 0.00100024 0.
0.628016 0.00100016 0.
0.630016 0.00100018 0.
0.632017 0.0010002 0.
0.634018 0.00100022 0.
0.636019 0.00100025 0.
0.63802 0.00100028 0.
0.640021 0.0010003 0.
0.642022 0.00100032 0.
0.644023 0.00100035 0.
0.646024 0.00100037 0.
0.648025 0.00100039 0.
0.650026 0.00100042 0.
0.652026 0.00100039 0.
0.654027 0.00100037 0.
0.656027 0.00100036 0.
0.658027 0.0010004 0.
0.660026 0.00100044 0.
0.662026 0.00100048 0.
0.664027 0.00100053 0.
0.666027 0.00100058 0.
0.668027 0.00100057 0.
0.670028 0.00100054 0.
0.672028 0.00100051 0.
0.674029 0.00100046 0.
0.676029 0.0010004 0.
0.67803 0.00100037 0.
0.68003 0.00100045 0.
0.682031 0.00100053 0.
0.684032 0.00100058 0.
0.686032 0.00100055 0.
0.688033 0.00100053 0.
0.690034 0.00100045 0.
0.692035 0.00100034 0.
0.694037 0.00100023 0.
0.696038 0.00100024 0.
0.698039 0.00100027 0.
0.499965 0.00300034 0.
0.501966 0.00300039 0.
0.503967 0.00300041 0.
0.505969 0.00300044 0.
0.50797 0.00300047 0.
0.509971 0.0030005 0.
0.511972 0.00300049 0.
0.513972 0.00300044 0.
0.515973 0.00300038 0.
0.517974 0.0030005 0.
0.519974 0.0030007 0.
0.521975 0.00300091 0.
0.523975 0.00300119 0.
0.525975 0.00300148 0.
0.527975 0.00300172 0.
0.529975 0.00300147 0.
0.531976 0.00300122 0.
0.533976 0.00300102 0.
0.535976 0.00300094 0.
0.537976 0.00300086 0.
0.539977 0.00300097 0.
0.541977 0.00300124 0.
0.543978 0.00300151 0.
0.545978 0.00300149 0.
0.547978 0.00300138 0.
0.549979 0.00300127 0.
0.551979 0.00300134 0.
0.553979 0.00300141 0.
0.555979 0.00300138 0.
0.55798 0.00300094 0.
0.559981 0.0030005 0.
0.561982 0.00300037 0.
0.563983 0.00300066 0.
0.565984 0.00300095 0.
0.567984 0.0030009 0.
0.569985 0.00300067 0.
0.571986 0.00300044 0.
0.573986 0.00300036 0.
0.575987 0.00300031 0.
0.577987 0.00300028 0.
0.579988 0.00300049 0.
0.581988 0.0030007 0.
0.583989 0.00300078 0.
0.585991 0.00300057 0.
0.587992 0.00300036 0.
0.589993 0.00300022 0.
0.591995 0.00300015 0.
0.593996 0.00300007 0.
0.595998 0.00300005 0.
0.597999 0.00300004 0.
0.600001 0.00300004 0.
0.602003 0.00300007 0.
0.604006 0.00300011 0.
0.606008 0.00300018 0.
0.608009 0.00300038 0.
0.61001 0.00300058 0.
0.612011 0.00300071 0.
0.614012 0.00300074 0.
0.616012 0.00300078 0.
0.618013 0.0030009 0.
0.620014 0.00300106 0.
0.622014 0.00300122 0.
0.624015 0.00300098 0.
0.626015 0.00300071 0.
0.628016 0.00300048 0.
0.630017 0.00300054 0.
0.632018 0.0030006 0.
0.634019 0.00300067 0.
0.636019 0.00300075 0.
0.63802 0.00300083 0.
0.640021 0.0030009 0.
0.642022 0.00300097 0.
0.644024 0.00300104 0.
0.646024 0.00300111 0.
0.648025 0.00300118 0.
0.650025 0.00300125 0.
0.652025 0.00300117 0.
0.654026 0.0030011 0.
0.656026 0.00300107 0.
0.658026 0.0030012 0.
0.660026 0.00300133 0.
0.662026 0.00300145 0.
0.664027 0.00300159 0.
0.666027 0.00300173 0.
0.668027 0.00300171 0.
0.670028 0.00300163 0.
0.672028 0.00300154 0.
0.674029 0.00300138 0.
0.67603 0.00300121 0.
0.67803 0.0030011 0.
0.680031 0.00300135 0.
0.682031 0.0030016 0.
0.684032 0.00300174 0.
0.686033 0.00300166 0.
0.688034 0.00300159 0.
0.690035 0.00300136 0.
0.692036 0.00300103 0.
0.694037 0.0030007 0.
0.696038 0.00300071 0.
0.698039 0.00300081 0.
0.499966 0.00500056 0.
0.501967 0.00500064 0.
0.503968 0.00500069 0.
0.505969 0.00500074 0.
0.50797 0.00500078 0.
0.509971 0.00500083 0.
0.511972 0.00500081 0.
0.513972 0.00500073 0.
0.515973 0.00500064 0.
0.517973 0.00500083 0.
0.519974 0.00500117 0.
0.521974 0.00500152 0.
0.523975 0.00500199 0.
0.525975 0.00500247 0.
0.527975 0.00500287 0.
0.529976 0.00500245 0.
0.531976 0.00500203 0.
0.533976 0.0050017 0.
0.535976 0.00500156 0.
0.537976 0.00500143 0.
0.539976 0.00500161 0.
0.541977 0.00500206 0.
0.543978 0.00500252 0.
0.545978 0.00500248 0.
0.547979 0.0050023 0.
0.549979 0.00500212 0.
0.551979 0.00500223 0.
0.553979 0.00500235 0.
0.555979 0.0050023 0.
0.55798 0.00500156 0.
0.559981 0.00500083 0.
0.561982 0.00500062 0.
0.563983 0.00500111 0.
0.565983 0.00500159 0.
0.567984 0.0050015 0.
0.569984 0.00500111 0.
0.571985 0.00500073 0.
0.573986 0.0050006 0.
0.575987 0.00500051 0.
0.577988 0.00500046 0.
0.579988 0.00500082 0.
0.581989 0.00500117 0.
0.583989 0.0050013 0.
0.585991 0.00500095 0.
0.587992 0.0050006 0.
0.589993 0.00500037 0.
0.591995 0.00500024 0.
0.593997 0.00500011 0.
0.595998 0.00500008 0.
0.598 0.00500007 0.
0.600001 0.00500007 0.
0.602003 0.00500012 0.
0.604005 0.00500018 0.
0.606007 0.0050003 0.
0.608008 0.00500063 0.
0.610009 0.00500096 0.
0.61201 0.00500117 0.
0.614011 0.00500124 0.
0.616013 0.0050013 0.
0.618013 0.00500149 0.
0.620014 0.00500176 0.
0.622015 0.00500203 0.
0.624015 0.00500164 0.
0.626016 0.00500118 0.
0.628016 0.00500079 0.
0.630017 0.00500089 0.
0.632019 0.005001 0.
0.634019 0.00500111 0.
0.63602 0.00500124 0.
0.63802 0.00500138 0.
0.640021 0.0050015 0.
0.642023 0.00500162 0.
0.644024 0.00500174 0.
0.646024 0.00500185 0.
0.648024 0.00500197 0.
0.650024 0.00500208 0.
0.652025 0.00500196 0.
0.654025 0.00500183 0.
0.656026 0.00500179 0.
0.658026 0.005002 0.
0.660026 0.00500221 0.
0.662026 0.00500242 0.
0.664027 0.00500265 0.
0.666027 0.00500287 0.
0.668028 0.00500285 0.
0.670028 0.00500271 0.
0.672029 0.00500257 0.
0.674029 0.0050023 0.
0.67603 0.00500202 0.
0.67803 0.00500183 0.
0.680031 0.00500225 0.
0.682031 0.00500267 0.
0.684031 0.0050029 0.
0.686033 0.00500277 0.
0.688034 0.00500264 0.
0.690035 0.00500227 0.
0.692036 0.00500172 0.
0.694037 0.00500117 0.
0.696038 0.00500118 0.
0.69804 0.00500134 0.
0.499966 0.00700201 0.
0.501967 0.00700194 0.
0.503968 0.00700187 0.
0.505969 0.0070019 0.
0.50797 0.00700229 0.
0.509971 0.00700268 0.
0.511972 0.00700302 0.
0.513972 0.00700329 0.
0.515973 0.00700357 0.
0.517973 0.00700387 0.
0.519973 0.00700419 0.
0.521974 0.0070045 0.
0.523974 0.00700465 0.
0.525975 0.00700477 0.
0.527975 0.00700487 0.
0.529975 0.00700481 0.
0.531976 0.00700475 0.
0.533976 0.00700474 0.
0.535976 0.00700483 0.
0.537976 0.00700492 0.
0.539976 0.00700503 0.
0.541977 0.00700515 0.
0.543977 0.00700527 0.
0.545978 0.00700523 0.
0.547978 0.00700515 0.
0.549978 0.00700507 0.
0.551978 0.00700507 0.
0.553979 0.00700506 0.
0.555979 0.00700498 0.
0.55798 0.00700461 0.
0.55998 0.00700424 0.
0.561981 0.00700403 0.
0.563982 0.00700402 0.
0.565983 0.00700402 0.
0.567984 0.00700396 0.
0.569984 0.00700388 0.
0.571985 0.0070038 0.
0.573986 0.00700374 0.
0.575987 0.00700368 0.
0.577988 0.00700363 0.
0.579988 0.00700366 0.
0.581989 0.0070037 0.
0.58399 0.0070036 0.
0.585991 0.00700321 0.
0.587992 0.00700283 0.
0.589994 0.00700264 0.
0.591995 0.00700262 0.
0.593997 0.00700259 0.
0.595998 0.00700252 0.
0.597999 0.00700243 0.
0.600001 0.00700234 0.
0.602003 0.00700254 0.
0.604004 0.00700275 0.
0.606006 0.00700293 0.
0.608007 0.00700306 0.
0.610008 0.00700318 0.
0.61201 0.00700337 0.
0.614011 0.00700365 0.
0.616012 0.00700392 0.
0.618013 0.00700416 0.
0.620014 0.0070044 0.
0.622015 0.00700465 0.
0.624016 0.00700437 0.
0.626017 0.00700404 0.
0.628017 0.00700378 0.
0.630018 0.00700404 0.
0.632019 0.0070043 0.
0.634019 0.00700445 0.
0.63602 0.0070044 0.
0.63802 0.00700435 0.
0.640021 0.00700442 0.
0.642023 0.00700455 0.
0.644024 0.00700469 0.
0.646024 0.00700467 0.
0.648024 0.00700462 0.
0.650024 0.00700458 0.
0.652024 0.00700478 0.
0.654025 0.00700499 0.
0.656025 0.00700518 0.
0.658025 0.00700533 0.
0.660026 0.00700549 0.
0.662026 0.00700565 0.
0.664027 0.00700585 0.
0.666027 0.00700605 0.
0.668028 0.00700593 0.
0.670028 0.00700564 0.
0.672029 0.00700536 0.
0.674029 0.00700509 0.
0.67603 0.00700482 0.
0.67803 0.0070046 0.
0.680031 0.00700478 0.
0.682031 0.00700496 0.
0.684032 0.00700494 0.
0.686033 0.00700453 0.
0.688034 0.00700412 0.
0.690035 0.00700364 0.
0.692036 0.00700313 0.
0.694037 0.00700262 0.
0.696038 0.00700266 0.
0.698039 0.00700284 0.
0.499967 0.00900346 0.
0.501967 0.00900323 0.
0.503968 0.00900305 0.
0.505969 0.00900307 0.
0.50797 0.0090038 0.
0.509971 0.00900454 0.
0.511972 0.00900523 0.
0.513972 0.00900586 0.
0.515972 0.0090065 0.
0.517973 0.00900691 0.
0.519973 0.0090072 0.
0.521974 0.00900749 0.
0.523974 0.00900731 0.
0.525974 0.00900707 0.
0.527975 0.00900687 0.
0.529975 0.00900718 0.
0.531975 0.00900748 0.
0.533975 0.00900779 0.
0.535975 0.0090081 0.
0.537976 0.00900842 0.
0.539976 0.00900845 0.
0.541976 0.00900823 0.
0.543977 0.00900801 0.
0.545977 0.00900798 0.
0.547977 0.00900801 0.
0.549978 0.00900803 0.
0.551978 0.0090079 0.
0.553978 0.00900777 0.
0.555979 0.00900766 0.
0.55798 0.00900765 0.
0.55998 0.00900765 0.
0.561981 0.00900743 0.
0.563982 0.00900694 0.
0.565983 0.00900646 0.
0.567983 0.00900643 0.
0.569984 0.00900665 0.
0.571985 0.00900687 0.
0.573986 0.00900688 0.
0.575987 0.00900685 0.
0.577988 0.0090068 0.
0.579989 0.00900651 0.
0.581989 0.00900622 0.
0.58399 0.00900589 0.
0.585991 0.00900548 0.
0.587992 0.00900506 0.
0.589994 0.00900492 0.
0.591995 0.00900499 0.
0.593997 0.00900507 0.
0.595998 0.00900495 0.
0.597999 0.00900478 0.
0.600001 0.00900462 0.
0.602002 0.00900497 0.
0.604004 0.00900532 0.
0.606005 0.00900557 0.
0.608006 0.00900549 0.
0.610008 0.0090054 0.
0.612009 0.00900557 0.
0.614011 0.00900605 0.
0.616012 0.00900654 0.
0.618013 0.00900684 0.
0.620014 0.00900705 0.
0.622015 0.00900726 0.
0.624016 0.0090071 0.
0.626017 0.0090069 0.
0.628018 0.00900678 0.
0.630019 0.00900719 0.
0.632019 0.0090076 0.
0.634019 0.00900779 0.
0.63602 0.00900756 0.
0.63802 0.00900733 0.
0.640021 0.00900733 0.
0.642022 0.00900748 0.
0.644024 0.00900764 0.
0.646024 0.00900749 0.
0.648024 0.00900727 0.
0.650024 0.00900707 0.
0.652024 0.00900761 0.
0.654025 0.00900815 0.
0.656025 0.00900858 0.
0.658025 0.00900867 0.
0.660025 0.00900876 0.
0.662026 0.00900889 0.
0.664027 0.00900906 0.
0.666028 0.00900923 0.
0.668028 0.009009 0.
0.670029 0.00900858 0.
0.672029 0.00900816 0.
0.674029 0.00900789 0.
0.67603 0.00900762 0.
0.67803 0.00900736 0.
0.680031 0.00900731 0.
0.682032 0.00900726 0.
0.684032 0.00900699 0.
0.686033 0.00900629 0.
0.688033 0.0090056 0.
0.690034 0.00900502 0.
0.692036 0.00900454 0.
0.694037 0.00900406 0.
0.696038 0.00900413 0.
0.698039 0.00900434 0.
0.499968 0.0110041 0.
0.501968 0.0110039 0.
0.503968 0.0110038 0.
0.505969 0.0110039 0.
0.50797 0.0110049 0.
0.509971 0.0110059 0.
0.511972 0.0110068 0.
0.513972 0.0110076 0.
0.515972 0.0110084 0.
0.517972 0.0110088 0.
0.519973 0.011009 0.
0.521973 0.0110092 0.
0.523973 0.0110089 0.
0.525974 0.0110085 0.
0.527974 0.0110082 0.
0.529974 0.0110086 0.
0.531975 0.0110091 0.
0.533975 0.0110096 0.
0.535975 0.01101 0.
0.537975 0.0110104 0.
0.539976 0.0110104 0.
0.541976 0.0110101 0.
0.543977 0.0110098 0.
0.545977 0.0110097 0.
0.547977 0.0110097 0.
0.549977 0.0110097 0.
0.551978 0.0110096 0.
0.553978 0.0110095 0.
0.555979 0.0110094 0.
0.557979 0.0110093 0.
0.55998 0.0110093 0.
0.56198 0.011009 0.
0.563981 0.0110084 0.
0.565982 0.0110079 0.
0.567983 0.0110078 0.
0.569984 0.011008 0.
0.571985 0.0110081 0.
0.573986 0.0110082 0.
0.575987 0.0110083 0.
0.577988 0.0110084 0.
0.579989 0.011008 0.
0.58199 0.0110075 0.
0.583991 0.0110071 0.
0.585992 0.0110068 0.
0.587993 0.0110065 0.
0.589994 0.0110064 0.
0.591996 0.0110064 0.
0.593997 0.0110064 0.
0.595998 0.0110063 0.
0.597999 0.0110063 0.
0.6 0.0110062 0.
0.602002 0.0110065 0.
0.604003 0.0110067 0.
0.606005 0.0110069 0.
0.608006 0.0110067 0.
0.610007 0.0110065 0.
0.612009 0.0110067 0.
0.61401 0.0110073 0.
0.616012 0.011008 0.
0.618013 0.0110083 0.
0.620014 0.0110084 0.
0.622015 0.0110085 0.
0.624016 0.0110085 0.
0.626017 0.0110084 0.
0.628018 0.0110084 0.
0.630019 0.011009 0.
0.632019 0.0110095 0.
0.634019 0.0110097 0.
0.63602 0.0110094 0.
0.638021 0.0110091 0.
0.640022 0.0110091 0.
0.642022 0.0110094 0.
0.644023 0.0110097 0.
0.646024 0.0110095 0.
0.648024 0.0110091 0.
0.650024 0.0110087 0.
0.652024 0.0110094 0.
0.654025 0.01101 0.
0.656025 0.0110105 0.
0.658025 0.0110106 0.
0.660025 0.0110107 0.
0.662026 0.0110109 0.
0.664027 0.0110111 0.
0.666028 0.0110112 0.
0.668028 0.0110109 0.
0.670029 0.0110104 0.
0.672029 0.0110098 0.
0.67403 0.0110096 0.
0.67603 0.0110095 0.
0.678031 0.0110093 0.
0.680031 0.0110091 0.
0.682032 0.011009 0.
0.684032 0.0110086 0.
0.686033 0.0110076 0.
0.688033 0.0110067 0.
0.690034 0.011006 0.
0.692035 0.0110055 0.
0.694037 0.011005 0.
0.696038 0.0110051 0.
0.698038 0.0110052 0.
0.499968 0.0130039 0.
0.501968 0.013004 0.
0.503968 0.0130042 0.
0.505969 0.0130045 0.
0.50797 0.0130056 0.
0.50997 0.0130067 0.
0.511971 0.0130077 0.
0.513971 0.0130085 0.
0.515972 0.0130093 0.
0.517972 0.0130096 0.
0.519972 0.0130097 0.
0.521973 0.0130097 0.
0.523973 0.0130094 0.
0.525973 0.013009 0.
0.527973 0.0130087 0.
0.529974 0.0130092 0.
0.531974 0.0130096 0.
0.533974 0.0130101 0.
0.535975 0.0130105 0.
0.537975 0.0130109 0.
0.539976 0.013011 0.
0.541976 0.0130108 0.
0.543976 0.0130107 0.
0.545976 0.0130105 0.
0.547977 0.0130103 0.
0.549977 0.0130101 0.
0.551977 0.0130101 0.
0.553978 0.0130101 0.
0.555978 0.0130101 0.
0.557979 0.0130096 0.
0.559979 0.0130091 0.
0.56198 0.0130087 0.
0.563981 0.0130085 0.
0.565982 0.0130083 0.
0.567983 0.0130081 0.
0.569984 0.0130078 0.
0.571985 0.0130076 0.
0.573986 0.0130079 0.
0.575987 0.0130082 0.
0.577988 0.0130084 0.
0.579989 0.013008 0.
0.58199 0.0130076 0.
0.583991 0.0130073 0.
0.585993 0.0130073 0.
0.587994 0.0130073 0.
0.589995 0.0130071 0.
0.591996 0.0130068 0.
0.593997 0.0130065 0.
0.595998 0.0130066 0.
0.597999 0.0130068 0.
0.6 0.013007 0.
0.602002 0.013007 0.
0.604003 0.013007 0.
0.606004 0.0130069 0.
0.608006 0.0130067 0.
0.610008 0.0130064 0.
0.612009 0.0130067 0.
0.614011 0.0130074 0.
0.616012 0.0130082 0.
0.618013 0.0130084 0.
0.620013 0.0130084 0.
0.622014 0.0130083 0.
0.624015 0.0130084 0.
0.626016 0.0130086 0.
0.628018 0.0130088 0.
0.630018 0.0130094 0.
0.632019 0.01301 0.
0.63402 0.0130103 0.
0.63602 0.0130099 0.
0.638021 0.0130096 0.
0.640022 0.0130097 0.
0.642022 0.0130103 0.
0.644023 0.0130108 0.
0.646023 0.0130106 0.
0.648024 0.0130101 0.
0.650024 0.0130096 0.
0.652025 0.0130101 0.
0.654025 0.0130106 0.
0.656025 0.013011 0.
0.658026 0.0130112 0.
0.660026 0.0130115 0.
0.662026 0.0130117 0.
0.664027 0.0130119 0.
0.666028 0.0130121 0.
0.668028 0.0130117 0.
0.670029 0.013011 0.
0.67203 0.0130103 0.
0.67403 0.0130103 0.
0.676031 0.0130103 0.
0.678031 0.0130104 0.
0.680032 0.0130103 0.
0.682032 0.0130102 0.
0.684032 0.0130097 0.
0.686033 0.0130085 0.
0.688034 0.0130073 0.
0.690034 0.0130065 0.
0.692035 0.013006 0.
0.694036 0.0130055 0.
0.696036 0.0130055 0.
0.698037 0.0130055 0.
0.499969 0.0150038 0.
0.501969 0.0150041 0.
0.503969 0.0150045 0.
0.505969 0.0150051 0.
0.507969 0.0150063 0.
0.50997 0.0150075 0.
0.51197 0.0150085 0.
0.513971 0.0150094 0.
0.515971 0.0150102 0.
0.517972 0.0150105 0.
0.519972 0.0150103 0.
0.521972 0.0150102 0.
0.523972 0.0150099 0.
0.525972 0.0150095 0.
0.527972 0.0150093 0.
0.529973 0.0150097 0.
0.531973 0.0150101 0.
0.533974 0.0150106 0.
0.535974 0.0150109 0.
0.537975 0.0150113 0.
0.539976 0.0150115 0.
0.541976 0.0150115 0.
0.543976 0.0150116 0.
0.545976 0.0150113 0.
0.547976 0.0150109 0.
0.549976 0.0150105 0.
0.551977 0.0150106 0.
0.553978 0.0150108 0.
0.555978 0.0150108 0.
0.557979 0.0150099 0.
0.559979 0.0150089 0.
0.56198 0.0150085 0.
0.563981 0.0150086 0.
0.565982 0.0150087 0.
0.567983 0.0150083 0.
0.569984 0.0150077 0.
0.571985 0.0150071 0.
0.573986 0.0150075 0.
0.575988 0.015008 0.
0.577989 0.0150084 0.
0.57999 0.015008 0.
0.581991 0.0150077 0.
0.583992 0.0150075 0.
0.585994 0.0150077 0.
0.587995 0.015008 0.
0.589996 0.0150078 0.
0.591996 0.0150072 0.
0.593997 0.0150067 0.
0.595998 0.0150069 0.
0.597999 0.0150074 0.
0.6 0.0150079 0.
0.602001 0.0150075 0.
0.604003 0.0150072 0.
0.606004 0.0150069 0.
0.608006 0.0150066 0.
0.610008 0.0150064 0.
0.61201 0.0150067 0.
0.614011 0.0150076 0.
0.616012 0.0150085 0.
0.618012 0.0150086 0.
0.620013 0.0150084 0.
0.622013 0.0150082 0.
0.624014 0.0150084 0.
0.626016 0.0150087 0.
0.628017 0.0150091 0.
0.630018 0.0150098 0.
0.632019 0.0150105 0.
0.63402 0.0150108 0.
0.636021 0.0150105 0.
0.638022 0.0150101 0.
0.640022 0.0150104 0.
0.642022 0.0150112 0.
0.644022 0.015012 0.
0.646023 0.0150117 0.
0.648024 0.0150111 0.
0.650025 0.0150105 0.
0.652025 0.0150108 0.
0.654025 0.0150111 0.
0.656026 0.0150115 0.
0.658026 0.0150118 0.
0.660026 0.0150122 0.
0.662027 0.0150125 0.
0.664027 0.0150127 0.
0.666027 0.0150129 0.
0.668028 0.0150124 0.
0.670029 0.0150116 0.
0.67203 0.0150107 0.
0.674031 0.0150109 0.
0.676031 0.0150112 0.
0.678032 0.0150115 0.
0.680032 0.0150114 0.
0.682032 0.0150113 0.
0.684033 0.0150108 0.
0.686033 0.0150093 0.
0.688034 0.0150079 0.
0.690034 0.015007 0.
0.692035 0.0150065 0.
0.694035 0.015006 0.
0.696035 0.0150059 0.
0.698036 0.0150058 0.
0.499967 0.0170044 0.
0.501967 0.017005 0.
0.503967 0.0170058 0.
0.505968 0.0170066 0.
0.507968 0.0170079 0.
0.509969 0.0170092 0.
0.511969 0.01701 0.
0.51397 0.0170104 0.
0.515971 0.0170107 0.
0.517971 0.017011 0.
0.519971 0.0170113 0.
0.521972 0.0170116 0.
0.523972 0.0170113 0.
0.525972 0.017011 0.
0.527972 0.0170108 0.
0.529972 0.0170111 0.
0.531973 0.0170115 0.
0.533973 0.0170118 0.
0.535974 0.0170122 0.
0.537974 0.0170125 0.
0.539975 0.0170126 0.
0.541975 0.0170125 0.
0.543976 0.0170124 0.
0.545976 0.0170123 0.
0.547976 0.0170121 0.
0.549976 0.0170119 0.
0.551977 0.0170118 0.
0.553978 0.0170118 0.
0.555978 0.0170115 0.
0.557979 0.0170106 0.
0.55998 0.0170097 0.
0.561981 0.0170092 0.
0.563982 0.0170091 0.
0.565983 0.017009 0.
0.567984 0.017009 0.
0.569985 0.017009 0.
0.571986 0.017009 0.
0.573987 0.0170089 0.
0.575988 0.0170088 0.
0.577989 0.0170087 0.
0.57999 0.0170084 0.
0.581991 0.0170082 0.
0.583992 0.0170081 0.
0.585993 0.0170083 0.
0.587995 0.0170085 0.
0.589996 0.0170084 0.
0.591996 0.0170082 0.
0.593997 0.017008 0.
0.595998 0.017008 0.
0.597999 0.0170082 0.
0.600001 0.0170084 0.
0.602002 0.0170082 0.
0.604003 0.0170079 0.
0.606005 0.0170077 0.
0.608006 0.0170076 0.
0.610008 0.0170074 0.
0.612009 0.0170076 0.
0.61401 0.0170083 0.
0.616011 0.017009 0.
0.618012 0.0170091 0.
0.620012 0.0170087 0.
0.622013 0.0170084 0.
0.624014 0.0170091 0.
0.626015 0.0170098 0.
0.628017 0.0170105 0.
0.630017 0.0170107 0.
0.632018 0.0170108 0.
0.634019 0.0170109 0.
0.63602 0.0170108 0.
0.638021 0.0170107 0.
0.640022 0.0170111 0.
0.642022 0.017012 0.
0.644023 0.0170128 0.
0.646024 0.0170128 0.
0.648024 0.0170125 0.
0.650025 0.0170122 0.
0.652026 0.0170125 0.
0.654026 0.0170127 0.
0.656026 0.0170129 0.
0.658027 0.0170132 0.
0.660027 0.0170134 0.
0.662027 0.0170137 0.
0.664028 0.0170139 0.
0.666028 0.0170142 0.
0.668029 0.0170138 0.
0.67003 0.0170132 0.
0.67203 0.0170125 0.
0.674031 0.0170125 0.
0.676031 0.0170126 0.
0.678031 0.0170126 0.
0.680031 0.0170122 0.
0.682032 0.0170119 0.
0.684032 0.0170112 0.
0.686033 0.0170099 0.
0.688034 0.0170086 0.
0.690034 0.0170078 0.
0.692035 0.0170074 0.
0.694035 0.0170069 0.
0.696036 0.0170068 0.
0.698036 0.0170068 0.
0.499965 0.0190051 0.
0.501966 0.019006 0.
0.503966 0.019007 0.
0.505967 0.0190081 0.
0.507967 0.0190095 0.
0.509967 0.0190108 0.
0.511968 0.0190115 0.
0.513969 0.0190113 0.
0.51597 0.0190112 0.
0.517971 0.0190115 0.
0.519971 0.0190122 0.
0.521972 0.0190129 0.
0.523972 0.0190128 0.
0.525972 0.0190125 0.
0.527972 0.0190123 0.
0.529972 0.0190126 0.
0.531972 0.0190128 0.
0.533973 0.0190131 0.
0.535973 0.0190134 0.
0.537974 0.0190137 0.
0.539974 0.0190137 0.
0.541975 0.0190135 0.
0.543975 0.0190133 0.
0.545976 0.0190133 0.
0.547976 0.0190133 0.
0.549976 0.0190133 0.
0.551977 0.019013 0.
0.553978 0.0190127 0.
0.555979 0.0190123 0.
0.55798 0.0190114 0.
0.55998 0.0190105 0.
0.561981 0.0190099 0.
0.563983 0.0190097 0.
0.565984 0.0190094 0.
0.567985 0.0190097 0.
0.569985 0.0190104 0.
0.571986 0.019011 0.
0.573987 0.0190104 0.
0.575988 0.0190096 0.
0.57799 0.0190089 0.
0.57999 0.0190088 0.
0.581991 0.0190088 0.
0.583991 0.0190087 0.
0.585993 0.0190089 0.
0.587994 0.019009 0.
0.589995 0.0190091 0.
0.591996 0.0190092 0.
0.593997 0.0190092 0.
0.595998 0.0190092 0.
0.598 0.019009 0.
0.600001 0.0190089 0.
0.602003 0.0190088 0.
0.604004 0.0190087 0.
0.606005 0.0190086 0.
0.608006 0.0190085 0.
0.610007 0.0190084 0.
0.612008 0.0190085 0.
0.614009 0.0190091 0.
0.61601 0.0190096 0.
0.618011 0.0190095 0.
0.620012 0.0190091 0.
0.622013 0.0190087 0.
0.624014 0.0190097 0.
0.626015 0.0190109 0.
0.628016 0.019012 0.
0.630017 0.0190116 0.
0.632017 0.0190111 0.
0.634018 0.0190109 0.
0.636019 0.0190111 0.
0.63802 0.0190113 0.
0.640022 0.0190119 0.
0.642023 0.0190128 0.
0.644024 0.0190136 0.
0.646024 0.0190139 0.
0.648025 0.0190139 0.
0.650026 0.019014 0.
0.652026 0.0190141 0.
0.654026 0.0190142 0.
0.656027 0.0190144 0.
0.658027 0.0190145 0.
0.660028 0.0190147 0.
0.662028 0.0190149 0.
0.664029 0.0190151 0.
0.666029 0.0190154 0.
0.66803 0.0190152 0.
0.67003 0.0190147 0.
0.67203 0.0190143 0.
0.67403 0.0190141 0.
0.67603 0.0190139 0.
0.67803 0.0190137 0.
0.680031 0.0190131 0.
0.682032 0.0190125 0.
0.684032 0.0190116 0.
0.686033 0.0190105 0.
0.688034 0.0190093 0.
0.690035 0.0190086 0.
0.692035 0.0190082 0.
0.694035 0.0190078 0.
0.696036 0.0190077 0.
0.698037 0.0190077 0.
0.499964 0.0210057 0.
0.501965 0.0210067 0.
0.503965 0.0210079 0.
0.505966 0.0210092 0.
0.507966 0.0210105 0.
0.509967 0.0210118 0.
0.511968 0.0210125 0.
0.513968 0.0210122 0.
0.515969 0.0210119 0.
0.51797 0.0210123 0.
0.51997 0.0210131 0.
0.521971 0.0210139 0.
0.523971 0.0210137 0.
0.525971 0.0210135 0.
0.527971 0.0210132 0.
0.529972 0.0210135 0.
0.531972 0.0210138 0.
0.533972 0.0210141 0.
0.535973 0.0210143 0.
0.537973 0.0210145 0.
0.539974 0.0210146 0.
0.541974 0.0210145 0.
0.543975 0.0210145 0.
0.545975 0.0210144 0.
0.547976 0.0210145 0.
0.549976 0.0210145 0.
0.551977 0.0210139 0.
0.553978 0.0210134 0.
0.555979 0.0210128 0.
0.55798 0.021012 0.
0.55998 0.0210113 0.
0.561981 0.0210107 0.
0.563983 0.0210102 0.
0.565984 0.0210098 0.
0.567985 0.0210102 0.
0.569985 0.021011 0.
0.571986 0.0210118 0.
0.573987 0.021011 0.
0.575989 0.02101 0.
0.57799 0.0210091 0.
0.57999 0.0210091 0.
0.581991 0.0210091 0.
0.583991 0.0210091 0.
0.585992 0.0210091 0.
0.587994 0.0210092 0.
0.589995 0.0210094 0.
0.591996 0.0210096 0.
0.593997 0.0210098 0.
0.595998 0.0210096 0.
0.598 0.0210093 0.
0.600001 0.0210091 0.
0.602003 0.021009 0.
0.604004 0.021009 0.
0.606006 0.021009 0.
0.608007 0.0210089 0.
0.610007 0.0210088 0.
0.612008 0.0210089 0.
0.614009 0.0210094 0.
0.61601 0.0210099 0.
0.618011 0.0210098 0.
0.620012 0.0210094 0.
0.622013 0.021009 0.
0.624014 0.0210101 0.
0.626015 0.0210114 0.
0.628016 0.0210125 0.
0.630017 0.021012 0.
0.632017 0.0210114 0.
0.634018 0.0210112 0.
0.636019 0.0210116 0.
0.63802 0.021012 0.
0.640022 0.0210126 0.
0.642023 0.0210134 0.
0.644024 0.0210141 0.
0.646025 0.0210145 0.
0.648025 0.0210149 0.
0.650026 0.0210152 0.
0.652026 0.0210153 0.
0.654027 0.0210154 0.
0.656027 0.0210155 0.
0.658028 0.0210156 0.
0.660028 0.0210157 0.
0.662029 0.0210159 0.
0.664029 0.021016 0.
0.66603 0.0210162 0.
0.66803 0.0210161 0.
0.67003 0.0210158 0.
0.67203 0.0210154 0.
0.67403 0.0210151 0.
0.67603 0.0210148 0.
0.67803 0.0210145 0.
0.680031 0.0210137 0.
0.682032 0.0210129 0.
0.684033 0.0210121 0.
0.686033 0.0210111 0.
0.688034 0.0210101 0.
0.690035 0.0210095 0.
0.692035 0.0210091 0.
0.694036 0.0210087 0.
0.696036 0.0210087 0.
0.698037 0.0210087 0.
0.499964 0.0230062 0.
0.501965 0.0230073 0.
0.503965 0.0230085 0.
0.505965 0.0230097 0.
0.507966 0.0230109 0.
0.509967 0.0230122 0.
0.511967 0.0230129 0.
0.513968 0.0230129 0.
0.515968 0.0230129 0.
0.517969 0.0230132 0.
0.519969 0.0230138 0.
0.52197 0.0230144 0.
0.52397 0.0230142 0.
0.525971 0.0230139 0.
0.527971 0.0230137 0.
0.529971 0.023014 0.
0.531971 0.0230144 0.
0.533972 0.0230147 0.
0.535972 0.0230149 0.
0.537973 0.023015 0.
0.539973 0.0230153 0.
0.541974 0.0230155 0.
0.543974 0.0230158 0.
0.545975 0.0230157 0.
0.547975 0.0230155 0.
0.549976 0.0230153 0.
0.551977 0.0230146 0.
0.553977 0.0230138 0.
0.555978 0.0230131 0.
0.557979 0.0230125 0.
0.55998 0.023012 0.
0.561981 0.0230115 0.
0.563982 0.0230108 0.
0.565983 0.0230102 0.
0.567984 0.0230103 0.
0.569985 0.0230109 0.
0.571986 0.0230114 0.
0.573987 0.0230108 0.
0.575988 0.0230099 0.
0.57799 0.0230092 0.
0.57999 0.0230092 0.
0.581991 0.0230091 0.
0.583992 0.0230091 0.
0.585993 0.0230091 0.
0.587994 0.0230091 0.
0.589995 0.0230092 0.
0.591996 0.0230094 0.
0.593997 0.0230096 0.
0.595998 0.0230094 0.
0.597999 0.0230091 0.
0.600001 0.0230088 0.
0.602002 0.0230088 0.
0.604004 0.0230088 0.
0.606006 0.0230088 0.
0.608007 0.0230087 0.
0.610008 0.0230086 0.
0.612009 0.0230088 0.
0.61401 0.0230093 0.
0.616011 0.0230097 0.
0.618012 0.0230098 0.
0.620013 0.0230096 0.
0.622013 0.0230094 0.
0.624015 0.0230103 0.
0.626016 0.0230113 0.
0.628017 0.0230121 0.
0.630018 0.0230119 0.
0.632018 0.0230116 0.
0.634019 0.0230116 0.
0.63602 0.0230122 0.
0.638021 0.0230128 0.
0.640022 0.0230134 0.
0.642023 0.0230138 0.
0.644024 0.0230143 0.
0.646025 0.0230148 0.
0.648025 0.0230153 0.
0.650026 0.0230157 0.
0.652026 0.0230159 0.
0.654027 0.0230161 0.
0.656028 0.0230163 0.
0.658028 0.0230164 0.
0.660029 0.0230165 0.
0.662029 0.0230166 0.
0.66403 0.0230166 0.
0.66603 0.0230167 0.
0.66803 0.0230165 0.
0.67003 0.0230162 0.
0.672031 0.0230159 0.
0.674031 0.0230156 0.
0.676031 0.0230153 0.
0.678032 0.023015 0.
0.680032 0.0230141 0.
0.682033 0.0230133 0.
0.684033 0.0230125 0.
0.686034 0.0230118 0.
0.688034 0.023011 0.
0.690035 0.0230105 0.
0.692036 0.0230101 0.
0.694036 0.0230096 0.
0.696037 0.0230096 0.
0.698037 0.0230097 0.
0.499964 0.0250067 0.
0.501965 0.0250078 0.
0.503965 0.025009 0.
0.505965 0.0250102 0.
0.507966 0.0250113 0.
0.509967 0.0250125 0.
0.511967 0.0250133 0.
0.513967 0.0250136 0.
0.515968 0.0250139 0.
0.517968 0.0250142 0.
0.519968 0.0250146 0.
0.521968 0.025015 0.
0.523969 0.0250147 0.
0.52597 0.0250144 0.
0.527971 0.0250141 0.
0.529971 0.0250146 0.
0.531971 0.025015 0.
0.533971 0.0250153 0.
0.535972 0.0250154 0.
0.537972 0.0250155 0.
0.539973 0.0250159 0.
0.541973 0.0250165 0.
0.543974 0.0250171 0.
0.545974 0.0250169 0.
0.547975 0.0250165 0.
0.549976 0.0250161 0.
0.551976 0.0250152 0.
0.553977 0.0250142 0.
0.555978 0.0250133 0.
0.557978 0.0250131 0.
0.559979 0.0250128 0.
0.56198 0.0250122 0.
0.563981 0.0250114 0.
0.565983 0.0250105 0.
0.567984 0.0250104 0.
0.569985 0.0250107 0.
0.571986 0.025011 0.
0.573987 0.0250105 0.
0.575988 0.0250099 0.
0.577989 0.0250093 0.
0.57999 0.0250093 0.
0.581991 0.0250092 0.
0.583992 0.0250091 0.
0.585993 0.0250091 0.
0.587993 0.025009 0.
0.589994 0.0250091 0.
0.591996 0.0250093 0.
0.593997 0.0250095 0.
0.595998 0.0250092 0.
0.597999 0.0250089 0.
0.6 0.0250085 0.
0.602002 0.0250086 0.
0.604004 0.0250086 0.
0.606006 0.0250086 0.
0.608007 0.0250086 0.
0.610008 0.0250085 0.
0.612009 0.0250087 0.
0.614011 0.0250091 0.
0.616012 0.0250096 0.
0.618013 0.0250097 0.
0.620013 0.0250098 0.
0.622014 0.0250099 0.
0.624015 0.0250105 0.
0.626016 0.0250111 0.
0.628017 0.0250117 0.
0.630019 0.0250118 0.
0.63202 0.0250118 0.
0.634021 0.0250121 0.
0.636021 0.0250129 0.
0.638021 0.0250137 0.
0.640022 0.0250141 0.
0.642023 0.0250143 0.
0.644024 0.0250145 0.
0.646025 0.0250151 0.
0.648025 0.0250157 0.
0.650026 0.0250163 0.
0.652026 0.0250166 0.
0.654027 0.0250168 0.
0.656028 0.0250171 0.
0.658028 0.0250172 0.
0.660029 0.0250173 0.
0.662029 0.0250173 0.
0.66403 0.0250172 0.
0.66603 0.0250171 0.
0.66803 0.0250169 0.
0.670031 0.0250166 0.
0.672031 0.0250164 0.
0.674032 0.0250161 0.
0.676032 0.0250158 0.
0.678033 0.0250155 0.
0.680033 0.0250146 0.
0.682033 0.0250137 0.
0.684034 0.0250129 0.
0.686034 0.0250124 0.
0.688034 0.0250119 0.
0.690035 0.0250115 0.
0.692036 0.025011 0.
0.694037 0.0250106 0.
0.696037 0.0250106 0.
0.698037 0.0250107 0.
0.499963 0.0270082 0.
0.501963 0.0270091 0.
0.503964 0.02701 0.
0.505965 0.0270108 0.
0.507965 0.0270116 0.
0.509966 0.0270124 0.
0.511966 0.0270131 0.
0.513967 0.0270138 0.
0.515967 0.0270144 0.
0.517968 0.0270147 0.
0.519968 0.0270149 0.
0.521968 0.0270151 0.
0.523969 0.0270152 0.
0.525969 0.0270153 0.
0.52797 0.0270153 0.
0.52997 0.0270154 0.
0.531971 0.0270156 0.
0.533971 0.0270157 0.
0.535972 0.0270159 0.
0.537972 0.0270161 0.
0.539973 0.0270164 0.
0.541973 0.0270168 0.
0.543974 0.0270173 0.
0.545975 0.0270171 0.
0.547975 0.0270167 0.
0.549976 0.0270163 0.
0.551977 0.0270153 0.
0.553977 0.0270143 0.
0.555978 0.0270135 0.
0.557979 0.027013 0.
0.55998 0.0270126 0.
0.561981 0.027012 0.
0.563982 0.0270113 0.
0.565983 0.0270106 0.
0.567984 0.0270104 0.
0.569985 0.0270106 0.
0.571986 0.0270108 0.
0.573987 0.0270103 0.
0.575988 0.0270097 0.
0.577989 0.0270092 0.
0.57999 0.027009 0.
0.581991 0.0270089 0.
0.583992 0.0270088 0.
0.585993 0.0270087 0.
0.587994 0.0270087 0.
0.589995 0.0270087 0.
0.591996 0.0270089 0.
0.593997 0.0270091 0.
0.595998 0.0270089 0.
0.597999 0.0270086 0.
0.6 0.0270083 0.
0.602002 0.0270085 0.
0.604004 0.0270086 0.
0.606005 0.0270087 0.
0.608006 0.0270083 0.
0.610007 0.027008 0.
0.612009 0.0270081 0.
0.61401 0.0270088 0.
0.616011 0.0270094 0.
0.618012 0.0270098 0.
0.620013 0.02701 0.
0.622014 0.0270103 0.
0.624015 0.0270107 0.
0.626016 0.0270111 0.
0.628017 0.0270114 0.
0.630018 0.0270116 0.
0.632019 0.0270118 0.
0.63402 0.0270122 0.
0.636021 0.0270129 0.
0.638021 0.0270136 0.
0.640022 0.027014 0.
0.642023 0.0270143 0.
0.644024 0.0270146 0.
0.646024 0.0270151 0.
0.648025 0.0270157 0.
0.650026 0.0270162 0.
0.652026 0.0270165 0.
0.654027 0.0270167 0.
0.656028 0.0270169 0.
0.658028 0.0270172 0.
0.660029 0.0270175 0.
0.66203 0.0270177 0.
0.66403 0.0270178 0.
0.66603 0.0270179 0.
0.668031 0.0270177 0.
0.670031 0.0270173 0.
0.672031 0.0270169 0.
0.674032 0.0270168 0.
0.676032 0.0270167 0.
0.678033 0.0270165 0.
0.680034 0.0270154 0.
0.682034 0.0270143 0.
0.684034 0.0270134 0.
0.686035 0.027013 0.
0.688035 0.0270126 0.
0.690036 0.0270123 0.
0.692036 0.0270119 0.
0.694037 0.0270116 0.
0.696038 0.0270116 0.
0.698038 0.0270118 0.
0.499962 0.0290098 0.
0.501962 0.0290104 0.
0.503963 0.0290109 0.
0.505964 0.0290115 0.
0.507965 0.0290119 0.
0.509965 0.0290124 0.
0.511966 0.029013 0.
0.513966 0.0290139 0.
0.515967 0.0290149 0.
0.517967 0.0290152 0.
0.519968 0.0290153 0.
0.521968 0.0290153 0.
0.523969 0.0290157 0.
0.525969 0.0290161 0.
0.52797 0.0290165 0.
0.52997 0.0290163 0.
0.531971 0.0290162 0.
0.533971 0.0290162 0.
0.535971 0.0290164 0.
0.537972 0.0290166 0.
0.539973 0.0290169 0.
0.541973 0.0290172 0.
0.543974 0.0290175 0.
0.545975 0.0290173 0.
0.547975 0.0290169 0.
0.549976 0.0290164 0.
0.551977 0.0290155 0.
0.553977 0.0290145 0.
0.555978 0.0290136 0.
0.557979 0.029013 0.
0.55998 0.0290124 0.
0.561981 0.0290118 0.
0.563982 0.0290112 0.
0.565983 0.0290106 0.
0.567984 0.0290104 0.
0.569985 0.0290105 0.
0.571986 0.0290106 0.
0.573987 0.0290101 0.
0.575988 0.0290095 0.
0.577989 0.029009 0.
0.57999 0.0290088 0.
0.581991 0.0290086 0.
0.583992 0.0290085 0.
0.585993 0.0290084 0.
0.587994 0.0290083 0.
0.589995 0.0290084 0.
0.591996 0.0290086 0.
0.593996 0.0290088 0.
0.595998 0.0290086 0.
0.597999 0.0290084 0.
0.6 0.0290081 0.
0.602002 0.0290084 0.
0.604003 0.0290086 0.
0.606004 0.0290087 0.
0.608006 0.0290081 0.
0.610007 0.0290075 0.
0.612008 0.0290076 0.
0.61401 0.0290084 0.
0.616011 0.0290092 0.
0.618012 0.0290098 0.
0.620012 0.0290103 0.
0.622013 0.0290107 0.
0.624014 0.0290109 0.
0.626016 0.029011 0.
0.628017 0.0290111 0.
0.630018 0.0290115 0.
0.632019 0.0290119 0.
0.634019 0.0290123 0.
0.63602 0.0290129 0.
0.638021 0.0290135 0.
0.640022 0.029014 0.
0.642023 0.0290144 0.
0.644023 0.0290148 0.
0.646024 0.0290152 0.
0.648025 0.0290157 0.
0.650025 0.0290162 0.
0.652026 0.0290163 0.
0.654027 0.0290165 0.
0.656027 0.0290167 0.
0.658028 0.0290172 0.
0.660029 0.0290177 0.
0.66203 0.0290181 0.
0.66403 0.0290184 0.
0.66603 0.0290187 0.
0.668031 0.0290185 0.
0.670031 0.029018 0.
0.672031 0.0290175 0.
0.674032 0.0290175 0.
0.676033 0.0290177 0.
0.678033 0.0290176 0.
0.680034 0.0290162 0.
0.682034 0.0290149 0.
0.684035 0.0290139 0.
0.686035 0.0290136 0.
0.688036 0.0290133 0.
0.690036 0.0290131 0.
0.692037 0.0290128 0.
0.694037 0.0290126 0.
0.696038 0.0290127 0.
0.698039 0.029013 0.
0.499961 0.0310106 0.
0.501962 0.0310112 0.
0.503963 0.0310117 0.
0.505964 0.0310121 0.
0.507964 0.0310125 0.
0.509965 0.0310129 0.
0.511965 0.0310135 0.
0.513966 0.0310143 0.
0.515967 0.0310152 0.
0.517967 0.0310155 0.
0.519967 0.0310156 0.
0.521968 0.0310157 0.
0.523968 0.0310162 0.
0.525969 0.0310168 0.
0.527969 0.0310172 0.
0.52997 0.031017 0.
0.53197 0.0310168 0.
0.533971 0.0310167 0.
0.535971 0.0310168 0.
0.537971 0.0310169 0.
0.539972 0.0310171 0.
0.541973 0.0310174 0.
0.543974 0.0310176 0.
0.545975 0.0310174 0.
0.547975 0.0310171 0.
0.549976 0.0310168 0.
0.551976 0.0310158 0.
0.553977 0.0310148 0.
0.555978 0.0310138 0.
0.557979 0.0310131 0.
0.55998 0.0310125 0.
0.561981 0.0310119 0.
0.563982 0.0310115 0.
0.565983 0.0310111 0.
0.567984 0.0310109 0.
0.569985 0.0310107 0.
0.571985 0.0310105 0.
0.573987 0.0310101 0.
0.575988 0.0310095 0.
0.577989 0.031009 0.
0.57999 0.0310087 0.
0.581991 0.0310085 0.
0.583992 0.0310083 0.
0.585993 0.0310083 0.
0.587994 0.0310082 0.
0.589995 0.0310083 0.
0.591996 0.0310084 0.
0.593996 0.0310085 0.
0.595998 0.0310084 0.
0.597999 0.0310083 0.
0.600001 0.0310082 0.
0.602002 0.0310084 0.
0.604003 0.0310085 0.
0.606004 0.0310085 0.
0.608006 0.0310079 0.
0.610007 0.0310072 0.
0.612009 0.0310073 0.
0.61401 0.0310082 0.
0.616011 0.0310092 0.
0.618012 0.0310098 0.
0.620012 0.0310102 0.
0.622013 0.0310107 0.
0.624015 0.0310108 0.
0.626016 0.0310109 0.
0.628017 0.031011 0.
0.630018 0.0310115 0.
0.632019 0.031012 0.
0.634019 0.0310125 0.
0.63602 0.0310131 0.
0.638021 0.0310137 0.
0.640022 0.0310142 0.
0.642023 0.0310147 0.
0.644023 0.0310152 0.
0.646024 0.0310156 0.
0.648025 0.0310159 0.
0.650025 0.0310162 0.
0.652026 0.0310164 0.
0.654027 0.0310166 0.
0.656027 0.0310168 0.
0.658028 0.0310173 0.
0.660029 0.0310178 0.
0.66203 0.0310183 0.
0.66403 0.0310187 0.
0.666031 0.0310192 0.
0.668031 0.031019 0.
0.670032 0.0310185 0.
0.672032 0.031018 0.
0.674033 0.031018 0.
0.676033 0.0310181 0.
0.678033 0.031018 0.
0.680034 0.0310167 0.
0.682035 0.0310153 0.
0.684036 0.0310144 0.
0.686036 0.0310141 0.
0.688036 0.0310139 0.
0.690037 0.0310137 0.
0.692037 0.0310135 0.
0.694038 0.0310134 0.
0.696039 0.0310135 0.
0.69804 0.0310138 0.
0.499962 0.0330108 0.
0.501962 0.0330117 0.
0.503963 0.0330122 0.
0.505963 0.0330128 0.
0.507964 0.0330134 0.
0.509964 0.0330139 0.
0.511965 0.0330145 0.
0.513965 0.0330149 0.
0.515966 0.0330153 0.
0.517966 0.0330157 0.
0.519967 0.033016 0.
0.521967 0.0330164 0.
0.523967 0.0330168 0.
0.525968 0.0330172 0.
0.527968 0.0330176 0.
0.529969 0.0330175 0.
0.53197 0.0330175 0.
0.53397 0.0330174 0.
0.53597 0.0330171 0.
0.537971 0.0330169 0.
0.539971 0.033017 0.
0.541972 0.0330173 0.
0.543973 0.0330177 0.
0.545974 0.0330176 0.
0.547974 0.0330175 0.
0.549975 0.0330173 0.
0.551976 0.0330162 0.
0.553976 0.0330151 0.
0.555977 0.0330141 0.
0.557978 0.0330135 0.
0.559979 0.0330129 0.
0.56198 0.0330124 0.
0.563981 0.0330123 0.
0.565982 0.0330122 0.
0.567983 0.0330118 0.
0.569984 0.0330112 0.
0.571984 0.0330107 0.
0.573986 0.0330102 0.
0.575987 0.0330097 0.
0.577988 0.0330092 0.
0.57999 0.0330088 0.
0.581991 0.0330084 0.
0.583992 0.0330081 0.
0.585993 0.0330082 0.
0.587994 0.0330084 0.
0.589994 0.0330084 0.
0.591995 0.0330084 0.
0.593996 0.0330084 0.
0.595998 0.0330084 0.
0.597999 0.0330085 0.
0.600001 0.0330086 0.
0.602002 0.0330085 0.
0.604004 0.0330083 0.
0.606005 0.0330081 0.
0.608007 0.0330075 0.
0.610008 0.033007 0.
0.612009 0.0330071 0.
0.61401 0.0330082 0.
0.616011 0.0330092 0.
0.618012 0.0330097 0.
0.620013 0.03301 0.
0.622014 0.0330102 0.
0.624015 0.0330105 0.
0.626016 0.0330107 0.
0.628018 0.033011 0.
0.630018 0.0330116 0.
0.632019 0.0330123 0.
0.63402 0.0330129 0.
0.636021 0.0330135 0.
0.638022 0.0330142 0.
0.640023 0.0330148 0.
0.642023 0.0330154 0.
0.644024 0.0330159 0.
0.646024 0.0330161 0.
0.648025 0.0330162 0.
0.650026 0.0330163 0.
0.652026 0.0330166 0.
0.654027 0.0330169 0.
0.656028 0.0330172 0.
0.658029 0.0330175 0.
0.66003 0.0330179 0.
0.66203 0.0330184 0.
0.664031 0.0330189 0.
0.666031 0.0330194 0.
0.668032 0.0330193 0.
0.670032 0.0330189 0.
0.672033 0.0330185 0.
0.674033 0.0330183 0.
0.676033 0.0330182 0.
0.678034 0.0330179 0.
0.680035 0.0330168 0.
0.682035 0.0330156 0.
0.684036 0.0330148 0.
0.686036 0.0330145 0.
0.688036 0.0330143 0.
0.690037 0.0330142 0.
0.692037 0.0330141 0.
0.694038 0.033014 0.
0.696039 0.0330141 0.
0.69804 0.0330142 0.
0.499963 0.035011 0.
0.501963 0.0350121 0.
0.503962 0.0350128 0.
0.505962 0.0350135 0.
0.507963 0.0350142 0.
0.509964 0.035015 0.
0.511964 0.0350155 0.
0.513965 0.0350155 0.
0.515965 0.0350155 0.
0.517966 0.0350159 0.
0.519966 0.0350165 0.
0.521966 0.035017 0.
0.523967 0.0350174 0.
0.525967 0.0350177 0.
0.527968 0.0350179 0.
0.529968 0.035018 0.
0.531969 0.0350181 0.
0.533969 0.035018 0.
0.53597 0.0350174 0.
0.53797 0.0350169 0.
0.539971 0.0350168 0.
0.541972 0.0350173 0.
0.543972 0.0350177 0.
0.545973 0.0350178 0.
0.547974 0.0350178 0.
0.549975 0.0350178 0.
0.551975 0.0350167 0.
0.553976 0.0350155 0.
0.555976 0.0350144 0.
0.557977 0.0350138 0.
0.559978 0.0350132 0.
0.561979 0.035013 0.
0.56398 0.0350131 0.
0.565981 0.0350133 0.
0.567982 0.0350127 0.
0.569983 0.0350118 0.
0.571983 0.0350108 0.
0.573985 0.0350103 0.
0.575986 0.0350098 0.
0.577988 0.0350094 0.
0.579989 0.0350088 0.
0.581991 0.0350083 0.
0.583992 0.035008 0.
0.585993 0.0350082 0.
0.587993 0.0350085 0.
0.589994 0.0350085 0.
0.591995 0.0350084 0.
0.593997 0.0350082 0.
0.595998 0.0350084 0.
0.597999 0.0350087 0.
0.600001 0.035009 0.
0.602003 0.0350085 0.
0.604004 0.0350081 0.
0.606006 0.0350077 0.
0.608007 0.0350072 0.
0.610009 0.0350067 0.
0.61201 0.035007 0.
0.614011 0.0350081 0.
0.616012 0.0350093 0.
0.618013 0.0350097 0.
0.620013 0.0350097 0.
0.622014 0.0350098 0.
0.624016 0.0350101 0.
0.626017 0.0350106 0.
0.628018 0.0350111 0.
0.630019 0.0350118 0.
0.63202 0.0350125 0.
0.634021 0.0350133 0.
0.636022 0.035014 0.
0.638023 0.0350147 0.
0.640023 0.0350154 0.
0.642024 0.035016 0.
0.644024 0.0350166 0.
0.646025 0.0350167 0.
0.648025 0.0350165 0.
0.650026 0.0350164 0.
0.652027 0.0350168 0.
0.654028 0.0350172 0.
0.656028 0.0350175 0.
0.658029 0.0350178 0.
0.66003 0.035018 0.
0.662031 0.0350184 0.
0.664031 0.035019 0.
0.666032 0.0350196 0.
0.668032 0.0350195 0.
0.670033 0.0350192 0.
0.672034 0.0350189 0.
0.674034 0.0350186 0.
0.676034 0.0350182 0.
0.678034 0.0350178 0.
0.680035 0.0350169 0.
0.682036 0.0350159 0.
0.684037 0.0350152 0.
0.686037 0.035015 0.
0.688037 0.0350147 0.
0.690037 0.0350146 0.
0.692038 0.0350146 0.
0.694038 0.0350146 0.
0.696039 0.0350146 0.
0.698039 0.0350145 0.
0.499962 0.0370118 0.
0.501962 0.0370128 0.
0.503962 0.0370134 0.
0.505962 0.037014 0.
0.507963 0.0370147 0.
0.509963 0.0370154 0.
0.511964 0.0370158 0.
0.513964 0.0370158 0.
0.515965 0.0370157 0.
0.517965 0.037016 0.
0.519965 0.0370166 0.
0.521966 0.0370171 0.
0.523966 0.0370174 0.
0.525967 0.0370177 0.
0.527968 0.037018 0.
0.529968 0.0370182 0.
0.531969 0.0370184 0.
0.533969 0.0370184 0.
0.53597 0.037018 0.
0.537971 0.0370175 0.
0.539971 0.0370173 0.
0.541972 0.0370172 0.
0.543973 0.0370171 0.
0.545973 0.0370173 0.
0.547974 0.0370176 0.
0.549974 0.0370178 0.
0.551975 0.0370166 0.
0.553976 0.0370154 0.
0.555976 0.0370143 0.
0.557977 0.0370137 0.
0.559978 0.0370132 0.
0.561979 0.0370128 0.
0.56398 0.0370128 0.
0.565982 0.0370127 0.
0.567983 0.0370123 0.
0.569984 0.0370117 0.
0.571985 0.0370111 0.
0.573986 0.0370105 0.
0.575987 0.0370099 0.
0.577988 0.0370093 0.
0.579989 0.0370089 0.
0.581991 0.0370084 0.
0.583992 0.0370081 0.
0.585993 0.0370081 0.
0.587994 0.037008 0.
0.589995 0.037008 0.
0.591996 0.0370081 0.
0.593997 0.0370082 0.
0.595998 0.0370082 0.
0.597999 0.0370083 0.
0.600001 0.0370083 0.
0.602003 0.037008 0.
0.604004 0.0370078 0.
0.606006 0.0370075 0.
0.608007 0.0370073 0.
0.610009 0.037007 0.
0.61201 0.0370072 0.
0.614011 0.037008 0.
0.616012 0.0370088 0.
0.618013 0.0370093 0.
0.620014 0.0370096 0.
0.622015 0.0370099 0.
0.624016 0.0370102 0.
0.626017 0.0370106 0.
0.628018 0.037011 0.
0.630019 0.0370116 0.
0.63202 0.0370122 0.
0.634021 0.0370128 0.
0.636022 0.0370137 0.
0.638023 0.0370146 0.
0.640023 0.0370153 0.
0.642024 0.0370159 0.
0.644025 0.0370165 0.
0.646025 0.0370168 0.
0.648026 0.0370169 0.
0.650026 0.0370169 0.
0.652027 0.0370172 0.
0.654028 0.0370175 0.
0.656028 0.0370177 0.
0.658029 0.0370181 0.
0.66003 0.0370185 0.
0.662031 0.0370189 0.
0.664031 0.0370193 0.
0.666031 0.0370198 0.
0.668032 0.0370197 0.
0.670033 0.0370194 0.
0.672034 0.0370191 0.
0.674034 0.0370188 0.
0.676034 0.0370185 0.
0.678035 0.0370182 0.
0.680035 0.0370173 0.
0.682036 0.0370164 0.
0.684037 0.0370158 0.
0.686037 0.0370156 0.
0.688037 0.0370155 0.
0.690038 0.0370153 0.
0.692038 0.0370152 0.
0.694039 0.0370151 0.
0.696039 0.0370149 0.
0.69804 0.0370148 0.
0.499961 0.0390126 0.
0.501962 0.0390134 0.
0.503962 0.039014 0.
0.505962 0.0390145 0.
0.507963 0.0390152 0.
0.509963 0.0390159 0.
0.511964 0.0390162 0.
0.513964 0.0390161 0.
0.515964 0.039016 0.
0.517965 0.0390162 0.
0.519965 0.0390166 0.
0.521965 0.0390171 0.
0.523966 0.0390174 0.
0.525966 0.0390178 0.
0.527967 0.0390181 0.
0.529968 0.0390184 0.
0.531969 0.0390187 0.
0.53397 0.0390188 0.
0.53597 0.0390185 0.
0.537971 0.0390182 0.
0.539972 0.0390177 0.
0.541973 0.0390172 0.
0.543973 0.0390166 0.
0.545974 0.0390168 0.
0.547974 0.0390173 0.
0.549974 0.0390178 0.
0.551975 0.0390165 0.
0.553975 0.0390153 0.
0.555976 0.0390141 0.
0.557977 0.0390136 0.
0.559978 0.0390131 0.
0.561979 0.0390127 0.
0.56398 0.0390124 0.
0.565982 0.0390121 0.
0.567983 0.0390119 0.
0.569984 0.0390116 0.
0.571986 0.0390114 0.
0.573987 0.0390107 0.
0.575987 0.03901 0.
0.577988 0.0390093 0.
0.57999 0.039009 0.
0.581991 0.0390086 0.
0.583992 0.0390083 0.
0.585993 0.0390079 0.
0.587994 0.0390076 0.
0.589995 0.0390076 0.
0.591996 0.0390079 0.
0.593998 0.0390082 0.
0.595999 0.0390081 0.
0.598 0.0390078 0.
0.600001 0.0390076 0.
0.602003 0.0390075 0.
0.604004 0.0390074 0.
0.606006 0.0390074 0.
0.608007 0.0390073 0.
0.610008 0.0390072 0.
0.61201 0.0390074 0.
0.614011 0.0390079 0.
0.616012 0.0390084 0.
0.618013 0.0390089 0.
0.620014 0.0390094 0.
0.622015 0.03901 0.
0.624016 0.0390103 0.
0.626016 0.0390106 0.
0.628017 0.039011 0.
0.630018 0.0390114 0.
0.63202 0.0390118 0.
0.634021 0.0390124 0.
0.636022 0.0390134 0.
0.638022 0.0390144 0.
0.640023 0.0390152 0.
0.642024 0.0390158 0.
0.644026 0.0390165 0.
0.646026 0.0390169 0.
0.648026 0.0390172 0.
0.650027 0.0390174 0.
0.652027 0.0390176 0.
0.654028 0.0390178 0.
0.656028 0.039018 0.
0.658029 0.0390185 0.
0.66003 0.039019 0.
0.662031 0.0390194 0.
0.664031 0.0390197 0.
0.666031 0.03902 0.
0.668032 0.0390199 0.
0.670033 0.0390195 0.
0.672034 0.0390192 0.
0.674034 0.039019 0.
0.676035 0.0390188 0.
0.678035 0.0390185 0.
0.680036 0.0390177 0.
0.682036 0.0390169 0.
0.684037 0.0390163 0.
0.686037 0.0390163 0.
0.688038 0.0390162 0.
0.690039 0.039016 0.
0.692039 0.0390158 0.
0.694039 0.0390156 0.
0.69604 0.0390153 0.
0.69804 0.039015 0.
0.499961 0.0410138 0.
0.501961 0.0410144 0.
0.503962 0.0410147 0.
0.505962 0.0410151 0.
0.507963 0.0410157 0.
0.509963 0.0410163 0.
0.511963 0.0410167 0.
0.513964 0.0410166 0.
0.515964 0.0410166 0.
0.517964 0.0410168 0.
0.519964 0.0410171 0.
0.521965 0.0410174 0.
0.523965 0.0410176 0.
0.525966 0.0410179 0.
0.527967 0.0410181 0.
0.529968 0.0410184 0.
0.531969 0.0410188 0.
0.53397 0.041019 0.
0.53597 0.0410188 0.
0.537971 0.0410187 0.
0.539972 0.0410182 0.
0.541973 0.0410174 0.
0.543973 0.0410166 0.
0.545974 0.0410169 0.
0.547974 0.0410174 0.
0.549974 0.0410179 0.
0.551975 0.0410166 0.
0.553975 0.0410153 0.
0.555976 0.0410141 0.
0.557977 0.0410136 0.
0.559978 0.041013 0.
0.561979 0.0410126 0.
0.56398 0.0410122 0.
0.565982 0.0410118 0.
0.567983 0.0410117 0.
0.569984 0.0410116 0.
0.571986 0.0410115 0.
0.573987 0.0410108 0.
0.575987 0.0410101 0.
0.577988 0.0410094 0.
0.57999 0.041009 0.
0.581991 0.0410086 0.
0.583992 0.0410082 0.
0.585993 0.0410078 0.
0.587994 0.0410073 0.
0.589995 0.0410073 0.
0.591996 0.0410077 0.
0.593998 0.0410081 0.
0.595999 0.041008 0.
0.598 0.0410078 0.
0.600001 0.0410076 0.
0.602003 0.0410074 0.
0.604005 0.0410072 0.
0.606006 0.0410071 0.
0.608008 0.0410071 0.
0.610009 0.0410072 0.
0.61201 0.0410073 0.
0.614011 0.0410077 0.
0.616012 0.041008 0.
0.618013 0.0410086 0.
0.620014 0.0410094 0.
0.622015 0.0410101 0.
0.624016 0.0410105 0.
0.626017 0.0410108 0.
0.628017 0.0410111 0.
0.630019 0.0410114 0.
0.63202 0.0410117 0.
0.634021 0.0410123 0.
0.636022 0.0410133 0.
0.638023 0.0410144 0.
0.640024 0.0410153 0.
0.642025 0.0410162 0.
0.644026 0.041017 0.
0.646026 0.0410174 0.
0.648027 0.0410177 0.
0.650027 0.0410179 0.
0.652028 0.0410181 0.
0.654028 0.0410182 0.
0.656029 0.0410184 0.
0.65803 0.041019 0.
0.66003 0.0410195 0.
0.662031 0.0410199 0.
0.664031 0.0410199 0.
0.666031 0.0410199 0.
0.668032 0.0410197 0.
0.670033 0.0410195 0.
0.672034 0.0410192 0.
0.674035 0.0410191 0.
0.676035 0.0410189 0.
0.678036 0.0410187 0.
0.680036 0.0410181 0.
0.682037 0.0410174 0.
0.684037 0.0410169 0.
0.686038 0.0410168 0.
0.688039 0.0410166 0.
0.690039 0.0410165 0.
0.692039 0.0410164 0.
0.69404 0.0410162 0.
0.69604 0.0410161 0.
0.698041 0.0410159 0.
0.499961 0.0430154 0.
0.501961 0.0430156 0.
0.503961 0.0430156 0.
0.505962 0.0430158 0.
0.507962 0.0430163 0.
0.509962 0.0430168 0.
0.511962 0.0430171 0.
0.513963 0.0430174 0.
0.515963 0.0430176 0.
0.517963 0.0430177 0.
0.519964 0.0430178 0.
0.521964 0.0430179 0.
0.523965 0.043018 0.
0.525966 0.043018 0.
0.527967 0.0430181 0.
0.529968 0.0430184 0.
0.531969 0.0430187 0.
0.533969 0.0430189 0.
0.53597 0.0430189 0.
0.537971 0.0430189 0.
0.539972 0.0430186 0.
0.541973 0.0430179 0.
0.543973 0.0430172 0.
0.545973 0.0430174 0.
0.547974 0.0430177 0.
0.549974 0.0430181 0.
0.551975 0.0430168 0.
0.553976 0.0430155 0.
0.555976 0.0430143 0.
0.557977 0.0430136 0.
0.559978 0.0430129 0.
0.561979 0.0430124 0.
0.56398 0.0430121 0.
0.565981 0.0430118 0.
0.567983 0.0430116 0.
0.569984 0.0430115 0.
0.571985 0.0430114 0.
0.573986 0.0430109 0.
0.575987 0.0430102 0.
0.577988 0.0430096 0.
0.579989 0.043009 0.
0.581991 0.0430084 0.
0.583992 0.0430079 0.
0.585993 0.0430076 0.
0.587994 0.0430073 0.
0.589995 0.0430073 0.
0.591996 0.0430076 0.
0.593997 0.0430079 0.
0.595998 0.0430081 0.
0.597999 0.0430083 0.
0.600001 0.0430084 0.
0.602003 0.0430078 0.
0.604005 0.0430071 0.
0.606007 0.0430066 0.
0.608008 0.0430067 0.
0.610009 0.0430068 0.
0.61201 0.0430071 0.
0.614011 0.0430074 0.
0.616013 0.0430078 0.
0.618013 0.0430085 0.
0.620014 0.0430094 0.
0.622015 0.0430103 0.
0.624016 0.0430108 0.
0.626017 0.0430111 0.
0.628018 0.0430115 0.
0.630019 0.0430117 0.
0.63202 0.0430119 0.
0.634022 0.0430124 0.
0.636022 0.0430135 0.
0.638023 0.0430147 0.
0.640024 0.0430158 0.
0.642025 0.0430169 0.
0.644026 0.0430179 0.
0.646027 0.0430182 0.
0.648027 0.0430183 0.
0.650028 0.0430184 0.
0.652028 0.0430186 0.
0.654029 0.0430187 0.
0.65603 0.043019 0.
0.65803 0.0430196 0.
0.66003 0.0430202 0.
0.662031 0.0430204 0.
0.664031 0.0430199 0.
0.666032 0.0430194 0.
0.668033 0.0430192 0.
0.670033 0.0430192 0.
0.672034 0.0430192 0.
0.674035 0.0430191 0.
0.676036 0.043019 0.
0.678036 0.0430188 0.
0.680037 0.0430184 0.
0.682037 0.0430179 0.
0.684038 0.0430175 0.
0.686039 0.0430171 0.
0.688039 0.0430168 0.
0.69004 0.0430167 0.
0.69204 0.0430168 0.
0.69404 0.0430169 0.
0.696041 0.0430171 0.
0.698042 0.0430174 0.
0.499961 0.0450171 0.
0.501961 0.0450169 0.
0.503961 0.0450166 0.
0.505961 0.0450164 0.
0.507961 0.0450168 0.
0.509961 0.0450172 0.
0.511962 0.0450176 0.
0.513962 0.0450181 0.
0.515962 0.0450186 0.
0.517963 0.0450187 0.
0.519963 0.0450186 0.
0.521964 0.0450185 0.
0.523965 0.0450184 0.
0.525966 0.0450182 0.
0.527968 0.0450181 0.
0.529968 0.0450183 0.
0.531969 0.0450186 0.
0.533969 0.0450188 0.
0.53597 0.045019 0.
0.537971 0.0450192 0.
0.539972 0.045019 0.
0.541972 0.0450184 0.
0.543973 0.0450178 0.
0.545973 0.0450179 0.
0.547973 0.0450181 0.
0.549973 0.0450183 0.
0.551975 0.045017 0.
0.553976 0.0450158 0.
0.555977 0.0450146 0.
0.557977 0.0450137 0.
0.559978 0.0450128 0.
0.561979 0.0450123 0.
0.56398 0.045012 0.
0.565981 0.0450118 0.
0.567982 0.0450116 0.
0.569983 0.0450115 0.
0.571983 0.0450114 0.
0.573985 0.0450109 0.
0.575986 0.0450103 0.
0.577988 0.0450098 0.
0.579989 0.045009 0.
0.58199 0.0450082 0.
0.583992 0.0450076 0.
0.585993 0.0450074 0.
0.587994 0.0450072 0.
0.589995 0.0450073 0.
0.591996 0.0450075 0.
0.593997 0.0450077 0.
0.595998 0.0450081 0.
0.597999 0.0450087 0.
0.600001 0.0450092 0.
0.602003 0.0450081 0.
0.604005 0.045007 0.
0.606007 0.0450062 0.
0.608008 0.0450064 0.
0.610009 0.0450065 0.
0.61201 0.0450068 0.
0.614012 0.0450071 0.
0.616013 0.0450075 0.
0.618014 0.0450083 0.
0.620014 0.0450094 0.
0.622015 0.0450105 0.
0.624016 0.045011 0.
0.626018 0.0450115 0.
0.628019 0.0450119 0.
0.63002 0.045012 0.
0.632021 0.0450121 0.
0.634022 0.0450125 0.
0.636023 0.0450137 0.
0.638024 0.0450149 0.
0.640025 0.0450162 0.
0.642025 0.0450176 0.
0.644026 0.0450189 0.
0.646027 0.0450191 0.
0.648028 0.045019 0.
0.650028 0.0450189 0.
0.652029 0.0450191 0.
0.65403 0.0450193 0.
0.65603 0.0450196 0.
0.65803 0.0450203 0.
0.660031 0.045021 0.
0.662031 0.0450209 0.
0.664032 0.0450199 0.
0.666033 0.0450189 0.
0.668033 0.0450187 0.
0.670034 0.0450189 0.
0.672034 0.0450191 0.
0.674035 0.0450191 0.
0.676036 0.045019 0.
0.678037 0.0450189 0.
0.680037 0.0450186 0.
0.682038 0.0450184 0.
0.684039 0.045018 0.
0.686039 0.0450175 0.
0.68804 0.045017 0.
0.69004 0.045017 0.
0.692041 0.0450173 0.
0.694041 0.0450177 0.
0.696042 0.0450182 0.
0.698042 0.0450189 0.
0.49996 0.0470178 0.
0.50196 0.0470176 0.
0.50396 0.0470172 0.
0.505961 0.047017 0.
0.507961 0.0470176 0.
0.509961 0.0470182 0.
0.511962 0.0470186 0.
0.513962 0.0470187 0.
0.515962 0.0470189 0.
0.517963 0.0470189 0.
0.519963 0.0470188 0.
0.521964 0.0470186 0.
0.523965 0.0470185 0.
0.525966 0.0470183 0.
0.527967 0.0470181 0.
0.529968 0.0470183 0.
0.531968 0.0470185 0.
0.533969 0.0470188 0.
0.53597 0.047019 0.
0.537971 0.0470193 0.
0.539972 0.0470191 0.
0.541972 0.0470185 0.
0.543973 0.0470179 0.
0.545973 0.0470178 0.
0.547973 0.0470179 0.
0.549974 0.0470179 0.
0.551975 0.0470169 0.
0.553976 0.0470159 0.
0.555977 0.0470148 0.
0.557978 0.0470137 0.
0.559979 0.0470126 0.
0.561979 0.047012 0.
0.563981 0.0470119 0.
0.565982 0.0470118 0.
0.567983 0.0470116 0.
0.569983 0.0470114 0.
0.571984 0.0470112 0.
0.573986 0.0470107 0.
0.575987 0.0470101 0.
0.577989 0.0470096 0.
0.57999 0.0470089 0.
0.581991 0.0470082 0.
0.583992 0.0470077 0.
0.585993 0.0470074 0.
0.587993 0.0470072 0.
0.589994 0.0470072 0.
0.591995 0.0470074 0.
0.593997 0.0470077 0.
0.595998 0.047008 0.
0.598 0.0470083 0.
0.600001 0.0470086 0.
0.602003 0.0470079 0.
0.604005 0.0470071 0.
0.606007 0.0470065 0.
0.608008 0.0470066 0.
0.610009 0.0470067 0.
0.61201 0.047007 0.
0.614011 0.0470076 0.
0.616012 0.0470082 0.
0.618013 0.0470089 0.
0.620014 0.0470097 0.
0.622015 0.0470104 0.
0.624016 0.047011 0.
0.626017 0.0470115 0.
0.628018 0.047012 0.
0.630019 0.0470121 0.
0.63202 0.0470122 0.
0.634021 0.0470127 0.
0.636022 0.0470138 0.
0.638023 0.047015 0.
0.640024 0.0470162 0.
0.642025 0.0470173 0.
0.644026 0.0470184 0.
0.646027 0.0470189 0.
0.648027 0.0470192 0.
0.650028 0.0470194 0.
0.652029 0.0470197 0.
0.65403 0.0470201 0.
0.65603 0.0470204 0.
0.658031 0.0470207 0.
0.660031 0.047021 0.
0.662032 0.047021 0.
0.664032 0.0470205 0.
0.666033 0.04702 0.
0.668034 0.0470197 0.
0.670035 0.0470195 0.
0.672035 0.0470193 0.
0.674036 0.0470192 0.
0.676036 0.0470191 0.
0.678037 0.047019 0.
0.680038 0.0470188 0.
0.682038 0.0470186 0.
0.684039 0.0470183 0.
0.686039 0.0470179 0.
0.68804 0.0470175 0.
0.69004 0.0470176 0.
0.692041 0.047018 0.
0.694041 0.0470184 0.
0.696042 0.0470188 0.
0.698042 0.0470193 0.
0.499959 0.0490186 0.
0.50196 0.0490183 0.
0.50396 0.0490178 0.
0.50596 0.0490176 0.
0.507961 0.0490184 0.
0.509961 0.0490192 0.
0.511962 0.0490196 0.
0.513962 0.0490194 0.
0.515962 0.0490192 0.
0.517963 0.049019 0.
0.519964 0.0490189 0.
0.521964 0.0490188 0.
0.523965 0.0490186 0.
0.525966 0.0490183 0.
0.527967 0.0490181 0.
0.529967 0.0490183 0.
0.531968 0.0490185 0.
0.533969 0.0490187 0.
0.53597 0.0490191 0.
0.537971 0.0490194 0.
0.539972 0.0490192 0.
0.541972 0.0490186 0.
0.543973 0.049018 0.
0.545973 0.0490178 0.
0.547974 0.0490176 0.
0.549974 0.0490175 0.
0.551975 0.0490168 0.
0.553976 0.0490159 0.
0.555977 0.049015 0.
0.557978 0.0490137 0.
0.559979 0.0490124 0.
0.56198 0.0490117 0.
0.563981 0.0490118 0.
0.565982 0.0490118 0.
0.567983 0.0490116 0.
0.569984 0.0490113 0.
0.571985 0.049011 0.
0.573987 0.0490105 0.
0.575988 0.0490099 0.
0.57799 0.0490093 0.
0.57999 0.0490088 0.
0.581991 0.0490082 0.
0.583992 0.0490078 0.
0.585992 0.0490074 0.
0.587993 0.0490071 0.
0.589994 0.0490071 0.
0.591995 0.0490074 0.
0.593996 0.0490077 0.
0.595998 0.0490078 0.
0.598 0.0490079 0.
0.600001 0.049008 0.
0.602003 0.0490076 0.
0.604006 0.0490072 0.
0.606007 0.0490068 0.
0.608008 0.0490069 0.
0.610009 0.0490069 0.
0.61201 0.0490073 0.
0.614011 0.0490081 0.
0.616012 0.049009 0.
0.618013 0.0490095 0.
0.620014 0.0490099 0.
0.622015 0.0490103 0.
0.624015 0.0490109 0.
0.626016 0.0490115 0.
0.628017 0.0490121 0.
0.630019 0.0490122 0.
0.63202 0.0490123 0.
0.634021 0.0490128 0.
0.636022 0.049014 0.
0.638023 0.0490151 0.
0.640024 0.0490161 0.
0.642025 0.049017 0.
0.644026 0.049018 0.
0.646027 0.0490187 0.
0.648027 0.0490193 0.
0.650028 0.04902 0.
0.652029 0.0490204 0.
0.654029 0.0490209 0.
0.65603 0.0490212 0.
0.658031 0.0490211 0.
0.660032 0.0490211 0.
0.662032 0.0490211 0.
0.664033 0.0490211 0.
0.666034 0.0490211 0.
0.668035 0.0490207 0.
0.670035 0.0490201 0.
0.672036 0.0490196 0.
0.674037 0.0490194 0.
0.676037 0.0490192 0.
0.678037 0.049019 0.
0.680038 0.0490189 0.
0.682038 0.0490188 0.
0.684039 0.0490186 0.
0.686039 0.0490183 0.
0.68804 0.049018 0.
0.69004 0.0490181 0.
0.692041 0.0490186 0.
0.694041 0.0490191 0.
0.696042 0.0490194 0.
0.698042 0.0490197 0.
0.499959 0.0510195 0.
0.50196 0.0510191 0.
0.50396 0.0510185 0.
0.50596 0.0510183 0.
0.507961 0.0510191 0.
0.509961 0.0510199 0.
0.511961 0.0510202 0.
0.513962 0.0510198 0.
0.515962 0.0510194 0.
0.517963 0.0510192 0.
0.519963 0.0510191 0.
0.521964 0.0510189 0.
0.523965 0.0510188 0.
0.525966 0.0510187 0.
0.527966 0.0510186 0.
0.529967 0.0510187 0.
0.531968 0.0510188 0.
0.533969 0.0510189 0.
0.53597 0.0510191 0.
0.537971 0.0510193 0.
0.539972 0.0510192 0.
0.541972 0.0510188 0.
0.543973 0.0510183 0.
0.545973 0.051018 0.
0.547973 0.0510178 0.
0.549974 0.0510175 0.
0.551975 0.0510167 0.
0.553976 0.0510158 0.
0.555977 0.0510149 0.
0.557978 0.0510137 0.
0.559979 0.0510124 0.
0.56198 0.0510117 0.
0.563981 0.0510118 0.
0.565982 0.0510119 0.
0.567983 0.0510117 0.
0.569984 0.0510115 0.
0.571985 0.0510112 0.
0.573986 0.0510105 0.
0.575988 0.0510098 0.
0.57799 0.0510091 0.
0.57999 0.0510086 0.
0.581991 0.0510081 0.
0.583992 0.0510077 0.
0.585993 0.0510075 0.
0.587993 0.0510073 0.
0.589994 0.0510072 0.
0.591995 0.0510074 0.
0.593997 0.0510075 0.
0.595998 0.0510074 0.
0.598 0.0510074 0.
0.600002 0.0510073 0.
0.602004 0.0510071 0.
0.604006 0.0510069 0.
0.606008 0.0510067 0.
0.608008 0.0510067 0.
0.610009 0.0510067 0.
0.61201 0.0510071 0.
0.614011 0.051008 0.
0.616012 0.0510088 0.
0.618013 0.0510093 0.
0.620014 0.0510096 0.
0.622015 0.0510098 0.
0.624016 0.0510105 0.
0.626017 0.0510113 0.
0.628018 0.051012 0.
0.630019 0.0510122 0.
0.63202 0.0510124 0.
0.63402 0.0510129 0.
0.636021 0.0510139 0.
0.638022 0.0510149 0.
0.640023 0.0510158 0.
0.642024 0.0510166 0.
0.644026 0.0510175 0.
0.646026 0.0510184 0.
0.648027 0.0510194 0.
0.650028 0.0510203 0.
0.652029 0.0510208 0.
0.654029 0.0510212 0.
0.65603 0.0510214 0.
0.658031 0.0510212 0.
0.660032 0.051021 0.
0.662033 0.051021 0.
0.664033 0.0510213 0.
0.666034 0.0510215 0.
0.668035 0.0510212 0.
0.670036 0.0510206 0.
0.672037 0.0510201 0.
0.674037 0.0510198 0.
0.676037 0.0510196 0.
0.678038 0.0510194 0.
0.680038 0.0510193 0.
0.682039 0.0510191 0.
0.684039 0.051019 0.
0.68604 0.0510188 0.
0.68804 0.0510186 0.
0.69004 0.0510188 0.
0.692041 0.0510192 0.
0.694041 0.0510196 0.
0.696042 0.05102 0.
0.698042 0.0510204 0.
0.49996 0.0530205 0.
0.50196 0.0530199 0.
0.50396 0.0530194 0.
0.50596 0.0530191 0.
0.50796 0.0530197 0.
0.50996 0.0530203 0.
0.511961 0.0530205 0.
0.513961 0.0530201 0.
0.515962 0.0530196 0.
0.517962 0.0530194 0.
0.519963 0.0530193 0.
0.521963 0.0530191 0.
0.523964 0.0530193 0.
0.525965 0.0530195 0.
0.527966 0.0530196 0.
0.529967 0.0530194 0.
0.531968 0.0530193 0.
0.533968 0.0530192 0.
0.535969 0.0530192 0.
0.53797 0.0530192 0.
0.539971 0.0530192 0.
0.541972 0.0530191 0.
0.543972 0.053019 0.
0.545973 0.0530187 0.
0.547973 0.0530182 0.
0.549973 0.0530178 0.
0.551974 0.0530167 0.
0.553975 0.0530155 0.
0.555977 0.0530145 0.
0.557978 0.0530135 0.
0.559979 0.0530126 0.
0.561979 0.053012 0.
0.56398 0.053012 0.
0.565981 0.053012 0.
0.567982 0.0530119 0.
0.569983 0.0530118 0.
0.571983 0.0530117 0.
0.573985 0.0530108 0.
0.575987 0.0530099 0.
0.577989 0.0530089 0.
0.57999 0.0530084 0.
0.581991 0.053008 0.
0.583992 0.0530077 0.
0.585993 0.0530077 0.
0.587994 0.0530077 0.
0.589995 0.0530076 0.
0.591996 0.0530073 0.
0.593997 0.053007 0.
0.595999 0.0530068 0.
0.598 0.0530066 0.
0.600002 0.0530065 0.
0.602004 0.0530063 0.
0.604006 0.0530062 0.
0.606007 0.0530061 0.
0.608008 0.0530061 0.
0.610009 0.0530061 0.
0.61201 0.0530064 0.
0.614011 0.0530071 0.
0.616012 0.0530078 0.
0.618013 0.0530083 0.
0.620014 0.0530086 0.
0.622015 0.0530089 0.
0.624017 0.0530099 0.
0.626018 0.0530109 0.
0.628019 0.0530118 0.
0.63002 0.0530121 0.
0.63202 0.0530124 0.
0.634021 0.0530129 0.
0.636022 0.0530136 0.
0.638022 0.0530143 0.
0.640023 0.0530152 0.
0.642024 0.0530161 0.
0.644025 0.053017 0.
0.646027 0.0530182 0.
0.648028 0.0530194 0.
0.650029 0.0530206 0.
0.652029 0.0530208 0.
0.654029 0.053021 0.
0.65603 0.0530211 0.
0.658031 0.053021 0.
0.660032 0.0530208 0.
0.662033 0.0530208 0.
0.664034 0.0530211 0.
0.666035 0.0530213 0.
0.668035 0.0530212 0.
0.670036 0.053021 0.
0.672037 0.0530208 0.
0.674038 0.0530205 0.
0.676038 0.0530203 0.
0.678039 0.05302 0.
0.680039 0.0530198 0.
0.68204 0.0530196 0.
0.68404 0.0530195 0.
0.68604 0.0530195 0.
0.68804 0.0530195 0.
0.690041 0.0530196 0.
0.692041 0.0530198 0.
0.694041 0.0530199 0.
0.696041 0.0530205 0.
0.698042 0.0530212 0.
0.499961 0.0550216 0.
0.50196 0.0550208 0.
0.50396 0.0550202 0.
0.50596 0.0550199 0.
0.50796 0.0550203 0.
0.50996 0.0550207 0.
0.51196 0.0550208 0.
0.513961 0.0550203 0.
0.515961 0.0550198 0.
0.517962 0.0550196 0.
0.519962 0.0550195 0.
0.521962 0.0550193 0.
0.523964 0.0550197 0.
0.525965 0.0550202 0.
0.527966 0.0550206 0.
0.529967 0.0550202 0.
0.531968 0.0550198 0.
0.533968 0.0550194 0.
0.535969 0.0550193 0.
0.537969 0.0550191 0.
0.53997 0.0550192 0.
0.541971 0.0550194 0.
0.543972 0.0550197 0.
0.545972 0.0550193 0.
0.547972 0.0550186 0.
0.549972 0.055018 0.
0.551974 0.0550166 0.
0.553975 0.0550152 0.
0.555976 0.055014 0.
0.557977 0.0550134 0.
0.559978 0.0550127 0.
0.561979 0.0550123 0.
0.563979 0.0550122 0.
0.56598 0.0550121 0.
0.567981 0.0550121 0.
0.569981 0.0550122 0.
0.571982 0.0550123 0.
0.573984 0.0550112 0.
0.575986 0.0550099 0.
0.577988 0.0550087 0.
0.579989 0.0550083 0.
0.58199 0.0550078 0.
0.583991 0.0550076 0.
0.585993 0.0550079 0.
0.587994 0.0550081 0.
0.589995 0.0550079 0.
0.591996 0.0550072 0.
0.593998 0.0550066 0.
0.595999 0.0550062 0.
0.598 0.0550059 0.
0.600002 0.0550056 0.
0.602004 0.0550055 0.
0.604006 0.0550055 0.
0.606007 0.0550054 0.
0.608008 0.0550055 0.
0.610009 0.0550055 0.
0.61201 0.0550058 0.
0.614011 0.0550063 0.
0.616012 0.0550068 0.
0.618014 0.0550073 0.
0.620015 0.0550076 0.
0.622016 0.055008 0.
0.624017 0.0550092 0.
0.626019 0.0550105 0.
0.62802 0.0550116 0.
0.63002 0.055012 0.
0.632021 0.0550124 0.
0.634021 0.0550129 0.
0.636022 0.0550133 0.
0.638022 0.0550138 0.
0.640023 0.0550146 0.
0.642024 0.0550156 0.
0.644025 0.0550165 0.
0.646027 0.0550179 0.
0.648028 0.0550194 0.
0.650029 0.0550208 0.
0.652029 0.0550209 0.
0.654029 0.0550209 0.
0.65603 0.0550208 0.
0.658031 0.0550207 0.
0.660032 0.0550206 0.
0.662034 0.0550206 0.
0.664034 0.0550209 0.
0.666035 0.0550211 0.
0.668036 0.0550212 0.
0.670036 0.0550214 0.
0.672037 0.0550215 0.
0.674038 0.0550213 0.
0.676039 0.055021 0.
0.67804 0.0550206 0.
0.68004 0.0550204 0.
0.68204 0.0550201 0.
0.68404 0.05502 0.
0.686041 0.0550201 0.
0.688041 0.0550203 0.
0.690041 0.0550204 0.
0.692041 0.0550203 0.
0.694041 0.0550203 0.
0.696041 0.055021 0.
0.698042 0.055022 0.
0.499961 0.0570221 0.
0.501961 0.0570215 0.
0.50396 0.0570207 0.
0.50596 0.0570202 0.
0.50796 0.0570206 0.
0.509961 0.0570209 0.
0.511961 0.0570209 0.
0.513961 0.0570204 0.
0.515962 0.0570199 0.
0.517962 0.0570197 0.
0.519963 0.0570197 0.
0.521963 0.0570196 0.
0.523964 0.0570199 0.
0.525965 0.0570203 0.
0.527966 0.0570205 0.
0.529967 0.0570202 0.
0.531967 0.0570198 0.
0.533968 0.0570195 0.
0.535969 0.0570194 0.
0.537969 0.0570192 0.
0.53997 0.0570193 0.
0.541971 0.0570195 0.
0.543972 0.0570196 0.
0.545972 0.0570191 0.
0.547973 0.0570183 0.
0.549973 0.0570175 0.
0.551974 0.0570163 0.
0.553976 0.0570151 0.
0.555977 0.0570141 0.
0.557977 0.0570135 0.
0.559978 0.0570129 0.
0.561979 0.0570126 0.
0.56398 0.0570125 0.
0.56598 0.0570124 0.
0.567981 0.0570123 0.
0.569982 0.0570122 0.
0.571982 0.057012 0.
0.573984 0.057011 0.
0.575986 0.0570098 0.
0.577988 0.0570088 0.
0.579989 0.0570084 0.
0.58199 0.0570079 0.
0.583991 0.0570077 0.
0.585992 0.0570079 0.
0.587994 0.057008 0.
0.589995 0.0570078 0.
0.591996 0.0570072 0.
0.593997 0.0570066 0.
0.595998 0.0570061 0.
0.598 0.0570057 0.
0.600001 0.0570052 0.
0.602003 0.057005 0.
0.604005 0.0570048 0.
0.606007 0.0570048 0.
0.608008 0.0570051 0.
0.610009 0.0570054 0.
0.61201 0.0570058 0.
0.614011 0.0570062 0.
0.616012 0.0570065 0.
0.618013 0.0570071 0.
0.620014 0.0570077 0.
0.622015 0.0570084 0.
0.624017 0.0570094 0.
0.626018 0.0570104 0.
0.628019 0.0570114 0.
0.63002 0.057012 0.
0.63202 0.0570126 0.
0.634021 0.0570131 0.
0.636022 0.0570134 0.
0.638022 0.0570136 0.
0.640023 0.0570143 0.
0.642024 0.0570152 0.
0.644026 0.0570162 0.
0.646027 0.0570177 0.
0.648028 0.0570193 0.
0.650029 0.0570209 0.
0.65203 0.057021 0.
0.65403 0.057021 0.
0.65603 0.0570211 0.
0.658031 0.057021 0.
0.660032 0.0570209 0.
0.662033 0.057021 0.
0.664034 0.0570212 0.
0.666034 0.0570214 0.
0.668035 0.0570214 0.
0.670036 0.0570212 0.
0.672037 0.0570211 0.
0.674038 0.057021 0.
0.676039 0.0570209 0.
0.678039 0.0570207 0.
0.68004 0.0570204 0.
0.68204 0.0570201 0.
0.68404 0.05702 0.
0.68604 0.0570203 0.
0.68804 0.0570206 0.
0.69004 0.0570208 0.
0.692041 0.0570211 0.
0.694041 0.0570213 0.
0.696041 0.0570216 0.
0.698042 0.0570219 0.
0.499961 0.0590228 0.
0.501961 0.0590222 0.
0.503961 0.0590212 0.
0.505961 0.0590206 0.
0.507961 0.0590208 0.
0.509961 0.0590211 0.
0.511962 0.0590211 0.
0.513962 0.0590205 0.
0.515962 0.05902 0.
0.517963 0.0590198 0.
0.519963 0.0590199 0.
0.521964 0.0590199 0.
0.523964 0.0590201 0.
0.525965 0.0590204 0.
0.527966 0.0590205 0.
0.529967 0.0590202 0.
0.531967 0.0590198 0.
0.533968 0.0590195 0.
0.535968 0.0590194 0.
0.537969 0.0590193 0.
0.53997 0.0590194 0.
0.541971 0.0590195 0.
0.543972 0.0590196 0.
0.545973 0.0590189 0.
0.547973 0.0590179 0.
0.549974 0.059017 0.
0.551975 0.059016 0.
0.553976 0.059015 0.
0.555977 0.0590141 0.
0.557978 0.0590136 0.
0.559978 0.0590131 0.
0.561979 0.0590128 0.
0.56398 0.0590128 0.
0.565981 0.0590128 0.
0.567982 0.0590125 0.
0.569982 0.0590122 0.
0.571983 0.0590118 0.
0.573984 0.0590108 0.
0.575986 0.0590098 0.
0.577987 0.0590088 0.
0.579989 0.0590084 0.
0.58199 0.0590081 0.
0.583991 0.0590079 0.
0.585992 0.0590079 0.
0.587993 0.0590079 0.
0.589994 0.0590076 0.
0.591995 0.0590071 0.
0.593997 0.0590066 0.
0.595998 0.0590061 0.
0.597999 0.0590055 0.
0.600001 0.0590049 0.
0.602003 0.0590045 0.
0.604005 0.0590042 0.
0.606006 0.0590041 0.
0.608007 0.0590047 0.
0.610009 0.0590054 0.
0.61201 0.0590058 0.
0.614011 0.059006 0.
0.616012 0.0590062 0.
0.618013 0.0590069 0.
0.620014 0.0590078 0.
0.622015 0.0590088 0.
0.624016 0.0590096 0.
0.626017 0.0590104 0.
0.628018 0.0590111 0.
0.630019 0.0590119 0.
0.63202 0.0590127 0.
0.634021 0.0590133 0.
0.636022 0.0590134 0.
0.638022 0.0590134 0.
0.640023 0.059014 0.
0.642025 0.0590149 0.
0.644026 0.0590159 0.
0.646027 0.0590175 0.
0.648028 0.0590192 0.
0.650029 0.059021 0.
0.65203 0.0590211 0.
0.65403 0.0590212 0.
0.656031 0.0590213 0.
0.658031 0.0590213 0.
0.660032 0.0590213 0.
0.662033 0.0590213 0.
0.664033 0.0590215 0.
0.666034 0.0590217 0.
0.668035 0.0590215 0.
0.670035 0.059021 0.
0.672036 0.0590206 0.
0.674037 0.0590207 0.
0.676038 0.0590208 0.
0.678039 0.0590208 0.
0.680039 0.0590205 0.
0.68204 0.0590202 0.
0.68404 0.0590201 0.
0.68604 0.0590205 0.
0.688039 0.0590208 0.
0.69004 0.0590213 0.
0.69204 0.0590218 0.
0.694041 0.0590223 0.
0.696042 0.0590221 0.
0.698042 0.0590217 0.
0.499961 0.0610233 0.
0.501961 0.0610227 0.
0.503961 0.0610219 0.
0.505961 0.0610212 0.
0.507961 0.0610213 0.
0.509962 0.0610214 0.
0.511962 0.0610213 0.
0.513962 0.0610209 0.
0.515963 0.0610205 0.
0.517963 0.0610203 0.
0.519963 0.0610203 0.
0.521964 0.0610203 0.
0.523965 0.0610204 0.
0.525965 0.0610205 0.
0.527966 0.0610205 0.
0.529967 0.0610202 0.
0.531967 0.0610198 0.
0.533968 0.0610195 0.
0.535969 0.0610195 0.
0.537969 0.0610195 0.
0.53997 0.0610195 0.
0.541971 0.0610194 0.
0.543971 0.0610193 0.
0.545972 0.0610187 0.
0.547974 0.0610179 0.
0.549975 0.0610171 0.
0.551975 0.0610161 0.
0.553976 0.0610151 0.
0.555977 0.0610142 0.
0.557978 0.0610138 0.
0.559978 0.0610133 0.
0.561979 0.061013 0.
0.56398 0.0610129 0.
0.565981 0.0610129 0.
0.567982 0.0610125 0.
0.569982 0.0610121 0.
0.571983 0.0610116 0.
0.573984 0.0610107 0.
0.575986 0.0610097 0.
0.577987 0.0610088 0.
0.579988 0.0610084 0.
0.58199 0.061008 0.
0.583991 0.0610078 0.
0.585992 0.0610077 0.
0.587993 0.0610077 0.
0.589994 0.0610074 0.
0.591995 0.0610069 0.
0.593996 0.0610064 0.
0.595998 0.0610057 0.
0.597999 0.0610051 0.
0.600001 0.0610045 0.
0.602002 0.0610041 0.
0.604004 0.0610037 0.
0.606006 0.0610036 0.
0.608007 0.0610046 0.
0.610008 0.0610055 0.
0.612009 0.0610061 0.
0.614011 0.0610062 0.
0.616012 0.0610063 0.
0.618013 0.061007 0.
0.620014 0.061008 0.
0.622015 0.061009 0.
0.624016 0.0610097 0.
0.626017 0.0610102 0.
0.628018 0.0610108 0.
0.630019 0.0610117 0.
0.63202 0.0610125 0.
0.634021 0.0610131 0.
0.636022 0.0610132 0.
0.638022 0.0610132 0.
0.640023 0.0610139 0.
0.642025 0.0610149 0.
0.644026 0.0610159 0.
0.646027 0.0610174 0.
0.648028 0.0610191 0.
0.650029 0.0610208 0.
0.65203 0.0610209 0.
0.654031 0.061021 0.
0.656031 0.0610211 0.
0.658032 0.0610213 0.
0.660032 0.0610215 0.
0.662033 0.0610217 0.
0.664033 0.0610217 0.
0.666034 0.0610218 0.
0.668034 0.0610214 0.
0.670035 0.0610209 0.
0.672036 0.0610203 0.
0.674037 0.0610205 0.
0.676038 0.0610208 0.
0.678039 0.061021 0.
0.680039 0.0610207 0.
0.682039 0.0610204 0.
0.68404 0.0610204 0.
0.686039 0.0610208 0.
0.688039 0.0610212 0.
0.69004 0.0610218 0.
0.69204 0.0610224 0.
0.694041 0.0610231 0.
0.696042 0.0610227 0.
0.698042 0.0610221 0.
0.499961 0.0630235 0.
0.501961 0.0630232 0.
0.503961 0.0630227 0.
0.505961 0.0630222 0.
0.507961 0.063022 0.
0.509962 0.0630218 0.
0.511962 0.0630216 0.
0.513963 0.0630215 0.
0.515963 0.0630213 0.
0.517963 0.0630211 0.
0.519964 0.0630209 0.
0.521964 0.0630207 0.
0.523965 0.0630206 0.
0.525966 0.0630206 0.
0.527966 0.0630206 0.
0.529967 0.0630202 0.
0.531967 0.0630198 0.
0.533968 0.0630195 0.
0.535969 0.0630197 0.
0.537969 0.0630198 0.
0.53997 0.0630196 0.
0.541971 0.0630192 0.
0.543971 0.0630189 0.
0.545972 0.0630185 0.
0.547973 0.0630182 0.
0.549975 0.0630179 0.
0.551975 0.0630166 0.
0.553976 0.0630154 0.
0.555976 0.0630143 0.
0.557977 0.0630139 0.
0.559978 0.0630135 0.
0.561979 0.0630132 0.
0.56398 0.0630129 0.
0.56598 0.0630127 0.
0.567981 0.0630123 0.
0.569982 0.0630119 0.
0.571983 0.0630114 0.
0.573984 0.0630106 0.
0.575986 0.0630096 0.
0.577987 0.0630087 0.
0.579988 0.0630083 0.
0.581989 0.0630078 0.
0.583991 0.0630075 0.
0.585992 0.0630075 0.
0.587993 0.0630076 0.
0.589994 0.0630072 0.
0.591995 0.0630065 0.
0.593996 0.0630058 0.
0.595998 0.0630052 0.
0.597999 0.0630047 0.
0.6 0.0630042 0.
0.602002 0.0630038 0.
0.604003 0.0630034 0.
0.606005 0.0630034 0.
0.608006 0.0630046 0.
0.610007 0.0630058 0.
0.612008 0.0630065 0.
0.61401 0.0630066 0.
0.616011 0.0630068 0.
0.618013 0.0630074 0.
0.620014 0.0630083 0.
0.622015 0.0630092 0.
0.624016 0.0630097 0.
0.626017 0.0630101 0.
0.628018 0.0630105 0.
0.630019 0.0630112 0.
0.63202 0.0630119 0.
0.634021 0.0630124 0.
0.636022 0.0630128 0.
0.638023 0.0630131 0.
0.640024 0.0630138 0.
0.642025 0.063015 0.
0.644027 0.0630161 0.
0.646028 0.0630175 0.
0.648029 0.063019 0.
0.65003 0.0630205 0.
0.65203 0.0630205 0.
0.654031 0.0630205 0.
0.656032 0.0630207 0.
0.658032 0.0630212 0.
0.660033 0.0630218 0.
0.662033 0.063022 0.
0.664034 0.0630218 0.
0.666034 0.0630216 0.
0.668035 0.0630212 0.
0.670036 0.0630207 0.
0.672036 0.0630202 0.
0.674037 0.0630205 0.
0.676038 0.063021 0.
0.678038 0.0630213 0.
0.680039 0.0630211 0.
0.682039 0.0630209 0.
0.68404 0.063021 0.
0.68604 0.0630214 0.
0.68804 0.0630217 0.
0.69004 0.0630223 0.
0.69204 0.0630229 0.
0.694041 0.0630236 0.
0.696042 0.0630234 0.
0.698042 0.0630231 0.
0.499962 0.0650236 0.
0.501961 0.0650236 0.
0.503961 0.0650234 0.
0.505961 0.0650232 0.
0.507961 0.0650227 0.
0.509962 0.0650222 0.
0.511963 0.0650219 0.
0.513963 0.065022 0.
0.515964 0.0650221 0.
0.517964 0.0650219 0.
0.519964 0.0650215 0.
0.521964 0.065021 0.
0.523965 0.0650209 0.
0.525966 0.0650208 0.
0.527967 0.0650206 0.
0.529967 0.0650202 0.
0.531968 0.0650198 0.
0.533968 0.0650195 0.
0.535969 0.0650198 0.
0.53797 0.06502 0.
0.53997 0.0650198 0.
0.541971 0.0650191 0.
0.543971 0.0650184 0.
0.545972 0.0650184 0.
0.547973 0.0650185 0.
0.549974 0.0650187 0.
0.551975 0.0650172 0.
0.553975 0.0650156 0.
0.555976 0.0650143 0.
0.557977 0.065014 0.
0.559978 0.0650137 0.
0.561979 0.0650134 0.
0.563979 0.0650129 0.
0.565979 0.0650125 0.
0.56798 0.0650121 0.
0.569982 0.0650117 0.
0.571983 0.0650113 0.
0.573984 0.0650104 0.
0.575985 0.0650095 0.
0.577986 0.0650087 0.
0.579988 0.0650081 0.
0.581989 0.0650076 0.
0.583991 0.0650072 0.
0.585992 0.0650073 0.
0.587994 0.0650074 0.
0.589995 0.0650069 0.
0.591995 0.0650061 0.
0.593996 0.0650052 0.
0.595997 0.0650047 0.
0.597999 0.0650043 0.
0.6 0.0650038 0.
0.602002 0.0650035 0.
0.604003 0.0650031 0.
0.606004 0.0650031 0.
0.608005 0.0650046 0.
0.610006 0.0650061 0.
0.612008 0.065007 0.
0.614009 0.0650071 0.
0.616011 0.0650072 0.
0.618012 0.0650078 0.
0.620014 0.0650086 0.
0.622015 0.0650094 0.
0.624016 0.0650097 0.
0.626018 0.0650099 0.
0.628019 0.0650102 0.
0.630019 0.0650107 0.
0.63202 0.0650113 0.
0.634021 0.0650118 0.
0.636022 0.0650123 0.
0.638023 0.0650129 0.
0.640024 0.0650138 0.
0.642026 0.0650151 0.
0.644027 0.0650163 0.
0.646028 0.0650176 0.
0.648029 0.0650189 0.
0.65003 0.0650201 0.
0.652031 0.0650201 0.
0.654032 0.06502 0.
0.656032 0.0650202 0.
0.658033 0.0650211 0.
0.660033 0.065022 0.
0.662034 0.0650223 0.
0.664035 0.0650218 0.
0.666035 0.0650214 0.
0.668036 0.065021 0.
0.670036 0.0650205 0.
0.672037 0.0650201 0.
0.674037 0.0650205 0.
0.676037 0.0650211 0.
0.678038 0.0650215 0.
0.680038 0.0650215 0.
0.682039 0.0650215 0.
0.68404 0.0650216 0.
0.68604 0.0650219 0.
0.68804 0.0650222 0.
0.69004 0.0650228 0.
0.692041 0.0650234 0.
0.694041 0.0650241 0.
0.696041 0.0650241 0.
0.698041 0.065024 0.
0.499961 0.0670238 0.
0.501961 0.0670237 0.
0.503961 0.0670237 0.
0.505961 0.0670236 0.
0.507962 0.0670233 0.
0.509962 0.067023 0.
0.511963 0.0670228 0.
0.513963 0.0670226 0.
0.515964 0.0670224 0.
0.517964 0.0670222 0.
0.519964 0.0670218 0.
0.521965 0.0670215 0.
0.523965 0.0670213 0.
0.525966 0.0670211 0.
0.527967 0.0670209 0.
0.529968 0.0670204 0.
0.531968 0.0670199 0.
0.533969 0.0670196 0.
0.535969 0.0670195 0.
0.53797 0.0670195 0.
0.539971 0.0670193 0.
0.541971 0.0670189 0.
0.543972 0.0670185 0.
0.545972 0.0670184 0.
0.547973 0.0670184 0.
0.549974 0.0670185 0.
0.551975 0.0670171 0.
0.553976 0.0670158 0.
0.555976 0.0670146 0.
0.557977 0.0670141 0.
0.559978 0.0670136 0.
0.561979 0.0670131 0.
0.56398 0.0670128 0.
0.56598 0.0670124 0.
0.567981 0.067012 0.
0.569982 0.0670116 0.
0.571984 0.0670112 0.
0.573985 0.0670102 0.
0.575986 0.0670093 0.
0.577987 0.0670083 0.
0.579988 0.0670079 0.
0.581989 0.0670075 0.
0.583991 0.0670073 0.
0.585992 0.0670074 0.
0.587993 0.0670074 0.
0.589994 0.0670071 0.
0.591995 0.0670064 0.
0.593996 0.0670056 0.
0.595998 0.0670051 0.
0.597999 0.0670045 0.
0.6 0.067004 0.
0.602002 0.0670037 0.
0.604003 0.0670034 0.
0.606004 0.0670034 0.
0.608005 0.0670045 0.
0.610006 0.0670055 0.
0.612008 0.0670062 0.
0.614009 0.0670065 0.
0.616011 0.0670068 0.
0.618012 0.0670075 0.
0.620013 0.0670084 0.
0.622014 0.0670093 0.
0.624016 0.0670096 0.
0.626017 0.0670098 0.
0.628018 0.0670101 0.
0.630019 0.0670107 0.
0.632019 0.0670114 0.
0.63402 0.0670119 0.
0.636021 0.0670124 0.
0.638023 0.0670129 0.
0.640024 0.0670137 0.
0.642025 0.0670148 0.
0.644026 0.0670159 0.
0.646027 0.0670172 0.
0.648028 0.0670186 0.
0.65003 0.06702 0.
0.65203 0.0670201 0.
0.654031 0.0670202 0.
0.656031 0.0670204 0.
0.658032 0.0670209 0.
0.660033 0.0670214 0.
0.662033 0.0670217 0.
0.664034 0.0670216 0.
0.666034 0.0670215 0.
0.668035 0.0670211 0.
0.670035 0.0670205 0.
0.672036 0.0670199 0.
0.674036 0.0670204 0.
0.676037 0.067021 0.
0.678037 0.0670216 0.
0.680038 0.0670216 0.
0.682039 0.0670215 0.
0.684039 0.0670217 0.
0.686039 0.0670221 0.
0.68804 0.0670225 0.
0.69004 0.0670231 0.
0.692041 0.0670239 0.
0.694041 0.0670246 0.
0.696042 0.0670248 0.
0.698042 0.0670248 0.
0.499961 0.0690239 0.
0.501961 0.0690239 0.
0.503961 0.0690239 0.
0.505961 0.069024 0.
0.507962 0.069024 0.
0.509963 0.0690239 0.
0.511963 0.0690237 0.
0.513964 0.0690232 0.
0.515964 0.0690227 0.
0.517964 0.0690224 0.
0.519965 0.0690222 0.
0.521965 0.069022 0.
0.523966 0.0690217 0.
0.525967 0.0690215 0.
0.527968 0.0690212 0.
0.529968 0.0690206 0.
0.531969 0.0690201 0.
0.533969 0.0690196 0.
0.53597 0.0690193 0.
0.537971 0.069019 0.
0.539971 0.0690188 0.
0.541972 0.0690187 0.
0.543972 0.0690186 0.
0.545973 0.0690185 0.
0.547973 0.0690184 0.
0.549973 0.0690183 0.
0.551974 0.0690171 0.
0.553976 0.0690159 0.
0.555977 0.0690148 0.
0.557978 0.0690141 0.
0.559979 0.0690134 0.
0.56198 0.0690129 0.
0.56398 0.0690126 0.
0.565981 0.0690123 0.
0.567982 0.0690119 0.
0.569983 0.0690115 0.
0.571984 0.069011 0.
0.573985 0.06901 0.
0.575986 0.069009 0.
0.577987 0.069008 0.
0.579988 0.0690078 0.
0.581989 0.0690075 0.
0.583991 0.0690074 0.
0.585992 0.0690074 0.
0.587993 0.0690075 0.
0.589994 0.0690072 0.
0.591995 0.0690066 0.
0.593996 0.0690061 0.
0.595998 0.0690054 0.
0.597999 0.0690048 0.
0.600001 0.0690041 0.
0.602002 0.0690039 0.
0.604003 0.0690038 0.
0.606004 0.0690037 0.
0.608005 0.0690043 0.
0.610006 0.0690048 0.
0.612007 0.0690054 0.
0.614009 0.0690059 0.
0.616011 0.0690065 0.
0.618012 0.0690073 0.
0.620013 0.0690082 0.
0.622013 0.0690091 0.
0.624015 0.0690094 0.
0.626016 0.0690097 0.
0.628017 0.0690099 0.
0.630018 0.0690107 0.
0.632019 0.0690114 0.
0.63402 0.0690121 0.
0.636021 0.0690125 0.
0.638022 0.069013 0.
0.640023 0.0690137 0.
0.642024 0.0690146 0.
0.644025 0.0690154 0.
0.646026 0.0690168 0.
0.648028 0.0690183 0.
0.650029 0.0690198 0.
0.65203 0.0690201 0.
0.65403 0.0690204 0.
0.656031 0.0690206 0.
0.658031 0.0690207 0.
0.660032 0.0690209 0.
0.662032 0.0690211 0.
0.664033 0.0690213 0.
0.666034 0.0690216 0.
0.668034 0.0690212 0.
0.670034 0.0690204 0.
0.672035 0.0690196 0.
0.674035 0.0690202 0.
0.676036 0.069021 0.
0.678037 0.0690216 0.
0.680038 0.0690216 0.
0.682038 0.0690216 0.
0.684039 0.0690218 0.
0.686039 0.0690223 0.
0.688039 0.0690227 0.
0.69004 0.0690234 0.
0.692041 0.0690243 0.
0.694042 0.0690252 0.
0.696042 0.0690255 0.
0.698043 0.0690256 0.
0.499961 0.0710242 0.
0.501961 0.0710243 0.
0.503961 0.0710244 0.
0.505962 0.0710245 0.
0.507962 0.0710245 0.
0.509963 0.0710245 0.
0.511964 0.0710243 0.
0.513964 0.0710237 0.
0.515964 0.0710231 0.
0.517965 0.0710228 0.
0.519965 0.0710225 0.
0.521966 0.0710223 0.
0.523967 0.071022 0.
0.525968 0.0710218 0.
0.527968 0.0710215 0.
0.529969 0.071021 0.
0.531969 0.0710204 0.
0.533969 0.0710199 0.
0.53597 0.0710195 0.
0.537971 0.0710192 0.
0.539971 0.0710189 0.
0.541972 0.0710187 0.
0.543972 0.0710184 0.
0.545973 0.0710183 0.
0.547973 0.0710183 0.
0.549973 0.0710182 0.
0.551974 0.0710171 0.
0.553976 0.0710159 0.
0.555977 0.0710149 0.
0.557978 0.0710142 0.
0.559979 0.0710135 0.
0.56198 0.071013 0.
0.56398 0.0710127 0.
0.565981 0.0710124 0.
0.567982 0.0710119 0.
0.569983 0.0710113 0.
0.571984 0.0710107 0.
0.573985 0.0710098 0.
0.575986 0.0710088 0.
0.577988 0.0710079 0.
0.579989 0.0710077 0.
0.58199 0.0710075 0.
0.583991 0.0710074 0.
0.585992 0.0710073 0.
0.587993 0.0710072 0.
0.589994 0.0710069 0.
0.591995 0.0710064 0.
0.593996 0.0710059 0.
0.595998 0.0710053 0.
0.597999 0.0710047 0.
0.600001 0.0710041 0.
0.602002 0.071004 0.
0.604003 0.0710039 0.
0.606004 0.0710039 0.
0.608005 0.0710041 0.
0.610006 0.0710042 0.
0.612007 0.0710046 0.
0.614009 0.0710053 0.
0.61601 0.071006 0.
0.618011 0.0710069 0.
0.620012 0.0710079 0.
0.622013 0.0710089 0.
0.624015 0.0710093 0.
0.626016 0.0710096 0.
0.628017 0.0710099 0.
0.630018 0.0710107 0.
0.632019 0.0710114 0.
0.63402 0.0710121 0.
0.636021 0.0710125 0.
0.638022 0.071013 0.
0.640023 0.0710136 0.
0.642024 0.0710144 0.
0.644025 0.0710151 0.
0.646026 0.0710165 0.
0.648027 0.0710179 0.
0.650029 0.0710194 0.
0.652029 0.0710197 0.
0.65403 0.0710201 0.
0.65603 0.0710203 0.
0.658031 0.0710204 0.
0.660031 0.0710206 0.
0.662032 0.0710208 0.
0.664033 0.0710211 0.
0.666033 0.0710215 0.
0.668034 0.0710211 0.
0.670034 0.0710204 0.
0.672034 0.0710197 0.
0.674035 0.0710203 0.
0.676036 0.0710211 0.
0.678037 0.0710218 0.
0.680037 0.0710218 0.
0.682038 0.0710217 0.
0.684038 0.0710219 0.
0.686039 0.0710224 0.
0.688039 0.0710229 0.
0.69004 0.0710237 0.
0.692041 0.0710247 0.
0.694042 0.0710257 0.
0.696042 0.0710261 0.
0.698042 0.0710263 0.
0.499961 0.0730252 0.
0.501961 0.0730251 0.
0.503962 0.0730252 0.
0.505962 0.0730252 0.
0.507963 0.073025 0.
0.509964 0.0730248 0.
0.511964 0.0730245 0.
0.513964 0.073024 0.
0.515965 0.0730236 0.
0.517965 0.0730232 0.
0.519966 0.0730228 0.
0.521967 0.0730224 0.
0.523967 0.0730222 0.
0.525968 0.073022 0.
0.527969 0.0730218 0.
0.529969 0.0730213 0.
0.53197 0.0730209 0.
0.53397 0.0730205 0.
0.53597 0.0730203 0.
0.537971 0.07302 0.
0.539971 0.0730195 0.
0.541972 0.0730188 0.
0.543972 0.0730181 0.
0.545972 0.073018 0.
0.547972 0.0730181 0.
0.549973 0.0730182 0.
0.551974 0.073017 0.
0.553976 0.0730159 0.
0.555977 0.0730148 0.
0.557978 0.0730143 0.
0.559978 0.0730138 0.
0.561979 0.0730134 0.
0.56398 0.073013 0.
0.565981 0.0730126 0.
0.567982 0.073012 0.
0.569983 0.0730111 0.
0.571984 0.0730103 0.
0.573985 0.0730095 0.
0.575987 0.0730088 0.
0.577988 0.0730081 0.
0.579989 0.0730079 0.
0.58199 0.0730076 0.
0.583991 0.0730074 0.
0.585992 0.073007 0.
0.587993 0.0730067 0.
0.589994 0.0730063 0.
0.591995 0.0730057 0.
0.593996 0.0730052 0.
0.595997 0.0730047 0.
0.597999 0.0730043 0.
0.600001 0.0730039 0.
0.602002 0.0730039 0.
0.604003 0.0730039 0.
0.606004 0.0730039 0.
0.608005 0.0730038 0.
0.610006 0.0730037 0.
0.612007 0.073004 0.
0.614008 0.0730047 0.
0.61601 0.0730054 0.
0.618011 0.0730064 0.
0.620012 0.0730075 0.
0.622013 0.0730085 0.
0.624015 0.0730091 0.
0.626016 0.0730096 0.
0.628018 0.0730101 0.
0.630019 0.0730107 0.
0.632019 0.0730113 0.
0.63402 0.0730119 0.
0.636021 0.0730124 0.
0.638022 0.0730128 0.
0.640023 0.0730134 0.
0.642024 0.0730142 0.
0.644025 0.073015 0.
0.646026 0.0730162 0.
0.648027 0.0730175 0.
0.650028 0.0730187 0.
0.652029 0.073019 0.
0.65403 0.0730193 0.
0.65603 0.0730196 0.
0.658031 0.07302 0.
0.660031 0.0730205 0.
0.662032 0.0730208 0.
0.664032 0.073021 0.
0.666033 0.0730212 0.
0.668033 0.0730209 0.
0.670033 0.0730205 0.
0.672033 0.0730201 0.
0.674034 0.0730207 0.
0.676035 0.0730214 0.
0.678036 0.0730221 0.
0.680036 0.073022 0.
0.682037 0.0730219 0.
0.684037 0.073022 0.
0.686038 0.0730225 0.
0.688039 0.0730229 0.
0.69004 0.0730237 0.
0.69204 0.0730248 0.
0.694041 0.073026 0.
0.696041 0.0730265 0.
0.698041 0.0730268 0.
0.499962 0.0750259 0.
0.501962 0.0750258 0.
0.503962 0.0750259 0.
0.505963 0.0750259 0.
0.507963 0.0750255 0.
0.509964 0.0750251 0.
0.511964 0.0750247 0.
0.513965 0.0750244 0.
0.515965 0.075024 0.
0.517966 0.0750236 0.
0.519966 0.0750231 0.
0.521967 0.0750226 0.
0.523968 0.0750224 0.
0.525969 0.0750223 0.
0.52797 0.0750221 0.
0.52997 0.0750217 0.
0.53197 0.0750214 0.
0.53397 0.0750211 0.
0.535971 0.075021 0.
0.537971 0.0750209 0.
0.539971 0.0750202 0.
0.541971 0.0750189 0.
0.543972 0.0750177 0.
0.545972 0.0750176 0.
0.547972 0.0750179 0.
0.549973 0.0750182 0.
0.551974 0.075017 0.
0.553976 0.0750158 0.
0.555977 0.0750147 0.
0.557977 0.0750145 0.
0.559978 0.0750142 0.
0.561979 0.0750138 0.
0.56398 0.0750134 0.
0.565981 0.0750129 0.
0.567982 0.075012 0.
0.569983 0.0750109 0.
0.571984 0.0750098 0.
0.573985 0.0750093 0.
0.575987 0.0750087 0.
0.577989 0.0750082 0.
0.579989 0.075008 0.
0.58199 0.0750077 0.
0.583991 0.0750073 0.
0.585992 0.0750068 0.
0.587993 0.0750062 0.
0.589994 0.0750056 0.
0.591995 0.075005 0.
0.593996 0.0750044 0.
0.595997 0.0750041 0.
0.597999 0.0750039 0.
0.600001 0.0750037 0.
0.602002 0.0750038 0.
0.604003 0.0750039 0.
0.606004 0.0750039 0.
0.608005 0.0750036 0.
0.610006 0.0750032 0.
0.612007 0.0750034 0.
0.614008 0.0750041 0.
0.616009 0.0750048 0.
0.61801 0.0750059 0.
0.620012 0.075007 0.
0.622014 0.0750082 0.
0.624015 0.0750089 0.
0.626017 0.0750095 0.
0.628018 0.0750102 0.
0.630019 0.0750107 0.
0.63202 0.0750113 0.
0.634021 0.0750118 0.
0.636022 0.0750122 0.
0.638022 0.0750127 0.
0.640023 0.0750133 0.
0.642024 0.0750141 0.
0.644025 0.0750149 0.
0.646026 0.0750159 0.
0.648027 0.075017 0.
0.650027 0.075018 0.
0.652028 0.0750183 0.
0.654029 0.0750185 0.
0.65603 0.0750188 0.
0.658031 0.0750196 0.
0.660031 0.0750204 0.
0.662032 0.0750208 0.
0.664032 0.0750208 0.
0.666033 0.0750209 0.
0.668033 0.0750208 0.
0.670033 0.0750206 0.
0.672033 0.0750204 0.
0.674034 0.075021 0.
0.676035 0.0750218 0.
0.678035 0.0750224 0.
0.680036 0.0750222 0.
0.682036 0.0750221 0.
0.684037 0.0750222 0.
0.686038 0.0750226 0.
0.688039 0.075023 0.
0.690039 0.0750238 0.
0.69204 0.075025 0.
0.69404 0.0750262 0.
0.69604 0.0750268 0.
0.69804 0.0750273 0.
0.499962 0.0770255 0.
0.501962 0.0770257 0.
0.503963 0.0770258 0.
0.505963 0.0770259 0.
0.507964 0.0770256 0.
0.509964 0.0770252 0.
0.511964 0.0770249 0.
0.513965 0.0770245 0.
0.515965 0.0770241 0.
0.517966 0.0770237 0.
0.519967 0.0770233 0.
0.521967 0.0770229 0.
0.523968 0.0770226 0.
0.525969 0.0770224 0.
0.52797 0.0770222 0.
0.52997 0.0770219 0.
0.531971 0.0770216 0.
0.533971 0.0770214 0.
0.535971 0.077021 0.
0.537972 0.0770207 0.
0.539972 0.07702 0.
0.541972 0.0770189 0.
0.543972 0.0770179 0.
0.545973 0.0770176 0.
0.547973 0.0770176 0.
0.549974 0.0770175 0.
0.551975 0.0770167 0.
0.553976 0.0770158 0.
0.555977 0.077015 0.
0.557978 0.0770145 0.
0.559979 0.0770139 0.
0.56198 0.0770134 0.
0.563981 0.0770128 0.
0.565982 0.0770122 0.
0.567983 0.0770115 0.
0.569984 0.0770107 0.
0.571985 0.0770099 0.
0.573986 0.0770093 0.
0.575988 0.0770087 0.
0.577989 0.0770081 0.
0.57999 0.0770077 0.
0.581991 0.0770073 0.
0.583992 0.0770069 0.
0.585993 0.0770064 0.
0.587993 0.0770058 0.
0.589994 0.0770052 0.
0.591995 0.0770046 0.
0.593996 0.077004 0.
0.595997 0.0770038 0.
0.597999 0.0770036 0.
0.600001 0.0770035 0.
0.602002 0.0770036 0.
0.604003 0.0770037 0.
0.606004 0.0770037 0.
0.608005 0.0770036 0.
0.610006 0.0770034 0.
0.612007 0.0770036 0.
0.614008 0.0770043 0.
0.616009 0.077005 0.
0.61801 0.0770058 0.
0.620012 0.0770067 0.
0.622013 0.0770075 0.
0.624014 0.0770083 0.
0.626016 0.077009 0.
0.628017 0.0770098 0.
0.630018 0.0770102 0.
0.632019 0.0770107 0.
0.63402 0.0770112 0.
0.636021 0.0770118 0.
0.638022 0.0770124 0.
0.640022 0.0770131 0.
0.642023 0.0770139 0.
0.644024 0.0770147 0.
0.646025 0.0770159 0.
0.648026 0.0770171 0.
0.650027 0.0770184 0.
0.652028 0.0770185 0.
0.654029 0.0770185 0.
0.65603 0.0770187 0.
0.65803 0.0770194 0.
0.660031 0.0770201 0.
0.662031 0.0770205 0.
0.664032 0.0770206 0.
0.666032 0.0770208 0.
0.668032 0.0770207 0.
0.670032 0.0770205 0.
0.672032 0.0770203 0.
0.674033 0.077021 0.
0.676034 0.0770218 0.
0.678035 0.0770224 0.
0.680035 0.0770222 0.
0.682035 0.0770221 0.
0.684036 0.0770222 0.
0.686037 0.0770227 0.
0.688038 0.0770233 0.
0.690038 0.0770241 0.
0.692039 0.0770251 0.
0.694039 0.077026 0.
0.69604 0.0770267 0.
0.69804 0.0770273 0.
0.499962 0.079025 0.
0.501962 0.0790255 0.
0.503963 0.0790257 0.
0.505963 0.0790258 0.
0.507964 0.0790256 0.
0.509964 0.0790254 0.
0.511965 0.079025 0.
0.513965 0.0790246 0.
0.515966 0.0790241 0.
0.517966 0.0790237 0.
0.519967 0.0790234 0.
0.521967 0.0790231 0.
0.523968 0.0790228 0.
0.525969 0.0790225 0.
0.52797 0.0790222 0.
0.529971 0.0790221 0.
0.531971 0.0790219 0.
0.533972 0.0790216 0.
0.535972 0.0790211 0.
0.537973 0.0790205 0.
0.539973 0.0790198 0.
0.541973 0.0790189 0.
0.543973 0.0790181 0.
0.545974 0.0790176 0.
0.547975 0.0790172 0.
0.549975 0.0790168 0.
0.551976 0.0790164 0.
0.553977 0.0790159 0.
0.555978 0.0790153 0.
0.557979 0.0790145 0.
0.55998 0.0790137 0.
0.561981 0.0790129 0.
0.563982 0.0790122 0.
0.565983 0.0790115 0.
0.567984 0.0790109 0.
0.569985 0.0790104 0.
0.571986 0.0790099 0.
0.573987 0.0790093 0.
0.575989 0.0790086 0.
0.57799 0.079008 0.
0.579991 0.0790075 0.
0.581991 0.0790069 0.
0.583992 0.0790064 0.
0.585993 0.0790059 0.
0.587994 0.0790055 0.
0.589994 0.0790049 0.
0.591995 0.0790042 0.
0.593996 0.0790036 0.
0.595998 0.0790034 0.
0.597999 0.0790034 0.
0.600001 0.0790033 0.
0.602002 0.0790034 0.
0.604003 0.0790035 0.
0.606004 0.0790035 0.
0.608005 0.0790036 0.
0.610006 0.0790036 0.
0.612007 0.0790039 0.
0.614008 0.0790046 0.
0.616009 0.0790052 0.
0.61801 0.0790058 0.
0.620011 0.0790063 0.
0.622012 0.0790069 0.
0.624014 0.0790077 0.
0.626015 0.0790086 0.
0.628017 0.0790093 0.
0.630018 0.0790098 0.
0.632018 0.0790101 0.
0.634019 0.0790107 0.
0.63602 0.0790114 0.
0.638021 0.0790121 0.
0.640022 0.0790129 0.
0.642023 0.0790137 0.
0.644024 0.0790145 0.
0.646025 0.0790158 0.
0.648026 0.0790173 0.
0.650027 0.0790188 0.
0.652027 0.0790186 0.
0.654028 0.0790185 0.
0.656029 0.0790186 0.
0.65803 0.0790192 0.
0.660031 0.0790198 0.
0.662031 0.0790202 0.
0.664031 0.0790204 0.
0.666031 0.0790207 0.
0.668031 0.0790206 0.
0.670031 0.0790204 0.
0.672032 0.0790202 0.
0.674033 0.0790209 0.
0.676033 0.0790218 0.
0.678034 0.0790225 0.
0.680034 0.0790223 0.
0.682035 0.079022 0.
0.684035 0.0790222 0.
0.686036 0.0790229 0.
0.688037 0.0790237 0.
0.690037 0.0790244 0.
0.692038 0.0790251 0.
0.694038 0.0790258 0.
0.696039 0.0790265 0.
0.698039 0.0790273 0.
0.499962 0.0810249 0.
0.501962 0.0810254 0.
0.503963 0.0810258 0.
0.505964 0.0810261 0.
0.507964 0.0810258 0.
0.509965 0.0810256 0.
0.511965 0.0810252 0.
0.513966 0.0810248 0.
0.515966 0.0810244 0.
0.517967 0.0810241 0.
0.519967 0.0810239 0.
0.521968 0.0810237 0.
0.523968 0.0810233 0.
0.525969 0.0810228 0.
0.52797 0.0810223 0.
0.529971 0.0810222 0.
0.531972 0.081022 0.
0.533972 0.0810217 0.
0.535973 0.0810211 0.
0.537973 0.0810204 0.
0.539973 0.0810197 0.
0.541974 0.0810189 0.
0.543974 0.0810181 0.
0.545975 0.0810176 0.
0.547976 0.0810173 0.
0.549976 0.0810169 0.
0.551977 0.0810164 0.
0.553978 0.081016 0.
0.555978 0.0810154 0.
0.55798 0.0810144 0.
0.559981 0.0810134 0.
0.561982 0.0810126 0.
0.563983 0.0810118 0.
0.565983 0.0810111 0.
0.567984 0.0810106 0.
0.569985 0.0810102 0.
0.571986 0.0810098 0.
0.573987 0.0810091 0.
0.575989 0.0810084 0.
0.57799 0.0810078 0.
0.579991 0.0810072 0.
0.581992 0.0810067 0.
0.583992 0.0810061 0.
0.585993 0.0810056 0.
0.587994 0.0810051 0.
0.589995 0.0810046 0.
0.591996 0.081004 0.
0.593996 0.0810034 0.
0.595998 0.0810033 0.
0.597999 0.0810033 0.
0.6 0.0810033 0.
0.602001 0.0810032 0.
0.604003 0.0810031 0.
0.606004 0.081003 0.
0.608005 0.0810033 0.
0.610006 0.0810036 0.
0.612007 0.081004 0.
0.614008 0.0810045 0.
0.616009 0.081005 0.
0.61801 0.0810055 0.
0.620011 0.081006 0.
0.622012 0.0810065 0.
0.624014 0.0810074 0.
0.626015 0.0810084 0.
0.628017 0.0810092 0.
0.630017 0.0810095 0.
0.632018 0.0810098 0.
0.634019 0.0810103 0.
0.63602 0.0810111 0.
0.638021 0.0810119 0.
0.640022 0.0810127 0.
0.642022 0.0810136 0.
0.644023 0.0810146 0.
0.646024 0.0810159 0.
0.648025 0.0810173 0.
0.650026 0.0810186 0.
0.652027 0.0810186 0.
0.654028 0.0810186 0.
0.656028 0.0810187 0.
0.658029 0.0810193 0.
0.66003 0.0810198 0.
0.662031 0.0810202 0.
0.66403 0.0810205 0.
0.66603 0.0810207 0.
0.668031 0.0810206 0.
0.670031 0.0810203 0.
0.672032 0.08102 0.
0.674032 0.0810208 0.
0.676033 0.0810217 0.
0.678033 0.0810225 0.
0.680034 0.0810223 0.
0.682034 0.0810222 0.
0.684035 0.0810223 0.
0.686035 0.0810231 0.
0.688036 0.0810239 0.
0.690037 0.0810246 0.
0.692037 0.0810253 0.
0.694038 0.0810259 0.
0.696038 0.0810266 0.
0.698039 0.0810273 0.
0.499962 0.0830246 0.
0.501963 0.0830253 0.
0.503964 0.0830261 0.
0.505964 0.0830266 0.
0.507965 0.0830262 0.
0.509965 0.0830259 0.
0.511966 0.0830255 0.
0.513966 0.0830252 0.
0.515967 0.0830248 0.
0.517968 0.0830247 0.
0.519968 0.0830246 0.
0.521968 0.0830245 0.
0.523969 0.0830239 0.
0.52597 0.0830232 0.
0.527971 0.0830225 0.
0.529971 0.0830222 0.
0.531972 0.083022 0.
0.533972 0.0830216 0.
0.535973 0.083021 0.
0.537973 0.0830204 0.
0.539974 0.0830196 0.
0.541974 0.0830188 0.
0.543975 0.083018 0.
0.545976 0.0830178 0.
0.547976 0.0830177 0.
0.549977 0.0830176 0.
0.551978 0.0830169 0.
0.553978 0.0830162 0.
0.555979 0.0830154 0.
0.55798 0.0830142 0.
0.559981 0.0830131 0.
0.561982 0.0830122 0.
0.563983 0.0830116 0.
0.565984 0.083011 0.
0.567984 0.0830105 0.
0.569985 0.08301 0.
0.571986 0.0830096 0.
0.573988 0.0830088 0.
0.575989 0.083008 0.
0.57799 0.0830073 0.
0.579991 0.0830069 0.
0.581992 0.0830065 0.
0.583992 0.083006 0.
0.585993 0.0830054 0.
0.587994 0.0830048 0.
0.589995 0.0830043 0.
0.591996 0.0830039 0.
0.593996 0.0830035 0.
0.595998 0.0830034 0.
0.597999 0.0830034 0.
0.6 0.0830035 0.
0.602001 0.083003 0.
0.604002 0.0830025 0.
0.606003 0.0830022 0.
0.608005 0.0830028 0.
0.610006 0.0830035 0.
0.612007 0.0830039 0.
0.614008 0.0830042 0.
0.616009 0.0830044 0.
0.61801 0.083005 0.
0.620011 0.0830057 0.
0.622012 0.0830064 0.
0.624014 0.0830074 0.
0.626015 0.0830085 0.
0.628017 0.0830094 0.
0.630017 0.0830096 0.
0.632018 0.0830097 0.
0.634019 0.0830101 0.
0.63602 0.0830109 0.
0.638021 0.0830117 0.
0.640022 0.0830127 0.
0.642023 0.0830138 0.
0.644024 0.0830149 0.
0.646025 0.0830159 0.
0.648025 0.083017 0.
0.650026 0.0830181 0.
0.652027 0.0830184 0.
0.654028 0.0830188 0.
0.656028 0.0830191 0.
0.658029 0.0830197 0.
0.66003 0.0830202 0.
0.66203 0.0830206 0.
0.66403 0.0830208 0.
0.66603 0.0830209 0.
0.668031 0.0830206 0.
0.670031 0.0830201 0.
0.672032 0.0830196 0.
0.674032 0.0830205 0.
0.676032 0.0830216 0.
0.678032 0.0830225 0.
0.680033 0.0830225 0.
0.682033 0.0830225 0.
0.684034 0.0830226 0.
0.686035 0.0830232 0.
0.688035 0.0830238 0.
0.690036 0.0830246 0.
0.692037 0.0830255 0.
0.694038 0.0830264 0.
0.696038 0.0830269 0.
0.698038 0.0830273 0.
0.499962 0.0850244 0.
0.501963 0.0850253 0.
0.503964 0.0850263 0.
0.505965 0.085027 0.
0.507965 0.0850266 0.
0.509966 0.0850262 0.
0.511966 0.0850258 0.
0.513967 0.0850256 0.
0.515968 0.0850253 0.
0.517969 0.0850252 0.
0.519969 0.0850253 0.
0.521969 0.0850254 0.
0.52397 0.0850245 0.
0.52597 0.0850235 0.
0.527971 0.0850226 0.
0.529971 0.0850223 0.
0.531972 0.0850219 0.
0.533972 0.0850215 0.
0.535973 0.0850209 0.
0.537973 0.0850204 0.
0.539974 0.0850196 0.
0.541975 0.0850188 0.
0.543976 0.0850179 0.
0.545977 0.0850179 0.
0.547977 0.0850181 0.
0.549977 0.0850184 0.
0.551978 0.0850174 0.
0.553979 0.0850164 0.
0.55598 0.0850153 0.
0.557981 0.0850141 0.
0.559982 0.0850128 0.
0.561982 0.0850119 0.
0.563983 0.0850114 0.
0.565984 0.0850109 0.
0.567985 0.0850104 0.
0.569986 0.0850099 0.
0.571986 0.0850093 0.
0.573988 0.0850085 0.
0.575989 0.0850077 0.
0.57799 0.0850069 0.
0.579991 0.0850066 0.
0.581992 0.0850063 0.
0.583992 0.0850059 0.
0.585993 0.0850052 0.
0.587994 0.0850045 0.
0.589995 0.0850041 0.
0.591996 0.0850038 0.
0.593996 0.0850036 0.
0.595997 0.0850035 0.
0.597998 0.0850036 0.
0.599999 0.0850036 0.
0.602 0.0850027 0.
0.604002 0.0850019 0.
0.606003 0.0850014 0.
0.608004 0.0850024 0.
0.610005 0.0850033 0.
0.612007 0.0850039 0.
0.614008 0.0850039 0.
0.616009 0.0850038 0.
0.61801 0.0850044 0.
0.620011 0.0850054 0.
0.622012 0.0850063 0.
0.624014 0.0850074 0.
0.626015 0.0850086 0.
0.628017 0.0850096 0.
0.630017 0.0850096 0.
0.632018 0.0850096 0.
0.634019 0.0850099 0.
0.63602 0.0850107 0.
0.638021 0.0850116 0.
0.640022 0.0850127 0.
0.642023 0.0850139 0.
0.644024 0.0850151 0.
0.646025 0.085016 0.
0.648025 0.0850167 0.
0.650026 0.0850175 0.
0.652027 0.0850182 0.
0.654027 0.0850189 0.
0.656028 0.0850196 0.
0.658029 0.0850201 0.
0.660029 0.0850206 0.
0.66203 0.085021 0.
0.66403 0.0850211 0.
0.666031 0.0850211 0.
0.668031 0.0850207 0.
0.670031 0.08502 0.
0.672031 0.0850192 0.
0.674031 0.0850203 0.
0.676031 0.0850215 0.
0.678031 0.0850225 0.
0.680032 0.0850226 0.
0.682033 0.0850228 0.
0.684033 0.085023 0.
0.686034 0.0850234 0.
0.688035 0.0850238 0.
0.690036 0.0850246 0.
0.692036 0.0850257 0.
0.694037 0.0850269 0.
0.696037 0.0850272 0.
0.698037 0.0850273 0.
0.499962 0.0870251 0.
0.501963 0.0870255 0.
0.503964 0.0870261 0.
0.505965 0.0870265 0.
0.507966 0.0870263 0.
0.509966 0.0870261 0.
0.511967 0.0870258 0.
0.513968 0.0870256 0.
0.515968 0.0870254 0.
0.517969 0.0870253 0.
0.519969 0.0870252 0.
0.521969 0.087025 0.
0.52397 0.0870241 0.
0.525971 0.0870231 0.
0.527972 0.0870221 0.
0.529972 0.0870219 0.
0.531973 0.0870217 0.
0.533974 0.0870214 0.
0.535974 0.0870211 0.
0.537974 0.0870207 0.
0.539975 0.0870201 0.
0.541975 0.0870191 0.
0.543976 0.0870181 0.
0.545976 0.087018 0.
0.547977 0.0870181 0.
0.549978 0.0870182 0.
0.551979 0.0870171 0.
0.55398 0.0870159 0.
0.555981 0.0870148 0.
0.557981 0.0870138 0.
0.559982 0.0870128 0.
0.561983 0.0870119 0.
0.563984 0.0870112 0.
0.565984 0.0870105 0.
0.567985 0.08701 0.
0.569986 0.0870095 0.
0.571987 0.087009 0.
0.573988 0.0870081 0.
0.57599 0.0870072 0.
0.577991 0.0870064 0.
0.579991 0.0870062 0.
0.581992 0.087006 0.
0.583992 0.0870057 0.
0.585993 0.0870053 0.
0.587994 0.0870048 0.
0.589995 0.0870044 0.
0.591996 0.0870039 0.
0.593997 0.0870034 0.
0.595998 0.087003 0.
0.597999 0.0870027 0.
0.6 0.0870024 0.
0.602001 0.087002 0.
0.604003 0.0870015 0.
0.606004 0.0870013 0.
0.608005 0.087002 0.
0.610006 0.0870028 0.
0.612007 0.0870032 0.
0.614008 0.0870034 0.
0.616009 0.0870035 0.
0.61801 0.0870041 0.
0.620011 0.087005 0.
0.622012 0.0870059 0.
0.624013 0.0870069 0.
0.626014 0.0870079 0.
0.628016 0.0870088 0.
0.630017 0.0870091 0.
0.632018 0.0870094 0.
0.634019 0.0870098 0.
0.63602 0.0870106 0.
0.638021 0.0870114 0.
0.640022 0.0870125 0.
0.642022 0.0870138 0.
0.644023 0.0870151 0.
0.646024 0.0870158 0.
0.648025 0.0870164 0.
0.650025 0.087017 0.
0.652026 0.0870178 0.
0.654027 0.0870185 0.
0.656027 0.0870192 0.
0.658028 0.0870197 0.
0.660029 0.0870202 0.
0.662029 0.0870205 0.
0.664029 0.0870206 0.
0.66603 0.0870206 0.
0.66803 0.0870203 0.
0.67003 0.0870197 0.
0.672031 0.0870192 0.
0.674031 0.0870203 0.
0.676031 0.0870215 0.
0.678031 0.0870226 0.
0.680032 0.0870226 0.
0.682033 0.0870227 0.
0.684033 0.0870228 0.
0.686034 0.0870233 0.
0.688035 0.0870237 0.
0.690035 0.0870245 0.
0.692036 0.0870256 0.
0.694036 0.0870267 0.
0.696036 0.0870271 0.
0.698036 0.0870274 0.
0.499963 0.0890257 0.
0.501963 0.0890257 0.
0.503964 0.0890258 0.
0.505965 0.089026 0.
0.507966 0.089026 0.
0.509967 0.089026 0.
0.511967 0.0890259 0.
0.513968 0.0890257 0.
0.515968 0.0890255 0.
0.517969 0.0890253 0.
0.519969 0.089025 0.
0.52197 0.0890247 0.
0.523971 0.0890237 0.
0.525972 0.0890226 0.
0.527973 0.0890216 0.
0.529973 0.0890215 0.
0.531974 0.0890214 0.
0.533975 0.0890213 0.
0.535975 0.0890212 0.
0.537975 0.0890211 0.
0.539975 0.0890205 0.
0.541976 0.0890195 0.
0.543976 0.0890184 0.
0.545976 0.0890181 0.
0.547977 0.089018 0.
0.549978 0.089018 0.
0.551979 0.0890168 0.
0.55398 0.0890155 0.
0.555981 0.0890143 0.
0.557982 0.0890136 0.
0.559983 0.0890128 0.
0.561983 0.089012 0.
0.563984 0.0890111 0.
0.565984 0.0890102 0.
0.567985 0.0890096 0.
0.569987 0.0890091 0.
0.571988 0.0890086 0.
0.573989 0.0890077 0.
0.57599 0.0890068 0.
0.577991 0.0890059 0.
0.579992 0.0890058 0.
0.581992 0.0890057 0.
0.583992 0.0890055 0.
0.585993 0.0890053 0.
0.587994 0.0890051 0.
0.589995 0.0890046 0.
0.591996 0.0890039 0.
0.593997 0.0890032 0.
0.595998 0.0890026 0.
0.598 0.0890019 0.
0.600002 0.0890012 0.
0.602003 0.0890012 0.
0.604003 0.0890011 0.
0.606004 0.0890012 0.
0.608005 0.0890017 0.
0.610006 0.0890022 0.
0.612007 0.0890026 0.
0.614008 0.0890029 0.
0.616009 0.0890032 0.
0.618009 0.0890038 0.
0.620011 0.0890046 0.
0.622012 0.0890054 0.
0.624012 0.0890063 0.
0.626013 0.0890072 0.
0.628014 0.0890081 0.
0.630016 0.0890086 0.
0.632017 0.0890091 0.
0.634018 0.0890098 0.
0.636019 0.0890105 0.
0.63802 0.0890113 0.
0.640021 0.0890124 0.
0.642022 0.0890137 0.
0.644023 0.0890151 0.
0.646023 0.0890157 0.
0.648024 0.0890161 0.
0.650025 0.0890165 0.
0.652025 0.0890173 0.
0.654026 0.0890182 0.
0.656027 0.0890189 0.
0.658027 0.0890193 0.
0.660028 0.0890197 0.
0.662028 0.08902 0.
0.664029 0.08902 0.
0.666029 0.0890201 0.
0.668029 0.0890199 0.
0.67003 0.0890195 0.
0.67203 0.0890191 0.
0.674031 0.0890203 0.
0.676031 0.0890216 0.
0.678032 0.0890227 0.
0.680032 0.0890227 0.
0.682033 0.0890226 0.
0.684033 0.0890227 0.
0.686034 0.0890232 0.
0.688034 0.0890237 0.
0.690035 0.0890245 0.
0.692035 0.0890255 0.
0.694035 0.0890265 0.
0.696035 0.089027 0.
0.698035 0.0890274 0.
0.499964 0.0910259 0.
0.501964 0.0910257 0.
0.503964 0.0910257 0.
0.505965 0.0910257 0.
0.507966 0.0910258 0.
0.509967 0.0910259 0.
0.511967 0.0910258 0.
0.513968 0.0910257 0.
0.515968 0.0910255 0.
0.517969 0.0910252 0.
0.519969 0.0910248 0.
0.52197 0.0910245 0.
0.523971 0.0910234 0.
0.525972 0.0910222 0.
0.527973 0.0910212 0.
0.529974 0.0910212 0.
0.531975 0.0910212 0.
0.533975 0.0910213 0.
0.535976 0.0910214 0.
0.537976 0.0910214 0.
0.539976 0.0910209 0.
0.541976 0.0910198 0.
0.543976 0.0910187 0.
0.545977 0.0910182 0.
0.547978 0.0910179 0.
0.549978 0.0910175 0.
0.55198 0.0910163 0.
0.553981 0.091015 0.
0.555982 0.0910138 0.
0.557982 0.0910131 0.
0.559983 0.0910124 0.
0.561984 0.0910116 0.
0.563984 0.0910107 0.
0.565985 0.0910098 0.
0.567986 0.0910091 0.
0.569987 0.0910085 0.
0.571988 0.091008 0.
0.573989 0.0910073 0.
0.57599 0.0910066 0.
0.577991 0.0910059 0.
0.579992 0.0910058 0.
0.581992 0.0910056 0.
0.583993 0.0910055 0.
0.585993 0.0910054 0.
0.587994 0.0910052 0.
0.589995 0.0910048 0.
0.591996 0.091004 0.
0.593997 0.0910032 0.
0.595999 0.0910023 0.
0.598 0.0910013 0.
0.600002 0.0910003 0.
0.602003 0.0910005 0.
0.604004 0.0910007 0.
0.606005 0.091001 0.
0.608005 0.0910013 0.
0.610006 0.0910016 0.
0.612007 0.091002 0.
0.614008 0.0910023 0.
0.616008 0.0910027 0.
0.618009 0.0910033 0.
0.62001 0.0910041 0.
0.622011 0.0910048 0.
0.624012 0.0910057 0.
0.626013 0.0910066 0.
0.628014 0.0910075 0.
0.630015 0.0910081 0.
0.632017 0.0910088 0.
0.634018 0.0910094 0.
0.636019 0.0910102 0.
0.63802 0.091011 0.
0.640021 0.0910121 0.
0.642022 0.0910135 0.
0.644023 0.0910149 0.
0.646023 0.0910156 0.
0.648024 0.091016 0.
0.650024 0.0910164 0.
0.652025 0.0910173 0.
0.654025 0.0910181 0.
0.656026 0.0910188 0.
0.658027 0.091019 0.
0.660027 0.0910193 0.
0.662028 0.0910195 0.
0.664028 0.0910196 0.
0.666028 0.0910198 0.
0.668028 0.0910197 0.
0.670029 0.0910196 0.
0.67203 0.0910194 0.
0.67403 0.0910204 0.
0.676031 0.0910215 0.
0.678031 0.0910225 0.
0.680032 0.0910226 0.
0.682032 0.0910226 0.
0.684033 0.0910228 0.
0.686033 0.0910234 0.
0.688033 0.0910239 0.
0.690034 0.0910246 0.
0.692034 0.0910254 0.
0.694034 0.0910262 0.
0.696034 0.091027 0.
0.698034 0.0910277 0.
0.499964 0.0930255 0.
0.501964 0.0930255 0.
0.503965 0.0930256 0.
0.505965 0.0930256 0.
0.507966 0.0930257 0.
0.509967 0.0930258 0.
0.511967 0.0930257 0.
0.513968 0.0930256 0.
0.515968 0.0930254 0.
0.517969 0.0930251 0.
0.51997 0.0930248 0.
0.52197 0.0930244 0.
0.523971 0.0930232 0.
0.525972 0.093022 0.
0.527973 0.0930208 0.
0.529973 0.093021 0.
0.531974 0.0930212 0.
0.533975 0.0930213 0.
0.535976 0.0930215 0.
0.537976 0.0930216 0.
0.539977 0.0930211 0.
0.541977 0.0930201 0.
0.543977 0.0930191 0.
0.545978 0.0930183 0.
0.547978 0.0930175 0.
0.549979 0.0930167 0.
0.55198 0.0930156 0.
0.553981 0.0930144 0.
0.555982 0.0930133 0.
0.557983 0.0930124 0.
0.559984 0.0930116 0.
0.561985 0.0930107 0.
0.563985 0.09301 0.
0.565986 0.0930092 0.
0.567987 0.0930085 0.
0.569988 0.0930079 0.
0.571988 0.0930073 0.
0.573989 0.0930069 0.
0.57599 0.0930066 0.
0.577991 0.0930063 0.
0.579992 0.0930061 0.
0.581993 0.0930059 0.
0.583994 0.0930057 0.
0.585994 0.0930054 0.
0.587995 0.0930052 0.
0.589995 0.0930047 0.
0.591997 0.093004 0.
0.593998 0.0930033 0.
0.595999 0.0930022 0.
0.598 0.0930011 0.
0.600001 0.0929999 0.
0.602002 0.0930001 0.
0.604003 0.0930003 0.
0.606004 0.0930005 0.
0.608005 0.0930008 0.
0.610006 0.0930011 0.
0.612007 0.0930014 0.
0.614008 0.0930017 0.
0.616008 0.0930019 0.
0.618009 0.0930025 0.
0.62001 0.0930033 0.
0.622012 0.0930041 0.
0.624012 0.0930051 0.
0.626013 0.0930061 0.
0.628014 0.0930071 0.
0.630015 0.0930076 0.
0.632016 0.0930082 0.
0.634017 0.0930089 0.
0.636018 0.0930098 0.
0.638019 0.0930106 0.
0.64002 0.0930118 0.
0.642021 0.0930133 0.
0.644023 0.0930147 0.
0.646023 0.0930155 0.
0.648023 0.0930161 0.
0.650024 0.0930167 0.
0.652024 0.0930176 0.
0.654025 0.0930184 0.
0.656026 0.093019 0.
0.658026 0.0930189 0.
0.660027 0.0930188 0.
0.662027 0.0930189 0.
0.664028 0.0930193 0.
0.666028 0.0930197 0.
0.668028 0.0930199 0.
0.670029 0.09302 0.
0.672029 0.0930201 0.
0.67403 0.0930207 0.
0.67603 0.0930213 0.
0.678031 0.093022 0.
0.680031 0.0930224 0.
0.682032 0.0930228 0.
0.684032 0.0930232 0.
0.686032 0.0930238 0.
0.688032 0.0930244 0.
0.690033 0.0930249 0.
0.692033 0.0930255 0.
0.694033 0.093026 0.
0.696034 0.0930271 0.
0.698034 0.0930282 0.
0.499964 0.0950251 0.
0.501965 0.0950254 0.
0.503965 0.0950255 0.
0.505965 0.0950256 0.
0.507966 0.0950256 0.
0.509966 0.0950257 0.
0.511967 0.0950256 0.
0.513968 0.0950255 0.
0.515968 0.0950253 0.
0.517969 0.095025 0.
0.51997 0.0950247 0.
0.521971 0.0950243 0.
0.523971 0.0950231 0.
0.525972 0.0950217 0.
0.527972 0.0950205 0.
0.529973 0.0950208 0.
0.531974 0.0950211 0.
0.533975 0.0950213 0.
0.535976 0.0950216 0.
0.537977 0.0950218 0.
0.539977 0.0950214 0.
0.541978 0.0950204 0.
0.543978 0.0950195 0.
0.545978 0.0950184 0.
0.547979 0.0950172 0.
0.54998 0.095016 0.
0.551981 0.0950149 0.
0.553982 0.0950138 0.
0.555983 0.0950128 0.
0.557984 0.0950117 0.
0.559984 0.0950107 0.
0.561985 0.0950099 0.
0.563986 0.0950093 0.
0.565987 0.0950087 0.
0.567987 0.095008 0.
0.569988 0.0950073 0.
0.571989 0.0950066 0.
0.573989 0.0950066 0.
0.57599 0.0950067 0.
0.577991 0.0950067 0.
0.579992 0.0950064 0.
0.581994 0.0950061 0.
0.583995 0.0950058 0.
0.585995 0.0950055 0.
0.587995 0.0950052 0.
0.589996 0.0950047 0.
0.591997 0.095004 0.
0.593998 0.0950033 0.
0.595999 0.0950021 0.
0.598 0.0950008 0.
0.600001 0.0949995 0.
0.602002 0.0949997 0.
0.604003 0.0949999 0.
0.606004 0.095 0.
0.608005 0.0950003 0.
0.610006 0.0950005 0.
0.612007 0.0950008 0.
0.614007 0.095001 0.
0.616008 0.0950012 0.
0.618009 0.0950018 0.
0.62001 0.0950025 0.
0.622012 0.0950033 0.
0.624013 0.0950044 0.
0.626014 0.0950056 0.
0.628014 0.0950067 0.
0.630015 0.0950072 0.
0.632016 0.0950077 0.
0.634017 0.0950083 0.
0.636018 0.0950093 0.
0.638019 0.0950102 0.
0.64002 0.0950115 0.
0.642021 0.095013 0.
0.644023 0.0950145 0.
0.646023 0.0950154 0.
0.648023 0.0950162 0.
0.650024 0.095017 0.
0.652024 0.0950178 0.
0.654024 0.0950186 0.
0.656025 0.0950191 0.
0.658025 0.0950187 0.
0.660026 0.0950183 0.
0.662027 0.0950184 0.
0.664027 0.095019 0.
0.666028 0.0950196 0.
0.668028 0.0950201 0.
0.670028 0.0950204 0.
0.672029 0.0950208 0.
0.674029 0.095021 0.
0.67603 0.0950212 0.
0.67803 0.0950214 0.
0.680031 0.0950222 0.
0.682032 0.0950229 0.
0.684032 0.0950236 0.
0.686032 0.0950242 0.
0.688032 0.0950248 0.
0.690032 0.0950252 0.
0.692032 0.0950255 0.
0.694032 0.0950258 0.
0.696033 0.0950272 0.
0.698034 0.0950287 0.
0.499965 0.0970257 0.
0.501966 0.0970256 0.
0.503966 0.0970257 0.
0.505966 0.0970257 0.
0.507966 0.0970256 0.
0.509967 0.0970254 0.
0.511967 0.0970252 0.
0.513968 0.0970249 0.
0.515969 0.0970246 0.
0.517969 0.0970241 0.
0.51997 0.0970235 0.
0.521971 0.0970229 0.
0.523972 0.097022 0.
0.525972 0.0970211 0.
0.527973 0.0970204 0.
0.529974 0.0970207 0.
0.531974 0.0970209 0.
0.533975 0.0970211 0.
0.535976 0.0970212 0.
0.537977 0.0970213 0.
0.539977 0.0970209 0.
0.541978 0.09702 0.
0.543979 0.0970192 0.
0.545979 0.0970181 0.
0.547981 0.0970169 0.
0.549982 0.0970157 0.
0.551982 0.0970145 0.
0.553983 0.0970132 0.
0.555984 0.0970121 0.
0.557985 0.0970112 0.
0.559986 0.0970104 0.
0.561986 0.0970096 0.
0.563987 0.0970088 0.
0.565987 0.097008 0.
0.567988 0.0970074 0.
0.569989 0.0970068 0.
0.571989 0.0970062 0.
0.57399 0.097006 0.
0.575991 0.0970059 0.
0.577991 0.0970057 0.
0.579993 0.0970056 0.
0.581994 0.0970055 0.
0.583995 0.0970053 0.
0.585995 0.0970051 0.
0.587996 0.0970049 0.
0.589997 0.0970042 0.
0.591998 0.0970031 0.
0.593999 0.0970021 0.
0.596 0.0970011 0.
0.598 0.0970001 0.
0.600001 0.0969991 0.
0.602002 0.0969997 0.
0.604003 0.0970003 0.
0.606004 0.0970007 0.
0.608005 0.0970006 0.
0.610006 0.0970005 0.
0.612006 0.0970005 0.
0.614007 0.0970007 0.
0.616008 0.0970009 0.
0.618009 0.0970015 0.
0.62001 0.0970022 0.
0.622011 0.097003 0.
0.624012 0.0970037 0.
0.626013 0.0970044 0.
0.628014 0.0970051 0.
0.630015 0.097006 0.
0.632016 0.0970069 0.
0.634017 0.0970078 0.
0.636018 0.097009 0.
0.638018 0.0970102 0.
0.640019 0.0970117 0.
0.64202 0.0970132 0.
0.644021 0.0970148 0.
0.646022 0.0970156 0.
0.648023 0.0970161 0.
0.650023 0.0970166 0.
0.652024 0.0970174 0.
0.654024 0.0970182 0.
0.656025 0.0970188 0.
0.658026 0.0970188 0.
0.660026 0.0970188 0.
0.662027 0.0970188 0.
0.664027 0.097019 0.
0.666028 0.0970192 0.
0.668028 0.0970195 0.
0.670028 0.09702 0.
0.672028 0.0970205 0.
0.674029 0.0970208 0.
0.676029 0.097021 0.
0.678029 0.0970213 0.
0.68003 0.097022 0.
0.68203 0.0970227 0.
0.68403 0.0970234 0.
0.686031 0.0970241 0.
0.688031 0.0970248 0.
0.690031 0.0970254 0.
0.692031 0.0970258 0.
0.694031 0.0970262 0.
0.696031 0.0970275 0.
0.698032 0.0970291 0.
0.499967 0.099026 0.
0.501967 0.0990259 0.
0.503967 0.0990259 0.
0.505967 0.0990259 0.
0.507967 0.0990255 0.
0.509967 0.0990252 0.
0.511968 0.0990248 0.
0.513969 0.0990243 0.
0.515969 0.0990238 0.
0.51797 0.0990231 0.
0.519971 0.0990223 0.
0.521971 0.0990214 0.
0.523972 0.099021 0.
0.525973 0.0990206 0.
0.527973 0.0990203 0.
0.529974 0.0990205 0.
0.531975 0.0990208 0.
0.533975 0.099021 0.
0.535976 0.0990209 0.
0.537976 0.0990208 0.
0.539977 0.0990204 0.
0.541978 0.0990196 0.
0.543979 0.0990189 0.
0.545981 0.0990178 0.
0.547982 0.0990166 0.
0.549983 0.0990154 0.
0.551983 0.099014 0.
0.553984 0.0990126 0.
0.555985 0.0990114 0.
0.557986 0.0990107 0.
0.559987 0.09901 0.
0.561988 0.0990093 0.
0.563988 0.0990083 0.
0.565988 0.0990074 0.
0.567988 0.0990068 0.
0.569989 0.0990063 0.
0.57199 0.0990059 0.
0.57399 0.0990055 0.
0.575991 0.0990051 0.
0.577991 0.0990047 0.
0.579993 0.0990048 0.
0.581994 0.0990048 0.
0.583995 0.0990048 0.
0.585996 0.0990046 0.
0.587997 0.0990045 0.
0.589998 0.0990037 0.
0.591998 0.0990023 0.
0.593999 0.0990009 0.
0.596 0.0990001 0.
0.598001 0.0989994 0.
0.600001 0.0989988 0.
0.602002 0.0989998 0.
0.604003 0.0990008 0.
0.606004 0.0990014 0.
0.608005 0.0990009 0.
0.610005 0.0990004 0.
0.612006 0.0990002 0.
0.614007 0.0990004 0.
0.616007 0.0990006 0.
0.618008 0.0990012 0.
0.620009 0.0990019 0.
0.62201 0.0990027 0.
0.624011 0.099003 0.
0.626013 0.0990032 0.
0.628014 0.0990035 0.
0.630015 0.0990048 0.
0.632016 0.099006 0.
0.634017 0.0990073 0.
0.636017 0.0990088 0.
0.638018 0.0990102 0.
0.640019 0.0990118 0.
0.642019 0.0990135 0.
0.64402 0.0990152 0.
0.646021 0.0990157 0.
0.648022 0.099016 0.
0.650023 0.0990163 0.
0.652024 0.0990171 0.
0.654024 0.0990178 0.
0.656025 0.0990185 0.
0.658026 0.0990189 0.
0.660026 0.0990193 0.
0.662027 0.0990193 0.
0.664027 0.099019 0.
0.666028 0.0990187 0.
0.668028 0.099019 0.
0.670028 0.0990196 0.
0.672028 0.0990202 0.
0.674028 0.0990206 0.
0.676029 0.0990209 0.
0.678029 0.0990213 0.
0.680028 0.0990218 0.
0.682028 0.0990224 0.
0.684029 0.0990231 0.
0.686029 0.099024 0.
0.68803 0.0990248 0.
0.69003 0.0990255 0.
0.69203 0.0990261 0.
0.69403 0.0990266 0.
0.69603 0.0990279 0.
0.69803 0.0990294 0.
CELLS 5000 10000
1 0
1 1
1 2
1 3
1 4
1 5
1 6
1 7
1 8
1 9
1 10
1 11
1 12
1 13
1 14
1 15
1 16
1 17
1 18
1 19
1 20
1 21
1 22
1 23
1 24
1 25
1 26
1 27
1 28
1 29
1 30
1 31
1 32
1 33
1 34
1 35
1 36
1 37
1 38
1 39
1 40
1 41
1 42
1 43
1 44
1 45
1 46
1 47
1 48
1 49
1 50
1 51
1 52
1 53
1 54
1 55
1 56
1 57
1 58
1 59
1 60
1 61
1 62
1 63
1 64
1 65
1 66
1 67
1 68
1 69
1 70
1 71
1 72
1 73
1 74
1 75
1 76
1 77
1 78
1 79
1 80
1 81
1 82
1 83
1 84
1 85
1 86
1 87
1 88
1 89
1 90
1 91
1 92
1 93
1 94
1 95
1 96
1 97
1 98
1 99
1 100
1 101
1 102
1 103
1 104
1 105
1 106
1 107
1 108
1 109
1 110
1 111
1 112
1 113
1 114
1 115
1 116
1 117
1 118
1 119
1 120
1 121
1 122
1 123
1 124
1 125
1 126
1 127
1 128
1 129
1 130
1 131
1 132
1 133
1 134
1 135
1 136
1 137
1 138
1 139
1 140
1 141
1 142
1 143
1 144
1 145
1 146
1 147
1 148
1 149
1 150
1 151
1 152
1 153
1 154
1 155
1 156
1 157
1 158
1 159
1 160
1 161
1 162
1 163
1 164
1 165
1 166
1 167
1 168
1 169
1 170
1 171
1 172
1 173
1 174
1 175
1 176
1 177
1 178
1 179
1 180
1 181
1 182
1 183
1 184
1 185
1 186
1 187
1 188
1 189
1 190
1 191
1 192
1 193
1 194
1 195
1 196
1 197
1 198
1 199
1 200
1 201
1 202
1 203
1 204
1 205
1 206
1 207
1 208
1 209
1 210
1 211
1 212
1 213
1 214
1 215
1 216
1 217
1 218
1 219
1 220
1 221
1 222
1 223
1 224
1 225
1 226
1 227
1 228
1 229
1 230
1 231
1 232
1 233
1 234
1 235
1 236
1 237
1 238
1 239
1 240
1 241
1 242
1 243
1 244
1 245
1 246
1 247
1 248
1 249
1 250
1 251
1 252
1 253
1 254
1 255
1 256
1 257
1 258
1 259
1 260
1 261
1 262
1 263
1 264
1 265
1 266
1 267
1 268
1 269
1 270
1 271
1 272
1 273
1 274
1 275
1 276
1 277
1 278
1 279
1 280
1 281
1 282
1 283
1 284
1 285
1 286
1 287
1 288
1 289
1 290
1 291
1 292
1 293
1 294
1 295
1 296
1 297
1 298
1 299
1 300
1 301
1 302
1 303
1 304
1 305
1 306
1 307
1 308
1 309
1 310
1 311
1 312
1 313
1 314
1 315
1 316
1 317
1 318
1 319
1 320
1 321
1 322
1 323
1 324
1 325
1 326
1 327
1 328
1 329
1 330
1 331
1 332
1 333
1 334
1 335
1 336
1 337
1 338
1 339
1 340
1 341
1 342
1 343
1 344
1 345
1 346
1 347
1 348
1 349
1 350
1 351
1 352
1 353
1 354
1 355
1 356
1 357
1 358
1 359
1 360
1 361
1 362
1 363
1 364
1 365
1 366
1 367
1 368
1 369
1 370
1 371
1 372
1 373
1 374
1 375
1 376
1 377
1 378
1 379
1 380
1 381
1 382
1 383
1 384
1 385
1 386
1 387
1 388
1 389
1 390
1 391
1 392
1 393
1 394
1 395
1 396
1 397
1 398
1 399
1 400
1 401
1 402
1 403
1 404
1 405
1 406
1 407
1 408
1 409
1 410
1 411
1 412
1 413
1 414
1 415
1 416
1 417
1 418
1 419
1 420
1 421
1 422
1 423
1 424
1 425
1 426
1 427
1 428
1 429
1 430
1 431
1 432
1 433
1 434
1 435
1 436
1 437
1 438
1 439
1 440
1 441
1 442
1 443
1 444
1 445
1 446
1 447
1 448
1 449
1 450
1 451
1 452
1 453
1 454
1 455
1 456
1 457
1 458
1 459
1 460
1 461
1 462
1 463
1 464
1 465
1 466
1 467
1 468
1 469
1 470
1 471
1 472
1 473
1 474
1 475
1 476
1 477
1 478
1 479
1 480
1 481
1 482
1 483
1 484
1 485
1 486
1 487
1 488
1 489
1 490
1 491
1 492
1 493
1 494
1 495
1 496
1 497
1 498
1 499
1 500
1 501
1 502
1 503
1 504
1 505
1 506
1 507
1 508
1 509
1 510
1 511
1 512
1 513
1 514
1 515
1 516
1 517
1 518
1 519
1 520
1 521
1 522
1 523
1 524
1 525
1 526
1 527
1 528
1 529
1 530
1 531
1 532
1 533
1 534
1 535
1 536
1 537
1 538
1 539
1 540
1 541
1 542
1 543
1 544
1 545
1 546
1 547
1 548
1 549
1 550
1 551
1 552
1 553
1 554
1 555
1 556
1 557
1 558
1 559
1 560
1 561
1 562
1 563
1 564
1 565
1 566
1 567
1 568
1 569
1 570
1 571
1 572
1 573
1 574
1 575
1 576
1 577
1 578
1 579
1 580
1 581
1 582
1 583
1 584
1 585
1 586
1 587
1 588
1 589
1 590
1 591
1 592
1 593
1 594
1 595
1 596
1 597
1 598
1 599
1 600
1 601
1 602
1 603
1 604
1 605
1 606
1 607
1 608
1 609
1 610
1 611
1 612
1 613
1 614
1 615
1 616
1 617
1 618
1 619
1 620
1 621
1 622
1 623
1 624
1 625
1 626
1 627
1 628
1 629
1 630
1 631
1 632
1 633
1 634
1 635
1 636
1 637
1 638
1 639
1 640
1 641
1 642
1 643
1 644
1 645
1 646
1 647
1 648
1 649
1 650
1 651
1 652
1 653
1 654
1 655
1 656
1 657
1 658
1 659
1 660
1 661
1 662
1 663
1 664
1 665
1 666
1 667
1 668
1 669
1 670
1 671
1 672
1 673
1 674
1 675
1 676
1 677
1 678
1 679
1 680
1 681
1 682
1 683
1 684
1 685
1 686
1 687
1 688
1 689
1 690
1 691
1 692
1 693
1 694
1 695
1 696
1 697
1 698
1 699
1 700
1 701
1 702
1 703
1 704
1 705
1 706
1 707
1 708
1 709
1 710
1 711
1 712
1 713
1 714
1 715
1 716
1 717
1 718
1 719
1 720
1 721
1 722
1 723
1 724
1 725
1 726
1 727
1 728
1 729
1 730
1 731
1 732
1 733
1 734
1 735
1 736
1 737
1 738
1 739
1 740
1 741
1 742
1 743
1 744
1 745
1 746
1 747
1 748
1 749
1 750
1 751
1 752
1 753
1 754
1 755
1 756
1 757
1 758
1 759
1 760
1 761
1 762
1 763
1 764
1 765
1 766
1 767
1 768
1 769
1 770
1 771
1 772
1 773
1 774
1 775
1 776
1 777
1 778
1 779
1 780
1 781
1 782
1 783
1 784
1 785
1 786
1 787
1 788
1 789
1 790
1 791
1 792
1 793
1 794
1 795
1 796
1 797
1 798
1 799
1 800
1 801
1 802
1 803
1 804
1 805
1 806
1 807
1 808
1 809
1 810
1 811
1 812
1 813
1 814
1 815
1 816
1 817
1 818
1 819
1 820
1 821
1 822
1 823
1 824
1 825
1 826
1 827
1 828
1 829
1 830
1 831
1 832
1 833
1 834
1 835
1 836
1 837
1 838
1 839
1 840
1 841
1 842
1 843
1 844
1 845
1 846
1 847
1 848
1 849
1 850
1 851
1 852
1 853
1 854
1 855
1 856
1 857
1 858
1 859
1 860
1 861
1 862
1 863
1 864
1 865
1 866
1 867
1 868
1 869
1 870
1 871
1 872
1 873
1 874
1 875
1 876
1 877
1 878
1 879
1 880
1 881
1 882
1 883
1 884
1 885
1 886
1 887
1 888
1 889
1 890
1 891
1 892
1 893
1 894
1 895
1 896
1 897
1 898
1 899
1 900
1 901
1 902
1 903
1 904
1 905
1 906
1 907
1 908
1 909
1 910
1 911
1 912
1 913
1 914
1 915
1 916
1 917
1 918
1 919
1 920
1 921
1 922
1 923
1 924
1 925
1 926
1 927
1 928
1 929
1 930
1 931
1 932
1 933
1 934
1 935
1 936
1 937
1 938
1 939
1 940
1 941
1 942
1 943
1 944
1 945
1 946
1 947
1 948
1 949
1 950
1 951
1 952
1 953
1 954
1 955
1 956
1 957
1 958
1 959
1 960
1 961
1 962
1 963
1 964
1 965
1 966
1 967
1 968
1 969
1 970
1 971
1 972
1 973
1 974
1 975
1 976
1 977
1 978
1 979
1 980
1 981
1 982
1 983
1 984
1 985
1 986
1 987
1 988
1 989
1 990
1 991
1 992
1 993
1 994
1 995
1 996
1 997
1 998
1 999
1 1000
1 1001
1 1002
1 1003
1 1004
1 1005
1 1006
1 1007
1 1008
1 1009
1 1010
1 1011
1 1012
1 1013
1 1014
1 1015
1 1016
1 1017
1 1018
1 1019
1 1020
1 1021
1 1022
1 1023
1 1024
1 1025
1 1026
1 1027
1 1028
1 1029
1 1030
1 1031
1 1032
1 1033
1 1034
1 1035
1 1036
1 1037
1 1038
1 1039
1 1040
1 1041
1 1042
1 1043
1 1044
1 1045
1 1046
1 1047
1 1048
1 1049
1 1050
1 1051
1 1052
1 1053
1 1054
1 1055
1 1056
1 1057
1 1058
1 1059
1 1060
1 1061
1 1062
1 1063
1 1064
1 1065
1 1066
1 1067
1 1068
1 1069
1 1070
1 1071
1 1072
1 1073
1 1074
1 1075
1 1076
1 1077
1 1078
1 1079
1 1080
1 1081
1 1082
1 1083
1 1084
1 1085
1 1086
1 1087
1 1088
1 1089
1 1090
1 1091
1 1092
1 1093
1 1094
1 1095
1 1096
1 1097
1 1098
1 1099
1 1100
1 1101
1 1102
1 1103
1 1104
1 1105
1 1106
1 1107
1 1108
1 1109
1 1110
1 1111
1 1112
1 1113
1 1114
1 1115
1 1116
1 1117
1 1118
1 1119
1 1120
1 1121
1 1122
1 1123
1 1124
1 1125
1 1126
1 1127
1 1128
1 1129
1 1130
1 1131
1 1132
1 1133
1 1134
1 1135
1 1136
1 1137
1 1138
1 1139
1 1140
1 1141
1 1142
1 1143
1 1144
1 1145
1 1146
1 1147
1 1148
1 1149
1 1150
1 1151
1 1152
1 1153
1 1154
1 1155
1 1156
1 1157
1 1158
1 1159
1 1160
1 1161
1 1162
1 1163
1 1164
1 1165
1 1166
1 1167
1 1168
1 1169
1 1170
1 1171
1 1172
1 1173
1 1174
1 1175
1 1176
1 1177
1 1178
1 1179
1 1180
1 1181
1 1182
1 1183
1 1184
1 1185
1 1186
1 1187
1 1188
1 1189
1 1190
1 1191
1 1192
1 1193
1 1194
1 1195
1 1196
1 1197
1 1198
1 1199
1 1200
1 1201
1 1202
1 1203
1 1204
1 1205
1 1206
1 1207
1 1208
1 1209
1 1210
1 1211
1 1212
1 1213
1 1214
1 1215
1 1216
1 1217
1 1218
1 1219
1 1220
1 1221
1 1222
1 1223
1 1224
1 1225
1 1226
1 1227
1 1228
1 1229
1 1230
1 1231
1 1232
1 1233
1 1234
1 1235
1 1236
1 1237
1 1238
1 1239
1 1240
1 1241
1 1242
1 1243
1 1244
1 1245
1 1246
1 1247
1 1248
1 1249
1 1250
1 1251
1 1252
1 1253
1 1254
1 1255
1 1256
1 1257
1 1258
1 1259
1 1260
1 1261
1 1262
1 1263
1 1264
1 1265
1 1266
1 1267
1 1268
1 1269
1 1270
1 1271
1 1272
1 1273
1 1274
1 1275
1 1276
1 1277
1 1278
1 1279
1 1280
1 1281
1 1282
1 1283
1 1284
1 1285
1 1286
1 1287
1 1288
1 1289
1 1290
1 1291
1 1292
1 1293
1 1294
1 1295
1 1296
1 1297
1 1298
1 1299
1 1300
1 1301
1 1302
1 1303
1 1304
1 1305
1 1306
1 1307
1 1308
1 1309
1 1310
1 1311
1 1312
1 1313
1 1314
1 1315
1 1316
1 1317
1 1318
1 1319
1 1320
1 1321
1 1322
1 1323
1 1324
1 1325
1 1326
1 1327
1 1328
1 1329
1 1330
1 1331
1 1332
1 1333
1 1334
1 1335
1 1336
1 1337
1 1338
1 1339
1 1340
1 1341
1 1342
1 1343
1 1344
1 1345
1 1346
1 1347
1 1348
1 1349
1 1350
1 1351
1 1352
1 1353
1 1354
1 1355
1 1356
1 1357
1 1358
1 1359
1 1360
1 1361
1 1362
1 1363
1 1364
1 1365
1 1366
1 1367
1 1368
1 1369
1 1370
1 1371
1 1372
1 1373
1 1374
1 1375
1 1376
1 1377
1 1378
1 1379
1 1380
1 1381
1 1382
1 1383
1 1384
1 1385
1 1386
1 1387
1 1388
1 1389
1 1390
1 1391
1 1392
1 1393
1 1394
1 1395
1 1396
1 1397
1 1398
1 1399
1 1400
1 1401
1 1402
1 1403
1 1404
1 1405
1 1406
1 1407
1 1408
1 1409
1 1410
1 1411
1 1412
1 1413
1 1414
1 1415
1 1416
1 1417
1 1418
1 1419
1 1420
1 1421
1 1422
1 1423
1 1424
1 1425
1 1426
1 1427
1 1428
1 1429
1 1430
1 1431
1 1432
1 1433
1 1434
1 1435
1 1436
1 1437
1 1438
1 1439
1 1440
1 1441
1 1442
1 1443
1 1444
1 1445
1 1446
1 1447
1 1448
1 1449
1 1450
1 1451
1 1452
1 1453
1 1454
1 1455
1 1456
1 1457
1 1458
1 1459
1 1460
1 1461
1 1462
1 1463
1 1464
1 1465
1 1466
1 1467
1 1468
1 1469
1 1470
1 1471
1 1472
1 1473
1 1474
1 1475
1 1476
1 1477
1 1478
1 1479
1 1480
1 1481
1 1482
1 1483
1 1484
1 1485
1 1486
1 1487
1 1488
1 1489
1 1490
1 1491
1 1492
1 1493
1 1494
1 1495
1 1496
1 1497
1 1498
1 1499
1 1500
1 1501
1 1502
1 1503
1 1504
1 1505
1 1506
1 1507
1 1508
1 1509
1 1510
1 1511
1 1512
1 1513
1 1514
1 1515
1 1516
1 1517
1 1518
1 1519
1 1520
1 1521
1 1522
1 1523
1 1524
1 1525
1 1526
1 1527
1 1528
1 1529
1 1530
1 1531
1 1532
1 1533
1 1534
1 1535
1 1536
1 1537
1 1538
1 1539
1 1540
1 1541
1 1542
1 1543
1 1544
1 1545
1 1546
1 1547
1 1548
1 1549
1 1550
1 1551
1 1552
1 1553
1 1554
1 1555
1 1556
1 1557
1 1558
1 1559
1 1560
1 1561
1 1562
1 1563
1 1564
1 1565
1 1566
1 1567
1 1568
1 1569
1 1570
1 1571
1 1572
1 1573
1 1574
1 1575
1 1576
1 1577
1 1578
1 1579
1 1580
1 1581
1 1582
1 1583
1 1584
1 1585
1 1586
1 1587
1 1588
1 1589
1 1590
1 1591
1 1592
1 1593
1 1594
1 1595
1 1596
1 1597
1 1598
1 1599
1 1600
1 1601
1 1602
1 1603
1 1604
1 1605
1 1606
1 1607
1 1608
1 1609
1 1610
1 1611
1 1612
1 1613
1 1614
1 1615
1 1616
1 1617
1 1618
1 1619
1 1620
1 1621
1 1622
1 1623
1 1624
1 1625
1 1626
1 1627
1 1628
1 1629
1 1630
1 1631
1 1632
1 1633
1 1634
1 1635
1 1636
1 1637
1 1638
1 1639
1 1640
1 1641
1 1642
1 1643
1 1644
1 1645
1 1646
1 1647
1 1648
1 1649
1 1650
1 1651
1 1652
1 1653
1 1654
1 1655
1 1656
1 1657
1 1658
1 1659
1 1660
1 1661
1 1662
1 1663
1 1664
1 1665
1 1666
1 1667
1 1668
1 1669
1 1670
1 1671
1 1672
1 1673
1 1674
1 1675
1 1676
1 1677
1 1678
1 1679
1 1680
1 1681
1 1682
1 1683
1 1684
1 1685
1 1686
1 1687
1 1688
1 1689
1 1690
1 1691
1 1692
1 1693
1 1694
1 1695
1 1696
1 1697
1 1698
1 1699
1 1700
1 1701
1 1702
1 1703
1 1704
1 1705
1 1706
1 1707
1 1708
1 1709
1 1710
1 1711
1 1712
1 1713
1 1714
1 1715
1 1716
1 1717
1 1718
1 1719
1 1720
1 1721
1 1722
1 1723
1 1724
1 1725
1 1726
1 1727
1 1728
1 1729
1 1730
1 1731
1 1732
1 1733
1 1734
1 1735
1 1736
1 1737
1 1738
1 1739
1 1740
1 1741
1 1742
1 1743
1 1744
1 1745
1 1746
1 1747
1 1748
1 1749
1 1750
1 1751
1 1752
1 1753
1 1754
1 1755
1 1756
1 1757
1 1758
1 1759
1 1760
1 1761
1 1762
1 1763
1 1764
1 1765
1 1766
1 1767
1 1768
1 1769
1 1770
1 1771
1 1772
1 1773
1 1774
1 1775
1 1776
1 1777
1 1778
1 1779
1 1780
1 1781
1 1782
1 1783
1 1784
1 1785
1 1786
1 1787
1 1788
1 1789
1 1790
1 1791
1 1792
1 1793
1 1794
1 1795
1 1796
1 1797
1 1798
1 1799
1 1800
1 1801
1 1802
1 1803
1 1804
1 1805
1 1806
1 1807
1 1808
1 1809
1 1810
1 1811
1 1812
1 1813
1 1814
1 1815
1 1816
1 1817
1 1818
1 1819
1 1820
1 1821
1 1822
1 1823
1 1824
1 1825
1 1826
1 1827
1 1828
1 1829
1 1830
1 1831
1 1832
1 1833
1 1834
1 1835
1 1836
1 1837
1 1838
1 1839
1 1840
1 1841
1 1842
1 1843
1 1844
1 1845
1 1846
1 1847
1 1848
1 1849
1 1850
1 1851
1 1852
1 1853
1 1854
1 1855
1 1856
1 1857
1 1858
1 1859
1 1860
1 1861
1 1862
1 1863
1 1864
1 1865
1 1866
1 1867
1 1868
1 1869
1 1870
1 1871
1 1872
1 1873
1 1874
1 1875
1 1876
1 1877
1 1878
1 1879
1 1880
1 1881
1 1882
1 1883
1 1884
1 1885
1 1886
1 1887
1 1888
1 1889
1 1890
1 1891
1 1892
1 1893
1 1894
1 1895
1 1896
1 1897
1 1898
1 1899
1 1900
1 1901
1 1902
1 1903
1 1904
1 1905
1 1906
1 1907
1 1908
1 1909
1 1910
1 1911
1 1912
1 1913
1 1914
1 1915
1 1916
1 1917
1 1918
1 1919
1 1920
1 1921
1 1922
1 1923
1 1924
1 1925
1 1926
1 1927
1 1928
1 1929
1 1930
1 1931
1 1932
1 1933
1 1934
1 1935
1 1936
1 1937
1 1938
1 1939
1 1940
1 1941
1 1942
1 1943
1 1944
1 1945
1 1946
1 1947
1 1948
1 1949
1 1950
1 1951
1 1952
1 1953
1 1954
1 1955
1 1956
1 1957
1 1958
1 1959
1 1960
1 1961
1 1962
1 1963
1 1964
1 1965
1 1966
1 1967
1 1968
1 1969
1 1970
1 1971
1 1972
1 1973
1 1974
1 1975
1 1976
1 1977
1 1978
1 1979
1 1980
1 1981
1 1982
1 1983
1 1984
1 1985
1 1986
1 1987
1 1988
1 1989
1 1990
1 1991
1 1992
1 1993
1 1994
1 1995
1 1996
1 1997
1 1998
1 1999
1 2000
1 2001
1 2002
1 2003
1 2004
1 2005
1 2006
1 2007
1 2008
1 2009
1 2010
1 2011
1 2012
1 2013
1 2014
1 2015
1 2016
1 2017
1 2018
1 2019
1 2020
1 2021
1 2022
1 2023
1 2024
1 2025
1 2026
1 2027
1 2028
1 2029
1 2030
1 2031
1 2032
1 2033
1 2034
1 2035
1 2036
1 2037
1 2038
1 2039
1 2040
1 2041
1 2042
1 2043
1 2044
1 2045
1 2046
1 2047
1 2048
1 2049
1 2050
1 2051
1 2052
1 2053
1 2054
1 2055
1 2056
1 2057
1 2058
1 2059
1 2060
1 2061
1 2062
1 2063
1 2064
1 2065
1 2066
1 2067
1 2068
1 2069
1 2070
1 2071
1 2072
1 2073
1 2074
1 2075
1 2076
1 2077
1 2078
1 2079
1 2080
1 2081
1 2082
1 2083
1 2084
1 2085
1 2086
1 2087
1 2088
1 2089
1 2090
1 2091
1 2092
1 2093
1 2094
1 2095
1 2096
1 2097
1 2098
1 2099
1 2100
1 2101
1 2102
1 2103
1 2104
1 2105
1 2106
1 2107
1 2108
1 2109
1 2110
1 2111
1 2112
1 2113
1 2114
1 2115
1 2116
1 2117
1 2118
1 2119
1 2120
1 2121
1 2122
1 2123
1 2124
1 2125
1 2126
1 2127
1 2128
1 2129
1 2130
1 2131
1 2132
1 2133
1 2134
1 2135
1 2136
1 2137
1 2138
1 2139
1 2140
1 2141
1 2142
1 2143
1 2144
1 2145
1 2146
1 2147
1 2148
1 2149
1 2150
1 2151
1 2152
1 2153
1 2154
1 2155
1 2156
1 2157
1 2158
1 2159
1 2160
1 2161
1 2162
1 2163
1 2164
1 2165
1 2166
1 2167
1 2168
1 2169
1 2170
1 2171
1 2172
1 2173
1 2174
1 2175
1 2176
1 2177
1 2178
1 2179
1 2180
1 2181
1 2182
1 2183
1 2184
1 2185
1 2186
1 2187
1 2188
1 2189
1 2190
1 2191
1 2192
1 2193
1 2194
1 2195
1 2196
1 2197
1 2198
1 2199
1 2200
1 2201
1 2202
1 2203
1 2204
1 2205
1 2206
1 2207
1 2208
1 2209
1 2210
1 2211
1 2212
1 2213
1 2214
1 2215
1 2216
1 2217
1 2218
1 2219
1 2220
1 2221
1 2222
1 2223
1 2224
1 2225
1 2226
1 2227
1 2228
1 2229
1 2230
1 2231
1 2232
1 2233
1 2234
1 2235
1 2236
1 2237
1 2238
1 2239
1 2240
1 2241
1 2242
1 2243
1 2244
1 2245
1 2246
1 2247
1 2248
1 2249
1 2250
1 2251
1 2252
1 2253
1 2254
1 2255
1 2256
1 2257
1 2258
1 2259
1 2260
1 2261
1 2262
1 2263
1 2264
1 2265
1 2266
1 2267
1 2268
1 2269
1 2270
1 2271
1 2272
1 2273
1 2274
1 2275
1 2276
1 2277
1 2278
1 2279
1 2280
1 2281
1 2282
1 2283
1 2284
1 2285
1 2286
1 2287
1 2288
1 2289
1 2290
1 2291
1 2292
1 2293
1 2294
1 2295
1 2296
1 2297
1 2298
1 2299
1 2300
1 2301
1 2302
1 2303
1 2304
1 2305
1 2306
1 2307
1 2308
1 2309
1 2310
1 2311
1 2312
1 2313
1 2314
1 2315
1 2316
1 2317
1 2318
1 2319
1 2320
1 2321
1 2322
1 2323
1 2324
1 2325
1 2326
1 2327
1 2328
1 2329
1 2330
1 2331
1 2332
1 2333
1 2334
1 2335
1 2336
1 2337
1 2338
1 2339
1 2340
1 2341
1 2342
1 2343
1 2344
1 2345
1 2346
1 2347
1 2348
1 2349
1 2350
1 2351
1 2352
1 2353
1 2354
1 2355
1 2356
1 2357
1 2358
1 2359
1 2360
1 2361
1 2362
1 2363
1 2364
1 2365
1 2366
1 2367
1 2368
1 2369
1 2370
1 2371
1 2372
1 2373
1 2374
1 2375
1 2376
1 2377
1 2378
1 2379
1 2380
1 2381
1 2382
1 2383
1 2384
1 2385
1 2386
1 2387
1 2388
1 2389
1 2390
1 2391
1 2392
1 2393
1 2394
1 2395
1 2396
1 2397
1 2398
1 2399
1 2400
1 2401
1 2402
1 2403
1 2404
1 2405
1 2406
1 2407
1 2408
1 2409
1 2410
1 2411
1 2412
1 2413
1 2414
1 2415
1 2416
1 2417
1 2418
1 2419
1 2420
1 2421
1 2422
1 2423
1 2424
1 2425
1 2426
1 2427
1 2428
1 2429
1 2430
1 2431
1 2432
1 2433
1 2434
1 2435
1 2436
1 2437
1 2438
1 2439
1 2440
1 2441
1 2442
1 2443
1 2444
1 2445
1 2446
1 2447
1 2448
1 2449
1 2450
1 2451
1 2452
1 2453
1 2454
1 2455
1 2456
1 2457
1 2458
1 2459
1 2460
1 2461
1 2462
1 2463
1 2464
1 2465
1 2466
1 2467
1 2468
1 2469
1 2470
1 2471
1 2472
1 2473
1 2474
1 2475
1 2476
1 2477
1 2478
1 2479
1 2480
1 2481
1 2482
1 2483
1 2484
1 2485
1 2486
1 2487
1 2488
1 2489
1 2490
1 2491
1 2492
1 2493
1 2494
1 2495
1 2496
1 2497
1 2498
1 2499
1 2500
1 2501
1 2502
1 2503
1 2504
1 2505
1 2506
1 2507
1 2508
1 2509
1 2510
1 2511
1 2512
1 2513
1 2514
1 2515
1 2516
1 2517
1 2518
1 2519
1 2520
1 2521
1 2522
1 2523
1 2524
1 2525
1 2526
1 2527
1 2528
1 2529
1 2530
1 2531
1 2532
1 2533
1 2534
1 2535
1 2536
1 2537
1 2538
1 2539
1 2540
1 2541
1 2542
1 2543
1 2544
1 2545
1 2546
1 2547
1 2548
1 2549
1 2550
1 2551
1 2552
1 2553
1 2554
1 2555
1 2556
1 2557
1 2558
1 2559
1 2560
1 2561
1 2562
1 2563
1 2564
1 2565
1 2566
1 2567
1 2568
1 2569
1 2570
1 2571
1 2572
1 2573
1 2574
1 2575
1 2576
1 2577
1 2578
1 2579
1 2580
1 2581
1 2582
1 2583
1 2584
1 2585
1 2586
1 2587
1 2588
1 2589
1 2590
1 2591
1 2592
1 2593
1 2594
1 2595
1 2596
1 2597
1 2598
1 2599
1 2600
1 2601
1 2602
1 2603
1 2604
1 2605
1 2606
1 2607
1 2608
1 2609
1 2610
1 2611
1 2612
1 2613
1 2614
1 2615
1 2616
1 2617
1 2618
1 2619
1 2620
1 2621
1 2622
1 2623
1 2624
1 2625
1 2626
1 2627
1 2628
1 2629
1 2630
1 2631
1 2632
1 2633
1 2634
1 2635
1 2636
1 2637
1 2638
1 2639
1 2640
1 2641
1 2642
1 2643
1 2644
1 2645
1 2646
1 2647
1 2648
1 2649
1 2650
1 2651
1 2652
1 2653
1 2654
1 2655
1 2656
1 2657
1 2658
1 2659
1 2660
1 2661
1 2662
1 2663
1 2664
1 2665
1 2666
1 2667
1 2668
1 2669
1 2670
1 2671
1 2672
1 2673
1 2674
1 2675
1 2676
1 2677
1 2678
1 2679
1 2680
1 2681
1 2682
1 2683
1 2684
1 2685
1 2686
1 2687
1 2688
1 2689
1 2690
1 2691
1 2692
1 2693
1 2694
1 2695
1 2696
1 2697
1 2698
1 2699
1 2700
1 2701
1 2702
1 2703
1 2704
1 2705
1 2706
1 2707
1 2708
1 2709
1 2710
1 2711
1 2712
1 2713
1 2714
1 2715
1 2716
1 2717
1 2718
1 2719
1 2720
1 2721
1 2722
1 2723
1 2724
1 2725
1 2726
1 2727
1 2728
1 2729
1 2730
1 2731
1 2732
1 2733
1 2734
1 2735
1 2736
1 2737
1 2738
1 2739
1 2740
1 2741
1 2742
1 2743
1 2744
1 2745
1 2746
1 2747
1 2748
1 2749
1 2750
1 2751
1 2752
1 2753
1 2754
1 2755
1 2756
1 2757
1 2758
1 2759
1 2760
1 2761
1 2762
1 2763
1 2764
1 2765
1 2766
1 2767
1 2768
1 2769
1 2770
1 2771
1 2772
1 2773
1 2774
1 2775
1 2776
1 2777
1 2778
1 2779
1 2780
1 2781
1 2782
1 2783
1 2784
1 2785
1 2786
1 2787
1 2788
1 2789
1 2790
1 2791
1 2792
1 2793
1 2794
1 2795
1 2796
1 2797
1 2798
1 2799
1 2800
1 2801
1 2802
1 2803
1 2804
1 2805
1 2806
1 2807
1 2808
1 2809
1 2810
1 2811
1 2812
1 2813
1 2814
1 2815
1 2816
1 2817
1 2818
1 2819
1 2820
1 2821
1 2822
1 2823
1 2824
1 2825
1 2826
1 2827
1 2828
1 2829
1 2830
1 2831
1 2832
1 2833
1 2834
1 2835
1 2836
1 2837
1 2838
1 2839
1 2840
1 2841
1 2842
1 2843
1 2844
1 2845
1 2846
1 2847
1 2848
1 2849
1 2850
1 2851
1 2852
1 2853
1 2854
1 2855
1 2856
1 2857
1 2858
1 2859
1 2860
1 2861
1 2862
1 2863
1 2864
1 2865
1 2866
1 2867
1 2868
1 2869
1 2870
1 2871
1 2872
1 2873
1 2874
1 2875
1 2876
1 2877
1 2878
1 2879
1 2880
1 2881
1 2882
1 2883
1 2884
1 2885
1 2886
1 2887
1 2888
1 2889
1 2890
1 2891
1 2892
1 2893
1 2894
1 2895
1 2896
1 2897
1 2898
1 2899
1 2900
1 2901
1 2902
1 2903
1 2904
1 2905
1 2906
1 2907
1 2908
1 2909
1 2910
1 2911
1 2912
1 2913
1 2914
1 2915
1 2916
1 2917
1 2918
1 2919
1 2920
1 2921
1 2922
1 2923
1 2924
1 2925
1 2926
1 2927
1 2928
1 2929
1 2930
1 2931
1 2932
1 2933
1 2934
1 2935
1 2936
1 2937
1 2938
1 2939
1 2940
1 2941
1 2942
1 2943
1 2944
1 2945
1 2946
1 2947
1 2948
1 2949
1 2950
1 2951
1 2952
1 2953
1 2954
1 2955
1 2956
1 2957
1 2958
1 2959
1 2960
1 2961
1 2962
1 2963
1 2964
1 2965
1 2966
1 2967
1 2968
1 2969
1 2970
1 2971
1 2972
1 2973
1 2974
1 2975
1 2976
1 2977
1 2978
1 2979
1 2980
1 2981
1 2982
1 2983
1 2984
1 2985
1 2986
1 2987
1 2988
1 2989
1 2990
1 2991
1 2992
1 2993
1 2994
1 2995
1 2996
1 2997
1 2998
1 2999
1 3000
1 3001
1 3002
1 3003
1 3004
1 3005
1 3006
1 3007
1 3008
1 3009
1 3010
1 3011
1 3012
1 3013
1 3014
1 3015
1 3016
1 3017
1 3018
1 3019
1 3020
1 3021
1 3022
1 3023
1 3024
1 3025
1 3026
1 3027
1 3028
1 3029
1 3030
1 3031
1 3032
1 3033
1 3034
1 3035
1 3036
1 3037
1 3038
1 3039
1 3040
1 3041
1 3042
1 3043
1 3044
1 3045
1 3046
1 3047
1 3048
1 3049
1 3050
1 3051
1 3052
1 3053
1 3054
1 3055
1 3056
1 3057
1 3058
1 3059
1 3060
1 3061
1 3062
1 3063
1 3064
1 3065
1 3066
1 3067
1 3068
1 3069
1 3070
1 3071
1 3072
1 3073
1 3074
1 3075
1 3076
1 3077
1 3078
1 3079
1 3080
1 3081
1 3082
1 3083
1 3084
1 3085
1 3086
1 3087
1 3088
1 3089
1 3090
1 3091
1 3092
1 3093
1 3094
1 3095
1 3096
1 3097
1 3098
1 3099
1 3100
1 3101
1 3102
1 3103
1 3104
1 3105
1 3106
1 3107
1 3108
1 3109
1 3110
1 3111
1 3112
1 3113
1 3114
1 3115
1 3116
1 3117
1 3118
1 3119
1 3120
1 3121
1 3122
1 3123
1 3124
1 3125
1 3126
1 3127
1 3128
1 3129
1 3130
1 3131
1 3132
1 3133
1 3134
1 3135
1 3136
1 3137
1 3138
1 3139
1 3140
1 3141
1 3142
1 3143
1 3144
1 3145
1 3146
1 3147
1 3148
1 3149
1 3150
1 3151
1 3152
1 3153
1 3154
1 3155
1 3156
1 3157
1 3158
1 3159
1 3160
1 3161
1 3162
1 3163
1 3164
1 3165
1 3166
1 3167
1 3168
1 3169
1 3170
1 3171
1 3172
1 3173
1 3174
1 3175
1 3176
1 3177
1 3178
1 3179
1 3180
1 3181
1 3182
1 3183
1 3184
1 3185
1 3186
1 3187
1 3188
1 3189
1 3190
1 3191
1 3192
1 3193
1 3194
1 3195
1 3196
1 3197
1 3198
1 3199
1 3200
1 3201
1 3202
1 3203
1 3204
1 3205
1 3206
1 3207
1 3208
1 3209
1 3210
1 3211
1 3212
1 3213
1 3214
1 3215
1 3216
1 3217
1 3218
1 3219
1 3220
1 3221
1 3222
1 3223
1 3224
1 3225
1 3226
1 3227
1 3228
1 3229
1 3230
1 3231
1 3232
1 3233
1 3234
1 3235
1 3236
1 3237
1 3238
1 3239
1 3240
1 3241
1 3242
1 3243
1 3244
1 3245
1 3246
1 3247
1 3248
1 3249
1 3250
1 3251
1 3252
1 3253
1 3254
1 3255
1 3256
1 3257
1 3258
1 3259
1 3260
1 3261
1 3262
1 3263
1 3264
1 3265
1 3266
1 3267
1 3268
1 3269
1 3270
1 3271
1 3272
1 3273
1 3274
1 3275
1 3276
1 3277
1 3278
1 3279
1 3280
1 3281
1 3282
1 3283
1 3284
1 3285
1 3286
1 3287
1 3288
1 3289
1 3290
1 3291
1 3292
1 3293
1 3294
1 3295
1 3296
1 3297
1 3298
1 3299
1 3300
1 3301
1 3302
1 3303
1 3304
1 3305
1 3306
1 3307
1 3308
1 3309
1 3310
1 3311
1 3312
1 3313
1 3314
1 3315
1 3316
1 3317
1 3318
1 3319
1 3320
1 3321
1 3322
1 3323
1 3324
1 3325
1 3326
1 3327
1 3328
1 3329
1 3330
1 3331
1 3332
1 3333
1 3334
1 3335
1 3336
1 3337
1 3338
1 3339
1 3340
1 3341
1 3342
1 3343
1 3344
1 3345
1 3346
1 3347
1 3348
1 3349
1 3350
1 3351
1 3352
1 3353
1 3354
1 3355
1 3356
1 3357
1 3358
1 3359
1 3360
1 3361
1 3362
1 3363
1 3364
1 3365
1 3366
1 3367
1 3368
1 3369
1 3370
1 3371
1 3372
1 3373
1 3374
1 3375
1 3376
1 3377
1 3378
1 3379
1 3380
1 3381
1 3382
1 3383
1 3384
1 3385
1 3386
1 3387
1 3388
1 3389
1 3390
1 3391
1 3392
1 3393
1 3394
1 3395
1 3396
1 3397
1 3398
1 3399
1 3400
1 3401
1 3402
1 3403
1 3404
1 3405
1 3406
1 3407
1 3408
1 3409
1 3410
1 3411
1 3412
1 3413
1 3414
1 3415
1 3416
1 3417
1 3418
1 3419
1 3420
1 3421
1 3422
1 3423
1 3424
1 3425
1 3426
1 3427
1 3428
1 3429
1 3430
1 3431
1 3432
1 3433
1 3434
1 3435
1 3436
1 3437
1 3438
1 3439
1 3440
1 3441
1 3442
1 3443
1 3444
1 3445
1 3446
1 3447
1 3448
1 3449
1 3450
1 3451
1 3452
1 3453
1 3454
1 3455
1 3456
1 3457
1 3458
1 3459
1 3460
1 3461
1 3462
1 3463
1 3464
1 3465
1 3466
1 3467
1 3468
1 3469
1 3470
1 3471
1 3472
1 3473
1 3474
1 3475
1 3476
1 3477
1 3478
1 3479
1 3480
1 3481
1 3482
1 3483
1 3484
1 3485
1 3486
1 3487
1 3488
1 3489
1 3490
1 3491
1 3492
1 3493
1 3494
1 3495
1 3496
1 3497
1 3498
1 3499
1 3500
1 3501
1 3502
1 3503
1 3504
1 3505
1 3506
1 3507
1 3508
1 3509
1 3510
1 3511
1 3512
1 3513
1 3514
1 3515
1 3516
1 3517
1 3518
1 3519
1 3520
1 3521
1 3522
1 3523
1 3524
1 3525
1 3526
1 3527
1 3528
1 3529
1 3530
1 3531
1 3532
1 3533
1 3534
1 3535
1 3536
1 3537
1 3538
1 3539
1 3540
1 3541
1 3542
1 3543
1 3544
1 3545
1 3546
1 3547
1 3548
1 3549
1 3550
1 3551
1 3552
1 3553
1 3554
1 3555
1 3556
1 3557
1 3558
1 3559
1 3560
1 3561
1 3562
1 3563
1 3564
1 3565
1 3566
1 3567
1 3568
1 3569
1 3570
1 3571
1 3572
1 3573
1 3574
1 3575
1 3576
1 3577
1 3578
1 3579
1 3580
1 3581
1 3582
1 3583
1 3584
1 3585
1 3586
1 3587
1 3588
1 3589
1 3590
1 3591
1 3592
1 3593
1 3594
1 3595
1 3596
1 3597
1 3598
1 3599
1 3600
1 3601
1 3602
1 3603
1 3604
1 3605
1 3606
1 3607
1 3608
1 3609
1 3610
1 3611
1 3612
1 3613
1 3614
1 3615
1 3616
1 3617
1 3618
1 3619
1 3620
1 3621
1 3622
1 3623
1 3624
1 3625
1 3626
1 3627
1 3628
1 3629
1 3630
1 3631
1 3632
1 3633
1 3634
1 3635
1 3636
1 3637
1 3638
1 3639
1 3640
1 3641
1 3642
1 3643
1 3644
1 3645
1 3646
1 3647
1 3648
1 3649
1 3650
1 3651
1 3652
1 3653
1 3654
1 3655
1 3656
1 3657
1 3658
1 3659
1 3660
1 3661
1 3662
1 3663
1 3664
1 3665
1 3666
1 3667
1 3668
1 3669
1 3670
1 3671
1 3672
1 3673
1 3674
1 3675
1 3676
1 3677
1 3678
1 3679
1 3680
1 3681
1 3682
1 3683
1 3684
1 3685
1 3686
1 3687
1 3688
1 3689
1 3690
1 3691
1 3692
1 3693
1 3694
1 3695
1 3696
1 3697
1 3698
1 3699
1 3700
1 3701
1 3702
1 3703
1 3704
1 3705
1 3706
1 3707
1 3708
1 3709
1 3710
1 3711
1 3712
1 3713
1 3714
1 3715
1 3716
1 3717
1 3718
1 3719
1 3720
1 3721
1 3722
1 3723
1 3724
1 3725
1 3726
1 3727
1 3728
1 3729
1 3730
1 3731
1 3732
1 3733
1 3734
1 3735
1 3736
1 3737
1 3738
1 3739
1 3740
1 3741
1 3742
1 3743
1 3744
1 3745
1 3746
1 3747
1 3748
1 3749
1 3750
1 3751
1 3752
1 3753
1 3754
1 3755
1 3756
1 3757
1 3758
1 3759
1 3760
1 3761
1 3762
1 3763
1 3764
1 3765
1 3766
1 3767
1 3768
1 3769
1 3770
1 3771
1 3772
1 3773
1 3774
1 3775
1 3776
1 3777
1 3778
1 3779
1 3780
1 3781
1 3782
1 3783
1 3784
1 3785
1 3786
1 3787
1 3788
1 3789
1 3790
1 3791
1 3792
1 3793
1 3794
1 3795
1 3796
1 3797
1 3798
1 3799
1 3800
1 3801
1 3802
1 3803
1 3804
1 3805
1 3806
1 3807
1 3808
1 3809
1 3810
1 3811
1 3812
1 3813
1 3814
1 3815
1 3816
1 3817
1 3818
1 3819
1 3820
1 3821
1 3822
1 3823
1 3824
1 3825
1 3826
1 3827
1 3828
1 3829
1 3830
1 3831
1 3832
1 3833
1 3834
1 3835
1 3836
1 3837
1 3838
1 3839
1 3840
1 3841
1 3842
1 3843
1 3844
1 3845
1 3846
1 3847
1 3848
1 3849
1 3850
1 3851
1 3852
1 3853
1 3854
1 3855
1 3856
1 3857
1 3858
1 3859
1 3860
1 3861
1 3862
1 3863
1 3864
1 3865
1 3866
1 3867
1 3868
1 3869
1 3870
1 3871
1 3872
1 3873
1 3874
1 3875
1 3876
1 3877
1 3878
1 3879
1 3880
1 3881
1 3882
1 3883
1 3884
1 3885
1 3886
1 3887
1 3888
1 3889
1 3890
1 3891
1 3892
1 3893
1 3894
1 3895
1 3896
1 3897
1 3898
1 3899
1 3900
1 3901
1 3902
1 3903
1 3904
1 3905
1 3906
1 3907
1 3908
1 3909
1 3910
1 3911
1 3912
1 3913
1 3914
1 3915
1 3916
1 3917
1 3918
1 3919
1 3920
1 3921
1 3922
1 3923
1 3924
1 3925
1 3926
1 3927
1 3928
1 3929
1 3930
1 3931
1 3932
1 3933
1 3934
1 3935
1 3936
1 3937
1 3938
1 3939
1 3940
1 3941
1 3942
1 3943
1 3944
1 3945
1 3946
1 3947
1 3948
1 3949
1 3950
1 3951
1 3952
1 3953
1 3954
1 3955
1 3956
1 3957
1 3958
1 3959
1 3960
1 3961
1 3962
1 3963
1 3964
1 3965
1 3966
1 3967
1 3968
1 3969
1 3970
1 3971
1 3972
1 3973
1 3974
1 3975
1 3976
1 3977
1 3978
1 3979
1 3980
1 3981
1 3982
1 3983
1 3984
1 3985
1 3986
1 3987
1 3988
1 3989
1 3990
1 3991
1 3992
1 3993
1 3994
1 3995
1 3996
1 3997
1 3998
1 3999
1 4000
1 4001
1 4002
1 4003
1 4004
1 4005
1 4006
1 4007
1 4008
1 4009
1 4010
1 4011
1 4012
1 4013
1 4014
1 4015
1 4016
1 4017
1 4018
1 4019
1 4020
1 4021
1 4022
1 4023
1 4024
1 4025
1 4026
1 4027
1 4028
1 4029
1 4030
1 4031
1 4032
1 4033
1 4034
1 4035
1 4036
1 4037
1 4038
1 4039
1 4040
1 4041
1 4042
1 4043
1 4044
1 4045
1 4046
1 4047
1 4048
1 4049
1 4050
1 4051
1 4052
1 4053
1 4054
1 4055
1 4056
1 4057
1 4058
1 4059
1 4060
1 4061
1 4062
1 4063
1 4064
1 4065
1 4066
1 4067
1 4068
1 4069
1 4070
1 4071
1 4072
1 4073
1 4074
1 4075
1 4076
1 4077
1 4078
1 4079
1 4080
1 4081
1 4082
1 4083
1 4084
1 4085
1 4086
1 4087
1 4088
1 4089
1 4090
1 4091
1 4092
1 4093
1 4094
1 4095
1 4096
1 4097
1 4098
1 4099
1 4100
1 4101
1 4102
1 4103
1 4104
1 4105
1 4106
1 4107
1 4108
1 4109
1 4110
1 4111
1 4112
1 4113
1 4114
1 4115
1 4116
1 4117
1 4118
1 4119
1 4120
1 4121
1 4122
1 4123
1 4124
1 4125
1 4126
1 4127
1 4128
1 4129
1 4130
1 4131
1 4132
1 4133
1 4134
1 4135
1 4136
1 4137
1 4138
1 4139
1 4140
1 4141
1 4142
1 4143
1 4144
1 4145
1 4146
1 4147
1 4148
1 4149
1 4150
1 4151
1 4152
1 4153
1 4154
1 4155
1 4156
1 4157
1 4158
1 4159
1 4160
1 4161
1 4162
1 4163
1 4164
1 4165
1 4166
1 4167
1 4168
1 4169
1 4170
1 4171
1 4172
1 4173
1 4174
1 4175
1 4176
1 4177
1 4178
1 4179
1 4180
1 4181
1 4182
1 4183
1 4184
1 4185
1 4186
1 4187
1 4188
1 4189
1 4190
1 4191
1 4192
1 4193
1 4194
1 4195
1 4196
1 4197
1 4198
1 4199
1 4200
1 4201
1 4202
1 4203
1 4204
1 4205
1 4206
1 4207
1 4208
1 4209
1 4210
1 4211
1 4212
1 4213
1 4214
1 4215
1 4216
1 4217
1 4218
1 4219
1 4220
1 4221
1 4222
1 4223
1 4224
1 4225
1 4226
1 4227
1 4228
1 4229
1 4230
1 4231
1 4232
1 4233
1 4234
1 4235
1 4236
1 4237
1 4238
1 4239
1 4240
1 4241
1 4242
1 4243
1 4244
1 4245
1 4246
1 4247
1 4248
1 4249
1 4250
1 4251
1 4252
1 4253
1 4254
1 4255
1 4256
1 4257
1 4258
1 4259
1 4260
1 4261
1 4262
1 4263
1 4264
1 4265
1 4266
1 4267
1 4268
1 4269
1 4270
1 4271
1 4272
1 4273
1 4274
1 4275
1 4276
1 4277
1 4278
1 4279
1 4280
1 4281
1 4282
1 4283
1 4284
1 4285
1 4286
1 4287
1 4288
1 4289
1 4290
1 4291
1 4292
1 4293
1 4294
1 4295
1 4296
1 4297
1 4298
1 4299
1 4300
1 4301
1 4302
1 4303
1 4304
1 4305
1 4306
1 4307
1 4308
1 4309
1 4310
1 4311
1 4312
1 4313
1 4314
1 4315
1 4316
1 4317
1 4318
1 4319
1 4320
1 4321
1 4322
1 4323
1 4324
1 4325
1 4326
1 4327
1 4328
1 4329
1 4330
1 4331
1 4332
1 4333
1 4334
1 4335
1 4336
1 4337
1 4338
1 4339
1 4340
1 4341
1 4342
1 4343
1 4344
1 4345
1 4346
1 4347
1 4348
1 4349
1 4350
1 4351
1 4352
1 4353
1 4354
1 4355
1 4356
1 4357
1 4358
1 4359
1 4360
1 4361
1 4362
1 4363
1 4364
1 4365
1 4366
1 4367
1 4368
1 4369
1 4370
1 4371
1 4372
1 4373
1 4374
1 4375
1 4376
1 4377
1 4378
1 4379
1 4380
1 4381
1 4382
1 4383
1 4384
1 4385
1 4386
1 4387
1 4388
1 4389
1 4390
1 4391
1 4392
1 4393
1 4394
1 4395
1 4396
1 4397
1 4398
1 4399
1 4400
1 4401
1 4402
1 4403
1 4404
1 4405
1 4406
1 4407
1 4408
1 4409
1 4410
1 4411
1 4412
1 4413
1 4414
1 4415
1 4416
1 4417
1 4418
1 4419
1 4420
1 4421
1 4422
1 4423
1 4424
1 4425
1 4426
1 4427
1 4428
1 4429
1 4430
1 4431
1 4432
1 4433
1 4434
1 4435
1 4436
1 4437
1 4438
1 4439
1 4440
1 4441
1 4442
1 4443
1 4444
1 4445
1 4446
1 4447
1 4448
1 4449
1 4450
1 4451
1 4452
1 4453
1 4454
1 4455
1 4456
1 4457
1 4458
1 4459
1 4460
1 4461
1 4462
1 4463
1 4464
1 4465
1 4466
1 4467
1 4468
1 4469
1 4470
1 4471
1 4472
1 4473
1 4474
1 4475
1 4476
1 4477
1 4478
1 4479
1 4480
1 4481
1 4482
1 4483
1 4484
1 4485
1 4486
1 4487
1 4488
1 4489
1 4490
1 4491
1 4492
1 4493
1 4494
1 4495
1 4496
1 4497
1 4498
1 4499
1 4500
1 4501
1 4502
1 4503
1 4504
1 4505
1 4506
1 4507
1 4508
1 4509
1 4510
1 4511
1 4512
1 4513
1 4514
1 4515
1 4516
1 4517
1 4518
1 4519
1 4520
1 4521
1 4522
1 4523
1 4524
1 4525
1 4526
1 4527
1 4528
1 4529
1 4530
1 4531
1 4532
1 4533
1 4534
1 4535
1 4536
1 4537
1 4538
1 4539
1 4540
1 4541
1 4542
1 4543
1 4544
1 4545
1 4546
1 4547
1 4548
1 4549
1 4550
1 4551
1 4552
1 4553
1 4554
1 4555
1 4556
1 4557
1 4558
1 4559
1 4560
1 4561
1 4562
1 4563
1 4564
1 4565
1 4566
1 4567
1 4568
1 4569
1 4570
1 4571
1 4572
1 4573
1 4574
1 4575
1 4576
1 4577
1 4578
1 4579
1 4580
1 4581
1 4582
1 4583
1 4584
1 4585
1 4586
1 4587
1 4588
1 4589
1 4590
1 4591
1 4592
1 4593
1 4594
1 4595
1 4596
1 4597
1 4598
1 4599
1 4600
1 4601
1 4602
1 4603
1 4604
1 4605
1 4606
1 4607
1 4608
1 4609
1 4610
1 4611
1 4612
1 4613
1 4614
1 4615
1 4616
1 4617
1 4618
1 4619
1 4620
1 4621
1 4622
1 4623
1 4624
1 4625
1 4626
1 4627
1 4628
1 4629
1 4630
1 4631
1 4632
1 4633
1 4634
1 4635
1 4636
1 4637
1 4638
1 4639
1 4640
1 4641
1 4642
1 4643
1 4644
1 4645
1 4646
1 4647
1 4648
1 4649
1 4650
1 4651
1 4652
1 4653
1 4654
1 4655
1 4656
1 4657
1 4658
1 4659
1 4660
1 4661
1 4662
1 4663
1 4664
1 4665
1 4666
1 4667
1 4668
1 4669
1 4670
1 4671
1 4672
1 4673
1 4674
1 4675
1 4676
1 4677
1 4678
1 4679
1 4680
1 4681
1 4682
1 4683
1 4684
1 4685
1 4686
1 4687
1 4688
1 4689
1 4690
1 4691
1 4692
1 4693
1 4694
1 4695
1 4696
1 4697
1 4698
1 4699
1 4700
1 4701
1 4702
1 4703
1 4704
1 4705
1 4706
1 4707
1 4708
1 4709
1 4710
1 4711
1 4712
1 4713
1 4714
1 4715
1 4716
1 4717
1 4718
1 4719
1 4720
1 4721
1 4722
1 4723
1 4724
1 4725
1 4726
1 4727
1 4728
1 4729
1 4730
1 4731
1 4732
1 4733
1 4734
1 4735
1 4736
1 4737
1 4738
1 4739
1 4740
1 4741
1 4742
1 4743
1 4744
1 4745
1 4746
1 4747
1 4748
1 4749
1 4750
1 4751
1 4752
1 4753
1 4754
1 4755
1 4756
1 4757
1 4758
1 4759
1 4760
1 4761
1 4762
1 4763
1 4764
1 4765
1 4766
1 4767
1 4768
1 4769
1 4770
1 4771
1 4772
1 4773
1 4774
1 4775
1 4776
1 4777
1 4778
1 4779
1 4780
1 4781
1 4782
1 4783
1 4784
1 4785
1 4786
1 4787
1 4788
1 4789
1 4790
1 4791
1 4792
1 4793
1 4794
1 4795
1 4796
1 4797
1 4798
1 4799
1 4800
1 4801
1 4802
1 4803
1 4804
1 4805
1 4806
1 4807
1 4808
1 4809
1 4810
1 4811
1 4812
1 4813
1 4814
1 4815
1 4816
1 4817
1 4818
1 4819
1 4820
1 4821
1 4822
1 4823
1 4824
1 4825
1 4826
1 4827
1 4828
1 4829
1 4830
1 4831
1 4832
1 4833
1 4834
1 4835
1 4836
1 4837
1 4838
1 4839
1 4840
1 4841
1 4842
1 4843
1 4844
1 4845
1 4846
1 4847
1 4848
1 4849
1 4850
1 4851
1 4852
1 4853
1 4854
1 4855
1 4856
1 4857
1 4858
1 4859
1 4860
1 4861
1 4862
1 4863
1 4864
1 4865
1 4866
1 4867
1 4868
1 4869
1 4870
1 4871
1 4872
1 4873
1 4874
1 4875
1 4876
1 4877
1 4878
1 4879
1 4880
1 4881
1 4882
1 4883
1 4884
1 4885
1 4886
1 4887
1 4888
1 4889
1 4890
1 4891
1 4892
1 4893
1 4894
1 4895
1 4896
1 4897
1 4898
1 4899
1 4900
1 4901
1 4902
1 4903
1 4904
1 4905
1 4906
1 4907
1 4908
1 4909
1 4910
1 4911
1 4912
1 4913
1 4914
1 4915
1 4916
1 4917
1 4918
1 4919
1 4920
1 4921
1 4922
1 4923
1 4924
1 4925
1 4926
1 4927
1 4928
1 4929
1 4930
1 4931
1 4932
1 4933
1 4934
1 4935
1 4936
1 4937
1 4938
1 4939
1 4940
1 4941
1 4942
1 4943
1 4944
1 4945
1 4946
1 4947
1 4948
1 4949
1 4950
1 4951
1 4952
1 4953
1 4954
1 4955
1 4956
1 4957
1 4958
1 4959
1 4960
1 4961
1 4962
1 4963
1 4964
1 4965
1 4966
1 4967
1 4968
1 4969
1 4970
1 4971
1 4972
1 4973
1 4974
1 4975
1 4976
1 4977
1 4978
1 4979
1 4980
1 4981
1 4982
1 4983
1 4984
1 4985
1 4986
1 4987
1 4988
1 4989
1 4990
1 4991
1 4992
1 4993
1 4994
1 4995
1 4996
1 4997
1 4998
1 4999
CELL_TYPES 5000
1 
1 
1 
1 
1 
1 
1 
1 
1 
1 
1 
1 
1 
1 
1 
1 
1 
1 
1 
1 
1 
1 
1 
1 
1 
1 
1 
1 
1 
1 
1 
1 
1 
1 
1 
1 
1 
1 
1 
1 
1 
1 
1 
1 
1 
1 
1 
1 
1 
1 
1 
1 
1 
1 
1 
1 
1 
1 
1 
1 
1 
1 
1 
1 
1 
1 
1 
1 
1 
1 
1 
1 
1 
1 
1 
1 
1 
1 
1 
1 
1 
1 
1 
1 
1 
1 
1 
1 
1 
1 
1 
1 
1 
1 
1 
1 
1 
1 
1 
1 
1 
1 
1 
1 
1 
1 
1 
1 
1 
1 
1 
1 
1 
1 
1 
1 
1 
1 
1 
1 
1 
1 
1 
1 
1 
1 
1 
1 
1 
1 
1 
1 
1 
1 
1 
1 
1 
1 
1 
1 
1 
1 
1 
1 
1 
1 
1 
1 
1 
1 
1 
1 
1 
1 
1 
1 
1 
1 
1 
1 
1 
1 
1 
1 
1 
1 
1 
1 
1 
1 
1 
1 
1 
1 
1 
1 
1 
1 
1 
1 
1 
1 
1 
1 
1 
1 
1 
1 
1 
1 
1 
1 
1 
1 
1 
1 
1 
1 
1 
1 
1 
1 
1 
1 
1 
1 
1 
1 
1 
1 
1 
1 
1 
1 
1 
1 
1 
1 
1 
1 
1 
1 
1 
1 
1 
1 
1 
1 
1 
1 
1 
1 
1 
1 
1 
1 
1 
1 
1 
1 
1 
1 
1 
1 
1 
1 
1 
1 
1 
1 
1 
1 
1 
1 
1 
1 
1 
1 
1 
1 
1 
1 
1 
1 
1 
1 
1 
1 
1 
1 
1 
1 
1 
1 
1 
1 
1 
1 
1 
1 
1 
1 
1 
1 
1 
1 
1 
1 
1 
1 
1 
1 
1 
1 
1 
1 
1 
1 
1 
1 
1 
1 
1 
1 
1 
1 
1 
1 
1 
1 
1 
1 
1 
1 
1 
1 
1 
1 
1 
1 
1 
1 
1 
1 
1 
1 
1 
1 
1 
1 
1 
1 
1 
1 
1 
1 
1 
1 
1 
1 
1 
1 
1 
1 
1 
1 
1 
1 
1 
1 
1 
1 
1 
1 
1 
1 
1 
1 
1 
1 
1 
1 
1 
1 
1 
1 
1 
1 
1 
1 
1 
1 
1 
1 
1 
1 
1 
1 
1 
1 
1 
1 
1 
1 
1 
1 
1 
1 
1 
1 
1 
1 
1 
1 
1 
1 
1 
1 
1 
1 
1 
1 
1 
1 
1 
1 
1 
1 
1 
1 
1 
1 
1 
1 
1 
1 
1 
1 
1 
1 
1 
1 
1 
1 
1 
1 
1 
1 
1 
1 
1 
1 
1 
1 
1 
1 
1 
1 
1 
1 
1 
1 
1 
1 
1 
1 
1 
1 
1 
1 
1 
1 
1 
1 
1 
1 
1 
1 
1 
1 
1 
1 
1 
1 
1 
1 
1 
1 
1 
1 
1 
1 
1 
1 
1 
1 
1 
1 
1 
1 
1 
1 
1 
1 
1 
1 
1 
1 
1 
1 
1 
1 
1 
1 
1 
1 
1 
1 
1 
1 
1 
1 
1 
1 
1 
1 
1 
1 
1 
1 
1 
1 
1 
1 
1 
1 
1 
1 
1 
1 
1 
1 
1 
1 
1 
1 
1 
1 
1 
1 
1 
1 
1 
1 
1 
1 
1 
1 
1 
1 
1 
1 
1 
1 
1 
1 
1 
1 
1 
1 
1 
1 
1 
1 
1 
1 
1 
1 
1 
1 
1 
1 
1 
1 
1 
1 
1 
1 
1 
1 
1 
1 
1 
1 
1 
1 
1 
1 
1 
1 
1 
1 
1 
1 
1 
1 
1 
1 
1 
1 
1 
1 
1 
1 
1 
1 
1 
1 
1 
1 
1 
1 
1 
1 
1 
1 
1 
1 
1 
1 
1 
1 
1 
1 
1 
1 
1 
1 
1 
1 
1 
1 
1 
1 
1 
1 
1 
1 
1 
1 
1 
1 
1 
1 
1 
1 
1 
1 
1 
1 
1 
1 
1 
1 
1 
1 
1 
1 
1 
1 
1 
1 
1 
1 
1 
1 
1 
1 
1 
1 
1 
1 
1 
1 
1 
1 
1 
1 
1 
1 
1 
1 
1 
1 
1 
1 
1 
1 
1 
1 
1 
1 
1 
1 
1 
1 
1 
1 
1 
1 
1 
1 
1 
1 
1 
1 
1 
1 
1 
1 
1 
1 
1 
1 
1 
1 
1 
1 
1 
1 
1 
1 
1 
1 
1 
1 
1 
1 
1 
1 
1 
1 
1 
1 
1 
1 
1 
1 
1 
1 
1 
1 
1 
1 
1 
1 
1 
1 
1 
1 
1 
1 
1 
1 
1 
1 
1 
1 
1 
1 
1 
1 
1 
1 
1 
1 
1 
1 
1 
1 
1 
1 
1 
1 
1 
1 
1 
1 
1 
1 
1 
1 
1 
1 
1 
1 
1 
1 
1 
1 
1 
1 
1 
1 
1 
1 
1 
1 
1 
1 
1 
1 
1 
1 
1 
1 
1 
1 
1 
1 
1 
1 
1 
1 
1 
1 
1 
1 
1 
1 
1 
1 
1 
1 
1 
1 
1 
1 
1 
1 
1 
1 
1 
1 
1 
1 
1 
1 
1 
1 
1 
1 
1 
1 
1 
1 
1 
1 
1 
1 
1 
1 
1 
1 
1 
1 
1 
1 
1 
1 
1 
1 
1 
1 
1 
1 
1 
1 
1 
1 
1 
1 
1 
1 
1 
1 
1 
1 
1 
1 
1 
1 
1 
1 
1 
1 
1 
1 
1 
1 
1 
1 
1 
1 
1 
1 
1 
1 
1 
1 
1 
1 
1 
1 
1 
1 
1 
1 
1 
1 
1 
1 
1 
1 
1 
1 
1 
1 
1 
1 
1 
1 
1 
1 
1 
1 
1 
1 
1 
1 
1 
1 
1 
1 
1 
1 
1 
1 
1 
1 
1 
1 
1 
1 
1 
1 
1 
1 
1 
1 
1 
1 
1 
1 
1 
1 
1 
1 
1 
1 
1 
1 
1 
1 
1 
1 
1 
1 
1 
1 
1 
1 
1 
1 
1 
1 
1 
1 
1 
1 
1 
1 
1 
1 
1 
1 
1 
1 
1 
1 
1 
1 
1 
1 
1 
1 
1 
1 
1 
1 
1 
1 
1 
1 
1 
1 
1 
1 
1 
1 
1 
1 
1 
1 
1 
1 
1 
1 
1 
1 
1 
1 
1 
1 
1 
1 
1 
1 
1 
1 
1 
1 
1 
1 
1 
1 
1 
1 
1 
1 
1 
1 
1 
1 
1 
1 
1 
1 
1 
1 
1 
1 
1 
1 
1 
1 
1 
1 
1 
1 
1 
1 
1 
1 
1 
1 
1 
1 
1 
1 
1 
1 
1 
1 
1 
1 
1 
1 
1 
1 
1 
1 
1 
1 
1 
1 
1 
1 
1 
1 
1 
1 
1 
1 
1 
1 
1 
1 
1 
1 
1 
1 
1 
1 
1 
1 
1 
1 
1 
1 
1 
1 
1 
1 
1 
1 
1 
1 
1 
1 
1 
1 
1 
1 
1 
1 
1 
1 
1 
1 
1 
1 
1 
1 
1 
1 
1 
1 
1 
1 
1 
1 
1 
1 
1 
1 
1 
1 
1 
1 
1 
1 
1 
1 
1 
1 
1 
1 
1 
1 
1 
1 
1 
1 
1 
1 
1 
1 
1 
1 
1 
1 
1 
1 
1 
1 
1 
1 
1 
1 
1 
1 
1 
1 
1 
1 
1 
1 
1 
1 
1 
1 
1 
1 
1 
1 
1 
1 
1 
1 
1 
1 
1 
1 
1 
1 
1 
1 
1 
1 
1 
1 
1 
1 
1 
1 
1 
1 
1 
1 
1 
1 
1 
1 
1 
1 
1 
1 
1 
1 
1 
1 
1 
1 
1 
1 
1 
1 
1 
1 
1 
1 
1 
1 
1 
1 
1 
1 
1 
1 
1 
1 
1 
1 
1 
1 
1 
1 
1 
1 
1 
1 
1 
1 
1 
1 
1 
1 
1 
1 
1 
1 
1 
1 
1 
1 
1 
1 
1 
1 
1 
1 
1 
1 
1 
1 
1 
1 
1 
1 
1 
1 
1 
1 
1 
1 
1 
1 
1 
1 
1 
1 
1 
1 
1 
1 
1 
1 
1 
1 
1 
1 
1 
1 
1 
1 
1 
1 
1 
1 
1 
1 
1 
1 
1 
1 
1 
1 
1 
1 
1 
1 
1 
1 
1 
1 
1 
1 
1 
1 
1 
1 
1 
1 
1 
1 
1 
1 
1 
1 
1 
1 
1 
1 
1 
1 
1 
1 
1 
1 
1 
1 
1 
1 
1 
1 
1 
1 
1 
1 
1 
1 
1 
1 
1 
1 
1 
1 
1 
1 
1 
1 
1 
1 
1 
1 
1 
1 
1 
1 
1 
1 
1 
1 
1 
1 
1 
1 
1 
1 
1 
1 
1 
1 
1 
1 
1 
1 
1 
1 
1 
1 
1 
1 
1 
1 
1 
1 
1 
1 
1 
1 
1 
1 
1 
1 
1 
1 
1 
1 
1 
1 
1 
1 
1 
1 
1 
1 
1 
1 
1 
1 
1 
1 
1 
1 
1 
1 
1 
1 
1 
1 
1 
1 
1 
1 
1 
1 
1 
1 
1 
1 
1 
1 
1 
1 
1 
1 
1 
1 
1 
1 
1 
1 
1 
1 
1 
1 
1 
1 
1 
1 
1 
1 
1 
1 
1 
1 
1 
1 
1 
1 
1 
1 
1 
1 
1 
1 
1 
1 
1 
1 
1 
1 
1 
1 
1 
1 
1 
1 
1 
1 
1 
1 
1 
1 
1 
1 
1 
1 
1 
1 
1 
1 
1 
1 
1 
1 
1 
1 
1 
1 
1 
1 
1 
1 
1 
1 
1 
1 
1 
1 
1 
1 
1 
1 
1 
1 
1 
1 
1 
1 
1 
1 
1 
1 
1 
1 
1 
1 
1 
1 
1 
1 
1 
1 
1 
1 
1 
1 
1 
1 
1 
1 
1 
1 
1 
1 
1 
1 
1 
1 
1 
1 
1 
1 
1 
1 
1 
1 
1 
1 
1 
1 
1 
1 
1 
1 
1 
1 
1 
1 
1 
1 
1 
1 
1 
1 
1 
1 
1 
1 
1 
1 
1 
1 
1 
1 
1 
1 
1 
1 
1 
1 
1 
1 
1 
1 
1 
1 
1 
1 
1 
1 
1 
1 
1 
1 
1 
1 
1 
1 
1 
1 
1 
1 
1 
1 
1 
1 
1 
1 
1 
1 
1 
1 
1 
1 
1 
1 
1 
1 
1 
1 
1 
1 
1 
1 
1 
1 
1 
1 
1 
1 
1 
1 
1 
1 
1 
1 
1 
1 
1 
1 
1 
1 
1 
1 
1 
1 
1 
1 
1 
1 
1 
1 
1 
1 
1 
1 
1 
1 
1 
1 
1 
1 
1 
1 
1 
1 
1 
1 
1 
1 
1 
1 
1 
1 
1 
1 
1 
1 
1 
1 
1 
1 
1 
1 
1 
1 
1 
1 
1 
1 
1 
1 
1 
1 
1 
1 
1 
1 
1 
1 
1 
1 
1 
1 
1 
1 
1 
1 
1 
1 
1 
1 
1 
1 
1 
1 
1 
1 
1 
1 
1 
1 
1 
1 
1 
1 
1 
1 
1 
1 
1 
1 
1 
1 
1 
1 
1 
1 
1 
1 
1 
1 
1 
1 
1 
1 
1 
1 
1 
1 
1 
1 
1 
1 
1 
1 
1 
1 
1 
1 
1 
1 
1 
1 
1 
1 
1 
1 
1 
1 
1 
1 
1 
1 
1 
1 
1 
1 
1 
1 
1 
1 
1 
1 
1 
1 
1 
1 
1 
1 
1 
1 
1 
1 
1 
1 
1 
1 
1 
1 
1 
1 
1 
1 
1 
1 
1 
1 
1 
1 
1 
1 
1 
1 
1 
1 
1 
1 
1 
1 
1 
1 
1 
1 
1 
1 
1 
1 
1 
1 
1 
1 
1 
1 
1 
1 
1 
1 
1 
1 
1 
1 
1 
1 
1 
1 
1 
1 
1 
1 
1 
1 
1 
1 
1 
1 
1 
1 
1 
1 
1 
1 
1 
1 
1 
1 
1 
1 
1 
1 
1 
1 
1 
1 
1 
1 
1 
1 
1 
1 
1 
1 
1 
1 
1 
1 
1 
1 
1 
1 
1 
1 
1 
1 
1 
1 
1 
1 
1 
1 
1 
1 
1 
1 
1 
1 
1 
1 
1 
1 
1 
1 
1 
1 
1 
1 
1 
1 
1 
1 
1 
1 
1 
1 
1 
1 
1 
1 
1 
1 
1 
1 
1 
1 
1 
1 
1 
1 
1 
1 
1 
1 
1 
1 
1 
1 
1 
1 
1 
1 
1 
1 
1 
1 
1 
1 
1 
1 
1 
1 
1 
1 
1 
1 
1 
1 
1 
1 
1 
1 
1 
1 
1 
1 
1 
1 
1 
1 
1 
1 
1 
1 
1 
1 
1 
1 
1 
1 
1 
1 
1 
1 
1 
1 
1 
1 
1 
1 
1 
1 
1 
1 
1 
1 
1 
1 
1 
1 
1 
1 
1 
1 
1 
1 
1 
1 
1 
1 
1 
1 
1 
1 
1 
1 
1 
1 
1 
1 
1 
1 
1 
1 
1 
1 
1 
1 
1 
1 
1 
1 
1 
1 
1 
1 
1 
1 
1 
1 
1 
1 
1 
1 
1 
1 
1 
1 
1 
1 
1 
1 
1 
1 
1 
1 
1 
1 
1 
1 
1 
1 
1 
1 
1 
1 
1 
1 
1 
1 
1 
1 
1 
1 
1 
1 
1 
1 
1 
1 
1 
1 
1 
1 
1 
1 
1 
1 
1 
1 
1 
1 
1 
1 
1 
1 
1 
1 
1 
1 
1 
1 
1 
1 
1 
1 
1 
1 
1 
1 
1 
1 
1 
1 
1 
1 
1 
1 
1 
1 
1 
1 
1 
1 
1 
1 
1 
1 
1 
1 
1 
1 
1 
1 
1 
1 
1 
1 
1 
1 
1 
1 
1 
1 
1 
1 
1 
1 
1 
1 
1 
1 
1 
1 
1 
1 
1 
1 
1 
1 
1 
1 
1 
1 
1 
1 
1 
1 
1 
1 
1 
1 
1 
1 
1 
1 
1 
1 
1 
1 
1 
1 
1 
1 
1 
1 
1 
1 
1 
1 
1 
1 
1 
1 
1 
1 
1 
1 
1 
1 
1 
1 
1 
1 
1 
1 
1 
1 
1 
1 
1 
1 
1 
1 
1 
1 
1 
1 
1 
1 
1 
1 
1 
1 
1 
1 
1 
1 
1 
1 
1 
1 
1 
1 
1 
1 
1 
1 
1 
1 
1 
1 
1 
1 
1 
1 
1 
1 
1 
1 
1 
1 
1 
1 
1 
1 
1 
1 
1 
1 
1 
1 
1 
1 
1 
1 
1 
1 
1 
1 
1 
1 
1 
1 
1 
1 
1 
1 
1 
1 
1 
1 
1 
1 
1 
1 
1 
1 
1 
1 
1 
1 
1 
1 
1 
1 
1 
1 
1 
1 
1 
1 
1 
1 
1 
1 
1 
1 
1 
1 
1 
1 
1 
1 
1 
1 
1 
1 
1 
1 
1 
1 
1 
1 
1 
1 
1 
1 
1 
1 
1 
1 
1 
1 
1 
1 
1 
1 
1 
1 
1 
1 
1 
1 
1 
1 
1 
1 
1 
1 
1 
1 
1 
1 
1 
1 
1 
1 
1 
1 
1 
1 
1 
1 
1 
1 
1 
1 
1 
1 
1 
1 
1 
1 
1 
1 
1 
1 
1 
1 
1 
1 
1 
1 
1 
1 
1 
1 
1 
1 
1 
1 
1 
1 
1 
1 
1 
1 
1 
1 
1 
1 
1 
1 
1 
1 
1 
1 
1 
1 
1 
1 
1 
1 
1 
1 
1 
1 
1 
1 
1 
1 
1 
1 
1 
1 
1 
1 
1 
1 
1 
1 
1 
1 
1 
1 
1 
1 
1 
1 
1 
1 
1 
1 
1 
1 
1 
1 
1 
1 
1 
1 
1 
1 
1 
1 
1 
1 
1 
1 
1 
1 
1 
1 
1 
1 
1 
1 
1 
1 
1 
1 
1 
1 
1 
1 
1 
1 
1 
1 
1 
1 
1 
1 
1 
1 
1 
1 
1 
1 
1 
1 
1 
1 
1 
1 
1 
1 
1 
1 
1 
1 
1 
1 
1 
1 
1 
1 
1 
1 
1 
1 
1 
1 
1 
1 
1 
1 
1 
1 
1 
1 
1 
1 
1 
1 
1 
1 
1 
1 
1 
1 
1 
1 
1 
1 
1 
1 
1 
1 
1 
1 
1 
1 
1 
1 
1 
1 
1 
1 
1 
1 
1 
1 
1 
1 
1 
1 
1 
1 
1 
1 
1 
1 
1 
1 
1 
1 
1 
1 
1 
1 
1 
1 
1 
1 
1 
1 
1 
1 
1 
1 
1 
1 
1 
1 
1 
1 
1 
1 
1 
1 
1 
1 
1 
1 
1 
1 
1 
1 
1 
1 
1 
1 
1 
1 
1 
1 
1 
1 
1 
1 
1 
1 
1 
1 
1 
1 
1 
1 
1 
1 
1 
1 
1 
1 
1 
1 
1 
1 
1 
1 
1 
1 
1 
1 
1 
1 
1 
1 
1 
1 
1 
1 
1 
1 
1 
1 
1 
1 
1 
1 
1 
1 
1 
1 
1 
1 
1 
1 
1 
1 
1 
1 
1 
1 
1 
1 
1 
1 
1 
1 
1 
1 
1 
1 
1 
1 
1 
1 
1 
1 
1 
1 
1 
1 
1 
1 
1 
1 
1 
1 
1 
1 
1 
1 
1 
1 
1 
1 
1 
1 
1 
1 
1 
1 
1 
1 
1 
1 
1 
1 
1 
1 
1 
1 
1 
1 
1 
1 
1 
1 
1 
1 
1 
1 
1 
1 
1 
1 
1 
1 
1 
1 
1 
1 
1 
1 
1 
1 
1 
1 
1 
1 
1 
1 
1 
1 
1 
1 
1 
1 
1 
1 
1 
1 
1 
1 
1 
1 
1 
1 
1 
1 
1 
1 
1 
1 
1 
1 
1 
1 
1 
1 
1 
1 
1 
1 
1 
1 
1 
1 
1 
1 
1 
1 
1 
1 
1 
1 
1 
1 
1 
1 
1 
1 
1 
1 
1 
1 
1 
1 
1 
1 
1 
1 
1 
1 
1 
1 
1 
1 
1 
1 
1 
1 
1 
1 
1 
1 
1 
1 
1 
1 
1 
1 
1 
1 
1 
1 
1 
1 
1 
1 
1 
1 
1 
1 
1 
1 
1 
1 
1 
1 
1 
1 
1 
1 
1 
1 
1 
1 
1 
1 
1 
1 
1 
1 
1 
1 
1 
1 
1 
1 
1 
1 
1 
1 
1 
1 
1 
1 
1 
1 
1 
1 
1 
1 
1 
1 
1 
1 
1 
1 
1 
1 
1 
1 
1 
1 
1 
1 
1 
1 
1 
1 
1 
1 
1 
1 
1 
1 
1 
1 
1 
1 
1 
1 
1 
1 
1 
1 
1 
1 
1 
1 
1 
1 
1 
1 
1 
1 
1 
1 
1 
1 
1 
1 
1 
1 
1 
1 
1 
1 
1 
1 
1 
1 
1 
1 
1 
1 
1 
1 
1 
1 
1 
1 
1 
1 
1 
1 
1 
1 
1 
1 
1 
1 
1 
1 
1 
1 
1 
1 
1 
1 
1 
1 
1 
1 
1 
1 
1 
1 
1 
1 
1 
1 
1 
1 
1 
1 
1 
1 
1 
1 
1 
1 
1 
1 
1 
1 
1 
1 
1 
1 
1 
1 
1 
1 
1 
1 
1 
1 
1 
1 
1 
1 
1 
1 
1 
1 
1 
1 
1 
1 
1 
1 
1 
1 
1 
1 
1 
1 
1 
1 
1 
1 
1 
1 
1 
1 
1 
1 
1 
1 
1 
1 
1 
1 
1 
1 
1 
1 
1 
1 
1 
1 
1 
1 
1 
1 
1 
1 
1 
1 
1 
1 
1 
1 
1 
1 
1 
1 
1 
1 
1 
1 
1 
1 
1 
1 
1 
1 
1 
1 
1 
1 
1 
1 
1 
1 
1 
1 
1 
1 
1 
1 
1 
1 
1 
1 
1 
1 
1 
1 
1 
1 
1 
1 
1 
1 
1 
1 
1 
1 
1 
1 
1 
1 
1 
1 
1 
1 
1 
1 
1 
1 
1 
1 
1 
1 
1 
1 
1 
1 
1 
1 
1 
1 
1 
1 
1 
1 
1 
1 
1 
1 
1 
1 
1 
1 
1 
1 
1 
1 
1 
1 
1 
1 
1 
1 
1 
1 
1 
1 
1 
1 
1 
1 
1 
1 
1 
1 
1 
1 
1 
1 
1 
1 
1 
1 
1 
1 
1 
1 
1 
1 
1 
1 
1 
1 
1 
1 
1 
1 
1 
1 
1 
1 
1 
1 
1 
1 
1 
1 
1 
1 
1 
1 
1 
1 
1 
1 
1 
1 
1 
1 
1 
1 
1 
1 
1 
1 
1 
1 
1 
1 
1 
1 
1 
1 
1 
1 
1 
1 
1 
1 
1 
1 
1 
1 
1 
1 
1 
1 
1 
1 
1 
1 
1 
1 
1 
1 
1 
1 
1 
1 
1 
1 
1 
1 
1 
1 
1 
1 
1 
1 
1 
1 
1 
1 
1 
1 
1 
1 
1 
1 
1 
1 
1 
1 
1 
1 
1 
1 
1 
1 
1 
1 
1 
1 
1 
1 
1 
1 
1 
1 
1 
1 
1 
1 
1 
1 
1 
1 
1 
1 
1 
1 
1 
1 
1 
1 
1 
1 
1 
1 
1 
1 
1 
1 
1 
1 
1 
1 
1 
1 
1 
1 
1 
1 
1 
1 
1 
1 
1 
1 
1 
1 
1 
1 
1 
1 
1 
1 
1 
1 
1 
1 
1 
1 
1 
1 
1 
1 
1 
1 
1 
1 
1 
1 
1 
1 
1 
1 
1 
1 
1 
1 
1 
1 
1 
1 
1 
1 
1 
1 
1 
1 
1 
1 
1 
1 
1 
1 
1 
1 
1 
1 
1 
1 
1 
1 
1 
1 
1 
1 
1 
1 
1 
1 
1 
1 
1 
1 
1 
1 
1 
1 
1 
1 
1 
1 
1 
1 
1 
1 
1 
1 
1 
1 
1 
1 
1 
1 
1 
1 
1 
1 
1 
1 
1 
1 
1 
1 
1 
1 
1 
1 
1 
1 
1 
1 
1 
1 
1 
1 
1 
1 
1 
1 
1 
1 
1 
1 
1 
1 
1 
1 
1 
1 
1 
1 
1 
1 
1 
1 
1 
1 
1 
1 
1 
1 
1 
1 
1 
1 
1 
1 
1 
1 
1 
1 
1 
1 
1 
1 
1 
1 
1 
1 
1 
1 
1 
1 
1 
1 
1 
1 
1 
1 
1 
1 
1 
1 
1 
1 
1 
1 
1 
1 
1 
1 
1 
1 
1 
1 
1 
1 
1 
1 
1 
1 
1 
1 
1 
1 
1 
1 
1 
1 
1 
1 
1 
1 
1 
1 
1 
1 
1 
1 
1 
1 
1 
1 
1 
1 
1 
1 
1 
1 
1 
1 
1 
1 
1 
1 
1 
1 
1 
1 
1 
1 
1 
1 
1 
1 
1 
1 
1 
1 
1 
1 
1 
1 
1 
1 
1 
1 
1 
1 
1 
1 
1 
1 
1 
1 
1 
1 
1 
1 
1 
1 
1 
1 
1 
1 
1 
1 
1 
1 
1 
1 
1 
1 
1 
1 
1 
1 
1 
1 
1 
1 
1 
1 
1 
1 
1 
1 
1 
1 
1 
1 
1 
1 
1 
1 
1 
1 
1 
1 
1 
1 
1 
1 
1 
1 
1 
1 
1 
1 
1 
1 
1 
1 
1 
1 
1 
1 
1 
1 
1 
1 
1 
1 
1 
1 
1 
1 
1 
1 
1 
1 
1 
1 
1 
1 
1 
1 
1 
1 
1 
1 
1 
1 
1 
1 
1 
1 
1 
1 
1 
1 
1 
1 
1 
1 
1 
1 
1 
1 
1 
1 
1 
1 
1 
1 
1 
1 
1 
1 
1 
1 
1 
1 
1 
1 
1 
1 
1 
1 
1 
1 
1 
1 
1 
1 
1 
1 
1 
1 
1 
1 
1 
1 
1 
1 
1 
1 
1 
1 
1 
1 
1 
1 
1 
1 
1 
1 
1 
1 
1 
1 
1 
1 
1 
1 
1 
1 
1 
1 
1 
1 
1 
1 
1 
1 
1 
1 
1 
1 
1 
1 
1 
1 
1 
1 
1 
1 
1 
1 
1 
1 
1 
1 
1 
1 
1 
1 
1 
1 
1 
1 
1 
1 
1 
1 
1 
1 
1 
1 
1 
1 
1 
1 
1 
1 
1 
1 
1 
1 
1 
1 
1 
1 
1 
1 
1 
1 
1 
1 
1 
1 
1 
1 
1 
1 
1 
1 
1 
1 
1 
1 
1 
1 
1 
1 
1 
1 
1 
1 
1 
1 
1 
1 
1 
1 
1 
1 
1 
1 
1 
1 
1 
1 
1 
1 
1 
1 
1 
1 
1 
1 
1 
1 
1 
1 
1 
1 
1 
1 
1 
1 
1 
1 
1 
1 
1 
1 
1 
1 
1 
1 
1 
1 
1 
1 
1 
1 
1 
1 
1 
1 
1 
1 
1 
1 
1 
1 
1 
1 
1 
1 
1 
1 
1 
1 
1 
1 
1 
1 
1 
1 
1 
1 
1 
1 
1 
1 
1 
1 
1 
1 
1 
1 
1 
1 
1 
1 
1 
1 
1 
1 
1 
1 
1 
1 
1 
1 
1 
1 
1 
1 
1 
1 
1 
1 
1 
1 
1 
1 
1 
1 
1 
1 
1 
1 
1 
1 
1 
1 
1 
1 
1 
1 
1 
1 
1 
1 
1 
1 
1 
1 
1 
1 
1 
1 
1 
1 
1 
1 
1 
1 
1 
1 
1 
1 
1 
1 
1 
1 
1 
1 
1 
1 
1 
1 
1 
1 
1 
1 
1 
1 
1 
1 
1 
1 
1 
1 
1 
1 
1 
1 
1 
1 
1 
1 
1 
1 
1 
1 
1 
1 
1 
1 
1 
1 
1 
1 
1 
1 
1 
1 
1 
1 
1 
1 
1 
1 
1 
1 
1 
1 
1 
1 
1 
1 
1 
1 
1 
1 
1 
1 
1 
1 
1 
1 
1 
1 
1 
1 
1 
1 
1 
1 
1 
1 
1 
1 
1 
1 
1 
1 
1 
1 
1 
1 
1 
1 
1 
1 
1 
1 
1 
1 
1 
1 
1 
1 
1 
1 
1 
1 
1 
1 
1 
1 
1 
1 
1 
1 
1 
1 
1 
1 
1 
1 
1 
1 
1 
1 
1 
1 
1 
1 
1 
1 
1 
1 
1 
1 
1 
1 
1 
1 
1 
1 
1 
1 
1 
1 
1 
1 
1 
1 
1 
1 
1 
1 
1 
1 
1 
1 
1 
1 
1 
1 
1 
1 
1 
1 
1 
1 
1 
1 
1 
1 
1 
1 
1 
1 
1 
1 
1 
1 
1 
1 
1 
1 
1 
1 
1 
1 
1 
1 
1 
1 
1 
1 
1 
1 
1 
1 
1 
1 
1 
1 
1 
1 
1 
1 
1 
1 
1 
1 
1 
1 
1 
1 
1 
1 
1 
1 
1 
1 
1 
1 
1 
1 
1 
1 
1 
1 
1 
1 
1 
1 
1 
1 
1 
1 
1 
1 
1 
1 
1 
1 
1 
1 
1 
1 
1 
1 
1 
1 
1 
1 
1 
1 
1 
1 
1 
1 
1 
1 
1 
1 
1 
1 
1 
1 
1 
1 
1 
1 
1 
1 
1 
1 
1 
1 
1 
1 
1 
1 
1 
1 
1 
1 
1 
1 
1 
1 
1 
1 
1 
1 
1 
1 
1 
1 
1 
1 
1 
1 
1 
1 
1 
1 
1 
1 
1 
1 
1 
1 
1 
1 
1 
1 
1 
1 
1 
1 
1 
1 
1 
1 
1 
1 
1 
1 
1 
1 
1 
1 
1 
1 
1 
1 
1 
1 
1 
1 
1 
1 
1 
1 
1 
1 
1 
1 
1 
1 
1 
1 
1 
1 
1 
1 
1 
1 
1 
1 
1 
1 
1 
1 
1 
1 
1 
1 
1 
1 
1 
1 
1 
1 
1 
1 
1 
1 
1 
1 
1 
1 
1 
1 
1 
1 
1 
1 
1 
1 
1 
1 
1 
1 
1 
1 
1 
1 
1 
1 
1 
1 
1 
1 
1 
1 
1 
1 
1 
1 
1 
1 
1 
1 
1 
1 
1 
1 
1 
1 
1 
1 
1 
1 
1 
1 
1 
1 
1 
1 
1 
1 
1 
1 
1 
1 
1 
1 
1 
1 
1 
1 
1 
1 
1 
1 
1 
1 
1 
1 
1 
1 
1 
1 
1 
1 
1 
1 
1 
1 
1 
1 
1 
1 
1 
1 
1 
1 
1 
1 
1 
1 
1 
1 
1 
1 
1 
1 
1 
1 
1 
1 
1 
1 
1 
1 
1 
1 
1 
1 
1 
1 
1 
1 
1 
1 
1 
1 
1 
1 
1 
1 
1 
1 
1 
1 
1 
1 
1 
1 
1 
1 
1 
1 
1 
1 
1 
1 
1 
1 
1 
1 
1 
1 
1 
1 
1 
1 
1 
1 
1 
1 
1 
1 
1 
1 
1 
1 
1 
1 
1 
1 
1 
1 
1 
1 
1 
1 
1 
1 
1 
1 
1 
1 
1 
1 
1 
1 
1 
1 
1 
1 
1 
1 
1 
1 
1 
1 
1 
1 
1 
1 
1 
1 
1 
1 
1 
1 
1 
1 
1 
1 
1 
1 
1 
1 
1 
1 
1 
1 
1 
1 
1 
1 
1 
1 
1 
1 
1 
1 
1 
1 
1 
1 
1 
1 
1 
1 
1 
1 
1 
1 
1 
1 
1 
1 
1 
1 
1 
1 
1 
1 
1 
1 
1 
1 
1 
1 
1 
1 
1 
1 
1 
1 
1 
1 
1 
1 
1 
1 
1 
1 
1 
1 
1 
1 
1 
1 
1 
1 
1 
1 
1 
1 
1 
1 
1 
1 
1 
1 
1 
1 
1 
1 
1 
1 
1 
1 
1 
1 
1 
1 
1 
1 
1 
1 
1 
1 
1 
1 
1 
1 
1 
1 
1 
1 
1 
1 
1 
1 
1 
1 
1 
1 
1 
1 
1 
1 
1 
1 
1 
1 
1 
1 
1 
1 
1 
1 
1 
1 
1 
1 
1 
1 
1 
1 
1 
1 
1 
1 
1 
1 
1 
1 
1 
1 
1 
1 
1 
1 
1 
1 
1 
1 
1 
1 
1 
1 
1 
1 
1 
1 
1 
1 
1 
1 
1 
1 
1 
1 
1 
1 
1 
1 
1 
1 
1 
1 
1 
1 
1 
1 
1 
1 
1 
1 
1 
1 
1 
1 
1 
1 
1 
1 
1 
1 
1 
1 
1 
1 
1 
1 
1 
1 
1 
1 
1 
1 
1 
1 
1 
1 
1 
1 
1 
1 
1 
1 
1 
1 
1 
1 
1 
1 
1 
1 
1 
1 
1 
1 
1 
1 
1 
1 
1 
1 
1 
1 
1 
1 
1 
1 
1 
1 
1 
1 
1 
1 
1 
1 
1 
1 
1 
1 
1 
1 
1 
1 
1 
1 
1 
1 
1 
1 
1 
1 
1 
1 
1 
1 
1 
1 
1 
1 
1 
1 
1 
1 
1 
1 
1 
1 
1 
1 
1 
1 
1 
1 
1 
1 
1 
1 
1 
1 
1 
1 
1 
1 
1 
1 
1 
1 
1 
1 
1 
1 
1 
1 
1 
1 
1 
1 
1 
1 
1 
1 
1 
1 
1 
1 
1 
1 
1 
1 
1 
1 
1 
1 
1 
1 
1 
1 
1 
1 
1 
1 
1 
1 
1 
1 
1 
1 
1 
1 
1 
1 
1 
1 
1 
1 
1 
1 
1 
1 
1 
1 
1 
1 
1 
1 
1 
1 
1 
1 
1 
1 
1 
1 
1 
1 
1 
1 
1 
1 
1 
1 
1 
1 
1 
1 
1 
1 
1 
1 
1 
1 
1 
1 
1 
1 
1 
1 
1 
1 
1 
1 
1 
1 
1 
1 
1 
1 
1 
1 
1 
1 
1 
1 
1 
1 
1 
1 
1 
1 
POINT_DATA 5000
VECTORS Stress float
-230.573 -1524.86 0.
74.6057 -1373.94 0.
89.0738 -1340.09 0.
-104.914 -1399.82 0.
-103.918 -1397.49 0.
-102.922 -1395.16 0.
-296.759 -1484.18 0.
-305.235 -1504 0.
-313.711 -1523.82 0.
-513.383 -1564.94 0.
-472.653 -1469.95 0.
-431.922 -1374.96 0.
-801.494 -1430.68 0.
-745.685 -1300.45 0.
-458.639 -1090.32 0.
-507.364 -1204.13 0.
-556.088 -1317.93 0.
-536.096 -1385.81 0.
-557.041 -1434.81 0.
-577.986 -1483.81 0.
-564.576 -1439.88 0.
-509.529 -1311.41 0.
-454.483 -1182.95 0.
-426.592 -1174.21 0.
-445.861 -1219.1 0.
-336.66 -1208.95 0.
-584.689 -1291.67 0.
-571.463 -1260.91 0.
-77.3507 -1063.36 0.
-161.256 -1259.33 0.
-245.162 -1455.3 0.
-248.625 -1505.73 0.
-198.576 -1389.06 0.
-148.528 -1272.4 0.
-355.664 -1377.72 0.
-394.648 -1468.55 0.
-433.631 -1559.39 0.
-804.28 -1746.19 0.
-815.874 -1773.14 0.
-466.657 -1635.34 0.
-427.356 -1543.53 0.
-388.055 -1451.72 0.
84.1463 -1222.71 0.
45.3193 -1313.3 0.
6.49222 -1403.88 0.
76.3993 -1423.86 0.
60.6277 -1460.69 0.
44.856 -1497.51 0.
43.6228 -1508.94 0.
41.1098 -1514.88 0.
-2169.28 -2467.27 0.
785.753 -1178.59 0.
797.543 -1151.17 0.
-324.685 -1600.01 0.
-289.183 -1517.12 0.
-253.68 -1434.22 0.
-305.529 -1413.97 0.
-300.905 -1403.13 0.
-296.282 -1392.29 0.
-528.914 -1443.91 0.
-493.361 -1360.84 0.
-457.808 -1277.77 0.
-423.501 -1355.09 0.
-480.948 -1489.13 0.
-408.675 -1549.52 0.
-390.079 -1506.1 0.
-371.482 -1462.67 0.
-127.77 -1329.38 0.
-118.374 -1307.56 0.
-108.978 -1285.74 0.
-11.4854 -1217.42 0.
5.7763 -1177.16 0.
23.038 -1136.89 0.
-249.559 -1228.21 0.
-237.238 -1199.41 0.
-665.592 -1360.34 0.
-535.471 -1327.2 0.
-547.303 -1354.9 0.
-899.025 -1512.2 0.
-878.299 -1463.73 0.
-857.574 -1415.26 0.
-545.011 -1239.77 0.
-521.364 -1184.57 0.
-497.716 -1129.36 0.
-268.777 -1035.99 0.
-284.367 -1072.3 0.
-299.958 -1108.6 0.
-437.162 -1230.79 0.
-471.534 -1311.07 0.
-286.974 -1275.4 0.
-232.175 -1147.52 0.
-177.376 -1019.64 0.
-207.094 -976.918 0.
-226.836 -1022.85 0.
-246.578 -1068.77 0.
74.869 -1016.51 0.
11.7485 -1163.61 0.
-51.3721 -1310.71 0.
-120.39 -1316.76 0.
-89.1549 -1243.48 0.
-307.533 -1526.57 0.
-43.7248 -1393.4 0.
-29.3272 -1359.53 0.
-102.891 -1367.52 0.
-101.909 -1365.2 0.
-100.928 -1362.89 0.
-446.251 -1516.82 0.
-454.691 -1536.63 0.
-463.131 -1556.45 0.
-502.427 -1528.83 0.
-461.665 -1433.86 0.
-420.904 -1338.89 0.
-636.468 -1328.42 0.
-580.66 -1198.15 0.
-378.636 -1024.67 0.
-427.288 -1138.54 0.
-475.94 -1252.4 0.
-703.667 -1425.98 0.
-724.528 -1475.05 0.
-745.389 -1524.12 0.
-433.315 -1352.14 0.
-378.267 -1223.63 0.
-323.22 -1095.13 0.
-411.433 -1136.4 0.
-430.746 -1181.27 0.
-780.756 -1367.87 0.
-672.933 -1298.28 0.
-659.647 -1267.59 0.
-22.067 -1007.99 0.
-105.856 -1204.06 0.
-189.646 -1400.14 0.
-308.653 -1499.95 0.
-258.52 -1383.32 0.
-208.388 -1266.68 0.
-408.013 -1368.74 0.
-447.081 -1459.51 0.
-486.149 -1550.28 0.
-497.475 -1583.51 0.
-509.139 -1610.42 0.
-513.185 -1624.21 0.
-473.955 -1532.34 0.
-434.725 -1440.48 0.
66.3812 -1198.99 0.
27.5508 -1289.56 0.
-11.2797 -1380.13 0.
130.788 -1369.4 0.
115.024 -1406.25 0.
99.2603 -1443.1 0.
47.5843 -1475.7 0.
45.0985 -1481.73 0.
-919.202 -1900.05 0.
636.952 -1210.93 0.
648.789 -1183.6 0.
-266.158 -1543.38 0.
-230.71 -1460.5 0.
-195.261 -1377.62 0.
-159.873 -1320.27 0.
-155.291 -1309.41 0.
-150.709 -1298.56 0.
-417.926 -1365.09 0.
-382.423 -1281.92 0.
-346.921 -1198.74 0.
-408.732 -1317.15 0.
-466.182 -1451.19 0.
-275.842 -1461.35 0.
-257.273 -1417.92 0.
-238.703 -1374.5 0.
-300.365 -1371.83 0.
-290.906 -1350.07 0.
-281.448 -1328.31 0.
29.4849 -1168.49 0.
46.76 -1128.21 0.
64.0352 -1087.94 0.
-479.927 -1295.55 0.
-467.637 -1266.71 0.
-568.498 -1286.88 0.
-469.4 -1267.12 0.
-481.18 -1294.87 0.
-716.337 -1402.61 0.
-695.679 -1354.07 0.
-675.02 -1305.53 0.
-445.881 -1165.92 0.
-422.25 -1110.7 0.
-398.62 -1055.49 0.
-319.471 -1026.42 0.
-335.11 -1062.69 0.
-350.75 -1098.97 0.
-348.21 -1161.23 0.
-382.554 -1241.59 0.
-416.599 -1299.47 0.
-361.825 -1171.63 0.
-307.051 -1043.78 0.
5.39609 -854.495 0.
-14.4457 -900.379 0.
-34.2875 -946.263 0.
43.5962 -998.646 0.
-19.62 -1145.61 0.
-82.8362 -1292.58 0.
-15.2684 -1240.76 0.
15.7285 -1167.24 0.
-193.319 -1083.66 0.
-39.8209 -1127.62 0.
-135.927 -1351.65 0.
-394.259 -2019.04 0.
-213.079 -1596.6 0.
-334.351 -1879.91 0.
-903.457 -2269.24 0.
-775.766 -1971.44 0.
-946.625 -2370.24 0.
-921.949 -2495.36 0.
-926.218 -2505.49 0.
-1032.11 -2752.75 0.
-1100.05 -2691.67 0.
-938.174 -2313.88 0.
-1279.59 -3248.7 0.
-1041.96 -2693.93 0.
-1012.47 -2624.8 0.
-1471.41 -2869.13 0.
-1465.78 -2855.65 0.
-1729.92 -3471.61 0.
-1366.83 -3748.24 0.
-1034.93 -2974.01 0.
-1000.86 -2894.69 0.
-965.303 -2426.57 0.
-943.076 -2375.01 0.
-1304.66 -3275.26 0.
-1473.11 -2967.05 0.
-1362.12 -2707.71 0.
-510.588 -2224.3 0.
-537.288 -2286.22 0.
-914.934 -3167.03 0.
-1200.03 -3435.15 0.
-1020.23 -3015.52 0.
-1068.44 -3127.9 0.
-1199.53 -3084.02 0.
-1366.1 -3473.4 0.
-1776.38 -4431.46 0.
-1055.1 -3437.38 0.
-897.899 -3070.83 0.
-1604.87 -4052.66 0.
-1318.66 -3385.22 0.
-1236.27 -3193.37 0.
-811.22 -3182.39 0.
-499.657 -2455.36 0.
-438.671 -2313.01 0.
-448.399 -2793.62 0.
-548.899 -3027.88 0.
-692.066 -3361.71 0.
-587.894 -2935.21 0.
-486.083 -2697.49 0.
-2953.31 -5258.73 0.
-257.908 -2985.33 0.
-244.46 -2953.33 0.
-1044.57 -3440.07 0.
-878.121 -3051.48 0.
-1178.15 -3751.35 0.
-550.033 -2476.19 0.
-708.704 -2846.47 0.
-947.206 -3403 0.
-1237.71 -3459.92 0.
-914.825 -2706.79 0.
-964.306 -2822.55 0.
-913.057 -2489.21 0.
-972.176 -2627.31 0.
-1051.48 -3493.28 0.
-1013.64 -3404.83 0.
-1161.35 -3749.32 0.
-1424.91 -3636.6 0.
-1019.86 -2691.28 0.
-1356.5 -3476.57 0.
-793.327 -3134.76 0.
-558.377 -2586.54 0.
-951.979 -3504.94 0.
-1290.77 -2718.27 0.
-1142.72 -2372.36 0.
-1166.96 -2771.28 0.
-701.154 -1901.99 0.
-1096.88 -2825.33 0.
-1433.17 -3390.65 0.
-1045.73 -2486.74 0.
-1177.42 -2794.12 0.
-1343.45 -3417.49 0.
-1175.95 -3027.16 0.
-1209.94 -3106.96 0.
-891.821 -2234.18 0.
-691.569 -1766.85 0.
-832.776 -2096.28 0.
-621.745 -1936.84 0.
-851.797 -2473.59 0.
-1353.11 -3208.64 0.
-745.05 -1789.33 0.
-712.668 -1713.25 0.
-229.303 -1773.73 0.
-151.66 -1592.33 0.
-454.227 -2298.06 0.
-374.083 -1883.81 0.
-43.0405 -1111.74 0.
-146.384 -1353.18 0.
-65.2998 -1527 0.
-40.5583 -1470.33 0.
95.9711 -580.725 0.
-14.9571 -709.898 0.
-65.4406 -827.776 0.
203.809 -749.644 0.
309.258 -504.118 0.
414.707 -258.591 0.
-94.9894 -277.537 0.
8.92446 -35.2616 0.
112.838 207.014 0.
247.249 313.021 0.
231.159 275.042 0.
215.069 237.064 0.
91.8911 13.6513 0.
-8.26875 -220.001 0.
-132.138 -425.98 0.
-23.0247 -171.202 0.
86.0885 83.5766 0.
-84.5724 192.581 0.
-16.6527 351.467 0.
51.2669 510.353 0.
487.781 654.47 0.
387.225 419.669 0.
286.669 184.868 0.
79.4888 96.2608 0.
110.436 168.062 0.
691.3 475.486 0.
-11.9296 106.458 0.
-49.1668 19.8448 0.
406.142 199.285 0.
508.403 438.279 0.
610.663 677.272 0.
604.707 676.395 0.
474.187 371.984 0.
343.667 67.5742 0.
248.444 43.1782 0.
330.031 232.923 0.
411.617 422.669 0.
646.509 556.589 0.
654.897 575.707 0.
375.688 453.657 0.
290.168 254.003 0.
204.648 54.3481 0.
566.464 89.9587 0.
549.745 50.802 0.
533.026 11.6453 0.
783.955 135.647 0.
811.943 201.127 0.
839.931 266.606 0.
686.563 187.428 0.
670.003 148.816 0.
-151.642 -234.554 0.
1034.15 331.017 0.
1063.9 401.023 0.
564.317 209.428 0.
512.305 88.4423 0.
460.292 -32.5434 0.
655.961 50.4033 0.
719.026 197.43 0.
782.091 344.457 0.
413.241 203.761 0.
395.752 162.797 0.
378.264 121.833 0.
389.279 203.138 0.
436.448 313.062 0.
373.92 373.947 0.
408.139 454.192 0.
442.358 534.436 0.
409.819 532.84 0.
364.735 427.267 0.
319.651 321.694 0.
710.689 454.324 0.
712.078 457.228 0.
713.466 460.132 0.
-87.5675 55.8682 0.
-128.221 -38.5814 0.
129.023 -0.798106 0.
132.728 167.948 0.
220.039 372.525 0.
214.315 488.274 0.
196.773 446.95 0.
179.23 405.625 0.
468.601 510.279 0.
467.758 507.636 0.
466.916 504.993 0.
218.842 347.846 0.
181.009 259.847 0.
143.175 171.847 0.
282.341 235.111 0.
286.436 245.095 0.
189.847 187.561 0.
108.665 -1.33364 0.
27.4823 -190.228 0.
265.83 -234.556 0.
195.471 -398.238 0.
125.111 -561.919 0.
269.003 -554.045 0.
271.83 -547.61 0.
274.658 -541.176 0.
312.331 -525.092 0.
310.351 -530.696 0.
203.087 -502.894 0.
-187.33 -752.354 0.
-237.752 -870.41 0.
286.749 -682.217 0.
392.258 -436.753 0.
497.766 -191.29 0.
-133.532 -262.183 0.
-29.5923 -19.8927 0.
74.3471 222.398 0.
221.678 333.609 0.
205.682 295.59 0.
189.686 257.572 0.
148.301 69.3756 0.
48.1508 -164.268 0.
-191.933 -420.171 0.
-82.7998 -165.472 0.
26.3337 89.2272 0.
23.5289 270.595 0.
91.4381 429.506 0.
159.347 588.417 0.
464.713 675.933 0.
364.158 441.152 0.
263.604 206.372 0.
51.502 115.936 0.
82.4879 187.731 0.
809.422 557.701 0.
180.934 220.554 0.
143.692 133.859 0.
273.283 173.825 0.
375.514 412.759 0.
477.745 651.693 0.
673.501 737.408 0.
542.967 432.998 0.
412.433 128.588 0.
397.02 138.441 0.
478.574 328.21 0.
560.128 517.98 0.
650.722 589.956 0.
659.189 609.071 0.
452.511 517.918 0.
366.965 318.492 0.
281.42 119.066 0.
552.665 115.516 0.
536.019 76.3293 0.
519.372 37.1431 0.
772.172 161.925 0.
800.156 227.331 0.
828.14 292.737 0.
624.91 192.489 0.
608.355 153.759 0.
-84.4911 -174.149 0.
892.345 301.701 0.
922.09 371.663 0.
635.782 271.598 0.
583.695 150.615 0.
531.607 29.6317 0.
823.186 153.197 0.
886.292 300.25 0.
949.398 447.303 0.
528.792 284.821 0.
511.273 243.91 0.
493.754 202.999 0.
587.875 320.095 0.
635.044 430.041 0.
106.108 290.35 0.
140.251 370.656 0.
174.394 450.962 0.
485.139 597.009 0.
440.239 491.271 0.
395.338 385.534 0.
685.165 474.484 0.
686.662 477.3 0.
688.159 480.117 0.
-53.0161 103.142 0.
-93.6926 8.59586 0.
53.1387 -2.11324 0.
84.0545 178.584 0.
171.089 383.331 0.
212.52 518.875 0.
195.09 477.536 0.
177.661 436.197 0.
642.805 616.445 0.
642.027 613.763 0.
641.25 611.081 0.
240.441 388.719 0.
202.53 300.749 0.
164.618 212.778 0.
266.017 259.419 0.
269.966 269.459 0.
313.318 271.629 0.
232.086 82.6391 0.
150.853 -106.351 0.
81.2612 -281.338 0.
10.8642 -444.865 0.
-59.5327 -608.392 0.
375.027 -477.408 0.
377.78 -470.931 0.
380.534 -464.455 0.
265.163 -514.174 0.
263.108 -519.857 0.
-223.777 -1618.6 0.
-686.308 -1647.53 0.
-599.943 -1446.29 0.
70.3913 -1019.73 0.
99.5603 -951.579 0.
128.729 -883.431 0.
-474.276 -1103.38 0.
-468.054 -1090.03 0.
-461.831 -1076.68 0.
-420.798 -1103.19 0.
-457.862 -1190.43 0.
-494.927 -1277.67 0.
-455.527 -1257.93 0.
-449.22 -1243.09 0.
-545.62 -1276.51 0.
-562.575 -1316.77 0.
-579.529 -1357.03 0.
-587.439 -1380.53 0.
-583.745 -1371.08 0.
-580.05 -1361.64 0.
-400.553 -1231.65 0.
-351.472 -1117.25 0.
-302.391 -1002.85 0.
-523.504 -1169.54 0.
-587.5 -1319.24 0.
-135.621 -1247.76 0.
-377.327 -1263.29 0.
-329.633 -1151.9 0.
-344.992 -1136.96 0.
-469.437 -1426.92 0.
-593.883 -1716.88 0.
-318.39 -1661.53 0.
-233.747 -1464.46 0.
-149.104 -1267.39 0.
-170.029 -1348.1 0.
-270.275 -1582.24 0.
-370.521 -1816.39 0.
-312.154 -1716.12 0.
-254.74 -1581.14 0.
-358.114 -1529.24 0.
-361.984 -1538.45 0.
-365.854 -1547.66 0.
-36.2201 -1352.47 0.
55.1561 -1138.68 0.
146.532 -924.88 0.
164.69 -919.318 0.
90.4954 -1093.43 0.
16.3008 -1267.54 0.
14.7578 -1195.08 0.
86.6031 -1027.73 0.
-1559.93 -1597.39 0.
235.964 -986.983 0.
152.219 -1182.17 0.
66.0834 -1343.91 0.
58.1482 -1362.53 0.
50.2129 -1381.15 0.
178.644 -1305.62 0.
211.488 -1228.28 0.
244.331 -1150.95 0.
-214.685 -1374.08 0.
-252.097 -1460.15 0.
-289.509 -1546.23 0.
-55.1073 -1379.86 0.
-12.9376 -1281.52 0.
-628.354 -1469.68 0.
-601.491 -1407.99 0.
-574.628 -1346.3 0.
-262.083 -1180.91 0.
-267.928 -1192.85 0.
-273.773 -1204.79 0.
-64.881 -1038.24 0.
10.8515 -859.661 0.
86.5838 -681.078 0.
-414.935 -937.6 0.
-462.755 -1050.4 0.
-458.505 -1140.97 0.
-534.468 -1245.69 0.
-572.168 -1334 0.
-592.846 -1377.96 0.
-549.417 -1276.32 0.
-505.987 -1174.68 0.
-28.3561 -926.016 0.
-30.0819 -930.264 0.
-31.8077 -934.513 0.
-323.48 -1118.16 0.
-366.934 -1220.58 0.
-410.388 -1323 0.
-388.647 -1219.13 0.
-328.075 -1078.39 0.
-192.059 -909.783 0.
-159.097 -833.269 0.
-126.134 -756.755 0.
-206.322 -808.246 0.
-289.934 -1004 0.
-373.546 -1199.75 0.
32.2139 -1085.12 0.
38.5885 -1069.99 0.
44.9633 -1054.86 0.
-87.2338 -1181.06 0.
-133.435 -1288.66 0.
-170.968 -1564.44 0.
-762.616 -1648.65 0.
-676.234 -1447.58 0.
-153.248 -1083.55 0.
-124.011 -1015.58 0.
-94.7752 -947.616 0.
-351.83 -1019.07 0.
-345.564 -1005.76 0.
-339.299 -992.458 0.
-426.607 -1074 0.
-463.664 -1161.17 0.
-500.721 -1248.34 0.
-566.308 -1273.93 0.
-560.067 -1258.98 0.
-416.254 -1189.46 0.
-433.27 -1229.67 0.
-450.286 -1269.87 0.
-425.8 -1279.84 0.
-422.104 -1270.5 0.
-418.408 -1261.17 0.
-461.331 -1226.28 0.
-412.448 -1111.8 0.
-363.565 -997.317 0.
-520.496 -1136.8 0.
-584.522 -1286.45 0.
-1173.52 -1661.12 0.
-344.994 -1217.8 0.
-297.403 -1106.42 0.
-318.824 -1094.13 0.
-443.289 -1384.2 0.
-567.753 -1674.27 0.
-265.782 -1607.65 0.
-181.202 -1410.53 0.
-96.6219 -1213.42 0.
-113.554 -1292.38 0.
-213.871 -1526.47 0.
-314.187 -1760.56 0.
-220.033 -1645.63 0.
-162.648 -1510.5 0.
-237.947 -1446.35 0.
-241.803 -1455.46 0.
-245.658 -1464.56 0.
105.213 -1260.4 0.
196.815 -1046.7 0.
288.416 -832.992 0.
-141.206 -1019.22 0.
-215.189 -1193.41 0.
-289.172 -1367.61 0.
65.9856 -1141.54 0.
137.877 -974.233 0.
-690.166 -1193.16 0.
158.487 -989.041 0.
74.9384 -1184.44 0.
326.395 -1200.68 0.
318.356 -1219.16 0.
310.317 -1237.65 0.
-2.62522 -1352.25 0.
30.2354 -1274.92 0.
63.0961 -1197.59 0.
-372.282 -1410.15 0.
-409.714 -1496.17 0.
-447.147 -1582.2 0.
-12.7934 -1330.21 0.
29.5145 -1231.98 0.
-276.78 -1287.66 0.
-250.039 -1225.84 0.
-223.299 -1164.03 0.
-269.691 -1152.83 0.
-275.357 -1164.87 0.
-281.023 -1176.9 0.
-257.102 -1088.68 0.
-181.362 -910.081 0.
-105.623 -731.481 0.
-212.917 -820.112 0.
-260.915 -932.862 0.
-383.022 -1076.98 0.
-471.097 -1187.08 0.
-508.69 -1275.54 0.
-541.908 -1324.33 0.
-498.35 -1222.8 0.
-454.791 -1121.27 0.
-191.85 -964.816 0.
-193.536 -969.045 0.
-195.223 -973.274 0.
-110.691 -995.574 0.
-154.343 -1097.94 0.
-197.995 -1200.31 0.
-393.334 -1189.74 0.
-332.856 -1048.96 0.
-277.218 -914.851 0.
-244.31 -838.256 0.
-211.403 -761.66 0.
-136.54 -746.703 0.
-220.106 -942.419 0.
-303.672 -1138.14 0.
-235.605 -1168.62 0.
-229.333 -1153.43 0.
-223.06 -1138.25 0.
-172.788 -1185.98 0.
-218.895 -1293.97 0.
272.515 -595.868 0.
-395.184 -614.859 0.
-404.587 -635.33 0.
-317.494 -1012.19 0.
-75.9574 -447.892 0.
74.2186 -96.7502 0.
-519.7 -1614.59 0.
315.374 333.847 0.
598.456 994.268 0.
127.398 258.552 0.
-416.856 -1011.19 0.
233.639 506.975 0.
-43.4514 193.004 0.
-328.8 -473.43 0.
-174.08 -838.016 0.
131.491 -125.121 0.
-16.1586 -469.724 0.
-196.912 -1018.59 0.
-223.668 -1081.76 0.
-46.0518 -668.063 0.
-275.69 -646.275 0.
-93.1579 -221.021 0.
-318.735 -748.055 0.
-314.476 -631.04 0.
-349.884 -714.086 0.
-89.5486 -56.4604 0.
-67.9098 -600.034 0.
197.039 18.0328 0.
96.367 -141.244 0.
375.125 508.793 0.
204.016 109.136 0.
-708.502 -2710.65 0.
-3.07526 -1063.04 0.
154.928 -692.752 0.
389.286 -194.893 0.
72.552 -933.532 0.
-506.815 -2285.02 0.
-242.528 -1841.72 0.
202.424 -805.395 0.
73.1814 -911.605 0.
80.079 -896.313 0.
41.8454 -986.39 0.
295.53 -1054.85 0.
351.647 -923.554 0.
734.52 -29.8415 0.
-278.836 -733.157 0.
-475.206 -1190.3 0.
-201.84 -551.387 0.
292.789 -679.5 0.
731.049 343.377 0.
-1300.51 -1606.42 0.
199.083 -719.206 0.
3.10474 -1175.31 0.
581.469 -1066.86 0.
398.888 -1492.46 0.
107.392 -2172.13 0.
107.289 -719.225 0.
629.881 500.09 0.
481.446 153.663 0.
-290.656 -891.977 0.
-284.679 -878.439 0.
460.866 860.833 0.
904.127 763.275 0.
135.177 -1030.26 0.
-456.716 -2342.54 0.
604.708 135.157 0.
412.462 -312.358 0.
-34.5933 -559.716 0.
-264.721 -1096.87 0.
-94.5891 -700.008 0.
-485.232 -1223.47 0.
-120.088 -373.71 0.
-111.445 -355.788 0.
-213.323 -1169.49 0.
-380.764 -1560.98 0.
-617.004 -1703.92 0.
-381.426 -1069.33 0.
-562.368 -1491.21 0.
-460.898 -1203 0.
93.4742 92.2175 0.
89.9523 85.6643 0.
289.457 497.55 0.
47.7344 -66.2317 0.
-287.296 -847.668 0.
-59.0204 -1245.7 0.
1.58723 -1104.7 0.
-582.802 -2468.71 0.
-199.022 -694.235 0.
144.563 106.891 0.
279.411 575.672 0.
141.79 254.157 0.
-23.4819 -131.938 0.
159.248 -159.945 0.
73.443 -359.598 0.
606.29 884.273 0.
-54.0262 -203.52 0.
-261.65 -688.087 0.
-432.224 -1086.17 0.
276.593 61.4362 0.
-28.9408 -649.445 0.
42.3793 -869.501 0.
-362.26 -912.396 0.
-284.298 -729.654 0.
-96.2107 -515.173 0.
-64.4135 -440.704 0.
-32.6163 -366.235 0.
139.576 -387.655 0.
-16.5402 -751.49 0.
-172.656 -1115.33 0.
-446.81 -1196.14 0.
-335.497 -936.394 0.
-224.184 -676.647 0.
-437.905 -721.903 0.
-424.923 -692.478 0.
-93.0748 -529.539 0.
-102.294 -550.939 0.
-111.513 -572.34 0.
-55.7222 -574.61 0.
-81.4981 -635.358 0.
-107.274 -696.106 0.
-229.374 -797.317 0.
-255.981 -859.946 0.
-282.588 -922.574 0.
-401.945 -892.459 0.
-337.141 -741.535 0.
-254.667 -582.908 0.
-6.4383 -613.21 0.
-79.7836 -784.666 0.
-127.407 -911.064 0.
-115.893 -884.956 0.
-104.378 -858.848 0.
147.497 -789.704 0.
88.0001 -927.524 0.
28.5038 -1065.34 0.
-22.5456 -905.218 0.
152.301 -497.25 0.
327.147 -89.282 0.
438.671 -315.682 0.
252.248 -751.293 0.
-229.588 -1264.21 0.
-179.347 -1147.63 0.
-129.105 -1031.05 0.
338.846 -778.874 0.
321.732 -818.187 0.
304.619 -857.499 0.
-216.373 -1010.33 0.
-137.976 -826.62 0.
-59.5791 -642.914 0.
390.382 -530.439 0.
314.285 -707.677 0.
-993.843 -1412.59 0.
243.837 -810.509 0.
280.691 -723.111 0.
509.844 -568.189 0.
520.019 -544.373 0.
530.195 -520.558 0.
73.3511 -742.443 0.
28.7908 -846.158 0.
-15.7695 -949.873 0.
-269.083 -1142.07 0.
-313.003 -1244.64 0.
-356.923 -1347.2 0.
184.433 -886.124 0.
322.981 -561.975 0.
159.294 -437.816 0.
-2.29278 -814.044 0.
-163.879 -1190.27 0.
-176.71 -1342.29 0.
-91.7704 -1144.05 0.
-6.8311 -945.812 0.
-173.887 -942.226 0.
-169.986 -934.795 0.
-166.085 -927.364 0.
-3.30692 -695.714 0.
103.743 -446.047 0.
-61.1347 -316.568 0.
-124.836 -404.104 0.
-156.718 -478.005 0.
-106.965 -520.809 0.
-143.674 -605.37 0.
-180.382 -689.931 0.
-208.504 -729.518 0.
-195.914 -699.774 0.
-183.323 -670.03 0.
86.5142 -481.22 0.
138.107 -361.201 0.
189.699 -241.182 0.
-278.232 -529.155 0.
-334.078 -659.698 0.
-133.372 -691.167 0.
-232.349 -922.475 0.
-331.326 -1153.78 0.
-210.368 -1189.99 0.
-157.305 -1065.63 0.
-104.242 -941.27 0.
-382.63 -1011.11 0.
-377.816 -1000.2 0.
-373.003 -989.294 0.
-60.847 -800.822 0.
-24.6674 -715.556 0.
-79.4247 -890.339 0.
-149.142 -789.58 0.
-71.0105 -607.03 0.
-69.5554 -472.258 0.
-37.641 -397.996 0.
-5.72672 -323.733 0.
319.82 -278.46 0.
163.566 -642.226 0.
7.31198 -1005.99 0.
-369.619 -1131.68 0.
-258.29 -871.968 0.
-146.962 -612.253 0.
-423.989 -684.29 0.
-410.969 -654.884 0.
-138.938 -517.356 0.
-148.107 -538.748 0.
-157.275 -560.141 0.
-99.2671 -561.921 0.
-125.042 -622.681 0.
-150.817 -683.442 0.
-76.8116 -700.561 0.
-103.536 -763.136 0.
-130.261 -825.71 0.
-355.552 -841.294 0.
-290.747 -690.399 0.
-203.442 -529.716 0.
92.6578 -539.27 0.
19.3696 -710.762 0.
18.9731 -816.956 0.
30.4925 -790.923 0.
42.012 -764.89 0.
204.644 -733.429 0.
145.174 -871.269 0.
85.7047 -1009.11 0.
-137.365 -922.853 0.
37.5063 -514.91 0.
212.377 -106.966 0.
488.644 -263.026 0.
301.911 -698.392 0.
-399.258 -1305.31 0.
-349.017 -1188.9 0.
-298.775 -1072.5 0.
263.718 -779.906 0.
246.449 -819.077 0.
229.181 -858.248 0.
22.3313 -876.514 0.
100.837 -692.858 0.
179.343 -509.201 0.
448.903 -473.771 0.
372.844 -650.984 0.
-207.605 -1044.05 0.
362.084 -728.32 0.
398.945 -640.893 0.
177.186 -678.868 0.
187.36 -655.193 0.
197.534 -631.517 0.
60.5028 -716.587 0.
15.86 -820.292 0.
-28.7828 -923.996 0.
-94.673 -1036.06 0.
-138.856 -1138.41 0.
-183.038 -1240.77 0.
185.269 -854.773 0.
323.862 -530.756 0.
-69.3303 -503.382 0.
-230.672 -879.655 0.
-392.014 -1255.93 0.
76.5588 -1202.44 0.
161.473 -1004.12 0.
246.386 -805.793 0.
76.6234 -803.318 0.
80.347 -795.694 0.
84.0707 -788.071 0.
21.382 -654.303 0.
128.316 -404.488 0.
3.3854 -257.282 0.
-143.772 -380.708 0.
-175.58 -454.678 0.
-14.8792 -450.182 0.
-51.459 -534.897 0.
-88.0388 -619.612 0.
-157.899 -676.178 0.
-145.241 -646.527 0.
-132.583 -616.875 0.
-119.671 -537.403 0.
-68.1019 -417.529 0.
-16.533 -297.654 0.
-445.4 -569.296 0.
-501.475 -699.728 0.
42.0205 -584.52 0.
-56.89 -815.916 0.
-155.8 -1047.31 0.
-106.153 -1114.04 0.
-53.0531 -989.725 0.
0.0463356 -865.413 0.
-344.699 -963.599 0.
-339.88 -952.829 0.
-335.061 -942.058 0.
-4.88417 -745.149 0.
31.5959 -660.393 0.
-192.923 -1045.21 0.
-243.217 -1045.03 0.
-238.607 -1034.56 0.
-273.724 -1055.53 0.
-305.727 -1130.33 0.
-337.73 -1205.14 0.
-40.8247 -1035.66 0.
50.2429 -822.957 0.
141.31 -610.254 0.
-193.229 -757.98 0.
-245.192 -878.549 0.
-297.154 -999.119 0.
-531.323 -1141.42 0.
-550.76 -1186 0.
-486.85 -1191.24 0.
-469.771 -1150.37 0.
-452.693 -1109.49 0.
-282.227 -1019.5 0.
-291.113 -1040.09 0.
-299.999 -1060.67 0.
-147.986 -914.811 0.
-61.182 -712.811 0.
25.6221 -510.81 0.
-198.814 -656.451 0.
-260.689 -800.156 0.
-166.573 -876.929 0.
-86.3551 -953.146 0.
-145.809 -1090.57 0.
-83.9538 -1127.89 0.
-23.5019 -985.508 0.
36.95 -843.121 0.
243.677 -721.316 0.
205.903 -810.757 0.
168.128 -900.198 0.
-290.318 -1234.77 0.
-380.231 -1444.62 0.
-470.144 -1654.46 0.
32.8851 -1355.94 0.
94.5184 -1212.39 0.
-444.319 -1338.59 0.
-446.87 -1343.4 0.
-449.421 -1348.2 0.
24.2275 -1168.91 0.
-11.375 -1252.26 0.
-46.9776 -1335.62 0.
-91.4665 -1367.22 0.
-74.9473 -1328.58 0.
-58.4281 -1289.94 0.
106.372 -1243.77 0.
84.9618 -1294.28 0.
308.241 -1240.41 0.
247.891 -1249.91 0.
256.853 -1229.79 0.
-300.001 -1452.07 0.
-298.681 -1449.17 0.
-297.362 -1446.27 0.
-137.991 -1374.86 0.
-136.664 -1372.4 0.
-135.338 -1369.93 0.
-201.767 -1305.22 0.
-129.615 -1137.27 0.
-57.463 -969.318 0.
82.4434 -1065.04 0.
-16.9958 -1298.01 0.
-575.367 -1685.06 0.
-486.705 -1478.48 0.
-398.043 -1271.9 0.
187.314 -876.749 0.
235.248 -765.334 0.
283.182 -653.92 0.
188.695 -737.03 0.
110.547 -919.095 0.
32.3989 -1101.16 0.
-222.017 -1182.8 0.
-181.274 -1089.23 0.
-158.267 -1007.44 0.
-389.989 -1059.12 0.
-364.627 -1000.65 0.
-175.84 -876.917 0.
-170.19 -864.209 0.
-164.54 -851.5 0.
-258.393 -928.98 0.
-307.236 -1043.79 0.
-356.078 -1158.6 0.
-512.53 -1228.39 0.
-491.546 -1180.82 0.
-470.562 -1133.25 0.
-688.2 -1230.9 0.
-692.5 -1241.83 0.
-143.762 -1020.99 0.
-157.855 -1053.56 0.
-171.948 -1086.12 0.
-113.618 -1036.32 0.
-51.8095 -892.544 0.
9.99916 -748.768 0.
-170.974 -771.665 0.
-167.212 -762.768 0.
-163.451 -753.87 0.
-69.305 -749.318 0.
-93.6058 -805.841 0.
-158.939 -998.211 0.
-385.514 -1073.56 0.
-380.954 -1062.98 0.
-155.425 -974.122 0.
-187.689 -1048.67 0.
-219.952 -1123.22 0.
-269.675 -1102.52 0.
-178.77 -889.713 0.
-87.8646 -676.902 0.
-196.716 -728.021 0.
-248.684 -848.625 0.
-300.651 -969.229 0.
-297.664 -1009.83 0.
-317.08 -1054.48 0.
-556.139 -1189.37 0.
-538.935 -1148.57 0.
-521.73 -1107.77 0.
-175.466 -942.357 0.
-184.254 -963.028 0.
-193.041 -983.699 0.
-215.183 -911.165 0.
-128.478 -708.998 0.
-41.7721 -506.831 0.
-26.0576 -552.334 0.
-88.0969 -695.925 0.
-12.72 -780.546 0.
-157.574 -952.551 0.
-216.961 -1089.91 0.
-127.26 -1114.62 0.
-66.7063 -972.334 0.
-6.15268 -830.049 0.
302.172 -665.296 0.
264.224 -754.55 0.
226.277 -843.805 0.
-190.029 -1160.36 0.
-279.984 -1370.11 0.
-369.939 -1579.86 0.
47.2368 -1318.4 0.
108.759 -1174.77 0.
-323.493 -1255.46 0.
-326.178 -1260.28 0.
-328.863 -1265.1 0.
-44.0726 -1167.29 0.
-79.9191 -1250.47 0.
-115.766 -1333.65 0.
-58.4709 -1321.97 0.
-42.0323 -1283.21 0.
-25.5937 -1244.46 0.
55.6565 -1233.96 0.
34.179 -1284.55 0.
-1854.01 -2135.32 0.
430.741 -1139.73 0.
439.58 -1119.51 0.
-292.803 -1418.36 0.
-291.737 -1415.18 0.
-290.67 -1412.01 0.
110.741 -1236.58 0.
111.902 -1234.12 0.
113.064 -1231.66 0.
-321.981 -1325.9 0.
-250.141 -1157.7 0.
-178.301 -989.5 0.
83.0618 -1033.69 0.
-16.3189 -1266.75 0.
-320.193 -1544.04 0.
-231.613 -1337.28 0.
-143.033 -1130.52 0.
-97.2714 -967.571 0.
-49.4279 -856.154 0.
-1.58448 -744.737 0.
175.18 -711.901 0.
96.9545 -893.973 0.
18.7292 -1076.04 0.
-253.208 -1164.45 0.
-212.456 -1070.93 0.
-532.328 -1136.04 0.
-227.866 -957.762 0.
-202.623 -899.148 0.
-181.811 -848.586 0.
-176.251 -835.799 0.
-170.692 -823.012 0.
-254.58 -895.997 0.
-303.451 -1010.85 0.
-352.323 -1125.71 0.
-510.507 -1195.67 0.
-489.612 -1148.06 0.
-468.717 -1100.45 0.
-389.712 -1072.11 0.
-394.126 -1082.89 0.
-281.704 -1048.64 0.
-295.673 -1081.43 0.
-309.641 -1114.23 0.
-281.261 -1076.3 0.
-219.504 -932.552 0.
-157.747 -788.806 0.
43.8997 -648.309 0.
47.5958 -639.462 0.
51.292 -630.616 0.
-244.751 -793.536 0.
-269.12 -850.234 0.
350.497 160.904 0.
-206.068 -353.98 0.
292.986 809.548 0.
459.335 270.687 0.
145.475 -461.79 0.
168.83 -407.297 0.
-14.0429 -43.1312 0.
-131.392 -317.892 0.
61.3517 130.768 0.
278.783 424.213 0.
63.1674 -79.6412 0.
317.659 513.521 0.
468.908 367.276 0.
81.2885 -537.883 0.
-83.1538 79.7202 0.
33.9636 350.426 0.
-112.186 6.85886 0.
176.913 -289.476 0.
135.711 -386.09 0.
165.476 -317.152 0.
77.2214 -73.2427 0.
149.728 96.4152 0.
159.803 120.464 0.
447.829 257.598 0.
622.804 664.932 0.
63.085 162.506 0.
538.973 836.09 0.
333.539 355.385 0.
629.79 767.548 0.
483.391 424.659 0.
391.574 209.145 0.
828.349 483.942 0.
544.533 -178.353 0.
473.008 -345.34 0.
562.276 434.644 0.
675.725 699.652 0.
98.1604 -647.642 0.
1028.8 978.376 0.
639.7 68.5845 0.
187.308 -260.607 0.
37.1776 -611.918 0.
145.003 -361.398 0.
313.25 -172.706 0.
269.251 -274.934 0.
597.463 491.105 0.
503.036 -42.0209 0.
622.95 237.764 0.
774.715 591.665 0.
848.373 741.802 0.
874.945 802.965 0.
-621.9 -201.552 0.
1132.26 186.578 0.
961.383 -212.619 0.
432.938 291.097 0.
467.64 371.799 0.
176.593 -307.069 0.
893.955 154.539 0.
768.563 -139.421 0.
1320.45 1146.92 0.
-341.6 -1111.96 0.
241.256 248.026 0.
529.984 921.733 0.
721.431 483.379 0.
547.756 81.0021 0.
468.652 -153.249 0.
500.455 -78.9475 0.
661.212 296.34 0.
-287.873 -846.385 0.
311.817 553.56 0.
443.728 861.884 0.
980.461 1225.41 0.
874.716 978.927 0.
570.633 269.575 0.
278.223 162.326 0.
491.673 660.159 0.
-335.679 -33.5031 0.
259.588 -98.4403 0.
789.722 1139 0.
428.646 619.897 0.
248.126 197.933 0.
233.538 163.285 0.
289.592 395.944 0.
395.645 644.802 0.
521.894 940.855 0.
-20.9243 -26.9434 0.
-263.568 -592.404 0.
396.063 947.265 0.
536.097 553.863 0.
438.19 326.056 0.
-19.158 -144.965 0.
406.838 849.242 0.
524.218 1123.39 0.
267.01 550.599 0.
135.671 245.116 0.
159.302 301.225 0.
80.9095 -936.76 0.
527.546 106.057 0.
83.9484 -928.151 0.
-305.14 -582.613 0.
-390.583 -781.467 0.
251.748 -135.535 0.
0.966759 -424.744 0.
-90.9516 -639.906 0.
-88.0718 -811.506 0.
-181.96 -1030.19 0.
-275.847 -1248.87 0.
-472.777 -1373.77 0.
-394.213 -1191.08 0.
-315.649 -1008.38 0.
-353.263 -1028.55 0.
-398.502 -1134.13 0.
-443.741 -1239.7 0.
-160.335 -945.544 0.
-50.4686 -689.106 0.
-218.726 -584.942 0.
-301.319 -778.689 0.
-383.913 -972.435 0.
-193.863 -990.03 0.
-174.96 -946.586 0.
-156.056 -903.142 0.
-180.215 -936.778 0.
-217.609 -1024.13 0.
-255.002 -1111.49 0.
-210.523 -1100.41 0.
-204.926 -1088.96 0.
72.8676 -961 0.
-194.06 -1085.45 0.
-198.208 -1095.61 0.
-123.034 -1087.29 0.
-168.791 -1194 0.
-214.547 -1300.72 0.
-6.41824 -1237.32 0.
22.3014 -1169.98 0.
51.021 -1102.65 0.
-99.5433 -1173.14 0.
-119.806 -1220.79 0.
-140.069 -1268.43 0.
31.6515 -1198.69 0.
33.8005 -1194.56 0.
-187.34 -1291.17 0.
-207.054 -1338.09 0.
-226.767 -1385.02 0.
-208.55 -1400.24 0.
-204.802 -1391.21 0.
-201.053 -1382.17 0.
-136.01 -1363.33 0.
-148.097 -1392.62 0.
-160.184 -1421.9 0.
43.4142 -1308.27 0.
65.5651 -1256.91 0.
-427.364 -1425.81 0.
405.502 -1003.97 0.
439.562 -924.618 0.
12.3225 -1089.3 0.
-61.9089 -1262.21 0.
-136.14 -1435.12 0.
89.9797 -1376.12 0.
140.594 -1259.64 0.
191.209 -1143.16 0.
-322.069 -1263.5 0.
-269.082 -1141.13 0.
-216.096 -1018.76 0.
194.047 -948.167 0.
125.477 -1107.05 0.
-166.663 -1336.44 0.
-124.621 -1237.79 0.
-82.5799 -1139.13 0.
-319.012 -1207.7 0.
-351.831 -1283.44 0.
-384.649 -1359.18 0.
-104.325 -1229.48 0.
-70.9448 -1150.75 0.
-37.5648 -1072.02 0.
-310.308 -1198.17 0.
-324.294 -1230.84 0.
-144.132 -1178.41 0.
-259.539 -1269.16 0.
-280.762 -1319.51 0.
-309.278 -1344.47 0.
-263.175 -1237.41 0.
-217.073 -1130.36 0.
-326.737 -1074.06 0.
-262.689 -923.678 0.
-198.642 -773.297 0.
-346.693 -848.275 0.
-386.085 -939.114 0.
-425.478 -1029.95 0.
-40.6917 -773.79 0.
15.2469 -643.051 0.
-151.919 -633.98 0.
-208.211 -765.162 0.
-264.503 -896.344 0.
-346.131 -984.647 0.
-316.382 -915.165 0.
-286.633 -845.683 0.
60.2769 -650.34 0.
80.353 -602.895 0.
100.429 -555.45 0.
1.4118 -521.499 0.
46.514 -416.199 0.
302.883 -82.2777 0.
308.531 -261.161 0.
216.715 -476.468 0.
-174.031 -817.146 0.
-268.1 -1035.57 0.
-362.169 -1253.99 0.
-319.609 -1276.56 0.
-241.015 -1093.78 0.
-162.421 -910.995 0.
-348.928 -995.749 0.
-394.218 -1101.22 0.
-439.508 -1206.69 0.
-225.867 -941.703 0.
-116.012 -685.4 0.
-20.2764 -468.912 0.
-103.06 -662.606 0.
-185.844 -856.299 0.
-263.198 -988.223 0.
-244.256 -944.722 0.
-225.315 -901.222 0.
-24.9282 -838.365 0.
-62.0492 -925.956 0.
-99.1702 -1013.55 0.
-286.333 -1101.68 0.
-280.658 -1090.24 0.
128.319 -906.177 0.
-66.4899 -999.423 0.
-70.6024 -1009.5 0.
-55.2175 -1026.99 0.
-101.147 -1133.51 0.
-147.076 -1240.03 0.
-108.855 -1250.26 0.
-80.2427 -1182.88 0.
-51.6304 -1115.5 0.
-49.805 -1120.26 0.
-69.9787 -1168 0.
-90.1523 -1215.74 0.
-30.0673 -1193.88 0.
-27.9147 -1189.73 0.
-89.2651 -1217.56 0.
-108.884 -1264.53 0.
-128.504 -1311.49 0.
-185.797 -1359.3 0.
-182.177 -1350.16 0.
-178.556 -1341.02 0.
-209.341 -1363.08 0.
-221.346 -1392.44 0.
-233.351 -1421.79 0.
151.088 -1230.53 0.
173.246 -1179.28 0.
-2010.7 -2072.79 0.
156.146 -1079.34 0.
190.219 -1000.1 0.
238.342 -961.313 0.
164.064 -1134.29 0.
89.7859 -1307.27 0.
-74.1741 -1413.95 0.
-23.4434 -1297.54 0.
27.2873 -1181.12 0.
-201.946 -1181.11 0.
-148.995 -1058.7 0.
-96.0449 -936.292 0.
317.249 -863.949 0.
248.814 -1022.99 0.
-307.455 -1364.63 0.
-265.395 -1265.95 0.
-223.336 -1167.28 0.
-151.359 -1104.04 0.
-184.003 -1179.96 0.
-216.647 -1255.87 0.
-128.3 -1208.9 0.
-94.9361 -1130.18 0.
-61.5726 -1051.45 0.
-300.656 -1162.54 0.
-314.669 -1195.15 0.
134.253 -1028.1 0.
-265.282 -1240.58 0.
-286.411 -1290.97 0.
-164.32 -1250.98 0.
-118.183 -1143.79 0.
-72.047 -1036.6 0.
-292.939 -1028.17 0.
-228.912 -877.762 0.
-164.884 -727.352 0.
-297.878 -795.443 0.
-337.374 -886.194 0.
-376.87 -976.945 0.
-33.4491 -739.975 0.
22.4372 -609.086 0.
-41.1438 -555.016 0.
-97.3083 -686.35 0.
-153.473 -817.683 0.
-274.548 -922.176 0.
-244.523 -852.887 0.
-214.497 -783.598 0.
-98.8813 -687.106 0.
-78.7732 -639.714 0.
-58.665 -592.321 0.
361.337 -335.951 0.
406.531 -230.969 0.
-189.514 -1050.9 0.
33.0768 -858.319 0.
86.6391 -731.32 0.
-173.464 -745.265 0.
-134.204 -654.774 0.
-94.9445 -564.283 0.
30.8842 -555.084 0.
-78.8714 -810.663 0.
-188.627 -1066.24 0.
-422.348 -1153.29 0.
-351.617 -988.53 0.
-280.885 -823.767 0.
-185.906 -821.325 0.
-219.736 -900.13 0.
-165.621 -930.074 0.
-124.804 -834.03 0.
-83.9869 -737.987 0.
-211.173 -796.829 0.
-311.175 -1029.82 0.
-411.177 -1262.81 0.
-140.822 -1208.81 0.
-114.316 -1147.28 0.
-87.8086 -1085.75 0.
-287.762 -1100.64 0.
-245.847 -1001.52 0.
114.05 -766.141 0.
8.85813 -847.737 0.
-14.1505 -900.961 0.
30.1118 -914.619 0.
42.4569 -885.948 0.
54.8021 -857.277 0.
53.0467 -774.754 0.
135.916 -582.957 0.
218.785 -391.159 0.
195.224 -495.69 0.
79.7997 -765.379 0.
-35.6247 -1035.07 0.
99.2675 -975.218 0.
114.063 -940.06 0.
114.076 -921.614 0.
75.8416 -1010.63 0.
37.6076 -1099.64 0.
-136.475 -1197.21 0.
-96.4413 -1103.83 0.
-56.4076 -1010.44 0.
-55.8019 -1017.44 0.
-94.395 -1107.58 0.
-132.988 -1197.72 0.
308.072 -942.119 0.
365.257 -808.359 0.
-2309.74 -1846.33 0.
185.319 -946.588 0.
96.6208 -1153.81 0.
166.345 -1240.67 0.
199.167 -1164.42 0.
231.988 -1088.18 0.
-21.3918 -1139.97 0.
4.49425 -1077.98 0.
30.3803 -1016 0.
-134.675 -1149.02 0.
-197.404 -1294.24 0.
-260.132 -1439.45 0.
196.329 -1174.1 0.
244.994 -1060.05 0.
-246.258 -1181.32 0.
-217.194 -1113.91 0.
-188.13 -1046.51 0.
-8.40984 -913.017 0.
21.8537 -841.944 0.
52.1171 -770.872 0.
9.83576 -738.724 0.
29.6064 -693.527 0.
49.3772 -648.33 0.
-162.205 -846.682 0.
-237.238 -1023.35 0.
140.44 -1007.95 0.
-170.969 -1056.77 0.
-126.588 -953.126 0.
69.3401 -817.814 0.
28.5609 -911.234 0.
-12.2182 -1004.65 0.
-361.067 -1179.67 0.
-342.728 -1137.38 0.
-324.388 -1095.08 0.
-315.116 -1034.09 0.
-280.808 -954.675 0.
-246.5 -875.263 0.
-244.63 -993.849 0.
-316.908 -1162.68 0.
-234.292 -1231.18 0.
-177.003 -1097.55 0.
-119.715 -963.917 0.
-329.971 -986.904 0.
-333.799 -995.955 0.
-337.626 -1005.01 0.
-242.387 -936.461 0.
-214.791 -872.289 0.
-187.196 -808.118 0.
256.405 -675.533 0.
210.039 -784.423 0.
-402.695 -1111.45 0.
-283.376 -962.322 0.
-229.947 -835.366 0.
-128.337 -694.965 0.
-89.3217 -604.261 0.
-50.3061 -513.556 0.
15.4062 -530.408 0.
-94.3074 -786.005 0.
-204.021 -1041.6 0.
-412.265 -1117.82 0.
-341.49 -953.085 0.
-270.714 -788.345 0.
-114.098 -759.459 0.
-147.83 -838.197 0.
-200.803 -913.006 0.
-159.863 -817.035 0.
-118.924 -721.064 0.
-187.524 -755.555 0.
-287.482 -988.423 0.
-387.44 -1221.29 0.
-157.291 -1184.14 0.
-130.731 -1122.77 0.
-104.172 -1061.4 0.
-186.595 -1025.74 0.
-144.473 -926.799 0.
-409.449 -959.609 0.
-57.0787 -844.182 0.
-80.0532 -897.389 0.
83.2302 -860.857 0.
95.3541 -831.963 0.
107.478 -803.07 0.
87.0593 -729.484 0.
169.506 -537.369 0.
251.952 -345.254 0.
122.501 -495.749 0.
7.04388 -765.419 0.
-108.413 -1035.09 0.
275.004 -868.54 0.
289.949 -833.453 0.
234.571 -838.968 0.
196.216 -927.841 0.
157.861 -1016.71 0.
-175.692 -1182.83 0.
-135.84 -1089.44 0.
-95.9887 -996.05 0.
63.1036 -934.997 0.
24.4871 -1025.38 0.
-14.1294 -1115.76 0.
314.091 -907.994 0.
371.421 -774.431 0.
1.22214 -824.157 0.
396.506 -824.282 0.
307.939 -1031.62 0.
93.4081 -1241.31 0.
126.126 -1164.92 0.
158.843 -1088.53 0.
9.46681 -1094.89 0.
35.3037 -1032.94 0.
61.1406 -970.993 0.
-90.6903 -1099.07 0.
-153.452 -1244.08 0.
-216.214 -1389.08 0.
140.374 -1166.27 0.
189.05 -1052.18 0.
-117.083 -1094.32 0.
-88.005 -1026.89 0.
-58.9266 -959.465 0.
10.1168 -873.501 0.
40.4283 -802.395 0.
70.7398 -731.29 0.
-89.3636 -750.433 0.
-69.5392 -705.308 0.
-49.7147 -660.182 0.
-129.738 -801.511 0.
-204.709 -978.245 0.
242.756 -932.207 0.
-91.3585 -990.993 0.
-46.9338 -887.497 0.
66.4474 -787.977 0.
25.967 -881.468 0.
-14.5133 -974.96 0.
-369.12 -1151.79 0.
-350.845 -1109.4 0.
-332.57 -1067.01 0.
-124.302 -920.675 0.
-90.0644 -841.153 0.
-55.8267 -761.631 0.
-462.785 -1056.37 0.
-535.13 -1225 0.
-81.805 -1135.12 0.
-24.4192 -1001.39 0.
32.9665 -867.665 0.
-439.222 -1001.96 0.
-442.915 -1011.12 0.
-446.607 -1020.27 0.
-143.98 -863.085 0.
-116.507 -798.791 0.
-89.0343 -734.496 0.
43.2708 -735.982 0.
-3.12399 -844.951 0.
333.188 1051.27 0.
-221.867 -191.981 0.
-379.013 -561.657 0.
249.722 135.05 0.
255.068 146.666 0.
397.499 478.404 0.
524.272 718.807 0.
434.947 508.667 0.
119.882 -228.35 0.
-196.241 -599.749 0.
170.656 256.052 0.
521.688 1075.04 0.
338.373 190.053 0.
338.252 191.336 0.
364.525 502.952 0.
71.4475 -180.924 0.
180.718 74.2584 0.
77.4609 -153.246 0.
-44.128 -436.115 0.
60.6339 -190.91 0.
279.851 -100.816 0.
165.991 -366.968 0.
224.027 -232.035 0.
180.988 -328.819 0.
542.618 514.841 0.
198.151 304.867 0.
112.518 -293.157 0.
248.269 22.5659 0.
567.222 201.871 0.
559.216 182.031 0.
635.917 359.996 0.
405.497 -19.1379 0.
366.485 -110.395 0.
563.15 348.21 0.
620.763 831.25 0.
330.444 154.803 0.
96.1932 -390.991 0.
756.361 -44.241 0.
937.951 380.032 0.
576.23 -240.821 0.
774.925 223.077 0.
586.684 -215.869 0.
105.327 -419.935 0.
370.891 198.631 0.
616.867 771.539 0.
942.096 921.704 0.
697.547 350.543 0.
675.716 299.205 0.
829.216 320.502 0.
1073.28 889.995 0.
455.711 386.136 0.
1203.08 683.969 0.
1152.79 566.193 0.
754.153 473.136 0.
794.419 565.922 0.
753.617 469.651 0.
660.957 398.491 0.
891.983 936.32 0.
413.741 -180.606 0.
321.186 -183.393 0.
738.156 788.112 0.
850.827 1049.46 0.
507.608 -172.054 0.
437.439 -335.856 0.
850.275 949.172 0.
779.576 784.119 0.
473.027 68.8714 0.
-12.8788 -929.682 0.
367.928 -40.1976 0.
846.367 1077.13 0.
468.992 768.171 0.
367.37 530.867 0.
230.214 210.606 0.
337.565 249.106 0.
275.672 105.527 0.
683.361 53.8049 0.
403.128 43.2066 0.
600.084 503.685 0.
415.671 65.126 0.
452.67 151.203 0.
693.156 711.951 0.
275.128 393.585 0.
146.552 94.0931 0.
-38.8024 -337.785 0.
375.819 -80.5385 0.
409.273 -1.36781 0.
765.206 830.194 0.
-251.401 -128.27 0.
-460.561 -614.559 0.
930.799 974.363 0.
443.631 -159.885 0.
564.035 123.33 0.
430.501 1256.4 0.
50.5684 372.113 0.
440.609 1284.28 0.
703.627 962.546 0.
388.356 226.463 0.
389.017 228.095 0.
207.199 72.8686 0.
211.374 82.6739 0.
-305.819 -690.851 0.
-292.457 -723.467 0.
-309.799 -766.366 0.
-164.739 -733.601 0.
-176.346 -761.09 0.
-187.952 -788.579 0.
-179.235 -816.838 0.
-198.531 -862.822 0.
-217.827 -908.806 0.
-374.038 -1023.14 0.
-402.881 -1090.64 0.
-431.723 -1158.15 0.
-174.223 -1042.96 0.
-166.004 -1023.54 0.
-202.332 -1017.38 0.
-169.528 -941.008 0.
-136.724 -864.633 0.
-84.2317 -777.076 0.
-48.8227 -694.241 0.
-13.4138 -611.406 0.
27.4537 -716.429 0.
-121.116 -1063.8 0.
-269.686 -1411.17 0.
-417.645 -1425.59 0.
-338.751 -1241.57 0.
-85.2495 -982.676 0.
-261.063 -1100.98 0.
-282.533 -1150.82 0.
19.8425 -1043.33 0.
36.7825 -1004.52 0.
53.7224 -965.716 0.
137.783 -965.606 0.
71.2561 -1121.81 0.
4.7291 -1278.01 0.
-109.573 -1245.58 0.
-10.9936 -1015.18 0.
87.5857 -784.78 0.
267.187 -744.414 0.
234.199 -821.41 0.
264.026 -861.31 0.
284.21 -815.052 0.
304.394 -768.794 0.
1.91957 -926.024 0.
-81.3162 -1120.85 0.
-164.552 -1315.68 0.
3.28282 -1243.25 0.
69.9047 -1087.89 0.
136.527 -932.524 0.
154.57 -1013.89 0.
75.3874 -1198.58 0.
-1319.73 -1947.53 0.
487.063 -1062.42 0.
545.271 -926.822 0.
101.537 -1007.68 0.
157.904 -877.362 0.
214.271 -747.043 0.
207.039 -774.302 0.
113.748 -992.075 0.
20.4566 -1209.85 0.
-143.647 -1244.71 0.
-70.3783 -1074.57 0.
2.89084 -904.438 0.
95.5835 -875.687 0.
80.3563 -912.25 0.
89.8967 -941.329 0.
57.29 -1016.8 0.
24.6832 -1092.27 0.
-88.9751 -1164.16 0.
-65.1446 -1107.89 0.
-41.3141 -1051.61 0.
-160.405 -1084.76 0.
-158.928 -1080.24 0.
-157.45 -1075.72 0.
-251.253 -1012.26 0.
-184.322 -854.795 0.
355.248 -494.481 0.
-16.783 -740.589 0.
-62.8584 -847.014 0.
-10.1803 -877.055 0.
28.5323 -787.398 0.
67.2449 -697.741 0.
-244.537 -823.446 0.
-279.419 -903.901 0.
-314.301 -984.356 0.
34.7174 -881.531 0.
14.8585 -926.947 0.
-5.00031 -972.363 0.
-484.458 -1115.13 0.
-447.553 -1028.27 0.
0.699977 -770.486 0.
19.1667 -726.027 0.
37.6333 -681.568 0.
-242.875 -758.616 0.
-216.275 -695.761 0.
-189.675 -632.906 0.
-91.5213 -615.826 0.
-133.305 -713.242 0.
-175.088 -810.658 0.
-154.288 -853.219 0.
-176.948 -906.33 0.
-156.826 -594.508 0.
-83.2686 -602.443 0.
-100.632 -645.377 0.
-199.733 -716.944 0.
-211.468 -744.344 0.
-223.203 -771.745 0.
-219.42 -802.702 0.
-238.857 -848.566 0.
-258.295 -894.429 0.
-353.414 -983.852 0.
-382.486 -1051.18 0.
-411.558 -1118.5 0.
-138.719 -996.171 0.
-130.359 -976.75 0.
-81.5285 -933.995 0.
-48.6915 -857.623 0.
-15.8546 -781.25 0.
62.5447 -682.207 0.
98.2425 -599.477 0.
133.94 -516.748 0.
58.0531 -671.795 0.
-90.3962 -1019.36 0.
-238.846 -1366.92 0.
-559.256 -1454.66 0.
-480.383 -1270.68 0.
560.164 -674.653 0.
-277.518 -1075.88 0.
-299.347 -1125.52 0.
20.5923 -1012.74 0.
37.3374 -973.75 0.
54.0825 -934.762 0.
322.247 -855.611 0.
255.695 -1011.86 0.
189.143 -1168.11 0.
103.547 -1121.24 0.
202.286 -891.105 0.
301.026 -660.968 0.
51.7485 -806.014 0.
18.82 -882.963 0.
224.135 -847.368 0.
244.618 -801.266 0.
265.1 -755.165 0.
157.114 -828.021 0.
73.7579 -1022.82 0.
-9.59859 -1217.61 0.
5.96782 -1210.87 0.
72.7068 -1055.63 0.
139.446 -900.392 0.
45.719 -1029.24 0.
-33.4341 -1213.9 0.
-725.441 -1660.92 0.
543.662 -1006.29 0.
602.07 -870.747 0.
97.1089 -978.416 0.
153.434 -848.223 0.
209.759 -718.029 0.
283.197 -709.65 0.
189.911 -927.537 0.
96.6249 -1145.42 0.
-140.191 -1212.18 0.
-67.189 -1041.92 0.
5.81343 -871.655 0.
-23.564 -895.287 0.
-39.0033 -931.733 0.
168.116 -876.502 0.
135.546 -951.909 0.
102.975 -1027.32 0.
-42.3911 -1112.82 0.
-18.7227 -1056.41 0.
4.94563 -1000.01 0.
57.3483 -960.636 0.
58.852 -956.04 0.
60.356 -951.444 0.
-294.305 -999.394 0.
-227.108 -842.087 0.
302.588 -485.302 0.
-104.584 -746.754 0.
-150.513 -853.38 0.
-20.4489 -850.141 0.
18.3387 -760.565 0.
57.1264 -670.989 0.
-226.288 -784.689 0.
-261.197 -865.131 0.
-296.106 -945.572 0.
53.8903 -841.139 0.
34.119 -886.552 0.
14.3477 -931.964 0.
-235.446 -977.297 0.
-198.604 -890.297 0.
-205.885 -827.957 0.
-187.312 -783.469 0.
-168.74 -738.982 0.
8.341 -619.208 0.
35.0879 -556.442 0.
61.8347 -493.677 0.
-220.716 -640.029 0.
-262.542 -737.493 0.
-304.369 -834.957 0.
-94.3908 -796.379 0.
-117.025 -849.788 0.
173.387 37.7378 0.
124.37 -177.726 0.
20.1218 -418.423 0.
-220.063 -687.044 0.
-242.877 -740.417 0.
-265.692 -793.79 0.
-210.739 -739.206 0.
-141.781 -577.628 0.
-72.8224 -416.05 0.
-116.178 -455.1 0.
-169.457 -579.891 0.
-222.737 -704.681 0.
86.7968 -675.463 0.
31.0602 -804.629 0.
-73.2122 -946.978 0.
-92.2785 -990.257 0.
-111.345 -1033.54 0.
0.82031 -974.793 0.
59.0152 -838.021 0.
117.21 -701.25 0.
33.8765 -657.143 0.
60.3428 -594.202 0.
86.8092 -531.261 0.
-335.908 -780.515 0.
-388.484 -902.574 0.
430.821 -650.899 0.
-117.121 -859.586 0.
-105.541 -833.2 0.
94.774 -753.44 0.
42.1758 -876.927 0.
-10.4224 -1000.41 0.
331.246 -891.968 0.
353.255 -840.15 0.
375.264 -788.332 0.
228.822 -839.099 0.
229.744 -837.418 0.
230.667 -835.737 0.
21.7359 -887.138 0.
42.2536 -838.753 0.
266.584 -715.175 0.
218.974 -824.893 0.
171.365 -934.61 0.
123.698 -994.855 0.
155.156 -921.257 0.
186.614 -847.659 0.
136.057 -865.988 0.
113.805 -917.729 0.
91.5518 -969.47 0.
161.174 -781.431 0.
275.383 -516.01 0.
-444.316 -607.573 0.
874.305 -314.823 0.
730.847 -648.584 0.
29.2231 -1149.71 0.
47.5107 -1107.16 0.
65.7982 -1064.61 0.
173.26 -998.114 0.
175.895 -992.546 0.
178.53 -986.978 0.
-94.3709 -1045.97 0.
-48.6525 -939.435 0.
-2.93423 -832.9 0.
55.5517 -762.876 0.
76.2126 -713.111 0.
310.957 -586.511 0.
270.662 -680.624 0.
230.366 -774.736 0.
62.7801 -875.314 0.
98.8315 -791.726 0.
134.883 -708.137 0.
274.811 -538.461 0.
343.454 -378.203 0.
412.097 -217.945 0.
-48.7578 -476.449 0.
-107.79 -613.794 0.
248.304 -577.157 0.
-111.119 -706.631 0.
-97.9468 -676.508 0.
16.9016 -594.315 0.
39.2938 -542.63 0.
61.6861 -490.946 0.
-139.833 -682.383 0.
-282.859 -1016.76 0.
-425.886 -1351.15 0.
-139.142 -1214.87 0.
-64.3615 -1040.64 0.
10.4195 -866.418 0.
-89.58 -902.994 0.
-90.7168 -906.827 0.
-326.122 -993.66 0.
-269.933 -863.314 0.
-213.743 -732.968 0.
104.203 -568.064 0.
46.0525 -704.642 0.
-12.0979 -841.219 0.
-392.669 -967.253 0.
-314.957 -786.578 0.
-237.245 -605.902 0.
155.171 -253.2 0.
256.192 -15.9376 0.
189.318 74.7339 0.
15.2336 -193.269 0.
-88.8461 -434.007 0.
-231.716 -660.645 0.
-254.649 -713.962 0.
-277.582 -767.278 0.
-183.512 -695.97 0.
-114.437 -534.457 0.
-45.362 -372.944 0.
-80.6516 -409.159 0.
-133.938 -533.839 0.
-187.225 -658.52 0.
296.926 -553.205 0.
241.136 -682.419 0.
-124.676 -937.79 0.
-143.893 -981.074 0.
-163.11 -1024.36 0.
42.4493 -925.582 0.
100.725 -788.908 0.
159.001 -652.234 0.
-38.2075 -656.468 0.
-11.4444 -593.709 0.
15.3187 -530.949 0.
-320.202 -741.454 0.
-372.61 -863.607 0.
67.8394 -774.488 0.
99.5032 -735.679 0.
111.077 -709.091 0.
36.3578 -747.299 0.
-16.2616 -870.62 0.
-68.881 -993.941 0.
239.259 -900.79 0.
261.226 -848.89 0.
283.193 -796.991 0.
65.1976 -876.904 0.
65.9849 -875.234 0.
66.7722 -873.563 0.
276.953 -746.703 0.
297.51 -698.345 0.
298.844 -670.489 0.
250.984 -779.808 0.
203.123 -889.126 0.
89.7125 -978.384 0.
121.12 -904.557 0.
152.527 -830.729 0.
123.256 -839.862 0.
100.986 -891.438 0.
78.7167 -943.013 0.
313.65 -685.021 0.
427.705 -419.369 0.
-567.936 -628.877 0.
939.39 -255.026 0.
795.723 -588.764 0.
75.8874 -1098.57 0.
94.0313 -1055.97 0.
112.175 -1013.38 0.
164.561 -971.043 0.
167.212 -965.463 0.
169.863 -959.882 0.
-130.6 -1030.22 0.
-84.7342 -923.874 0.
-38.8683 -817.527 0.
262.418 -642.528 0.
283.093 -592.885 0.
312.744 -553.304 0.
272.542 -647.471 0.
232.339 -741.639 0.
57.2548 -846.084 0.
93.3021 -762.633 0.
129.35 -679.181 0.
183.06 -546.584 0.
251.682 -386.232 0.
320.303 -225.88 0.
79.6545 -390.268 0.
20.6178 -527.601 0.
268.945 -536.142 0.
-49.0095 -648.026 0.
-35.8595 -618.075 0.
-115.768 -619.807 0.
-93.498 -568.028 0.
-71.2279 -516.248 0.
-18.7404 -599.13 0.
-161.753 -933.637 0.
-304.765 -1268.14 0.
-201.041 -1209.33 0.
-126.245 -1035.21 0.
-51.4495 -861.087 0.
-19.356 -842.009 0.
-20.4978 -845.782 0.
-213.529 -914.318 0.
-157.352 -783.885 0.
-101.176 -653.453 0.
71.2326 -550.767 0.
12.9493 -687.296 0.
-45.3342 -823.825 0.
-313.001 -902.132 0.
-235.234 -721.59 0.
-157.468 -541.048 0.
176.995 -212.482 0.
277.704 24.6009 0.
440.597 668.437 0.
361.209 848.746 0.
-7.51646 -12.4508 0.
345.934 737.668 0.
16.3173 -31.839 0.
34.5192 10.0522 0.
577.163 1058.26 0.
790.045 1554.44 0.
240.491 271.58 0.
147.388 83.5272 0.
52.0643 -138.1 0.
-11.0209 -284.463 0.
668.614 -47.3143 0.
915.285 529.419 0.
584.915 850.208 0.
261.125 94.0393 0.
286.271 152.379 0.
496.751 83.8684 0.
358.384 -238.65 0.
362.398 -228.661 0.
10.9635 -370.685 0.
126.969 -99.4656 0.
155.097 -33.2469 0.
-225.04 -521.571 0.
351.178 821.347 0.
110.828 -205.588 0.
503.492 -174.162 0.
620.301 97.0952 0.
349.64 120.728 0.
380.406 192.997 0.
410.027 262.696 0.
405.605 -303.147 0.
636.978 237.443 0.
533.392 -3.5111 0.
39.1498 -599.2 0.
179.545 -270.514 0.
243.921 -119.223 0.
885.968 222.059 0.
1102.31 728.293 0.
739.422 328.855 0.
669.252 169.268 0.
490.925 -242.682 0.
246.169 -520.109 0.
391.646 -179.251 0.
439.411 -66.386 0.
632.05 402.719 0.
527.539 159.433 0.
511.789 123.189 0.
647.82 -161.002 0.
656.635 -142.094 0.
-349.45 -1317.07 0.
1134.3 103.872 0.
1169.75 187.85 0.
565.842 -11.3343 0.
600.249 69.2494 0.
516.965 -124.791 0.
637.592 181.64 0.
717.719 367.717 0.
435.032 -292.699 0.
159.473 -255.316 0.
336.936 157.973 0.
640.304 865.028 0.
682.157 -23.8694 0.
829.362 319.29 0.
870.89 776.426 0.
766.149 533.121 0.
697.51 374.04 0.
310.32 -214.299 0.
717.87 735.557 0.
396.626 -15.0828 0.
67.1919 -613.568 0.
348.928 45.2881 0.
371.578 99.7776 0.
97.4927 -569.069 0.
55.8479 -666.18 0.
808.662 916.571 0.
-29.4397 -686.72 0.
158.028 -249.425 0.
197.056 392.73 0.
56.7941 65.3276 0.
252.213 521.07 0.
106.693 -510.673 0.
161.698 -380.837 0.
180.436 -335.651 0.
-3.07519 -602.344 0.
484.385 534.822 0.
170.313 -198.194 0.
394.325 23.3748 0.
175.611 -487.212 0.
380.218 288.272 0.
455.371 463.178 0.
662.315 945.525 0.
664.353 926.254 0.
153.842 -266.571 0.
317.796 114.769 0.
669.305 1271.51 0.
376.699 588.437 0.
50.209 -174.179 0.
-209.77 -1128.29 0.
365.941 212.204 0.
19.9276 -368.455 0.
-153.561 -488.547 0.
-173.465 -535.931 0.
-148.164 -536.322 0.
-97.8647 -419.868 0.
-47.5657 -303.414 0.
16.3488 -292.048 0.
-70.7261 -495.153 0.
-157.801 -698.258 0.
-141.276 -760.57 0.
-151.391 -783.848 0.
-161.507 -807.126 0.
257.606 -655.98 0.
243.145 -689.786 0.
-81.177 -852.864 0.
-81.6994 -855.565 0.
-82.2217 -858.265 0.
182.861 -742.409 0.
186.709 -733.867 0.
190.557 -725.325 0.
-207.59 -885.822 0.
-198.823 -865.223 0.
-190.056 -844.624 0.
-353.311 -969.474 0.
-394.985 -1067.98 0.
-106.106 -1024.95 0.
164.698 -811.468 0.
220.336 -681.639 0.
87.3714 -670.151 0.
35.2706 -790.807 0.
-16.8302 -911.463 0.
197.151 -838.745 0.
242.644 -731.974 0.
288.137 -625.203 0.
43.4547 -749.185 0.
3.75374 -841.741 0.
-35.9471 -934.296 0.
486.146 -714.951 0.
489.406 -706.871 0.
129.406 -848.738 0.
161.346 -775.917 0.
193.285 -703.095 0.
18.3054 -753.41 0.
-4.37454 -806.672 0.
-27.0545 -859.933 0.
209.554 -760.385 0.
225.697 -723.166 0.
241.84 -685.947 0.
474.633 -697.819 0.
395.492 -884.033 0.
-420.737 -1386.66 0.
823.411 -637.368 0.
936.111 -373.212 0.
279.587 -500.193 0.
252.361 -563.469 0.
225.134 -626.745 0.
219.63 -596.847 0.
289.466 -433.225 0.
359.301 -269.604 0.
175.962 -410.818 0.
92.2902 -605.629 0.
8.61826 -800.44 0.
291.678 -676.322 0.
302.983 -651.153 0.
248.919 -653.577 0.
264.678 -616.368 0.
280.436 -579.159 0.
161.608 -629.727 0.
128.885 -706.263 0.
96.1608 -782.799 0.
52.6174 -874.717 0.
13.3108 -966.085 0.
-25.9958 -1057.45 0.
-100.023 -947.9 0.
4.28272 -705.632 0.
632.477 -236.45 0.
133.923 -387.721 0.
166.426 -311.37 0.
21.2538 -376.709 0.
-82.113 -618.522 0.
-185.48 -860.334 0.
-11.7818 -773.976 0.
122.593 -459.735 0.
256.969 -145.493 0.
265.276 -199.286 0.
159.619 -445.916 0.
53.9617 -692.546 0.
-148.346 -822.84 0.
-163.848 -859.599 0.
-79.645 -845.702 0.
-56.4472 -792.017 0.
-33.2493 -738.332 0.
-135.51 -730.156 0.
-98.4635 -644.614 0.
-61.4175 -559.072 0.
-9.0716 -486.494 0.
10.3331 -441.375 0.
29.7378 -396.256 0.
3.32393 -453.042 0.
-30.349 -533.496 0.
64.8177 -319.398 0.
-65.2019 -419.761 0.
-85.0301 -467.11 0.
-67.7962 -470.54 0.
-17.3185 -354.21 0.
33.1591 -237.88 0.
54.4682 -243.911 0.
-32.557 -447.049 0.
-119.582 -650.187 0.
-35.3036 -684.18 0.
-45.1111 -707.786 0.
-54.9187 -731.391 0.
88.8261 -696.2 0.
74.4199 -730.149 0.
15.6856 -779.823 0.
15.0556 -782.311 0.
14.4256 -784.799 0.
249.349 -683.372 0.
253.255 -674.777 0.
257.16 -666.181 0.
-188.42 -845.847 0.
-179.646 -825.248 0.
-170.872 -804.648 0.
-258.09 -897.41 0.
-300.178 -995.551 0.
599.583 -690.4 0.
99.7945 -808.743 0.
155.391 -678.838 0.
198.02 -591.098 0.
145.978 -711.813 0.
93.9364 -832.527 0.
238.36 -790.042 0.
283.911 -683.237 0.
329.462 -576.432 0.
145.342 -673.088 0.
105.498 -765.548 0.
65.6538 -858.009 0.
503.77 -676.99 0.
506.94 -668.895 0.
20.3709 -864.381 0.
52.1773 -791.285 0.
83.9838 -718.189 0.
-119.873 -781.4 0.
-142.351 -834.642 0.
-164.829 -887.884 0.
318.663 -682.516 0.
334.85 -645.302 0.
351.038 -608.089 0.
565.237 -627.869 0.
485.975 -813.98 0.
-461.158 -1372.38 0.
846.534 -595.849 0.
959.209 -331.807 0.
203.036 -502.003 0.
175.7 -565.354 0.
148.364 -628.704 0.
132.636 -602.91 0.
202.13 -438.946 0.
271.624 -274.982 0.
293.135 -329.613 0.
209.423 -524.563 0.
125.711 -719.513 0.
173.955 -694.937 0.
185.208 -669.491 0.
254.731 -619.336 0.
270.652 -582.311 0.
286.574 -545.286 0.
214.485 -575.641 0.
181.787 -652.301 0.
149.09 -728.96 0.
188.335 -785.148 0.
149.13 -876.596 0.
109.925 -968.043 0.
-124.595 -926.779 0.
-20.1346 -684.679 0.
563.688 -234.155 0.
192.354 -331.241 0.
224.901 -255.092 0.
225.885 -257.891 0.
122.377 -499.616 0.
18.8684 -741.341 0.
-1.4728 -738.013 0.
133.183 -423.962 0.
267.839 -109.911 0.
397.912 -110.518 0.
292.29 -357.317 0.
186.669 -604.115 0.
-353.106 -880.05 0.
-368.519 -916.81 0.
-32.4067 -793.953 0.
-9.15498 -740.24 0.
14.0967 -686.528 0.
-228.428 -738.552 0.
-191.52 -652.769 0.
-154.611 -566.987 0.
98.1585 -409.15 0.
117.592 -364.05 0.
137.026 -318.951 0.
-73.8647 -454.833 0.
-107.741 -535.099 0.
157.487 -134.638 0.
-68.1364 -288.787 0.
-92.5104 -345.567 0.
-27.0581 -367.971 0.
-66.0028 -458.894 0.
-104.947 -549.817 0.
-69.9423 -599.571 0.
-97.7592 -664.086 0.
-125.576 -728.601 0.
-48.619 -701.248 0.
-37.9839 -676.328 0.
-27.3489 -651.408 0.
200.128 -407.757 0.
286.565 -204.903 0.
364.392 -34.1779 0.
288.662 -210.597 0.
212.932 -387.016 0.
269.005 -493.115 0.
217.478 -612.64 0.
165.951 -732.166 0.
-81.1419 -792.442 0.
5.79456 -589.912 0.
92.7309 -387.382 0.
-116.86 -515.311 0.
-166.566 -631.433 0.
705.771 -352.416 0.
194.695 -690.949 0.
128.957 -843.948 0.
66.1487 -941.476 0.
140.959 -766.713 0.
215.77 -591.95 0.
295.968 -506.77 0.
262.316 -585.13 0.
228.664 -663.489 0.
185.635 -618.416 0.
255.374 -456.106 0.
325.114 -293.796 0.
703.24 -272.777 0.
608.833 -493.786 0.
-2.50429 -916.684 0.
7.55321 -893.217 0.
17.6108 -869.751 0.
-103.485 -857.239 0.
-26.5277 -676.12 0.
50.4297 -495.001 0.
470.2 -380.184 0.
346.024 -669.448 0.
221.849 -958.713 0.
427.75 -944.461 0.
413.099 -978.298 0.
-646.202 -1460.12 0.
726.153 -849.85 0.
738.777 -822.037 0.
-94.9428 -1154.24 0.
-81.072 -1123.6 0.
-67.2011 -1092.95 0.
-111.161 -1143.26 0.
-161.996 -1264.08 0.
-212.831 -1384.9 0.
-92.3168 -1360.41 0.
-88.5768 -1351.73 0.
-84.8368 -1343.06 0.
-10.6439 -1169.52 0.
73.8242 -972.548 0.
60.967 -832.943 0.
75.2352 -799.178 0.
89.5034 -765.412 0.
127.954 -761.73 0.
77.1922 -880.034 0.
26.43 -998.338 0.
119.084 -994.78 0.
123.82 -983.604 0.
128.556 -972.427 0.
-44.1826 -924.223 0.
34.3859 -740.074 0.
249.218 -498.866 0.
-39.6897 -724.622 0.
-92.9507 -849.398 0.
100.787 -841.437 0.
110.442 -818.208 0.
120.098 -794.979 0.
-39.4952 -852.253 0.
-39.3702 -852.305 0.
-39.2453 -852.357 0.
168.563 -646.604 0.
259.827 -433.342 0.
351.091 -220.079 0.
-127.246 -407.152 0.
-125.136 -401.111 0.
137.053 -292.997 0.
103.213 -371.944 0.
69.3729 -450.891 0.
-199.792 -576.292 0.
-156.152 -473.43 0.
-112.513 -370.568 0.
92.2704 -303.853 0.
39.9788 -425.946 0.
-12.3127 -548.038 0.
-78.8064 -507.035 0.
-18.9184 -366.664 0.
167.439 -98.7301 0.
-263.925 -341.579 0.
-288.251 -398.222 0.
-82.736 -360.693 0.
-121.65 -451.63 0.
-160.564 -542.566 0.
-11.1828 -542.874 0.
-38.948 -607.403 0.
-66.7133 -671.931 0.
-135.943 -707.478 0.
-125.259 -682.644 0.
-114.576 -657.81 0.
369.885 -303.539 0.
456.577 -100.809 0.
367.416 -1.16635 0.
291.855 -177.555 0.
216.295 -353.943 0.
85.7715 -541.043 0.
34.2594 -660.482 0.
-17.2528 -779.921 0.
126.479 -672.405 0.
213.425 -469.86 0.
300.371 -267.316 0.
-229.25 -530.982 0.
-278.788 -647.301 0.
552.169 -386.54 0.
401.155 -571.718 0.
335.477 -724.758 0.
34.0241 -923.422 0.
109.044 -748.73 0.
184.063 -574.039 0.
135.112 -544.494 0.
101.707 -622.884 0.
68.3021 -701.274 0.
159.842 -597.199 0.
229.736 -434.942 0.
299.63 -272.685 0.
783.498 -207.611 0.
689.11 -428.489 0.
132.783 -826.803 0.
142.817 -803.273 0.
152.851 -779.744 0.
181.607 -705.176 0.
258.394 -523.919 0.
335.181 -342.663 0.
448.809 -357.232 0.
324.387 -646.44 0.
199.965 -935.647 0.
357.387 -943.43 0.
342.878 -977.33 0.
346.254 -1003.5 0.
718.584 -821.131 0.
730.766 -792.865 0.
-30.5384 -1095.02 0.
-16.7832 -1064.21 0.
-3.02783 -1033.4 0.
-19.8439 -1073.26 0.
-70.884 -1193.95 0.
-121.924 -1314.64 0.
-34.1593 -1304.02 0.
-30.416 -1295.35 0.
-26.6727 -1286.67 0.
188.144 -1052.72 0.
272.806 -855.714 0.
-161.75 -896.987 0.
-147.553 -863.078 0.
-133.357 -829.17 0.
91.1757 -746.803 0.
40.385 -865.075 0.
-10.4058 -983.348 0.
67.8663 -985.072 0.
72.4778 -973.895 0.
77.0893 -962.717 0.
210.948 -783.08 0.
289.384 -598.881 0.
-5.36084 -576.36 0.
-215.446 -768.621 0.
-268.76 -893.288 0.
229.9 -755.436 0.
239.602 -732.345 0.
249.303 -709.254 0.
11.4642 -799.336 0.
11.551 -799.3 0.
11.6377 -799.264 0.
73.2675 -655.837 0.
164.827 -442.905 0.
256.387 -229.974 0.
158.885 -252.221 0.
161.18 -246.266 0.
13.9151 -314.429 0.
-19.9644 -393.253 0.
-53.8438 -472.077 0.
-177.643 -535.642 0.
-133.998 -432.704 0.
-90.3531 -329.767 0.
-103.213 -356.298 0.
-155.437 -478.372 0.
-207.661 -600.445 0.
70.7258 -411.78 0.
130.917 -271.589 0.
214.401 30.2005 0.
-305.741 -42.441 0.
-222.339 152.228 0.
68.1553 124.345 0.
168.276 360.614 0.
445.29 1009.11 0.
222.466 -77.2117 0.
437.767 424.565 0.
596.241 793.727 0.
374.65 681.462 0.
186.897 243.564 0.
30.3808 -121.595 0.
747.651 282.135 0.
612.337 -33.5194 0.
370.091 34.2672 0.
405.388 116.661 0.
377.365 51.2192 0.
188.86 74.4444 0.
178.582 50.06 0.
144.764 -29.2785 0.
413.205 -358.541 0.
448.224 -277.055 0.
601.207 79.754 0.
-239.393 -314.128 0.
-278.34 -407.091 0.
467.544 248.674 0.
170.794 -1469.29 0.
576.291 -523.381 0.
421.392 71.7653 0.
189 -470.728 0.
537.865 343.335 0.
382.985 369.177 0.
334.99 256.674 0.
337.451 261.956 0.
369.012 -30.5069 0.
343.93 -89.7511 0.
536.769 359.531 0.
1299.37 873.457 0.
901.8 -53.3588 0.
666.715 194.767 0.
499.485 -195.245 0.
400.371 -426.406 0.
616.209 -203.796 0.
685.857 -40.8372 0.
881.829 416.969 0.
757.528 437.506 0.
564.126 -13.7786 0.
870.959 702.269 0.
1211.31 1218.5 0.
1109.03 980.654 0.
-1229.65 -651.716 0.
1179.93 297.073 0.
1086.53 78.0001 0.
523.407 112.369 0.
536.035 140.756 0.
681.483 479.074 0.
475.619 -63.4646 0.
437.116 -152.142 0.
521.228 45.4725 0.
147.987 -957.304 0.
322.279 -549.79 0.
412.35 -338.888 0.
728.866 -137.996 0.
758.256 -70.7111 0.
343.911 731.477 0.
200.857 398.723 0.
181.181 353.927 0.
801.353 1012.51 0.
661.151 684.907 0.
245.566 -285.525 0.
302.486 -308.759 0.
550.547 269.823 0.
709.364 639.911 0.
835.849 218.062 0.
584.093 -369.59 0.
823.128 1677.54 0.
22.6191 146.139 0.
-314.289 -637.761 0.
841.28 465.524 0.
735.217 218.434 0.
763.187 284.226 0.
178.885 -476.514 0.
137.289 -573.932 0.
273.156 -257.185 0.
176.587 -203.294 0.
213.514 -117.504 0.
301.86 88.2615 0.
421.159 -151.708 0.
429.279 -132.592 0.
210.003 408.664 0.
323.41 673.982 0.
369.085 781.263 0.
178.25 287.822 0.
218.963 383.228 0.
553.713 1164.4 0.
-51.8242 160.258 0.
39.5846 373.309 0.
-14.4036 247.803 0.
-61.2264 -972.601 0.
679.709 755.953 0.
296.026 -165.281 0.
-355.852 -479.431 0.
-382.07 -540.556 0.
-180.48 -507.557 0.
-213.973 -584.825 0.
-247.466 -662.092 0.
-99.6071 -637.023 0.
-102.309 -643.579 0.
-105.012 -650.136 0.
-113.195 -628.093 0.
-90.8002 -575.779 0.
-68.4058 -523.464 0.
330.065 -410.867 0.
288.991 -504.776 0.
38.3797 -681.929 0.
47.9414 -659.424 0.
57.5031 -636.919 0.
-81.0655 -671.623 0.
-62.7644 -629.529 0.
-44.4633 -587.435 0.
324.592 -437.063 0.
300.106 -494.334 0.
275.62 -551.604 0.
-186.253 -818.599 0.
-226.234 -912.391 0.
1061.44 -436.821 0.
305.361 -686.966 0.
347.239 -588.686 0.
128.043 -607.351 0.
159.476 -535.807 0.
190.909 -464.263 0.
138.818 -437.558 0.
159.891 -389.207 0.
180.964 -340.856 0.
103.33 -464.228 0.
18.3156 -661.513 0.
-66.6988 -858.798 0.
677.879 -477.611 0.
726.009 -365.474 0.
402.73 -420.726 0.
408.776 -407.066 0.
414.822 -393.405 0.
429.426 -406.852 0.
388.3 -504.283 0.
347.173 -601.713 0.
366.029 -585.601 0.
408.388 -488.857 0.
450.746 -392.112 0.
494.873 -437.056 0.
438.958 -566.505 0.
-350.849 -1010.65 0.
771.198 -603.961 0.
732.633 -694.711 0.
69.5347 -1002.57 0.
151.414 -811.944 0.
233.293 -621.323 0.
385.121 -499.529 0.
349.277 -582.799 0.
313.433 -666.07 0.
201.715 -640.125 0.
277.397 -462.803 0.
353.079 -285.481 0.
468.068 -344.881 0.
393.599 -518.318 0.
-25.4525 -809.353 0.
42.541 -650.175 0.
110.535 -490.998 0.
88.2962 -461.557 0.
18.8429 -622.164 0.
-50.6103 -782.771 0.
259.293 -710.948 0.
252.075 -726.309 0.
244.858 -741.669 0.
361.952 -631.945 0.
404.661 -532.07 0.
261.256 -513.755 0.
-188.578 -692.995 0.
-182.485 -677.197 0.
244.603 -470.674 0.
269.923 -413.235 0.
295.243 -355.796 0.
168.967 -396.466 0.
159.316 -419.46 0.
149.666 -442.453 0.
66.8786 -581.171 0.
-8.94689 -758.906 0.
-84.7724 -936.642 0.
178.646 -754.872 0.
227.388 -641.6 0.
-270.898 -773.577 0.
-271.961 -775.624 0.
-273.024 -777.671 0.
-387.99 -799.351 0.
-343.191 -695.105 0.
-298.392 -590.859 0.
-62.7777 -387.184 0.
-0.911123 -242.788 0.
60.9555 -98.3924 0.
174.981 -285.498 0.
2.27622 -688.851 0.
515.52 -41.1124 0.
-172.025 -369.699 0.
-198.315 -430.906 0.
-136.271 -456.618 0.
-169.42 -534.15 0.
-202.57 -611.682 0.
-183.694 -641.337 0.
-186.305 -647.988 0.
-188.916 -654.64 0.
-7.63245 -551.996 0.
14.8214 -499.748 0.
37.2752 -447.5 0.
197.575 -435.609 0.
156.535 -529.509 0.
23.5132 -657.374 0.
32.991 -634.748 0.
42.469 -612.121 0.
-2.28389 -606.901 0.
15.9824 -564.779 0.
34.2487 -522.656 0.
274.237 -427.086 0.
249.648 -484.225 0.
225.06 -541.364 0.
161.199 -637.573 0.
121.115 -731.187 0.
876.721 -483.781 0.
75.2261 -755.065 0.
117.145 -656.753 0.
143.031 -569.218 0.
174.439 -497.62 0.
205.847 -426.022 0.
279.428 -345.605 0.
300.631 -297.341 0.
321.835 -249.077 0.
22.5911 -466.741 0.
-62.1507 -664.187 0.
-146.893 -861.633 0.
642.831 -460.886 0.
691.06 -348.655 0.
417.874 -383.245 0.
423.689 -369.535 0.
429.503 -355.824 0.
326.285 -420.467 0.
285.058 -517.825 0.
243.831 -615.183 0.
437.61 -523.993 0.
479.957 -427.318 0.
522.304 -330.643 0.
505.406 -400.864 0.
449.714 -530.613 0.
-311.492 -961.994 0.
759.994 -576.811 0.
721.304 -667.426 0.
116.439 -951.491 0.
198.422 -760.808 0.
280.405 -570.126 0.
520.117 -410.063 0.
484.425 -493.421 0.
448.732 -576.779 0.
116.661 -645.713 0.
192.299 -468.404 0.
267.937 -291.095 0.
273.733 -396.526 0.
199.332 -569.921 0.
348.34 -617.506 0.
416.485 -458.31 0.
484.631 -299.114 0.
5.05457 -466.247 0.
-64.4765 -626.765 0.
-134.007 -787.283 0.
434.279 -604.248 0.
426.829 -619.45 0.
419.38 -634.651 0.
245.053 -651.266 0.
287.564 -551.232 0.
800.777 -250.262 0.
8.81928 -576.224 0.
15.1204 -560.586 0.
23.0539 -534.461 0.
48.2954 -477.035 0.
73.5371 -419.608 0.
131.731 -381.744 0.
121.816 -404.476 0.
111.901 -427.209 0.
147.957 -514.883 0.
72.219 -692.706 0.
-3.51855 -870.529 0.
216.661 -706.433 0.
265.385 -593.039 0.
-223.546 -721.707 0.
-224.407 -723.885 0.
-225.269 -726.063 0.
-493.365 -813.123 0.
-448.633 -708.768 0.
-403.9 -604.414 0.
227.287 -231.6 0.
289.239 -87.1736 0.
351.191 57.2531 0.
121.312 -276.668 0.
-51.302 -679.728 0.
213.387 -393.793 0.
-201.58 -420.378 0.
-115.555 -219.375 0.
110.156 -24.643 0.
23.1119 -227.634 0.
-63.932 -430.624 0.
-124.514 -489.446 0.
-45.0964 -303.472 0.
34.3207 -117.499 0.
183.97 -77.3998 0.
120.053 -225.702 0.
56.135 -374.004 0.
179.291 -387.354 0.
151.278 -454.11 0.
47.8414 -546.983 0.
41.7839 -561.341 0.
35.7265 -575.698 0.
54.2313 -560.337 0.
81.2329 -497.227 0.
108.235 -434.116 0.
190.068 -455.742 0.
113.221 -636.286 0.
36.3743 -816.831 0.
324.035 -551.246 0.
446.567 -265.318 0.
584.936 28.2978 0.
196.223 -245.297 0.
138.174 -382.617 0.
200.345 -440.036 0.
209.512 -416.65 0.
218.677 -393.264 0.
245.447 -413.526 0.
192.874 -535.536 0.
140.3 -657.545 0.
-23.4566 -742.642 0.
-5.22949 -700.217 0.
12.9974 -657.792 0.
577.185 -405.154 0.
579.154 -399.601 0.
401.199 -475.178 0.
378.834 -527.321 0.
356.469 -579.465 0.
243.135 -643.327 0.
265.693 -591.24 0.
288.251 -539.153 0.
396.621 -538.673 0.
334.628 -682.155 0.
272.635 -825.637 0.
355.211 -772.218 0.
385.408 -701.391 0.
-510.846 -1028.19 0.
727.252 -473.058 0.
739.689 -443.219 0.
294.55 -577.363 0.
381.843 -372.819 0.
469.136 -168.276 0.
781.617 36.641 0.
757.433 -19.3993 0.
733.248 -75.4395 0.
291.788 -301.76 0.
272.864 -346.085 0.
253.94 -390.41 0.
192.445 -515.989 0.
138.558 -643.537 0.
371.718 -641.409 0.
337.932 -720.022 0.
304.145 -798.634 0.
-171.792 -1004.49 0.
-111.702 -865.105 0.
-51.6127 -725.722 0.
590.992 -347.688 0.
642.481 -230.005 0.
693.972 -112.32 0.
326.234 -374.786 0.
245.043 -564.726 0.
-261.184 -932.785 0.
-33.1415 -852.826 0.
-41.6978 -873.832 0.
-205.097 -918.119 0.
-118.947 -715.97 0.
-32.7964 -513.821 0.
74.9698 -426.598 0.
18.5939 -558.326 0.
-37.7819 -690.053 0.
75.5913 -657.002 0.
89.2188 -623.534 0.
102.846 -590.066 0.
254.829 -458.953 0.
290.532 -376.863 0.
-29.219 -448.108 0.
6.45625 -365.02 0.
42.1316 -281.932 0.
-352.749 -420.975 0.
-375.375 -473.449 0.
-398.001 -525.922 0.
304.545 -224.623 0.
319.334 -189.906 0.
334.124 -155.189 0.
93.0285 -188.548 0.
135.507 -87.5838 0.
-343.049 -601.795 0.
-366.566 -459.922 0.
-280.41 -258.997 0.
244.076 64.3381 0.
157.08 -138.761 0.
70.0836 -341.859 0.
-26.6276 -415.648 0.
52.9521 -229.837 0.
132.532 -44.026 0.
82.5487 -89.3755 0.
18.7518 -237.779 0.
-45.045 -386.182 0.
256.426 -322.804 0.
228.548 -389.59 0.
40.6312 -518.74 0.
34.4949 -533.041 0.
28.3586 -547.341 0.
96.6857 -510.341 0.
123.712 -447.096 0.
150.738 -383.851 0.
96.8631 -465.803 0.
19.8599 -646.036 0.
-57.1432 -826.269 0.
322.931 -520.039 0.
445.534 -234.069 0.
-286.16 -313.446 0.
225.227 -201.071 0.
167.23 -338.246 0.
220.512 -399.892 0.
230.022 -376.766 0.
239.532 -353.641 0.
127.602 -432.897 0.
74.8964 -554.877 0.
22.1907 -676.858 0.
265.149 -586.736 0.
283.469 -544.46 0.
301.788 -502.184 0.
426.774 -439.016 0.
428.654 -433.157 0.
474.358 -411.953 0.
452.137 -464.182 0.
429.915 -516.411 0.
407.55 -541.615 0.
430.115 -489.577 0.
452.68 -437.54 0.
271.83 -560.769 0.
209.971 -704.517 0.
148.113 -848.265 0.
390.961 -725.509 0.
421.261 -654.852 0.
408.22 -602.468 0.
590.065 -500.414 0.
602.707 -470.692 0.
315.039 -537.41 0.
402.259 -332.684 0.
489.478 -127.959 0.
850.25 96.8178 0.
826.175 40.8168 0.
802.101 -15.1842 0.
473.36 -192.427 0.
454.363 -236.828 0.
435.366 -281.23 0.
346.733 -418.282 0.
292.752 -545.746 0.
121.55 -717.435 0.
87.6492 -795.852 0.
53.7486 -874.269 0.
71.7861 -869.388 0.
131.748 -729.81 0.
191.711 -590.232 0.
566.094 -327.439 0.
617.613 -209.767 0.
669.133 -92.0948 0.
389.859 -315.436 0.
308.61 -505.303 0.
-64.9756 -817.438 0.
-6.27614 -810.02 0.
-14.8381 -831.029 0.
-119.383 -850.31 0.
-33.2001 -648.088 0.
52.9832 -445.866 0.
56.388 -402.683 0.
0.0210038 -534.405 0.
-56.3461 -666.127 0.
2.58612 -656.746 0.
16.2066 -623.255 0.
29.8272 -589.764 0.
87.3163 -499.839 0.
122.749 -417.682 0.
143.103 -343.249 0.
178.686 -260.11 0.
214.269 -176.971 0.
-287.282 -361.28 0.
-310.047 -413.581 0.
-332.812 -465.881 0.
232.88 -224.059 0.
247.815 -189.383 0.
262.751 -154.708 0.
24.6815 -186.328 0.
67.3181 -85.1934 0.
-314.138 536.914 0.
-186.791 293.958 0.
-376.413 -146.923 0.
454.25 329.785 0.
406.879 219.559 0.
418.477 247.267 0.
442.264 526.997 0.
169.565 -109.659 0.
197.299 -45.392 0.
-113.95 -327.534 0.
-168.601 -454.429 0.
-87.4966 -264.591 0.
497.843 118.521 0.
393.902 -122.981 0.
103.989 -323.956 0.
158.624 -195.834 0.
67.4737 -407.602 0.
54.6774 -655.371 0.
480.065 336.619 0.
420.017 195.99 0.
107.272 -234.804 0.
184.266 -55.5981 0.
281.613 171.114 0.
414.475 -275.833 0.
442.789 -209.18 0.
110.808 -133.593 0.
210.34 -264.752 0.
31.1934 -683.372 0.
195.719 -469.026 0.
443.99 110.815 0.
569.218 403.651 0.
453.266 586.129 0.
407.726 479.444 0.
328.225 293.503 0.
759.022 49.3208 0.
506.698 -540.905 0.
526.478 -496.179 0.
644.947 382.472 0.
746.917 621.221 0.
1034.23 788.035 0.
791.185 221.412 0.
831.888 316.727 0.
987.891 527.767 0.
928.364 389.016 0.
886.291 290.997 0.
564.845 394.808 0.
381.385 -33.2499 0.
369.909 -60.0467 0.
894.65 412.795 0.
957.727 560.433 0.
-571.144 -696.743 0.
535.592 -335.516 0.
616.157 -147.969 0.
506.36 -92.7426 0.
416.491 -302.328 0.
271.072 -641.783 0.
798.05 -125.877 0.
929.406 181.136 0.
837.365 -33.0491 0.
640.194 -116.205 0.
501.469 -439.985 0.
552.327 -321.366 0.
605.164 -83.4198 0.
774.56 311.777 0.
44.1229 -393.523 0.
230.584 41.1167 0.
491.756 650.109 0.
991.749 850.444 0.
686.684 137.721 0.
677.275 114.9 0.
514.493 -367.576 0.
688.895 38.4314 0.
825.87 357.187 0.
717.504 354.435 0.
932.173 854.501 0.
1081.38 -368.452 0.
202.234 -344.324 0.
328.449 -49.1979 0.
663.253 847.498 0.
330.349 69.6573 0.
360.754 139.561 0.
359.831 368.994 0.
238.779 86.7887 0.
407.411 481.067 0.
335.588 289.713 0.
136.395 -176.203 0.
16.5034 -456.987 0.
185.158 72.4425 0.
276.997 289.313 0.
334.128 -188.523 0.
595.285 422.585 0.
675.287 610.864 0.
7.87659 230.02 0.
-25.2922 151.824 0.
87.6652 414.516 0.
618.104 842.813 0.
825.339 1328.22 0.
448.969 451.929 0.
166.098 293.218 0.
207.358 389.426 0.
-377.208 -585.977 0.
-335.521 -536.826 0.
-320.01 -500.792 0.
225.663 -214.994 0.
305.851 -28.1445 0.
386.038 158.705 0.
227.573 109.485 0.
140.372 -93.3272 0.
53.1711 -296.14 0.
-49.5976 -367.62 0.
-22.3501 -303.806 0.
4.89745 -239.992 0.
389.34 -100.06 0.
368.624 -147.094 0.
87.1309 -306.392 0.
63.1994 -362.275 0.
39.268 -418.157 0.
191.578 -427.186 0.
122.836 -588.529 0.
54.0932 -749.871 0.
-122.524 -803.909 0.
-47.4109 -629.39 0.
27.7022 -454.87 0.
116.315 -423.438 0.
90.537 -483.18 0.
732.835 -256.174 0.
325.81 -361.777 0.
361.948 -276.219 0.
352.166 -246.224 0.
300.365 -366.404 0.
248.564 -486.584 0.
-34.9403 -645.008 0.
-13.0595 -594.898 0.
8.82124 -544.788 0.
526.756 -315.8 0.
518.831 -333.935 0.
510.907 -352.069 0.
299.127 -488.199 0.
274.461 -546.236 0.
417.872 -518.262 0.
463.157 -411.662 0.
508.442 -305.062 0.
551.207 -232.365 0.
543.969 -248.993 0.
536.731 -265.621 0.
392.149 -279.993 0.
443.56 -159.975 0.
494.972 -39.9565 0.
743.829 40.488 0.
711.512 -35.3613 0.
772.179 -71.5626 0.
589.461 -119.21 0.
605.84 -81.4782 0.
463.668 -177.109 0.
325.587 -499.841 0.
187.506 -822.574 0.
528.501 -752.771 0.
609.196 -563.695 0.
689.891 -374.62 0.
379.003 -443.343 0.
390.562 -416.885 0.
402.121 -390.427 0.
541.354 -325.495 0.
542.693 -322.464 0.
63.3122 -520.799 0.
83.8484 -473.903 0.
104.385 -427.008 0.
485.543 -245.759 0.
476.505 -267.092 0.
467.467 -288.426 0.
410.396 -392.001 0.
343.164 -545.753 0.
275.933 -699.505 0.
424.282 -582.373 0.
474.926 -464.348 0.
666.632 -287.486 0.
66.8697 -457.631 0.
112.42 -350.376 0.
150.33 -317.473 0.
42.3081 -570.185 0.
-65.7141 -822.897 0.
-109.199 -876.071 0.
-22.733 -673.156 0.
63.733 -470.241 0.
-62.766 -514.771 0.
-94.4793 -589.737 0.
-126.193 -664.703 0.
66.4706 -545.134 0.
90.2778 -488.003 0.
149.144 -418.763 0.
155.203 -403.854 0.
161.262 -388.945 0.
-192.392 -517.514 0.
-169.777 -464.658 0.
-147.161 -411.803 0.
282.248 -184.566 0.
305.709 -129.5 0.
329.17 -74.4329 0.
10.4992 -128.148 0.
58.3845 -16.7745 0.
420.14 -212.602 0.
-65.5169 -390.076 0.
-49.8375 -354.214 0.
249.627 -172.673 0.
329.974 14.0339 0.
410.321 200.741 0.
198.838 128.57 0.
111.851 -74.4875 0.
24.8631 -277.545 0.
66.8458 -285.617 0.
94.187 -221.825 0.
121.528 -158.033 0.
387.976 -69.858 0.
367.297 -116.936 0.
73.3337 -280.564 0.
49.4861 -336.565 0.
25.6385 -392.566 0.
256.174 -367.966 0.
187.502 -529.146 0.
118.83 -690.325 0.
-90.1389 -759.079 0.
-14.9818 -584.404 0.
60.1752 -409.729 0.
-152.226 -506.998 0.
-177.842 -566.656 0.
740.593 -221.353 0.
531.416 -243.08 0.
567.591 -157.541 0.
443.464 -175.388 0.
391.715 -295.649 0.
339.965 -415.909 0.
29.007 -586.255 0.
50.8467 -536.081 0.
72.6863 -485.906 0.
450.134 -317.193 0.
442.195 -335.354 0.
434.255 -353.514 0.
350.262 -435.063 0.
325.716 -493.25 0.
364.783 -509.095 0.
410.164 -402.548 0.
455.544 -296.001 0.
432.53 -251.944 0.
425.451 -268.659 0.
418.373 -285.375 0.
550.736 -180.501 0.
602.224 -60.5907 0.
653.713 59.3201 0.
771.271 83.5404 0.
739.181 7.51565 0.
1029.1 70.3293 0.
555.804 -102.073 0.
572.336 -64.4253 0.
472.7 -142.161 0.
334.509 -464.703 0.
196.318 -787.245 0.
544.123 -715.225 0.
624.989 -526.163 0.
705.856 -337.1 0.
246.536 -468.68 0.
258.19 -442.317 0.
269.843 -415.953 0.
607.064 -265.712 0.
608.638 -262.903 0.
170.197 -444.123 0.
190.671 -397.169 0.
211.145 -350.215 0.
457.203 -226.427 0.
448.14 -247.686 0.
439.076 -268.944 0.
310.888 -403.594 0.
243.697 -557.438 0.
176.506 -711.281 0.
573.012 -487.392 0.
623.683 -369.256 0.
541.768 -309.514 0.
-22.2728 -463.81 0.
23.156 -356.329 0.
149.049 -287.466 0.
41.1468 -540.012 0.
-66.7553 -792.559 0.
-14.0649 -804.102 0.
72.5086 -601.227 0.
159.082 -398.352 0.
-113.715 -505.859 0.
-145.437 -580.846 0.
-177.16 -655.834 0.
262.371 -429.693 0.
286.483 -372.789 0.
59.7433 -424.633 0.
65.9892 -410.001 0.
72.2353 -395.369 0.
-29.0514 -416.396 0.
-6.60874 -363.347 0.
15.8338 -310.298 0.
427.683 -90.5592 0.
451.292 -35.6171 0.
474.901 19.3248 0.
57.6432 -76.7799 0.
105.583 34.7312 0.
529.485 140.129 0.
224.765 42.8626 0.
245.428 92.2084 0.
377.349 150.954 0.
305.591 -15.569 0.
233.833 -182.092 0.
-19.2313 -339.061 0.
15.8885 -257.619 0.
51.0084 -176.176 0.
214.373 -125.788 0.
179.573 -207.059 0.
144.773 -288.331 0.
340.526 -192.495 0.
353.608 -162.656 0.
34.3974 -269.139 0.
72.5707 -179.855 0.
110.744 -90.5704 0.
424.058 109.58 0.
448.345 166.989 0.
472.631 224.397 0.
195.2 -22.2135 0.
56.3566 -345.861 0.
-82.4863 -669.509 0.
-338.481 -785.189 0.
-300.046 -695.61 0.
841.778 -132.62 0.
626.453 -214.594 0.
630.475 -204.357 0.
373.639 -284.623 0.
431.004 -151.322 0.
488.369 -18.0214 0.
351.392 -42.6113 0.
318.632 -118.647 0.
285.872 -194.682 0.
406.311 -253.276 0.
337.206 -415.57 0.
268.101 -577.864 0.
441.87 -403.24 0.
509.362 -244.432 0.
467.056 -148.954 0.
455.009 -177.578 0.
442.962 -206.202 0.
361.543 -298.802 0.
294.527 -455.808 0.
227.512 -612.814 0.
355.968 -633.433 0.
337.818 -675.494 0.
319.668 -717.555 0.
554.274 -535.636 0.
614.854 -392.919 0.
7.04765 -536.859 0.
431.162 -305.462 0.
456.65 -244.846 0.
448.058 -239.137 0.
375.833 -407.497 0.
303.608 -575.858 0.
548.068 -546.267 0.
548.768 -544.609 0.
549.469 -542.951 0.
189.561 -662.674 0.
215.819 -600.823 0.
242.078 -538.972 0.
631.421 -274.118 0.
685.336 -147.489 0.
332.461 -213.845 0.
302.341 -283.307 0.
272.221 -352.769 0.
346.785 -360.603 0.
346.346 -361.836 0.
345.907 -363.069 0.
273.535 -389.306 0.
276.096 -385.543 0.
278.658 -381.779 0.
600.869 -342.779 0.
536.761 -492.304 0.
398.316 -672.337 0.
-183.25 -940.887 0.
-191.903 -963.407 0.
-125.851 -901.887 0.
-29.1106 -675.662 0.
67.6295 -449.436 0.
178.921 -334.809 0.
142.141 -421.403 0.
105.362 -507.998 0.
-187.015 -578.666 0.
-127.607 -439.604 0.
-68.1975 -300.543 0.
482.412 -56.9528 0.
481.197 -59.2148 0.
96.2283 -228.376 0.
80.1361 -265.722 0.
64.0439 -303.069 0.
136.433 -300.733 0.
120.523 -338.002 0.
104.614 -375.27 0.
370.899 -232.973 0.
406.816 -149.298 0.
442.732 -65.6229 0.
-66.2734 -230.091 0.
-37.7046 -163.678 0.
58.825 -30.524 0.
253.914 86.7332 0.
274.348 136.273 0.
358.874 174.178 0.
287.131 7.57847 0.
215.389 -159.021 0.
-1.69271 -300.132 0.
33.3763 -218.679 0.
68.4455 -137.226 0.
324.62 -47.2613 0.
289.851 -128.655 0.
255.083 -210.048 0.
390.271 -139.578 0.
403.307 -109.649 0.
-30.3837 -265.787 0.
7.75396 -176.445 0.
45.8916 -87.1031 0.
303.301 88.7965 0.
327.745 146.155 0.
352.189 203.513 0.
121.961 -21.4694 0.
-16.7132 -345.083 0.
-155.388 -668.697 0.
-211.107 -699.041 0.
-172.553 -609.446 0.
342.498 -315.281 0.
667.264 -165.926 0.
671.229 -155.542 0.
262.48 -300.48 0.
319.925 -167.224 0.
377.37 -33.9681 0.
536.71 67.6778 0.
503.711 -8.2144 0.
470.712 -84.1066 0.
342.941 -248.924 0.
273.78 -411.173 0.
204.62 -573.422 0.
614.63 -297.518 0.
682.252 -138.78 0.
426.072 -134.641 0.
414 -163.282 0.
401.927 -191.923 0.
387.742 -256.394 0.
320.725 -413.457 0.
253.708 -570.52 0.
226.35 -657.678 0.
208.21 -699.752 0.
190.07 -741.825 0.
676.378 -452.264 0.
737.039 -309.512 0.
-761.779 -834.688 0.
400.816 -286.817 0.
426.294 -226.231 0.
509.35 -182.271 0.
436.945 -350.439 0.
364.54 -518.607 0.
394.307 -580.79 0.
395.074 -579.003 0.
395.841 -577.215 0.
416.829 -533.592 0.
443.159 -471.553 0.
469.489 -409.514 0.
672.455 -225.735 0.
726.316 -99.0206 0.
408.387 -149.595 0.
378.275 -219.09 0.
348.163 -288.585 0.
278.445 -358.249 0.
277.896 -359.402 0.
277.347 -360.555 0.
302.265 -346.088 0.
304.518 -342.037 0.
306.771 -337.985 0.
409.304 -393.318 0.
345.369 -542.909 0.
-188.592 -892.727 0.
43.7997 -811.782 0.
34.9907 -834.061 0.
-122.275 -869.395 0.
-25.3945 -643.169 0.
71.4861 -416.943 0.
96.6255 -339.178 0.
60.0665 -425.749 0.
23.5077 -512.32 0.
-210.327 -556.928 0.
-150.551 -418.058 0.
-90.7751 -279.189 0.
470.999 -29.7782 0.
469.662 -31.7414 0.
99.0988 -195.891 0.
83.1177 -233.176 0.
67.1366 -270.461 0.
293.54 -202.629 0.
277.661 -239.872 0.
261.783 -277.115 0.
263.64 -247.641 0.
299.764 -164.159 0.
335.888 -80.6765 0.
-212.643 -261.876 0.
-183.624 -195.676 0.
643.215 455.093 0.
191.425 -87.6609 0.
195.431 -79.266 0.
400.963 336.539 0.
271.081 33.8819 0.
301.209 104.79 0.
301.033 401.974 0.
281.789 357.88 0.
176.371 112.812 0.
425.929 12.5502 0.
338.501 -193.216 0.
411.332 -24.7461 0.
577.78 235.296 0.
424.483 -121.312 0.
-148.963 -392.14 0.
61.081 98.2907 0.
35.7112 39.5054 0.
78.3064 -178.325 0.
133.101 -50.9796 0.
374.709 511.859 0.
-111.217 -395.15 0.
-135.111 -451.856 0.
482.449 988.241 0.
358.717 425.368 0.
174.273 -6.35621 0.
399.424 -303.637 0.
627.314 -305.335 0.
834.889 178.928 0.
285.609 -11.2367 0.
161.407 -300.036 0.
102.531 -436.554 0.
463.671 -419.838 0.
733.073 209.473 0.
629.964 -30.3557 0.
393.301 20.3288 0.
383.29 -2.91658 0.
202.958 -423.639 0.
1260.06 910.695 0.
1146.2 645.482 0.
438.672 8.70356 0.
233.532 -471.534 0.
284.204 -354.881 0.
410.013 -224.754 0.
435.455 -164.685 0.
476.189 -68.8928 0.
418.938 72.3243 0.
518.994 305.729 0.
268.691 -278.407 0.
847.776 -254.057 0.
917.927 -90.2104 0.
-620.311 -641.574 0.
599.109 264.668 0.
680.719 453.807 0.
764.826 330.37 0.
691.476 159.902 0.
519.18 -241.062 0.
334.347 -396.202 0.
436.221 -159.735 0.
761.63 598.325 0.
1042.68 528.907 0.
911.418 223.147 0.
925.483 256.348 0.
278.143 -1194.85 0.
444.621 -805.931 0.
248.185 -630.569 0.
400.983 -273.041 0.
293.937 -521.946 0.
19.306 -805.181 0.
84.603 -652.393 0.
22.6583 -796.416 0.
179.955 -654.66 0.
357.86 -240.298 0.
559.983 230.588 0.
417.772 20.2726 0.
203.341 -480.741 0.
253.114 -43.9099 0.
427.575 -314.421 0.
476.358 -199.796 0.
311.788 161.355 0.
98.1795 -335.742 0.
-24.1777 -619.589 0.
-10.923 -398.14 0.
369.338 488.648 0.
97.1696 -147.019 0.
67.9134 163.389 0.
107.128 255.678 0.
32.6705 82.7716 0.
578.696 276.55 0.
663.586 475.236 0.
305.844 313.983 0.
279.055 251.942 0.
233.023 145.009 0.
478.649 -38.3528 0.
340.976 -358.776 0.
480.259 -33.0046 0.
351.717 191.926 0.
218.465 -119.014 0.
492.802 521.255 0.
-218.081 26.268 0.
180.244 957.752 0.
246.458 -342.202 0.
126.779 -350.516 0.
123.673 -359.097 0.
36.325 -385.782 0.
74.8934 -296.554 0.
113.462 -207.326 0.
124.058 -184.339 0.
96.2839 -248.634 0.
68.5102 -312.929 0.
236.382 -214.204 0.
272.978 -129.77 0.
309.573 -45.3366 0.
525.77 13.9521 0.
500.834 -44.2689 0.
31.6997 -286.691 0.
51.7445 -240.183 0.
71.7893 -193.674 0.
81.1275 -202.861 0.
15.8858 -354.806 0.
-49.3558 -506.75 0.
-157.169 -546.141 0.
-98.1751 -408.433 0.
-39.1806 -270.725 0.
155.412 -282.56 0.
72.1383 -476.72 0.
430.019 -481.665 0.
425.254 -303.391 0.
522.267 -77.6441 0.
520.231 31.5743 0.
433.333 -169.618 0.
346.435 -370.81 0.
280.908 -507.894 0.
260.058 -557.045 0.
239.209 -606.197 0.
194.711 -543.128 0.
268.932 -368.806 0.
343.154 -194.484 0.
842.943 18.7581 0.
833.975 -2.7304 0.
298.54 -256.114 0.
257.821 -350.553 0.
217.101 -444.992 0.
239.997 -480.592 0.
249.189 -459.317 0.
258.38 -438.043 0.
240.358 -447.7 0.
232.582 -465.625 0.
224.806 -483.55 0.
764.965 -217.336 0.
789.663 -160.17 0.
-241.651 -556.01 0.
423.081 -275.494 0.
421.334 -280.823 0.
455.246 -248.591 0.
506.38 -130.074 0.
557.513 -11.5565 0.
585.62 43.5166 0.
573.395 14.6977 0.
561.169 -14.1212 0.
617.346 -108.659 0.
530.523 -310.542 0.
443.699 -512.424 0.
650.35 -399.255 0.
675.303 -341.782 0.
217.47 -503.167 0.
192.147 -563.382 0.
166.824 -623.597 0.
150.053 -627.837 0.
200.819 -509.772 0.
251.585 -391.707 0.
319.623 -316.128 0.
326.907 -300.395 0.
334.19 -284.662 0.
404.181 -161.526 0.
464.571 -21.445 0.
253.757 0.386634 0.
456.91 -26.7919 0.
397.115 -165.903 0.
195.592 -350.978 0.
170.513 -408.095 0.
145.434 -465.213 0.
-263.955 -638.27 0.
-233.229 -566.02 0.
-202.504 -493.77 0.
-21.9053 -410.121 0.
-30.4488 -428.597 0.
-38.9922 -447.072 0.
263.285 -286.794 0.
280.345 -247.474 0.
75.3302 -309.25 0.
68.783 -324.155 0.
62.2358 -339.059 0.
337.559 -191.005 0.
393.65 -59.647 0.
449.74 71.7112 0.
211.453 -75.7618 0.
127.671 -270.414 0.
43.8897 -465.067 0.
-256.291 -563.041 0.
-217.701 -470.591 0.
-583.25 -666.412 0.
200.045 -287.473 0.
196.915 -296.035 0.
-13.1961 -375.907 0.
25.3167 -286.69 0.
63.8296 -197.473 0.
231.99 -106.57 0.
204.346 -171.066 0.
176.703 -235.563 0.
139.96 -223.79 0.
176.49 -139.499 0.
213.02 -55.2069 0.
593.429 74.3049 0.
568.561 16.0268 0.
214.482 -176.944 0.
234.728 -130.595 0.
254.975 -84.2464 0.
113.62 -156.896 0.
48.4345 -308.893 0.
-16.7515 -460.89 0.
-119.152 -498.992 0.
-60.0125 -361.397 0.
-0.873291 -223.803 0.
294.882 -191.249 0.
211.633 -385.429 0.
-96.9049 -676.314 0.
190.304 -372.804 0.
287.308 -147.049 0.
801.431 183.717 0.
714.436 -17.5223 0.
627.44 -218.762 0.
119.43 -545.469 0.
98.6 -594.602 0.
77.7702 -643.736 0.
262.475 -483.081 0.
336.648 -308.809 0.
410.821 -134.538 0.
817.808 39.8157 0.
808.872 18.39 0.
281.13 -232.626 0.
240.422 -327.067 0.
199.715 -421.508 0.
183.697 -473.198 0.
192.92 -451.92 0.
202.143 -430.642 0.
310.753 -385.57 0.
302.965 -403.427 0.
295.177 -421.284 0.
662.471 -230.481 0.
686.868 -173.029 0.
-333.193 -563.627 0.
509.089 -206.958 0.
507.365 -212.305 0.
397.051 -242.281 0.
448.306 -123.879 0.
499.56 -5.47826 0.
680.449 115.395 0.
668.254 86.5687 0.
656.059 57.7426 0.
445.908 -150.729 0.
359.276 -352.546 0.
272.644 -554.362 0.
705.87 -344.049 0.
731.023 -286.797 0.
130.419 -508.21 0.
105.115 -568.503 0.
79.8117 -628.797 0.
235.225 -559.72 0.
285.92 -441.628 0.
336.616 -323.535 0.
330.362 -280.189 0.
337.649 -264.451 0.
344.936 -248.713 0.
497.447 -90.141 0.
557.799 50.1062 0.
-46.8517 -97.0278 0.
359.531 -37.2397 0.
299.976 -176.392 0.
339.004 -258.085 0.
313.92 -315.046 0.
288.836 -372.007 0.
-431.729 -678.049 0.
-400.972 -605.875 0.
-370.215 -533.701 0.
186.19 -289.749 0.
177.454 -308.078 0.
168.719 -326.407 0.
189.297 -287.309 0.
206.564 -248.101 0.
134.798 -252.742 0.
128.263 -267.614 0.
121.727 -282.486 0.
261.38 -191.967 0.
317.514 -60.5831 0.
373.648 70.8011 0.
197.558 -50.3459 0.
113.977 -245.136 0.
30.3953 -439.926 0.
21.1911 -413.388 0.
59.8769 -320.724 0.
1119.13 -19.6567 0.
308.945 -219.651 0.
423.884 47.9742 0.
186.049 102.616 0.
148.217 14.5348 0.
110.385 -73.5462 0.
348.529 13.1406 0.
382.016 91.6303 0.
415.503 170.12 0.
248.356 158.493 0.
277.515 226.824 0.
306.673 295.155 0.
655.898 319.7 0.
578.087 138.089 0.
288.601 -120.183 0.
272.822 -156.795 0.
257.043 -193.406 0.
48.6545 -297 0.
61.1023 -268.024 0.
73.55 -239.048 0.
108.15 -227.851 0.
93.3532 -262.116 0.
78.5559 -296.38 0.
354.39 -69.1143 0.
435.699 120.388 0.
184.695 167.759 0.
331.456 76.5364 0.
248.209 -117.069 0.
721.954 -42.0224 0.
706.633 -78.6026 0.
691.313 -115.183 0.
143.447 -360.421 0.
153.317 -337.215 0.
163.186 -314.009 0.
408.229 -207.514 0.
405.055 -215.87 0.
401.88 -224.226 0.
690.61 -152.939 0.
660.697 -223.14 0.
164.425 -479.084 0.
203.625 -387.202 0.
242.825 -295.32 0.
255.917 -255.358 0.
231.127 -312.726 0.
206.337 -370.095 0.
375.603 -265.173 0.
426.343 -147.375 0.
477.083 -29.5773 0.
698.016 83.1199 0.
695.281 76.6343 0.
-969.893 -642.799 0.
566.263 -175.627 0.
465.358 -409.84 0.
248.414 -611.442 0.
343.335 -389.238 0.
438.256 -167.034 0.
627.782 -47.6599 0.
555.036 -217.998 0.
482.289 -388.336 0.
273.457 -447.824 0.
331.268 -313.558 0.
389.079 -179.293 0.
917.31 108.298 0.
947.103 178.461 0.
277.808 -64.187 0.
245.362 -139.768 0.
212.916 -215.349 0.
449.224 -158.429 0.
445.06 -168.055 0.
440.896 -177.681 0.
390.723 -151.106 0.
435.745 -45.7905 0.
480.768 59.5248 0.
492.605 -66.2972 0.
395.921 -290.834 0.
-272.11 -752.608 0.
194.422 -335.817 0.
308.094 -69.3918 0.
546.898 197.263 0.
539.988 179.239 0.
533.079 161.214 0.
-205.883 -188.08 0.
-233.711 -253.285 0.
-261.539 -318.489 0.
250.511 -180.024 0.
199.047 -300.427 0.
147.584 -420.83 0.
27.6819 -411.448 0.
69.179 -312.994 0.
215.505 -170.993 0.
250.378 -89.7734 0.
285.251 -8.55394 0.
327.011 13.0579 0.
268.348 -124.967 0.
209.685 -262.991 0.
138.765 -258.243 0.
216.647 -76.7688 0.
294.529 104.706 0.
201.517 -8.25879 0.
132.333 -172.209 0.
98.4073 -425.781 0.
464.083 -121.749 0.
579.179 145.759 0.
252.795 163.449 0.
215.004 75.2179 0.
177.214 -13.0135 0.
433.535 81.2047 0.
467.053 159.635 0.
500.57 238.066 0.
241.232 186.781 0.
270.414 255.017 0.
299.597 323.253 0.
520.762 293.527 0.
442.934 111.908 0.
265.132 -99.0181 0.
249.158 -135.528 0.
233.183 -172.037 0.
36.4424 -271.334 0.
48.8084 -242.24 0.
61.1743 -213.147 0.
370.266 -84.2818 0.
355.62 -118.708 0.
340.974 -153.135 0.
261.927 -77.046 0.
343.235 112.413 0.
479.446 325.269 0.
473.936 168.778 0.
390.683 -24.9165 0.
526.65 -94.2091 0.
511.258 -130.685 0.
495.866 -167.161 0.
203.382 -303.508 0.
213.141 -280.261 0.
222.9 -257.015 0.
443.492 -161.105 0.
440.175 -169.435 0.
436.857 -177.764 0.
642.209 -142.094 0.
612.465 -212.528 0.
186.827 -437.563 0.
226.131 -345.702 0.
265.436 -253.84 0.
290.32 -209.071 0.
265.421 -266.448 0.
240.522 -323.824 0.
370.964 -235.806 0.
421.748 -118.046 0.
472.532 -0.28501 0.
584.802 65.5668 0.
582.055 59.1957 0.
-627.788 -464.953 0.
621.542 -120.478 0.
520.829 -354.677 0.
359.911 -531.711 0.
455.053 -309.655 0.
550.195 -87.5996 0.
607.444 -25.023 0.
534.584 -195.272 0.
461.724 -365.52 0.
370.298 -374.821 0.
427.98 -240.285 0.
485.663 -105.749 0.
938.718 148.354 0.
968.396 218.644 0.
291.258 -27.0755 0.
258.704 -102.558 0.
226.15 -178.04 0.
504.916 -103.172 0.
500.804 -112.878 0.
496.692 -122.584 0.
424.094 -105.668 0.
469.197 -0.471134 0.
514.299 104.726 0.
401.034 -73.3107 0.
304.526 -297.939 0.
-66.1218 -633.686 0.
226.725 -290.785 0.
340.287 -24.0664 0.
477.906 198.969 0.
470.827 181.197 0.
463.748 163.426 0.
28.4739 -56.3252 0.
0.688628 -121.65 0.
-27.0967 -186.975 0.
120.257 -205.022 0.
68.669 -325.542 0.
17.0804 -446.063 0.
-131.368 -447.811 0.
-89.7263 -349.556 0.
299.873 -103.525 0.
334.737 -22.3186 0.
369.6 58.8884 0.
381.913 67.7628 0.
323.091 -69.9545 0.
264.27 -207.672 0.
254.425 -177.26 0.
332.356 4.26263 0.
410.288 185.785 0.
-21.2312 -72.8218 0.
-90.5866 -236.29 0.
-319.638 -9.14814 0.
769.583 341.18 0.
581.432 -96.5028 0.
-156.547 -888.078 0.
-164.644 -906.673 0.
144.194 -186.06 0.
605.25 352.825 0.
678.938 525.42 0.
433.078 -47.8644 0.
34.1511 -257.202 0.
199.733 128.552 0.
313.44 393.261 0.
533.03 607.424 0.
300.314 65.345 0.
342.724 154.982 0.
161.967 -265.146 0.
187.757 -203.209 0.
-165.082 -685.941 0.
81.411 -112.033 0.
223.962 219.541 0.
637.533 78.9524 0.
279.142 -757.864 0.
650.766 108.338 0.
388.938 424.924 0.
274.815 158.804 0.
350.455 7.17357 0.
560.787 126.089 0.
373.632 -311.966 0.
287.527 -252.083 0.
349.15 -108.558 0.
262.693 -310.612 0.
174.251 -452.983 0.
219.616 -347.907 0.
203.616 -385.945 0.
375.211 -356.99 0.
494.187 -78.6364 0.
705.111 414.273 0.
953.104 707.492 0.
856.054 479.87 0.
441.916 148.177 0.
445.229 154.933 0.
456.62 180.626 0.
422.879 70.5694 0.
241.547 -352.198 0.
347.927 -103.649 0.
618.335 381.326 0.
590.942 316.617 0.
737.059 656.755 0.
856.841 944.575 0.
895.954 1036.24 0.
-255.28 103.68 0.
932.441 536.925 0.
931.518 534.946 0.
838.32 403.209 0.
751.76 201.041 0.
759.661 219.31 0.
718.314 301.209 0.
714.54 293.84 0.
630.055 98.1926 0.
690.703 216.763 0.
659.918 145.09 0.
662.668 151.686 0.
886.165 23.5114 0.
858.162 -42.5442 0.
277.664 -53.7362 0.
383.01 192.604 0.
330.045 69.4853 0.
676.212 218.986 0.
555.473 -62.9026 0.
653.843 166.482 0.
660.895 414.916 0.
635.732 356.383 0.
666.322 427.632 0.
460.374 271.342 0.
210.605 -313.846 0.
300.972 -403.672 0.
268.279 -222.203 0.
482.674 279.412 0.
432.809 256.356 0.
239.393 -195.476 0.
305.194 -42.1387 0.
223.423 -13.5664 0.
166.659 -145.437 0.
-3.88474 -543.126 0.
133.335 102.733 0.
141.204 120.09 0.
75.538 -34.2125 0.
-96.5501 -39.5192 0.
60.7659 328.004 0.
732.52 778.489 0.
452.861 125.686 0.
384.46 -34.1448 0.
308.887 -175.54 0.
198.689 -432.252 0.
295.142 -206.81 0.
523.774 268.175 0.
639.704 538.61 0.
694.279 665.644 0.
-233.173 -118.12 0.
-468.978 -668.37 0.
-597.223 -0.700317 0.
586.544 239.135 0.
433.433 -116.001 0.
152.571 -438.821 0.
222.726 -275.337 0.
292.881 -111.853 0.
328.246 -14.7505 0.
333.986 -2.10986 0.
339.727 10.5309 0.
142.132 -133.042 0.
93.0895 -246.663 0.
44.0466 -360.285 0.
304.806 -268.124 0.
299.263 -280.283 0.
212.348 -322.028 0.
234.231 -271.273 0.
256.114 -220.518 0.
4.831 -257.244 0.
73.074 -98.7324 0.
141.317 59.7794 0.
435.103 215.844 0.
407.432 151.854 0.
379.76 87.8637 0.
289.199 -8.66851 0.
258.128 -80.8013 0.
178.576 -174.007 0.
516.169 -107.444 0.
475.763 -203.071 0.
254.517 -337.19 0.
313.016 -200.635 0.
371.516 -64.0798 0.
308.724 -61.6025 0.
267.499 -159.021 0.
226.274 -256.44 0.
513.06 -163.982 0.
510.814 -169.37 0.
508.567 -174.757 0.
571.978 -166.999 0.
561.149 -192.705 0.
107.48 -401.653 0.
135.342 -337.354 0.
163.204 -273.056 0.
301.245 -140.258 0.
362.066 1.4716 0.
422.887 143.201 0.
651.081 225.837 0.
588.797 79.9537 0.
526.513 -65.93 0.
524.647 -228.858 0.
433.139 -442.12 0.
611.081 -539.461 0.
449.142 -395.64 0.
561.11 -134.499 0.
582.33 14.5829 0.
518.751 -134.112 0.
455.172 -282.806 0.
323.072 -372.23 0.
365.431 -272.824 0.
407.79 -173.418 0.
537.468 -106.362 0.
524.612 -135.848 0.
511.756 -165.335 0.
610.99 -195.898 0.
569.808 -292.898 0.
337.174 -446.961 0.
405.783 -286.132 0.
474.392 -125.303 0.
491.352 -37.8616 0.
480.432 -63.2133 0.
469.513 -88.5652 0.
452.526 -84.3069 0.
473.454 -35.2129 0.
494.381 13.8812 0.
254.965 -142.744 0.
212.874 -242.563 0.
-1.05533 -416.129 0.
255.419 -298.973 0.
259.95 -289.391 0.
192.879 -313.772 0.
183.702 -334.978 0.
174.524 -356.183 0.
-68.1146 -471.007 0.
-67.964 -469.654 0.
-67.8132 -468.302 0.
52.7104 -364.401 0.
93.0726 -269.514 0.
133.435 -174.628 0.
-20.6882 -194.946 0.
0.688136 -145.418 0.
357.27 34.1122 0.
324.344 -42.206 0.
291.418 -118.524 0.
269.151 -152.151 0.
292.503 -97.4874 0.
315.855 -42.8239 0.
202.846 -102.651 0.
174.204 -169.753 0.
145.561 -236.854 0.
-224.123 -349.106 0.
-183.704 -255.84 0.
190.841 367.249 0.
430.851 203.596 0.
277.83 -151.667 0.
311.475 -339.017 0.
381.564 -175.495 0.
451.653 -11.9725 0.
200.231 -38.0441 0.
206.079 -25.5494 0.
211.927 -13.0545 0.
225.277 -66.2462 0.
176.039 -179.664 0.
126.801 -293.082 0.
499.507 -153.151 0.
494.09 -165.4 0.
321.666 -243.79 0.
343.514 -192.993 0.
365.361 -142.197 0.
5.42829 -225.813 0.
73.6229 -67.2527 0.
141.818 91.308 0.
129.765 116.877 0.
102.275 52.6875 0.
74.7849 -11.5021 0.
411.994 75.0694 0.
380.885 2.96668 0.
18.7818 -211.176 0.
600.955 -40.0244 0.
560.534 -135.612 0.
274.361 -297.222 0.
332.662 -160.566 0.
390.963 -23.9104 0.
283.694 -41.1761 0.
242.443 -138.565 0.
201.191 -235.955 0.
597.811 -95.9916 0.
595.748 -101.642 0.
593.684 -107.292 0.
579.782 -132.346 0.
569.019 -158.211 0.
2.88544 -413.997 0.
30.9775 -349.825 0.
59.07 -285.653 0.
280.73 -118.178 0.
341.391 23.606 0.
402.051 165.39 0.
789.221 317.006 0.
726.981 171.06 0.
664.741 25.1142 0.
753.524 -99.5395 0.
662.002 -312.806 0.
-84.2215 -805.862 0.
359.63 -402.094 0.
471.445 -140.715 0.
489.771 5.64101 0.
426.194 -142.981 0.
362.617 -291.604 0.
209.094 -390.066 0.
251.501 -290.555 0.
293.909 -191.044 0.
535.95 -75.1501 0.
523.136 -104.74 0.
510.322 -134.331 0.
403.579 -253.29 0.
362.338 -350.171 0.
632.284 -288.767 0.
701.088 -128.124 0.
769.893 32.5201 0.
416.343 -38.71 0.
405.395 -64.0228 0.
394.447 -89.3356 0.
474.096 -43.397 0.
495.074 5.64529 0.
516.051 54.6877 0.
235.766 -119.841 0.
193.45 -219.529 0.
147.625 -321.305 0.
296.869 -249.666 0.
301.234 -239.852 0.
215.968 -272.739 0.
206.653 -293.793 0.
197.337 -314.847 0.
-170.386 -484.14 0.
-170.088 -482.816 0.
-169.79 -481.493 0.
215.071 -263.42 0.
255.537 -168.603 0.
296.003 -73.7861 0.
170.354 -80.8941 0.
191.716 -31.3099 0.
303.98 42.4781 0.
270.871 -33.6682 0.
237.762 -109.814 0.
224.803 -140.669 0.
248.059 -85.9556 0.
271.314 -31.2418 0.
19.6684 -149.297 0.
-8.75702 -216.506 0.
-37.1822 -283.714 0.
-76.026 -254.83 0.
-35.0617 -161.861 0.
80.9099 -259.445 0.
215.308 -151.997 0.
241.406 -91.5403 0.
470.681 43.571 0.
458.217 14.5344 0.
445.752 -14.5022 0.
140.705 -151.839 0.
153.253 -122.693 0.
165.8 -93.5468 0.
283.724 -37.117 0.
280.281 -46.2942 0.
276.838 -55.4715 0.
588.417 18.0625 0.
552.917 -64.5668 0.
359.342 -200.015 0.
410.916 -79.9828 0.
462.491 40.0497 0.
208.072 12.6307 0.
232.232 70.1736 0.
256.391 127.716 0.
-4.52339 55.0147 0.
13.2336 96.3838 0.
30.9907 137.753 0.
502.247 147.343 0.
365.914 -170.867 0.
44.1479 -567.903 0.
474.062 -320.719 0.
508.24 -239.723 0.
276.283 -300.688 0.
241.718 -381.794 0.
207.152 -462.9 0.
87.1699 -523.482 0.
120.786 -444.72 0.
154.402 -365.959 0.
497.85 -228.038 0.
474.208 -282.99 0.
450.566 -337.942 0.
551.73 -94.901 0.
673.848 190.336 0.
357.495 255.073 0.
324.181 178.518 0.
290.866 101.964 0.
326.299 67.73 0.
312.398 35.0684 0.
298.496 2.40689 0.
755.521 197.292 0.
767.42 226.059 0.
779.318 254.825 0.
899.191 217.149 0.
835.146 67.1716 0.
399.111 -242.409 0.
404.642 -213.058 0.
419.22 -179.712 0.
388.657 -188.311 0.
353.852 -268.976 0.
319.048 -349.641 0.
130.522 -469.829 0.
126.396 -479.603 0.
122.269 -489.378 0.
426.569 -372.821 0.
418.95 -390.96 0.
411.331 -409.099 0.
244.557 -410.894 0.
287.459 -312.392 0.
773.28 -34.8068 0.
764.421 -55.6966 0.
755.562 -76.5866 0.
305.337 -267.141 0.
326.381 -218.517 0.
347.425 -169.892 0.
512.155 -73.5868 0.
520.61 -53.8226 0.
529.064 -34.0585 0.
202.418 -87.8768 0.
257.696 41.6047 0.
623.654 304.622 0.
492.803 251.508 0.
493.902 254.384 0.
395.61 165.947 0.
294.082 -70.1986 0.
192.554 -306.344 0.
-157.219 -505.78 0.
-96.3863 -363.831 0.
-35.5534 -221.882 0.
384.29 116.897 0.
476.25 331.653 0.
568.21 546.41 0.
370.785 218.959 0.
222.573 -126.192 0.
116.724 -387.504 0.
224.628 -136.773 0.
332.532 113.959 0.
263.316 216.667 0.
263.303 215.402 0.
263.291 214.137 0.
76.3491 59.2568 0.
8.43473 -98.5832 0.
-59.4795 -256.423 0.
119.493 -19.5776 0.
241.006 266.706 0.
-655.678 -545.634 0.
237.275 -111.155 0.
263.361 -50.6863 0.
340.875 19.2513 0.
328.334 -9.73852 0.
315.794 -38.7284 0.
272.048 -63.9989 0.
284.533 -34.8785 0.
297.018 -5.75813 0.
349.966 22.5972 0.
346.534 13.4775 0.
343.103 4.3577 0.
470.434 -0.788594 0.
435.23 -83.4842 0.
330.353 -181.486 0.
382.003 -61.5105 0.
433.653 58.465 0.
478.32 160.604 0.
502.531 218.022 0.
526.742 275.44 0.
66.5242 116.628 0.
84.2629 157.927 0.
102.002 199.226 0.
552.232 200.14 0.
416.027 -118.207 0.
235.308 -454.971 0.
412.174 -315.844 0.
446.269 -234.779 0.
300.237 -258.725 0.
265.662 -339.732 0.
231.087 -420.739 0.
172.349 -455.183 0.
206.039 -376.47 0.
239.728 -297.757 0.
343.15 -263.005 0.
319.694 -318.083 0.
296.238 -373.161 0.
471.631 -97.8157 0.
593.899 187.255 0.
653.875 414.936 0.
620.802 338.234 0.
587.729 261.531 0.
296.387 85.4151 0.
282.498 52.8092 0.
268.609 20.2034 0.
692.054 201.733 0.
703.902 230.571 0.
715.75 259.41 0.
725.233 174.069 0.
661.385 24.0419 0.
854.45 -15.4301 0.
442.659 -165.173 0.
457.243 -131.78 0.
467.077 -123.35 0.
432.358 -204.076 0.
397.639 -284.802 0.
169.086 -421.838 0.
165.128 -431.714 0.
161.169 -441.591 0.
511.255 -304.854 0.
503.608 -322.887 0.
495.96 -340.92 0.
261.643 -371.704 0.
304.495 -273.165 0.
593.829 -80.5551 0.
584.905 -101.513 0.
575.981 -122.471 0.
381.89 -202.771 0.
402.942 -154.137 0.
423.994 -105.503 0.
648.564 16.2373 0.
656.937 36.0776 0.
665.311 55.9178 0.
137.606 -84.1314 0.
193.029 45.1894 0.
746.416 388.371 0.
440.667 260.214 0.
441.837 263.09 0.
383.549 192.7 0.
282.17 -43.4963 0.
180.791 -279.693 0.
28.6032 -394.646 0.
89.4435 -252.675 0.
150.284 -110.703 0.
273.254 100.315 0.
365.171 315.07 0.
457.088 529.824 0.
392.607 260.364 0.
244.579 -84.9582 0.
200.589 -320.43 0.
308.483 -69.6271 0.
416.379 181.176 0.
65.7814 163.354 0.
65.8543 162.074 0.
65.9274 160.793 0.
205.847 146.245 0.
138.039 -11.7166 0.
70.2311 -169.679 0.
237.958 63.4719 0.
359.87 349.508 0.
239.613 266.288 0.
222.364 -141.674 0.
33.399 -583.92 0.
66.0907 -343.038 0.
343.011 303.375 0.
408.266 455.964 0.
519.451 290.795 0.
499.489 245.064 0.
507.3 264.048 0.
590.942 489.302 0.
653.897 636.916 0.
535.08 360.507 0.
522.218 375.971 0.
355.696 -12.5129 0.
144.64 -532.683 0.
536.414 380.855 0.
575.447 471.604 0.
641.297 68.2448 0.
752.661 328.13 0.
697.206 198.214 0.
203.32 323.643 0.
253.563 441.312 0.
47.0388 -40.26 0.
468.203 -64.7122 0.
414.348 -191.675 0.
-35.8738 -528.592 0.
698.909 500.256 0.
375.989 -252.763 0.
432.901 39.567 0.
569.107 356.554 0.
456.648 93.3836 0.
457.561 80.3071 0.
696.352 636.987 0.
638.949 502.656 0.
531.519 500.584 0.
344.801 63.7489 0.
98.4804 -512.362 0.
304.04 -304.5 0.
320.03 -268.526 0.
632.636 -158.056 0.
450.806 -582.709 0.
313.403 -903.743 0.
-179.804 -937.35 0.
228.836 14.6023 0.
337.438 266.608 0.
540.261 -0.7127 0.
483.658 -132.827 0.
543.857 7.72477 0.
518.005 50.0162 0.
376.28 -282.648 0.
-956.554 -338.686 0.
647.708 277.381 0.
453.353 -176.608 0.
552.283 -41.5145 0.
531.12 -90.7721 0.
607.368 87.1326 0.
459.135 214.515 0.
446.125 183.629 0.
293.232 -173.623 0.
594.644 -236.6 0.
467.409 -533.579 0.
804.758 253.424 0.
440.472 42.752 0.
397.305 -57.0296 0.
418.711 -117.038 0.
308.462 -374.504 0.
544.209 175.416 0.
819.296 704.574 0.
617.746 234.995 0.
153.061 -848.51 0.
424.044 -737.072 0.
586.671 -358.291 0.
806.225 153.543 0.
177.69 158.926 0.
-36.5792 -342.263 0.
341.86 -372.57 0.
388.803 266.845 0.
-168.382 -1032.15 0.
229.2 -118.895 0.
712.363 1010.02 0.
7.85236 -632.746 0.
205.203 -299.326 0.
585.984 588.783 0.
665.212 772.787 0.
125.9 -0.380933 0.
218.955 216.993 0.
402.935 646.571 0.
371.504 202.132 0.
231.348 -125.41 0.
281.787 -256.068 0.
309.031 -192.226 0.
160.725 -537.998 0.
-514.75 -801.444 0.
-394.529 -520.357 0.
-76.7974 221.748 0.
373.659 331.059 0.
263.379 74.3791 0.
98.2848 -310.456 0.
110.978 -425.73 0.
141.926 -353.826 0.
372.715 298.439 0.
195.33 191.604 0.
190.291 178.665 0.
286.597 187.022 0.
234.752 65.741 0.
182.908 -55.5402 0.
324.939 -93.5759 0.
268.438 -224.589 0.
211.938 -355.603 0.
202.055 -485.441 0.
132.117 -647.517 0.
62.1794 -809.592 0.
122.633 -563.74 0.
262.347 -236.171 0.
425.296 74.3642 0.
412.668 45.8867 0.
400.041 17.4091 0.
426.457 -4.20826 0.
399.683 -66.1568 0.
372.91 -128.105 0.
246.542 -187.435 0.
262.865 -149.082 0.
279.188 -110.729 0.
596.962 46.5668 0.
604.803 65.9083 0.
-260.119 -289.069 0.
349.68 -120.489 0.
301.192 -233.879 0.
403.29 -242.337 0.
447.56 -137.4 0.
491.831 -32.4635 0.
183.703 -145.286 0.
148.056 -228.618 0.
112.409 -311.95 0.
262.653 -231.488 0.
292.742 -162.561 0.
322.832 -93.6338 0.
255.962 -235.31 0.
186.706 -397.148 0.
574.521 -337.58 0.
628.217 -212.497 0.
681.913 -87.414 0.
222.916 -202.078 0.
245.329 -150.614 0.
267.742 -99.1493 0.
482.006 -92.8371 0.
383.51 -324.58 0.
285.014 -556.324 0.
271.779 -452.484 0.
375.33 -212.56 0.
-1752.7 -928.718 0.
584.76 271.314 0.
687.964 513.321 0.
724.895 647.102 0.
634.136 434.643 0.
543.377 222.183 0.
438.851 59.1811 0.
416.491 7.05696 0.
394.132 -45.0671 0.
635.118 52.7745 0.
640.07 63.9436 0.
645.023 75.1126 0.
422.208 -240.591 0.
292.259 -542.227 0.
164.228 -794.802 0.
247.728 -599.232 0.
331.227 -403.662 0.
367.979 -226.919 0.
457.677 -17.1603 0.
547.375 192.599 0.
668.46 352.246 0.
695.844 416.138 0.
723.229 480.03 0.
494.054 263.133 0.
407.06 60.4151 0.
1185.19 230.345 0.
238.378 -177.416 0.
238.273 -177.773 0.
250.362 -114.206 0.
375.078 176.008 0.
499.794 466.223 0.
505.148 477.85 0.
369.287 160.293 0.
233.427 -157.264 0.
-45.7143 -337.025 0.
-26.2579 -291.691 0.
-6.80152 -246.358 0.
143.299 -111.798 0.
178.563 -28.6333 0.
145.787 5.91212 0.
117.487 -59.0048 0.
89.187 -123.922 0.
66.3682 -140.141 0.
108.769 -39.772 0.
151.17 60.5967 0.
132.633 114.354 0.
156.84 171.714 0.
181.047 229.074 0.
259.432 302.124 0.
278.469 347.136 0.
615.468 434.337 0.
6.00391 142.299 0.
1.08878 129.265 0.
293.362 221.264 0.
241.609 99.9601 0.
189.855 -21.3436 0.
307.586 -69.4027 0.
251.091 -200.438 0.
194.596 -331.473 0.
255.305 -430.864 0.
185.547 -593.027 0.
115.789 -755.189 0.
140.709 -524.809 0.
280.405 -197.006 0.
467.584 123.635 0.
454.824 95.2725 0.
442.064 66.9095 0.
215.786 -63.437 0.
188.802 -125.161 0.
161.818 -186.885 0.
586.014 -10.6411 0.
602.281 27.7123 0.
618.548 66.0657 0.
712.828 127.097 0.
720.698 146.567 0.
17.3723 -138.836 0.
264.31 -124.173 0.
215.656 -237.152 0.
531.827 -157.117 0.
575.805 -51.8309 0.
619.783 53.4552 0.
-16.4748 -200.174 0.
-52.1729 -283.459 0.
-87.8708 -366.744 0.
332.865 -169.568 0.
363.156 -100.749 0.
393.447 -31.9299 0.
176.918 -237.595 0.
108.002 -399.503 0.
612.071 -289.705 0.
665.918 -164.576 0.
719.764 -39.4471 0.
346.973 -117.4 0.
369.348 -65.8092 0.
391.723 -14.2183 0.
475.366 -64.8323 0.
376.747 -296.318 0.
278.128 -527.803 0.
255.462 -427.855 0.
359.253 -188.027 0.
-256.429 -255.137 0.
524.117 277.55 0.
627.503 519.529 0.
590.858 620.578 0.
500.267 408.165 0.
409.675 195.753 0.
510.43 121.098 0.
487.967 69.2554 0.
465.505 17.4125 0.
549.683 47.2607 0.
554.713 58.4097 0.
559.743 69.5586 0.
565.593 -146.778 0.
435.759 -448.781 0.
226.579 -736.048 0.
310.184 -540.573 0.
393.789 -345.098 0.
319.014 -216.448 0.
408.757 -6.82375 0.
498.501 202.801 0.
413.247 274.037 0.
440.583 337.818 0.
467.918 401.598 0.
843.74 445.696 0.
756.872 242.911 0.
459.931 -48.7825 0.
304.058 -118.708 0.
303.95 -119.083 0.
293.35 -63.8908 0.
418.466 226.18 0.
543.581 516.25 0.
479.598 499.052 0.
343.648 181.662 0.
207.698 -135.728 0.
-62.7854 -314.15 0.
-43.522 -268.619 0.
-24.2586 -223.088 0.
45.1021 -121.219 0.
80.1618 -37.9423 0.
-143.177 -87.2258 0.
-171.598 -152.019 0.
-200.018 -216.813 0.
445.363 53.2277 0.
487.837 153.527 0.
530.31 253.826 0.
-33.7108 75.0022 0.
-9.46934 132.422 0.
14.7722 189.842 0.
75.8091 254.403 0.
94.9127 299.813 0.
