# vtk DataFile Version 2.0
test grain
ASCII
DATASET UNSTRUCTURED_GRID
POINTS 5000 float
0.499953 0.00100066 0.
0.501953 0.0010007 0.
0.503953 0.0010007 0.
0.505953 0.0010007 0.
0.507954 0.00100073 0.
0.509954 0.00100075 0.
0.511955 0.00100065 0.
0.513956 0.00100035 0.
0.515958 0.00100005 0.
0.517959 0.001 0.
0.51996 0.00100008 0.
0.521961 0.00100015 0.
0.523961 0.00100033 0.
0.525961 0.00100053 0.
0.527961 0.00100073 0.
0.529961 0.00100097 0.
0.53196 0.00100121 0.
0.53396 0.00100121 0.
0.535961 0.00100068 0.
0.537962 0.00100015 0.
0.539962 0.001 0.
0.541963 0.00100019 0.
0.543963 0.00100038 0.
0.545963 0.00100059 0.
0.547964 0.00100081 0.
0.549964 0.00100103 0.
0.551962 0.00100128 0.
0.55396 0.00100153 0.
0.555958 0.00100164 0.
0.557956 0.00100126 0.
0.559954 0.00100088 0.
0.561953 0.00100073 0.
0.563952 0.00100088 0.
0.565952 0.00100104 0.
0.567951 0.00100083 0.
0.56995 0.00100042 0.
0.571949 0.00100001 0.
0.573947 0.00100022 0.
0.575945 0.00100052 0.
0.577943 0.00100085 0.
0.579939 0.00100142 0.
0.581934 0.00100199 0.
0.583929 0.00100245 0.
0.585923 0.00100266 0.
0.587916 0.00100286 0.
0.589908 0.00100234 0.
0.591899 0.00100118 0.
0.593891 0.00100002 0.
0.595919 0.00100128 0.
0.597959 0.00100336 0.
0.6 0.00100544 0.
0.602042 0.00100338 0.
0.604084 0.00100133 0.
0.606113 0.00100002 0.
0.608104 0.0010009 0.
0.610095 0.00100179 0.
0.612087 0.00100225 0.
0.614081 0.00100224 0.
0.616074 0.00100223 0.
0.618069 0.00100215 0.
0.620064 0.00100205 0.
0.622059 0.00100196 0.
0.624055 0.00100182 0.
0.62605 0.00100167 0.
0.628046 0.00100147 0.
0.630045 0.00100086 0.
0.632044 0.00100025 0.
0.634043 0.001 0.
0.636044 0.00100043 0.
0.638044 0.00100085 0.
0.640044 0.00100109 0.
0.642043 0.00100119 0.
0.644043 0.00100128 0.
0.646041 0.00100152 0.
0.648039 0.00100179 0.
0.650036 0.00100204 0.
0.652036 0.00100142 0.
0.654036 0.00100081 0.
0.656036 0.00100031 0.
0.658037 0.00100016 0.
0.660038 0.001 0.
0.662039 0.00100006 0.
0.66404 0.00100036 0.
0.666041 0.00100066 0.
0.668041 0.0010009 0.
0.67004 0.00100111 0.
0.67204 0.00100131 0.
0.674039 0.00100108 0.
0.676038 0.00100081 0.
0.678038 0.00100059 0.
0.680038 0.00100074 0.
0.682039 0.00100088 0.
0.68404 0.00100092 0.
0.68604 0.00100079 0.
0.688041 0.00100065 0.
0.690042 0.00100056 0.
0.692043 0.00100052 0.
0.694044 0.00100048 0.
0.696045 0.00100039 0.
0.698045 0.00100028 0.
0.499953 0.00300199 0.
0.501954 0.0030021 0.
0.503954 0.00300209 0.
0.505954 0.00300209 0.
0.507954 0.00300218 0.
0.509955 0.00300226 0.
0.511955 0.00300194 0.
0.513957 0.00300105 0.
0.515958 0.00300017 0.
0.517959 0.003 0.
0.51996 0.00300023 0.
0.521961 0.00300045 0.
0.523962 0.00300099 0.
0.525962 0.00300158 0.
0.527962 0.00300219 0.
0.529962 0.00300291 0.
0.531961 0.00300364 0.
0.533961 0.00300363 0.
0.535961 0.00300204 0.
0.537961 0.00300044 0.
0.539962 0.00300001 0.
0.541963 0.00300058 0.
0.543965 0.00300115 0.
0.545965 0.00300179 0.
0.547965 0.00300244 0.
0.549964 0.0030031 0.
0.551962 0.00300384 0.
0.55396 0.00300458 0.
0.555958 0.00300493 0.
0.557957 0.00300378 0.
0.559956 0.00300262 0.
0.561954 0.00300218 0.
0.563953 0.00300265 0.
0.565952 0.00300312 0.
0.567951 0.00300248 0.
0.569951 0.00300126 0.
0.57195 0.00300003 0.
0.573948 0.00300066 0.
0.575946 0.00300156 0.
0.577944 0.00300255 0.
0.579941 0.00300426 0.
0.581938 0.00300596 0.
0.583934 0.00300733 0.
0.585928 0.00300797 0.
0.587922 0.0030086 0.
0.589916 0.00300701 0.
0.59191 0.00300352 0.
0.593904 0.00300003 0.
0.595929 0.00300387 0.
0.597965 0.0030101 0.
0.6 0.00301633 0.
0.602037 0.00301016 0.
0.604073 0.003004 0.
0.606099 0.00300004 0.
0.608093 0.0030027 0.
0.610087 0.00300535 0.
0.612082 0.00300675 0.
0.614076 0.00300672 0.
0.61607 0.00300668 0.
0.618066 0.00300644 0.
0.620062 0.00300616 0.
0.622057 0.00300587 0.
0.624053 0.00300546 0.
0.626049 0.00300502 0.
0.628045 0.0030044 0.
0.630044 0.00300257 0.
0.632043 0.00300074 0.
0.634042 0.00300001 0.
0.636044 0.00300128 0.
0.638045 0.00300256 0.
0.640045 0.00300327 0.
0.642044 0.00300356 0.
0.644044 0.00300385 0.
0.646041 0.00300455 0.
0.648039 0.00300536 0.
0.650036 0.00300612 0.
0.652035 0.00300428 0.
0.654034 0.00300244 0.
0.656033 0.00300094 0.
0.658036 0.00300047 0.
0.660039 0.00300001 0.
0.662041 0.00300018 0.
0.664041 0.00300109 0.
0.666042 0.003002 0.
0.668041 0.00300271 0.
0.67004 0.00300331 0.
0.672039 0.00300392 0.
0.674039 0.00300322 0.
0.676038 0.00300242 0.
0.678038 0.00300178 0.
0.680039 0.00300221 0.
0.682039 0.00300265 0.
0.68404 0.00300278 0.
0.686041 0.00300236 0.
0.688041 0.00300194 0.
0.690042 0.0030017 0.
0.692043 0.00300157 0.
0.694044 0.00300144 0.
0.696045 0.00300116 0.
0.698046 0.00300085 0.
0.499954 0.00500332 0.
0.501954 0.00500348 0.
0.503954 0.00500347 0.
0.505955 0.00500351 0.
0.507955 0.00500364 0.
0.509955 0.00500377 0.
0.511956 0.00500324 0.
0.513957 0.00500176 0.
0.515958 0.00500028 0.
0.517959 0.00499999 0.
0.519961 0.00500037 0.
0.521962 0.00500075 0.
0.523963 0.00500166 0.
0.525963 0.00500264 0.
0.527963 0.00500365 0.
0.529962 0.00500485 0.
0.531962 0.00500606 0.
0.533962 0.00500605 0.
0.535961 0.00500339 0.
0.53796 0.00500074 0.
0.539961 0.00500002 0.
0.541964 0.00500097 0.
0.543967 0.00500192 0.
0.545967 0.00500298 0.
0.547966 0.00500407 0.
0.549965 0.00500516 0.
0.551963 0.00500639 0.
0.553961 0.00500763 0.
0.555959 0.00500821 0.
0.557958 0.00500629 0.
0.559957 0.00500437 0.
0.561956 0.00500362 0.
0.563954 0.00500441 0.
0.565953 0.0050052 0.
0.567952 0.00500413 0.
0.569951 0.00500209 0.
0.571951 0.00500006 0.
0.57395 0.0050011 0.
0.575948 0.0050026 0.
0.577946 0.00500425 0.
0.579944 0.0050071 0.
0.581941 0.00500994 0.
0.583938 0.00501221 0.
0.585933 0.00501326 0.
0.587927 0.00501432 0.
0.589923 0.00501165 0.
0.59192 0.00500583 0.
0.593917 0.00500003 0.
0.595939 0.00500647 0.
0.59797 0.00501683 0.
0.6 0.00502719 0.
0.602031 0.00501693 0.
0.604062 0.00500668 0.
0.606085 0.00500005 0.
0.608082 0.00500448 0.
0.61008 0.0050089 0.
0.612076 0.00501124 0.
0.614071 0.00501118 0.
0.616067 0.00501112 0.
0.618063 0.00501073 0.
0.620059 0.00501025 0.
0.622056 0.00500978 0.
0.624051 0.00500909 0.
0.626047 0.00500836 0.
0.628043 0.00500733 0.
0.630042 0.00500428 0.
0.632041 0.00500123 0.
0.634041 0.00500001 0.
0.636043 0.00500214 0.
0.638045 0.00500427 0.
0.640045 0.00500544 0.
0.642045 0.00500592 0.
0.644044 0.00500641 0.
0.646042 0.00500757 0.
0.648039 0.00500892 0.
0.650036 0.00501019 0.
0.652034 0.00500713 0.
0.654031 0.00500407 0.
0.65603 0.00500156 0.
0.658035 0.00500079 0.
0.66004 0.00500002 0.
0.662042 0.00500031 0.
0.664043 0.00500182 0.
0.666043 0.00500333 0.
0.668042 0.0050045 0.
0.670041 0.00500551 0.
0.672039 0.00500653 0.
0.674039 0.00500537 0.
0.676039 0.00500402 0.
0.678039 0.00500296 0.
0.680039 0.00500368 0.
0.68204 0.00500441 0.
0.68404 0.00500463 0.
0.686041 0.00500393 0.
0.688042 0.00500323 0.
0.690042 0.00500283 0.
0.692043 0.00500262 0.
0.694043 0.0050024 0.
0.696045 0.00500194 0.
0.698046 0.00500141 0.
0.499956 0.00700611 0.
0.501956 0.00700645 0.
0.503956 0.00700664 0.
0.505955 0.00700682 0.
0.507956 0.00700694 0.
0.509956 0.00700706 0.
0.511957 0.00700691 0.
0.513958 0.00700632 0.
0.515959 0.00700575 0.
0.51796 0.00700582 0.
0.519961 0.00700627 0.
0.521962 0.00700672 0.
0.523962 0.00700762 0.
0.525963 0.00700859 0.
0.527963 0.00700951 0.
0.529963 0.00700998 0.
0.531963 0.00701046 0.
0.533963 0.00701082 0.
0.535963 0.00701089 0.
0.537962 0.00701096 0.
0.539963 0.00701083 0.
0.541964 0.00701052 0.
0.543965 0.00701022 0.
0.545965 0.00701031 0.
0.547965 0.00701052 0.
0.549964 0.00701073 0.
0.551963 0.0070114 0.
0.553962 0.00701208 0.
0.555961 0.00701251 0.
0.55796 0.00701198 0.
0.559959 0.00701145 0.
0.561958 0.00701122 0.
0.563957 0.00701138 0.
0.565956 0.00701155 0.
0.567955 0.00701187 0.
0.569954 0.00701231 0.
0.571953 0.00701274 0.
0.573952 0.0070137 0.
0.57595 0.00701472 0.
0.577948 0.00701574 0.
0.579946 0.0070166 0.
0.581945 0.00701747 0.
0.583943 0.00701811 0.
0.58594 0.0070183 0.
0.587938 0.0070185 0.
0.589936 0.00701553 0.
0.591935 0.00700989 0.
0.593934 0.00700426 0.
0.595952 0.00701192 0.
0.597976 0.00702373 0.
0.6 0.00703555 0.
0.602025 0.00702374 0.
0.604049 0.00701195 0.
0.606068 0.00700428 0.
0.608068 0.0070095 0.
0.610067 0.00701473 0.
0.612065 0.00701762 0.
0.614063 0.0070178 0.
0.61606 0.00701798 0.
0.618058 0.00701745 0.
0.620055 0.00701665 0.
0.622052 0.00701586 0.
0.62405 0.00701518 0.
0.626047 0.00701449 0.
0.628044 0.00701381 0.
0.630043 0.00701322 0.
0.632042 0.00701263 0.
0.634042 0.00701238 0.
0.636042 0.00701268 0.
0.638042 0.00701298 0.
0.640042 0.00701339 0.
0.642042 0.00701389 0.
0.644042 0.00701439 0.
0.64604 0.0070145 0.
0.648039 0.00701451 0.
0.650038 0.00701452 0.
0.652036 0.00701389 0.
0.654035 0.00701327 0.
0.656034 0.00701295 0.
0.658037 0.00701361 0.
0.660039 0.00701427 0.
0.66204 0.00701412 0.
0.66404 0.00701308 0.
0.666039 0.00701204 0.
0.668039 0.0070115 0.
0.670038 0.00701119 0.
0.672037 0.00701089 0.
0.674038 0.00700981 0.
0.676038 0.00700866 0.
0.678038 0.00700764 0.
0.680039 0.00700746 0.
0.682039 0.00700728 0.
0.684039 0.00700707 0.
0.68604 0.00700677 0.
0.688041 0.00700647 0.
0.690042 0.00700596 0.
0.692042 0.00700528 0.
0.694043 0.0070046 0.
0.696044 0.00700443 0.
0.698045 0.00700438 0.
0.499958 0.0090088 0.
0.501957 0.00900942 0.
0.503957 0.00900981 0.
0.505956 0.00901014 0.
0.507957 0.00901025 0.
0.509957 0.00901036 0.
0.511958 0.00901057 0.
0.513958 0.00901089 0.
0.515959 0.00901121 0.
0.51796 0.00901165 0.
0.519961 0.00901216 0.
0.521962 0.00901268 0.
0.523962 0.00901359 0.
0.525963 0.00901455 0.
0.527963 0.00901537 0.
0.529964 0.00901512 0.
0.531964 0.00901487 0.
0.533965 0.0090156 0.
0.535965 0.00901838 0.
0.537964 0.00902118 0.
0.539964 0.00902164 0.
0.541964 0.00902008 0.
0.543963 0.00901853 0.
0.545963 0.00901764 0.
0.547963 0.00901697 0.
0.549964 0.0090163 0.
0.551963 0.00901641 0.
0.553963 0.00901653 0.
0.555962 0.00901681 0.
0.557962 0.00901767 0.
0.559962 0.00901853 0.
0.561961 0.00901881 0.
0.56396 0.00901836 0.
0.565959 0.00901791 0.
0.567958 0.00901961 0.
0.569957 0.00902252 0.
0.571955 0.00902543 0.
0.573954 0.0090263 0.
0.575952 0.00902685 0.
0.57795 0.00902723 0.
0.579949 0.00902611 0.
0.581948 0.009025 0.
0.583948 0.009024 0.
0.585948 0.00902333 0.
0.587948 0.00902266 0.
0.589949 0.0090194 0.
0.59195 0.00901393 0.
0.593951 0.00900848 0.
0.595965 0.00901738 0.
0.597983 0.00903064 0.
0.600001 0.0090439 0.
0.602019 0.00903056 0.
0.604037 0.00901722 0.
0.606051 0.0090085 0.
0.608053 0.00901452 0.
0.610054 0.00902054 0.
0.612055 0.00902399 0.
0.614054 0.00902441 0.
0.616054 0.00902483 0.
0.618052 0.00902417 0.
0.620051 0.00902305 0.
0.622049 0.00902194 0.
0.624048 0.00902127 0.
0.626046 0.00902062 0.
0.628045 0.00902029 0.
0.630044 0.00902216 0.
0.632043 0.00902403 0.
0.634042 0.00902474 0.
0.636041 0.00902322 0.
0.63804 0.00902171 0.
0.640039 0.00902135 0.
0.642039 0.00902187 0.
0.644039 0.00902238 0.
0.646039 0.00902143 0.
0.648039 0.00902012 0.
0.650039 0.00901885 0.
0.652039 0.00902065 0.
0.654039 0.00902246 0.
0.656038 0.00902435 0.
0.658038 0.00902643 0.
0.660038 0.00902851 0.
0.662038 0.00902795 0.
0.664037 0.00902435 0.
0.666036 0.00902075 0.
0.668035 0.00901849 0.
0.670035 0.00901686 0.
0.672035 0.00901524 0.
0.674036 0.00901426 0.
0.676037 0.00901331 0.
0.678038 0.00901231 0.
0.680038 0.00901122 0.
0.682038 0.00901014 0.
0.684039 0.00900952 0.
0.68604 0.00900961 0.
0.688041 0.00900972 0.
0.690042 0.00900909 0.
0.692042 0.00900794 0.
0.694042 0.0090068 0.
0.696043 0.00900692 0.
0.698044 0.00900736 0.
0.499959 0.0110111 0.
0.501958 0.0110117 0.
0.503957 0.011012 0.
0.505957 0.0110123 0.
0.507957 0.0110124 0.
0.509957 0.0110125 0.
0.511958 0.0110129 0.
0.513959 0.0110136 0.
0.515959 0.0110142 0.
0.51796 0.0110149 0.
0.519961 0.0110156 0.
0.521962 0.0110163 0.
0.523962 0.0110171 0.
0.525963 0.0110179 0.
0.527963 0.0110185 0.
0.529964 0.0110181 0.
0.531964 0.0110178 0.
0.533965 0.0110187 0.
0.535965 0.0110222 0.
0.537966 0.0110258 0.
0.539965 0.0110266 0.
0.541964 0.0110249 0.
0.543963 0.0110232 0.
0.545964 0.0110219 0.
0.547964 0.0110208 0.
0.549964 0.0110197 0.
0.551964 0.0110197 0.
0.553964 0.0110196 0.
0.555964 0.0110199 0.
0.557964 0.0110211 0.
0.559964 0.0110224 0.
0.561963 0.011023 0.
0.563962 0.0110227 0.
0.565961 0.0110224 0.
0.56796 0.0110244 0.
0.569959 0.0110277 0.
0.571958 0.0110309 0.
0.573957 0.0110318 0.
0.575956 0.0110323 0.
0.577954 0.0110326 0.
0.579954 0.0110306 0.
0.581954 0.0110287 0.
0.583955 0.0110269 0.
0.585956 0.0110255 0.
0.587958 0.0110241 0.
0.58996 0.0110209 0.
0.591962 0.0110163 0.
0.593964 0.0110117 0.
0.595975 0.0110197 0.
0.597988 0.0110313 0.
0.600001 0.0110428 0.
0.602014 0.011031 0.
0.604027 0.0110191 0.
0.606038 0.0110114 0.
0.60804 0.0110171 0.
0.610043 0.0110228 0.
0.612045 0.0110263 0.
0.614045 0.0110271 0.
0.616046 0.0110279 0.
0.618046 0.0110274 0.
0.620046 0.0110262 0.
0.622045 0.0110251 0.
0.624044 0.0110246 0.
0.626044 0.0110241 0.
0.628043 0.011024 0.
0.630042 0.0110269 0.
0.632041 0.0110297 0.
0.63404 0.0110309 0.
0.636039 0.0110288 0.
0.638038 0.0110267 0.
0.640037 0.011026 0.
0.642037 0.0110263 0.
0.644037 0.0110267 0.
0.646037 0.0110254 0.
0.648038 0.0110236 0.
0.650039 0.0110218 0.
0.652039 0.0110246 0.
0.654039 0.0110274 0.
0.656039 0.01103 0.
0.658038 0.0110325 0.
0.660037 0.0110349 0.
0.662036 0.0110342 0.
0.664035 0.0110298 0.
0.666034 0.0110255 0.
0.668034 0.0110225 0.
0.670035 0.0110203 0.
0.672035 0.0110181 0.
0.674036 0.0110172 0.
0.676037 0.0110162 0.
0.678038 0.0110152 0.
0.680038 0.0110138 0.
0.682038 0.0110124 0.
0.684039 0.0110116 0.
0.68604 0.0110117 0.
0.688041 0.0110117 0.
0.690041 0.0110111 0.
0.692042 0.0110099 0.
0.694042 0.0110087 0.
0.696043 0.0110089 0.
0.698044 0.0110094 0.
0.499958 0.013013 0.
0.501958 0.0130132 0.
0.503957 0.0130133 0.
0.505957 0.0130134 0.
0.507957 0.0130135 0.
0.509958 0.0130136 0.
0.511958 0.0130139 0.
0.513959 0.0130143 0.
0.515959 0.0130148 0.
0.51796 0.0130156 0.
0.519961 0.0130166 0.
0.521962 0.0130176 0.
0.523962 0.0130181 0.
0.525962 0.0130186 0.
0.527963 0.013019 0.
0.529963 0.0130191 0.
0.531964 0.0130192 0.
0.533964 0.01302 0.
0.535965 0.0130225 0.
0.537966 0.013025 0.
0.539966 0.0130257 0.
0.541966 0.013025 0.
0.543966 0.0130242 0.
0.545966 0.0130232 0.
0.547966 0.0130221 0.
0.549966 0.013021 0.
0.551966 0.0130212 0.
0.553966 0.0130213 0.
0.555966 0.0130216 0.
0.557965 0.0130224 0.
0.559965 0.0130232 0.
0.561964 0.0130238 0.
0.563964 0.0130244 0.
0.565964 0.013025 0.
0.567963 0.0130262 0.
0.569963 0.0130278 0.
0.571962 0.0130294 0.
0.573962 0.0130303 0.
0.575962 0.0130312 0.
0.577962 0.0130319 0.
0.579962 0.0130302 0.
0.581962 0.0130286 0.
0.583963 0.0130268 0.
0.585965 0.0130248 0.
0.587967 0.0130227 0.
0.589969 0.0130201 0.
0.591972 0.0130171 0.
0.593974 0.013014 0.
0.595982 0.0130188 0.
0.597991 0.0130258 0.
0.600001 0.0130328 0.
0.60201 0.0130252 0.
0.604019 0.0130177 0.
0.606027 0.0130128 0.
0.60803 0.0130173 0.
0.610033 0.0130217 0.
0.612035 0.0130247 0.
0.614037 0.0130259 0.
0.616038 0.0130272 0.
0.618039 0.013027 0.
0.620039 0.0130262 0.
0.622039 0.0130254 0.
0.624039 0.0130251 0.
0.626039 0.0130248 0.
0.628039 0.0130249 0.
0.630038 0.0130274 0.
0.632038 0.0130299 0.
0.634038 0.0130309 0.
0.636037 0.0130294 0.
0.638037 0.0130279 0.
0.640037 0.0130273 0.
0.642036 0.0130274 0.
0.644036 0.0130274 0.
0.646036 0.0130263 0.
0.648036 0.0130249 0.
0.650037 0.0130235 0.
0.652037 0.0130258 0.
0.654037 0.013028 0.
0.656036 0.0130301 0.
0.658036 0.0130319 0.
0.660036 0.0130338 0.
0.662036 0.0130331 0.
0.664036 0.0130297 0.
0.666036 0.0130262 0.
0.668036 0.0130237 0.
0.670036 0.0130216 0.
0.672037 0.0130196 0.
0.674037 0.0130185 0.
0.676037 0.0130174 0.
0.678038 0.0130164 0.
0.680038 0.0130152 0.
0.682038 0.0130141 0.
0.684039 0.0130133 0.
0.68604 0.0130129 0.
0.688041 0.0130125 0.
0.690041 0.0130119 0.
0.692042 0.0130112 0.
0.694042 0.0130104 0.
0.696043 0.0130103 0.
0.698043 0.0130104 0.
0.499957 0.015015 0.
0.501957 0.0150148 0.
0.503958 0.0150146 0.
0.505958 0.0150145 0.
0.507958 0.0150146 0.
0.509958 0.0150146 0.
0.511958 0.0150148 0.
0.513959 0.0150151 0.
0.515959 0.0150153 0.
0.51796 0.0150163 0.
0.519961 0.0150176 0.
0.521962 0.0150189 0.
0.523962 0.0150192 0.
0.525962 0.0150193 0.
0.527962 0.0150195 0.
0.529963 0.01502 0.
0.531963 0.0150206 0.
0.533964 0.0150214 0.
0.535965 0.0150228 0.
0.537966 0.0150242 0.
0.539967 0.0150249 0.
0.541968 0.015025 0.
0.543968 0.0150252 0.
0.545968 0.0150244 0.
0.547968 0.0150233 0.
0.549968 0.0150223 0.
0.551968 0.0150227 0.
0.553968 0.0150231 0.
0.555968 0.0150234 0.
0.557967 0.0150237 0.
0.559966 0.0150239 0.
0.561966 0.0150247 0.
0.563966 0.0150261 0.
0.565966 0.0150276 0.
0.567966 0.015028 0.
0.569966 0.0150279 0.
0.571966 0.0150278 0.
0.573967 0.0150289 0.
0.575968 0.0150302 0.
0.577969 0.0150312 0.
0.579969 0.0150298 0.
0.58197 0.0150285 0.
0.583971 0.0150268 0.
0.585973 0.0150241 0.
0.587976 0.0150213 0.
0.589978 0.0150193 0.
0.591981 0.0150178 0.
0.593984 0.0150163 0.
0.595989 0.0150179 0.
0.597995 0.0150203 0.
0.600001 0.0150228 0.
0.602006 0.0150195 0.
0.604012 0.0150162 0.
0.606017 0.0150143 0.
0.60802 0.0150174 0.
0.610023 0.0150206 0.
0.612025 0.015023 0.
0.614028 0.0150248 0.
0.61603 0.0150265 0.
0.618032 0.0150267 0.
0.620033 0.0150262 0.
0.622034 0.0150257 0.
0.624034 0.0150256 0.
0.626034 0.0150256 0.
0.628035 0.0150259 0.
0.630035 0.0150279 0.
0.632035 0.01503 0.
0.634035 0.015031 0.
0.636035 0.0150301 0.
0.638036 0.0150292 0.
0.640036 0.0150286 0.
0.642035 0.0150284 0.
0.644035 0.0150282 0.
0.646035 0.0150273 0.
0.648034 0.0150262 0.
0.650034 0.0150252 0.
0.652034 0.0150269 0.
0.654034 0.0150287 0.
0.656034 0.0150302 0.
0.658034 0.0150314 0.
0.660035 0.0150326 0.
0.662036 0.015032 0.
0.664036 0.0150295 0.
0.666037 0.0150269 0.
0.668038 0.0150248 0.
0.670038 0.0150229 0.
0.672038 0.015021 0.
0.674038 0.0150198 0.
0.676038 0.0150186 0.
0.678038 0.0150175 0.
0.680038 0.0150167 0.
0.682039 0.0150158 0.
0.684039 0.0150149 0.
0.68604 0.0150141 0.
0.68804 0.0150133 0.
0.690041 0.0150128 0.
0.692042 0.0150124 0.
0.694042 0.015012 0.
0.696043 0.0150117 0.
0.698043 0.0150114 0.
0.499957 0.0170163 0.
0.501957 0.0170164 0.
0.503958 0.0170165 0.
0.505958 0.0170166 0.
0.507958 0.0170165 0.
0.509959 0.0170165 0.
0.511959 0.0170164 0.
0.51396 0.0170164 0.
0.51596 0.0170163 0.
0.517961 0.0170171 0.
0.519961 0.0170183 0.
0.521962 0.0170195 0.
0.523963 0.0170199 0.
0.525963 0.0170202 0.
0.527964 0.0170206 0.
0.529964 0.0170211 0.
0.531964 0.0170216 0.
0.533964 0.0170223 0.
0.535966 0.0170234 0.
0.537967 0.0170245 0.
0.539967 0.017025 0.
0.541968 0.017025 0.
0.543969 0.0170249 0.
0.545969 0.0170246 0.
0.547969 0.0170242 0.
0.549969 0.0170238 0.
0.551969 0.0170243 0.
0.553968 0.0170248 0.
0.555968 0.0170251 0.
0.557968 0.017025 0.
0.559967 0.0170249 0.
0.561967 0.0170254 0.
0.563968 0.0170268 0.
0.565968 0.0170282 0.
0.567968 0.0170289 0.
0.569968 0.0170291 0.
0.571969 0.0170293 0.
0.573969 0.0170298 0.
0.57597 0.0170303 0.
0.577971 0.0170307 0.
0.579972 0.0170294 0.
0.581974 0.0170282 0.
0.583975 0.0170264 0.
0.585977 0.0170236 0.
0.587979 0.0170209 0.
0.589981 0.017019 0.
0.591984 0.0170179 0.
0.593987 0.0170167 0.
0.595991 0.0170179 0.
0.597996 0.0170196 0.
0.600001 0.0170214 0.
0.602005 0.0170189 0.
0.60401 0.0170163 0.
0.606014 0.0170149 0.
0.608017 0.0170177 0.
0.610019 0.0170206 0.
0.612022 0.0170226 0.
0.614024 0.0170238 0.
0.616027 0.017025 0.
0.618029 0.0170257 0.
0.62003 0.017026 0.
0.622031 0.0170264 0.
0.624032 0.0170264 0.
0.626032 0.0170264 0.
0.628032 0.0170266 0.
0.630032 0.0170282 0.
0.632032 0.0170297 0.
0.634033 0.0170306 0.
0.636033 0.0170302 0.
0.638034 0.0170298 0.
0.640034 0.0170296 0.
0.642034 0.0170296 0.
0.644034 0.0170295 0.
0.646034 0.0170287 0.
0.648034 0.0170276 0.
0.650033 0.0170266 0.
0.652033 0.017028 0.
0.654033 0.0170294 0.
0.656033 0.0170307 0.
0.658034 0.0170316 0.
0.660034 0.0170326 0.
0.662035 0.0170321 0.
0.664036 0.0170301 0.
0.666037 0.017028 0.
0.668037 0.0170262 0.
0.670038 0.0170245 0.
0.672038 0.0170229 0.
0.674038 0.0170212 0.
0.676038 0.0170195 0.
0.678038 0.017018 0.
0.680038 0.0170172 0.
0.682039 0.0170164 0.
0.68404 0.0170157 0.
0.68604 0.0170151 0.
0.688041 0.0170145 0.
0.690041 0.0170141 0.
0.692042 0.0170138 0.
0.694042 0.0170135 0.
0.696042 0.0170132 0.
0.698043 0.0170129 0.
0.499957 0.0190177 0.
0.501958 0.0190181 0.
0.503958 0.0190185 0.
0.505959 0.0190187 0.
0.507959 0.0190185 0.
0.50996 0.0190183 0.
0.51196 0.019018 0.
0.51396 0.0190177 0.
0.515961 0.0190173 0.
0.517961 0.0190179 0.
0.519962 0.019019 0.
0.521962 0.0190201 0.
0.523963 0.0190207 0.
0.525964 0.0190212 0.
0.527965 0.0190217 0.
0.529965 0.0190222 0.
0.531965 0.0190227 0.
0.533965 0.0190233 0.
0.535966 0.0190241 0.
0.537967 0.0190249 0.
0.539968 0.0190251 0.
0.541969 0.0190249 0.
0.54397 0.0190246 0.
0.54597 0.0190248 0.
0.54797 0.0190251 0.
0.54997 0.0190254 0.
0.55197 0.019026 0.
0.553969 0.0190265 0.
0.555969 0.0190269 0.
0.557969 0.0190264 0.
0.559969 0.0190259 0.
0.561969 0.0190262 0.
0.56397 0.0190275 0.
0.56597 0.0190289 0.
0.567971 0.0190297 0.
0.569971 0.0190303 0.
0.571971 0.0190309 0.
0.573972 0.0190307 0.
0.575973 0.0190305 0.
0.577974 0.0190302 0.
0.579976 0.019029 0.
0.581978 0.0190278 0.
0.583979 0.0190261 0.
0.585981 0.0190232 0.
0.587983 0.0190204 0.
0.589985 0.0190187 0.
0.591987 0.019018 0.
0.593989 0.0190172 0.
0.595993 0.0190179 0.
0.597997 0.019019 0.
0.6 0.0190201 0.
0.602004 0.0190182 0.
0.604008 0.0190164 0.
0.606012 0.0190155 0.
0.608014 0.019018 0.
0.610016 0.0190206 0.
0.612019 0.0190223 0.
0.614021 0.0190229 0.
0.616024 0.0190235 0.
0.618025 0.0190246 0.
0.620027 0.0190259 0.
0.622029 0.0190271 0.
0.624029 0.0190272 0.
0.626029 0.0190272 0.
0.628029 0.0190274 0.
0.63003 0.0190284 0.
0.63203 0.0190295 0.
0.634031 0.0190302 0.
0.636031 0.0190303 0.
0.638032 0.0190304 0.
0.640032 0.0190306 0.
0.642033 0.0190307 0.
0.644034 0.0190308 0.
0.646034 0.01903 0.
0.648033 0.019029 0.
0.650032 0.0190279 0.
0.652032 0.0190291 0.
0.654032 0.0190302 0.
0.656032 0.0190312 0.
0.658033 0.0190318 0.
0.660033 0.0190325 0.
0.662034 0.0190322 0.
0.664035 0.0190306 0.
0.666036 0.0190291 0.
0.668037 0.0190276 0.
0.670038 0.0190262 0.
0.672038 0.0190247 0.
0.674038 0.0190226 0.
0.676038 0.0190204 0.
0.678038 0.0190184 0.
0.680039 0.0190177 0.
0.682039 0.019017 0.
0.68404 0.0190164 0.
0.686041 0.019016 0.
0.688041 0.0190156 0.
0.690041 0.0190154 0.
0.692042 0.0190151 0.
0.694042 0.0190149 0.
0.696042 0.0190147 0.
0.698043 0.0190145 0.
0.499958 0.0210194 0.
0.501958 0.0210197 0.
0.503959 0.0210199 0.
0.505959 0.02102 0.
0.50796 0.0210199 0.
0.50996 0.0210197 0.
0.511961 0.0210194 0.
0.513961 0.021019 0.
0.515961 0.0210185 0.
0.517962 0.0210188 0.
0.519962 0.0210197 0.
0.521963 0.0210205 0.
0.523964 0.0210212 0.
0.525965 0.0210218 0.
0.527966 0.0210223 0.
0.529966 0.0210229 0.
0.531966 0.0210235 0.
0.533967 0.0210241 0.
0.535967 0.0210246 0.
0.537968 0.0210251 0.
0.539969 0.0210252 0.
0.541969 0.021025 0.
0.54397 0.0210247 0.
0.545971 0.0210251 0.
0.547971 0.0210256 0.
0.549971 0.0210261 0.
0.551971 0.0210268 0.
0.55397 0.0210276 0.
0.55597 0.021028 0.
0.55797 0.0210273 0.
0.559971 0.0210266 0.
0.561971 0.0210267 0.
0.563972 0.0210278 0.
0.565972 0.0210289 0.
0.567973 0.0210297 0.
0.569973 0.0210304 0.
0.571974 0.0210311 0.
0.573975 0.0210307 0.
0.575975 0.0210302 0.
0.577976 0.0210296 0.
0.579978 0.0210284 0.
0.581981 0.0210271 0.
0.583982 0.0210255 0.
0.585984 0.0210229 0.
0.587985 0.0210203 0.
0.589987 0.0210188 0.
0.591989 0.0210182 0.
0.593991 0.0210175 0.
0.595994 0.0210178 0.
0.597997 0.0210185 0.
0.600001 0.0210191 0.
0.602004 0.0210179 0.
0.604007 0.0210167 0.
0.60601 0.0210163 0.
0.608012 0.0210183 0.
0.610014 0.0210203 0.
0.612016 0.0210216 0.
0.614018 0.0210221 0.
0.61602 0.0210225 0.
0.618022 0.0210238 0.
0.620024 0.0210256 0.
0.622026 0.0210273 0.
0.624026 0.0210274 0.
0.626026 0.0210274 0.
0.628026 0.0210275 0.
0.630027 0.0210285 0.
0.632028 0.0210294 0.
0.634029 0.0210301 0.
0.636029 0.0210303 0.
0.63803 0.0210305 0.
0.64003 0.0210307 0.
0.642031 0.0210311 0.
0.644032 0.0210315 0.
0.646032 0.0210308 0.
0.648031 0.0210298 0.
0.650031 0.0210288 0.
0.652031 0.0210297 0.
0.654031 0.0210306 0.
0.656031 0.0210313 0.
0.658032 0.0210318 0.
0.660032 0.0210323 0.
0.662033 0.021032 0.
0.664034 0.0210308 0.
0.666036 0.0210295 0.
0.668036 0.0210284 0.
0.670037 0.0210273 0.
0.672038 0.0210261 0.
0.674038 0.021024 0.
0.676038 0.0210217 0.
0.678038 0.0210195 0.
0.680038 0.0210187 0.
0.682039 0.0210179 0.
0.68404 0.0210172 0.
0.68604 0.021017 0.
0.688041 0.0210167 0.
0.690041 0.0210166 0.
0.692041 0.0210165 0.
0.694042 0.0210165 0.
0.696042 0.0210163 0.
0.698043 0.0210162 0.
0.499958 0.0230213 0.
0.501959 0.0230212 0.
0.503959 0.0230209 0.
0.50596 0.0230206 0.
0.50796 0.0230207 0.
0.509961 0.0230208 0.
0.511962 0.0230206 0.
0.513962 0.0230203 0.
0.515961 0.0230199 0.
0.517962 0.02302 0.
0.519963 0.0230203 0.
0.521964 0.0230207 0.
0.523965 0.0230213 0.
0.525966 0.023022 0.
0.527966 0.0230226 0.
0.529967 0.0230233 0.
0.531968 0.0230241 0.
0.533968 0.0230247 0.
0.535969 0.023025 0.
0.537969 0.0230252 0.
0.53997 0.0230253 0.
0.54197 0.0230252 0.
0.543971 0.023025 0.
0.545971 0.0230253 0.
0.547972 0.0230257 0.
0.549972 0.0230261 0.
0.551972 0.023027 0.
0.553972 0.0230279 0.
0.555972 0.0230285 0.
0.557973 0.0230278 0.
0.559973 0.0230271 0.
0.561973 0.023027 0.
0.563974 0.0230277 0.
0.565974 0.0230284 0.
0.567975 0.023029 0.
0.569976 0.0230295 0.
0.571977 0.02303 0.
0.573977 0.0230297 0.
0.575978 0.0230293 0.
0.577979 0.0230289 0.
0.579981 0.0230275 0.
0.581983 0.0230262 0.
0.583984 0.0230246 0.
0.585986 0.0230226 0.
0.587988 0.0230206 0.
0.589989 0.0230193 0.
0.591991 0.0230185 0.
0.593992 0.0230177 0.
0.595995 0.0230178 0.
0.597998 0.0230181 0.
0.600001 0.0230184 0.
0.602003 0.0230179 0.
0.604006 0.0230174 0.
0.606008 0.0230173 0.
0.60801 0.0230185 0.
0.610012 0.0230197 0.
0.612014 0.0230207 0.
0.614016 0.0230213 0.
0.616018 0.0230219 0.
0.618019 0.0230234 0.
0.620021 0.0230252 0.
0.622022 0.023027 0.
0.624023 0.0230271 0.
0.626024 0.023027 0.
0.628024 0.0230271 0.
0.630025 0.0230283 0.
0.632025 0.0230295 0.
0.634026 0.0230303 0.
0.636027 0.0230301 0.
0.638027 0.0230299 0.
0.640028 0.0230301 0.
0.642029 0.0230307 0.
0.64403 0.0230313 0.
0.64603 0.0230308 0.
0.648029 0.02303 0.
0.650029 0.0230292 0.
0.65203 0.0230299 0.
0.65403 0.0230306 0.
0.65603 0.0230312 0.
0.658031 0.0230315 0.
0.660031 0.0230318 0.
0.662032 0.0230315 0.
0.664033 0.0230304 0.
0.666035 0.0230293 0.
0.668036 0.0230285 0.
0.670036 0.0230278 0.
0.672037 0.0230271 0.
0.674037 0.0230252 0.
0.676037 0.0230232 0.
0.678037 0.0230213 0.
0.680038 0.0230202 0.
0.682039 0.0230191 0.
0.684039 0.0230183 0.
0.68604 0.023018 0.
0.688041 0.0230178 0.
0.690041 0.0230178 0.
0.692041 0.0230179 0.
0.694042 0.023018 0.
0.696042 0.023018 0.
0.698043 0.023018 0.
0.499958 0.0250232 0.
0.501959 0.0250227 0.
0.50396 0.0250219 0.
0.50596 0.0250213 0.
0.507961 0.0250215 0.
0.509962 0.0250218 0.
0.511963 0.0250218 0.
0.513962 0.0250215 0.
0.515962 0.0250213 0.
0.517962 0.0250211 0.
0.519964 0.0250209 0.
0.521965 0.0250208 0.
0.523966 0.0250214 0.
0.525967 0.0250222 0.
0.527967 0.0250229 0.
0.529968 0.0250237 0.
0.531969 0.0250246 0.
0.53397 0.0250253 0.
0.53597 0.0250253 0.
0.53797 0.0250254 0.
0.53997 0.0250254 0.
0.541971 0.0250254 0.
0.543971 0.0250254 0.
0.545972 0.0250256 0.
0.547972 0.0250258 0.
0.549973 0.025026 0.
0.551974 0.0250271 0.
0.553974 0.0250283 0.
0.555975 0.0250291 0.
0.557975 0.0250283 0.
0.559975 0.0250276 0.
0.561976 0.0250274 0.
0.563976 0.0250276 0.
0.565976 0.0250279 0.
0.567977 0.0250282 0.
0.569978 0.0250286 0.
0.571979 0.0250289 0.
0.57398 0.0250287 0.
0.575981 0.0250285 0.
0.577982 0.0250282 0.
0.579983 0.0250267 0.
0.581985 0.0250252 0.
0.583986 0.0250237 0.
0.585988 0.0250222 0.
0.58799 0.0250208 0.
0.589991 0.0250197 0.
0.591992 0.0250188 0.
0.593994 0.0250179 0.
0.595996 0.0250177 0.
0.597999 0.0250177 0.
0.600001 0.0250177 0.
0.602003 0.0250179 0.
0.604005 0.025018 0.
0.606006 0.0250183 0.
0.608008 0.0250187 0.
0.61001 0.0250191 0.
0.612012 0.0250197 0.
0.614013 0.0250205 0.
0.616015 0.0250213 0.
0.618016 0.0250229 0.
0.620017 0.0250248 0.
0.622019 0.0250267 0.
0.62402 0.0250268 0.
0.626021 0.0250267 0.
0.628022 0.0250267 0.
0.630023 0.0250282 0.
0.632023 0.0250296 0.
0.634023 0.0250304 0.
0.636024 0.0250299 0.
0.638025 0.0250293 0.
0.640026 0.0250295 0.
0.642026 0.0250304 0.
0.644027 0.0250312 0.
0.646027 0.0250309 0.
0.648027 0.0250302 0.
0.650027 0.0250296 0.
0.652028 0.0250301 0.
0.654029 0.0250306 0.
0.65603 0.0250311 0.
0.65803 0.0250312 0.
0.660031 0.0250314 0.
0.662031 0.025031 0.
0.664033 0.02503 0.
0.666034 0.025029 0.
0.668035 0.0250286 0.
0.670036 0.0250283 0.
0.672037 0.0250281 0.
0.674037 0.0250265 0.
0.676037 0.0250247 0.
0.678037 0.025023 0.
0.680038 0.0250216 0.
0.682038 0.0250202 0.
0.684038 0.0250193 0.
0.686039 0.0250191 0.
0.68804 0.0250189 0.
0.690041 0.025019 0.
0.692041 0.0250193 0.
0.694042 0.0250195 0.
0.696042 0.0250197 0.
0.698043 0.0250199 0.
0.499959 0.0270239 0.
0.501959 0.0270234 0.
0.50396 0.0270227 0.
0.505961 0.0270222 0.
0.507962 0.0270223 0.
0.509963 0.0270224 0.
0.511963 0.0270224 0.
0.513963 0.0270221 0.
0.515963 0.0270218 0.
0.517964 0.0270214 0.
0.519965 0.0270209 0.
0.521966 0.0270204 0.
0.523967 0.0270212 0.
0.525968 0.0270221 0.
0.527968 0.027023 0.
0.529969 0.0270239 0.
0.53197 0.0270248 0.
0.533971 0.0270255 0.
0.535971 0.0270257 0.
0.537971 0.0270259 0.
0.539972 0.0270259 0.
0.541972 0.0270257 0.
0.543973 0.0270255 0.
0.545973 0.0270255 0.
0.547974 0.0270255 0.
0.549975 0.0270255 0.
0.551975 0.0270268 0.
0.553976 0.0270282 0.
0.555976 0.0270292 0.
0.557977 0.0270284 0.
0.559977 0.0270277 0.
0.561977 0.0270273 0.
0.563978 0.0270275 0.
0.565978 0.0270277 0.
0.567979 0.0270277 0.
0.56998 0.0270275 0.
0.571981 0.0270274 0.
0.573982 0.0270274 0.
0.575983 0.0270274 0.
0.577984 0.0270273 0.
0.579985 0.0270262 0.
0.581986 0.027025 0.
0.583988 0.0270237 0.
0.585989 0.0270222 0.
0.587991 0.0270207 0.
0.589992 0.0270196 0.
0.591993 0.0270186 0.
0.593994 0.0270177 0.
0.595996 0.0270177 0.
0.597999 0.0270178 0.
0.600001 0.027018 0.
0.602003 0.0270179 0.
0.604004 0.0270178 0.
0.606006 0.0270177 0.
0.608008 0.027018 0.
0.61001 0.0270183 0.
0.612011 0.027019 0.
0.614012 0.02702 0.
0.616013 0.027021 0.
0.618014 0.0270224 0.
0.620016 0.0270241 0.
0.622017 0.0270258 0.
0.624018 0.027026 0.
0.62602 0.0270262 0.
0.628021 0.0270265 0.
0.630021 0.0270278 0.
0.632022 0.0270291 0.
0.634022 0.0270299 0.
0.636023 0.0270296 0.
0.638024 0.0270293 0.
0.640024 0.0270295 0.
0.642025 0.0270302 0.
0.644026 0.0270308 0.
0.646026 0.0270305 0.
0.648026 0.0270299 0.
0.650027 0.0270293 0.
0.652027 0.0270298 0.
0.654028 0.0270303 0.
0.656029 0.0270308 0.
0.658029 0.027031 0.
0.66003 0.0270312 0.
0.662031 0.0270308 0.
0.664032 0.0270298 0.
0.666033 0.0270288 0.
0.668034 0.0270282 0.
0.670035 0.0270277 0.
0.672036 0.0270272 0.
0.674036 0.0270259 0.
0.676036 0.0270245 0.
0.678037 0.0270231 0.
0.680037 0.0270221 0.
0.682038 0.027021 0.
0.684039 0.0270202 0.
0.686039 0.0270199 0.
0.68804 0.0270196 0.
0.690041 0.0270197 0.
0.692041 0.0270202 0.
0.694042 0.0270206 0.
0.696042 0.0270213 0.
0.698042 0.0270219 0.
0.499959 0.0290246 0.
0.50196 0.0290242 0.
0.503961 0.0290236 0.
0.505961 0.0290231 0.
0.507962 0.0290231 0.
0.509963 0.0290231 0.
0.511963 0.0290229 0.
0.513964 0.0290226 0.
0.515964 0.0290224 0.
0.517965 0.0290217 0.
0.519966 0.0290208 0.
0.521967 0.02902 0.
0.523968 0.0290209 0.
0.525968 0.029022 0.
0.527969 0.0290231 0.
0.52997 0.029024 0.
0.531971 0.0290249 0.
0.533971 0.0290257 0.
0.535972 0.0290261 0.
0.537972 0.0290265 0.
0.539973 0.0290264 0.
0.541974 0.029026 0.
0.543974 0.0290257 0.
0.545975 0.0290254 0.
0.547975 0.0290252 0.
0.549976 0.0290249 0.
0.551977 0.0290265 0.
0.553977 0.0290282 0.
0.555978 0.0290293 0.
0.557978 0.0290285 0.
0.559978 0.0290277 0.
0.561979 0.0290273 0.
0.563979 0.0290274 0.
0.56598 0.0290276 0.
0.567981 0.0290272 0.
0.569982 0.0290265 0.
0.571983 0.0290259 0.
0.573983 0.029026 0.
0.575984 0.0290263 0.
0.577985 0.0290265 0.
0.579987 0.0290257 0.
0.581988 0.0290248 0.
0.58399 0.0290237 0.
0.585991 0.0290222 0.
0.587991 0.0290206 0.
0.589993 0.0290194 0.
0.591994 0.0290185 0.
0.593995 0.0290175 0.
0.595997 0.0290176 0.
0.597999 0.0290179 0.
0.6 0.0290182 0.
0.602002 0.0290179 0.
0.604004 0.0290175 0.
0.606006 0.0290172 0.
0.608008 0.0290174 0.
0.610009 0.0290176 0.
0.612011 0.0290182 0.
0.614011 0.0290194 0.
0.616012 0.0290205 0.
0.618013 0.0290219 0.
0.620014 0.0290234 0.
0.622016 0.0290249 0.
0.624017 0.0290253 0.
0.626018 0.0290257 0.
0.628019 0.0290262 0.
0.63002 0.0290274 0.
0.63202 0.0290286 0.
0.634021 0.0290294 0.
0.636022 0.0290293 0.
0.638022 0.0290293 0.
0.640023 0.0290295 0.
0.642024 0.02903 0.
0.644024 0.0290304 0.
0.646025 0.0290301 0.
0.648026 0.0290295 0.
0.650026 0.029029 0.
0.652027 0.0290295 0.
0.654027 0.02903 0.
0.656028 0.0290305 0.
0.658028 0.0290308 0.
0.660029 0.029031 0.
0.66203 0.0290307 0.
0.664031 0.0290297 0.
0.666032 0.0290286 0.
0.668033 0.0290278 0.
0.670034 0.0290271 0.
0.672035 0.0290264 0.
0.674035 0.0290253 0.
0.676036 0.0290243 0.
0.678036 0.0290232 0.
0.680037 0.0290225 0.
0.682038 0.0290218 0.
0.684039 0.0290212 0.
0.686039 0.0290207 0.
0.688039 0.0290203 0.
0.69004 0.0290204 0.
0.692041 0.0290211 0.
0.694042 0.0290217 0.
0.696042 0.0290228 0.
0.698042 0.0290239 0.
0.49996 0.0310256 0.
0.501961 0.0310251 0.
0.503961 0.0310245 0.
0.505962 0.0310239 0.
0.507963 0.0310237 0.
0.509964 0.0310235 0.
0.511964 0.0310233 0.
0.513965 0.031023 0.
0.515965 0.0310228 0.
0.517966 0.0310221 0.
0.519967 0.0310213 0.
0.521968 0.0310205 0.
0.523969 0.0310212 0.
0.525969 0.0310222 0.
0.52797 0.0310232 0.
0.529971 0.031024 0.
0.531972 0.0310249 0.
0.533972 0.0310257 0.
0.535973 0.0310263 0.
0.537973 0.0310269 0.
0.539974 0.0310269 0.
0.541975 0.0310264 0.
0.543975 0.031026 0.
0.545976 0.0310255 0.
0.547976 0.031025 0.
0.549977 0.0310246 0.
0.551978 0.0310262 0.
0.553978 0.0310279 0.
0.555979 0.0310291 0.
0.557979 0.0310284 0.
0.55998 0.0310277 0.
0.56198 0.0310274 0.
0.563981 0.0310274 0.
0.565981 0.0310274 0.
0.567982 0.0310268 0.
0.569983 0.031026 0.
0.571984 0.0310252 0.
0.573985 0.0310254 0.
0.575986 0.0310257 0.
0.577987 0.0310259 0.
0.579988 0.0310252 0.
0.581989 0.0310245 0.
0.583991 0.0310235 0.
0.585991 0.031022 0.
0.587992 0.0310205 0.
0.589993 0.0310193 0.
0.591994 0.0310184 0.
0.593996 0.0310176 0.
0.595997 0.0310176 0.
0.597999 0.0310178 0.
0.6 0.031018 0.
0.602002 0.0310176 0.
0.604004 0.0310172 0.
0.606006 0.0310169 0.
0.608007 0.031017 0.
0.610009 0.0310172 0.
0.61201 0.0310179 0.
0.61401 0.0310193 0.
0.616011 0.0310208 0.
0.618012 0.031022 0.
0.620013 0.0310231 0.
0.622015 0.0310242 0.
0.624016 0.0310248 0.
0.626016 0.0310253 0.
0.628017 0.0310259 0.
0.630018 0.031027 0.
0.632019 0.031028 0.
0.63402 0.0310288 0.
0.63602 0.031029 0.
0.638021 0.0310292 0.
0.640022 0.0310295 0.
0.642022 0.0310299 0.
0.644023 0.0310303 0.
0.646024 0.03103 0.
0.648024 0.0310294 0.
0.650025 0.0310289 0.
0.652025 0.0310294 0.
0.654026 0.0310299 0.
0.656026 0.0310303 0.
0.658027 0.0310305 0.
0.660028 0.0310307 0.
0.662029 0.0310304 0.
0.66403 0.0310296 0.
0.666031 0.0310287 0.
0.668032 0.0310277 0.
0.670033 0.0310268 0.
0.672033 0.0310258 0.
0.674034 0.0310251 0.
0.676035 0.0310244 0.
0.678035 0.0310238 0.
0.680036 0.0310233 0.
0.682038 0.0310227 0.
0.684038 0.0310222 0.
0.686038 0.0310217 0.
0.688039 0.0310212 0.
0.690039 0.0310214 0.
0.69204 0.0310222 0.
0.694041 0.0310229 0.
0.696041 0.0310241 0.
0.698041 0.0310253 0.
0.499962 0.0330269 0.
0.501962 0.0330261 0.
0.503963 0.0330253 0.
0.505963 0.0330246 0.
0.507964 0.0330242 0.
0.509965 0.0330238 0.
0.511965 0.0330235 0.
0.513966 0.0330233 0.
0.515967 0.033023 0.
0.517968 0.0330227 0.
0.519969 0.0330222 0.
0.521969 0.0330218 0.
0.52397 0.0330222 0.
0.52597 0.0330228 0.
0.52797 0.0330233 0.
0.529971 0.033024 0.
0.531972 0.0330247 0.
0.533973 0.0330254 0.
0.535974 0.0330263 0.
0.537974 0.0330273 0.
0.539975 0.0330274 0.
0.541976 0.0330269 0.
0.543976 0.0330264 0.
0.545977 0.0330258 0.
0.547977 0.0330251 0.
0.549977 0.0330244 0.
0.551978 0.0330258 0.
0.553979 0.0330273 0.
0.55598 0.0330285 0.
0.55798 0.0330282 0.
0.559981 0.0330279 0.
0.561981 0.0330276 0.
0.563982 0.0330274 0.
0.565983 0.0330272 0.
0.567983 0.0330267 0.
0.569984 0.033026 0.
0.571985 0.0330253 0.
0.573986 0.0330253 0.
0.575987 0.0330254 0.
0.577988 0.0330255 0.
0.579989 0.0330247 0.
0.58199 0.033024 0.
0.583991 0.0330231 0.
0.585992 0.0330218 0.
0.587993 0.0330205 0.
0.589994 0.0330195 0.
0.591995 0.0330186 0.
0.593995 0.0330178 0.
0.595997 0.0330175 0.
0.597999 0.0330174 0.
0.6 0.0330174 0.
0.602002 0.0330172 0.
0.604004 0.033017 0.
0.606006 0.0330169 0.
0.608007 0.033017 0.
0.610008 0.0330171 0.
0.612009 0.033018 0.
0.61401 0.0330198 0.
0.616011 0.0330216 0.
0.618012 0.0330226 0.
0.620013 0.0330231 0.
0.622014 0.0330236 0.
0.624014 0.0330243 0.
0.626015 0.033025 0.
0.628016 0.0330258 0.
0.630017 0.0330266 0.
0.632017 0.0330274 0.
0.634018 0.0330281 0.
0.636019 0.0330286 0.
0.638019 0.0330291 0.
0.64002 0.0330296 0.
0.642021 0.03303 0.
0.644021 0.0330304 0.
0.646022 0.0330301 0.
0.648023 0.0330295 0.
0.650023 0.0330289 0.
0.652024 0.0330294 0.
0.654024 0.0330298 0.
0.656025 0.0330302 0.
0.658026 0.0330302 0.
0.660027 0.0330303 0.
0.662028 0.0330301 0.
0.664029 0.0330296 0.
0.66603 0.0330291 0.
0.668031 0.033028 0.
0.670032 0.0330267 0.
0.672032 0.0330254 0.
0.674033 0.0330251 0.
0.676033 0.0330249 0.
0.678034 0.0330247 0.
0.680035 0.0330242 0.
0.682037 0.0330237 0.
0.684037 0.0330232 0.
0.686037 0.0330228 0.
0.688037 0.0330224 0.
0.690038 0.0330227 0.
0.692039 0.0330234 0.
0.69404 0.0330242 0.
0.69604 0.0330251 0.
0.69804 0.033026 0.
0.499964 0.0350282 0.
0.501964 0.0350271 0.
0.503964 0.0350262 0.
0.505964 0.0350253 0.
0.507965 0.0350247 0.
0.509966 0.0350241 0.
0.511966 0.0350237 0.
0.513967 0.0350235 0.
0.515968 0.0350233 0.
0.517969 0.0350232 0.
0.51997 0.0350232 0.
0.521971 0.0350231 0.
0.523971 0.0350232 0.
0.525971 0.0350233 0.
0.52797 0.0350234 0.
0.529972 0.0350239 0.
0.531973 0.0350244 0.
0.533974 0.0350252 0.
0.535975 0.0350264 0.
0.537975 0.0350276 0.
0.539976 0.0350279 0.
0.541977 0.0350274 0.
0.543977 0.0350269 0.
0.545978 0.0350261 0.
0.547978 0.0350251 0.
0.549978 0.0350242 0.
0.551979 0.0350255 0.
0.55398 0.0350268 0.
0.555981 0.0350279 0.
0.557982 0.0350279 0.
0.559982 0.035028 0.
0.561982 0.0350278 0.
0.563983 0.0350274 0.
0.565984 0.035027 0.
0.567984 0.0350265 0.
0.569985 0.0350259 0.
0.571985 0.0350254 0.
0.573986 0.0350253 0.
0.575987 0.0350252 0.
0.577989 0.0350251 0.
0.57999 0.0350243 0.
0.58199 0.0350235 0.
0.583991 0.0350226 0.
0.585992 0.0350216 0.
0.587993 0.0350205 0.
0.589994 0.0350196 0.
0.591995 0.0350188 0.
0.593995 0.035018 0.
0.595997 0.0350175 0.
0.597999 0.0350171 0.
0.6 0.0350167 0.
0.602003 0.0350168 0.
0.604005 0.0350168 0.
0.606007 0.0350169 0.
0.608007 0.035017 0.
0.610008 0.0350171 0.
0.612009 0.0350181 0.
0.61401 0.0350203 0.
0.616011 0.0350224 0.
0.618012 0.0350231 0.
0.620012 0.0350231 0.
0.622012 0.0350231 0.
0.624013 0.0350239 0.
0.626014 0.0350247 0.
0.628014 0.0350256 0.
0.630015 0.0350262 0.
0.632016 0.0350268 0.
0.634017 0.0350275 0.
0.636017 0.0350283 0.
0.638018 0.035029 0.
0.640019 0.0350296 0.
0.642019 0.0350301 0.
0.644019 0.0350306 0.
0.64602 0.0350302 0.
0.648021 0.0350295 0.
0.650022 0.0350289 0.
0.652022 0.0350294 0.
0.654023 0.0350298 0.
0.656024 0.0350301 0.
0.658025 0.0350299 0.
0.660026 0.0350298 0.
0.662027 0.0350297 0.
0.664028 0.0350295 0.
0.666029 0.0350294 0.
0.66803 0.0350283 0.
0.670031 0.0350266 0.
0.672031 0.035025 0.
0.674032 0.0350251 0.
0.676032 0.0350254 0.
0.678033 0.0350256 0.
0.680034 0.0350251 0.
0.682036 0.0350247 0.
0.684036 0.0350242 0.
0.686036 0.0350239 0.
0.688036 0.0350236 0.
0.690037 0.0350239 0.
0.692037 0.0350247 0.
0.694038 0.0350255 0.
0.696039 0.0350261 0.
0.698039 0.0350267 0.
0.499965 0.0370279 0.
0.501965 0.0370273 0.
0.503965 0.0370268 0.
0.505966 0.0370261 0.
0.507967 0.0370254 0.
0.509967 0.0370247 0.
0.511968 0.0370242 0.
0.513969 0.0370242 0.
0.515969 0.0370241 0.
0.51797 0.037024 0.
0.519971 0.0370238 0.
0.521972 0.0370236 0.
0.523972 0.0370236 0.
0.525972 0.0370236 0.
0.527972 0.0370236 0.
0.529973 0.0370239 0.
0.531974 0.0370242 0.
0.533976 0.0370247 0.
0.535976 0.0370254 0.
0.537977 0.0370261 0.
0.539978 0.0370265 0.
0.541978 0.0370268 0.
0.543979 0.037027 0.
0.545979 0.0370264 0.
0.547979 0.0370255 0.
0.549979 0.0370246 0.
0.55198 0.0370255 0.
0.553981 0.0370263 0.
0.555982 0.0370271 0.
0.557982 0.0370274 0.
0.559983 0.0370277 0.
0.561983 0.0370275 0.
0.563984 0.0370266 0.
0.565985 0.0370258 0.
0.567985 0.0370253 0.
0.569986 0.037025 0.
0.571987 0.0370246 0.
0.573988 0.0370247 0.
0.575989 0.0370249 0.
0.57799 0.0370249 0.
0.57999 0.037024 0.
0.581991 0.0370231 0.
0.583992 0.0370222 0.
0.585993 0.0370211 0.
0.587994 0.0370201 0.
0.589995 0.0370192 0.
0.591995 0.0370184 0.
0.593996 0.0370175 0.
0.595997 0.0370172 0.
0.597999 0.0370169 0.
0.600001 0.0370167 0.
0.602002 0.0370169 0.
0.604004 0.0370171 0.
0.606005 0.0370172 0.
0.608006 0.0370172 0.
0.610007 0.0370172 0.
0.612007 0.0370179 0.
0.614008 0.0370196 0.
0.616009 0.0370213 0.
0.61801 0.0370222 0.
0.620011 0.0370226 0.
0.622011 0.037023 0.
0.624012 0.0370236 0.
0.626012 0.0370243 0.
0.628013 0.0370249 0.
0.630014 0.0370258 0.
0.632014 0.0370267 0.
0.634015 0.0370275 0.
0.636016 0.0370281 0.
0.638017 0.0370288 0.
0.640017 0.0370293 0.
0.642018 0.0370297 0.
0.644019 0.0370302 0.
0.646019 0.0370298 0.
0.64802 0.0370292 0.
0.650021 0.0370286 0.
0.652021 0.0370289 0.
0.654022 0.0370292 0.
0.656022 0.0370294 0.
0.658024 0.0370295 0.
0.660025 0.0370296 0.
0.662026 0.0370296 0.
0.664027 0.0370294 0.
0.666027 0.0370292 0.
0.668028 0.0370283 0.
0.670029 0.037027 0.
0.67203 0.0370257 0.
0.674031 0.0370254 0.
0.676031 0.0370252 0.
0.678031 0.037025 0.
0.680033 0.0370249 0.
0.682034 0.0370247 0.
0.684035 0.0370246 0.
0.686035 0.0370243 0.
0.688035 0.037024 0.
0.690036 0.0370243 0.
0.692036 0.0370249 0.
0.694037 0.0370256 0.
0.696037 0.0370266 0.
0.698038 0.0370276 0.
0.499966 0.0390277 0.
0.501967 0.0390275 0.
0.503967 0.0390273 0.
0.505968 0.0390269 0.
0.507968 0.0390261 0.
0.509969 0.0390253 0.
0.51197 0.0390248 0.
0.51397 0.0390248 0.
0.51597 0.0390248 0.
0.517971 0.0390247 0.
0.519972 0.0390244 0.
0.521973 0.039024 0.
0.523973 0.0390239 0.
0.525973 0.0390238 0.
0.527973 0.0390238 0.
0.529974 0.0390239 0.
0.531976 0.039024 0.
0.533977 0.0390242 0.
0.535978 0.0390244 0.
0.537979 0.0390246 0.
0.53998 0.0390252 0.
0.54198 0.0390262 0.
0.54398 0.0390272 0.
0.54598 0.0390268 0.
0.547981 0.0390259 0.
0.549981 0.0390251 0.
0.551981 0.0390255 0.
0.553982 0.0390258 0.
0.555982 0.0390262 0.
0.557983 0.0390268 0.
0.559983 0.0390273 0.
0.561984 0.0390271 0.
0.563985 0.0390259 0.
0.565986 0.0390246 0.
0.567987 0.0390241 0.
0.569988 0.039024 0.
0.571989 0.0390238 0.
0.573989 0.0390242 0.
0.57599 0.0390246 0.
0.57799 0.0390248 0.
0.579991 0.0390238 0.
0.581992 0.0390227 0.
0.583993 0.0390217 0.
0.585994 0.0390207 0.
0.587995 0.0390197 0.
0.589995 0.0390188 0.
0.591996 0.0390179 0.
0.593996 0.0390171 0.
0.595998 0.0390168 0.
0.597999 0.0390167 0.
0.600001 0.0390167 0.
0.602002 0.039017 0.
0.604003 0.0390173 0.
0.606004 0.0390176 0.
0.608004 0.0390174 0.
0.610005 0.0390172 0.
0.612006 0.0390176 0.
0.614007 0.0390189 0.
0.616007 0.0390203 0.
0.618008 0.0390212 0.
0.620009 0.039022 0.
0.62201 0.0390228 0.
0.624011 0.0390233 0.
0.626011 0.0390237 0.
0.628011 0.0390243 0.
0.630012 0.0390255 0.
0.632013 0.0390266 0.
0.634014 0.0390275 0.
0.636015 0.039028 0.
0.638015 0.0390285 0.
0.640016 0.039029 0.
0.642017 0.0390294 0.
0.644018 0.0390298 0.
0.646019 0.0390294 0.
0.648019 0.0390289 0.
0.65002 0.0390283 0.
0.65202 0.0390285 0.
0.654021 0.0390286 0.
0.656021 0.0390287 0.
0.658022 0.0390291 0.
0.660023 0.0390295 0.
0.662024 0.0390295 0.
0.664025 0.0390293 0.
0.666026 0.039029 0.
0.668027 0.0390283 0.
0.670028 0.0390273 0.
0.672029 0.0390263 0.
0.67403 0.0390256 0.
0.67603 0.039025 0.
0.67803 0.0390244 0.
0.680031 0.0390246 0.
0.682032 0.0390248 0.
0.684033 0.0390249 0.
0.686034 0.0390247 0.
0.688034 0.0390244 0.
0.690035 0.0390246 0.
0.692035 0.0390252 0.
0.694036 0.0390257 0.
0.696036 0.039027 0.
0.698036 0.0390286 0.
0.499967 0.0410279 0.
0.501968 0.0410278 0.
0.503968 0.0410275 0.
0.505969 0.0410271 0.
0.50797 0.0410264 0.
0.50997 0.0410256 0.
0.511971 0.0410252 0.
0.513971 0.0410252 0.
0.515972 0.0410253 0.
0.517972 0.0410251 0.
0.519973 0.0410247 0.
0.521974 0.0410244 0.
0.523974 0.0410241 0.
0.525974 0.041024 0.
0.527974 0.0410238 0.
0.529976 0.0410238 0.
0.531977 0.0410239 0.
0.533978 0.0410239 0.
0.535979 0.041024 0.
0.53798 0.041024 0.
0.53998 0.0410247 0.
0.54198 0.0410259 0.
0.543981 0.0410271 0.
0.545981 0.0410269 0.
0.547982 0.0410262 0.
0.549982 0.0410255 0.
0.551982 0.0410256 0.
0.553982 0.0410257 0.
0.555983 0.0410259 0.
0.557984 0.0410263 0.
0.559984 0.0410268 0.
0.561985 0.0410266 0.
0.563986 0.0410253 0.
0.565987 0.0410241 0.
0.567988 0.0410237 0.
0.569989 0.0410237 0.
0.57199 0.0410237 0.
0.57399 0.0410239 0.
0.575991 0.0410243 0.
0.577991 0.0410244 0.
0.579992 0.0410234 0.
0.581993 0.0410224 0.
0.583994 0.0410214 0.
0.585994 0.0410205 0.
0.587995 0.0410196 0.
0.589996 0.0410187 0.
0.591996 0.0410179 0.
0.593997 0.041017 0.
0.595998 0.0410167 0.
0.598 0.0410166 0.
0.600001 0.0410164 0.
0.602002 0.0410169 0.
0.604002 0.0410173 0.
0.606003 0.0410177 0.
0.608004 0.0410176 0.
0.610005 0.0410176 0.
0.612005 0.0410179 0.
0.614006 0.0410189 0.
0.616006 0.0410198 0.
0.618007 0.0410208 0.
0.620008 0.0410219 0.
0.622009 0.0410229 0.
0.624009 0.0410233 0.
0.626009 0.0410237 0.
0.628009 0.0410242 0.
0.630011 0.0410254 0.
0.632012 0.0410266 0.
0.634013 0.0410275 0.
0.636013 0.0410277 0.
0.638014 0.041028 0.
0.640015 0.0410284 0.
0.642016 0.0410288 0.
0.644017 0.0410293 0.
0.646018 0.0410291 0.
0.648018 0.0410286 0.
0.650019 0.0410281 0.
0.65202 0.0410282 0.
0.65402 0.0410282 0.
0.656021 0.0410283 0.
0.658021 0.0410288 0.
0.660022 0.0410294 0.
0.662023 0.0410295 0.
0.664024 0.0410291 0.
0.666025 0.0410288 0.
0.668026 0.0410281 0.
0.670027 0.0410274 0.
0.672028 0.0410267 0.
0.674028 0.0410259 0.
0.676028 0.041025 0.
0.678029 0.0410243 0.
0.68003 0.0410246 0.
0.682031 0.0410249 0.
0.684032 0.0410251 0.
0.686032 0.041025 0.
0.688033 0.041025 0.
0.690033 0.0410252 0.
0.692034 0.0410257 0.
0.694035 0.0410263 0.
0.696035 0.0410278 0.
0.698035 0.0410296 0.
0.499968 0.0430287 0.
0.501969 0.043028 0.
0.503969 0.0430274 0.
0.50597 0.0430267 0.
0.50797 0.0430262 0.
0.509971 0.0430256 0.
0.511972 0.0430253 0.
0.513972 0.0430253 0.
0.515973 0.0430254 0.
0.517974 0.0430252 0.
0.519974 0.0430248 0.
0.521975 0.0430245 0.
0.523975 0.0430242 0.
0.525976 0.0430239 0.
0.527976 0.0430237 0.
0.529977 0.0430237 0.
0.531977 0.0430237 0.
0.533978 0.0430238 0.
0.535979 0.0430241 0.
0.537979 0.0430245 0.
0.53998 0.0430251 0.
0.54198 0.0430261 0.
0.543981 0.043027 0.
0.545981 0.0430269 0.
0.547982 0.0430264 0.
0.549982 0.0430259 0.
0.551983 0.0430259 0.
0.553983 0.0430259 0.
0.555984 0.043026 0.
0.557985 0.043026 0.
0.559986 0.0430261 0.
0.561987 0.0430258 0.
0.563988 0.043025 0.
0.565989 0.0430243 0.
0.567989 0.043024 0.
0.569989 0.043024 0.
0.571989 0.043024 0.
0.57399 0.043024 0.
0.575991 0.043024 0.
0.577992 0.0430239 0.
0.579993 0.043023 0.
0.581993 0.0430221 0.
0.583994 0.0430212 0.
0.585994 0.0430205 0.
0.587995 0.0430197 0.
0.589996 0.043019 0.
0.591996 0.0430182 0.
0.593997 0.0430174 0.
0.595998 0.0430169 0.
0.598 0.0430164 0.
0.600001 0.0430159 0.
0.602002 0.0430165 0.
0.604003 0.043017 0.
0.606003 0.0430175 0.
0.608004 0.0430179 0.
0.610005 0.0430183 0.
0.612005 0.0430187 0.
0.614006 0.0430194 0.
0.616006 0.04302 0.
0.618007 0.0430209 0.
0.620007 0.0430221 0.
0.622008 0.0430232 0.
0.624008 0.0430237 0.
0.626008 0.043024 0.
0.628008 0.0430245 0.
0.630009 0.0430257 0.
0.63201 0.0430268 0.
0.634011 0.0430275 0.
0.636012 0.0430273 0.
0.638013 0.0430271 0.
0.640014 0.0430275 0.
0.642015 0.0430281 0.
0.644016 0.0430288 0.
0.646017 0.0430287 0.
0.648017 0.0430284 0.
0.650018 0.043028 0.
0.652019 0.043028 0.
0.654019 0.0430279 0.
0.65602 0.0430281 0.
0.658021 0.0430287 0.
0.660022 0.0430294 0.
0.662022 0.0430295 0.
0.664023 0.0430289 0.
0.666024 0.0430284 0.
0.668024 0.0430279 0.
0.670025 0.0430274 0.
0.672026 0.0430269 0.
0.674027 0.0430261 0.
0.676027 0.0430253 0.
0.678028 0.0430246 0.
0.680029 0.0430248 0.
0.682029 0.043025 0.
0.68403 0.0430252 0.
0.68603 0.0430254 0.
0.688031 0.0430256 0.
0.690032 0.0430261 0.
0.692032 0.0430267 0.
0.694032 0.0430272 0.
0.696033 0.0430288 0.
0.698033 0.0430306 0.
0.49997 0.0450294 0.
0.50197 0.0450282 0.
0.50397 0.0450272 0.
0.50597 0.0450263 0.
0.507971 0.045026 0.
0.509972 0.0450256 0.
0.511973 0.0450254 0.
0.513974 0.0450254 0.
0.515975 0.0450255 0.
0.517975 0.0450253 0.
0.519976 0.0450249 0.
0.521976 0.0450246 0.
0.523977 0.0450242 0.
0.525977 0.0450239 0.
0.527978 0.0450236 0.
0.529978 0.0450236 0.
0.531978 0.0450236 0.
0.533978 0.0450238 0.
0.535979 0.0450243 0.
0.537979 0.0450249 0.
0.53998 0.0450255 0.
0.54198 0.0450262 0.
0.543981 0.0450268 0.
0.545982 0.0450268 0.
0.547982 0.0450265 0.
0.549983 0.0450262 0.
0.551984 0.0450262 0.
0.553984 0.0450261 0.
0.555985 0.045026 0.
0.557986 0.0450257 0.
0.559987 0.0450254 0.
0.561988 0.0450251 0.
0.563989 0.0450248 0.
0.56599 0.0450244 0.
0.56799 0.0450244 0.
0.56999 0.0450244 0.
0.571989 0.0450244 0.
0.573991 0.0450241 0.
0.575992 0.0450237 0.
0.577993 0.0450233 0.
0.579993 0.0450226 0.
0.581994 0.0450218 0.
0.583994 0.045021 0.
0.585995 0.0450204 0.
0.587995 0.0450199 0.
0.589996 0.0450192 0.
0.591997 0.0450185 0.
0.593997 0.0450178 0.
0.595998 0.0450171 0.
0.598 0.0450163 0.
0.600001 0.0450155 0.
0.602002 0.0450161 0.
0.604003 0.0450167 0.
0.606004 0.0450174 0.
0.608004 0.0450182 0.
0.610005 0.045019 0.
0.612005 0.0450195 0.
0.614006 0.0450199 0.
0.616006 0.0450202 0.
0.618006 0.0450211 0.
0.620006 0.0450223 0.
0.622007 0.0450235 0.
0.624007 0.045024 0.
0.626007 0.0450244 0.
0.628007 0.0450249 0.
0.630008 0.0450259 0.
0.632009 0.045027 0.
0.63401 0.0450274 0.
0.636011 0.0450269 0.
0.638012 0.0450263 0.
0.640013 0.0450266 0.
0.642014 0.0450274 0.
0.644015 0.0450283 0.
0.646016 0.0450283 0.
0.648017 0.0450281 0.
0.650018 0.0450279 0.
0.652018 0.0450278 0.
0.654019 0.0450278 0.
0.656019 0.0450279 0.
0.65802 0.0450286 0.
0.660021 0.0450294 0.
0.662022 0.0450294 0.
0.664022 0.0450287 0.
0.666023 0.045028 0.
0.668023 0.0450276 0.
0.670024 0.0450274 0.
0.672025 0.0450271 0.
0.674025 0.0450264 0.
0.676026 0.0450256 0.
0.678027 0.045025 0.
0.680027 0.045025 0.
0.682028 0.045025 0.
0.684028 0.0450252 0.
0.686029 0.0450258 0.
0.688029 0.0450263 0.
0.69003 0.0450269 0.
0.69203 0.0450276 0.
0.69403 0.0450282 0.
0.696031 0.0450298 0.
0.698031 0.0450315 0.
0.499971 0.0470296 0.
0.501971 0.0470286 0.
0.503971 0.0470275 0.
0.505971 0.0470267 0.
0.507972 0.0470264 0.
0.509972 0.0470262 0.
0.511973 0.0470259 0.
0.513974 0.0470256 0.
0.515975 0.0470252 0.
0.517976 0.0470249 0.
0.519976 0.0470246 0.
0.521977 0.0470243 0.
0.523978 0.0470241 0.
0.525978 0.0470239 0.
0.527979 0.0470237 0.
0.529979 0.0470237 0.
0.531979 0.0470237 0.
0.53398 0.0470238 0.
0.53598 0.0470244 0.
0.537981 0.0470249 0.
0.539982 0.0470254 0.
0.541982 0.0470258 0.
0.543982 0.0470262 0.
0.545983 0.0470262 0.
0.547983 0.0470261 0.
0.549984 0.0470259 0.
0.551984 0.0470256 0.
0.553985 0.0470253 0.
0.555986 0.0470251 0.
0.557987 0.0470249 0.
0.559988 0.0470247 0.
0.561989 0.0470245 0.
0.56399 0.0470243 0.
0.565991 0.047024 0.
0.567991 0.0470239 0.
0.569991 0.0470238 0.
0.571991 0.0470238 0.
0.573992 0.0470236 0.
0.575993 0.0470235 0.
0.577994 0.0470232 0.
0.579994 0.0470225 0.
0.581995 0.0470219 0.
0.583995 0.0470211 0.
0.585996 0.0470204 0.
0.587996 0.0470197 0.
0.589997 0.0470192 0.
0.591997 0.0470188 0.
0.593998 0.0470185 0.
0.595999 0.0470179 0.
0.598 0.0470172 0.
0.600001 0.0470165 0.
0.602001 0.0470167 0.
0.604002 0.0470169 0.
0.606003 0.0470173 0.
0.608003 0.0470182 0.
0.610004 0.0470191 0.
0.612004 0.0470197 0.
0.614005 0.04702 0.
0.616005 0.0470203 0.
0.618005 0.0470213 0.
0.620005 0.0470226 0.
0.622005 0.047024 0.
0.624005 0.0470241 0.
0.626006 0.047024 0.
0.628007 0.047024 0.
0.630008 0.047025 0.
0.632009 0.047026 0.
0.63401 0.0470265 0.
0.636011 0.0470262 0.
0.638011 0.047026 0.
0.640012 0.0470263 0.
0.642013 0.047027 0.
0.644013 0.0470277 0.
0.646014 0.0470279 0.
0.648015 0.0470279 0.
0.650016 0.0470278 0.
0.652017 0.0470278 0.
0.654017 0.0470277 0.
0.656018 0.0470278 0.
0.658019 0.0470284 0.
0.66002 0.047029 0.
0.662021 0.0470291 0.
0.664022 0.0470284 0.
0.666022 0.0470277 0.
0.668023 0.0470275 0.
0.670023 0.0470276 0.
0.672024 0.0470276 0.
0.674025 0.0470269 0.
0.676025 0.0470262 0.
0.678026 0.0470255 0.
0.680026 0.0470253 0.
0.682027 0.0470251 0.
0.684027 0.0470253 0.
0.686028 0.047026 0.
0.688028 0.0470267 0.
0.690028 0.0470274 0.
0.692029 0.0470283 0.
0.694029 0.0470291 0.
0.69603 0.0470304 0.
0.69803 0.0470318 0.
0.499971 0.0490299 0.
0.501972 0.049029 0.
0.503972 0.0490279 0.
0.505972 0.049027 0.
0.507973 0.0490269 0.
0.509973 0.0490268 0.
0.511974 0.0490265 0.
0.513974 0.0490257 0.
0.515975 0.049025 0.
0.517976 0.0490246 0.
0.519977 0.0490244 0.
0.521978 0.0490241 0.
0.523979 0.049024 0.
0.525979 0.0490239 0.
0.52798 0.0490239 0.
0.52998 0.0490238 0.
0.53198 0.0490238 0.
0.533981 0.0490239 0.
0.535982 0.0490244 0.
0.537983 0.0490249 0.
0.539983 0.0490252 0.
0.541984 0.0490254 0.
0.543984 0.0490256 0.
0.545984 0.0490257 0.
0.547984 0.0490256 0.
0.549985 0.0490256 0.
0.551985 0.0490251 0.
0.553986 0.0490245 0.
0.555987 0.0490241 0.
0.557988 0.0490241 0.
0.559989 0.049024 0.
0.56199 0.049024 0.
0.56399 0.0490238 0.
0.565991 0.0490236 0.
0.567992 0.0490235 0.
0.569992 0.0490233 0.
0.571993 0.0490232 0.
0.573993 0.0490232 0.
0.575994 0.0490232 0.
0.577994 0.0490231 0.
0.579995 0.0490225 0.
0.581996 0.0490219 0.
0.583997 0.0490212 0.
0.585997 0.0490204 0.
0.587998 0.0490195 0.
0.589998 0.0490191 0.
0.591998 0.0490191 0.
0.593998 0.0490191 0.
0.595999 0.0490186 0.
0.598 0.049018 0.
0.6 0.0490175 0.
0.602001 0.0490173 0.
0.604002 0.0490172 0.
0.606002 0.0490173 0.
0.608002 0.0490182 0.
0.610003 0.0490192 0.
0.612003 0.0490198 0.
0.614003 0.0490201 0.
0.616004 0.0490203 0.
0.618004 0.0490214 0.
0.620003 0.0490229 0.
0.622003 0.0490245 0.
0.624004 0.0490241 0.
0.626005 0.0490236 0.
0.628007 0.0490232 0.
0.630008 0.0490241 0.
0.632009 0.049025 0.
0.63401 0.0490255 0.
0.63601 0.0490256 0.
0.63801 0.0490256 0.
0.640011 0.049026 0.
0.642012 0.0490266 0.
0.644012 0.0490272 0.
0.646013 0.0490275 0.
0.648014 0.0490276 0.
0.650015 0.0490278 0.
0.652016 0.0490277 0.
0.654016 0.0490277 0.
0.656016 0.0490278 0.
0.658018 0.0490282 0.
0.66002 0.0490287 0.
0.662021 0.0490287 0.
0.664021 0.0490281 0.
0.666022 0.0490275 0.
0.668022 0.0490275 0.
0.670023 0.0490278 0.
0.672023 0.0490281 0.
0.674024 0.0490275 0.
0.676025 0.0490268 0.
0.678025 0.0490261 0.
0.680026 0.0490256 0.
0.682026 0.0490252 0.
0.684026 0.0490253 0.
0.686026 0.0490262 0.
0.688027 0.0490271 0.
0.690027 0.049028 0.
0.692028 0.0490289 0.
0.694028 0.0490299 0.
0.696029 0.049031 0.
0.698029 0.0490322 0.
0.499972 0.0510303 0.
0.501972 0.0510293 0.
0.503973 0.0510281 0.
0.505973 0.0510271 0.
0.507973 0.0510271 0.
0.509974 0.051027 0.
0.511974 0.0510265 0.
0.513975 0.0510256 0.
0.515976 0.0510246 0.
0.517977 0.0510242 0.
0.519978 0.051024 0.
0.521979 0.0510239 0.
0.523979 0.051024 0.
0.52598 0.0510242 0.
0.527981 0.0510244 0.
0.529981 0.0510242 0.
0.531981 0.0510241 0.
0.533982 0.0510241 0.
0.535983 0.0510244 0.
0.537984 0.0510247 0.
0.539984 0.0510249 0.
0.541984 0.0510249 0.
0.543985 0.0510249 0.
0.545985 0.051025 0.
0.547985 0.0510252 0.
0.549986 0.0510254 0.
0.551986 0.0510247 0.
0.553987 0.051024 0.
0.555988 0.0510235 0.
0.557989 0.0510236 0.
0.55999 0.0510237 0.
0.561991 0.0510237 0.
0.563991 0.0510235 0.
0.565992 0.0510233 0.
0.567993 0.0510231 0.
0.569994 0.0510229 0.
0.571994 0.0510227 0.
0.573994 0.0510228 0.
0.575994 0.051023 0.
0.577994 0.051023 0.
0.579995 0.0510224 0.
0.581996 0.0510219 0.
0.583997 0.0510212 0.
0.585998 0.0510203 0.
0.587998 0.0510195 0.
0.589998 0.0510192 0.
0.591998 0.0510193 0.
0.593998 0.0510193 0.
0.595999 0.0510191 0.
0.598 0.0510186 0.
0.6 0.0510182 0.
0.602001 0.0510179 0.
0.604001 0.0510176 0.
0.606002 0.0510175 0.
0.608002 0.0510184 0.
0.610002 0.0510192 0.
0.612003 0.0510199 0.
0.614003 0.0510204 0.
0.616003 0.0510208 0.
0.618003 0.0510219 0.
0.620003 0.0510232 0.
0.622003 0.0510245 0.
0.624004 0.0510241 0.
0.626005 0.0510235 0.
0.628006 0.051023 0.
0.630007 0.0510235 0.
0.632008 0.0510241 0.
0.634009 0.0510246 0.
0.636009 0.051025 0.
0.638009 0.0510255 0.
0.64001 0.0510259 0.
0.64201 0.0510263 0.
0.644011 0.0510267 0.
0.646012 0.0510269 0.
0.648013 0.0510271 0.
0.650015 0.0510273 0.
0.652015 0.0510274 0.
0.654015 0.0510275 0.
0.656016 0.0510276 0.
0.658017 0.0510279 0.
0.660019 0.0510282 0.
0.66202 0.0510282 0.
0.66402 0.0510278 0.
0.666021 0.0510275 0.
0.668021 0.0510276 0.
0.670022 0.0510279 0.
0.672022 0.0510282 0.
0.674023 0.0510278 0.
0.676024 0.0510274 0.
0.678025 0.0510269 0.
0.680025 0.0510263 0.
0.682025 0.0510257 0.
0.684025 0.0510257 0.
0.686025 0.0510266 0.
0.688025 0.0510275 0.
0.690026 0.0510284 0.
0.692026 0.0510294 0.
0.694027 0.0510303 0.
0.696028 0.0510313 0.
0.698028 0.0510322 0.
0.499973 0.0530307 0.
0.501973 0.0530294 0.
0.503973 0.0530281 0.
0.505974 0.0530271 0.
0.507974 0.053027 0.
0.509975 0.0530268 0.
0.511975 0.0530262 0.
0.513976 0.0530251 0.
0.515977 0.053024 0.
0.517977 0.0530236 0.
0.519978 0.0530236 0.
0.521979 0.0530237 0.
0.52398 0.0530242 0.
0.525981 0.0530247 0.
0.527981 0.0530252 0.
0.529981 0.0530249 0.
0.531982 0.0530246 0.
0.533982 0.0530244 0.
0.535983 0.0530244 0.
0.537984 0.0530244 0.
0.539984 0.0530243 0.
0.541985 0.0530242 0.
0.543985 0.0530241 0.
0.545986 0.0530244 0.
0.547986 0.0530247 0.
0.549987 0.0530251 0.
0.551988 0.0530244 0.
0.553989 0.0530238 0.
0.555989 0.0530233 0.
0.55799 0.0530235 0.
0.559991 0.0530237 0.
0.561991 0.0530237 0.
0.563992 0.0530234 0.
0.565993 0.0530231 0.
0.567994 0.0530228 0.
0.569995 0.0530226 0.
0.571995 0.0530223 0.
0.573995 0.0530225 0.
0.575995 0.0530228 0.
0.577995 0.0530229 0.
0.579995 0.0530223 0.
0.581996 0.0530216 0.
0.583997 0.053021 0.
0.585997 0.0530203 0.
0.587998 0.0530197 0.
0.589998 0.0530193 0.
0.591998 0.0530193 0.
0.593998 0.0530193 0.
0.595999 0.0530191 0.
0.598 0.0530189 0.
0.6 0.0530187 0.
0.602001 0.0530184 0.
0.604001 0.0530181 0.
0.606002 0.0530181 0.
0.608002 0.0530187 0.
0.610002 0.0530192 0.
0.612003 0.05302 0.
0.614003 0.0530209 0.
0.616003 0.0530218 0.
0.618003 0.0530226 0.
0.620003 0.0530233 0.
0.622003 0.0530241 0.
0.624004 0.0530239 0.
0.626004 0.0530236 0.
0.628005 0.0530234 0.
0.630006 0.0530234 0.
0.632007 0.0530233 0.
0.634008 0.0530236 0.
0.636008 0.0530246 0.
0.638008 0.0530255 0.
0.640008 0.053026 0.
0.642009 0.0530261 0.
0.64401 0.0530263 0.
0.646011 0.0530263 0.
0.648013 0.0530264 0.
0.650014 0.0530264 0.
0.652014 0.0530268 0.
0.654015 0.0530271 0.
0.656015 0.0530274 0.
0.658016 0.0530274 0.
0.660017 0.0530275 0.
0.662018 0.0530276 0.
0.664018 0.0530277 0.
0.666019 0.0530278 0.
0.668019 0.0530278 0.
0.67002 0.0530278 0.
0.672021 0.0530278 0.
0.674022 0.0530279 0.
0.676023 0.0530281 0.
0.678024 0.053028 0.
0.680024 0.0530273 0.
0.682024 0.0530266 0.
0.684024 0.0530265 0.
0.686024 0.0530272 0.
0.688024 0.053028 0.
0.690024 0.0530287 0.
0.692025 0.0530295 0.
0.694026 0.0530303 0.
0.696026 0.0530311 0.
0.698026 0.053032 0.
0.499974 0.0550311 0.
0.501974 0.0550295 0.
0.503974 0.0550282 0.
0.505974 0.0550272 0.
0.507975 0.0550269 0.
0.509976 0.0550265 0.
0.511976 0.0550258 0.
0.513977 0.0550246 0.
0.515978 0.0550234 0.
0.517978 0.0550231 0.
0.519979 0.0550233 0.
0.521979 0.0550235 0.
0.52398 0.0550243 0.
0.525981 0.0550252 0.
0.527982 0.055026 0.
0.529982 0.0550256 0.
0.531982 0.0550252 0.
0.533982 0.0550248 0.
0.535983 0.0550244 0.
0.537984 0.0550241 0.
0.539985 0.0550238 0.
0.541985 0.0550236 0.
0.543986 0.0550233 0.
0.545987 0.0550237 0.
0.547988 0.0550243 0.
0.549988 0.0550248 0.
0.551989 0.0550242 0.
0.55399 0.0550235 0.
0.555991 0.0550231 0.
0.557991 0.0550234 0.
0.559991 0.0550238 0.
0.561992 0.0550238 0.
0.563993 0.0550234 0.
0.565994 0.0550229 0.
0.567995 0.0550226 0.
0.569996 0.0550222 0.
0.571996 0.0550219 0.
0.573996 0.0550222 0.
0.575995 0.0550226 0.
0.577995 0.0550228 0.
0.579995 0.0550221 0.
0.581996 0.0550214 0.
0.583996 0.0550208 0.
0.585997 0.0550203 0.
0.587997 0.0550198 0.
0.589997 0.0550195 0.
0.591998 0.0550194 0.
0.593998 0.0550193 0.
0.595999 0.0550192 0.
0.598 0.0550192 0.
0.6 0.0550192 0.
0.602001 0.0550189 0.
0.604001 0.0550187 0.
0.606002 0.0550186 0.
0.608002 0.0550189 0.
0.610002 0.0550193 0.
0.612003 0.05502 0.
0.614002 0.0550214 0.
0.616002 0.0550227 0.
0.618002 0.0550233 0.
0.620003 0.0550235 0.
0.622004 0.0550237 0.
0.624004 0.0550238 0.
0.626004 0.0550238 0.
0.628004 0.0550238 0.
0.630005 0.0550232 0.
0.632006 0.0550226 0.
0.634006 0.0550227 0.
0.636006 0.0550241 0.
0.638006 0.0550255 0.
0.640007 0.055026 0.
0.642008 0.0550259 0.
0.644009 0.0550258 0.
0.64601 0.0550257 0.
0.648012 0.0550256 0.
0.650014 0.0550256 0.
0.652014 0.0550262 0.
0.654014 0.0550268 0.
0.656015 0.0550272 0.
0.658015 0.055027 0.
0.660016 0.0550268 0.
0.662016 0.055027 0.
0.664016 0.0550275 0.
0.666017 0.0550281 0.
0.668018 0.0550281 0.
0.670018 0.0550278 0.
0.672019 0.0550275 0.
0.674021 0.0550281 0.
0.676022 0.0550287 0.
0.678023 0.0550292 0.
0.680023 0.0550284 0.
0.682023 0.0550275 0.
0.684023 0.0550272 0.
0.686023 0.0550278 0.
0.688023 0.0550284 0.
0.690023 0.055029 0.
0.692024 0.0550296 0.
0.694025 0.0550303 0.
0.696024 0.055031 0.
0.698024 0.0550318 0.
0.499974 0.0570312 0.
0.501975 0.0570298 0.
0.503975 0.0570286 0.
0.505975 0.0570275 0.
0.507976 0.0570271 0.
0.509977 0.0570267 0.
0.511977 0.0570261 0.
0.513978 0.0570251 0.
0.515978 0.0570241 0.
0.517979 0.0570237 0.
0.51998 0.0570236 0.
0.521981 0.0570234 0.
0.523981 0.0570238 0.
0.525982 0.0570243 0.
0.527983 0.0570247 0.
0.529983 0.0570248 0.
0.531983 0.0570249 0.
0.533984 0.0570248 0.
0.535984 0.0570243 0.
0.537985 0.0570237 0.
0.539986 0.0570234 0.
0.541987 0.0570232 0.
0.543987 0.057023 0.
0.545988 0.0570232 0.
0.547988 0.0570235 0.
0.549989 0.0570237 0.
0.551989 0.0570235 0.
0.55399 0.0570233 0.
0.555991 0.0570232 0.
0.557991 0.0570234 0.
0.559992 0.0570235 0.
0.561992 0.0570235 0.
0.563993 0.0570231 0.
0.565994 0.0570228 0.
0.567995 0.0570225 0.
0.569995 0.0570223 0.
0.571996 0.057022 0.
0.573996 0.0570222 0.
0.575996 0.0570224 0.
0.577995 0.0570226 0.
0.579996 0.0570218 0.
0.581996 0.0570211 0.
0.583996 0.0570206 0.
0.585996 0.0570207 0.
0.587997 0.0570208 0.
0.589997 0.0570206 0.
0.591997 0.0570202 0.
0.593998 0.0570198 0.
0.595999 0.0570195 0.
0.597999 0.0570191 0.
0.6 0.0570188 0.
0.602001 0.0570186 0.
0.604002 0.0570184 0.
0.606002 0.0570183 0.
0.608002 0.0570189 0.
0.610002 0.0570194 0.
0.612002 0.0570202 0.
0.614002 0.0570213 0.
0.616002 0.0570224 0.
0.618003 0.057023 0.
0.620004 0.0570233 0.
0.622004 0.0570236 0.
0.624004 0.0570236 0.
0.626004 0.0570235 0.
0.628004 0.0570235 0.
0.630005 0.0570233 0.
0.632005 0.0570231 0.
0.634006 0.0570232 0.
0.636006 0.0570241 0.
0.638006 0.057025 0.
0.640007 0.0570253 0.
0.642008 0.0570252 0.
0.644009 0.0570251 0.
0.64601 0.0570252 0.
0.648011 0.0570252 0.
0.650012 0.0570253 0.
0.652013 0.0570258 0.
0.654013 0.0570263 0.
0.656013 0.0570266 0.
0.658014 0.0570267 0.
0.660015 0.0570268 0.
0.662015 0.0570271 0.
0.664016 0.0570274 0.
0.666017 0.0570278 0.
0.668017 0.0570278 0.
0.670018 0.0570276 0.
0.672019 0.0570273 0.
0.67402 0.0570279 0.
0.676021 0.0570285 0.
0.678022 0.0570289 0.
0.680022 0.0570282 0.
0.682022 0.0570276 0.
0.684022 0.0570275 0.
0.686022 0.0570283 0.
0.688022 0.0570292 0.
0.690022 0.0570299 0.
0.692023 0.0570305 0.
0.694023 0.0570311 0.
0.696023 0.0570318 0.
0.698024 0.0570326 0.
0.499975 0.0590314 0.
0.501975 0.0590302 0.
0.503976 0.059029 0.
0.505976 0.0590279 0.
0.507977 0.0590274 0.
0.509978 0.0590269 0.
0.511978 0.0590263 0.
0.513979 0.0590256 0.
0.515979 0.0590249 0.
0.51798 0.0590244 0.
0.519981 0.0590239 0.
0.521982 0.0590234 0.
0.523983 0.0590234 0.
0.525984 0.0590234 0.
0.527984 0.0590235 0.
0.529985 0.0590241 0.
0.531985 0.0590247 0.
0.533985 0.0590249 0.
0.535986 0.0590241 0.
0.537986 0.0590234 0.
0.539987 0.059023 0.
0.541988 0.0590229 0.
0.543989 0.0590227 0.
0.545989 0.0590227 0.
0.547989 0.0590227 0.
0.549989 0.0590226 0.
0.551989 0.0590229 0.
0.55399 0.0590231 0.
0.55599 0.0590233 0.
0.557991 0.0590233 0.
0.559992 0.0590233 0.
0.561993 0.0590232 0.
0.563993 0.0590229 0.
0.565994 0.0590227 0.
0.567994 0.0590225 0.
0.569995 0.0590223 0.
0.571995 0.059022 0.
0.573995 0.0590222 0.
0.575996 0.0590223 0.
0.577996 0.0590224 0.
0.579996 0.0590216 0.
0.581996 0.0590208 0.
0.583996 0.0590205 0.
0.585996 0.0590211 0.
0.587996 0.0590217 0.
0.589997 0.0590217 0.
0.591997 0.0590211 0.
0.593997 0.0590204 0.
0.595998 0.0590198 0.
0.597999 0.0590191 0.
0.6 0.0590184 0.
0.602001 0.0590182 0.
0.604002 0.0590181 0.
0.606003 0.0590181 0.
0.608002 0.0590188 0.
0.610002 0.0590196 0.
0.612002 0.0590204 0.
0.614002 0.0590213 0.
0.616003 0.0590221 0.
0.618003 0.0590227 0.
0.620004 0.0590231 0.
0.622005 0.0590236 0.
0.624005 0.0590234 0.
0.626005 0.0590232 0.
0.628005 0.0590231 0.
0.630005 0.0590233 0.
0.632005 0.0590235 0.
0.634005 0.0590238 0.
0.636006 0.0590241 0.
0.638006 0.0590245 0.
0.640007 0.0590246 0.
0.642008 0.0590245 0.
0.644009 0.0590244 0.
0.646009 0.0590246 0.
0.64801 0.0590249 0.
0.650011 0.0590251 0.
0.652011 0.0590254 0.
0.654011 0.0590257 0.
0.656012 0.0590261 0.
0.658013 0.0590265 0.
0.660013 0.0590269 0.
0.662014 0.0590272 0.
0.664015 0.0590273 0.
0.666017 0.0590274 0.
0.668017 0.0590274 0.
0.670018 0.0590273 0.
0.672019 0.0590272 0.
0.674019 0.0590277 0.
0.67602 0.0590282 0.
0.67802 0.0590286 0.
0.68002 0.0590281 0.
0.68202 0.0590276 0.
0.68402 0.0590277 0.
0.686021 0.0590288 0.
0.688021 0.0590299 0.
0.690021 0.0590307 0.
0.692022 0.0590313 0.
0.694022 0.0590318 0.
0.696022 0.0590326 0.
0.698023 0.0590334 0.
0.499976 0.0610316 0.
0.501977 0.0610303 0.
0.503977 0.061029 0.
0.505978 0.0610279 0.
0.507978 0.0610274 0.
0.509979 0.061027 0.
0.511979 0.0610265 0.
0.51398 0.0610258 0.
0.51598 0.0610252 0.
0.517981 0.0610245 0.
0.519982 0.0610239 0.
0.521982 0.0610233 0.
0.523983 0.0610232 0.
0.525984 0.0610231 0.
0.527985 0.0610231 0.
0.529985 0.0610238 0.
0.531985 0.0610245 0.
0.533986 0.0610248 0.
0.535986 0.061024 0.
0.537987 0.0610232 0.
0.539988 0.0610229 0.
0.541989 0.0610228 0.
0.543989 0.0610227 0.
0.54599 0.0610225 0.
0.54799 0.0610222 0.
0.54999 0.0610219 0.
0.55199 0.0610225 0.
0.55399 0.0610231 0.
0.555991 0.0610235 0.
0.557991 0.0610234 0.
0.559992 0.0610233 0.
0.561993 0.0610231 0.
0.563993 0.0610229 0.
0.565994 0.0610227 0.
0.567994 0.0610225 0.
0.569994 0.0610222 0.
0.571995 0.061022 0.
0.573995 0.061022 0.
0.575996 0.061022 0.
0.577996 0.0610219 0.
0.579996 0.0610215 0.
0.581996 0.061021 0.
0.583996 0.0610209 0.
0.585996 0.0610215 0.
0.587996 0.0610221 0.
0.589997 0.0610221 0.
0.591997 0.0610215 0.
0.593998 0.0610209 0.
0.595998 0.0610201 0.
0.597999 0.0610193 0.
0.6 0.0610184 0.
0.602001 0.0610183 0.
0.604002 0.0610183 0.
0.606003 0.0610184 0.
0.608002 0.0610193 0.
0.610002 0.0610202 0.
0.612002 0.0610209 0.
0.614002 0.0610213 0.
0.616003 0.0610218 0.
0.618004 0.0610223 0.
0.620004 0.0610229 0.
0.622005 0.0610235 0.
0.624005 0.0610234 0.
0.626004 0.0610232 0.
0.628004 0.0610231 0.
0.630004 0.0610234 0.
0.632004 0.0610236 0.
0.634004 0.0610238 0.
0.636005 0.061024 0.
0.638006 0.0610242 0.
0.640007 0.0610243 0.
0.642007 0.0610241 0.
0.644008 0.061024 0.
0.646009 0.0610242 0.
0.648009 0.0610246 0.
0.650009 0.061025 0.
0.65201 0.0610251 0.
0.65401 0.0610253 0.
0.656011 0.0610255 0.
0.658012 0.0610261 0.
0.660013 0.0610267 0.
0.662014 0.061027 0.
0.664015 0.061027 0.
0.666016 0.061027 0.
0.668017 0.061027 0.
0.670017 0.061027 0.
0.672018 0.061027 0.
0.674018 0.0610275 0.
0.676018 0.0610281 0.
0.678019 0.0610286 0.
0.680019 0.0610282 0.
0.682019 0.0610278 0.
0.68402 0.0610279 0.
0.68602 0.061029 0.
0.68802 0.0610302 0.
0.69002 0.061031 0.
0.692021 0.0610317 0.
0.694021 0.0610325 0.
0.696021 0.0610332 0.
0.698022 0.061034 0.
0.499978 0.0630321 0.
0.501979 0.0630303 0.
0.503979 0.0630287 0.
0.505979 0.0630274 0.
0.50798 0.0630273 0.
0.50998 0.0630272 0.
0.51198 0.0630267 0.
0.513981 0.0630258 0.
0.515981 0.0630249 0.
0.517982 0.0630242 0.
0.519982 0.0630238 0.
0.521982 0.0630233 0.
0.523983 0.0630233 0.
0.525984 0.0630234 0.
0.527984 0.0630234 0.
0.529985 0.063024 0.
0.531985 0.0630245 0.
0.533986 0.0630246 0.
0.535987 0.063024 0.
0.537988 0.0630233 0.
0.539988 0.063023 0.
0.541989 0.063023 0.
0.54399 0.063023 0.
0.54599 0.0630226 0.
0.547991 0.0630221 0.
0.549991 0.0630216 0.
0.551991 0.0630223 0.
0.553992 0.0630231 0.
0.555992 0.0630237 0.
0.557992 0.0630236 0.
0.559992 0.0630235 0.
0.561993 0.0630234 0.
0.563993 0.0630231 0.
0.565994 0.0630229 0.
0.567994 0.0630226 0.
0.569994 0.0630222 0.
0.571995 0.0630219 0.
0.573995 0.0630217 0.
0.575995 0.0630215 0.
0.577996 0.0630213 0.
0.579996 0.0630216 0.
0.581995 0.0630218 0.
0.583996 0.0630219 0.
0.585996 0.0630219 0.
0.587996 0.0630219 0.
0.589997 0.0630218 0.
0.591997 0.0630216 0.
0.593998 0.0630214 0.
0.595999 0.0630206 0.
0.598 0.0630196 0.
0.6 0.0630186 0.
0.602001 0.0630189 0.
0.604002 0.0630191 0.
0.606003 0.0630194 0.
0.608003 0.0630204 0.
0.610002 0.0630213 0.
0.612002 0.0630217 0.
0.614003 0.0630215 0.
0.616003 0.0630213 0.
0.618003 0.0630218 0.
0.620004 0.0630227 0.
0.622004 0.0630235 0.
0.624004 0.0630236 0.
0.626004 0.0630236 0.
0.628004 0.0630235 0.
0.630004 0.0630234 0.
0.632004 0.0630232 0.
0.634004 0.0630232 0.
0.636005 0.0630237 0.
0.638005 0.0630243 0.
0.640006 0.0630243 0.
0.642007 0.063024 0.
0.644007 0.0630237 0.
0.646008 0.063024 0.
0.648008 0.0630244 0.
0.650008 0.0630249 0.
0.652009 0.0630249 0.
0.65401 0.0630249 0.
0.656011 0.063025 0.
0.658011 0.0630256 0.
0.660012 0.0630262 0.
0.662013 0.0630265 0.
0.664014 0.0630264 0.
0.666015 0.0630264 0.
0.668016 0.0630264 0.
0.670016 0.0630265 0.
0.672017 0.0630266 0.
0.674017 0.0630273 0.
0.676017 0.0630281 0.
0.678018 0.0630288 0.
0.680018 0.0630284 0.
0.682019 0.063028 0.
0.684019 0.0630281 0.
0.68602 0.063029 0.
0.68802 0.06303 0.
0.69002 0.0630309 0.
0.69202 0.0630319 0.
0.69402 0.0630329 0.
0.69602 0.0630336 0.
0.69802 0.0630343 0.
0.49998 0.0650322 0.
0.50198 0.0650304 0.
0.503981 0.0650283 0.
0.505981 0.0650269 0.
0.507981 0.0650271 0.
0.509981 0.0650273 0.
0.511982 0.0650269 0.
0.513982 0.0650257 0.
0.515982 0.0650245 0.
0.517982 0.0650239 0.
0.519982 0.0650236 0.
0.521982 0.0650233 0.
0.523983 0.0650234 0.
0.525984 0.0650236 0.
0.527984 0.0650238 0.
0.529984 0.0650241 0.
0.531985 0.0650245 0.
0.533985 0.0650245 0.
0.535987 0.0650239 0.
0.537988 0.0650233 0.
0.539989 0.0650231 0.
0.54199 0.0650232 0.
0.54399 0.0650233 0.
0.545991 0.0650228 0.
0.547991 0.065022 0.
0.549992 0.0650212 0.
0.551992 0.0650222 0.
0.553993 0.0650232 0.
0.555993 0.0650239 0.
0.557993 0.0650238 0.
0.559993 0.0650238 0.
0.561993 0.0650236 0.
0.563993 0.0650233 0.
0.565994 0.0650231 0.
0.567994 0.0650227 0.
0.569994 0.0650222 0.
0.571995 0.0650218 0.
0.573995 0.0650214 0.
0.575995 0.065021 0.
0.577995 0.0650208 0.
0.579995 0.0650217 0.
0.581995 0.0650226 0.
0.583996 0.0650229 0.
0.585996 0.0650223 0.
0.587996 0.0650217 0.
0.589997 0.0650215 0.
0.591998 0.0650217 0.
0.593998 0.0650218 0.
0.595999 0.065021 0.
0.598 0.06502 0.
0.600001 0.0650189 0.
0.602002 0.0650194 0.
0.604003 0.0650198 0.
0.606003 0.0650204 0.
0.608003 0.0650214 0.
0.610003 0.0650223 0.
0.612003 0.0650225 0.
0.614003 0.0650216 0.
0.616003 0.0650208 0.
0.618003 0.0650213 0.
0.620003 0.0650224 0.
0.622004 0.0650236 0.
0.624004 0.0650238 0.
0.626003 0.0650239 0.
0.628003 0.0650239 0.
0.630003 0.0650234 0.
0.632004 0.0650228 0.
0.634004 0.0650227 0.
0.636004 0.0650235 0.
0.638005 0.0650243 0.
0.640006 0.0650244 0.
0.642006 0.0650239 0.
0.644006 0.0650234 0.
0.646007 0.0650237 0.
0.648007 0.0650243 0.
0.650007 0.0650248 0.
0.652008 0.0650247 0.
0.654009 0.0650245 0.
0.65601 0.0650245 0.
0.658011 0.0650251 0.
0.660012 0.0650257 0.
0.662012 0.065026 0.
0.664013 0.0650259 0.
0.666014 0.0650258 0.
0.668014 0.0650259 0.
0.670015 0.0650261 0.
0.672015 0.0650262 0.
0.674016 0.0650272 0.
0.676016 0.0650282 0.
0.678017 0.065029 0.
0.680017 0.0650287 0.
0.682018 0.0650283 0.
0.684019 0.0650283 0.
0.686019 0.065029 0.
0.68802 0.0650298 0.
0.69002 0.0650308 0.
0.692019 0.065032 0.
0.694019 0.0650333 0.
0.696019 0.065034 0.
0.698019 0.0650345 0.
0.49998 0.0670329 0.
0.50198 0.067031 0.
0.503981 0.0670291 0.
0.505981 0.0670276 0.
0.507982 0.0670274 0.
0.509982 0.0670272 0.
0.511982 0.0670267 0.
0.513982 0.0670259 0.
0.515983 0.0670251 0.
0.517983 0.0670245 0.
0.519983 0.0670241 0.
0.521983 0.0670237 0.
0.523984 0.0670238 0.
0.525984 0.0670239 0.
0.527984 0.0670241 0.
0.529985 0.0670241 0.
0.531986 0.0670242 0.
0.533986 0.0670241 0.
0.535987 0.0670236 0.
0.537988 0.0670231 0.
0.539989 0.0670228 0.
0.541989 0.0670226 0.
0.54399 0.0670225 0.
0.54599 0.0670221 0.
0.547991 0.0670216 0.
0.549991 0.0670212 0.
0.551992 0.067022 0.
0.553992 0.0670229 0.
0.555992 0.0670235 0.
0.557992 0.0670235 0.
0.559993 0.0670235 0.
0.561993 0.0670234 0.
0.563993 0.0670231 0.
0.565994 0.0670228 0.
0.567994 0.0670225 0.
0.569995 0.0670222 0.
0.571995 0.067022 0.
0.573995 0.0670217 0.
0.575995 0.0670214 0.
0.577995 0.0670212 0.
0.579995 0.0670217 0.
0.581995 0.0670221 0.
0.583996 0.0670222 0.
0.585996 0.0670217 0.
0.587997 0.0670212 0.
0.589997 0.067021 0.
0.591998 0.0670211 0.
0.593998 0.0670212 0.
0.595999 0.0670209 0.
0.598 0.0670204 0.
0.6 0.0670199 0.
0.602002 0.0670202 0.
0.604003 0.0670204 0.
0.606004 0.0670208 0.
0.608004 0.0670216 0.
0.610003 0.0670224 0.
0.612003 0.0670225 0.
0.614003 0.0670218 0.
0.616003 0.0670211 0.
0.618003 0.0670216 0.
0.620003 0.0670227 0.
0.622004 0.0670237 0.
0.624003 0.0670239 0.
0.626003 0.067024 0.
0.628003 0.067024 0.
0.630003 0.0670235 0.
0.632003 0.067023 0.
0.634004 0.0670228 0.
0.636004 0.0670232 0.
0.638005 0.0670237 0.
0.640005 0.0670239 0.
0.642006 0.0670237 0.
0.644006 0.0670236 0.
0.646007 0.0670235 0.
0.648007 0.0670235 0.
0.650007 0.0670234 0.
0.652008 0.0670239 0.
0.654009 0.0670244 0.
0.656009 0.0670249 0.
0.65801 0.0670253 0.
0.660011 0.0670256 0.
0.662012 0.0670258 0.
0.664012 0.0670257 0.
0.666013 0.0670255 0.
0.668013 0.0670257 0.
0.670014 0.067026 0.
0.672014 0.0670263 0.
0.674015 0.0670268 0.
0.676015 0.0670275 0.
0.678016 0.067028 0.
0.680016 0.0670281 0.
0.682017 0.0670281 0.
0.684018 0.0670285 0.
0.686018 0.0670295 0.
0.688018 0.0670305 0.
0.690018 0.0670314 0.
0.692019 0.0670323 0.
0.694019 0.0670332 0.
0.696019 0.0670339 0.
0.698018 0.0670345 0.
0.499979 0.0690332 0.
0.50198 0.0690316 0.
0.503981 0.0690298 0.
0.505982 0.0690283 0.
0.507982 0.0690277 0.
0.509982 0.0690271 0.
0.511983 0.0690266 0.
0.513983 0.0690261 0.
0.515983 0.0690257 0.
0.517984 0.0690251 0.
0.519984 0.0690246 0.
0.521984 0.0690241 0.
0.523984 0.0690241 0.
0.525984 0.0690243 0.
0.527985 0.0690244 0.
0.529986 0.0690241 0.
0.531986 0.0690239 0.
0.533987 0.0690237 0.
0.535987 0.0690233 0.
0.537988 0.0690228 0.
0.539988 0.0690224 0.
0.541989 0.069022 0.
0.543989 0.0690216 0.
0.54599 0.0690214 0.
0.54799 0.0690213 0.
0.549991 0.0690212 0.
0.551991 0.0690219 0.
0.553991 0.0690226 0.
0.555991 0.0690231 0.
0.557992 0.0690232 0.
0.559993 0.0690232 0.
0.561993 0.0690231 0.
0.563994 0.0690228 0.
0.565994 0.0690225 0.
0.567995 0.0690223 0.
0.569995 0.0690222 0.
0.571995 0.0690222 0.
0.573995 0.069022 0.
0.575994 0.0690219 0.
0.577994 0.0690217 0.
0.579995 0.0690217 0.
0.581995 0.0690217 0.
0.583996 0.0690215 0.
0.585997 0.0690211 0.
0.587998 0.0690207 0.
0.589998 0.0690205 0.
0.591998 0.0690205 0.
0.593998 0.0690206 0.
0.595999 0.0690207 0.
0.598 0.0690208 0.
0.6 0.0690209 0.
0.602002 0.0690209 0.
0.604003 0.069021 0.
0.606004 0.0690211 0.
0.608004 0.0690218 0.
0.610004 0.0690224 0.
0.612004 0.0690226 0.
0.614003 0.069022 0.
0.616003 0.0690215 0.
0.618003 0.0690219 0.
0.620003 0.0690229 0.
0.622003 0.0690238 0.
0.624003 0.069024 0.
0.626003 0.069024 0.
0.628002 0.069024 0.
0.630003 0.0690236 0.
0.632003 0.0690231 0.
0.634004 0.0690228 0.
0.636004 0.069023 0.
0.638005 0.0690232 0.
0.640005 0.0690234 0.
0.642006 0.0690236 0.
0.644006 0.0690238 0.
0.646006 0.0690233 0.
0.648007 0.0690227 0.
0.650007 0.0690221 0.
0.652008 0.0690232 0.
0.654008 0.0690244 0.
0.656009 0.0690253 0.
0.658009 0.0690254 0.
0.66001 0.0690255 0.
0.662011 0.0690256 0.
0.664011 0.0690254 0.
0.666012 0.0690253 0.
0.668012 0.0690255 0.
0.670013 0.0690259 0.
0.672014 0.0690263 0.
0.674014 0.0690265 0.
0.676015 0.0690268 0.
0.678015 0.069027 0.
0.680015 0.0690275 0.
0.682016 0.069028 0.
0.684016 0.0690287 0.
0.686016 0.0690299 0.
0.688017 0.0690312 0.
0.690017 0.069032 0.
0.692018 0.0690326 0.
0.694019 0.0690332 0.
0.696019 0.0690338 0.
0.698018 0.0690344 0.
0.49998 0.0710331 0.
0.501981 0.0710317 0.
0.503982 0.0710302 0.
0.505982 0.0710289 0.
0.507983 0.071028 0.
0.509983 0.071027 0.
0.511983 0.0710264 0.
0.513984 0.0710261 0.
0.515984 0.0710258 0.
0.517984 0.0710254 0.
0.519984 0.0710249 0.
0.521985 0.0710244 0.
0.523985 0.0710244 0.
0.525985 0.0710245 0.
0.527986 0.0710245 0.
0.529986 0.0710243 0.
0.531987 0.071024 0.
0.533988 0.0710237 0.
0.535988 0.0710232 0.
0.537988 0.0710227 0.
0.539988 0.0710223 0.
0.541989 0.0710219 0.
0.543989 0.0710215 0.
0.54599 0.0710214 0.
0.54799 0.0710214 0.
0.549991 0.0710214 0.
0.551991 0.0710219 0.
0.553991 0.0710224 0.
0.555991 0.0710228 0.
0.557992 0.0710227 0.
0.559992 0.0710227 0.
0.561993 0.0710226 0.
0.563994 0.0710224 0.
0.565994 0.0710222 0.
0.567994 0.0710221 0.
0.569995 0.0710221 0.
0.571995 0.0710221 0.
0.573995 0.0710221 0.
0.575995 0.0710221 0.
0.577995 0.071022 0.
0.579995 0.0710216 0.
0.581996 0.0710212 0.
0.583996 0.0710208 0.
0.585997 0.0710206 0.
0.587998 0.0710204 0.
0.589998 0.0710203 0.
0.591998 0.0710203 0.
0.593998 0.0710204 0.
0.595999 0.0710206 0.
0.598 0.071021 0.
0.6 0.0710213 0.
0.602002 0.0710213 0.
0.604003 0.0710214 0.
0.606004 0.0710215 0.
0.608004 0.071022 0.
0.610004 0.0710226 0.
0.612003 0.0710227 0.
0.614003 0.0710225 0.
0.616002 0.0710222 0.
0.618002 0.0710226 0.
0.620003 0.0710234 0.
0.622003 0.0710241 0.
0.624003 0.0710242 0.
0.626003 0.0710241 0.
0.628003 0.071024 0.
0.630003 0.0710237 0.
0.632003 0.0710234 0.
0.634004 0.0710232 0.
0.636004 0.0710231 0.
0.638004 0.0710229 0.
0.640005 0.0710231 0.
0.642005 0.0710235 0.
0.644005 0.0710239 0.
0.646006 0.0710232 0.
0.648006 0.0710224 0.
0.650007 0.0710215 0.
0.652007 0.0710229 0.
0.654007 0.0710243 0.
0.656008 0.0710254 0.
0.658008 0.0710254 0.
0.660009 0.0710254 0.
0.66201 0.0710254 0.
0.66401 0.0710252 0.
0.66601 0.071025 0.
0.668011 0.0710253 0.
0.670012 0.0710259 0.
0.672012 0.0710265 0.
0.674013 0.0710266 0.
0.676014 0.0710266 0.
0.678014 0.0710267 0.
0.680015 0.0710274 0.
0.682015 0.071028 0.
0.684015 0.0710289 0.
0.686015 0.0710301 0.
0.688015 0.0710313 0.
0.690016 0.0710321 0.
0.692017 0.0710326 0.
0.694018 0.0710331 0.
0.696018 0.0710338 0.
0.698017 0.0710346 0.
0.499981 0.0730325 0.
0.501982 0.0730313 0.
0.503983 0.0730303 0.
0.505983 0.0730292 0.
0.507983 0.0730281 0.
0.509983 0.073027 0.
0.511984 0.0730262 0.
0.513984 0.0730259 0.
0.515985 0.0730255 0.
0.517985 0.0730252 0.
0.519985 0.0730249 0.
0.521986 0.0730245 0.
0.523986 0.0730245 0.
0.525986 0.0730246 0.
0.527987 0.0730246 0.
0.529987 0.0730245 0.
0.531988 0.0730244 0.
0.533988 0.0730241 0.
0.535988 0.0730235 0.
0.537988 0.0730228 0.
0.539989 0.0730224 0.
0.541989 0.0730223 0.
0.54399 0.0730222 0.
0.54599 0.073022 0.
0.547991 0.0730218 0.
0.549991 0.0730217 0.
0.551991 0.073022 0.
0.553991 0.0730223 0.
0.555991 0.0730226 0.
0.557992 0.0730223 0.
0.559992 0.073022 0.
0.561993 0.0730218 0.
0.563993 0.0730219 0.
0.565994 0.0730219 0.
0.567994 0.0730219 0.
0.569994 0.0730219 0.
0.571995 0.0730218 0.
0.573995 0.073022 0.
0.575995 0.0730221 0.
0.577995 0.0730221 0.
0.579996 0.0730214 0.
0.581996 0.0730206 0.
0.583997 0.0730201 0.
0.585997 0.0730202 0.
0.587998 0.0730203 0.
0.589998 0.0730204 0.
0.591998 0.0730205 0.
0.593998 0.0730205 0.
0.595999 0.0730207 0.
0.598 0.073021 0.
0.600001 0.0730212 0.
0.602001 0.0730214 0.
0.604002 0.0730215 0.
0.606002 0.0730218 0.
0.608002 0.0730223 0.
0.610002 0.0730227 0.
0.612002 0.073023 0.
0.614002 0.0730231 0.
0.616002 0.0730232 0.
0.618002 0.0730236 0.
0.620002 0.0730241 0.
0.622003 0.0730246 0.
0.624003 0.0730245 0.
0.626003 0.0730242 0.
0.628003 0.073024 0.
0.630003 0.073024 0.
0.632003 0.073024 0.
0.634004 0.0730238 0.
0.636004 0.0730234 0.
0.638004 0.073023 0.
0.640004 0.0730231 0.
0.642004 0.0730235 0.
0.644004 0.0730239 0.
0.646005 0.0730234 0.
0.648006 0.0730225 0.
0.650006 0.0730217 0.
0.652006 0.073023 0.
0.654006 0.0730243 0.
0.656007 0.0730253 0.
0.658007 0.0730253 0.
0.660008 0.0730253 0.
0.662008 0.0730252 0.
0.664009 0.0730249 0.
0.666009 0.0730247 0.
0.66801 0.0730252 0.
0.670011 0.0730261 0.
0.672011 0.0730269 0.
0.674012 0.073027 0.
0.676013 0.0730269 0.
0.678014 0.073027 0.
0.680013 0.0730277 0.
0.682013 0.0730283 0.
0.684013 0.0730291 0.
0.686014 0.0730299 0.
0.688014 0.0730308 0.
0.690015 0.0730316 0.
0.692016 0.0730324 0.
0.694016 0.0730331 0.
0.696016 0.073034 0.
0.698016 0.073035 0.
0.499983 0.0750315 0.
0.501983 0.0750308 0.
0.503983 0.0750303 0.
0.505984 0.0750296 0.
0.507984 0.0750283 0.
0.509984 0.075027 0.
0.511984 0.0750261 0.
0.513985 0.0750257 0.
0.515985 0.0750252 0.
0.517986 0.075025 0.
0.519986 0.0750249 0.
0.521987 0.0750247 0.
0.523987 0.0750247 0.
0.525988 0.0750247 0.
0.527988 0.0750247 0.
0.529988 0.0750248 0.
0.531988 0.0750248 0.
0.533988 0.0750246 0.
0.535988 0.0750237 0.
0.537989 0.0750228 0.
0.539989 0.0750225 0.
0.54199 0.0750227 0.
0.54399 0.0750229 0.
0.545991 0.0750227 0.
0.547991 0.0750223 0.
0.549991 0.0750219 0.
0.551991 0.0750221 0.
0.553991 0.0750223 0.
0.555992 0.0750224 0.
0.557992 0.0750218 0.
0.559992 0.0750213 0.
0.561993 0.0750211 0.
0.563993 0.0750214 0.
0.565993 0.0750217 0.
0.567994 0.0750217 0.
0.569994 0.0750216 0.
0.571994 0.0750215 0.
0.573995 0.0750218 0.
0.575996 0.0750221 0.
0.577996 0.0750222 0.
0.579997 0.0750211 0.
0.581997 0.07502 0.
0.583997 0.0750194 0.
0.585997 0.0750198 0.
0.587998 0.0750202 0.
0.589998 0.0750205 0.
0.591998 0.0750206 0.
0.593998 0.0750207 0.
0.595999 0.0750208 0.
0.598 0.075021 0.
0.600001 0.0750211 0.
0.602001 0.0750214 0.
0.604001 0.0750217 0.
0.606001 0.0750221 0.
0.608001 0.0750225 0.
0.610001 0.0750229 0.
0.612001 0.0750233 0.
0.614001 0.0750238 0.
0.616002 0.0750242 0.
0.618002 0.0750245 0.
0.620002 0.0750248 0.
0.622003 0.0750251 0.
0.624003 0.0750247 0.
0.626003 0.0750243 0.
0.628003 0.0750239 0.
0.630003 0.0750242 0.
0.632003 0.0750245 0.
0.634004 0.0750245 0.
0.636004 0.0750238 0.
0.638004 0.0750231 0.
0.640004 0.075023 0.
0.642004 0.0750235 0.
0.644003 0.075024 0.
0.646004 0.0750234 0.
0.648005 0.0750226 0.
0.650005 0.0750218 0.
0.652005 0.0750231 0.
0.654005 0.0750243 0.
0.656006 0.0750252 0.
0.658006 0.0750252 0.
0.660006 0.0750251 0.
0.662007 0.075025 0.
0.664008 0.0750247 0.
0.666008 0.0750244 0.
0.668009 0.0750251 0.
0.67001 0.0750262 0.
0.67201 0.0750274 0.
0.674011 0.0750274 0.
0.676012 0.0750273 0.
0.678013 0.0750273 0.
0.680012 0.0750279 0.
0.682012 0.0750286 0.
0.684012 0.0750292 0.
0.686012 0.0750298 0.
0.688013 0.0750303 0.
0.690013 0.0750311 0.
0.692014 0.0750321 0.
0.694015 0.0750331 0.
0.696015 0.0750342 0.
0.698015 0.0750354 0.
0.499983 0.0770312 0.
0.501984 0.0770304 0.
0.503984 0.0770298 0.
0.505984 0.0770291 0.
0.507985 0.0770281 0.
0.509985 0.0770271 0.
0.511985 0.0770264 0.
0.513986 0.0770259 0.
0.515986 0.0770255 0.
0.517986 0.0770251 0.
0.519987 0.0770249 0.
0.521987 0.0770247 0.
0.523988 0.0770245 0.
0.525988 0.0770244 0.
0.527989 0.0770243 0.
0.529989 0.0770243 0.
0.531989 0.0770244 0.
0.533989 0.0770241 0.
0.53599 0.0770234 0.
0.53799 0.0770227 0.
0.53999 0.0770223 0.
0.54199 0.0770222 0.
0.54399 0.0770221 0.
0.545991 0.0770221 0.
0.547991 0.0770221 0.
0.549992 0.0770221 0.
0.551992 0.0770221 0.
0.553992 0.0770221 0.
0.555992 0.077022 0.
0.557992 0.0770215 0.
0.559993 0.077021 0.
0.561993 0.0770209 0.
0.563993 0.0770212 0.
0.565994 0.0770215 0.
0.567994 0.0770215 0.
0.569995 0.0770214 0.
0.571995 0.0770212 0.
0.573996 0.0770214 0.
0.575996 0.0770216 0.
0.577997 0.0770217 0.
0.579997 0.0770208 0.
0.581997 0.0770198 0.
0.583997 0.0770194 0.
0.585998 0.07702 0.
0.587998 0.0770207 0.
0.589998 0.0770208 0.
0.591998 0.0770206 0.
0.593998 0.0770203 0.
0.595999 0.0770206 0.
0.597999 0.077021 0.
0.6 0.0770214 0.
0.602 0.0770217 0.
0.604001 0.0770221 0.
0.606001 0.0770224 0.
0.608001 0.0770226 0.
0.610001 0.0770228 0.
0.612001 0.0770231 0.
0.614001 0.0770235 0.
0.616002 0.0770239 0.
0.618002 0.077024 0.
0.620003 0.077024 0.
0.622003 0.077024 0.
0.624003 0.077024 0.
0.626003 0.0770239 0.
0.628003 0.0770239 0.
0.630003 0.0770241 0.
0.632003 0.0770243 0.
0.634003 0.0770242 0.
0.636003 0.0770238 0.
0.638003 0.0770233 0.
0.640003 0.0770232 0.
0.642003 0.0770232 0.
0.644003 0.0770233 0.
0.646004 0.077023 0.
0.648004 0.0770225 0.
0.650005 0.0770221 0.
0.652005 0.0770228 0.
0.654005 0.0770236 0.
0.656005 0.0770242 0.
0.658006 0.0770242 0.
0.660006 0.0770243 0.
0.662007 0.0770243 0.
0.664007 0.0770243 0.
0.666008 0.0770242 0.
0.668008 0.0770249 0.
0.670009 0.0770259 0.
0.672009 0.0770269 0.
0.67401 0.077027 0.
0.67601 0.0770271 0.
0.678011 0.0770272 0.
0.680011 0.077028 0.
0.682011 0.0770287 0.
0.684012 0.0770292 0.
0.686012 0.0770295 0.
0.688012 0.0770298 0.
0.690013 0.0770304 0.
0.692013 0.0770314 0.
0.694014 0.0770324 0.
0.696014 0.0770337 0.
0.698014 0.0770351 0.
0.499984 0.0790309 0.
0.501984 0.07903 0.
0.503985 0.0790294 0.
0.505985 0.0790287 0.
0.507986 0.079028 0.
0.509986 0.0790273 0.
0.511986 0.0790266 0.
0.513986 0.0790262 0.
0.515986 0.0790257 0.
0.517986 0.0790253 0.
0.519987 0.0790249 0.
0.521988 0.0790246 0.
0.523988 0.0790244 0.
0.525989 0.0790241 0.
0.527989 0.0790239 0.
0.529989 0.0790239 0.
0.53199 0.0790239 0.
0.53399 0.0790237 0.
0.535991 0.0790231 0.
0.537991 0.0790225 0.
0.539991 0.079022 0.
0.541991 0.0790217 0.
0.543991 0.0790214 0.
0.545991 0.0790216 0.
0.547992 0.0790219 0.
0.549993 0.0790223 0.
0.551993 0.0790221 0.
0.553992 0.079022 0.
0.555992 0.0790217 0.
0.557992 0.0790213 0.
0.559993 0.0790208 0.
0.561993 0.0790207 0.
0.563994 0.079021 0.
0.565994 0.0790213 0.
0.567995 0.0790213 0.
0.569995 0.0790211 0.
0.571996 0.0790209 0.
0.573996 0.079021 0.
0.575997 0.0790212 0.
0.577997 0.0790212 0.
0.579998 0.0790204 0.
0.581998 0.0790196 0.
0.583998 0.0790194 0.
0.585998 0.0790203 0.
0.587998 0.0790212 0.
0.589998 0.0790212 0.
0.591998 0.0790206 0.
0.593998 0.0790199 0.
0.595999 0.0790203 0.
0.597999 0.079021 0.
0.6 0.0790217 0.
0.602 0.079022 0.
0.604001 0.0790224 0.
0.606001 0.0790227 0.
0.608001 0.0790227 0.
0.61 0.0790227 0.
0.612 0.0790229 0.
0.614001 0.0790232 0.
0.616002 0.0790236 0.
0.618002 0.0790235 0.
0.620003 0.0790233 0.
0.622004 0.079023 0.
0.624004 0.0790233 0.
0.626004 0.0790236 0.
0.628004 0.079024 0.
0.630003 0.079024 0.
0.632003 0.079024 0.
0.634003 0.079024 0.
0.636003 0.0790238 0.
0.638003 0.0790236 0.
0.640003 0.0790233 0.
0.642003 0.0790229 0.
0.644003 0.0790226 0.
0.646004 0.0790225 0.
0.648004 0.0790224 0.
0.650004 0.0790224 0.
0.652005 0.0790226 0.
0.654005 0.0790229 0.
0.656005 0.0790231 0.
0.658006 0.0790233 0.
0.660006 0.0790235 0.
0.662007 0.0790237 0.
0.664007 0.0790239 0.
0.666008 0.0790241 0.
0.668008 0.0790247 0.
0.670008 0.0790255 0.
0.672008 0.0790264 0.
0.674008 0.0790267 0.
0.676009 0.0790269 0.
0.678009 0.0790272 0.
0.68001 0.079028 0.
0.682011 0.0790287 0.
0.684011 0.0790293 0.
0.686012 0.0790293 0.
0.688012 0.0790292 0.
0.690012 0.0790298 0.
0.692012 0.0790307 0.
0.694013 0.0790317 0.
0.696013 0.0790332 0.
0.698013 0.0790349 0.
0.499984 0.0810305 0.
0.501985 0.0810297 0.
0.503985 0.0810289 0.
0.505986 0.0810282 0.
0.507986 0.0810277 0.
0.509987 0.0810272 0.
0.511987 0.0810267 0.
0.513987 0.0810263 0.
0.515987 0.0810258 0.
0.517987 0.0810254 0.
0.519988 0.0810249 0.
0.521988 0.0810244 0.
0.523989 0.0810241 0.
0.525989 0.0810239 0.
0.52799 0.0810236 0.
0.52999 0.0810236 0.
0.531991 0.0810235 0.
0.533991 0.0810233 0.
0.535991 0.0810228 0.
0.537992 0.0810223 0.
0.539992 0.0810218 0.
0.541991 0.0810215 0.
0.543991 0.0810211 0.
0.545992 0.0810214 0.
0.547992 0.0810219 0.
0.549993 0.0810224 0.
0.551993 0.0810221 0.
0.553993 0.0810219 0.
0.555992 0.0810216 0.
0.557993 0.0810212 0.
0.559993 0.0810208 0.
0.561993 0.0810206 0.
0.563994 0.0810209 0.
0.565994 0.0810212 0.
0.567995 0.0810211 0.
0.569995 0.0810208 0.
0.571996 0.0810205 0.
0.573996 0.0810205 0.
0.575997 0.0810207 0.
0.577997 0.0810207 0.
0.579998 0.0810203 0.
0.581998 0.0810198 0.
0.583998 0.0810198 0.
0.585998 0.0810205 0.
0.587998 0.0810213 0.
0.589998 0.0810213 0.
0.591998 0.0810207 0.
0.593998 0.0810201 0.
0.595999 0.0810206 0.
0.597999 0.0810214 0.
0.599999 0.0810221 0.
0.602 0.0810224 0.
0.604001 0.0810226 0.
0.606001 0.0810227 0.
0.608001 0.0810227 0.
0.61 0.0810227 0.
0.612 0.0810228 0.
0.614001 0.081023 0.
0.616002 0.0810232 0.
0.618003 0.0810231 0.
0.620003 0.0810228 0.
0.622004 0.0810226 0.
0.624004 0.081023 0.
0.626004 0.0810236 0.
0.628004 0.0810241 0.
0.630003 0.0810241 0.
0.632003 0.0810242 0.
0.634003 0.0810241 0.
0.636003 0.0810239 0.
0.638002 0.0810238 0.
0.640003 0.0810234 0.
0.642003 0.0810228 0.
0.644003 0.0810222 0.
0.646004 0.0810222 0.
0.648004 0.0810224 0.
0.650004 0.0810225 0.
0.652005 0.0810225 0.
0.654005 0.0810224 0.
0.656005 0.0810225 0.
0.658006 0.0810227 0.
0.660007 0.081023 0.
0.662007 0.0810233 0.
0.664007 0.0810237 0.
0.666008 0.081024 0.
0.668008 0.0810247 0.
0.670008 0.0810255 0.
0.672008 0.0810263 0.
0.674008 0.0810265 0.
0.676008 0.0810268 0.
0.678008 0.081027 0.
0.680009 0.0810278 0.
0.68201 0.0810287 0.
0.684011 0.0810292 0.
0.686011 0.081029 0.
0.688012 0.0810289 0.
0.690012 0.0810294 0.
0.692012 0.0810305 0.
0.694012 0.0810316 0.
0.696012 0.081033 0.
0.698013 0.0810346 0.
0.499984 0.0830301 0.
0.501985 0.0830294 0.
0.503986 0.0830285 0.
0.505987 0.0830277 0.
0.507987 0.0830274 0.
0.509987 0.083027 0.
0.511988 0.0830267 0.
0.513988 0.0830263 0.
0.515988 0.0830259 0.
0.517988 0.0830253 0.
0.519989 0.0830247 0.
0.521989 0.0830241 0.
0.523989 0.0830238 0.
0.52599 0.0830236 0.
0.527991 0.0830234 0.
0.529991 0.0830233 0.
0.531991 0.0830232 0.
0.533991 0.083023 0.
0.535991 0.0830226 0.
0.537992 0.0830222 0.
0.539992 0.0830218 0.
0.541992 0.0830215 0.
0.543992 0.0830212 0.
0.545992 0.0830215 0.
0.547993 0.0830219 0.
0.549993 0.0830224 0.
0.551993 0.0830222 0.
0.553992 0.0830219 0.
0.555992 0.0830216 0.
0.557993 0.0830213 0.
0.559993 0.0830209 0.
0.561993 0.0830208 0.
0.563993 0.0830209 0.
0.565994 0.0830211 0.
0.567995 0.0830208 0.
0.569995 0.0830204 0.
0.571996 0.0830199 0.
0.573996 0.08302 0.
0.575997 0.0830201 0.
0.577997 0.0830201 0.
0.579997 0.0830203 0.
0.581998 0.0830204 0.
0.583998 0.0830205 0.
0.585998 0.0830207 0.
0.587998 0.083021 0.
0.589998 0.083021 0.
0.591998 0.0830209 0.
0.593998 0.0830208 0.
0.595999 0.0830214 0.
0.597999 0.0830221 0.
0.599999 0.0830228 0.
0.602 0.0830227 0.
0.604 0.0830225 0.
0.606 0.0830224 0.
0.608001 0.0830227 0.
0.610001 0.0830229 0.
0.612001 0.083023 0.
0.614002 0.0830228 0.
0.616002 0.0830227 0.
0.618003 0.0830227 0.
0.620003 0.0830227 0.
0.622004 0.0830227 0.
0.624004 0.0830232 0.
0.626004 0.0830238 0.
0.628003 0.0830243 0.
0.630003 0.0830245 0.
0.632003 0.0830247 0.
0.634003 0.0830247 0.
0.636003 0.0830242 0.
0.638003 0.0830238 0.
0.640003 0.0830233 0.
0.642003 0.0830228 0.
0.644003 0.0830223 0.
0.646003 0.0830223 0.
0.648004 0.0830224 0.
0.650004 0.0830225 0.
0.652005 0.0830224 0.
0.654005 0.0830223 0.
0.656006 0.0830222 0.
0.658006 0.0830224 0.
0.660007 0.0830227 0.
0.662007 0.0830231 0.
0.664007 0.0830236 0.
0.666007 0.0830242 0.
0.668008 0.0830249 0.
0.670008 0.0830257 0.
0.672008 0.0830264 0.
0.674008 0.0830265 0.
0.676009 0.0830266 0.
0.678009 0.0830267 0.
0.680009 0.0830276 0.
0.68201 0.0830285 0.
0.68401 0.083029 0.
0.686011 0.0830288 0.
0.688011 0.0830287 0.
0.690011 0.0830293 0.
0.692012 0.0830306 0.
0.694012 0.0830319 0.
0.696012 0.0830331 0.
0.698013 0.0830343 0.
0.499985 0.0850299 0.
0.501986 0.0850291 0.
0.503987 0.0850281 0.
0.505988 0.0850272 0.
0.507988 0.085027 0.
0.509988 0.0850268 0.
0.511988 0.0850266 0.
0.513989 0.0850263 0.
0.51599 0.085026 0.
0.51799 0.0850253 0.
0.51999 0.0850245 0.
0.521989 0.0850237 0.
0.52399 0.0850236 0.
0.525991 0.0850234 0.
0.527992 0.0850232 0.
0.529992 0.0850231 0.
0.531991 0.0850229 0.
0.533991 0.0850226 0.
0.535992 0.0850223 0.
0.537992 0.085022 0.
0.539992 0.0850218 0.
0.541993 0.0850216 0.
0.543993 0.0850213 0.
0.545993 0.0850216 0.
0.547993 0.085022 0.
0.549992 0.0850224 0.
0.551992 0.0850222 0.
0.553992 0.0850219 0.
0.555992 0.0850217 0.
0.557993 0.0850214 0.
0.559993 0.085021 0.
0.561993 0.0850209 0.
0.563993 0.0850209 0.
0.565994 0.085021 0.
0.567994 0.0850206 0.
0.569995 0.08502 0.
0.571996 0.0850194 0.
0.573996 0.0850194 0.
0.575996 0.0850195 0.
0.577997 0.0850196 0.
0.579997 0.0850203 0.
0.581997 0.0850209 0.
0.583998 0.0850212 0.
0.585998 0.085021 0.
0.587998 0.0850207 0.
0.589998 0.0850207 0.
0.591998 0.0850211 0.
0.593999 0.0850216 0.
0.595999 0.0850222 0.
0.597999 0.0850228 0.
0.599999 0.0850235 0.
0.601999 0.085023 0.
0.603999 0.0850224 0.
0.606 0.0850221 0.
0.608001 0.0850226 0.
0.610001 0.085023 0.
0.612002 0.0850231 0.
0.614002 0.0850227 0.
0.616002 0.0850222 0.
0.618003 0.0850223 0.
0.620003 0.0850226 0.
0.622004 0.0850229 0.
0.624004 0.0850234 0.
0.626003 0.085024 0.
0.628003 0.0850245 0.
0.630003 0.0850249 0.
0.632003 0.0850253 0.
0.634003 0.0850253 0.
0.636003 0.0850245 0.
0.638003 0.0850238 0.
0.640003 0.0850232 0.
0.642003 0.0850227 0.
0.644002 0.0850223 0.
0.646003 0.0850223 0.
0.648004 0.0850224 0.
0.650005 0.0850225 0.
0.652005 0.0850223 0.
0.654006 0.0850221 0.
0.656006 0.0850219 0.
0.658007 0.0850222 0.
0.660007 0.0850224 0.
0.662008 0.0850229 0.
0.664007 0.0850236 0.
0.666007 0.0850243 0.
0.668007 0.0850251 0.
0.670008 0.0850258 0.
0.672008 0.0850266 0.
0.674009 0.0850265 0.
0.676009 0.0850264 0.
0.67801 0.0850263 0.
0.680009 0.0850273 0.
0.682009 0.0850283 0.
0.684009 0.0850288 0.
0.68601 0.0850287 0.
0.688011 0.0850285 0.
0.690011 0.0850293 0.
0.692011 0.0850308 0.
0.694012 0.0850323 0.
0.696012 0.0850332 0.
0.698013 0.085034 0.
0.499986 0.0870303 0.
0.501987 0.0870294 0.
0.503988 0.0870284 0.
0.505989 0.0870276 0.
0.507989 0.0870274 0.
0.509989 0.0870272 0.
0.511989 0.0870267 0.
0.51399 0.0870261 0.
0.51599 0.0870254 0.
0.51799 0.0870248 0.
0.51999 0.0870243 0.
0.52199 0.0870238 0.
0.523991 0.0870237 0.
0.525991 0.0870237 0.
0.527992 0.0870236 0.
0.529992 0.0870232 0.
0.531991 0.0870228 0.
0.533991 0.0870224 0.
0.535992 0.0870221 0.
0.537992 0.0870217 0.
0.539993 0.0870215 0.
0.541993 0.0870213 0.
0.543994 0.0870211 0.
0.545993 0.0870214 0.
0.547993 0.0870217 0.
0.549993 0.0870221 0.
0.551993 0.0870219 0.
0.553993 0.0870218 0.
0.555994 0.0870217 0.
0.557994 0.0870217 0.
0.559994 0.0870216 0.
0.561994 0.0870215 0.
0.563994 0.0870212 0.
0.565994 0.087021 0.
0.567995 0.0870205 0.
0.569995 0.08702 0.
0.571996 0.0870194 0.
0.573996 0.0870194 0.
0.575996 0.0870193 0.
0.577997 0.0870194 0.
0.579997 0.0870198 0.
0.581998 0.0870203 0.
0.583998 0.0870207 0.
0.585998 0.0870207 0.
0.587998 0.0870208 0.
0.589998 0.087021 0.
0.591998 0.0870214 0.
0.593998 0.0870218 0.
0.595999 0.0870222 0.
0.597999 0.0870226 0.
0.599999 0.0870229 0.
0.601999 0.0870225 0.
0.604 0.0870222 0.
0.606 0.087022 0.
0.608001 0.0870224 0.
0.610001 0.0870228 0.
0.612002 0.0870229 0.
0.614002 0.0870226 0.
0.616002 0.0870223 0.
0.618003 0.0870223 0.
0.620003 0.0870225 0.
0.622004 0.0870226 0.
0.624003 0.0870233 0.
0.626003 0.0870241 0.
0.628003 0.0870249 0.
0.630003 0.0870253 0.
0.632003 0.0870257 0.
0.634003 0.0870256 0.
0.636002 0.0870248 0.
0.638002 0.0870239 0.
0.640002 0.0870234 0.
0.642003 0.0870232 0.
0.644003 0.0870229 0.
0.646004 0.0870227 0.
0.648004 0.0870225 0.
0.650005 0.0870222 0.
0.652005 0.0870221 0.
0.654005 0.087022 0.
0.656005 0.087022 0.
0.658006 0.0870224 0.
0.660006 0.0870228 0.
0.662006 0.0870232 0.
0.664006 0.0870236 0.
0.666006 0.0870241 0.
0.668006 0.0870247 0.
0.670007 0.0870252 0.
0.672007 0.0870258 0.
0.674008 0.087026 0.
0.676008 0.0870262 0.
0.678009 0.0870264 0.
0.680009 0.0870271 0.
0.682009 0.0870277 0.
0.684009 0.0870282 0.
0.686009 0.0870285 0.
0.688009 0.0870287 0.
0.690009 0.0870296 0.
0.692009 0.087031 0.
0.69401 0.0870324 0.
0.69601 0.0870336 0.
0.698011 0.0870348 0.
0.499987 0.0890308 0.
0.501988 0.0890297 0.
0.503989 0.0890288 0.
0.50599 0.089028 0.
0.50799 0.0890278 0.
0.50999 0.0890275 0.
0.51199 0.0890269 0.
0.513991 0.0890259 0.
0.515991 0.0890248 0.
0.517991 0.0890243 0.
0.519991 0.0890241 0.
0.521991 0.0890239 0.
0.523991 0.0890239 0.
0.525992 0.089024 0.
0.527992 0.089024 0.
0.529992 0.0890233 0.
0.531991 0.0890227 0.
0.533992 0.0890222 0.
0.535992 0.0890218 0.
0.537993 0.0890215 0.
0.539993 0.0890212 0.
0.541994 0.0890211 0.
0.543994 0.089021 0.
0.545994 0.0890211 0.
0.547994 0.0890214 0.
0.549994 0.0890217 0.
0.551994 0.0890217 0.
0.553995 0.0890217 0.
0.555995 0.0890217 0.
0.557995 0.089022 0.
0.559995 0.0890222 0.
0.561995 0.0890221 0.
0.563995 0.0890215 0.
0.565995 0.089021 0.
0.567995 0.0890205 0.
0.569996 0.08902 0.
0.571996 0.0890195 0.
0.573996 0.0890193 0.
0.575996 0.0890192 0.
0.577997 0.0890191 0.
0.579997 0.0890194 0.
0.581998 0.0890197 0.
0.583998 0.0890201 0.
0.585998 0.0890205 0.
0.587998 0.0890209 0.
0.589998 0.0890213 0.
0.591998 0.0890217 0.
0.593998 0.0890221 0.
0.595999 0.0890222 0.
0.597999 0.0890223 0.
0.599999 0.0890224 0.
0.602 0.0890221 0.
0.604 0.0890219 0.
0.606 0.0890218 0.
0.608001 0.0890222 0.
0.610001 0.0890225 0.
0.612001 0.0890227 0.
0.614001 0.0890225 0.
0.616002 0.0890223 0.
0.618002 0.0890223 0.
0.620003 0.0890223 0.
0.622003 0.0890223 0.
0.624003 0.0890232 0.
0.626003 0.0890243 0.
0.628003 0.0890253 0.
0.630003 0.0890257 0.
0.632002 0.089026 0.
0.634002 0.089026 0.
0.636002 0.089025 0.
0.638002 0.0890241 0.
0.640002 0.0890236 0.
0.642003 0.0890236 0.
0.644004 0.0890235 0.
0.646005 0.0890231 0.
0.648005 0.0890225 0.
0.650005 0.089022 0.
0.652005 0.089022 0.
0.654005 0.0890219 0.
0.656004 0.089022 0.
0.658005 0.0890226 0.
0.660005 0.0890231 0.
0.662005 0.0890235 0.
0.664005 0.0890237 0.
0.666005 0.0890239 0.
0.668005 0.0890242 0.
0.670006 0.0890246 0.
0.672007 0.089025 0.
0.674007 0.0890255 0.
0.676008 0.089026 0.
0.678009 0.0890265 0.
0.680008 0.0890268 0.
0.682008 0.0890271 0.
0.684008 0.0890276 0.
0.686008 0.0890282 0.
0.688008 0.0890289 0.
0.690008 0.0890299 0.
0.692008 0.0890312 0.
0.694008 0.0890325 0.
0.696008 0.089034 0.
0.698008 0.0890356 0.
0.499989 0.0910299 0.
0.501989 0.0910295 0.
0.50399 0.0910289 0.
0.505991 0.0910284 0.
0.507991 0.091028 0.
0.509991 0.0910275 0.
0.511991 0.0910268 0.
0.513991 0.0910257 0.
0.515991 0.0910245 0.
0.517991 0.091024 0.
0.519991 0.0910239 0.
0.521992 0.0910238 0.
0.523992 0.0910239 0.
0.525992 0.091024 0.
0.527992 0.0910241 0.
0.529992 0.0910233 0.
0.531992 0.0910226 0.
0.533992 0.091022 0.
0.535993 0.0910217 0.
0.537994 0.0910213 0.
0.539994 0.0910211 0.
0.541994 0.0910211 0.
0.543994 0.091021 0.
0.545994 0.0910211 0.
0.547994 0.0910213 0.
0.549994 0.0910215 0.
0.551995 0.0910216 0.
0.553995 0.0910217 0.
0.555996 0.0910218 0.
0.557995 0.091022 0.
0.559995 0.0910223 0.
0.561995 0.0910222 0.
0.563995 0.0910216 0.
0.565995 0.091021 0.
0.567996 0.0910205 0.
0.569996 0.09102 0.
0.571996 0.0910195 0.
0.573996 0.0910193 0.
0.575997 0.0910192 0.
0.577997 0.091019 0.
0.579997 0.0910192 0.
0.581998 0.0910193 0.
0.583998 0.0910196 0.
0.585998 0.0910202 0.
0.587998 0.0910208 0.
0.589998 0.0910214 0.
0.591998 0.0910218 0.
0.593998 0.0910223 0.
0.595998 0.0910225 0.
0.597999 0.0910225 0.
0.599999 0.0910226 0.
0.602 0.0910223 0.
0.604 0.0910221 0.
0.606001 0.091022 0.
0.608001 0.0910222 0.
0.610001 0.0910224 0.
0.612001 0.0910225 0.
0.614002 0.0910224 0.
0.616002 0.0910224 0.
0.618003 0.0910225 0.
0.620003 0.0910225 0.
0.622003 0.0910226 0.
0.624003 0.0910235 0.
0.626003 0.0910244 0.
0.628003 0.0910253 0.
0.630002 0.0910258 0.
0.632002 0.0910263 0.
0.634002 0.0910263 0.
0.636002 0.0910251 0.
0.638002 0.0910239 0.
0.640003 0.0910234 0.
0.642004 0.0910234 0.
0.644005 0.0910235 0.
0.646005 0.0910231 0.
0.648005 0.0910227 0.
0.650005 0.0910222 0.
0.652004 0.091022 0.
0.654004 0.0910218 0.
0.656004 0.0910218 0.
0.658004 0.0910225 0.
0.660004 0.0910232 0.
0.662004 0.0910236 0.
0.664005 0.0910236 0.
0.666005 0.0910237 0.
0.668005 0.0910239 0.
0.670005 0.0910242 0.
0.672006 0.0910245 0.
0.674007 0.0910252 0.
0.676007 0.0910258 0.
0.678008 0.0910265 0.
0.680007 0.0910267 0.
0.682007 0.091027 0.
0.684007 0.0910274 0.
0.686007 0.0910282 0.
0.688006 0.0910289 0.
0.690006 0.09103 0.
0.692006 0.0910314 0.
0.694006 0.0910327 0.
0.696006 0.0910341 0.
0.698006 0.0910354 0.
0.499991 0.0930291 0.
0.501991 0.0930289 0.
0.503991 0.0930288 0.
0.505992 0.0930286 0.
0.507992 0.093028 0.
0.509992 0.0930273 0.
0.511992 0.0930265 0.
0.513992 0.0930254 0.
0.515992 0.0930244 0.
0.517992 0.0930239 0.
0.519992 0.0930238 0.
0.521992 0.0930237 0.
0.523992 0.0930238 0.
0.525992 0.0930239 0.
0.527992 0.0930239 0.
0.529992 0.0930232 0.
0.531993 0.0930225 0.
0.533993 0.0930219 0.
0.535994 0.0930216 0.
0.537994 0.0930214 0.
0.539995 0.0930213 0.
0.541995 0.0930213 0.
0.543994 0.0930212 0.
0.545994 0.0930213 0.
0.547994 0.0930213 0.
0.549994 0.0930213 0.
0.551995 0.0930215 0.
0.553995 0.0930217 0.
0.555995 0.0930219 0.
0.557995 0.0930219 0.
0.559995 0.0930219 0.
0.561995 0.0930218 0.
0.563995 0.0930214 0.
0.565995 0.093021 0.
0.567995 0.0930205 0.
0.569996 0.09302 0.
0.571996 0.0930195 0.
0.573997 0.0930193 0.
0.575997 0.0930192 0.
0.577997 0.0930191 0.
0.579997 0.0930191 0.
0.581997 0.0930191 0.
0.583997 0.0930193 0.
0.585997 0.0930199 0.
0.587997 0.0930205 0.
0.589997 0.0930212 0.
0.591997 0.0930219 0.
0.593998 0.0930226 0.
0.595998 0.093023 0.
0.597999 0.0930232 0.
0.6 0.0930235 0.
0.602 0.0930232 0.
0.604 0.0930228 0.
0.606001 0.0930225 0.
0.608001 0.0930224 0.
0.610001 0.0930222 0.
0.612002 0.0930222 0.
0.614002 0.0930223 0.
0.616003 0.0930225 0.
0.618003 0.0930228 0.
0.620003 0.0930231 0.
0.622003 0.0930235 0.
0.624003 0.093024 0.
0.626003 0.0930246 0.
0.628002 0.0930251 0.
0.630002 0.0930258 0.
0.632002 0.0930266 0.
0.634002 0.0930265 0.
0.636002 0.093025 0.
0.638003 0.0930235 0.
0.640003 0.0930228 0.
0.642004 0.0930228 0.
0.644004 0.0930229 0.
0.646004 0.0930229 0.
0.648004 0.0930229 0.
0.650003 0.0930229 0.
0.652003 0.0930223 0.
0.654004 0.0930217 0.
0.656004 0.0930213 0.
0.658004 0.0930222 0.
0.660005 0.093023 0.
0.662005 0.0930235 0.
0.664005 0.0930234 0.
0.666005 0.0930233 0.
0.668005 0.0930236 0.
0.670005 0.093024 0.
0.672006 0.0930245 0.
0.674006 0.0930251 0.
0.676006 0.0930257 0.
0.678006 0.0930263 0.
0.680006 0.0930268 0.
0.682006 0.0930272 0.
0.684006 0.0930277 0.
0.686005 0.0930282 0.
0.688005 0.0930287 0.
0.690005 0.0930298 0.
0.692005 0.0930314 0.
0.694005 0.093033 0.
0.696005 0.0930338 0.
0.698005 0.0930344 0.
0.499993 0.0950277 0.
0.501993 0.0950283 0.
0.503993 0.0950287 0.
0.505993 0.0950289 0.
0.507993 0.095028 0.
0.509992 0.0950272 0.
0.511992 0.0950262 0.
0.513992 0.0950252 0.
0.515992 0.0950242 0.
0.517992 0.0950238 0.
0.519992 0.0950236 0.
0.521993 0.0950235 0.
0.523992 0.0950236 0.
0.525992 0.0950237 0.
0.527992 0.0950237 0.
0.529993 0.095023 0.
0.531994 0.0950224 0.
0.533994 0.0950218 0.
0.535995 0.0950216 0.
0.537995 0.0950214 0.
0.539995 0.0950214 0.
0.541995 0.0950214 0.
0.543995 0.0950215 0.
0.545995 0.0950214 0.
0.547995 0.0950213 0.
0.549994 0.0950212 0.
0.551995 0.0950215 0.
0.553995 0.0950218 0.
0.555995 0.0950219 0.
0.557995 0.0950217 0.
0.559995 0.0950215 0.
0.561995 0.0950214 0.
0.563995 0.0950212 0.
0.565995 0.095021 0.
0.567995 0.0950206 0.
0.569996 0.0950201 0.
0.571996 0.0950195 0.
0.573997 0.0950193 0.
0.575997 0.0950193 0.
0.577998 0.0950192 0.
0.579997 0.095019 0.
0.581997 0.0950189 0.
0.583997 0.095019 0.
0.585996 0.0950196 0.
0.587996 0.0950202 0.
0.589996 0.095021 0.
0.591997 0.0950219 0.
0.593997 0.0950228 0.
0.595998 0.0950234 0.
0.597999 0.0950239 0.
0.6 0.0950244 0.
0.602 0.095024 0.
0.604001 0.0950235 0.
0.606001 0.0950231 0.
0.608001 0.0950226 0.
0.610002 0.095022 0.
0.612002 0.0950219 0.
0.614003 0.0950222 0.
0.616004 0.0950226 0.
0.618004 0.0950231 0.
0.620004 0.0950237 0.
0.622004 0.0950243 0.
0.624003 0.0950245 0.
0.626003 0.0950247 0.
0.628002 0.0950249 0.
0.630002 0.0950259 0.
0.632002 0.0950268 0.
0.634002 0.0950268 0.
0.636003 0.0950249 0.
0.638003 0.095023 0.
0.640004 0.0950222 0.
0.642004 0.0950222 0.
0.644004 0.0950222 0.
0.646003 0.0950226 0.
0.648002 0.0950231 0.
0.650002 0.0950236 0.
0.652003 0.0950225 0.
0.654003 0.0950215 0.
0.656004 0.0950209 0.
0.658004 0.0950219 0.
0.660005 0.0950229 0.
0.662005 0.0950234 0.
0.664005 0.0950232 0.
0.666005 0.095023 0.
0.668005 0.0950233 0.
0.670005 0.0950238 0.
0.672005 0.0950244 0.
0.674005 0.095025 0.
0.676005 0.0950256 0.
0.678005 0.0950262 0.
0.680005 0.0950268 0.
0.682005 0.0950274 0.
0.684005 0.0950279 0.
0.686004 0.0950282 0.
0.688004 0.0950285 0.
0.690004 0.0950297 0.
0.692004 0.0950315 0.
0.694004 0.0950334 0.
0.696004 0.0950336 0.
0.698004 0.0950335 0.
0.499994 0.097028 0.
0.501994 0.0970286 0.
0.503994 0.0970293 0.
0.505994 0.0970295 0.
0.507994 0.0970282 0.
0.509993 0.0970269 0.
0.511993 0.0970258 0.
0.513993 0.0970252 0.
0.515993 0.0970246 0.
0.517993 0.0970242 0.
0.519994 0.0970238 0.
0.521994 0.0970234 0.
0.523994 0.0970236 0.
0.525994 0.0970237 0.
0.527994 0.0970238 0.
0.529994 0.0970231 0.
0.531994 0.0970223 0.
0.533995 0.0970217 0.
0.535995 0.0970216 0.
0.537995 0.0970214 0.
0.539995 0.0970215 0.
0.541995 0.0970217 0.
0.543995 0.0970218 0.
0.545995 0.0970216 0.
0.547995 0.0970213 0.
0.549995 0.0970211 0.
0.551995 0.0970213 0.
0.553995 0.0970216 0.
0.555995 0.0970219 0.
0.557995 0.0970222 0.
0.559996 0.0970225 0.
0.561996 0.0970222 0.
0.563996 0.0970213 0.
0.565996 0.0970203 0.
0.567996 0.0970201 0.
0.569996 0.0970202 0.
0.571996 0.0970203 0.
0.573997 0.0970198 0.
0.575997 0.0970192 0.
0.577997 0.0970186 0.
0.579998 0.0970189 0.
0.581998 0.0970191 0.
0.583998 0.0970194 0.
0.585997 0.09702 0.
0.587996 0.0970206 0.
0.589996 0.0970212 0.
0.591996 0.0970218 0.
0.593996 0.0970223 0.
0.595997 0.0970231 0.
0.597999 0.0970238 0.
0.6 0.0970245 0.
0.602001 0.0970241 0.
0.604001 0.0970237 0.
0.606002 0.0970232 0.
0.608002 0.0970225 0.
0.610002 0.0970219 0.
0.612002 0.0970217 0.
0.614002 0.0970221 0.
0.616002 0.0970224 0.
0.618002 0.097023 0.
0.620003 0.0970235 0.
0.622003 0.0970241 0.
0.624002 0.0970246 0.
0.626002 0.0970252 0.
0.628002 0.0970257 0.
0.630002 0.0970261 0.
0.632003 0.0970264 0.
0.634003 0.0970262 0.
0.636004 0.0970249 0.
0.638004 0.0970236 0.
0.640004 0.0970229 0.
0.642004 0.0970228 0.
0.644004 0.0970226 0.
0.646004 0.0970227 0.
0.648003 0.097023 0.
0.650003 0.0970232 0.
0.652004 0.0970225 0.
0.654004 0.0970217 0.
0.656005 0.0970213 0.
0.658005 0.097022 0.
0.660005 0.0970227 0.
0.662005 0.0970231 0.
0.664005 0.0970233 0.
0.666005 0.0970234 0.
0.668005 0.0970237 0.
0.670005 0.0970241 0.
0.672005 0.0970245 0.
0.674005 0.0970248 0.
0.676005 0.0970251 0.
0.678005 0.0970256 0.
0.680004 0.0970268 0.
0.682004 0.0970281 0.
0.684004 0.0970289 0.
0.686004 0.0970289 0.
0.688003 0.0970289 0.
0.690003 0.0970299 0.
0.692003 0.0970317 0.
0.694002 0.0970334 0.
0.696003 0.0970336 0.
0.698003 0.0970334 0.
0.499994 0.0990281 0.
0.501995 0.099029 0.
0.503995 0.0990298 0.
0.505996 0.0990301 0.
0.507995 0.0990283 0.
0.509994 0.0990265 0.
0.511994 0.0990255 0.
0.513994 0.0990252 0.
0.515995 0.099025 0.
0.517995 0.0990245 0.
0.519995 0.0990239 0.
0.521995 0.0990234 0.
0.523995 0.0990235 0.
0.525995 0.0990238 0.
0.527995 0.0990239 0.
0.529995 0.0990231 0.
0.531995 0.0990222 0.
0.533995 0.0990216 0.
0.535995 0.0990215 0.
0.537995 0.0990214 0.
0.539995 0.0990216 0.
0.541995 0.0990219 0.
0.543996 0.0990222 0.
0.545996 0.0990219 0.
0.547996 0.0990214 0.
0.549996 0.0990209 0.
0.551996 0.0990212 0.
0.553996 0.0990215 0.
0.555996 0.0990219 0.
0.557996 0.0990227 0.
0.559996 0.0990235 0.
0.561996 0.0990231 0.
0.563996 0.0990213 0.
0.565997 0.0990196 0.
0.567997 0.0990195 0.
0.569997 0.0990204 0.
0.571997 0.0990212 0.
0.573997 0.0990203 0.
0.575997 0.0990191 0.
0.577997 0.0990181 0.
0.579998 0.0990187 0.
0.581999 0.0990193 0.
0.583999 0.0990199 0.
0.585997 0.0990205 0.
0.587996 0.099021 0.
0.589995 0.0990214 0.
0.591995 0.0990216 0.
0.593995 0.0990219 0.
0.595996 0.0990227 0.
0.597998 0.0990237 0.
0.6 0.0990247 0.
0.602001 0.0990242 0.
0.604002 0.0990238 0.
0.606002 0.0990232 0.
0.608002 0.0990225 0.
0.610002 0.0990217 0.
0.612001 0.0990215 0.
0.614001 0.0990219 0.
0.616001 0.0990223 0.
0.618001 0.0990228 0.
0.620001 0.0990233 0.
0.622002 0.0990238 0.
0.624001 0.0990247 0.
0.626001 0.0990256 0.
0.628001 0.0990264 0.
0.630002 0.0990262 0.
0.632004 0.0990261 0.
0.634004 0.0990257 0.
0.636004 0.0990249 0.
0.638005 0.0990242 0.
0.640005 0.0990237 0.
0.642004 0.0990233 0.
0.644004 0.0990229 0.
0.646004 0.0990229 0.
0.648004 0.0990229 0.
0.650005 0.0990229 0.
0.652005 0.0990224 0.
0.654005 0.099022 0.
0.656005 0.0990217 0.
0.658005 0.0990221 0.
0.660004 0.0990225 0.
0.662004 0.0990229 0.
0.664004 0.0990234 0.
0.666005 0.0990239 0.
0.668005 0.0990242 0.
0.670005 0.0990244 0.
0.672005 0.0990246 0.
0.674005 0.0990246 0.
0.676004 0.0990247 0.
0.678004 0.0990249 0.
0.680004 0.0990268 0.
0.682004 0.0990288 0.
0.684004 0.0990299 0.
0.686003 0.0990296 0.
0.688002 0.0990293 0.
0.690002 0.0990301 0.
0.692002 0.0990318 0.
0.694001 0.0990335 0.
0.696002 0.0990336 0.
0.698002 0.0990332 0.
CELLS 5000 10000
1 0
1 1
1 2
1 3
1 4
1 5
1 6
1 7
1 8
1 9
1 10
1 11
1 12
1 13
1 14
1 15
1 16
1 17
1 18
1 19
1 20
1 21
1 22
1 23
1 24
1 25
1 26
1 27
1 28
1 29
1 30
1 31
1 32
1 33
1 34
1 35
1 36
1 37
1 38
1 39
1 40
1 41
1 42
1 43
1 44
1 45
1 46
1 47
1 48
1 49
1 50
1 51
1 52
1 53
1 54
1 55
1 56
1 57
1 58
1 59
1 60
1 61
1 62
1 63
1 64
1 65
1 66
1 67
1 68
1 69
1 70
1 71
1 72
1 73
1 74
1 75
1 76
1 77
1 78
1 79
1 80
1 81
1 82
1 83
1 84
1 85
1 86
1 87
1 88
1 89
1 90
1 91
1 92
1 93
1 94
1 95
1 96
1 97
1 98
1 99
1 100
1 101
1 102
1 103
1 104
1 105
1 106
1 107
1 108
1 109
1 110
1 111
1 112
1 113
1 114
1 115
1 116
1 117
1 118
1 119
1 120
1 121
1 122
1 123
1 124
1 125
1 126
1 127
1 128
1 129
1 130
1 131
1 132
1 133
1 134
1 135
1 136
1 137
1 138
1 139
1 140
1 141
1 142
1 143
1 144
1 145
1 146
1 147
1 148
1 149
1 150
1 151
1 152
1 153
1 154
1 155
1 156
1 157
1 158
1 159
1 160
1 161
1 162
1 163
1 164
1 165
1 166
1 167
1 168
1 169
1 170
1 171
1 172
1 173
1 174
1 175
1 176
1 177
1 178
1 179
1 180
1 181
1 182
1 183
1 184
1 185
1 186
1 187
1 188
1 189
1 190
1 191
1 192
1 193
1 194
1 195
1 196
1 197
1 198
1 199
1 200
1 201
1 202
1 203
1 204
1 205
1 206
1 207
1 208
1 209
1 210
1 211
1 212
1 213
1 214
1 215
1 216
1 217
1 218
1 219
1 220
1 221
1 222
1 223
1 224
1 225
1 226
1 227
1 228
1 229
1 230
1 231
1 232
1 233
1 234
1 235
1 236
1 237
1 238
1 239
1 240
1 241
1 242
1 243
1 244
1 245
1 246
1 247
1 248
1 249
1 250
1 251
1 252
1 253
1 254
1 255
1 256
1 257
1 258
1 259
1 260
1 261
1 262
1 263
1 264
1 265
1 266
1 267
1 268
1 269
1 270
1 271
1 272
1 273
1 274
1 275
1 276
1 277
1 278
1 279
1 280
1 281
1 282
1 283
1 284
1 285
1 286
1 287
1 288
1 289
1 290
1 291
1 292
1 293
1 294
1 295
1 296
1 297
1 298
1 299
1 300
1 301
1 302
1 303
1 304
1 305
1 306
1 307
1 308
1 309
1 310
1 311
1 312
1 313
1 314
1 315
1 316
1 317
1 318
1 319
1 320
1 321
1 322
1 323
1 324
1 325
1 326
1 327
1 328
1 329
1 330
1 331
1 332
1 333
1 334
1 335
1 336
1 337
1 338
1 339
1 340
1 341
1 342
1 343
1 344
1 345
1 346
1 347
1 348
1 349
1 350
1 351
1 352
1 353
1 354
1 355
1 356
1 357
1 358
1 359
1 360
1 361
1 362
1 363
1 364
1 365
1 366
1 367
1 368
1 369
1 370
1 371
1 372
1 373
1 374
1 375
1 376
1 377
1 378
1 379
1 380
1 381
1 382
1 383
1 384
1 385
1 386
1 387
1 388
1 389
1 390
1 391
1 392
1 393
1 394
1 395
1 396
1 397
1 398
1 399
1 400
1 401
1 402
1 403
1 404
1 405
1 406
1 407
1 408
1 409
1 410
1 411
1 412
1 413
1 414
1 415
1 416
1 417
1 418
1 419
1 420
1 421
1 422
1 423
1 424
1 425
1 426
1 427
1 428
1 429
1 430
1 431
1 432
1 433
1 434
1 435
1 436
1 437
1 438
1 439
1 440
1 441
1 442
1 443
1 444
1 445
1 446
1 447
1 448
1 449
1 450
1 451
1 452
1 453
1 454
1 455
1 456
1 457
1 458
1 459
1 460
1 461
1 462
1 463
1 464
1 465
1 466
1 467
1 468
1 469
1 470
1 471
1 472
1 473
1 474
1 475
1 476
1 477
1 478
1 479
1 480
1 481
1 482
1 483
1 484
1 485
1 486
1 487
1 488
1 489
1 490
1 491
1 492
1 493
1 494
1 495
1 496
1 497
1 498
1 499
1 500
1 501
1 502
1 503
1 504
1 505
1 506
1 507
1 508
1 509
1 510
1 511
1 512
1 513
1 514
1 515
1 516
1 517
1 518
1 519
1 520
1 521
1 522
1 523
1 524
1 525
1 526
1 527
1 528
1 529
1 530
1 531
1 532
1 533
1 534
1 535
1 536
1 537
1 538
1 539
1 540
1 541
1 542
1 543
1 544
1 545
1 546
1 547
1 548
1 549
1 550
1 551
1 552
1 553
1 554
1 555
1 556
1 557
1 558
1 559
1 560
1 561
1 562
1 563
1 564
1 565
1 566
1 567
1 568
1 569
1 570
1 571
1 572
1 573
1 574
1 575
1 576
1 577
1 578
1 579
1 580
1 581
1 582
1 583
1 584
1 585
1 586
1 587
1 588
1 589
1 590
1 591
1 592
1 593
1 594
1 595
1 596
1 597
1 598
1 599
1 600
1 601
1 602
1 603
1 604
1 605
1 606
1 607
1 608
1 609
1 610
1 611
1 612
1 613
1 614
1 615
1 616
1 617
1 618
1 619
1 620
1 621
1 622
1 623
1 624
1 625
1 626
1 627
1 628
1 629
1 630
1 631
1 632
1 633
1 634
1 635
1 636
1 637
1 638
1 639
1 640
1 641
1 642
1 643
1 644
1 645
1 646
1 647
1 648
1 649
1 650
1 651
1 652
1 653
1 654
1 655
1 656
1 657
1 658
1 659
1 660
1 661
1 662
1 663
1 664
1 665
1 666
1 667
1 668
1 669
1 670
1 671
1 672
1 673
1 674
1 675
1 676
1 677
1 678
1 679
1 680
1 681
1 682
1 683
1 684
1 685
1 686
1 687
1 688
1 689
1 690
1 691
1 692
1 693
1 694
1 695
1 696
1 697
1 698
1 699
1 700
1 701
1 702
1 703
1 704
1 705
1 706
1 707
1 708
1 709
1 710
1 711
1 712
1 713
1 714
1 715
1 716
1 717
1 718
1 719
1 720
1 721
1 722
1 723
1 724
1 725
1 726
1 727
1 728
1 729
1 730
1 731
1 732
1 733
1 734
1 735
1 736
1 737
1 738
1 739
1 740
1 741
1 742
1 743
1 744
1 745
1 746
1 747
1 748
1 749
1 750
1 751
1 752
1 753
1 754
1 755
1 756
1 757
1 758
1 759
1 760
1 761
1 762
1 763
1 764
1 765
1 766
1 767
1 768
1 769
1 770
1 771
1 772
1 773
1 774
1 775
1 776
1 777
1 778
1 779
1 780
1 781
1 782
1 783
1 784
1 785
1 786
1 787
1 788
1 789
1 790
1 791
1 792
1 793
1 794
1 795
1 796
1 797
1 798
1 799
1 800
1 801
1 802
1 803
1 804
1 805
1 806
1 807
1 808
1 809
1 810
1 811
1 812
1 813
1 814
1 815
1 816
1 817
1 818
1 819
1 820
1 821
1 822
1 823
1 824
1 825
1 826
1 827
1 828
1 829
1 830
1 831
1 832
1 833
1 834
1 835
1 836
1 837
1 838
1 839
1 840
1 841
1 842
1 843
1 844
1 845
1 846
1 847
1 848
1 849
1 850
1 851
1 852
1 853
1 854
1 855
1 856
1 857
1 858
1 859
1 860
1 861
1 862
1 863
1 864
1 865
1 866
1 867
1 868
1 869
1 870
1 871
1 872
1 873
1 874
1 875
1 876
1 877
1 878
1 879
1 880
1 881
1 882
1 883
1 884
1 885
1 886
1 887
1 888
1 889
1 890
1 891
1 892
1 893
1 894
1 895
1 896
1 897
1 898
1 899
1 900
1 901
1 902
1 903
1 904
1 905
1 906
1 907
1 908
1 909
1 910
1 911
1 912
1 913
1 914
1 915
1 916
1 917
1 918
1 919
1 920
1 921
1 922
1 923
1 924
1 925
1 926
1 927
1 928
1 929
1 930
1 931
1 932
1 933
1 934
1 935
1 936
1 937
1 938
1 939
1 940
1 941
1 942
1 943
1 944
1 945
1 946
1 947
1 948
1 949
1 950
1 951
1 952
1 953
1 954
1 955
1 956
1 957
1 958
1 959
1 960
1 961
1 962
1 963
1 964
1 965
1 966
1 967
1 968
1 969
1 970
1 971
1 972
1 973
1 974
1 975
1 976
1 977
1 978
1 979
1 980
1 981
1 982
1 983
1 984
1 985
1 986
1 987
1 988
1 989
1 990
1 991
1 992
1 993
1 994
1 995
1 996
1 997
1 998
1 999
1 1000
1 1001
1 1002
1 1003
1 1004
1 1005
1 1006
1 1007
1 1008
1 1009
1 1010
1 1011
1 1012
1 1013
1 1014
1 1015
1 1016
1 1017
1 1018
1 1019
1 1020
1 1021
1 1022
1 1023
1 1024
1 1025
1 1026
1 1027
1 1028
1 1029
1 1030
1 1031
1 1032
1 1033
1 1034
1 1035
1 1036
1 1037
1 1038
1 1039
1 1040
1 1041
1 1042
1 1043
1 1044
1 1045
1 1046
1 1047
1 1048
1 1049
1 1050
1 1051
1 1052
1 1053
1 1054
1 1055
1 1056
1 1057
1 1058
1 1059
1 1060
1 1061
1 1062
1 1063
1 1064
1 1065
1 1066
1 1067
1 1068
1 1069
1 1070
1 1071
1 1072
1 1073
1 1074
1 1075
1 1076
1 1077
1 1078
1 1079
1 1080
1 1081
1 1082
1 1083
1 1084
1 1085
1 1086
1 1087
1 1088
1 1089
1 1090
1 1091
1 1092
1 1093
1 1094
1 1095
1 1096
1 1097
1 1098
1 1099
1 1100
1 1101
1 1102
1 1103
1 1104
1 1105
1 1106
1 1107
1 1108
1 1109
1 1110
1 1111
1 1112
1 1113
1 1114
1 1115
1 1116
1 1117
1 1118
1 1119
1 1120
1 1121
1 1122
1 1123
1 1124
1 1125
1 1126
1 1127
1 1128
1 1129
1 1130
1 1131
1 1132
1 1133
1 1134
1 1135
1 1136
1 1137
1 1138
1 1139
1 1140
1 1141
1 1142
1 1143
1 1144
1 1145
1 1146
1 1147
1 1148
1 1149
1 1150
1 1151
1 1152
1 1153
1 1154
1 1155
1 1156
1 1157
1 1158
1 1159
1 1160
1 1161
1 1162
1 1163
1 1164
1 1165
1 1166
1 1167
1 1168
1 1169
1 1170
1 1171
1 1172
1 1173
1 1174
1 1175
1 1176
1 1177
1 1178
1 1179
1 1180
1 1181
1 1182
1 1183
1 1184
1 1185
1 1186
1 1187
1 1188
1 1189
1 1190
1 1191
1 1192
1 1193
1 1194
1 1195
1 1196
1 1197
1 1198
1 1199
1 1200
1 1201
1 1202
1 1203
1 1204
1 1205
1 1206
1 1207
1 1208
1 1209
1 1210
1 1211
1 1212
1 1213
1 1214
1 1215
1 1216
1 1217
1 1218
1 1219
1 1220
1 1221
1 1222
1 1223
1 1224
1 1225
1 1226
1 1227
1 1228
1 1229
1 1230
1 1231
1 1232
1 1233
1 1234
1 1235
1 1236
1 1237
1 1238
1 1239
1 1240
1 1241
1 1242
1 1243
1 1244
1 1245
1 1246
1 1247
1 1248
1 1249
1 1250
1 1251
1 1252
1 1253
1 1254
1 1255
1 1256
1 1257
1 1258
1 1259
1 1260
1 1261
1 1262
1 1263
1 1264
1 1265
1 1266
1 1267
1 1268
1 1269
1 1270
1 1271
1 1272
1 1273
1 1274
1 1275
1 1276
1 1277
1 1278
1 1279
1 1280
1 1281
1 1282
1 1283
1 1284
1 1285
1 1286
1 1287
1 1288
1 1289
1 1290
1 1291
1 1292
1 1293
1 1294
1 1295
1 1296
1 1297
1 1298
1 1299
1 1300
1 1301
1 1302
1 1303
1 1304
1 1305
1 1306
1 1307
1 1308
1 1309
1 1310
1 1311
1 1312
1 1313
1 1314
1 1315
1 1316
1 1317
1 1318
1 1319
1 1320
1 1321
1 1322
1 1323
1 1324
1 1325
1 1326
1 1327
1 1328
1 1329
1 1330
1 1331
1 1332
1 1333
1 1334
1 1335
1 1336
1 1337
1 1338
1 1339
1 1340
1 1341
1 1342
1 1343
1 1344
1 1345
1 1346
1 1347
1 1348
1 1349
1 1350
1 1351
1 1352
1 1353
1 1354
1 1355
1 1356
1 1357
1 1358
1 1359
1 1360
1 1361
1 1362
1 1363
1 1364
1 1365
1 1366
1 1367
1 1368
1 1369
1 1370
1 1371
1 1372
1 1373
1 1374
1 1375
1 1376
1 1377
1 1378
1 1379
1 1380
1 1381
1 1382
1 1383
1 1384
1 1385
1 1386
1 1387
1 1388
1 1389
1 1390
1 1391
1 1392
1 1393
1 1394
1 1395
1 1396
1 1397
1 1398
1 1399
1 1400
1 1401
1 1402
1 1403
1 1404
1 1405
1 1406
1 1407
1 1408
1 1409
1 1410
1 1411
1 1412
1 1413
1 1414
1 1415
1 1416
1 1417
1 1418
1 1419
1 1420
1 1421
1 1422
1 1423
1 1424
1 1425
1 1426
1 1427
1 1428
1 1429
1 1430
1 1431
1 1432
1 1433
1 1434
1 1435
1 1436
1 1437
1 1438
1 1439
1 1440
1 1441
1 1442
1 1443
1 1444
1 1445
1 1446
1 1447
1 1448
1 1449
1 1450
1 1451
1 1452
1 1453
1 1454
1 1455
1 1456
1 1457
1 1458
1 1459
1 1460
1 1461
1 1462
1 1463
1 1464
1 1465
1 1466
1 1467
1 1468
1 1469
1 1470
1 1471
1 1472
1 1473
1 1474
1 1475
1 1476
1 1477
1 1478
1 1479
1 1480
1 1481
1 1482
1 1483
1 1484
1 1485
1 1486
1 1487
1 1488
1 1489
1 1490
1 1491
1 1492
1 1493
1 1494
1 1495
1 1496
1 1497
1 1498
1 1499
1 1500
1 1501
1 1502
1 1503
1 1504
1 1505
1 1506
1 1507
1 1508
1 1509
1 1510
1 1511
1 1512
1 1513
1 1514
1 1515
1 1516
1 1517
1 1518
1 1519
1 1520
1 1521
1 1522
1 1523
1 1524
1 1525
1 1526
1 1527
1 1528
1 1529
1 1530
1 1531
1 1532
1 1533
1 1534
1 1535
1 1536
1 1537
1 1538
1 1539
1 1540
1 1541
1 1542
1 1543
1 1544
1 1545
1 1546
1 1547
1 1548
1 1549
1 1550
1 1551
1 1552
1 1553
1 1554
1 1555
1 1556
1 1557
1 1558
1 1559
1 1560
1 1561
1 1562
1 1563
1 1564
1 1565
1 1566
1 1567
1 1568
1 1569
1 1570
1 1571
1 1572
1 1573
1 1574
1 1575
1 1576
1 1577
1 1578
1 1579
1 1580
1 1581
1 1582
1 1583
1 1584
1 1585
1 1586
1 1587
1 1588
1 1589
1 1590
1 1591
1 1592
1 1593
1 1594
1 1595
1 1596
1 1597
1 1598
1 1599
1 1600
1 1601
1 1602
1 1603
1 1604
1 1605
1 1606
1 1607
1 1608
1 1609
1 1610
1 1611
1 1612
1 1613
1 1614
1 1615
1 1616
1 1617
1 1618
1 1619
1 1620
1 1621
1 1622
1 1623
1 1624
1 1625
1 1626
1 1627
1 1628
1 1629
1 1630
1 1631
1 1632
1 1633
1 1634
1 1635
1 1636
1 1637
1 1638
1 1639
1 1640
1 1641
1 1642
1 1643
1 1644
1 1645
1 1646
1 1647
1 1648
1 1649
1 1650
1 1651
1 1652
1 1653
1 1654
1 1655
1 1656
1 1657
1 1658
1 1659
1 1660
1 1661
1 1662
1 1663
1 1664
1 1665
1 1666
1 1667
1 1668
1 1669
1 1670
1 1671
1 1672
1 1673
1 1674
1 1675
1 1676
1 1677
1 1678
1 1679
1 1680
1 1681
1 1682
1 1683
1 1684
1 1685
1 1686
1 1687
1 1688
1 1689
1 1690
1 1691
1 1692
1 1693
1 1694
1 1695
1 1696
1 1697
1 1698
1 1699
1 1700
1 1701
1 1702
1 1703
1 1704
1 1705
1 1706
1 1707
1 1708
1 1709
1 1710
1 1711
1 1712
1 1713
1 1714
1 1715
1 1716
1 1717
1 1718
1 1719
1 1720
1 1721
1 1722
1 1723
1 1724
1 1725
1 1726
1 1727
1 1728
1 1729
1 1730
1 1731
1 1732
1 1733
1 1734
1 1735
1 1736
1 1737
1 1738
1 1739
1 1740
1 1741
1 1742
1 1743
1 1744
1 1745
1 1746
1 1747
1 1748
1 1749
1 1750
1 1751
1 1752
1 1753
1 1754
1 1755
1 1756
1 1757
1 1758
1 1759
1 1760
1 1761
1 1762
1 1763
1 1764
1 1765
1 1766
1 1767
1 1768
1 1769
1 1770
1 1771
1 1772
1 1773
1 1774
1 1775
1 1776
1 1777
1 1778
1 1779
1 1780
1 1781
1 1782
1 1783
1 1784
1 1785
1 1786
1 1787
1 1788
1 1789
1 1790
1 1791
1 1792
1 1793
1 1794
1 1795
1 1796
1 1797
1 1798
1 1799
1 1800
1 1801
1 1802
1 1803
1 1804
1 1805
1 1806
1 1807
1 1808
1 1809
1 1810
1 1811
1 1812
1 1813
1 1814
1 1815
1 1816
1 1817
1 1818
1 1819
1 1820
1 1821
1 1822
1 1823
1 1824
1 1825
1 1826
1 1827
1 1828
1 1829
1 1830
1 1831
1 1832
1 1833
1 1834
1 1835
1 1836
1 1837
1 1838
1 1839
1 1840
1 1841
1 1842
1 1843
1 1844
1 1845
1 1846
1 1847
1 1848
1 1849
1 1850
1 1851
1 1852
1 1853
1 1854
1 1855
1 1856
1 1857
1 1858
1 1859
1 1860
1 1861
1 1862
1 1863
1 1864
1 1865
1 1866
1 1867
1 1868
1 1869
1 1870
1 1871
1 1872
1 1873
1 1874
1 1875
1 1876
1 1877
1 1878
1 1879
1 1880
1 1881
1 1882
1 1883
1 1884
1 1885
1 1886
1 1887
1 1888
1 1889
1 1890
1 1891
1 1892
1 1893
1 1894
1 1895
1 1896
1 1897
1 1898
1 1899
1 1900
1 1901
1 1902
1 1903
1 1904
1 1905
1 1906
1 1907
1 1908
1 1909
1 1910
1 1911
1 1912
1 1913
1 1914
1 1915
1 1916
1 1917
1 1918
1 1919
1 1920
1 1921
1 1922
1 1923
1 1924
1 1925
1 1926
1 1927
1 1928
1 1929
1 1930
1 1931
1 1932
1 1933
1 1934
1 1935
1 1936
1 1937
1 1938
1 1939
1 1940
1 1941
1 1942
1 1943
1 1944
1 1945
1 1946
1 1947
1 1948
1 1949
1 1950
1 1951
1 1952
1 1953
1 1954
1 1955
1 1956
1 1957
1 1958
1 1959
1 1960
1 1961
1 1962
1 1963
1 1964
1 1965
1 1966
1 1967
1 1968
1 1969
1 1970
1 1971
1 1972
1 1973
1 1974
1 1975
1 1976
1 1977
1 1978
1 1979
1 1980
1 1981
1 1982
1 1983
1 1984
1 1985
1 1986
1 1987
1 1988
1 1989
1 1990
1 1991
1 1992
1 1993
1 1994
1 1995
1 1996
1 1997
1 1998
1 1999
1 2000
1 2001
1 2002
1 2003
1 2004
1 2005
1 2006
1 2007
1 2008
1 2009
1 2010
1 2011
1 2012
1 2013
1 2014
1 2015
1 2016
1 2017
1 2018
1 2019
1 2020
1 2021
1 2022
1 2023
1 2024
1 2025
1 2026
1 2027
1 2028
1 2029
1 2030
1 2031
1 2032
1 2033
1 2034
1 2035
1 2036
1 2037
1 2038
1 2039
1 2040
1 2041
1 2042
1 2043
1 2044
1 2045
1 2046
1 2047
1 2048
1 2049
1 2050
1 2051
1 2052
1 2053
1 2054
1 2055
1 2056
1 2057
1 2058
1 2059
1 2060
1 2061
1 2062
1 2063
1 2064
1 2065
1 2066
1 2067
1 2068
1 2069
1 2070
1 2071
1 2072
1 2073
1 2074
1 2075
1 2076
1 2077
1 2078
1 2079
1 2080
1 2081
1 2082
1 2083
1 2084
1 2085
1 2086
1 2087
1 2088
1 2089
1 2090
1 2091
1 2092
1 2093
1 2094
1 2095
1 2096
1 2097
1 2098
1 2099
1 2100
1 2101
1 2102
1 2103
1 2104
1 2105
1 2106
1 2107
1 2108
1 2109
1 2110
1 2111
1 2112
1 2113
1 2114
1 2115
1 2116
1 2117
1 2118
1 2119
1 2120
1 2121
1 2122
1 2123
1 2124
1 2125
1 2126
1 2127
1 2128
1 2129
1 2130
1 2131
1 2132
1 2133
1 2134
1 2135
1 2136
1 2137
1 2138
1 2139
1 2140
1 2141
1 2142
1 2143
1 2144
1 2145
1 2146
1 2147
1 2148
1 2149
1 2150
1 2151
1 2152
1 2153
1 2154
1 2155
1 2156
1 2157
1 2158
1 2159
1 2160
1 2161
1 2162
1 2163
1 2164
1 2165
1 2166
1 2167
1 2168
1 2169
1 2170
1 2171
1 2172
1 2173
1 2174
1 2175
1 2176
1 2177
1 2178
1 2179
1 2180
1 2181
1 2182
1 2183
1 2184
1 2185
1 2186
1 2187
1 2188
1 2189
1 2190
1 2191
1 2192
1 2193
1 2194
1 2195
1 2196
1 2197
1 2198
1 2199
1 2200
1 2201
1 2202
1 2203
1 2204
1 2205
1 2206
1 2207
1 2208
1 2209
1 2210
1 2211
1 2212
1 2213
1 2214
1 2215
1 2216
1 2217
1 2218
1 2219
1 2220
1 2221
1 2222
1 2223
1 2224
1 2225
1 2226
1 2227
1 2228
1 2229
1 2230
1 2231
1 2232
1 2233
1 2234
1 2235
1 2236
1 2237
1 2238
1 2239
1 2240
1 2241
1 2242
1 2243
1 2244
1 2245
1 2246
1 2247
1 2248
1 2249
1 2250
1 2251
1 2252
1 2253
1 2254
1 2255
1 2256
1 2257
1 2258
1 2259
1 2260
1 2261
1 2262
1 2263
1 2264
1 2265
1 2266
1 2267
1 2268
1 2269
1 2270
1 2271
1 2272
1 2273
1 2274
1 2275
1 2276
1 2277
1 2278
1 2279
1 2280
1 2281
1 2282
1 2283
1 2284
1 2285
1 2286
1 2287
1 2288
1 2289
1 2290
1 2291
1 2292
1 2293
1 2294
1 2295
1 2296
1 2297
1 2298
1 2299
1 2300
1 2301
1 2302
1 2303
1 2304
1 2305
1 2306
1 2307
1 2308
1 2309
1 2310
1 2311
1 2312
1 2313
1 2314
1 2315
1 2316
1 2317
1 2318
1 2319
1 2320
1 2321
1 2322
1 2323
1 2324
1 2325
1 2326
1 2327
1 2328
1 2329
1 2330
1 2331
1 2332
1 2333
1 2334
1 2335
1 2336
1 2337
1 2338
1 2339
1 2340
1 2341
1 2342
1 2343
1 2344
1 2345
1 2346
1 2347
1 2348
1 2349
1 2350
1 2351
1 2352
1 2353
1 2354
1 2355
1 2356
1 2357
1 2358
1 2359
1 2360
1 2361
1 2362
1 2363
1 2364
1 2365
1 2366
1 2367
1 2368
1 2369
1 2370
1 2371
1 2372
1 2373
1 2374
1 2375
1 2376
1 2377
1 2378
1 2379
1 2380
1 2381
1 2382
1 2383
1 2384
1 2385
1 2386
1 2387
1 2388
1 2389
1 2390
1 2391
1 2392
1 2393
1 2394
1 2395
1 2396
1 2397
1 2398
1 2399
1 2400
1 2401
1 2402
1 2403
1 2404
1 2405
1 2406
1 2407
1 2408
1 2409
1 2410
1 2411
1 2412
1 2413
1 2414
1 2415
1 2416
1 2417
1 2418
1 2419
1 2420
1 2421
1 2422
1 2423
1 2424
1 2425
1 2426
1 2427
1 2428
1 2429
1 2430
1 2431
1 2432
1 2433
1 2434
1 2435
1 2436
1 2437
1 2438
1 2439
1 2440
1 2441
1 2442
1 2443
1 2444
1 2445
1 2446
1 2447
1 2448
1 2449
1 2450
1 2451
1 2452
1 2453
1 2454
1 2455
1 2456
1 2457
1 2458
1 2459
1 2460
1 2461
1 2462
1 2463
1 2464
1 2465
1 2466
1 2467
1 2468
1 2469
1 2470
1 2471
1 2472
1 2473
1 2474
1 2475
1 2476
1 2477
1 2478
1 2479
1 2480
1 2481
1 2482
1 2483
1 2484
1 2485
1 2486
1 2487
1 2488
1 2489
1 2490
1 2491
1 2492
1 2493
1 2494
1 2495
1 2496
1 2497
1 2498
1 2499
1 2500
1 2501
1 2502
1 2503
1 2504
1 2505
1 2506
1 2507
1 2508
1 2509
1 2510
1 2511
1 2512
1 2513
1 2514
1 2515
1 2516
1 2517
1 2518
1 2519
1 2520
1 2521
1 2522
1 2523
1 2524
1 2525
1 2526
1 2527
1 2528
1 2529
1 2530
1 2531
1 2532
1 2533
1 2534
1 2535
1 2536
1 2537
1 2538
1 2539
1 2540
1 2541
1 2542
1 2543
1 2544
1 2545
1 2546
1 2547
1 2548
1 2549
1 2550
1 2551
1 2552
1 2553
1 2554
1 2555
1 2556
1 2557
1 2558
1 2559
1 2560
1 2561
1 2562
1 2563
1 2564
1 2565
1 2566
1 2567
1 2568
1 2569
1 2570
1 2571
1 2572
1 2573
1 2574
1 2575
1 2576
1 2577
1 2578
1 2579
1 2580
1 2581
1 2582
1 2583
1 2584
1 2585
1 2586
1 2587
1 2588
1 2589
1 2590
1 2591
1 2592
1 2593
1 2594
1 2595
1 2596
1 2597
1 2598
1 2599
1 2600
1 2601
1 2602
1 2603
1 2604
1 2605
1 2606
1 2607
1 2608
1 2609
1 2610
1 2611
1 2612
1 2613
1 2614
1 2615
1 2616
1 2617
1 2618
1 2619
1 2620
1 2621
1 2622
1 2623
1 2624
1 2625
1 2626
1 2627
1 2628
1 2629
1 2630
1 2631
1 2632
1 2633
1 2634
1 2635
1 2636
1 2637
1 2638
1 2639
1 2640
1 2641
1 2642
1 2643
1 2644
1 2645
1 2646
1 2647
1 2648
1 2649
1 2650
1 2651
1 2652
1 2653
1 2654
1 2655
1 2656
1 2657
1 2658
1 2659
1 2660
1 2661
1 2662
1 2663
1 2664
1 2665
1 2666
1 2667
1 2668
1 2669
1 2670
1 2671
1 2672
1 2673
1 2674
1 2675
1 2676
1 2677
1 2678
1 2679
1 2680
1 2681
1 2682
1 2683
1 2684
1 2685
1 2686
1 2687
1 2688
1 2689
1 2690
1 2691
1 2692
1 2693
1 2694
1 2695
1 2696
1 2697
1 2698
1 2699
1 2700
1 2701
1 2702
1 2703
1 2704
1 2705
1 2706
1 2707
1 2708
1 2709
1 2710
1 2711
1 2712
1 2713
1 2714
1 2715
1 2716
1 2717
1 2718
1 2719
1 2720
1 2721
1 2722
1 2723
1 2724
1 2725
1 2726
1 2727
1 2728
1 2729
1 2730
1 2731
1 2732
1 2733
1 2734
1 2735
1 2736
1 2737
1 2738
1 2739
1 2740
1 2741
1 2742
1 2743
1 2744
1 2745
1 2746
1 2747
1 2748
1 2749
1 2750
1 2751
1 2752
1 2753
1 2754
1 2755
1 2756
1 2757
1 2758
1 2759
1 2760
1 2761
1 2762
1 2763
1 2764
1 2765
1 2766
1 2767
1 2768
1 2769
1 2770
1 2771
1 2772
1 2773
1 2774
1 2775
1 2776
1 2777
1 2778
1 2779
1 2780
1 2781
1 2782
1 2783
1 2784
1 2785
1 2786
1 2787
1 2788
1 2789
1 2790
1 2791
1 2792
1 2793
1 2794
1 2795
1 2796
1 2797
1 2798
1 2799
1 2800
1 2801
1 2802
1 2803
1 2804
1 2805
1 2806
1 2807
1 2808
1 2809
1 2810
1 2811
1 2812
1 2813
1 2814
1 2815
1 2816
1 2817
1 2818
1 2819
1 2820
1 2821
1 2822
1 2823
1 2824
1 2825
1 2826
1 2827
1 2828
1 2829
1 2830
1 2831
1 2832
1 2833
1 2834
1 2835
1 2836
1 2837
1 2838
1 2839
1 2840
1 2841
1 2842
1 2843
1 2844
1 2845
1 2846
1 2847
1 2848
1 2849
1 2850
1 2851
1 2852
1 2853
1 2854
1 2855
1 2856
1 2857
1 2858
1 2859
1 2860
1 2861
1 2862
1 2863
1 2864
1 2865
1 2866
1 2867
1 2868
1 2869
1 2870
1 2871
1 2872
1 2873
1 2874
1 2875
1 2876
1 2877
1 2878
1 2879
1 2880
1 2881
1 2882
1 2883
1 2884
1 2885
1 2886
1 2887
1 2888
1 2889
1 2890
1 2891
1 2892
1 2893
1 2894
1 2895
1 2896
1 2897
1 2898
1 2899
1 2900
1 2901
1 2902
1 2903
1 2904
1 2905
1 2906
1 2907
1 2908
1 2909
1 2910
1 2911
1 2912
1 2913
1 2914
1 2915
1 2916
1 2917
1 2918
1 2919
1 2920
1 2921
1 2922
1 2923
1 2924
1 2925
1 2926
1 2927
1 2928
1 2929
1 2930
1 2931
1 2932
1 2933
1 2934
1 2935
1 2936
1 2937
1 2938
1 2939
1 2940
1 2941
1 2942
1 2943
1 2944
1 2945
1 2946
1 2947
1 2948
1 2949
1 2950
1 2951
1 2952
1 2953
1 2954
1 2955
1 2956
1 2957
1 2958
1 2959
1 2960
1 2961
1 2962
1 2963
1 2964
1 2965
1 2966
1 2967
1 2968
1 2969
1 2970
1 2971
1 2972
1 2973
1 2974
1 2975
1 2976
1 2977
1 2978
1 2979
1 2980
1 2981
1 2982
1 2983
1 2984
1 2985
1 2986
1 2987
1 2988
1 2989
1 2990
1 2991
1 2992
1 2993
1 2994
1 2995
1 2996
1 2997
1 2998
1 2999
1 3000
1 3001
1 3002
1 3003
1 3004
1 3005
1 3006
1 3007
1 3008
1 3009
1 3010
1 3011
1 3012
1 3013
1 3014
1 3015
1 3016
1 3017
1 3018
1 3019
1 3020
1 3021
1 3022
1 3023
1 3024
1 3025
1 3026
1 3027
1 3028
1 3029
1 3030
1 3031
1 3032
1 3033
1 3034
1 3035
1 3036
1 3037
1 3038
1 3039
1 3040
1 3041
1 3042
1 3043
1 3044
1 3045
1 3046
1 3047
1 3048
1 3049
1 3050
1 3051
1 3052
1 3053
1 3054
1 3055
1 3056
1 3057
1 3058
1 3059
1 3060
1 3061
1 3062
1 3063
1 3064
1 3065
1 3066
1 3067
1 3068
1 3069
1 3070
1 3071
1 3072
1 3073
1 3074
1 3075
1 3076
1 3077
1 3078
1 3079
1 3080
1 3081
1 3082
1 3083
1 3084
1 3085
1 3086
1 3087
1 3088
1 3089
1 3090
1 3091
1 3092
1 3093
1 3094
1 3095
1 3096
1 3097
1 3098
1 3099
1 3100
1 3101
1 3102
1 3103
1 3104
1 3105
1 3106
1 3107
1 3108
1 3109
1 3110
1 3111
1 3112
1 3113
1 3114
1 3115
1 3116
1 3117
1 3118
1 3119
1 3120
1 3121
1 3122
1 3123
1 3124
1 3125
1 3126
1 3127
1 3128
1 3129
1 3130
1 3131
1 3132
1 3133
1 3134
1 3135
1 3136
1 3137
1 3138
1 3139
1 3140
1 3141
1 3142
1 3143
1 3144
1 3145
1 3146
1 3147
1 3148
1 3149
1 3150
1 3151
1 3152
1 3153
1 3154
1 3155
1 3156
1 3157
1 3158
1 3159
1 3160
1 3161
1 3162
1 3163
1 3164
1 3165
1 3166
1 3167
1 3168
1 3169
1 3170
1 3171
1 3172
1 3173
1 3174
1 3175
1 3176
1 3177
1 3178
1 3179
1 3180
1 3181
1 3182
1 3183
1 3184
1 3185
1 3186
1 3187
1 3188
1 3189
1 3190
1 3191
1 3192
1 3193
1 3194
1 3195
1 3196
1 3197
1 3198
1 3199
1 3200
1 3201
1 3202
1 3203
1 3204
1 3205
1 3206
1 3207
1 3208
1 3209
1 3210
1 3211
1 3212
1 3213
1 3214
1 3215
1 3216
1 3217
1 3218
1 3219
1 3220
1 3221
1 3222
1 3223
1 3224
1 3225
1 3226
1 3227
1 3228
1 3229
1 3230
1 3231
1 3232
1 3233
1 3234
1 3235
1 3236
1 3237
1 3238
1 3239
1 3240
1 3241
1 3242
1 3243
1 3244
1 3245
1 3246
1 3247
1 3248
1 3249
1 3250
1 3251
1 3252
1 3253
1 3254
1 3255
1 3256
1 3257
1 3258
1 3259
1 3260
1 3261
1 3262
1 3263
1 3264
1 3265
1 3266
1 3267
1 3268
1 3269
1 3270
1 3271
1 3272
1 3273
1 3274
1 3275
1 3276
1 3277
1 3278
1 3279
1 3280
1 3281
1 3282
1 3283
1 3284
1 3285
1 3286
1 3287
1 3288
1 3289
1 3290
1 3291
1 3292
1 3293
1 3294
1 3295
1 3296
1 3297
1 3298
1 3299
1 3300
1 3301
1 3302
1 3303
1 3304
1 3305
1 3306
1 3307
1 3308
1 3309
1 3310
1 3311
1 3312
1 3313
1 3314
1 3315
1 3316
1 3317
1 3318
1 3319
1 3320
1 3321
1 3322
1 3323
1 3324
1 3325
1 3326
1 3327
1 3328
1 3329
1 3330
1 3331
1 3332
1 3333
1 3334
1 3335
1 3336
1 3337
1 3338
1 3339
1 3340
1 3341
1 3342
1 3343
1 3344
1 3345
1 3346
1 3347
1 3348
1 3349
1 3350
1 3351
1 3352
1 3353
1 3354
1 3355
1 3356
1 3357
1 3358
1 3359
1 3360
1 3361
1 3362
1 3363
1 3364
1 3365
1 3366
1 3367
1 3368
1 3369
1 3370
1 3371
1 3372
1 3373
1 3374
1 3375
1 3376
1 3377
1 3378
1 3379
1 3380
1 3381
1 3382
1 3383
1 3384
1 3385
1 3386
1 3387
1 3388
1 3389
1 3390
1 3391
1 3392
1 3393
1 3394
1 3395
1 3396
1 3397
1 3398
1 3399
1 3400
1 3401
1 3402
1 3403
1 3404
1 3405
1 3406
1 3407
1 3408
1 3409
1 3410
1 3411
1 3412
1 3413
1 3414
1 3415
1 3416
1 3417
1 3418
1 3419
1 3420
1 3421
1 3422
1 3423
1 3424
1 3425
1 3426
1 3427
1 3428
1 3429
1 3430
1 3431
1 3432
1 3433
1 3434
1 3435
1 3436
1 3437
1 3438
1 3439
1 3440
1 3441
1 3442
1 3443
1 3444
1 3445
1 3446
1 3447
1 3448
1 3449
1 3450
1 3451
1 3452
1 3453
1 3454
1 3455
1 3456
1 3457
1 3458
1 3459
1 3460
1 3461
1 3462
1 3463
1 3464
1 3465
1 3466
1 3467
1 3468
1 3469
1 3470
1 3471
1 3472
1 3473
1 3474
1 3475
1 3476
1 3477
1 3478
1 3479
1 3480
1 3481
1 3482
1 3483
1 3484
1 3485
1 3486
1 3487
1 3488
1 3489
1 3490
1 3491
1 3492
1 3493
1 3494
1 3495
1 3496
1 3497
1 3498
1 3499
1 3500
1 3501
1 3502
1 3503
1 3504
1 3505
1 3506
1 3507
1 3508
1 3509
1 3510
1 3511
1 3512
1 3513
1 3514
1 3515
1 3516
1 3517
1 3518
1 3519
1 3520
1 3521
1 3522
1 3523
1 3524
1 3525
1 3526
1 3527
1 3528
1 3529
1 3530
1 3531
1 3532
1 3533
1 3534
1 3535
1 3536
1 3537
1 3538
1 3539
1 3540
1 3541
1 3542
1 3543
1 3544
1 3545
1 3546
1 3547
1 3548
1 3549
1 3550
1 3551
1 3552
1 3553
1 3554
1 3555
1 3556
1 3557
1 3558
1 3559
1 3560
1 3561
1 3562
1 3563
1 3564
1 3565
1 3566
1 3567
1 3568
1 3569
1 3570
1 3571
1 3572
1 3573
1 3574
1 3575
1 3576
1 3577
1 3578
1 3579
1 3580
1 3581
1 3582
1 3583
1 3584
1 3585
1 3586
1 3587
1 3588
1 3589
1 3590
1 3591
1 3592
1 3593
1 3594
1 3595
1 3596
1 3597
1 3598
1 3599
1 3600
1 3601
1 3602
1 3603
1 3604
1 3605
1 3606
1 3607
1 3608
1 3609
1 3610
1 3611
1 3612
1 3613
1 3614
1 3615
1 3616
1 3617
1 3618
1 3619
1 3620
1 3621
1 3622
1 3623
1 3624
1 3625
1 3626
1 3627
1 3628
1 3629
1 3630
1 3631
1 3632
1 3633
1 3634
1 3635
1 3636
1 3637
1 3638
1 3639
1 3640
1 3641
1 3642
1 3643
1 3644
1 3645
1 3646
1 3647
1 3648
1 3649
1 3650
1 3651
1 3652
1 3653
1 3654
1 3655
1 3656
1 3657
1 3658
1 3659
1 3660
1 3661
1 3662
1 3663
1 3664
1 3665
1 3666
1 3667
1 3668
1 3669
1 3670
1 3671
1 3672
1 3673
1 3674
1 3675
1 3676
1 3677
1 3678
1 3679
1 3680
1 3681
1 3682
1 3683
1 3684
1 3685
1 3686
1 3687
1 3688
1 3689
1 3690
1 3691
1 3692
1 3693
1 3694
1 3695
1 3696
1 3697
1 3698
1 3699
1 3700
1 3701
1 3702
1 3703
1 3704
1 3705
1 3706
1 3707
1 3708
1 3709
1 3710
1 3711
1 3712
1 3713
1 3714
1 3715
1 3716
1 3717
1 3718
1 3719
1 3720
1 3721
1 3722
1 3723
1 3724
1 3725
1 3726
1 3727
1 3728
1 3729
1 3730
1 3731
1 3732
1 3733
1 3734
1 3735
1 3736
1 3737
1 3738
1 3739
1 3740
1 3741
1 3742
1 3743
1 3744
1 3745
1 3746
1 3747
1 3748
1 3749
1 3750
1 3751
1 3752
1 3753
1 3754
1 3755
1 3756
1 3757
1 3758
1 3759
1 3760
1 3761
1 3762
1 3763
1 3764
1 3765
1 3766
1 3767
1 3768
1 3769
1 3770
1 3771
1 3772
1 3773
1 3774
1 3775
1 3776
1 3777
1 3778
1 3779
1 3780
1 3781
1 3782
1 3783
1 3784
1 3785
1 3786
1 3787
1 3788
1 3789
1 3790
1 3791
1 3792
1 3793
1 3794
1 3795
1 3796
1 3797
1 3798
1 3799
1 3800
1 3801
1 3802
1 3803
1 3804
1 3805
1 3806
1 3807
1 3808
1 3809
1 3810
1 3811
1 3812
1 3813
1 3814
1 3815
1 3816
1 3817
1 3818
1 3819
1 3820
1 3821
1 3822
1 3823
1 3824
1 3825
1 3826
1 3827
1 3828
1 3829
1 3830
1 3831
1 3832
1 3833
1 3834
1 3835
1 3836
1 3837
1 3838
1 3839
1 3840
1 3841
1 3842
1 3843
1 3844
1 3845
1 3846
1 3847
1 3848
1 3849
1 3850
1 3851
1 3852
1 3853
1 3854
1 3855
1 3856
1 3857
1 3858
1 3859
1 3860
1 3861
1 3862
1 3863
1 3864
1 3865
1 3866
1 3867
1 3868
1 3869
1 3870
1 3871
1 3872
1 3873
1 3874
1 3875
1 3876
1 3877
1 3878
1 3879
1 3880
1 3881
1 3882
1 3883
1 3884
1 3885
1 3886
1 3887
1 3888
1 3889
1 3890
1 3891
1 3892
1 3893
1 3894
1 3895
1 3896
1 3897
1 3898
1 3899
1 3900
1 3901
1 3902
1 3903
1 3904
1 3905
1 3906
1 3907
1 3908
1 3909
1 3910
1 3911
1 3912
1 3913
1 3914
1 3915
1 3916
1 3917
1 3918
1 3919
1 3920
1 3921
1 3922
1 3923
1 3924
1 3925
1 3926
1 3927
1 3928
1 3929
1 3930
1 3931
1 3932
1 3933
1 3934
1 3935
1 3936
1 3937
1 3938
1 3939
1 3940
1 3941
1 3942
1 3943
1 3944
1 3945
1 3946
1 3947
1 3948
1 3949
1 3950
1 3951
1 3952
1 3953
1 3954
1 3955
1 3956
1 3957
1 3958
1 3959
1 3960
1 3961
1 3962
1 3963
1 3964
1 3965
1 3966
1 3967
1 3968
1 3969
1 3970
1 3971
1 3972
1 3973
1 3974
1 3975
1 3976
1 3977
1 3978
1 3979
1 3980
1 3981
1 3982
1 3983
1 3984
1 3985
1 3986
1 3987
1 3988
1 3989
1 3990
1 3991
1 3992
1 3993
1 3994
1 3995
1 3996
1 3997
1 3998
1 3999
1 4000
1 4001
1 4002
1 4003
1 4004
1 4005
1 4006
1 4007
1 4008
1 4009
1 4010
1 4011
1 4012
1 4013
1 4014
1 4015
1 4016
1 4017
1 4018
1 4019
1 4020
1 4021
1 4022
1 4023
1 4024
1 4025
1 4026
1 4027
1 4028
1 4029
1 4030
1 4031
1 4032
1 4033
1 4034
1 4035
1 4036
1 4037
1 4038
1 4039
1 4040
1 4041
1 4042
1 4043
1 4044
1 4045
1 4046
1 4047
1 4048
1 4049
1 4050
1 4051
1 4052
1 4053
1 4054
1 4055
1 4056
1 4057
1 4058
1 4059
1 4060
1 4061
1 4062
1 4063
1 4064
1 4065
1 4066
1 4067
1 4068
1 4069
1 4070
1 4071
1 4072
1 4073
1 4074
1 4075
1 4076
1 4077
1 4078
1 4079
1 4080
1 4081
1 4082
1 4083
1 4084
1 4085
1 4086
1 4087
1 4088
1 4089
1 4090
1 4091
1 4092
1 4093
1 4094
1 4095
1 4096
1 4097
1 4098
1 4099
1 4100
1 4101
1 4102
1 4103
1 4104
1 4105
1 4106
1 4107
1 4108
1 4109
1 4110
1 4111
1 4112
1 4113
1 4114
1 4115
1 4116
1 4117
1 4118
1 4119
1 4120
1 4121
1 4122
1 4123
1 4124
1 4125
1 4126
1 4127
1 4128
1 4129
1 4130
1 4131
1 4132
1 4133
1 4134
1 4135
1 4136
1 4137
1 4138
1 4139
1 4140
1 4141
1 4142
1 4143
1 4144
1 4145
1 4146
1 4147
1 4148
1 4149
1 4150
1 4151
1 4152
1 4153
1 4154
1 4155
1 4156
1 4157
1 4158
1 4159
1 4160
1 4161
1 4162
1 4163
1 4164
1 4165
1 4166
1 4167
1 4168
1 4169
1 4170
1 4171
1 4172
1 4173
1 4174
1 4175
1 4176
1 4177
1 4178
1 4179
1 4180
1 4181
1 4182
1 4183
1 4184
1 4185
1 4186
1 4187
1 4188
1 4189
1 4190
1 4191
1 4192
1 4193
1 4194
1 4195
1 4196
1 4197
1 4198
1 4199
1 4200
1 4201
1 4202
1 4203
1 4204
1 4205
1 4206
1 4207
1 4208
1 4209
1 4210
1 4211
1 4212
1 4213
1 4214
1 4215
1 4216
1 4217
1 4218
1 4219
1 4220
1 4221
1 4222
1 4223
1 4224
1 4225
1 4226
1 4227
1 4228
1 4229
1 4230
1 4231
1 4232
1 4233
1 4234
1 4235
1 4236
1 4237
1 4238
1 4239
1 4240
1 4241
1 4242
1 4243
1 4244
1 4245
1 4246
1 4247
1 4248
1 4249
1 4250
1 4251
1 4252
1 4253
1 4254
1 4255
1 4256
1 4257
1 4258
1 4259
1 4260
1 4261
1 4262
1 4263
1 4264
1 4265
1 4266
1 4267
1 4268
1 4269
1 4270
1 4271
1 4272
1 4273
1 4274
1 4275
1 4276
1 4277
1 4278
1 4279
1 4280
1 4281
1 4282
1 4283
1 4284
1 4285
1 4286
1 4287
1 4288
1 4289
1 4290
1 4291
1 4292
1 4293
1 4294
1 4295
1 4296
1 4297
1 4298
1 4299
1 4300
1 4301
1 4302
1 4303
1 4304
1 4305
1 4306
1 4307
1 4308
1 4309
1 4310
1 4311
1 4312
1 4313
1 4314
1 4315
1 4316
1 4317
1 4318
1 4319
1 4320
1 4321
1 4322
1 4323
1 4324
1 4325
1 4326
1 4327
1 4328
1 4329
1 4330
1 4331
1 4332
1 4333
1 4334
1 4335
1 4336
1 4337
1 4338
1 4339
1 4340
1 4341
1 4342
1 4343
1 4344
1 4345
1 4346
1 4347
1 4348
1 4349
1 4350
1 4351
1 4352
1 4353
1 4354
1 4355
1 4356
1 4357
1 4358
1 4359
1 4360
1 4361
1 4362
1 4363
1 4364
1 4365
1 4366
1 4367
1 4368
1 4369
1 4370
1 4371
1 4372
1 4373
1 4374
1 4375
1 4376
1 4377
1 4378
1 4379
1 4380
1 4381
1 4382
1 4383
1 4384
1 4385
1 4386
1 4387
1 4388
1 4389
1 4390
1 4391
1 4392
1 4393
1 4394
1 4395
1 4396
1 4397
1 4398
1 4399
1 4400
1 4401
1 4402
1 4403
1 4404
1 4405
1 4406
1 4407
1 4408
1 4409
1 4410
1 4411
1 4412
1 4413
1 4414
1 4415
1 4416
1 4417
1 4418
1 4419
1 4420
1 4421
1 4422
1 4423
1 4424
1 4425
1 4426
1 4427
1 4428
1 4429
1 4430
1 4431
1 4432
1 4433
1 4434
1 4435
1 4436
1 4437
1 4438
1 4439
1 4440
1 4441
1 4442
1 4443
1 4444
1 4445
1 4446
1 4447
1 4448
1 4449
1 4450
1 4451
1 4452
1 4453
1 4454
1 4455
1 4456
1 4457
1 4458
1 4459
1 4460
1 4461
1 4462
1 4463
1 4464
1 4465
1 4466
1 4467
1 4468
1 4469
1 4470
1 4471
1 4472
1 4473
1 4474
1 4475
1 4476
1 4477
1 4478
1 4479
1 4480
1 4481
1 4482
1 4483
1 4484
1 4485
1 4486
1 4487
1 4488
1 4489
1 4490
1 4491
1 4492
1 4493
1 4494
1 4495
1 4496
1 4497
1 4498
1 4499
1 4500
1 4501
1 4502
1 4503
1 4504
1 4505
1 4506
1 4507
1 4508
1 4509
1 4510
1 4511
1 4512
1 4513
1 4514
1 4515
1 4516
1 4517
1 4518
1 4519
1 4520
1 4521
1 4522
1 4523
1 4524
1 4525
1 4526
1 4527
1 4528
1 4529
1 4530
1 4531
1 4532
1 4533
1 4534
1 4535
1 4536
1 4537
1 4538
1 4539
1 4540
1 4541
1 4542
1 4543
1 4544
1 4545
1 4546
1 4547
1 4548
1 4549
1 4550
1 4551
1 4552
1 4553
1 4554
1 4555
1 4556
1 4557
1 4558
1 4559
1 4560
1 4561
1 4562
1 4563
1 4564
1 4565
1 4566
1 4567
1 4568
1 4569
1 4570
1 4571
1 4572
1 4573
1 4574
1 4575
1 4576
1 4577
1 4578
1 4579
1 4580
1 4581
1 4582
1 4583
1 4584
1 4585
1 4586
1 4587
1 4588
1 4589
1 4590
1 4591
1 4592
1 4593
1 4594
1 4595
1 4596
1 4597
1 4598
1 4599
1 4600
1 4601
1 4602
1 4603
1 4604
1 4605
1 4606
1 4607
1 4608
1 4609
1 4610
1 4611
1 4612
1 4613
1 4614
1 4615
1 4616
1 4617
1 4618
1 4619
1 4620
1 4621
1 4622
1 4623
1 4624
1 4625
1 4626
1 4627
1 4628
1 4629
1 4630
1 4631
1 4632
1 4633
1 4634
1 4635
1 4636
1 4637
1 4638
1 4639
1 4640
1 4641
1 4642
1 4643
1 4644
1 4645
1 4646
1 4647
1 4648
1 4649
1 4650
1 4651
1 4652
1 4653
1 4654
1 4655
1 4656
1 4657
1 4658
1 4659
1 4660
1 4661
1 4662
1 4663
1 4664
1 4665
1 4666
1 4667
1 4668
1 4669
1 4670
1 4671
1 4672
1 4673
1 4674
1 4675
1 4676
1 4677
1 4678
1 4679
1 4680
1 4681
1 4682
1 4683
1 4684
1 4685
1 4686
1 4687
1 4688
1 4689
1 4690
1 4691
1 4692
1 4693
1 4694
1 4695
1 4696
1 4697
1 4698
1 4699
1 4700
1 4701
1 4702
1 4703
1 4704
1 4705
1 4706
1 4707
1 4708
1 4709
1 4710
1 4711
1 4712
1 4713
1 4714
1 4715
1 4716
1 4717
1 4718
1 4719
1 4720
1 4721
1 4722
1 4723
1 4724
1 4725
1 4726
1 4727
1 4728
1 4729
1 4730
1 4731
1 4732
1 4733
1 4734
1 4735
1 4736
1 4737
1 4738
1 4739
1 4740
1 4741
1 4742
1 4743
1 4744
1 4745
1 4746
1 4747
1 4748
1 4749
1 4750
1 4751
1 4752
1 4753
1 4754
1 4755
1 4756
1 4757
1 4758
1 4759
1 4760
1 4761
1 4762
1 4763
1 4764
1 4765
1 4766
1 4767
1 4768
1 4769
1 4770
1 4771
1 4772
1 4773
1 4774
1 4775
1 4776
1 4777
1 4778
1 4779
1 4780
1 4781
1 4782
1 4783
1 4784
1 4785
1 4786
1 4787
1 4788
1 4789
1 4790
1 4791
1 4792
1 4793
1 4794
1 4795
1 4796
1 4797
1 4798
1 4799
1 4800
1 4801
1 4802
1 4803
1 4804
1 4805
1 4806
1 4807
1 4808
1 4809
1 4810
1 4811
1 4812
1 4813
1 4814
1 4815
1 4816
1 4817
1 4818
1 4819
1 4820
1 4821
1 4822
1 4823
1 4824
1 4825
1 4826
1 4827
1 4828
1 4829
1 4830
1 4831
1 4832
1 4833
1 4834
1 4835
1 4836
1 4837
1 4838
1 4839
1 4840
1 4841
1 4842
1 4843
1 4844
1 4845
1 4846
1 4847
1 4848
1 4849
1 4850
1 4851
1 4852
1 4853
1 4854
1 4855
1 4856
1 4857
1 4858
1 4859
1 4860
1 4861
1 4862
1 4863
1 4864
1 4865
1 4866
1 4867
1 4868
1 4869
1 4870
1 4871
1 4872
1 4873
1 4874
1 4875
1 4876
1 4877
1 4878
1 4879
1 4880
1 4881
1 4882
1 4883
1 4884
1 4885
1 4886
1 4887
1 4888
1 4889
1 4890
1 4891
1 4892
1 4893
1 4894
1 4895
1 4896
1 4897
1 4898
1 4899
1 4900
1 4901
1 4902
1 4903
1 4904
1 4905
1 4906
1 4907
1 4908
1 4909
1 4910
1 4911
1 4912
1 4913
1 4914
1 4915
1 4916
1 4917
1 4918
1 4919
1 4920
1 4921
1 4922
1 4923
1 4924
1 4925
1 4926
1 4927
1 4928
1 4929
1 4930
1 4931
1 4932
1 4933
1 4934
1 4935
1 4936
1 4937
1 4938
1 4939
1 4940
1 4941
1 4942
1 4943
1 4944
1 4945
1 4946
1 4947
1 4948
1 4949
1 4950
1 4951
1 4952
1 4953
1 4954
1 4955
1 4956
1 4957
1 4958
1 4959
1 4960
1 4961
1 4962
1 4963
1 4964
1 4965
1 4966
1 4967
1 4968
1 4969
1 4970
1 4971
1 4972
1 4973
1 4974
1 4975
1 4976
1 4977
1 4978
1 4979
1 4980
1 4981
1 4982
1 4983
1 4984
1 4985
1 4986
1 4987
1 4988
1 4989
1 4990
1 4991
1 4992
1 4993
1 4994
1 4995
1 4996
1 4997
1 4998
1 4999
CELL_TYPES 5000
1 
1 
1 
1 
1 
1 
1 
1 
1 
1 
1 
1 
1 
1 
1 
1 
1 
1 
1 
1 
1 
1 
1 
1 
1 
1 
1 
1 
1 
1 
1 
1 
1 
1 
1 
1 
1 
1 
1 
1 
1 
1 
1 
1 
1 
1 
1 
1 
1 
1 
1 
1 
1 
1 
1 
1 
1 
1 
1 
1 
1 
1 
1 
1 
1 
1 
1 
1 
1 
1 
1 
1 
1 
1 
1 
1 
1 
1 
1 
1 
1 
1 
1 
1 
1 
1 
1 
1 
1 
1 
1 
1 
1 
1 
1 
1 
1 
1 
1 
1 
1 
1 
1 
1 
1 
1 
1 
1 
1 
1 
1 
1 
1 
1 
1 
1 
1 
1 
1 
1 
1 
1 
1 
1 
1 
1 
1 
1 
1 
1 
1 
1 
1 
1 
1 
1 
1 
1 
1 
1 
1 
1 
1 
1 
1 
1 
1 
1 
1 
1 
1 
1 
1 
1 
1 
1 
1 
1 
1 
1 
1 
1 
1 
1 
1 
1 
1 
1 
1 
1 
1 
1 
1 
1 
1 
1 
1 
1 
1 
1 
1 
1 
1 
1 
1 
1 
1 
1 
1 
1 
1 
1 
1 
1 
1 
1 
1 
1 
1 
1 
1 
1 
1 
1 
1 
1 
1 
1 
1 
1 
1 
1 
1 
1 
1 
1 
1 
1 
1 
1 
1 
1 
1 
1 
1 
1 
1 
1 
1 
1 
1 
1 
1 
1 
1 
1 
1 
1 
1 
1 
1 
1 
1 
1 
1 
1 
1 
1 
1 
1 
1 
1 
1 
1 
1 
1 
1 
1 
1 
1 
1 
1 
1 
1 
1 
1 
1 
1 
1 
1 
1 
1 
1 
1 
1 
1 
1 
1 
1 
1 
1 
1 
1 
1 
1 
1 
1 
1 
1 
1 
1 
1 
1 
1 
1 
1 
1 
1 
1 
1 
1 
1 
1 
1 
1 
1 
1 
1 
1 
1 
1 
1 
1 
1 
1 
1 
1 
1 
1 
1 
1 
1 
1 
1 
1 
1 
1 
1 
1 
1 
1 
1 
1 
1 
1 
1 
1 
1 
1 
1 
1 
1 
1 
1 
1 
1 
1 
1 
1 
1 
1 
1 
1 
1 
1 
1 
1 
1 
1 
1 
1 
1 
1 
1 
1 
1 
1 
1 
1 
1 
1 
1 
1 
1 
1 
1 
1 
1 
1 
1 
1 
1 
1 
1 
1 
1 
1 
1 
1 
1 
1 
1 
1 
1 
1 
1 
1 
1 
1 
1 
1 
1 
1 
1 
1 
1 
1 
1 
1 
1 
1 
1 
1 
1 
1 
1 
1 
1 
1 
1 
1 
1 
1 
1 
1 
1 
1 
1 
1 
1 
1 
1 
1 
1 
1 
1 
1 
1 
1 
1 
1 
1 
1 
1 
1 
1 
1 
1 
1 
1 
1 
1 
1 
1 
1 
1 
1 
1 
1 
1 
1 
1 
1 
1 
1 
1 
1 
1 
1 
1 
1 
1 
1 
1 
1 
1 
1 
1 
1 
1 
1 
1 
1 
1 
1 
1 
1 
1 
1 
1 
1 
1 
1 
1 
1 
1 
1 
1 
1 
1 
1 
1 
1 
1 
1 
1 
1 
1 
1 
1 
1 
1 
1 
1 
1 
1 
1 
1 
1 
1 
1 
1 
1 
1 
1 
1 
1 
1 
1 
1 
1 
1 
1 
1 
1 
1 
1 
1 
1 
1 
1 
1 
1 
1 
1 
1 
1 
1 
1 
1 
1 
1 
1 
1 
1 
1 
1 
1 
1 
1 
1 
1 
1 
1 
1 
1 
1 
1 
1 
1 
1 
1 
1 
1 
1 
1 
1 
1 
1 
1 
1 
1 
1 
1 
1 
1 
1 
1 
1 
1 
1 
1 
1 
1 
1 
1 
1 
1 
1 
1 
1 
1 
1 
1 
1 
1 
1 
1 
1 
1 
1 
1 
1 
1 
1 
1 
1 
1 
1 
1 
1 
1 
1 
1 
1 
1 
1 
1 
1 
1 
1 
1 
1 
1 
1 
1 
1 
1 
1 
1 
1 
1 
1 
1 
1 
1 
1 
1 
1 
1 
1 
1 
1 
1 
1 
1 
1 
1 
1 
1 
1 
1 
1 
1 
1 
1 
1 
1 
1 
1 
1 
1 
1 
1 
1 
1 
1 
1 
1 
1 
1 
1 
1 
1 
1 
1 
1 
1 
1 
1 
1 
1 
1 
1 
1 
1 
1 
1 
1 
1 
1 
1 
1 
1 
1 
1 
1 
1 
1 
1 
1 
1 
1 
1 
1 
1 
1 
1 
1 
1 
1 
1 
1 
1 
1 
1 
1 
1 
1 
1 
1 
1 
1 
1 
1 
1 
1 
1 
1 
1 
1 
1 
1 
1 
1 
1 
1 
1 
1 
1 
1 
1 
1 
1 
1 
1 
1 
1 
1 
1 
1 
1 
1 
1 
1 
1 
1 
1 
1 
1 
1 
1 
1 
1 
1 
1 
1 
1 
1 
1 
1 
1 
1 
1 
1 
1 
1 
1 
1 
1 
1 
1 
1 
1 
1 
1 
1 
1 
1 
1 
1 
1 
1 
1 
1 
1 
1 
1 
1 
1 
1 
1 
1 
1 
1 
1 
1 
1 
1 
1 
1 
1 
1 
1 
1 
1 
1 
1 
1 
1 
1 
1 
1 
1 
1 
1 
1 
1 
1 
1 
1 
1 
1 
1 
1 
1 
1 
1 
1 
1 
1 
1 
1 
1 
1 
1 
1 
1 
1 
1 
1 
1 
1 
1 
1 
1 
1 
1 
1 
1 
1 
1 
1 
1 
1 
1 
1 
1 
1 
1 
1 
1 
1 
1 
1 
1 
1 
1 
1 
1 
1 
1 
1 
1 
1 
1 
1 
1 
1 
1 
1 
1 
1 
1 
1 
1 
1 
1 
1 
1 
1 
1 
1 
1 
1 
1 
1 
1 
1 
1 
1 
1 
1 
1 
1 
1 
1 
1 
1 
1 
1 
1 
1 
1 
1 
1 
1 
1 
1 
1 
1 
1 
1 
1 
1 
1 
1 
1 
1 
1 
1 
1 
1 
1 
1 
1 
1 
1 
1 
1 
1 
1 
1 
1 
1 
1 
1 
1 
1 
1 
1 
1 
1 
1 
1 
1 
1 
1 
1 
1 
1 
1 
1 
1 
1 
1 
1 
1 
1 
1 
1 
1 
1 
1 
1 
1 
1 
1 
1 
1 
1 
1 
1 
1 
1 
1 
1 
1 
1 
1 
1 
1 
1 
1 
1 
1 
1 
1 
1 
1 
1 
1 
1 
1 
1 
1 
1 
1 
1 
1 
1 
1 
1 
1 
1 
1 
1 
1 
1 
1 
1 
1 
1 
1 
1 
1 
1 
1 
1 
1 
1 
1 
1 
1 
1 
1 
1 
1 
1 
1 
1 
1 
1 
1 
1 
1 
1 
1 
1 
1 
1 
1 
1 
1 
1 
1 
1 
1 
1 
1 
1 
1 
1 
1 
1 
1 
1 
1 
1 
1 
1 
1 
1 
1 
1 
1 
1 
1 
1 
1 
1 
1 
1 
1 
1 
1 
1 
1 
1 
1 
1 
1 
1 
1 
1 
1 
1 
1 
1 
1 
1 
1 
1 
1 
1 
1 
1 
1 
1 
1 
1 
1 
1 
1 
1 
1 
1 
1 
1 
1 
1 
1 
1 
1 
1 
1 
1 
1 
1 
1 
1 
1 
1 
1 
1 
1 
1 
1 
1 
1 
1 
1 
1 
1 
1 
1 
1 
1 
1 
1 
1 
1 
1 
1 
1 
1 
1 
1 
1 
1 
1 
1 
1 
1 
1 
1 
1 
1 
1 
1 
1 
1 
1 
1 
1 
1 
1 
1 
1 
1 
1 
1 
1 
1 
1 
1 
1 
1 
1 
1 
1 
1 
1 
1 
1 
1 
1 
1 
1 
1 
1 
1 
1 
1 
1 
1 
1 
1 
1 
1 
1 
1 
1 
1 
1 
1 
1 
1 
1 
1 
1 
1 
1 
1 
1 
1 
1 
1 
1 
1 
1 
1 
1 
1 
1 
1 
1 
1 
1 
1 
1 
1 
1 
1 
1 
1 
1 
1 
1 
1 
1 
1 
1 
1 
1 
1 
1 
1 
1 
1 
1 
1 
1 
1 
1 
1 
1 
1 
1 
1 
1 
1 
1 
1 
1 
1 
1 
1 
1 
1 
1 
1 
1 
1 
1 
1 
1 
1 
1 
1 
1 
1 
1 
1 
1 
1 
1 
1 
1 
1 
1 
1 
1 
1 
1 
1 
1 
1 
1 
1 
1 
1 
1 
1 
1 
1 
1 
1 
1 
1 
1 
1 
1 
1 
1 
1 
1 
1 
1 
1 
1 
1 
1 
1 
1 
1 
1 
1 
1 
1 
1 
1 
1 
1 
1 
1 
1 
1 
1 
1 
1 
1 
1 
1 
1 
1 
1 
1 
1 
1 
1 
1 
1 
1 
1 
1 
1 
1 
1 
1 
1 
1 
1 
1 
1 
1 
1 
1 
1 
1 
1 
1 
1 
1 
1 
1 
1 
1 
1 
1 
1 
1 
1 
1 
1 
1 
1 
1 
1 
1 
1 
1 
1 
1 
1 
1 
1 
1 
1 
1 
1 
1 
1 
1 
1 
1 
1 
1 
1 
1 
1 
1 
1 
1 
1 
1 
1 
1 
1 
1 
1 
1 
1 
1 
1 
1 
1 
1 
1 
1 
1 
1 
1 
1 
1 
1 
1 
1 
1 
1 
1 
1 
1 
1 
1 
1 
1 
1 
1 
1 
1 
1 
1 
1 
1 
1 
1 
1 
1 
1 
1 
1 
1 
1 
1 
1 
1 
1 
1 
1 
1 
1 
1 
1 
1 
1 
1 
1 
1 
1 
1 
1 
1 
1 
1 
1 
1 
1 
1 
1 
1 
1 
1 
1 
1 
1 
1 
1 
1 
1 
1 
1 
1 
1 
1 
1 
1 
1 
1 
1 
1 
1 
1 
1 
1 
1 
1 
1 
1 
1 
1 
1 
1 
1 
1 
1 
1 
1 
1 
1 
1 
1 
1 
1 
1 
1 
1 
1 
1 
1 
1 
1 
1 
1 
1 
1 
1 
1 
1 
1 
1 
1 
1 
1 
1 
1 
1 
1 
1 
1 
1 
1 
1 
1 
1 
1 
1 
1 
1 
1 
1 
1 
1 
1 
1 
1 
1 
1 
1 
1 
1 
1 
1 
1 
1 
1 
1 
1 
1 
1 
1 
1 
1 
1 
1 
1 
1 
1 
1 
1 
1 
1 
1 
1 
1 
1 
1 
1 
1 
1 
1 
1 
1 
1 
1 
1 
1 
1 
1 
1 
1 
1 
1 
1 
1 
1 
1 
1 
1 
1 
1 
1 
1 
1 
1 
1 
1 
1 
1 
1 
1 
1 
1 
1 
1 
1 
1 
1 
1 
1 
1 
1 
1 
1 
1 
1 
1 
1 
1 
1 
1 
1 
1 
1 
1 
1 
1 
1 
1 
1 
1 
1 
1 
1 
1 
1 
1 
1 
1 
1 
1 
1 
1 
1 
1 
1 
1 
1 
1 
1 
1 
1 
1 
1 
1 
1 
1 
1 
1 
1 
1 
1 
1 
1 
1 
1 
1 
1 
1 
1 
1 
1 
1 
1 
1 
1 
1 
1 
1 
1 
1 
1 
1 
1 
1 
1 
1 
1 
1 
1 
1 
1 
1 
1 
1 
1 
1 
1 
1 
1 
1 
1 
1 
1 
1 
1 
1 
1 
1 
1 
1 
1 
1 
1 
1 
1 
1 
1 
1 
1 
1 
1 
1 
1 
1 
1 
1 
1 
1 
1 
1 
1 
1 
1 
1 
1 
1 
1 
1 
1 
1 
1 
1 
1 
1 
1 
1 
1 
1 
1 
1 
1 
1 
1 
1 
1 
1 
1 
1 
1 
1 
1 
1 
1 
1 
1 
1 
1 
1 
1 
1 
1 
1 
1 
1 
1 
1 
1 
1 
1 
1 
1 
1 
1 
1 
1 
1 
1 
1 
1 
1 
1 
1 
1 
1 
1 
1 
1 
1 
1 
1 
1 
1 
1 
1 
1 
1 
1 
1 
1 
1 
1 
1 
1 
1 
1 
1 
1 
1 
1 
1 
1 
1 
1 
1 
1 
1 
1 
1 
1 
1 
1 
1 
1 
1 
1 
1 
1 
1 
1 
1 
1 
1 
1 
1 
1 
1 
1 
1 
1 
1 
1 
1 
1 
1 
1 
1 
1 
1 
1 
1 
1 
1 
1 
1 
1 
1 
1 
1 
1 
1 
1 
1 
1 
1 
1 
1 
1 
1 
1 
1 
1 
1 
1 
1 
1 
1 
1 
1 
1 
1 
1 
1 
1 
1 
1 
1 
1 
1 
1 
1 
1 
1 
1 
1 
1 
1 
1 
1 
1 
1 
1 
1 
1 
1 
1 
1 
1 
1 
1 
1 
1 
1 
1 
1 
1 
1 
1 
1 
1 
1 
1 
1 
1 
1 
1 
1 
1 
1 
1 
1 
1 
1 
1 
1 
1 
1 
1 
1 
1 
1 
1 
1 
1 
1 
1 
1 
1 
1 
1 
1 
1 
1 
1 
1 
1 
1 
1 
1 
1 
1 
1 
1 
1 
1 
1 
1 
1 
1 
1 
1 
1 
1 
1 
1 
1 
1 
1 
1 
1 
1 
1 
1 
1 
1 
1 
1 
1 
1 
1 
1 
1 
1 
1 
1 
1 
1 
1 
1 
1 
1 
1 
1 
1 
1 
1 
1 
1 
1 
1 
1 
1 
1 
1 
1 
1 
1 
1 
1 
1 
1 
1 
1 
1 
1 
1 
1 
1 
1 
1 
1 
1 
1 
1 
1 
1 
1 
1 
1 
1 
1 
1 
1 
1 
1 
1 
1 
1 
1 
1 
1 
1 
1 
1 
1 
1 
1 
1 
1 
1 
1 
1 
1 
1 
1 
1 
1 
1 
1 
1 
1 
1 
1 
1 
1 
1 
1 
1 
1 
1 
1 
1 
1 
1 
1 
1 
1 
1 
1 
1 
1 
1 
1 
1 
1 
1 
1 
1 
1 
1 
1 
1 
1 
1 
1 
1 
1 
1 
1 
1 
1 
1 
1 
1 
1 
1 
1 
1 
1 
1 
1 
1 
1 
1 
1 
1 
1 
1 
1 
1 
1 
1 
1 
1 
1 
1 
1 
1 
1 
1 
1 
1 
1 
1 
1 
1 
1 
1 
1 
1 
1 
1 
1 
1 
1 
1 
1 
1 
1 
1 
1 
1 
1 
1 
1 
1 
1 
1 
1 
1 
1 
1 
1 
1 
1 
1 
1 
1 
1 
1 
1 
1 
1 
1 
1 
1 
1 
1 
1 
1 
1 
1 
1 
1 
1 
1 
1 
1 
1 
1 
1 
1 
1 
1 
1 
1 
1 
1 
1 
1 
1 
1 
1 
1 
1 
1 
1 
1 
1 
1 
1 
1 
1 
1 
1 
1 
1 
1 
1 
1 
1 
1 
1 
1 
1 
1 
1 
1 
1 
1 
1 
1 
1 
1 
1 
1 
1 
1 
1 
1 
1 
1 
1 
1 
1 
1 
1 
1 
1 
1 
1 
1 
1 
1 
1 
1 
1 
1 
1 
1 
1 
1 
1 
1 
1 
1 
1 
1 
1 
1 
1 
1 
1 
1 
1 
1 
1 
1 
1 
1 
1 
1 
1 
1 
1 
1 
1 
1 
1 
1 
1 
1 
1 
1 
1 
1 
1 
1 
1 
1 
1 
1 
1 
1 
1 
1 
1 
1 
1 
1 
1 
1 
1 
1 
1 
1 
1 
1 
1 
1 
1 
1 
1 
1 
1 
1 
1 
1 
1 
1 
1 
1 
1 
1 
1 
1 
1 
1 
1 
1 
1 
1 
1 
1 
1 
1 
1 
1 
1 
1 
1 
1 
1 
1 
1 
1 
1 
1 
1 
1 
1 
1 
1 
1 
1 
1 
1 
1 
1 
1 
1 
1 
1 
1 
1 
1 
1 
1 
1 
1 
1 
1 
1 
1 
1 
1 
1 
1 
1 
1 
1 
1 
1 
1 
1 
1 
1 
1 
1 
1 
1 
1 
1 
1 
1 
1 
1 
1 
1 
1 
1 
1 
1 
1 
1 
1 
1 
1 
1 
1 
1 
1 
1 
1 
1 
1 
1 
1 
1 
1 
1 
1 
1 
1 
1 
1 
1 
1 
1 
1 
1 
1 
1 
1 
1 
1 
1 
1 
1 
1 
1 
1 
1 
1 
1 
1 
1 
1 
1 
1 
1 
1 
1 
1 
1 
1 
1 
1 
1 
1 
1 
1 
1 
1 
1 
1 
1 
1 
1 
1 
1 
1 
1 
1 
1 
1 
1 
1 
1 
1 
1 
1 
1 
1 
1 
1 
1 
1 
1 
1 
1 
1 
1 
1 
1 
1 
1 
1 
1 
1 
1 
1 
1 
1 
1 
1 
1 
1 
1 
1 
1 
1 
1 
1 
1 
1 
1 
1 
1 
1 
1 
1 
1 
1 
1 
1 
1 
1 
1 
1 
1 
1 
1 
1 
1 
1 
1 
1 
1 
1 
1 
1 
1 
1 
1 
1 
1 
1 
1 
1 
1 
1 
1 
1 
1 
1 
1 
1 
1 
1 
1 
1 
1 
1 
1 
1 
1 
1 
1 
1 
1 
1 
1 
1 
1 
1 
1 
1 
1 
1 
1 
1 
1 
1 
1 
1 
1 
1 
1 
1 
1 
1 
1 
1 
1 
1 
1 
1 
1 
1 
1 
1 
1 
1 
1 
1 
1 
1 
1 
1 
1 
1 
1 
1 
1 
1 
1 
1 
1 
1 
1 
1 
1 
1 
1 
1 
1 
1 
1 
1 
1 
1 
1 
1 
1 
1 
1 
1 
1 
1 
1 
1 
1 
1 
1 
1 
1 
1 
1 
1 
1 
1 
1 
1 
1 
1 
1 
1 
1 
1 
1 
1 
1 
1 
1 
1 
1 
1 
1 
1 
1 
1 
1 
1 
1 
1 
1 
1 
1 
1 
1 
1 
1 
1 
1 
1 
1 
1 
1 
1 
1 
1 
1 
1 
1 
1 
1 
1 
1 
1 
1 
1 
1 
1 
1 
1 
1 
1 
1 
1 
1 
1 
1 
1 
1 
1 
1 
1 
1 
1 
1 
1 
1 
1 
1 
1 
1 
1 
1 
1 
1 
1 
1 
1 
1 
1 
1 
1 
1 
1 
1 
1 
1 
1 
1 
1 
1 
1 
1 
1 
1 
1 
1 
1 
1 
1 
1 
1 
1 
1 
1 
1 
1 
1 
1 
1 
1 
1 
1 
1 
1 
1 
1 
1 
1 
1 
1 
1 
1 
1 
1 
1 
1 
1 
1 
1 
1 
1 
1 
1 
1 
1 
1 
1 
1 
1 
1 
1 
1 
1 
1 
1 
1 
1 
1 
1 
1 
1 
1 
1 
1 
1 
1 
1 
1 
1 
1 
1 
1 
1 
1 
1 
1 
1 
1 
1 
1 
1 
1 
1 
1 
1 
1 
1 
1 
1 
1 
1 
1 
1 
1 
1 
1 
1 
1 
1 
1 
1 
1 
1 
1 
1 
1 
1 
1 
1 
1 
1 
1 
1 
1 
1 
1 
1 
1 
1 
1 
1 
1 
1 
1 
1 
1 
1 
1 
1 
1 
1 
1 
1 
1 
1 
1 
1 
1 
1 
1 
1 
1 
1 
1 
1 
1 
1 
1 
1 
1 
1 
1 
1 
1 
1 
1 
1 
1 
1 
1 
1 
1 
1 
1 
1 
1 
1 
1 
1 
1 
1 
1 
1 
1 
1 
1 
1 
1 
1 
1 
1 
1 
1 
1 
1 
1 
1 
1 
1 
1 
1 
1 
1 
1 
1 
1 
1 
1 
1 
1 
1 
1 
1 
1 
1 
1 
1 
1 
1 
1 
1 
1 
1 
1 
1 
1 
1 
1 
1 
1 
1 
1 
1 
1 
1 
1 
1 
1 
1 
1 
1 
1 
1 
1 
1 
1 
1 
1 
1 
1 
1 
1 
1 
1 
1 
1 
1 
1 
1 
1 
1 
1 
1 
1 
1 
1 
1 
1 
1 
1 
1 
1 
1 
1 
1 
1 
1 
1 
1 
1 
1 
1 
1 
1 
1 
1 
1 
1 
1 
1 
1 
1 
1 
1 
1 
1 
1 
1 
1 
1 
1 
1 
1 
1 
1 
1 
1 
1 
1 
1 
1 
1 
1 
1 
1 
1 
1 
1 
1 
1 
1 
1 
1 
1 
1 
1 
1 
1 
1 
1 
1 
1 
1 
1 
1 
1 
1 
1 
1 
1 
1 
1 
1 
1 
1 
1 
1 
1 
1 
1 
1 
1 
1 
1 
1 
1 
1 
1 
1 
1 
1 
1 
1 
1 
1 
1 
1 
1 
1 
1 
1 
1 
1 
1 
1 
1 
1 
1 
1 
1 
1 
1 
1 
1 
1 
1 
1 
1 
1 
1 
1 
1 
1 
1 
1 
1 
1 
1 
1 
1 
1 
1 
1 
1 
1 
1 
1 
1 
1 
1 
1 
1 
1 
1 
1 
1 
1 
1 
1 
1 
1 
1 
1 
1 
1 
1 
1 
1 
1 
1 
1 
1 
1 
1 
1 
1 
1 
1 
1 
1 
1 
1 
1 
1 
1 
1 
1 
1 
1 
1 
1 
1 
1 
1 
1 
1 
1 
1 
1 
1 
1 
1 
1 
1 
1 
1 
1 
1 
1 
1 
1 
1 
1 
1 
1 
1 
1 
1 
1 
1 
1 
1 
1 
1 
1 
1 
1 
1 
1 
1 
1 
1 
1 
1 
1 
1 
1 
1 
1 
1 
1 
1 
1 
1 
1 
1 
1 
1 
1 
1 
1 
1 
1 
1 
1 
1 
1 
1 
1 
1 
1 
1 
1 
1 
1 
1 
1 
1 
1 
1 
1 
1 
1 
1 
1 
1 
1 
1 
1 
1 
1 
1 
1 
1 
1 
1 
1 
1 
1 
1 
1 
1 
1 
1 
1 
1 
1 
1 
1 
1 
1 
1 
1 
1 
1 
1 
1 
1 
1 
1 
1 
1 
1 
1 
1 
1 
1 
1 
1 
1 
1 
1 
1 
1 
1 
1 
1 
1 
1 
1 
1 
1 
1 
1 
1 
1 
1 
1 
1 
1 
1 
1 
1 
1 
1 
1 
1 
1 
1 
1 
1 
1 
1 
1 
1 
1 
1 
1 
1 
1 
1 
1 
1 
1 
1 
1 
1 
1 
1 
1 
1 
1 
1 
1 
1 
1 
1 
1 
1 
1 
1 
1 
1 
1 
1 
1 
1 
1 
1 
1 
1 
1 
1 
1 
1 
1 
1 
1 
1 
1 
1 
1 
1 
1 
1 
1 
1 
1 
1 
1 
1 
1 
1 
1 
1 
1 
1 
1 
1 
1 
1 
1 
1 
1 
1 
1 
1 
1 
1 
1 
1 
1 
1 
1 
1 
1 
1 
1 
1 
1 
1 
1 
1 
1 
1 
1 
1 
1 
1 
1 
1 
1 
1 
1 
1 
1 
1 
1 
1 
1 
1 
1 
1 
1 
1 
1 
1 
1 
1 
1 
1 
1 
1 
1 
1 
1 
1 
1 
1 
1 
1 
1 
1 
1 
1 
1 
1 
1 
1 
1 
1 
1 
1 
1 
1 
1 
1 
1 
1 
1 
1 
1 
1 
1 
1 
1 
1 
1 
1 
1 
1 
1 
1 
1 
1 
1 
1 
1 
1 
1 
1 
1 
1 
1 
1 
1 
1 
1 
1 
1 
1 
1 
1 
1 
1 
1 
1 
1 
1 
1 
1 
1 
1 
1 
1 
1 
1 
1 
1 
1 
1 
1 
1 
1 
1 
1 
1 
1 
1 
1 
1 
1 
1 
1 
1 
1 
1 
1 
1 
1 
1 
1 
1 
1 
1 
1 
1 
1 
1 
1 
1 
1 
1 
1 
1 
1 
1 
1 
1 
1 
1 
1 
1 
1 
1 
1 
1 
1 
1 
1 
1 
1 
1 
1 
1 
1 
1 
1 
1 
1 
1 
1 
1 
1 
1 
1 
1 
1 
1 
1 
1 
1 
1 
1 
1 
1 
1 
1 
1 
1 
1 
1 
1 
1 
1 
1 
1 
1 
1 
1 
1 
1 
1 
1 
1 
1 
1 
1 
1 
1 
1 
1 
1 
1 
1 
1 
1 
1 
1 
1 
1 
1 
1 
1 
1 
1 
1 
1 
1 
1 
1 
1 
1 
1 
1 
1 
1 
1 
1 
1 
1 
1 
1 
1 
1 
1 
1 
1 
1 
1 
1 
1 
1 
1 
1 
1 
1 
1 
1 
1 
1 
1 
1 
1 
1 
1 
1 
1 
1 
1 
1 
1 
1 
1 
1 
1 
1 
1 
1 
1 
1 
1 
1 
1 
1 
1 
1 
1 
1 
1 
1 
1 
1 
1 
1 
1 
1 
1 
1 
1 
1 
1 
1 
1 
1 
1 
1 
1 
1 
1 
1 
1 
1 
1 
1 
1 
1 
1 
1 
1 
1 
1 
1 
1 
1 
1 
1 
1 
1 
1 
1 
1 
1 
1 
1 
1 
1 
1 
1 
1 
1 
1 
1 
1 
1 
1 
1 
1 
1 
1 
1 
1 
1 
1 
1 
1 
1 
1 
1 
1 
1 
1 
1 
1 
1 
1 
1 
1 
1 
1 
1 
1 
1 
1 
1 
1 
1 
1 
1 
1 
1 
1 
1 
1 
1 
1 
1 
1 
1 
1 
1 
1 
1 
1 
1 
1 
1 
1 
1 
1 
1 
1 
1 
1 
1 
1 
1 
1 
1 
1 
1 
1 
1 
1 
1 
1 
1 
1 
1 
1 
1 
1 
1 
1 
1 
1 
1 
1 
1 
1 
1 
1 
1 
1 
1 
1 
1 
1 
1 
1 
1 
1 
1 
1 
1 
1 
1 
1 
1 
1 
1 
1 
1 
1 
1 
1 
1 
1 
1 
1 
1 
1 
1 
1 
1 
1 
1 
1 
1 
1 
1 
1 
1 
1 
1 
1 
1 
1 
1 
1 
1 
1 
1 
1 
1 
1 
1 
1 
1 
1 
1 
1 
1 
1 
1 
1 
1 
1 
1 
1 
1 
1 
1 
1 
1 
1 
1 
1 
1 
1 
1 
1 
1 
1 
1 
1 
1 
1 
1 
1 
1 
1 
1 
1 
1 
1 
1 
1 
1 
1 
1 
1 
1 
1 
1 
1 
1 
1 
1 
1 
1 
1 
1 
1 
1 
1 
1 
1 
1 
1 
1 
1 
1 
1 
1 
1 
1 
1 
1 
1 
1 
1 
1 
1 
1 
1 
1 
1 
1 
1 
1 
1 
1 
1 
1 
1 
1 
1 
1 
1 
1 
1 
1 
1 
1 
1 
1 
1 
1 
1 
1 
1 
1 
1 
1 
1 
1 
1 
1 
1 
1 
1 
1 
1 
1 
1 
1 
1 
1 
1 
1 
1 
1 
1 
1 
1 
1 
1 
1 
1 
1 
1 
1 
1 
1 
1 
1 
1 
1 
1 
1 
1 
1 
1 
1 
1 
1 
1 
1 
1 
1 
1 
1 
1 
1 
1 
1 
1 
1 
1 
1 
1 
1 
1 
1 
1 
1 
1 
1 
1 
1 
1 
1 
1 
1 
1 
1 
1 
1 
1 
1 
1 
1 
1 
1 
1 
1 
1 
1 
1 
1 
1 
1 
1 
1 
1 
1 
1 
1 
1 
1 
1 
1 
1 
1 
1 
1 
1 
1 
1 
1 
1 
1 
1 
1 
1 
1 
1 
1 
1 
1 
1 
1 
1 
1 
1 
1 
1 
1 
1 
1 
1 
1 
1 
1 
1 
1 
1 
1 
1 
1 
1 
1 
1 
1 
1 
1 
1 
1 
1 
1 
1 
1 
1 
1 
1 
1 
1 
1 
1 
1 
1 
1 
1 
1 
1 
1 
1 
1 
1 
1 
1 
1 
1 
1 
1 
1 
1 
1 
1 
1 
1 
1 
1 
1 
1 
1 
1 
1 
1 
1 
1 
1 
1 
1 
1 
1 
1 
1 
1 
1 
1 
1 
1 
1 
1 
1 
1 
1 
1 
1 
1 
1 
1 
1 
1 
1 
1 
1 
1 
1 
1 
1 
1 
1 
1 
1 
1 
1 
1 
1 
1 
1 
1 
1 
1 
1 
1 
1 
1 
1 
1 
1 
1 
1 
1 
1 
1 
1 
1 
1 
1 
1 
1 
1 
1 
1 
1 
1 
1 
1 
1 
1 
1 
1 
1 
1 
1 
1 
1 
1 
1 
1 
1 
1 
1 
1 
1 
1 
1 
1 
1 
1 
1 
1 
1 
1 
1 
1 
1 
1 
1 
1 
1 
1 
1 
1 
1 
1 
1 
1 
1 
1 
1 
1 
1 
1 
1 
1 
1 
1 
1 
1 
1 
1 
1 
1 
1 
1 
1 
1 
1 
1 
1 
1 
1 
1 
1 
1 
1 
1 
1 
1 
1 
1 
1 
1 
1 
1 
1 
1 
1 
1 
1 
1 
1 
1 
1 
1 
1 
1 
1 
1 
1 
1 
1 
1 
1 
1 
1 
1 
1 
1 
1 
1 
1 
1 
1 
1 
1 
1 
1 
1 
1 
1 
1 
1 
1 
1 
1 
1 
1 
1 
1 
1 
1 
1 
1 
1 
1 
1 
1 
1 
1 
1 
1 
1 
1 
1 
1 
1 
1 
1 
1 
1 
1 
1 
1 
1 
1 
1 
1 
1 
1 
1 
1 
1 
1 
1 
1 
1 
1 
1 
1 
1 
1 
1 
1 
1 
1 
1 
1 
1 
1 
1 
1 
1 
1 
1 
1 
1 
1 
1 
1 
1 
1 
1 
1 
1 
1 
1 
1 
1 
1 
1 
1 
1 
1 
1 
1 
1 
1 
1 
1 
1 
1 
1 
1 
1 
1 
1 
1 
1 
1 
1 
1 
1 
1 
1 
1 
1 
1 
1 
1 
1 
1 
1 
1 
1 
1 
1 
1 
1 
1 
1 
1 
1 
1 
1 
1 
1 
1 
1 
1 
1 
1 
1 
1 
1 
1 
1 
1 
1 
1 
1 
1 
1 
1 
1 
1 
1 
1 
1 
1 
1 
1 
1 
1 
1 
1 
1 
1 
1 
1 
1 
1 
1 
1 
1 
1 
1 
1 
1 
1 
1 
1 
1 
1 
1 
1 
1 
1 
1 
1 
1 
1 
1 
1 
1 
1 
1 
1 
1 
1 
1 
1 
1 
1 
1 
1 
1 
1 
1 
1 
1 
1 
1 
1 
1 
1 
1 
1 
1 
1 
1 
1 
1 
1 
1 
1 
1 
1 
1 
1 
1 
1 
1 
1 
1 
1 
1 
1 
1 
1 
1 
1 
1 
1 
1 
1 
1 
1 
1 
1 
1 
1 
1 
1 
1 
1 
1 
1 
1 
1 
1 
1 
1 
1 
1 
1 
1 
1 
1 
1 
1 
1 
1 
1 
1 
1 
1 
1 
1 
1 
1 
1 
1 
1 
1 
1 
1 
1 
1 
1 
1 
1 
1 
1 
1 
1 
1 
1 
1 
1 
1 
1 
1 
1 
1 
1 
1 
1 
1 
1 
1 
1 
1 
1 
1 
1 
1 
1 
1 
1 
1 
1 
1 
1 
1 
1 
1 
1 
1 
1 
1 
1 
1 
1 
1 
1 
1 
1 
1 
1 
1 
1 
1 
1 
1 
1 
1 
1 
1 
1 
1 
1 
1 
1 
1 
1 
1 
1 
1 
1 
1 
1 
1 
1 
1 
1 
1 
1 
1 
1 
1 
1 
1 
1 
1 
1 
1 
1 
1 
1 
1 
1 
1 
1 
1 
1 
1 
1 
1 
1 
1 
1 
1 
1 
1 
1 
1 
1 
1 
1 
1 
1 
1 
1 
1 
1 
1 
1 
1 
1 
1 
1 
1 
1 
1 
1 
1 
1 
1 
1 
1 
1 
1 
1 
1 
1 
1 
1 
1 
1 
1 
1 
1 
1 
1 
1 
1 
1 
1 
1 
1 
1 
1 
1 
1 
1 
1 
1 
1 
1 
1 
1 
1 
1 
1 
1 
1 
1 
1 
1 
1 
1 
1 
1 
1 
1 
1 
1 
1 
1 
1 
1 
1 
1 
1 
1 
1 
1 
1 
1 
1 
1 
1 
1 
1 
1 
1 
1 
1 
1 
1 
1 
1 
1 
1 
1 
1 
1 
1 
1 
1 
1 
1 
1 
1 
1 
1 
1 
1 
POINT_DATA 5000
VECTORS Stress float
891.841 -409.796 0.
-634.466 -1074.4 0.
-631.635 -1067.46 0.
-363.984 -943.178 0.
-337.78 -882.843 0.
-311.576 -822.508 0.
449.763 -607.542 0.
271.955 -1022.57 0.
94.1469 -1437.59 0.
-476.106 -1747.44 0.
-432.122 -1644.84 0.
-388.138 -1542.24 0.
-663.71 -1464.28 0.
-550.328 -1199.82 0.
-885.644 -1120.29 0.
-747.555 -797.757 0.
-609.466 -475.223 0.
225.319 -117.273 0.
-77.8776 -825.064 0.
-381.075 -1532.86 0.
-701.537 -1829.33 0.
-596.898 -1584.93 0.
-492.26 -1340.54 0.
-483.771 -1097.28 0.
-350.635 -786.852 0.
-89.0297 -421.371 0.
-1655.15 -836.149 0.
-1520.24 -520.944 0.
-1185.64 -258.16 0.
-1400.97 -760.811 0.
-1616.31 -1263.46 0.
-866.833 -1105.04 0.
-783.648 -910.435 0.
-700.464 -715.83 0.
-1250.75 -1183.21 0.
-1482.73 -1723.91 0.
-1714.71 -2264.61 0.
-2227.23 -2257.4 0.
-2056.58 -1859.19 0.
-3317.8 -2043.47 0.
-2983.02 -1263.04 0.
-2648.25 -482.609 0.
-4004.02 -553.647 0.
-3887.49 -280.693 0.
-3770.96 -7.73857 0.
-5637.86 -1389.89 0.
-6310.31 -2957.79 0.
-6982.75 -4525.7 0.
26913.4 11391.7 0.
28108.4 14183.2 0.
-203117 -82635.3 0.
28773.1 14486 0.
27588.5 11718.2 0.
-7019.84 -4553.57 0.
-6500.38 -3342.31 0.
-5980.92 -2131.04 0.
-4080.65 -799.624 0.
-4091.35 -824.549 0.
-4102.05 -849.474 0.
-2928.07 -431.486 0.
-2983.03 -559.69 0.
-3038 -687.894 0.
-2970.02 -808.282 0.
-3051.75 -998.705 0.
-835.171 -271.676 0.
-1189.79 -1099.33 0.
-1544.4 -1926.98 0.
-723.228 -1845.45 0.
-475.663 -1268 0.
-228.097 -690.549 0.
-795.618 -675.183 0.
-740.687 -546.824 0.
-685.757 -418.465 0.
-1595.86 -554.617 0.
-1442.42 -196.616 0.
-12.7266 685.001 0.
-322.764 -107.284 0.
-668.807 -914.99 0.
-29.3683 -1182.52 0.
-129.681 -1416.58 0.
-229.994 -1650.64 0.
-449.259 -1685.69 0.
-266.49 -1258.53 0.
-83.7221 -831.378 0.
-783.709 -871.87 0.
-674.272 -615.706 0.
-564.835 -359.542 0.
-890.442 -752.569 0.
-1042.62 -1108.65 0.
-32.0095 -902.148 0.
54.29 -700.894 0.
140.59 -499.64 0.
-191.805 -596.932 0.
-274.414 -790.554 0.
-357.023 -984.175 0.
147.874 -863.875 0.
120.91 -926.732 0.
93.9473 -989.588 0.
-259.506 -1232.88 0.
-316.356 -1364.22 0.
149.142 -698.518 0.
-478.463 -979.083 0.
-475.973 -972.263 0.
-340.283 -899.76 0.
-313.649 -840.037 0.
-287.015 -780.314 0.
299.099 -640.503 0.
121.487 -1055.35 0.
-56.1246 -1470.2 0.
-201.523 -1599.14 0.
-157.537 -1496.59 0.
-113.552 -1394.03 0.
-710.596 -1452.58 0.
-597.189 -1188.26 0.
-747.77 -1030.68 0.
-609.818 -707.814 0.
-471.866 -384.948 0.
-332.625 -325.703 0.
-635.473 -1033.35 0.
-938.322 -1740.99 0.
218.908 -1404.64 0.
323.478 -1159.92 0.
428.047 -915.211 0.
-928.049 -1255.61 0.
-794.929 -945.667 0.
-992.508 -777.454 0.
-1573.17 -769.563 0.
-1438.65 -454.392 0.
-964.806 -132.659 0.
-1180.01 -635.391 0.
-1395.22 -1138.12 0.
-1235.37 -1231.71 0.
-1152.43 -1036.67 0.
-1069.49 -841.62 0.
-959.877 -1028.28 0.
-1192.22 -1568.64 0.
-1424.56 -2109.01 0.
-2089.1 -2167.36 0.
-1918.39 -1768.95 0.
-2745.41 -1765.11 0.
-2410.06 -984.75 0.
-2074.7 -204.392 0.
-3534.27 -322.313 0.
-3418.26 -48.4717 0.
-3302.26 225.37 0.
-3673.42 -521.395 0.
-4347.55 -2090.95 0.
-5021.68 -3660.5 0.
23587 10003.5 0.
24777.1 12789.9 0.
-173361 -69850.9 0.
25172.6 12977.3 0.
23993.4 10214.7 0.
-4798.46 -3573.93 0.
-4277.73 -2361.31 0.
-3757 -1148.69 0.
-3472.79 -507.804 0.
-3483.6 -532.898 0.
-3494.42 -557.993 0.
-2506.76 -220.518 0.
-2561.69 -348.544 0.
-2616.63 -476.569 0.
-2868.95 -732.609 0.
-2950.92 -923.012 0.
-783.622 -218.316 0.
-1138.1 -1046.09 0.
-1492.58 -1873.87 0.
-262.067 -1616.1 0.
-14.3019 -1038.59 0.
233.464 -461.069 0.
-727.831 -614.714 0.
-673.066 -486.367 0.
-618.302 -358.019 0.
-1756.3 -592.884 0.
-1602.89 -234.982 0.
-837.355 364.178 0.
-1072.17 -395.747 0.
-1417.87 -1203.19 0.
1123.1 -657.226 0.
1022.71 -891.479 0.
922.31 -1125.73 0.
-538.331 -1692.35 0.
-355.99 -1264.81 0.
-173.651 -837.262 0.
-1054.14 -958.025 0.
-945.312 -701.655 0.
-836.483 -445.286 0.
-700.23 -639.784 0.
-851.883 -996.671 0.
-139.338 -918.18 0.
-53.0385 -717.148 0.
33.2613 -516.116 0.
-83.9269 -518.351 0.
-166.149 -712.804 0.
-248.372 -907.256 0.
-37.553 -911.023 0.
-64.5733 -973.898 0.
-91.5937 -1036.77 0.
-33.1045 -1104.09 0.
-90.6259 -1234.38 0.
-592.092 -987.642 0.
-270.64 -760.262 0.
-101.769 -365.86 0.
-459.592 -1198.88 0.
-225.389 -651.088 0.
-609.605 -1546.28 0.
-1248.08 -3936.04 0.
-1040.8 -3452.71 0.
-2864.91 -7709.3 0.
-4599.13 -12351.1 0.
-1497.92 -5115.98 0.
-1487.87 -5093.54 0.
-2411.95 -5302.58 0.
-2909.13 -6459.1 0.
-4470.06 -9956.52 0.
-1801.34 -3727.4 0.
-2117.27 -4462.47 0.
-2690.12 -4739.13 0.
-2703.85 -4771.55 0.
-5422.29 -11115 0.
-14693 -37921.8 0.
-3101.16 -10872.4 0.
-2014.93 -8336.09 0.
-3499.19 -6379.17 0.
-2910.13 -5004.07 0.
-3876.75 -7315.14 0.
-3317.2 -4960.3 0.
-3239.98 -4780.01 0.
-2356.09 -3776.68 0.
-2334.9 -3724.37 0.
-3504.79 -6451.2 0.
-7279.96 -14610 0.
-4049.43 -7073.25 0.
-3955.54 -6855.35 0.
-3167.3 -6691.94 0.
-3809.04 -8193.77 0.
-12096.3 -27535.2 0.
-12204.6 -26003.5 0.
-8098.69 -16423.7 0.
-7172.54 -13158.1 0.
-5187.87 -8527.82 0.
-5332.38 -8865.7 0.
-5760.36 -6384.83 0.
-4670.81 -3846.01 0.
-4751.53 -4037.78 0.
-3996.56 -4982.73 0.
-4581.22 -6344.97 0.
-13744.8 -27724.7 0.
17847.1 2985 0.
18457.4 4426.98 0.
-138156 -64802 0.
18321.2 3890.54 0.
17374 1660.8 0.
-13023.3 -26973.8 0.
-4815.34 -7823.9 0.
-5281.88 -8914.49 0.
-6238.08 -8092.37 0.
-5561.13 -6511.6 0.
-6563.61 -8849.47 0.
-5340.86 -7617.19 0.
-4123.88 -4778.29 0.
-4223.97 -5012.56 0.
-4284.8 -4190.07 0.
-4472.37 -4628.34 0.
-4163.14 -8173.55 0.
-4053.69 -7918.16 0.
-6478.84 -13576.8 0.
-15784.8 -38684.1 0.
-3903.81 -10961.7 0.
-3517.68 -10060.5 0.
-4170.59 -8744.96 0.
-3583.63 -7377.03 0.
-5388.79 -11590.7 0.
-3306.54 -3873.75 0.
-2940.06 -3017.97 0.
-3414.64 -4193.82 0.
-2673 -2678.64 0.
-3523.91 -4661.77 0.
-7575.41 -23117.9 0.
-7518.25 -22984 0.
-16568 -44099.5 0.
-12203.9 -28710.3 0.
-5887.48 -13971.6 0.
-5473.03 -13004 0.
-2935.06 -4800.94 0.
-1886.72 -2357.1 0.
-2580.1 -3977.26 0.
-1863.13 -3679.79 0.
-2064.33 -4148.54 0.
-3172.77 -7774.88 0.
-998.06 -2697.79 0.
-939.349 -2558.37 0.
-1033.13 -2911.6 0.
-818.169 -2408.87 0.
-1705.58 -4478.32 0.
-1045.82 -2884.56 0.
-301.62 -1146.43 0.
-200.894 -909.766 0.
27.0729 -1358.22 0.
-958.736 -3660.8 0.
-45.7786 16.0481 0.
-144.461 153.101 0.
-81.093 301.715 0.
297.88 547.871 0.
268.063 481.729 0.
238.246 415.588 0.
708.737 806.64 0.
981.779 1443.95 0.
1254.82 2081.27 0.
1591.83 2442.2 0.
1619.98 2506.14 0.
1648.13 2570.09 0.
914.087 2241.36 0.
898.797 2208.01 0.
950.618 2170.22 0.
747.154 1698.22 0.
543.69 1226.23 0.
94.1858 1238.68 0.
867.297 3041.7 0.
1640.41 4844.72 0.
3064.16 5777.3 0.
2714.95 4961.09 0.
2365.73 4144.88 0.
865.363 2957.29 0.
597.827 2333.51 0.
880.208 1945.35 0.
-297.969 1152.41 0.
-444.877 809.486 0.
-110.415 888.707 0.
282.178 1807.76 0.
674.77 2726.82 0.
311.222 2850.63 0.
137.926 2446.25 0.
-35.369 2041.88 0.
869.15 3190.37 0.
1577.7 4840.7 0.
2286.26 6491.04 0.
1462.54 6084.95 0.
1326.65 5767.51 0.
1315.64 5416.25 0.
749.888 4096.82 0.
184.137 2777.4 0.
-931.144 1414.29 0.
-1182.03 827.237 0.
-1432.91 240.182 0.
-535.121 482.735 0.
-470.829 632.796 0.
-406.532 782.859 0.
16905.2 8811.58 0.
17305.2 9762.5 0.
-75069.5 -29046.9 0.
17411.8 9769.61 0.
16993.2 8771.88 0.
54.3298 995.159 0.
264.987 1483.58 0.
475.641 1972 0.
-903.828 1649.85 0.
-842.039 1795.28 0.
-780.249 1940.7 0.
-707.611 1901.59 0.
-791.837 1704.61 0.
-876.061 1507.64 0.
-1106.5 1396.41 0.
-1103.05 1402.93 0.
228.52 2156.89 0.
947.312 3833.18 0.
1666.1 5509.47 0.
2876.1 6562.63 0.
2347.86 5328.87 0.
1819.62 4095.11 0.
1095.47 3370.26 0.
1109.23 3400.09 0.
1122.99 3429.93 0.
248.087 2478.35 0.
-136.17 1584.9 0.
-543.765 722.189 0.
54.6086 2279.13 0.
736.588 3871.9 0.
3794.11 6368.01 0.
4231.02 7387.17 0.
4667.92 8406.33 0.
2898.01 7426.91 0.
2146.6 5672.96 0.
1395.19 3919.02 0.
615.951 2641.15 0.
238.78 1759.48 0.
-138.39 877.817 0.
587.12 1243.51 0.
649.738 1391.12 0.
690.306 1439.66 0.
428.899 832.174 0.
167.492 224.685 0.
392.39 89.3112 0.
508.095 361.384 0.
623.8 633.458 0.
295.731 426.259 0.
153.829 97.931 0.
11.9268 -230.397 0.
604.371 193.254 0.
749.624 530.597 0.
113.473 116.499 0.
-452.924 52.3383 0.
-389.764 200.859 0.
325.328 591.199 0.
294.685 525.256 0.
264.042 459.313 0.
632.125 804.66 0.
904.935 1441.98 0.
1177.74 2079.29 0.
1426.01 2403.04 0.
1454.45 2466.93 0.
1482.89 2530.83 0.
1044.43 2328.67 0.
1029.51 2294.95 0.
1240.93 2326.13 0.
1037.24 1854.24 0.
833.552 1382.35 0.
383.164 1394.07 0.
1156.64 3197.43 0.
1930.12 5000.79 0.
1891.86 5307.68 0.
1543.87 4491.18 0.
1195.88 3674.68 0.
1327.38 3187.82 0.
1059.72 2563.62 0.
1488.02 2237.6 0.
207.863 1400.51 0.
60.9686 1057.38 0.
207.846 1056.83 0.
600.454 1976.02 0.
993.062 2895.2 0.
459.774 2945.11 0.
286.18 2541.18 0.
112.587 2137.26 0.
641.344 3122.72 0.
1349.29 4773.13 0.
2057.23 6423.54 0.
1375.7 6080.71 0.
1239.71 5763.35 0.
1978.68 5731.89 0.
1412.35 4412.47 0.
846.03 3093.05 0.
905.892 2231.67 0.
654.218 1644.55 0.
402.549 1057.43 0.
850.36 1104.31 0.
915.288 1253.93 0.
980.22 1403.56 0.
12711.7 7050.88 0.
13110.3 7998.39 0.
-29909.7 -9661.33 0.
13228.8 8010.18 0.
12812.1 7015.67 0.
1405.45 1602.29 0.
1616.78 2091.16 0.
1828.1 2580.02 0.
532.378 2296.62 0.
594.188 2442.13 0.
655.997 2587.65 0.
-13.115 2229.92 0.
-97.4503 2032.96 0.
-181.784 1836.01 0.
-128.362 1849.17 0.
-124.569 1855.57 0.
201.048 2176.02 0.
920.156 3852.15 0.
1639.27 5528.29 0.
1997.9 6218.24 0.
1470.38 4984.77 0.
942.866 3751.31 0.
1202.73 3448.29 0.
1216.62 3477.79 0.
1230.52 3507.3 0.
1285.32 2956.53 0.
900.007 2063.1 0.
182.251 1062.76 0.
808.822 2632.29 0.
1491.51 4225.88 0.
2259.31 5743.88 0.
2696.18 6762.11 0.
3133.06 7780.34 0.
2443.66 7266.26 0.
1692.83 5512.53 0.
941.987 3758.8 0.
1074.13 2866.63 0.
696.599 1984.81 0.
319.073 1102.99 0.
1021.1 1462.18 0.
1083.36 1609.81 0.
600.612 1430.72 0.
339.137 823.135 0.
77.6627 215.553 0.
580.381 202.669 0.
695.792 474.952 0.
811.203 747.236 0.
217.212 423.667 0.
74.9191 95.5437 0.
-67.3735 -232.579 0.
514.169 187.406 0.
659.244 525.086 0.
144.884 -250.933 0.
-855.842 -881.751 0.
-942.39 -1084.19 0.
-375.14 -968.627 0.
-357.495 -927.963 0.
-339.85 -887.3 0.
-108.047 -825.599 0.
-179.968 -992.695 0.
-251.89 -1159.79 0.
-102.02 -1059.42 0.
-30.0303 -889.308 0.
41.9592 -719.2 0.
-388.137 -1013.04 0.
-467.091 -1196.97 0.
-224.594 -1208.14 0.
-96.9852 -910.371 0.
30.6236 -612.603 0.
-296.102 -773.582 0.
-613.176 -1506.66 0.
-930.248 -2239.74 0.
-1734.74 -2591.32 0.
-1466.21 -1965.78 0.
-1197.68 -1340.23 0.
-303.358 -816.313 0.
-287.379 -783.874 0.
244.474 -530.247 0.
-484.97 -739.495 0.
-428.38 -609.49 0.
-472.265 -606.056 0.
-620.714 -952.964 0.
-769.164 -1299.87 0.
-1237.28 -1449.27 0.
-974.307 -843.061 0.
-711.335 -236.845 0.
-997.565 -801.394 0.
-1493.9 -1961.63 0.
-1990.23 -3121.86 0.
-2272.2 -3163.75 0.
-2152.2 -2886.09 0.
-1073.04 -2203.76 0.
-983.127 -1998.76 0.
-893.21 -1793.76 0.
201.753 -1322.6 0.
11.7817 -1766.69 0.
-178.189 -2210.77 0.
322.231 -1713.7 0.
757.017 -697.985 0.
1191.8 317.732 0.
7552.89 1321.68 0.
6244.29 -1715.86 0.
-1192.56 -7379.67 0.
6257.48 -1866.93 0.
7483.62 978.517 0.
1311.23 -47.5001 0.
938.642 -905.377 0.
566.059 -1763.25 0.
-762.722 -2585.06 0.
-614.99 -2242.57 0.
-467.257 -1900.07 0.
-1359.19 -2085.33 0.
-1281.98 -1899.92 0.
-1204.76 -1714.5 0.
-1078.76 -1520.46 0.
-1007.36 -1352.65 0.
-1183.08 -1336.37 0.
-1303.75 -1615.72 0.
-1424.41 -1895.07 0.
-1649.31 -2031.04 0.
-1480.69 -1635.18 0.
-1312.08 -1239.32 0.
-669.112 -931.24 0.
-763.15 -1149.88 0.
-857.189 -1368.51 0.
-99.8409 -922.793 0.
6.77471 -681.256 0.
-285.897 -614.664 0.
-454.529 -931.109 0.
-584.896 -1231.15 0.
-1431.76 -1877.48 0.
-1645.13 -2372.11 0.
-1858.5 -2866.73 0.
-1831.33 -2824.3 0.
-1553.4 -2174.6 0.
-1275.47 -1524.91 0.
-333.796 -889.709 0.
-283.021 -773.749 0.
-232.246 -657.789 0.
167.279 -562.837 0.
118.944 -671.605 0.
-420.26 -954.105 0.
-349.506 -786.429 0.
-278.751 -618.753 0.
332.48 -359.18 0.
201.989 -659.086 0.
71.4976 -958.992 0.
-444.76 -1138.32 0.
-316.331 -842.362 0.
-187.902 -546.406 0.
69.5829 -566.052 0.
-47.9363 -834.816 0.
465.896 -84.23 0.
-522.626 -707.457 0.
-609.697 -909.651 0.
-447.082 -970.273 0.
-429.209 -930.028 0.
-411.336 -889.782 0.
-110.924 -794.967 0.
-183.257 -962.527 0.
-255.59 -1130.09 0.
-16.3321 -992.617 0.
55.8388 -823.025 0.
128.009 -653.433 0.
-498.208 -1029.87 0.
-577.288 -1214.03 0.
-348.465 -1230.51 0.
-221.133 -932.643 0.
-93.8011 -634.774 0.
42.1418 -597.006 0.
-274.434 -1331.19 0.
-591.009 -2065.38 0.
-1156.75 -2311.12 0.
-887.722 -1685.68 0.
-618.697 -1060.24 0.
-511.485 -875.749 0.
-495.563 -843.124 0.
-1004.62 -1035.53 0.
-418.511 -680.854 0.
-362.563 -550.678 0.
-668.438 -659.537 0.
-817.172 -1006.03 0.
-965.905 -1352.52 0.
-895.314 -1272.71 0.
-633.148 -665.674 0.
-370.982 -58.6353 0.
-660.073 -628.961 0.
-1156.78 -1788.91 0.
-1653.49 -2948.85 0.
-1412.73 -2765.98 0.
-1292.66 -2488.34 0.
-824.49 -2066.01 0.
-734.659 -1861.21 0.
-644.828 -1656.41 0.
412.334 -1202.88 0.
222.523 -1647.56 0.
32.7118 -2092.25 0.
621.516 -1554.25 0.
1057.18 -539.167 0.
1492.84 475.914 0.
5104.2 300.528 0.
3800.53 -2733.58 0.
-1728.92 -7579.48 0.
3736.27 -2919.17 0.
4958.52 -77.4932 0.
1479.38 58.1488 0.
1106.92 -799.845 0.
734.456 -1657.83 0.
-206.805 -2318.2 0.
-59.6213 -1974.96 0.
87.5624 -1631.72 0.
-784.137 -1809.66 0.
-707.118 -1623.97 0.
-630.097 -1438.28 0.
-820.331 -1379.04 0.
-748.761 -1211.62 0.
-835.741 -1157.6 0.
-956.806 -1436.93 0.
-1077.87 -1716.25 0.
-1049.21 -1741.77 0.
-880.082 -1346.12 0.
-710.95 -950.471 0.
-728.424 -926.234 0.
-822.226 -1145.01 0.
-916.028 -1363.79 0.
-405.264 -1022.18 0.
-299.24 -779.808 0.
-331.655 -603.561 0.
-512.066 -925.376 0.
-641.995 -1225.56 0.
-958.994 -1644.99 0.
-1172.06 -2139.51 0.
-1385.13 -2634.03 0.
-1260.24 -2549.57 0.
-981.794 -1899.71 0.
-703.351 -1249.85 0.
-267.53 -830.828 0.
-216.651 -714.842 0.
-165.772 -598.856 0.
-223.993 -699.767 0.
-271.597 -809.254 0.
-292.81 -868.698 0.
-221.92 -701.41 0.
-151.029 -534.122 0.
152.395 -404.949 0.
22.32 -705.27 0.
-107.754 -1005.59 0.
-304.927 -1049.12 0.
-177.29 -752.538 0.
-49.6535 -455.956 0.
-110.088 -610.714 0.
-228.458 -879.489 0.
642.017 -202.983 0.
-0.356616 -98.124 0.
-17.9026 -136.305 0.
-426.007 -760.91 0.
-253.392 -358.44 0.
-172.139 -169.128 0.
-458.851 -1565.21 0.
449.112 553.949 0.
367.251 363.109 0.
291.597 -419.663 0.
-93.5144 -1316.17 0.
335.832 -312.298 0.
-223.683 -147.041 0.
-286.589 -297.772 0.
-306.547 -862.809 0.
-19.648 -198.12 0.
-409.865 -1113.38 0.
-216.581 -1793.87 0.
12.5874 -1260.46 0.
469.296 -196.151 0.
186.001 -243.922 0.
129.188 -376.622 0.
85.554 -478.612 0.
-502.683 -440.488 0.
-706.359 -914.154 0.
-523.757 -377.171 0.
-65.9334 53.0752 0.
-353.292 -625.89 0.
-749.751 -443.986 0.
-376.816 420.358 0.
-91.0808 1081.26 0.
-857.322 -1804.54 0.
-444.314 -843.323 0.
17.0927 230.901 0.
139.718 625.906 0.
-739.297 -1422.22 0.
-1442.75 -3060.79 0.
-511.126 -2248.06 0.
-107.721 -1302.63 0.
-432.751 -1623.02 0.
-398.193 -1538.03 0.
-159.383 -976.546 0.
641.439 -1036.63 0.
484.601 -1402.7 0.
1167.22 189.859 0.
1582.45 157.124 0.
1292.4 -516.885 0.
1561.15 112.901 0.
2726.82 -587.012 0.
3301.38 758.414 0.
-2486.95 -2677.05 0.
3092.36 375.365 0.
2933.65 4.25608 0.
1339.94 -532.697 0.
861.297 -1655.26 0.
396.372 -2745.79 0.
986.707 -549.786 0.
1558.17 780.882 0.
1489.83 618.666 0.
25.4564 -980.913 0.
-302.015 -1750.03 0.
940.386 1143.99 0.
4.70015 88.5068 0.
-800.137 -1784.35 0.
-787.785 -1664.19 0.
231.276 709.733 0.
-287.321 -504.236 0.
-184.507 -820.733 0.
-298.276 -1085.83 0.
-105.009 -634.465 0.
-946.834 -1300.42 0.
-27.3436 845.754 0.
-93.8572 691.31 0.
-725.428 -1160.15 0.
-987.301 -1769.63 0.
42.5069 -61.0438 0.
-473.677 -707.408 0.
-764.066 -1386.82 0.
226.565 267.246 0.
-277.796 -908.118 0.
-291.107 -937.632 0.
-62.2958 -797.078 0.
98.5054 -418.836 0.
221.533 -128.67 0.
-437.302 -1331.96 0.
-461.817 -1386.82 0.
-911.204 -2433.1 0.
-643.045 -893.894 0.
-219.609 91.4341 0.
492.937 747.598 0.
349.366 406.296 0.
187.298 21.6733 0.
58.8372 -241.57 0.
119.008 -101.328 0.
663.751 1169.59 0.
354.972 256.504 0.
163.899 -191.263 0.
80.7035 -387.276 0.
178.723 428.611 0.
-197.681 -454.003 0.
-157.214 -602.28 0.
-124.898 -463.379 0.
-54.8762 -298.581 0.
-37.3974 -191.598 0.
-74.7585 -278.985 0.
-112.12 -366.371 0.
-96.088 -470.76 0.
-177.831 -659.103 0.
-259.574 -847.446 0.
4.02001 -809.531 0.
-18.0929 -859.946 0.
-40.2062 -910.361 0.
-315.442 -975.793 0.
-277.781 -891.24 0.
-353.729 -863.712 0.
-349.122 -855.575 0.
-344.516 -847.437 0.
179.794 -661.47 0.
92.4787 -866.112 0.
5.1638 -1070.75 0.
-258.117 -1326.68 0.
-321.425 -1475.18 0.
-384.733 -1623.68 0.
-848.306 -1557.3 0.
-644.798 -1081.69 0.
-445.994 -607.935 0.
-509.874 -597.411 0.
-486.862 -550.768 0.
-617.596 -624.521 0.
-723.166 -874.784 0.
-828.737 -1125.05 0.
-359.599 -1051.52 0.
-374.017 -1087.12 0.
-388.434 -1122.72 0.
-467.199 -1029.03 0.
-360.715 -775.99 0.
-254.23 -522.946 0.
48.6828 -742.668 0.
-179.346 -1270.67 0.
-43.658 -1592.66 0.
-40.9689 -1581.94 0.
-38.2789 -1571.21 0.
301.047 -1423.04 0.
299.322 -1427.41 0.
297.596 -1431.79 0.
869.437 -1073.18 0.
977.93 -819.756 0.
1086.42 -566.332 0.
2391 -251.735 0.
2195.28 -704.789 0.
-841.7 -2373.41 0.
2155.99 -718.442 0.
2349.29 -265.714 0.
1110.87 -548.107 0.
1033.89 -732.56 0.
956.913 -917.013 0.
694.867 -1238.67 0.
540.394 -1601.98 0.
385.921 -1965.29 0.
-223.642 -1993.64 0.
34.0221 -1394.81 0.
291.686 -795.976 0.
-564.827 -1104.32 0.
-561.594 -1092.21 0.
-337.358 -1030.01 0.
-487.903 -1384.78 0.
-638.448 -1739.54 0.
-614.311 -1812.34 0.
-461.274 -1455.35 0.
-308.238 -1098.37 0.
-442.632 -958.952 0.
-376.884 -804.304 0.
-311.135 -649.655 0.
-721.469 -812.475 0.
-731.086 -831.308 0.
-469.737 -735.754 0.
-598.78 -976.915 0.
-696.003 -1204.44 0.
-360.735 -1228.71 0.
-421.718 -1369.44 0.
-482.7 -1510.17 0.
-169.896 -1308.53 0.
-20.7983 -957.734 0.
128.299 -606.943 0.
-35.9376 -511.772 0.
21.5031 -375.612 0.
78.9438 -239.451 0.
-595.929 -765.714 0.
-736.053 -1093.68 0.
-186.076 -1089.76 0.
-167.301 -1050.37 0.
-148.525 -1010.99 0.
-323.297 -1023.2 0.
-258.605 -871.857 0.
-193.914 -720.518 0.
-100.903 -605.313 0.
-79.5199 -557.506 0.
-58.137 -509.698 0.
-168.398 -532.612 0.
-154.929 -502.702 0.
-910.843 -895.122 0.
-69.2454 -408.28 0.
1.14868 -243.908 0.
156.584 -76.3893 0.
119.104 -164.008 0.
81.6244 -251.627 0.
-210.514 -489.752 0.
-292.754 -677.554 0.
-374.994 -865.355 0.
-126.018 -832.538 0.
-147.954 -883.391 0.
-169.89 -934.244 0.
23.4849 -800.002 0.
60.9358 -715.105 0.
-394.032 -848.818 0.
-390.12 -840.52 0.
-386.21 -832.223 0.
86.9539 -670.667 0.
-0.485434 -875.355 0.
-87.9248 -1080.04 0.
-217.193 -1277.72 0.
-280.354 -1426.25 0.
-343.515 -1574.79 0.
-668.975 -1449.35 0.
-465.004 -973.905 0.
-279.319 -506.092 0.
-694.516 -644.1 0.
-671.848 -596.914 0.
-345.468 -477.457 0.
-451.964 -727.527 0.
-558.46 -977.597 0.
-128.578 -921.985 0.
-143.373 -957.491 0.
-158.168 -992.996 0.
-325.763 -937.497 0.
-219.878 -684.217 0.
-113.994 -430.937 0.
-38.9513 -748.49 0.
-266.91 -1276.79 0.
433.915 -1355.07 0.
436.46 -1344.78 0.
439.006 -1334.49 0.
103.253 -1477.44 0.
101.701 -1481.37 0.
100.149 -1485.29 0.
658.241 -1132.68 0.
767.486 -879.4 0.
876.73 -626.122 0.
1821.35 -463.702 0.
1626.17 -916.654 0.
-835.703 -2340.78 0.
1597.97 -927.536 0.
1790.46 -474.531 0.
854.699 -627.204 0.
777.412 -811.329 0.
700.126 -995.454 0.
715.851 -1197.78 0.
561.437 -1561.17 0.
407.022 -1924.55 0.
18.4401 -1860.4 0.
275.312 -1260.26 0.
532.182 -660.122 0.
-620.066 -1097.7 0.
-616.466 -1085.74 0.
-101.729 -896.413 0.
-252.086 -1251.14 0.
-402.443 -1605.87 0.
-603.009 -1775.01 0.
-449.852 -1418.1 0.
-296.694 -1061.19 0.
11.9268 -734.101 0.
77.427 -579.295 0.
142.927 -424.489 0.
-882.672 -849.981 0.
-892.974 -868.519 0.
-382.412 -668.501 0.
-595.15 -945.09 0.
-692.539 -1172.22 0.
-278.471 -1162.98 0.
-339.303 -1303.25 0.
-400.134 -1443.52 0.
-17.3079 -1212.14 0.
132.09 -861.251 0.
281.487 -510.359 0.
42.7432 -444.514 0.
100.292 -308.44 0.
157.842 -172.365 0.
-588.646 -730.457 0.
-729.436 -1058.01 0.
-37.6443 -995.433 0.
-19.3111 -955.382 0.
-0.977911 -915.33 0.
-365.679 -1011.67 0.
-301.219 -860.449 0.
-236.758 -709.224 0.
-190.245 -612.03 0.
-168.836 -564.26 0.
-147.428 -516.491 0.
-73.0023 -461.315 0.
-60.4618 -430.776 0.
-740.153 -492.501 0.
-44.2389 -427.744 0.
-174.61 -734.492 0.
-93.9515 -882.59 0.
-45.6827 -771.646 0.
2.58631 -660.701 0.
-437.825 -777.014 0.
-415.057 -727.492 0.
-392.289 -677.969 0.
-21.2718 -669.581 0.
-155.239 -982.611 0.
-289.205 -1295.64 0.
-54.0893 -1173.33 0.
-24.5584 -1098.54 0.
-495.637 -1241.53 0.
-467.982 -1175.72 0.
-440.327 -1109.92 0.
-150.779 -985.269 0.
-206.824 -1114.55 0.
-262.87 -1243.82 0.
-263.388 -1256.04 0.
-227.26 -1173.5 0.
-191.131 -1090.95 0.
-459.955 -1267.4 0.
-513.086 -1390.76 0.
-281.122 -1391.88 0.
-1045.28 -1594.58 0.
-974.105 -1431.43 0.
-491.935 -1128.64 0.
-495.139 -1135.56 0.
-498.343 -1142.48 0.
-206.211 -1120.71 0.
-323.812 -1398.62 0.
-441.413 -1676.53 0.
-596.714 -1889 0.
-650.058 -2013.18 0.
-703.403 -2137.35 0.
-576.506 -2005.95 0.
-527.624 -1889.4 0.
467.876 -1385.2 0.
423.478 -1486.09 0.
379.08 -1586.97 0.
-28.2044 -1711.92 0.
138.722 -1314.16 0.
305.647 -916.405 0.
672.319 -650.033 0.
633.668 -740.901 0.
595.017 -831.769 0.
1427.9 -645.121 0.
1324.97 -889.72 0.
-1287.69 -2209.82 0.
1281.48 -703.631 0.
1495.21 -206.449 0.
882.775 -247.162 0.
650.848 -785.188 0.
418.921 -1323.21 0.
498.44 -1490.76 0.
545.389 -1378.77 0.
592.338 -1266.79 0.
264.411 -1358.4 0.
280.221 -1322.91 0.
296.032 -1287.42 0.
-787.676 -1750.18 0.
-790.302 -1758.5 0.
-358.22 -1559.6 0.
-292.619 -1402.9 0.
-227.019 -1246.19 0.
-352.201 -1276.07 0.
-450.279 -1502.39 0.
-548.357 -1728.7 0.
-248.878 -1622.41 0.
-200.267 -1511.26 0.
-151.656 -1400.11 0.
-1223.52 -1750.67 0.
-1158.55 -1602.88 0.
-517.599 -1209.47 0.
-699.001 -1395.95 0.
-756.002 -1529.14 0.
-393.017 -1472.6 0.
-431.834 -1565.17 0.
-470.651 -1657.74 0.
-97.5234 -1517.38 0.
-76.6399 -1468.1 0.
-55.7564 -1418.81 0.
-279.299 -1322.04 0.
-145.312 -1009.99 0.
-11.325 -697.948 0.
-553.569 -775.382 0.
-479.372 -603.114 0.
289.102 -173.973 0.
214.193 -348.908 0.
139.283 -523.843 0.
-214.054 -759.241 0.
-201.543 -734.276 0.
-189.032 -709.312 0.
-244.384 -671.339 0.
-197.897 -559.026 0.
-151.41 -446.712 0.
50.2692 -279.238 0.
94.0168 -181.33 0.
5.02653 -140.155 0.
24.2345 -367.057 0.
-106.282 -673.891 0.
-22.4826 -820.323 0.
25.8502 -709.397 0.
74.1834 -598.47 0.
-540.415 -789.09 0.
-517.746 -739.509 0.
-495.077 -689.927 0.
224.059 -535.981 0.
89.9752 -848.942 0.
-44.1078 -1161.9 0.
-156.079 -1185.82 0.
-126.234 -1111.38 0.
-269.037 -1113.84 0.
-241.431 -1048.1 0.
-213.826 -982.362 0.
-271.501 -1005.3 0.
-327.483 -1134.87 0.
-383.465 -1264.44 0.
-410.111 -1286.76 0.
-373.645 -1204.44 0.
-337.179 -1122.13 0.
-297.31 -1168.52 0.
-350.299 -1292.26 0.
208.755 -1153.63 0.
-693.434 -1410.7 0.
-621.65 -1248.37 0.
-404.046 -1057.82 0.
-407.515 -1065.02 0.
-410.985 -1072.23 0.
-372.872 -1162.92 0.
-491.264 -1440.45 0.
-609.656 -1717.98 0.
-368.19 -1760.22 0.
-422.756 -1883.81 0.
-477.323 -2007.4 0.
-461.702 -1925.51 0.
-413.322 -1808.58 0.
171.064 -1482.18 0.
126.458 -1583.13 0.
81.8516 -1684.09 0.
99.566 -1626.32 0.
267.255 -1229.08 0.
434.943 -831.848 0.
435.23 -718.981 0.
396.481 -809.691 0.
357.733 -900.401 0.
1261.14 -687.414 0.
1157.32 -931.291 0.
-842.675 -1988.9 0.
852.421 -855.819 0.
1065.23 -358.204 0.
834.722 -236.369 0.
602.622 -774.629 0.
370.523 -1312.89 0.
282.659 -1551.63 0.
329.421 -1440.04 0.
376.182 -1328.46 0.
131.683 -1382.32 0.
147.004 -1346.6 0.
162.325 -1310.88 0.
-416.042 -1559.83 0.
-419.129 -1567.52 0.
-499.16 -1590.65 0.
-433.264 -1433.36 0.
-367.368 -1276.07 0.
-253.037 -1202.91 0.
-351.178 -1428.68 0.
-449.319 -1654.44 0.
-367.901 -1644.02 0.
-319.081 -1533.13 0.
-270.26 -1422.24 0.
-919.715 -1586.43 0.
-854.553 -1438.86 0.
-614.559 -1220.03 0.
-452.399 -1259.21 0.
-509.297 -1392.26 0.
-408.051 -1448.87 0.
-447.02 -1540.67 0.
-485.99 -1632.47 0.
-94.4861 -1486.67 0.
-73.716 -1437.33 0.
-52.9459 -1387.99 0.
-171.491 -1242.53 0.
-37.5277 -930.366 0.
96.435 -618.205 0.
-393.046 -676.862 0.
-319.257 -503.741 0.
111.075 -218.444 0.
36.5671 -393.66 0.
-37.9416 -568.876 0.
-33.9564 -651.703 0.
-22.4058 -625.607 0.
-10.8552 -599.512 0.
-202.742 -623.244 0.
-156.152 -510.915 0.
-109.562 -398.587 0.
99.2092 -228.407 0.
143.527 -130.041 0.
550.078 -250.339 0.
-6.45621 -537.43 0.
610.317 904.72 0.
580.489 475.333 0.
312.441 -147.711 0.
381.607 16.2155 0.
-306.679 -31.148 0.
-257.992 83.4861 0.
7.50741 702.763 0.
1134.96 1159.17 0.
989.539 820.961 0.
673.302 84.2316 0.
37.7046 -518.06 0.
-149.097 -955.6 0.
144.297 -537.325 0.
735.866 841.108 0.
571.853 456.504 0.
296.223 572.565 0.
233.761 427.754 0.
131.572 189.973 0.
284.855 628.273 0.
159.503 334.441 0.
-606.692 -1454.55 0.
118.008 -470.97 0.
569.212 578.347 0.
559.54 160.895 0.
217.527 67.7488 0.
-167.363 -838.104 0.
-191.392 -686.619 0.
223.833 277.17 0.
379.652 635.615 0.
111.938 310.068 0.
-78.744 -135.643 0.
-79.187 -137.064 0.
694.355 330.605 0.
813.132 608.45 0.
466.646 -198.734 0.
852.94 960.599 0.
312.465 -303.971 0.
511.407 -96.0089 0.
456.921 -229.908 0.
656.816 230.018 0.
1006.83 297.629 0.
1233 818.258 0.
1059.88 407.544 0.
313.385 -524.47 0.
561.903 54.0597 0.
691.48 354.825 0.
1830.48 987.535 0.
1928.66 1214.75 0.
-808.746 1719.83 0.
1591.34 1739.7 0.
889.166 100.158 0.
1435.94 1281.33 0.
1071.04 432.168 0.
540.958 -801.762 0.
787.221 76.6265 0.
804.937 120.425 0.
971.457 510.9 0.
517.446 -200.063 0.
597.936 -9.68772 0.
820.54 511.763 0.
488.964 -122.054 0.
571.867 78.2234 0.
134.834 180.844 0.
54.913 -4.44888 0.
117.087 142.139 0.
357.618 70.1259 0.
715.656 902.372 0.
254.847 -176.112 0.
93.3441 -315.058 0.
349.149 281.696 0.
467.928 558.477 0.
112.384 269.054 0.
561.892 1320.9 0.
-438.042 -2.34407 0.
214.007 -138.666 0.
524.503 585.754 0.
1.25308 -427.473 0.
-28.1089 -497.04 0.
84.8697 -234.706 0.
400.998 -317.461 0.
274.491 -605.517 0.
499.083 -74.2425 0.
336.851 -233.951 0.
86.2707 -813.952 0.
583.387 350.212 0.
-58.49 -160.537 0.
186.027 411.499 0.
-189.898 -564.089 0.
40.113 -26.2687 0.
122.137 166.122 0.
123.086 -594.097 0.
576.913 462.739 0.
511.946 308.489 0.
-358.897 -1029.11 0.
31.3858 -121.57 0.
-106.888 -447.153 0.
29.0113 -461.439 0.
31.0383 -453.276 0.
-63.5509 -769.497 0.
-41.568 -714.386 0.
-15.4599 -651.005 0.
122.992 -566.401 0.
74.8093 -675.965 0.
26.6273 -785.529 0.
-574.029 -1084.58 0.
-558.735 -1048.47 0.
-543.441 -1012.35 0.
155.019 -843.393 0.
43.886 -1102.1 0.
-67.248 -1360.81 0.
-281.443 -1403.65 0.
-239.056 -1303.28 0.
-169.194 -1192.27 0.
-152.437 -1153.63 0.
-135.681 -1114.98 0.
-394.573 -1183.83 0.
-355.159 -1091.36 0.
-315.745 -998.892 0.
-304.441 -1012.48 0.
-354.991 -1132.06 0.
-405.542 -1251.64 0.
-292.85 -1326.01 0.
-357.102 -1478.38 0.
-60.8147 -1476.43 0.
-448.565 -1500.25 0.
-368.465 -1318.86 0.
-414.652 -1231.12 0.
-429.037 -1270.63 0.
-443.423 -1310.14 0.
-523.662 -1377.19 0.
-538.821 -1414.63 0.
-553.98 -1452.07 0.
-121.041 -1447.62 0.
-260.209 -1772.32 0.
-399.376 -2097.01 0.
-459.939 -2054.16 0.
-401.014 -1916.32 0.
-95.7942 -1664.65 0.
12.7816 -1415.15 0.
121.358 -1165.66 0.
227.521 -1000.72 0.
195.19 -1080.92 0.
162.858 -1161.12 0.
39.7943 -1242.37 0.
43.6845 -1236.83 0.
47.5748 -1231.29 0.
790.402 -840.24 0.
841.439 -723.562 0.
-1419.9 -1598.47 0.
462.358 -950.171 0.
379.462 -1144.06 0.
320.333 -1307.59 0.
283.156 -1392.42 0.
245.98 -1477.26 0.
-272.67 -1687.02 0.
-214.779 -1551.83 0.
-156.888 -1416.63 0.
115.183 -1339.14 0.
54.6796 -1480.24 0.
-5.82377 -1621.34 0.
-224.789 -1614.69 0.
-163.916 -1468.88 0.
-438.202 -1487.49 0.
-469.485 -1560.55 0.
-500.767 -1633.61 0.
-393.141 -1585.09 0.
-330.154 -1438.9 0.
-267.166 -1292.72 0.
-293.682 -1295.76 0.
-333.838 -1388.97 0.
-373.994 -1482.17 0.
-551.9 -1556.46 0.
-538.376 -1522.2 0.
-551.045 -1499.69 0.
-417.707 -1447.93 0.
-419.683 -1454.1 0.
-375.291 -1433.93 0.
-356.266 -1391.26 0.
-337.242 -1348.6 0.
7.27101 -1192.77 0.
-17.0583 -1240.58 0.
-41.3874 -1288.39 0.
-229.684 -1454.08 0.
-288.13 -1587.56 0.
-346.575 -1721.04 0.
-640.926 -1701.27 0.
-552.391 -1495.07 0.
-286.355 -1205.97 0.
-175.628 -947.908 0.
-64.9006 -689.845 0.
-1.29391 -575.821 0.
-54.6463 -705.656 0.
-107.999 -835.493 0.
-146.551 -820.438 0.
-73.039 -653.158 0.
0.472902 -485.877 0.
-37.3206 -307.548 0.
68.6109 -56.9744 0.
-527.311 -938.948 0.
23.8494 -656.995 0.
50.3676 -593.838 0.
126.942 -531.582 0.
78.4723 -641.206 0.
30.003 -750.829 0.
-331.882 -948.869 0.
-316.466 -913.14 0.
-301.049 -877.411 0.
22.4071 -868.267 0.
-88.2762 -1127.03 0.
-198.96 -1385.79 0.
-192.639 -1334.37 0.
-150.853 -1233.54 0.
-194.625 -1172.86 0.
-177.947 -1134.2 0.
-161.268 -1095.53 0.
-302.381 -1112.49 0.
-263.169 -1020.27 0.
-223.956 -928.059 0.
-146.154 -912.512 0.
-196.171 -1032.07 0.
-246.189 -1151.63 0.
-329.857 -1310.59 0.
-394.709 -1462.39 0.
-65.1272 -1445.51 0.
-425.371 -1461.44 0.
-345.112 -1280.1 0.
-383.85 -1186.04 0.
-398.001 -1225.88 0.
-412.152 -1265.72 0.
-398.372 -1287.86 0.
-412.947 -1326.07 0.
-427.522 -1364.29 0.
-169.317 -1437.13 0.
-308.367 -1761.48 0.
-447.417 -2085.84 0.
-468.457 -2026.55 0.
-410.434 -1887.9 0.
0.47857 -1592.4 0.
108.158 -1342.13 0.
215.839 -1091.86 0.
-30.123 -1082.4 0.
-62.9901 -1162.06 0.
-95.8576 -1241.72 0.
97.592 -1186.29 0.
102.106 -1181.05 0.
106.62 -1175.82 0.
494.407 -934.38 0.
545.633 -818.267 0.
-3707.13 -2546.29 0.
508.262 -898.344 0.
425.197 -1092.78 0.
330.854 -1269.38 0.
294.23 -1354.59 0.
257.606 -1439.8 0.
-627.736 -1807.84 0.
-569.104 -1672.92 0.
-510.47 -1538 0.
236.383 -1256.75 0.
175.984 -1397.8 0.
115.586 -1538.85 0.
-297.397 -1613.03 0.
-236.055 -1467.26 0.
-245.184 -1372.86 0.
-276.548 -1445.94 0.
-307.912 -1519.01 0.
-429.332 -1569.73 0.
-366.431 -1423.42 0.
-303.529 -1277.12 0.
-238.322 -1240.6 0.
-277.819 -1334.17 0.
-317.316 -1427.75 0.
-390.746 -1454.64 0.
-376.884 -1420.38 0.
103.7 -1188.67 0.
-488.635 -1447.57 0.
-490.976 -1453.63 0.
-287.809 -1363.56 0.
-268.933 -1320.87 0.
-250.058 -1278.19 0.
-1.11101 -1166.64 0.
-25.8691 -1214.14 0.
-50.6269 -1261.65 0.
-266.608 -1438.9 0.
-324.613 -1573.18 0.
-382.619 -1707.45 0.
-528.348 -1622.03 0.
-439.242 -1416.01 0.
-50.4671 -1073.25 0.
60.5663 -815.397 0.
171.6 -557.541 0.
-145.994 -605.562 0.
-198.46 -735.865 0.
-250.926 -866.17 0.
20.2387 -718.139 0.
94.1585 -551.06 0.
168.079 -383.981 0.
-182.726 -338.266 0.
-76.4432 -86.9839 0.
-644.345 -650.025 0.
17.2808 -485.104 0.
-28.4035 -592.648 0.
67.7097 -640.807 0.
12.1851 -771.306 0.
-43.339 -901.806 0.
-218.885 -1040.26 0.
-217.611 -1039.47 0.
-216.337 -1038.68 0.
-14.0165 -800.029 0.
108.212 -514.661 0.
230.44 -229.293 0.
82.6887 -463.195 0.
-42.0243 -751.975 0.
-63.3273 -988.606 0.
-125.273 -1131.91 0.
-187.218 -1275.22 0.
-370.203 -1376.18 0.
-278.961 -1163.93 0.
-187.719 -951.667 0.
-45.9222 -816.598 0.
-51.4314 -825.373 0.
-56.9407 -834.148 0.
-301.356 -1046.68 0.
-368.612 -1205.78 0.
227.274 -1080.54 0.
-306.283 -1411.64 0.
-360.697 -1537.06 0.
-617.327 -1690.14 0.
-504.351 -1422.66 0.
-391.376 -1155.18 0.
-211.379 -1020.88 0.
-288.402 -1201.91 0.
-365.426 -1382.93 0.
-181.893 -1298.44 0.
-133.193 -1184.1 0.
-84.4936 -1069.75 0.
-59.6117 -1123 0.
-107.776 -1235.01 0.
120.282 -1226.33 0.
107.153 -1257.88 0.
94.0248 -1289.44 0.
-247.377 -1405.55 0.
-180.827 -1245.14 0.
-114.277 -1084.73 0.
153.349 -909.176 0.
158.337 -893.974 0.
163.325 -878.771 0.
420.142 -892.605 0.
337.96 -1082.86 0.
-5153.97 -3592.36 0.
493.505 -1047.43 0.
559.985 -893.931 0.
373.618 -877.179 0.
364.447 -896.506 0.
355.275 -915.835 0.
-371.19 -1147.55 0.
-278.563 -927.908 0.
-185.937 -708.266 0.
423.861 -575.222 0.
276.34 -915.783 0.
128.82 -1256.34 0.
-264.06 -1408.98 0.
-238.454 -1349 0.
-160.609 -1278.14 0.
-201.601 -1372.19 0.
-242.593 -1466.25 0.
-418.905 -1545.51 0.
-349.996 -1380.81 0.
-281.086 -1216.12 0.
-194.722 -1112.41 0.
-190.809 -1102.08 0.
-186.895 -1091.76 0.
-174.457 -1100.1 0.
-181.193 -1121.88 0.
677.701 -777.38 0.
-416.664 -1261.42 0.
-423.632 -1279.37 0.
-125.469 -1181.89 0.
-183.395 -1311.31 0.
-241.32 -1440.73 0.
-92.5163 -1327.4 0.
30.4531 -1044.49 0.
153.423 -761.572 0.
-82.8277 -930.12 0.
-192.805 -1188.96 0.
-302.783 -1447.81 0.
-307.018 -1211.25 0.
-153.226 -855.22 0.
358.905 -377.64 0.
351.83 -394.162 0.
344.756 -410.685 0.
-268.36 -655.679 0.
-224.311 -553.017 0.
-180.263 -450.356 0.
286.555 -228.592 0.
272.561 -257.227 0.
258.566 -285.862 0.
-351.078 -664.465 0.
-424.376 -838.474 0.
-749.616 -665.2 0.
-203.346 -548.387 0.
-249.756 -655.621 0.
77.6111 -605.648 0.
21.2097 -735.778 0.
-35.1911 -865.909 0.
-48.0652 -934.353 0.
-46.6849 -933.946 0.
-45.3045 -933.538 0.
-8.97148 -766.786 0.
112.943 -481.322 0.
234.858 -195.859 0.
-211.847 -559.075 0.
-336.611 -847.079 0.
105.233 -885.631 0.
43.5655 -1029 0.
-18.102 -1172.36 0.
-315.832 -1321.36 0.
-224.395 -1109.28 0.
-132.959 -897.205 0.
-29.8657 -779.425 0.
-35.3757 -788.41 0.
-40.8859 -797.396 0.
-440.945 -1074.4 0.
-508.164 -1233.44 0.
-374.824 -1306.47 0.
-51.1402 -1272.05 0.
-104.974 -1398.14 0.
-674.611 -1682.9 0.
-561.454 -1415.44 0.
-448.296 -1147.99 0.
-127.77 -950.86 0.
-204.041 -1132.8 0.
-280.313 -1314.74 0.
-279.647 -1307.85 0.
-230.955 -1193.71 0.
-182.263 -1079.57 0.
39.809 -1048.67 0.
-8.03454 -1160.28 0.
-25.182 -1257.95 0.
-38.6158 -1289.25 0.
-52.0492 -1320.56 0.
-162.876 -1339.12 0.
-96.3929 -1179.26 0.
-29.9099 -1019.41 0.
-32.0387 -955.674 0.
-26.9106 -941.402 0.
-21.7823 -927.13 0.
515.491 -818.277 0.
433.969 -1009.45 0.
4297.15 489.624 0.
596.226 -971.173 0.
662.612 -817.552 0.
100.386 -962.147 0.
90.7927 -981.016 0.
81.1984 -999.885 0.
-72.2351 -990.714 0.
19.8277 -770.67 0.
111.89 -550.627 0.
79.5126 -691.931 0.
-68.3601 -1032.2 0.
-216.231 -1372.46 0.
-290.986 -1388.14 0.
-266.098 -1327.91 0.
-215.298 -1271.64 0.
-255.925 -1366.11 0.
-296.551 -1460.58 0.
-350.558 -1483.98 0.
-281.484 -1319.4 0.
-212.411 -1154.82 0.
-244.923 -1103.57 0.
-240.621 -1093.37 0.
-236.318 -1083.18 0.
-135.36 -1050.37 0.
-142.622 -1071.51 0.
742.295 -718.588 0.
-328.219 -1192.97 0.
-335.178 -1211.24 0.
7.24393 -1093.64 0.
-50.0996 -1223.89 0.
-107.443 -1354.14 0.
-97.14 -1298.57 0.
24.7955 -1015.3 0.
146.731 -732.026 0.
-92.0605 -902.653 0.
-202.42 -1162 0.
-312.78 -1421.35 0.
-282.875 -1170.45 0.
-129.447 -814.158 0.
425.491 -318.026 0.
418.805 -334.611 0.
412.119 -351.196 0.
-349.109 -659.421 0.
-304.854 -557.069 0.
-260.599 -454.718 0.
278.062 -200.679 0.
264.313 -229.53 0.
250.563 -258.382 0.
-242.631 -586.085 0.
-316.785 -760.808 0.
-502.663 160.083 0.
-383.661 -530.357 0.
-429.407 -643.092 0.
433.148 248.586 0.
326.033 -5.68971 0.
651.193 749.966 0.
136.252 -790.68 0.
291.192 -430.353 0.
434.012 -98.9855 0.
-41.7498 -819.617 0.
227.392 -193.112 0.
308.331 -5.27831 0.
-380.969 -364.397 0.
-177.657 112.235 0.
1001.84 919.605 0.
296.221 -729.164 0.
466.702 -333.23 0.
231.012 -115.046 0.
374.831 220.165 0.
220.677 -139.999 0.
461.05 372.872 0.
475.409 403.308 0.
750.459 1042.49 0.
20.3621 282.656 0.
455.235 1295.48 0.
343.89 523.15 0.
758.232 171.382 0.
1046.86 842.83 0.
217.792 534.9 0.
269.596 658.674 0.
-19.517 -12.9671 0.
680.951 803.174 0.
186.335 -346.876 0.
175.457 -368.344 0.
479.319 687.847 0.
168.825 -37.3095 0.
80.7721 -244.004 0.
1005.8 1064.28 0.
656.391 249.771 0.
358.907 -69.4834 0.
899.603 1189.46 0.
491.129 233.32 0.
873.601 962.779 0.
328.862 -310.567 0.
273.493 -442.062 0.
538.103 770.033 0.
155.165 -128.78 0.
267.933 129.163 0.
862.046 -152.493 0.
1542.18 1435.88 0.
-6337.76 -858.524 0.
1548.1 1091.3 0.
1107.36 64.3812 0.
20.9629 -599.777 0.
658.13 887.759 0.
386.253 253.928 0.
515.078 -144.131 0.
847.703 628.923 0.
444.478 -314.522 0.
-207.871 -677.582 0.
258.057 404.877 0.
-229.325 -737.293 0.
453.498 445.158 0.
673.37 956.025 0.
635.978 847.575 0.
270.233 -4.44009 0.
251.017 -48.2294 0.
449.59 279.449 0.
256.567 -170.864 0.
169.719 -373.799 0.
483.437 724.28 0.
185.47 26.1283 0.
125.97 -115.438 0.
138.391 -461.979 0.
54.5368 -655.639 0.
1058.33 328.856 0.
178.459 -145.075 0.
488.096 581.644 0.
756.662 442.148 0.
643.411 176.446 0.
224.163 -804.098 0.
507.522 147.372 0.
646.62 468.948 0.
554.384 251.03 0.
311.593 86.5582 0.
285.774 29.2563 0.
551.402 651.845 0.
331.548 247.87 0.
15.4711 -484.53 0.
944.69 795.528 0.
771.162 395.854 0.
480.881 -276.835 0.
124.044 603.429 0.
311.985 1044.45 0.
34.3463 399.104 0.
222.256 -280.809 0.
289.32 -126.022 0.
768.009 990.127 0.
424.362 788.192 0.
670.255 1362.72 0.
-794.954 -1435.17 0.
-403.734 -1039.35 0.
-310.729 -824.817 0.
97.9822 -516.06 0.
76.5829 -566.527 0.
55.1846 -616.994 0.
20.7337 -630.101 0.
49.6888 -563.318 0.
78.6431 -496.535 0.
102.58 -531.533 0.
51.2037 -651.094 0.
-0.172627 -770.655 0.
-652.076 -1100.44 0.
-674.601 -1153.87 0.
377.422 -739.968 0.
333.931 -845.425 0.
290.441 -950.883 0.
-215.419 -1325.86 0.
-365.931 -1677.55 0.
-516.443 -2029.24 0.
-706.546 -2010.65 0.
-486.72 -1501.1 0.
-266.894 -991.543 0.
-383.652 -919.077 0.
-364.444 -877.701 0.
-76.1124 -720.893 0.
-39.2967 -961.608 0.
-174.688 -1277.8 0.
-538.392 -1613.4 0.
-487.098 -1491.65 0.
-435.803 -1369.9 0.
-227.053 -1301.89 0.
-324.428 -1526.5 0.
-421.803 -1751.12 0.
-393.639 -1744.03 0.
-348.097 -1638.59 0.
-302.556 -1533.15 0.
-239.153 -1384.03 0.
-169.81 -1222.93 0.
-8.04649 -1044.97 0.
-40.9592 -1125.63 0.
-73.872 -1206.28 0.
-178.678 -1291.15 0.
-172.602 -1279.28 0.
-166.526 -1267.41 0.
-354.092 -1342.14 0.
-354.372 -1349.86 0.
-354.651 -1357.57 0.
424.177 -979.844 0.
457.901 -900.727 0.
-1402.42 -1634.59 0.
438.296 -750.459 0.
487.793 -634.307 0.
-23.1517 -793.315 0.
-70.2759 -903.729 0.
-117.4 -1014.14 0.
-68.6832 -1140.81 0.
-170.514 -1379.71 0.
-272.346 -1618.6 0.
-378.868 -1618.1 0.
-295.483 -1426.44 0.
-212.099 -1234.77 0.
-495.037 -1390.22 0.
-521.558 -1455.49 0.
-179.862 -1344.37 0.
-133.316 -1237.22 0.
-86.7698 -1130.08 0.
-229.791 -1150.22 0.
-251.106 -1201.12 0.
-272.422 -1252.03 0.
-219.024 -1251.46 0.
-220.545 -1258.11 0.
-222.066 -1264.76 0.
-231.503 -1273.24 0.
-233.41 -1274.41 0.
51.6419 -1146.73 0.
-416.665 -1427.04 0.
-460.923 -1525.98 0.
-78.1334 -1391.18 0.
1.80324 -1205.83 0.
81.7399 -1020.49 0.
-24.1335 -1004.5 0.
-45.4879 -1054.25 0.
-66.8421 -1104 0.
19.5861 -956.456 0.
112.795 -735.456 0.
206.004 -514.456 0.
-323.613 -958.114 0.
-463.89 -1281.19 0.
39.317 -1275.4 0.
136.231 -1044.58 0.
233.146 -813.766 0.
-408.523 -958.656 0.
-407.466 -953.262 0.
-406.409 -947.869 0.
-7.09002 -810.43 0.
-35.2137 -876.327 0.
-63.3374 -942.223 0.
-329.512 -841.101 0.
-180.366 -491.781 0.
-299.214 -1191.92 0.
-144.029 -895.835 0.
-52.0987 -680.842 0.
104.1 -484.532 0.
81.4563 -533.982 0.
58.8136 -583.431 0.
-189.222 -689.026 0.
-160.317 -622.153 0.
-131.413 -555.281 0.
142.547 -484.593 0.
90.8733 -603.956 0.
39.1995 -723.319 0.
-581.415 -1039.83 0.
-603.996 -1093.34 0.
502.848 -653.432 0.
459.222 -759.046 0.
415.596 -864.66 0.
-109.514 -1246.75 0.
-260.378 -1597.86 0.
-411.242 -1948.98 0.
-869.87 -2053.43 0.
-651.109 -1543.37 0.
-432.348 -1033.31 0.
-228.369 -819.582 0.
-209.212 -778.775 0.
-619.314 -922.102 0.
-405.384 -1087.29 0.
-540.971 -1403.55 0.
-318.103 -1489.42 0.
-266.997 -1367.45 0.
-215.89 -1245.48 0.
-214.553 -1263.26 0.
-311.277 -1488.22 0.
-408.001 -1713.18 0.
-168.782 -1614.43 0.
-123.55 -1508.38 0.
-78.319 -1402.34 0.
-461.129 -1448.06 0.
-391.879 -1286.57 0.
71.7295 -979.429 0.
39.2406 -1060.18 0.
6.75173 -1140.94 0.
-270.279 -1297.95 0.
-264.376 -1286.2 0.
-258.473 -1274.46 0.
-319.424 -1296.23 0.
-320.007 -1303.6 0.
-320.591 -1310.97 0.
339.868 -985.013 0.
373.225 -905.745 0.
110.301 -954.466 0.
61.2897 -880.039 0.
110.697 -763.627 0.
41.4397 -735.378 0.
-5.81467 -846.182 0.
-53.0688 -956.985 0.
-242.477 -1182.5 0.
-344.38 -1421.79 0.
-446.283 -1661.08 0.
-79.6329 -1459.52 0.
3.76552 -1267.68 0.
87.1637 -1075.85 0.
-679.629 -1437.73 0.
-706.109 -1503.58 0.
-5.40331 -1235.68 0.
41.7564 -1129.31 0.
88.9157 -1022.93 0.
-299.245 -1148.72 0.
-320.066 -1199.58 0.
-340.888 -1250.45 0.
-25.4953 -1137.69 0.
-26.356 -1144.58 0.
-27.2166 -1151.48 0.
-243.561 -1246.76 0.
-245.14 -1247.85 0.
-333.438 -1279.24 0.
-457.013 -1412.88 0.
-500.481 -1512.57 0.
-121.4 -1378.6 0.
-42.0283 -1192.73 0.
37.3431 -1006.87 0.
-56.2948 -987.283 0.
-78.0168 -1037.06 0.
-99.7386 -1086.84 0.
225.129 -836.581 0.
318.621 -616.191 0.
412.113 -395.801 0.
-477.086 -992.708 0.
-616.819 -1316.57 0.
33.9457 -1247.12 0.
130.847 -1016.31 0.
227.748 -785.504 0.
-222.654 -845.974 0.
-221.749 -840.598 0.
-220.845 -835.222 0.
4.61626 -775.836 0.
-23.6909 -841.872 0.
-51.9981 -907.908 0.
-381.032 -832.117 0.
-232.32 -483.213 0.
297.283 -362.8 0.
-79.0998 -803.179 0.
-188.84 -1056.85 0.
-201.669 -1207.2 0.
-149.997 -1086.51 0.
-98.3244 -965.813 0.
-329.363 -1007.29 0.
-330.896 -1008.2 0.
-332.43 -1009.12 0.
-63.8593 -885.973 0.
-53.6648 -862.93 0.
-43.4702 -839.888 0.
-498.848 -1071.49 0.
-526.878 -1132.52 0.
310.617 -816.939 0.
307.492 -819.106 0.
304.367 -821.273 0.
19.6303 -907.978 0.
83.8294 -756.617 0.
148.028 -605.257 0.
-359.662 -839.683 0.
-428.088 -1001.45 0.
-496.515 -1163.21 0.
-237.32 -1016.83 0.
-196.046 -917.44 0.
-51.9602 -773.528 0.
-442.959 -975.453 0.
-461.63 -1019.03 0.
62.281 -861.333 0.
-35.0768 -1089.5 0.
-132.434 -1317.67 0.
-231.783 -1368.92 0.
-115.846 -1098.13 0.
0.0924803 -827.334 0.
119.543 -695.374 0.
126.702 -680.279 0.
133.861 -665.183 0.
-215.669 -969.897 0.
-312.045 -1193.3 0.
-138.25 -1276.29 0.
-107.399 -1200.66 0.
-76.5478 -1125.03 0.
-225.147 -1115.41 0.
-179.29 -1003.51 0.
-133.433 -891.603 0.
-90.3652 -817.707 0.
-73.4115 -777.457 0.
-56.4582 -737.207 0.
414.167 -656.496 0.
331.71 -851.68 0.
-49.509 -1174.26 0.
-213.198 -1206.17 0.
-193.366 -1159.47 0.
-90.2729 -1033.89 0.
32.3542 -748.483 0.
154.981 -463.071 0.
-52.0368 -511.641 0.
-155.997 -753.834 0.
-259.957 -996.027 0.
193.244 -800.325 0.
245.482 -676.556 0.
297.721 -552.787 0.
-494.048 -906.04 0.
-509.863 -937.674 0.
280.59 -624.436 0.
271.582 -644.545 0.
262.574 -664.654 0.
-137.952 -927.802 0.
-258.231 -1205.81 0.
-378.51 -1483.83 0.
-123.493 -1426.89 0.
-88.0996 -1339.91 0.
-52.7062 -1252.93 0.
-198.541 -1207.65 0.
-143.477 -1077.28 0.
41.8955 -907.826 0.
-329.225 -1093.57 0.
-342.805 -1125.61 0.
11.5567 -983.038 0.
22.0329 -955.108 0.
32.5087 -927.178 0.
-119.699 -1021.91 0.
-166.786 -1131.44 0.
-213.873 -1240.97 0.
139.427 -1015.69 0.
217.829 -834.822 0.
296.231 -653.957 0.
-412.071 -944.877 0.
-409.166 -937.288 0.
189.292 -672.397 0.
161.052 -743.007 0.
132.812 -813.617 0.
-211.467 -946.736 0.
-118.691 -735.277 0.
-25.9148 -523.816 0.
127.465 -364.059 0.
143.834 -326.851 0.
160.204 -289.644 0.
-231.284 -458.79 0.
-230.587 -465.65 0.
395.523 -292.745 0.
-227.264 -837.006 0.
-336.682 -1090.98 0.
-155.865 -1155.27 0.
-104.401 -1034.4 0.
-52.938 -913.534 0.
-108.947 -880.162 0.
-109.791 -881.661 0.
-110.636 -883.159 0.
-160.748 -897.639 0.
-150.89 -874.39 0.
-141.031 -851.142 0.
-306.115 -956.517 0.
-334.063 -1018.04 0.
-67.6823 -947.189 0.
-71.4682 -949.403 0.
-75.2536 -951.617 0.
-92.628 -924.384 0.
-27.8634 -773.665 0.
36.9013 -622.945 0.
-187.338 -733.407 0.
-255.989 -895.084 0.
-324.642 -1056.76 0.
-168.511 -955.542 0.
-127.354 -856.323 0.
-62.0122 -746.704 0.
-259.629 -865.546 0.
-278.386 -908.489 0.
149.035 -793.052 0.
51.3165 -1020.73 0.
-46.4012 -1248.41 0.
-149.499 -1304.68 0.
-34.3494 -1033.05 0.
80.8001 -761.416 0.
-308.126 -844.91 0.
-300.509 -830.105 0.
-292.891 -815.299 0.
127.072 -793.368 0.
30.6726 -1016.34 0.
-385.297 -1350.13 0.
-354.886 -1273.92 0.
-324.475 -1197.71 0.
-188.309 -1070.46 0.
-142.709 -957.939 0.
-97.11 -845.422 0.
-35.9912 -760.497 0.
-18.0358 -721.121 0.
-0.0807983 -681.744 0.
364.946 -646.772 0.
282.175 -841.704 0.
790.38 -782.616 0.
-118.866 -1133.57 0.
-99.5986 -1086.68 0.
-129.888 -1018.99 0.
-7.12301 -733.82 0.
115.642 -448.648 0.
-95.1637 -500.351 0.
-199.229 -742.531 0.
-303.295 -984.712 0.
-84.0393 -888.015 0.
-30.946 -765.131 0.
22.1482 -642.246 0.
-392.103 -830.677 0.
-407.92 -862.679 0.
189.311 -630.297 0.
180.861 -650.837 0.
172.41 -671.378 0.
112.935 -788.957 0.
-7.03759 -1067.47 0.
-127.01 -1345.98 0.
-233.623 -1441.81 0.
-198.192 -1354.49 0.
-162.761 -1267.17 0.
-84.2087 -1130.78 0.
-29.3655 -1000.33 0.
433.902 -704.961 0.
-280.313 -1038.48 0.
-293.76 -1071.13 0.
3.43581 -955.273 0.
13.7477 -927.515 0.
24.0591 -899.757 0.
-166.732 -1010.44 0.
-213.675 -1120.49 0.
-260.618 -1230.55 0.
-45.5956 -1063.91 0.
33.2991 -883.421 0.
112.193 -702.93 0.
-128.062 -791.171 0.
-125.219 -783.984 0.
20.5583 -714.372 0.
-7.63489 -784.564 0.
-35.8282 -854.755 0.
-205.774 -913.11 0.
-113.221 -701.566 0.
-20.6671 -490.021 0.
20.3425 -377.394 0.
36.5861 -340.428 0.
52.8295 -303.462 0.
-171.952 -403.099 0.
-171.879 -410.779 0.
816.65 576.649 0.
265.745 617.526 0.
28.9235 61.8518 0.
844.57 1135.86 0.
443.281 195.059 0.
664.655 707.782 0.
460.674 62.3443 0.
479.164 109.159 0.
479.671 113.955 0.
405.346 623.738 0.
302.486 386.736 0.
323.114 438.582 0.
602.559 836.482 0.
772.642 1234.49 0.
298.825 661.964 0.
-178.346 -452.558 0.
50.4175 80.6518 0.
354.547 357.554 0.
673.015 1100.36 0.
563.124 843.427 0.
144.979 -252.014 0.
232.27 -43.7189 0.
225.256 -55.5098 0.
139.44 -342.203 0.
650.958 848.9 0.
615.734 -23.2665 0.
41.8217 -484.984 0.
659.917 961.855 0.
574.367 59.3417 0.
993.75 1041.11 0.
782.565 552.257 0.
261.197 -454.985 0.
1155.71 1630.79 0.
971.634 1199.25 0.
-370.198 -163.222 0.
-398.239 -227.405 0.
-168.953 308.319 0.
767.045 96.9449 0.
537.355 -440.711 0.
-169.75 -341.95 0.
556.416 1356.56 0.
477.005 1175.03 0.
414.367 297.761 0.
117.24 -398.267 0.
429.953 328.737 0.
543.877 523.244 0.
299.555 -48.3547 0.
563.664 566.132 0.
676.537 204.468 0.
733.638 337.679 0.
-2283.34 -864.078 0.
887.26 1060.5 0.
552.674 281.216 0.
440.657 426.977 0.
457.369 465.147 0.
397.208 323.778 0.
272.293 461.648 0.
433.628 840.03 0.
209.978 320.354 0.
189.612 294.327 0.
-259.168 -752.435 0.
193.7 304.338 0.
21.0186 -32.046 0.
305.448 628.232 0.
539.44 376.349 0.
345.904 -68.4985 0.
424.68 122.867 0.
659.127 49.9557 0.
957.012 748.1 0.
602.761 -75.2731 0.
7.66707 -642.377 0.
256.372 -57.76 0.
590.07 725.702 0.
465.029 -45.9786 0.
331.21 -359.927 0.
917.26 1202.27 0.
514.464 752.742 0.
376.995 430.957 0.
639.409 578.005 0.
154.86 -558.461 0.
777.384 888.024 0.
263.172 109.967 0.
445.683 534.775 0.
817.457 1401.06 0.
498 574.901 0.
475.73 523.17 0.
5.15567 -573.223 0.
697.202 627.612 0.
247.702 -418.611 0.
111.81 -164.288 0.
480.86 699.918 0.
198.989 45.1433 0.
-395.053 -1346.29 0.
106.711 -174.956 0.
175.798 -13.2545 0.
-131.271 -489.855 0.
-195.965 -639.248 0.
361.033 660.836 0.
81.6769 99.66 0.
-237.597 -643.309 0.
27.1599 -621.242 0.
-315.689 -749.827 0.
-333.942 -795.49 0.
-23.5987 -674.791 0.
31.9376 -549.665 0.
87.474 -424.539 0.
233.446 -400.949 0.
115.938 -672.894 0.
-1.57042 -944.838 0.
-179.06 -1075 0.
-162.843 -1038.08 0.
-146.626 -1001.17 0.
-144.443 -929.244 0.
-100.606 -827.169 0.
-317.491 -851.17 0.
-342.609 -914.252 0.
-367.727 -977.334 0.
-58.2389 -872.671 0.
-51.9578 -858.864 0.
-45.677 -845.057 0.
-246.562 -997.986 0.
-318.764 -1166.1 0.
-390.965 -1334.22 0.
-384.762 -1296.39 0.
-338.721 -1188.96 0.
-470.648 -1158 0.
-219.346 -1187.64 0.
-290.847 -1353.79 0.
-63.6627 -1353.21 0.
-40.7402 -1299.62 0.
-17.8179 -1246.02 0.
-162.334 -1246.27 0.
-126.062 -1163.08 0.
-89.7891 -1079.89 0.
-555.381 -1296.22 0.
-584.239 -1363.58 0.
-613.097 -1430.93 0.
-39.4329 -1081.65 0.
24.572 -936.159 0.
-247.381 -945.595 0.
-221.856 -889.308 0.
-196.331 -833.021 0.
-12.9426 -745.937 0.
-51.4447 -839.937 0.
-89.9468 -933.937 0.
-278.078 -950.811 0.
-183.095 -730.879 0.
-88.1125 -510.948 0.
372.799 -232.178 0.
402 -166.615 0.
-1426.93 -898.299 0.
155.468 -420.36 0.
49.7122 -666.051 0.
-203.023 -913.728 0.
-171.659 -842.228 0.
-140.294 -770.727 0.
-237.9 -793.35 0.
-248.467 -819.715 0.
-259.034 -846.081 0.
-476.651 -901.626 0.
-442.4 -819.734 0.
-408.15 -737.843 0.
-18.035 -779.962 0.
-143.497 -1078.26 0.
-75.691 -1273.95 0.
-112.668 -1352.46 0.
-149.646 -1430.98 0.
-256.711 -1456.68 0.
-176.747 -1267.28 0.
-96.7847 -1077.88 0.
-161.704 -1063.64 0.
-182.348 -1112.8 0.
-202.991 -1161.95 0.
58.945 -1000.83 0.
101.714 -903.173 0.
886.216 -485.776 0.
-276.465 -984.115 0.
-276.496 -984.516 0.
291.613 -753.141 0.
268.708 -814.754 0.
245.803 -876.368 0.
-284.893 -1119.54 0.
-268.676 -1082.74 0.
-252.459 -1045.94 0.
-150.68 -901.514 0.
-77.0517 -728.337 0.
-3.42351 -555.161 0.
175.945 -426.856 0.
195.042 -381.804 0.
-86.6043 -492.816 0.
-168.643 -681.266 0.
-250.682 -869.716 0.
-273.212 -945.59 0.
-221.895 -824.613 0.
-170.577 -703.636 0.
-61.0636 -564.94 0.
-12.7959 -451.215 0.
35.4715 -337.491 0.
-124.554 -528.504 0.
-222.419 -755.026 0.
-296.818 -733.233 0.
-293.994 -711.099 0.
-312.242 -756.458 0.
-118.392 -682.777 0.
-62.7472 -558.025 0.
-7.10265 -433.272 0.
213.34 -378.549 0.
96.2858 -650.664 0.
-20.7683 -922.778 0.
16.4658 -959.096 0.
33.314 -922.783 0.
50.1619 -886.47 0.
-119.38 -887.214 0.
-75.2768 -785.545 0.
-255.528 -791.883 0.
-281.736 -854.025 0.
-307.943 -916.168 0.
99.2067 -775.643 0.
105.224 -761.394 0.
111.241 -747.145 0.
-319.427 -999.729 0.
-391.631 -1168.15 0.
-463.834 -1336.57 0.
-508.057 -1317.92 0.
-462.426 -1210.17 0.
373.842 -763.893 0.
-155.288 -1130.67 0.
-226.313 -1297.2 0.
-83.1528 -1329.2 0.
-59.6077 -1276.16 0.
-36.063 -1223.12 0.
-251.498 -1252.81 0.
-214.874 -1169.84 0.
-178.249 -1086.88 0.
-169.317 -1097.34 0.
-197.543 -1165.09 0.
-225.768 -1232.83 0.
-392.693 -1201.22 0.
-328.536 -1055.57 0.
-2.85895 -808.5 0.
22.343 -752.004 0.
47.545 -695.506 0.
29.8708 -697.399 0.
-8.55997 -791.366 0.
-46.9908 -885.334 0.
-495.191 -1013.83 0.
-399.921 -793.985 0.
-304.65 -574.135 0.
250.35 -253.409 0.
279.696 -187.765 0.
-1969.6 -1098.67 0.
50.8464 -434.042 0.
-54.5177 -680.372 0.
-272.935 -912.014 0.
-241.554 -841.315 0.
-210.174 -770.616 0.
-182.777 -737.521 0.
-193.637 -764.08 0.
-204.496 -790.639 0.
-648.839 -945.589 0.
-614.553 -863.876 0.
-580.267 -782.164 0.
344.924 -592.775 0.
220.198 -891.379 0.
55.651 -1184.06 0.
19.409 -1262.8 0.
-16.8335 -1341.54 0.
-572.883 -1561.82 0.
-492.892 -1372.27 0.
-412.902 -1182.73 0.
-128.052 -1016.72 0.
-148.121 -1066.26 0.
-168.19 -1115.8 0.
81.2574 -962.177 0.
124.219 -864.872 0.
507.064 -615.249 0.
-317.703 -968.91 0.
-317.887 -969.428 0.
577.97 -599.539 0.
554.886 -661.299 0.
531.802 -723.058 0.
-296.773 -1092.95 0.
-280.429 -1056.64 0.
-264.083 -1020.33 0.
-155.513 -872.865 0.
-81.19 -700.564 0.
-6.86666 -528.262 0.
106.603 -425.86 0.
125.625 -380.893 0.
-144.221 -484.869 0.
-225.94 -673.245 0.
-307.658 -861.621 0.
-317.399 -933.503 0.
-266.264 -812.196 0.
-215.128 -690.889 0.
78.8506 -474.76 0.
126.924 -361.277 0.
174.997 -247.794 0.
-29.2207 -454.736 0.
-127.388 -682.453 0.
-371.532 -715.235 0.
-317.835 -807.826 0.
-325.82 -823.711 0.
-167.438 -781.877 0.
-214.705 -889.745 0.
-261.974 -997.613 0.
-86.8222 -1000.69 0.
-124.12 -1086.38 0.
-161.417 -1172.06 0.
7.34085 -1059.64 0.
59.0648 -939.402 0.
110.788 -819.159 0.
7.74696 -686.535 0.
105.659 -458.551 0.
-108.178 -392.907 0.
-134.138 -452.585 0.
-160.098 -512.262 0.
289.312 -410.493 0.
192.498 -635.07 0.
95.6847 -859.648 0.
-380.921 -1199.08 0.
-427.3 -1309.82 0.
-473.68 -1420.55 0.
-510.989 -1369.59 0.
-446.841 -1218.31 0.
606.349 -642.927 0.
-36.0333 -917.339 0.
-44.1436 -933.795 0.
22.0599 -897.243 0.
70.8951 -779.92 0.
119.73 -662.598 0.
-6.1394 -706.905 0.
-59.2932 -826.614 0.
-112.447 -946.321 0.
36.2671 -914.606 0.
41.9229 -900.292 0.
47.5787 -885.978 0.
-598.791 -1139 0.
-589.309 -1111.73 0.
37.4202 -820.237 0.
22.8823 -854.605 0.
8.34404 -888.972 0.
-86.4563 -917.835 0.
-39.6208 -807.88 0.
7.21428 -697.925 0.
-478.34 -892.358 0.
-496.737 -931.812 0.
-515.134 -971.265 0.
50.003 -663.931 0.
100.692 -543.392 0.
253.924 -380.756 0.
-31.5894 -475.249 0.
-16.663 -441.203 0.
-105.941 -487.865 0.
-190.705 -686.162 0.
-275.469 -884.458 0.
-298.592 -874.128 0.
-162.206 -560.428 0.
-25.8183 -246.727 0.
-400.768 -527.873 0.
-561.524 -900.886 0.
-722.278 -1273.9 0.
234.98 -750.015 0.
319.496 -549.949 0.
419.531 -396.502 0.
263.119 -763.269 0.
106.706 -1130.04 0.
-751.497 -1597.4 0.
-607.997 -1264.15 0.
-464.498 -930.896 0.
89.4056 -656.789 0.
11.0843 -836.158 0.
-67.2367 -1015.53 0.
126.293 -1029.13 0.
84.9291 -1133.16 0.
413.082 -1076 0.
-498.803 -1321.5 0.
-422.578 -1143.89 0.
523.813 -648.077 0.
461.399 -787.905 0.
398.986 -927.733 0.
-358.73 -1215.56 0.
-240.788 -940.339 0.
-122.847 -665.116 0.
-29.9723 -655.565 0.
-108.935 -840.27 0.
-187.899 -1024.97 0.
67.2757 -673.822 0.
218.208 -320.738 0.
-76.0945 -203.54 0.
-101.936 -265.596 0.
-127.777 -327.652 0.
-162.849 -395.77 0.
-200.815 -485.427 0.
-238.782 -575.083 0.
97.1486 -520.079 0.
42.793 -649.068 0.
-11.5629 -778.057 0.
-281.243 -944.907 0.
-291.929 -972.972 0.
-261.093 -634.914 0.
-277.902 -762.558 0.
-286.235 -777.572 0.
-76.9436 -709.738 0.
-123.738 -817.81 0.
-170.534 -925.882 0.
-117.296 -983.843 0.
-154.605 -1069.63 0.
-191.913 -1155.42 0.
-74.8976 -1061.83 0.
-22.839 -941.999 0.
29.2193 -822.162 0.
127.642 -606.211 0.
225.687 -378.449 0.
-191.822 -392.82 0.
-217.247 -452.651 0.
-242.673 -512.481 0.
249.216 -396.909 0.
152.511 -621.135 0.
55.805 -845.361 0.
-232.41 -1104.82 0.
-278.141 -1216.06 0.
-323.872 -1327.31 0.
-308.009 -1247.96 0.
-243.71 -1096.96 0.
-42.1657 -887.388 0.
2.1042 -871.006 0.
-6.1109 -887.466 0.
-124.614 -926.789 0.
-75.1744 -810.241 0.
-25.7346 -693.693 0.
130.843 -616.138 0.
78.2043 -736.223 0.
25.5659 -856.307 0.
3.50515 -897.66 0.
9.07373 -883.532 0.
14.6423 -869.404 0.
-793.517 -1191.72 0.
-783.16 -1164.67 0.
-61.5576 -829.376 0.
-75.4909 -864.633 0.
-89.4247 -899.89 0.
-154.914 -917.495 0.
-107.069 -808.819 0.
-59.2248 -700.143 0.
-339.484 -799.032 0.
-356.699 -839.758 0.
-373.914 -880.483 0.
123.685 -599.654 0.
175.364 -480.539 0.
-1862.86 -1255.85 0.
-36.7146 -444.268 0.
-22.6213 -410.028 0.
-51.9004 -434.587 0.
-137.805 -632.475 0.
-223.71 -830.362 0.
-463.592 -914.814 0.
-327.551 -601.417 0.
-191.509 -288.018 0.
-36.9035 -339.605 0.
-197.148 -713.078 0.
-357.392 -1086.55 0.
-186.132 -898.679 0.
-101.162 -698.823 0.
390.477 -378.345 0.
233.453 -744.569 0.
76.4294 -1110.79 0.
-805.69 -1591.41 0.
-662.933 -1257.52 0.
-520.176 -923.628 0.
223.163 -567.705 0.
143.878 -746.572 0.
64.5924 -925.438 0.
328.847 -911.919 0.
286.391 -1015.19 0.
28.521 -1207.5 0.
-491.361 -1285.47 0.
-414.973 -1107.8 0.
202.207 -754.767 0.
140.728 -895.617 0.
79.2517 -1036.47 0.
-350.466 -1179.94 0.
-232.683 -904.869 0.
-114.9 -629.804 0.
77.109 -577.672 0.
-1.42074 -762.963 0.
-79.9512 -948.253 0.
328.985 -529.9 0.
480.309 -176.829 0.
-99.2412 -181.918 0.
-125.348 -243.079 0.
-151.455 -304.239 0.
-267.195 -409.958 0.
-305.501 -499.442 0.
-343.807 -588.926 0.
84.9079 -493.246 0.
30.5363 -622.769 0.
-23.8356 -752.292 0.
-441.23 -981.304 0.
-452.823 -1010.12 0.
-255.215 -771.126 0.
475.474 971.781 0.
288.952 533.428 0.
423.943 313.662 0.
-58.581 -812.011 0.
605.742 738.058 0.
665.175 937.44 0.
161.887 -241.786 0.
399.064 307.712 0.
709.248 958.261 0.
616.198 740.788 0.
453.632 360.723 0.
615.615 328.613 0.
302.337 -402.163 0.
174.904 662.105 0.
452.88 1309.01 0.
-265.679 -369.814 0.
142.141 -539.098 0.
436.509 151.21 0.
415.553 105.775 0.
311.034 -84.0309 0.
597.53 584.877 0.
740.444 918.726 0.
700.538 752.679 0.
637.695 603.288 0.
96.9774 -164.081 0.
79.0708 -731.697 0.
613.722 516.689 0.
201.638 146.33 0.
-91.3448 -534.29 0.
138.814 6.24447 0.
772.202 647.858 0.
330.174 -384.743 0.
508.651 30.7989 0.
309.573 -87.2865 0.
128.795 -509.094 0.
664.293 740.426 0.
-338.076 257.118 0.
-596.275 -341.879 0.
324.803 285.902 0.
176.33 -58.6301 0.
93.9312 -248.834 0.
205.438 61.1406 0.
478.382 699.065 0.
331.746 358.278 0.
36.1077 -153.169 0.
-29.5027 -310.072 0.
-35.746 -328.163 0.
642.325 507.262 0.
981.547 1299.31 0.
-2103.77 -779.354 0.
166.693 60.7384 0.
73.3351 -152.693 0.
220.302 129.709 0.
-45.0631 -482.639 0.
465.561 716.321 0.
-140.338 163.505 0.
-194.199 38.8243 0.
-72.5967 323.427 0.
182.585 -471.058 0.
492.432 255.922 0.
832.88 1053.92 0.
-79.137 164.569 0.
-218.352 -152.93 0.
548.944 76.4826 0.
244.459 -627.815 0.
250.028 -608.341 0.
-235.91 -142.706 0.
-116.646 137.205 0.
-173.101 7.03831 0.
729.965 417.522 0.
719.102 395.28 0.
243.92 -711.447 0.
1284.93 969.955 0.
1067.28 468.709 0.
217.63 814.077 0.
230.264 402.971 0.
-642.357 -1628.67 0.
247.568 -18.4563 0.
-32.9563 -671.624 0.
372.052 275.136 0.
171.904 55.0128 0.
342.233 447.451 0.
-104.927 -600.437 0.
344.314 -117.507 0.
410.261 38.7119 0.
355.549 -86.3332 0.
1125.06 867.821 0.
562.04 -446.498 0.
-486 -1009.36 0.
23.5522 183.771 0.
-186.443 -302.857 0.
-276.46 -203.255 0.
-194.452 -9.35955 0.
-128.183 147.226 0.
401.707 301.505 0.
122.875 -349.16 0.
184.987 -201.975 0.
-422.841 -612.853 0.
-205.276 -104.429 0.
-203.777 -697.426 0.
-98.3252 -528.643 0.
-90.5184 -512.386 0.
107.41 -437.077 0.
76.2639 -508.455 0.
45.1183 -579.833 0.
22.0283 -548.28 0.
113.461 -339.571 0.
204.893 -130.861 0.
267.159 -180.332 0.
168.548 -410.594 0.
69.9364 -640.857 0.
111.575 -849.66 0.
-18.7912 -1150.87 0.
-735.776 -1659.38 0.
-587.874 -1315.26 0.
-439.972 -971.141 0.
33.0708 -614.33 0.
-32.8572 -768.028 0.
-98.7848 -921.726 0.
-15.5599 -914.004 0.
3.52109 -865.232 0.
22.6019 -816.46 0.
-274.89 -1056.5 0.
-353.151 -1240.98 0.
-21.0848 -1248.55 0.
-178.672 -1067.3 0.
-47.4092 -759.964 0.
36.1786 -549.419 0.
-24.886 -690.341 0.
-85.9509 -831.264 0.
16.915 -825.126 0.
54.5637 -739.162 0.
92.2126 -653.199 0.
-10.8059 -658.091 0.
-8.00722 -648.783 0.
-5.20857 -639.476 0.
-559.221 -925.506 0.
-590.627 -994.004 0.
-377.853 -958.165 0.
-390.193 -984.428 0.
-402.534 -1010.69 0.
-216.957 -837.057 0.
-47.8942 -440.036 0.
121.169 -43.0144 0.
128.32 19.0625 0.
52.427 -163.062 0.
-23.4664 -345.188 0.
324.018 -366.846 0.
228.418 -584.986 0.
-2034.19 -1731.8 0.
-114.874 -904.568 0.
-114.71 -900.49 0.
-522.382 -1046.46 0.
-461.669 -901.366 0.
-400.957 -756.27 0.
-269.074 -694.152 0.
-340.548 -856.58 0.
-412.023 -1019.01 0.
-71.0498 -866.626 0.
-36.5212 -781.681 0.
-1.99311 -696.736 0.
-504.885 -946.975 0.
-527.287 -1001.16 0.
-104.011 -833.993 0.
0.314143 -588.342 0.
104.639 -342.691 0.
-139.602 -417.543 0.
-295.824 -781.127 0.
-452.045 -1144.71 0.
54.8742 -1043.07 0.
65.0864 -1018.9 0.
75.2981 -994.732 0.
213.459 -872.99 0.
253.431 -776.928 0.
394.36 -638.317 0.
-341.087 -1008.3 0.
-371.339 -1076 0.
-102.881 -975.927 0.
-35.6921 -815.872 0.
31.4971 -655.819 0.
75.5573 -608.903 0.
26.6913 -724.711 0.
-22.1746 -840.519 0.
-20.6103 -839.729 0.
5.09353 -781.712 0.
30.7969 -723.694 0.
208.932 -682.191 0.
188.898 -730.179 0.
-451.147 -1021.44 0.
-392.845 -883.389 0.
-334.543 -745.338 0.
-368.075 -644.926 0.
-310.96 -513.507 0.
-253.844 -382.088 0.
169.76 -155.554 0.
173.588 -145.394 0.
177.415 -135.234 0.
-120.906 -269.269 0.
-130.805 -291.317 0.
-162.786 -650.151 0.
1.81108 -454.611 0.
9.43569 -438.015 0.
132.652 -393.922 0.
101.259 -464.831 0.
69.8669 -535.739 0.
30.7919 -512.228 0.
122.201 -303.846 0.
213.609 -95.4615 0.
339.248 -119.254 0.
240.49 -349.197 0.
141.732 -579.139 0.
124.632 -813.024 0.
-5.46443 -1114.2 0.
-620.164 -1580.64 0.
-472.884 -1235.76 0.
-325.604 -890.875 0.
-39.3011 -612.921 0.
-105.089 -767.002 0.
-170.878 -921.083 0.
37.9592 -859.277 0.
57.2589 -810.821 0.
76.5585 -762.364 0.
-501.987 -1120.94 0.
-580.574 -1305.33 0.
16.3972 -1199.11 0.
-303.429 -1089.01 0.
-171.514 -781.809 0.
216.945 -441.506 0.
155.278 -581.46 0.
93.6118 -721.415 0.
-118.01 -852.059 0.
-80.5456 -765.877 0.
-43.0808 -679.694 0.
-84.4583 -658.098 0.
-81.3097 -649.239 0.
-78.1612 -640.381 0.
-193.303 -736.918 0.
-225.089 -804.843 0.
-570.817 -1010.67 0.
-582.925 -1037.15 0.
-595.034 -1063.62 0.
-244.802 -819.586 0.
-75.2257 -422.789 0.
94.3509 -25.9923 0.
162.929 66.1726 0.
87.266 -116.573 0.
11.6024 -299.319 0.
410.598 -297.197 0.
315.288 -515.775 0.
-2660.01 -1967.44 0.
64.0687 -795.307 0.
63.5688 -790.941 0.
-794.542 -1133.13 0.
-734.152 -988.424 0.
-673.762 -843.715 0.
39.5008 -529.701 0.
-32.404 -692.194 0.
-104.309 -854.686 0.
-160.035 -875.349 0.
-125.735 -789.988 0.
-91.4354 -704.627 0.
-425.696 -881.723 0.
-447.53 -936.384 0.
-404.001 -929.624 0.
-299.012 -684.604 0.
-194.022 -439.584 0.
137.631 -266.095 0.
-18.0001 -630.28 0.
-173.633 -994.465 0.
14.2059 -1030.03 0.
23.7953 -1005.32 0.
33.384 -980.613 0.
-107.326 -978.022 0.
-66.6363 -882.491 0.
1035.84 -331.795 0.
-282.217 -952.482 0.
-311.731 -1021.11 0.
-14.479 -904.172 0.
53.2471 -744.728 0.
120.973 -585.284 0.
322.527 -472.935 0.
273.533 -588.764 0.
224.539 -704.592 0.
-67.313 -826.479 0.
-41.242 -768.955 0.
-15.1713 -711.431 0.
-80.2323 -772.659 0.
-100.206 -820.33 0.
-389.442 -965.105 0.
-331.213 -826.971 0.
-272.984 -688.836 0.
-227.699 -552.923 0.
-170.909 -421.621 0.
-114.119 -290.319 0.
141.66 -136.975 0.
145.446 -127.378 0.
149.232 -117.782 0.
83.8015 -150.101 0.
73.733 -172.418 0.
19.6345 -298.155 0.
-70.5337 -590.879 0.
-177.055 -836.892 0.
-125.619 -921.434 0.
-18.1494 -673.456 0.
89.3199 -425.477 0.
31.1242 -420.193 0.
-62.5786 -637.141 0.
-156.282 -854.088 0.
-17.8889 -803.223 0.
19.0674 -718.816 0.
56.0235 -634.411 0.
231.678 -472.297 0.
283.8 -351.844 0.
-85.9503 -426.22 0.
-142.898 -557.406 0.
-199.846 -688.592 0.
14.5331 -648.93 0.
33.2154 -600.555 0.
51.8977 -552.18 0.
223.966 -428.782 0.
255.129 -356.342 0.
286.292 -283.902 0.
-344.15 -665.786 0.
-431.778 -868.875 0.
29.7821 -836.518 0.
-213.247 -793.723 0.
-136.834 -615.297 0.
173.667 -379.954 0.
169.795 -392.516 0.
165.922 -405.078 0.
1.30474 -473.869 0.
-3.46411 -483.545 0.
-8.23263 -493.221 0.
-112.642 -592.343 0.
-143.924 -665.678 0.
-175.206 -739.013 0.
-127.651 -806.372 0.
-178.167 -926.957 0.
-680.343 -1191.79 0.
-484.607 -734.73 0.
-288.872 -277.676 0.
108.605 20.0695 0.
-84.0604 -430.044 0.
-276.726 -880.158 0.
-190.281 -886.788 0.
-76.2144 -616.196 0.
37.8528 -345.605 0.
451.718 -152.348 0.
429.338 -204.151 0.
-642.474 -706.344 0.
431.678 -120.432 0.
500.442 34.4579 0.
-506.157 -295.432 0.
-488.497 -262.474 0.
-470.837 -229.516 0.
255.559 -59.5606 0.
68.4542 -499.412 0.
-118.651 -939.264 0.
-234.904 -1001.2 0.
-150.827 -808.412 0.
-66.7509 -615.625 0.
-372.846 -669.78 0.
-343.968 -597.355 0.
-307.963 -552.796 0.
-416.106 -803.358 0.
-524.249 -1053.92 0.
-58.7965 -931.387 0.
27.5552 -730.423 0.
113.906 -529.46 0.
156.578 -506.314 0.
94.403 -654.765 0.
32.2281 -803.216 0.
-214.071 -863.021 0.
-163.813 -748.54 0.
-63.6628 -609.669 0.
-89.6796 -734.913 0.
-150.616 -875.502 0.
6.98818 -897.375 0.
13.8885 -881.022 0.
20.7893 -864.668 0.
253.798 -753.165 0.
250.342 -761.796 0.
246.886 -770.428 0.
-158.894 -938.513 0.
-146.237 -905.015 0.
-133.579 -871.518 0.
-189.216 -768.327 0.
-118.57 -605.47 0.
-80.329 -470.372 0.
-91.0933 -496.36 0.
-101.858 -522.348 0.
-198.907 -612.919 0.
-246.484 -723.186 0.
-294.06 -833.453 0.
-201.124 -745.362 0.
-123.056 -564.498 0.
-44.9872 -383.635 0.
-35.3864 -398.25 0.
-63.9758 -462.685 0.
151.496 -213.926 0.
-185.186 -609.843 0.
-291.059 -856.303 0.
-186.961 -914.511 0.
-79.1571 -666.637 0.
28.6473 -418.763 0.
-35.2874 -414.503 0.
-128.139 -632.395 0.
-220.991 -850.285 0.
-215.421 -857.534 0.
-179.049 -772.704 0.
-142.676 -687.874 0.
171.188 -466.303 0.
223.454 -345.517 0.
-70.7972 -389.457 0.
-128.519 -519.963 0.
-186.241 -650.47 0.
272.404 -509.032 0.
290.486 -459.777 0.
308.567 -410.523 0.
208.511 -404.088 0.
239.607 -331.854 0.
270.703 -259.62 0.
-175.817 -562.239 0.
-263.517 -765.664 0.
-240.167 -920.868 0.
-140.038 -730.867 0.
-63.5149 -552.2 0.
-131.905 -479.689 0.
-135.334 -492.327 0.
-138.763 -504.965 0.
67.162 -415.277 0.
62.5969 -425.495 0.
58.0321 -435.713 0.
-155.239 -578.309 0.
-186.155 -652.144 0.
-217.072 -725.98 0.
-213.956 -812.21 0.
-264.678 -932.368 0.
-543.662 -1102.36 0.
-347.748 -644.946 0.
-151.834 -187.532 0.
148.418 66.3359 0.
-44.6632 -383.462 0.
-237.744 -833.26 0.
-58.8619 -798.797 0.
56.6318 -529.75 0.
172.126 -260.703 0.
349.221 -163.525 0.
327.08 -215.333 0.
-2269.44 -1371.32 0.
479.618 -68.1587 0.
548.163 87.0818 0.
-367.789 -205.32 0.
-351.508 -171.319 0.
-335.228 -137.318 0.
37.4474 -125.404 0.
-150.358 -564.594 0.
-338.163 -1003.78 0.
-166.204 -941.585 0.
-83.3665 -747.763 0.
-0.529444 -553.94 0.
-504.612 -696.745 0.
-475.818 -624.352 0.
-152.05 -454.649 0.
-260.662 -704.622 0.
-369.274 -954.593 0.
-83.5644 -913.042 0.
1.84619 -711.179 0.
87.2561 -509.317 0.
25.9277 -530.741 0.
-36.222 -679.061 0.
-98.3718 -827.381 0.
-246.695 -846.265 0.
-197.215 -730.953 0.
244.961 -448.329 0.
124.277 -613.742 0.
63.0691 -754.138 0.
-13.9511 -875.73 0.
-7.25605 -858.929 0.
-0.560548 -842.129 0.
181.375 -754.437 0.
178.344 -763.15 0.
175.313 -771.864 0.
-192.887 -918.691 0.
-180.063 -885.784 0.
-167.238 -852.877 0.
-142.332 -717.822 0.
-72.5235 -554.485 0.
137.907 -347.237 0.
127.015 -372.961 0.
116.122 -398.685 0.
-183.601 -574.244 0.
-231.539 -684.271 0.
-279.478 -794.298 0.
-344.21 -776.749 0.
-265.621 -596.401 0.
-187.032 -416.053 0.
-218.114 -445.382 0.
-246.193 -510.626 0.
510.867 110.282 0.
72.6005 254.228 0.
-456.823 -978.406 0.
-324.241 -1098.55 0.
562.439 974.564 0.
423.938 655.469 0.
372.289 686.721 0.
42.2038 -82.1118 0.
-29.3839 -247.905 0.
235.155 607.816 0.
157.684 427.747 0.
120.546 341.866 0.
473.471 378.262 0.
104.802 -480.842 0.
347.621 593.325 0.
200.71 250.05 0.
-59.2266 -355.869 0.
778.29 223.991 0.
1075.72 919.473 0.
888.794 484.13 0.
161.587 -451.423 0.
405.234 113.626 0.
479.005 282.061 0.
197.366 10.7328 0.
-3.04418 -451.655 0.
722.414 -361.429 0.
-174.357 -910.328 0.
274.754 138.589 0.
-29.1141 346.607 0.
-325.114 -348.852 0.
-492.628 -743.696 0.
304.837 52.8561 0.
511.344 535.814 0.
539.907 603.904 0.
47.9812 -7.45884 0.
-15.1376 -153.079 0.
-144.915 -454.534 0.
-5.94839 -131.902 0.
-90.0903 -335.196 0.
224.416 460.239 0.
-282.719 -726.595 0.
-195.341 -526.347 0.
102.507 -93.932 0.
156.289 33.4983 0.
-22.1477 -380.784 0.
445.312 154.118 0.
315.352 -144.712 0.
323.281 -121.751 0.
532.399 475.398 0.
743.017 965.129 0.
-3603.3 -1304.11 0.
701.614 403.832 0.
762.351 541.317 0.
-221.756 -89.9459 0.
-135.498 108.234 0.
47.3432 531.645 0.
-54.8556 104.1 0.
-184.656 -200.386 0.
-173.181 -175.22 0.
549.372 626.875 0.
339.326 136.547 0.
-179.239 -1073.62 0.
-640.22 -742.737 0.
-83.3628 562.982 0.
256.068 239.435 0.
-140.063 -682.016 0.
596.651 1040.18 0.
149.914 -287.189 0.
-80.3509 -825.002 0.
157.86 -269.36 0.
133.402 -13.2877 0.
475.824 786.614 0.
290.168 353.141 0.
160.94 189.878 0.
505.427 998.509 0.
499.991 504.136 0.
886.037 792.867 0.
519.382 -63.5721 0.
529.376 463.733 0.
487.18 362.407 0.
-32.0203 -851.691 0.
-96.5148 -1241.17 0.
190.237 -564.147 0.
438.905 25.0654 0.
279.095 275.35 0.
-122.459 -665.279 0.
-651.339 -1902.44 0.
28.2748 -370.759 0.
567.898 892.265 0.
400.329 -113.077 0.
827.341 883.812 0.
583.434 314.089 0.
-6.60235 -153.529 0.
133.43 174.182 0.
35.3393 -54.9114 0.
-252.568 -284.878 0.
17.2278 349.365 0.
-241.301 -249.701 0.
296.175 1119.18 0.
-247.836 -154.742 0.
69.5334 -320.977 0.
101.095 -172.829 0.
160.526 -30.3875 0.
109.204 -26.7514 0.
-25.1154 -338.98 0.
-159.436 -651.208 0.
-166.847 -691.956 0.
-49.1043 -416.799 0.
68.6378 -141.642 0.
-104.371 -185.186 0.
-135.749 -259.04 0.
-167.127 -332.894 0.
128.859 -223.7 0.
123.199 -237.939 0.
130.055 -264.864 0.
42.7819 -472.945 0.
-44.4911 -681.027 0.
121.261 -706.13 0.
150.228 -640.991 0.
179.195 -575.851 0.
-33.2379 -720.076 0.
-112.433 -906.754 0.
-191.628 -1093.43 0.
-133.35 -932.928 0.
-11.2471 -647.43 0.
456.777 -213.882 0.
-185.198 -625.118 0.
-255.9 -790.43 0.
-303.056 -897.264 0.
-274.012 -829.235 0.
-244.966 -761.205 0.
-16.3755 -657.033 0.
-31.2621 -693.263 0.
-46.1492 -729.493 0.
-228.659 -731.575 0.
-168.923 -588.741 0.
-109.188 -445.907 0.
-266.708 -451.02 0.
-233.607 -377.999 0.
27.0174 -242.924 0.
-110.625 -566.126 0.
-248.267 -889.327 0.
-183.428 -1002.54 0.
-128.531 -875.684 0.
-73.6345 -748.832 0.
-95.4354 -744.33 0.
-127.897 -815.754 0.
-160.358 -887.178 0.
120.786 -537.855 0.
285.398 -154.352 0.
-4184.02 -1758.6 0.
705.817 230.864 0.
651.053 101.845 0.
-308.478 -407.507 0.
-349.243 -503.836 0.
-390.007 -600.165 0.
-490.794 -655.382 0.
-450.589 -563.957 0.
-410.385 -472.531 0.
54.4732 -287.248 0.
26.7412 -355.153 0.
-0.990483 -423.059 0.
-538.085 -669.778 0.
-546.096 -687.983 0.
-36.3338 -480.105 0.
-28.7064 -461.647 0.
-21.0786 -443.191 0.
48.6852 -449.658 0.
-30.4373 -636.006 0.
-109.56 -822.354 0.
-195.988 -820.776 0.
-97.6082 -586.344 0.
0.771162 -351.914 0.
-98.6888 -620.858 0.
-284.683 -1050.85 0.
100.344 -1231.01 0.
-52.1537 -931.434 0.
140.839 -482.416 0.
339.904 -143.442 0.
282.583 -282.724 0.
225.263 -422.007 0.
19.1564 -596.403 0.
-1.64228 -643.011 0.
-22.4409 -689.619 0.
-37.6049 -654.635 0.
0.246135 -570.588 0.
38.0966 -486.542 0.
-106.478 -727.543 0.
-212.717 -973.957 0.
-151.582 -1095.88 0.
-34.5956 -822.719 0.
82.3912 -549.556 0.
-116.198 -440.969 0.
-40.6684 -266.712 0.
34.8615 -92.4559 0.
73.5746 -123.155 0.
-26.4162 -354.835 0.
-126.406 -586.515 0.
-568.691 -812.239 0.
-565.765 -806.416 0.
430.588 -139.343 0.
376.38 -26.0134 0.
435.747 116.702 0.
95.4658 -0.403969 0.
-37.5642 -313.615 0.
-170.596 -626.827 0.
-86.841 -624.142 0.
31.9142 -349.486 0.
150.669 -74.8305 0.
-87.9944 -145.956 0.
-119.192 -219.644 0.
-150.389 -293.332 0.
41.0192 -228.263 0.
35.7669 -242.913 0.
331.242 -147.76 0.
243.419 -355.459 0.
155.595 -563.159 0.
-174.051 -801.944 0.
-145.618 -736.671 0.
-117.185 -671.397 0.
-115.241 -724.085 0.
-194.153 -910.995 0.
-273.066 -1097.91 0.
-22.9158 -855.005 0.
99.6637 -569.526 0.
-284.814 -501.695 0.
-336.924 -659.192 0.
-407.037 -824.811 0.
29.8032 -723.456 0.
59.1844 -655.632 0.
88.5665 -587.808 0.
-27.888 -631.795 0.
-42.8413 -667.533 0.
-57.7952 -703.272 0.
-165.236 -673.72 0.
-105.118 -531.799 0.
-44.9997 -389.878 0.
-402.761 -477.351 0.
-370.105 -404.311 0.
168.237 -151.299 0.
30.8082 -474.985 0.
-106.621 -798.671 0.
-35.4629 -908.288 0.
19.3333 -781.849 0.
74.1295 -655.41 0.
-273.175 -788.194 0.
-305.041 -860.672 0.
-336.909 -933.151 0.
161.18 -489.166 0.
325.926 -105.723 0.
-1902.48 -748.321 0.
818.902 311.969 0.
764.441 182.795 0.
-233.099 -345.03 0.
-273.861 -441.274 0.
-314.623 -537.518 0.
-607.043 -673.528 0.
-567.065 -582.209 0.
-527.086 -490.89 0.
-55.5881 -302.934 0.
-83.0625 -370.946 0.
-110.537 -438.957 0.
-434.495 -594.064 0.
-442.181 -612.738 0.
-3.62825 -434.023 0.
4.05072 -415.915 0.
11.7301 -397.809 0.
29.6023 -426.928 0.
-49.8294 -613.623 0.
-129.261 -800.319 0.
-160.032 -774.488 0.
-61.8978 -540.528 0.
36.2357 -306.568 0.
22.6141 -538.56 0.
-163.527 -968.776 0.
-198.498 -1328.03 0.
-281.549 -997.089 0.
-88.6672 -547.591 0.
441.331 -71.4674 0.
384.253 -210.136 0.
327.175 -348.805 0.
-157.885 -640.641 0.
-177.992 -687.249 0.
-198.098 -733.858 0.
79.1294 -573.94 0.
116.852 -489.687 0.
154.575 -405.434 0.
-65.1777 -677.433 0.
-170.524 -924.628 0.
-300.818 -1126.67 0.
-183.245 -854.402 0.
-65.6713 -582.132 0.
-81.0087 -395.082 0.
-5.56845 -221.056 0.
69.8718 -47.0294 0.
407.313 52.4192 0.
307.569 -179.908 0.
207.826 -412.235 0.
-598.515 -795.974 0.
-596.182 -789.5 0.
-150.347 -902.416 0.
205.706 -522.481 0.
303.355 -295.782 0.
-49.9009 -320.6 0.
-93.7012 -416.754 0.
-137.502 -512.908 0.
-5.90263 -517.811 0.
-29.1762 -568.644 0.
-52.4498 -619.476 0.
-251.968 -656.093 0.
-203.542 -540.532 0.
-155.117 -424.97 0.
-60.0351 -401.492 0.
-72.2173 -433.494 0.
231.541 -310.864 0.
285.51 -186.308 0.
339.478 -61.7519 0.
-33.8135 -194.498 0.
-84.0757 -313.001 0.
-134.338 -431.505 0.
65.1604 -307.435 0.
145.469 -120.055 0.
225.776 67.325 0.
348.041 59.5822 0.
276.864 -105.652 0.
431.814 -172.378 0.
-326.501 -549.711 0.
-355.733 -614.97 0.
233.21 -429.565 0.
159.251 -601.826 0.
85.2922 -774.086 0.
-171.664 -905.409 0.
-98.2194 -732.198 0.
-24.7744 -558.988 0.
-111.679 -570.269 0.
-126.97 -606.79 0.
-142.26 -643.312 0.
-436.708 -712.933 0.
-401.734 -629.804 0.
84.4386 -380.804 0.
0.0525551 -574.613 0.
-84.334 -768.421 0.
22.9388 -784.95 0.
95.9208 -616.905 0.
168.903 -448.86 0.
-245.55 -545.682 0.
-224.514 -494.753 0.
-203.477 -443.824 0.
283.152 -276.202 0.
255.364 -344.205 0.
-879.618 -885.419 0.
494.296 -206.925 0.
540.016 -97.8506 0.
-194.13 -354.431 0.
-220.929 -415.263 0.
-247.728 -476.096 0.
-509.326 -519.366 0.
-399.5 -262.321 0.
-289.674 -5.27577 0.
116.38 140.851 0.
39.4548 -38.3353 0.
-37.4704 -217.522 0.
-285.831 -434.523 0.
-339.226 -557.52 0.
-59.9054 -504.705 0.
35.9977 -280.999 0.
131.901 -57.2936 0.
187.696 12.3902 0.
80.8065 -236.479 0.
-26.0834 -485.347 0.
-157.115 -589.245 0.
-124.663 -518.28 0.
-92.2113 -447.314 0.
184.817 -302.579 0.
197.31 -275.943 0.
-185.511 -420.567 0.
-175.997 -479.493 0.
-207.829 -555.667 0.
270.841 -398.666 0.
267.608 -405.162 0.
264.376 -411.658 0.
-151.399 -613.515 0.
-170.757 -658.778 0.
-190.114 -704.04 0.
165.678 -434.822 0.
264.06 -202.005 0.
362.443 30.8115 0.
264.051 -65.952 0.
220.116 -167.901 0.
-118.114 -379.345 0.
-103.666 -349.079 0.
-89.2186 -318.811 0.
-44.8262 -351.477 0.
-144.241 -582.703 0.
-243.657 -813.928 0.
220.419 -627.926 0.
283.885 -481.583 0.
347.35 -335.24 0.
-428.401 -523.342 0.
-347.156 -338.211 0.
817.042 -460.167 0.
67.6565 -552.897 0.
164.823 -325.633 0.
-48.5457 -288.536 0.
-91.9927 -384.842 0.
-135.44 -481.148 0.
29.6564 -469.422 0.
6.84431 -520.597 0.
-15.9678 -571.771 0.
-110.074 -564.599 0.
-60.6519 -450.131 0.
-11.2301 -335.663 0.
3.40653 -341.494 0.
-8.39209 -373.992 0.
-2.01154 -380.039 0.
52.1221 -255.56 0.
106.256 -131.08 0.
-0.375539 -146.38 0.
-50.5818 -265.421 0.
-100.788 -384.463 0.
180.947 -226.756 0.
261.178 -39.2393 0.
341.409 148.277 0.
216.577 35.7863 0.
145.293 -129.105 0.
1094.22 145.234 0.
-233.309 -478.418 0.
-262.375 -543.757 0.
120.246 -447.133 0.
46.4845 -619.463 0.
-27.2776 -791.794 0.
-194.96 -884.211 0.
-121.42 -711.313 0.
-47.8798 -538.415 0.
-121.266 -544.778 0.
-136.937 -581.088 0.
-152.608 -617.399 0.
-113.262 -542.367 0.
-77.6784 -459.866 0.
4.25807 -381.498 0.
-79.6513 -575.894 0.
-163.561 -770.29 0.
-76.5344 -795.935 0.
-3.73327 -628.654 0.
69.0679 -461.372 0.
-222.353 -503.617 0.
-201.799 -452.597 0.
-181.244 -401.578 0.
363.072 -211.36 0.
334.793 -278.896 0.
-2038.82 -1350.64 0.
143.306 -325.719 0.
188.74 -216.779 0.
-124.189 -294.502 0.
-151.357 -355.415 0.
-178.525 -416.328 0.
-302.017 -398.144 0.
-191.996 -141.393 0.
-81.9748 115.357 0.
206.051 211.38 0.
129.868 31.9513 0.
53.6862 -147.478 0.
-149.019 -344.315 0.
-201.836 -468.239 0.
-129.458 -501.751 0.
-33.2462 -278.643 0.
62.9654 -55.5348 0.
163.115 33.8015 0.
55.5359 -214.873 0.
-52.0432 -463.546 0.
-343.272 -638.766 0.
-311.543 -567.8 0.
-279.813 -496.835 0.
262.211 -240.05 0.
274.151 -213.392 0.
382.236 -144.597 0.
-205.548 -459.35 0.
-237.275 -535.738 0.
124.744 -430.841 0.
121.792 -437.551 0.
118.841 -444.261 0.
38.5457 -497.985 0.
19.5307 -543.34 0.
0.516081 -588.695 0.
152.178 -408.859 0.
251.36 -176.414 0.
350.543 56.0299 0.
408.456 29.4786 0.
364.165 -71.9505 0.
-265.699 -412.487 0.
-251.822 -381.753 0.
-237.946 -351.019 0.
-12.4213 -308.332 0.
-111.988 -539.241 0.
-211.555 -770.149 0.
177.598 -615.414 0.
241.343 -469.295 0.
305.089 -323.176 0.
-243.818 -413.857 0.
-162.292 -229.581 0.
628.421 541.818 0.
-222.496 -941.098 0.
411.404 533.675 0.
144.502 194.845 0.
-54.1293 -264.937 0.
164.068 248.204 0.
-221.19 -1089.25 0.
330.509 201.804 0.
-65.1474 -717.575 0.
145.632 -200.831 0.
322.628 213.089 0.
256.969 60.7481 0.
250.277 137.414 0.
293.562 242.215 0.
-119.79 -185.103 0.
199.163 558.103 0.
-172.463 -309.837 0.
-36.9331 -272.274 0.
-100.147 -417.967 0.
116.849 89.3736 0.
512.741 373.491 0.
460.212 248.33 0.
467.302 262.588 0.
-147.321 -522.27 0.
217.661 331.026 0.
528.108 1424.68 0.
122.398 202.094 0.
-169.262 -478.177 0.
19.6962 -431.563 0.
184.209 -50.4987 0.
307.123 234.197 0.
-105.934 -605.566 0.
-227.589 -889.614 0.
-180.421 -779.531 0.
199.684 238.372 0.
319.555 516.196 0.
-4.52071 -241.054 0.
704.086 785.161 0.
513.255 338.717 0.
-144.312 -532.706 0.
-61.0589 -341.748 0.
-28.6676 -269.225 0.
1.9596 -391.475 0.
27.9085 -333.448 0.
-107.973 -652.766 0.
-89.5714 -206.179 0.
249.404 582.866 0.
-180.581 -422.284 0.
704.348 478.199 0.
725.123 520.999 0.
-977.02 -759.302 0.
64.2786 193.28 0.
-75.8899 -135.499 0.
-203.935 -585.909 0.
-69.6736 -270.974 0.
33.8635 -27.0931 0.
121.353 236.244 0.
312.539 681.151 0.
264.008 566.784 0.
200.965 58.2877 0.
315.066 321.737 0.
485.479 716.484 0.
3.60452 -221.492 0.
95.6675 -9.09102 0.
203.442 441.958 0.
-222.688 -555.911 0.
-366.963 -894.903 0.
182.275 156.873 0.
480.124 855.744 0.
307.078 455.964 0.
-408.319 -417.238 0.
-170.476 137.676 0.
-92.4997 320.487 0.
-79.4552 -1159.33 0.
196.611 -508.042 0.
-149.421 -257.602 0.
208.771 589.147 0.
-186.759 -334.738 0.
406.656 547.418 0.
293.929 279.767 0.
54.4735 -283.113 0.
342.576 -105.076 0.
664.888 648.172 0.
404 40.5751 0.
548.046 572.767 0.
513.093 491.675 0.
113.741 -439.841 0.
509.031 29.94 0.
578.144 192.941 0.
-373.684 -362.765 0.
0.777813 512.086 0.
28.6592 578.175 0.
-44.6763 -426.894 0.
-86.9689 -523.2 0.
193.636 133.881 0.
793.425 940.496 0.
439.915 118.822 0.
545.23 366.698 0.
31.8882 -93.1195 0.
329.583 601.973 0.
41.65 -528.255 0.
-87.753 -656.6 0.
-80.0201 -638.831 0.
-66.9791 -588.514 0.
4.43746 -419.262 0.
75.8546 -250.011 0.
-28.6399 -217.888 0.
-31.7795 -223.408 0.
-34.9199 -228.928 0.
185.096 -172.791 0.
152.312 -246.022 0.
119.528 -319.253 0.
49.8602 -402.438 0.
19.1344 -469.224 0.
-194.431 -622.66 0.
-218.198 -677.516 0.
-241.966 -732.372 0.
-165.945 -696.955 0.
-122.381 -590.137 0.
-78.8171 -483.32 0.
-150.081 -554.111 0.
-227.593 -733.982 0.
-305.105 -913.852 0.
-34.6483 -673.431 0.
77.3126 -411.176 0.
54.6297 -206.699 0.
-246.249 -449.264 0.
-312.123 -603.158 0.
-124.618 -618.645 0.
-101.165 -565.664 0.
-77.7121 -512.683 0.
18.8419 -448.694 0.
16.65 -456.097 0.
14.4585 -463.5 0.
-52.1456 -513.017 0.
-68.6351 -552.147 0.
-85.1244 -591.276 0.
112.443 -524.716 0.
103.57 -544.051 0.
-144.983 -653.44 0.
-100.443 -547.507 0.
-55.904 -441.573 0.
-186.692 -404.327 0.
-129.916 -271.011 0.
-73.1394 -137.697 0.
7.12774 -172.929 0.
-101.054 -432.144 0.
-209.236 -691.361 0.
143.708 -445.562 0.
238.599 -227.182 0.
-2001.42 -1011.37 0.
149.759 -87.464 0.
153.52 -83.1358 0.
-283.596 -292.404 0.
-342.747 -430.592 0.
-401.897 -568.781 0.
3.80972 -470.241 0.
-7.9045 -496.205 0.
-19.6184 -522.17 0.
9.25854 -604.229 0.
-63.3381 -769.766 0.
-135.935 -935.302 0.
-365.317 -860.826 0.
-253.223 -600.265 0.
-228.261 -409.96 0.
-270.387 -511.531 0.
-312.513 -613.103 0.
-244.23 -586.484 0.
-160.079 -392.113 0.
-75.9281 -197.741 0.
-197.833 -329.136 0.
-331.145 -644.514 0.
-464.456 -959.893 0.
-1.22845 -647.114 0.
112.777 -380.443 0.
268.799 -95.6109 0.
-196.596 -549.111 0.
-331.426 -863.092 0.
-202.611 -996.917 0.
-171.912 -926.352 0.
-141.212 -855.786 0.
24.4397 -700.016 0.
85.1256 -553.279 0.
145.811 -406.542 0.
-77.8637 -513.723 0.
-121.891 -614.848 0.
-165.918 -715.973 0.
95.5846 -518.657 0.
149.897 -390.816 0.
-62.3833 -391.061 0.
-53.199 -369.781 0.
-44.0139 -348.5 0.
-7.68682 -360.183 0.
-74.6508 -516.645 0.
-141.615 -673.107 0.
-74.812 -709.823 0.
-80.8597 -721.31 0.
-86.9076 -732.797 0.
-227.432 -708.38 0.
-172.054 -575.582 0.
689.459 -218.102 0.
-58.927 -612.745 0.
-51.6142 -594.426 0.
103.074 -486.23 0.
173.885 -316.555 0.
244.697 -146.88 0.
-231.565 -273.348 0.
-234.32 -279.278 0.
-237.076 -285.208 0.
234.24 -120.492 0.
201.862 -194.479 0.
169.484 -268.465 0.
100.9 -348.406 0.
70.8638 -416.151 0.
-38.7067 -522.162 0.
-62.0048 -577.546 0.
-85.3036 -632.928 0.
-83.0604 -628.085 0.
-39.4509 -521.267 0.
4.1585 -414.45 0.
-460.955 -657.385 0.
-537.971 -837.933 0.
-614.988 -1018.48 0.
198.996 -540.874 0.
311.945 -278.884 0.
-649.425 -477.244 0.
-342.472 -458.281 0.
-407.923 -612.388 0.
-184.352 -612.285 0.
-160.64 -559.285 0.
-136.929 -506.286 0.
102.049 -382.113 0.
99.7198 -389.554 0.
97.3915 -396.996 0.
50.0749 -439.208 0.
33.5454 -478.449 0.
17.0159 -517.69 0.
93.1359 -499.482 0.
84.2383 -519.4 0.
-69.4746 -589.938 0.
-25.451 -484.206 0.
18.5722 -378.474 0.
-395.312 -462.391 0.
-338.753 -329.607 0.
-282.194 -196.822 0.
126.766 -90.6812 0.
17.9678 -349.598 0.
-90.8309 -608.516 0.
-41.8378 -493.33 0.
52.7805 -275.294 0.
-105.708 -167.887 0.
417.481 57.5084 0.
421.039 61.5537 0.
-516.856 -358.131 0.
-575.362 -497.225 0.
-633.867 -636.321 0.
250.731 -333.623 0.
239.318 -359.915 0.
227.905 -386.208 0.
133.693 -518.254 0.
61.4459 -684.087 0.
-10.8016 -849.92 0.
-465.251 -871.91 0.
-352.989 -611.913 0.
-292.356 -404.01 0.
-334.262 -506.512 0.
-376.168 -609.014 0.
-357.273 -603.019 0.
-273.163 -409.248 0.
-189.054 -215.476 0.
34.1366 -198.116 0.
-98.9582 -513.707 0.
-232.053 -829.3 0.
-161.593 -685.396 0.
-47.5425 -418.992 0.
-347.247 -327.732 0.
-75.4552 -464.776 0.
-210.555 -778.765 0.
-123.304 -930.27 0.
-91.8518 -860.299 0.
-60.3998 -790.328 0.
-38.9248 -694.337 0.
21.8077 -547.509 0.
82.5398 -400.681 0.
-256.504 -558.534 0.
-300.372 -659.534 0.
-344.241 -760.534 0.
-105.316 -573.667 0.
-50.371 -446.2 0.
346.688 -183.363 0.
356.449 -162.544 0.
366.212 -141.724 0.
21.4291 -315.443 0.
-45.5196 -471.532 0.
-112.468 -627.621 0.
-255.119 -755.613 0.
-261.137 -767.113 0.
-267.155 -778.613 0.
-206.939 -669.908 0.
-152.275 -537.045 0.
-598.119 -660.397 0.
119.847 -365.329 0.
75.9897 -470.887 0.
65.6717 -525.017 0.
116.156 -412.089 0.
166.641 -299.16 0.
-265.923 -416.439 0.
-252.532 -381.93 0.
-239.141 -347.421 0.
118.346 -237.754 0.
78.3284 -333.693 0.
38.3109 -429.634 0.
131.844 -382.129 0.
136.512 -370.74 0.
-3.1259 -424.304 0.
-8.68459 -437.573 0.
-14.2429 -450.842 0.
-5.94023 -443.384 0.
17.3007 -391.921 0.
40.5416 -340.457 0.
-401.747 -487.107 0.
-375.769 -427.638 0.
-349.79 -368.168 0.
334.254 -74.2917 0.
324.076 -95.0623 0.
566.44 -7.216 0.
-321.861 -386.864 0.
-324.353 -385.867 0.
-48.0591 -253.502 0.
-38.9962 -231.979 0.
-29.9331 -210.455 0.
220.323 -119.435 0.
197.174 -170.693 0.
174.025 -221.951 0.
166.227 -299.826 0.
115.617 -414.38 0.
65.0072 -528.934 0.
24.564 -568.806 0.
19.2674 -583.311 0.
-78.791 -605.853 0.
68.9982 -267.487 0.
216.789 70.88 0.
-210.464 -5.59829 0.
-335.353 -298.167 0.
-460.241 -590.736 0.
13.3825 -352.216 0.
146.844 -38.8256 0.
280.306 274.564 0.
208.058 255.368 0.
178.618 188.161 0.
1115.51 533.241 0.
429.939 35.2269 0.
321.815 -216.901 0.
-590.6 -739.917 0.
-518.683 -571.808 0.
-446.766 -403.699 0.
397.474 -35.317 0.
315.832 -227.429 0.
234.19 -419.542 0.
164.574 -421.723 0.
229.912 -270.73 0.
295.249 -119.736 0.
-263.343 -321.79 0.
-254.516 -296.125 0.
-232.354 -255.597 0.
-190.767 -152.671 0.
-149.18 -49.7458 0.
-162.719 -52.0023 0.
-238.495 -225.851 0.
-314.27 -399.698 0.
13.0905 -303.411 0.
26.4742 -267.689 0.
39.8582 -231.967 0.
34.5157 -239.235 0.
29.4952 -249.535 0.
150.222 -203.656 0.
48.2746 -298.955 0.
21.6627 -360.775 0.
177.843 -330.49 0.
166.671 -352.415 0.
155.498 -374.339 0.
-28.375 -407.816 0.
42.422 -243.935 0.
113.219 -80.0544 0.
-103.301 -160.623 0.
-129.217 -220.985 0.
-155.133 -281.346 0.
-39.3088 -309.896 0.
-81.3571 -409.838 0.
301.906 -314.802 0.
316.313 -281.032 0.
330.719 -247.262 0.
51.6554 -355.771 0.
43.159 -377.17 0.
34.6623 -398.567 0.
-160.272 -412.416 0.
-90.2972 -248.913 0.
-20.3226 -85.4091 0.
104.629 -152.682 0.
3.81428 -390.824 0.
674.204 -82.7026 0.
306.606 -254.257 0.
262.638 -359.461 0.
-111.507 -571.38 0.
-61.2151 -458.384 0.
-10.9228 -345.387 0.
25.2114 -259.11 0.
38.4178 -224.645 0.
51.6241 -190.18 0.
-61.3436 -286.026 0.
-102.107 -380.998 0.
-142.87 -475.971 0.
229.001 -308.451 0.
233.65 -296.636 0.
-138.701 -453.699 0.
-144.475 -466.784 0.
-150.248 -479.869 0.
-53.3825 -430.591 0.
-29.788 -379.28 0.
-6.19353 -327.969 0.
-105.977 -329.642 0.
-79.8071 -270.272 0.
-53.6371 -210.903 0.
-14.1788 -193.42 0.
-25.0391 -213.165 0.
512.037 3.18265 0.
-215.58 -310.004 0.
-217.739 -309.259 0.
-6.35554 -205.892 0.
2.71513 -184.336 0.
11.786 -162.781 0.
180.394 -104.07 0.
157.437 -155.907 0.
134.48 -207.743 0.
238.663 -236.763 0.
188.272 -351.611 0.
137.881 -466.46 0.
-20.7742 -555.434 0.
-26.0804 -570.292 0.
-105.146 -584.372 0.
42.3294 -246.228 0.
189.806 91.9176 0.
4.90097 118.809 0.
-120.743 -173.316 0.
-246.388 -465.442 0.
-73.6296 -359.629 0.
59.8289 -46.3243 0.
193.287 266.979 0.
214.045 289.613 0.
184.76 221.953 0.
385.437 252.455 0.
275.87 0.830704 0.
168.129 -251.512 0.
-124.827 -505.487 0.
-52.237 -337.998 0.
20.3523 -170.508 0.
234.868 -73.9429 0.
152.961 -266.162 0.
71.0544 -458.382 0.
62.3469 -432.744 0.
127.243 -281.221 0.
192.139 -129.699 0.
-205.517 -267.394 0.
-196.631 -241.707 0.
-163.638 -194.617 0.
-121.948 -92.0898 0.
-80.2584 10.4369 0.
-118.041 -0.321227 0.
-193.832 -174.552 0.
-269.622 -348.782 0.
-134.48 -335.623 0.
-120.168 -300.525 0.
-105.855 -265.426 0.
236.923 -120.579 0.
232 -130.99 0.
735.055 76.6067 0.
85.3257 -252.078 0.
58.1022 -312.696 0.
227.822 -278.795 0.
217.188 -300.887 0.
206.554 -322.98 0.
-203.377 -452.473 0.
-132.041 -288.903 0.
-60.7035 -125.334 0.
60.2276 -57.2376 0.
34.2694 -117.53 0.
8.31135 -177.822 0.
72.8055 -230.092 0.
30.7316 -330.144 0.
-27.2952 -425.856 0.
-13.1467 -391.514 0.
1.00137 -357.171 0.
174.19 -272.223 0.
165.434 -293.05 0.
156.678 -313.877 0.
-87.4108 -349.39 0.
-17.6403 -185.624 0.
52.1299 -21.8576 0.
329.707 -27.0313 0.
228.816 -265.639 0.
460.708 1054.89 0.
549.028 -17.59 0.
694.481 322.02 0.
-164.822 -349.299 0.
-3.97834 31.3697 0.
181.191 466.211 0.
346.365 -35.5189 0.
452.935 214.79 0.
482.548 284.853 0.
114.017 490.553 0.
-60.7451 79.9669 0.
-403.598 -722.091 0.
435.757 18.1732 0.
533.382 247.295 0.
-276.159 -496.482 0.
51.0321 270.464 0.
87.9636 360.725 0.
-197.614 -656.197 0.
35.3803 -115.879 0.
-7.96082 -219.414 0.
207.622 -131.881 0.
355.685 212.73 0.
302.772 87.4358 0.
-145.273 187.293 0.
70.5108 693.921 0.
-84.4678 -678.767 0.
2.79245 22.8815 0.
38.4903 103.659 0.
-92.9404 -469.881 0.
246.903 330.368 0.
311.004 487.433 0.
153.703 -51.6618 0.
530.042 825.815 0.
-15.8039 -448.683 0.
112.247 -646.82 0.
16.1701 -870.02 0.
35.2094 -824.455 0.
56.1981 -243.834 0.
370.564 486.086 0.
195.177 190.631 0.
55.8553 -132.286 0.
-5.4754 -273.209 0.
60.5011 -122.511 0.
175.669 147.197 0.
211.725 232.255 0.
285.041 671.826 0.
172.692 408.438 0.
-10.5345 -20.1386 0.
-151.203 -546.811 0.
67.4342 -37.5094 0.
402.588 -84.3779 0.
-0.803165 -304.735 0.
103.874 -61.3573 0.
575.235 275.807 0.
39.8476 -970.378 0.
533.092 183.499 0.
564.38 1030.13 0.
272.303 349.483 0.
-134.842 -599.75 0.
-92.0469 -571.244 0.
31.9842 -281.498 0.
-15.2798 -391.499 0.
-47.2779 24.7308 0.
-105.135 -109 0.
-183.043 -338.596 0.
57.9101 224.152 0.
150.864 442.11 0.
10.0461 239.806 0.
-234.872 -336.235 0.
-0.93491 205.121 0.
133.543 588.818 0.
-23.4174 222.198 0.
-154.756 -84.351 0.
321.425 -269.043 0.
813.003 882.136 0.
305.657 100.704 0.
214.897 12.4106 0.
153.937 -131.722 0.
206.717 -392.067 0.
130.669 -568.702 0.
114.995 -603.996 0.
78.4435 562.669 0.
-293.294 -301.745 0.
-73.1375 214.18 0.
352.53 351.031 0.
207.572 12.4146 0.
213.374 25.1904 0.
228.479 -53.6161 0.
56.8367 -452.201 0.
-609.682 -1129.06 0.
-276.36 -349.102 0.
-96.2005 71.1303 0.
450.264 176.19 0.
597.619 523.193 0.
-2.37885 -873.813 0.
171.758 154.65 0.
192.14 202.507 0.
297.963 447.539 0.
552.596 106.687 0.
553.933 107.726 0.
111.787 57.2635 0.
672.059 269.953 0.
681.661 294.092 0.
84.1378 55.2072 0.
67.4235 17.8932 0.
50.7082 -19.4203 0.
163.989 -76.7917 0.
62.424 -317.514 0.
-39.1412 -558.236 0.
-275.321 -605.004 0.
-178.981 -382.737 0.
-82.6419 -160.47 0.
314.662 67.3295 0.
338.025 121.906 0.
-103.857 -33.8065 0.
-167.938 -182.732 0.
-232.019 -331.657 0.
99.3686 -280.148 0.
92.216 -297.508 0.
85.0631 -314.868 0.
68.997 -310.132 0.
83.6239 -274.314 0.
98.2511 -238.497 0.
-338.737 -457.156 0.
-361.125 -514.471 0.
-282.959 -528.573 0.
-45.8636 -357.385 0.
-7.37686 -272.81 0.
-80.6975 -217.622 0.
-0.306947 -30.1553 0.
80.0836 157.31 0.
229.777 220.554 0.
135.855 -1.42415 0.
41.9326 -223.403 0.
230.85 -171.973 0.
255.05 -117.445 0.
279.251 -62.9168 0.
-2.30622 -230.38 0.
-29.7359 -294.666 0.
89.3024 -300.539 0.
45.2998 -400.643 0.
1.29768 -500.749 0.
-224.389 -595.692 0.
-130.657 -377.571 0.
-36.925 -159.449 0.
-30.9265 -66.773 0.
-25.7441 -55.8902 0.
-20.5617 -45.0072 0.
91.5728 -124.797 0.
3.02762 -329.766 0.
326.111 -359.081 0.
-20.0309 -419.722 0.
24.3089 -313.401 0.
198.534 -171.181 0.
185.454 -195.552 0.
172.373 -219.923 0.
80.3928 -248.328 0.
106.128 -190.747 0.
131.863 -133.166 0.
124.39 -150.716 0.
102.542 -201.185 0.
80.6944 -251.653 0.
-222.642 -297.614 0.
-172.507 -180.976 0.
-99.9019 -62.0788 0.
-85.1699 -27.1487 0.
-70.4384 7.78225 0.
-94.7545 -3.26284 0.
-131.548 -92.6355 0.
-168.341 -182.008 0.
197.312 1.82327 0.
253.232 135.711 0.
309.152 269.599 0.
377.153 180.422 0.
279.071 -48.9154 0.
-511.537 -572.57 0.
-153.072 -364.783 0.
-120.88 -295.496 0.
202.908 -90.1345 0.
244.969 7.13584 0.
287.03 104.406 0.
-111.873 -88.1045 0.
-183.505 -256.239 0.
-255.137 -424.374 0.
62.8933 -403.129 0.
13.1601 -518.251 0.
-36.5726 -633.373 0.
123.368 -423.811 0.
209.509 -220.222 0.
-236.974 -281.417 0.
-313.92 -464.161 0.
-390.867 -646.905 0.
-89.4667 -544.427 0.
21.7573 -284.658 0.
132.981 -24.8885 0.
37.9243 -5.29893 0.
7.62423 -80.3126 0.
-22.676 -155.326 0.
427.31 171.883 0.
528.965 404.712 0.
-40.8966 27.8894 0.
686.174 307.369 0.
695.99 331.874 0.
189.614 131.34 0.
173.759 93.7438 0.
157.903 56.1475 0.
-17.843 -122.031 0.
-118.427 -363.188 0.
-219.011 -604.345 0.
-159.862 -525.318 0.
-63.9946 -303.132 0.
31.8724 -80.9445 0.
158.48 32.8743 0.
181.721 86.5762 0.
-114.721 -6.31421 0.
-178.395 -155.83 0.
-242.069 -305.346 0.
283.789 -170.025 0.
276.354 -187.045 0.
268.918 -204.065 0.
6.06354 -306.537 0.
20.6085 -270.209 0.
35.1536 -233.881 0.
-219.363 -375.792 0.
-242.076 -432.701 0.
-150.229 -441.173 0.
114.225 -257.86 0.
152.614 -173.002 0.
-179.585 -228.372 0.
-99.0779 -41.2983 0.
-18.5709 145.774 0.
195.979 238.383 0.
102.236 15.7646 0.
8.49155 -206.854 0.
149.743 -175.12 0.
174.844 -121.542 0.
199.944 -67.9636 0.
-64.9467 -224.642 0.
-91.2948 -289.841 0.
231.294 -206.747 0.
188.12 -307.619 0.
144.947 -408.491 0.
-305.178 -596.613 0.
-211.106 -378.83 0.
-117.034 -161.046 0.
-14.568 -28.5941 0.
-9.09413 -17.786 0.
-3.62021 -6.97803 0.
194.386 -48.3314 0.
106.034 -253.476 0.
-2231.69 -1424.1 0.
20.5091 -370.647 0.
64.8276 -264.028 0.
-11.6913 -228.859 0.
-24.6194 -253.326 0.
-37.5479 -277.793 0.
178.766 -175.104 0.
204.217 -117.205 0.
229.667 -59.3064 0.
186.522 -91.1014 0.
164.164 -141.228 0.
141.805 -191.354 0.
-250.22 -278.735 0.
-201.127 -160.723 0.
-125.245 -42.8984 0.
-111.35 -7.18155 0.
-97.4559 28.536 0.
-78.4636 33.7198 0.
-116.003 -55.2435 0.
-153.543 -144.207 0.
597.16 202.832 0.
652.745 337.211 0.
708.331 471.59 0.
225.008 146.743 0.
127.177 -82.3408 0.
-441.665 -513.07 0.
-386.972 -433.747 0.
-354.54 -364.346 0.
55.4557 -123.248 0.
98.227 -26.3898 0.
140.998 70.4686 0.
13.5924 -1.70043 0.
-57.2407 -170.339 0.
-128.074 -338.979 0.
119.819 -347.073 0.
70.3848 -462.571 0.
20.9509 -578.069 0.
205.577 -356.317 0.
291.905 -153.098 0.
-208.718 -238.207 0.
-286.354 -420.405 0.
-363.99 -602.604 0.
-353.874 -627.505 0.
-242.613 -367.516 0.
-131.351 -107.528 0.
-25.6185 -0.270322 0.
-56.2819 -75.2957 0.
-86.9455 -150.321 0.
258.895 129.403 0.
360.053 362.103 0.
676.173 -528.948 0.
253.291 -387.778 0.
415.744 -8.22548 0.
147.382 87.937 0.
81.4062 -59.9605 0.
15.4303 -207.858 0.
-186.234 -331.884 0.
-151.226 -245.12 0.
-116.218 -158.356 0.
83.2626 -88.7323 0.
47.7258 -170.046 0.
12.1891 -251.36 0.
-129.205 -304.651 0.
-117.996 -275.468 0.
-88.6533 -239.514 0.
-88.5866 -235.964 0.
-88.5205 -232.415 0.
368.2 -23.2708 0.
387.286 22.2498 0.
406.372 67.7705 0.
44.1617 -46.7467 0.
69.3575 11.0017 0.
94.5533 68.75 0.
-53.2559 -47.4431 0.
-98.54 -151.603 0.
644.176 81.0422 0.
223.286 -44.8876 0.
252.874 25.656 0.
-138.11 -124.046 0.
-205.25 -280.751 0.
-272.39 -437.456 0.
-123.414 -381.611 0.
-49.6013 -212.846 0.
24.2121 -44.0807 0.
219.311 51.8185 0.
190.941 -14.9339 0.
162.571 -81.6862 0.
-1.7832 -137.151 0.
12.4196 -102.798 0.
282.362 25.6373 0.
237.754 -75.0533 0.
193.146 -175.744 0.
-266.788 -423.202 0.
-267.809 -419.63 0.
-268.83 -416.058 0.
-80.6993 -266.784 0.
-19.0146 -119.737 0.
42.6701 27.3093 0.
450.272 318.389 0.
512.294 462.12 0.
-1443.49 -257.918 0.
392.786 491.266 0.
373.987 446.209 0.
154.537 274.571 0.
37.5794 1.87866 0.
-79.3784 -270.814 0.
218.418 -210.792 0.
283.712 -55.5372 0.
349.005 99.7174 0.
246.966 175.037 0.
306.717 314.651 0.
366.467 454.265 0.
-133.698 82.2508 0.
-234.02 -153.686 0.
-284.327 -337.987 0.
-235.354 -224.545 0.
-186.381 -111.104 0.
6.94189 -18.8473 0.
-72.1348 -203.216 0.
-151.212 -387.585 0.
425.531 -231.298 0.
406.718 -275.763 0.
387.906 -320.227 0.
-142.842 -339.182 0.
0.19764 0.751892 0.
395.717 446.329 0.
-177.68 -41.0499 0.
-305.846 -336.728 0.
-93.8174 -412.503 0.
-47.6011 -301.114 0.
-1.38422 -189.725 0.
-60.7448 -199.491 0.
-104.441 -300.249 0.
-148.137 -401.006 0.
167.135 -242.399 0.
205.917 -150.451 0.
244.699 -58.5022 0.
278.49 -44.9845 0.
274.411 -54.8899 0.
-224.959 -266.996 0.
-183.274 -168.773 0.
-141.589 -70.5507 0.
-240.081 -95.2926 0.
-297.461 -228.935 0.
-354.84 -362.577 0.
-158.29 -266.495 0.
-100.464 -130.504 0.
-42.6368 5.48607 0.
-10.585 -248.156 0.
-203.58 -696.982 0.
1033.2 -345.014 0.
-26.3665 -476.275 0.
136.808 -96.8086 0.
19.0709 64.02 0.
-45.9324 -83.4428 0.
-110.936 -230.905 0.
-179.563 -297.456 0.
-143.783 -210.781 0.
-108.004 -124.106 0.
134.198 -36.9921 0.
98.8791 -118.753 0.
63.5597 -200.515 0.
-288.371 -337.961 0.
-276.248 -310.089 0.
243.874 -66.1239 0.
244.04 -62.8155 0.
244.206 -59.508 0.
274.029 -29.9399 0.
293.891 14.7043 0.
313.753 59.3488 0.
-29.7745 -47.3409 0.
-4.81808 10.7382 0.
20.1384 68.817 0.
-88.9956 -34.6964 0.
-134.263 -139.062 0.
-543.153 -398.13 0.
141.678 -45.3532 0.
171.107 25.0649 0.
-15.3757 -41.167 0.
-83.0636 -197.604 0.
-150.751 -354.042 0.
-186.608 -376.79 0.
-112.945 -208.041 0.
-39.2817 -39.2914 0.
273.722 105.691 0.
245.459 38.6728 0.
217.196 -28.3458 0.
140.066 -45.2229 0.
154.737 -11.088 0.
55.8464 -39.3378 0.
11.1306 -139.903 0.
-33.5855 -240.468 0.
-257.233 -387.798 0.
-258.455 -384.04 0.
-259.677 -380.281 0.
21.6257 -193.848 0.
83.4168 -46.7835 0.
145.208 100.281 0.
617.641 424.262 0.
680.184 567.743 0.
1.56491 393.29 0.
398.507 525.475 0.
379.621 480.894 0.
289.889 364.077 0.
173.473 90.9199 0.
57.0568 -182.238 0.
286.522 -147.652 0.
352.868 6.90617 0.
419.214 161.464 0.
97.0207 141.746 0.
157.215 281.622 0.
217.41 421.497 0.
-166.323 100.509 0.
-266.072 -135.778 0.
-291.344 -308.509 0.
-241.842 -195.535 0.
-192.34 -82.5614 0.
286.552 135.203 0.
208.23 -49.9361 0.
129.907 -235.076 0.
112.636 -333.562 0.
93.928 -378.459 0.
75.2209 -423.356 0.
-350.573 -396.287 0.
-206.993 -56.827 0.
734.082 623.138 0.
184.732 146.557 0.
56.3427 -148.736 0.
5.41148 -338.984 0.
51.6434 -227.565 0.
97.8759 -116.147 0.
-139.361 -203.219 0.
-182.729 -304.055 0.
-226.096 -404.891 0.
149.315 -217.528 0.
188.594 -125.919 0.
227.873 -34.3089 0.
85.7782 -96.2152 0.
81.6137 -106.088 0.
-228.658 -235.654 0.
-186.445 -138.074 0.
-144.231 -40.4951 0.
-227.491 -59.8165 0.
-284.848 -193.164 0.
-342.204 -326.511 0.
-109.127 -212.939 0.
-50.9168 -77.1768 0.
7.29372 58.5849 0.
-89.8521 -249.157 0.
-282.663 -698 0.
-127.06 -161.551 0.
-163.724 -262.044 0.
88.946 327.565 0.
486.513 1418.78 0.
-56.7365 156.857 0.
107.894 546.595 0.
39.7959 211.716 0.
-278.576 -528.975 0.
79.9739 309.335 0.
35.4189 -320.164 0.
-119.59 -680.511 0.
-77.523 -580.915 0.
-201.186 172.094 0.
-263.889 32.7708 0.
205.637 -734.89 0.
617.079 225.178 0.
488.733 -73.8973 0.
175.79 -60.6361 0.
-47.1922 -576.79 0.
297.296 229.885 0.
117.56 449.451 0.
-146.953 -168.054 0.
-430.825 -831.178 0.
-320.217 -473.33 0.
-293.692 -413.434 0.
-1006.66 -651.012 0.
-363.239 -1038.69 0.
-36.4124 -269.79 0.
310.921 520.586 0.
434.814 814.573 0.
188.644 245.308 0.
13.4873 235.643 0.
360.727 1049.34 0.
184.344 640.988 0.
379.42 265.589 0.
-1.25709 -623.847 0.
220.334 -107.9 0.
-83.4952 -793.592 0.
-222.542 -1121.75 0.
-438.034 -729.313 0.
-85.3671 92.3752 0.
-114.48 23.2554 0.
-97.9988 17.8049 0.
80.3576 433.423 0.
-20.349 197.695 0.
448.738 629.52 0.
539.983 849.296 0.
144.228 -67.0332 0.
551.75 -8.76546 0.
741.417 429.205 0.
-1406.27 598.279 0.
162.388 -13.9083 0.
-172.264 -796.802 0.
201.903 -59.1717 0.
380.08 358.185 0.
394.416 392.823 0.
430.503 81.1106 0.
559.097 386.028 0.
354.402 -86.4166 0.
-562.932 -1085.21 0.
-657.93 -1303.25 0.
219.865 748.112 0.
-198.611 107.854 0.
-406.79 -375.503 0.
-171.039 4.07821 0.
-215.869 -102.61 0.
-309.646 -323.263 0.
469.122 82.1014 0.
609.158 404.722 0.
398.733 -90.7801 0.
109.765 279.158 0.
-49.1399 -99.5966 0.
11.163 33.4402 0.
-265.878 239.819 0.
-359.053 23.9073 0.
134.204 -367.642 0.
353.818 -129.494 0.
38.9511 -854.071 0.
448.672 538.982 0.
972.119 1765.83 0.
-152.027 -851.13 0.
-276.593 -351.591 0.
462.661 1373.42 0.
378.982 1178.98 0.
225.191 30.5793 0.
-11.5838 -524.16 0.
230.987 39.6158 0.
-283.484 -557.676 0.
-229.311 -433.578 0.
-368.952 -525.611 0.
-162.813 -42.5331 0.
-206.29 -142.642 0.
-412.449 -491.285 0.
123.608 760.774 0.
-318.024 -268.477 0.
-118.931 -292.729 0.
-46.0212 -124.334 0.
25.6121 42.685 0.
64.3252 297.974 0.
-314.828 -586.454 0.
958.515 491.658 0.
246.634 307.76 0.
298.795 429.397 0.
-81.6858 294.346 0.
-223.725 -37.6836 0.
-365.765 -369.713 0.
-102.377 -325.443 0.
-1.42019 -91.9808 0.
99.5355 141.482 0.
137.934 170.161 0.
93.1916 69.1568 0.
48.4498 -31.8477 0.
-69.7165 -63.7398 0.
-61.2629 -34.2003 0.
215.339 103.212 0.
199.086 66.4248 0.
182.834 29.6381 0.
168.684 9.16505 0.
173.273 25.0484 0.
177.861 40.9316 0.
0.831161 5.61014 0.
34.9975 80.9695 0.
69.1636 156.329 0.
-57.7637 33.4226 0.
-112.409 -95.596 0.
344.163 -5.73563 0.
80.0254 -94.9406 0.
91.3372 -66.2499 0.
-8.59963 -33.2535 0.
116.889 262.99 0.
242.378 559.233 0.
319.066 528.983 0.
82.1443 -15.6461 0.
-154.775 -560.272 0.
-95.6573 -397.729 0.
133.325 134.834 0.
362.307 667.396 0.
396.097 436.817 0.
218.724 21.4027 0.
-27.1603 -360.919 0.
98.2644 -71.6604 0.
223.689 217.599 0.
-412.623 79.5368 0.
-440.23 7.73844 0.
-467.836 -64.0597 0.
44.2985 42.2138 0.
-40.9626 -157.724 0.
-126.224 -357.662 0.
889.674 152.272 0.
966.773 331.134 0.
-1610.75 -626.768 0.
369.023 184.221 0.
349.009 138.667 0.
22.0853 -34.0868 0.
2.5396 -79.2121 0.
-17.0057 -124.337 0.
87.7976 -97.3073 0.
96.5088 -73.3831 0.
105.222 -49.4583 0.
-13.2986 -117.727 0.
-35.9501 -167.742 0.
-58.6029 -217.757 0.
-238.172 -102.115 0.
-121.768 171.934 0.
506.319 602.512 0.
341.147 216.514 0.
175.977 -169.483 0.
116.617 -306.905 0.
273.495 56.8426 0.
430.375 420.59 0.
84.618 361.038 0.
46.8672 268.947 0.
9.11692 176.856 0.
-117.195 -1.85961 0.
-189.592 -170.696 0.
-497.076 -434.914 0.
305.799 67.9727 0.
391.862 266.073 0.
46.8699 207.559 0.
-39.9481 4.14041 0.
-126.766 -199.278 0.
-24.3951 -162.314 0.
81.4673 86.781 0.
187.329 335.875 0.
276.899 367.497 0.
220.232 235.617 0.
163.564 103.738 0.
-254.386 -235.585 0.
-341.372 -438.956 0.
-297.042 -531.084 0.
-115.912 -105.261 0.
65.2172 320.56 0.
-93.9839 432.486 0.
-170.897 250.241 0.
-247.809 67.9963 0.
-53.7703 74.4483 0.
-64.3255 50.6851 0.
-74.8801 26.922 0.
138.61 5.59446 0.
64.6299 -166.094 0.
736.882 424.472 0.
469.59 434.914 0.
522.195 556.472 0.
-170.361 286.847 0.
-311.565 -44.7359 0.
-452.77 -376.319 0.
32.2415 -234.945 0.
134.893 -1.80436 0.
237.543 231.338 0.
16.8616 150.082 0.
-27.8064 49.2789 0.
-72.474 -51.5253 0.
235.554 96.7235 0.
243.909 126.509 0.
-200.333 -43.0644 0.
-216.165 -79.9773 0.
-231.995 -116.89 0.
137.927 25.7421 0.
142.513 41.7151 0.
147.099 57.6882 0.
105.594 85.275 0.
141.054 160.257 0.
176.515 235.24 0.
17.7035 96.2972 0.
-36.6914 -32.5666 0.
-1052.57 -574.732 0.
142.556 -36.5823 0.
153.266 -7.88183 0.
-89.1454 -38.5883 0.
35.0967 258.284 0.
159.338 555.156 0.
546.221 656.056 0.
308.953 111.509 0.
71.6867 -433.035 0.
-312.114 -458.569 0.
-82.7103 73.091 0.
146.693 604.752 0.
349.455 451.336 0.
173.16 35.0966 0.
299.539 -190.466 0.
424.849 99.0438 0.
550.157 388.554 0.
-811.066 -60.5072 0.
-838.942 -132.122 0.
-866.817 -203.736 0.
-120.491 3.28406 0.
-206.081 -195.902 0.
-291.672 -395.088 0.
1244.8 336.896 0.
1322.75 515.185 0.
-1940.36 -736.593 0.
531.765 286.508 0.
511.853 241.265 0.
-196.539 -96.7734 0.
-215.803 -142.006 0.
-235.067 -187.239 0.
-213.184 -193.842 0.
-203.803 -169.939 0.
-194.419 -146.036 0.
168.308 -8.42147 0.
144.733 -57.4089 0.
121.156 -106.397 0.
-157.572 -38.2664 0.
-41.4545 236.379 0.
1041.62 864.374 0.
876.075 478.452 0.
710.53 92.5295 0.
-96.5092 -365.482 0.
60.7482 -2.29429 0.
218.008 360.894 0.
35.7697 373.148 0.
-2.36519 281.4 0.
-40.4995 189.651 0.
204.919 167.061 0.
131.634 -1.14386 0.
-164.444 -260.458 0.
162.665 37.3808 0.
248.159 235.705 0.
-248.467 111.744 0.
-335.06 -91.959 0.
-421.652 -295.662 0.
200.469 -34.6837 0.
306.586 214.76 0.
412.702 464.204 0.
179.193 356.867 0.
122.222 225.691 0.
65.2501 94.5159 0.
-369.764 -254.269 0.
-457.059 -457.692 0.
-194.557 -456.183 0.
-13.1416 -30.2195 0.
168.274 395.743 0.
-171.06 430.382 0.
-247.196 247.793 0.
-323.332 65.2036 0.
-153.918 64.7891 0.
-164.022 41.173 0.
-174.126 17.5567 0.
402.478 147.797 0.
328.696 -22.9336 0.
